 "x_c",  "y_c",  "u_c",  "v_c",  "exx",  "eyy",  "exy",  "e1",  "e2",  "gamma",  "e_vonmises",  "sigma",  "x",  "y",  "u",  "v"
-700,715,0,0,0,0,0,0,0,0,0,-1,524,309,0,0
-693,715,0,0,0,0,0,0,0,0,0,-1,531,309,0,0
-686,715,0,0,0,0,0,0,0,0,0,-1,538,309,0,0
-679,715,0,0,0,0,0,0,0,0,0,-1,545,309,0,0
-672,715,0,0,0,0,0,0,0,0,0,-1,552,309,0,0
-665,715,0,0,0,0,0,0,0,0,0,-1,559,309,0,0
-658,715,0,0,0,0,0,0,0,0,0,-1,566,309,0,0
-651,715,0,0,0,0,0,0,0,0,0,-1,573,309,0,0
-644,715,0,0,0,0,0,0,0,0,0,-1,580,309,0,0
-637,715,0,0,0,0,0,0,0,0,0,-1,587,309,0,0
-630,715,0,0,0,0,0,0,0,0,0,-1,594,309,0,0
-623,715,0,0,0,0,0,0,0,0,0,-1,601,309,0,0
-616,715,0,0,0,0,0,0,0,0,0,-1,608,309,0,0
-609,715,0,0,0,0,0,0,0,0,0,-1,615,309,0,0
-602,715,0,0,0,0,0,0,0,0,0,-1,622,309,0,0
-595,715,0,0,0,0,0,0,0,0,0,-1,629,309,0,0
-588,715,0,0,0,0,0,0,0,0,0,-1,636,309,0,0
-581,715,0,0,0,0,0,0,0,0,0,-1,643,309,0,0
-574,715,0,0,0,0,0,0,0,0,0,-1,650,309,0,0
-567,715,0,0,0,0,0,0,0,0,0,-1,657,309,0,0
-560,715,0,0,0,0,0,0,0,0,0,-1,664,309,0,0
-553,715,0,0,0,0,0,0,0,0,0,-1,671,309,0,0
-546,715,0,0,0,0,0,0,0,0,0,-1,678,309,0,0
-539,715,0,0,0,0,0,0,0,0,0,-1,685,309,0,0
-532,715,0,0,0,0,0,0,0,0,0,-1,692,309,0,0
-525,715,0,0,0,0,0,0,0,0,0,-1,699,309,0,0
-518,715,0,0,0,0,0,0,0,0,0,-1,706,309,0,0
-511,715,0,0,0,0,0,0,0,0,0,-1,713,309,0,0
-504,715,0,0,0,0,0,0,0,0,0,-1,720,309,0,0
-497,715,0,0,0,0,0,0,0,0,0,-1,727,309,0,0
-490,715,0,0,0,0,0,0,0,0,0,-1,734,309,0,0
-483,715,0,0,0,0,0,0,0,0,0,-1,741,309,0,0
-476,715,0,0,0,0,0,0,0,0,0,-1,748,309,0,0
-469,715,0,0,0,0,0,0,0,0,0,-1,755,309,0,0
-462,715,0,0,0,0,0,0,0,0,0,-1,762,309,0,0
-455,715,0,0,0,0,0,0,0,0,0,-1,769,309,0,0
-448,715,0,0,0,0,0,0,0,0,0,-1,776,309,0,0
-441,715,0,0,0,0,0,0,0,0,0,-1,783,309,0,0
-434,715,0,0,0,0,0,0,0,0,0,-1,790,309,0,0
-427,715,0,0,0,0,0,0,0,0,0,-1,797,309,0,0
-420,715,0,0,0,0,0,0,0,0,0,-1,804,309,0,0
-413,715,0,0,0,0,0,0,0,0,0,-1,811,309,0,0
-406,715,0,0,0,0,0,0,0,0,0,-1,818,309,0,0
-399,715,0,0,0,0,0,0,0,0,0,-1,825,309,0,0
-392,715,0,0,0,0,0,0,0,0,0,-1,832,309,0,0
-385,715,0,0,0,0,0,0,0,0,0,-1,839,309,0,0
-378,715,0,0,0,0,0,0,0,0,0,-1,846,309,0,0
-371,715,0,0,0,0,0,0,0,0,0,-1,853,309,0,0
-364,715,0,0,0,0,0,0,0,0,0,-1,860,309,0,0
-357,715,0,0,0,0,0,0,0,0,0,-1,867,309,0,0
-350,715,0,0,0,0,0,0,0,0,0,-1,874,309,0,0
-343,715,0,0,0,0,0,0,0,0,0,-1,881,309,0,0
-336,715,0,0,0,0,0,0,0,0,0,-1,888,309,0,0
-329,715,0,0,0,0,0,0,0,0,0,-1,895,309,0,0
-322,715,0,0,0,0,0,0,0,0,0,-1,902,309,0,0
-315,715,0,0,0,0,0,0,0,0,0,-1,909,309,0,0
-308,715,0,0,0,0,0,0,0,0,0,-1,916,309,0,0
-301,715,0,0,0,0,0,0,0,0,0,-1,923,309,0,0
-294,715,0,0,0,0,0,0,0,0,0,-1,930,309,0,0
-287,715,0,0,0,0,0,0,0,0,0,-1,937,309,0,0
-280,715,0,0,0,0,0,0,0,0,0,-1,944,309,0,0
-273,715,0,0,0,0,0,0,0,0,0,-1,951,309,0,0
-266,715,0,0,0,0,0,0,0,0,0,-1,958,309,0,0
-259,715,0,0,0,0,0,0,0,0,0,-1,965,309,0,0
-252,715,0,0,0,0,0,0,0,0,0,-1,972,309,0,0
-245,715,0,0,0,0,0,0,0,0,0,-1,979,309,0,0
-238,715,0,0,0,0,0,0,0,0,0,-1,986,309,0,0
-231,715,0,0,0,0,0,0,0,0,0,-1,993,309,0,0
-224,715,0,0,0,0,0,0,0,0,0,-1,1000,309,0,0
-217,715,0,0,0,0,0,0,0,0,0,-1,1007,309,0,0
-210,715,0,0,0,0,0,0,0,0,0,-1,1014,309,0,0
-203,715,0,0,0,0,0,0,0,0,0,-1,1021,309,0,0
-196,715,0,0,0,0,0,0,0,0,0,-1,1028,309,0,0
-189,715,0,0,0,0,0,0,0,0,0,-1,1035,309,0,0
-182,715,0,0,0,0,0,0,0,0,0,-1,1042,309,0,0
-175,715,0,0,0,0,0,0,0,0,0,-1,1049,309,0,0
-168,715,0,0,0,0,0,0,0,0,0,-1,1056,309,0,0
-161,715,0,0,0,0,0,0,0,0,0,-1,1063,309,0,0
-154,715,0,0,0,0,0,0,0,0,0,-1,1070,309,0,0
-147,715,0,0,0,0,0,0,0,0,0,-1,1077,309,0,0
-140,715,0,0,0,0,0,0,0,0,0,-1,1084,309,0,0
-133,715,0,0,0,0,0,0,0,0,0,-1,1091,309,0,0
-126,715,0,0,0,0,0,0,0,0,0,-1,1098,309,0,0
-119,715,0,0,0,0,0,0,0,0,0,-1,1105,309,0,0
-112,715,0,0,0,0,0,0,0,0,0,-1,1112,309,0,0
-105,715,0,0,0,0,0,0,0,0,0,-1,1119,309,0,0
-98,715,0,0,0,0,0,0,0,0,0,-1,1126,309,0,0
-91,715,0,0,0,0,0,0,0,0,0,-1,1133,309,0,0
-84,715,0,0,0,0,0,0,0,0,0,-1,1140,309,0,0
-77,715,0,0,0,0,0,0,0,0,0,-1,1147,309,0,0
-70,715,0,0,0,0,0,0,0,0,0,-1,1154,309,0,0
-63,715,0,0,0,0,0,0,0,0,0,-1,1161,309,0,0
-56,715,0,0,0,0,0,0,0,0,0,-1,1168,309,0,0
-49,715,0,0,0,0,0,0,0,0,0,-1,1175,309,0,0
-42,715,0,0,0,0,0,0,0,0,0,-1,1182,309,0,0
-35,715,0,0,0,0,0,0,0,0,0,-1,1189,309,0,0
-28,715,0,0,0,0,0,0,0,0,0,-1,1196,309,0,0
-21,715,0,0,0,0,0,0,0,0,0,-1,1203,309,0,0
-14,715,0,0,0,0,0,0,0,0,0,-1,1210,309,0,0
-7,715,0,0,0,0,0,0,0,0,0,-1,1217,309,0,0
0,715,0,0,0,0,0,0,0,0,0,-1,1224,309,0,0
7,715,0,0,0,0,0,0,0,0,0,-1,1231,309,0,0
14,715,0,0,0,0,0,0,0,0,0,-1,1238,309,0,0
21,715,0,0,0,0,0,0,0,0,0,-1,1245,309,0,0
28,715,0,0,0,0,0,0,0,0,0,-1,1252,309,0,0
35,715,0,0,0,0,0,0,0,0,0,-1,1259,309,0,0
42,715,0,0,0,0,0,0,0,0,0,-1,1266,309,0,0
49,715,0,0,0,0,0,0,0,0,0,-1,1273,309,0,0
56,715,0,0,0,0,0,0,0,0,0,-1,1280,309,0,0
63,715,5.83655,-25.1574,0.0473118,0.0616246,0.0226711,0.078242,0.0306944,0.93828,0.045521,0.0427033,1287,309,5.83659,25.1574
70,715,6.51709,-25.7484,0.0452153,0.0500055,0.028369,0.0760803,0.0191405,0.827511,0.0456964,0.0423546,1294,309,6.51711,25.7484
77,715,0,0,0,0,0,0,0,0,0,-1,1301,309,0,0
84,715,0,0,0,0,0,0,0,0,0,-1,1308,309,0,0
91,715,0,0,0,0,0,0,0,0,0,-1,1315,309,0,0
98,715,0,0,0,0,0,0,0,0,0,-1,1322,309,0,0
105,715,0,0,0,0,0,0,0,0,0,-1,1329,309,0,0
112,715,0,0,0,0,0,0,0,0,0,-1,1336,309,0,0
119,715,0,0,0,0,0,0,0,0,0,-1,1343,309,0,0
126,715,0,0,0,0,0,0,0,0,0,-1,1350,309,0,0
133,715,0,0,0,0,0,0,0,0,0,-1,1357,309,0,0
140,715,0,0,0,0,0,0,0,0,0,-1,1364,309,0,0
147,715,0,0,0,0,0,0,0,0,0,-1,1371,309,0,0
154,715,0,0,0,0,0,0,0,0,0,-1,1378,309,0,0
161,715,0,0,0,0,0,0,0,0,0,-1,1385,309,0,0
168,715,0,0,0,0,0,0,0,0,0,-1,1392,309,0,0
175,715,0,0,0,0,0,0,0,0,0,-1,1399,309,0,0
182,715,0,0,0,0,0,0,0,0,0,-1,1406,309,0,0
189,715,0,0,0,0,0,0,0,0,0,-1,1413,309,0,0
196,715,0,0,0,0,0,0,0,0,0,-1,1420,309,0,0
203,715,0,0,0,0,0,0,0,0,0,-1,1427,309,0,0
210,715,0,0,0,0,0,0,0,0,0,-1,1434,309,0,0
217,715,0,0,0,0,0,0,0,0,0,-1,1441,309,0,0
224,715,0,0,0,0,0,0,0,0,0,-1,1448,309,0,0
231,715,0,0,0,0,0,0,0,0,0,-1,1455,309,0,0
238,715,0,0,0,0,0,0,0,0,0,-1,1462,309,0,0
245,715,0,0,0,0,0,0,0,0,0,-1,1469,309,0,0
252,715,0,0,0,0,0,0,0,0,0,-1,1476,309,0,0
259,715,0,0,0,0,0,0,0,0,0,-1,1483,309,0,0
266,715,0,0,0,0,0,0,0,0,0,-1,1490,309,0,0
273,715,0,0,0,0,0,0,0,0,0,-1,1497,309,0,0
280,715,0,0,0,0,0,0,0,0,0,-1,1504,309,0,0
287,715,0,0,0,0,0,0,0,0,0,-1,1511,309,0,0
294,715,0,0,0,0,0,0,0,0,0,-1,1518,309,0,0
301,715,0,0,0,0,0,0,0,0,0,-1,1525,309,0,0
308,715,0,0,0,0,0,0,0,0,0,-1,1532,309,0,0
315,715,0,0,0,0,0,0,0,0,0,-1,1539,309,0,0
322,715,0,0,0,0,0,0,0,0,0,-1,1546,309,0,0
329,715,0,0,0,0,0,0,0,0,0,-1,1553,309,0,0
336,715,0,0,0,0,0,0,0,0,0,-1,1560,309,0,0
343,715,0,0,0,0,0,0,0,0,0,-1,1567,309,0,0
350,715,0,0,0,0,0,0,0,0,0,-1,1574,309,0,0
357,715,0,0,0,0,0,0,0,0,0,-1,1581,309,0,0
364,715,0,0,0,0,0,0,0,0,0,-1,1588,309,0,0
371,715,0,0,0,0,0,0,0,0,0,-1,1595,309,0,0
378,715,0,0,0,0,0,0,0,0,0,-1,1602,309,0,0
385,715,0,0,0,0,0,0,0,0,0,-1,1609,309,0,0
392,715,0,0,0,0,0,0,0,0,0,-1,1616,309,0,0
399,715,0,0,0,0,0,0,0,0,0,-1,1623,309,0,0
406,715,0,0,0,0,0,0,0,0,0,-1,1630,309,0,0
413,715,0,0,0,0,0,0,0,0,0,-1,1637,309,0,0
420,715,0,0,0,0,0,0,0,0,0,-1,1644,309,0,0
427,715,0,0,0,0,0,0,0,0,0,-1,1651,309,0,0
434,715,0,0,0,0,0,0,0,0,0,-1,1658,309,0,0
441,715,0,0,0,0,0,0,0,0,0,-1,1665,309,0,0
448,715,0,0,0,0,0,0,0,0,0,-1,1672,309,0,0
455,715,0,0,0,0,0,0,0,0,0,-1,1679,309,0,0
462,715,0,0,0,0,0,0,0,0,0,-1,1686,309,0,0
469,715,0,0,0,0,0,0,0,0,0,-1,1693,309,0,0
476,715,0,0,0,0,0,0,0,0,0,-1,1700,309,0,0
483,715,0,0,0,0,0,0,0,0,0,-1,1707,309,0,0
490,715,0,0,0,0,0,0,0,0,0,-1,1714,309,0,0
497,715,0,0,0,0,0,0,0,0,0,-1,1721,309,0,0
504,715,0,0,0,0,0,0,0,0,0,-1,1728,309,0,0
511,715,0,0,0,0,0,0,0,0,0,-1,1735,309,0,0
518,715,0,0,0,0,0,0,0,0,0,-1,1742,309,0,0
525,715,0,0,0,0,0,0,0,0,0,-1,1749,309,0,0
532,715,0,0,0,0,0,0,0,0,0,-1,1756,309,0,0
539,715,0,0,0,0,0,0,0,0,0,-1,1763,309,0,0
546,715,0,0,0,0,0,0,0,0,0,-1,1770,309,0,0
553,715,0,0,0,0,0,0,0,0,0,-1,1777,309,0,0
560,715,0,0,0,0,0,0,0,0,0,-1,1784,309,0,0
567,715,0,0,0,0,0,0,0,0,0,-1,1791,309,0,0
574,715,0,0,0,0,0,0,0,0,0,-1,1798,309,0,0
581,715,0,0,0,0,0,0,0,0,0,-1,1805,309,0,0
588,715,0,0,0,0,0,0,0,0,0,-1,1812,309,0,0
595,715,0,0,0,0,0,0,0,0,0,-1,1819,309,0,0
602,715,0,0,0,0,0,0,0,0,0,-1,1826,309,0,0
609,715,0,0,0,0,0,0,0,0,0,-1,1833,309,0,0
616,715,0,0,0,0,0,0,0,0,0,-1,1840,309,0,0
623,715,0,0,0,0,0,0,0,0,0,-1,1847,309,0,0
630,715,0,0,0,0,0,0,0,0,0,-1,1854,309,0,0
637,715,0,0,0,0,0,0,0,0,0,-1,1861,309,0,0
644,715,0,0,0,0,0,0,0,0,0,-1,1868,309,0,0
651,715,0,0,0,0,0,0,0,0,0,-1,1875,309,0,0
658,715,0,0,0,0,0,0,0,0,0,-1,1882,309,0,0
665,715,0,0,0,0,0,0,0,0,0,-1,1889,309,0,0
672,715,0,0,0,0,0,0,0,0,0,-1,1896,309,0,0
679,715,0,0,0,0,0,0,0,0,0,-1,1903,309,0,0
686,715,0,0,0,0,0,0,0,0,0,-1,1910,309,0,0
693,715,0,0,0,0,0,0,0,0,0,-1,1917,309,0,0
700,715,0,0,0,0,0,0,0,0,0,-1,1924,309,0,0
707,715,0,0,0,0,0,0,0,0,0,-1,1931,309,0,0
714,715,0,0,0,0,0,0,0,0,0,-1,1938,309,0,0
721,715,0,0,0,0,0,0,0,0,0,-1,1945,309,0,0
728,715,0,0,0,0,0,0,0,0,0,-1,1952,309,0,0
735,715,0,0,0,0,0,0,0,0,0,-1,1959,309,0,0
742,715,0,0,0,0,0,0,0,0,0,-1,1966,309,0,0
749,715,0,0,0,0,0,0,0,0,0,-1,1973,309,0,0
756,715,0,0,0,0,0,0,0,0,0,-1,1980,309,0,0
763,715,0,0,0,0,0,0,0,0,0,-1,1987,309,0,0
770,715,0,0,0,0,0,0,0,0,0,-1,1994,309,0,0
777,715,0,0,0,0,0,0,0,0,0,-1,2001,309,0,0
784,715,0,0,0,0,0,0,0,0,0,-1,2008,309,0,0
791,715,0,0,0,0,0,0,0,0,0,-1,2015,309,0,0
798,715,0,0,0,0,0,0,0,0,0,-1,2022,309,0,0
805,715,0,0,0,0,0,0,0,0,0,-1,2029,309,0,0
812,715,0,0,0,0,0,0,0,0,0,-1,2036,309,0,0
-700,708,0,0,0,0,0,0,0,0,0,-1,524,316,0,0
-693,708,0,0,0,0,0,0,0,0,0,-1,531,316,0,0
-686,708,0,0,0,0,0,0,0,0,0,-1,538,316,0,0
-679,708,0,0,0,0,0,0,0,0,0,-1,545,316,0,0
-672,708,0,0,0,0,0,0,0,0,0,-1,552,316,0,0
-665,708,0,0,0,0,0,0,0,0,0,-1,559,316,0,0
-658,708,0,0,0,0,0,0,0,0,0,-1,566,316,0,0
-651,708,0,0,0,0,0,0,0,0,0,-1,573,316,0,0
-644,708,0,0,0,0,0,0,0,0,0,-1,580,316,0,0
-637,708,0,0,0,0,0,0,0,0,0,-1,587,316,0,0
-630,708,0,0,0,0,0,0,0,0,0,-1,594,316,0,0
-623,708,0,0,0,0,0,0,0,0,0,-1,601,316,0,0
-616,708,0,0,0,0,0,0,0,0,0,-1,608,316,0,0
-609,708,0,0,0,0,0,0,0,0,0,-1,615,316,0,0
-602,708,0,0,0,0,0,0,0,0,0,-1,622,316,0,0
-595,708,0,0,0,0,0,0,0,0,0,-1,629,316,0,0
-588,708,0,0,0,0,0,0,0,0,0,-1,636,316,0,0
-581,708,0,0,0,0,0,0,0,0,0,-1,643,316,0,0
-574,708,0,0,0,0,0,0,0,0,0,-1,650,316,0,0
-567,708,0,0,0,0,0,0,0,0,0,-1,657,316,0,0
-560,708,0,0,0,0,0,0,0,0,0,-1,664,316,0,0
-553,708,0,0,0,0,0,0,0,0,0,-1,671,316,0,0
-546,708,0,0,0,0,0,0,0,0,0,-1,678,316,0,0
-539,708,0,0,0,0,0,0,0,0,0,-1,685,316,0,0
-532,708,0,0,0,0,0,0,0,0,0,-1,692,316,0,0
-525,708,0,0,0,0,0,0,0,0,0,-1,699,316,0,0
-518,708,0,0,0,0,0,0,0,0,0,-1,706,316,0,0
-511,708,0,0,0,0,0,0,0,0,0,-1,713,316,0,0
-504,708,0,0,0,0,0,0,0,0,0,-1,720,316,0,0
-497,708,0,0,0,0,0,0,0,0,0,-1,727,316,0,0
-490,708,0,0,0,0,0,0,0,0,0,-1,734,316,0,0
-483,708,0,0,0,0,0,0,0,0,0,-1,741,316,0,0
-476,708,0,0,0,0,0,0,0,0,0,-1,748,316,0,0
-469,708,0,0,0,0,0,0,0,0,0,-1,755,316,0,0
-462,708,0,0,0,0,0,0,0,0,0,-1,762,316,0,0
-455,708,0,0,0,0,0,0,0,0,0,-1,769,316,0,0
-448,708,0,0,0,0,0,0,0,0,0,-1,776,316,0,0
-441,708,0,0,0,0,0,0,0,0,0,-1,783,316,0,0
-434,708,0,0,0,0,0,0,0,0,0,-1,790,316,0,0
-427,708,0,0,0,0,0,0,0,0,0,-1,797,316,0,0
-420,708,0,0,0,0,0,0,0,0,0,-1,804,316,0,0
-413,708,0,0,0,0,0,0,0,0,0,-1,811,316,0,0
-406,708,0,0,0,0,0,0,0,0,0,-1,818,316,0,0
-399,708,0,0,0,0,0,0,0,0,0,-1,825,316,0,0
-392,708,0,0,0,0,0,0,0,0,0,-1,832,316,0,0
-385,708,0,0,0,0,0,0,0,0,0,-1,839,316,0,0
-378,708,0,0,0,0,0,0,0,0,0,-1,846,316,0,0
-371,708,0,0,0,0,0,0,0,0,0,-1,853,316,0,0
-364,708,0,0,0,0,0,0,0,0,0,-1,860,316,0,0
-357,708,0,0,0,0,0,0,0,0,0,-1,867,316,0,0
-350,708,0,0,0,0,0,0,0,0,0,-1,874,316,0,0
-343,708,0,0,0,0,0,0,0,0,0,-1,881,316,0,0
-336,708,0,0,0,0,0,0,0,0,0,-1,888,316,0,0
-329,708,0,0,0,0,0,0,0,0,0,-1,895,316,0,0
-322,708,0,0,0,0,0,0,0,0,0,-1,902,316,0,0
-315,708,0,0,0,0,0,0,0,0,0,-1,909,316,0,0
-308,708,0,0,0,0,0,0,0,0,0,-1,916,316,0,0
-301,708,0,0,0,0,0,0,0,0,0,-1,923,316,0,0
-294,708,0,0,0,0,0,0,0,0,0,-1,930,316,0,0
-287,708,0,0,0,0,0,0,0,0,0,-1,937,316,0,0
-280,708,0,0,0,0,0,0,0,0,0,-1,944,316,0,0
-273,708,0,0,0,0,0,0,0,0,0,-1,951,316,0,0
-266,708,0,0,0,0,0,0,0,0,0,-1,958,316,0,0
-259,708,0,0,0,0,0,0,0,0,0,-1,965,316,0,0
-252,708,0,0,0,0,0,0,0,0,0,-1,972,316,0,0
-245,708,0,0,0,0,0,0,0,0,0,-1,979,316,0,0
-238,708,0,0,0,0,0,0,0,0,0,-1,986,316,0,0
-231,708,0,0,0,0,0,0,0,0,0,-1,993,316,0,0
-224,708,0,0,0,0,0,0,0,0,0,-1,1000,316,0,0
-217,708,0,0,0,0,0,0,0,0,0,-1,1007,316,0,0
-210,708,0,0,0,0,0,0,0,0,0,-1,1014,316,0,0
-203,708,0,0,0,0,0,0,0,0,0,-1,1021,316,0,0
-196,708,0,0,0,0,0,0,0,0,0,-1,1028,316,0,0
-189,708,0,0,0,0,0,0,0,0,0,-1,1035,316,0,0
-182,708,0,0,0,0,0,0,0,0,0,-1,1042,316,0,0
-175,708,0,0,0,0,0,0,0,0,0,-1,1049,316,0,0
-168,708,0,0,0,0,0,0,0,0,0,-1,1056,316,0,0
-161,708,0,0,0,0,0,0,0,0,0,-1,1063,316,0,0
-154,708,0,0,0,0,0,0,0,0,0,-1,1070,316,0,0
-147,708,0,0,0,0,0,0,0,0,0,-1,1077,316,0,0
-140,708,0,0,0,0,0,0,0,0,0,-1,1084,316,0,0
-133,708,0,0,0,0,0,0,0,0,0,-1,1091,316,0,0
-126,708,0,0,0,0,0,0,0,0,0,-1,1098,316,0,0
-119,708,0,0,0,0,0,0,0,0,0,-1,1105,316,0,0
-112,708,0,0,0,0,0,0,0,0,0,-1,1112,316,0,0
-105,708,0,0,0,0,0,0,0,0,0,-1,1119,316,0,0
-98,708,0,0,0,0,0,0,0,0,0,-1,1126,316,0,0
-91,708,0,0,0,0,0,0,0,0,0,-1,1133,316,0,0
-84,708,0,0,0,0,0,0,0,0,0,-1,1140,316,0,0
-77,708,0,0,0,0,0,0,0,0,0,-1,1147,316,0,0
-70,708,0,0,0,0,0,0,0,0,0,-1,1154,316,0,0
-63,708,0,0,0,0,0,0,0,0,0,-1,1161,316,0,0
-56,708,0,0,0,0,0,0,0,0,0,-1,1168,316,0,0
-49,708,0,0,0,0,0,0,0,0,0,-1,1175,316,0,0
-42,708,0,0,0,0,0,0,0,0,0,-1,1182,316,0,0
-35,708,-2.71204,-6.31558,0,0,0,0,0,0,0,-1,1189,316,-2.712,6.3156
-28,708,-2.92371,-5.53253,0,0,0,0,0,0,0,-1,1196,316,-2.92375,5.53254
-21,708,-0.417969,-24.5911,0,0,0,0,0,0,0,-1,1203,316,-0.418022,24.5911
-14,708,0.848511,-24.4586,0,0,0,0,0,0,0,-1,1210,316,0.848468,24.4586
-7,708,1.87891,-24.2607,0,0,0,0,0,0,0,-1,1217,316,1.87896,24.2607
0,708,2.52808,-24.1605,0,0,0,0,0,0,0,-1,1224,316,2.52803,24.1605
7,708,4.75049,-22.3922,0,0,0,0,0,0,0,-1,1231,316,4.75048,22.3922
14,708,4.71716,-22.7625,0.00303688,0.154934,-0.00800021,0.155354,0.00261669,-1.51832,0.102708,0.044751,1238,316,4.7172,22.7625
21,708,4.73853,-23.1264,0.00928425,0.140005,-0.00690096,0.140368,0.00892094,-1.5182,0.0907513,0.0459772,1245,316,4.73847,23.1264
28,708,4.80457,-23.517,0.0157462,0.124841,-0.0038389,0.124976,0.0156113,-1.53567,0.0786321,0.0473045,1252,316,4.80457,23.517
35,708,4.59399,-23.6384,0,0,0,0,0,0,0,-1,1259,316,4.59397,23.6384
42,708,4.63257,-24.115,0.0286823,0.0951938,0.00634456,0.0957936,0.0280825,1.47654,0.0568621,0.0413605,1266,316,4.63263,24.115
49,708,4.63708,-24.5049,0.0330319,0.0816732,0.0119983,0.0844718,0.0302333,1.34164,0.0494219,0.0404555,1273,316,4.6371,24.5049
56,708,4.92859,-25.0341,0,0,0,0,0,0,0,-1,1280,316,4.92859,25.0341
63,708,5.3335,-25.0494,0.0358852,0.0607423,0.022938,0.0744025,0.022225,1.03367,0.0441013,0.0414394,1287,316,5.33347,25.0494
70,708,6.04431,-25.2784,0.0342486,0.0528326,0.0270877,0.0721778,0.0149035,0.950626,0.0440002,0.0422532,1294,316,6.04433,25.2784
77,708,6.59851,-25.7091,0.0303038,0.0489269,0.0304269,0.0714352,0.00779554,0.933888,0.0452494,0.0441274,1301,316,6.5985,25.7091
84,708,6.67871,-24.6723,0.0233333,0.0501541,0.0314468,0.0709305,0.00255692,0.986946,0.0464582,0.048552,1308,316,6.67865,24.6723
91,708,7.02258,-24.4226,0.0137881,0.0556536,0.0300057,0.0713067,-0.00186503,1.08996,0.0481715,0.049087,1315,316,7.02264,24.4226
98,708,6.31421,-24.3841,0.00436989,0.060964,0.0275483,0.0721591,-0.00682521,1.1848,0.050535,0.0469043,1322,316,6.31424,24.3841
105,708,5.86609,-24.532,-0.00526205,0.0679504,0.0236568,0.0749292,-0.0122409,1.28393,0.0544933,0.0493776,1329,316,5.86612,24.532
112,708,5.79626,-24.4122,-0.0147519,0.0765717,0.0180546,0.0800115,-0.0181917,1.38253,0.0603262,0.0458141,1336,316,5.79631,24.4122
119,708,5.44763,-24.5851,-0.0244935,0.0853771,0.0128431,0.0868584,-0.0259748,1.45597,0.0682322,0.0420532,1343,316,5.44769,24.5852
126,708,5.14587,-24.5461,0,0,0,0,0,0,0,-1,1350,316,5.14588,24.5461
133,708,4.74341,-24.4254,0,0,0,0,0,0,0,-1,1357,316,4.74339,24.4253
140,708,4.23853,-24.4416,0,0,0,0,0,0,0,-1,1364,316,4.23851,24.4416
147,708,3.61743,-24.5245,0,0,0,0,0,0,0,-1,1371,316,3.61744,24.5245
154,708,0,0,0,0,0,0,0,0,0,-1,1378,316,0,0
161,708,0,0,0,0,0,0,0,0,0,-1,1385,316,0,0
168,708,0,0,0,0,0,0,0,0,0,-1,1392,316,0,0
175,708,0,0,0,0,0,0,0,0,0,-1,1399,316,0,0
182,708,0,0,0,0,0,0,0,0,0,-1,1406,316,0,0
189,708,0,0,0,0,0,0,0,0,0,-1,1413,316,0,0
196,708,0,0,0,0,0,0,0,0,0,-1,1420,316,0,0
203,708,0,0,0,0,0,0,0,0,0,-1,1427,316,0,0
210,708,0,0,0,0,0,0,0,0,0,-1,1434,316,0,0
217,708,0,0,0,0,0,0,0,0,0,-1,1441,316,0,0
224,708,0,0,0,0,0,0,0,0,0,-1,1448,316,0,0
231,708,0,0,0,0,0,0,0,0,0,-1,1455,316,0,0
238,708,0,0,0,0,0,0,0,0,0,-1,1462,316,0,0
245,708,0,0,0,0,0,0,0,0,0,-1,1469,316,0,0
252,708,0,0,0,0,0,0,0,0,0,-1,1476,316,0,0
259,708,0,0,0,0,0,0,0,0,0,-1,1483,316,0,0
266,708,0,0,0,0,0,0,0,0,0,-1,1490,316,0,0
273,708,0,0,0,0,0,0,0,0,0,-1,1497,316,0,0
280,708,0,0,0,0,0,0,0,0,0,-1,1504,316,0,0
287,708,0,0,0,0,0,0,0,0,0,-1,1511,316,0,0
294,708,0,0,0,0,0,0,0,0,0,-1,1518,316,0,0
301,708,0,0,0,0,0,0,0,0,0,-1,1525,316,0,0
308,708,0,0,0,0,0,0,0,0,0,-1,1532,316,0,0
315,708,0,0,0,0,0,0,0,0,0,-1,1539,316,0,0
322,708,0,0,0,0,0,0,0,0,0,-1,1546,316,0,0
329,708,0,0,0,0,0,0,0,0,0,-1,1553,316,0,0
336,708,0,0,0,0,0,0,0,0,0,-1,1560,316,0,0
343,708,0,0,0,0,0,0,0,0,0,-1,1567,316,0,0
350,708,0,0,0,0,0,0,0,0,0,-1,1574,316,0,0
357,708,0,0,0,0,0,0,0,0,0,-1,1581,316,0,0
364,708,0,0,0,0,0,0,0,0,0,-1,1588,316,0,0
371,708,0,0,0,0,0,0,0,0,0,-1,1595,316,0,0
378,708,0,0,0,0,0,0,0,0,0,-1,1602,316,0,0
385,708,0,0,0,0,0,0,0,0,0,-1,1609,316,0,0
392,708,0,0,0,0,0,0,0,0,0,-1,1616,316,0,0
399,708,0,0,0,0,0,0,0,0,0,-1,1623,316,0,0
406,708,0,0,0,0,0,0,0,0,0,-1,1630,316,0,0
413,708,0,0,0,0,0,0,0,0,0,-1,1637,316,0,0
420,708,0,0,0,0,0,0,0,0,0,-1,1644,316,0,0
427,708,0,0,0,0,0,0,0,0,0,-1,1651,316,0,0
434,708,0,0,0,0,0,0,0,0,0,-1,1658,316,0,0
441,708,0,0,0,0,0,0,0,0,0,-1,1665,316,0,0
448,708,0,0,0,0,0,0,0,0,0,-1,1672,316,0,0
455,708,0,0,0,0,0,0,0,0,0,-1,1679,316,0,0
462,708,0,0,0,0,0,0,0,0,0,-1,1686,316,0,0
469,708,0,0,0,0,0,0,0,0,0,-1,1693,316,0,0
476,708,0,0,0,0,0,0,0,0,0,-1,1700,316,0,0
483,708,0,0,0,0,0,0,0,0,0,-1,1707,316,0,0
490,708,0,0,0,0,0,0,0,0,0,-1,1714,316,0,0
497,708,0,0,0,0,0,0,0,0,0,-1,1721,316,0,0
504,708,0,0,0,0,0,0,0,0,0,-1,1728,316,0,0
511,708,0,0,0,0,0,0,0,0,0,-1,1735,316,0,0
518,708,0,0,0,0,0,0,0,0,0,-1,1742,316,0,0
525,708,0,0,0,0,0,0,0,0,0,-1,1749,316,0,0
532,708,0,0,0,0,0,0,0,0,0,-1,1756,316,0,0
539,708,0,0,0,0,0,0,0,0,0,-1,1763,316,0,0
546,708,0,0,0,0,0,0,0,0,0,-1,1770,316,0,0
553,708,0,0,0,0,0,0,0,0,0,-1,1777,316,0,0
560,708,0,0,0,0,0,0,0,0,0,-1,1784,316,0,0
567,708,0,0,0,0,0,0,0,0,0,-1,1791,316,0,0
574,708,0,0,0,0,0,0,0,0,0,-1,1798,316,0,0
581,708,0,0,0,0,0,0,0,0,0,-1,1805,316,0,0
588,708,0,0,0,0,0,0,0,0,0,-1,1812,316,0,0
595,708,0,0,0,0,0,0,0,0,0,-1,1819,316,0,0
602,708,0,0,0,0,0,0,0,0,0,-1,1826,316,0,0
609,708,0,0,0,0,0,0,0,0,0,-1,1833,316,0,0
616,708,0,0,0,0,0,0,0,0,0,-1,1840,316,0,0
623,708,0,0,0,0,0,0,0,0,0,-1,1847,316,0,0
630,708,0,0,0,0,0,0,0,0,0,-1,1854,316,0,0
637,708,0,0,0,0,0,0,0,0,0,-1,1861,316,0,0
644,708,0,0,0,0,0,0,0,0,0,-1,1868,316,0,0
651,708,0,0,0,0,0,0,0,0,0,-1,1875,316,0,0
658,708,0,0,0,0,0,0,0,0,0,-1,1882,316,0,0
665,708,0,0,0,0,0,0,0,0,0,-1,1889,316,0,0
672,708,0,0,0,0,0,0,0,0,0,-1,1896,316,0,0
679,708,0,0,0,0,0,0,0,0,0,-1,1903,316,0,0
686,708,0,0,0,0,0,0,0,0,0,-1,1910,316,0,0
693,708,0,0,0,0,0,0,0,0,0,-1,1917,316,0,0
700,708,0,0,0,0,0,0,0,0,0,-1,1924,316,0,0
707,708,0,0,0,0,0,0,0,0,0,-1,1931,316,0,0
714,708,0,0,0,0,0,0,0,0,0,-1,1938,316,0,0
721,708,0,0,0,0,0,0,0,0,0,-1,1945,316,0,0
728,708,0,0,0,0,0,0,0,0,0,-1,1952,316,0,0
735,708,0,0,0,0,0,0,0,0,0,-1,1959,316,0,0
742,708,0,0,0,0,0,0,0,0,0,-1,1966,316,0,0
749,708,0,0,0,0,0,0,0,0,0,-1,1973,316,0,0
756,708,0,0,0,0,0,0,0,0,0,-1,1980,316,0,0
763,708,0,0,0,0,0,0,0,0,0,-1,1987,316,0,0
770,708,0,0,0,0,0,0,0,0,0,-1,1994,316,0,0
777,708,0,0,0,0,0,0,0,0,0,-1,2001,316,0,0
784,708,0,0,0,0,0,0,0,0,0,-1,2008,316,0,0
791,708,0,0,0,0,0,0,0,0,0,-1,2015,316,0,0
798,708,0,0,0,0,0,0,0,0,0,-1,2022,316,0,0
805,708,0,0,0,0,0,0,0,0,0,-1,2029,316,0,0
812,708,0,0,0,0,0,0,0,0,0,-1,2036,316,0,0
-700,701,0,0,0,0,0,0,0,0,0,-1,524,323,0,0
-693,701,0,0,0,0,0,0,0,0,0,-1,531,323,0,0
-686,701,0,0,0,0,0,0,0,0,0,-1,538,323,0,0
-679,701,0,0,0,0,0,0,0,0,0,-1,545,323,0,0
-672,701,0,0,0,0,0,0,0,0,0,-1,552,323,0,0
-665,701,0,0,0,0,0,0,0,0,0,-1,559,323,0,0
-658,701,0,0,0,0,0,0,0,0,0,-1,566,323,0,0
-651,701,0,0,0,0,0,0,0,0,0,-1,573,323,0,0
-644,701,0,0,0,0,0,0,0,0,0,-1,580,323,0,0
-637,701,0,0,0,0,0,0,0,0,0,-1,587,323,0,0
-630,701,0,0,0,0,0,0,0,0,0,-1,594,323,0,0
-623,701,0,0,0,0,0,0,0,0,0,-1,601,323,0,0
-616,701,0,0,0,0,0,0,0,0,0,-1,608,323,0,0
-609,701,0,0,0,0,0,0,0,0,0,-1,615,323,0,0
-602,701,0,0,0,0,0,0,0,0,0,-1,622,323,0,0
-595,701,0,0,0,0,0,0,0,0,0,-1,629,323,0,0
-588,701,0,0,0,0,0,0,0,0,0,-1,636,323,0,0
-581,701,0,0,0,0,0,0,0,0,0,-1,643,323,0,0
-574,701,0,0,0,0,0,0,0,0,0,-1,650,323,0,0
-567,701,0,0,0,0,0,0,0,0,0,-1,657,323,0,0
-560,701,0,0,0,0,0,0,0,0,0,-1,664,323,0,0
-553,701,0,0,0,0,0,0,0,0,0,-1,671,323,0,0
-546,701,0,0,0,0,0,0,0,0,0,-1,678,323,0,0
-539,701,0,0,0,0,0,0,0,0,0,-1,685,323,0,0
-532,701,0,0,0,0,0,0,0,0,0,-1,692,323,0,0
-525,701,0,0,0,0,0,0,0,0,0,-1,699,323,0,0
-518,701,0,0,0,0,0,0,0,0,0,-1,706,323,0,0
-511,701,0,0,0,0,0,0,0,0,0,-1,713,323,0,0
-504,701,0,0,0,0,0,0,0,0,0,-1,720,323,0,0
-497,701,0,0,0,0,0,0,0,0,0,-1,727,323,0,0
-490,701,0,0,0,0,0,0,0,0,0,-1,734,323,0,0
-483,701,0,0,0,0,0,0,0,0,0,-1,741,323,0,0
-476,701,0,0,0,0,0,0,0,0,0,-1,748,323,0,0
-469,701,0,0,0,0,0,0,0,0,0,-1,755,323,0,0
-462,701,0,0,0,0,0,0,0,0,0,-1,762,323,0,0
-455,701,0,0,0,0,0,0,0,0,0,-1,769,323,0,0
-448,701,0,0,0,0,0,0,0,0,0,-1,776,323,0,0
-441,701,0,0,0,0,0,0,0,0,0,-1,783,323,0,0
-434,701,0,0,0,0,0,0,0,0,0,-1,790,323,0,0
-427,701,0,0,0,0,0,0,0,0,0,-1,797,323,0,0
-420,701,0,0,0,0,0,0,0,0,0,-1,804,323,0,0
-413,701,0,0,0,0,0,0,0,0,0,-1,811,323,0,0
-406,701,0,0,0,0,0,0,0,0,0,-1,818,323,0,0
-399,701,0,0,0,0,0,0,0,0,0,-1,825,323,0,0
-392,701,0,0,0,0,0,0,0,0,0,-1,832,323,0,0
-385,701,0,0,0,0,0,0,0,0,0,-1,839,323,0,0
-378,701,0,0,0,0,0,0,0,0,0,-1,846,323,0,0
-371,701,0,0,0,0,0,0,0,0,0,-1,853,323,0,0
-364,701,0,0,0,0,0,0,0,0,0,-1,860,323,0,0
-357,701,0,0,0,0,0,0,0,0,0,-1,867,323,0,0
-350,701,0,0,0,0,0,0,0,0,0,-1,874,323,0,0
-343,701,0,0,0,0,0,0,0,0,0,-1,881,323,0,0
-336,701,0,0,0,0,0,0,0,0,0,-1,888,323,0,0
-329,701,0,0,0,0,0,0,0,0,0,-1,895,323,0,0
-322,701,0,0,0,0,0,0,0,0,0,-1,902,323,0,0
-315,701,0,0,0,0,0,0,0,0,0,-1,909,323,0,0
-308,701,0,0,0,0,0,0,0,0,0,-1,916,323,0,0
-301,701,0,0,0,0,0,0,0,0,0,-1,923,323,0,0
-294,701,0,0,0,0,0,0,0,0,0,-1,930,323,0,0
-287,701,0,0,0,0,0,0,0,0,0,-1,937,323,0,0
-280,701,0,0,0,0,0,0,0,0,0,-1,944,323,0,0
-273,701,0,0,0,0,0,0,0,0,0,-1,951,323,0,0
-266,701,0,0,0,0,0,0,0,0,0,-1,958,323,0,0
-259,701,0,0,0,0,0,0,0,0,0,-1,965,323,0,0
-252,701,0,0,0,0,0,0,0,0,0,-1,972,323,0,0
-245,701,0,0,0,0,0,0,0,0,0,-1,979,323,0,0
-238,701,0,0,0,0,0,0,0,0,0,-1,986,323,0,0
-231,701,0,0,0,0,0,0,0,0,0,-1,993,323,0,0
-224,701,0,0,0,0,0,0,0,0,0,-1,1000,323,0,0
-217,701,0,0,0,0,0,0,0,0,0,-1,1007,323,0,0
-210,701,0,0,0,0,0,0,0,0,0,-1,1014,323,0,0
-203,701,0,0,0,0,0,0,0,0,0,-1,1021,323,0,0
-196,701,0,0,0,0,0,0,0,0,0,-1,1028,323,0,0
-189,701,0,0,0,0,0,0,0,0,0,-1,1035,323,0,0
-182,701,0,0,0,0,0,0,0,0,0,-1,1042,323,0,0
-175,701,0,0,0,0,0,0,0,0,0,-1,1049,323,0,0
-168,701,0,0,0,0,0,0,0,0,0,-1,1056,323,0,0
-161,701,0,0,0,0,0,0,0,0,0,-1,1063,323,0,0
-154,701,0,0,0,0,0,0,0,0,0,-1,1070,323,0,0
-147,701,0,0,0,0,0,0,0,0,0,-1,1077,323,0,0
-140,701,0,0,0,0,0,0,0,0,0,-1,1084,323,0,0
-133,701,0,0,0,0,0,0,0,0,0,-1,1091,323,0,0
-126,701,0,0,0,0,0,0,0,0,0,-1,1098,323,0,0
-119,701,0,0,0,0,0,0,0,0,0,-1,1105,323,0,0
-112,701,0,0,0,0,0,0,0,0,0,-1,1112,323,0,0
-105,701,0,0,0,0,0,0,0,0,0,-1,1119,323,0,0
-98,701,0,0,0,0,0,0,0,0,0,-1,1126,323,0,0
-91,701,0,0,0,0,0,0,0,0,0,-1,1133,323,0,0
-84,701,0,0,0,0,0,0,0,0,0,-1,1140,323,0,0
-77,701,0,0,0,0,0,0,0,0,0,-1,1147,323,0,0
-70,701,-11.5446,-19.509,0,0,0,0,0,0,0,-1,1154,323,-11.5445,19.509
-63,701,-17.0184,-14.0584,0,0,0,0,0,0,0,-1,1161,323,-17.0185,14.0584
-56,701,-0.420166,-0.101776,0,0,0,0,0,0,0,-1,1168,323,-0.420119,0.101777
-49,701,-1.09021,-0.155762,0,0,0,0,0,0,0,-1,1175,323,-1.09024,0.155768
-42,701,-0.210327,-0.299133,0,0,0,0,0,0,0,-1,1182,323,-0.210379,0.29914
-35,701,-2.9635,-7.98676,0,0,0,0,0,0,0,-1,1189,323,-2.9635,7.98676
-28,701,-6.64417,-5.4917,0,0,0,0,0,0,0,-1,1196,323,-6.64411,5.4917
-21,701,0.563477,-18.3431,0,0,0,0,0,0,0,-1,1203,323,0.5635,18.3431
-14,701,1.65442,-24.5962,0,0,0,0,0,0,0,-1,1210,323,1.65445,24.5962
-7,701,2.35815,-24.5077,0,0,0,0,0,0,0,-1,1217,323,2.35814,24.5077
0,701,3.21716,-24.6064,0,0,0,0,0,0,0,-1,1224,323,3.21716,24.6064
7,701,4.55786,-23.5354,0,0,0,0,0,0,0,-1,1231,323,4.55791,23.5354
14,701,4.5105,-23.9018,0.000141318,0.123842,-0.00362141,0.123948,3.53865e-05,-1.54155,0.0826204,0.0468611,1238,323,4.51045,23.9018
21,701,4.54321,-24.2016,0.00531609,0.112997,-0.00264697,0.113062,0.00525106,-1.54623,0.0736868,0.047793,1245,323,4.54325,24.2016
28,701,4.57507,-24.491,0.0106075,0.101972,-2.26632e-06,0.101972,0.0106075,-1.57077,0.0647357,0.0469281,1252,323,4.57503,24.491
35,701,4.49524,-24.6345,0,0,0,0,0,0,0,-1,1259,323,4.49529,24.6345
42,701,4.5426,-25.0389,0.0210787,0.080718,0.00838929,0.0818756,0.0199211,1.43367,0.0493036,0.0454623,1266,323,4.54256,25.0389
49,701,4.43408,-25.1876,0.0245581,0.0710626,0.012884,0.0743935,0.0212272,1.3178,0.0442509,0.044984,1273,323,4.43412,25.1876
56,701,4.70129,-24.9756,0,0,0,0,0,0,0,-1,1280,323,4.70129,24.9756
63,701,4.90625,-25.0045,0.0268644,0.0562866,0.0215197,0.067643,0.015508,1.08522,0.0409176,0.0442424,1287,323,4.90631,25.0045
70,701,5.29712,-25.1786,0.0256622,0.0510434,0.0244738,0.0659212,0.0107844,1.02458,0.0408302,0.0446695,1294,323,5.29712,25.1786
77,701,5.7179,-25.4518,0.0226881,0.0488644,0.0266355,0.0654536,0.00609884,1.01376,0.0417516,0.0474229,1301,323,5.71794,25.4518
84,701,6.03357,-25.0245,0.0173355,0.05053,0.0269025,0.0655431,0.00232245,1.06179,0.0429422,0.0474697,1308,323,6.03351,25.0245
91,701,6.21008,-24.8166,0.0103973,0.0549888,0.0252861,0.0664049,-0.0010188,1.14671,0.0446134,0.0465306,1315,323,6.21006,24.8166
98,701,5.89807,-24.9445,0.00364455,0.059016,0.0230602,0.0673618,-0.00470126,1.22355,0.0465542,0.0433939,1322,323,5.89809,24.9446
105,701,5.6897,-24.9694,-0.00317859,0.0640551,0.0199461,0.0695271,-0.00865061,1.30304,0.0494876,0.0459079,1329,323,5.68964,24.9694
112,701,5.56335,-24.81,-0.00983787,0.0704489,0.0153789,0.0732939,-0.0126829,1.38787,0.0535928,0.0456583,1336,323,5.56341,24.81
119,701,5.27856,-24.8561,-0.0166107,0.0768446,0.0113411,0.0782012,-0.0179673,1.45174,0.0590417,0.0440016,1343,323,5.27854,24.8562
126,701,5.11804,-25.3456,0,0,0,0,0,0,0,-1,1350,323,5.11809,25.3456
133,701,4.84644,-24.6566,-0.0237537,0.0847136,0.00501371,0.0849449,-0.023985,1.5247,0.0660919,0.0465143,1357,323,4.84639,24.6566
140,701,4.31128,-24.6068,0,0,0,0,0,0,0,-1,1364,323,4.31128,24.6068
147,701,3.80151,-24.6148,0,0,0,0,0,0,0,-1,1371,323,3.80149,24.6149
154,701,3.30994,-24.4026,0,0,0,0,0,0,0,-1,1378,323,3.30989,24.4026
161,701,4.03259,-20.648,0,0,0,0,0,0,0,-1,1385,323,4.0326,20.648
168,701,30.7272,1.76184,0,0,0,0,0,0,0,-1,1392,323,30.7272,-1.76184
175,701,31.5035,2.25711,0,0,0,0,0,0,0,-1,1399,323,31.5036,-2.25712
182,701,8.80652,5.42807,0,0,0,0,0,0,0,-1,1406,323,8.8065,-5.42808
189,701,8.58081,4.24493,0,0,0,0,0,0,0,-1,1413,323,8.58082,-4.24494
196,701,0,0,0,0,0,0,0,0,0,-1,1420,323,0,0
203,701,0,0,0,0,0,0,0,0,0,-1,1427,323,0,0
210,701,0,0,0,0,0,0,0,0,0,-1,1434,323,0,0
217,701,0,0,0,0,0,0,0,0,0,-1,1441,323,0,0
224,701,0,0,0,0,0,0,0,0,0,-1,1448,323,0,0
231,701,0,0,0,0,0,0,0,0,0,-1,1455,323,0,0
238,701,0,0,0,0,0,0,0,0,0,-1,1462,323,0,0
245,701,0,0,0,0,0,0,0,0,0,-1,1469,323,0,0
252,701,0,0,0,0,0,0,0,0,0,-1,1476,323,0,0
259,701,0,0,0,0,0,0,0,0,0,-1,1483,323,0,0
266,701,0,0,0,0,0,0,0,0,0,-1,1490,323,0,0
273,701,0,0,0,0,0,0,0,0,0,-1,1497,323,0,0
280,701,0,0,0,0,0,0,0,0,0,-1,1504,323,0,0
287,701,0,0,0,0,0,0,0,0,0,-1,1511,323,0,0
294,701,0,0,0,0,0,0,0,0,0,-1,1518,323,0,0
301,701,0,0,0,0,0,0,0,0,0,-1,1525,323,0,0
308,701,0,0,0,0,0,0,0,0,0,-1,1532,323,0,0
315,701,0,0,0,0,0,0,0,0,0,-1,1539,323,0,0
322,701,0,0,0,0,0,0,0,0,0,-1,1546,323,0,0
329,701,0,0,0,0,0,0,0,0,0,-1,1553,323,0,0
336,701,0,0,0,0,0,0,0,0,0,-1,1560,323,0,0
343,701,0,0,0,0,0,0,0,0,0,-1,1567,323,0,0
350,701,0,0,0,0,0,0,0,0,0,-1,1574,323,0,0
357,701,0,0,0,0,0,0,0,0,0,-1,1581,323,0,0
364,701,0,0,0,0,0,0,0,0,0,-1,1588,323,0,0
371,701,0,0,0,0,0,0,0,0,0,-1,1595,323,0,0
378,701,0,0,0,0,0,0,0,0,0,-1,1602,323,0,0
385,701,0,0,0,0,0,0,0,0,0,-1,1609,323,0,0
392,701,0,0,0,0,0,0,0,0,0,-1,1616,323,0,0
399,701,0,0,0,0,0,0,0,0,0,-1,1623,323,0,0
406,701,0,0,0,0,0,0,0,0,0,-1,1630,323,0,0
413,701,0,0,0,0,0,0,0,0,0,-1,1637,323,0,0
420,701,0,0,0,0,0,0,0,0,0,-1,1644,323,0,0
427,701,0,0,0,0,0,0,0,0,0,-1,1651,323,0,0
434,701,0,0,0,0,0,0,0,0,0,-1,1658,323,0,0
441,701,0,0,0,0,0,0,0,0,0,-1,1665,323,0,0
448,701,0,0,0,0,0,0,0,0,0,-1,1672,323,0,0
455,701,0,0,0,0,0,0,0,0,0,-1,1679,323,0,0
462,701,0,0,0,0,0,0,0,0,0,-1,1686,323,0,0
469,701,0,0,0,0,0,0,0,0,0,-1,1693,323,0,0
476,701,0,0,0,0,0,0,0,0,0,-1,1700,323,0,0
483,701,0,0,0,0,0,0,0,0,0,-1,1707,323,0,0
490,701,0,0,0,0,0,0,0,0,0,-1,1714,323,0,0
497,701,0,0,0,0,0,0,0,0,0,-1,1721,323,0,0
504,701,0,0,0,0,0,0,0,0,0,-1,1728,323,0,0
511,701,0,0,0,0,0,0,0,0,0,-1,1735,323,0,0
518,701,0,0,0,0,0,0,0,0,0,-1,1742,323,0,0
525,701,0,0,0,0,0,0,0,0,0,-1,1749,323,0,0
532,701,0,0,0,0,0,0,0,0,0,-1,1756,323,0,0
539,701,0,0,0,0,0,0,0,0,0,-1,1763,323,0,0
546,701,0,0,0,0,0,0,0,0,0,-1,1770,323,0,0
553,701,0,0,0,0,0,0,0,0,0,-1,1777,323,0,0
560,701,0,0,0,0,0,0,0,0,0,-1,1784,323,0,0
567,701,0,0,0,0,0,0,0,0,0,-1,1791,323,0,0
574,701,0,0,0,0,0,0,0,0,0,-1,1798,323,0,0
581,701,0,0,0,0,0,0,0,0,0,-1,1805,323,0,0
588,701,0,0,0,0,0,0,0,0,0,-1,1812,323,0,0
595,701,0,0,0,0,0,0,0,0,0,-1,1819,323,0,0
602,701,0,0,0,0,0,0,0,0,0,-1,1826,323,0,0
609,701,0,0,0,0,0,0,0,0,0,-1,1833,323,0,0
616,701,0,0,0,0,0,0,0,0,0,-1,1840,323,0,0
623,701,0,0,0,0,0,0,0,0,0,-1,1847,323,0,0
630,701,0,0,0,0,0,0,0,0,0,-1,1854,323,0,0
637,701,0,0,0,0,0,0,0,0,0,-1,1861,323,0,0
644,701,0,0,0,0,0,0,0,0,0,-1,1868,323,0,0
651,701,0,0,0,0,0,0,0,0,0,-1,1875,323,0,0
658,701,0,0,0,0,0,0,0,0,0,-1,1882,323,0,0
665,701,0,0,0,0,0,0,0,0,0,-1,1889,323,0,0
672,701,0,0,0,0,0,0,0,0,0,-1,1896,323,0,0
679,701,0,0,0,0,0,0,0,0,0,-1,1903,323,0,0
686,701,0,0,0,0,0,0,0,0,0,-1,1910,323,0,0
693,701,0,0,0,0,0,0,0,0,0,-1,1917,323,0,0
700,701,0,0,0,0,0,0,0,0,0,-1,1924,323,0,0
707,701,0,0,0,0,0,0,0,0,0,-1,1931,323,0,0
714,701,0,0,0,0,0,0,0,0,0,-1,1938,323,0,0
721,701,0,0,0,0,0,0,0,0,0,-1,1945,323,0,0
728,701,0,0,0,0,0,0,0,0,0,-1,1952,323,0,0
735,701,0,0,0,0,0,0,0,0,0,-1,1959,323,0,0
742,701,0,0,0,0,0,0,0,0,0,-1,1966,323,0,0
749,701,0,0,0,0,0,0,0,0,0,-1,1973,323,0,0
756,701,0,0,0,0,0,0,0,0,0,-1,1980,323,0,0
763,701,0,0,0,0,0,0,0,0,0,-1,1987,323,0,0
770,701,0,0,0,0,0,0,0,0,0,-1,1994,323,0,0
777,701,0,0,0,0,0,0,0,0,0,-1,2001,323,0,0
784,701,0,0,0,0,0,0,0,0,0,-1,2008,323,0,0
791,701,0,0,0,0,0,0,0,0,0,-1,2015,323,0,0
798,701,0,0,0,0,0,0,0,0,0,-1,2022,323,0,0
805,701,0,0,0,0,0,0,0,0,0,-1,2029,323,0,0
812,701,0,0,0,0,0,0,0,0,0,-1,2036,323,0,0
-700,694,0,0,0,0,0,0,0,0,0,-1,524,330,0,0
-693,694,0,0,0,0,0,0,0,0,0,-1,531,330,0,0
-686,694,0,0,0,0,0,0,0,0,0,-1,538,330,0,0
-679,694,0,0,0,0,0,0,0,0,0,-1,545,330,0,0
-672,694,0,0,0,0,0,0,0,0,0,-1,552,330,0,0
-665,694,0,0,0,0,0,0,0,0,0,-1,559,330,0,0
-658,694,0,0,0,0,0,0,0,0,0,-1,566,330,0,0
-651,694,0,0,0,0,0,0,0,0,0,-1,573,330,0,0
-644,694,0,0,0,0,0,0,0,0,0,-1,580,330,0,0
-637,694,0,0,0,0,0,0,0,0,0,-1,587,330,0,0
-630,694,0,0,0,0,0,0,0,0,0,-1,594,330,0,0
-623,694,0,0,0,0,0,0,0,0,0,-1,601,330,0,0
-616,694,0,0,0,0,0,0,0,0,0,-1,608,330,0,0
-609,694,0,0,0,0,0,0,0,0,0,-1,615,330,0,0
-602,694,0,0,0,0,0,0,0,0,0,-1,622,330,0,0
-595,694,0,0,0,0,0,0,0,0,0,-1,629,330,0,0
-588,694,0,0,0,0,0,0,0,0,0,-1,636,330,0,0
-581,694,0,0,0,0,0,0,0,0,0,-1,643,330,0,0
-574,694,0,0,0,0,0,0,0,0,0,-1,650,330,0,0
-567,694,0,0,0,0,0,0,0,0,0,-1,657,330,0,0
-560,694,0,0,0,0,0,0,0,0,0,-1,664,330,0,0
-553,694,0,0,0,0,0,0,0,0,0,-1,671,330,0,0
-546,694,0,0,0,0,0,0,0,0,0,-1,678,330,0,0
-539,694,0,0,0,0,0,0,0,0,0,-1,685,330,0,0
-532,694,0,0,0,0,0,0,0,0,0,-1,692,330,0,0
-525,694,0,0,0,0,0,0,0,0,0,-1,699,330,0,0
-518,694,0,0,0,0,0,0,0,0,0,-1,706,330,0,0
-511,694,0,0,0,0,0,0,0,0,0,-1,713,330,0,0
-504,694,0,0,0,0,0,0,0,0,0,-1,720,330,0,0
-497,694,0,0,0,0,0,0,0,0,0,-1,727,330,0,0
-490,694,0,0,0,0,0,0,0,0,0,-1,734,330,0,0
-483,694,0,0,0,0,0,0,0,0,0,-1,741,330,0,0
-476,694,0,0,0,0,0,0,0,0,0,-1,748,330,0,0
-469,694,0,0,0,0,0,0,0,0,0,-1,755,330,0,0
-462,694,0,0,0,0,0,0,0,0,0,-1,762,330,0,0
-455,694,0,0,0,0,0,0,0,0,0,-1,769,330,0,0
-448,694,0,0,0,0,0,0,0,0,0,-1,776,330,0,0
-441,694,0,0,0,0,0,0,0,0,0,-1,783,330,0,0
-434,694,0,0,0,0,0,0,0,0,0,-1,790,330,0,0
-427,694,0,0,0,0,0,0,0,0,0,-1,797,330,0,0
-420,694,0,0,0,0,0,0,0,0,0,-1,804,330,0,0
-413,694,0,0,0,0,0,0,0,0,0,-1,811,330,0,0
-406,694,0,0,0,0,0,0,0,0,0,-1,818,330,0,0
-399,694,0,0,0,0,0,0,0,0,0,-1,825,330,0,0
-392,694,0,0,0,0,0,0,0,0,0,-1,832,330,0,0
-385,694,0,0,0,0,0,0,0,0,0,-1,839,330,0,0
-378,694,0,0,0,0,0,0,0,0,0,-1,846,330,0,0
-371,694,0,0,0,0,0,0,0,0,0,-1,853,330,0,0
-364,694,0,0,0,0,0,0,0,0,0,-1,860,330,0,0
-357,694,0,0,0,0,0,0,0,0,0,-1,867,330,0,0
-350,694,0,0,0,0,0,0,0,0,0,-1,874,330,0,0
-343,694,0,0,0,0,0,0,0,0,0,-1,881,330,0,0
-336,694,0,0,0,0,0,0,0,0,0,-1,888,330,0,0
-329,694,0,0,0,0,0,0,0,0,0,-1,895,330,0,0
-322,694,0,0,0,0,0,0,0,0,0,-1,902,330,0,0
-315,694,0,0,0,0,0,0,0,0,0,-1,909,330,0,0
-308,694,0,0,0,0,0,0,0,0,0,-1,916,330,0,0
-301,694,0,0,0,0,0,0,0,0,0,-1,923,330,0,0
-294,694,0,0,0,0,0,0,0,0,0,-1,930,330,0,0
-287,694,0,0,0,0,0,0,0,0,0,-1,937,330,0,0
-280,694,0,0,0,0,0,0,0,0,0,-1,944,330,0,0
-273,694,0,0,0,0,0,0,0,0,0,-1,951,330,0,0
-266,694,0,0,0,0,0,0,0,0,0,-1,958,330,0,0
-259,694,0,0,0,0,0,0,0,0,0,-1,965,330,0,0
-252,694,0,0,0,0,0,0,0,0,0,-1,972,330,0,0
-245,694,0,0,0,0,0,0,0,0,0,-1,979,330,0,0
-238,694,0,0,0,0,0,0,0,0,0,-1,986,330,0,0
-231,694,0,0,0,0,0,0,0,0,0,-1,993,330,0,0
-224,694,0,0,0,0,0,0,0,0,0,-1,1000,330,0,0
-217,694,0,0,0,0,0,0,0,0,0,-1,1007,330,0,0
-210,694,0,0,0,0,0,0,0,0,0,-1,1014,330,0,0
-203,694,0,0,0,0,0,0,0,0,0,-1,1021,330,0,0
-196,694,0,0,0,0,0,0,0,0,0,-1,1028,330,0,0
-189,694,0,0,0,0,0,0,0,0,0,-1,1035,330,0,0
-182,694,0,0,0,0,0,0,0,0,0,-1,1042,330,0,0
-175,694,0,0,0,0,0,0,0,0,0,-1,1049,330,0,0
-168,694,0,0,0,0,0,0,0,0,0,-1,1056,330,0,0
-161,694,0,0,0,0,0,0,0,0,0,-1,1063,330,0,0
-154,694,0,0,0,0,0,0,0,0,0,-1,1070,330,0,0
-147,694,0,0,0,0,0,0,0,0,0,-1,1077,330,0,0
-140,694,0,0,0,0,0,0,0,0,0,-1,1084,330,0,0
-133,694,0,0,0,0,0,0,0,0,0,-1,1091,330,0,0
-126,694,0,0,0,0,0,0,0,0,0,-1,1098,330,0,0
-119,694,0,0,0,0,0,0,0,0,0,-1,1105,330,0,0
-112,694,0,0,0,0,0,0,0,0,0,-1,1112,330,0,0
-105,694,2.5188,-19.3963,0,0,0,0,0,0,0,-1,1119,330,2.51882,19.3963
-98,694,1.34875,-10.1051,0,0,0,0,0,0,0,-1,1126,330,1.34874,10.1051
-91,694,6.86755,-33.359,0,0,0,0,0,0,0,-1,1133,330,6.86759,33.359
-84,694,1.17896,-28.0219,0,0,0,0,0,0,0,-1,1140,330,1.17896,28.0219
-77,694,-4.61255,-22.77,0,0,0,0,0,0,0,-1,1147,330,-4.61256,22.77
-70,694,-10.2438,-17.4885,0,0,0,0,0,0,0,-1,1154,330,-10.2437,17.4885
-63,694,-15.7178,-11.9616,0,0,0,0,0,0,0,-1,1161,330,-15.7178,11.9616
-56,694,-6.50623,-0.649139,0,0,0,0,0,0,0,-1,1168,330,-6.5062,0.649126
-49,694,-1.11426,0.0341797,0,0,0,0,0,0,0,-1,1175,330,-1.11424,-0.0341846
-42,694,-0.346313,-0.709595,0,0,0,0,0,0,0,-1,1182,330,-0.346298,0.709581
-35,694,-0.459106,-1.24713,0,0,0,0,0,0,0,-1,1189,330,-0.459142,1.24714
-28,694,-6.48413,-3.95972,0,0,0,0,0,0,0,-1,1196,330,-6.48414,3.9597
-21,694,2.63269,-20.663,0,0,0,0,0,0,0,-1,1203,330,2.63273,20.663
-14,694,2.06042,-24.8669,0,0,0,0,0,0,0,-1,1210,330,2.06041,24.867
-7,694,2.54248,-24.7001,0,0,0,0,0,0,0,-1,1217,330,2.54242,24.7001
0,694,3.05847,-24.5534,0,0,0,0,0,0,0,-1,1224,330,3.05853,24.5534
7,694,3.45032,-24.0195,0,0,0,0,0,0,0,-1,1231,330,3.45029,24.0195
14,694,6.29114,-25.7522,0,0,0,0,0,0,0,-1,1238,330,6.29112,25.7522
21,694,4.34766,-25.2686,0,0,0,0,0,0,0,-1,1245,330,4.34763,25.2686
28,694,3.09155,-24.882,0,0,0,0,0,0,0,-1,1252,330,3.09157,24.882
35,694,3.37415,-25.3165,0,0,0,0,0,0,0,-1,1259,330,3.37409,25.3165
42,694,3.89746,-25.6534,0.0148924,0.0667742,0.00917183,0.0683479,0.0133187,1.40087,0.0418384,0.0444802,1266,330,3.89745,25.6534
49,694,4.20105,-26.0559,0.0176927,0.0601622,0.0126287,0.0636336,0.0142212,1.30253,0.0385662,0.0487275,1273,330,4.20107,26.0559
56,694,4.65125,-25.3517,0,0,0,0,0,0,0,-1,1280,330,4.65125,25.3517
63,694,4.61096,-25.407,0.0196743,0.0501438,0.0192443,0.0594537,0.0103644,1.12021,0.0366725,0.0458334,1287,330,4.61092,25.407
70,694,4.66345,-25.482,0.0188773,0.0468258,0.0212891,0.0583174,0.00738577,1.07583,0.0366651,0.0429472,1294,330,4.6634,25.482
77,694,5.11121,-25.434,0.0167125,0.0457858,0.0226274,0.0581436,0.00435468,1.07092,0.0373955,0.0452285,1301,330,5.11125,25.434
84,694,5.41333,-25.3047,0.0126874,0.0475538,0.0224657,0.0585569,0.00168425,1.11536,0.0384888,0.0446755,1308,330,5.41337,25.3048
91,694,5.4917,-25.389,0.00771984,0.0510736,0.0209044,0.0595111,-0.000717724,1.18717,0.0399155,0.0445392,1315,330,5.49168,25.389
98,694,5.53333,-25.5256,0.00288771,0.0540786,0.019007,0.0603641,-0.00339778,1.25142,0.0414218,0.043881,1322,330,5.53337,25.5256
105,694,5.51257,-25.6012,-0.00198493,0.0576875,0.0165698,0.0619799,-0.00627728,1.31732,0.0435634,0.04484,1329,330,5.51263,25.6012
112,694,5.0116,-25.0595,-0.00667012,0.0623468,0.0129323,0.0646904,-0.00901377,1.39152,0.0464242,0.0428438,1336,330,5.0116,25.0595
119,694,5.37378,-25.6426,-0.0114599,0.0669397,0.00980742,0.0681479,-0.0126681,1.44822,0.0501904,0.0450272,1343,330,5.37373,25.6426
126,694,5.23535,-25.807,-0.0151575,0.070809,0.00702941,0.07138,-0.0157285,1.48974,0.0536043,0.0475998,1350,330,5.23539,25.807
133,694,5.10657,-25.5637,-0.0167546,0.0726688,0.00478298,0.0729239,-0.0170097,1.51751,0.0551669,0.0472068,1357,330,5.10656,25.5637
140,694,4.80188,-25.4798,0,0,0,0,0,0,0,-1,1364,330,4.80182,25.4798
147,694,3.38013,-24.824,0,0,0,0,0,0,0,-1,1371,330,3.38016,24.824
154,694,2.87573,-24.4953,0,0,0,0,0,0,0,-1,1378,330,2.87579,24.4953
161,694,3.92969,-26.2193,0,0,0,0,0,0,0,-1,1385,330,3.92966,26.2193
168,694,30.451,0.196686,0,0,0,0,0,0,0,-1,1392,330,30.4511,-0.196674
175,694,31.0701,0.869873,0,0,0,0,0,0,0,-1,1399,330,31.07,-0.869874
182,694,8.29028,5.75238,0,0,0,0,0,0,0,-1,1406,330,8.29034,-5.75237
189,694,7.9801,4.46118,0,0,0,0,0,0,0,-1,1413,330,7.9801,-4.46118
196,694,7.39331,3.32632,0,0,0,0,0,0,0,-1,1420,330,7.39329,-3.32633
203,694,7.04492,2.20529,0,0,0,0,0,0,0,-1,1427,330,7.04496,-2.20529
210,694,6.44714,0.646912,0,0,0,0,0,0,0,-1,1434,330,6.44717,-0.646903
217,694,7.12061,-0.644958,0,0,0,0,0,0,0,-1,1441,330,7.12059,0.644961
224,694,6.74011,-1.70544,0,0,0,0,0,0,0,-1,1448,330,6.74013,1.70546
231,694,0,0,0,0,0,0,0,0,0,-1,1455,330,0,0
238,694,0,0,0,0,0,0,0,0,0,-1,1462,330,0,0
245,694,0,0,0,0,0,0,0,0,0,-1,1469,330,0,0
252,694,0,0,0,0,0,0,0,0,0,-1,1476,330,0,0
259,694,0,0,0,0,0,0,0,0,0,-1,1483,330,0,0
266,694,0,0,0,0,0,0,0,0,0,-1,1490,330,0,0
273,694,0,0,0,0,0,0,0,0,0,-1,1497,330,0,0
280,694,0,0,0,0,0,0,0,0,0,-1,1504,330,0,0
287,694,0,0,0,0,0,0,0,0,0,-1,1511,330,0,0
294,694,0,0,0,0,0,0,0,0,0,-1,1518,330,0,0
301,694,0,0,0,0,0,0,0,0,0,-1,1525,330,0,0
308,694,0,0,0,0,0,0,0,0,0,-1,1532,330,0,0
315,694,0,0,0,0,0,0,0,0,0,-1,1539,330,0,0
322,694,0,0,0,0,0,0,0,0,0,-1,1546,330,0,0
329,694,0,0,0,0,0,0,0,0,0,-1,1553,330,0,0
336,694,0,0,0,0,0,0,0,0,0,-1,1560,330,0,0
343,694,0,0,0,0,0,0,0,0,0,-1,1567,330,0,0
350,694,0,0,0,0,0,0,0,0,0,-1,1574,330,0,0
357,694,0,0,0,0,0,0,0,0,0,-1,1581,330,0,0
364,694,0,0,0,0,0,0,0,0,0,-1,1588,330,0,0
371,694,0,0,0,0,0,0,0,0,0,-1,1595,330,0,0
378,694,0,0,0,0,0,0,0,0,0,-1,1602,330,0,0
385,694,0,0,0,0,0,0,0,0,0,-1,1609,330,0,0
392,694,0,0,0,0,0,0,0,0,0,-1,1616,330,0,0
399,694,0,0,0,0,0,0,0,0,0,-1,1623,330,0,0
406,694,0,0,0,0,0,0,0,0,0,-1,1630,330,0,0
413,694,0,0,0,0,0,0,0,0,0,-1,1637,330,0,0
420,694,0,0,0,0,0,0,0,0,0,-1,1644,330,0,0
427,694,0,0,0,0,0,0,0,0,0,-1,1651,330,0,0
434,694,0,0,0,0,0,0,0,0,0,-1,1658,330,0,0
441,694,0,0,0,0,0,0,0,0,0,-1,1665,330,0,0
448,694,0,0,0,0,0,0,0,0,0,-1,1672,330,0,0
455,694,0,0,0,0,0,0,0,0,0,-1,1679,330,0,0
462,694,0,0,0,0,0,0,0,0,0,-1,1686,330,0,0
469,694,0,0,0,0,0,0,0,0,0,-1,1693,330,0,0
476,694,0,0,0,0,0,0,0,0,0,-1,1700,330,0,0
483,694,0,0,0,0,0,0,0,0,0,-1,1707,330,0,0
490,694,0,0,0,0,0,0,0,0,0,-1,1714,330,0,0
497,694,0,0,0,0,0,0,0,0,0,-1,1721,330,0,0
504,694,0,0,0,0,0,0,0,0,0,-1,1728,330,0,0
511,694,0,0,0,0,0,0,0,0,0,-1,1735,330,0,0
518,694,0,0,0,0,0,0,0,0,0,-1,1742,330,0,0
525,694,0,0,0,0,0,0,0,0,0,-1,1749,330,0,0
532,694,0,0,0,0,0,0,0,0,0,-1,1756,330,0,0
539,694,0,0,0,0,0,0,0,0,0,-1,1763,330,0,0
546,694,0,0,0,0,0,0,0,0,0,-1,1770,330,0,0
553,694,0,0,0,0,0,0,0,0,0,-1,1777,330,0,0
560,694,0,0,0,0,0,0,0,0,0,-1,1784,330,0,0
567,694,0,0,0,0,0,0,0,0,0,-1,1791,330,0,0
574,694,0,0,0,0,0,0,0,0,0,-1,1798,330,0,0
581,694,0,0,0,0,0,0,0,0,0,-1,1805,330,0,0
588,694,0,0,0,0,0,0,0,0,0,-1,1812,330,0,0
595,694,0,0,0,0,0,0,0,0,0,-1,1819,330,0,0
602,694,0,0,0,0,0,0,0,0,0,-1,1826,330,0,0
609,694,0,0,0,0,0,0,0,0,0,-1,1833,330,0,0
616,694,0,0,0,0,0,0,0,0,0,-1,1840,330,0,0
623,694,0,0,0,0,0,0,0,0,0,-1,1847,330,0,0
630,694,0,0,0,0,0,0,0,0,0,-1,1854,330,0,0
637,694,0,0,0,0,0,0,0,0,0,-1,1861,330,0,0
644,694,0,0,0,0,0,0,0,0,0,-1,1868,330,0,0
651,694,0,0,0,0,0,0,0,0,0,-1,1875,330,0,0
658,694,0,0,0,0,0,0,0,0,0,-1,1882,330,0,0
665,694,0,0,0,0,0,0,0,0,0,-1,1889,330,0,0
672,694,0,0,0,0,0,0,0,0,0,-1,1896,330,0,0
679,694,0,0,0,0,0,0,0,0,0,-1,1903,330,0,0
686,694,0,0,0,0,0,0,0,0,0,-1,1910,330,0,0
693,694,0,0,0,0,0,0,0,0,0,-1,1917,330,0,0
700,694,0,0,0,0,0,0,0,0,0,-1,1924,330,0,0
707,694,0,0,0,0,0,0,0,0,0,-1,1931,330,0,0
714,694,0,0,0,0,0,0,0,0,0,-1,1938,330,0,0
721,694,0,0,0,0,0,0,0,0,0,-1,1945,330,0,0
728,694,0,0,0,0,0,0,0,0,0,-1,1952,330,0,0
735,694,0,0,0,0,0,0,0,0,0,-1,1959,330,0,0
742,694,0,0,0,0,0,0,0,0,0,-1,1966,330,0,0
749,694,0,0,0,0,0,0,0,0,0,-1,1973,330,0,0
756,694,0,0,0,0,0,0,0,0,0,-1,1980,330,0,0
763,694,0,0,0,0,0,0,0,0,0,-1,1987,330,0,0
770,694,0,0,0,0,0,0,0,0,0,-1,1994,330,0,0
777,694,0,0,0,0,0,0,0,0,0,-1,2001,330,0,0
784,694,0,0,0,0,0,0,0,0,0,-1,2008,330,0,0
791,694,0,0,0,0,0,0,0,0,0,-1,2015,330,0,0
798,694,0,0,0,0,0,0,0,0,0,-1,2022,330,0,0
805,694,0,0,0,0,0,0,0,0,0,-1,2029,330,0,0
812,694,0,0,0,0,0,0,0,0,0,-1,2036,330,0,0
-700,687,0,0,0,0,0,0,0,0,0,-1,524,337,0,0
-693,687,0,0,0,0,0,0,0,0,0,-1,531,337,0,0
-686,687,0,0,0,0,0,0,0,0,0,-1,538,337,0,0
-679,687,0,0,0,0,0,0,0,0,0,-1,545,337,0,0
-672,687,0,0,0,0,0,0,0,0,0,-1,552,337,0,0
-665,687,0,0,0,0,0,0,0,0,0,-1,559,337,0,0
-658,687,0,0,0,0,0,0,0,0,0,-1,566,337,0,0
-651,687,0,0,0,0,0,0,0,0,0,-1,573,337,0,0
-644,687,0,0,0,0,0,0,0,0,0,-1,580,337,0,0
-637,687,0,0,0,0,0,0,0,0,0,-1,587,337,0,0
-630,687,0,0,0,0,0,0,0,0,0,-1,594,337,0,0
-623,687,0,0,0,0,0,0,0,0,0,-1,601,337,0,0
-616,687,0,0,0,0,0,0,0,0,0,-1,608,337,0,0
-609,687,0,0,0,0,0,0,0,0,0,-1,615,337,0,0
-602,687,0,0,0,0,0,0,0,0,0,-1,622,337,0,0
-595,687,0,0,0,0,0,0,0,0,0,-1,629,337,0,0
-588,687,0,0,0,0,0,0,0,0,0,-1,636,337,0,0
-581,687,0,0,0,0,0,0,0,0,0,-1,643,337,0,0
-574,687,0,0,0,0,0,0,0,0,0,-1,650,337,0,0
-567,687,0,0,0,0,0,0,0,0,0,-1,657,337,0,0
-560,687,0,0,0,0,0,0,0,0,0,-1,664,337,0,0
-553,687,0,0,0,0,0,0,0,0,0,-1,671,337,0,0
-546,687,0,0,0,0,0,0,0,0,0,-1,678,337,0,0
-539,687,0,0,0,0,0,0,0,0,0,-1,685,337,0,0
-532,687,0,0,0,0,0,0,0,0,0,-1,692,337,0,0
-525,687,0,0,0,0,0,0,0,0,0,-1,699,337,0,0
-518,687,0,0,0,0,0,0,0,0,0,-1,706,337,0,0
-511,687,0,0,0,0,0,0,0,0,0,-1,713,337,0,0
-504,687,0,0,0,0,0,0,0,0,0,-1,720,337,0,0
-497,687,0,0,0,0,0,0,0,0,0,-1,727,337,0,0
-490,687,0,0,0,0,0,0,0,0,0,-1,734,337,0,0
-483,687,0,0,0,0,0,0,0,0,0,-1,741,337,0,0
-476,687,0,0,0,0,0,0,0,0,0,-1,748,337,0,0
-469,687,0,0,0,0,0,0,0,0,0,-1,755,337,0,0
-462,687,0,0,0,0,0,0,0,0,0,-1,762,337,0,0
-455,687,0,0,0,0,0,0,0,0,0,-1,769,337,0,0
-448,687,0,0,0,0,0,0,0,0,0,-1,776,337,0,0
-441,687,0,0,0,0,0,0,0,0,0,-1,783,337,0,0
-434,687,0,0,0,0,0,0,0,0,0,-1,790,337,0,0
-427,687,0,0,0,0,0,0,0,0,0,-1,797,337,0,0
-420,687,0,0,0,0,0,0,0,0,0,-1,804,337,0,0
-413,687,0,0,0,0,0,0,0,0,0,-1,811,337,0,0
-406,687,0,0,0,0,0,0,0,0,0,-1,818,337,0,0
-399,687,0,0,0,0,0,0,0,0,0,-1,825,337,0,0
-392,687,0,0,0,0,0,0,0,0,0,-1,832,337,0,0
-385,687,0,0,0,0,0,0,0,0,0,-1,839,337,0,0
-378,687,0,0,0,0,0,0,0,0,0,-1,846,337,0,0
-371,687,0,0,0,0,0,0,0,0,0,-1,853,337,0,0
-364,687,0,0,0,0,0,0,0,0,0,-1,860,337,0,0
-357,687,0,0,0,0,0,0,0,0,0,-1,867,337,0,0
-350,687,0,0,0,0,0,0,0,0,0,-1,874,337,0,0
-343,687,0,0,0,0,0,0,0,0,0,-1,881,337,0,0
-336,687,0,0,0,0,0,0,0,0,0,-1,888,337,0,0
-329,687,0,0,0,0,0,0,0,0,0,-1,895,337,0,0
-322,687,0,0,0,0,0,0,0,0,0,-1,902,337,0,0
-315,687,0,0,0,0,0,0,0,0,0,-1,909,337,0,0
-308,687,0,0,0,0,0,0,0,0,0,-1,916,337,0,0
-301,687,0,0,0,0,0,0,0,0,0,-1,923,337,0,0
-294,687,0,0,0,0,0,0,0,0,0,-1,930,337,0,0
-287,687,0,0,0,0,0,0,0,0,0,-1,937,337,0,0
-280,687,0,0,0,0,0,0,0,0,0,-1,944,337,0,0
-273,687,0,0,0,0,0,0,0,0,0,-1,951,337,0,0
-266,687,0,0,0,0,0,0,0,0,0,-1,958,337,0,0
-259,687,0,0,0,0,0,0,0,0,0,-1,965,337,0,0
-252,687,0,0,0,0,0,0,0,0,0,-1,972,337,0,0
-245,687,0,0,0,0,0,0,0,0,0,-1,979,337,0,0
-238,687,0,0,0,0,0,0,0,0,0,-1,986,337,0,0
-231,687,0,0,0,0,0,0,0,0,0,-1,993,337,0,0
-224,687,0,0,0,0,0,0,0,0,0,-1,1000,337,0,0
-217,687,0,0,0,0,0,0,0,0,0,-1,1007,337,0,0
-210,687,0,0,0,0,0,0,0,0,0,-1,1014,337,0,0
-203,687,0,0,0,0,0,0,0,0,0,-1,1021,337,0,0
-196,687,0,0,0,0,0,0,0,0,0,-1,1028,337,0,0
-189,687,0,0,0,0,0,0,0,0,0,-1,1035,337,0,0
-182,687,0,0,0,0,0,0,0,0,0,-1,1042,337,0,0
-175,687,0,0,0,0,0,0,0,0,0,-1,1049,337,0,0
-168,687,0,0,0,0,0,0,0,0,0,-1,1056,337,0,0
-161,687,0,0,0,0,0,0,0,0,0,-1,1063,337,0,0
-154,687,0,0,0,0,0,0,0,0,0,-1,1070,337,0,0
-147,687,0,0,0,0,0,0,0,0,0,-1,1077,337,0,0
-140,687,0,0,0,0,0,0,0,0,0,-1,1084,337,0,0
-133,687,4.65881,-25.9063,0,0,0,0,0,0,0,-1,1091,337,4.65875,25.9063
-126,687,4.06824,-25.7525,0,0,0,0,0,0,0,-1,1098,337,4.0682,25.7525
-119,687,3.90601,-24.7209,0,0,0,0,0,0,0,-1,1105,337,3.90596,24.721
-112,687,6.94678,-20.2408,0,0,0,0,0,0,0,-1,1112,337,6.9468,20.2408
-105,687,7.40222,-19.2547,0,0,0,0,0,0,0,-1,1119,337,7.40217,19.2547
-98,687,13.0936,-35.7905,0,0,0,0,0,0,0,-1,1126,337,13.0936,35.7905
-91,687,7.62842,-30.6922,0,0,0,0,0,0,0,-1,1133,337,7.62845,30.6922
-84,687,2.10876,-25.7283,0,0,0,0,0,0,0,-1,1140,337,2.10882,25.7283
-77,687,-3.47437,-20.7021,0,0,0,0,0,0,0,-1,1147,337,-3.47434,20.7021
-70,687,-9.14441,-16.702,0,0,0,0,0,0,0,-1,1154,337,-9.14439,16.702
-63,687,-12.9957,-4.52802,0,0,0,0,0,0,0,-1,1161,337,-12.9958,4.52801
-56,687,-18.104,7.81931,0,0,0,0,0,0,0,-1,1168,337,-18.104,-7.81931
-49,687,-15.6449,-9.94391,0,0,0,0,0,0,0,-1,1175,337,-15.6449,9.94392
-42,687,-4.2019,-0.405609,0,0,0,0,0,0,0,-1,1182,337,-4.20192,0.405614
-35,687,-4.42273,-0.688171,0,0,0,0,0,0,0,-1,1189,337,-4.42276,0.688178
-28,687,-1.14038,-1.39072,0,0,0,0,0,0,0,-1,1196,337,-1.14035,1.3907
-21,687,1.97961,-25.2133,0,0,0,0,0,0,0,-1,1203,337,1.97958,25.2133
-14,687,2.42822,-25.3151,0,0,0,0,0,0,0,-1,1210,337,2.42825,25.3151
-7,687,2.81274,-25.0496,0,0,0,0,0,0,0,-1,1217,337,2.81279,25.0496
0,687,3.27673,-24.7355,0,0,0,0,0,0,0,-1,1224,337,3.27668,24.7355
7,687,5.5647,-26.0178,0,0,0,0,0,0,0,-1,1231,337,5.56474,26.0178
14,687,5.63049,-25.9869,0,0,0,0,0,0,0,-1,1238,337,5.63055,25.9869
21,687,4.34753,-26.3379,0,0,0,0,0,0,0,-1,1245,337,4.34755,26.3379
28,687,4.34534,-26.4738,0,0,0,0,0,0,0,-1,1252,337,4.34531,26.4738
35,687,4.14417,-26.3289,0,0,0,0,0,0,0,-1,1259,337,4.14421,26.3289
42,687,3.2196,-26.1379,0,0,0,0,0,0,0,-1,1266,337,3.2196,26.1379
49,687,3.71411,-26.163,0,0,0,0,0,0,0,-1,1273,337,3.7141,26.163
56,687,4.34814,-25.9154,0,0,0,0,0,0,0,-1,1280,337,4.34811,25.9154
63,687,4.34363,-25.7984,0.0139652,0.0433641,0.0165586,0.0508064,0.0065228,1.14839,0.0319196,0.0441101,1287,337,4.34367,25.7984
70,687,4.32568,-25.806,0.0135246,0.0414286,0.0179397,0.050203,0.00475014,1.1159,0.032003,0.0417941,1294,337,4.32569,25.806
77,687,4.50415,-25.7434,0.0120208,0.0411322,0.0187278,0.0502957,0.00285737,1.11575,0.0326197,0.0445768,1301,337,4.50412,25.7434
84,687,4.76941,-25.4483,0.00906977,0.0428309,0.0183555,0.0508878,0.00101285,1.15718,0.0335927,0.0460629,1308,337,4.76942,25.4483
91,687,5.55554,-25.6356,0,0,0,0,0,0,0,-1,1315,337,5.55553,25.6356
98,687,5.59521,-25.8484,0.00215243,0.0477705,0.0154188,0.0524931,-0.0025702,1.27358,0.0358828,0.0486564,1322,337,5.59524,25.8485
105,687,5.51428,-25.942,-0.00133359,0.0503268,0.0135428,0.0536618,-0.00466854,1.32935,0.0374279,0.0479328,1329,337,5.51434,25.9421
112,687,5.4668,-26.0249,-0.00461814,0.0536485,0.0106938,0.0555492,-0.00651879,1.3949,0.0393859,0.0472116,1336,337,5.46675,26.0249
119,687,5.4021,-26.114,-0.00801386,0.0568652,0.00826846,0.0579024,-0.00905104,1.44601,0.0419454,0.0446684,1343,337,5.40206,26.1141
126,687,5.41272,-26.2923,-0.010697,0.0595255,0.00610829,0.0600529,-0.0112244,1.48467,0.0442538,0.0454353,1350,337,5.41269,26.2923
133,687,5.44849,-26.3027,0,0,0,0,0,0,0,-1,1357,337,5.4485,26.3027
140,687,3.30994,-24.869,0,0,0,0,0,0,0,-1,1364,337,3.30989,24.869
147,687,3.10974,-25.3813,0,0,0,0,0,0,0,-1,1371,337,3.10971,25.3813
154,687,3.68921,-25.0144,0,0,0,0,0,0,0,-1,1378,337,3.68921,25.0144
161,687,29.3895,-1.90628,0,0,0,0,0,0,0,-1,1385,337,29.3895,1.90628
168,687,29.8564,-1.19434,0,0,0,0,0,0,0,-1,1392,337,29.8564,1.19434
175,687,30.3419,-0.453583,0,0,0,0,0,0,0,-1,1399,337,30.3419,0.45357
182,687,6.67249,0.289917,0,0,0,0,0,0,0,-1,1406,337,6.67247,-0.289916
189,687,7.76062,4.53635,0,0,0,0,0,0,0,-1,1413,337,7.76064,-4.53636
196,687,6.99048,3.2966,0,0,0,0,0,0,0,-1,1420,337,6.99046,-3.2966
203,687,6.36499,2.1445,0,0,0,0,0,0,0,-1,1427,337,6.36499,-2.14451
210,687,6.68066,0.674652,0,0,0,0,0,0,0,-1,1434,337,6.68062,-0.674655
217,687,5.99683,-0.630493,0,0,0,0,0,0,0,-1,1441,337,5.99684,0.630497
224,687,5.52917,0.524902,0,0,0,0,0,0,0,-1,1448,337,5.5292,-0.524915
231,687,5.85583,-1.73651,0,0,0,0,0,0,0,-1,1455,337,5.85577,1.73651
238,687,5.96582,-2.96774,0,0,0,0,0,0,0,-1,1462,337,5.96577,2.96773
245,687,1.28259,2.32211,0,0,0,0,0,0,0,-1,1469,337,1.28258,-2.32211
252,687,1.97278,3.88422,0,0,0,0,0,0,0,-1,1476,337,1.97281,-3.88421
259,687,0,0,0,0,0,0,0,0,0,-1,1483,337,0,0
266,687,0,0,0,0,0,0,0,0,0,-1,1490,337,0,0
273,687,0,0,0,0,0,0,0,0,0,-1,1497,337,0,0
280,687,0,0,0,0,0,0,0,0,0,-1,1504,337,0,0
287,687,0,0,0,0,0,0,0,0,0,-1,1511,337,0,0
294,687,0,0,0,0,0,0,0,0,0,-1,1518,337,0,0
301,687,0,0,0,0,0,0,0,0,0,-1,1525,337,0,0
308,687,0,0,0,0,0,0,0,0,0,-1,1532,337,0,0
315,687,0,0,0,0,0,0,0,0,0,-1,1539,337,0,0
322,687,0,0,0,0,0,0,0,0,0,-1,1546,337,0,0
329,687,0,0,0,0,0,0,0,0,0,-1,1553,337,0,0
336,687,0,0,0,0,0,0,0,0,0,-1,1560,337,0,0
343,687,0,0,0,0,0,0,0,0,0,-1,1567,337,0,0
350,687,0,0,0,0,0,0,0,0,0,-1,1574,337,0,0
357,687,0,0,0,0,0,0,0,0,0,-1,1581,337,0,0
364,687,0,0,0,0,0,0,0,0,0,-1,1588,337,0,0
371,687,0,0,0,0,0,0,0,0,0,-1,1595,337,0,0
378,687,0,0,0,0,0,0,0,0,0,-1,1602,337,0,0
385,687,0,0,0,0,0,0,0,0,0,-1,1609,337,0,0
392,687,0,0,0,0,0,0,0,0,0,-1,1616,337,0,0
399,687,0,0,0,0,0,0,0,0,0,-1,1623,337,0,0
406,687,0,0,0,0,0,0,0,0,0,-1,1630,337,0,0
413,687,0,0,0,0,0,0,0,0,0,-1,1637,337,0,0
420,687,0,0,0,0,0,0,0,0,0,-1,1644,337,0,0
427,687,0,0,0,0,0,0,0,0,0,-1,1651,337,0,0
434,687,0,0,0,0,0,0,0,0,0,-1,1658,337,0,0
441,687,0,0,0,0,0,0,0,0,0,-1,1665,337,0,0
448,687,0,0,0,0,0,0,0,0,0,-1,1672,337,0,0
455,687,0,0,0,0,0,0,0,0,0,-1,1679,337,0,0
462,687,0,0,0,0,0,0,0,0,0,-1,1686,337,0,0
469,687,0,0,0,0,0,0,0,0,0,-1,1693,337,0,0
476,687,0,0,0,0,0,0,0,0,0,-1,1700,337,0,0
483,687,0,0,0,0,0,0,0,0,0,-1,1707,337,0,0
490,687,0,0,0,0,0,0,0,0,0,-1,1714,337,0,0
497,687,0,0,0,0,0,0,0,0,0,-1,1721,337,0,0
504,687,0,0,0,0,0,0,0,0,0,-1,1728,337,0,0
511,687,0,0,0,0,0,0,0,0,0,-1,1735,337,0,0
518,687,0,0,0,0,0,0,0,0,0,-1,1742,337,0,0
525,687,0,0,0,0,0,0,0,0,0,-1,1749,337,0,0
532,687,0,0,0,0,0,0,0,0,0,-1,1756,337,0,0
539,687,0,0,0,0,0,0,0,0,0,-1,1763,337,0,0
546,687,0,0,0,0,0,0,0,0,0,-1,1770,337,0,0
553,687,0,0,0,0,0,0,0,0,0,-1,1777,337,0,0
560,687,0,0,0,0,0,0,0,0,0,-1,1784,337,0,0
567,687,0,0,0,0,0,0,0,0,0,-1,1791,337,0,0
574,687,0,0,0,0,0,0,0,0,0,-1,1798,337,0,0
581,687,0,0,0,0,0,0,0,0,0,-1,1805,337,0,0
588,687,0,0,0,0,0,0,0,0,0,-1,1812,337,0,0
595,687,0,0,0,0,0,0,0,0,0,-1,1819,337,0,0
602,687,0,0,0,0,0,0,0,0,0,-1,1826,337,0,0
609,687,0,0,0,0,0,0,0,0,0,-1,1833,337,0,0
616,687,0,0,0,0,0,0,0,0,0,-1,1840,337,0,0
623,687,0,0,0,0,0,0,0,0,0,-1,1847,337,0,0
630,687,0,0,0,0,0,0,0,0,0,-1,1854,337,0,0
637,687,0,0,0,0,0,0,0,0,0,-1,1861,337,0,0
644,687,0,0,0,0,0,0,0,0,0,-1,1868,337,0,0
651,687,0,0,0,0,0,0,0,0,0,-1,1875,337,0,0
658,687,0,0,0,0,0,0,0,0,0,-1,1882,337,0,0
665,687,0,0,0,0,0,0,0,0,0,-1,1889,337,0,0
672,687,0,0,0,0,0,0,0,0,0,-1,1896,337,0,0
679,687,0,0,0,0,0,0,0,0,0,-1,1903,337,0,0
686,687,0,0,0,0,0,0,0,0,0,-1,1910,337,0,0
693,687,0,0,0,0,0,0,0,0,0,-1,1917,337,0,0
700,687,0,0,0,0,0,0,0,0,0,-1,1924,337,0,0
707,687,0,0,0,0,0,0,0,0,0,-1,1931,337,0,0
714,687,0,0,0,0,0,0,0,0,0,-1,1938,337,0,0
721,687,0,0,0,0,0,0,0,0,0,-1,1945,337,0,0
728,687,0,0,0,0,0,0,0,0,0,-1,1952,337,0,0
735,687,0,0,0,0,0,0,0,0,0,-1,1959,337,0,0
742,687,0,0,0,0,0,0,0,0,0,-1,1966,337,0,0
749,687,0,0,0,0,0,0,0,0,0,-1,1973,337,0,0
756,687,0,0,0,0,0,0,0,0,0,-1,1980,337,0,0
763,687,0,0,0,0,0,0,0,0,0,-1,1987,337,0,0
770,687,0,0,0,0,0,0,0,0,0,-1,1994,337,0,0
777,687,0,0,0,0,0,0,0,0,0,-1,2001,337,0,0
784,687,0,0,0,0,0,0,0,0,0,-1,2008,337,0,0
791,687,0,0,0,0,0,0,0,0,0,-1,2015,337,0,0
798,687,0,0,0,0,0,0,0,0,0,-1,2022,337,0,0
805,687,0,0,0,0,0,0,0,0,0,-1,2029,337,0,0
812,687,0,0,0,0,0,0,0,0,0,-1,2036,337,0,0
-700,680,0,0,0,0,0,0,0,0,0,-1,524,344,0,0
-693,680,0,0,0,0,0,0,0,0,0,-1,531,344,0,0
-686,680,0,0,0,0,0,0,0,0,0,-1,538,344,0,0
-679,680,0,0,0,0,0,0,0,0,0,-1,545,344,0,0
-672,680,0,0,0,0,0,0,0,0,0,-1,552,344,0,0
-665,680,0,0,0,0,0,0,0,0,0,-1,559,344,0,0
-658,680,0,0,0,0,0,0,0,0,0,-1,566,344,0,0
-651,680,0,0,0,0,0,0,0,0,0,-1,573,344,0,0
-644,680,0,0,0,0,0,0,0,0,0,-1,580,344,0,0
-637,680,0,0,0,0,0,0,0,0,0,-1,587,344,0,0
-630,680,0,0,0,0,0,0,0,0,0,-1,594,344,0,0
-623,680,0,0,0,0,0,0,0,0,0,-1,601,344,0,0
-616,680,0,0,0,0,0,0,0,0,0,-1,608,344,0,0
-609,680,0,0,0,0,0,0,0,0,0,-1,615,344,0,0
-602,680,0,0,0,0,0,0,0,0,0,-1,622,344,0,0
-595,680,0,0,0,0,0,0,0,0,0,-1,629,344,0,0
-588,680,0,0,0,0,0,0,0,0,0,-1,636,344,0,0
-581,680,0,0,0,0,0,0,0,0,0,-1,643,344,0,0
-574,680,0,0,0,0,0,0,0,0,0,-1,650,344,0,0
-567,680,0,0,0,0,0,0,0,0,0,-1,657,344,0,0
-560,680,0,0,0,0,0,0,0,0,0,-1,664,344,0,0
-553,680,0,0,0,0,0,0,0,0,0,-1,671,344,0,0
-546,680,0,0,0,0,0,0,0,0,0,-1,678,344,0,0
-539,680,0,0,0,0,0,0,0,0,0,-1,685,344,0,0
-532,680,0,0,0,0,0,0,0,0,0,-1,692,344,0,0
-525,680,0,0,0,0,0,0,0,0,0,-1,699,344,0,0
-518,680,0,0,0,0,0,0,0,0,0,-1,706,344,0,0
-511,680,0,0,0,0,0,0,0,0,0,-1,713,344,0,0
-504,680,0,0,0,0,0,0,0,0,0,-1,720,344,0,0
-497,680,0,0,0,0,0,0,0,0,0,-1,727,344,0,0
-490,680,0,0,0,0,0,0,0,0,0,-1,734,344,0,0
-483,680,0,0,0,0,0,0,0,0,0,-1,741,344,0,0
-476,680,0,0,0,0,0,0,0,0,0,-1,748,344,0,0
-469,680,0,0,0,0,0,0,0,0,0,-1,755,344,0,0
-462,680,0,0,0,0,0,0,0,0,0,-1,762,344,0,0
-455,680,0,0,0,0,0,0,0,0,0,-1,769,344,0,0
-448,680,0,0,0,0,0,0,0,0,0,-1,776,344,0,0
-441,680,0,0,0,0,0,0,0,0,0,-1,783,344,0,0
-434,680,0,0,0,0,0,0,0,0,0,-1,790,344,0,0
-427,680,0,0,0,0,0,0,0,0,0,-1,797,344,0,0
-420,680,0,0,0,0,0,0,0,0,0,-1,804,344,0,0
-413,680,0,0,0,0,0,0,0,0,0,-1,811,344,0,0
-406,680,0,0,0,0,0,0,0,0,0,-1,818,344,0,0
-399,680,0,0,0,0,0,0,0,0,0,-1,825,344,0,0
-392,680,0,0,0,0,0,0,0,0,0,-1,832,344,0,0
-385,680,0,0,0,0,0,0,0,0,0,-1,839,344,0,0
-378,680,0,0,0,0,0,0,0,0,0,-1,846,344,0,0
-371,680,0,0,0,0,0,0,0,0,0,-1,853,344,0,0
-364,680,0,0,0,0,0,0,0,0,0,-1,860,344,0,0
-357,680,0,0,0,0,0,0,0,0,0,-1,867,344,0,0
-350,680,0,0,0,0,0,0,0,0,0,-1,874,344,0,0
-343,680,0,0,0,0,0,0,0,0,0,-1,881,344,0,0
-336,680,0,0,0,0,0,0,0,0,0,-1,888,344,0,0
-329,680,0,0,0,0,0,0,0,0,0,-1,895,344,0,0
-322,680,0,0,0,0,0,0,0,0,0,-1,902,344,0,0
-315,680,0,0,0,0,0,0,0,0,0,-1,909,344,0,0
-308,680,0,0,0,0,0,0,0,0,0,-1,916,344,0,0
-301,680,0,0,0,0,0,0,0,0,0,-1,923,344,0,0
-294,680,0,0,0,0,0,0,0,0,0,-1,930,344,0,0
-287,680,0,0,0,0,0,0,0,0,0,-1,937,344,0,0
-280,680,0,0,0,0,0,0,0,0,0,-1,944,344,0,0
-273,680,0,0,0,0,0,0,0,0,0,-1,951,344,0,0
-266,680,0,0,0,0,0,0,0,0,0,-1,958,344,0,0
-259,680,0,0,0,0,0,0,0,0,0,-1,965,344,0,0
-252,680,0,0,0,0,0,0,0,0,0,-1,972,344,0,0
-245,680,0,0,0,0,0,0,0,0,0,-1,979,344,0,0
-238,680,0,0,0,0,0,0,0,0,0,-1,986,344,0,0
-231,680,0,0,0,0,0,0,0,0,0,-1,993,344,0,0
-224,680,0,0,0,0,0,0,0,0,0,-1,1000,344,0,0
-217,680,0,0,0,0,0,0,0,0,0,-1,1007,344,0,0
-210,680,0,0,0,0,0,0,0,0,0,-1,1014,344,0,0
-203,680,0,0,0,0,0,0,0,0,0,-1,1021,344,0,0
-196,680,0,0,0,0,0,0,0,0,0,-1,1028,344,0,0
-189,680,0,0,0,0,0,0,0,0,0,-1,1035,344,0,0
-182,680,0,0,0,0,0,0,0,0,0,-1,1042,344,0,0
-175,680,0,0,0,0,0,0,0,0,0,-1,1049,344,0,0
-168,680,0,0,0,0,0,0,0,0,0,-1,1056,344,0,0
-161,680,0,0,0,0,0,0,0,0,0,-1,1063,344,0,0
-154,680,4.23132,-24.996,0,0,0,0,0,0,0,-1,1070,344,4.23138,24.996
-147,680,3.91064,-26.6337,0,0,0,0,0,0,0,-1,1077,344,3.91068,26.6337
-140,680,4.20374,-25.9931,0.0327843,-0.0657828,0.0530411,0.0559039,-0.0889025,0.411052,0.0843245,0.0429889,1084,344,4.20379,25.9931
-133,680,4.16858,-25.2433,0.0315441,-0.052694,0.0553445,0.0589738,-0.0801237,0.460135,0.0806168,0.0431313,1091,344,4.16862,25.2433
-126,680,4.27771,-25.1057,0,0,0,0,0,0,0,-1,1098,344,4.2777,25.1057
-119,680,4.20447,-24.5834,0,0,0,0,0,0,0,-1,1105,344,4.20451,24.5834
-112,680,4.54041,-23.6664,0,0,0,0,0,0,0,-1,1112,344,4.5404,23.6664
-105,680,4.69409,-22.5806,0,0,0,0,0,0,0,-1,1119,344,4.69404,22.5806
-98,680,13.3525,-32.7397,0,0,0,0,0,0,0,-1,1126,344,13.3525,32.7397
-91,680,8.26062,-28.3457,0,0,0,0,0,0,0,-1,1133,344,8.26058,28.3457
-84,680,2.97107,-23.7054,0,0,0,0,0,0,0,-1,1140,344,2.97105,23.7053
-77,680,-2.72839,-20.1797,0,0,0,0,0,0,0,-1,1147,344,-2.72841,20.1797
-70,680,-8.13635,-13.6907,0,0,0,0,0,0,0,-1,1154,344,-8.13641,13.6907
-63,680,-13.5444,-7.20178,0,0,0,0,0,0,0,-1,1161,344,-13.5444,7.20178
-56,680,-6.96912,-8.83356,0,0,0,0,0,0,0,-1,1168,344,-6.96907,8.83354
-49,680,-6.7677,-2.24063,0,0,0,0,0,0,0,-1,1175,344,-6.76772,2.24063
-42,680,-1.02368,0.618805,0,0,0,0,0,0,0,-1,1182,344,-1.0237,-0.618797
-35,680,-0.947876,-0.942719,0,0,0,0,0,0,0,-1,1189,344,-0.947842,0.942731
-28,680,-1.46118,-1.10574,0,0,0,0,0,0,0,-1,1196,344,-1.4612,1.10575
-21,680,4.1217,-24.7452,0,0,0,0,0,0,0,-1,1203,344,4.12172,24.7452
-14,680,4.72998,-26.0619,0,0,0,0,0,0,0,-1,1210,344,4.72999,26.0619
-7,680,4.61804,-26.255,0,0,0,0,0,0,0,-1,1217,344,4.61799,26.255
0,680,4.56067,-26.3211,0,0,0,0,0,0,0,-1,1224,344,4.56067,26.3212
7,680,4.1554,-26.0204,0,0,0,0,0,0,0,-1,1231,344,4.15543,26.0204
14,680,4.82886,-26.1033,-0.00508455,0.0536276,0.00273557,0.0537548,-0.00521174,1.52434,0.0376941,0.0428856,1238,344,4.82889,26.1033
21,680,4.17163,-26.3855,-0.00232613,0.0511712,0.00321155,0.0513633,-0.00251823,1.51105,0.0351117,0.0449504,1245,344,4.17167,26.3855
28,680,4.15759,-26.5189,0.000538833,0.0483148,0.0044884,0.0487328,0.000120819,1.47793,0.0324483,0.0453198,1252,344,4.15764,26.5189
35,680,4.03687,-26.4449,0.00346732,0.0454522,0.00633421,0.046387,0.0025325,1.42427,0.030116,0.0469716,1259,344,4.03691,26.4449
42,680,3.48315,-26.3706,0.00601743,0.0427858,0.00827445,0.0445621,0.00424114,1.35933,0.0284001,0.0432237,1266,344,3.4831,26.3706
49,680,3.68909,-26.389,0.00785449,0.040258,0.0101411,0.0431701,0.00494241,1.29116,0.0272822,0.0441967,1273,344,3.6891,26.389
56,680,4.04724,-26.226,0.0090921,0.0379534,0.0120746,0.0423387,0.00470681,1.22243,0.026795,0.0435945,1280,344,4.04724,26.226
63,680,4.06726,-26.1611,0.0094987,0.0365292,0.0137383,0.0422858,0.00374212,1.17401,0.0270297,0.0395309,1287,344,4.0672,26.1611
70,680,4.05151,-26.1215,0.00934578,0.0355584,0.014658,0.0421151,0.00278908,1.15018,0.0271947,0.0392238,1294,344,4.05146,26.1215
77,680,4.04175,-26.0692,0,0,0,0,0,0,0,-1,1301,344,4.04173,26.0692
84,680,7.66272,-26.4438,0,0,0,0,0,0,0,-1,1308,344,7.66266,26.4438
91,680,6.61108,-26.3154,0,0,0,0,0,0,0,-1,1315,344,6.61107,26.3154
98,680,5.47217,-26.4097,0,0,0,0,0,0,0,-1,1322,344,5.47218,26.4097
105,680,5.54395,-26.3889,0,0,0,0,0,0,0,-1,1329,344,5.54399,26.3888
112,680,5.49194,-26.5159,0,0,0,0,0,0,0,-1,1336,344,5.49192,26.5159
119,680,5.42627,-26.6808,-0.00567747,0.0472018,0.00678666,0.0480589,-0.0065346,1.44517,0.0344248,0.0462949,1343,344,5.42623,26.6808
126,680,5.5791,-26.7965,-0.00760656,0.0489021,0.00509807,0.0493584,-0.00806281,1.48154,0.0358963,0.0445138,1350,344,5.57911,26.7965
133,680,5.66833,-26.8517,0,0,0,0,0,0,0,-1,1357,344,5.66828,26.8516
140,680,3.29565,-25.8219,0,0,0,0,0,0,0,-1,1364,344,3.2956,25.8219
147,680,3.13391,-25.6425,-0.00836429,0.0471825,0.00302948,0.0473472,-0.00852902,1.51647,0.0347584,0.0452201,1371,344,3.13386,25.6425
154,680,3.2467,-25.3055,-0.00733279,0.0451376,0.00412314,0.0454596,-0.00765482,1.49285,0.0331539,0.0489224,1378,344,3.24668,25.3055
161,680,3.36084,-25.1377,0,0,0,0,0,0,0,-1,1385,344,3.36082,25.1377
168,680,29.4142,-2.51651,0,0,0,0,0,0,0,-1,1392,344,29.4142,2.51652
175,680,6.66541,0.942078,0,0,0,0,0,0,0,-1,1399,344,6.66538,-0.942088
182,680,6.52917,0.532379,0,0,0,0,0,0,0,-1,1406,344,6.52922,-0.532385
189,680,7.55884,4.77695,0,0,0,0,0,0,0,-1,1413,344,7.55886,-4.77694
196,680,6.55627,3.35254,0,0,0,0,0,0,0,-1,1420,344,6.55622,-3.35255
203,680,5.7334,1.90753,0,0,0,0,0,0,0,-1,1427,344,5.73341,-1.90754
210,680,5.27515,0.493622,0,0,0,0,0,0,0,-1,1434,344,5.27514,-0.493632
217,680,6.56384,-0.374176,0,0,0,0,0,0,0,-1,1441,344,6.56379,0.374176
224,680,3.9491,-0.640228,0,0,0,0,0,0,0,-1,1448,344,3.94908,0.64024
231,680,4.24866,-1.96881,0,0,0,0,0,0,0,-1,1455,344,4.2486,1.96882
238,680,4.29333,-3.23984,0,0,0,0,0,0,0,-1,1462,344,4.29332,3.23984
245,680,2.44397,0.985382,0,0,0,0,0,0,0,-1,1469,344,2.44402,-0.985394
252,680,3.07349,2.18951,0,0,0,0,0,0,0,-1,1476,344,3.0735,-2.18952
259,680,2.82971,1.30682,0,0,0,0,0,0,0,-1,1483,344,2.82972,-1.30684
266,680,2.67554,1.44067,0,0,0,0,0,0,0,-1,1490,344,2.67551,-1.44066
273,680,2.46411,1.54666,0,0,0,0,0,0,0,-1,1497,344,2.46407,-1.54666
280,680,0,0,0,0,0,0,0,0,0,-1,1504,344,0,0
287,680,0,0,0,0,0,0,0,0,0,-1,1511,344,0,0
294,680,0,0,0,0,0,0,0,0,0,-1,1518,344,0,0
301,680,0,0,0,0,0,0,0,0,0,-1,1525,344,0,0
308,680,0,0,0,0,0,0,0,0,0,-1,1532,344,0,0
315,680,0,0,0,0,0,0,0,0,0,-1,1539,344,0,0
322,680,0,0,0,0,0,0,0,0,0,-1,1546,344,0,0
329,680,0,0,0,0,0,0,0,0,0,-1,1553,344,0,0
336,680,0,0,0,0,0,0,0,0,0,-1,1560,344,0,0
343,680,0,0,0,0,0,0,0,0,0,-1,1567,344,0,0
350,680,0,0,0,0,0,0,0,0,0,-1,1574,344,0,0
357,680,0,0,0,0,0,0,0,0,0,-1,1581,344,0,0
364,680,0,0,0,0,0,0,0,0,0,-1,1588,344,0,0
371,680,0,0,0,0,0,0,0,0,0,-1,1595,344,0,0
378,680,0,0,0,0,0,0,0,0,0,-1,1602,344,0,0
385,680,0,0,0,0,0,0,0,0,0,-1,1609,344,0,0
392,680,0,0,0,0,0,0,0,0,0,-1,1616,344,0,0
399,680,0,0,0,0,0,0,0,0,0,-1,1623,344,0,0
406,680,0,0,0,0,0,0,0,0,0,-1,1630,344,0,0
413,680,0,0,0,0,0,0,0,0,0,-1,1637,344,0,0
420,680,0,0,0,0,0,0,0,0,0,-1,1644,344,0,0
427,680,0,0,0,0,0,0,0,0,0,-1,1651,344,0,0
434,680,0,0,0,0,0,0,0,0,0,-1,1658,344,0,0
441,680,0,0,0,0,0,0,0,0,0,-1,1665,344,0,0
448,680,0,0,0,0,0,0,0,0,0,-1,1672,344,0,0
455,680,0,0,0,0,0,0,0,0,0,-1,1679,344,0,0
462,680,0,0,0,0,0,0,0,0,0,-1,1686,344,0,0
469,680,0,0,0,0,0,0,0,0,0,-1,1693,344,0,0
476,680,0,0,0,0,0,0,0,0,0,-1,1700,344,0,0
483,680,0,0,0,0,0,0,0,0,0,-1,1707,344,0,0
490,680,0,0,0,0,0,0,0,0,0,-1,1714,344,0,0
497,680,0,0,0,0,0,0,0,0,0,-1,1721,344,0,0
504,680,0,0,0,0,0,0,0,0,0,-1,1728,344,0,0
511,680,0,0,0,0,0,0,0,0,0,-1,1735,344,0,0
518,680,0,0,0,0,0,0,0,0,0,-1,1742,344,0,0
525,680,0,0,0,0,0,0,0,0,0,-1,1749,344,0,0
532,680,0,0,0,0,0,0,0,0,0,-1,1756,344,0,0
539,680,0,0,0,0,0,0,0,0,0,-1,1763,344,0,0
546,680,0,0,0,0,0,0,0,0,0,-1,1770,344,0,0
553,680,0,0,0,0,0,0,0,0,0,-1,1777,344,0,0
560,680,0,0,0,0,0,0,0,0,0,-1,1784,344,0,0
567,680,0,0,0,0,0,0,0,0,0,-1,1791,344,0,0
574,680,0,0,0,0,0,0,0,0,0,-1,1798,344,0,0
581,680,0,0,0,0,0,0,0,0,0,-1,1805,344,0,0
588,680,0,0,0,0,0,0,0,0,0,-1,1812,344,0,0
595,680,0,0,0,0,0,0,0,0,0,-1,1819,344,0,0
602,680,0,0,0,0,0,0,0,0,0,-1,1826,344,0,0
609,680,0,0,0,0,0,0,0,0,0,-1,1833,344,0,0
616,680,0,0,0,0,0,0,0,0,0,-1,1840,344,0,0
623,680,0,0,0,0,0,0,0,0,0,-1,1847,344,0,0
630,680,0,0,0,0,0,0,0,0,0,-1,1854,344,0,0
637,680,0,0,0,0,0,0,0,0,0,-1,1861,344,0,0
644,680,0,0,0,0,0,0,0,0,0,-1,1868,344,0,0
651,680,0,0,0,0,0,0,0,0,0,-1,1875,344,0,0
658,680,0,0,0,0,0,0,0,0,0,-1,1882,344,0,0
665,680,0,0,0,0,0,0,0,0,0,-1,1889,344,0,0
672,680,0,0,0,0,0,0,0,0,0,-1,1896,344,0,0
679,680,0,0,0,0,0,0,0,0,0,-1,1903,344,0,0
686,680,0,0,0,0,0,0,0,0,0,-1,1910,344,0,0
693,680,0,0,0,0,0,0,0,0,0,-1,1917,344,0,0
700,680,0,0,0,0,0,0,0,0,0,-1,1924,344,0,0
707,680,0,0,0,0,0,0,0,0,0,-1,1931,344,0,0
714,680,0,0,0,0,0,0,0,0,0,-1,1938,344,0,0
721,680,0,0,0,0,0,0,0,0,0,-1,1945,344,0,0
728,680,0,0,0,0,0,0,0,0,0,-1,1952,344,0,0
735,680,0,0,0,0,0,0,0,0,0,-1,1959,344,0,0
742,680,0,0,0,0,0,0,0,0,0,-1,1966,344,0,0
749,680,0,0,0,0,0,0,0,0,0,-1,1973,344,0,0
756,680,0,0,0,0,0,0,0,0,0,-1,1980,344,0,0
763,680,0,0,0,0,0,0,0,0,0,-1,1987,344,0,0
770,680,0,0,0,0,0,0,0,0,0,-1,1994,344,0,0
777,680,0,0,0,0,0,0,0,0,0,-1,2001,344,0,0
784,680,0,0,0,0,0,0,0,0,0,-1,2008,344,0,0
791,680,0,0,0,0,0,0,0,0,0,-1,2015,344,0,0
798,680,0,0,0,0,0,0,0,0,0,-1,2022,344,0,0
805,680,0,0,0,0,0,0,0,0,0,-1,2029,344,0,0
812,680,0,0,0,0,0,0,0,0,0,-1,2036,344,0,0
-700,673,0,0,0,0,0,0,0,0,0,-1,524,351,0,0
-693,673,0,0,0,0,0,0,0,0,0,-1,531,351,0,0
-686,673,0,0,0,0,0,0,0,0,0,-1,538,351,0,0
-679,673,0,0,0,0,0,0,0,0,0,-1,545,351,0,0
-672,673,0,0,0,0,0,0,0,0,0,-1,552,351,0,0
-665,673,0,0,0,0,0,0,0,0,0,-1,559,351,0,0
-658,673,0,0,0,0,0,0,0,0,0,-1,566,351,0,0
-651,673,0,0,0,0,0,0,0,0,0,-1,573,351,0,0
-644,673,0,0,0,0,0,0,0,0,0,-1,580,351,0,0
-637,673,0,0,0,0,0,0,0,0,0,-1,587,351,0,0
-630,673,0,0,0,0,0,0,0,0,0,-1,594,351,0,0
-623,673,0,0,0,0,0,0,0,0,0,-1,601,351,0,0
-616,673,0,0,0,0,0,0,0,0,0,-1,608,351,0,0
-609,673,0,0,0,0,0,0,0,0,0,-1,615,351,0,0
-602,673,0,0,0,0,0,0,0,0,0,-1,622,351,0,0
-595,673,0,0,0,0,0,0,0,0,0,-1,629,351,0,0
-588,673,0,0,0,0,0,0,0,0,0,-1,636,351,0,0
-581,673,0,0,0,0,0,0,0,0,0,-1,643,351,0,0
-574,673,0,0,0,0,0,0,0,0,0,-1,650,351,0,0
-567,673,0,0,0,0,0,0,0,0,0,-1,657,351,0,0
-560,673,0,0,0,0,0,0,0,0,0,-1,664,351,0,0
-553,673,0,0,0,0,0,0,0,0,0,-1,671,351,0,0
-546,673,0,0,0,0,0,0,0,0,0,-1,678,351,0,0
-539,673,0,0,0,0,0,0,0,0,0,-1,685,351,0,0
-532,673,0,0,0,0,0,0,0,0,0,-1,692,351,0,0
-525,673,0,0,0,0,0,0,0,0,0,-1,699,351,0,0
-518,673,0,0,0,0,0,0,0,0,0,-1,706,351,0,0
-511,673,0,0,0,0,0,0,0,0,0,-1,713,351,0,0
-504,673,0,0,0,0,0,0,0,0,0,-1,720,351,0,0
-497,673,0,0,0,0,0,0,0,0,0,-1,727,351,0,0
-490,673,0,0,0,0,0,0,0,0,0,-1,734,351,0,0
-483,673,0,0,0,0,0,0,0,0,0,-1,741,351,0,0
-476,673,0,0,0,0,0,0,0,0,0,-1,748,351,0,0
-469,673,0,0,0,0,0,0,0,0,0,-1,755,351,0,0
-462,673,0,0,0,0,0,0,0,0,0,-1,762,351,0,0
-455,673,0,0,0,0,0,0,0,0,0,-1,769,351,0,0
-448,673,0,0,0,0,0,0,0,0,0,-1,776,351,0,0
-441,673,0,0,0,0,0,0,0,0,0,-1,783,351,0,0
-434,673,0,0,0,0,0,0,0,0,0,-1,790,351,0,0
-427,673,0,0,0,0,0,0,0,0,0,-1,797,351,0,0
-420,673,0,0,0,0,0,0,0,0,0,-1,804,351,0,0
-413,673,0,0,0,0,0,0,0,0,0,-1,811,351,0,0
-406,673,0,0,0,0,0,0,0,0,0,-1,818,351,0,0
-399,673,0,0,0,0,0,0,0,0,0,-1,825,351,0,0
-392,673,0,0,0,0,0,0,0,0,0,-1,832,351,0,0
-385,673,0,0,0,0,0,0,0,0,0,-1,839,351,0,0
-378,673,0,0,0,0,0,0,0,0,0,-1,846,351,0,0
-371,673,0,0,0,0,0,0,0,0,0,-1,853,351,0,0
-364,673,0,0,0,0,0,0,0,0,0,-1,860,351,0,0
-357,673,0,0,0,0,0,0,0,0,0,-1,867,351,0,0
-350,673,0,0,0,0,0,0,0,0,0,-1,874,351,0,0
-343,673,0,0,0,0,0,0,0,0,0,-1,881,351,0,0
-336,673,0,0,0,0,0,0,0,0,0,-1,888,351,0,0
-329,673,0,0,0,0,0,0,0,0,0,-1,895,351,0,0
-322,673,0,0,0,0,0,0,0,0,0,-1,902,351,0,0
-315,673,0,0,0,0,0,0,0,0,0,-1,909,351,0,0
-308,673,0,0,0,0,0,0,0,0,0,-1,916,351,0,0
-301,673,0,0,0,0,0,0,0,0,0,-1,923,351,0,0
-294,673,0,0,0,0,0,0,0,0,0,-1,930,351,0,0
-287,673,0,0,0,0,0,0,0,0,0,-1,937,351,0,0
-280,673,0,0,0,0,0,0,0,0,0,-1,944,351,0,0
-273,673,0,0,0,0,0,0,0,0,0,-1,951,351,0,0
-266,673,0,0,0,0,0,0,0,0,0,-1,958,351,0,0
-259,673,0,0,0,0,0,0,0,0,0,-1,965,351,0,0
-252,673,0,0,0,0,0,0,0,0,0,-1,972,351,0,0
-245,673,0,0,0,0,0,0,0,0,0,-1,979,351,0,0
-238,673,0,0,0,0,0,0,0,0,0,-1,986,351,0,0
-231,673,0,0,0,0,0,0,0,0,0,-1,993,351,0,0
-224,673,0,0,0,0,0,0,0,0,0,-1,1000,351,0,0
-217,673,0,0,0,0,0,0,0,0,0,-1,1007,351,0,0
-210,673,0,0,0,0,0,0,0,0,0,-1,1014,351,0,0
-203,673,0,0,0,0,0,0,0,0,0,-1,1021,351,0,0
-196,673,0,0,0,0,0,0,0,0,0,-1,1028,351,0,0
-189,673,0,0,0,0,0,0,0,0,0,-1,1035,351,0,0
-182,673,0,0,0,0,0,0,0,0,0,-1,1042,351,0,0
-175,673,1.60974,-23.5722,0,0,0,0,0,0,0,-1,1049,351,1.60975,23.5722
-168,673,1.69495,-24.4639,0,0,0,0,0,0,0,-1,1056,351,1.69495,24.4639
-161,673,1.90881,-25.7027,0,0,0,0,0,0,0,-1,1063,351,1.90885,25.7027
-154,673,3.27502,-26.857,0,0,0,0,0,0,0,-1,1070,351,3.27497,26.857
-147,673,3.69543,-26.2825,0.0287155,-0.0650509,0.0355152,0.0406487,-0.076984,0.32415,0.0689868,0.0424024,1077,351,3.69545,26.2825
-140,673,3.92273,-25.661,0.0276712,-0.0546222,0.0378642,0.0424418,-0.0693929,0.371939,0.0651898,0.043644,1084,351,3.92278,25.661
-133,673,3.99841,-24.8424,0.0263726,-0.0438207,0.0400581,0.0445341,-0.0619822,0.42566,0.0617716,0.0452988,1091,351,3.99846,24.8424
-126,673,4.33142,-24.1909,0,0,0,0,0,0,0,-1,1098,351,4.33141,24.1909
-119,673,4.46411,-24.7168,0.0235573,-0.0234654,0.0430352,0.0490849,-0.0489929,0.535388,0.0566252,0.0414817,1105,351,4.4641,24.7168
-112,673,4.70215,-23.812,0.0217119,-0.015322,0.0436762,0.0506342,-0.0442444,0.584904,0.0548196,0.0396705,1112,351,4.70215,23.812
-105,673,4.92126,-22.7852,0,0,0,0,0,0,0,-1,1119,351,4.92124,22.7852
-98,673,5.15027,-21.5014,0,0,0,0,0,0,0,-1,1126,351,5.15026,21.5014
-91,673,8.84436,-25.6321,0,0,0,0,0,0,0,-1,1133,351,8.8443,25.6321
-84,673,3.66992,-23.3761,0,0,0,0,0,0,0,-1,1140,351,3.66988,23.3761
-77,673,-1.69958,-17.2119,0,0,0,0,0,0,0,-1,1147,351,-1.69959,17.212
-70,673,-7.15796,-10.6591,0,0,0,0,0,0,0,-1,1154,351,-7.15792,10.6591
-63,673,-12.606,-3.97971,0,0,0,0,0,0,0,-1,1161,351,-12.606,3.97969
-56,673,-18.0282,2.79053,0,0,0,0,0,0,0,-1,1168,351,-18.0283,-2.79052
-49,673,-0.926758,-0.115448,0,0,0,0,0,0,0,-1,1175,351,-0.926732,0.115444
-42,673,-1.15015,0.289917,0,0,0,0,0,0,0,-1,1182,351,-1.15017,-0.289932
-35,673,-0.919556,-1.00711,0,0,0,0,0,0,0,-1,1189,351,-0.919514,1.00711
-28,673,3.19104,-25.0986,0,0,0,0,0,0,0,-1,1196,351,3.19099,25.0986
-21,673,4.44421,-26.065,0,0,0,0,0,0,0,-1,1203,351,4.44424,26.065
-14,673,4.42688,-26.1653,-0.00866657,0.0321278,0.00440493,0.032598,-0.00913679,1.46445,0.0253329,0.0444758,1210,351,4.42684,26.1653
-7,673,4.34973,-26.306,-0.00845621,0.0350284,0.00399549,0.0353925,-0.00882028,1.47993,0.0270193,0.0396834,1217,351,4.34973,26.306
0,673,4.28247,-26.3769,-0.00776318,0.0372108,0.00342571,0.0374703,-0.00802262,1.49521,0.0280396,0.0437666,1224,351,4.28251,26.3769
7,673,4.06714,-26.2527,-0.00722467,0.0384975,0.00314945,0.0387134,-0.00744059,1.50234,0.0286135,0.0480083,1231,351,4.06716,26.2527
14,673,4.16125,-26.2422,-0.00543058,0.0382614,0.00315427,0.0384879,-0.00565712,1.4991,0.0277373,0.0372914,1238,351,4.16124,26.2422
21,673,3.96045,-26.4813,-0.00335388,0.0373118,0.00349958,0.0376107,-0.00365285,1.48557,0.0263759,0.0232739,1245,351,3.96048,26.4813
28,673,3.94531,-26.5172,-0.00112537,0.0359469,0.0044081,0.0364638,-0.00164231,1.45406,0.0248747,0.0164039,1252,351,3.94535,26.5172
35,673,3.93079,-26.5122,0.00115617,0.034486,0.00573172,0.0354442,0.000198031,1.40516,0.0235637,0.0257873,1259,351,3.93079,26.5122
42,673,3.7594,-26.5095,0.00315332,0.0331396,0.00710495,0.0347379,0.00155506,1.34953,0.022658,0.0300982,1266,351,3.75941,26.5095
49,673,3.70227,-26.528,0.00462034,0.0318285,0.00841819,0.0342224,0.00222639,1.29373,0.0221102,0.0197805,1273,351,3.70223,26.5279
56,673,3.70215,-26.4964,0.00566217,0.0305849,0.00979442,0.0339734,0.00227373,1.23773,0.0219303,0.0161206,1280,351,3.70209,26.4964
63,673,3.75854,-26.4254,0.00611066,0.0299451,0.0109795,0.0342319,0.00182388,1.19856,0.0222382,0.0179751,1287,351,3.75858,26.4255
70,673,3.72485,-26.4034,0.00616388,0.0296066,0.0115885,0.034368,0.00140243,1.18095,0.0224591,0.0284334,1294,351,3.72483,26.4034
77,673,3.70459,-26.2568,0.00557399,0.0300294,0.0118293,0.0348149,0.000788515,1.18638,0.0229516,0.0396867,1301,351,3.70458,26.2569
84,673,3.65051,-26.3842,0.00413761,0.0313611,0.0114063,0.0355084,-9.66713e-06,1.22206,0.0236755,0.0425383,1308,351,3.65054,26.3842
91,673,6.19043,-27.5584,0,0,0,0,0,0,0,-1,1315,351,6.19044,27.5584
98,673,5.25049,-26.726,0,0,0,0,0,0,0,-1,1322,351,5.25046,26.726
105,673,3.30933,-26.293,0,0,0,0,0,0,0,-1,1329,351,3.30931,26.293
112,673,3.2345,-26.1822,0,0,0,0,0,0,0,-1,1336,351,3.23446,26.1822
119,673,5.49268,-27.2208,0,0,0,0,0,0,0,-1,1343,351,5.49273,27.2208
126,673,5.71838,-27.3822,0,0,0,0,0,0,0,-1,1350,351,5.7184,27.3822
133,673,3.24304,-25.8349,-0.00614457,0.0393738,0.00295784,0.0395652,-0.00633597,1.50618,0.0287227,0.040402,1357,351,3.24308,25.8349
140,673,3.29504,-25.9146,-0.00635527,0.0385513,0.00234952,0.0386739,-0.00647786,1.51867,0.0281911,0.0396697,1364,351,3.29508,25.9146
147,673,3.16541,-25.7727,-0.00594677,0.0368409,0.00248367,0.0369846,-0.00609045,1.51301,0.0269172,0.0398627,1371,351,3.16543,25.7727
154,673,3.13464,-25.4776,-0.00514601,0.0347981,0.00330057,0.035069,-0.0054169,1.48891,0.0253784,0.0405335,1378,351,3.13468,25.4776
161,673,3.16064,-25.2772,0,0,0,0,0,0,0,-1,1385,351,3.16061,25.2772
168,673,6.87061,1.83954,0,0,0,0,0,0,0,-1,1392,351,6.87063,-1.83953
175,673,6.6228,1.1459,0,0,0,0,0,0,0,-1,1399,351,6.62276,-1.14591
182,673,6.37244,0.796112,0,0,0,0,0,0,0,-1,1406,351,6.3724,-0.796102
189,673,6.12097,0.265472,0,0,0,0,0,0,0,-1,1413,351,6.121,-0.265482
196,673,6.02173,3.12717,0,0,0,0,0,0,0,-1,1420,351,6.02176,-3.12717
203,673,5.04456,1.6351,0,0,0,0,0,0,0,-1,1427,351,5.04455,-1.63509
210,673,4.79224,0.447479,0,0,0,0,0,0,0,-1,1434,351,4.79229,-0.447469
217,673,2.01648,0.972687,0,0,0,0,0,0,0,-1,1441,351,2.01644,-0.972691
224,673,2.3689,-1.80539,0,0,0,0,0,0,0,-1,1448,351,2.36896,1.80539
231,673,2.65857,-2.18497,0,0,0,0,0,0,0,-1,1455,351,2.65852,2.18496
238,673,3.77844,-2.06088,0,0,0,0,0,0,0,-1,1462,351,3.77839,2.06088
245,673,3.5376,-0.190399,0,0,0,0,0,0,0,-1,1469,351,3.53759,0.1904
252,673,3.80518,0.55603,0,0,0,0,0,0,0,-1,1476,351,3.80519,-0.556022
259,673,3.88562,1.29617,0,0,0,0,0,0,0,-1,1483,351,3.88562,-1.29618
266,673,4.22424,2.04834,0,0,0,0,0,0,0,-1,1490,351,4.22429,-2.04834
273,673,6.07886,0.385895,0,0,0,0,0,0,0,-1,1497,351,6.0789,-0.385906
280,673,6.97534,-0.0820007,0,0,0,0,0,0,0,-1,1504,351,6.97536,0.0820122
287,673,7.66968,-0.348541,0,0,0,0,0,0,0,-1,1511,351,7.66969,0.348534
294,673,8.20996,0.28537,0,0,0,0,0,0,0,-1,1518,351,8.20993,-0.28536
301,673,0,0,0,0,0,0,0,0,0,-1,1525,351,0,0
308,673,0,0,0,0,0,0,0,0,0,-1,1532,351,0,0
315,673,0,0,0,0,0,0,0,0,0,-1,1539,351,0,0
322,673,0,0,0,0,0,0,0,0,0,-1,1546,351,0,0
329,673,0,0,0,0,0,0,0,0,0,-1,1553,351,0,0
336,673,0,0,0,0,0,0,0,0,0,-1,1560,351,0,0
343,673,0,0,0,0,0,0,0,0,0,-1,1567,351,0,0
350,673,0,0,0,0,0,0,0,0,0,-1,1574,351,0,0
357,673,0,0,0,0,0,0,0,0,0,-1,1581,351,0,0
364,673,0,0,0,0,0,0,0,0,0,-1,1588,351,0,0
371,673,0,0,0,0,0,0,0,0,0,-1,1595,351,0,0
378,673,0,0,0,0,0,0,0,0,0,-1,1602,351,0,0
385,673,0,0,0,0,0,0,0,0,0,-1,1609,351,0,0
392,673,0,0,0,0,0,0,0,0,0,-1,1616,351,0,0
399,673,0,0,0,0,0,0,0,0,0,-1,1623,351,0,0
406,673,0,0,0,0,0,0,0,0,0,-1,1630,351,0,0
413,673,0,0,0,0,0,0,0,0,0,-1,1637,351,0,0
420,673,0,0,0,0,0,0,0,0,0,-1,1644,351,0,0
427,673,0,0,0,0,0,0,0,0,0,-1,1651,351,0,0
434,673,0,0,0,0,0,0,0,0,0,-1,1658,351,0,0
441,673,0,0,0,0,0,0,0,0,0,-1,1665,351,0,0
448,673,0,0,0,0,0,0,0,0,0,-1,1672,351,0,0
455,673,0,0,0,0,0,0,0,0,0,-1,1679,351,0,0
462,673,0,0,0,0,0,0,0,0,0,-1,1686,351,0,0
469,673,0,0,0,0,0,0,0,0,0,-1,1693,351,0,0
476,673,0,0,0,0,0,0,0,0,0,-1,1700,351,0,0
483,673,0,0,0,0,0,0,0,0,0,-1,1707,351,0,0
490,673,0,0,0,0,0,0,0,0,0,-1,1714,351,0,0
497,673,0,0,0,0,0,0,0,0,0,-1,1721,351,0,0
504,673,0,0,0,0,0,0,0,0,0,-1,1728,351,0,0
511,673,0,0,0,0,0,0,0,0,0,-1,1735,351,0,0
518,673,0,0,0,0,0,0,0,0,0,-1,1742,351,0,0
525,673,0,0,0,0,0,0,0,0,0,-1,1749,351,0,0
532,673,0,0,0,0,0,0,0,0,0,-1,1756,351,0,0
539,673,0,0,0,0,0,0,0,0,0,-1,1763,351,0,0
546,673,0,0,0,0,0,0,0,0,0,-1,1770,351,0,0
553,673,0,0,0,0,0,0,0,0,0,-1,1777,351,0,0
560,673,0,0,0,0,0,0,0,0,0,-1,1784,351,0,0
567,673,0,0,0,0,0,0,0,0,0,-1,1791,351,0,0
574,673,0,0,0,0,0,0,0,0,0,-1,1798,351,0,0
581,673,0,0,0,0,0,0,0,0,0,-1,1805,351,0,0
588,673,0,0,0,0,0,0,0,0,0,-1,1812,351,0,0
595,673,0,0,0,0,0,0,0,0,0,-1,1819,351,0,0
602,673,0,0,0,0,0,0,0,0,0,-1,1826,351,0,0
609,673,0,0,0,0,0,0,0,0,0,-1,1833,351,0,0
616,673,0,0,0,0,0,0,0,0,0,-1,1840,351,0,0
623,673,0,0,0,0,0,0,0,0,0,-1,1847,351,0,0
630,673,0,0,0,0,0,0,0,0,0,-1,1854,351,0,0
637,673,0,0,0,0,0,0,0,0,0,-1,1861,351,0,0
644,673,0,0,0,0,0,0,0,0,0,-1,1868,351,0,0
651,673,0,0,0,0,0,0,0,0,0,-1,1875,351,0,0
658,673,0,0,0,0,0,0,0,0,0,-1,1882,351,0,0
665,673,0,0,0,0,0,0,0,0,0,-1,1889,351,0,0
672,673,0,0,0,0,0,0,0,0,0,-1,1896,351,0,0
679,673,0,0,0,0,0,0,0,0,0,-1,1903,351,0,0
686,673,0,0,0,0,0,0,0,0,0,-1,1910,351,0,0
693,673,0,0,0,0,0,0,0,0,0,-1,1917,351,0,0
700,673,0,0,0,0,0,0,0,0,0,-1,1924,351,0,0
707,673,0,0,0,0,0,0,0,0,0,-1,1931,351,0,0
714,673,0,0,0,0,0,0,0,0,0,-1,1938,351,0,0
721,673,0,0,0,0,0,0,0,0,0,-1,1945,351,0,0
728,673,0,0,0,0,0,0,0,0,0,-1,1952,351,0,0
735,673,0,0,0,0,0,0,0,0,0,-1,1959,351,0,0
742,673,0,0,0,0,0,0,0,0,0,-1,1966,351,0,0
749,673,0,0,0,0,0,0,0,0,0,-1,1973,351,0,0
756,673,0,0,0,0,0,0,0,0,0,-1,1980,351,0,0
763,673,0,0,0,0,0,0,0,0,0,-1,1987,351,0,0
770,673,0,0,0,0,0,0,0,0,0,-1,1994,351,0,0
777,673,0,0,0,0,0,0,0,0,0,-1,2001,351,0,0
784,673,0,0,0,0,0,0,0,0,0,-1,2008,351,0,0
791,673,0,0,0,0,0,0,0,0,0,-1,2015,351,0,0
798,673,0,0,0,0,0,0,0,0,0,-1,2022,351,0,0
805,673,0,0,0,0,0,0,0,0,0,-1,2029,351,0,0
812,673,0,0,0,0,0,0,0,0,0,-1,2036,351,0,0
-700,666,0,0,0,0,0,0,0,0,0,-1,524,358,0,0
-693,666,0,0,0,0,0,0,0,0,0,-1,531,358,0,0
-686,666,0,0,0,0,0,0,0,0,0,-1,538,358,0,0
-679,666,0,0,0,0,0,0,0,0,0,-1,545,358,0,0
-672,666,0,0,0,0,0,0,0,0,0,-1,552,358,0,0
-665,666,0,0,0,0,0,0,0,0,0,-1,559,358,0,0
-658,666,0,0,0,0,0,0,0,0,0,-1,566,358,0,0
-651,666,0,0,0,0,0,0,0,0,0,-1,573,358,0,0
-644,666,0,0,0,0,0,0,0,0,0,-1,580,358,0,0
-637,666,0,0,0,0,0,0,0,0,0,-1,587,358,0,0
-630,666,0,0,0,0,0,0,0,0,0,-1,594,358,0,0
-623,666,0,0,0,0,0,0,0,0,0,-1,601,358,0,0
-616,666,0,0,0,0,0,0,0,0,0,-1,608,358,0,0
-609,666,0,0,0,0,0,0,0,0,0,-1,615,358,0,0
-602,666,0,0,0,0,0,0,0,0,0,-1,622,358,0,0
-595,666,0,0,0,0,0,0,0,0,0,-1,629,358,0,0
-588,666,0,0,0,0,0,0,0,0,0,-1,636,358,0,0
-581,666,0,0,0,0,0,0,0,0,0,-1,643,358,0,0
-574,666,0,0,0,0,0,0,0,0,0,-1,650,358,0,0
-567,666,0,0,0,0,0,0,0,0,0,-1,657,358,0,0
-560,666,0,0,0,0,0,0,0,0,0,-1,664,358,0,0
-553,666,0,0,0,0,0,0,0,0,0,-1,671,358,0,0
-546,666,0,0,0,0,0,0,0,0,0,-1,678,358,0,0
-539,666,0,0,0,0,0,0,0,0,0,-1,685,358,0,0
-532,666,0,0,0,0,0,0,0,0,0,-1,692,358,0,0
-525,666,0,0,0,0,0,0,0,0,0,-1,699,358,0,0
-518,666,0,0,0,0,0,0,0,0,0,-1,706,358,0,0
-511,666,0,0,0,0,0,0,0,0,0,-1,713,358,0,0
-504,666,0,0,0,0,0,0,0,0,0,-1,720,358,0,0
-497,666,0,0,0,0,0,0,0,0,0,-1,727,358,0,0
-490,666,0,0,0,0,0,0,0,0,0,-1,734,358,0,0
-483,666,0,0,0,0,0,0,0,0,0,-1,741,358,0,0
-476,666,0,0,0,0,0,0,0,0,0,-1,748,358,0,0
-469,666,0,0,0,0,0,0,0,0,0,-1,755,358,0,0
-462,666,0,0,0,0,0,0,0,0,0,-1,762,358,0,0
-455,666,0,0,0,0,0,0,0,0,0,-1,769,358,0,0
-448,666,0,0,0,0,0,0,0,0,0,-1,776,358,0,0
-441,666,0,0,0,0,0,0,0,0,0,-1,783,358,0,0
-434,666,0,0,0,0,0,0,0,0,0,-1,790,358,0,0
-427,666,0,0,0,0,0,0,0,0,0,-1,797,358,0,0
-420,666,0,0,0,0,0,0,0,0,0,-1,804,358,0,0
-413,666,0,0,0,0,0,0,0,0,0,-1,811,358,0,0
-406,666,0,0,0,0,0,0,0,0,0,-1,818,358,0,0
-399,666,0,0,0,0,0,0,0,0,0,-1,825,358,0,0
-392,666,0,0,0,0,0,0,0,0,0,-1,832,358,0,0
-385,666,0,0,0,0,0,0,0,0,0,-1,839,358,0,0
-378,666,0,0,0,0,0,0,0,0,0,-1,846,358,0,0
-371,666,0,0,0,0,0,0,0,0,0,-1,853,358,0,0
-364,666,0,0,0,0,0,0,0,0,0,-1,860,358,0,0
-357,666,0,0,0,0,0,0,0,0,0,-1,867,358,0,0
-350,666,0,0,0,0,0,0,0,0,0,-1,874,358,0,0
-343,666,0,0,0,0,0,0,0,0,0,-1,881,358,0,0
-336,666,0,0,0,0,0,0,0,0,0,-1,888,358,0,0
-329,666,0,0,0,0,0,0,0,0,0,-1,895,358,0,0
-322,666,0,0,0,0,0,0,0,0,0,-1,902,358,0,0
-315,666,0,0,0,0,0,0,0,0,0,-1,909,358,0,0
-308,666,0,0,0,0,0,0,0,0,0,-1,916,358,0,0
-301,666,0,0,0,0,0,0,0,0,0,-1,923,358,0,0
-294,666,0,0,0,0,0,0,0,0,0,-1,930,358,0,0
-287,666,0,0,0,0,0,0,0,0,0,-1,937,358,0,0
-280,666,0,0,0,0,0,0,0,0,0,-1,944,358,0,0
-273,666,0,0,0,0,0,0,0,0,0,-1,951,358,0,0
-266,666,0,0,0,0,0,0,0,0,0,-1,958,358,0,0
-259,666,0,0,0,0,0,0,0,0,0,-1,965,358,0,0
-252,666,0,0,0,0,0,0,0,0,0,-1,972,358,0,0
-245,666,0,0,0,0,0,0,0,0,0,-1,979,358,0,0
-238,666,0,0,0,0,0,0,0,0,0,-1,986,358,0,0
-231,666,0,0,0,0,0,0,0,0,0,-1,993,358,0,0
-224,666,0,0,0,0,0,0,0,0,0,-1,1000,358,0,0
-217,666,0,0,0,0,0,0,0,0,0,-1,1007,358,0,0
-210,666,0,0,0,0,0,0,0,0,0,-1,1014,358,0,0
-203,666,0,0,0,0,0,0,0,0,0,-1,1021,358,0,0
-196,666,5.1001,-23.2438,0,0,0,0,0,0,0,-1,1028,358,5.10008,23.2438
-189,666,5.17297,-22.8721,0,0,0,0,0,0,0,-1,1035,358,5.17298,22.8721
-182,666,4.96997,-22.3043,0,0,0,0,0,0,0,-1,1042,358,4.96995,22.3043
-175,666,2.09656,-23.7436,0,0,0,0,0,0,0,-1,1049,358,2.09661,23.7436
-168,666,2.09924,-24.5481,0,0,0,0,0,0,0,-1,1056,358,2.0992,24.5481
-161,666,2.42358,-25.1821,0,0,0,0,0,0,0,-1,1063,358,2.42359,25.1821
-154,666,3.34436,-26.0331,0,0,0,0,0,0,0,-1,1070,358,3.34432,26.0331
-147,666,3.6272,-25.6932,0.0233196,-0.0519489,0.0235131,0.030061,-0.0586904,0.27922,0.0521217,0.0424354,1077,358,3.62724,25.6932
-140,666,3.9436,-25.2223,0.0223801,-0.0437421,0.0257882,0.0312483,-0.0526102,0.331218,0.0489366,0.0428842,1084,358,3.94364,25.2223
-133,666,4.18103,-24.4906,0.0211587,-0.0350381,0.0278831,0.0326455,-0.0465249,0.390777,0.0459426,0.0429493,1091,358,4.18102,24.4906
-126,666,4.36646,-23.8423,0,0,0,0,0,0,0,-1,1098,358,4.36642,23.8423
-119,666,4.80188,-24.5688,0.0184482,-0.0184607,0.0304994,0.0356417,-0.0356543,0.513327,0.0411628,0.0434691,1105,358,4.80189,24.5688
-112,666,4.7406,-24.0222,0.0168928,-0.011687,0.0308736,0.0366232,-0.0314174,0.568654,0.0393216,0.0428255,1112,358,4.74062,24.0222
-105,666,4.73157,-23.3407,0,0,0,0,0,0,0,-1,1119,358,4.73153,23.3407
-98,666,4.75623,-21.7956,0,0,0,0,0,0,0,-1,1126,358,4.75622,21.7956
-91,666,9.36877,-22.9226,0,0,0,0,0,0,0,-1,1133,358,9.36872,22.9226
-84,666,4.49243,-18.558,0,0,0,0,0,0,0,-1,1140,358,4.49245,18.558
-77,666,-0.874268,-14.3246,0,0,0,0,0,0,0,-1,1147,358,-0.87424,14.3246
-70,666,-6.32251,-7.67145,0,0,0,0,0,0,0,-1,1154,358,-6.3225,7.67145
-63,666,-11.7778,-0.975189,0,0,0,0,0,0,0,-1,1161,358,-11.7778,0.97519
-56,666,0.424683,-2.04132,0,0,0,0,0,0,0,-1,1168,358,0.424665,2.04132
-49,666,0.754395,-2.23169,0,0,0,0,0,0,0,-1,1175,358,0.754383,2.23169
-42,666,1.34473,-3.53897,0,0,0,0,0,0,0,-1,1182,358,1.34476,3.53896
-35,666,3.91162,-26.223,0,0,0,0,0,0,0,-1,1189,358,3.9116,26.223
-28,666,4.13672,-26.1606,0,0,0,0,0,0,0,-1,1196,358,4.1367,26.1606
-21,666,4.07288,-26.1465,-0.00704227,0.0188933,0.00383406,0.0194482,-0.00759719,1.42706,0.0161066,0.0330072,1203,358,4.07283,26.1465
-14,666,4.03003,-26.2445,-0.00744835,0.0206838,0.00391159,0.0212176,-0.0079821,1.43518,0.0174262,0.0284769,1210,358,4.03008,26.2445
-7,666,4.00183,-26.3204,-0.0073706,0.023042,0.0036437,0.0234725,-0.00780105,1.4532,0.0187963,0.0181243,1217,358,4.00189,26.3204
0,666,3.98938,-26.3993,-0.00684121,0.0249618,0.00324168,0.0252889,-0.00716827,1.47024,0.0196886,0.0122133,1224,358,3.98933,26.3993
7,666,3.95776,-26.4519,-0.00639,0.0262076,0.00305775,0.0264919,-0.00667434,1.47807,0.020256,0.016833,1231,358,3.95771,26.4519
14,666,3.9054,-26.4811,-0.00512904,0.026619,0.00305075,0.0269095,-0.00541954,1.47586,0.0199925,0.0162998,1238,358,3.9054,26.4811
21,666,3.84656,-26.5685,-0.00364607,0.0265577,0.00329639,0.0269133,-0.00400164,1.46334,0.019414,0.0112358,1245,358,3.84657,26.5685
28,666,3.8158,-26.6297,-0.00198293,0.0261289,0.00391171,0.0266631,-0.00251708,1.43508,0.018671,0.0116697,1252,358,3.81583,26.6297
35,666,3.83984,-26.6228,-0.000262173,0.025556,0.00482023,0.0264266,-0.00113275,1.39211,0.0180072,0.0116112,1259,358,3.83984,26.6228
42,666,3.79089,-26.6484,0.00125145,0.0250327,0.00575282,0.0263512,-6.70832e-05,1.34549,0.0175899,0.0129188,1266,358,3.79084,26.6484
49,666,3.72888,-26.6741,0.00238975,0.0244929,0.00664604,0.0263374,0.000545321,1.30009,0.0173793,0.0117701,1273,358,3.72884,26.6741
56,666,3.70959,-26.675,0.00324223,0.0239352,0.0075942,0.0264231,0.000754319,1.25421,0.0173694,0.0133986,1280,358,3.70957,26.675
63,666,3.66223,-26.6991,0.0036866,0.0237756,0.00842056,0.0268383,0.000623929,1.22196,0.0176879,0.0142288,1287,358,3.66218,26.6991
70,666,3.64722,-26.6675,0.00386015,0.0238133,0.00882374,0.0271556,0.000517929,1.20872,0.0179336,0.0142684,1294,358,3.64717,26.6675
77,666,3.62903,-26.5781,0.00354178,0.0243429,0.00895506,0.027667,0.00021774,1.21537,0.0183725,0.0195427,1301,358,3.62906,26.5781
84,666,3.62024,-26.5839,0.00259783,0.025447,0.00859329,0.0283181,-0.000273232,1.24835,0.0189705,0.0257876,1308,358,3.62027,26.5839
91,666,3.59045,-26.6187,0.00157105,0.0266072,0.00788417,0.0288831,-0.000704873,1.28977,0.0194946,0.0219252,1315,358,3.59039,26.6188
98,666,3.50867,-26.5654,0.000459347,0.0273988,0.00720733,0.0292058,-0.00134768,1.32514,0.019935,0.0196983,1322,358,3.50868,26.5654
105,666,3.43372,-26.4474,-0.000743849,0.028231,0.0064543,0.0296037,-0.00211655,1.36124,0.0204778,0.0222206,1329,358,3.4337,26.4474
112,666,3.4502,-26.2398,-0.00178124,0.0292477,0.00525705,0.0301142,-0.00264771,1.40744,0.0210143,0.0408633,1336,358,3.4502,26.2398
119,666,3.4447,-26.0612,-0.00287827,0.0300496,0.00419084,0.0305746,-0.00340328,1.44617,0.021607,0.0431035,1343,358,3.44466,26.0612
126,666,3.33411,-26.0673,-0.00379517,0.0305067,0.00322384,0.030807,-0.00409553,1.4779,0.0220305,0.0267359,1350,358,3.33408,26.0672
133,666,3.30762,-26.0012,-0.0043229,0.030367,0.00238775,0.0305306,-0.00448648,1.5024,0.0220022,0.0229076,1357,358,3.30762,26.0011
140,666,3.2887,-25.9961,-0.0044796,0.0295083,0.00196426,0.0296215,-0.00459275,1.51326,0.0214431,0.0223978,1364,358,3.28868,25.9961
147,666,3.24451,-25.8885,-0.00417816,0.0279526,0.00208465,0.0280873,-0.00431285,1.50628,0.0203156,0.0215906,1371,358,3.24456,25.8884
154,666,3.21924,-25.6278,-0.00362432,0.0261245,0.00267749,0.0263635,-0.00386338,1.48175,0.0189949,0.01847,1378,358,3.21921,25.6278
161,666,3.2179,-25.4937,-0.00309842,0.0243602,0.00328588,0.0247479,-0.00348616,1.45334,0.017775,0.02558,1385,358,3.21787,25.4936
168,666,3.19568,-25.5532,0,0,0,0,0,0,0,-1,1392,358,3.19567,25.5532
175,666,3.36548,-25.5231,0,0,0,0,0,0,0,-1,1399,358,3.36553,25.5231
182,666,2.60876,-5.17068,0,0,0,0,0,0,0,-1,1406,358,2.6088,5.17068
189,666,2.46973,-5.49979,0,0,0,0,0,0,0,-1,1413,358,2.46975,5.49979
196,666,2.32458,-5.23651,0,0,0,0,0,0,0,-1,1420,358,2.32461,5.23653
203,666,2.28064,-3.88004,0,0,0,0,0,0,0,-1,1427,358,2.28059,3.88003
210,666,3.02576,-5.83548,0,0,0,0,0,0,0,-1,1434,358,3.02581,5.83547
217,666,2.30444,-5.36011,0,0,0,0,0,0,0,-1,1441,358,2.30447,5.3601
224,666,1.82324,-6.03101,0,0,0,0,0,0,0,-1,1448,358,1.82322,6.031
231,666,2.29797,-10.1093,0,0,0,0,0,0,0,-1,1455,358,2.29801,10.1093
238,666,2.52429,-6.10568,0,0,0,0,0,0,0,-1,1462,358,2.52423,6.10567
245,666,4.53345,-1.38205,0,0,0,0,0,0,0,-1,1469,358,4.53349,1.38204
252,666,4.77405,-0.246979,0,0,0,0,0,0,0,-1,1476,358,4.77405,0.246993
259,666,4.83655,1.14087,0,0,0,0,0,0,0,-1,1483,358,4.83652,-1.14087
266,666,6.14148,0.749512,0,0,0,0,0,0,0,-1,1490,358,6.14144,-0.749519
273,666,2.61304,-1.53772,0,0,0,0,0,0,0,-1,1497,358,2.613,1.53773
280,666,8.70898,-0.836975,0,0,0,0,0,0,0,-1,1504,358,8.70894,0.836988
287,666,2.27039,-4.09058,0,0,0,0,0,0,0,-1,1511,358,2.27042,4.09059
294,666,-7.49707,-21.5876,0,0,0,0,0,0,0,-1,1518,358,-7.49702,21.5875
301,666,-6.94861,-23.4221,0,0,0,0,0,0,0,-1,1525,358,-6.94857,23.4221
308,666,1.08496,-1.87576,0,0,0,0,0,0,0,-1,1532,358,1.08491,1.87575
315,666,1.76294,-0.284027,0,0,0,0,0,0,0,-1,1539,358,1.76291,0.284016
322,666,0,0,0,0,0,0,0,0,0,-1,1546,358,0,0
329,666,0,0,0,0,0,0,0,0,0,-1,1553,358,0,0
336,666,0,0,0,0,0,0,0,0,0,-1,1560,358,0,0
343,666,0,0,0,0,0,0,0,0,0,-1,1567,358,0,0
350,666,0,0,0,0,0,0,0,0,0,-1,1574,358,0,0
357,666,0,0,0,0,0,0,0,0,0,-1,1581,358,0,0
364,666,0,0,0,0,0,0,0,0,0,-1,1588,358,0,0
371,666,0,0,0,0,0,0,0,0,0,-1,1595,358,0,0
378,666,0,0,0,0,0,0,0,0,0,-1,1602,358,0,0
385,666,0,0,0,0,0,0,0,0,0,-1,1609,358,0,0
392,666,0,0,0,0,0,0,0,0,0,-1,1616,358,0,0
399,666,0,0,0,0,0,0,0,0,0,-1,1623,358,0,0
406,666,0,0,0,0,0,0,0,0,0,-1,1630,358,0,0
413,666,0,0,0,0,0,0,0,0,0,-1,1637,358,0,0
420,666,0,0,0,0,0,0,0,0,0,-1,1644,358,0,0
427,666,0,0,0,0,0,0,0,0,0,-1,1651,358,0,0
434,666,0,0,0,0,0,0,0,0,0,-1,1658,358,0,0
441,666,0,0,0,0,0,0,0,0,0,-1,1665,358,0,0
448,666,0,0,0,0,0,0,0,0,0,-1,1672,358,0,0
455,666,0,0,0,0,0,0,0,0,0,-1,1679,358,0,0
462,666,0,0,0,0,0,0,0,0,0,-1,1686,358,0,0
469,666,0,0,0,0,0,0,0,0,0,-1,1693,358,0,0
476,666,0,0,0,0,0,0,0,0,0,-1,1700,358,0,0
483,666,0,0,0,0,0,0,0,0,0,-1,1707,358,0,0
490,666,0,0,0,0,0,0,0,0,0,-1,1714,358,0,0
497,666,0,0,0,0,0,0,0,0,0,-1,1721,358,0,0
504,666,0,0,0,0,0,0,0,0,0,-1,1728,358,0,0
511,666,0,0,0,0,0,0,0,0,0,-1,1735,358,0,0
518,666,0,0,0,0,0,0,0,0,0,-1,1742,358,0,0
525,666,0,0,0,0,0,0,0,0,0,-1,1749,358,0,0
532,666,0,0,0,0,0,0,0,0,0,-1,1756,358,0,0
539,666,0,0,0,0,0,0,0,0,0,-1,1763,358,0,0
546,666,0,0,0,0,0,0,0,0,0,-1,1770,358,0,0
553,666,0,0,0,0,0,0,0,0,0,-1,1777,358,0,0
560,666,0,0,0,0,0,0,0,0,0,-1,1784,358,0,0
567,666,0,0,0,0,0,0,0,0,0,-1,1791,358,0,0
574,666,0,0,0,0,0,0,0,0,0,-1,1798,358,0,0
581,666,0,0,0,0,0,0,0,0,0,-1,1805,358,0,0
588,666,0,0,0,0,0,0,0,0,0,-1,1812,358,0,0
595,666,0,0,0,0,0,0,0,0,0,-1,1819,358,0,0
602,666,0,0,0,0,0,0,0,0,0,-1,1826,358,0,0
609,666,0,0,0,0,0,0,0,0,0,-1,1833,358,0,0
616,666,0,0,0,0,0,0,0,0,0,-1,1840,358,0,0
623,666,0,0,0,0,0,0,0,0,0,-1,1847,358,0,0
630,666,0,0,0,0,0,0,0,0,0,-1,1854,358,0,0
637,666,0,0,0,0,0,0,0,0,0,-1,1861,358,0,0
644,666,0,0,0,0,0,0,0,0,0,-1,1868,358,0,0
651,666,0,0,0,0,0,0,0,0,0,-1,1875,358,0,0
658,666,0,0,0,0,0,0,0,0,0,-1,1882,358,0,0
665,666,0,0,0,0,0,0,0,0,0,-1,1889,358,0,0
672,666,0,0,0,0,0,0,0,0,0,-1,1896,358,0,0
679,666,0,0,0,0,0,0,0,0,0,-1,1903,358,0,0
686,666,0,0,0,0,0,0,0,0,0,-1,1910,358,0,0
693,666,0,0,0,0,0,0,0,0,0,-1,1917,358,0,0
700,666,0,0,0,0,0,0,0,0,0,-1,1924,358,0,0
707,666,0,0,0,0,0,0,0,0,0,-1,1931,358,0,0
714,666,0,0,0,0,0,0,0,0,0,-1,1938,358,0,0
721,666,0,0,0,0,0,0,0,0,0,-1,1945,358,0,0
728,666,0,0,0,0,0,0,0,0,0,-1,1952,358,0,0
735,666,0,0,0,0,0,0,0,0,0,-1,1959,358,0,0
742,666,0,0,0,0,0,0,0,0,0,-1,1966,358,0,0
749,666,0,0,0,0,0,0,0,0,0,-1,1973,358,0,0
756,666,0,0,0,0,0,0,0,0,0,-1,1980,358,0,0
763,666,0,0,0,0,0,0,0,0,0,-1,1987,358,0,0
770,666,0,0,0,0,0,0,0,0,0,-1,1994,358,0,0
777,666,0,0,0,0,0,0,0,0,0,-1,2001,358,0,0
784,666,0,0,0,0,0,0,0,0,0,-1,2008,358,0,0
791,666,0,0,0,0,0,0,0,0,0,-1,2015,358,0,0
798,666,0,0,0,0,0,0,0,0,0,-1,2022,358,0,0
805,666,0,0,0,0,0,0,0,0,0,-1,2029,358,0,0
812,666,0,0,0,0,0,0,0,0,0,-1,2036,358,0,0
-700,659,0,0,0,0,0,0,0,0,0,-1,524,365,0,0
-693,659,0,0,0,0,0,0,0,0,0,-1,531,365,0,0
-686,659,0,0,0,0,0,0,0,0,0,-1,538,365,0,0
-679,659,0,0,0,0,0,0,0,0,0,-1,545,365,0,0
-672,659,0,0,0,0,0,0,0,0,0,-1,552,365,0,0
-665,659,0,0,0,0,0,0,0,0,0,-1,559,365,0,0
-658,659,0,0,0,0,0,0,0,0,0,-1,566,365,0,0
-651,659,0,0,0,0,0,0,0,0,0,-1,573,365,0,0
-644,659,0,0,0,0,0,0,0,0,0,-1,580,365,0,0
-637,659,0,0,0,0,0,0,0,0,0,-1,587,365,0,0
-630,659,0,0,0,0,0,0,0,0,0,-1,594,365,0,0
-623,659,0,0,0,0,0,0,0,0,0,-1,601,365,0,0
-616,659,0,0,0,0,0,0,0,0,0,-1,608,365,0,0
-609,659,0,0,0,0,0,0,0,0,0,-1,615,365,0,0
-602,659,0,0,0,0,0,0,0,0,0,-1,622,365,0,0
-595,659,0,0,0,0,0,0,0,0,0,-1,629,365,0,0
-588,659,0,0,0,0,0,0,0,0,0,-1,636,365,0,0
-581,659,0,0,0,0,0,0,0,0,0,-1,643,365,0,0
-574,659,0,0,0,0,0,0,0,0,0,-1,650,365,0,0
-567,659,0,0,0,0,0,0,0,0,0,-1,657,365,0,0
-560,659,0,0,0,0,0,0,0,0,0,-1,664,365,0,0
-553,659,0,0,0,0,0,0,0,0,0,-1,671,365,0,0
-546,659,0,0,0,0,0,0,0,0,0,-1,678,365,0,0
-539,659,0,0,0,0,0,0,0,0,0,-1,685,365,0,0
-532,659,0,0,0,0,0,0,0,0,0,-1,692,365,0,0
-525,659,0,0,0,0,0,0,0,0,0,-1,699,365,0,0
-518,659,0,0,0,0,0,0,0,0,0,-1,706,365,0,0
-511,659,0,0,0,0,0,0,0,0,0,-1,713,365,0,0
-504,659,0,0,0,0,0,0,0,0,0,-1,720,365,0,0
-497,659,0,0,0,0,0,0,0,0,0,-1,727,365,0,0
-490,659,0,0,0,0,0,0,0,0,0,-1,734,365,0,0
-483,659,0,0,0,0,0,0,0,0,0,-1,741,365,0,0
-476,659,0,0,0,0,0,0,0,0,0,-1,748,365,0,0
-469,659,0,0,0,0,0,0,0,0,0,-1,755,365,0,0
-462,659,0,0,0,0,0,0,0,0,0,-1,762,365,0,0
-455,659,0,0,0,0,0,0,0,0,0,-1,769,365,0,0
-448,659,0,0,0,0,0,0,0,0,0,-1,776,365,0,0
-441,659,0,0,0,0,0,0,0,0,0,-1,783,365,0,0
-434,659,0,0,0,0,0,0,0,0,0,-1,790,365,0,0
-427,659,0,0,0,0,0,0,0,0,0,-1,797,365,0,0
-420,659,0,0,0,0,0,0,0,0,0,-1,804,365,0,0
-413,659,0,0,0,0,0,0,0,0,0,-1,811,365,0,0
-406,659,0,0,0,0,0,0,0,0,0,-1,818,365,0,0
-399,659,0,0,0,0,0,0,0,0,0,-1,825,365,0,0
-392,659,0,0,0,0,0,0,0,0,0,-1,832,365,0,0
-385,659,0,0,0,0,0,0,0,0,0,-1,839,365,0,0
-378,659,0,0,0,0,0,0,0,0,0,-1,846,365,0,0
-371,659,0,0,0,0,0,0,0,0,0,-1,853,365,0,0
-364,659,0,0,0,0,0,0,0,0,0,-1,860,365,0,0
-357,659,0,0,0,0,0,0,0,0,0,-1,867,365,0,0
-350,659,0,0,0,0,0,0,0,0,0,-1,874,365,0,0
-343,659,0,0,0,0,0,0,0,0,0,-1,881,365,0,0
-336,659,0,0,0,0,0,0,0,0,0,-1,888,365,0,0
-329,659,0,0,0,0,0,0,0,0,0,-1,895,365,0,0
-322,659,0,0,0,0,0,0,0,0,0,-1,902,365,0,0
-315,659,0,0,0,0,0,0,0,0,0,-1,909,365,0,0
-308,659,0,0,0,0,0,0,0,0,0,-1,916,365,0,0
-301,659,0,0,0,0,0,0,0,0,0,-1,923,365,0,0
-294,659,0,0,0,0,0,0,0,0,0,-1,930,365,0,0
-287,659,0,0,0,0,0,0,0,0,0,-1,937,365,0,0
-280,659,0,0,0,0,0,0,0,0,0,-1,944,365,0,0
-273,659,0,0,0,0,0,0,0,0,0,-1,951,365,0,0
-266,659,0,0,0,0,0,0,0,0,0,-1,958,365,0,0
-259,659,0,0,0,0,0,0,0,0,0,-1,965,365,0,0
-252,659,0,0,0,0,0,0,0,0,0,-1,972,365,0,0
-245,659,0,0,0,0,0,0,0,0,0,-1,979,365,0,0
-238,659,0,0,0,0,0,0,0,0,0,-1,986,365,0,0
-231,659,0,0,0,0,0,0,0,0,0,-1,993,365,0,0
-224,659,0,0,0,0,0,0,0,0,0,-1,1000,365,0,0
-217,659,3.57001,-16.8541,0,0,0,0,0,0,0,-1,1007,365,3.57003,16.8541
-210,659,3.20129,-17.9641,0,0,0,0,0,0,0,-1,1014,365,3.2013,17.9641
-203,659,3.95166,-22.319,0,0,0,0,0,0,0,-1,1021,365,3.95166,22.319
-196,659,4.61292,-21.8292,0,0,0,0,0,0,0,-1,1028,365,4.61293,21.8292
-189,659,4.98706,-21.7021,0,0,0,0,0,0,0,-1,1035,365,4.98712,21.7022
-182,659,4.84436,-21.3565,0,0,0,0,0,0,0,-1,1042,365,4.84438,21.3565
-175,659,4.51208,-21.1544,0,0,0,0,0,0,0,-1,1049,365,4.51209,21.1544
-168,659,2.63733,-24.2626,0,0,0,0,0,0,0,-1,1056,365,2.63733,24.2626
-161,659,4.55969,-23.989,0,0,0,0,0,0,0,-1,1063,365,4.55968,23.989
-154,659,3.39819,-24.8532,0,0,0,0,0,0,0,-1,1070,365,3.3982,24.8532
-147,659,3.71631,-24.7873,0,0,0,0,0,0,0,-1,1077,365,3.71626,24.7873
-140,659,2.89404,-23.7185,0,0,0,0,0,0,0,-1,1084,365,2.89401,23.7185
-133,659,4.97009,-23.9465,0.016325,-0.0270385,0.0183999,0.0230801,-0.0337936,0.35185,0.0330297,0.0405877,1091,365,4.97013,23.9465
-126,659,5.47571,-23.6128,0.0151837,-0.0202202,0.0198823,0.0241025,-0.029139,0.421672,0.0307848,0.0387815,1098,365,5.47569,23.6128
-119,659,4.44946,-24.2622,0,0,0,0,0,0,0,-1,1105,365,4.4495,24.2622
-112,659,4.44165,-24.1033,0.0125951,-0.00834158,0.0210379,0.0256252,-0.0213717,0.554537,0.0271707,0.0376394,1112,365,4.44162,24.1033
-105,659,4.45825,-23.9774,0.0110486,-0.00390914,0.0205947,0.0254804,-0.0183409,0.61123,0.0254119,0.0435121,1119,365,4.45822,23.9774
-98,659,4.35999,-24.2194,0,0,0,0,0,0,0,-1,1126,365,4.36002,24.2194
-91,659,4.20776,-20.8654,0,0,0,0,0,0,0,-1,1133,365,4.20777,20.8654
-84,659,2.8584,-17.8303,0,0,0,0,0,0,0,-1,1140,365,2.85836,17.8303
-77,659,2.80139,-15.3457,0,0,0,0,0,0,0,-1,1147,365,2.80139,15.3457
-70,659,2.9353,-12.7028,0,0,0,0,0,0,0,-1,1154,365,2.93533,12.7028
-63,659,2.11267,-9.7796,0,0,0,0,0,0,0,-1,1161,365,2.11266,9.7796
-56,659,2.11182,-9.91541,0,0,0,0,0,0,0,-1,1168,365,2.11178,9.91541
-49,659,4.08655,-25.7834,0,0,0,0,0,0,0,-1,1175,365,4.08661,25.7834
-42,659,4.08191,-25.9183,0,0,0,0,0,0,0,-1,1182,365,4.0819,25.9183
-35,659,4.01587,-26.118,-0.00552221,0.00784873,0.00272135,0.00838138,-0.00605486,1.37751,0.00837076,0.0450013,1189,365,4.01587,26.1179
-28,659,4.0553,-26.1547,-0.00572064,0.0102084,0.00276921,0.0106761,-0.00618833,1.40349,0.00985093,0.0160034,1196,365,4.05531,26.1547
-21,659,4.00684,-26.2436,-0.00565835,0.0122281,0.00296358,0.0127064,-0.0061366,1.4108,0.0110972,0.0119289,1203,365,4.00678,26.2436
-14,659,3.95508,-26.367,-0.00594181,0.0134638,0.00314193,0.0139598,-0.00643784,1.41422,0.0120405,0.00998542,1210,365,3.95504,26.367
-7,659,3.92383,-26.4462,-0.00591612,0.0150943,0.00301318,0.0155179,-0.00633971,1.43113,0.012985,0.00966523,1217,365,3.92387,26.4462
0,659,3.92126,-26.4925,-0.00553346,0.0164881,0.0027637,0.0168296,-0.005875,1.44784,0.0136076,0.0083924,1224,365,3.92124,26.4925
7,659,3.90527,-26.535,-0.00517606,0.0174612,0.00264501,0.0177662,-0.005481,1.45601,0.0140326,0.00794719,1231,365,3.90523,26.535
14,659,3.86658,-26.5748,-0.00444212,0.0181122,0.00264246,0.0184177,-0.00474758,1.45571,0.0141294,0.010795,1238,365,3.86658,26.5748
21,659,3.83179,-26.6377,-0.00355359,0.0185618,0.00282255,0.0189163,-0.00390814,1.44584,0.0140954,0.0115907,1245,365,3.83175,26.6377
28,659,3.79297,-26.6928,-0.00241747,0.0186605,0.00323024,0.0191445,-0.0029014,1.42209,0.0138319,0.0111592,1252,365,3.79301,26.6928
35,659,3.7948,-26.7181,-0.00121721,0.0186237,0.00384407,0.0193424,-0.00193595,1.38596,0.0135863,0.0116185,1259,365,3.7948,26.7181
42,659,3.77991,-26.7315,-0.000166629,0.0186082,0.00447227,0.0196191,-0.00117752,1.3485,0.013489,0.0116971,1266,365,3.77994,26.7315
49,659,3.74426,-26.7419,0.000636318,0.0185549,0.0050775,0.0198937,-0.000702444,1.313,0.0135027,0.0112233,1273,365,3.7443,26.742
56,659,3.70361,-26.7576,0.00127269,0.018433,0.00571813,0.0201638,-0.000458129,1.27687,0.0135978,0.0142594,1280,365,3.70364,26.7576
63,659,3.68152,-26.7656,0.00165549,0.018553,0.00628253,0.0206329,-0.000424359,1.2511,0.0138989,0.0153605,1287,365,3.68157,26.7656
70,659,3.63379,-26.7403,0.0018766,0.0187802,0.00654352,0.0210172,-0.0003604,1.24139,0.0141332,0.0172455,1294,365,3.63374,26.7403
77,659,3.58484,-26.7101,0.00175457,0.0192891,0.00660445,0.0214983,-0.000454676,1.24799,0.0144861,0.0172662,1301,365,3.58485,26.7101
84,659,3.58252,-26.7039,0.00119956,0.0201207,0.0062938,0.0220229,-0.000702724,1.27728,0.0149217,0.0124213,1308,365,3.58248,26.7039
91,659,3.55054,-26.6759,0.000606642,0.0208956,0.00574095,0.0224074,-0.000905164,1.3133,0.0152489,0.0109937,1315,365,3.55056,26.6759
98,659,3.53955,-26.6139,-7.38057e-05,0.0213639,0.00524435,0.0225781,-0.00128798,1.34329,0.0154992,0.00842631,1322,365,3.53951,26.6139
105,659,3.5166,-26.5151,-0.00082771,0.021849,0.00470568,0.0227867,-0.00176542,1.3741,0.0158125,0.00948126,1329,365,3.51659,26.5151
112,659,3.50671,-26.4307,-0.00143754,0.0224312,0.00385034,0.023037,-0.00204328,1.41475,0.0160824,0.0125804,1336,365,3.50671,26.4307
119,659,3.48706,-26.3573,-0.00203949,0.0227647,0.00307597,0.0231405,-0.00241525,1.44924,0.0162919,0.0139423,1343,365,3.48701,26.3573
126,659,3.41968,-26.2506,-0.00254548,0.0228061,0.00239308,0.02303,-0.0027694,1.4775,0.0163548,0.0125104,1350,365,3.41965,26.2506
133,659,3.38452,-26.1491,-0.0029079,0.0225375,0.00185085,0.0226715,-0.00304182,1.49856,0.0162236,0.0110684,1357,365,3.38449,26.1491
140,659,3.36511,-26.0804,-0.00302299,0.0217879,0.00161817,0.021893,-0.00312808,1.50594,0.015742,0.00936931,1364,365,3.36514,26.0804
147,659,3.3457,-25.975,-0.00282981,0.0205665,0.00176182,0.0206985,-0.00296174,1.49605,0.0148848,0.00879841,1371,365,3.34566,25.975
154,659,3.31677,-25.828,-0.00248978,0.0191424,0.0022095,0.0193658,-0.00271315,1.47004,0.0139035,0.00942744,1378,365,3.31678,25.828
161,659,3.29761,-25.6886,-0.0021987,0.0177679,0.00265641,0.0181153,-0.00254607,1.44077,0.0130089,0.0114126,1385,365,3.29757,25.6886
168,659,3.29529,-25.5497,-0.00214394,0.0158985,0.00315371,0.0164338,-0.0026793,1.40264,0.0119495,0.0184044,1392,365,3.29533,25.5497
175,659,3.29553,-25.4286,-0.00230778,0.0136257,0.00387459,0.0145179,-0.00320001,1.34446,0.0109029,0.041369,1399,365,3.29549,25.4286
182,659,3.17761,-25.3552,0,0,0,0,0,0,0,-1,1406,365,3.17766,25.3552
189,659,3.27783,-24.9538,0,0,0,0,0,0,0,-1,1413,365,3.27779,24.9538
196,659,2.41248,-13.4371,0,0,0,0,0,0,0,-1,1420,365,2.41243,13.4371
203,659,2.38623,-12.2163,0,0,0,0,0,0,0,-1,1427,365,2.38617,12.2163
210,659,2.20789,-13.9792,0,0,0,0,0,0,0,-1,1434,365,2.20794,13.9792
217,659,2.24121,-13.487,0,0,0,0,0,0,0,-1,1441,365,2.24116,13.487
224,659,2.3479,-15.2926,0,0,0,0,0,0,0,-1,1448,365,2.34793,15.2926
231,659,2.47974,-17.8629,0,0,0,0,0,0,0,-1,1455,365,2.47976,17.8628
238,659,3.57886,-21.1258,0,0,0,0,0,0,0,-1,1462,365,3.57889,21.1258
245,659,3.26538,-23.9443,0,0,0,0,0,0,0,-1,1469,365,3.26538,23.9443
252,659,2.81909,-24.1604,0,0,0,0,0,0,0,-1,1476,365,2.81905,24.1604
259,659,2.33069,-3.36703,0,0,0,0,0,0,0,-1,1483,365,2.33073,3.36702
266,659,1.72681,-17.183,0,0,0,0,0,0,0,-1,1490,365,1.72683,17.183
273,659,2.4375,-14.5841,0,0,0,0,0,0,0,-1,1497,365,2.43748,14.5841
280,659,1.70947,-9.4129,0,0,0,0,0,0,0,-1,1504,365,1.70952,9.4129
287,659,-5.57568,-20.9387,0,0,0,0,0,0,0,-1,1511,365,-5.57562,20.9386
294,659,-5.35767,-21.0529,0,0,0,0,0,0,0,-1,1518,365,-5.35764,21.0529
301,659,-5.05615,-22.3274,0,0,0,0,0,0,0,-1,1525,365,-5.05609,22.3274
308,659,-3.77832,-24.1487,0,0,0,0,0,0,0,-1,1532,365,-3.77827,24.1487
315,659,2.17102,-2.98474,0,0,0,0,0,0,0,-1,1539,365,2.171,2.98473
322,659,0.382813,-2.2424,0,0,0,0,0,0,0,-1,1546,365,0.382801,2.2424
329,659,0.604004,-1.75998,0,0,0,0,0,0,0,-1,1553,365,0.603966,1.75998
336,659,2.09851,-1.17941,0,0,0,0,0,0,0,-1,1560,365,2.09857,1.17942
343,659,0,0,0,0,0,0,0,0,0,-1,1567,365,0,0
350,659,0,0,0,0,0,0,0,0,0,-1,1574,365,0,0
357,659,0,0,0,0,0,0,0,0,0,-1,1581,365,0,0
364,659,0,0,0,0,0,0,0,0,0,-1,1588,365,0,0
371,659,0,0,0,0,0,0,0,0,0,-1,1595,365,0,0
378,659,0,0,0,0,0,0,0,0,0,-1,1602,365,0,0
385,659,0,0,0,0,0,0,0,0,0,-1,1609,365,0,0
392,659,0,0,0,0,0,0,0,0,0,-1,1616,365,0,0
399,659,0,0,0,0,0,0,0,0,0,-1,1623,365,0,0
406,659,0,0,0,0,0,0,0,0,0,-1,1630,365,0,0
413,659,0,0,0,0,0,0,0,0,0,-1,1637,365,0,0
420,659,0,0,0,0,0,0,0,0,0,-1,1644,365,0,0
427,659,0,0,0,0,0,0,0,0,0,-1,1651,365,0,0
434,659,0,0,0,0,0,0,0,0,0,-1,1658,365,0,0
441,659,0,0,0,0,0,0,0,0,0,-1,1665,365,0,0
448,659,0,0,0,0,0,0,0,0,0,-1,1672,365,0,0
455,659,0,0,0,0,0,0,0,0,0,-1,1679,365,0,0
462,659,0,0,0,0,0,0,0,0,0,-1,1686,365,0,0
469,659,0,0,0,0,0,0,0,0,0,-1,1693,365,0,0
476,659,0,0,0,0,0,0,0,0,0,-1,1700,365,0,0
483,659,0,0,0,0,0,0,0,0,0,-1,1707,365,0,0
490,659,0,0,0,0,0,0,0,0,0,-1,1714,365,0,0
497,659,0,0,0,0,0,0,0,0,0,-1,1721,365,0,0
504,659,0,0,0,0,0,0,0,0,0,-1,1728,365,0,0
511,659,0,0,0,0,0,0,0,0,0,-1,1735,365,0,0
518,659,0,0,0,0,0,0,0,0,0,-1,1742,365,0,0
525,659,0,0,0,0,0,0,0,0,0,-1,1749,365,0,0
532,659,0,0,0,0,0,0,0,0,0,-1,1756,365,0,0
539,659,0,0,0,0,0,0,0,0,0,-1,1763,365,0,0
546,659,0,0,0,0,0,0,0,0,0,-1,1770,365,0,0
553,659,0,0,0,0,0,0,0,0,0,-1,1777,365,0,0
560,659,0,0,0,0,0,0,0,0,0,-1,1784,365,0,0
567,659,0,0,0,0,0,0,0,0,0,-1,1791,365,0,0
574,659,0,0,0,0,0,0,0,0,0,-1,1798,365,0,0
581,659,0,0,0,0,0,0,0,0,0,-1,1805,365,0,0
588,659,0,0,0,0,0,0,0,0,0,-1,1812,365,0,0
595,659,0,0,0,0,0,0,0,0,0,-1,1819,365,0,0
602,659,0,0,0,0,0,0,0,0,0,-1,1826,365,0,0
609,659,0,0,0,0,0,0,0,0,0,-1,1833,365,0,0
616,659,0,0,0,0,0,0,0,0,0,-1,1840,365,0,0
623,659,0,0,0,0,0,0,0,0,0,-1,1847,365,0,0
630,659,0,0,0,0,0,0,0,0,0,-1,1854,365,0,0
637,659,0,0,0,0,0,0,0,0,0,-1,1861,365,0,0
644,659,0,0,0,0,0,0,0,0,0,-1,1868,365,0,0
651,659,0,0,0,0,0,0,0,0,0,-1,1875,365,0,0
658,659,0,0,0,0,0,0,0,0,0,-1,1882,365,0,0
665,659,0,0,0,0,0,0,0,0,0,-1,1889,365,0,0
672,659,0,0,0,0,0,0,0,0,0,-1,1896,365,0,0
679,659,0,0,0,0,0,0,0,0,0,-1,1903,365,0,0
686,659,0,0,0,0,0,0,0,0,0,-1,1910,365,0,0
693,659,0,0,0,0,0,0,0,0,0,-1,1917,365,0,0
700,659,0,0,0,0,0,0,0,0,0,-1,1924,365,0,0
707,659,0,0,0,0,0,0,0,0,0,-1,1931,365,0,0
714,659,0,0,0,0,0,0,0,0,0,-1,1938,365,0,0
721,659,0,0,0,0,0,0,0,0,0,-1,1945,365,0,0
728,659,0,0,0,0,0,0,0,0,0,-1,1952,365,0,0
735,659,0,0,0,0,0,0,0,0,0,-1,1959,365,0,0
742,659,0,0,0,0,0,0,0,0,0,-1,1966,365,0,0
749,659,0,0,0,0,0,0,0,0,0,-1,1973,365,0,0
756,659,0,0,0,0,0,0,0,0,0,-1,1980,365,0,0
763,659,0,0,0,0,0,0,0,0,0,-1,1987,365,0,0
770,659,0,0,0,0,0,0,0,0,0,-1,1994,365,0,0
777,659,0,0,0,0,0,0,0,0,0,-1,2001,365,0,0
784,659,0,0,0,0,0,0,0,0,0,-1,2008,365,0,0
791,659,0,0,0,0,0,0,0,0,0,-1,2015,365,0,0
798,659,0,0,0,0,0,0,0,0,0,-1,2022,365,0,0
805,659,0,0,0,0,0,0,0,0,0,-1,2029,365,0,0
812,659,0,0,0,0,0,0,0,0,0,-1,2036,365,0,0
-700,652,0,0,0,0,0,0,0,0,0,-1,524,372,0,0
-693,652,0,0,0,0,0,0,0,0,0,-1,531,372,0,0
-686,652,0,0,0,0,0,0,0,0,0,-1,538,372,0,0
-679,652,0,0,0,0,0,0,0,0,0,-1,545,372,0,0
-672,652,0,0,0,0,0,0,0,0,0,-1,552,372,0,0
-665,652,0,0,0,0,0,0,0,0,0,-1,559,372,0,0
-658,652,0,0,0,0,0,0,0,0,0,-1,566,372,0,0
-651,652,0,0,0,0,0,0,0,0,0,-1,573,372,0,0
-644,652,0,0,0,0,0,0,0,0,0,-1,580,372,0,0
-637,652,0,0,0,0,0,0,0,0,0,-1,587,372,0,0
-630,652,0,0,0,0,0,0,0,0,0,-1,594,372,0,0
-623,652,0,0,0,0,0,0,0,0,0,-1,601,372,0,0
-616,652,0,0,0,0,0,0,0,0,0,-1,608,372,0,0
-609,652,0,0,0,0,0,0,0,0,0,-1,615,372,0,0
-602,652,0,0,0,0,0,0,0,0,0,-1,622,372,0,0
-595,652,0,0,0,0,0,0,0,0,0,-1,629,372,0,0
-588,652,0,0,0,0,0,0,0,0,0,-1,636,372,0,0
-581,652,0,0,0,0,0,0,0,0,0,-1,643,372,0,0
-574,652,0,0,0,0,0,0,0,0,0,-1,650,372,0,0
-567,652,0,0,0,0,0,0,0,0,0,-1,657,372,0,0
-560,652,0,0,0,0,0,0,0,0,0,-1,664,372,0,0
-553,652,0,0,0,0,0,0,0,0,0,-1,671,372,0,0
-546,652,0,0,0,0,0,0,0,0,0,-1,678,372,0,0
-539,652,0,0,0,0,0,0,0,0,0,-1,685,372,0,0
-532,652,0,0,0,0,0,0,0,0,0,-1,692,372,0,0
-525,652,0,0,0,0,0,0,0,0,0,-1,699,372,0,0
-518,652,0,0,0,0,0,0,0,0,0,-1,706,372,0,0
-511,652,0,0,0,0,0,0,0,0,0,-1,713,372,0,0
-504,652,0,0,0,0,0,0,0,0,0,-1,720,372,0,0
-497,652,0,0,0,0,0,0,0,0,0,-1,727,372,0,0
-490,652,0,0,0,0,0,0,0,0,0,-1,734,372,0,0
-483,652,0,0,0,0,0,0,0,0,0,-1,741,372,0,0
-476,652,0,0,0,0,0,0,0,0,0,-1,748,372,0,0
-469,652,0,0,0,0,0,0,0,0,0,-1,755,372,0,0
-462,652,0,0,0,0,0,0,0,0,0,-1,762,372,0,0
-455,652,0,0,0,0,0,0,0,0,0,-1,769,372,0,0
-448,652,0,0,0,0,0,0,0,0,0,-1,776,372,0,0
-441,652,0,0,0,0,0,0,0,0,0,-1,783,372,0,0
-434,652,0,0,0,0,0,0,0,0,0,-1,790,372,0,0
-427,652,0,0,0,0,0,0,0,0,0,-1,797,372,0,0
-420,652,0,0,0,0,0,0,0,0,0,-1,804,372,0,0
-413,652,0,0,0,0,0,0,0,0,0,-1,811,372,0,0
-406,652,0,0,0,0,0,0,0,0,0,-1,818,372,0,0
-399,652,0,0,0,0,0,0,0,0,0,-1,825,372,0,0
-392,652,0,0,0,0,0,0,0,0,0,-1,832,372,0,0
-385,652,0,0,0,0,0,0,0,0,0,-1,839,372,0,0
-378,652,0,0,0,0,0,0,0,0,0,-1,846,372,0,0
-371,652,0,0,0,0,0,0,0,0,0,-1,853,372,0,0
-364,652,0,0,0,0,0,0,0,0,0,-1,860,372,0,0
-357,652,0,0,0,0,0,0,0,0,0,-1,867,372,0,0
-350,652,0,0,0,0,0,0,0,0,0,-1,874,372,0,0
-343,652,0,0,0,0,0,0,0,0,0,-1,881,372,0,0
-336,652,0,0,0,0,0,0,0,0,0,-1,888,372,0,0
-329,652,0,0,0,0,0,0,0,0,0,-1,895,372,0,0
-322,652,0,0,0,0,0,0,0,0,0,-1,902,372,0,0
-315,652,0,0,0,0,0,0,0,0,0,-1,909,372,0,0
-308,652,0,0,0,0,0,0,0,0,0,-1,916,372,0,0
-301,652,0,0,0,0,0,0,0,0,0,-1,923,372,0,0
-294,652,0,0,0,0,0,0,0,0,0,-1,930,372,0,0
-287,652,0,0,0,0,0,0,0,0,0,-1,937,372,0,0
-280,652,0,0,0,0,0,0,0,0,0,-1,944,372,0,0
-273,652,0,0,0,0,0,0,0,0,0,-1,951,372,0,0
-266,652,0,0,0,0,0,0,0,0,0,-1,958,372,0,0
-259,652,0,0,0,0,0,0,0,0,0,-1,965,372,0,0
-252,652,0,0,0,0,0,0,0,0,0,-1,972,372,0,0
-245,652,0,0,0,0,0,0,0,0,0,-1,979,372,0,0
-238,652,0,0,0,0,0,0,0,0,0,-1,986,372,0,0
-231,652,5.89001,-20.7078,0,0,0,0,0,0,0,-1,993,372,5.89002,20.7078
-224,652,9.47449,-18.002,0,0,0,0,0,0,0,-1,1000,372,9.47449,18.002
-217,652,2.88489,-16.6299,0,0,0,0,0,0,0,-1,1007,372,2.88488,16.6299
-210,652,2.83881,-19.5396,0,0,0,0,0,0,0,-1,1014,372,2.83878,19.5396
-203,652,4.10132,-21.9535,0,0,0,0,0,0,0,-1,1021,372,4.10132,21.9535
-196,652,4.27429,-21.2404,0,0,0,0,0,0,0,-1,1028,372,4.27429,21.2404
-189,652,3.99426,-21.8212,0,0,0,0,0,0,0,-1,1035,372,3.99424,21.8212
-182,652,3.85583,-22.0994,0,0,0,0,0,0,0,-1,1042,372,3.8558,22.0994
-175,652,3.69666,-21.1419,0,0,0,0,0,0,0,-1,1049,372,3.69663,21.1419
-168,652,4.42432,-23.6095,0,0,0,0,0,0,0,-1,1056,372,4.42434,23.6095
-161,652,3.13196,-23.5972,0,0,0,0,0,0,0,-1,1063,372,3.1319,23.5972
-154,652,3.19446,-23.8751,0.0140023,-0.0335926,0.00552588,0.0146355,-0.0342258,0.11408,0.028956,0.0439655,1070,372,3.19447,23.8751
-147,652,3.62109,-23.9486,0.013586,-0.0299765,0.0074211,0.0148155,-0.031206,0.164188,0.0271264,0.0446294,1077,372,3.62113,23.9486
-140,652,3.27185,-23.5155,0.013,-0.0253427,0.00940791,0.015184,-0.0275267,0.228101,0.0249999,0.0478609,1084,372,3.27187,23.5155
-133,652,3.30017,-23.5211,0,0,0,0,0,0,0,-1,1091,372,3.30016,23.5211
-126,652,4.21741,-23.4534,0.0111664,-0.0149166,0.0125867,0.0162497,-0.0199998,0.383826,0.0209659,0.0392454,1098,372,4.2174,23.4534
-119,652,4.15515,-23.84,0.0100105,-0.00993256,0.0134051,0.0167462,-0.0166682,0.465618,0.0192918,0.0338986,1105,372,4.15519,23.84
-112,652,4.21802,-24.1165,0.00901304,-0.00552917,0.0136641,0.0172202,-0.0137364,0.540888,0.0179105,0.0257667,1112,372,4.21804,24.1165
-105,652,4.22778,-24.2141,0.00775927,-0.00194809,0.0134415,0.0171966,-0.0113854,0.612135,0.0166151,0.0242289,1119,372,4.22772,24.2141
-98,652,4.20227,-24.4551,0.00609368,0.000627097,0.0127505,0.0164005,-0.00967975,0.679812,0.0152232,0.0347327,1126,372,4.20229,24.4551
-91,652,4.14661,-24.5351,0,0,0,0,0,0,0,-1,1133,372,4.14666,24.5351
-84,652,4.18384,-24.815,0,0,0,0,0,0,0,-1,1140,372,4.18378,24.815
-77,652,4.09985,-25.0885,0,0,0,0,0,0,0,-1,1147,372,4.09983,25.0885
-70,652,4.08423,-25.3578,0,0,0,0,0,0,0,-1,1154,372,4.08426,25.3578
-63,652,4.08301,-25.5314,0,0,0,0,0,0,0,-1,1161,372,4.08296,25.5314
-56,652,3.99866,-25.6531,0,0,0,0,0,0,0,-1,1168,372,3.99865,25.6531
-49,652,4.04163,-25.8275,-0.00398995,0.00427862,0.000752467,0.00434654,-0.00405787,1.48078,0.00485324,0.0378107,1175,372,4.04168,25.8276
-42,652,3.97034,-25.9102,-0.00385753,0.0042181,0.00116194,0.00438196,-0.00402138,1.4307,0.00485316,0.0129748,1182,372,3.9703,25.9103
-35,652,3.95276,-26.0378,-0.00423817,0.00530167,0.00168702,0.00559121,-0.00452772,1.40082,0.00585291,0.00979072,1189,372,3.9527,26.0378
-28,652,3.93799,-26.1528,-0.00440985,0.00618061,0.00193913,0.0065245,-0.00475374,1.39528,0.00653819,0.00761885,1196,372,3.93794,26.1528
-21,652,3.90283,-26.2563,-0.0043503,0.00698107,0.00226793,0.00741813,-0.00478736,1.38042,0.0071012,0.0079338,1203,372,3.90278,26.2563
-14,652,3.88904,-26.3689,-0.00451772,0.00752089,0.00254173,0.00803553,-0.00503236,1.37102,0.00761087,0.0100732,1210,372,3.88905,26.3689
-7,652,3.87341,-26.4693,-0.00451579,0.00828294,0.00257234,0.00878059,-0.00501344,1.3797,0.00806238,0.012688,1217,372,3.87341,26.4693
0,652,3.85376,-26.5271,-0.00426835,0.0090256,0.00248094,0.00947351,-0.00471626,1.39218,0.00834453,0.012085,1224,372,3.85374,26.5271
7,652,3.84705,-26.552,-0.00400337,0.00960067,0.00243377,0.010023,-0.00442566,1.39899,0.00854802,0.0126664,1231,372,3.84703,26.552
14,652,3.82849,-26.6175,-0.00359475,0.0101655,0.00243223,0.0105828,-0.00401201,1.40089,0.00870631,0.0121688,1238,372,3.82846,26.6175
21,652,3.78296,-26.6911,-0.00308613,0.010726,0.00253723,0.0111774,-0.00353746,1.39475,0.00886908,0.0116097,1245,372,3.78296,26.6911
28,652,3.76587,-26.7409,-0.00237068,0.0111251,0.00272511,0.0116546,-0.00290017,1.37889,0.00889545,0.0108401,1252,372,3.7659,26.7409
35,652,3.74377,-26.7474,-0.00159729,0.0114341,0.00301902,0.0120995,-0.00226274,1.35385,0.00891681,0.0112235,1259,372,3.74383,26.7474
42,652,3.72754,-26.7488,-0.000918585,0.0117641,0.00331076,0.0125763,-0.00173083,1.33021,0.0090167,0.0118404,1266,372,3.72751,26.7488
49,652,3.745,-26.7632,-0.000347175,0.0120831,0.00359135,0.0130461,-0.00131018,1.30881,0.00916542,0.0129982,1273,372,3.74504,26.7632
56,652,3.71826,-26.7809,0.000130826,0.0123389,0.00387275,0.0134638,-0.000994067,1.28811,0.0093249,0.0135172,1280,372,3.71829,26.7809
63,652,3.67334,-26.7875,0.000466376,0.0127449,0.00410678,0.0139919,-0.000780578,1.27601,0.0095987,0.0160818,1287,372,3.6733,26.7875
70,652,3.63928,-26.7448,0.000752028,0.0132588,0.00415986,0.014516,-0.000505195,1.2773,0.00985007,0.0154092,1294,372,3.63927,26.7448
77,652,3.60583,-26.7369,0.000815587,0.0138637,0.00409518,0.0150425,-0.000363204,1.29052,0.0101515,0.0153151,1301,372,3.60579,26.7369
84,652,3.62878,-26.7272,0.000596809,0.0145756,0.00379469,0.0155392,-0.000366868,1.3221,0.0104839,0.013271,1308,372,3.62876,26.7272
91,652,3.60266,-26.7308,0.000370067,0.0151261,0.00336315,0.0158565,-0.000360299,1.35695,0.0106931,0.0161059,1315,372,3.60263,26.7308
98,652,3.61304,-26.6508,4.08923e-05,0.0154323,0.00301361,0.0160013,-0.000528129,1.38418,0.0108479,0.0134503,1322,372,3.61306,26.6509
105,652,3.58643,-26.5415,-0.000350165,0.0157228,0.00267115,0.0161551,-0.000782455,1.41035,0.0110401,0.01102,1329,372,3.5864,26.5415
112,652,3.55273,-26.4688,-0.000656483,0.016034,0.0021394,0.0163039,-0.00092635,1.44532,0.0111908,0.00940602,1336,372,3.55273,26.4688
119,652,3.54797,-26.3948,-0.000934077,0.0161267,0.00167172,0.016289,-0.00109634,1.47404,0.0112426,0.0103193,1343,372,3.54795,26.3948
126,652,3.50708,-26.2982,-0.00119769,0.0160059,0.00128457,0.0161013,-0.00129308,1.49668,0.0111902,0.0125325,1350,372,3.50706,26.2982
133,652,3.47937,-26.1964,-0.00143774,0.0156981,0.00106282,0.0157638,-0.00150341,1.50909,0.0110445,0.0127292,1357,372,3.47939,26.1963
140,652,3.45947,-26.1087,-0.00154551,0.0151585,0.00107102,0.0152269,-0.0016139,1.50703,0.0107298,0.00990153,1364,372,3.45947,26.1087
147,652,3.45142,-25.9941,-0.00150356,0.0143609,0.00130404,0.0144674,-0.00161003,1.48933,0.0102239,0.00960464,1371,372,3.45146,25.9941
154,652,3.43982,-25.8528,-0.00139379,0.0134781,0.00167985,0.0136655,-0.00158118,1.45971,0.00968052,0.00939861,1378,372,3.43988,25.8528
161,652,3.42749,-25.7087,-0.00130589,0.0126585,0.00202808,0.012947,-0.00159447,1.42945,0.00920897,0.0108426,1385,372,3.42753,25.7087
168,652,3.40356,-25.5694,-0.00144742,0.0114822,0.00240577,0.0119154,-0.00188054,1.39267,0.00863892,0.0123232,1392,372,3.4036,25.5694
175,652,3.36816,-25.4162,-0.00177412,0.0100177,0.00288797,0.010687,-0.00244343,1.34306,0.00806349,0.0122203,1399,372,3.36821,25.4162
182,652,3.33948,-25.2873,-0.00205435,0.00875113,0.00340222,0.00973311,-0.00303633,1.2898,0.00770298,0.0177883,1406,372,3.33942,25.2873
189,652,3.36633,-25.1147,-0.00194245,0.0072382,0.00374864,0.00857437,-0.00327862,1.22839,0.00706734,0.029641,1413,372,3.3663,25.1147
196,652,3.33899,-24.8644,0,0,0,0,0,0,0,-1,1420,372,3.33904,24.8644
203,652,3.28235,-24.6988,0,0,0,0,0,0,0,-1,1427,372,3.28239,24.6988
210,652,3.34033,-24.4265,0,0,0,0,0,0,0,-1,1434,372,3.34038,24.4265
217,652,3.2854,-24.3021,0,0,0,0,0,0,0,-1,1441,372,3.28541,24.3021
224,652,3.13098,-24.0664,0,0,0,0,0,0,0,-1,1448,372,3.13103,24.0664
231,652,3.11279,-23.7222,0,0,0,0,0,0,0,-1,1455,372,3.11285,23.7222
238,652,3.31519,-23.7562,0,0,0,0,0,0,0,-1,1462,372,3.3152,23.7562
245,652,3.255,-23.5242,-0.00731908,0.00388963,0.00309851,0.00468915,-0.0081186,1.31827,0.0074824,0.0484745,1469,372,3.255,23.5242
252,652,3.04065,-23.4354,-0.00715984,0.00519921,0.00355752,0.00615008,-0.00811071,1.30962,0.00825937,0.0497344,1476,372,3.04063,23.4354
259,652,3.10266,-22.5919,0,0,0,0,0,0,0,-1,1483,372,3.10262,22.5919
266,652,2.88379,-22.2745,0,0,0,0,0,0,0,-1,1490,372,2.88374,22.2745
273,652,2.92603,-22.2496,0,0,0,0,0,0,0,-1,1497,372,2.92604,22.2496
280,652,-2.87244,-18.5725,0,0,0,0,0,0,0,-1,1504,372,-2.87242,18.5725
287,652,-3.10767,-19.7272,0,0,0,0,0,0,0,-1,1511,372,-3.10766,19.7272
294,652,-3.17529,-20.5076,0,0,0,0,0,0,0,-1,1518,372,-3.17534,20.5076
301,652,-0.827393,-23.0738,0,0,0,0,0,0,0,-1,1525,372,-0.827422,23.0738
308,652,-1.08643,-21.8954,0,0,0,0,0,0,0,-1,1532,372,-1.08644,21.8954
315,652,-1.34546,-20.7169,0,0,0,0,0,0,0,-1,1539,372,-1.34546,20.7169
322,652,1.95398,-18.5313,0,0,0,0,0,0,0,-1,1546,372,1.95404,18.5313
329,652,2.76392,-18.8169,0,0,0,0,0,0,0,-1,1553,372,2.76392,18.8169
336,652,1.76904,-14.9183,0,0,0,0,0,0,0,-1,1560,372,1.7691,14.9183
343,652,4.18225,-6.7092,0,0,0,0,0,0,0,-1,1567,372,4.18231,6.70921
350,652,4.64563,-7.2074,0,0,0,0,0,0,0,-1,1574,372,4.6456,7.2074
357,652,0,0,0,0,0,0,0,0,0,-1,1581,372,0,0
364,652,0,0,0,0,0,0,0,0,0,-1,1588,372,0,0
371,652,0,0,0,0,0,0,0,0,0,-1,1595,372,0,0
378,652,0,0,0,0,0,0,0,0,0,-1,1602,372,0,0
385,652,0,0,0,0,0,0,0,0,0,-1,1609,372,0,0
392,652,0,0,0,0,0,0,0,0,0,-1,1616,372,0,0
399,652,0,0,0,0,0,0,0,0,0,-1,1623,372,0,0
406,652,0,0,0,0,0,0,0,0,0,-1,1630,372,0,0
413,652,0,0,0,0,0,0,0,0,0,-1,1637,372,0,0
420,652,0,0,0,0,0,0,0,0,0,-1,1644,372,0,0
427,652,0,0,0,0,0,0,0,0,0,-1,1651,372,0,0
434,652,0,0,0,0,0,0,0,0,0,-1,1658,372,0,0
441,652,0,0,0,0,0,0,0,0,0,-1,1665,372,0,0
448,652,0,0,0,0,0,0,0,0,0,-1,1672,372,0,0
455,652,0,0,0,0,0,0,0,0,0,-1,1679,372,0,0
462,652,0,0,0,0,0,0,0,0,0,-1,1686,372,0,0
469,652,0,0,0,0,0,0,0,0,0,-1,1693,372,0,0
476,652,0,0,0,0,0,0,0,0,0,-1,1700,372,0,0
483,652,0,0,0,0,0,0,0,0,0,-1,1707,372,0,0
490,652,0,0,0,0,0,0,0,0,0,-1,1714,372,0,0
497,652,0,0,0,0,0,0,0,0,0,-1,1721,372,0,0
504,652,0,0,0,0,0,0,0,0,0,-1,1728,372,0,0
511,652,0,0,0,0,0,0,0,0,0,-1,1735,372,0,0
518,652,0,0,0,0,0,0,0,0,0,-1,1742,372,0,0
525,652,0,0,0,0,0,0,0,0,0,-1,1749,372,0,0
532,652,0,0,0,0,0,0,0,0,0,-1,1756,372,0,0
539,652,0,0,0,0,0,0,0,0,0,-1,1763,372,0,0
546,652,0,0,0,0,0,0,0,0,0,-1,1770,372,0,0
553,652,0,0,0,0,0,0,0,0,0,-1,1777,372,0,0
560,652,0,0,0,0,0,0,0,0,0,-1,1784,372,0,0
567,652,0,0,0,0,0,0,0,0,0,-1,1791,372,0,0
574,652,0,0,0,0,0,0,0,0,0,-1,1798,372,0,0
581,652,0,0,0,0,0,0,0,0,0,-1,1805,372,0,0
588,652,0,0,0,0,0,0,0,0,0,-1,1812,372,0,0
595,652,0,0,0,0,0,0,0,0,0,-1,1819,372,0,0
602,652,0,0,0,0,0,0,0,0,0,-1,1826,372,0,0
609,652,0,0,0,0,0,0,0,0,0,-1,1833,372,0,0
616,652,0,0,0,0,0,0,0,0,0,-1,1840,372,0,0
623,652,0,0,0,0,0,0,0,0,0,-1,1847,372,0,0
630,652,0,0,0,0,0,0,0,0,0,-1,1854,372,0,0
637,652,0,0,0,0,0,0,0,0,0,-1,1861,372,0,0
644,652,0,0,0,0,0,0,0,0,0,-1,1868,372,0,0
651,652,0,0,0,0,0,0,0,0,0,-1,1875,372,0,0
658,652,0,0,0,0,0,0,0,0,0,-1,1882,372,0,0
665,652,0,0,0,0,0,0,0,0,0,-1,1889,372,0,0
672,652,0,0,0,0,0,0,0,0,0,-1,1896,372,0,0
679,652,0,0,0,0,0,0,0,0,0,-1,1903,372,0,0
686,652,0,0,0,0,0,0,0,0,0,-1,1910,372,0,0
693,652,0,0,0,0,0,0,0,0,0,-1,1917,372,0,0
700,652,0,0,0,0,0,0,0,0,0,-1,1924,372,0,0
707,652,0,0,0,0,0,0,0,0,0,-1,1931,372,0,0
714,652,0,0,0,0,0,0,0,0,0,-1,1938,372,0,0
721,652,0,0,0,0,0,0,0,0,0,-1,1945,372,0,0
728,652,0,0,0,0,0,0,0,0,0,-1,1952,372,0,0
735,652,0,0,0,0,0,0,0,0,0,-1,1959,372,0,0
742,652,0,0,0,0,0,0,0,0,0,-1,1966,372,0,0
749,652,0,0,0,0,0,0,0,0,0,-1,1973,372,0,0
756,652,0,0,0,0,0,0,0,0,0,-1,1980,372,0,0
763,652,0,0,0,0,0,0,0,0,0,-1,1987,372,0,0
770,652,0,0,0,0,0,0,0,0,0,-1,1994,372,0,0
777,652,0,0,0,0,0,0,0,0,0,-1,2001,372,0,0
784,652,0,0,0,0,0,0,0,0,0,-1,2008,372,0,0
791,652,0,0,0,0,0,0,0,0,0,-1,2015,372,0,0
798,652,0,0,0,0,0,0,0,0,0,-1,2022,372,0,0
805,652,0,0,0,0,0,0,0,0,0,-1,2029,372,0,0
812,652,0,0,0,0,0,0,0,0,0,-1,2036,372,0,0
-700,645,0,0,0,0,0,0,0,0,0,-1,524,379,0,0
-693,645,0,0,0,0,0,0,0,0,0,-1,531,379,0,0
-686,645,0,0,0,0,0,0,0,0,0,-1,538,379,0,0
-679,645,0,0,0,0,0,0,0,0,0,-1,545,379,0,0
-672,645,0,0,0,0,0,0,0,0,0,-1,552,379,0,0
-665,645,0,0,0,0,0,0,0,0,0,-1,559,379,0,0
-658,645,0,0,0,0,0,0,0,0,0,-1,566,379,0,0
-651,645,0,0,0,0,0,0,0,0,0,-1,573,379,0,0
-644,645,0,0,0,0,0,0,0,0,0,-1,580,379,0,0
-637,645,0,0,0,0,0,0,0,0,0,-1,587,379,0,0
-630,645,0,0,0,0,0,0,0,0,0,-1,594,379,0,0
-623,645,0,0,0,0,0,0,0,0,0,-1,601,379,0,0
-616,645,0,0,0,0,0,0,0,0,0,-1,608,379,0,0
-609,645,0,0,0,0,0,0,0,0,0,-1,615,379,0,0
-602,645,0,0,0,0,0,0,0,0,0,-1,622,379,0,0
-595,645,0,0,0,0,0,0,0,0,0,-1,629,379,0,0
-588,645,0,0,0,0,0,0,0,0,0,-1,636,379,0,0
-581,645,0,0,0,0,0,0,0,0,0,-1,643,379,0,0
-574,645,0,0,0,0,0,0,0,0,0,-1,650,379,0,0
-567,645,0,0,0,0,0,0,0,0,0,-1,657,379,0,0
-560,645,0,0,0,0,0,0,0,0,0,-1,664,379,0,0
-553,645,0,0,0,0,0,0,0,0,0,-1,671,379,0,0
-546,645,0,0,0,0,0,0,0,0,0,-1,678,379,0,0
-539,645,0,0,0,0,0,0,0,0,0,-1,685,379,0,0
-532,645,0,0,0,0,0,0,0,0,0,-1,692,379,0,0
-525,645,0,0,0,0,0,0,0,0,0,-1,699,379,0,0
-518,645,0,0,0,0,0,0,0,0,0,-1,706,379,0,0
-511,645,0,0,0,0,0,0,0,0,0,-1,713,379,0,0
-504,645,0,0,0,0,0,0,0,0,0,-1,720,379,0,0
-497,645,0,0,0,0,0,0,0,0,0,-1,727,379,0,0
-490,645,0,0,0,0,0,0,0,0,0,-1,734,379,0,0
-483,645,0,0,0,0,0,0,0,0,0,-1,741,379,0,0
-476,645,0,0,0,0,0,0,0,0,0,-1,748,379,0,0
-469,645,0,0,0,0,0,0,0,0,0,-1,755,379,0,0
-462,645,0,0,0,0,0,0,0,0,0,-1,762,379,0,0
-455,645,0,0,0,0,0,0,0,0,0,-1,769,379,0,0
-448,645,0,0,0,0,0,0,0,0,0,-1,776,379,0,0
-441,645,0,0,0,0,0,0,0,0,0,-1,783,379,0,0
-434,645,0,0,0,0,0,0,0,0,0,-1,790,379,0,0
-427,645,0,0,0,0,0,0,0,0,0,-1,797,379,0,0
-420,645,0,0,0,0,0,0,0,0,0,-1,804,379,0,0
-413,645,0,0,0,0,0,0,0,0,0,-1,811,379,0,0
-406,645,0,0,0,0,0,0,0,0,0,-1,818,379,0,0
-399,645,0,0,0,0,0,0,0,0,0,-1,825,379,0,0
-392,645,0,0,0,0,0,0,0,0,0,-1,832,379,0,0
-385,645,0,0,0,0,0,0,0,0,0,-1,839,379,0,0
-378,645,0,0,0,0,0,0,0,0,0,-1,846,379,0,0
-371,645,0,0,0,0,0,0,0,0,0,-1,853,379,0,0
-364,645,0,0,0,0,0,0,0,0,0,-1,860,379,0,0
-357,645,0,0,0,0,0,0,0,0,0,-1,867,379,0,0
-350,645,0,0,0,0,0,0,0,0,0,-1,874,379,0,0
-343,645,0,0,0,0,0,0,0,0,0,-1,881,379,0,0
-336,645,0,0,0,0,0,0,0,0,0,-1,888,379,0,0
-329,645,0,0,0,0,0,0,0,0,0,-1,895,379,0,0
-322,645,0,0,0,0,0,0,0,0,0,-1,902,379,0,0
-315,645,0,0,0,0,0,0,0,0,0,-1,909,379,0,0
-308,645,0,0,0,0,0,0,0,0,0,-1,916,379,0,0
-301,645,0,0,0,0,0,0,0,0,0,-1,923,379,0,0
-294,645,0,0,0,0,0,0,0,0,0,-1,930,379,0,0
-287,645,0,0,0,0,0,0,0,0,0,-1,937,379,0,0
-280,645,0,0,0,0,0,0,0,0,0,-1,944,379,0,0
-273,645,0,0,0,0,0,0,0,0,0,-1,951,379,0,0
-266,645,0,0,0,0,0,0,0,0,0,-1,958,379,0,0
-259,645,0,0,0,0,0,0,0,0,0,-1,965,379,0,0
-252,645,8.7453,-17.8397,0,0,0,0,0,0,0,-1,972,379,8.74531,17.8397
-245,645,9.11273,-18.0732,0,0,0,0,0,0,0,-1,979,379,9.1127,18.0732
-238,645,5.24121,-21.2854,0,0,0,0,0,0,0,-1,986,379,5.24122,21.2854
-231,645,5.91412,-20.6911,0,0,0,0,0,0,0,-1,993,379,5.91413,20.6911
-224,645,6.81323,-20.2322,0,0,0,0,0,0,0,-1,1000,379,6.81322,20.2322
-217,645,8.09961,-19.0991,0,0,0,0,0,0,0,-1,1007,379,8.0996,19.0991
-210,645,10.6344,-19.6549,0,0,0,0,0,0,0,-1,1014,379,10.6344,19.6549
-203,645,3.80811,-24.5478,0,0,0,0,0,0,0,-1,1021,379,3.80809,24.5478
-196,645,4.30347,-22.5507,0,0,0,0,0,0,0,-1,1028,379,4.30349,22.5507
-189,645,3.94666,-21.8051,0,0,0,0,0,0,0,-1,1035,379,3.94663,21.8052
-182,645,3.73987,-21.2994,0,0,0,0,0,0,0,-1,1042,379,3.73991,21.2994
-175,645,3.76392,-22.4092,0,0,0,0,0,0,0,-1,1049,379,3.76394,22.4092
-168,645,4.16113,-22.8167,0.0103165,-0.0262868,-0.00271044,0.0105161,-0.0264864,-0.0735146,0.0220167,0.0485786,1056,379,4.16108,22.8167
-161,645,3.52625,-23.1182,0.0102095,-0.0256637,-0.000766596,0.0102259,-0.0256801,-0.0213566,0.0213608,0.0472023,1063,379,3.52621,23.1182
-154,645,3.68262,-23.3159,0.0100367,-0.0239395,0.00104062,0.0100685,-0.0239713,0.0305896,0.0201919,0.039698,1070,379,3.68266,23.3158
-147,645,3.7915,-23.4802,0.0097476,-0.0215235,0.00269994,0.009979,-0.0217549,0.0854966,0.0187373,0.0375258,1077,379,3.79148,23.4802
-140,645,3.65271,-23.3785,0.00934561,-0.0182565,0.00444269,0.0100431,-0.018954,0.155717,0.0170029,0.0367511,1084,379,3.65269,23.3785
-133,645,3.83545,-23.5457,0.00865587,-0.0144215,0.00608272,0.010161,-0.0159266,0.242569,0.0151838,0.0358435,1091,379,3.8354,23.5457
-126,645,4.21851,-23.519,0,0,0,0,0,0,0,-1,1098,379,4.21854,23.519
-119,645,4.11121,-23.9764,0.00696762,-0.00669838,0.0080333,0.0106809,-0.0104116,0.432982,0.0121781,0.0177841,1105,379,4.11119,23.9764
-112,645,4.08301,-24.2455,0.0062264,-0.003259,0.00829737,0.0110409,-0.00807347,0.525764,0.0110799,0.0118402,1112,379,4.08302,24.2455
-105,645,4.06836,-24.4377,0.00529258,-0.000448661,0.00825439,0.0111613,-0.00631734,0.618055,0.0102196,0.0119639,1119,379,4.06841,24.4377
-98,645,4.03064,-24.6082,0.00396977,0.00165882,0.00790354,0.0108019,-0.00517326,0.712814,0.00941213,0.0147728,1126,379,4.03064,24.6083
-91,645,4.02454,-24.7908,0.00263505,0.00378478,0.00693883,0.0101725,-0.00375269,0.826727,0.00831965,0.0200754,1133,379,4.02452,24.7908
-84,645,4.04333,-24.9952,0.0016653,0.00475986,0.00552988,0.00895485,-0.00252968,0.921811,0.00696791,0.0251043,1140,379,4.04332,24.9952
-77,645,3.97949,-25.2349,-0.000143738,0.0058899,0.00460952,0.00838207,-0.0026359,1.07516,0.00664334,0.0193728,1147,379,3.97948,25.2349
-70,645,3.94458,-25.4161,-0.00132776,0.00537024,0.00227397,0.00606929,-0.00202682,1.27255,0.00486464,0.012215,1154,379,3.94458,25.4161
-63,645,3.9281,-25.5563,-0.00207669,0.00510593,0.00165854,0.00547041,-0.00244116,1.35448,0.00467803,0.0111623,1161,379,3.92807,25.5563
-56,645,3.90918,-25.6754,-0.00271044,0.0042575,0.000333301,0.00427341,-0.00272634,1.52311,0.00407408,0.0129691,1168,379,3.90913,25.6754
-49,645,3.90906,-25.7946,-0.00274775,0.00329126,0.000374639,0.00331441,-0.00277091,1.50908,0.00351803,0.0113227,1175,379,3.90903,25.7946
-42,645,3.8739,-25.9168,-0.0027262,0.00309921,0.000608847,0.00316217,-0.00278916,1.46776,0.00343825,0.0107538,1182,379,3.87391,25.9168
-35,645,3.85242,-26.0553,-0.00297832,0.00333579,0.00103513,0.00350116,-0.00314369,1.41238,0.00383825,0.0104414,1189,379,3.85243,26.0553
-28,645,3.82349,-26.1801,-0.00304436,0.00347141,0.00131816,0.00372798,-0.00330093,1.37856,0.00406064,0.00833599,1196,379,3.82354,26.1801
-21,645,3.79504,-26.2819,-0.00291728,0.00356902,0.0016542,0.00396653,-0.00331478,1.33497,0.00420948,0.0096845,1203,379,3.79506,26.2819
-14,645,3.79907,-26.3876,-0.00289698,0.00359592,0.00194085,0.00413184,-0.0034329,1.30138,0.00437371,0.0102007,1210,379,3.79912,26.3876
-7,645,3.80127,-26.4883,-0.00276886,0.00372386,0.00200727,0.0042943,-0.0033393,1.29391,0.00441874,0.0136262,1217,379,3.80129,26.4882
0,645,3.79309,-26.5324,-0.00251488,0.00383139,0.00198024,0.00439859,-0.00308208,1.29183,0.00434121,0.0238593,1224,379,3.7931,26.5324
7,645,3.76086,-26.5814,-0.00228825,0.003952,0.00195785,0.0045154,-0.00285165,1.2906,0.00428937,0.0163357,1231,379,3.76087,26.5814
14,645,3.76587,-26.6276,-0.00205043,0.00417271,0.00194058,0.00472826,-0.00260598,1.29198,0.00429311,0.0160968,1238,379,3.76586,26.6276
21,645,3.72668,-26.7141,-0.0018007,0.00454379,0.00195586,0.00509827,-0.00235519,1.29455,0.00439933,0.011193,1245,379,3.72672,26.7141
28,645,3.724,-26.7494,-0.00143272,0.00491694,0.00198836,0.00548819,-0.00200397,1.29103,0.00447881,0.00977491,1252,379,3.72402,26.7494
35,645,3.70886,-26.7561,-0.00103135,0.00530488,0.0020681,0.00592015,-0.00164662,1.28163,0.00459506,0.00944745,1259,379,3.70884,26.7561
42,645,3.69983,-26.7883,-0.000697874,0.0057445,0.00213772,0.0063893,-0.00134268,1.27784,0.0047705,0.00937262,1266,379,3.69987,26.7883
49,645,3.72644,-26.8052,-0.000403715,0.00622794,0.00221208,0.00689809,-0.00107386,1.27664,0.00499531,0.0120721,1273,379,3.72646,26.8052
56,645,3.70825,-26.8021,-0.000148429,0.00667235,0.00226065,0.00735357,-0.000829653,1.27811,0.00520104,0.0113531,1280,379,3.70827,26.8021
63,645,3.67468,-26.8113,6.06711e-08,0.00720326,0.00224716,0.0078468,-0.000643483,1.29188,0.00545835,0.0107361,1287,379,3.67466,26.8113
70,645,3.65918,-26.7907,0.00019006,0.00784948,0.00218506,0.00842898,-0.000389441,1.31155,0.00575353,0.014059,1294,379,3.65922,26.7907
77,645,3.65039,-26.776,0.000291048,0.00847761,0.00206786,0.00897028,-0.000201628,1.3369,0.00604852,0.017456,1301,379,3.65038,26.776
84,645,3.68225,-26.7371,0.000295411,0.00900623,0.00181597,0.00936965,-6.80084e-05,1.37328,0.00626923,0.0136299,1308,379,3.68221,26.7371
91,645,3.65979,-26.7104,0.000276676,0.00933357,0.00149658,0.00957447,3.57842e-05,1.4112,0.00637108,0.0147554,1315,379,3.65977,26.7104
98,645,3.65662,-26.6352,0.0001815,0.00944788,0.00128401,0.00962252,6.86944e-06,1.43562,0.00641272,0.0137434,1322,379,3.65664,26.6352
105,645,3.64514,-26.5567,6.18355e-05,0.00953512,0.00110788,0.00966296,-6.60047e-05,1.45591,0.00646409,0.0105926,1329,379,3.64511,26.5567
112,645,3.62329,-26.4956,1.65456e-06,0.00958247,0.000835993,0.00965486,-7.07442e-05,1.48441,0.00646029,0.00879481,1336,379,3.62323,26.4956
119,645,3.61621,-26.4105,-4.51963e-05,0.009481,0.000614905,0.00952053,-8.47238e-05,1.5066,0.00637545,0.00864465,1343,379,3.61627,26.4105
126,645,3.60217,-26.3158,-0.000119073,0.0092614,0.00047261,0.00928515,-0.000142823,1.52058,0.00623826,0.0112736,1350,379,3.60221,26.3158
133,645,3.59644,-26.2216,-0.000236588,0.00899963,0.000456253,0.00902211,-0.000259071,1.52156,0.00610293,0.0126552,1357,379,3.59644,26.2216
140,645,3.57092,-26.1298,-0.000317526,0.00868351,0.000594968,0.00872267,-0.000356683,1.50508,0.00593758,0.0124817,1364,379,3.57095,26.1298
147,645,3.55872,-26.0095,-0.000353705,0.00830618,0.000851745,0.00838915,-0.000436684,1.47368,0.00574387,0.01309,1371,379,3.55875,26.0095
154,645,3.57422,-25.8715,-0.000364016,0.00794604,0.0011478,0.00810166,-0.000519639,1.43603,0.00558239,0.0116382,1378,379,3.57422,25.8714
161,645,3.55469,-25.7303,-0.000382905,0.00771255,0.00142759,0.00795692,-0.000627275,1.40126,0.00552559,0.0133374,1385,379,3.5547,25.7303
168,645,3.54126,-25.5885,-0.000589652,0.00725088,0.00171122,0.00760809,-0.000946859,1.36501,0.00541534,0.0161456,1392,379,3.5412,25.5885
175,645,3.53528,-25.4539,-0.000930578,0.00664827,0.00201243,0.00714949,-0.0014318,1.3267,0.00530835,0.0137842,1399,379,3.5353,25.4539
182,645,3.5,-25.2912,-0.00121847,0.00612294,0.00235103,0.00681129,-0.00190682,1.28597,0.00529224,0.0101566,1406,379,3.50005,25.2912
189,645,3.49866,-25.0937,-0.00142402,0.0056673,0.00256229,0.00649623,-0.00225295,1.25791,0.00524563,0.0112366,1413,379,3.49864,25.0937
196,645,3.45972,-24.9281,-0.00188351,0.00514225,0.00266414,0.00603822,-0.00277949,1.24637,0.0052055,0.0111146,1420,379,3.45976,24.9281
203,645,3.41736,-24.7252,-0.00264607,0.00373509,0.0023546,0.00450986,-0.00342083,1.25291,0.00459315,0.0117579,1427,379,3.41738,24.7252
210,645,3.46021,-24.4678,-0.00349481,0.00291928,0.00207016,0.00352939,-0.00410493,1.28419,0.00441185,0.019253,1434,379,3.46023,24.4678
217,645,3.42139,-24.3293,-0.00418209,0.00253762,0.00205711,0.00311734,-0.00476182,1.2961,0.00458195,0.023993,1441,379,3.42138,24.3293
224,645,3.36182,-24.2013,-0.00459669,0.00264013,0.00205389,0.00318241,-0.00513898,1.31266,0.00484842,0.0237757,1448,379,3.36186,24.2013
231,645,3.3031,-23.9141,-0.00492708,0.00280611,0.00217929,0.00337797,-0.00549894,1.31418,0.00517362,0.0204729,1455,379,3.30304,23.9141
238,645,3.3125,-23.6338,-0.00506649,0.0034565,0.002568,0.00417044,-0.00578043,1.29963,0.00577015,0.0137392,1462,379,3.31256,23.6338
245,645,3.31018,-23.4135,-0.00525123,0.00419244,0.00282518,0.00497309,-0.00603188,1.3012,0.00636352,0.014139,1469,379,3.31024,23.4135
252,645,3.33118,-23.1088,-0.00513443,0.00533567,0.00325504,0.00626511,-0.00606388,1.29266,0.00711846,0.0205616,1476,379,3.33122,23.1088
259,645,3.29468,-22.7691,-0.00485035,0.00677516,0.0037994,0.00790673,-0.00598191,1.28133,0.00804424,0.0353242,1483,379,3.29469,22.7691
266,645,3.1449,-22.5179,-0.0044107,0.00831331,0.00441316,0.00969412,-0.0057915,1.26756,0.00903477,0.0279354,1490,379,3.14495,22.5179
273,645,3.18115,-22.3539,-0.00379992,0.00998135,0.00515551,0.0116965,-0.00551511,1.24963,0.0101485,0.0273789,1497,379,3.18121,22.3539
280,645,3.34668,-21.961,0,0,0,0,0,0,0,-1,1504,379,3.34669,21.961
287,645,3.50244,-21.5275,0,0,0,0,0,0,0,-1,1511,379,3.50249,21.5275
294,645,2.89929,-21.5113,0,0,0,0,0,0,0,-1,1518,379,2.89926,21.5113
301,645,1.12036,-20.6919,0,0,0,0,0,0,0,-1,1525,379,1.12032,20.6919
308,645,1.8075,-19.3919,0,0,0,0,0,0,0,-1,1532,379,1.80747,19.3919
315,645,2.49463,-18.0919,0,0,0,0,0,0,0,-1,1539,379,2.49463,18.0919
322,645,3.82068,-20.0009,0,0,0,0,0,0,0,-1,1546,379,3.82072,20.0009
329,645,2.901,-20.2929,0,0,0,0,0,0,0,-1,1553,379,2.90105,20.2929
336,645,3.17932,-20.143,0,0,0,0,0,0,0,-1,1560,379,3.17927,20.143
343,645,0.977295,-13.792,0,0,0,0,0,0,0,-1,1567,379,0.977251,13.792
350,645,3.93213,-5.72198,0,0,0,0,0,0,0,-1,1574,379,3.9321,5.72198
357,645,1.63928,-6.465,0,0,0,0,0,0,0,-1,1581,379,1.63926,6.46499
364,645,-0.0794678,-3.22021,0,0,0,0,0,0,0,-1,1588,379,-0.0794987,3.22021
371,645,0,0,0,0,0,0,0,0,0,-1,1595,379,0,0
378,645,0,0,0,0,0,0,0,0,0,-1,1602,379,0,0
385,645,0,0,0,0,0,0,0,0,0,-1,1609,379,0,0
392,645,0,0,0,0,0,0,0,0,0,-1,1616,379,0,0
399,645,0,0,0,0,0,0,0,0,0,-1,1623,379,0,0
406,645,0,0,0,0,0,0,0,0,0,-1,1630,379,0,0
413,645,0,0,0,0,0,0,0,0,0,-1,1637,379,0,0
420,645,0,0,0,0,0,0,0,0,0,-1,1644,379,0,0
427,645,0,0,0,0,0,0,0,0,0,-1,1651,379,0,0
434,645,0,0,0,0,0,0,0,0,0,-1,1658,379,0,0
441,645,0,0,0,0,0,0,0,0,0,-1,1665,379,0,0
448,645,0,0,0,0,0,0,0,0,0,-1,1672,379,0,0
455,645,0,0,0,0,0,0,0,0,0,-1,1679,379,0,0
462,645,0,0,0,0,0,0,0,0,0,-1,1686,379,0,0
469,645,0,0,0,0,0,0,0,0,0,-1,1693,379,0,0
476,645,0,0,0,0,0,0,0,0,0,-1,1700,379,0,0
483,645,0,0,0,0,0,0,0,0,0,-1,1707,379,0,0
490,645,0,0,0,0,0,0,0,0,0,-1,1714,379,0,0
497,645,0,0,0,0,0,0,0,0,0,-1,1721,379,0,0
504,645,0,0,0,0,0,0,0,0,0,-1,1728,379,0,0
511,645,0,0,0,0,0,0,0,0,0,-1,1735,379,0,0
518,645,0,0,0,0,0,0,0,0,0,-1,1742,379,0,0
525,645,0,0,0,0,0,0,0,0,0,-1,1749,379,0,0
532,645,0,0,0,0,0,0,0,0,0,-1,1756,379,0,0
539,645,0,0,0,0,0,0,0,0,0,-1,1763,379,0,0
546,645,0,0,0,0,0,0,0,0,0,-1,1770,379,0,0
553,645,0,0,0,0,0,0,0,0,0,-1,1777,379,0,0
560,645,0,0,0,0,0,0,0,0,0,-1,1784,379,0,0
567,645,0,0,0,0,0,0,0,0,0,-1,1791,379,0,0
574,645,0,0,0,0,0,0,0,0,0,-1,1798,379,0,0
581,645,0,0,0,0,0,0,0,0,0,-1,1805,379,0,0
588,645,0,0,0,0,0,0,0,0,0,-1,1812,379,0,0
595,645,0,0,0,0,0,0,0,0,0,-1,1819,379,0,0
602,645,0,0,0,0,0,0,0,0,0,-1,1826,379,0,0
609,645,0,0,0,0,0,0,0,0,0,-1,1833,379,0,0
616,645,0,0,0,0,0,0,0,0,0,-1,1840,379,0,0
623,645,0,0,0,0,0,0,0,0,0,-1,1847,379,0,0
630,645,0,0,0,0,0,0,0,0,0,-1,1854,379,0,0
637,645,0,0,0,0,0,0,0,0,0,-1,1861,379,0,0
644,645,0,0,0,0,0,0,0,0,0,-1,1868,379,0,0
651,645,0,0,0,0,0,0,0,0,0,-1,1875,379,0,0
658,645,0,0,0,0,0,0,0,0,0,-1,1882,379,0,0
665,645,0,0,0,0,0,0,0,0,0,-1,1889,379,0,0
672,645,0,0,0,0,0,0,0,0,0,-1,1896,379,0,0
679,645,0,0,0,0,0,0,0,0,0,-1,1903,379,0,0
686,645,0,0,0,0,0,0,0,0,0,-1,1910,379,0,0
693,645,0,0,0,0,0,0,0,0,0,-1,1917,379,0,0
700,645,0,0,0,0,0,0,0,0,0,-1,1924,379,0,0
707,645,0,0,0,0,0,0,0,0,0,-1,1931,379,0,0
714,645,0,0,0,0,0,0,0,0,0,-1,1938,379,0,0
721,645,0,0,0,0,0,0,0,0,0,-1,1945,379,0,0
728,645,0,0,0,0,0,0,0,0,0,-1,1952,379,0,0
735,645,0,0,0,0,0,0,0,0,0,-1,1959,379,0,0
742,645,0,0,0,0,0,0,0,0,0,-1,1966,379,0,0
749,645,0,0,0,0,0,0,0,0,0,-1,1973,379,0,0
756,645,0,0,0,0,0,0,0,0,0,-1,1980,379,0,0
763,645,0,0,0,0,0,0,0,0,0,-1,1987,379,0,0
770,645,0,0,0,0,0,0,0,0,0,-1,1994,379,0,0
777,645,0,0,0,0,0,0,0,0,0,-1,2001,379,0,0
784,645,0,0,0,0,0,0,0,0,0,-1,2008,379,0,0
791,645,0,0,0,0,0,0,0,0,0,-1,2015,379,0,0
798,645,0,0,0,0,0,0,0,0,0,-1,2022,379,0,0
805,645,0,0,0,0,0,0,0,0,0,-1,2029,379,0,0
812,645,0,0,0,0,0,0,0,0,0,-1,2036,379,0,0
-700,638,0,0,0,0,0,0,0,0,0,-1,524,386,0,0
-693,638,0,0,0,0,0,0,0,0,0,-1,531,386,0,0
-686,638,0,0,0,0,0,0,0,0,0,-1,538,386,0,0
-679,638,0,0,0,0,0,0,0,0,0,-1,545,386,0,0
-672,638,0,0,0,0,0,0,0,0,0,-1,552,386,0,0
-665,638,0,0,0,0,0,0,0,0,0,-1,559,386,0,0
-658,638,0,0,0,0,0,0,0,0,0,-1,566,386,0,0
-651,638,0,0,0,0,0,0,0,0,0,-1,573,386,0,0
-644,638,0,0,0,0,0,0,0,0,0,-1,580,386,0,0
-637,638,0,0,0,0,0,0,0,0,0,-1,587,386,0,0
-630,638,0,0,0,0,0,0,0,0,0,-1,594,386,0,0
-623,638,0,0,0,0,0,0,0,0,0,-1,601,386,0,0
-616,638,0,0,0,0,0,0,0,0,0,-1,608,386,0,0
-609,638,0,0,0,0,0,0,0,0,0,-1,615,386,0,0
-602,638,0,0,0,0,0,0,0,0,0,-1,622,386,0,0
-595,638,0,0,0,0,0,0,0,0,0,-1,629,386,0,0
-588,638,0,0,0,0,0,0,0,0,0,-1,636,386,0,0
-581,638,0,0,0,0,0,0,0,0,0,-1,643,386,0,0
-574,638,0,0,0,0,0,0,0,0,0,-1,650,386,0,0
-567,638,0,0,0,0,0,0,0,0,0,-1,657,386,0,0
-560,638,0,0,0,0,0,0,0,0,0,-1,664,386,0,0
-553,638,0,0,0,0,0,0,0,0,0,-1,671,386,0,0
-546,638,0,0,0,0,0,0,0,0,0,-1,678,386,0,0
-539,638,0,0,0,0,0,0,0,0,0,-1,685,386,0,0
-532,638,0,0,0,0,0,0,0,0,0,-1,692,386,0,0
-525,638,0,0,0,0,0,0,0,0,0,-1,699,386,0,0
-518,638,0,0,0,0,0,0,0,0,0,-1,706,386,0,0
-511,638,0,0,0,0,0,0,0,0,0,-1,713,386,0,0
-504,638,0,0,0,0,0,0,0,0,0,-1,720,386,0,0
-497,638,0,0,0,0,0,0,0,0,0,-1,727,386,0,0
-490,638,0,0,0,0,0,0,0,0,0,-1,734,386,0,0
-483,638,0,0,0,0,0,0,0,0,0,-1,741,386,0,0
-476,638,0,0,0,0,0,0,0,0,0,-1,748,386,0,0
-469,638,0,0,0,0,0,0,0,0,0,-1,755,386,0,0
-462,638,0,0,0,0,0,0,0,0,0,-1,762,386,0,0
-455,638,0,0,0,0,0,0,0,0,0,-1,769,386,0,0
-448,638,0,0,0,0,0,0,0,0,0,-1,776,386,0,0
-441,638,0,0,0,0,0,0,0,0,0,-1,783,386,0,0
-434,638,0,0,0,0,0,0,0,0,0,-1,790,386,0,0
-427,638,0,0,0,0,0,0,0,0,0,-1,797,386,0,0
-420,638,0,0,0,0,0,0,0,0,0,-1,804,386,0,0
-413,638,0,0,0,0,0,0,0,0,0,-1,811,386,0,0
-406,638,0,0,0,0,0,0,0,0,0,-1,818,386,0,0
-399,638,0,0,0,0,0,0,0,0,0,-1,825,386,0,0
-392,638,0,0,0,0,0,0,0,0,0,-1,832,386,0,0
-385,638,0,0,0,0,0,0,0,0,0,-1,839,386,0,0
-378,638,0,0,0,0,0,0,0,0,0,-1,846,386,0,0
-371,638,0,0,0,0,0,0,0,0,0,-1,853,386,0,0
-364,638,0,0,0,0,0,0,0,0,0,-1,860,386,0,0
-357,638,0,0,0,0,0,0,0,0,0,-1,867,386,0,0
-350,638,0,0,0,0,0,0,0,0,0,-1,874,386,0,0
-343,638,0,0,0,0,0,0,0,0,0,-1,881,386,0,0
-336,638,0,0,0,0,0,0,0,0,0,-1,888,386,0,0
-329,638,0,0,0,0,0,0,0,0,0,-1,895,386,0,0
-322,638,0,0,0,0,0,0,0,0,0,-1,902,386,0,0
-315,638,0,0,0,0,0,0,0,0,0,-1,909,386,0,0
-308,638,0,0,0,0,0,0,0,0,0,-1,916,386,0,0
-301,638,0,0,0,0,0,0,0,0,0,-1,923,386,0,0
-294,638,0,0,0,0,0,0,0,0,0,-1,930,386,0,0
-287,638,0,0,0,0,0,0,0,0,0,-1,937,386,0,0
-280,638,0,0,0,0,0,0,0,0,0,-1,944,386,0,0
-273,638,0,0,0,0,0,0,0,0,0,-1,951,386,0,0
-266,638,0.255981,-17.2527,0,0,0,0,0,0,0,-1,958,386,0.255997,17.2527
-259,638,0.778809,-17.1793,0,0,0,0,0,0,0,-1,965,386,0.778803,17.1793
-252,638,7.69086,-17.9618,0,0,0,0,0,0,0,-1,972,386,7.69085,17.9618
-245,638,4.34192,-21.5695,0,0,0,0,0,0,0,-1,979,386,4.34191,21.5695
-238,638,5.16705,-21.0681,0.1103,-0.0255356,0.0394122,0.120907,-0.0361426,0.262901,0.0949733,0.0493831,986,386,5.16705,21.0681
-231,638,6.00293,-20.5307,0.0983918,-0.0176479,0.033344,0.107291,-0.0265469,0.260805,0.0818244,0.046444,993,386,6.00292,20.5307
-224,638,6.84467,-20.0325,0,0,0,0,0,0,0,-1,1000,386,6.84464,20.0325
-217,638,6.53162,-18.8751,0,0,0,0,0,0,0,-1,1007,386,6.5316,18.8751
-210,638,3.50873,-25.6114,0,0,0,0,0,0,0,-1,1014,386,3.50872,25.6114
-203,638,3.80066,-24.2338,0,0,0,0,0,0,0,-1,1021,386,3.80067,24.2338
-196,638,4.27954,-23.0077,0,0,0,0,0,0,0,-1,1028,386,4.2795,23.0077
-189,638,3.44495,-21.7571,0,0,0,0,0,0,0,-1,1035,386,3.44495,21.7571
-182,638,3.13354,-22.1984,0,0,0,0,0,0,0,-1,1042,386,3.1336,22.1984
-175,638,3.58167,-22.3343,0.00709926,-0.0154756,-0.00609183,0.00863823,-0.0170146,-0.247451,0.0150715,0.0437719,1049,386,3.58166,22.3343
-168,638,4.0354,-22.3711,0.0070079,-0.017157,-0.00481039,0.00793027,-0.0180794,-0.189447,0.015393,0.0373829,1056,386,4.03534,22.3711
-161,638,4.0896,-22.6173,0.00698242,-0.0172142,-0.00317317,0.00739164,-0.0176234,-0.128253,0.0148397,0.0312945,1063,386,4.08965,22.6173
-154,638,4.05884,-22.8628,0.00690587,-0.0162624,-0.00164077,0.00702149,-0.016378,-0.0703515,0.0138651,0.0232332,1070,386,4.05888,22.8628
-147,638,4.01184,-23.1385,0.00673101,-0.0147944,-0.000255194,0.00673404,-0.0147975,-0.0118532,0.0127185,0.0190462,1077,386,4.0119,23.1385
-140,638,3.99792,-23.3667,0.00649084,-0.0126314,0.0012085,0.00656691,-0.0127074,0.0628654,0.0113147,0.0167876,1084,386,3.99786,23.3667
-133,638,3.97302,-23.6449,0.00597744,-0.00989342,0.00262566,0.00640055,-0.0103165,0.159769,0.00973947,0.0143545,1091,386,3.97306,23.6449
-126,638,3.96814,-23.8471,0.0054286,-0.00708889,0.00366399,0.00642222,-0.0080825,0.264815,0.00839257,0.014763,1098,386,3.96814,23.8471
-119,638,3.95691,-24.0558,0.00469026,-0.0041635,0.0043262,0.00645315,-0.00592639,0.386948,0.00714949,0.0156523,1105,386,3.95691,24.0558
-112,638,3.93347,-24.3002,0.00416318,-0.00152728,0.00457939,0.00670925,-0.00407336,0.507427,0.00628704,0.0141723,1112,386,3.93351,24.3002
-105,638,3.90027,-24.5248,0.00350971,0.000625889,0.00463521,0.0069221,-0.00278651,0.634604,0.00577229,0.0155716,1119,386,3.90026,24.5248
-98,638,3.87366,-24.714,0.00253147,0.00226492,0.00446867,0.00686885,-0.00207246,0.770491,0.00540418,0.0157143,1126,386,3.87364,24.714
-91,638,3.84863,-24.9015,0.00161825,0.00378291,0.00383032,0.00668088,-0.00127972,0.923093,0.0049361,0.012661,1133,386,3.84864,24.9015
-84,638,3.82227,-25.0765,0.000995858,0.00428863,0.00300266,0.00606665,-0.000782162,1.03617,0.00432877,0.0140926,1140,386,3.8223,25.0765
-77,638,3.80212,-25.2497,-0.000170732,0.00475217,0.00248407,0.00578777,-0.00120633,1.17581,0.00431718,0.0112524,1147,386,3.80218,25.2497
-70,638,3.7981,-25.408,-0.000863727,0.00423162,0.00104009,0.00443575,-0.00106786,1.377,0.00337,0.0103125,1154,386,3.79807,25.408
-63,638,3.7749,-25.5693,-0.00128298,0.00384191,0.000723103,0.00394199,-0.00138305,1.43328,0.00319055,0.0115928,1161,386,3.77488,25.5693
-56,638,3.77759,-25.7051,-0.00164514,0.00323216,-1.85315e-05,0.00323223,-0.00164521,-1.567,0.00286525,0.0148285,1168,386,3.77755,25.7051
-49,638,3.7738,-25.8294,-0.00160644,0.00247527,6.13661e-05,0.0024762,-0.00160736,1.55577,0.00237536,0.0122459,1175,386,3.77374,25.8294
-42,638,3.7572,-25.9452,-0.00142563,0.00213292,0.000354093,0.00216781,-0.00146052,1.47257,0.00210804,0.0108695,1182,386,3.7572,25.9452
-35,638,3.74402,-26.071,-0.00132154,0.00194623,0.000780965,0.00212328,-0.00149859,1.34786,0.00210143,0.010489,1189,386,3.74405,26.071
-28,638,3.7395,-26.1884,-0.00111237,0.0016655,0.00112017,0.00206092,-0.00150779,1.23145,0.00206863,0.0102372,1196,386,3.73952,26.1884
-21,638,3.71948,-26.2896,-0.000786016,0.00136052,0.00147871,0.00211441,-0.0015399,1.09932,0.00211849,0.011065,1203,386,3.71945,26.2896
-14,638,3.70422,-26.3988,-0.000546553,0.000993205,0.00178336,0.00216577,-0.00171912,0.989164,0.00224788,0.0115828,1210,386,3.70425,26.3988
-7,638,3.71631,-26.5213,-0.000368887,0.00074337,0.00186207,0.00213058,-0.0017561,0.930512,0.00224745,0.0174459,1217,386,3.7163,26.5213
0,638,3.76245,-26.5339,-0.000251215,0.000499208,0.00185132,0.00201296,-0.00176496,0.88538,0.00218275,0.0304254,1224,386,3.7624,26.5339
7,638,3.67725,-26.5872,-0.000197782,0.000365619,0.00178705,0.00189303,-0.0017252,0.863572,0.00208973,0.0243159,1231,386,3.6773,26.5872
14,638,3.67822,-26.6458,-0.000209037,0.000347612,0.00168112,0.00177329,-0.00163471,0.867434,0.00196815,0.0126301,1238,386,3.67819,26.6458
21,638,3.68628,-26.7178,-0.00028019,0.000588866,0.00153862,0.00175314,-0.00144447,0.923021,0.00184901,0.0109873,1245,386,3.68627,26.7178
28,638,3.68896,-26.7561,-0.000288323,0.000979078,0.00140813,0.00188953,-0.00119878,0.996837,0.00179784,0.00880437,1252,386,3.689,26.7561
35,638,3.68457,-26.7731,-0.000230249,0.0015987,0.00131777,0.00228822,-0.000919766,1.08873,0.00190748,0.010044,1259,386,3.68458,26.7731
42,638,3.70117,-26.8082,-0.000198841,0.00247037,0.00121758,0.00294233,-0.000670798,1.20101,0.00221921,0.0098158,1266,386,3.70122,26.8082
49,638,3.72571,-26.8127,-0.000107195,0.00329855,0.00114511,0.00364776,-0.000456407,1.2748,0.00259738,0.00878234,1273,386,3.72569,26.8127
56,638,3.70239,-26.8029,8.82262e-05,0.00408736,0.00107121,0.00435622,-0.000180635,1.32489,0.00296619,0.0116634,1280,386,3.70242,26.8029
63,638,3.69153,-26.8178,0.000193789,0.00489056,0.00095049,0.00507562,8.72929e-06,1.3785,0.00338084,0.0138608,1287,386,3.69147,26.8178
70,638,3.67749,-26.819,0.000350664,0.00572627,0.000887785,0.0058691,0.00020784,1.41129,0.00384532,0.0178611,1294,386,3.67749,26.819
77,638,3.67932,-26.7936,0.000517716,0.00639538,0.00080258,0.006503,0.000410096,1.4375,0.00420531,0.01795,1301,386,3.67935,26.7936
84,638,3.7135,-26.7387,0.000638375,0.0067336,0.000622337,0.00679649,0.000575482,1.47008,0.00435187,0.0135444,1308,386,3.71352,26.7387
91,638,3.71265,-26.6827,0.000701824,0.00678412,0.000397288,0.00680996,0.000675984,1.50585,0.00433226,0.0140446,1315,386,3.71268,26.6828
98,638,3.6886,-26.6302,0.000746734,0.00647286,0.000272308,0.00648578,0.000733814,1.52338,0.00410119,0.012497,1322,386,3.6886,26.6302
105,638,3.6991,-26.5779,0.000731057,0.00609071,0.00017844,0.00609665,0.000725123,1.53755,0.00384558,0.00945482,1329,386,3.69905,26.5779
112,638,3.71057,-26.5218,0.000677464,0.00558029,6.7978e-05,0.00558123,0.000676522,1.55693,0.00351707,0.0092696,1336,386,3.71057,26.5218
119,638,3.69275,-26.4283,0.000622041,0.0049509,8.71475e-06,0.00495091,0.000622024,1.56878,0.00311405,0.0113046,1343,386,3.69274,26.4283
126,638,3.68481,-26.314,0.000570211,0.00427584,1.69968e-05,0.00427592,0.000570133,1.56621,0.00268085,0.0150422,1350,386,3.68475,26.314
133,638,3.68762,-26.2199,0.000471072,0.00371132,6.79823e-05,0.00371274,0.000469646,1.54983,0.00233442,0.0156092,1357,386,3.68757,26.2199
140,638,3.66003,-26.1469,0.0003621,0.00327451,0.000202375,0.00328851,0.000348104,1.50175,0.00208601,0.0160005,1364,386,3.66008,26.1469
147,638,3.67407,-26.0327,0.000274789,0.0030279,0.000397337,0.00308409,0.000218591,1.43029,0.00198721,0.0175618,1371,386,3.67409,26.0327
154,638,3.69641,-25.9119,0.000216743,0.00308257,0.000595634,0.00320144,9.78773e-05,1.37382,0.00210243,0.0159292,1378,386,3.69643,25.9119
161,638,3.68396,-25.7452,0.000152879,0.00329834,0.000816819,0.0034978,-4.65856e-05,1.33129,0.00234755,0.0176826,1385,386,3.6839,25.7452
168,638,3.6958,-25.5756,-3.0736e-05,0.00340319,0.0010002,0.00367328,-0.000300823,1.30705,0.00255504,0.0221303,1392,386,3.69584,25.5756
175,638,3.68628,-25.4543,-0.000290359,0.00342324,0.0011715,0.00376192,-0.000629037,1.28937,0.00274178,0.0178999,1399,386,3.68623,25.4544
182,638,3.65698,-25.2895,-0.000574868,0.00351227,0.00140336,0.00394773,-0.00101033,1.26992,0.00302536,0.0122971,1406,386,3.65701,25.2895
189,638,3.64941,-25.1245,-0.000816487,0.00368583,0.00159446,0.0041933,-0.00132396,1.26266,0.00332588,0.0110737,1413,386,3.64941,25.1245
196,638,3.63086,-24.9362,-0.00117474,0.00352624,0.00173375,0.00409649,-0.00174499,1.25303,0.00346246,0.0138552,1420,386,3.63088,24.9362
203,638,3.59949,-24.7586,-0.0017142,0.00277268,0.00161054,0.00329092,-0.00223244,1.25948,0.00320837,0.0204007,1427,386,3.59948,24.7586
210,638,3.6123,-24.5754,-0.00231254,0.00242095,0.00152987,0.00287236,-0.00276395,1.28387,0.00325432,0.017166,1434,386,3.61225,24.5754
217,638,3.59131,-24.374,-0.00281308,0.00232054,0.0015622,0.00275855,-0.0032511,1.29743,0.00347355,0.0129055,1441,386,3.59133,24.3739
224,638,3.55872,-24.15,-0.00310368,0.00247862,0.00162824,0.00291883,-0.00354389,1.30675,0.00373707,0.0108392,1448,386,3.55868,24.15
231,638,3.51709,-23.9228,-0.00332296,0.0026998,0.00180998,0.00320188,-0.00382504,1.3002,0.00406231,0.0111918,1455,386,3.51709,23.9228
238,638,3.49707,-23.6975,-0.00340529,0.00330444,0.00219724,0.00395993,-0.00406079,1.28088,0.00463089,0.0122493,1462,386,3.49705,23.6975
245,638,3.49023,-23.4685,-0.0035301,0.00393948,0.00246482,0.0046795,-0.00427012,1.27912,0.00516887,0.014116,1469,386,3.49029,23.4685
252,638,3.50476,-23.2238,-0.00348146,0.00487852,0.00284536,0.00575505,-0.00435799,1.27197,0.00585731,0.0160947,1476,386,3.50475,23.2238
259,638,3.47852,-22.9962,-0.0033527,0.00597582,0.00330331,0.00702708,-0.00440396,1.26269,0.00665738,0.0159327,1483,386,3.4785,22.9962
266,638,3.40393,-22.707,-0.00313333,0.00708373,0.00378977,0.00833597,-0.00438558,1.25166,0.00746189,0.0127653,1490,386,3.4039,22.707
273,638,3.40002,-22.4593,-0.00276897,0.00827198,0.00436886,0.00979157,-0.00428857,1.23606,0.00833356,0.0113996,1497,386,3.39997,22.4593
280,638,3.47217,-22.118,-0.00168322,0.00914512,0.00498036,0.0110874,-0.00362549,1.19895,0.00885115,0.0216848,1504,386,3.47215,22.118
287,638,3.59778,-21.6763,-0.000751551,0.00988624,0.00569215,0.0123578,-0.00322311,1.16115,0.009497,0.0401446,1511,386,3.59774,21.6763
294,638,3.64441,-21.3191,0,0,0,0,0,0,0,-1,1518,386,3.64438,21.319
301,638,3.17273,-21.1153,0,0,0,0,0,0,0,-1,1525,386,3.17272,21.1153
308,638,4.18237,-16.7618,0,0,0,0,0,0,0,-1,1532,386,4.1824,16.7618
315,638,3.20642,-20.808,0,0,0,0,0,0,0,-1,1539,386,3.20638,20.808
322,638,3.22107,-20.5793,0,0,0,0,0,0,0,-1,1546,386,3.22109,20.5793
329,638,3.14331,-20.1266,0.00772784,0.00653584,0.0091096,0.0162609,-0.00199724,0.752732,0.011564,0.0489508,1553,386,3.14333,20.1266
336,638,3.38806,-19.6871,0,0,0,0,0,0,0,-1,1560,386,3.3881,19.6871
343,638,3.84814,-19.3838,0,0,0,0,0,0,0,-1,1567,386,3.84811,19.3838
350,638,2.3783,-11.33,0,0,0,0,0,0,0,-1,1574,386,2.37831,11.33
357,638,0.130371,-3.02618,0,0,0,0,0,0,0,-1,1581,386,0.130345,3.0262
364,638,3.78149,-6.45215,0,0,0,0,0,0,0,-1,1588,386,3.78155,6.45216
371,638,4.18604,-6.71164,0,0,0,0,0,0,0,-1,1595,386,4.18598,6.71164
378,638,4.59045,-6.97113,0,0,0,0,0,0,0,-1,1602,386,4.5904,6.97112
385,638,0,0,0,0,0,0,0,0,0,-1,1609,386,0,0
392,638,0,0,0,0,0,0,0,0,0,-1,1616,386,0,0
399,638,0,0,0,0,0,0,0,0,0,-1,1623,386,0,0
406,638,0,0,0,0,0,0,0,0,0,-1,1630,386,0,0
413,638,0,0,0,0,0,0,0,0,0,-1,1637,386,0,0
420,638,0,0,0,0,0,0,0,0,0,-1,1644,386,0,0
427,638,0,0,0,0,0,0,0,0,0,-1,1651,386,0,0
434,638,0,0,0,0,0,0,0,0,0,-1,1658,386,0,0
441,638,0,0,0,0,0,0,0,0,0,-1,1665,386,0,0
448,638,0,0,0,0,0,0,0,0,0,-1,1672,386,0,0
455,638,0,0,0,0,0,0,0,0,0,-1,1679,386,0,0
462,638,0,0,0,0,0,0,0,0,0,-1,1686,386,0,0
469,638,0,0,0,0,0,0,0,0,0,-1,1693,386,0,0
476,638,0,0,0,0,0,0,0,0,0,-1,1700,386,0,0
483,638,0,0,0,0,0,0,0,0,0,-1,1707,386,0,0
490,638,0,0,0,0,0,0,0,0,0,-1,1714,386,0,0
497,638,0,0,0,0,0,0,0,0,0,-1,1721,386,0,0
504,638,0,0,0,0,0,0,0,0,0,-1,1728,386,0,0
511,638,0,0,0,0,0,0,0,0,0,-1,1735,386,0,0
518,638,0,0,0,0,0,0,0,0,0,-1,1742,386,0,0
525,638,0,0,0,0,0,0,0,0,0,-1,1749,386,0,0
532,638,0,0,0,0,0,0,0,0,0,-1,1756,386,0,0
539,638,0,0,0,0,0,0,0,0,0,-1,1763,386,0,0
546,638,0,0,0,0,0,0,0,0,0,-1,1770,386,0,0
553,638,0,0,0,0,0,0,0,0,0,-1,1777,386,0,0
560,638,0,0,0,0,0,0,0,0,0,-1,1784,386,0,0
567,638,0,0,0,0,0,0,0,0,0,-1,1791,386,0,0
574,638,0,0,0,0,0,0,0,0,0,-1,1798,386,0,0
581,638,0,0,0,0,0,0,0,0,0,-1,1805,386,0,0
588,638,0,0,0,0,0,0,0,0,0,-1,1812,386,0,0
595,638,0,0,0,0,0,0,0,0,0,-1,1819,386,0,0
602,638,0,0,0,0,0,0,0,0,0,-1,1826,386,0,0
609,638,0,0,0,0,0,0,0,0,0,-1,1833,386,0,0
616,638,0,0,0,0,0,0,0,0,0,-1,1840,386,0,0
623,638,0,0,0,0,0,0,0,0,0,-1,1847,386,0,0
630,638,0,0,0,0,0,0,0,0,0,-1,1854,386,0,0
637,638,0,0,0,0,0,0,0,0,0,-1,1861,386,0,0
644,638,0,0,0,0,0,0,0,0,0,-1,1868,386,0,0
651,638,0,0,0,0,0,0,0,0,0,-1,1875,386,0,0
658,638,0,0,0,0,0,0,0,0,0,-1,1882,386,0,0
665,638,0,0,0,0,0,0,0,0,0,-1,1889,386,0,0
672,638,0,0,0,0,0,0,0,0,0,-1,1896,386,0,0
679,638,0,0,0,0,0,0,0,0,0,-1,1903,386,0,0
686,638,0,0,0,0,0,0,0,0,0,-1,1910,386,0,0
693,638,0,0,0,0,0,0,0,0,0,-1,1917,386,0,0
700,638,0,0,0,0,0,0,0,0,0,-1,1924,386,0,0
707,638,0,0,0,0,0,0,0,0,0,-1,1931,386,0,0
714,638,0,0,0,0,0,0,0,0,0,-1,1938,386,0,0
721,638,0,0,0,0,0,0,0,0,0,-1,1945,386,0,0
728,638,0,0,0,0,0,0,0,0,0,-1,1952,386,0,0
735,638,0,0,0,0,0,0,0,0,0,-1,1959,386,0,0
742,638,0,0,0,0,0,0,0,0,0,-1,1966,386,0,0
749,638,0,0,0,0,0,0,0,0,0,-1,1973,386,0,0
756,638,0,0,0,0,0,0,0,0,0,-1,1980,386,0,0
763,638,0,0,0,0,0,0,0,0,0,-1,1987,386,0,0
770,638,0,0,0,0,0,0,0,0,0,-1,1994,386,0,0
777,638,0,0,0,0,0,0,0,0,0,-1,2001,386,0,0
784,638,0,0,0,0,0,0,0,0,0,-1,2008,386,0,0
791,638,0,0,0,0,0,0,0,0,0,-1,2015,386,0,0
798,638,0,0,0,0,0,0,0,0,0,-1,2022,386,0,0
805,638,0,0,0,0,0,0,0,0,0,-1,2029,386,0,0
812,638,0,0,0,0,0,0,0,0,0,-1,2036,386,0,0
-700,631,0,0,0,0,0,0,0,0,0,-1,524,393,0,0
-693,631,0,0,0,0,0,0,0,0,0,-1,531,393,0,0
-686,631,0,0,0,0,0,0,0,0,0,-1,538,393,0,0
-679,631,0,0,0,0,0,0,0,0,0,-1,545,393,0,0
-672,631,0,0,0,0,0,0,0,0,0,-1,552,393,0,0
-665,631,0,0,0,0,0,0,0,0,0,-1,559,393,0,0
-658,631,0,0,0,0,0,0,0,0,0,-1,566,393,0,0
-651,631,0,0,0,0,0,0,0,0,0,-1,573,393,0,0
-644,631,0,0,0,0,0,0,0,0,0,-1,580,393,0,0
-637,631,0,0,0,0,0,0,0,0,0,-1,587,393,0,0
-630,631,0,0,0,0,0,0,0,0,0,-1,594,393,0,0
-623,631,0,0,0,0,0,0,0,0,0,-1,601,393,0,0
-616,631,0,0,0,0,0,0,0,0,0,-1,608,393,0,0
-609,631,0,0,0,0,0,0,0,0,0,-1,615,393,0,0
-602,631,0,0,0,0,0,0,0,0,0,-1,622,393,0,0
-595,631,0,0,0,0,0,0,0,0,0,-1,629,393,0,0
-588,631,0,0,0,0,0,0,0,0,0,-1,636,393,0,0
-581,631,0,0,0,0,0,0,0,0,0,-1,643,393,0,0
-574,631,0,0,0,0,0,0,0,0,0,-1,650,393,0,0
-567,631,0,0,0,0,0,0,0,0,0,-1,657,393,0,0
-560,631,0,0,0,0,0,0,0,0,0,-1,664,393,0,0
-553,631,0,0,0,0,0,0,0,0,0,-1,671,393,0,0
-546,631,0,0,0,0,0,0,0,0,0,-1,678,393,0,0
-539,631,0,0,0,0,0,0,0,0,0,-1,685,393,0,0
-532,631,0,0,0,0,0,0,0,0,0,-1,692,393,0,0
-525,631,0,0,0,0,0,0,0,0,0,-1,699,393,0,0
-518,631,0,0,0,0,0,0,0,0,0,-1,706,393,0,0
-511,631,0,0,0,0,0,0,0,0,0,-1,713,393,0,0
-504,631,0,0,0,0,0,0,0,0,0,-1,720,393,0,0
-497,631,0,0,0,0,0,0,0,0,0,-1,727,393,0,0
-490,631,0,0,0,0,0,0,0,0,0,-1,734,393,0,0
-483,631,0,0,0,0,0,0,0,0,0,-1,741,393,0,0
-476,631,0,0,0,0,0,0,0,0,0,-1,748,393,0,0
-469,631,0,0,0,0,0,0,0,0,0,-1,755,393,0,0
-462,631,0,0,0,0,0,0,0,0,0,-1,762,393,0,0
-455,631,0,0,0,0,0,0,0,0,0,-1,769,393,0,0
-448,631,0,0,0,0,0,0,0,0,0,-1,776,393,0,0
-441,631,0,0,0,0,0,0,0,0,0,-1,783,393,0,0
-434,631,0,0,0,0,0,0,0,0,0,-1,790,393,0,0
-427,631,0,0,0,0,0,0,0,0,0,-1,797,393,0,0
-420,631,0,0,0,0,0,0,0,0,0,-1,804,393,0,0
-413,631,0,0,0,0,0,0,0,0,0,-1,811,393,0,0
-406,631,0,0,0,0,0,0,0,0,0,-1,818,393,0,0
-399,631,0,0,0,0,0,0,0,0,0,-1,825,393,0,0
-392,631,0,0,0,0,0,0,0,0,0,-1,832,393,0,0
-385,631,0,0,0,0,0,0,0,0,0,-1,839,393,0,0
-378,631,0,0,0,0,0,0,0,0,0,-1,846,393,0,0
-371,631,0,0,0,0,0,0,0,0,0,-1,853,393,0,0
-364,631,0,0,0,0,0,0,0,0,0,-1,860,393,0,0
-357,631,0,0,0,0,0,0,0,0,0,-1,867,393,0,0
-350,631,0,0,0,0,0,0,0,0,0,-1,874,393,0,0
-343,631,0,0,0,0,0,0,0,0,0,-1,881,393,0,0
-336,631,0,0,0,0,0,0,0,0,0,-1,888,393,0,0
-329,631,0,0,0,0,0,0,0,0,0,-1,895,393,0,0
-322,631,0,0,0,0,0,0,0,0,0,-1,902,393,0,0
-315,631,0,0,0,0,0,0,0,0,0,-1,909,393,0,0
-308,631,0,0,0,0,0,0,0,0,0,-1,916,393,0,0
-301,631,0,0,0,0,0,0,0,0,0,-1,923,393,0,0
-294,631,0,0,0,0,0,0,0,0,0,-1,930,393,0,0
-287,631,0,0,0,0,0,0,0,0,0,-1,937,393,0,0
-280,631,1.55042,-14.0146,0,0,0,0,0,0,0,-1,944,393,1.55041,14.0146
-273,631,2.41461,-11.6467,0,0,0,0,0,0,0,-1,951,393,2.41461,11.6467
-266,631,1.18927,-15.6338,0,0,0,0,0,0,0,-1,958,393,1.18924,15.6338
-259,631,6.22192,-17.9323,0,0,0,0,0,0,0,-1,965,393,6.22191,17.9323
-252,631,6.5943,-18.1792,0,0,0,0,0,0,0,-1,972,393,6.5943,18.1792
-245,631,4.66772,-21.1613,0,0,0,0,0,0,0,-1,979,393,4.66771,21.1614
-238,631,5.16492,-20.8603,0.0802472,-0.0164181,0.0300795,0.0888428,-0.0250136,0.278343,0.0690925,0.0468206,986,393,5.16493,20.8603
-231,631,5.98077,-20.3597,0.0707107,-0.0101726,0.0253701,0.0780097,-0.0174716,0.280136,0.0587035,0.0484255,993,393,5.98079,20.3597
-224,631,6.83575,-19.7909,0,0,0,0,0,0,0,-1,1000,393,6.83575,19.7909
-217,631,5.05188,-18.3867,0,0,0,0,0,0,0,-1,1007,393,5.0519,18.3866
-210,631,3.94629,-18.0287,0,0,0,0,0,0,0,-1,1014,393,3.94627,18.0286
-203,631,4.46375,-20.6692,0,0,0,0,0,0,0,-1,1021,393,4.4637,20.6692
-196,631,4.30408,-20.7639,0,0,0,0,0,0,0,-1,1028,393,4.30413,20.7639
-189,631,3.47107,-21.4699,0.0139387,-0.00489571,-0.00398294,0.0147463,-0.00570336,-0.200064,0.0121853,0.0476525,1035,393,3.47102,21.47
-182,631,3.75806,-21.5733,0.00782773,-0.00652202,-0.0063798,0.0102539,-0.00894822,-0.363404,0.0110949,0.0492182,1042,393,3.7581,21.5733
-175,631,3.50354,-22.1823,0.00457606,-0.00859983,-0.00643824,0.00719963,-0.0112234,-0.386953,0.0107208,0.0345404,1049,393,3.5035,22.1823
-168,631,3.84167,-22.4107,0.00455723,-0.0103348,-0.00543658,0.00633074,-0.0121083,-0.315332,0.0108186,0.0188969,1056,393,3.84169,22.4107
-161,631,3.83801,-22.6993,0.00459769,-0.0108665,-0.00415492,0.00564333,-0.0119122,-0.246543,0.0103488,0.00920114,1063,393,3.83807,22.6993
-154,631,3.82715,-22.9596,0.00459926,-0.0105182,-0.0029125,0.00514097,-0.0110599,-0.183892,0.00955938,0.00901829,1070,393,3.82712,22.9596
-147,631,3.80957,-23.2002,0.00451942,-0.00978163,-0.00179934,0.00474234,-0.0100045,-0.12326,0.00869292,0.010305,1077,393,3.80953,23.2002
-140,631,3.79443,-23.4594,0.00439578,-0.00846175,-0.000615439,0.00442517,-0.00849114,-0.0477206,0.0075794,0.0098244,1084,393,3.79439,23.4594
-133,631,3.75732,-23.7018,0.00402709,-0.0065871,0.000569759,0.00405758,-0.00661759,0.0534742,0.00622211,0.0082082,1091,393,3.75732,23.7018
-126,631,3.75647,-23.8961,0.00363512,-0.00462348,0.00143647,0.00387784,-0.0048662,0.167389,0.00505911,0.0122795,1098,393,3.75643,23.8961
-119,631,3.75659,-24.0641,0.00309854,-0.0024235,0.00198707,0.00373923,-0.0030642,0.311908,0.0039344,0.0162503,1105,393,3.7566,24.0641
-112,631,3.72998,-24.3006,0.00274467,-0.000436252,0.00220294,0.00387128,-0.00156287,0.472738,0.00323039,0.0150225,1112,393,3.73003,24.3006
-105,631,3.75513,-24.535,0.00232833,0.00118112,0.00227791,0.00410375,-0.000594293,0.662057,0.00295392,0.0192104,1119,393,3.75516,24.535
-98,631,3.71704,-24.7186,0.00167714,0.00239936,0.00217535,0.00424337,-0.000166868,0.867649,0.00288614,0.0162606,1126,393,3.71709,24.7186
-91,631,3.66882,-24.924,0.00112254,0.00340286,0.00174464,0.00434686,0.000178537,1.07482,0.00284026,0.0172459,1133,393,3.66884,24.9241
-84,631,3.67053,-25.0965,0.000793639,0.00358589,0.00128905,0.00408998,0.000289551,1.19803,0.00263544,0.0165562,1140,393,3.67056,25.0965
-77,631,3.66101,-25.2546,0.000180022,0.003637,0.00102403,0.00391757,-0.000100546,1.30337,0.00264587,0.0109821,1147,393,3.661,25.2546
-70,631,3.65906,-25.3959,-0.000118008,0.00314783,0.000266151,0.00316938,-0.000139556,1.49001,0.00216094,0.0116079,1154,393,3.65911,25.3959
-63,631,3.64514,-25.5495,-0.000140038,0.00261406,0.000280258,0.00264229,-0.000168268,1.47041,0.00182021,0.0127465,1161,393,3.64516,25.5495
-56,631,3.6272,-25.724,-8.34556e-05,0.00192797,0.000143371,0.00193814,-9.36235e-05,1.5,0.00132441,0.0137023,1168,393,3.62716,25.724
-49,631,3.63293,-25.8542,0.000131855,0.00114972,0.000385714,0.00127937,2.20467e-06,1.24653,0.000852177,0.0106802,1175,393,3.63299,25.8542
-42,631,3.63074,-25.9645,0.000613651,0.000594817,0.000916916,0.0015212,-0.000312731,0.780263,0.00113286,0.00847535,1182,393,3.63068,25.9645
-35,631,3.62634,-26.0777,0.00108908,-2.83657e-05,0.00147572,0.0021083,-0.00104759,0.604432,0.00185604,0.0106494,1189,393,3.62635,26.0777
-28,631,3.63623,-26.1785,0.00157175,-0.000702199,0.00194003,0.00268342,-0.00181387,0.520345,0.00261264,0.0138167,1196,393,3.63629,26.1785
-21,631,3.62549,-26.2888,0.00209144,-0.00135878,0.0023682,0.00329625,-0.00256358,0.470616,0.00339198,0.0116589,1203,393,3.62548,26.2888
-14,631,3.60718,-26.4003,0.00251029,-0.0020504,0.00270577,0.00376847,-0.00330858,0.435257,0.00408881,0.0139518,1210,393,3.60722,26.4003
-7,631,3.61169,-26.5358,0.00273747,-0.00250559,0.00274751,0.00391347,-0.00368159,0.404429,0.00438569,0.021643,1217,393,3.61165,26.5358
0,631,3.63025,-26.5878,0.0027788,-0.00280555,0.00265819,0.00384178,-0.00386853,0.38041,0.00445156,0.0235219,1224,393,3.63019,26.5878
7,631,3.61267,-26.6029,0.0026831,-0.00303042,0.00244938,0.00358939,-0.0039367,0.354386,0.00434673,0.0192282,1231,393,3.61273,26.6029
14,631,3.63123,-26.6746,0.00246082,-0.00310578,0.00213739,0.00318682,-0.00383178,0.32744,0.00405789,0.0106472,1238,393,3.63126,26.6746
21,631,3.64697,-26.7344,0.00206253,-0.00275964,0.00167818,0.00258907,-0.00328618,0.304027,0.00340002,0.0132517,1245,393,3.64696,26.7344
28,631,3.64697,-26.7865,0.00166315,-0.00207896,0.00123928,0.00203634,-0.00245216,0.292502,0.00259514,0.0149187,1252,393,3.64698,26.7865
35,631,3.67957,-26.7812,0.00132368,-0.000969801,0.00082351,0.00158874,-0.00123486,0.311395,0.00163447,0.0134008,1259,393,3.67959,26.7812
42,631,3.70178,-26.8034,0.000958933,0.000634616,0.000372814,0.00120333,0.000390221,0.580261,0.000708898,0.0118858,1266,393,3.70181,26.8034
49,631,3.70862,-26.8284,0.000722795,0.00199679,-4.36108e-05,0.00199828,0.000721304,-1.53662,0.00116848,0.0108703,1273,393,3.7086,26.8284
56,631,3.72302,-26.841,0.000714506,0.0032799,-0.000331375,0.00332202,0.000672393,-1.44439,0.00202805,0.0129066,1280,393,3.72303,26.841
63,631,3.71472,-26.8593,0.000581452,0.00443051,-0.00068117,0.0045475,0.000464462,-1.40071,0.00288932,0.0158523,1287,393,3.71476,26.8593
70,631,3.71631,-26.8373,0.00061888,0.00560091,-0.000834059,0.00573683,0.000482956,-1.40925,0.00367416,0.0158212,1294,393,3.71627,26.8373
77,631,3.70947,-26.7833,0.000758819,0.0064126,-0.000942418,0.00656555,0.000605867,-1.4099,0.00418971,0.0154596,1301,393,3.70945,26.7833
84,631,3.72974,-26.748,0.000962846,0.00663716,-0.00113215,0.0068547,0.000745298,-1.38096,0.00434274,0.0134645,1308,393,3.72974,26.748
91,631,3.72815,-26.7229,0.00113031,0.00637839,-0.00128728,0.00667713,0.000831561,-1.34276,0.00420175,0.0162658,1315,393,3.72814,26.7229
98,631,3.72913,-26.664,0.00128119,0.00560518,-0.00133968,0.00598661,0.000899769,-1.29342,0.00372752,0.0132208,1322,393,3.72909,26.664
105,631,3.73987,-26.5957,0.00137828,0.00456162,-0.00136396,0.00506609,0.000873812,-1.21654,0.00312709,0.0108734,1329,393,3.73981,26.5957
112,631,3.77832,-26.5324,0.00141757,0.00336394,-0.00131244,0.00402464,0.000756872,-1.10442,0.00246977,0.0113451,1336,393,3.77832,26.5324
119,631,3.76331,-26.4457,0.00142897,0.00203975,-0.00118253,0.00295569,0.000513035,-0.911763,0.00182366,0.0121529,1343,393,3.76334,26.4458
126,631,3.75696,-26.3266,0.00149038,0.00065543,-0.000950779,0.0021113,3.45104e-05,-0.578526,0.00139617,0.0174816,1350,393,3.75693,26.3266
133,631,3.78613,-26.2426,0.00144851,-0.000503006,-0.000773234,0.00171774,-0.000772236,-0.335058,0.00147173,0.0181013,1357,393,3.7861,26.2426
140,631,3.7937,-26.1504,0.00131751,-0.00131841,-0.000575239,0.00143758,-0.00143848,-0.205769,0.00166049,0.0184967,1364,393,3.79364,26.1504
147,631,3.79126,-26.0113,0.00115652,-0.00174418,-0.000371859,0.00120343,-0.00179109,-0.125493,0.00173995,0.0212022,1371,393,3.79123,26.0113
154,631,3.8125,-25.8973,0.00102058,-0.0013311,-0.00016217,0.00103171,-0.00134223,-0.0685267,0.0013745,0.0205521,1378,393,3.81256,25.8973
161,631,3.82825,-25.7272,0.000903226,-0.000723935,4.7577e-05,0.000904616,-0.000725325,0.029206,0.000942943,0.0219156,1385,393,3.82829,25.7272
168,631,3.82727,-25.5656,0.000703058,-0.000117155,0.000192181,0.000745854,-0.000159951,0.219112,0.000558245,0.0259231,1392,393,3.82722,25.5656
175,631,3.80542,-25.4514,0.000450325,0.00043688,0.000342492,0.00078616,0.000101044,0.775585,0.000493883,0.0201185,1399,393,3.80543,25.4514
182,631,3.80823,-25.3062,0.000164352,0.00106689,0.000534922,0.00131547,-8.42257e-05,1.13579,0.000906359,0.0110786,1406,393,3.80817,25.3062
189,631,3.80249,-25.1391,-0.000107227,0.00166083,0.000746735,0.001934,-0.000380402,1.22009,0.00143307,0.0104327,1413,393,3.8025,25.1391
196,631,3.7915,-24.9656,-0.000390867,0.00192215,0.000936038,0.00225349,-0.000722202,1.23058,0.00179224,0.0106749,1420,393,3.79156,24.9656
203,631,3.79016,-24.7839,-0.000755769,0.00185261,0.000972709,0.0021754,-0.00107856,1.25038,0.00191392,0.0131896,1427,393,3.79022,24.7839
210,631,3.79932,-24.6014,-0.00118164,0.00194685,0.00104148,0.00226184,-0.00149663,1.27709,0.0021849,0.0152887,1434,393,3.7993,24.6014
217,631,3.79456,-24.4129,-0.00155803,0.00210403,0.00113285,0.00242615,-0.00188014,1.29377,0.00249289,0.0166859,1441,393,3.79455,24.4129
224,631,3.76172,-24.2006,-0.00178931,0.0023129,0.00127193,0.00267526,-0.00215168,1.29325,0.00279229,0.0134704,1448,393,3.76168,24.2006
231,631,3.72327,-23.9622,-0.00196977,0.00256822,0.0014982,0.00301823,-0.00241977,1.27901,0.00314596,0.0108258,1455,393,3.7233,23.9622
238,631,3.69153,-23.6921,-0.00205091,0.00309392,0.001861,0.0036965,-0.0026535,1.25765,0.00368262,0.0164398,1462,393,3.69148,23.6921
245,631,3.70044,-23.4669,-0.00215655,0.00362041,0.00211461,0.00431172,-0.00284786,1.25483,0.00416229,0.0184371,1469,393,3.70039,23.4669
252,631,3.69153,-23.2676,-0.00216965,0.0043668,0.00243322,0.00517311,-0.00297596,1.25081,0.00476153,0.0181093,1476,393,3.69148,23.2676
259,631,3.66907,-23.008,-0.00215948,0.00518052,0.00280225,0.00612804,-0.003107,1.24474,0.00542611,0.0128322,1483,393,3.66912,23.008
266,631,3.67041,-22.7661,-0.00209507,0.00595647,0.00317375,0.00705705,-0.00319565,1.237,0.00605772,0.0119821,1490,393,3.67041,22.7661
273,631,3.65833,-22.4949,-0.00190598,0.00677942,0.00360828,0.00808284,-0.0032094,1.22415,0.00671892,0.0144715,1497,393,3.65832,22.4949
280,631,3.6499,-22.2061,-0.00121014,0.00739529,0.0040716,0.00901637,-0.00283121,1.19189,0.00714416,0.0123314,1504,393,3.64992,22.2061
287,631,3.61328,-21.945,-0.000617713,0.00788192,0.00462496,0.00991312,-0.00264892,1.15697,0.00764623,0.0129333,1511,393,3.61327,21.945
294,631,3.56531,-21.6174,-5.00422e-05,0.00817295,0.00508931,0.010604,-0.00248114,1.12516,0.00802529,0.0172934,1518,393,3.56533,21.6174
301,631,3.49023,-21.2169,0.000810025,0.00841924,0.00554228,0.0113371,-0.00210786,1.08619,0.00834987,0.0272018,1525,393,3.49022,21.2169
308,631,3.62048,-20.9855,0,0,0,0,0,0,0,-1,1532,393,3.62053,20.9855
315,631,3.51233,-20.7319,0.00281685,0.00790753,0.0064952,0.0123383,-0.00161394,0.972142,0.00881293,0.0390233,1539,393,3.5123,20.7319
322,631,3.48694,-20.4466,0.00393732,0.00696948,0.00701818,0.0126335,-0.00172667,0.891774,0.00905292,0.0429795,1546,393,3.48691,20.4466
329,631,3.43494,-20.0478,0.004947,0.0061228,0.00746928,0.0130273,-0.00195749,0.824672,0.0094055,0.0475203,1553,393,3.43498,20.0478
336,631,3.45349,-19.6687,0,0,0,0,0,0,0,-1,1560,393,3.45349,19.6687
343,631,3.66138,-18.7404,0,0,0,0,0,0,0,-1,1567,393,3.66133,18.7404
350,631,2.1344,-9.23401,0,0,0,0,0,0,0,-1,1574,393,2.13439,9.23401
357,631,2.6449,-9.60303,0,0,0,0,0,0,0,-1,1581,393,2.64491,9.60304
364,631,3.39136,-5.7594,0,0,0,0,0,0,0,-1,1588,393,3.39137,5.75939
371,631,3.72839,-6.0574,0,0,0,0,0,0,0,-1,1595,393,3.72845,6.05742
378,631,4.06555,-6.35544,0,0,0,0,0,0,0,-1,1602,393,4.06553,6.35544
385,631,3.90442,-3.58298,0,0,0,0,0,0,0,-1,1609,393,3.90437,3.58299
392,631,0.352295,-2.21301,0,0,0,0,0,0,0,-1,1616,393,0.352345,2.213
399,631,0,0,0,0,0,0,0,0,0,-1,1623,393,0,0
406,631,0,0,0,0,0,0,0,0,0,-1,1630,393,0,0
413,631,0,0,0,0,0,0,0,0,0,-1,1637,393,0,0
420,631,0,0,0,0,0,0,0,0,0,-1,1644,393,0,0
427,631,0,0,0,0,0,0,0,0,0,-1,1651,393,0,0
434,631,0,0,0,0,0,0,0,0,0,-1,1658,393,0,0
441,631,0,0,0,0,0,0,0,0,0,-1,1665,393,0,0
448,631,0,0,0,0,0,0,0,0,0,-1,1672,393,0,0
455,631,0,0,0,0,0,0,0,0,0,-1,1679,393,0,0
462,631,0,0,0,0,0,0,0,0,0,-1,1686,393,0,0
469,631,0,0,0,0,0,0,0,0,0,-1,1693,393,0,0
476,631,0,0,0,0,0,0,0,0,0,-1,1700,393,0,0
483,631,0,0,0,0,0,0,0,0,0,-1,1707,393,0,0
490,631,0,0,0,0,0,0,0,0,0,-1,1714,393,0,0
497,631,0,0,0,0,0,0,0,0,0,-1,1721,393,0,0
504,631,0,0,0,0,0,0,0,0,0,-1,1728,393,0,0
511,631,0,0,0,0,0,0,0,0,0,-1,1735,393,0,0
518,631,0,0,0,0,0,0,0,0,0,-1,1742,393,0,0
525,631,0,0,0,0,0,0,0,0,0,-1,1749,393,0,0
532,631,0,0,0,0,0,0,0,0,0,-1,1756,393,0,0
539,631,0,0,0,0,0,0,0,0,0,-1,1763,393,0,0
546,631,0,0,0,0,0,0,0,0,0,-1,1770,393,0,0
553,631,0,0,0,0,0,0,0,0,0,-1,1777,393,0,0
560,631,0,0,0,0,0,0,0,0,0,-1,1784,393,0,0
567,631,0,0,0,0,0,0,0,0,0,-1,1791,393,0,0
574,631,0,0,0,0,0,0,0,0,0,-1,1798,393,0,0
581,631,0,0,0,0,0,0,0,0,0,-1,1805,393,0,0
588,631,0,0,0,0,0,0,0,0,0,-1,1812,393,0,0
595,631,0,0,0,0,0,0,0,0,0,-1,1819,393,0,0
602,631,0,0,0,0,0,0,0,0,0,-1,1826,393,0,0
609,631,0,0,0,0,0,0,0,0,0,-1,1833,393,0,0
616,631,0,0,0,0,0,0,0,0,0,-1,1840,393,0,0
623,631,0,0,0,0,0,0,0,0,0,-1,1847,393,0,0
630,631,0,0,0,0,0,0,0,0,0,-1,1854,393,0,0
637,631,0,0,0,0,0,0,0,0,0,-1,1861,393,0,0
644,631,0,0,0,0,0,0,0,0,0,-1,1868,393,0,0
651,631,0,0,0,0,0,0,0,0,0,-1,1875,393,0,0
658,631,0,0,0,0,0,0,0,0,0,-1,1882,393,0,0
665,631,0,0,0,0,0,0,0,0,0,-1,1889,393,0,0
672,631,0,0,0,0,0,0,0,0,0,-1,1896,393,0,0
679,631,0,0,0,0,0,0,0,0,0,-1,1903,393,0,0
686,631,0,0,0,0,0,0,0,0,0,-1,1910,393,0,0
693,631,0,0,0,0,0,0,0,0,0,-1,1917,393,0,0
700,631,0,0,0,0,0,0,0,0,0,-1,1924,393,0,0
707,631,0,0,0,0,0,0,0,0,0,-1,1931,393,0,0
714,631,0,0,0,0,0,0,0,0,0,-1,1938,393,0,0
721,631,0,0,0,0,0,0,0,0,0,-1,1945,393,0,0
728,631,0,0,0,0,0,0,0,0,0,-1,1952,393,0,0
735,631,0,0,0,0,0,0,0,0,0,-1,1959,393,0,0
742,631,0,0,0,0,0,0,0,0,0,-1,1966,393,0,0
749,631,0,0,0,0,0,0,0,0,0,-1,1973,393,0,0
756,631,0,0,0,0,0,0,0,0,0,-1,1980,393,0,0
763,631,0,0,0,0,0,0,0,0,0,-1,1987,393,0,0
770,631,0,0,0,0,0,0,0,0,0,-1,1994,393,0,0
777,631,0,0,0,0,0,0,0,0,0,-1,2001,393,0,0
784,631,0,0,0,0,0,0,0,0,0,-1,2008,393,0,0
791,631,0,0,0,0,0,0,0,0,0,-1,2015,393,0,0
798,631,0,0,0,0,0,0,0,0,0,-1,2022,393,0,0
805,631,0,0,0,0,0,0,0,0,0,-1,2029,393,0,0
812,631,0,0,0,0,0,0,0,0,0,-1,2036,393,0,0
-700,624,0,0,0,0,0,0,0,0,0,-1,524,400,0,0
-693,624,0,0,0,0,0,0,0,0,0,-1,531,400,0,0
-686,624,0,0,0,0,0,0,0,0,0,-1,538,400,0,0
-679,624,0,0,0,0,0,0,0,0,0,-1,545,400,0,0
-672,624,0,0,0,0,0,0,0,0,0,-1,552,400,0,0
-665,624,0,0,0,0,0,0,0,0,0,-1,559,400,0,0
-658,624,0,0,0,0,0,0,0,0,0,-1,566,400,0,0
-651,624,0,0,0,0,0,0,0,0,0,-1,573,400,0,0
-644,624,0,0,0,0,0,0,0,0,0,-1,580,400,0,0
-637,624,0,0,0,0,0,0,0,0,0,-1,587,400,0,0
-630,624,0,0,0,0,0,0,0,0,0,-1,594,400,0,0
-623,624,0,0,0,0,0,0,0,0,0,-1,601,400,0,0
-616,624,0,0,0,0,0,0,0,0,0,-1,608,400,0,0
-609,624,0,0,0,0,0,0,0,0,0,-1,615,400,0,0
-602,624,0,0,0,0,0,0,0,0,0,-1,622,400,0,0
-595,624,0,0,0,0,0,0,0,0,0,-1,629,400,0,0
-588,624,0,0,0,0,0,0,0,0,0,-1,636,400,0,0
-581,624,0,0,0,0,0,0,0,0,0,-1,643,400,0,0
-574,624,0,0,0,0,0,0,0,0,0,-1,650,400,0,0
-567,624,0,0,0,0,0,0,0,0,0,-1,657,400,0,0
-560,624,0,0,0,0,0,0,0,0,0,-1,664,400,0,0
-553,624,0,0,0,0,0,0,0,0,0,-1,671,400,0,0
-546,624,0,0,0,0,0,0,0,0,0,-1,678,400,0,0
-539,624,0,0,0,0,0,0,0,0,0,-1,685,400,0,0
-532,624,0,0,0,0,0,0,0,0,0,-1,692,400,0,0
-525,624,0,0,0,0,0,0,0,0,0,-1,699,400,0,0
-518,624,0,0,0,0,0,0,0,0,0,-1,706,400,0,0
-511,624,0,0,0,0,0,0,0,0,0,-1,713,400,0,0
-504,624,0,0,0,0,0,0,0,0,0,-1,720,400,0,0
-497,624,0,0,0,0,0,0,0,0,0,-1,727,400,0,0
-490,624,0,0,0,0,0,0,0,0,0,-1,734,400,0,0
-483,624,0,0,0,0,0,0,0,0,0,-1,741,400,0,0
-476,624,0,0,0,0,0,0,0,0,0,-1,748,400,0,0
-469,624,0,0,0,0,0,0,0,0,0,-1,755,400,0,0
-462,624,0,0,0,0,0,0,0,0,0,-1,762,400,0,0
-455,624,0,0,0,0,0,0,0,0,0,-1,769,400,0,0
-448,624,0,0,0,0,0,0,0,0,0,-1,776,400,0,0
-441,624,0,0,0,0,0,0,0,0,0,-1,783,400,0,0
-434,624,0,0,0,0,0,0,0,0,0,-1,790,400,0,0
-427,624,0,0,0,0,0,0,0,0,0,-1,797,400,0,0
-420,624,0,0,0,0,0,0,0,0,0,-1,804,400,0,0
-413,624,0,0,0,0,0,0,0,0,0,-1,811,400,0,0
-406,624,0,0,0,0,0,0,0,0,0,-1,818,400,0,0
-399,624,0,0,0,0,0,0,0,0,0,-1,825,400,0,0
-392,624,0,0,0,0,0,0,0,0,0,-1,832,400,0,0
-385,624,0,0,0,0,0,0,0,0,0,-1,839,400,0,0
-378,624,0,0,0,0,0,0,0,0,0,-1,846,400,0,0
-371,624,0,0,0,0,0,0,0,0,0,-1,853,400,0,0
-364,624,0,0,0,0,0,0,0,0,0,-1,860,400,0,0
-357,624,0,0,0,0,0,0,0,0,0,-1,867,400,0,0
-350,624,0,0,0,0,0,0,0,0,0,-1,874,400,0,0
-343,624,0,0,0,0,0,0,0,0,0,-1,881,400,0,0
-336,624,0,0,0,0,0,0,0,0,0,-1,888,400,0,0
-329,624,0,0,0,0,0,0,0,0,0,-1,895,400,0,0
-322,624,0,0,0,0,0,0,0,0,0,-1,902,400,0,0
-315,624,0,0,0,0,0,0,0,0,0,-1,909,400,0,0
-308,624,0,0,0,0,0,0,0,0,0,-1,916,400,0,0
-301,624,0,0,0,0,0,0,0,0,0,-1,923,400,0,0
-294,624,-0.912903,-12.9461,0,0,0,0,0,0,0,-1,930,400,-0.912926,12.9461
-287,624,0.12146,-15.0862,0,0,0,0,0,0,0,-1,937,400,0.121451,15.0862
-280,624,1.51831,-12.2324,0,0,0,0,0,0,0,-1,944,400,1.51834,12.2324
-273,624,2.42194,-10.4277,0,0,0,0,0,0,0,-1,951,400,2.42196,10.4277
-266,624,1.09729,-14.7566,0,0,0,0,0,0,0,-1,958,400,1.09731,14.7566
-259,624,5.08258,-17.7336,0,0,0,0,0,0,0,-1,965,400,5.0826,17.7335
-252,624,4.4574,-20.9348,0,0,0,0,0,0,0,-1,972,400,4.45737,20.9348
-245,624,4.5202,-20.9937,0.062602,-0.0129337,0.0240773,0.069624,-0.0199557,0.283772,0.0543042,0.0442379,979,400,4.5202,20.9937
-238,624,5.10052,-20.6752,0.0561533,-0.00934576,0.0217767,0.0627326,-0.015925,0.293405,0.0480185,0.0433772,986,400,5.1005,20.6752
-231,624,5.79834,-20.0962,0,0,0,0,0,0,0,-1,993,400,5.79834,20.0962
-224,624,3.75726,-19.6981,0,0,0,0,0,0,0,-1,1000,400,3.75729,19.6981
-217,624,4.11664,-20.1182,0,0,0,0,0,0,0,-1,1007,400,4.11661,20.1182
-210,624,3.93054,-20.653,0,0,0,0,0,0,0,-1,1014,400,3.93054,20.653
-203,624,3.98083,-20.8399,0.0189814,0.0013972,0.00120745,0.019064,0.00131468,0.0682396,0.0122945,0.0448776,1021,400,3.98079,20.8399
-196,624,3.91345,-21.0458,0.013672,-0.000128789,-0.00150626,0.0138345,-0.000291273,-0.107457,0.00932162,0.0404513,1028,400,3.91341,21.0458
-189,624,3.5885,-21.4026,0.0092706,-0.000388965,-0.00413276,0.0107974,-0.0019158,-0.353892,0.00791455,0.039611,1035,400,3.58855,21.4027
-182,624,3.63782,-21.7686,0.00505783,-0.00201125,-0.00615663,0.00862238,-0.0055758,-0.524818,0.00825999,0.0313709,1042,400,3.63782,21.7686
-175,624,3.69287,-22.1412,0.00290363,-0.00395336,-0.00621444,0.00657259,-0.00762232,-0.533325,0.00820291,0.0196301,1049,400,3.69283,22.1412
-168,624,3.63,-22.4513,0.00292518,-0.00561293,-0.00549143,0.00561175,-0.00829949,-0.454993,0.00808147,0.0130055,1056,400,3.63005,22.4513
-161,624,3.61816,-22.7316,0.00299765,-0.00639826,-0.00453288,0.00482793,-0.00822854,-0.383759,0.00762291,0.01078,1063,400,3.61816,22.7316
-154,624,3.61511,-22.9617,0.00305456,-0.00644454,-0.00355638,0.00423848,-0.00762846,-0.321361,0.00694394,0.0106783,1070,400,3.61517,22.9617
-147,624,3.5957,-23.2087,0.00303577,-0.0061883,-0.00267264,0.0037542,-0.00690673,-0.262602,0.00624415,0.0117512,1077,400,3.59569,23.2087
-140,624,3.56409,-23.464,0.00298742,-0.00545753,-0.00171353,0.00332186,-0.00579197,-0.192753,0.00532591,0.0102609,1084,400,3.56413,23.464
-133,624,3.54688,-23.7062,0.00272867,-0.00422886,-0.00071175,0.00280074,-0.00430092,-0.100907,0.00413053,0.0109219,1091,400,3.54688,23.7062
-126,624,3.54236,-23.9342,0.00245696,-0.00290885,3.18135e-05,0.00245715,-0.00290904,0.00592865,0.00310183,0.0125521,1098,400,3.54239,23.9342
-119,624,3.5238,-24.1008,0.00209337,-0.00128982,0.00050204,0.0021663,-0.00136274,0.144253,0.00205502,0.0150756,1105,400,3.52377,24.1008
-112,624,3.51001,-24.2975,0.00187146,0.000153916,0.00070371,0.00212296,-9.75812e-05,0.343241,0.00144893,0.0180007,1112,400,3.51,24.2975
-105,624,3.54309,-24.527,0.00163949,0.0013106,0.000778544,0.00227077,0.000679324,0.681316,0.00134582,0.0132233,1119,400,3.54308,24.527
-98,624,3.50659,-24.7076,0.00127111,0.0021372,0.000690872,0.00251953,0.000888786,1.06535,0.00147553,0.013027,1126,400,3.5066,24.7076
-91,624,3.49683,-24.9048,0.00100993,0.00271838,0.000392747,0.00280435,0.000923967,1.35532,0.00165018,0.0182777,1133,400,3.49684,24.9048
-84,624,3.53711,-25.0979,0.000922708,0.00267547,0.000178052,0.00269337,0.000904804,1.47058,0.00158268,0.0177015,1140,400,3.53708,25.0979
-77,624,3.52246,-25.2667,0.000774709,0.0024946,6.30271e-05,0.00249691,0.000772402,1.53422,0.00147611,0.0133236,1147,400,3.5225,25.2667
-70,624,3.50391,-25.3911,0.000819024,0.00209164,-0.000190072,0.00211943,0.000791243,-1.42566,0.00123667,0.0139761,1154,400,3.50396,25.3912
-63,624,3.49951,-25.5347,0.0012841,0.00138992,0.000213601,0.00155706,0.00111695,0.906808,0.000926849,0.0159692,1161,400,3.49946,25.5347
-56,624,3.49634,-25.7227,0.00187956,0.000373292,0.00076373,0.00219904,5.38152e-05,0.396191,0.00144842,0.0132193,1168,400,3.49636,25.7228
-49,624,3.51709,-25.8626,0.00233754,-0.000592908,0.00126053,0.00280514,-0.00106051,0.355221,0.00230635,0.0103785,1175,400,3.51715,25.8626
-42,624,3.52405,-25.9736,0.00326035,-0.00132235,0.00216137,0.00411889,-0.00218089,0.378108,0.00369411,0.00989554,1182,400,3.52404,25.9736
-35,624,3.52515,-26.0725,0.00409305,-0.00237815,0.00287851,0.00518815,-0.00347325,0.36353,0.00503323,0.0158477,1189,400,3.52515,26.0725
-28,624,3.51514,-26.2005,0.00485399,-0.00332907,0.00353746,0.00617117,-0.00464626,0.356449,0.0062661,0.0202465,1196,400,3.51519,26.2005
-21,624,3.52405,-26.3003,0.0055596,-0.00417964,0.00411861,0.00706777,-0.0056878,0.351019,0.00737878,0.0145159,1203,400,3.52399,26.3003
-14,624,3.53552,-26.3849,0.00612708,-0.00498417,0.00459866,0.00778343,-0.00664053,0.345717,0.00833639,0.0160064,1210,400,3.5355,26.385
-7,624,3.52124,-26.4702,0.00626261,-0.00566935,0.00445395,0.00774181,-0.00714855,0.320647,0.00859922,0.0202747,1217,400,3.52125,26.4702
0,624,3.56262,-26.5417,0.00599599,-0.00582451,0.00405232,0.00725179,-0.00708032,0.300513,0.00827484,0.0206852,1224,400,3.56268,26.5417
7,624,3.552,-26.6039,0.00564232,-0.00604196,0.00359766,0.00666122,-0.00706085,0.275982,0.00792356,0.0149206,1231,400,3.55202,26.6038
14,624,3.59595,-26.7078,0.00509522,-0.00607633,0.00296108,0.00583154,-0.00681265,0.243722,0.00730745,0.0118262,1238,400,3.59598,26.7078
21,624,3.60657,-26.7355,0.00428814,-0.00558403,0.00206873,0.00470412,-0.00600001,0.198433,0.00619511,0.0122145,1245,400,3.60655,26.7355
28,624,3.60364,-26.7707,0.00344638,-0.00463925,0.00122038,0.00362655,-0.00481943,0.146583,0.00489248,0.0126518,1252,400,3.60367,26.7707
35,624,3.62256,-26.787,0.00271286,-0.00307482,0.000398717,0.0027402,-0.00310216,0.0684596,0.00337525,0.0159966,1259,400,3.6226,26.787
42,624,3.66931,-26.8119,0.00195174,-0.000862295,-0.000502844,0.00203889,-0.00094945,-0.171619,0.00176312,0.0169017,1266,400,3.66927,26.8119
49,624,3.70007,-26.838,0.00137984,0.000920292,-0.0013734,0.00254255,-0.000242419,-0.702514,0.00178135,0.0180679,1273,400,3.70011,26.838
56,624,3.73523,-26.8517,0.00119585,0.00267549,-0.00194965,0.00402096,-0.000149628,-0.966737,0.00273188,0.0182724,1280,400,3.73529,26.8517
63,624,3.76172,-26.846,0.00088348,0.0043065,-0.00259746,0.00570563,-0.000515652,-1.07671,0.00398677,0.0146614,1287,400,3.76169,26.846
70,624,3.73401,-26.8412,0.000841712,0.00596566,-0.0029004,0.00727357,-0.000466201,-1.14716,0.00501168,0.013097,1294,400,3.73398,26.8412
77,624,3.72974,-26.7956,0.000962022,0.00710032,-0.00317635,0.00844806,-0.000385716,-1.16952,0.00576492,0.0133546,1301,400,3.72968,26.7956
84,624,3.7583,-26.7431,0.00117693,0.00730313,-0.00350094,0.00889182,-0.000411765,-1.14479,0.00606979,0.0121667,1308,400,3.75831,26.7431
91,624,3.78064,-26.7143,0.0013278,0.0067494,-0.00367825,0.00860784,-0.000530638,-1.10296,0.00592337,0.0126166,1315,400,3.78059,26.7143
98,624,3.78162,-26.6757,0.00157304,0.00571927,-0.00356906,0.00777362,-0.000481312,-1.04851,0.00535007,0.0123422,1322,400,3.78158,26.6757
105,624,3.79651,-26.6122,0.00177986,0.00386287,-0.00343534,0.00641111,-0.000768377,-0.932581,0.00455187,0.0137469,1329,400,3.79652,26.6122
112,624,3.83777,-26.5567,0.00172187,0.00185072,-0.0033104,0.00509733,-0.00152474,-0.795128,0.00400442,0.0140043,1336,400,3.8378,26.5567
119,624,3.83752,-26.4755,0.00162621,-0.00033662,-0.00305236,0.00385105,-0.00256146,-0.629855,0.00372713,0.0135211,1343,400,3.83757,26.4755
126,624,3.84644,-26.3671,0.00165519,-0.00260207,-0.00262865,0.002909,-0.00385588,-0.44506,0.00391843,0.0176867,1350,400,3.8464,26.3671
133,624,3.89294,-26.2651,0.001584,-0.00452741,-0.00232836,0.00236999,-0.0053134,-0.325559,0.00454322,0.0186004,1357,400,3.89299,26.2651
140,624,3.91968,-26.1444,0.00139441,-0.00595769,-0.00203584,0.0019205,-0.00648378,-0.252883,0.00508505,0.0176403,1364,400,3.91968,26.1444
147,624,3.91675,-26.0175,0.00125289,-0.00674757,-0.00168636,0.00159382,-0.0070885,-0.19948,0.00533687,0.0210873,1371,400,3.91672,26.0176
154,624,3.94446,-25.9095,0.00120969,-0.00604808,-0.00129976,0.00143544,-0.00627383,-0.171967,0.00473413,0.0239289,1378,400,3.94449,25.9096
161,624,3.97217,-25.7424,0.0011866,-0.00510146,-0.00102127,0.00134831,-0.00526317,-0.157038,0.00403404,0.0223629,1385,400,3.97219,25.7424
168,624,3.98486,-25.6009,0.00111727,-0.00409109,-0.000818368,0.00124283,-0.00421665,-0.15224,0.00330423,0.0218184,1392,400,3.98481,25.6009
175,624,3.96252,-25.4779,0.000993617,-0.00301365,-0.000616235,0.00108624,-0.00310627,-0.149188,0.00251246,0.0175661,1399,400,3.9625,25.4779
182,624,3.96313,-25.3292,0.000798414,-0.00181767,-0.000377462,0.000851787,-0.00187104,-0.140469,0.00160832,0.0105341,1406,400,3.96317,25.3292
189,624,3.95203,-25.1592,0.00059539,-0.000620896,-4.75739e-05,0.000597248,-0.000622754,-0.0390346,0.00070442,0.0100594,1413,400,3.95202,25.1592
196,624,3.9447,-24.9911,0.0004211,0.000232883,0.000191464,0.000540334,0.00011365,0.556977,0.00032895,0.0104021,1420,400,3.94467,24.9911
203,624,3.974,-24.8137,0.000200275,0.000878533,0.000366488,0.00103873,4.00826e-05,1.15872,0.000679517,0.0137159,1427,400,3.97404,24.8137
210,624,4.0061,-24.6151,-0.000105393,0.00144583,0.000563989,0.00162921,-0.000288769,1.25644,0.00119409,0.0167716,1434,400,4.00611,24.6151
217,624,3.97559,-24.379,-0.000408467,0.00188695,0.000719502,0.00209383,-0.00061535,1.29081,0.00163995,0.0191019,1441,400,3.97554,24.379
224,624,3.94104,-24.1587,-0.000627125,0.00217268,0.000936553,0.00245707,-0.00091152,1.27598,0.00201194,0.0158051,1448,400,3.94104,24.1587
231,624,3.95203,-23.9749,-0.000818533,0.00248426,0.00120818,0.00287903,-0.0012133,1.25498,0.00242708,0.0113277,1455,400,3.95209,23.9749
238,624,3.91541,-23.7413,-0.000929771,0.00294332,0.00154944,0.00348689,-0.00147334,1.23339,0.00294139,0.0155902,1462,400,3.91538,23.7413
245,624,3.90662,-23.5077,-0.00103723,0.00338556,0.00178544,0.00401636,-0.00166803,1.23118,0.00337394,0.0172667,1469,400,3.90664,23.5076
252,624,3.90295,-23.2703,-0.00110788,0.0039743,0.00204421,0.00469449,-0.00182806,1.23207,0.00388512,0.0129298,1476,400,3.903,23.2703
259,624,3.92041,-23.0227,-0.00120034,0.0045744,0.00233473,0.00540023,-0.00202617,1.23081,0.00443269,0.00909869,1483,400,3.92036,23.0227
266,624,3.92468,-22.7712,-0.00125845,0.00512026,0.00261509,0.00605531,-0.0021935,1.22741,0.00493335,0.0138543,1490,400,3.92474,22.7712
273,624,3.90076,-22.5007,-0.00120426,0.00570282,0.00293904,0.00678413,-0.00228557,1.21825,0.00544687,0.0167819,1497,400,3.90077,22.5007
280,624,3.86987,-22.2252,-0.000798781,0.00614425,0.00328533,0.00745236,-0.00210689,1.19187,0.00579954,0.014688,1504,400,3.86989,22.2252
287,624,3.85339,-21.9801,-0.000446853,0.0064679,0.00371393,0.00808464,-0.0020636,1.16022,0.0061933,0.0110812,1511,400,3.85334,21.9801
294,624,3.82642,-21.7166,-0.000125687,0.00667408,0.00406675,0.00857492,-0.00202653,1.13356,0.00649832,0.00929821,1518,400,3.82637,21.7166
301,624,3.7959,-21.3811,0.000384293,0.00682933,0.00441915,0.00907613,-0.00186251,1.10043,0.00675769,0.0106194,1525,400,3.79586,21.3811
308,624,3.7981,-21.0256,0.00100266,0.00706015,0.0048696,0.00976607,-0.00170325,1.06361,0.00714644,0.0147368,1532,400,3.79812,21.0256
315,624,3.77136,-20.7249,0.00166247,0.00654494,0.00518255,0.00983245,-0.00162504,1.00551,0.00715839,0.0165245,1539,400,3.77142,20.7248
322,624,3.76648,-20.4592,0.00240002,0.00602537,0.00560932,0.0101076,-0.00168224,0.941679,0.0073635,0.0264766,1546,400,3.7665,20.4592
329,624,3.83569,-20.1506,0.00303344,0.005561,0.00599148,0.0104205,-0.00182609,0.889339,0.00762892,0.0417883,1553,400,3.83569,20.1506
336,624,3.91931,-19.8572,0.00361851,0.00515478,0.00625708,0.0106907,-0.00191741,0.846474,0.00784477,0.0431849,1560,400,3.91936,19.8572
343,624,4.09375,-19.3891,0,0,0,0,0,0,0,-1,1567,400,4.09376,19.3891
350,624,1.99194,-7.29742,0,0,0,0,0,0,0,-1,1574,400,1.99198,7.29741
357,624,2.64075,-3.13092,0,0,0,0,0,0,0,-1,1581,400,2.64076,3.13091
364,624,3.16565,-4.9458,0,0,0,0,0,0,0,-1,1588,400,3.16564,4.94579
371,624,3.37561,-5.23529,0,0,0,0,0,0,0,-1,1595,400,3.37563,5.23529
378,624,1.50439,-5.22165,0,0,0,0,0,0,0,-1,1602,400,1.50438,5.22164
385,624,1.2301,-10.5866,0,0,0,0,0,0,0,-1,1609,400,1.2301,10.5866
392,624,4.26819,-5.14236,0,0,0,0,0,0,0,-1,1616,400,4.26818,5.14236
399,624,3.86841,-2.36917,0,0,0,0,0,0,0,-1,1623,400,3.86838,2.36916
406,624,4.35376,-2.6962,0,0,0,0,0,0,0,-1,1630,400,4.35373,2.69619
413,624,0,0,0,0,0,0,0,0,0,-1,1637,400,0,0
420,624,0,0,0,0,0,0,0,0,0,-1,1644,400,0,0
427,624,0,0,0,0,0,0,0,0,0,-1,1651,400,0,0
434,624,0,0,0,0,0,0,0,0,0,-1,1658,400,0,0
441,624,0,0,0,0,0,0,0,0,0,-1,1665,400,0,0
448,624,0,0,0,0,0,0,0,0,0,-1,1672,400,0,0
455,624,0,0,0,0,0,0,0,0,0,-1,1679,400,0,0
462,624,0,0,0,0,0,0,0,0,0,-1,1686,400,0,0
469,624,0,0,0,0,0,0,0,0,0,-1,1693,400,0,0
476,624,0,0,0,0,0,0,0,0,0,-1,1700,400,0,0
483,624,0,0,0,0,0,0,0,0,0,-1,1707,400,0,0
490,624,0,0,0,0,0,0,0,0,0,-1,1714,400,0,0
497,624,0,0,0,0,0,0,0,0,0,-1,1721,400,0,0
504,624,0,0,0,0,0,0,0,0,0,-1,1728,400,0,0
511,624,0,0,0,0,0,0,0,0,0,-1,1735,400,0,0
518,624,0,0,0,0,0,0,0,0,0,-1,1742,400,0,0
525,624,0,0,0,0,0,0,0,0,0,-1,1749,400,0,0
532,624,0,0,0,0,0,0,0,0,0,-1,1756,400,0,0
539,624,0,0,0,0,0,0,0,0,0,-1,1763,400,0,0
546,624,0,0,0,0,0,0,0,0,0,-1,1770,400,0,0
553,624,0,0,0,0,0,0,0,0,0,-1,1777,400,0,0
560,624,0,0,0,0,0,0,0,0,0,-1,1784,400,0,0
567,624,0,0,0,0,0,0,0,0,0,-1,1791,400,0,0
574,624,0,0,0,0,0,0,0,0,0,-1,1798,400,0,0
581,624,0,0,0,0,0,0,0,0,0,-1,1805,400,0,0
588,624,0,0,0,0,0,0,0,0,0,-1,1812,400,0,0
595,624,0,0,0,0,0,0,0,0,0,-1,1819,400,0,0
602,624,0,0,0,0,0,0,0,0,0,-1,1826,400,0,0
609,624,0,0,0,0,0,0,0,0,0,-1,1833,400,0,0
616,624,0,0,0,0,0,0,0,0,0,-1,1840,400,0,0
623,624,0,0,0,0,0,0,0,0,0,-1,1847,400,0,0
630,624,0,0,0,0,0,0,0,0,0,-1,1854,400,0,0
637,624,0,0,0,0,0,0,0,0,0,-1,1861,400,0,0
644,624,0,0,0,0,0,0,0,0,0,-1,1868,400,0,0
651,624,0,0,0,0,0,0,0,0,0,-1,1875,400,0,0
658,624,0,0,0,0,0,0,0,0,0,-1,1882,400,0,0
665,624,0,0,0,0,0,0,0,0,0,-1,1889,400,0,0
672,624,0,0,0,0,0,0,0,0,0,-1,1896,400,0,0
679,624,0,0,0,0,0,0,0,0,0,-1,1903,400,0,0
686,624,0,0,0,0,0,0,0,0,0,-1,1910,400,0,0
693,624,0,0,0,0,0,0,0,0,0,-1,1917,400,0,0
700,624,0,0,0,0,0,0,0,0,0,-1,1924,400,0,0
707,624,0,0,0,0,0,0,0,0,0,-1,1931,400,0,0
714,624,0,0,0,0,0,0,0,0,0,-1,1938,400,0,0
721,624,0,0,0,0,0,0,0,0,0,-1,1945,400,0,0
728,624,0,0,0,0,0,0,0,0,0,-1,1952,400,0,0
735,624,0,0,0,0,0,0,0,0,0,-1,1959,400,0,0
742,624,0,0,0,0,0,0,0,0,0,-1,1966,400,0,0
749,624,0,0,0,0,0,0,0,0,0,-1,1973,400,0,0
756,624,0,0,0,0,0,0,0,0,0,-1,1980,400,0,0
763,624,0,0,0,0,0,0,0,0,0,-1,1987,400,0,0
770,624,0,0,0,0,0,0,0,0,0,-1,1994,400,0,0
777,624,0,0,0,0,0,0,0,0,0,-1,2001,400,0,0
784,624,0,0,0,0,0,0,0,0,0,-1,2008,400,0,0
791,624,0,0,0,0,0,0,0,0,0,-1,2015,400,0,0
798,624,0,0,0,0,0,0,0,0,0,-1,2022,400,0,0
805,624,0,0,0,0,0,0,0,0,0,-1,2029,400,0,0
812,624,0,0,0,0,0,0,0,0,0,-1,2036,400,0,0
-700,617,0,0,0,0,0,0,0,0,0,-1,524,407,0,0
-693,617,0,0,0,0,0,0,0,0,0,-1,531,407,0,0
-686,617,0,0,0,0,0,0,0,0,0,-1,538,407,0,0
-679,617,0,0,0,0,0,0,0,0,0,-1,545,407,0,0
-672,617,0,0,0,0,0,0,0,0,0,-1,552,407,0,0
-665,617,0,0,0,0,0,0,0,0,0,-1,559,407,0,0
-658,617,0,0,0,0,0,0,0,0,0,-1,566,407,0,0
-651,617,0,0,0,0,0,0,0,0,0,-1,573,407,0,0
-644,617,0,0,0,0,0,0,0,0,0,-1,580,407,0,0
-637,617,0,0,0,0,0,0,0,0,0,-1,587,407,0,0
-630,617,0,0,0,0,0,0,0,0,0,-1,594,407,0,0
-623,617,0,0,0,0,0,0,0,0,0,-1,601,407,0,0
-616,617,0,0,0,0,0,0,0,0,0,-1,608,407,0,0
-609,617,0,0,0,0,0,0,0,0,0,-1,615,407,0,0
-602,617,0,0,0,0,0,0,0,0,0,-1,622,407,0,0
-595,617,0,0,0,0,0,0,0,0,0,-1,629,407,0,0
-588,617,0,0,0,0,0,0,0,0,0,-1,636,407,0,0
-581,617,0,0,0,0,0,0,0,0,0,-1,643,407,0,0
-574,617,0,0,0,0,0,0,0,0,0,-1,650,407,0,0
-567,617,0,0,0,0,0,0,0,0,0,-1,657,407,0,0
-560,617,0,0,0,0,0,0,0,0,0,-1,664,407,0,0
-553,617,0,0,0,0,0,0,0,0,0,-1,671,407,0,0
-546,617,0,0,0,0,0,0,0,0,0,-1,678,407,0,0
-539,617,0,0,0,0,0,0,0,0,0,-1,685,407,0,0
-532,617,0,0,0,0,0,0,0,0,0,-1,692,407,0,0
-525,617,0,0,0,0,0,0,0,0,0,-1,699,407,0,0
-518,617,0,0,0,0,0,0,0,0,0,-1,706,407,0,0
-511,617,0,0,0,0,0,0,0,0,0,-1,713,407,0,0
-504,617,0,0,0,0,0,0,0,0,0,-1,720,407,0,0
-497,617,0,0,0,0,0,0,0,0,0,-1,727,407,0,0
-490,617,0,0,0,0,0,0,0,0,0,-1,734,407,0,0
-483,617,0,0,0,0,0,0,0,0,0,-1,741,407,0,0
-476,617,0,0,0,0,0,0,0,0,0,-1,748,407,0,0
-469,617,0,0,0,0,0,0,0,0,0,-1,755,407,0,0
-462,617,0,0,0,0,0,0,0,0,0,-1,762,407,0,0
-455,617,0,0,0,0,0,0,0,0,0,-1,769,407,0,0
-448,617,0,0,0,0,0,0,0,0,0,-1,776,407,0,0
-441,617,0,0,0,0,0,0,0,0,0,-1,783,407,0,0
-434,617,0,0,0,0,0,0,0,0,0,-1,790,407,0,0
-427,617,0,0,0,0,0,0,0,0,0,-1,797,407,0,0
-420,617,0,0,0,0,0,0,0,0,0,-1,804,407,0,0
-413,617,0,0,0,0,0,0,0,0,0,-1,811,407,0,0
-406,617,0,0,0,0,0,0,0,0,0,-1,818,407,0,0
-399,617,0,0,0,0,0,0,0,0,0,-1,825,407,0,0
-392,617,0,0,0,0,0,0,0,0,0,-1,832,407,0,0
-385,617,0,0,0,0,0,0,0,0,0,-1,839,407,0,0
-378,617,0,0,0,0,0,0,0,0,0,-1,846,407,0,0
-371,617,0,0,0,0,0,0,0,0,0,-1,853,407,0,0
-364,617,0,0,0,0,0,0,0,0,0,-1,860,407,0,0
-357,617,0,0,0,0,0,0,0,0,0,-1,867,407,0,0
-350,617,0,0,0,0,0,0,0,0,0,-1,874,407,0,0
-343,617,0,0,0,0,0,0,0,0,0,-1,881,407,0,0
-336,617,0,0,0,0,0,0,0,0,0,-1,888,407,0,0
-329,617,0,0,0,0,0,0,0,0,0,-1,895,407,0,0
-322,617,0,0,0,0,0,0,0,0,0,-1,902,407,0,0
-315,617,0,0,0,0,0,0,0,0,0,-1,909,407,0,0
-308,617,0,0,0,0,0,0,0,0,0,-1,916,407,0,0
-301,617,3.0321,-13.8866,0,0,0,0,0,0,0,-1,923,407,3.03209,13.8866
-294,617,-0.867493,-11.1655,0,0,0,0,0,0,0,-1,930,407,-0.867487,11.1655
-287,617,-0.212524,-10.7744,0,0,0,0,0,0,0,-1,937,407,-0.212541,10.7743
-280,617,2.19739,-11.6377,0,0,0,0,0,0,0,-1,944,407,2.19737,11.6377
-273,617,2.42114,-9.26978,0,0,0,0,0,0,0,-1,951,407,2.42112,9.26979
-266,617,1.62323,-14.1301,0,0,0,0,0,0,0,-1,958,407,1.62322,14.1301
-259,617,3.7829,-18.1931,0,0,0,0,0,0,0,-1,965,407,3.78292,18.1931
-252,617,4.00336,-20.3935,0,0,0,0,0,0,0,-1,972,407,4.00334,20.3935
-245,617,4.20905,-20.5287,0,0,0,0,0,0,0,-1,979,407,4.20905,20.5287
-238,617,3.6123,-18.9927,0,0,0,0,0,0,0,-1,986,407,3.61233,18.9927
-231,617,3.67981,-19.1407,0,0,0,0,0,0,0,-1,993,407,3.67979,19.1406
-224,617,3.50909,-19.8477,0.0275004,0.00152321,0.00955238,0.0306348,-0.0016112,0.31706,0.0209809,0.0468092,1000,407,3.5091,19.8477
-217,617,3.68463,-20.2706,0.0219235,0.00282592,0.00672902,0.0240562,0.000693139,0.306937,0.0158115,0.0407213,1007,407,3.68464,20.2706
-210,617,3.58673,-20.7486,0.016631,0.00366033,0.00360528,0.0175657,0.00272558,0.253686,0.010916,0.0282535,1014,407,3.58672,20.7486
-203,617,3.5387,-21.0923,0.0122933,0.00333086,0.000584475,0.0123312,0.00329291,0.064848,0.00737252,0.0205606,1021,407,3.53869,21.0923
-196,617,3.50659,-21.3475,0.00880817,0.00239032,-0.00154367,0.00916016,0.00203833,-0.224188,0.00555346,0.0166055,1028,407,3.50655,21.3475
-189,617,3.46265,-21.641,0.0059016,0.00216075,-0.00373353,0.00820703,-0.000144681,-0.553182,0.00552021,0.0141626,1035,407,3.4627,21.641
-182,617,3.44153,-21.927,0.00305751,0.000710826,-0.00533305,0.00734476,-0.00357643,-0.677117,0.00642925,0.0154929,1042,407,3.44157,21.927
-175,617,3.41846,-22.174,0.00165459,-0.0010078,-0.00539958,0.00588465,-0.00523786,-0.66454,0.0064252,0.0143486,1049,407,3.41846,22.1739
-168,617,3.38953,-22.464,0.0016663,-0.00248852,-0.00494453,0.0049521,-0.00577432,-0.586523,0.00619896,0.0103012,1056,407,3.38957,22.464
-161,617,3.37427,-22.7525,0.00172725,-0.00337294,-0.00434627,0.0042163,-0.00586199,-0.520095,0.00584451,0.0112359,1063,407,3.37425,22.7525
-154,617,3.36243,-22.9834,0.00180304,-0.00361956,-0.00363902,0.00362976,-0.00544627,-0.465231,0.00527492,0.0120239,1070,407,3.36238,22.9834
-147,617,3.36438,-23.2098,0.00180973,-0.00364548,-0.00298796,0.00312783,-0.00496358,-0.415459,0.00471148,0.0162925,1077,407,3.36435,23.2098
-140,617,3.3407,-23.467,0.00180154,-0.00331806,-0.00225661,0.0026542,-0.00417072,-0.361266,0.00397266,0.0128326,1084,407,3.34065,23.467
-133,617,3.33069,-23.6958,0.00163524,-0.00259754,-0.00144734,0.00208281,-0.00304511,-0.299909,0.00297793,0.0147348,1091,407,3.33069,23.6958
-126,617,3.3208,-23.9056,0.00147931,-0.00181059,-0.000824735,0.00167449,-0.00200576,-0.232373,0.00212766,0.0139371,1098,407,3.32081,23.9056
-119,617,3.30688,-24.1141,0.00130467,-0.000705954,-0.000430691,0.00139304,-0.000794327,-0.20238,0.00127855,0.0136765,1105,407,3.30692,24.1141
-112,617,3.3009,-24.3108,0.00123715,0.000238266,-0.000222001,0.00128427,0.000191149,-0.209134,0.000800111,0.0153731,1112,407,3.30096,24.3107
-105,617,3.29578,-24.5149,0.0012053,0.000986626,-0.000131811,0.00126722,0.000924708,-0.43916,0.000756931,0.0158451,1119,407,3.29573,24.5149
-98,617,3.32141,-24.7068,0.00113439,0.00145085,-0.000184492,0.00153567,0.00104957,-1.13986,0.000906294,0.0129326,1126,407,3.32147,24.7067
-91,617,3.32825,-24.8868,0.00118256,0.00171516,-0.000370248,0.00190493,0.000992793,-1.09716,0.00110014,0.0179632,1133,407,3.32825,24.8868
-84,617,3.35645,-25.0914,0.00133943,0.00160604,-0.000464987,0.00195645,0.000989015,-0.924997,0.00112958,0.0173431,1140,407,3.35643,25.0914
-77,617,3.37207,-25.2622,0.00159463,0.00139905,-0.000510222,0.00201635,0.000977332,-0.690713,0.00116432,0.0136145,1147,407,3.37213,25.2622
-70,617,3.35779,-25.401,0.00195095,0.00109294,-0.000370953,0.00208909,0.000954801,-0.356479,0.00120762,0.0152884,1154,407,3.35783,25.401
-63,617,3.34912,-25.5525,0.00300182,0.000136368,0.000507186,0.00308895,4.92454e-05,0.170117,0.00204308,0.0177639,1161,407,3.34915,25.5525
-56,617,3.35083,-25.7171,0.00426204,-0.00146863,0.00183057,0.00479687,-0.00200346,0.284255,0.00403508,0.0132387,1168,407,3.35079,25.7171
-49,617,3.37439,-25.8587,0.00506321,-0.00279843,0.00272116,0.00591319,-0.00364841,0.302757,0.00557177,0.0102836,1175,407,3.37437,25.8587
-42,617,3.40918,-25.9956,0.00676718,-0.003509,0.00428051,0.00831659,-0.00505841,0.347298,0.00779806,0.0120086,1182,407,3.40921,25.9956
-35,617,3.41394,-26.0918,0.00820517,-0.0048135,0.00542885,0.0101719,-0.00678024,0.347569,0.00985241,0.0168345,1189,407,3.41389,26.0918
-28,617,3.4032,-26.1989,0.00946218,-0.00572813,0.00656348,0.0119052,-0.00817119,0.356331,0.0116578,0.0188093,1196,407,3.40326,26.1989
-21,617,3.45667,-26.2973,0.0105045,-0.00638234,0.00752535,0.0133713,-0.00924919,0.363985,0.013132,0.0140393,1203,407,3.45668,26.2973
-14,617,3.45715,-26.3669,0.0112893,-0.00692878,0.00834939,0.0145369,-0.0101764,0.370957,0.0143421,0.0158587,1210,407,3.45713,26.3669
-7,617,3.43945,-26.4324,0.0113555,-0.00752972,0.00809032,0.0143474,-0.0105216,0.35421,0.0144146,0.0184883,1217,407,3.43942,26.4324
0,617,3.48181,-26.5044,0.0108484,-0.00734429,0.00746851,0.0135216,-0.0100175,0.343721,0.0136404,0.0164151,1224,407,3.48181,26.5044
7,617,3.51855,-26.6109,0.0107045,-0.00719818,0.00625862,0.0126755,-0.00916915,0.305088,0.012666,0.0115655,1231,407,3.51855,26.6109
14,617,3.53052,-26.6891,0.0102628,-0.00757058,0.00508804,0.0116123,-0.00892012,0.259268,0.0118883,0.0133225,1238,407,3.53046,26.6891
21,617,3.55701,-26.7185,0.0093819,-0.00694131,0.00357712,0.0101314,-0.0076908,0.206535,0.0103218,0.0116947,1245,407,3.55696,26.7185
28,617,3.5885,-26.7764,0.00841273,-0.0059025,0.00202,0.00869231,-0.00618208,0.137531,0.0086284,0.0110476,1252,407,3.58848,26.7764
35,617,3.57996,-26.8131,0.0076007,-0.00408769,0.000502162,0.00762224,-0.00410922,0.0428572,0.00687364,0.0134803,1259,407,3.57992,26.8131
42,617,3.65686,-26.7987,0.00672342,-0.00168377,-0.00123912,0.00690225,-0.0018626,-0.143328,0.00533193,0.0192255,1266,407,3.65685,26.7987
49,617,3.70471,-26.8083,0.00596002,0.000118908,-0.00283993,0.00711315,-0.00103421,-0.385701,0.00512176,0.0196182,1273,407,3.70466,26.8083
56,617,3.73987,-26.821,0.00557694,0.00185638,-0.00390813,0.00804495,-0.000611632,-0.563266,0.00557837,0.0145276,1280,407,3.73982,26.821
63,617,3.74536,-26.8195,0.00497035,0.00354262,-0.00505941,0.00936601,-0.000853036,-0.715313,0.0065469,0.0104949,1287,407,3.74533,26.8195
70,617,3.74585,-26.8301,0.00461005,0.00536003,-0.00566181,0.0106593,-0.000689172,-0.818466,0.00734667,0.0148223,1294,407,3.74579,26.8301
77,617,3.78406,-26.7855,0.00435892,0.00657301,-0.00617771,0.0117421,-0.000810157,-0.874057,0.00811161,0.0128956,1301,407,3.78406,26.7855
84,617,3.80396,-26.7336,0.00413582,0.00660369,-0.00660793,0.0120919,-0.00135239,-0.877703,0.00854781,0.00991396,1308,407,3.80394,26.7336
91,617,3.84363,-26.6972,0.00381262,0.00559456,-0.00680713,0.0115688,-0.00216161,-0.850472,0.0085249,0.00934159,1315,407,3.84361,26.6972
98,617,3.88379,-26.6628,0.0036575,0.00410888,-0.00653071,0.0104178,-0.00265141,-0.80267,0.00797726,0.010324,1322,407,3.88384,26.6628
105,617,3.89441,-26.6022,0.00349116,0.00154478,-0.00623211,0.00882561,-0.00378967,-0.707945,0.00747438,0.0122422,1329,407,3.89437,26.6022
112,617,3.92163,-26.5247,0.00259732,-0.00127566,-0.00556967,0.00655754,-0.00523588,-0.618093,0.00682317,0.0159306,1336,407,3.92157,26.5247
119,617,3.92847,-26.4342,0.00201386,-0.00366163,-0.00534111,0.00522428,-0.00687205,-0.541211,0.00700539,0.0180868,1343,407,3.92844,26.4342
126,617,3.9071,-26.3724,0.00193302,-0.00700554,-0.00493433,0.00412122,-0.00919374,-0.417406,0.00787115,0.020692,1350,407,3.90712,26.3724
133,617,3.92969,-26.2633,0.00188524,-0.00977864,-0.00455937,0.00345596,-0.0113494,-0.33177,0.00894364,0.019159,1357,407,3.92967,26.2633
140,617,4.01086,-26.1436,0.00160692,-0.0119966,-0.00425501,0.00282818,-0.0132179,-0.279506,0.00989039,0.0158553,1364,407,4.01084,26.1436
147,617,4.03577,-26.0213,0.00148768,-0.0130634,-0.0036387,0.00234686,-0.0139225,-0.231876,0.0101548,0.0183169,1371,407,4.03573,26.0213
154,617,4.06177,-25.9068,0.00159179,-0.0120223,-0.00305335,0.00224523,-0.0126758,-0.210826,0.00928981,0.021941,1378,407,4.0618,25.9068
161,617,4.11511,-25.7512,0.00169894,-0.0106079,-0.00269708,0.00226407,-0.011173,-0.206544,0.00830683,0.0234872,1385,407,4.11515,25.7512
168,617,4.11829,-25.6301,0.00168864,-0.00912037,-0.00234723,0.00217635,-0.00960808,-0.204865,0.00724069,0.0213131,1392,407,4.11824,25.6301
175,617,4.09985,-25.5175,0.0016232,-0.00743108,-0.0019743,0.00203497,-0.00784285,-0.205619,0.0060226,0.0174538,1399,407,4.09979,25.5175
182,617,4.12341,-25.3362,0.00147512,-0.00551896,-0.00155739,0.00180623,-0.00585007,-0.209489,0.00462132,0.011219,1406,407,4.12342,25.3362
189,617,4.12061,-25.1692,0.00135021,-0.00349888,-0.000969126,0.00153672,-0.00368539,-0.190131,0.00309889,0.0111126,1413,407,4.12055,25.1692
196,617,4.13013,-24.998,0.00129009,-0.00171492,-0.00054458,0.00138573,-0.00181056,-0.173861,0.00185081,0.0148653,1420,407,4.13013,24.998
203,617,4.1366,-24.8217,0.00118635,-0.000123328,-0.000165029,0.00120682,-0.000143802,-0.123437,0.000856516,0.0151617,1427,407,4.13656,24.8217
210,617,4.16626,-24.6131,0.00093064,0.000928339,0.000106706,0.0010362,0.000822778,0.780007,0.000631792,0.0139885,1434,407,4.1662,24.6131
217,617,4.15808,-24.3659,0.000668304,0.00168241,0.000326151,0.00177824,0.000572466,1.285,0.00104815,0.0181477,1441,407,4.15808,24.3659
224,617,4.14111,-24.1764,0.000435372,0.00205582,0.000623676,0.00226806,0.000223131,1.24278,0.00144343,0.0183031,1448,407,4.14115,24.1764
231,617,4.17004,-23.9913,0.000208828,0.00243036,0.000942315,0.00277622,-0.000137032,1.21903,0.00189814,0.0140425,1455,407,4.17002,23.9913
238,617,4.16833,-23.7772,6.24405e-05,0.00282836,0.00126737,0.00332125,-0.00043045,1.19989,0.00237071,0.0143563,1462,407,4.16834,23.7772
245,617,4.16541,-23.5656,-5.20884e-05,0.00318446,0.00147603,0.0037565,-0.000624128,1.20107,0.00273621,0.0129136,1469,407,4.16546,23.5656
252,617,4.16577,-23.3001,-0.000170425,0.00361335,0.00167562,0.0042487,-0.000805776,1.20837,0.00313576,0.0139648,1476,407,4.16579,23.3001
259,617,4.1665,-23.0347,-0.000346027,0.00401243,0.00189096,0.00471846,-0.00105206,1.21345,0.0035487,0.0115606,1483,407,4.16655,23.0347
266,617,4.15918,-22.7681,-0.000495071,0.00435492,0.00208952,0.00513097,-0.00127112,1.21518,0.00391377,0.0142593,1490,407,4.15922,22.7681
273,617,4.13428,-22.4944,-0.000536016,0.00473731,0.00231989,0.00561261,-0.00141132,1.21001,0.00429027,0.0144013,1497,407,4.13427,22.4944
280,617,4.10962,-22.2261,-0.000348819,0.00503003,0.00256789,0.00605908,-0.00137787,1.18965,0.00456847,0.0125915,1504,407,4.10956,22.2261
287,617,4.10083,-21.9728,-0.000164066,0.00522782,0.00289379,0.00648689,-0.00142314,1.16041,0.0048688,0.0119095,1511,407,4.10078,21.9728
294,617,4.09265,-21.695,9.87932e-07,0.00538041,0.0031641,0.00684353,-0.00146214,1.13767,0.00511981,0.0100037,1518,407,4.09265,21.695
301,617,4.06592,-21.4058,0.000288667,0.00550129,0.00344491,0.00721473,-0.00142478,1.10924,0.00534838,0.00776857,1525,407,4.06587,21.4058
308,617,4.04297,-21.1066,0.000668387,0.00567035,0.00380387,0.00772176,-0.00138303,1.07621,0.0056654,0.0076758,1532,407,4.04295,21.1066
315,617,4.021,-20.8137,0.0010958,0.00540132,0.00407216,0.00785474,-0.00135762,1.02855,0.00574278,0.00891794,1539,407,4.02095,20.8137
322,617,3.99194,-20.5024,0.00157306,0.0051604,0.00442136,0.00813807,-0.00140461,0.978096,0.00594912,0.012449,1546,407,3.99194,20.5024
329,617,3.99609,-20.1898,0.00194835,0.00493971,0.00474487,0.00841905,-0.00153099,0.938079,0.0061865,0.013919,1553,407,3.99605,20.1899
336,617,4.04541,-19.8355,0.00224995,0.00476275,0.00499797,0.00865982,-0.00164712,0.908538,0.00639337,0.0253527,1560,407,4.04543,19.8355
343,617,4.11084,-19.4501,0,0,0,0,0,0,0,-1,1567,407,4.11088,19.4501
350,617,2.88098,-10.0063,0,0,0,0,0,0,0,-1,1574,407,2.88098,10.0063
357,617,2.1748,-7.16504,0,0,0,0,0,0,0,-1,1581,407,2.1748,7.16505
364,617,2.30127,-7.60257,0,0,0,0,0,0,0,-1,1588,407,2.30125,7.60258
371,617,2.60266,-6.20667,0,0,0,0,0,0,0,-1,1595,407,2.60261,6.20668
378,617,1.56921,-10.3601,0,0,0,0,0,0,0,-1,1602,407,1.56918,10.3601
385,617,1.74146,-10.3561,0,0,0,0,0,0,0,-1,1609,407,1.7414,10.3561
392,617,1.91357,-10.3521,0,0,0,0,0,0,0,-1,1616,407,1.91362,10.3521
399,617,3.25,-2.14835,0,0,0,0,0,0,0,-1,1623,407,3.25006,2.14836
406,617,3.02429,-3.19577,0,0,0,0,0,0,0,-1,1630,407,3.02431,3.19577
413,617,2.92786,-3.80649,0,0,0,0,0,0,0,-1,1637,407,2.92788,3.8065
420,617,3.42737,-4.47391,0,0,0,0,0,0,0,-1,1644,407,3.42737,4.47391
427,617,0,0,0,0,0,0,0,0,0,-1,1651,407,0,0
434,617,0,0,0,0,0,0,0,0,0,-1,1658,407,0,0
441,617,0,0,0,0,0,0,0,0,0,-1,1665,407,0,0
448,617,0,0,0,0,0,0,0,0,0,-1,1672,407,0,0
455,617,0,0,0,0,0,0,0,0,0,-1,1679,407,0,0
462,617,0,0,0,0,0,0,0,0,0,-1,1686,407,0,0
469,617,0,0,0,0,0,0,0,0,0,-1,1693,407,0,0
476,617,0,0,0,0,0,0,0,0,0,-1,1700,407,0,0
483,617,0,0,0,0,0,0,0,0,0,-1,1707,407,0,0
490,617,0,0,0,0,0,0,0,0,0,-1,1714,407,0,0
497,617,0,0,0,0,0,0,0,0,0,-1,1721,407,0,0
504,617,0,0,0,0,0,0,0,0,0,-1,1728,407,0,0
511,617,0,0,0,0,0,0,0,0,0,-1,1735,407,0,0
518,617,0,0,0,0,0,0,0,0,0,-1,1742,407,0,0
525,617,0,0,0,0,0,0,0,0,0,-1,1749,407,0,0
532,617,0,0,0,0,0,0,0,0,0,-1,1756,407,0,0
539,617,0,0,0,0,0,0,0,0,0,-1,1763,407,0,0
546,617,0,0,0,0,0,0,0,0,0,-1,1770,407,0,0
553,617,0,0,0,0,0,0,0,0,0,-1,1777,407,0,0
560,617,0,0,0,0,0,0,0,0,0,-1,1784,407,0,0
567,617,0,0,0,0,0,0,0,0,0,-1,1791,407,0,0
574,617,0,0,0,0,0,0,0,0,0,-1,1798,407,0,0
581,617,0,0,0,0,0,0,0,0,0,-1,1805,407,0,0
588,617,0,0,0,0,0,0,0,0,0,-1,1812,407,0,0
595,617,0,0,0,0,0,0,0,0,0,-1,1819,407,0,0
602,617,0,0,0,0,0,0,0,0,0,-1,1826,407,0,0
609,617,0,0,0,0,0,0,0,0,0,-1,1833,407,0,0
616,617,0,0,0,0,0,0,0,0,0,-1,1840,407,0,0
623,617,0,0,0,0,0,0,0,0,0,-1,1847,407,0,0
630,617,0,0,0,0,0,0,0,0,0,-1,1854,407,0,0
637,617,0,0,0,0,0,0,0,0,0,-1,1861,407,0,0
644,617,0,0,0,0,0,0,0,0,0,-1,1868,407,0,0
651,617,0,0,0,0,0,0,0,0,0,-1,1875,407,0,0
658,617,0,0,0,0,0,0,0,0,0,-1,1882,407,0,0
665,617,0,0,0,0,0,0,0,0,0,-1,1889,407,0,0
672,617,0,0,0,0,0,0,0,0,0,-1,1896,407,0,0
679,617,0,0,0,0,0,0,0,0,0,-1,1903,407,0,0
686,617,0,0,0,0,0,0,0,0,0,-1,1910,407,0,0
693,617,0,0,0,0,0,0,0,0,0,-1,1917,407,0,0
700,617,0,0,0,0,0,0,0,0,0,-1,1924,407,0,0
707,617,0,0,0,0,0,0,0,0,0,-1,1931,407,0,0
714,617,0,0,0,0,0,0,0,0,0,-1,1938,407,0,0
721,617,0,0,0,0,0,0,0,0,0,-1,1945,407,0,0
728,617,0,0,0,0,0,0,0,0,0,-1,1952,407,0,0
735,617,0,0,0,0,0,0,0,0,0,-1,1959,407,0,0
742,617,0,0,0,0,0,0,0,0,0,-1,1966,407,0,0
749,617,0,0,0,0,0,0,0,0,0,-1,1973,407,0,0
756,617,0,0,0,0,0,0,0,0,0,-1,1980,407,0,0
763,617,0,0,0,0,0,0,0,0,0,-1,1987,407,0,0
770,617,0,0,0,0,0,0,0,0,0,-1,1994,407,0,0
777,617,0,0,0,0,0,0,0,0,0,-1,2001,407,0,0
784,617,0,0,0,0,0,0,0,0,0,-1,2008,407,0,0
791,617,0,0,0,0,0,0,0,0,0,-1,2015,407,0,0
798,617,0,0,0,0,0,0,0,0,0,-1,2022,407,0,0
805,617,0,0,0,0,0,0,0,0,0,-1,2029,407,0,0
812,617,0,0,0,0,0,0,0,0,0,-1,2036,407,0,0
-700,610,0,0,0,0,0,0,0,0,0,-1,524,414,0,0
-693,610,0,0,0,0,0,0,0,0,0,-1,531,414,0,0
-686,610,0,0,0,0,0,0,0,0,0,-1,538,414,0,0
-679,610,0,0,0,0,0,0,0,0,0,-1,545,414,0,0
-672,610,0,0,0,0,0,0,0,0,0,-1,552,414,0,0
-665,610,0,0,0,0,0,0,0,0,0,-1,559,414,0,0
-658,610,0,0,0,0,0,0,0,0,0,-1,566,414,0,0
-651,610,0,0,0,0,0,0,0,0,0,-1,573,414,0,0
-644,610,0,0,0,0,0,0,0,0,0,-1,580,414,0,0
-637,610,0,0,0,0,0,0,0,0,0,-1,587,414,0,0
-630,610,0,0,0,0,0,0,0,0,0,-1,594,414,0,0
-623,610,0,0,0,0,0,0,0,0,0,-1,601,414,0,0
-616,610,0,0,0,0,0,0,0,0,0,-1,608,414,0,0
-609,610,0,0,0,0,0,0,0,0,0,-1,615,414,0,0
-602,610,0,0,0,0,0,0,0,0,0,-1,622,414,0,0
-595,610,0,0,0,0,0,0,0,0,0,-1,629,414,0,0
-588,610,0,0,0,0,0,0,0,0,0,-1,636,414,0,0
-581,610,0,0,0,0,0,0,0,0,0,-1,643,414,0,0
-574,610,0,0,0,0,0,0,0,0,0,-1,650,414,0,0
-567,610,0,0,0,0,0,0,0,0,0,-1,657,414,0,0
-560,610,0,0,0,0,0,0,0,0,0,-1,664,414,0,0
-553,610,0,0,0,0,0,0,0,0,0,-1,671,414,0,0
-546,610,0,0,0,0,0,0,0,0,0,-1,678,414,0,0
-539,610,0,0,0,0,0,0,0,0,0,-1,685,414,0,0
-532,610,0,0,0,0,0,0,0,0,0,-1,692,414,0,0
-525,610,0,0,0,0,0,0,0,0,0,-1,699,414,0,0
-518,610,0,0,0,0,0,0,0,0,0,-1,706,414,0,0
-511,610,0,0,0,0,0,0,0,0,0,-1,713,414,0,0
-504,610,0,0,0,0,0,0,0,0,0,-1,720,414,0,0
-497,610,0,0,0,0,0,0,0,0,0,-1,727,414,0,0
-490,610,0,0,0,0,0,0,0,0,0,-1,734,414,0,0
-483,610,0,0,0,0,0,0,0,0,0,-1,741,414,0,0
-476,610,0,0,0,0,0,0,0,0,0,-1,748,414,0,0
-469,610,0,0,0,0,0,0,0,0,0,-1,755,414,0,0
-462,610,0,0,0,0,0,0,0,0,0,-1,762,414,0,0
-455,610,0,0,0,0,0,0,0,0,0,-1,769,414,0,0
-448,610,0,0,0,0,0,0,0,0,0,-1,776,414,0,0
-441,610,0,0,0,0,0,0,0,0,0,-1,783,414,0,0
-434,610,0,0,0,0,0,0,0,0,0,-1,790,414,0,0
-427,610,0,0,0,0,0,0,0,0,0,-1,797,414,0,0
-420,610,0,0,0,0,0,0,0,0,0,-1,804,414,0,0
-413,610,0,0,0,0,0,0,0,0,0,-1,811,414,0,0
-406,610,0,0,0,0,0,0,0,0,0,-1,818,414,0,0
-399,610,0,0,0,0,0,0,0,0,0,-1,825,414,0,0
-392,610,0,0,0,0,0,0,0,0,0,-1,832,414,0,0
-385,610,0,0,0,0,0,0,0,0,0,-1,839,414,0,0
-378,610,0,0,0,0,0,0,0,0,0,-1,846,414,0,0
-371,610,0,0,0,0,0,0,0,0,0,-1,853,414,0,0
-364,610,0,0,0,0,0,0,0,0,0,-1,860,414,0,0
-357,610,0,0,0,0,0,0,0,0,0,-1,867,414,0,0
-350,610,0,0,0,0,0,0,0,0,0,-1,874,414,0,0
-343,610,0,0,0,0,0,0,0,0,0,-1,881,414,0,0
-336,610,0,0,0,0,0,0,0,0,0,-1,888,414,0,0
-329,610,0,0,0,0,0,0,0,0,0,-1,895,414,0,0
-322,610,0,0,0,0,0,0,0,0,0,-1,902,414,0,0
-315,610,6.6438,-13.537,0,0,0,0,0,0,0,-1,909,414,6.64383,13.537
-308,610,6.20703,-13.9936,0,0,0,0,0,0,0,-1,916,414,6.20702,13.9936
-301,610,5.73285,-14.3911,0,0,0,0,0,0,0,-1,923,414,5.73285,14.3911
-294,610,2.37964,-12.4347,0,0,0,0,0,0,0,-1,930,414,2.37964,12.4347
-287,610,2.08557,-11.9136,0,0,0,0,0,0,0,-1,937,414,2.08555,11.9136
-280,610,2.25854,-11.0924,0,0,0,0,0,0,0,-1,944,414,2.25856,11.0924
-273,610,2.98663,-16.4648,0,0,0,0,0,0,0,-1,951,414,2.98664,16.4648
-266,610,2.89264,-16.8431,0,0,0,0,0,0,0,-1,958,414,2.89266,16.8431
-259,610,4.0686,-18.9385,0,0,0,0,0,0,0,-1,965,414,4.06861,18.9385
-252,610,3.44397,-19.4354,0,0,0,0,0,0,0,-1,972,414,3.44399,19.4354
-245,610,3.71222,-19.8706,0.0269988,-0.00208849,0.0100419,0.0301288,-0.00521849,0.30215,0.0220323,0.0430614,979,414,3.71224,19.8706
-238,610,3.422,-19.2001,0.0239492,-0.000847622,0.00947248,0.0271536,-0.00405205,0.326203,0.0195933,0.0489341,986,414,3.42201,19.2001
-231,610,3.33008,-19.4846,0.0206165,0.00125857,0.00812441,0.0235743,-0.00169925,0.34915,0.0163122,0.037108,993,414,3.33008,19.4846
-224,610,3.28131,-20.0536,0.0173777,0.00293825,0.00614692,0.01964,0.000675933,0.352656,0.0128739,0.0242179,1000,414,3.28132,20.0536
-217,610,3.28821,-20.4508,0.0138919,0.00371608,0.00431118,0.0154728,0.00213517,0.351475,0.00968225,0.0164356,1007,414,3.28819,20.4508
-210,610,3.26868,-20.8026,0.0105741,0.00422814,0.00226099,0.0112972,0.00350498,0.30956,0.00667718,0.0117473,1014,414,3.26871,20.8026
-203,610,3.23083,-21.0844,0.0078216,0.00393691,0.000215204,0.00783349,0.00392502,0.055173,0.00452267,0.0133334,1021,414,3.23088,21.0844
-196,610,3.20715,-21.3754,0.00558748,0.00334857,-0.00131465,0.00619473,0.00274133,-0.43271,0.0035844,0.0140068,1028,414,3.20717,21.3754
-189,610,3.21021,-21.6874,0.00370874,0.00316203,-0.00296984,0.00641777,0.000452988,-0.739506,0.0041358,0.0113551,1035,414,3.21021,21.6875
-182,610,3.19861,-21.9673,0.00183191,0.00193155,-0.00407403,0.00595607,-0.00219261,-0.791512,0.00486902,0.0119829,1042,414,3.19857,21.9674
-175,610,3.16638,-22.214,0.000936178,0.000478997,-0.00407174,0.00478574,-0.00337057,-0.757357,0.00473262,0.0126133,1049,414,3.1664,22.214
-168,610,3.14453,-22.4598,0.000935947,-0.000758412,-0.00371807,0.00390213,-0.00372459,-0.673383,0.00440369,0.0108678,1056,414,3.1445,22.4598
-161,610,3.12195,-22.7696,0.000995515,-0.00159592,-0.00331471,0.00325876,-0.00385917,-0.59908,0.00411441,0.0107163,1063,414,3.12193,22.7696
-154,610,3.10693,-23.0114,0.00108579,-0.00194194,-0.00278093,0.0027382,-0.00359436,-0.536142,0.00366723,0.0140869,1070,414,3.10694,23.0115
-147,610,3.12939,-23.217,0.00113468,-0.00215125,-0.00228529,0.0023063,-0.00332287,-0.473738,0.00326762,0.0156818,1077,414,3.12944,23.217
-140,610,3.12122,-23.4507,0.00119311,-0.00212197,-0.0017297,0.00193126,-0.00286012,-0.40335,0.00278357,0.0129435,1084,414,3.12124,23.4507
-133,610,3.11487,-23.6761,0.00115223,-0.00181618,-0.00109619,0.00151315,-0.0021771,-0.318073,0.00214203,0.0143929,1091,414,3.11493,23.6761
-126,610,3.099,-23.8877,0.00114016,-0.00145787,-0.000606244,0.00127466,-0.00159237,-0.218326,0.00165866,0.0130543,1098,414,3.09906,23.8877
-119,610,3.10095,-24.1182,0.00117679,-0.000799922,-0.000332004,0.00123106,-0.000854194,-0.162037,0.00121046,0.0110417,1105,414,3.10094,24.1182
-112,610,3.10461,-24.3169,0.0012613,-0.000299702,-0.000177776,0.00128129,-0.000319692,-0.111976,0.000978327,0.0185357,1112,414,3.10461,24.3169
-105,610,3.09448,-24.5068,0.00138698,0.00012191,-0.000159334,0.00140674,0.000102151,-0.123381,0.000905699,0.0181797,1119,414,3.09449,24.5068
-98,610,3.13525,-24.7085,0.00154871,0.000299639,-0.000270889,0.00160493,0.000243421,-0.204627,0.000998748,0.0126414,1126,414,3.13527,24.7085
-91,610,3.14124,-24.8923,0.00178821,0.000434106,-0.000479278,0.00194068,0.000281636,-0.308001,0.00121087,0.0136784,1133,414,3.14123,24.8923
-84,610,3.16309,-25.0867,0.00206804,0.000395478,-0.000602006,0.00226218,0.000201333,-0.311966,0.00144569,0.0139462,1140,414,3.16311,25.0867
-77,610,3.17712,-25.267,0.00258096,0.000304461,-0.000676298,0.00276672,0.000118705,-0.268056,0.00180621,0.0110981,1147,414,3.17718,25.267
-70,610,3.19202,-25.4254,0.00319587,0.000102888,-0.000278009,0.00322066,7.80981e-05,-0.0889341,0.00212155,0.0134885,1154,414,3.19206,25.4254
-63,610,3.1991,-25.5719,0.00503676,-0.00123232,0.00121879,0.00526538,-0.00146093,0.185418,0.00408525,0.012898,1161,414,3.19909,25.5719
-56,610,3.20837,-25.7137,0.00719868,-0.00371644,0.00347554,0.00821139,-0.00472914,0.283531,0.00756085,0.0105397,1168,414,3.20839,25.7137
-49,610,3.229,-25.8539,0.00852568,-0.00560236,0.00494838,0.0100864,-0.00716312,0.305533,0.0100066,0.0111212,1175,414,3.22896,25.8539
-42,610,3.24414,-26.0001,0.0114605,-0.00595618,0.00750762,0.01425,-0.00874564,0.355743,0.0134027,0.0156081,1182,414,3.24415,26.0001
-35,610,3.25671,-26.1086,0.0137475,-0.00720807,0.00936664,0.0173238,-0.0107844,0.364732,0.016374,0.0152864,1189,414,3.25677,26.1086
-28,610,3.29004,-26.2033,0.0156638,-0.00763709,0.011212,0.0201826,-0.0121558,0.383112,0.0188613,0.0128642,1196,414,3.29002,26.2033
-21,610,3.35413,-26.2897,0.0171914,-0.00766292,0.012703,0.022535,-0.0130065,0.398187,0.0207643,0.0115455,1203,414,3.35413,26.2897
-14,610,3.36523,-26.3631,0.0181901,-0.00777294,0.0138917,0.0242218,-0.0138046,0.409628,0.0222274,0.0130302,1210,414,3.36519,26.3631
-7,610,3.37817,-26.4311,0.018122,-0.00818183,0.0134102,0.0237532,-0.0138131,0.397561,0.0219405,0.0149235,1217,414,3.37816,26.4311
0,610,3.41223,-26.5074,0.0172831,-0.00744073,0.0124696,0.0224799,-0.0126375,0.394868,0.0205387,0.0112567,1224,414,3.41222,26.5075
7,610,3.43591,-26.5769,0.0170923,-0.00679288,0.0107248,0.021201,-0.0109017,0.365863,0.0188498,0.0112412,1231,414,3.4359,26.5769
14,610,3.48633,-26.6159,0.0167753,-0.00742357,0.00889061,0.0196905,-0.0103388,0.316849,0.0176154,0.0143887,1238,414,3.48633,26.6159
21,610,3.5426,-26.6647,0.0162145,-0.00693418,0.00639962,0.017866,-0.00858559,0.252538,0.015582,0.0136684,1245,414,3.54265,26.6647
28,610,3.55457,-26.731,0.0152374,-0.00590514,0.00397571,0.0159603,-0.00662803,0.179861,0.0134072,0.0135201,1252,414,3.55462,26.7311
35,610,3.63477,-26.753,0.0144721,-0.00402523,0.00154076,0.0145996,-0.00415269,0.0825381,0.0113729,0.0165181,1259,414,3.63471,26.753
42,610,3.66125,-26.7537,0.0141655,-0.00163868,-0.00154764,0.0143156,-0.00178881,-0.0967023,0.0101925,0.0154805,1266,414,3.66125,26.7537
49,610,3.69666,-26.8023,0.0138212,-0.000256295,-0.00443387,0.0151013,-0.00153639,-0.281066,0.0106168,0.0156256,1273,414,3.69669,26.8023
56,610,3.72021,-26.8041,0.0136975,0.00110079,-0.00645604,0.0164185,-0.00162027,-0.398881,0.0115238,0.0148726,1280,414,3.7202,26.8041
63,610,3.71497,-26.756,0.0132641,0.00235279,-0.00854426,0.0179459,-0.00232905,-0.501269,0.012811,0.0200528,1287,414,3.71496,26.756
70,610,3.8053,-26.7158,0.0129489,0.00370725,-0.00987135,0.0192274,-0.00257128,-0.566495,0.0137557,0.0268419,1294,414,3.80536,26.7158
77,610,3.84607,-26.6743,0.0125447,0.00424998,-0.0109352,0.0200926,-0.00329792,-0.604145,0.0146189,0.0305189,1301,414,3.84607,26.6744
84,610,3.84216,-26.7229,0.0118565,0.00356272,-0.0116951,0.0201182,-0.00469892,-0.615021,0.0152221,0.0311707,1308,414,3.84216,26.7229
91,610,3.93506,-26.6827,0.0108267,0.001813,-0.0118437,0.018992,-0.00635234,-0.603595,0.015227,0.0263453,1315,414,3.93502,26.6827
98,610,4.01294,-26.6628,0.00984949,-0.00027993,-0.0112767,0.0171467,-0.00757711,-0.574334,0.0146264,0.0232974,1322,414,4.01288,26.6628
105,610,4.00537,-26.5804,0.00873815,-0.00364972,-0.0106971,0.0149052,-0.00981673,-0.52297,0.0143736,0.0182607,1329,414,4.00534,26.5804
112,610,4.01318,-26.5039,0.00648129,-0.00719358,-0.00952877,0.0113719,-0.0120842,-0.474192,0.0135445,0.0130046,1336,414,4.01313,26.5039
119,610,3.99207,-26.4077,0.00440184,-0.00961639,-0.00873786,0.00859442,-0.013809,-0.447371,0.0130509,0.0185117,1343,414,3.99209,26.4077
126,610,3.98279,-26.3436,0.00294889,-0.01342,-0.00762331,0.00594925,-0.0164204,-0.374957,0.0133785,0.0258784,1350,414,3.98273,26.3436
133,610,4.07166,-26.235,0.00245409,-0.0167821,-0.00691553,0.00468219,-0.0190102,-0.311686,0.0144886,0.0206226,1357,414,4.07169,26.235
140,610,4.15808,-26.1267,0.00175315,-0.0195416,-0.00640468,0.00353101,-0.0213195,-0.27077,0.0155244,0.0158247,1364,414,4.15804,26.1267
147,610,4.14258,-25.9784,0.000700893,-0.0207614,-0.00506559,0.00183641,-0.0218969,-0.220518,0.015247,0.0161588,1371,414,4.14254,25.9784
154,610,4.14294,-25.8607,0.000727763,-0.0190271,-0.00411597,0.00155103,-0.0198504,-0.197411,0.0137797,0.0217773,1378,414,4.14297,25.8607
161,610,4.21973,-25.7407,0.00132811,-0.0170969,-0.00401425,0.00216471,-0.0179335,-0.205465,0.0127387,0.0269342,1385,414,4.21978,25.7407
168,610,4.229,-25.6087,0.00169947,-0.0150761,-0.00380661,0.00252283,-0.0158995,-0.213016,0.0115329,0.0260964,1392,414,4.22904,25.6087
175,610,4.24292,-25.4827,0.00194672,-0.0126309,-0.00339827,0.00269998,-0.0133842,-0.218135,0.00994569,0.0206538,1399,414,4.24291,25.4827
182,610,4.32666,-25.3358,0.00201251,-0.00972072,-0.00286302,0.00267384,-0.010382,-0.227008,0.0079637,0.0145869,1406,414,4.32671,25.3357
189,610,4.32556,-25.1581,0.00204489,-0.00671493,-0.00190278,0.00244035,-0.00711039,-0.204916,0.00572964,0.0133779,1413,414,4.32557,25.1581
196,610,4.31543,-24.9872,0.00215661,-0.00379063,-0.00125971,0.00241243,-0.00404646,-0.200354,0.00376861,0.0133203,1420,414,4.31545,24.9871
203,610,4.30164,-24.8079,0.00216016,-0.00113267,-0.000651059,0.00228422,-0.00125672,-0.188285,0.00207285,0.0144301,1427,414,4.3016,24.8079
210,610,4.323,-24.6276,0.0019228,0.000445517,-0.000315737,0.00198745,0.000380865,-0.201975,0.00121803,0.0111051,1434,414,4.32305,24.6276
217,610,4.36768,-24.3948,0.00167299,0.00155551,-3.44747e-05,0.00168236,0.00154614,-0.265366,0.00107904,0.0168319,1441,414,4.36769,24.3948
224,610,4.37158,-24.2026,0.00140456,0.00203253,0.000346519,0.00218616,0.00125093,1.15349,0.00126656,0.0203698,1448,414,4.37157,24.2026
231,610,4.36035,-23.9975,0.00112645,0.00248191,0.000715798,0.00278993,0.000818443,1.16444,0.00165598,0.0160382,1455,414,4.36039,23.9975
238,610,4.37048,-23.7631,0.000946443,0.00283002,0.00103177,0.0032852,0.000491265,1.15532,0.00204613,0.0114935,1462,414,4.37052,23.7631
245,610,4.40222,-23.536,0.000828562,0.00310538,0.00120841,0.00362716,0.000306783,1.16319,0.00232261,0.0125835,1469,414,4.40219,23.5361
252,610,4.40601,-23.3036,0.000698613,0.00334914,0.00135697,0.00392063,0.000127115,1.17219,0.00257243,0.0142996,1476,414,4.40603,23.3036
259,610,4.40283,-23.0444,0.00047797,0.00353796,0.00149754,0.00414887,-0.000132948,1.18346,0.00281128,0.0125492,1483,414,4.40279,23.0444
266,610,4.39978,-22.7872,0.000272412,0.00368125,0.00161462,0.0043246,-0.000370942,1.19162,0.00301433,0.0124015,1490,414,4.39974,22.7872
273,610,4.37891,-22.5257,0.000163883,0.00387796,0.00175866,0.00457856,-0.000536709,1.1917,0.0032461,0.00981569,1497,414,4.37891,22.5257
280,610,4.3634,-22.2527,0.000177969,0.00400948,0.00191786,0.00480451,-0.000617054,1.17782,0.00342726,0.00939518,1504,414,4.36338,22.2527
287,610,4.3479,-21.958,0.000226566,0.00408046,0.00215113,0.00504151,-0.000734481,1.15064,0.00363068,0.0125256,1511,414,4.34793,21.958
294,610,4.35474,-21.6775,0.000264596,0.0041793,0.0023533,0.00528287,-0.000838976,1.1323,0.00383231,0.0109492,1518,414,4.35478,21.6775
301,610,4.35669,-21.4284,0.000372819,0.00428234,0.00257744,0.00556243,-0.000907277,1.10983,0.00404477,0.00996326,1525,414,4.35668,21.4284
308,610,4.33398,-21.1314,0.000560495,0.00441164,0.00287081,0.00594286,-0.000970723,1.08081,0.00432197,0.0119976,1532,414,4.33398,21.1314
315,610,4.29321,-20.8439,0.000787307,0.00430833,0.00309803,0.00611113,-0.00101549,1.04378,0.00445136,0.0132121,1539,414,4.29318,20.8439
322,610,4.27039,-20.5258,0.00103935,0.00426021,0.00338717,0.00640029,-0.00110074,1.00731,0.00467715,0.0131173,1546,414,4.27042,20.5258
329,610,4.25391,-20.2041,0.00119761,0.00421568,0.0036684,0.0066733,-0.00126001,0.980529,0.00492292,0.011885,1553,414,4.25388,20.2041
336,610,4.25439,-19.8742,0.0012863,0.00420289,0.00390843,0.00691622,-0.00142703,0.963957,0.00515278,0.0102466,1560,414,4.25438,19.8742
343,610,4.24023,-19.5457,0.00138746,0.00413424,0.00414855,0.00713083,-0.00160912,0.945247,0.00537121,0.0196444,1567,414,4.24021,19.5456
350,610,4.25684,-19.2148,0,0,0,0,0,0,0,-1,1574,414,4.25689,19.2149
357,610,4.34558,-18.55,0,0,0,0,0,0,0,-1,1581,414,4.3456,18.55
364,610,4.34302,-15.9496,0,0,0,0,0,0,0,-1,1588,414,4.34299,15.9496
371,610,3.54138,-13.3788,0,0,0,0,0,0,0,-1,1595,414,3.54137,13.3788
378,610,3.5752,-12.1958,0,0,0,0,0,0,0,-1,1602,414,3.57517,12.1958
385,610,2.57104,-10.3878,0,0,0,0,0,0,0,-1,1609,414,2.57109,10.3878
392,610,2.35229,-10.3207,0,0,0,0,0,0,0,-1,1616,414,2.35227,10.3207
399,610,3.03833,-2.82547,0,0,0,0,0,0,0,-1,1623,414,3.03827,2.82546
406,610,2.91687,-2.9166,0,0,0,0,0,0,0,-1,1630,414,2.91688,2.91659
413,610,3.01929,-3.20306,0,0,0,0,0,0,0,-1,1637,414,3.01929,3.20306
420,610,4.78149,-3.64041,0,0,0,0,0,0,0,-1,1644,414,4.78152,3.64042
427,610,5.20764,-4.67545,0,0,0,0,0,0,0,-1,1651,414,5.20759,4.67545
434,610,5.39233,-5.45441,0,0,0,0,0,0,0,-1,1658,414,5.39228,5.4544
441,610,0,0,0,0,0,0,0,0,0,-1,1665,414,0,0
448,610,0,0,0,0,0,0,0,0,0,-1,1672,414,0,0
455,610,0,0,0,0,0,0,0,0,0,-1,1679,414,0,0
462,610,0,0,0,0,0,0,0,0,0,-1,1686,414,0,0
469,610,0,0,0,0,0,0,0,0,0,-1,1693,414,0,0
476,610,0,0,0,0,0,0,0,0,0,-1,1700,414,0,0
483,610,0,0,0,0,0,0,0,0,0,-1,1707,414,0,0
490,610,0,0,0,0,0,0,0,0,0,-1,1714,414,0,0
497,610,0,0,0,0,0,0,0,0,0,-1,1721,414,0,0
504,610,0,0,0,0,0,0,0,0,0,-1,1728,414,0,0
511,610,0,0,0,0,0,0,0,0,0,-1,1735,414,0,0
518,610,0,0,0,0,0,0,0,0,0,-1,1742,414,0,0
525,610,0,0,0,0,0,0,0,0,0,-1,1749,414,0,0
532,610,0,0,0,0,0,0,0,0,0,-1,1756,414,0,0
539,610,0,0,0,0,0,0,0,0,0,-1,1763,414,0,0
546,610,0,0,0,0,0,0,0,0,0,-1,1770,414,0,0
553,610,0,0,0,0,0,0,0,0,0,-1,1777,414,0,0
560,610,0,0,0,0,0,0,0,0,0,-1,1784,414,0,0
567,610,0,0,0,0,0,0,0,0,0,-1,1791,414,0,0
574,610,0,0,0,0,0,0,0,0,0,-1,1798,414,0,0
581,610,0,0,0,0,0,0,0,0,0,-1,1805,414,0,0
588,610,0,0,0,0,0,0,0,0,0,-1,1812,414,0,0
595,610,0,0,0,0,0,0,0,0,0,-1,1819,414,0,0
602,610,0,0,0,0,0,0,0,0,0,-1,1826,414,0,0
609,610,0,0,0,0,0,0,0,0,0,-1,1833,414,0,0
616,610,0,0,0,0,0,0,0,0,0,-1,1840,414,0,0
623,610,0,0,0,0,0,0,0,0,0,-1,1847,414,0,0
630,610,0,0,0,0,0,0,0,0,0,-1,1854,414,0,0
637,610,0,0,0,0,0,0,0,0,0,-1,1861,414,0,0
644,610,0,0,0,0,0,0,0,0,0,-1,1868,414,0,0
651,610,0,0,0,0,0,0,0,0,0,-1,1875,414,0,0
658,610,0,0,0,0,0,0,0,0,0,-1,1882,414,0,0
665,610,0,0,0,0,0,0,0,0,0,-1,1889,414,0,0
672,610,0,0,0,0,0,0,0,0,0,-1,1896,414,0,0
679,610,0,0,0,0,0,0,0,0,0,-1,1903,414,0,0
686,610,0,0,0,0,0,0,0,0,0,-1,1910,414,0,0
693,610,0,0,0,0,0,0,0,0,0,-1,1917,414,0,0
700,610,0,0,0,0,0,0,0,0,0,-1,1924,414,0,0
707,610,0,0,0,0,0,0,0,0,0,-1,1931,414,0,0
714,610,0,0,0,0,0,0,0,0,0,-1,1938,414,0,0
721,610,0,0,0,0,0,0,0,0,0,-1,1945,414,0,0
728,610,0,0,0,0,0,0,0,0,0,-1,1952,414,0,0
735,610,0,0,0,0,0,0,0,0,0,-1,1959,414,0,0
742,610,0,0,0,0,0,0,0,0,0,-1,1966,414,0,0
749,610,0,0,0,0,0,0,0,0,0,-1,1973,414,0,0
756,610,0,0,0,0,0,0,0,0,0,-1,1980,414,0,0
763,610,0,0,0,0,0,0,0,0,0,-1,1987,414,0,0
770,610,0,0,0,0,0,0,0,0,0,-1,1994,414,0,0
777,610,0,0,0,0,0,0,0,0,0,-1,2001,414,0,0
784,610,0,0,0,0,0,0,0,0,0,-1,2008,414,0,0
791,610,0,0,0,0,0,0,0,0,0,-1,2015,414,0,0
798,610,0,0,0,0,0,0,0,0,0,-1,2022,414,0,0
805,610,0,0,0,0,0,0,0,0,0,-1,2029,414,0,0
812,610,0,0,0,0,0,0,0,0,0,-1,2036,414,0,0
-700,603,0,0,0,0,0,0,0,0,0,-1,524,421,0,0
-693,603,0,0,0,0,0,0,0,0,0,-1,531,421,0,0
-686,603,0,0,0,0,0,0,0,0,0,-1,538,421,0,0
-679,603,0,0,0,0,0,0,0,0,0,-1,545,421,0,0
-672,603,0,0,0,0,0,0,0,0,0,-1,552,421,0,0
-665,603,0,0,0,0,0,0,0,0,0,-1,559,421,0,0
-658,603,0,0,0,0,0,0,0,0,0,-1,566,421,0,0
-651,603,0,0,0,0,0,0,0,0,0,-1,573,421,0,0
-644,603,0,0,0,0,0,0,0,0,0,-1,580,421,0,0
-637,603,0,0,0,0,0,0,0,0,0,-1,587,421,0,0
-630,603,0,0,0,0,0,0,0,0,0,-1,594,421,0,0
-623,603,0,0,0,0,0,0,0,0,0,-1,601,421,0,0
-616,603,0,0,0,0,0,0,0,0,0,-1,608,421,0,0
-609,603,0,0,0,0,0,0,0,0,0,-1,615,421,0,0
-602,603,0,0,0,0,0,0,0,0,0,-1,622,421,0,0
-595,603,0,0,0,0,0,0,0,0,0,-1,629,421,0,0
-588,603,0,0,0,0,0,0,0,0,0,-1,636,421,0,0
-581,603,0,0,0,0,0,0,0,0,0,-1,643,421,0,0
-574,603,0,0,0,0,0,0,0,0,0,-1,650,421,0,0
-567,603,0,0,0,0,0,0,0,0,0,-1,657,421,0,0
-560,603,0,0,0,0,0,0,0,0,0,-1,664,421,0,0
-553,603,0,0,0,0,0,0,0,0,0,-1,671,421,0,0
-546,603,0,0,0,0,0,0,0,0,0,-1,678,421,0,0
-539,603,0,0,0,0,0,0,0,0,0,-1,685,421,0,0
-532,603,0,0,0,0,0,0,0,0,0,-1,692,421,0,0
-525,603,0,0,0,0,0,0,0,0,0,-1,699,421,0,0
-518,603,0,0,0,0,0,0,0,0,0,-1,706,421,0,0
-511,603,0,0,0,0,0,0,0,0,0,-1,713,421,0,0
-504,603,0,0,0,0,0,0,0,0,0,-1,720,421,0,0
-497,603,0,0,0,0,0,0,0,0,0,-1,727,421,0,0
-490,603,0,0,0,0,0,0,0,0,0,-1,734,421,0,0
-483,603,0,0,0,0,0,0,0,0,0,-1,741,421,0,0
-476,603,0,0,0,0,0,0,0,0,0,-1,748,421,0,0
-469,603,0,0,0,0,0,0,0,0,0,-1,755,421,0,0
-462,603,0,0,0,0,0,0,0,0,0,-1,762,421,0,0
-455,603,0,0,0,0,0,0,0,0,0,-1,769,421,0,0
-448,603,0,0,0,0,0,0,0,0,0,-1,776,421,0,0
-441,603,0,0,0,0,0,0,0,0,0,-1,783,421,0,0
-434,603,0,0,0,0,0,0,0,0,0,-1,790,421,0,0
-427,603,0,0,0,0,0,0,0,0,0,-1,797,421,0,0
-420,603,0,0,0,0,0,0,0,0,0,-1,804,421,0,0
-413,603,0,0,0,0,0,0,0,0,0,-1,811,421,0,0
-406,603,0,0,0,0,0,0,0,0,0,-1,818,421,0,0
-399,603,0,0,0,0,0,0,0,0,0,-1,825,421,0,0
-392,603,0,0,0,0,0,0,0,0,0,-1,832,421,0,0
-385,603,0,0,0,0,0,0,0,0,0,-1,839,421,0,0
-378,603,0,0,0,0,0,0,0,0,0,-1,846,421,0,0
-371,603,0,0,0,0,0,0,0,0,0,-1,853,421,0,0
-364,603,0,0,0,0,0,0,0,0,0,-1,860,421,0,0
-357,603,0,0,0,0,0,0,0,0,0,-1,867,421,0,0
-350,603,0,0,0,0,0,0,0,0,0,-1,874,421,0,0
-343,603,0,0,0,0,0,0,0,0,0,-1,881,421,0,0
-336,603,0,0,0,0,0,0,0,0,0,-1,888,421,0,0
-329,603,0.191833,-18.5754,0,0,0,0,0,0,0,-1,895,421,0.191843,18.5754
-322,603,0.93042,-16.6873,0,0,0,0,0,0,0,-1,902,421,0.930445,16.6873
-315,603,5.52008,-13.3285,0,0,0,0,0,0,0,-1,909,421,5.52009,13.3285
-308,603,5.18152,-13.3872,0,0,0,0,0,0,0,-1,916,421,5.18154,13.3872
-301,603,4.70502,-13.6409,0,0,0,0,0,0,0,-1,923,421,4.70499,13.6409
-294,603,3.18243,-16.3761,0,0,0,0,0,0,0,-1,930,421,3.18246,16.3761
-287,603,3.21478,-16.935,0,0,0,0,0,0,0,-1,937,421,3.21481,16.935
-280,603,2.90149,-15.9375,0,0,0,0,0,0,0,-1,944,421,2.90147,15.9375
-273,603,2.63165,-17.3368,0,0,0,0,0,0,0,-1,951,421,2.63163,17.3368
-266,603,3.69983,-17.5073,0,0,0,0,0,0,0,-1,958,421,3.69983,17.5073
-259,603,3.48785,-18.421,0,0,0,0,0,0,0,-1,965,421,3.48786,18.421
-252,603,3.11719,-19.1221,0.0180904,0.00013263,0.00486703,0.0193247,-0.00110163,0.248361,0.0132656,0.0432921,972,421,3.11722,19.1221
-245,603,3.13287,-19.2643,0.0164295,0.00071134,0.00555092,0.0181922,-0.00105132,0.307473,0.0124933,0.0328676,979,421,3.13288,19.2643
-238,603,3.04993,-19.476,0.0145277,0.00120688,0.00553178,0.0165253,-0.000790751,0.346546,0.0112897,0.0223299,986,421,3.04992,19.476
-231,603,3.02289,-19.8543,0.0124859,0.00242963,0.00488005,0.0144647,0.000450843,0.385225,0.00949644,0.0135192,993,421,3.0229,19.8543
-224,603,2.99426,-20.1927,0.0105505,0.00339792,0.0037306,0.0121421,0.0018063,0.403258,0.00756486,0.0124042,1000,421,2.99426,20.1927
-217,603,2.97498,-20.4916,0.0085088,0.00372725,0.0026636,0.00969721,0.00253884,0.419662,0.00580659,0.0118273,1007,421,2.975,20.4916
-210,603,2.9845,-20.8078,0.00652335,0.00392429,0.00141018,0.00714147,0.00330617,0.413105,0.0041269,0.0106042,1014,421,2.98447,20.8078
-203,603,2.96295,-21.1212,0.00485669,0.00359253,8.76103e-05,0.00486273,0.00358649,0.0688645,0.0029112,0.0158596,1021,421,2.96295,21.1212
-196,603,2.97473,-21.4361,0.0035126,0.00304542,-0.000900004,0.00420883,0.00234918,-0.658427,0.00243544,0.0175515,1028,421,2.97473,21.4361
-189,603,2.953,-21.6835,0.00240089,0.00275276,-0.0019996,0.00458415,0.000569501,-0.829278,0.00288506,0.01515,1035,421,2.95296,21.6835
-182,603,2.9447,-21.9644,0.00125523,0.0016652,-0.00261211,0.00408035,-0.00115992,-0.824556,0.00317823,0.0109768,1042,421,2.94467,21.9644
-175,603,2.92395,-22.224,0.000717054,0.000418217,-0.00256456,0.00313655,-0.00200128,-0.7563,0.00299037,0.0113784,1049,421,2.92399,22.224
-168,603,2.89807,-22.4613,0.000715042,-0.000619831,-0.00223212,0.00237738,-0.00228217,-0.640122,0.00269038,0.0140738,1056,421,2.89809,22.4613
-161,603,2.87415,-22.7497,0.000768854,-0.00135709,-0.00193157,0.00191062,-0.00249886,-0.533856,0.00255335,0.0135178,1063,421,2.87418,22.7497
-154,603,2.86536,-23.0128,0.0008629,-0.00174233,-0.00153779,0.00157563,-0.00245506,-0.434003,0.00234551,0.0129874,1070,421,2.86533,23.0128
-147,603,2.88098,-23.2221,0.000942081,-0.00202358,-0.00116811,0.00134691,-0.00242841,-0.333616,0.0022093,0.0138611,1077,421,2.88094,23.2221
-140,603,2.91248,-23.4393,0.00103846,-0.00216574,-0.000773434,0.00121538,-0.00234266,-0.224882,0.00208832,0.0117493,1084,421,2.91243,23.4393
-133,603,2.89807,-23.6516,0.00108778,-0.00212682,-0.00031274,0.00111792,-0.00215696,-0.096087,0.00192221,0.0121322,1091,421,2.89811,23.6516
-126,603,2.88025,-23.8735,0.00119008,-0.00201404,4.47701e-05,0.0011907,-0.00201467,0.013969,0.00187089,0.0114265,1098,421,2.88029,23.8735
-119,603,2.90088,-24.0938,0.00141855,-0.00166095,0.000207179,0.00143242,-0.00167483,0.0668753,0.00179579,0.0112692,1105,421,2.90085,24.0938
-112,603,2.9165,-24.3087,0.00165866,-0.00144688,0.000320014,0.00169129,-0.00147951,0.101623,0.00183203,0.0152572,1112,421,2.91645,24.3087
-105,603,2.92871,-24.5381,0.00194656,-0.00118682,0.000281825,0.00197171,-0.00121197,0.0889908,0.00185546,0.0150813,1119,421,2.92876,24.5381
-98,603,2.93579,-24.7055,0.00234236,-0.00114373,0.000143488,0.00234825,-0.00114962,0.0410677,0.00205864,0.012024,1126,421,2.93577,24.7055
-91,603,2.93933,-24.872,0.0027932,-0.000987405,-8.84393e-05,0.00279527,-0.000989472,-0.0233758,0.00226651,0.00921587,1133,421,2.93931,24.872
-84,603,2.97205,-25.0871,0.00319601,-0.000888253,-0.00025392,0.00321174,-0.000903979,-0.0618527,0.00249762,0.0100234,1140,421,2.97211,25.0871
-77,603,3.0072,-25.2953,0.0038046,-0.000738101,-0.000332968,0.00382888,-0.000762377,-0.0727789,0.00284102,0.0149132,1147,421,3.00726,25.2953
-70,603,3.16699,-25.6515,0.00453451,-0.00083584,2.39763e-05,0.00453462,-0.000835947,0.00446445,0.00333682,0.0446722,1154,421,3.16705,25.6515
-63,603,3.03503,-25.5475,0,0,0,0,0,0,0,-1,1161,421,3.03499,25.5475
-56,603,3.05713,-25.6945,0,0,0,0,0,0,0,-1,1168,421,3.0571,25.6945
-49,603,3.1001,-25.8432,0,0,0,0,0,0,0,-1,1175,421,3.10007,25.8432
-42,603,3.10034,-25.9656,0,0,0,0,0,0,0,-1,1182,421,3.10032,25.9656
-35,603,3.07239,-26.0215,0.022392,-0.0108794,0.0158838,0.0287572,-0.0172446,0.381141,0.0268349,0.0415125,1189,421,3.07243,26.0215
-28,603,3.11755,-26.1019,0.0245887,-0.0102812,0.0183815,0.0324886,-0.0181811,0.405909,0.0296404,0.0251344,1196,421,3.1175,26.1019
-21,603,3.17126,-26.2119,0.0261409,-0.00935587,0.0203205,0.0353727,-0.0185876,0.42643,0.0316524,0.0226465,1203,421,3.17122,26.2119
-14,603,3.25024,-26.2863,0.0269871,-0.00878236,0.0216962,0.0372197,-0.019015,0.440699,0.0330294,0.0224425,1210,421,3.25019,26.2863
-7,603,3.31177,-26.357,0.0265411,-0.00865878,0.0209192,0.0362792,-0.018397,0.435679,0.0321252,0.0247033,1217,421,3.31181,26.357
0,603,3.36292,-26.4679,0.0251738,-0.00714397,0.0195602,0.0343864,-0.0163566,0.440168,0.0299066,0.0283609,1224,421,3.36287,26.4679
7,603,3.38171,-26.4468,0.024681,-0.00577151,0.0171417,0.0323824,-0.0134729,0.422253,0.0272145,0.0328219,1231,421,3.3817,26.4468
14,603,3.50806,-26.3799,0.0241636,-0.00615453,0.0146172,0.030063,-0.0120539,0.3836,0.0250463,0.0313155,1238,421,3.50806,26.3799
21,603,3.56104,-26.432,0.023514,-0.00607819,0.0112785,0.0273224,-0.00988663,0.325651,0.022255,0.025471,1245,421,3.56106,26.432
28,603,3.64587,-26.4892,0.0223581,-0.00508558,0.00795408,0.0244968,-0.00722427,0.262667,0.0191978,0.0296652,1252,421,3.64588,26.4892
35,603,3.63379,-26.4461,0.0214974,-0.00326333,0.00456758,0.0223131,-0.00407903,0.176723,0.016405,0.0374277,1259,421,3.63382,26.4461
42,603,3.72241,-26.3584,0,0,0,0,0,0,0,-1,1266,421,3.72246,26.3584
49,603,3.67542,-26.7607,0.0211344,-0.000282936,-0.00361496,0.0217281,-0.000876634,-0.162781,0.0147863,0.0182203,1273,421,3.67546,26.7607
56,603,3.61218,-26.6792,0.0211684,0.000359649,-0.00671383,0.0231466,-0.00161848,-0.286528,0.0159978,0.0361936,1280,421,3.61224,26.6792
63,603,3.56311,-26.5841,0,0,0,0,0,0,0,-1,1287,421,3.56312,26.5841
70,603,3.84509,-26.5688,0,0,0,0,0,0,0,-1,1294,421,3.84512,26.5688
77,603,3.90649,-26.5366,0,0,0,0,0,0,0,-1,1301,421,3.90653,26.5366
84,603,3.86963,-26.7148,0,0,0,0,0,0,0,-1,1308,421,3.86959,26.7149
91,603,4.19812,-26.5892,0,0,0,0,0,0,0,-1,1315,421,4.19813,26.5892
98,603,4.13049,-26.5082,0.0148683,-0.00592588,-0.0135495,0.0215501,-0.0126077,-0.458144,0.019945,0.0497028,1322,421,4.13048,26.5082
105,603,4.42261,-26.3753,0.0130149,-0.0101153,-0.0129136,0.0187851,-0.0158855,-0.420217,0.0200404,0.0435149,1329,421,4.42256,26.3753
112,603,4.2594,-26.3637,0.00972128,-0.014351,-0.0115156,0.0143428,-0.0189726,-0.38165,0.0192965,0.0368488,1336,421,4.25945,26.3637
119,603,4.21863,-26.2595,0.00659302,-0.0170788,-0.0105691,0.0106252,-0.0211109,-0.364459,0.0186532,0.0379388,1343,421,4.21864,26.2595
126,603,4.25488,-26.0912,0.004226,-0.0206811,-0.00921042,0.00726189,-0.023717,-0.3184,0.0187078,0.0441789,1350,421,4.25489,26.0912
133,603,4.27625,-25.9952,0.00327141,-0.0244871,-0.00826414,0.00554548,-0.0267611,-0.268527,0.0199479,0.0370861,1357,421,4.27622,25.9952
140,603,4.37976,-25.9384,0.00213057,-0.0276163,-0.00762543,0.00397139,-0.0294571,-0.236873,0.0210869,0.0255081,1364,421,4.37979,25.9384
147,603,4.29846,-25.87,0.000277061,-0.0293151,-0.00614045,0.00150063,-0.0305387,-0.196687,0.0208773,0.0201597,1371,421,4.29845,25.87
154,603,4.27087,-25.8116,-0.00020877,-0.0265826,-0.00480709,0.000640087,-0.0274315,-0.174782,0.0185047,0.0282429,1378,421,4.27082,25.8116
161,603,4.32996,-25.7348,0.000446936,-0.0244943,-0.00448262,0.00122812,-0.0252755,-0.172536,0.0172743,0.0311088,1385,421,4.32995,25.7348
168,603,4.40759,-25.5913,0.00126365,-0.0222268,-0.00481519,0.00221237,-0.0231755,-0.194536,0.0162381,0.0298099,1392,421,4.40756,25.5913
175,603,4.55566,-25.4302,0.00196145,-0.0191274,-0.00469056,0.00295766,-0.0201236,-0.209277,0.0145025,0.0327244,1399,421,4.55568,25.4302
182,603,4.66418,-25.2997,0.00237983,-0.0149829,-0.00429409,0.00338377,-0.0159869,-0.229672,0.0119467,0.0396575,1406,421,4.66417,25.2997
189,603,4.64795,-25.094,0.00264062,-0.0107339,-0.00306798,0.00331081,-0.011404,-0.215066,0.00891366,0.0355473,1413,421,4.64791,25.094
196,603,4.52429,-24.893,0.00301464,-0.00621805,-0.0020588,0.00345293,-0.00665634,-0.209754,0.00593346,0.0264687,1420,421,4.5243,24.893
203,603,4.50171,-24.761,0.0031271,-0.00215005,-0.0010891,0.00334303,-0.00236599,-0.195729,0.00331215,0.0154815,1427,421,4.50175,24.761
210,603,4.5376,-24.6349,0.00287386,4.92896e-05,-0.00068148,0.00302968,-0.000106534,-0.22479,0.00205622,0.0124898,1434,421,4.53757,24.6349
217,603,4.56445,-24.3898,0.00260805,0.00157358,-0.000345953,0.00271308,0.00146855,-0.294757,0.00156818,0.0141699,1441,421,4.56441,24.3898
224,603,4.57666,-24.1613,0.00228364,0.00217191,0.000119062,0.0023593,0.00209626,0.566039,0.00149293,0.0177978,1448,421,4.57666,24.1613
231,603,4.56055,-23.9572,0.00194228,0.00271143,0.000542865,0.00299214,0.00166158,1.09357,0.00173103,0.0151324,1455,421,4.56051,23.9571
238,603,4.59119,-23.7469,0.00173774,0.00302305,0.000859587,0.00345366,0.00130713,1.10639,0.0020135,0.0109701,1462,421,4.59123,23.7469
245,603,4.62183,-23.5321,0.00162254,0.00321508,0.000997171,0.00369489,0.00114272,1.12232,0.00218437,0.0113327,1469,421,4.62181,23.5321
252,603,4.64038,-23.3026,0.00149723,0.00326439,0.00109562,0.00378832,0.000973294,1.12473,0.00227171,0.010232,1476,421,4.64041,23.3026
259,603,4.63647,-23.0569,0.00125275,0.00323965,0.00116246,0.00377534,0.000717068,1.13898,0.00231519,0.0107618,1483,421,4.63644,23.0569
266,603,4.63342,-22.798,0.00101601,0.00318132,0.00120052,0.00371527,0.00048207,1.15231,0.00233282,0.0123,1490,421,4.63339,22.798
273,603,4.63708,-22.5262,0.000865707,0.00318977,0.00126333,0.00374423,0.000311254,1.15723,0.00239914,0.0110357,1497,421,4.63713,22.5263
280,603,4.63477,-22.2468,0.000748012,0.00310849,0.00132812,0.00370501,0.000151491,1.14865,0.00242109,0.0119602,1504,421,4.63473,22.2468
287,603,4.62866,-21.9544,0.000696914,0.00301866,0.00146606,0.0037278,-1.22277e-05,1.12027,0.00248929,0.0108184,1511,421,4.62867,21.9544
294,603,4.61731,-21.6856,0.000650862,0.00303959,0.00159979,0.00384168,-0.00015123,1.10605,0.00261299,0.00929085,1518,421,4.61734,21.6856
301,603,4.61682,-21.4161,0.000638867,0.00311108,0.00177173,0.00403529,-0.000285349,1.08998,0.00279018,0.0110326,1525,421,4.61684,21.4161
308,603,4.60864,-21.1269,0.000702982,0.00318587,0.00201241,0.00430895,-0.000420099,1.06177,0.00302242,0.0166038,1532,421,4.60861,21.1269
315,603,4.58215,-20.8435,0.000795955,0.00317765,0.00220386,0.00449182,-0.000518219,1.0331,0.00318139,0.0154098,1539,421,4.58212,20.8435
322,603,4.56519,-20.5432,0.000901076,0.00325497,0.00245482,0.00480041,-0.000644359,1.00893,0.00343526,0.0152703,1546,421,4.56518,20.5432
329,603,4.55017,-20.2145,0.0009301,0.00333996,0.00272433,0.00511393,-0.000843869,0.993608,0.0037226,0.0113775,1553,421,4.55018,20.2145
336,603,4.54077,-19.9114,0.000900842,0.00345377,0.00298117,0.00542025,-0.00106564,0.987677,0.00401612,0.00925652,1560,421,4.54073,19.9114
343,603,4.54468,-19.5862,0.000885592,0.00354741,0.00324368,0.00572261,-0.00128961,0.980078,0.00430974,0.0110722,1567,421,4.54468,19.5862
350,603,4.52307,-19.2407,0.000913575,0.00411726,0.00365242,0.00650366,-0.00147283,0.992052,0.00490105,0.0245562,1574,421,4.52304,19.2407
357,603,4.54321,-18.7961,0.000851942,0.00446638,0.00409284,0.00713324,-0.00181492,0.993303,0.00546192,0.0372147,1581,421,4.54322,18.7961
364,603,4.4823,-18.3262,0,0,0,0,0,0,0,-1,1588,421,4.48226,18.3262
371,603,4.52063,-17.9525,0,0,0,0,0,0,0,-1,1595,421,4.52064,17.9526
378,603,4.41711,-17.8623,0,0,0,0,0,0,0,-1,1602,421,4.41711,17.8623
385,603,4.25513,-17.4378,0,0,0,0,0,0,0,-1,1609,421,4.25507,17.4378
392,603,4.29395,-17.0977,0,0,0,0,0,0,0,-1,1616,421,4.29392,17.0977
399,603,2.38013,-5.37076,0,0,0,0,0,0,0,-1,1623,421,2.38016,5.37075
406,603,3.01917,-2.37219,0,0,0,0,0,0,0,-1,1630,421,3.01915,2.37219
413,603,2.38928,-2.41275,0,0,0,0,0,0,0,-1,1637,421,2.38926,2.41274
420,603,2.74866,-2.30066,0,0,0,0,0,0,0,-1,1644,421,2.74867,2.30065
427,603,7.11548,-3.35352,0,0,0,0,0,0,0,-1,1651,421,7.11549,3.35351
434,603,7.32153,-4.50525,0,0,0,0,0,0,0,-1,1658,421,7.32149,4.50525
441,603,3.18213,-0.250946,0,0,0,0,0,0,0,-1,1665,421,3.18212,0.250944
448,603,2.95667,-0.066925,0,0,0,0,0,0,0,-1,1672,421,2.95662,0.0669226
455,603,0,0,0,0,0,0,0,0,0,-1,1679,421,0,0
462,603,0,0,0,0,0,0,0,0,0,-1,1686,421,0,0
469,603,0,0,0,0,0,0,0,0,0,-1,1693,421,0,0
476,603,0,0,0,0,0,0,0,0,0,-1,1700,421,0,0
483,603,0,0,0,0,0,0,0,0,0,-1,1707,421,0,0
490,603,0,0,0,0,0,0,0,0,0,-1,1714,421,0,0
497,603,0,0,0,0,0,0,0,0,0,-1,1721,421,0,0
504,603,0,0,0,0,0,0,0,0,0,-1,1728,421,0,0
511,603,0,0,0,0,0,0,0,0,0,-1,1735,421,0,0
518,603,0,0,0,0,0,0,0,0,0,-1,1742,421,0,0
525,603,0,0,0,0,0,0,0,0,0,-1,1749,421,0,0
532,603,0,0,0,0,0,0,0,0,0,-1,1756,421,0,0
539,603,0,0,0,0,0,0,0,0,0,-1,1763,421,0,0
546,603,0,0,0,0,0,0,0,0,0,-1,1770,421,0,0
553,603,0,0,0,0,0,0,0,0,0,-1,1777,421,0,0
560,603,0,0,0,0,0,0,0,0,0,-1,1784,421,0,0
567,603,0,0,0,0,0,0,0,0,0,-1,1791,421,0,0
574,603,0,0,0,0,0,0,0,0,0,-1,1798,421,0,0
581,603,0,0,0,0,0,0,0,0,0,-1,1805,421,0,0
588,603,0,0,0,0,0,0,0,0,0,-1,1812,421,0,0
595,603,0,0,0,0,0,0,0,0,0,-1,1819,421,0,0
602,603,0,0,0,0,0,0,0,0,0,-1,1826,421,0,0
609,603,0,0,0,0,0,0,0,0,0,-1,1833,421,0,0
616,603,0,0,0,0,0,0,0,0,0,-1,1840,421,0,0
623,603,0,0,0,0,0,0,0,0,0,-1,1847,421,0,0
630,603,0,0,0,0,0,0,0,0,0,-1,1854,421,0,0
637,603,0,0,0,0,0,0,0,0,0,-1,1861,421,0,0
644,603,0,0,0,0,0,0,0,0,0,-1,1868,421,0,0
651,603,0,0,0,0,0,0,0,0,0,-1,1875,421,0,0
658,603,0,0,0,0,0,0,0,0,0,-1,1882,421,0,0
665,603,0,0,0,0,0,0,0,0,0,-1,1889,421,0,0
672,603,0,0,0,0,0,0,0,0,0,-1,1896,421,0,0
679,603,0,0,0,0,0,0,0,0,0,-1,1903,421,0,0
686,603,0,0,0,0,0,0,0,0,0,-1,1910,421,0,0
693,603,0,0,0,0,0,0,0,0,0,-1,1917,421,0,0
700,603,0,0,0,0,0,0,0,0,0,-1,1924,421,0,0
707,603,0,0,0,0,0,0,0,0,0,-1,1931,421,0,0
714,603,0,0,0,0,0,0,0,0,0,-1,1938,421,0,0
721,603,0,0,0,0,0,0,0,0,0,-1,1945,421,0,0
728,603,0,0,0,0,0,0,0,0,0,-1,1952,421,0,0
735,603,0,0,0,0,0,0,0,0,0,-1,1959,421,0,0
742,603,0,0,0,0,0,0,0,0,0,-1,1966,421,0,0
749,603,0,0,0,0,0,0,0,0,0,-1,1973,421,0,0
756,603,0,0,0,0,0,0,0,0,0,-1,1980,421,0,0
763,603,0,0,0,0,0,0,0,0,0,-1,1987,421,0,0
770,603,0,0,0,0,0,0,0,0,0,-1,1994,421,0,0
777,603,0,0,0,0,0,0,0,0,0,-1,2001,421,0,0
784,603,0,0,0,0,0,0,0,0,0,-1,2008,421,0,0
791,603,0,0,0,0,0,0,0,0,0,-1,2015,421,0,0
798,603,0,0,0,0,0,0,0,0,0,-1,2022,421,0,0
805,603,0,0,0,0,0,0,0,0,0,-1,2029,421,0,0
812,603,0,0,0,0,0,0,0,0,0,-1,2036,421,0,0
-700,596,0,0,0,0,0,0,0,0,0,-1,524,428,0,0
-693,596,0,0,0,0,0,0,0,0,0,-1,531,428,0,0
-686,596,0,0,0,0,0,0,0,0,0,-1,538,428,0,0
-679,596,0,0,0,0,0,0,0,0,0,-1,545,428,0,0
-672,596,0,0,0,0,0,0,0,0,0,-1,552,428,0,0
-665,596,0,0,0,0,0,0,0,0,0,-1,559,428,0,0
-658,596,0,0,0,0,0,0,0,0,0,-1,566,428,0,0
-651,596,0,0,0,0,0,0,0,0,0,-1,573,428,0,0
-644,596,0,0,0,0,0,0,0,0,0,-1,580,428,0,0
-637,596,0,0,0,0,0,0,0,0,0,-1,587,428,0,0
-630,596,0,0,0,0,0,0,0,0,0,-1,594,428,0,0
-623,596,0,0,0,0,0,0,0,0,0,-1,601,428,0,0
-616,596,0,0,0,0,0,0,0,0,0,-1,608,428,0,0
-609,596,0,0,0,0,0,0,0,0,0,-1,615,428,0,0
-602,596,0,0,0,0,0,0,0,0,0,-1,622,428,0,0
-595,596,0,0,0,0,0,0,0,0,0,-1,629,428,0,0
-588,596,0,0,0,0,0,0,0,0,0,-1,636,428,0,0
-581,596,0,0,0,0,0,0,0,0,0,-1,643,428,0,0
-574,596,0,0,0,0,0,0,0,0,0,-1,650,428,0,0
-567,596,0,0,0,0,0,0,0,0,0,-1,657,428,0,0
-560,596,0,0,0,0,0,0,0,0,0,-1,664,428,0,0
-553,596,0,0,0,0,0,0,0,0,0,-1,671,428,0,0
-546,596,0,0,0,0,0,0,0,0,0,-1,678,428,0,0
-539,596,0,0,0,0,0,0,0,0,0,-1,685,428,0,0
-532,596,0,0,0,0,0,0,0,0,0,-1,692,428,0,0
-525,596,0,0,0,0,0,0,0,0,0,-1,699,428,0,0
-518,596,0,0,0,0,0,0,0,0,0,-1,706,428,0,0
-511,596,0,0,0,0,0,0,0,0,0,-1,713,428,0,0
-504,596,0,0,0,0,0,0,0,0,0,-1,720,428,0,0
-497,596,0,0,0,0,0,0,0,0,0,-1,727,428,0,0
-490,596,0,0,0,0,0,0,0,0,0,-1,734,428,0,0
-483,596,0,0,0,0,0,0,0,0,0,-1,741,428,0,0
-476,596,0,0,0,0,0,0,0,0,0,-1,748,428,0,0
-469,596,0,0,0,0,0,0,0,0,0,-1,755,428,0,0
-462,596,0,0,0,0,0,0,0,0,0,-1,762,428,0,0
-455,596,0,0,0,0,0,0,0,0,0,-1,769,428,0,0
-448,596,0,0,0,0,0,0,0,0,0,-1,776,428,0,0
-441,596,0,0,0,0,0,0,0,0,0,-1,783,428,0,0
-434,596,0,0,0,0,0,0,0,0,0,-1,790,428,0,0
-427,596,0,0,0,0,0,0,0,0,0,-1,797,428,0,0
-420,596,0,0,0,0,0,0,0,0,0,-1,804,428,0,0
-413,596,0,0,0,0,0,0,0,0,0,-1,811,428,0,0
-406,596,0,0,0,0,0,0,0,0,0,-1,818,428,0,0
-399,596,0,0,0,0,0,0,0,0,0,-1,825,428,0,0
-392,596,0,0,0,0,0,0,0,0,0,-1,832,428,0,0
-385,596,0,0,0,0,0,0,0,0,0,-1,839,428,0,0
-378,596,0,0,0,0,0,0,0,0,0,-1,846,428,0,0
-371,596,0,0,0,0,0,0,0,0,0,-1,853,428,0,0
-364,596,0,0,0,0,0,0,0,0,0,-1,860,428,0,0
-357,596,0,0,0,0,0,0,0,0,0,-1,867,428,0,0
-350,596,0,0,0,0,0,0,0,0,0,-1,874,428,0,0
-343,596,0,0,0,0,0,0,0,0,0,-1,881,428,0,0
-336,596,-0.315308,-18.9491,0,0,0,0,0,0,0,-1,888,428,-0.315329,18.9491
-329,596,0.0933228,-17.6538,0,0,0,0,0,0,0,-1,895,428,0.0933086,17.6539
-322,596,0.433533,-16.0376,0,0,0,0,0,0,0,-1,902,428,0.433533,16.0376
-315,596,3.21301,-18.3514,0,0,0,0,0,0,0,-1,909,428,3.21302,18.3514
-308,596,2.63367,-18.8322,0,0,0,0,0,0,0,-1,916,428,2.63367,18.8322
-301,596,2.76062,-15.1423,0,0,0,0,0,0,0,-1,923,428,2.76063,15.1423
-294,596,2.51257,-16.1409,0,0,0,0,0,0,0,-1,930,428,2.51257,16.1409
-287,596,2.58514,-16.8234,0,0,0,0,0,0,0,-1,937,428,2.58512,16.8234
-280,596,2.68964,-17.5146,0,0,0,0,0,0,0,-1,944,428,2.68961,17.5146
-273,596,2.59778,-17.6126,0.0148588,0.003273,-0.00372673,0.015954,0.00217777,-0.285836,0.00998952,0.0411404,951,428,2.5978,17.6126
-266,596,2.52258,-18.2003,0.0126406,0.00293914,-0.00159732,0.0128968,0.00268291,-0.159055,0.00785778,0.0358876,958,428,2.52257,18.2003
-259,596,2.9071,-17.9034,0,0,0,0,0,0,0,-1,965,428,2.9071,17.9034
-252,596,2.75385,-18.9032,0.01048,0.00205228,0.0017327,0.0108223,0.00170995,0.195059,0.00671781,0.0173013,972,428,2.75386,18.9032
-245,596,2.76013,-19.2672,0.00955577,0.00212775,0.00257186,0.0103593,0.0013242,0.302829,0.00650986,0.0134538,979,428,2.76013,19.2673
-238,596,2.75391,-19.6006,0.00844573,0.00206487,0.00291204,0.00957488,0.000935715,0.369905,0.00609534,0.0118104,986,428,2.7539,19.6006
-231,596,2.70959,-19.9283,0.00727393,0.00257173,0.00274176,0.0085346,0.00131105,0.430978,0.00530698,0.0121861,993,428,2.70958,19.9283
-224,596,2.67548,-20.2299,0.00617404,0.00298877,0.00215867,0.007264,0.0018988,0.467579,0.00435013,0.0125163,1000,428,2.67546,20.2299
-217,596,2.67865,-20.537,0.00502596,0.00296164,0.0016129,0.00590869,0.00207892,0.500763,0.00346095,0.013632,1007,428,2.67864,20.537
-210,596,2.71857,-20.8507,0.00387607,0.00287976,0.000901831,0.00440818,0.00234764,0.533063,0.00254686,0.0118942,1014,428,2.71856,20.8507
-203,596,2.71173,-21.145,0.00287124,0.0025494,0.000102945,0.00290135,0.00251929,0.284557,0.0018203,0.0146725,1021,428,2.71176,21.145
-196,596,2.71753,-21.4272,0.00207819,0.00208183,-0.000492123,0.00257214,0.00158789,-0.787247,0.00149859,0.0149155,1028,428,2.71759,21.4272
-189,596,2.68774,-21.6825,0.00148358,0.00175926,-0.00115984,0.00278942,0.000453423,-0.844542,0.00172841,0.0123554,1035,428,2.6878,21.6825
-182,596,2.677,-21.9412,0.000908378,0.000832593,-0.00143063,0.00230162,-0.00056065,-0.772158,0.00175147,0.0119406,1042,428,2.67696,21.9412
-175,596,2.66516,-22.2107,0.000700142,-0.00017876,-0.00128354,0.00161738,-0.001096,-0.620466,0.00157618,0.0142596,1049,428,2.6651,22.2107
-168,596,2.66211,-22.4846,0.000753518,-0.00103396,-0.000937133,0.00115476,-0.00143521,-0.404547,0.00149824,0.0167048,1056,428,2.6621,22.4846
-161,596,2.6665,-22.7404,0.000866795,-0.00166465,-0.000658675,0.00102792,-0.00182578,-0.239915,0.00166892,0.0156822,1063,428,2.66656,22.7404
-154,596,2.64734,-22.997,0.00102864,-0.00205658,-0.000303557,0.00105823,-0.00208617,-0.0971493,0.00184747,0.0134588,1070,428,2.64729,22.997
-147,596,2.67676,-23.218,0.00119854,-0.00241656,4.54081e-05,0.00119911,-0.00241713,0.0125581,0.00212694,0.0132138,1077,428,2.67681,23.218
-140,596,2.69666,-23.4387,0.00137247,-0.00273117,0.000372904,0.00140608,-0.00276478,0.0898905,0.00245027,0.0130499,1084,428,2.69662,23.4387
-133,596,2.67603,-23.6724,0.00148618,-0.002963,0.000720458,0.00159994,-0.00307676,0.156601,0.0027446,0.0136014,1091,428,2.67602,23.6724
-126,596,2.67126,-23.8874,0.0016437,-0.00308202,0.000985205,0.00184086,-0.00327918,0.197518,0.00299469,0.011311,1098,428,2.67123,23.8874
-119,596,2.69324,-24.1144,0.00197271,-0.00301336,0.00104166,0.00218158,-0.00322223,0.19789,0.00313912,0.0140166,1105,428,2.69322,24.1144
-112,596,2.69666,-24.3288,0.00226687,-0.00303693,0.00108284,0.00247942,-0.00324949,0.193832,0.00331754,0.0143911,1112,428,2.6967,24.3288
-105,596,2.74097,-24.5275,0.00259221,-0.0028361,0.000931166,0.0027475,-0.00299139,0.165247,0.00331435,0.014749,1119,428,2.74096,24.5275
-98,596,2.7533,-24.6896,0.00301726,-0.00270507,0.000735926,0.00311039,-0.00279819,0.125877,0.00341291,0.0105275,1126,428,2.75326,24.6896
-91,596,2.75537,-24.9108,0.00360108,-0.00226501,0.000358872,0.00362295,-0.00228689,0.0608748,0.00344099,0.0172966,1133,428,2.75542,24.9108
-84,596,2.78455,-25.0792,0,0,0,0,0,0,0,-1,1140,428,2.78456,25.0792
-77,596,2.84204,-25.3116,0,0,0,0,0,0,0,-1,1147,428,2.84209,25.3116
-70,596,2.97644,-25.8046,0,0,0,0,0,0,0,-1,1154,428,2.97648,25.8046
-63,596,1.95569,-12.2758,0,0,0,0,0,0,0,-1,1161,428,1.95563,12.2759
-56,596,1.60107,-10.5827,0,0,0,0,0,0,0,-1,1168,428,1.60108,10.5827
-49,596,1.59473,-10.0393,0,0,0,0,0,0,0,-1,1175,428,1.59472,10.0393
-42,596,1.99585,-6.6246,0,0,0,0,0,0,0,-1,1182,428,1.99586,6.62459
-35,596,2.72876,-25.7875,0,0,0,0,0,0,0,-1,1189,428,2.7287,25.7875
-28,596,2.9408,-25.9552,0,0,0,0,0,0,0,-1,1196,428,2.94078,25.9552
-21,596,2.64502,-25.7395,0,0,0,0,0,0,0,-1,1203,428,2.64508,25.7395
-14,596,2.65393,-25.8394,0,0,0,0,0,0,0,-1,1210,428,2.65391,25.8394
-7,596,3.22632,-26.187,0,0,0,0,0,0,0,-1,1217,428,3.22638,26.187
0,596,3.31128,-26.4168,0,0,0,0,0,0,0,-1,1224,428,3.31126,26.4168
7,596,2.83875,-26.3834,0.0332435,-0.0051922,0.0242924,0.0450005,-0.0169493,0.450751,0.0369688,0.0461329,1231,428,2.83869,26.3834
14,596,3.50598,-26.0882,0.0325588,-0.00521248,0.0208687,0.0418187,-0.0144724,0.41762,0.0337538,0.0457936,1238,428,3.50598,26.0882
21,596,3.73816,-26.0532,0.0319118,-0.00515034,0.0163937,0.0381225,-0.011361,0.362138,0.0299296,0.0482345,1245,428,3.73813,26.0532
28,596,3.78809,-26.068,0.0306555,-0.00402318,0.0118458,0.0343156,-0.00768329,0.299673,0.025822,0.0482296,1252,428,3.78805,26.068
35,596,3.8512,-26.1189,0.0297976,-0.00211644,0.00719498,0.0313447,-0.00366354,0.2118,0.0222185,0.0458553,1259,428,3.85119,26.1189
42,596,3.8136,-26.0433,0.0299032,0.000367582,0.00154443,0.0299837,0.000287043,0.052101,0.0198941,0.0450412,1266,428,3.81358,26.0433
49,596,3.73633,-26.2096,0.0299349,0.000164928,-0.00405335,0.0304769,-0.000377091,-0.132932,0.0204448,0.0429642,1273,428,3.73632,26.2096
56,596,3.50183,-26.4923,0.0298708,-4.52397e-05,-0.0082649,0.0320023,-0.00217672,-0.252395,0.0220962,0.0433045,1280,428,3.50188,26.4923
63,596,3.50989,-26.364,0.0290968,-0.000393518,-0.0118682,0.0332798,-0.00457645,-0.338856,0.0238588,0.0459632,1287,428,3.5099,26.364
70,596,3.41309,-26.1912,0.0280151,-0.000627587,-0.0142493,0.0338963,-0.0065088,-0.391438,0.0250506,0.0442086,1294,428,3.41314,26.1912
77,596,3.31616,-26.0215,0,0,0,0,0,0,0,-1,1301,428,3.31612,26.0215
84,596,3.99268,-25.466,0,0,0,0,0,0,0,-1,1308,428,3.99268,25.466
91,596,3.86304,-25.589,0,0,0,0,0,0,0,-1,1315,428,3.86306,25.5889
98,596,4.19519,-26.3785,0,0,0,0,0,0,0,-1,1322,428,4.19516,26.3785
105,596,4.7926,-26.2082,0,0,0,0,0,0,0,-1,1329,428,4.79259,26.2082
112,596,4.54834,-26.0945,0,0,0,0,0,0,0,-1,1336,428,4.54831,26.0945
119,596,4.27234,-26.1609,0,0,0,0,0,0,0,-1,1343,428,4.27238,26.161
126,596,4.59741,-25.6904,0,0,0,0,0,0,0,-1,1350,428,4.59736,25.6904
133,596,4.3053,-25.4498,0,0,0,0,0,0,0,-1,1357,428,4.30528,25.4498
140,596,4.79346,-25.4421,0,0,0,0,0,0,0,-1,1364,428,4.79341,25.4421
147,596,4.30981,-25.3433,-0.00114455,-0.0367424,-0.00513024,-0.000419948,-0.037467,-0.140313,0.0248392,0.0464374,1371,428,4.30977,25.3433
154,596,4.30151,-25.4411,-0.00191343,-0.0337722,-0.00376833,-0.00147377,-0.0342119,-0.116147,0.0223329,0.0464394,1378,428,4.30148,25.4411
161,596,4.28467,-25.3988,-0.00114683,-0.0320603,-0.00383306,-0.000678647,-0.0325284,-0.121541,0.021463,0.0470203,1385,428,4.2847,25.3988
168,596,4.33826,-25.2645,0,0,0,0,0,0,0,-1,1392,428,4.3383,25.2645
175,596,4.82422,-25.157,0,0,0,0,0,0,0,-1,1399,428,4.82426,25.157
182,596,4.89233,-25.1743,0,0,0,0,0,0,0,-1,1406,428,4.89237,25.1743
189,596,4.86035,-25.0077,0,0,0,0,0,0,0,-1,1413,428,4.8603,25.0077
196,596,4.77148,-24.66,0,0,0,0,0,0,0,-1,1420,428,4.77143,24.66
203,596,4.68787,-24.6926,0,0,0,0,0,0,0,-1,1427,428,4.68785,24.6926
210,596,4.72229,-24.6208,0,0,0,0,0,0,0,-1,1434,428,4.72234,24.6208
217,596,4.77661,-24.3542,0,0,0,0,0,0,0,-1,1441,428,4.77665,24.3542
224,596,4.72241,-24.2565,0.002823,0.00222274,-0.000122702,0.00284712,0.00219862,-0.194045,0.00172308,0.0266067,1448,428,4.72237,24.2565
231,596,4.81104,-23.9705,0.00241878,0.00289057,0.000364866,0.00308915,0.00222019,1.07236,0.00183952,0.0147743,1455,428,4.81107,23.9705
238,596,4.83154,-23.7443,0.00223601,0.00321799,0.000701756,0.00358347,0.00187053,1.09065,0.00206958,0.0153317,1462,428,4.8316,23.7443
245,596,4.85486,-23.5161,0.00217748,0.00336746,0.000801365,0.00377057,0.00177437,1.10473,0.00217819,0.0133738,1469,428,4.85486,23.5161
252,596,4.87549,-23.2814,0.00213997,0.00324009,0.000869628,0.00371902,0.00166104,1.06739,0.00215125,0.00984216,1476,428,4.87543,23.2814
259,596,4.88538,-23.052,0.00194929,0.00303004,0.000875135,0.00351819,0.00146114,1.06198,0.00204092,0.00914572,1483,428,4.88532,23.052
266,596,4.87415,-22.7965,0.0017468,0.00280203,0.00084449,0.00327018,0.00127865,1.06462,0.00190293,0.0107205,1490,428,4.87409,22.7965
273,596,4.87073,-22.5299,0.00160436,0.00264941,0.000838886,0.00311519,0.00113857,1.06393,0.00182012,0.0122091,1497,428,4.87072,22.5299
280,596,4.88635,-22.2575,0.00140836,0.00235827,0.000821069,0.00283186,0.000934772,1.04761,0.00166615,0.0124248,1504,428,4.88639,22.2575
287,596,4.89355,-21.972,0.00129095,0.00209784,0.000870091,0.00265347,0.000735322,1.00249,0.00158191,0.0105606,1511,428,4.89353,21.972
294,596,4.87585,-21.6946,0.00116804,0.00203595,0.000930708,0.0026289,0.000575092,1.00354,0.00159583,0.00863751,1518,428,4.87588,21.6946
301,596,4.87671,-21.4245,0.00103614,0.00206028,0.00104549,0.00271237,0.000384054,1.01312,0.0016948,0.0102192,1525,428,4.87668,21.4245
308,596,4.88062,-21.1303,0.000981459,0.00203027,0.00122067,0.00283441,0.000177313,0.98828,0.00183337,0.0154989,1532,428,4.88063,21.1304
315,596,4.85962,-20.8302,0.000956376,0.00205989,0.00136785,0.00298307,3.31935e-05,0.977105,0.00197774,0.014998,1539,428,4.85966,20.8302
322,596,4.86243,-20.5164,0.000935766,0.00220122,0.00157622,0.00326697,-0.000129984,0.976263,0.00222258,0.012998,1546,428,4.86238,20.5164
329,596,4.85669,-20.2169,0.000864597,0.00235885,0.0018273,0.00358586,-0.00036241,0.979463,0.00252008,0.0100022,1553,428,4.85675,20.2169
336,596,4.83875,-19.9313,0.000760012,0.00253931,0.00208489,0.00391643,-0.000617102,0.987059,0.0028391,0.00860318,1560,428,4.83869,19.9313
343,596,4.85242,-19.6069,0.000680143,0.00272027,0.00234646,0.0042588,-0.000858392,0.990437,0.00316438,0.0114526,1567,428,4.85238,19.6069
350,596,4.854,-19.258,0.000655004,0.0032897,0.00273677,0.00500968,-0.00106497,1.00971,0.00374559,0.0123243,1574,428,4.85399,19.258
357,596,4.81909,-18.9083,0.00055411,0.00369706,0.00314203,0.00563869,-0.00138752,1.01728,0.00429697,0.0098014,1581,428,4.81912,18.9083
364,596,4.79529,-18.5344,0.000252957,0.00417955,0.00340478,0.00614653,-0.00171402,1.04693,0.00477274,0.0148528,1588,428,4.79528,18.5344
371,596,4.80432,-18.1974,-3.21257e-05,0.0047791,0.00368188,0.00677158,-0.00202461,1.07477,0.00531928,0.0208667,1595,428,4.80434,18.1973
378,596,4.75427,-17.927,-0.000485225,0.00545892,0.00388523,0.00737849,-0.0024048,1.1119,0.00588667,0.0266883,1602,428,4.75427,17.927
385,596,4.67505,-17.5206,-0.00142225,0.00590884,0.00381479,0.00753375,-0.00304716,1.16812,0.00628929,0.0343128,1609,428,4.67508,17.5206
392,596,4.67908,-17.0723,-0.0020591,0.00651044,0.0036349,0.00784454,-0.0033932,1.21903,0.00665562,0.0432541,1616,428,4.67904,17.0723
399,596,4.72253,-16.2971,0,0,0,0,0,0,0,-1,1623,428,4.72249,16.2971
406,596,3.60034,-10.1525,0,0,0,0,0,0,0,-1,1630,428,3.60028,10.1525
413,596,3.39124,-2.63528,0,0,0,0,0,0,0,-1,1637,428,3.39122,2.6353
420,596,2.6344,-3.06308,0,0,0,0,0,0,0,-1,1644,428,2.63439,3.06308
427,596,2.99329,-1.90512,0,0,0,0,0,0,0,-1,1651,428,2.99327,1.90512
434,596,3.80896,-0.253998,0,0,0,0,0,0,0,-1,1658,428,3.80902,0.254004
441,596,3.86401,-0.131622,0,0,0,0,0,0,0,-1,1665,428,3.86406,0.131613
448,596,1.0769,0.0083313,0,0,0,0,0,0,0,-1,1672,428,1.07684,-0.00832231
455,596,2.00769,-1.43329,0,0,0,0,0,0,0,-1,1679,428,2.00765,1.4333
462,596,0,0,0,0,0,0,0,0,0,-1,1686,428,0,0
469,596,0,0,0,0,0,0,0,0,0,-1,1693,428,0,0
476,596,0,0,0,0,0,0,0,0,0,-1,1700,428,0,0
483,596,0,0,0,0,0,0,0,0,0,-1,1707,428,0,0
490,596,0,0,0,0,0,0,0,0,0,-1,1714,428,0,0
497,596,0,0,0,0,0,0,0,0,0,-1,1721,428,0,0
504,596,0,0,0,0,0,0,0,0,0,-1,1728,428,0,0
511,596,0,0,0,0,0,0,0,0,0,-1,1735,428,0,0
518,596,0,0,0,0,0,0,0,0,0,-1,1742,428,0,0
525,596,0,0,0,0,0,0,0,0,0,-1,1749,428,0,0
532,596,0,0,0,0,0,0,0,0,0,-1,1756,428,0,0
539,596,0,0,0,0,0,0,0,0,0,-1,1763,428,0,0
546,596,0,0,0,0,0,0,0,0,0,-1,1770,428,0,0
553,596,0,0,0,0,0,0,0,0,0,-1,1777,428,0,0
560,596,0,0,0,0,0,0,0,0,0,-1,1784,428,0,0
567,596,0,0,0,0,0,0,0,0,0,-1,1791,428,0,0
574,596,0,0,0,0,0,0,0,0,0,-1,1798,428,0,0
581,596,0,0,0,0,0,0,0,0,0,-1,1805,428,0,0
588,596,0,0,0,0,0,0,0,0,0,-1,1812,428,0,0
595,596,0,0,0,0,0,0,0,0,0,-1,1819,428,0,0
602,596,0,0,0,0,0,0,0,0,0,-1,1826,428,0,0
609,596,0,0,0,0,0,0,0,0,0,-1,1833,428,0,0
616,596,0,0,0,0,0,0,0,0,0,-1,1840,428,0,0
623,596,0,0,0,0,0,0,0,0,0,-1,1847,428,0,0
630,596,0,0,0,0,0,0,0,0,0,-1,1854,428,0,0
637,596,0,0,0,0,0,0,0,0,0,-1,1861,428,0,0
644,596,0,0,0,0,0,0,0,0,0,-1,1868,428,0,0
651,596,0,0,0,0,0,0,0,0,0,-1,1875,428,0,0
658,596,0,0,0,0,0,0,0,0,0,-1,1882,428,0,0
665,596,0,0,0,0,0,0,0,0,0,-1,1889,428,0,0
672,596,0,0,0,0,0,0,0,0,0,-1,1896,428,0,0
679,596,0,0,0,0,0,0,0,0,0,-1,1903,428,0,0
686,596,0,0,0,0,0,0,0,0,0,-1,1910,428,0,0
693,596,0,0,0,0,0,0,0,0,0,-1,1917,428,0,0
700,596,0,0,0,0,0,0,0,0,0,-1,1924,428,0,0
707,596,0,0,0,0,0,0,0,0,0,-1,1931,428,0,0
714,596,0,0,0,0,0,0,0,0,0,-1,1938,428,0,0
721,596,0,0,0,0,0,0,0,0,0,-1,1945,428,0,0
728,596,0,0,0,0,0,0,0,0,0,-1,1952,428,0,0
735,596,0,0,0,0,0,0,0,0,0,-1,1959,428,0,0
742,596,0,0,0,0,0,0,0,0,0,-1,1966,428,0,0
749,596,0,0,0,0,0,0,0,0,0,-1,1973,428,0,0
756,596,0,0,0,0,0,0,0,0,0,-1,1980,428,0,0
763,596,0,0,0,0,0,0,0,0,0,-1,1987,428,0,0
770,596,0,0,0,0,0,0,0,0,0,-1,1994,428,0,0
777,596,0,0,0,0,0,0,0,0,0,-1,2001,428,0,0
784,596,0,0,0,0,0,0,0,0,0,-1,2008,428,0,0
791,596,0,0,0,0,0,0,0,0,0,-1,2015,428,0,0
798,596,0,0,0,0,0,0,0,0,0,-1,2022,428,0,0
805,596,0,0,0,0,0,0,0,0,0,-1,2029,428,0,0
812,596,0,0,0,0,0,0,0,0,0,-1,2036,428,0,0
-700,589,0,0,0,0,0,0,0,0,0,-1,524,435,0,0
-693,589,0,0,0,0,0,0,0,0,0,-1,531,435,0,0
-686,589,0,0,0,0,0,0,0,0,0,-1,538,435,0,0
-679,589,0,0,0,0,0,0,0,0,0,-1,545,435,0,0
-672,589,0,0,0,0,0,0,0,0,0,-1,552,435,0,0
-665,589,0,0,0,0,0,0,0,0,0,-1,559,435,0,0
-658,589,0,0,0,0,0,0,0,0,0,-1,566,435,0,0
-651,589,0,0,0,0,0,0,0,0,0,-1,573,435,0,0
-644,589,0,0,0,0,0,0,0,0,0,-1,580,435,0,0
-637,589,0,0,0,0,0,0,0,0,0,-1,587,435,0,0
-630,589,0,0,0,0,0,0,0,0,0,-1,594,435,0,0
-623,589,0,0,0,0,0,0,0,0,0,-1,601,435,0,0
-616,589,0,0,0,0,0,0,0,0,0,-1,608,435,0,0
-609,589,0,0,0,0,0,0,0,0,0,-1,615,435,0,0
-602,589,0,0,0,0,0,0,0,0,0,-1,622,435,0,0
-595,589,0,0,0,0,0,0,0,0,0,-1,629,435,0,0
-588,589,0,0,0,0,0,0,0,0,0,-1,636,435,0,0
-581,589,0,0,0,0,0,0,0,0,0,-1,643,435,0,0
-574,589,0,0,0,0,0,0,0,0,0,-1,650,435,0,0
-567,589,0,0,0,0,0,0,0,0,0,-1,657,435,0,0
-560,589,0,0,0,0,0,0,0,0,0,-1,664,435,0,0
-553,589,0,0,0,0,0,0,0,0,0,-1,671,435,0,0
-546,589,0,0,0,0,0,0,0,0,0,-1,678,435,0,0
-539,589,0,0,0,0,0,0,0,0,0,-1,685,435,0,0
-532,589,0,0,0,0,0,0,0,0,0,-1,692,435,0,0
-525,589,0,0,0,0,0,0,0,0,0,-1,699,435,0,0
-518,589,0,0,0,0,0,0,0,0,0,-1,706,435,0,0
-511,589,0,0,0,0,0,0,0,0,0,-1,713,435,0,0
-504,589,0,0,0,0,0,0,0,0,0,-1,720,435,0,0
-497,589,0,0,0,0,0,0,0,0,0,-1,727,435,0,0
-490,589,0,0,0,0,0,0,0,0,0,-1,734,435,0,0
-483,589,0,0,0,0,0,0,0,0,0,-1,741,435,0,0
-476,589,0,0,0,0,0,0,0,0,0,-1,748,435,0,0
-469,589,0,0,0,0,0,0,0,0,0,-1,755,435,0,0
-462,589,0,0,0,0,0,0,0,0,0,-1,762,435,0,0
-455,589,0,0,0,0,0,0,0,0,0,-1,769,435,0,0
-448,589,0,0,0,0,0,0,0,0,0,-1,776,435,0,0
-441,589,0,0,0,0,0,0,0,0,0,-1,783,435,0,0
-434,589,0,0,0,0,0,0,0,0,0,-1,790,435,0,0
-427,589,0,0,0,0,0,0,0,0,0,-1,797,435,0,0
-420,589,0,0,0,0,0,0,0,0,0,-1,804,435,0,0
-413,589,0,0,0,0,0,0,0,0,0,-1,811,435,0,0
-406,589,0,0,0,0,0,0,0,0,0,-1,818,435,0,0
-399,589,0,0,0,0,0,0,0,0,0,-1,825,435,0,0
-392,589,0,0,0,0,0,0,0,0,0,-1,832,435,0,0
-385,589,0,0,0,0,0,0,0,0,0,-1,839,435,0,0
-378,589,0,0,0,0,0,0,0,0,0,-1,846,435,0,0
-371,589,0,0,0,0,0,0,0,0,0,-1,853,435,0,0
-364,589,0,0,0,0,0,0,0,0,0,-1,860,435,0,0
-357,589,0,0,0,0,0,0,0,0,0,-1,867,435,0,0
-350,589,-0.799927,-20.664,0,0,0,0,0,0,0,-1,874,435,-0.799952,20.664
-343,589,-0.370911,-19.1543,0,0,0,0,0,0,0,-1,881,435,-0.370922,19.1543
-336,589,0.0728149,-17.6812,0,0,0,0,0,0,0,-1,888,435,0.0727911,17.6812
-329,589,0.491028,-16.2322,0,0,0,0,0,0,0,-1,895,435,0.491054,16.2322
-322,589,3.63721,-16.6719,0,0,0,0,0,0,0,-1,902,435,3.6372,16.6719
-315,589,2.0387,-16.4352,0,0,0,0,0,0,0,-1,909,435,2.03868,16.4352
-308,589,2.47552,-17.6978,0,0,0,0,0,0,0,-1,916,435,2.47555,17.6978
-301,589,2.18347,-15.9575,0,0,0,0,0,0,0,-1,923,435,2.18344,15.9575
-294,589,2.30359,-16.3513,0.0146893,0.00146558,-0.0112621,0.021137,-0.0049821,-0.519962,0.0160125,0.0496683,930,435,2.3036,16.3513
-287,589,2.43201,-16.9425,0.0125975,0.00270073,-0.00831807,0.0173278,-0.00202956,-0.517069,0.0122844,0.0444824,937,435,2.432,16.9425
-280,589,2.49994,-17.5085,0.0109378,0.00320461,-0.00614058,0.0143277,-0.000185333,-0.50442,0.0096142,0.0344571,944,435,2.49994,17.5086
-273,589,2.55499,-17.9366,0.00912161,0.00422068,-0.0047138,0.0119838,0.00135845,-0.545698,0.00757711,0.0198724,951,435,2.555,17.9366
-266,589,2.50977,-18.2619,0.00724781,0.00396828,-0.00306197,0.00908145,0.00213465,-0.539566,0.00548305,0.016074,958,435,2.50976,18.2619
-259,589,2.45435,-18.58,0.00621539,0.00324706,-0.00147919,0.00682663,0.00263581,-0.39186,0.00397529,0.0139634,965,435,2.45434,18.58
-252,589,2.47522,-18.9612,0.00573346,0.00277193,-0.000104232,0.00573713,0.00276826,-0.0351371,0.00331301,0.00930519,972,435,2.4752,18.9612
-245,589,2.49274,-19.2952,0.00529576,0.00244051,0.000745234,0.00547856,0.0022577,0.24055,0.0031793,0.0100853,979,435,2.49272,19.2952
-238,589,2.47314,-19.6266,0.00472316,0.0019594,0.00125368,0.0052071,0.00147545,0.368396,0.00309896,0.0150543,986,435,2.47312,19.6266
-231,589,2.43414,-19.9202,0.00415326,0.00190649,0.0013524,0.004788,0.00127176,0.43882,0.00286381,0.0148758,993,435,2.43413,19.9202
-224,589,2.40961,-20.2188,0.00363964,0.00188316,0.00111142,0.00417793,0.00134488,0.45103,0.00246261,0.0137615,1000,435,2.40958,20.2188
-217,589,2.414,-20.5423,0.003155,0.00162573,0.000889241,0.00356314,0.00121758,0.4303,0.00209126,0.0155483,1007,435,2.41398,20.5423
-210,589,2.43195,-20.8611,0.00261908,0.00137087,0.000551334,0.00282773,0.00116223,0.361784,0.00164119,0.0145737,1014,435,2.43196,20.8611
-203,589,2.43433,-21.1432,0.00214688,0.00103009,9.75547e-05,0.00215534,0.00102164,0.08648,0.00124495,0.0106409,1021,435,2.43432,21.1432
-196,589,2.41748,-21.4108,0.00176818,0.000607882,-0.000199609,0.00180156,0.000574503,-0.165689,0.00106263,0.0131809,1028,435,2.41746,21.4108
-189,589,2.38733,-21.6887,0.00150783,0.000263311,-0.00049527,0.00168087,9.0272e-05,-0.336126,0.00109173,0.0162423,1035,435,2.38738,21.6887
-182,589,2.39404,-21.9314,0.00129692,-0.000500121,-0.000489779,0.00142174,-0.00062494,-0.249535,0.00121113,0.0126586,1042,435,2.39409,21.9314
-175,589,2.4082,-22.195,0.00125198,-0.00133084,-0.000209159,0.00126881,-0.00134767,-0.0802834,0.00151086,0.0162069,1049,435,2.40818,22.195
-168,589,2.42493,-22.4895,0.00126425,-0.00206822,0.000158207,0.00127174,-0.00207571,0.0473327,0.00195115,0.0138221,1056,435,2.42492,22.4895
-161,589,2.42908,-22.7307,0.00130731,-0.00264428,0.000414878,0.0013504,-0.00268737,0.103487,0.00237342,0.013211,1063,435,2.42904,22.7307
-154,589,2.41846,-22.9596,0.00139259,-0.00307012,0.000792823,0.00152926,-0.00320679,0.170699,0.00279095,0.0133243,1070,435,2.41851,22.9596
-147,589,2.44092,-23.2025,0.00153857,-0.00356428,0.00118132,0.00179878,-0.00382449,0.216807,0.00331607,0.0124982,1077,435,2.44092,23.2025
-140,589,2.46484,-23.4309,0.00174162,-0.0040483,0.00139208,0.00205893,-0.00436561,0.224111,0.00378806,0.0130213,1084,435,2.46485,23.4309
-133,589,2.45825,-23.6537,0.00188182,-0.00451414,0.00156913,0.00224604,-0.00487836,0.228076,0.00420582,0.0128469,1091,435,2.45819,23.6537
-126,589,2.46643,-23.8861,0.00207762,-0.00479726,0.0016737,0.00246343,-0.00518308,0.226558,0.00450683,0.0105016,1098,435,2.4664,23.8861
-119,589,2.45007,-24.1113,0.00250206,-0.00497864,0.00155037,0.00281064,-0.00528722,0.196472,0.00474763,0.0164826,1105,435,2.45003,24.1113
-112,589,2.47815,-24.3085,0.00296015,-0.00510538,0.00143648,0.00320835,-0.00535358,0.171095,0.00499469,0.0166255,1112,435,2.47815,24.3085
-105,589,2.51453,-24.505,0.00336427,-0.00474543,0.00117628,0.00353144,-0.0049126,0.141172,0.00489686,0.0176634,1119,435,2.51449,24.505
-98,589,2.55261,-24.6929,0.00379933,-0.00435335,0.000935408,0.00390528,-0.0044593,0.112784,0.00483282,0.0229257,1126,435,2.55255,24.6929
-91,589,2.52209,-24.9101,0,0,0,0,0,0,0,-1,1133,435,2.52205,24.9101
-84,589,2.76538,-22.6013,0,0,0,0,0,0,0,-1,1140,435,2.76539,22.6014
-77,589,2.18152,-14.8023,0,0,0,0,0,0,0,-1,1147,435,2.18155,14.8023
-70,589,1.48267,-9.90961,0,0,0,0,0,0,0,-1,1154,435,1.48264,9.9096
-63,589,0.880127,-5.50586,0,0,0,0,0,0,0,-1,1161,435,0.880186,5.50587
-56,589,-2.78052,-7.28082,0,0,0,0,0,0,0,-1,1168,435,-2.78053,7.28082
-49,589,-0.525757,-2.76703,0,0,0,0,0,0,0,-1,1175,435,-0.525771,2.76702
-42,589,-2.7738,-2.87921,0,0,0,0,0,0,0,-1,1182,435,-2.77383,2.87922
-35,589,-2.55225,-3.27551,0,0,0,0,0,0,0,-1,1189,435,-2.55223,3.27552
-28,589,-0.0632324,-3.42938,0,0,0,0,0,0,0,-1,1196,435,-0.063241,3.42938
-21,589,2.16248,-25.2706,0,0,0,0,0,0,0,-1,1203,435,2.1625,25.2706
-14,589,2.35889,-33.9171,0.0470503,-0.0127924,0.0397373,0.0668717,-0.0326138,0.462696,0.0585621,0.0477749,1210,435,2.35883,33.9171
-7,589,2.9231,-33.334,0.0462231,-0.0105528,0.0386322,0.065776,-0.0301057,0.468539,0.0566198,0.0496551,1217,435,2.92306,33.334
0,589,1.87769,-26.6636,0,0,0,0,0,0,0,-1,1224,435,1.87773,26.6636
7,589,2.26892,-26.6931,0,0,0,0,0,0,0,-1,1231,435,2.26897,26.6932
14,589,3.50549,-25.893,0,0,0,0,0,0,0,-1,1238,435,3.50554,25.893
21,589,3.96448,-25.5928,0,0,0,0,0,0,0,-1,1245,435,3.96445,25.5928
28,589,3.92542,-25.8104,0,0,0,0,0,0,0,-1,1252,435,3.92546,25.8104
35,589,4.03528,-25.9363,0,0,0,0,0,0,0,-1,1259,435,4.03529,25.9363
42,589,3.79126,-25.3855,0.0404978,0.00205583,0.00330588,0.0407801,0.00177361,0.0851633,0.0266152,0.0471757,1266,435,3.79129,25.3855
49,589,2.98828,-26.1045,0.0409599,0.000547732,-0.00401919,0.0413558,0.000151882,-0.0981736,0.02752,0.0451942,1273,435,2.9883,26.1045
56,589,3.38757,-26.3033,0.0409093,-0.00101207,-0.00966923,0.0430321,-0.0031348,-0.216107,0.029788,0.0436749,1280,435,3.38761,26.3033
63,589,3.64136,-26.3776,0.0398712,-0.00262091,-0.0142724,0.04422,-0.0069697,-0.295763,0.0320568,0.0453685,1287,435,3.64137,26.3776
70,589,3.86011,-26.5491,0.0381475,-0.00399973,-0.0173806,0.0443903,-0.0102425,-0.344828,0.0335332,0.0448447,1294,435,3.86005,26.5491
77,589,4.02588,-26.269,0.0355143,-0.00644812,-0.0194382,0.0431348,-0.0140686,-0.373621,0.0344182,0.044634,1301,435,4.02589,26.269
84,589,4.33777,-26.2749,0.0319477,-0.00965302,-0.0203751,0.0402644,-0.0179696,-0.387535,0.034433,0.0451716,1308,435,4.33781,26.2749
91,589,4.60046,-26.4623,0.0277895,-0.0134987,-0.0198592,0.0357909,-0.0215002,-0.383011,0.0334183,0.0447482,1315,435,4.60046,26.4623
98,589,5.12708,-26.8707,0,0,0,0,0,0,0,-1,1322,435,5.12707,26.8707
105,589,4.01221,-25.2828,0,0,0,0,0,0,0,-1,1329,435,4.01216,25.2828
112,589,4.56885,-26.0771,0,0,0,0,0,0,0,-1,1336,435,4.56884,26.0771
119,589,3.70154,-25.1146,0,0,0,0,0,0,0,-1,1343,435,3.70155,25.1146
126,589,4.46179,-24.9693,0,0,0,0,0,0,0,-1,1350,435,4.46179,24.9693
133,589,4.63062,-24.876,0,0,0,0,0,0,0,-1,1357,435,4.63067,24.876
140,589,4.70972,-25.1253,0,0,0,0,0,0,0,-1,1364,435,4.70966,25.1253
147,589,4.47998,-24.8776,0,0,0,0,0,0,0,-1,1371,435,4.47995,24.8776
154,589,4.25024,-24.6299,0,0,0,0,0,0,0,-1,1378,435,4.25024,24.6299
161,589,4.24646,-25.0998,0,0,0,0,0,0,0,-1,1385,435,4.2465,25.0998
168,589,5.76355,-23.5995,0,0,0,0,0,0,0,-1,1392,435,5.76352,23.5995
175,589,8.66992,-7.65527,0,0,0,0,0,0,0,-1,1399,435,8.66994,7.65528
182,589,3.8136,-2.45389,0,0,0,0,0,0,0,-1,1406,435,3.81363,2.4539
189,589,3.69983,-3.68149,0,0,0,0,0,0,0,-1,1413,435,3.69987,3.68147
196,589,3.31055,-5.31677,0,0,0,0,0,0,0,-1,1420,435,3.31059,5.31678
203,589,2.72559,-8.84338,0,0,0,0,0,0,0,-1,1427,435,2.72558,8.84338
210,589,3.62378,-14.4032,0,0,0,0,0,0,0,-1,1434,435,3.62378,14.4032
217,589,4.65601,-22.3745,0,0,0,0,0,0,0,-1,1441,435,4.65607,22.3745
224,589,5.07727,-24.493,0,0,0,0,0,0,0,-1,1448,435,5.07722,24.493
231,589,5.0686,-24.1245,0.00292866,0.00406875,0.000485836,0.00424769,0.00274971,1.21789,0.00248765,0.0381344,1455,435,5.06858,24.1245
238,589,5.06689,-23.7876,0.00276258,0.00432012,0.000801178,0.00465865,0.00242405,1.17101,0.00269042,0.027419,1462,435,5.06692,23.7876
245,589,5.08521,-23.4606,0.00273534,0.00427245,0.000785126,0.00460258,0.00240522,1.17276,0.0026582,0.0217004,1469,435,5.08523,23.4606
252,589,5.13,-23.251,0.00279475,0.00374397,0.000780823,0.00418311,0.00235561,1.05848,0.00242153,0.0127966,1476,435,5.13003,23.251
259,589,5.13745,-23.0488,0.00266157,0.00317217,0.000678417,0.00364173,0.002192,0.965362,0.00211706,0.0098672,1483,435,5.13743,23.0488
266,589,5.12878,-22.7787,0.00249477,0.00264338,0.000546,0.00312011,0.00201804,0.853026,0.00182709,0.0102828,1490,435,5.1288,22.7787
273,589,5.13428,-22.5313,0.00236327,0.00223908,0.000460151,0.0027655,0.00183685,0.71833,0.00162511,0.0120541,1497,435,5.13425,22.5312
280,589,5.14868,-22.2651,0.00210717,0.00164029,0.000354631,0.0022983,0.00144917,0.494318,0.00134191,0.0122094,1504,435,5.1487,22.2651
287,589,5.16748,-21.9998,0.00194268,0.00115395,0.000316527,0.00205399,0.00104263,0.338172,0.00118592,0.0102656,1511,435,5.16744,21.9999
294,589,5.16821,-21.7118,0.00176483,0.000983368,0.000308016,0.00187164,0.000876561,0.333784,0.00108131,0.00973021,1518,435,5.16823,21.7118
301,589,5.16504,-21.4213,0.00155451,0.000963077,0.000371943,0.00173396,0.000783619,0.449539,0.00100265,0.0107962,1525,435,5.16509,21.4213
308,589,5.16345,-21.1349,0.00139351,0.000820877,0.000479039,0.00166527,0.00054911,0.51604,0.00097985,0.0104452,1532,435,5.16344,21.1349
315,589,5.15869,-20.8355,0.00123978,0.000851119,0.000566068,0.00164395,0.000446954,0.620051,0.000981509,0.0101223,1539,435,5.15872,20.8355
322,589,5.18335,-20.5194,0.00109101,0.00103198,0.000723878,0.00178598,0.000337016,0.765022,0.00109573,0.0112746,1546,435,5.18334,20.5194
329,589,5.17859,-20.2274,0.000922786,0.00125257,0.000952135,0.00205399,0.000121372,0.871139,0.00133071,0.00981804,1553,435,5.17862,20.2274
336,589,5.15479,-19.9403,0.000744645,0.00150057,0.00120835,0.00238869,-0.000143475,0.936973,0.00164237,0.00876071,1560,435,5.15474,19.9403
343,589,5.16052,-19.6167,0.000601251,0.00177262,0.00147045,0.00276973,-0.000395858,0.97492,0.0019916,0.0104266,1567,435,5.16054,19.6167
350,589,5.15613,-19.2622,0.000536088,0.00236444,0.0018611,0.00352377,-0.000623243,1.01369,0.00258212,0.0161013,1574,435,5.15616,19.2622
357,589,5.13379,-18.9186,0.000415011,0.00286089,0.00225993,0.00420756,-0.000931657,1.03341,0.00316168,0.0132809,1581,435,5.13383,18.9186
364,589,5.12964,-18.5799,0.000163108,0.00338577,0.00255745,0.00479717,-0.0012483,1.06651,0.00368537,0.0112721,1588,435,5.12965,18.5799
371,589,5.12097,-18.2249,-7.69756e-05,0.00397275,0.00285696,0.00544964,-0.00155387,1.09368,0.00424688,0.0114388,1595,435,5.12099,18.2249
378,589,5.1095,-17.8721,-0.000454691,0.00459232,0.00307818,0.00604918,-0.00191155,1.12875,0.00479861,0.0121068,1602,435,5.10956,17.8721
385,589,5.08496,-17.4792,-0.0011135,0.00500605,0.00305269,0.00626844,-0.00237589,1.17868,0.00515671,0.014616,1609,435,5.08495,17.4792
392,589,5.0542,-17.0325,-0.0015541,0.00547254,0.00298729,0.00657087,-0.00265243,1.21847,0.00548292,0.017841,1616,435,5.05421,17.0325
399,589,5.08105,-16.5628,-0.00166247,0.00603491,0.00323184,0.00721187,-0.00283943,1.22155,0.00598335,0.0295623,1623,435,5.08102,16.5628
406,589,5.09326,-16.2475,0,0,0,0,0,0,0,-1,1630,435,5.0933,16.2475
413,589,4.74854,-16.1479,0,0,0,0,0,0,0,-1,1637,435,4.74851,16.1479
420,589,2.79724,-5.79956,0,0,0,0,0,0,0,-1,1644,435,2.7973,5.79955
427,589,2.87976,-5.28177,0,0,0,0,0,0,0,-1,1651,435,2.87972,5.28177
434,589,2.52734,-2.73029,0,0,0,0,0,0,0,-1,1658,435,2.52736,2.73029
441,589,3.17639,-2.02435,0,0,0,0,0,0,0,-1,1665,435,3.17643,2.02435
448,589,0.453735,-3.2868,0,0,0,0,0,0,0,-1,1672,435,0.453701,3.28681
455,589,0.664307,-3.46848,0,0,0,0,0,0,0,-1,1679,435,0.66425,3.46846
462,589,3.46716,-4.41891,0,0,0,0,0,0,0,-1,1686,435,3.4672,4.41891
469,589,0.0238037,-3.81497,0,0,0,0,0,0,0,-1,1693,435,0.0237965,3.81498
476,589,0,0,0,0,0,0,0,0,0,-1,1700,435,0,0
483,589,0,0,0,0,0,0,0,0,0,-1,1707,435,0,0
490,589,0,0,0,0,0,0,0,0,0,-1,1714,435,0,0
497,589,0,0,0,0,0,0,0,0,0,-1,1721,435,0,0
504,589,0,0,0,0,0,0,0,0,0,-1,1728,435,0,0
511,589,0,0,0,0,0,0,0,0,0,-1,1735,435,0,0
518,589,0,0,0,0,0,0,0,0,0,-1,1742,435,0,0
525,589,0,0,0,0,0,0,0,0,0,-1,1749,435,0,0
532,589,0,0,0,0,0,0,0,0,0,-1,1756,435,0,0
539,589,0,0,0,0,0,0,0,0,0,-1,1763,435,0,0
546,589,0,0,0,0,0,0,0,0,0,-1,1770,435,0,0
553,589,0,0,0,0,0,0,0,0,0,-1,1777,435,0,0
560,589,0,0,0,0,0,0,0,0,0,-1,1784,435,0,0
567,589,0,0,0,0,0,0,0,0,0,-1,1791,435,0,0
574,589,0,0,0,0,0,0,0,0,0,-1,1798,435,0,0
581,589,0,0,0,0,0,0,0,0,0,-1,1805,435,0,0
588,589,0,0,0,0,0,0,0,0,0,-1,1812,435,0,0
595,589,0,0,0,0,0,0,0,0,0,-1,1819,435,0,0
602,589,0,0,0,0,0,0,0,0,0,-1,1826,435,0,0
609,589,0,0,0,0,0,0,0,0,0,-1,1833,435,0,0
616,589,0,0,0,0,0,0,0,0,0,-1,1840,435,0,0
623,589,0,0,0,0,0,0,0,0,0,-1,1847,435,0,0
630,589,0,0,0,0,0,0,0,0,0,-1,1854,435,0,0
637,589,0,0,0,0,0,0,0,0,0,-1,1861,435,0,0
644,589,0,0,0,0,0,0,0,0,0,-1,1868,435,0,0
651,589,0,0,0,0,0,0,0,0,0,-1,1875,435,0,0
658,589,0,0,0,0,0,0,0,0,0,-1,1882,435,0,0
665,589,0,0,0,0,0,0,0,0,0,-1,1889,435,0,0
672,589,0,0,0,0,0,0,0,0,0,-1,1896,435,0,0
679,589,0,0,0,0,0,0,0,0,0,-1,1903,435,0,0
686,589,0,0,0,0,0,0,0,0,0,-1,1910,435,0,0
693,589,0,0,0,0,0,0,0,0,0,-1,1917,435,0,0
700,589,0,0,0,0,0,0,0,0,0,-1,1924,435,0,0
707,589,0,0,0,0,0,0,0,0,0,-1,1931,435,0,0
714,589,0,0,0,0,0,0,0,0,0,-1,1938,435,0,0
721,589,0,0,0,0,0,0,0,0,0,-1,1945,435,0,0
728,589,0,0,0,0,0,0,0,0,0,-1,1952,435,0,0
735,589,0,0,0,0,0,0,0,0,0,-1,1959,435,0,0
742,589,0,0,0,0,0,0,0,0,0,-1,1966,435,0,0
749,589,0,0,0,0,0,0,0,0,0,-1,1973,435,0,0
756,589,0,0,0,0,0,0,0,0,0,-1,1980,435,0,0
763,589,0,0,0,0,0,0,0,0,0,-1,1987,435,0,0
770,589,0,0,0,0,0,0,0,0,0,-1,1994,435,0,0
777,589,0,0,0,0,0,0,0,0,0,-1,2001,435,0,0
784,589,0,0,0,0,0,0,0,0,0,-1,2008,435,0,0
791,589,0,0,0,0,0,0,0,0,0,-1,2015,435,0,0
798,589,0,0,0,0,0,0,0,0,0,-1,2022,435,0,0
805,589,0,0,0,0,0,0,0,0,0,-1,2029,435,0,0
812,589,0,0,0,0,0,0,0,0,0,-1,2036,435,0,0
-700,582,0,0,0,0,0,0,0,0,0,-1,524,442,0,0
-693,582,0,0,0,0,0,0,0,0,0,-1,531,442,0,0
-686,582,0,0,0,0,0,0,0,0,0,-1,538,442,0,0
-679,582,0,0,0,0,0,0,0,0,0,-1,545,442,0,0
-672,582,0,0,0,0,0,0,0,0,0,-1,552,442,0,0
-665,582,0,0,0,0,0,0,0,0,0,-1,559,442,0,0
-658,582,0,0,0,0,0,0,0,0,0,-1,566,442,0,0
-651,582,0,0,0,0,0,0,0,0,0,-1,573,442,0,0
-644,582,0,0,0,0,0,0,0,0,0,-1,580,442,0,0
-637,582,0,0,0,0,0,0,0,0,0,-1,587,442,0,0
-630,582,0,0,0,0,0,0,0,0,0,-1,594,442,0,0
-623,582,0,0,0,0,0,0,0,0,0,-1,601,442,0,0
-616,582,0,0,0,0,0,0,0,0,0,-1,608,442,0,0
-609,582,0,0,0,0,0,0,0,0,0,-1,615,442,0,0
-602,582,0,0,0,0,0,0,0,0,0,-1,622,442,0,0
-595,582,0,0,0,0,0,0,0,0,0,-1,629,442,0,0
-588,582,0,0,0,0,0,0,0,0,0,-1,636,442,0,0
-581,582,0,0,0,0,0,0,0,0,0,-1,643,442,0,0
-574,582,0,0,0,0,0,0,0,0,0,-1,650,442,0,0
-567,582,0,0,0,0,0,0,0,0,0,-1,657,442,0,0
-560,582,0,0,0,0,0,0,0,0,0,-1,664,442,0,0
-553,582,0,0,0,0,0,0,0,0,0,-1,671,442,0,0
-546,582,0,0,0,0,0,0,0,0,0,-1,678,442,0,0
-539,582,0,0,0,0,0,0,0,0,0,-1,685,442,0,0
-532,582,0,0,0,0,0,0,0,0,0,-1,692,442,0,0
-525,582,0,0,0,0,0,0,0,0,0,-1,699,442,0,0
-518,582,0,0,0,0,0,0,0,0,0,-1,706,442,0,0
-511,582,0,0,0,0,0,0,0,0,0,-1,713,442,0,0
-504,582,0,0,0,0,0,0,0,0,0,-1,720,442,0,0
-497,582,0,0,0,0,0,0,0,0,0,-1,727,442,0,0
-490,582,0,0,0,0,0,0,0,0,0,-1,734,442,0,0
-483,582,0,0,0,0,0,0,0,0,0,-1,741,442,0,0
-476,582,0,0,0,0,0,0,0,0,0,-1,748,442,0,0
-469,582,0,0,0,0,0,0,0,0,0,-1,755,442,0,0
-462,582,0,0,0,0,0,0,0,0,0,-1,762,442,0,0
-455,582,0,0,0,0,0,0,0,0,0,-1,769,442,0,0
-448,582,0,0,0,0,0,0,0,0,0,-1,776,442,0,0
-441,582,0,0,0,0,0,0,0,0,0,-1,783,442,0,0
-434,582,0,0,0,0,0,0,0,0,0,-1,790,442,0,0
-427,582,0,0,0,0,0,0,0,0,0,-1,797,442,0,0
-420,582,0,0,0,0,0,0,0,0,0,-1,804,442,0,0
-413,582,0,0,0,0,0,0,0,0,0,-1,811,442,0,0
-406,582,0,0,0,0,0,0,0,0,0,-1,818,442,0,0
-399,582,0,0,0,0,0,0,0,0,0,-1,825,442,0,0
-392,582,0,0,0,0,0,0,0,0,0,-1,832,442,0,0
-385,582,0,0,0,0,0,0,0,0,0,-1,839,442,0,0
-378,582,0,0,0,0,0,0,0,0,0,-1,846,442,0,0
-371,582,0,0,0,0,0,0,0,0,0,-1,853,442,0,0
-364,582,0,0,0,0,0,0,0,0,0,-1,860,442,0,0
-357,582,-1.4903,-21.5295,0,0,0,0,0,0,0,-1,867,442,-1.49031,21.5295
-350,582,-0.880859,-19.7966,0,0,0,0,0,0,0,-1,874,442,-0.880885,19.7966
-343,582,-0.208557,-18.0078,0,0,0,0,0,0,0,-1,881,442,-0.208576,18.0078
-336,582,0.219543,-16.4952,0,0,0,0,0,0,0,-1,888,442,0.219519,16.4952
-329,582,1.3493,-13.7002,0,0,0,0,0,0,0,-1,895,442,1.34933,13.7002
-322,582,1.31958,-15.6677,0,0,0,0,0,0,0,-1,902,442,1.31959,15.6677
-315,582,1.81445,-16.1176,0,0,0,0,0,0,0,-1,909,442,1.81443,16.1176
-308,582,2.85791,-16.3642,0,0,0,0,0,0,0,-1,916,442,2.85792,16.3642
-301,582,2.00739,-16.2301,0,0,0,0,0,0,0,-1,923,442,2.0074,16.2301
-294,582,2.11383,-16.6167,0.0113253,0.00100907,-0.00889255,0.0164474,-0.00411307,-0.522588,0.0125625,0.0438729,930,442,2.1138,16.6167
-287,582,2.22998,-17.0777,0.00862544,0.0026901,-0.00733422,0.0135696,-0.00225411,-0.593151,0.00988385,0.0350649,937,442,2.22997,17.0777
-280,582,2.28168,-17.4932,0.00661314,0.00345844,-0.00601716,0.0112563,-0.00118468,-0.657212,0.00792863,0.0170349,944,442,2.28167,17.4932
-273,582,2.25122,-17.879,0.00503257,0.00449102,-0.00502454,0.00979363,-0.000270038,-0.758479,0.00662094,0.0106296,951,442,2.25123,17.879
-266,582,2.21362,-18.2637,0.00334753,0.00424735,-0.00377264,0.00759681,-1.92714e-06,-0.844746,0.00506518,0.00961994,958,442,2.21364,18.2637
-259,582,2.1911,-18.623,0.0024333,0.00344756,-0.00245692,0.00544914,0.000431714,-0.887172,0.00349775,0.00827023,965,442,2.19107,18.623
-252,582,2.18646,-18.9678,0.00225839,0.00273458,-0.00129193,0.00381018,0.0011828,-0.876522,0.00225189,0.00754603,972,442,2.18645,18.9678
-245,582,2.19061,-19.2846,0.00222652,0.00205884,-0.000482355,0.00263227,0.00165309,-0.699353,0.00153625,0.0112468,979,442,2.19061,19.2846
-238,582,2.17273,-19.5939,0.00215882,0.00122088,0.00010139,0.00216965,0.00121005,0.106461,0.00125543,0.0170193,986,442,2.17274,19.5939
-231,582,2.15137,-19.8985,0.00219197,0.000683069,0.000364155,0.00227526,0.000599782,0.224846,0.00136168,0.0136148,993,442,2.15135,19.8985
-224,582,2.151,-20.2137,0.00227734,0.000268096,0.000353615,0.00233775,0.000207678,0.169222,0.0014941,0.0106059,1000,442,2.15102,20.2137
-217,582,2.13257,-20.5225,0.00235214,-0.000261685,0.000342808,0.00239635,-0.000305897,0.128262,0.00170869,0.0133873,1007,442,2.13257,20.5224
-210,582,2.13452,-20.8255,0.00236847,-0.00076876,0.000240947,0.00238687,-0.000787158,0.076207,0.00190853,0.0134431,1014,442,2.13455,20.8255
-203,582,2.15826,-21.1315,0.00239195,-0.0012247,1.46704e-05,0.00239201,-0.00122476,0.00405626,0.00212408,0.00987756,1021,442,2.15828,21.1315
-196,582,2.13818,-21.4228,0.00235725,-0.00171119,-6.41888e-05,0.00235826,-0.00171221,-0.015772,0.00235993,0.0154918,1028,442,2.13813,21.4228
-189,582,2.1051,-21.6948,0.00233891,-0.00213079,-7.77371e-05,0.00234026,-0.00213215,-0.017385,0.00258308,0.020758,1035,442,2.10516,21.6948
-182,582,2.11133,-21.9576,0.00236501,-0.00276686,0.000121794,0.0023679,-0.00276974,0.0237151,0.00296924,0.014123,1042,442,2.1113,21.9576
-175,582,2.13257,-22.1914,0.00239132,-0.00342951,0.000488212,0.00243199,-0.00347018,0.0830996,0.00342514,0.013156,1049,442,2.13262,22.1914
-168,582,2.14648,-22.4594,0.00236951,-0.00402489,0.000846503,0.00247967,-0.00413505,0.129413,0.00385867,0.0115368,1056,442,2.1465,22.4595
-161,582,2.15405,-22.7077,0.0021875,-0.00448489,0.00104684,0.00234788,-0.00464528,0.152026,0.00410948,0.0129906,1063,442,2.1541,22.7077
-154,582,2.16284,-22.9337,0.00186429,-0.004875,0.00156594,0.00221038,-0.00522109,0.217513,0.00440636,0.0129953,1070,442,2.16281,22.9337
-147,582,2.18872,-23.1826,0.00208032,-0.00541601,0.00200944,0.00258499,-0.00592068,0.24606,0.00503505,0.0124605,1077,442,2.18866,23.1826
-140,582,2.20044,-23.4115,0.00237305,-0.00596931,0.00212547,0.00288336,-0.00647962,0.235633,0.00553704,0.0136656,1084,442,2.2004,23.4115
-133,582,2.22766,-23.6407,0.00253563,-0.00655789,0.00215076,0.00301866,-0.00704092,0.220921,0.00596065,0.0162728,1091,442,2.22772,23.6407
-126,582,2.25085,-23.8073,0.00273652,-0.00689408,0.00212193,0.00318332,-0.00734088,0.207531,0.00623219,0.0136757,1098,442,2.2508,23.8073
-119,582,2.21509,-23.9639,0.00308417,-0.00728289,0.00184825,0.00340382,-0.00760255,0.171255,0.00650683,0.0172402,1105,442,2.21513,23.9639
-112,582,2.16394,-24.2039,0.00349841,-0.00752636,0.00159848,0.00372549,-0.00775345,0.14112,0.00676201,0.024755,1112,442,2.16392,24.2039
-105,582,2.20422,-24.506,0.00385261,-0.00700988,0.00128157,0.00400176,-0.00715903,0.115862,0.00652906,0.035796,1119,442,2.20423,24.506
-98,582,2.3064,-24.637,0,0,0,0,0,0,0,-1,1126,442,2.30644,24.637
-91,582,2.16492,-24.1119,0,0,0,0,0,0,0,-1,1133,442,2.16496,24.1119
-84,582,2.10278,-16.7533,0,0,0,0,0,0,0,-1,1140,442,2.10279,16.7533
-77,582,2.30212,-11.4907,0,0,0,0,0,0,0,-1,1147,442,2.30207,11.4907
-70,582,1.49255,-6.36548,0,0,0,0,0,0,0,-1,1154,442,1.49251,6.36549
-63,582,-4.62915,-4.0347,0,0,0,0,0,0,0,-1,1161,442,-4.6292,4.03471
-56,582,-5.81714,-5.24149,0,0,0,0,0,0,0,-1,1168,442,-5.81718,5.24149
-49,582,-3.88672,-10.1064,0,0,0,0,0,0,0,-1,1175,442,-3.88678,10.1064
-42,582,-0.948975,1.13968,0,0,0,0,0,0,0,-1,1182,442,-0.949003,-1.13969
-35,582,-2.58435,-3.86911,0,0,0,0,0,0,0,-1,1189,442,-2.58437,3.86912
-28,582,-0.825317,-3.45941,0,0,0,0,0,0,0,-1,1196,442,-0.825377,3.45942
-21,582,1.54053,-34.0827,0,0,0,0,0,0,0,-1,1203,442,1.54056,34.0827
-14,582,2.04565,-33.3705,0.0578159,-0.015494,0.0492596,0.0825621,-0.0402401,0.465535,0.0722898,0.0484565,1210,442,2.04563,33.3705
-7,582,2.48169,-32.6535,0.0571664,-0.0113144,0.0484692,0.0822697,-0.0364177,0.477882,0.070208,0.0486703,1217,442,2.48174,32.6535
0,582,1.06775,-27.3157,0,0,0,0,0,0,0,-1,1224,442,1.0678,27.3157
7,582,1.65173,-27.2247,0.0531906,-0.000666405,0.0418523,0.0760292,-0.023505,0.499531,0.060074,0.0479525,1231,442,1.6517,27.2247
14,582,2.25598,-27.114,0,0,0,0,0,0,0,-1,1238,442,2.25602,27.114
21,582,3.84729,-25.2529,0,0,0,0,0,0,0,-1,1245,442,3.84726,25.2529
28,582,3.70654,-25.0659,0,0,0,0,0,0,0,-1,1252,442,3.70655,25.0658
35,582,4.27637,-24.4094,0,0,0,0,0,0,0,-1,1259,442,4.27636,24.4094
42,582,2.172,-26.0988,0.0532133,0.00403187,0.00594827,0.0539225,0.00332268,0.118666,0.0348935,0.0491766,1266,442,2.17199,26.0988
49,582,2.38159,-26.4507,0.0544449,0.000635903,-0.00324734,0.0546401,0.000440637,-0.0600589,0.0362808,0.0462039,1273,442,2.38162,26.4508
56,582,3.2561,-26.4258,0,0,0,0,0,0,0,-1,1280,442,3.25616,26.4258
63,582,3.59509,-26.4968,0,0,0,0,0,0,0,-1,1287,442,3.59504,26.4968
70,582,4.58325,-27.0535,0.0505367,-0.00928238,-0.0201738,0.0567043,-0.01545,-0.296702,0.0438693,0.0445406,1294,442,4.5833,27.0535
77,582,4.1604,-27.3666,0.0465715,-0.0131058,-0.0227452,0.054252,-0.0207863,-0.325655,0.0447365,0.0433143,1301,442,4.16044,27.3666
84,582,3.95374,-27.8231,0.0414139,-0.0171158,-0.0238037,0.0498724,-0.0255742,-0.341425,0.0443057,0.0447249,1308,442,3.95373,27.8231
91,582,3.95093,-28.5378,0.0354868,-0.0214149,-0.0229571,0.0435938,-0.0295219,-0.339468,0.0424732,0.0469281,1315,442,3.95097,28.5378
98,582,3.84973,-29.2812,0.0296197,-0.0253753,-0.0204176,0.0363712,-0.0321268,-0.31935,0.0395726,0.0472968,1322,442,3.84977,29.2812
105,582,3.71533,-29.8916,0,0,0,0,0,0,0,-1,1329,442,3.71532,29.8916
112,582,4.1593,-25.074,0,0,0,0,0,0,0,-1,1336,442,4.15927,25.074
119,582,4.2489,-24.5717,0,0,0,0,0,0,0,-1,1343,442,4.24891,24.5716
126,582,5.16577,-24.5089,0,0,0,0,0,0,0,-1,1350,442,5.1658,24.5089
133,582,5.39893,-24.5235,0.000902743,-0.0501071,-0.00668031,0.00176309,-0.0509675,-0.128084,0.034581,0.0443961,1357,442,5.39894,24.5235
140,582,5.67676,-24.4069,-0.0013046,-0.0527888,-0.00529013,-0.000766646,-0.0533268,-0.101341,0.0352984,0.0442643,1364,442,5.67673,24.4069
147,582,4.58569,-24.3902,0,0,0,0,0,0,0,-1,1371,442,4.5857,24.3902
154,582,7.25647,-25.2497,0,0,0,0,0,0,0,-1,1378,442,7.25645,25.2497
161,582,8.16797,-25.4346,0,0,0,0,0,0,0,-1,1385,442,8.168,25.4346
168,582,7.48706,-23.8098,0,0,0,0,0,0,0,-1,1392,442,7.48701,23.8098
175,582,6.50549,-2.00424,0,0,0,0,0,0,0,-1,1399,442,6.50546,2.00425
182,582,5.18958,-2.18652,0,0,0,0,0,0,0,-1,1406,442,5.1896,2.18652
189,582,6.19751,-0.880951,0,0,0,0,0,0,0,-1,1413,442,6.19754,0.88096
196,582,4.87354,-2.22327,0,0,0,0,0,0,0,-1,1420,442,4.87348,2.22325
203,582,3.11401,-4.48257,0,0,0,0,0,0,0,-1,1427,442,3.11404,4.48259
210,582,2.93115,-11.0731,0,0,0,0,0,0,0,-1,1434,442,2.93113,11.0731
217,582,4.94092,-16.5476,0,0,0,0,0,0,0,-1,1441,442,4.94087,16.5476
224,582,5.21008,-20.9908,0,0,0,0,0,0,0,-1,1448,442,5.21006,20.9908
231,582,5.45776,-24.3764,0,0,0,0,0,0,0,-1,1455,442,5.45781,24.3764
238,582,5.3053,-23.9319,0,0,0,0,0,0,0,-1,1462,442,5.30525,23.932
245,582,5.4259,-23.632,0,0,0,0,0,0,0,-1,1469,442,5.42591,23.632
252,582,5.41663,-23.4203,0.00375109,0.00519113,0.00114887,0.00582696,0.00311526,1.06532,0.00336689,0.0339835,1476,442,5.41665,23.4203
259,582,5.33228,-23.1665,0.00372618,0.00401507,0.000892599,0.00477484,0.00296642,0.865614,0.00278365,0.0270844,1483,442,5.33224,23.1665
266,582,5.35583,-22.8554,0.0035927,0.00300158,0.000591976,0.0039588,0.00263548,0.553863,0.00232709,0.0195014,1490,442,5.35578,22.8554
273,582,5.41858,-22.5598,0.00343952,0.00220838,0.000365011,0.00353961,0.0021083,0.267615,0.00205601,0.0159112,1497,442,5.41856,22.5598
280,582,5.44202,-22.3028,0.00314006,0.0011226,0.000110149,0.00314606,0.00111661,0.0543825,0.00184169,0.0125067,1504,442,5.44205,22.3028
287,582,5.4624,-22.0035,0.00288526,0.000303905,-7.95782e-05,0.00288771,0.000301454,-0.0307892,0.00183294,0.0103708,1511,442,5.46241,22.0035
294,582,5.47314,-21.7092,0.00259524,-3.53704e-05,-0.000217815,0.00261316,-5.32836e-05,-0.0820555,0.00176013,0.00869642,1518,442,5.47316,21.7092
301,582,5.47778,-21.4203,0.00225686,-0.000135283,-0.00024929,0.00228256,-0.000160986,-0.102741,0.00157811,0.0100732,1525,442,5.47781,21.4202
308,582,5.4762,-21.128,0.00195357,-0.000411271,-0.000239708,0.00197763,-0.000435324,-0.100008,0.00148495,0.0130392,1532,442,5.47615,21.128
315,582,5.46289,-20.8361,0.0016225,-0.00042425,-0.000241787,0.00165068,-0.000452425,-0.116005,0.00127823,0.0129822,1539,442,5.46289,20.8361
322,582,5.48755,-20.5253,0.00130553,-0.00022006,-0.000134883,0.00131736,-0.000231893,-0.0875091,0.000964874,0.0103519,1546,442,5.48757,20.5253
329,582,5.4895,-20.2387,0.00101478,6.68638e-05,7.83789e-05,0.00102121,6.04267e-05,0.0819442,0.000661587,0.00992208,1553,442,5.48955,20.2387
336,582,5.47449,-19.9384,0.000749758,0.000389505,0.000330925,0.000946403,0.00019286,0.536165,0.000577485,0.0104037,1560,442,5.47452,19.9384
343,582,5.46741,-19.5962,0.000527827,0.000756282,0.000594121,0.00124706,3.70521e-05,0.880371,0.000819299,0.0125086,1567,442,5.46737,19.5962
350,582,5.4707,-19.2314,0.000407677,0.00135158,0.000981901,0.00196906,-0.000209807,1.00942,0.00138794,0.0155928,1574,442,5.47073,19.2314
357,582,5.46301,-18.8995,0.000255359,0.00190149,0.0013695,0.00267622,-0.000519379,1.05597,0.00198011,0.014062,1581,442,5.46305,18.8996
364,582,5.45374,-18.5731,4.2246e-05,0.00243654,0.00170496,0.00332267,-0.000843885,1.09148,0.00254351,0.0110877,1588,442,5.45379,18.5731
371,582,5.45935,-18.2322,-0.000149609,0.00298569,0.00203947,0.00399039,-0.0011543,1.11307,0.0031171,0.0146389,1595,442,5.45935,18.2322
378,582,5.44482,-17.8939,-0.000445082,0.0035337,0.00229688,0.00458295,-0.00149433,1.14229,0.00365665,0.0153952,1602,442,5.44481,17.8939
385,582,5.41675,-17.5288,-0.000857697,0.00390242,0.00234839,0.00486596,-0.00182123,1.18145,0.00399202,0.0109809,1609,442,5.41673,17.5288
392,582,5.38916,-17.1537,-0.00116355,0.00427838,0.00238608,0.0051764,-0.00206157,1.21084,0.00430589,0.00975781,1616,442,5.38914,17.1537
399,582,5.37439,-16.8094,-0.00121982,0.00471648,0.00266699,0.00573866,-0.002242,1.20479,0.00475277,0.0162574,1623,442,5.37439,16.8094
406,582,5.39746,-16.3528,-0.00123551,0.00550536,0.00325043,0.00681735,-0.0025475,1.18716,0.00559099,0.0291333,1630,442,5.39752,16.3528
413,582,5.26367,-16.0031,-0.00150102,0.00579936,0.00344963,0.0071715,-0.00287317,1.19222,0.00597366,0.046813,1637,442,5.26365,16.0032
420,582,5.12927,-15.6351,0,0,0,0,0,0,0,-1,1644,442,5.12926,15.6351
427,582,5.2251,-15.2598,0,0,0,0,0,0,0,-1,1651,442,5.22513,15.2598
434,582,4.9375,-14.989,0,0,0,0,0,0,0,-1,1658,442,4.93752,14.989
441,582,4.53979,-12.7726,0,0,0,0,0,0,0,-1,1665,442,4.53983,12.7726
448,582,6.54919,-13.0031,0,0,0,0,0,0,0,-1,1672,442,6.54917,13.0031
455,582,5.61389,-12.2941,0,0,0,0,0,0,0,-1,1679,442,5.61391,12.2941
462,582,1.38074,-3.94418,0,0,0,0,0,0,0,-1,1686,442,1.38074,3.94419
469,582,4.77759,-10.3864,0,0,0,0,0,0,0,-1,1693,442,4.77756,10.3864
476,582,1.93579,-8.53891,0,0,0,0,0,0,0,-1,1700,442,1.93579,8.53892
483,582,0,0,0,0,0,0,0,0,0,-1,1707,442,0,0
490,582,0,0,0,0,0,0,0,0,0,-1,1714,442,0,0
497,582,0,0,0,0,0,0,0,0,0,-1,1721,442,0,0
504,582,0,0,0,0,0,0,0,0,0,-1,1728,442,0,0
511,582,0,0,0,0,0,0,0,0,0,-1,1735,442,0,0
518,582,0,0,0,0,0,0,0,0,0,-1,1742,442,0,0
525,582,0,0,0,0,0,0,0,0,0,-1,1749,442,0,0
532,582,0,0,0,0,0,0,0,0,0,-1,1756,442,0,0
539,582,0,0,0,0,0,0,0,0,0,-1,1763,442,0,0
546,582,0,0,0,0,0,0,0,0,0,-1,1770,442,0,0
553,582,0,0,0,0,0,0,0,0,0,-1,1777,442,0,0
560,582,0,0,0,0,0,0,0,0,0,-1,1784,442,0,0
567,582,0,0,0,0,0,0,0,0,0,-1,1791,442,0,0
574,582,0,0,0,0,0,0,0,0,0,-1,1798,442,0,0
581,582,0,0,0,0,0,0,0,0,0,-1,1805,442,0,0
588,582,0,0,0,0,0,0,0,0,0,-1,1812,442,0,0
595,582,0,0,0,0,0,0,0,0,0,-1,1819,442,0,0
602,582,0,0,0,0,0,0,0,0,0,-1,1826,442,0,0
609,582,0,0,0,0,0,0,0,0,0,-1,1833,442,0,0
616,582,0,0,0,0,0,0,0,0,0,-1,1840,442,0,0
623,582,0,0,0,0,0,0,0,0,0,-1,1847,442,0,0
630,582,0,0,0,0,0,0,0,0,0,-1,1854,442,0,0
637,582,0,0,0,0,0,0,0,0,0,-1,1861,442,0,0
644,582,0,0,0,0,0,0,0,0,0,-1,1868,442,0,0
651,582,0,0,0,0,0,0,0,0,0,-1,1875,442,0,0
658,582,0,0,0,0,0,0,0,0,0,-1,1882,442,0,0
665,582,0,0,0,0,0,0,0,0,0,-1,1889,442,0,0
672,582,0,0,0,0,0,0,0,0,0,-1,1896,442,0,0
679,582,0,0,0,0,0,0,0,0,0,-1,1903,442,0,0
686,582,0,0,0,0,0,0,0,0,0,-1,1910,442,0,0
693,582,0,0,0,0,0,0,0,0,0,-1,1917,442,0,0
700,582,0,0,0,0,0,0,0,0,0,-1,1924,442,0,0
707,582,0,0,0,0,0,0,0,0,0,-1,1931,442,0,0
714,582,0,0,0,0,0,0,0,0,0,-1,1938,442,0,0
721,582,0,0,0,0,0,0,0,0,0,-1,1945,442,0,0
728,582,0,0,0,0,0,0,0,0,0,-1,1952,442,0,0
735,582,0,0,0,0,0,0,0,0,0,-1,1959,442,0,0
742,582,0,0,0,0,0,0,0,0,0,-1,1966,442,0,0
749,582,0,0,0,0,0,0,0,0,0,-1,1973,442,0,0
756,582,0,0,0,0,0,0,0,0,0,-1,1980,442,0,0
763,582,0,0,0,0,0,0,0,0,0,-1,1987,442,0,0
770,582,0,0,0,0,0,0,0,0,0,-1,1994,442,0,0
777,582,0,0,0,0,0,0,0,0,0,-1,2001,442,0,0
784,582,0,0,0,0,0,0,0,0,0,-1,2008,442,0,0
791,582,0,0,0,0,0,0,0,0,0,-1,2015,442,0,0
798,582,0,0,0,0,0,0,0,0,0,-1,2022,442,0,0
805,582,0,0,0,0,0,0,0,0,0,-1,2029,442,0,0
812,582,0,0,0,0,0,0,0,0,0,-1,2036,442,0,0
-700,575,0,0,0,0,0,0,0,0,0,-1,524,449,0,0
-693,575,0,0,0,0,0,0,0,0,0,-1,531,449,0,0
-686,575,0,0,0,0,0,0,0,0,0,-1,538,449,0,0
-679,575,0,0,0,0,0,0,0,0,0,-1,545,449,0,0
-672,575,0,0,0,0,0,0,0,0,0,-1,552,449,0,0
-665,575,0,0,0,0,0,0,0,0,0,-1,559,449,0,0
-658,575,0,0,0,0,0,0,0,0,0,-1,566,449,0,0
-651,575,0,0,0,0,0,0,0,0,0,-1,573,449,0,0
-644,575,0,0,0,0,0,0,0,0,0,-1,580,449,0,0
-637,575,0,0,0,0,0,0,0,0,0,-1,587,449,0,0
-630,575,0,0,0,0,0,0,0,0,0,-1,594,449,0,0
-623,575,0,0,0,0,0,0,0,0,0,-1,601,449,0,0
-616,575,0,0,0,0,0,0,0,0,0,-1,608,449,0,0
-609,575,0,0,0,0,0,0,0,0,0,-1,615,449,0,0
-602,575,0,0,0,0,0,0,0,0,0,-1,622,449,0,0
-595,575,0,0,0,0,0,0,0,0,0,-1,629,449,0,0
-588,575,0,0,0,0,0,0,0,0,0,-1,636,449,0,0
-581,575,0,0,0,0,0,0,0,0,0,-1,643,449,0,0
-574,575,0,0,0,0,0,0,0,0,0,-1,650,449,0,0
-567,575,0,0,0,0,0,0,0,0,0,-1,657,449,0,0
-560,575,0,0,0,0,0,0,0,0,0,-1,664,449,0,0
-553,575,0,0,0,0,0,0,0,0,0,-1,671,449,0,0
-546,575,0,0,0,0,0,0,0,0,0,-1,678,449,0,0
-539,575,0,0,0,0,0,0,0,0,0,-1,685,449,0,0
-532,575,0,0,0,0,0,0,0,0,0,-1,692,449,0,0
-525,575,0,0,0,0,0,0,0,0,0,-1,699,449,0,0
-518,575,0,0,0,0,0,0,0,0,0,-1,706,449,0,0
-511,575,0,0,0,0,0,0,0,0,0,-1,713,449,0,0
-504,575,0,0,0,0,0,0,0,0,0,-1,720,449,0,0
-497,575,0,0,0,0,0,0,0,0,0,-1,727,449,0,0
-490,575,0,0,0,0,0,0,0,0,0,-1,734,449,0,0
-483,575,0,0,0,0,0,0,0,0,0,-1,741,449,0,0
-476,575,0,0,0,0,0,0,0,0,0,-1,748,449,0,0
-469,575,0,0,0,0,0,0,0,0,0,-1,755,449,0,0
-462,575,0,0,0,0,0,0,0,0,0,-1,762,449,0,0
-455,575,0,0,0,0,0,0,0,0,0,-1,769,449,0,0
-448,575,0,0,0,0,0,0,0,0,0,-1,776,449,0,0
-441,575,0,0,0,0,0,0,0,0,0,-1,783,449,0,0
-434,575,0,0,0,0,0,0,0,0,0,-1,790,449,0,0
-427,575,0,0,0,0,0,0,0,0,0,-1,797,449,0,0
-420,575,0,0,0,0,0,0,0,0,0,-1,804,449,0,0
-413,575,0,0,0,0,0,0,0,0,0,-1,811,449,0,0
-406,575,0,0,0,0,0,0,0,0,0,-1,818,449,0,0
-399,575,0,0,0,0,0,0,0,0,0,-1,825,449,0,0
-392,575,0,0,0,0,0,0,0,0,0,-1,832,449,0,0
-385,575,0,0,0,0,0,0,0,0,0,-1,839,449,0,0
-378,575,0,0,0,0,0,0,0,0,0,-1,846,449,0,0
-371,575,0.56897,-3.52304,0,0,0,0,0,0,0,-1,853,449,0.568955,3.52306
-364,575,1.49805,-4.67191,0,0,0,0,0,0,0,-1,860,449,1.49803,4.6719
-357,575,3.15521,-8.29892,0,0,0,0,0,0,0,-1,867,449,3.15521,8.29891
-350,575,-0.825928,-18.5347,0,0,0,0,0,0,0,-1,874,449,-0.825948,18.5347
-343,575,0.465393,-16.3569,0,0,0,0,0,0,0,-1,881,449,0.465397,16.3569
-336,575,0.479309,-15.4891,0,0,0,0,0,0,0,-1,888,449,0.479336,15.4891
-329,575,0.794067,-15.7373,0,0,0,0,0,0,0,-1,895,449,0.794057,15.7373
-322,575,1.19879,-15.7923,0.0252564,-0.0169619,-0.00554064,0.0259714,-0.0176769,-0.128343,0.0253516,0.0476397,902,449,1.19878,15.7923
-315,575,1.80353,-15.7576,0.020003,-0.0101964,-0.00675071,0.0214433,-0.0116368,-0.21021,0.0193765,0.0464701,909,449,1.8035,15.7576
-308,575,1.9397,-16.1873,0.0155803,-0.00475472,-0.00757817,0.0180937,-0.00726819,-0.320254,0.0150808,0.0449441,916,449,1.93972,16.1873
-301,575,1.94666,-16.4851,0.0118153,-0.00114856,-0.00781508,0.0154867,-0.00481999,-0.439188,0.0122514,0.0322717,923,449,1.94666,16.4851
-294,575,1.94489,-16.8081,0.00872519,0.000505382,-0.00688934,0.0126374,-0.00340682,-0.516455,0.00976078,0.023691,930,449,1.94492,16.8081
-287,575,1.95294,-17.1795,0.00623288,0.00215123,-0.00601799,0.0105467,-0.00216256,-0.621923,0.00785187,0.01698,937,449,1.95296,17.1795
-280,575,1.95728,-17.5499,0.00432161,0.00288494,-0.00521128,0.00886383,-0.00165728,-0.716909,0.00653211,0.0132901,944,449,1.95729,17.5499
-273,575,1.93085,-17.9249,0.00294683,0.00377554,-0.00449836,0.00787858,-0.00115621,-0.831325,0.00567718,0.0113,951,449,1.93082,17.9249
-266,575,1.9137,-18.2942,0.00158258,0.00344656,-0.0035127,0.00614881,-0.00111967,-0.915071,0.00451891,0.011931,958,449,1.91372,18.2941
-259,575,1.90698,-18.6309,0.000975439,0.00256874,-0.00249367,0.00438992,-0.000845744,-0.940009,0.00324547,0.0119765,965,449,1.90701,18.6309
-252,575,1.88226,-18.9552,0.000976148,0.00170028,-0.00156726,0.00294675,-0.000270327,-0.898915,0.00206053,0.0109254,972,449,1.88227,18.9552
-245,575,1.86499,-19.2819,0.00115586,0.000800693,-0.000864009,0.00186035,9.62081e-05,-0.684041,0.00120944,0.0140959,979,449,1.86499,19.2819
-238,575,1.84979,-19.604,0.00135898,-0.000253461,-0.000305049,0.00141476,-0.000309242,-0.18086,0.00106138,0.0150031,986,449,1.84979,19.604
-231,575,1.84351,-19.8936,0.00172512,-0.00114565,6.34394e-06,0.00172513,-0.00114566,0.00220983,0.00166867,0.0130483,993,449,1.8435,19.8936
-224,575,1.83044,-20.1888,0.00217567,-0.00186119,0.00011527,0.00217896,-0.00186448,0.0285233,0.00233683,0.0128632,1000,449,1.83043,20.1887
-217,575,1.83929,-20.5071,0.00257941,-0.00260865,0.000210988,0.00258798,-0.00261721,0.0405787,0.00300523,0.0109476,1007,449,1.8393,20.5071
-210,575,1.86578,-20.8256,0.0029335,-0.00335342,0.000222136,0.00294134,-0.00336126,0.0352744,0.0036415,0.00921083,1014,449,1.86578,20.8256
-203,575,1.87891,-21.117,0.00327508,-0.00392844,0.000105847,0.00327663,-0.00393,0.0146896,0.00416645,0.0118636,1021,449,1.87888,21.117
-196,575,1.87085,-21.4147,0.0034724,-0.00450513,0.000135754,0.00347471,-0.00450744,0.0170104,0.00462134,0.0153249,1028,449,1.87091,21.4147
-189,575,1.85522,-21.6855,0.0036324,-0.00498806,0.000274869,0.00364115,-0.00499682,0.0318425,0.00500757,0.0159312,1035,449,1.8552,21.6855
-182,575,1.84692,-21.9452,0.00375811,-0.00548027,0.000548538,0.00379057,-0.00551273,0.0590991,0.00540185,0.0136643,1042,449,1.84695,21.9452
-175,575,1.8584,-22.1935,0.00376868,-0.00596017,0.000916381,0.00385424,-0.00604574,0.093101,0.00576225,0.0117966,1049,449,1.85837,22.1935
-168,575,1.85999,-22.4386,0.00374693,-0.00640396,0.00123507,0.00389504,-0.00655207,0.119351,0.00609632,0.0102059,1056,449,1.85994,22.4386
-161,575,1.88208,-22.6978,0.00336071,-0.00668648,0.00135875,0.00354123,-0.00686699,0.132077,0.00611059,0.0145788,1063,449,1.88209,22.6977
-154,575,1.90686,-22.9349,0.0025927,-0.00693791,0.0020798,0.00302679,-0.007372,0.205763,0.00617599,0.0193358,1070,449,1.9069,22.9349
-147,575,1.96057,-23.1202,0.00283513,-0.00745542,0.0027211,0.00351036,-0.00813064,0.243231,0.00689513,0.0205175,1077,449,1.96055,23.1202
-140,575,1.89307,-23.2931,0.00321206,-0.00800841,0.00281013,0.0038765,-0.00867285,0.232181,0.00741967,0.0298107,1084,449,1.89304,23.2931
-133,575,2.00989,-23.5405,0.00325464,-0.00862629,0.0027641,0.00386623,-0.00923788,0.217752,0.00777466,0.0368803,1091,449,2.00992,23.5405
-126,575,1.97803,-23.5681,0.00339804,-0.00901361,0.00270289,0.0039611,-0.00957668,0.205383,0.00803706,0.0415764,1098,449,1.97797,23.5681
-119,575,1.84717,-23.6616,0.00365611,-0.00972619,0.00246036,0.00409411,-0.0101642,0.176179,0.00847705,0.037557,1105,449,1.8472,23.6616
-112,575,1.89465,-24.1079,0.00394223,-0.0103401,0.00214816,0.00425833,-0.0106562,0.146101,0.00887109,0.0469639,1112,449,1.89464,24.1079
-105,575,1.77588,-24.3806,0,0,0,0,0,0,0,-1,1119,449,1.77587,24.3806
-98,575,1.85706,-23.5938,0,0,0,0,0,0,0,-1,1126,449,1.85705,23.5938
-91,575,1.60803,-16.4247,0,0,0,0,0,0,0,-1,1133,449,1.60802,16.4247
-84,575,1.16553,-11.9056,0,0,0,0,0,0,0,-1,1140,449,1.16558,11.9056
-77,575,0.205078,-11.2584,0,0,0,0,0,0,0,-1,1147,449,0.205117,11.2584
-70,575,-4.2467,-1.78738,0,0,0,0,0,0,0,-1,1154,449,-4.24674,1.78739
-63,575,-4.52209,-3.48798,0,0,0,0,0,0,0,-1,1161,449,-4.5221,3.48796
-56,575,-5.5968,-5.4928,0,0,0,0,0,0,0,-1,1168,449,-5.59683,5.49281
-49,575,-5.96863,-7.17612,0,0,0,0,0,0,0,-1,1175,449,-5.96868,7.1761
-42,575,-0.830322,0.773499,0,0,0,0,0,0,0,-1,1182,449,-0.83038,-0.77351
-35,575,-0.62085,0.205139,0,0,0,0,0,0,0,-1,1189,449,-0.620855,-0.205126
-28,575,0.49292,-3.87988,0,0,0,0,0,0,0,-1,1196,449,0.492941,3.87989
-21,575,0.949585,-33.6216,0,0,0,0,0,0,0,-1,1203,449,0.949623,33.6216
-14,575,1.48694,-32.9409,0,0,0,0,0,0,0,-1,1210,449,1.48697,32.9409
-7,575,-0.171021,-27.8252,0,0,0,0,0,0,0,-1,1217,449,-0.17096,27.8252
0,575,0.404907,-27.752,0,0,0,0,0,0,0,-1,1224,449,0.404947,27.7521
7,575,1.06592,-27.5974,0,0,0,0,0,0,0,-1,1231,449,1.06597,27.5974
14,575,1.70825,-27.465,0,0,0,0,0,0,0,-1,1238,449,1.70824,27.465
21,575,2.83948,-26.2388,0.0638566,0.00465412,0.0379323,0.0823708,-0.01386,0.45407,0.0600692,0.0455655,1245,449,2.83949,26.2388
28,575,3.29395,-25.5338,0.0640179,0.00534128,0.0292376,0.0760991,-0.00673986,0.391839,0.0531221,0.0444445,1252,449,3.29399,25.5338
35,575,3.5105,-24.767,0.0650581,0.0057755,0.0202441,0.0713115,-0.000477925,0.299602,0.0477011,0.0439315,1259,449,3.51046,24.767
42,575,3.75659,-24.1543,0.0681989,0.00610809,0.00968216,0.0696737,0.00463333,0.151156,0.0449843,0.0438583,1266,449,3.75658,24.1543
49,575,2.06079,-26.9552,0.0706676,0.000146883,-0.00140814,0.0706958,0.000118773,-0.0199571,0.047091,0.0469631,1273,449,2.06075,26.9552
56,575,2.2522,-27.3625,0,0,0,0,0,0,0,-1,1280,449,2.25222,27.3625
63,575,5.2583,-27.994,0,0,0,0,0,0,0,-1,1287,449,5.25831,27.994
70,575,5.16589,-27.4713,0,0,0,0,0,0,0,-1,1294,449,5.16595,27.4713
77,575,5.07361,-26.9486,0,0,0,0,0,0,0,-1,1301,449,5.07359,26.9486
84,575,4.16125,-27.9746,0.0529379,-0.027162,-0.0267247,0.0610357,-0.0352598,-0.294215,0.0562562,0.0463483,1308,449,4.16126,27.9746
91,575,4.39063,-28.0532,0.044739,-0.0316141,-0.0255502,0.0525001,-0.0393751,-0.294899,0.0532243,0.0479545,1315,449,4.39057,28.0532
98,575,4.07581,-28.9734,0.0364605,-0.0354189,-0.0222454,0.042788,-0.0417464,-0.277124,0.0488072,0.0458845,1322,449,4.07582,28.9734
105,575,3.64539,-29.39,0,0,0,0,0,0,0,-1,1329,449,3.64539,29.39
112,575,4.85413,-27.8667,0,0,0,0,0,0,0,-1,1336,449,4.85414,27.8667
119,575,4.15051,-27.5734,0,0,0,0,0,0,0,-1,1343,449,4.15052,27.5734
126,575,6.69751,-24.0744,0,0,0,0,0,0,0,-1,1350,449,6.69751,24.0744
133,575,6.22009,-23.9469,-0.00103027,-0.0600987,-0.00421419,-0.000731131,-0.0603978,-0.0708658,0.0400237,0.0464405,1357,449,6.22008,23.9469
140,575,5.73572,-23.8046,-0.00370438,-0.0615724,-0.0021654,-0.00362346,-0.0616533,-0.03735,0.0399492,0.0466165,1364,449,5.7357,23.8046
147,575,5.29626,-23.6512,0,0,0,0,0,0,0,-1,1371,449,5.29625,23.6512
154,575,5.50195,-24.1808,0,0,0,0,0,0,0,-1,1378,449,5.502,24.1808
161,575,7.25488,-24.5802,0,0,0,0,0,0,0,-1,1385,449,7.25488,24.5802
168,575,4.30603,-21.5567,0,0,0,0,0,0,0,-1,1392,449,4.30599,21.5567
175,575,4.32617,1.93634,0,0,0,0,0,0,0,-1,1399,449,4.32612,-1.93634
182,575,6.3147,-2.88345,0,0,0,0,0,0,0,-1,1406,449,6.31466,2.88346
189,575,6.10449,-1.30817,0,0,0,0,0,0,0,-1,1413,449,6.10455,1.30817
196,575,5.79895,0.818359,0,0,0,0,0,0,0,-1,1420,449,5.79895,-0.81837
203,575,3.29724,-1.46378,0,0,0,0,0,0,0,-1,1427,449,3.29722,1.46377
210,575,2.32739,-7.74503,0,0,0,0,0,0,0,-1,1434,449,2.32741,7.74502
217,575,3.33618,-11.5521,0,0,0,0,0,0,0,-1,1441,449,3.3362,11.5521
224,575,5.51709,-16.3903,0,0,0,0,0,0,0,-1,1448,449,5.51713,16.3903
231,575,5.48572,-20.4595,0,0,0,0,0,0,0,-1,1455,449,5.48571,20.4595
238,575,5.33484,-22.3575,0,0,0,0,0,0,0,-1,1462,449,5.33478,22.3575
245,575,5.59741,-23.513,0,0,0,0,0,0,0,-1,1469,449,5.5974,23.513
252,575,5.66614,-23.7767,0,0,0,0,0,0,0,-1,1476,449,5.6661,23.7767
259,575,5.54358,-23.4894,0,0,0,0,0,0,0,-1,1483,449,5.54355,23.4894
266,575,5.5957,-23.0662,0,0,0,0,0,0,0,-1,1490,449,5.59565,23.0662
273,575,5.65918,-22.6534,0,0,0,0,0,0,0,-1,1497,449,5.65922,22.6534
280,575,5.69885,-22.3239,0,0,0,0,0,0,0,-1,1504,449,5.69889,22.3239
287,575,5.66736,-22.0324,0.00384116,-0.000515161,-0.000364225,0.0038714,-0.000545403,-0.0828421,0.00278062,0.0232229,1511,449,5.66736,22.0324
294,575,5.76111,-21.717,0.00347038,-0.00104303,-0.000653286,0.00356304,-0.00113569,-0.140892,0.0028309,0.010614,1518,449,5.76109,21.717
301,575,5.7948,-21.4316,0.00304055,-0.00124427,-0.000791891,0.00318222,-0.00138594,-0.177026,0.00270454,0.00987264,1525,449,5.79479,21.4316
308,575,5.79834,-21.1388,0.00261938,-0.00170707,-0.000904064,0.00280069,-0.00188838,-0.197931,0.00272427,0.0110925,1532,449,5.79832,21.1388
315,575,5.78064,-20.8319,0.00214731,-0.0017951,-0.00100467,0.00238857,-0.00203636,-0.235677,0.00255744,0.0107569,1539,449,5.78064,20.8319
322,575,5.80603,-20.5325,0.00169945,-0.00159067,-0.000951175,0.00195464,-0.00184586,-0.262118,0.00219452,0.00951923,1546,449,5.80604,20.5325
329,575,5.79773,-20.2366,0.00131228,-0.00124802,-0.000757722,0.00151972,-0.00145546,-0.267222,0.00171785,0.0101052,1553,449,5.79774,20.2366
336,575,5.7832,-19.9187,0.000970593,-0.00085925,-0.000518517,0.00110731,-0.000995966,-0.2578,0.00121489,0.0119883,1560,449,5.78326,19.9187
343,575,5.8053,-19.5757,0.000649827,-0.000409533,-0.000269434,0.000714416,-0.000474121,-0.235281,0.000690861,0.0120252,1567,449,5.80524,19.5757
350,575,5.80249,-19.2372,0.000468926,0.000200096,0.000126442,0.000519051,0.000149971,0.377422,0.000308446,0.0114583,1574,449,5.80244,19.2372
357,575,5.78662,-18.8999,0.000272967,0.000817192,0.000506909,0.00112041,-3.02485e-05,1.03173,0.000757223,0.0113821,1581,449,5.78657,18.8999
364,575,5.76892,-18.5632,8.22002e-05,0.00137542,0.000883072,0.0018233,-0.000365686,1.10141,0.00135399,0.0107487,1588,449,5.76888,18.5632
371,575,5.76575,-18.2438,-7.36843e-05,0.00190367,0.00125538,0.00251295,-0.000682962,1.11895,0.00194338,0.0182088,1595,449,5.76576,18.2438
378,575,5.78711,-17.8912,-0.000298904,0.00241251,0.00155325,0.00311848,-0.00100488,1.14419,0.00248269,0.017023,1602,449,5.78705,17.8912
385,575,5.76147,-17.5251,-0.000598261,0.00281431,0.00167587,0.00349967,-0.00128362,1.18259,0.00285872,0.0111837,1609,449,5.76145,17.5252
392,575,5.74329,-17.1787,-0.000786554,0.00314022,0.00179412,0.00383649,-0.00148282,1.20061,0.00316973,0.00955417,1616,449,5.74331,17.1787
399,575,5.72949,-16.8445,-0.0007781,0.0034861,0.00210668,0.00435133,-0.00164333,1.1811,0.00357679,0.0101973,1623,449,5.72955,16.8445
406,575,5.70996,-16.4485,-0.000752759,0.00411118,0.00266462,0.00528679,-0.00192837,1.15529,0.00431348,0.0113872,1630,449,5.70997,16.4485
413,575,5.68469,-16.0438,-0.000938388,0.00435628,0.0029015,0.00563668,-0.00221879,1.15521,0.00467627,0.0132001,1637,449,5.68469,16.0438
420,575,5.65002,-15.659,-0.000691486,0.00458301,0.0030764,0.00599784,-0.00210631,1.13974,0.00485542,0.0136434,1644,449,5.65,15.659
427,575,5.6134,-15.2755,-0.00064367,0.00413252,0.00396165,0.00637019,-0.00288134,1.05664,0.00546651,0.0177935,1651,449,5.61339,15.2755
434,575,5.49182,-14.9636,-0.00141236,0.00121387,0.00575151,0.00580026,-0.00599875,0.897628,0.00681248,0.0287483,1658,449,5.4918,14.9636
441,575,5.38013,-14.6481,0,0,0,0,0,0,0,-1,1665,449,5.38008,14.6481
448,575,6.09106,-13.8892,0,0,0,0,0,0,0,-1,1672,449,6.09105,13.8892
455,575,6.24585,-13.304,0,0,0,0,0,0,0,-1,1679,449,6.24583,13.304
462,575,4.74707,-12.7634,0,0,0,0,0,0,0,-1,1686,449,4.74705,12.7634
469,575,4.89185,-12.9652,0,0,0,0,0,0,0,-1,1693,449,4.89183,12.9652
476,575,5.23291,-12.7893,0,0,0,0,0,0,0,-1,1700,449,5.23295,12.7893
483,575,5.6178,-12.5074,-0.0124392,-0.0363497,0.022738,0.00129489,-0.0500838,0.543368,0.0338291,0.0459094,1707,449,5.61776,12.5074
490,575,5.41748,-12.0962,0,0,0,0,0,0,0,-1,1714,449,5.41751,12.0962
497,575,0,0,0,0,0,0,0,0,0,-1,1721,449,0,0
504,575,0,0,0,0,0,0,0,0,0,-1,1728,449,0,0
511,575,0,0,0,0,0,0,0,0,0,-1,1735,449,0,0
518,575,0,0,0,0,0,0,0,0,0,-1,1742,449,0,0
525,575,0,0,0,0,0,0,0,0,0,-1,1749,449,0,0
532,575,0,0,0,0,0,0,0,0,0,-1,1756,449,0,0
539,575,0,0,0,0,0,0,0,0,0,-1,1763,449,0,0
546,575,0,0,0,0,0,0,0,0,0,-1,1770,449,0,0
553,575,0,0,0,0,0,0,0,0,0,-1,1777,449,0,0
560,575,0,0,0,0,0,0,0,0,0,-1,1784,449,0,0
567,575,0,0,0,0,0,0,0,0,0,-1,1791,449,0,0
574,575,0,0,0,0,0,0,0,0,0,-1,1798,449,0,0
581,575,0,0,0,0,0,0,0,0,0,-1,1805,449,0,0
588,575,0,0,0,0,0,0,0,0,0,-1,1812,449,0,0
595,575,0,0,0,0,0,0,0,0,0,-1,1819,449,0,0
602,575,0,0,0,0,0,0,0,0,0,-1,1826,449,0,0
609,575,0,0,0,0,0,0,0,0,0,-1,1833,449,0,0
616,575,0,0,0,0,0,0,0,0,0,-1,1840,449,0,0
623,575,0,0,0,0,0,0,0,0,0,-1,1847,449,0,0
630,575,0,0,0,0,0,0,0,0,0,-1,1854,449,0,0
637,575,0,0,0,0,0,0,0,0,0,-1,1861,449,0,0
644,575,0,0,0,0,0,0,0,0,0,-1,1868,449,0,0
651,575,0,0,0,0,0,0,0,0,0,-1,1875,449,0,0
658,575,0,0,0,0,0,0,0,0,0,-1,1882,449,0,0
665,575,0,0,0,0,0,0,0,0,0,-1,1889,449,0,0
672,575,0,0,0,0,0,0,0,0,0,-1,1896,449,0,0
679,575,0,0,0,0,0,0,0,0,0,-1,1903,449,0,0
686,575,0,0,0,0,0,0,0,0,0,-1,1910,449,0,0
693,575,0,0,0,0,0,0,0,0,0,-1,1917,449,0,0
700,575,0,0,0,0,0,0,0,0,0,-1,1924,449,0,0
707,575,0,0,0,0,0,0,0,0,0,-1,1931,449,0,0
714,575,0,0,0,0,0,0,0,0,0,-1,1938,449,0,0
721,575,0,0,0,0,0,0,0,0,0,-1,1945,449,0,0
728,575,0,0,0,0,0,0,0,0,0,-1,1952,449,0,0
735,575,0,0,0,0,0,0,0,0,0,-1,1959,449,0,0
742,575,0,0,0,0,0,0,0,0,0,-1,1966,449,0,0
749,575,0,0,0,0,0,0,0,0,0,-1,1973,449,0,0
756,575,0,0,0,0,0,0,0,0,0,-1,1980,449,0,0
763,575,0,0,0,0,0,0,0,0,0,-1,1987,449,0,0
770,575,0,0,0,0,0,0,0,0,0,-1,1994,449,0,0
777,575,0,0,0,0,0,0,0,0,0,-1,2001,449,0,0
784,575,0,0,0,0,0,0,0,0,0,-1,2008,449,0,0
791,575,0,0,0,0,0,0,0,0,0,-1,2015,449,0,0
798,575,0,0,0,0,0,0,0,0,0,-1,2022,449,0,0
805,575,0,0,0,0,0,0,0,0,0,-1,2029,449,0,0
812,575,0,0,0,0,0,0,0,0,0,-1,2036,449,0,0
-700,568,0,0,0,0,0,0,0,0,0,-1,524,456,0,0
-693,568,0,0,0,0,0,0,0,0,0,-1,531,456,0,0
-686,568,0,0,0,0,0,0,0,0,0,-1,538,456,0,0
-679,568,0,0,0,0,0,0,0,0,0,-1,545,456,0,0
-672,568,0,0,0,0,0,0,0,0,0,-1,552,456,0,0
-665,568,0,0,0,0,0,0,0,0,0,-1,559,456,0,0
-658,568,0,0,0,0,0,0,0,0,0,-1,566,456,0,0
-651,568,0,0,0,0,0,0,0,0,0,-1,573,456,0,0
-644,568,0,0,0,0,0,0,0,0,0,-1,580,456,0,0
-637,568,0,0,0,0,0,0,0,0,0,-1,587,456,0,0
-630,568,0,0,0,0,0,0,0,0,0,-1,594,456,0,0
-623,568,0,0,0,0,0,0,0,0,0,-1,601,456,0,0
-616,568,0,0,0,0,0,0,0,0,0,-1,608,456,0,0
-609,568,0,0,0,0,0,0,0,0,0,-1,615,456,0,0
-602,568,0,0,0,0,0,0,0,0,0,-1,622,456,0,0
-595,568,0,0,0,0,0,0,0,0,0,-1,629,456,0,0
-588,568,0,0,0,0,0,0,0,0,0,-1,636,456,0,0
-581,568,0,0,0,0,0,0,0,0,0,-1,643,456,0,0
-574,568,0,0,0,0,0,0,0,0,0,-1,650,456,0,0
-567,568,0,0,0,0,0,0,0,0,0,-1,657,456,0,0
-560,568,0,0,0,0,0,0,0,0,0,-1,664,456,0,0
-553,568,0,0,0,0,0,0,0,0,0,-1,671,456,0,0
-546,568,0,0,0,0,0,0,0,0,0,-1,678,456,0,0
-539,568,0,0,0,0,0,0,0,0,0,-1,685,456,0,0
-532,568,0,0,0,0,0,0,0,0,0,-1,692,456,0,0
-525,568,0,0,0,0,0,0,0,0,0,-1,699,456,0,0
-518,568,0,0,0,0,0,0,0,0,0,-1,706,456,0,0
-511,568,0,0,0,0,0,0,0,0,0,-1,713,456,0,0
-504,568,0,0,0,0,0,0,0,0,0,-1,720,456,0,0
-497,568,0,0,0,0,0,0,0,0,0,-1,727,456,0,0
-490,568,0,0,0,0,0,0,0,0,0,-1,734,456,0,0
-483,568,0,0,0,0,0,0,0,0,0,-1,741,456,0,0
-476,568,0,0,0,0,0,0,0,0,0,-1,748,456,0,0
-469,568,0,0,0,0,0,0,0,0,0,-1,755,456,0,0
-462,568,0,0,0,0,0,0,0,0,0,-1,762,456,0,0
-455,568,0,0,0,0,0,0,0,0,0,-1,769,456,0,0
-448,568,0,0,0,0,0,0,0,0,0,-1,776,456,0,0
-441,568,0,0,0,0,0,0,0,0,0,-1,783,456,0,0
-434,568,0,0,0,0,0,0,0,0,0,-1,790,456,0,0
-427,568,0,0,0,0,0,0,0,0,0,-1,797,456,0,0
-420,568,0,0,0,0,0,0,0,0,0,-1,804,456,0,0
-413,568,0,0,0,0,0,0,0,0,0,-1,811,456,0,0
-406,568,0,0,0,0,0,0,0,0,0,-1,818,456,0,0
-399,568,0,0,0,0,0,0,0,0,0,-1,825,456,0,0
-392,568,0,0,0,0,0,0,0,0,0,-1,832,456,0,0
-385,568,0,0,0,0,0,0,0,0,0,-1,839,456,0,0
-378,568,0.321777,-7.29929,0,0,0,0,0,0,0,-1,846,456,0.321806,7.29927
-371,568,1.09595,-7.46707,0,0,0,0,0,0,0,-1,853,456,1.09597,7.46707
-364,568,1.87787,-7.61115,0,0,0,0,0,0,0,-1,860,456,1.87784,7.61116
-357,568,2.14166,-7.67645,0,0,0,0,0,0,0,-1,867,456,2.14167,7.67646
-350,568,2.7467,-11.2507,0,0,0,0,0,0,0,-1,874,456,2.7467,11.2507
-343,568,2.16516,-11.3762,0,0,0,0,0,0,0,-1,881,456,2.16514,11.3762
-336,568,0.934448,-16.5759,0,0,0,0,0,0,0,-1,888,456,0.934464,16.5759
-329,568,1.1803,-16.2015,0.0228559,-0.0194066,-0.00394704,0.0232214,-0.0197721,-0.0923294,0.0248489,0.0456531,895,456,1.18029,16.2015
-322,568,1.33868,-15.5822,0.0187582,-0.0133123,-0.00455069,0.0193915,-0.0139455,-0.138261,0.0193325,0.041315,902,456,1.33867,15.5822
-315,568,1.62781,-15.637,0.0150036,-0.00834821,-0.00518057,0.0161013,-0.00944591,-0.2088,0.0149156,0.0384955,909,456,1.6278,15.637
-308,568,1.66925,-16.0349,0.0118034,-0.00428147,-0.00562647,0.0135761,-0.00605422,-0.305228,0.0116076,0.0286479,916,456,1.66923,16.0349
-301,568,1.6792,-16.5024,0.00902922,-0.00149666,-0.0057305,0.0115468,-0.00401428,-0.413952,0.00932849,0.0163249,923,456,1.67918,16.5024
-294,568,1.6543,-16.8451,0.0065761,8.53533e-05,-0.00518972,0.00945164,-0.00279019,-0.505974,0.00740842,0.0118358,930,456,1.65431,16.8451
-287,568,1.64655,-17.2154,0.00450723,0.00154013,-0.00465272,0.00790719,-0.00185984,-0.631065,0.00598846,0.0105143,937,456,1.64655,17.2154
-280,568,1.6402,-17.5969,0.00297624,0.00211363,-0.0041009,0.00666845,-0.00157858,-0.733004,0.00505467,0.0107731,944,456,1.64018,17.5969
-273,568,1.6167,-17.9596,0.00184427,0.0027969,-0.00356638,0.00591862,-0.00127746,-0.851784,0.00443335,0.0114112,951,456,1.61669,17.9596
-266,568,1.59528,-18.3029,0.000871951,0.00233196,-0.00276321,0.00445997,-0.00125605,-0.914542,0.00346865,0.0109892,958,456,1.59529,18.3029
-259,568,1.58868,-18.629,0.000690417,0.00133552,-0.00201659,0.00305519,-0.00102925,-0.864702,0.00245294,0.0117834,965,456,1.58867,18.629
-252,568,1.55682,-18.9485,0.000946132,0.000278305,-0.00135151,0.00200437,-0.000779932,-0.66429,0.00165852,0.011755,972,456,1.55683,18.9484
-245,568,1.53247,-19.2568,0.00139935,-0.000879995,-0.000792863,0.00164802,-0.00112866,-0.303915,0.00161244,0.0140685,979,456,1.53245,19.2568
-238,568,1.539,-19.5773,0.00196488,-0.00219789,-0.000324889,0.00199009,-0.00222309,-0.0774217,0.00243372,0.0135862,986,456,1.53898,19.5773
-231,568,1.53125,-19.8881,0.00268408,-0.00346308,-5.06102e-05,0.00268449,-0.0034635,-0.00823235,0.00355903,0.0117588,993,456,1.53127,19.8881
-224,568,1.51563,-20.1786,0.0034865,-0.0045245,7.09728e-05,0.00348713,-0.00452513,0.00885849,0.0046388,0.0134141,1000,456,1.51561,20.1786
-217,568,1.53546,-20.4912,0.00419734,-0.00551482,0.000176719,0.00420055,-0.00551803,0.0181876,0.00562819,0.011244,1007,456,1.53548,20.4912
-210,568,1.56042,-20.8197,0.00482696,-0.00650279,0.000198263,0.00483043,-0.00650625,0.0174922,0.00656903,0.0106563,1014,456,1.56041,20.8197
-203,568,1.57153,-21.0993,0.00536752,-0.00715777,0.000100499,0.00536833,-0.00715858,0.00802302,0.00725699,0.0101373,1021,456,1.57156,21.0993
-196,568,1.59473,-21.3643,0.0056715,-0.0077751,0.000163753,0.0056735,-0.00777709,0.0121756,0.00779729,0.0140371,1028,456,1.59468,21.3643
-189,568,1.58887,-21.6443,0.00582398,-0.00820553,0.000366432,0.00583354,-0.0082151,0.0260949,0.00814974,0.014202,1035,456,1.58881,21.6444
-182,568,1.58569,-21.9251,0.00582848,-0.00844386,0.000652224,0.00585822,-0.00847361,0.0455718,0.00832029,0.0153662,1042,456,1.58574,21.9251
-175,568,1.59888,-22.1809,0.0057194,-0.00866848,0.0010234,0.00579183,-0.00874091,0.070655,0.00844787,0.0137425,1049,456,1.59883,22.1809
-168,568,1.60132,-22.3599,0.0056003,-0.00888939,0.00128551,0.00571347,-0.00900256,0.0878051,0.00856675,0.0185747,1056,456,1.60129,22.3599
-161,568,1.57349,-22.572,0.00476805,-0.00892992,0.00128352,0.00488728,-0.00904915,0.0926273,0.00816492,0.0320219,1063,456,1.57353,22.572
-154,568,1.77734,-23.0327,0.00307902,-0.00902116,0.0023881,0.00353328,-0.00947543,0.187974,0.00776737,0.0442343,1070,456,1.77735,23.0327
-147,568,2.07593,-23.4162,0,0,0,0,0,0,0,-1,1077,456,2.07599,23.4162
-140,568,1.68787,-23.4475,0,0,0,0,0,0,0,-1,1084,456,1.68787,23.4475
-133,568,1.7854,-23.2253,0,0,0,0,0,0,0,-1,1091,456,1.78545,23.2253
-126,568,1.67834,-23.2566,0,0,0,0,0,0,0,-1,1098,456,1.67839,23.2566
-119,568,1.36462,-23.6322,0,0,0,0,0,0,0,-1,1105,456,1.36462,23.6322
-112,568,1.63464,-23.8998,0,0,0,0,0,0,0,-1,1112,456,1.6347,23.8999
-105,568,0.272095,-16.297,0,0,0,0,0,0,0,-1,1119,456,0.272141,16.297
-98,568,1.58618,-14.7874,0,0,0,0,0,0,0,-1,1126,456,1.58617,14.7874
-91,568,1.11621,-11.1853,0,0,0,0,0,0,0,-1,1133,456,1.11626,11.1853
-84,568,0.461792,-9.7959,0,0,0,0,0,0,0,-1,1140,456,0.461793,9.7959
-77,568,-1.13806,-8.57822,0,0,0,0,0,0,0,-1,1147,456,-1.13807,8.57821
-70,568,-4.09766,-1.42911,0,0,0,0,0,0,0,-1,1154,456,-4.09767,1.4291
-63,568,-5.92273,-3.70752,0,0,0,0,0,0,0,-1,1161,456,-5.92272,3.70751
-56,568,-5.24158,-6.01385,0,0,0,0,0,0,0,-1,1168,456,-5.24161,6.01386
-49,568,-5.24365,-8.33557,0,0,0,0,0,0,0,-1,1175,456,-5.24371,8.33557
-42,568,-0.664795,0.521973,0,0,0,0,0,0,0,-1,1182,456,-0.664829,-0.521984
-35,568,-0.153076,-1.67731,0,0,0,0,0,0,0,-1,1189,456,-0.153068,1.67731
-28,568,1.25439,-4.48798,0,0,0,0,0,0,0,-1,1196,456,1.2544,4.48797
-21,568,0.220825,-33.2538,0,0,0,0,0,0,0,-1,1203,456,0.220788,33.2538
-14,568,0.838135,-32.5915,0,0,0,0,0,0,0,-1,1210,456,0.838161,32.5915
-7,568,1.45557,-31.9293,0,0,0,0,0,0,0,-1,1217,456,1.45553,31.9293
0,568,-0.0294189,-28.0293,0,0,0,0,0,0,0,-1,1224,456,-0.0293758,28.0293
7,568,0.738159,-28.1676,0.0747102,0.00441845,0.062132,0.110948,-0.0318193,0.528003,0.086544,0.0466207,1231,456,0.738188,28.1676
14,568,1.33887,-27.4762,0.0742284,0.00965778,0.0557,0.106323,-0.0224373,0.522745,0.079425,0.0466135,1238,456,1.33887,27.4762
21,568,2.12158,-26.5736,0.0761201,0.00939553,0.0468197,0.100248,-0.0147324,0.475842,0.0722454,0.0456191,1245,456,2.12154,26.5736
28,568,2.65332,-25.8827,0.0777223,0.00977786,0.0369291,0.0939284,-0.00642831,0.413539,0.064868,0.0451586,1252,456,2.65338,25.8827
35,568,2.93994,-25.1698,0.0804352,0.00909632,0.0266796,0.0893091,0.000222407,0.3211,0.0594654,0.0449622,1259,456,2.93991,25.1698
42,568,3.22314,-24.625,0,0,0,0,0,0,0,-1,1266,456,3.22319,24.625
49,568,4.00928,-23.8372,0,0,0,0,0,0,0,-1,1273,456,4.00922,23.8373
56,568,4.76306,-22.799,0.0905033,-0.011012,-0.00877896,0.0912569,-0.0117656,-0.085632,0.0651151,0.0412834,1280,456,4.76308,22.799
63,568,4.79321,-29.0268,0.0884685,-0.0197462,-0.0163852,0.0908951,-0.0221728,-0.147025,0.0691824,0.0431541,1287,456,4.79326,29.0268
70,568,5.43091,-27.8202,0.0838004,-0.027506,-0.022347,0.0881194,-0.0318251,-0.190917,0.0717473,0.0451548,1294,456,5.43089,27.8202
77,568,5.8313,-26.6695,0,0,0,0,0,0,0,-1,1301,456,5.83133,26.6695
84,568,4.1012,-28.3029,0.0673409,-0.0405444,-0.0285606,0.0744353,-0.0476388,-0.243469,0.0710432,0.0483768,1308,456,4.10115,28.3028
91,568,4.51904,-27.9937,0.0562452,-0.0447136,-0.0271495,0.063083,-0.0515514,-0.246727,0.0662957,0.0422876,1315,456,4.519,27.9937
98,568,4.35571,-28.3279,0.0447484,-0.0477488,-0.0230302,0.0501653,-0.0531657,-0.23101,0.0596666,0.0425374,1322,456,4.35574,28.328
105,568,3.98633,-28.0759,0.0335423,-0.0537265,-0.0191892,0.0375753,-0.0577595,-0.207159,0.0554513,0.0439143,1329,456,3.98632,28.0759
112,568,3.88794,-27.8013,0,0,0,0,0,0,0,-1,1336,456,3.88791,27.8013
119,568,3.4209,-27.1349,0,0,0,0,0,0,0,-1,1343,456,3.42085,27.1349
126,568,2.62842,-27.182,0,0,0,0,0,0,0,-1,1350,456,2.62842,27.182
133,568,6.72998,-23.3461,0,0,0,0,0,0,0,-1,1357,456,6.73,23.3461
140,568,6.22656,-23.0809,-0.0073636,-0.0696749,0.00351548,-0.00716589,-0.0698726,0.0561804,0.0443863,0.0486729,1364,456,6.22651,23.0809
147,568,6.3374,-23.3541,-0.00872774,-0.0653384,0.00447093,-0.00837681,-0.0656893,0.0783297,0.0412848,0.0496649,1371,456,6.33735,23.3541
154,568,6.15857,-23.4238,0,0,0,0,0,0,0,-1,1378,456,6.15854,23.4238
161,568,6.04175,-23.4911,0,0,0,0,0,0,0,-1,1385,456,6.04173,23.4911
168,568,7.26782,-25.2079,0,0,0,0,0,0,0,-1,1392,456,7.26784,25.2079
175,568,10.5151,0.747498,0,0,0,0,0,0,0,-1,1399,456,10.5152,-0.747501
182,568,6.35095,-3.63361,0,0,0,0,0,0,0,-1,1406,456,6.35093,3.63359
189,568,6.17493,-1.70911,0,0,0,0,0,0,0,-1,1413,456,6.17497,1.70911
196,568,6.04724,0.200836,0,0,0,0,0,0,0,-1,1420,456,6.04724,-0.200835
203,568,5.9281,2.08649,0,0,0,0,0,0,0,-1,1427,456,5.92812,-2.08648
210,568,1.46216,-2.50446,0,0,0,0,0,0,0,-1,1434,456,1.46219,2.50446
217,568,2.62366,-7.86703,0,0,0,0,0,0,0,-1,1441,456,2.62365,7.86704
224,568,3.43494,-12.1555,0,0,0,0,0,0,0,-1,1448,456,3.43492,12.1555
231,568,4.38245,-9.3205,0,0,0,0,0,0,0,-1,1455,456,4.38244,9.32048
238,568,5.88879,-20.7448,0,0,0,0,0,0,0,-1,1462,456,5.88876,20.7449
245,568,3.34387,-10.6774,0,0,0,0,0,0,0,-1,1469,456,3.34389,10.6774
252,568,3.56946,-9.28928,0,0,0,0,0,0,0,-1,1476,456,3.56948,9.28928
259,568,3.38843,-8.73068,0,0,0,0,0,0,0,-1,1483,456,3.38842,8.73068
266,568,3.104,-9.16876,0,0,0,0,0,0,0,-1,1490,456,3.10397,9.16876
273,568,3.77869,-13.1147,0,0,0,0,0,0,0,-1,1497,456,3.77869,13.1147
280,568,4.40002,-14.9322,0,0,0,0,0,0,0,-1,1504,456,4.4,14.9322
287,568,5.95691,-22.1247,0,0,0,0,0,0,0,-1,1511,456,5.95689,22.1247
294,568,6.11877,-21.6533,0.00472214,-0.0022795,-0.00107816,0.0048844,-0.00244176,-0.149377,0.00430741,0.031647,1518,456,6.11873,21.6533
301,568,6.08875,-21.3975,0.00412991,-0.00253204,-0.00132983,0.00438555,-0.00278769,-0.189921,0.00417558,0.0209385,1525,456,6.08871,21.3975
308,568,6.1062,-21.1019,0.00349284,-0.00318404,-0.00159047,0.00385235,-0.00354354,-0.2223,0.00427126,0.0140546,1532,456,6.10618,21.1019
315,568,6.09326,-20.8292,0.00277616,-0.00333418,-0.00180543,0.00326975,-0.00382776,-0.266867,0.00410197,0.00823799,1539,456,6.09322,20.8292
322,568,6.09875,-20.54,0.00211739,-0.00310934,-0.00180395,0.00267954,-0.00367149,-0.302086,0.00368165,0.00988399,1546,456,6.09876,20.54
329,568,6.10254,-20.2159,0.00157926,-0.00269139,-0.00162871,0.00212951,-0.00324164,-0.325805,0.00312311,0.0104893,1553,456,6.10253,20.2159
336,568,6.10339,-19.8771,0.00112238,-0.00222414,-0.00140521,0.00163417,-0.00273592,-0.349272,0.00254966,0.0112147,1560,456,6.10343,19.8771
343,568,6.13867,-19.5567,0.00068198,-0.00168942,-0.00117023,0.00116221,-0.00216965,-0.389416,0.00195274,0.0112015,1567,456,6.13866,19.5567
350,568,6.14514,-19.254,0.000433008,-0.00105871,-0.000763508,0.000754506,-0.00138021,-0.398545,0.00125,0.0103943,1574,456,6.14516,19.254
357,568,6.12817,-18.9059,0.000208637,-0.000356895,-0.000383457,0.000402312,-0.00055057,-0.4677,0.000552362,0.00939649,1581,456,6.12816,18.9058
364,568,6.11951,-18.5699,4.85498e-05,0.00026876,4.49537e-05,0.000277583,3.97265e-05,1.37698,0.000173338,0.0111678,1588,456,6.11945,18.5699
371,568,6.13306,-18.2345,-5.77677e-05,0.000830782,0.000470848,0.00103387,-0.000260855,1.16358,0.000790673,0.0201423,1595,456,6.13301,18.2345
378,568,6.14978,-17.8624,-0.000199067,0.00135961,0.000822842,0.0017136,-0.000553058,1.16452,0.00136464,0.0179876,1602,456,6.14977,17.8624
385,568,6.10034,-17.5171,-0.0003864,0.00185843,0.00103421,0.00226226,-0.000790223,1.19854,0.00182938,0.00944758,1609,456,6.1003,17.5171
392,568,6.07825,-17.1843,-0.000489684,0.00219397,0.00123922,0.00267866,-0.000974373,1.19796,0.00218425,0.0105215,1616,456,6.07819,17.1843
399,568,6.0531,-16.8653,-0.000455045,0.00250505,0.0015858,0.00319418,-0.00114417,1.16086,0.00259629,0.0174084,1623,456,6.05316,16.8653
406,568,6.05676,-16.4814,-0.000424284,0.00302498,0.00211585,0.00403003,-0.00142934,1.12734,0.00326901,0.0157339,1630,456,6.05674,16.4814
413,568,6.04663,-16.0592,-0.000564376,0.00326684,0.00238918,0.00441354,-0.00171108,1.12331,0.00364899,0.0119086,1637,456,6.04665,16.0592
420,568,6.0304,-15.6589,-0.000397437,0.00344706,0.00261272,0.00476847,-0.00171885,1.10255,0.00388095,0.0103071,1644,456,6.03036,15.6589
427,568,6.00562,-15.258,-0.000423432,0.00314599,0.00339593,0.00519762,-0.00247506,1.02734,0.00452183,0.0126577,1651,456,6.00561,15.258
434,568,6.00366,-14.8743,-0.00105494,0.000969414,0.00480763,0.00487026,-0.00495579,0.889151,0.00567315,0.0177745,1658,456,6.00361,14.8743
441,568,6.00769,-14.5474,-0.00132425,-0.000483958,0.00598618,0.0050968,-0.00690501,0.820433,0.00695541,0.0249879,1665,456,6.00771,14.5474
448,568,6.23315,-14.0045,-0.00194376,-0.00262271,0.00743846,0.00516297,-0.00972944,0.762595,0.00873183,0.0386035,1672,456,6.23313,14.0045
455,568,6.37878,-13.4188,-0.00286838,-0.00589902,0.00910987,0.00485134,-0.0136187,0.702983,0.0110569,0.0468388,1679,456,6.37882,13.4188
462,568,5.2467,-13.4068,0,0,0,0,0,0,0,-1,1686,456,5.24675,13.4068
469,568,5.50354,-12.9304,-0.00548153,-0.0146921,0.013385,0.00406833,-0.0242419,0.619711,0.0176742,0.0460839,1693,456,5.50353,12.9304
476,568,5.72192,-12.567,-0.0075458,-0.0208482,0.0157388,0.0028895,-0.0312835,0.58548,0.0218825,0.0490384,1700,456,5.72194,12.567
483,568,5.55481,-12.2111,-0.00981276,-0.028412,0.0182739,0.00139168,-0.0396165,0.550026,0.0268869,0.0440761,1707,456,5.55477,12.2111
490,568,5.56055,-12.0277,0,0,0,0,0,0,0,-1,1714,456,5.56057,12.0278
497,568,5.62695,-4.2702,0,0,0,0,0,0,0,-1,1721,456,5.62694,4.27019
504,568,0,0,0,0,0,0,0,0,0,-1,1728,456,0,0
511,568,0,0,0,0,0,0,0,0,0,-1,1735,456,0,0
518,568,0,0,0,0,0,0,0,0,0,-1,1742,456,0,0
525,568,0,0,0,0,0,0,0,0,0,-1,1749,456,0,0
532,568,0,0,0,0,0,0,0,0,0,-1,1756,456,0,0
539,568,0,0,0,0,0,0,0,0,0,-1,1763,456,0,0
546,568,0,0,0,0,0,0,0,0,0,-1,1770,456,0,0
553,568,0,0,0,0,0,0,0,0,0,-1,1777,456,0,0
560,568,0,0,0,0,0,0,0,0,0,-1,1784,456,0,0
567,568,0,0,0,0,0,0,0,0,0,-1,1791,456,0,0
574,568,0,0,0,0,0,0,0,0,0,-1,1798,456,0,0
581,568,0,0,0,0,0,0,0,0,0,-1,1805,456,0,0
588,568,0,0,0,0,0,0,0,0,0,-1,1812,456,0,0
595,568,0,0,0,0,0,0,0,0,0,-1,1819,456,0,0
602,568,0,0,0,0,0,0,0,0,0,-1,1826,456,0,0
609,568,0,0,0,0,0,0,0,0,0,-1,1833,456,0,0
616,568,0,0,0,0,0,0,0,0,0,-1,1840,456,0,0
623,568,0,0,0,0,0,0,0,0,0,-1,1847,456,0,0
630,568,0,0,0,0,0,0,0,0,0,-1,1854,456,0,0
637,568,0,0,0,0,0,0,0,0,0,-1,1861,456,0,0
644,568,0,0,0,0,0,0,0,0,0,-1,1868,456,0,0
651,568,0,0,0,0,0,0,0,0,0,-1,1875,456,0,0
658,568,0,0,0,0,0,0,0,0,0,-1,1882,456,0,0
665,568,0,0,0,0,0,0,0,0,0,-1,1889,456,0,0
672,568,0,0,0,0,0,0,0,0,0,-1,1896,456,0,0
679,568,0,0,0,0,0,0,0,0,0,-1,1903,456,0,0
686,568,0,0,0,0,0,0,0,0,0,-1,1910,456,0,0
693,568,0,0,0,0,0,0,0,0,0,-1,1917,456,0,0
700,568,0,0,0,0,0,0,0,0,0,-1,1924,456,0,0
707,568,0,0,0,0,0,0,0,0,0,-1,1931,456,0,0
714,568,0,0,0,0,0,0,0,0,0,-1,1938,456,0,0
721,568,0,0,0,0,0,0,0,0,0,-1,1945,456,0,0
728,568,0,0,0,0,0,0,0,0,0,-1,1952,456,0,0
735,568,0,0,0,0,0,0,0,0,0,-1,1959,456,0,0
742,568,0,0,0,0,0,0,0,0,0,-1,1966,456,0,0
749,568,0,0,0,0,0,0,0,0,0,-1,1973,456,0,0
756,568,0,0,0,0,0,0,0,0,0,-1,1980,456,0,0
763,568,0,0,0,0,0,0,0,0,0,-1,1987,456,0,0
770,568,0,0,0,0,0,0,0,0,0,-1,1994,456,0,0
777,568,0,0,0,0,0,0,0,0,0,-1,2001,456,0,0
784,568,0,0,0,0,0,0,0,0,0,-1,2008,456,0,0
791,568,0,0,0,0,0,0,0,0,0,-1,2015,456,0,0
798,568,0,0,0,0,0,0,0,0,0,-1,2022,456,0,0
805,568,0,0,0,0,0,0,0,0,0,-1,2029,456,0,0
812,568,0,0,0,0,0,0,0,0,0,-1,2036,456,0,0
-700,561,0,0,0,0,0,0,0,0,0,-1,524,463,0,0
-693,561,0,0,0,0,0,0,0,0,0,-1,531,463,0,0
-686,561,0,0,0,0,0,0,0,0,0,-1,538,463,0,0
-679,561,0,0,0,0,0,0,0,0,0,-1,545,463,0,0
-672,561,0,0,0,0,0,0,0,0,0,-1,552,463,0,0
-665,561,0,0,0,0,0,0,0,0,0,-1,559,463,0,0
-658,561,0,0,0,0,0,0,0,0,0,-1,566,463,0,0
-651,561,0,0,0,0,0,0,0,0,0,-1,573,463,0,0
-644,561,0,0,0,0,0,0,0,0,0,-1,580,463,0,0
-637,561,0,0,0,0,0,0,0,0,0,-1,587,463,0,0
-630,561,0,0,0,0,0,0,0,0,0,-1,594,463,0,0
-623,561,0,0,0,0,0,0,0,0,0,-1,601,463,0,0
-616,561,0,0,0,0,0,0,0,0,0,-1,608,463,0,0
-609,561,0,0,0,0,0,0,0,0,0,-1,615,463,0,0
-602,561,0,0,0,0,0,0,0,0,0,-1,622,463,0,0
-595,561,0,0,0,0,0,0,0,0,0,-1,629,463,0,0
-588,561,0,0,0,0,0,0,0,0,0,-1,636,463,0,0
-581,561,0,0,0,0,0,0,0,0,0,-1,643,463,0,0
-574,561,0,0,0,0,0,0,0,0,0,-1,650,463,0,0
-567,561,0,0,0,0,0,0,0,0,0,-1,657,463,0,0
-560,561,0,0,0,0,0,0,0,0,0,-1,664,463,0,0
-553,561,0,0,0,0,0,0,0,0,0,-1,671,463,0,0
-546,561,0,0,0,0,0,0,0,0,0,-1,678,463,0,0
-539,561,0,0,0,0,0,0,0,0,0,-1,685,463,0,0
-532,561,0,0,0,0,0,0,0,0,0,-1,692,463,0,0
-525,561,0,0,0,0,0,0,0,0,0,-1,699,463,0,0
-518,561,0,0,0,0,0,0,0,0,0,-1,706,463,0,0
-511,561,0,0,0,0,0,0,0,0,0,-1,713,463,0,0
-504,561,0,0,0,0,0,0,0,0,0,-1,720,463,0,0
-497,561,0,0,0,0,0,0,0,0,0,-1,727,463,0,0
-490,561,0,0,0,0,0,0,0,0,0,-1,734,463,0,0
-483,561,0,0,0,0,0,0,0,0,0,-1,741,463,0,0
-476,561,0,0,0,0,0,0,0,0,0,-1,748,463,0,0
-469,561,0,0,0,0,0,0,0,0,0,-1,755,463,0,0
-462,561,0,0,0,0,0,0,0,0,0,-1,762,463,0,0
-455,561,0,0,0,0,0,0,0,0,0,-1,769,463,0,0
-448,561,0,0,0,0,0,0,0,0,0,-1,776,463,0,0
-441,561,0,0,0,0,0,0,0,0,0,-1,783,463,0,0
-434,561,0,0,0,0,0,0,0,0,0,-1,790,463,0,0
-427,561,0,0,0,0,0,0,0,0,0,-1,797,463,0,0
-420,561,0,0,0,0,0,0,0,0,0,-1,804,463,0,0
-413,561,0,0,0,0,0,0,0,0,0,-1,811,463,0,0
-406,561,0,0,0,0,0,0,0,0,0,-1,818,463,0,0
-399,561,0,0,0,0,0,0,0,0,0,-1,825,463,0,0
-392,561,4.92407,-2.54578,0,0,0,0,0,0,0,-1,832,463,4.92408,2.54576
-385,561,5.55634,-1.02338,0,0,0,0,0,0,0,-1,839,463,5.55634,1.02338
-378,561,0.160522,-4.51785,0,0,0,0,0,0,0,-1,846,463,0.160542,4.51785
-371,561,1.06299,-7.56818,0,0,0,0,0,0,0,-1,853,463,1.06297,7.56817
-364,561,1.45264,-7.57684,0,0,0,0,0,0,0,-1,860,463,1.45264,7.57684
-357,561,0.948242,-12.2803,0,0,0,0,0,0,0,-1,867,463,0.948262,12.2803
-350,561,1.33124,-11.9406,0,0,0,0,0,0,0,-1,874,463,1.33127,11.9406
-343,561,1.13214,-14.1837,0,0,0,0,0,0,0,-1,881,463,1.13217,14.1837
-336,561,1.12244,-15.0552,0,0,0,0,0,0,0,-1,888,463,1.12243,15.0552
-329,561,1.1983,-15.2923,0.0164897,-0.0142408,-0.00364587,0.0169163,-0.0146675,-0.116486,0.0182503,0.0405623,895,463,1.19832,15.2923
-322,561,1.25665,-15.3503,0.0136949,-0.010097,-0.00379844,0.0142867,-0.0106888,-0.154536,0.0144693,0.0320212,902,463,1.25663,15.3503
-315,561,1.35742,-15.5849,0.0110607,-0.00654717,-0.00402482,0.0119371,-0.00742355,-0.214397,0.0112787,0.0214151,909,463,1.35741,15.5849
-308,561,1.38086,-16.0364,0.00875711,-0.00354482,-0.00419264,0.0100501,-0.00483781,-0.299143,0.00876938,0.0172906,916,463,1.38083,16.0364
-301,561,1.34613,-16.515,0.00673823,-0.00148212,-0.0041592,0.00847548,-0.00321938,-0.395663,0.00697564,0.0132751,923,463,1.34613,16.515
-294,561,1.30225,-16.8799,0.00495688,-0.000291055,-0.00367772,0.00685075,-0.00218492,-0.475541,0.00544366,0.0110993,930,463,1.30226,16.8799
-287,561,1.30212,-17.2426,0.00344643,0.000796041,-0.00322657,0.00560935,-0.00136687,-0.590544,0.00426877,0.00899876,937,463,1.30214,17.2426
-280,561,1.28564,-17.5989,0.00232747,0.00108899,-0.0027825,0.00455881,-0.00114235,-0.675909,0.003483,0.0111662,944,463,1.28566,17.5989
-273,561,1.26276,-17.9387,0.0014737,0.00139332,-0.00229458,0.00372844,-0.000861418,-0.776641,0.00281702,0.0137407,951,463,1.26273,17.9387
-266,561,1.2547,-18.271,0.000964949,0.000645463,-0.00155811,0.00237149,-0.000761074,-0.734315,0.00188657,0.00909331,958,463,1.25472,18.271
-259,561,1.25171,-18.609,0.00132042,-0.00057779,-0.00103301,0.00177414,-0.00103151,-0.413853,0.00163865,0.0096356,965,463,1.25171,18.609
-252,561,1.21686,-18.9316,0.00186665,-0.00185377,-0.000608083,0.00196351,-0.00195063,-0.15797,0.00225984,0.0136131,972,463,1.21686,18.9316
-245,561,1.19043,-19.2515,0.00257757,-0.00325257,-0.000209077,0.00258506,-0.00326006,-0.0358,0.00338217,0.0161403,979,463,1.19042,19.2515
-238,561,1.22498,-19.5775,0.00349294,-0.00481128,9.73115e-05,0.00349408,-0.00481242,0.0117162,0.00481585,0.0130196,986,463,1.225,19.5775
-231,561,1.21448,-19.8974,0.00454827,-0.00637876,0.000235408,0.00455334,-0.00638383,0.0215303,0.00634399,0.0107589,993,463,1.21447,19.8974
-224,561,1.21375,-20.2054,0.00567052,-0.00772373,0.000246628,0.00567506,-0.00772827,0.0184047,0.00776862,0.0109713,1000,463,1.21375,20.2054
-217,561,1.23291,-20.5099,0.00667784,-0.00888007,0.000226946,0.00668115,-0.00888338,0.0145831,0.00901612,0.011613,1007,463,1.23293,20.5099
-210,561,1.2442,-20.8073,0.00759008,-0.0100399,0.000117734,0.00759087,-0.0100407,0.00667762,0.0102123,0.0122618,1014,463,1.24421,20.8073
-203,561,1.26697,-21.0753,0.00835044,-0.0107322,-9.02503e-05,0.00835087,-0.0107326,-0.00472931,0.0110464,0.0140691,1021,463,1.267,21.0754
-196,561,1.24866,-21.3425,0.00880846,-0.0113644,-0.000106267,0.00880902,-0.011365,-0.0052676,0.0116786,0.0156964,1028,463,1.24863,21.3425
-189,561,1.24536,-21.6025,0.00902918,-0.0117289,7.82532e-05,0.00902948,-0.0117292,0.00376969,0.0120188,0.0187254,1035,463,1.24539,21.6025
-182,561,1.27478,-21.8901,0.00897277,-0.0117318,0.000365563,0.00897922,-0.0117382,0.0176488,0.0119965,0.0219308,1042,463,1.27481,21.8901
-175,561,1.23047,-22.1561,0.00875744,-0.011683,0.000768785,0.00878632,-0.0117119,0.0375402,0.0118748,0.0336097,1049,463,1.23041,22.1561
-168,561,1.18994,-22.4369,0.00847447,-0.0116767,0.00101164,0.00852513,-0.0117273,0.0500351,0.0117414,0.0478703,1056,463,1.18991,22.4369
-161,561,1.2113,-22.5305,0,0,0,0,0,0,0,-1,1063,463,1.21133,22.5305
-154,561,1.78052,-23.3299,0,0,0,0,0,0,0,-1,1070,463,1.78047,23.3299
-147,561,1.32935,-22.5846,0,0,0,0,0,0,0,-1,1077,463,1.3293,22.5846
-140,561,1.62756,-23.4924,0,0,0,0,0,0,0,-1,1084,463,1.62762,23.4924
-133,561,1.92224,-20.9314,0,0,0,0,0,0,0,-1,1091,463,1.92219,20.9314
-126,561,1.17322,-23.477,0,0,0,0,0,0,0,-1,1098,463,1.17323,23.4769
-119,561,1.13782,-23.6086,0,0,0,0,0,0,0,-1,1105,463,1.13776,23.6086
-112,561,1.10229,-23.7403,0,0,0,0,0,0,0,-1,1112,463,1.1023,23.7403
-105,561,0.530518,-13.5379,0,0,0,0,0,0,0,-1,1119,463,0.530477,13.5379
-98,561,1.5387,-7.54352,0,0,0,0,0,0,0,-1,1126,463,1.53871,7.54351
-91,561,1.29553,-6.57968,0,0,0,0,0,0,0,-1,1133,463,1.29549,6.5797
-84,561,1.23364,-5.84555,0,0,0,0,0,0,0,-1,1140,463,1.23363,5.84556
-77,561,-2.36023,1.00204,0,0,0,0,0,0,0,-1,1147,463,-2.3602,-1.00205
-70,561,-3.90015,-1.41541,0,0,0,0,0,0,0,-1,1154,463,-3.90009,1.4154
-63,561,-6.95691,-4.02756,0,0,0,0,0,0,0,-1,1161,463,-6.95696,4.02756
-56,561,-5.37988,-6.66855,0,0,0,0,0,0,0,-1,1168,463,-5.37988,6.66854
-49,561,-5.7439,-9.11029,0,0,0,0,0,0,0,-1,1175,463,-5.74387,9.1103
-42,561,-1.72644,-5.63065,0,0,0,0,0,0,0,-1,1182,463,-1.72648,5.63064
-35,561,-1.65674,-4.87994,0,0,0,0,0,0,0,-1,1189,463,-1.6567,4.87993
-28,561,-1.91418,-3.86896,0,0,0,0,0,0,0,-1,1196,463,-1.91414,3.86895
-21,561,-0.355957,-32.7534,0,0,0,0,0,0,0,-1,1203,463,-0.355911,32.7533
-14,561,0.447632,-32.0128,0,0,0,0,0,0,0,-1,1210,463,0.447595,32.0129
-7,561,1.26624,-31.0865,0,0,0,0,0,0,0,-1,1217,463,1.26627,31.0865
0,561,0.0675049,-29.2179,0,0,0,0,0,0,0,-1,1224,463,0.0675243,29.2179
7,561,0.635986,-28.4929,0.085071,0.00689203,0.0723032,0.128175,-0.0362118,0.537587,0.0997364,0.0454408,1231,463,0.635965,28.4929
14,561,1.19983,-27.7338,0.0852243,0.0149856,0.0656596,0.124567,-0.0243569,0.539822,0.0922416,0.0428107,1238,463,1.19979,27.7338
21,561,1.6676,-27.1027,0.0890063,0.0144908,0.0561685,0.119151,-0.0156536,0.492557,0.0851327,0.0439849,1245,463,1.66761,27.1027
28,561,2.43481,-26.7356,0.0927617,0.0143616,0.0454949,0.113615,-0.00649189,0.429793,0.0779976,0.0463376,1252,463,2.43478,26.7356
35,561,2.96167,-26.082,0,0,0,0,0,0,0,-1,1259,463,2.96165,26.082
42,561,3.19885,-24.8607,0,0,0,0,0,0,0,-1,1266,463,3.19884,24.8607
49,561,3.68689,-24.277,0.113142,-0.00493426,0.00778214,0.113652,-0.00544496,0.0655301,0.0776469,0.0486131,1273,463,3.68693,24.277
56,561,4.02393,-23.6373,0.113894,-0.0187528,-0.00440036,0.11404,-0.0188986,-0.033125,0.083046,0.0442199,1280,463,4.02395,23.6373
63,561,4.69421,-22.6073,0.111567,-0.0311123,-0.0123956,0.112636,-0.0321812,-0.0860184,0.0878057,0.0423125,1287,463,4.69425,22.6073
70,561,5.77441,-28.348,0.105979,-0.0422704,-0.0193225,0.108456,-0.0447475,-0.127501,0.0909656,0.0454553,1294,463,5.77435,28.348
77,561,6.39355,-20.5172,0,0,0,0,0,0,0,-1,1301,463,6.39355,20.5172
84,561,6.98157,-19.6006,0,0,0,0,0,0,0,-1,1308,463,6.98162,19.6006
91,561,7.47595,-18.7243,0.0712274,-0.0620952,-0.0266762,0.0763668,-0.0672346,-0.190329,0.0829642,0.0477882,1315,463,7.47589,18.7243
98,561,4.59082,-27.5958,0.0553949,-0.0633849,-0.0218166,0.0592752,-0.0672652,-0.176021,0.0731067,0.0426752,1322,463,4.59085,27.5958
105,561,3.92798,-27.2751,0.0401477,-0.0679624,-0.0172654,0.0428381,-0.0706528,-0.154581,0.0661767,0.0459656,1329,463,3.92802,27.2751
112,561,3.46692,-26.9306,0.023174,-0.0723715,-0.0104488,0.0243033,-0.0735008,-0.107664,0.0588004,0.0450165,1336,463,3.46696,26.9306
119,561,2.8468,-26.636,0.00882623,-0.0744259,-0.00409115,0.00902679,-0.0746264,-0.0489844,0.0530167,0.043977,1343,463,2.84678,26.636
126,561,2.63574,-26.5672,-0.00174386,-0.0770639,0.00247479,-0.00166263,-0.0771451,0.0328099,0.0508849,0.0467413,1350,463,2.63572,26.5672
133,561,2.19739,-25.7592,0,0,0,0,0,0,0,-1,1357,463,2.19742,25.7591
140,561,2.48608,-25.353,0,0,0,0,0,0,0,-1,1364,463,2.48613,25.353
147,561,6.9718,-22.5642,0,0,0,0,0,0,0,-1,1371,463,6.97176,22.5642
154,561,6.66455,-22.6819,0,0,0,0,0,0,0,-1,1378,463,6.66452,22.6819
161,561,7.6604,-25.1426,0,0,0,0,0,0,0,-1,1385,463,7.66037,25.1426
168,561,7.54407,-25.2491,0,0,0,0,0,0,0,-1,1392,463,7.54405,25.2491
175,561,10.4185,0.276398,0,0,0,0,0,0,0,-1,1399,463,10.4185,-0.276394
182,561,6.45703,-4.02127,0,0,0,0,0,0,0,-1,1406,463,6.45704,4.02127
189,561,6.50854,-2.08685,0,0,0,0,0,0,0,-1,1413,463,6.50851,2.08686
196,561,6.44775,-0.27182,0,0,0,0,0,0,0,-1,1420,463,6.44773,0.271814
203,561,6.18591,1.1301,0,0,0,0,0,0,0,-1,1427,463,6.18592,-1.13009
210,561,5.68713,2.68427,0,0,0,0,0,0,0,-1,1434,463,5.6871,-2.68425
217,561,3.61743,-7.33582,0,0,0,0,0,0,0,-1,1441,463,3.61738,7.33581
224,561,4.27466,-8.59171,0,0,0,0,0,0,0,-1,1448,463,4.27466,8.59171
231,561,4.93188,-9.8476,0,0,0,0,0,0,0,-1,1455,463,4.93193,9.84761
238,561,2.18018,-5.18359,0,0,0,0,0,0,0,-1,1462,463,2.18023,5.18359
245,561,3.07568,-3.50238,0,0,0,0,0,0,0,-1,1469,463,3.0757,3.50238
252,561,3.47412,-3.71109,0,0,0,0,0,0,0,-1,1476,463,3.47413,3.71109
259,561,3.42212,-3.2334,0,0,0,0,0,0,0,-1,1483,463,3.42214,3.2334
266,561,4.44373,-5.90027,0,0,0,0,0,0,0,-1,1490,463,4.44372,5.90026
273,561,2.59485,-3.65268,0,0,0,0,0,0,0,-1,1497,463,2.5948,3.65268
280,561,3.10767,-6.38235,0,0,0,0,0,0,0,-1,1504,463,3.10766,6.38235
287,561,4.91809,-14.429,0,0,0,0,0,0,0,-1,1511,463,4.9181,14.429
294,561,6.46826,-21.5433,0,0,0,0,0,0,0,-1,1518,463,6.46832,21.5433
301,561,6.20898,-21.2476,0.00531702,-0.00425591,-0.00182012,0.00565141,-0.0045903,-0.181689,0.00592362,0.0418948,1525,463,6.20897,21.2476
308,561,6.37183,-21.0199,0.00438199,-0.00504683,-0.00227949,0.00490415,-0.00556899,-0.225187,0.00605073,0.0324949,1532,463,6.37177,21.0199
315,561,6.42151,-20.8282,0.00335414,-0.00519255,-0.00263921,0.00410343,-0.00594185,-0.27663,0.00583193,0.0189224,1539,463,6.42145,20.8282
322,561,6.43298,-20.5752,0.00246507,-0.00487437,-0.0026936,0.00334753,-0.00575683,-0.316593,0.0053174,0.0198719,1546,463,6.43295,20.5752
329,561,6.42188,-20.2192,0.00178596,-0.00432478,-0.00253908,0.00270327,-0.0052421,-0.346686,0.00466467,0.0151693,1553,463,6.42193,20.2192
336,561,6.44739,-19.8609,0.00122771,-0.00374118,-0.00233624,0.00215361,-0.00466709,-0.377332,0.00402608,0.011445,1560,463,6.44737,19.8609
343,561,6.46545,-19.564,0.000673492,-0.00308355,-0.00211099,0.00162077,-0.00403082,-0.421802,0.00336039,0.0101799,1567,463,6.4655,19.564
350,561,6.46399,-19.2437,0.000366511,-0.00240881,-0.00168621,0.00116264,-0.00320493,-0.441111,0.00261189,0.00969062,1574,463,6.46401,19.2436
357,561,6.46228,-18.899,0.000122459,-0.00160814,-0.00130018,0.00081896,-0.00230464,-0.491794,0.00187017,0.0099267,1581,463,6.4623,18.899
364,561,6.46765,-18.5761,5.77243e-07,-0.000892766,-0.000810896,0.000479685,-0.00137187,-0.533655,0.00110959,0.00995305,1588,463,6.46771,18.5761
371,561,6.44885,-18.2262,-4.88469e-05,-0.000251763,-0.000316349,0.000181915,-0.000482525,-0.630222,0.000396486,0.0177046,1595,463,6.44891,18.2262
378,561,6.43372,-17.8722,-0.00010909,0.000350313,0.000105199,0.000373257,-0.000132033,1.35606,0.000302608,0.0125789,1602,463,6.43367,17.8722
385,561,6.43542,-17.5164,-0.00020098,0.000987565,0.000420776,0.00112145,-0.000334865,1.26274,0.000880736,0.0105269,1609,463,6.43537,17.5164
392,561,6.43262,-17.1544,-0.000242248,0.00139964,0.000705178,0.00166093,-0.000503535,1.21595,0.00130785,0.0130596,1616,463,6.43266,17.1544
399,561,6.42419,-16.8051,-0.000185746,0.00172857,0.00107845,0.00221336,-0.000670535,1.14834,0.00174263,0.0193027,1623,463,6.42414,16.8051
406,561,6.41504,-16.4237,-0.000148593,0.00219816,0.00156687,0.00298231,-0.000932742,1.10679,0.00236134,0.0186667,1630,463,6.41503,16.4237
413,561,6.40393,-16.0298,-0.000239311,0.00248522,0.00186365,0.00343141,-0.0011855,1.101,0.00276871,0.0167182,1637,463,6.40397,16.0298
420,561,6.37891,-15.6443,-0.000130609,0.00267277,0.00211776,0.0038107,-0.00126854,1.07774,0.00305247,0.0133152,1644,463,6.37892,15.6442
427,561,6.3728,-15.2489,-0.000200336,0.00251939,0.00279,0.00426329,-0.00194423,1.01216,0.00366633,0.0104528,1651,463,6.37276,15.2489
434,561,6.38342,-14.8672,-0.000715541,0.000942593,0.00389128,0.00409214,-0.00386509,0.890358,0.00459474,0.0129091,1658,463,6.38345,14.8672
441,561,6.38403,-14.4996,-0.000986325,-0.000152157,0.00483682,0.00428552,-0.00542401,0.828407,0.00561863,0.0151391,1665,463,6.38404,14.4996
448,561,6.39233,-14.1049,-0.00152426,-0.00174856,0.00598381,0.00434845,-0.00762127,0.776028,0.0069963,0.0204003,1672,463,6.39228,14.1049
455,561,6.4502,-13.7127,-0.00229334,-0.00415204,0.00728794,0.00412426,-0.0105696,0.721981,0.00875135,0.0366733,1679,463,6.4502,13.7127
462,561,6.17908,-13.2656,-0.00320467,-0.0071411,0.00879685,0.00384146,-0.0141872,0.67534,0.0109653,0.0373357,1686,463,6.17906,13.2656
469,561,6.13354,-12.9225,-0.00432941,-0.0108838,0.0105362,0.00342753,-0.0186407,0.634621,0.0137132,0.0245677,1693,463,6.13349,12.9225
476,561,5.92493,-12.2805,-0.00598894,-0.0157081,0.0122803,0.0023583,-0.0240554,0.596991,0.016878,0.0409148,1700,463,5.92488,12.2805
483,561,5.65674,-11.5216,-0.00778524,-0.0216036,0.0141741,0.00107396,-0.0304628,0.558619,0.0206758,0.0487905,1707,463,5.65671,11.5216
490,561,5.58984,-10.8368,0,0,0,0,0,0,0,-1,1714,463,5.58984,10.8368
497,561,8.26306,-1.31348,0,0,0,0,0,0,0,-1,1721,463,8.26305,1.31346
504,561,10.0769,-0.811401,0,0,0,0,0,0,0,-1,1728,463,10.0769,0.8114
511,561,0,0,0,0,0,0,0,0,0,-1,1735,463,0,0
518,561,0,0,0,0,0,0,0,0,0,-1,1742,463,0,0
525,561,0,0,0,0,0,0,0,0,0,-1,1749,463,0,0
532,561,0,0,0,0,0,0,0,0,0,-1,1756,463,0,0
539,561,0,0,0,0,0,0,0,0,0,-1,1763,463,0,0
546,561,0,0,0,0,0,0,0,0,0,-1,1770,463,0,0
553,561,0,0,0,0,0,0,0,0,0,-1,1777,463,0,0
560,561,0,0,0,0,0,0,0,0,0,-1,1784,463,0,0
567,561,0,0,0,0,0,0,0,0,0,-1,1791,463,0,0
574,561,0,0,0,0,0,0,0,0,0,-1,1798,463,0,0
581,561,0,0,0,0,0,0,0,0,0,-1,1805,463,0,0
588,561,0,0,0,0,0,0,0,0,0,-1,1812,463,0,0
595,561,0,0,0,0,0,0,0,0,0,-1,1819,463,0,0
602,561,0,0,0,0,0,0,0,0,0,-1,1826,463,0,0
609,561,0,0,0,0,0,0,0,0,0,-1,1833,463,0,0
616,561,0,0,0,0,0,0,0,0,0,-1,1840,463,0,0
623,561,0,0,0,0,0,0,0,0,0,-1,1847,463,0,0
630,561,0,0,0,0,0,0,0,0,0,-1,1854,463,0,0
637,561,0,0,0,0,0,0,0,0,0,-1,1861,463,0,0
644,561,0,0,0,0,0,0,0,0,0,-1,1868,463,0,0
651,561,0,0,0,0,0,0,0,0,0,-1,1875,463,0,0
658,561,0,0,0,0,0,0,0,0,0,-1,1882,463,0,0
665,561,0,0,0,0,0,0,0,0,0,-1,1889,463,0,0
672,561,0,0,0,0,0,0,0,0,0,-1,1896,463,0,0
679,561,0,0,0,0,0,0,0,0,0,-1,1903,463,0,0
686,561,0,0,0,0,0,0,0,0,0,-1,1910,463,0,0
693,561,0,0,0,0,0,0,0,0,0,-1,1917,463,0,0
700,561,0,0,0,0,0,0,0,0,0,-1,1924,463,0,0
707,561,0,0,0,0,0,0,0,0,0,-1,1931,463,0,0
714,561,0,0,0,0,0,0,0,0,0,-1,1938,463,0,0
721,561,0,0,0,0,0,0,0,0,0,-1,1945,463,0,0
728,561,0,0,0,0,0,0,0,0,0,-1,1952,463,0,0
735,561,0,0,0,0,0,0,0,0,0,-1,1959,463,0,0
742,561,0,0,0,0,0,0,0,0,0,-1,1966,463,0,0
749,561,0,0,0,0,0,0,0,0,0,-1,1973,463,0,0
756,561,0,0,0,0,0,0,0,0,0,-1,1980,463,0,0
763,561,0,0,0,0,0,0,0,0,0,-1,1987,463,0,0
770,561,0,0,0,0,0,0,0,0,0,-1,1994,463,0,0
777,561,0,0,0,0,0,0,0,0,0,-1,2001,463,0,0
784,561,0,0,0,0,0,0,0,0,0,-1,2008,463,0,0
791,561,0,0,0,0,0,0,0,0,0,-1,2015,463,0,0
798,561,0,0,0,0,0,0,0,0,0,-1,2022,463,0,0
805,561,0,0,0,0,0,0,0,0,0,-1,2029,463,0,0
812,561,0,0,0,0,0,0,0,0,0,-1,2036,463,0,0
-700,554,0,0,0,0,0,0,0,0,0,-1,524,470,0,0
-693,554,0,0,0,0,0,0,0,0,0,-1,531,470,0,0
-686,554,0,0,0,0,0,0,0,0,0,-1,538,470,0,0
-679,554,0,0,0,0,0,0,0,0,0,-1,545,470,0,0
-672,554,0,0,0,0,0,0,0,0,0,-1,552,470,0,0
-665,554,0,0,0,0,0,0,0,0,0,-1,559,470,0,0
-658,554,0,0,0,0,0,0,0,0,0,-1,566,470,0,0
-651,554,0,0,0,0,0,0,0,0,0,-1,573,470,0,0
-644,554,0,0,0,0,0,0,0,0,0,-1,580,470,0,0
-637,554,0,0,0,0,0,0,0,0,0,-1,587,470,0,0
-630,554,0,0,0,0,0,0,0,0,0,-1,594,470,0,0
-623,554,0,0,0,0,0,0,0,0,0,-1,601,470,0,0
-616,554,0,0,0,0,0,0,0,0,0,-1,608,470,0,0
-609,554,0,0,0,0,0,0,0,0,0,-1,615,470,0,0
-602,554,0,0,0,0,0,0,0,0,0,-1,622,470,0,0
-595,554,0,0,0,0,0,0,0,0,0,-1,629,470,0,0
-588,554,0,0,0,0,0,0,0,0,0,-1,636,470,0,0
-581,554,0,0,0,0,0,0,0,0,0,-1,643,470,0,0
-574,554,0,0,0,0,0,0,0,0,0,-1,650,470,0,0
-567,554,0,0,0,0,0,0,0,0,0,-1,657,470,0,0
-560,554,0,0,0,0,0,0,0,0,0,-1,664,470,0,0
-553,554,0,0,0,0,0,0,0,0,0,-1,671,470,0,0
-546,554,0,0,0,0,0,0,0,0,0,-1,678,470,0,0
-539,554,0,0,0,0,0,0,0,0,0,-1,685,470,0,0
-532,554,0,0,0,0,0,0,0,0,0,-1,692,470,0,0
-525,554,0,0,0,0,0,0,0,0,0,-1,699,470,0,0
-518,554,0,0,0,0,0,0,0,0,0,-1,706,470,0,0
-511,554,0,0,0,0,0,0,0,0,0,-1,713,470,0,0
-504,554,0,0,0,0,0,0,0,0,0,-1,720,470,0,0
-497,554,0,0,0,0,0,0,0,0,0,-1,727,470,0,0
-490,554,0,0,0,0,0,0,0,0,0,-1,734,470,0,0
-483,554,0,0,0,0,0,0,0,0,0,-1,741,470,0,0
-476,554,0,0,0,0,0,0,0,0,0,-1,748,470,0,0
-469,554,0,0,0,0,0,0,0,0,0,-1,755,470,0,0
-462,554,0,0,0,0,0,0,0,0,0,-1,762,470,0,0
-455,554,0,0,0,0,0,0,0,0,0,-1,769,470,0,0
-448,554,0,0,0,0,0,0,0,0,0,-1,776,470,0,0
-441,554,0,0,0,0,0,0,0,0,0,-1,783,470,0,0
-434,554,0,0,0,0,0,0,0,0,0,-1,790,470,0,0
-427,554,0,0,0,0,0,0,0,0,0,-1,797,470,0,0
-420,554,0,0,0,0,0,0,0,0,0,-1,804,470,0,0
-413,554,0,0,0,0,0,0,0,0,0,-1,811,470,0,0
-406,554,0,0,0,0,0,0,0,0,0,-1,818,470,0,0
-399,554,-1.32275,-3.95142,0,0,0,0,0,0,0,-1,825,470,-1.32275,3.95141
-392,554,-1.35632,-3.7406,0,0,0,0,0,0,0,-1,832,470,-1.35632,3.7406
-385,554,-0.849243,-4.14447,0,0,0,0,0,0,0,-1,839,470,-0.849262,4.14446
-378,554,-0.982666,-4.55084,0,0,0,0,0,0,0,-1,846,470,-0.982671,4.55084
-371,554,-1.74542,-4.63467,0,0,0,0,0,0,0,-1,853,470,-1.74541,4.63468
-364,554,1.04883,-7.68756,0,0,0,0,0,0,0,-1,860,470,1.0488,7.68757
-357,554,1.06714,-11.5403,0,0,0,0,0,0,0,-1,867,470,1.06715,11.5403
-350,554,0.523071,-14.5514,0,0,0,0,0,0,0,-1,874,470,0.523076,14.5514
-343,554,0.766235,-14.4809,0.0153192,-0.0160736,-0.00358577,0.0157236,-0.0164779,-0.112296,0.0185932,0.0489962,881,470,0.766258,14.4809
-336,554,1.02222,-14.6509,0.0136392,-0.0130171,-0.00347143,0.0140839,-0.0134618,-0.127398,0.0159049,0.037546,888,470,1.02222,14.6509
-329,554,1.01776,-15.0343,0.011846,-0.010314,-0.00327389,0.0123196,-0.0107875,-0.143651,0.0133507,0.0187709,895,470,1.01776,15.0343
-322,554,1.00696,-15.3987,0.00991751,-0.00749108,-0.00316411,0.0104748,-0.00804834,-0.174331,0.0107249,0.0119178,902,470,1.00694,15.3987
-315,554,1.01733,-15.7709,0.00804567,-0.00494971,-0.00313144,0.00876088,-0.00566492,-0.224544,0.00839243,0.0113704,909,470,1.01733,15.7709
-308,554,1.01654,-16.1507,0.00637571,-0.00274475,-0.00310504,0.00733245,-0.0037015,-0.298895,0.00648441,0.0134609,916,470,1.01654,16.1507
-301,554,1.00977,-16.5302,0.00490925,-0.00128315,-0.00294753,0.00608791,-0.00246181,-0.380402,0.00508201,0.0146098,923,470,1.00976,16.5301
-294,554,0.954285,-16.8925,0.00365525,-0.0004388,-0.00251959,0.00485455,-0.0016381,-0.444257,0.00389885,0.0123294,930,470,0.954315,16.8925
-287,554,0.944885,-17.2542,0.00260843,0.000265217,-0.00212866,0.0038666,-0.000992962,-0.533825,0.00296468,0.0112929,937,470,0.944895,17.2542
-280,554,0.942871,-17.5805,0.00182842,0.000232688,-0.00174286,0.00294737,-0.000886256,-0.570741,0.00231752,0.0111605,944,470,0.942846,17.5805
-273,554,0.921753,-17.9333,0.00123118,9.41541e-05,-0.00124689,0.00203305,-0.000707709,-0.571504,0.00164289,0.014779,951,470,0.921724,17.9332
-266,554,0.909119,-18.2784,0.00119309,-0.000989314,-0.000506026,0.00130471,-0.00110094,-0.217108,0.00139056,0.0120062,958,470,0.909104,18.2784
-259,554,0.911499,-18.5869,0.00214228,-0.00249932,-0.000159667,0.00214777,-0.0025048,-0.0343449,0.0026888,0.0113489,965,470,0.911527,18.587
-252,554,0.873962,-18.8822,0.00301785,-0.00404284,7.87773e-05,0.00301873,-0.00404372,0.0111553,0.0040918,0.014017,972,470,0.873988,18.8822
-245,554,0.859375,-19.2183,0.00404272,-0.00573622,0.000375669,0.00405713,-0.00575063,0.0383409,0.00569058,0.0162018,979,470,0.859391,19.2183
-238,554,0.891785,-19.5726,0.00539597,-0.00759092,0.00055664,0.00541978,-0.00761473,0.0427572,0.00756096,0.0121904,986,470,0.891783,19.5726
-231,554,0.890442,-19.8944,0.00691247,-0.00951831,0.000576838,0.0069327,-0.00953854,0.0350496,0.00954926,0.0100149,993,470,0.890419,19.8944
-224,554,0.910034,-20.1859,0.0085127,-0.011228,0.000473599,0.00852406,-0.0112393,0.0239727,0.0114462,0.0102505,1000,470,0.910032,20.1859
-217,554,0.938293,-20.4878,0.00999762,-0.0126488,0.000297696,0.0100015,-0.0126527,0.0131424,0.0131093,0.0111734,1007,470,0.938322,20.4878
-210,554,0.985413,-20.7949,0.0113834,-0.0140735,-5.10984e-07,0.0113834,-0.0140735,-2.00726e-05,0.0147248,0.0144783,1014,470,0.985414,20.7949
-203,554,0.975037,-21.0957,0.0125173,-0.0148782,-0.000392574,0.0125229,-0.0148838,-0.0143259,0.0158428,0.0238381,1021,470,0.975043,21.0957
-196,554,0.86792,-21.263,0.0132793,-0.0156021,-0.000583449,0.0132911,-0.0156139,-0.0201905,0.0167063,0.0320879,1028,470,0.867952,21.263
-189,554,0.924072,-21.3982,0.0137385,-0.0158124,-0.000660834,0.0137532,-0.0158272,-0.0223477,0.0170922,0.0362564,1035,470,0.924013,21.3982
-182,554,0.937744,-21.5398,0.0137085,-0.0157283,-0.000530259,0.0137181,-0.0157378,-0.0180057,0.0170197,0.0491725,1042,470,0.937796,21.5398
-175,554,0.928345,-21.6039,0,0,0,0,0,0,0,-1,1049,470,0.928285,21.6039
-168,554,0.793457,-22.5016,0,0,0,0,0,0,0,-1,1056,470,0.793424,22.5016
-161,554,1.02026,-21.762,0,0,0,0,0,0,0,-1,1063,470,1.02024,21.762
-154,554,1.52405,-22.1075,0,0,0,0,0,0,0,-1,1070,470,1.52407,22.1075
-147,554,1.47729,-22.5562,0,0,0,0,0,0,0,-1,1077,470,1.47735,22.5562
-140,554,1.49976,-22.9917,0,0,0,0,0,0,0,-1,1084,470,1.49981,22.9917
-133,554,1.48523,-20.8091,0,0,0,0,0,0,0,-1,1091,470,1.48518,20.8091
-126,554,0.532715,-15.1913,0,0,0,0,0,0,0,-1,1098,470,0.532762,15.1913
-119,554,1.0144,-23.4497,0,0,0,0,0,0,0,-1,1105,470,1.01435,23.4497
-112,554,0.53186,-16.7545,0,0,0,0,0,0,0,-1,1112,470,0.531912,16.7545
-105,554,2.82129,-9.46112,0,0,0,0,0,0,0,-1,1119,470,2.82127,9.46112
-98,554,1.51929,-7.3624,0,0,0,0,0,0,0,-1,1126,470,1.51928,7.36241
-91,554,1.41089,-6.5864,0,0,0,0,0,0,0,-1,1133,470,1.41093,6.58638
-84,554,1.62305,-5.87186,0,0,0,0,0,0,0,-1,1140,470,1.62299,5.87186
-77,554,-2.56958,1.33258,0,0,0,0,0,0,0,-1,1147,470,-2.56959,-1.33257
-70,554,-3.68164,-1.18332,0,0,0,0,0,0,0,-1,1154,470,-3.68158,1.18331
-63,554,-4.86853,-3.88708,0,0,0,0,0,0,0,-1,1161,470,-4.86853,3.88708
-56,554,-5.69958,-6.45422,0,0,0,0,0,0,0,-1,1168,470,-5.69955,6.45422
-49,554,-6.23645,-8.8569,0,0,0,0,0,0,0,-1,1175,470,-6.23643,8.85689
-42,554,-6.62524,-11.5382,0,0,0,0,0,0,0,-1,1182,470,-6.62522,11.5382
-35,554,-2.40173,-4.59482,0,0,0,0,0,0,0,-1,1189,470,-2.40169,4.59481
-28,554,-0.760132,-1.65555,0,0,0,0,0,0,0,-1,1196,470,-0.760095,1.65556
-21,554,-0.750488,-32.2566,0,0,0,0,0,0,0,-1,1203,470,-0.75053,32.2566
-14,554,0.0765381,-31.4869,0.100372,-0.0617731,0.0796382,0.132944,-0.0943446,0.388236,0.131854,0.0480348,1210,470,0.0765368,31.4869
-7,554,0.86084,-30.6057,0.100548,-0.0313442,0.0842329,0.141579,-0.072375,0.453284,0.125662,0.0483791,1217,470,0.86081,30.6057
0,554,0.292114,-29.6289,0,0,0,0,0,0,0,-1,1224,470,0.292071,29.6289
7,554,0.656372,-28.644,0.0939709,0.00983379,0.0812884,0.143431,-0.0396267,0.546615,0.111209,0.0469255,1231,470,0.656397,28.644
14,554,0.889526,-28.0448,0.0955341,0.0208688,0.0749257,0.141913,-0.0255099,0.55427,0.104158,0.0448765,1238,470,0.889528,28.0448
21,554,1.24585,-27.5139,0.102355,0.0189891,0.0654376,0.138258,-0.0169137,0.501811,0.098296,0.0412314,1245,470,1.24584,27.5139
28,554,1.6626,-26.9128,0.109213,0.0177683,0.0548594,0.134905,-0.00792426,0.437996,0.0926914,0.0435046,1252,470,1.66265,26.9128
35,554,2.13049,-26.2376,0,0,0,0,0,0,0,-1,1259,470,2.13044,26.2376
42,554,2.87256,-25.4039,0,0,0,0,0,0,0,-1,1266,470,2.87259,25.4039
49,554,3.41589,-24.7386,0.14105,-0.0130026,0.0177389,0.143066,-0.0150188,0.113175,0.100757,0.0490217,1273,470,3.41592,24.7386
56,554,3.91504,-24.1077,0.141827,-0.031819,0.00494554,0.141968,-0.0319597,0.0284498,0.106903,0.0467269,1280,470,3.91506,24.1077
63,554,4.58899,-23.3705,0.13926,-0.0485496,-0.00229042,0.139288,-0.0485775,-0.012193,0.1126,0.045623,1287,470,4.589,23.3706
70,554,5.32751,-22.6194,0.133284,-0.0641542,-0.00968431,0.133757,-0.0646281,-0.0488935,0.116833,0.0471654,1294,470,5.3275,22.6194
77,554,5.79712,-21.4583,0,0,0,0,0,0,0,-1,1301,470,5.79706,21.4583
84,554,6.3175,-20.5292,0,0,0,0,0,0,0,-1,1308,470,6.31748,20.5292
91,554,6.82983,-19.6547,0.0921718,-0.0874105,-0.0214561,0.0946998,-0.0899385,-0.117279,0.106613,0.0447687,1315,470,6.82985,19.6547
98,554,7.36951,-18.7489,0.0703159,-0.0852193,-0.016214,0.0719882,-0.0868915,-0.102774,0.0918637,0.0479002,1322,470,7.36956,18.7489
105,554,3.229,-26.8855,0.0496287,-0.0865962,-0.0113891,0.0505743,-0.0875418,-0.0828386,0.0806879,0.0439393,1329,470,3.22899,26.8855
112,554,2.92188,-26.5318,0.0273313,-0.0875138,-0.00352916,0.0274396,-0.0876222,-0.0306911,0.0693939,0.0415062,1336,470,2.92185,26.5318
119,554,2.62732,-26.0964,0.00868904,-0.0867333,0.0044652,0.00889753,-0.0869418,0.0466582,0.0611432,0.0420439,1343,470,2.62729,26.0964
126,554,2.42444,-25.7965,-0.00504637,-0.0869222,0.0130163,-0.00302691,-0.0889417,0.153922,0.0583117,0.0439467,1350,470,2.42447,25.7965
133,554,2.37671,-25.1864,-0.0144731,-0.0869352,0.020605,-0.00902377,-0.0923845,0.258548,0.0588129,0.0432552,1357,470,2.37672,25.1864
140,554,2.63965,-24.7469,0,0,0,0,0,0,0,-1,1364,470,2.63971,24.7468
147,554,2.89893,-24.2502,0,0,0,0,0,0,0,-1,1371,470,2.89887,24.2502
154,554,9.40564,-25.5718,0,0,0,0,0,0,0,-1,1378,470,9.40558,25.5718
161,554,7.96716,-25.3087,0,0,0,0,0,0,0,-1,1385,470,7.96715,25.3087
168,554,7.88293,-25.3705,0,0,0,0,0,0,0,-1,1392,470,7.88294,25.3705
175,554,10.663,0.286957,0,0,0,0,0,0,0,-1,1399,470,10.663,-0.286966
182,554,6.71106,-4.50217,0,0,0,0,0,0,0,-1,1406,470,6.71107,4.50215
189,554,6.90479,-2.50348,0,0,0,0,0,0,0,-1,1413,470,6.90477,2.50348
196,554,6.96216,-0.740906,0,0,0,0,0,0,0,-1,1420,470,6.96214,0.740912
203,554,6.43518,0.414154,0,0,0,0,0,0,0,-1,1427,470,6.43523,-0.414141
210,554,6.21167,1.96707,0,0,0,0,0,0,0,-1,1434,470,6.21165,-1.96706
217,554,5.64551,3.4989,0,0,0,0,0,0,0,-1,1441,470,5.64555,-3.49891
224,554,4.85144,-8.85172,0,0,0,0,0,0,0,-1,1448,470,4.85146,8.85173
231,554,3.25073,-5.29642,0,0,0,0,0,0,0,-1,1455,470,3.25078,5.29642
238,554,4.28625,-3.25253,0,0,0,0,0,0,0,-1,1462,470,4.28622,3.25252
245,554,4.0752,-2.90033,0,0,0,0,0,0,0,-1,1469,470,4.07515,2.90032
252,554,3.52112,-0.934998,0,0,0,0,0,0,0,-1,1476,470,3.52113,0.934996
259,554,3.96448,-2.16425,0,0,0,0,0,0,0,-1,1483,470,3.96446,2.16424
266,554,3.0592,-2.71716,0,0,0,0,0,0,0,-1,1490,470,3.05923,2.71718
273,554,2.58521,-3.06876,0,0,0,0,0,0,0,-1,1497,470,2.58524,3.06874
280,554,2.83301,-0.991699,0,0,0,0,0,0,0,-1,1504,470,2.83303,0.991704
287,554,3.54126,-4.12277,0,0,0,0,0,0,0,-1,1511,470,3.54123,4.12277
294,554,3.62036,-8.50146,0,0,0,0,0,0,0,-1,1518,470,3.62031,8.50145
301,554,6.21655,-20.8727,0,0,0,0,0,0,0,-1,1525,470,6.21653,20.8727
308,554,6.65271,-20.9833,0,0,0,0,0,0,0,-1,1532,470,6.65266,20.9833
315,554,6.77185,-20.85,0,0,0,0,0,0,0,-1,1539,470,6.77189,20.85
322,554,6.77661,-20.6396,0,0,0,0,0,0,0,-1,1546,470,6.7766,20.6396
329,554,6.76563,-19.9679,0.0017542,-0.00622403,-0.00362481,0.0031551,-0.00762494,-0.368793,0.00639971,0.0399342,1553,470,6.7656,19.9679
336,554,6.76917,-19.7758,0.00112915,-0.00546369,-0.00340429,0.00257146,-0.006906,-0.400748,0.00565936,0.0218759,1560,470,6.7692,19.7758
343,554,6.78186,-19.5562,0.000487301,-0.00462211,-0.0031471,0.00198608,-0.00612089,-0.444461,0.00487927,0.0118218,1567,470,6.78186,19.5562
350,554,6.80249,-19.2386,0.000154776,-0.00386155,-0.00266788,0.00148582,-0.0051926,-0.462779,0.00404892,0.00945902,1574,470,6.80245,19.2385
357,554,6.80359,-18.9119,-6.88488e-05,-0.00292492,-0.00224858,0.00116684,-0.0041606,-0.50249,0.00323363,0.0110154,1581,470,6.8036,18.9119
364,554,6.80347,-18.5825,-0.000124797,-0.00208272,-0.00168191,0.000842312,-0.00304983,-0.521839,0.00236454,0.00989048,1588,470,6.80347,18.5825
371,554,6.79883,-18.2333,-9.68979e-05,-0.00132627,-0.00110681,0.000554457,-0.00197763,-0.53192,0.00153694,0.00935737,1595,470,6.7988,18.2333
378,554,6.79651,-17.8692,-6.54261e-05,-0.000619246,-0.000625911,0.000342093,-0.00102677,-0.577135,0.000822604,0.0106066,1602,470,6.79656,17.8692
385,554,6.80444,-17.5107,-6.42238e-05,0.000187169,-0.00020056,0.000298166,-0.000175221,-1.06532,0.000276365,0.0100769,1609,470,6.80446,17.5107
392,554,6.7959,-17.1562,-5.43376e-05,0.000713096,0.000156821,0.000743905,-8.51461e-05,1.37681,0.000526618,0.01219,1616,470,6.79589,17.1562
399,554,6.77832,-16.7872,1.81767e-05,0.00108986,0.000552282,0.00132353,-0.000215489,1.17054,0.000962258,0.0169549,1623,470,6.77833,16.7872
406,554,6.76672,-16.4257,5.79129e-05,0.00153668,0.00099633,0.002038,-0.000443414,1.10461,0.00152807,0.0166571,1630,470,6.76677,16.4257
413,554,6.76196,-15.995,1.28736e-05,0.0018907,0.0013205,0.00257206,-0.000668486,1.09444,0.0019756,0.0163398,1637,470,6.76202,15.995
420,554,6.75439,-15.6339,7.37768e-05,0.00211275,0.00160689,0.00299628,-0.000809745,1.06808,0.00231513,0.0166185,1644,470,6.75438,15.6339
427,554,6.7489,-15.2701,-2.46147e-05,0.00209174,0.00217733,0.0034544,-0.00138728,1.01159,0.00287902,0.0115567,1651,470,6.74891,15.2701
434,554,6.73352,-14.8953,-0.000437402,0.00101635,0.00302941,0.00340487,-0.00282592,0.903142,0.00360252,0.0105114,1658,470,6.73351,14.8953
441,554,6.72852,-14.495,-0.000694022,0.000206993,0.00379437,0.0035775,-0.00406453,0.844487,0.00441512,0.0116277,1665,470,6.7285,14.495
448,554,6.72205,-14.0716,-0.00114355,-0.000974303,0.00470143,0.00364327,-0.00576112,0.794397,0.00547532,0.0147119,1672,470,6.72209,14.0716
455,554,6.69067,-13.672,-0.00175939,-0.00273717,0.0057154,0.00348799,-0.00798455,0.742733,0.00679114,0.0161467,1679,470,6.69068,13.672
462,554,6.62769,-13.3015,-0.00244332,-0.00499599,0.00686932,0.00326723,-0.0107065,0.693545,0.00844026,0.0180217,1686,470,6.62774,13.3014
469,554,6.57654,-12.9215,-0.00326435,-0.00781149,0.00818599,0.00295794,-0.0140338,0.649943,0.0104819,0.0227595,1693,470,6.57657,12.9215
476,554,6.47546,-12.0219,-0.004572,-0.0114508,0.00942835,0.00202469,-0.0180475,0.610501,0.0127602,0.0442957,1700,470,6.47551,12.0218
483,554,6.33557,-11.0954,0,0,0,0,0,0,0,-1,1707,470,6.3356,11.0954
490,554,7.31543,-3.51794,0,0,0,0,0,0,0,-1,1714,470,7.3154,3.51794
497,554,10.9613,1.60983,0,0,0,0,0,0,0,-1,1721,470,10.9613,-1.60982
504,554,2.13257,-3.81628,0,0,0,0,0,0,0,-1,1728,470,2.1326,3.8163
511,554,1.31396,-4.02713,0,0,0,0,0,0,0,-1,1735,470,1.31398,4.02712
518,554,5.04236,-5.9472,0,0,0,0,0,0,0,-1,1742,470,5.04231,5.94721
525,554,0,0,0,0,0,0,0,0,0,-1,1749,470,0,0
532,554,0,0,0,0,0,0,0,0,0,-1,1756,470,0,0
539,554,0,0,0,0,0,0,0,0,0,-1,1763,470,0,0
546,554,0,0,0,0,0,0,0,0,0,-1,1770,470,0,0
553,554,0,0,0,0,0,0,0,0,0,-1,1777,470,0,0
560,554,0,0,0,0,0,0,0,0,0,-1,1784,470,0,0
567,554,0,0,0,0,0,0,0,0,0,-1,1791,470,0,0
574,554,0,0,0,0,0,0,0,0,0,-1,1798,470,0,0
581,554,0,0,0,0,0,0,0,0,0,-1,1805,470,0,0
588,554,0,0,0,0,0,0,0,0,0,-1,1812,470,0,0
595,554,0,0,0,0,0,0,0,0,0,-1,1819,470,0,0
602,554,0,0,0,0,0,0,0,0,0,-1,1826,470,0,0
609,554,0,0,0,0,0,0,0,0,0,-1,1833,470,0,0
616,554,0,0,0,0,0,0,0,0,0,-1,1840,470,0,0
623,554,0,0,0,0,0,0,0,0,0,-1,1847,470,0,0
630,554,0,0,0,0,0,0,0,0,0,-1,1854,470,0,0
637,554,0,0,0,0,0,0,0,0,0,-1,1861,470,0,0
644,554,0,0,0,0,0,0,0,0,0,-1,1868,470,0,0
651,554,0,0,0,0,0,0,0,0,0,-1,1875,470,0,0
658,554,0,0,0,0,0,0,0,0,0,-1,1882,470,0,0
665,554,0,0,0,0,0,0,0,0,0,-1,1889,470,0,0
672,554,0,0,0,0,0,0,0,0,0,-1,1896,470,0,0
679,554,0,0,0,0,0,0,0,0,0,-1,1903,470,0,0
686,554,0,0,0,0,0,0,0,0,0,-1,1910,470,0,0
693,554,0,0,0,0,0,0,0,0,0,-1,1917,470,0,0
700,554,0,0,0,0,0,0,0,0,0,-1,1924,470,0,0
707,554,0,0,0,0,0,0,0,0,0,-1,1931,470,0,0
714,554,0,0,0,0,0,0,0,0,0,-1,1938,470,0,0
721,554,0,0,0,0,0,0,0,0,0,-1,1945,470,0,0
728,554,0,0,0,0,0,0,0,0,0,-1,1952,470,0,0
735,554,0,0,0,0,0,0,0,0,0,-1,1959,470,0,0
742,554,0,0,0,0,0,0,0,0,0,-1,1966,470,0,0
749,554,0,0,0,0,0,0,0,0,0,-1,1973,470,0,0
756,554,0,0,0,0,0,0,0,0,0,-1,1980,470,0,0
763,554,0,0,0,0,0,0,0,0,0,-1,1987,470,0,0
770,554,0,0,0,0,0,0,0,0,0,-1,1994,470,0,0
777,554,0,0,0,0,0,0,0,0,0,-1,2001,470,0,0
784,554,0,0,0,0,0,0,0,0,0,-1,2008,470,0,0
791,554,0,0,0,0,0,0,0,0,0,-1,2015,470,0,0
798,554,0,0,0,0,0,0,0,0,0,-1,2022,470,0,0
805,554,0,0,0,0,0,0,0,0,0,-1,2029,470,0,0
812,554,0,0,0,0,0,0,0,0,0,-1,2036,470,0,0
-700,547,0,0,0,0,0,0,0,0,0,-1,524,477,0,0
-693,547,0,0,0,0,0,0,0,0,0,-1,531,477,0,0
-686,547,0,0,0,0,0,0,0,0,0,-1,538,477,0,0
-679,547,0,0,0,0,0,0,0,0,0,-1,545,477,0,0
-672,547,0,0,0,0,0,0,0,0,0,-1,552,477,0,0
-665,547,0,0,0,0,0,0,0,0,0,-1,559,477,0,0
-658,547,0,0,0,0,0,0,0,0,0,-1,566,477,0,0
-651,547,0,0,0,0,0,0,0,0,0,-1,573,477,0,0
-644,547,0,0,0,0,0,0,0,0,0,-1,580,477,0,0
-637,547,0,0,0,0,0,0,0,0,0,-1,587,477,0,0
-630,547,0,0,0,0,0,0,0,0,0,-1,594,477,0,0
-623,547,0,0,0,0,0,0,0,0,0,-1,601,477,0,0
-616,547,0,0,0,0,0,0,0,0,0,-1,608,477,0,0
-609,547,0,0,0,0,0,0,0,0,0,-1,615,477,0,0
-602,547,0,0,0,0,0,0,0,0,0,-1,622,477,0,0
-595,547,0,0,0,0,0,0,0,0,0,-1,629,477,0,0
-588,547,0,0,0,0,0,0,0,0,0,-1,636,477,0,0
-581,547,0,0,0,0,0,0,0,0,0,-1,643,477,0,0
-574,547,0,0,0,0,0,0,0,0,0,-1,650,477,0,0
-567,547,0,0,0,0,0,0,0,0,0,-1,657,477,0,0
-560,547,0,0,0,0,0,0,0,0,0,-1,664,477,0,0
-553,547,0,0,0,0,0,0,0,0,0,-1,671,477,0,0
-546,547,0,0,0,0,0,0,0,0,0,-1,678,477,0,0
-539,547,0,0,0,0,0,0,0,0,0,-1,685,477,0,0
-532,547,0,0,0,0,0,0,0,0,0,-1,692,477,0,0
-525,547,0,0,0,0,0,0,0,0,0,-1,699,477,0,0
-518,547,0,0,0,0,0,0,0,0,0,-1,706,477,0,0
-511,547,0,0,0,0,0,0,0,0,0,-1,713,477,0,0
-504,547,0,0,0,0,0,0,0,0,0,-1,720,477,0,0
-497,547,0,0,0,0,0,0,0,0,0,-1,727,477,0,0
-490,547,0,0,0,0,0,0,0,0,0,-1,734,477,0,0
-483,547,0,0,0,0,0,0,0,0,0,-1,741,477,0,0
-476,547,0,0,0,0,0,0,0,0,0,-1,748,477,0,0
-469,547,0,0,0,0,0,0,0,0,0,-1,755,477,0,0
-462,547,0,0,0,0,0,0,0,0,0,-1,762,477,0,0
-455,547,0,0,0,0,0,0,0,0,0,-1,769,477,0,0
-448,547,0,0,0,0,0,0,0,0,0,-1,776,477,0,0
-441,547,0,0,0,0,0,0,0,0,0,-1,783,477,0,0
-434,547,0,0,0,0,0,0,0,0,0,-1,790,477,0,0
-427,547,0,0,0,0,0,0,0,0,0,-1,797,477,0,0
-420,547,0,0,0,0,0,0,0,0,0,-1,804,477,0,0
-413,547,0,0,0,0,0,0,0,0,0,-1,811,477,0,0
-406,547,-0.391418,-10.4779,0,0,0,0,0,0,0,-1,818,477,-0.391439,10.4779
-399,547,-0.0641479,-11.2271,0,0,0,0,0,0,0,-1,825,477,-0.0641304,11.2271
-392,547,-1.52271,-4.41675,0,0,0,0,0,0,0,-1,832,477,-1.52273,4.41674
-385,547,-1.73743,-4.6431,0,0,0,0,0,0,0,-1,839,477,-1.73743,4.64308
-378,547,-2.41339,-4.60071,0,0,0,0,0,0,0,-1,846,477,-2.41337,4.60071
-371,547,1.64569,-11.1445,0,0,0,0,0,0,0,-1,853,477,1.64569,11.1445
-364,547,0.271729,-4.58582,0,0,0,0,0,0,0,-1,860,477,0.271753,4.5858
-357,547,0.510925,-13.1896,0,0,0,0,0,0,0,-1,867,477,0.510898,13.1896
-350,547,0.467407,-13.6064,0.011128,-0.0128406,-0.00339813,0.0116005,-0.0133131,-0.138148,0.0143952,0.0479115,874,477,0.46742,13.6064
-343,547,0.677551,-14.1003,0.0104666,-0.010745,-0.00338907,0.0109949,-0.0112733,-0.154647,0.0128569,0.0418991,881,477,0.67756,14.1003
-336,547,0.721252,-14.6198,0.00946412,-0.00890312,-0.00315688,0.00999156,-0.00943056,-0.165549,0.0112149,0.0178787,888,477,0.721278,14.6198
-329,547,0.682617,-15.005,0.00832907,-0.0072223,-0.00286585,0.00884039,-0.00773361,-0.176559,0.00957611,0.00980663,895,477,0.682638,15.005
-322,547,0.663452,-15.3989,0.00700089,-0.0053382,-0.0026061,0.00752873,-0.00586605,-0.199839,0.00775331,0.0100168,902,477,0.663444,15.3989
-315,547,0.655518,-15.7987,0.00567119,-0.00354598,-0.00240613,0.00626151,-0.0041363,-0.240585,0.00604483,0.00936553,909,477,0.655524,15.7987
-308,547,0.644104,-16.1639,0.00447302,-0.00196042,-0.0022412,0.00517679,-0.0026642,-0.304265,0.00460382,0.0116773,916,477,0.644128,16.1639
-301,547,0.639404,-16.5335,0.00343336,-0.000975896,-0.00199352,0.00420102,-0.00174356,-0.367578,0.00352851,0.0124307,923,477,0.639431,16.5335
-294,547,0.610779,-16.8898,0.00255457,-0.000521627,-0.00151359,0.00317441,-0.00114147,-0.388684,0.00258228,0.0104027,930,477,0.610808,16.8898
-287,547,0.592773,-17.2311,0.00185818,-0.000186423,-0.00108234,0.00232469,-0.000652933,-0.406958,0.00180719,0.0118205,937,477,0.592769,17.2311
-280,547,0.594421,-17.5642,0.00132875,-0.000533741,-0.000675954,0.00154822,-0.000753205,-0.313935,0.00135489,0.0128643,944,477,0.59445,17.5643
-273,547,0.580139,-17.916,0.000919043,-0.00116269,-9.35666e-05,0.00092324,-0.00116689,-0.0448259,0.00120947,0.0124424,951,477,0.580141,17.916
-266,547,0.571228,-18.2678,0.00132435,-0.00263654,0.000747631,0.00146077,-0.00277296,0.180483,0.00248317,0.0122128,958,477,0.571235,18.2677
-259,547,0.572937,-18.578,0.00291995,-0.00449494,0.000975721,0.00304619,-0.00462118,0.128672,0.00445778,0.0108098,965,477,0.572919,18.578
-252,547,0.591003,-18.8905,0.00418529,-0.00638408,0.00107103,0.00429273,-0.00649152,0.0999794,0.00626928,0.0112119,972,477,0.590998,18.8905
-245,547,0.59668,-19.2331,0.00563202,-0.00845954,0.00127313,0.00574612,-0.00857364,0.0893825,0.00832107,0.0128089,979,477,0.596655,19.2331
-238,547,0.5896,-19.5637,0.00760114,-0.0107186,0.00130139,0.00769313,-0.0108106,0.0705654,0.0107336,0.00903014,986,477,0.589587,19.5637
-231,547,0.572876,-19.8851,0.00982442,-0.0131196,0.00113529,0.00988046,-0.0131756,0.0493203,0.0133567,0.00829219,993,477,0.572889,19.8851
-224,547,0.596497,-20.1553,0.0122081,-0.0153405,0.000816383,0.0122323,-0.0153646,0.0295997,0.0159673,0.0115287,1000,477,0.596484,20.1553
-217,547,0.642761,-20.4487,0.0145355,-0.0171782,0.000339017,0.0145391,-0.0171818,0.0106883,0.0183353,0.0176242,1007,477,0.642779,20.4487
-210,547,0.718445,-20.6422,0.0167919,-0.0190084,-0.000327065,0.0167949,-0.0190113,-0.00913483,0.0206859,0.0300671,1014,477,0.718442,20.6422
-203,547,0.662964,-20.6134,0.018639,-0.0200203,-0.00108141,0.0186693,-0.0200506,-0.0279436,0.0223596,0.0416597,1021,477,0.66294,20.6134
-196,547,0.47229,-21.1505,0.0199922,-0.0208201,-0.00166804,0.0200603,-0.0208882,-0.0407802,0.0236432,0.0484389,1028,477,0.472287,21.1504
-189,547,0.687866,-21.2685,0,0,0,0,0,0,0,-1,1035,477,0.68789,21.2685
-182,547,0.624512,-21.2786,0,0,0,0,0,0,0,-1,1042,477,0.624563,21.2786
-175,547,-0.350098,-12.3584,0,0,0,0,0,0,0,-1,1049,477,-0.350098,12.3584
-168,547,1.12463,-8.66785,0,0,0,0,0,0,0,-1,1056,477,1.12461,8.66786
-161,547,1.78125,-21.8799,0,0,0,0,0,0,0,-1,1063,477,1.78127,21.8799
-154,547,1.79163,-22.1116,0,0,0,0,0,0,0,-1,1070,477,1.79164,22.1116
-147,547,1.67725,-22.258,0,0,0,0,0,0,0,-1,1077,477,1.67726,22.258
-140,547,1.55676,-22.5229,0,0,0,0,0,0,0,-1,1084,477,1.5568,22.5229
-133,547,2.31665,-17.9421,0,0,0,0,0,0,0,-1,1091,477,2.31667,17.9421
-126,547,0.784302,-9.76431,0,0,0,0,0,0,0,-1,1098,477,0.78428,9.76432
-119,547,0.190308,-15.7633,0,0,0,0,0,0,0,-1,1105,477,0.190348,15.7633
-112,547,4.36194,-9.23029,0,0,0,0,0,0,0,-1,1112,477,4.36195,9.23029
-105,547,4.448,-9.17819,0,0,0,0,0,0,0,-1,1119,477,4.44799,9.1782
-98,547,1.50391,-7.20621,0,0,0,0,0,0,0,-1,1126,477,1.50395,7.20621
-91,547,1.37805,-7.12024,0,0,0,0,0,0,0,-1,1133,477,1.37804,7.12025
-84,547,1.94202,-6.66241,0,0,0,0,0,0,0,-1,1140,477,1.94201,6.66241
-77,547,-2.28357,1.8588,0,0,0,0,0,0,0,-1,1147,477,-2.28356,-1.85879
-70,547,-3.70178,-0.874908,0,0,0,0,0,0,0,-1,1154,477,-3.70182,0.874918
-63,547,-5.12012,-3.60861,0,0,0,0,0,0,0,-1,1161,477,-5.12009,3.60862
-56,547,-6.01917,-6.2399,0,0,0,0,0,0,0,-1,1168,477,-6.01921,6.23991
-49,547,-6.729,-8.60349,0,0,0,0,0,0,0,-1,1175,477,-6.72899,8.60348
-42,547,-2.41736,-5.53012,0,0,0,0,0,0,0,-1,1182,477,-2.41734,5.53011
-35,547,-2.96838,-4.45734,0,0,0,0,0,0,0,-1,1189,477,-2.96839,4.45734
-28,547,-0.869141,-1.29901,0,0,0,0,0,0,0,-1,1196,477,-0.869135,1.29901
-21,547,-1.03882,-31.3449,0,0,0,0,0,0,0,-1,1203,477,-1.03885,31.3449
-14,547,-0.255859,-30.8377,0.10522,-0.0761153,0.0814454,0.13643,-0.107325,0.365933,0.141065,0.0468789,1210,477,-0.255883,30.8377
-7,547,0.414429,-30.0367,0.103636,-0.0358964,0.0869315,0.145334,-0.0775951,0.447254,0.130674,0.0450205,1217,477,0.41437,30.0367
0,547,0.668335,-29.4492,0,0,0,0,0,0,0,-1,1224,477,0.668374,29.4492
7,547,0.75415,-28.7595,0,0,0,0,0,0,0,-1,1231,477,0.754143,28.7595
14,547,0,0,0,0,0,0,0,0,0,-1,1238,477,0,0
21,547,0,0,0,0,0,0,0,0,0,-1,1245,477,0,0
28,547,0,0,0,0,0,0,0,0,0,-1,1252,477,0,0
35,547,0,0,0,0,0,0,0,0,0,-1,1259,477,0,0
42,547,0,0,0,0,0,0,0,0,0,-1,1266,477,0,0
49,547,0,0,0,0,0,0,0,0,0,-1,1273,477,0,0
56,547,0,0,0,0,0,0,0,0,0,-1,1280,477,0,0
63,547,0,0,0,0,0,0,0,0,0,-1,1287,477,0,0
70,547,0,0,0,0,0,0,0,0,0,-1,1294,477,0,0
77,547,0,0,0,0,0,0,0,0,0,-1,1301,477,0,0
84,547,0,0,0,0,0,0,0,0,0,-1,1308,477,0,0
91,547,0,0,0,0,0,0,0,0,0,-1,1315,477,0,0
98,547,0,0,0,0,0,0,0,0,0,-1,1322,477,0,0
105,547,2.73059,-26.5889,0.0686507,-0.11303,0.000424935,0.0686517,-0.113031,0.00233889,0.105932,0.0441083,1329,477,2.73064,26.5889
112,547,2.59412,-26.3654,0.0394328,-0.108243,0.00888905,0.0399659,-0.108776,0.0599049,0.0888864,0.0435798,1336,477,2.59414,26.3654
119,547,2.38611,-25.849,0.0138654,-0.101318,0.0188932,0.0168852,-0.104338,0.158495,0.0758165,0.041709,1343,477,2.38616,25.849
126,547,2.34119,-25.263,-0.00570114,-0.0947382,0.0304449,0.00371353,-0.104153,0.299909,0.0707056,0.0434642,1350,477,2.34117,25.263
133,547,2.26184,-24.8072,-0.0196961,-0.090537,0.041319,-0.000693507,-0.10954,0.431056,0.0727963,0.0439246,1357,477,2.26182,24.8072
140,547,2.79333,-24.1407,0,0,0,0,0,0,0,-1,1364,477,2.79329,24.1407
147,547,10.6384,-26.0777,0,0,0,0,0,0,0,-1,1371,477,10.6385,26.0777
154,547,10.7108,-26.0746,0,0,0,0,0,0,0,-1,1378,477,10.7109,26.0746
161,547,8.26404,-25.4342,0,0,0,0,0,0,0,-1,1385,477,8.264,25.4342
168,547,8.24194,-25.5132,0,0,0,0,0,0,0,-1,1392,477,8.24192,25.5132
175,547,3.35034,-0.26532,0,0,0,0,0,0,0,-1,1399,477,3.3503,0.265306
182,547,4.26038,3.72672,0,0,0,0,0,0,0,-1,1406,477,4.26039,-3.7267
189,547,3.40454,1.28671,0,0,0,0,0,0,0,-1,1413,477,3.40457,-1.28673
196,547,3.53931,1.87793,0,0,0,0,0,0,0,-1,1420,477,3.53928,-1.87794
203,547,6.49414,-0.425842,0,0,0,0,0,0,0,-1,1427,477,6.4941,0.425844
210,547,4.82092,0.53595,0,0,0,0,0,0,0,-1,1434,477,4.82096,-0.535942
217,547,4.68579,0.480072,0,0,0,0,0,0,0,-1,1441,477,4.68577,-0.480069
224,547,4.55615,0.739807,0,0,0,0,0,0,0,-1,1448,477,4.55613,-0.73981
231,547,5.90869,-3.57721,0,0,0,0,0,0,0,-1,1455,477,5.90871,3.57722
238,547,5.50049,-3.15356,0,0,0,0,0,0,0,-1,1462,477,5.50045,3.15356
245,547,5.13708,-2.65213,0,0,0,0,0,0,0,-1,1469,477,5.13708,2.65212
252,547,3.73511,-0.645233,0,0,0,0,0,0,0,-1,1476,477,3.73515,0.645237
259,547,5.86816,-3.20816,0,0,0,0,0,0,0,-1,1483,477,5.86815,3.20816
266,547,5.40222,-2.45731,0,0,0,0,0,0,0,-1,1490,477,5.40221,2.45732
273,547,3.05737,0.495789,0,0,0,0,0,0,0,-1,1497,477,3.05742,-0.49578
280,547,2.0885,1.47797,0,0,0,0,0,0,0,-1,1504,477,2.08848,-1.47795
287,547,2.31177,-2.21716,0,0,0,0,0,0,0,-1,1511,477,2.31174,2.21717
294,547,2.4823,-3.03659,0,0,0,0,0,0,0,-1,1518,477,2.48229,3.0366
301,547,4.72119,-3.93454,0,0,0,0,0,0,0,-1,1525,477,4.72119,3.93453
308,547,4.07471,-5.42175,0,0,0,0,0,0,0,-1,1532,477,4.07468,5.42174
315,547,3.58496,-6.62112,0,0,0,0,0,0,0,-1,1539,477,3.58497,6.62113
322,547,5.73926,-14.1878,0,0,0,0,0,0,0,-1,1546,477,5.73926,14.1878
329,547,6.97241,-19.8928,0,0,0,0,0,0,0,-1,1553,477,6.97236,19.8928
336,547,7.11829,-19.7998,0,0,0,0,0,0,0,-1,1560,477,7.11825,19.7998
343,547,7.24182,-19.5864,9.82464e-05,-0.0063069,-0.00428122,0.0022422,-0.00845086,-0.464272,0.00651129,0.0377717,1567,477,7.24182,19.5864
350,547,7.17065,-19.2576,-0.000237704,-0.00540622,-0.00371606,0.00170435,-0.00734827,-0.481572,0.00555481,0.0233269,1574,477,7.1706,19.2576
357,547,7.13733,-18.9183,-0.000398989,-0.00428368,-0.00324128,0.00143737,-0.00612005,-0.515463,0.00463407,0.015121,1581,477,7.13735,18.9183
364,547,7.13416,-18.5654,-0.000359341,-0.00326909,-0.00258688,0.00115371,-0.00478214,-0.529239,0.00363423,0.0105835,1588,477,7.13412,18.5654
371,547,7.15747,-18.2199,-0.000233238,-0.00235176,-0.00192174,0.000901838,-0.00348683,-0.533517,0.00267631,0.00912876,1595,477,7.15747,18.2199
378,547,7.15527,-17.871,-0.000267796,-0.00155757,-0.00146704,0.000689841,-0.0025152,-0.578319,0.0019479,0.0101745,1602,477,7.15531,17.871
385,547,7.14099,-17.5071,-0.000275938,-0.000648606,-0.000971008,0.000526453,-0.001451,-0.690602,0.00118255,0.0111572,1609,477,7.14094,17.5071
392,547,7.13879,-17.1516,-0.000260765,-2.98387e-05,-0.000567687,0.000434008,-0.000724612,-0.885726,0.000675907,0.0112237,1616,477,7.13874,17.1516
399,547,7.13354,-16.7777,-0.000208999,0.000384591,-0.000169872,0.000429766,-0.000254174,-1.31087,0.000399187,0.0127242,1623,477,7.1336,16.7777
406,547,7.15027,-16.4037,-0.00017443,0.000806542,0.000222058,0.000854467,-0.000222355,1.35823,0.000656438,0.013064,1630,477,7.15029,16.4037
413,547,7.15125,-16.0165,-0.000154326,0.00123211,0.000582473,0.00144433,-0.000366551,1.22139,0.00110552,0.0133936,1637,477,7.15129,16.0165
420,547,7.15198,-15.6757,-8.58503e-05,0.00150179,0.000911778,0.00191689,-0.000500951,1.14357,0.00147357,0.0153116,1644,477,7.15198,15.6757
427,547,7.14209,-15.2821,-0.000135923,0.00159871,0.00141029,0.00238704,-0.000924251,1.06108,0.00197297,0.0149103,1651,477,7.14213,15.2821
434,547,7.11072,-14.8906,-0.000388302,0.000955275,0.00209309,0.00248174,-0.00191477,0.940683,0.00254536,0.0103326,1658,477,7.11076,14.8906
441,547,7.07581,-14.5161,-0.00053581,0.000409627,0.00275507,0.00273224,-0.00285842,0.870362,0.00322804,0.0104757,1665,477,7.07579,14.5161
448,547,7.06396,-14.0978,-0.00081339,-0.000409502,0.00351275,0.0029071,-0.00412999,0.814111,0.00408327,0.0105605,1672,477,7.06398,14.0978
455,547,7.05603,-13.696,-0.00121137,-0.0016422,0.00433646,0.00291502,-0.00576859,0.760581,0.00510292,0.0113117,1679,477,7.05605,13.696
462,547,7.02698,-13.3106,-0.00162365,-0.00327245,0.00525346,0.0028697,-0.0077658,0.70757,0.0063536,0.0109472,1686,477,7.02697,13.3106
469,547,6.97864,-12.9077,-0.00214029,-0.00530547,0.00628232,0.00275571,-0.0102015,0.66201,0.0078818,0.0182673,1693,477,6.97861,12.9077
476,547,6.98682,-12.3676,-0.00313899,-0.00795044,0.00716043,0.00200904,-0.0130985,0.623335,0.00947328,0.0376137,1700,477,6.98686,12.3676
483,547,6.73755,-12.1618,0,0,0,0,0,0,0,-1,1707,477,6.73756,12.1618
490,547,3.65271,-3.71707,0,0,0,0,0,0,0,-1,1714,477,3.65277,3.71708
497,547,2.55481,-3.81421,0,0,0,0,0,0,0,-1,1721,477,2.55476,3.8142
504,547,4.01953,-2.22714,0,0,0,0,0,0,0,-1,1728,477,4.0195,2.22713
511,547,5.2146,-6.9552,0,0,0,0,0,0,0,-1,1735,477,5.21464,6.95521
518,547,5.24243,-6.56122,0,0,0,0,0,0,0,-1,1742,477,5.24241,6.56121
525,547,5.7533,-5.33215,0,0,0,0,0,0,0,-1,1749,477,5.75329,5.33215
532,547,0,0,0,0,0,0,0,0,0,-1,1756,477,0,0
539,547,0,0,0,0,0,0,0,0,0,-1,1763,477,0,0
546,547,0,0,0,0,0,0,0,0,0,-1,1770,477,0,0
553,547,0,0,0,0,0,0,0,0,0,-1,1777,477,0,0
560,547,0,0,0,0,0,0,0,0,0,-1,1784,477,0,0
567,547,0,0,0,0,0,0,0,0,0,-1,1791,477,0,0
574,547,0,0,0,0,0,0,0,0,0,-1,1798,477,0,0
581,547,0,0,0,0,0,0,0,0,0,-1,1805,477,0,0
588,547,0,0,0,0,0,0,0,0,0,-1,1812,477,0,0
595,547,0,0,0,0,0,0,0,0,0,-1,1819,477,0,0
602,547,0,0,0,0,0,0,0,0,0,-1,1826,477,0,0
609,547,0,0,0,0,0,0,0,0,0,-1,1833,477,0,0
616,547,0,0,0,0,0,0,0,0,0,-1,1840,477,0,0
623,547,0,0,0,0,0,0,0,0,0,-1,1847,477,0,0
630,547,0,0,0,0,0,0,0,0,0,-1,1854,477,0,0
637,547,0,0,0,0,0,0,0,0,0,-1,1861,477,0,0
644,547,0,0,0,0,0,0,0,0,0,-1,1868,477,0,0
651,547,0,0,0,0,0,0,0,0,0,-1,1875,477,0,0
658,547,0,0,0,0,0,0,0,0,0,-1,1882,477,0,0
665,547,0,0,0,0,0,0,0,0,0,-1,1889,477,0,0
672,547,0,0,0,0,0,0,0,0,0,-1,1896,477,0,0
679,547,0,0,0,0,0,0,0,0,0,-1,1903,477,0,0
686,547,0,0,0,0,0,0,0,0,0,-1,1910,477,0,0
693,547,0,0,0,0,0,0,0,0,0,-1,1917,477,0,0
700,547,0,0,0,0,0,0,0,0,0,-1,1924,477,0,0
707,547,0,0,0,0,0,0,0,0,0,-1,1931,477,0,0
714,547,0,0,0,0,0,0,0,0,0,-1,1938,477,0,0
721,547,0,0,0,0,0,0,0,0,0,-1,1945,477,0,0
728,547,0,0,0,0,0,0,0,0,0,-1,1952,477,0,0
735,547,0,0,0,0,0,0,0,0,0,-1,1959,477,0,0
742,547,0,0,0,0,0,0,0,0,0,-1,1966,477,0,0
749,547,0,0,0,0,0,0,0,0,0,-1,1973,477,0,0
756,547,0,0,0,0,0,0,0,0,0,-1,1980,477,0,0
763,547,0,0,0,0,0,0,0,0,0,-1,1987,477,0,0
770,547,0,0,0,0,0,0,0,0,0,-1,1994,477,0,0
777,547,0,0,0,0,0,0,0,0,0,-1,2001,477,0,0
784,547,0,0,0,0,0,0,0,0,0,-1,2008,477,0,0
791,547,0,0,0,0,0,0,0,0,0,-1,2015,477,0,0
798,547,0,0,0,0,0,0,0,0,0,-1,2022,477,0,0
805,547,0,0,0,0,0,0,0,0,0,-1,2029,477,0,0
812,547,0,0,0,0,0,0,0,0,0,-1,2036,477,0,0
-700,540,0,0,0,0,0,0,0,0,0,-1,524,484,0,0
-693,540,0,0,0,0,0,0,0,0,0,-1,531,484,0,0
-686,540,0,0,0,0,0,0,0,0,0,-1,538,484,0,0
-679,540,0,0,0,0,0,0,0,0,0,-1,545,484,0,0
-672,540,0,0,0,0,0,0,0,0,0,-1,552,484,0,0
-665,540,0,0,0,0,0,0,0,0,0,-1,559,484,0,0
-658,540,0,0,0,0,0,0,0,0,0,-1,566,484,0,0
-651,540,0,0,0,0,0,0,0,0,0,-1,573,484,0,0
-644,540,0,0,0,0,0,0,0,0,0,-1,580,484,0,0
-637,540,0,0,0,0,0,0,0,0,0,-1,587,484,0,0
-630,540,0,0,0,0,0,0,0,0,0,-1,594,484,0,0
-623,540,0,0,0,0,0,0,0,0,0,-1,601,484,0,0
-616,540,0,0,0,0,0,0,0,0,0,-1,608,484,0,0
-609,540,0,0,0,0,0,0,0,0,0,-1,615,484,0,0
-602,540,0,0,0,0,0,0,0,0,0,-1,622,484,0,0
-595,540,0,0,0,0,0,0,0,0,0,-1,629,484,0,0
-588,540,0,0,0,0,0,0,0,0,0,-1,636,484,0,0
-581,540,0,0,0,0,0,0,0,0,0,-1,643,484,0,0
-574,540,0,0,0,0,0,0,0,0,0,-1,650,484,0,0
-567,540,0,0,0,0,0,0,0,0,0,-1,657,484,0,0
-560,540,0,0,0,0,0,0,0,0,0,-1,664,484,0,0
-553,540,0,0,0,0,0,0,0,0,0,-1,671,484,0,0
-546,540,0,0,0,0,0,0,0,0,0,-1,678,484,0,0
-539,540,0,0,0,0,0,0,0,0,0,-1,685,484,0,0
-532,540,0,0,0,0,0,0,0,0,0,-1,692,484,0,0
-525,540,0,0,0,0,0,0,0,0,0,-1,699,484,0,0
-518,540,0,0,0,0,0,0,0,0,0,-1,706,484,0,0
-511,540,0,0,0,0,0,0,0,0,0,-1,713,484,0,0
-504,540,0,0,0,0,0,0,0,0,0,-1,720,484,0,0
-497,540,0,0,0,0,0,0,0,0,0,-1,727,484,0,0
-490,540,0,0,0,0,0,0,0,0,0,-1,734,484,0,0
-483,540,0,0,0,0,0,0,0,0,0,-1,741,484,0,0
-476,540,0,0,0,0,0,0,0,0,0,-1,748,484,0,0
-469,540,0,0,0,0,0,0,0,0,0,-1,755,484,0,0
-462,540,0,0,0,0,0,0,0,0,0,-1,762,484,0,0
-455,540,0,0,0,0,0,0,0,0,0,-1,769,484,0,0
-448,540,0,0,0,0,0,0,0,0,0,-1,776,484,0,0
-441,540,0,0,0,0,0,0,0,0,0,-1,783,484,0,0
-434,540,0,0,0,0,0,0,0,0,0,-1,790,484,0,0
-427,540,0,0,0,0,0,0,0,0,0,-1,797,484,0,0
-420,540,0.291504,-4.59543,0,0,0,0,0,0,0,-1,804,484,0.291518,4.59544
-413,540,-0.521362,-9.61209,0,0,0,0,0,0,0,-1,811,484,-0.521343,9.61208
-406,540,-0.557251,-10.6337,0,0,0,0,0,0,0,-1,818,484,-0.55726,10.6337
-399,540,0.23407,-10.625,0,0,0,0,0,0,0,-1,825,484,0.234092,10.625
-392,540,0.67572,-11.8254,0,0,0,0,0,0,0,-1,832,484,0.675725,11.8254
-385,540,-2.29407,-5.03418,0,0,0,0,0,0,0,-1,839,484,-2.29408,5.03418
-378,540,1.06445,-10.5824,0,0,0,0,0,0,0,-1,846,484,1.06446,10.5824
-371,540,1.14825,-10.7452,0,0,0,0,0,0,0,-1,853,484,1.14827,10.7452
-364,540,0.310364,-13.5659,0,0,0,0,0,0,0,-1,860,484,0.310339,13.5659
-357,540,0.438904,-13.1273,0,0,0,0,0,0,0,-1,867,484,0.438927,13.1273
-350,540,0.403381,-13.6324,0.00723393,-0.00811734,-0.00309735,0.00783531,-0.00871872,-0.191773,0.00956201,0.0330804,874,484,0.403401,13.6324
-343,540,0.362366,-14.1822,0.00697695,-0.0069178,-0.00301516,0.00760304,-0.00754388,-0.204735,0.0087451,0.0172605,881,484,0.362352,14.1822
-336,540,0.322388,-14.6639,0.00639789,-0.00587514,-0.00273009,0.00697779,-0.00645504,-0.209299,0.0077574,0.0126659,888,484,0.322407,14.6639
-329,540,0.304993,-15.025,0.00569605,-0.00488774,-0.00240847,0.00621835,-0.00541004,-0.213554,0.00671906,0.00994439,895,484,0.304967,15.025
-322,540,0.288208,-15.4135,0.00478664,-0.0036945,-0.00204919,0.0052558,-0.00416367,-0.225073,0.0054505,0.0128659,902,484,0.288224,15.4135
-315,540,0.272156,-15.785,0.00384622,-0.00246076,-0.00172345,0.00428645,-0.00290099,-0.250084,0.00417529,0.0115234,909,484,0.27218,15.785
-308,540,0.269226,-16.1425,0.00299788,-0.00135468,-0.00145613,0.0034401,-0.00179689,-0.29484,0.00307279,0.0114727,916,484,0.269233,16.1424
-301,540,0.237915,-16.4847,0.00228127,-0.000766493,-0.00111705,0.00264683,-0.00113206,-0.316275,0.00223941,0.0126454,923,484,0.237922,16.4847
-294,540,0.241882,-16.8405,0.00168796,-0.000677244,-0.000573329,0.00181961,-0.000808892,-0.225708,0.00155452,0.0118298,930,484,0.241897,16.8405
-287,540,0.259216,-17.2039,0.00127154,-0.000679205,-8.99555e-05,0.00127568,-0.000683345,-0.0459833,0.00114815,0.00873184,937,484,0.259208,17.2039
-280,540,0.245056,-17.5592,0.000934641,-0.00131329,0.000353524,0.000988928,-0.00136757,0.152368,0.00136637,0.0096918,944,484,0.245048,17.5592
-273,540,0.234741,-17.9122,0.000659653,-0.00244136,0.00104086,0.000976618,-0.00275832,0.295602,0.00223666,0.0118252,951,484,0.23477,17.9122
-266,540,0.247192,-18.2695,0.0014898,-0.00433392,0.00200803,0.00211505,-0.00495917,0.301857,0.00419288,0.013028,958,484,0.247167,18.2695
-259,540,0.259338,-18.606,0.00380441,-0.00657853,0.00211588,0.00421904,-0.00699315,0.193507,0.00653908,0.0123417,965,484,0.259325,18.606
-252,540,0.279907,-18.8907,0.00553329,-0.00887524,0.00206199,0.00582257,-0.00916452,0.139382,0.00872422,0.0128371,972,484,0.279931,18.8907
-245,540,0.284302,-19.2275,0.00753304,-0.0114398,0.0021548,0.00777469,-0.0116815,0.111678,0.0113082,0.0131742,979,484,0.284274,19.2275
-238,540,0.262573,-19.5435,0.01034,-0.0142421,0.00199157,0.0105003,-0.0144024,0.0803189,0.0144363,0.00994952,986,484,0.262596,19.5435
-231,540,0.260986,-19.8319,0.0135877,-0.0172741,0.00157183,0.0136675,-0.0173539,0.0507563,0.0179523,0.0124101,993,484,0.261014,19.8319
-224,540,0.239319,-20.0937,0.0171624,-0.0202145,0.000947453,0.0171864,-0.0202385,0.0253269,0.0216312,0.0200086,1000,484,0.239335,20.0937
-217,540,0.352722,-20.1814,0.0208106,-0.0227124,8.35474e-05,0.0208108,-0.0227126,0.0019196,0.0251362,0.0318919,1007,484,0.35272,20.1814
-210,540,0.786926,-20.269,0.0244843,-0.0251191,-0.00106554,0.0245072,-0.025142,-0.021468,0.0286658,0.039847,1014,484,0.786938,20.2691
-203,540,1.05347,-20.7115,0.0276053,-0.0264869,-0.00240826,0.0277123,-0.026594,-0.0444043,0.0313559,0.0470796,1021,484,1.05349,20.7115
-196,540,0.0335693,-21.3455,0,0,0,0,0,0,0,-1,1028,484,0.0335161,21.3455
-189,540,-0.460327,-20.0344,0,0,0,0,0,0,0,-1,1035,484,-0.46034,20.0344
-182,540,0.109375,-15.2948,0,0,0,0,0,0,0,-1,1042,484,0.109331,15.2948
-175,540,1.73413,-10.728,0,0,0,0,0,0,0,-1,1049,484,1.73414,10.728
-168,540,1.18164,-7.65347,0,0,0,0,0,0,0,-1,1056,484,1.18163,7.65347
-161,540,-0.405884,-9.86481,0,0,0,0,0,0,0,-1,1063,484,-0.405886,9.8648
-154,540,1.96863,-22.0727,0,0,0,0,0,0,0,-1,1070,484,1.96859,22.0727
-147,540,1.32764,-21.9952,0,0,0,0,0,0,0,-1,1077,484,1.32762,21.9952
-140,540,1.40735,-15.6289,0,0,0,0,0,0,0,-1,1084,484,1.4073,15.6289
-133,540,2.28345,-17.6413,0,0,0,0,0,0,0,-1,1091,484,2.2835,17.6413
-126,540,1.46765,-17.5085,0,0,0,0,0,0,0,-1,1098,484,1.46764,17.5085
-119,540,6.18579,-10.4846,0,0,0,0,0,0,0,-1,1105,484,6.18582,10.4846
-112,540,5.8468,-9.65106,0,0,0,0,0,0,0,-1,1112,484,5.84681,9.65106
-105,540,5.50781,-8.81754,0,0,0,0,0,0,0,-1,1119,484,5.5078,8.81753
-98,540,0.73877,-3.08093,0,0,0,0,0,0,0,-1,1126,484,0.738754,3.08092
-91,540,1.56519,-7.48666,0,0,0,0,0,0,0,-1,1133,484,1.56514,7.48667
-84,540,-0.945923,4.43073,0,0,0,0,0,0,0,-1,1140,484,-0.945891,-4.43074
-77,540,-2.28894,2.14368,0,0,0,0,0,0,0,-1,1147,484,-2.28894,-2.14368
-70,540,-3.75244,-0.452576,0,0,0,0,0,0,0,-1,1154,484,-3.75244,0.452576
-63,540,-5.26257,-3.04767,0,0,0,0,0,0,0,-1,1161,484,-5.26262,3.04766
-56,540,-5.19055,-6.12595,0,0,0,0,0,0,0,-1,1168,484,-5.19057,6.12595
-49,540,-5.63867,-8.52298,0,0,0,0,0,0,0,-1,1175,484,-5.63871,8.52298
-42,540,0,0,0,0,0,0,0,0,0,-1,1182,484,0,0
-35,540,0,0,0,0,0,0,0,0,0,-1,1189,484,0,0
-28,540,0,0,0,0,0,0,0,0,0,-1,1196,484,0,0
-21,540,0,0,0,0,0,0,0,0,0,-1,1203,484,0,0
-14,540,0,0,0,0,0,0,0,0,0,-1,1210,484,0,0
-7,540,0,0,0,0,0,0,0,0,0,-1,1217,484,0,0
0,540,0,0,0,0,0,0,0,0,0,-1,1224,484,0,0
7,540,0,0,0,0,0,0,0,0,0,-1,1231,484,0,0
14,540,0,0,0,0,0,0,0,0,0,-1,1238,484,0,0
21,540,0,0,0,0,0,0,0,0,0,-1,1245,484,0,0
28,540,0,0,0,0,0,0,0,0,0,-1,1252,484,0,0
35,540,0,0,0,0,0,0,0,0,0,-1,1259,484,0,0
42,540,0,0,0,0,0,0,0,0,0,-1,1266,484,0,0
49,540,0,0,0,0,0,0,0,0,0,-1,1273,484,0,0
56,540,0,0,0,0,0,0,0,0,0,-1,1280,484,0,0
63,540,0,0,0,0,0,0,0,0,0,-1,1287,484,0,0
70,540,0,0,0,0,0,0,0,0,0,-1,1294,484,0,0
77,540,0,0,0,0,0,0,0,0,0,-1,1301,484,0,0
84,540,0,0,0,0,0,0,0,0,0,-1,1308,484,0,0
91,540,0,0,0,0,0,0,0,0,0,-1,1315,484,0,0
98,540,0,0,0,0,0,0,0,0,0,-1,1322,484,0,0
105,540,0,0,0,0,0,0,0,0,0,-1,1329,484,0,0
112,540,0,0,0,0,0,0,0,0,0,-1,1336,484,0,0
119,540,0,0,0,0,0,0,0,0,0,-1,1343,484,0,0
126,540,0,0,0,0,0,0,0,0,0,-1,1350,484,0,0
133,540,0,0,0,0,0,0,0,0,0,-1,1357,484,0,0
140,540,0,0,0,0,0,0,0,0,0,-1,1364,484,0,0
147,540,0,0,0,0,0,0,0,0,0,-1,1371,484,0,0
154,540,0,0,0,0,0,0,0,0,0,-1,1378,484,0,0
161,540,0,0,0,0,0,0,0,0,0,-1,1385,484,0,0
168,540,3.05078,-0.0010376,0,0,0,0,0,0,0,-1,1392,484,3.05084,0.00102554
175,540,3.37708,0.617035,0,0,0,0,0,0,0,-1,1399,484,3.37707,-0.617046
182,540,3.32678,1.23267,0,0,0,0,0,0,0,-1,1406,484,3.32678,-1.23266
189,540,3.5813,2.15619,0,0,0,0,0,0,0,-1,1413,484,3.58129,-2.1562
196,540,1.84448,-0.801483,0,0,0,0,0,0,0,-1,1420,484,1.84446,0.80148
203,540,4.14648,0.702087,0,0,0,0,0,0,0,-1,1427,484,4.14645,-0.702089
210,540,4.50671,-0.56076,0,0,0,0,0,0,0,-1,1434,484,4.50667,0.560771
217,540,5.00452,-0.278717,0,0,0,0,0,0,0,-1,1441,484,5.00452,0.278709
224,540,6.44458,-2.83527,0,0,0,0,0,0,0,-1,1448,484,6.44457,2.83525
231,540,6.9231,-3.10504,0,0,0,0,0,0,0,-1,1455,484,6.92307,3.10505
238,540,6.4823,-2.58365,0,0,0,0,0,0,0,-1,1462,484,6.48225,2.58363
245,540,6.02087,-1.97916,0,0,0,0,0,0,0,-1,1469,484,6.02088,1.97915
252,540,6.50647,-3.56006,0,0,0,0,0,0,0,-1,1476,484,6.50649,3.56006
259,540,6.01941,-2.798,0,0,0,0,0,0,0,-1,1483,484,6.01941,2.79801
266,540,5.5332,-2.02853,0,0,0,0,0,0,0,-1,1490,484,5.53323,2.02855
273,540,5.06787,-1.28137,0,0,0,0,0,0,0,-1,1497,484,5.06786,1.28136
280,540,1.62903,-2.14609,0,0,0,0,0,0,0,-1,1504,484,1.62906,2.1461
287,540,1.97156,-2.45053,0,0,0,0,0,0,0,-1,1511,484,1.97159,2.45053
294,540,2.44165,-2.6185,0,0,0,0,0,0,0,-1,1518,484,2.44167,2.6185
301,540,4.36169,-2.54272,0,0,0,0,0,0,0,-1,1525,484,4.36165,2.54272
308,540,4.2019,-4.30469,0,0,0,0,0,0,0,-1,1532,484,4.20193,4.3047
315,540,4.45923,-5.32101,0,0,0,0,0,0,0,-1,1539,484,4.45923,5.32103
322,540,4.71655,-6.33737,0,0,0,0,0,0,0,-1,1546,484,4.71653,6.33736
329,540,5.8949,-12.9383,0,0,0,0,0,0,0,-1,1553,484,5.89492,12.9383
336,540,7.16467,-17.7826,0,0,0,0,0,0,0,-1,1560,484,7.16469,17.7826
343,540,7.7312,-19.6898,0,0,0,0,0,0,0,-1,1567,484,7.73117,19.6898
350,540,7.49426,-19.313,0,0,0,0,0,0,0,-1,1574,484,7.49422,19.313
357,540,7.58643,-18.6985,-0.00107584,-0.00597296,-0.00448695,0.00158717,-0.00863597,-0.535628,0.00635281,0.0401094,1581,484,7.58646,18.6985
364,540,7.45728,-18.4913,-0.000843419,-0.00465018,-0.00366634,0.00138417,-0.00687777,-0.545973,0.00510945,0.023172,1588,484,7.45731,18.4913
371,540,7.4762,-18.2021,-0.000544071,-0.00344415,-0.00284391,0.00119813,-0.00518636,-0.549639,0.00391849,0.0149249,1595,484,7.47621,18.2021
378,540,7.49658,-17.852,-0.000590941,-0.0024701,-0.00237791,0.00102629,-0.00408733,-0.597249,0.0031237,0.0121994,1602,484,7.49663,17.852
385,540,7.4978,-17.4986,-0.000610593,-0.00161241,-0.00189411,0.000847728,-0.00307073,-0.65613,0.00238058,0.0144141,1609,484,7.49779,17.4986
392,540,7.47852,-17.1367,-0.000599665,-0.00093373,-0.00149961,0.000742191,-0.00227559,-0.729935,0.00181574,0.0124687,1616,484,7.47854,17.1367
399,540,7.48486,-16.7733,-0.000570924,-0.000493122,-0.00112482,0.000593467,-0.00165751,-0.802683,0.00134713,0.0158733,1623,484,7.48488,16.7734
406,540,7.50085,-16.4005,-0.000543708,-0.000104115,-0.000802472,0.000508117,-0.00115594,-0.91907,0.000984713,0.016159,1630,484,7.50086,16.4005
413,540,7.50476,-16.0179,-0.000478418,0.000366608,-0.000425026,0.000543398,-0.000655209,-1.17661,0.000693019,0.0128777,1637,484,7.50479,16.0179
420,540,7.51733,-15.6347,-0.000414226,0.000673282,-6.62415e-05,0.000677302,-0.000418246,-1.51018,0.000638382,0.012127,1644,484,7.51728,15.6347
427,540,7.50134,-15.2528,-0.000435097,0.000847284,0.000368639,0.000945702,-0.000533514,1.30991,0.000865007,0.0133609,1651,484,7.50129,15.2528
434,540,7.48303,-14.8683,-0.000563317,0.000551467,0.000942562,0.00108911,-0.00110096,1.05242,0.00126445,0.0163979,1658,484,7.48298,14.8683
441,540,7.50562,-14.4748,-0.000617426,0.000237695,0.00156467,0.00143217,-0.0018119,0.918772,0.00187724,0.0195207,1665,484,7.50566,14.4748
448,540,7.46802,-14.0996,-0.000738465,-0.000269948,0.00225836,0.00176628,-0.00277469,0.837078,0.00264319,0.0114337,1672,484,7.46796,14.0996
455,540,7.4447,-13.6985,-0.00094346,-0.0010523,0.00299408,0.0019967,-0.00399245,0.776311,0.00352125,0.0104833,1679,484,7.44476,13.6985
462,540,7.41931,-13.288,-0.00112839,-0.00214534,0.00379197,0.00218905,-0.00546278,0.71875,0.00455056,0.0105119,1686,484,7.41926,13.288
469,540,7.38989,-12.89,-0.00140469,-0.00353246,0.00466274,0.002314,-0.00725115,0.673235,0.00576244,0.0132459,1693,484,7.38984,12.89
476,540,7.36694,-12.4839,-0.00215802,-0.00538297,0.00532114,0.00178959,-0.00933058,0.63828,0.00689478,0.0192265,1700,484,7.36695,12.484
483,540,7.31079,-12.0905,-0.00305556,-0.00767569,0.0059004,0.000970865,-0.0117021,0.598815,0.00814435,0.0369497,1707,484,7.31075,12.0905
490,540,7.41504,-11.9477,0,0,0,0,0,0,0,-1,1714,484,7.41509,11.9477
497,540,4.49695,-7.83932,0,0,0,0,0,0,0,-1,1721,484,4.49699,7.83932
504,540,5.52747,-4.4433,0,0,0,0,0,0,0,-1,1728,484,5.5275,4.44329
511,540,5.82471,-6.83521,0,0,0,0,0,0,0,-1,1735,484,5.82465,6.83522
518,540,8.3833,-8.52429,0,0,0,0,0,0,0,-1,1742,484,8.38336,8.5243
525,540,5.83813,-7.04257,0,0,0,0,0,0,0,-1,1749,484,5.83816,7.04257
532,540,2.84265,-1.07925,0,0,0,0,0,0,0,-1,1756,484,2.84269,1.07927
539,540,0,0,0,0,0,0,0,0,0,-1,1763,484,0,0
546,540,0,0,0,0,0,0,0,0,0,-1,1770,484,0,0
553,540,0,0,0,0,0,0,0,0,0,-1,1777,484,0,0
560,540,0,0,0,0,0,0,0,0,0,-1,1784,484,0,0
567,540,0,0,0,0,0,0,0,0,0,-1,1791,484,0,0
574,540,0,0,0,0,0,0,0,0,0,-1,1798,484,0,0
581,540,0,0,0,0,0,0,0,0,0,-1,1805,484,0,0
588,540,0,0,0,0,0,0,0,0,0,-1,1812,484,0,0
595,540,0,0,0,0,0,0,0,0,0,-1,1819,484,0,0
602,540,0,0,0,0,0,0,0,0,0,-1,1826,484,0,0
609,540,0,0,0,0,0,0,0,0,0,-1,1833,484,0,0
616,540,0,0,0,0,0,0,0,0,0,-1,1840,484,0,0
623,540,0,0,0,0,0,0,0,0,0,-1,1847,484,0,0
630,540,0,0,0,0,0,0,0,0,0,-1,1854,484,0,0
637,540,0,0,0,0,0,0,0,0,0,-1,1861,484,0,0
644,540,0,0,0,0,0,0,0,0,0,-1,1868,484,0,0
651,540,0,0,0,0,0,0,0,0,0,-1,1875,484,0,0
658,540,0,0,0,0,0,0,0,0,0,-1,1882,484,0,0
665,540,0,0,0,0,0,0,0,0,0,-1,1889,484,0,0
672,540,0,0,0,0,0,0,0,0,0,-1,1896,484,0,0
679,540,0,0,0,0,0,0,0,0,0,-1,1903,484,0,0
686,540,0,0,0,0,0,0,0,0,0,-1,1910,484,0,0
693,540,0,0,0,0,0,0,0,0,0,-1,1917,484,0,0
700,540,0,0,0,0,0,0,0,0,0,-1,1924,484,0,0
707,540,0,0,0,0,0,0,0,0,0,-1,1931,484,0,0
714,540,0,0,0,0,0,0,0,0,0,-1,1938,484,0,0
721,540,0,0,0,0,0,0,0,0,0,-1,1945,484,0,0
728,540,0,0,0,0,0,0,0,0,0,-1,1952,484,0,0
735,540,0,0,0,0,0,0,0,0,0,-1,1959,484,0,0
742,540,0,0,0,0,0,0,0,0,0,-1,1966,484,0,0
749,540,0,0,0,0,0,0,0,0,0,-1,1973,484,0,0
756,540,0,0,0,0,0,0,0,0,0,-1,1980,484,0,0
763,540,0,0,0,0,0,0,0,0,0,-1,1987,484,0,0
770,540,0,0,0,0,0,0,0,0,0,-1,1994,484,0,0
777,540,0,0,0,0,0,0,0,0,0,-1,2001,484,0,0
784,540,0,0,0,0,0,0,0,0,0,-1,2008,484,0,0
791,540,0,0,0,0,0,0,0,0,0,-1,2015,484,0,0
798,540,0,0,0,0,0,0,0,0,0,-1,2022,484,0,0
805,540,0,0,0,0,0,0,0,0,0,-1,2029,484,0,0
812,540,0,0,0,0,0,0,0,0,0,-1,2036,484,0,0
-700,533,0,0,0,0,0,0,0,0,0,-1,524,491,0,0
-693,533,0,0,0,0,0,0,0,0,0,-1,531,491,0,0
-686,533,0,0,0,0,0,0,0,0,0,-1,538,491,0,0
-679,533,0,0,0,0,0,0,0,0,0,-1,545,491,0,0
-672,533,0,0,0,0,0,0,0,0,0,-1,552,491,0,0
-665,533,0,0,0,0,0,0,0,0,0,-1,559,491,0,0
-658,533,0,0,0,0,0,0,0,0,0,-1,566,491,0,0
-651,533,0,0,0,0,0,0,0,0,0,-1,573,491,0,0
-644,533,0,0,0,0,0,0,0,0,0,-1,580,491,0,0
-637,533,0,0,0,0,0,0,0,0,0,-1,587,491,0,0
-630,533,0,0,0,0,0,0,0,0,0,-1,594,491,0,0
-623,533,0,0,0,0,0,0,0,0,0,-1,601,491,0,0
-616,533,0,0,0,0,0,0,0,0,0,-1,608,491,0,0
-609,533,0,0,0,0,0,0,0,0,0,-1,615,491,0,0
-602,533,0,0,0,0,0,0,0,0,0,-1,622,491,0,0
-595,533,0,0,0,0,0,0,0,0,0,-1,629,491,0,0
-588,533,0,0,0,0,0,0,0,0,0,-1,636,491,0,0
-581,533,0,0,0,0,0,0,0,0,0,-1,643,491,0,0
-574,533,0,0,0,0,0,0,0,0,0,-1,650,491,0,0
-567,533,0,0,0,0,0,0,0,0,0,-1,657,491,0,0
-560,533,0,0,0,0,0,0,0,0,0,-1,664,491,0,0
-553,533,0,0,0,0,0,0,0,0,0,-1,671,491,0,0
-546,533,0,0,0,0,0,0,0,0,0,-1,678,491,0,0
-539,533,0,0,0,0,0,0,0,0,0,-1,685,491,0,0
-532,533,0,0,0,0,0,0,0,0,0,-1,692,491,0,0
-525,533,0,0,0,0,0,0,0,0,0,-1,699,491,0,0
-518,533,0,0,0,0,0,0,0,0,0,-1,706,491,0,0
-511,533,0,0,0,0,0,0,0,0,0,-1,713,491,0,0
-504,533,0,0,0,0,0,0,0,0,0,-1,720,491,0,0
-497,533,0,0,0,0,0,0,0,0,0,-1,727,491,0,0
-490,533,0,0,0,0,0,0,0,0,0,-1,734,491,0,0
-483,533,0,0,0,0,0,0,0,0,0,-1,741,491,0,0
-476,533,0,0,0,0,0,0,0,0,0,-1,748,491,0,0
-469,533,0,0,0,0,0,0,0,0,0,-1,755,491,0,0
-462,533,0,0,0,0,0,0,0,0,0,-1,762,491,0,0
-455,533,0,0,0,0,0,0,0,0,0,-1,769,491,0,0
-448,533,0,0,0,0,0,0,0,0,0,-1,776,491,0,0
-441,533,0,0,0,0,0,0,0,0,0,-1,783,491,0,0
-434,533,0,0,0,0,0,0,0,0,0,-1,790,491,0,0
-427,533,0.559814,-4.40222,0,0,0,0,0,0,0,-1,797,491,0.559816,4.40222
-420,533,0.390503,-5.39261,0,0,0,0,0,0,0,-1,804,491,0.390501,5.3926
-413,533,-0.940735,-10.1455,0,0,0,0,0,0,0,-1,811,491,-0.940757,10.1455
-406,533,-0.00811768,-10.2885,0,0,0,0,0,0,0,-1,818,491,-0.00811193,10.2886
-399,533,0.00512695,-10.4487,0,0,0,0,0,0,0,-1,825,491,0.00510224,10.4487
-392,533,-0.0876465,-10.9253,0,0,0,0,0,0,0,-1,832,491,-0.0876439,10.9253
-385,533,-1.69116,-6.64645,0,0,0,0,0,0,0,-1,839,491,-1.69115,6.64645
-378,533,0.538757,-10.1314,0,0,0,0,0,0,0,-1,846,491,0.538741,10.1314
-371,533,-0.19281,-13.295,0,0,0,0,0,0,0,-1,853,491,-0.192828,13.295
-364,533,-0.0427856,-13.3654,0.00367683,-0.00544675,-0.0027917,0.00446327,-0.00623319,-0.274589,0.00620372,0.0450503,860,491,-0.0428109,13.3654
-357,533,0.0409546,-13.4085,0.0043229,-0.00531839,-0.00282654,0.00509045,-0.00608595,-0.265158,0.00646122,0.0235369,867,491,0.0409535,13.4085
-350,533,0.041626,-13.8232,0.00448964,-0.00502637,-0.00265664,0.00518108,-0.0057178,-0.254616,0.00629501,0.0120677,874,491,0.0416122,13.8232
-343,533,0.0119629,-14.2651,0.00446707,-0.00438208,-0.00251171,0.00513028,-0.00504528,-0.258155,0.00587493,0.0110398,881,491,0.0119391,14.2651
-336,533,-0.0340576,-14.6804,0.00415169,-0.00384209,-0.00218172,0.00470838,-0.00439877,-0.249828,0.00525903,0.014723,888,491,-0.0340359,14.6803
-329,533,-0.046875,-15.0418,0.00373709,-0.00328712,-0.00184187,0.00419076,-0.00374079,-0.241502,0.00458173,0.0134832,895,491,-0.0469039,15.0418
-322,533,-0.0646362,-15.4097,0.00310142,-0.00251514,-0.00145478,0.00345586,-0.00286959,-0.238985,0.00365722,0.0112816,902,491,-0.0646134,15.4097
-315,533,-0.0819092,-15.7769,0.00242839,-0.00165164,-0.00108588,0.00269939,-0.00192264,-0.244572,0.00268106,0.0123881,909,491,-0.0819131,15.7769
-308,533,-0.095459,-16.1246,0.00184324,-0.00088591,-0.000770531,0.00204576,-0.00108843,-0.257017,0.00183744,0.011331,916,491,-0.0954508,16.1246
-301,533,-0.118652,-16.4684,0.00137255,-0.000572819,-0.000395598,0.00144992,-0.000650188,-0.193138,0.00124145,0.0124565,923,491,-0.118635,16.4684
-294,533,-0.0980835,-16.8275,0.0010058,-0.000747359,0.000153677,0.00101917,-0.000760727,0.0867753,0.00103123,0.0117847,930,491,-0.0980596,16.8275
-287,533,-0.0776367,-17.1893,0.000832681,-0.00102216,0.000644342,0.00103455,-0.00122403,0.303603,0.00130552,0.00929125,937,491,-0.0776279,17.1893
-280,533,-0.0957031,-17.5488,0.000663409,-0.00190742,0.00110399,0.00107242,-0.00231643,0.354808,0.00200002,0.00893813,944,491,-0.0957116,17.5488
-273,533,-0.106689,-17.9004,0.000500846,-0.0035457,0.00189417,0.00124913,-0.00429398,0.376227,0.0033574,0.0120996,951,491,-0.106678,17.9004
-266,533,-0.0905151,-18.2523,0.00178156,-0.00592237,0.00302354,0.00282648,-0.00696728,0.332743,0.00582046,0.0118061,958,491,-0.0905236,18.2523
-259,533,-0.0761108,-18.5841,0.00495789,-0.00865669,0.00303863,0.00560529,-0.00930409,0.209919,0.00869579,0.0126361,965,491,-0.0761158,18.5841
-252,533,-0.0593872,-18.863,0.00729309,-0.0115213,0.00288121,0.00772442,-0.0119526,0.148603,0.0114476,0.0155742,972,491,-0.0593991,18.863
-245,533,-0.0224609,-19.1634,0.01005,-0.0147953,0.00291213,0.0103868,-0.0151321,0.115132,0.014818,0.0199088,979,491,-0.0224688,19.1634
-238,533,-0.0239868,-19.383,0.0139618,-0.0184107,0.00260686,0.0141704,-0.0186193,0.0798413,0.0189891,0.0231153,986,491,-0.0239702,19.383
-231,533,0.142761,-19.5054,0.0186137,-0.022324,0.00194637,0.018706,-0.0224163,0.0474022,0.0237742,0.0355363,993,491,0.142768,19.5054
-224,533,-0.234375,-19.6051,0.0238793,-0.0262461,0.000991421,0.0238989,-0.0262657,0.0197685,0.0289733,0.0463098,1000,491,-0.234353,19.6051
-217,533,-0.319214,-19.7161,0.0295367,-0.0296734,-0.00043419,0.0295399,-0.0296766,-0.00733252,0.0341887,0.0494294,1007,491,-0.31923,19.7161
-210,533,1.22845,-20.0872,0.0354782,-0.0328985,-0.00234519,0.0355586,-0.0329789,-0.0342445,0.0395795,0.0466627,1014,491,1.22848,20.0872
-203,533,1.44672,-20.7214,0,0,0,0,0,0,0,-1,1021,491,1.44674,20.7214
-196,533,0.688354,-19.5743,0,0,0,0,0,0,0,-1,1028,491,0.688406,19.5743
-189,533,-0.169189,-15.0303,0,0,0,0,0,0,0,-1,1035,491,-0.169241,15.0303
-182,533,1.26123,-11.4969,0,0,0,0,0,0,0,-1,1042,491,1.26128,11.4969
-175,533,0.937744,-7.36966,0,0,0,0,0,0,0,-1,1049,491,0.937769,7.36965
-168,533,2.64807,-2.7543,0,0,0,0,0,0,0,-1,1056,491,2.64812,2.7543
-161,533,1.91833,-1.76553,0,0,0,0,0,0,0,-1,1063,491,1.91836,1.76554
-154,533,0.376709,-11.0633,0,0,0,0,0,0,0,-1,1070,491,0.376715,11.0632
-147,533,0.383789,-12.1586,0,0,0,0,0,0,0,-1,1077,491,0.383829,12.1586
-140,533,1.14001,-15.4608,0,0,0,0,0,0,0,-1,1084,491,1.14005,15.4608
-133,533,0.189941,-16.0795,0,0,0,0,0,0,0,-1,1091,491,0.18994,16.0795
-126,533,2.89612,-2.59003,0,0,0,0,0,0,0,-1,1098,491,2.89608,2.59003
-119,533,3.00842,-12.8239,0,0,0,0,0,0,0,-1,1105,491,3.00841,12.8239
-112,533,7.05884,-10.21,0,0,0,0,0,0,0,-1,1112,491,7.0588,10.21
-105,533,3.84839,1.12769,0,0,0,0,0,0,0,-1,1119,491,3.84843,-1.12769
-98,533,-1.39392,-5.16367,0,0,0,0,0,0,0,-1,1126,491,-1.39394,5.16367
-91,533,0.367432,4.49753,0,0,0,0,0,0,0,-1,1133,491,0.367468,-4.49754
-84,533,-0.88623,3.03604,0,0,0,0,0,0,0,-1,1140,491,-0.886288,-3.03605
-77,533,0,0,0,0,0,0,0,0,0,-1,1147,491,0,0
-70,533,0,0,0,0,0,0,0,0,0,-1,1154,491,0,0
-63,533,0,0,0,0,0,0,0,0,0,-1,1161,491,0,0
-56,533,0,0,0,0,0,0,0,0,0,-1,1168,491,0,0
-49,533,0,0,0,0,0,0,0,0,0,-1,1175,491,0,0
-42,533,0,0,0,0,0,0,0,0,0,-1,1182,491,0,0
-35,533,0,0,0,0,0,0,0,0,0,-1,1189,491,0,0
-28,533,0,0,0,0,0,0,0,0,0,-1,1196,491,0,0
-21,533,0,0,0,0,0,0,0,0,0,-1,1203,491,0,0
-14,533,0,0,0,0,0,0,0,0,0,-1,1210,491,0,0
-7,533,0,0,0,0,0,0,0,0,0,-1,1217,491,0,0
0,533,0,0,0,0,0,0,0,0,0,-1,1224,491,0,0
7,533,0,0,0,0,0,0,0,0,0,-1,1231,491,0,0
14,533,0,0,0,0,0,0,0,0,0,-1,1238,491,0,0
21,533,0,0,0,0,0,0,0,0,0,-1,1245,491,0,0
28,533,0,0,0,0,0,0,0,0,0,-1,1252,491,0,0
35,533,0,0,0,0,0,0,0,0,0,-1,1259,491,0,0
42,533,0,0,0,0,0,0,0,0,0,-1,1266,491,0,0
49,533,0,0,0,0,0,0,0,0,0,-1,1273,491,0,0
56,533,0,0,0,0,0,0,0,0,0,-1,1280,491,0,0
63,533,0,0,0,0,0,0,0,0,0,-1,1287,491,0,0
70,533,0,0,0,0,0,0,0,0,0,-1,1294,491,0,0
77,533,0,0,0,0,0,0,0,0,0,-1,1301,491,0,0
84,533,0,0,0,0,0,0,0,0,0,-1,1308,491,0,0
91,533,0,0,0,0,0,0,0,0,0,-1,1315,491,0,0
98,533,0,0,0,0,0,0,0,0,0,-1,1322,491,0,0
105,533,0,0,0,0,0,0,0,0,0,-1,1329,491,0,0
112,533,0,0,0,0,0,0,0,0,0,-1,1336,491,0,0
119,533,0,0,0,0,0,0,0,0,0,-1,1343,491,0,0
126,533,0,0,0,0,0,0,0,0,0,-1,1350,491,0,0
133,533,0,0,0,0,0,0,0,0,0,-1,1357,491,0,0
140,533,0,0,0,0,0,0,0,0,0,-1,1364,491,0,0
147,533,0,0,0,0,0,0,0,0,0,-1,1371,491,0,0
154,533,0,0,0,0,0,0,0,0,0,-1,1378,491,0,0
161,533,0,0,0,0,0,0,0,0,0,-1,1385,491,0,0
168,533,0,0,0,0,0,0,0,0,0,-1,1392,491,0,0
175,533,0,0,0,0,0,0,0,0,0,-1,1399,491,0,0
182,533,0,0,0,0,0,0,0,0,0,-1,1406,491,0,0
189,533,0,0,0,0,0,0,0,0,0,-1,1413,491,0,0
196,533,0,0,0,0,0,0,0,0,0,-1,1420,491,0,0
203,533,3.7887,1.16193,0,0,0,0,0,0,0,-1,1427,491,3.78872,-1.16193
210,533,5.09558,-0.216034,0,0,0,0,0,0,0,-1,1434,491,5.09559,0.216028
217,533,6.91614,-2.46814,0,0,0,0,0,0,0,-1,1441,491,6.91618,2.46814
224,533,7.23621,-2.1857,0,0,0,0,0,0,0,-1,1448,491,7.23621,2.1857
231,533,7.23474,-1.92282,0,0,0,0,0,0,0,-1,1455,491,7.2347,1.92282
238,533,7.23535,-1.67258,0,0,0,0,0,0,0,-1,1462,491,7.23539,1.67258
245,533,6.86682,-1.2301,0,0,0,0,0,0,0,-1,1469,491,6.86686,1.23011
252,533,6.63354,-3.07825,0,0,0,0,0,0,0,-1,1476,491,6.6335,3.07824
259,533,6.16431,-2.35037,0,0,0,0,0,0,0,-1,1483,491,6.1643,2.35037
266,533,5.68884,-1.6214,0,0,0,0,0,0,0,-1,1490,491,5.68885,1.6214
273,533,5.21399,-0.864227,0,0,0,0,0,0,0,-1,1497,491,5.21403,0.864227
280,533,1.41089,-1.97946,0,0,0,0,0,0,0,-1,1504,491,1.41087,1.97946
287,533,1.6814,-2.44443,0,0,0,0,0,0,0,-1,1511,491,1.6814,2.44444
294,533,2.2384,-2.57626,0,0,0,0,0,0,0,-1,1518,491,2.23839,2.57625
301,533,3.39941,-4.0817,0,0,0,0,0,0,0,-1,1525,491,3.3994,4.08171
308,533,4.13733,-4.14752,0,0,0,0,0,0,0,-1,1532,491,4.13727,4.14752
315,533,4.80762,-5.29349,0,0,0,0,0,0,0,-1,1539,491,4.80762,5.29347
322,533,5.47803,-6.43942,0,0,0,0,0,0,0,-1,1546,491,5.47798,6.43943
329,533,3.88477,-3.86301,0,0,0,0,0,0,0,-1,1553,491,3.88475,3.86299
336,533,6.70923,-13.2003,0,0,0,0,0,0,0,-1,1560,491,6.70926,13.2004
343,533,7.06677,-17.1133,0,0,0,0,0,0,0,-1,1567,491,7.06673,17.1133
350,533,5.62915,-8.02426,0,0,0,0,0,0,0,-1,1574,491,5.6291,8.02426
357,533,7.9491,-18.7216,0,0,0,0,0,0,0,-1,1581,491,7.94914,18.7216
364,533,7.85938,-18.359,-0.00149387,-0.00586915,-0.00477222,0.00156824,-0.00893125,-0.570485,0.00653989,0.0458297,1588,491,7.85941,18.359
371,533,7.77197,-18.154,-0.000964871,-0.00424819,-0.00375168,0.00148861,-0.00670167,-0.579159,0.00503783,0.0391015,1595,491,7.77199,18.154
378,533,7.802,-17.8167,-0.00115174,-0.00311504,-0.00336741,0.00137419,-0.00564097,-0.643571,0.00429267,0.028508,1602,491,7.80196,17.8167
385,533,7.89026,-17.4643,-0.00122903,-0.00240002,-0.00291257,0.00115632,-0.00478536,-0.686209,0.00363747,0.0231959,1609,491,7.89029,17.4643
392,533,7.87781,-17.14,-0.00122002,-0.00170694,-0.00253493,0.00108311,-0.00401007,-0.737525,0.00309818,0.0136601,1616,491,7.87781,17.14
399,533,7.85547,-16.7887,-0.00120776,-0.00128991,-0.00219319,0.000944742,-0.00344241,-0.776035,0.00266624,0.0121032,1623,491,7.85548,16.7887
406,533,7.86023,-16.4019,-0.00115753,-0.000954734,-0.00192392,0.00087046,-0.00298272,-0.811726,0.0023334,0.0144269,1630,491,7.86023,16.4019
413,533,7.85815,-16.0048,-0.00101825,-0.000475764,-0.00151656,0.000793616,-0.00228763,-0.87389,0.00184735,0.0128094,1637,491,7.85817,16.0048
420,533,7.84473,-15.6213,-0.000921625,-0.000153957,-0.00112144,0.000647519,-0.0017231,-0.950283,0.00141486,0.0122328,1644,491,7.84478,15.6213
427,533,7.87683,-15.2232,-0.000879528,5.68208e-05,-0.000731361,0.000457022,-0.00127973,-1.0701,0.00103954,0.0129048,1651,491,7.8768,15.2232
434,533,7.8623,-14.8626,-0.000866095,4.07473e-05,-0.000220556,9.15441e-05,-0.000916892,-1.34443,0.000643949,0.0132673,1658,491,7.86227,14.8626
441,533,7.86975,-14.4804,-0.000806283,-8.16268e-05,0.000393177,9.0713e-05,-0.000978623,1.15769,0.000684659,0.0149362,1665,491,7.8698,14.4804
448,533,7.85742,-14.1018,-0.000767721,-0.000346643,0.00105846,0.000522014,-0.00163638,0.883572,0.00130033,0.0149791,1672,491,7.85739,14.1018
455,533,7.83362,-13.6876,-0.000796738,-0.000784103,0.00174405,0.000953641,-0.00253448,0.787209,0.00208167,0.0147844,1679,491,7.83364,13.6876
462,533,7.80542,-13.2571,-0.000803198,-0.00148985,0.00246028,0.00133759,-0.00363064,0.716072,0.0029685,0.0143018,1686,491,7.80547,13.2571
469,533,7.80103,-12.8814,-0.000910312,-0.00242493,0.00321567,0.00163602,-0.00497127,0.669752,0.00397342,0.00963266,1693,491,7.80107,12.8814
476,533,7.81714,-12.4553,-0.00149929,-0.00372942,0.00371578,0.00126514,-0.00649384,0.639629,0.00480676,0.0111525,1700,491,7.8171,12.4553
483,533,7.83191,-12.0068,-0.00218401,-0.00532273,0.00412673,0.000661696,-0.00816843,0.603697,0.00567905,0.0189346,1707,491,7.83192,12.0068
490,533,7.82825,-11.7534,-0.00310636,-0.00752725,0.00443236,-0.000363833,-0.0102698,0.554092,0.00672852,0.0467421,1714,491,7.82829,11.7534
497,533,7.88354,-11.4901,0,0,0,0,0,0,0,-1,1721,491,7.88355,11.4902
504,533,8.0293,-10.6812,0,0,0,0,0,0,0,-1,1728,491,8.02924,10.6812
511,533,8.12891,-10.3922,0,0,0,0,0,0,0,-1,1735,491,8.12889,10.3921
518,533,8.16016,-10.0013,0,0,0,0,0,0,0,-1,1742,491,8.16014,10.0013
525,533,8.98108,-8.45325,0,0,0,0,0,0,0,-1,1749,491,8.98106,8.45326
532,533,3.24243,0.0737,0,0,0,0,0,0,0,-1,1756,491,3.24239,-0.0737072
539,533,3.61609,1.62427,0,0,0,0,0,0,0,-1,1763,491,3.61606,-1.62426
546,533,3.59607,1.65799,0,0,0,0,0,0,0,-1,1770,491,3.59605,-1.658
553,533,0,0,0,0,0,0,0,0,0,-1,1777,491,0,0
560,533,0,0,0,0,0,0,0,0,0,-1,1784,491,0,0
567,533,0,0,0,0,0,0,0,0,0,-1,1791,491,0,0
574,533,0,0,0,0,0,0,0,0,0,-1,1798,491,0,0
581,533,0,0,0,0,0,0,0,0,0,-1,1805,491,0,0
588,533,0,0,0,0,0,0,0,0,0,-1,1812,491,0,0
595,533,0,0,0,0,0,0,0,0,0,-1,1819,491,0,0
602,533,0,0,0,0,0,0,0,0,0,-1,1826,491,0,0
609,533,0,0,0,0,0,0,0,0,0,-1,1833,491,0,0
616,533,0,0,0,0,0,0,0,0,0,-1,1840,491,0,0
623,533,0,0,0,0,0,0,0,0,0,-1,1847,491,0,0
630,533,0,0,0,0,0,0,0,0,0,-1,1854,491,0,0
637,533,0,0,0,0,0,0,0,0,0,-1,1861,491,0,0
644,533,0,0,0,0,0,0,0,0,0,-1,1868,491,0,0
651,533,0,0,0,0,0,0,0,0,0,-1,1875,491,0,0
658,533,0,0,0,0,0,0,0,0,0,-1,1882,491,0,0
665,533,0,0,0,0,0,0,0,0,0,-1,1889,491,0,0
672,533,0,0,0,0,0,0,0,0,0,-1,1896,491,0,0
679,533,0,0,0,0,0,0,0,0,0,-1,1903,491,0,0
686,533,0,0,0,0,0,0,0,0,0,-1,1910,491,0,0
693,533,0,0,0,0,0,0,0,0,0,-1,1917,491,0,0
700,533,0,0,0,0,0,0,0,0,0,-1,1924,491,0,0
707,533,0,0,0,0,0,0,0,0,0,-1,1931,491,0,0
714,533,0,0,0,0,0,0,0,0,0,-1,1938,491,0,0
721,533,0,0,0,0,0,0,0,0,0,-1,1945,491,0,0
728,533,0,0,0,0,0,0,0,0,0,-1,1952,491,0,0
735,533,0,0,0,0,0,0,0,0,0,-1,1959,491,0,0
742,533,0,0,0,0,0,0,0,0,0,-1,1966,491,0,0
749,533,0,0,0,0,0,0,0,0,0,-1,1973,491,0,0
756,533,0,0,0,0,0,0,0,0,0,-1,1980,491,0,0
763,533,0,0,0,0,0,0,0,0,0,-1,1987,491,0,0
770,533,0,0,0,0,0,0,0,0,0,-1,1994,491,0,0
777,533,0,0,0,0,0,0,0,0,0,-1,2001,491,0,0
784,533,0,0,0,0,0,0,0,0,0,-1,2008,491,0,0
791,533,0,0,0,0,0,0,0,0,0,-1,2015,491,0,0
798,533,0,0,0,0,0,0,0,0,0,-1,2022,491,0,0
805,533,0,0,0,0,0,0,0,0,0,-1,2029,491,0,0
812,533,0,0,0,0,0,0,0,0,0,-1,2036,491,0,0
-700,526,0,0,0,0,0,0,0,0,0,-1,524,498,0,0
-693,526,0,0,0,0,0,0,0,0,0,-1,531,498,0,0
-686,526,0,0,0,0,0,0,0,0,0,-1,538,498,0,0
-679,526,0,0,0,0,0,0,0,0,0,-1,545,498,0,0
-672,526,0,0,0,0,0,0,0,0,0,-1,552,498,0,0
-665,526,0,0,0,0,0,0,0,0,0,-1,559,498,0,0
-658,526,0,0,0,0,0,0,0,0,0,-1,566,498,0,0
-651,526,0,0,0,0,0,0,0,0,0,-1,573,498,0,0
-644,526,0,0,0,0,0,0,0,0,0,-1,580,498,0,0
-637,526,0,0,0,0,0,0,0,0,0,-1,587,498,0,0
-630,526,0,0,0,0,0,0,0,0,0,-1,594,498,0,0
-623,526,0,0,0,0,0,0,0,0,0,-1,601,498,0,0
-616,526,0,0,0,0,0,0,0,0,0,-1,608,498,0,0
-609,526,0,0,0,0,0,0,0,0,0,-1,615,498,0,0
-602,526,0,0,0,0,0,0,0,0,0,-1,622,498,0,0
-595,526,0,0,0,0,0,0,0,0,0,-1,629,498,0,0
-588,526,0,0,0,0,0,0,0,0,0,-1,636,498,0,0
-581,526,0,0,0,0,0,0,0,0,0,-1,643,498,0,0
-574,526,0,0,0,0,0,0,0,0,0,-1,650,498,0,0
-567,526,0,0,0,0,0,0,0,0,0,-1,657,498,0,0
-560,526,0,0,0,0,0,0,0,0,0,-1,664,498,0,0
-553,526,0,0,0,0,0,0,0,0,0,-1,671,498,0,0
-546,526,0,0,0,0,0,0,0,0,0,-1,678,498,0,0
-539,526,0,0,0,0,0,0,0,0,0,-1,685,498,0,0
-532,526,0,0,0,0,0,0,0,0,0,-1,692,498,0,0
-525,526,0,0,0,0,0,0,0,0,0,-1,699,498,0,0
-518,526,0,0,0,0,0,0,0,0,0,-1,706,498,0,0
-511,526,0,0,0,0,0,0,0,0,0,-1,713,498,0,0
-504,526,0,0,0,0,0,0,0,0,0,-1,720,498,0,0
-497,526,0,0,0,0,0,0,0,0,0,-1,727,498,0,0
-490,526,0,0,0,0,0,0,0,0,0,-1,734,498,0,0
-483,526,0,0,0,0,0,0,0,0,0,-1,741,498,0,0
-476,526,0,0,0,0,0,0,0,0,0,-1,748,498,0,0
-469,526,0,0,0,0,0,0,0,0,0,-1,755,498,0,0
-462,526,0,0,0,0,0,0,0,0,0,-1,762,498,0,0
-455,526,0,0,0,0,0,0,0,0,0,-1,769,498,0,0
-448,526,0,0,0,0,0,0,0,0,0,-1,776,498,0,0
-441,526,0,0,0,0,0,0,0,0,0,-1,783,498,0,0
-434,526,-0.153564,-5.96649,0,0,0,0,0,0,0,-1,790,498,-0.153589,5.9665
-427,526,1.23206,-4.59808,0,0,0,0,0,0,0,-1,797,498,1.23208,4.59809
-420,526,0.758484,-5.79626,0,0,0,0,0,0,0,-1,804,498,0.758485,5.79626
-413,526,-0.164368,-10.6656,0,0,0,0,0,0,0,-1,811,498,-0.164348,10.6656
-406,526,-0.261658,-10.5179,0,0,0,0,0,0,0,-1,818,498,-0.261676,10.5179
-399,526,-0.429443,-10.3914,0,0,0,0,0,0,0,-1,825,498,-0.429465,10.3915
-392,526,-0.542542,-10.2509,0,0,0,0,0,0,0,-1,832,498,-0.542545,10.2509
-385,526,0.134216,-11.3948,0,0,0,0,0,0,0,-1,839,498,0.134208,11.3949
-378,526,-0.401672,-12.266,0,0,0,0,0,0,0,-1,846,498,-0.40169,12.266
-371,526,-0.379272,-12.6897,0.000388956,-0.00284627,-0.00217025,0.00147812,-0.00393543,-0.465136,0.00323106,0.0386647,853,498,-0.379279,12.6897
-364,526,-0.344849,-13.0601,0.00166872,-0.00299913,-0.00229478,0.0026079,-0.00393831,-0.388471,0.00380539,0.0198986,860,498,-0.344874,13.0601
-357,526,-0.36615,-13.4325,0.00235474,-0.00306913,-0.00229528,0.00319568,-0.00391007,-0.35119,0.00410941,0.0128306,867,498,-0.366137,13.4325
-350,526,-0.359619,-13.8265,0.00265508,-0.0029858,-0.00214842,0.00338015,-0.00371086,-0.325484,0.00409548,0.0114561,874,498,-0.359636,13.8265
-343,526,-0.381592,-14.2433,0.00276934,-0.00264508,-0.00200256,0.00342951,-0.00330525,-0.318443,0.00388854,0.0150153,881,498,-0.381571,14.2434
-336,526,-0.406128,-14.6555,0.002623,-0.00239556,-0.00168608,0.00313685,-0.00290942,-0.295821,0.00349164,0.0159861,888,498,-0.406105,14.6555
-329,526,-0.40802,-15.0377,0.00240475,-0.00209606,-0.00137697,0.0027926,-0.00248391,-0.274553,0.00304813,0.0155239,895,498,-0.408049,15.0377
-322,526,-0.411377,-15.3831,0.00196508,-0.00157932,-0.00101186,0.00223361,-0.00184785,-0.259396,0.00235993,0.0107399,902,498,-0.411396,15.383
-315,526,-0.430115,-15.7711,0.00148312,-0.000962795,-0.000644533,0.00164257,-0.00112224,-0.242518,0.00160566,0.00967177,909,498,-0.430123,15.771
-308,526,-0.44873,-16.1414,0.00109671,-0.000443576,-0.000309084,0.00115642,-0.000503284,-0.190827,0.000982653,0.00848356,916,498,-0.448701,16.1413
-301,526,-0.459351,-16.48,0.000812956,-0.000310589,8.27737e-05,0.000819021,-0.000316654,0.0731457,0.000676728,0.00982002,923,498,-0.459343,16.48
-294,526,-0.450317,-16.8259,0.000613798,-0.000677852,0.000621267,0.00086411,-0.000928165,0.38301,0.00103499,0.00954243,930,498,-0.450343,16.826
-287,526,-0.470825,-17.1748,0.000624292,-0.00119155,0.0011242,0.00116141,-0.00172867,0.445714,0.00167927,0.00951723,937,498,-0.470845,17.1748
-280,526,-0.477966,-17.5266,0.000563266,-0.00232426,0.001638,0.00130296,-0.00306396,0.424172,0.00258867,0.0127681,944,498,-0.477953,17.5265
-273,526,-0.467163,-17.8869,0.000473682,-0.0045101,0.00256711,0.00155944,-0.00559586,0.400133,0.0043447,0.0104278,951,498,-0.467135,17.8869
-266,526,-0.455688,-18.2293,0.00220332,-0.00745779,0.00392796,0.00359877,-0.00885324,0.341353,0.00739945,0.0102915,958,498,-0.455676,18.2293
-259,526,-0.430786,-18.5264,0.00637791,-0.0108003,0.00389649,0.00722042,-0.0116428,0.212944,0.01099,0.0180322,965,498,-0.43078,18.5264
-252,526,-0.42627,-18.7186,0.00946312,-0.0144248,0.00370153,0.0100235,-0.0149852,0.150261,0.0145332,0.0320587,972,498,-0.426251,18.7186
-245,526,-0.49585,-18.8222,0.0132198,-0.0186759,0.00373227,0.0136507,-0.0191068,0.114946,0.0189998,0.0408501,979,498,-0.495841,18.8222
-238,526,-0.294189,-19.0847,0,0,0,0,0,0,0,-1,986,498,-0.294176,19.0847
-231,526,0.123901,-19.1246,0,0,0,0,0,0,0,-1,993,498,0.12389,19.1246
-224,526,-0.618347,-19.1586,0,0,0,0,0,0,0,-1,1000,498,-0.618369,19.1586
-217,526,-0.778076,-19.3435,0,0,0,0,0,0,0,-1,1007,498,-0.7781,19.3435
-210,526,1.48413,-19.8446,0,0,0,0,0,0,0,-1,1014,498,1.48415,19.8446
-203,526,-0.659302,-18.8818,0,0,0,0,0,0,0,-1,1021,498,-0.659273,18.8818
-196,526,-0.328247,-12.179,0,0,0,0,0,0,0,-1,1028,498,-0.328238,12.179
-189,526,0.401245,-5.96826,0,0,0,0,0,0,0,-1,1035,498,0.401197,5.96826
-182,526,1.7323,-2.99405,0,0,0,0,0,0,0,-1,1042,498,1.73226,2.99404
-175,526,2.27637,-2.07983,0,0,0,0,0,0,0,-1,1049,498,2.27639,2.07984
-168,526,2.12036,-1.66049,0,0,0,0,0,0,0,-1,1056,498,2.12035,1.66048
-161,526,2.09082,-1.20572,0,0,0,0,0,0,0,-1,1063,498,2.09086,1.2057
-154,526,-1.3446,-5.37799,0,0,0,0,0,0,0,-1,1070,498,-1.34457,5.37799
-147,526,-0.472656,-6.64996,0,0,0,0,0,0,0,-1,1077,498,-0.472659,6.64997
-140,526,0.422852,-8.03339,0,0,0,0,0,0,0,-1,1084,498,0.422844,8.0334
-133,526,1.09583,-9.2215,0,0,0,0,0,0,0,-1,1091,498,1.09581,9.2215
-126,526,3.42529,-2.36053,0,0,0,0,0,0,0,-1,1098,498,3.42523,2.36052
-119,526,2.7771,-0.764099,0,0,0,0,0,0,0,-1,1105,498,2.7771,0.764107
-112,526,2.57715,-1.1893,0,0,0,0,0,0,0,-1,1112,498,2.57718,1.1893
-105,526,0,0,0,0,0,0,0,0,0,-1,1119,498,0,0
-98,526,0,0,0,0,0,0,0,0,0,-1,1126,498,0,0
-91,526,0,0,0,0,0,0,0,0,0,-1,1133,498,0,0
-84,526,0,0,0,0,0,0,0,0,0,-1,1140,498,0,0
-77,526,0,0,0,0,0,0,0,0,0,-1,1147,498,0,0
-70,526,0,0,0,0,0,0,0,0,0,-1,1154,498,0,0
-63,526,0,0,0,0,0,0,0,0,0,-1,1161,498,0,0
-56,526,0,0,0,0,0,0,0,0,0,-1,1168,498,0,0
-49,526,0,0,0,0,0,0,0,0,0,-1,1175,498,0,0
-42,526,0,0,0,0,0,0,0,0,0,-1,1182,498,0,0
-35,526,0,0,0,0,0,0,0,0,0,-1,1189,498,0,0
-28,526,0,0,0,0,0,0,0,0,0,-1,1196,498,0,0
-21,526,0,0,0,0,0,0,0,0,0,-1,1203,498,0,0
-14,526,0,0,0,0,0,0,0,0,0,-1,1210,498,0,0
-7,526,0,0,0,0,0,0,0,0,0,-1,1217,498,0,0
0,526,0,0,0,0,0,0,0,0,0,-1,1224,498,0,0
7,526,0,0,0,0,0,0,0,0,0,-1,1231,498,0,0
14,526,0,0,0,0,0,0,0,0,0,-1,1238,498,0,0
21,526,0,0,0,0,0,0,0,0,0,-1,1245,498,0,0
28,526,0,0,0,0,0,0,0,0,0,-1,1252,498,0,0
35,526,0,0,0,0,0,0,0,0,0,-1,1259,498,0,0
42,526,0,0,0,0,0,0,0,0,0,-1,1266,498,0,0
49,526,0,0,0,0,0,0,0,0,0,-1,1273,498,0,0
56,526,0,0,0,0,0,0,0,0,0,-1,1280,498,0,0
63,526,0,0,0,0,0,0,0,0,0,-1,1287,498,0,0
70,526,0,0,0,0,0,0,0,0,0,-1,1294,498,0,0
77,526,0,0,0,0,0,0,0,0,0,-1,1301,498,0,0
84,526,0,0,0,0,0,0,0,0,0,-1,1308,498,0,0
91,526,0,0,0,0,0,0,0,0,0,-1,1315,498,0,0
98,526,0,0,0,0,0,0,0,0,0,-1,1322,498,0,0
105,526,0,0,0,0,0,0,0,0,0,-1,1329,498,0,0
112,526,0,0,0,0,0,0,0,0,0,-1,1336,498,0,0
119,526,0,0,0,0,0,0,0,0,0,-1,1343,498,0,0
126,526,0,0,0,0,0,0,0,0,0,-1,1350,498,0,0
133,526,0,0,0,0,0,0,0,0,0,-1,1357,498,0,0
140,526,0,0,0,0,0,0,0,0,0,-1,1364,498,0,0
147,526,0,0,0,0,0,0,0,0,0,-1,1371,498,0,0
154,526,0,0,0,0,0,0,0,0,0,-1,1378,498,0,0
161,526,0,0,0,0,0,0,0,0,0,-1,1385,498,0,0
168,526,0,0,0,0,0,0,0,0,0,-1,1392,498,0,0
175,526,0,0,0,0,0,0,0,0,0,-1,1399,498,0,0
182,526,0,0,0,0,0,0,0,0,0,-1,1406,498,0,0
189,526,0,0,0,0,0,0,0,0,0,-1,1413,498,0,0
196,526,0,0,0,0,0,0,0,0,0,-1,1420,498,0,0
203,526,0,0,0,0,0,0,0,0,0,-1,1427,498,0,0
210,526,0,0,0,0,0,0,0,0,0,-1,1434,498,0,0
217,526,0,0,0,0,0,0,0,0,0,-1,1441,498,0,0
224,526,0,0,0,0,0,0,0,0,0,-1,1448,498,0,0
231,526,7.93237,-1.30618,0,0,0,0,0,0,0,-1,1455,498,7.93238,1.30618
238,526,7.97717,-1.08197,0,0,0,0,0,0,0,-1,1462,498,7.97723,1.08196
245,526,7.2793,-0.792938,0,0,0,0,0,0,0,-1,1469,498,7.27931,0.792926
252,526,6.73523,-2.23608,0,0,0,0,0,0,0,-1,1476,498,6.73525,2.23608
259,526,6.22949,-1.84967,0,0,0,0,0,0,0,-1,1483,498,6.22953,1.84968
266,526,5.72375,-1.46329,0,0,0,0,0,0,0,-1,1490,498,5.72381,1.46328
273,526,4.33984,0.49173,0,0,0,0,0,0,0,-1,1497,498,4.33979,-0.491727
280,526,1.4585,-1.59897,0,0,0,0,0,0,0,-1,1504,498,1.45846,1.59895
287,526,1.46411,-2.40134,0,0,0,0,0,0,0,-1,1511,498,1.46406,2.40133
294,526,5.57471,-4.59085,0,0,0,0,0,0,0,-1,1518,498,5.57466,4.59084
301,526,4.42786,-3.99677,0,0,0,0,0,0,0,-1,1525,498,4.42788,3.99676
308,526,5.79529,-4.19366,0,0,0,0,0,0,0,-1,1532,498,5.79528,4.19368
315,526,5.09851,-5.20068,0,0,0,0,0,0,0,-1,1539,498,5.09851,5.20068
322,526,5.50708,-4.72348,0,0,0,0,0,0,0,-1,1546,498,5.50713,4.72347
329,526,3.88672,-4.345,0,0,0,0,0,0,0,-1,1553,498,3.88674,4.34501
336,526,4.97876,-2.23828,0,0,0,0,0,0,0,-1,1560,498,4.97877,2.23828
343,526,3.31665,-2.69696,0,0,0,0,0,0,0,-1,1567,498,3.31667,2.69696
350,526,6.06287,-6.12015,0,0,0,0,0,0,0,-1,1574,498,6.06286,6.12014
357,526,5.79736,-7.7854,0,0,0,0,0,0,0,-1,1581,498,5.79734,7.78539
364,526,8.15784,-18.4423,0,0,0,0,0,0,0,-1,1588,498,8.15788,18.4423
371,526,8.10425,-18.4699,0,0,0,0,0,0,0,-1,1595,498,8.10426,18.4699
378,526,8.0929,-18.1082,0,0,0,0,0,0,0,-1,1602,498,8.09292,18.1082
385,526,8.22974,-17.5701,0,0,0,0,0,0,0,-1,1609,498,8.22969,17.5701
392,526,8.32214,-17.1796,-0.00250645,-0.00260022,-0.00400548,0.00145242,-0.00655909,-0.779545,0.00492873,0.0443136,1616,498,8.32217,17.1796
399,526,8.20825,-16.795,-0.00242072,-0.00224811,-0.00365499,0.0013216,-0.00599043,-0.797202,0.00449932,0.0231273,1623,498,8.20831,16.7951
406,526,8.25732,-16.3749,-0.00224362,-0.00199382,-0.00338622,0.0012698,-0.00550724,-0.803832,0.00415987,0.0122241,1630,498,8.25731,16.3749
413,526,8.24146,-15.9988,-0.00194911,-0.00152717,-0.00290232,0.00117184,-0.00464812,-0.82168,0.00355434,0.0120236,1637,498,8.24147,15.9988
420,526,8.22534,-15.6324,-0.00173814,-0.00118483,-0.00242525,0.000979491,-0.00390246,-0.842189,0.00298225,0.0131752,1644,498,8.22531,15.6324
427,526,8.24036,-15.2325,-0.00156633,-0.000938856,-0.00201996,0.000791584,-0.00329677,-0.862442,0.00250377,0.0135922,1651,498,8.24039,15.2325
434,526,8.23303,-14.8357,-0.00137753,-0.000705095,-0.0014976,0.000493565,-0.00257619,-0.895819,0.00190343,0.0122663,1658,498,8.23302,14.8357
441,526,8.22693,-14.4664,-0.00116887,-0.000625104,-0.00083078,-2.285e-05,-0.00177113,-0.943537,0.00117321,0.010894,1665,498,8.22691,14.4664
448,526,8.23804,-14.0927,-0.000951427,-0.000654514,-0.000131403,-0.000604713,-0.00100123,-1.20853,0.00058221,0.00955699,1672,498,8.23808,14.0926
455,526,8.21155,-13.6831,-0.000803407,-0.000786383,0.000564513,-0.000230318,-0.00135947,0.792937,0.000840133,0.0120393,1679,498,8.21153,13.6831
462,526,8.20789,-13.2675,-0.000647545,-0.0011391,0.00126624,0.000396553,-0.0021832,0.68954,0.00160407,0.00983325,1686,498,8.20783,13.2676
469,526,8.21667,-12.8705,-0.000610471,-0.00169428,0.00197273,0.00089343,-0.00319818,0.651356,0.00248407,0.00746827,1693,498,8.21669,12.8705
476,526,8.20496,-12.4644,-0.00104975,-0.00257213,0.00240012,0.000706988,-0.00432887,0.631841,0.00314815,0.00938389,1700,498,8.20501,12.4644
483,526,8.20715,-12.0162,-0.00154723,-0.00364374,0.00274055,0.000338699,-0.00552967,0.602734,0.00380438,0.0120813,1707,498,8.20721,12.0162
490,526,8.26892,-11.5154,-0.0023159,-0.00522268,0.00292342,-0.000504517,-0.00703406,0.554714,0.00453057,0.0243401,1714,498,8.26892,11.5154
497,526,8.1488,-11.2406,-0.00331049,-0.00697476,0.00292482,-0.00169135,-0.0085939,0.505592,0.00525697,0.0310555,1721,498,8.14874,11.2406
504,526,8.20007,-10.8309,-0.00460648,-0.00889907,0.00272815,-0.00328155,-0.010224,0.452102,0.00602764,0.0341166,1728,498,8.2001,10.8309
511,526,8.31702,-10.4364,-0.0062565,-0.0111106,0.00228772,-0.00534825,-0.0120189,0.377926,0.00695308,0.040815,1735,498,8.31696,10.4364
518,526,8.42065,-10.0146,-0.00833236,-0.0133503,0.00171956,-0.00779965,-0.013883,0.300416,0.00803576,0.0433167,1742,498,8.42062,10.0146
525,526,8.60364,-9.65161,0,0,0,0,0,0,0,-1,1749,498,8.60365,9.6516
532,526,3.54285,-2.81274,0,0,0,0,0,0,0,-1,1756,498,3.54284,2.81273
539,526,3.29407,0.932312,0,0,0,0,0,0,0,-1,1763,498,3.2941,-0.93232
546,526,3.36731,1.07721,0,0,0,0,0,0,0,-1,1770,498,3.36735,-1.07719
553,526,3.40796,1.37137,0,0,0,0,0,0,0,-1,1777,498,3.40792,-1.37138
560,526,0,0,0,0,0,0,0,0,0,-1,1784,498,0,0
567,526,0,0,0,0,0,0,0,0,0,-1,1791,498,0,0
574,526,0,0,0,0,0,0,0,0,0,-1,1798,498,0,0
581,526,0,0,0,0,0,0,0,0,0,-1,1805,498,0,0
588,526,0,0,0,0,0,0,0,0,0,-1,1812,498,0,0
595,526,0,0,0,0,0,0,0,0,0,-1,1819,498,0,0
602,526,0,0,0,0,0,0,0,0,0,-1,1826,498,0,0
609,526,0,0,0,0,0,0,0,0,0,-1,1833,498,0,0
616,526,0,0,0,0,0,0,0,0,0,-1,1840,498,0,0
623,526,0,0,0,0,0,0,0,0,0,-1,1847,498,0,0
630,526,0,0,0,0,0,0,0,0,0,-1,1854,498,0,0
637,526,0,0,0,0,0,0,0,0,0,-1,1861,498,0,0
644,526,0,0,0,0,0,0,0,0,0,-1,1868,498,0,0
651,526,0,0,0,0,0,0,0,0,0,-1,1875,498,0,0
658,526,0,0,0,0,0,0,0,0,0,-1,1882,498,0,0
665,526,0,0,0,0,0,0,0,0,0,-1,1889,498,0,0
672,526,0,0,0,0,0,0,0,0,0,-1,1896,498,0,0
679,526,0,0,0,0,0,0,0,0,0,-1,1903,498,0,0
686,526,0,0,0,0,0,0,0,0,0,-1,1910,498,0,0
693,526,0,0,0,0,0,0,0,0,0,-1,1917,498,0,0
700,526,0,0,0,0,0,0,0,0,0,-1,1924,498,0,0
707,526,0,0,0,0,0,0,0,0,0,-1,1931,498,0,0
714,526,0,0,0,0,0,0,0,0,0,-1,1938,498,0,0
721,526,0,0,0,0,0,0,0,0,0,-1,1945,498,0,0
728,526,0,0,0,0,0,0,0,0,0,-1,1952,498,0,0
735,526,0,0,0,0,0,0,0,0,0,-1,1959,498,0,0
742,526,0,0,0,0,0,0,0,0,0,-1,1966,498,0,0
749,526,0,0,0,0,0,0,0,0,0,-1,1973,498,0,0
756,526,0,0,0,0,0,0,0,0,0,-1,1980,498,0,0
763,526,0,0,0,0,0,0,0,0,0,-1,1987,498,0,0
770,526,0,0,0,0,0,0,0,0,0,-1,1994,498,0,0
777,526,0,0,0,0,0,0,0,0,0,-1,2001,498,0,0
784,526,0,0,0,0,0,0,0,0,0,-1,2008,498,0,0
791,526,0,0,0,0,0,0,0,0,0,-1,2015,498,0,0
798,526,0,0,0,0,0,0,0,0,0,-1,2022,498,0,0
805,526,0,0,0,0,0,0,0,0,0,-1,2029,498,0,0
812,526,0,0,0,0,0,0,0,0,0,-1,2036,498,0,0
-700,519,0,0,0,0,0,0,0,0,0,-1,524,505,0,0
-693,519,0,0,0,0,0,0,0,0,0,-1,531,505,0,0
-686,519,0,0,0,0,0,0,0,0,0,-1,538,505,0,0
-679,519,0,0,0,0,0,0,0,0,0,-1,545,505,0,0
-672,519,0,0,0,0,0,0,0,0,0,-1,552,505,0,0
-665,519,0,0,0,0,0,0,0,0,0,-1,559,505,0,0
-658,519,0,0,0,0,0,0,0,0,0,-1,566,505,0,0
-651,519,0,0,0,0,0,0,0,0,0,-1,573,505,0,0
-644,519,0,0,0,0,0,0,0,0,0,-1,580,505,0,0
-637,519,0,0,0,0,0,0,0,0,0,-1,587,505,0,0
-630,519,0,0,0,0,0,0,0,0,0,-1,594,505,0,0
-623,519,0,0,0,0,0,0,0,0,0,-1,601,505,0,0
-616,519,0,0,0,0,0,0,0,0,0,-1,608,505,0,0
-609,519,0,0,0,0,0,0,0,0,0,-1,615,505,0,0
-602,519,0,0,0,0,0,0,0,0,0,-1,622,505,0,0
-595,519,0,0,0,0,0,0,0,0,0,-1,629,505,0,0
-588,519,0,0,0,0,0,0,0,0,0,-1,636,505,0,0
-581,519,0,0,0,0,0,0,0,0,0,-1,643,505,0,0
-574,519,0,0,0,0,0,0,0,0,0,-1,650,505,0,0
-567,519,0,0,0,0,0,0,0,0,0,-1,657,505,0,0
-560,519,0,0,0,0,0,0,0,0,0,-1,664,505,0,0
-553,519,0,0,0,0,0,0,0,0,0,-1,671,505,0,0
-546,519,0,0,0,0,0,0,0,0,0,-1,678,505,0,0
-539,519,0,0,0,0,0,0,0,0,0,-1,685,505,0,0
-532,519,0,0,0,0,0,0,0,0,0,-1,692,505,0,0
-525,519,0,0,0,0,0,0,0,0,0,-1,699,505,0,0
-518,519,0,0,0,0,0,0,0,0,0,-1,706,505,0,0
-511,519,0,0,0,0,0,0,0,0,0,-1,713,505,0,0
-504,519,0,0,0,0,0,0,0,0,0,-1,720,505,0,0
-497,519,0,0,0,0,0,0,0,0,0,-1,727,505,0,0
-490,519,0,0,0,0,0,0,0,0,0,-1,734,505,0,0
-483,519,0,0,0,0,0,0,0,0,0,-1,741,505,0,0
-476,519,0,0,0,0,0,0,0,0,0,-1,748,505,0,0
-469,519,0,0,0,0,0,0,0,0,0,-1,755,505,0,0
-462,519,0,0,0,0,0,0,0,0,0,-1,762,505,0,0
-455,519,0,0,0,0,0,0,0,0,0,-1,769,505,0,0
-448,519,0,0,0,0,0,0,0,0,0,-1,776,505,0,0
-441,519,1.34839,-5.29346,0,0,0,0,0,0,0,-1,783,505,1.3484,5.29347
-434,519,0.949585,-5.77313,0,0,0,0,0,0,0,-1,790,505,0.949598,5.77315
-427,519,0.138489,-5.67401,0,0,0,0,0,0,0,-1,797,505,0.138516,5.67402
-420,519,0.713989,-6.8869,0,0,0,0,0,0,0,-1,804,505,0.713969,6.88691
-413,519,-1.02808,-10.7485,0,0,0,0,0,0,0,-1,811,505,-1.02808,10.7484
-406,519,-0.401123,-9.77826,0,0,0,0,0,0,0,-1,818,505,-0.401131,9.77827
-399,519,-0.281921,-10.9928,0,0,0,0,0,0,0,-1,825,505,-0.28194,10.9928
-392,519,-0.334534,-11.2085,0,0,0,0,0,0,0,-1,832,505,-0.33455,11.2085
-385,519,-0.447815,-11.5571,-0.00365835,0.000245596,-0.00129635,0.000636854,-0.00404961,-1.27768,0.00293515,0.049156,839,505,-0.447809,11.557
-378,519,-0.695007,-12.0482,-0.00200605,-0.000666577,-0.00161321,0.000410397,-0.00308303,-0.98215,0.00220492,0.0322883,846,505,-0.695006,12.0482
-371,519,-0.709595,-12.5193,-0.000658976,-0.0011261,-0.00179905,0.00092161,-0.00270668,-0.720847,0.00217766,0.0184799,853,505,-0.709621,12.5193
-364,519,-0.722656,-12.9843,0.000328871,-0.00142338,-0.00185638,0.00150548,-0.0026,-0.564918,0.00239822,0.0114718,860,505,-0.722639,12.9843
-357,519,-0.714172,-13.4343,0.000950804,-0.00157604,-0.0018143,0.00189824,-0.00252348,-0.481255,0.00256138,0.0111326,867,505,-0.71418,13.4343
-350,519,-0.73822,-13.8257,0.00128768,-0.00161247,-0.00167091,0.00204999,-0.00237479,-0.42802,0.00255694,0.0123378,874,505,-0.738238,13.8257
-343,519,-0.7771,-14.2039,0.00146535,-0.00144313,-0.00152096,0.00211542,-0.0020932,-0.403909,0.00242986,0.0144089,881,505,-0.777077,14.2039
-336,519,-0.798523,-14.6119,0.00143763,-0.00136388,-0.00121882,0.00189366,-0.00181991,-0.35803,0.00214417,0.0155224,888,505,-0.798529,14.6119
-329,519,-0.787354,-14.9867,0.00138302,-0.00121928,-0.000943737,0.00168923,-0.00152549,-0.313756,0.00185683,0.0137441,895,505,-0.78737,14.9867
-322,519,-0.783813,-15.362,0.00114248,-0.000883169,-0.000613504,0.0013138,-0.00105449,-0.272313,0.00137006,0.0111749,902,505,-0.783827,15.362
-315,519,-0.780029,-15.7579,0.000880333,-0.000464137,-0.000267601,0.000931638,-0.000515442,-0.189424,0.000846912,0.0092204,909,505,-0.780001,15.7579
-308,519,-0.79657,-16.141,0.000740195,-0.000164502,7.26884e-05,0.000745998,-0.000170305,0.0796645,0.000562757,0.00761247,916,505,-0.796564,16.141
-301,519,-0.812134,-16.4927,0.000686608,-0.000174023,0.000471773,0.000894839,-0.000382254,0.415662,0.000756868,0.0122353,923,505,-0.81216,16.4928
-294,519,-0.823669,-16.8232,0.000673775,-0.000707157,0.000986385,0.00118734,-0.00122073,0.480036,0.00139034,0.0148944,930,505,-0.82367,16.8232
-287,519,-0.856201,-17.1764,0.000862902,-0.00145488,0.00149954,0.00159918,-0.00219116,0.456422,0.00219723,0.0103232,937,505,-0.856174,17.1764
-280,519,-0.85083,-17.5383,0.000901384,-0.00284904,0.00208833,0.00183287,-0.00378052,0.419558,0.00330528,0.0155563,944,505,-0.850858,17.5383
-273,519,-0.800232,-17.9141,0.000832544,-0.00565379,0.00320697,0.00215038,-0.00697163,0.389893,0.00550634,0.026873,951,505,-0.800255,17.914
-266,519,-0.866821,-18.2592,0.00283379,-0.00918106,0.00489092,0.004573,-0.0109203,0.341653,0.00919185,0.0381009,958,505,-0.866801,18.2592
-259,519,-0.764648,-18.5494,0,0,0,0,0,0,0,-1,965,505,-0.764671,18.5494
-252,519,-0.833679,-18.6188,0,0,0,0,0,0,0,-1,972,505,-0.8337,18.6188
-245,519,-0.916992,-18.4258,0,0,0,0,0,0,0,-1,979,505,-0.917,18.4258
-238,519,0.523621,-16.4753,0,0,0,0,0,0,0,-1,986,505,0.523651,16.4753
-231,519,0.337585,-11.2798,0,0,0,0,0,0,0,-1,993,505,0.337568,11.2798
-224,519,-0.0494995,-7.97394,0,0,0,0,0,0,0,-1,1000,505,-0.0495123,7.97392
-217,519,-2.97125,-4.84393,0,0,0,0,0,0,0,-1,1007,505,-2.97128,4.84393
-210,519,-2.14398,-4.74774,0,0,0,0,0,0,0,-1,1014,505,-2.14397,4.74775
-203,519,-0.513611,-5.39017,0,0,0,0,0,0,0,-1,1021,505,-0.513585,5.39017
-196,519,-0.374023,-5.41635,0,0,0,0,0,0,0,-1,1028,505,-0.374047,5.41635
-189,519,-0.234497,-5.44254,0,0,0,0,0,0,0,-1,1035,505,-0.234508,5.44253
-182,519,2.76697,-1.19659,0,0,0,0,0,0,0,-1,1042,505,2.76696,1.19661
-175,519,2.31323,-0.960938,0,0,0,0,0,0,0,-1,1049,505,2.31319,0.960941
-168,519,2.01074,-0.721405,0,0,0,0,0,0,0,-1,1056,505,2.01072,0.721407
-161,519,2.32056,-0.522339,0,0,0,0,0,0,0,-1,1063,505,2.32057,0.522328
-154,519,2.55566,0.116669,0,0,0,0,0,0,0,-1,1070,505,2.55563,-0.116661
-147,519,-0.55127,-6.14001,0,0,0,0,0,0,0,-1,1077,505,-0.551252,6.14001
-140,519,0.240601,-7.53503,0,0,0,0,0,0,0,-1,1084,505,0.240653,7.53501
-133,519,2.70911,-4.4516,0,0,0,0,0,0,0,-1,1091,505,2.70915,4.45161
-126,519,0,0,0,0,0,0,0,0,0,-1,1098,505,0,0
-119,519,0,0,0,0,0,0,0,0,0,-1,1105,505,0,0
-112,519,0,0,0,0,0,0,0,0,0,-1,1112,505,0,0
-105,519,0,0,0,0,0,0,0,0,0,-1,1119,505,0,0
-98,519,0,0,0,0,0,0,0,0,0,-1,1126,505,0,0
-91,519,0,0,0,0,0,0,0,0,0,-1,1133,505,0,0
-84,519,0,0,0,0,0,0,0,0,0,-1,1140,505,0,0
-77,519,0,0,0,0,0,0,0,0,0,-1,1147,505,0,0
-70,519,0,0,0,0,0,0,0,0,0,-1,1154,505,0,0
-63,519,0,0,0,0,0,0,0,0,0,-1,1161,505,0,0
-56,519,0,0,0,0,0,0,0,0,0,-1,1168,505,0,0
-49,519,0,0,0,0,0,0,0,0,0,-1,1175,505,0,0
-42,519,0,0,0,0,0,0,0,0,0,-1,1182,505,0,0
-35,519,0,0,0,0,0,0,0,0,0,-1,1189,505,0,0
-28,519,0,0,0,0,0,0,0,0,0,-1,1196,505,0,0
-21,519,0,0,0,0,0,0,0,0,0,-1,1203,505,0,0
-14,519,0,0,0,0,0,0,0,0,0,-1,1210,505,0,0
-7,519,0,0,0,0,0,0,0,0,0,-1,1217,505,0,0
0,519,0,0,0,0,0,0,0,0,0,-1,1224,505,0,0
7,519,0,0,0,0,0,0,0,0,0,-1,1231,505,0,0
14,519,0,0,0,0,0,0,0,0,0,-1,1238,505,0,0
21,519,0,0,0,0,0,0,0,0,0,-1,1245,505,0,0
28,519,0,0,0,0,0,0,0,0,0,-1,1252,505,0,0
35,519,0,0,0,0,0,0,0,0,0,-1,1259,505,0,0
42,519,0,0,0,0,0,0,0,0,0,-1,1266,505,0,0
49,519,0,0,0,0,0,0,0,0,0,-1,1273,505,0,0
56,519,0,0,0,0,0,0,0,0,0,-1,1280,505,0,0
63,519,0,0,0,0,0,0,0,0,0,-1,1287,505,0,0
70,519,0,0,0,0,0,0,0,0,0,-1,1294,505,0,0
77,519,0,0,0,0,0,0,0,0,0,-1,1301,505,0,0
84,519,0,0,0,0,0,0,0,0,0,-1,1308,505,0,0
91,519,0,0,0,0,0,0,0,0,0,-1,1315,505,0,0
98,519,0,0,0,0,0,0,0,0,0,-1,1322,505,0,0
105,519,0,0,0,0,0,0,0,0,0,-1,1329,505,0,0
112,519,0,0,0,0,0,0,0,0,0,-1,1336,505,0,0
119,519,0,0,0,0,0,0,0,0,0,-1,1343,505,0,0
126,519,0,0,0,0,0,0,0,0,0,-1,1350,505,0,0
133,519,0,0,0,0,0,0,0,0,0,-1,1357,505,0,0
140,519,0,0,0,0,0,0,0,0,0,-1,1364,505,0,0
147,519,0,0,0,0,0,0,0,0,0,-1,1371,505,0,0
154,519,0,0,0,0,0,0,0,0,0,-1,1378,505,0,0
161,519,0,0,0,0,0,0,0,0,0,-1,1385,505,0,0
168,519,0,0,0,0,0,0,0,0,0,-1,1392,505,0,0
175,519,0,0,0,0,0,0,0,0,0,-1,1399,505,0,0
182,519,0,0,0,0,0,0,0,0,0,-1,1406,505,0,0
189,519,0,0,0,0,0,0,0,0,0,-1,1413,505,0,0
196,519,0,0,0,0,0,0,0,0,0,-1,1420,505,0,0
203,519,0,0,0,0,0,0,0,0,0,-1,1427,505,0,0
210,519,0,0,0,0,0,0,0,0,0,-1,1434,505,0,0
217,519,0,0,0,0,0,0,0,0,0,-1,1441,505,0,0
224,519,0,0,0,0,0,0,0,0,0,-1,1448,505,0,0
231,519,0,0,0,0,0,0,0,0,0,-1,1455,505,0,0
238,519,0,0,0,0,0,0,0,0,0,-1,1462,505,0,0
245,519,0,0,0,0,0,0,0,0,0,-1,1469,505,0,0
252,519,5.26208,0.0938416,0,0,0,0,0,0,0,-1,1476,505,5.26207,-0.0938493
259,519,6.14246,-1.36441,0,0,0,0,0,0,0,-1,1483,505,6.14241,1.36441
266,519,5.31909,-0.400787,0,0,0,0,0,0,0,-1,1490,505,5.31912,0.400773
273,519,4.02393,0.325531,0,0,0,0,0,0,0,-1,1497,505,4.0239,-0.325522
280,519,4.68848,0.53006,0,0,0,0,0,0,0,-1,1504,505,4.68842,-0.530073
287,519,7.9519,-3.80801,0,0,0,0,0,0,0,-1,1511,505,7.95193,3.808
294,519,6.92273,-3.38889,0,0,0,0,0,0,0,-1,1518,505,6.92268,3.38888
301,519,5.35669,-2.92661,0,0,0,0,0,0,0,-1,1525,505,5.35675,2.9266
308,519,7.37549,-5.64529,0,0,0,0,0,0,0,-1,1532,505,7.3755,5.64529
315,519,6.30029,-4.53754,0,0,0,0,0,0,0,-1,1539,505,6.30024,4.53753
322,519,5.84302,-5.45117,0,0,0,0,0,0,0,-1,1546,505,5.84303,5.45116
329,519,4.92407,0.62384,0,0,0,0,0,0,0,-1,1553,505,4.92403,-0.623832
336,519,3.10095,-0.329285,0,0,0,0,0,0,0,-1,1560,505,3.1009,0.329283
343,519,2.49146,-2.31119,0,0,0,0,0,0,0,-1,1567,505,2.49145,2.31119
350,519,3.47729,-2.22516,0,0,0,0,0,0,0,-1,1574,505,3.47726,2.22515
357,519,4.51917,-4.51691,0,0,0,0,0,0,0,-1,1581,505,4.51914,4.51691
364,519,3.54626,-7.20673,0,0,0,0,0,0,0,-1,1588,505,3.54622,7.20675
371,519,5.349,-8.20068,0,0,0,0,0,0,0,-1,1595,505,5.34898,8.20068
378,519,6.36597,-10.0967,0,0,0,0,0,0,0,-1,1602,505,6.36597,10.0967
385,519,6.24756,-9.72186,0,0,0,0,0,0,0,-1,1609,505,6.24752,9.72183
392,519,8.47974,-17.4884,0,0,0,0,0,0,0,-1,1616,505,8.47976,17.4884
399,519,8.5033,-16.82,0,0,0,0,0,0,0,-1,1623,505,8.5033,16.82
406,519,8.65088,-16.4216,-0.00408246,-0.00362873,-0.00550492,0.001654,-0.00936519,-0.805992,0.00686157,0.0340633,1630,505,8.65092,16.4215
413,519,8.70947,-16.0527,-0.0035087,-0.0030666,-0.00482357,0.00154098,-0.00811629,-0.808296,0.00599095,0.0144277,1637,505,8.70951,16.0528
420,519,8.65173,-15.6498,-0.00305625,-0.00259885,-0.00415167,0.00133042,-0.00698552,-0.812914,0.005158,0.0151957,1644,505,8.65172,15.6498
427,519,8.64502,-15.2667,-0.00260692,-0.00223183,-0.00359401,0.00117952,-0.00601827,-0.811465,0.00445768,0.0145818,1651,505,8.64504,15.2667
434,519,8.62793,-14.8594,-0.00215935,-0.00172188,-0.00291769,0.000985262,-0.00486649,-0.822812,0.00361775,0.01261,1658,505,8.62792,14.8594
441,519,8.60657,-14.454,-0.00171517,-0.00137845,-0.00210478,0.000564695,-0.00365831,-0.825307,0.00264726,0.0117719,1665,505,8.60655,14.4541
448,519,8.62024,-14.0769,-0.00125132,-0.0011346,-0.00129459,0.000102941,-0.00248886,-0.807924,0.0016946,0.00928352,1672,505,8.62029,14.0769
455,519,8.60388,-13.683,-0.000882235,-0.000945034,-0.000532376,-0.000380334,-0.00144694,-0.755943,0.000866143,0.0102111,1679,505,8.6039,13.683
462,519,8.61353,-13.2699,-0.000543958,-0.000946413,0.00019783,-0.000462999,-0.00102737,0.388442,0.000594115,0.00959152,1686,505,8.61351,13.2699
469,519,8.62622,-12.8516,-0.000348139,-0.00114862,0.000894859,0.000231907,-0.00172867,0.575108,0.00123702,0.00998405,1693,505,8.6262,12.8516
476,519,8.60779,-12.4465,-0.000636271,-0.00165238,0.00128706,0.000239378,-0.00252803,0.597416,0.00177055,0.0127517,1700,505,8.60773,12.4465
483,519,8.57788,-12.0351,-0.000970426,-0.00229946,0.00158712,8.56807e-05,-0.00335557,0.58714,0.00226614,0.0151333,1707,505,8.5779,12.0351
490,519,8.59033,-11.5733,-0.00162814,-0.00337866,0.00167637,-0.00061229,-0.00439451,0.544806,0.0027484,0.0129627,1714,505,8.59033,11.5733
497,519,8.58472,-11.1792,-0.00254965,-0.00468288,0.00158098,-0.00170913,-0.00552341,0.488643,0.00326523,0.0155282,1721,505,8.58466,11.1792
504,519,8.53979,-10.7548,-0.00376485,-0.0061301,0.00129464,-0.00319399,-0.00670096,0.415293,0.00387021,0.015639,1728,505,8.53982,10.7548
511,519,8.55664,-10.3239,-0.00533881,-0.0077961,0.000793843,-0.00510467,-0.00803024,0.286819,0.00469282,0.0213605,1735,505,8.55666,10.3239
518,519,8.56799,-9.98346,-0.00733778,-0.00950908,0.000174714,-0.00732381,-0.00952305,0.0797812,0.00575738,0.0416381,1742,505,8.56803,9.98344
525,519,8.6499,-9.68732,0,0,0,0,0,0,0,-1,1749,505,8.64995,9.68731
532,519,3.5155,-2.86511,0,0,0,0,0,0,0,-1,1756,505,3.51554,2.8651
539,519,3.30005,0.0229797,0,0,0,0,0,0,0,-1,1763,505,3.30008,-0.0229869
546,519,4.62024,-2.89774,0,0,0,0,0,0,0,-1,1770,505,4.62023,2.89775
553,519,4.14136,0.0667419,0,0,0,0,0,0,0,-1,1777,505,4.14141,-0.0667503
560,519,3.77856,0.279724,0,0,0,0,0,0,0,-1,1784,505,3.77861,-0.279731
567,519,0,0,0,0,0,0,0,0,0,-1,1791,505,0,0
574,519,0,0,0,0,0,0,0,0,0,-1,1798,505,0,0
581,519,0,0,0,0,0,0,0,0,0,-1,1805,505,0,0
588,519,0,0,0,0,0,0,0,0,0,-1,1812,505,0,0
595,519,0,0,0,0,0,0,0,0,0,-1,1819,505,0,0
602,519,0,0,0,0,0,0,0,0,0,-1,1826,505,0,0
609,519,0,0,0,0,0,0,0,0,0,-1,1833,505,0,0
616,519,0,0,0,0,0,0,0,0,0,-1,1840,505,0,0
623,519,0,0,0,0,0,0,0,0,0,-1,1847,505,0,0
630,519,0,0,0,0,0,0,0,0,0,-1,1854,505,0,0
637,519,0,0,0,0,0,0,0,0,0,-1,1861,505,0,0
644,519,0,0,0,0,0,0,0,0,0,-1,1868,505,0,0
651,519,0,0,0,0,0,0,0,0,0,-1,1875,505,0,0
658,519,0,0,0,0,0,0,0,0,0,-1,1882,505,0,0
665,519,0,0,0,0,0,0,0,0,0,-1,1889,505,0,0
672,519,0,0,0,0,0,0,0,0,0,-1,1896,505,0,0
679,519,0,0,0,0,0,0,0,0,0,-1,1903,505,0,0
686,519,0,0,0,0,0,0,0,0,0,-1,1910,505,0,0
693,519,0,0,0,0,0,0,0,0,0,-1,1917,505,0,0
700,519,0,0,0,0,0,0,0,0,0,-1,1924,505,0,0
707,519,0,0,0,0,0,0,0,0,0,-1,1931,505,0,0
714,519,0,0,0,0,0,0,0,0,0,-1,1938,505,0,0
721,519,0,0,0,0,0,0,0,0,0,-1,1945,505,0,0
728,519,0,0,0,0,0,0,0,0,0,-1,1952,505,0,0
735,519,0,0,0,0,0,0,0,0,0,-1,1959,505,0,0
742,519,0,0,0,0,0,0,0,0,0,-1,1966,505,0,0
749,519,0,0,0,0,0,0,0,0,0,-1,1973,505,0,0
756,519,0,0,0,0,0,0,0,0,0,-1,1980,505,0,0
763,519,0,0,0,0,0,0,0,0,0,-1,1987,505,0,0
770,519,0,0,0,0,0,0,0,0,0,-1,1994,505,0,0
777,519,0,0,0,0,0,0,0,0,0,-1,2001,505,0,0
784,519,0,0,0,0,0,0,0,0,0,-1,2008,505,0,0
791,519,0,0,0,0,0,0,0,0,0,-1,2015,505,0,0
798,519,0,0,0,0,0,0,0,0,0,-1,2022,505,0,0
805,519,0,0,0,0,0,0,0,0,0,-1,2029,505,0,0
812,519,0,0,0,0,0,0,0,0,0,-1,2036,505,0,0
-700,512,0,0,0,0,0,0,0,0,0,-1,524,512,0,0
-693,512,0,0,0,0,0,0,0,0,0,-1,531,512,0,0
-686,512,0,0,0,0,0,0,0,0,0,-1,538,512,0,0
-679,512,0,0,0,0,0,0,0,0,0,-1,545,512,0,0
-672,512,0,0,0,0,0,0,0,0,0,-1,552,512,0,0
-665,512,0,0,0,0,0,0,0,0,0,-1,559,512,0,0
-658,512,0,0,0,0,0,0,0,0,0,-1,566,512,0,0
-651,512,0,0,0,0,0,0,0,0,0,-1,573,512,0,0
-644,512,0,0,0,0,0,0,0,0,0,-1,580,512,0,0
-637,512,0,0,0,0,0,0,0,0,0,-1,587,512,0,0
-630,512,0,0,0,0,0,0,0,0,0,-1,594,512,0,0
-623,512,0,0,0,0,0,0,0,0,0,-1,601,512,0,0
-616,512,0,0,0,0,0,0,0,0,0,-1,608,512,0,0
-609,512,0,0,0,0,0,0,0,0,0,-1,615,512,0,0
-602,512,0,0,0,0,0,0,0,0,0,-1,622,512,0,0
-595,512,0,0,0,0,0,0,0,0,0,-1,629,512,0,0
-588,512,0,0,0,0,0,0,0,0,0,-1,636,512,0,0
-581,512,0,0,0,0,0,0,0,0,0,-1,643,512,0,0
-574,512,0,0,0,0,0,0,0,0,0,-1,650,512,0,0
-567,512,0,0,0,0,0,0,0,0,0,-1,657,512,0,0
-560,512,0,0,0,0,0,0,0,0,0,-1,664,512,0,0
-553,512,0,0,0,0,0,0,0,0,0,-1,671,512,0,0
-546,512,0,0,0,0,0,0,0,0,0,-1,678,512,0,0
-539,512,0,0,0,0,0,0,0,0,0,-1,685,512,0,0
-532,512,0,0,0,0,0,0,0,0,0,-1,692,512,0,0
-525,512,0,0,0,0,0,0,0,0,0,-1,699,512,0,0
-518,512,0,0,0,0,0,0,0,0,0,-1,706,512,0,0
-511,512,0,0,0,0,0,0,0,0,0,-1,713,512,0,0
-504,512,0,0,0,0,0,0,0,0,0,-1,720,512,0,0
-497,512,0,0,0,0,0,0,0,0,0,-1,727,512,0,0
-490,512,0,0,0,0,0,0,0,0,0,-1,734,512,0,0
-483,512,0,0,0,0,0,0,0,0,0,-1,741,512,0,0
-476,512,0,0,0,0,0,0,0,0,0,-1,748,512,0,0
-469,512,0,0,0,0,0,0,0,0,0,-1,755,512,0,0
-462,512,0,0,0,0,0,0,0,0,0,-1,762,512,0,0
-455,512,0,0,0,0,0,0,0,0,0,-1,769,512,0,0
-448,512,1.96283,-4.15674,0,0,0,0,0,0,0,-1,776,512,1.96285,4.15677
-441,512,1.78198,-4.88824,0,0,0,0,0,0,0,-1,783,512,1.78201,4.88826
-434,512,1.32996,-7.28003,0,0,0,0,0,0,0,-1,790,512,1.32993,7.28003
-427,512,0.427734,-6.66571,0,0,0,0,0,0,0,-1,797,512,0.427713,6.6657
-420,512,-1.55994,-10.0776,0,0,0,0,0,0,0,-1,804,512,-1.55992,10.0777
-413,512,-0.99292,-9.73511,0,0,0,0,0,0,0,-1,811,512,-0.992909,9.73512
-406,512,-0.664307,-10.7203,0,0,0,0,0,0,0,-1,818,512,-0.664292,10.7204
-399,512,-0.823608,-11.0052,-0.00658678,0.00187563,-0.000179457,0.00187943,-0.00659059,-1.5496,0.00513613,0.047944,825,512,-0.823628,11.0052
-392,512,-0.946472,-11.2703,-0.00485006,0.00136702,-0.000815394,0.00147218,-0.00495522,-1.44253,0.00388824,0.0378929,832,512,-0.946486,11.2704
-385,512,-1.03735,-11.7108,-0.00333789,0.000984413,-0.00113399,0.00126386,-0.00361733,-1.32918,0.00292531,0.0191847,839,512,-1.03737,11.7108
-378,512,-1.08081,-12.1292,-0.00202016,0.000474586,-0.0014182,0.00111593,-0.0026615,-1.1461,0.00224092,0.0153515,846,512,-1.08079,12.1291
-371,512,-1.08685,-12.5707,-0.000951183,4.48329e-05,-0.00157083,0.00119471,-0.00210106,-0.938904,0.00192665,0.0122823,853,512,-1.08686,12.5707
-364,512,-1.08881,-13.0397,-0.000131628,-0.000294452,-0.00158981,0.00137885,-0.00180493,-0.759816,0.00184364,0.00976633,860,512,-1.08883,13.0397
-357,512,-1.09271,-13.4313,0.000440755,-0.000473196,-0.00152605,0.00157678,-0.00160923,-0.639922,0.00183948,0.0119606,867,512,-1.09271,13.4313
-350,512,-1.11456,-13.8331,0.000797059,-0.000573098,-0.00138892,0.00166067,-0.00143671,-0.556284,0.00178983,0.0123225,874,512,-1.11454,13.833
-343,512,-1.15967,-14.216,0.0010056,-0.000534519,-0.00122947,0.00168626,-0.00121518,-0.505619,0.00168249,0.0119617,881,512,-1.15965,14.216
-336,512,-1.16913,-14.611,0.00104821,-0.000603804,-0.000919376,0.00145814,-0.00101373,-0.419421,0.0014348,0.013198,888,512,-1.16911,14.611
-329,512,-1.14532,-14.9838,0.00108693,-0.000614557,-0.000636174,0.00129849,-0.000826114,-0.321041,0.0012367,0.015041,895,512,-1.14531,14.9838
-322,512,-1.16064,-15.3694,0.000967037,-0.000490614,-0.000295005,0.00102448,-0.000548055,-0.192305,0.000921687,0.0124856,902,512,-1.16066,15.3694
-315,512,-1.16156,-15.7545,0.000843706,-0.000329046,7.51292e-05,0.000848499,-0.000333839,0.0637152,0.00070385,0.0110102,909,512,-1.16157,15.7545
-308,512,-1.1803,-16.1115,0.000868391,-0.000326673,0.000471314,0.0010319,-0.000490181,0.333927,0.000897133,0.0108052,916,512,-1.18027,16.1115
-301,512,-1.19562,-16.4921,0.000949421,-0.000522176,0.000929064,0.00139876,-0.000971519,0.450483,0.00137587,0.0140278,923,512,-1.19564,16.4921
-294,512,-1.18713,-16.8265,0.00100906,-0.00125486,0.00145843,0.00172327,-0.00196907,0.455384,0.00213335,0.0143785,930,512,-1.18716,16.8265
-287,512,-1.27032,-17.1056,0.00129928,-0.0022712,0.00199205,0.00218899,-0.00316091,0.420048,0.00310571,0.0216265,937,512,-1.2703,17.1056
-280,512,-1.14105,-17.5176,0.00136061,-0.00395075,0.00268311,0.00248007,-0.00507022,0.395268,0.00444384,0.0354787,944,512,-1.14108,17.5176
-273,512,-0.792542,-17.9629,0,0,0,0,0,0,0,-1,951,512,-0.792538,17.9629
-266,512,-1.22937,-18.3499,0,0,0,0,0,0,0,-1,958,512,-1.22937,18.3499
-259,512,-0.525452,-14.0815,0,0,0,0,0,0,0,-1,965,512,-0.525475,14.0815
-252,512,1.45941,-3.43475,0,0,0,0,0,0,0,-1,972,512,1.45938,3.43475
-245,512,4.12927,-11.272,0,0,0,0,0,0,0,-1,979,512,4.1293,11.272
-238,512,0.227051,-8.92969,0,0,0,0,0,0,0,-1,986,512,0.227073,8.92968
-231,512,-2.54437,-10.169,0,0,0,0,0,0,0,-1,993,512,-2.54439,10.169
-224,512,-4.84601,-7.52783,0,0,0,0,0,0,0,-1,1000,512,-4.84602,7.52786
-217,512,-7.37274,-3.89563,0,0,0,0,0,0,0,-1,1007,512,-7.37274,3.89561
-210,512,-3.76642,-1.94702,0,0,0,0,0,0,0,-1,1014,512,-3.76641,1.94702
-203,512,-2.48328,-5.19061,0,0,0,0,0,0,0,-1,1021,512,-2.48328,5.19059
-196,512,-1.14929,-4.63202,0,0,0,0,0,0,0,-1,1028,512,-1.14934,4.632
-189,512,0.197998,4.55505,0,0,0,0,0,0,0,-1,1035,512,0.197996,-4.55506
-182,512,2.73938,0.0778503,0,0,0,0,0,0,0,-1,1042,512,2.73944,-0.077852
-175,512,2.29565,0.209808,0,0,0,0,0,0,0,-1,1049,512,2.29565,-0.209813
-168,512,2.09399,-0.302856,0,0,0,0,0,0,0,-1,1056,512,2.09403,0.302826
-161,512,2.76636,0.0921021,0,0,0,0,0,0,0,-1,1063,512,2.76633,-0.0921104
-154,512,3.41382,0.466187,0,0,0,0,0,0,0,-1,1070,512,3.41382,-0.466178
-147,512,0,0,0,0,0,0,0,0,0,-1,1077,512,0,0
-140,512,0,0,0,0,0,0,0,0,0,-1,1084,512,0,0
-133,512,0,0,0,0,0,0,0,0,0,-1,1091,512,0,0
-126,512,0,0,0,0,0,0,0,0,0,-1,1098,512,0,0
-119,512,0,0,0,0,0,0,0,0,0,-1,1105,512,0,0
-112,512,0,0,0,0,0,0,0,0,0,-1,1112,512,0,0
-105,512,0,0,0,0,0,0,0,0,0,-1,1119,512,0,0
-98,512,0,0,0,0,0,0,0,0,0,-1,1126,512,0,0
-91,512,0,0,0,0,0,0,0,0,0,-1,1133,512,0,0
-84,512,0,0,0,0,0,0,0,0,0,-1,1140,512,0,0
-77,512,0,0,0,0,0,0,0,0,0,-1,1147,512,0,0
-70,512,0,0,0,0,0,0,0,0,0,-1,1154,512,0,0
-63,512,0,0,0,0,0,0,0,0,0,-1,1161,512,0,0
-56,512,0,0,0,0,0,0,0,0,0,-1,1168,512,0,0
-49,512,0,0,0,0,0,0,0,0,0,-1,1175,512,0,0
-42,512,0,0,0,0,0,0,0,0,0,-1,1182,512,0,0
-35,512,0,0,0,0,0,0,0,0,0,-1,1189,512,0,0
-28,512,0,0,0,0,0,0,0,0,0,-1,1196,512,0,0
-21,512,0,0,0,0,0,0,0,0,0,-1,1203,512,0,0
-14,512,0,0,0,0,0,0,0,0,0,-1,1210,512,0,0
-7,512,0,0,0,0,0,0,0,0,0,-1,1217,512,0,0
0,512,0,0,0,0,0,0,0,0,0,-1,1224,512,0,0
7,512,0,0,0,0,0,0,0,0,0,-1,1231,512,0,0
14,512,0,0,0,0,0,0,0,0,0,-1,1238,512,0,0
21,512,0,0,0,0,0,0,0,0,0,-1,1245,512,0,0
28,512,0,0,0,0,0,0,0,0,0,-1,1252,512,0,0
35,512,0,0,0,0,0,0,0,0,0,-1,1259,512,0,0
42,512,0,0,0,0,0,0,0,0,0,-1,1266,512,0,0
49,512,0,0,0,0,0,0,0,0,0,-1,1273,512,0,0
56,512,0,0,0,0,0,0,0,0,0,-1,1280,512,0,0
63,512,0,0,0,0,0,0,0,0,0,-1,1287,512,0,0
70,512,0,0,0,0,0,0,0,0,0,-1,1294,512,0,0
77,512,0,0,0,0,0,0,0,0,0,-1,1301,512,0,0
84,512,0,0,0,0,0,0,0,0,0,-1,1308,512,0,0
91,512,0,0,0,0,0,0,0,0,0,-1,1315,512,0,0
98,512,0,0,0,0,0,0,0,0,0,-1,1322,512,0,0
105,512,0,0,0,0,0,0,0,0,0,-1,1329,512,0,0
112,512,0,0,0,0,0,0,0,0,0,-1,1336,512,0,0
119,512,0,0,0,0,0,0,0,0,0,-1,1343,512,0,0
126,512,0,0,0,0,0,0,0,0,0,-1,1350,512,0,0
133,512,0,0,0,0,0,0,0,0,0,-1,1357,512,0,0
140,512,0,0,0,0,0,0,0,0,0,-1,1364,512,0,0
147,512,0,0,0,0,0,0,0,0,0,-1,1371,512,0,0
154,512,0,0,0,0,0,0,0,0,0,-1,1378,512,0,0
161,512,0,0,0,0,0,0,0,0,0,-1,1385,512,0,0
168,512,0,0,0,0,0,0,0,0,0,-1,1392,512,0,0
175,512,0,0,0,0,0,0,0,0,0,-1,1399,512,0,0
182,512,0,0,0,0,0,0,0,0,0,-1,1406,512,0,0
189,512,0,0,0,0,0,0,0,0,0,-1,1413,512,0,0
196,512,0,0,0,0,0,0,0,0,0,-1,1420,512,0,0
203,512,0,0,0,0,0,0,0,0,0,-1,1427,512,0,0
210,512,0,0,0,0,0,0,0,0,0,-1,1434,512,0,0
217,512,0,0,0,0,0,0,0,0,0,-1,1441,512,0,0
224,512,0,0,0,0,0,0,0,0,0,-1,1448,512,0,0
231,512,0,0,0,0,0,0,0,0,0,-1,1455,512,0,0
238,512,0,0,0,0,0,0,0,0,0,-1,1462,512,0,0
245,512,0,0,0,0,0,0,0,0,0,-1,1469,512,0,0
252,512,0,0,0,0,0,0,0,0,0,-1,1476,512,0,0
259,512,0,0,0,0,0,0,0,0,0,-1,1483,512,0,0
266,512,0,0,0,0,0,0,0,0,0,-1,1490,512,0,0
273,512,4.00745,0.618622,0,0,0,0,0,0,0,-1,1497,512,4.00747,-0.618611
280,512,4.49609,0.649841,0,0,0,0,0,0,0,-1,1504,512,4.49612,-0.649834
287,512,4.77234,0.458069,0,0,0,0,0,0,0,-1,1511,512,4.77233,-0.458083
294,512,8.54956,-2.36273,0,0,0,0,0,0,0,-1,1518,512,8.54952,2.36274
301,512,6.302,-1.69092,0,0,0,0,0,0,0,-1,1525,512,6.30196,1.69093
308,512,8.2439,-6.22754,0,0,0,0,0,0,0,-1,1532,512,8.24394,6.22757
315,512,7.53687,-6.04211,0,0,0,0,0,0,0,-1,1539,512,7.53691,6.04211
322,512,6.82983,-5.85663,0,0,0,0,0,0,0,-1,1546,512,6.82988,5.85666
329,512,4.38147,-0.329651,0,0,0,0,0,0,0,-1,1553,512,4.38144,0.329662
336,512,4.41467,-0.741455,0,0,0,0,0,0,0,-1,1560,512,4.41467,0.741442
343,512,4.44727,-1.21667,0,0,0,0,0,0,0,-1,1567,512,4.44732,1.21666
350,512,4.55469,-1.65082,0,0,0,0,0,0,0,-1,1574,512,4.5547,1.65083
357,512,5.79993,-2.67456,0,0,0,0,0,0,0,-1,1581,512,5.79991,2.67454
364,512,5.18298,-6.80133,0,0,0,0,0,0,0,-1,1588,512,5.18296,6.80132
371,512,5.28467,-7.69269,0,0,0,0,0,0,0,-1,1595,512,5.28464,7.69269
378,512,6.29407,-9.88055,0,0,0,0,0,0,0,-1,1602,512,6.29412,9.88057
385,512,6.45569,-9.32233,0,0,0,0,0,0,0,-1,1609,512,6.45565,9.3223
392,512,6.35522,-8.98425,0,0,0,0,0,0,0,-1,1616,512,6.35526,8.98422
399,512,7.5304,-12.1449,0,0,0,0,0,0,0,-1,1623,512,7.53042,12.1449
406,512,9.10034,-16.5601,0,0,0,0,0,0,0,-1,1630,512,9.10031,16.5601
413,512,9.17737,-16.1333,0,0,0,0,0,0,0,-1,1637,512,9.1774,16.1333
420,512,9.08691,-15.6812,-0.00461669,-0.00456348,-0.00629921,0.00170918,-0.0108894,-0.78751,0.00789124,0.0246583,1644,512,9.08685,15.6812
427,512,9.06653,-15.257,-0.00387817,-0.00403403,-0.0055206,0.00156505,-0.00947725,-0.77834,0.00689928,0.0148752,1651,512,9.06653,15.257
434,512,9.03967,-14.8703,-0.00315508,-0.00317282,-0.00455359,0.00138965,-0.00771755,-0.784424,0.00566534,0.0107641,1658,512,9.03969,14.8703
441,512,9.01001,-14.452,-0.00246674,-0.00247188,-0.00350035,0.00103104,-0.00596966,-0.785031,0.00436424,0.0121334,1665,512,9.00996,14.452
448,512,9.00122,-14.0742,-0.00177613,-0.00188943,-0.00249514,0.000663003,-0.00432856,-0.774048,0.0031302,0.00943895,1672,512,9.00117,14.0742
455,512,9.00378,-13.6775,-0.0012174,-0.0013421,-0.00158487,0.000306345,-0.00286585,-0.765738,0.00202044,0.00899102,1679,512,9.00373,13.6775
462,512,9.01062,-13.2564,-0.000739216,-0.000987271,-0.000748677,-0.000104363,-0.00162212,-0.703313,0.00104836,0.00934419,1686,512,9.01059,13.2564
469,512,9.00671,-12.8402,-0.000416386,-0.000849046,1.69869e-05,-0.00041572,-0.000849712,0.0391811,0.000490619,0.0107597,1693,512,9.00665,12.8402
476,512,8.99158,-12.4431,-0.000567766,-0.00101198,0.000459972,-0.000279083,-0.00130066,0.560473,0.000790673,0.0138673,1700,512,8.99164,12.443
483,512,8.98645,-12.0131,-0.000753061,-0.00129792,0.000807362,-0.000173406,-0.00187758,0.62268,0.00119811,0.0142014,1707,512,8.98649,12.0131
490,512,8.9845,-11.5716,-0.00130967,-0.00194614,0.000896207,-0.000676877,-0.00257894,0.614798,0.00154394,0.0113057,1714,512,8.98453,11.5716
497,512,8.97388,-11.139,-0.00217143,-0.00291453,0.000765336,-0.00169222,-0.00339374,0.55942,0.00195938,0.0115898,1721,512,8.97392,11.139
504,512,8.93726,-10.6918,-0.00330537,-0.00401383,0.000457428,-0.00308105,-0.00423815,0.455932,0.00252955,0.012799,1728,512,8.9373,10.6918
511,512,8.90295,-10.2512,-0.00479108,-0.00525884,-3.4682e-05,-0.00478852,-0.0052614,-0.0736083,0.00336108,0.0141312,1735,512,8.90292,10.2512
518,512,8.93713,-9.83124,-0.0067025,-0.00661111,-0.000692306,-0.00596299,-0.00735062,-0.818353,0.0045096,0.0189473,1742,512,8.93718,9.83121
525,512,8.49829,-9.62305,-0.00915172,-0.00810783,-0.00169959,-0.00685184,-0.0104077,-0.934378,0.00610851,0.0477156,1749,512,8.49833,9.62302
532,512,8.20544,-9.19397,0,0,0,0,0,0,0,-1,1756,512,8.2055,9.19396
539,512,7.05908,-7.00647,0,0,0,0,0,0,0,-1,1763,512,7.05909,7.00647
546,512,2.77551,-0.66449,0,0,0,0,0,0,0,-1,1770,512,2.77548,0.664503
553,512,3.927,-0.448853,0,0,0,0,0,0,0,-1,1777,512,3.92704,0.448843
560,512,3.55762,-0.201233,0,0,0,0,0,0,0,-1,1784,512,3.55768,0.201259
567,512,3.09045,0.191193,0,0,0,0,0,0,0,-1,1791,512,3.09045,-0.191203
574,512,0,0,0,0,0,0,0,0,0,-1,1798,512,0,0
581,512,0,0,0,0,0,0,0,0,0,-1,1805,512,0,0
588,512,0,0,0,0,0,0,0,0,0,-1,1812,512,0,0
595,512,0,0,0,0,0,0,0,0,0,-1,1819,512,0,0
602,512,0,0,0,0,0,0,0,0,0,-1,1826,512,0,0
609,512,0,0,0,0,0,0,0,0,0,-1,1833,512,0,0
616,512,0,0,0,0,0,0,0,0,0,-1,1840,512,0,0
623,512,0,0,0,0,0,0,0,0,0,-1,1847,512,0,0
630,512,0,0,0,0,0,0,0,0,0,-1,1854,512,0,0
637,512,0,0,0,0,0,0,0,0,0,-1,1861,512,0,0
644,512,0,0,0,0,0,0,0,0,0,-1,1868,512,0,0
651,512,0,0,0,0,0,0,0,0,0,-1,1875,512,0,0
658,512,0,0,0,0,0,0,0,0,0,-1,1882,512,0,0
665,512,0,0,0,0,0,0,0,0,0,-1,1889,512,0,0
672,512,0,0,0,0,0,0,0,0,0,-1,1896,512,0,0
679,512,0,0,0,0,0,0,0,0,0,-1,1903,512,0,0
686,512,0,0,0,0,0,0,0,0,0,-1,1910,512,0,0
693,512,0,0,0,0,0,0,0,0,0,-1,1917,512,0,0
700,512,0,0,0,0,0,0,0,0,0,-1,1924,512,0,0
707,512,0,0,0,0,0,0,0,0,0,-1,1931,512,0,0
714,512,0,0,0,0,0,0,0,0,0,-1,1938,512,0,0
721,512,0,0,0,0,0,0,0,0,0,-1,1945,512,0,0
728,512,0,0,0,0,0,0,0,0,0,-1,1952,512,0,0
735,512,0,0,0,0,0,0,0,0,0,-1,1959,512,0,0
742,512,0,0,0,0,0,0,0,0,0,-1,1966,512,0,0
749,512,0,0,0,0,0,0,0,0,0,-1,1973,512,0,0
756,512,0,0,0,0,0,0,0,0,0,-1,1980,512,0,0
763,512,0,0,0,0,0,0,0,0,0,-1,1987,512,0,0
770,512,0,0,0,0,0,0,0,0,0,-1,1994,512,0,0
777,512,0,0,0,0,0,0,0,0,0,-1,2001,512,0,0
784,512,0,0,0,0,0,0,0,0,0,-1,2008,512,0,0
791,512,0,0,0,0,0,0,0,0,0,-1,2015,512,0,0
798,512,0,0,0,0,0,0,0,0,0,-1,2022,512,0,0
805,512,0,0,0,0,0,0,0,0,0,-1,2029,512,0,0
812,512,0,0,0,0,0,0,0,0,0,-1,2036,512,0,0
-700,505,0,0,0,0,0,0,0,0,0,-1,524,519,0,0
-693,505,0,0,0,0,0,0,0,0,0,-1,531,519,0,0
-686,505,0,0,0,0,0,0,0,0,0,-1,538,519,0,0
-679,505,0,0,0,0,0,0,0,0,0,-1,545,519,0,0
-672,505,0,0,0,0,0,0,0,0,0,-1,552,519,0,0
-665,505,0,0,0,0,0,0,0,0,0,-1,559,519,0,0
-658,505,0,0,0,0,0,0,0,0,0,-1,566,519,0,0
-651,505,0,0,0,0,0,0,0,0,0,-1,573,519,0,0
-644,505,0,0,0,0,0,0,0,0,0,-1,580,519,0,0
-637,505,0,0,0,0,0,0,0,0,0,-1,587,519,0,0
-630,505,0,0,0,0,0,0,0,0,0,-1,594,519,0,0
-623,505,0,0,0,0,0,0,0,0,0,-1,601,519,0,0
-616,505,0,0,0,0,0,0,0,0,0,-1,608,519,0,0
-609,505,0,0,0,0,0,0,0,0,0,-1,615,519,0,0
-602,505,0,0,0,0,0,0,0,0,0,-1,622,519,0,0
-595,505,0,0,0,0,0,0,0,0,0,-1,629,519,0,0
-588,505,0,0,0,0,0,0,0,0,0,-1,636,519,0,0
-581,505,0,0,0,0,0,0,0,0,0,-1,643,519,0,0
-574,505,0,0,0,0,0,0,0,0,0,-1,650,519,0,0
-567,505,0,0,0,0,0,0,0,0,0,-1,657,519,0,0
-560,505,0,0,0,0,0,0,0,0,0,-1,664,519,0,0
-553,505,0,0,0,0,0,0,0,0,0,-1,671,519,0,0
-546,505,0,0,0,0,0,0,0,0,0,-1,678,519,0,0
-539,505,0,0,0,0,0,0,0,0,0,-1,685,519,0,0
-532,505,0,0,0,0,0,0,0,0,0,-1,692,519,0,0
-525,505,0,0,0,0,0,0,0,0,0,-1,699,519,0,0
-518,505,0,0,0,0,0,0,0,0,0,-1,706,519,0,0
-511,505,0,0,0,0,0,0,0,0,0,-1,713,519,0,0
-504,505,0,0,0,0,0,0,0,0,0,-1,720,519,0,0
-497,505,0,0,0,0,0,0,0,0,0,-1,727,519,0,0
-490,505,0,0,0,0,0,0,0,0,0,-1,734,519,0,0
-483,505,0,0,0,0,0,0,0,0,0,-1,741,519,0,0
-476,505,0,0,0,0,0,0,0,0,0,-1,748,519,0,0
-469,505,0,0,0,0,0,0,0,0,0,-1,755,519,0,0
-462,505,0,0,0,0,0,0,0,0,0,-1,762,519,0,0
-455,505,2.72137,-3.26379,0,0,0,0,0,0,0,-1,769,519,2.72135,3.26377
-448,505,2.51111,-3.94989,0,0,0,0,0,0,0,-1,776,519,2.51112,3.94986
-441,505,2.80212,-6.8902,0,0,0,0,0,0,0,-1,783,519,2.80209,6.89019
-434,505,0.304626,-6.2099,0,0,0,0,0,0,0,-1,790,519,0.304615,6.20987
-427,505,0.0349731,-6.49762,0,0,0,0,0,0,0,-1,797,519,0.0349682,6.49761
-420,505,-0.523132,-7.62921,0,0,0,0,0,0,0,-1,804,519,-0.523104,7.62919
-413,505,-2.04071,-10.3439,0,0,0,0,0,0,0,-1,811,519,-2.04071,10.3439
-406,505,-1.35205,-10.1594,0,0,0,0,0,0,0,-1,818,519,-1.35205,10.1594
-399,505,-1.38007,-10.691,-0.0053454,0.00250645,-0.000573397,0.0025481,-0.00538706,-1.49828,0.00467808,0.045989,825,519,-1.38005,10.691
-392,505,-1.40436,-11.2532,-0.00399184,0.00180807,-0.000870027,0.00193577,-0.00411954,-1.42506,0.00357101,0.0224299,832,519,-1.40437,11.2532
-385,505,-1.45502,-11.7604,-0.00273964,0.00131649,-0.00101436,0.00155601,-0.00297917,-1.33891,0.00266102,0.0101061,839,519,-1.45501,11.7604
-378,505,-1.4859,-12.1769,-0.00163629,0.000910944,-0.00118016,0.00137367,-0.00209901,-1.19713,0.00201948,0.0111514,846,519,-1.48593,12.1769
-371,505,-1.48163,-12.6256,-0.000742723,0.000471577,-0.00125784,0.00126114,-0.00153228,-1.01025,0.00161531,0.0138516,853,519,-1.48166,12.6256
-364,505,-1.49994,-13.048,-3.94878e-05,7.88418e-05,-0.00121778,0.00123889,-0.00119954,-0.809671,0.00140789,0.0150221,860,519,-1.49993,13.048
-357,505,-1.48914,-13.4273,0.000492162,-0.000136286,-0.00112246,0.00134355,-0.000987676,-0.648921,0.00135115,0.0131991,867,519,-1.48916,13.4273
-350,505,-1.50629,-13.8163,0.000856462,-0.000281929,-0.000985846,0.00142563,-0.000851099,-0.523592,0.00132835,0.0125344,874,519,-1.50629,13.8164
-343,505,-1.52228,-14.2125,0.00106789,-0.000341457,-0.000819437,0.00144398,-0.000717543,-0.430277,0.00127123,0.00975912,881,519,-1.52225,14.2125
-336,505,-1.5321,-14.5977,0.00113667,-0.000491514,-0.000522807,0.00129008,-0.000644931,-0.285435,0.00113769,0.0119341,888,519,-1.53208,14.5977
-329,505,-1.52148,-14.9626,0.00120703,-0.000561073,-0.000260314,0.00124456,-0.000598602,-0.143181,0.00108571,0.0166863,895,519,-1.52148,14.9626
-322,505,-1.5376,-15.3563,0.00114095,-0.000537288,4.21676e-05,0.00114201,-0.000538347,0.025105,0.000990803,0.0189649,902,519,-1.53761,15.3563
-315,505,-1.55438,-15.7536,0.00108817,-0.000527844,0.00037444,0.00117071,-0.000610387,0.216975,0.00104514,0.0148374,909,519,-1.55437,15.7536
-308,505,-1.56702,-16.095,0.00120271,-0.000732344,0.000765999,0.00146923,-0.00099886,0.334832,0.00143355,0.0126333,916,519,-1.567,16.095
-301,505,-1.547,-16.4768,0.00133927,-0.0010074,0.00125404,0.00188329,-0.00155143,0.409316,0.00198612,0.0177413,923,519,-1.54702,16.4768
-294,505,-1.54779,-16.812,0,0,0,0,0,0,0,-1,930,519,-1.54781,16.8119
-287,505,-1.60541,-17.191,0,0,0,0,0,0,0,-1,937,519,-1.60541,17.191
-280,505,-1.44855,-17.7252,0,0,0,0,0,0,0,-1,944,519,-1.44854,17.7252
-273,505,-0.0680542,-9.44867,0,0,0,0,0,0,0,-1,951,519,-0.0680462,9.44866
-266,505,-0.036377,-9.07922,0,0,0,0,0,0,0,-1,958,519,-0.0364055,9.0792
-259,505,0.10321,-6.69824,0,0,0,0,0,0,0,-1,965,519,0.103235,6.69826
-252,505,6.82312,-15.6972,0,0,0,0,0,0,0,-1,972,519,6.82314,15.6972
-245,505,4.26727,-12.9861,0,0,0,0,0,0,0,-1,979,519,4.2673,12.9861
-238,505,1.67432,-11.2307,0,0,0,0,0,0,0,-1,986,519,1.67429,11.2307
-231,505,-0.958435,-8.3075,0,0,0,0,0,0,0,-1,993,519,-0.958421,8.30751
-224,505,-3.69653,-5.12732,0,0,0,0,0,0,0,-1,1000,519,-3.69653,5.12733
-217,505,-6.34302,-1.65533,0,0,0,0,0,0,0,-1,1007,519,-6.34299,1.65535
-210,505,-3.06128,-0.396301,0,0,0,0,0,0,0,-1,1014,519,-3.06129,0.396294
-203,505,-4.26465,2.03607,0,0,0,0,0,0,0,-1,1021,519,-4.26462,-2.03606
-196,505,-5.47595,4.27295,0,0,0,0,0,0,0,-1,1028,519,-5.47597,-4.27292
-189,505,1.51526,5.56207,0,0,0,0,0,0,0,-1,1035,519,1.51523,-5.56209
-182,505,2.97815,7.5097,0,0,0,0,0,0,0,-1,1042,519,2.97812,-7.5097
-175,505,-2.38416,-2.17548,0,0,0,0,0,0,0,-1,1049,519,-2.38411,2.1755
-168,505,0,0,0,0,0,0,0,0,0,-1,1056,519,0,0
-161,505,0,0,0,0,0,0,0,0,0,-1,1063,519,0,0
-154,505,0,0,0,0,0,0,0,0,0,-1,1070,519,0,0
-147,505,0,0,0,0,0,0,0,0,0,-1,1077,519,0,0
-140,505,0,0,0,0,0,0,0,0,0,-1,1084,519,0,0
-133,505,0,0,0,0,0,0,0,0,0,-1,1091,519,0,0
-126,505,0,0,0,0,0,0,0,0,0,-1,1098,519,0,0
-119,505,0,0,0,0,0,0,0,0,0,-1,1105,519,0,0
-112,505,0,0,0,0,0,0,0,0,0,-1,1112,519,0,0
-105,505,0,0,0,0,0,0,0,0,0,-1,1119,519,0,0
-98,505,0,0,0,0,0,0,0,0,0,-1,1126,519,0,0
-91,505,0,0,0,0,0,0,0,0,0,-1,1133,519,0,0
-84,505,0,0,0,0,0,0,0,0,0,-1,1140,519,0,0
-77,505,0,0,0,0,0,0,0,0,0,-1,1147,519,0,0
-70,505,0,0,0,0,0,0,0,0,0,-1,1154,519,0,0
-63,505,0,0,0,0,0,0,0,0,0,-1,1161,519,0,0
-56,505,0,0,0,0,0,0,0,0,0,-1,1168,519,0,0
-49,505,0,0,0,0,0,0,0,0,0,-1,1175,519,0,0
-42,505,0,0,0,0,0,0,0,0,0,-1,1182,519,0,0
-35,505,0,0,0,0,0,0,0,0,0,-1,1189,519,0,0
-28,505,0,0,0,0,0,0,0,0,0,-1,1196,519,0,0
-21,505,0,0,0,0,0,0,0,0,0,-1,1203,519,0,0
-14,505,0,0,0,0,0,0,0,0,0,-1,1210,519,0,0
-7,505,0,0,0,0,0,0,0,0,0,-1,1217,519,0,0
0,505,0,0,0,0,0,0,0,0,0,-1,1224,519,0,0
7,505,0,0,0,0,0,0,0,0,0,-1,1231,519,0,0
14,505,0,0,0,0,0,0,0,0,0,-1,1238,519,0,0
21,505,0,0,0,0,0,0,0,0,0,-1,1245,519,0,0
28,505,0,0,0,0,0,0,0,0,0,-1,1252,519,0,0
35,505,0,0,0,0,0,0,0,0,0,-1,1259,519,0,0
42,505,0,0,0,0,0,0,0,0,0,-1,1266,519,0,0
49,505,0,0,0,0,0,0,0,0,0,-1,1273,519,0,0
56,505,0,0,0,0,0,0,0,0,0,-1,1280,519,0,0
63,505,0,0,0,0,0,0,0,0,0,-1,1287,519,0,0
70,505,0,0,0,0,0,0,0,0,0,-1,1294,519,0,0
77,505,0,0,0,0,0,0,0,0,0,-1,1301,519,0,0
84,505,0,0,0,0,0,0,0,0,0,-1,1308,519,0,0
91,505,0,0,0,0,0,0,0,0,0,-1,1315,519,0,0
98,505,0,0,0,0,0,0,0,0,0,-1,1322,519,0,0
105,505,0,0,0,0,0,0,0,0,0,-1,1329,519,0,0
112,505,0,0,0,0,0,0,0,0,0,-1,1336,519,0,0
119,505,0,0,0,0,0,0,0,0,0,-1,1343,519,0,0
126,505,0,0,0,0,0,0,0,0,0,-1,1350,519,0,0
133,505,0,0,0,0,0,0,0,0,0,-1,1357,519,0,0
140,505,0,0,0,0,0,0,0,0,0,-1,1364,519,0,0
147,505,0,0,0,0,0,0,0,0,0,-1,1371,519,0,0
154,505,0,0,0,0,0,0,0,0,0,-1,1378,519,0,0
161,505,0,0,0,0,0,0,0,0,0,-1,1385,519,0,0
168,505,0,0,0,0,0,0,0,0,0,-1,1392,519,0,0
175,505,0,0,0,0,0,0,0,0,0,-1,1399,519,0,0
182,505,0,0,0,0,0,0,0,0,0,-1,1406,519,0,0
189,505,0,0,0,0,0,0,0,0,0,-1,1413,519,0,0
196,505,0,0,0,0,0,0,0,0,0,-1,1420,519,0,0
203,505,0,0,0,0,0,0,0,0,0,-1,1427,519,0,0
210,505,0,0,0,0,0,0,0,0,0,-1,1434,519,0,0
217,505,0,0,0,0,0,0,0,0,0,-1,1441,519,0,0
224,505,0,0,0,0,0,0,0,0,0,-1,1448,519,0,0
231,505,0,0,0,0,0,0,0,0,0,-1,1455,519,0,0
238,505,0,0,0,0,0,0,0,0,0,-1,1462,519,0,0
245,505,0,0,0,0,0,0,0,0,0,-1,1469,519,0,0
252,505,0,0,0,0,0,0,0,0,0,-1,1476,519,0,0
259,505,0,0,0,0,0,0,0,0,0,-1,1483,519,0,0
266,505,0,0,0,0,0,0,0,0,0,-1,1490,519,0,0
273,505,0,0,0,0,0,0,0,0,0,-1,1497,519,0,0
280,505,0,0,0,0,0,0,0,0,0,-1,1504,519,0,0
287,505,4.39478,0.499512,0,0,0,0,0,0,0,-1,1511,519,4.39476,-0.499506
294,505,4.88867,0.0822754,0,0,0,0,0,0,0,-1,1518,519,4.88871,-0.0822748
301,505,4.82153,-0.0704346,0,0,0,0,0,0,0,-1,1525,519,4.82156,0.0704312
308,505,4.67761,-0.29187,0,0,0,0,0,0,0,-1,1532,519,4.67762,0.291845
315,505,8.44055,-6.54352,0,0,0,0,0,0,0,-1,1539,519,8.44059,6.54349
322,505,4.78955,-0.594116,0,0,0,0,0,0,0,-1,1546,519,4.78957,0.594096
329,505,5.16321,0.434631,0,0,0,0,0,0,0,-1,1553,519,5.16316,-0.434614
336,505,4.94495,-0.920471,0,0,0,0,0,0,0,-1,1560,519,4.945,0.920495
343,505,5.01855,-1.4823,0,0,0,0,0,0,0,-1,1567,519,5.01851,1.48227
350,505,5.33154,-1.77838,0,0,0,0,0,0,0,-1,1574,519,5.33152,1.77838
357,505,5.56567,-1.9425,0,0,0,0,0,0,0,-1,1581,519,5.56562,1.94248
364,505,5.85205,-2.6579,0,0,0,0,0,0,0,-1,1588,519,5.85211,2.65788
371,505,5.88477,-7.00922,0,0,0,0,0,0,0,-1,1595,519,5.88473,7.00924
378,505,5.44104,-7.10162,0,0,0,0,0,0,0,-1,1602,519,5.44099,7.10162
385,505,6.64661,-8.65015,0,0,0,0,0,0,0,-1,1609,519,6.64662,8.65014
392,505,6.34558,-8.3429,0,0,0,0,0,0,0,-1,1616,519,6.34554,8.34288
399,505,7.45898,-9.70386,0,0,0,0,0,0,0,-1,1623,519,7.45899,9.70388
406,505,7.08679,-9.4928,0,0,0,0,0,0,0,-1,1630,519,7.08678,9.49278
413,505,8.4032,-14.0308,0,0,0,0,0,0,0,-1,1637,519,8.4032,14.0308
420,505,9.43567,-15.8252,0,0,0,0,0,0,0,-1,1644,519,9.43564,15.8252
427,505,9.45679,-15.3276,-0.00614987,-0.00665271,-0.00798848,0.00159114,-0.0143937,-0.769667,0.0101678,0.0230427,1651,519,9.45677,15.3276
434,505,9.42993,-14.8766,-0.004912,-0.0053695,-0.0064972,0.00136048,-0.011642,-0.767802,0.00825228,0.0102136,1658,519,9.42989,14.8766
441,505,9.42529,-14.4394,-0.00370989,-0.004136,-0.00505634,0.00113788,-0.00898377,-0.764342,0.00640227,0.0100204,1665,519,9.42532,14.4394
448,505,9.4303,-14.0452,-0.00255192,-0.0030644,-0.00373267,0.000933291,-0.00654961,-0.751128,0.00470844,0.0105205,1672,519,9.43027,14.0452
455,505,9.42712,-13.6492,-0.00160458,-0.0020592,-0.00259083,0.000768897,-0.00443268,-0.741642,0.00324195,0.011024,1679,519,9.42713,13.6492
462,505,9.40576,-13.2395,-0.000838242,-0.00128717,-0.00160391,0.000556833,-0.00268224,-0.715876,0.00199978,0.0109638,1686,519,9.40578,13.2395
469,505,9.39612,-12.835,-0.000265649,-0.000777108,-0.000745826,0.000267072,-0.00130983,-0.620239,0.000974519,0.0108092,1693,519,9.39611,12.8349
476,505,9.39771,-12.4457,-0.00016656,-0.000593923,-0.000220498,-7.31926e-05,-0.000687291,-0.400549,0.00043585,0.0110214,1700,519,9.39773,12.4457
483,505,9.40161,-12.0303,-0.00012776,-0.000547277,0.000208175,-4.19934e-05,-0.000633045,0.390804,0.000408752,0.0121312,1707,519,9.40157,12.0303
490,505,9.39026,-11.58,-0.000537144,-0.000793008,0.0003471,-0.00029515,-0.001035,0.608836,0.00061567,0.0116144,1714,519,9.39029,11.58
497,505,9.37073,-11.1357,-0.00133048,-0.001499,0.000225087,-0.0011744,-0.00165508,0.606306,0.000983142,0.0117775,1721,519,9.37074,11.1357
504,505,9.34229,-10.6907,-0.00239731,-0.00235761,-7.4315e-05,-0.00230054,-0.00245438,-0.915904,0.00158746,0.0131326,1728,519,9.34227,10.6907
511,505,9.32629,-10.2585,-0.00380641,-0.00333809,-0.000521044,-0.00300101,-0.00414349,-0.99658,0.00247116,0.0145383,1735,519,9.32635,10.2585
518,505,9.39966,-9.85107,-0.00558675,-0.00440555,-0.00114215,-0.00371034,-0.00628196,-1.02401,0.0036467,0.0210259,1742,519,9.39964,9.8511
525,505,9.14709,-9.38373,-0.007736,-0.0056448,-0.00204151,-0.0043967,-0.0089841,-1.02207,0.00518736,0.0352954,1749,519,9.14704,9.3837
532,505,8.96265,-8.65582,0,0,0,0,0,0,0,-1,1756,519,8.96262,8.65581
539,505,7.90369,-7.11932,0,0,0,0,0,0,0,-1,1763,519,7.90373,7.11932
546,505,7.94946,-6.64539,0,0,0,0,0,0,0,-1,1770,519,7.94947,6.64539
553,505,2.82837,0.162659,0,0,0,0,0,0,0,-1,1777,519,2.82841,-0.162672
560,505,3.66223,-0.479797,0,0,0,0,0,0,0,-1,1784,519,3.66219,0.47982
567,505,4.65271,-0.950256,0,0,0,0,0,0,0,-1,1791,519,4.65274,0.95028
574,505,5.54443,-1.19977,0,0,0,0,0,0,0,-1,1798,519,5.54443,1.19974
581,505,0,0,0,0,0,0,0,0,0,-1,1805,519,0,0
588,505,0,0,0,0,0,0,0,0,0,-1,1812,519,0,0
595,505,0,0,0,0,0,0,0,0,0,-1,1819,519,0,0
602,505,0,0,0,0,0,0,0,0,0,-1,1826,519,0,0
609,505,0,0,0,0,0,0,0,0,0,-1,1833,519,0,0
616,505,0,0,0,0,0,0,0,0,0,-1,1840,519,0,0
623,505,0,0,0,0,0,0,0,0,0,-1,1847,519,0,0
630,505,0,0,0,0,0,0,0,0,0,-1,1854,519,0,0
637,505,0,0,0,0,0,0,0,0,0,-1,1861,519,0,0
644,505,0,0,0,0,0,0,0,0,0,-1,1868,519,0,0
651,505,0,0,0,0,0,0,0,0,0,-1,1875,519,0,0
658,505,0,0,0,0,0,0,0,0,0,-1,1882,519,0,0
665,505,0,0,0,0,0,0,0,0,0,-1,1889,519,0,0
672,505,0,0,0,0,0,0,0,0,0,-1,1896,519,0,0
679,505,0,0,0,0,0,0,0,0,0,-1,1903,519,0,0
686,505,0,0,0,0,0,0,0,0,0,-1,1910,519,0,0
693,505,0,0,0,0,0,0,0,0,0,-1,1917,519,0,0
700,505,0,0,0,0,0,0,0,0,0,-1,1924,519,0,0
707,505,0,0,0,0,0,0,0,0,0,-1,1931,519,0,0
714,505,0,0,0,0,0,0,0,0,0,-1,1938,519,0,0
721,505,0,0,0,0,0,0,0,0,0,-1,1945,519,0,0
728,505,0,0,0,0,0,0,0,0,0,-1,1952,519,0,0
735,505,0,0,0,0,0,0,0,0,0,-1,1959,519,0,0
742,505,0,0,0,0,0,0,0,0,0,-1,1966,519,0,0
749,505,0,0,0,0,0,0,0,0,0,-1,1973,519,0,0
756,505,0,0,0,0,0,0,0,0,0,-1,1980,519,0,0
763,505,0,0,0,0,0,0,0,0,0,-1,1987,519,0,0
770,505,0,0,0,0,0,0,0,0,0,-1,1994,519,0,0
777,505,0,0,0,0,0,0,0,0,0,-1,2001,519,0,0
784,505,0,0,0,0,0,0,0,0,0,-1,2008,519,0,0
791,505,0,0,0,0,0,0,0,0,0,-1,2015,519,0,0
798,505,0,0,0,0,0,0,0,0,0,-1,2022,519,0,0
805,505,0,0,0,0,0,0,0,0,0,-1,2029,519,0,0
812,505,0,0,0,0,0,0,0,0,0,-1,2036,519,0,0
-700,498,0,0,0,0,0,0,0,0,0,-1,524,526,0,0
-693,498,0,0,0,0,0,0,0,0,0,-1,531,526,0,0
-686,498,0,0,0,0,0,0,0,0,0,-1,538,526,0,0
-679,498,0,0,0,0,0,0,0,0,0,-1,545,526,0,0
-672,498,0,0,0,0,0,0,0,0,0,-1,552,526,0,0
-665,498,0,0,0,0,0,0,0,0,0,-1,559,526,0,0
-658,498,0,0,0,0,0,0,0,0,0,-1,566,526,0,0
-651,498,0,0,0,0,0,0,0,0,0,-1,573,526,0,0
-644,498,0,0,0,0,0,0,0,0,0,-1,580,526,0,0
-637,498,0,0,0,0,0,0,0,0,0,-1,587,526,0,0
-630,498,0,0,0,0,0,0,0,0,0,-1,594,526,0,0
-623,498,0,0,0,0,0,0,0,0,0,-1,601,526,0,0
-616,498,0,0,0,0,0,0,0,0,0,-1,608,526,0,0
-609,498,0,0,0,0,0,0,0,0,0,-1,615,526,0,0
-602,498,0,0,0,0,0,0,0,0,0,-1,622,526,0,0
-595,498,0,0,0,0,0,0,0,0,0,-1,629,526,0,0
-588,498,0,0,0,0,0,0,0,0,0,-1,636,526,0,0
-581,498,0,0,0,0,0,0,0,0,0,-1,643,526,0,0
-574,498,0,0,0,0,0,0,0,0,0,-1,650,526,0,0
-567,498,0,0,0,0,0,0,0,0,0,-1,657,526,0,0
-560,498,0,0,0,0,0,0,0,0,0,-1,664,526,0,0
-553,498,0,0,0,0,0,0,0,0,0,-1,671,526,0,0
-546,498,0,0,0,0,0,0,0,0,0,-1,678,526,0,0
-539,498,0,0,0,0,0,0,0,0,0,-1,685,526,0,0
-532,498,0,0,0,0,0,0,0,0,0,-1,692,526,0,0
-525,498,0,0,0,0,0,0,0,0,0,-1,699,526,0,0
-518,498,0,0,0,0,0,0,0,0,0,-1,706,526,0,0
-511,498,0,0,0,0,0,0,0,0,0,-1,713,526,0,0
-504,498,0,0,0,0,0,0,0,0,0,-1,720,526,0,0
-497,498,0,0,0,0,0,0,0,0,0,-1,727,526,0,0
-490,498,0,0,0,0,0,0,0,0,0,-1,734,526,0,0
-483,498,0,0,0,0,0,0,0,0,0,-1,741,526,0,0
-476,498,0,0,0,0,0,0,0,0,0,-1,748,526,0,0
-469,498,0,0,0,0,0,0,0,0,0,-1,755,526,0,0
-462,498,6.81024,1.15515,0,0,0,0,0,0,0,-1,762,526,6.81026,-1.15514
-455,498,3.25757,-3.0592,0,0,0,0,0,0,0,-1,769,526,3.25754,3.05921
-448,498,3.05939,-3.74298,0,0,0,0,0,0,0,-1,776,526,3.05939,3.74296
-441,498,2.77191,-6.08209,0,0,0,0,0,0,0,-1,783,526,2.77189,6.08207
-434,498,2.10681,-6.95929,0,0,0,0,0,0,0,-1,790,526,2.10682,6.9593
-427,498,-0.342224,-6.47314,0,0,0,0,0,0,0,-1,797,526,-0.342207,6.47314
-420,498,-0.675293,-6.72467,0,0,0,0,0,0,0,-1,804,526,-0.675275,6.72468
-413,498,-2.03192,-9.00494,0,0,0,0,0,0,0,-1,811,526,-2.03189,9.00491
-406,498,-1.82056,-10.3281,0,0,0,0,0,0,0,-1,818,526,-1.82056,10.3281
-399,498,-1.82349,-10.8447,-0.00413115,0.00264058,-0.000725511,0.00271744,-0.004208,-1.46525,0.00402916,0.0253668,825,526,-1.82349,10.8447
-392,498,-1.83594,-11.3382,-0.00312045,0.00194023,-0.000838049,0.0020754,-0.00325562,-1.41088,0.00310291,0.0132892,832,526,-1.83595,11.3382
-385,498,-1.86279,-11.7695,-0.00210393,0.00144632,-0.000892741,0.00165817,-0.00231578,-1.33781,0.0023048,0.00988521,839,526,-1.86279,11.7695
-378,498,-1.88434,-12.1782,-0.00117889,0.00106755,-0.000975142,0.00143179,-0.00154313,-1.21332,0.00171797,0.0109684,846,526,-1.88431,12.1782
-371,498,-1.87177,-12.6065,-0.000431609,0.000630181,-0.000992313,0.00122469,-0.00102612,-1.03103,0.00130119,0.016713,853,526,-1.87177,12.6065
-364,498,-1.8833,-13.0256,0.000176066,0.000208899,-0.000906759,0.00109939,-0.000714426,-0.794449,0.00105504,0.016832,860,526,-1.8833,13.0256
-357,498,-1.89508,-13.4152,0.000681893,-3.56137e-05,-0.000795076,0.00119541,-0.000549127,-0.573465,0.00102999,0.0116932,867,526,-1.89511,13.4151
-350,498,-1.91095,-13.812,0.00107525,-0.000229299,-0.000667831,0.00135649,-0.000510546,-0.398592,0.00111421,0.0113794,874,526,-1.91095,13.812
-343,498,-1.90466,-14.1933,0.0013233,-0.000388607,-0.00050057,0.00145893,-0.000524231,-0.264587,0.00118661,0.0116344,881,526,-1.90466,14.1933
-336,498,-1.89325,-14.5957,0.00145479,-0.000605723,-0.000227882,0.0014797,-0.000630624,-0.108842,0.00125083,0.0147521,888,526,-1.89327,14.5957
-329,498,-1.89771,-14.9528,0.00159088,-0.00070446,9.72233e-06,0.00159092,-0.000704501,0.00423558,0.0013578,0.0208112,895,526,-1.8977,14.9528
-322,498,-1.92908,-15.3413,0.00161964,-0.000735811,0.000265977,0.0016493,-0.000765471,0.111057,0.00142496,0.0221645,902,526,-1.92911,15.3413
-315,498,-1.9411,-15.7421,0.00168773,-0.00083729,0.000550699,0.00180261,-0.000952169,0.205657,0.00161554,0.0180137,909,526,-1.94111,15.7421
-308,498,-1.9483,-16.0986,0.00195134,-0.00123064,0.000924896,0.00220064,-0.00147995,0.26329,0.00213853,0.0218688,916,526,-1.9483,16.0985
-301,498,-1.92059,-16.5053,0,0,0,0,0,0,0,-1,923,526,-1.92057,16.5053
-294,498,-1.77789,-16.514,0,0,0,0,0,0,0,-1,930,526,-1.77787,16.514
-287,498,-0.91394,-13.4327,0,0,0,0,0,0,0,-1,937,526,-0.913935,13.4327
-280,498,-0.341614,-8.66608,0,0,0,0,0,0,0,-1,944,526,-0.341589,8.66606
-273,498,-0.988892,-8.62921,0,0,0,0,0,0,0,-1,951,526,-0.988906,8.62922
-266,498,0.362488,-6.33545,0,0,0,0,0,0,0,-1,958,526,0.362478,6.33547
-259,498,10.9454,-17.3615,0,0,0,0,0,0,0,-1,965,526,10.9454,17.3614
-252,498,8.56586,-14.6886,0,0,0,0,0,0,0,-1,972,526,8.56584,14.6886
-245,498,5.97382,-11.928,0,0,0,0,0,0,0,-1,979,526,5.97381,11.928
-238,498,2.24841,-13.8145,0,0,0,0,0,0,0,-1,986,526,2.24838,13.8145
-231,498,0.665894,-10.4898,0,0,0,0,0,0,0,-1,993,526,0.665863,10.4898
-224,498,-2.11243,-4.76312,0,0,0,0,0,0,0,-1,1000,526,-2.11245,4.76314
-217,498,-3.82239,-1.42841,0,0,0,0,0,0,0,-1,1007,526,-3.82241,1.42843
-210,498,-1.80591,-0.358215,0,0,0,0,0,0,0,-1,1014,526,-1.8059,0.3582
-203,498,-3.17316,1.06641,0,0,0,0,0,0,0,-1,1021,526,-3.17313,-1.0664
-196,498,-0.103271,5.40527,0,0,0,0,0,0,0,-1,1028,526,-0.103285,-5.40528
-189,498,3.00256,6.47137,0,0,0,0,0,0,0,-1,1035,526,3.00256,-6.47139
-182,498,0,0,0,0,0,0,0,0,0,-1,1042,526,0,0
-175,498,0,0,0,0,0,0,0,0,0,-1,1049,526,0,0
-168,498,0,0,0,0,0,0,0,0,0,-1,1056,526,0,0
-161,498,0,0,0,0,0,0,0,0,0,-1,1063,526,0,0
-154,498,0,0,0,0,0,0,0,0,0,-1,1070,526,0,0
-147,498,0,0,0,0,0,0,0,0,0,-1,1077,526,0,0
-140,498,0,0,0,0,0,0,0,0,0,-1,1084,526,0,0
-133,498,0,0,0,0,0,0,0,0,0,-1,1091,526,0,0
-126,498,0,0,0,0,0,0,0,0,0,-1,1098,526,0,0
-119,498,0,0,0,0,0,0,0,0,0,-1,1105,526,0,0
-112,498,0,0,0,0,0,0,0,0,0,-1,1112,526,0,0
-105,498,0,0,0,0,0,0,0,0,0,-1,1119,526,0,0
-98,498,0,0,0,0,0,0,0,0,0,-1,1126,526,0,0
-91,498,0,0,0,0,0,0,0,0,0,-1,1133,526,0,0
-84,498,0,0,0,0,0,0,0,0,0,-1,1140,526,0,0
-77,498,0,0,0,0,0,0,0,0,0,-1,1147,526,0,0
-70,498,0,0,0,0,0,0,0,0,0,-1,1154,526,0,0
-63,498,0,0,0,0,0,0,0,0,0,-1,1161,526,0,0
-56,498,0,0,0,0,0,0,0,0,0,-1,1168,526,0,0
-49,498,0,0,0,0,0,0,0,0,0,-1,1175,526,0,0
-42,498,0,0,0,0,0,0,0,0,0,-1,1182,526,0,0
-35,498,0,0,0,0,0,0,0,0,0,-1,1189,526,0,0
-28,498,0,0,0,0,0,0,0,0,0,-1,1196,526,0,0
-21,498,0,0,0,0,0,0,0,0,0,-1,1203,526,0,0
-14,498,0,0,0,0,0,0,0,0,0,-1,1210,526,0,0
-7,498,0,0,0,0,0,0,0,0,0,-1,1217,526,0,0
0,498,0,0,0,0,0,0,0,0,0,-1,1224,526,0,0
7,498,0,0,0,0,0,0,0,0,0,-1,1231,526,0,0
14,498,0,0,0,0,0,0,0,0,0,-1,1238,526,0,0
21,498,0,0,0,0,0,0,0,0,0,-1,1245,526,0,0
28,498,0,0,0,0,0,0,0,0,0,-1,1252,526,0,0
35,498,0,0,0,0,0,0,0,0,0,-1,1259,526,0,0
42,498,0,0,0,0,0,0,0,0,0,-1,1266,526,0,0
49,498,0,0,0,0,0,0,0,0,0,-1,1273,526,0,0
56,498,0,0,0,0,0,0,0,0,0,-1,1280,526,0,0
63,498,0,0,0,0,0,0,0,0,0,-1,1287,526,0,0
70,498,0,0,0,0,0,0,0,0,0,-1,1294,526,0,0
77,498,0,0,0,0,0,0,0,0,0,-1,1301,526,0,0
84,498,0,0,0,0,0,0,0,0,0,-1,1308,526,0,0
91,498,0,0,0,0,0,0,0,0,0,-1,1315,526,0,0
98,498,0,0,0,0,0,0,0,0,0,-1,1322,526,0,0
105,498,0,0,0,0,0,0,0,0,0,-1,1329,526,0,0
112,498,0,0,0,0,0,0,0,0,0,-1,1336,526,0,0
119,498,0,0,0,0,0,0,0,0,0,-1,1343,526,0,0
126,498,0,0,0,0,0,0,0,0,0,-1,1350,526,0,0
133,498,0,0,0,0,0,0,0,0,0,-1,1357,526,0,0
140,498,0,0,0,0,0,0,0,0,0,-1,1364,526,0,0
147,498,0,0,0,0,0,0,0,0,0,-1,1371,526,0,0
154,498,0,0,0,0,0,0,0,0,0,-1,1378,526,0,0
161,498,0,0,0,0,0,0,0,0,0,-1,1385,526,0,0
168,498,0,0,0,0,0,0,0,0,0,-1,1392,526,0,0
175,498,0,0,0,0,0,0,0,0,0,-1,1399,526,0,0
182,498,0,0,0,0,0,0,0,0,0,-1,1406,526,0,0
189,498,0,0,0,0,0,0,0,0,0,-1,1413,526,0,0
196,498,0,0,0,0,0,0,0,0,0,-1,1420,526,0,0
203,498,0,0,0,0,0,0,0,0,0,-1,1427,526,0,0
210,498,0,0,0,0,0,0,0,0,0,-1,1434,526,0,0
217,498,0,0,0,0,0,0,0,0,0,-1,1441,526,0,0
224,498,0,0,0,0,0,0,0,0,0,-1,1448,526,0,0
231,498,0,0,0,0,0,0,0,0,0,-1,1455,526,0,0
238,498,0,0,0,0,0,0,0,0,0,-1,1462,526,0,0
245,498,0,0,0,0,0,0,0,0,0,-1,1469,526,0,0
252,498,0,0,0,0,0,0,0,0,0,-1,1476,526,0,0
259,498,0,0,0,0,0,0,0,0,0,-1,1483,526,0,0
266,498,0,0,0,0,0,0,0,0,0,-1,1490,526,0,0
273,498,0,0,0,0,0,0,0,0,0,-1,1497,526,0,0
280,498,0,0,0,0,0,0,0,0,0,-1,1504,526,0,0
287,498,0,0,0,0,0,0,0,0,0,-1,1511,526,0,0
294,498,0,0,0,0,0,0,0,0,0,-1,1518,526,0,0
301,498,0,0,0,0,0,0,0,0,0,-1,1525,526,0,0
308,498,4.77942,-0.293884,0,0,0,0,0,0,0,-1,1532,526,4.77939,0.293899
315,498,4.56091,-0.564148,0,0,0,0,0,0,0,-1,1539,526,4.56097,0.564142
322,498,4.52344,-0.447266,0,0,0,0,0,0,0,-1,1546,526,4.52341,0.447295
329,498,4.63232,-0.156982,0,0,0,0,0,0,0,-1,1553,526,4.63238,0.156991
336,498,5.22644,0.0925903,0,0,0,0,0,0,0,-1,1560,526,5.22648,-0.0926188
343,498,6.22607,-1.67615,0,0,0,0,0,0,0,-1,1567,526,6.22605,1.67617
350,498,6.19373,-1.59906,0,0,0,0,0,0,0,-1,1574,526,6.19367,1.59906
357,498,6.21472,-1.58929,0,0,0,0,0,0,0,-1,1581,526,6.21476,1.58927
364,498,5.73547,-1.2019,0,0,0,0,0,0,0,-1,1588,526,5.73547,1.20192
371,498,3.27087,-4.55334,0,0,0,0,0,0,0,-1,1595,526,3.27089,4.55332
378,498,8.42944,-4.70624,0,0,0,0,0,0,0,-1,1602,526,8.42942,4.70624
385,498,4.7793,-5.15314,0,0,0,0,0,0,0,-1,1609,526,4.77935,5.15311
392,498,9.12439,-8.57953,0,0,0,0,0,0,0,-1,1616,526,9.12443,8.57955
399,498,7.98938,-9.46021,0,0,0,0,0,0,0,-1,1623,526,7.98936,9.4602
406,498,7.58081,-9.26819,0,0,0,0,0,0,0,-1,1630,526,7.58085,9.26817
413,498,7.17236,-9.07611,0,0,0,0,0,0,0,-1,1637,526,7.17234,9.07614
420,498,11.0117,-15.4317,0,0,0,0,0,0,0,-1,1644,526,11.0117,15.4317
427,498,10.41,-15.0515,-0.00917722,-0.0102256,-0.0110972,0.00140812,-0.020811,-0.761796,0.0143664,0.0498907,1651,526,10.4101,15.0515
434,498,9.81165,-14.8499,-0.00709983,-0.00802399,-0.00882323,0.00127341,-0.0163972,-0.759237,0.0113797,0.0225634,1658,526,9.81163,14.8499
441,498,9.84717,-14.4505,-0.00523111,-0.00604445,-0.00679412,0.0011685,-0.0124441,-0.755506,0.00871171,0.00923562,1665,526,9.84712,14.4505
448,498,9.86292,-14.0261,-0.00353538,-0.00436521,-0.00501018,0.00107704,-0.00897763,-0.744085,0.0063745,0.00996524,1672,526,9.86287,14.0261
455,498,9.85571,-13.623,-0.0021584,-0.0028648,-0.00352013,0.00102621,-0.00604941,-0.735397,0.00441494,0.0141639,1679,526,9.85573,13.623
462,498,9.83948,-13.233,-0.00111262,-0.00170575,-0.00229827,0.000908145,-0.00372651,-0.721233,0.00283595,0.0158629,1686,526,9.83951,13.233
469,498,9.81665,-12.8356,-0.000309932,-0.000904186,-0.00128761,0.000714392,-0.00192851,-0.672004,0.00157864,0.0136857,1693,526,9.8166,12.8356
476,498,9.81897,-12.437,3.05023e-05,-0.000480441,-0.000613874,0.000439942,-0.000889881,-0.588217,0.000782285,0.00981474,1700,526,9.81896,12.437
483,498,9.80615,-12.0304,0.000266374,-0.000233729,-4.84488e-05,0.000271025,-0.000238379,-0.0956919,0.000294306,0.00815506,1707,526,9.80617,12.0304
490,498,9.79419,-11.5917,-1.55419e-05,-0.000196029,0.000195252,0.000109313,-0.000320883,0.568926,0.000258192,0.0103004,1714,526,9.79417,11.5917
497,498,9.78967,-11.1454,-0.000743029,-0.000752711,0.000122001,-0.000625773,-0.000869967,0.765568,0.00051813,0.0121337,1721,526,9.7897,11.1454
504,498,9.76721,-10.6915,-0.00173193,-0.00146575,-0.00014633,-0.00140104,-0.00179664,-1.15443,0.00109009,0.0145103,1728,526,9.76716,10.6915
511,498,9.76648,-10.2604,-0.00301979,-0.00227003,-0.000539079,-0.0019883,-0.00330152,-1.08922,0.00191937,0.0158857,1735,526,9.76652,10.2604
518,498,9.81519,-9.83374,-0.00461326,-0.00310495,-0.00108277,-0.00253958,-0.00517863,-1.08959,0.00299007,0.0164386,1742,526,9.81515,9.83374
525,498,9.71375,-9.40326,-0.00643319,-0.00410259,-0.00181197,-0.00311355,-0.00742223,-1.07116,0.0043037,0.0268738,1749,526,9.71375,9.40325
532,498,9.4834,-9.01416,-0.00846129,-0.00517347,-0.00264917,-0.0036996,-0.00993516,-1.06309,0.00579802,0.044845,1756,526,9.4834,9.01416
539,498,9.48364,-8.65717,0,0,0,0,0,0,0,-1,1763,526,9.48366,8.65715
546,498,9.44812,-7.36108,0,0,0,0,0,0,0,-1,1770,526,9.4481,7.36109
553,498,5.93958,-1.71448,0,0,0,0,0,0,0,-1,1777,526,5.93956,1.71447
560,498,3.69385,-0.615112,0,0,0,0,0,0,0,-1,1784,526,3.69381,0.615118
567,498,5.12695,-0.581604,0,0,0,0,0,0,0,-1,1791,526,5.12699,0.58159
574,498,3.88,0.0286255,0,0,0,0,0,0,0,-1,1798,526,3.87999,-0.0286535
581,498,10.8722,2.58551,0,0,0,0,0,0,0,-1,1805,526,10.8723,-2.58551
588,498,0,0,0,0,0,0,0,0,0,-1,1812,526,0,0
595,498,0,0,0,0,0,0,0,0,0,-1,1819,526,0,0
602,498,0,0,0,0,0,0,0,0,0,-1,1826,526,0,0
609,498,0,0,0,0,0,0,0,0,0,-1,1833,526,0,0
616,498,0,0,0,0,0,0,0,0,0,-1,1840,526,0,0
623,498,0,0,0,0,0,0,0,0,0,-1,1847,526,0,0
630,498,0,0,0,0,0,0,0,0,0,-1,1854,526,0,0
637,498,0,0,0,0,0,0,0,0,0,-1,1861,526,0,0
644,498,0,0,0,0,0,0,0,0,0,-1,1868,526,0,0
651,498,0,0,0,0,0,0,0,0,0,-1,1875,526,0,0
658,498,0,0,0,0,0,0,0,0,0,-1,1882,526,0,0
665,498,0,0,0,0,0,0,0,0,0,-1,1889,526,0,0
672,498,0,0,0,0,0,0,0,0,0,-1,1896,526,0,0
679,498,0,0,0,0,0,0,0,0,0,-1,1903,526,0,0
686,498,0,0,0,0,0,0,0,0,0,-1,1910,526,0,0
693,498,0,0,0,0,0,0,0,0,0,-1,1917,526,0,0
700,498,0,0,0,0,0,0,0,0,0,-1,1924,526,0,0
707,498,0,0,0,0,0,0,0,0,0,-1,1931,526,0,0
714,498,0,0,0,0,0,0,0,0,0,-1,1938,526,0,0
721,498,0,0,0,0,0,0,0,0,0,-1,1945,526,0,0
728,498,0,0,0,0,0,0,0,0,0,-1,1952,526,0,0
735,498,0,0,0,0,0,0,0,0,0,-1,1959,526,0,0
742,498,0,0,0,0,0,0,0,0,0,-1,1966,526,0,0
749,498,0,0,0,0,0,0,0,0,0,-1,1973,526,0,0
756,498,0,0,0,0,0,0,0,0,0,-1,1980,526,0,0
763,498,0,0,0,0,0,0,0,0,0,-1,1987,526,0,0
770,498,0,0,0,0,0,0,0,0,0,-1,1994,526,0,0
777,498,0,0,0,0,0,0,0,0,0,-1,2001,526,0,0
784,498,0,0,0,0,0,0,0,0,0,-1,2008,526,0,0
791,498,0,0,0,0,0,0,0,0,0,-1,2015,526,0,0
798,498,0,0,0,0,0,0,0,0,0,-1,2022,526,0,0
805,498,0,0,0,0,0,0,0,0,0,-1,2029,526,0,0
812,498,0,0,0,0,0,0,0,0,0,-1,2036,526,0,0
-700,491,0,0,0,0,0,0,0,0,0,-1,524,533,0,0
-693,491,0,0,0,0,0,0,0,0,0,-1,531,533,0,0
-686,491,0,0,0,0,0,0,0,0,0,-1,538,533,0,0
-679,491,0,0,0,0,0,0,0,0,0,-1,545,533,0,0
-672,491,0,0,0,0,0,0,0,0,0,-1,552,533,0,0
-665,491,0,0,0,0,0,0,0,0,0,-1,559,533,0,0
-658,491,0,0,0,0,0,0,0,0,0,-1,566,533,0,0
-651,491,0,0,0,0,0,0,0,0,0,-1,573,533,0,0
-644,491,0,0,0,0,0,0,0,0,0,-1,580,533,0,0
-637,491,0,0,0,0,0,0,0,0,0,-1,587,533,0,0
-630,491,0,0,0,0,0,0,0,0,0,-1,594,533,0,0
-623,491,0,0,0,0,0,0,0,0,0,-1,601,533,0,0
-616,491,0,0,0,0,0,0,0,0,0,-1,608,533,0,0
-609,491,0,0,0,0,0,0,0,0,0,-1,615,533,0,0
-602,491,0,0,0,0,0,0,0,0,0,-1,622,533,0,0
-595,491,0,0,0,0,0,0,0,0,0,-1,629,533,0,0
-588,491,0,0,0,0,0,0,0,0,0,-1,636,533,0,0
-581,491,0,0,0,0,0,0,0,0,0,-1,643,533,0,0
-574,491,0,0,0,0,0,0,0,0,0,-1,650,533,0,0
-567,491,0,0,0,0,0,0,0,0,0,-1,657,533,0,0
-560,491,0,0,0,0,0,0,0,0,0,-1,664,533,0,0
-553,491,0,0,0,0,0,0,0,0,0,-1,671,533,0,0
-546,491,0,0,0,0,0,0,0,0,0,-1,678,533,0,0
-539,491,0,0,0,0,0,0,0,0,0,-1,685,533,0,0
-532,491,0,0,0,0,0,0,0,0,0,-1,692,533,0,0
-525,491,0,0,0,0,0,0,0,0,0,-1,699,533,0,0
-518,491,0,0,0,0,0,0,0,0,0,-1,706,533,0,0
-511,491,0,0,0,0,0,0,0,0,0,-1,713,533,0,0
-504,491,0,0,0,0,0,0,0,0,0,-1,720,533,0,0
-497,491,0,0,0,0,0,0,0,0,0,-1,727,533,0,0
-490,491,0,0,0,0,0,0,0,0,0,-1,734,533,0,0
-483,491,0,0,0,0,0,0,0,0,0,-1,741,533,0,0
-476,491,0,0,0,0,0,0,0,0,0,-1,748,533,0,0
-469,491,-5.85913,4.55011,0,0,0,0,0,0,0,-1,755,533,-5.8591,-4.55009
-462,491,-9.93713,4.90381,0,0,0,0,0,0,0,-1,762,533,-9.93716,-4.9038
-455,491,1.9494,-0.27887,0,0,0,0,0,0,0,-1,769,533,1.94941,0.27885
-448,491,2.68909,-1.8999,0,0,0,0,0,0,0,-1,776,533,2.6891,1.89988
-441,491,3.46069,-3.51855,0,0,0,0,0,0,0,-1,783,533,3.46071,3.51854
-434,491,2.67145,-7.44061,0,0,0,0,0,0,0,-1,790,533,2.67146,7.44061
-427,491,2.27136,-8.34546,0,0,0,0,0,0,0,-1,797,533,2.27136,8.34546
-420,491,-1.52142,-8.1123,0,0,0,0,0,0,0,-1,804,533,-1.52142,8.11228
-413,491,-2.31647,-9.93817,0,0,0,0,0,0,0,-1,811,533,-2.31644,9.93818
-406,491,-2.23041,-10.5036,-0.00416452,0.00324206,-0.000640586,0.00329705,-0.00421952,-1.48515,0.00435058,0.0261318,818,533,-2.23043,10.5036
-399,491,-2.20453,-10.9513,-0.00322478,0.00252937,-0.000701594,0.00261368,-0.00330908,-1.4512,0.00342736,0.0112004,825,533,-2.20454,10.9513
-392,491,-2.25317,-11.376,-0.0023715,0.00179679,-0.000687504,0.00190726,-0.00248196,-1.41148,0.00254135,0.0105232,832,533,-2.25314,11.3761
-385,491,-2.27295,-11.7697,-0.00146477,0.00131163,-0.000677415,0.0014681,-0.00162123,-1.3438,0.00178435,0.00975936,839,533,-2.27298,11.7697
-378,491,-2.284,-12.1724,-0.000635533,0.000933982,-0.000706235,0.00120498,-0.000906527,-1.20441,0.00122313,0.013589,846,533,-2.28399,12.1724
-371,491,-2.28394,-12.5946,3.96299e-05,0.000502333,-0.000687209,0.000996088,-0.000454125,-0.947766,0.000856549,0.0148641,853,533,-2.28395,12.5946
-364,491,-2.28406,-13.0001,0.000615039,8.46008e-05,-0.000589016,0.000995793,-0.000296153,-0.573857,0.000781513,0.0137645,860,533,-2.28403,13.0001
-357,491,-2.29541,-13.3859,0.00114372,-0.000155537,-0.000500566,0.00131421,-0.00032602,-0.328259,0.00100264,0.0119835,867,533,-2.2954,13.3858
-350,491,-2.30353,-13.7625,0.00160295,-0.000352599,-0.000431566,0.00169396,-0.000443605,-0.20783,0.0013026,0.0145246,874,533,-2.30354,13.7625
-343,491,-2.26404,-14.1143,0.00192134,-0.000550054,-0.00032555,0.0019635,-0.000592218,-0.128801,0.00154472,0.0230279,881,533,-2.26405,14.1143
-336,491,-2.25427,-14.5104,0.00213504,-0.000755949,-0.000149726,0.00214277,-0.000763683,-0.0516066,0.00173987,0.0226243,888,533,-2.25425,14.5104
-329,491,-2.27777,-14.9218,0.00234085,-0.000804738,-7.5393e-06,0.00234087,-0.000804757,-0.00239677,0.00188693,0.0235418,895,533,-2.27779,14.9218
-322,491,-2.31171,-15.3155,0.00246615,-0.000811905,0.000129459,0.00247125,-0.00081701,0.0394108,0.00197694,0.0235981,902,533,-2.31171,15.3155
-315,491,-2.36157,-15.6828,0.00266349,-0.00101204,0.000307045,0.00268896,-0.00103751,0.0827731,0.00222079,0.0230809,909,533,-2.36158,15.6828
-308,491,-2.33356,-16.1884,0,0,0,0,0,0,0,-1,916,533,-2.33357,16.1884
-301,491,-2.24158,-16.5527,0,0,0,0,0,0,0,-1,923,533,-2.2416,16.5527
-294,491,-0.777283,-8.60913,0,0,0,0,0,0,0,-1,930,533,-0.777288,8.6091
-287,491,-0.26123,-8.69055,0,0,0,0,0,0,0,-1,937,533,-0.261204,8.69053
-280,491,0.2948,-5.99219,0,0,0,0,0,0,0,-1,944,533,0.294811,5.99221
-273,491,0.369995,-5.33691,0,0,0,0,0,0,0,-1,951,533,0.369985,5.33693
-266,491,1.1167,-5.0321,0,0,0,0,0,0,0,-1,958,533,1.11668,5.0321
-259,491,12.0862,-16.9615,0,0,0,0,0,0,0,-1,965,533,12.0862,16.9615
-252,491,9.72443,-13.8417,0,0,0,0,0,0,0,-1,972,533,9.72444,13.8418
-245,491,5.27258,-14.3619,0,0,0,0,0,0,0,-1,979,533,5.27255,14.3619
-238,491,3.65381,-11.1472,0,0,0,0,0,0,0,-1,986,533,3.6538,11.1472
-231,491,2.17719,-7.86835,0,0,0,0,0,0,0,-1,993,533,2.17719,7.86832
-224,491,0.554626,-4.61725,0,0,0,0,0,0,0,-1,1000,533,0.554608,4.61727
-217,491,-2.92743,-1.0766,0,0,0,0,0,0,0,-1,1007,533,-2.92743,1.07659
-210,491,-0.92395,0.374512,0,0,0,0,0,0,0,-1,1014,533,-0.923959,-0.374531
-203,491,0.417419,4.77161,0,0,0,0,0,0,0,-1,1021,533,0.417446,-4.77162
-196,491,0,0,0,0,0,0,0,0,0,-1,1028,533,0,0
-189,491,0,0,0,0,0,0,0,0,0,-1,1035,533,0,0
-182,491,0,0,0,0,0,0,0,0,0,-1,1042,533,0,0
-175,491,0,0,0,0,0,0,0,0,0,-1,1049,533,0,0
-168,491,0,0,0,0,0,0,0,0,0,-1,1056,533,0,0
-161,491,0,0,0,0,0,0,0,0,0,-1,1063,533,0,0
-154,491,0,0,0,0,0,0,0,0,0,-1,1070,533,0,0
-147,491,0,0,0,0,0,0,0,0,0,-1,1077,533,0,0
-140,491,0,0,0,0,0,0,0,0,0,-1,1084,533,0,0
-133,491,0,0,0,0,0,0,0,0,0,-1,1091,533,0,0
-126,491,0,0,0,0,0,0,0,0,0,-1,1098,533,0,0
-119,491,0,0,0,0,0,0,0,0,0,-1,1105,533,0,0
-112,491,0,0,0,0,0,0,0,0,0,-1,1112,533,0,0
-105,491,0,0,0,0,0,0,0,0,0,-1,1119,533,0,0
-98,491,0,0,0,0,0,0,0,0,0,-1,1126,533,0,0
-91,491,0,0,0,0,0,0,0,0,0,-1,1133,533,0,0
-84,491,0,0,0,0,0,0,0,0,0,-1,1140,533,0,0
-77,491,0,0,0,0,0,0,0,0,0,-1,1147,533,0,0
-70,491,0,0,0,0,0,0,0,0,0,-1,1154,533,0,0
-63,491,0,0,0,0,0,0,0,0,0,-1,1161,533,0,0
-56,491,0,0,0,0,0,0,0,0,0,-1,1168,533,0,0
-49,491,0,0,0,0,0,0,0,0,0,-1,1175,533,0,0
-42,491,0,0,0,0,0,0,0,0,0,-1,1182,533,0,0
-35,491,0,0,0,0,0,0,0,0,0,-1,1189,533,0,0
-28,491,0,0,0,0,0,0,0,0,0,-1,1196,533,0,0
-21,491,0,0,0,0,0,0,0,0,0,-1,1203,533,0,0
-14,491,0,0,0,0,0,0,0,0,0,-1,1210,533,0,0
-7,491,0,0,0,0,0,0,0,0,0,-1,1217,533,0,0
0,491,0,0,0,0,0,0,0,0,0,-1,1224,533,0,0
7,491,0,0,0,0,0,0,0,0,0,-1,1231,533,0,0
14,491,0,0,0,0,0,0,0,0,0,-1,1238,533,0,0
21,491,0,0,0,0,0,0,0,0,0,-1,1245,533,0,0
28,491,0,0,0,0,0,0,0,0,0,-1,1252,533,0,0
35,491,0,0,0,0,0,0,0,0,0,-1,1259,533,0,0
42,491,0,0,0,0,0,0,0,0,0,-1,1266,533,0,0
49,491,0,0,0,0,0,0,0,0,0,-1,1273,533,0,0
56,491,0,0,0,0,0,0,0,0,0,-1,1280,533,0,0
63,491,0,0,0,0,0,0,0,0,0,-1,1287,533,0,0
70,491,0,0,0,0,0,0,0,0,0,-1,1294,533,0,0
77,491,0,0,0,0,0,0,0,0,0,-1,1301,533,0,0
84,491,0,0,0,0,0,0,0,0,0,-1,1308,533,0,0
91,491,0,0,0,0,0,0,0,0,0,-1,1315,533,0,0
98,491,0,0,0,0,0,0,0,0,0,-1,1322,533,0,0
105,491,0,0,0,0,0,0,0,0,0,-1,1329,533,0,0
112,491,0,0,0,0,0,0,0,0,0,-1,1336,533,0,0
119,491,0,0,0,0,0,0,0,0,0,-1,1343,533,0,0
126,491,0,0,0,0,0,0,0,0,0,-1,1350,533,0,0
133,491,0,0,0,0,0,0,0,0,0,-1,1357,533,0,0
140,491,0,0,0,0,0,0,0,0,0,-1,1364,533,0,0
147,491,0,0,0,0,0,0,0,0,0,-1,1371,533,0,0
154,491,0,0,0,0,0,0,0,0,0,-1,1378,533,0,0
161,491,0,0,0,0,0,0,0,0,0,-1,1385,533,0,0
168,491,0,0,0,0,0,0,0,0,0,-1,1392,533,0,0
175,491,0,0,0,0,0,0,0,0,0,-1,1399,533,0,0
182,491,0,0,0,0,0,0,0,0,0,-1,1406,533,0,0
189,491,0,0,0,0,0,0,0,0,0,-1,1413,533,0,0
196,491,0,0,0,0,0,0,0,0,0,-1,1420,533,0,0
203,491,0,0,0,0,0,0,0,0,0,-1,1427,533,0,0
210,491,0,0,0,0,0,0,0,0,0,-1,1434,533,0,0
217,491,0,0,0,0,0,0,0,0,0,-1,1441,533,0,0
224,491,0,0,0,0,0,0,0,0,0,-1,1448,533,0,0
231,491,0,0,0,0,0,0,0,0,0,-1,1455,533,0,0
238,491,0,0,0,0,0,0,0,0,0,-1,1462,533,0,0
245,491,0,0,0,0,0,0,0,0,0,-1,1469,533,0,0
252,491,0,0,0,0,0,0,0,0,0,-1,1476,533,0,0
259,491,0,0,0,0,0,0,0,0,0,-1,1483,533,0,0
266,491,0,0,0,0,0,0,0,0,0,-1,1490,533,0,0
273,491,0,0,0,0,0,0,0,0,0,-1,1497,533,0,0
280,491,0,0,0,0,0,0,0,0,0,-1,1504,533,0,0
287,491,0,0,0,0,0,0,0,0,0,-1,1511,533,0,0
294,491,0,0,0,0,0,0,0,0,0,-1,1518,533,0,0
301,491,0,0,0,0,0,0,0,0,0,-1,1525,533,0,0
308,491,0,0,0,0,0,0,0,0,0,-1,1532,533,0,0
315,491,0,0,0,0,0,0,0,0,0,-1,1539,533,0,0
322,491,4.26331,-0.734314,0,0,0,0,0,0,0,-1,1546,533,4.26326,0.734324
329,491,4.25354,-0.783752,0,0,0,0,0,0,0,-1,1553,533,4.25359,0.783734
336,491,4.81604,-0.722107,0,0,0,0,0,0,0,-1,1560,533,4.81605,0.722115
343,491,6.14478,-1.44281,0,0,0,0,0,0,0,-1,1567,533,6.14474,1.44281
350,491,6.36353,-1.30792,0,0,0,0,0,0,0,-1,1574,533,6.36352,1.3079
357,491,6.69482,-1.06018,0,0,0,0,0,0,0,-1,1581,533,6.69489,1.06018
364,491,8.01086,-1.69604,0,0,0,0,0,0,0,-1,1588,533,8.01087,1.69607
371,491,8.2135,-0.539307,0,0,0,0,0,0,0,-1,1595,533,8.21348,0.53929
378,491,13.3589,2.17267,0,0,0,0,0,0,0,-1,1602,533,13.3589,-2.17264
385,491,8.08228,-4.95471,0,0,0,0,0,0,0,-1,1609,533,8.08227,4.95474
392,491,2.88721,-4.30988,0,0,0,0,0,0,0,-1,1616,533,2.88716,4.30986
399,491,8.95862,-8.55518,0,0,0,0,0,0,0,-1,1623,533,8.95864,8.55516
406,491,8.16541,-9.00806,0,0,0,0,0,0,0,-1,1630,533,8.16535,9.00807
413,491,5.31848,-3.7124,0,0,0,0,0,0,0,-1,1637,533,5.31849,3.7124
420,491,4.86389,-3.95892,0,0,0,0,0,0,0,-1,1644,533,4.86387,3.95893
427,491,11.1353,-14.6149,0,0,0,0,0,0,0,-1,1651,533,11.1352,14.6149
434,491,10.455,-14.1833,-0.00976463,-0.0112288,-0.0117755,0.00130154,-0.022295,-0.754353,0.0153156,0.0489613,1658,533,10.455,14.1833
441,491,10.3174,-14.2943,-0.00697603,-0.00816301,-0.00886587,0.00131619,-0.0164552,-0.751978,0.0114342,0.0303066,1665,533,10.3174,14.2943
448,491,10.249,-14.0338,-0.0045955,-0.00564992,-0.00641912,0.00131802,-0.0115634,-0.744424,0.00818376,0.0173802,1672,533,10.2491,14.0338
455,491,10.2443,-13.6094,-0.00271288,-0.00354472,-0.00444562,0.00133624,-0.00759384,-0.738755,0.00556174,0.0126694,1679,533,10.2442,13.6094
462,491,10.2501,-13.2241,-0.00133372,-0.00195465,-0.00287712,0.00124964,-0.004538,-0.731652,0.00351668,0.0157527,1686,533,10.2501,13.2241
469,491,10.2419,-12.8155,-0.000270732,-0.000864855,-0.00165396,0.00111263,-0.00224822,-0.696542,0.00197696,0.015195,1693,533,10.2419,12.8155
476,491,10.2406,-12.4133,0.000339366,-0.000227462,-0.000783566,0.000889198,-0.000777295,-0.611869,0.000962873,0.0102153,1700,533,10.2406,12.4133
483,491,10.2288,-11.9999,0.000778256,0.000166564,-5.74437e-05,0.000783603,0.000161216,-0.0928282,0.000477817,0.0115074,1707,533,10.2288,12
490,491,10.2225,-11.5866,0.000630075,0.000434144,0.000300986,0.000848637,0.000215581,0.628064,0.000509339,0.0106443,1714,533,10.2225,11.5866
497,491,10.2145,-11.1519,-2.05114e-05,-3.19518e-05,0.000271304,0.000245133,-0.000297596,0.774858,0.000313832,0.0117184,1721,533,10.2145,11.1519
504,491,10.2042,-10.7116,-0.000919672,-0.000659128,2.38105e-05,-0.00065697,-0.00092183,1.48041,0.000548033,0.0128601,1728,533,10.2042,10.7116
511,491,10.1996,-10.2742,-0.00207743,-0.00134904,-0.00032989,-0.00122185,-0.00220462,-1.20279,0.00127533,0.0121653,1735,533,10.1996,10.2742
518,491,10.1826,-9.84491,-0.00349256,-0.00202601,-0.000810086,-0.00166661,-0.00385196,-1.15323,0.00223064,0.0100032,1742,533,10.1826,9.84494
525,491,10.1877,-9.396,-0.00502635,-0.00283769,-0.00141833,-0.00214059,-0.00572344,-1.11398,0.00333922,0.00961365,1749,533,10.1877,9.39597
532,491,10.1858,-8.98187,-0.00666354,-0.00358285,-0.00206897,-0.0025438,-0.00770259,-1.10538,0.00453171,0.0213108,1756,533,10.1858,8.98185
539,491,10.0353,-8.6424,-0.00831394,-0.00411698,-0.00266262,-0.0028253,-0.00960562,-1.11913,0.00570035,0.0372526,1763,533,10.0353,8.64242
546,491,9.75867,-8.10059,0,0,0,0,0,0,0,-1,1770,533,9.75867,8.10059
553,491,9.729,-6.63263,0,0,0,0,0,0,0,-1,1777,533,9.72902,6.63261
560,491,6.28455,-1.43585,0,0,0,0,0,0,0,-1,1784,533,6.28458,1.43586
567,491,5.67651,-1.3562,0,0,0,0,0,0,0,-1,1791,533,5.67649,1.3562
574,491,8.0719,1.58325,0,0,0,0,0,0,0,-1,1798,533,8.07195,-1.58326
581,491,9.44812,1.60931,0,0,0,0,0,0,0,-1,1805,533,9.44808,-1.60933
588,491,11.0497,1.54962,0,0,0,0,0,0,0,-1,1812,533,11.0496,-1.54963
595,491,0,0,0,0,0,0,0,0,0,-1,1819,533,0,0
602,491,0,0,0,0,0,0,0,0,0,-1,1826,533,0,0
609,491,0,0,0,0,0,0,0,0,0,-1,1833,533,0,0
616,491,0,0,0,0,0,0,0,0,0,-1,1840,533,0,0
623,491,0,0,0,0,0,0,0,0,0,-1,1847,533,0,0
630,491,0,0,0,0,0,0,0,0,0,-1,1854,533,0,0
637,491,0,0,0,0,0,0,0,0,0,-1,1861,533,0,0
644,491,0,0,0,0,0,0,0,0,0,-1,1868,533,0,0
651,491,0,0,0,0,0,0,0,0,0,-1,1875,533,0,0
658,491,0,0,0,0,0,0,0,0,0,-1,1882,533,0,0
665,491,0,0,0,0,0,0,0,0,0,-1,1889,533,0,0
672,491,0,0,0,0,0,0,0,0,0,-1,1896,533,0,0
679,491,0,0,0,0,0,0,0,0,0,-1,1903,533,0,0
686,491,0,0,0,0,0,0,0,0,0,-1,1910,533,0,0
693,491,0,0,0,0,0,0,0,0,0,-1,1917,533,0,0
700,491,0,0,0,0,0,0,0,0,0,-1,1924,533,0,0
707,491,0,0,0,0,0,0,0,0,0,-1,1931,533,0,0
714,491,0,0,0,0,0,0,0,0,0,-1,1938,533,0,0
721,491,0,0,0,0,0,0,0,0,0,-1,1945,533,0,0
728,491,0,0,0,0,0,0,0,0,0,-1,1952,533,0,0
735,491,0,0,0,0,0,0,0,0,0,-1,1959,533,0,0
742,491,0,0,0,0,0,0,0,0,0,-1,1966,533,0,0
749,491,0,0,0,0,0,0,0,0,0,-1,1973,533,0,0
756,491,0,0,0,0,0,0,0,0,0,-1,1980,533,0,0
763,491,0,0,0,0,0,0,0,0,0,-1,1987,533,0,0
770,491,0,0,0,0,0,0,0,0,0,-1,1994,533,0,0
777,491,0,0,0,0,0,0,0,0,0,-1,2001,533,0,0
784,491,0,0,0,0,0,0,0,0,0,-1,2008,533,0,0
791,491,0,0,0,0,0,0,0,0,0,-1,2015,533,0,0
798,491,0,0,0,0,0,0,0,0,0,-1,2022,533,0,0
805,491,0,0,0,0,0,0,0,0,0,-1,2029,533,0,0
812,491,0,0,0,0,0,0,0,0,0,-1,2036,533,0,0
-700,484,0,0,0,0,0,0,0,0,0,-1,524,540,0,0
-693,484,0,0,0,0,0,0,0,0,0,-1,531,540,0,0
-686,484,0,0,0,0,0,0,0,0,0,-1,538,540,0,0
-679,484,0,0,0,0,0,0,0,0,0,-1,545,540,0,0
-672,484,0,0,0,0,0,0,0,0,0,-1,552,540,0,0
-665,484,0,0,0,0,0,0,0,0,0,-1,559,540,0,0
-658,484,0,0,0,0,0,0,0,0,0,-1,566,540,0,0
-651,484,0,0,0,0,0,0,0,0,0,-1,573,540,0,0
-644,484,0,0,0,0,0,0,0,0,0,-1,580,540,0,0
-637,484,0,0,0,0,0,0,0,0,0,-1,587,540,0,0
-630,484,0,0,0,0,0,0,0,0,0,-1,594,540,0,0
-623,484,0,0,0,0,0,0,0,0,0,-1,601,540,0,0
-616,484,0,0,0,0,0,0,0,0,0,-1,608,540,0,0
-609,484,0,0,0,0,0,0,0,0,0,-1,615,540,0,0
-602,484,0,0,0,0,0,0,0,0,0,-1,622,540,0,0
-595,484,0,0,0,0,0,0,0,0,0,-1,629,540,0,0
-588,484,0,0,0,0,0,0,0,0,0,-1,636,540,0,0
-581,484,0,0,0,0,0,0,0,0,0,-1,643,540,0,0
-574,484,0,0,0,0,0,0,0,0,0,-1,650,540,0,0
-567,484,0,0,0,0,0,0,0,0,0,-1,657,540,0,0
-560,484,0,0,0,0,0,0,0,0,0,-1,664,540,0,0
-553,484,0,0,0,0,0,0,0,0,0,-1,671,540,0,0
-546,484,0,0,0,0,0,0,0,0,0,-1,678,540,0,0
-539,484,0,0,0,0,0,0,0,0,0,-1,685,540,0,0
-532,484,0,0,0,0,0,0,0,0,0,-1,692,540,0,0
-525,484,0,0,0,0,0,0,0,0,0,-1,699,540,0,0
-518,484,0,0,0,0,0,0,0,0,0,-1,706,540,0,0
-511,484,0,0,0,0,0,0,0,0,0,-1,713,540,0,0
-504,484,0,0,0,0,0,0,0,0,0,-1,720,540,0,0
-497,484,0,0,0,0,0,0,0,0,0,-1,727,540,0,0
-490,484,0,0,0,0,0,0,0,0,0,-1,734,540,0,0
-483,484,0,0,0,0,0,0,0,0,0,-1,741,540,0,0
-476,484,-8.46552,1.44702,0,0,0,0,0,0,0,-1,748,540,-8.46554,-1.44702
-469,484,-7.82343,1.70355,0,0,0,0,0,0,0,-1,755,540,-7.82345,-1.70355
-462,484,-8.36987,3.08612,0,0,0,0,0,0,0,-1,762,540,-8.36988,-3.0861
-455,484,-6.77197,2.07092,0,0,0,0,0,0,0,-1,769,540,-6.77197,-2.07094
-448,484,3.54895,-1.40106,0,0,0,0,0,0,0,-1,776,540,3.54897,1.40106
-441,484,4.28906,-3.05884,0,0,0,0,0,0,0,-1,783,540,4.28905,3.05883
-434,484,-2.17548,-5.07245,0,0,0,0,0,0,0,-1,790,540,-2.17546,5.07243
-427,484,-2.52515,-8.8913,0,0,0,0,0,0,0,-1,797,540,-2.52513,8.89132
-420,484,-2.53937,-9.12372,0,0,0,0,0,0,0,-1,804,540,-2.53936,9.12374
-413,484,-2.5592,-10.0081,-0.00434335,0.00387897,-0.00075236,0.00394725,-0.00441163,-1.4803,0.00482848,0.0302349,811,540,-2.55921,10.0081
-406,484,-2.5766,-10.5067,-0.00320363,0.00299298,-0.000718974,0.0030753,-0.00328596,-1.45679,0.00367335,0.0160303,818,540,-2.57663,10.5067
-399,484,-2.61389,-10.9492,-0.00236296,0.00226489,-0.000652102,0.00235502,-0.00245309,-1.43345,0.00277616,0.0156089,825,540,-2.61387,10.9491
-392,484,-2.65295,-11.3706,-0.00159044,0.00150078,-0.000558301,0.00159852,-0.00168819,-1.39748,0.00189782,0.0181264,832,540,-2.65298,11.3706
-385,484,-2.67743,-11.7776,-0.000752948,0.0010291,-0.000506961,0.00116322,-0.000887075,-1.31215,0.00118731,0.0126837,839,540,-2.67745,11.7777
-378,484,-2.67725,-12.1767,1.22638e-05,0.000651283,-0.000497123,0.00092272,-0.000259173,-1.07102,0.000717318,0.0134397,846,540,-2.67727,12.1767
-371,484,-2.6853,-12.5765,0.000645517,0.00023621,-0.000455721,0.000940427,-5.8701e-05,-0.574355,0.000647406,0.014462,853,540,-2.6853,12.5766
-364,484,-2.69739,-12.9677,0.00120916,-0.000147435,-0.000365113,0.00130119,-0.000239458,-0.246899,0.000957313,0.010691,860,540,-2.6974,12.9676
-357,484,-2.70605,-13.3586,0.00176118,-0.000350925,-0.000315946,0.00180743,-0.000397174,-0.14535,0.00135686,0.0119698,867,540,-2.70607,13.3586
-350,484,-2.71185,-13.7147,0.00226718,-0.000503367,-0.000316318,0.00230284,-0.000539022,-0.112247,0.00174291,0.0139753,874,540,-2.71186,13.7146
-343,484,-2.66693,-14.1042,0.00261986,-0.000662194,-0.000283994,0.00264425,-0.000686586,-0.0856809,0.00203076,0.0216049,881,540,-2.6669,14.1042
-336,484,-2.67712,-14.5277,0.00285439,-0.000761562,-0.000212282,0.00286681,-0.000773982,-0.0584394,0.00221475,0.0245629,888,540,-2.67713,14.5277
-329,484,-2.65698,-14.8777,0.00306558,-0.000647497,-0.000179248,0.00307422,-0.00065613,-0.0481257,0.0022996,0.033625,895,540,-2.65699,14.8777
-322,484,-2.65131,-15.3035,0,0,0,0,0,0,0,-1,902,540,-2.65128,15.3035
-315,484,-2.54663,-15.7885,0,0,0,0,0,0,0,-1,909,540,-2.54665,15.7885
-308,484,-1.32623,-8.9317,0,0,0,0,0,0,0,-1,916,540,-1.32626,8.93173
-301,484,-1.33453,-6.52667,0,0,0,0,0,0,0,-1,923,540,-1.33454,6.5267
-294,484,-1.61224,-8.17059,0,0,0,0,0,0,0,-1,930,540,-1.61227,8.17058
-287,484,-0.715759,-5.62103,0,0,0,0,0,0,0,-1,937,540,-0.715772,5.62105
-280,484,2.66742,-1.6795,0,0,0,0,0,0,0,-1,944,540,2.6674,1.67949
-273,484,2.53125,-2.22296,0,0,0,0,0,0,0,-1,951,540,2.53128,2.22295
-266,484,2.6778,-2.72058,0,0,0,0,0,0,0,-1,958,540,2.6778,2.72061
-259,484,2.41718,-2.59894,0,0,0,0,0,0,0,-1,965,540,2.41717,2.59892
-252,484,10.6069,-11.696,0,0,0,0,0,0,0,-1,972,540,10.6069,11.696
-245,484,6.34106,-11.6107,0,0,0,0,0,0,0,-1,979,540,6.34104,11.6107
-238,484,4.89319,-8.54059,0,0,0,0,0,0,0,-1,986,540,4.89321,8.5406
-231,484,3.47675,-5.22064,0,0,0,0,0,0,0,-1,993,540,3.47676,5.22067
-224,484,1.71344,-2.03473,0,0,0,0,0,0,0,-1,1000,540,1.71342,2.03472
-217,484,-0.745056,1.17358,0,0,0,0,0,0,0,-1,1007,540,-0.745043,-1.17359
-210,484,0,0,0,0,0,0,0,0,0,-1,1014,540,0,0
-203,484,0,0,0,0,0,0,0,0,0,-1,1021,540,0,0
-196,484,0,0,0,0,0,0,0,0,0,-1,1028,540,0,0
-189,484,0,0,0,0,0,0,0,0,0,-1,1035,540,0,0
-182,484,0,0,0,0,0,0,0,0,0,-1,1042,540,0,0
-175,484,0,0,0,0,0,0,0,0,0,-1,1049,540,0,0
-168,484,0,0,0,0,0,0,0,0,0,-1,1056,540,0,0
-161,484,0,0,0,0,0,0,0,0,0,-1,1063,540,0,0
-154,484,0,0,0,0,0,0,0,0,0,-1,1070,540,0,0
-147,484,0,0,0,0,0,0,0,0,0,-1,1077,540,0,0
-140,484,0,0,0,0,0,0,0,0,0,-1,1084,540,0,0
-133,484,0,0,0,0,0,0,0,0,0,-1,1091,540,0,0
-126,484,0,0,0,0,0,0,0,0,0,-1,1098,540,0,0
-119,484,0,0,0,0,0,0,0,0,0,-1,1105,540,0,0
-112,484,0,0,0,0,0,0,0,0,0,-1,1112,540,0,0
-105,484,0,0,0,0,0,0,0,0,0,-1,1119,540,0,0
-98,484,0,0,0,0,0,0,0,0,0,-1,1126,540,0,0
-91,484,0,0,0,0,0,0,0,0,0,-1,1133,540,0,0
-84,484,0,0,0,0,0,0,0,0,0,-1,1140,540,0,0
-77,484,0,0,0,0,0,0,0,0,0,-1,1147,540,0,0
-70,484,0,0,0,0,0,0,0,0,0,-1,1154,540,0,0
-63,484,0,0,0,0,0,0,0,0,0,-1,1161,540,0,0
-56,484,0,0,0,0,0,0,0,0,0,-1,1168,540,0,0
-49,484,0,0,0,0,0,0,0,0,0,-1,1175,540,0,0
-42,484,0,0,0,0,0,0,0,0,0,-1,1182,540,0,0
-35,484,0,0,0,0,0,0,0,0,0,-1,1189,540,0,0
-28,484,0,0,0,0,0,0,0,0,0,-1,1196,540,0,0
-21,484,0,0,0,0,0,0,0,0,0,-1,1203,540,0,0
-14,484,0,0,0,0,0,0,0,0,0,-1,1210,540,0,0
-7,484,0,0,0,0,0,0,0,0,0,-1,1217,540,0,0
0,484,0,0,0,0,0,0,0,0,0,-1,1224,540,0,0
7,484,0,0,0,0,0,0,0,0,0,-1,1231,540,0,0
14,484,0,0,0,0,0,0,0,0,0,-1,1238,540,0,0
21,484,0,0,0,0,0,0,0,0,0,-1,1245,540,0,0
28,484,0,0,0,0,0,0,0,0,0,-1,1252,540,0,0
35,484,0,0,0,0,0,0,0,0,0,-1,1259,540,0,0
42,484,0,0,0,0,0,0,0,0,0,-1,1266,540,0,0
49,484,0,0,0,0,0,0,0,0,0,-1,1273,540,0,0
56,484,0,0,0,0,0,0,0,0,0,-1,1280,540,0,0
63,484,0,0,0,0,0,0,0,0,0,-1,1287,540,0,0
70,484,0,0,0,0,0,0,0,0,0,-1,1294,540,0,0
77,484,0,0,0,0,0,0,0,0,0,-1,1301,540,0,0
84,484,0,0,0,0,0,0,0,0,0,-1,1308,540,0,0
91,484,0,0,0,0,0,0,0,0,0,-1,1315,540,0,0
98,484,0,0,0,0,0,0,0,0,0,-1,1322,540,0,0
105,484,0,0,0,0,0,0,0,0,0,-1,1329,540,0,0
112,484,0,0,0,0,0,0,0,0,0,-1,1336,540,0,0
119,484,0,0,0,0,0,0,0,0,0,-1,1343,540,0,0
126,484,0,0,0,0,0,0,0,0,0,-1,1350,540,0,0
133,484,0,0,0,0,0,0,0,0,0,-1,1357,540,0,0
140,484,0,0,0,0,0,0,0,0,0,-1,1364,540,0,0
147,484,0,0,0,0,0,0,0,0,0,-1,1371,540,0,0
154,484,0,0,0,0,0,0,0,0,0,-1,1378,540,0,0
161,484,0,0,0,0,0,0,0,0,0,-1,1385,540,0,0
168,484,0,0,0,0,0,0,0,0,0,-1,1392,540,0,0
175,484,0,0,0,0,0,0,0,0,0,-1,1399,540,0,0
182,484,0,0,0,0,0,0,0,0,0,-1,1406,540,0,0
189,484,0,0,0,0,0,0,0,0,0,-1,1413,540,0,0
196,484,0,0,0,0,0,0,0,0,0,-1,1420,540,0,0
203,484,0,0,0,0,0,0,0,0,0,-1,1427,540,0,0
210,484,0,0,0,0,0,0,0,0,0,-1,1434,540,0,0
217,484,0,0,0,0,0,0,0,0,0,-1,1441,540,0,0
224,484,0,0,0,0,0,0,0,0,0,-1,1448,540,0,0
231,484,0,0,0,0,0,0,0,0,0,-1,1455,540,0,0
238,484,0,0,0,0,0,0,0,0,0,-1,1462,540,0,0
245,484,0,0,0,0,0,0,0,0,0,-1,1469,540,0,0
252,484,0,0,0,0,0,0,0,0,0,-1,1476,540,0,0
259,484,0,0,0,0,0,0,0,0,0,-1,1483,540,0,0
266,484,0,0,0,0,0,0,0,0,0,-1,1490,540,0,0
273,484,0,0,0,0,0,0,0,0,0,-1,1497,540,0,0
280,484,0,0,0,0,0,0,0,0,0,-1,1504,540,0,0
287,484,0,0,0,0,0,0,0,0,0,-1,1511,540,0,0
294,484,0,0,0,0,0,0,0,0,0,-1,1518,540,0,0
301,484,0,0,0,0,0,0,0,0,0,-1,1525,540,0,0
308,484,0,0,0,0,0,0,0,0,0,-1,1532,540,0,0
315,484,0,0,0,0,0,0,0,0,0,-1,1539,540,0,0
322,484,0,0,0,0,0,0,0,0,0,-1,1546,540,0,0
329,484,0,0,0,0,0,0,0,0,0,-1,1553,540,0,0
336,484,4.38708,-1.64136,0,0,0,0,0,0,0,-1,1560,540,4.38704,1.64138
343,484,7.57996,-1.05457,0,0,0,0,0,0,0,-1,1567,540,7.57995,1.05454
350,484,8.10425,-1.18878,0,0,0,0,0,0,0,-1,1574,540,8.1043,1.18877
357,484,7.74902,-3.80286,0,0,0,0,0,0,0,-1,1581,540,7.74901,3.80287
364,484,6.31262,-3.87213,0,0,0,0,0,0,0,-1,1588,540,6.31263,3.87215
371,484,7.21008,0.973511,0,0,0,0,0,0,0,-1,1595,540,7.21014,-0.973541
378,484,11.0563,1.5014,0,0,0,0,0,0,0,-1,1602,540,11.0563,-1.5014
385,484,14.3469,2.5545,0,0,0,0,0,0,0,-1,1609,540,14.3469,-2.55453
392,484,7.39453,-4.95026,0,0,0,0,0,0,0,-1,1616,540,7.39448,4.95023
399,484,7.14417,-2.5639,0,0,0,0,0,0,0,-1,1623,540,7.14417,2.56391
406,484,7.88953,-2.47321,0,0,0,0,0,0,0,-1,1630,540,7.88954,2.47323
413,484,4.4895,-1.08673,0,0,0,0,0,0,0,-1,1637,540,4.48952,1.08674
420,484,4.50012,-2.11255,0,0,0,0,0,0,0,-1,1644,540,4.50012,2.11256
427,484,5.28601,-3.54053,0,0,0,0,0,0,0,-1,1651,540,5.28599,3.54051
434,484,11.0587,-13.606,0,0,0,0,0,0,0,-1,1658,540,11.0587,13.606
441,484,10.7328,-14.0798,0,0,0,0,0,0,0,-1,1665,540,10.7328,14.0798
448,484,10.8005,-14.1653,0,0,0,0,0,0,0,-1,1672,540,10.8006,14.1653
455,484,10.6667,-13.668,-0.00328103,-0.00428207,-0.00543143,0.0016729,-0.009236,-0.739452,0.00678407,0.0305494,1679,540,10.6667,13.668
462,484,10.6785,-13.2086,-0.00150057,-0.00214262,-0.00342127,0.0016147,-0.00525789,-0.738619,0.00414957,0.0163266,1686,540,10.6785,13.2086
469,484,10.6892,-12.7948,-0.000148504,-0.000706078,-0.00193525,0.00152794,-0.00238252,-0.713862,0.0022756,0.0168897,1693,540,10.6892,12.7948
476,484,10.6703,-12.3698,0.000762577,0.000159101,-0.000831897,0.00134577,-0.000424089,-0.611422,0.00106701,0.0148113,1700,540,10.6703,12.3698
483,484,10.6603,-11.9667,0.00141102,0.000683552,6.7447e-05,0.00141722,0.000677352,0.0916738,0.000818497,0.0121884,1707,540,10.6603,11.9667
490,484,10.6465,-11.5557,0.00139762,0.00115319,0.000544014,0.00183298,0.000717831,0.674905,0.00106653,0.0125847,1714,540,10.6464,11.5557
497,484,10.6396,-11.1316,0.000819598,0.000740259,0.000554595,0.00133594,0.000223916,0.749694,0.000826166,0.0133176,1721,540,10.6396,11.1316
504,484,10.6348,-10.6995,-8.62021e-07,0.00014804,0.000321892,0.000403978,-0.000256801,0.899046,0.000384642,0.0147324,1728,540,10.6348,10.6994
511,484,10.6517,-10.2663,-0.00103753,-0.000484965,3.67477e-07,-0.000484964,-0.00103753,1.57013,0.000599444,0.018273,1735,540,10.6517,10.2663
518,484,10.631,-9.84808,-0.00228141,-0.00106855,-0.000424615,-0.000934668,-0.00241529,-1.26537,0.00140629,0.0161152,1742,540,10.631,9.84806
525,484,10.605,-9.41791,-0.00356665,-0.00176291,-0.000938696,-0.00136304,-0.00396652,-1.1681,0.0023271,0.0134777,1749,540,10.605,9.41792
532,484,10.6168,-8.95526,-0.00489985,-0.0023342,-0.0014634,-0.00167096,-0.0055631,-1.14527,0.00329609,0.0144936,1756,540,10.6168,8.95524
539,484,10.5624,-8.47089,-0.00620722,-0.00277941,-0.00194443,-0.00190136,-0.00708528,-1.14663,0.0042345,0.0313357,1763,540,10.5624,8.47091
546,484,10.5232,-7.89691,0,0,0,0,0,0,0,-1,1770,540,10.5232,7.89688
553,484,10.5459,-7.38678,0,0,0,0,0,0,0,-1,1777,540,10.5459,7.38677
560,484,10.0549,-5.47931,0,0,0,0,0,0,0,-1,1784,540,10.055,5.47928
567,484,7.78223,-1.38312,0,0,0,0,0,0,0,-1,1791,540,7.78224,1.38311
574,484,5.74463,1.50922,0,0,0,0,0,0,0,-1,1798,540,5.74463,-1.50924
581,484,10.34,2.9491,0,0,0,0,0,0,0,-1,1805,540,10.34,-2.94912
588,484,10.6669,2.88568,0,0,0,0,0,0,0,-1,1812,540,10.6669,-2.88567
595,484,10.7233,1.04767,0,0,0,0,0,0,0,-1,1819,540,10.7233,-1.04766
602,484,0,0,0,0,0,0,0,0,0,-1,1826,540,0,0
609,484,0,0,0,0,0,0,0,0,0,-1,1833,540,0,0
616,484,0,0,0,0,0,0,0,0,0,-1,1840,540,0,0
623,484,0,0,0,0,0,0,0,0,0,-1,1847,540,0,0
630,484,0,0,0,0,0,0,0,0,0,-1,1854,540,0,0
637,484,0,0,0,0,0,0,0,0,0,-1,1861,540,0,0
644,484,0,0,0,0,0,0,0,0,0,-1,1868,540,0,0
651,484,0,0,0,0,0,0,0,0,0,-1,1875,540,0,0
658,484,0,0,0,0,0,0,0,0,0,-1,1882,540,0,0
665,484,0,0,0,0,0,0,0,0,0,-1,1889,540,0,0
672,484,0,0,0,0,0,0,0,0,0,-1,1896,540,0,0
679,484,0,0,0,0,0,0,0,0,0,-1,1903,540,0,0
686,484,0,0,0,0,0,0,0,0,0,-1,1910,540,0,0
693,484,0,0,0,0,0,0,0,0,0,-1,1917,540,0,0
700,484,0,0,0,0,0,0,0,0,0,-1,1924,540,0,0
707,484,0,0,0,0,0,0,0,0,0,-1,1931,540,0,0
714,484,0,0,0,0,0,0,0,0,0,-1,1938,540,0,0
721,484,0,0,0,0,0,0,0,0,0,-1,1945,540,0,0
728,484,0,0,0,0,0,0,0,0,0,-1,1952,540,0,0
735,484,0,0,0,0,0,0,0,0,0,-1,1959,540,0,0
742,484,0,0,0,0,0,0,0,0,0,-1,1966,540,0,0
749,484,0,0,0,0,0,0,0,0,0,-1,1973,540,0,0
756,484,0,0,0,0,0,0,0,0,0,-1,1980,540,0,0
763,484,0,0,0,0,0,0,0,0,0,-1,1987,540,0,0
770,484,0,0,0,0,0,0,0,0,0,-1,1994,540,0,0
777,484,0,0,0,0,0,0,0,0,0,-1,2001,540,0,0
784,484,0,0,0,0,0,0,0,0,0,-1,2008,540,0,0
791,484,0,0,0,0,0,0,0,0,0,-1,2015,540,0,0
798,484,0,0,0,0,0,0,0,0,0,-1,2022,540,0,0
805,484,0,0,0,0,0,0,0,0,0,-1,2029,540,0,0
812,484,0,0,0,0,0,0,0,0,0,-1,2036,540,0,0
-700,477,0,0,0,0,0,0,0,0,0,-1,524,547,0,0
-693,477,0,0,0,0,0,0,0,0,0,-1,531,547,0,0
-686,477,0,0,0,0,0,0,0,0,0,-1,538,547,0,0
-679,477,0,0,0,0,0,0,0,0,0,-1,545,547,0,0
-672,477,0,0,0,0,0,0,0,0,0,-1,552,547,0,0
-665,477,0,0,0,0,0,0,0,0,0,-1,559,547,0,0
-658,477,0,0,0,0,0,0,0,0,0,-1,566,547,0,0
-651,477,0,0,0,0,0,0,0,0,0,-1,573,547,0,0
-644,477,0,0,0,0,0,0,0,0,0,-1,580,547,0,0
-637,477,0,0,0,0,0,0,0,0,0,-1,587,547,0,0
-630,477,0,0,0,0,0,0,0,0,0,-1,594,547,0,0
-623,477,0,0,0,0,0,0,0,0,0,-1,601,547,0,0
-616,477,0,0,0,0,0,0,0,0,0,-1,608,547,0,0
-609,477,0,0,0,0,0,0,0,0,0,-1,615,547,0,0
-602,477,0,0,0,0,0,0,0,0,0,-1,622,547,0,0
-595,477,0,0,0,0,0,0,0,0,0,-1,629,547,0,0
-588,477,0,0,0,0,0,0,0,0,0,-1,636,547,0,0
-581,477,0,0,0,0,0,0,0,0,0,-1,643,547,0,0
-574,477,0,0,0,0,0,0,0,0,0,-1,650,547,0,0
-567,477,0,0,0,0,0,0,0,0,0,-1,657,547,0,0
-560,477,0,0,0,0,0,0,0,0,0,-1,664,547,0,0
-553,477,0,0,0,0,0,0,0,0,0,-1,671,547,0,0
-546,477,0,0,0,0,0,0,0,0,0,-1,678,547,0,0
-539,477,0,0,0,0,0,0,0,0,0,-1,685,547,0,0
-532,477,0,0,0,0,0,0,0,0,0,-1,692,547,0,0
-525,477,0,0,0,0,0,0,0,0,0,-1,699,547,0,0
-518,477,0,0,0,0,0,0,0,0,0,-1,706,547,0,0
-511,477,0,0,0,0,0,0,0,0,0,-1,713,547,0,0
-504,477,0,0,0,0,0,0,0,0,0,-1,720,547,0,0
-497,477,0,0,0,0,0,0,0,0,0,-1,727,547,0,0
-490,477,0,0,0,0,0,0,0,0,0,-1,734,547,0,0
-483,477,-7.73151,-0.224182,0,0,0,0,0,0,0,-1,741,547,-7.73152,0.224176
-476,477,-6.25806,-0.310547,0,0,0,0,0,0,0,-1,748,547,-6.25804,0.310549
-469,477,-7.26617,0.525085,0,0,0,0,0,0,0,-1,755,547,-7.2662,-0.525111
-462,477,-6.65143,1.06042,0,0,0,0,0,0,0,-1,762,547,-6.65143,-1.06043
-455,477,-5.31757,0.429016,0,0,0,0,0,0,0,-1,769,547,-5.31756,-0.42902
-448,477,-4.0697,0.273376,0,0,0,0,0,0,0,-1,776,547,-4.06971,-0.273363
-441,477,-2.47504,-4.76971,0,0,0,0,0,0,0,-1,783,547,-2.47505,4.76973
-434,477,-2.74579,-8.95386,0,0,0,0,0,0,0,-1,790,547,-2.74579,8.95384
-427,477,-2.93701,-9.0863,-0.00613687,0.00614534,-0.000851957,0.00620415,-0.00619569,-1.50187,0.00715905,0.0357123,797,547,-2.93701,9.08633
-420,477,-3.00653,-9.39203,-0.00461339,0.00472399,-0.000854487,0.00480154,-0.00469094,-1.48029,0.00548061,0.0297494,804,547,-3.00654,9.39202
-413,477,-2.99463,-9.99701,-0.00342989,0.0034845,-0.000787231,0.00357299,-0.00351838,-1.45885,0.00409425,0.018719,811,547,-2.99464,9.99701
-406,477,-3.03052,-10.4827,-0.00244765,0.0026593,-0.0006977,0.00275291,-0.00254125,-1.43743,0.0030574,0.0112724,818,547,-3.03054,10.4827
-399,477,-3.05475,-10.9258,-0.00169708,0.00198461,-0.00058715,0.00207598,-0.00178845,-1.41642,0.00223318,0.0188609,825,547,-3.05474,10.9258
-392,477,-3.07727,-11.3583,-0.000994502,0.00125758,-0.000469406,0.0013515,-0.00108842,-1.37332,0.00141142,0.0187383,832,547,-3.07729,11.3583
-385,477,-3.06555,-11.7541,-0.000217154,0.000834654,-0.000409194,0.000975094,-0.000357594,-1.24018,0.000796484,0.015003,839,547,-3.06553,11.7541
-378,477,-3.07977,-12.1556,0.000500295,0.000476675,-0.00037889,0.000867559,0.00010941,-0.769818,0.000545572,0.012887,846,547,-3.07976,12.1556
-371,477,-3.09021,-12.5382,0.00112328,9.47927e-05,-0.000322976,0.00121629,1.7797e-06,-0.2804,0.000810266,0.012738,853,547,-3.09018,12.5382
-364,477,-3.09863,-12.9212,0.00171907,-0.000247136,-0.00023727,0.0017473,-0.000275363,-0.118409,0.00126667,0.0128488,860,547,-3.09861,12.9212
-357,477,-3.11401,-13.3293,0.00234378,-0.000438236,-0.000203453,0.00235858,-0.000453036,-0.0726166,0.00174313,0.0106419,867,547,-3.11404,13.3293
-350,477,-3.12231,-13.708,0.00295612,-0.000590815,-0.00022561,0.00297042,-0.000605108,-0.063267,0.00220977,0.00936635,874,547,-3.12233,13.708
-343,477,-3.05646,-14.1338,0.00341808,-0.000762131,-0.000197099,0.00342736,-0.000771404,-0.0470115,0.00258076,0.0169501,881,547,-3.05644,14.1338
-336,477,-2.98535,-14.5572,0.00375734,-0.00079879,-0.000156011,0.00376267,-0.000804126,-0.0341886,0.00281504,0.0334062,888,547,-2.98537,14.5572
-329,477,-2.89709,-14.9374,0,0,0,0,0,0,0,-1,895,547,-2.89707,14.9374
-322,477,-2.04822,-12.0026,0,0,0,0,0,0,0,-1,902,547,-2.04819,12.0026
-315,477,-1.67358,-9.15253,0,0,0,0,0,0,0,-1,909,547,-1.67356,9.15253
-308,477,-1.30127,-6.55188,0,0,0,0,0,0,0,-1,916,547,-1.30128,6.55185
-301,477,-1.21185,-6.28351,0,0,0,0,0,0,0,-1,923,547,-1.21184,6.28352
-294,477,-0.352905,3.27142,0,0,0,0,0,0,0,-1,930,547,-0.35292,-3.27144
-287,477,3.54364,2.15399,0,0,0,0,0,0,0,-1,937,547,3.54362,-2.15396
-280,477,1.97308,-0.954163,0,0,0,0,0,0,0,-1,944,547,1.9731,0.954178
-273,477,2.11621,-3.76709,0,0,0,0,0,0,0,-1,951,547,2.11619,3.76706
-266,477,2.04669,-3.42389,0,0,0,0,0,0,0,-1,958,547,2.04671,3.42391
-259,477,-1.33478,-3.41205,0,0,0,0,0,0,0,-1,965,547,-1.3348,3.41206
-252,477,0.597168,-5.32922,0,0,0,0,0,0,0,-1,972,547,0.597144,5.32924
-245,477,8.2309,-8.48492,0,0,0,0,0,0,0,-1,979,547,8.23091,8.48494
-238,477,6.60938,-5.64063,0,0,0,0,0,0,0,-1,986,547,6.60938,5.64063
-231,477,4.71716,-2.52484,0,0,0,0,0,0,0,-1,993,547,4.71716,2.52483
-224,477,0,0,0,0,0,0,0,0,0,-1,1000,547,0,0
-217,477,0,0,0,0,0,0,0,0,0,-1,1007,547,0,0
-210,477,0,0,0,0,0,0,0,0,0,-1,1014,547,0,0
-203,477,0,0,0,0,0,0,0,0,0,-1,1021,547,0,0
-196,477,0,0,0,0,0,0,0,0,0,-1,1028,547,0,0
-189,477,0,0,0,0,0,0,0,0,0,-1,1035,547,0,0
-182,477,0,0,0,0,0,0,0,0,0,-1,1042,547,0,0
-175,477,0,0,0,0,0,0,0,0,0,-1,1049,547,0,0
-168,477,0,0,0,0,0,0,0,0,0,-1,1056,547,0,0
-161,477,0,0,0,0,0,0,0,0,0,-1,1063,547,0,0
-154,477,0,0,0,0,0,0,0,0,0,-1,1070,547,0,0
-147,477,0,0,0,0,0,0,0,0,0,-1,1077,547,0,0
-140,477,0,0,0,0,0,0,0,0,0,-1,1084,547,0,0
-133,477,0,0,0,0,0,0,0,0,0,-1,1091,547,0,0
-126,477,0,0,0,0,0,0,0,0,0,-1,1098,547,0,0
-119,477,0,0,0,0,0,0,0,0,0,-1,1105,547,0,0
-112,477,0,0,0,0,0,0,0,0,0,-1,1112,547,0,0
-105,477,0,0,0,0,0,0,0,0,0,-1,1119,547,0,0
-98,477,0,0,0,0,0,0,0,0,0,-1,1126,547,0,0
-91,477,0,0,0,0,0,0,0,0,0,-1,1133,547,0,0
-84,477,0,0,0,0,0,0,0,0,0,-1,1140,547,0,0
-77,477,0,0,0,0,0,0,0,0,0,-1,1147,547,0,0
-70,477,0,0,0,0,0,0,0,0,0,-1,1154,547,0,0
-63,477,0,0,0,0,0,0,0,0,0,-1,1161,547,0,0
-56,477,0,0,0,0,0,0,0,0,0,-1,1168,547,0,0
-49,477,0,0,0,0,0,0,0,0,0,-1,1175,547,0,0
-42,477,0,0,0,0,0,0,0,0,0,-1,1182,547,0,0
-35,477,0,0,0,0,0,0,0,0,0,-1,1189,547,0,0
-28,477,0,0,0,0,0,0,0,0,0,-1,1196,547,0,0
-21,477,0,0,0,0,0,0,0,0,0,-1,1203,547,0,0
-14,477,0,0,0,0,0,0,0,0,0,-1,1210,547,0,0
-7,477,0,0,0,0,0,0,0,0,0,-1,1217,547,0,0
0,477,0,0,0,0,0,0,0,0,0,-1,1224,547,0,0
7,477,0,0,0,0,0,0,0,0,0,-1,1231,547,0,0
14,477,0,0,0,0,0,0,0,0,0,-1,1238,547,0,0
21,477,0,0,0,0,0,0,0,0,0,-1,1245,547,0,0
28,477,0,0,0,0,0,0,0,0,0,-1,1252,547,0,0
35,477,0,0,0,0,0,0,0,0,0,-1,1259,547,0,0
42,477,0,0,0,0,0,0,0,0,0,-1,1266,547,0,0
49,477,0,0,0,0,0,0,0,0,0,-1,1273,547,0,0
56,477,0,0,0,0,0,0,0,0,0,-1,1280,547,0,0
63,477,0,0,0,0,0,0,0,0,0,-1,1287,547,0,0
70,477,0,0,0,0,0,0,0,0,0,-1,1294,547,0,0
77,477,0,0,0,0,0,0,0,0,0,-1,1301,547,0,0
84,477,0,0,0,0,0,0,0,0,0,-1,1308,547,0,0
91,477,0,0,0,0,0,0,0,0,0,-1,1315,547,0,0
98,477,0,0,0,0,0,0,0,0,0,-1,1322,547,0,0
105,477,0,0,0,0,0,0,0,0,0,-1,1329,547,0,0
112,477,0,0,0,0,0,0,0,0,0,-1,1336,547,0,0
119,477,0,0,0,0,0,0,0,0,0,-1,1343,547,0,0
126,477,0,0,0,0,0,0,0,0,0,-1,1350,547,0,0
133,477,0,0,0,0,0,0,0,0,0,-1,1357,547,0,0
140,477,0,0,0,0,0,0,0,0,0,-1,1364,547,0,0
147,477,0,0,0,0,0,0,0,0,0,-1,1371,547,0,0
154,477,0,0,0,0,0,0,0,0,0,-1,1378,547,0,0
161,477,0,0,0,0,0,0,0,0,0,-1,1385,547,0,0
168,477,0,0,0,0,0,0,0,0,0,-1,1392,547,0,0
175,477,0,0,0,0,0,0,0,0,0,-1,1399,547,0,0
182,477,0,0,0,0,0,0,0,0,0,-1,1406,547,0,0
189,477,0,0,0,0,0,0,0,0,0,-1,1413,547,0,0
196,477,0,0,0,0,0,0,0,0,0,-1,1420,547,0,0
203,477,0,0,0,0,0,0,0,0,0,-1,1427,547,0,0
210,477,0,0,0,0,0,0,0,0,0,-1,1434,547,0,0
217,477,0,0,0,0,0,0,0,0,0,-1,1441,547,0,0
224,477,0,0,0,0,0,0,0,0,0,-1,1448,547,0,0
231,477,0,0,0,0,0,0,0,0,0,-1,1455,547,0,0
238,477,0,0,0,0,0,0,0,0,0,-1,1462,547,0,0
245,477,0,0,0,0,0,0,0,0,0,-1,1469,547,0,0
252,477,0,0,0,0,0,0,0,0,0,-1,1476,547,0,0
259,477,0,0,0,0,0,0,0,0,0,-1,1483,547,0,0
266,477,0,0,0,0,0,0,0,0,0,-1,1490,547,0,0
273,477,0,0,0,0,0,0,0,0,0,-1,1497,547,0,0
280,477,0,0,0,0,0,0,0,0,0,-1,1504,547,0,0
287,477,0,0,0,0,0,0,0,0,0,-1,1511,547,0,0
294,477,0,0,0,0,0,0,0,0,0,-1,1518,547,0,0
301,477,0,0,0,0,0,0,0,0,0,-1,1525,547,0,0
308,477,0,0,0,0,0,0,0,0,0,-1,1532,547,0,0
315,477,0,0,0,0,0,0,0,0,0,-1,1539,547,0,0
322,477,0,0,0,0,0,0,0,0,0,-1,1546,547,0,0
329,477,0,0,0,0,0,0,0,0,0,-1,1553,547,0,0
336,477,0,0,0,0,0,0,0,0,0,-1,1560,547,0,0
343,477,0,0,0,0,0,0,0,0,0,-1,1567,547,0,0
350,477,1.7699,-3.32275,0,0,0,0,0,0,0,-1,1574,547,1.7699,3.32272
357,477,3.073,-4.83313,0,0,0,0,0,0,0,-1,1581,547,3.07303,4.83316
364,477,4.30127,-4.22864,0,0,0,0,0,0,0,-1,1588,547,4.30125,4.22865
371,477,4.57703,0.283264,0,0,0,0,0,0,0,-1,1595,547,4.57706,-0.283262
378,477,8.57947,1.05969,0,0,0,0,0,0,0,-1,1602,547,8.5795,-1.05972
385,477,12.3726,2.02356,0,0,0,0,0,0,0,-1,1609,547,12.3725,-2.02355
392,477,16.4678,2.76843,0,0,0,0,0,0,0,-1,1616,547,16.4678,-2.76845
399,477,8.00037,-2.29523,0,0,0,0,0,0,0,-1,1623,547,8.00031,2.2952
406,477,4.82495,2.7475,0,0,0,0,0,0,0,-1,1630,547,4.825,-2.74752
413,477,4.88171,-0.336426,0,0,0,0,0,0,0,-1,1637,547,4.88169,0.336398
420,477,3.34875,0.102722,0,0,0,0,0,0,0,-1,1644,547,3.34871,-0.1027
427,477,1.66772,-0.373108,0,0,0,0,0,0,0,-1,1651,547,1.66768,0.373104
434,477,3.76978,-2.30798,0,0,0,0,0,0,0,-1,1658,547,3.76974,2.30801
441,477,4.05444,-2.80402,0,0,0,0,0,0,0,-1,1665,547,4.05444,2.804
448,477,10.4247,-11.7421,0,0,0,0,0,0,0,-1,1672,547,10.4247,11.7421
455,477,11.2037,-13.8068,0,0,0,0,0,0,0,-1,1679,547,11.2038,13.8068
462,477,11.1104,-13.2579,0,0,0,0,0,0,0,-1,1686,547,11.1104,13.2579
469,477,11.1427,-12.7895,0.000257574,-0.000567994,-0.00210839,0.0019932,-0.00230363,-0.68873,0.00248293,0.0312213,1693,547,11.1427,12.7895
476,477,11.1022,-12.3931,0.00143934,0.00054708,-0.000761556,0.00187582,0.000110602,-0.520435,0.00121536,0.018025,1700,547,11.1022,12.3931
483,477,11.0957,-11.9587,0.00225772,0.00119827,0.000307784,0.00234064,0.00111535,0.263176,0.00135187,0.0114183,1707,547,11.0958,11.9587
490,477,11.064,-11.5414,0.00233628,0.00185709,0.000891263,0.00301959,0.00117378,0.654087,0.00175769,0.0118319,1714,547,11.064,11.5414
497,477,11.058,-11.098,0.00179139,0.00148844,0.00093385,0.00258597,0.000693863,0.704995,0.00154552,0.0128143,1721,547,11.058,11.098
504,477,11.0531,-10.6748,0.00101323,0.000908485,0.000707682,0.00167048,0.00025124,0.748463,0.00104007,0.0170816,1728,547,11.0531,10.6748
511,477,11.0833,-10.2677,6.06916e-05,0.000302647,0.000404245,0.000603628,-0.00024029,0.930791,0.000502063,0.0226292,1735,547,11.0833,10.2677
518,477,11.0793,-9.84949,-0.00105757,-0.000228816,1.70859e-05,-0.000228464,-0.00105792,1.55019,0.000642807,0.0207185,1742,547,11.0794,9.84948
525,477,11.0408,-9.39667,-0.00217109,-0.000854332,-0.000427533,-0.000727697,-0.00229773,-1.28283,0.00135598,0.0180087,1749,547,11.0408,9.39669
532,477,10.9991,-8.9671,-0.00330596,-0.00134356,-0.000865799,-0.00101619,-0.00363333,-1.2093,0.00216452,0.0203703,1756,547,10.9991,8.9671
539,477,10.9877,-8.45233,-0.00440165,-0.00177228,-0.00127553,-0.0012552,-0.00491873,-1.18565,0.00295112,0.0168292,1763,547,10.9877,8.45232
546,477,10.9396,-8.05615,-0.00546836,-0.00224366,-0.00170804,-0.00150716,-0.00620486,-1.16369,0.00373691,0.0301769,1770,547,10.9396,8.05615
553,477,10.9138,-7.53638,-0.00647833,-0.00256037,-0.00209802,-0.00164894,-0.00738977,-1.16097,0.00447921,0.0390337,1777,547,10.9138,7.53638
560,477,11.1727,-6.87848,0,0,0,0,0,0,0,-1,1784,547,11.1728,6.87851
567,477,11.0016,-6.43469,0,0,0,0,0,0,0,-1,1791,547,11.0015,6.43467
574,477,6.82593,-0.916992,0,0,0,0,0,0,0,-1,1798,547,6.82598,0.916977
581,477,9.29321,-0.557007,0,0,0,0,0,0,0,-1,1805,547,9.29324,0.55703
588,477,9.75195,0.422729,0,0,0,0,0,0,0,-1,1812,547,9.75198,-0.42273
595,477,9.89172,1.21326,0,0,0,0,0,0,0,-1,1819,547,9.89174,-1.21328
602,477,6.5271,-0.964417,0,0,0,0,0,0,0,-1,1826,547,6.52706,0.964427
609,477,0,0,0,0,0,0,0,0,0,-1,1833,547,0,0
616,477,0,0,0,0,0,0,0,0,0,-1,1840,547,0,0
623,477,0,0,0,0,0,0,0,0,0,-1,1847,547,0,0
630,477,0,0,0,0,0,0,0,0,0,-1,1854,547,0,0
637,477,0,0,0,0,0,0,0,0,0,-1,1861,547,0,0
644,477,0,0,0,0,0,0,0,0,0,-1,1868,547,0,0
651,477,0,0,0,0,0,0,0,0,0,-1,1875,547,0,0
658,477,0,0,0,0,0,0,0,0,0,-1,1882,547,0,0
665,477,0,0,0,0,0,0,0,0,0,-1,1889,547,0,0
672,477,0,0,0,0,0,0,0,0,0,-1,1896,547,0,0
679,477,0,0,0,0,0,0,0,0,0,-1,1903,547,0,0
686,477,0,0,0,0,0,0,0,0,0,-1,1910,547,0,0
693,477,0,0,0,0,0,0,0,0,0,-1,1917,547,0,0
700,477,0,0,0,0,0,0,0,0,0,-1,1924,547,0,0
707,477,0,0,0,0,0,0,0,0,0,-1,1931,547,0,0
714,477,0,0,0,0,0,0,0,0,0,-1,1938,547,0,0
721,477,0,0,0,0,0,0,0,0,0,-1,1945,547,0,0
728,477,0,0,0,0,0,0,0,0,0,-1,1952,547,0,0
735,477,0,0,0,0,0,0,0,0,0,-1,1959,547,0,0
742,477,0,0,0,0,0,0,0,0,0,-1,1966,547,0,0
749,477,0,0,0,0,0,0,0,0,0,-1,1973,547,0,0
756,477,0,0,0,0,0,0,0,0,0,-1,1980,547,0,0
763,477,0,0,0,0,0,0,0,0,0,-1,1987,547,0,0
770,477,0,0,0,0,0,0,0,0,0,-1,1994,547,0,0
777,477,0,0,0,0,0,0,0,0,0,-1,2001,547,0,0
784,477,0,0,0,0,0,0,0,0,0,-1,2008,547,0,0
791,477,0,0,0,0,0,0,0,0,0,-1,2015,547,0,0
798,477,0,0,0,0,0,0,0,0,0,-1,2022,547,0,0
805,477,0,0,0,0,0,0,0,0,0,-1,2029,547,0,0
812,477,0,0,0,0,0,0,0,0,0,-1,2036,547,0,0
-700,470,0,0,0,0,0,0,0,0,0,-1,524,554,0,0
-693,470,0,0,0,0,0,0,0,0,0,-1,531,554,0,0
-686,470,0,0,0,0,0,0,0,0,0,-1,538,554,0,0
-679,470,0,0,0,0,0,0,0,0,0,-1,545,554,0,0
-672,470,0,0,0,0,0,0,0,0,0,-1,552,554,0,0
-665,470,0,0,0,0,0,0,0,0,0,-1,559,554,0,0
-658,470,0,0,0,0,0,0,0,0,0,-1,566,554,0,0
-651,470,0,0,0,0,0,0,0,0,0,-1,573,554,0,0
-644,470,0,0,0,0,0,0,0,0,0,-1,580,554,0,0
-637,470,0,0,0,0,0,0,0,0,0,-1,587,554,0,0
-630,470,0,0,0,0,0,0,0,0,0,-1,594,554,0,0
-623,470,0,0,0,0,0,0,0,0,0,-1,601,554,0,0
-616,470,0,0,0,0,0,0,0,0,0,-1,608,554,0,0
-609,470,0,0,0,0,0,0,0,0,0,-1,615,554,0,0
-602,470,0,0,0,0,0,0,0,0,0,-1,622,554,0,0
-595,470,0,0,0,0,0,0,0,0,0,-1,629,554,0,0
-588,470,0,0,0,0,0,0,0,0,0,-1,636,554,0,0
-581,470,0,0,0,0,0,0,0,0,0,-1,643,554,0,0
-574,470,0,0,0,0,0,0,0,0,0,-1,650,554,0,0
-567,470,0,0,0,0,0,0,0,0,0,-1,657,554,0,0
-560,470,0,0,0,0,0,0,0,0,0,-1,664,554,0,0
-553,470,0,0,0,0,0,0,0,0,0,-1,671,554,0,0
-546,470,0,0,0,0,0,0,0,0,0,-1,678,554,0,0
-539,470,0,0,0,0,0,0,0,0,0,-1,685,554,0,0
-532,470,0,0,0,0,0,0,0,0,0,-1,692,554,0,0
-525,470,0,0,0,0,0,0,0,0,0,-1,699,554,0,0
-518,470,0,0,0,0,0,0,0,0,0,-1,706,554,0,0
-511,470,0,0,0,0,0,0,0,0,0,-1,713,554,0,0
-504,470,0,0,0,0,0,0,0,0,0,-1,720,554,0,0
-497,470,0,0,0,0,0,0,0,0,0,-1,727,554,0,0
-490,470,-9.13263,-1.03125,0,0,0,0,0,0,0,-1,734,554,-9.1326,1.03127
-483,470,-7.68677,-1.03955,0,0,0,0,0,0,0,-1,741,554,-7.68678,1.03958
-476,470,-6.17969,-1.03394,0,0,0,0,0,0,0,-1,748,554,-6.17971,1.03395
-469,470,-6.23016,-0.651855,0,0,0,0,0,0,0,-1,755,554,-6.23014,0.651829
-462,470,-4.87915,-1.03705,0,0,0,0,0,0,0,-1,762,554,-4.87914,1.03702
-455,470,-4.14777,-1.37079,0,0,0,0,0,0,0,-1,769,554,-4.14779,1.37078
-448,470,-2.9314,-5.74518,0,0,0,0,0,0,0,-1,776,554,-2.93137,5.74518
-441,470,-3.02179,-8.22369,0,0,0,0,0,0,0,-1,783,554,-3.0218,8.22371
-434,470,-3.23901,-8.82996,-0.00643184,0.00679925,-0.00117461,0.00690272,-0.00653531,-1.48294,0.00775941,0.0375284,790,554,-3.23901,8.82997
-427,470,-3.41559,-9.13354,-0.00486082,0.00539036,-0.00101444,0.00548978,-0.00496024,-1.4731,0.00603591,0.0185458,797,554,-3.41558,9.13356
-420,470,-3.39709,-9.57495,-0.00361772,0.0041682,-0.000890625,0.00426878,-0.0037183,-1.45834,0.00461499,0.0145297,804,554,-3.3971,9.57493
-413,470,-3.42297,-10.0397,-0.00265468,0.00303557,-0.000696038,0.00311947,-0.00273859,-1.45083,0.00338454,0.012735,811,554,-3.423,10.0397
-406,470,-3.45471,-10.4579,-0.00181339,0.00226798,-0.000529956,0.00233567,-0.00188108,-1.44376,0.00243925,0.010774,818,554,-3.45474,10.4579
-399,470,-3.45526,-10.8987,-0.00114926,0.00165575,-0.00037249,0.00170437,-0.00119789,-1.441,0.0016841,0.0148392,825,554,-3.45523,10.8987
-392,470,-3.4552,-11.3326,-0.000515391,0.000979312,-0.000225119,0.00101248,-0.00054856,-1.42451,0.000914438,0.0151394,832,554,-3.45522,11.3327
-385,470,-3.46674,-11.7229,0.000199573,0.000602265,-0.00014928,0.000651568,0.00015027,-1.25181,0.00039396,0.0112664,839,554,-3.46674,11.7229
-378,470,-3.4837,-12.1409,0.000871499,0.000263602,-9.91451e-05,0.00088726,0.000247841,-0.157654,0.000528628,0.0150317,846,554,-3.48372,12.141
-371,470,-3.49274,-12.5211,0.00149753,-7.9076e-05,-4.42854e-05,0.00149877,-8.0319e-05,-0.0280597,0.001027,0.0137824,853,554,-3.49274,12.521
-364,470,-3.49738,-12.9028,0.00214536,-0.000368113,4.81255e-07,0.00214537,-0.000368113,0.00019147,0.00156742,0.0144241,860,554,-3.49736,12.9028
-357,470,-3.51599,-13.3179,0.00286133,-0.000564044,-3.1017e-05,0.00286161,-0.000564325,-0.00905408,0.00212102,0.0126544,867,554,-3.516,13.3179
-350,470,-3.49371,-13.7271,0.00360131,-0.00076101,-0.00013654,0.00360558,-0.000765279,-0.031259,0.00269527,0.00944264,874,554,-3.49374,13.7271
-343,470,-3.40051,-14.0969,0.00423235,-0.000976205,-0.000207579,0.00424061,-0.000984465,-0.0397693,0.00320602,0.0310075,881,554,-3.40052,14.0969
-336,470,-3.22369,-14.5696,0,0,0,0,0,0,0,-1,888,554,-3.22371,14.5696
-329,470,-2.78516,-12.3594,0,0,0,0,0,0,0,-1,895,554,-2.78517,12.3594
-322,470,-2.30829,-11.4527,0,0,0,0,0,0,0,-1,902,554,-2.30827,11.4527
-315,470,-1.04797,-8.29529,0,0,0,0,0,0,0,-1,909,554,-1.04797,8.29526
-308,470,-1.39368,-6.68152,0,0,0,0,0,0,0,-1,916,554,-1.39369,6.68149
-301,470,-0.0340576,3.34888,0,0,0,0,0,0,0,-1,923,554,-0.0340496,-3.3489
-294,470,-1.18378,3.22266,0,0,0,0,0,0,0,-1,930,554,-1.18376,-3.22268
-287,470,-2.15454,3.2204,0,0,0,0,0,0,0,-1,937,554,-2.15452,-3.22037
-280,470,-3.00537,3.099,0,0,0,0,0,0,0,-1,944,554,-3.00536,-3.09898
-273,470,-12.3932,3.65009,0,0,0,0,0,0,0,-1,951,554,-12.3932,-3.65011
-266,470,-11.5706,1.16028,0,0,0,0,0,0,0,-1,958,554,-11.5706,-1.16031
-259,470,-7.50415,-2.77167,0,0,0,0,0,0,0,-1,965,554,-7.50413,2.7717
-252,470,-0.371155,-5.87823,0,0,0,0,0,0,0,-1,972,554,-0.37114,5.87821
-245,470,1.33221,-6.81122,0,0,0,0,0,0,0,-1,979,554,1.33223,6.8112
-238,470,0,0,0,0,0,0,0,0,0,-1,986,554,0,0
-231,470,0,0,0,0,0,0,0,0,0,-1,993,554,0,0
-224,470,0,0,0,0,0,0,0,0,0,-1,1000,554,0,0
-217,470,0,0,0,0,0,0,0,0,0,-1,1007,554,0,0
-210,470,0,0,0,0,0,0,0,0,0,-1,1014,554,0,0
-203,470,0,0,0,0,0,0,0,0,0,-1,1021,554,0,0
-196,470,0,0,0,0,0,0,0,0,0,-1,1028,554,0,0
-189,470,0,0,0,0,0,0,0,0,0,-1,1035,554,0,0
-182,470,0,0,0,0,0,0,0,0,0,-1,1042,554,0,0
-175,470,0,0,0,0,0,0,0,0,0,-1,1049,554,0,0
-168,470,0,0,0,0,0,0,0,0,0,-1,1056,554,0,0
-161,470,0,0,0,0,0,0,0,0,0,-1,1063,554,0,0
-154,470,0,0,0,0,0,0,0,0,0,-1,1070,554,0,0
-147,470,0,0,0,0,0,0,0,0,0,-1,1077,554,0,0
-140,470,0,0,0,0,0,0,0,0,0,-1,1084,554,0,0
-133,470,0,0,0,0,0,0,0,0,0,-1,1091,554,0,0
-126,470,0,0,0,0,0,0,0,0,0,-1,1098,554,0,0
-119,470,0,0,0,0,0,0,0,0,0,-1,1105,554,0,0
-112,470,0,0,0,0,0,0,0,0,0,-1,1112,554,0,0
-105,470,0,0,0,0,0,0,0,0,0,-1,1119,554,0,0
-98,470,0,0,0,0,0,0,0,0,0,-1,1126,554,0,0
-91,470,0,0,0,0,0,0,0,0,0,-1,1133,554,0,0
-84,470,0,0,0,0,0,0,0,0,0,-1,1140,554,0,0
-77,470,0,0,0,0,0,0,0,0,0,-1,1147,554,0,0
-70,470,0,0,0,0,0,0,0,0,0,-1,1154,554,0,0
-63,470,0,0,0,0,0,0,0,0,0,-1,1161,554,0,0
-56,470,0,0,0,0,0,0,0,0,0,-1,1168,554,0,0
-49,470,0,0,0,0,0,0,0,0,0,-1,1175,554,0,0
-42,470,0,0,0,0,0,0,0,0,0,-1,1182,554,0,0
-35,470,0,0,0,0,0,0,0,0,0,-1,1189,554,0,0
-28,470,0,0,0,0,0,0,0,0,0,-1,1196,554,0,0
-21,470,0,0,0,0,0,0,0,0,0,-1,1203,554,0,0
-14,470,0,0,0,0,0,0,0,0,0,-1,1210,554,0,0
-7,470,0,0,0,0,0,0,0,0,0,-1,1217,554,0,0
0,470,0,0,0,0,0,0,0,0,0,-1,1224,554,0,0
7,470,0,0,0,0,0,0,0,0,0,-1,1231,554,0,0
14,470,0,0,0,0,0,0,0,0,0,-1,1238,554,0,0
21,470,0,0,0,0,0,0,0,0,0,-1,1245,554,0,0
28,470,0,0,0,0,0,0,0,0,0,-1,1252,554,0,0
35,470,0,0,0,0,0,0,0,0,0,-1,1259,554,0,0
42,470,0,0,0,0,0,0,0,0,0,-1,1266,554,0,0
49,470,0,0,0,0,0,0,0,0,0,-1,1273,554,0,0
56,470,0,0,0,0,0,0,0,0,0,-1,1280,554,0,0
63,470,0,0,0,0,0,0,0,0,0,-1,1287,554,0,0
70,470,0,0,0,0,0,0,0,0,0,-1,1294,554,0,0
77,470,0,0,0,0,0,0,0,0,0,-1,1301,554,0,0
84,470,0,0,0,0,0,0,0,0,0,-1,1308,554,0,0
91,470,0,0,0,0,0,0,0,0,0,-1,1315,554,0,0
98,470,0,0,0,0,0,0,0,0,0,-1,1322,554,0,0
105,470,0,0,0,0,0,0,0,0,0,-1,1329,554,0,0
112,470,0,0,0,0,0,0,0,0,0,-1,1336,554,0,0
119,470,0,0,0,0,0,0,0,0,0,-1,1343,554,0,0
126,470,0,0,0,0,0,0,0,0,0,-1,1350,554,0,0
133,470,0,0,0,0,0,0,0,0,0,-1,1357,554,0,0
140,470,0,0,0,0,0,0,0,0,0,-1,1364,554,0,0
147,470,0,0,0,0,0,0,0,0,0,-1,1371,554,0,0
154,470,0,0,0,0,0,0,0,0,0,-1,1378,554,0,0
161,470,0,0,0,0,0,0,0,0,0,-1,1385,554,0,0
168,470,0,0,0,0,0,0,0,0,0,-1,1392,554,0,0
175,470,0,0,0,0,0,0,0,0,0,-1,1399,554,0,0
182,470,0,0,0,0,0,0,0,0,0,-1,1406,554,0,0
189,470,0,0,0,0,0,0,0,0,0,-1,1413,554,0,0
196,470,0,0,0,0,0,0,0,0,0,-1,1420,554,0,0
203,470,0,0,0,0,0,0,0,0,0,-1,1427,554,0,0
210,470,0,0,0,0,0,0,0,0,0,-1,1434,554,0,0
217,470,0,0,0,0,0,0,0,0,0,-1,1441,554,0,0
224,470,0,0,0,0,0,0,0,0,0,-1,1448,554,0,0
231,470,0,0,0,0,0,0,0,0,0,-1,1455,554,0,0
238,470,0,0,0,0,0,0,0,0,0,-1,1462,554,0,0
245,470,0,0,0,0,0,0,0,0,0,-1,1469,554,0,0
252,470,0,0,0,0,0,0,0,0,0,-1,1476,554,0,0
259,470,0,0,0,0,0,0,0,0,0,-1,1483,554,0,0
266,470,0,0,0,0,0,0,0,0,0,-1,1490,554,0,0
273,470,0,0,0,0,0,0,0,0,0,-1,1497,554,0,0
280,470,0,0,0,0,0,0,0,0,0,-1,1504,554,0,0
287,470,0,0,0,0,0,0,0,0,0,-1,1511,554,0,0
294,470,0,0,0,0,0,0,0,0,0,-1,1518,554,0,0
301,470,0,0,0,0,0,0,0,0,0,-1,1525,554,0,0
308,470,0,0,0,0,0,0,0,0,0,-1,1532,554,0,0
315,470,0,0,0,0,0,0,0,0,0,-1,1539,554,0,0
322,470,0,0,0,0,0,0,0,0,0,-1,1546,554,0,0
329,470,0,0,0,0,0,0,0,0,0,-1,1553,554,0,0
336,470,0,0,0,0,0,0,0,0,0,-1,1560,554,0,0
343,470,0,0,0,0,0,0,0,0,0,-1,1567,554,0,0
350,470,0,0,0,0,0,0,0,0,0,-1,1574,554,0,0
357,470,0,0,0,0,0,0,0,0,0,-1,1581,554,0,0
364,470,1.33423,0.293335,0,0,0,0,0,0,0,-1,1588,554,1.33422,-0.293348
371,470,2.22498,-0.0305176,0,0,0,0,0,0,0,-1,1595,554,2.22494,0.0305046
378,470,6.27051,0.710083,0,0,0,0,0,0,0,-1,1602,554,6.27054,-0.710093
385,470,10.3657,1.47296,0,0,0,0,0,0,0,-1,1609,554,10.3657,-1.47299
392,470,15.3881,3.01935,0,0,0,0,0,0,0,-1,1616,554,15.388,-3.01937
399,470,18.4479,2.93793,0,0,0,0,0,0,0,-1,1623,554,18.4479,-2.93792
406,470,15.1896,1.36676,0,0,0,0,0,0,0,-1,1630,554,15.1896,-1.36679
413,470,6.55383,1.99207,0,0,0,0,0,0,0,-1,1637,554,6.5538,-1.99208
420,470,4.47095,0.845703,0,0,0,0,0,0,0,-1,1644,554,4.47098,-0.845718
427,470,3.51038,1.19684,0,0,0,0,0,0,0,-1,1651,554,3.51039,-1.19684
434,470,3.31775,-1.37427,0,0,0,0,0,0,0,-1,1658,554,3.31781,1.37426
441,470,2.55457,-2.05902,0,0,0,0,0,0,0,-1,1665,554,2.55461,2.05904
448,470,3.27258,-2.64032,0,0,0,0,0,0,0,-1,1672,554,3.27257,2.64029
455,470,10.3658,-9.82233,0,0,0,0,0,0,0,-1,1679,554,10.3659,9.82233
462,470,11.0651,-11.9958,0,0,0,0,0,0,0,-1,1686,554,11.0651,11.9958
469,470,11.4413,-12.9387,0,0,0,0,0,0,0,-1,1693,554,11.4413,12.9386
476,470,11.4666,-12.3943,0.00264023,0.00094661,-0.000275257,0.00268384,0.000902996,-0.15714,0.0015769,0.041145,1700,554,11.4665,12.3943
483,470,11.5382,-11.9572,0.00360483,0.00168887,0.000901922,0.0039626,0.00133111,0.377634,0.00232851,0.0154358,1707,554,11.5383,11.9571
490,470,11.5021,-11.5331,0.003693,0.00251521,0.00150451,0.00471976,0.00148845,0.598855,0.00278619,0.0115179,1714,554,11.502,11.5331
497,470,11.4912,-11.0882,0.00306372,0.00215313,0.00148609,0.00416269,0.00105416,0.636752,0.00249899,0.0118454,1721,554,11.4912,11.0882
504,470,11.5156,-10.6948,0.00220126,0.00155624,0.00117959,0.00310163,0.000655872,0.651955,0.00188751,0.0181957,1728,554,11.5156,10.6948
511,470,11.5515,-10.3007,0.00121081,0.000958623,0.000814327,0.00190875,0.000260684,0.708587,0.00119512,0.0251569,1735,554,11.5516,10.3007
518,470,11.5559,-9.84302,0.000101314,0.000455156,0.000398087,0.000713867,-0.000157396,0.994503,0.000536134,0.025948,1742,554,11.5559,9.84301
525,470,11.5122,-9.35785,-0.000969074,-0.000118745,-3.79574e-05,-0.000117054,-0.000970765,-1.52628,0.000611902,0.0170996,1749,554,11.5122,9.35788
532,470,11.4408,-8.88367,-0.0020334,-0.000555088,-0.000452085,-0.000427796,-0.00216069,-1.29634,0.00132115,0.0147243,1756,554,11.4408,8.88365
539,470,11.4265,-8.45398,-0.00303947,-0.000989327,-0.000841843,-0.000687948,-0.00334085,-1.22701,0.00203702,0.0157007,1763,554,11.4266,8.454
546,470,11.4188,-8.00806,-0.00398634,-0.00142307,-0.0012155,-0.000938343,-0.00447106,-1.19134,0.00272238,0.014608,1770,554,11.4188,8.00808
553,470,11.4352,-7.55634,-0.00487602,-0.00170142,-0.00154293,-0.0010751,-0.00550235,-1.18518,0.00336756,0.0168995,1777,554,11.4352,7.55634
560,470,11.4294,-7.05615,-0.0056836,-0.0018483,-0.00174083,-0.001176,-0.0063559,-1.20224,0.00390475,0.0262072,1784,554,11.4295,7.05616
567,470,11.3047,-6.60846,-0.00645289,-0.00205743,-0.00189351,-0.00135423,-0.00715609,-1.21521,0.00438951,0.0233575,1791,554,11.3047,6.60846
574,470,11.3118,-5.93652,0,0,0,0,0,0,0,-1,1798,554,11.3117,5.93651
581,470,8.24646,-4.06317,0,0,0,0,0,0,0,-1,1805,554,8.24648,4.06318
588,470,11.1803,1.74927,0,0,0,0,0,0,0,-1,1812,554,11.1803,-1.74926
595,470,4.72192,3.44116,0,0,0,0,0,0,0,-1,1819,554,4.72191,-3.44116
602,470,14.4307,2.76141,0,0,0,0,0,0,0,-1,1826,554,14.4306,-2.76139
609,470,20.9181,4.41058,0,0,0,0,0,0,0,-1,1833,554,20.9181,-4.4106
616,470,0,0,0,0,0,0,0,0,0,-1,1840,554,0,0
623,470,0,0,0,0,0,0,0,0,0,-1,1847,554,0,0
630,470,0,0,0,0,0,0,0,0,0,-1,1854,554,0,0
637,470,0,0,0,0,0,0,0,0,0,-1,1861,554,0,0
644,470,0,0,0,0,0,0,0,0,0,-1,1868,554,0,0
651,470,0,0,0,0,0,0,0,0,0,-1,1875,554,0,0
658,470,0,0,0,0,0,0,0,0,0,-1,1882,554,0,0
665,470,0,0,0,0,0,0,0,0,0,-1,1889,554,0,0
672,470,0,0,0,0,0,0,0,0,0,-1,1896,554,0,0
679,470,0,0,0,0,0,0,0,0,0,-1,1903,554,0,0
686,470,0,0,0,0,0,0,0,0,0,-1,1910,554,0,0
693,470,0,0,0,0,0,0,0,0,0,-1,1917,554,0,0
700,470,0,0,0,0,0,0,0,0,0,-1,1924,554,0,0
707,470,0,0,0,0,0,0,0,0,0,-1,1931,554,0,0
714,470,0,0,0,0,0,0,0,0,0,-1,1938,554,0,0
721,470,0,0,0,0,0,0,0,0,0,-1,1945,554,0,0
728,470,0,0,0,0,0,0,0,0,0,-1,1952,554,0,0
735,470,0,0,0,0,0,0,0,0,0,-1,1959,554,0,0
742,470,0,0,0,0,0,0,0,0,0,-1,1966,554,0,0
749,470,0,0,0,0,0,0,0,0,0,-1,1973,554,0,0
756,470,0,0,0,0,0,0,0,0,0,-1,1980,554,0,0
763,470,0,0,0,0,0,0,0,0,0,-1,1987,554,0,0
770,470,0,0,0,0,0,0,0,0,0,-1,1994,554,0,0
777,470,0,0,0,0,0,0,0,0,0,-1,2001,554,0,0
784,470,0,0,0,0,0,0,0,0,0,-1,2008,554,0,0
791,470,0,0,0,0,0,0,0,0,0,-1,2015,554,0,0
798,470,0,0,0,0,0,0,0,0,0,-1,2022,554,0,0
805,470,0,0,0,0,0,0,0,0,0,-1,2029,554,0,0
812,470,0,0,0,0,0,0,0,0,0,-1,2036,554,0,0
-700,463,0,0,0,0,0,0,0,0,0,-1,524,561,0,0
-693,463,0,0,0,0,0,0,0,0,0,-1,531,561,0,0
-686,463,0,0,0,0,0,0,0,0,0,-1,538,561,0,0
-679,463,0,0,0,0,0,0,0,0,0,-1,545,561,0,0
-672,463,0,0,0,0,0,0,0,0,0,-1,552,561,0,0
-665,463,0,0,0,0,0,0,0,0,0,-1,559,561,0,0
-658,463,0,0,0,0,0,0,0,0,0,-1,566,561,0,0
-651,463,0,0,0,0,0,0,0,0,0,-1,573,561,0,0
-644,463,0,0,0,0,0,0,0,0,0,-1,580,561,0,0
-637,463,0,0,0,0,0,0,0,0,0,-1,587,561,0,0
-630,463,0,0,0,0,0,0,0,0,0,-1,594,561,0,0
-623,463,0,0,0,0,0,0,0,0,0,-1,601,561,0,0
-616,463,0,0,0,0,0,0,0,0,0,-1,608,561,0,0
-609,463,0,0,0,0,0,0,0,0,0,-1,615,561,0,0
-602,463,0,0,0,0,0,0,0,0,0,-1,622,561,0,0
-595,463,0,0,0,0,0,0,0,0,0,-1,629,561,0,0
-588,463,0,0,0,0,0,0,0,0,0,-1,636,561,0,0
-581,463,0,0,0,0,0,0,0,0,0,-1,643,561,0,0
-574,463,0,0,0,0,0,0,0,0,0,-1,650,561,0,0
-567,463,0,0,0,0,0,0,0,0,0,-1,657,561,0,0
-560,463,0,0,0,0,0,0,0,0,0,-1,664,561,0,0
-553,463,0,0,0,0,0,0,0,0,0,-1,671,561,0,0
-546,463,0,0,0,0,0,0,0,0,0,-1,678,561,0,0
-539,463,0,0,0,0,0,0,0,0,0,-1,685,561,0,0
-532,463,0,0,0,0,0,0,0,0,0,-1,692,561,0,0
-525,463,0,0,0,0,0,0,0,0,0,-1,699,561,0,0
-518,463,0,0,0,0,0,0,0,0,0,-1,706,561,0,0
-511,463,0,0,0,0,0,0,0,0,0,-1,713,561,0,0
-504,463,0,0,0,0,0,0,0,0,0,-1,720,561,0,0
-497,463,-9.81451,-1.67126,0,0,0,0,0,0,0,-1,727,561,-9.81452,1.67127
-490,463,-8.57043,-1.58942,0,0,0,0,0,0,0,-1,734,561,-8.57045,1.58944
-483,463,-7.29224,-1.7226,0,0,0,0,0,0,0,-1,741,561,-7.29226,1.72261
-476,463,-5.77704,-1.7312,0,0,0,0,0,0,0,-1,748,561,-5.77703,1.73121
-469,463,-5.14545,-2.138,0,0,0,0,0,0,0,-1,755,561,-5.14546,2.13799
-462,463,-3.13672,-3.07977,0,0,0,0,0,0,0,-1,762,561,-3.13672,3.07974
-455,463,-2.91406,-5.61798,0,0,0,0,0,0,0,-1,769,561,-2.91406,5.61801
-448,463,-3.47699,-7.73932,0,0,0,0,0,0,0,-1,776,561,-3.47698,7.73929
-441,463,-3.62061,-8.26025,-0.00665446,0.00765105,-0.00186353,0.00788982,-0.00689323,-1.44336,0.00854146,0.0473136,783,561,-3.62064,8.26023
-434,463,-3.82117,-8.73364,-0.00501969,0.00592434,-0.00141907,0.00610535,-0.0052007,-1.44392,0.00653452,0.0206723,790,561,-3.82117,8.73366
-427,463,-3.81348,-9.16815,-0.00372138,0.00459269,-0.00109037,0.00473331,-0.003862,-1.44254,0.004971,0.0097187,797,561,-3.8135,9.16813
-420,463,-3.79767,-9.59888,-0.0026922,0.00346959,-0.000834786,0.00358068,-0.00280329,-1.4385,0.00369489,0.0101101,804,561,-3.79768,9.59887
-413,463,-3.82928,-10.0278,-0.0019111,0.00237111,-0.000516107,0.00243243,-0.00197243,-1.45253,0.00254777,0.0094877,811,561,-3.82927,10.0278
-406,463,-3.86615,-10.4573,-0.00119656,0.00163341,-0.000269285,0.00165881,-0.00122195,-1.47677,0.00166957,0.00949875,818,561,-3.86615,10.4574
-399,463,-3.85565,-10.8788,-0.000618636,0.00105948,-5.74528e-05,0.00106144,-0.000620601,-1.53661,0.000982184,0.0108099,825,561,-3.85566,10.8789
-392,463,-3.86462,-11.291,-6.76603e-05,0.000441261,0.000125573,0.000470559,-9.6958e-05,1.34158,0.000350524,0.0102577,832,561,-3.86461,11.291
-385,463,-3.90369,-11.719,0.000551642,0.000125348,0.000223268,0.00064717,2.98195e-05,0.404293,0.000421858,0.010797,839,561,-3.9037,11.719
-378,463,-3.91974,-12.1352,0.00113518,-0.000154351,0.000296431,0.00120006,-0.000219229,0.215467,0.000882241,0.0116218,846,561,-3.91971,12.1352
-371,463,-3.91974,-12.5392,0.00171833,-0.000383647,0.000341963,0.00177256,-0.00043788,0.157285,0.00135152,0.0118774,853,561,-3.91975,12.5392
-364,463,-3.90302,-12.9028,0.00236892,-0.000503513,0.000318156,0.00240374,-0.000538331,0.109002,0.00180884,0.0147156,860,561,-3.90304,12.9028
-357,463,-3.92657,-13.2818,0.00311991,-0.000574428,0.000180416,0.0031287,-0.000583217,0.0486813,0.00230493,0.0180813,867,561,-3.92658,13.2818
-350,463,-3.8255,-13.7461,0.00395248,-0.000650489,-9.18591e-05,0.00395432,-0.000652321,-0.0199459,0.0028784,0.0273793,874,561,-3.82552,13.7461
-343,463,-3.65717,-13.996,0,0,0,0,0,0,0,-1,881,561,-3.65718,13.996
-336,463,-2.94928,-12.2127,0,0,0,0,0,0,0,-1,888,561,-2.94925,12.2127
-329,463,-2.64307,-12.7037,0,0,0,0,0,0,0,-1,895,561,-2.64307,12.7038
-322,463,-1.82898,-9.11957,0,0,0,0,0,0,0,-1,902,561,-1.829,9.11957
-315,463,-0.944763,-5.96234,0,0,0,0,0,0,0,-1,909,561,-0.94479,5.96237
-308,463,-1.1535,-3.17889,0,0,0,0,0,0,0,-1,916,561,-1.15352,3.17889
-301,463,-1.50366,-3.15338,0,0,0,0,0,0,0,-1,923,561,-1.50364,3.15341
-294,463,-2.35889,-3.93463,0,0,0,0,0,0,0,-1,930,561,-2.35886,3.93465
-287,463,-2.80322,2.73999,0,0,0,0,0,0,0,-1,937,561,-2.80322,-2.74
-280,463,-12.864,5.25146,0,0,0,0,0,0,0,-1,944,561,-12.864,-5.25149
-273,463,-12.4598,3.39178,0,0,0,0,0,0,0,-1,951,561,-12.4598,-3.3918
-266,463,-8.78101,-3.7356,0,0,0,0,0,0,0,-1,958,561,-8.78098,3.73562
-259,463,-6.23285,-5.68842,0,0,0,0,0,0,0,-1,965,561,-6.23288,5.68843
-252,463,0,0,0,0,0,0,0,0,0,-1,972,561,0,0
-245,463,0,0,0,0,0,0,0,0,0,-1,979,561,0,0
-238,463,0,0,0,0,0,0,0,0,0,-1,986,561,0,0
-231,463,0,0,0,0,0,0,0,0,0,-1,993,561,0,0
-224,463,0,0,0,0,0,0,0,0,0,-1,1000,561,0,0
-217,463,0,0,0,0,0,0,0,0,0,-1,1007,561,0,0
-210,463,0,0,0,0,0,0,0,0,0,-1,1014,561,0,0
-203,463,0,0,0,0,0,0,0,0,0,-1,1021,561,0,0
-196,463,0,0,0,0,0,0,0,0,0,-1,1028,561,0,0
-189,463,0,0,0,0,0,0,0,0,0,-1,1035,561,0,0
-182,463,0,0,0,0,0,0,0,0,0,-1,1042,561,0,0
-175,463,0,0,0,0,0,0,0,0,0,-1,1049,561,0,0
-168,463,0,0,0,0,0,0,0,0,0,-1,1056,561,0,0
-161,463,0,0,0,0,0,0,0,0,0,-1,1063,561,0,0
-154,463,0,0,0,0,0,0,0,0,0,-1,1070,561,0,0
-147,463,0,0,0,0,0,0,0,0,0,-1,1077,561,0,0
-140,463,0,0,0,0,0,0,0,0,0,-1,1084,561,0,0
-133,463,0,0,0,0,0,0,0,0,0,-1,1091,561,0,0
-126,463,0,0,0,0,0,0,0,0,0,-1,1098,561,0,0
-119,463,0,0,0,0,0,0,0,0,0,-1,1105,561,0,0
-112,463,0,0,0,0,0,0,0,0,0,-1,1112,561,0,0
-105,463,0,0,0,0,0,0,0,0,0,-1,1119,561,0,0
-98,463,0,0,0,0,0,0,0,0,0,-1,1126,561,0,0
-91,463,0,0,0,0,0,0,0,0,0,-1,1133,561,0,0
-84,463,0,0,0,0,0,0,0,0,0,-1,1140,561,0,0
-77,463,0,0,0,0,0,0,0,0,0,-1,1147,561,0,0
-70,463,0,0,0,0,0,0,0,0,0,-1,1154,561,0,0
-63,463,0,0,0,0,0,0,0,0,0,-1,1161,561,0,0
-56,463,0,0,0,0,0,0,0,0,0,-1,1168,561,0,0
-49,463,0,0,0,0,0,0,0,0,0,-1,1175,561,0,0
-42,463,0,0,0,0,0,0,0,0,0,-1,1182,561,0,0
-35,463,0,0,0,0,0,0,0,0,0,-1,1189,561,0,0
-28,463,0,0,0,0,0,0,0,0,0,-1,1196,561,0,0
-21,463,0,0,0,0,0,0,0,0,0,-1,1203,561,0,0
-14,463,0,0,0,0,0,0,0,0,0,-1,1210,561,0,0
-7,463,0,0,0,0,0,0,0,0,0,-1,1217,561,0,0
0,463,0,0,0,0,0,0,0,0,0,-1,1224,561,0,0
7,463,0,0,0,0,0,0,0,0,0,-1,1231,561,0,0
14,463,0,0,0,0,0,0,0,0,0,-1,1238,561,0,0
21,463,0,0,0,0,0,0,0,0,0,-1,1245,561,0,0
28,463,0,0,0,0,0,0,0,0,0,-1,1252,561,0,0
35,463,0,0,0,0,0,0,0,0,0,-1,1259,561,0,0
42,463,0,0,0,0,0,0,0,0,0,-1,1266,561,0,0
49,463,0,0,0,0,0,0,0,0,0,-1,1273,561,0,0
56,463,0,0,0,0,0,0,0,0,0,-1,1280,561,0,0
63,463,0,0,0,0,0,0,0,0,0,-1,1287,561,0,0
70,463,0,0,0,0,0,0,0,0,0,-1,1294,561,0,0
77,463,0,0,0,0,0,0,0,0,0,-1,1301,561,0,0
84,463,0,0,0,0,0,0,0,0,0,-1,1308,561,0,0
91,463,0,0,0,0,0,0,0,0,0,-1,1315,561,0,0
98,463,0,0,0,0,0,0,0,0,0,-1,1322,561,0,0
105,463,0,0,0,0,0,0,0,0,0,-1,1329,561,0,0
112,463,0,0,0,0,0,0,0,0,0,-1,1336,561,0,0
119,463,0,0,0,0,0,0,0,0,0,-1,1343,561,0,0
126,463,0,0,0,0,0,0,0,0,0,-1,1350,561,0,0
133,463,0,0,0,0,0,0,0,0,0,-1,1357,561,0,0
140,463,0,0,0,0,0,0,0,0,0,-1,1364,561,0,0
147,463,0,0,0,0,0,0,0,0,0,-1,1371,561,0,0
154,463,0,0,0,0,0,0,0,0,0,-1,1378,561,0,0
161,463,0,0,0,0,0,0,0,0,0,-1,1385,561,0,0
168,463,0,0,0,0,0,0,0,0,0,-1,1392,561,0,0
175,463,0,0,0,0,0,0,0,0,0,-1,1399,561,0,0
182,463,0,0,0,0,0,0,0,0,0,-1,1406,561,0,0
189,463,0,0,0,0,0,0,0,0,0,-1,1413,561,0,0
196,463,0,0,0,0,0,0,0,0,0,-1,1420,561,0,0
203,463,0,0,0,0,0,0,0,0,0,-1,1427,561,0,0
210,463,0,0,0,0,0,0,0,0,0,-1,1434,561,0,0
217,463,0,0,0,0,0,0,0,0,0,-1,1441,561,0,0
224,463,0,0,0,0,0,0,0,0,0,-1,1448,561,0,0
231,463,0,0,0,0,0,0,0,0,0,-1,1455,561,0,0
238,463,0,0,0,0,0,0,0,0,0,-1,1462,561,0,0
245,463,0,0,0,0,0,0,0,0,0,-1,1469,561,0,0
252,463,0,0,0,0,0,0,0,0,0,-1,1476,561,0,0
259,463,0,0,0,0,0,0,0,0,0,-1,1483,561,0,0
266,463,0,0,0,0,0,0,0,0,0,-1,1490,561,0,0
273,463,0,0,0,0,0,0,0,0,0,-1,1497,561,0,0
280,463,0,0,0,0,0,0,0,0,0,-1,1504,561,0,0
287,463,0,0,0,0,0,0,0,0,0,-1,1511,561,0,0
294,463,0,0,0,0,0,0,0,0,0,-1,1518,561,0,0
301,463,0,0,0,0,0,0,0,0,0,-1,1525,561,0,0
308,463,0,0,0,0,0,0,0,0,0,-1,1532,561,0,0
315,463,0,0,0,0,0,0,0,0,0,-1,1539,561,0,0
322,463,0,0,0,0,0,0,0,0,0,-1,1546,561,0,0
329,463,0,0,0,0,0,0,0,0,0,-1,1553,561,0,0
336,463,0,0,0,0,0,0,0,0,0,-1,1560,561,0,0
343,463,0,0,0,0,0,0,0,0,0,-1,1567,561,0,0
350,463,0,0,0,0,0,0,0,0,0,-1,1574,561,0,0
357,463,0,0,0,0,0,0,0,0,0,-1,1581,561,0,0
364,463,0,0,0,0,0,0,0,0,0,-1,1588,561,0,0
371,463,1.75842,0.152588,0,0,0,0,0,0,0,-1,1595,561,1.75844,-0.152558
378,463,4.58813,-0.0444336,0,0,0,0,0,0,0,-1,1602,561,4.58809,0.0444505
385,463,8.88574,1.65057,0,0,0,0,0,0,0,-1,1609,561,8.88575,-1.65055
392,463,14.0912,2.50513,0,0,0,0,0,0,0,-1,1616,561,14.0912,-2.5051
399,463,21.4769,2.7002,0,0,0,0,0,0,0,-1,1623,561,21.477,-2.70017
406,463,26.2987,4.32318,0,0,0,0,0,0,0,-1,1630,561,26.2987,-4.3232
413,463,26.5011,2.65222,0,0,0,0,0,0,0,-1,1637,561,26.5011,-2.65224
420,463,8.849,2.26611,0,0,0,0,0,0,0,-1,1644,561,8.84899,-2.26613
427,463,5.12207,1.69183,0,0,0,0,0,0,0,-1,1651,561,5.12206,-1.69184
434,463,4.59814,1.81995,0,0,0,0,0,0,0,-1,1658,561,4.59812,-1.81994
441,463,1.76392,-5.99225,0,0,0,0,0,0,0,-1,1665,561,1.7639,5.99225
448,463,2.49939,-4.30536,0,0,0,0,0,0,0,-1,1672,561,2.49941,4.30536
455,463,4.40295,-3.02557,0,0,0,0,0,0,0,-1,1679,561,4.40299,3.02558
462,463,5.38293,-4.06445,0,0,0,0,0,0,0,-1,1686,561,5.38289,4.06444
469,463,5.94373,-4.50647,0,0,0,0,0,0,0,-1,1693,561,5.94368,4.50646
476,463,11.7472,-12.6417,0,0,0,0,0,0,0,-1,1700,561,11.7472,12.6417
483,463,11.8254,-12.1479,0.00512488,0.00222384,0.00179817,0.00598464,0.00136408,0.446003,0.00362173,0.0471309,1707,561,11.8254,12.1479
490,463,11.958,-11.5338,0.00519868,0.00318836,0.00236865,0.00676662,0.00162042,0.584734,0.00407966,0.0214705,1714,561,11.958,11.5338
497,463,11.9264,-11.0916,0.00447654,0.00278329,0.00224606,0.00603023,0.00122959,0.605164,0.00367942,0.0124834,1721,561,11.9264,11.0916
504,463,11.9463,-10.671,0.00352548,0.00213084,0.00182882,0.00478541,0.00087091,0.60326,0.00294324,0.016001,1728,561,11.9463,10.671
511,463,11.944,-10.2699,0.00250765,0.00151337,0.00138533,0.00348233,0.00053868,0.613125,0.00216446,0.0217339,1735,561,11.944,10.2699
518,463,11.9768,-9.80011,0.00141929,0.00100963,0.000935897,0.00217251,0.000256416,0.677667,0.00137089,0.0233742,1742,561,11.9768,9.8001
525,463,11.9415,-9.34235,0.000386168,0.00048025,0.000501398,0.000936809,-7.03911e-05,0.832171,0.000649276,0.0195021,1749,561,11.9415,9.34234
532,463,11.9222,-8.89374,-0.000621694,7.74481e-05,9.33787e-05,8.9705e-05,-0.000633951,1.44028,0.000455489,0.0162631,1756,561,11.9222,8.89374
539,463,11.8782,-8.42877,-0.00156697,-0.0003747,-0.000301823,-0.000302648,-0.00163902,-1.33646,0.00100707,0.0169377,1763,561,11.8782,8.42878
546,463,11.8669,-8.01367,-0.00242203,-0.000773722,-0.000645919,-0.000550765,-0.00264499,-1.23842,0.00161142,0.0138403,1770,561,11.8669,8.01366
553,463,11.8704,-7.56,-0.00321399,-0.00105342,-0.000950587,-0.000694733,-0.00357268,-1.20999,0.0021873,0.010905,1777,561,11.8703,7.55998
560,463,11.8815,-7.01898,-0.00395636,-0.00115866,-0.0011038,-0.000775615,-0.00433941,-1.23677,0.00267219,0.0155672,1784,561,11.8814,7.01898
567,463,11.7766,-6.58539,-0.00463426,-0.0013364,-0.0012214,-0.000933311,-0.00503735,-1.25203,0.00309441,0.0219347,1791,561,11.7767,6.58537
574,463,11.8136,-6.13751,0,0,0,0,0,0,0,-1,1798,561,11.8136,6.13754
581,463,7.77832,-2.18085,0,0,0,0,0,0,0,-1,1805,561,7.77828,2.18082
588,463,1.97424,2.16016,0,0,0,0,0,0,0,-1,1812,561,1.97422,-2.16013
595,463,9.98657,2.99854,0,0,0,0,0,0,0,-1,1819,561,9.98662,-2.99856
602,463,17.2202,4.91302,0,0,0,0,0,0,0,-1,1826,561,17.2202,-4.91305
609,463,17.96,4.03131,0,0,0,0,0,0,0,-1,1833,561,17.96,-4.03132
616,463,20.8352,3.15131,0,0,0,0,0,0,0,-1,1840,561,20.8352,-3.1513
623,463,0,0,0,0,0,0,0,0,0,-1,1847,561,0,0
630,463,0,0,0,0,0,0,0,0,0,-1,1854,561,0,0
637,463,0,0,0,0,0,0,0,0,0,-1,1861,561,0,0
644,463,0,0,0,0,0,0,0,0,0,-1,1868,561,0,0
651,463,0,0,0,0,0,0,0,0,0,-1,1875,561,0,0
658,463,0,0,0,0,0,0,0,0,0,-1,1882,561,0,0
665,463,0,0,0,0,0,0,0,0,0,-1,1889,561,0,0
672,463,0,0,0,0,0,0,0,0,0,-1,1896,561,0,0
679,463,0,0,0,0,0,0,0,0,0,-1,1903,561,0,0
686,463,0,0,0,0,0,0,0,0,0,-1,1910,561,0,0
693,463,0,0,0,0,0,0,0,0,0,-1,1917,561,0,0
700,463,0,0,0,0,0,0,0,0,0,-1,1924,561,0,0
707,463,0,0,0,0,0,0,0,0,0,-1,1931,561,0,0
714,463,0,0,0,0,0,0,0,0,0,-1,1938,561,0,0
721,463,0,0,0,0,0,0,0,0,0,-1,1945,561,0,0
728,463,0,0,0,0,0,0,0,0,0,-1,1952,561,0,0
735,463,0,0,0,0,0,0,0,0,0,-1,1959,561,0,0
742,463,0,0,0,0,0,0,0,0,0,-1,1966,561,0,0
749,463,0,0,0,0,0,0,0,0,0,-1,1973,561,0,0
756,463,0,0,0,0,0,0,0,0,0,-1,1980,561,0,0
763,463,0,0,0,0,0,0,0,0,0,-1,1987,561,0,0
770,463,0,0,0,0,0,0,0,0,0,-1,1994,561,0,0
777,463,0,0,0,0,0,0,0,0,0,-1,2001,561,0,0
784,463,0,0,0,0,0,0,0,0,0,-1,2008,561,0,0
791,463,0,0,0,0,0,0,0,0,0,-1,2015,561,0,0
798,463,0,0,0,0,0,0,0,0,0,-1,2022,561,0,0
805,463,0,0,0,0,0,0,0,0,0,-1,2029,561,0,0
812,463,0,0,0,0,0,0,0,0,0,-1,2036,561,0,0
-700,456,0,0,0,0,0,0,0,0,0,-1,524,568,0,0
-693,456,0,0,0,0,0,0,0,0,0,-1,531,568,0,0
-686,456,0,0,0,0,0,0,0,0,0,-1,538,568,0,0
-679,456,0,0,0,0,0,0,0,0,0,-1,545,568,0,0
-672,456,0,0,0,0,0,0,0,0,0,-1,552,568,0,0
-665,456,0,0,0,0,0,0,0,0,0,-1,559,568,0,0
-658,456,0,0,0,0,0,0,0,0,0,-1,566,568,0,0
-651,456,0,0,0,0,0,0,0,0,0,-1,573,568,0,0
-644,456,0,0,0,0,0,0,0,0,0,-1,580,568,0,0
-637,456,0,0,0,0,0,0,0,0,0,-1,587,568,0,0
-630,456,0,0,0,0,0,0,0,0,0,-1,594,568,0,0
-623,456,0,0,0,0,0,0,0,0,0,-1,601,568,0,0
-616,456,0,0,0,0,0,0,0,0,0,-1,608,568,0,0
-609,456,0,0,0,0,0,0,0,0,0,-1,615,568,0,0
-602,456,0,0,0,0,0,0,0,0,0,-1,622,568,0,0
-595,456,0,0,0,0,0,0,0,0,0,-1,629,568,0,0
-588,456,0,0,0,0,0,0,0,0,0,-1,636,568,0,0
-581,456,0,0,0,0,0,0,0,0,0,-1,643,568,0,0
-574,456,0,0,0,0,0,0,0,0,0,-1,650,568,0,0
-567,456,0,0,0,0,0,0,0,0,0,-1,657,568,0,0
-560,456,0,0,0,0,0,0,0,0,0,-1,664,568,0,0
-553,456,0,0,0,0,0,0,0,0,0,-1,671,568,0,0
-546,456,0,0,0,0,0,0,0,0,0,-1,678,568,0,0
-539,456,0,0,0,0,0,0,0,0,0,-1,685,568,0,0
-532,456,0,0,0,0,0,0,0,0,0,-1,692,568,0,0
-525,456,0,0,0,0,0,0,0,0,0,-1,699,568,0,0
-518,456,0,0,0,0,0,0,0,0,0,-1,706,568,0,0
-511,456,0,0,0,0,0,0,0,0,0,-1,713,568,0,0
-504,456,-10.3994,-2.34839,0,0,0,0,0,0,0,-1,720,568,-10.3994,2.3484
-497,456,-9.21375,-2.38068,0,0,0,0,0,0,0,-1,727,568,-9.21372,2.38069
-490,456,-8.09058,-2.31824,0,0,0,0,0,0,0,-1,734,568,-8.09057,2.31821
-483,456,-6.66119,-2.24329,0,0,0,0,0,0,0,-1,741,568,-6.66121,2.24331
-476,456,-5.1499,-2.21185,0,0,0,0,0,0,0,-1,748,568,-5.14992,2.21184
-469,456,-2.81238,-3.51501,0,0,0,0,0,0,0,-1,755,568,-2.81237,3.51501
-462,456,-4.2431,-5.27478,0,0,0,0,0,0,0,-1,762,568,-4.24312,5.27476
-455,456,-4.01953,-6.77155,0,0,0,0,0,0,0,-1,769,568,-4.01952,6.77156
-448,456,-4.02686,-7.53424,-0.00661637,0.00848153,-0.00267082,0.00894008,-0.00707491,-1.40077,0.00926714,0.0492004,776,568,-4.02686,7.53421
-441,456,-4.1601,-8.25525,-0.00505507,0.00671166,-0.00206695,0.00706418,-0.0054076,-1.40187,0.00722172,0.0245732,783,568,-4.16007,8.25522
-434,456,-4.25293,-8.72382,-0.00381008,0.00519341,-0.00155156,0.00545328,-0.00406996,-1.40484,0.00551755,0.013059,790,568,-4.25294,8.72384
-427,456,-4.23901,-9.1615,-0.002793,0.00394937,-0.00111848,0.00413007,-0.0029737,-1.41062,0.00411944,0.00885506,797,568,-4.23903,9.16147
-420,456,-4.23438,-9.60327,-0.00197099,0.00289575,-0.000763135,0.00301261,-0.00208785,-1.41885,0.00296084,0.00963255,804,568,-4.23437,9.6033
-413,456,-4.26196,-10.0185,-0.00137058,0.00182266,-0.000337631,0.00185797,-0.00140589,-1.4666,0.00189041,0.00923956,811,568,-4.26199,10.0185
-406,456,-4.30176,-10.4382,-0.000798443,0.00108964,-8.88851e-06,0.00108968,-0.000798485,-1.56609,0.00109445,0.00945624,818,568,-4.30179,10.4382
-399,456,-4.29596,-10.8624,-0.00033141,0.000517725,0.000274396,0.000598678,-0.000412363,1.28391,0.000587019,0.0106136,825,568,-4.29596,10.8624
-392,456,-4.28961,-11.2685,0.000116614,-6.76318e-05,0.000517292,0.000549922,-0.00050094,0.697278,0.000606935,0.00952567,832,568,-4.28961,11.2685
-385,456,-4.31323,-11.6785,0.000620835,-0.00036759,0.000672906,0.000961517,-0.000708272,0.468663,0.000967742,0.00929753,839,568,-4.31325,11.6785
-378,456,-4.33636,-12.1025,0.00110451,-0.000632879,0.000817302,0.00142855,-0.000956917,0.377462,0.00138619,0.0104811,846,568,-4.33639,12.1025
-371,456,-4.33215,-12.5069,0.00165378,-0.000769398,0.000903358,0.00195348,-0.0010691,0.320339,0.00176981,0.0109522,853,568,-4.33218,12.5069
-364,456,-4.30762,-12.8604,0.00233806,-0.000702246,0.000847339,0.00255826,-0.000922453,0.254255,0.00208225,0.017615,860,568,-4.30759,12.8604
-357,456,-4.27765,-13.2866,0.00317762,-0.000600165,0.000614704,0.00327513,-0.00069767,0.157311,0.00244932,0.0292419,867,568,-4.27763,13.2866
-350,456,-4.08826,-14.0116,0,0,0,0,0,0,0,-1,874,568,-4.08826,14.0116
-343,456,-3.39081,-12.0217,0,0,0,0,0,0,0,-1,881,568,-3.39078,12.0217
-336,456,-3.04517,-12.4623,0,0,0,0,0,0,0,-1,888,568,-3.04519,12.4624
-329,456,-1.06183,-10.7184,0,0,0,0,0,0,0,-1,895,568,-1.06184,10.7184
-322,456,-0.662537,-7.66632,0,0,0,0,0,0,0,-1,902,568,-0.662564,7.66633
-315,456,-0.675476,-3.38397,0,0,0,0,0,0,0,-1,909,568,-0.675473,3.38399
-308,456,-1.1618,-3.15314,0,0,0,0,0,0,0,-1,916,568,-1.16178,3.15314
-301,456,-1.83551,-3.26447,0,0,0,0,0,0,0,-1,923,568,-1.8355,3.26449
-294,456,-2.93414,-3.35449,0,0,0,0,0,0,0,-1,930,568,-2.93413,3.35451
-287,456,-3.7569,-3.53101,0,0,0,0,0,0,0,-1,937,568,-3.75692,3.53101
-280,456,-13.072,4.52856,0,0,0,0,0,0,0,-1,944,568,-13.072,-4.52855
-273,456,-9.43524,-2.88342,0,0,0,0,0,0,0,-1,951,568,-9.43526,2.88342
-266,456,-6.01025,-7.18506,0,0,0,0,0,0,0,-1,958,568,-6.01026,7.18508
-259,456,0,0,0,0,0,0,0,0,0,-1,965,568,0,0
-252,456,0,0,0,0,0,0,0,0,0,-1,972,568,0,0
-245,456,0,0,0,0,0,0,0,0,0,-1,979,568,0,0
-238,456,0,0,0,0,0,0,0,0,0,-1,986,568,0,0
-231,456,0,0,0,0,0,0,0,0,0,-1,993,568,0,0
-224,456,0,0,0,0,0,0,0,0,0,-1,1000,568,0,0
-217,456,0,0,0,0,0,0,0,0,0,-1,1007,568,0,0
-210,456,0,0,0,0,0,0,0,0,0,-1,1014,568,0,0
-203,456,0,0,0,0,0,0,0,0,0,-1,1021,568,0,0
-196,456,0,0,0,0,0,0,0,0,0,-1,1028,568,0,0
-189,456,0,0,0,0,0,0,0,0,0,-1,1035,568,0,0
-182,456,0,0,0,0,0,0,0,0,0,-1,1042,568,0,0
-175,456,0,0,0,0,0,0,0,0,0,-1,1049,568,0,0
-168,456,0,0,0,0,0,0,0,0,0,-1,1056,568,0,0
-161,456,0,0,0,0,0,0,0,0,0,-1,1063,568,0,0
-154,456,0,0,0,0,0,0,0,0,0,-1,1070,568,0,0
-147,456,0,0,0,0,0,0,0,0,0,-1,1077,568,0,0
-140,456,0,0,0,0,0,0,0,0,0,-1,1084,568,0,0
-133,456,0,0,0,0,0,0,0,0,0,-1,1091,568,0,0
-126,456,0,0,0,0,0,0,0,0,0,-1,1098,568,0,0
-119,456,0,0,0,0,0,0,0,0,0,-1,1105,568,0,0
-112,456,0,0,0,0,0,0,0,0,0,-1,1112,568,0,0
-105,456,0,0,0,0,0,0,0,0,0,-1,1119,568,0,0
-98,456,0,0,0,0,0,0,0,0,0,-1,1126,568,0,0
-91,456,0,0,0,0,0,0,0,0,0,-1,1133,568,0,0
-84,456,0,0,0,0,0,0,0,0,0,-1,1140,568,0,0
-77,456,0,0,0,0,0,0,0,0,0,-1,1147,568,0,0
-70,456,0,0,0,0,0,0,0,0,0,-1,1154,568,0,0
-63,456,0,0,0,0,0,0,0,0,0,-1,1161,568,0,0
-56,456,0,0,0,0,0,0,0,0,0,-1,1168,568,0,0
-49,456,0,0,0,0,0,0,0,0,0,-1,1175,568,0,0
-42,456,0,0,0,0,0,0,0,0,0,-1,1182,568,0,0
-35,456,0,0,0,0,0,0,0,0,0,-1,1189,568,0,0
-28,456,0,0,0,0,0,0,0,0,0,-1,1196,568,0,0
-21,456,0,0,0,0,0,0,0,0,0,-1,1203,568,0,0
-14,456,0,0,0,0,0,0,0,0,0,-1,1210,568,0,0
-7,456,0,0,0,0,0,0,0,0,0,-1,1217,568,0,0
0,456,0,0,0,0,0,0,0,0,0,-1,1224,568,0,0
7,456,0,0,0,0,0,0,0,0,0,-1,1231,568,0,0
14,456,0,0,0,0,0,0,0,0,0,-1,1238,568,0,0
21,456,0,0,0,0,0,0,0,0,0,-1,1245,568,0,0
28,456,0,0,0,0,0,0,0,0,0,-1,1252,568,0,0
35,456,0,0,0,0,0,0,0,0,0,-1,1259,568,0,0
42,456,0,0,0,0,0,0,0,0,0,-1,1266,568,0,0
49,456,0,0,0,0,0,0,0,0,0,-1,1273,568,0,0
56,456,0,0,0,0,0,0,0,0,0,-1,1280,568,0,0
63,456,0,0,0,0,0,0,0,0,0,-1,1287,568,0,0
70,456,0,0,0,0,0,0,0,0,0,-1,1294,568,0,0
77,456,0,0,0,0,0,0,0,0,0,-1,1301,568,0,0
84,456,0,0,0,0,0,0,0,0,0,-1,1308,568,0,0
91,456,0,0,0,0,0,0,0,0,0,-1,1315,568,0,0
98,456,0,0,0,0,0,0,0,0,0,-1,1322,568,0,0
105,456,0,0,0,0,0,0,0,0,0,-1,1329,568,0,0
112,456,0,0,0,0,0,0,0,0,0,-1,1336,568,0,0
119,456,0,0,0,0,0,0,0,0,0,-1,1343,568,0,0
126,456,0,0,0,0,0,0,0,0,0,-1,1350,568,0,0
133,456,0,0,0,0,0,0,0,0,0,-1,1357,568,0,0
140,456,0,0,0,0,0,0,0,0,0,-1,1364,568,0,0
147,456,0,0,0,0,0,0,0,0,0,-1,1371,568,0,0
154,456,0,0,0,0,0,0,0,0,0,-1,1378,568,0,0
161,456,0,0,0,0,0,0,0,0,0,-1,1385,568,0,0
168,456,0,0,0,0,0,0,0,0,0,-1,1392,568,0,0
175,456,0,0,0,0,0,0,0,0,0,-1,1399,568,0,0
182,456,0,0,0,0,0,0,0,0,0,-1,1406,568,0,0
189,456,0,0,0,0,0,0,0,0,0,-1,1413,568,0,0
196,456,0,0,0,0,0,0,0,0,0,-1,1420,568,0,0
203,456,0,0,0,0,0,0,0,0,0,-1,1427,568,0,0
210,456,0,0,0,0,0,0,0,0,0,-1,1434,568,0,0
217,456,0,0,0,0,0,0,0,0,0,-1,1441,568,0,0
224,456,0,0,0,0,0,0,0,0,0,-1,1448,568,0,0
231,456,0,0,0,0,0,0,0,0,0,-1,1455,568,0,0
238,456,0,0,0,0,0,0,0,0,0,-1,1462,568,0,0
245,456,0,0,0,0,0,0,0,0,0,-1,1469,568,0,0
252,456,0,0,0,0,0,0,0,0,0,-1,1476,568,0,0
259,456,0,0,0,0,0,0,0,0,0,-1,1483,568,0,0
266,456,0,0,0,0,0,0,0,0,0,-1,1490,568,0,0
273,456,0,0,0,0,0,0,0,0,0,-1,1497,568,0,0
280,456,0,0,0,0,0,0,0,0,0,-1,1504,568,0,0
287,456,0,0,0,0,0,0,0,0,0,-1,1511,568,0,0
294,456,0,0,0,0,0,0,0,0,0,-1,1518,568,0,0
301,456,0,0,0,0,0,0,0,0,0,-1,1525,568,0,0
308,456,0,0,0,0,0,0,0,0,0,-1,1532,568,0,0
315,456,0,0,0,0,0,0,0,0,0,-1,1539,568,0,0
322,456,0,0,0,0,0,0,0,0,0,-1,1546,568,0,0
329,456,0,0,0,0,0,0,0,0,0,-1,1553,568,0,0
336,456,0,0,0,0,0,0,0,0,0,-1,1560,568,0,0
343,456,0,0,0,0,0,0,0,0,0,-1,1567,568,0,0
350,456,0,0,0,0,0,0,0,0,0,-1,1574,568,0,0
357,456,0,0,0,0,0,0,0,0,0,-1,1581,568,0,0
364,456,0,0,0,0,0,0,0,0,0,-1,1588,568,0,0
371,456,0,0,0,0,0,0,0,0,0,-1,1595,568,0,0
378,456,0,0,0,0,0,0,0,0,0,-1,1602,568,0,0
385,456,5.66284,0.660645,0,0,0,0,0,0,0,-1,1609,568,5.66285,-0.660615
392,456,17.5027,4.32971,0,0,0,0,0,0,0,-1,1616,568,17.5026,-4.32971
399,456,24.1917,5.99652,0,0,0,0,0,0,0,-1,1623,568,24.1916,-5.99651
406,456,24.446,4.53003,0,0,0,0,0,0,0,-1,1630,568,24.446,-4.53005
413,456,24.9418,2.90521,0,0,0,0,0,0,0,-1,1637,568,24.9418,-2.90524
420,456,25.3048,1.04712,0,0,0,0,0,0,0,-1,1644,568,25.3048,-1.04713
427,456,6.21375,2.02905,0,0,0,0,0,0,0,-1,1651,568,6.21372,-2.02904
434,456,3.0719,-4.86285,0,0,0,0,0,0,0,-1,1658,568,3.07184,4.86287
441,456,2.90344,-4.70459,0,0,0,0,0,0,0,-1,1665,568,2.90346,4.7046
448,456,3.06995,-4.93689,0,0,0,0,0,0,0,-1,1672,568,3.06991,4.93687
455,456,3.46582,-3.43701,0,0,0,0,0,0,0,-1,1679,568,3.46585,3.43698
462,456,4.68445,-4.45831,0,0,0,0,0,0,0,-1,1686,568,4.68439,4.45833
469,456,4.93201,-2.289,0,0,0,0,0,0,0,-1,1693,568,4.93197,2.28903
476,456,4.8363,-2.79364,0,0,0,0,0,0,0,-1,1700,568,4.83636,2.79363
483,456,11.9526,-12.5911,0,0,0,0,0,0,0,-1,1707,568,11.9526,12.591
490,456,12.366,-11.5928,0,0,0,0,0,0,0,-1,1714,568,12.366,11.5928
497,456,12.3644,-11.1325,0.00554308,0.00335638,0.00293185,0.00757881,0.00132065,0.606925,0.00467493,0.0398806,1721,568,12.3644,11.1325
504,456,12.361,-10.6514,0.00455954,0.00261696,0.00240049,0.0061778,0.000998705,0.593156,0.00382929,0.0122431,1728,568,12.3609,10.6515
511,456,12.3566,-10.2069,0.00359797,0.00196155,0.00189252,0.00484158,0.000717947,0.581363,0.00301701,0.0143087,1735,568,12.3565,10.2069
518,456,12.3566,-9.76807,0.0026144,0.00145343,0.00143764,0.00358433,0.000483499,0.59352,0.0022458,0.0162763,1742,568,12.3566,9.7681
525,456,12.3604,-9.33752,0.00167356,0.000987563,0.00102885,0.00241509,0.000246039,0.624502,0.00153463,0.0152081,1749,568,12.3604,9.33753
532,456,12.3523,-8.88043,0.000762052,0.00061698,0.000646269,0.00133984,3.91894e-05,0.729513,0.000880456,0.0151945,1756,568,12.3523,8.88046
539,456,12.3269,-8.40436,-0.000100648,0.000161487,0.000265534,0.00032654,-0.000265701,1.01466,0.000342531,0.0200491,1763,568,12.3269,8.40438
546,456,12.3127,-7.96387,-0.000867157,-0.000203873,-3.86844e-05,-0.000201625,-0.000869405,-1.51274,0.000525452,0.0223328,1770,568,12.3127,7.96389
553,456,12.286,-7.51324,-0.00158904,-0.000478537,-0.000306338,-0.000399638,-0.00166794,-1.31872,0.00100558,0.0130383,1777,568,12.286,7.51324
560,456,12.2882,-7.06415,-0.00229663,-0.000550844,-0.000414186,-0.000457562,-0.00238991,-1.34928,0.00146477,0.00984797,1784,568,12.2882,7.06416
567,456,12.2943,-6.58221,-0.00291779,-0.000667285,-0.000471501,-0.000572494,-0.00301258,-1.3724,0.00184737,0.015356,1791,568,12.2944,6.58222
574,456,12.2736,-6.30206,-0.00365418,-0.000675042,-0.00053434,-0.000582102,-0.00374712,-1.39858,0.00232843,0.0456311,1798,568,12.2736,6.30207
581,456,12.3372,-5.98145,0,0,0,0,0,0,0,-1,1805,568,12.3371,5.98146
588,456,5.23901,-0.0901489,0,0,0,0,0,0,0,-1,1812,568,5.23906,0.0901656
595,456,6.90063,3.14886,0,0,0,0,0,0,0,-1,1819,568,6.90066,-3.14887
602,456,16.894,4.10938,0,0,0,0,0,0,0,-1,1826,568,16.8941,-4.1094
609,456,14.9966,3.5708,0,0,0,0,0,0,0,-1,1833,568,14.9966,-3.57083
616,456,17.7407,2.6579,0,0,0,0,0,0,0,-1,1840,568,17.7408,-2.6579
623,456,20.6838,1.7121,0,0,0,0,0,0,0,-1,1847,568,20.6838,-1.71208
630,456,0,0,0,0,0,0,0,0,0,-1,1854,568,0,0
637,456,0,0,0,0,0,0,0,0,0,-1,1861,568,0,0
644,456,0,0,0,0,0,0,0,0,0,-1,1868,568,0,0
651,456,0,0,0,0,0,0,0,0,0,-1,1875,568,0,0
658,456,0,0,0,0,0,0,0,0,0,-1,1882,568,0,0
665,456,0,0,0,0,0,0,0,0,0,-1,1889,568,0,0
672,456,0,0,0,0,0,0,0,0,0,-1,1896,568,0,0
679,456,0,0,0,0,0,0,0,0,0,-1,1903,568,0,0
686,456,0,0,0,0,0,0,0,0,0,-1,1910,568,0,0
693,456,0,0,0,0,0,0,0,0,0,-1,1917,568,0,0
700,456,0,0,0,0,0,0,0,0,0,-1,1924,568,0,0
707,456,0,0,0,0,0,0,0,0,0,-1,1931,568,0,0
714,456,0,0,0,0,0,0,0,0,0,-1,1938,568,0,0
721,456,0,0,0,0,0,0,0,0,0,-1,1945,568,0,0
728,456,0,0,0,0,0,0,0,0,0,-1,1952,568,0,0
735,456,0,0,0,0,0,0,0,0,0,-1,1959,568,0,0
742,456,0,0,0,0,0,0,0,0,0,-1,1966,568,0,0
749,456,0,0,0,0,0,0,0,0,0,-1,1973,568,0,0
756,456,0,0,0,0,0,0,0,0,0,-1,1980,568,0,0
763,456,0,0,0,0,0,0,0,0,0,-1,1987,568,0,0
770,456,0,0,0,0,0,0,0,0,0,-1,1994,568,0,0
777,456,0,0,0,0,0,0,0,0,0,-1,2001,568,0,0
784,456,0,0,0,0,0,0,0,0,0,-1,2008,568,0,0
791,456,0,0,0,0,0,0,0,0,0,-1,2015,568,0,0
798,456,0,0,0,0,0,0,0,0,0,-1,2022,568,0,0
805,456,0,0,0,0,0,0,0,0,0,-1,2029,568,0,0
812,456,0,0,0,0,0,0,0,0,0,-1,2036,568,0,0
-700,449,0,0,0,0,0,0,0,0,0,-1,524,575,0,0
-693,449,0,0,0,0,0,0,0,0,0,-1,531,575,0,0
-686,449,0,0,0,0,0,0,0,0,0,-1,538,575,0,0
-679,449,0,0,0,0,0,0,0,0,0,-1,545,575,0,0
-672,449,0,0,0,0,0,0,0,0,0,-1,552,575,0,0
-665,449,0,0,0,0,0,0,0,0,0,-1,559,575,0,0
-658,449,0,0,0,0,0,0,0,0,0,-1,566,575,0,0
-651,449,0,0,0,0,0,0,0,0,0,-1,573,575,0,0
-644,449,0,0,0,0,0,0,0,0,0,-1,580,575,0,0
-637,449,0,0,0,0,0,0,0,0,0,-1,587,575,0,0
-630,449,0,0,0,0,0,0,0,0,0,-1,594,575,0,0
-623,449,0,0,0,0,0,0,0,0,0,-1,601,575,0,0
-616,449,0,0,0,0,0,0,0,0,0,-1,608,575,0,0
-609,449,0,0,0,0,0,0,0,0,0,-1,615,575,0,0
-602,449,0,0,0,0,0,0,0,0,0,-1,622,575,0,0
-595,449,0,0,0,0,0,0,0,0,0,-1,629,575,0,0
-588,449,0,0,0,0,0,0,0,0,0,-1,636,575,0,0
-581,449,0,0,0,0,0,0,0,0,0,-1,643,575,0,0
-574,449,0,0,0,0,0,0,0,0,0,-1,650,575,0,0
-567,449,0,0,0,0,0,0,0,0,0,-1,657,575,0,0
-560,449,0,0,0,0,0,0,0,0,0,-1,664,575,0,0
-553,449,0,0,0,0,0,0,0,0,0,-1,671,575,0,0
-546,449,0,0,0,0,0,0,0,0,0,-1,678,575,0,0
-539,449,0,0,0,0,0,0,0,0,0,-1,685,575,0,0
-532,449,0,0,0,0,0,0,0,0,0,-1,692,575,0,0
-525,449,0,0,0,0,0,0,0,0,0,-1,699,575,0,0
-518,449,0,0,0,0,0,0,0,0,0,-1,706,575,0,0
-511,449,-0.941345,-4.4519,0,0,0,0,0,0,0,-1,713,575,-0.941356,4.45191
-504,449,-14.1078,0.318237,0,0,0,0,0,0,0,-1,720,575,-14.1078,-0.318231
-497,449,-8.61292,-3.09009,0,0,0,0,0,0,0,-1,727,575,-8.61291,3.09011
-490,449,-7.50995,-2.96252,0,0,0,0,0,0,0,-1,734,575,-7.50995,2.96251
-483,449,-5.77789,-2.50061,0,0,0,0,0,0,0,-1,741,575,-5.77792,2.50059
-476,449,-4.1723,-2.07739,0,0,0,0,0,0,0,-1,748,575,-4.17228,2.0774
-469,449,-4.02954,-4.56329,0,0,0,0,0,0,0,-1,755,575,-4.02951,4.56329
-462,449,-4.49634,-6.78522,0,0,0,0,0,0,0,-1,762,575,-4.49634,6.78522
-455,449,-4.79858,-7.30627,0,0,0,0,0,0,0,-1,769,575,-4.7986,7.30626
-448,449,-4.63379,-7.78491,-0.00473374,0.00698478,-0.00264951,0.00755598,-0.00530494,-1.35846,0.00746308,0.0331463,776,575,-4.6338,7.78491
-441,449,-4.62335,-8.33313,-0.00364821,0.00548995,-0.00197274,0.00589764,-0.0040559,-1.36701,0.00577937,0.0168429,783,575,-4.62336,8.33315
-434,449,-4.67493,-8.71918,-0.00280739,0.00417951,-0.00136402,0.00443636,-0.00306424,-1.38467,0.00435456,0.0126914,790,575,-4.6749,8.71916
-427,449,-4.68616,-9.13318,-0.00212148,0.00303756,-0.000818783,0.00316439,-0.00224831,-1.41712,0.0031399,0.0129125,797,575,-4.68618,9.1332
-420,449,-4.68365,-9.58307,-0.00156946,0.00206749,-0.000357034,0.00210221,-0.00160417,-1.47386,0.00214631,0.012645,804,575,-4.68366,9.58305
-413,449,-4.68536,-10.0031,-0.00120173,0.00105317,0.00017419,0.00106654,-0.00121511,1.49415,0.00131824,0.0106632,811,575,-4.68538,10.003
-406,449,-4.71301,-10.4202,-0.000828096,0.000350771,0.000586289,0.000592702,-0.00107003,1.17943,0.000973073,0.0100621,818,575,-4.71298,10.4202
-399,449,-4.73767,-10.8553,-0.000514863,-0.000193986,0.000932178,0.000591459,-0.00130031,0.870619,0.00111748,0.00908204,825,575,-4.73767,10.8554
-392,449,-4.72583,-11.2656,-0.000189473,-0.000697212,0.00121335,0.00079628,-0.00168297,0.682271,0.00146159,0.0094296,832,575,-4.72584,11.2656
-385,449,-4.71484,-11.6613,0.000188389,-0.000954026,0.00139801,0.00112738,-0.00189302,0.591455,0.00176241,0.010187,839,575,-4.71485,11.6613
-378,449,-4.72888,-12.0745,0.000577325,-0.00118006,0.00157913,0.00150577,-0.00210851,0.531511,0.00209636,0.00923411,846,575,-4.72889,12.0745
-371,449,-4.72382,-12.4794,0.00112042,-0.00119366,0.00166409,0.00199018,-0.00206343,0.481617,0.00234048,0.0110219,853,575,-4.7238,12.4794
-364,449,-4.78607,-12.8996,0.00189242,-0.0009008,0.0015217,0.00256126,-0.00156964,0.414118,0.00240777,0.0331672,860,575,-4.78609,12.8996
-357,449,-4.88416,-13.397,0,0,0,0,0,0,0,-1,867,575,-4.88418,13.397
-350,449,-2.8764,-9.90204,0,0,0,0,0,0,0,-1,874,575,-2.87638,9.90203
-343,449,-2.98492,-9.2254,0,0,0,0,0,0,0,-1,881,575,-2.98491,9.22541
-336,449,-1.29523,-9.54626,0,0,0,0,0,0,0,-1,888,575,-1.29525,9.54626
-329,449,-0.733398,-7.78937,0,0,0,0,0,0,0,-1,895,575,-0.733398,7.78937
-322,449,-0.628845,-3.16669,0,0,0,0,0,0,0,-1,902,575,-0.628861,3.16667
-315,449,-0.540344,-3.21918,0,0,0,0,0,0,0,-1,909,575,-0.540336,3.21917
-308,449,-1.04413,-2.99341,0,0,0,0,0,0,0,-1,916,575,-1.04415,2.99338
-301,449,-1.58691,-2.80725,0,0,0,0,0,0,0,-1,923,575,-1.58692,2.80728
-294,449,-3.71118,-2.76086,0,0,0,0,0,0,0,-1,930,575,-3.71119,2.76087
-287,449,-4.4082,-2.69525,0,0,0,0,0,0,0,-1,937,575,-4.40822,2.69526
-280,449,-4.68903,-4.4364,0,0,0,0,0,0,0,-1,944,575,-4.68901,4.4364
-273,449,0,0,0,0,0,0,0,0,0,-1,951,575,0,0
-266,449,0,0,0,0,0,0,0,0,0,-1,958,575,0,0
-259,449,0,0,0,0,0,0,0,0,0,-1,965,575,0,0
-252,449,0,0,0,0,0,0,0,0,0,-1,972,575,0,0
-245,449,0,0,0,0,0,0,0,0,0,-1,979,575,0,0
-238,449,0,0,0,0,0,0,0,0,0,-1,986,575,0,0
-231,449,0,0,0,0,0,0,0,0,0,-1,993,575,0,0
-224,449,0,0,0,0,0,0,0,0,0,-1,1000,575,0,0
-217,449,0,0,0,0,0,0,0,0,0,-1,1007,575,0,0
-210,449,0,0,0,0,0,0,0,0,0,-1,1014,575,0,0
-203,449,0,0,0,0,0,0,0,0,0,-1,1021,575,0,0
-196,449,0,0,0,0,0,0,0,0,0,-1,1028,575,0,0
-189,449,0,0,0,0,0,0,0,0,0,-1,1035,575,0,0
-182,449,0,0,0,0,0,0,0,0,0,-1,1042,575,0,0
-175,449,0,0,0,0,0,0,0,0,0,-1,1049,575,0,0
-168,449,0,0,0,0,0,0,0,0,0,-1,1056,575,0,0
-161,449,0,0,0,0,0,0,0,0,0,-1,1063,575,0,0
-154,449,0,0,0,0,0,0,0,0,0,-1,1070,575,0,0
-147,449,0,0,0,0,0,0,0,0,0,-1,1077,575,0,0
-140,449,0,0,0,0,0,0,0,0,0,-1,1084,575,0,0
-133,449,0,0,0,0,0,0,0,0,0,-1,1091,575,0,0
-126,449,0,0,0,0,0,0,0,0,0,-1,1098,575,0,0
-119,449,0,0,0,0,0,0,0,0,0,-1,1105,575,0,0
-112,449,0,0,0,0,0,0,0,0,0,-1,1112,575,0,0
-105,449,0,0,0,0,0,0,0,0,0,-1,1119,575,0,0
-98,449,0,0,0,0,0,0,0,0,0,-1,1126,575,0,0
-91,449,0,0,0,0,0,0,0,0,0,-1,1133,575,0,0
-84,449,0,0,0,0,0,0,0,0,0,-1,1140,575,0,0
-77,449,0,0,0,0,0,0,0,0,0,-1,1147,575,0,0
-70,449,0,0,0,0,0,0,0,0,0,-1,1154,575,0,0
-63,449,0,0,0,0,0,0,0,0,0,-1,1161,575,0,0
-56,449,0,0,0,0,0,0,0,0,0,-1,1168,575,0,0
-49,449,0,0,0,0,0,0,0,0,0,-1,1175,575,0,0
-42,449,0,0,0,0,0,0,0,0,0,-1,1182,575,0,0
-35,449,0,0,0,0,0,0,0,0,0,-1,1189,575,0,0
-28,449,0,0,0,0,0,0,0,0,0,-1,1196,575,0,0
-21,449,0,0,0,0,0,0,0,0,0,-1,1203,575,0,0
-14,449,0,0,0,0,0,0,0,0,0,-1,1210,575,0,0
-7,449,0,0,0,0,0,0,0,0,0,-1,1217,575,0,0
0,449,0,0,0,0,0,0,0,0,0,-1,1224,575,0,0
7,449,0,0,0,0,0,0,0,0,0,-1,1231,575,0,0
14,449,0,0,0,0,0,0,0,0,0,-1,1238,575,0,0
21,449,0,0,0,0,0,0,0,0,0,-1,1245,575,0,0
28,449,0,0,0,0,0,0,0,0,0,-1,1252,575,0,0
35,449,0,0,0,0,0,0,0,0,0,-1,1259,575,0,0
42,449,0,0,0,0,0,0,0,0,0,-1,1266,575,0,0
49,449,0,0,0,0,0,0,0,0,0,-1,1273,575,0,0
56,449,0,0,0,0,0,0,0,0,0,-1,1280,575,0,0
63,449,0,0,0,0,0,0,0,0,0,-1,1287,575,0,0
70,449,0,0,0,0,0,0,0,0,0,-1,1294,575,0,0
77,449,0,0,0,0,0,0,0,0,0,-1,1301,575,0,0
84,449,0,0,0,0,0,0,0,0,0,-1,1308,575,0,0
91,449,0,0,0,0,0,0,0,0,0,-1,1315,575,0,0
98,449,0,0,0,0,0,0,0,0,0,-1,1322,575,0,0
105,449,0,0,0,0,0,0,0,0,0,-1,1329,575,0,0
112,449,0,0,0,0,0,0,0,0,0,-1,1336,575,0,0
119,449,0,0,0,0,0,0,0,0,0,-1,1343,575,0,0
126,449,0,0,0,0,0,0,0,0,0,-1,1350,575,0,0
133,449,0,0,0,0,0,0,0,0,0,-1,1357,575,0,0
140,449,0,0,0,0,0,0,0,0,0,-1,1364,575,0,0
147,449,0,0,0,0,0,0,0,0,0,-1,1371,575,0,0
154,449,0,0,0,0,0,0,0,0,0,-1,1378,575,0,0
161,449,0,0,0,0,0,0,0,0,0,-1,1385,575,0,0
168,449,0,0,0,0,0,0,0,0,0,-1,1392,575,0,0
175,449,0,0,0,0,0,0,0,0,0,-1,1399,575,0,0
182,449,0,0,0,0,0,0,0,0,0,-1,1406,575,0,0
189,449,0,0,0,0,0,0,0,0,0,-1,1413,575,0,0
196,449,0,0,0,0,0,0,0,0,0,-1,1420,575,0,0
203,449,0,0,0,0,0,0,0,0,0,-1,1427,575,0,0
210,449,0,0,0,0,0,0,0,0,0,-1,1434,575,0,0
217,449,0,0,0,0,0,0,0,0,0,-1,1441,575,0,0
224,449,0,0,0,0,0,0,0,0,0,-1,1448,575,0,0
231,449,0,0,0,0,0,0,0,0,0,-1,1455,575,0,0
238,449,0,0,0,0,0,0,0,0,0,-1,1462,575,0,0
245,449,0,0,0,0,0,0,0,0,0,-1,1469,575,0,0
252,449,0,0,0,0,0,0,0,0,0,-1,1476,575,0,0
259,449,0,0,0,0,0,0,0,0,0,-1,1483,575,0,0
266,449,0,0,0,0,0,0,0,0,0,-1,1490,575,0,0
273,449,0,0,0,0,0,0,0,0,0,-1,1497,575,0,0
280,449,0,0,0,0,0,0,0,0,0,-1,1504,575,0,0
287,449,0,0,0,0,0,0,0,0,0,-1,1511,575,0,0
294,449,0,0,0,0,0,0,0,0,0,-1,1518,575,0,0
301,449,0,0,0,0,0,0,0,0,0,-1,1525,575,0,0
308,449,0,0,0,0,0,0,0,0,0,-1,1532,575,0,0
315,449,0,0,0,0,0,0,0,0,0,-1,1539,575,0,0
322,449,0,0,0,0,0,0,0,0,0,-1,1546,575,0,0
329,449,0,0,0,0,0,0,0,0,0,-1,1553,575,0,0
336,449,0,0,0,0,0,0,0,0,0,-1,1560,575,0,0
343,449,0,0,0,0,0,0,0,0,0,-1,1567,575,0,0
350,449,0,0,0,0,0,0,0,0,0,-1,1574,575,0,0
357,449,0,0,0,0,0,0,0,0,0,-1,1581,575,0,0
364,449,0,0,0,0,0,0,0,0,0,-1,1588,575,0,0
371,449,0,0,0,0,0,0,0,0,0,-1,1595,575,0,0
378,449,0,0,0,0,0,0,0,0,0,-1,1602,575,0,0
385,449,0,0,0,0,0,0,0,0,0,-1,1609,575,0,0
392,449,7.95471,3.66217,0,0,0,0,0,0,0,-1,1616,575,7.95471,-3.66218
399,449,19.9791,5.565,0,0,0,0,0,0,0,-1,1623,575,19.9791,-5.56499
406,449,24.9847,4.55969,0,0,0,0,0,0,0,-1,1630,575,24.9848,-4.55968
413,449,23.5795,3.19586,0,0,0,0,0,0,0,-1,1637,575,23.5795,-3.19584
420,449,23.9675,1.29718,0,0,0,0,0,0,0,-1,1644,575,23.9675,-1.29721
427,449,24.4276,-0.596558,0,0,0,0,0,0,0,-1,1651,575,24.4277,0.596569
434,449,25.61,-2.96594,0,0,0,0,0,0,0,-1,1658,575,25.61,2.96595
441,449,3.89856,-6.06458,0,0,0,0,0,0,0,-1,1665,575,3.89855,6.06459
448,449,4.03198,-5.18207,0,0,0,0,0,0,0,-1,1672,575,4.03197,5.18207
455,449,4.21948,-4.09467,0,0,0,0,0,0,0,-1,1679,575,4.21952,4.09465
462,449,4.23181,-2.96924,0,0,0,0,0,0,0,-1,1686,575,4.23185,2.96926
469,449,4.51672,-2.95135,0,0,0,0,0,0,0,-1,1693,575,4.51672,2.95135
476,449,4.71838,-1.86688,0,0,0,0,0,0,0,-1,1700,575,4.71842,1.86689
483,449,4.87878,-1.73126,0,0,0,0,0,0,0,-1,1707,575,4.87875,1.73128
490,449,5.73279,-2.74573,0,0,0,0,0,0,0,-1,1714,575,5.73282,2.74575
497,449,12.6687,-11.1873,0,0,0,0,0,0,0,-1,1721,575,12.6687,11.1873
504,449,12.7351,-10.6465,0.005493,0.00332851,0.00308084,0.00767616,0.00114536,0.61649,0.0047816,0.0430285,1728,575,12.7351,10.6465
511,449,12.8062,-10.2077,0.00446708,0.00253574,0.00243257,0.00611864,0.00088417,0.59645,0.00381865,0.0120694,1735,575,12.8062,10.2077
518,449,12.8154,-9.7652,0.00348563,0.00193925,0.00190999,0.00477299,0.000651887,0.593073,0.00298849,0.0136016,1742,575,12.8155,9.76517
525,449,12.7882,-9.34247,0.0025375,0.00148228,0.00147051,0.00357219,0.000447591,0.613154,0.00224717,0.0124756,1749,575,12.7882,9.34244
532,449,12.7589,-8.89941,0.00164555,0.00107606,0.00105944,0.00245784,0.000263769,0.654117,0.0015581,0.0104977,1756,575,12.7589,8.8994
539,449,12.7362,-8.42474,0.000821333,0.000585356,0.000655334,0.00136922,3.74739e-05,0.696331,0.000900579,0.0135078,1763,575,12.7363,8.42475
546,449,12.7424,-7.96417,0.000122139,0.000217846,0.0003539,0.000527114,-0.000187129,0.8526,0.000427657,0.0227827,1770,575,12.7424,7.96416
553,449,12.7256,-7.53723,-0.000531266,-8.21558e-05,8.8088e-05,-6.54962e-05,-0.000547925,1.38388,0.000345527,0.0156279,1777,575,12.7256,7.53725
560,449,12.7507,-7.08563,-0.00118886,-0.000157988,-1.84516e-05,-0.000157658,-0.00118919,-1.5529,0.000745817,0.0133651,1784,575,12.7507,7.08566
567,449,12.729,-6.60266,-0.00175185,-0.000251755,-7.31397e-05,-0.000248197,-0.00175541,-1.52219,0.00109694,0.0100004,1791,575,12.729,6.60268
574,449,12.738,-6.11279,-0.00238989,-0.000234163,-0.000105109,-0.000229051,-0.00239501,-1.52219,0.00152606,0.0221854,1798,575,12.7381,6.11276
581,449,12.7783,-5.47333,0,0,0,0,0,0,0,-1,1805,575,12.7783,5.47333
588,449,12.3274,-4.5672,0,0,0,0,0,0,0,-1,1812,575,12.3274,4.5672
595,449,11.2511,-2.25397,0,0,0,0,0,0,0,-1,1819,575,11.2511,2.25397
602,449,9.46167,4.17444,0,0,0,0,0,0,0,-1,1826,575,9.46164,-4.17442
609,449,12.2028,3.18652,0,0,0,0,0,0,0,-1,1833,575,12.2027,-3.18655
616,449,14.9438,2.19867,0,0,0,0,0,0,0,-1,1840,575,14.9438,-2.19867
623,449,9.83789,-0.0820313,0,0,0,0,0,0,0,-1,1847,575,9.83794,0.0820443
630,449,8.90686,4.99329,0,0,0,0,0,0,0,-1,1854,575,8.90685,-4.99327
637,449,0,0,0,0,0,0,0,0,0,-1,1861,575,0,0
644,449,0,0,0,0,0,0,0,0,0,-1,1868,575,0,0
651,449,0,0,0,0,0,0,0,0,0,-1,1875,575,0,0
658,449,0,0,0,0,0,0,0,0,0,-1,1882,575,0,0
665,449,0,0,0,0,0,0,0,0,0,-1,1889,575,0,0
672,449,0,0,0,0,0,0,0,0,0,-1,1896,575,0,0
679,449,0,0,0,0,0,0,0,0,0,-1,1903,575,0,0
686,449,0,0,0,0,0,0,0,0,0,-1,1910,575,0,0
693,449,0,0,0,0,0,0,0,0,0,-1,1917,575,0,0
700,449,0,0,0,0,0,0,0,0,0,-1,1924,575,0,0
707,449,0,0,0,0,0,0,0,0,0,-1,1931,575,0,0
714,449,0,0,0,0,0,0,0,0,0,-1,1938,575,0,0
721,449,0,0,0,0,0,0,0,0,0,-1,1945,575,0,0
728,449,0,0,0,0,0,0,0,0,0,-1,1952,575,0,0
735,449,0,0,0,0,0,0,0,0,0,-1,1959,575,0,0
742,449,0,0,0,0,0,0,0,0,0,-1,1966,575,0,0
749,449,0,0,0,0,0,0,0,0,0,-1,1973,575,0,0
756,449,0,0,0,0,0,0,0,0,0,-1,1980,575,0,0
763,449,0,0,0,0,0,0,0,0,0,-1,1987,575,0,0
770,449,0,0,0,0,0,0,0,0,0,-1,1994,575,0,0
777,449,0,0,0,0,0,0,0,0,0,-1,2001,575,0,0
784,449,0,0,0,0,0,0,0,0,0,-1,2008,575,0,0
791,449,0,0,0,0,0,0,0,0,0,-1,2015,575,0,0
798,449,0,0,0,0,0,0,0,0,0,-1,2022,575,0,0
805,449,0,0,0,0,0,0,0,0,0,-1,2029,575,0,0
812,449,0,0,0,0,0,0,0,0,0,-1,2036,575,0,0
-700,442,0,0,0,0,0,0,0,0,0,-1,524,582,0,0
-693,442,0,0,0,0,0,0,0,0,0,-1,531,582,0,0
-686,442,0,0,0,0,0,0,0,0,0,-1,538,582,0,0
-679,442,0,0,0,0,0,0,0,0,0,-1,545,582,0,0
-672,442,0,0,0,0,0,0,0,0,0,-1,552,582,0,0
-665,442,0,0,0,0,0,0,0,0,0,-1,559,582,0,0
-658,442,0,0,0,0,0,0,0,0,0,-1,566,582,0,0
-651,442,0,0,0,0,0,0,0,0,0,-1,573,582,0,0
-644,442,0,0,0,0,0,0,0,0,0,-1,580,582,0,0
-637,442,0,0,0,0,0,0,0,0,0,-1,587,582,0,0
-630,442,0,0,0,0,0,0,0,0,0,-1,594,582,0,0
-623,442,0,0,0,0,0,0,0,0,0,-1,601,582,0,0
-616,442,0,0,0,0,0,0,0,0,0,-1,608,582,0,0
-609,442,0,0,0,0,0,0,0,0,0,-1,615,582,0,0
-602,442,0,0,0,0,0,0,0,0,0,-1,622,582,0,0
-595,442,0,0,0,0,0,0,0,0,0,-1,629,582,0,0
-588,442,0,0,0,0,0,0,0,0,0,-1,636,582,0,0
-581,442,0,0,0,0,0,0,0,0,0,-1,643,582,0,0
-574,442,0,0,0,0,0,0,0,0,0,-1,650,582,0,0
-567,442,0,0,0,0,0,0,0,0,0,-1,657,582,0,0
-560,442,0,0,0,0,0,0,0,0,0,-1,664,582,0,0
-553,442,0,0,0,0,0,0,0,0,0,-1,671,582,0,0
-546,442,0,0,0,0,0,0,0,0,0,-1,678,582,0,0
-539,442,0,0,0,0,0,0,0,0,0,-1,685,582,0,0
-532,442,0,0,0,0,0,0,0,0,0,-1,692,582,0,0
-525,442,0,0,0,0,0,0,0,0,0,-1,699,582,0,0
-518,442,-0.493774,-5.72943,0,0,0,0,0,0,0,-1,706,582,-0.493791,5.72946
-511,442,-1.33008,-6.18512,0,0,0,0,0,0,0,-1,713,582,-1.33006,6.18511
-504,442,-3.20807,-6.34082,0,0,0,0,0,0,0,-1,720,582,-3.2081,6.34083
-497,442,-13.6886,-0.250122,0,0,0,0,0,0,0,-1,727,582,-13.6886,0.250143
-490,442,-9.09039,-3.64862,0,0,0,0,0,0,0,-1,734,582,-9.09037,3.64861
-483,442,-7.36499,-1.01892,0,0,0,0,0,0,0,-1,741,582,-7.365,1.01895
-476,442,-4.62225,-3.47467,0,0,0,0,0,0,0,-1,748,582,-4.62225,3.47465
-469,442,-4.66797,-6.08459,0,0,0,0,0,0,0,-1,755,582,-4.66794,6.0846
-462,442,-4.90448,-6.85583,-0.00586051,0.00839987,-0.00363128,0.00927129,-0.00673193,-1.33527,0.00927816,0.0419672,762,582,-4.90446,6.85583
-455,442,-5.12305,-7.38885,-0.0044642,0.00692403,-0.00303112,0.00768055,-0.00522071,-1.32621,0.00749354,0.034765,769,582,-5.12305,7.38884
-448,442,-5.03644,-7.86121,-0.00351478,0.00555624,-0.00232751,0.00611859,-0.00407712,-1.33373,0.0059257,0.015443,776,582,-5.03647,7.86118
-441,442,-5.06714,-8.30188,-0.00273285,0.00422736,-0.00163545,0.00459249,-0.00309798,-1.35114,0.00446795,0.0142313,783,582,-5.06711,8.30189
-434,442,-5.09119,-8.70758,-0.00214499,0.00309038,-0.0010015,0.00327542,-0.00233003,-1.38809,0.00325162,0.0132188,790,582,-5.09118,8.70758
-427,442,-5.11365,-9.1311,-0.00167075,0.00204612,-0.000408246,0.00209043,-0.00171506,-1.46268,0.00220066,0.0124965,797,582,-5.11363,9.13107
-420,442,-5.11218,-9.57465,-0.00130036,0.00116035,0.000110707,0.00116532,-0.00130533,1.52593,0.00142719,0.012262,804,582,-5.11219,9.57466
-413,442,-5.09479,-9.99072,-0.00109818,0.000226409,0.000705581,0.000531832,-0.00140361,1.16228,0.00115459,0.0103766,811,582,-5.09479,9.99073
-406,442,-5.10785,-10.4149,-0.000893191,-0.000429606,0.00118405,0.00054513,-0.00186793,0.882057,0.00146129,0.00919518,818,582,-5.10788,10.4149
-399,442,-5.13165,-10.8481,-0.000725032,-0.000934602,0.00158976,0.000763395,-0.00242303,0.75249,0.00192106,0.00803502,825,582,-5.13164,10.8481
-392,442,-5.14246,-11.2523,-0.000529668,-0.00131938,0.00192173,0.00103735,-0.0028864,0.684073,0.00234773,0.0105934,832,582,-5.14245,11.2523
-385,442,-5.13745,-11.6397,-0.000311964,-0.0015102,0.00216336,0.0013337,-0.00315587,0.650314,0.00266227,0.0126266,839,582,-5.13748,11.6397
-378,442,-5.13611,-12.0727,-6.65611e-05,-0.00167669,0.00242526,0.00168376,-0.00342701,0.625146,0.00300738,0.013034,846,582,-5.13611,12.0727
-371,442,-5.1145,-12.5014,0.000426005,-0.0015368,0.00256519,0.00219112,-0.00330192,0.602697,0.00319295,0.032566,853,582,-5.11453,12.5014
-364,442,-5.01672,-12.8654,0,0,0,0,0,0,0,-1,860,582,-5.01673,12.8654
-357,442,-4.9115,-11.2649,0,0,0,0,0,0,0,-1,867,582,-4.91147,11.2649
-350,442,-1.75372,-6.27618,0,0,0,0,0,0,0,-1,874,582,-1.75371,6.27618
-343,442,-1.4599,-4.63605,0,0,0,0,0,0,0,-1,881,582,-1.4599,4.63607
-336,442,-1.4054,-2.64313,0,0,0,0,0,0,0,-1,888,582,-1.40539,2.64315
-329,442,-0.952576,-2.76923,0,0,0,0,0,0,0,-1,895,582,-0.952571,2.7692
-322,442,-0.972534,-2.63208,0,0,0,0,0,0,0,-1,902,582,-0.972512,2.6321
-315,442,-0.445557,-2.89764,0,0,0,0,0,0,0,-1,909,582,-0.445582,2.89765
-308,442,-0.654175,-3.07831,0,0,0,0,0,0,0,-1,916,582,-0.654145,3.07832
-301,442,-1.37427,-2.41455,0,0,0,0,0,0,0,-1,923,582,-1.37425,2.41453
-294,442,-2.99963,-2.07855,0,0,0,0,0,0,0,-1,930,582,-2.99964,2.07857
-287,442,-5.62799,-2.76422,0,0,0,0,0,0,0,-1,937,582,-5.628,2.76424
-280,442,0,0,0,0,0,0,0,0,0,-1,944,582,0,0
-273,442,0,0,0,0,0,0,0,0,0,-1,951,582,0,0
-266,442,0,0,0,0,0,0,0,0,0,-1,958,582,0,0
-259,442,0,0,0,0,0,0,0,0,0,-1,965,582,0,0
-252,442,0,0,0,0,0,0,0,0,0,-1,972,582,0,0
-245,442,0,0,0,0,0,0,0,0,0,-1,979,582,0,0
-238,442,0,0,0,0,0,0,0,0,0,-1,986,582,0,0
-231,442,0,0,0,0,0,0,0,0,0,-1,993,582,0,0
-224,442,0,0,0,0,0,0,0,0,0,-1,1000,582,0,0
-217,442,0,0,0,0,0,0,0,0,0,-1,1007,582,0,0
-210,442,0,0,0,0,0,0,0,0,0,-1,1014,582,0,0
-203,442,0,0,0,0,0,0,0,0,0,-1,1021,582,0,0
-196,442,0,0,0,0,0,0,0,0,0,-1,1028,582,0,0
-189,442,0,0,0,0,0,0,0,0,0,-1,1035,582,0,0
-182,442,0,0,0,0,0,0,0,0,0,-1,1042,582,0,0
-175,442,0,0,0,0,0,0,0,0,0,-1,1049,582,0,0
-168,442,0,0,0,0,0,0,0,0,0,-1,1056,582,0,0
-161,442,0,0,0,0,0,0,0,0,0,-1,1063,582,0,0
-154,442,0,0,0,0,0,0,0,0,0,-1,1070,582,0,0
-147,442,0,0,0,0,0,0,0,0,0,-1,1077,582,0,0
-140,442,0,0,0,0,0,0,0,0,0,-1,1084,582,0,0
-133,442,0,0,0,0,0,0,0,0,0,-1,1091,582,0,0
-126,442,0,0,0,0,0,0,0,0,0,-1,1098,582,0,0
-119,442,0,0,0,0,0,0,0,0,0,-1,1105,582,0,0
-112,442,0,0,0,0,0,0,0,0,0,-1,1112,582,0,0
-105,442,0,0,0,0,0,0,0,0,0,-1,1119,582,0,0
-98,442,0,0,0,0,0,0,0,0,0,-1,1126,582,0,0
-91,442,0,0,0,0,0,0,0,0,0,-1,1133,582,0,0
-84,442,0,0,0,0,0,0,0,0,0,-1,1140,582,0,0
-77,442,0,0,0,0,0,0,0,0,0,-1,1147,582,0,0
-70,442,0,0,0,0,0,0,0,0,0,-1,1154,582,0,0
-63,442,0,0,0,0,0,0,0,0,0,-1,1161,582,0,0
-56,442,0,0,0,0,0,0,0,0,0,-1,1168,582,0,0
-49,442,0,0,0,0,0,0,0,0,0,-1,1175,582,0,0
-42,442,0,0,0,0,0,0,0,0,0,-1,1182,582,0,0
-35,442,0,0,0,0,0,0,0,0,0,-1,1189,582,0,0
-28,442,0,0,0,0,0,0,0,0,0,-1,1196,582,0,0
-21,442,0,0,0,0,0,0,0,0,0,-1,1203,582,0,0
-14,442,0,0,0,0,0,0,0,0,0,-1,1210,582,0,0
-7,442,0,0,0,0,0,0,0,0,0,-1,1217,582,0,0
0,442,0,0,0,0,0,0,0,0,0,-1,1224,582,0,0
7,442,0,0,0,0,0,0,0,0,0,-1,1231,582,0,0
14,442,0,0,0,0,0,0,0,0,0,-1,1238,582,0,0
21,442,0,0,0,0,0,0,0,0,0,-1,1245,582,0,0
28,442,0,0,0,0,0,0,0,0,0,-1,1252,582,0,0
35,442,0,0,0,0,0,0,0,0,0,-1,1259,582,0,0
42,442,0,0,0,0,0,0,0,0,0,-1,1266,582,0,0
49,442,0,0,0,0,0,0,0,0,0,-1,1273,582,0,0
56,442,0,0,0,0,0,0,0,0,0,-1,1280,582,0,0
63,442,0,0,0,0,0,0,0,0,0,-1,1287,582,0,0
70,442,0,0,0,0,0,0,0,0,0,-1,1294,582,0,0
77,442,0,0,0,0,0,0,0,0,0,-1,1301,582,0,0
84,442,0,0,0,0,0,0,0,0,0,-1,1308,582,0,0
91,442,0,0,0,0,0,0,0,0,0,-1,1315,582,0,0
98,442,0,0,0,0,0,0,0,0,0,-1,1322,582,0,0
105,442,0,0,0,0,0,0,0,0,0,-1,1329,582,0,0
112,442,0,0,0,0,0,0,0,0,0,-1,1336,582,0,0
119,442,0,0,0,0,0,0,0,0,0,-1,1343,582,0,0
126,442,0,0,0,0,0,0,0,0,0,-1,1350,582,0,0
133,442,0,0,0,0,0,0,0,0,0,-1,1357,582,0,0
140,442,0,0,0,0,0,0,0,0,0,-1,1364,582,0,0
147,442,0,0,0,0,0,0,0,0,0,-1,1371,582,0,0
154,442,0,0,0,0,0,0,0,0,0,-1,1378,582,0,0
161,442,0,0,0,0,0,0,0,0,0,-1,1385,582,0,0
168,442,0,0,0,0,0,0,0,0,0,-1,1392,582,0,0
175,442,0,0,0,0,0,0,0,0,0,-1,1399,582,0,0
182,442,0,0,0,0,0,0,0,0,0,-1,1406,582,0,0
189,442,0,0,0,0,0,0,0,0,0,-1,1413,582,0,0
196,442,0,0,0,0,0,0,0,0,0,-1,1420,582,0,0
203,442,0,0,0,0,0,0,0,0,0,-1,1427,582,0,0
210,442,0,0,0,0,0,0,0,0,0,-1,1434,582,0,0
217,442,0,0,0,0,0,0,0,0,0,-1,1441,582,0,0
224,442,0,0,0,0,0,0,0,0,0,-1,1448,582,0,0
231,442,0,0,0,0,0,0,0,0,0,-1,1455,582,0,0
238,442,0,0,0,0,0,0,0,0,0,-1,1462,582,0,0
245,442,0,0,0,0,0,0,0,0,0,-1,1469,582,0,0
252,442,0,0,0,0,0,0,0,0,0,-1,1476,582,0,0
259,442,0,0,0,0,0,0,0,0,0,-1,1483,582,0,0
266,442,0,0,0,0,0,0,0,0,0,-1,1490,582,0,0
273,442,0,0,0,0,0,0,0,0,0,-1,1497,582,0,0
280,442,0,0,0,0,0,0,0,0,0,-1,1504,582,0,0
287,442,0,0,0,0,0,0,0,0,0,-1,1511,582,0,0
294,442,0,0,0,0,0,0,0,0,0,-1,1518,582,0,0
301,442,0,0,0,0,0,0,0,0,0,-1,1525,582,0,0
308,442,0,0,0,0,0,0,0,0,0,-1,1532,582,0,0
315,442,0,0,0,0,0,0,0,0,0,-1,1539,582,0,0
322,442,0,0,0,0,0,0,0,0,0,-1,1546,582,0,0
329,442,0,0,0,0,0,0,0,0,0,-1,1553,582,0,0
336,442,0,0,0,0,0,0,0,0,0,-1,1560,582,0,0
343,442,0,0,0,0,0,0,0,0,0,-1,1567,582,0,0
350,442,0,0,0,0,0,0,0,0,0,-1,1574,582,0,0
357,442,0,0,0,0,0,0,0,0,0,-1,1581,582,0,0
364,442,0,0,0,0,0,0,0,0,0,-1,1588,582,0,0
371,442,0,0,0,0,0,0,0,0,0,-1,1595,582,0,0
378,442,0,0,0,0,0,0,0,0,0,-1,1602,582,0,0
385,442,0,0,0,0,0,0,0,0,0,-1,1609,582,0,0
392,442,0,0,0,0,0,0,0,0,0,-1,1616,582,0,0
399,442,0,0,0,0,0,0,0,0,0,-1,1623,582,0,0
406,442,17.6321,4.08295,0,0,0,0,0,0,0,-1,1630,582,17.6321,-4.08293
413,442,22.1273,3.56525,0,0,0,0,0,0,0,-1,1637,582,22.1273,-3.56525
420,442,22.7478,1.55011,0,0,0,0,0,0,0,-1,1644,582,22.7478,-1.55009
427,442,23.2969,-0.456787,0,0,0,0,0,0,0,-1,1651,582,23.2968,0.456769
434,442,23.9512,-2.49365,0,0,0,0,0,0,0,-1,1658,582,23.9512,2.49366
441,442,24.8251,-4.43958,0,0,0,0,0,0,0,-1,1665,582,24.8251,4.43956
448,442,4.7749,-5.88562,0,0,0,0,0,0,0,-1,1672,582,4.7749,5.8856
455,442,4.87024,-4.60687,0,0,0,0,0,0,0,-1,1679,582,4.87019,4.60686
462,442,5.02307,-3.72821,0,0,0,0,0,0,0,-1,1686,582,5.02311,3.7282
469,442,5.12976,-2.98834,0,0,0,0,0,0,0,-1,1693,582,5.12971,2.98834
476,442,5.4624,1.76947,0,0,0,0,0,0,0,-1,1700,582,5.46234,-1.76944
483,442,5.98486,1.87042,0,0,0,0,0,0,0,-1,1707,582,5.98492,-1.87045
490,442,5.04407,-2.35834,0,0,0,0,0,0,0,-1,1714,582,5.04411,2.35837
497,442,6.20984,-3.07831,0,0,0,0,0,0,0,-1,1721,582,6.2098,3.07833
504,442,12.9965,-10.6291,0,0,0,0,0,0,0,-1,1728,582,12.9965,10.6291
511,442,13.1617,-10.2271,0.00523758,0.00323311,0.00288086,0.00728556,0.00118512,0.617999,0.00451416,0.0302425,1735,582,13.1618,10.227
518,442,13.2471,-9.73657,0.00425181,0.00245486,0.00230689,0.00582902,0.00087765,0.599698,0.00362901,0.0119812,1742,582,13.2471,9.73655
525,442,13.219,-9.32208,0.00327697,0.00195197,0.00184922,0.00457877,0.000650158,0.613391,0.00286053,0.0101494,1749,582,13.219,9.32208
532,442,13.2128,-8.87799,0.00238217,0.00145862,0.00141636,0.00341014,0.000430656,0.627817,0.00214434,0.0100461,1756,582,13.2128,8.87801
539,442,13.2007,-8.41168,0.00157911,0.000925786,0.00100048,0.0023049,0.000199988,0.627602,0.00147447,0.0113042,1763,582,13.2007,8.41166
546,442,13.2014,-7.96942,0.000918889,0.000557168,0.000705956,0.00146678,9.27318e-06,0.659999,0.00097478,0.0146501,1770,582,13.2014,7.9694
553,442,13.1803,-7.52789,0.000294441,0.000243008,0.000441558,0.000711031,-0.000173581,0.756311,0.000541241,0.0157103,1777,582,13.1802,7.52791
560,442,13.1932,-7.0675,-0.000352847,0.000176317,0.000323828,0.000329907,-0.000506437,1.12792,0.000486436,0.0144981,1784,582,13.1933,7.0675
567,442,13.1608,-6.59735,-0.000906347,0.000132406,0.000266466,0.000196772,-0.000970714,1.33378,0.000721731,0.0101143,1791,582,13.1608,6.59735
574,442,13.1605,-6.13379,-0.00148486,0.000238297,0.000270847,0.000279866,-0.00152643,1.41851,0.0011226,0.0122443,1798,582,13.1605,6.13376
581,442,13.2114,-5.6131,-0.00214415,0.000534048,0.000371139,0.000584529,-0.00219463,1.43561,0.00169193,0.0248322,1805,582,13.2114,5.61313
588,442,13.3209,-5.08118,0,0,0,0,0,0,0,-1,1812,582,13.3209,5.08115
595,442,13.1345,-4.89276,0,0,0,0,0,0,0,-1,1819,582,13.1345,4.89275
602,442,11.4385,-1.74512,0,0,0,0,0,0,0,-1,1826,582,11.4385,1.74509
609,442,12.761,2.97223,0,0,0,0,0,0,0,-1,1833,582,12.761,-2.97221
616,442,9.78345,-0.103394,0,0,0,0,0,0,0,-1,1840,582,9.78341,0.103424
623,442,9.23828,0.326721,0,0,0,0,0,0,0,-1,1847,582,9.23829,-0.326727
630,442,7.74304,2.3924,0,0,0,0,0,0,0,-1,1854,582,7.7431,-2.39238
637,442,5.87805,1.84027,0,0,0,0,0,0,0,-1,1861,582,5.87807,-1.84025
644,442,0,0,0,0,0,0,0,0,0,-1,1868,582,0,0
651,442,0,0,0,0,0,0,0,0,0,-1,1875,582,0,0
658,442,0,0,0,0,0,0,0,0,0,-1,1882,582,0,0
665,442,0,0,0,0,0,0,0,0,0,-1,1889,582,0,0
672,442,0,0,0,0,0,0,0,0,0,-1,1896,582,0,0
679,442,0,0,0,0,0,0,0,0,0,-1,1903,582,0,0
686,442,0,0,0,0,0,0,0,0,0,-1,1910,582,0,0
693,442,0,0,0,0,0,0,0,0,0,-1,1917,582,0,0
700,442,0,0,0,0,0,0,0,0,0,-1,1924,582,0,0
707,442,0,0,0,0,0,0,0,0,0,-1,1931,582,0,0
714,442,0,0,0,0,0,0,0,0,0,-1,1938,582,0,0
721,442,0,0,0,0,0,0,0,0,0,-1,1945,582,0,0
728,442,0,0,0,0,0,0,0,0,0,-1,1952,582,0,0
735,442,0,0,0,0,0,0,0,0,0,-1,1959,582,0,0
742,442,0,0,0,0,0,0,0,0,0,-1,1966,582,0,0
749,442,0,0,0,0,0,0,0,0,0,-1,1973,582,0,0
756,442,0,0,0,0,0,0,0,0,0,-1,1980,582,0,0
763,442,0,0,0,0,0,0,0,0,0,-1,1987,582,0,0
770,442,0,0,0,0,0,0,0,0,0,-1,1994,582,0,0
777,442,0,0,0,0,0,0,0,0,0,-1,2001,582,0,0
784,442,0,0,0,0,0,0,0,0,0,-1,2008,582,0,0
791,442,0,0,0,0,0,0,0,0,0,-1,2015,582,0,0
798,442,0,0,0,0,0,0,0,0,0,-1,2022,582,0,0
805,442,0,0,0,0,0,0,0,0,0,-1,2029,582,0,0
812,442,0,0,0,0,0,0,0,0,0,-1,2036,582,0,0
-700,435,0,0,0,0,0,0,0,0,0,-1,524,589,0,0
-693,435,0,0,0,0,0,0,0,0,0,-1,531,589,0,0
-686,435,0,0,0,0,0,0,0,0,0,-1,538,589,0,0
-679,435,0,0,0,0,0,0,0,0,0,-1,545,589,0,0
-672,435,0,0,0,0,0,0,0,0,0,-1,552,589,0,0
-665,435,0,0,0,0,0,0,0,0,0,-1,559,589,0,0
-658,435,0,0,0,0,0,0,0,0,0,-1,566,589,0,0
-651,435,0,0,0,0,0,0,0,0,0,-1,573,589,0,0
-644,435,0,0,0,0,0,0,0,0,0,-1,580,589,0,0
-637,435,0,0,0,0,0,0,0,0,0,-1,587,589,0,0
-630,435,0,0,0,0,0,0,0,0,0,-1,594,589,0,0
-623,435,0,0,0,0,0,0,0,0,0,-1,601,589,0,0
-616,435,0,0,0,0,0,0,0,0,0,-1,608,589,0,0
-609,435,0,0,0,0,0,0,0,0,0,-1,615,589,0,0
-602,435,0,0,0,0,0,0,0,0,0,-1,622,589,0,0
-595,435,0,0,0,0,0,0,0,0,0,-1,629,589,0,0
-588,435,0,0,0,0,0,0,0,0,0,-1,636,589,0,0
-581,435,0,0,0,0,0,0,0,0,0,-1,643,589,0,0
-574,435,0,0,0,0,0,0,0,0,0,-1,650,589,0,0
-567,435,0,0,0,0,0,0,0,0,0,-1,657,589,0,0
-560,435,0,0,0,0,0,0,0,0,0,-1,664,589,0,0
-553,435,0,0,0,0,0,0,0,0,0,-1,671,589,0,0
-546,435,0,0,0,0,0,0,0,0,0,-1,678,589,0,0
-539,435,0,0,0,0,0,0,0,0,0,-1,685,589,0,0
-532,435,0,0,0,0,0,0,0,0,0,-1,692,589,0,0
-525,435,-10.0776,10.0547,0,0,0,0,0,0,0,-1,699,589,-10.0776,-10.0547
-518,435,-1.83093,-5.82367,0,0,0,0,0,0,0,-1,706,589,-1.83093,5.8237
-511,435,-2.45154,-5.33118,0,0,0,0,0,0,0,-1,713,589,-2.45151,5.33115
-504,435,-3.07208,-4.83862,0,0,0,0,0,0,0,-1,720,589,-3.0721,4.8386
-497,435,-6.31012,-5.84698,0,0,0,0,0,0,0,-1,727,589,-6.31012,5.84697
-490,435,-5.81903,-0.458679,0,0,0,0,0,0,0,-1,734,589,-5.81902,0.458684
-483,435,-6.96503,-3.01624,0,0,0,0,0,0,0,-1,741,589,-6.96505,3.01623
-476,435,-5.4859,-5.3996,0,0,0,0,0,0,0,-1,748,589,-5.48591,5.3996
-469,435,-5.40692,-6.12012,-0.00549975,0.00825387,-0.00385015,0.00925831,-0.00650419,-1.3156,0.00914668,0.0356436,755,589,-5.40689,6.12012
-462,435,-5.37494,-6.9057,-0.00437209,0.00676231,-0.00311166,0.0075729,-0.00518268,-1.31596,0.00740741,0.01961,762,589,-5.37496,6.9057
-455,435,-5.49518,-7.35767,-0.00330662,0.0055191,-0.00257326,0.00621457,-0.00400208,-1.30684,0.00594451,0.0171961,769,589,-5.49515,7.35767
-448,435,-5.46655,-7.85284,-0.00258005,0.00428457,-0.00190144,0.00477606,-0.00307154,-1.31785,0.0045663,0.0127896,776,589,-5.46653,7.85282
-441,435,-5.48053,-8.27722,-0.00201592,0.00310056,-0.00121958,0.00337639,-0.00229176,-1.34837,0.00329242,0.0114133,783,589,-5.48053,8.27724
-434,435,-5.508,-8.69055,-0.0016315,0.00210568,-0.000577201,0.00219279,-0.00171862,-1.421,0.00226378,0.0123796,790,589,-5.50801,8.69056
-427,435,-5.52039,-9.14648,-0.00134355,0.00113835,5.66825e-05,0.00113964,-0.00134484,1.54797,0.00143605,0.00973287,797,589,-5.5204,9.14647
-420,435,-5.52216,-9.56146,-0.00115088,0.000309178,0.000638405,0.000548944,-0.00139065,1.21153,0.00115444,0.0096305,804,589,-5.52217,9.56149
-413,435,-5.52179,-9.97656,-0.00112382,-0.000559395,0.00130437,0.000492944,-0.00217616,0.891936,0.00163997,0.0105112,811,589,-5.52177,9.97653
-406,435,-5.52881,-10.3959,-0.00112348,-0.00120412,0.00187497,0.000711601,-0.0030392,0.774646,0.00230032,0.0109332,818,589,-5.52881,10.3959
-399,435,-5.55481,-10.8204,-0.00114602,-0.00171652,0.00237453,0.000960336,-0.00382287,0.72562,0.00292178,0.00892833,825,589,-5.55481,10.8204
-392,435,-5.56281,-11.2404,-0.00113035,-0.00202595,0.00280194,0.00125934,-0.00441565,0.706159,0.00344123,0.0108726,832,589,-5.56283,11.2403
-385,435,-5.5545,-11.6465,-0.00114369,-0.00222199,0.00315878,0.00152162,-0.0048873,0.700872,0.00386653,0.0168512,839,589,-5.55449,11.6466
-378,435,-5.6037,-11.9961,-0.0011302,-0.00240846,0.00358033,0.0018676,-0.00540625,0.697073,0.00436207,0.0317651,846,589,-5.60371,11.9961
-371,435,-5.53137,-12.5102,0,0,0,0,0,0,0,-1,853,589,-5.53139,12.5102
-364,435,-5.62848,-11.5937,0,0,0,0,0,0,0,-1,860,589,-5.62847,11.5937
-357,435,-5.57343,-10.9666,0,0,0,0,0,0,0,-1,867,589,-5.57342,10.9666
-350,435,-0.86676,-3.69836,0,0,0,0,0,0,0,-1,874,589,-0.866784,3.69834
-343,435,-1.60706,-2.36835,0,0,0,0,0,0,0,-1,881,589,-1.60706,2.36838
-336,435,-2.07263,-1.94012,0,0,0,0,0,0,0,-1,888,589,-2.07265,1.94014
-329,435,-2.55963,-1.5517,0,0,0,0,0,0,0,-1,895,589,-2.5596,1.55168
-322,435,-3.08545,-1.55255,0,0,0,0,0,0,0,-1,902,589,-3.08544,1.55254
-315,435,-0.404297,-2.63763,0,0,0,0,0,0,0,-1,909,589,-0.404276,2.63761
-308,435,-1.70056,-1.90369,0,0,0,0,0,0,0,-1,916,589,-1.70056,1.90367
-301,435,-1.25232,-2.05511,0,0,0,0,0,0,0,-1,923,589,-1.25234,2.05514
-294,435,-1.79974,-1.97321,0,0,0,0,0,0,0,-1,930,589,-1.79973,1.97322
-287,435,0,0,0,0,0,0,0,0,0,-1,937,589,0,0
-280,435,0,0,0,0,0,0,0,0,0,-1,944,589,0,0
-273,435,0,0,0,0,0,0,0,0,0,-1,951,589,0,0
-266,435,0,0,0,0,0,0,0,0,0,-1,958,589,0,0
-259,435,0,0,0,0,0,0,0,0,0,-1,965,589,0,0
-252,435,0,0,0,0,0,0,0,0,0,-1,972,589,0,0
-245,435,0,0,0,0,0,0,0,0,0,-1,979,589,0,0
-238,435,0,0,0,0,0,0,0,0,0,-1,986,589,0,0
-231,435,0,0,0,0,0,0,0,0,0,-1,993,589,0,0
-224,435,0,0,0,0,0,0,0,0,0,-1,1000,589,0,0
-217,435,0,0,0,0,0,0,0,0,0,-1,1007,589,0,0
-210,435,0,0,0,0,0,0,0,0,0,-1,1014,589,0,0
-203,435,0,0,0,0,0,0,0,0,0,-1,1021,589,0,0
-196,435,0,0,0,0,0,0,0,0,0,-1,1028,589,0,0
-189,435,0,0,0,0,0,0,0,0,0,-1,1035,589,0,0
-182,435,0,0,0,0,0,0,0,0,0,-1,1042,589,0,0
-175,435,0,0,0,0,0,0,0,0,0,-1,1049,589,0,0
-168,435,0,0,0,0,0,0,0,0,0,-1,1056,589,0,0
-161,435,0,0,0,0,0,0,0,0,0,-1,1063,589,0,0
-154,435,0,0,0,0,0,0,0,0,0,-1,1070,589,0,0
-147,435,0,0,0,0,0,0,0,0,0,-1,1077,589,0,0
-140,435,0,0,0,0,0,0,0,0,0,-1,1084,589,0,0
-133,435,0,0,0,0,0,0,0,0,0,-1,1091,589,0,0
-126,435,0,0,0,0,0,0,0,0,0,-1,1098,589,0,0
-119,435,0,0,0,0,0,0,0,0,0,-1,1105,589,0,0
-112,435,0,0,0,0,0,0,0,0,0,-1,1112,589,0,0
-105,435,0,0,0,0,0,0,0,0,0,-1,1119,589,0,0
-98,435,0,0,0,0,0,0,0,0,0,-1,1126,589,0,0
-91,435,0,0,0,0,0,0,0,0,0,-1,1133,589,0,0
-84,435,0,0,0,0,0,0,0,0,0,-1,1140,589,0,0
-77,435,0,0,0,0,0,0,0,0,0,-1,1147,589,0,0
-70,435,0,0,0,0,0,0,0,0,0,-1,1154,589,0,0
-63,435,0,0,0,0,0,0,0,0,0,-1,1161,589,0,0
-56,435,0,0,0,0,0,0,0,0,0,-1,1168,589,0,0
-49,435,0,0,0,0,0,0,0,0,0,-1,1175,589,0,0
-42,435,0,0,0,0,0,0,0,0,0,-1,1182,589,0,0
-35,435,0,0,0,0,0,0,0,0,0,-1,1189,589,0,0
-28,435,0,0,0,0,0,0,0,0,0,-1,1196,589,0,0
-21,435,0,0,0,0,0,0,0,0,0,-1,1203,589,0,0
-14,435,0,0,0,0,0,0,0,0,0,-1,1210,589,0,0
-7,435,0,0,0,0,0,0,0,0,0,-1,1217,589,0,0
0,435,0,0,0,0,0,0,0,0,0,-1,1224,589,0,0
7,435,0,0,0,0,0,0,0,0,0,-1,1231,589,0,0
14,435,0,0,0,0,0,0,0,0,0,-1,1238,589,0,0
21,435,0,0,0,0,0,0,0,0,0,-1,1245,589,0,0
28,435,0,0,0,0,0,0,0,0,0,-1,1252,589,0,0
35,435,0,0,0,0,0,0,0,0,0,-1,1259,589,0,0
42,435,0,0,0,0,0,0,0,0,0,-1,1266,589,0,0
49,435,0,0,0,0,0,0,0,0,0,-1,1273,589,0,0
56,435,0,0,0,0,0,0,0,0,0,-1,1280,589,0,0
63,435,0,0,0,0,0,0,0,0,0,-1,1287,589,0,0
70,435,0,0,0,0,0,0,0,0,0,-1,1294,589,0,0
77,435,0,0,0,0,0,0,0,0,0,-1,1301,589,0,0
84,435,0,0,0,0,0,0,0,0,0,-1,1308,589,0,0
91,435,0,0,0,0,0,0,0,0,0,-1,1315,589,0,0
98,435,0,0,0,0,0,0,0,0,0,-1,1322,589,0,0
105,435,0,0,0,0,0,0,0,0,0,-1,1329,589,0,0
112,435,0,0,0,0,0,0,0,0,0,-1,1336,589,0,0
119,435,0,0,0,0,0,0,0,0,0,-1,1343,589,0,0
126,435,0,0,0,0,0,0,0,0,0,-1,1350,589,0,0
133,435,0,0,0,0,0,0,0,0,0,-1,1357,589,0,0
140,435,0,0,0,0,0,0,0,0,0,-1,1364,589,0,0
147,435,0,0,0,0,0,0,0,0,0,-1,1371,589,0,0
154,435,0,0,0,0,0,0,0,0,0,-1,1378,589,0,0
161,435,0,0,0,0,0,0,0,0,0,-1,1385,589,0,0
168,435,0,0,0,0,0,0,0,0,0,-1,1392,589,0,0
175,435,0,0,0,0,0,0,0,0,0,-1,1399,589,0,0
182,435,0,0,0,0,0,0,0,0,0,-1,1406,589,0,0
189,435,0,0,0,0,0,0,0,0,0,-1,1413,589,0,0
196,435,0,0,0,0,0,0,0,0,0,-1,1420,589,0,0
203,435,0,0,0,0,0,0,0,0,0,-1,1427,589,0,0
210,435,0,0,0,0,0,0,0,0,0,-1,1434,589,0,0
217,435,0,0,0,0,0,0,0,0,0,-1,1441,589,0,0
224,435,0,0,0,0,0,0,0,0,0,-1,1448,589,0,0
231,435,0,0,0,0,0,0,0,0,0,-1,1455,589,0,0
238,435,0,0,0,0,0,0,0,0,0,-1,1462,589,0,0
245,435,0,0,0,0,0,0,0,0,0,-1,1469,589,0,0
252,435,0,0,0,0,0,0,0,0,0,-1,1476,589,0,0
259,435,0,0,0,0,0,0,0,0,0,-1,1483,589,0,0
266,435,0,0,0,0,0,0,0,0,0,-1,1490,589,0,0
273,435,0,0,0,0,0,0,0,0,0,-1,1497,589,0,0
280,435,0,0,0,0,0,0,0,0,0,-1,1504,589,0,0
287,435,0,0,0,0,0,0,0,0,0,-1,1511,589,0,0
294,435,0,0,0,0,0,0,0,0,0,-1,1518,589,0,0
301,435,0,0,0,0,0,0,0,0,0,-1,1525,589,0,0
308,435,0,0,0,0,0,0,0,0,0,-1,1532,589,0,0
315,435,0,0,0,0,0,0,0,0,0,-1,1539,589,0,0
322,435,0,0,0,0,0,0,0,0,0,-1,1546,589,0,0
329,435,0,0,0,0,0,0,0,0,0,-1,1553,589,0,0
336,435,0,0,0,0,0,0,0,0,0,-1,1560,589,0,0
343,435,0,0,0,0,0,0,0,0,0,-1,1567,589,0,0
350,435,0,0,0,0,0,0,0,0,0,-1,1574,589,0,0
357,435,0,0,0,0,0,0,0,0,0,-1,1581,589,0,0
364,435,0,0,0,0,0,0,0,0,0,-1,1588,589,0,0
371,435,0,0,0,0,0,0,0,0,0,-1,1595,589,0,0
378,435,0,0,0,0,0,0,0,0,0,-1,1602,589,0,0
385,435,0,0,0,0,0,0,0,0,0,-1,1609,589,0,0
392,435,0,0,0,0,0,0,0,0,0,-1,1616,589,0,0
399,435,0,0,0,0,0,0,0,0,0,-1,1623,589,0,0
406,435,0,0,0,0,0,0,0,0,0,-1,1630,589,0,0
413,435,20.4565,3.49835,0,0,0,0,0,0,0,-1,1637,589,20.4565,-3.49836
420,435,21.4015,1.49609,0,0,0,0,0,0,0,-1,1644,589,21.4015,-1.49609
427,435,22.0464,-0.373962,0,0,0,0,0,0,0,-1,1651,589,22.0464,0.373972
434,435,22.1863,-1.54407,0,0,0,0,0,0,0,-1,1658,589,22.1862,1.54405
441,435,22.3992,-2.38287,0,0,0,0,0,0,0,-1,1665,589,22.3992,2.38289
448,435,7.4585,-0.00292969,0,0,0,0,0,0,0,-1,1672,589,7.45848,0.00294131
455,435,5.49915,-5.047,0,0,0,0,0,0,0,-1,1679,589,5.49914,5.04703
462,435,5.60669,-4.71466,0,0,0,0,0,0,0,-1,1686,589,5.60675,4.71469
469,435,5.87708,1.22351,0,0,0,0,0,0,0,-1,1693,589,5.87703,-1.22351
476,435,6.14136,1.37714,0,0,0,0,0,0,0,-1,1700,589,6.14138,-1.37712
483,435,6.49243,1.36169,0,0,0,0,0,0,0,-1,1707,589,6.49242,-1.36171
490,435,4.38391,-1.36218,0,0,0,0,0,0,0,-1,1714,589,4.38389,1.3622
497,435,7.23499,-3.64551,0,0,0,0,0,0,0,-1,1721,589,7.23495,3.64551
504,435,7.31189,-3.75909,0,0,0,0,0,0,0,-1,1728,589,7.31184,3.75911
511,435,13.5516,-10.2452,0,0,0,0,0,0,0,-1,1735,589,13.5516,10.2453
518,435,13.7087,-9.75842,0.00483719,0.00285464,0.00253842,0.00657102,0.00112081,0.599249,0.00405899,0.0284134,1742,589,13.7088,9.75844
525,435,13.6642,-9.29224,0.00375795,0.00231181,0.0020432,0.00520225,0.00086751,0.615329,0.00321821,0.011938,1749,589,13.6642,9.29221
532,435,13.6681,-8.83557,0.0028064,0.00172814,0.00156751,0.0039249,0.000609637,0.619766,0.00243892,0.0129137,1756,589,13.6681,8.83555
539,435,13.6805,-8.37952,0.00200246,0.00118386,0.00113994,0.00280435,0.000381967,0.613038,0.00175615,0.0143274,1763,589,13.6805,8.37951
546,435,13.6558,-7.93372,0.00137497,0.00083154,0.000861202,0.0020063,0.000200206,0.632587,0.00127605,0.0139027,1770,589,13.6557,7.93371
553,435,13.6394,-7.513,0.000792589,0.000511052,0.000614372,0.00128211,2.15285e-05,0.672779,0.000847657,0.0108392,1777,589,13.6394,7.51299
560,435,13.6256,-7.0694,0.00019181,0.000445359,0.000504255,0.000838531,-0.000201363,0.908551,0.000636843,0.00961931,1784,589,13.6256,7.0694
567,435,13.6233,-6.59741,-0.000314019,0.000454599,0.000477552,0.000683274,-0.000542694,1.12421,0.000709363,0.0087333,1791,589,13.6233,6.59739
574,435,13.619,-6.14172,-0.000786665,0.000639771,0.000543064,0.00082299,-0.000969884,1.24541,0.00103627,0.00996533,1798,589,13.619,6.14172
581,435,13.598,-5.71106,-0.00127572,0.00103576,0.000717966,0.00124061,-0.00148058,1.29286,0.00157311,0.0171202,1805,589,13.598,5.71108
588,435,13.5729,-5.28857,-0.00172353,0.00177345,0.001079,0.00207958,-0.00202966,1.29435,0.00237253,0.0349718,1812,589,13.5729,5.28859
595,435,13.4658,-4.85162,-0.00219416,0.00308492,0.00170612,0.00358831,-0.00269755,1.28389,0.00364127,0.039237,1819,589,13.4658,4.85162
602,435,13.467,-4.40308,0,0,0,0,0,0,0,-1,1826,589,13.467,4.40305
609,435,13.4454,-3.46063,0,0,0,0,0,0,0,-1,1833,589,13.4455,3.46065
616,435,5.05151,-2.75269,0,0,0,0,0,0,0,-1,1840,589,5.05157,2.7527
623,435,11.7588,3.9704,0,0,0,0,0,0,0,-1,1847,589,11.7587,-3.97043
630,435,4.72742,-0.87561,0,0,0,0,0,0,0,-1,1854,589,4.7274,0.875636
637,435,5.05286,1.48792,0,0,0,0,0,0,0,-1,1861,589,5.05291,-1.48792
644,435,0,0,0,0,0,0,0,0,0,-1,1868,589,0,0
651,435,0,0,0,0,0,0,0,0,0,-1,1875,589,0,0
658,435,0,0,0,0,0,0,0,0,0,-1,1882,589,0,0
665,435,0,0,0,0,0,0,0,0,0,-1,1889,589,0,0
672,435,0,0,0,0,0,0,0,0,0,-1,1896,589,0,0
679,435,0,0,0,0,0,0,0,0,0,-1,1903,589,0,0
686,435,0,0,0,0,0,0,0,0,0,-1,1910,589,0,0
693,435,0,0,0,0,0,0,0,0,0,-1,1917,589,0,0
700,435,0,0,0,0,0,0,0,0,0,-1,1924,589,0,0
707,435,0,0,0,0,0,0,0,0,0,-1,1931,589,0,0
714,435,0,0,0,0,0,0,0,0,0,-1,1938,589,0,0
721,435,0,0,0,0,0,0,0,0,0,-1,1945,589,0,0
728,435,0,0,0,0,0,0,0,0,0,-1,1952,589,0,0
735,435,0,0,0,0,0,0,0,0,0,-1,1959,589,0,0
742,435,0,0,0,0,0,0,0,0,0,-1,1966,589,0,0
749,435,0,0,0,0,0,0,0,0,0,-1,1973,589,0,0
756,435,0,0,0,0,0,0,0,0,0,-1,1980,589,0,0
763,435,0,0,0,0,0,0,0,0,0,-1,1987,589,0,0
770,435,0,0,0,0,0,0,0,0,0,-1,1994,589,0,0
777,435,0,0,0,0,0,0,0,0,0,-1,2001,589,0,0
784,435,0,0,0,0,0,0,0,0,0,-1,2008,589,0,0
791,435,0,0,0,0,0,0,0,0,0,-1,2015,589,0,0
798,435,0,0,0,0,0,0,0,0,0,-1,2022,589,0,0
805,435,0,0,0,0,0,0,0,0,0,-1,2029,589,0,0
812,435,0,0,0,0,0,0,0,0,0,-1,2036,589,0,0
-700,428,0,0,0,0,0,0,0,0,0,-1,524,596,0,0
-693,428,0,0,0,0,0,0,0,0,0,-1,531,596,0,0
-686,428,0,0,0,0,0,0,0,0,0,-1,538,596,0,0
-679,428,0,0,0,0,0,0,0,0,0,-1,545,596,0,0
-672,428,0,0,0,0,0,0,0,0,0,-1,552,596,0,0
-665,428,0,0,0,0,0,0,0,0,0,-1,559,596,0,0
-658,428,0,0,0,0,0,0,0,0,0,-1,566,596,0,0
-651,428,0,0,0,0,0,0,0,0,0,-1,573,596,0,0
-644,428,0,0,0,0,0,0,0,0,0,-1,580,596,0,0
-637,428,0,0,0,0,0,0,0,0,0,-1,587,596,0,0
-630,428,0,0,0,0,0,0,0,0,0,-1,594,596,0,0
-623,428,0,0,0,0,0,0,0,0,0,-1,601,596,0,0
-616,428,0,0,0,0,0,0,0,0,0,-1,608,596,0,0
-609,428,0,0,0,0,0,0,0,0,0,-1,615,596,0,0
-602,428,0,0,0,0,0,0,0,0,0,-1,622,596,0,0
-595,428,0,0,0,0,0,0,0,0,0,-1,629,596,0,0
-588,428,0,0,0,0,0,0,0,0,0,-1,636,596,0,0
-581,428,0,0,0,0,0,0,0,0,0,-1,643,596,0,0
-574,428,0,0,0,0,0,0,0,0,0,-1,650,596,0,0
-567,428,0,0,0,0,0,0,0,0,0,-1,657,596,0,0
-560,428,0,0,0,0,0,0,0,0,0,-1,664,596,0,0
-553,428,0,0,0,0,0,0,0,0,0,-1,671,596,0,0
-546,428,0,0,0,0,0,0,0,0,0,-1,678,596,0,0
-539,428,0,0,0,0,0,0,0,0,0,-1,685,596,0,0
-532,428,0,0,0,0,0,0,0,0,0,-1,692,596,0,0
-525,428,-9.59918,7.58618,0,0,0,0,0,0,0,-1,699,596,-9.59918,-7.5862
-518,428,-2.92285,-4.81854,0,0,0,0,0,0,0,-1,706,596,-2.92285,4.81856
-511,428,-3.68811,-4.79474,0,0,0,0,0,0,0,-1,713,596,-3.68811,4.79474
-504,428,-4.45337,-4.77094,0,0,0,0,0,0,0,-1,720,596,-4.45337,4.77092
-497,428,-2.98108,-3.77502,0,0,0,0,0,0,0,-1,727,596,-2.98106,3.77505
-490,428,-6.39044,-2.80481,0,0,0,0,0,0,0,-1,734,596,-6.39047,2.80483
-483,428,-7.10645,-5.22101,0,0,0,0,0,0,0,-1,741,596,-7.10645,5.22098
-476,428,-5.85126,-5.89502,0,0,0,0,0,0,0,-1,748,596,-5.85125,5.89503
-469,428,-5.7879,-6.40192,-0.00417641,0.00649762,-0.0030234,0.0072945,-0.00497329,-1.31309,0.00712495,0.0237358,755,596,-5.78793,6.40189
-462,428,-5.87982,-6.83966,-0.00324115,0.00526501,-0.00248508,0.00593782,-0.00391395,-1.3064,0.00572779,0.0211163,762,596,-5.87985,6.83963
-455,428,-5.93549,-7.3512,-0.00237828,0.00422227,-0.00206029,0.00481258,-0.00296858,-1.29176,0.00453431,0.0132936,769,596,-5.93549,7.35117
-448,428,-5.91565,-7.79449,-0.00181449,0.00311935,-0.00144707,0.00351245,-0.00220759,-1.30555,0.00333099,0.0107301,776,596,-5.91563,7.79449
-441,428,-5.92346,-8.23199,-0.00143586,0.00206335,-0.000783335,0.00223071,-0.00160321,-1.36032,0.00222337,0.0132307,783,596,-5.92346,8.23201
-434,428,-5.93597,-8.70721,-0.00123417,0.00118268,-0.000131413,0.00118981,-0.00124129,-1.51664,0.0014037,0.01024,790,596,-5.93597,8.7072
-427,428,-5.9375,-9.15601,-0.00113055,0.000271769,0.000547297,0.00046008,-0.00131886,1.23941,0.00106622,0.0104565,797,596,-5.93753,9.15599
-420,428,-5.94757,-9.55096,-0.00113172,-0.000535352,0.00121097,0.000413608,-0.00208068,0.906114,0.00154357,0.010811,804,596,-5.9476,9.55094
-413,428,-5.94983,-9.94757,-0.00130913,-0.00136195,0.00197054,0.00063517,-0.00330626,0.778697,0.00244357,0.0135383,811,596,-5.9498,9.94759
-406,428,-5.96722,-10.3684,-0.00157193,-0.0020439,0.00267347,0.000875946,-0.00449178,0.741378,0.00332518,0.0164537,818,596,-5.96725,10.3684
-399,428,-5.97729,-10.8002,-0.0018595,-0.0026315,0.00331812,0.001095,-0.00558599,0.727493,0.00413758,0.0139864,825,596,-5.97732,10.8002
-392,428,-5.96252,-11.251,-0.00211291,-0.00294782,0.0039171,0.00140891,-0.00646964,0.732313,0.00485141,0.0182844,832,596,-5.96254,11.251
-385,428,-6.03186,-11.6497,-0.00248499,-0.00329058,0.00449976,0.00162997,-0.00740554,0.74076,0.00556056,0.0397401,839,596,-6.03185,11.6497
-378,428,-6.13947,-11.9722,0,0,0,0,0,0,0,-1,846,596,-6.13944,11.9722
-371,428,-5.96155,-11.0703,0,0,0,0,0,0,0,-1,853,596,-5.96154,11.0702
-364,428,-6.33643,-10.7223,0,0,0,0,0,0,0,-1,860,596,-6.33645,10.7223
-357,428,-3.20996,-4.70966,0,0,0,0,0,0,0,-1,867,596,-3.20997,4.70965
-350,428,-1.62793,-3.94055,0,0,0,0,0,0,0,-1,874,596,-1.62794,3.94055
-343,428,-0.0567017,-4.80994,0,0,0,0,0,0,0,-1,881,596,-0.0567096,4.80996
-336,428,-3.29175,-1.39569,0,0,0,0,0,0,0,-1,888,596,-3.29172,1.39568
-329,428,-3.71564,-0.791321,0,0,0,0,0,0,0,-1,895,596,-3.71564,0.791299
-322,428,-5.52863,-3.59827,0,0,0,0,0,0,0,-1,902,596,-5.52865,3.59829
-315,428,-4.57172,-1.22052,0,0,0,0,0,0,0,-1,909,596,-4.57171,1.22052
-308,428,-5.94324,-0.810791,0,0,0,0,0,0,0,-1,916,596,-5.94321,0.810803
-301,428,0,0,0,0,0,0,0,0,0,-1,923,596,0,0
-294,428,0,0,0,0,0,0,0,0,0,-1,930,596,0,0
-287,428,0,0,0,0,0,0,0,0,0,-1,937,596,0,0
-280,428,0,0,0,0,0,0,0,0,0,-1,944,596,0,0
-273,428,0,0,0,0,0,0,0,0,0,-1,951,596,0,0
-266,428,0,0,0,0,0,0,0,0,0,-1,958,596,0,0
-259,428,0,0,0,0,0,0,0,0,0,-1,965,596,0,0
-252,428,0,0,0,0,0,0,0,0,0,-1,972,596,0,0
-245,428,0,0,0,0,0,0,0,0,0,-1,979,596,0,0
-238,428,0,0,0,0,0,0,0,0,0,-1,986,596,0,0
-231,428,0,0,0,0,0,0,0,0,0,-1,993,596,0,0
-224,428,0,0,0,0,0,0,0,0,0,-1,1000,596,0,0
-217,428,0,0,0,0,0,0,0,0,0,-1,1007,596,0,0
-210,428,0,0,0,0,0,0,0,0,0,-1,1014,596,0,0
-203,428,0,0,0,0,0,0,0,0,0,-1,1021,596,0,0
-196,428,0,0,0,0,0,0,0,0,0,-1,1028,596,0,0
-189,428,0,0,0,0,0,0,0,0,0,-1,1035,596,0,0
-182,428,0,0,0,0,0,0,0,0,0,-1,1042,596,0,0
-175,428,0,0,0,0,0,0,0,0,0,-1,1049,596,0,0
-168,428,0,0,0,0,0,0,0,0,0,-1,1056,596,0,0
-161,428,0,0,0,0,0,0,0,0,0,-1,1063,596,0,0
-154,428,0,0,0,0,0,0,0,0,0,-1,1070,596,0,0
-147,428,0,0,0,0,0,0,0,0,0,-1,1077,596,0,0
-140,428,0,0,0,0,0,0,0,0,0,-1,1084,596,0,0
-133,428,0,0,0,0,0,0,0,0,0,-1,1091,596,0,0
-126,428,0,0,0,0,0,0,0,0,0,-1,1098,596,0,0
-119,428,0,0,0,0,0,0,0,0,0,-1,1105,596,0,0
-112,428,0,0,0,0,0,0,0,0,0,-1,1112,596,0,0
-105,428,0,0,0,0,0,0,0,0,0,-1,1119,596,0,0
-98,428,0,0,0,0,0,0,0,0,0,-1,1126,596,0,0
-91,428,0,0,0,0,0,0,0,0,0,-1,1133,596,0,0
-84,428,0,0,0,0,0,0,0,0,0,-1,1140,596,0,0
-77,428,0,0,0,0,0,0,0,0,0,-1,1147,596,0,0
-70,428,0,0,0,0,0,0,0,0,0,-1,1154,596,0,0
-63,428,0,0,0,0,0,0,0,0,0,-1,1161,596,0,0
-56,428,0,0,0,0,0,0,0,0,0,-1,1168,596,0,0
-49,428,0,0,0,0,0,0,0,0,0,-1,1175,596,0,0
-42,428,0,0,0,0,0,0,0,0,0,-1,1182,596,0,0
-35,428,0,0,0,0,0,0,0,0,0,-1,1189,596,0,0
-28,428,0,0,0,0,0,0,0,0,0,-1,1196,596,0,0
-21,428,0,0,0,0,0,0,0,0,0,-1,1203,596,0,0
-14,428,0,0,0,0,0,0,0,0,0,-1,1210,596,0,0
-7,428,0,0,0,0,0,0,0,0,0,-1,1217,596,0,0
0,428,0,0,0,0,0,0,0,0,0,-1,1224,596,0,0
7,428,0,0,0,0,0,0,0,0,0,-1,1231,596,0,0
14,428,0,0,0,0,0,0,0,0,0,-1,1238,596,0,0
21,428,0,0,0,0,0,0,0,0,0,-1,1245,596,0,0
28,428,0,0,0,0,0,0,0,0,0,-1,1252,596,0,0
35,428,0,0,0,0,0,0,0,0,0,-1,1259,596,0,0
42,428,0,0,0,0,0,0,0,0,0,-1,1266,596,0,0
49,428,0,0,0,0,0,0,0,0,0,-1,1273,596,0,0
56,428,0,0,0,0,0,0,0,0,0,-1,1280,596,0,0
63,428,0,0,0,0,0,0,0,0,0,-1,1287,596,0,0
70,428,0,0,0,0,0,0,0,0,0,-1,1294,596,0,0
77,428,0,0,0,0,0,0,0,0,0,-1,1301,596,0,0
84,428,0,0,0,0,0,0,0,0,0,-1,1308,596,0,0
91,428,0,0,0,0,0,0,0,0,0,-1,1315,596,0,0
98,428,0,0,0,0,0,0,0,0,0,-1,1322,596,0,0
105,428,0,0,0,0,0,0,0,0,0,-1,1329,596,0,0
112,428,0,0,0,0,0,0,0,0,0,-1,1336,596,0,0
119,428,0,0,0,0,0,0,0,0,0,-1,1343,596,0,0
126,428,0,0,0,0,0,0,0,0,0,-1,1350,596,0,0
133,428,0,0,0,0,0,0,0,0,0,-1,1357,596,0,0
140,428,0,0,0,0,0,0,0,0,0,-1,1364,596,0,0
147,428,0,0,0,0,0,0,0,0,0,-1,1371,596,0,0
154,428,0,0,0,0,0,0,0,0,0,-1,1378,596,0,0
161,428,0,0,0,0,0,0,0,0,0,-1,1385,596,0,0
168,428,0,0,0,0,0,0,0,0,0,-1,1392,596,0,0
175,428,0,0,0,0,0,0,0,0,0,-1,1399,596,0,0
182,428,0,0,0,0,0,0,0,0,0,-1,1406,596,0,0
189,428,0,0,0,0,0,0,0,0,0,-1,1413,596,0,0
196,428,0,0,0,0,0,0,0,0,0,-1,1420,596,0,0
203,428,0,0,0,0,0,0,0,0,0,-1,1427,596,0,0
210,428,0,0,0,0,0,0,0,0,0,-1,1434,596,0,0
217,428,0,0,0,0,0,0,0,0,0,-1,1441,596,0,0
224,428,0,0,0,0,0,0,0,0,0,-1,1448,596,0,0
231,428,0,0,0,0,0,0,0,0,0,-1,1455,596,0,0
238,428,0,0,0,0,0,0,0,0,0,-1,1462,596,0,0
245,428,0,0,0,0,0,0,0,0,0,-1,1469,596,0,0
252,428,0,0,0,0,0,0,0,0,0,-1,1476,596,0,0
259,428,0,0,0,0,0,0,0,0,0,-1,1483,596,0,0
266,428,0,0,0,0,0,0,0,0,0,-1,1490,596,0,0
273,428,0,0,0,0,0,0,0,0,0,-1,1497,596,0,0
280,428,0,0,0,0,0,0,0,0,0,-1,1504,596,0,0
287,428,0,0,0,0,0,0,0,0,0,-1,1511,596,0,0
294,428,0,0,0,0,0,0,0,0,0,-1,1518,596,0,0
301,428,0,0,0,0,0,0,0,0,0,-1,1525,596,0,0
308,428,0,0,0,0,0,0,0,0,0,-1,1532,596,0,0
315,428,0,0,0,0,0,0,0,0,0,-1,1539,596,0,0
322,428,0,0,0,0,0,0,0,0,0,-1,1546,596,0,0
329,428,0,0,0,0,0,0,0,0,0,-1,1553,596,0,0
336,428,0,0,0,0,0,0,0,0,0,-1,1560,596,0,0
343,428,0,0,0,0,0,0,0,0,0,-1,1567,596,0,0
350,428,0,0,0,0,0,0,0,0,0,-1,1574,596,0,0
357,428,0,0,0,0,0,0,0,0,0,-1,1581,596,0,0
364,428,0,0,0,0,0,0,0,0,0,-1,1588,596,0,0
371,428,0,0,0,0,0,0,0,0,0,-1,1595,596,0,0
378,428,0,0,0,0,0,0,0,0,0,-1,1602,596,0,0
385,428,0,0,0,0,0,0,0,0,0,-1,1609,596,0,0
392,428,0,0,0,0,0,0,0,0,0,-1,1616,596,0,0
399,428,0,0,0,0,0,0,0,0,0,-1,1623,596,0,0
406,428,0,0,0,0,0,0,0,0,0,-1,1630,596,0,0
413,428,0,0,0,0,0,0,0,0,0,-1,1637,596,0,0
420,428,19.8469,1.3399,0,0,0,0,0,0,0,-1,1644,596,19.8469,-1.33992
427,428,20.7299,-0.225281,0,0,0,0,0,0,0,-1,1651,596,20.7299,0.225262
434,428,19.8915,-0.583069,0,0,0,0,0,0,0,-1,1658,596,19.8915,0.583075
441,428,8.17993,0.607483,0,0,0,0,0,0,0,-1,1665,596,8.17997,-0.607513
448,428,7.84338,-0.385986,0,0,0,0,0,0,0,-1,1672,596,7.84336,0.385978
455,428,6.64038,2.1123,0,0,0,0,0,0,0,-1,1679,596,6.64037,-2.11229
462,428,4.84106,4.12341,0,0,0,0,0,0,0,-1,1686,596,4.84107,-4.12339
469,428,7.83789,3.10083,0,0,0,0,0,0,0,-1,1693,596,7.83785,-3.10086
476,428,7.61255,1.73956,0,0,0,0,0,0,0,-1,1700,596,7.61252,-1.73958
483,428,7.22766,1.05121,0,0,0,0,0,0,0,-1,1707,596,7.2277,-1.05121
490,428,5.4071,-3.2793,0,0,0,0,0,0,0,-1,1714,596,5.40707,3.27929
497,428,7.84106,-3.65491,0,0,0,0,0,0,0,-1,1721,596,7.84107,3.65491
504,428,6.92139,-2.83356,0,0,0,0,0,0,0,-1,1728,596,6.92137,2.83353
511,428,7.88501,-3.78723,0,0,0,0,0,0,0,-1,1735,596,7.88502,3.78722
518,428,14.1211,-9.83105,0,0,0,0,0,0,0,-1,1742,596,14.1212,9.83103
525,428,14.0951,-9.26849,0,0,0,0,0,0,0,-1,1749,596,14.0951,9.26851
532,428,14.0928,-8.80902,0.00317714,0.00209585,0.0017729,0.00448999,0.000782994,0.637402,0.00276948,0.0209002,1756,596,14.0928,8.809
539,428,14.1471,-8.36957,0.00233108,0.0015142,0.00126754,0.00325436,0.000590915,0.629535,0.00200189,0.0204837,1763,596,14.1471,8.36955
546,428,14.118,-7.94672,0.00169821,0.00113793,0.000952503,0.00241091,0.000425228,0.642378,0.00148596,0.0162107,1770,596,14.1181,7.94671
553,428,14.0895,-7.50232,0.00112592,0.000756705,0.00067722,0.00164325,0.000239383,0.652332,0.00102506,0.0113337,1777,596,14.0894,7.50229
560,428,14.0922,-7.04962,0.00055002,0.000617848,0.000528809,0.00111383,5.4039e-05,0.81742,0.000725211,0.0121598,1784,596,14.0922,7.04961
567,428,14.0929,-6.59619,6.96109e-05,0.000614515,0.000498792,0.000910415,-0.000226289,1.03537,0.000694767,0.0113081,1791,596,14.0929,6.59622
574,428,14.0765,-6.14227,-0.000336737,0.00080258,0.000587748,0.00105143,-0.000585588,1.17028,0.000957805,0.0131392,1798,596,14.0766,6.14227
581,428,14.0402,-5.66663,-0.000726457,0.00121171,0.000804278,0.00150199,-0.00101673,1.22443,0.00146315,0.0112445,1805,596,14.0401,5.66663
588,428,14.0248,-5.20203,-0.0011013,0.00194215,0.00119068,0.00235261,-0.00151177,1.23882,0.00224864,0.0154037,1812,596,14.0247,5.20202
595,428,14.0043,-4.72821,-0.00145008,0.0031389,0.00182741,0.00377769,-0.00208887,1.23451,0.00343352,0.015154,1819,596,14.0042,4.7282
602,428,13.9104,-4.23804,-0.00203166,0.0049447,0.0026602,0.00584333,-0.00293028,1.24503,0.00515768,0.027067,1826,596,13.9104,4.23803
609,428,13.8729,-3.64868,-0.0025502,0.00719234,0.00385439,0.0085328,-0.00389066,1.2361,0.0073377,0.0488976,1833,596,13.873,3.64869
616,428,13.8838,-3.04047,0,0,0,0,0,0,0,-1,1840,596,13.8838,3.04048
623,428,9.53577,1.12518,0,0,0,0,0,0,0,-1,1847,596,9.5358,-1.1252
630,428,7.07996,6.88562,0,0,0,0,0,0,0,-1,1854,596,7.0799,-6.88565
637,428,3.95435,1.90857,0,0,0,0,0,0,0,-1,1861,596,3.95439,-1.90858
644,428,5.75476,0.888977,0,0,0,0,0,0,0,-1,1868,596,5.75472,-0.888955
651,428,0,0,0,0,0,0,0,0,0,-1,1875,596,0,0
658,428,0,0,0,0,0,0,0,0,0,-1,1882,596,0,0
665,428,0,0,0,0,0,0,0,0,0,-1,1889,596,0,0
672,428,0,0,0,0,0,0,0,0,0,-1,1896,596,0,0
679,428,0,0,0,0,0,0,0,0,0,-1,1903,596,0,0
686,428,0,0,0,0,0,0,0,0,0,-1,1910,596,0,0
693,428,0,0,0,0,0,0,0,0,0,-1,1917,596,0,0
700,428,0,0,0,0,0,0,0,0,0,-1,1924,596,0,0
707,428,0,0,0,0,0,0,0,0,0,-1,1931,596,0,0
714,428,0,0,0,0,0,0,0,0,0,-1,1938,596,0,0
721,428,0,0,0,0,0,0,0,0,0,-1,1945,596,0,0
728,428,0,0,0,0,0,0,0,0,0,-1,1952,596,0,0
735,428,0,0,0,0,0,0,0,0,0,-1,1959,596,0,0
742,428,0,0,0,0,0,0,0,0,0,-1,1966,596,0,0
749,428,0,0,0,0,0,0,0,0,0,-1,1973,596,0,0
756,428,0,0,0,0,0,0,0,0,0,-1,1980,596,0,0
763,428,0,0,0,0,0,0,0,0,0,-1,1987,596,0,0
770,428,0,0,0,0,0,0,0,0,0,-1,1994,596,0,0
777,428,0,0,0,0,0,0,0,0,0,-1,2001,596,0,0
784,428,0,0,0,0,0,0,0,0,0,-1,2008,596,0,0
791,428,0,0,0,0,0,0,0,0,0,-1,2015,596,0,0
798,428,0,0,0,0,0,0,0,0,0,-1,2022,596,0,0
805,428,0,0,0,0,0,0,0,0,0,-1,2029,596,0,0
812,428,0,0,0,0,0,0,0,0,0,-1,2036,596,0,0
-700,421,0,0,0,0,0,0,0,0,0,-1,524,603,0,0
-693,421,0,0,0,0,0,0,0,0,0,-1,531,603,0,0
-686,421,0,0,0,0,0,0,0,0,0,-1,538,603,0,0
-679,421,0,0,0,0,0,0,0,0,0,-1,545,603,0,0
-672,421,0,0,0,0,0,0,0,0,0,-1,552,603,0,0
-665,421,0,0,0,0,0,0,0,0,0,-1,559,603,0,0
-658,421,0,0,0,0,0,0,0,0,0,-1,566,603,0,0
-651,421,0,0,0,0,0,0,0,0,0,-1,573,603,0,0
-644,421,0,0,0,0,0,0,0,0,0,-1,580,603,0,0
-637,421,0,0,0,0,0,0,0,0,0,-1,587,603,0,0
-630,421,0,0,0,0,0,0,0,0,0,-1,594,603,0,0
-623,421,0,0,0,0,0,0,0,0,0,-1,601,603,0,0
-616,421,0,0,0,0,0,0,0,0,0,-1,608,603,0,0
-609,421,0,0,0,0,0,0,0,0,0,-1,615,603,0,0
-602,421,0,0,0,0,0,0,0,0,0,-1,622,603,0,0
-595,421,0,0,0,0,0,0,0,0,0,-1,629,603,0,0
-588,421,0,0,0,0,0,0,0,0,0,-1,636,603,0,0
-581,421,0,0,0,0,0,0,0,0,0,-1,643,603,0,0
-574,421,0,0,0,0,0,0,0,0,0,-1,650,603,0,0
-567,421,0,0,0,0,0,0,0,0,0,-1,657,603,0,0
-560,421,0,0,0,0,0,0,0,0,0,-1,664,603,0,0
-553,421,0,0,0,0,0,0,0,0,0,-1,671,603,0,0
-546,421,0,0,0,0,0,0,0,0,0,-1,678,603,0,0
-539,421,0,0,0,0,0,0,0,0,0,-1,685,603,0,0
-532,421,-8.97382,6.95636,0,0,0,0,0,0,0,-1,692,603,-8.97384,-6.95634
-525,421,-2.11481,-8.04272,0,0,0,0,0,0,0,-1,699,603,-2.11483,8.0427
-518,421,-3.05908,-5.07233,0,0,0,0,0,0,0,-1,706,603,-3.0591,5.07235
-511,421,-4.63525,-4.08447,0,0,0,0,0,0,0,-1,713,603,-4.63524,4.08449
-504,421,-4.97272,-4.38385,0,0,0,0,0,0,0,-1,720,603,-4.9727,4.38383
-497,421,-6.63141,-2.32501,0,0,0,0,0,0,0,-1,727,603,-6.6314,2.32498
-490,421,-5.52075,-3.10205,0,0,0,0,0,0,0,-1,734,603,-5.52075,3.10204
-483,421,-6.2085,-5.78766,0,0,0,0,0,0,0,-1,741,603,-6.20847,5.78766
-476,421,-6.25293,-6.14087,-0.00386932,0.0060313,-0.00269009,0.006715,-0.00455303,-1.32191,0.0065454,0.0326592,748,603,-6.25291,6.14087
-469,421,-6.31885,-6.42273,-0.00313307,0.0049008,-0.00229886,0.0055121,-0.00374437,-1.3109,0.00537661,0.023493,755,603,-6.31885,6.4227
-462,421,-6.35138,-6.91431,-0.00232092,0.00390835,-0.00194302,0.00446471,-0.00287729,-1.29192,0.0042718,0.0192242,762,603,-6.35139,6.9143
-455,421,-6.36328,-7.36316,-0.00160838,0.00304486,-0.00162352,0.00355531,-0.00211883,-1.26617,0.00331077,0.0175768,769,603,-6.3633,7.36313
-448,421,-6.36664,-7.78253,-0.00114538,0.00207421,-0.00107953,0.00240266,-0.00147384,-1.27544,0.00225941,0.0171694,776,603,-6.36663,7.78251
-441,421,-6.37054,-8.2428,-0.000893941,0.00113481,-0.000446203,0.00122861,-0.000987742,-1.36359,0.00128213,0.0141446,783,603,-6.37052,8.24278
-434,421,-6.37964,-8.69403,-0.000832079,0.000350954,0.000211036,0.000387472,-0.000868597,1.39945,0.000742714,0.0105987,790,603,-6.37965,8.69404
-427,421,-6.37433,-9.11237,-0.000900341,-0.000512151,0.000942366,0.000255901,-0.00166839,0.886961,0.00120664,0.00992437,797,603,-6.37432,9.11235
-420,421,-6.38062,-9.51697,-0.00111548,-0.00131923,0.00172002,0.000505675,-0.00294039,0.755818,0.00214874,0.0109569,804,603,-6.38061,9.51696
-413,421,-6.39069,-9.94049,-0.00154562,-0.00210827,0.00261813,0.000806259,-0.00446015,0.731877,0.00327543,0.0141865,811,603,-6.39071,9.94052
-406,421,-6.4176,-10.4008,-0.00215958,-0.00285127,0.00352451,0.00103602,-0.00604686,0.736491,0.00441727,0.0202164,818,603,-6.41763,10.4008
-399,421,-6.36389,-10.8555,-0.00282661,-0.00355926,0.00440981,0.00123206,-0.00761793,0.743958,0.0055352,0.0232556,825,603,-6.36387,10.8555
-392,421,-6.4787,-11.1741,-0.00352455,-0.0039406,0.00533151,0.00160299,-0.00906814,0.765899,0.00664452,0.0354374,832,603,-6.4787,11.1741
-385,421,-6.43524,-11.6234,0,0,0,0,0,0,0,-1,839,603,-6.43526,11.6234
-378,421,-4.94733,-8.87909,0,0,0,0,0,0,0,-1,846,603,-4.94731,8.87906
-371,421,-5.65082,-7.01849,0,0,0,0,0,0,0,-1,853,603,-5.65082,7.0185
-364,421,-5.94189,-7.09875,0,0,0,0,0,0,0,-1,860,603,-5.94192,7.09878
-357,421,-7.62531,-8.26337,0,0,0,0,0,0,0,-1,867,603,-7.62532,8.26337
-350,421,-5.38019,-3.75024,0,0,0,0,0,0,0,-1,874,603,-5.38017,3.75026
-343,421,-6.22797,-2.57123,0,0,0,0,0,0,0,-1,881,603,-6.22798,2.57121
-336,421,-6.22882,-2.59369,0,0,0,0,0,0,0,-1,888,603,-6.22883,2.5937
-329,421,-4.50134,-1.49469,0,0,0,0,0,0,0,-1,895,603,-4.50137,1.49468
-322,421,-6.30377,-0.285339,0,0,0,0,0,0,0,-1,902,603,-6.30379,0.285355
-315,421,-4.47821,-1.26733,0,0,0,0,0,0,0,-1,909,603,-4.47824,1.26732
-308,421,0,0,0,0,0,0,0,0,0,-1,916,603,0,0
-301,421,0,0,0,0,0,0,0,0,0,-1,923,603,0,0
-294,421,0,0,0,0,0,0,0,0,0,-1,930,603,0,0
-287,421,0,0,0,0,0,0,0,0,0,-1,937,603,0,0
-280,421,0,0,0,0,0,0,0,0,0,-1,944,603,0,0
-273,421,0,0,0,0,0,0,0,0,0,-1,951,603,0,0
-266,421,0,0,0,0,0,0,0,0,0,-1,958,603,0,0
-259,421,0,0,0,0,0,0,0,0,0,-1,965,603,0,0
-252,421,0,0,0,0,0,0,0,0,0,-1,972,603,0,0
-245,421,0,0,0,0,0,0,0,0,0,-1,979,603,0,0
-238,421,0,0,0,0,0,0,0,0,0,-1,986,603,0,0
-231,421,0,0,0,0,0,0,0,0,0,-1,993,603,0,0
-224,421,0,0,0,0,0,0,0,0,0,-1,1000,603,0,0
-217,421,0,0,0,0,0,0,0,0,0,-1,1007,603,0,0
-210,421,0,0,0,0,0,0,0,0,0,-1,1014,603,0,0
-203,421,0,0,0,0,0,0,0,0,0,-1,1021,603,0,0
-196,421,0,0,0,0,0,0,0,0,0,-1,1028,603,0,0
-189,421,0,0,0,0,0,0,0,0,0,-1,1035,603,0,0
-182,421,0,0,0,0,0,0,0,0,0,-1,1042,603,0,0
-175,421,0,0,0,0,0,0,0,0,0,-1,1049,603,0,0
-168,421,0,0,0,0,0,0,0,0,0,-1,1056,603,0,0
-161,421,0,0,0,0,0,0,0,0,0,-1,1063,603,0,0
-154,421,0,0,0,0,0,0,0,0,0,-1,1070,603,0,0
-147,421,0,0,0,0,0,0,0,0,0,-1,1077,603,0,0
-140,421,0,0,0,0,0,0,0,0,0,-1,1084,603,0,0
-133,421,0,0,0,0,0,0,0,0,0,-1,1091,603,0,0
-126,421,0,0,0,0,0,0,0,0,0,-1,1098,603,0,0
-119,421,0,0,0,0,0,0,0,0,0,-1,1105,603,0,0
-112,421,0,0,0,0,0,0,0,0,0,-1,1112,603,0,0
-105,421,0,0,0,0,0,0,0,0,0,-1,1119,603,0,0
-98,421,0,0,0,0,0,0,0,0,0,-1,1126,603,0,0
-91,421,0,0,0,0,0,0,0,0,0,-1,1133,603,0,0
-84,421,0,0,0,0,0,0,0,0,0,-1,1140,603,0,0
-77,421,0,0,0,0,0,0,0,0,0,-1,1147,603,0,0
-70,421,0,0,0,0,0,0,0,0,0,-1,1154,603,0,0
-63,421,0,0,0,0,0,0,0,0,0,-1,1161,603,0,0
-56,421,0,0,0,0,0,0,0,0,0,-1,1168,603,0,0
-49,421,0,0,0,0,0,0,0,0,0,-1,1175,603,0,0
-42,421,0,0,0,0,0,0,0,0,0,-1,1182,603,0,0
-35,421,0,0,0,0,0,0,0,0,0,-1,1189,603,0,0
-28,421,0,0,0,0,0,0,0,0,0,-1,1196,603,0,0
-21,421,0,0,0,0,0,0,0,0,0,-1,1203,603,0,0
-14,421,0,0,0,0,0,0,0,0,0,-1,1210,603,0,0
-7,421,0,0,0,0,0,0,0,0,0,-1,1217,603,0,0
0,421,0,0,0,0,0,0,0,0,0,-1,1224,603,0,0
7,421,0,0,0,0,0,0,0,0,0,-1,1231,603,0,0
14,421,0,0,0,0,0,0,0,0,0,-1,1238,603,0,0
21,421,0,0,0,0,0,0,0,0,0,-1,1245,603,0,0
28,421,0,0,0,0,0,0,0,0,0,-1,1252,603,0,0
35,421,0,0,0,0,0,0,0,0,0,-1,1259,603,0,0
42,421,0,0,0,0,0,0,0,0,0,-1,1266,603,0,0
49,421,0,0,0,0,0,0,0,0,0,-1,1273,603,0,0
56,421,0,0,0,0,0,0,0,0,0,-1,1280,603,0,0
63,421,0,0,0,0,0,0,0,0,0,-1,1287,603,0,0
70,421,0,0,0,0,0,0,0,0,0,-1,1294,603,0,0
77,421,0,0,0,0,0,0,0,0,0,-1,1301,603,0,0
84,421,0,0,0,0,0,0,0,0,0,-1,1308,603,0,0
91,421,0,0,0,0,0,0,0,0,0,-1,1315,603,0,0
98,421,0,0,0,0,0,0,0,0,0,-1,1322,603,0,0
105,421,0,0,0,0,0,0,0,0,0,-1,1329,603,0,0
112,421,0,0,0,0,0,0,0,0,0,-1,1336,603,0,0
119,421,0,0,0,0,0,0,0,0,0,-1,1343,603,0,0
126,421,0,0,0,0,0,0,0,0,0,-1,1350,603,0,0
133,421,0,0,0,0,0,0,0,0,0,-1,1357,603,0,0
140,421,0,0,0,0,0,0,0,0,0,-1,1364,603,0,0
147,421,0,0,0,0,0,0,0,0,0,-1,1371,603,0,0
154,421,0,0,0,0,0,0,0,0,0,-1,1378,603,0,0
161,421,0,0,0,0,0,0,0,0,0,-1,1385,603,0,0
168,421,0,0,0,0,0,0,0,0,0,-1,1392,603,0,0
175,421,0,0,0,0,0,0,0,0,0,-1,1399,603,0,0
182,421,0,0,0,0,0,0,0,0,0,-1,1406,603,0,0
189,421,0,0,0,0,0,0,0,0,0,-1,1413,603,0,0
196,421,0,0,0,0,0,0,0,0,0,-1,1420,603,0,0
203,421,0,0,0,0,0,0,0,0,0,-1,1427,603,0,0
210,421,0,0,0,0,0,0,0,0,0,-1,1434,603,0,0
217,421,0,0,0,0,0,0,0,0,0,-1,1441,603,0,0
224,421,0,0,0,0,0,0,0,0,0,-1,1448,603,0,0
231,421,0,0,0,0,0,0,0,0,0,-1,1455,603,0,0
238,421,0,0,0,0,0,0,0,0,0,-1,1462,603,0,0
245,421,0,0,0,0,0,0,0,0,0,-1,1469,603,0,0
252,421,0,0,0,0,0,0,0,0,0,-1,1476,603,0,0
259,421,0,0,0,0,0,0,0,0,0,-1,1483,603,0,0
266,421,0,0,0,0,0,0,0,0,0,-1,1490,603,0,0
273,421,0,0,0,0,0,0,0,0,0,-1,1497,603,0,0
280,421,0,0,0,0,0,0,0,0,0,-1,1504,603,0,0
287,421,0,0,0,0,0,0,0,0,0,-1,1511,603,0,0
294,421,0,0,0,0,0,0,0,0,0,-1,1518,603,0,0
301,421,0,0,0,0,0,0,0,0,0,-1,1525,603,0,0
308,421,0,0,0,0,0,0,0,0,0,-1,1532,603,0,0
315,421,0,0,0,0,0,0,0,0,0,-1,1539,603,0,0
322,421,0,0,0,0,0,0,0,0,0,-1,1546,603,0,0
329,421,0,0,0,0,0,0,0,0,0,-1,1553,603,0,0
336,421,0,0,0,0,0,0,0,0,0,-1,1560,603,0,0
343,421,0,0,0,0,0,0,0,0,0,-1,1567,603,0,0
350,421,0,0,0,0,0,0,0,0,0,-1,1574,603,0,0
357,421,0,0,0,0,0,0,0,0,0,-1,1581,603,0,0
364,421,0,0,0,0,0,0,0,0,0,-1,1588,603,0,0
371,421,0,0,0,0,0,0,0,0,0,-1,1595,603,0,0
378,421,0,0,0,0,0,0,0,0,0,-1,1602,603,0,0
385,421,0,0,0,0,0,0,0,0,0,-1,1609,603,0,0
392,421,0,0,0,0,0,0,0,0,0,-1,1616,603,0,0
399,421,0,0,0,0,0,0,0,0,0,-1,1623,603,0,0
406,421,0,0,0,0,0,0,0,0,0,-1,1630,603,0,0
413,421,0,0,0,0,0,0,0,0,0,-1,1637,603,0,0
420,421,0,0,0,0,0,0,0,0,0,-1,1644,603,0,0
427,421,0,0,0,0,0,0,0,0,0,-1,1651,603,0,0
434,421,3.68176,-0.0327759,0,0,0,0,0,0,0,-1,1658,603,3.6818,0.0328037
441,421,8.06689,0.527832,0,0,0,0,0,0,0,-1,1665,603,8.06693,-0.527851
448,421,6.93921,0.802246,0,0,0,0,0,0,0,-1,1672,603,6.93923,-0.802251
455,421,7.29456,2.14825,0,0,0,0,0,0,0,-1,1679,603,7.29461,-2.14827
462,421,7.86902,3.53174,0,0,0,0,0,0,0,-1,1686,603,7.869,-3.53173
469,421,8.06604,2.81213,0,0,0,0,0,0,0,-1,1693,603,8.06606,-2.81212
476,421,8.26306,2.09253,0,0,0,0,0,0,0,-1,1700,603,8.26312,-2.09251
483,421,8.05322,0.798096,0,0,0,0,0,0,0,-1,1707,603,8.05323,-0.7981
490,421,7.51233,0.213074,0,0,0,0,0,0,0,-1,1714,603,7.51235,-0.213043
497,421,7.49634,-2.86688,0,0,0,0,0,0,0,-1,1721,603,7.4963,2.86688
504,421,6.90491,-2.18671,0,0,0,0,0,0,0,-1,1728,603,6.90491,2.18669
511,421,6.31348,-1.50653,0,0,0,0,0,0,0,-1,1735,603,6.31353,1.5065
518,421,6.27588,-2.49878,0,0,0,0,0,0,0,-1,1742,603,6.2759,2.4988
525,421,14.3002,-9.49084,0,0,0,0,0,0,0,-1,1749,603,14.3002,9.49085
532,421,14.4475,-8.84869,0.00337657,0.00250917,0.00192414,0.00491528,0.000970456,0.67455,0.00300604,0.0395865,1756,603,14.4475,8.84866
539,421,14.5819,-8.37079,0.00248891,0.00188203,0.00133308,0.00355265,0.000818285,0.673494,0.00214826,0.0220009,1763,603,14.5819,8.37081
546,421,14.5673,-7.93762,0.00185736,0.00146073,0.000981183,0.00266007,0.00065802,0.685682,0.0015998,0.0135499,1770,603,14.5673,7.93764
553,421,14.55,-7.46948,0.00130875,0.000991345,0.000677603,0.00184599,0.000454106,0.670367,0.00111068,0.0121312,1777,603,14.55,7.46949
560,421,14.5527,-7.01227,0.000774912,0.00074156,0.00048312,0.00124164,0.000274829,0.768146,0.000753059,0.0144858,1784,603,14.5527,7.01227
567,421,14.5416,-6.57361,0.000330713,0.0006948,0.000445042,0.000993591,3.19214e-05,0.979539,0.000652014,0.016539,1791,603,14.5416,6.57359
574,421,14.5129,-6.12384,-6.75943e-06,0.000854267,0.000551787,0.00112362,-0.000276111,1.11668,0.00085609,0.0183893,1798,603,14.5129,6.12386
581,421,14.4894,-5.62305,-0.000302382,0.00123399,0.00079441,0.00157088,-0.000639273,1.16971,0.00131328,0.0168162,1805,603,14.4893,5.62304
588,421,14.4717,-5.1853,-0.000587188,0.00190345,0.00119273,0.0023825,-0.00106623,1.18888,0.00203889,0.0121464,1812,603,14.4717,5.1853
595,421,14.4873,-4.71094,-0.000770615,0.00298165,0.00184688,0.00373816,-0.00152713,1.18203,0.00312799,0.015525,1819,603,14.4873,4.71094
602,421,14.4397,-4.34015,-0.0010528,0.0045659,0.00269443,0.00564916,-0.00213606,1.18854,0.00464484,0.0177043,1826,603,14.4397,4.34015
609,421,14.3048,-3.80322,-0.00121602,0.00654333,0.00386092,0.00813709,-0.00280978,1.17931,0.00656491,0.0310963,1833,603,14.3048,3.80324
616,421,14.401,-3.16168,0,0,0,0,0,0,0,-1,1840,603,14.4011,3.16166
623,421,6.19885,0.376648,0,0,0,0,0,0,0,-1,1847,603,6.19881,-0.376624
630,421,6.54993,0.778748,0,0,0,0,0,0,0,-1,1854,603,6.54991,-0.778744
637,421,3.74512,1.65405,0,0,0,0,0,0,0,-1,1861,603,3.74517,-1.65407
644,421,3.58081,0.354675,0,0,0,0,0,0,0,-1,1868,603,3.58082,-0.354704
651,421,3.28687,3.66351,0,0,0,0,0,0,0,-1,1875,603,3.28688,-3.66353
658,421,0,0,0,0,0,0,0,0,0,-1,1882,603,0,0
665,421,0,0,0,0,0,0,0,0,0,-1,1889,603,0,0
672,421,0,0,0,0,0,0,0,0,0,-1,1896,603,0,0
679,421,0,0,0,0,0,0,0,0,0,-1,1903,603,0,0
686,421,0,0,0,0,0,0,0,0,0,-1,1910,603,0,0
693,421,0,0,0,0,0,0,0,0,0,-1,1917,603,0,0
700,421,0,0,0,0,0,0,0,0,0,-1,1924,603,0,0
707,421,0,0,0,0,0,0,0,0,0,-1,1931,603,0,0
714,421,0,0,0,0,0,0,0,0,0,-1,1938,603,0,0
721,421,0,0,0,0,0,0,0,0,0,-1,1945,603,0,0
728,421,0,0,0,0,0,0,0,0,0,-1,1952,603,0,0
735,421,0,0,0,0,0,0,0,0,0,-1,1959,603,0,0
742,421,0,0,0,0,0,0,0,0,0,-1,1966,603,0,0
749,421,0,0,0,0,0,0,0,0,0,-1,1973,603,0,0
756,421,0,0,0,0,0,0,0,0,0,-1,1980,603,0,0
763,421,0,0,0,0,0,0,0,0,0,-1,1987,603,0,0
770,421,0,0,0,0,0,0,0,0,0,-1,1994,603,0,0
777,421,0,0,0,0,0,0,0,0,0,-1,2001,603,0,0
784,421,0,0,0,0,0,0,0,0,0,-1,2008,603,0,0
791,421,0,0,0,0,0,0,0,0,0,-1,2015,603,0,0
798,421,0,0,0,0,0,0,0,0,0,-1,2022,603,0,0
805,421,0,0,0,0,0,0,0,0,0,-1,2029,603,0,0
812,421,0,0,0,0,0,0,0,0,0,-1,2036,603,0,0
-700,414,0,0,0,0,0,0,0,0,0,-1,524,610,0,0
-693,414,0,0,0,0,0,0,0,0,0,-1,531,610,0,0
-686,414,0,0,0,0,0,0,0,0,0,-1,538,610,0,0
-679,414,0,0,0,0,0,0,0,0,0,-1,545,610,0,0
-672,414,0,0,0,0,0,0,0,0,0,-1,552,610,0,0
-665,414,0,0,0,0,0,0,0,0,0,-1,559,610,0,0
-658,414,0,0,0,0,0,0,0,0,0,-1,566,610,0,0
-651,414,0,0,0,0,0,0,0,0,0,-1,573,610,0,0
-644,414,0,0,0,0,0,0,0,0,0,-1,580,610,0,0
-637,414,0,0,0,0,0,0,0,0,0,-1,587,610,0,0
-630,414,0,0,0,0,0,0,0,0,0,-1,594,610,0,0
-623,414,0,0,0,0,0,0,0,0,0,-1,601,610,0,0
-616,414,0,0,0,0,0,0,0,0,0,-1,608,610,0,0
-609,414,0,0,0,0,0,0,0,0,0,-1,615,610,0,0
-602,414,0,0,0,0,0,0,0,0,0,-1,622,610,0,0
-595,414,0,0,0,0,0,0,0,0,0,-1,629,610,0,0
-588,414,0,0,0,0,0,0,0,0,0,-1,636,610,0,0
-581,414,0,0,0,0,0,0,0,0,0,-1,643,610,0,0
-574,414,0,0,0,0,0,0,0,0,0,-1,650,610,0,0
-567,414,0,0,0,0,0,0,0,0,0,-1,657,610,0,0
-560,414,0,0,0,0,0,0,0,0,0,-1,664,610,0,0
-553,414,0,0,0,0,0,0,0,0,0,-1,671,610,0,0
-546,414,0,0,0,0,0,0,0,0,0,-1,678,610,0,0
-539,414,-7.50146,5.65619,0,0,0,0,0,0,0,-1,685,610,-7.50149,-5.65617
-532,414,-8.15204,4.01605,0,0,0,0,0,0,0,-1,692,610,-8.15206,-4.01606
-525,414,-3.47137,-3.27924,0,0,0,0,0,0,0,-1,699,610,-3.47136,3.27922
-518,414,-4.12909,-4.36908,0,0,0,0,0,0,0,-1,706,610,-4.12909,4.36909
-511,414,-3.92542,-4.97021,0,0,0,0,0,0,0,-1,713,610,-3.92542,4.97023
-504,414,-1.62408,-3.64496,0,0,0,0,0,0,0,-1,720,610,-1.62406,3.64499
-497,414,-6.89111,-4.55194,0,0,0,0,0,0,0,-1,727,610,-6.89112,4.55195
-490,414,-6.76495,-4.8277,0,0,0,0,0,0,0,-1,734,610,-6.76497,4.82772
-483,414,-6.66077,-5.56573,-0.0033512,0.00584734,-0.00241683,0.00644368,-0.00394754,-1.32888,0.00605679,0.0316485,741,610,-6.66077,5.56573
-476,414,-6.73041,-6.06482,-0.00279857,0.00470552,-0.00211088,0.00525855,-0.0033516,-1.31457,0.00501155,0.019056,748,610,-6.73042,6.06485
-469,414,-6.78271,-6.46484,-0.00212001,0.00375857,-0.00186544,0.00430056,-0.00266199,-1.28804,0.00405677,0.0126607,755,610,-6.78272,6.46484
-462,414,-6.77936,-6.90576,-0.0014216,0.00294123,-0.00162699,0.00348115,-0.00196152,-1.25038,0.00318289,0.0200032,762,610,-6.77936,6.90578
-455,414,-6.79938,-7.36499,-0.000865249,0.00219627,-0.0013486,0.0027056,-0.00137457,-1.20969,0.00239711,0.0220585,769,610,-6.79938,7.36498
-448,414,-6.81989,-7.79449,-0.000508712,0.00131801,-0.000838246,0.00164436,-0.000835063,-1.19953,0.00145669,0.0227963,776,610,-6.81991,7.79449
-441,414,-6.80609,-8.23639,-0.000389782,0.000461576,-0.000209653,0.000510404,-0.00043861,-1.34198,0.000548436,0.016769,783,610,-6.8061,8.23637
-434,414,-6.8089,-8.67554,-0.00048109,-0.000275641,0.000482331,0.000114783,-0.000871514,0.890318,0.000622806,0.00985742,790,610,-6.80893,8.67553
-427,414,-6.81396,-9.08948,-0.000755266,-0.00114069,0.00130198,0.000368187,-0.00226414,0.711924,0.00164594,0.0106967,797,610,-6.81395,9.08947
-420,414,-6.80103,-9.50665,-0.00124217,-0.00202207,0.00224875,0.000650191,-0.00391443,0.699548,0.00285117,0.00994071,804,610,-6.80104,9.50664
-413,414,-6.81641,-9.95758,-0.00200671,-0.00284172,0.00335404,0.000955706,-0.00580414,0.723478,0.00422419,0.0111447,811,610,-6.81641,9.9576
-406,414,-6.81677,-10.4756,-0.00309922,-0.00374586,0.00456159,0.0011505,-0.00799557,0.750018,0.00575236,0.0229165,818,610,-6.81678,10.4756
-399,414,-6.88843,-10.6772,-0.00432714,-0.00471219,0.00583185,0.00131536,-0.0103547,0.768898,0.00738076,0.0409959,825,610,-6.88842,10.6773
-392,414,-7.01361,-10.8744,0,0,0,0,0,0,0,-1,832,610,-7.01358,10.8744
-385,414,-7.41467,-10.8892,0,0,0,0,0,0,0,-1,839,610,-7.41465,10.8892
-378,414,-8.04907,-11.3331,0,0,0,0,0,0,0,-1,846,610,-8.04905,11.3331
-371,414,-5.20886,-8.05151,0,0,0,0,0,0,0,-1,853,610,-5.20887,8.05153
-364,414,-6.76282,-6.58759,0,0,0,0,0,0,0,-1,860,610,-6.7628,6.58756
-357,414,-9.08685,-8.86188,0,0,0,0,0,0,0,-1,867,610,-9.08688,8.86187
-350,414,-6.4502,-2.41821,0,0,0,0,0,0,0,-1,874,610,-6.45021,2.41822
-343,414,-6.80249,-2.32117,0,0,0,0,0,0,0,-1,881,610,-6.80252,2.32116
-336,414,-7.11017,-2.52026,0,0,0,0,0,0,0,-1,888,610,-7.11016,2.52026
-329,414,-7.59747,-2.70313,0,0,0,0,0,0,0,-1,895,610,-7.59747,2.70315
-322,414,-4.42236,-1.29163,0,0,0,0,0,0,0,-1,902,610,-4.42238,1.2916
-315,414,0,0,0,0,0,0,0,0,0,-1,909,610,0,0
-308,414,0,0,0,0,0,0,0,0,0,-1,916,610,0,0
-301,414,0,0,0,0,0,0,0,0,0,-1,923,610,0,0
-294,414,0,0,0,0,0,0,0,0,0,-1,930,610,0,0
-287,414,0,0,0,0,0,0,0,0,0,-1,937,610,0,0
-280,414,0,0,0,0,0,0,0,0,0,-1,944,610,0,0
-273,414,0,0,0,0,0,0,0,0,0,-1,951,610,0,0
-266,414,0,0,0,0,0,0,0,0,0,-1,958,610,0,0
-259,414,0,0,0,0,0,0,0,0,0,-1,965,610,0,0
-252,414,0,0,0,0,0,0,0,0,0,-1,972,610,0,0
-245,414,0,0,0,0,0,0,0,0,0,-1,979,610,0,0
-238,414,0,0,0,0,0,0,0,0,0,-1,986,610,0,0
-231,414,0,0,0,0,0,0,0,0,0,-1,993,610,0,0
-224,414,0,0,0,0,0,0,0,0,0,-1,1000,610,0,0
-217,414,0,0,0,0,0,0,0,0,0,-1,1007,610,0,0
-210,414,0,0,0,0,0,0,0,0,0,-1,1014,610,0,0
-203,414,0,0,0,0,0,0,0,0,0,-1,1021,610,0,0
-196,414,0,0,0,0,0,0,0,0,0,-1,1028,610,0,0
-189,414,0,0,0,0,0,0,0,0,0,-1,1035,610,0,0
-182,414,0,0,0,0,0,0,0,0,0,-1,1042,610,0,0
-175,414,0,0,0,0,0,0,0,0,0,-1,1049,610,0,0
-168,414,0,0,0,0,0,0,0,0,0,-1,1056,610,0,0
-161,414,0,0,0,0,0,0,0,0,0,-1,1063,610,0,0
-154,414,0,0,0,0,0,0,0,0,0,-1,1070,610,0,0
-147,414,0,0,0,0,0,0,0,0,0,-1,1077,610,0,0
-140,414,0,0,0,0,0,0,0,0,0,-1,1084,610,0,0
-133,414,0,0,0,0,0,0,0,0,0,-1,1091,610,0,0
-126,414,0,0,0,0,0,0,0,0,0,-1,1098,610,0,0
-119,414,0,0,0,0,0,0,0,0,0,-1,1105,610,0,0
-112,414,0,0,0,0,0,0,0,0,0,-1,1112,610,0,0
-105,414,0,0,0,0,0,0,0,0,0,-1,1119,610,0,0
-98,414,0,0,0,0,0,0,0,0,0,-1,1126,610,0,0
-91,414,0,0,0,0,0,0,0,0,0,-1,1133,610,0,0
-84,414,0,0,0,0,0,0,0,0,0,-1,1140,610,0,0
-77,414,0,0,0,0,0,0,0,0,0,-1,1147,610,0,0
-70,414,0,0,0,0,0,0,0,0,0,-1,1154,610,0,0
-63,414,0,0,0,0,0,0,0,0,0,-1,1161,610,0,0
-56,414,0,0,0,0,0,0,0,0,0,-1,1168,610,0,0
-49,414,0,0,0,0,0,0,0,0,0,-1,1175,610,0,0
-42,414,0,0,0,0,0,0,0,0,0,-1,1182,610,0,0
-35,414,0,0,0,0,0,0,0,0,0,-1,1189,610,0,0
-28,414,0,0,0,0,0,0,0,0,0,-1,1196,610,0,0
-21,414,0,0,0,0,0,0,0,0,0,-1,1203,610,0,0
-14,414,0,0,0,0,0,0,0,0,0,-1,1210,610,0,0
-7,414,0,0,0,0,0,0,0,0,0,-1,1217,610,0,0
0,414,0,0,0,0,0,0,0,0,0,-1,1224,610,0,0
7,414,0,0,0,0,0,0,0,0,0,-1,1231,610,0,0
14,414,0,0,0,0,0,0,0,0,0,-1,1238,610,0,0
21,414,0,0,0,0,0,0,0,0,0,-1,1245,610,0,0
28,414,0,0,0,0,0,0,0,0,0,-1,1252,610,0,0
35,414,0,0,0,0,0,0,0,0,0,-1,1259,610,0,0
42,414,0,0,0,0,0,0,0,0,0,-1,1266,610,0,0
49,414,0,0,0,0,0,0,0,0,0,-1,1273,610,0,0
56,414,0,0,0,0,0,0,0,0,0,-1,1280,610,0,0
63,414,0,0,0,0,0,0,0,0,0,-1,1287,610,0,0
70,414,0,0,0,0,0,0,0,0,0,-1,1294,610,0,0
77,414,0,0,0,0,0,0,0,0,0,-1,1301,610,0,0
84,414,0,0,0,0,0,0,0,0,0,-1,1308,610,0,0
91,414,0,0,0,0,0,0,0,0,0,-1,1315,610,0,0
98,414,0,0,0,0,0,0,0,0,0,-1,1322,610,0,0
105,414,0,0,0,0,0,0,0,0,0,-1,1329,610,0,0
112,414,0,0,0,0,0,0,0,0,0,-1,1336,610,0,0
119,414,0,0,0,0,0,0,0,0,0,-1,1343,610,0,0
126,414,0,0,0,0,0,0,0,0,0,-1,1350,610,0,0
133,414,0,0,0,0,0,0,0,0,0,-1,1357,610,0,0
140,414,0,0,0,0,0,0,0,0,0,-1,1364,610,0,0
147,414,0,0,0,0,0,0,0,0,0,-1,1371,610,0,0
154,414,0,0,0,0,0,0,0,0,0,-1,1378,610,0,0
161,414,0,0,0,0,0,0,0,0,0,-1,1385,610,0,0
168,414,0,0,0,0,0,0,0,0,0,-1,1392,610,0,0
175,414,0,0,0,0,0,0,0,0,0,-1,1399,610,0,0
182,414,0,0,0,0,0,0,0,0,0,-1,1406,610,0,0
189,414,0,0,0,0,0,0,0,0,0,-1,1413,610,0,0
196,414,0,0,0,0,0,0,0,0,0,-1,1420,610,0,0
203,414,0,0,0,0,0,0,0,0,0,-1,1427,610,0,0
210,414,0,0,0,0,0,0,0,0,0,-1,1434,610,0,0
217,414,0,0,0,0,0,0,0,0,0,-1,1441,610,0,0
224,414,0,0,0,0,0,0,0,0,0,-1,1448,610,0,0
231,414,0,0,0,0,0,0,0,0,0,-1,1455,610,0,0
238,414,0,0,0,0,0,0,0,0,0,-1,1462,610,0,0
245,414,0,0,0,0,0,0,0,0,0,-1,1469,610,0,0
252,414,0,0,0,0,0,0,0,0,0,-1,1476,610,0,0
259,414,0,0,0,0,0,0,0,0,0,-1,1483,610,0,0
266,414,0,0,0,0,0,0,0,0,0,-1,1490,610,0,0
273,414,0,0,0,0,0,0,0,0,0,-1,1497,610,0,0
280,414,0,0,0,0,0,0,0,0,0,-1,1504,610,0,0
287,414,0,0,0,0,0,0,0,0,0,-1,1511,610,0,0
294,414,0,0,0,0,0,0,0,0,0,-1,1518,610,0,0
301,414,0,0,0,0,0,0,0,0,0,-1,1525,610,0,0
308,414,0,0,0,0,0,0,0,0,0,-1,1532,610,0,0
315,414,0,0,0,0,0,0,0,0,0,-1,1539,610,0,0
322,414,0,0,0,0,0,0,0,0,0,-1,1546,610,0,0
329,414,0,0,0,0,0,0,0,0,0,-1,1553,610,0,0
336,414,0,0,0,0,0,0,0,0,0,-1,1560,610,0,0
343,414,0,0,0,0,0,0,0,0,0,-1,1567,610,0,0
350,414,0,0,0,0,0,0,0,0,0,-1,1574,610,0,0
357,414,0,0,0,0,0,0,0,0,0,-1,1581,610,0,0
364,414,0,0,0,0,0,0,0,0,0,-1,1588,610,0,0
371,414,0,0,0,0,0,0,0,0,0,-1,1595,610,0,0
378,414,0,0,0,0,0,0,0,0,0,-1,1602,610,0,0
385,414,0,0,0,0,0,0,0,0,0,-1,1609,610,0,0
392,414,0,0,0,0,0,0,0,0,0,-1,1616,610,0,0
399,414,0,0,0,0,0,0,0,0,0,-1,1623,610,0,0
406,414,0,0,0,0,0,0,0,0,0,-1,1630,610,0,0
413,414,0,0,0,0,0,0,0,0,0,-1,1637,610,0,0
420,414,0,0,0,0,0,0,0,0,0,-1,1644,610,0,0
427,414,0,0,0,0,0,0,0,0,0,-1,1651,610,0,0
434,414,0,0,0,0,0,0,0,0,0,-1,1658,610,0,0
441,414,7.84375,0.584412,0,0,0,0,0,0,0,-1,1665,610,7.84379,-0.584394
448,414,7.40808,1.25446,0,0,0,0,0,0,0,-1,1672,610,7.40807,-1.25446
455,414,6.3512,1.73846,0,0,0,0,0,0,0,-1,1679,610,6.3512,-1.73847
462,414,8.18103,3.22113,0,0,0,0,0,0,0,-1,1686,610,8.18108,-3.22112
469,414,8.38513,2.49579,0,0,0,0,0,0,0,-1,1693,610,8.38516,-2.49576
476,414,8.64099,1.71161,0,0,0,0,0,0,0,-1,1700,610,8.64097,-1.71164
483,414,8.62744,0.687622,0,0,0,0,0,0,0,-1,1707,610,8.62749,-0.687615
490,414,8.38831,-0.0302734,0,0,0,0,0,0,0,-1,1714,610,8.38835,0.0302913
497,414,4.71094,-0.110046,0,0,0,0,0,0,0,-1,1721,610,4.71089,0.110024
504,414,7.19568,-1.43835,0,0,0,0,0,0,0,-1,1728,610,7.19563,1.43836
511,414,5.94153,-1.28772,0,0,0,0,0,0,0,-1,1735,610,5.94151,1.28769
518,414,4.53381,-0.0996704,0,0,0,0,0,0,0,-1,1742,610,4.53378,0.0996819
525,414,6.18811,-1.64056,0,0,0,0,0,0,0,-1,1749,610,6.18814,1.64055
532,414,14.8326,-9.11316,0,0,0,0,0,0,0,-1,1756,610,14.8327,9.11315
539,414,14.9613,-8.46832,0.00239349,0.00233486,0.00140693,0.00377141,0.000956939,0.774981,0.00226375,0.0463162,1763,610,14.9613,8.46835
546,414,15.0066,-7.89539,0.0018052,0.00185227,0.00103336,0.00286237,0.000795107,0.796784,0.00170613,0.0137101,1770,610,15.0066,7.89536
553,414,15.014,-7.45331,0.00132863,0.00127667,0.000713149,0.00201627,0.000589028,0.767194,0.00119716,0.0123914,1777,610,15.014,7.45328
560,414,15.0176,-6.9823,0.000887542,0.00089152,0.000472126,0.00136166,0.000417401,0.787504,0.000805533,0.0148436,1784,610,15.0176,6.98229
567,414,15.0165,-6.50549,0.000514208,0.000781257,0.000419094,0.00108758,0.000207882,0.939615,0.000666654,0.0236133,1791,610,15.0165,6.50552
574,414,14.9611,-6.08649,0.00026211,0.000892861,0.000525209,0.00119011,-3.51368e-05,1.05578,0.000805373,0.0212388,1798,610,14.961,6.08649
581,414,14.9509,-5.63562,5.61598e-05,0.00122346,0.000762028,0.00159967,-0.000320052,1.1122,0.00118759,0.0175999,1805,610,14.9509,5.6356
588,414,14.9255,-5.16577,-0.000153897,0.00180565,0.00112293,0.00231616,-0.000664401,1.14411,0.00180676,0.0170883,1812,610,14.9255,5.16575
595,414,14.9314,-4.6828,-0.000198481,0.0027368,0.001718,0.00352869,-0.000990371,1.13888,0.00274284,0.0216354,1819,610,14.9314,4.68279
602,414,14.9476,-4.24213,-0.000167593,0.00407603,0.00251529,0.00524493,-0.00133649,1.13577,0.00401692,0.0237767,1826,610,14.9476,4.24211
609,414,14.899,-3.82245,0,0,0,0,0,0,0,-1,1833,610,14.899,3.82244
616,414,15.1564,-3.07153,0,0,0,0,0,0,0,-1,1840,610,15.1564,3.07152
623,414,9.6969,0.0378418,0,0,0,0,0,0,0,-1,1847,610,9.69685,-0.0378644
630,414,5.47144,0.499329,0,0,0,0,0,0,0,-1,1854,610,5.47142,-0.499303
637,414,8.36707,4.16278,0,0,0,0,0,0,0,-1,1861,610,8.36709,-4.16278
644,414,5.87073,1.51422,0,0,0,0,0,0,0,-1,1868,610,5.87076,-1.51424
651,414,3.6377,0.820557,0,0,0,0,0,0,0,-1,1875,610,3.6377,-0.820543
658,414,2.29761,3.87323,0,0,0,0,0,0,0,-1,1882,610,2.29758,-3.87325
665,414,0,0,0,0,0,0,0,0,0,-1,1889,610,0,0
672,414,0,0,0,0,0,0,0,0,0,-1,1896,610,0,0
679,414,0,0,0,0,0,0,0,0,0,-1,1903,610,0,0
686,414,0,0,0,0,0,0,0,0,0,-1,1910,610,0,0
693,414,0,0,0,0,0,0,0,0,0,-1,1917,610,0,0
700,414,0,0,0,0,0,0,0,0,0,-1,1924,610,0,0
707,414,0,0,0,0,0,0,0,0,0,-1,1931,610,0,0
714,414,0,0,0,0,0,0,0,0,0,-1,1938,610,0,0
721,414,0,0,0,0,0,0,0,0,0,-1,1945,610,0,0
728,414,0,0,0,0,0,0,0,0,0,-1,1952,610,0,0
735,414,0,0,0,0,0,0,0,0,0,-1,1959,610,0,0
742,414,0,0,0,0,0,0,0,0,0,-1,1966,610,0,0
749,414,0,0,0,0,0,0,0,0,0,-1,1973,610,0,0
756,414,0,0,0,0,0,0,0,0,0,-1,1980,610,0,0
763,414,0,0,0,0,0,0,0,0,0,-1,1987,610,0,0
770,414,0,0,0,0,0,0,0,0,0,-1,1994,610,0,0
777,414,0,0,0,0,0,0,0,0,0,-1,2001,610,0,0
784,414,0,0,0,0,0,0,0,0,0,-1,2008,610,0,0
791,414,0,0,0,0,0,0,0,0,0,-1,2015,610,0,0
798,414,0,0,0,0,0,0,0,0,0,-1,2022,610,0,0
805,414,0,0,0,0,0,0,0,0,0,-1,2029,610,0,0
812,414,0,0,0,0,0,0,0,0,0,-1,2036,610,0,0
-700,407,0,0,0,0,0,0,0,0,0,-1,524,617,0,0
-693,407,0,0,0,0,0,0,0,0,0,-1,531,617,0,0
-686,407,0,0,0,0,0,0,0,0,0,-1,538,617,0,0
-679,407,0,0,0,0,0,0,0,0,0,-1,545,617,0,0
-672,407,0,0,0,0,0,0,0,0,0,-1,552,617,0,0
-665,407,0,0,0,0,0,0,0,0,0,-1,559,617,0,0
-658,407,0,0,0,0,0,0,0,0,0,-1,566,617,0,0
-651,407,0,0,0,0,0,0,0,0,0,-1,573,617,0,0
-644,407,0,0,0,0,0,0,0,0,0,-1,580,617,0,0
-637,407,0,0,0,0,0,0,0,0,0,-1,587,617,0,0
-630,407,0,0,0,0,0,0,0,0,0,-1,594,617,0,0
-623,407,0,0,0,0,0,0,0,0,0,-1,601,617,0,0
-616,407,0,0,0,0,0,0,0,0,0,-1,608,617,0,0
-609,407,0,0,0,0,0,0,0,0,0,-1,615,617,0,0
-602,407,0,0,0,0,0,0,0,0,0,-1,622,617,0,0
-595,407,0,0,0,0,0,0,0,0,0,-1,629,617,0,0
-588,407,0,0,0,0,0,0,0,0,0,-1,636,617,0,0
-581,407,0,0,0,0,0,0,0,0,0,-1,643,617,0,0
-574,407,0,0,0,0,0,0,0,0,0,-1,650,617,0,0
-567,407,0,0,0,0,0,0,0,0,0,-1,657,617,0,0
-560,407,0,0,0,0,0,0,0,0,0,-1,664,617,0,0
-553,407,0,0,0,0,0,0,0,0,0,-1,671,617,0,0
-546,407,-8.54517,-0.658142,0,0,0,0,0,0,0,-1,678,617,-8.54515,0.658112
-539,407,-6.09442,-1.01154,0,0,0,0,0,0,0,-1,685,617,-6.09441,1.01155
-532,407,-7.75665,1.62152,0,0,0,0,0,0,0,-1,692,617,-7.75667,-1.62154
-525,407,-3.78247,-2.67639,0,0,0,0,0,0,0,-1,699,617,-3.78246,2.67638
-518,407,-5.013,-5.87323,0,0,0,0,0,0,0,-1,706,617,-5.013,5.87324
-511,407,-4.26392,-4.37659,0,0,0,0,0,0,0,-1,713,617,-4.26393,4.37658
-504,407,-7.20374,-4.04852,0,0,0,0,0,0,0,-1,720,617,-7.20373,4.04855
-497,407,-7.15076,-4.59723,0,0,0,0,0,0,0,-1,727,617,-7.15078,4.59724
-490,407,-7.12836,-5.10376,-0.00298348,0.00610109,-0.00210424,0.00656482,-0.00344721,-1.35389,0.00587311,0.0354615,734,617,-7.12838,5.10375
-483,407,-7.09106,-5.55383,-0.00247456,0.00473454,-0.00185824,0.00518534,-0.00292536,-1.3328,0.00474292,0.0229225,741,617,-7.09107,5.55381
-476,407,-7.14294,-5.98694,-0.001901,0.00371489,-0.00167564,0.00417686,-0.00236296,-1.30178,0.00382387,0.0139015,748,617,-7.14295,5.98695
-469,407,-7.18774,-6.42993,-0.0012452,0.00289318,-0.00154067,0.00340376,-0.00175578,-1.25079,0.00302909,0.0115597,755,617,-7.18774,6.42992
-462,407,-7.20105,-6.86841,-0.000626428,0.00220001,-0.00139257,0.00277084,-0.00119725,-1.18178,0.00235026,0.0177056,762,617,-7.20105,6.86842
-455,407,-7.24414,-7.34161,-0.000198392,0.00153304,-0.00113812,0.00209729,-0.000762635,-1.11054,0.00171006,0.0208157,769,617,-7.24414,7.34164
-448,407,-7.23041,-7.79218,7.05671e-05,0.000732071,-0.000664295,0.0011434,-0.000340762,-1.01638,0.000897679,0.0197135,776,617,-7.23039,7.79216
-441,407,-7.23254,-8.20294,7.60454e-05,-4.86927e-05,-5.15225e-05,9.45742e-05,-6.72215e-05,-0.345224,9.38567e-05,0.0148339,783,617,-7.23255,8.20294
-434,407,-7.2655,-8.62799,-0.000155773,-0.000760615,0.000667897,0.00027498,-0.00119137,0.57281,0.000900019,0.0104841,790,617,-7.26551,8.628
-427,407,-7.25146,-9.06946,-0.000644288,-0.00164979,0.00157468,0.000505953,-0.00280003,0.630877,0.00205619,0.0111226,797,617,-7.25146,9.06945
-420,407,-7.22162,-9.4953,-0.0014407,-0.00265458,0.00270912,0.000728642,-0.00482391,0.6752,0.00348431,0.010769,804,617,-7.22161,9.49531
-413,407,-7.23035,-9.92853,-0.00261327,-0.00354973,0.00406147,0.00100687,-0.00716987,0.728009,0.00514846,0.0129371,811,617,-7.23034,9.92855
-406,407,-7.33887,-10.2315,-0.00433612,-0.00471441,0.00565975,0.00113764,-0.0101882,0.768695,0.00720135,0.0345167,818,617,-7.33885,10.2315
-399,407,-7.50818,-10.5831,0,0,0,0,0,0,0,-1,825,617,-7.50818,10.5831
-392,407,-7.37921,-10.4293,0,0,0,0,0,0,0,-1,832,617,-7.37918,10.4293
-385,407,-7.65765,-10.7744,0,0,0,0,0,0,0,-1,839,617,-7.65767,10.7744
-378,407,-6.08655,-7.42291,0,0,0,0,0,0,0,-1,846,617,-6.08652,7.42292
-371,407,-7.4007,-5.79449,0,0,0,0,0,0,0,-1,853,617,-7.40072,5.79447
-364,407,-10.0638,-6.6228,0,0,0,0,0,0,0,-1,860,617,-10.0639,6.62279
-357,407,-6.64447,-1.83337,0,0,0,0,0,0,0,-1,867,617,-6.64446,1.8334
-350,407,-7.03351,-1.77551,0,0,0,0,0,0,0,-1,874,617,-7.03349,1.77551
-343,407,-7.40967,-1.95026,0,0,0,0,0,0,0,-1,881,617,-7.40969,1.95026
-336,407,-8.10229,-2.40662,0,0,0,0,0,0,0,-1,888,617,-8.10229,2.40664
-329,407,-8.81232,-2.76331,0,0,0,0,0,0,0,-1,895,617,-8.81235,2.76331
-322,407,0,0,0,0,0,0,0,0,0,-1,902,617,0,0
-315,407,0,0,0,0,0,0,0,0,0,-1,909,617,0,0
-308,407,0,0,0,0,0,0,0,0,0,-1,916,617,0,0
-301,407,0,0,0,0,0,0,0,0,0,-1,923,617,0,0
-294,407,0,0,0,0,0,0,0,0,0,-1,930,617,0,0
-287,407,0,0,0,0,0,0,0,0,0,-1,937,617,0,0
-280,407,0,0,0,0,0,0,0,0,0,-1,944,617,0,0
-273,407,0,0,0,0,0,0,0,0,0,-1,951,617,0,0
-266,407,0,0,0,0,0,0,0,0,0,-1,958,617,0,0
-259,407,0,0,0,0,0,0,0,0,0,-1,965,617,0,0
-252,407,0,0,0,0,0,0,0,0,0,-1,972,617,0,0
-245,407,0,0,0,0,0,0,0,0,0,-1,979,617,0,0
-238,407,0,0,0,0,0,0,0,0,0,-1,986,617,0,0
-231,407,0,0,0,0,0,0,0,0,0,-1,993,617,0,0
-224,407,0,0,0,0,0,0,0,0,0,-1,1000,617,0,0
-217,407,0,0,0,0,0,0,0,0,0,-1,1007,617,0,0
-210,407,0,0,0,0,0,0,0,0,0,-1,1014,617,0,0
-203,407,0,0,0,0,0,0,0,0,0,-1,1021,617,0,0
-196,407,0,0,0,0,0,0,0,0,0,-1,1028,617,0,0
-189,407,0,0,0,0,0,0,0,0,0,-1,1035,617,0,0
-182,407,0,0,0,0,0,0,0,0,0,-1,1042,617,0,0
-175,407,0,0,0,0,0,0,0,0,0,-1,1049,617,0,0
-168,407,0,0,0,0,0,0,0,0,0,-1,1056,617,0,0
-161,407,0,0,0,0,0,0,0,0,0,-1,1063,617,0,0
-154,407,0,0,0,0,0,0,0,0,0,-1,1070,617,0,0
-147,407,0,0,0,0,0,0,0,0,0,-1,1077,617,0,0
-140,407,0,0,0,0,0,0,0,0,0,-1,1084,617,0,0
-133,407,0,0,0,0,0,0,0,0,0,-1,1091,617,0,0
-126,407,0,0,0,0,0,0,0,0,0,-1,1098,617,0,0
-119,407,0,0,0,0,0,0,0,0,0,-1,1105,617,0,0
-112,407,0,0,0,0,0,0,0,0,0,-1,1112,617,0,0
-105,407,0,0,0,0,0,0,0,0,0,-1,1119,617,0,0
-98,407,0,0,0,0,0,0,0,0,0,-1,1126,617,0,0
-91,407,0,0,0,0,0,0,0,0,0,-1,1133,617,0,0
-84,407,0,0,0,0,0,0,0,0,0,-1,1140,617,0,0
-77,407,0,0,0,0,0,0,0,0,0,-1,1147,617,0,0
-70,407,0,0,0,0,0,0,0,0,0,-1,1154,617,0,0
-63,407,0,0,0,0,0,0,0,0,0,-1,1161,617,0,0
-56,407,0,0,0,0,0,0,0,0,0,-1,1168,617,0,0
-49,407,0,0,0,0,0,0,0,0,0,-1,1175,617,0,0
-42,407,0,0,0,0,0,0,0,0,0,-1,1182,617,0,0
-35,407,0,0,0,0,0,0,0,0,0,-1,1189,617,0,0
-28,407,0,0,0,0,0,0,0,0,0,-1,1196,617,0,0
-21,407,0,0,0,0,0,0,0,0,0,-1,1203,617,0,0
-14,407,0,0,0,0,0,0,0,0,0,-1,1210,617,0,0
-7,407,0,0,0,0,0,0,0,0,0,-1,1217,617,0,0
0,407,0,0,0,0,0,0,0,0,0,-1,1224,617,0,0
7,407,0,0,0,0,0,0,0,0,0,-1,1231,617,0,0
14,407,0,0,0,0,0,0,0,0,0,-1,1238,617,0,0
21,407,0,0,0,0,0,0,0,0,0,-1,1245,617,0,0
28,407,0,0,0,0,0,0,0,0,0,-1,1252,617,0,0
35,407,0,0,0,0,0,0,0,0,0,-1,1259,617,0,0
42,407,0,0,0,0,0,0,0,0,0,-1,1266,617,0,0
49,407,0,0,0,0,0,0,0,0,0,-1,1273,617,0,0
56,407,0,0,0,0,0,0,0,0,0,-1,1280,617,0,0
63,407,0,0,0,0,0,0,0,0,0,-1,1287,617,0,0
70,407,0,0,0,0,0,0,0,0,0,-1,1294,617,0,0
77,407,0,0,0,0,0,0,0,0,0,-1,1301,617,0,0
84,407,0,0,0,0,0,0,0,0,0,-1,1308,617,0,0
91,407,0,0,0,0,0,0,0,0,0,-1,1315,617,0,0
98,407,0,0,0,0,0,0,0,0,0,-1,1322,617,0,0
105,407,0,0,0,0,0,0,0,0,0,-1,1329,617,0,0
112,407,0,0,0,0,0,0,0,0,0,-1,1336,617,0,0
119,407,0,0,0,0,0,0,0,0,0,-1,1343,617,0,0
126,407,0,0,0,0,0,0,0,0,0,-1,1350,617,0,0
133,407,0,0,0,0,0,0,0,0,0,-1,1357,617,0,0
140,407,0,0,0,0,0,0,0,0,0,-1,1364,617,0,0
147,407,0,0,0,0,0,0,0,0,0,-1,1371,617,0,0
154,407,0,0,0,0,0,0,0,0,0,-1,1378,617,0,0
161,407,0,0,0,0,0,0,0,0,0,-1,1385,617,0,0
168,407,0,0,0,0,0,0,0,0,0,-1,1392,617,0,0
175,407,0,0,0,0,0,0,0,0,0,-1,1399,617,0,0
182,407,0,0,0,0,0,0,0,0,0,-1,1406,617,0,0
189,407,0,0,0,0,0,0,0,0,0,-1,1413,617,0,0
196,407,0,0,0,0,0,0,0,0,0,-1,1420,617,0,0
203,407,0,0,0,0,0,0,0,0,0,-1,1427,617,0,0
210,407,0,0,0,0,0,0,0,0,0,-1,1434,617,0,0
217,407,0,0,0,0,0,0,0,0,0,-1,1441,617,0,0
224,407,0,0,0,0,0,0,0,0,0,-1,1448,617,0,0
231,407,0,0,0,0,0,0,0,0,0,-1,1455,617,0,0
238,407,0,0,0,0,0,0,0,0,0,-1,1462,617,0,0
245,407,0,0,0,0,0,0,0,0,0,-1,1469,617,0,0
252,407,0,0,0,0,0,0,0,0,0,-1,1476,617,0,0
259,407,0,0,0,0,0,0,0,0,0,-1,1483,617,0,0
266,407,0,0,0,0,0,0,0,0,0,-1,1490,617,0,0
273,407,0,0,0,0,0,0,0,0,0,-1,1497,617,0,0
280,407,0,0,0,0,0,0,0,0,0,-1,1504,617,0,0
287,407,0,0,0,0,0,0,0,0,0,-1,1511,617,0,0
294,407,0,0,0,0,0,0,0,0,0,-1,1518,617,0,0
301,407,0,0,0,0,0,0,0,0,0,-1,1525,617,0,0
308,407,0,0,0,0,0,0,0,0,0,-1,1532,617,0,0
315,407,0,0,0,0,0,0,0,0,0,-1,1539,617,0,0
322,407,0,0,0,0,0,0,0,0,0,-1,1546,617,0,0
329,407,0,0,0,0,0,0,0,0,0,-1,1553,617,0,0
336,407,0,0,0,0,0,0,0,0,0,-1,1560,617,0,0
343,407,0,0,0,0,0,0,0,0,0,-1,1567,617,0,0
350,407,0,0,0,0,0,0,0,0,0,-1,1574,617,0,0
357,407,0,0,0,0,0,0,0,0,0,-1,1581,617,0,0
364,407,0,0,0,0,0,0,0,0,0,-1,1588,617,0,0
371,407,0,0,0,0,0,0,0,0,0,-1,1595,617,0,0
378,407,0,0,0,0,0,0,0,0,0,-1,1602,617,0,0
385,407,0,0,0,0,0,0,0,0,0,-1,1609,617,0,0
392,407,0,0,0,0,0,0,0,0,0,-1,1616,617,0,0
399,407,0,0,0,0,0,0,0,0,0,-1,1623,617,0,0
406,407,0,0,0,0,0,0,0,0,0,-1,1630,617,0,0
413,407,0,0,0,0,0,0,0,0,0,-1,1637,617,0,0
420,407,0,0,0,0,0,0,0,0,0,-1,1644,617,0,0
427,407,0,0,0,0,0,0,0,0,0,-1,1651,617,0,0
434,407,0,0,0,0,0,0,0,0,0,-1,1658,617,0,0
441,407,0,0,0,0,0,0,0,0,0,-1,1665,617,0,0
448,407,7.02893,2.13843,0,0,0,0,0,0,0,-1,1672,617,7.02899,-2.13844
455,407,7.55237,2.29242,0,0,0,0,0,0,0,-1,1679,617,7.55236,-2.29244
462,407,8.2926,2.46173,0,0,0,0,0,0,0,-1,1686,617,8.29261,-2.46174
469,407,8.71509,2.22681,0,0,0,0,0,0,0,-1,1693,617,8.71511,-2.22681
476,407,8.89917,1.47766,0,0,0,0,0,0,0,-1,1700,617,8.89914,-1.47768
483,407,9.02612,0.682983,0,0,0,0,0,0,0,-1,1707,617,9.02608,-0.683004
490,407,9.12659,0.000671387,0,0,0,0,0,0,0,-1,1714,617,9.12653,-0.000675931
497,407,7.76819,0.855835,0,0,0,0,0,0,0,-1,1721,617,7.7682,-0.855865
504,407,4.69336,0.160706,0,0,0,0,0,0,0,-1,1728,617,4.69337,-0.1607
511,407,4.07104,-0.00140381,0,0,0,0,0,0,0,-1,1735,617,4.07109,0.00141425
518,407,6.09534,1.9411,0,0,0,0,0,0,0,-1,1742,617,6.09532,-1.94113
525,407,5.72534,-1.35986,0,0,0,0,0,0,0,-1,1749,617,5.72529,1.35988
532,407,15.3486,-8.37067,0,0,0,0,0,0,0,-1,1756,617,15.3486,8.37066
539,407,15.2878,-8.54614,0,0,0,0,0,0,0,-1,1763,617,15.2878,8.54616
546,407,15.4698,-7.88531,0.00166048,0.00222194,0.00105304,0.00303103,0.000851391,0.915664,0.00180511,0.0189547,1770,617,15.4698,7.88534
553,407,15.4456,-7.44641,0.00128763,0.00152957,0.00072819,0.00214677,0.000670431,0.867708,0.00126822,0.0156237,1777,617,15.4455,7.44639
560,407,15.4534,-6.97076,0.000967326,0.000993789,0.000444488,0.00142524,0.000535872,0.800278,0.000831258,0.0159211,1784,617,15.4533,6.97077
567,407,15.4557,-6.49481,0.000674413,0.000813052,0.000377844,0.00112788,0.000359583,0.87612,0.000665282,0.0289245,1791,617,15.4557,6.49482
574,407,15.4199,-6.10162,0.000499229,0.000881872,0.000484678,0.00121162,0.000169478,0.97338,0.000757602,0.0255918,1798,617,15.4199,6.1016
581,407,15.4136,-5.65161,0.000356564,0.00117633,0.000711601,0.00158765,-5.4761e-05,1.04669,0.00107715,0.0173877,1805,617,15.4136,5.65162
588,407,15.3826,-5.1579,0.000191903,0.00168996,0.00103284,0.00221678,-0.000334927,1.09912,0.00160122,0.0123666,1812,617,15.3826,5.15791
595,407,15.4032,-4.69025,0.00022059,0.0024885,0.00155901,0.00328233,-0.000573239,1.09982,0.00240221,0.0236042,1819,617,15.4031,4.69027
602,407,15.4003,-4.2168,0.000350127,0.0036118,0.0022776,0.00478223,-0.000820301,1.0961,0.00349383,0.0197229,1826,617,15.4003,4.21678
609,407,15.3599,-3.73413,0.00042328,0.00496469,0.0031061,0.00654158,-0.0011536,1.10103,0.0047921,0.0162248,1833,617,15.3599,3.73414
616,407,15.4185,-3.15161,0.000695026,0.00647154,0.00403329,0.00854407,-0.0013775,1.09612,0.00620638,0.0291322,1840,617,15.4184,3.1516
623,407,15.6797,-2.46613,0,0,0,0,0,0,0,-1,1847,617,15.6797,2.46611
630,407,7.06177,0.814575,0,0,0,0,0,0,0,-1,1854,617,7.06178,-0.814579
637,407,8.41431,0.507019,0,0,0,0,0,0,0,-1,1861,617,8.41428,-0.507005
644,407,5.09766,2.27747,0,0,0,0,0,0,0,-1,1868,617,5.09764,-2.27746
651,407,7.37524,0.0513916,0,0,0,0,0,0,0,-1,1875,617,7.3752,-0.0513923
658,407,3.76685,0.594177,0,0,0,0,0,0,0,-1,1882,617,3.76683,-0.594184
665,407,5.76123,0.375061,0,0,0,0,0,0,0,-1,1889,617,5.76118,-0.37509
672,407,0,0,0,0,0,0,0,0,0,-1,1896,617,0,0
679,407,0,0,0,0,0,0,0,0,0,-1,1903,617,0,0
686,407,0,0,0,0,0,0,0,0,0,-1,1910,617,0,0
693,407,0,0,0,0,0,0,0,0,0,-1,1917,617,0,0
700,407,0,0,0,0,0,0,0,0,0,-1,1924,617,0,0
707,407,0,0,0,0,0,0,0,0,0,-1,1931,617,0,0
714,407,0,0,0,0,0,0,0,0,0,-1,1938,617,0,0
721,407,0,0,0,0,0,0,0,0,0,-1,1945,617,0,0
728,407,0,0,0,0,0,0,0,0,0,-1,1952,617,0,0
735,407,0,0,0,0,0,0,0,0,0,-1,1959,617,0,0
742,407,0,0,0,0,0,0,0,0,0,-1,1966,617,0,0
749,407,0,0,0,0,0,0,0,0,0,-1,1973,617,0,0
756,407,0,0,0,0,0,0,0,0,0,-1,1980,617,0,0
763,407,0,0,0,0,0,0,0,0,0,-1,1987,617,0,0
770,407,0,0,0,0,0,0,0,0,0,-1,1994,617,0,0
777,407,0,0,0,0,0,0,0,0,0,-1,2001,617,0,0
784,407,0,0,0,0,0,0,0,0,0,-1,2008,617,0,0
791,407,0,0,0,0,0,0,0,0,0,-1,2015,617,0,0
798,407,0,0,0,0,0,0,0,0,0,-1,2022,617,0,0
805,407,0,0,0,0,0,0,0,0,0,-1,2029,617,0,0
812,407,0,0,0,0,0,0,0,0,0,-1,2036,617,0,0
-700,400,0,0,0,0,0,0,0,0,0,-1,524,624,0,0
-693,400,0,0,0,0,0,0,0,0,0,-1,531,624,0,0
-686,400,0,0,0,0,0,0,0,0,0,-1,538,624,0,0
-679,400,0,0,0,0,0,0,0,0,0,-1,545,624,0,0
-672,400,0,0,0,0,0,0,0,0,0,-1,552,624,0,0
-665,400,0,0,0,0,0,0,0,0,0,-1,559,624,0,0
-658,400,0,0,0,0,0,0,0,0,0,-1,566,624,0,0
-651,400,0,0,0,0,0,0,0,0,0,-1,573,624,0,0
-644,400,0,0,0,0,0,0,0,0,0,-1,580,624,0,0
-637,400,0,0,0,0,0,0,0,0,0,-1,587,624,0,0
-630,400,0,0,0,0,0,0,0,0,0,-1,594,624,0,0
-623,400,0,0,0,0,0,0,0,0,0,-1,601,624,0,0
-616,400,0,0,0,0,0,0,0,0,0,-1,608,624,0,0
-609,400,0,0,0,0,0,0,0,0,0,-1,615,624,0,0
-602,400,0,0,0,0,0,0,0,0,0,-1,622,624,0,0
-595,400,0,0,0,0,0,0,0,0,0,-1,629,624,0,0
-588,400,0,0,0,0,0,0,0,0,0,-1,636,624,0,0
-581,400,0,0,0,0,0,0,0,0,0,-1,643,624,0,0
-574,400,0,0,0,0,0,0,0,0,0,-1,650,624,0,0
-567,400,0,0,0,0,0,0,0,0,0,-1,657,624,0,0
-560,400,0,0,0,0,0,0,0,0,0,-1,664,624,0,0
-553,400,0,0,0,0,0,0,0,0,0,-1,671,624,0,0
-546,400,-8.41174,-1.4599,0,0,0,0,0,0,0,-1,678,624,-8.41173,1.45989
-539,400,-5.69104,-1.7337,0,0,0,0,0,0,0,-1,685,624,-5.69103,1.7337
-532,400,-3.03632,-2.03912,0,0,0,0,0,0,0,-1,692,624,-3.03632,2.03909
-525,400,-6.20813,-7.04071,0,0,0,0,0,0,0,-1,699,624,-6.20814,7.04071
-518,400,-5.26544,-1.58661,0,0,0,0,0,0,0,-1,706,624,-5.26544,1.58658
-511,400,-5.82935,-5.19202,0,0,0,0,0,0,0,-1,713,624,-5.82936,5.19201
-504,400,-7.70892,-4.55469,0,0,0,0,0,0,0,-1,720,624,-7.7089,4.55471
-497,400,-7.41046,-4.64252,0,0,0,0,0,0,0,-1,727,624,-7.41043,4.64252
-490,400,-7.57397,-5.03864,-0.00235804,0.00481429,-0.00147707,0.00510657,-0.00265031,-1.37544,0.00455267,0.0215535,734,624,-7.57398,5.03861
-483,400,-7.58899,-5.53278,-0.00177588,0.00366192,-0.00137202,0.00398848,-0.00210244,-1.33713,0.00357235,0.0154231,741,624,-7.58901,5.53278
-476,400,-7.59216,-5.97491,-0.00115995,0.0027931,-0.00130917,0.00318735,-0.0015542,-1.27829,0.00279114,0.0132734,748,624,-7.59218,5.97491
-469,400,-7.59137,-6.43719,-0.000495136,0.00213021,-0.00129268,0.00265985,-0.00102478,-1.18193,0.00219603,0.0137382,755,624,-7.59136,6.4372
-462,400,-7.62085,-6.91687,7.1886e-05,0.0015513,-0.00123031,0.00224715,-0.000623962,-1.05606,0.0017437,0.0185786,762,624,-7.62084,6.91685
-455,400,-7.63275,-7.35114,0.000399091,0.000975172,-0.00100447,0.00173208,-0.000357818,-0.925031,0.00129064,0.0206221,769,624,-7.63274,7.35113
-448,400,-7.65369,-7.7832,0.000607673,0.00029192,-0.000593584,0.00106402,-0.000164425,-0.655421,0.000770027,0.0162751,776,624,-7.65372,7.78322
-441,400,-7.67322,-8.1665,0.000533238,-0.000361311,-3.68591e-05,0.000534754,-0.000362827,-0.0411113,0.000521378,0.0150169,783,624,-7.67322,8.16652
-434,400,-7.69537,-8.59131,0.000191439,-0.00100755,0.000673412,0.000493542,-0.00130965,0.421702,0.00107603,0.0118196,790,624,-7.6954,8.5913
-427,400,-7.69427,-9.02832,-0.000497913,-0.00187648,0.00164037,0.000592111,-0.00296651,0.586499,0.00220174,0.0105702,797,624,-7.69425,9.02832
-420,400,-7.63696,-9.48724,-0.00162674,-0.00298323,0.00295384,0.00072572,-0.00533569,0.672547,0.00382207,0.0156347,804,624,-7.63697,9.48724
-413,400,-7.71246,-9.85748,-0.00329192,-0.00394038,0.00457446,0.00096978,-0.00820208,0.750018,0.00581832,0.0341654,811,624,-7.71246,9.85749
-406,400,-8.03979,-10.0581,-0.00581684,-0.00541994,0.00667022,0.00105478,-0.0122916,0.800269,0.00856764,0.0478027,818,624,-8.03978,10.0581
-399,400,-8.05017,-10.3642,0,0,0,0,0,0,0,-1,825,624,-8.05019,10.3642
-392,400,-4.92285,-6.63354,0,0,0,0,0,0,0,-1,832,624,-4.92285,6.63354
-385,400,-3.68738,-5.04205,0,0,0,0,0,0,0,-1,839,624,-3.68736,5.04207
-378,400,-6.84064,-1.28662,0,0,0,0,0,0,0,-1,846,624,-6.84062,1.28662
-371,400,-6.98865,-1.2572,0,0,0,0,0,0,0,-1,853,624,-6.98865,1.25721
-364,400,-6.97247,-1.24133,0,0,0,0,0,0,0,-1,860,624,-6.97249,1.24135
-357,400,-7.18329,-1.23218,0,0,0,0,0,0,0,-1,867,624,-7.18327,1.2322
-350,400,-7.40186,-1.19409,0,0,0,0,0,0,0,-1,874,624,-7.40187,1.19407
-343,400,-8.09357,-1.51147,0,0,0,0,0,0,0,-1,881,624,-8.09355,1.51148
-336,400,0,0,0,0,0,0,0,0,0,-1,888,624,0,0
-329,400,0,0,0,0,0,0,0,0,0,-1,895,624,0,0
-322,400,0,0,0,0,0,0,0,0,0,-1,902,624,0,0
-315,400,0,0,0,0,0,0,0,0,0,-1,909,624,0,0
-308,400,0,0,0,0,0,0,0,0,0,-1,916,624,0,0
-301,400,0,0,0,0,0,0,0,0,0,-1,923,624,0,0
-294,400,0,0,0,0,0,0,0,0,0,-1,930,624,0,0
-287,400,0,0,0,0,0,0,0,0,0,-1,937,624,0,0
-280,400,0,0,0,0,0,0,0,0,0,-1,944,624,0,0
-273,400,0,0,0,0,0,0,0,0,0,-1,951,624,0,0
-266,400,0,0,0,0,0,0,0,0,0,-1,958,624,0,0
-259,400,0,0,0,0,0,0,0,0,0,-1,965,624,0,0
-252,400,0,0,0,0,0,0,0,0,0,-1,972,624,0,0
-245,400,0,0,0,0,0,0,0,0,0,-1,979,624,0,0
-238,400,0,0,0,0,0,0,0,0,0,-1,986,624,0,0
-231,400,0,0,0,0,0,0,0,0,0,-1,993,624,0,0
-224,400,0,0,0,0,0,0,0,0,0,-1,1000,624,0,0
-217,400,0,0,0,0,0,0,0,0,0,-1,1007,624,0,0
-210,400,0,0,0,0,0,0,0,0,0,-1,1014,624,0,0
-203,400,0,0,0,0,0,0,0,0,0,-1,1021,624,0,0
-196,400,0,0,0,0,0,0,0,0,0,-1,1028,624,0,0
-189,400,0,0,0,0,0,0,0,0,0,-1,1035,624,0,0
-182,400,0,0,0,0,0,0,0,0,0,-1,1042,624,0,0
-175,400,0,0,0,0,0,0,0,0,0,-1,1049,624,0,0
-168,400,0,0,0,0,0,0,0,0,0,-1,1056,624,0,0
-161,400,0,0,0,0,0,0,0,0,0,-1,1063,624,0,0
-154,400,0,0,0,0,0,0,0,0,0,-1,1070,624,0,0
-147,400,0,0,0,0,0,0,0,0,0,-1,1077,624,0,0
-140,400,0,0,0,0,0,0,0,0,0,-1,1084,624,0,0
-133,400,0,0,0,0,0,0,0,0,0,-1,1091,624,0,0
-126,400,0,0,0,0,0,0,0,0,0,-1,1098,624,0,0
-119,400,0,0,0,0,0,0,0,0,0,-1,1105,624,0,0
-112,400,0,0,0,0,0,0,0,0,0,-1,1112,624,0,0
-105,400,0,0,0,0,0,0,0,0,0,-1,1119,624,0,0
-98,400,0,0,0,0,0,0,0,0,0,-1,1126,624,0,0
-91,400,0,0,0,0,0,0,0,0,0,-1,1133,624,0,0
-84,400,0,0,0,0,0,0,0,0,0,-1,1140,624,0,0
-77,400,0,0,0,0,0,0,0,0,0,-1,1147,624,0,0
-70,400,0,0,0,0,0,0,0,0,0,-1,1154,624,0,0
-63,400,0,0,0,0,0,0,0,0,0,-1,1161,624,0,0
-56,400,0,0,0,0,0,0,0,0,0,-1,1168,624,0,0
-49,400,0,0,0,0,0,0,0,0,0,-1,1175,624,0,0
-42,400,0,0,0,0,0,0,0,0,0,-1,1182,624,0,0
-35,400,0,0,0,0,0,0,0,0,0,-1,1189,624,0,0
-28,400,0,0,0,0,0,0,0,0,0,-1,1196,624,0,0
-21,400,0,0,0,0,0,0,0,0,0,-1,1203,624,0,0
-14,400,0,0,0,0,0,0,0,0,0,-1,1210,624,0,0
-7,400,0,0,0,0,0,0,0,0,0,-1,1217,624,0,0
0,400,0,0,0,0,0,0,0,0,0,-1,1224,624,0,0
7,400,0,0,0,0,0,0,0,0,0,-1,1231,624,0,0
14,400,0,0,0,0,0,0,0,0,0,-1,1238,624,0,0
21,400,0,0,0,0,0,0,0,0,0,-1,1245,624,0,0
28,400,0,0,0,0,0,0,0,0,0,-1,1252,624,0,0
35,400,0,0,0,0,0,0,0,0,0,-1,1259,624,0,0
42,400,0,0,0,0,0,0,0,0,0,-1,1266,624,0,0
49,400,0,0,0,0,0,0,0,0,0,-1,1273,624,0,0
56,400,0,0,0,0,0,0,0,0,0,-1,1280,624,0,0
63,400,0,0,0,0,0,0,0,0,0,-1,1287,624,0,0
70,400,0,0,0,0,0,0,0,0,0,-1,1294,624,0,0
77,400,0,0,0,0,0,0,0,0,0,-1,1301,624,0,0
84,400,0,0,0,0,0,0,0,0,0,-1,1308,624,0,0
91,400,0,0,0,0,0,0,0,0,0,-1,1315,624,0,0
98,400,0,0,0,0,0,0,0,0,0,-1,1322,624,0,0
105,400,0,0,0,0,0,0,0,0,0,-1,1329,624,0,0
112,400,0,0,0,0,0,0,0,0,0,-1,1336,624,0,0
119,400,0,0,0,0,0,0,0,0,0,-1,1343,624,0,0
126,400,0,0,0,0,0,0,0,0,0,-1,1350,624,0,0
133,400,0,0,0,0,0,0,0,0,0,-1,1357,624,0,0
140,400,0,0,0,0,0,0,0,0,0,-1,1364,624,0,0
147,400,0,0,0,0,0,0,0,0,0,-1,1371,624,0,0
154,400,0,0,0,0,0,0,0,0,0,-1,1378,624,0,0
161,400,0,0,0,0,0,0,0,0,0,-1,1385,624,0,0
168,400,0,0,0,0,0,0,0,0,0,-1,1392,624,0,0
175,400,0,0,0,0,0,0,0,0,0,-1,1399,624,0,0
182,400,0,0,0,0,0,0,0,0,0,-1,1406,624,0,0
189,400,0,0,0,0,0,0,0,0,0,-1,1413,624,0,0
196,400,0,0,0,0,0,0,0,0,0,-1,1420,624,0,0
203,400,0,0,0,0,0,0,0,0,0,-1,1427,624,0,0
210,400,0,0,0,0,0,0,0,0,0,-1,1434,624,0,0
217,400,0,0,0,0,0,0,0,0,0,-1,1441,624,0,0
224,400,0,0,0,0,0,0,0,0,0,-1,1448,624,0,0
231,400,0,0,0,0,0,0,0,0,0,-1,1455,624,0,0
238,400,0,0,0,0,0,0,0,0,0,-1,1462,624,0,0
245,400,0,0,0,0,0,0,0,0,0,-1,1469,624,0,0
252,400,0,0,0,0,0,0,0,0,0,-1,1476,624,0,0
259,400,0,0,0,0,0,0,0,0,0,-1,1483,624,0,0
266,400,0,0,0,0,0,0,0,0,0,-1,1490,624,0,0
273,400,0,0,0,0,0,0,0,0,0,-1,1497,624,0,0
280,400,0,0,0,0,0,0,0,0,0,-1,1504,624,0,0
287,400,0,0,0,0,0,0,0,0,0,-1,1511,624,0,0
294,400,0,0,0,0,0,0,0,0,0,-1,1518,624,0,0
301,400,0,0,0,0,0,0,0,0,0,-1,1525,624,0,0
308,400,0,0,0,0,0,0,0,0,0,-1,1532,624,0,0
315,400,0,0,0,0,0,0,0,0,0,-1,1539,624,0,0
322,400,0,0,0,0,0,0,0,0,0,-1,1546,624,0,0
329,400,0,0,0,0,0,0,0,0,0,-1,1553,624,0,0
336,400,0,0,0,0,0,0,0,0,0,-1,1560,624,0,0
343,400,0,0,0,0,0,0,0,0,0,-1,1567,624,0,0
350,400,0,0,0,0,0,0,0,0,0,-1,1574,624,0,0
357,400,0,0,0,0,0,0,0,0,0,-1,1581,624,0,0
364,400,0,0,0,0,0,0,0,0,0,-1,1588,624,0,0
371,400,0,0,0,0,0,0,0,0,0,-1,1595,624,0,0
378,400,0,0,0,0,0,0,0,0,0,-1,1602,624,0,0
385,400,0,0,0,0,0,0,0,0,0,-1,1609,624,0,0
392,400,0,0,0,0,0,0,0,0,0,-1,1616,624,0,0
399,400,0,0,0,0,0,0,0,0,0,-1,1623,624,0,0
406,400,0,0,0,0,0,0,0,0,0,-1,1630,624,0,0
413,400,0,0,0,0,0,0,0,0,0,-1,1637,624,0,0
420,400,0,0,0,0,0,0,0,0,0,-1,1644,624,0,0
427,400,0,0,0,0,0,0,0,0,0,-1,1651,624,0,0
434,400,0,0,0,0,0,0,0,0,0,-1,1658,624,0,0
441,400,0,0,0,0,0,0,0,0,0,-1,1665,624,0,0
448,400,0,0,0,0,0,0,0,0,0,-1,1672,624,0,0
455,400,8.91309,2.75885,0,0,0,0,0,0,0,-1,1679,624,8.91312,-2.75885
462,400,8.90356,2.37878,0,0,0,0,0,0,0,-1,1686,624,8.90353,-2.37878
469,400,9.14429,1.76849,0,0,0,0,0,0,0,-1,1693,624,9.14432,-1.76847
476,400,9.23254,1.25995,0,0,0,0,0,0,0,-1,1700,624,9.23252,-1.25994
483,400,9.59766,0.562439,0,0,0,0,0,0,0,-1,1707,624,9.59771,-0.56242
490,400,9.92578,-0.213745,0,0,0,0,0,0,0,-1,1714,624,9.92579,0.21376
497,400,9.19141,0.175232,0,0,0,0,0,0,0,-1,1721,624,9.19138,-0.175209
504,400,9.23438,0.00823975,0,0,0,0,0,0,0,-1,1728,624,9.23436,-0.00823766
511,400,6.16687,3.3501,0,0,0,0,0,0,0,-1,1735,624,6.16682,-3.35007
518,400,6.55237,1.74994,0,0,0,0,0,0,0,-1,1742,624,6.55236,-1.74993
525,400,6.99731,1.08783,0,0,0,0,0,0,0,-1,1749,624,6.99736,-1.08785
532,400,6.96582,-1.74982,0,0,0,0,0,0,0,-1,1756,624,6.96585,1.74983
539,400,16.0278,-8.40637,0,0,0,0,0,0,0,-1,1763,624,16.0278,8.40635
546,400,15.9918,-7.97473,0.00136161,0.00245263,0.00081493,0.00288778,0.000926463,1.08034,0.00170257,0.0489793,1770,624,15.9918,7.97474
553,400,15.8627,-7.45966,0.00111274,0.00168802,0.00056539,0.00203473,0.000766026,1.02071,0.00118664,0.0281307,1777,624,15.8626,7.45966
560,400,15.8907,-6.95551,0.000923986,0.00103995,0.000297512,0.00128508,0.00067886,0.88164,0.000742336,0.0139032,1784,624,15.8908,6.95548
567,400,15.9041,-6.51617,0.000705645,0.000819644,0.000252468,0.00102147,0.000503821,0.896421,0.000589762,0.0172185,1791,624,15.9041,6.51617
574,400,15.8926,-6.10626,0.000605354,0.000871418,0.000392212,0.00115255,0.000324227,0.948901,0.00068631,0.0196363,1798,624,15.8926,6.10623
581,400,15.8553,-5.62659,0.000530328,0.00114736,0.000636007,0.00154573,0.000131959,1.01122,0.000989439,0.0180865,1805,624,15.8554,5.62659
588,400,15.8342,-5.13116,0.00042581,0.00160339,0.000946065,0.00212892,-9.97215e-05,1.06375,0.00145366,0.0150479,1812,624,15.8342,5.13118
595,400,15.8577,-4.68378,0.000525016,0.00228436,0.00142586,0.00308007,-0.000270697,1.06179,0.0021493,0.0144169,1819,624,15.8576,4.68378
602,400,15.8741,-4.21869,0.000759621,0.00321204,0.00208642,0.0044059,-0.000434235,1.05107,0.00309219,0.0138906,1826,624,15.8742,4.21867
609,400,15.8135,-3.7384,0.000818255,0.00429679,0.00274949,0.00581094,-0.000695896,1.06741,0.00412553,0.0143627,1833,624,15.8134,3.73841
616,400,15.7931,-3.25018,0.000882838,0.00538268,0.00337519,0.00718911,-0.000923597,1.07938,0.00512841,0.0188563,1840,624,15.7931,3.25016
623,400,15.9053,-2.43896,0,0,0,0,0,0,0,-1,1847,624,15.9053,2.43899
630,400,11.9432,0.09021,0,0,0,0,0,0,0,-1,1854,624,11.9432,-0.0902007
637,400,6.92896,1.01917,0,0,0,0,0,0,0,-1,1861,624,6.92899,-1.01918
644,400,8.65381,1.4599,0,0,0,0,0,0,0,-1,1868,624,8.65379,-1.45991
651,400,7.90601,0.424072,0,0,0,0,0,0,0,-1,1875,624,7.90598,-0.424097
658,400,8.69031,1.0484,0,0,0,0,0,0,0,-1,1882,624,8.6903,-1.0484
665,400,5.98438,0.522522,0,0,0,0,0,0,0,-1,1889,624,5.98442,-0.522552
672,400,0,0,0,0,0,0,0,0,0,-1,1896,624,0,0
679,400,0,0,0,0,0,0,0,0,0,-1,1903,624,0,0
686,400,0,0,0,0,0,0,0,0,0,-1,1910,624,0,0
693,400,0,0,0,0,0,0,0,0,0,-1,1917,624,0,0
700,400,0,0,0,0,0,0,0,0,0,-1,1924,624,0,0
707,400,0,0,0,0,0,0,0,0,0,-1,1931,624,0,0
714,400,0,0,0,0,0,0,0,0,0,-1,1938,624,0,0
721,400,0,0,0,0,0,0,0,0,0,-1,1945,624,0,0
728,400,0,0,0,0,0,0,0,0,0,-1,1952,624,0,0
735,400,0,0,0,0,0,0,0,0,0,-1,1959,624,0,0
742,400,0,0,0,0,0,0,0,0,0,-1,1966,624,0,0
749,400,0,0,0,0,0,0,0,0,0,-1,1973,624,0,0
756,400,0,0,0,0,0,0,0,0,0,-1,1980,624,0,0
763,400,0,0,0,0,0,0,0,0,0,-1,1987,624,0,0
770,400,0,0,0,0,0,0,0,0,0,-1,1994,624,0,0
777,400,0,0,0,0,0,0,0,0,0,-1,2001,624,0,0
784,400,0,0,0,0,0,0,0,0,0,-1,2008,624,0,0
791,400,0,0,0,0,0,0,0,0,0,-1,2015,624,0,0
798,400,0,0,0,0,0,0,0,0,0,-1,2022,624,0,0
805,400,0,0,0,0,0,0,0,0,0,-1,2029,624,0,0
812,400,0,0,0,0,0,0,0,0,0,-1,2036,624,0,0
-700,393,0,0,0,0,0,0,0,0,0,-1,524,631,0,0
-693,393,0,0,0,0,0,0,0,0,0,-1,531,631,0,0
-686,393,0,0,0,0,0,0,0,0,0,-1,538,631,0,0
-679,393,0,0,0,0,0,0,0,0,0,-1,545,631,0,0
-672,393,0,0,0,0,0,0,0,0,0,-1,552,631,0,0
-665,393,0,0,0,0,0,0,0,0,0,-1,559,631,0,0
-658,393,0,0,0,0,0,0,0,0,0,-1,566,631,0,0
-651,393,0,0,0,0,0,0,0,0,0,-1,573,631,0,0
-644,393,0,0,0,0,0,0,0,0,0,-1,580,631,0,0
-637,393,0,0,0,0,0,0,0,0,0,-1,587,631,0,0
-630,393,0,0,0,0,0,0,0,0,0,-1,594,631,0,0
-623,393,0,0,0,0,0,0,0,0,0,-1,601,631,0,0
-616,393,0,0,0,0,0,0,0,0,0,-1,608,631,0,0
-609,393,0,0,0,0,0,0,0,0,0,-1,615,631,0,0
-602,393,0,0,0,0,0,0,0,0,0,-1,622,631,0,0
-595,393,0,0,0,0,0,0,0,0,0,-1,629,631,0,0
-588,393,0,0,0,0,0,0,0,0,0,-1,636,631,0,0
-581,393,0,0,0,0,0,0,0,0,0,-1,643,631,0,0
-574,393,0,0,0,0,0,0,0,0,0,-1,650,631,0,0
-567,393,0,0,0,0,0,0,0,0,0,-1,657,631,0,0
-560,393,0,0,0,0,0,0,0,0,0,-1,664,631,0,0
-553,393,-2.35107,3.92633,0,0,0,0,0,0,0,-1,671,631,-2.35108,-3.92634
-546,393,-1.78778,2.4856,0,0,0,0,0,0,0,-1,678,631,-1.78778,-2.48557
-539,393,-5.2113,-2.20245,0,0,0,0,0,0,0,-1,685,631,-5.21128,2.20247
-532,393,-2.83643,-2.01624,0,0,0,0,0,0,0,-1,692,631,-2.83642,2.01626
-525,393,-5.9505,-0.952698,0,0,0,0,0,0,0,-1,699,631,-5.95053,0.95268
-518,393,-5.80219,-1.57739,0,0,0,0,0,0,0,-1,706,631,-5.80219,1.57738
-511,393,-6.15527,-2.09906,0,0,0,0,0,0,0,-1,713,631,-6.15526,2.09903
-504,393,-8.26245,-3.65265,0,0,0,0,0,0,0,-1,720,631,-8.26245,3.65265
-497,393,-8.03442,-4.4129,-0.00195853,0.00540545,-0.00172769,0.00579064,-0.00234372,-1.35143,0.00483488,0.0308486,727,631,-8.03439,4.41293
-490,393,-8.02655,-5.0567,-0.00166983,0.00396471,-0.00123454,0.00422333,-0.00192845,-1.3643,0.00363318,0.0164776,734,631,-8.02657,5.05669
-483,393,-8.02301,-5.49731,-0.00116061,0.0029016,-0.00110651,0.00318344,-0.00144246,-1.32138,0.00273309,0.0197996,741,631,-8.02299,5.49734
-476,393,-8.01379,-5.94513,-0.000522644,0.0022086,-0.00115465,0.00263131,-0.000945358,-1.21985,0.0021401,0.0157385,748,631,-8.01378,5.94515
-469,393,-8.03271,-6.40839,0.000146309,0.00170835,-0.00124043,0.00239316,-0.000538502,-1.06636,0.00180196,0.012092,755,631,-8.03274,6.40836
-462,393,-8.05835,-6.89374,0.000696721,0.0012591,-0.00127186,0.00228048,-0.00032466,-0.894191,0.00163929,0.0151486,762,631,-8.05834,6.89373
-455,393,-8.08868,-7.34186,0.000976627,0.000782252,-0.00108883,0.0019726,-0.000213717,-0.740887,0.00139178,0.0144277,769,631,-8.08869,7.34185
-448,393,-8.10895,-7.78033,0.00117847,0.000235928,-0.000756917,0.00159884,-0.00018444,-0.506956,0.00113239,0.0137305,776,631,-8.10894,7.78036
-441,393,-8.11884,-8.1778,0.0010956,-0.000276828,-0.00027237,0.00114768,-0.000328906,-0.188923,0.000895128,0.0130198,783,631,-8.11884,8.17778
-434,393,-8.11938,-8.56635,0.000722048,-0.000870226,0.000422105,0.000827025,-0.000975203,0.243754,0.00104169,0.0127298,790,631,-8.11939,8.56633
-427,393,-8.06909,-9.02582,-9.91063e-05,-0.00173205,0.00145593,0.000753658,-0.00258482,0.529852,0.00202181,0.022124,797,631,-8.06907,9.02581
-420,393,-8.08936,-9.43311,-0.00151148,-0.00297994,0.00297606,0.000819584,-0.00531101,0.664457,0.00384311,0.0474701,804,631,-8.08935,9.43312
-413,393,-8.17975,-9.91711,0,0,0,0,0,0,0,-1,811,631,-8.17973,9.91709
-406,393,-8.73438,-10.0942,0,0,0,0,0,0,0,-1,818,631,-8.73437,10.0942
-399,393,-5.07343,-5.92365,0,0,0,0,0,0,0,-1,825,631,-5.07344,5.92364
-392,393,-2.08063,-3.02386,0,0,0,0,0,0,0,-1,832,631,-2.08063,3.02384
-385,393,-3.16931,-0.624756,0,0,0,0,0,0,0,-1,839,631,-3.16928,0.624764
-378,393,-7.33081,-0.872314,0,0,0,0,0,0,0,-1,846,631,-7.33081,0.872325
-371,393,-7.47858,-0.811096,0,0,0,0,0,0,0,-1,853,631,-7.47859,0.811075
-364,393,-7.64917,-0.662415,0,0,0,0,0,0,0,-1,860,631,-7.64917,0.662406
-357,393,-8.09686,-0.726013,0,0,0,0,0,0,0,-1,867,631,-8.09689,0.726029
-350,393,-8.38788,-0.511841,0,0,0,0,0,0,0,-1,874,631,-8.38785,0.511811
-343,393,0,0,0,0,0,0,0,0,0,-1,881,631,0,0
-336,393,0,0,0,0,0,0,0,0,0,-1,888,631,0,0
-329,393,0,0,0,0,0,0,0,0,0,-1,895,631,0,0
-322,393,0,0,0,0,0,0,0,0,0,-1,902,631,0,0
-315,393,0,0,0,0,0,0,0,0,0,-1,909,631,0,0
-308,393,0,0,0,0,0,0,0,0,0,-1,916,631,0,0
-301,393,0,0,0,0,0,0,0,0,0,-1,923,631,0,0
-294,393,0,0,0,0,0,0,0,0,0,-1,930,631,0,0
-287,393,0,0,0,0,0,0,0,0,0,-1,937,631,0,0
-280,393,0,0,0,0,0,0,0,0,0,-1,944,631,0,0
-273,393,0,0,0,0,0,0,0,0,0,-1,951,631,0,0
-266,393,0,0,0,0,0,0,0,0,0,-1,958,631,0,0
-259,393,0,0,0,0,0,0,0,0,0,-1,965,631,0,0
-252,393,0,0,0,0,0,0,0,0,0,-1,972,631,0,0
-245,393,0,0,0,0,0,0,0,0,0,-1,979,631,0,0
-238,393,0,0,0,0,0,0,0,0,0,-1,986,631,0,0
-231,393,0,0,0,0,0,0,0,0,0,-1,993,631,0,0
-224,393,0,0,0,0,0,0,0,0,0,-1,1000,631,0,0
-217,393,0,0,0,0,0,0,0,0,0,-1,1007,631,0,0
-210,393,0,0,0,0,0,0,0,0,0,-1,1014,631,0,0
-203,393,0,0,0,0,0,0,0,0,0,-1,1021,631,0,0
-196,393,0,0,0,0,0,0,0,0,0,-1,1028,631,0,0
-189,393,0,0,0,0,0,0,0,0,0,-1,1035,631,0,0
-182,393,0,0,0,0,0,0,0,0,0,-1,1042,631,0,0
-175,393,0,0,0,0,0,0,0,0,0,-1,1049,631,0,0
-168,393,0,0,0,0,0,0,0,0,0,-1,1056,631,0,0
-161,393,0,0,0,0,0,0,0,0,0,-1,1063,631,0,0
-154,393,0,0,0,0,0,0,0,0,0,-1,1070,631,0,0
-147,393,0,0,0,0,0,0,0,0,0,-1,1077,631,0,0
-140,393,0,0,0,0,0,0,0,0,0,-1,1084,631,0,0
-133,393,0,0,0,0,0,0,0,0,0,-1,1091,631,0,0
-126,393,0,0,0,0,0,0,0,0,0,-1,1098,631,0,0
-119,393,0,0,0,0,0,0,0,0,0,-1,1105,631,0,0
-112,393,0,0,0,0,0,0,0,0,0,-1,1112,631,0,0
-105,393,0,0,0,0,0,0,0,0,0,-1,1119,631,0,0
-98,393,0,0,0,0,0,0,0,0,0,-1,1126,631,0,0
-91,393,0,0,0,0,0,0,0,0,0,-1,1133,631,0,0
-84,393,0,0,0,0,0,0,0,0,0,-1,1140,631,0,0
-77,393,0,0,0,0,0,0,0,0,0,-1,1147,631,0,0
-70,393,0,0,0,0,0,0,0,0,0,-1,1154,631,0,0
-63,393,0,0,0,0,0,0,0,0,0,-1,1161,631,0,0
-56,393,0,0,0,0,0,0,0,0,0,-1,1168,631,0,0
-49,393,0,0,0,0,0,0,0,0,0,-1,1175,631,0,0
-42,393,0,0,0,0,0,0,0,0,0,-1,1182,631,0,0
-35,393,0,0,0,0,0,0,0,0,0,-1,1189,631,0,0
-28,393,0,0,0,0,0,0,0,0,0,-1,1196,631,0,0
-21,393,0,0,0,0,0,0,0,0,0,-1,1203,631,0,0
-14,393,0,0,0,0,0,0,0,0,0,-1,1210,631,0,0
-7,393,0,0,0,0,0,0,0,0,0,-1,1217,631,0,0
0,393,0,0,0,0,0,0,0,0,0,-1,1224,631,0,0
7,393,0,0,0,0,0,0,0,0,0,-1,1231,631,0,0
14,393,0,0,0,0,0,0,0,0,0,-1,1238,631,0,0
21,393,0,0,0,0,0,0,0,0,0,-1,1245,631,0,0
28,393,0,0,0,0,0,0,0,0,0,-1,1252,631,0,0
35,393,0,0,0,0,0,0,0,0,0,-1,1259,631,0,0
42,393,0,0,0,0,0,0,0,0,0,-1,1266,631,0,0
49,393,0,0,0,0,0,0,0,0,0,-1,1273,631,0,0
56,393,0,0,0,0,0,0,0,0,0,-1,1280,631,0,0
63,393,0,0,0,0,0,0,0,0,0,-1,1287,631,0,0
70,393,0,0,0,0,0,0,0,0,0,-1,1294,631,0,0
77,393,0,0,0,0,0,0,0,0,0,-1,1301,631,0,0
84,393,0,0,0,0,0,0,0,0,0,-1,1308,631,0,0
91,393,0,0,0,0,0,0,0,0,0,-1,1315,631,0,0
98,393,0,0,0,0,0,0,0,0,0,-1,1322,631,0,0
105,393,0,0,0,0,0,0,0,0,0,-1,1329,631,0,0
112,393,0,0,0,0,0,0,0,0,0,-1,1336,631,0,0
119,393,0,0,0,0,0,0,0,0,0,-1,1343,631,0,0
126,393,0,0,0,0,0,0,0,0,0,-1,1350,631,0,0
133,393,0,0,0,0,0,0,0,0,0,-1,1357,631,0,0
140,393,0,0,0,0,0,0,0,0,0,-1,1364,631,0,0
147,393,0,0,0,0,0,0,0,0,0,-1,1371,631,0,0
154,393,0,0,0,0,0,0,0,0,0,-1,1378,631,0,0
161,393,0,0,0,0,0,0,0,0,0,-1,1385,631,0,0
168,393,0,0,0,0,0,0,0,0,0,-1,1392,631,0,0
175,393,0,0,0,0,0,0,0,0,0,-1,1399,631,0,0
182,393,0,0,0,0,0,0,0,0,0,-1,1406,631,0,0
189,393,0,0,0,0,0,0,0,0,0,-1,1413,631,0,0
196,393,0,0,0,0,0,0,0,0,0,-1,1420,631,0,0
203,393,0,0,0,0,0,0,0,0,0,-1,1427,631,0,0
210,393,0,0,0,0,0,0,0,0,0,-1,1434,631,0,0
217,393,0,0,0,0,0,0,0,0,0,-1,1441,631,0,0
224,393,0,0,0,0,0,0,0,0,0,-1,1448,631,0,0
231,393,0,0,0,0,0,0,0,0,0,-1,1455,631,0,0
238,393,0,0,0,0,0,0,0,0,0,-1,1462,631,0,0
245,393,0,0,0,0,0,0,0,0,0,-1,1469,631,0,0
252,393,0,0,0,0,0,0,0,0,0,-1,1476,631,0,0
259,393,0,0,0,0,0,0,0,0,0,-1,1483,631,0,0
266,393,0,0,0,0,0,0,0,0,0,-1,1490,631,0,0
273,393,0,0,0,0,0,0,0,0,0,-1,1497,631,0,0
280,393,0,0,0,0,0,0,0,0,0,-1,1504,631,0,0
287,393,0,0,0,0,0,0,0,0,0,-1,1511,631,0,0
294,393,0,0,0,0,0,0,0,0,0,-1,1518,631,0,0
301,393,0,0,0,0,0,0,0,0,0,-1,1525,631,0,0
308,393,0,0,0,0,0,0,0,0,0,-1,1532,631,0,0
315,393,0,0,0,0,0,0,0,0,0,-1,1539,631,0,0
322,393,0,0,0,0,0,0,0,0,0,-1,1546,631,0,0
329,393,0,0,0,0,0,0,0,0,0,-1,1553,631,0,0
336,393,0,0,0,0,0,0,0,0,0,-1,1560,631,0,0
343,393,0,0,0,0,0,0,0,0,0,-1,1567,631,0,0
350,393,0,0,0,0,0,0,0,0,0,-1,1574,631,0,0
357,393,0,0,0,0,0,0,0,0,0,-1,1581,631,0,0
364,393,0,0,0,0,0,0,0,0,0,-1,1588,631,0,0
371,393,0,0,0,0,0,0,0,0,0,-1,1595,631,0,0
378,393,0,0,0,0,0,0,0,0,0,-1,1602,631,0,0
385,393,0,0,0,0,0,0,0,0,0,-1,1609,631,0,0
392,393,0,0,0,0,0,0,0,0,0,-1,1616,631,0,0
399,393,0,0,0,0,0,0,0,0,0,-1,1623,631,0,0
406,393,0,0,0,0,0,0,0,0,0,-1,1630,631,0,0
413,393,0,0,0,0,0,0,0,0,0,-1,1637,631,0,0
420,393,0,0,0,0,0,0,0,0,0,-1,1644,631,0,0
427,393,0,0,0,0,0,0,0,0,0,-1,1651,631,0,0
434,393,0,0,0,0,0,0,0,0,0,-1,1658,631,0,0
441,393,0,0,0,0,0,0,0,0,0,-1,1665,631,0,0
448,393,0,0,0,0,0,0,0,0,0,-1,1672,631,0,0
455,393,0,0,0,0,0,0,0,0,0,-1,1679,631,0,0
462,393,8.51099,1.89502,0,0,0,0,0,0,0,-1,1686,631,8.51103,-1.89504
469,393,9.39465,1.51703,0,0,0,0,0,0,0,-1,1693,631,9.39465,-1.51703
476,393,9.95569,1.185,0,0,0,0,0,0,0,-1,1700,631,9.95575,-1.18497
483,393,10.5267,0.887329,0,0,0,0,0,0,0,-1,1707,631,10.5267,-0.887321
490,393,10.9303,0.761414,0,0,0,0,0,0,0,-1,1714,631,10.9303,-0.761386
497,393,8.32153,1.88104,0,0,0,0,0,0,0,-1,1721,631,8.32148,-1.88103
504,393,9.46985,1.78711,0,0,0,0,0,0,0,-1,1728,631,9.46986,-1.78713
511,393,9.66565,-0.375977,0,0,0,0,0,0,0,-1,1735,631,9.66571,0.375949
518,393,7.01599,1.62482,0,0,0,0,0,0,0,-1,1742,631,7.01597,-1.62483
525,393,7.88245,-1.13422,0,0,0,0,0,0,0,-1,1749,631,7.88246,1.13423
532,393,7.06335,-1.18103,0,0,0,0,0,0,0,-1,1756,631,7.06332,1.18101
539,393,9.91626,-2.46301,0,0,0,0,0,0,0,-1,1763,631,9.91625,2.46302
546,393,16.4094,-8.04651,0,0,0,0,0,0,0,-1,1770,631,16.4094,8.04649
553,393,16.1813,-7.58099,0,0,0,0,0,0,0,-1,1777,631,16.1813,7.58097
560,393,16.3531,-6.99744,0.00081904,0.00105668,0.000155703,0.00113372,0.000741999,1.11132,0.000664888,0.0230752,1784,631,16.3532,6.99742
567,393,16.3446,-6.52014,0.000669501,0.000773852,8.8202e-05,0.000824155,0.000619198,1.05249,0.000495456,0.0151443,1791,631,16.3446,6.52016
574,393,16.3584,-6.08942,0.00062829,0.000777067,0.000220689,0.000935567,0.00046979,0.947955,0.000540151,0.016721,1798,631,16.3583,6.08942
581,393,16.3087,-5.6073,0.000607737,0.00101034,0.000452021,0.00130386,0.000314219,0.994882,0.000785727,0.0150775,1805,631,16.3087,5.60727
588,393,16.2889,-5.11761,0.000560971,0.00139464,0.000737082,0.00182458,0.000131022,1.04274,0.00117515,0.0167356,1812,631,16.289,5.11759
595,393,16.321,-4.68085,0.000714933,0.00196436,0.0011665,0.00266289,1.63976e-05,1.03124,0.00176982,0.0141031,1819,631,16.321,4.68086
602,393,16.3231,-4.22235,0.00102887,0.00272981,0.00177448,0.0038471,-8.84158e-05,1.00887,0.0025947,0.0156926,1826,631,16.3231,4.22236
609,393,16.2836,-3.74683,0.00110827,0.00362606,0.00233581,0.00502062,-0.000286291,1.03256,0.00344647,0.0168606,1833,631,16.2836,3.74681
616,393,16.2463,-3.26324,0.00113358,0.00447531,0.00281912,0.00608152,-0.000472633,1.05291,0.00422072,0.0172328,1840,631,16.2464,3.26324
623,393,16.2579,-2.67828,0.00129987,0.00549964,0.00348353,0.00746725,-0.000667738,1.05664,0.00521502,0.0307677,1847,631,16.2579,2.67831
630,393,16.3208,-2.01752,0,0,0,0,0,0,0,-1,1854,631,16.3208,2.0175
637,393,11.4626,0.608887,0,0,0,0,0,0,0,-1,1861,631,11.4627,-0.608904
644,393,8.97583,1.30585,0,0,0,0,0,0,0,-1,1868,631,8.97586,-1.30584
651,393,11.348,0.53302,0,0,0,0,0,0,0,-1,1875,631,11.348,-0.53305
658,393,9.21338,1.50836,0,0,0,0,0,0,0,-1,1882,631,9.21338,-1.50834
665,393,6.1001,2.32129,0,0,0,0,0,0,0,-1,1889,631,6.10012,-2.3213
672,393,7.14575,2.43225,0,0,0,0,0,0,0,-1,1896,631,7.14572,-2.43222
679,393,0,0,0,0,0,0,0,0,0,-1,1903,631,0,0
686,393,0,0,0,0,0,0,0,0,0,-1,1910,631,0,0
693,393,0,0,0,0,0,0,0,0,0,-1,1917,631,0,0
700,393,0,0,0,0,0,0,0,0,0,-1,1924,631,0,0
707,393,0,0,0,0,0,0,0,0,0,-1,1931,631,0,0
714,393,0,0,0,0,0,0,0,0,0,-1,1938,631,0,0
721,393,0,0,0,0,0,0,0,0,0,-1,1945,631,0,0
728,393,0,0,0,0,0,0,0,0,0,-1,1952,631,0,0
735,393,0,0,0,0,0,0,0,0,0,-1,1959,631,0,0
742,393,0,0,0,0,0,0,0,0,0,-1,1966,631,0,0
749,393,0,0,0,0,0,0,0,0,0,-1,1973,631,0,0
756,393,0,0,0,0,0,0,0,0,0,-1,1980,631,0,0
763,393,0,0,0,0,0,0,0,0,0,-1,1987,631,0,0
770,393,0,0,0,0,0,0,0,0,0,-1,1994,631,0,0
777,393,0,0,0,0,0,0,0,0,0,-1,2001,631,0,0
784,393,0,0,0,0,0,0,0,0,0,-1,2008,631,0,0
791,393,0,0,0,0,0,0,0,0,0,-1,2015,631,0,0
798,393,0,0,0,0,0,0,0,0,0,-1,2022,631,0,0
805,393,0,0,0,0,0,0,0,0,0,-1,2029,631,0,0
812,393,0,0,0,0,0,0,0,0,0,-1,2036,631,0,0
-700,386,0,0,0,0,0,0,0,0,0,-1,524,638,0,0
-693,386,0,0,0,0,0,0,0,0,0,-1,531,638,0,0
-686,386,0,0,0,0,0,0,0,0,0,-1,538,638,0,0
-679,386,0,0,0,0,0,0,0,0,0,-1,545,638,0,0
-672,386,0,0,0,0,0,0,0,0,0,-1,552,638,0,0
-665,386,0,0,0,0,0,0,0,0,0,-1,559,638,0,0
-658,386,0,0,0,0,0,0,0,0,0,-1,566,638,0,0
-651,386,0,0,0,0,0,0,0,0,0,-1,573,638,0,0
-644,386,0,0,0,0,0,0,0,0,0,-1,580,638,0,0
-637,386,0,0,0,0,0,0,0,0,0,-1,587,638,0,0
-630,386,0,0,0,0,0,0,0,0,0,-1,594,638,0,0
-623,386,0,0,0,0,0,0,0,0,0,-1,601,638,0,0
-616,386,0,0,0,0,0,0,0,0,0,-1,608,638,0,0
-609,386,0,0,0,0,0,0,0,0,0,-1,615,638,0,0
-602,386,0,0,0,0,0,0,0,0,0,-1,622,638,0,0
-595,386,0,0,0,0,0,0,0,0,0,-1,629,638,0,0
-588,386,0,0,0,0,0,0,0,0,0,-1,636,638,0,0
-581,386,0,0,0,0,0,0,0,0,0,-1,643,638,0,0
-574,386,0,0,0,0,0,0,0,0,0,-1,650,638,0,0
-567,386,0,0,0,0,0,0,0,0,0,-1,657,638,0,0
-560,386,-3.97229,-5.13898,0,0,0,0,0,0,0,-1,664,638,-3.97232,5.13897
-553,386,-4.94244,-5.54309,0,0,0,0,0,0,0,-1,671,638,-4.94242,5.5431
-546,386,-1.78668,1.72827,0,0,0,0,0,0,0,-1,678,638,-1.78668,-1.72829
-539,386,-0.879456,-2.90009,0,0,0,0,0,0,0,-1,685,638,-0.879442,2.90008
-532,386,-4.83362,1.61053,0,0,0,0,0,0,0,-1,692,638,-4.83361,-1.61051
-525,386,-6.64148,-1.50604,0,0,0,0,0,0,0,-1,699,638,-6.64149,1.50603
-518,386,-6.47589,-1.71948,0,0,0,0,0,0,0,-1,706,638,-6.47591,1.71947
-511,386,-8.39868,-3.0802,0,0,0,0,0,0,0,-1,713,638,-8.39868,3.0802
-504,386,-8.41711,-3.99438,-0.0011399,0.00646683,-0.00270205,0.00732895,-0.00200201,-1.26195,0.00567232,0.0337055,720,638,-8.41709,3.99436
-497,386,-8.50061,-4.61926,-0.00109043,0.00473699,-0.00177866,0.00523698,-0.00159042,-1.29676,0.00412496,0.0153931,727,638,-8.50062,4.61926
-490,386,-8.46869,-5.11517,-0.000975176,0.00332881,-0.00105303,0.00357263,-0.001219,-1.34326,0.00287554,0.0130894,734,638,-8.46872,5.11515
-483,386,-8.46259,-5.55884,-0.000497376,0.00237344,-0.000907456,0.00263623,-0.000760165,-1.28892,0.00205821,0.0173241,741,638,-8.4626,5.55883
-476,386,-8.45184,-5.98083,0.000170455,0.00185132,-0.00106406,0.00236682,-0.000345047,-1.11965,0.00170458,0.0158834,748,638,-8.45182,5.98083
-469,386,-8.48828,-6.40222,0.000846653,0.00149962,-0.00125845,0.00247324,-0.000126973,-0.912317,0.00169274,0.0115122,755,638,-8.48831,6.40224
-462,386,-8.51038,-6.86169,0.00138535,0.00118818,-0.00140435,0.00269457,-0.00012104,-0.750356,0.00183806,0.0106525,762,638,-8.51039,6.86171
-455,386,-8.53735,-7.30969,0.00162318,0.000816827,-0.00129786,0.00257904,-0.000139038,-0.634801,0.00176753,0.012229,769,638,-8.53735,7.30968
-448,386,-8.53705,-7.75012,0.00181154,0.00043192,-0.00109545,0.00241627,-0.000172815,-0.504411,0.00167143,0.0121063,776,638,-8.53703,7.7501
-441,386,-8.55322,-8.16345,0.0017273,8.47269e-05,-0.000749258,0.00201772,-0.000205697,-0.369784,0.00141869,0.0133332,783,638,-8.5532,8.16345
-434,386,-8.49542,-8.62146,0.00133435,-0.000460133,-0.000134253,0.00134434,-0.000470122,-0.0742631,0.00108736,0.0339446,790,638,-8.49544,8.62147
-427,386,-8.40747,-9.07654,0,0,0,0,0,0,0,-1,797,638,-8.40745,9.07655
-420,386,-8.51263,-9.43835,0,0,0,0,0,0,0,-1,804,638,-8.5126,9.43833
-413,386,-5.45691,-5.35785,0,0,0,0,0,0,0,-1,811,638,-5.45691,5.35783
-406,386,-4.51135,-4.10999,0,0,0,0,0,0,0,-1,818,638,-4.51135,4.10996
-399,386,-3.57117,-3.42126,0,0,0,0,0,0,0,-1,825,638,-3.57116,3.42129
-392,386,-4.00977,0.403625,0,0,0,0,0,0,0,-1,832,638,-4.0098,-0.403616
-385,386,-3.2406,-0.118469,0,0,0,0,0,0,0,-1,839,638,-3.24058,0.118485
-378,386,-2.55243,-1.22748,0,0,0,0,0,0,0,-1,846,638,-2.55243,1.22748
-371,386,-7.95807,-0.330261,0,0,0,0,0,0,0,-1,853,638,-7.95806,0.330284
-364,386,-8.90637,-0.665955,0,0,0,0,0,0,0,-1,860,638,-8.90635,0.665951
-357,386,-9.10364,-0.388733,0,0,0,0,0,0,0,-1,867,638,-9.10364,0.388744
-350,386,0,0,0,0,0,0,0,0,0,-1,874,638,0,0
-343,386,0,0,0,0,0,0,0,0,0,-1,881,638,0,0
-336,386,0,0,0,0,0,0,0,0,0,-1,888,638,0,0
-329,386,0,0,0,0,0,0,0,0,0,-1,895,638,0,0
-322,386,0,0,0,0,0,0,0,0,0,-1,902,638,0,0
-315,386,0,0,0,0,0,0,0,0,0,-1,909,638,0,0
-308,386,0,0,0,0,0,0,0,0,0,-1,916,638,0,0
-301,386,0,0,0,0,0,0,0,0,0,-1,923,638,0,0
-294,386,0,0,0,0,0,0,0,0,0,-1,930,638,0,0
-287,386,0,0,0,0,0,0,0,0,0,-1,937,638,0,0
-280,386,0,0,0,0,0,0,0,0,0,-1,944,638,0,0
-273,386,0,0,0,0,0,0,0,0,0,-1,951,638,0,0
-266,386,0,0,0,0,0,0,0,0,0,-1,958,638,0,0
-259,386,0,0,0,0,0,0,0,0,0,-1,965,638,0,0
-252,386,0,0,0,0,0,0,0,0,0,-1,972,638,0,0
-245,386,0,0,0,0,0,0,0,0,0,-1,979,638,0,0
-238,386,0,0,0,0,0,0,0,0,0,-1,986,638,0,0
-231,386,0,0,0,0,0,0,0,0,0,-1,993,638,0,0
-224,386,0,0,0,0,0,0,0,0,0,-1,1000,638,0,0
-217,386,0,0,0,0,0,0,0,0,0,-1,1007,638,0,0
-210,386,0,0,0,0,0,0,0,0,0,-1,1014,638,0,0
-203,386,0,0,0,0,0,0,0,0,0,-1,1021,638,0,0
-196,386,0,0,0,0,0,0,0,0,0,-1,1028,638,0,0
-189,386,0,0,0,0,0,0,0,0,0,-1,1035,638,0,0
-182,386,0,0,0,0,0,0,0,0,0,-1,1042,638,0,0
-175,386,0,0,0,0,0,0,0,0,0,-1,1049,638,0,0
-168,386,0,0,0,0,0,0,0,0,0,-1,1056,638,0,0
-161,386,0,0,0,0,0,0,0,0,0,-1,1063,638,0,0
-154,386,0,0,0,0,0,0,0,0,0,-1,1070,638,0,0
-147,386,0,0,0,0,0,0,0,0,0,-1,1077,638,0,0
-140,386,0,0,0,0,0,0,0,0,0,-1,1084,638,0,0
-133,386,0,0,0,0,0,0,0,0,0,-1,1091,638,0,0
-126,386,0,0,0,0,0,0,0,0,0,-1,1098,638,0,0
-119,386,0,0,0,0,0,0,0,0,0,-1,1105,638,0,0
-112,386,0,0,0,0,0,0,0,0,0,-1,1112,638,0,0
-105,386,0,0,0,0,0,0,0,0,0,-1,1119,638,0,0
-98,386,0,0,0,0,0,0,0,0,0,-1,1126,638,0,0
-91,386,0,0,0,0,0,0,0,0,0,-1,1133,638,0,0
-84,386,0,0,0,0,0,0,0,0,0,-1,1140,638,0,0
-77,386,0,0,0,0,0,0,0,0,0,-1,1147,638,0,0
-70,386,0,0,0,0,0,0,0,0,0,-1,1154,638,0,0
-63,386,0,0,0,0,0,0,0,0,0,-1,1161,638,0,0
-56,386,0,0,0,0,0,0,0,0,0,-1,1168,638,0,0
-49,386,0,0,0,0,0,0,0,0,0,-1,1175,638,0,0
-42,386,0,0,0,0,0,0,0,0,0,-1,1182,638,0,0
-35,386,0,0,0,0,0,0,0,0,0,-1,1189,638,0,0
-28,386,0,0,0,0,0,0,0,0,0,-1,1196,638,0,0
-21,386,0,0,0,0,0,0,0,0,0,-1,1203,638,0,0
-14,386,0,0,0,0,0,0,0,0,0,-1,1210,638,0,0
-7,386,0,0,0,0,0,0,0,0,0,-1,1217,638,0,0
0,386,0,0,0,0,0,0,0,0,0,-1,1224,638,0,0
7,386,0,0,0,0,0,0,0,0,0,-1,1231,638,0,0
14,386,0,0,0,0,0,0,0,0,0,-1,1238,638,0,0
21,386,0,0,0,0,0,0,0,0,0,-1,1245,638,0,0
28,386,0,0,0,0,0,0,0,0,0,-1,1252,638,0,0
35,386,0,0,0,0,0,0,0,0,0,-1,1259,638,0,0
42,386,0,0,0,0,0,0,0,0,0,-1,1266,638,0,0
49,386,0,0,0,0,0,0,0,0,0,-1,1273,638,0,0
56,386,0,0,0,0,0,0,0,0,0,-1,1280,638,0,0
63,386,0,0,0,0,0,0,0,0,0,-1,1287,638,0,0
70,386,0,0,0,0,0,0,0,0,0,-1,1294,638,0,0
77,386,0,0,0,0,0,0,0,0,0,-1,1301,638,0,0
84,386,0,0,0,0,0,0,0,0,0,-1,1308,638,0,0
91,386,0,0,0,0,0,0,0,0,0,-1,1315,638,0,0
98,386,0,0,0,0,0,0,0,0,0,-1,1322,638,0,0
105,386,0,0,0,0,0,0,0,0,0,-1,1329,638,0,0
112,386,0,0,0,0,0,0,0,0,0,-1,1336,638,0,0
119,386,0,0,0,0,0,0,0,0,0,-1,1343,638,0,0
126,386,0,0,0,0,0,0,0,0,0,-1,1350,638,0,0
133,386,0,0,0,0,0,0,0,0,0,-1,1357,638,0,0
140,386,0,0,0,0,0,0,0,0,0,-1,1364,638,0,0
147,386,0,0,0,0,0,0,0,0,0,-1,1371,638,0,0
154,386,0,0,0,0,0,0,0,0,0,-1,1378,638,0,0
161,386,0,0,0,0,0,0,0,0,0,-1,1385,638,0,0
168,386,0,0,0,0,0,0,0,0,0,-1,1392,638,0,0
175,386,0,0,0,0,0,0,0,0,0,-1,1399,638,0,0
182,386,0,0,0,0,0,0,0,0,0,-1,1406,638,0,0
189,386,0,0,0,0,0,0,0,0,0,-1,1413,638,0,0
196,386,0,0,0,0,0,0,0,0,0,-1,1420,638,0,0
203,386,0,0,0,0,0,0,0,0,0,-1,1427,638,0,0
210,386,0,0,0,0,0,0,0,0,0,-1,1434,638,0,0
217,386,0,0,0,0,0,0,0,0,0,-1,1441,638,0,0
224,386,0,0,0,0,0,0,0,0,0,-1,1448,638,0,0
231,386,0,0,0,0,0,0,0,0,0,-1,1455,638,0,0
238,386,0,0,0,0,0,0,0,0,0,-1,1462,638,0,0
245,386,0,0,0,0,0,0,0,0,0,-1,1469,638,0,0
252,386,0,0,0,0,0,0,0,0,0,-1,1476,638,0,0
259,386,0,0,0,0,0,0,0,0,0,-1,1483,638,0,0
266,386,0,0,0,0,0,0,0,0,0,-1,1490,638,0,0
273,386,0,0,0,0,0,0,0,0,0,-1,1497,638,0,0
280,386,0,0,0,0,0,0,0,0,0,-1,1504,638,0,0
287,386,0,0,0,0,0,0,0,0,0,-1,1511,638,0,0
294,386,0,0,0,0,0,0,0,0,0,-1,1518,638,0,0
301,386,0,0,0,0,0,0,0,0,0,-1,1525,638,0,0
308,386,0,0,0,0,0,0,0,0,0,-1,1532,638,0,0
315,386,0,0,0,0,0,0,0,0,0,-1,1539,638,0,0
322,386,0,0,0,0,0,0,0,0,0,-1,1546,638,0,0
329,386,0,0,0,0,0,0,0,0,0,-1,1553,638,0,0
336,386,0,0,0,0,0,0,0,0,0,-1,1560,638,0,0
343,386,0,0,0,0,0,0,0,0,0,-1,1567,638,0,0
350,386,0,0,0,0,0,0,0,0,0,-1,1574,638,0,0
357,386,0,0,0,0,0,0,0,0,0,-1,1581,638,0,0
364,386,0,0,0,0,0,0,0,0,0,-1,1588,638,0,0
371,386,0,0,0,0,0,0,0,0,0,-1,1595,638,0,0
378,386,0,0,0,0,0,0,0,0,0,-1,1602,638,0,0
385,386,0,0,0,0,0,0,0,0,0,-1,1609,638,0,0
392,386,0,0,0,0,0,0,0,0,0,-1,1616,638,0,0
399,386,0,0,0,0,0,0,0,0,0,-1,1623,638,0,0
406,386,0,0,0,0,0,0,0,0,0,-1,1630,638,0,0
413,386,0,0,0,0,0,0,0,0,0,-1,1637,638,0,0
420,386,0,0,0,0,0,0,0,0,0,-1,1644,638,0,0
427,386,0,0,0,0,0,0,0,0,0,-1,1651,638,0,0
434,386,0,0,0,0,0,0,0,0,0,-1,1658,638,0,0
441,386,0,0,0,0,0,0,0,0,0,-1,1665,638,0,0
448,386,0,0,0,0,0,0,0,0,0,-1,1672,638,0,0
455,386,0,0,0,0,0,0,0,0,0,-1,1679,638,0,0
462,386,0,0,0,0,0,0,0,0,0,-1,1686,638,0,0
469,386,9.84692,1.55804,0,0,0,0,0,0,0,-1,1693,638,9.84691,-1.55807
476,386,10.6145,0.986511,0,0,0,0,0,0,0,-1,1700,638,10.6145,-0.986529
483,386,11.4113,0.732971,0,0,0,0,0,0,0,-1,1707,638,11.4112,-0.732958
490,386,7.79785,1.79572,0,0,0,0,0,0,0,-1,1714,638,7.79788,-1.7957
497,386,8.96362,1.77081,0,0,0,0,0,0,0,-1,1721,638,8.96357,-1.77081
504,386,10.0555,1.69427,0,0,0,0,0,0,0,-1,1728,638,10.0555,-1.69426
511,386,11.2172,1.534,0,0,0,0,0,0,0,-1,1735,638,11.2172,-1.53398
518,386,7.41553,1.75238,0,0,0,0,0,0,0,-1,1742,638,7.41547,-1.75238
525,386,8.82422,-1.1449,0,0,0,0,0,0,0,-1,1749,638,8.82426,1.14492
532,386,10.6432,0.617371,0,0,0,0,0,0,0,-1,1756,638,10.6432,-0.617359
539,386,9.62061,-0.393616,0,0,0,0,0,0,0,-1,1763,638,9.62059,0.393634
546,386,10.7963,-2.854,0,0,0,0,0,0,0,-1,1770,638,10.7962,2.854
553,386,16.9939,-7.27942,0,0,0,0,0,0,0,-1,1777,638,16.9939,7.27944
560,386,16.863,-6.8125,0.000745445,0.00131546,0.000125392,0.00134182,0.000719081,1.36356,0.000775365,0.0489134,1784,638,16.8631,6.81247
567,386,16.7485,-6.4646,0.000688886,0.000910303,4.04468e-05,0.00091746,0.000681729,1.39566,0.000550163,0.0217894,1791,638,16.7485,6.4646
574,386,16.7891,-6.01758,0.000698139,0.000804523,0.00015397,0.00091423,0.000588432,0.951715,0.000535042,0.0153233,1798,638,16.7891,6.01759
581,386,16.7522,-5.59711,0.000709656,0.000942661,0.000355398,0.00120016,0.000452153,0.943783,0.000699898,0.0141733,1805,638,16.7522,5.5971
588,386,16.7676,-5.13263,0.000696168,0.00121047,0.000598805,0.001605,0.000301633,0.98821,0.000984974,0.0126705,1812,638,16.7676,5.13263
595,386,16.7717,-4.67029,0.000855336,0.0016382,0.000953361,0.00227736,0.000216177,0.980196,0.00145156,0.0132593,1819,638,16.7718,4.67028
602,386,16.756,-4.22656,0.00118477,0.00223181,0.00147867,0.0032769,0.000139681,0.955537,0.00213956,0.014499,1826,638,16.756,4.22654
609,386,16.745,-3.76007,0.00125155,0.00294776,0.00192522,0.0042034,-4.09759e-06,0.992871,0.00280364,0.0151474,1833,638,16.745,3.76008
616,386,16.7223,-3.2738,0.00123036,0.00361494,0.0022788,0.00499451,-0.000149216,1.02642,0.00338051,0.0126602,1840,638,16.7222,3.27382
623,386,16.694,-2.78082,0.00131052,0.00437995,0.0027517,0.00599598,-0.000305512,1.03978,0.00410295,0.0114638,1847,638,16.694,2.7808
630,386,16.7966,-2.28174,0.00126688,0.00513365,0.00313215,0.00688106,-0.000480541,1.06191,0.00475566,0.0321579,1854,638,16.7966,2.28174
637,386,16.9601,-1.7793,0,0,0,0,0,0,0,-1,1861,638,16.9601,1.77932
644,386,11.6521,0.723328,0,0,0,0,0,0,0,-1,1868,638,11.6521,-0.723355
651,386,9.3866,1.31097,0,0,0,0,0,0,0,-1,1875,638,9.3866,-1.31095
658,386,12.0731,-0.00415039,0,0,0,0,0,0,0,-1,1882,638,12.0731,0.00412803
665,386,6.33167,1.78601,0,0,0,0,0,0,0,-1,1889,638,6.33171,-1.78601
672,386,7.23352,2.14435,0,0,0,0,0,0,0,-1,1896,638,7.23353,-2.14433
679,386,8.07764,2.57104,0,0,0,0,0,0,0,-1,1903,638,8.07758,-2.57103
686,386,0,0,0,0,0,0,0,0,0,-1,1910,638,0,0
693,386,0,0,0,0,0,0,0,0,0,-1,1917,638,0,0
700,386,0,0,0,0,0,0,0,0,0,-1,1924,638,0,0
707,386,0,0,0,0,0,0,0,0,0,-1,1931,638,0,0
714,386,0,0,0,0,0,0,0,0,0,-1,1938,638,0,0
721,386,0,0,0,0,0,0,0,0,0,-1,1945,638,0,0
728,386,0,0,0,0,0,0,0,0,0,-1,1952,638,0,0
735,386,0,0,0,0,0,0,0,0,0,-1,1959,638,0,0
742,386,0,0,0,0,0,0,0,0,0,-1,1966,638,0,0
749,386,0,0,0,0,0,0,0,0,0,-1,1973,638,0,0
756,386,0,0,0,0,0,0,0,0,0,-1,1980,638,0,0
763,386,0,0,0,0,0,0,0,0,0,-1,1987,638,0,0
770,386,0,0,0,0,0,0,0,0,0,-1,1994,638,0,0
777,386,0,0,0,0,0,0,0,0,0,-1,2001,638,0,0
784,386,0,0,0,0,0,0,0,0,0,-1,2008,638,0,0
791,386,0,0,0,0,0,0,0,0,0,-1,2015,638,0,0
798,386,0,0,0,0,0,0,0,0,0,-1,2022,638,0,0
805,386,0,0,0,0,0,0,0,0,0,-1,2029,638,0,0
812,386,0,0,0,0,0,0,0,0,0,-1,2036,638,0,0
-700,379,0,0,0,0,0,0,0,0,0,-1,524,645,0,0
-693,379,0,0,0,0,0,0,0,0,0,-1,531,645,0,0
-686,379,0,0,0,0,0,0,0,0,0,-1,538,645,0,0
-679,379,0,0,0,0,0,0,0,0,0,-1,545,645,0,0
-672,379,0,0,0,0,0,0,0,0,0,-1,552,645,0,0
-665,379,0,0,0,0,0,0,0,0,0,-1,559,645,0,0
-658,379,0,0,0,0,0,0,0,0,0,-1,566,645,0,0
-651,379,0,0,0,0,0,0,0,0,0,-1,573,645,0,0
-644,379,0,0,0,0,0,0,0,0,0,-1,580,645,0,0
-637,379,0,0,0,0,0,0,0,0,0,-1,587,645,0,0
-630,379,0,0,0,0,0,0,0,0,0,-1,594,645,0,0
-623,379,0,0,0,0,0,0,0,0,0,-1,601,645,0,0
-616,379,0,0,0,0,0,0,0,0,0,-1,608,645,0,0
-609,379,0,0,0,0,0,0,0,0,0,-1,615,645,0,0
-602,379,0,0,0,0,0,0,0,0,0,-1,622,645,0,0
-595,379,0,0,0,0,0,0,0,0,0,-1,629,645,0,0
-588,379,0,0,0,0,0,0,0,0,0,-1,636,645,0,0
-581,379,0,0,0,0,0,0,0,0,0,-1,643,645,0,0
-574,379,0,0,0,0,0,0,0,0,0,-1,650,645,0,0
-567,379,-8.78058,0.59668,0,0,0,0,0,0,0,-1,657,645,-8.7806,-0.596692
-560,379,-9.53485,-0.211304,0,0,0,0,0,0,0,-1,664,645,-9.53487,0.211282
-553,379,-5.17108,-4.53119,0,0,0,0,0,0,0,-1,671,645,-5.17106,4.53117
-546,379,-6.23053,-4.92102,0,0,0,0,0,0,0,-1,678,645,-6.23054,4.92105
-539,379,-0.71698,-2.19427,0,0,0,0,0,0,0,-1,685,645,-0.716959,2.19427
-532,379,-7.69611,0.217224,0,0,0,0,0,0,0,-1,692,645,-7.69614,-0.217204
-525,379,-7.09833,-1.13043,0,0,0,0,0,0,0,-1,699,645,-7.0983,1.13041
-518,379,-8.80646,-3.23016,0,0,0,0,0,0,0,-1,706,645,-8.80643,3.23016
-511,379,-8.68201,-3.80585,-0.000423128,0.00805906,-0.00408914,0.00970931,-0.00207338,-1.18722,0.00726332,0.0439761,713,645,-8.682,3.80586
-504,379,-8.83759,-4.21954,-0.000662804,0.00571495,-0.0024738,0.00656199,-0.00150985,-1.2409,0.00495522,0.0233222,720,645,-8.83756,4.21953
-497,379,-8.9007,-4.64813,-0.000623642,0.00401802,-0.00153264,0.00447842,-0.00108404,-1.27898,0.00340497,0.0123522,727,645,-8.90067,4.64816
-490,379,-8.8949,-5.10419,-0.000518009,0.00262354,-0.000796035,0.00281373,-0.000708201,-1.33627,0.00215111,0.011398,734,645,-8.89488,5.1042
-483,379,-8.89447,-5.55078,-2.21462e-05,0.00181041,-0.000699496,0.00204689,-0.00025863,-1.24478,0.00145847,0.0129771,741,645,-8.89444,5.55078
-476,379,-8.89539,-5.95367,0.000688416,0.00146827,-0.000972904,0.00212648,3.02084e-05,-0.97599,0.00140769,0.013768,748,645,-8.89541,5.95366
-469,379,-8.92188,-6.3717,0.00140417,0.00129131,-0.00130002,0.00264899,4.64948e-05,-0.763708,0.0017507,0.0122806,755,645,-8.92189,6.37169
-462,379,-8.9505,-6.82129,0.00200026,0.00116502,-0.00160447,0.00324057,-7.52923e-05,-0.658081,0.00218591,0.00898224,762,645,-8.95052,6.82127
-455,379,-8.96307,-7.25354,0.00228541,0.000961009,-0.00163624,0.00338837,-0.000141954,-0.59312,0.00230769,0.00922014,769,645,-8.96306,7.25354
-448,379,-8.94342,-7.68536,0.00254933,0.000835933,-0.00165017,0.00355193,-0.000166671,-0.545971,0.00242542,0.0110863,776,645,-8.94341,7.68535
-441,379,-8.93597,-8.19019,0.0025694,0.000765692,-0.00154569,0.0034571,-0.000122006,-0.521312,0.00234646,0.0206135,783,645,-8.93597,8.1902
-434,379,-8.7757,-8.7226,0,0,0,0,0,0,0,-1,790,645,-8.77568,8.72258
-427,379,-4.16113,-4.13452,0,0,0,0,0,0,0,-1,797,645,-4.16116,4.1345
-420,379,-4.63953,-3.46869,0,0,0,0,0,0,0,-1,804,645,-4.63953,3.46872
-413,379,-4.62543,-3.7912,0,0,0,0,0,0,0,-1,811,645,-4.62541,3.79123
-406,379,-4.64063,-4.38489,0,0,0,0,0,0,0,-1,818,645,-4.64065,4.3849
-399,379,-2.93536,-1.40118,0,0,0,0,0,0,0,-1,825,645,-2.93534,1.40119
-392,379,-4.16711,-0.466003,0,0,0,0,0,0,0,-1,832,645,-4.16714,0.465992
-385,379,-3.51862,0.441101,0,0,0,0,0,0,0,-1,839,645,-3.51859,-0.441072
-378,379,-5.3504,0.212219,0,0,0,0,0,0,0,-1,846,645,-5.35038,-0.212241
-371,379,-4.32092,-0.186707,0,0,0,0,0,0,0,-1,853,645,-4.3209,0.186707
-364,379,-3.40887,-0.549805,0,0,0,0,0,0,0,-1,860,645,-3.4089,0.549802
-357,379,0,0,0,0,0,0,0,0,0,-1,867,645,0,0
-350,379,0,0,0,0,0,0,0,0,0,-1,874,645,0,0
-343,379,0,0,0,0,0,0,0,0,0,-1,881,645,0,0
-336,379,0,0,0,0,0,0,0,0,0,-1,888,645,0,0
-329,379,0,0,0,0,0,0,0,0,0,-1,895,645,0,0
-322,379,0,0,0,0,0,0,0,0,0,-1,902,645,0,0
-315,379,0,0,0,0,0,0,0,0,0,-1,909,645,0,0
-308,379,0,0,0,0,0,0,0,0,0,-1,916,645,0,0
-301,379,0,0,0,0,0,0,0,0,0,-1,923,645,0,0
-294,379,0,0,0,0,0,0,0,0,0,-1,930,645,0,0
-287,379,0,0,0,0,0,0,0,0,0,-1,937,645,0,0
-280,379,0,0,0,0,0,0,0,0,0,-1,944,645,0,0
-273,379,0,0,0,0,0,0,0,0,0,-1,951,645,0,0
-266,379,0,0,0,0,0,0,0,0,0,-1,958,645,0,0
-259,379,0,0,0,0,0,0,0,0,0,-1,965,645,0,0
-252,379,0,0,0,0,0,0,0,0,0,-1,972,645,0,0
-245,379,0,0,0,0,0,0,0,0,0,-1,979,645,0,0
-238,379,0,0,0,0,0,0,0,0,0,-1,986,645,0,0
-231,379,0,0,0,0,0,0,0,0,0,-1,993,645,0,0
-224,379,0,0,0,0,0,0,0,0,0,-1,1000,645,0,0
-217,379,0,0,0,0,0,0,0,0,0,-1,1007,645,0,0
-210,379,0,0,0,0,0,0,0,0,0,-1,1014,645,0,0
-203,379,0,0,0,0,0,0,0,0,0,-1,1021,645,0,0
-196,379,0,0,0,0,0,0,0,0,0,-1,1028,645,0,0
-189,379,0,0,0,0,0,0,0,0,0,-1,1035,645,0,0
-182,379,0,0,0,0,0,0,0,0,0,-1,1042,645,0,0
-175,379,0,0,0,0,0,0,0,0,0,-1,1049,645,0,0
-168,379,0,0,0,0,0,0,0,0,0,-1,1056,645,0,0
-161,379,0,0,0,0,0,0,0,0,0,-1,1063,645,0,0
-154,379,0,0,0,0,0,0,0,0,0,-1,1070,645,0,0
-147,379,0,0,0,0,0,0,0,0,0,-1,1077,645,0,0
-140,379,0,0,0,0,0,0,0,0,0,-1,1084,645,0,0
-133,379,0,0,0,0,0,0,0,0,0,-1,1091,645,0,0
-126,379,0,0,0,0,0,0,0,0,0,-1,1098,645,0,0
-119,379,0,0,0,0,0,0,0,0,0,-1,1105,645,0,0
-112,379,0,0,0,0,0,0,0,0,0,-1,1112,645,0,0
-105,379,0,0,0,0,0,0,0,0,0,-1,1119,645,0,0
-98,379,0,0,0,0,0,0,0,0,0,-1,1126,645,0,0
-91,379,0,0,0,0,0,0,0,0,0,-1,1133,645,0,0
-84,379,0,0,0,0,0,0,0,0,0,-1,1140,645,0,0
-77,379,0,0,0,0,0,0,0,0,0,-1,1147,645,0,0
-70,379,0,0,0,0,0,0,0,0,0,-1,1154,645,0,0
-63,379,0,0,0,0,0,0,0,0,0,-1,1161,645,0,0
-56,379,0,0,0,0,0,0,0,0,0,-1,1168,645,0,0
-49,379,0,0,0,0,0,0,0,0,0,-1,1175,645,0,0
-42,379,0,0,0,0,0,0,0,0,0,-1,1182,645,0,0
-35,379,0,0,0,0,0,0,0,0,0,-1,1189,645,0,0
-28,379,0,0,0,0,0,0,0,0,0,-1,1196,645,0,0
-21,379,0,0,0,0,0,0,0,0,0,-1,1203,645,0,0
-14,379,0,0,0,0,0,0,0,0,0,-1,1210,645,0,0
-7,379,0,0,0,0,0,0,0,0,0,-1,1217,645,0,0
0,379,0,0,0,0,0,0,0,0,0,-1,1224,645,0,0
7,379,0,0,0,0,0,0,0,0,0,-1,1231,645,0,0
14,379,0,0,0,0,0,0,0,0,0,-1,1238,645,0,0
21,379,0,0,0,0,0,0,0,0,0,-1,1245,645,0,0
28,379,0,0,0,0,0,0,0,0,0,-1,1252,645,0,0
35,379,0,0,0,0,0,0,0,0,0,-1,1259,645,0,0
42,379,0,0,0,0,0,0,0,0,0,-1,1266,645,0,0
49,379,0,0,0,0,0,0,0,0,0,-1,1273,645,0,0
56,379,0,0,0,0,0,0,0,0,0,-1,1280,645,0,0
63,379,0,0,0,0,0,0,0,0,0,-1,1287,645,0,0
70,379,0,0,0,0,0,0,0,0,0,-1,1294,645,0,0
77,379,0,0,0,0,0,0,0,0,0,-1,1301,645,0,0
84,379,0,0,0,0,0,0,0,0,0,-1,1308,645,0,0
91,379,0,0,0,0,0,0,0,0,0,-1,1315,645,0,0
98,379,0,0,0,0,0,0,0,0,0,-1,1322,645,0,0
105,379,0,0,0,0,0,0,0,0,0,-1,1329,645,0,0
112,379,0,0,0,0,0,0,0,0,0,-1,1336,645,0,0
119,379,0,0,0,0,0,0,0,0,0,-1,1343,645,0,0
126,379,0,0,0,0,0,0,0,0,0,-1,1350,645,0,0
133,379,0,0,0,0,0,0,0,0,0,-1,1357,645,0,0
140,379,0,0,0,0,0,0,0,0,0,-1,1364,645,0,0
147,379,0,0,0,0,0,0,0,0,0,-1,1371,645,0,0
154,379,0,0,0,0,0,0,0,0,0,-1,1378,645,0,0
161,379,0,0,0,0,0,0,0,0,0,-1,1385,645,0,0
168,379,0,0,0,0,0,0,0,0,0,-1,1392,645,0,0
175,379,0,0,0,0,0,0,0,0,0,-1,1399,645,0,0
182,379,0,0,0,0,0,0,0,0,0,-1,1406,645,0,0
189,379,0,0,0,0,0,0,0,0,0,-1,1413,645,0,0
196,379,0,0,0,0,0,0,0,0,0,-1,1420,645,0,0
203,379,0,0,0,0,0,0,0,0,0,-1,1427,645,0,0
210,379,0,0,0,0,0,0,0,0,0,-1,1434,645,0,0
217,379,0,0,0,0,0,0,0,0,0,-1,1441,645,0,0
224,379,0,0,0,0,0,0,0,0,0,-1,1448,645,0,0
231,379,0,0,0,0,0,0,0,0,0,-1,1455,645,0,0
238,379,0,0,0,0,0,0,0,0,0,-1,1462,645,0,0
245,379,0,0,0,0,0,0,0,0,0,-1,1469,645,0,0
252,379,0,0,0,0,0,0,0,0,0,-1,1476,645,0,0
259,379,0,0,0,0,0,0,0,0,0,-1,1483,645,0,0
266,379,0,0,0,0,0,0,0,0,0,-1,1490,645,0,0
273,379,0,0,0,0,0,0,0,0,0,-1,1497,645,0,0
280,379,0,0,0,0,0,0,0,0,0,-1,1504,645,0,0
287,379,0,0,0,0,0,0,0,0,0,-1,1511,645,0,0
294,379,0,0,0,0,0,0,0,0,0,-1,1518,645,0,0
301,379,0,0,0,0,0,0,0,0,0,-1,1525,645,0,0
308,379,0,0,0,0,0,0,0,0,0,-1,1532,645,0,0
315,379,0,0,0,0,0,0,0,0,0,-1,1539,645,0,0
322,379,0,0,0,0,0,0,0,0,0,-1,1546,645,0,0
329,379,0,0,0,0,0,0,0,0,0,-1,1553,645,0,0
336,379,0,0,0,0,0,0,0,0,0,-1,1560,645,0,0
343,379,0,0,0,0,0,0,0,0,0,-1,1567,645,0,0
350,379,0,0,0,0,0,0,0,0,0,-1,1574,645,0,0
357,379,0,0,0,0,0,0,0,0,0,-1,1581,645,0,0
364,379,0,0,0,0,0,0,0,0,0,-1,1588,645,0,0
371,379,0,0,0,0,0,0,0,0,0,-1,1595,645,0,0
378,379,0,0,0,0,0,0,0,0,0,-1,1602,645,0,0
385,379,0,0,0,0,0,0,0,0,0,-1,1609,645,0,0
392,379,0,0,0,0,0,0,0,0,0,-1,1616,645,0,0
399,379,0,0,0,0,0,0,0,0,0,-1,1623,645,0,0
406,379,0,0,0,0,0,0,0,0,0,-1,1630,645,0,0
413,379,0,0,0,0,0,0,0,0,0,-1,1637,645,0,0
420,379,0,0,0,0,0,0,0,0,0,-1,1644,645,0,0
427,379,0,0,0,0,0,0,0,0,0,-1,1651,645,0,0
434,379,0,0,0,0,0,0,0,0,0,-1,1658,645,0,0
441,379,0,0,0,0,0,0,0,0,0,-1,1665,645,0,0
448,379,0,0,0,0,0,0,0,0,0,-1,1672,645,0,0
455,379,0,0,0,0,0,0,0,0,0,-1,1679,645,0,0
462,379,0,0,0,0,0,0,0,0,0,-1,1686,645,0,0
469,379,0,0,0,0,0,0,0,0,0,-1,1693,645,0,0
476,379,11.1787,0.830383,0,0,0,0,0,0,0,-1,1700,645,11.1787,-0.830365
483,379,7.4231,1.54321,0,0,0,0,0,0,0,-1,1707,645,7.42314,-1.54324
490,379,8.52881,1.56677,0,0,0,0,0,0,0,-1,1714,645,8.52878,-1.56677
497,379,9.63599,1.49573,0,0,0,0,0,0,0,-1,1721,645,9.63604,-1.4957
504,379,10.0833,1.35229,0,0,0,0,0,0,0,-1,1728,645,10.0832,-1.35227
511,379,8.14343,1.59912,0,0,0,0,0,0,0,-1,1735,645,8.14347,-1.59912
518,379,12.7955,-0.324097,0,0,0,0,0,0,0,-1,1742,645,12.7955,0.324101
525,379,6.03711,1.10352,0,0,0,0,0,0,0,-1,1749,645,6.03711,-1.10351
532,379,8.70947,0.887817,0,0,0,0,0,0,0,-1,1756,645,8.70953,-0.887808
539,379,9.87097,0.111389,0,0,0,0,0,0,0,-1,1763,645,9.87095,-0.111395
546,379,8.42383,-0.730652,0,0,0,0,0,0,0,-1,1770,645,8.42378,0.730638
553,379,17.9077,-6.84735,0,0,0,0,0,0,0,-1,1777,645,17.9077,6.84736
560,379,17.6196,-6.66528,0,0,0,0,0,0,0,-1,1784,645,17.6196,6.66529
567,379,17.3315,-6.48322,0,0,0,0,0,0,0,-1,1791,645,17.3315,6.48322
574,379,17.2533,-5.98523,0.000792053,0.000835417,0.000144319,0.000959674,0.000667796,0.859959,0.000568061,0.0129787,1798,645,17.2533,5.98523
581,379,17.2435,-5.56274,0.000893497,0.000931419,0.000360445,0.0012734,0.000551515,0.811676,0.000737389,0.0150822,1805,645,17.2436,5.56277
588,379,17.243,-5.10583,0.000950444,0.00112771,0.00059114,0.00163683,0.000441331,0.859812,0.000977886,0.0173725,1812,645,17.243,5.10585
595,379,17.2234,-4.64612,0.00110597,0.001453,0.000876724,0.00217321,0.000385755,0.883094,0.00133888,0.014331,1819,645,17.2234,4.6461
602,379,17.203,-4.21631,0.00141983,0.00191805,0.0013125,0.00300487,0.000333009,0.879183,0.00190199,0.014541,1826,645,17.203,4.21628
609,379,17.186,-3.77551,0.00145607,0.00248759,0.00165269,0.00370312,0.000240535,0.936646,0.0023926,0.0158971,1833,645,17.186,3.77554
616,379,17.1777,-3.29266,0.00135823,0.00300034,0.00188919,0.00423918,0.000119392,0.990387,0.00278717,0.0131699,1840,645,17.1777,3.29265
623,379,17.1843,-2.78204,0.00127614,0.00353983,0.00218402,0.00486787,-5.18945e-05,1.02446,0.00326268,0.0123851,1847,645,17.1843,2.78201
630,379,17.1818,-2.32019,0.00094869,0.00402509,0.00235833,0.00530252,-0.000328744,1.07437,0.00364954,0.0137355,1854,645,17.1817,2.32017
637,379,17.1611,-1.80219,0.000321866,0.00463554,0.00245403,0.00574584,-0.000788434,1.14592,0.00411861,0.0323462,1861,645,17.1612,1.80217
644,379,17.4143,-0.994263,0,0,0,0,0,0,0,-1,1868,645,17.4143,0.994251
651,379,12.9515,0.220825,0,0,0,0,0,0,0,-1,1875,645,12.9515,-0.220814
658,379,13.7498,0.37439,0,0,0,0,0,0,0,-1,1882,645,13.7498,-0.374371
665,379,11.9719,0.353333,0,0,0,0,0,0,0,-1,1889,645,11.9719,-0.353321
672,379,7.57605,2.15326,0,0,0,0,0,0,0,-1,1896,645,7.57599,-2.15326
679,379,8.55078,2.50409,0,0,0,0,0,0,0,-1,1903,645,8.55073,-2.50406
686,379,0,0,0,0,0,0,0,0,0,-1,1910,645,0,0
693,379,0,0,0,0,0,0,0,0,0,-1,1917,645,0,0
700,379,0,0,0,0,0,0,0,0,0,-1,1924,645,0,0
707,379,0,0,0,0,0,0,0,0,0,-1,1931,645,0,0
714,379,0,0,0,0,0,0,0,0,0,-1,1938,645,0,0
721,379,0,0,0,0,0,0,0,0,0,-1,1945,645,0,0
728,379,0,0,0,0,0,0,0,0,0,-1,1952,645,0,0
735,379,0,0,0,0,0,0,0,0,0,-1,1959,645,0,0
742,379,0,0,0,0,0,0,0,0,0,-1,1966,645,0,0
749,379,0,0,0,0,0,0,0,0,0,-1,1973,645,0,0
756,379,0,0,0,0,0,0,0,0,0,-1,1980,645,0,0
763,379,0,0,0,0,0,0,0,0,0,-1,1987,645,0,0
770,379,0,0,0,0,0,0,0,0,0,-1,1994,645,0,0
777,379,0,0,0,0,0,0,0,0,0,-1,2001,645,0,0
784,379,0,0,0,0,0,0,0,0,0,-1,2008,645,0,0
791,379,0,0,0,0,0,0,0,0,0,-1,2015,645,0,0
798,379,0,0,0,0,0,0,0,0,0,-1,2022,645,0,0
805,379,0,0,0,0,0,0,0,0,0,-1,2029,645,0,0
812,379,0,0,0,0,0,0,0,0,0,-1,2036,645,0,0
-700,372,0,0,0,0,0,0,0,0,0,-1,524,652,0,0
-693,372,0,0,0,0,0,0,0,0,0,-1,531,652,0,0
-686,372,0,0,0,0,0,0,0,0,0,-1,538,652,0,0
-679,372,0,0,0,0,0,0,0,0,0,-1,545,652,0,0
-672,372,0,0,0,0,0,0,0,0,0,-1,552,652,0,0
-665,372,0,0,0,0,0,0,0,0,0,-1,559,652,0,0
-658,372,0,0,0,0,0,0,0,0,0,-1,566,652,0,0
-651,372,0,0,0,0,0,0,0,0,0,-1,573,652,0,0
-644,372,0,0,0,0,0,0,0,0,0,-1,580,652,0,0
-637,372,0,0,0,0,0,0,0,0,0,-1,587,652,0,0
-630,372,0,0,0,0,0,0,0,0,0,-1,594,652,0,0
-623,372,0,0,0,0,0,0,0,0,0,-1,601,652,0,0
-616,372,0,0,0,0,0,0,0,0,0,-1,608,652,0,0
-609,372,0,0,0,0,0,0,0,0,0,-1,615,652,0,0
-602,372,0,0,0,0,0,0,0,0,0,-1,622,652,0,0
-595,372,0,0,0,0,0,0,0,0,0,-1,629,652,0,0
-588,372,0,0,0,0,0,0,0,0,0,-1,636,652,0,0
-581,372,0,0,0,0,0,0,0,0,0,-1,643,652,0,0
-574,372,0,0,0,0,0,0,0,0,0,-1,650,652,0,0
-567,372,-7.93744,0.73407,0,0,0,0,0,0,0,-1,657,652,-7.93741,-0.734076
-560,372,-8.78552,-0.158203,0,0,0,0,0,0,0,-1,664,652,-8.78552,0.158216
-553,372,-7.95551,1.61694,0,0,0,0,0,0,0,-1,671,652,-7.95552,-1.61697
-546,372,-4.2403,-3.75372,0,0,0,0,0,0,0,-1,678,652,-4.24028,3.75369
-539,372,-7.92285,-0.0650024,0,0,0,0,0,0,0,-1,685,652,-7.92287,0.0649772
-532,372,-8.59589,-0.419556,0,0,0,0,0,0,0,-1,692,652,-8.59591,0.419539
-525,372,-8.03674,-1.36804,0,0,0,0,0,0,0,-1,699,652,-8.03676,1.36806
-518,372,-9.33899,-3.24622,0,0,0,0,0,0,0,-1,706,652,-9.33901,3.24624
-511,372,-9.30402,-3.77118,0.000245932,0.00701404,-0.00387292,0.00877307,-0.0015131,-1.14447,0.00641286,0.0284243,713,652,-9.30405,3.7712
-504,372,-9.32367,-4.16852,-5.44281e-05,0.00487078,-0.0023477,0.00581055,-0.000994195,-1.19004,0.00424409,0.0144552,720,652,-9.32368,4.16853
-497,372,-9.31897,-4.6463,-4.67934e-05,0.00335975,-0.00146042,0.00390013,-0.000587169,-1.2164,0.00281629,0.0120722,727,652,-9.31896,4.64633
-490,372,-9.33789,-5.0874,3.83622e-05,0.00209409,-0.000779278,0.0023561,-0.000223649,-1.24645,0.00165035,0.012851,734,652,-9.3379,5.08738
-483,372,-9.34686,-5.51038,0.00053248,0.00142621,-0.000729742,0.00183504,0.00012365,-1.06013,0.00118429,0.0121067,741,652,-9.34689,5.51039
-476,372,-9.34186,-5.91364,0.00126454,0.00125259,-0.00108854,0.00234712,0.000170004,-0.782653,0.00151127,0.0136638,748,652,-9.34183,5.91363
-469,372,-9.37384,-6.33185,0.00200377,0.00123653,-0.00151229,0.00318033,5.99623e-05,-0.661184,0.00210052,0.0110679,755,652,-9.37382,6.33184
-462,372,-9.38068,-6.78625,0.00264802,0.00129129,-0.00193884,0.00402375,-8.44311e-05,-0.617114,0.00271108,0.00956464,762,652,-9.38069,6.78623
-455,372,-9.40247,-7.22003,0.00298545,0.00126172,-0.00207787,0.0043731,-0.000125936,-0.588806,0.00295827,0.0100735,769,652,-9.40248,7.22003
-448,372,-9.38983,-7.67157,0.00331952,0.0014319,-0.00228616,0.00484902,-9.76059e-05,-0.589636,0.0032657,0.0118497,776,652,-9.38984,7.67158
-441,372,-9.23236,-8.29199,0.00346519,0.0017095,-0.00242397,0.00516537,9.31509e-06,-0.611669,0.00344048,0.0474374,783,652,-9.23233,8.29201
-434,372,-9.18634,-9.03735,0,0,0,0,0,0,0,-1,790,652,-9.18636,9.03736
-427,372,-4.54248,-3.56268,0,0,0,0,0,0,0,-1,797,652,-4.54247,3.56266
-420,372,-4.66168,-2.93597,0,0,0,0,0,0,0,-1,804,652,-4.66166,2.93599
-413,372,-4.74762,-3.29541,0,0,0,0,0,0,0,-1,811,652,-4.74763,3.29542
-406,372,-0.885437,-0.583923,0,0,0,0,0,0,0,-1,818,652,-0.885437,0.5839
-399,372,-3.97357,-0.825012,0,0,0,0,0,0,0,-1,825,652,-3.97359,0.825037
-392,372,-7.64337,0.173035,0,0,0,0,0,0,0,-1,832,652,-7.64337,-0.173019
-385,372,-6.48871,-0.0271606,0,0,0,0,0,0,0,-1,839,652,-6.48874,0.0271353
-378,372,-5.33044,-0.242432,0,0,0,0,0,0,0,-1,846,652,-5.33042,0.242457
-371,372,-4.40802,-0.495667,0,0,0,0,0,0,0,-1,853,652,-4.40802,0.495661
-364,372,0,0,0,0,0,0,0,0,0,-1,860,652,0,0
-357,372,0,0,0,0,0,0,0,0,0,-1,867,652,0,0
-350,372,0,0,0,0,0,0,0,0,0,-1,874,652,0,0
-343,372,0,0,0,0,0,0,0,0,0,-1,881,652,0,0
-336,372,0,0,0,0,0,0,0,0,0,-1,888,652,0,0
-329,372,0,0,0,0,0,0,0,0,0,-1,895,652,0,0
-322,372,0,0,0,0,0,0,0,0,0,-1,902,652,0,0
-315,372,0,0,0,0,0,0,0,0,0,-1,909,652,0,0
-308,372,0,0,0,0,0,0,0,0,0,-1,916,652,0,0
-301,372,0,0,0,0,0,0,0,0,0,-1,923,652,0,0
-294,372,0,0,0,0,0,0,0,0,0,-1,930,652,0,0
-287,372,0,0,0,0,0,0,0,0,0,-1,937,652,0,0
-280,372,0,0,0,0,0,0,0,0,0,-1,944,652,0,0
-273,372,0,0,0,0,0,0,0,0,0,-1,951,652,0,0
-266,372,0,0,0,0,0,0,0,0,0,-1,958,652,0,0
-259,372,0,0,0,0,0,0,0,0,0,-1,965,652,0,0
-252,372,0,0,0,0,0,0,0,0,0,-1,972,652,0,0
-245,372,0,0,0,0,0,0,0,0,0,-1,979,652,0,0
-238,372,0,0,0,0,0,0,0,0,0,-1,986,652,0,0
-231,372,0,0,0,0,0,0,0,0,0,-1,993,652,0,0
-224,372,0,0,0,0,0,0,0,0,0,-1,1000,652,0,0
-217,372,0,0,0,0,0,0,0,0,0,-1,1007,652,0,0
-210,372,0,0,0,0,0,0,0,0,0,-1,1014,652,0,0
-203,372,0,0,0,0,0,0,0,0,0,-1,1021,652,0,0
-196,372,0,0,0,0,0,0,0,0,0,-1,1028,652,0,0
-189,372,0,0,0,0,0,0,0,0,0,-1,1035,652,0,0
-182,372,0,0,0,0,0,0,0,0,0,-1,1042,652,0,0
-175,372,0,0,0,0,0,0,0,0,0,-1,1049,652,0,0
-168,372,0,0,0,0,0,0,0,0,0,-1,1056,652,0,0
-161,372,0,0,0,0,0,0,0,0,0,-1,1063,652,0,0
-154,372,0,0,0,0,0,0,0,0,0,-1,1070,652,0,0
-147,372,0,0,0,0,0,0,0,0,0,-1,1077,652,0,0
-140,372,0,0,0,0,0,0,0,0,0,-1,1084,652,0,0
-133,372,0,0,0,0,0,0,0,0,0,-1,1091,652,0,0
-126,372,0,0,0,0,0,0,0,0,0,-1,1098,652,0,0
-119,372,0,0,0,0,0,0,0,0,0,-1,1105,652,0,0
-112,372,0,0,0,0,0,0,0,0,0,-1,1112,652,0,0
-105,372,0,0,0,0,0,0,0,0,0,-1,1119,652,0,0
-98,372,0,0,0,0,0,0,0,0,0,-1,1126,652,0,0
-91,372,0,0,0,0,0,0,0,0,0,-1,1133,652,0,0
-84,372,0,0,0,0,0,0,0,0,0,-1,1140,652,0,0
-77,372,0,0,0,0,0,0,0,0,0,-1,1147,652,0,0
-70,372,0,0,0,0,0,0,0,0,0,-1,1154,652,0,0
-63,372,0,0,0,0,0,0,0,0,0,-1,1161,652,0,0
-56,372,0,0,0,0,0,0,0,0,0,-1,1168,652,0,0
-49,372,0,0,0,0,0,0,0,0,0,-1,1175,652,0,0
-42,372,0,0,0,0,0,0,0,0,0,-1,1182,652,0,0
-35,372,0,0,0,0,0,0,0,0,0,-1,1189,652,0,0
-28,372,0,0,0,0,0,0,0,0,0,-1,1196,652,0,0
-21,372,0,0,0,0,0,0,0,0,0,-1,1203,652,0,0
-14,372,0,0,0,0,0,0,0,0,0,-1,1210,652,0,0
-7,372,0,0,0,0,0,0,0,0,0,-1,1217,652,0,0
0,372,0,0,0,0,0,0,0,0,0,-1,1224,652,0,0
7,372,0,0,0,0,0,0,0,0,0,-1,1231,652,0,0
14,372,0,0,0,0,0,0,0,0,0,-1,1238,652,0,0
21,372,0,0,0,0,0,0,0,0,0,-1,1245,652,0,0
28,372,0,0,0,0,0,0,0,0,0,-1,1252,652,0,0
35,372,0,0,0,0,0,0,0,0,0,-1,1259,652,0,0
42,372,0,0,0,0,0,0,0,0,0,-1,1266,652,0,0
49,372,0,0,0,0,0,0,0,0,0,-1,1273,652,0,0
56,372,0,0,0,0,0,0,0,0,0,-1,1280,652,0,0
63,372,0,0,0,0,0,0,0,0,0,-1,1287,652,0,0
70,372,0,0,0,0,0,0,0,0,0,-1,1294,652,0,0
77,372,0,0,0,0,0,0,0,0,0,-1,1301,652,0,0
84,372,0,0,0,0,0,0,0,0,0,-1,1308,652,0,0
91,372,0,0,0,0,0,0,0,0,0,-1,1315,652,0,0
98,372,0,0,0,0,0,0,0,0,0,-1,1322,652,0,0
105,372,0,0,0,0,0,0,0,0,0,-1,1329,652,0,0
112,372,0,0,0,0,0,0,0,0,0,-1,1336,652,0,0
119,372,0,0,0,0,0,0,0,0,0,-1,1343,652,0,0
126,372,0,0,0,0,0,0,0,0,0,-1,1350,652,0,0
133,372,0,0,0,0,0,0,0,0,0,-1,1357,652,0,0
140,372,0,0,0,0,0,0,0,0,0,-1,1364,652,0,0
147,372,0,0,0,0,0,0,0,0,0,-1,1371,652,0,0
154,372,0,0,0,0,0,0,0,0,0,-1,1378,652,0,0
161,372,0,0,0,0,0,0,0,0,0,-1,1385,652,0,0
168,372,0,0,0,0,0,0,0,0,0,-1,1392,652,0,0
175,372,0,0,0,0,0,0,0,0,0,-1,1399,652,0,0
182,372,0,0,0,0,0,0,0,0,0,-1,1406,652,0,0
189,372,0,0,0,0,0,0,0,0,0,-1,1413,652,0,0
196,372,0,0,0,0,0,0,0,0,0,-1,1420,652,0,0
203,372,0,0,0,0,0,0,0,0,0,-1,1427,652,0,0
210,372,0,0,0,0,0,0,0,0,0,-1,1434,652,0,0
217,372,0,0,0,0,0,0,0,0,0,-1,1441,652,0,0
224,372,0,0,0,0,0,0,0,0,0,-1,1448,652,0,0
231,372,0,0,0,0,0,0,0,0,0,-1,1455,652,0,0
238,372,0,0,0,0,0,0,0,0,0,-1,1462,652,0,0
245,372,0,0,0,0,0,0,0,0,0,-1,1469,652,0,0
252,372,0,0,0,0,0,0,0,0,0,-1,1476,652,0,0
259,372,0,0,0,0,0,0,0,0,0,-1,1483,652,0,0
266,372,0,0,0,0,0,0,0,0,0,-1,1490,652,0,0
273,372,0,0,0,0,0,0,0,0,0,-1,1497,652,0,0
280,372,0,0,0,0,0,0,0,0,0,-1,1504,652,0,0
287,372,0,0,0,0,0,0,0,0,0,-1,1511,652,0,0
294,372,0,0,0,0,0,0,0,0,0,-1,1518,652,0,0
301,372,0,0,0,0,0,0,0,0,0,-1,1525,652,0,0
308,372,0,0,0,0,0,0,0,0,0,-1,1532,652,0,0
315,372,0,0,0,0,0,0,0,0,0,-1,1539,652,0,0
322,372,0,0,0,0,0,0,0,0,0,-1,1546,652,0,0
329,372,0,0,0,0,0,0,0,0,0,-1,1553,652,0,0
336,372,0,0,0,0,0,0,0,0,0,-1,1560,652,0,0
343,372,0,0,0,0,0,0,0,0,0,-1,1567,652,0,0
350,372,0,0,0,0,0,0,0,0,0,-1,1574,652,0,0
357,372,0,0,0,0,0,0,0,0,0,-1,1581,652,0,0
364,372,0,0,0,0,0,0,0,0,0,-1,1588,652,0,0
371,372,0,0,0,0,0,0,0,0,0,-1,1595,652,0,0
378,372,0,0,0,0,0,0,0,0,0,-1,1602,652,0,0
385,372,0,0,0,0,0,0,0,0,0,-1,1609,652,0,0
392,372,0,0,0,0,0,0,0,0,0,-1,1616,652,0,0
399,372,0,0,0,0,0,0,0,0,0,-1,1623,652,0,0
406,372,0,0,0,0,0,0,0,0,0,-1,1630,652,0,0
413,372,0,0,0,0,0,0,0,0,0,-1,1637,652,0,0
420,372,0,0,0,0,0,0,0,0,0,-1,1644,652,0,0
427,372,0,0,0,0,0,0,0,0,0,-1,1651,652,0,0
434,372,0,0,0,0,0,0,0,0,0,-1,1658,652,0,0
441,372,0,0,0,0,0,0,0,0,0,-1,1665,652,0,0
448,372,0,0,0,0,0,0,0,0,0,-1,1672,652,0,0
455,372,0,0,0,0,0,0,0,0,0,-1,1679,652,0,0
462,372,0,0,0,0,0,0,0,0,0,-1,1686,652,0,0
469,372,0,0,0,0,0,0,0,0,0,-1,1693,652,0,0
476,372,0,0,0,0,0,0,0,0,0,-1,1700,652,0,0
483,372,8.74182,1.53125,0,0,0,0,0,0,0,-1,1707,652,8.74186,-1.53126
490,372,9.78455,1.67096,0,0,0,0,0,0,0,-1,1714,652,9.7846,-1.67093
497,372,9.97644,1.46069,0,0,0,0,0,0,0,-1,1721,652,9.97647,-1.46071
504,372,10.1216,1.28375,0,0,0,0,0,0,0,-1,1728,652,10.1216,-1.28376
511,372,11.7367,-0.0272217,0,0,0,0,0,0,0,-1,1735,652,11.7367,0.0272326
518,372,12.0657,-0.0995483,0,0,0,0,0,0,0,-1,1742,652,12.0657,0.0995285
525,372,12.3947,-0.171814,0,0,0,0,0,0,0,-1,1749,652,12.3946,0.171824
532,372,9.36597,1.72034,0,0,0,0,0,0,0,-1,1756,652,9.36597,-1.72036
539,372,7.82886,-0.0865479,0,0,0,0,0,0,0,-1,1763,652,7.82882,0.0865771
546,372,10.953,-0.187195,0,0,0,0,0,0,0,-1,1770,652,10.953,0.187181
553,372,14.1201,-4.83234,0,0,0,0,0,0,0,-1,1777,652,14.1201,4.83235
560,372,18.1689,-6.5835,0,0,0,0,0,0,0,-1,1784,652,18.1689,6.58348
567,372,17.7515,-6.39557,0,0,0,0,0,0,0,-1,1791,652,17.7515,6.39557
574,372,17.7457,-5.95135,0.000824283,0.00115606,0.000301393,0.0013342,0.00064614,1.03697,0.000770427,0.0240282,1798,652,17.7457,5.95138
581,372,17.735,-5.56152,0.00100398,0.001134,0.000477431,0.00155083,0.000587154,0.85306,0.000904124,0.0177049,1805,652,17.735,5.56153
588,372,17.7103,-5.12079,0.00112384,0.0011757,0.000648521,0.00179881,0.000500731,0.805377,0.00107201,0.01716,1812,652,17.7103,5.12081
595,372,17.6831,-4.65179,0.00123839,0.00131214,0.00081077,0.00208688,0.000463658,0.808124,0.00126534,0.0150362,1819,652,17.6831,4.65182
602,372,17.6787,-4.19647,0.00151278,0.00158842,0.00111574,0.00266698,0.000434227,0.80234,0.00165237,0.0150621,1826,652,17.6787,4.1965
609,372,17.6438,-3.74005,0.00155042,0.00197368,0.00135303,0.00313153,0.000392571,0.862975,0.00196991,0.0149646,1833,652,17.6438,3.74006
616,372,17.6394,-3.27234,0.00141578,0.0023181,0.0014906,0.00342432,0.000309554,0.93235,0.00218701,0.0144911,1840,652,17.6394,3.27235
623,372,17.6526,-2.77789,0.00123191,0.00265004,0.00164487,0.00373216,0.000149779,0.988901,0.00243972,0.0117532,1847,652,17.6526,2.7779
630,372,17.6371,-2.30743,0.000762655,0.00292386,0.00167334,0.00383519,-0.000148669,1.0721,0.00260776,0.0171638,1854,652,17.6371,2.30742
637,372,17.6335,-1.87463,-7.16143e-06,0.00316088,0.00158103,0.00381489,-0.000661173,1.17857,0.00278989,0.0235837,1861,652,17.6336,1.87464
644,372,17.7112,-1.28278,-0.00112623,0.00327909,0.00143241,0.00370389,-0.00155102,1.2825,0.00311764,0.0373755,1868,652,17.7112,1.28278
651,372,18.0947,-0.607727,0,0,0,0,0,0,0,-1,1875,652,18.0947,0.607737
658,372,14.157,0.280273,0,0,0,0,0,0,0,-1,1882,652,14.157,-0.280264
665,372,13.421,0.714966,0,0,0,0,0,0,0,-1,1889,652,13.4211,-0.714941
672,372,9.34106,1.48444,0,0,0,0,0,0,0,-1,1896,652,9.34109,-1.48444
679,372,10.7308,2.32391,0,0,0,0,0,0,0,-1,1903,652,10.7309,-2.3239
686,372,11.6295,2.52997,0,0,0,0,0,0,0,-1,1910,652,11.6296,-2.52996
693,372,0,0,0,0,0,0,0,0,0,-1,1917,652,0,0
700,372,0,0,0,0,0,0,0,0,0,-1,1924,652,0,0
707,372,0,0,0,0,0,0,0,0,0,-1,1931,652,0,0
714,372,0,0,0,0,0,0,0,0,0,-1,1938,652,0,0
721,372,0,0,0,0,0,0,0,0,0,-1,1945,652,0,0
728,372,0,0,0,0,0,0,0,0,0,-1,1952,652,0,0
735,372,0,0,0,0,0,0,0,0,0,-1,1959,652,0,0
742,372,0,0,0,0,0,0,0,0,0,-1,1966,652,0,0
749,372,0,0,0,0,0,0,0,0,0,-1,1973,652,0,0
756,372,0,0,0,0,0,0,0,0,0,-1,1980,652,0,0
763,372,0,0,0,0,0,0,0,0,0,-1,1987,652,0,0
770,372,0,0,0,0,0,0,0,0,0,-1,1994,652,0,0
777,372,0,0,0,0,0,0,0,0,0,-1,2001,652,0,0
784,372,0,0,0,0,0,0,0,0,0,-1,2008,652,0,0
791,372,0,0,0,0,0,0,0,0,0,-1,2015,652,0,0
798,372,0,0,0,0,0,0,0,0,0,-1,2022,652,0,0
805,372,0,0,0,0,0,0,0,0,0,-1,2029,652,0,0
812,372,0,0,0,0,0,0,0,0,0,-1,2036,652,0,0
-700,365,0,0,0,0,0,0,0,0,0,-1,524,659,0,0
-693,365,0,0,0,0,0,0,0,0,0,-1,531,659,0,0
-686,365,0,0,0,0,0,0,0,0,0,-1,538,659,0,0
-679,365,0,0,0,0,0,0,0,0,0,-1,545,659,0,0
-672,365,0,0,0,0,0,0,0,0,0,-1,552,659,0,0
-665,365,0,0,0,0,0,0,0,0,0,-1,559,659,0,0
-658,365,0,0,0,0,0,0,0,0,0,-1,566,659,0,0
-651,365,0,0,0,0,0,0,0,0,0,-1,573,659,0,0
-644,365,0,0,0,0,0,0,0,0,0,-1,580,659,0,0
-637,365,0,0,0,0,0,0,0,0,0,-1,587,659,0,0
-630,365,0,0,0,0,0,0,0,0,0,-1,594,659,0,0
-623,365,0,0,0,0,0,0,0,0,0,-1,601,659,0,0
-616,365,0,0,0,0,0,0,0,0,0,-1,608,659,0,0
-609,365,0,0,0,0,0,0,0,0,0,-1,615,659,0,0
-602,365,0,0,0,0,0,0,0,0,0,-1,622,659,0,0
-595,365,0,0,0,0,0,0,0,0,0,-1,629,659,0,0
-588,365,0,0,0,0,0,0,0,0,0,-1,636,659,0,0
-581,365,0,0,0,0,0,0,0,0,0,-1,643,659,0,0
-574,365,-7.69281,1.59015,0,0,0,0,0,0,0,-1,650,659,-7.69282,-1.59018
-567,365,-8.2583,1.72638,0,0,0,0,0,0,0,-1,657,659,-8.25827,-1.72637
-560,365,-7.17767,0.275757,0,0,0,0,0,0,0,-1,664,659,-7.17768,-0.27577
-553,365,-10.0349,-0.169617,0,0,0,0,0,0,0,-1,671,659,-10.0349,0.169593
-546,365,-10.3684,-1.44214,0,0,0,0,0,0,0,-1,678,659,-10.3684,1.44216
-539,365,-8.38599,1.52936,0,0,0,0,0,0,0,-1,685,659,-8.38598,-1.52935
-532,365,-8.52863,0.166504,0,0,0,0,0,0,0,-1,692,659,-8.52863,-0.166501
-525,365,-9.28229,-2.62726,0,0,0,0,0,0,0,-1,699,659,-9.28227,2.62724
-518,365,-9.76794,-3.21564,0,0,0,0,0,0,0,-1,706,659,-9.76795,3.21563
-511,365,-9.76074,-3.7207,0.000658874,0.00615194,-0.00367859,0.00799621,-0.0011854,-1.10607,0.00576669,0.0283556,713,659,-9.76074,3.72072
-504,365,-9.74664,-4.15881,0.000380247,0.00420367,-0.00226279,0.0052542,-0.000670281,-1.13615,0.00374627,0.0122038,720,659,-9.74664,4.15879
-497,365,-9.76331,-4.63147,0.000433379,0.00286309,-0.00145378,0.00354279,-0.000246321,-1.13345,0.0024481,0.0134631,727,659,-9.76329,4.63145
-490,365,-9.78284,-5.08142,0.00052175,0.00173169,-0.000833851,0.00215691,9.65273e-05,-1.09922,0.00140687,0.014505,734,659,-9.78282,5.08141
-483,365,-9.79077,-5.50037,0.0010092,0.00120608,-0.00083153,0.00194498,0.000270302,-0.844319,0.0012166,0.0123008,741,659,-9.79076,5.50037
-476,365,-9.77039,-5.90869,0.00175375,0.00118425,-0.00125774,0.00275857,0.000179434,-0.674077,0.00178225,0.0142877,748,659,-9.77039,5.90872
-469,365,-9.7998,-6.33472,0.00252077,0.00130625,-0.00175524,0.00377083,5.61919e-05,-0.618859,0.00249537,0.0144816,755,659,-9.79981,6.33471
-462,365,-9.8186,-6.77527,0.00323987,0.00153392,-0.00228692,0.00482771,-5.39185e-05,-0.606899,0.0032366,0.0142203,762,659,-9.81861,6.77526
-455,365,-9.82422,-7.2157,0.00367923,0.00167591,-0.00252535,0.00539432,-3.91819e-05,-0.596594,0.00360934,0.0158944,769,659,-9.82421,7.2157
-448,365,-9.7608,-7.74615,0.0041503,0.0021984,-0.00295277,0.00628423,6.44731e-05,-0.62579,0.00416816,0.0298224,776,659,-9.7608,7.74614
-441,365,-9.55981,-8.34515,0,0,0,0,0,0,0,-1,783,659,-9.55981,8.34513
-434,365,-5.45056,-3.98041,0,0,0,0,0,0,0,-1,790,659,-5.45055,3.98042
-427,365,-5.05377,-4.74689,0,0,0,0,0,0,0,-1,797,659,-5.05376,4.7469
-420,365,-4.58813,-3.16376,0,0,0,0,0,0,0,-1,804,659,-4.58816,3.16374
-413,365,0.141357,0.672729,0,0,0,0,0,0,0,-1,811,659,0.141365,-0.672714
-406,365,-1.75067,-0.934448,0,0,0,0,0,0,0,-1,818,659,-1.7507,0.934424
-399,365,-4.10242,-1.25439,0,0,0,0,0,0,0,-1,825,659,-4.10244,1.25438
-392,365,-7.46545,-0.779724,0,0,0,0,0,0,0,-1,832,659,-7.46543,0.779744
-385,365,-6.27875,-0.887573,0,0,0,0,0,0,0,-1,839,659,-6.27874,0.887545
-378,365,-5.34503,-0.263306,0,0,0,0,0,0,0,-1,846,659,-5.34504,0.263275
-371,365,0,0,0,0,0,0,0,0,0,-1,853,659,0,0
-364,365,0,0,0,0,0,0,0,0,0,-1,860,659,0,0
-357,365,0,0,0,0,0,0,0,0,0,-1,867,659,0,0
-350,365,0,0,0,0,0,0,0,0,0,-1,874,659,0,0
-343,365,0,0,0,0,0,0,0,0,0,-1,881,659,0,0
-336,365,0,0,0,0,0,0,0,0,0,-1,888,659,0,0
-329,365,0,0,0,0,0,0,0,0,0,-1,895,659,0,0
-322,365,0,0,0,0,0,0,0,0,0,-1,902,659,0,0
-315,365,0,0,0,0,0,0,0,0,0,-1,909,659,0,0
-308,365,0,0,0,0,0,0,0,0,0,-1,916,659,0,0
-301,365,0,0,0,0,0,0,0,0,0,-1,923,659,0,0
-294,365,0,0,0,0,0,0,0,0,0,-1,930,659,0,0
-287,365,0,0,0,0,0,0,0,0,0,-1,937,659,0,0
-280,365,0,0,0,0,0,0,0,0,0,-1,944,659,0,0
-273,365,0,0,0,0,0,0,0,0,0,-1,951,659,0,0
-266,365,0,0,0,0,0,0,0,0,0,-1,958,659,0,0
-259,365,0,0,0,0,0,0,0,0,0,-1,965,659,0,0
-252,365,0,0,0,0,0,0,0,0,0,-1,972,659,0,0
-245,365,0,0,0,0,0,0,0,0,0,-1,979,659,0,0
-238,365,0,0,0,0,0,0,0,0,0,-1,986,659,0,0
-231,365,0,0,0,0,0,0,0,0,0,-1,993,659,0,0
-224,365,0,0,0,0,0,0,0,0,0,-1,1000,659,0,0
-217,365,0,0,0,0,0,0,0,0,0,-1,1007,659,0,0
-210,365,0,0,0,0,0,0,0,0,0,-1,1014,659,0,0
-203,365,0,0,0,0,0,0,0,0,0,-1,1021,659,0,0
-196,365,0,0,0,0,0,0,0,0,0,-1,1028,659,0,0
-189,365,0,0,0,0,0,0,0,0,0,-1,1035,659,0,0
-182,365,0,0,0,0,0,0,0,0,0,-1,1042,659,0,0
-175,365,0,0,0,0,0,0,0,0,0,-1,1049,659,0,0
-168,365,0,0,0,0,0,0,0,0,0,-1,1056,659,0,0
-161,365,0,0,0,0,0,0,0,0,0,-1,1063,659,0,0
-154,365,0,0,0,0,0,0,0,0,0,-1,1070,659,0,0
-147,365,0,0,0,0,0,0,0,0,0,-1,1077,659,0,0
-140,365,0,0,0,0,0,0,0,0,0,-1,1084,659,0,0
-133,365,0,0,0,0,0,0,0,0,0,-1,1091,659,0,0
-126,365,0,0,0,0,0,0,0,0,0,-1,1098,659,0,0
-119,365,0,0,0,0,0,0,0,0,0,-1,1105,659,0,0
-112,365,0,0,0,0,0,0,0,0,0,-1,1112,659,0,0
-105,365,0,0,0,0,0,0,0,0,0,-1,1119,659,0,0
-98,365,0,0,0,0,0,0,0,0,0,-1,1126,659,0,0
-91,365,0,0,0,0,0,0,0,0,0,-1,1133,659,0,0
-84,365,0,0,0,0,0,0,0,0,0,-1,1140,659,0,0
-77,365,0,0,0,0,0,0,0,0,0,-1,1147,659,0,0
-70,365,0,0,0,0,0,0,0,0,0,-1,1154,659,0,0
-63,365,0,0,0,0,0,0,0,0,0,-1,1161,659,0,0
-56,365,0,0,0,0,0,0,0,0,0,-1,1168,659,0,0
-49,365,0,0,0,0,0,0,0,0,0,-1,1175,659,0,0
-42,365,0,0,0,0,0,0,0,0,0,-1,1182,659,0,0
-35,365,0,0,0,0,0,0,0,0,0,-1,1189,659,0,0
-28,365,0,0,0,0,0,0,0,0,0,-1,1196,659,0,0
-21,365,0,0,0,0,0,0,0,0,0,-1,1203,659,0,0
-14,365,0,0,0,0,0,0,0,0,0,-1,1210,659,0,0
-7,365,0,0,0,0,0,0,0,0,0,-1,1217,659,0,0
0,365,0,0,0,0,0,0,0,0,0,-1,1224,659,0,0
7,365,0,0,0,0,0,0,0,0,0,-1,1231,659,0,0
14,365,0,0,0,0,0,0,0,0,0,-1,1238,659,0,0
21,365,0,0,0,0,0,0,0,0,0,-1,1245,659,0,0
28,365,0,0,0,0,0,0,0,0,0,-1,1252,659,0,0
35,365,0,0,0,0,0,0,0,0,0,-1,1259,659,0,0
42,365,0,0,0,0,0,0,0,0,0,-1,1266,659,0,0
49,365,0,0,0,0,0,0,0,0,0,-1,1273,659,0,0
56,365,0,0,0,0,0,0,0,0,0,-1,1280,659,0,0
63,365,0,0,0,0,0,0,0,0,0,-1,1287,659,0,0
70,365,0,0,0,0,0,0,0,0,0,-1,1294,659,0,0
77,365,0,0,0,0,0,0,0,0,0,-1,1301,659,0,0
84,365,0,0,0,0,0,0,0,0,0,-1,1308,659,0,0
91,365,0,0,0,0,0,0,0,0,0,-1,1315,659,0,0
98,365,0,0,0,0,0,0,0,0,0,-1,1322,659,0,0
105,365,0,0,0,0,0,0,0,0,0,-1,1329,659,0,0
112,365,0,0,0,0,0,0,0,0,0,-1,1336,659,0,0
119,365,0,0,0,0,0,0,0,0,0,-1,1343,659,0,0
126,365,0,0,0,0,0,0,0,0,0,-1,1350,659,0,0
133,365,0,0,0,0,0,0,0,0,0,-1,1357,659,0,0
140,365,0,0,0,0,0,0,0,0,0,-1,1364,659,0,0
147,365,0,0,0,0,0,0,0,0,0,-1,1371,659,0,0
154,365,0,0,0,0,0,0,0,0,0,-1,1378,659,0,0
161,365,0,0,0,0,0,0,0,0,0,-1,1385,659,0,0
168,365,0,0,0,0,0,0,0,0,0,-1,1392,659,0,0
175,365,0,0,0,0,0,0,0,0,0,-1,1399,659,0,0
182,365,0,0,0,0,0,0,0,0,0,-1,1406,659,0,0
189,365,0,0,0,0,0,0,0,0,0,-1,1413,659,0,0
196,365,0,0,0,0,0,0,0,0,0,-1,1420,659,0,0
203,365,0,0,0,0,0,0,0,0,0,-1,1427,659,0,0
210,365,0,0,0,0,0,0,0,0,0,-1,1434,659,0,0
217,365,0,0,0,0,0,0,0,0,0,-1,1441,659,0,0
224,365,0,0,0,0,0,0,0,0,0,-1,1448,659,0,0
231,365,0,0,0,0,0,0,0,0,0,-1,1455,659,0,0
238,365,0,0,0,0,0,0,0,0,0,-1,1462,659,0,0
245,365,0,0,0,0,0,0,0,0,0,-1,1469,659,0,0
252,365,0,0,0,0,0,0,0,0,0,-1,1476,659,0,0
259,365,0,0,0,0,0,0,0,0,0,-1,1483,659,0,0
266,365,0,0,0,0,0,0,0,0,0,-1,1490,659,0,0
273,365,0,0,0,0,0,0,0,0,0,-1,1497,659,0,0
280,365,0,0,0,0,0,0,0,0,0,-1,1504,659,0,0
287,365,0,0,0,0,0,0,0,0,0,-1,1511,659,0,0
294,365,0,0,0,0,0,0,0,0,0,-1,1518,659,0,0
301,365,0,0,0,0,0,0,0,0,0,-1,1525,659,0,0
308,365,0,0,0,0,0,0,0,0,0,-1,1532,659,0,0
315,365,0,0,0,0,0,0,0,0,0,-1,1539,659,0,0
322,365,0,0,0,0,0,0,0,0,0,-1,1546,659,0,0
329,365,0,0,0,0,0,0,0,0,0,-1,1553,659,0,0
336,365,0,0,0,0,0,0,0,0,0,-1,1560,659,0,0
343,365,0,0,0,0,0,0,0,0,0,-1,1567,659,0,0
350,365,0,0,0,0,0,0,0,0,0,-1,1574,659,0,0
357,365,0,0,0,0,0,0,0,0,0,-1,1581,659,0,0
364,365,0,0,0,0,0,0,0,0,0,-1,1588,659,0,0
371,365,0,0,0,0,0,0,0,0,0,-1,1595,659,0,0
378,365,0,0,0,0,0,0,0,0,0,-1,1602,659,0,0
385,365,0,0,0,0,0,0,0,0,0,-1,1609,659,0,0
392,365,0,0,0,0,0,0,0,0,0,-1,1616,659,0,0
399,365,0,0,0,0,0,0,0,0,0,-1,1623,659,0,0
406,365,0,0,0,0,0,0,0,0,0,-1,1630,659,0,0
413,365,0,0,0,0,0,0,0,0,0,-1,1637,659,0,0
420,365,0,0,0,0,0,0,0,0,0,-1,1644,659,0,0
427,365,0,0,0,0,0,0,0,0,0,-1,1651,659,0,0
434,365,0,0,0,0,0,0,0,0,0,-1,1658,659,0,0
441,365,0,0,0,0,0,0,0,0,0,-1,1665,659,0,0
448,365,0,0,0,0,0,0,0,0,0,-1,1672,659,0,0
455,365,0,0,0,0,0,0,0,0,0,-1,1679,659,0,0
462,365,0,0,0,0,0,0,0,0,0,-1,1686,659,0,0
469,365,0,0,0,0,0,0,0,0,0,-1,1693,659,0,0
476,365,0,0,0,0,0,0,0,0,0,-1,1700,659,0,0
483,365,0,0,0,0,0,0,0,0,0,-1,1707,659,0,0
490,365,8.39551,0.471252,0,0,0,0,0,0,0,-1,1714,659,8.39551,-0.471241
497,365,9.89233,1.35394,0,0,0,0,0,0,0,-1,1721,659,9.89237,-1.35396
504,365,10.1414,1.18005,0,0,0,0,0,0,0,-1,1728,659,10.1413,-1.18004
511,365,10.5151,0.993896,0,0,0,0,0,0,0,-1,1735,659,10.5152,-0.993894
518,365,11.2029,0.398132,0,0,0,0,0,0,0,-1,1742,659,11.2029,-0.398136
525,365,15.5748,3.85303,0,0,0,0,0,0,0,-1,1749,659,15.5748,-3.85303
532,365,11.2446,1.00629,0,0,0,0,0,0,0,-1,1756,659,11.2446,-1.00631
539,365,12.6301,1.03204,0,0,0,0,0,0,0,-1,1763,659,12.6302,-1.03204
546,365,11.647,0.84198,0,0,0,0,0,0,0,-1,1770,659,11.6469,-0.841955
553,365,12.028,-0.558899,0,0,0,0,0,0,0,-1,1777,659,12.028,0.558873
560,365,14.5372,-4.55548,0,0,0,0,0,0,0,-1,1784,659,14.5373,4.55547
567,365,18.4344,-6.53625,0,0,0,0,0,0,0,-1,1791,659,18.4344,6.53626
574,365,18.3621,-5.92566,0,0,0,0,0,0,0,-1,1798,659,18.3621,5.92564
581,365,18.1476,-5.69,0.00103684,0.00147665,0.000660853,0.00195322,0.000560263,0.946017,0.00116135,0.0486569,1805,659,18.1476,5.68998
588,365,18.1351,-5.17084,0.00127698,0.00135105,0.000799398,0.00211427,0.000513758,0.808546,0.00127329,0.0172609,1812,659,18.1351,5.17081
595,365,18.1489,-4.62054,0.00134213,0.00128827,0.000839292,0.00215492,0.000475474,0.769359,0.00130727,0.0133553,1819,659,18.149,4.62057
602,365,18.1196,-4.14337,0.00156754,0.00137628,0.00100562,0.00248207,0.000461749,0.737992,0.00152429,0.0147249,1826,659,18.1197,4.14339
609,365,18.0697,-3.68689,0.00164449,0.00160136,0.00116735,0.00279047,0.000455377,0.776163,0.00172863,0.0153957,1833,659,18.0697,3.6869
616,365,18.1082,-3.21838,0.00149723,0.00181092,0.00123081,0.00289484,0.000413307,0.848771,0.00180794,0.0167478,1840,659,18.1081,3.21836
623,365,18.1493,-2.76093,0.00122439,0.00196981,0.00125731,0.00290849,0.000285711,0.929489,0.00185112,0.0108506,1847,659,18.1493,2.76093
630,365,18.0939,-2.30115,0.000629879,0.00208026,0.00116583,0.00272805,-1.79075e-05,1.06363,0.0018247,0.0160338,1854,659,18.0939,2.30113
637,365,18.0441,-1.86853,-0.000292847,0.00205407,0.000929179,0.0023774,-0.000616178,1.23593,0.00182533,0.0229318,1861,659,18.0441,1.86852
644,365,18.0712,-1.40521,-0.00159252,0.00192312,0.000571887,0.00201381,-0.00168321,1.41353,0.00213732,0.0183738,1868,659,18.0712,1.4052
651,365,18.3148,-0.826233,-0.00351682,0.00153654,-7.20382e-05,0.00153757,-0.00351784,-1.55654,0.00299246,0.0436611,1875,659,18.3148,0.826225
658,365,18.4119,-0.171692,0,0,0,0,0,0,0,-1,1882,659,18.4119,0.171676
665,365,14.0961,0.769043,0,0,0,0,0,0,0,-1,1889,659,14.0961,-0.769063
672,365,10.0579,2.15088,0,0,0,0,0,0,0,-1,1896,659,10.0579,-2.15088
679,365,10.9718,2.19208,0,0,0,0,0,0,0,-1,1903,659,10.9718,-2.19211
686,365,12.2134,2.17108,0,0,0,0,0,0,0,-1,1910,659,12.2134,-2.17109
693,365,13.7141,1.98279,0,0,0,0,0,0,0,-1,1917,659,13.7141,-1.98278
700,365,0,0,0,0,0,0,0,0,0,-1,1924,659,0,0
707,365,0,0,0,0,0,0,0,0,0,-1,1931,659,0,0
714,365,0,0,0,0,0,0,0,0,0,-1,1938,659,0,0
721,365,0,0,0,0,0,0,0,0,0,-1,1945,659,0,0
728,365,0,0,0,0,0,0,0,0,0,-1,1952,659,0,0
735,365,0,0,0,0,0,0,0,0,0,-1,1959,659,0,0
742,365,0,0,0,0,0,0,0,0,0,-1,1966,659,0,0
749,365,0,0,0,0,0,0,0,0,0,-1,1973,659,0,0
756,365,0,0,0,0,0,0,0,0,0,-1,1980,659,0,0
763,365,0,0,0,0,0,0,0,0,0,-1,1987,659,0,0
770,365,0,0,0,0,0,0,0,0,0,-1,1994,659,0,0
777,365,0,0,0,0,0,0,0,0,0,-1,2001,659,0,0
784,365,0,0,0,0,0,0,0,0,0,-1,2008,659,0,0
791,365,0,0,0,0,0,0,0,0,0,-1,2015,659,0,0
798,365,0,0,0,0,0,0,0,0,0,-1,2022,659,0,0
805,365,0,0,0,0,0,0,0,0,0,-1,2029,659,0,0
812,365,0,0,0,0,0,0,0,0,0,-1,2036,659,0,0
-700,358,0,0,0,0,0,0,0,0,0,-1,524,666,0,0
-693,358,0,0,0,0,0,0,0,0,0,-1,531,666,0,0
-686,358,0,0,0,0,0,0,0,0,0,-1,538,666,0,0
-679,358,0,0,0,0,0,0,0,0,0,-1,545,666,0,0
-672,358,0,0,0,0,0,0,0,0,0,-1,552,666,0,0
-665,358,0,0,0,0,0,0,0,0,0,-1,559,666,0,0
-658,358,0,0,0,0,0,0,0,0,0,-1,566,666,0,0
-651,358,0,0,0,0,0,0,0,0,0,-1,573,666,0,0
-644,358,0,0,0,0,0,0,0,0,0,-1,580,666,0,0
-637,358,0,0,0,0,0,0,0,0,0,-1,587,666,0,0
-630,358,0,0,0,0,0,0,0,0,0,-1,594,666,0,0
-623,358,0,0,0,0,0,0,0,0,0,-1,601,666,0,0
-616,358,0,0,0,0,0,0,0,0,0,-1,608,666,0,0
-609,358,0,0,0,0,0,0,0,0,0,-1,615,666,0,0
-602,358,0,0,0,0,0,0,0,0,0,-1,622,666,0,0
-595,358,0,0,0,0,0,0,0,0,0,-1,629,666,0,0
-588,358,0,0,0,0,0,0,0,0,0,-1,636,666,0,0
-581,358,-8.31616,1.61993,0,0,0,0,0,0,0,-1,643,666,-8.31614,-1.61993
-574,358,-8.22406,1.75385,0,0,0,0,0,0,0,-1,650,666,-8.22408,-1.75383
-567,358,-8.14215,1.91577,0,0,0,0,0,0,0,-1,657,666,-8.14214,-1.91579
-560,358,-10.6086,2.18872,0,0,0,0,0,0,0,-1,664,666,-10.6086,-2.18873
-553,358,-11.4076,1.29242,0,0,0,0,0,0,0,-1,671,666,-11.4076,-1.2924
-546,358,-10.481,-1.03735,0,0,0,0,0,0,0,-1,678,666,-10.481,1.03733
-539,358,-9.43884,-2.04785,0,0,0,0,0,0,0,-1,685,666,-9.43884,2.04785
-532,358,-10.0586,-1.66266,0,0,0,0,0,0,0,-1,692,666,-10.0586,1.66266
-525,358,-10.1435,-2.89764,0,0,0,0,0,0,0,-1,699,666,-10.1435,2.89766
-518,358,-10.183,-3.2749,0,0,0,0,0,0,0,-1,706,666,-10.183,3.27489
-511,358,-10.181,-3.71875,0.0010015,0.00537449,-0.00330976,0.00715477,-0.000778776,-1.0773,0.0050495,0.0151119,713,666,-10.181,3.71873
-504,358,-10.1891,-4.15277,0.000757886,0.00360973,-0.00202089,0.00465712,-0.0002895,-1.09263,0.00320561,0.0109893,720,666,-10.1891,4.15278
-497,358,-10.2015,-4.61694,0.000848147,0.00243014,-0.00131356,0.00317248,0.000105806,-1.05641,0.00208061,0.0113688,727,666,-10.2016,4.61693
-490,358,-10.2111,-5.05402,0.000964381,0.00143578,-0.000793325,0.00202768,0.000372483,-0.929797,0.00124632,0.0106172,734,666,-10.2111,5.05402
-483,358,-10.2186,-5.45618,0.00146238,0.00107348,-0.00088128,0.00217041,0.000365452,-0.676814,0.00134181,0.00954613,741,666,-10.2186,5.45619
-476,358,-10.1986,-5.86279,0.00221274,0.00119378,-0.00139612,0.00318944,0.00021708,-0.610443,0.00205775,0.0118705,748,666,-10.1986,5.86282
-469,358,-10.2285,-6.30634,0.00300624,0.00143586,-0.00199904,0.00436876,7.33375e-05,-0.598262,0.00288837,0.0155248,755,666,-10.2284,6.30636
-462,358,-10.2422,-6.77515,0.00381041,0.00184475,-0.00268374,0.00568562,-3.0468e-05,-0.609874,0.00380061,0.0181492,762,666,-10.2422,6.77515
-455,358,-10.1883,-7.26422,0.004406,0.00220805,-0.00312195,0.00661675,-2.7006e-06,-0.616164,0.00441207,0.0333034,769,666,-10.1883,7.26425
-448,358,-10.0601,-7.82855,0,0,0,0,0,0,0,-1,776,666,-10.0601,7.82857
-441,358,-5.56293,-3.98041,0,0,0,0,0,0,0,-1,783,666,-5.56291,3.98043
-434,358,-5.21558,-4.43127,0,0,0,0,0,0,0,-1,790,666,-5.21559,4.43125
-427,358,-3.56189,-3.15729,0,0,0,0,0,0,0,-1,797,666,-3.56192,3.15729
-420,358,0.200195,1.08234,0,0,0,0,0,0,0,-1,804,666,0.200174,-1.08231
-413,358,0.0325317,0.161072,0,0,0,0,0,0,0,-1,811,666,0.0325501,-0.161098
-406,358,-3.85846,0.753113,0,0,0,0,0,0,0,-1,818,666,-3.85846,-0.753129
-399,358,-1.31213,0.190735,0,0,0,0,0,0,0,-1,825,666,-1.31215,-0.190763
-392,358,-3.73914,-0.832214,0,0,0,0,0,0,0,-1,832,666,-3.73915,0.832202
-385,358,-5.95178,-1.69141,0,0,0,0,0,0,0,-1,839,666,-5.9518,1.69143
-378,358,0,0,0,0,0,0,0,0,0,-1,846,666,0,0
-371,358,0,0,0,0,0,0,0,0,0,-1,853,666,0,0
-364,358,0,0,0,0,0,0,0,0,0,-1,860,666,0,0
-357,358,0,0,0,0,0,0,0,0,0,-1,867,666,0,0
-350,358,0,0,0,0,0,0,0,0,0,-1,874,666,0,0
-343,358,0,0,0,0,0,0,0,0,0,-1,881,666,0,0
-336,358,0,0,0,0,0,0,0,0,0,-1,888,666,0,0
-329,358,0,0,0,0,0,0,0,0,0,-1,895,666,0,0
-322,358,0,0,0,0,0,0,0,0,0,-1,902,666,0,0
-315,358,0,0,0,0,0,0,0,0,0,-1,909,666,0,0
-308,358,0,0,0,0,0,0,0,0,0,-1,916,666,0,0
-301,358,0,0,0,0,0,0,0,0,0,-1,923,666,0,0
-294,358,0,0,0,0,0,0,0,0,0,-1,930,666,0,0
-287,358,0,0,0,0,0,0,0,0,0,-1,937,666,0,0
-280,358,0,0,0,0,0,0,0,0,0,-1,944,666,0,0
-273,358,0,0,0,0,0,0,0,0,0,-1,951,666,0,0
-266,358,0,0,0,0,0,0,0,0,0,-1,958,666,0,0
-259,358,0,0,0,0,0,0,0,0,0,-1,965,666,0,0
-252,358,0,0,0,0,0,0,0,0,0,-1,972,666,0,0
-245,358,0,0,0,0,0,0,0,0,0,-1,979,666,0,0
-238,358,0,0,0,0,0,0,0,0,0,-1,986,666,0,0
-231,358,0,0,0,0,0,0,0,0,0,-1,993,666,0,0
-224,358,0,0,0,0,0,0,0,0,0,-1,1000,666,0,0
-217,358,0,0,0,0,0,0,0,0,0,-1,1007,666,0,0
-210,358,0,0,0,0,0,0,0,0,0,-1,1014,666,0,0
-203,358,0,0,0,0,0,0,0,0,0,-1,1021,666,0,0
-196,358,0,0,0,0,0,0,0,0,0,-1,1028,666,0,0
-189,358,0,0,0,0,0,0,0,0,0,-1,1035,666,0,0
-182,358,0,0,0,0,0,0,0,0,0,-1,1042,666,0,0
-175,358,0,0,0,0,0,0,0,0,0,-1,1049,666,0,0
-168,358,0,0,0,0,0,0,0,0,0,-1,1056,666,0,0
-161,358,0,0,0,0,0,0,0,0,0,-1,1063,666,0,0
-154,358,0,0,0,0,0,0,0,0,0,-1,1070,666,0,0
-147,358,0,0,0,0,0,0,0,0,0,-1,1077,666,0,0
-140,358,0,0,0,0,0,0,0,0,0,-1,1084,666,0,0
-133,358,0,0,0,0,0,0,0,0,0,-1,1091,666,0,0
-126,358,0,0,0,0,0,0,0,0,0,-1,1098,666,0,0
-119,358,0,0,0,0,0,0,0,0,0,-1,1105,666,0,0
-112,358,0,0,0,0,0,0,0,0,0,-1,1112,666,0,0
-105,358,0,0,0,0,0,0,0,0,0,-1,1119,666,0,0
-98,358,0,0,0,0,0,0,0,0,0,-1,1126,666,0,0
-91,358,0,0,0,0,0,0,0,0,0,-1,1133,666,0,0
-84,358,0,0,0,0,0,0,0,0,0,-1,1140,666,0,0
-77,358,0,0,0,0,0,0,0,0,0,-1,1147,666,0,0
-70,358,0,0,0,0,0,0,0,0,0,-1,1154,666,0,0
-63,358,0,0,0,0,0,0,0,0,0,-1,1161,666,0,0
-56,358,0,0,0,0,0,0,0,0,0,-1,1168,666,0,0
-49,358,0,0,0,0,0,0,0,0,0,-1,1175,666,0,0
-42,358,0,0,0,0,0,0,0,0,0,-1,1182,666,0,0
-35,358,0,0,0,0,0,0,0,0,0,-1,1189,666,0,0
-28,358,0,0,0,0,0,0,0,0,0,-1,1196,666,0,0
-21,358,0,0,0,0,0,0,0,0,0,-1,1203,666,0,0
-14,358,0,0,0,0,0,0,0,0,0,-1,1210,666,0,0
-7,358,0,0,0,0,0,0,0,0,0,-1,1217,666,0,0
0,358,0,0,0,0,0,0,0,0,0,-1,1224,666,0,0
7,358,0,0,0,0,0,0,0,0,0,-1,1231,666,0,0
14,358,0,0,0,0,0,0,0,0,0,-1,1238,666,0,0
21,358,0,0,0,0,0,0,0,0,0,-1,1245,666,0,0
28,358,0,0,0,0,0,0,0,0,0,-1,1252,666,0,0
35,358,0,0,0,0,0,0,0,0,0,-1,1259,666,0,0
42,358,0,0,0,0,0,0,0,0,0,-1,1266,666,0,0
49,358,0,0,0,0,0,0,0,0,0,-1,1273,666,0,0
56,358,0,0,0,0,0,0,0,0,0,-1,1280,666,0,0
63,358,0,0,0,0,0,0,0,0,0,-1,1287,666,0,0
70,358,0,0,0,0,0,0,0,0,0,-1,1294,666,0,0
77,358,0,0,0,0,0,0,0,0,0,-1,1301,666,0,0
84,358,0,0,0,0,0,0,0,0,0,-1,1308,666,0,0
91,358,0,0,0,0,0,0,0,0,0,-1,1315,666,0,0
98,358,0,0,0,0,0,0,0,0,0,-1,1322,666,0,0
105,358,0,0,0,0,0,0,0,0,0,-1,1329,666,0,0
112,358,0,0,0,0,0,0,0,0,0,-1,1336,666,0,0
119,358,0,0,0,0,0,0,0,0,0,-1,1343,666,0,0
126,358,0,0,0,0,0,0,0,0,0,-1,1350,666,0,0
133,358,0,0,0,0,0,0,0,0,0,-1,1357,666,0,0
140,358,0,0,0,0,0,0,0,0,0,-1,1364,666,0,0
147,358,0,0,0,0,0,0,0,0,0,-1,1371,666,0,0
154,358,0,0,0,0,0,0,0,0,0,-1,1378,666,0,0
161,358,0,0,0,0,0,0,0,0,0,-1,1385,666,0,0
168,358,0,0,0,0,0,0,0,0,0,-1,1392,666,0,0
175,358,0,0,0,0,0,0,0,0,0,-1,1399,666,0,0
182,358,0,0,0,0,0,0,0,0,0,-1,1406,666,0,0
189,358,0,0,0,0,0,0,0,0,0,-1,1413,666,0,0
196,358,0,0,0,0,0,0,0,0,0,-1,1420,666,0,0
203,358,0,0,0,0,0,0,0,0,0,-1,1427,666,0,0
210,358,0,0,0,0,0,0,0,0,0,-1,1434,666,0,0
217,358,0,0,0,0,0,0,0,0,0,-1,1441,666,0,0
224,358,0,0,0,0,0,0,0,0,0,-1,1448,666,0,0
231,358,0,0,0,0,0,0,0,0,0,-1,1455,666,0,0
238,358,0,0,0,0,0,0,0,0,0,-1,1462,666,0,0
245,358,0,0,0,0,0,0,0,0,0,-1,1469,666,0,0
252,358,0,0,0,0,0,0,0,0,0,-1,1476,666,0,0
259,358,0,0,0,0,0,0,0,0,0,-1,1483,666,0,0
266,358,0,0,0,0,0,0,0,0,0,-1,1490,666,0,0
273,358,0,0,0,0,0,0,0,0,0,-1,1497,666,0,0
280,358,0,0,0,0,0,0,0,0,0,-1,1504,666,0,0
287,358,0,0,0,0,0,0,0,0,0,-1,1511,666,0,0
294,358,0,0,0,0,0,0,0,0,0,-1,1518,666,0,0
301,358,0,0,0,0,0,0,0,0,0,-1,1525,666,0,0
308,358,0,0,0,0,0,0,0,0,0,-1,1532,666,0,0
315,358,0,0,0,0,0,0,0,0,0,-1,1539,666,0,0
322,358,0,0,0,0,0,0,0,0,0,-1,1546,666,0,0
329,358,0,0,0,0,0,0,0,0,0,-1,1553,666,0,0
336,358,0,0,0,0,0,0,0,0,0,-1,1560,666,0,0
343,358,0,0,0,0,0,0,0,0,0,-1,1567,666,0,0
350,358,0,0,0,0,0,0,0,0,0,-1,1574,666,0,0
357,358,0,0,0,0,0,0,0,0,0,-1,1581,666,0,0
364,358,0,0,0,0,0,0,0,0,0,-1,1588,666,0,0
371,358,0,0,0,0,0,0,0,0,0,-1,1595,666,0,0
378,358,0,0,0,0,0,0,0,0,0,-1,1602,666,0,0
385,358,0,0,0,0,0,0,0,0,0,-1,1609,666,0,0
392,358,0,0,0,0,0,0,0,0,0,-1,1616,666,0,0
399,358,0,0,0,0,0,0,0,0,0,-1,1623,666,0,0
406,358,0,0,0,0,0,0,0,0,0,-1,1630,666,0,0
413,358,0,0,0,0,0,0,0,0,0,-1,1637,666,0,0
420,358,0,0,0,0,0,0,0,0,0,-1,1644,666,0,0
427,358,0,0,0,0,0,0,0,0,0,-1,1651,666,0,0
434,358,0,0,0,0,0,0,0,0,0,-1,1658,666,0,0
441,358,0,0,0,0,0,0,0,0,0,-1,1665,666,0,0
448,358,0,0,0,0,0,0,0,0,0,-1,1672,666,0,0
455,358,0,0,0,0,0,0,0,0,0,-1,1679,666,0,0
462,358,0,0,0,0,0,0,0,0,0,-1,1686,666,0,0
469,358,0,0,0,0,0,0,0,0,0,-1,1693,666,0,0
476,358,0,0,0,0,0,0,0,0,0,-1,1700,666,0,0
483,358,0,0,0,0,0,0,0,0,0,-1,1707,666,0,0
490,358,0,0,0,0,0,0,0,0,0,-1,1714,666,0,0
497,358,8.57239,1.1322,0,0,0,0,0,0,0,-1,1721,666,8.57234,-1.13219
504,358,10.5972,0.832947,0,0,0,0,0,0,0,-1,1728,666,10.5972,-0.832968
511,358,10.6873,0.868469,0,0,0,0,0,0,0,-1,1735,666,10.6872,-0.868484
518,358,16.5884,2.34894,0,0,0,0,0,0,0,-1,1742,666,16.5884,-2.34894
525,358,15.7626,3.65344,0,0,0,0,0,0,0,-1,1749,666,15.7626,-3.65342
532,358,14.9368,4.95789,0,0,0,0,0,0,0,-1,1756,666,14.9367,-4.9579
539,358,15.1597,3.42694,0,0,0,0,0,0,0,-1,1763,666,15.1597,-3.42692
546,358,12.3792,1.53558,0,0,0,0,0,0,0,-1,1770,666,12.3792,-1.5356
553,358,11.6584,1.26172,0,0,0,0,0,0,0,-1,1777,666,11.6585,-1.26175
560,358,10.8234,1.43042,0,0,0,0,0,0,0,-1,1784,666,10.8233,-1.43041
567,358,10.1333,-0.955139,0,0,0,0,0,0,0,-1,1791,666,10.1333,0.955132
574,358,14.7886,-2.69293,0,0,0,0,0,0,0,-1,1798,666,14.7885,2.6929
581,358,18.3749,-5.73871,0,0,0,0,0,0,0,-1,1805,666,18.3749,5.73871
588,358,18.4797,-5.20917,0.00169124,0.00146626,0.00106085,0.00264555,0.000511948,0.732576,0.00162024,0.0392333,1812,666,18.4798,5.20917
595,358,18.6083,-4.58844,0.001599,0.00126838,0.000992912,0.00244027,0.000427108,0.70291,0.00150482,0.0131847,1819,666,18.6083,4.58841
602,358,18.5648,-4.10925,0.00169124,0.00121569,0.00100311,0.00248437,0.000422558,0.669028,0.00153491,0.0125619,1826,666,18.5648,4.10926
609,358,18.5018,-3.6922,0.00177387,0.00133614,0.0011007,0.00267725,0.000432752,0.687258,0.0016595,0.0166743,1833,666,18.5018,3.69217
616,358,18.5393,-3.21082,0.00158166,0.00146711,0.00110677,0.00263264,0.000416131,0.759547,0.00163414,0.0160397,1840,666,18.5393,3.21084
623,358,18.5947,-2.7514,0.00118858,0.0015023,0.00101263,0.00237015,0.000320726,0.86224,0.00148478,0.0138168,1847,666,18.5947,2.75142
630,358,18.5353,-2.32159,0.000474419,0.00149711,0.000813946,0.001947,2.45232e-05,1.06586,0.00128991,0.0178032,1854,666,18.5353,2.32158
637,358,18.4716,-1.8714,-0.000584993,0.00130925,0.000466686,0.00141799,-0.000693729,1.34188,0.00124287,0.0259659,1861,666,18.4715,1.87137
644,358,18.4996,-1.42108,-0.0020872,0.00113096,-1.88311e-05,0.00113107,-0.00208731,-1.56495,0.00188527,0.0209112,1868,666,18.4997,1.42109
651,358,18.6344,-0.867432,-0.00408812,0.000720235,-0.000728827,0.000828279,-0.00419617,-1.42362,0.00311052,0.0275827,1875,666,18.6344,0.867404
658,358,18.2805,-0.489075,-0.00686671,-7.91939e-05,-0.00190841,0.000420585,-0.00736649,-1.31467,0.00505702,0.0479014,1882,666,18.2805,0.489056
665,358,17.6268,-0.171204,0,0,0,0,0,0,0,-1,1889,666,17.6268,0.171185
672,358,12.4299,1.47272,0,0,0,0,0,0,0,-1,1896,666,12.4299,-1.4727
679,358,12.1294,2.19702,0,0,0,0,0,0,0,-1,1903,666,12.1294,-2.19703
686,358,11.9557,2.2002,0,0,0,0,0,0,0,-1,1910,666,11.9557,-2.20021
693,358,13.188,2.52203,0,0,0,0,0,0,0,-1,1917,666,13.188,-2.52202
700,358,0,0,0,0,0,0,0,0,0,-1,1924,666,0,0
707,358,0,0,0,0,0,0,0,0,0,-1,1931,666,0,0
714,358,0,0,0,0,0,0,0,0,0,-1,1938,666,0,0
721,358,0,0,0,0,0,0,0,0,0,-1,1945,666,0,0
728,358,0,0,0,0,0,0,0,0,0,-1,1952,666,0,0
735,358,0,0,0,0,0,0,0,0,0,-1,1959,666,0,0
742,358,0,0,0,0,0,0,0,0,0,-1,1966,666,0,0
749,358,0,0,0,0,0,0,0,0,0,-1,1973,666,0,0
756,358,0,0,0,0,0,0,0,0,0,-1,1980,666,0,0
763,358,0,0,0,0,0,0,0,0,0,-1,1987,666,0,0
770,358,0,0,0,0,0,0,0,0,0,-1,1994,666,0,0
777,358,0,0,0,0,0,0,0,0,0,-1,2001,666,0,0
784,358,0,0,0,0,0,0,0,0,0,-1,2008,666,0,0
791,358,0,0,0,0,0,0,0,0,0,-1,2015,666,0,0
798,358,0,0,0,0,0,0,0,0,0,-1,2022,666,0,0
805,358,0,0,0,0,0,0,0,0,0,-1,2029,666,0,0
812,358,0,0,0,0,0,0,0,0,0,-1,2036,666,0,0
-700,351,0,0,0,0,0,0,0,0,0,-1,524,673,0,0
-693,351,0,0,0,0,0,0,0,0,0,-1,531,673,0,0
-686,351,0,0,0,0,0,0,0,0,0,-1,538,673,0,0
-679,351,0,0,0,0,0,0,0,0,0,-1,545,673,0,0
-672,351,0,0,0,0,0,0,0,0,0,-1,552,673,0,0
-665,351,0,0,0,0,0,0,0,0,0,-1,559,673,0,0
-658,351,0,0,0,0,0,0,0,0,0,-1,566,673,0,0
-651,351,0,0,0,0,0,0,0,0,0,-1,573,673,0,0
-644,351,0,0,0,0,0,0,0,0,0,-1,580,673,0,0
-637,351,0,0,0,0,0,0,0,0,0,-1,587,673,0,0
-630,351,0,0,0,0,0,0,0,0,0,-1,594,673,0,0
-623,351,0,0,0,0,0,0,0,0,0,-1,601,673,0,0
-616,351,0,0,0,0,0,0,0,0,0,-1,608,673,0,0
-609,351,0,0,0,0,0,0,0,0,0,-1,615,673,0,0
-602,351,0,0,0,0,0,0,0,0,0,-1,622,673,0,0
-595,351,0,0,0,0,0,0,0,0,0,-1,629,673,0,0
-588,351,0,0,0,0,0,0,0,0,0,-1,636,673,0,0
-581,351,-9.0647,1.71906,0,0,0,0,0,0,0,-1,643,673,-9.06472,-1.71908
-574,351,-8.23584,2.64764,0,0,0,0,0,0,0,-1,650,673,-8.23584,-2.64764
-567,351,-10.8027,4.56836,0,0,0,0,0,0,0,-1,657,673,-10.8027,-4.56839
-560,351,-12.4202,2.23651,0,0,0,0,0,0,0,-1,664,673,-12.4202,-2.23653
-553,351,-11.7076,0.283325,0,0,0,0,0,0,0,-1,671,673,-11.7077,-0.283333
-546,351,-10.8625,-0.803223,0,0,0,0,0,0,0,-1,678,673,-10.8625,0.803197
-539,351,-10.8323,-1.15851,0,0,0,0,0,0,0,-1,685,673,-10.8323,1.15853
-532,351,-10.4308,-2.30621,0,0,0,0,0,0,0,-1,692,673,-10.4308,2.30621
-525,351,-10.5479,-2.9043,0.00267227,0.00999775,-0.00742572,0.0146149,-0.0019449,-1.01451,0.0104521,0.0378588,699,673,-10.5479,2.90428
-518,351,-10.6358,-3.21497,0.00174311,0.0069143,-0.00479714,0.00977828,-0.00112086,-1.03257,0.00692279,0.0162895,706,673,-10.6358,3.21499
-511,351,-10.6161,-3.69574,0.00120156,0.00464397,-0.00295924,0.00634617,-0.000500635,-1.0488,0.00440714,0.0118915,713,673,-10.6162,3.69571
-504,351,-10.6314,-4.15424,0.00098785,0.00302331,-0.00177537,0.00405197,-4.08054e-05,-1.04566,0.00271502,0.0111271,720,673,-10.6314,4.15423
-497,351,-10.6498,-4.58185,0.00109882,0.00196867,-0.00113997,0.00275386,0.000313624,-0.967638,0.00174081,0.0106857,727,673,-10.6498,4.58185
-490,351,-10.6547,-4.99933,0.0012695,0.00111985,-0.000738872,0.00193732,0.000452022,-0.734936,0.00117034,0.00941793,734,673,-10.6547,4.99936
-483,351,-10.6522,-5.43311,0.00180687,0.000938731,-0.000935043,0.00240369,0.000341918,-0.568087,0.00150152,0.0113738,741,673,-10.6522,5.43313
-476,351,-10.6629,-5.85986,0.00256923,0.00119166,-0.00152019,0.0035494,0.000211491,-0.572686,0.00229902,0.0112429,748,673,-10.6629,5.85988
-469,351,-10.6528,-6.25854,0.00340827,0.00155073,-0.00222155,0.00488738,7.16196e-05,-0.587404,0.00323464,0.0132588,755,673,-10.6528,6.25855
-462,351,-10.6444,-6.75226,0.00435249,0.002189,-0.00309493,0.00654928,-7.78004e-06,-0.617274,0.00436878,0.024619,762,673,-10.6444,6.75227
-455,351,-10.4786,-7.36102,0,0,0,0,0,0,0,-1,769,673,-10.4787,7.36101
-448,351,-6.61456,-4.38654,0,0,0,0,0,0,0,-1,776,673,-6.61456,4.38654
-441,351,-4.31567,-2.3009,0,0,0,0,0,0,0,-1,783,673,-4.31565,2.30089
-434,351,-3.81708,-2.28003,0,0,0,0,0,0,0,-1,790,673,-3.81706,2.28006
-427,351,-2.05157,-2.7785,0,0,0,0,0,0,0,-1,797,673,-2.05157,2.77848
-420,351,-1.06989,-2.43665,0,0,0,0,0,0,0,-1,804,673,-1.06991,2.43663
-413,351,-0.392334,-2.06671,0,0,0,0,0,0,0,-1,811,673,-0.392363,2.06672
-406,351,-1.86316,-2.58105,0,0,0,0,0,0,0,-1,818,673,-1.86313,2.58106
-399,351,1.00952,-1.53455,0,0,0,0,0,0,0,-1,825,673,1.00954,1.53457
-392,351,-1.02197,0.877136,0,0,0,0,0,0,0,-1,832,673,-1.02195,-0.877143
-385,351,-1.47205,1.04437,0,0,0,0,0,0,0,-1,839,673,-1.47207,-1.04435
-378,351,0,0,0,0,0,0,0,0,0,-1,846,673,0,0
-371,351,0,0,0,0,0,0,0,0,0,-1,853,673,0,0
-364,351,0,0,0,0,0,0,0,0,0,-1,860,673,0,0
-357,351,0,0,0,0,0,0,0,0,0,-1,867,673,0,0
-350,351,0,0,0,0,0,0,0,0,0,-1,874,673,0,0
-343,351,0,0,0,0,0,0,0,0,0,-1,881,673,0,0
-336,351,0,0,0,0,0,0,0,0,0,-1,888,673,0,0
-329,351,0,0,0,0,0,0,0,0,0,-1,895,673,0,0
-322,351,0,0,0,0,0,0,0,0,0,-1,902,673,0,0
-315,351,0,0,0,0,0,0,0,0,0,-1,909,673,0,0
-308,351,0,0,0,0,0,0,0,0,0,-1,916,673,0,0
-301,351,0,0,0,0,0,0,0,0,0,-1,923,673,0,0
-294,351,0,0,0,0,0,0,0,0,0,-1,930,673,0,0
-287,351,0,0,0,0,0,0,0,0,0,-1,937,673,0,0
-280,351,0,0,0,0,0,0,0,0,0,-1,944,673,0,0
-273,351,0,0,0,0,0,0,0,0,0,-1,951,673,0,0
-266,351,0,0,0,0,0,0,0,0,0,-1,958,673,0,0
-259,351,0,0,0,0,0,0,0,0,0,-1,965,673,0,0
-252,351,0,0,0,0,0,0,0,0,0,-1,972,673,0,0
-245,351,0,0,0,0,0,0,0,0,0,-1,979,673,0,0
-238,351,0,0,0,0,0,0,0,0,0,-1,986,673,0,0
-231,351,0,0,0,0,0,0,0,0,0,-1,993,673,0,0
-224,351,0,0,0,0,0,0,0,0,0,-1,1000,673,0,0
-217,351,0,0,0,0,0,0,0,0,0,-1,1007,673,0,0
-210,351,0,0,0,0,0,0,0,0,0,-1,1014,673,0,0
-203,351,0,0,0,0,0,0,0,0,0,-1,1021,673,0,0
-196,351,0,0,0,0,0,0,0,0,0,-1,1028,673,0,0
-189,351,0,0,0,0,0,0,0,0,0,-1,1035,673,0,0
-182,351,0,0,0,0,0,0,0,0,0,-1,1042,673,0,0
-175,351,0,0,0,0,0,0,0,0,0,-1,1049,673,0,0
-168,351,0,0,0,0,0,0,0,0,0,-1,1056,673,0,0
-161,351,0,0,0,0,0,0,0,0,0,-1,1063,673,0,0
-154,351,0,0,0,0,0,0,0,0,0,-1,1070,673,0,0
-147,351,0,0,0,0,0,0,0,0,0,-1,1077,673,0,0
-140,351,0,0,0,0,0,0,0,0,0,-1,1084,673,0,0
-133,351,0,0,0,0,0,0,0,0,0,-1,1091,673,0,0
-126,351,0,0,0,0,0,0,0,0,0,-1,1098,673,0,0
-119,351,0,0,0,0,0,0,0,0,0,-1,1105,673,0,0
-112,351,0,0,0,0,0,0,0,0,0,-1,1112,673,0,0
-105,351,0,0,0,0,0,0,0,0,0,-1,1119,673,0,0
-98,351,0,0,0,0,0,0,0,0,0,-1,1126,673,0,0
-91,351,0,0,0,0,0,0,0,0,0,-1,1133,673,0,0
-84,351,0,0,0,0,0,0,0,0,0,-1,1140,673,0,0
-77,351,0,0,0,0,0,0,0,0,0,-1,1147,673,0,0
-70,351,0,0,0,0,0,0,0,0,0,-1,1154,673,0,0
-63,351,0,0,0,0,0,0,0,0,0,-1,1161,673,0,0
-56,351,0,0,0,0,0,0,0,0,0,-1,1168,673,0,0
-49,351,0,0,0,0,0,0,0,0,0,-1,1175,673,0,0
-42,351,0,0,0,0,0,0,0,0,0,-1,1182,673,0,0
-35,351,0,0,0,0,0,0,0,0,0,-1,1189,673,0,0
-28,351,0,0,0,0,0,0,0,0,0,-1,1196,673,0,0
-21,351,0,0,0,0,0,0,0,0,0,-1,1203,673,0,0
-14,351,0,0,0,0,0,0,0,0,0,-1,1210,673,0,0
-7,351,0,0,0,0,0,0,0,0,0,-1,1217,673,0,0
0,351,0,0,0,0,0,0,0,0,0,-1,1224,673,0,0
7,351,0,0,0,0,0,0,0,0,0,-1,1231,673,0,0
14,351,0,0,0,0,0,0,0,0,0,-1,1238,673,0,0
21,351,0,0,0,0,0,0,0,0,0,-1,1245,673,0,0
28,351,0,0,0,0,0,0,0,0,0,-1,1252,673,0,0
35,351,0,0,0,0,0,0,0,0,0,-1,1259,673,0,0
42,351,0,0,0,0,0,0,0,0,0,-1,1266,673,0,0
49,351,0,0,0,0,0,0,0,0,0,-1,1273,673,0,0
56,351,0,0,0,0,0,0,0,0,0,-1,1280,673,0,0
63,351,0,0,0,0,0,0,0,0,0,-1,1287,673,0,0
70,351,0,0,0,0,0,0,0,0,0,-1,1294,673,0,0
77,351,0,0,0,0,0,0,0,0,0,-1,1301,673,0,0
84,351,0,0,0,0,0,0,0,0,0,-1,1308,673,0,0
91,351,0,0,0,0,0,0,0,0,0,-1,1315,673,0,0
98,351,0,0,0,0,0,0,0,0,0,-1,1322,673,0,0
105,351,0,0,0,0,0,0,0,0,0,-1,1329,673,0,0
112,351,0,0,0,0,0,0,0,0,0,-1,1336,673,0,0
119,351,0,0,0,0,0,0,0,0,0,-1,1343,673,0,0
126,351,0,0,0,0,0,0,0,0,0,-1,1350,673,0,0
133,351,0,0,0,0,0,0,0,0,0,-1,1357,673,0,0
140,351,0,0,0,0,0,0,0,0,0,-1,1364,673,0,0
147,351,0,0,0,0,0,0,0,0,0,-1,1371,673,0,0
154,351,0,0,0,0,0,0,0,0,0,-1,1378,673,0,0
161,351,0,0,0,0,0,0,0,0,0,-1,1385,673,0,0
168,351,0,0,0,0,0,0,0,0,0,-1,1392,673,0,0
175,351,0,0,0,0,0,0,0,0,0,-1,1399,673,0,0
182,351,0,0,0,0,0,0,0,0,0,-1,1406,673,0,0
189,351,0,0,0,0,0,0,0,0,0,-1,1413,673,0,0
196,351,0,0,0,0,0,0,0,0,0,-1,1420,673,0,0
203,351,0,0,0,0,0,0,0,0,0,-1,1427,673,0,0
210,351,0,0,0,0,0,0,0,0,0,-1,1434,673,0,0
217,351,0,0,0,0,0,0,0,0,0,-1,1441,673,0,0
224,351,0,0,0,0,0,0,0,0,0,-1,1448,673,0,0
231,351,0,0,0,0,0,0,0,0,0,-1,1455,673,0,0
238,351,0,0,0,0,0,0,0,0,0,-1,1462,673,0,0
245,351,0,0,0,0,0,0,0,0,0,-1,1469,673,0,0
252,351,0,0,0,0,0,0,0,0,0,-1,1476,673,0,0
259,351,0,0,0,0,0,0,0,0,0,-1,1483,673,0,0
266,351,0,0,0,0,0,0,0,0,0,-1,1490,673,0,0
273,351,0,0,0,0,0,0,0,0,0,-1,1497,673,0,0
280,351,0,0,0,0,0,0,0,0,0,-1,1504,673,0,0
287,351,0,0,0,0,0,0,0,0,0,-1,1511,673,0,0
294,351,0,0,0,0,0,0,0,0,0,-1,1518,673,0,0
301,351,0,0,0,0,0,0,0,0,0,-1,1525,673,0,0
308,351,0,0,0,0,0,0,0,0,0,-1,1532,673,0,0
315,351,0,0,0,0,0,0,0,0,0,-1,1539,673,0,0
322,351,0,0,0,0,0,0,0,0,0,-1,1546,673,0,0
329,351,0,0,0,0,0,0,0,0,0,-1,1553,673,0,0
336,351,0,0,0,0,0,0,0,0,0,-1,1560,673,0,0
343,351,0,0,0,0,0,0,0,0,0,-1,1567,673,0,0
350,351,0,0,0,0,0,0,0,0,0,-1,1574,673,0,0
357,351,0,0,0,0,0,0,0,0,0,-1,1581,673,0,0
364,351,0,0,0,0,0,0,0,0,0,-1,1588,673,0,0
371,351,0,0,0,0,0,0,0,0,0,-1,1595,673,0,0
378,351,0,0,0,0,0,0,0,0,0,-1,1602,673,0,0
385,351,0,0,0,0,0,0,0,0,0,-1,1609,673,0,0
392,351,0,0,0,0,0,0,0,0,0,-1,1616,673,0,0
399,351,0,0,0,0,0,0,0,0,0,-1,1623,673,0,0
406,351,0,0,0,0,0,0,0,0,0,-1,1630,673,0,0
413,351,0,0,0,0,0,0,0,0,0,-1,1637,673,0,0
420,351,0,0,0,0,0,0,0,0,0,-1,1644,673,0,0
427,351,0,0,0,0,0,0,0,0,0,-1,1651,673,0,0
434,351,0,0,0,0,0,0,0,0,0,-1,1658,673,0,0
441,351,0,0,0,0,0,0,0,0,0,-1,1665,673,0,0
448,351,0,0,0,0,0,0,0,0,0,-1,1672,673,0,0
455,351,0,0,0,0,0,0,0,0,0,-1,1679,673,0,0
462,351,0,0,0,0,0,0,0,0,0,-1,1686,673,0,0
469,351,0,0,0,0,0,0,0,0,0,-1,1693,673,0,0
476,351,0,0,0,0,0,0,0,0,0,-1,1700,673,0,0
483,351,0,0,0,0,0,0,0,0,0,-1,1707,673,0,0
490,351,0,0,0,0,0,0,0,0,0,-1,1714,673,0,0
497,351,0,0,0,0,0,0,0,0,0,-1,1721,673,0,0
504,351,10.8842,1.61615,0,0,0,0,0,0,0,-1,1728,673,10.8842,-1.61618
511,351,15.4548,0.0236816,0,0,0,0,0,0,0,-1,1735,673,15.4549,-0.0236664
518,351,16.7448,2.49268,0,0,0,0,0,0,0,-1,1742,673,16.7448,-2.49269
525,351,16.0701,3.43225,0,0,0,0,0,0,0,-1,1749,673,16.07,-3.43227
532,351,32.3822,3.03021,0,0,0,0,0,0,0,-1,1756,673,32.3822,-3.03019
539,351,15.3387,3.54486,0,0,0,0,0,0,0,-1,1763,673,15.3387,-3.54485
546,351,13.9387,4.59357,0,0,0,0,0,0,0,-1,1770,673,13.9388,-4.59359
553,351,12.0682,2.02832,0,0,0,0,0,0,0,-1,1777,673,12.0683,-2.02831
560,351,12.0173,0.55304,0,0,0,0,0,0,0,-1,1784,673,12.0174,-0.553028
567,351,10.7827,0.130188,0,0,0,0,0,0,0,-1,1791,673,10.7827,-0.130183
574,351,13.405,-1.09204,0,0,0,0,0,0,0,-1,1798,673,13.405,1.09207
581,351,15.2351,-3.06049,0,0,0,0,0,0,0,-1,1805,673,15.2351,3.06046
588,351,18.8126,-5.2962,0,0,0,0,0,0,0,-1,1812,673,18.8126,5.29622
595,351,19.0292,-4.66962,0.00237825,0.00146525,0.0019537,0.00392807,-8.45711e-05,0.670627,0.00264735,0.0312653,1819,673,19.0292,4.66962
602,351,19.0227,-4.14404,0.00196184,0.00124212,0.00131638,0.00296666,0.000237301,0.651971,0.00190361,0.0189621,1826,673,19.0228,4.14407
609,351,19.0342,-3.6936,0.00192996,0.00112739,0.00110185,0.00270133,0.000356027,0.610769,0.00169472,0.017743,1833,673,19.0342,3.69363
616,351,19.0081,-3.2215,0.00172268,0.00117691,0.00105466,0.00253918,0.000360407,0.658804,0.00158636,0.0148407,1840,673,19.008,3.22152
623,351,19.0225,-2.76617,0.00124418,0.00110336,0.000851935,0.00202861,0.000318929,0.74417,0.00125963,0.0157741,1847,673,19.0225,2.76616
630,351,19.0204,-2.34625,0.000474553,0.00100557,0.000574947,0.00137336,0.00010677,1.00171,0.000882137,0.0256177,1854,673,19.0204,2.34626
637,351,18.9921,-1.86804,-0.000642433,0.000718949,0.000161866,0.00073793,-0.000661414,1.45407,0.000808314,0.0300189,1861,673,18.9921,1.86801
644,351,18.959,-1.38776,-0.00223464,0.000523184,-0.000410922,0.00058311,-0.00229456,-1.42598,0.00175664,0.0219421,1868,673,18.959,1.38775
651,351,18.9811,-0.89679,-0.0042107,0.000129931,-0.00114153,0.000411832,-0.0044926,-1.32869,0.00314136,0.0163387,1875,673,18.9811,0.89677
658,351,18.9409,-0.396362,-0.00683034,-0.000508084,-0.00220907,0.000187306,-0.00752573,-1.26583,0.00508074,0.031984,1882,673,18.9409,0.396352
665,351,18.538,-0.19281,-0.0101614,-0.00137828,-0.00353215,-0.000134074,-0.0114056,-1.23212,0.00755945,0.0429355,1889,673,18.538,0.192815
672,351,18.291,0.208435,0,0,0,0,0,0,0,-1,1896,673,18.291,-0.208424
679,351,14.1252,1.85681,0,0,0,0,0,0,0,-1,1903,673,14.1253,-1.85682
686,351,13.0294,2.1189,0,0,0,0,0,0,0,-1,1910,673,13.0294,-2.11892
693,351,13.5187,2.34595,0,0,0,0,0,0,0,-1,1917,673,13.5187,-2.34596
700,351,14.5629,-2.40173,0,0,0,0,0,0,0,-1,1924,673,14.5629,2.40172
707,351,0,0,0,0,0,0,0,0,0,-1,1931,673,0,0
714,351,0,0,0,0,0,0,0,0,0,-1,1938,673,0,0
721,351,0,0,0,0,0,0,0,0,0,-1,1945,673,0,0
728,351,0,0,0,0,0,0,0,0,0,-1,1952,673,0,0
735,351,0,0,0,0,0,0,0,0,0,-1,1959,673,0,0
742,351,0,0,0,0,0,0,0,0,0,-1,1966,673,0,0
749,351,0,0,0,0,0,0,0,0,0,-1,1973,673,0,0
756,351,0,0,0,0,0,0,0,0,0,-1,1980,673,0,0
763,351,0,0,0,0,0,0,0,0,0,-1,1987,673,0,0
770,351,0,0,0,0,0,0,0,0,0,-1,1994,673,0,0
777,351,0,0,0,0,0,0,0,0,0,-1,2001,673,0,0
784,351,0,0,0,0,0,0,0,0,0,-1,2008,673,0,0
791,351,0,0,0,0,0,0,0,0,0,-1,2015,673,0,0
798,351,0,0,0,0,0,0,0,0,0,-1,2022,673,0,0
805,351,0,0,0,0,0,0,0,0,0,-1,2029,673,0,0
812,351,0,0,0,0,0,0,0,0,0,-1,2036,673,0,0
-700,344,0,0,0,0,0,0,0,0,0,-1,524,680,0,0
-693,344,0,0,0,0,0,0,0,0,0,-1,531,680,0,0
-686,344,0,0,0,0,0,0,0,0,0,-1,538,680,0,0
-679,344,0,0,0,0,0,0,0,0,0,-1,545,680,0,0
-672,344,0,0,0,0,0,0,0,0,0,-1,552,680,0,0
-665,344,0,0,0,0,0,0,0,0,0,-1,559,680,0,0
-658,344,0,0,0,0,0,0,0,0,0,-1,566,680,0,0
-651,344,0,0,0,0,0,0,0,0,0,-1,573,680,0,0
-644,344,0,0,0,0,0,0,0,0,0,-1,580,680,0,0
-637,344,0,0,0,0,0,0,0,0,0,-1,587,680,0,0
-630,344,0,0,0,0,0,0,0,0,0,-1,594,680,0,0
-623,344,0,0,0,0,0,0,0,0,0,-1,601,680,0,0
-616,344,0,0,0,0,0,0,0,0,0,-1,608,680,0,0
-609,344,0,0,0,0,0,0,0,0,0,-1,615,680,0,0
-602,344,0,0,0,0,0,0,0,0,0,-1,622,680,0,0
-595,344,0,0,0,0,0,0,0,0,0,-1,629,680,0,0
-588,344,-9.27826,1.47302,0,0,0,0,0,0,0,-1,636,680,-9.27829,-1.473
-581,344,-10.0098,1.71753,0,0,0,0,0,0,0,-1,643,680,-10.0098,-1.7175
-574,344,-10.2208,3.04871,0,0,0,0,0,0,0,-1,650,680,-10.2208,-3.04869
-567,344,-10.5964,5.03223,0,0,0,0,0,0,0,-1,657,680,-10.5964,-5.03223
-560,344,-10.5164,3.14191,0,0,0,0,0,0,0,-1,664,680,-10.5164,-3.14189
-553,344,-11.5766,0.437683,0,0,0,0,0,0,0,-1,671,680,-11.5766,-0.437681
-546,344,-11.2397,-0.503296,0.00722023,0.0214162,-0.0180416,0.0337059,-0.00506944,-0.97281,0.024337,0.046389,678,680,-11.2397,0.503279
-539,344,-11.0938,-1.38159,0.0050948,0.0161565,-0.0130552,0.0248041,-0.00355276,-0.985763,0.0178387,0.0483929,685,680,-11.0938,1.38159
-532,344,-11.0175,-2.19836,0,0,0,0,0,0,0,-1,692,680,-11.0174,2.19834
-525,344,-11.0847,-2.71161,0.00249974,0.00858477,-0.00632643,0.0125623,-0.00147776,-1.00953,0.00890838,0.0300921,699,680,-11.0846,2.71158
-518,344,-11.0779,-3.25873,0.00173999,0.00585967,-0.00407628,0.00836699,-0.000767332,-1.01935,0.00585057,0.0199174,706,680,-11.0779,3.2587
-511,344,-11.0718,-3.69781,0.00129075,0.00381912,-0.00247729,0.00533614,-0.000226272,-1.02133,0.0036352,0.0180871,713,680,-11.0718,3.69784
-504,344,-11.049,-4.14258,0.00111087,0.00234385,-0.00142885,0.00328354,0.000171186,-0.989061,0.00213425,0.0193167,720,680,-11.0489,4.14261
-497,344,-11.0549,-4.56311,0.0012344,0.00139971,-0.00087685,0.00219779,0.000436315,-0.832392,0.00134358,0.0160387,727,680,-11.0549,4.56313
-490,344,-11.0836,-4.98798,0.00146997,0.000733666,-0.000636348,0.00183699,0.000366648,-0.523154,0.00112258,0.0132184,734,680,-11.0836,4.98797
-483,344,-11.0886,-5.42712,0.00204639,0.000765258,-0.00097806,0.00257498,0.000236667,-0.49548,0.00164345,0.0133847,741,680,-11.0886,5.4271
-476,344,-11.1002,-5.86035,0.00279525,0.00114454,-0.00163166,0.00379843,0.000141366,-0.551245,0.00248651,0.0141752,748,680,-11.1002,5.86036
-469,344,-11.0975,-6.30243,0.00367885,0.00163125,-0.00244392,0.00530475,5.34905e-06,-0.587045,0.00353472,0.0156955,755,680,-11.0975,6.30245
-462,344,-11.061,-6.81677,0.0048506,0.00256212,-0.00356351,0.00744907,-3.63479e-05,-0.630048,0.00497821,0.0450643,762,680,-11.061,6.81674
-455,344,-10.908,-7.26593,0,0,0,0,0,0,0,-1,769,680,-10.908,7.26595
-448,344,-5.67657,-2.72864,0,0,0,0,0,0,0,-1,776,680,-5.6766,2.72863
-441,344,-5.09229,-2.34167,0,0,0,0,0,0,0,-1,783,680,-5.09229,2.34168
-434,344,-4.28778,-2.08807,0,0,0,0,0,0,0,-1,790,680,-4.28778,2.08809
-427,344,-3.06506,-1.45404,0,0,0,0,0,0,0,-1,797,680,-3.06505,1.45402
-420,344,-1.96582,-1.57574,0,0,0,0,0,0,0,-1,804,680,-1.96579,1.57574
-413,344,-0.817993,-1.4751,0,0,0,0,0,0,0,-1,811,680,-0.818017,1.47511
-406,344,-0.00714111,-1.25189,0,0,0,0,0,0,0,-1,818,680,-0.00714956,1.25191
-399,344,0.240051,-1.75769,0,0,0,0,0,0,0,-1,825,680,0.240079,1.75767
-392,344,1.11353,-2.05615,0,0,0,0,0,0,0,-1,832,680,1.11351,2.05616
-385,344,0,0,0,0,0,0,0,0,0,-1,839,680,0,0
-378,344,0,0,0,0,0,0,0,0,0,-1,846,680,0,0
-371,344,0,0,0,0,0,0,0,0,0,-1,853,680,0,0
-364,344,0,0,0,0,0,0,0,0,0,-1,860,680,0,0
-357,344,0,0,0,0,0,0,0,0,0,-1,867,680,0,0
-350,344,0,0,0,0,0,0,0,0,0,-1,874,680,0,0
-343,344,0,0,0,0,0,0,0,0,0,-1,881,680,0,0
-336,344,0,0,0,0,0,0,0,0,0,-1,888,680,0,0
-329,344,0,0,0,0,0,0,0,0,0,-1,895,680,0,0
-322,344,0,0,0,0,0,0,0,0,0,-1,902,680,0,0
-315,344,0,0,0,0,0,0,0,0,0,-1,909,680,0,0
-308,344,0,0,0,0,0,0,0,0,0,-1,916,680,0,0
-301,344,0,0,0,0,0,0,0,0,0,-1,923,680,0,0
-294,344,0,0,0,0,0,0,0,0,0,-1,930,680,0,0
-287,344,0,0,0,0,0,0,0,0,0,-1,937,680,0,0
-280,344,0,0,0,0,0,0,0,0,0,-1,944,680,0,0
-273,344,0,0,0,0,0,0,0,0,0,-1,951,680,0,0
-266,344,0,0,0,0,0,0,0,0,0,-1,958,680,0,0
-259,344,0,0,0,0,0,0,0,0,0,-1,965,680,0,0
-252,344,0,0,0,0,0,0,0,0,0,-1,972,680,0,0
-245,344,0,0,0,0,0,0,0,0,0,-1,979,680,0,0
-238,344,0,0,0,0,0,0,0,0,0,-1,986,680,0,0
-231,344,0,0,0,0,0,0,0,0,0,-1,993,680,0,0
-224,344,0,0,0,0,0,0,0,0,0,-1,1000,680,0,0
-217,344,0,0,0,0,0,0,0,0,0,-1,1007,680,0,0
-210,344,0,0,0,0,0,0,0,0,0,-1,1014,680,0,0
-203,344,0,0,0,0,0,0,0,0,0,-1,1021,680,0,0
-196,344,0,0,0,0,0,0,0,0,0,-1,1028,680,0,0
-189,344,0,0,0,0,0,0,0,0,0,-1,1035,680,0,0
-182,344,0,0,0,0,0,0,0,0,0,-1,1042,680,0,0
-175,344,0,0,0,0,0,0,0,0,0,-1,1049,680,0,0
-168,344,0,0,0,0,0,0,0,0,0,-1,1056,680,0,0
-161,344,0,0,0,0,0,0,0,0,0,-1,1063,680,0,0
-154,344,0,0,0,0,0,0,0,0,0,-1,1070,680,0,0
-147,344,0,0,0,0,0,0,0,0,0,-1,1077,680,0,0
-140,344,0,0,0,0,0,0,0,0,0,-1,1084,680,0,0
-133,344,0,0,0,0,0,0,0,0,0,-1,1091,680,0,0
-126,344,0,0,0,0,0,0,0,0,0,-1,1098,680,0,0
-119,344,0,0,0,0,0,0,0,0,0,-1,1105,680,0,0
-112,344,0,0,0,0,0,0,0,0,0,-1,1112,680,0,0
-105,344,0,0,0,0,0,0,0,0,0,-1,1119,680,0,0
-98,344,0,0,0,0,0,0,0,0,0,-1,1126,680,0,0
-91,344,0,0,0,0,0,0,0,0,0,-1,1133,680,0,0
-84,344,0,0,0,0,0,0,0,0,0,-1,1140,680,0,0
-77,344,0,0,0,0,0,0,0,0,0,-1,1147,680,0,0
-70,344,0,0,0,0,0,0,0,0,0,-1,1154,680,0,0
-63,344,0,0,0,0,0,0,0,0,0,-1,1161,680,0,0
-56,344,0,0,0,0,0,0,0,0,0,-1,1168,680,0,0
-49,344,0,0,0,0,0,0,0,0,0,-1,1175,680,0,0
-42,344,0,0,0,0,0,0,0,0,0,-1,1182,680,0,0
-35,344,0,0,0,0,0,0,0,0,0,-1,1189,680,0,0
-28,344,0,0,0,0,0,0,0,0,0,-1,1196,680,0,0
-21,344,0,0,0,0,0,0,0,0,0,-1,1203,680,0,0
-14,344,0,0,0,0,0,0,0,0,0,-1,1210,680,0,0
-7,344,0,0,0,0,0,0,0,0,0,-1,1217,680,0,0
0,344,0,0,0,0,0,0,0,0,0,-1,1224,680,0,0
7,344,0,0,0,0,0,0,0,0,0,-1,1231,680,0,0
14,344,0,0,0,0,0,0,0,0,0,-1,1238,680,0,0
21,344,0,0,0,0,0,0,0,0,0,-1,1245,680,0,0
28,344,0,0,0,0,0,0,0,0,0,-1,1252,680,0,0
35,344,0,0,0,0,0,0,0,0,0,-1,1259,680,0,0
42,344,0,0,0,0,0,0,0,0,0,-1,1266,680,0,0
49,344,0,0,0,0,0,0,0,0,0,-1,1273,680,0,0
56,344,0,0,0,0,0,0,0,0,0,-1,1280,680,0,0
63,344,0,0,0,0,0,0,0,0,0,-1,1287,680,0,0
70,344,0,0,0,0,0,0,0,0,0,-1,1294,680,0,0
77,344,0,0,0,0,0,0,0,0,0,-1,1301,680,0,0
84,344,0,0,0,0,0,0,0,0,0,-1,1308,680,0,0
91,344,0,0,0,0,0,0,0,0,0,-1,1315,680,0,0
98,344,0,0,0,0,0,0,0,0,0,-1,1322,680,0,0
105,344,0,0,0,0,0,0,0,0,0,-1,1329,680,0,0
112,344,0,0,0,0,0,0,0,0,0,-1,1336,680,0,0
119,344,0,0,0,0,0,0,0,0,0,-1,1343,680,0,0
126,344,0,0,0,0,0,0,0,0,0,-1,1350,680,0,0
133,344,0,0,0,0,0,0,0,0,0,-1,1357,680,0,0
140,344,0,0,0,0,0,0,0,0,0,-1,1364,680,0,0
147,344,0,0,0,0,0,0,0,0,0,-1,1371,680,0,0
154,344,0,0,0,0,0,0,0,0,0,-1,1378,680,0,0
161,344,0,0,0,0,0,0,0,0,0,-1,1385,680,0,0
168,344,0,0,0,0,0,0,0,0,0,-1,1392,680,0,0
175,344,0,0,0,0,0,0,0,0,0,-1,1399,680,0,0
182,344,0,0,0,0,0,0,0,0,0,-1,1406,680,0,0
189,344,0,0,0,0,0,0,0,0,0,-1,1413,680,0,0
196,344,0,0,0,0,0,0,0,0,0,-1,1420,680,0,0
203,344,0,0,0,0,0,0,0,0,0,-1,1427,680,0,0
210,344,0,0,0,0,0,0,0,0,0,-1,1434,680,0,0
217,344,0,0,0,0,0,0,0,0,0,-1,1441,680,0,0
224,344,0,0,0,0,0,0,0,0,0,-1,1448,680,0,0
231,344,0,0,0,0,0,0,0,0,0,-1,1455,680,0,0
238,344,0,0,0,0,0,0,0,0,0,-1,1462,680,0,0
245,344,0,0,0,0,0,0,0,0,0,-1,1469,680,0,0
252,344,0,0,0,0,0,0,0,0,0,-1,1476,680,0,0
259,344,0,0,0,0,0,0,0,0,0,-1,1483,680,0,0
266,344,0,0,0,0,0,0,0,0,0,-1,1490,680,0,0
273,344,0,0,0,0,0,0,0,0,0,-1,1497,680,0,0
280,344,0,0,0,0,0,0,0,0,0,-1,1504,680,0,0
287,344,0,0,0,0,0,0,0,0,0,-1,1511,680,0,0
294,344,0,0,0,0,0,0,0,0,0,-1,1518,680,0,0
301,344,0,0,0,0,0,0,0,0,0,-1,1525,680,0,0
308,344,0,0,0,0,0,0,0,0,0,-1,1532,680,0,0
315,344,0,0,0,0,0,0,0,0,0,-1,1539,680,0,0
322,344,0,0,0,0,0,0,0,0,0,-1,1546,680,0,0
329,344,0,0,0,0,0,0,0,0,0,-1,1553,680,0,0
336,344,0,0,0,0,0,0,0,0,0,-1,1560,680,0,0
343,344,0,0,0,0,0,0,0,0,0,-1,1567,680,0,0
350,344,0,0,0,0,0,0,0,0,0,-1,1574,680,0,0
357,344,0,0,0,0,0,0,0,0,0,-1,1581,680,0,0
364,344,0,0,0,0,0,0,0,0,0,-1,1588,680,0,0
371,344,0,0,0,0,0,0,0,0,0,-1,1595,680,0,0
378,344,0,0,0,0,0,0,0,0,0,-1,1602,680,0,0
385,344,0,0,0,0,0,0,0,0,0,-1,1609,680,0,0
392,344,0,0,0,0,0,0,0,0,0,-1,1616,680,0,0
399,344,0,0,0,0,0,0,0,0,0,-1,1623,680,0,0
406,344,0,0,0,0,0,0,0,0,0,-1,1630,680,0,0
413,344,0,0,0,0,0,0,0,0,0,-1,1637,680,0,0
420,344,0,0,0,0,0,0,0,0,0,-1,1644,680,0,0
427,344,0,0,0,0,0,0,0,0,0,-1,1651,680,0,0
434,344,0,0,0,0,0,0,0,0,0,-1,1658,680,0,0
441,344,0,0,0,0,0,0,0,0,0,-1,1665,680,0,0
448,344,0,0,0,0,0,0,0,0,0,-1,1672,680,0,0
455,344,0,0,0,0,0,0,0,0,0,-1,1679,680,0,0
462,344,0,0,0,0,0,0,0,0,0,-1,1686,680,0,0
469,344,0,0,0,0,0,0,0,0,0,-1,1693,680,0,0
476,344,0,0,0,0,0,0,0,0,0,-1,1700,680,0,0
483,344,0,0,0,0,0,0,0,0,0,-1,1707,680,0,0
490,344,0,0,0,0,0,0,0,0,0,-1,1714,680,0,0
497,344,0,0,0,0,0,0,0,0,0,-1,1721,680,0,0
504,344,0,0,0,0,0,0,0,0,0,-1,1728,680,0,0
511,344,15.4819,0.452637,0,0,0,0,0,0,0,-1,1735,680,15.4819,-0.452656
518,344,17.1357,2.31207,0,0,0,0,0,0,0,-1,1742,680,17.1358,-2.31207
525,344,31.5201,2.6217,0,0,0,0,0,0,0,-1,1749,680,31.5201,-2.62168
532,344,31.9766,2.61047,0,0,0,0,0,0,0,-1,1756,680,31.9765,-2.6105
539,344,32.4379,2.65314,0,0,0,0,0,0,0,-1,1763,680,32.4378,-2.65316
546,344,14.6722,4.30243,0,0,0,0,0,0,0,-1,1770,680,14.6722,-4.30241
553,344,14.8136,4.35681,0,0,0,0,0,0,0,-1,1777,680,14.8136,-4.35679
560,344,11.9363,2.14185,0,0,0,0,0,0,0,-1,1784,680,11.9362,-2.14182
567,344,11.397,0.925842,0,0,0,0,0,0,0,-1,1791,680,11.397,-0.92583
574,344,10.0004,0.504639,0,0,0,0,0,0,0,-1,1798,680,10.0004,-0.504645
581,344,13.6709,-0.969604,0,0,0,0,0,0,0,-1,1805,680,13.6709,0.969629
588,344,16.1447,-3.15948,0,0,0,0,0,0,0,-1,1812,680,16.1447,3.15946
595,344,19.3534,-4.71478,0,0,0,0,0,0,0,-1,1819,680,19.3533,4.71478
602,344,19.579,-4.10291,0.00248562,0.00109541,0.00231183,0.00420458,-0.000623561,0.639361,0.00303236,0.0453522,1826,680,19.579,4.1029
609,344,19.5205,-3.66791,0.00222079,0.000853795,0.00145856,0.00314806,-7.34732e-05,0.566286,0.00212362,0.0158087,1833,680,19.5205,3.66789
616,344,19.4673,-3.17584,0.00193255,0.00101656,0.00115027,0.00271265,0.000236458,0.595936,0.00173499,0.02251,1840,680,19.4673,3.17586
623,344,19.4651,-2.74213,0.00140982,0.000856855,0.000864872,0.00204133,0.000225348,0.630691,0.00129234,0.0204308,1847,680,19.465,2.74211
630,344,19.5197,-2.31897,0.000634899,0.000688218,0.00053698,0.0011992,0.000123917,0.810201,0.000761529,0.0258061,1854,680,19.5197,2.31894
637,344,19.5313,-1.85028,-0.000477203,0.000347472,9.07837e-05,0.000357348,-0.000487079,1.46244,0.000489444,0.0245134,1861,680,19.5313,1.85026
644,344,19.479,-1.38,-0.00204864,0.000144117,-0.000519184,0.000260833,-0.00216536,-1.34967,0.00153791,0.0164289,1868,680,19.479,1.38002
651,344,19.4414,-0.911865,-0.00391531,-0.00021746,-0.00123153,0.000155144,-0.00428791,-1.277,0.0029117,0.0112883,1875,680,19.4414,0.911873
658,344,19.4327,-0.371033,-0.00630012,-0.000714525,-0.00217255,3.09967e-05,-0.00704564,-1.24023,0.00470746,0.0221362,1882,680,19.4328,0.371042
665,344,19.3224,0.0697632,-0.00928913,-0.00134977,-0.00332011,-0.000144369,-0.0104945,-1.22253,0.00694873,0.0363944,1889,680,19.3224,-0.0697334
672,344,19.3529,0.441223,0,0,0,0,0,0,0,-1,1896,680,19.353,-0.441221
679,344,18.4459,0.997742,0,0,0,0,0,0,0,-1,1903,680,18.4459,-0.997727
686,344,15.024,1.82709,0,0,0,0,0,0,0,-1,1910,680,15.024,-1.82706
693,344,12.4362,-1.42346,0,0,0,0,0,0,0,-1,1917,680,12.4361,1.42348
700,344,17.5396,2.61206,0,0,0,0,0,0,0,-1,1924,680,17.5396,-2.61204
707,344,18.5829,3.29352,0,0,0,0,0,0,0,-1,1931,680,18.5828,-3.2935
714,344,0,0,0,0,0,0,0,0,0,-1,1938,680,0,0
721,344,0,0,0,0,0,0,0,0,0,-1,1945,680,0,0
728,344,0,0,0,0,0,0,0,0,0,-1,1952,680,0,0
735,344,0,0,0,0,0,0,0,0,0,-1,1959,680,0,0
742,344,0,0,0,0,0,0,0,0,0,-1,1966,680,0,0
749,344,0,0,0,0,0,0,0,0,0,-1,1973,680,0,0
756,344,0,0,0,0,0,0,0,0,0,-1,1980,680,0,0
763,344,0,0,0,0,0,0,0,0,0,-1,1987,680,0,0
770,344,0,0,0,0,0,0,0,0,0,-1,1994,680,0,0
777,344,0,0,0,0,0,0,0,0,0,-1,2001,680,0,0
784,344,0,0,0,0,0,0,0,0,0,-1,2008,680,0,0
791,344,0,0,0,0,0,0,0,0,0,-1,2015,680,0,0
798,344,0,0,0,0,0,0,0,0,0,-1,2022,680,0,0
805,344,0,0,0,0,0,0,0,0,0,-1,2029,680,0,0
812,344,0,0,0,0,0,0,0,0,0,-1,2036,680,0,0
-700,337,0,0,0,0,0,0,0,0,0,-1,524,687,0,0
-693,337,0,0,0,0,0,0,0,0,0,-1,531,687,0,0
-686,337,0,0,0,0,0,0,0,0,0,-1,538,687,0,0
-679,337,0,0,0,0,0,0,0,0,0,-1,545,687,0,0
-672,337,0,0,0,0,0,0,0,0,0,-1,552,687,0,0
-665,337,0,0,0,0,0,0,0,0,0,-1,559,687,0,0
-658,337,0,0,0,0,0,0,0,0,0,-1,566,687,0,0
-651,337,0,0,0,0,0,0,0,0,0,-1,573,687,0,0
-644,337,0,0,0,0,0,0,0,0,0,-1,580,687,0,0
-637,337,0,0,0,0,0,0,0,0,0,-1,587,687,0,0
-630,337,0,0,0,0,0,0,0,0,0,-1,594,687,0,0
-623,337,0,0,0,0,0,0,0,0,0,-1,601,687,0,0
-616,337,0,0,0,0,0,0,0,0,0,-1,608,687,0,0
-609,337,0,0,0,0,0,0,0,0,0,-1,615,687,0,0
-602,337,0,0,0,0,0,0,0,0,0,-1,622,687,0,0
-595,337,0,0,0,0,0,0,0,0,0,-1,629,687,0,0
-588,337,-10.8413,1.27863,0,0,0,0,0,0,0,-1,636,687,-10.8413,-1.27861
-581,337,-11.2157,1.31567,0,0,0,0,0,0,0,-1,643,687,-11.2157,-1.3157
-574,337,-6.03339,2.0321,0,0,0,0,0,0,0,-1,650,687,-6.03337,-2.03213
-567,337,-9.8313,1.39795,0,0,0,0,0,0,0,-1,657,687,-9.83129,-1.39793
-560,337,-11.7072,1.16852,0,0,0,0,0,0,0,-1,664,687,-11.7071,-1.16852
-553,337,-11.7268,0.647949,0,0,0,0,0,0,0,-1,671,687,-11.7268,-0.647969
-546,337,-11.5786,-0.529114,0.0050401,0.0175049,-0.0140652,0.0266567,-0.0041117,-0.993951,0.0192883,0.0426752,678,687,-11.5786,0.529134
-539,337,-11.3883,-1.74243,0.00375837,0.0133028,-0.0103818,0.0199567,-0.00289554,-1.00083,0.0143672,0.0321706,685,687,-11.3883,1.74246
-532,337,-11.4511,-2.34613,0.00278887,0.00984083,-0.00745478,0.0145615,-0.00193174,-1.0063,0.0104115,0.0222546,692,687,-11.4511,2.34611
-525,337,-11.5158,-2.80286,0.00204496,0.00694633,-0.00506808,0.0101252,-0.00113386,-1.0106,0.00715805,0.015317,699,687,-11.5158,2.80284
-518,337,-11.5323,-3.28271,0.00150635,0.00460945,-0.00320285,0.00661676,-0.000500969,-1.01095,0.00458729,0.0224641,706,687,-11.5323,3.28269
-511,337,-11.5301,-3.67188,0.00121072,0.00284499,-0.00186099,0.00406034,-4.62355e-06,-0.992269,0.00270844,0.0239958,713,687,-11.5301,3.67185
-504,337,-11.5057,-4.12494,0.0011963,0.00152185,-0.000910685,0.00228419,0.000433958,-0.873834,0.00140073,0.0254478,720,687,-11.5057,4.12493
-497,337,-11.4922,-4.57471,0.00172557,0.000560203,-0.000282542,0.00179046,0.000495315,-0.225746,0.00106755,0.0175524,727,687,-11.4922,4.57473
-490,337,-11.5224,-4.99805,0.00260177,-0.000117655,4.98291e-05,0.00260269,-0.000118567,0.0183152,0.00177597,0.0135993,734,687,-11.5224,4.99802
-483,337,-11.532,-5.42865,0.00417479,-0.000301203,1.99666e-05,0.00417487,-0.000301292,0.00446071,0.00288892,0.0141233,741,687,-11.532,5.42867
-476,337,-11.5333,-5.88525,0.00638002,-0.000512017,2.13211e-05,0.00638009,-0.000512083,0.00309354,0.00443395,0.0142114,748,687,-11.5333,5.88525
-469,337,-11.5208,-6.37811,0.00951101,-0.000985371,0.000179126,0.00951407,-0.000988427,0.0170589,0.00669655,0.0374678,755,687,-11.5208,6.37814
-462,337,-11.4398,-6.84406,0,0,0,0,0,0,0,-1,762,687,-11.4397,6.84405
-455,337,-6.00574,-3.12933,0,0,0,0,0,0,0,-1,769,687,-6.00576,3.12934
-448,337,-5.30627,-2.07202,0,0,0,0,0,0,0,-1,776,687,-5.30628,2.07205
-441,337,-4.24762,-1.49597,0,0,0,0,0,0,0,-1,783,687,-4.24762,1.49598
-434,337,-6.86908,1.37531,0,0,0,0,0,0,0,-1,790,687,-6.86908,-1.3753
-427,337,-9.92004,2.487,0,0,0,0,0,0,0,-1,797,687,-9.92002,-2.48701
-420,337,-2.95996,-1.76697,0,0,0,0,0,0,0,-1,804,687,-2.95998,1.76696
-413,337,-1.29169,-1.99487,0,0,0,0,0,0,0,-1,811,687,-1.29171,1.9949
-406,337,-1.02356,-1.89563,0,0,0,0,0,0,0,-1,818,687,-1.02357,1.89564
-399,337,-0.472839,-2.21338,0,0,0,0,0,0,0,-1,825,687,-0.472837,2.2134
-392,337,0,0,0,0,0,0,0,0,0,-1,832,687,0,0
-385,337,0,0,0,0,0,0,0,0,0,-1,839,687,0,0
-378,337,0,0,0,0,0,0,0,0,0,-1,846,687,0,0
-371,337,0,0,0,0,0,0,0,0,0,-1,853,687,0,0
-364,337,0,0,0,0,0,0,0,0,0,-1,860,687,0,0
-357,337,0,0,0,0,0,0,0,0,0,-1,867,687,0,0
-350,337,0,0,0,0,0,0,0,0,0,-1,874,687,0,0
-343,337,0,0,0,0,0,0,0,0,0,-1,881,687,0,0
-336,337,0,0,0,0,0,0,0,0,0,-1,888,687,0,0
-329,337,0,0,0,0,0,0,0,0,0,-1,895,687,0,0
-322,337,0,0,0,0,0,0,0,0,0,-1,902,687,0,0
-315,337,0,0,0,0,0,0,0,0,0,-1,909,687,0,0
-308,337,0,0,0,0,0,0,0,0,0,-1,916,687,0,0
-301,337,0,0,0,0,0,0,0,0,0,-1,923,687,0,0
-294,337,0,0,0,0,0,0,0,0,0,-1,930,687,0,0
-287,337,0,0,0,0,0,0,0,0,0,-1,937,687,0,0
-280,337,0,0,0,0,0,0,0,0,0,-1,944,687,0,0
-273,337,0,0,0,0,0,0,0,0,0,-1,951,687,0,0
-266,337,0,0,0,0,0,0,0,0,0,-1,958,687,0,0
-259,337,0,0,0,0,0,0,0,0,0,-1,965,687,0,0
-252,337,0,0,0,0,0,0,0,0,0,-1,972,687,0,0
-245,337,0,0,0,0,0,0,0,0,0,-1,979,687,0,0
-238,337,0,0,0,0,0,0,0,0,0,-1,986,687,0,0
-231,337,0,0,0,0,0,0,0,0,0,-1,993,687,0,0
-224,337,0,0,0,0,0,0,0,0,0,-1,1000,687,0,0
-217,337,0,0,0,0,0,0,0,0,0,-1,1007,687,0,0
-210,337,0,0,0,0,0,0,0,0,0,-1,1014,687,0,0
-203,337,0,0,0,0,0,0,0,0,0,-1,1021,687,0,0
-196,337,0,0,0,0,0,0,0,0,0,-1,1028,687,0,0
-189,337,0,0,0,0,0,0,0,0,0,-1,1035,687,0,0
-182,337,0,0,0,0,0,0,0,0,0,-1,1042,687,0,0
-175,337,0,0,0,0,0,0,0,0,0,-1,1049,687,0,0
-168,337,0,0,0,0,0,0,0,0,0,-1,1056,687,0,0
-161,337,0,0,0,0,0,0,0,0,0,-1,1063,687,0,0
-154,337,0,0,0,0,0,0,0,0,0,-1,1070,687,0,0
-147,337,0,0,0,0,0,0,0,0,0,-1,1077,687,0,0
-140,337,0,0,0,0,0,0,0,0,0,-1,1084,687,0,0
-133,337,0,0,0,0,0,0,0,0,0,-1,1091,687,0,0
-126,337,0,0,0,0,0,0,0,0,0,-1,1098,687,0,0
-119,337,0,0,0,0,0,0,0,0,0,-1,1105,687,0,0
-112,337,0,0,0,0,0,0,0,0,0,-1,1112,687,0,0
-105,337,0,0,0,0,0,0,0,0,0,-1,1119,687,0,0
-98,337,0,0,0,0,0,0,0,0,0,-1,1126,687,0,0
-91,337,0,0,0,0,0,0,0,0,0,-1,1133,687,0,0
-84,337,0,0,0,0,0,0,0,0,0,-1,1140,687,0,0
-77,337,0,0,0,0,0,0,0,0,0,-1,1147,687,0,0
-70,337,0,0,0,0,0,0,0,0,0,-1,1154,687,0,0
-63,337,0,0,0,0,0,0,0,0,0,-1,1161,687,0,0
-56,337,0,0,0,0,0,0,0,0,0,-1,1168,687,0,0
-49,337,0,0,0,0,0,0,0,0,0,-1,1175,687,0,0
-42,337,0,0,0,0,0,0,0,0,0,-1,1182,687,0,0
-35,337,0,0,0,0,0,0,0,0,0,-1,1189,687,0,0
-28,337,0,0,0,0,0,0,0,0,0,-1,1196,687,0,0
-21,337,0,0,0,0,0,0,0,0,0,-1,1203,687,0,0
-14,337,0,0,0,0,0,0,0,0,0,-1,1210,687,0,0
-7,337,0,0,0,0,0,0,0,0,0,-1,1217,687,0,0
0,337,0,0,0,0,0,0,0,0,0,-1,1224,687,0,0
7,337,0,0,0,0,0,0,0,0,0,-1,1231,687,0,0
14,337,0,0,0,0,0,0,0,0,0,-1,1238,687,0,0
21,337,0,0,0,0,0,0,0,0,0,-1,1245,687,0,0
28,337,0,0,0,0,0,0,0,0,0,-1,1252,687,0,0
35,337,0,0,0,0,0,0,0,0,0,-1,1259,687,0,0
42,337,0,0,0,0,0,0,0,0,0,-1,1266,687,0,0
49,337,0,0,0,0,0,0,0,0,0,-1,1273,687,0,0
56,337,0,0,0,0,0,0,0,0,0,-1,1280,687,0,0
63,337,0,0,0,0,0,0,0,0,0,-1,1287,687,0,0
70,337,0,0,0,0,0,0,0,0,0,-1,1294,687,0,0
77,337,0,0,0,0,0,0,0,0,0,-1,1301,687,0,0
84,337,0,0,0,0,0,0,0,0,0,-1,1308,687,0,0
91,337,0,0,0,0,0,0,0,0,0,-1,1315,687,0,0
98,337,0,0,0,0,0,0,0,0,0,-1,1322,687,0,0
105,337,0,0,0,0,0,0,0,0,0,-1,1329,687,0,0
112,337,0,0,0,0,0,0,0,0,0,-1,1336,687,0,0
119,337,0,0,0,0,0,0,0,0,0,-1,1343,687,0,0
126,337,0,0,0,0,0,0,0,0,0,-1,1350,687,0,0
133,337,0,0,0,0,0,0,0,0,0,-1,1357,687,0,0
140,337,0,0,0,0,0,0,0,0,0,-1,1364,687,0,0
147,337,0,0,0,0,0,0,0,0,0,-1,1371,687,0,0
154,337,0,0,0,0,0,0,0,0,0,-1,1378,687,0,0
161,337,0,0,0,0,0,0,0,0,0,-1,1385,687,0,0
168,337,0,0,0,0,0,0,0,0,0,-1,1392,687,0,0
175,337,0,0,0,0,0,0,0,0,0,-1,1399,687,0,0
182,337,0,0,0,0,0,0,0,0,0,-1,1406,687,0,0
189,337,0,0,0,0,0,0,0,0,0,-1,1413,687,0,0
196,337,0,0,0,0,0,0,0,0,0,-1,1420,687,0,0
203,337,0,0,0,0,0,0,0,0,0,-1,1427,687,0,0
210,337,0,0,0,0,0,0,0,0,0,-1,1434,687,0,0
217,337,0,0,0,0,0,0,0,0,0,-1,1441,687,0,0
224,337,0,0,0,0,0,0,0,0,0,-1,1448,687,0,0
231,337,0,0,0,0,0,0,0,0,0,-1,1455,687,0,0
238,337,0,0,0,0,0,0,0,0,0,-1,1462,687,0,0
245,337,0,0,0,0,0,0,0,0,0,-1,1469,687,0,0
252,337,0,0,0,0,0,0,0,0,0,-1,1476,687,0,0
259,337,0,0,0,0,0,0,0,0,0,-1,1483,687,0,0
266,337,0,0,0,0,0,0,0,0,0,-1,1490,687,0,0
273,337,0,0,0,0,0,0,0,0,0,-1,1497,687,0,0
280,337,0,0,0,0,0,0,0,0,0,-1,1504,687,0,0
287,337,0,0,0,0,0,0,0,0,0,-1,1511,687,0,0
294,337,0,0,0,0,0,0,0,0,0,-1,1518,687,0,0
301,337,0,0,0,0,0,0,0,0,0,-1,1525,687,0,0
308,337,0,0,0,0,0,0,0,0,0,-1,1532,687,0,0
315,337,0,0,0,0,0,0,0,0,0,-1,1539,687,0,0
322,337,0,0,0,0,0,0,0,0,0,-1,1546,687,0,0
329,337,0,0,0,0,0,0,0,0,0,-1,1553,687,0,0
336,337,0,0,0,0,0,0,0,0,0,-1,1560,687,0,0
343,337,0,0,0,0,0,0,0,0,0,-1,1567,687,0,0
350,337,0,0,0,0,0,0,0,0,0,-1,1574,687,0,0
357,337,0,0,0,0,0,0,0,0,0,-1,1581,687,0,0
364,337,0,0,0,0,0,0,0,0,0,-1,1588,687,0,0
371,337,0,0,0,0,0,0,0,0,0,-1,1595,687,0,0
378,337,0,0,0,0,0,0,0,0,0,-1,1602,687,0,0
385,337,0,0,0,0,0,0,0,0,0,-1,1609,687,0,0
392,337,0,0,0,0,0,0,0,0,0,-1,1616,687,0,0
399,337,0,0,0,0,0,0,0,0,0,-1,1623,687,0,0
406,337,0,0,0,0,0,0,0,0,0,-1,1630,687,0,0
413,337,0,0,0,0,0,0,0,0,0,-1,1637,687,0,0
420,337,0,0,0,0,0,0,0,0,0,-1,1644,687,0,0
427,337,0,0,0,0,0,0,0,0,0,-1,1651,687,0,0
434,337,0,0,0,0,0,0,0,0,0,-1,1658,687,0,0
441,337,0,0,0,0,0,0,0,0,0,-1,1665,687,0,0
448,337,0,0,0,0,0,0,0,0,0,-1,1672,687,0,0
455,337,0,0,0,0,0,0,0,0,0,-1,1679,687,0,0
462,337,0,0,0,0,0,0,0,0,0,-1,1686,687,0,0
469,337,0,0,0,0,0,0,0,0,0,-1,1693,687,0,0
476,337,0,0,0,0,0,0,0,0,0,-1,1700,687,0,0
483,337,0,0,0,0,0,0,0,0,0,-1,1707,687,0,0
490,337,0,0,0,0,0,0,0,0,0,-1,1714,687,0,0
497,337,0,0,0,0,0,0,0,0,0,-1,1721,687,0,0
504,337,0,0,0,0,0,0,0,0,0,-1,1728,687,0,0
511,337,0,0,0,0,0,0,0,0,0,-1,1735,687,0,0
518,337,18.0369,1.64581,0,0,0,0,0,0,0,-1,1742,687,18.0368,-1.64581
525,337,31.0717,2.13745,0,0,0,0,0,0,0,-1,1749,687,31.0717,-2.13747
532,337,31.5126,2.13904,0,0,0,0,0,0,0,-1,1756,687,31.5125,-2.13905
539,337,31.9684,2.15594,0,0,0,0,0,0,0,-1,1763,687,31.9684,-2.15596
546,337,32.3584,1.43719,0,0,0,0,0,0,0,-1,1770,687,32.3585,-1.43722
553,337,32.1809,1.36395,0,0,0,0,0,0,0,-1,1777,687,32.181,-1.36396
560,337,18.4053,3.62793,0,0,0,0,0,0,0,-1,1784,687,18.4052,-3.6279
567,337,11.9288,1.38776,0,0,0,0,0,0,0,-1,1791,687,11.9288,-1.38777
574,337,10.704,1.19476,0,0,0,0,0,0,0,-1,1798,687,10.704,-1.19478
581,337,8.50427,0.561768,0,0,0,0,0,0,0,-1,1805,687,8.5043,-0.561754
588,337,8.5885,-0.0536499,0,0,0,0,0,0,0,-1,1812,687,8.58844,0.0536788
595,337,13.8816,-1.70703,0,0,0,0,0,0,0,-1,1819,687,13.8816,1.70702
602,337,19.9507,-4.15979,0,0,0,0,0,0,0,-1,1826,687,19.9507,4.15978
609,337,19.9598,-3.64789,0.00273151,0.000275084,0.00212252,0.00395556,-0.000948965,0.523108,0.00300375,0.0279544,1833,687,19.9598,3.6479
616,337,19.9507,-3.172,0.00228227,0.000799079,0.00132925,0.0030628,1.85439e-05,0.530953,0.00203572,0.0176933,1840,687,19.9507,3.17199
623,337,19.9519,-2.71088,0.00167468,0.000682615,0.000960801,0.00225994,9.73588e-05,0.547108,0.00147525,0.0152529,1847,687,19.952,2.71088
630,337,19.9821,-2.25934,0.000893862,0.000465216,0.000588728,0.00130606,5.30126e-05,0.610833,0.000853588,0.0190549,1854,687,19.9821,2.25933
637,337,19.9983,-1.79169,-0.000206476,0.000118756,0.000123451,0.000160307,-0.000248027,1.24613,0.000237558,0.0171788,1861,687,19.9983,1.79168
644,337,19.9424,-1.32361,-0.00174101,-5.3332e-05,-0.000483283,7.52624e-05,-0.00186961,-1.31074,0.00127224,0.011542,1868,687,19.9424,1.32361
651,337,19.9025,-0.884094,-0.0034997,-0.000318758,-0.00113698,4.58476e-05,-0.00386431,-1.26048,0.00259162,0.0105284,1875,687,19.9024,0.884119
658,337,19.8923,-0.415222,-0.00567857,-0.000640962,-0.00193357,1.5616e-05,-0.00633514,-1.24344,0.00422864,0.0124004,1882,687,19.8923,0.415196
665,337,19.9054,0.0355225,-0.00837122,-0.0010158,-0.00288617,-1.85175e-05,-0.0093685,-1.2381,0.0062395,0.0149017,1889,687,19.9054,-0.0355159
672,337,19.9022,0.454895,-0.0117395,-0.00144398,-0.00408149,-2.22684e-05,-0.0131613,-1.23561,0.00876676,0.0270111,1896,687,19.9023,-0.454891
679,337,20.134,0.834839,0,0,0,0,0,0,0,-1,1903,687,20.134,-0.83483
686,337,18.5614,1.68597,0,0,0,0,0,0,0,-1,1910,687,18.5614,-1.68598
693,337,16.5415,2.21411,0,0,0,0,0,0,0,-1,1917,687,16.5415,-2.2141
700,337,17.2661,2.44379,0,0,0,0,0,0,0,-1,1924,687,17.2661,-2.44378
707,337,17.3544,5.61853,0,0,0,0,0,0,0,-1,1931,687,17.3543,-5.61851
714,337,0,0,0,0,0,0,0,0,0,-1,1938,687,0,0
721,337,0,0,0,0,0,0,0,0,0,-1,1945,687,0,0
728,337,0,0,0,0,0,0,0,0,0,-1,1952,687,0,0
735,337,0,0,0,0,0,0,0,0,0,-1,1959,687,0,0
742,337,0,0,0,0,0,0,0,0,0,-1,1966,687,0,0
749,337,0,0,0,0,0,0,0,0,0,-1,1973,687,0,0
756,337,0,0,0,0,0,0,0,0,0,-1,1980,687,0,0
763,337,0,0,0,0,0,0,0,0,0,-1,1987,687,0,0
770,337,0,0,0,0,0,0,0,0,0,-1,1994,687,0,0
777,337,0,0,0,0,0,0,0,0,0,-1,2001,687,0,0
784,337,0,0,0,0,0,0,0,0,0,-1,2008,687,0,0
791,337,0,0,0,0,0,0,0,0,0,-1,2015,687,0,0
798,337,0,0,0,0,0,0,0,0,0,-1,2022,687,0,0
805,337,0,0,0,0,0,0,0,0,0,-1,2029,687,0,0
812,337,0,0,0,0,0,0,0,0,0,-1,2036,687,0,0
-700,330,0,0,0,0,0,0,0,0,0,-1,524,694,0,0
-693,330,0,0,0,0,0,0,0,0,0,-1,531,694,0,0
-686,330,0,0,0,0,0,0,0,0,0,-1,538,694,0,0
-679,330,0,0,0,0,0,0,0,0,0,-1,545,694,0,0
-672,330,0,0,0,0,0,0,0,0,0,-1,552,694,0,0
-665,330,0,0,0,0,0,0,0,0,0,-1,559,694,0,0
-658,330,0,0,0,0,0,0,0,0,0,-1,566,694,0,0
-651,330,0,0,0,0,0,0,0,0,0,-1,573,694,0,0
-644,330,0,0,0,0,0,0,0,0,0,-1,580,694,0,0
-637,330,0,0,0,0,0,0,0,0,0,-1,587,694,0,0
-630,330,0,0,0,0,0,0,0,0,0,-1,594,694,0,0
-623,330,0,0,0,0,0,0,0,0,0,-1,601,694,0,0
-616,330,0,0,0,0,0,0,0,0,0,-1,608,694,0,0
-609,330,0,0,0,0,0,0,0,0,0,-1,615,694,0,0
-602,330,0,0,0,0,0,0,0,0,0,-1,622,694,0,0
-595,330,-4.67883,1.65515,0,0,0,0,0,0,0,-1,629,694,-4.67881,-1.65515
-588,330,-8.5047,2.67346,0,0,0,0,0,0,0,-1,636,694,-8.50469,-2.67348
-581,330,-12.4227,0.947083,0,0,0,0,0,0,0,-1,643,694,-12.4227,-0.947109
-574,330,-9.02118,1.87952,0,0,0,0,0,0,0,-1,650,694,-9.02115,-1.87953
-567,330,-8.35577,0.909973,0,0,0,0,0,0,0,-1,657,694,-8.35575,-0.909945
-560,330,-11.9179,-0.0847168,0,0,0,0,0,0,0,-1,664,694,-11.9179,0.0847426
-553,330,-11.8149,-0.747192,0,0,0,0,0,0,0,-1,671,694,-11.8149,0.747218
-546,330,-11.7816,-1.33136,0.00304296,0.013717,-0.0103225,0.0200005,-0.00324059,-1.02399,0.0145348,0.0336796,678,694,-11.7816,1.33139
-539,330,-11.8137,-1.91272,0.00246902,0.0104998,-0.00775662,0.0152187,-0.00224992,-1.02424,0.010973,0.0165245,685,694,-11.8137,1.91269
-532,330,-11.9703,-2.34821,0.00198503,0.0077277,-0.0055999,0.0111495,-0.00143676,-1.02229,0.00795528,0.0123111,692,694,-11.9703,2.34821
-525,330,-11.9575,-2.83301,0.00158232,0.005346,-0.0037652,0.00767345,-0.000745118,-1.01714,0.00538123,0.0106974,699,694,-11.9575,2.83301
-518,330,-11.9403,-3.22876,0.00129875,0.00341657,-0.00230128,0.00489088,-0.000175559,-1.00102,0.00332065,0.0141009,706,694,-11.9403,3.22874
-511,330,-11.9703,-3.63519,0.00120246,0.00192029,-0.00118633,0.00280081,0.000321943,-0.932292,0.00176968,0.0195323,713,694,-11.9703,3.63518
-504,330,-11.953,-4.08484,0.00160174,0.000672552,-0.00018271,0.00163637,0.000637916,-0.187345,0.000952374,0.019173,720,694,-11.953,4.08484
-497,330,-11.9692,-4.53021,0.00293278,-0.000442666,0.000814161,0.0031189,-0.00062878,0.224735,0.00231747,0.0138425,727,694,-11.9692,4.53019
-490,330,-11.9564,-4.99023,0.00484845,-0.00133467,0.00168362,0.00527717,-0.00176338,0.249339,0.00423024,0.0126394,734,694,-11.9564,4.99026
-483,330,-11.9571,-5.43237,0.00793533,-0.00207196,0.00264197,0.00858999,-0.00272662,0.242902,0.00681971,0.0135322,741,694,-11.9571,5.43238
-476,330,-11.9763,-5.85016,0.0121497,-0.00322482,0.0041154,0.013182,-0.0042571,0.245764,0.0104988,0.0348396,748,694,-11.9763,5.85019
-469,330,-11.7907,-6.44769,0,0,0,0,0,0,0,-1,755,694,-11.7907,6.44771
-462,330,-7.26733,-3.84833,0,0,0,0,0,0,0,-1,762,694,-7.26731,3.84832
-455,330,-5.04254,-1.79303,0,0,0,0,0,0,0,-1,769,694,-5.04252,1.79305
-448,330,-4.89886,-1.66156,0,0,0,0,0,0,0,-1,776,694,-4.89886,1.66157
-441,330,-5.30676,-2.34045,0,0,0,0,0,0,0,-1,783,694,-5.30679,2.34048
-434,330,-7.20428,1.00024,0,0,0,0,0,0,0,-1,790,694,-7.20431,-1.00027
-427,330,-16.0428,2.89258,0,0,0,0,0,0,0,-1,797,694,-16.0428,-2.89259
-420,330,-15.2923,3.32672,0,0,0,0,0,0,0,-1,804,694,-15.2923,-3.32675
-413,330,-10.4567,2.56183,0,0,0,0,0,0,0,-1,811,694,-10.4567,-2.56182
-406,330,-1.65375,-1.74371,0,0,0,0,0,0,0,-1,818,694,-1.65375,1.74371
-399,330,0,0,0,0,0,0,0,0,0,-1,825,694,0,0
-392,330,0,0,0,0,0,0,0,0,0,-1,832,694,0,0
-385,330,0,0,0,0,0,0,0,0,0,-1,839,694,0,0
-378,330,0,0,0,0,0,0,0,0,0,-1,846,694,0,0
-371,330,0,0,0,0,0,0,0,0,0,-1,853,694,0,0
-364,330,0,0,0,0,0,0,0,0,0,-1,860,694,0,0
-357,330,0,0,0,0,0,0,0,0,0,-1,867,694,0,0
-350,330,0,0,0,0,0,0,0,0,0,-1,874,694,0,0
-343,330,0,0,0,0,0,0,0,0,0,-1,881,694,0,0
-336,330,0,0,0,0,0,0,0,0,0,-1,888,694,0,0
-329,330,0,0,0,0,0,0,0,0,0,-1,895,694,0,0
-322,330,0,0,0,0,0,0,0,0,0,-1,902,694,0,0
-315,330,0,0,0,0,0,0,0,0,0,-1,909,694,0,0
-308,330,0,0,0,0,0,0,0,0,0,-1,916,694,0,0
-301,330,0,0,0,0,0,0,0,0,0,-1,923,694,0,0
-294,330,0,0,0,0,0,0,0,0,0,-1,930,694,0,0
-287,330,0,0,0,0,0,0,0,0,0,-1,937,694,0,0
-280,330,0,0,0,0,0,0,0,0,0,-1,944,694,0,0
-273,330,0,0,0,0,0,0,0,0,0,-1,951,694,0,0
-266,330,0,0,0,0,0,0,0,0,0,-1,958,694,0,0
-259,330,0,0,0,0,0,0,0,0,0,-1,965,694,0,0
-252,330,0,0,0,0,0,0,0,0,0,-1,972,694,0,0
-245,330,0,0,0,0,0,0,0,0,0,-1,979,694,0,0
-238,330,0,0,0,0,0,0,0,0,0,-1,986,694,0,0
-231,330,0,0,0,0,0,0,0,0,0,-1,993,694,0,0
-224,330,0,0,0,0,0,0,0,0,0,-1,1000,694,0,0
-217,330,0,0,0,0,0,0,0,0,0,-1,1007,694,0,0
-210,330,0,0,0,0,0,0,0,0,0,-1,1014,694,0,0
-203,330,0,0,0,0,0,0,0,0,0,-1,1021,694,0,0
-196,330,0,0,0,0,0,0,0,0,0,-1,1028,694,0,0
-189,330,0,0,0,0,0,0,0,0,0,-1,1035,694,0,0
-182,330,0,0,0,0,0,0,0,0,0,-1,1042,694,0,0
-175,330,0,0,0,0,0,0,0,0,0,-1,1049,694,0,0
-168,330,0,0,0,0,0,0,0,0,0,-1,1056,694,0,0
-161,330,0,0,0,0,0,0,0,0,0,-1,1063,694,0,0
-154,330,0,0,0,0,0,0,0,0,0,-1,1070,694,0,0
-147,330,0,0,0,0,0,0,0,0,0,-1,1077,694,0,0
-140,330,0,0,0,0,0,0,0,0,0,-1,1084,694,0,0
-133,330,0,0,0,0,0,0,0,0,0,-1,1091,694,0,0
-126,330,0,0,0,0,0,0,0,0,0,-1,1098,694,0,0
-119,330,0,0,0,0,0,0,0,0,0,-1,1105,694,0,0
-112,330,0,0,0,0,0,0,0,0,0,-1,1112,694,0,0
-105,330,0,0,0,0,0,0,0,0,0,-1,1119,694,0,0
-98,330,0,0,0,0,0,0,0,0,0,-1,1126,694,0,0
-91,330,0,0,0,0,0,0,0,0,0,-1,1133,694,0,0
-84,330,0,0,0,0,0,0,0,0,0,-1,1140,694,0,0
-77,330,0,0,0,0,0,0,0,0,0,-1,1147,694,0,0
-70,330,0,0,0,0,0,0,0,0,0,-1,1154,694,0,0
-63,330,0,0,0,0,0,0,0,0,0,-1,1161,694,0,0
-56,330,0,0,0,0,0,0,0,0,0,-1,1168,694,0,0
-49,330,0,0,0,0,0,0,0,0,0,-1,1175,694,0,0
-42,330,0,0,0,0,0,0,0,0,0,-1,1182,694,0,0
-35,330,0,0,0,0,0,0,0,0,0,-1,1189,694,0,0
-28,330,0,0,0,0,0,0,0,0,0,-1,1196,694,0,0
-21,330,0,0,0,0,0,0,0,0,0,-1,1203,694,0,0
-14,330,0,0,0,0,0,0,0,0,0,-1,1210,694,0,0
-7,330,0,0,0,0,0,0,0,0,0,-1,1217,694,0,0
0,330,0,0,0,0,0,0,0,0,0,-1,1224,694,0,0
7,330,0,0,0,0,0,0,0,0,0,-1,1231,694,0,0
14,330,0,0,0,0,0,0,0,0,0,-1,1238,694,0,0
21,330,0,0,0,0,0,0,0,0,0,-1,1245,694,0,0
28,330,0,0,0,0,0,0,0,0,0,-1,1252,694,0,0
35,330,0,0,0,0,0,0,0,0,0,-1,1259,694,0,0
42,330,0,0,0,0,0,0,0,0,0,-1,1266,694,0,0
49,330,0,0,0,0,0,0,0,0,0,-1,1273,694,0,0
56,330,0,0,0,0,0,0,0,0,0,-1,1280,694,0,0
63,330,0,0,0,0,0,0,0,0,0,-1,1287,694,0,0
70,330,0,0,0,0,0,0,0,0,0,-1,1294,694,0,0
77,330,0,0,0,0,0,0,0,0,0,-1,1301,694,0,0
84,330,0,0,0,0,0,0,0,0,0,-1,1308,694,0,0
91,330,0,0,0,0,0,0,0,0,0,-1,1315,694,0,0
98,330,0,0,0,0,0,0,0,0,0,-1,1322,694,0,0
105,330,0,0,0,0,0,0,0,0,0,-1,1329,694,0,0
112,330,0,0,0,0,0,0,0,0,0,-1,1336,694,0,0
119,330,0,0,0,0,0,0,0,0,0,-1,1343,694,0,0
126,330,0,0,0,0,0,0,0,0,0,-1,1350,694,0,0
133,330,0,0,0,0,0,0,0,0,0,-1,1357,694,0,0
140,330,0,0,0,0,0,0,0,0,0,-1,1364,694,0,0
147,330,0,0,0,0,0,0,0,0,0,-1,1371,694,0,0
154,330,0,0,0,0,0,0,0,0,0,-1,1378,694,0,0
161,330,0,0,0,0,0,0,0,0,0,-1,1385,694,0,0
168,330,0,0,0,0,0,0,0,0,0,-1,1392,694,0,0
175,330,0,0,0,0,0,0,0,0,0,-1,1399,694,0,0
182,330,0,0,0,0,0,0,0,0,0,-1,1406,694,0,0
189,330,0,0,0,0,0,0,0,0,0,-1,1413,694,0,0
196,330,0,0,0,0,0,0,0,0,0,-1,1420,694,0,0
203,330,0,0,0,0,0,0,0,0,0,-1,1427,694,0,0
210,330,0,0,0,0,0,0,0,0,0,-1,1434,694,0,0
217,330,0,0,0,0,0,0,0,0,0,-1,1441,694,0,0
224,330,0,0,0,0,0,0,0,0,0,-1,1448,694,0,0
231,330,0,0,0,0,0,0,0,0,0,-1,1455,694,0,0
238,330,0,0,0,0,0,0,0,0,0,-1,1462,694,0,0
245,330,0,0,0,0,0,0,0,0,0,-1,1469,694,0,0
252,330,0,0,0,0,0,0,0,0,0,-1,1476,694,0,0
259,330,0,0,0,0,0,0,0,0,0,-1,1483,694,0,0
266,330,0,0,0,0,0,0,0,0,0,-1,1490,694,0,0
273,330,0,0,0,0,0,0,0,0,0,-1,1497,694,0,0
280,330,0,0,0,0,0,0,0,0,0,-1,1504,694,0,0
287,330,0,0,0,0,0,0,0,0,0,-1,1511,694,0,0
294,330,0,0,0,0,0,0,0,0,0,-1,1518,694,0,0
301,330,0,0,0,0,0,0,0,0,0,-1,1525,694,0,0
308,330,0,0,0,0,0,0,0,0,0,-1,1532,694,0,0
315,330,0,0,0,0,0,0,0,0,0,-1,1539,694,0,0
322,330,0,0,0,0,0,0,0,0,0,-1,1546,694,0,0
329,330,0,0,0,0,0,0,0,0,0,-1,1553,694,0,0
336,330,0,0,0,0,0,0,0,0,0,-1,1560,694,0,0
343,330,0,0,0,0,0,0,0,0,0,-1,1567,694,0,0
350,330,0,0,0,0,0,0,0,0,0,-1,1574,694,0,0
357,330,0,0,0,0,0,0,0,0,0,-1,1581,694,0,0
364,330,0,0,0,0,0,0,0,0,0,-1,1588,694,0,0
371,330,0,0,0,0,0,0,0,0,0,-1,1595,694,0,0
378,330,0,0,0,0,0,0,0,0,0,-1,1602,694,0,0
385,330,0,0,0,0,0,0,0,0,0,-1,1609,694,0,0
392,330,0,0,0,0,0,0,0,0,0,-1,1616,694,0,0
399,330,0,0,0,0,0,0,0,0,0,-1,1623,694,0,0
406,330,0,0,0,0,0,0,0,0,0,-1,1630,694,0,0
413,330,0,0,0,0,0,0,0,0,0,-1,1637,694,0,0
420,330,0,0,0,0,0,0,0,0,0,-1,1644,694,0,0
427,330,0,0,0,0,0,0,0,0,0,-1,1651,694,0,0
434,330,0,0,0,0,0,0,0,0,0,-1,1658,694,0,0
441,330,0,0,0,0,0,0,0,0,0,-1,1665,694,0,0
448,330,0,0,0,0,0,0,0,0,0,-1,1672,694,0,0
455,330,0,0,0,0,0,0,0,0,0,-1,1679,694,0,0
462,330,0,0,0,0,0,0,0,0,0,-1,1686,694,0,0
469,330,0,0,0,0,0,0,0,0,0,-1,1693,694,0,0
476,330,0,0,0,0,0,0,0,0,0,-1,1700,694,0,0
483,330,0,0,0,0,0,0,0,0,0,-1,1707,694,0,0
490,330,0,0,0,0,0,0,0,0,0,-1,1714,694,0,0
497,330,0,0,0,0,0,0,0,0,0,-1,1721,694,0,0
504,330,0,0,0,0,0,0,0,0,0,-1,1728,694,0,0
511,330,0,0,0,0,0,0,0,0,0,-1,1735,694,0,0
518,330,0,0,0,0,0,0,0,0,0,-1,1742,694,0,0
525,330,30.6694,0.69519,0,0,0,0,0,0,0,-1,1749,694,30.6694,-0.695206
532,330,30.9469,1.32501,0,0,0,0,0,0,0,-1,1756,694,30.9469,-1.32501
539,330,31.5155,1.62506,0,0,0,0,0,0,0,-1,1763,694,31.5155,-1.62507
546,330,31.4187,1.85651,0,0,0,0,0,0,0,-1,1770,694,31.4187,-1.85651
553,330,31.8452,1.81476,0,0,0,0,0,0,0,-1,1777,694,31.8452,-1.81475
560,330,32.2401,2.43225,0,0,0,0,0,0,0,-1,1784,694,32.2401,-2.43227
567,330,18.0321,3.98578,0,0,0,0,0,0,0,-1,1791,694,18.0321,-3.98576
574,330,12.0454,2.1662,0,0,0,0,0,0,0,-1,1798,694,12.0455,-2.16618
581,330,11.4215,4.50836,0,0,0,0,0,0,0,-1,1805,694,11.4215,-4.50837
588,330,6.45667,-0.0630493,0,0,0,0,0,0,0,-1,1812,694,6.45661,0.0630695
595,330,8.23193,-0.258484,0,0,0,0,0,0,0,-1,1819,694,8.23188,0.258459
602,330,20.0702,-4.32867,0,0,0,0,0,0,0,-1,1826,694,20.0702,4.3287
609,330,20.3134,-3.67712,0.00355,-0.000331543,0.00373452,0.00581794,-0.00259948,0.545762,0.0049768,0.0444606,1833,694,20.3134,3.67714
616,330,20.4177,-3.15948,0.00282375,0.000450227,0.00213053,0.00407575,-0.000801777,0.531288,0.00302011,0.0116924,1840,694,20.4177,3.1595
623,330,20.4122,-2.69873,0.00211804,0.000481325,0.00140842,0.0029286,-0.000329231,0.522215,0.00207088,0.0133269,1847,694,20.4123,2.69875
630,330,20.4205,-2.23438,0.00126676,0.000253287,0.000814627,0.0017194,-0.00019935,0.507161,0.00121817,0.0138484,1854,694,20.4205,2.23439
637,330,20.4305,-1.763,0.000151576,-3.58981e-05,0.000233803,0.000309733,-0.000194055,0.594747,0.000293407,0.0130024,1861,694,20.4306,1.76301
644,330,20.3856,-1.29657,-0.00134397,-0.000154872,-0.000382216,-4.26129e-05,-0.00145623,-1.28512,0.000956931,0.00858864,1868,694,20.3857,1.29656
651,330,20.3638,-0.85022,-0.00299629,-0.000295389,-0.000944291,2.00828e-06,-0.00329369,-1.26569,0.00219646,0.0118707,1875,694,20.3638,0.85021
658,330,20.3459,-0.397034,-0.00495521,-0.000451315,-0.00158391,4.99231e-05,-0.00545645,-1.26431,0.00365439,0.0127606,1882,694,20.3459,0.397051
665,330,20.3324,0.069519,-0.00734733,-0.000599191,-0.002349,0.000137962,-0.00808448,-1.26671,0.00543623,0.0111428,1889,694,20.3324,-0.0694911
672,330,20.3705,0.534668,-0.0102543,-0.000711946,-0.00325526,0.000292766,-0.011259,-1.27143,0.00760546,0.0200958,1896,694,20.3704,-0.534683
679,330,20.1184,0.953552,-0.0140226,-0.000791327,-0.00442826,0.000553951,-0.0153678,-1.27586,0.0104348,0.0350704,1903,694,20.1184,-0.953556
686,330,20.0283,1.55176,0,0,0,0,0,0,0,-1,1910,694,20.0283,-1.55178
693,330,17.3999,2.5976,0,0,0,0,0,0,0,-1,1917,694,17.4,-2.59759
700,330,17.1072,4.13,0,0,0,0,0,0,0,-1,1924,694,17.1071,-4.13002
707,330,16.663,4.88672,0,0,0,0,0,0,0,-1,1931,694,16.6629,-4.88673
714,330,16.5454,5.80896,0,0,0,0,0,0,0,-1,1938,694,16.5454,-5.80899
721,330,0,0,0,0,0,0,0,0,0,-1,1945,694,0,0
728,330,0,0,0,0,0,0,0,0,0,-1,1952,694,0,0
735,330,0,0,0,0,0,0,0,0,0,-1,1959,694,0,0
742,330,0,0,0,0,0,0,0,0,0,-1,1966,694,0,0
749,330,0,0,0,0,0,0,0,0,0,-1,1973,694,0,0
756,330,0,0,0,0,0,0,0,0,0,-1,1980,694,0,0
763,330,0,0,0,0,0,0,0,0,0,-1,1987,694,0,0
770,330,0,0,0,0,0,0,0,0,0,-1,1994,694,0,0
777,330,0,0,0,0,0,0,0,0,0,-1,2001,694,0,0
784,330,0,0,0,0,0,0,0,0,0,-1,2008,694,0,0
791,330,0,0,0,0,0,0,0,0,0,-1,2015,694,0,0
798,330,0,0,0,0,0,0,0,0,0,-1,2022,694,0,0
805,330,0,0,0,0,0,0,0,0,0,-1,2029,694,0,0
812,330,0,0,0,0,0,0,0,0,0,-1,2036,694,0,0
-700,323,0,0,0,0,0,0,0,0,0,-1,524,701,0,0
-693,323,0,0,0,0,0,0,0,0,0,-1,531,701,0,0
-686,323,0,0,0,0,0,0,0,0,0,-1,538,701,0,0
-679,323,0,0,0,0,0,0,0,0,0,-1,545,701,0,0
-672,323,0,0,0,0,0,0,0,0,0,-1,552,701,0,0
-665,323,0,0,0,0,0,0,0,0,0,-1,559,701,0,0
-658,323,0,0,0,0,0,0,0,0,0,-1,566,701,0,0
-651,323,0,0,0,0,0,0,0,0,0,-1,573,701,0,0
-644,323,0,0,0,0,0,0,0,0,0,-1,580,701,0,0
-637,323,0,0,0,0,0,0,0,0,0,-1,587,701,0,0
-630,323,0,0,0,0,0,0,0,0,0,-1,594,701,0,0
-623,323,0,0,0,0,0,0,0,0,0,-1,601,701,0,0
-616,323,0,0,0,0,0,0,0,0,0,-1,608,701,0,0
-609,323,0,0,0,0,0,0,0,0,0,-1,615,701,0,0
-602,323,-4.15833,2.12256,0,0,0,0,0,0,0,-1,622,701,-4.1583,-2.12257
-595,323,-4.052,1.79156,0,0,0,0,0,0,0,-1,629,701,-4.05198,-1.79158
-588,323,-4.07019,1.94543,0,0,0,0,0,0,0,-1,636,701,-4.07019,-1.94542
-581,323,-6.63727,0.562805,0,0,0,0,0,0,0,-1,643,701,-6.63728,-0.56279
-574,323,-6.15887,0.426697,0,0,0,0,0,0,0,-1,650,701,-6.15887,-0.426727
-567,323,-10.0015,0.0371094,0,0,0,0,0,0,0,-1,657,701,-10.0015,-0.037126
-560,323,-12.4911,-0.699524,0,0,0,0,0,0,0,-1,664,701,-12.4911,0.699498
-553,323,-12.346,-1.14252,0.00183117,0.0131163,-0.00932797,0.0183755,-0.00342809,-1.05741,0.0135385,0.0417667,671,701,-12.346,1.14251
-546,323,-12.329,-1.48431,0.00174532,0.0104779,-0.00737384,0.0146812,-0.00245799,-1.0527,0.0107013,0.0172915,678,701,-12.329,1.48434
-539,323,-12.3334,-1.86493,0.00160681,0.00811902,-0.00564718,0.0113816,-0.00165574,-1.04691,0.00819557,0.0152219,685,701,-12.3334,1.86495
-532,323,-12.3739,-2.34668,0.00144685,0.00597354,-0.0041103,0.00840245,-0.000982073,-1.03707,0.00595604,0.0102798,692,701,-12.3739,2.34668
-525,323,-12.3991,-2.80853,0.00126754,0.00407025,-0.00273855,0.00574516,-0.000407376,-1.02189,0.00397287,0.00788006,699,701,-12.3991,2.80853
-518,323,-12.3864,-3.20654,0.00115316,0.00248047,-0.00160888,0.0035572,7.64371e-05,-0.981014,0.0023464,0.00958893,706,701,-12.3863,3.20655
-511,323,-12.3964,-3.62628,0.00134251,0.00113234,-0.000625074,0.00187127,0.000603583,-0.702119,0.00110283,0.0128931,713,701,-12.3964,3.62626
-504,323,-12.413,-4.05658,0.00246978,-0.000159876,0.000527714,0.00257173,-0.000261824,0.190837,0.00180809,0.0144298,720,701,-12.4129,4.05657
-497,323,-12.4117,-4.48944,0.00507621,-0.00152164,0.0019835,0.00562659,-0.00207203,0.270672,0.00460002,0.0118861,727,701,-12.4117,4.48944
-490,323,-12.4136,-4.94098,0.00855039,-0.00274989,0.00346793,0.00952978,-0.00372928,0.275244,0.00789552,0.0125651,734,701,-12.4136,4.941
-483,323,-12.4184,-5.38544,0.0137198,-0.0040753,0.00536629,0.0152128,-0.0055683,0.271355,0.0124212,0.0231256,741,701,-12.4184,5.38541
-476,323,-12.2962,-5.95923,0,0,0,0,0,0,0,-1,748,701,-12.2962,5.95922
-469,323,-8.33301,-3.64001,0,0,0,0,0,0,0,-1,755,701,-8.33298,3.64
-462,323,-5.29431,-1.45697,0,0,0,0,0,0,0,-1,762,701,-5.29431,1.45699
-455,323,-5.0658,-1.36639,0,0,0,0,0,0,0,-1,769,701,-5.06578,1.3664
-448,323,-4.91608,-1.59601,0,0,0,0,0,0,0,-1,776,701,-4.91606,1.59604
-441,323,-14.4006,0.535217,0,0,0,0,0,0,0,-1,783,701,-14.4006,-0.535203
-434,323,-15.3158,2.479,0,0,0,0,0,0,0,-1,790,701,-15.3158,-2.47898
-427,323,-15.4075,2.98248,0,0,0,0,0,0,0,-1,797,701,-15.4075,-2.98248
-420,323,-14.8839,3.49579,0,0,0,0,0,0,0,-1,804,701,-14.8839,-3.49579
-413,323,-14.0645,4.22607,0,0,0,0,0,0,0,-1,811,701,-14.0645,-4.22605
-406,323,0,0,0,0,0,0,0,0,0,-1,818,701,0,0
-399,323,0,0,0,0,0,0,0,0,0,-1,825,701,0,0
-392,323,0,0,0,0,0,0,0,0,0,-1,832,701,0,0
-385,323,0,0,0,0,0,0,0,0,0,-1,839,701,0,0
-378,323,0,0,0,0,0,0,0,0,0,-1,846,701,0,0
-371,323,0,0,0,0,0,0,0,0,0,-1,853,701,0,0
-364,323,0,0,0,0,0,0,0,0,0,-1,860,701,0,0
-357,323,0,0,0,0,0,0,0,0,0,-1,867,701,0,0
-350,323,0,0,0,0,0,0,0,0,0,-1,874,701,0,0
-343,323,0,0,0,0,0,0,0,0,0,-1,881,701,0,0
-336,323,0,0,0,0,0,0,0,0,0,-1,888,701,0,0
-329,323,0,0,0,0,0,0,0,0,0,-1,895,701,0,0
-322,323,0,0,0,0,0,0,0,0,0,-1,902,701,0,0
-315,323,0,0,0,0,0,0,0,0,0,-1,909,701,0,0
-308,323,0,0,0,0,0,0,0,0,0,-1,916,701,0,0
-301,323,0,0,0,0,0,0,0,0,0,-1,923,701,0,0
-294,323,0,0,0,0,0,0,0,0,0,-1,930,701,0,0
-287,323,0,0,0,0,0,0,0,0,0,-1,937,701,0,0
-280,323,0,0,0,0,0,0,0,0,0,-1,944,701,0,0
-273,323,0,0,0,0,0,0,0,0,0,-1,951,701,0,0
-266,323,0,0,0,0,0,0,0,0,0,-1,958,701,0,0
-259,323,0,0,0,0,0,0,0,0,0,-1,965,701,0,0
-252,323,0,0,0,0,0,0,0,0,0,-1,972,701,0,0
-245,323,0,0,0,0,0,0,0,0,0,-1,979,701,0,0
-238,323,0,0,0,0,0,0,0,0,0,-1,986,701,0,0
-231,323,0,0,0,0,0,0,0,0,0,-1,993,701,0,0
-224,323,0,0,0,0,0,0,0,0,0,-1,1000,701,0,0
-217,323,0,0,0,0,0,0,0,0,0,-1,1007,701,0,0
-210,323,0,0,0,0,0,0,0,0,0,-1,1014,701,0,0
-203,323,0,0,0,0,0,0,0,0,0,-1,1021,701,0,0
-196,323,0,0,0,0,0,0,0,0,0,-1,1028,701,0,0
-189,323,0,0,0,0,0,0,0,0,0,-1,1035,701,0,0
-182,323,0,0,0,0,0,0,0,0,0,-1,1042,701,0,0
-175,323,0,0,0,0,0,0,0,0,0,-1,1049,701,0,0
-168,323,0,0,0,0,0,0,0,0,0,-1,1056,701,0,0
-161,323,0,0,0,0,0,0,0,0,0,-1,1063,701,0,0
-154,323,0,0,0,0,0,0,0,0,0,-1,1070,701,0,0
-147,323,0,0,0,0,0,0,0,0,0,-1,1077,701,0,0
-140,323,0,0,0,0,0,0,0,0,0,-1,1084,701,0,0
-133,323,0,0,0,0,0,0,0,0,0,-1,1091,701,0,0
-126,323,0,0,0,0,0,0,0,0,0,-1,1098,701,0,0
-119,323,0,0,0,0,0,0,0,0,0,-1,1105,701,0,0
-112,323,0,0,0,0,0,0,0,0,0,-1,1112,701,0,0
-105,323,0,0,0,0,0,0,0,0,0,-1,1119,701,0,0
-98,323,0,0,0,0,0,0,0,0,0,-1,1126,701,0,0
-91,323,0,0,0,0,0,0,0,0,0,-1,1133,701,0,0
-84,323,0,0,0,0,0,0,0,0,0,-1,1140,701,0,0
-77,323,0,0,0,0,0,0,0,0,0,-1,1147,701,0,0
-70,323,0,0,0,0,0,0,0,0,0,-1,1154,701,0,0
-63,323,0,0,0,0,0,0,0,0,0,-1,1161,701,0,0
-56,323,0,0,0,0,0,0,0,0,0,-1,1168,701,0,0
-49,323,0,0,0,0,0,0,0,0,0,-1,1175,701,0,0
-42,323,0,0,0,0,0,0,0,0,0,-1,1182,701,0,0
-35,323,0,0,0,0,0,0,0,0,0,-1,1189,701,0,0
-28,323,0,0,0,0,0,0,0,0,0,-1,1196,701,0,0
-21,323,0,0,0,0,0,0,0,0,0,-1,1203,701,0,0
-14,323,0,0,0,0,0,0,0,0,0,-1,1210,701,0,0
-7,323,0,0,0,0,0,0,0,0,0,-1,1217,701,0,0
0,323,0,0,0,0,0,0,0,0,0,-1,1224,701,0,0
7,323,0,0,0,0,0,0,0,0,0,-1,1231,701,0,0
14,323,0,0,0,0,0,0,0,0,0,-1,1238,701,0,0
21,323,0,0,0,0,0,0,0,0,0,-1,1245,701,0,0
28,323,0,0,0,0,0,0,0,0,0,-1,1252,701,0,0
35,323,0,0,0,0,0,0,0,0,0,-1,1259,701,0,0
42,323,0,0,0,0,0,0,0,0,0,-1,1266,701,0,0
49,323,0,0,0,0,0,0,0,0,0,-1,1273,701,0,0
56,323,0,0,0,0,0,0,0,0,0,-1,1280,701,0,0
63,323,0,0,0,0,0,0,0,0,0,-1,1287,701,0,0
70,323,0,0,0,0,0,0,0,0,0,-1,1294,701,0,0
77,323,0,0,0,0,0,0,0,0,0,-1,1301,701,0,0
84,323,0,0,0,0,0,0,0,0,0,-1,1308,701,0,0
91,323,0,0,0,0,0,0,0,0,0,-1,1315,701,0,0
98,323,0,0,0,0,0,0,0,0,0,-1,1322,701,0,0
105,323,0,0,0,0,0,0,0,0,0,-1,1329,701,0,0
112,323,0,0,0,0,0,0,0,0,0,-1,1336,701,0,0
119,323,0,0,0,0,0,0,0,0,0,-1,1343,701,0,0
126,323,0,0,0,0,0,0,0,0,0,-1,1350,701,0,0
133,323,0,0,0,0,0,0,0,0,0,-1,1357,701,0,0
140,323,0,0,0,0,0,0,0,0,0,-1,1364,701,0,0
147,323,0,0,0,0,0,0,0,0,0,-1,1371,701,0,0
154,323,0,0,0,0,0,0,0,0,0,-1,1378,701,0,0
161,323,0,0,0,0,0,0,0,0,0,-1,1385,701,0,0
168,323,0,0,0,0,0,0,0,0,0,-1,1392,701,0,0
175,323,0,0,0,0,0,0,0,0,0,-1,1399,701,0,0
182,323,0,0,0,0,0,0,0,0,0,-1,1406,701,0,0
189,323,0,0,0,0,0,0,0,0,0,-1,1413,701,0,0
196,323,0,0,0,0,0,0,0,0,0,-1,1420,701,0,0
203,323,0,0,0,0,0,0,0,0,0,-1,1427,701,0,0
210,323,0,0,0,0,0,0,0,0,0,-1,1434,701,0,0
217,323,0,0,0,0,0,0,0,0,0,-1,1441,701,0,0
224,323,0,0,0,0,0,0,0,0,0,-1,1448,701,0,0
231,323,0,0,0,0,0,0,0,0,0,-1,1455,701,0,0
238,323,0,0,0,0,0,0,0,0,0,-1,1462,701,0,0
245,323,0,0,0,0,0,0,0,0,0,-1,1469,701,0,0
252,323,0,0,0,0,0,0,0,0,0,-1,1476,701,0,0
259,323,0,0,0,0,0,0,0,0,0,-1,1483,701,0,0
266,323,0,0,0,0,0,0,0,0,0,-1,1490,701,0,0
273,323,0,0,0,0,0,0,0,0,0,-1,1497,701,0,0
280,323,0,0,0,0,0,0,0,0,0,-1,1504,701,0,0
287,323,0,0,0,0,0,0,0,0,0,-1,1511,701,0,0
294,323,0,0,0,0,0,0,0,0,0,-1,1518,701,0,0
301,323,0,0,0,0,0,0,0,0,0,-1,1525,701,0,0
308,323,0,0,0,0,0,0,0,0,0,-1,1532,701,0,0
315,323,0,0,0,0,0,0,0,0,0,-1,1539,701,0,0
322,323,0,0,0,0,0,0,0,0,0,-1,1546,701,0,0
329,323,0,0,0,0,0,0,0,0,0,-1,1553,701,0,0
336,323,0,0,0,0,0,0,0,0,0,-1,1560,701,0,0
343,323,0,0,0,0,0,0,0,0,0,-1,1567,701,0,0
350,323,0,0,0,0,0,0,0,0,0,-1,1574,701,0,0
357,323,0,0,0,0,0,0,0,0,0,-1,1581,701,0,0
364,323,0,0,0,0,0,0,0,0,0,-1,1588,701,0,0
371,323,0,0,0,0,0,0,0,0,0,-1,1595,701,0,0
378,323,0,0,0,0,0,0,0,0,0,-1,1602,701,0,0
385,323,0,0,0,0,0,0,0,0,0,-1,1609,701,0,0
392,323,0,0,0,0,0,0,0,0,0,-1,1616,701,0,0
399,323,0,0,0,0,0,0,0,0,0,-1,1623,701,0,0
406,323,0,0,0,0,0,0,0,0,0,-1,1630,701,0,0
413,323,0,0,0,0,0,0,0,0,0,-1,1637,701,0,0
420,323,0,0,0,0,0,0,0,0,0,-1,1644,701,0,0
427,323,0,0,0,0,0,0,0,0,0,-1,1651,701,0,0
434,323,0,0,0,0,0,0,0,0,0,-1,1658,701,0,0
441,323,0,0,0,0,0,0,0,0,0,-1,1665,701,0,0
448,323,0,0,0,0,0,0,0,0,0,-1,1672,701,0,0
455,323,0,0,0,0,0,0,0,0,0,-1,1679,701,0,0
462,323,0,0,0,0,0,0,0,0,0,-1,1686,701,0,0
469,323,0,0,0,0,0,0,0,0,0,-1,1693,701,0,0
476,323,0,0,0,0,0,0,0,0,0,-1,1700,701,0,0
483,323,0,0,0,0,0,0,0,0,0,-1,1707,701,0,0
490,323,0,0,0,0,0,0,0,0,0,-1,1714,701,0,0
497,323,0,0,0,0,0,0,0,0,0,-1,1721,701,0,0
504,323,0,0,0,0,0,0,0,0,0,-1,1728,701,0,0
511,323,0,0,0,0,0,0,0,0,0,-1,1735,701,0,0
518,323,0,0,0,0,0,0,0,0,0,-1,1742,701,0,0
525,323,0,0,0,0,0,0,0,0,0,-1,1749,701,0,0
532,323,33.6193,1.69446,0,0,0,0,0,0,0,-1,1756,701,33.6193,-1.69444
539,323,32.2698,2.44037,0,0,0,0,0,0,0,-1,1763,701,32.2697,-2.44036
546,323,31.1644,3.9444,0,0,0,0,0,0,0,-1,1770,701,31.1644,-3.94438
553,323,30.2488,5.8775,0,0,0,0,0,0,0,-1,1777,701,30.2487,-5.87752
560,323,31.9149,2.33624,0,0,0,0,0,0,0,-1,1784,701,31.9149,-2.33626
567,323,32.0164,2.60754,0,0,0,0,0,0,0,-1,1791,701,32.0163,-2.60753
574,323,12.514,5.89685,0,0,0,0,0,0,0,-1,1798,701,12.5141,-5.89683
581,323,11.821,5.3476,0,0,0,0,0,0,0,-1,1805,701,11.821,-5.34762
588,323,11.7933,7.00818,0,0,0,0,0,0,0,-1,1812,701,11.7933,-7.00819
595,323,6.67847,0.06604,0,0,0,0,0,0,0,-1,1819,701,6.67841,-0.0660418
602,323,11.2856,-0.595459,0,0,0,0,0,0,0,-1,1826,701,11.2856,0.595433
609,323,20.8425,-3.63739,0,0,0,0,0,0,0,-1,1833,701,20.8425,3.6374
616,323,20.8778,-3.15833,0.00161449,-1.24613e-05,0.00243647,0.0033697,-0.00176767,0.624279,0.00301375,0.0152145,1840,701,20.8778,3.1583
623,323,20.8801,-2.67706,0.00129033,0.000143101,0.00146584,0.00229079,-0.00085736,0.598896,0.00187934,0.0130671,1847,701,20.8801,2.67706
630,323,20.87,-2.19244,0.000817124,-6.5471e-05,0.000745936,0.00124252,-0.000490871,0.518287,0.00103166,0.0143917,1854,701,20.87,2.19243
637,323,20.8792,-1.74036,8.01324e-05,-0.000259636,0.00013509,0.000127296,-0.0003068,0.3359,0.000257669,0.0114669,1861,701,20.8792,1.74038
644,323,20.8595,-1.29712,-0.00110138,-0.000303139,-0.000419327,-0.000123353,-0.00128116,-1.16575,0.000816104,0.00816721,1868,701,20.8595,1.2971
651,323,20.8451,-0.837708,-0.00249231,-0.000288154,-0.000812105,-2.12579e-05,-0.00275921,-1.25327,0.00183243,0.00990932,1875,701,20.8451,0.837712
658,323,20.8113,-0.36908,-0.00410352,-0.000261722,-0.0012438,0.000105807,-0.00447105,-1.28348,0.00301659,0.0140784,1882,701,20.8113,0.369095
665,323,20.7745,0.088501,-0.00602545,-0.000164548,-0.00176311,0.000324959,-0.00651496,-1.29998,0.00445558,0.0121839,1889,701,20.7745,-0.0884812
672,323,20.7731,0.572998,-0.00834878,1.17009e-05,-0.00236696,0.000635303,-0.00897238,-1.31319,0.00620421,0.0117369,1896,701,20.7731,-0.572984
679,323,20.7059,1.05249,-0.0112496,0.000307316,-0.0031175,0.00109463,-0.0120369,-1.32342,0.00841327,0.0254583,1903,701,20.7059,-1.05252
686,323,20.6469,1.36322,-0.0151287,0.000479774,-0.00431359,0.00159255,-0.0162415,-1.31833,0.0113957,0.0447916,1910,701,20.6468,-1.36324
693,323,20.6787,1.68091,0,0,0,0,0,0,0,-1,1917,701,20.6787,-1.68088
700,323,10.7705,0.828613,0,0,0,0,0,0,0,-1,1924,701,10.7705,-0.828591
707,323,16.9005,4.79193,0,0,0,0,0,0,0,-1,1931,701,16.9005,-4.7919
714,323,16.2346,6.25958,0,0,0,0,0,0,0,-1,1938,701,16.2346,-6.25956
721,323,0,0,0,0,0,0,0,0,0,-1,1945,701,0,0
728,323,0,0,0,0,0,0,0,0,0,-1,1952,701,0,0
735,323,0,0,0,0,0,0,0,0,0,-1,1959,701,0,0
742,323,0,0,0,0,0,0,0,0,0,-1,1966,701,0,0
749,323,0,0,0,0,0,0,0,0,0,-1,1973,701,0,0
756,323,0,0,0,0,0,0,0,0,0,-1,1980,701,0,0
763,323,0,0,0,0,0,0,0,0,0,-1,1987,701,0,0
770,323,0,0,0,0,0,0,0,0,0,-1,1994,701,0,0
777,323,0,0,0,0,0,0,0,0,0,-1,2001,701,0,0
784,323,0,0,0,0,0,0,0,0,0,-1,2008,701,0,0
791,323,0,0,0,0,0,0,0,0,0,-1,2015,701,0,0
798,323,0,0,0,0,0,0,0,0,0,-1,2022,701,0,0
805,323,0,0,0,0,0,0,0,0,0,-1,2029,701,0,0
812,323,0,0,0,0,0,0,0,0,0,-1,2036,701,0,0
-700,316,0,0,0,0,0,0,0,0,0,-1,524,708,0,0
-693,316,0,0,0,0,0,0,0,0,0,-1,531,708,0,0
-686,316,0,0,0,0,0,0,0,0,0,-1,538,708,0,0
-679,316,0,0,0,0,0,0,0,0,0,-1,545,708,0,0
-672,316,0,0,0,0,0,0,0,0,0,-1,552,708,0,0
-665,316,0,0,0,0,0,0,0,0,0,-1,559,708,0,0
-658,316,0,0,0,0,0,0,0,0,0,-1,566,708,0,0
-651,316,0,0,0,0,0,0,0,0,0,-1,573,708,0,0
-644,316,0,0,0,0,0,0,0,0,0,-1,580,708,0,0
-637,316,0,0,0,0,0,0,0,0,0,-1,587,708,0,0
-630,316,0,0,0,0,0,0,0,0,0,-1,594,708,0,0
-623,316,0,0,0,0,0,0,0,0,0,-1,601,708,0,0
-616,316,0,0,0,0,0,0,0,0,0,-1,608,708,0,0
-609,316,0,0,0,0,0,0,0,0,0,-1,615,708,0,0
-602,316,-0.451782,-0.0494995,0,0,0,0,0,0,0,-1,622,708,-0.451768,0.0495022
-595,316,-3.3761,2.17188,0,0,0,0,0,0,0,-1,629,708,-3.37609,-2.17189
-588,316,-5.00177,2.60675,0,0,0,0,0,0,0,-1,636,708,-5.00175,-2.60676
-581,316,-3.94653,0.393433,0,0,0,0,0,0,0,-1,643,708,-3.94655,-0.39342
-574,316,-9.67395,1.06067,0,0,0,0,0,0,0,-1,650,708,-9.67396,-1.06065
-567,316,-10.1962,0.448425,0,0,0,0,0,0,0,-1,657,708,-10.1962,-0.448411
-560,316,-12.4053,-0.747986,0,0,0,0,0,0,0,-1,664,708,-12.4053,0.747962
-553,316,-12.6115,-1.12006,0.000808937,0.00991828,-0.00649186,0.0132939,-0.00256667,-1.0913,0.00983048,0.0379227,671,708,-12.6115,1.12008
-546,316,-12.8223,-1.41876,0.00086329,0.0079291,-0.00514766,0.0106396,-0.00184719,-1.08614,0.0077822,0.0221841,678,708,-12.8223,1.41879
-539,316,-12.7824,-1.89282,0.000895182,0.006122,-0.00393539,0.0082327,-0.00121552,-1.0785,0.00593528,0.0140755,685,708,-12.7824,1.89282
-532,316,-12.8076,-2.32843,0.000862995,0.00439466,-0.00279899,0.00593828,-0.000680632,-1.06681,0.00420414,0.0115375,692,708,-12.8075,2.32844
-525,316,-12.8077,-2.75665,0.000824783,0.00287783,-0.00177048,0.00389785,-0.000195238,-1.04812,0.00266603,0.00968193,699,708,-12.8077,2.75664
-518,316,-12.808,-3.19373,0.000839242,0.00156763,-0.000912023,0.00218548,0.000221384,-0.975359,0.00138909,0.00984051,706,708,-12.808,3.19374
-511,316,-12.8204,-3.62738,0.00130246,0.000255692,-7.47991e-05,0.00130778,0.000250374,-0.0709767,0.000801535,0.010402,713,708,-12.8204,3.6274
-504,316,-12.8398,-4.06683,0.0030422,-0.00114487,0.00118807,0.00335582,-0.00145849,0.258087,0.00285059,0.0134603,720,708,-12.8398,4.06682
-497,316,-12.8345,-4.47943,0.00660335,-0.00284259,0.00296876,0.00745891,-0.00369814,0.280584,0.00656237,0.012545,727,708,-12.8345,4.47942
-490,316,-12.8608,-4.90961,0.0109635,-0.00449977,0.00482509,0.0123456,-0.00588185,0.278965,0.0107419,0.0154464,734,708,-12.8608,4.9096
-483,316,-12.8052,-5.35669,0,0,0,0,0,0,0,-1,741,708,-12.8052,5.35669
-476,316,-8.90894,-3.31207,0,0,0,0,0,0,0,-1,748,708,-8.90896,3.31206
-469,316,-6.24194,-1.42725,0,0,0,0,0,0,0,-1,755,708,-6.24192,1.42725
-462,316,-5.74237,-1.40039,0,0,0,0,0,0,0,-1,762,708,-5.74238,1.40039
-455,316,-5.44745,-1.21899,0,0,0,0,0,0,0,-1,769,708,-5.44746,1.21898
-448,316,-14.8945,0.655396,0,0,0,0,0,0,0,-1,776,708,-14.8946,-0.655396
-441,316,-14.9626,0.576111,0,0,0,0,0,0,0,-1,783,708,-14.9626,-0.576115
-434,316,-15.272,0.942993,0,0,0,0,0,0,0,-1,790,708,-15.272,-0.942979
-427,316,-14.6848,3.17792,0,0,0,0,0,0,0,-1,797,708,-14.6848,-3.1779
-420,316,-13.5587,2.737,0,0,0,0,0,0,0,-1,804,708,-13.5587,-2.73703
-413,316,0,0,0,0,0,0,0,0,0,-1,811,708,0,0
-406,316,0,0,0,0,0,0,0,0,0,-1,818,708,0,0
-399,316,0,0,0,0,0,0,0,0,0,-1,825,708,0,0
-392,316,0,0,0,0,0,0,0,0,0,-1,832,708,0,0
-385,316,0,0,0,0,0,0,0,0,0,-1,839,708,0,0
-378,316,0,0,0,0,0,0,0,0,0,-1,846,708,0,0
-371,316,0,0,0,0,0,0,0,0,0,-1,853,708,0,0
-364,316,0,0,0,0,0,0,0,0,0,-1,860,708,0,0
-357,316,0,0,0,0,0,0,0,0,0,-1,867,708,0,0
-350,316,0,0,0,0,0,0,0,0,0,-1,874,708,0,0
-343,316,0,0,0,0,0,0,0,0,0,-1,881,708,0,0
-336,316,0,0,0,0,0,0,0,0,0,-1,888,708,0,0
-329,316,0,0,0,0,0,0,0,0,0,-1,895,708,0,0
-322,316,0,0,0,0,0,0,0,0,0,-1,902,708,0,0
-315,316,0,0,0,0,0,0,0,0,0,-1,909,708,0,0
-308,316,0,0,0,0,0,0,0,0,0,-1,916,708,0,0
-301,316,0,0,0,0,0,0,0,0,0,-1,923,708,0,0
-294,316,0,0,0,0,0,0,0,0,0,-1,930,708,0,0
-287,316,0,0,0,0,0,0,0,0,0,-1,937,708,0,0
-280,316,0,0,0,0,0,0,0,0,0,-1,944,708,0,0
-273,316,0,0,0,0,0,0,0,0,0,-1,951,708,0,0
-266,316,0,0,0,0,0,0,0,0,0,-1,958,708,0,0
-259,316,0,0,0,0,0,0,0,0,0,-1,965,708,0,0
-252,316,0,0,0,0,0,0,0,0,0,-1,972,708,0,0
-245,316,0,0,0,0,0,0,0,0,0,-1,979,708,0,0
-238,316,0,0,0,0,0,0,0,0,0,-1,986,708,0,0
-231,316,0,0,0,0,0,0,0,0,0,-1,993,708,0,0
-224,316,0,0,0,0,0,0,0,0,0,-1,1000,708,0,0
-217,316,0,0,0,0,0,0,0,0,0,-1,1007,708,0,0
-210,316,0,0,0,0,0,0,0,0,0,-1,1014,708,0,0
-203,316,0,0,0,0,0,0,0,0,0,-1,1021,708,0,0
-196,316,0,0,0,0,0,0,0,0,0,-1,1028,708,0,0
-189,316,0,0,0,0,0,0,0,0,0,-1,1035,708,0,0
-182,316,0,0,0,0,0,0,0,0,0,-1,1042,708,0,0
-175,316,0,0,0,0,0,0,0,0,0,-1,1049,708,0,0
-168,316,0,0,0,0,0,0,0,0,0,-1,1056,708,0,0
-161,316,0,0,0,0,0,0,0,0,0,-1,1063,708,0,0
-154,316,0,0,0,0,0,0,0,0,0,-1,1070,708,0,0
-147,316,0,0,0,0,0,0,0,0,0,-1,1077,708,0,0
-140,316,0,0,0,0,0,0,0,0,0,-1,1084,708,0,0
-133,316,0,0,0,0,0,0,0,0,0,-1,1091,708,0,0
-126,316,0,0,0,0,0,0,0,0,0,-1,1098,708,0,0
-119,316,0,0,0,0,0,0,0,0,0,-1,1105,708,0,0
-112,316,0,0,0,0,0,0,0,0,0,-1,1112,708,0,0
-105,316,0,0,0,0,0,0,0,0,0,-1,1119,708,0,0
-98,316,0,0,0,0,0,0,0,0,0,-1,1126,708,0,0
-91,316,0,0,0,0,0,0,0,0,0,-1,1133,708,0,0
-84,316,0,0,0,0,0,0,0,0,0,-1,1140,708,0,0
-77,316,0,0,0,0,0,0,0,0,0,-1,1147,708,0,0
-70,316,0,0,0,0,0,0,0,0,0,-1,1154,708,0,0
-63,316,0,0,0,0,0,0,0,0,0,-1,1161,708,0,0
-56,316,0,0,0,0,0,0,0,0,0,-1,1168,708,0,0
-49,316,0,0,0,0,0,0,0,0,0,-1,1175,708,0,0
-42,316,0,0,0,0,0,0,0,0,0,-1,1182,708,0,0
-35,316,0,0,0,0,0,0,0,0,0,-1,1189,708,0,0
-28,316,0,0,0,0,0,0,0,0,0,-1,1196,708,0,0
-21,316,0,0,0,0,0,0,0,0,0,-1,1203,708,0,0
-14,316,0,0,0,0,0,0,0,0,0,-1,1210,708,0,0
-7,316,0,0,0,0,0,0,0,0,0,-1,1217,708,0,0
0,316,0,0,0,0,0,0,0,0,0,-1,1224,708,0,0
7,316,0,0,0,0,0,0,0,0,0,-1,1231,708,0,0
14,316,0,0,0,0,0,0,0,0,0,-1,1238,708,0,0
21,316,0,0,0,0,0,0,0,0,0,-1,1245,708,0,0
28,316,0,0,0,0,0,0,0,0,0,-1,1252,708,0,0
35,316,0,0,0,0,0,0,0,0,0,-1,1259,708,0,0
42,316,0,0,0,0,0,0,0,0,0,-1,1266,708,0,0
49,316,0,0,0,0,0,0,0,0,0,-1,1273,708,0,0
56,316,0,0,0,0,0,0,0,0,0,-1,1280,708,0,0
63,316,0,0,0,0,0,0,0,0,0,-1,1287,708,0,0
70,316,0,0,0,0,0,0,0,0,0,-1,1294,708,0,0
77,316,0,0,0,0,0,0,0,0,0,-1,1301,708,0,0
84,316,0,0,0,0,0,0,0,0,0,-1,1308,708,0,0
91,316,0,0,0,0,0,0,0,0,0,-1,1315,708,0,0
98,316,0,0,0,0,0,0,0,0,0,-1,1322,708,0,0
105,316,0,0,0,0,0,0,0,0,0,-1,1329,708,0,0
112,316,0,0,0,0,0,0,0,0,0,-1,1336,708,0,0
119,316,0,0,0,0,0,0,0,0,0,-1,1343,708,0,0
126,316,0,0,0,0,0,0,0,0,0,-1,1350,708,0,0
133,316,0,0,0,0,0,0,0,0,0,-1,1357,708,0,0
140,316,0,0,0,0,0,0,0,0,0,-1,1364,708,0,0
147,316,0,0,0,0,0,0,0,0,0,-1,1371,708,0,0
154,316,0,0,0,0,0,0,0,0,0,-1,1378,708,0,0
161,316,0,0,0,0,0,0,0,0,0,-1,1385,708,0,0
168,316,0,0,0,0,0,0,0,0,0,-1,1392,708,0,0
175,316,0,0,0,0,0,0,0,0,0,-1,1399,708,0,0
182,316,0,0,0,0,0,0,0,0,0,-1,1406,708,0,0
189,316,0,0,0,0,0,0,0,0,0,-1,1413,708,0,0
196,316,0,0,0,0,0,0,0,0,0,-1,1420,708,0,0
203,316,0,0,0,0,0,0,0,0,0,-1,1427,708,0,0
210,316,0,0,0,0,0,0,0,0,0,-1,1434,708,0,0
217,316,0,0,0,0,0,0,0,0,0,-1,1441,708,0,0
224,316,0,0,0,0,0,0,0,0,0,-1,1448,708,0,0
231,316,0,0,0,0,0,0,0,0,0,-1,1455,708,0,0
238,316,0,0,0,0,0,0,0,0,0,-1,1462,708,0,0
245,316,0,0,0,0,0,0,0,0,0,-1,1469,708,0,0
252,316,0,0,0,0,0,0,0,0,0,-1,1476,708,0,0
259,316,0,0,0,0,0,0,0,0,0,-1,1483,708,0,0
266,316,0,0,0,0,0,0,0,0,0,-1,1490,708,0,0
273,316,0,0,0,0,0,0,0,0,0,-1,1497,708,0,0
280,316,0,0,0,0,0,0,0,0,0,-1,1504,708,0,0
287,316,0,0,0,0,0,0,0,0,0,-1,1511,708,0,0
294,316,0,0,0,0,0,0,0,0,0,-1,1518,708,0,0
301,316,0,0,0,0,0,0,0,0,0,-1,1525,708,0,0
308,316,0,0,0,0,0,0,0,0,0,-1,1532,708,0,0
315,316,0,0,0,0,0,0,0,0,0,-1,1539,708,0,0
322,316,0,0,0,0,0,0,0,0,0,-1,1546,708,0,0
329,316,0,0,0,0,0,0,0,0,0,-1,1553,708,0,0
336,316,0,0,0,0,0,0,0,0,0,-1,1560,708,0,0
343,316,0,0,0,0,0,0,0,0,0,-1,1567,708,0,0
350,316,0,0,0,0,0,0,0,0,0,-1,1574,708,0,0
357,316,0,0,0,0,0,0,0,0,0,-1,1581,708,0,0
364,316,0,0,0,0,0,0,0,0,0,-1,1588,708,0,0
371,316,0,0,0,0,0,0,0,0,0,-1,1595,708,0,0
378,316,0,0,0,0,0,0,0,0,0,-1,1602,708,0,0
385,316,0,0,0,0,0,0,0,0,0,-1,1609,708,0,0
392,316,0,0,0,0,0,0,0,0,0,-1,1616,708,0,0
399,316,0,0,0,0,0,0,0,0,0,-1,1623,708,0,0
406,316,0,0,0,0,0,0,0,0,0,-1,1630,708,0,0
413,316,0,0,0,0,0,0,0,0,0,-1,1637,708,0,0
420,316,0,0,0,0,0,0,0,0,0,-1,1644,708,0,0
427,316,0,0,0,0,0,0,0,0,0,-1,1651,708,0,0
434,316,0,0,0,0,0,0,0,0,0,-1,1658,708,0,0
441,316,0,0,0,0,0,0,0,0,0,-1,1665,708,0,0
448,316,0,0,0,0,0,0,0,0,0,-1,1672,708,0,0
455,316,0,0,0,0,0,0,0,0,0,-1,1679,708,0,0
462,316,0,0,0,0,0,0,0,0,0,-1,1686,708,0,0
469,316,0,0,0,0,0,0,0,0,0,-1,1693,708,0,0
476,316,0,0,0,0,0,0,0,0,0,-1,1700,708,0,0
483,316,0,0,0,0,0,0,0,0,0,-1,1707,708,0,0
490,316,0,0,0,0,0,0,0,0,0,-1,1714,708,0,0
497,316,0,0,0,0,0,0,0,0,0,-1,1721,708,0,0
504,316,0,0,0,0,0,0,0,0,0,-1,1728,708,0,0
511,316,0,0,0,0,0,0,0,0,0,-1,1735,708,0,0
518,316,0,0,0,0,0,0,0,0,0,-1,1742,708,0,0
525,316,0,0,0,0,0,0,0,0,0,-1,1749,708,0,0
532,316,33.8604,0.531128,0,0,0,0,0,0,0,-1,1756,708,33.8604,-0.531151
539,316,37.7004,1.9234,0,0,0,0,0,0,0,-1,1763,708,37.7005,-1.92343
546,316,37.8945,2.03882,0,0,0,0,0,0,0,-1,1770,708,37.8945,-2.03879
553,316,35.3171,4.46155,0,0,0,0,0,0,0,-1,1777,708,35.3171,-4.46154
560,316,29.651,6.51129,0,0,0,0,0,0,0,-1,1784,708,29.651,-6.51128
567,316,31.678,2.43597,0,0,0,0,0,0,0,-1,1791,708,31.678,-2.43595
574,316,30.4771,6.54126,0,0,0,0,0,0,0,-1,1798,708,30.4771,-6.54126
581,316,24.6815,7.77496,0,0,0,0,0,0,0,-1,1805,708,24.6815,-7.77499
588,316,19.7659,2.90198,0,0,0,0,0,0,0,-1,1812,708,19.7659,-2.902
595,316,12.5363,1.50702,0,0,0,0,0,0,0,-1,1819,708,12.5363,-1.50701
602,316,7.79919,0.0422363,0,0,0,0,0,0,0,-1,1826,708,7.79923,-0.0422066
609,316,21.2225,-3.6427,0,0,0,0,0,0,0,-1,1833,708,21.2225,3.64271
616,316,21.337,-3.14282,0.00141274,0.000165618,0.00226092,0.00313451,-0.00155616,0.650844,0.00275879,0.0204127,1840,708,21.3371,3.14281
623,316,21.3621,-2.66522,0.0012475,0.000218341,0.00122923,0.00206552,-0.000599673,0.587171,0.00161446,0.0111585,1847,708,21.362,2.66523
630,316,21.3262,-2.21606,0.000964811,-0.000203413,0.000493262,0.00114522,-0.000383824,0.350636,0.000918553,0.0127249,1854,708,21.3262,2.21604
637,316,21.3301,-1.74109,0.000394765,-0.0003999,-9.66702e-05,0.000406356,-0.000411491,-0.11933,0.000472187,0.0125942,1861,708,21.3301,1.74107
644,316,21.3224,-1.27045,-0.000645129,-0.000434887,-0.000579187,4.86419e-05,-0.00112866,-0.87517,0.000769165,0.012152,1868,708,21.3224,1.27042
651,316,21.2986,-0.820068,-0.00197281,-0.000302675,-0.00079063,1.22287e-05,-0.00228771,-1.19176,0.00152923,0.0131157,1875,708,21.2985,0.820085
658,316,21.267,-0.361938,-0.00339838,-0.00013328,-0.00104507,0.000172569,-0.00370423,-1.28609,0.00252897,0.0225935,1882,708,21.267,0.36193
665,316,21.2196,0.102478,-0.00497472,0.000159732,-0.00139326,0.000513435,-0.00532842,-1.32218,0.00373521,0.0167995,1889,708,21.2196,-0.102458
672,316,21.2161,0.560791,-0.00686946,0.000548331,-0.00179747,0.000960942,-0.00728207,-1.34516,0.00520468,0.0121874,1896,708,21.216,-0.560766
679,316,21.2354,1.07428,-0.00913475,0.00110148,-0.00227487,0.00158427,-0.00961754,-1.36167,0.0069998,0.0209887,1903,708,21.2353,-1.07431
686,316,21.0264,1.53162,-0.0120796,0.00161713,-0.00309703,0.00228486,-0.0127474,-1.35844,0.00935336,0.0339908,1910,708,21.0263,-1.53162
693,316,20.7517,2.05042,0,0,0,0,0,0,0,-1,1917,708,20.7517,-2.0504
700,316,12.8749,2.89136,0,0,0,0,0,0,0,-1,1924,708,12.8748,-2.89137
707,316,15.7089,5.41486,0,0,0,0,0,0,0,-1,1931,708,15.7088,-5.41487
714,316,16.1727,5.52045,0,0,0,0,0,0,0,-1,1938,708,16.1728,-5.52042
721,316,16.7094,6.53351,0,0,0,0,0,0,0,-1,1945,708,16.7094,-6.5335
728,316,0,0,0,0,0,0,0,0,0,-1,1952,708,0,0
735,316,0,0,0,0,0,0,0,0,0,-1,1959,708,0,0
742,316,0,0,0,0,0,0,0,0,0,-1,1966,708,0,0
749,316,0,0,0,0,0,0,0,0,0,-1,1973,708,0,0
756,316,0,0,0,0,0,0,0,0,0,-1,1980,708,0,0
763,316,0,0,0,0,0,0,0,0,0,-1,1987,708,0,0
770,316,0,0,0,0,0,0,0,0,0,-1,1994,708,0,0
777,316,0,0,0,0,0,0,0,0,0,-1,2001,708,0,0
784,316,0,0,0,0,0,0,0,0,0,-1,2008,708,0,0
791,316,0,0,0,0,0,0,0,0,0,-1,2015,708,0,0
798,316,0,0,0,0,0,0,0,0,0,-1,2022,708,0,0
805,316,0,0,0,0,0,0,0,0,0,-1,2029,708,0,0
812,316,0,0,0,0,0,0,0,0,0,-1,2036,708,0,0
-700,309,0,0,0,0,0,0,0,0,0,-1,524,715,0,0
-693,309,0,0,0,0,0,0,0,0,0,-1,531,715,0,0
-686,309,0,0,0,0,0,0,0,0,0,-1,538,715,0,0
-679,309,0,0,0,0,0,0,0,0,0,-1,545,715,0,0
-672,309,0,0,0,0,0,0,0,0,0,-1,552,715,0,0
-665,309,0,0,0,0,0,0,0,0,0,-1,559,715,0,0
-658,309,0,0,0,0,0,0,0,0,0,-1,566,715,0,0
-651,309,0,0,0,0,0,0,0,0,0,-1,573,715,0,0
-644,309,0,0,0,0,0,0,0,0,0,-1,580,715,0,0
-637,309,0,0,0,0,0,0,0,0,0,-1,587,715,0,0
-630,309,0,0,0,0,0,0,0,0,0,-1,594,715,0,0
-623,309,0,0,0,0,0,0,0,0,0,-1,601,715,0,0
-616,309,0,0,0,0,0,0,0,0,0,-1,608,715,0,0
-609,309,-5.95392,-3.93689,0,0,0,0,0,0,0,-1,615,715,-5.95392,3.93686
-602,309,-4.99786,-3.31287,0,0,0,0,0,0,0,-1,622,715,-4.99786,3.31284
-595,309,-6.80847,2.4046,0,0,0,0,0,0,0,-1,629,715,-6.80845,-2.40458
-588,309,-6.08795,2.19324,0,0,0,0,0,0,0,-1,636,715,-6.08793,-2.19325
-581,309,-5.97552,1.3277,0,0,0,0,0,0,0,-1,643,715,-5.97552,-1.32769
-574,309,-8.73602,0.208435,0,0,0,0,0,0,0,-1,650,715,-8.73604,-0.208437
-567,309,-10.3909,0.85968,0,0,0,0,0,0,0,-1,657,715,-10.3909,-0.859696
-560,309,-13.1007,-1.01794,0,0,0,0,0,0,0,-1,664,715,-13.1007,1.01794
-553,309,-13.1622,-1.10706,0.00072779,0.00784165,-0.00443399,0.00996909,-0.00139965,-1.12344,0.00715837,0.0396539,671,715,-13.1622,1.10708
-546,309,-13.2525,-1.43665,0.000563138,0.00606904,-0.00343236,0.00771607,-0.00108389,-1.1234,0.0055408,0.0196138,678,715,-13.2525,1.43664
-539,309,-13.2231,-1.9054,0.000455284,0.00446246,-0.00250965,0.00567021,-0.00075247,-1.12227,0.00405431,0.0165416,685,715,-13.2231,1.9054
-532,309,-13.2269,-2.32751,0.000428234,0.00300098,-0.00166073,0.00381527,-0.000386052,-1.11492,0.00268147,0.0135068,692,715,-13.2269,2.32753
-525,309,-13.2162,-2.76843,0.000476264,0.00178304,-0.000890201,0.0022339,2.53997e-05,-1.10198,0.00148088,0.0160496,699,715,-13.2162,2.76843
-518,309,-13.2335,-3.2052,0.000593727,0.000704015,-0.000243868,0.000898896,0.000398846,-0.89659,0.000520073,0.0158244,706,715,-13.2335,3.20523
-511,309,-13.2585,-3.62097,0.00139959,-0.000624635,0.000542067,0.00153561,-0.000760655,0.245853,0.00135068,0.0124323,713,715,-13.2585,3.621
-504,309,-13.2537,-4.04944,0.00395486,-0.0021849,0.00206186,0.00458302,-0.00281306,0.29572,0.00431069,0.010048,720,715,-13.2537,4.04945
-497,309,-13.2685,-4.47229,0.00879392,-0.0042653,0.00435352,0.0101122,-0.00558356,0.294025,0.0091868,0.0142453,727,715,-13.2685,4.4723
-490,309,-13.233,-4.91431,0.0143999,-0.00634557,0.00673444,0.0163943,-0.00833998,0.287922,0.0145305,0.043187,734,715,-13.233,4.91432
-483,309,-12.9702,-5.52405,0,0,0,0,0,0,0,-1,741,715,-12.9702,5.52404
-476,309,-5.29486,-1.2262,0,0,0,0,0,0,0,-1,748,715,-5.29484,1.22622
-469,309,-4.22717,-0.592896,0,0,0,0,0,0,0,-1,755,715,-4.2272,0.592905
-462,309,-10.428,2.46948,0,0,0,0,0,0,0,-1,762,715,-10.428,-2.46947
-455,309,-15.8216,0.00915527,0,0,0,0,0,0,0,-1,769,715,-15.8216,-0.00913359
-448,309,-19.2673,1.19257,0,0,0,0,0,0,0,-1,776,715,-19.2673,-1.19254
-441,309,-19.8181,1.4425,0,0,0,0,0,0,0,-1,783,715,-19.8181,-1.44249
-434,309,-15.3519,1.06873,0,0,0,0,0,0,0,-1,790,715,-15.3519,-1.06874
-427,309,-15.1996,1.32141,0,0,0,0,0,0,0,-1,797,715,-15.1996,-1.3214
-420,309,-13.3781,3.26843,0,0,0,0,0,0,0,-1,804,715,-13.3781,-3.26842
-413,309,0,0,0,0,0,0,0,0,0,-1,811,715,0,0
-406,309,0,0,0,0,0,0,0,0,0,-1,818,715,0,0
-399,309,0,0,0,0,0,0,0,0,0,-1,825,715,0,0
-392,309,0,0,0,0,0,0,0,0,0,-1,832,715,0,0
-385,309,0,0,0,0,0,0,0,0,0,-1,839,715,0,0
-378,309,0,0,0,0,0,0,0,0,0,-1,846,715,0,0
-371,309,0,0,0,0,0,0,0,0,0,-1,853,715,0,0
-364,309,0,0,0,0,0,0,0,0,0,-1,860,715,0,0
-357,309,0,0,0,0,0,0,0,0,0,-1,867,715,0,0
-350,309,0,0,0,0,0,0,0,0,0,-1,874,715,0,0
-343,309,0,0,0,0,0,0,0,0,0,-1,881,715,0,0
-336,309,0,0,0,0,0,0,0,0,0,-1,888,715,0,0
-329,309,0,0,0,0,0,0,0,0,0,-1,895,715,0,0
-322,309,0,0,0,0,0,0,0,0,0,-1,902,715,0,0
-315,309,0,0,0,0,0,0,0,0,0,-1,909,715,0,0
-308,309,0,0,0,0,0,0,0,0,0,-1,916,715,0,0
-301,309,0,0,0,0,0,0,0,0,0,-1,923,715,0,0
-294,309,0,0,0,0,0,0,0,0,0,-1,930,715,0,0
-287,309,0,0,0,0,0,0,0,0,0,-1,937,715,0,0
-280,309,0,0,0,0,0,0,0,0,0,-1,944,715,0,0
-273,309,0,0,0,0,0,0,0,0,0,-1,951,715,0,0
-266,309,0,0,0,0,0,0,0,0,0,-1,958,715,0,0
-259,309,0,0,0,0,0,0,0,0,0,-1,965,715,0,0
-252,309,0,0,0,0,0,0,0,0,0,-1,972,715,0,0
-245,309,0,0,0,0,0,0,0,0,0,-1,979,715,0,0
-238,309,0,0,0,0,0,0,0,0,0,-1,986,715,0,0
-231,309,0,0,0,0,0,0,0,0,0,-1,993,715,0,0
-224,309,0,0,0,0,0,0,0,0,0,-1,1000,715,0,0
-217,309,0,0,0,0,0,0,0,0,0,-1,1007,715,0,0
-210,309,0,0,0,0,0,0,0,0,0,-1,1014,715,0,0
-203,309,0,0,0,0,0,0,0,0,0,-1,1021,715,0,0
-196,309,0,0,0,0,0,0,0,0,0,-1,1028,715,0,0
-189,309,0,0,0,0,0,0,0,0,0,-1,1035,715,0,0
-182,309,0,0,0,0,0,0,0,0,0,-1,1042,715,0,0
-175,309,0,0,0,0,0,0,0,0,0,-1,1049,715,0,0
-168,309,0,0,0,0,0,0,0,0,0,-1,1056,715,0,0
-161,309,0,0,0,0,0,0,0,0,0,-1,1063,715,0,0
-154,309,0,0,0,0,0,0,0,0,0,-1,1070,715,0,0
-147,309,0,0,0,0,0,0,0,0,0,-1,1077,715,0,0
-140,309,0,0,0,0,0,0,0,0,0,-1,1084,715,0,0
-133,309,0,0,0,0,0,0,0,0,0,-1,1091,715,0,0
-126,309,0,0,0,0,0,0,0,0,0,-1,1098,715,0,0
-119,309,0,0,0,0,0,0,0,0,0,-1,1105,715,0,0
-112,309,0,0,0,0,0,0,0,0,0,-1,1112,715,0,0
-105,309,0,0,0,0,0,0,0,0,0,-1,1119,715,0,0
-98,309,0,0,0,0,0,0,0,0,0,-1,1126,715,0,0
-91,309,0,0,0,0,0,0,0,0,0,-1,1133,715,0,0
-84,309,0,0,0,0,0,0,0,0,0,-1,1140,715,0,0
-77,309,0,0,0,0,0,0,0,0,0,-1,1147,715,0,0
-70,309,0,0,0,0,0,0,0,0,0,-1,1154,715,0,0
-63,309,0,0,0,0,0,0,0,0,0,-1,1161,715,0,0
-56,309,0,0,0,0,0,0,0,0,0,-1,1168,715,0,0
-49,309,0,0,0,0,0,0,0,0,0,-1,1175,715,0,0
-42,309,0,0,0,0,0,0,0,0,0,-1,1182,715,0,0
-35,309,0,0,0,0,0,0,0,0,0,-1,1189,715,0,0
-28,309,0,0,0,0,0,0,0,0,0,-1,1196,715,0,0
-21,309,0,0,0,0,0,0,0,0,0,-1,1203,715,0,0
-14,309,0,0,0,0,0,0,0,0,0,-1,1210,715,0,0
-7,309,0,0,0,0,0,0,0,0,0,-1,1217,715,0,0
0,309,0,0,0,0,0,0,0,0,0,-1,1224,715,0,0
7,309,0,0,0,0,0,0,0,0,0,-1,1231,715,0,0
14,309,0,0,0,0,0,0,0,0,0,-1,1238,715,0,0
21,309,0,0,0,0,0,0,0,0,0,-1,1245,715,0,0
28,309,0,0,0,0,0,0,0,0,0,-1,1252,715,0,0
35,309,0,0,0,0,0,0,0,0,0,-1,1259,715,0,0
42,309,0,0,0,0,0,0,0,0,0,-1,1266,715,0,0
49,309,0,0,0,0,0,0,0,0,0,-1,1273,715,0,0
56,309,0,0,0,0,0,0,0,0,0,-1,1280,715,0,0
63,309,0,0,0,0,0,0,0,0,0,-1,1287,715,0,0
70,309,0,0,0,0,0,0,0,0,0,-1,1294,715,0,0
77,309,0,0,0,0,0,0,0,0,0,-1,1301,715,0,0
84,309,0,0,0,0,0,0,0,0,0,-1,1308,715,0,0
91,309,0,0,0,0,0,0,0,0,0,-1,1315,715,0,0
98,309,0,0,0,0,0,0,0,0,0,-1,1322,715,0,0
105,309,0,0,0,0,0,0,0,0,0,-1,1329,715,0,0
112,309,0,0,0,0,0,0,0,0,0,-1,1336,715,0,0
119,309,0,0,0,0,0,0,0,0,0,-1,1343,715,0,0
126,309,0,0,0,0,0,0,0,0,0,-1,1350,715,0,0
133,309,0,0,0,0,0,0,0,0,0,-1,1357,715,0,0
140,309,0,0,0,0,0,0,0,0,0,-1,1364,715,0,0
147,309,0,0,0,0,0,0,0,0,0,-1,1371,715,0,0
154,309,0,0,0,0,0,0,0,0,0,-1,1378,715,0,0
161,309,0,0,0,0,0,0,0,0,0,-1,1385,715,0,0
168,309,0,0,0,0,0,0,0,0,0,-1,1392,715,0,0
175,309,0,0,0,0,0,0,0,0,0,-1,1399,715,0,0
182,309,0,0,0,0,0,0,0,0,0,-1,1406,715,0,0
189,309,0,0,0,0,0,0,0,0,0,-1,1413,715,0,0
196,309,0,0,0,0,0,0,0,0,0,-1,1420,715,0,0
203,309,0,0,0,0,0,0,0,0,0,-1,1427,715,0,0
210,309,0,0,0,0,0,0,0,0,0,-1,1434,715,0,0
217,309,0,0,0,0,0,0,0,0,0,-1,1441,715,0,0
224,309,0,0,0,0,0,0,0,0,0,-1,1448,715,0,0
231,309,0,0,0,0,0,0,0,0,0,-1,1455,715,0,0
238,309,0,0,0,0,0,0,0,0,0,-1,1462,715,0,0
245,309,0,0,0,0,0,0,0,0,0,-1,1469,715,0,0
252,309,0,0,0,0,0,0,0,0,0,-1,1476,715,0,0
259,309,0,0,0,0,0,0,0,0,0,-1,1483,715,0,0
266,309,0,0,0,0,0,0,0,0,0,-1,1490,715,0,0
273,309,0,0,0,0,0,0,0,0,0,-1,1497,715,0,0
280,309,0,0,0,0,0,0,0,0,0,-1,1504,715,0,0
287,309,0,0,0,0,0,0,0,0,0,-1,1511,715,0,0
294,309,0,0,0,0,0,0,0,0,0,-1,1518,715,0,0
301,309,0,0,0,0,0,0,0,0,0,-1,1525,715,0,0
308,309,0,0,0,0,0,0,0,0,0,-1,1532,715,0,0
315,309,0,0,0,0,0,0,0,0,0,-1,1539,715,0,0
322,309,0,0,0,0,0,0,0,0,0,-1,1546,715,0,0
329,309,0,0,0,0,0,0,0,0,0,-1,1553,715,0,0
336,309,0,0,0,0,0,0,0,0,0,-1,1560,715,0,0
343,309,0,0,0,0,0,0,0,0,0,-1,1567,715,0,0
350,309,0,0,0,0,0,0,0,0,0,-1,1574,715,0,0
357,309,0,0,0,0,0,0,0,0,0,-1,1581,715,0,0
364,309,0,0,0,0,0,0,0,0,0,-1,1588,715,0,0
371,309,0,0,0,0,0,0,0,0,0,-1,1595,715,0,0
378,309,0,0,0,0,0,0,0,0,0,-1,1602,715,0,0
385,309,0,0,0,0,0,0,0,0,0,-1,1609,715,0,0
392,309,0,0,0,0,0,0,0,0,0,-1,1616,715,0,0
399,309,0,0,0,0,0,0,0,0,0,-1,1623,715,0,0
406,309,0,0,0,0,0,0,0,0,0,-1,1630,715,0,0
413,309,0,0,0,0,0,0,0,0,0,-1,1637,715,0,0
420,309,0,0,0,0,0,0,0,0,0,-1,1644,715,0,0
427,309,0,0,0,0,0,0,0,0,0,-1,1651,715,0,0
434,309,0,0,0,0,0,0,0,0,0,-1,1658,715,0,0
441,309,0,0,0,0,0,0,0,0,0,-1,1665,715,0,0
448,309,0,0,0,0,0,0,0,0,0,-1,1672,715,0,0
455,309,0,0,0,0,0,0,0,0,0,-1,1679,715,0,0
462,309,0,0,0,0,0,0,0,0,0,-1,1686,715,0,0
469,309,0,0,0,0,0,0,0,0,0,-1,1693,715,0,0
476,309,0,0,0,0,0,0,0,0,0,-1,1700,715,0,0
483,309,0,0,0,0,0,0,0,0,0,-1,1707,715,0,0
490,309,0,0,0,0,0,0,0,0,0,-1,1714,715,0,0
497,309,0,0,0,0,0,0,0,0,0,-1,1721,715,0,0
504,309,0,0,0,0,0,0,0,0,0,-1,1728,715,0,0
511,309,0,0,0,0,0,0,0,0,0,-1,1735,715,0,0
518,309,0,0,0,0,0,0,0,0,0,-1,1742,715,0,0
525,309,0,0,0,0,0,0,0,0,0,-1,1749,715,0,0
532,309,0,0,0,0,0,0,0,0,0,-1,1756,715,0,0
539,309,37.3879,2.08527,0,0,0,0,0,0,0,-1,1763,715,37.3879,-2.08529
546,309,37.6042,2.198,0,0,0,0,0,0,0,-1,1770,715,37.6043,-2.19803
553,309,37.9985,2.37781,0,0,0,0,0,0,0,-1,1777,715,37.9986,-2.37779
560,309,35.0404,3.80005,0,0,0,0,0,0,0,-1,1784,715,35.0404,-3.80002
567,309,31.8434,5.31348,0,0,0,0,0,0,0,-1,1791,715,31.8434,-5.3135
574,309,31.0057,6.19543,0,0,0,0,0,0,0,-1,1798,715,31.0058,-6.19541
581,309,30.2532,7.22888,0,0,0,0,0,0,0,-1,1805,715,30.2532,-7.2289
588,309,26.2064,7.76422,0,0,0,0,0,0,0,-1,1812,715,26.2064,-7.7642
595,309,19.585,3.71558,0,0,0,0,0,0,0,-1,1819,715,19.5849,-3.71555
602,309,11.0811,3.47772,0,0,0,0,0,0,0,-1,1826,715,11.0811,-3.47772
609,309,21.6436,-3.68201,0,0,0,0,0,0,0,-1,1833,715,21.6436,3.682
616,309,21.7628,-3.14063,-0.000108834,0.000716828,0.00230235,0.00264306,-0.00203507,0.87411,0.00270851,0.030952,1840,715,21.7628,3.14062
623,309,21.8231,-2.63599,0.00018334,0.000581904,0.00115964,0.00155926,-0.000794019,0.870491,0.00138241,0.0112808,1847,715,21.8231,2.63598
630,309,21.785,-2.19012,0.000461824,-0.000184715,0.000314802,0.000589779,-0.00031267,0.386065,0.000529153,0.0103544,1854,715,21.785,2.19015
637,309,21.7672,-1.71454,0.000349251,-0.000487604,-0.000340562,0.000470327,-0.000608679,-0.341582,0.000624669,0.0131641,1861,715,21.7672,1.71455
644,309,21.7484,-1.25403,-0.000345073,-0.000603683,-0.000785726,0.000321917,-0.00127067,-0.703846,0.000972349,0.0143322,1868,715,21.7484,1.25406
651,309,21.7321,-0.804749,-0.001568,-0.000351274,-0.000831632,7.07601e-05,-0.00199003,-1.10118,0.00135089,0.0130681,1875,715,21.732,0.804768
658,309,21.7318,-0.349731,-0.0028355,-6.0484e-05,-0.000914592,0.000213831,-0.00310982,-1.2794,0.00214804,0.0190849,1882,715,21.7318,0.349733
665,309,21.7258,0.104614,-0.00405076,0.00038287,-0.00112921,0.000653901,-0.00432179,-1.33523,0.00312207,0.0168257,1889,715,21.7258,-0.104636
672,309,21.7021,0.562866,-0.00537637,0.000847071,-0.00135505,0.00112931,-0.00565861,-1.36544,0.00419976,0.0153332,1896,715,21.7021,-0.562895
679,309,21.7213,1.06268,-0.00690592,0.00148129,-0.00162722,0.00178593,-0.00721055,-1.38573,0.00549986,0.0168581,1903,715,21.7213,-1.06267
686,309,21.6212,1.58447,-0.00873424,0.00206714,-0.00215785,0.00248228,-0.00914937,-1.38074,0.0070737,0.0262552,1910,715,21.6212,-1.58447
693,309,21.2159,2.14838,-0.0105271,0.00293641,-0.00254678,0.00340206,-0.0109927,-1.38996,0.00868745,0.0461023,1917,715,21.216,-2.14836
700,309,20.9941,2.82947,0,0,0,0,0,0,0,-1,1924,715,20.9942,-2.82945
707,309,15.6318,4.58655,0,0,0,0,0,0,0,-1,1931,715,15.6318,-4.58657
714,309,16.7573,6.68286,0,0,0,0,0,0,0,-1,1938,715,16.7574,-6.68284
721,309,16.8337,5.4458,0,0,0,0,0,0,0,-1,1945,715,16.8338,-5.44582
728,309,0,0,0,0,0,0,0,0,0,-1,1952,715,0,0
735,309,0,0,0,0,0,0,0,0,0,-1,1959,715,0,0
742,309,0,0,0,0,0,0,0,0,0,-1,1966,715,0,0
749,309,0,0,0,0,0,0,0,0,0,-1,1973,715,0,0
756,309,0,0,0,0,0,0,0,0,0,-1,1980,715,0,0
763,309,0,0,0,0,0,0,0,0,0,-1,1987,715,0,0
770,309,0,0,0,0,0,0,0,0,0,-1,1994,715,0,0
777,309,0,0,0,0,0,0,0,0,0,-1,2001,715,0,0
784,309,0,0,0,0,0,0,0,0,0,-1,2008,715,0,0
791,309,0,0,0,0,0,0,0,0,0,-1,2015,715,0,0
798,309,0,0,0,0,0,0,0,0,0,-1,2022,715,0,0
805,309,0,0,0,0,0,0,0,0,0,-1,2029,715,0,0
812,309,0,0,0,0,0,0,0,0,0,-1,2036,715,0,0
-700,302,0,0,0,0,0,0,0,0,0,-1,524,722,0,0
-693,302,0,0,0,0,0,0,0,0,0,-1,531,722,0,0
-686,302,0,0,0,0,0,0,0,0,0,-1,538,722,0,0
-679,302,0,0,0,0,0,0,0,0,0,-1,545,722,0,0
-672,302,0,0,0,0,0,0,0,0,0,-1,552,722,0,0
-665,302,0,0,0,0,0,0,0,0,0,-1,559,722,0,0
-658,302,0,0,0,0,0,0,0,0,0,-1,566,722,0,0
-651,302,0,0,0,0,0,0,0,0,0,-1,573,722,0,0
-644,302,0,0,0,0,0,0,0,0,0,-1,580,722,0,0
-637,302,0,0,0,0,0,0,0,0,0,-1,587,722,0,0
-630,302,0,0,0,0,0,0,0,0,0,-1,594,722,0,0
-623,302,0,0,0,0,0,0,0,0,0,-1,601,722,0,0
-616,302,0,0,0,0,0,0,0,0,0,-1,608,722,0,0
-609,302,-7.79266,-3.71649,0,0,0,0,0,0,0,-1,615,722,-7.79267,3.7165
-602,302,0.92865,-1.99158,0,0,0,0,0,0,0,-1,622,722,0.928637,1.99157
-595,302,-7.89941,2.13641,0,0,0,0,0,0,0,-1,629,722,-7.89939,-2.13639
-588,302,-7.10895,1.79163,0,0,0,0,0,0,0,-1,636,722,-7.10896,-1.79163
-581,302,-9.17566,1.09448,0,0,0,0,0,0,0,-1,643,722,-9.17569,-1.09445
-574,302,-11.5183,-0.344543,0,0,0,0,0,0,0,-1,650,722,-11.5183,0.344557
-567,302,-12.1534,-0.672241,0,0,0,0,0,0,0,-1,657,722,-12.1535,0.672246
-560,302,-13.7617,-0.545471,0,0,0,0,0,0,0,-1,664,722,-13.7617,0.545458
-553,302,-13.6628,-0.989746,0.000838862,0.00606973,-0.00299356,0.00742946,-0.000520866,-1.14444,0.00513541,0.0220034,671,722,-13.6628,0.989726
-546,302,-13.6595,-1.47375,0.000475008,0.00449788,-0.00218167,0.00545386,-0.000480972,-1.15781,0.00380637,0.0163203,678,722,-13.6595,1.47377
-539,302,-13.6721,-1.87177,0.000190478,0.00306046,-0.00141865,0.00364333,-0.00039239,-1.18096,0.00256969,0.0161668,685,722,-13.6721,1.87179
-532,302,-13.678,-2.302,5.79422e-05,0.0017923,-0.000745303,0.00206857,-0.000218328,-1.21582,0.00145729,0.0148405,692,722,-13.678,2.30199
-525,302,-13.6628,-2.78265,-2.17021e-07,0.000843164,-0.00017925,0.00087968,-3.67331e-05,-1.36983,0.000599073,0.0185298,699,722,-13.6628,2.78267
-518,302,-13.6794,-3.18994,-6.84224e-05,-3.34179e-06,0.000280177,0.000246179,-0.000317943,0.84321,0.000326573,0.0197506,706,722,-13.6794,3.18997
-511,302,-13.7026,-3.58868,0.000715771,-0.0013389,0.000939967,0.0010809,-0.00170403,0.370509,0.00162124,0.0111737,713,722,-13.7026,3.5887
-504,302,-13.6912,-4.0163,0.00358429,-0.00297348,0.00257077,0.00447193,-0.00386112,0.332465,0.0048154,0.010124,720,722,-13.6912,4.01629
-497,302,-13.7239,-4.44489,0.00892671,-0.00521865,0.00504515,0.0105417,-0.00683368,0.309808,0.0101076,0.0146789,727,722,-13.7239,4.44488
-490,302,-13.7706,-4.88452,0,0,0,0,0,0,0,-1,734,722,-13.7706,4.8845
-483,302,-9.53412,-3.1673,0,0,0,0,0,0,0,-1,741,722,-9.53411,3.1673
-476,302,-4.29749,-0.203491,0,0,0,0,0,0,0,-1,748,722,-4.29751,0.203464
-469,302,-12.369,1.42859,0,0,0,0,0,0,0,-1,755,722,-12.3689,-1.42857
-462,302,-17.4766,0.310791,0,0,0,0,0,0,0,-1,762,722,-17.4766,-0.310788
-455,302,-17.8736,1.4895,0,0,0,0,0,0,0,-1,769,722,-17.8736,-1.48952
-448,302,-22.1009,-0.967468,0,0,0,0,0,0,0,-1,776,722,-22.1009,0.967494
-441,302,-22.2877,-0.842041,0,0,0,0,0,0,0,-1,783,722,-22.2877,0.842065
-434,302,-22.3103,-0.695129,0,0,0,0,0,0,0,-1,790,722,-22.3103,0.695104
-427,302,-15.3611,1.80798,0,0,0,0,0,0,0,-1,797,722,-15.3611,-1.80801
-420,302,0,0,0,0,0,0,0,0,0,-1,804,722,0,0
-413,302,0,0,0,0,0,0,0,0,0,-1,811,722,0,0
-406,302,0,0,0,0,0,0,0,0,0,-1,818,722,0,0
-399,302,0,0,0,0,0,0,0,0,0,-1,825,722,0,0
-392,302,0,0,0,0,0,0,0,0,0,-1,832,722,0,0
-385,302,0,0,0,0,0,0,0,0,0,-1,839,722,0,0
-378,302,0,0,0,0,0,0,0,0,0,-1,846,722,0,0
-371,302,0,0,0,0,0,0,0,0,0,-1,853,722,0,0
-364,302,0,0,0,0,0,0,0,0,0,-1,860,722,0,0
-357,302,0,0,0,0,0,0,0,0,0,-1,867,722,0,0
-350,302,0,0,0,0,0,0,0,0,0,-1,874,722,0,0
-343,302,0,0,0,0,0,0,0,0,0,-1,881,722,0,0
-336,302,0,0,0,0,0,0,0,0,0,-1,888,722,0,0
-329,302,0,0,0,0,0,0,0,0,0,-1,895,722,0,0
-322,302,0,0,0,0,0,0,0,0,0,-1,902,722,0,0
-315,302,0,0,0,0,0,0,0,0,0,-1,909,722,0,0
-308,302,0,0,0,0,0,0,0,0,0,-1,916,722,0,0
-301,302,0,0,0,0,0,0,0,0,0,-1,923,722,0,0
-294,302,0,0,0,0,0,0,0,0,0,-1,930,722,0,0
-287,302,0,0,0,0,0,0,0,0,0,-1,937,722,0,0
-280,302,0,0,0,0,0,0,0,0,0,-1,944,722,0,0
-273,302,0,0,0,0,0,0,0,0,0,-1,951,722,0,0
-266,302,0,0,0,0,0,0,0,0,0,-1,958,722,0,0
-259,302,0,0,0,0,0,0,0,0,0,-1,965,722,0,0
-252,302,0,0,0,0,0,0,0,0,0,-1,972,722,0,0
-245,302,0,0,0,0,0,0,0,0,0,-1,979,722,0,0
-238,302,0,0,0,0,0,0,0,0,0,-1,986,722,0,0
-231,302,0,0,0,0,0,0,0,0,0,-1,993,722,0,0
-224,302,0,0,0,0,0,0,0,0,0,-1,1000,722,0,0
-217,302,0,0,0,0,0,0,0,0,0,-1,1007,722,0,0
-210,302,0,0,0,0,0,0,0,0,0,-1,1014,722,0,0
-203,302,0,0,0,0,0,0,0,0,0,-1,1021,722,0,0
-196,302,0,0,0,0,0,0,0,0,0,-1,1028,722,0,0
-189,302,0,0,0,0,0,0,0,0,0,-1,1035,722,0,0
-182,302,0,0,0,0,0,0,0,0,0,-1,1042,722,0,0
-175,302,0,0,0,0,0,0,0,0,0,-1,1049,722,0,0
-168,302,0,0,0,0,0,0,0,0,0,-1,1056,722,0,0
-161,302,0,0,0,0,0,0,0,0,0,-1,1063,722,0,0
-154,302,0,0,0,0,0,0,0,0,0,-1,1070,722,0,0
-147,302,0,0,0,0,0,0,0,0,0,-1,1077,722,0,0
-140,302,0,0,0,0,0,0,0,0,0,-1,1084,722,0,0
-133,302,0,0,0,0,0,0,0,0,0,-1,1091,722,0,0
-126,302,0,0,0,0,0,0,0,0,0,-1,1098,722,0,0
-119,302,0,0,0,0,0,0,0,0,0,-1,1105,722,0,0
-112,302,0,0,0,0,0,0,0,0,0,-1,1112,722,0,0
-105,302,0,0,0,0,0,0,0,0,0,-1,1119,722,0,0
-98,302,0,0,0,0,0,0,0,0,0,-1,1126,722,0,0
-91,302,0,0,0,0,0,0,0,0,0,-1,1133,722,0,0
-84,302,0,0,0,0,0,0,0,0,0,-1,1140,722,0,0
-77,302,0,0,0,0,0,0,0,0,0,-1,1147,722,0,0
-70,302,0,0,0,0,0,0,0,0,0,-1,1154,722,0,0
-63,302,0,0,0,0,0,0,0,0,0,-1,1161,722,0,0
-56,302,0,0,0,0,0,0,0,0,0,-1,1168,722,0,0
-49,302,0,0,0,0,0,0,0,0,0,-1,1175,722,0,0
-42,302,0,0,0,0,0,0,0,0,0,-1,1182,722,0,0
-35,302,0,0,0,0,0,0,0,0,0,-1,1189,722,0,0
-28,302,0,0,0,0,0,0,0,0,0,-1,1196,722,0,0
-21,302,0,0,0,0,0,0,0,0,0,-1,1203,722,0,0
-14,302,0,0,0,0,0,0,0,0,0,-1,1210,722,0,0
-7,302,0,0,0,0,0,0,0,0,0,-1,1217,722,0,0
0,302,0,0,0,0,0,0,0,0,0,-1,1224,722,0,0
7,302,0,0,0,0,0,0,0,0,0,-1,1231,722,0,0
14,302,0,0,0,0,0,0,0,0,0,-1,1238,722,0,0
21,302,0,0,0,0,0,0,0,0,0,-1,1245,722,0,0
28,302,0,0,0,0,0,0,0,0,0,-1,1252,722,0,0
35,302,0,0,0,0,0,0,0,0,0,-1,1259,722,0,0
42,302,0,0,0,0,0,0,0,0,0,-1,1266,722,0,0
49,302,0,0,0,0,0,0,0,0,0,-1,1273,722,0,0
56,302,0,0,0,0,0,0,0,0,0,-1,1280,722,0,0
63,302,0,0,0,0,0,0,0,0,0,-1,1287,722,0,0
70,302,0,0,0,0,0,0,0,0,0,-1,1294,722,0,0
77,302,0,0,0,0,0,0,0,0,0,-1,1301,722,0,0
84,302,0,0,0,0,0,0,0,0,0,-1,1308,722,0,0
91,302,0,0,0,0,0,0,0,0,0,-1,1315,722,0,0
98,302,0,0,0,0,0,0,0,0,0,-1,1322,722,0,0
105,302,0,0,0,0,0,0,0,0,0,-1,1329,722,0,0
112,302,0,0,0,0,0,0,0,0,0,-1,1336,722,0,0
119,302,0,0,0,0,0,0,0,0,0,-1,1343,722,0,0
126,302,0,0,0,0,0,0,0,0,0,-1,1350,722,0,0
133,302,0,0,0,0,0,0,0,0,0,-1,1357,722,0,0
140,302,0,0,0,0,0,0,0,0,0,-1,1364,722,0,0
147,302,0,0,0,0,0,0,0,0,0,-1,1371,722,0,0
154,302,0,0,0,0,0,0,0,0,0,-1,1378,722,0,0
161,302,0,0,0,0,0,0,0,0,0,-1,1385,722,0,0
168,302,0,0,0,0,0,0,0,0,0,-1,1392,722,0,0
175,302,0,0,0,0,0,0,0,0,0,-1,1399,722,0,0
182,302,0,0,0,0,0,0,0,0,0,-1,1406,722,0,0
189,302,0,0,0,0,0,0,0,0,0,-1,1413,722,0,0
196,302,0,0,0,0,0,0,0,0,0,-1,1420,722,0,0
203,302,0,0,0,0,0,0,0,0,0,-1,1427,722,0,0
210,302,0,0,0,0,0,0,0,0,0,-1,1434,722,0,0
217,302,0,0,0,0,0,0,0,0,0,-1,1441,722,0,0
224,302,0,0,0,0,0,0,0,0,0,-1,1448,722,0,0
231,302,0,0,0,0,0,0,0,0,0,-1,1455,722,0,0
238,302,0,0,0,0,0,0,0,0,0,-1,1462,722,0,0
245,302,0,0,0,0,0,0,0,0,0,-1,1469,722,0,0
252,302,0,0,0,0,0,0,0,0,0,-1,1476,722,0,0
259,302,0,0,0,0,0,0,0,0,0,-1,1483,722,0,0
266,302,0,0,0,0,0,0,0,0,0,-1,1490,722,0,0
273,302,0,0,0,0,0,0,0,0,0,-1,1497,722,0,0
280,302,0,0,0,0,0,0,0,0,0,-1,1504,722,0,0
287,302,0,0,0,0,0,0,0,0,0,-1,1511,722,0,0
294,302,0,0,0,0,0,0,0,0,0,-1,1518,722,0,0
301,302,0,0,0,0,0,0,0,0,0,-1,1525,722,0,0
308,302,0,0,0,0,0,0,0,0,0,-1,1532,722,0,0
315,302,0,0,0,0,0,0,0,0,0,-1,1539,722,0,0
322,302,0,0,0,0,0,0,0,0,0,-1,1546,722,0,0
329,302,0,0,0,0,0,0,0,0,0,-1,1553,722,0,0
336,302,0,0,0,0,0,0,0,0,0,-1,1560,722,0,0
343,302,0,0,0,0,0,0,0,0,0,-1,1567,722,0,0
350,302,0,0,0,0,0,0,0,0,0,-1,1574,722,0,0
357,302,0,0,0,0,0,0,0,0,0,-1,1581,722,0,0
364,302,0,0,0,0,0,0,0,0,0,-1,1588,722,0,0
371,302,0,0,0,0,0,0,0,0,0,-1,1595,722,0,0
378,302,0,0,0,0,0,0,0,0,0,-1,1602,722,0,0
385,302,0,0,0,0,0,0,0,0,0,-1,1609,722,0,0
392,302,0,0,0,0,0,0,0,0,0,-1,1616,722,0,0
399,302,0,0,0,0,0,0,0,0,0,-1,1623,722,0,0
406,302,0,0,0,0,0,0,0,0,0,-1,1630,722,0,0
413,302,0,0,0,0,0,0,0,0,0,-1,1637,722,0,0
420,302,0,0,0,0,0,0,0,0,0,-1,1644,722,0,0
427,302,0,0,0,0,0,0,0,0,0,-1,1651,722,0,0
434,302,0,0,0,0,0,0,0,0,0,-1,1658,722,0,0
441,302,0,0,0,0,0,0,0,0,0,-1,1665,722,0,0
448,302,0,0,0,0,0,0,0,0,0,-1,1672,722,0,0
455,302,0,0,0,0,0,0,0,0,0,-1,1679,722,0,0
462,302,0,0,0,0,0,0,0,0,0,-1,1686,722,0,0
469,302,0,0,0,0,0,0,0,0,0,-1,1693,722,0,0
476,302,0,0,0,0,0,0,0,0,0,-1,1700,722,0,0
483,302,0,0,0,0,0,0,0,0,0,-1,1707,722,0,0
490,302,0,0,0,0,0,0,0,0,0,-1,1714,722,0,0
497,302,0,0,0,0,0,0,0,0,0,-1,1721,722,0,0
504,302,0,0,0,0,0,0,0,0,0,-1,1728,722,0,0
511,302,0,0,0,0,0,0,0,0,0,-1,1735,722,0,0
518,302,0,0,0,0,0,0,0,0,0,-1,1742,722,0,0
525,302,0,0,0,0,0,0,0,0,0,-1,1749,722,0,0
532,302,0,0,0,0,0,0,0,0,0,-1,1756,722,0,0
539,302,0,0,0,0,0,0,0,0,0,-1,1763,722,0,0
546,302,37.3187,2.44489,0.0239195,-0.0121986,0.0297611,0.0406721,-0.0289512,0.512696,0.0403864,0.0431148,1770,722,37.3187,-2.4449
553,302,37.4966,2.40961,0.0179287,-0.0113665,0.0301023,0.036758,-0.0301958,0.558966,0.0387176,0.0427541,1777,722,37.4966,-2.40958
560,302,37.6736,2.23846,0,0,0,0,0,0,0,-1,1784,722,37.6736,-2.23846
567,302,34.8904,3.34418,0,0,0,0,0,0,0,-1,1791,722,34.8904,-3.34418
574,302,31.8204,5.61877,0,0,0,0,0,0,0,-1,1798,722,31.8204,-5.6188
581,302,31.3031,6.59534,0,0,0,0,0,0,0,-1,1805,722,31.3031,-6.59531
588,302,26.9731,7.19983,0,0,0,0,0,0,0,-1,1812,722,26.9732,-7.19981
595,302,27.3826,8.13104,0,0,0,0,0,0,0,-1,1819,722,27.3825,-8.13102
602,302,14.7349,5.21246,0,0,0,0,0,0,0,-1,1826,722,14.7349,-5.21247
609,302,11.1578,-0.125854,0,0,0,0,0,0,0,-1,1833,722,11.1579,0.125839
616,302,22.1581,-3.11914,0,0,0,0,0,0,0,-1,1840,722,22.1581,3.11912
623,302,22.2756,-2.61609,0.000757008,0.00112996,-1.96596e-05,0.00113099,0.000755974,-1.51828,0.00066521,0.0154132,1847,722,22.2756,2.61607
630,302,22.2308,-2.1709,0.00115426,-3.75695e-06,-0.000715639,0.00149579,-0.000345287,-0.445273,0.00113001,0.0113273,1854,722,22.2308,2.1709
637,302,22.2009,-1.69757,0.00115915,-0.000515037,-0.00120918,0.00179272,-0.0011486,-0.482633,0.00171169,0.0141761,1861,722,22.2009,1.69757
644,302,22.2017,-1.24268,0.000581408,-0.00080976,-0.00139529,0.00144488,-0.00167323,-0.554165,0.00180185,0.0145698,1868,722,22.2016,1.24269
651,302,22.1863,-0.77948,-0.000711304,-0.000442151,-0.00105543,0.000487246,-0.0016407,-0.848811,0.00128733,0.0141021,1875,722,22.1862,0.779488
658,302,22.1981,-0.343811,-0.00196482,-5.11047e-05,-0.000813045,0.000247673,-0.0022636,-1.21864,0.00159803,0.0142946,1882,722,22.1982,0.343818
665,302,22.1759,0.105469,-0.00289244,0.000511754,-0.000839074,0.000707334,-0.00308802,-1.34179,0.00233052,0.0141182,1889,722,22.1759,-0.105448
672,302,22.1567,0.552002,-0.00378111,0.0010321,-0.000897973,0.00119417,-0.00394318,-1.39223,0.00310437,0.012054,1896,722,22.1567,-0.55198
679,302,22.147,1.03845,-0.00473866,0.00165244,-0.00101642,0.00181019,-0.00489641,-1.41682,0.00400639,0.00987024,1903,722,22.147,-1.03847
686,302,22.162,1.51691,-0.00580687,0.00222008,-0.00132037,0.00243169,-0.00601848,-1.41188,0.00502307,0.0167552,1910,722,22.1619,-1.5169
693,302,21.8311,1.8642,-0.00662766,0.00291063,-0.00149043,0.0031381,-0.00685512,-1.41935,0.00590113,0.0441063,1917,722,21.8311,-1.8642
700,302,21.766,2.08167,0,0,0,0,0,0,0,-1,1924,722,21.766,-2.08164
707,302,16.7321,4.76685,0,0,0,0,0,0,0,-1,1931,722,16.7321,-4.76687
714,302,17.2,5.77594,0,0,0,0,0,0,0,-1,1938,722,17.2,-5.77595
721,302,17.7914,6.60394,0,0,0,0,0,0,0,-1,1945,722,17.7914,-6.60395
728,302,17.2798,4.81702,0,0,0,0,0,0,0,-1,1952,722,17.2798,-4.81703
735,302,0,0,0,0,0,0,0,0,0,-1,1959,722,0,0
742,302,0,0,0,0,0,0,0,0,0,-1,1966,722,0,0
749,302,0,0,0,0,0,0,0,0,0,-1,1973,722,0,0
756,302,0,0,0,0,0,0,0,0,0,-1,1980,722,0,0
763,302,0,0,0,0,0,0,0,0,0,-1,1987,722,0,0
770,302,0,0,0,0,0,0,0,0,0,-1,1994,722,0,0
777,302,0,0,0,0,0,0,0,0,0,-1,2001,722,0,0
784,302,0,0,0,0,0,0,0,0,0,-1,2008,722,0,0
791,302,0,0,0,0,0,0,0,0,0,-1,2015,722,0,0
798,302,0,0,0,0,0,0,0,0,0,-1,2022,722,0,0
805,302,0,0,0,0,0,0,0,0,0,-1,2029,722,0,0
812,302,0,0,0,0,0,0,0,0,0,-1,2036,722,0,0
-700,295,0,0,0,0,0,0,0,0,0,-1,524,729,0,0
-693,295,0,0,0,0,0,0,0,0,0,-1,531,729,0,0
-686,295,0,0,0,0,0,0,0,0,0,-1,538,729,0,0
-679,295,0,0,0,0,0,0,0,0,0,-1,545,729,0,0
-672,295,0,0,0,0,0,0,0,0,0,-1,552,729,0,0
-665,295,0,0,0,0,0,0,0,0,0,-1,559,729,0,0
-658,295,0,0,0,0,0,0,0,0,0,-1,566,729,0,0
-651,295,0,0,0,0,0,0,0,0,0,-1,573,729,0,0
-644,295,0,0,0,0,0,0,0,0,0,-1,580,729,0,0
-637,295,0,0,0,0,0,0,0,0,0,-1,587,729,0,0
-630,295,0,0,0,0,0,0,0,0,0,-1,594,729,0,0
-623,295,0,0,0,0,0,0,0,0,0,-1,601,729,0,0
-616,295,-13.4911,1.31738,0,0,0,0,0,0,0,-1,608,729,-13.4911,-1.3174
-609,295,-10.2864,0.832031,0,0,0,0,0,0,0,-1,615,729,-10.2863,-0.832034
-602,295,-8.19006,3.01587,0,0,0,0,0,0,0,-1,622,729,-8.19005,-3.01588
-595,295,-0.615479,-1.95447,0,0,0,0,0,0,0,-1,629,729,-0.615481,1.95445
-588,295,-7.98999,1.56903,0,0,0,0,0,0,0,-1,636,729,-7.98997,-1.56905
-581,295,-12.0404,0.150574,0,0,0,0,0,0,0,-1,643,729,-12.0404,-0.150604
-574,295,-12.1605,-0.0739746,0,0,0,0,0,0,0,-1,650,729,-12.1605,0.0739856
-567,295,-13.9464,-0.117798,0,0,0,0,0,0,0,-1,657,729,-13.9464,0.117769
-560,295,-14.0671,-0.619324,0.00182647,0.00622238,-0.00302508,0.0077637,0.000285159,-1.09957,0.00508341,0.0321787,664,729,-14.0672,0.619294
-553,295,-14.0385,-1.03271,0.00097591,0.00458254,-0.00211706,0.00556021,-1.75997e-06,-1.13817,0.00370739,0.0181893,671,729,-14.0385,1.03271
-546,295,-14.0989,-1.46747,0.000469721,0.00320765,-0.00137728,0.00378058,-0.00010321,-1.17658,0.00255548,0.0206933,678,729,-14.099,1.46749
-539,295,-14.1164,-1.85266,3.33846e-05,0.00193274,-0.00066879,0.0021446,-0.000178474,-1.26402,0.00149279,0.0180119,685,729,-14.1164,1.85265
-532,295,-14.1096,-2.27356,-0.000236697,0.000832486,-8.98265e-05,0.000839981,-0.000244191,-1.48756,0.000656696,0.0145781,692,729,-14.1096,2.27355
-525,295,-14.1127,-2.73114,-0.000435109,8.96051e-05,0.000348754,0.000263666,-0.00060917,1.10787,0.000516925,0.0137943,699,729,-14.1127,2.73114
-518,295,-14.1183,-3.14368,-0.000720836,-0.000553006,0.00070204,7.01164e-05,-0.00134396,0.844881,0.000920235,0.0109211,706,729,-14.1184,3.1437
-511,295,-14.1212,-3.56122,6.15708e-05,-0.00190427,0.00125336,0.000671457,-0.00251416,0.452872,0.00193907,0.00945032,713,729,-14.1212,3.56124
-504,295,-14.1307,-3.98822,0.0031935,-0.00353701,0.00296716,0.00431477,-0.00465828,0.361307,0.00518186,0.0106535,720,729,-14.1307,3.98823
-497,295,-14.1785,-4.37604,0.00887468,-0.00581742,0.00553339,0.0107255,-0.00766826,0.322788,0.0106684,0.0195207,727,729,-14.1785,4.37602
-490,295,-14.2346,-4.75378,0,0,0,0,0,0,0,-1,734,729,-14.2346,4.75376
-483,295,-6.84503,-0.454651,0,0,0,0,0,0,0,-1,741,729,-6.84505,0.454639
-476,295,-13.1738,-0.836243,0,0,0,0,0,0,0,-1,748,729,-13.1738,0.836223
-469,295,-24.4053,-1.35907,0,0,0,0,0,0,0,-1,755,729,-24.4053,1.35906
-462,295,-17.9293,-0.330566,0,0,0,0,0,0,0,-1,762,729,-17.9293,0.330568
-455,295,-27.0977,-0.220825,0,0,0,0,0,0,0,-1,769,729,-27.0977,0.220809
-448,295,-26.2465,0.264771,0,0,0,0,0,0,0,-1,776,729,-26.2465,-0.264765
-441,295,-25.6829,0.356445,0,0,0,0,0,0,0,-1,783,729,-25.6829,-0.356421
-434,295,-24.8022,0.590271,0,0,0,0,0,0,0,-1,790,729,-24.8022,-0.590249
-427,295,0,0,0,0,0,0,0,0,0,-1,797,729,0,0
-420,295,0,0,0,0,0,0,0,0,0,-1,804,729,0,0
-413,295,0,0,0,0,0,0,0,0,0,-1,811,729,0,0
-406,295,0,0,0,0,0,0,0,0,0,-1,818,729,0,0
-399,295,0,0,0,0,0,0,0,0,0,-1,825,729,0,0
-392,295,0,0,0,0,0,0,0,0,0,-1,832,729,0,0
-385,295,0,0,0,0,0,0,0,0,0,-1,839,729,0,0
-378,295,0,0,0,0,0,0,0,0,0,-1,846,729,0,0
-371,295,0,0,0,0,0,0,0,0,0,-1,853,729,0,0
-364,295,0,0,0,0,0,0,0,0,0,-1,860,729,0,0
-357,295,0,0,0,0,0,0,0,0,0,-1,867,729,0,0
-350,295,0,0,0,0,0,0,0,0,0,-1,874,729,0,0
-343,295,0,0,0,0,0,0,0,0,0,-1,881,729,0,0
-336,295,0,0,0,0,0,0,0,0,0,-1,888,729,0,0
-329,295,0,0,0,0,0,0,0,0,0,-1,895,729,0,0
-322,295,0,0,0,0,0,0,0,0,0,-1,902,729,0,0
-315,295,0,0,0,0,0,0,0,0,0,-1,909,729,0,0
-308,295,0,0,0,0,0,0,0,0,0,-1,916,729,0,0
-301,295,0,0,0,0,0,0,0,0,0,-1,923,729,0,0
-294,295,0,0,0,0,0,0,0,0,0,-1,930,729,0,0
-287,295,0,0,0,0,0,0,0,0,0,-1,937,729,0,0
-280,295,0,0,0,0,0,0,0,0,0,-1,944,729,0,0
-273,295,0,0,0,0,0,0,0,0,0,-1,951,729,0,0
-266,295,0,0,0,0,0,0,0,0,0,-1,958,729,0,0
-259,295,0,0,0,0,0,0,0,0,0,-1,965,729,0,0
-252,295,0,0,0,0,0,0,0,0,0,-1,972,729,0,0
-245,295,0,0,0,0,0,0,0,0,0,-1,979,729,0,0
-238,295,0,0,0,0,0,0,0,0,0,-1,986,729,0,0
-231,295,0,0,0,0,0,0,0,0,0,-1,993,729,0,0
-224,295,0,0,0,0,0,0,0,0,0,-1,1000,729,0,0
-217,295,0,0,0,0,0,0,0,0,0,-1,1007,729,0,0
-210,295,0,0,0,0,0,0,0,0,0,-1,1014,729,0,0
-203,295,0,0,0,0,0,0,0,0,0,-1,1021,729,0,0
-196,295,0,0,0,0,0,0,0,0,0,-1,1028,729,0,0
-189,295,0,0,0,0,0,0,0,0,0,-1,1035,729,0,0
-182,295,0,0,0,0,0,0,0,0,0,-1,1042,729,0,0
-175,295,0,0,0,0,0,0,0,0,0,-1,1049,729,0,0
-168,295,0,0,0,0,0,0,0,0,0,-1,1056,729,0,0
-161,295,0,0,0,0,0,0,0,0,0,-1,1063,729,0,0
-154,295,0,0,0,0,0,0,0,0,0,-1,1070,729,0,0
-147,295,0,0,0,0,0,0,0,0,0,-1,1077,729,0,0
-140,295,0,0,0,0,0,0,0,0,0,-1,1084,729,0,0
-133,295,0,0,0,0,0,0,0,0,0,-1,1091,729,0,0
-126,295,0,0,0,0,0,0,0,0,0,-1,1098,729,0,0
-119,295,0,0,0,0,0,0,0,0,0,-1,1105,729,0,0
-112,295,0,0,0,0,0,0,0,0,0,-1,1112,729,0,0
-105,295,0,0,0,0,0,0,0,0,0,-1,1119,729,0,0
-98,295,0,0,0,0,0,0,0,0,0,-1,1126,729,0,0
-91,295,0,0,0,0,0,0,0,0,0,-1,1133,729,0,0
-84,295,0,0,0,0,0,0,0,0,0,-1,1140,729,0,0
-77,295,0,0,0,0,0,0,0,0,0,-1,1147,729,0,0
-70,295,0,0,0,0,0,0,0,0,0,-1,1154,729,0,0
-63,295,0,0,0,0,0,0,0,0,0,-1,1161,729,0,0
-56,295,0,0,0,0,0,0,0,0,0,-1,1168,729,0,0
-49,295,0,0,0,0,0,0,0,0,0,-1,1175,729,0,0
-42,295,0,0,0,0,0,0,0,0,0,-1,1182,729,0,0
-35,295,0,0,0,0,0,0,0,0,0,-1,1189,729,0,0
-28,295,0,0,0,0,0,0,0,0,0,-1,1196,729,0,0
-21,295,0,0,0,0,0,0,0,0,0,-1,1203,729,0,0
-14,295,0,0,0,0,0,0,0,0,0,-1,1210,729,0,0
-7,295,0,0,0,0,0,0,0,0,0,-1,1217,729,0,0
0,295,0,0,0,0,0,0,0,0,0,-1,1224,729,0,0
7,295,0,0,0,0,0,0,0,0,0,-1,1231,729,0,0
14,295,0,0,0,0,0,0,0,0,0,-1,1238,729,0,0
21,295,0,0,0,0,0,0,0,0,0,-1,1245,729,0,0
28,295,0,0,0,0,0,0,0,0,0,-1,1252,729,0,0
35,295,0,0,0,0,0,0,0,0,0,-1,1259,729,0,0
42,295,0,0,0,0,0,0,0,0,0,-1,1266,729,0,0
49,295,0,0,0,0,0,0,0,0,0,-1,1273,729,0,0
56,295,0,0,0,0,0,0,0,0,0,-1,1280,729,0,0
63,295,0,0,0,0,0,0,0,0,0,-1,1287,729,0,0
70,295,0,0,0,0,0,0,0,0,0,-1,1294,729,0,0
77,295,0,0,0,0,0,0,0,0,0,-1,1301,729,0,0
84,295,0,0,0,0,0,0,0,0,0,-1,1308,729,0,0
91,295,0,0,0,0,0,0,0,0,0,-1,1315,729,0,0
98,295,0,0,0,0,0,0,0,0,0,-1,1322,729,0,0
105,295,0,0,0,0,0,0,0,0,0,-1,1329,729,0,0
112,295,0,0,0,0,0,0,0,0,0,-1,1336,729,0,0
119,295,0,0,0,0,0,0,0,0,0,-1,1343,729,0,0
126,295,0,0,0,0,0,0,0,0,0,-1,1350,729,0,0
133,295,0,0,0,0,0,0,0,0,0,-1,1357,729,0,0
140,295,0,0,0,0,0,0,0,0,0,-1,1364,729,0,0
147,295,0,0,0,0,0,0,0,0,0,-1,1371,729,0,0
154,295,0,0,0,0,0,0,0,0,0,-1,1378,729,0,0
161,295,0,0,0,0,0,0,0,0,0,-1,1385,729,0,0
168,295,0,0,0,0,0,0,0,0,0,-1,1392,729,0,0
175,295,0,0,0,0,0,0,0,0,0,-1,1399,729,0,0
182,295,0,0,0,0,0,0,0,0,0,-1,1406,729,0,0
189,295,0,0,0,0,0,0,0,0,0,-1,1413,729,0,0
196,295,0,0,0,0,0,0,0,0,0,-1,1420,729,0,0
203,295,0,0,0,0,0,0,0,0,0,-1,1427,729,0,0
210,295,0,0,0,0,0,0,0,0,0,-1,1434,729,0,0
217,295,0,0,0,0,0,0,0,0,0,-1,1441,729,0,0
224,295,0,0,0,0,0,0,0,0,0,-1,1448,729,0,0
231,295,0,0,0,0,0,0,0,0,0,-1,1455,729,0,0
238,295,0,0,0,0,0,0,0,0,0,-1,1462,729,0,0
245,295,0,0,0,0,0,0,0,0,0,-1,1469,729,0,0
252,295,0,0,0,0,0,0,0,0,0,-1,1476,729,0,0
259,295,0,0,0,0,0,0,0,0,0,-1,1483,729,0,0
266,295,0,0,0,0,0,0,0,0,0,-1,1490,729,0,0
273,295,0,0,0,0,0,0,0,0,0,-1,1497,729,0,0
280,295,0,0,0,0,0,0,0,0,0,-1,1504,729,0,0
287,295,0,0,0,0,0,0,0,0,0,-1,1511,729,0,0
294,295,0,0,0,0,0,0,0,0,0,-1,1518,729,0,0
301,295,0,0,0,0,0,0,0,0,0,-1,1525,729,0,0
308,295,0,0,0,0,0,0,0,0,0,-1,1532,729,0,0
315,295,0,0,0,0,0,0,0,0,0,-1,1539,729,0,0
322,295,0,0,0,0,0,0,0,0,0,-1,1546,729,0,0
329,295,0,0,0,0,0,0,0,0,0,-1,1553,729,0,0
336,295,0,0,0,0,0,0,0,0,0,-1,1560,729,0,0
343,295,0,0,0,0,0,0,0,0,0,-1,1567,729,0,0
350,295,0,0,0,0,0,0,0,0,0,-1,1574,729,0,0
357,295,0,0,0,0,0,0,0,0,0,-1,1581,729,0,0
364,295,0,0,0,0,0,0,0,0,0,-1,1588,729,0,0
371,295,0,0,0,0,0,0,0,0,0,-1,1595,729,0,0
378,295,0,0,0,0,0,0,0,0,0,-1,1602,729,0,0
385,295,0,0,0,0,0,0,0,0,0,-1,1609,729,0,0
392,295,0,0,0,0,0,0,0,0,0,-1,1616,729,0,0
399,295,0,0,0,0,0,0,0,0,0,-1,1623,729,0,0
406,295,0,0,0,0,0,0,0,0,0,-1,1630,729,0,0
413,295,0,0,0,0,0,0,0,0,0,-1,1637,729,0,0
420,295,0,0,0,0,0,0,0,0,0,-1,1644,729,0,0
427,295,0,0,0,0,0,0,0,0,0,-1,1651,729,0,0
434,295,0,0,0,0,0,0,0,0,0,-1,1658,729,0,0
441,295,0,0,0,0,0,0,0,0,0,-1,1665,729,0,0
448,295,0,0,0,0,0,0,0,0,0,-1,1672,729,0,0
455,295,0,0,0,0,0,0,0,0,0,-1,1679,729,0,0
462,295,0,0,0,0,0,0,0,0,0,-1,1686,729,0,0
469,295,0,0,0,0,0,0,0,0,0,-1,1693,729,0,0
476,295,0,0,0,0,0,0,0,0,0,-1,1700,729,0,0
483,295,0,0,0,0,0,0,0,0,0,-1,1707,729,0,0
490,295,0,0,0,0,0,0,0,0,0,-1,1714,729,0,0
497,295,0,0,0,0,0,0,0,0,0,-1,1721,729,0,0
504,295,0,0,0,0,0,0,0,0,0,-1,1728,729,0,0
511,295,0,0,0,0,0,0,0,0,0,-1,1735,729,0,0
518,295,0,0,0,0,0,0,0,0,0,-1,1742,729,0,0
525,295,0,0,0,0,0,0,0,0,0,-1,1749,729,0,0
532,295,0,0,0,0,0,0,0,0,0,-1,1756,729,0,0
539,295,0,0,0,0,0,0,0,0,0,-1,1763,729,0,0
546,295,36.9579,2.52197,0.0141666,-0.00704366,0.0216121,0.0276353,-0.0205124,0.557307,0.0278993,0.0437085,1770,729,36.9579,-2.52195
553,295,36.9526,2.32092,0.0117435,-0.0096415,0.0287361,0.031712,-0.02961,0.607289,0.0354112,0.0447506,1777,729,36.9526,-2.32093
560,295,37.1383,2.30304,0.00955897,-0.00859886,0.0273628,0.0293097,-0.0283496,0.625214,0.0332911,0.0449833,1784,729,37.1383,-2.30302
567,295,36.6156,2.31042,0,0,0,0,0,0,0,-1,1791,729,36.6156,-2.31042
574,295,33.1528,4.70282,0,0,0,0,0,0,0,-1,1798,729,33.1529,-4.70284
581,295,27.9486,4.94354,0,0,0,0,0,0,0,-1,1805,729,27.9486,-4.94353
588,295,27.4762,6.37732,0,0,0,0,0,0,0,-1,1812,729,27.4762,-6.37732
595,295,27.2102,6.99121,0,0,0,0,0,0,0,-1,1819,729,27.2103,-6.99121
602,295,26.9065,7.82141,0,0,0,0,0,0,0,-1,1826,729,26.9064,-7.8214
609,295,11.7737,2.19989,0,0,0,0,0,0,0,-1,1833,729,11.7736,-2.19988
616,295,22.844,-3.03857,0,0,0,0,0,0,0,-1,1840,729,22.844,3.0386
623,295,22.736,-2.61322,0.000957525,0.00144741,-0.000680912,0.00192609,0.000478837,-0.958054,0.00115794,0.0334807,1847,729,22.7359,2.61324
630,295,22.6786,-2.16003,0.0014723,8.88716e-05,-0.00138354,0.00232741,-0.000766237,-0.553591,0.00186038,0.0124766,1854,729,22.6785,2.16006
637,295,22.6599,-1.68066,0.0016645,-0.000591431,-0.00186502,0.00271612,-0.00164305,-0.513427,0.00254206,0.0137807,1861,729,22.6599,1.68065
644,295,22.6426,-1.21924,0.00127101,-0.0010927,-0.00195073,0.00236997,-0.00219166,-0.513042,0.00263433,0.0126335,1868,729,22.6425,1.21922
651,295,22.6337,-0.759827,8.639e-06,-0.000667742,-0.00130564,0.00101918,-0.00167828,-0.658672,0.0015728,0.0129488,1875,729,22.6337,0.759813
658,295,22.6207,-0.305176,-0.00120437,-0.000194422,-0.000743349,0.000199251,-0.00159804,-1.08375,0.00113761,0.0118763,1882,729,22.6207,0.305182
665,295,22.6096,0.124817,-0.00185953,0.000499481,-0.00057259,0.000631117,-0.00199116,-1.34483,0.00158039,0.0112595,1889,729,22.6096,-0.124847
672,295,22.5991,0.558167,-0.00234509,0.00111702,-0.000469713,0.00117962,-0.00240768,-1.43831,0.00211119,0.0128767,1896,729,22.5991,-0.558151
679,295,22.5775,1.03278,-0.00276984,0.00175672,-0.000417429,0.00179489,-0.00280801,-1.4796,0.00267886,0.00973316,1903,729,22.5775,-1.0328
686,295,22.6036,1.48041,-0.00317484,0.00235594,-0.000494429,0.0023998,-0.00321869,-1.48234,0.0032553,0.0101242,1910,729,22.6037,-1.48039
693,295,22.5652,1.92151,-0.00320167,0.00298244,-0.000450544,0.00301509,-0.00323432,-1.49845,0.00360884,0.0375972,1917,729,22.5651,-1.92153
700,295,22.6548,2.59277,0,0,0,0,0,0,0,-1,1924,729,22.6548,-2.59275
707,295,22.2661,3.05206,0,0,0,0,0,0,0,-1,1931,729,22.2662,-3.05207
714,295,17.4906,4.63068,0,0,0,0,0,0,0,-1,1938,729,17.4906,-4.63066
721,295,18.3792,5.32281,0,0,0,0,0,0,0,-1,1945,729,18.3791,-5.32283
728,295,17.379,3.74866,0,0,0,0,0,0,0,-1,1952,729,17.379,-3.74863
735,295,0,0,0,0,0,0,0,0,0,-1,1959,729,0,0
742,295,0,0,0,0,0,0,0,0,0,-1,1966,729,0,0
749,295,0,0,0,0,0,0,0,0,0,-1,1973,729,0,0
756,295,0,0,0,0,0,0,0,0,0,-1,1980,729,0,0
763,295,0,0,0,0,0,0,0,0,0,-1,1987,729,0,0
770,295,0,0,0,0,0,0,0,0,0,-1,1994,729,0,0
777,295,0,0,0,0,0,0,0,0,0,-1,2001,729,0,0
784,295,0,0,0,0,0,0,0,0,0,-1,2008,729,0,0
791,295,0,0,0,0,0,0,0,0,0,-1,2015,729,0,0
798,295,0,0,0,0,0,0,0,0,0,-1,2022,729,0,0
805,295,0,0,0,0,0,0,0,0,0,-1,2029,729,0,0
812,295,0,0,0,0,0,0,0,0,0,-1,2036,729,0,0
-700,288,0,0,0,0,0,0,0,0,0,-1,524,736,0,0
-693,288,0,0,0,0,0,0,0,0,0,-1,531,736,0,0
-686,288,0,0,0,0,0,0,0,0,0,-1,538,736,0,0
-679,288,0,0,0,0,0,0,0,0,0,-1,545,736,0,0
-672,288,0,0,0,0,0,0,0,0,0,-1,552,736,0,0
-665,288,0,0,0,0,0,0,0,0,0,-1,559,736,0,0
-658,288,0,0,0,0,0,0,0,0,0,-1,566,736,0,0
-651,288,0,0,0,0,0,0,0,0,0,-1,573,736,0,0
-644,288,0,0,0,0,0,0,0,0,0,-1,580,736,0,0
-637,288,0,0,0,0,0,0,0,0,0,-1,587,736,0,0
-630,288,0,0,0,0,0,0,0,0,0,-1,594,736,0,0
-623,288,0,0,0,0,0,0,0,0,0,-1,601,736,0,0
-616,288,-11.7584,2.4425,0,0,0,0,0,0,0,-1,608,736,-11.7584,-2.44251
-609,288,-10.3007,2.32178,0,0,0,0,0,0,0,-1,615,736,-10.3007,-2.32178
-602,288,-10.1458,-1.85559,0,0,0,0,0,0,0,-1,622,736,-10.1458,1.85556
-595,288,-7.63208,1.81769,0,0,0,0,0,0,0,-1,629,736,-7.63205,-1.81766
-588,288,-8.19269,1.50598,0,0,0,0,0,0,0,-1,636,736,-8.19268,-1.50601
-581,288,-13.1915,0.659241,0,0,0,0,0,0,0,-1,643,736,-13.1915,-0.659228
-574,288,-14.1561,0.245667,0,0,0,0,0,0,0,-1,650,736,-14.1561,-0.245651
-567,288,-14.2906,-0.185242,0.00320299,0.00657511,-0.00315175,0.00846344,0.00131466,-1.03101,0.00525914,0.0350726,657,736,-14.2906,0.185251
-560,288,-14.4976,-0.635559,0.00172772,0.0046562,-0.00201023,0.00567893,0.000704987,-1.10016,0.00357421,0.0167517,664,736,-14.4976,0.63556
-553,288,-14.4833,-1.00464,0.000781154,0.00318733,-0.00113765,0.00364004,0.000328443,-1.19207,0.00232496,0.0184713,671,736,-14.4833,1.00462
-546,288,-14.4923,-1.42944,0.000226745,0.00193778,-0.0004659,0.00205642,0.00010811,-1.32146,0.00133637,0.019896,678,736,-14.4923,1.42945
-539,288,-14.4988,-1.84241,-0.000350477,0.000868389,0.000219829,0.000906824,-0.000388912,1.3977,0.000767755,0.0165564,685,736,-14.4988,1.84242
-532,288,-14.494,-2.27429,-0.000861907,0.00010349,0.000733567,0.000498925,-0.00125734,1.07639,0.00104502,0.0130711,692,736,-14.494,2.27428
-525,288,-14.5258,-2.71985,-0.00135066,-0.00021163,0.00108062,0.000440363,-0.00200265,1.02792,0.00150354,0.0122706,699,736,-14.5258,2.71985
-518,288,-14.5715,-3.12744,-0.00202509,-0.000348375,0.00136454,0.00041477,-0.00278824,1.06086,0.00201139,0.0122222,706,736,-14.5715,3.12747
-511,288,-14.5734,-3.54956,-0.00141086,-0.00144263,0.00180173,0.000375057,-0.00322854,0.78099,0.00228765,0.00896964,713,736,-14.5735,3.54957
-504,288,-14.5726,-3.97321,0.00167347,-0.00283789,0.0034987,0.0035806,-0.00474503,0.499071,0.00482245,0.0106713,720,736,-14.5726,3.97319
-497,288,-14.5931,-4.25458,0.00735378,-0.00498818,0.00600013,0.00978993,-0.00742432,0.385681,0.00996989,0.0290851,727,736,-14.5932,4.25455
-490,288,-14.5557,-4.50256,0,0,0,0,0,0,0,-1,734,736,-14.5557,4.50254
-483,288,-17.3287,0.564758,0,0,0,0,0,0,0,-1,741,736,-17.3287,-0.56477
-476,288,-23.9319,-1.89484,0,0,0,0,0,0,0,-1,748,736,-23.9319,1.89483
-469,288,-24.4758,-0.463806,0,0,0,0,0,0,0,-1,755,736,-24.4758,0.463781
-462,288,-27.9435,-0.568115,0,0,0,0,0,0,0,-1,762,736,-27.9435,0.568102
-455,288,-27.1888,0.184937,0.0824572,-0.0331819,0.0367045,0.0931235,-0.0438482,0.282812,0.0807684,0.0476557,769,736,-27.1889,-0.184928
-448,288,-26.4091,0.920227,0.111129,-0.0429411,0.0489155,0.125347,-0.0571591,0.282871,0.107794,0.046398,776,736,-26.4091,-0.920223
-441,288,-25.5601,1.43262,0,0,0,0,0,0,0,-1,783,736,-25.5601,-1.43261
-434,288,-24.4403,1.59027,0,0,0,0,0,0,0,-1,790,736,-24.4403,-1.59028
-427,288,0,0,0,0,0,0,0,0,0,-1,797,736,0,0
-420,288,0,0,0,0,0,0,0,0,0,-1,804,736,0,0
-413,288,0,0,0,0,0,0,0,0,0,-1,811,736,0,0
-406,288,0,0,0,0,0,0,0,0,0,-1,818,736,0,0
-399,288,0,0,0,0,0,0,0,0,0,-1,825,736,0,0
-392,288,0,0,0,0,0,0,0,0,0,-1,832,736,0,0
-385,288,0,0,0,0,0,0,0,0,0,-1,839,736,0,0
-378,288,0,0,0,0,0,0,0,0,0,-1,846,736,0,0
-371,288,0,0,0,0,0,0,0,0,0,-1,853,736,0,0
-364,288,0,0,0,0,0,0,0,0,0,-1,860,736,0,0
-357,288,0,0,0,0,0,0,0,0,0,-1,867,736,0,0
-350,288,0,0,0,0,0,0,0,0,0,-1,874,736,0,0
-343,288,0,0,0,0,0,0,0,0,0,-1,881,736,0,0
-336,288,0,0,0,0,0,0,0,0,0,-1,888,736,0,0
-329,288,0,0,0,0,0,0,0,0,0,-1,895,736,0,0
-322,288,0,0,0,0,0,0,0,0,0,-1,902,736,0,0
-315,288,0,0,0,0,0,0,0,0,0,-1,909,736,0,0
-308,288,0,0,0,0,0,0,0,0,0,-1,916,736,0,0
-301,288,0,0,0,0,0,0,0,0,0,-1,923,736,0,0
-294,288,0,0,0,0,0,0,0,0,0,-1,930,736,0,0
-287,288,0,0,0,0,0,0,0,0,0,-1,937,736,0,0
-280,288,0,0,0,0,0,0,0,0,0,-1,944,736,0,0
-273,288,0,0,0,0,0,0,0,0,0,-1,951,736,0,0
-266,288,0,0,0,0,0,0,0,0,0,-1,958,736,0,0
-259,288,0,0,0,0,0,0,0,0,0,-1,965,736,0,0
-252,288,0,0,0,0,0,0,0,0,0,-1,972,736,0,0
-245,288,0,0,0,0,0,0,0,0,0,-1,979,736,0,0
-238,288,0,0,0,0,0,0,0,0,0,-1,986,736,0,0
-231,288,0,0,0,0,0,0,0,0,0,-1,993,736,0,0
-224,288,0,0,0,0,0,0,0,0,0,-1,1000,736,0,0
-217,288,0,0,0,0,0,0,0,0,0,-1,1007,736,0,0
-210,288,0,0,0,0,0,0,0,0,0,-1,1014,736,0,0
-203,288,0,0,0,0,0,0,0,0,0,-1,1021,736,0,0
-196,288,0,0,0,0,0,0,0,0,0,-1,1028,736,0,0
-189,288,0,0,0,0,0,0,0,0,0,-1,1035,736,0,0
-182,288,0,0,0,0,0,0,0,0,0,-1,1042,736,0,0
-175,288,0,0,0,0,0,0,0,0,0,-1,1049,736,0,0
-168,288,0,0,0,0,0,0,0,0,0,-1,1056,736,0,0
-161,288,0,0,0,0,0,0,0,0,0,-1,1063,736,0,0
-154,288,0,0,0,0,0,0,0,0,0,-1,1070,736,0,0
-147,288,0,0,0,0,0,0,0,0,0,-1,1077,736,0,0
-140,288,0,0,0,0,0,0,0,0,0,-1,1084,736,0,0
-133,288,0,0,0,0,0,0,0,0,0,-1,1091,736,0,0
-126,288,0,0,0,0,0,0,0,0,0,-1,1098,736,0,0
-119,288,0,0,0,0,0,0,0,0,0,-1,1105,736,0,0
-112,288,0,0,0,0,0,0,0,0,0,-1,1112,736,0,0
-105,288,0,0,0,0,0,0,0,0,0,-1,1119,736,0,0
-98,288,0,0,0,0,0,0,0,0,0,-1,1126,736,0,0
-91,288,0,0,0,0,0,0,0,0,0,-1,1133,736,0,0
-84,288,0,0,0,0,0,0,0,0,0,-1,1140,736,0,0
-77,288,0,0,0,0,0,0,0,0,0,-1,1147,736,0,0
-70,288,0,0,0,0,0,0,0,0,0,-1,1154,736,0,0
-63,288,0,0,0,0,0,0,0,0,0,-1,1161,736,0,0
-56,288,0,0,0,0,0,0,0,0,0,-1,1168,736,0,0
-49,288,0,0,0,0,0,0,0,0,0,-1,1175,736,0,0
-42,288,0,0,0,0,0,0,0,0,0,-1,1182,736,0,0
-35,288,0,0,0,0,0,0,0,0,0,-1,1189,736,0,0
-28,288,0,0,0,0,0,0,0,0,0,-1,1196,736,0,0
-21,288,0,0,0,0,0,0,0,0,0,-1,1203,736,0,0
-14,288,0,0,0,0,0,0,0,0,0,-1,1210,736,0,0
-7,288,0,0,0,0,0,0,0,0,0,-1,1217,736,0,0
0,288,0,0,0,0,0,0,0,0,0,-1,1224,736,0,0
7,288,0,0,0,0,0,0,0,0,0,-1,1231,736,0,0
14,288,0,0,0,0,0,0,0,0,0,-1,1238,736,0,0
21,288,0,0,0,0,0,0,0,0,0,-1,1245,736,0,0
28,288,0,0,0,0,0,0,0,0,0,-1,1252,736,0,0
35,288,0,0,0,0,0,0,0,0,0,-1,1259,736,0,0
42,288,0,0,0,0,0,0,0,0,0,-1,1266,736,0,0
49,288,0,0,0,0,0,0,0,0,0,-1,1273,736,0,0
56,288,0,0,0,0,0,0,0,0,0,-1,1280,736,0,0
63,288,0,0,0,0,0,0,0,0,0,-1,1287,736,0,0
70,288,0,0,0,0,0,0,0,0,0,-1,1294,736,0,0
77,288,0,0,0,0,0,0,0,0,0,-1,1301,736,0,0
84,288,0,0,0,0,0,0,0,0,0,-1,1308,736,0,0
91,288,0,0,0,0,0,0,0,0,0,-1,1315,736,0,0
98,288,0,0,0,0,0,0,0,0,0,-1,1322,736,0,0
105,288,0,0,0,0,0,0,0,0,0,-1,1329,736,0,0
112,288,0,0,0,0,0,0,0,0,0,-1,1336,736,0,0
119,288,0,0,0,0,0,0,0,0,0,-1,1343,736,0,0
126,288,0,0,0,0,0,0,0,0,0,-1,1350,736,0,0
133,288,0,0,0,0,0,0,0,0,0,-1,1357,736,0,0
140,288,0,0,0,0,0,0,0,0,0,-1,1364,736,0,0
147,288,0,0,0,0,0,0,0,0,0,-1,1371,736,0,0
154,288,0,0,0,0,0,0,0,0,0,-1,1378,736,0,0
161,288,0,0,0,0,0,0,0,0,0,-1,1385,736,0,0
168,288,0,0,0,0,0,0,0,0,0,-1,1392,736,0,0
175,288,0,0,0,0,0,0,0,0,0,-1,1399,736,0,0
182,288,0,0,0,0,0,0,0,0,0,-1,1406,736,0,0
189,288,0,0,0,0,0,0,0,0,0,-1,1413,736,0,0
196,288,0,0,0,0,0,0,0,0,0,-1,1420,736,0,0
203,288,0,0,0,0,0,0,0,0,0,-1,1427,736,0,0
210,288,0,0,0,0,0,0,0,0,0,-1,1434,736,0,0
217,288,0,0,0,0,0,0,0,0,0,-1,1441,736,0,0
224,288,0,0,0,0,0,0,0,0,0,-1,1448,736,0,0
231,288,0,0,0,0,0,0,0,0,0,-1,1455,736,0,0
238,288,0,0,0,0,0,0,0,0,0,-1,1462,736,0,0
245,288,0,0,0,0,0,0,0,0,0,-1,1469,736,0,0
252,288,0,0,0,0,0,0,0,0,0,-1,1476,736,0,0
259,288,0,0,0,0,0,0,0,0,0,-1,1483,736,0,0
266,288,0,0,0,0,0,0,0,0,0,-1,1490,736,0,0
273,288,0,0,0,0,0,0,0,0,0,-1,1497,736,0,0
280,288,0,0,0,0,0,0,0,0,0,-1,1504,736,0,0
287,288,0,0,0,0,0,0,0,0,0,-1,1511,736,0,0
294,288,0,0,0,0,0,0,0,0,0,-1,1518,736,0,0
301,288,0,0,0,0,0,0,0,0,0,-1,1525,736,0,0
308,288,0,0,0,0,0,0,0,0,0,-1,1532,736,0,0
315,288,0,0,0,0,0,0,0,0,0,-1,1539,736,0,0
322,288,0,0,0,0,0,0,0,0,0,-1,1546,736,0,0
329,288,0,0,0,0,0,0,0,0,0,-1,1553,736,0,0
336,288,0,0,0,0,0,0,0,0,0,-1,1560,736,0,0
343,288,0,0,0,0,0,0,0,0,0,-1,1567,736,0,0
350,288,0,0,0,0,0,0,0,0,0,-1,1574,736,0,0
357,288,0,0,0,0,0,0,0,0,0,-1,1581,736,0,0
364,288,0,0,0,0,0,0,0,0,0,-1,1588,736,0,0
371,288,0,0,0,0,0,0,0,0,0,-1,1595,736,0,0
378,288,0,0,0,0,0,0,0,0,0,-1,1602,736,0,0
385,288,0,0,0,0,0,0,0,0,0,-1,1609,736,0,0
392,288,0,0,0,0,0,0,0,0,0,-1,1616,736,0,0
399,288,0,0,0,0,0,0,0,0,0,-1,1623,736,0,0
406,288,0,0,0,0,0,0,0,0,0,-1,1630,736,0,0
413,288,0,0,0,0,0,0,0,0,0,-1,1637,736,0,0
420,288,0,0,0,0,0,0,0,0,0,-1,1644,736,0,0
427,288,0,0,0,0,0,0,0,0,0,-1,1651,736,0,0
434,288,0,0,0,0,0,0,0,0,0,-1,1658,736,0,0
441,288,0,0,0,0,0,0,0,0,0,-1,1665,736,0,0
448,288,0,0,0,0,0,0,0,0,0,-1,1672,736,0,0
455,288,0,0,0,0,0,0,0,0,0,-1,1679,736,0,0
462,288,0,0,0,0,0,0,0,0,0,-1,1686,736,0,0
469,288,0,0,0,0,0,0,0,0,0,-1,1693,736,0,0
476,288,0,0,0,0,0,0,0,0,0,-1,1700,736,0,0
483,288,0,0,0,0,0,0,0,0,0,-1,1707,736,0,0
490,288,0,0,0,0,0,0,0,0,0,-1,1714,736,0,0
497,288,0,0,0,0,0,0,0,0,0,-1,1721,736,0,0
504,288,0,0,0,0,0,0,0,0,0,-1,1728,736,0,0
511,288,0,0,0,0,0,0,0,0,0,-1,1735,736,0,0
518,288,0,0,0,0,0,0,0,0,0,-1,1742,736,0,0
525,288,0,0,0,0,0,0,0,0,0,-1,1749,736,0,0
532,288,0,0,0,0,0,0,0,0,0,-1,1756,736,0,0
539,288,0,0,0,0,0,0,0,0,0,-1,1763,736,0,0
546,288,0,0,0,0,0,0,0,0,0,-1,1770,736,0,0
553,288,36.0571,2.48663,0,0,0,0,0,0,0,-1,1777,736,36.0571,-2.48661
560,288,36.4623,2.58099,0.00391698,-0.00606202,0.0252849,0.0246999,-0.026845,0.687984,0.0297681,0.0422137,1784,736,36.4623,-2.58096
567,288,36.5514,2.57977,0.00320866,-0.00403262,0.022825,0.0226984,-0.0235224,0.706741,0.026687,0.0447342,1791,736,36.5513,-2.57977
574,288,36.5535,2.50299,0,0,0,0,0,0,0,-1,1798,736,36.5535,-2.50301
581,288,36.6492,2.90717,0,0,0,0,0,0,0,-1,1805,736,36.6492,-2.90716
588,288,36.7935,3.38855,0,0,0,0,0,0,0,-1,1812,736,36.7935,-3.38853
595,288,27.4215,6.6875,0,0,0,0,0,0,0,-1,1819,736,27.4215,-6.68751
602,288,26.7634,7.61279,0,0,0,0,0,0,0,-1,1826,736,26.7635,-7.61279
609,288,17.5223,4.86414,0,0,0,0,0,0,0,-1,1833,736,17.5223,-4.86412
616,288,13.4886,0.801331,0,0,0,0,0,0,0,-1,1840,736,13.4886,-0.80132
623,288,23.1796,-2.61249,0,0,0,0,0,0,0,-1,1847,736,23.1795,2.61249
630,288,23.0981,-2.11835,0.00208268,0.000270804,-0.00162783,0.00303968,-0.000686202,-0.531477,0.00228972,0.0232955,1854,736,23.0982,2.11836
637,288,23.1135,-1.67139,0.00239636,-0.000551977,-0.00216726,0.0035433,-0.00169892,-0.486742,0.0030884,0.0104601,1861,736,23.1135,1.6714
644,288,23.097,-1.21869,0.00209422,-0.00131726,-0.00229801,0.00325037,-0.00247341,-0.466131,0.00331476,0.0100619,1868,736,23.097,1.21868
651,288,23.0914,-0.770264,0.00073317,-0.000994344,-0.0015538,0.00164716,-0.00190833,-0.531718,0.00205461,0.0112688,1875,736,23.0915,0.770253
658,288,23.083,-0.305359,-0.000596523,-0.000568383,-0.000804917,0.000222587,-0.00138749,-0.794137,0.00100742,0.0157385,1882,736,23.083,0.305338
665,288,23.0502,0.148254,-0.00112666,0.000188342,-0.000523538,0.000371317,-0.00130963,-1.23457,0.00101965,0.016588,1889,736,23.0502,-0.148273
672,288,23.0566,0.572021,-0.00136605,0.00087751,-0.000325311,0.000923727,-0.00141227,-1.42967,0.00135848,0.014716,1896,736,23.0566,-0.572033
679,288,23.0546,1.03766,-0.00144528,0.00155743,-0.000155779,0.00156549,-0.00145334,-1.5191,0.00174333,0.0120545,1903,736,23.0545,-1.03768
686,288,23.0466,1.46246,-0.00140792,0.0021895,-5.09845e-05,0.00219023,-0.00140865,-1.55663,0.00209408,0.0100117,1910,736,23.0466,-1.46245
693,288,23.0542,1.966,-0.000968694,0.00277722,0.0001397,0.00278242,-0.000973896,1.53357,0.00225094,0.0177356,1917,736,23.0542,-1.96598
700,288,22.9757,2.46185,0.000272729,0.00335781,0.000573818,0.00346108,0.000169457,1.39273,0.00225303,0.0370747,1924,736,22.9757,-2.46186
707,288,23.0323,2.94885,0,0,0,0,0,0,0,-1,1931,736,23.0324,-2.94882
714,288,23.0149,3.82544,0,0,0,0,0,0,0,-1,1938,736,23.0149,-3.82541
721,288,18.0732,3.69385,0,0,0,0,0,0,0,-1,1945,736,18.0732,-3.69387
728,288,19.3208,3.91455,0,0,0,0,0,0,0,-1,1952,736,19.3209,-3.91455
735,288,18.7712,3.51312,0,0,0,0,0,0,0,-1,1959,736,18.7713,-3.51309
742,288,0,0,0,0,0,0,0,0,0,-1,1966,736,0,0
749,288,0,0,0,0,0,0,0,0,0,-1,1973,736,0,0
756,288,0,0,0,0,0,0,0,0,0,-1,1980,736,0,0
763,288,0,0,0,0,0,0,0,0,0,-1,1987,736,0,0
770,288,0,0,0,0,0,0,0,0,0,-1,1994,736,0,0
777,288,0,0,0,0,0,0,0,0,0,-1,2001,736,0,0
784,288,0,0,0,0,0,0,0,0,0,-1,2008,736,0,0
791,288,0,0,0,0,0,0,0,0,0,-1,2015,736,0,0
798,288,0,0,0,0,0,0,0,0,0,-1,2022,736,0,0
805,288,0,0,0,0,0,0,0,0,0,-1,2029,736,0,0
812,288,0,0,0,0,0,0,0,0,0,-1,2036,736,0,0
-700,281,0,0,0,0,0,0,0,0,0,-1,524,743,0,0
-693,281,0,0,0,0,0,0,0,0,0,-1,531,743,0,0
-686,281,0,0,0,0,0,0,0,0,0,-1,538,743,0,0
-679,281,0,0,0,0,0,0,0,0,0,-1,545,743,0,0
-672,281,0,0,0,0,0,0,0,0,0,-1,552,743,0,0
-665,281,0,0,0,0,0,0,0,0,0,-1,559,743,0,0
-658,281,0,0,0,0,0,0,0,0,0,-1,566,743,0,0
-651,281,0,0,0,0,0,0,0,0,0,-1,573,743,0,0
-644,281,0,0,0,0,0,0,0,0,0,-1,580,743,0,0
-637,281,0,0,0,0,0,0,0,0,0,-1,587,743,0,0
-630,281,0,0,0,0,0,0,0,0,0,-1,594,743,0,0
-623,281,-19.1697,5.67017,0,0,0,0,0,0,0,-1,601,743,-19.1697,-5.67019
-616,281,-11.5906,2.6853,0,0,0,0,0,0,0,-1,608,743,-11.5906,-2.68529
-609,281,-16.1972,4.14838,0,0,0,0,0,0,0,-1,615,743,-16.1972,-4.14837
-602,281,-14.6906,3.64813,0,0,0,0,0,0,0,-1,622,743,-14.6905,-3.64816
-595,281,-10.4797,-1.07404,0,0,0,0,0,0,0,-1,629,743,-10.4798,1.07402
-588,281,-13.277,1.49817,0,0,0,0,0,0,0,-1,636,743,-13.2771,-1.49817
-581,281,-14.9825,0.766602,0,0,0,0,0,0,0,-1,643,743,-14.9825,-0.766588
-574,281,-14.7727,0.215332,0.00605538,0.007469,-0.00417994,0.0110015,0.00252291,-0.869153,0.00665471,0.0344745,650,743,-14.7727,-0.215356
-567,281,-14.9,-0.146851,0.00356793,0.00515366,-0.00247932,0.00696381,0.00175778,-0.940155,0.00418163,0.0166941,657,743,-14.9,0.146853
-560,281,-14.9421,-0.591309,0.00191513,0.00338539,-0.0013214,0.00416238,0.00113814,-1.03924,0.00248403,0.00865587,664,743,-14.9421,0.591318
-553,281,-14.928,-1.01324,0.000804365,0.00202049,-0.000436941,0.0021612,0.000663657,-1.25925,0.00127835,0.0138789,671,743,-14.928,1.01327
-546,281,-14.9202,-1.40918,8.9715e-05,0.000908642,0.000237754,0.000972663,2.56943e-05,1.30776,0.000640049,0.0161717,678,743,-14.9202,1.40916
-539,281,-14.9315,-1.82935,-0.000695758,6.47695e-05,0.000953947,0.00071145,-0.00134244,0.975057,0.00120432,0.0143998,685,743,-14.9315,1.82933
-532,281,-14.9576,-2.23828,-0.00149052,-0.000326103,0.00145187,0.000655943,-0.00247256,0.976085,0.00190504,0.012829,692,743,-14.9576,2.23828
-525,281,-14.9633,-2.68677,-0.00225646,-0.000203438,0.00175073,0.000799525,-0.00325942,1.05055,0.00248275,0.0140064,699,743,-14.9633,2.68676
-518,281,-14.9928,-3.11835,-0.00321593,0.000132134,0.00199469,0.00106217,-0.00414596,1.13451,0.00317776,0.0130567,706,743,-14.9928,3.11832
-511,281,-15.0229,-3.53259,-0.00270849,-0.000728524,0.00229674,0.000782509,-0.00421952,0.988885,0.00310687,0.0111798,713,743,-15.023,3.5326
-504,281,-15.0223,-3.96265,0.00023858,-0.00188038,0.00387345,0.00319483,-0.00483663,0.651902,0.00466915,0.0142621,720,743,-15.0223,3.96265
-497,281,-14.9113,-4.31989,0.00572958,-0.00387391,0.00618451,0.00875759,-0.00690191,0.455302,0.00906215,0.0458336,727,743,-14.9112,4.31989
-490,281,-14.7523,-4.55359,0,0,0,0,0,0,0,-1,734,743,-14.7523,4.5536
-483,281,-22.8943,-1.78931,0,0,0,0,0,0,0,-1,741,743,-22.8944,1.78931
-476,281,-24.7306,0.113586,0,0,0,0,0,0,0,-1,748,743,-24.7306,-0.113601
-469,281,-28.0381,-1.06628,0,0,0,0,0,0,0,-1,755,743,-28.0381,1.06627
-462,281,-27.6633,-0.257507,0.0593255,-0.0259369,0.0269855,0.0671485,-0.03376,0.282165,0.0593131,0.045953,762,743,-27.6633,0.257481
-455,281,-27.2805,0.573181,0.0800478,-0.0339599,0.0355238,0.0902108,-0.0441228,0.278645,0.0790644,0.0430927,769,743,-27.2805,-0.573162
-448,281,-26.5353,1.38995,0.104947,-0.0430375,0.0457121,0.117928,-0.0560191,0.276702,0.102527,0.0452784,776,743,-26.5353,-1.38994
-441,281,-25.7803,2.17578,0,0,0,0,0,0,0,-1,783,743,-25.7803,-2.1758
-434,281,0,0,0,0,0,0,0,0,0,-1,790,743,0,0
-427,281,0,0,0,0,0,0,0,0,0,-1,797,743,0,0
-420,281,0,0,0,0,0,0,0,0,0,-1,804,743,0,0
-413,281,0,0,0,0,0,0,0,0,0,-1,811,743,0,0
-406,281,0,0,0,0,0,0,0,0,0,-1,818,743,0,0
-399,281,0,0,0,0,0,0,0,0,0,-1,825,743,0,0
-392,281,0,0,0,0,0,0,0,0,0,-1,832,743,0,0
-385,281,0,0,0,0,0,0,0,0,0,-1,839,743,0,0
-378,281,0,0,0,0,0,0,0,0,0,-1,846,743,0,0
-371,281,0,0,0,0,0,0,0,0,0,-1,853,743,0,0
-364,281,0,0,0,0,0,0,0,0,0,-1,860,743,0,0
-357,281,0,0,0,0,0,0,0,0,0,-1,867,743,0,0
-350,281,0,0,0,0,0,0,0,0,0,-1,874,743,0,0
-343,281,0,0,0,0,0,0,0,0,0,-1,881,743,0,0
-336,281,0,0,0,0,0,0,0,0,0,-1,888,743,0,0
-329,281,0,0,0,0,0,0,0,0,0,-1,895,743,0,0
-322,281,0,0,0,0,0,0,0,0,0,-1,902,743,0,0
-315,281,0,0,0,0,0,0,0,0,0,-1,909,743,0,0
-308,281,0,0,0,0,0,0,0,0,0,-1,916,743,0,0
-301,281,0,0,0,0,0,0,0,0,0,-1,923,743,0,0
-294,281,0,0,0,0,0,0,0,0,0,-1,930,743,0,0
-287,281,0,0,0,0,0,0,0,0,0,-1,937,743,0,0
-280,281,0,0,0,0,0,0,0,0,0,-1,944,743,0,0
-273,281,0,0,0,0,0,0,0,0,0,-1,951,743,0,0
-266,281,0,0,0,0,0,0,0,0,0,-1,958,743,0,0
-259,281,0,0,0,0,0,0,0,0,0,-1,965,743,0,0
-252,281,0,0,0,0,0,0,0,0,0,-1,972,743,0,0
-245,281,0,0,0,0,0,0,0,0,0,-1,979,743,0,0
-238,281,0,0,0,0,0,0,0,0,0,-1,986,743,0,0
-231,281,0,0,0,0,0,0,0,0,0,-1,993,743,0,0
-224,281,0,0,0,0,0,0,0,0,0,-1,1000,743,0,0
-217,281,0,0,0,0,0,0,0,0,0,-1,1007,743,0,0
-210,281,0,0,0,0,0,0,0,0,0,-1,1014,743,0,0
-203,281,0,0,0,0,0,0,0,0,0,-1,1021,743,0,0
-196,281,0,0,0,0,0,0,0,0,0,-1,1028,743,0,0
-189,281,0,0,0,0,0,0,0,0,0,-1,1035,743,0,0
-182,281,0,0,0,0,0,0,0,0,0,-1,1042,743,0,0
-175,281,0,0,0,0,0,0,0,0,0,-1,1049,743,0,0
-168,281,0,0,0,0,0,0,0,0,0,-1,1056,743,0,0
-161,281,0,0,0,0,0,0,0,0,0,-1,1063,743,0,0
-154,281,0,0,0,0,0,0,0,0,0,-1,1070,743,0,0
-147,281,0,0,0,0,0,0,0,0,0,-1,1077,743,0,0
-140,281,0,0,0,0,0,0,0,0,0,-1,1084,743,0,0
-133,281,0,0,0,0,0,0,0,0,0,-1,1091,743,0,0
-126,281,0,0,0,0,0,0,0,0,0,-1,1098,743,0,0
-119,281,0,0,0,0,0,0,0,0,0,-1,1105,743,0,0
-112,281,0,0,0,0,0,0,0,0,0,-1,1112,743,0,0
-105,281,0,0,0,0,0,0,0,0,0,-1,1119,743,0,0
-98,281,0,0,0,0,0,0,0,0,0,-1,1126,743,0,0
-91,281,0,0,0,0,0,0,0,0,0,-1,1133,743,0,0
-84,281,0,0,0,0,0,0,0,0,0,-1,1140,743,0,0
-77,281,0,0,0,0,0,0,0,0,0,-1,1147,743,0,0
-70,281,0,0,0,0,0,0,0,0,0,-1,1154,743,0,0
-63,281,0,0,0,0,0,0,0,0,0,-1,1161,743,0,0
-56,281,0,0,0,0,0,0,0,0,0,-1,1168,743,0,0
-49,281,0,0,0,0,0,0,0,0,0,-1,1175,743,0,0
-42,281,0,0,0,0,0,0,0,0,0,-1,1182,743,0,0
-35,281,0,0,0,0,0,0,0,0,0,-1,1189,743,0,0
-28,281,0,0,0,0,0,0,0,0,0,-1,1196,743,0,0
-21,281,0,0,0,0,0,0,0,0,0,-1,1203,743,0,0
-14,281,0,0,0,0,0,0,0,0,0,-1,1210,743,0,0
-7,281,0,0,0,0,0,0,0,0,0,-1,1217,743,0,0
0,281,0,0,0,0,0,0,0,0,0,-1,1224,743,0,0
7,281,0,0,0,0,0,0,0,0,0,-1,1231,743,0,0
14,281,0,0,0,0,0,0,0,0,0,-1,1238,743,0,0
21,281,0,0,0,0,0,0,0,0,0,-1,1245,743,0,0
28,281,0,0,0,0,0,0,0,0,0,-1,1252,743,0,0
35,281,0,0,0,0,0,0,0,0,0,-1,1259,743,0,0
42,281,0,0,0,0,0,0,0,0,0,-1,1266,743,0,0
49,281,0,0,0,0,0,0,0,0,0,-1,1273,743,0,0
56,281,0,0,0,0,0,0,0,0,0,-1,1280,743,0,0
63,281,0,0,0,0,0,0,0,0,0,-1,1287,743,0,0
70,281,0,0,0,0,0,0,0,0,0,-1,1294,743,0,0
77,281,0,0,0,0,0,0,0,0,0,-1,1301,743,0,0
84,281,0,0,0,0,0,0,0,0,0,-1,1308,743,0,0
91,281,0,0,0,0,0,0,0,0,0,-1,1315,743,0,0
98,281,0,0,0,0,0,0,0,0,0,-1,1322,743,0,0
105,281,0,0,0,0,0,0,0,0,0,-1,1329,743,0,0
112,281,0,0,0,0,0,0,0,0,0,-1,1336,743,0,0
119,281,0,0,0,0,0,0,0,0,0,-1,1343,743,0,0
126,281,0,0,0,0,0,0,0,0,0,-1,1350,743,0,0
133,281,0,0,0,0,0,0,0,0,0,-1,1357,743,0,0
140,281,0,0,0,0,0,0,0,0,0,-1,1364,743,0,0
147,281,0,0,0,0,0,0,0,0,0,-1,1371,743,0,0
154,281,0,0,0,0,0,0,0,0,0,-1,1378,743,0,0
161,281,0,0,0,0,0,0,0,0,0,-1,1385,743,0,0
168,281,0,0,0,0,0,0,0,0,0,-1,1392,743,0,0
175,281,0,0,0,0,0,0,0,0,0,-1,1399,743,0,0
182,281,0,0,0,0,0,0,0,0,0,-1,1406,743,0,0
189,281,0,0,0,0,0,0,0,0,0,-1,1413,743,0,0
196,281,0,0,0,0,0,0,0,0,0,-1,1420,743,0,0
203,281,0,0,0,0,0,0,0,0,0,-1,1427,743,0,0
210,281,0,0,0,0,0,0,0,0,0,-1,1434,743,0,0
217,281,0,0,0,0,0,0,0,0,0,-1,1441,743,0,0
224,281,0,0,0,0,0,0,0,0,0,-1,1448,743,0,0
231,281,0,0,0,0,0,0,0,0,0,-1,1455,743,0,0
238,281,0,0,0,0,0,0,0,0,0,-1,1462,743,0,0
245,281,0,0,0,0,0,0,0,0,0,-1,1469,743,0,0
252,281,0,0,0,0,0,0,0,0,0,-1,1476,743,0,0
259,281,0,0,0,0,0,0,0,0,0,-1,1483,743,0,0
266,281,0,0,0,0,0,0,0,0,0,-1,1490,743,0,0
273,281,0,0,0,0,0,0,0,0,0,-1,1497,743,0,0
280,281,0,0,0,0,0,0,0,0,0,-1,1504,743,0,0
287,281,0,0,0,0,0,0,0,0,0,-1,1511,743,0,0
294,281,0,0,0,0,0,0,0,0,0,-1,1518,743,0,0
301,281,0,0,0,0,0,0,0,0,0,-1,1525,743,0,0
308,281,0,0,0,0,0,0,0,0,0,-1,1532,743,0,0
315,281,0,0,0,0,0,0,0,0,0,-1,1539,743,0,0
322,281,0,0,0,0,0,0,0,0,0,-1,1546,743,0,0
329,281,0,0,0,0,0,0,0,0,0,-1,1553,743,0,0
336,281,0,0,0,0,0,0,0,0,0,-1,1560,743,0,0
343,281,0,0,0,0,0,0,0,0,0,-1,1567,743,0,0
350,281,0,0,0,0,0,0,0,0,0,-1,1574,743,0,0
357,281,0,0,0,0,0,0,0,0,0,-1,1581,743,0,0
364,281,0,0,0,0,0,0,0,0,0,-1,1588,743,0,0
371,281,0,0,0,0,0,0,0,0,0,-1,1595,743,0,0
378,281,0,0,0,0,0,0,0,0,0,-1,1602,743,0,0
385,281,0,0,0,0,0,0,0,0,0,-1,1609,743,0,0
392,281,0,0,0,0,0,0,0,0,0,-1,1616,743,0,0
399,281,0,0,0,0,0,0,0,0,0,-1,1623,743,0,0
406,281,0,0,0,0,0,0,0,0,0,-1,1630,743,0,0
413,281,0,0,0,0,0,0,0,0,0,-1,1637,743,0,0
420,281,0,0,0,0,0,0,0,0,0,-1,1644,743,0,0
427,281,0,0,0,0,0,0,0,0,0,-1,1651,743,0,0
434,281,0,0,0,0,0,0,0,0,0,-1,1658,743,0,0
441,281,0,0,0,0,0,0,0,0,0,-1,1665,743,0,0
448,281,0,0,0,0,0,0,0,0,0,-1,1672,743,0,0
455,281,0,0,0,0,0,0,0,0,0,-1,1679,743,0,0
462,281,0,0,0,0,0,0,0,0,0,-1,1686,743,0,0
469,281,0,0,0,0,0,0,0,0,0,-1,1693,743,0,0
476,281,0,0,0,0,0,0,0,0,0,-1,1700,743,0,0
483,281,0,0,0,0,0,0,0,0,0,-1,1707,743,0,0
490,281,0,0,0,0,0,0,0,0,0,-1,1714,743,0,0
497,281,0,0,0,0,0,0,0,0,0,-1,1721,743,0,0
504,281,0,0,0,0,0,0,0,0,0,-1,1728,743,0,0
511,281,0,0,0,0,0,0,0,0,0,-1,1735,743,0,0
518,281,0,0,0,0,0,0,0,0,0,-1,1742,743,0,0
525,281,0,0,0,0,0,0,0,0,0,-1,1749,743,0,0
532,281,0,0,0,0,0,0,0,0,0,-1,1756,743,0,0
539,281,0,0,0,0,0,0,0,0,0,-1,1763,743,0,0
546,281,0,0,0,0,0,0,0,0,0,-1,1770,743,0,0
553,281,0,0,0,0,0,0,0,0,0,-1,1777,743,0,0
560,281,36.5891,2.72827,0,0,0,0,0,0,0,-1,1784,743,36.5892,-2.72829
567,281,36.4955,2.77301,-0.00124172,-0.00137373,0.0204538,0.0191462,-0.0217616,0.783785,0.0236342,0.0413727,1791,743,36.4955,-2.77299
574,281,36.4348,2.76556,0,0,0,0,0,0,0,-1,1798,743,36.4348,-2.76557
581,281,36.4596,3.03156,-0.0011707,0.0015062,0.0138414,0.0140737,-0.0137382,0.833598,0.0160576,0.0465083,1805,743,36.4596,-3.03154
588,281,36.5626,3.44574,-0.00109855,0.00239298,0.0105969,0.011387,-0.0100926,0.867036,0.0124087,0.0453371,1812,743,36.5626,-3.44573
595,281,36.6908,3.89606,0,0,0,0,0,0,0,-1,1819,743,36.6908,-3.89603
602,281,30.1091,6.0744,0,0,0,0,0,0,0,-1,1826,743,30.1091,-6.07442
609,281,32.7925,1.28723,0,0,0,0,0,0,0,-1,1833,743,32.7925,-1.28722
616,281,21.3191,-0.253906,0,0,0,0,0,0,0,-1,1840,743,21.3191,0.253931
623,281,23.3727,-2.40454,0,0,0,0,0,0,0,-1,1847,743,23.3726,2.40455
630,281,23.4744,-2.0517,0.0029976,0.000206146,-0.00174305,0.00383487,-0.000631127,-0.447803,0.00279085,0.0431508,1854,743,23.4744,2.0517
637,281,23.5328,-1.66431,0.00339224,-0.000705031,-0.00224994,0.00438649,-0.00169928,-0.416097,0.003626,0.0139026,1861,743,23.5328,1.66428
644,281,23.5454,-1.19904,0.00311591,-0.00163806,-0.00241576,0.00412802,-0.00265017,-0.396745,0.00394427,0.0101905,1868,743,23.5454,1.19905
651,281,23.5621,-0.760742,0.00159914,-0.00141932,-0.00170441,0.00236648,-0.00218667,-0.423029,0.00262944,0.0112077,1875,743,23.5621,0.760712
658,281,23.5483,-0.31366,5.73193e-05,-0.00107321,-0.000878826,0.000536975,-0.00155287,-0.499607,0.00125319,0.0195098,1882,743,23.5483,0.313629
665,281,23.5321,0.133301,-0.000495886,-0.000298298,-0.000554636,0.000166274,-0.000960458,-0.873536,0.000702322,0.0215206,1889,743,23.5321,-0.133315
672,281,23.4897,0.592529,-0.000619641,0.000457043,-0.000308678,0.000539261,-0.000701859,-1.31049,0.000718607,0.0128795,1896,743,23.4897,-0.59251
679,281,23.4978,1.02856,-0.000457053,0.00118964,-6.69156e-05,0.00119235,-0.000459768,-1.53025,0.000984615,0.0190925,1903,743,23.4978,-1.02855
686,281,23.4766,1.45776,-5.15078e-05,0.00185741,0.000205784,0.00187935,-7.34394e-05,1.46462,0.00127808,0.0155803,1910,743,23.4765,-1.45777
693,281,23.4614,1.91217,0.000753429,0.00241214,0.000518076,0.00256066,0.000604913,1.29161,0.00154545,0.0116002,1917,743,23.4614,-1.91214
700,281,23.429,2.35339,0.00231229,0.00291568,0.00105687,0.00371308,0.00151489,0.92443,0.00215581,0.024467,1924,743,23.4289,-2.35337
707,281,23.4843,2.76184,0.00493766,0.00331332,0.00200016,0.00628425,0.00196673,0.592541,0.00371187,0.0483939,1931,743,23.4842,-2.76183
714,281,23.6206,3.18219,0,0,0,0,0,0,0,-1,1938,743,23.6206,-3.18218
721,281,16.9656,3.22174,0,0,0,0,0,0,0,-1,1945,743,16.9656,-3.22172
728,281,19.0251,3.63934,0,0,0,0,0,0,0,-1,1952,743,19.0252,-3.63932
735,281,19.0869,2.50311,0,0,0,0,0,0,0,-1,1959,743,19.0869,-2.5031
742,281,0,0,0,0,0,0,0,0,0,-1,1966,743,0,0
749,281,0,0,0,0,0,0,0,0,0,-1,1973,743,0,0
756,281,0,0,0,0,0,0,0,0,0,-1,1980,743,0,0
763,281,0,0,0,0,0,0,0,0,0,-1,1987,743,0,0
770,281,0,0,0,0,0,0,0,0,0,-1,1994,743,0,0
777,281,0,0,0,0,0,0,0,0,0,-1,2001,743,0,0
784,281,0,0,0,0,0,0,0,0,0,-1,2008,743,0,0
791,281,0,0,0,0,0,0,0,0,0,-1,2015,743,0,0
798,281,0,0,0,0,0,0,0,0,0,-1,2022,743,0,0
805,281,0,0,0,0,0,0,0,0,0,-1,2029,743,0,0
812,281,0,0,0,0,0,0,0,0,0,-1,2036,743,0,0
-700,274,0,0,0,0,0,0,0,0,0,-1,524,750,0,0
-693,274,0,0,0,0,0,0,0,0,0,-1,531,750,0,0
-686,274,0,0,0,0,0,0,0,0,0,-1,538,750,0,0
-679,274,0,0,0,0,0,0,0,0,0,-1,545,750,0,0
-672,274,0,0,0,0,0,0,0,0,0,-1,552,750,0,0
-665,274,0,0,0,0,0,0,0,0,0,-1,559,750,0,0
-658,274,0,0,0,0,0,0,0,0,0,-1,566,750,0,0
-651,274,0,0,0,0,0,0,0,0,0,-1,573,750,0,0
-644,274,0,0,0,0,0,0,0,0,0,-1,580,750,0,0
-637,274,0,0,0,0,0,0,0,0,0,-1,587,750,0,0
-630,274,0,0,0,0,0,0,0,0,0,-1,594,750,0,0
-623,274,-19.6909,5.12701,0,0,0,0,0,0,0,-1,601,750,-19.6908,-5.12703
-616,274,-17.9133,3.9024,0,0,0,0,0,0,0,-1,608,750,-17.9133,-3.90239
-609,274,-15.4739,3.90399,0,0,0,0,0,0,0,-1,615,750,-15.4739,-3.90397
-602,274,-15.2676,3.24811,0,0,0,0,0,0,0,-1,622,750,-15.2676,-3.24811
-595,274,-14.8266,2.54376,0,0,0,0,0,0,0,-1,629,750,-14.8266,-2.54375
-588,274,-15.204,1.90179,0,0,0,0,0,0,0,-1,636,750,-15.204,-1.90182
-581,274,-15.2823,0.743469,0.0106085,0.0093767,-0.00644781,0.0164698,0.00351544,-0.737783,0.0100158,0.0430132,643,750,-15.2823,-0.74346
-574,274,-15.2203,0.24292,0.00684431,0.00641201,-0.00415142,0.0107852,0.00247111,-0.759389,0.00652434,0.0226993,650,750,-15.2203,-0.242946
-567,274,-15.3618,-0.158386,0.00423929,0.00428644,-0.00247426,0.00673724,0.00178849,-0.790162,0.00402987,0.0210003,657,750,-15.3618,0.15836
-560,274,-15.3696,-0.544189,0.00241115,0.00263056,-0.00126784,0.00379343,0.00124828,-0.828555,0.00223239,0.0143177,664,750,-15.3696,0.544186
-553,274,-15.3533,-1.01611,0.0011139,0.00132467,-0.000319696,0.0015559,0.000882665,-0.944613,0.000901008,0.00932272,671,750,-15.3532,1.01609
-546,274,-15.3698,-1.43335,0.000168004,0.000362366,0.00044888,0.000724465,-0.000194095,0.892001,0.000559022,0.0114094,678,750,-15.3697,1.43332
-539,274,-15.3876,-1.84705,-0.000881702,-0.000284635,0.00126464,0.000716227,-0.00188256,0.901308,0.00154996,0.0125722,685,750,-15.3876,1.84704
-532,274,-15.4043,-2.22833,-0.00199514,-0.000355968,0.00179854,0.000800923,-0.00315203,0.999188,0.00241305,0.0122937,692,750,-15.4043,2.22836
-525,274,-15.3961,-2.64801,-0.00302023,5.40107e-05,0.00207465,0.00109893,-0.00406515,1.10423,0.00314115,0.0117294,699,750,-15.3961,2.64803
-518,274,-15.3983,-3.08856,-0.00416963,0.000666948,0.00226682,0.00156326,-0.00506594,1.19426,0.00400149,0.0124304,706,750,-15.3983,3.08856
-511,274,-15.4212,-3.51624,-0.00378635,-4.82455e-05,0.00239897,0.00112382,-0.00495841,1.11633,0.00373697,0.0120239,713,750,-15.4212,3.51625
-504,274,-15.4619,-3.9906,-0.00117067,-0.000966349,0.00375069,0.00268357,-0.00482059,0.799014,0.0043907,0.0230385,720,750,-15.4619,3.9906
-497,274,-15.293,-4.42236,0,0,0,0,0,0,0,-1,727,750,-15.293,4.42236
-490,274,-13.6545,-3.58826,0,0,0,0,0,0,0,-1,734,750,-13.6546,3.58825
-483,274,-23.535,-1.29095,0,0,0,0,0,0,0,-1,741,750,-23.535,1.29097
-476,274,-24.3178,3.60223,0,0,0,0,0,0,0,-1,748,750,-24.3178,-3.60223
-469,274,-28.7832,-0.737732,0,0,0,0,0,0,0,-1,755,750,-28.7832,0.737757
-462,274,-28.0013,0.103333,0.0535094,-0.0239164,0.0244528,0.0605855,-0.0309925,0.281682,0.0537849,0.045202,762,750,-28.0013,-0.103318
-455,274,-27.1857,0.803894,0.0715548,-0.0311541,0.0316469,0.0805229,-0.0401222,0.276139,0.0709444,0.0435627,769,750,-27.1857,-0.803868
-448,274,-26.5096,1.42151,0.0922954,-0.0389864,0.0395218,0.103275,-0.049966,0.270978,0.0902406,0.0457368,776,750,-26.5096,-1.42153
-441,274,0,0,0,0,0,0,0,0,0,-1,783,750,0,0
-434,274,0,0,0,0,0,0,0,0,0,-1,790,750,0,0
-427,274,0,0,0,0,0,0,0,0,0,-1,797,750,0,0
-420,274,0,0,0,0,0,0,0,0,0,-1,804,750,0,0
-413,274,0,0,0,0,0,0,0,0,0,-1,811,750,0,0
-406,274,0,0,0,0,0,0,0,0,0,-1,818,750,0,0
-399,274,0,0,0,0,0,0,0,0,0,-1,825,750,0,0
-392,274,0,0,0,0,0,0,0,0,0,-1,832,750,0,0
-385,274,0,0,0,0,0,0,0,0,0,-1,839,750,0,0
-378,274,0,0,0,0,0,0,0,0,0,-1,846,750,0,0
-371,274,0,0,0,0,0,0,0,0,0,-1,853,750,0,0
-364,274,0,0,0,0,0,0,0,0,0,-1,860,750,0,0
-357,274,0,0,0,0,0,0,0,0,0,-1,867,750,0,0
-350,274,0,0,0,0,0,0,0,0,0,-1,874,750,0,0
-343,274,0,0,0,0,0,0,0,0,0,-1,881,750,0,0
-336,274,0,0,0,0,0,0,0,0,0,-1,888,750,0,0
-329,274,0,0,0,0,0,0,0,0,0,-1,895,750,0,0
-322,274,0,0,0,0,0,0,0,0,0,-1,902,750,0,0
-315,274,0,0,0,0,0,0,0,0,0,-1,909,750,0,0
-308,274,0,0,0,0,0,0,0,0,0,-1,916,750,0,0
-301,274,0,0,0,0,0,0,0,0,0,-1,923,750,0,0
-294,274,0,0,0,0,0,0,0,0,0,-1,930,750,0,0
-287,274,0,0,0,0,0,0,0,0,0,-1,937,750,0,0
-280,274,0,0,0,0,0,0,0,0,0,-1,944,750,0,0
-273,274,0,0,0,0,0,0,0,0,0,-1,951,750,0,0
-266,274,0,0,0,0,0,0,0,0,0,-1,958,750,0,0
-259,274,0,0,0,0,0,0,0,0,0,-1,965,750,0,0
-252,274,0,0,0,0,0,0,0,0,0,-1,972,750,0,0
-245,274,0,0,0,0,0,0,0,0,0,-1,979,750,0,0
-238,274,0,0,0,0,0,0,0,0,0,-1,986,750,0,0
-231,274,0,0,0,0,0,0,0,0,0,-1,993,750,0,0
-224,274,0,0,0,0,0,0,0,0,0,-1,1000,750,0,0
-217,274,0,0,0,0,0,0,0,0,0,-1,1007,750,0,0
-210,274,0,0,0,0,0,0,0,0,0,-1,1014,750,0,0
-203,274,0,0,0,0,0,0,0,0,0,-1,1021,750,0,0
-196,274,0,0,0,0,0,0,0,0,0,-1,1028,750,0,0
-189,274,0,0,0,0,0,0,0,0,0,-1,1035,750,0,0
-182,274,0,0,0,0,0,0,0,0,0,-1,1042,750,0,0
-175,274,0,0,0,0,0,0,0,0,0,-1,1049,750,0,0
-168,274,0,0,0,0,0,0,0,0,0,-1,1056,750,0,0
-161,274,0,0,0,0,0,0,0,0,0,-1,1063,750,0,0
-154,274,0,0,0,0,0,0,0,0,0,-1,1070,750,0,0
-147,274,0,0,0,0,0,0,0,0,0,-1,1077,750,0,0
-140,274,0,0,0,0,0,0,0,0,0,-1,1084,750,0,0
-133,274,0,0,0,0,0,0,0,0,0,-1,1091,750,0,0
-126,274,0,0,0,0,0,0,0,0,0,-1,1098,750,0,0
-119,274,0,0,0,0,0,0,0,0,0,-1,1105,750,0,0
-112,274,0,0,0,0,0,0,0,0,0,-1,1112,750,0,0
-105,274,0,0,0,0,0,0,0,0,0,-1,1119,750,0,0
-98,274,0,0,0,0,0,0,0,0,0,-1,1126,750,0,0
-91,274,0,0,0,0,0,0,0,0,0,-1,1133,750,0,0
-84,274,0,0,0,0,0,0,0,0,0,-1,1140,750,0,0
-77,274,0,0,0,0,0,0,0,0,0,-1,1147,750,0,0
-70,274,0,0,0,0,0,0,0,0,0,-1,1154,750,0,0
-63,274,0,0,0,0,0,0,0,0,0,-1,1161,750,0,0
-56,274,0,0,0,0,0,0,0,0,0,-1,1168,750,0,0
-49,274,0,0,0,0,0,0,0,0,0,-1,1175,750,0,0
-42,274,0,0,0,0,0,0,0,0,0,-1,1182,750,0,0
-35,274,0,0,0,0,0,0,0,0,0,-1,1189,750,0,0
-28,274,0,0,0,0,0,0,0,0,0,-1,1196,750,0,0
-21,274,0,0,0,0,0,0,0,0,0,-1,1203,750,0,0
-14,274,0,0,0,0,0,0,0,0,0,-1,1210,750,0,0
-7,274,0,0,0,0,0,0,0,0,0,-1,1217,750,0,0
0,274,0,0,0,0,0,0,0,0,0,-1,1224,750,0,0
7,274,0,0,0,0,0,0,0,0,0,-1,1231,750,0,0
14,274,0,0,0,0,0,0,0,0,0,-1,1238,750,0,0
21,274,0,0,0,0,0,0,0,0,0,-1,1245,750,0,0
28,274,0,0,0,0,0,0,0,0,0,-1,1252,750,0,0
35,274,0,0,0,0,0,0,0,0,0,-1,1259,750,0,0
42,274,0,0,0,0,0,0,0,0,0,-1,1266,750,0,0
49,274,0,0,0,0,0,0,0,0,0,-1,1273,750,0,0
56,274,0,0,0,0,0,0,0,0,0,-1,1280,750,0,0
63,274,0,0,0,0,0,0,0,0,0,-1,1287,750,0,0
70,274,0,0,0,0,0,0,0,0,0,-1,1294,750,0,0
77,274,0,0,0,0,0,0,0,0,0,-1,1301,750,0,0
84,274,0,0,0,0,0,0,0,0,0,-1,1308,750,0,0
91,274,0,0,0,0,0,0,0,0,0,-1,1315,750,0,0
98,274,0,0,0,0,0,0,0,0,0,-1,1322,750,0,0
105,274,0,0,0,0,0,0,0,0,0,-1,1329,750,0,0
112,274,0,0,0,0,0,0,0,0,0,-1,1336,750,0,0
119,274,0,0,0,0,0,0,0,0,0,-1,1343,750,0,0
126,274,0,0,0,0,0,0,0,0,0,-1,1350,750,0,0
133,274,0,0,0,0,0,0,0,0,0,-1,1357,750,0,0
140,274,0,0,0,0,0,0,0,0,0,-1,1364,750,0,0
147,274,0,0,0,0,0,0,0,0,0,-1,1371,750,0,0
154,274,0,0,0,0,0,0,0,0,0,-1,1378,750,0,0
161,274,0,0,0,0,0,0,0,0,0,-1,1385,750,0,0
168,274,0,0,0,0,0,0,0,0,0,-1,1392,750,0,0
175,274,0,0,0,0,0,0,0,0,0,-1,1399,750,0,0
182,274,0,0,0,0,0,0,0,0,0,-1,1406,750,0,0
189,274,0,0,0,0,0,0,0,0,0,-1,1413,750,0,0
196,274,0,0,0,0,0,0,0,0,0,-1,1420,750,0,0
203,274,0,0,0,0,0,0,0,0,0,-1,1427,750,0,0
210,274,0,0,0,0,0,0,0,0,0,-1,1434,750,0,0
217,274,0,0,0,0,0,0,0,0,0,-1,1441,750,0,0
224,274,0,0,0,0,0,0,0,0,0,-1,1448,750,0,0
231,274,0,0,0,0,0,0,0,0,0,-1,1455,750,0,0
238,274,0,0,0,0,0,0,0,0,0,-1,1462,750,0,0
245,274,0,0,0,0,0,0,0,0,0,-1,1469,750,0,0
252,274,0,0,0,0,0,0,0,0,0,-1,1476,750,0,0
259,274,0,0,0,0,0,0,0,0,0,-1,1483,750,0,0
266,274,0,0,0,0,0,0,0,0,0,-1,1490,750,0,0
273,274,0,0,0,0,0,0,0,0,0,-1,1497,750,0,0
280,274,0,0,0,0,0,0,0,0,0,-1,1504,750,0,0
287,274,0,0,0,0,0,0,0,0,0,-1,1511,750,0,0
294,274,0,0,0,0,0,0,0,0,0,-1,1518,750,0,0
301,274,0,0,0,0,0,0,0,0,0,-1,1525,750,0,0
308,274,0,0,0,0,0,0,0,0,0,-1,1532,750,0,0
315,274,0,0,0,0,0,0,0,0,0,-1,1539,750,0,0
322,274,0,0,0,0,0,0,0,0,0,-1,1546,750,0,0
329,274,0,0,0,0,0,0,0,0,0,-1,1553,750,0,0
336,274,0,0,0,0,0,0,0,0,0,-1,1560,750,0,0
343,274,0,0,0,0,0,0,0,0,0,-1,1567,750,0,0
350,274,0,0,0,0,0,0,0,0,0,-1,1574,750,0,0
357,274,0,0,0,0,0,0,0,0,0,-1,1581,750,0,0
364,274,0,0,0,0,0,0,0,0,0,-1,1588,750,0,0
371,274,0,0,0,0,0,0,0,0,0,-1,1595,750,0,0
378,274,0,0,0,0,0,0,0,0,0,-1,1602,750,0,0
385,274,0,0,0,0,0,0,0,0,0,-1,1609,750,0,0
392,274,0,0,0,0,0,0,0,0,0,-1,1616,750,0,0
399,274,0,0,0,0,0,0,0,0,0,-1,1623,750,0,0
406,274,0,0,0,0,0,0,0,0,0,-1,1630,750,0,0
413,274,0,0,0,0,0,0,0,0,0,-1,1637,750,0,0
420,274,0,0,0,0,0,0,0,0,0,-1,1644,750,0,0
427,274,0,0,0,0,0,0,0,0,0,-1,1651,750,0,0
434,274,0,0,0,0,0,0,0,0,0,-1,1658,750,0,0
441,274,0,0,0,0,0,0,0,0,0,-1,1665,750,0,0
448,274,0,0,0,0,0,0,0,0,0,-1,1672,750,0,0
455,274,0,0,0,0,0,0,0,0,0,-1,1679,750,0,0
462,274,0,0,0,0,0,0,0,0,0,-1,1686,750,0,0
469,274,0,0,0,0,0,0,0,0,0,-1,1693,750,0,0
476,274,0,0,0,0,0,0,0,0,0,-1,1700,750,0,0
483,274,0,0,0,0,0,0,0,0,0,-1,1707,750,0,0
490,274,0,0,0,0,0,0,0,0,0,-1,1714,750,0,0
497,274,0,0,0,0,0,0,0,0,0,-1,1721,750,0,0
504,274,0,0,0,0,0,0,0,0,0,-1,1728,750,0,0
511,274,0,0,0,0,0,0,0,0,0,-1,1735,750,0,0
518,274,0,0,0,0,0,0,0,0,0,-1,1742,750,0,0
525,274,0,0,0,0,0,0,0,0,0,-1,1749,750,0,0
532,274,0,0,0,0,0,0,0,0,0,-1,1756,750,0,0
539,274,0,0,0,0,0,0,0,0,0,-1,1763,750,0,0
546,274,0,0,0,0,0,0,0,0,0,-1,1770,750,0,0
553,274,0,0,0,0,0,0,0,0,0,-1,1777,750,0,0
560,274,36.8877,2.79266,0,0,0,0,0,0,0,-1,1784,750,36.8877,-2.79268
567,274,36.5486,2.92657,0,0,0,0,0,0,0,-1,1791,750,36.5486,-2.92657
574,274,36.7522,2.79156,0,0,0,0,0,0,0,-1,1798,750,36.7522,-2.79157
581,274,36.4474,3.11719,-0.00263348,0.00344218,0.011618,0.0124129,-0.0116042,0.913273,0.013869,0.0438215,1805,750,36.4474,-3.11716
588,274,36.1761,3.36755,-0.0018085,0.00379786,0.00849029,0.00993576,-0.0079464,0.944845,0.0103455,0.0454675,1812,750,36.1761,-3.36754
595,274,35.8073,3.45001,0,0,0,0,0,0,0,-1,1819,750,35.8072,-3.44999
602,274,35.4647,3.14459,0,0,0,0,0,0,0,-1,1826,750,35.4647,-3.14458
609,274,35.9786,3.58984,0,0,0,0,0,0,0,-1,1833,750,35.9786,-3.58987
616,274,32.7869,1.78436,0,0,0,0,0,0,0,-1,1840,750,32.7868,-1.78437
623,274,24.8231,-1.80353,0,0,0,0,0,0,0,-1,1847,750,24.8232,1.80351
630,274,24.3857,-1.76038,0.00365822,7.96198e-05,-0.00175855,0.00437773,-0.000639885,-0.388366,0.00315349,0.0498571,1854,750,24.3857,1.76037
637,274,23.9537,-1.66187,0.00410888,-0.000820071,-0.00213533,0.00490527,-0.00161646,-0.356982,0.00392167,0.0147156,1861,750,23.9537,1.66185
644,274,23.9785,-1.1889,0.00390002,-0.00181824,-0.00226701,0.00468972,-0.00260794,-0.335199,0.00427007,0.0118379,1868,750,23.9785,1.1889
651,274,23.9904,-0.741699,0.00236957,-0.00171306,-0.00164875,0.00295225,-0.00229573,-0.339706,0.00303782,0.0130756,1875,750,23.9903,0.741704
658,274,23.9989,-0.301514,0.00069039,-0.00149642,-0.000829292,0.000969304,-0.00177533,-0.324444,0.00160723,0.0158679,1882,750,23.9989,0.301538
665,274,23.9803,0.167786,0.0001067,-0.00078471,-0.000532223,0.000355195,-0.00103321,-0.436819,0.000832844,0.0174253,1889,750,23.9804,-0.167783
672,274,23.9403,0.608765,5.56023e-05,-8.02373e-06,-0.000318759,0.000344132,-0.000296554,-0.735662,0.00037024,0.0149887,1896,750,23.9403,-0.608767
679,274,23.9387,1.05219,0.000392874,0.000752038,-7.73013e-05,0.000767969,0.000376943,-1.36756,0.000443412,0.015494,1903,750,23.9387,-1.05219
686,274,23.9379,1.5036,0.0010742,0.00144327,0.000306341,0.00161637,0.000901106,1.05649,0.000935263,0.0160739,1910,750,23.9379,-1.50359
693,274,23.9147,1.95166,0.00215005,0.00196339,0.000707678,0.00277053,0.00134292,0.719836,0.00159981,0.0124741,1917,750,23.9147,-1.95168
700,274,23.8927,2.39545,0.0038956,0.00239164,0.00130875,0.00465302,0.00163422,0.524638,0.00272578,0.0148955,1924,750,23.8927,-2.39547
707,274,23.8643,2.85596,0.00659994,0.00268613,0.0022731,0.00764245,0.00164362,0.430005,0.00464506,0.0240343,1931,750,23.8642,-2.85593
714,274,24.0573,3.41919,0.0105717,0.0025766,0.00362011,0.0119673,0.00118104,0.367945,0.00761509,0.0488956,1938,750,24.0572,-3.41918
721,274,24.2529,3.79413,0,0,0,0,0,0,0,-1,1945,750,24.253,-3.7941
728,274,19.2209,3.95154,0,0,0,0,0,0,0,-1,1952,750,19.221,-3.95151
735,274,20.6608,4.10931,0,0,0,0,0,0,0,-1,1959,750,20.6607,-4.10932
742,274,11.7815,-0.740234,0,0,0,0,0,0,0,-1,1966,750,11.7815,0.740253
749,274,0,0,0,0,0,0,0,0,0,-1,1973,750,0,0
756,274,0,0,0,0,0,0,0,0,0,-1,1980,750,0,0
763,274,0,0,0,0,0,0,0,0,0,-1,1987,750,0,0
770,274,0,0,0,0,0,0,0,0,0,-1,1994,750,0,0
777,274,0,0,0,0,0,0,0,0,0,-1,2001,750,0,0
784,274,0,0,0,0,0,0,0,0,0,-1,2008,750,0,0
791,274,0,0,0,0,0,0,0,0,0,-1,2015,750,0,0
798,274,0,0,0,0,0,0,0,0,0,-1,2022,750,0,0
805,274,0,0,0,0,0,0,0,0,0,-1,2029,750,0,0
812,274,0,0,0,0,0,0,0,0,0,-1,2036,750,0,0
-700,267,0,0,0,0,0,0,0,0,0,-1,524,757,0,0
-693,267,0,0,0,0,0,0,0,0,0,-1,531,757,0,0
-686,267,0,0,0,0,0,0,0,0,0,-1,538,757,0,0
-679,267,0,0,0,0,0,0,0,0,0,-1,545,757,0,0
-672,267,0,0,0,0,0,0,0,0,0,-1,552,757,0,0
-665,267,0,0,0,0,0,0,0,0,0,-1,559,757,0,0
-658,267,0,0,0,0,0,0,0,0,0,-1,566,757,0,0
-651,267,0,0,0,0,0,0,0,0,0,-1,573,757,0,0
-644,267,0,0,0,0,0,0,0,0,0,-1,580,757,0,0
-637,267,0,0,0,0,0,0,0,0,0,-1,587,757,0,0
-630,267,-21.3979,5.17529,0,0,0,0,0,0,0,-1,594,757,-21.3979,-5.17529
-623,267,-20.043,4.43115,0,0,0,0,0,0,0,-1,601,757,-20.043,-4.43116
-616,267,-16.621,4.31183,0,0,0,0,0,0,0,-1,608,757,-16.621,-4.31184
-609,267,-16.246,3.62811,0,0,0,0,0,0,0,-1,615,757,-16.2461,-3.6281
-602,267,-15.8689,3.00323,0,0,0,0,0,0,0,-1,622,757,-15.8689,-3.00326
-595,267,-16.7256,2.40308,0,0,0,0,0,0,0,-1,629,757,-16.7256,-2.4031
-588,267,-15.8387,1.71472,0.0158275,0.0122496,-0.00939303,0.0236004,0.00447668,-0.691297,0.014474,0.0453971,636,757,-15.8387,-1.71475
-581,267,-15.6908,0.80304,0.010639,0.00863784,-0.0063949,0.0161111,0.0031657,-0.707796,0.00985644,0.031652,643,757,-15.6908,-0.803036
-574,267,-15.702,0.280396,0.00705006,0.00596557,-0.00421572,0.0107583,0.00225737,-0.721437,0.00655068,0.0181546,650,757,-15.702,-0.280367
-567,267,-15.7598,-0.0969849,0.00445189,0.00395611,-0.00255368,0.00676968,0.00163832,-0.737014,0.00407822,0.0240197,657,757,-15.7597,0.0969913
-560,267,-15.7545,-0.509216,0.00254048,0.00233558,-0.00128125,0.00372338,0.00115269,-0.745501,0.00220104,0.0218829,664,757,-15.7545,0.50919
-553,267,-15.7914,-0.952637,0.00112349,0.0010059,-0.000248627,0.00132018,0.00080921,-0.669287,0.000768663,0.0171585,671,757,-15.7915,0.952654
-546,267,-15.7966,-1.4101,3.29968e-06,0.000145284,0.000630643,0.000708918,-0.000560335,0.841448,0.000734475,0.0114005,678,757,-15.7966,1.41008
-539,267,-15.7901,-1.83423,-0.00125108,-0.000348363,0.00151597,0.000782015,-0.00238145,0.930087,0.00190265,0.0110008,685,757,-15.7901,1.83426
-532,267,-15.786,-2.24133,-0.00260517,-0.000184776,0.00202847,0.000967074,-0.00375702,1.05436,0.00288164,0.011791,692,757,-15.786,2.24134
-525,267,-15.8178,-2.63922,-0.00377435,0.000362783,0.00223208,0.00133743,-0.00474899,1.1591,0.00369342,0.0112296,699,757,-15.8178,2.63924
-518,267,-15.8365,-3.06873,-0.00502055,0.00111149,0.00235176,0.00190957,-0.00581863,1.24364,0.00464825,0.010482,706,757,-15.8365,3.06875
-511,267,-15.834,-3.49738,-0.00481096,0.000534562,0.00231018,0.00139459,-0.00567099,1.21442,0.0043212,0.0154189,713,757,-15.834,3.49736
-504,267,-15.9343,-3.82837,-0.00270233,-0.000131778,0.00339178,0.00221008,-0.00504419,0.966508,0.00429348,0.0300626,720,757,-15.9343,3.82834
-497,267,-16.0938,-4.16589,0,0,0,0,0,0,0,-1,727,757,-16.0938,4.16589
-490,267,-23.4949,-0.494995,0,0,0,0,0,0,0,-1,734,757,-23.4949,0.494981
-483,267,-25.3631,1.59143,0,0,0,0,0,0,0,-1,741,757,-25.3631,-1.59145
-476,267,-27.1016,0.180481,0,0,0,0,0,0,0,-1,748,757,-27.1016,-0.18049
-469,267,-27.0843,0.362793,0,0,0,0,0,0,0,-1,755,757,-27.0843,-0.362799
-462,267,-27.0797,0.505249,0.0446675,-0.0204804,0.0206402,0.0506563,-0.0264691,0.282394,0.0452524,0.0448904,762,757,-27.0797,-0.505265
-455,267,-27.1542,0.711731,0.060151,-0.0269784,0.0262834,0.0674655,-0.034293,0.271428,0.0597818,0.0488692,769,757,-27.1542,-0.711737
-448,267,-27.0618,0.948669,0,0,0,0,0,0,0,-1,776,757,-27.0618,-0.948659
-441,267,0,0,0,0,0,0,0,0,0,-1,783,757,0,0
-434,267,0,0,0,0,0,0,0,0,0,-1,790,757,0,0
-427,267,0,0,0,0,0,0,0,0,0,-1,797,757,0,0
-420,267,0,0,0,0,0,0,0,0,0,-1,804,757,0,0
-413,267,0,0,0,0,0,0,0,0,0,-1,811,757,0,0
-406,267,0,0,0,0,0,0,0,0,0,-1,818,757,0,0
-399,267,0,0,0,0,0,0,0,0,0,-1,825,757,0,0
-392,267,0,0,0,0,0,0,0,0,0,-1,832,757,0,0
-385,267,0,0,0,0,0,0,0,0,0,-1,839,757,0,0
-378,267,0,0,0,0,0,0,0,0,0,-1,846,757,0,0
-371,267,0,0,0,0,0,0,0,0,0,-1,853,757,0,0
-364,267,0,0,0,0,0,0,0,0,0,-1,860,757,0,0
-357,267,0,0,0,0,0,0,0,0,0,-1,867,757,0,0
-350,267,0,0,0,0,0,0,0,0,0,-1,874,757,0,0
-343,267,0,0,0,0,0,0,0,0,0,-1,881,757,0,0
-336,267,0,0,0,0,0,0,0,0,0,-1,888,757,0,0
-329,267,0,0,0,0,0,0,0,0,0,-1,895,757,0,0
-322,267,0,0,0,0,0,0,0,0,0,-1,902,757,0,0
-315,267,0,0,0,0,0,0,0,0,0,-1,909,757,0,0
-308,267,0,0,0,0,0,0,0,0,0,-1,916,757,0,0
-301,267,0,0,0,0,0,0,0,0,0,-1,923,757,0,0
-294,267,0,0,0,0,0,0,0,0,0,-1,930,757,0,0
-287,267,0,0,0,0,0,0,0,0,0,-1,937,757,0,0
-280,267,0,0,0,0,0,0,0,0,0,-1,944,757,0,0
-273,267,0,0,0,0,0,0,0,0,0,-1,951,757,0,0
-266,267,0,0,0,0,0,0,0,0,0,-1,958,757,0,0
-259,267,0,0,0,0,0,0,0,0,0,-1,965,757,0,0
-252,267,0,0,0,0,0,0,0,0,0,-1,972,757,0,0
-245,267,0,0,0,0,0,0,0,0,0,-1,979,757,0,0
-238,267,0,0,0,0,0,0,0,0,0,-1,986,757,0,0
-231,267,0,0,0,0,0,0,0,0,0,-1,993,757,0,0
-224,267,0,0,0,0,0,0,0,0,0,-1,1000,757,0,0
-217,267,0,0,0,0,0,0,0,0,0,-1,1007,757,0,0
-210,267,0,0,0,0,0,0,0,0,0,-1,1014,757,0,0
-203,267,0,0,0,0,0,0,0,0,0,-1,1021,757,0,0
-196,267,0,0,0,0,0,0,0,0,0,-1,1028,757,0,0
-189,267,0,0,0,0,0,0,0,0,0,-1,1035,757,0,0
-182,267,0,0,0,0,0,0,0,0,0,-1,1042,757,0,0
-175,267,0,0,0,0,0,0,0,0,0,-1,1049,757,0,0
-168,267,0,0,0,0,0,0,0,0,0,-1,1056,757,0,0
-161,267,0,0,0,0,0,0,0,0,0,-1,1063,757,0,0
-154,267,0,0,0,0,0,0,0,0,0,-1,1070,757,0,0
-147,267,0,0,0,0,0,0,0,0,0,-1,1077,757,0,0
-140,267,0,0,0,0,0,0,0,0,0,-1,1084,757,0,0
-133,267,0,0,0,0,0,0,0,0,0,-1,1091,757,0,0
-126,267,0,0,0,0,0,0,0,0,0,-1,1098,757,0,0
-119,267,0,0,0,0,0,0,0,0,0,-1,1105,757,0,0
-112,267,0,0,0,0,0,0,0,0,0,-1,1112,757,0,0
-105,267,0,0,0,0,0,0,0,0,0,-1,1119,757,0,0
-98,267,0,0,0,0,0,0,0,0,0,-1,1126,757,0,0
-91,267,0,0,0,0,0,0,0,0,0,-1,1133,757,0,0
-84,267,0,0,0,0,0,0,0,0,0,-1,1140,757,0,0
-77,267,0,0,0,0,0,0,0,0,0,-1,1147,757,0,0
-70,267,0,0,0,0,0,0,0,0,0,-1,1154,757,0,0
-63,267,0,0,0,0,0,0,0,0,0,-1,1161,757,0,0
-56,267,0,0,0,0,0,0,0,0,0,-1,1168,757,0,0
-49,267,0,0,0,0,0,0,0,0,0,-1,1175,757,0,0
-42,267,0,0,0,0,0,0,0,0,0,-1,1182,757,0,0
-35,267,0,0,0,0,0,0,0,0,0,-1,1189,757,0,0
-28,267,0,0,0,0,0,0,0,0,0,-1,1196,757,0,0
-21,267,0,0,0,0,0,0,0,0,0,-1,1203,757,0,0
-14,267,0,0,0,0,0,0,0,0,0,-1,1210,757,0,0
-7,267,0,0,0,0,0,0,0,0,0,-1,1217,757,0,0
0,267,0,0,0,0,0,0,0,0,0,-1,1224,757,0,0
7,267,0,0,0,0,0,0,0,0,0,-1,1231,757,0,0
14,267,0,0,0,0,0,0,0,0,0,-1,1238,757,0,0
21,267,0,0,0,0,0,0,0,0,0,-1,1245,757,0,0
28,267,0,0,0,0,0,0,0,0,0,-1,1252,757,0,0
35,267,0,0,0,0,0,0,0,0,0,-1,1259,757,0,0
42,267,0,0,0,0,0,0,0,0,0,-1,1266,757,0,0
49,267,0,0,0,0,0,0,0,0,0,-1,1273,757,0,0
56,267,0,0,0,0,0,0,0,0,0,-1,1280,757,0,0
63,267,0,0,0,0,0,0,0,0,0,-1,1287,757,0,0
70,267,0,0,0,0,0,0,0,0,0,-1,1294,757,0,0
77,267,0,0,0,0,0,0,0,0,0,-1,1301,757,0,0
84,267,0,0,0,0,0,0,0,0,0,-1,1308,757,0,0
91,267,0,0,0,0,0,0,0,0,0,-1,1315,757,0,0
98,267,0,0,0,0,0,0,0,0,0,-1,1322,757,0,0
105,267,0,0,0,0,0,0,0,0,0,-1,1329,757,0,0
112,267,0,0,0,0,0,0,0,0,0,-1,1336,757,0,0
119,267,0,0,0,0,0,0,0,0,0,-1,1343,757,0,0
126,267,0,0,0,0,0,0,0,0,0,-1,1350,757,0,0
133,267,0,0,0,0,0,0,0,0,0,-1,1357,757,0,0
140,267,0,0,0,0,0,0,0,0,0,-1,1364,757,0,0
147,267,0,0,0,0,0,0,0,0,0,-1,1371,757,0,0
154,267,0,0,0,0,0,0,0,0,0,-1,1378,757,0,0
161,267,0,0,0,0,0,0,0,0,0,-1,1385,757,0,0
168,267,0,0,0,0,0,0,0,0,0,-1,1392,757,0,0
175,267,0,0,0,0,0,0,0,0,0,-1,1399,757,0,0
182,267,0,0,0,0,0,0,0,0,0,-1,1406,757,0,0
189,267,0,0,0,0,0,0,0,0,0,-1,1413,757,0,0
196,267,0,0,0,0,0,0,0,0,0,-1,1420,757,0,0
203,267,0,0,0,0,0,0,0,0,0,-1,1427,757,0,0
210,267,0,0,0,0,0,0,0,0,0,-1,1434,757,0,0
217,267,0,0,0,0,0,0,0,0,0,-1,1441,757,0,0
224,267,0,0,0,0,0,0,0,0,0,-1,1448,757,0,0
231,267,0,0,0,0,0,0,0,0,0,-1,1455,757,0,0
238,267,0,0,0,0,0,0,0,0,0,-1,1462,757,0,0
245,267,0,0,0,0,0,0,0,0,0,-1,1469,757,0,0
252,267,0,0,0,0,0,0,0,0,0,-1,1476,757,0,0
259,267,0,0,0,0,0,0,0,0,0,-1,1483,757,0,0
266,267,0,0,0,0,0,0,0,0,0,-1,1490,757,0,0
273,267,0,0,0,0,0,0,0,0,0,-1,1497,757,0,0
280,267,0,0,0,0,0,0,0,0,0,-1,1504,757,0,0
287,267,0,0,0,0,0,0,0,0,0,-1,1511,757,0,0
294,267,0,0,0,0,0,0,0,0,0,-1,1518,757,0,0
301,267,0,0,0,0,0,0,0,0,0,-1,1525,757,0,0
308,267,0,0,0,0,0,0,0,0,0,-1,1532,757,0,0
315,267,0,0,0,0,0,0,0,0,0,-1,1539,757,0,0
322,267,0,0,0,0,0,0,0,0,0,-1,1546,757,0,0
329,267,0,0,0,0,0,0,0,0,0,-1,1553,757,0,0
336,267,0,0,0,0,0,0,0,0,0,-1,1560,757,0,0
343,267,0,0,0,0,0,0,0,0,0,-1,1567,757,0,0
350,267,0,0,0,0,0,0,0,0,0,-1,1574,757,0,0
357,267,0,0,0,0,0,0,0,0,0,-1,1581,757,0,0
364,267,0,0,0,0,0,0,0,0,0,-1,1588,757,0,0
371,267,0,0,0,0,0,0,0,0,0,-1,1595,757,0,0
378,267,0,0,0,0,0,0,0,0,0,-1,1602,757,0,0
385,267,0,0,0,0,0,0,0,0,0,-1,1609,757,0,0
392,267,0,0,0,0,0,0,0,0,0,-1,1616,757,0,0
399,267,0,0,0,0,0,0,0,0,0,-1,1623,757,0,0
406,267,0,0,0,0,0,0,0,0,0,-1,1630,757,0,0
413,267,0,0,0,0,0,0,0,0,0,-1,1637,757,0,0
420,267,0,0,0,0,0,0,0,0,0,-1,1644,757,0,0
427,267,0,0,0,0,0,0,0,0,0,-1,1651,757,0,0
434,267,0,0,0,0,0,0,0,0,0,-1,1658,757,0,0
441,267,0,0,0,0,0,0,0,0,0,-1,1665,757,0,0
448,267,0,0,0,0,0,0,0,0,0,-1,1672,757,0,0
455,267,0,0,0,0,0,0,0,0,0,-1,1679,757,0,0
462,267,0,0,0,0,0,0,0,0,0,-1,1686,757,0,0
469,267,0,0,0,0,0,0,0,0,0,-1,1693,757,0,0
476,267,0,0,0,0,0,0,0,0,0,-1,1700,757,0,0
483,267,0,0,0,0,0,0,0,0,0,-1,1707,757,0,0
490,267,0,0,0,0,0,0,0,0,0,-1,1714,757,0,0
497,267,0,0,0,0,0,0,0,0,0,-1,1721,757,0,0
504,267,0,0,0,0,0,0,0,0,0,-1,1728,757,0,0
511,267,0,0,0,0,0,0,0,0,0,-1,1735,757,0,0
518,267,0,0,0,0,0,0,0,0,0,-1,1742,757,0,0
525,267,0,0,0,0,0,0,0,0,0,-1,1749,757,0,0
532,267,0,0,0,0,0,0,0,0,0,-1,1756,757,0,0
539,267,0,0,0,0,0,0,0,0,0,-1,1763,757,0,0
546,267,0,0,0,0,0,0,0,0,0,-1,1770,757,0,0
553,267,0,0,0,0,0,0,0,0,0,-1,1777,757,0,0
560,267,0,0,0,0,0,0,0,0,0,-1,1784,757,0,0
567,267,36.8658,2.83868,0,0,0,0,0,0,0,-1,1791,757,36.8658,-2.83871
574,267,36.8475,2.81451,-0.00693019,0.0046304,0.0125095,0.0126305,-0.0149303,1.00182,0.0159307,0.0420413,1798,757,36.8475,-2.81449
581,267,36.5966,3.02185,-0.00379766,0.00537637,0.00950042,0.0113392,-0.00976046,1.0103,0.0121932,0.0415016,1805,757,36.5965,-3.02183
588,267,36.2871,3.35669,-0.00188099,0.0052619,0.00651932,0.00912394,-0.00574303,1.03598,0.00865712,0.0451897,1812,757,36.2871,-3.35672
595,267,35.3459,3.15149,0,0,0,0,0,0,0,-1,1819,757,35.3459,-3.15147
602,267,35.8455,3.00568,0.000973649,0.00430163,0.00190416,0.00516641,0.000108869,1.14449,0.00340857,0.0488286,1826,757,35.8455,-3.00566
609,267,36.5432,2.77704,0,0,0,0,0,0,0,-1,1833,757,36.5432,-2.77707
616,267,37.1445,2.61346,0,0,0,0,0,0,0,-1,1840,757,37.1445,-2.61344
623,267,24.1475,-1.1391,0,0,0,0,0,0,0,-1,1847,757,24.1475,1.13913
630,267,24.9397,-1.45154,0,0,0,0,0,0,0,-1,1854,757,24.9397,1.45155
637,267,24.4213,-1.55756,0.00469106,-0.000760324,-0.00202662,0.00536193,-0.00143119,-0.319672,0.00413508,0.0299416,1861,757,24.4213,1.55757
644,267,24.4174,-1.17584,0.00441591,-0.00177919,-0.00210279,0.00506223,-0.00242551,-0.298197,0.00441148,0.0124655,1868,757,24.4174,1.17582
651,267,24.4175,-0.735291,0.00287597,-0.00183961,-0.00159271,0.00336351,-0.00232715,-0.29705,0.00330361,0.0146216,1875,757,24.4175,0.735282
658,267,24.4315,-0.276245,0.00106606,-0.00181864,-0.000819288,0.0012825,-0.00203509,-0.258288,0.00193177,0.0148911,1882,757,24.4315,0.276257
665,267,24.4324,0.188171,0.000365743,-0.0012595,-0.000575271,0.000548757,-0.00144252,-0.30801,0.00118764,0.015655,1889,757,24.4324,-0.188191
672,267,24.4144,0.615723,0.000294813,-0.000499994,-0.000417194,0.000473587,-0.000678768,-0.404845,0.000668819,0.0141051,1896,757,24.4144,-0.615748
679,267,24.3953,1.06287,0.000730628,0.00027689,-0.000191379,0.000800568,0.00020695,-0.350374,0.000479843,0.0130518,1903,757,24.3953,-1.06286
686,267,24.3853,1.53723,0.00160843,0.00100872,0.000279656,0.0017186,0.000898553,0.37528,0.000992579,0.0131568,1910,757,24.3852,-1.53725
693,267,24.3661,1.94855,0.00289764,0.00153871,0.000777557,0.00325078,0.00118557,0.426311,0.0018996,0.013167,1917,757,24.3661,-1.94854
700,267,24.356,2.37158,0.00475819,0.00195003,0.00144499,0.00536891,0.0013393,0.399879,0.00322686,0.0146623,1924,757,24.356,-2.37158
707,267,24.3323,2.81641,0.00743655,0.00222107,0.0024229,0.00838841,0.00126921,0.374336,0.00522088,0.0142625,1931,757,24.3323,-2.81639
714,267,24.4414,3.30139,0.0111766,0.00212523,0.003725,0.0125124,0.000789393,0.344328,0.00809134,0.030689,1938,757,24.4414,-3.30139
721,267,24.5808,3.78528,0,0,0,0,0,0,0,-1,1945,757,24.5808,-3.78531
728,267,26.7886,3.90027,0,0,0,0,0,0,0,-1,1952,757,26.7886,-3.90028
735,267,24.6713,2.82483,0,0,0,0,0,0,0,-1,1959,757,24.6713,-2.82483
742,267,18.1177,3.56561,0,0,0,0,0,0,0,-1,1966,757,18.1176,-3.56564
749,267,0,0,0,0,0,0,0,0,0,-1,1973,757,0,0
756,267,0,0,0,0,0,0,0,0,0,-1,1980,757,0,0
763,267,0,0,0,0,0,0,0,0,0,-1,1987,757,0,0
770,267,0,0,0,0,0,0,0,0,0,-1,1994,757,0,0
777,267,0,0,0,0,0,0,0,0,0,-1,2001,757,0,0
784,267,0,0,0,0,0,0,0,0,0,-1,2008,757,0,0
791,267,0,0,0,0,0,0,0,0,0,-1,2015,757,0,0
798,267,0,0,0,0,0,0,0,0,0,-1,2022,757,0,0
805,267,0,0,0,0,0,0,0,0,0,-1,2029,757,0,0
812,267,0,0,0,0,0,0,0,0,0,-1,2036,757,0,0
-700,260,0,0,0,0,0,0,0,0,0,-1,524,764,0,0
-693,260,0,0,0,0,0,0,0,0,0,-1,531,764,0,0
-686,260,0,0,0,0,0,0,0,0,0,-1,538,764,0,0
-679,260,0,0,0,0,0,0,0,0,0,-1,545,764,0,0
-672,260,0,0,0,0,0,0,0,0,0,-1,552,764,0,0
-665,260,0,0,0,0,0,0,0,0,0,-1,559,764,0,0
-658,260,0,0,0,0,0,0,0,0,0,-1,566,764,0,0
-651,260,0,0,0,0,0,0,0,0,0,-1,573,764,0,0
-644,260,0,0,0,0,0,0,0,0,0,-1,580,764,0,0
-637,260,0,0,0,0,0,0,0,0,0,-1,587,764,0,0
-630,260,-21.8905,4.49341,0,0,0,0,0,0,0,-1,594,764,-21.8905,-4.49342
-623,260,-20.3127,3.53546,0,0,0,0,0,0,0,-1,601,764,-20.3127,-3.53544
-616,260,-17.5065,4.04523,0,0,0,0,0,0,0,-1,608,764,-17.5065,-4.04522
-609,260,-17.0552,3.28687,0,0,0,0,0,0,0,-1,615,764,-17.0552,-3.28686
-602,260,-17.1145,2.00568,0,0,0,0,0,0,0,-1,622,764,-17.1145,-2.00567
-595,260,-16.8171,1.92181,0.0208185,0.0145456,-0.012297,0.0303728,0.00499135,-0.660532,0.0188068,0.0476818,629,764,-16.8172,-1.92179
-588,260,-16.4102,1.43488,0.0144961,0.0106486,-0.00867188,0.0214551,0.00368965,-0.676246,0.0132459,0.0413469,636,764,-16.4102,-1.43488
-581,260,-16.1674,0.699219,0.0100829,0.0076577,-0.00603137,0.0150224,0.00271825,-0.686195,0.00924305,0.0252546,643,764,-16.1674,-0.699233
-574,260,-16.1717,0.286255,0.00686916,0.0053225,-0.00402409,0.0101935,0.00199811,-0.690467,0.00623727,0.0165102,650,764,-16.1717,-0.286265
-567,260,-16.1692,-0.100342,0.00441836,0.0034575,-0.00242435,0.00640942,0.00146644,-0.687581,0.00387769,0.0164688,657,764,-16.1692,0.100338
-560,260,-16.1708,-0.514648,0.00251634,0.00188675,-0.00112672,0.00337142,0.00103167,-0.649177,0.00199473,0.0199097,664,764,-16.1708,0.514634
-553,260,-16.1976,-0.951111,0.00103914,0.000601072,-6.66568e-05,0.00104906,0.000591154,-0.147707,0.000607303,0.0169039,671,764,-16.1976,0.951107
-546,260,-16.225,-1.38525,-0.000251956,-5.91308e-05,0.000880817,0.000730535,-0.00104162,0.83991,0.0010284,0.0110161,678,764,-16.225,1.38524
-539,260,-16.2008,-1.79462,-0.00169094,-0.0002726,0.00179824,0.000951258,-0.0029148,0.97322,0.00232605,0.0116737,685,764,-16.2008,1.79461
-532,260,-16.1885,-2.17627,-0.00323539,0.000222623,0.00228021,0.00135523,-0.00436799,1.10978,0.00345354,0.0151071,692,764,-16.1885,2.1763
-525,260,-16.2402,-2.63495,-0.00447775,0.000940021,0.00243069,0.00187069,-0.00540841,1.20513,0.0043649,0.0130802,699,764,-16.2402,2.63493
-518,260,-16.2842,-3.04883,-0.00575113,0.00184687,0.00252089,0.00260718,-0.00651143,1.27787,0.0054231,0.0140664,706,764,-16.2843,3.04883
-511,260,-16.2755,-3.43402,-0.00575224,0.0014945,0.00236612,0.00219864,-0.00645638,1.28155,0.00519462,0.0260699,713,764,-16.2755,3.434
-504,260,-16.3378,-3.81207,0,0,0,0,0,0,0,-1,720,764,-16.3378,3.8121
-497,260,-16.2396,-3.47864,0,0,0,0,0,0,0,-1,727,764,-16.2396,3.47867
-490,260,-25.7501,2.04382,0,0,0,0,0,0,0,-1,734,764,-25.7501,-2.04381
-483,260,-25.7637,1.45746,0,0,0,0,0,0,0,-1,741,764,-25.7637,-1.45748
-476,260,-26.9178,0.896606,0,0,0,0,0,0,0,-1,748,764,-26.9178,-0.896596
-469,260,-26.731,-0.0808105,0,0,0,0,0,0,0,-1,755,764,-26.731,0.0808251
-462,260,-27.4341,0.602478,0,0,0,0,0,0,0,-1,762,764,-27.4341,-0.602482
-455,260,-27.181,0.734192,0,0,0,0,0,0,0,-1,769,764,-27.181,-0.734183
-448,260,0,0,0,0,0,0,0,0,0,-1,776,764,0,0
-441,260,0,0,0,0,0,0,0,0,0,-1,783,764,0,0
-434,260,0,0,0,0,0,0,0,0,0,-1,790,764,0,0
-427,260,0,0,0,0,0,0,0,0,0,-1,797,764,0,0
-420,260,0,0,0,0,0,0,0,0,0,-1,804,764,0,0
-413,260,0,0,0,0,0,0,0,0,0,-1,811,764,0,0
-406,260,0,0,0,0,0,0,0,0,0,-1,818,764,0,0
-399,260,0,0,0,0,0,0,0,0,0,-1,825,764,0,0
-392,260,0,0,0,0,0,0,0,0,0,-1,832,764,0,0
-385,260,0,0,0,0,0,0,0,0,0,-1,839,764,0,0
-378,260,0,0,0,0,0,0,0,0,0,-1,846,764,0,0
-371,260,0,0,0,0,0,0,0,0,0,-1,853,764,0,0
-364,260,0,0,0,0,0,0,0,0,0,-1,860,764,0,0
-357,260,0,0,0,0,0,0,0,0,0,-1,867,764,0,0
-350,260,0,0,0,0,0,0,0,0,0,-1,874,764,0,0
-343,260,0,0,0,0,0,0,0,0,0,-1,881,764,0,0
-336,260,0,0,0,0,0,0,0,0,0,-1,888,764,0,0
-329,260,0,0,0,0,0,0,0,0,0,-1,895,764,0,0
-322,260,0,0,0,0,0,0,0,0,0,-1,902,764,0,0
-315,260,0,0,0,0,0,0,0,0,0,-1,909,764,0,0
-308,260,0,0,0,0,0,0,0,0,0,-1,916,764,0,0
-301,260,0,0,0,0,0,0,0,0,0,-1,923,764,0,0
-294,260,0,0,0,0,0,0,0,0,0,-1,930,764,0,0
-287,260,0,0,0,0,0,0,0,0,0,-1,937,764,0,0
-280,260,0,0,0,0,0,0,0,0,0,-1,944,764,0,0
-273,260,0,0,0,0,0,0,0,0,0,-1,951,764,0,0
-266,260,0,0,0,0,0,0,0,0,0,-1,958,764,0,0
-259,260,0,0,0,0,0,0,0,0,0,-1,965,764,0,0
-252,260,0,0,0,0,0,0,0,0,0,-1,972,764,0,0
-245,260,0,0,0,0,0,0,0,0,0,-1,979,764,0,0
-238,260,0,0,0,0,0,0,0,0,0,-1,986,764,0,0
-231,260,0,0,0,0,0,0,0,0,0,-1,993,764,0,0
-224,260,0,0,0,0,0,0,0,0,0,-1,1000,764,0,0
-217,260,0,0,0,0,0,0,0,0,0,-1,1007,764,0,0
-210,260,0,0,0,0,0,0,0,0,0,-1,1014,764,0,0
-203,260,0,0,0,0,0,0,0,0,0,-1,1021,764,0,0
-196,260,0,0,0,0,0,0,0,0,0,-1,1028,764,0,0
-189,260,0,0,0,0,0,0,0,0,0,-1,1035,764,0,0
-182,260,0,0,0,0,0,0,0,0,0,-1,1042,764,0,0
-175,260,0,0,0,0,0,0,0,0,0,-1,1049,764,0,0
-168,260,0,0,0,0,0,0,0,0,0,-1,1056,764,0,0
-161,260,0,0,0,0,0,0,0,0,0,-1,1063,764,0,0
-154,260,0,0,0,0,0,0,0,0,0,-1,1070,764,0,0
-147,260,0,0,0,0,0,0,0,0,0,-1,1077,764,0,0
-140,260,0,0,0,0,0,0,0,0,0,-1,1084,764,0,0
-133,260,0,0,0,0,0,0,0,0,0,-1,1091,764,0,0
-126,260,0,0,0,0,0,0,0,0,0,-1,1098,764,0,0
-119,260,0,0,0,0,0,0,0,0,0,-1,1105,764,0,0
-112,260,0,0,0,0,0,0,0,0,0,-1,1112,764,0,0
-105,260,0,0,0,0,0,0,0,0,0,-1,1119,764,0,0
-98,260,0,0,0,0,0,0,0,0,0,-1,1126,764,0,0
-91,260,0,0,0,0,0,0,0,0,0,-1,1133,764,0,0
-84,260,0,0,0,0,0,0,0,0,0,-1,1140,764,0,0
-77,260,0,0,0,0,0,0,0,0,0,-1,1147,764,0,0
-70,260,0,0,0,0,0,0,0,0,0,-1,1154,764,0,0
-63,260,0,0,0,0,0,0,0,0,0,-1,1161,764,0,0
-56,260,0,0,0,0,0,0,0,0,0,-1,1168,764,0,0
-49,260,0,0,0,0,0,0,0,0,0,-1,1175,764,0,0
-42,260,0,0,0,0,0,0,0,0,0,-1,1182,764,0,0
-35,260,0,0,0,0,0,0,0,0,0,-1,1189,764,0,0
-28,260,0,0,0,0,0,0,0,0,0,-1,1196,764,0,0
-21,260,0,0,0,0,0,0,0,0,0,-1,1203,764,0,0
-14,260,0,0,0,0,0,0,0,0,0,-1,1210,764,0,0
-7,260,0,0,0,0,0,0,0,0,0,-1,1217,764,0,0
0,260,0,0,0,0,0,0,0,0,0,-1,1224,764,0,0
7,260,0,0,0,0,0,0,0,0,0,-1,1231,764,0,0
14,260,0,0,0,0,0,0,0,0,0,-1,1238,764,0,0
21,260,0,0,0,0,0,0,0,0,0,-1,1245,764,0,0
28,260,0,0,0,0,0,0,0,0,0,-1,1252,764,0,0
35,260,0,0,0,0,0,0,0,0,0,-1,1259,764,0,0
42,260,0,0,0,0,0,0,0,0,0,-1,1266,764,0,0
49,260,0,0,0,0,0,0,0,0,0,-1,1273,764,0,0
56,260,0,0,0,0,0,0,0,0,0,-1,1280,764,0,0
63,260,0,0,0,0,0,0,0,0,0,-1,1287,764,0,0
70,260,0,0,0,0,0,0,0,0,0,-1,1294,764,0,0
77,260,0,0,0,0,0,0,0,0,0,-1,1301,764,0,0
84,260,0,0,0,0,0,0,0,0,0,-1,1308,764,0,0
91,260,0,0,0,0,0,0,0,0,0,-1,1315,764,0,0
98,260,0,0,0,0,0,0,0,0,0,-1,1322,764,0,0
105,260,0,0,0,0,0,0,0,0,0,-1,1329,764,0,0
112,260,0,0,0,0,0,0,0,0,0,-1,1336,764,0,0
119,260,0,0,0,0,0,0,0,0,0,-1,1343,764,0,0
126,260,0,0,0,0,0,0,0,0,0,-1,1350,764,0,0
133,260,0,0,0,0,0,0,0,0,0,-1,1357,764,0,0
140,260,0,0,0,0,0,0,0,0,0,-1,1364,764,0,0
147,260,0,0,0,0,0,0,0,0,0,-1,1371,764,0,0
154,260,0,0,0,0,0,0,0,0,0,-1,1378,764,0,0
161,260,0,0,0,0,0,0,0,0,0,-1,1385,764,0,0
168,260,0,0,0,0,0,0,0,0,0,-1,1392,764,0,0
175,260,0,0,0,0,0,0,0,0,0,-1,1399,764,0,0
182,260,0,0,0,0,0,0,0,0,0,-1,1406,764,0,0
189,260,0,0,0,0,0,0,0,0,0,-1,1413,764,0,0
196,260,0,0,0,0,0,0,0,0,0,-1,1420,764,0,0
203,260,0,0,0,0,0,0,0,0,0,-1,1427,764,0,0
210,260,0,0,0,0,0,0,0,0,0,-1,1434,764,0,0
217,260,0,0,0,0,0,0,0,0,0,-1,1441,764,0,0
224,260,0,0,0,0,0,0,0,0,0,-1,1448,764,0,0
231,260,0,0,0,0,0,0,0,0,0,-1,1455,764,0,0
238,260,0,0,0,0,0,0,0,0,0,-1,1462,764,0,0
245,260,0,0,0,0,0,0,0,0,0,-1,1469,764,0,0
252,260,0,0,0,0,0,0,0,0,0,-1,1476,764,0,0
259,260,0,0,0,0,0,0,0,0,0,-1,1483,764,0,0
266,260,0,0,0,0,0,0,0,0,0,-1,1490,764,0,0
273,260,0,0,0,0,0,0,0,0,0,-1,1497,764,0,0
280,260,0,0,0,0,0,0,0,0,0,-1,1504,764,0,0
287,260,0,0,0,0,0,0,0,0,0,-1,1511,764,0,0
294,260,0,0,0,0,0,0,0,0,0,-1,1518,764,0,0
301,260,0,0,0,0,0,0,0,0,0,-1,1525,764,0,0
308,260,0,0,0,0,0,0,0,0,0,-1,1532,764,0,0
315,260,0,0,0,0,0,0,0,0,0,-1,1539,764,0,0
322,260,0,0,0,0,0,0,0,0,0,-1,1546,764,0,0
329,260,0,0,0,0,0,0,0,0,0,-1,1553,764,0,0
336,260,0,0,0,0,0,0,0,0,0,-1,1560,764,0,0
343,260,0,0,0,0,0,0,0,0,0,-1,1567,764,0,0
350,260,0,0,0,0,0,0,0,0,0,-1,1574,764,0,0
357,260,0,0,0,0,0,0,0,0,0,-1,1581,764,0,0
364,260,0,0,0,0,0,0,0,0,0,-1,1588,764,0,0
371,260,0,0,0,0,0,0,0,0,0,-1,1595,764,0,0
378,260,0,0,0,0,0,0,0,0,0,-1,1602,764,0,0
385,260,0,0,0,0,0,0,0,0,0,-1,1609,764,0,0
392,260,0,0,0,0,0,0,0,0,0,-1,1616,764,0,0
399,260,0,0,0,0,0,0,0,0,0,-1,1623,764,0,0
406,260,0,0,0,0,0,0,0,0,0,-1,1630,764,0,0
413,260,0,0,0,0,0,0,0,0,0,-1,1637,764,0,0
420,260,0,0,0,0,0,0,0,0,0,-1,1644,764,0,0
427,260,0,0,0,0,0,0,0,0,0,-1,1651,764,0,0
434,260,0,0,0,0,0,0,0,0,0,-1,1658,764,0,0
441,260,0,0,0,0,0,0,0,0,0,-1,1665,764,0,0
448,260,0,0,0,0,0,0,0,0,0,-1,1672,764,0,0
455,260,0,0,0,0,0,0,0,0,0,-1,1679,764,0,0
462,260,0,0,0,0,0,0,0,0,0,-1,1686,764,0,0
469,260,0,0,0,0,0,0,0,0,0,-1,1693,764,0,0
476,260,0,0,0,0,0,0,0,0,0,-1,1700,764,0,0
483,260,0,0,0,0,0,0,0,0,0,-1,1707,764,0,0
490,260,0,0,0,0,0,0,0,0,0,-1,1714,764,0,0
497,260,0,0,0,0,0,0,0,0,0,-1,1721,764,0,0
504,260,0,0,0,0,0,0,0,0,0,-1,1728,764,0,0
511,260,0,0,0,0,0,0,0,0,0,-1,1735,764,0,0
518,260,0,0,0,0,0,0,0,0,0,-1,1742,764,0,0
525,260,0,0,0,0,0,0,0,0,0,-1,1749,764,0,0
532,260,0,0,0,0,0,0,0,0,0,-1,1756,764,0,0
539,260,0,0,0,0,0,0,0,0,0,-1,1763,764,0,0
546,260,0,0,0,0,0,0,0,0,0,-1,1770,764,0,0
553,260,0,0,0,0,0,0,0,0,0,-1,1777,764,0,0
560,260,0,0,0,0,0,0,0,0,0,-1,1784,764,0,0
567,260,0,0,0,0,0,0,0,0,0,-1,1791,764,0,0
574,260,36.9769,2.61786,-0.0105677,0.00606122,0.0100056,0.0107561,-0.0152626,1.13207,0.0150968,0.0386494,1798,764,36.977,-2.61784
581,260,36.7726,2.86603,-0.00512059,0.00702621,0.00747404,0.0105834,-0.00867774,1.12659,0.0111385,0.040906,1805,764,36.7725,-2.86604
588,260,36.416,3.23785,-0.00184517,0.0065441,0.00475818,0.00869259,-0.00399366,1.14667,0.00749001,0.0449805,1812,764,36.416,-3.23782
595,260,36.1544,3.21338,0,0,0,0,0,0,0,-1,1819,764,36.1544,-3.21335
602,260,36.3459,2.94238,0,0,0,0,0,0,0,-1,1826,764,36.346,-2.94241
609,260,36.9924,2.71509,0,0,0,0,0,0,0,-1,1833,764,36.9924,-2.71511
616,260,37.3793,2.14563,0,0,0,0,0,0,0,-1,1840,764,37.3793,-2.14561
623,260,32.2268,3.25836,0,0,0,0,0,0,0,-1,1847,764,32.2268,-3.25833
630,260,24.3739,-0.536316,0,0,0,0,0,0,0,-1,1854,764,24.3739,0.536343
637,260,24.9133,-1.55963,0,0,0,0,0,0,0,-1,1861,764,24.9133,1.55962
644,260,24.9014,-1.13757,0.00447682,-0.00150416,-0.00174781,0.00495012,-0.00197746,-0.264456,0.00412056,0.0282736,1868,764,24.9013,1.13757
651,260,24.8871,-0.712158,0.00300748,-0.00169415,-0.00133303,0.00335913,-0.0020458,-0.257921,0.00315109,0.0150366,1875,764,24.8871,0.712163
658,260,24.8638,-0.255676,0.00121267,-0.00186904,-0.000653864,0.00134566,-0.00200204,-0.200661,0.00194514,0.0160163,1882,764,24.8638,0.255672
665,260,24.8593,0.19104,0.00044899,-0.00152423,-0.000513851,0.000574784,-0.00165003,-0.240084,0.00133356,0.0157584,1889,764,24.8593,-0.191046
672,260,24.8596,0.639282,0.000335594,-0.000880384,-0.000484333,0.000504927,-0.00104972,-0.336336,0.00091576,0.0135643,1896,764,24.8596,-0.639267
679,260,24.8342,1.08514,0.000795203,-0.000177755,-0.000355317,0.000911146,-0.000293698,-0.315415,0.000725427,0.0123675,1903,764,24.8342,-1.08515
686,260,24.8157,1.53052,0.00177207,0.000503767,0.000102292,0.00178027,0.00049557,0.0799636,0.00106097,0.0151619,1910,764,24.8156,-1.5305
693,260,24.7808,1.93347,0.00318026,0.00100855,0.000648768,0.00335931,0.000829502,0.269279,0.00202062,0.0152244,1917,764,24.7807,-1.93347
700,260,24.7579,2.37909,0.00501824,0.00141065,0.00133299,0.00545733,0.000971555,0.318209,0.0033615,0.0131725,1924,764,24.7579,-2.37909
707,260,24.7523,2.81128,0.00750604,0.00168148,0.00226551,0.00828346,0.000904058,0.330565,0.00524698,0.0132534,1931,764,24.7524,-2.81128
714,260,24.8162,3.2149,0.0108215,0.00164828,0.00346177,0.0119813,0.000488514,0.323268,0.00782976,0.0227355,1938,764,24.8161,-3.21492
721,260,25.3882,3.42065,0.0148578,0.00133394,0.00498949,0.0164993,-0.000307631,0.31785,0.0111035,0.0440732,1945,764,25.3881,-3.42066
728,260,25.8453,3.59564,0,0,0,0,0,0,0,-1,1952,764,25.8454,-3.59566
735,260,26.9788,4.85681,0,0,0,0,0,0,0,-1,1959,764,26.9787,-4.85678
742,260,32.1443,1.73688,0,0,0,0,0,0,0,-1,1966,764,32.1442,-1.73688
749,260,33.6013,2.94733,0,0,0,0,0,0,0,-1,1973,764,33.6013,-2.9473
756,260,0,0,0,0,0,0,0,0,0,-1,1980,764,0,0
763,260,0,0,0,0,0,0,0,0,0,-1,1987,764,0,0
770,260,0,0,0,0,0,0,0,0,0,-1,1994,764,0,0
777,260,0,0,0,0,0,0,0,0,0,-1,2001,764,0,0
784,260,0,0,0,0,0,0,0,0,0,-1,2008,764,0,0
791,260,0,0,0,0,0,0,0,0,0,-1,2015,764,0,0
798,260,0,0,0,0,0,0,0,0,0,-1,2022,764,0,0
805,260,0,0,0,0,0,0,0,0,0,-1,2029,764,0,0
812,260,0,0,0,0,0,0,0,0,0,-1,2036,764,0,0
-700,253,0,0,0,0,0,0,0,0,0,-1,524,771,0,0
-693,253,0,0,0,0,0,0,0,0,0,-1,531,771,0,0
-686,253,0,0,0,0,0,0,0,0,0,-1,538,771,0,0
-679,253,0,0,0,0,0,0,0,0,0,-1,545,771,0,0
-672,253,0,0,0,0,0,0,0,0,0,-1,552,771,0,0
-665,253,0,0,0,0,0,0,0,0,0,-1,559,771,0,0
-658,253,0,0,0,0,0,0,0,0,0,-1,566,771,0,0
-651,253,0,0,0,0,0,0,0,0,0,-1,573,771,0,0
-644,253,0,0,0,0,0,0,0,0,0,-1,580,771,0,0
-637,253,-24.7979,-0.491394,0,0,0,0,0,0,0,-1,587,771,-24.7978,0.491371
-630,253,-25.156,0.540405,0,0,0,0,0,0,0,-1,594,771,-25.156,-0.540421
-623,253,-20.808,2.84314,0,0,0,0,0,0,0,-1,601,771,-20.8081,-2.84312
-616,253,-19.338,2.65521,0,0,0,0,0,0,0,-1,608,771,-19.338,-2.65522
-609,253,-17.7501,3.04822,0,0,0,0,0,0,0,-1,615,771,-17.7501,-3.04824
-602,253,-17.0232,1.70972,0,0,0,0,0,0,0,-1,622,771,-17.0232,-1.7097
-595,253,-16.9489,1.51062,0.0173833,0.0118619,-0.0108033,0.025773,0.00347216,-0.660303,0.0161495,0.0436967,629,771,-16.9489,-1.5106
-588,253,-16.7182,1.07648,0.012388,0.00890061,-0.00772317,0.0185619,0.00272673,-0.674373,0.0115732,0.0362662,636,771,-16.7182,-1.07648
-581,253,-16.5768,0.681885,0.00883912,0.00650596,-0.00545004,0.013246,0.00209905,-0.679964,0.00822082,0.0238211,643,771,-16.5768,-0.681903
-574,253,-16.5932,0.260498,0.00610881,0.00452231,-0.00363612,0.0090372,0.00159392,-0.678002,0.00557004,0.0194399,650,771,-16.5932,-0.260521
-567,253,-16.6089,-0.184143,0.00391479,0.00283491,-0.0021276,0.00556989,0.00117981,-0.661133,0.00338915,0.016315,657,771,-16.6089,0.184144
-560,253,-16.5872,-0.547729,0.00211104,0.00137742,-0.000846612,0.00266689,0.000821571,-0.580972,0.00157709,0.0129848,664,771,-16.5872,0.547743
-553,253,-16.6005,-0.939453,0.000655264,0.000233096,0.000187517,0.000726526,0.000161834,0.363171,0.000440431,0.0122525,671,771,-16.6005,0.939429
-546,253,-16.6328,-1.33551,-0.000726684,-0.000125854,0.00115416,0.000766352,-0.00161889,0.912717,0.00140614,0.0112524,678,771,-16.6327,1.33553
-539,253,-16.6496,-1.76617,-0.00226557,2.83204e-05,0.0020543,0.00123417,-0.00347142,1.04,0.00281727,0.0123372,685,771,-16.6496,1.76615
-532,253,-16.6242,-2.1745,-0.00389514,0.000873487,0.00248239,0.00193115,-0.00495281,1.16802,0.00410009,0.0154994,692,771,-16.6242,2.17452
-525,253,-16.6396,-2.61365,-0.00516222,0.00176042,0.00258875,0.00262141,-0.00602321,1.24972,0.00511816,0.0121287,699,771,-16.6396,2.61366
-518,253,-16.7072,-3.01538,-0.00642924,0.00281614,0.00266297,0.0035283,-0.0071414,1.30948,0.00627678,0.0188552,706,771,-16.7072,3.01539
-511,253,-16.9364,-3.3136,-0.00665699,0.00273502,0.00243969,0.00333095,-0.00725292,1.33122,0.00624888,0.046912,713,771,-16.9364,3.31361
-504,253,-17.2731,-3.62695,0,0,0,0,0,0,0,-1,720,771,-17.2731,3.62695
-497,253,-21.3998,-1.49701,0,0,0,0,0,0,0,-1,727,771,-21.3998,1.497
-490,253,-26.3687,2.00543,0,0,0,0,0,0,0,-1,734,771,-26.3687,-2.00543
-483,253,-26.3279,1.46802,0.00307905,-0.000987605,0.00570448,0.00710175,-0.00501031,0.614196,0.00702757,0.0490923,741,771,-26.3279,-1.46802
-476,253,-26.8126,0.945007,0.00894101,-0.00390491,0.00725515,0.0122078,-0.00717172,0.423082,0.011314,0.0467841,748,771,-26.8125,-0.944998
-469,253,-26.7873,0.861816,0.0168321,-0.00785344,0.00927269,0.0199272,-0.0109485,0.322155,0.0180756,0.0460022,755,771,-26.7873,-0.861846
-462,253,-27.3452,0.671936,0.0268064,-0.0130365,0.0115463,0.0299106,-0.0161407,0.262638,0.026981,0.0470475,762,771,-27.3452,-0.671945
-455,253,-27.2059,0.78302,0,0,0,0,0,0,0,-1,769,771,-27.2059,-0.782993
-448,253,0,0,0,0,0,0,0,0,0,-1,776,771,0,0
-441,253,0,0,0,0,0,0,0,0,0,-1,783,771,0,0
-434,253,0,0,0,0,0,0,0,0,0,-1,790,771,0,0
-427,253,0,0,0,0,0,0,0,0,0,-1,797,771,0,0
-420,253,0,0,0,0,0,0,0,0,0,-1,804,771,0,0
-413,253,0,0,0,0,0,0,0,0,0,-1,811,771,0,0
-406,253,0,0,0,0,0,0,0,0,0,-1,818,771,0,0
-399,253,0,0,0,0,0,0,0,0,0,-1,825,771,0,0
-392,253,0,0,0,0,0,0,0,0,0,-1,832,771,0,0
-385,253,0,0,0,0,0,0,0,0,0,-1,839,771,0,0
-378,253,0,0,0,0,0,0,0,0,0,-1,846,771,0,0
-371,253,0,0,0,0,0,0,0,0,0,-1,853,771,0,0
-364,253,0,0,0,0,0,0,0,0,0,-1,860,771,0,0
-357,253,0,0,0,0,0,0,0,0,0,-1,867,771,0,0
-350,253,0,0,0,0,0,0,0,0,0,-1,874,771,0,0
-343,253,0,0,0,0,0,0,0,0,0,-1,881,771,0,0
-336,253,0,0,0,0,0,0,0,0,0,-1,888,771,0,0
-329,253,0,0,0,0,0,0,0,0,0,-1,895,771,0,0
-322,253,0,0,0,0,0,0,0,0,0,-1,902,771,0,0
-315,253,0,0,0,0,0,0,0,0,0,-1,909,771,0,0
-308,253,0,0,0,0,0,0,0,0,0,-1,916,771,0,0
-301,253,0,0,0,0,0,0,0,0,0,-1,923,771,0,0
-294,253,0,0,0,0,0,0,0,0,0,-1,930,771,0,0
-287,253,0,0,0,0,0,0,0,0,0,-1,937,771,0,0
-280,253,0,0,0,0,0,0,0,0,0,-1,944,771,0,0
-273,253,0,0,0,0,0,0,0,0,0,-1,951,771,0,0
-266,253,0,0,0,0,0,0,0,0,0,-1,958,771,0,0
-259,253,0,0,0,0,0,0,0,0,0,-1,965,771,0,0
-252,253,0,0,0,0,0,0,0,0,0,-1,972,771,0,0
-245,253,0,0,0,0,0,0,0,0,0,-1,979,771,0,0
-238,253,0,0,0,0,0,0,0,0,0,-1,986,771,0,0
-231,253,0,0,0,0,0,0,0,0,0,-1,993,771,0,0
-224,253,0,0,0,0,0,0,0,0,0,-1,1000,771,0,0
-217,253,0,0,0,0,0,0,0,0,0,-1,1007,771,0,0
-210,253,0,0,0,0,0,0,0,0,0,-1,1014,771,0,0
-203,253,0,0,0,0,0,0,0,0,0,-1,1021,771,0,0
-196,253,0,0,0,0,0,0,0,0,0,-1,1028,771,0,0
-189,253,0,0,0,0,0,0,0,0,0,-1,1035,771,0,0
-182,253,0,0,0,0,0,0,0,0,0,-1,1042,771,0,0
-175,253,0,0,0,0,0,0,0,0,0,-1,1049,771,0,0
-168,253,0,0,0,0,0,0,0,0,0,-1,1056,771,0,0
-161,253,0,0,0,0,0,0,0,0,0,-1,1063,771,0,0
-154,253,0,0,0,0,0,0,0,0,0,-1,1070,771,0,0
-147,253,0,0,0,0,0,0,0,0,0,-1,1077,771,0,0
-140,253,0,0,0,0,0,0,0,0,0,-1,1084,771,0,0
-133,253,0,0,0,0,0,0,0,0,0,-1,1091,771,0,0
-126,253,0,0,0,0,0,0,0,0,0,-1,1098,771,0,0
-119,253,0,0,0,0,0,0,0,0,0,-1,1105,771,0,0
-112,253,0,0,0,0,0,0,0,0,0,-1,1112,771,0,0
-105,253,0,0,0,0,0,0,0,0,0,-1,1119,771,0,0
-98,253,0,0,0,0,0,0,0,0,0,-1,1126,771,0,0
-91,253,0,0,0,0,0,0,0,0,0,-1,1133,771,0,0
-84,253,0,0,0,0,0,0,0,0,0,-1,1140,771,0,0
-77,253,0,0,0,0,0,0,0,0,0,-1,1147,771,0,0
-70,253,0,0,0,0,0,0,0,0,0,-1,1154,771,0,0
-63,253,0,0,0,0,0,0,0,0,0,-1,1161,771,0,0
-56,253,0,0,0,0,0,0,0,0,0,-1,1168,771,0,0
-49,253,0,0,0,0,0,0,0,0,0,-1,1175,771,0,0
-42,253,0,0,0,0,0,0,0,0,0,-1,1182,771,0,0
-35,253,0,0,0,0,0,0,0,0,0,-1,1189,771,0,0
-28,253,0,0,0,0,0,0,0,0,0,-1,1196,771,0,0
-21,253,0,0,0,0,0,0,0,0,0,-1,1203,771,0,0
-14,253,0,0,0,0,0,0,0,0,0,-1,1210,771,0,0
-7,253,0,0,0,0,0,0,0,0,0,-1,1217,771,0,0
0,253,0,0,0,0,0,0,0,0,0,-1,1224,771,0,0
7,253,0,0,0,0,0,0,0,0,0,-1,1231,771,0,0
14,253,0,0,0,0,0,0,0,0,0,-1,1238,771,0,0
21,253,0,0,0,0,0,0,0,0,0,-1,1245,771,0,0
28,253,0,0,0,0,0,0,0,0,0,-1,1252,771,0,0
35,253,0,0,0,0,0,0,0,0,0,-1,1259,771,0,0
42,253,0,0,0,0,0,0,0,0,0,-1,1266,771,0,0
49,253,0,0,0,0,0,0,0,0,0,-1,1273,771,0,0
56,253,0,0,0,0,0,0,0,0,0,-1,1280,771,0,0
63,253,0,0,0,0,0,0,0,0,0,-1,1287,771,0,0
70,253,0,0,0,0,0,0,0,0,0,-1,1294,771,0,0
77,253,0,0,0,0,0,0,0,0,0,-1,1301,771,0,0
84,253,0,0,0,0,0,0,0,0,0,-1,1308,771,0,0
91,253,0,0,0,0,0,0,0,0,0,-1,1315,771,0,0
98,253,0,0,0,0,0,0,0,0,0,-1,1322,771,0,0
105,253,0,0,0,0,0,0,0,0,0,-1,1329,771,0,0
112,253,0,0,0,0,0,0,0,0,0,-1,1336,771,0,0
119,253,0,0,0,0,0,0,0,0,0,-1,1343,771,0,0
126,253,0,0,0,0,0,0,0,0,0,-1,1350,771,0,0
133,253,0,0,0,0,0,0,0,0,0,-1,1357,771,0,0
140,253,0,0,0,0,0,0,0,0,0,-1,1364,771,0,0
147,253,0,0,0,0,0,0,0,0,0,-1,1371,771,0,0
154,253,0,0,0,0,0,0,0,0,0,-1,1378,771,0,0
161,253,0,0,0,0,0,0,0,0,0,-1,1385,771,0,0
168,253,0,0,0,0,0,0,0,0,0,-1,1392,771,0,0
175,253,0,0,0,0,0,0,0,0,0,-1,1399,771,0,0
182,253,0,0,0,0,0,0,0,0,0,-1,1406,771,0,0
189,253,0,0,0,0,0,0,0,0,0,-1,1413,771,0,0
196,253,0,0,0,0,0,0,0,0,0,-1,1420,771,0,0
203,253,0,0,0,0,0,0,0,0,0,-1,1427,771,0,0
210,253,0,0,0,0,0,0,0,0,0,-1,1434,771,0,0
217,253,0,0,0,0,0,0,0,0,0,-1,1441,771,0,0
224,253,0,0,0,0,0,0,0,0,0,-1,1448,771,0,0
231,253,0,0,0,0,0,0,0,0,0,-1,1455,771,0,0
238,253,0,0,0,0,0,0,0,0,0,-1,1462,771,0,0
245,253,0,0,0,0,0,0,0,0,0,-1,1469,771,0,0
252,253,0,0,0,0,0,0,0,0,0,-1,1476,771,0,0
259,253,0,0,0,0,0,0,0,0,0,-1,1483,771,0,0
266,253,0,0,0,0,0,0,0,0,0,-1,1490,771,0,0
273,253,0,0,0,0,0,0,0,0,0,-1,1497,771,0,0
280,253,0,0,0,0,0,0,0,0,0,-1,1504,771,0,0
287,253,0,0,0,0,0,0,0,0,0,-1,1511,771,0,0
294,253,0,0,0,0,0,0,0,0,0,-1,1518,771,0,0
301,253,0,0,0,0,0,0,0,0,0,-1,1525,771,0,0
308,253,0,0,0,0,0,0,0,0,0,-1,1532,771,0,0
315,253,0,0,0,0,0,0,0,0,0,-1,1539,771,0,0
322,253,0,0,0,0,0,0,0,0,0,-1,1546,771,0,0
329,253,0,0,0,0,0,0,0,0,0,-1,1553,771,0,0
336,253,0,0,0,0,0,0,0,0,0,-1,1560,771,0,0
343,253,0,0,0,0,0,0,0,0,0,-1,1567,771,0,0
350,253,0,0,0,0,0,0,0,0,0,-1,1574,771,0,0
357,253,0,0,0,0,0,0,0,0,0,-1,1581,771,0,0
364,253,0,0,0,0,0,0,0,0,0,-1,1588,771,0,0
371,253,0,0,0,0,0,0,0,0,0,-1,1595,771,0,0
378,253,0,0,0,0,0,0,0,0,0,-1,1602,771,0,0
385,253,0,0,0,0,0,0,0,0,0,-1,1609,771,0,0
392,253,0,0,0,0,0,0,0,0,0,-1,1616,771,0,0
399,253,0,0,0,0,0,0,0,0,0,-1,1623,771,0,0
406,253,0,0,0,0,0,0,0,0,0,-1,1630,771,0,0
413,253,0,0,0,0,0,0,0,0,0,-1,1637,771,0,0
420,253,0,0,0,0,0,0,0,0,0,-1,1644,771,0,0
427,253,0,0,0,0,0,0,0,0,0,-1,1651,771,0,0
434,253,0,0,0,0,0,0,0,0,0,-1,1658,771,0,0
441,253,0,0,0,0,0,0,0,0,0,-1,1665,771,0,0
448,253,0,0,0,0,0,0,0,0,0,-1,1672,771,0,0
455,253,0,0,0,0,0,0,0,0,0,-1,1679,771,0,0
462,253,0,0,0,0,0,0,0,0,0,-1,1686,771,0,0
469,253,0,0,0,0,0,0,0,0,0,-1,1693,771,0,0
476,253,0,0,0,0,0,0,0,0,0,-1,1700,771,0,0
483,253,0,0,0,0,0,0,0,0,0,-1,1707,771,0,0
490,253,0,0,0,0,0,0,0,0,0,-1,1714,771,0,0
497,253,0,0,0,0,0,0,0,0,0,-1,1721,771,0,0
504,253,0,0,0,0,0,0,0,0,0,-1,1728,771,0,0
511,253,0,0,0,0,0,0,0,0,0,-1,1735,771,0,0
518,253,0,0,0,0,0,0,0,0,0,-1,1742,771,0,0
525,253,0,0,0,0,0,0,0,0,0,-1,1749,771,0,0
532,253,0,0,0,0,0,0,0,0,0,-1,1756,771,0,0
539,253,0,0,0,0,0,0,0,0,0,-1,1763,771,0,0
546,253,0,0,0,0,0,0,0,0,0,-1,1770,771,0,0
553,253,0,0,0,0,0,0,0,0,0,-1,1777,771,0,0
560,253,0,0,0,0,0,0,0,0,0,-1,1784,771,0,0
567,253,0,0,0,0,0,0,0,0,0,-1,1791,771,0,0
574,253,37.0122,2.46185,-0.0143407,0.00651272,0.00761774,0.00899904,-0.016827,1.25531,0.0151373,0.0370781,1798,771,37.0122,-2.46183
581,253,36.8605,2.61725,-0.00681169,0.00798171,0.0055879,0.00985516,-0.00868515,1.2473,0.0107114,0.039081,1805,771,36.8605,-2.61722
588,253,36.8168,2.84668,-0.00202046,0.00737868,0.00331016,0.00842743,-0.00306921,1.26398,0.00687369,0.0436163,1812,771,36.8168,-2.84667
595,253,36.5317,2.99084,0,0,0,0,0,0,0,-1,1819,771,36.5318,-2.99083
602,253,36.608,2.92365,0.00309289,0.00500784,6.61943e-05,0.00501013,0.0030906,1.53628,0.00291882,0.046404,1826,771,36.6081,-2.92363
609,253,37.0293,2.70508,0.00427186,0.00356395,-0.000846917,0.00483582,0.003,-0.587462,0.0028188,0.0419026,1833,771,37.0292,-2.70507
616,253,37.4055,2.32574,0.0047181,0.00247412,-0.00141663,0.00540323,0.00178899,-0.450472,0.00317834,0.0402149,1840,771,37.4056,-2.32572
623,253,37.8907,2.21533,0,0,0,0,0,0,0,-1,1847,771,37.8908,-2.21531
630,253,33.561,2.96838,0,0,0,0,0,0,0,-1,1854,771,33.561,-2.96836
637,253,22.3192,-0.604004,0,0,0,0,0,0,0,-1,1861,771,22.3192,0.603986
644,253,25.3934,-1.12085,0,0,0,0,0,0,0,-1,1868,771,25.3935,1.12086
651,253,25.3163,-0.667542,0.00294628,-0.00146932,-0.000954824,0.0031439,-0.00166695,-0.204094,0.00282084,0.0265283,1875,771,25.3163,0.667531
658,253,25.3033,-0.240479,0.00125839,-0.00176869,-0.000389751,0.00130776,-0.00181807,-0.126017,0.0018127,0.0193719,1882,771,25.3033,0.240488
665,253,25.2307,0.187256,0.000461613,-0.0016049,-0.000355417,0.000521032,-0.00166431,-0.16565,0.00131801,0.0211158,1889,771,25.2307,-0.187276
672,253,25.192,0.629639,0.000273115,-0.00112486,-0.000470233,0.000416566,-0.00126831,-0.296096,0.00101335,0.0162012,1896,771,25.192,-0.629647
679,253,25.2631,1.10297,0.000672239,-0.000577977,-0.00048148,0.00083617,-0.000741908,-0.328163,0.000911646,0.0125884,1903,771,25.2631,-1.10294
686,253,25.2704,1.51343,0.00166141,-3.27761e-05,-0.00010982,0.0016685,-3.9865e-05,-0.064462,0.00112585,0.0185169,1910,771,25.2704,-1.5134
693,253,25.2188,1.9339,0.00314276,0.000381254,0.000433444,0.0032092,0.00031482,0.152088,0.00204263,0.0188635,1917,771,25.2187,-1.93391
700,253,25.1964,2.38153,0.00490924,0.000694449,0.00108541,0.00517234,0.000431355,0.237806,0.00331381,0.0153244,1924,771,25.1964,-2.38151
707,253,25.2074,2.81824,0.00711341,0.000899953,0.00191015,0.00765366,0.000359706,0.275631,0.00498686,0.0131503,1931,771,25.2075,-2.81823
714,253,25.2184,3.22699,0.00989438,0.000848529,0.00292902,0.01076,-1.70493e-05,0.287341,0.007179,0.0165749,1938,771,25.2184,-3.227
721,253,25.2876,3.65668,0.0130761,0.000510994,0.00414723,0.0143215,-0.000734398,0.291728,0.00980163,0.0333587,1945,771,25.2877,-3.65665
728,253,25.4047,4.13617,0.0170579,-0.000197627,0.00585964,0.0188596,-0.00199933,0.298302,0.0132897,0.0494852,1952,771,25.4046,-4.13617
735,253,25.5452,4.61871,0,0,0,0,0,0,0,-1,1959,771,25.5451,-4.61874
742,253,27.5789,5.78607,0,0,0,0,0,0,0,-1,1966,771,27.5788,-5.78606
749,253,32.8558,3.30847,0,0,0,0,0,0,0,-1,1973,771,32.8559,-3.30849
756,253,0,0,0,0,0,0,0,0,0,-1,1980,771,0,0
763,253,0,0,0,0,0,0,0,0,0,-1,1987,771,0,0
770,253,0,0,0,0,0,0,0,0,0,-1,1994,771,0,0
777,253,0,0,0,0,0,0,0,0,0,-1,2001,771,0,0
784,253,0,0,0,0,0,0,0,0,0,-1,2008,771,0,0
791,253,0,0,0,0,0,0,0,0,0,-1,2015,771,0,0
798,253,0,0,0,0,0,0,0,0,0,-1,2022,771,0,0
805,253,0,0,0,0,0,0,0,0,0,-1,2029,771,0,0
812,253,0,0,0,0,0,0,0,0,0,-1,2036,771,0,0
-700,246,0,0,0,0,0,0,0,0,0,-1,524,778,0,0
-693,246,0,0,0,0,0,0,0,0,0,-1,531,778,0,0
-686,246,0,0,0,0,0,0,0,0,0,-1,538,778,0,0
-679,246,0,0,0,0,0,0,0,0,0,-1,545,778,0,0
-672,246,0,0,0,0,0,0,0,0,0,-1,552,778,0,0
-665,246,0,0,0,0,0,0,0,0,0,-1,559,778,0,0
-658,246,0,0,0,0,0,0,0,0,0,-1,566,778,0,0
-651,246,0,0,0,0,0,0,0,0,0,-1,573,778,0,0
-644,246,0,0,0,0,0,0,0,0,0,-1,580,778,0,0
-637,246,-24.1234,0.130432,0,0,0,0,0,0,0,-1,587,778,-24.1234,-0.130438
-630,246,-24.0781,1.38916,0,0,0,0,0,0,0,-1,594,778,-24.0781,-1.38913
-623,246,-23.9183,2.49573,0,0,0,0,0,0,0,-1,601,778,-23.9183,-2.49575
-616,246,-19.4752,1.91888,0,0,0,0,0,0,0,-1,608,778,-19.4752,-1.91889
-609,246,-17.5242,0.963379,0,0,0,0,0,0,0,-1,615,778,-17.5242,-0.963383
-602,246,-17.1821,2.07233,0,0,0,0,0,0,0,-1,622,778,-17.1821,-2.07235
-595,246,-17.1187,1.62744,0.0134198,0.00984792,-0.00871975,0.0205346,0.00273311,-0.684386,0.0128758,0.0447835,629,778,-17.1187,-1.62745
-588,246,-16.9811,1.08173,0.00985737,0.00747108,-0.00636002,0.0151352,0.00219326,-0.692675,0.00944432,0.0288641,636,778,-16.9812,-1.0817
-581,246,-16.9941,0.713928,0.00720245,0.00547623,-0.00453044,0.0109513,0.00172741,-0.69127,0.00679858,0.0167785,643,778,-16.9941,-0.713943
-574,246,-16.9737,0.257446,0.0050127,0.0037566,-0.00297177,0.00742206,0.00134724,-0.681261,0.00456571,0.017669,650,778,-16.9737,-0.257457
-567,246,-16.9968,-0.164001,0.00314231,0.00222516,-0.00161019,0.00435795,0.00100951,-0.646673,0.00263409,0.0197668,657,778,-16.9967,0.164005
-560,246,-17.0284,-0.535339,0.00150374,0.000905074,-0.000436482,0.00173367,0.000675147,-0.484836,0.00100906,0.0155017,664,778,-17.0284,0.535329
-553,246,-17.0345,-0.9021,0.000119376,-3.6473e-05,0.00051248,0.000559822,-0.00047692,0.709949,0.000599201,0.0139204,671,778,-17.0345,0.902107
-546,246,-17.0643,-1.30695,-0.00127949,-6.87028e-05,0.00142704,0.000876045,-0.00222424,0.986008,0.0018455,0.0120078,678,778,-17.0642,1.30694
-539,246,-17.0552,-1.73804,-0.00281757,0.000419058,0.00222467,0.00155176,-0.00395027,1.09985,0.00327567,0.0113003,685,778,-17.0552,1.73804
-532,246,-17.0421,-2.15076,-0.00440957,0.00148717,0.00256731,0.00244828,-0.00537067,1.21259,0.00461818,0.0120706,692,778,-17.042,2.15078
-525,246,-17.0638,-2.53839,-0.0056112,0.00243053,0.0026115,0.00320418,-0.00638484,1.28279,0.00563683,0.0148618,699,778,-17.0638,2.53839
-518,246,-17.1693,-2.83447,-0.00680218,0.00355111,0.00265299,0.00419134,-0.00744241,1.334,0.00680361,0.0256623,706,778,-17.1693,2.83446
-511,246,-17.3376,-3.0694,0,0,0,0,0,0,0,-1,713,778,-17.3377,3.06941
-504,246,-17.3035,-3.04633,0,0,0,0,0,0,0,-1,720,778,-17.3035,3.04632
-497,246,-24.959,1.96899,0,0,0,0,0,0,0,-1,727,778,-24.959,-1.96897
-490,246,-25.7204,2.01563,0,0,0,0,0,0,0,-1,734,778,-25.7204,-2.01562
-483,246,-26.6956,1.25244,-0.000693469,0.00175133,0.0041124,0.00481916,-0.0037613,0.929863,0.00496647,0.0495577,741,778,-26.6956,-1.25246
-476,246,-26.9059,0.957581,0.0041016,-0.000789084,0.00492049,0.00715089,-0.00383837,0.554787,0.00644001,0.0475092,748,778,-26.9059,-0.957603
-469,246,-27.0474,1.01141,0.0109833,-0.00464352,0.00601218,0.0130287,-0.00668889,0.327923,0.0115784,0.0425759,755,778,-27.0474,-1.01144
-462,246,-27.1516,0.846375,0.0201673,-0.0102845,0.00712735,0.0217529,-0.0118702,0.218904,0.0196898,0.0457219,762,778,-27.1515,-0.846396
-455,246,0,0,0,0,0,0,0,0,0,-1,769,778,0,0
-448,246,0,0,0,0,0,0,0,0,0,-1,776,778,0,0
-441,246,0,0,0,0,0,0,0,0,0,-1,783,778,0,0
-434,246,0,0,0,0,0,0,0,0,0,-1,790,778,0,0
-427,246,0,0,0,0,0,0,0,0,0,-1,797,778,0,0
-420,246,0,0,0,0,0,0,0,0,0,-1,804,778,0,0
-413,246,0,0,0,0,0,0,0,0,0,-1,811,778,0,0
-406,246,0,0,0,0,0,0,0,0,0,-1,818,778,0,0
-399,246,0,0,0,0,0,0,0,0,0,-1,825,778,0,0
-392,246,0,0,0,0,0,0,0,0,0,-1,832,778,0,0
-385,246,0,0,0,0,0,0,0,0,0,-1,839,778,0,0
-378,246,0,0,0,0,0,0,0,0,0,-1,846,778,0,0
-371,246,0,0,0,0,0,0,0,0,0,-1,853,778,0,0
-364,246,0,0,0,0,0,0,0,0,0,-1,860,778,0,0
-357,246,0,0,0,0,0,0,0,0,0,-1,867,778,0,0
-350,246,0,0,0,0,0,0,0,0,0,-1,874,778,0,0
-343,246,0,0,0,0,0,0,0,0,0,-1,881,778,0,0
-336,246,0,0,0,0,0,0,0,0,0,-1,888,778,0,0
-329,246,0,0,0,0,0,0,0,0,0,-1,895,778,0,0
-322,246,0,0,0,0,0,0,0,0,0,-1,902,778,0,0
-315,246,0,0,0,0,0,0,0,0,0,-1,909,778,0,0
-308,246,0,0,0,0,0,0,0,0,0,-1,916,778,0,0
-301,246,0,0,0,0,0,0,0,0,0,-1,923,778,0,0
-294,246,0,0,0,0,0,0,0,0,0,-1,930,778,0,0
-287,246,0,0,0,0,0,0,0,0,0,-1,937,778,0,0
-280,246,0,0,0,0,0,0,0,0,0,-1,944,778,0,0
-273,246,0,0,0,0,0,0,0,0,0,-1,951,778,0,0
-266,246,0,0,0,0,0,0,0,0,0,-1,958,778,0,0
-259,246,0,0,0,0,0,0,0,0,0,-1,965,778,0,0
-252,246,0,0,0,0,0,0,0,0,0,-1,972,778,0,0
-245,246,0,0,0,0,0,0,0,0,0,-1,979,778,0,0
-238,246,0,0,0,0,0,0,0,0,0,-1,986,778,0,0
-231,246,0,0,0,0,0,0,0,0,0,-1,993,778,0,0
-224,246,0,0,0,0,0,0,0,0,0,-1,1000,778,0,0
-217,246,0,0,0,0,0,0,0,0,0,-1,1007,778,0,0
-210,246,0,0,0,0,0,0,0,0,0,-1,1014,778,0,0
-203,246,0,0,0,0,0,0,0,0,0,-1,1021,778,0,0
-196,246,0,0,0,0,0,0,0,0,0,-1,1028,778,0,0
-189,246,0,0,0,0,0,0,0,0,0,-1,1035,778,0,0
-182,246,0,0,0,0,0,0,0,0,0,-1,1042,778,0,0
-175,246,0,0,0,0,0,0,0,0,0,-1,1049,778,0,0
-168,246,0,0,0,0,0,0,0,0,0,-1,1056,778,0,0
-161,246,0,0,0,0,0,0,0,0,0,-1,1063,778,0,0
-154,246,0,0,0,0,0,0,0,0,0,-1,1070,778,0,0
-147,246,0,0,0,0,0,0,0,0,0,-1,1077,778,0,0
-140,246,0,0,0,0,0,0,0,0,0,-1,1084,778,0,0
-133,246,0,0,0,0,0,0,0,0,0,-1,1091,778,0,0
-126,246,0,0,0,0,0,0,0,0,0,-1,1098,778,0,0
-119,246,0,0,0,0,0,0,0,0,0,-1,1105,778,0,0
-112,246,0,0,0,0,0,0,0,0,0,-1,1112,778,0,0
-105,246,0,0,0,0,0,0,0,0,0,-1,1119,778,0,0
-98,246,0,0,0,0,0,0,0,0,0,-1,1126,778,0,0
-91,246,0,0,0,0,0,0,0,0,0,-1,1133,778,0,0
-84,246,0,0,0,0,0,0,0,0,0,-1,1140,778,0,0
-77,246,0,0,0,0,0,0,0,0,0,-1,1147,778,0,0
-70,246,0,0,0,0,0,0,0,0,0,-1,1154,778,0,0
-63,246,0,0,0,0,0,0,0,0,0,-1,1161,778,0,0
-56,246,0,0,0,0,0,0,0,0,0,-1,1168,778,0,0
-49,246,0,0,0,0,0,0,0,0,0,-1,1175,778,0,0
-42,246,0,0,0,0,0,0,0,0,0,-1,1182,778,0,0
-35,246,0,0,0,0,0,0,0,0,0,-1,1189,778,0,0
-28,246,0,0,0,0,0,0,0,0,0,-1,1196,778,0,0
-21,246,0,0,0,0,0,0,0,0,0,-1,1203,778,0,0
-14,246,0,0,0,0,0,0,0,0,0,-1,1210,778,0,0
-7,246,0,0,0,0,0,0,0,0,0,-1,1217,778,0,0
0,246,0,0,0,0,0,0,0,0,0,-1,1224,778,0,0
7,246,0,0,0,0,0,0,0,0,0,-1,1231,778,0,0
14,246,0,0,0,0,0,0,0,0,0,-1,1238,778,0,0
21,246,0,0,0,0,0,0,0,0,0,-1,1245,778,0,0
28,246,0,0,0,0,0,0,0,0,0,-1,1252,778,0,0
35,246,0,0,0,0,0,0,0,0,0,-1,1259,778,0,0
42,246,0,0,0,0,0,0,0,0,0,-1,1266,778,0,0
49,246,0,0,0,0,0,0,0,0,0,-1,1273,778,0,0
56,246,0,0,0,0,0,0,0,0,0,-1,1280,778,0,0
63,246,0,0,0,0,0,0,0,0,0,-1,1287,778,0,0
70,246,0,0,0,0,0,0,0,0,0,-1,1294,778,0,0
77,246,0,0,0,0,0,0,0,0,0,-1,1301,778,0,0
84,246,0,0,0,0,0,0,0,0,0,-1,1308,778,0,0
91,246,0,0,0,0,0,0,0,0,0,-1,1315,778,0,0
98,246,0,0,0,0,0,0,0,0,0,-1,1322,778,0,0
105,246,0,0,0,0,0,0,0,0,0,-1,1329,778,0,0
112,246,0,0,0,0,0,0,0,0,0,-1,1336,778,0,0
119,246,0,0,0,0,0,0,0,0,0,-1,1343,778,0,0
126,246,0,0,0,0,0,0,0,0,0,-1,1350,778,0,0
133,246,0,0,0,0,0,0,0,0,0,-1,1357,778,0,0
140,246,0,0,0,0,0,0,0,0,0,-1,1364,778,0,0
147,246,0,0,0,0,0,0,0,0,0,-1,1371,778,0,0
154,246,0,0,0,0,0,0,0,0,0,-1,1378,778,0,0
161,246,0,0,0,0,0,0,0,0,0,-1,1385,778,0,0
168,246,0,0,0,0,0,0,0,0,0,-1,1392,778,0,0
175,246,0,0,0,0,0,0,0,0,0,-1,1399,778,0,0
182,246,0,0,0,0,0,0,0,0,0,-1,1406,778,0,0
189,246,0,0,0,0,0,0,0,0,0,-1,1413,778,0,0
196,246,0,0,0,0,0,0,0,0,0,-1,1420,778,0,0
203,246,0,0,0,0,0,0,0,0,0,-1,1427,778,0,0
210,246,0,0,0,0,0,0,0,0,0,-1,1434,778,0,0
217,246,0,0,0,0,0,0,0,0,0,-1,1441,778,0,0
224,246,0,0,0,0,0,0,0,0,0,-1,1448,778,0,0
231,246,0,0,0,0,0,0,0,0,0,-1,1455,778,0,0
238,246,0,0,0,0,0,0,0,0,0,-1,1462,778,0,0
245,246,0,0,0,0,0,0,0,0,0,-1,1469,778,0,0
252,246,0,0,0,0,0,0,0,0,0,-1,1476,778,0,0
259,246,0,0,0,0,0,0,0,0,0,-1,1483,778,0,0
266,246,0,0,0,0,0,0,0,0,0,-1,1490,778,0,0
273,246,0,0,0,0,0,0,0,0,0,-1,1497,778,0,0
280,246,0,0,0,0,0,0,0,0,0,-1,1504,778,0,0
287,246,0,0,0,0,0,0,0,0,0,-1,1511,778,0,0
294,246,0,0,0,0,0,0,0,0,0,-1,1518,778,0,0
301,246,0,0,0,0,0,0,0,0,0,-1,1525,778,0,0
308,246,0,0,0,0,0,0,0,0,0,-1,1532,778,0,0
315,246,0,0,0,0,0,0,0,0,0,-1,1539,778,0,0
322,246,0,0,0,0,0,0,0,0,0,-1,1546,778,0,0
329,246,0,0,0,0,0,0,0,0,0,-1,1553,778,0,0
336,246,0,0,0,0,0,0,0,0,0,-1,1560,778,0,0
343,246,0,0,0,0,0,0,0,0,0,-1,1567,778,0,0
350,246,0,0,0,0,0,0,0,0,0,-1,1574,778,0,0
357,246,0,0,0,0,0,0,0,0,0,-1,1581,778,0,0
364,246,0,0,0,0,0,0,0,0,0,-1,1588,778,0,0
371,246,0,0,0,0,0,0,0,0,0,-1,1595,778,0,0
378,246,0,0,0,0,0,0,0,0,0,-1,1602,778,0,0
385,246,0,0,0,0,0,0,0,0,0,-1,1609,778,0,0
392,246,0,0,0,0,0,0,0,0,0,-1,1616,778,0,0
399,246,0,0,0,0,0,0,0,0,0,-1,1623,778,0,0
406,246,0,0,0,0,0,0,0,0,0,-1,1630,778,0,0
413,246,0,0,0,0,0,0,0,0,0,-1,1637,778,0,0
420,246,0,0,0,0,0,0,0,0,0,-1,1644,778,0,0
427,246,0,0,0,0,0,0,0,0,0,-1,1651,778,0,0
434,246,0,0,0,0,0,0,0,0,0,-1,1658,778,0,0
441,246,0,0,0,0,0,0,0,0,0,-1,1665,778,0,0
448,246,0,0,0,0,0,0,0,0,0,-1,1672,778,0,0
455,246,0,0,0,0,0,0,0,0,0,-1,1679,778,0,0
462,246,0,0,0,0,0,0,0,0,0,-1,1686,778,0,0
469,246,0,0,0,0,0,0,0,0,0,-1,1693,778,0,0
476,246,0,0,0,0,0,0,0,0,0,-1,1700,778,0,0
483,246,0,0,0,0,0,0,0,0,0,-1,1707,778,0,0
490,246,0,0,0,0,0,0,0,0,0,-1,1714,778,0,0
497,246,0,0,0,0,0,0,0,0,0,-1,1721,778,0,0
504,246,0,0,0,0,0,0,0,0,0,-1,1728,778,0,0
511,246,0,0,0,0,0,0,0,0,0,-1,1735,778,0,0
518,246,0,0,0,0,0,0,0,0,0,-1,1742,778,0,0
525,246,0,0,0,0,0,0,0,0,0,-1,1749,778,0,0
532,246,0,0,0,0,0,0,0,0,0,-1,1756,778,0,0
539,246,0,0,0,0,0,0,0,0,0,-1,1763,778,0,0
546,246,0,0,0,0,0,0,0,0,0,-1,1770,778,0,0
553,246,0,0,0,0,0,0,0,0,0,-1,1777,778,0,0
560,246,0,0,0,0,0,0,0,0,0,-1,1784,778,0,0
567,246,0,0,0,0,0,0,0,0,0,-1,1791,778,0,0
574,246,0,0,0,0,0,0,0,0,0,-1,1798,778,0,0
581,246,36.9819,2.59613,-0.0098105,0.0080267,0.00358308,0.00871954,-0.0105033,1.37979,0.0111143,0.0358279,1805,778,36.9819,-2.5961
588,246,36.8997,2.60413,-0.00326161,0.00759227,0.00197966,0.00794207,-0.00361141,1.3959,0.00682482,0.0397505,1812,778,36.8996,-2.60414
595,246,37.0226,2.69025,0.00106727,0.00637231,0.000647646,0.00645023,0.000989346,1.45106,0.00401125,0.0405794,1819,778,37.0225,-2.69025
602,246,36.9891,2.89185,0.00368134,0.00498747,-0.000206058,0.00501921,0.0036496,-1.41798,0.00299584,0.0438382,1826,778,36.9891,-2.89186
609,246,37.3076,2.57642,0.00502438,0.00348038,-0.000673219,0.00527669,0.00322808,-0.358578,0.00307176,0.0469106,1833,778,37.3076,-2.57643
616,246,37.437,2.43774,0.00528925,0.002295,-0.000967184,0.00557449,0.00200976,-0.286789,0.00325991,0.0456716,1840,778,37.437,-2.43775
623,246,37.3734,2.45264,0.0050863,0.00126585,-0.000848437,0.00526624,0.0010859,-0.208991,0.00321067,0.0421998,1847,778,37.3735,-2.45261
630,246,37.7653,2.93384,0,0,0,0,0,0,0,-1,1854,778,37.7652,-2.93381
637,246,27.627,1.09131,0,0,0,0,0,0,0,-1,1861,778,27.627,-1.09128
644,246,25.6626,-1.08099,0,0,0,0,0,0,0,-1,1868,778,25.6627,1.081
651,246,25.6693,-0.65448,0.0027692,-0.00126838,-0.000456893,0.00282026,-0.00131944,-0.111285,0.00244185,0.0451805,1875,778,25.6693,0.654502
658,246,25.689,-0.230347,0.00127285,-0.00159889,-5.08876e-05,0.00127376,-0.00159979,-0.0177127,0.0016626,0.0252681,1882,778,25.6889,0.230361
665,246,25.6614,0.195862,0.000468278,-0.00154461,-0.000129908,0.000476628,-0.00155296,-0.0641831,0.00122548,0.0224516,1889,778,25.6613,-0.195876
672,246,25.64,0.68158,0.000152107,-0.00121521,-0.000379892,0.000250565,-0.00131367,-0.253595,0.000970149,0.0215063,1896,778,25.64,-0.681587
679,246,25.6481,1.09149,0.000354851,-0.000806695,-0.000551427,0.000574933,-0.00102678,-0.379742,0.000936933,0.0204671,1903,778,25.6481,-1.09147
686,246,25.6979,1.52753,0.00118406,-0.000367879,-0.000321851,0.00124816,-0.000431979,-0.196589,0.00100746,0.021872,1910,778,25.6978,-1.52753
693,246,25.6952,1.95801,0.00260899,2.26454e-06,0.000203274,0.00262475,-1.34916e-05,0.0773572,0.00175434,0.0177997,1917,778,25.6952,-1.95803
700,246,25.6741,2.38068,0.00421856,0.00028183,0.000815167,0.00438068,0.000119712,0.196316,0.00288138,0.0143047,1924,778,25.674,-2.3807
707,246,25.6599,2.8205,0.00613142,0.000495646,0.00154576,0.00652754,9.95223e-05,0.250866,0.0043189,0.0122155,1931,778,25.6599,-2.82051
714,246,25.641,3.26581,0.00844564,0.000630614,0.00243114,0.0091402,-6.39469e-05,0.278281,0.0061149,0.0112062,1938,778,25.641,-3.26583
721,246,25.649,3.64288,0.0109535,0.000484444,0.00339904,0.0119603,-0.000522321,0.287958,0.00815323,0.0192751,1945,778,25.649,-3.64289
728,246,25.9116,4.28455,0.0139393,0.000121294,0.00467648,0.0153732,-0.00131259,0.297516,0.0107132,0.0424844,1952,778,25.9116,-4.28455
735,246,26.3992,5.0321,0,0,0,0,0,0,0,-1,1959,778,26.3992,-5.03213
742,246,24.0005,5.21588,0,0,0,0,0,0,0,-1,1966,778,24.0004,-5.21588
749,246,23.5845,5.81195,0,0,0,0,0,0,0,-1,1973,778,23.5844,-5.81195
756,246,30.751,3.95483,0,0,0,0,0,0,0,-1,1980,778,30.751,-3.95484
763,246,0,0,0,0,0,0,0,0,0,-1,1987,778,0,0
770,246,0,0,0,0,0,0,0,0,0,-1,1994,778,0,0
777,246,0,0,0,0,0,0,0,0,0,-1,2001,778,0,0
784,246,0,0,0,0,0,0,0,0,0,-1,2008,778,0,0
791,246,0,0,0,0,0,0,0,0,0,-1,2015,778,0,0
798,246,0,0,0,0,0,0,0,0,0,-1,2022,778,0,0
805,246,0,0,0,0,0,0,0,0,0,-1,2029,778,0,0
812,246,0,0,0,0,0,0,0,0,0,-1,2036,778,0,0
-700,239,0,0,0,0,0,0,0,0,0,-1,524,785,0,0
-693,239,0,0,0,0,0,0,0,0,0,-1,531,785,0,0
-686,239,0,0,0,0,0,0,0,0,0,-1,538,785,0,0
-679,239,0,0,0,0,0,0,0,0,0,-1,545,785,0,0
-672,239,0,0,0,0,0,0,0,0,0,-1,552,785,0,0
-665,239,0,0,0,0,0,0,0,0,0,-1,559,785,0,0
-658,239,0,0,0,0,0,0,0,0,0,-1,566,785,0,0
-651,239,0,0,0,0,0,0,0,0,0,-1,573,785,0,0
-644,239,0,0,0,0,0,0,0,0,0,-1,580,785,0,0
-637,239,-23.2709,0.465088,0,0,0,0,0,0,0,-1,587,785,-23.271,-0.465116
-630,239,-23.4006,0.956299,0,0,0,0,0,0,0,-1,594,785,-23.4005,-0.956285
-623,239,-23.3302,1.56317,0,0,0,0,0,0,0,-1,601,785,-23.3302,-1.56317
-616,239,-23.8334,2.11334,0,0,0,0,0,0,0,-1,608,785,-23.8334,-2.11337
-609,239,-24.415,2.79736,0,0,0,0,0,0,0,-1,615,785,-24.415,-2.79739
-602,239,-17.4669,2.42291,0,0,0,0,0,0,0,-1,622,785,-17.4669,-2.42289
-595,239,-17.3802,1.82343,0.0108241,0.00787891,-0.00685018,0.0163582,0.00234482,-0.679525,0.0102139,0.0444583,629,785,-17.3803,-1.82343
-588,239,-17.3066,1.19629,0.00799637,0.00612373,-0.00500914,0.0121559,0.00196416,-0.693003,0.00753507,0.0194422,636,785,-17.3066,-1.19627
-581,239,-17.3889,0.718567,0.00584604,0.00448575,-0.00353575,0.00876647,0.00156532,-0.690378,0.00539872,0.0107783,643,785,-17.3889,-0.718537
-574,239,-17.3875,0.291016,0.00400645,0.00298644,-0.00224256,0.00579626,0.00119662,-0.673589,0.0035335,0.0114137,650,785,-17.3875,-0.291044
-567,239,-17.4325,-0.119873,0.00234317,0.00160904,-0.00105379,0.00309199,0.000860215,-0.617806,0.00184278,0.0144225,657,785,-17.4325,0.119875
-560,239,-17.4482,-0.493042,0.000818999,0.000469618,-3.62827e-05,0.000822727,0.00046589,-0.102393,0.000476391,0.0151824,664,785,-17.4482,0.493064
-553,239,-17.4511,-0.886597,-0.000488398,-0.000167023,0.000787587,0.000476102,-0.00113152,0.886029,0.000953529,0.0150083,671,785,-17.4511,0.886589
-546,239,-17.5009,-1.30432,-0.00184195,0.000163586,0.0015986,0.0010479,-0.00272626,1.06552,0.00224969,0.0151445,678,785,-17.5009,1.30431
-539,239,-17.5014,-1.72729,-0.00327695,0.000947797,0.00225005,0.00192166,-0.00425081,1.16232,0.00364727,0.0159616,685,785,-17.5014,1.72729
-532,239,-17.4694,-2.1355,-0.00475101,0.00217959,0.00251336,0.0029951,-0.00556651,1.25705,0.00501681,0.0149327,692,785,-17.4694,2.13548
-525,239,-17.4891,-2.44788,-0.00582781,0.00315109,0.00250447,0.00380241,-0.00647913,1.31637,0.00600273,0.0214637,699,785,-17.4891,2.44785
-518,239,-17.5779,-2.73035,0,0,0,0,0,0,0,-1,706,785,-17.5779,2.73032
-511,239,-17.7839,-2.65594,0,0,0,0,0,0,0,-1,713,785,-17.7839,2.65597
-504,239,-25.5596,1.65405,0,0,0,0,0,0,0,-1,720,785,-25.5596,-1.65403
-497,239,-26.0458,1.54968,-0.00658145,0.00556139,0.00254251,0.00607225,-0.00709232,1.37251,0.00760817,0.0467485,727,785,-26.0458,-1.54968
-490,239,-26.5254,1.43536,-0.00551713,0.00529841,0.00256067,0.00587403,-0.00609275,1.34968,0.00690941,0.0443316,734,785,-26.5254,-1.43539
-483,239,-27.0145,1.10144,-0.00325225,0.00415804,0.00261137,0.00498581,-0.00408002,1.26383,0.00524286,0.045867,741,785,-27.0145,-1.10142
-476,239,-27.0881,0.891418,0.000812492,0.00176741,0.00272725,0.00405868,-0.00147878,0.872055,0.00331069,0.0422807,748,785,-27.0882,-0.891391
-469,239,-27.11,0.89679,0.00705461,-0.00234698,0.00291927,0.00788731,-0.00317969,0.277865,0.00657941,0.0426906,755,785,-27.11,-0.896782
-462,239,-27.0927,0.876587,0.0158529,-0.00898461,0.00285779,0.0161774,-0.00930918,0.113091,0.0148918,0.0465965,762,785,-27.0927,-0.876567
-455,239,0,0,0,0,0,0,0,0,0,-1,769,785,0,0
-448,239,0,0,0,0,0,0,0,0,0,-1,776,785,0,0
-441,239,0,0,0,0,0,0,0,0,0,-1,783,785,0,0
-434,239,0,0,0,0,0,0,0,0,0,-1,790,785,0,0
-427,239,0,0,0,0,0,0,0,0,0,-1,797,785,0,0
-420,239,0,0,0,0,0,0,0,0,0,-1,804,785,0,0
-413,239,0,0,0,0,0,0,0,0,0,-1,811,785,0,0
-406,239,0,0,0,0,0,0,0,0,0,-1,818,785,0,0
-399,239,0,0,0,0,0,0,0,0,0,-1,825,785,0,0
-392,239,0,0,0,0,0,0,0,0,0,-1,832,785,0,0
-385,239,0,0,0,0,0,0,0,0,0,-1,839,785,0,0
-378,239,0,0,0,0,0,0,0,0,0,-1,846,785,0,0
-371,239,0,0,0,0,0,0,0,0,0,-1,853,785,0,0
-364,239,0,0,0,0,0,0,0,0,0,-1,860,785,0,0
-357,239,0,0,0,0,0,0,0,0,0,-1,867,785,0,0
-350,239,0,0,0,0,0,0,0,0,0,-1,874,785,0,0
-343,239,0,0,0,0,0,0,0,0,0,-1,881,785,0,0
-336,239,0,0,0,0,0,0,0,0,0,-1,888,785,0,0
-329,239,0,0,0,0,0,0,0,0,0,-1,895,785,0,0
-322,239,0,0,0,0,0,0,0,0,0,-1,902,785,0,0
-315,239,0,0,0,0,0,0,0,0,0,-1,909,785,0,0
-308,239,0,0,0,0,0,0,0,0,0,-1,916,785,0,0
-301,239,0,0,0,0,0,0,0,0,0,-1,923,785,0,0
-294,239,0,0,0,0,0,0,0,0,0,-1,930,785,0,0
-287,239,0,0,0,0,0,0,0,0,0,-1,937,785,0,0
-280,239,0,0,0,0,0,0,0,0,0,-1,944,785,0,0
-273,239,0,0,0,0,0,0,0,0,0,-1,951,785,0,0
-266,239,0,0,0,0,0,0,0,0,0,-1,958,785,0,0
-259,239,0,0,0,0,0,0,0,0,0,-1,965,785,0,0
-252,239,0,0,0,0,0,0,0,0,0,-1,972,785,0,0
-245,239,0,0,0,0,0,0,0,0,0,-1,979,785,0,0
-238,239,0,0,0,0,0,0,0,0,0,-1,986,785,0,0
-231,239,0,0,0,0,0,0,0,0,0,-1,993,785,0,0
-224,239,0,0,0,0,0,0,0,0,0,-1,1000,785,0,0
-217,239,0,0,0,0,0,0,0,0,0,-1,1007,785,0,0
-210,239,0,0,0,0,0,0,0,0,0,-1,1014,785,0,0
-203,239,0,0,0,0,0,0,0,0,0,-1,1021,785,0,0
-196,239,0,0,0,0,0,0,0,0,0,-1,1028,785,0,0
-189,239,0,0,0,0,0,0,0,0,0,-1,1035,785,0,0
-182,239,0,0,0,0,0,0,0,0,0,-1,1042,785,0,0
-175,239,0,0,0,0,0,0,0,0,0,-1,1049,785,0,0
-168,239,0,0,0,0,0,0,0,0,0,-1,1056,785,0,0
-161,239,0,0,0,0,0,0,0,0,0,-1,1063,785,0,0
-154,239,0,0,0,0,0,0,0,0,0,-1,1070,785,0,0
-147,239,0,0,0,0,0,0,0,0,0,-1,1077,785,0,0
-140,239,0,0,0,0,0,0,0,0,0,-1,1084,785,0,0
-133,239,0,0,0,0,0,0,0,0,0,-1,1091,785,0,0
-126,239,0,0,0,0,0,0,0,0,0,-1,1098,785,0,0
-119,239,0,0,0,0,0,0,0,0,0,-1,1105,785,0,0
-112,239,0,0,0,0,0,0,0,0,0,-1,1112,785,0,0
-105,239,0,0,0,0,0,0,0,0,0,-1,1119,785,0,0
-98,239,0,0,0,0,0,0,0,0,0,-1,1126,785,0,0
-91,239,0,0,0,0,0,0,0,0,0,-1,1133,785,0,0
-84,239,0,0,0,0,0,0,0,0,0,-1,1140,785,0,0
-77,239,0,0,0,0,0,0,0,0,0,-1,1147,785,0,0
-70,239,0,0,0,0,0,0,0,0,0,-1,1154,785,0,0
-63,239,0,0,0,0,0,0,0,0,0,-1,1161,785,0,0
-56,239,0,0,0,0,0,0,0,0,0,-1,1168,785,0,0
-49,239,0,0,0,0,0,0,0,0,0,-1,1175,785,0,0
-42,239,0,0,0,0,0,0,0,0,0,-1,1182,785,0,0
-35,239,0,0,0,0,0,0,0,0,0,-1,1189,785,0,0
-28,239,0,0,0,0,0,0,0,0,0,-1,1196,785,0,0
-21,239,0,0,0,0,0,0,0,0,0,-1,1203,785,0,0
-14,239,0,0,0,0,0,0,0,0,0,-1,1210,785,0,0
-7,239,0,0,0,0,0,0,0,0,0,-1,1217,785,0,0
0,239,0,0,0,0,0,0,0,0,0,-1,1224,785,0,0
7,239,0,0,0,0,0,0,0,0,0,-1,1231,785,0,0
14,239,0,0,0,0,0,0,0,0,0,-1,1238,785,0,0
21,239,0,0,0,0,0,0,0,0,0,-1,1245,785,0,0
28,239,0,0,0,0,0,0,0,0,0,-1,1252,785,0,0
35,239,0,0,0,0,0,0,0,0,0,-1,1259,785,0,0
42,239,0,0,0,0,0,0,0,0,0,-1,1266,785,0,0
49,239,0,0,0,0,0,0,0,0,0,-1,1273,785,0,0
56,239,0,0,0,0,0,0,0,0,0,-1,1280,785,0,0
63,239,0,0,0,0,0,0,0,0,0,-1,1287,785,0,0
70,239,0,0,0,0,0,0,0,0,0,-1,1294,785,0,0
77,239,0,0,0,0,0,0,0,0,0,-1,1301,785,0,0
84,239,0,0,0,0,0,0,0,0,0,-1,1308,785,0,0
91,239,0,0,0,0,0,0,0,0,0,-1,1315,785,0,0
98,239,0,0,0,0,0,0,0,0,0,-1,1322,785,0,0
105,239,0,0,0,0,0,0,0,0,0,-1,1329,785,0,0
112,239,0,0,0,0,0,0,0,0,0,-1,1336,785,0,0
119,239,0,0,0,0,0,0,0,0,0,-1,1343,785,0,0
126,239,0,0,0,0,0,0,0,0,0,-1,1350,785,0,0
133,239,0,0,0,0,0,0,0,0,0,-1,1357,785,0,0
140,239,0,0,0,0,0,0,0,0,0,-1,1364,785,0,0
147,239,0,0,0,0,0,0,0,0,0,-1,1371,785,0,0
154,239,0,0,0,0,0,0,0,0,0,-1,1378,785,0,0
161,239,0,0,0,0,0,0,0,0,0,-1,1385,785,0,0
168,239,0,0,0,0,0,0,0,0,0,-1,1392,785,0,0
175,239,0,0,0,0,0,0,0,0,0,-1,1399,785,0,0
182,239,0,0,0,0,0,0,0,0,0,-1,1406,785,0,0
189,239,0,0,0,0,0,0,0,0,0,-1,1413,785,0,0
196,239,0,0,0,0,0,0,0,0,0,-1,1420,785,0,0
203,239,0,0,0,0,0,0,0,0,0,-1,1427,785,0,0
210,239,0,0,0,0,0,0,0,0,0,-1,1434,785,0,0
217,239,0,0,0,0,0,0,0,0,0,-1,1441,785,0,0
224,239,0,0,0,0,0,0,0,0,0,-1,1448,785,0,0
231,239,0,0,0,0,0,0,0,0,0,-1,1455,785,0,0
238,239,0,0,0,0,0,0,0,0,0,-1,1462,785,0,0
245,239,0,0,0,0,0,0,0,0,0,-1,1469,785,0,0
252,239,0,0,0,0,0,0,0,0,0,-1,1476,785,0,0
259,239,0,0,0,0,0,0,0,0,0,-1,1483,785,0,0
266,239,0,0,0,0,0,0,0,0,0,-1,1490,785,0,0
273,239,0,0,0,0,0,0,0,0,0,-1,1497,785,0,0
280,239,0,0,0,0,0,0,0,0,0,-1,1504,785,0,0
287,239,0,0,0,0,0,0,0,0,0,-1,1511,785,0,0
294,239,0,0,0,0,0,0,0,0,0,-1,1518,785,0,0
301,239,0,0,0,0,0,0,0,0,0,-1,1525,785,0,0
308,239,0,0,0,0,0,0,0,0,0,-1,1532,785,0,0
315,239,0,0,0,0,0,0,0,0,0,-1,1539,785,0,0
322,239,0,0,0,0,0,0,0,0,0,-1,1546,785,0,0
329,239,0,0,0,0,0,0,0,0,0,-1,1553,785,0,0
336,239,0,0,0,0,0,0,0,0,0,-1,1560,785,0,0
343,239,0,0,0,0,0,0,0,0,0,-1,1567,785,0,0
350,239,0,0,0,0,0,0,0,0,0,-1,1574,785,0,0
357,239,0,0,0,0,0,0,0,0,0,-1,1581,785,0,0
364,239,0,0,0,0,0,0,0,0,0,-1,1588,785,0,0
371,239,0,0,0,0,0,0,0,0,0,-1,1595,785,0,0
378,239,0,0,0,0,0,0,0,0,0,-1,1602,785,0,0
385,239,0,0,0,0,0,0,0,0,0,-1,1609,785,0,0
392,239,0,0,0,0,0,0,0,0,0,-1,1616,785,0,0
399,239,0,0,0,0,0,0,0,0,0,-1,1623,785,0,0
406,239,0,0,0,0,0,0,0,0,0,-1,1630,785,0,0
413,239,0,0,0,0,0,0,0,0,0,-1,1637,785,0,0
420,239,0,0,0,0,0,0,0,0,0,-1,1644,785,0,0
427,239,0,0,0,0,0,0,0,0,0,-1,1651,785,0,0
434,239,0,0,0,0,0,0,0,0,0,-1,1658,785,0,0
441,239,0,0,0,0,0,0,0,0,0,-1,1665,785,0,0
448,239,0,0,0,0,0,0,0,0,0,-1,1672,785,0,0
455,239,0,0,0,0,0,0,0,0,0,-1,1679,785,0,0
462,239,0,0,0,0,0,0,0,0,0,-1,1686,785,0,0
469,239,0,0,0,0,0,0,0,0,0,-1,1693,785,0,0
476,239,0,0,0,0,0,0,0,0,0,-1,1700,785,0,0
483,239,0,0,0,0,0,0,0,0,0,-1,1707,785,0,0
490,239,0,0,0,0,0,0,0,0,0,-1,1714,785,0,0
497,239,0,0,0,0,0,0,0,0,0,-1,1721,785,0,0
504,239,0,0,0,0,0,0,0,0,0,-1,1728,785,0,0
511,239,0,0,0,0,0,0,0,0,0,-1,1735,785,0,0
518,239,0,0,0,0,0,0,0,0,0,-1,1742,785,0,0
525,239,0,0,0,0,0,0,0,0,0,-1,1749,785,0,0
532,239,0,0,0,0,0,0,0,0,0,-1,1756,785,0,0
539,239,0,0,0,0,0,0,0,0,0,-1,1763,785,0,0
546,239,0,0,0,0,0,0,0,0,0,-1,1770,785,0,0
553,239,0,0,0,0,0,0,0,0,0,-1,1777,785,0,0
560,239,0,0,0,0,0,0,0,0,0,-1,1784,785,0,0
567,239,0,0,0,0,0,0,0,0,0,-1,1791,785,0,0
574,239,0,0,0,0,0,0,0,0,0,-1,1798,785,0,0
581,239,36.936,2.75922,-0.013342,0.00744869,0.0011043,0.00750718,-0.0134005,1.51788,0.0122299,0.0343815,1805,785,36.936,-2.75921
588,239,36.9075,2.63995,-0.00534196,0.00721639,0.000423999,0.00723069,-0.00535626,1.53709,0.00729389,0.0355933,1812,785,36.9074,-2.63993
595,239,37.0425,2.49628,0.000162513,0.00612319,-0.000115633,0.00612543,0.000160271,-1.55141,0.00403126,0.0333381,1819,785,37.0425,-2.4963
602,239,37.1434,2.5127,0.00349041,0.00476804,-0.000378583,0.00487179,0.00338666,-1.3033,0.00288326,0.0385285,1826,785,37.1434,-2.51271
609,239,37.2747,2.50018,0.00511856,0.00331274,-0.000406988,0.00520605,0.00322526,-0.21174,0.0030342,0.0489252,1833,785,37.2747,-2.50018
616,239,37.2404,2.50128,0.00536106,0.00206895,-0.000430347,0.00541639,0.00201362,-0.127859,0.00316125,0.0469959,1840,785,37.2404,-2.50131
623,239,37.3856,2.771,0.00497541,0.00107356,-0.000288107,0.00499657,0.0010524,-0.0733087,0.00304155,0.0401651,1847,785,37.3857,-2.77097
630,239,37.994,2.6217,0,0,0,0,0,0,0,-1,1854,785,37.994,-2.6217
637,239,36.66,3.21228,0,0,0,0,0,0,0,-1,1861,785,36.66,-3.21227
644,239,18.3466,0.735413,0,0,0,0,0,0,0,-1,1868,785,18.3465,-0.735414
651,239,25.9917,-0.677368,0,0,0,0,0,0,0,-1,1875,785,25.9917,0.677354
658,239,26.0789,-0.180298,0.00107439,-0.00135858,0.000167422,0.00108585,-0.00137005,0.0683841,0.00142108,0.0306657,1882,785,26.0788,0.180283
665,239,26.1473,0.256104,0.000323728,-0.00136519,6.26688e-07,0.000323729,-0.00136519,0.000371058,0.00103505,0.0158014,1889,785,26.1473,-0.256085
672,239,26.1117,0.700684,-8.26751e-05,-0.00114951,-0.000346433,1.99499e-05,-0.00125214,-0.287997,0.000841487,0.0220307,1896,785,26.1117,-0.700656
679,239,26.1061,1.13367,-9.04484e-05,-0.000855209,-0.000656933,0.000287287,-0.00123294,-0.521833,0.000932594,0.0234186,1903,785,26.1061,-1.13368
686,239,26.1301,1.57776,0.000498672,-0.000505401,-0.000601812,0.000780357,-0.000787085,-0.437771,0.000904966,0.0233046,1910,785,26.1301,-1.57779
693,239,26.1261,1.99524,0.00178832,-0.000165679,-0.000124189,0.00179619,-0.00017354,-0.0632171,0.0012593,0.0149252,1917,785,26.1261,-1.99522
700,239,26.109,2.40491,0.00319467,9.95239e-05,0.00044293,0.0032568,3.73858e-05,0.139379,0.00215885,0.0112652,1924,785,26.109,-2.40493
707,239,26.1008,2.83411,0.00480415,0.000345124,0.00109477,0.00505844,9.08384e-05,0.228225,0.00334243,0.0106279,1931,785,26.1008,-2.83409
714,239,26.0878,3.23743,0.00669725,0.000591744,0.00187971,0.00722955,5.94435e-05,0.275957,0.00480001,0.0100608,1938,785,26.0877,-3.2374
721,239,26.0394,3.64734,0.00865634,0.000559966,0.00267884,0.00946243,-0.000246121,0.292291,0.00639191,0.0245622,1945,785,26.0394,-3.64734
728,239,25.9645,4.09467,0.0108669,0.000353434,0.00366447,0.0120181,-0.000797766,0.304389,0.00829078,0.0422144,1952,785,25.9644,-4.09466
735,239,26.0879,4.6084,0,0,0,0,0,0,0,-1,1959,785,26.0879,-4.60842
742,239,25.3641,4.48022,0,0,0,0,0,0,0,-1,1966,785,25.3642,-4.48025
749,239,27.9839,5.09827,0,0,0,0,0,0,0,-1,1973,785,27.9839,-5.09824
756,239,30.8453,4.62732,0,0,0,0,0,0,0,-1,1980,785,30.8454,-4.6273
763,239,0,0,0,0,0,0,0,0,0,-1,1987,785,0,0
770,239,0,0,0,0,0,0,0,0,0,-1,1994,785,0,0
777,239,0,0,0,0,0,0,0,0,0,-1,2001,785,0,0
784,239,0,0,0,0,0,0,0,0,0,-1,2008,785,0,0
791,239,0,0,0,0,0,0,0,0,0,-1,2015,785,0,0
798,239,0,0,0,0,0,0,0,0,0,-1,2022,785,0,0
805,239,0,0,0,0,0,0,0,0,0,-1,2029,785,0,0
812,239,0,0,0,0,0,0,0,0,0,-1,2036,785,0,0
-700,232,0,0,0,0,0,0,0,0,0,-1,524,792,0,0
-693,232,0,0,0,0,0,0,0,0,0,-1,531,792,0,0
-686,232,0,0,0,0,0,0,0,0,0,-1,538,792,0,0
-679,232,0,0,0,0,0,0,0,0,0,-1,545,792,0,0
-672,232,0,0,0,0,0,0,0,0,0,-1,552,792,0,0
-665,232,0,0,0,0,0,0,0,0,0,-1,559,792,0,0
-658,232,0,0,0,0,0,0,0,0,0,-1,566,792,0,0
-651,232,0,0,0,0,0,0,0,0,0,-1,573,792,0,0
-644,232,-22.5826,0.269348,0,0,0,0,0,0,0,-1,580,792,-22.5826,-0.269357
-637,232,-22.0887,-0.86969,0,0,0,0,0,0,0,-1,587,792,-22.0887,0.869704
-630,232,-22.8522,1.33289,0,0,0,0,0,0,0,-1,594,792,-22.8523,-1.3329
-623,232,-24.0605,3.30249,0,0,0,0,0,0,0,-1,601,792,-24.0605,-3.30248
-616,232,-23.33,1.96783,0,0,0,0,0,0,0,-1,608,792,-23.33,-1.96785
-609,232,-24.4119,2.80933,0,0,0,0,0,0,0,-1,615,792,-24.4118,-2.80933
-602,232,-17.89,2.42316,0,0,0,0,0,0,0,-1,622,792,-17.89,-2.42314
-595,232,-17.8098,1.81018,0.00828435,0.00600321,-0.00524994,0.0125162,0.00177137,-0.678433,0.00782082,0.0372618,629,792,-17.8097,-1.81016
-588,232,-17.7885,1.18726,0.00612141,0.00478247,-0.00379245,0.00930303,0.00160086,-0.698035,0.00574326,0.0129639,636,792,-17.7885,-1.18724
-581,232,-17.8022,0.706421,0.00449287,0.00348771,-0.00261326,0.00665144,0.00132914,-0.690399,0.00406435,0.00833933,643,792,-17.8023,-0.706408
-574,232,-17.8105,0.31012,0.00306742,0.00223662,-0.00156687,0.00427302,0.00103102,-0.655822,0.00257476,0.00801915,650,792,-17.8105,-0.310109
-567,232,-17.8459,-0.0805054,0.00171643,0.00105289,-0.000561422,0.00203678,0.000732538,-0.518532,0.00119128,0.00957799,657,792,-17.8459,0.0805014
-560,232,-17.8482,-0.471802,0.000371264,0.000174492,0.000285141,0.000574516,-2.87597e-05,0.619272,0.000392948,0.0130997,664,792,-17.8482,0.471792
-553,232,-17.8721,-0.880798,-0.000801778,-9.9488e-05,0.000975677,0.000586308,-0.00148757,0.958131,0.00123447,0.0138377,671,792,-17.8721,0.880822
-546,232,-17.9311,-1.29218,-0.0020103,0.000558669,0.00168423,0.00139233,-0.00284396,1.11117,0.00249323,0.0211441,678,792,-17.9311,1.2922
-539,232,-17.9224,-1.7027,-0.00322456,0.0015355,0.00222914,0.00241639,-0.00410545,1.19446,0.00380725,0.028067,685,792,-17.9223,1.70268
-532,232,-17.9268,-2.09534,-0.00452004,0.00283693,0.00245915,0.00358322,-0.00526633,1.27615,0.00514,0.0238248,692,792,-17.9268,2.09533
-525,232,-18.0817,-2.41046,-0.00545068,0.00380075,0.00243426,0.00440216,-0.00605209,1.32859,0.00606077,0.043053,699,792,-18.0817,2.41048
-518,232,-18.4333,-2.68341,0,0,0,0,0,0,0,-1,706,792,-18.4333,2.6834
-511,232,-18.646,-2.57092,0,0,0,0,0,0,0,-1,713,792,-18.646,2.57091
-504,232,-26.8348,1.55463,0,0,0,0,0,0,0,-1,720,792,-26.8349,-1.55462
-497,232,-26.8674,1.14185,-0.00712039,0.0070559,0.00195194,0.00731976,-0.00738424,1.43644,0.00848938,0.0472775,727,792,-26.8674,-1.14187
-490,232,-26.9531,1.02216,-0.0065956,0.00709562,0.00160487,0.00728122,-0.0067812,1.45566,0.00812066,0.0423844,734,792,-26.9531,-1.02213
-483,232,-27.0844,0.978516,-0.00497896,0.00620079,0.00110306,0.00630859,-0.00508675,1.47338,0.0065917,0.0402119,741,792,-27.0844,-0.978513
-476,232,-27.1651,0.777222,-0.00156533,0.00379276,0.000454372,0.00383102,-0.00160358,1.48679,0.00322432,0.0358991,748,792,-27.1651,-0.777249
-469,232,-27.1733,0.763184,0.004261,-0.00087269,-0.000275094,0.0042757,-0.000887389,-0.0533822,0.0031877,0.0348044,755,792,-27.1733,-0.763178
-462,232,0,0,0,0,0,0,0,0,0,-1,762,792,0,0
-455,232,0,0,0,0,0,0,0,0,0,-1,769,792,0,0
-448,232,0,0,0,0,0,0,0,0,0,-1,776,792,0,0
-441,232,0,0,0,0,0,0,0,0,0,-1,783,792,0,0
-434,232,0,0,0,0,0,0,0,0,0,-1,790,792,0,0
-427,232,0,0,0,0,0,0,0,0,0,-1,797,792,0,0
-420,232,0,0,0,0,0,0,0,0,0,-1,804,792,0,0
-413,232,0,0,0,0,0,0,0,0,0,-1,811,792,0,0
-406,232,0,0,0,0,0,0,0,0,0,-1,818,792,0,0
-399,232,0,0,0,0,0,0,0,0,0,-1,825,792,0,0
-392,232,0,0,0,0,0,0,0,0,0,-1,832,792,0,0
-385,232,0,0,0,0,0,0,0,0,0,-1,839,792,0,0
-378,232,0,0,0,0,0,0,0,0,0,-1,846,792,0,0
-371,232,0,0,0,0,0,0,0,0,0,-1,853,792,0,0
-364,232,0,0,0,0,0,0,0,0,0,-1,860,792,0,0
-357,232,0,0,0,0,0,0,0,0,0,-1,867,792,0,0
-350,232,0,0,0,0,0,0,0,0,0,-1,874,792,0,0
-343,232,0,0,0,0,0,0,0,0,0,-1,881,792,0,0
-336,232,0,0,0,0,0,0,0,0,0,-1,888,792,0,0
-329,232,0,0,0,0,0,0,0,0,0,-1,895,792,0,0
-322,232,0,0,0,0,0,0,0,0,0,-1,902,792,0,0
-315,232,0,0,0,0,0,0,0,0,0,-1,909,792,0,0
-308,232,0,0,0,0,0,0,0,0,0,-1,916,792,0,0
-301,232,0,0,0,0,0,0,0,0,0,-1,923,792,0,0
-294,232,0,0,0,0,0,0,0,0,0,-1,930,792,0,0
-287,232,0,0,0,0,0,0,0,0,0,-1,937,792,0,0
-280,232,0,0,0,0,0,0,0,0,0,-1,944,792,0,0
-273,232,0,0,0,0,0,0,0,0,0,-1,951,792,0,0
-266,232,0,0,0,0,0,0,0,0,0,-1,958,792,0,0
-259,232,0,0,0,0,0,0,0,0,0,-1,965,792,0,0
-252,232,0,0,0,0,0,0,0,0,0,-1,972,792,0,0
-245,232,0,0,0,0,0,0,0,0,0,-1,979,792,0,0
-238,232,0,0,0,0,0,0,0,0,0,-1,986,792,0,0
-231,232,0,0,0,0,0,0,0,0,0,-1,993,792,0,0
-224,232,0,0,0,0,0,0,0,0,0,-1,1000,792,0,0
-217,232,0,0,0,0,0,0,0,0,0,-1,1007,792,0,0
-210,232,0,0,0,0,0,0,0,0,0,-1,1014,792,0,0
-203,232,0,0,0,0,0,0,0,0,0,-1,1021,792,0,0
-196,232,0,0,0,0,0,0,0,0,0,-1,1028,792,0,0
-189,232,0,0,0,0,0,0,0,0,0,-1,1035,792,0,0
-182,232,0,0,0,0,0,0,0,0,0,-1,1042,792,0,0
-175,232,0,0,0,0,0,0,0,0,0,-1,1049,792,0,0
-168,232,0,0,0,0,0,0,0,0,0,-1,1056,792,0,0
-161,232,0,0,0,0,0,0,0,0,0,-1,1063,792,0,0
-154,232,0,0,0,0,0,0,0,0,0,-1,1070,792,0,0
-147,232,0,0,0,0,0,0,0,0,0,-1,1077,792,0,0
-140,232,0,0,0,0,0,0,0,0,0,-1,1084,792,0,0
-133,232,0,0,0,0,0,0,0,0,0,-1,1091,792,0,0
-126,232,0,0,0,0,0,0,0,0,0,-1,1098,792,0,0
-119,232,0,0,0,0,0,0,0,0,0,-1,1105,792,0,0
-112,232,0,0,0,0,0,0,0,0,0,-1,1112,792,0,0
-105,232,0,0,0,0,0,0,0,0,0,-1,1119,792,0,0
-98,232,0,0,0,0,0,0,0,0,0,-1,1126,792,0,0
-91,232,0,0,0,0,0,0,0,0,0,-1,1133,792,0,0
-84,232,0,0,0,0,0,0,0,0,0,-1,1140,792,0,0
-77,232,0,0,0,0,0,0,0,0,0,-1,1147,792,0,0
-70,232,0,0,0,0,0,0,0,0,0,-1,1154,792,0,0
-63,232,0,0,0,0,0,0,0,0,0,-1,1161,792,0,0
-56,232,0,0,0,0,0,0,0,0,0,-1,1168,792,0,0
-49,232,0,0,0,0,0,0,0,0,0,-1,1175,792,0,0
-42,232,0,0,0,0,0,0,0,0,0,-1,1182,792,0,0
-35,232,0,0,0,0,0,0,0,0,0,-1,1189,792,0,0
-28,232,0,0,0,0,0,0,0,0,0,-1,1196,792,0,0
-21,232,0,0,0,0,0,0,0,0,0,-1,1203,792,0,0
-14,232,0,0,0,0,0,0,0,0,0,-1,1210,792,0,0
-7,232,0,0,0,0,0,0,0,0,0,-1,1217,792,0,0
0,232,0,0,0,0,0,0,0,0,0,-1,1224,792,0,0
7,232,0,0,0,0,0,0,0,0,0,-1,1231,792,0,0
14,232,0,0,0,0,0,0,0,0,0,-1,1238,792,0,0
21,232,0,0,0,0,0,0,0,0,0,-1,1245,792,0,0
28,232,0,0,0,0,0,0,0,0,0,-1,1252,792,0,0
35,232,0,0,0,0,0,0,0,0,0,-1,1259,792,0,0
42,232,0,0,0,0,0,0,0,0,0,-1,1266,792,0,0
49,232,0,0,0,0,0,0,0,0,0,-1,1273,792,0,0
56,232,0,0,0,0,0,0,0,0,0,-1,1280,792,0,0
63,232,0,0,0,0,0,0,0,0,0,-1,1287,792,0,0
70,232,0,0,0,0,0,0,0,0,0,-1,1294,792,0,0
77,232,0,0,0,0,0,0,0,0,0,-1,1301,792,0,0
84,232,0,0,0,0,0,0,0,0,0,-1,1308,792,0,0
91,232,0,0,0,0,0,0,0,0,0,-1,1315,792,0,0
98,232,0,0,0,0,0,0,0,0,0,-1,1322,792,0,0
105,232,0,0,0,0,0,0,0,0,0,-1,1329,792,0,0
112,232,0,0,0,0,0,0,0,0,0,-1,1336,792,0,0
119,232,0,0,0,0,0,0,0,0,0,-1,1343,792,0,0
126,232,0,0,0,0,0,0,0,0,0,-1,1350,792,0,0
133,232,0,0,0,0,0,0,0,0,0,-1,1357,792,0,0
140,232,0,0,0,0,0,0,0,0,0,-1,1364,792,0,0
147,232,0,0,0,0,0,0,0,0,0,-1,1371,792,0,0
154,232,0,0,0,0,0,0,0,0,0,-1,1378,792,0,0
161,232,0,0,0,0,0,0,0,0,0,-1,1385,792,0,0
168,232,0,0,0,0,0,0,0,0,0,-1,1392,792,0,0
175,232,0,0,0,0,0,0,0,0,0,-1,1399,792,0,0
182,232,0,0,0,0,0,0,0,0,0,-1,1406,792,0,0
189,232,0,0,0,0,0,0,0,0,0,-1,1413,792,0,0
196,232,0,0,0,0,0,0,0,0,0,-1,1420,792,0,0
203,232,0,0,0,0,0,0,0,0,0,-1,1427,792,0,0
210,232,0,0,0,0,0,0,0,0,0,-1,1434,792,0,0
217,232,0,0,0,0,0,0,0,0,0,-1,1441,792,0,0
224,232,0,0,0,0,0,0,0,0,0,-1,1448,792,0,0
231,232,0,0,0,0,0,0,0,0,0,-1,1455,792,0,0
238,232,0,0,0,0,0,0,0,0,0,-1,1462,792,0,0
245,232,0,0,0,0,0,0,0,0,0,-1,1469,792,0,0
252,232,0,0,0,0,0,0,0,0,0,-1,1476,792,0,0
259,232,0,0,0,0,0,0,0,0,0,-1,1483,792,0,0
266,232,0,0,0,0,0,0,0,0,0,-1,1490,792,0,0
273,232,0,0,0,0,0,0,0,0,0,-1,1497,792,0,0
280,232,0,0,0,0,0,0,0,0,0,-1,1504,792,0,0
287,232,0,0,0,0,0,0,0,0,0,-1,1511,792,0,0
294,232,0,0,0,0,0,0,0,0,0,-1,1518,792,0,0
301,232,0,0,0,0,0,0,0,0,0,-1,1525,792,0,0
308,232,0,0,0,0,0,0,0,0,0,-1,1532,792,0,0
315,232,0,0,0,0,0,0,0,0,0,-1,1539,792,0,0
322,232,0,0,0,0,0,0,0,0,0,-1,1546,792,0,0
329,232,0,0,0,0,0,0,0,0,0,-1,1553,792,0,0
336,232,0,0,0,0,0,0,0,0,0,-1,1560,792,0,0
343,232,0,0,0,0,0,0,0,0,0,-1,1567,792,0,0
350,232,0,0,0,0,0,0,0,0,0,-1,1574,792,0,0
357,232,0,0,0,0,0,0,0,0,0,-1,1581,792,0,0
364,232,0,0,0,0,0,0,0,0,0,-1,1588,792,0,0
371,232,0,0,0,0,0,0,0,0,0,-1,1595,792,0,0
378,232,0,0,0,0,0,0,0,0,0,-1,1602,792,0,0
385,232,0,0,0,0,0,0,0,0,0,-1,1609,792,0,0
392,232,0,0,0,0,0,0,0,0,0,-1,1616,792,0,0
399,232,0,0,0,0,0,0,0,0,0,-1,1623,792,0,0
406,232,0,0,0,0,0,0,0,0,0,-1,1630,792,0,0
413,232,0,0,0,0,0,0,0,0,0,-1,1637,792,0,0
420,232,0,0,0,0,0,0,0,0,0,-1,1644,792,0,0
427,232,0,0,0,0,0,0,0,0,0,-1,1651,792,0,0
434,232,0,0,0,0,0,0,0,0,0,-1,1658,792,0,0
441,232,0,0,0,0,0,0,0,0,0,-1,1665,792,0,0
448,232,0,0,0,0,0,0,0,0,0,-1,1672,792,0,0
455,232,0,0,0,0,0,0,0,0,0,-1,1679,792,0,0
462,232,0,0,0,0,0,0,0,0,0,-1,1686,792,0,0
469,232,0,0,0,0,0,0,0,0,0,-1,1693,792,0,0
476,232,0,0,0,0,0,0,0,0,0,-1,1700,792,0,0
483,232,0,0,0,0,0,0,0,0,0,-1,1707,792,0,0
490,232,0,0,0,0,0,0,0,0,0,-1,1714,792,0,0
497,232,0,0,0,0,0,0,0,0,0,-1,1721,792,0,0
504,232,0,0,0,0,0,0,0,0,0,-1,1728,792,0,0
511,232,0,0,0,0,0,0,0,0,0,-1,1735,792,0,0
518,232,0,0,0,0,0,0,0,0,0,-1,1742,792,0,0
525,232,0,0,0,0,0,0,0,0,0,-1,1749,792,0,0
532,232,0,0,0,0,0,0,0,0,0,-1,1756,792,0,0
539,232,0,0,0,0,0,0,0,0,0,-1,1763,792,0,0
546,232,0,0,0,0,0,0,0,0,0,-1,1770,792,0,0
553,232,0,0,0,0,0,0,0,0,0,-1,1777,792,0,0
560,232,0,0,0,0,0,0,0,0,0,-1,1784,792,0,0
567,232,0,0,0,0,0,0,0,0,0,-1,1791,792,0,0
574,232,0,0,0,0,0,0,0,0,0,-1,1798,792,0,0
581,232,0,0,0,0,0,0,0,0,0,-1,1805,792,0,0
588,232,36.9175,2.64038,-0.00709249,0.006413,-0.00121153,0.00652082,-0.00720031,-1.48203,0.00792514,0.0365741,1812,792,36.9174,-2.64038
595,232,36.9982,2.44263,-0.00105821,0.00555929,-0.000885216,0.00567566,-0.00117458,-1.44009,0.00423001,0.0352119,1819,792,36.9982,-2.44264
602,232,37.0417,2.39905,0.00273295,0.00449599,-0.000529279,0.00464268,0.00258626,-1.30043,0.00268627,0.0357083,1826,792,37.0418,-2.39907
609,232,37.069,2.50311,0.00468011,0.00327333,-0.000141089,0.00469412,0.00325931,-0.0989784,0.00277755,0.0408054,1833,792,37.069,-2.50313
616,232,37.1356,2.60278,0.00502072,0.00209993,7.58031e-05,0.00502269,0.00209797,0.0259297,0.00291292,0.0427512,1840,792,37.1356,-2.6028
623,232,37.3136,2.75476,0.0045722,0.00115698,0.00022937,0.00458754,0.00114164,0.0667616,0.00275774,0.0435045,1847,792,37.3136,-2.75479
630,232,37.6471,2.62408,0.00407558,0.000438644,0.000277973,0.0040967,0.000417521,0.0758434,0.00260314,0.048379,1854,792,37.6471,-2.62411
637,232,37.9332,2.51477,0,0,0,0,0,0,0,-1,1861,792,37.9332,-2.51478
644,232,29.3163,4.33893,0,0,0,0,0,0,0,-1,1868,792,29.3163,-4.33891
651,232,26.7065,-0.202637,0,0,0,0,0,0,0,-1,1875,792,26.7065,0.202622
658,232,26.6543,0.00909424,0.000799363,-0.00092773,0.000239991,0.000832091,-0.000960458,0.135536,0.00103581,0.0373223,1882,792,26.6544,-0.0091138
665,232,26.5942,0.303711,0.000138632,-0.000983144,1.81675e-05,0.000138927,-0.000983438,0.0161896,0.000706502,0.0151013,1889,792,26.5943,-0.303696
672,232,26.5131,0.731812,-0.000306332,-0.000890345,-0.000377017,-0.000121464,-0.00107521,-0.455894,0.000679947,0.0199952,1896,792,26.5131,-0.731803
679,232,26.5403,1.16162,-0.000469873,-0.000756455,-0.000777326,0.000177258,-0.00140359,-0.694252,0.00100006,0.0205121,1903,792,26.5402,-1.16163
686,232,26.5682,1.58911,-9.18224e-05,-0.000558663,-0.000887433,0.000592375,-0.00124286,-0.656797,0.00108153,0.0191798,1910,792,26.5683,-1.58909
693,232,26.5508,1.99475,0.00104044,-0.00031626,-0.00048575,0.00119643,-0.000472243,-0.310716,0.000993189,0.0107266,1917,792,26.5508,-1.99474
700,232,26.5458,2.41144,0.00224915,-0.000107651,2.27075e-05,0.00224937,-0.00010787,0.00963367,0.0015368,0.0123156,1924,792,26.5458,-2.41144
707,232,26.5391,2.83496,0.00358972,0.000177876,0.000566996,0.00368148,8.61173e-05,0.160441,0.00242612,0.0124716,1931,792,26.539,-2.83493
714,232,26.5304,3.2243,0.0051829,0.000558326,0.00125783,0.00550287,0.000238349,0.249104,0.00359177,0.0134536,1938,792,26.5304,-3.2243
721,232,26.5035,3.66083,0.00677835,0.000697406,0.00190901,0.00732797,0.000147783,0.280329,0.00483681,0.0232307,1945,792,26.5036,-3.6608
728,232,26.4451,4.06714,0.00848148,0.000735314,0.00263523,0.00929297,-7.61729e-05,0.298723,0.00622086,0.0424203,1952,792,26.445,-4.06713
735,232,26.5836,4.66205,0,0,0,0,0,0,0,-1,1959,792,26.5836,-4.66202
742,232,25.6461,6.00684,0,0,0,0,0,0,0,-1,1966,792,25.6461,-6.00684
749,232,28.5897,5.03833,0,0,0,0,0,0,0,-1,1973,792,28.5897,-5.03833
756,232,30.4692,4.84735,0,0,0,0,0,0,0,-1,1980,792,30.4693,-4.84735
763,232,30.5881,4.27301,0,0,0,0,0,0,0,-1,1987,792,30.5882,-4.27301
770,232,0,0,0,0,0,0,0,0,0,-1,1994,792,0,0
777,232,0,0,0,0,0,0,0,0,0,-1,2001,792,0,0
784,232,0,0,0,0,0,0,0,0,0,-1,2008,792,0,0
791,232,0,0,0,0,0,0,0,0,0,-1,2015,792,0,0
798,232,0,0,0,0,0,0,0,0,0,-1,2022,792,0,0
805,232,0,0,0,0,0,0,0,0,0,-1,2029,792,0,0
812,232,0,0,0,0,0,0,0,0,0,-1,2036,792,0,0
-700,225,0,0,0,0,0,0,0,0,0,-1,524,799,0,0
-693,225,0,0,0,0,0,0,0,0,0,-1,531,799,0,0
-686,225,0,0,0,0,0,0,0,0,0,-1,538,799,0,0
-679,225,0,0,0,0,0,0,0,0,0,-1,545,799,0,0
-672,225,0,0,0,0,0,0,0,0,0,-1,552,799,0,0
-665,225,0,0,0,0,0,0,0,0,0,-1,559,799,0,0
-658,225,0,0,0,0,0,0,0,0,0,-1,566,799,0,0
-651,225,0,0,0,0,0,0,0,0,0,-1,573,799,0,0
-644,225,-22.4099,-0.204834,0,0,0,0,0,0,0,-1,580,799,-22.4099,0.20484
-637,225,-21.7047,-0.424072,0,0,0,0,0,0,0,-1,587,799,-21.7047,0.424052
-630,225,-22.612,4.17181,0,0,0,0,0,0,0,-1,594,799,-22.612,-4.17184
-623,225,-22.8936,3.12628,0,0,0,0,0,0,0,-1,601,799,-22.8936,-3.12629
-616,225,-22.8559,1.79041,0,0,0,0,0,0,0,-1,608,799,-22.8559,-1.79038
-609,225,-18.3904,2.40094,0,0,0,0,0,0,0,-1,615,799,-18.3904,-2.40095
-602,225,-18.3923,1.77057,0.00875482,0.00565136,-0.00527209,0.0126988,0.00170738,-0.642275,0.00795803,0.049544,622,799,-18.3923,-1.77054
-595,225,-18.2772,1.6344,0.0065155,0.00466216,-0.00387968,0.00957764,0.00160001,-0.668169,0.00592422,0.0300481,629,799,-18.2772,-1.63439
-588,225,-18.2297,1.09863,0.00459079,0.00366851,-0.00269882,0.00686758,0.00139172,-0.700782,0.00419221,0.0124999,636,799,-18.2297,-1.09864
-581,225,-18.2231,0.702881,0.00321679,0.00254456,-0.00172476,0.00463788,0.00112347,-0.689167,0.00279377,0.0104733,643,799,-18.2232,-0.702902
-574,225,-18.2261,0.312805,0.00208461,0.00149933,-0.000878899,0.00271831,0.000865632,-0.624692,0.00160353,0.00828544,650,799,-18.2261,-0.312777
-567,225,-18.2345,-0.0953369,0.000995569,0.000513104,-5.11451e-05,0.00100093,0.000507742,-0.104461,0.000577908,0.0106744,657,799,-18.2345,0.0953181
-560,225,-18.2659,-0.492981,-0.000183732,-0.000108576,0.000623941,0.000478918,-0.000771225,0.815476,0.000728317,0.0117036,664,799,-18.2659,0.492992
-553,225,-18.2891,-0.881165,-0.00121005,-3.61135e-05,0.00118135,0.000696053,-0.00194222,1.01597,0.00157883,0.011111,671,799,-18.2891,0.881156
-546,225,-18.3167,-1.28143,-0.00223509,0.00084438,0.00176638,0.00164791,-0.00303862,1.14387,0.00274519,0.0194113,678,799,-18.3166,1.28141
-539,225,-18.2628,-1.70099,-0.0031853,0.00188603,0.00222894,0.00272642,-0.0040257,1.21024,0.00392232,0.0338666,685,799,-18.2627,1.70101
-532,225,-18.3408,-2.0332,-0.00426421,0.00317828,0.00244469,0.00390947,-0.0049954,1.28017,0.00515395,0.0315337,692,799,-18.3408,2.03317
-525,225,-18.677,-2.21289,0,0,0,0,0,0,0,-1,699,799,-18.677,2.21287
-518,225,-21.963,0.171326,0,0,0,0,0,0,0,-1,706,799,-21.9629,-0.171319
-511,225,-19.1948,-2.38464,0,0,0,0,0,0,0,-1,713,799,-19.1948,2.38467
-504,225,-27.1384,1.06934,0,0,0,0,0,0,0,-1,720,799,-27.1384,-1.06935
-497,225,-27.1353,0.928406,-0.00705533,0.00799741,0.00147936,0.00814143,-0.00719934,1.47376,0.00886256,0.0463214,727,799,-27.1353,-0.928412
-490,225,-27.1509,0.769653,-0.00676956,0.0082013,0.000767047,0.0082405,-0.00680876,1.51974,0.00870179,0.037275,734,799,-27.1509,-0.769672
-483,225,-27.1357,0.800415,-0.00533873,0.00731361,-0.000310891,0.00732125,-0.00534636,-1.54624,0.00734321,0.0314475,741,799,-27.1357,-0.800408
-476,225,-27.0709,0.774475,-0.00193867,0.00449544,-0.00172977,0.00493099,-0.00237422,-1.32413,0.00430291,0.0311666,748,799,-27.0709,-0.774503
-469,225,-27.0439,0.74231,0.00431572,-0.00129999,-0.00327564,0.00582224,-0.00280652,-0.431071,0.00508222,0.0356098,755,799,-27.0439,-0.74229
-462,225,0,0,0,0,0,0,0,0,0,-1,762,799,0,0
-455,225,0,0,0,0,0,0,0,0,0,-1,769,799,0,0
-448,225,0,0,0,0,0,0,0,0,0,-1,776,799,0,0
-441,225,0,0,0,0,0,0,0,0,0,-1,783,799,0,0
-434,225,0,0,0,0,0,0,0,0,0,-1,790,799,0,0
-427,225,0,0,0,0,0,0,0,0,0,-1,797,799,0,0
-420,225,0,0,0,0,0,0,0,0,0,-1,804,799,0,0
-413,225,0,0,0,0,0,0,0,0,0,-1,811,799,0,0
-406,225,0,0,0,0,0,0,0,0,0,-1,818,799,0,0
-399,225,0,0,0,0,0,0,0,0,0,-1,825,799,0,0
-392,225,0,0,0,0,0,0,0,0,0,-1,832,799,0,0
-385,225,0,0,0,0,0,0,0,0,0,-1,839,799,0,0
-378,225,0,0,0,0,0,0,0,0,0,-1,846,799,0,0
-371,225,0,0,0,0,0,0,0,0,0,-1,853,799,0,0
-364,225,0,0,0,0,0,0,0,0,0,-1,860,799,0,0
-357,225,0,0,0,0,0,0,0,0,0,-1,867,799,0,0
-350,225,0,0,0,0,0,0,0,0,0,-1,874,799,0,0
-343,225,0,0,0,0,0,0,0,0,0,-1,881,799,0,0
-336,225,0,0,0,0,0,0,0,0,0,-1,888,799,0,0
-329,225,0,0,0,0,0,0,0,0,0,-1,895,799,0,0
-322,225,0,0,0,0,0,0,0,0,0,-1,902,799,0,0
-315,225,0,0,0,0,0,0,0,0,0,-1,909,799,0,0
-308,225,0,0,0,0,0,0,0,0,0,-1,916,799,0,0
-301,225,0,0,0,0,0,0,0,0,0,-1,923,799,0,0
-294,225,0,0,0,0,0,0,0,0,0,-1,930,799,0,0
-287,225,0,0,0,0,0,0,0,0,0,-1,937,799,0,0
-280,225,0,0,0,0,0,0,0,0,0,-1,944,799,0,0
-273,225,0,0,0,0,0,0,0,0,0,-1,951,799,0,0
-266,225,0,0,0,0,0,0,0,0,0,-1,958,799,0,0
-259,225,0,0,0,0,0,0,0,0,0,-1,965,799,0,0
-252,225,0,0,0,0,0,0,0,0,0,-1,972,799,0,0
-245,225,0,0,0,0,0,0,0,0,0,-1,979,799,0,0
-238,225,0,0,0,0,0,0,0,0,0,-1,986,799,0,0
-231,225,0,0,0,0,0,0,0,0,0,-1,993,799,0,0
-224,225,0,0,0,0,0,0,0,0,0,-1,1000,799,0,0
-217,225,0,0,0,0,0,0,0,0,0,-1,1007,799,0,0
-210,225,0,0,0,0,0,0,0,0,0,-1,1014,799,0,0
-203,225,0,0,0,0,0,0,0,0,0,-1,1021,799,0,0
-196,225,0,0,0,0,0,0,0,0,0,-1,1028,799,0,0
-189,225,0,0,0,0,0,0,0,0,0,-1,1035,799,0,0
-182,225,0,0,0,0,0,0,0,0,0,-1,1042,799,0,0
-175,225,0,0,0,0,0,0,0,0,0,-1,1049,799,0,0
-168,225,0,0,0,0,0,0,0,0,0,-1,1056,799,0,0
-161,225,0,0,0,0,0,0,0,0,0,-1,1063,799,0,0
-154,225,0,0,0,0,0,0,0,0,0,-1,1070,799,0,0
-147,225,0,0,0,0,0,0,0,0,0,-1,1077,799,0,0
-140,225,0,0,0,0,0,0,0,0,0,-1,1084,799,0,0
-133,225,0,0,0,0,0,0,0,0,0,-1,1091,799,0,0
-126,225,0,0,0,0,0,0,0,0,0,-1,1098,799,0,0
-119,225,0,0,0,0,0,0,0,0,0,-1,1105,799,0,0
-112,225,0,0,0,0,0,0,0,0,0,-1,1112,799,0,0
-105,225,0,0,0,0,0,0,0,0,0,-1,1119,799,0,0
-98,225,0,0,0,0,0,0,0,0,0,-1,1126,799,0,0
-91,225,0,0,0,0,0,0,0,0,0,-1,1133,799,0,0
-84,225,0,0,0,0,0,0,0,0,0,-1,1140,799,0,0
-77,225,0,0,0,0,0,0,0,0,0,-1,1147,799,0,0
-70,225,0,0,0,0,0,0,0,0,0,-1,1154,799,0,0
-63,225,0,0,0,0,0,0,0,0,0,-1,1161,799,0,0
-56,225,0,0,0,0,0,0,0,0,0,-1,1168,799,0,0
-49,225,0,0,0,0,0,0,0,0,0,-1,1175,799,0,0
-42,225,0,0,0,0,0,0,0,0,0,-1,1182,799,0,0
-35,225,0,0,0,0,0,0,0,0,0,-1,1189,799,0,0
-28,225,0,0,0,0,0,0,0,0,0,-1,1196,799,0,0
-21,225,0,0,0,0,0,0,0,0,0,-1,1203,799,0,0
-14,225,0,0,0,0,0,0,0,0,0,-1,1210,799,0,0
-7,225,0,0,0,0,0,0,0,0,0,-1,1217,799,0,0
0,225,0,0,0,0,0,0,0,0,0,-1,1224,799,0,0
7,225,0,0,0,0,0,0,0,0,0,-1,1231,799,0,0
14,225,0,0,0,0,0,0,0,0,0,-1,1238,799,0,0
21,225,0,0,0,0,0,0,0,0,0,-1,1245,799,0,0
28,225,0,0,0,0,0,0,0,0,0,-1,1252,799,0,0
35,225,0,0,0,0,0,0,0,0,0,-1,1259,799,0,0
42,225,0,0,0,0,0,0,0,0,0,-1,1266,799,0,0
49,225,0,0,0,0,0,0,0,0,0,-1,1273,799,0,0
56,225,0,0,0,0,0,0,0,0,0,-1,1280,799,0,0
63,225,0,0,0,0,0,0,0,0,0,-1,1287,799,0,0
70,225,0,0,0,0,0,0,0,0,0,-1,1294,799,0,0
77,225,0,0,0,0,0,0,0,0,0,-1,1301,799,0,0
84,225,0,0,0,0,0,0,0,0,0,-1,1308,799,0,0
91,225,0,0,0,0,0,0,0,0,0,-1,1315,799,0,0
98,225,0,0,0,0,0,0,0,0,0,-1,1322,799,0,0
105,225,0,0,0,0,0,0,0,0,0,-1,1329,799,0,0
112,225,0,0,0,0,0,0,0,0,0,-1,1336,799,0,0
119,225,0,0,0,0,0,0,0,0,0,-1,1343,799,0,0
126,225,0,0,0,0,0,0,0,0,0,-1,1350,799,0,0
133,225,0,0,0,0,0,0,0,0,0,-1,1357,799,0,0
140,225,0,0,0,0,0,0,0,0,0,-1,1364,799,0,0
147,225,0,0,0,0,0,0,0,0,0,-1,1371,799,0,0
154,225,0,0,0,0,0,0,0,0,0,-1,1378,799,0,0
161,225,0,0,0,0,0,0,0,0,0,-1,1385,799,0,0
168,225,0,0,0,0,0,0,0,0,0,-1,1392,799,0,0
175,225,0,0,0,0,0,0,0,0,0,-1,1399,799,0,0
182,225,0,0,0,0,0,0,0,0,0,-1,1406,799,0,0
189,225,0,0,0,0,0,0,0,0,0,-1,1413,799,0,0
196,225,0,0,0,0,0,0,0,0,0,-1,1420,799,0,0
203,225,0,0,0,0,0,0,0,0,0,-1,1427,799,0,0
210,225,0,0,0,0,0,0,0,0,0,-1,1434,799,0,0
217,225,0,0,0,0,0,0,0,0,0,-1,1441,799,0,0
224,225,0,0,0,0,0,0,0,0,0,-1,1448,799,0,0
231,225,0,0,0,0,0,0,0,0,0,-1,1455,799,0,0
238,225,0,0,0,0,0,0,0,0,0,-1,1462,799,0,0
245,225,0,0,0,0,0,0,0,0,0,-1,1469,799,0,0
252,225,0,0,0,0,0,0,0,0,0,-1,1476,799,0,0
259,225,0,0,0,0,0,0,0,0,0,-1,1483,799,0,0
266,225,0,0,0,0,0,0,0,0,0,-1,1490,799,0,0
273,225,0,0,0,0,0,0,0,0,0,-1,1497,799,0,0
280,225,0,0,0,0,0,0,0,0,0,-1,1504,799,0,0
287,225,0,0,0,0,0,0,0,0,0,-1,1511,799,0,0
294,225,0,0,0,0,0,0,0,0,0,-1,1518,799,0,0
301,225,0,0,0,0,0,0,0,0,0,-1,1525,799,0,0
308,225,0,0,0,0,0,0,0,0,0,-1,1532,799,0,0
315,225,0,0,0,0,0,0,0,0,0,-1,1539,799,0,0
322,225,0,0,0,0,0,0,0,0,0,-1,1546,799,0,0
329,225,0,0,0,0,0,0,0,0,0,-1,1553,799,0,0
336,225,0,0,0,0,0,0,0,0,0,-1,1560,799,0,0
343,225,0,0,0,0,0,0,0,0,0,-1,1567,799,0,0
350,225,0,0,0,0,0,0,0,0,0,-1,1574,799,0,0
357,225,0,0,0,0,0,0,0,0,0,-1,1581,799,0,0
364,225,0,0,0,0,0,0,0,0,0,-1,1588,799,0,0
371,225,0,0,0,0,0,0,0,0,0,-1,1595,799,0,0
378,225,0,0,0,0,0,0,0,0,0,-1,1602,799,0,0
385,225,0,0,0,0,0,0,0,0,0,-1,1609,799,0,0
392,225,0,0,0,0,0,0,0,0,0,-1,1616,799,0,0
399,225,0,0,0,0,0,0,0,0,0,-1,1623,799,0,0
406,225,0,0,0,0,0,0,0,0,0,-1,1630,799,0,0
413,225,0,0,0,0,0,0,0,0,0,-1,1637,799,0,0
420,225,0,0,0,0,0,0,0,0,0,-1,1644,799,0,0
427,225,0,0,0,0,0,0,0,0,0,-1,1651,799,0,0
434,225,0,0,0,0,0,0,0,0,0,-1,1658,799,0,0
441,225,0,0,0,0,0,0,0,0,0,-1,1665,799,0,0
448,225,0,0,0,0,0,0,0,0,0,-1,1672,799,0,0
455,225,0,0,0,0,0,0,0,0,0,-1,1679,799,0,0
462,225,0,0,0,0,0,0,0,0,0,-1,1686,799,0,0
469,225,0,0,0,0,0,0,0,0,0,-1,1693,799,0,0
476,225,0,0,0,0,0,0,0,0,0,-1,1700,799,0,0
483,225,0,0,0,0,0,0,0,0,0,-1,1707,799,0,0
490,225,0,0,0,0,0,0,0,0,0,-1,1714,799,0,0
497,225,0,0,0,0,0,0,0,0,0,-1,1721,799,0,0
504,225,0,0,0,0,0,0,0,0,0,-1,1728,799,0,0
511,225,0,0,0,0,0,0,0,0,0,-1,1735,799,0,0
518,225,0,0,0,0,0,0,0,0,0,-1,1742,799,0,0
525,225,0,0,0,0,0,0,0,0,0,-1,1749,799,0,0
532,225,0,0,0,0,0,0,0,0,0,-1,1756,799,0,0
539,225,0,0,0,0,0,0,0,0,0,-1,1763,799,0,0
546,225,0,0,0,0,0,0,0,0,0,-1,1770,799,0,0
553,225,0,0,0,0,0,0,0,0,0,-1,1777,799,0,0
560,225,0,0,0,0,0,0,0,0,0,-1,1784,799,0,0
567,225,0,0,0,0,0,0,0,0,0,-1,1791,799,0,0
574,225,0,0,0,0,0,0,0,0,0,-1,1798,799,0,0
581,225,0,0,0,0,0,0,0,0,0,-1,1805,799,0,0
588,225,36.9352,2.71289,-0.0084661,0.00471919,-0.00310008,0.0054117,-0.0091586,-1.35102,0.00850438,0.036815,1812,799,36.9352,-2.71286
595,225,36.9771,2.56537,-0.00238934,0.00431564,-0.00208441,0.00491081,-0.0029845,-1.29267,0.00460336,0.0334981,1819,799,36.977,-2.56537
602,225,36.9493,2.51569,0.00153741,0.00380367,-0.00111425,0.00425974,0.00108134,-1.1823,0.00255677,0.0339061,1826,799,36.9494,-2.51569
609,225,36.9653,2.58008,0.00375859,0.00305588,-0.000201972,0.0038125,0.00300197,-0.260857,0.00231919,0.0332394,1833,799,36.9653,-2.58005
616,225,36.98,2.6012,0.00430597,0.00214287,0.000312514,0.00435021,0.00209862,0.140644,0.00251211,0.0359474,1840,799,36.98,-2.60119
623,225,36.9852,2.67963,0.00389766,0.00130475,0.000562013,0.00401424,0.00118817,0.204524,0.00238106,0.0395859,1847,799,36.9852,-2.67962
630,225,37.2141,2.72729,0.0033643,0.000717924,0.000621884,0.00350315,0.00057907,0.219676,0.00216834,0.0440104,1854,799,37.2141,-2.7273
637,225,37.3839,3.00439,0,0,0,0,0,0,0,-1,1861,799,37.3839,-3.0044
644,225,36.2103,2.63635,0,0,0,0,0,0,0,-1,1868,799,36.2103,-2.63635
651,225,27.9657,0.579529,0,0,0,0,0,0,0,-1,1875,799,27.9657,-0.579541
658,225,27.2953,0.143738,0,0,0,0,0,0,0,-1,1882,799,27.2953,-0.143711
665,225,27.116,0.374939,-0.000126369,-0.00066219,1.67718e-05,-0.000125844,-0.000662714,0.0312604,0.000406409,0.0206023,1889,799,27.116,-0.37496
672,225,26.986,0.797485,-0.000575055,-0.000667303,-0.000391626,-0.000226846,-0.00101551,-0.72678,0.000615488,0.0194285,1896,799,26.9859,-0.797493
679,225,26.9874,1.22791,-0.000856841,-0.000663876,-0.000844037,8.91752e-05,-0.00160989,-0.842307,0.00110419,0.0179003,1903,799,26.9874,-1.22793
686,225,27.0026,1.59601,-0.000653634,-0.000599247,-0.00110039,0.000474283,-0.00172716,-0.797752,0.00133786,0.0111861,1910,799,27.0025,-1.59601
693,225,26.9678,2.00073,0.000320605,-0.000431151,-0.000783165,0.000813422,-0.000923969,-0.56166,0.00100376,0.0102037,1917,799,26.9678,-2.00073
700,225,26.9608,2.42059,0.00136203,-0.000247307,-0.000339396,0.00143068,-0.000315954,-0.199571,0.0010747,0.011432,1924,799,26.9608,-2.42056
707,225,26.9419,2.84753,0.00252717,9.8082e-05,0.00011834,0.00253292,9.23304e-05,0.0485647,0.00165869,0.0117711,1931,799,26.9419,-2.84753
714,225,26.9521,3.26343,0.00395694,0.000608948,0.000738329,0.00411253,0.000453356,0.207696,0.00260376,0.0126117,1938,799,26.9522,-3.26342
721,225,26.9718,3.68921,0.00543093,0.000918856,0.00129291,0.00577515,0.000574637,0.260199,0.00367356,0.0161901,1945,799,26.9718,-3.68922
728,225,26.9159,4.02063,0.00697415,0.00117492,0.00185198,0.00751511,0.000633954,0.284194,0.00481269,0.0315313,1952,799,26.9159,-4.02061
735,225,27.1627,4.67389,0,0,0,0,0,0,0,-1,1959,799,27.1627,-4.67391
742,225,29.0922,3.2132,0,0,0,0,0,0,0,-1,1966,799,29.0921,-3.21322
749,225,27.3597,5.76422,0,0,0,0,0,0,0,-1,1973,799,27.3597,-5.76422
756,225,29.1997,4.6322,0,0,0,0,0,0,0,-1,1980,799,29.1997,-4.63222
763,225,31.1451,3.94073,0,0,0,0,0,0,0,-1,1987,799,31.1452,-3.94072
770,225,0,0,0,0,0,0,0,0,0,-1,1994,799,0,0
777,225,0,0,0,0,0,0,0,0,0,-1,2001,799,0,0
784,225,0,0,0,0,0,0,0,0,0,-1,2008,799,0,0
791,225,0,0,0,0,0,0,0,0,0,-1,2015,799,0,0
798,225,0,0,0,0,0,0,0,0,0,-1,2022,799,0,0
805,225,0,0,0,0,0,0,0,0,0,-1,2029,799,0,0
812,225,0,0,0,0,0,0,0,0,0,-1,2036,799,0,0
-700,218,0,0,0,0,0,0,0,0,0,-1,524,806,0,0
-693,218,0,0,0,0,0,0,0,0,0,-1,531,806,0,0
-686,218,0,0,0,0,0,0,0,0,0,-1,538,806,0,0
-679,218,0,0,0,0,0,0,0,0,0,-1,545,806,0,0
-672,218,0,0,0,0,0,0,0,0,0,-1,552,806,0,0
-665,218,0,0,0,0,0,0,0,0,0,-1,559,806,0,0
-658,218,0,0,0,0,0,0,0,0,0,-1,566,806,0,0
-651,218,-18.4471,5.80664,0,0,0,0,0,0,0,-1,573,806,-18.4471,-5.80666
-644,218,-18.1039,6.55524,0,0,0,0,0,0,0,-1,580,806,-18.104,-6.55521
-637,218,-21.2309,0.131348,0,0,0,0,0,0,0,-1,587,806,-21.2309,-0.131356
-630,218,-21.6902,4.28424,0,0,0,0,0,0,0,-1,594,806,-21.6903,-4.28424
-623,218,-22.0089,3.22638,0,0,0,0,0,0,0,-1,601,806,-22.0089,-3.2264
-616,218,-19.3398,2.74579,0,0,0,0,0,0,0,-1,608,806,-19.3399,-2.74581
-609,218,-18.528,2.09723,0,0,0,0,0,0,0,-1,615,806,-18.528,-2.0972
-602,218,-18.6431,1.86603,0.00766506,0.00475424,-0.00423672,0.0106894,0.00172992,-0.619952,0.00662533,0.0380052,622,806,-18.6431,-1.86602
-595,218,-18.662,1.461,0.00533851,0.00383327,-0.00290445,0.00758627,0.00158551,-0.658623,0.00462059,0.0171429,629,806,-18.662,-1.461
-588,218,-18.6393,1.10254,0.00331486,0.00290209,-0.00177709,0.0048975,0.00131944,-0.727589,0.00292609,0.0107757,636,806,-18.6393,-1.10254
-581,218,-18.6395,0.727783,0.00200178,0.00185039,-0.000835139,0.00276464,0.00108752,-0.740203,0.00160822,0.0105229,643,806,-18.6395,-0.727787
-574,218,-18.6507,0.329102,0.00116625,0.000961074,-0.000155767,0.00125017,0.000877147,-0.494203,0.000741091,0.00991865,650,806,-18.6507,-0.329111
-567,218,-18.6486,-0.0807495,0.000330033,0.00016075,0.000492469,0.000745081,-0.000254298,0.700294,0.000599736,0.0166702,657,806,-18.6486,0.0807374
-560,218,-18.6718,-0.462219,-0.000693312,-0.000222125,0.000966034,0.000536628,-0.00145207,0.905002,0.00118803,0.0174845,664,806,-18.6718,0.462234
-553,218,-18.6332,-0.901733,-0.00155106,0.000169133,0.00136911,0.000925893,-0.00230782,1.06585,0.00192297,0.0173176,671,806,-18.6333,0.901723
-546,218,-18.6921,-1.36401,-0.00232812,0.00115759,0.00179841,0.0019191,-0.00308963,1.17025,0.002918,0.017182,678,806,-18.6921,1.36404
-539,218,-18.7017,-1.78479,-0.00303167,0.00217835,0.00215877,0.00295659,-0.00380991,1.2248,0.00391698,0.0282628,685,806,-18.7017,1.7848
-532,218,-18.7751,-1.96484,-0.00388232,0.00342591,0.00234691,0.00411467,-0.00457108,1.28534,0.00501702,0.0355442,692,806,-18.7751,1.96483
-525,218,-19.0555,-2.05408,0,0,0,0,0,0,0,-1,699,806,-19.0556,2.05405
-518,218,-23.61,2.54181,0,0,0,0,0,0,0,-1,706,806,-23.61,-2.54183
-511,218,-27.0233,1.25793,0,0,0,0,0,0,0,-1,713,806,-27.0233,-1.25794
-504,218,-26.9901,1.12073,-0.0060857,0.0077587,0.00174343,0.00797488,-0.00630187,1.44743,0.00826153,0.0468279,720,806,-26.9901,-1.12076
-497,218,-26.9547,0.968323,-0.00630041,0.00857451,0.00123148,0.00867577,-0.00640167,1.48875,0.00873791,0.0456135,727,806,-26.9546,-0.968324
-490,218,-27.0406,0.819153,-0.0059883,0.00871779,0.000349665,0.0087261,-0.0059966,1.54704,0.00854871,0.0352445,734,806,-27.0406,-0.819167
-483,218,-27.0315,0.8396,-0.00439501,0.00743474,-0.00104201,0.00752582,-0.00448609,-1.48361,0.00700871,0.0338015,741,806,-27.0315,-0.839598
-476,218,-26.9455,0.944946,-0.000704893,0.00358025,-0.00286579,0.00501586,-0.0021405,-1.10639,0.00424144,0.0352946,748,806,-26.9455,-0.944976
-469,218,0,0,0,0,0,0,0,0,0,-1,755,806,0,0
-462,218,0,0,0,0,0,0,0,0,0,-1,762,806,0,0
-455,218,0,0,0,0,0,0,0,0,0,-1,769,806,0,0
-448,218,0,0,0,0,0,0,0,0,0,-1,776,806,0,0
-441,218,0,0,0,0,0,0,0,0,0,-1,783,806,0,0
-434,218,0,0,0,0,0,0,0,0,0,-1,790,806,0,0
-427,218,0,0,0,0,0,0,0,0,0,-1,797,806,0,0
-420,218,0,0,0,0,0,0,0,0,0,-1,804,806,0,0
-413,218,0,0,0,0,0,0,0,0,0,-1,811,806,0,0
-406,218,0,0,0,0,0,0,0,0,0,-1,818,806,0,0
-399,218,0,0,0,0,0,0,0,0,0,-1,825,806,0,0
-392,218,0,0,0,0,0,0,0,0,0,-1,832,806,0,0
-385,218,0,0,0,0,0,0,0,0,0,-1,839,806,0,0
-378,218,0,0,0,0,0,0,0,0,0,-1,846,806,0,0
-371,218,0,0,0,0,0,0,0,0,0,-1,853,806,0,0
-364,218,0,0,0,0,0,0,0,0,0,-1,860,806,0,0
-357,218,0,0,0,0,0,0,0,0,0,-1,867,806,0,0
-350,218,0,0,0,0,0,0,0,0,0,-1,874,806,0,0
-343,218,0,0,0,0,0,0,0,0,0,-1,881,806,0,0
-336,218,0,0,0,0,0,0,0,0,0,-1,888,806,0,0
-329,218,0,0,0,0,0,0,0,0,0,-1,895,806,0,0
-322,218,0,0,0,0,0,0,0,0,0,-1,902,806,0,0
-315,218,0,0,0,0,0,0,0,0,0,-1,909,806,0,0
-308,218,0,0,0,0,0,0,0,0,0,-1,916,806,0,0
-301,218,0,0,0,0,0,0,0,0,0,-1,923,806,0,0
-294,218,0,0,0,0,0,0,0,0,0,-1,930,806,0,0
-287,218,0,0,0,0,0,0,0,0,0,-1,937,806,0,0
-280,218,0,0,0,0,0,0,0,0,0,-1,944,806,0,0
-273,218,0,0,0,0,0,0,0,0,0,-1,951,806,0,0
-266,218,0,0,0,0,0,0,0,0,0,-1,958,806,0,0
-259,218,0,0,0,0,0,0,0,0,0,-1,965,806,0,0
-252,218,0,0,0,0,0,0,0,0,0,-1,972,806,0,0
-245,218,0,0,0,0,0,0,0,0,0,-1,979,806,0,0
-238,218,0,0,0,0,0,0,0,0,0,-1,986,806,0,0
-231,218,0,0,0,0,0,0,0,0,0,-1,993,806,0,0
-224,218,0,0,0,0,0,0,0,0,0,-1,1000,806,0,0
-217,218,0,0,0,0,0,0,0,0,0,-1,1007,806,0,0
-210,218,0,0,0,0,0,0,0,0,0,-1,1014,806,0,0
-203,218,0,0,0,0,0,0,0,0,0,-1,1021,806,0,0
-196,218,0,0,0,0,0,0,0,0,0,-1,1028,806,0,0
-189,218,0,0,0,0,0,0,0,0,0,-1,1035,806,0,0
-182,218,0,0,0,0,0,0,0,0,0,-1,1042,806,0,0
-175,218,0,0,0,0,0,0,0,0,0,-1,1049,806,0,0
-168,218,0,0,0,0,0,0,0,0,0,-1,1056,806,0,0
-161,218,0,0,0,0,0,0,0,0,0,-1,1063,806,0,0
-154,218,0,0,0,0,0,0,0,0,0,-1,1070,806,0,0
-147,218,0,0,0,0,0,0,0,0,0,-1,1077,806,0,0
-140,218,0,0,0,0,0,0,0,0,0,-1,1084,806,0,0
-133,218,0,0,0,0,0,0,0,0,0,-1,1091,806,0,0
-126,218,0,0,0,0,0,0,0,0,0,-1,1098,806,0,0
-119,218,0,0,0,0,0,0,0,0,0,-1,1105,806,0,0
-112,218,0,0,0,0,0,0,0,0,0,-1,1112,806,0,0
-105,218,0,0,0,0,0,0,0,0,0,-1,1119,806,0,0
-98,218,0,0,0,0,0,0,0,0,0,-1,1126,806,0,0
-91,218,0,0,0,0,0,0,0,0,0,-1,1133,806,0,0
-84,218,0,0,0,0,0,0,0,0,0,-1,1140,806,0,0
-77,218,0,0,0,0,0,0,0,0,0,-1,1147,806,0,0
-70,218,0,0,0,0,0,0,0,0,0,-1,1154,806,0,0
-63,218,0,0,0,0,0,0,0,0,0,-1,1161,806,0,0
-56,218,0,0,0,0,0,0,0,0,0,-1,1168,806,0,0
-49,218,0,0,0,0,0,0,0,0,0,-1,1175,806,0,0
-42,218,0,0,0,0,0,0,0,0,0,-1,1182,806,0,0
-35,218,0,0,0,0,0,0,0,0,0,-1,1189,806,0,0
-28,218,0,0,0,0,0,0,0,0,0,-1,1196,806,0,0
-21,218,0,0,0,0,0,0,0,0,0,-1,1203,806,0,0
-14,218,0,0,0,0,0,0,0,0,0,-1,1210,806,0,0
-7,218,0,0,0,0,0,0,0,0,0,-1,1217,806,0,0
0,218,0,0,0,0,0,0,0,0,0,-1,1224,806,0,0
7,218,0,0,0,0,0,0,0,0,0,-1,1231,806,0,0
14,218,0,0,0,0,0,0,0,0,0,-1,1238,806,0,0
21,218,0,0,0,0,0,0,0,0,0,-1,1245,806,0,0
28,218,0,0,0,0,0,0,0,0,0,-1,1252,806,0,0
35,218,0,0,0,0,0,0,0,0,0,-1,1259,806,0,0
42,218,0,0,0,0,0,0,0,0,0,-1,1266,806,0,0
49,218,0,0,0,0,0,0,0,0,0,-1,1273,806,0,0
56,218,0,0,0,0,0,0,0,0,0,-1,1280,806,0,0
63,218,0,0,0,0,0,0,0,0,0,-1,1287,806,0,0
70,218,0,0,0,0,0,0,0,0,0,-1,1294,806,0,0
77,218,0,0,0,0,0,0,0,0,0,-1,1301,806,0,0
84,218,0,0,0,0,0,0,0,0,0,-1,1308,806,0,0
91,218,0,0,0,0,0,0,0,0,0,-1,1315,806,0,0
98,218,0,0,0,0,0,0,0,0,0,-1,1322,806,0,0
105,218,0,0,0,0,0,0,0,0,0,-1,1329,806,0,0
112,218,0,0,0,0,0,0,0,0,0,-1,1336,806,0,0
119,218,0,0,0,0,0,0,0,0,0,-1,1343,806,0,0
126,218,0,0,0,0,0,0,0,0,0,-1,1350,806,0,0
133,218,0,0,0,0,0,0,0,0,0,-1,1357,806,0,0
140,218,0,0,0,0,0,0,0,0,0,-1,1364,806,0,0
147,218,0,0,0,0,0,0,0,0,0,-1,1371,806,0,0
154,218,0,0,0,0,0,0,0,0,0,-1,1378,806,0,0
161,218,0,0,0,0,0,0,0,0,0,-1,1385,806,0,0
168,218,0,0,0,0,0,0,0,0,0,-1,1392,806,0,0
175,218,0,0,0,0,0,0,0,0,0,-1,1399,806,0,0
182,218,0,0,0,0,0,0,0,0,0,-1,1406,806,0,0
189,218,0,0,0,0,0,0,0,0,0,-1,1413,806,0,0
196,218,0,0,0,0,0,0,0,0,0,-1,1420,806,0,0
203,218,0,0,0,0,0,0,0,0,0,-1,1427,806,0,0
210,218,0,0,0,0,0,0,0,0,0,-1,1434,806,0,0
217,218,0,0,0,0,0,0,0,0,0,-1,1441,806,0,0
224,218,0,0,0,0,0,0,0,0,0,-1,1448,806,0,0
231,218,0,0,0,0,0,0,0,0,0,-1,1455,806,0,0
238,218,0,0,0,0,0,0,0,0,0,-1,1462,806,0,0
245,218,0,0,0,0,0,0,0,0,0,-1,1469,806,0,0
252,218,0,0,0,0,0,0,0,0,0,-1,1476,806,0,0
259,218,0,0,0,0,0,0,0,0,0,-1,1483,806,0,0
266,218,0,0,0,0,0,0,0,0,0,-1,1490,806,0,0
273,218,0,0,0,0,0,0,0,0,0,-1,1497,806,0,0
280,218,0,0,0,0,0,0,0,0,0,-1,1504,806,0,0
287,218,0,0,0,0,0,0,0,0,0,-1,1511,806,0,0
294,218,0,0,0,0,0,0,0,0,0,-1,1518,806,0,0
301,218,0,0,0,0,0,0,0,0,0,-1,1525,806,0,0
308,218,0,0,0,0,0,0,0,0,0,-1,1532,806,0,0
315,218,0,0,0,0,0,0,0,0,0,-1,1539,806,0,0
322,218,0,0,0,0,0,0,0,0,0,-1,1546,806,0,0
329,218,0,0,0,0,0,0,0,0,0,-1,1553,806,0,0
336,218,0,0,0,0,0,0,0,0,0,-1,1560,806,0,0
343,218,0,0,0,0,0,0,0,0,0,-1,1567,806,0,0
350,218,0,0,0,0,0,0,0,0,0,-1,1574,806,0,0
357,218,0,0,0,0,0,0,0,0,0,-1,1581,806,0,0
364,218,0,0,0,0,0,0,0,0,0,-1,1588,806,0,0
371,218,0,0,0,0,0,0,0,0,0,-1,1595,806,0,0
378,218,0,0,0,0,0,0,0,0,0,-1,1602,806,0,0
385,218,0,0,0,0,0,0,0,0,0,-1,1609,806,0,0
392,218,0,0,0,0,0,0,0,0,0,-1,1616,806,0,0
399,218,0,0,0,0,0,0,0,0,0,-1,1623,806,0,0
406,218,0,0,0,0,0,0,0,0,0,-1,1630,806,0,0
413,218,0,0,0,0,0,0,0,0,0,-1,1637,806,0,0
420,218,0,0,0,0,0,0,0,0,0,-1,1644,806,0,0
427,218,0,0,0,0,0,0,0,0,0,-1,1651,806,0,0
434,218,0,0,0,0,0,0,0,0,0,-1,1658,806,0,0
441,218,0,0,0,0,0,0,0,0,0,-1,1665,806,0,0
448,218,0,0,0,0,0,0,0,0,0,-1,1672,806,0,0
455,218,0,0,0,0,0,0,0,0,0,-1,1679,806,0,0
462,218,0,0,0,0,0,0,0,0,0,-1,1686,806,0,0
469,218,0,0,0,0,0,0,0,0,0,-1,1693,806,0,0
476,218,0,0,0,0,0,0,0,0,0,-1,1700,806,0,0
483,218,0,0,0,0,0,0,0,0,0,-1,1707,806,0,0
490,218,0,0,0,0,0,0,0,0,0,-1,1714,806,0,0
497,218,0,0,0,0,0,0,0,0,0,-1,1721,806,0,0
504,218,0,0,0,0,0,0,0,0,0,-1,1728,806,0,0
511,218,0,0,0,0,0,0,0,0,0,-1,1735,806,0,0
518,218,0,0,0,0,0,0,0,0,0,-1,1742,806,0,0
525,218,0,0,0,0,0,0,0,0,0,-1,1749,806,0,0
532,218,0,0,0,0,0,0,0,0,0,-1,1756,806,0,0
539,218,0,0,0,0,0,0,0,0,0,-1,1763,806,0,0
546,218,0,0,0,0,0,0,0,0,0,-1,1770,806,0,0
553,218,0,0,0,0,0,0,0,0,0,-1,1777,806,0,0
560,218,0,0,0,0,0,0,0,0,0,-1,1784,806,0,0
567,218,0,0,0,0,0,0,0,0,0,-1,1791,806,0,0
574,218,0,0,0,0,0,0,0,0,0,-1,1798,806,0,0
581,218,0,0,0,0,0,0,0,0,0,-1,1805,806,0,0
588,218,0,0,0,0,0,0,0,0,0,-1,1812,806,0,0
595,218,36.9143,2.70404,-0.00362184,0.00223559,-0.00332867,0.00374054,-0.0051268,-1.14618,0.00514037,0.0358296,1819,806,36.9144,-2.70402
602,218,36.9,2.63525,0.0004152,0.0024738,-0.00169088,0.00342403,-0.000535031,-1.05881,0.00248034,0.0346662,1826,806,36.9001,-2.63526
609,218,36.9552,2.57281,0.00296182,0.00246841,-0.000179641,0.00302029,0.00240994,-0.31469,0.00184406,0.0304221,1833,806,36.9552,-2.57282
616,218,36.9501,2.54968,0.00384552,0.00204147,0.000699226,0.00408479,0.0018022,0.32971,0.00236379,0.0298345,1840,806,36.9501,-2.5497
623,218,36.9585,2.55707,0.00356695,0.00146116,0.00105757,0.00400639,0.00102173,0.393806,0.00240385,0.0346659,1847,806,36.9586,-2.55709
630,218,37.0079,2.62067,0.00300506,0.00104059,0.00111179,0.00350635,0.000539296,0.423594,0.00218015,0.0400338,1854,806,37.008,-2.6207
637,218,36.8361,2.76166,0,0,0,0,0,0,0,-1,1861,806,36.836,-2.76166
644,218,36.3859,2.6933,0,0,0,0,0,0,0,-1,1868,806,36.3859,-2.69329
651,218,35.7355,1.77814,0,0,0,0,0,0,0,-1,1875,806,35.7355,-1.77812
658,218,28.0762,0.240723,0,0,0,0,0,0,0,-1,1882,806,28.0762,-0.240709
665,218,27.7739,0.497681,-0.000229413,-0.000309118,8.20068e-05,-0.000178088,-0.000360443,0.559219,0.000208107,0.0495117,1889,806,27.7739,-0.49767
672,218,27.5165,0.821411,-0.000696825,-0.000387411,-0.000326709,-0.00018063,-0.000903605,-1.00652,0.000552132,0.0154024,1896,806,27.5165,-0.821407
679,218,27.47,1.22327,-0.00107072,-0.000480418,-0.000808192,8.48309e-05,-0.00163597,-0.960474,0.00112,0.011627,1903,806,27.4699,-1.22327
686,218,27.4353,1.60199,-0.00104422,-0.000553376,-0.00120928,0.000435135,-0.00203273,-0.885513,0.00152109,0.0112767,1910,806,27.4353,-1.60201
693,218,27.4012,2.02332,-0.00023821,-0.000495125,-0.00101219,0.000653638,-0.00138697,-0.72228,0.00120324,0.0115851,1917,806,27.4013,-2.02329
700,218,27.3838,2.43585,0.000612127,-0.00038903,-0.000655792,0.000936559,-0.000713462,-0.459413,0.000955538,0.00958775,1924,806,27.3838,-2.43583
707,218,27.3593,2.85217,0.001517,-4.91078e-05,-0.000281435,0.00156603,-9.81471e-05,-0.172516,0.00107823,0.00791677,1931,806,27.3593,-2.85217
714,218,27.3649,3.28278,0.00270705,0.000520271,0.000267567,0.00273932,0.000488008,0.119998,0.00168723,0.00955603,1938,806,27.3649,-3.28276
721,218,27.3986,3.69012,0.00400169,0.000931647,0.00074828,0.00417436,0.000758976,0.226787,0.00256759,0.0121577,1945,806,27.3986,-3.69015
728,218,27.4116,4.09961,0.00532521,0.00131644,0.00119729,0.00565558,0.00098608,0.269228,0.00348846,0.0223112,1952,806,27.4116,-4.09964
735,218,27.4774,4.57684,0.00688906,0.00191191,0.00175637,0.00744644,0.00135453,0.307295,0.00458004,0.0390181,1959,806,27.4774,-4.57682
742,218,27.5917,5.07068,0,0,0,0,0,0,0,-1,1966,806,27.5917,-5.07067
749,218,27.3325,4.55817,0,0,0,0,0,0,0,-1,1973,806,27.3325,-4.55816
756,218,28.0146,4.89087,0,0,0,0,0,0,0,-1,1980,806,28.0146,-4.89084
763,218,30.5304,4.04205,0,0,0,0,0,0,0,-1,1987,806,30.5304,-4.04203
770,218,0,0,0,0,0,0,0,0,0,-1,1994,806,0,0
777,218,0,0,0,0,0,0,0,0,0,-1,2001,806,0,0
784,218,0,0,0,0,0,0,0,0,0,-1,2008,806,0,0
791,218,0,0,0,0,0,0,0,0,0,-1,2015,806,0,0
798,218,0,0,0,0,0,0,0,0,0,-1,2022,806,0,0
805,218,0,0,0,0,0,0,0,0,0,-1,2029,806,0,0
812,218,0,0,0,0,0,0,0,0,0,-1,2036,806,0,0
-700,211,0,0,0,0,0,0,0,0,0,-1,524,813,0,0
-693,211,0,0,0,0,0,0,0,0,0,-1,531,813,0,0
-686,211,0,0,0,0,0,0,0,0,0,-1,538,813,0,0
-679,211,0,0,0,0,0,0,0,0,0,-1,545,813,0,0
-672,211,0,0,0,0,0,0,0,0,0,-1,552,813,0,0
-665,211,0,0,0,0,0,0,0,0,0,-1,559,813,0,0
-658,211,0,0,0,0,0,0,0,0,0,-1,566,813,0,0
-651,211,-19.0734,5.33337,0,0,0,0,0,0,0,-1,573,813,-19.0734,-5.3334
-644,211,-18.396,5.77808,0,0,0,0,0,0,0,-1,580,813,-18.396,-5.7781
-637,211,-17.9563,6.49323,0,0,0,0,0,0,0,-1,587,813,-17.9563,-6.49322
-630,211,-20.3254,3.85083,0,0,0,0,0,0,0,-1,594,813,-20.3255,-3.85086
-623,211,-20.8204,3.01294,0,0,0,0,0,0,0,-1,601,813,-20.8203,-3.01292
-616,211,-18.7337,2.61243,0,0,0,0,0,0,0,-1,608,813,-18.7337,-2.61244
-609,211,-18.8632,2.21539,0.00898038,0.00447261,-0.00453451,0.0117903,0.00166273,-0.554755,0.00736874,0.0397706,615,813,-18.8632,-2.2154
-602,211,-18.9751,1.84912,0.00595909,0.00362887,-0.00287485,0.00789596,0.001692,-0.592875,0.00480042,0.0194209,622,813,-18.9751,-1.8491
-595,211,-19.0309,1.47644,0.00387167,0.00284974,-0.00174622,0.00518014,0.00154126,-0.643066,0.0030714,0.0100614,629,813,-19.0309,-1.47646
-588,211,-19.0477,1.10309,0.00203948,0.00204506,-0.000788767,0.00283104,0.0012535,-0.787166,0.00163807,0.00985167,636,813,-19.0477,-1.10306
-581,211,-19.045,0.738464,0.000938934,0.00112717,2.92365e-06,0.00112722,0.000938888,1.55527,0.000697233,0.0110529,643,813,-19.045,-0.738471
-574,211,-19.0582,0.34436,0.000420824,0.000419403,0.000473959,0.000894073,-5.38456e-05,0.784649,0.000614784,0.012619,650,813,-19.0581,-0.344388
-567,211,-19.0732,-0.0563965,-0.000154603,-0.000147155,0.000892437,0.000741567,-0.00104332,0.787485,0.0010354,0.0192491,657,813,-19.0732,0.0563688
-560,211,-19.0455,-0.44751,-0.00101687,-0.000255551,0.0011209,0.000547562,-0.00181998,0.949089,0.0014312,0.0234164,664,813,-19.0455,0.447519
-553,211,-18.9464,-0.857056,-0.00169188,0.000438708,0.00135211,0.00109476,-0.00234794,1.11905,0.00203107,0.0257292,671,813,-18.9464,0.857059
-546,211,-19.1736,-1.14636,-0.00220128,0.00147591,0.00164998,0.00210771,-0.00283308,1.2051,0.00286279,0.0342675,678,813,-19.1737,1.14638
-539,211,-19.1338,-1.58447,-0.00267441,0.00243394,0.00192632,0.00307891,-0.00331938,1.24771,0.00369492,0.0243621,685,813,-19.1338,1.58446
-532,211,-19.1486,-1.8385,0,0,0,0,0,0,0,-1,692,813,-19.1486,1.83853
-525,211,-14.3009,2.3233,0,0,0,0,0,0,0,-1,699,813,-14.3009,-2.3233
-518,211,-26.6286,1.24908,0,0,0,0,0,0,0,-1,706,813,-26.6286,-1.24909
-511,211,-26.6707,1.17694,-0.00446049,0.00693421,0.0018503,0.00722714,-0.00475342,1.41379,0.00696595,0.0450942,713,813,-26.6707,-1.17693
-504,211,-26.8425,1.06085,-0.00456431,0.0080641,0.00162762,0.0082705,-0.00477072,1.44466,0.00761919,0.0477271,720,813,-26.8425,-1.06087
-497,211,-26.9689,0.86499,-0.0042989,0.00879597,0.00120061,0.00890514,-0.00440807,1.48012,0.00783119,0.0463068,727,813,-26.9689,-0.864965
-490,211,-26.9124,0.906006,-0.0031989,0.00863735,0.000426535,0.0086527,-0.00321425,1.53482,0.00708716,0.0347799,734,813,-26.9124,-0.906004
-483,211,-26.886,0.944946,-0.000259046,0.00656907,-0.000815508,0.00666512,-0.000355094,-1.45356,0.00456638,0.0348654,741,813,-26.8861,-0.944919
-476,211,-26.8044,1.06726,0.0052434,0.00122355,-0.00228318,0.0062753,0.000191653,-0.424481,0.00412114,0.0387356,748,813,-26.8045,-1.06726
-469,211,0,0,0,0,0,0,0,0,0,-1,755,813,0,0
-462,211,0,0,0,0,0,0,0,0,0,-1,762,813,0,0
-455,211,0,0,0,0,0,0,0,0,0,-1,769,813,0,0
-448,211,0,0,0,0,0,0,0,0,0,-1,776,813,0,0
-441,211,0,0,0,0,0,0,0,0,0,-1,783,813,0,0
-434,211,0,0,0,0,0,0,0,0,0,-1,790,813,0,0
-427,211,0,0,0,0,0,0,0,0,0,-1,797,813,0,0
-420,211,0,0,0,0,0,0,0,0,0,-1,804,813,0,0
-413,211,0,0,0,0,0,0,0,0,0,-1,811,813,0,0
-406,211,0,0,0,0,0,0,0,0,0,-1,818,813,0,0
-399,211,0,0,0,0,0,0,0,0,0,-1,825,813,0,0
-392,211,0,0,0,0,0,0,0,0,0,-1,832,813,0,0
-385,211,0,0,0,0,0,0,0,0,0,-1,839,813,0,0
-378,211,0,0,0,0,0,0,0,0,0,-1,846,813,0,0
-371,211,0,0,0,0,0,0,0,0,0,-1,853,813,0,0
-364,211,0,0,0,0,0,0,0,0,0,-1,860,813,0,0
-357,211,0,0,0,0,0,0,0,0,0,-1,867,813,0,0
-350,211,0,0,0,0,0,0,0,0,0,-1,874,813,0,0
-343,211,0,0,0,0,0,0,0,0,0,-1,881,813,0,0
-336,211,0,0,0,0,0,0,0,0,0,-1,888,813,0,0
-329,211,0,0,0,0,0,0,0,0,0,-1,895,813,0,0
-322,211,0,0,0,0,0,0,0,0,0,-1,902,813,0,0
-315,211,0,0,0,0,0,0,0,0,0,-1,909,813,0,0
-308,211,0,0,0,0,0,0,0,0,0,-1,916,813,0,0
-301,211,0,0,0,0,0,0,0,0,0,-1,923,813,0,0
-294,211,0,0,0,0,0,0,0,0,0,-1,930,813,0,0
-287,211,0,0,0,0,0,0,0,0,0,-1,937,813,0,0
-280,211,0,0,0,0,0,0,0,0,0,-1,944,813,0,0
-273,211,0,0,0,0,0,0,0,0,0,-1,951,813,0,0
-266,211,0,0,0,0,0,0,0,0,0,-1,958,813,0,0
-259,211,0,0,0,0,0,0,0,0,0,-1,965,813,0,0
-252,211,0,0,0,0,0,0,0,0,0,-1,972,813,0,0
-245,211,0,0,0,0,0,0,0,0,0,-1,979,813,0,0
-238,211,0,0,0,0,0,0,0,0,0,-1,986,813,0,0
-231,211,0,0,0,0,0,0,0,0,0,-1,993,813,0,0
-224,211,0,0,0,0,0,0,0,0,0,-1,1000,813,0,0
-217,211,0,0,0,0,0,0,0,0,0,-1,1007,813,0,0
-210,211,0,0,0,0,0,0,0,0,0,-1,1014,813,0,0
-203,211,0,0,0,0,0,0,0,0,0,-1,1021,813,0,0
-196,211,0,0,0,0,0,0,0,0,0,-1,1028,813,0,0
-189,211,0,0,0,0,0,0,0,0,0,-1,1035,813,0,0
-182,211,0,0,0,0,0,0,0,0,0,-1,1042,813,0,0
-175,211,0,0,0,0,0,0,0,0,0,-1,1049,813,0,0
-168,211,0,0,0,0,0,0,0,0,0,-1,1056,813,0,0
-161,211,0,0,0,0,0,0,0,0,0,-1,1063,813,0,0
-154,211,0,0,0,0,0,0,0,0,0,-1,1070,813,0,0
-147,211,0,0,0,0,0,0,0,0,0,-1,1077,813,0,0
-140,211,0,0,0,0,0,0,0,0,0,-1,1084,813,0,0
-133,211,0,0,0,0,0,0,0,0,0,-1,1091,813,0,0
-126,211,0,0,0,0,0,0,0,0,0,-1,1098,813,0,0
-119,211,0,0,0,0,0,0,0,0,0,-1,1105,813,0,0
-112,211,0,0,0,0,0,0,0,0,0,-1,1112,813,0,0
-105,211,0,0,0,0,0,0,0,0,0,-1,1119,813,0,0
-98,211,0,0,0,0,0,0,0,0,0,-1,1126,813,0,0
-91,211,0,0,0,0,0,0,0,0,0,-1,1133,813,0,0
-84,211,0,0,0,0,0,0,0,0,0,-1,1140,813,0,0
-77,211,0,0,0,0,0,0,0,0,0,-1,1147,813,0,0
-70,211,0,0,0,0,0,0,0,0,0,-1,1154,813,0,0
-63,211,0,0,0,0,0,0,0,0,0,-1,1161,813,0,0
-56,211,0,0,0,0,0,0,0,0,0,-1,1168,813,0,0
-49,211,0,0,0,0,0,0,0,0,0,-1,1175,813,0,0
-42,211,0,0,0,0,0,0,0,0,0,-1,1182,813,0,0
-35,211,0,0,0,0,0,0,0,0,0,-1,1189,813,0,0
-28,211,0,0,0,0,0,0,0,0,0,-1,1196,813,0,0
-21,211,0,0,0,0,0,0,0,0,0,-1,1203,813,0,0
-14,211,0,0,0,0,0,0,0,0,0,-1,1210,813,0,0
-7,211,0,0,0,0,0,0,0,0,0,-1,1217,813,0,0
0,211,0,0,0,0,0,0,0,0,0,-1,1224,813,0,0
7,211,0,0,0,0,0,0,0,0,0,-1,1231,813,0,0
14,211,0,0,0,0,0,0,0,0,0,-1,1238,813,0,0
21,211,0,0,0,0,0,0,0,0,0,-1,1245,813,0,0
28,211,0,0,0,0,0,0,0,0,0,-1,1252,813,0,0
35,211,0,0,0,0,0,0,0,0,0,-1,1259,813,0,0
42,211,0,0,0,0,0,0,0,0,0,-1,1266,813,0,0
49,211,0,0,0,0,0,0,0,0,0,-1,1273,813,0,0
56,211,0,0,0,0,0,0,0,0,0,-1,1280,813,0,0
63,211,0,0,0,0,0,0,0,0,0,-1,1287,813,0,0
70,211,0,0,0,0,0,0,0,0,0,-1,1294,813,0,0
77,211,0,0,0,0,0,0,0,0,0,-1,1301,813,0,0
84,211,0,0,0,0,0,0,0,0,0,-1,1308,813,0,0
91,211,0,0,0,0,0,0,0,0,0,-1,1315,813,0,0
98,211,0,0,0,0,0,0,0,0,0,-1,1322,813,0,0
105,211,0,0,0,0,0,0,0,0,0,-1,1329,813,0,0
112,211,0,0,0,0,0,0,0,0,0,-1,1336,813,0,0
119,211,0,0,0,0,0,0,0,0,0,-1,1343,813,0,0
126,211,0,0,0,0,0,0,0,0,0,-1,1350,813,0,0
133,211,0,0,0,0,0,0,0,0,0,-1,1357,813,0,0
140,211,0,0,0,0,0,0,0,0,0,-1,1364,813,0,0
147,211,0,0,0,0,0,0,0,0,0,-1,1371,813,0,0
154,211,0,0,0,0,0,0,0,0,0,-1,1378,813,0,0
161,211,0,0,0,0,0,0,0,0,0,-1,1385,813,0,0
168,211,0,0,0,0,0,0,0,0,0,-1,1392,813,0,0
175,211,0,0,0,0,0,0,0,0,0,-1,1399,813,0,0
182,211,0,0,0,0,0,0,0,0,0,-1,1406,813,0,0
189,211,0,0,0,0,0,0,0,0,0,-1,1413,813,0,0
196,211,0,0,0,0,0,0,0,0,0,-1,1420,813,0,0
203,211,0,0,0,0,0,0,0,0,0,-1,1427,813,0,0
210,211,0,0,0,0,0,0,0,0,0,-1,1434,813,0,0
217,211,0,0,0,0,0,0,0,0,0,-1,1441,813,0,0
224,211,0,0,0,0,0,0,0,0,0,-1,1448,813,0,0
231,211,0,0,0,0,0,0,0,0,0,-1,1455,813,0,0
238,211,0,0,0,0,0,0,0,0,0,-1,1462,813,0,0
245,211,0,0,0,0,0,0,0,0,0,-1,1469,813,0,0
252,211,0,0,0,0,0,0,0,0,0,-1,1476,813,0,0
259,211,0,0,0,0,0,0,0,0,0,-1,1483,813,0,0
266,211,0,0,0,0,0,0,0,0,0,-1,1490,813,0,0
273,211,0,0,0,0,0,0,0,0,0,-1,1497,813,0,0
280,211,0,0,0,0,0,0,0,0,0,-1,1504,813,0,0
287,211,0,0,0,0,0,0,0,0,0,-1,1511,813,0,0
294,211,0,0,0,0,0,0,0,0,0,-1,1518,813,0,0
301,211,0,0,0,0,0,0,0,0,0,-1,1525,813,0,0
308,211,0,0,0,0,0,0,0,0,0,-1,1532,813,0,0
315,211,0,0,0,0,0,0,0,0,0,-1,1539,813,0,0
322,211,0,0,0,0,0,0,0,0,0,-1,1546,813,0,0
329,211,0,0,0,0,0,0,0,0,0,-1,1553,813,0,0
336,211,0,0,0,0,0,0,0,0,0,-1,1560,813,0,0
343,211,0,0,0,0,0,0,0,0,0,-1,1567,813,0,0
350,211,0,0,0,0,0,0,0,0,0,-1,1574,813,0,0
357,211,0,0,0,0,0,0,0,0,0,-1,1581,813,0,0
364,211,0,0,0,0,0,0,0,0,0,-1,1588,813,0,0
371,211,0,0,0,0,0,0,0,0,0,-1,1595,813,0,0
378,211,0,0,0,0,0,0,0,0,0,-1,1602,813,0,0
385,211,0,0,0,0,0,0,0,0,0,-1,1609,813,0,0
392,211,0,0,0,0,0,0,0,0,0,-1,1616,813,0,0
399,211,0,0,0,0,0,0,0,0,0,-1,1623,813,0,0
406,211,0,0,0,0,0,0,0,0,0,-1,1630,813,0,0
413,211,0,0,0,0,0,0,0,0,0,-1,1637,813,0,0
420,211,0,0,0,0,0,0,0,0,0,-1,1644,813,0,0
427,211,0,0,0,0,0,0,0,0,0,-1,1651,813,0,0
434,211,0,0,0,0,0,0,0,0,0,-1,1658,813,0,0
441,211,0,0,0,0,0,0,0,0,0,-1,1665,813,0,0
448,211,0,0,0,0,0,0,0,0,0,-1,1672,813,0,0
455,211,0,0,0,0,0,0,0,0,0,-1,1679,813,0,0
462,211,0,0,0,0,0,0,0,0,0,-1,1686,813,0,0
469,211,0,0,0,0,0,0,0,0,0,-1,1693,813,0,0
476,211,0,0,0,0,0,0,0,0,0,-1,1700,813,0,0
483,211,0,0,0,0,0,0,0,0,0,-1,1707,813,0,0
490,211,0,0,0,0,0,0,0,0,0,-1,1714,813,0,0
497,211,0,0,0,0,0,0,0,0,0,-1,1721,813,0,0
504,211,0,0,0,0,0,0,0,0,0,-1,1728,813,0,0
511,211,0,0,0,0,0,0,0,0,0,-1,1735,813,0,0
518,211,0,0,0,0,0,0,0,0,0,-1,1742,813,0,0
525,211,0,0,0,0,0,0,0,0,0,-1,1749,813,0,0
532,211,0,0,0,0,0,0,0,0,0,-1,1756,813,0,0
539,211,0,0,0,0,0,0,0,0,0,-1,1763,813,0,0
546,211,0,0,0,0,0,0,0,0,0,-1,1770,813,0,0
553,211,0,0,0,0,0,0,0,0,0,-1,1777,813,0,0
560,211,0,0,0,0,0,0,0,0,0,-1,1784,813,0,0
567,211,0,0,0,0,0,0,0,0,0,-1,1791,813,0,0
574,211,0,0,0,0,0,0,0,0,0,-1,1798,813,0,0
581,211,0,0,0,0,0,0,0,0,0,-1,1805,813,0,0
588,211,0,0,0,0,0,0,0,0,0,-1,1812,813,0,0
595,211,36.9833,2.60516,-0.00337539,4.24827e-05,-0.00446736,0.00311662,-0.00644953,-0.96808,0.00563365,0.0368348,1819,813,36.9833,-2.60517
602,211,36.9337,2.5108,-0.000263956,0.000851206,-0.00233105,0.00269043,-0.00210318,-0.902791,0.00277451,0.0368947,1826,813,36.9337,-2.51083
609,211,36.9272,2.41162,0.00187889,0.00154372,-0.000353302,0.00210234,0.00132027,-0.563941,0.00122697,0.0371419,1833,813,36.9272,-2.4116
616,211,36.9491,2.46246,0.00283977,0.00169339,0.00085216,0.00329358,0.00123958,0.489337,0.00192083,0.030598,1840,813,36.9491,-2.46245
623,211,37.0035,2.53754,0.00268797,0.00147446,0.00132413,0.00353774,0.000624685,0.570561,0.0021803,0.0307707,1847,813,37.0035,-2.53755
630,211,36.9806,2.55566,0.00218409,0.00128033,0.00138455,0.00318864,0.000275779,0.627663,0.00204005,0.0360584,1854,813,36.9806,-2.55568
637,211,36.8717,2.70911,0.00154514,0.000979801,0.00114636,0.00244317,8.17766e-05,0.664519,0.00160222,0.0416811,1861,813,36.8717,-2.70914
644,211,36.6796,2.77844,0.000856739,0.000638023,0.000886152,0.00164026,-0.000145493,0.724005,0.00114509,0.0411032,1868,813,36.6796,-2.77845
651,211,36.5249,2.85516,0,0,0,0,0,0,0,-1,1875,813,36.5249,-2.85518
658,211,27.7909,1.52234,0,0,0,0,0,0,0,-1,1882,813,27.7909,-1.52234
665,211,28.4709,0.609741,0,0,0,0,0,0,0,-1,1889,813,28.4709,-0.609715
672,211,27.9316,0.901306,-0.000813277,-0.000159207,-0.00032978,-2.17996e-05,-0.000950684,-1.17601,0.00062665,0.0285217,1896,813,27.9317,-0.901306
679,211,27.8997,1.19952,-0.00120695,-0.000324037,-0.000792256,0.000141456,-0.00167244,-1.03958,0.00116498,0.0154311,1903,813,27.8997,-1.1995
686,211,27.8352,1.61224,-0.0012273,-0.000496558,-0.00124667,0.000437177,-0.00216104,-0.927946,0.00160637,0.0113788,1910,813,27.8352,-1.61222
693,211,27.817,2.01697,-0.000547241,-0.000559704,-0.00117094,0.000617485,-0.00172443,-0.782737,0.00140155,0.0118269,1917,813,27.817,-2.01694
700,211,27.7521,2.4126,0.000112463,-0.000550904,-0.000908904,0.000748312,-0.00118675,-0.610443,0.00112673,0.013534,1924,813,27.7521,-2.4126
707,211,27.77,2.88092,0.00074878,-0.000241624,-0.000622508,0.00104903,-0.000541873,-0.449404,0.000933935,0.0196729,1931,813,27.77,-2.88091
714,211,27.8022,3.32068,0.00170339,0.000358658,-0.000138753,0.00171755,0.00034449,-0.101755,0.00104923,0.0201489,1938,813,27.8022,-3.32067
721,211,27.8303,3.70081,0.00285755,0.000859839,0.000284706,0.00289733,0.000820056,0.138834,0.00172447,0.0154848,1945,813,27.8303,-3.70079
728,211,27.8215,4.07172,0.00401798,0.00135234,0.000653256,0.00416946,0.00120085,0.227861,0.00247831,0.0150543,1952,813,27.8216,-4.07175
735,211,27.8096,4.47998,0.00536204,0.0020178,0.00108458,0.00568298,0.00169685,0.287704,0.00336864,0.0245929,1959,813,27.8096,-4.47998
742,211,27.9033,4.83746,0.00702999,0.00272448,0.00155751,0.00753434,0.00222013,0.313161,0.00447055,0.0461782,1966,813,27.9033,-4.83745
749,211,27.9342,5.11908,0,0,0,0,0,0,0,-1,1973,813,27.9342,-5.1191
756,211,28.0806,5.09644,0,0,0,0,0,0,0,-1,1980,813,28.0806,-5.09643
763,211,27.8011,5.48767,0,0,0,0,0,0,0,-1,1987,813,27.8012,-5.48767
770,211,29.7631,4.67743,0,0,0,0,0,0,0,-1,1994,813,29.763,-4.67744
777,211,0,0,0,0,0,0,0,0,0,-1,2001,813,0,0
784,211,0,0,0,0,0,0,0,0,0,-1,2008,813,0,0
791,211,0,0,0,0,0,0,0,0,0,-1,2015,813,0,0
798,211,0,0,0,0,0,0,0,0,0,-1,2022,813,0,0
805,211,0,0,0,0,0,0,0,0,0,-1,2029,813,0,0
812,211,0,0,0,0,0,0,0,0,0,-1,2036,813,0,0
-700,204,0,0,0,0,0,0,0,0,0,-1,524,820,0,0
-693,204,0,0,0,0,0,0,0,0,0,-1,531,820,0,0
-686,204,0,0,0,0,0,0,0,0,0,-1,538,820,0,0
-679,204,0,0,0,0,0,0,0,0,0,-1,545,820,0,0
-672,204,0,0,0,0,0,0,0,0,0,-1,552,820,0,0
-665,204,0,0,0,0,0,0,0,0,0,-1,559,820,0,0
-658,204,0,0,0,0,0,0,0,0,0,-1,566,820,0,0
-651,204,-19.223,4.57391,0,0,0,0,0,0,0,-1,573,820,-19.223,-4.57394
-644,204,-21.9558,6.70935,0,0,0,0,0,0,0,-1,580,820,-21.9558,-6.70935
-637,204,-20.9536,5.58936,0,0,0,0,0,0,0,-1,587,820,-20.9536,-5.58937
-630,204,-20.1097,3.83899,0,0,0,0,0,0,0,-1,594,820,-20.1097,-3.83899
-623,204,-19.7877,3.0174,0,0,0,0,0,0,0,-1,601,820,-19.7877,-3.01737
-616,204,-18.9724,2.71722,0,0,0,0,0,0,0,-1,608,820,-18.9723,-2.7172
-609,204,-19.1705,2.31409,0.00704326,0.00328304,-0.00304952,0.00874566,0.00158064,-0.509157,0.0053815,0.0343371,615,820,-19.1705,-2.31411
-602,204,-19.3615,1.90289,0.00424365,0.00253235,-0.00165423,0.00525042,0.00152558,-0.546722,0.00311872,0.0150479,622,820,-19.3615,-1.90287
-595,204,-19.4292,1.4798,0.00239247,0.00184904,-0.000752666,0.00292097,0.00132055,-0.612176,0.001689,0.0138534,629,820,-19.4292,-1.47977
-588,204,-19.4401,1.09222,0.000770529,0.00113702,2.87161e-06,0.00113704,0.000770506,1.56296,0.000670141,0.0114068,636,820,-19.44,-1.09222
-581,204,-19.433,0.727051,-7.38243e-05,0.000343659,0.000598309,0.000768595,-0.00049876,0.953239,0.000737215,0.012374,643,820,-19.433,-0.727038
-574,204,-19.4438,0.342896,-0.000236942,-0.000190084,0.000828076,0.000614894,-0.00104192,0.799541,0.000967095,0.0135183,650,820,-19.4438,-0.342875
-567,204,-19.4504,-0.0338745,-0.000542255,-0.000496217,0.00101523,0.000496258,-0.00153473,0.796733,0.00122262,0.0136577,657,820,-19.4504,0.0338611
-560,204,-19.4498,-0.436401,-0.00123622,-0.000368163,0.00102196,0.000308112,-0.00191249,0.986208,0.00138914,0.014743,664,820,-19.4498,0.436383
-553,204,-19.4736,-0.771912,-0.00174249,0.000516021,0.00109624,0.000960604,-0.00218707,1.18551,0.00186273,0.0162782,671,820,-19.4736,0.77194
-546,204,-19.5475,-1.07764,-0.00203678,0.00152794,0.00128313,0.00194177,-0.00245061,1.25882,0.00254161,0.0225104,678,820,-19.5475,1.07762
-539,204,-19.4894,-1.49939,-0.00228903,0.00240861,0.00147909,0.00283552,-0.00271594,1.2898,0.00320538,0.041012,685,820,-19.4894,1.49939
-532,204,-19.3749,-2.06781,0,0,0,0,0,0,0,-1,692,820,-19.3749,2.06782
-525,204,-25.7137,1.52496,0,0,0,0,0,0,0,-1,699,820,-25.7137,-1.52496
-518,204,-26.6808,1.12195,0,0,0,0,0,0,0,-1,706,820,-26.6809,-1.12194
-511,204,-26.8265,0.992493,-0.00328406,0.00679933,0.00137872,0.00698445,-0.00346918,1.43733,0.0061481,0.0490886,713,820,-26.8265,-0.992479
-504,204,-27.1226,0.719849,-0.00301116,0.00780845,0.00120026,0.00794,-0.00314271,1.46163,0.0065954,0.0497861,720,820,-27.1226,-0.719831
-497,204,-27.1332,0.705811,-0.0021729,0.00827596,0.000831461,0.00834171,-0.00223865,1.49188,0.00643842,0.0405933,727,820,-27.1332,-0.705815
-490,204,-27.0906,0.718933,-9.83326e-05,0.00754254,0.000149611,0.00754547,-0.000101261,1.55123,0.00506441,0.0348308,734,820,-27.0906,-0.718952
-483,204,-27.0588,0.659912,0.00441836,0.00435575,-0.000928709,0.00531629,0.00345782,-0.768552,0.00311532,0.0412445,741,820,-27.0588,-0.659927
-476,204,0,0,0,0,0,0,0,0,0,-1,748,820,0,0
-469,204,0,0,0,0,0,0,0,0,0,-1,755,820,0,0
-462,204,0,0,0,0,0,0,0,0,0,-1,762,820,0,0
-455,204,0,0,0,0,0,0,0,0,0,-1,769,820,0,0
-448,204,0,0,0,0,0,0,0,0,0,-1,776,820,0,0
-441,204,0,0,0,0,0,0,0,0,0,-1,783,820,0,0
-434,204,0,0,0,0,0,0,0,0,0,-1,790,820,0,0
-427,204,0,0,0,0,0,0,0,0,0,-1,797,820,0,0
-420,204,0,0,0,0,0,0,0,0,0,-1,804,820,0,0
-413,204,0,0,0,0,0,0,0,0,0,-1,811,820,0,0
-406,204,0,0,0,0,0,0,0,0,0,-1,818,820,0,0
-399,204,0,0,0,0,0,0,0,0,0,-1,825,820,0,0
-392,204,0,0,0,0,0,0,0,0,0,-1,832,820,0,0
-385,204,0,0,0,0,0,0,0,0,0,-1,839,820,0,0
-378,204,0,0,0,0,0,0,0,0,0,-1,846,820,0,0
-371,204,0,0,0,0,0,0,0,0,0,-1,853,820,0,0
-364,204,0,0,0,0,0,0,0,0,0,-1,860,820,0,0
-357,204,0,0,0,0,0,0,0,0,0,-1,867,820,0,0
-350,204,0,0,0,0,0,0,0,0,0,-1,874,820,0,0
-343,204,0,0,0,0,0,0,0,0,0,-1,881,820,0,0
-336,204,0,0,0,0,0,0,0,0,0,-1,888,820,0,0
-329,204,0,0,0,0,0,0,0,0,0,-1,895,820,0,0
-322,204,0,0,0,0,0,0,0,0,0,-1,902,820,0,0
-315,204,0,0,0,0,0,0,0,0,0,-1,909,820,0,0
-308,204,0,0,0,0,0,0,0,0,0,-1,916,820,0,0
-301,204,0,0,0,0,0,0,0,0,0,-1,923,820,0,0
-294,204,0,0,0,0,0,0,0,0,0,-1,930,820,0,0
-287,204,0,0,0,0,0,0,0,0,0,-1,937,820,0,0
-280,204,0,0,0,0,0,0,0,0,0,-1,944,820,0,0
-273,204,0,0,0,0,0,0,0,0,0,-1,951,820,0,0
-266,204,0,0,0,0,0,0,0,0,0,-1,958,820,0,0
-259,204,0,0,0,0,0,0,0,0,0,-1,965,820,0,0
-252,204,0,0,0,0,0,0,0,0,0,-1,972,820,0,0
-245,204,0,0,0,0,0,0,0,0,0,-1,979,820,0,0
-238,204,0,0,0,0,0,0,0,0,0,-1,986,820,0,0
-231,204,0,0,0,0,0,0,0,0,0,-1,993,820,0,0
-224,204,0,0,0,0,0,0,0,0,0,-1,1000,820,0,0
-217,204,0,0,0,0,0,0,0,0,0,-1,1007,820,0,0
-210,204,0,0,0,0,0,0,0,0,0,-1,1014,820,0,0
-203,204,0,0,0,0,0,0,0,0,0,-1,1021,820,0,0
-196,204,0,0,0,0,0,0,0,0,0,-1,1028,820,0,0
-189,204,0,0,0,0,0,0,0,0,0,-1,1035,820,0,0
-182,204,0,0,0,0,0,0,0,0,0,-1,1042,820,0,0
-175,204,0,0,0,0,0,0,0,0,0,-1,1049,820,0,0
-168,204,0,0,0,0,0,0,0,0,0,-1,1056,820,0,0
-161,204,0,0,0,0,0,0,0,0,0,-1,1063,820,0,0
-154,204,0,0,0,0,0,0,0,0,0,-1,1070,820,0,0
-147,204,0,0,0,0,0,0,0,0,0,-1,1077,820,0,0
-140,204,0,0,0,0,0,0,0,0,0,-1,1084,820,0,0
-133,204,0,0,0,0,0,0,0,0,0,-1,1091,820,0,0
-126,204,0,0,0,0,0,0,0,0,0,-1,1098,820,0,0
-119,204,0,0,0,0,0,0,0,0,0,-1,1105,820,0,0
-112,204,0,0,0,0,0,0,0,0,0,-1,1112,820,0,0
-105,204,0,0,0,0,0,0,0,0,0,-1,1119,820,0,0
-98,204,0,0,0,0,0,0,0,0,0,-1,1126,820,0,0
-91,204,0,0,0,0,0,0,0,0,0,-1,1133,820,0,0
-84,204,0,0,0,0,0,0,0,0,0,-1,1140,820,0,0
-77,204,0,0,0,0,0,0,0,0,0,-1,1147,820,0,0
-70,204,0,0,0,0,0,0,0,0,0,-1,1154,820,0,0
-63,204,0,0,0,0,0,0,0,0,0,-1,1161,820,0,0
-56,204,0,0,0,0,0,0,0,0,0,-1,1168,820,0,0
-49,204,0,0,0,0,0,0,0,0,0,-1,1175,820,0,0
-42,204,0,0,0,0,0,0,0,0,0,-1,1182,820,0,0
-35,204,0,0,0,0,0,0,0,0,0,-1,1189,820,0,0
-28,204,0,0,0,0,0,0,0,0,0,-1,1196,820,0,0
-21,204,0,0,0,0,0,0,0,0,0,-1,1203,820,0,0
-14,204,0,0,0,0,0,0,0,0,0,-1,1210,820,0,0
-7,204,0,0,0,0,0,0,0,0,0,-1,1217,820,0,0
0,204,0,0,0,0,0,0,0,0,0,-1,1224,820,0,0
7,204,0,0,0,0,0,0,0,0,0,-1,1231,820,0,0
14,204,0,0,0,0,0,0,0,0,0,-1,1238,820,0,0
21,204,0,0,0,0,0,0,0,0,0,-1,1245,820,0,0
28,204,0,0,0,0,0,0,0,0,0,-1,1252,820,0,0
35,204,0,0,0,0,0,0,0,0,0,-1,1259,820,0,0
42,204,0,0,0,0,0,0,0,0,0,-1,1266,820,0,0
49,204,0,0,0,0,0,0,0,0,0,-1,1273,820,0,0
56,204,0,0,0,0,0,0,0,0,0,-1,1280,820,0,0
63,204,0,0,0,0,0,0,0,0,0,-1,1287,820,0,0
70,204,0,0,0,0,0,0,0,0,0,-1,1294,820,0,0
77,204,0,0,0,0,0,0,0,0,0,-1,1301,820,0,0
84,204,0,0,0,0,0,0,0,0,0,-1,1308,820,0,0
91,204,0,0,0,0,0,0,0,0,0,-1,1315,820,0,0
98,204,0,0,0,0,0,0,0,0,0,-1,1322,820,0,0
105,204,0,0,0,0,0,0,0,0,0,-1,1329,820,0,0
112,204,0,0,0,0,0,0,0,0,0,-1,1336,820,0,0
119,204,0,0,0,0,0,0,0,0,0,-1,1343,820,0,0
126,204,0,0,0,0,0,0,0,0,0,-1,1350,820,0,0
133,204,0,0,0,0,0,0,0,0,0,-1,1357,820,0,0
140,204,0,0,0,0,0,0,0,0,0,-1,1364,820,0,0
147,204,0,0,0,0,0,0,0,0,0,-1,1371,820,0,0
154,204,0,0,0,0,0,0,0,0,0,-1,1378,820,0,0
161,204,0,0,0,0,0,0,0,0,0,-1,1385,820,0,0
168,204,0,0,0,0,0,0,0,0,0,-1,1392,820,0,0
175,204,0,0,0,0,0,0,0,0,0,-1,1399,820,0,0
182,204,0,0,0,0,0,0,0,0,0,-1,1406,820,0,0
189,204,0,0,0,0,0,0,0,0,0,-1,1413,820,0,0
196,204,0,0,0,0,0,0,0,0,0,-1,1420,820,0,0
203,204,0,0,0,0,0,0,0,0,0,-1,1427,820,0,0
210,204,0,0,0,0,0,0,0,0,0,-1,1434,820,0,0
217,204,0,0,0,0,0,0,0,0,0,-1,1441,820,0,0
224,204,0,0,0,0,0,0,0,0,0,-1,1448,820,0,0
231,204,0,0,0,0,0,0,0,0,0,-1,1455,820,0,0
238,204,0,0,0,0,0,0,0,0,0,-1,1462,820,0,0
245,204,0,0,0,0,0,0,0,0,0,-1,1469,820,0,0
252,204,0,0,0,0,0,0,0,0,0,-1,1476,820,0,0
259,204,0,0,0,0,0,0,0,0,0,-1,1483,820,0,0
266,204,0,0,0,0,0,0,0,0,0,-1,1490,820,0,0
273,204,0,0,0,0,0,0,0,0,0,-1,1497,820,0,0
280,204,0,0,0,0,0,0,0,0,0,-1,1504,820,0,0
287,204,0,0,0,0,0,0,0,0,0,-1,1511,820,0,0
294,204,0,0,0,0,0,0,0,0,0,-1,1518,820,0,0
301,204,0,0,0,0,0,0,0,0,0,-1,1525,820,0,0
308,204,0,0,0,0,0,0,0,0,0,-1,1532,820,0,0
315,204,0,0,0,0,0,0,0,0,0,-1,1539,820,0,0
322,204,0,0,0,0,0,0,0,0,0,-1,1546,820,0,0
329,204,0,0,0,0,0,0,0,0,0,-1,1553,820,0,0
336,204,0,0,0,0,0,0,0,0,0,-1,1560,820,0,0
343,204,0,0,0,0,0,0,0,0,0,-1,1567,820,0,0
350,204,0,0,0,0,0,0,0,0,0,-1,1574,820,0,0
357,204,0,0,0,0,0,0,0,0,0,-1,1581,820,0,0
364,204,0,0,0,0,0,0,0,0,0,-1,1588,820,0,0
371,204,0,0,0,0,0,0,0,0,0,-1,1595,820,0,0
378,204,0,0,0,0,0,0,0,0,0,-1,1602,820,0,0
385,204,0,0,0,0,0,0,0,0,0,-1,1609,820,0,0
392,204,0,0,0,0,0,0,0,0,0,-1,1616,820,0,0
399,204,0,0,0,0,0,0,0,0,0,-1,1623,820,0,0
406,204,0,0,0,0,0,0,0,0,0,-1,1630,820,0,0
413,204,0,0,0,0,0,0,0,0,0,-1,1637,820,0,0
420,204,0,0,0,0,0,0,0,0,0,-1,1644,820,0,0
427,204,0,0,0,0,0,0,0,0,0,-1,1651,820,0,0
434,204,0,0,0,0,0,0,0,0,0,-1,1658,820,0,0
441,204,0,0,0,0,0,0,0,0,0,-1,1665,820,0,0
448,204,0,0,0,0,0,0,0,0,0,-1,1672,820,0,0
455,204,0,0,0,0,0,0,0,0,0,-1,1679,820,0,0
462,204,0,0,0,0,0,0,0,0,0,-1,1686,820,0,0
469,204,0,0,0,0,0,0,0,0,0,-1,1693,820,0,0
476,204,0,0,0,0,0,0,0,0,0,-1,1700,820,0,0
483,204,0,0,0,0,0,0,0,0,0,-1,1707,820,0,0
490,204,0,0,0,0,0,0,0,0,0,-1,1714,820,0,0
497,204,0,0,0,0,0,0,0,0,0,-1,1721,820,0,0
504,204,0,0,0,0,0,0,0,0,0,-1,1728,820,0,0
511,204,0,0,0,0,0,0,0,0,0,-1,1735,820,0,0
518,204,0,0,0,0,0,0,0,0,0,-1,1742,820,0,0
525,204,0,0,0,0,0,0,0,0,0,-1,1749,820,0,0
532,204,0,0,0,0,0,0,0,0,0,-1,1756,820,0,0
539,204,0,0,0,0,0,0,0,0,0,-1,1763,820,0,0
546,204,0,0,0,0,0,0,0,0,0,-1,1770,820,0,0
553,204,0,0,0,0,0,0,0,0,0,-1,1777,820,0,0
560,204,0,0,0,0,0,0,0,0,0,-1,1784,820,0,0
567,204,0,0,0,0,0,0,0,0,0,-1,1791,820,0,0
574,204,0,0,0,0,0,0,0,0,0,-1,1798,820,0,0
581,204,0,0,0,0,0,0,0,0,0,-1,1805,820,0,0
588,204,0,0,0,0,0,0,0,0,0,-1,1812,820,0,0
595,204,0,0,0,0,0,0,0,0,0,-1,1819,820,0,0
602,204,37.0228,2.4184,-0.000335052,-0.000850119,-0.00315321,0.00257113,-0.0037563,-0.744652,0.00367444,0.0372481,1826,820,37.0228,-2.41842
609,204,36.9512,2.42749,0.00127686,0.000406221,-0.000903569,0.00184451,-0.000161425,-0.560916,0.00128686,0.0414758,1833,820,36.9512,-2.4275
616,204,36.9312,2.46454,0.0022157,0.00111703,0.00058867,0.00247153,0.000861196,0.409976,0.00144863,0.0384493,1840,820,36.9312,-2.46451
623,204,36.9596,2.52942,0.0021333,0.00129194,0.00124236,0.00302427,0.000400972,0.62215,0.0018967,0.0295862,1847,820,36.9596,-2.52944
630,204,36.9767,2.56543,0.00166492,0.0013249,0.00139508,0.00290031,8.95063e-05,0.724765,0.00190441,0.0288319,1854,820,36.9767,-2.56544
637,204,36.9176,2.61456,0.00106076,0.00109055,0.00117533,0.00225108,-9.97707e-05,0.791733,0.00153506,0.0346378,1861,820,36.9177,-2.61458
644,204,36.77,2.64801,0.000466739,0.000772497,0.000888167,0.00152085,-0.000281611,0.870627,0.00111964,0.0395571,1868,820,36.77,-2.648
651,204,36.8927,2.79327,0,0,0,0,0,0,0,-1,1875,820,36.8927,-2.79327
658,204,34.9631,1.64844,0,0,0,0,0,0,0,-1,1882,820,34.9631,-1.64842
665,204,21.8292,1.51099,0,0,0,0,0,0,0,-1,1889,820,21.8292,-1.51099
672,204,28.2456,0.84021,0,0,0,0,0,0,0,-1,1896,820,28.2456,-0.84021
679,204,28.2198,1.08337,-0.00123228,-0.00037824,-0.000725322,3.64271e-05,-0.00164695,-1.05144,0.00111031,0.0352764,1903,820,28.2198,-1.08338
686,204,28.2194,1.61487,-0.00126771,-0.000592673,-0.00120346,0.000319703,-0.00218008,-0.922114,0.00157084,0.0155507,1910,820,28.2193,-1.61486
693,204,28.176,2.02484,-0.000715389,-0.000713573,-0.00124652,0.000532035,-0.001961,-0.785762,0.00151612,0.0160195,1917,820,28.176,-2.02483
700,204,28.2091,2.42816,-0.000269622,-0.000744322,-0.00109399,0.000612466,-0.00162641,-0.678574,0.00133607,0.0172762,1924,820,28.2092,-2.42817
707,204,28.1874,2.90839,3.4392e-05,-0.00041612,-0.000912382,0.000748913,-0.00113064,-0.664375,0.0010926,0.0159673,1931,820,28.1873,-2.90841
714,204,28.2191,3.36627,0.000662302,0.000260036,-0.000509182,0.00100864,-8.62983e-05,-0.597299,0.000702959,0.0244806,1938,820,28.2191,-3.36628
721,204,28.2135,3.71375,0.00159468,0.000903694,-0.000148047,0.00162506,0.00087331,-0.20242,0.000939104,0.0205742,1945,820,28.2135,-3.71374
728,204,28.1895,4.07904,0.00255369,0.00154274,0.000160065,0.00257843,0.001518,0.153336,0.00149645,0.0127794,1952,820,28.1894,-4.07903
735,204,28.1194,4.48157,0.00369413,0.00231275,0.000495264,0.00385335,0.00215354,0.311041,0.00222987,0.014704,1959,820,28.1194,-4.4816
742,204,28.1317,4.80737,0.00515462,0.0031841,0.000858376,0.00547609,0.00286263,0.358342,0.00316271,0.0300674,1966,820,28.1317,-4.80737
749,204,28.1864,5.07452,0.00715421,0.00431016,0.00128924,0.00765164,0.00381273,0.368232,0.00441768,0.0443509,1973,820,28.1864,-5.07455
756,204,28.21,5.33588,0.0099363,0.00582688,0.00175872,0.0105862,0.00517697,0.353968,0.00611244,0.0468299,1980,820,28.2099,-5.33588
763,204,28.2351,5.65436,0,0,0,0,0,0,0,-1,1987,820,28.2352,-5.65436
770,204,28.7184,6.53229,0,0,0,0,0,0,0,-1,1994,820,28.7184,-6.5323
777,204,0,0,0,0,0,0,0,0,0,-1,2001,820,0,0
784,204,0,0,0,0,0,0,0,0,0,-1,2008,820,0,0
791,204,0,0,0,0,0,0,0,0,0,-1,2015,820,0,0
798,204,0,0,0,0,0,0,0,0,0,-1,2022,820,0,0
805,204,0,0,0,0,0,0,0,0,0,-1,2029,820,0,0
812,204,0,0,0,0,0,0,0,0,0,-1,2036,820,0,0
-700,197,0,0,0,0,0,0,0,0,0,-1,524,827,0,0
-693,197,0,0,0,0,0,0,0,0,0,-1,531,827,0,0
-686,197,0,0,0,0,0,0,0,0,0,-1,538,827,0,0
-679,197,0,0,0,0,0,0,0,0,0,-1,545,827,0,0
-672,197,0,0,0,0,0,0,0,0,0,-1,552,827,0,0
-665,197,0,0,0,0,0,0,0,0,0,-1,559,827,0,0
-658,197,-26.8396,4.3996,0,0,0,0,0,0,0,-1,566,827,-26.8396,-4.39962
-651,197,-22.9185,7.49762,0,0,0,0,0,0,0,-1,573,827,-22.9185,-7.49761
-644,197,-19.8625,4.33221,0,0,0,0,0,0,0,-1,580,827,-19.8625,-4.33219
-637,197,-19.8143,3.51831,0,0,0,0,0,0,0,-1,587,827,-19.8143,-3.51831
-630,197,-19.7324,3.77753,0,0,0,0,0,0,0,-1,594,827,-19.7323,-3.77751
-623,197,-20.6605,2.81982,0,0,0,0,0,0,0,-1,601,827,-20.6605,-2.8198
-616,197,-19.4786,2.73358,0.0101341,0.00363723,-0.00376352,0.0118572,0.0019141,-0.429363,0.00735031,0.0473354,608,827,-19.4786,-2.7336
-609,197,-19.6187,2.30396,0.00609544,0.00277399,-0.00187122,0.00693661,0.00193282,-0.422463,0.00413361,0.0324709,615,827,-19.6187,-2.30398
-602,197,-19.7835,1.88928,0.0033679,0.00203229,-0.000691253,0.00366124,0.00173896,-0.401325,0.0021147,0.0172913,622,827,-19.7835,-1.8893
-595,197,-19.8243,1.50378,0.00160661,0.00136316,2.56448e-05,0.00160928,0.00136049,0.103822,0.00100029,0.0167849,629,827,-19.8244,-1.50378
-588,197,-19.8254,1.09534,7.01446e-05,0.000655195,0.000608142,0.00103751,-0.00031217,1.00957,0.000815885,0.0175109,636,827,-19.8254,-1.09533
-581,197,-19.8216,0.732605,-0.000648982,-9.40501e-05,0.00101822,0.000683828,-0.00142686,0.918419,0.00124352,0.0110297,643,827,-19.8216,-0.732601
-574,197,-19.828,0.351807,-0.000611861,-0.000499671,0.00102082,0.00046659,-0.00157812,0.812846,0.00123729,0.012736,650,827,-19.828,-0.351824
-567,197,-19.8287,-0.026123,-0.000757792,-0.000612171,0.00101898,0.000336594,-0.00170656,0.821065,0.00126492,0.0142619,657,827,-19.8287,0.0261402
-560,197,-19.8241,-0.389282,-0.00129237,-0.000326856,0.000857178,0.000174158,-0.00179339,1.04186,0.00125767,0.0185078,664,827,-19.8241,0.389303
-553,197,-20.0115,-0.73822,-0.00161467,0.000627318,0.000823587,0.000897339,-0.00188469,1.25398,0.00163958,0.0214666,671,827,-20.0115,0.738209
-546,197,-19.917,-1.09509,-0.00168324,0.00156479,0.000927472,0.00181097,-0.00192942,1.31135,0.00215988,0.0353395,678,827,-19.917,1.09512
-539,197,-19.7965,-1.36523,0,0,0,0,0,0,0,-1,685,827,-19.7965,1.36526
-532,197,-16.0519,0.0410156,0,0,0,0,0,0,0,-1,692,827,-16.0519,-0.0410415
-525,197,-26.6172,1.24329,0,0,0,0,0,0,0,-1,699,827,-26.6172,-1.24326
-518,197,-26.7535,1.0777,-0.00191959,0.00548681,0.00105055,0.00563294,-0.00206573,1.43258,0.00460113,0.0463168,706,827,-26.7535,-1.0777
-511,197,-26.8792,0.943115,-0.00167066,0.00660225,0.00100144,0.00672175,-0.00179016,1.45203,0.005182,0.045617,713,827,-26.8792,-0.943097
-504,197,-26.8434,1.05743,0,0,0,0,0,0,0,-1,720,827,-26.8435,-1.05746
-497,197,-27.2089,0.648071,0.000596787,0.0075736,0.000649664,0.00763358,0.000536808,1.47873,0.00491989,0.0406418,727,827,-27.2089,-0.648062
-490,197,-27.2242,0.656555,0.00375861,0.00613625,0.000165716,0.00614775,0.00374712,1.50154,0.00357767,0.0387157,734,827,-27.2243,-0.656547
-483,197,-27.1912,0.657227,0.0097645,0.0017148,-0.000588254,0.00980727,0.00167204,-0.0725639,0.00605824,0.0428656,741,827,-27.1912,-0.657245
-476,197,0,0,0,0,0,0,0,0,0,-1,748,827,0,0
-469,197,0,0,0,0,0,0,0,0,0,-1,755,827,0,0
-462,197,0,0,0,0,0,0,0,0,0,-1,762,827,0,0
-455,197,0,0,0,0,0,0,0,0,0,-1,769,827,0,0
-448,197,0,0,0,0,0,0,0,0,0,-1,776,827,0,0
-441,197,0,0,0,0,0,0,0,0,0,-1,783,827,0,0
-434,197,0,0,0,0,0,0,0,0,0,-1,790,827,0,0
-427,197,0,0,0,0,0,0,0,0,0,-1,797,827,0,0
-420,197,0,0,0,0,0,0,0,0,0,-1,804,827,0,0
-413,197,0,0,0,0,0,0,0,0,0,-1,811,827,0,0
-406,197,0,0,0,0,0,0,0,0,0,-1,818,827,0,0
-399,197,0,0,0,0,0,0,0,0,0,-1,825,827,0,0
-392,197,0,0,0,0,0,0,0,0,0,-1,832,827,0,0
-385,197,0,0,0,0,0,0,0,0,0,-1,839,827,0,0
-378,197,0,0,0,0,0,0,0,0,0,-1,846,827,0,0
-371,197,0,0,0,0,0,0,0,0,0,-1,853,827,0,0
-364,197,0,0,0,0,0,0,0,0,0,-1,860,827,0,0
-357,197,0,0,0,0,0,0,0,0,0,-1,867,827,0,0
-350,197,0,0,0,0,0,0,0,0,0,-1,874,827,0,0
-343,197,0,0,0,0,0,0,0,0,0,-1,881,827,0,0
-336,197,0,0,0,0,0,0,0,0,0,-1,888,827,0,0
-329,197,0,0,0,0,0,0,0,0,0,-1,895,827,0,0
-322,197,0,0,0,0,0,0,0,0,0,-1,902,827,0,0
-315,197,0,0,0,0,0,0,0,0,0,-1,909,827,0,0
-308,197,0,0,0,0,0,0,0,0,0,-1,916,827,0,0
-301,197,0,0,0,0,0,0,0,0,0,-1,923,827,0,0
-294,197,0,0,0,0,0,0,0,0,0,-1,930,827,0,0
-287,197,0,0,0,0,0,0,0,0,0,-1,937,827,0,0
-280,197,0,0,0,0,0,0,0,0,0,-1,944,827,0,0
-273,197,0,0,0,0,0,0,0,0,0,-1,951,827,0,0
-266,197,0,0,0,0,0,0,0,0,0,-1,958,827,0,0
-259,197,0,0,0,0,0,0,0,0,0,-1,965,827,0,0
-252,197,0,0,0,0,0,0,0,0,0,-1,972,827,0,0
-245,197,0,0,0,0,0,0,0,0,0,-1,979,827,0,0
-238,197,0,0,0,0,0,0,0,0,0,-1,986,827,0,0
-231,197,0,0,0,0,0,0,0,0,0,-1,993,827,0,0
-224,197,0,0,0,0,0,0,0,0,0,-1,1000,827,0,0
-217,197,0,0,0,0,0,0,0,0,0,-1,1007,827,0,0
-210,197,0,0,0,0,0,0,0,0,0,-1,1014,827,0,0
-203,197,0,0,0,0,0,0,0,0,0,-1,1021,827,0,0
-196,197,0,0,0,0,0,0,0,0,0,-1,1028,827,0,0
-189,197,0,0,0,0,0,0,0,0,0,-1,1035,827,0,0
-182,197,0,0,0,0,0,0,0,0,0,-1,1042,827,0,0
-175,197,0,0,0,0,0,0,0,0,0,-1,1049,827,0,0
-168,197,0,0,0,0,0,0,0,0,0,-1,1056,827,0,0
-161,197,0,0,0,0,0,0,0,0,0,-1,1063,827,0,0
-154,197,0,0,0,0,0,0,0,0,0,-1,1070,827,0,0
-147,197,0,0,0,0,0,0,0,0,0,-1,1077,827,0,0
-140,197,0,0,0,0,0,0,0,0,0,-1,1084,827,0,0
-133,197,0,0,0,0,0,0,0,0,0,-1,1091,827,0,0
-126,197,0,0,0,0,0,0,0,0,0,-1,1098,827,0,0
-119,197,0,0,0,0,0,0,0,0,0,-1,1105,827,0,0
-112,197,0,0,0,0,0,0,0,0,0,-1,1112,827,0,0
-105,197,0,0,0,0,0,0,0,0,0,-1,1119,827,0,0
-98,197,0,0,0,0,0,0,0,0,0,-1,1126,827,0,0
-91,197,0,0,0,0,0,0,0,0,0,-1,1133,827,0,0
-84,197,0,0,0,0,0,0,0,0,0,-1,1140,827,0,0
-77,197,0,0,0,0,0,0,0,0,0,-1,1147,827,0,0
-70,197,0,0,0,0,0,0,0,0,0,-1,1154,827,0,0
-63,197,0,0,0,0,0,0,0,0,0,-1,1161,827,0,0
-56,197,0,0,0,0,0,0,0,0,0,-1,1168,827,0,0
-49,197,0,0,0,0,0,0,0,0,0,-1,1175,827,0,0
-42,197,0,0,0,0,0,0,0,0,0,-1,1182,827,0,0
-35,197,0,0,0,0,0,0,0,0,0,-1,1189,827,0,0
-28,197,0,0,0,0,0,0,0,0,0,-1,1196,827,0,0
-21,197,0,0,0,0,0,0,0,0,0,-1,1203,827,0,0
-14,197,0,0,0,0,0,0,0,0,0,-1,1210,827,0,0
-7,197,0,0,0,0,0,0,0,0,0,-1,1217,827,0,0
0,197,0,0,0,0,0,0,0,0,0,-1,1224,827,0,0
7,197,0,0,0,0,0,0,0,0,0,-1,1231,827,0,0
14,197,0,0,0,0,0,0,0,0,0,-1,1238,827,0,0
21,197,0,0,0,0,0,0,0,0,0,-1,1245,827,0,0
28,197,0,0,0,0,0,0,0,0,0,-1,1252,827,0,0
35,197,0,0,0,0,0,0,0,0,0,-1,1259,827,0,0
42,197,0,0,0,0,0,0,0,0,0,-1,1266,827,0,0
49,197,0,0,0,0,0,0,0,0,0,-1,1273,827,0,0
56,197,0,0,0,0,0,0,0,0,0,-1,1280,827,0,0
63,197,0,0,0,0,0,0,0,0,0,-1,1287,827,0,0
70,197,0,0,0,0,0,0,0,0,0,-1,1294,827,0,0
77,197,0,0,0,0,0,0,0,0,0,-1,1301,827,0,0
84,197,0,0,0,0,0,0,0,0,0,-1,1308,827,0,0
91,197,0,0,0,0,0,0,0,0,0,-1,1315,827,0,0
98,197,0,0,0,0,0,0,0,0,0,-1,1322,827,0,0
105,197,0,0,0,0,0,0,0,0,0,-1,1329,827,0,0
112,197,0,0,0,0,0,0,0,0,0,-1,1336,827,0,0
119,197,0,0,0,0,0,0,0,0,0,-1,1343,827,0,0
126,197,0,0,0,0,0,0,0,0,0,-1,1350,827,0,0
133,197,0,0,0,0,0,0,0,0,0,-1,1357,827,0,0
140,197,0,0,0,0,0,0,0,0,0,-1,1364,827,0,0
147,197,0,0,0,0,0,0,0,0,0,-1,1371,827,0,0
154,197,0,0,0,0,0,0,0,0,0,-1,1378,827,0,0
161,197,0,0,0,0,0,0,0,0,0,-1,1385,827,0,0
168,197,0,0,0,0,0,0,0,0,0,-1,1392,827,0,0
175,197,0,0,0,0,0,0,0,0,0,-1,1399,827,0,0
182,197,0,0,0,0,0,0,0,0,0,-1,1406,827,0,0
189,197,0,0,0,0,0,0,0,0,0,-1,1413,827,0,0
196,197,0,0,0,0,0,0,0,0,0,-1,1420,827,0,0
203,197,0,0,0,0,0,0,0,0,0,-1,1427,827,0,0
210,197,0,0,0,0,0,0,0,0,0,-1,1434,827,0,0
217,197,0,0,0,0,0,0,0,0,0,-1,1441,827,0,0
224,197,0,0,0,0,0,0,0,0,0,-1,1448,827,0,0
231,197,0,0,0,0,0,0,0,0,0,-1,1455,827,0,0
238,197,0,0,0,0,0,0,0,0,0,-1,1462,827,0,0
245,197,0,0,0,0,0,0,0,0,0,-1,1469,827,0,0
252,197,0,0,0,0,0,0,0,0,0,-1,1476,827,0,0
259,197,0,0,0,0,0,0,0,0,0,-1,1483,827,0,0
266,197,0,0,0,0,0,0,0,0,0,-1,1490,827,0,0
273,197,0,0,0,0,0,0,0,0,0,-1,1497,827,0,0
280,197,0,0,0,0,0,0,0,0,0,-1,1504,827,0,0
287,197,0,0,0,0,0,0,0,0,0,-1,1511,827,0,0
294,197,0,0,0,0,0,0,0,0,0,-1,1518,827,0,0
301,197,0,0,0,0,0,0,0,0,0,-1,1525,827,0,0
308,197,0,0,0,0,0,0,0,0,0,-1,1532,827,0,0
315,197,0,0,0,0,0,0,0,0,0,-1,1539,827,0,0
322,197,0,0,0,0,0,0,0,0,0,-1,1546,827,0,0
329,197,0,0,0,0,0,0,0,0,0,-1,1553,827,0,0
336,197,0,0,0,0,0,0,0,0,0,-1,1560,827,0,0
343,197,0,0,0,0,0,0,0,0,0,-1,1567,827,0,0
350,197,0,0,0,0,0,0,0,0,0,-1,1574,827,0,0
357,197,0,0,0,0,0,0,0,0,0,-1,1581,827,0,0
364,197,0,0,0,0,0,0,0,0,0,-1,1588,827,0,0
371,197,0,0,0,0,0,0,0,0,0,-1,1595,827,0,0
378,197,0,0,0,0,0,0,0,0,0,-1,1602,827,0,0
385,197,0,0,0,0,0,0,0,0,0,-1,1609,827,0,0
392,197,0,0,0,0,0,0,0,0,0,-1,1616,827,0,0
399,197,0,0,0,0,0,0,0,0,0,-1,1623,827,0,0
406,197,0,0,0,0,0,0,0,0,0,-1,1630,827,0,0
413,197,0,0,0,0,0,0,0,0,0,-1,1637,827,0,0
420,197,0,0,0,0,0,0,0,0,0,-1,1644,827,0,0
427,197,0,0,0,0,0,0,0,0,0,-1,1651,827,0,0
434,197,0,0,0,0,0,0,0,0,0,-1,1658,827,0,0
441,197,0,0,0,0,0,0,0,0,0,-1,1665,827,0,0
448,197,0,0,0,0,0,0,0,0,0,-1,1672,827,0,0
455,197,0,0,0,0,0,0,0,0,0,-1,1679,827,0,0
462,197,0,0,0,0,0,0,0,0,0,-1,1686,827,0,0
469,197,0,0,0,0,0,0,0,0,0,-1,1693,827,0,0
476,197,0,0,0,0,0,0,0,0,0,-1,1700,827,0,0
483,197,0,0,0,0,0,0,0,0,0,-1,1707,827,0,0
490,197,0,0,0,0,0,0,0,0,0,-1,1714,827,0,0
497,197,0,0,0,0,0,0,0,0,0,-1,1721,827,0,0
504,197,0,0,0,0,0,0,0,0,0,-1,1728,827,0,0
511,197,0,0,0,0,0,0,0,0,0,-1,1735,827,0,0
518,197,0,0,0,0,0,0,0,0,0,-1,1742,827,0,0
525,197,0,0,0,0,0,0,0,0,0,-1,1749,827,0,0
532,197,0,0,0,0,0,0,0,0,0,-1,1756,827,0,0
539,197,0,0,0,0,0,0,0,0,0,-1,1763,827,0,0
546,197,0,0,0,0,0,0,0,0,0,-1,1770,827,0,0
553,197,0,0,0,0,0,0,0,0,0,-1,1777,827,0,0
560,197,0,0,0,0,0,0,0,0,0,-1,1784,827,0,0
567,197,0,0,0,0,0,0,0,0,0,-1,1791,827,0,0
574,197,0,0,0,0,0,0,0,0,0,-1,1798,827,0,0
581,197,0,0,0,0,0,0,0,0,0,-1,1805,827,0,0
588,197,0,0,0,0,0,0,0,0,0,-1,1812,827,0,0
595,197,0,0,0,0,0,0,0,0,0,-1,1819,827,0,0
602,197,37.1224,2.4129,-2.83866e-05,-0.00257509,-0.00366675,0.00257981,-0.00518329,-0.618277,0.00456527,0.0399539,1826,827,37.1224,-2.41293
609,197,36.9581,2.58826,0.000702108,-0.000847229,-0.00112739,0.00129533,-0.00144045,-0.484379,0.00158024,0.041207,1833,827,36.9581,-2.58825
616,197,36.9275,2.4762,0.00138199,0.000376325,0.000585678,0.00165108,0.000107239,0.430679,0.00106677,0.04133,1840,827,36.9275,-2.47619
623,197,36.8662,2.40515,0.00133454,0.000971114,0.00137235,0.00253715,-0.000231504,0.719577,0.00177365,0.0377945,1847,827,36.8662,-2.40513
630,197,36.9412,2.46576,0.00098726,0.00126475,0.0015568,0.00268898,-0.000436964,0.829842,0.00195465,0.0326796,1854,827,36.9412,-2.46577
637,197,36.9821,2.55853,0.000530552,0.00114331,0.00131392,0.0021861,-0.000512235,0.899942,0.00165479,0.0289169,1861,827,36.982,-2.55851
644,197,36.9224,2.54156,9.74613e-05,0.000870652,0.000973571,0.00153158,-0.000563462,0.974396,0.00125188,0.0320273,1868,827,36.9223,-2.54156
651,197,36.9973,2.70654,-0.000156718,0.000527047,0.000634471,0.000905885,-0.000535555,1.03252,0.000841321,0.0439052,1875,827,36.9974,-2.70655
658,197,37.0735,2.91986,0,0,0,0,0,0,0,-1,1882,827,37.0735,-2.91984
665,197,14.0618,1.80304,0,0,0,0,0,0,0,-1,1889,827,14.0617,-1.80303
672,197,28.521,0.656982,0,0,0,0,0,0,0,-1,1896,827,28.521,-0.656969
679,197,28.5188,0.981079,0,0,0,0,0,0,0,-1,1903,827,28.5188,-0.981059
686,197,28.6426,1.66394,-0.00112141,-0.000577703,-0.00116679,0.000348486,-0.0020476,-0.899852,0.00149483,0.0259581,1910,827,28.6425,-1.66392
693,197,28.5999,2.08954,-0.000655083,-0.000735976,-0.00127596,0.000581068,-0.00197213,-0.769554,0.0015453,0.0158878,1917,827,28.5999,-2.08956
700,197,28.6219,2.50537,-0.000343703,-0.000837786,-0.00119473,0.000629263,-0.00181075,-0.683447,0.00146276,0.0222526,1924,827,28.6219,-2.50537
707,197,28.6479,2.89526,-0.000265235,-0.000544462,-0.00109476,0.000698782,-0.00150848,-0.721976,0.00130263,0.00979054,1931,827,28.6479,-2.89525
714,197,28.6174,3.3006,0.000132008,0.000152643,-0.000773644,0.000916039,-0.000631387,-0.792066,0.000898431,0.0119788,1938,827,28.6174,-3.30062
721,197,28.6105,3.69666,0.000950683,0.000899838,-0.00048578,0.00141171,0.000438816,-0.759255,0.000834264,0.0115403,1945,827,28.6105,-3.69667
728,197,28.5874,4.10248,0.00183596,0.00165306,-0.00023746,0.00199897,0.00149005,-0.60159,0.00119955,0.010295,1952,827,28.5874,-4.1025
735,197,28.5536,4.49768,0.00289786,0.00250531,1.15788e-05,0.0028982,0.00250497,0.0294621,0.00181531,0.0113675,1959,827,28.5536,-4.49767
742,197,28.5266,4.90411,0.00426659,0.00348829,0.000278357,0.0043559,0.00339898,0.310457,0.00264334,0.0203603,1966,827,28.5266,-4.90413
749,197,28.3777,5.27179,0.00616929,0.00471486,0.000592202,0.00637991,0.00450424,0.341714,0.00378622,0.042686,1973,827,28.3777,-5.27177
756,197,28.4489,5.39703,0.00894288,0.00631761,0.000944785,0.00924753,0.00601296,0.311934,0.00541879,0.0466773,1980,827,28.4489,-5.39705
763,197,28.5649,5.66443,0.0127674,0.00858017,0.0011848,0.0130794,0.00826817,0.257491,0.00763879,0.0466454,1987,827,28.565,-5.66441
770,197,28.7996,6.03479,0,0,0,0,0,0,0,-1,1994,827,28.7995,-6.03477
777,197,0,0,0,0,0,0,0,0,0,-1,2001,827,0,0
784,197,0,0,0,0,0,0,0,0,0,-1,2008,827,0,0
791,197,0,0,0,0,0,0,0,0,0,-1,2015,827,0,0
798,197,0,0,0,0,0,0,0,0,0,-1,2022,827,0,0
805,197,0,0,0,0,0,0,0,0,0,-1,2029,827,0,0
812,197,0,0,0,0,0,0,0,0,0,-1,2036,827,0,0
-700,190,0,0,0,0,0,0,0,0,0,-1,524,834,0,0
-693,190,0,0,0,0,0,0,0,0,0,-1,531,834,0,0
-686,190,0,0,0,0,0,0,0,0,0,-1,538,834,0,0
-679,190,0,0,0,0,0,0,0,0,0,-1,545,834,0,0
-672,190,0,0,0,0,0,0,0,0,0,-1,552,834,0,0
-665,190,0,0,0,0,0,0,0,0,0,-1,559,834,0,0
-658,190,-26.4458,3.51239,0,0,0,0,0,0,0,-1,566,834,-26.4458,-3.51236
-651,190,-20.3549,5.09686,0,0,0,0,0,0,0,-1,573,834,-20.3548,-5.09687
-644,190,-20.2623,4.28912,0.0460313,0.00888499,-0.0188135,0.0538951,0.00102126,-0.395913,0.0355945,0.0499888,580,834,-20.2623,-4.28915
-637,190,-20.174,3.50201,0.0335145,0.00686793,-0.0130521,0.0388424,0.00154,-0.387559,0.0253972,0.0487563,587,834,-20.174,-3.502
-630,190,-20.4637,2.84778,0,0,0,0,0,0,0,-1,594,834,-20.4637,-2.84778
-623,190,-20.538,2.68787,0.0154448,0.00416525,-0.00520526,0.0174797,0.00213027,-0.372678,0.011012,0.0491169,601,834,-20.538,-2.68786
-616,190,-20.2501,2.48407,0.00967867,0.00324797,-0.00269551,0.0106591,0.00226758,-0.348838,0.00648373,0.0435072,608,834,-20.2501,-2.48409
-609,190,-20.1242,2.20776,0.00568377,0.00241877,-0.00101823,0.00597529,0.00212726,-0.27884,0.00349719,0.0250749,615,834,-20.1242,-2.20777
-602,190,-20.1626,1.89148,0.00299467,0.00174038,1.54816e-05,0.00299486,0.00174019,0.0123404,0.00173664,0.0165655,622,834,-20.1626,-1.89148
-595,190,-20.2011,1.51752,0.00127754,0.00112336,0.000624417,0.0018296,0.000571288,0.723978,0.00108086,0.0177936,629,834,-20.2011,-1.51752
-588,190,-20.2112,1.12476,-0.000187875,0.000456373,0.00108647,0.00126747,-0.000998972,0.929513,0.00131159,0.0157697,636,834,-20.2112,-1.12473
-581,190,-20.2012,0.745422,-0.000810326,-0.000207262,0.00134875,0.00087325,-0.00189084,0.895372,0.0016315,0.011332,643,834,-20.2012,-0.745399
-574,190,-20.2055,0.370483,-0.000669698,-0.000444848,0.00117541,0.000623503,-0.00173805,0.833077,0.00141315,0.0108085,650,834,-20.2055,-0.370498
-567,190,-20.1909,-0.0596313,-0.000739513,-0.000391267,0.00101672,0.000466134,-0.00159691,0.870205,0.00124932,0.0168735,657,834,-20.1908,0.0596404
-560,190,-20.2728,-0.39563,-0.00119341,-1.35985e-05,0.000742022,0.000344434,-0.00155144,1.12124,0.00116618,0.0346821,664,834,-20.2728,0.395633
-553,190,-20.3466,-0.741882,-0.00141353,0.000901109,0.000652534,0.00107239,-0.00158482,1.3141,0.00154362,0.0300325,671,834,-20.3466,0.74188
-546,190,-19.9616,-0.98291,0,0,0,0,0,0,0,-1,678,834,-19.9616,0.982908
-539,190,-16.4624,-0.542542,0,0,0,0,0,0,0,-1,685,834,-16.4624,0.542527
-532,190,-21.6292,2.06122,0,0,0,0,0,0,0,-1,692,834,-21.6292,-2.06123
-525,190,-27.031,0.856873,0,0,0,0,0,0,0,-1,699,834,-27.031,-0.856853
-518,190,-26.8917,0.995178,-0.00103547,0.00526276,0.000708954,0.00534158,-0.00111428,1.46008,0.00398476,0.0472405,706,834,-26.8918,-0.995197
-511,190,-26.9387,0.884399,-0.000502133,0.00625339,0.000745402,0.00633466,-0.000583402,1.4622,0.0044304,0.0451097,713,834,-26.9387,-0.884429
-504,190,-26.9982,0.898071,0.000672944,0.00682497,0.000764245,0.00691849,0.000579426,1.44904,0.00443183,0.0464599,720,834,-26.9982,-0.898096
-497,190,-27.0989,0.755981,0.00297247,0.0064524,0.000695501,0.00658625,0.00283861,1.38066,0.00381463,0.0465433,727,834,-27.0989,-0.755976
-490,190,-27.0073,0.73584,0.0072564,0.00417911,0.000543739,0.00734965,0.00408586,0.169845,0.00425216,0.0420236,734,834,-27.0073,-0.735867
-483,190,0,0,0,0,0,0,0,0,0,-1,741,834,0,0
-476,190,0,0,0,0,0,0,0,0,0,-1,748,834,0,0
-469,190,0,0,0,0,0,0,0,0,0,-1,755,834,0,0
-462,190,0,0,0,0,0,0,0,0,0,-1,762,834,0,0
-455,190,0,0,0,0,0,0,0,0,0,-1,769,834,0,0
-448,190,0,0,0,0,0,0,0,0,0,-1,776,834,0,0
-441,190,0,0,0,0,0,0,0,0,0,-1,783,834,0,0
-434,190,0,0,0,0,0,0,0,0,0,-1,790,834,0,0
-427,190,0,0,0,0,0,0,0,0,0,-1,797,834,0,0
-420,190,0,0,0,0,0,0,0,0,0,-1,804,834,0,0
-413,190,0,0,0,0,0,0,0,0,0,-1,811,834,0,0
-406,190,0,0,0,0,0,0,0,0,0,-1,818,834,0,0
-399,190,0,0,0,0,0,0,0,0,0,-1,825,834,0,0
-392,190,0,0,0,0,0,0,0,0,0,-1,832,834,0,0
-385,190,0,0,0,0,0,0,0,0,0,-1,839,834,0,0
-378,190,0,0,0,0,0,0,0,0,0,-1,846,834,0,0
-371,190,0,0,0,0,0,0,0,0,0,-1,853,834,0,0
-364,190,0,0,0,0,0,0,0,0,0,-1,860,834,0,0
-357,190,0,0,0,0,0,0,0,0,0,-1,867,834,0,0
-350,190,0,0,0,0,0,0,0,0,0,-1,874,834,0,0
-343,190,0,0,0,0,0,0,0,0,0,-1,881,834,0,0
-336,190,0,0,0,0,0,0,0,0,0,-1,888,834,0,0
-329,190,0,0,0,0,0,0,0,0,0,-1,895,834,0,0
-322,190,0,0,0,0,0,0,0,0,0,-1,902,834,0,0
-315,190,0,0,0,0,0,0,0,0,0,-1,909,834,0,0
-308,190,0,0,0,0,0,0,0,0,0,-1,916,834,0,0
-301,190,0,0,0,0,0,0,0,0,0,-1,923,834,0,0
-294,190,0,0,0,0,0,0,0,0,0,-1,930,834,0,0
-287,190,0,0,0,0,0,0,0,0,0,-1,937,834,0,0
-280,190,0,0,0,0,0,0,0,0,0,-1,944,834,0,0
-273,190,0,0,0,0,0,0,0,0,0,-1,951,834,0,0
-266,190,0,0,0,0,0,0,0,0,0,-1,958,834,0,0
-259,190,0,0,0,0,0,0,0,0,0,-1,965,834,0,0
-252,190,0,0,0,0,0,0,0,0,0,-1,972,834,0,0
-245,190,0,0,0,0,0,0,0,0,0,-1,979,834,0,0
-238,190,0,0,0,0,0,0,0,0,0,-1,986,834,0,0
-231,190,0,0,0,0,0,0,0,0,0,-1,993,834,0,0
-224,190,0,0,0,0,0,0,0,0,0,-1,1000,834,0,0
-217,190,0,0,0,0,0,0,0,0,0,-1,1007,834,0,0
-210,190,0,0,0,0,0,0,0,0,0,-1,1014,834,0,0
-203,190,0,0,0,0,0,0,0,0,0,-1,1021,834,0,0
-196,190,0,0,0,0,0,0,0,0,0,-1,1028,834,0,0
-189,190,0,0,0,0,0,0,0,0,0,-1,1035,834,0,0
-182,190,0,0,0,0,0,0,0,0,0,-1,1042,834,0,0
-175,190,0,0,0,0,0,0,0,0,0,-1,1049,834,0,0
-168,190,0,0,0,0,0,0,0,0,0,-1,1056,834,0,0
-161,190,0,0,0,0,0,0,0,0,0,-1,1063,834,0,0
-154,190,0,0,0,0,0,0,0,0,0,-1,1070,834,0,0
-147,190,0,0,0,0,0,0,0,0,0,-1,1077,834,0,0
-140,190,0,0,0,0,0,0,0,0,0,-1,1084,834,0,0
-133,190,0,0,0,0,0,0,0,0,0,-1,1091,834,0,0
-126,190,0,0,0,0,0,0,0,0,0,-1,1098,834,0,0
-119,190,0,0,0,0,0,0,0,0,0,-1,1105,834,0,0
-112,190,0,0,0,0,0,0,0,0,0,-1,1112,834,0,0
-105,190,0,0,0,0,0,0,0,0,0,-1,1119,834,0,0
-98,190,0,0,0,0,0,0,0,0,0,-1,1126,834,0,0
-91,190,0,0,0,0,0,0,0,0,0,-1,1133,834,0,0
-84,190,0,0,0,0,0,0,0,0,0,-1,1140,834,0,0
-77,190,0,0,0,0,0,0,0,0,0,-1,1147,834,0,0
-70,190,0,0,0,0,0,0,0,0,0,-1,1154,834,0,0
-63,190,0,0,0,0,0,0,0,0,0,-1,1161,834,0,0
-56,190,0,0,0,0,0,0,0,0,0,-1,1168,834,0,0
-49,190,0,0,0,0,0,0,0,0,0,-1,1175,834,0,0
-42,190,0,0,0,0,0,0,0,0,0,-1,1182,834,0,0
-35,190,0,0,0,0,0,0,0,0,0,-1,1189,834,0,0
-28,190,0,0,0,0,0,0,0,0,0,-1,1196,834,0,0
-21,190,0,0,0,0,0,0,0,0,0,-1,1203,834,0,0
-14,190,0,0,0,0,0,0,0,0,0,-1,1210,834,0,0
-7,190,0,0,0,0,0,0,0,0,0,-1,1217,834,0,0
0,190,0,0,0,0,0,0,0,0,0,-1,1224,834,0,0
7,190,0,0,0,0,0,0,0,0,0,-1,1231,834,0,0
14,190,0,0,0,0,0,0,0,0,0,-1,1238,834,0,0
21,190,0,0,0,0,0,0,0,0,0,-1,1245,834,0,0
28,190,0,0,0,0,0,0,0,0,0,-1,1252,834,0,0
35,190,0,0,0,0,0,0,0,0,0,-1,1259,834,0,0
42,190,0,0,0,0,0,0,0,0,0,-1,1266,834,0,0
49,190,0,0,0,0,0,0,0,0,0,-1,1273,834,0,0
56,190,0,0,0,0,0,0,0,0,0,-1,1280,834,0,0
63,190,0,0,0,0,0,0,0,0,0,-1,1287,834,0,0
70,190,0,0,0,0,0,0,0,0,0,-1,1294,834,0,0
77,190,0,0,0,0,0,0,0,0,0,-1,1301,834,0,0
84,190,0,0,0,0,0,0,0,0,0,-1,1308,834,0,0
91,190,0,0,0,0,0,0,0,0,0,-1,1315,834,0,0
98,190,0,0,0,0,0,0,0,0,0,-1,1322,834,0,0
105,190,0,0,0,0,0,0,0,0,0,-1,1329,834,0,0
112,190,0,0,0,0,0,0,0,0,0,-1,1336,834,0,0
119,190,0,0,0,0,0,0,0,0,0,-1,1343,834,0,0
126,190,0,0,0,0,0,0,0,0,0,-1,1350,834,0,0
133,190,0,0,0,0,0,0,0,0,0,-1,1357,834,0,0
140,190,0,0,0,0,0,0,0,0,0,-1,1364,834,0,0
147,190,0,0,0,0,0,0,0,0,0,-1,1371,834,0,0
154,190,0,0,0,0,0,0,0,0,0,-1,1378,834,0,0
161,190,0,0,0,0,0,0,0,0,0,-1,1385,834,0,0
168,190,0,0,0,0,0,0,0,0,0,-1,1392,834,0,0
175,190,0,0,0,0,0,0,0,0,0,-1,1399,834,0,0
182,190,0,0,0,0,0,0,0,0,0,-1,1406,834,0,0
189,190,0,0,0,0,0,0,0,0,0,-1,1413,834,0,0
196,190,0,0,0,0,0,0,0,0,0,-1,1420,834,0,0
203,190,0,0,0,0,0,0,0,0,0,-1,1427,834,0,0
210,190,0,0,0,0,0,0,0,0,0,-1,1434,834,0,0
217,190,0,0,0,0,0,0,0,0,0,-1,1441,834,0,0
224,190,0,0,0,0,0,0,0,0,0,-1,1448,834,0,0
231,190,0,0,0,0,0,0,0,0,0,-1,1455,834,0,0
238,190,0,0,0,0,0,0,0,0,0,-1,1462,834,0,0
245,190,0,0,0,0,0,0,0,0,0,-1,1469,834,0,0
252,190,0,0,0,0,0,0,0,0,0,-1,1476,834,0,0
259,190,0,0,0,0,0,0,0,0,0,-1,1483,834,0,0
266,190,0,0,0,0,0,0,0,0,0,-1,1490,834,0,0
273,190,0,0,0,0,0,0,0,0,0,-1,1497,834,0,0
280,190,0,0,0,0,0,0,0,0,0,-1,1504,834,0,0
287,190,0,0,0,0,0,0,0,0,0,-1,1511,834,0,0
294,190,0,0,0,0,0,0,0,0,0,-1,1518,834,0,0
301,190,0,0,0,0,0,0,0,0,0,-1,1525,834,0,0
308,190,0,0,0,0,0,0,0,0,0,-1,1532,834,0,0
315,190,0,0,0,0,0,0,0,0,0,-1,1539,834,0,0
322,190,0,0,0,0,0,0,0,0,0,-1,1546,834,0,0
329,190,0,0,0,0,0,0,0,0,0,-1,1553,834,0,0
336,190,0,0,0,0,0,0,0,0,0,-1,1560,834,0,0
343,190,0,0,0,0,0,0,0,0,0,-1,1567,834,0,0
350,190,0,0,0,0,0,0,0,0,0,-1,1574,834,0,0
357,190,0,0,0,0,0,0,0,0,0,-1,1581,834,0,0
364,190,0,0,0,0,0,0,0,0,0,-1,1588,834,0,0
371,190,0,0,0,0,0,0,0,0,0,-1,1595,834,0,0
378,190,0,0,0,0,0,0,0,0,0,-1,1602,834,0,0
385,190,0,0,0,0,0,0,0,0,0,-1,1609,834,0,0
392,190,0,0,0,0,0,0,0,0,0,-1,1616,834,0,0
399,190,0,0,0,0,0,0,0,0,0,-1,1623,834,0,0
406,190,0,0,0,0,0,0,0,0,0,-1,1630,834,0,0
413,190,0,0,0,0,0,0,0,0,0,-1,1637,834,0,0
420,190,0,0,0,0,0,0,0,0,0,-1,1644,834,0,0
427,190,0,0,0,0,0,0,0,0,0,-1,1651,834,0,0
434,190,0,0,0,0,0,0,0,0,0,-1,1658,834,0,0
441,190,0,0,0,0,0,0,0,0,0,-1,1665,834,0,0
448,190,0,0,0,0,0,0,0,0,0,-1,1672,834,0,0
455,190,0,0,0,0,0,0,0,0,0,-1,1679,834,0,0
462,190,0,0,0,0,0,0,0,0,0,-1,1686,834,0,0
469,190,0,0,0,0,0,0,0,0,0,-1,1693,834,0,0
476,190,0,0,0,0,0,0,0,0,0,-1,1700,834,0,0
483,190,0,0,0,0,0,0,0,0,0,-1,1707,834,0,0
490,190,0,0,0,0,0,0,0,0,0,-1,1714,834,0,0
497,190,0,0,0,0,0,0,0,0,0,-1,1721,834,0,0
504,190,0,0,0,0,0,0,0,0,0,-1,1728,834,0,0
511,190,0,0,0,0,0,0,0,0,0,-1,1735,834,0,0
518,190,0,0,0,0,0,0,0,0,0,-1,1742,834,0,0
525,190,0,0,0,0,0,0,0,0,0,-1,1749,834,0,0
532,190,0,0,0,0,0,0,0,0,0,-1,1756,834,0,0
539,190,0,0,0,0,0,0,0,0,0,-1,1763,834,0,0
546,190,0,0,0,0,0,0,0,0,0,-1,1770,834,0,0
553,190,0,0,0,0,0,0,0,0,0,-1,1777,834,0,0
560,190,0,0,0,0,0,0,0,0,0,-1,1784,834,0,0
567,190,0,0,0,0,0,0,0,0,0,-1,1791,834,0,0
574,190,0,0,0,0,0,0,0,0,0,-1,1798,834,0,0
581,190,0,0,0,0,0,0,0,0,0,-1,1805,834,0,0
588,190,0,0,0,0,0,0,0,0,0,-1,1812,834,0,0
595,190,0,0,0,0,0,0,0,0,0,-1,1819,834,0,0
602,190,37.1201,2.60205,0.000620139,-0.00413813,-0.00361597,0.00256946,-0.00608745,-0.494426,0.0051338,0.0423925,1826,834,37.1201,-2.60205
609,190,36.9135,2.66644,0.000834191,-0.00212667,-0.00116479,0.00123748,-0.00252996,-0.333317,0.00221739,0.0409935,1833,834,36.9134,-2.66644
616,190,36.9546,2.44885,0.00133818,-0.000479015,0.000466586,0.00145098,-0.000591814,0.237203,0.00121368,0.0398509,1840,834,36.9546,-2.44886
623,190,36.8866,2.44348,0.00125075,0.000543156,0.00126665,0.00221209,-0.000418184,0.649211,0.00163208,0.0367453,1847,834,36.8867,-2.44348
630,190,36.9138,2.51556,0.000921392,0.00115779,0.00147377,0.00251809,-0.000438911,0.825413,0.00184254,0.0415491,1854,834,36.9139,-2.51556
637,190,36.9563,2.61725,0.000494586,0.00123305,0.0012532,0.00217028,-0.00044264,0.928661,0.00161475,0.0354268,1861,834,36.9563,-2.61726
644,190,36.9326,2.63171,0.000120929,0.00104642,0.000916215,0.00161012,-0.000442767,1.01924,0.00124747,0.0269741,1868,834,36.9326,-2.6317
651,190,36.9633,2.64331,-7.22006e-05,0.000740539,0.000587055,0.00104815,-0.000379813,1.08814,0.000854005,0.0363872,1875,834,36.9632,-2.64334
658,190,37.04,2.67236,0,0,0,0,0,0,0,-1,1882,834,37.04,-2.67239
665,190,25.9916,3.05157,0,0,0,0,0,0,0,-1,1889,834,25.9916,-3.05156
672,190,27.2662,1.70862,0,0,0,0,0,0,0,-1,1896,834,27.2662,-1.70861
679,190,29.1434,1.46063,0,0,0,0,0,0,0,-1,1903,834,29.1434,-1.46066
686,190,29.0308,1.75732,-0.00102157,-0.000290184,-0.00107077,0.000475616,-0.00178737,-0.94995,0.00137776,0.0218155,1910,834,29.0308,-1.7573
693,190,29.0498,2.10565,-0.000636274,-0.000437302,-0.00119393,0.000661281,-0.00173486,-0.826965,0.00142895,0.0147098,1917,834,29.0499,-2.10563
700,190,29.0093,2.50177,-0.000430118,-0.000612674,-0.00114271,0.000624951,-0.00166774,-0.745543,0.00136857,0.0123842,1924,834,29.0093,-2.50178
707,190,29.031,2.89105,-0.000520066,-0.000449982,-0.0011133,0.000628823,-0.00159887,-0.801131,0.00132618,0.0129116,1931,834,29.031,-2.89107
714,190,29.0267,3.2818,-0.000331008,0.000121694,-0.000899152,0.000822548,-0.00103186,-0.908705,0.00107292,0.0113516,1938,834,29.0268,-3.28178
721,190,28.999,3.69586,0.000353249,0.000827994,-0.000734886,0.00136289,-0.00018165,-0.941612,0.000974803,0.0102925,1945,834,28.9991,-3.69587
728,190,28.9972,4.08838,0.00113333,0.00156402,-0.000591424,0.00197808,0.000719264,-0.959994,0.00115612,0.0124938,1952,834,28.9972,-4.08835
735,190,29.0078,4.4668,0.00210231,0.00240671,-0.000458146,0.00273728,0.00177174,-0.945769,0.00160305,0.0122683,1959,834,29.0078,-4.46677
742,190,28.9801,4.89075,0.00335348,0.00339777,-0.000310115,0.00368653,0.00306472,-0.821044,0.00227887,0.0160612,1966,834,28.9802,-4.89076
749,190,28.9141,5.33783,0.00509936,0.00461968,-0.00013066,0.00513264,0.0045864,-0.249416,0.00325499,0.0394054,1973,834,28.914,-5.33786
756,190,28.8983,5.80273,0,0,0,0,0,0,0,-1,1980,834,28.8983,-5.80276
763,190,28.6952,5.30896,0,0,0,0,0,0,0,-1,1987,834,28.6951,-5.30897
770,190,28.8807,5.53723,0,0,0,0,0,0,0,-1,1994,834,28.8807,-5.53724
777,190,29.37,5.19446,0,0,0,0,0,0,0,-1,2001,834,29.3699,-5.19447
784,190,0,0,0,0,0,0,0,0,0,-1,2008,834,0,0
791,190,0,0,0,0,0,0,0,0,0,-1,2015,834,0,0
798,190,0,0,0,0,0,0,0,0,0,-1,2022,834,0,0
805,190,0,0,0,0,0,0,0,0,0,-1,2029,834,0,0
812,190,0,0,0,0,0,0,0,0,0,-1,2036,834,0,0
-700,183,0,0,0,0,0,0,0,0,0,-1,524,841,0,0
-693,183,0,0,0,0,0,0,0,0,0,-1,531,841,0,0
-686,183,0,0,0,0,0,0,0,0,0,-1,538,841,0,0
-679,183,0,0,0,0,0,0,0,0,0,-1,545,841,0,0
-672,183,0,0,0,0,0,0,0,0,0,-1,552,841,0,0
-665,183,0,0,0,0,0,0,0,0,0,-1,559,841,0,0
-658,183,-26.5705,2.82166,0,0,0,0,0,0,0,-1,566,841,-26.5705,-2.82164
-651,183,-21.1123,5.24487,0,0,0,0,0,0,0,-1,573,841,-21.1123,-5.24486
-644,183,-20.7438,4.37286,0.0463545,0.00834346,-0.0163893,0.0524452,0.00225277,-0.355809,0.0342372,0.0460414,580,841,-20.7438,-4.37288
-637,183,-20.5422,3.51392,0.0331629,0.00631261,-0.0110298,0.0371128,0.00236274,-0.34388,0.0239931,0.0447422,587,841,-20.5422,-3.5139
-630,183,-20.5077,2.84918,0.0227822,0.00478211,-0.00699991,0.0251839,0.00238041,-0.330518,0.0160547,0.0435282,594,841,-20.5077,-2.84918
-623,183,-20.5739,2.62689,0.0147513,0.00365639,-0.00394916,0.0160134,0.00239429,-0.309329,0.00997378,0.0450288,601,841,-20.5739,-2.62687
-616,183,-20.5613,2.51855,0.00904679,0.00276797,-0.00173402,0.00949384,0.00232092,-0.252318,0.0057149,0.0366738,608,841,-20.5613,-2.51854
-609,183,-20.5275,2.25201,0.005171,0.00204505,-0.000288696,0.00519744,0.00201861,-0.0913254,0.00302556,0.0165636,615,841,-20.5275,-2.252
-602,183,-20.55,1.87122,0.00259955,0.00146542,0.000583971,0.00284648,0.00121849,0.400043,0.00164907,0.011775,622,841,-20.55,-1.87123
-595,183,-20.5822,1.48462,0.00100942,0.000955542,0.0010665,0.00204932,-8.43594e-05,0.772771,0.00139519,0.0111769,629,841,-20.5822,-1.4846
-588,183,-20.5849,1.10236,-0.000297943,0.000400571,0.00139483,0.0014892,-0.00138658,0.908073,0.00166068,0.0115672,636,841,-20.5849,-1.10239
-581,183,-20.5999,0.737488,-0.000758867,-0.000114444,0.00150715,0.00110455,-0.00197786,0.890708,0.00180328,0.0124705,643,841,-20.5999,-0.737516
-574,183,-20.5908,0.401062,-0.00050906,-0.000222323,0.0011892,0.000832123,-0.00156351,0.845388,0.00140444,0.0124559,650,841,-20.5907,-0.401081
-567,183,-20.5059,-0.00665283,-0.000532264,-4.17112e-05,0.000909096,0.000654616,-0.00122859,0.917162,0.00110397,0.0328505,657,841,-20.5058,0.00663272
-560,183,-20.711,-0.30072,-0.000932681,0.000340189,0.00055609,0.000548908,-0.0011414,1.21173,0.000995683,0.0389241,664,841,-20.711,0.300746
-553,183,-20.5869,-0.791565,-0.00108759,0.00114631,0.000409338,0.00121896,-0.00116023,1.39516,0.00137377,0.0342948,671,841,-20.5869,0.79155
-546,183,-19.923,-1.17493,0,0,0,0,0,0,0,-1,678,841,-19.923,1.17494
-539,183,-16.8032,-0.417297,0,0,0,0,0,0,0,-1,685,841,-16.8032,0.41732
-532,183,-27.2709,0.434326,0,0,0,0,0,0,0,-1,692,841,-27.2709,-0.434322
-525,183,-27.1194,0.654236,-0.000317046,0.00378336,0.000197972,0.00379289,-0.000326582,1.52266,0.00264419,0.0476555,699,841,-27.1194,-0.654206
-518,183,-26.955,0.873413,-1.95085e-05,0.00464464,0.000162756,0.00465031,-2.51809e-05,1.53596,0.00310864,0.0438879,706,841,-26.955,-0.873393
-511,183,-27.0737,0.719727,0.000820089,0.00537038,0.000248325,0.00538389,0.000806577,1.51644,0.0033529,0.0416677,713,841,-27.0737,-0.719753
-504,183,-27.1898,0.658752,0.00252346,0.00558571,0.000389018,0.00563435,0.00247481,1.44639,0.00326099,0.042728,720,841,-27.1898,-0.658734
-497,183,-27.1529,0.727356,0.00560167,0.0047273,0.000564232,0.00587827,0.0044507,0.455796,0.00354027,0.0444451,727,841,-27.1529,-0.72733
-490,183,-26.8607,0.845886,0.0106913,0.00196254,0.000901336,0.0107834,0.00187044,0.101829,0.00665367,0.0422723,734,841,-26.8607,-0.845889
-483,183,0,0,0,0,0,0,0,0,0,-1,741,841,0,0
-476,183,0,0,0,0,0,0,0,0,0,-1,748,841,0,0
-469,183,0,0,0,0,0,0,0,0,0,-1,755,841,0,0
-462,183,0,0,0,0,0,0,0,0,0,-1,762,841,0,0
-455,183,0,0,0,0,0,0,0,0,0,-1,769,841,0,0
-448,183,0,0,0,0,0,0,0,0,0,-1,776,841,0,0
-441,183,0,0,0,0,0,0,0,0,0,-1,783,841,0,0
-434,183,0,0,0,0,0,0,0,0,0,-1,790,841,0,0
-427,183,0,0,0,0,0,0,0,0,0,-1,797,841,0,0
-420,183,0,0,0,0,0,0,0,0,0,-1,804,841,0,0
-413,183,0,0,0,0,0,0,0,0,0,-1,811,841,0,0
-406,183,0,0,0,0,0,0,0,0,0,-1,818,841,0,0
-399,183,0,0,0,0,0,0,0,0,0,-1,825,841,0,0
-392,183,0,0,0,0,0,0,0,0,0,-1,832,841,0,0
-385,183,0,0,0,0,0,0,0,0,0,-1,839,841,0,0
-378,183,0,0,0,0,0,0,0,0,0,-1,846,841,0,0
-371,183,0,0,0,0,0,0,0,0,0,-1,853,841,0,0
-364,183,0,0,0,0,0,0,0,0,0,-1,860,841,0,0
-357,183,0,0,0,0,0,0,0,0,0,-1,867,841,0,0
-350,183,0,0,0,0,0,0,0,0,0,-1,874,841,0,0
-343,183,0,0,0,0,0,0,0,0,0,-1,881,841,0,0
-336,183,0,0,0,0,0,0,0,0,0,-1,888,841,0,0
-329,183,0,0,0,0,0,0,0,0,0,-1,895,841,0,0
-322,183,0,0,0,0,0,0,0,0,0,-1,902,841,0,0
-315,183,0,0,0,0,0,0,0,0,0,-1,909,841,0,0
-308,183,0,0,0,0,0,0,0,0,0,-1,916,841,0,0
-301,183,0,0,0,0,0,0,0,0,0,-1,923,841,0,0
-294,183,0,0,0,0,0,0,0,0,0,-1,930,841,0,0
-287,183,0,0,0,0,0,0,0,0,0,-1,937,841,0,0
-280,183,0,0,0,0,0,0,0,0,0,-1,944,841,0,0
-273,183,0,0,0,0,0,0,0,0,0,-1,951,841,0,0
-266,183,0,0,0,0,0,0,0,0,0,-1,958,841,0,0
-259,183,0,0,0,0,0,0,0,0,0,-1,965,841,0,0
-252,183,0,0,0,0,0,0,0,0,0,-1,972,841,0,0
-245,183,0,0,0,0,0,0,0,0,0,-1,979,841,0,0
-238,183,0,0,0,0,0,0,0,0,0,-1,986,841,0,0
-231,183,0,0,0,0,0,0,0,0,0,-1,993,841,0,0
-224,183,0,0,0,0,0,0,0,0,0,-1,1000,841,0,0
-217,183,0,0,0,0,0,0,0,0,0,-1,1007,841,0,0
-210,183,0,0,0,0,0,0,0,0,0,-1,1014,841,0,0
-203,183,0,0,0,0,0,0,0,0,0,-1,1021,841,0,0
-196,183,0,0,0,0,0,0,0,0,0,-1,1028,841,0,0
-189,183,0,0,0,0,0,0,0,0,0,-1,1035,841,0,0
-182,183,0,0,0,0,0,0,0,0,0,-1,1042,841,0,0
-175,183,0,0,0,0,0,0,0,0,0,-1,1049,841,0,0
-168,183,0,0,0,0,0,0,0,0,0,-1,1056,841,0,0
-161,183,0,0,0,0,0,0,0,0,0,-1,1063,841,0,0
-154,183,0,0,0,0,0,0,0,0,0,-1,1070,841,0,0
-147,183,0,0,0,0,0,0,0,0,0,-1,1077,841,0,0
-140,183,0,0,0,0,0,0,0,0,0,-1,1084,841,0,0
-133,183,0,0,0,0,0,0,0,0,0,-1,1091,841,0,0
-126,183,0,0,0,0,0,0,0,0,0,-1,1098,841,0,0
-119,183,0,0,0,0,0,0,0,0,0,-1,1105,841,0,0
-112,183,0,0,0,0,0,0,0,0,0,-1,1112,841,0,0
-105,183,0,0,0,0,0,0,0,0,0,-1,1119,841,0,0
-98,183,0,0,0,0,0,0,0,0,0,-1,1126,841,0,0
-91,183,0,0,0,0,0,0,0,0,0,-1,1133,841,0,0
-84,183,0,0,0,0,0,0,0,0,0,-1,1140,841,0,0
-77,183,0,0,0,0,0,0,0,0,0,-1,1147,841,0,0
-70,183,0,0,0,0,0,0,0,0,0,-1,1154,841,0,0
-63,183,0,0,0,0,0,0,0,0,0,-1,1161,841,0,0
-56,183,0,0,0,0,0,0,0,0,0,-1,1168,841,0,0
-49,183,0,0,0,0,0,0,0,0,0,-1,1175,841,0,0
-42,183,0,0,0,0,0,0,0,0,0,-1,1182,841,0,0
-35,183,0,0,0,0,0,0,0,0,0,-1,1189,841,0,0
-28,183,0,0,0,0,0,0,0,0,0,-1,1196,841,0,0
-21,183,0,0,0,0,0,0,0,0,0,-1,1203,841,0,0
-14,183,0,0,0,0,0,0,0,0,0,-1,1210,841,0,0
-7,183,0,0,0,0,0,0,0,0,0,-1,1217,841,0,0
0,183,0,0,0,0,0,0,0,0,0,-1,1224,841,0,0
7,183,0,0,0,0,0,0,0,0,0,-1,1231,841,0,0
14,183,0,0,0,0,0,0,0,0,0,-1,1238,841,0,0
21,183,0,0,0,0,0,0,0,0,0,-1,1245,841,0,0
28,183,0,0,0,0,0,0,0,0,0,-1,1252,841,0,0
35,183,0,0,0,0,0,0,0,0,0,-1,1259,841,0,0
42,183,0,0,0,0,0,0,0,0,0,-1,1266,841,0,0
49,183,0,0,0,0,0,0,0,0,0,-1,1273,841,0,0
56,183,0,0,0,0,0,0,0,0,0,-1,1280,841,0,0
63,183,0,0,0,0,0,0,0,0,0,-1,1287,841,0,0
70,183,0,0,0,0,0,0,0,0,0,-1,1294,841,0,0
77,183,0,0,0,0,0,0,0,0,0,-1,1301,841,0,0
84,183,0,0,0,0,0,0,0,0,0,-1,1308,841,0,0
91,183,0,0,0,0,0,0,0,0,0,-1,1315,841,0,0
98,183,0,0,0,0,0,0,0,0,0,-1,1322,841,0,0
105,183,0,0,0,0,0,0,0,0,0,-1,1329,841,0,0
112,183,0,0,0,0,0,0,0,0,0,-1,1336,841,0,0
119,183,0,0,0,0,0,0,0,0,0,-1,1343,841,0,0
126,183,0,0,0,0,0,0,0,0,0,-1,1350,841,0,0
133,183,0,0,0,0,0,0,0,0,0,-1,1357,841,0,0
140,183,0,0,0,0,0,0,0,0,0,-1,1364,841,0,0
147,183,0,0,0,0,0,0,0,0,0,-1,1371,841,0,0
154,183,0,0,0,0,0,0,0,0,0,-1,1378,841,0,0
161,183,0,0,0,0,0,0,0,0,0,-1,1385,841,0,0
168,183,0,0,0,0,0,0,0,0,0,-1,1392,841,0,0
175,183,0,0,0,0,0,0,0,0,0,-1,1399,841,0,0
182,183,0,0,0,0,0,0,0,0,0,-1,1406,841,0,0
189,183,0,0,0,0,0,0,0,0,0,-1,1413,841,0,0
196,183,0,0,0,0,0,0,0,0,0,-1,1420,841,0,0
203,183,0,0,0,0,0,0,0,0,0,-1,1427,841,0,0
210,183,0,0,0,0,0,0,0,0,0,-1,1434,841,0,0
217,183,0,0,0,0,0,0,0,0,0,-1,1441,841,0,0
224,183,0,0,0,0,0,0,0,0,0,-1,1448,841,0,0
231,183,0,0,0,0,0,0,0,0,0,-1,1455,841,0,0
238,183,0,0,0,0,0,0,0,0,0,-1,1462,841,0,0
245,183,0,0,0,0,0,0,0,0,0,-1,1469,841,0,0
252,183,0,0,0,0,0,0,0,0,0,-1,1476,841,0,0
259,183,0,0,0,0,0,0,0,0,0,-1,1483,841,0,0
266,183,0,0,0,0,0,0,0,0,0,-1,1490,841,0,0
273,183,0,0,0,0,0,0,0,0,0,-1,1497,841,0,0
280,183,0,0,0,0,0,0,0,0,0,-1,1504,841,0,0
287,183,0,0,0,0,0,0,0,0,0,-1,1511,841,0,0
294,183,0,0,0,0,0,0,0,0,0,-1,1518,841,0,0
301,183,0,0,0,0,0,0,0,0,0,-1,1525,841,0,0
308,183,0,0,0,0,0,0,0,0,0,-1,1532,841,0,0
315,183,0,0,0,0,0,0,0,0,0,-1,1539,841,0,0
322,183,0,0,0,0,0,0,0,0,0,-1,1546,841,0,0
329,183,0,0,0,0,0,0,0,0,0,-1,1553,841,0,0
336,183,0,0,0,0,0,0,0,0,0,-1,1560,841,0,0
343,183,0,0,0,0,0,0,0,0,0,-1,1567,841,0,0
350,183,0,0,0,0,0,0,0,0,0,-1,1574,841,0,0
357,183,0,0,0,0,0,0,0,0,0,-1,1581,841,0,0
364,183,0,0,0,0,0,0,0,0,0,-1,1588,841,0,0
371,183,0,0,0,0,0,0,0,0,0,-1,1595,841,0,0
378,183,0,0,0,0,0,0,0,0,0,-1,1602,841,0,0
385,183,0,0,0,0,0,0,0,0,0,-1,1609,841,0,0
392,183,0,0,0,0,0,0,0,0,0,-1,1616,841,0,0
399,183,0,0,0,0,0,0,0,0,0,-1,1623,841,0,0
406,183,0,0,0,0,0,0,0,0,0,-1,1630,841,0,0
413,183,0,0,0,0,0,0,0,0,0,-1,1637,841,0,0
420,183,0,0,0,0,0,0,0,0,0,-1,1644,841,0,0
427,183,0,0,0,0,0,0,0,0,0,-1,1651,841,0,0
434,183,0,0,0,0,0,0,0,0,0,-1,1658,841,0,0
441,183,0,0,0,0,0,0,0,0,0,-1,1665,841,0,0
448,183,0,0,0,0,0,0,0,0,0,-1,1672,841,0,0
455,183,0,0,0,0,0,0,0,0,0,-1,1679,841,0,0
462,183,0,0,0,0,0,0,0,0,0,-1,1686,841,0,0
469,183,0,0,0,0,0,0,0,0,0,-1,1693,841,0,0
476,183,0,0,0,0,0,0,0,0,0,-1,1700,841,0,0
483,183,0,0,0,0,0,0,0,0,0,-1,1707,841,0,0
490,183,0,0,0,0,0,0,0,0,0,-1,1714,841,0,0
497,183,0,0,0,0,0,0,0,0,0,-1,1721,841,0,0
504,183,0,0,0,0,0,0,0,0,0,-1,1728,841,0,0
511,183,0,0,0,0,0,0,0,0,0,-1,1735,841,0,0
518,183,0,0,0,0,0,0,0,0,0,-1,1742,841,0,0
525,183,0,0,0,0,0,0,0,0,0,-1,1749,841,0,0
532,183,0,0,0,0,0,0,0,0,0,-1,1756,841,0,0
539,183,0,0,0,0,0,0,0,0,0,-1,1763,841,0,0
546,183,0,0,0,0,0,0,0,0,0,-1,1770,841,0,0
553,183,0,0,0,0,0,0,0,0,0,-1,1777,841,0,0
560,183,0,0,0,0,0,0,0,0,0,-1,1784,841,0,0
567,183,0,0,0,0,0,0,0,0,0,-1,1791,841,0,0
574,183,0,0,0,0,0,0,0,0,0,-1,1798,841,0,0
581,183,0,0,0,0,0,0,0,0,0,-1,1805,841,0,0
588,183,0,0,0,0,0,0,0,0,0,-1,1812,841,0,0
595,183,0,0,0,0,0,0,0,0,0,-1,1819,841,0,0
602,183,0,0,0,0,0,0,0,0,0,-1,1826,841,0,0
609,183,36.8625,2.62042,0.00175578,-0.00299616,-0.0006302,0.00183794,-0.00307831,-0.129635,0.00286836,0.0395198,1833,841,36.8625,-2.62041
616,183,36.9453,2.48828,0.00192519,-0.00121611,0.000571858,0.00202605,-0.00131698,0.174586,0.00194452,0.03682,1840,841,36.9453,-2.48827
623,183,37.1364,2.43878,0.00160397,2.97374e-05,0.00117818,0.00223378,-0.000600067,0.490909,0.00172437,0.0380663,1847,841,37.1363,-2.43877
630,183,37.0464,2.5332,0.00113683,0.000882335,0.00131811,0.00233382,-0.000314657,0.737279,0.00167067,0.0399375,1854,841,37.0463,-2.53318
637,183,36.979,2.59808,0.000659969,0.00117937,0.00112697,0.00207618,-0.000236838,0.898642,0.00146944,0.0355473,1861,841,36.979,-2.59807
644,183,36.8906,2.62042,0.000297236,0.0011059,0.000824914,0.00162024,-0.00021711,1.01327,0.00115933,0.0278447,1868,841,36.8906,-2.62044
651,183,36.9153,2.6087,8.63582e-05,0.000864781,0.000520623,0.0011256,-0.000174457,1.10638,0.000814799,0.0247956,1875,841,36.9153,-2.60868
658,183,37.0604,2.53632,4.24131e-05,0.000680861,0.000208145,0.000742725,-1.94509e-05,1.28189,0.00050176,0.0464989,1882,841,37.0604,-2.53634
665,183,37.1974,2.45551,0,0,0,0,0,0,0,-1,1889,841,37.1974,-2.45548
672,183,29.168,1.54572,0,0,0,0,0,0,0,-1,1896,841,29.168,-1.54574
679,183,29.6598,1.4314,0,0,0,0,0,0,0,-1,1903,841,29.6598,-1.43142
686,183,29.5664,1.75574,-0.00092557,-4.9858e-05,-0.000935374,0.00054507,-0.0015205,-1.0043,0.00123609,0.0247159,1910,841,29.5665,-1.75575
693,183,29.525,2.12366,-0.000618419,-0.000183003,-0.00106292,0.000684273,-0.00148569,-0.886412,0.001281,0.0198227,1917,841,29.5251,-2.12365
700,183,29.436,2.52777,-0.000480834,-0.000378105,-0.00100802,0.000579856,-0.0014388,-0.810854,0.00120012,0.0174524,1924,841,29.436,-2.52775
707,183,29.4132,2.90961,-0.000643215,-0.000315676,-0.00102321,0.000556787,-0.00151568,-0.864752,0.00123849,0.0121935,1931,841,29.4133,-2.90959
714,183,29.4191,3.29156,-0.000554667,0.000125489,-0.000903011,0.000750337,-0.00117951,-0.965486,0.00112335,0.0160918,1938,841,29.419,-3.29157
721,183,29.3839,3.6767,6.23884e-05,0.000772198,-0.00083213,0.00132195,-0.00048736,-0.986969,0.00108101,0.0149666,1945,841,29.3839,-3.67669
728,183,29.3896,4.07483,0.000777618,0.00146965,-0.000753466,0.00195275,0.000294514,-1.00065,0.00121561,0.0129081,1952,841,29.3897,-4.07482
735,183,29.3903,4.4613,0.00167166,0.00229316,-0.000694533,0.00274329,0.00122153,-0.995753,0.001587,0.0124383,1959,841,29.3903,-4.46131
742,183,29.3907,4.88208,0.00278814,0.00328488,-0.000623984,0.00370811,0.00236491,-0.974806,0.0021678,0.0115899,1966,841,29.3908,-4.8821
749,183,29.3569,5.33411,0.00430125,0.0044956,-0.000537825,0.00494496,0.00385189,-0.874777,0.00299942,0.0319415,1973,841,29.357,-5.33413
756,183,29.3788,5.80646,0.00645041,0.00612047,-0.000432721,0.00674854,0.00582234,-0.603285,0.00422427,0.0487463,1980,841,29.3788,-5.80645
763,183,29.4542,6.27399,0,0,0,0,0,0,0,-1,1987,841,29.4542,-6.274
770,183,30.6621,6.45502,0,0,0,0,0,0,0,-1,1994,841,30.6621,-6.45499
777,183,31.4872,8.49878,0,0,0,0,0,0,0,-1,2001,841,31.4872,-8.49877
784,183,0,0,0,0,0,0,0,0,0,-1,2008,841,0,0
791,183,0,0,0,0,0,0,0,0,0,-1,2015,841,0,0
798,183,0,0,0,0,0,0,0,0,0,-1,2022,841,0,0
805,183,0,0,0,0,0,0,0,0,0,-1,2029,841,0,0
812,183,0,0,0,0,0,0,0,0,0,-1,2036,841,0,0
-700,176,0,0,0,0,0,0,0,0,0,-1,524,848,0,0
-693,176,0,0,0,0,0,0,0,0,0,-1,531,848,0,0
-686,176,0,0,0,0,0,0,0,0,0,-1,538,848,0,0
-679,176,0,0,0,0,0,0,0,0,0,-1,545,848,0,0
-672,176,0,0,0,0,0,0,0,0,0,-1,552,848,0,0
-665,176,-21.0126,2.94806,0,0,0,0,0,0,0,-1,559,848,-21.0125,-2.94806
-658,176,-20.5269,3.39404,0,0,0,0,0,0,0,-1,566,848,-20.5269,-3.39404
-651,176,-21.858,5.17719,0,0,0,0,0,0,0,-1,573,848,-21.858,-5.17718
-644,176,-21.4313,4.32385,0.044919,0.00559668,-0.0139452,0.0493624,0.00115325,-0.308463,0.0325307,0.0427102,580,848,-21.4314,-4.32383
-637,176,-21.0674,3.50427,0.0317125,0.00414634,-0.00892967,0.0343524,0.0015065,-0.287439,0.0224163,0.0449349,587,848,-21.0674,-3.50425
-630,176,-20.8197,3.02545,0.0214454,0.00309004,-0.00528631,0.022859,0.00167646,-0.261291,0.0147124,0.0426238,594,848,-20.8197,-3.02546
-623,176,-20.8538,2.70538,0.01367,0.00232424,-0.00260147,0.014238,0.00175619,-0.214983,0.00896414,0.0396623,601,848,-20.8538,-2.70537
-616,176,-20.9257,2.62537,0.00824302,0.00172796,-0.000728367,0.00832345,0.00164753,-0.109988,0.00508947,0.0260717,608,848,-20.9257,-2.62534
-609,176,-20.9247,2.24695,0.0045743,0.00124624,0.000443851,0.00463248,0.00118807,0.130332,0.0027783,0.0114577,615,848,-20.9247,-2.24697
-602,176,-20.9434,1.85571,0.00215833,0.000857217,0.00110789,0.00279254,0.000223001,0.51992,0.00179199,0.0127182,622,848,-20.9434,-1.85572
-595,176,-20.9651,1.46631,0.000703006,0.000526737,0.00141401,0.00203163,-0.000801883,0.754274,0.0016865,0.0117641,629,848,-20.9652,-1.46629
-588,176,-20.9625,1.10785,-0.000437146,0.000162841,0.0015831,0.00147412,-0.00174843,0.879036,0.00186279,0.0121607,636,848,-20.9625,-1.10782
-581,176,-20.9823,0.773132,-0.000758604,-0.000195923,0.00152829,0.0010767,-0.00203123,0.876423,0.00182236,0.0121033,643,848,-20.9823,-0.773151
-574,176,-20.9846,0.418152,-0.000454162,-0.000197869,0.00109321,0.000774678,-0.00142671,0.843742,0.00128942,0.0167659,650,848,-20.9845,-0.418129
-567,176,-20.8771,0.160461,-0.000437451,5.85666e-05,0.000728973,0.000580565,-0.000959449,0.949364,0.000898052,0.0411376,657,848,-20.8771,-0.160489
-560,176,-21.0754,-0.264587,-0.000741806,0.000424171,0.000336965,0.000514548,-0.000832183,1.30875,0.000784711,0.0315782,664,848,-21.0754,0.264584
-553,176,-20.641,-0.721069,0,0,0,0,0,0,0,-1,671,848,-20.641,0.721047
-546,176,-16.657,-0.403198,0,0,0,0,0,0,0,-1,678,848,-16.657,0.403182
-539,176,-22.7061,1.48657,0,0,0,0,0,0,0,-1,685,848,-22.7061,-1.48657
-532,176,-27.0909,0.580383,0,0,0,0,0,0,0,-1,692,848,-27.091,-0.58039
-525,176,-27.1593,0.539001,0.000297784,0.0032986,-0.000238271,0.00331741,0.000278982,-1.49205,0.00212472,0.0469325,699,848,-27.1593,-0.538988
-518,176,-27.115,0.603943,0.000725189,0.00397336,-0.00025466,0.0039932,0.000705345,-1.49303,0.00246095,0.0413383,706,848,-27.115,-0.603958
-511,176,-27.136,0.601563,0.00183116,0.00442861,-9.61791e-05,0.00443216,0.00182761,-1.53384,0.00257198,0.0395614,713,848,-27.136,-0.601545
-504,176,-27.0889,0.845825,0.00402507,0.00423948,0.000212969,0.0043707,0.00389384,1.01857,0.00276857,0.0417384,720,848,-27.0889,-0.845827
-497,176,-27.1119,0.709045,0.00789197,0.00284282,0.000690537,0.00798471,0.00275008,0.133498,0.00468377,0.0419024,727,848,-27.1119,-0.709027
-490,176,-26.9623,0.92395,0.0138293,-0.000382838,0.00156065,0.0139987,-0.000552196,0.108094,0.00952187,0.0392977,734,848,-26.9623,-0.92395
-483,176,0,0,0,0,0,0,0,0,0,-1,741,848,0,0
-476,176,0,0,0,0,0,0,0,0,0,-1,748,848,0,0
-469,176,0,0,0,0,0,0,0,0,0,-1,755,848,0,0
-462,176,0,0,0,0,0,0,0,0,0,-1,762,848,0,0
-455,176,0,0,0,0,0,0,0,0,0,-1,769,848,0,0
-448,176,0,0,0,0,0,0,0,0,0,-1,776,848,0,0
-441,176,0,0,0,0,0,0,0,0,0,-1,783,848,0,0
-434,176,0,0,0,0,0,0,0,0,0,-1,790,848,0,0
-427,176,0,0,0,0,0,0,0,0,0,-1,797,848,0,0
-420,176,0,0,0,0,0,0,0,0,0,-1,804,848,0,0
-413,176,0,0,0,0,0,0,0,0,0,-1,811,848,0,0
-406,176,0,0,0,0,0,0,0,0,0,-1,818,848,0,0
-399,176,0,0,0,0,0,0,0,0,0,-1,825,848,0,0
-392,176,0,0,0,0,0,0,0,0,0,-1,832,848,0,0
-385,176,0,0,0,0,0,0,0,0,0,-1,839,848,0,0
-378,176,0,0,0,0,0,0,0,0,0,-1,846,848,0,0
-371,176,0,0,0,0,0,0,0,0,0,-1,853,848,0,0
-364,176,0,0,0,0,0,0,0,0,0,-1,860,848,0,0
-357,176,0,0,0,0,0,0,0,0,0,-1,867,848,0,0
-350,176,0,0,0,0,0,0,0,0,0,-1,874,848,0,0
-343,176,0,0,0,0,0,0,0,0,0,-1,881,848,0,0
-336,176,0,0,0,0,0,0,0,0,0,-1,888,848,0,0
-329,176,0,0,0,0,0,0,0,0,0,-1,895,848,0,0
-322,176,0,0,0,0,0,0,0,0,0,-1,902,848,0,0
-315,176,0,0,0,0,0,0,0,0,0,-1,909,848,0,0
-308,176,0,0,0,0,0,0,0,0,0,-1,916,848,0,0
-301,176,0,0,0,0,0,0,0,0,0,-1,923,848,0,0
-294,176,0,0,0,0,0,0,0,0,0,-1,930,848,0,0
-287,176,0,0,0,0,0,0,0,0,0,-1,937,848,0,0
-280,176,0,0,0,0,0,0,0,0,0,-1,944,848,0,0
-273,176,0,0,0,0,0,0,0,0,0,-1,951,848,0,0
-266,176,0,0,0,0,0,0,0,0,0,-1,958,848,0,0
-259,176,0,0,0,0,0,0,0,0,0,-1,965,848,0,0
-252,176,0,0,0,0,0,0,0,0,0,-1,972,848,0,0
-245,176,0,0,0,0,0,0,0,0,0,-1,979,848,0,0
-238,176,0,0,0,0,0,0,0,0,0,-1,986,848,0,0
-231,176,0,0,0,0,0,0,0,0,0,-1,993,848,0,0
-224,176,0,0,0,0,0,0,0,0,0,-1,1000,848,0,0
-217,176,0,0,0,0,0,0,0,0,0,-1,1007,848,0,0
-210,176,0,0,0,0,0,0,0,0,0,-1,1014,848,0,0
-203,176,0,0,0,0,0,0,0,0,0,-1,1021,848,0,0
-196,176,0,0,0,0,0,0,0,0,0,-1,1028,848,0,0
-189,176,0,0,0,0,0,0,0,0,0,-1,1035,848,0,0
-182,176,0,0,0,0,0,0,0,0,0,-1,1042,848,0,0
-175,176,0,0,0,0,0,0,0,0,0,-1,1049,848,0,0
-168,176,0,0,0,0,0,0,0,0,0,-1,1056,848,0,0
-161,176,0,0,0,0,0,0,0,0,0,-1,1063,848,0,0
-154,176,0,0,0,0,0,0,0,0,0,-1,1070,848,0,0
-147,176,0,0,0,0,0,0,0,0,0,-1,1077,848,0,0
-140,176,0,0,0,0,0,0,0,0,0,-1,1084,848,0,0
-133,176,0,0,0,0,0,0,0,0,0,-1,1091,848,0,0
-126,176,0,0,0,0,0,0,0,0,0,-1,1098,848,0,0
-119,176,0,0,0,0,0,0,0,0,0,-1,1105,848,0,0
-112,176,0,0,0,0,0,0,0,0,0,-1,1112,848,0,0
-105,176,0,0,0,0,0,0,0,0,0,-1,1119,848,0,0
-98,176,0,0,0,0,0,0,0,0,0,-1,1126,848,0,0
-91,176,0,0,0,0,0,0,0,0,0,-1,1133,848,0,0
-84,176,0,0,0,0,0,0,0,0,0,-1,1140,848,0,0
-77,176,0,0,0,0,0,0,0,0,0,-1,1147,848,0,0
-70,176,0,0,0,0,0,0,0,0,0,-1,1154,848,0,0
-63,176,0,0,0,0,0,0,0,0,0,-1,1161,848,0,0
-56,176,0,0,0,0,0,0,0,0,0,-1,1168,848,0,0
-49,176,0,0,0,0,0,0,0,0,0,-1,1175,848,0,0
-42,176,0,0,0,0,0,0,0,0,0,-1,1182,848,0,0
-35,176,0,0,0,0,0,0,0,0,0,-1,1189,848,0,0
-28,176,0,0,0,0,0,0,0,0,0,-1,1196,848,0,0
-21,176,0,0,0,0,0,0,0,0,0,-1,1203,848,0,0
-14,176,0,0,0,0,0,0,0,0,0,-1,1210,848,0,0
-7,176,0,0,0,0,0,0,0,0,0,-1,1217,848,0,0
0,176,0,0,0,0,0,0,0,0,0,-1,1224,848,0,0
7,176,0,0,0,0,0,0,0,0,0,-1,1231,848,0,0
14,176,0,0,0,0,0,0,0,0,0,-1,1238,848,0,0
21,176,0,0,0,0,0,0,0,0,0,-1,1245,848,0,0
28,176,0,0,0,0,0,0,0,0,0,-1,1252,848,0,0
35,176,0,0,0,0,0,0,0,0,0,-1,1259,848,0,0
42,176,0,0,0,0,0,0,0,0,0,-1,1266,848,0,0
49,176,0,0,0,0,0,0,0,0,0,-1,1273,848,0,0
56,176,0,0,0,0,0,0,0,0,0,-1,1280,848,0,0
63,176,0,0,0,0,0,0,0,0,0,-1,1287,848,0,0
70,176,0,0,0,0,0,0,0,0,0,-1,1294,848,0,0
77,176,0,0,0,0,0,0,0,0,0,-1,1301,848,0,0
84,176,0,0,0,0,0,0,0,0,0,-1,1308,848,0,0
91,176,0,0,0,0,0,0,0,0,0,-1,1315,848,0,0
98,176,0,0,0,0,0,0,0,0,0,-1,1322,848,0,0
105,176,0,0,0,0,0,0,0,0,0,-1,1329,848,0,0
112,176,0,0,0,0,0,0,0,0,0,-1,1336,848,0,0
119,176,0,0,0,0,0,0,0,0,0,-1,1343,848,0,0
126,176,0,0,0,0,0,0,0,0,0,-1,1350,848,0,0
133,176,0,0,0,0,0,0,0,0,0,-1,1357,848,0,0
140,176,0,0,0,0,0,0,0,0,0,-1,1364,848,0,0
147,176,0,0,0,0,0,0,0,0,0,-1,1371,848,0,0
154,176,0,0,0,0,0,0,0,0,0,-1,1378,848,0,0
161,176,0,0,0,0,0,0,0,0,0,-1,1385,848,0,0
168,176,0,0,0,0,0,0,0,0,0,-1,1392,848,0,0
175,176,0,0,0,0,0,0,0,0,0,-1,1399,848,0,0
182,176,0,0,0,0,0,0,0,0,0,-1,1406,848,0,0
189,176,0,0,0,0,0,0,0,0,0,-1,1413,848,0,0
196,176,0,0,0,0,0,0,0,0,0,-1,1420,848,0,0
203,176,0,0,0,0,0,0,0,0,0,-1,1427,848,0,0
210,176,0,0,0,0,0,0,0,0,0,-1,1434,848,0,0
217,176,0,0,0,0,0,0,0,0,0,-1,1441,848,0,0
224,176,0,0,0,0,0,0,0,0,0,-1,1448,848,0,0
231,176,0,0,0,0,0,0,0,0,0,-1,1455,848,0,0
238,176,0,0,0,0,0,0,0,0,0,-1,1462,848,0,0
245,176,0,0,0,0,0,0,0,0,0,-1,1469,848,0,0
252,176,0,0,0,0,0,0,0,0,0,-1,1476,848,0,0
259,176,0,0,0,0,0,0,0,0,0,-1,1483,848,0,0
266,176,0,0,0,0,0,0,0,0,0,-1,1490,848,0,0
273,176,0,0,0,0,0,0,0,0,0,-1,1497,848,0,0
280,176,0,0,0,0,0,0,0,0,0,-1,1504,848,0,0
287,176,0,0,0,0,0,0,0,0,0,-1,1511,848,0,0
294,176,0,0,0,0,0,0,0,0,0,-1,1518,848,0,0
301,176,0,0,0,0,0,0,0,0,0,-1,1525,848,0,0
308,176,0,0,0,0,0,0,0,0,0,-1,1532,848,0,0
315,176,0,0,0,0,0,0,0,0,0,-1,1539,848,0,0
322,176,0,0,0,0,0,0,0,0,0,-1,1546,848,0,0
329,176,0,0,0,0,0,0,0,0,0,-1,1553,848,0,0
336,176,0,0,0,0,0,0,0,0,0,-1,1560,848,0,0
343,176,0,0,0,0,0,0,0,0,0,-1,1567,848,0,0
350,176,0,0,0,0,0,0,0,0,0,-1,1574,848,0,0
357,176,0,0,0,0,0,0,0,0,0,-1,1581,848,0,0
364,176,0,0,0,0,0,0,0,0,0,-1,1588,848,0,0
371,176,0,0,0,0,0,0,0,0,0,-1,1595,848,0,0
378,176,0,0,0,0,0,0,0,0,0,-1,1602,848,0,0
385,176,0,0,0,0,0,0,0,0,0,-1,1609,848,0,0
392,176,0,0,0,0,0,0,0,0,0,-1,1616,848,0,0
399,176,0,0,0,0,0,0,0,0,0,-1,1623,848,0,0
406,176,0,0,0,0,0,0,0,0,0,-1,1630,848,0,0
413,176,0,0,0,0,0,0,0,0,0,-1,1637,848,0,0
420,176,0,0,0,0,0,0,0,0,0,-1,1644,848,0,0
427,176,0,0,0,0,0,0,0,0,0,-1,1651,848,0,0
434,176,0,0,0,0,0,0,0,0,0,-1,1658,848,0,0
441,176,0,0,0,0,0,0,0,0,0,-1,1665,848,0,0
448,176,0,0,0,0,0,0,0,0,0,-1,1672,848,0,0
455,176,0,0,0,0,0,0,0,0,0,-1,1679,848,0,0
462,176,0,0,0,0,0,0,0,0,0,-1,1686,848,0,0
469,176,0,0,0,0,0,0,0,0,0,-1,1693,848,0,0
476,176,0,0,0,0,0,0,0,0,0,-1,1700,848,0,0
483,176,0,0,0,0,0,0,0,0,0,-1,1707,848,0,0
490,176,0,0,0,0,0,0,0,0,0,-1,1714,848,0,0
497,176,0,0,0,0,0,0,0,0,0,-1,1721,848,0,0
504,176,0,0,0,0,0,0,0,0,0,-1,1728,848,0,0
511,176,0,0,0,0,0,0,0,0,0,-1,1735,848,0,0
518,176,0,0,0,0,0,0,0,0,0,-1,1742,848,0,0
525,176,0,0,0,0,0,0,0,0,0,-1,1749,848,0,0
532,176,0,0,0,0,0,0,0,0,0,-1,1756,848,0,0
539,176,0,0,0,0,0,0,0,0,0,-1,1763,848,0,0
546,176,0,0,0,0,0,0,0,0,0,-1,1770,848,0,0
553,176,0,0,0,0,0,0,0,0,0,-1,1777,848,0,0
560,176,0,0,0,0,0,0,0,0,0,-1,1784,848,0,0
567,176,0,0,0,0,0,0,0,0,0,-1,1791,848,0,0
574,176,0,0,0,0,0,0,0,0,0,-1,1798,848,0,0
581,176,0,0,0,0,0,0,0,0,0,-1,1805,848,0,0
588,176,0,0,0,0,0,0,0,0,0,-1,1812,848,0,0
595,176,0,0,0,0,0,0,0,0,0,-1,1819,848,0,0
602,176,0,0,0,0,0,0,0,0,0,-1,1826,848,0,0
609,176,36.8789,2.58441,0.0029633,-0.00312847,-0.000319368,0.00298,-0.00314516,-0.0522352,0.00353679,0.0376837,1833,848,36.8789,-2.58441
616,176,36.9335,2.45972,0.00265581,-0.00139123,0.000482865,0.00271262,-0.00144804,0.117123,0.00243886,0.0371409,1840,848,36.9335,-2.45971
623,176,37.1299,2.39459,0.00199362,-0.000166195,0.000936644,0.00234323,-0.000515798,0.357236,0.00175947,0.0407613,1847,848,37.1299,-2.39456
630,176,37.1625,2.44171,0.00131867,0.000721441,0.00104774,0.00210952,-6.94091e-05,0.646576,0.00143004,0.0399165,1854,848,37.1625,-2.44173
637,176,37.0085,2.52551,0.000766658,0.0011455,0.000936494,0.00191153,6.1834e-07,0.885184,0.00127415,0.0317979,1861,848,37.0085,-2.52552
644,176,36.8593,2.60693,0.000419862,0.00112916,0.000714249,0.00157196,-2.2941e-05,1.01583,0.0010557,0.0298544,1868,848,36.8592,-2.60695
651,176,36.8368,2.64258,0.000234609,0.000904169,0.000472581,0.00114854,-9.75723e-06,1.09357,0.000768963,0.0317906,1875,848,36.8368,-2.64257
658,176,37.0394,2.41522,0.000202488,0.00069897,0.000213648,0.000778249,0.000123209,1.21547,0.00048303,0.0367368,1882,848,37.0395,-2.41523
665,176,37.3411,2.0332,0,0,0,0,0,0,0,-1,1889,848,37.3411,-2.03322
672,176,16.9304,2.80719,0,0,0,0,0,0,0,-1,1896,848,16.9305,-2.80719
679,176,30.2321,1.43365,0,0,0,0,0,0,0,-1,1903,848,30.232,-1.43363
686,176,30.0992,1.83118,-0.000591947,-9.73707e-05,-0.00073563,0.000431423,-0.00112074,-0.947544,0.00092513,0.0355216,1910,848,30.0992,-1.83116
693,176,29.9669,2.20697,-0.000344612,-0.000252938,-0.000860734,0.000563178,-0.00116073,-0.812,0.00101503,0.0179974,1917,848,29.9669,-2.20695
700,176,29.8384,2.59204,-0.000255048,-0.000451553,-0.000811974,0.000464596,-0.0011712,-0.725188,0.000973353,0.0187663,1924,848,29.8384,-2.59201
707,176,29.845,2.95313,-0.000452549,-0.000411753,-0.000870447,0.000438536,-0.00130284,-0.797113,0.00104585,0.0139641,1931,848,29.845,-2.95314
714,176,29.8252,3.31415,-0.000467978,-1.57279e-05,-0.000856219,0.000643722,-0.00112743,-0.914499,0.00103521,0.0122432,1938,848,29.8252,-3.31418
721,176,29.814,3.68982,9.62216e-07,0.000636022,-0.000868509,0.00124323,-0.000606242,-0.960652,0.0010887,0.012056,1945,848,29.814,-3.68981
728,176,29.7799,4.08228,0.000576901,0.00134985,-0.000841735,0.00188959,3.71572e-05,-1.00061,0.00124753,0.0137409,1952,848,29.7799,-4.08227
735,176,29.7646,4.47174,0.00135567,0.00221091,-0.00084108,0.00272684,0.000839748,-1.02058,0.00161258,0.0133341,1959,848,29.7647,-4.47177
742,176,29.7738,4.86414,0.0023542,0.00324443,-0.000837631,0.00374787,0.00185076,-1.02962,0.00216389,0.0179717,1966,848,29.7738,-4.86413
749,176,29.7782,5.29321,0.00370889,0.00447829,-0.000839777,0.00501729,0.00316989,-1.00018,0.00293009,0.0286865,1973,848,29.7782,-5.29323
756,176,30.193,5.63251,0.00562949,0.00610595,-0.000854516,0.00675482,0.00498062,-0.92134,0.00404371,0.0460714,1980,848,30.193,-5.6325
763,176,30.6863,5.98853,0,0,0,0,0,0,0,-1,1987,848,30.6863,-5.9885
770,176,30.2006,6.37524,0,0,0,0,0,0,0,-1,1994,848,30.2006,-6.37525
777,176,30.8901,8.27563,0,0,0,0,0,0,0,-1,2001,848,30.8902,-8.27563
784,176,0,0,0,0,0,0,0,0,0,-1,2008,848,0,0
791,176,0,0,0,0,0,0,0,0,0,-1,2015,848,0,0
798,176,0,0,0,0,0,0,0,0,0,-1,2022,848,0,0
805,176,0,0,0,0,0,0,0,0,0,-1,2029,848,0,0
812,176,0,0,0,0,0,0,0,0,0,-1,2036,848,0,0
-700,169,0,0,0,0,0,0,0,0,0,-1,524,855,0,0
-693,169,0,0,0,0,0,0,0,0,0,-1,531,855,0,0
-686,169,0,0,0,0,0,0,0,0,0,-1,538,855,0,0
-679,169,0,0,0,0,0,0,0,0,0,-1,545,855,0,0
-672,169,0,0,0,0,0,0,0,0,0,-1,552,855,0,0
-665,169,-21.6085,3.69916,0,0,0,0,0,0,0,-1,559,855,-21.6085,-3.69916
-658,169,-21.4224,3.89856,0,0,0,0,0,0,0,-1,566,855,-21.4224,-3.89858
-651,169,-22.5839,5.00507,0,0,0,0,0,0,0,-1,573,855,-22.5839,-5.00507
-644,169,-22.1843,4.12061,0.0394573,0.00726157,-0.0129791,0.0440379,0.00268095,-0.339275,0.028507,0.0447665,580,855,-22.1844,-4.12062
-637,169,-21.3952,3.01263,0.02829,0.00429142,-0.00771002,0.0305535,0.00202791,-0.285557,0.0197278,0.0470216,587,855,-21.3952,-3.01261
-630,169,-21.0773,3.38507,0,0,0,0,0,0,0,-1,594,855,-21.0773,-3.3851
-623,169,-21.2219,2.96558,0.0119753,0.00144506,-0.00151953,0.0121902,0.00123017,-0.140484,0.00774933,0.0391298,601,855,-21.2219,-2.9656
-616,169,-21.3176,2.59436,0.00703473,0.000969723,6.07921e-05,0.00703534,0.000969113,0.0100221,0.00440289,0.0213218,608,855,-21.3176,-2.59437
-609,169,-21.319,2.25684,0.00375537,0.000539068,0.00104672,0.00406601,0.000228422,0.288499,0.00263783,0.012945,615,855,-21.319,-2.25682
-602,169,-21.3437,1.87708,0.00158338,0.000318592,0.00147251,0.00255355,-0.000651578,0.582575,0.00195607,0.0136475,622,855,-21.3437,-1.8771
-595,169,-21.3612,1.47803,0.000350802,0.000137772,0.00158272,0.00183059,-0.00134202,0.7518,0.00183893,0.01265,629,855,-21.3612,-1.47806
-588,169,-21.3281,1.138,-0.000536682,-8.71262e-05,0.00157977,0.00128378,-0.00190759,0.856066,0.00185423,0.0101852,636,855,-21.3281,-1.13798
-581,169,-21.3584,0.80365,-0.000688487,-0.000316048,0.00139617,0.000906263,-0.0019108,0.851696,0.00166054,0.012169,643,855,-21.3584,-0.803633
-574,169,-21.4892,0.429932,-0.000383893,-0.00023968,0.00092123,0.000612261,-0.00123583,0.824454,0.00108706,0.0210189,650,855,-21.4892,-0.42991
-567,169,-21.3351,0.180542,-0.00035753,8.38876e-05,0.000493398,0.000403692,-0.000677334,0.995711,0.000630761,0.0339631,657,855,-21.3351,-0.180529
-560,169,-21.4123,-0.12616,-0.0005713,0.000388377,5.74158e-05,0.0003918,-0.000574723,1.51125,0.000561343,0.0360782,664,855,-21.4123,0.126173
-553,169,-21.374,-0.436279,0,0,0,0,0,0,0,-1,671,855,-21.3741,0.436283
-546,169,-19.0852,-1.05609,0,0,0,0,0,0,0,-1,678,855,-19.0852,1.05612
-539,169,-26.97,0.735413,0,0,0,0,0,0,0,-1,685,855,-26.97,-0.735423
-532,169,-27.018,0.713318,0.000307329,0.00233025,-0.000517219,0.00245482,0.000182758,-1.33445,0.00157916,0.0403171,692,855,-27.018,-0.713326
-525,169,-27.0677,0.68042,0.000599033,0.00288438,-0.000658143,0.00306036,0.00042305,-1.30952,0.00191487,0.0457282,699,855,-27.0677,-0.680401
-518,169,-27.1732,0.682617,0.00108741,0.00343171,-0.000644961,0.00359744,0.000921684,-1.31928,0.00215771,0.0413513,706,855,-27.1732,-0.682604
-511,169,-27.2513,0.640503,0.00243187,0.00367757,-0.000429537,0.00381132,0.00229812,-1.26893,0.00221596,0.0402588,713,855,-27.2513,-0.640497
-504,169,-27.185,0.683777,0.00510357,0.00316794,-2.46189e-05,0.00510388,0.00316763,-0.0127161,0.00297518,0.040443,720,855,-27.185,-0.683793
-497,169,-27.0147,0.767761,0.00960323,0.00139357,0.000554481,0.00964051,0.00135629,0.0671337,0.006026,0.0403096,727,855,-27.0147,-0.767766
-490,169,0,0,0,0,0,0,0,0,0,-1,734,855,0,0
-483,169,0,0,0,0,0,0,0,0,0,-1,741,855,0,0
-476,169,0,0,0,0,0,0,0,0,0,-1,748,855,0,0
-469,169,0,0,0,0,0,0,0,0,0,-1,755,855,0,0
-462,169,0,0,0,0,0,0,0,0,0,-1,762,855,0,0
-455,169,0,0,0,0,0,0,0,0,0,-1,769,855,0,0
-448,169,0,0,0,0,0,0,0,0,0,-1,776,855,0,0
-441,169,0,0,0,0,0,0,0,0,0,-1,783,855,0,0
-434,169,0,0,0,0,0,0,0,0,0,-1,790,855,0,0
-427,169,0,0,0,0,0,0,0,0,0,-1,797,855,0,0
-420,169,0,0,0,0,0,0,0,0,0,-1,804,855,0,0
-413,169,0,0,0,0,0,0,0,0,0,-1,811,855,0,0
-406,169,0,0,0,0,0,0,0,0,0,-1,818,855,0,0
-399,169,0,0,0,0,0,0,0,0,0,-1,825,855,0,0
-392,169,0,0,0,0,0,0,0,0,0,-1,832,855,0,0
-385,169,0,0,0,0,0,0,0,0,0,-1,839,855,0,0
-378,169,0,0,0,0,0,0,0,0,0,-1,846,855,0,0
-371,169,0,0,0,0,0,0,0,0,0,-1,853,855,0,0
-364,169,0,0,0,0,0,0,0,0,0,-1,860,855,0,0
-357,169,0,0,0,0,0,0,0,0,0,-1,867,855,0,0
-350,169,0,0,0,0,0,0,0,0,0,-1,874,855,0,0
-343,169,0,0,0,0,0,0,0,0,0,-1,881,855,0,0
-336,169,0,0,0,0,0,0,0,0,0,-1,888,855,0,0
-329,169,0,0,0,0,0,0,0,0,0,-1,895,855,0,0
-322,169,0,0,0,0,0,0,0,0,0,-1,902,855,0,0
-315,169,0,0,0,0,0,0,0,0,0,-1,909,855,0,0
-308,169,0,0,0,0,0,0,0,0,0,-1,916,855,0,0
-301,169,0,0,0,0,0,0,0,0,0,-1,923,855,0,0
-294,169,0,0,0,0,0,0,0,0,0,-1,930,855,0,0
-287,169,0,0,0,0,0,0,0,0,0,-1,937,855,0,0
-280,169,0,0,0,0,0,0,0,0,0,-1,944,855,0,0
-273,169,0,0,0,0,0,0,0,0,0,-1,951,855,0,0
-266,169,0,0,0,0,0,0,0,0,0,-1,958,855,0,0
-259,169,0,0,0,0,0,0,0,0,0,-1,965,855,0,0
-252,169,0,0,0,0,0,0,0,0,0,-1,972,855,0,0
-245,169,0,0,0,0,0,0,0,0,0,-1,979,855,0,0
-238,169,0,0,0,0,0,0,0,0,0,-1,986,855,0,0
-231,169,0,0,0,0,0,0,0,0,0,-1,993,855,0,0
-224,169,0,0,0,0,0,0,0,0,0,-1,1000,855,0,0
-217,169,0,0,0,0,0,0,0,0,0,-1,1007,855,0,0
-210,169,0,0,0,0,0,0,0,0,0,-1,1014,855,0,0
-203,169,0,0,0,0,0,0,0,0,0,-1,1021,855,0,0
-196,169,0,0,0,0,0,0,0,0,0,-1,1028,855,0,0
-189,169,0,0,0,0,0,0,0,0,0,-1,1035,855,0,0
-182,169,0,0,0,0,0,0,0,0,0,-1,1042,855,0,0
-175,169,0,0,0,0,0,0,0,0,0,-1,1049,855,0,0
-168,169,0,0,0,0,0,0,0,0,0,-1,1056,855,0,0
-161,169,0,0,0,0,0,0,0,0,0,-1,1063,855,0,0
-154,169,0,0,0,0,0,0,0,0,0,-1,1070,855,0,0
-147,169,0,0,0,0,0,0,0,0,0,-1,1077,855,0,0
-140,169,0,0,0,0,0,0,0,0,0,-1,1084,855,0,0
-133,169,0,0,0,0,0,0,0,0,0,-1,1091,855,0,0
-126,169,0,0,0,0,0,0,0,0,0,-1,1098,855,0,0
-119,169,0,0,0,0,0,0,0,0,0,-1,1105,855,0,0
-112,169,0,0,0,0,0,0,0,0,0,-1,1112,855,0,0
-105,169,0,0,0,0,0,0,0,0,0,-1,1119,855,0,0
-98,169,0,0,0,0,0,0,0,0,0,-1,1126,855,0,0
-91,169,0,0,0,0,0,0,0,0,0,-1,1133,855,0,0
-84,169,0,0,0,0,0,0,0,0,0,-1,1140,855,0,0
-77,169,0,0,0,0,0,0,0,0,0,-1,1147,855,0,0
-70,169,0,0,0,0,0,0,0,0,0,-1,1154,855,0,0
-63,169,0,0,0,0,0,0,0,0,0,-1,1161,855,0,0
-56,169,0,0,0,0,0,0,0,0,0,-1,1168,855,0,0
-49,169,0,0,0,0,0,0,0,0,0,-1,1175,855,0,0
-42,169,0,0,0,0,0,0,0,0,0,-1,1182,855,0,0
-35,169,0,0,0,0,0,0,0,0,0,-1,1189,855,0,0
-28,169,0,0,0,0,0,0,0,0,0,-1,1196,855,0,0
-21,169,0,0,0,0,0,0,0,0,0,-1,1203,855,0,0
-14,169,0,0,0,0,0,0,0,0,0,-1,1210,855,0,0
-7,169,0,0,0,0,0,0,0,0,0,-1,1217,855,0,0
0,169,0,0,0,0,0,0,0,0,0,-1,1224,855,0,0
7,169,0,0,0,0,0,0,0,0,0,-1,1231,855,0,0
14,169,0,0,0,0,0,0,0,0,0,-1,1238,855,0,0
21,169,0,0,0,0,0,0,0,0,0,-1,1245,855,0,0
28,169,0,0,0,0,0,0,0,0,0,-1,1252,855,0,0
35,169,0,0,0,0,0,0,0,0,0,-1,1259,855,0,0
42,169,0,0,0,0,0,0,0,0,0,-1,1266,855,0,0
49,169,0,0,0,0,0,0,0,0,0,-1,1273,855,0,0
56,169,0,0,0,0,0,0,0,0,0,-1,1280,855,0,0
63,169,0,0,0,0,0,0,0,0,0,-1,1287,855,0,0
70,169,0,0,0,0,0,0,0,0,0,-1,1294,855,0,0
77,169,0,0,0,0,0,0,0,0,0,-1,1301,855,0,0
84,169,0,0,0,0,0,0,0,0,0,-1,1308,855,0,0
91,169,0,0,0,0,0,0,0,0,0,-1,1315,855,0,0
98,169,0,0,0,0,0,0,0,0,0,-1,1322,855,0,0
105,169,0,0,0,0,0,0,0,0,0,-1,1329,855,0,0
112,169,0,0,0,0,0,0,0,0,0,-1,1336,855,0,0
119,169,0,0,0,0,0,0,0,0,0,-1,1343,855,0,0
126,169,0,0,0,0,0,0,0,0,0,-1,1350,855,0,0
133,169,0,0,0,0,0,0,0,0,0,-1,1357,855,0,0
140,169,0,0,0,0,0,0,0,0,0,-1,1364,855,0,0
147,169,0,0,0,0,0,0,0,0,0,-1,1371,855,0,0
154,169,0,0,0,0,0,0,0,0,0,-1,1378,855,0,0
161,169,0,0,0,0,0,0,0,0,0,-1,1385,855,0,0
168,169,0,0,0,0,0,0,0,0,0,-1,1392,855,0,0
175,169,0,0,0,0,0,0,0,0,0,-1,1399,855,0,0
182,169,0,0,0,0,0,0,0,0,0,-1,1406,855,0,0
189,169,0,0,0,0,0,0,0,0,0,-1,1413,855,0,0
196,169,0,0,0,0,0,0,0,0,0,-1,1420,855,0,0
203,169,0,0,0,0,0,0,0,0,0,-1,1427,855,0,0
210,169,0,0,0,0,0,0,0,0,0,-1,1434,855,0,0
217,169,0,0,0,0,0,0,0,0,0,-1,1441,855,0,0
224,169,0,0,0,0,0,0,0,0,0,-1,1448,855,0,0
231,169,0,0,0,0,0,0,0,0,0,-1,1455,855,0,0
238,169,0,0,0,0,0,0,0,0,0,-1,1462,855,0,0
245,169,0,0,0,0,0,0,0,0,0,-1,1469,855,0,0
252,169,0,0,0,0,0,0,0,0,0,-1,1476,855,0,0
259,169,0,0,0,0,0,0,0,0,0,-1,1483,855,0,0
266,169,0,0,0,0,0,0,0,0,0,-1,1490,855,0,0
273,169,0,0,0,0,0,0,0,0,0,-1,1497,855,0,0
280,169,0,0,0,0,0,0,0,0,0,-1,1504,855,0,0
287,169,0,0,0,0,0,0,0,0,0,-1,1511,855,0,0
294,169,0,0,0,0,0,0,0,0,0,-1,1518,855,0,0
301,169,0,0,0,0,0,0,0,0,0,-1,1525,855,0,0
308,169,0,0,0,0,0,0,0,0,0,-1,1532,855,0,0
315,169,0,0,0,0,0,0,0,0,0,-1,1539,855,0,0
322,169,0,0,0,0,0,0,0,0,0,-1,1546,855,0,0
329,169,0,0,0,0,0,0,0,0,0,-1,1553,855,0,0
336,169,0,0,0,0,0,0,0,0,0,-1,1560,855,0,0
343,169,0,0,0,0,0,0,0,0,0,-1,1567,855,0,0
350,169,0,0,0,0,0,0,0,0,0,-1,1574,855,0,0
357,169,0,0,0,0,0,0,0,0,0,-1,1581,855,0,0
364,169,0,0,0,0,0,0,0,0,0,-1,1588,855,0,0
371,169,0,0,0,0,0,0,0,0,0,-1,1595,855,0,0
378,169,0,0,0,0,0,0,0,0,0,-1,1602,855,0,0
385,169,0,0,0,0,0,0,0,0,0,-1,1609,855,0,0
392,169,0,0,0,0,0,0,0,0,0,-1,1616,855,0,0
399,169,0,0,0,0,0,0,0,0,0,-1,1623,855,0,0
406,169,0,0,0,0,0,0,0,0,0,-1,1630,855,0,0
413,169,0,0,0,0,0,0,0,0,0,-1,1637,855,0,0
420,169,0,0,0,0,0,0,0,0,0,-1,1644,855,0,0
427,169,0,0,0,0,0,0,0,0,0,-1,1651,855,0,0
434,169,0,0,0,0,0,0,0,0,0,-1,1658,855,0,0
441,169,0,0,0,0,0,0,0,0,0,-1,1665,855,0,0
448,169,0,0,0,0,0,0,0,0,0,-1,1672,855,0,0
455,169,0,0,0,0,0,0,0,0,0,-1,1679,855,0,0
462,169,0,0,0,0,0,0,0,0,0,-1,1686,855,0,0
469,169,0,0,0,0,0,0,0,0,0,-1,1693,855,0,0
476,169,0,0,0,0,0,0,0,0,0,-1,1700,855,0,0
483,169,0,0,0,0,0,0,0,0,0,-1,1707,855,0,0
490,169,0,0,0,0,0,0,0,0,0,-1,1714,855,0,0
497,169,0,0,0,0,0,0,0,0,0,-1,1721,855,0,0
504,169,0,0,0,0,0,0,0,0,0,-1,1728,855,0,0
511,169,0,0,0,0,0,0,0,0,0,-1,1735,855,0,0
518,169,0,0,0,0,0,0,0,0,0,-1,1742,855,0,0
525,169,0,0,0,0,0,0,0,0,0,-1,1749,855,0,0
532,169,0,0,0,0,0,0,0,0,0,-1,1756,855,0,0
539,169,0,0,0,0,0,0,0,0,0,-1,1763,855,0,0
546,169,0,0,0,0,0,0,0,0,0,-1,1770,855,0,0
553,169,0,0,0,0,0,0,0,0,0,-1,1777,855,0,0
560,169,0,0,0,0,0,0,0,0,0,-1,1784,855,0,0
567,169,0,0,0,0,0,0,0,0,0,-1,1791,855,0,0
574,169,0,0,0,0,0,0,0,0,0,-1,1798,855,0,0
581,169,0,0,0,0,0,0,0,0,0,-1,1805,855,0,0
588,169,0,0,0,0,0,0,0,0,0,-1,1812,855,0,0
595,169,0,0,0,0,0,0,0,0,0,-1,1819,855,0,0
602,169,0,0,0,0,0,0,0,0,0,-1,1826,855,0,0
609,169,0,0,0,0,0,0,0,0,0,-1,1833,855,0,0
616,169,36.8765,2.52692,0.00357971,-0.00121344,0.000868698,0.0037323,-0.00136602,0.173872,0.00304736,0.0403315,1840,855,36.8765,-2.5269
623,169,37.0803,2.46661,0.00261326,-0.0002964,0.00105915,0.00295797,-0.000641107,0.314644,0.0022168,0.0445143,1847,855,37.0803,-2.46659
630,169,37.198,2.47253,0.00173748,0.000395829,0.000999162,0.00227012,-0.000136813,0.489767,0.00156102,0.0423766,1854,855,37.198,-2.47255
637,169,37.0541,2.5683,0.00107166,0.000823945,0.000849113,0.0018059,8.97056e-05,0.712974,0.00117518,0.0351963,1861,855,37.0541,-2.5683
644,169,36.8859,2.68909,0.000682654,0.000836118,0.000641653,0.00140561,0.000113162,0.844908,0.000901723,0.0332564,1868,855,36.8858,-2.68911
651,169,36.8248,2.66327,0.000482202,0.000644671,0.000432236,0.00100324,0.000123633,0.878285,0.000631661,0.0347057,1875,855,36.8248,-2.66328
658,169,36.9191,2.53876,0.000453086,0.000432954,0.000205405,0.000648671,0.000237369,0.760914,0.000378972,0.0344166,1882,855,36.9191,-2.53874
665,169,37.1174,2.37091,0,0,0,0,0,0,0,-1,1889,855,37.1174,-2.37091
672,169,31.2465,2.96387,0,0,0,0,0,0,0,-1,1896,855,31.2464,-2.9639
679,169,30.333,1.56317,0,0,0,0,0,0,0,-1,1903,855,30.333,-1.5632
686,169,30.3491,1.89716,-0.000269821,-0.000287637,-0.000598935,0.000320272,-0.000877731,-0.777962,0.000716193,0.0373055,1910,855,30.3491,-1.89716
693,169,30.3464,2.24744,-7.61003e-05,-0.000407597,-0.000714515,0.000491639,-0.000975336,-0.671427,0.000862168,0.0176594,1917,855,30.3465,-2.24741
700,169,30.337,2.65271,-9.56144e-06,-0.000557061,-0.000669436,0.000439933,-0.00100656,-0.591309,0.000856223,0.0157618,1924,855,30.337,-2.65272
707,169,30.2682,2.99921,-0.000190316,-0.000503886,-0.000750749,0.000419845,-0.00111405,-0.682459,0.000915326,0.0158568,1931,855,30.2682,-2.99919
714,169,30.2076,3.32782,-0.000297993,-0.000123435,-0.000796147,0.000590203,-0.00101163,-0.839994,0.000935427,0.0142361,1938,855,30.2076,-3.32781
721,169,30.1893,3.71118,-2.50915e-05,0.000511879,-0.000868201,0.00115216,-0.000665373,-0.935356,0.00106183,0.0153902,1945,855,30.1894,-3.71117
728,169,30.1913,4.09949,0.000330873,0.00121661,-0.000886796,0.00176497,-0.000217491,-1.01698,0.00125544,0.0121614,1952,855,30.1913,-4.0995
735,169,30.17,4.47534,0.000895752,0.00208337,-0.00094188,0.002603,0.00037612,-1.06665,0.00162454,0.0170085,1959,855,30.17,-4.47537
742,169,30.1593,4.86285,0.00167142,0.0031148,-0.000995198,0.00362244,0.00116378,-1.09911,0.00213549,0.0159764,1966,855,30.1593,-4.86285
749,169,30.0988,5.19843,0.00274016,0.00430533,-0.00106588,0.00484507,0.00220042,-1.10206,0.00280122,0.0258478,1973,855,30.0988,-5.19843
756,169,30.1399,5.5567,0.00425722,0.00583967,-0.00116697,0.00645836,0.00363853,-1.08331,0.00373871,0.0465414,1980,855,30.1399,-5.55673
763,169,30.3076,5.94354,0,0,0,0,0,0,0,-1,1987,855,30.3076,-5.94354
770,169,29.6245,6.18188,0,0,0,0,0,0,0,-1,1994,855,29.6245,-6.18186
777,169,29.498,6.25323,0,0,0,0,0,0,0,-1,2001,855,29.498,-6.25324
784,169,29.1117,6.62067,0,0,0,0,0,0,0,-1,2008,855,29.1117,-6.62069
791,169,0,0,0,0,0,0,0,0,0,-1,2015,855,0,0
798,169,0,0,0,0,0,0,0,0,0,-1,2022,855,0,0
805,169,0,0,0,0,0,0,0,0,0,-1,2029,855,0,0
812,169,0,0,0,0,0,0,0,0,0,-1,2036,855,0,0
-700,162,0,0,0,0,0,0,0,0,0,-1,524,862,0,0
-693,162,0,0,0,0,0,0,0,0,0,-1,531,862,0,0
-686,162,0,0,0,0,0,0,0,0,0,-1,538,862,0,0
-679,162,0,0,0,0,0,0,0,0,0,-1,545,862,0,0
-672,162,0,0,0,0,0,0,0,0,0,-1,552,862,0,0
-665,162,-22.5736,4.04456,0,0,0,0,0,0,0,-1,559,862,-22.5736,-4.04458
-658,162,-22.2975,4.41431,0,0,0,0,0,0,0,-1,566,862,-22.2975,-4.41431
-651,162,-21.5434,3.88177,0,0,0,0,0,0,0,-1,573,862,-21.5434,-3.88176
-644,162,-21.4994,2.70715,0,0,0,0,0,0,0,-1,580,862,-21.4994,-2.70716
-637,162,-21.5839,2.78461,0,0,0,0,0,0,0,-1,587,862,-21.5838,-2.7846
-630,162,-21.5702,3.23651,0,0,0,0,0,0,0,-1,594,862,-21.5702,-3.23654
-623,162,-21.6107,2.89801,0.0117502,0.000155968,-0.000990423,0.0118342,7.19707e-05,-0.0846068,0.0078656,0.0357802,601,862,-21.6106,-2.89799
-616,162,-21.6571,2.56055,0.00675793,-7.44053e-06,0.000551121,0.00680253,-5.20418e-05,0.0807526,0.00455247,0.0195675,608,862,-21.6571,-2.56053
-609,162,-21.6992,2.21265,0.00351299,-0.000203873,0.00146662,0.00402199,-0.000712877,0.334052,0.00294783,0.0121441,615,862,-21.6992,-2.21263
-602,162,-21.7338,1.85443,0.00139127,-0.000187294,0.00176355,0.00253411,-0.00133013,0.574989,0.00226683,0.0115236,622,862,-21.7338,-1.8544
-595,162,-21.7322,1.50348,0.000175009,-0.000182885,0.00178925,0.00179424,-0.00180212,0.735558,0.00207636,0.0114566,629,862,-21.7323,-1.50347
-588,162,-21.7219,1.15247,-0.000525889,-0.000220346,0.00161968,0.00125376,-0.00199999,0.83242,0.00189495,0.0108984,636,862,-21.7219,-1.15246
-581,162,-21.8203,0.820618,-0.000550933,-0.000315674,0.00131451,0.000886461,-0.00175307,0.830022,0.00155107,0.0176917,643,862,-21.8203,-0.820609
-574,162,-21.974,0.491577,-0.000265305,-0.000180646,0.000801967,0.000580108,-0.00102606,0.811765,0.00093916,0.0273028,650,862,-21.974,-0.491586
-567,162,-21.91,0.12323,-0.000213237,0.000187865,0.00031662,0.000362106,-0.000387478,1.06771,0.000432855,0.0379179,657,862,-21.9101,-0.123204
-560,162,-21.8015,-0.449402,-0.000333421,0.000408167,-0.000150684,0.000437616,-0.000362869,-1.3778,0.000462831,0.0336703,664,862,-21.8015,0.44942
-553,162,-21.6075,-0.923584,0,0,0,0,0,0,0,-1,671,862,-21.6075,0.923611
-546,162,-21.4435,-1.453,0,0,0,0,0,0,0,-1,678,862,-21.4435,1.453
-539,162,-26.976,0.736755,0,0,0,0,0,0,0,-1,685,862,-26.9759,-0.736755
-532,162,-26.9734,0.782471,0.000601113,0.00205934,-0.000823918,0.00243043,0.000230024,-1.14761,0.00154931,0.0372218,692,862,-26.9735,-0.782457
-525,162,-26.9808,0.821838,0.000877452,0.00255149,-0.000951125,0.00298145,0.00044749,-1.14623,0.00185654,0.0388353,699,862,-26.9809,-0.821813
-518,162,-27.1419,0.737244,0.00143824,0.00296162,-0.000900053,0.00337903,0.00102084,-1.13656,0.00200117,0.0389832,706,862,-27.1419,-0.737224
-511,162,-27.1953,0.420837,0.00300847,0.00299109,-0.000616069,0.00361591,0.00238365,-0.778346,0.00212263,0.0414258,713,862,-27.1953,-0.420842
-504,162,-27.2231,0.462891,0.00607604,0.00217254,-0.000152106,0.00608196,0.00216662,-0.0388881,0.00355947,0.0417196,720,862,-27.2232,-0.46292
-497,162,-26.984,0.70697,0.0108853,0.000135802,0.000453653,0.0109044,0.000116691,0.0421023,0.00723105,0.0418778,727,862,-26.984,-0.706967
-490,162,0,0,0,0,0,0,0,0,0,-1,734,862,0,0
-483,162,0,0,0,0,0,0,0,0,0,-1,741,862,0,0
-476,162,0,0,0,0,0,0,0,0,0,-1,748,862,0,0
-469,162,0,0,0,0,0,0,0,0,0,-1,755,862,0,0
-462,162,0,0,0,0,0,0,0,0,0,-1,762,862,0,0
-455,162,0,0,0,0,0,0,0,0,0,-1,769,862,0,0
-448,162,0,0,0,0,0,0,0,0,0,-1,776,862,0,0
-441,162,0,0,0,0,0,0,0,0,0,-1,783,862,0,0
-434,162,0,0,0,0,0,0,0,0,0,-1,790,862,0,0
-427,162,0,0,0,0,0,0,0,0,0,-1,797,862,0,0
-420,162,0,0,0,0,0,0,0,0,0,-1,804,862,0,0
-413,162,0,0,0,0,0,0,0,0,0,-1,811,862,0,0
-406,162,0,0,0,0,0,0,0,0,0,-1,818,862,0,0
-399,162,0,0,0,0,0,0,0,0,0,-1,825,862,0,0
-392,162,0,0,0,0,0,0,0,0,0,-1,832,862,0,0
-385,162,0,0,0,0,0,0,0,0,0,-1,839,862,0,0
-378,162,0,0,0,0,0,0,0,0,0,-1,846,862,0,0
-371,162,0,0,0,0,0,0,0,0,0,-1,853,862,0,0
-364,162,0,0,0,0,0,0,0,0,0,-1,860,862,0,0
-357,162,0,0,0,0,0,0,0,0,0,-1,867,862,0,0
-350,162,0,0,0,0,0,0,0,0,0,-1,874,862,0,0
-343,162,0,0,0,0,0,0,0,0,0,-1,881,862,0,0
-336,162,0,0,0,0,0,0,0,0,0,-1,888,862,0,0
-329,162,0,0,0,0,0,0,0,0,0,-1,895,862,0,0
-322,162,0,0,0,0,0,0,0,0,0,-1,902,862,0,0
-315,162,0,0,0,0,0,0,0,0,0,-1,909,862,0,0
-308,162,0,0,0,0,0,0,0,0,0,-1,916,862,0,0
-301,162,0,0,0,0,0,0,0,0,0,-1,923,862,0,0
-294,162,0,0,0,0,0,0,0,0,0,-1,930,862,0,0
-287,162,0,0,0,0,0,0,0,0,0,-1,937,862,0,0
-280,162,0,0,0,0,0,0,0,0,0,-1,944,862,0,0
-273,162,0,0,0,0,0,0,0,0,0,-1,951,862,0,0
-266,162,0,0,0,0,0,0,0,0,0,-1,958,862,0,0
-259,162,0,0,0,0,0,0,0,0,0,-1,965,862,0,0
-252,162,0,0,0,0,0,0,0,0,0,-1,972,862,0,0
-245,162,0,0,0,0,0,0,0,0,0,-1,979,862,0,0
-238,162,0,0,0,0,0,0,0,0,0,-1,986,862,0,0
-231,162,0,0,0,0,0,0,0,0,0,-1,993,862,0,0
-224,162,0,0,0,0,0,0,0,0,0,-1,1000,862,0,0
-217,162,0,0,0,0,0,0,0,0,0,-1,1007,862,0,0
-210,162,0,0,0,0,0,0,0,0,0,-1,1014,862,0,0
-203,162,0,0,0,0,0,0,0,0,0,-1,1021,862,0,0
-196,162,0,0,0,0,0,0,0,0,0,-1,1028,862,0,0
-189,162,0,0,0,0,0,0,0,0,0,-1,1035,862,0,0
-182,162,0,0,0,0,0,0,0,0,0,-1,1042,862,0,0
-175,162,0,0,0,0,0,0,0,0,0,-1,1049,862,0,0
-168,162,0,0,0,0,0,0,0,0,0,-1,1056,862,0,0
-161,162,0,0,0,0,0,0,0,0,0,-1,1063,862,0,0
-154,162,0,0,0,0,0,0,0,0,0,-1,1070,862,0,0
-147,162,0,0,0,0,0,0,0,0,0,-1,1077,862,0,0
-140,162,0,0,0,0,0,0,0,0,0,-1,1084,862,0,0
-133,162,0,0,0,0,0,0,0,0,0,-1,1091,862,0,0
-126,162,0,0,0,0,0,0,0,0,0,-1,1098,862,0,0
-119,162,0,0,0,0,0,0,0,0,0,-1,1105,862,0,0
-112,162,0,0,0,0,0,0,0,0,0,-1,1112,862,0,0
-105,162,0,0,0,0,0,0,0,0,0,-1,1119,862,0,0
-98,162,0,0,0,0,0,0,0,0,0,-1,1126,862,0,0
-91,162,0,0,0,0,0,0,0,0,0,-1,1133,862,0,0
-84,162,0,0,0,0,0,0,0,0,0,-1,1140,862,0,0
-77,162,0,0,0,0,0,0,0,0,0,-1,1147,862,0,0
-70,162,0,0,0,0,0,0,0,0,0,-1,1154,862,0,0
-63,162,0,0,0,0,0,0,0,0,0,-1,1161,862,0,0
-56,162,0,0,0,0,0,0,0,0,0,-1,1168,862,0,0
-49,162,0,0,0,0,0,0,0,0,0,-1,1175,862,0,0
-42,162,0,0,0,0,0,0,0,0,0,-1,1182,862,0,0
-35,162,0,0,0,0,0,0,0,0,0,-1,1189,862,0,0
-28,162,0,0,0,0,0,0,0,0,0,-1,1196,862,0,0
-21,162,0,0,0,0,0,0,0,0,0,-1,1203,862,0,0
-14,162,0,0,0,0,0,0,0,0,0,-1,1210,862,0,0
-7,162,0,0,0,0,0,0,0,0,0,-1,1217,862,0,0
0,162,0,0,0,0,0,0,0,0,0,-1,1224,862,0,0
7,162,0,0,0,0,0,0,0,0,0,-1,1231,862,0,0
14,162,0,0,0,0,0,0,0,0,0,-1,1238,862,0,0
21,162,0,0,0,0,0,0,0,0,0,-1,1245,862,0,0
28,162,0,0,0,0,0,0,0,0,0,-1,1252,862,0,0
35,162,0,0,0,0,0,0,0,0,0,-1,1259,862,0,0
42,162,0,0,0,0,0,0,0,0,0,-1,1266,862,0,0
49,162,0,0,0,0,0,0,0,0,0,-1,1273,862,0,0
56,162,0,0,0,0,0,0,0,0,0,-1,1280,862,0,0
63,162,0,0,0,0,0,0,0,0,0,-1,1287,862,0,0
70,162,0,0,0,0,0,0,0,0,0,-1,1294,862,0,0
77,162,0,0,0,0,0,0,0,0,0,-1,1301,862,0,0
84,162,0,0,0,0,0,0,0,0,0,-1,1308,862,0,0
91,162,0,0,0,0,0,0,0,0,0,-1,1315,862,0,0
98,162,0,0,0,0,0,0,0,0,0,-1,1322,862,0,0
105,162,0,0,0,0,0,0,0,0,0,-1,1329,862,0,0
112,162,0,0,0,0,0,0,0,0,0,-1,1336,862,0,0
119,162,0,0,0,0,0,0,0,0,0,-1,1343,862,0,0
126,162,0,0,0,0,0,0,0,0,0,-1,1350,862,0,0
133,162,0,0,0,0,0,0,0,0,0,-1,1357,862,0,0
140,162,0,0,0,0,0,0,0,0,0,-1,1364,862,0,0
147,162,0,0,0,0,0,0,0,0,0,-1,1371,862,0,0
154,162,0,0,0,0,0,0,0,0,0,-1,1378,862,0,0
161,162,0,0,0,0,0,0,0,0,0,-1,1385,862,0,0
168,162,0,0,0,0,0,0,0,0,0,-1,1392,862,0,0
175,162,0,0,0,0,0,0,0,0,0,-1,1399,862,0,0
182,162,0,0,0,0,0,0,0,0,0,-1,1406,862,0,0
189,162,0,0,0,0,0,0,0,0,0,-1,1413,862,0,0
196,162,0,0,0,0,0,0,0,0,0,-1,1420,862,0,0
203,162,0,0,0,0,0,0,0,0,0,-1,1427,862,0,0
210,162,0,0,0,0,0,0,0,0,0,-1,1434,862,0,0
217,162,0,0,0,0,0,0,0,0,0,-1,1441,862,0,0
224,162,0,0,0,0,0,0,0,0,0,-1,1448,862,0,0
231,162,0,0,0,0,0,0,0,0,0,-1,1455,862,0,0
238,162,0,0,0,0,0,0,0,0,0,-1,1462,862,0,0
245,162,0,0,0,0,0,0,0,0,0,-1,1469,862,0,0
252,162,0,0,0,0,0,0,0,0,0,-1,1476,862,0,0
259,162,0,0,0,0,0,0,0,0,0,-1,1483,862,0,0
266,162,0,0,0,0,0,0,0,0,0,-1,1490,862,0,0
273,162,0,0,0,0,0,0,0,0,0,-1,1497,862,0,0
280,162,0,0,0,0,0,0,0,0,0,-1,1504,862,0,0
287,162,0,0,0,0,0,0,0,0,0,-1,1511,862,0,0
294,162,0,0,0,0,0,0,0,0,0,-1,1518,862,0,0
301,162,0,0,0,0,0,0,0,0,0,-1,1525,862,0,0
308,162,0,0,0,0,0,0,0,0,0,-1,1532,862,0,0
315,162,0,0,0,0,0,0,0,0,0,-1,1539,862,0,0
322,162,0,0,0,0,0,0,0,0,0,-1,1546,862,0,0
329,162,0,0,0,0,0,0,0,0,0,-1,1553,862,0,0
336,162,0,0,0,0,0,0,0,0,0,-1,1560,862,0,0
343,162,0,0,0,0,0,0,0,0,0,-1,1567,862,0,0
350,162,0,0,0,0,0,0,0,0,0,-1,1574,862,0,0
357,162,0,0,0,0,0,0,0,0,0,-1,1581,862,0,0
364,162,0,0,0,0,0,0,0,0,0,-1,1588,862,0,0
371,162,0,0,0,0,0,0,0,0,0,-1,1595,862,0,0
378,162,0,0,0,0,0,0,0,0,0,-1,1602,862,0,0
385,162,0,0,0,0,0,0,0,0,0,-1,1609,862,0,0
392,162,0,0,0,0,0,0,0,0,0,-1,1616,862,0,0
399,162,0,0,0,0,0,0,0,0,0,-1,1623,862,0,0
406,162,0,0,0,0,0,0,0,0,0,-1,1630,862,0,0
413,162,0,0,0,0,0,0,0,0,0,-1,1637,862,0,0
420,162,0,0,0,0,0,0,0,0,0,-1,1644,862,0,0
427,162,0,0,0,0,0,0,0,0,0,-1,1651,862,0,0
434,162,0,0,0,0,0,0,0,0,0,-1,1658,862,0,0
441,162,0,0,0,0,0,0,0,0,0,-1,1665,862,0,0
448,162,0,0,0,0,0,0,0,0,0,-1,1672,862,0,0
455,162,0,0,0,0,0,0,0,0,0,-1,1679,862,0,0
462,162,0,0,0,0,0,0,0,0,0,-1,1686,862,0,0
469,162,0,0,0,0,0,0,0,0,0,-1,1693,862,0,0
476,162,0,0,0,0,0,0,0,0,0,-1,1700,862,0,0
483,162,0,0,0,0,0,0,0,0,0,-1,1707,862,0,0
490,162,0,0,0,0,0,0,0,0,0,-1,1714,862,0,0
497,162,0,0,0,0,0,0,0,0,0,-1,1721,862,0,0
504,162,0,0,0,0,0,0,0,0,0,-1,1728,862,0,0
511,162,0,0,0,0,0,0,0,0,0,-1,1735,862,0,0
518,162,0,0,0,0,0,0,0,0,0,-1,1742,862,0,0
525,162,0,0,0,0,0,0,0,0,0,-1,1749,862,0,0
532,162,0,0,0,0,0,0,0,0,0,-1,1756,862,0,0
539,162,0,0,0,0,0,0,0,0,0,-1,1763,862,0,0
546,162,0,0,0,0,0,0,0,0,0,-1,1770,862,0,0
553,162,0,0,0,0,0,0,0,0,0,-1,1777,862,0,0
560,162,0,0,0,0,0,0,0,0,0,-1,1784,862,0,0
567,162,0,0,0,0,0,0,0,0,0,-1,1791,862,0,0
574,162,0,0,0,0,0,0,0,0,0,-1,1798,862,0,0
581,162,0,0,0,0,0,0,0,0,0,-1,1805,862,0,0
588,162,0,0,0,0,0,0,0,0,0,-1,1812,862,0,0
595,162,0,0,0,0,0,0,0,0,0,-1,1819,862,0,0
602,162,0,0,0,0,0,0,0,0,0,-1,1826,862,0,0
609,162,0,0,0,0,0,0,0,0,0,-1,1833,862,0,0
616,162,36.756,2.50647,0.00440394,-0.00157116,0.00176311,0.00488539,-0.00205261,0.266573,0.00411545,0.0430998,1840,862,36.756,-2.50647
623,162,36.8998,2.58667,0.00318485,-0.000803104,0.00167089,0.00379238,-0.00141063,0.348734,0.0031071,0.0458314,1847,862,36.8998,-2.58668
630,162,37.0721,2.461,0.00218372,-0.000169582,0.00136354,0.00280811,-0.000793968,0.429418,0.00218535,0.0431349,1854,862,37.0722,-2.46098
637,162,36.9015,2.61023,0.00145991,0.000348375,0.00105027,0.0020924,-0.000284111,0.542044,0.00149864,0.0389711,1861,862,36.9015,-2.61023
644,162,36.8865,2.53571,0.00104315,0.000474772,0.000749437,0.00156047,-4.25498e-05,0.604172,0.00105478,0.0368128,1868,862,36.8864,-2.53568
651,162,36.8966,2.50568,0.000827446,0.00038056,0.000493579,0.0011458,6.22026e-05,0.57285,0.000744002,0.0331082,1875,862,36.8966,-2.50566
658,162,36.9655,2.42859,0.000789871,0.000222439,0.000254198,0.000887089,0.00012522,0.365289,0.000554387,0.033628,1882,862,36.9655,-2.4286
665,162,36.9725,2.46704,0.000610715,5.27762e-05,8.55027e-05,0.000623524,3.99672e-05,0.148702,0.000403022,0.0437796,1889,862,36.9725,-2.46704
672,162,36.9425,2.53223,0,0,0,0,0,0,0,-1,1896,862,36.9425,-2.5322
679,162,26.5077,2.54785,0,0,0,0,0,0,0,-1,1903,862,26.5077,-2.54787
686,162,30.6711,1.823,0,0,0,0,0,0,0,-1,1910,862,30.6712,-1.823
693,162,30.6683,2.29675,0.000156812,-0.000397415,-0.00067217,0.000606751,-0.000847353,-0.58988,0.000843349,0.0208621,1917,862,30.6683,-2.29672
700,162,30.7206,2.64801,0.000171459,-0.000489249,-0.000617481,0.000541403,-0.000859193,-0.53977,0.000815543,0.0196279,1924,862,30.7205,-2.64799
707,162,30.6908,2.98157,6.68004e-06,-0.000429343,-0.000695012,0.000517071,-0.000939734,-0.633418,0.000852805,0.0145234,1931,862,30.6908,-2.98154
714,162,30.6185,3.31873,-0.00014275,-9.63573e-05,-0.00077304,0.000653834,-0.000892941,-0.800397,0.000896581,0.0172541,1938,862,30.6185,-3.31872
721,162,30.5472,3.75714,-1.67933e-05,0.000473006,-0.000881428,0.00114292,-0.000686711,-0.920902,0.00106723,0.028196,1945,862,30.5472,-3.75712
728,162,30.5234,4.10956,0.00016859,0.00111923,-0.000934863,0.00169267,-0.000404849,-1.02059,0.00128484,0.0212091,1952,862,30.5234,-4.10953
735,162,30.571,4.49072,0.000579528,0.00193495,-0.00104757,0.00250491,9.56445e-06,-1.07251,0.00166676,0.0102463,1959,862,30.5711,-4.49073
742,162,30.5448,4.87549,0.00122383,0.00290331,-0.00115993,0.00349557,0.000631576,-1.09871,0.00215099,0.0132219,1966,862,30.5448,-4.87548
749,162,30.4651,5.22375,0.00217793,0.00399482,-0.0012892,0.0046635,0.00150925,-1.09232,0.00274774,0.018837,1973,862,30.4651,-5.22376
756,162,30.3624,5.53406,0.00355542,0.00536753,-0.00143978,0.00616262,0.00276033,-1.06624,0.00356442,0.0408922,1980,862,30.3625,-5.53408
763,162,30.275,5.86328,0,0,0,0,0,0,0,-1,1987,862,30.2751,-5.86331
770,162,30.6849,6.6106,0,0,0,0,0,0,0,-1,1994,862,30.685,-6.61058
777,162,30.0189,7.36224,0,0,0,0,0,0,0,-1,2001,862,30.0189,-7.36222
784,162,29.5725,6.9259,0,0,0,0,0,0,0,-1,2008,862,29.5725,-6.92593
791,162,0,0,0,0,0,0,0,0,0,-1,2015,862,0,0
798,162,0,0,0,0,0,0,0,0,0,-1,2022,862,0,0
805,162,0,0,0,0,0,0,0,0,0,-1,2029,862,0,0
812,162,0,0,0,0,0,0,0,0,0,-1,2036,862,0,0
-700,155,0,0,0,0,0,0,0,0,0,-1,524,869,0,0
-693,155,0,0,0,0,0,0,0,0,0,-1,531,869,0,0
-686,155,0,0,0,0,0,0,0,0,0,-1,538,869,0,0
-679,155,0,0,0,0,0,0,0,0,0,-1,545,869,0,0
-672,155,0,0,0,0,0,0,0,0,0,-1,552,869,0,0
-665,155,-23.6044,5.22723,0,0,0,0,0,0,0,-1,559,869,-23.6044,-5.22723
-658,155,-23.053,5.30109,0,0,0,0,0,0,0,-1,566,869,-23.053,-5.30111
-651,155,-21.6061,2.35992,0,0,0,0,0,0,0,-1,573,869,-21.6061,-2.35994
-644,155,-21.6889,2.45074,0,0,0,0,0,0,0,-1,580,869,-21.6889,-2.45074
-637,155,-21.7283,2.55591,0,0,0,0,0,0,0,-1,587,869,-21.7283,-2.55592
-630,155,-21.8538,2.71893,0.0171184,-4.32895e-05,-0.00339167,0.0177643,-0.000689273,-0.188207,0.0120792,0.0433922,594,869,-21.8538,-2.71892
-623,155,-21.955,2.8681,0.0104551,-0.000964447,-0.000582603,0.0104848,-0.000994093,-0.0508419,0.00734369,0.0267905,601,869,-21.955,-2.86809
-616,155,-21.9962,2.55646,0.00587445,-0.000842594,0.000928698,0.00600049,-0.000968631,0.134889,0.00435922,0.0145238,608,869,-21.9962,-2.55645
-609,155,-22.0439,2.19458,0.00295241,-0.000822259,0.00179153,0.00366731,-0.00153716,0.379681,0.00308756,0.0123759,615,869,-22.044,-2.19455
-602,155,-22.0726,1.85278,0.00108663,-0.000571688,0.00197164,0.00239636,-0.00188142,0.586354,0.00247574,0.0114708,622,869,-22.0725,-1.85279
-595,155,-22.0927,1.50824,6.01169e-05,-0.000394602,0.00192618,0.00177231,-0.00210679,0.726652,0.00224237,0.0114087,629,869,-22.0927,-1.50827
-588,155,-22.0893,1.17542,-0.000414217,-0.000247096,0.00160598,0.0012775,-0.00193881,0.81139,0.00186998,0.0133649,636,869,-22.0893,-1.17544
-581,155,-22.2221,0.924194,-0.000344111,-0.00024711,0.00123895,0.000944292,-0.00153551,0.804961,0.00144522,0.0231969,643,869,-22.2221,-0.924179
-574,155,-22.3104,0.65686,-8.74356e-05,-5.56167e-05,0.000716017,0.000644668,-0.00078772,0.796506,0.000828363,0.0302597,650,869,-22.3104,-0.656867
-567,155,-22.2612,0.101563,-2.13549e-06,0.000344893,0.000194465,0.000432001,-8.92432e-05,1.14966,0.000321899,0.0324766,657,869,-22.2612,-0.101569
-560,155,-22.1595,-0.374146,-2.80926e-05,0.000476822,-0.000287444,0.000606933,-0.000158204,-1.14574,0.000466389,0.028139,664,869,-22.1596,0.37417
-553,155,-21.9508,-1.09143,0,0,0,0,0,0,0,-1,671,869,-21.9508,1.09146
-546,155,-22.7988,0.873657,0,0,0,0,0,0,0,-1,678,869,-22.7988,-0.873645
-539,155,-27.0035,0.69458,0,0,0,0,0,0,0,-1,685,869,-27.0035,-0.694572
-532,155,-26.985,0.783752,0.000922002,0.00173709,-0.0011328,0.00253343,0.000125667,-0.958074,0.00164866,0.0359861,692,869,-26.985,-0.783762
-525,155,-26.9966,0.808899,0.00118169,0.00210158,-0.00128006,0.00300183,0.000281451,-0.957872,0.00191431,0.0370533,699,869,-26.9966,-0.808869
-518,155,-27.0513,0.686829,0.00185039,0.00230533,-0.00124476,0.00334324,0.000812484,-0.875771,0.0020134,0.0398898,706,869,-27.0514,-0.686827
-511,155,-27.0244,0.545471,0.00365393,0.0020682,-0.00098785,0.00412775,0.00159439,-0.447231,0.00240362,0.0413067,713,869,-27.0244,-0.54545
-504,155,-27.0057,0.424316,0.00697119,0.00101869,-0.00058515,0.00702817,0.000961709,-0.0970651,0.00440005,0.0423942,720,869,-27.0057,-0.424337
-497,155,0,0,0,0,0,0,0,0,0,-1,727,869,0,0
-490,155,0,0,0,0,0,0,0,0,0,-1,734,869,0,0
-483,155,0,0,0,0,0,0,0,0,0,-1,741,869,0,0
-476,155,0,0,0,0,0,0,0,0,0,-1,748,869,0,0
-469,155,0,0,0,0,0,0,0,0,0,-1,755,869,0,0
-462,155,0,0,0,0,0,0,0,0,0,-1,762,869,0,0
-455,155,0,0,0,0,0,0,0,0,0,-1,769,869,0,0
-448,155,0,0,0,0,0,0,0,0,0,-1,776,869,0,0
-441,155,0,0,0,0,0,0,0,0,0,-1,783,869,0,0
-434,155,0,0,0,0,0,0,0,0,0,-1,790,869,0,0
-427,155,0,0,0,0,0,0,0,0,0,-1,797,869,0,0
-420,155,0,0,0,0,0,0,0,0,0,-1,804,869,0,0
-413,155,0,0,0,0,0,0,0,0,0,-1,811,869,0,0
-406,155,0,0,0,0,0,0,0,0,0,-1,818,869,0,0
-399,155,0,0,0,0,0,0,0,0,0,-1,825,869,0,0
-392,155,0,0,0,0,0,0,0,0,0,-1,832,869,0,0
-385,155,0,0,0,0,0,0,0,0,0,-1,839,869,0,0
-378,155,0,0,0,0,0,0,0,0,0,-1,846,869,0,0
-371,155,0,0,0,0,0,0,0,0,0,-1,853,869,0,0
-364,155,0,0,0,0,0,0,0,0,0,-1,860,869,0,0
-357,155,0,0,0,0,0,0,0,0,0,-1,867,869,0,0
-350,155,0,0,0,0,0,0,0,0,0,-1,874,869,0,0
-343,155,0,0,0,0,0,0,0,0,0,-1,881,869,0,0
-336,155,0,0,0,0,0,0,0,0,0,-1,888,869,0,0
-329,155,0,0,0,0,0,0,0,0,0,-1,895,869,0,0
-322,155,0,0,0,0,0,0,0,0,0,-1,902,869,0,0
-315,155,0,0,0,0,0,0,0,0,0,-1,909,869,0,0
-308,155,0,0,0,0,0,0,0,0,0,-1,916,869,0,0
-301,155,0,0,0,0,0,0,0,0,0,-1,923,869,0,0
-294,155,0,0,0,0,0,0,0,0,0,-1,930,869,0,0
-287,155,0,0,0,0,0,0,0,0,0,-1,937,869,0,0
-280,155,0,0,0,0,0,0,0,0,0,-1,944,869,0,0
-273,155,0,0,0,0,0,0,0,0,0,-1,951,869,0,0
-266,155,0,0,0,0,0,0,0,0,0,-1,958,869,0,0
-259,155,0,0,0,0,0,0,0,0,0,-1,965,869,0,0
-252,155,0,0,0,0,0,0,0,0,0,-1,972,869,0,0
-245,155,0,0,0,0,0,0,0,0,0,-1,979,869,0,0
-238,155,0,0,0,0,0,0,0,0,0,-1,986,869,0,0
-231,155,0,0,0,0,0,0,0,0,0,-1,993,869,0,0
-224,155,0,0,0,0,0,0,0,0,0,-1,1000,869,0,0
-217,155,0,0,0,0,0,0,0,0,0,-1,1007,869,0,0
-210,155,0,0,0,0,0,0,0,0,0,-1,1014,869,0,0
-203,155,0,0,0,0,0,0,0,0,0,-1,1021,869,0,0
-196,155,0,0,0,0,0,0,0,0,0,-1,1028,869,0,0
-189,155,0,0,0,0,0,0,0,0,0,-1,1035,869,0,0
-182,155,0,0,0,0,0,0,0,0,0,-1,1042,869,0,0
-175,155,0,0,0,0,0,0,0,0,0,-1,1049,869,0,0
-168,155,0,0,0,0,0,0,0,0,0,-1,1056,869,0,0
-161,155,0,0,0,0,0,0,0,0,0,-1,1063,869,0,0
-154,155,0,0,0,0,0,0,0,0,0,-1,1070,869,0,0
-147,155,0,0,0,0,0,0,0,0,0,-1,1077,869,0,0
-140,155,0,0,0,0,0,0,0,0,0,-1,1084,869,0,0
-133,155,0,0,0,0,0,0,0,0,0,-1,1091,869,0,0
-126,155,0,0,0,0,0,0,0,0,0,-1,1098,869,0,0
-119,155,0,0,0,0,0,0,0,0,0,-1,1105,869,0,0
-112,155,0,0,0,0,0,0,0,0,0,-1,1112,869,0,0
-105,155,0,0,0,0,0,0,0,0,0,-1,1119,869,0,0
-98,155,0,0,0,0,0,0,0,0,0,-1,1126,869,0,0
-91,155,0,0,0,0,0,0,0,0,0,-1,1133,869,0,0
-84,155,0,0,0,0,0,0,0,0,0,-1,1140,869,0,0
-77,155,0,0,0,0,0,0,0,0,0,-1,1147,869,0,0
-70,155,0,0,0,0,0,0,0,0,0,-1,1154,869,0,0
-63,155,0,0,0,0,0,0,0,0,0,-1,1161,869,0,0
-56,155,0,0,0,0,0,0,0,0,0,-1,1168,869,0,0
-49,155,0,0,0,0,0,0,0,0,0,-1,1175,869,0,0
-42,155,0,0,0,0,0,0,0,0,0,-1,1182,869,0,0
-35,155,0,0,0,0,0,0,0,0,0,-1,1189,869,0,0
-28,155,0,0,0,0,0,0,0,0,0,-1,1196,869,0,0
-21,155,0,0,0,0,0,0,0,0,0,-1,1203,869,0,0
-14,155,0,0,0,0,0,0,0,0,0,-1,1210,869,0,0
-7,155,0,0,0,0,0,0,0,0,0,-1,1217,869,0,0
0,155,0,0,0,0,0,0,0,0,0,-1,1224,869,0,0
7,155,0,0,0,0,0,0,0,0,0,-1,1231,869,0,0
14,155,0,0,0,0,0,0,0,0,0,-1,1238,869,0,0
21,155,0,0,0,0,0,0,0,0,0,-1,1245,869,0,0
28,155,0,0,0,0,0,0,0,0,0,-1,1252,869,0,0
35,155,0,0,0,0,0,0,0,0,0,-1,1259,869,0,0
42,155,0,0,0,0,0,0,0,0,0,-1,1266,869,0,0
49,155,0,0,0,0,0,0,0,0,0,-1,1273,869,0,0
56,155,0,0,0,0,0,0,0,0,0,-1,1280,869,0,0
63,155,0,0,0,0,0,0,0,0,0,-1,1287,869,0,0
70,155,0,0,0,0,0,0,0,0,0,-1,1294,869,0,0
77,155,0,0,0,0,0,0,0,0,0,-1,1301,869,0,0
84,155,0,0,0,0,0,0,0,0,0,-1,1308,869,0,0
91,155,0,0,0,0,0,0,0,0,0,-1,1315,869,0,0
98,155,0,0,0,0,0,0,0,0,0,-1,1322,869,0,0
105,155,0,0,0,0,0,0,0,0,0,-1,1329,869,0,0
112,155,0,0,0,0,0,0,0,0,0,-1,1336,869,0,0
119,155,0,0,0,0,0,0,0,0,0,-1,1343,869,0,0
126,155,0,0,0,0,0,0,0,0,0,-1,1350,869,0,0
133,155,0,0,0,0,0,0,0,0,0,-1,1357,869,0,0
140,155,0,0,0,0,0,0,0,0,0,-1,1364,869,0,0
147,155,0,0,0,0,0,0,0,0,0,-1,1371,869,0,0
154,155,0,0,0,0,0,0,0,0,0,-1,1378,869,0,0
161,155,0,0,0,0,0,0,0,0,0,-1,1385,869,0,0
168,155,0,0,0,0,0,0,0,0,0,-1,1392,869,0,0
175,155,0,0,0,0,0,0,0,0,0,-1,1399,869,0,0
182,155,0,0,0,0,0,0,0,0,0,-1,1406,869,0,0
189,155,0,0,0,0,0,0,0,0,0,-1,1413,869,0,0
196,155,0,0,0,0,0,0,0,0,0,-1,1420,869,0,0
203,155,0,0,0,0,0,0,0,0,0,-1,1427,869,0,0
210,155,0,0,0,0,0,0,0,0,0,-1,1434,869,0,0
217,155,0,0,0,0,0,0,0,0,0,-1,1441,869,0,0
224,155,0,0,0,0,0,0,0,0,0,-1,1448,869,0,0
231,155,0,0,0,0,0,0,0,0,0,-1,1455,869,0,0
238,155,0,0,0,0,0,0,0,0,0,-1,1462,869,0,0
245,155,0,0,0,0,0,0,0,0,0,-1,1469,869,0,0
252,155,0,0,0,0,0,0,0,0,0,-1,1476,869,0,0
259,155,0,0,0,0,0,0,0,0,0,-1,1483,869,0,0
266,155,0,0,0,0,0,0,0,0,0,-1,1490,869,0,0
273,155,0,0,0,0,0,0,0,0,0,-1,1497,869,0,0
280,155,0,0,0,0,0,0,0,0,0,-1,1504,869,0,0
287,155,0,0,0,0,0,0,0,0,0,-1,1511,869,0,0
294,155,0,0,0,0,0,0,0,0,0,-1,1518,869,0,0
301,155,0,0,0,0,0,0,0,0,0,-1,1525,869,0,0
308,155,0,0,0,0,0,0,0,0,0,-1,1532,869,0,0
315,155,0,0,0,0,0,0,0,0,0,-1,1539,869,0,0
322,155,0,0,0,0,0,0,0,0,0,-1,1546,869,0,0
329,155,0,0,0,0,0,0,0,0,0,-1,1553,869,0,0
336,155,0,0,0,0,0,0,0,0,0,-1,1560,869,0,0
343,155,0,0,0,0,0,0,0,0,0,-1,1567,869,0,0
350,155,0,0,0,0,0,0,0,0,0,-1,1574,869,0,0
357,155,0,0,0,0,0,0,0,0,0,-1,1581,869,0,0
364,155,0,0,0,0,0,0,0,0,0,-1,1588,869,0,0
371,155,0,0,0,0,0,0,0,0,0,-1,1595,869,0,0
378,155,0,0,0,0,0,0,0,0,0,-1,1602,869,0,0
385,155,0,0,0,0,0,0,0,0,0,-1,1609,869,0,0
392,155,0,0,0,0,0,0,0,0,0,-1,1616,869,0,0
399,155,0,0,0,0,0,0,0,0,0,-1,1623,869,0,0
406,155,0,0,0,0,0,0,0,0,0,-1,1630,869,0,0
413,155,0,0,0,0,0,0,0,0,0,-1,1637,869,0,0
420,155,0,0,0,0,0,0,0,0,0,-1,1644,869,0,0
427,155,0,0,0,0,0,0,0,0,0,-1,1651,869,0,0
434,155,0,0,0,0,0,0,0,0,0,-1,1658,869,0,0
441,155,0,0,0,0,0,0,0,0,0,-1,1665,869,0,0
448,155,0,0,0,0,0,0,0,0,0,-1,1672,869,0,0
455,155,0,0,0,0,0,0,0,0,0,-1,1679,869,0,0
462,155,0,0,0,0,0,0,0,0,0,-1,1686,869,0,0
469,155,0,0,0,0,0,0,0,0,0,-1,1693,869,0,0
476,155,0,0,0,0,0,0,0,0,0,-1,1700,869,0,0
483,155,0,0,0,0,0,0,0,0,0,-1,1707,869,0,0
490,155,0,0,0,0,0,0,0,0,0,-1,1714,869,0,0
497,155,0,0,0,0,0,0,0,0,0,-1,1721,869,0,0
504,155,0,0,0,0,0,0,0,0,0,-1,1728,869,0,0
511,155,0,0,0,0,0,0,0,0,0,-1,1735,869,0,0
518,155,0,0,0,0,0,0,0,0,0,-1,1742,869,0,0
525,155,0,0,0,0,0,0,0,0,0,-1,1749,869,0,0
532,155,0,0,0,0,0,0,0,0,0,-1,1756,869,0,0
539,155,0,0,0,0,0,0,0,0,0,-1,1763,869,0,0
546,155,0,0,0,0,0,0,0,0,0,-1,1770,869,0,0
553,155,0,0,0,0,0,0,0,0,0,-1,1777,869,0,0
560,155,0,0,0,0,0,0,0,0,0,-1,1784,869,0,0
567,155,0,0,0,0,0,0,0,0,0,-1,1791,869,0,0
574,155,0,0,0,0,0,0,0,0,0,-1,1798,869,0,0
581,155,0,0,0,0,0,0,0,0,0,-1,1805,869,0,0
588,155,0,0,0,0,0,0,0,0,0,-1,1812,869,0,0
595,155,0,0,0,0,0,0,0,0,0,-1,1819,869,0,0
602,155,0,0,0,0,0,0,0,0,0,-1,1826,869,0,0
609,155,0,0,0,0,0,0,0,0,0,-1,1833,869,0,0
616,155,36.8683,2.51135,0.00555503,-0.00185271,0.00285398,0.00652704,-0.00282472,0.328259,0.00553849,0.0450553,1840,869,36.8682,-2.51132
623,155,36.8436,2.54236,0.00406291,-0.00113741,0.00237884,0.00498691,-0.00206142,0.370488,0.00418457,0.0441215,1847,869,36.8437,-2.54236
630,155,36.9005,2.4046,0.00286242,-0.000524821,0.00176079,0.0036119,-0.0012743,0.40242,0.00292668,0.0450746,1854,869,36.9006,-2.40459
637,155,36.8557,2.55237,0.0019828,2.15608e-05,0.00121208,0.00256127,-0.000556902,0.445283,0.00192025,0.042008,1861,869,36.8557,-2.55237
644,155,36.8485,2.52295,0.00143375,0.000204191,0.000758784,0.00179555,-0.000157609,0.444929,0.00125288,0.0373537,1868,869,36.8485,-2.52297
651,155,36.8809,2.49237,0.00111359,0.000184027,0.000421799,0.00127646,2.11651e-05,0.368477,0.000844004,0.0327381,1875,869,36.8808,-2.49238
658,155,36.9364,2.50946,0.0010108,6.79496e-05,0.000158849,0.00103684,4.19064e-05,0.162503,0.000677693,0.0271498,1882,869,36.9364,-2.50946
665,155,36.8894,2.55865,0.000822527,-7.41953e-05,-8.95745e-06,0.000822616,-7.42848e-05,-0.00998778,0.000574775,0.0320645,1889,869,36.8894,-2.55866
672,155,36.834,2.62659,0,0,0,0,0,0,0,-1,1896,869,36.834,-2.62656
679,155,35.1565,2.78528,0,0,0,0,0,0,0,-1,1903,869,35.1565,-2.7853
686,155,30.8762,1.99078,0,0,0,0,0,0,0,-1,1910,869,30.8762,-1.99081
693,155,30.9888,2.30383,0.000264594,-0.000390547,-0.000705266,0.00071465,-0.000840603,-0.56799,0.000898907,0.031261,1917,869,30.9888,-2.30382
700,155,31.1055,2.7005,0.000242221,-0.000433541,-0.000627702,0.000617203,-0.000808523,-0.538497,0.00082561,0.0235339,1924,869,31.1055,-2.70053
707,155,31.1838,3.0907,0.000140526,-0.000359124,-0.000694486,0.000628755,-0.000847353,-0.612741,0.000855341,0.0175825,1931,869,31.1839,-3.09067
714,155,31.1423,3.39636,2.6674e-05,-6.3043e-05,-0.000788153,0.000771244,-0.000807613,-0.756971,0.000911634,0.0312356,1938,869,31.1423,-3.39636
721,155,30.9779,3.72668,7.29457e-05,0.000457917,-0.000896807,0.00118266,-0.0006518,-0.891111,0.00107381,0.0266527,1945,869,30.9779,-3.72669
728,155,30.9287,4.11493,0.00010609,0.00106764,-0.000972301,0.00167153,-0.000497808,-1.015,0.00131216,0.018906,1952,869,30.9287,-4.11491
735,155,30.9425,4.48804,0.00034129,0.00186337,-0.00112591,0.00246132,-0.00025666,-1.08259,0.00173278,0.0152005,1959,869,30.9425,-4.48802
742,155,30.9602,4.87994,0.000801322,0.00280568,-0.00128893,0.0034362,0.000170799,-1.11584,0.00223604,0.0177167,1966,869,30.9601,-4.87997
749,155,30.8904,5.23865,0.00157351,0.0038463,-0.00147184,0.00456939,0.000850414,-1.11414,0.00280608,0.0161347,1973,869,30.8904,-5.23866
756,155,30.806,5.57013,0.00271916,0.00513448,-0.00165945,0.00597919,0.00187445,-1.09995,0.00353123,0.0265252,1980,869,30.806,-5.57015
763,155,30.8087,5.94232,0,0,0,0,0,0,0,-1,1987,869,30.8087,-5.94229
770,155,30.7256,6.55072,0,0,0,0,0,0,0,-1,1994,869,30.7256,-6.5507
777,155,30.646,7.24634,0,0,0,0,0,0,0,-1,2001,869,30.646,-7.24635
784,155,30.8318,8.02759,0,0,0,0,0,0,0,-1,2008,869,30.8318,-8.02759
791,155,0,0,0,0,0,0,0,0,0,-1,2015,869,0,0
798,155,0,0,0,0,0,0,0,0,0,-1,2022,869,0,0
805,155,0,0,0,0,0,0,0,0,0,-1,2029,869,0,0
812,155,0,0,0,0,0,0,0,0,0,-1,2036,869,0,0
-700,148,0,0,0,0,0,0,0,0,0,-1,524,876,0,0
-693,148,0,0,0,0,0,0,0,0,0,-1,531,876,0,0
-686,148,0,0,0,0,0,0,0,0,0,-1,538,876,0,0
-679,148,0,0,0,0,0,0,0,0,0,-1,545,876,0,0
-672,148,-24.8226,6.14368,0,0,0,0,0,0,0,-1,552,876,-24.8226,-6.1437
-665,148,-24.462,6.18988,0,0,0,0,0,0,0,-1,559,876,-24.462,-6.18985
-658,148,-23.8802,6.30103,0,0,0,0,0,0,0,-1,566,876,-23.8803,-6.301
-651,148,-21.8351,2.927,0,0,0,0,0,0,0,-1,573,876,-21.8351,-2.92703
-644,148,-21.7888,2.18109,0,0,0,0,0,0,0,-1,580,876,-21.7887,-2.18107
-637,148,-21.804,2.15833,0,0,0,0,0,0,0,-1,587,876,-21.804,-2.15832
-630,148,-22.0353,2.5592,0.0150517,-0.00106445,-0.00282692,0.0155331,-0.00154594,-0.168702,0.0109073,0.0483527,594,876,-22.0354,-2.55919
-623,148,-22.2448,2.92914,0.00901468,-0.00192452,-6.26669e-05,0.00901504,-0.00192487,-0.0057284,0.00674385,0.0256184,601,876,-22.2448,-2.92916
-616,148,-22.3495,2.57947,0.00488749,-0.00157456,0.0013293,0.00515025,-0.00183733,0.195156,0.00418269,0.0139429,608,876,-22.3495,-2.57948
-609,148,-22.4092,2.2132,0.00230218,-0.00138252,0.00209652,0.00325083,-0.00233116,0.424918,0.00323731,0.0124571,615,876,-22.4092,-2.21319
-602,148,-22.436,1.86194,0.00068815,-0.000923076,0.00214409,0.00217298,-0.00240791,0.60569,0.00264594,0.0127621,622,876,-22.436,-1.86196
-595,148,-22.4478,1.52411,-0.000172968,-0.000582564,0.00201875,0.00165135,-0.00240688,0.734847,0.00235651,0.0112803,629,876,-22.4478,-1.52412
-588,148,-22.4697,1.14404,-0.00047669,-0.000262058,0.00159933,0.00123355,-0.0019723,0.818898,0.00186721,0.0183703,636,876,-22.4697,-1.14404
-581,148,-22.5803,0.86377,-0.000367019,-0.000152432,0.00121071,0.000955729,-0.00147518,0.829593,0.00141413,0.0312226,643,876,-22.5803,-0.863781
-574,148,-22.3156,0.617798,-0.000148304,0.00013211,0.000693529,0.000699462,-0.000715657,0.885136,0.000817037,0.0349975,650,876,-22.3155,-0.617806
-567,148,-22.5112,0.238586,-2.85291e-05,0.000561243,0.000153478,0.000598792,-6.60784e-05,1.33085,0.000422945,0.0448633,657,876,-22.5111,-0.238566
-560,148,-22.5402,-0.349731,0,0,0,0,0,0,0,-1,664,876,-22.5402,0.34975
-553,148,-18.3896,-0.00280762,0,0,0,0,0,0,0,-1,671,876,-18.3897,0.00278524
-546,148,-26.9772,0.745117,0,0,0,0,0,0,0,-1,678,876,-26.9771,-0.745146
-539,148,-26.9682,0.71814,0.000684418,0.00131477,-0.00110563,0.00214927,-0.000150081,-0.924248,0.0014854,0.0383507,685,876,-26.9682,-0.718168
-532,148,-26.9797,0.741455,0.000950332,0.00161015,-0.00134058,0.00266082,-0.000100336,-0.906048,0.00180825,0.0368539,692,876,-26.9797,-0.741458
-525,148,-26.9952,0.743652,0.00120767,0.00181555,-0.00152983,0.00307134,-4.81252e-05,-0.883458,0.00206379,0.0374722,699,876,-26.9952,-0.743681
-518,148,-26.9931,0.649658,0.0019842,0.00177118,-0.00156183,0.00344315,0.000312228,-0.751353,0.00219876,0.0435167,706,876,-26.9931,-0.649653
-511,148,-26.8385,0.690674,0.00393712,0.0012161,-0.00141499,0.00453957,0.000613656,-0.402513,0.00284398,0.0423495,713,876,-26.8385,-0.690687
-504,148,-26.7499,0.543274,0.00731098,-6.62524e-05,-0.00118133,0.00749554,-0.000250806,-0.154972,0.00508269,0.0427554,720,876,-26.7499,-0.543283
-497,148,0,0,0,0,0,0,0,0,0,-1,727,876,0,0
-490,148,0,0,0,0,0,0,0,0,0,-1,734,876,0,0
-483,148,0,0,0,0,0,0,0,0,0,-1,741,876,0,0
-476,148,0,0,0,0,0,0,0,0,0,-1,748,876,0,0
-469,148,0,0,0,0,0,0,0,0,0,-1,755,876,0,0
-462,148,0,0,0,0,0,0,0,0,0,-1,762,876,0,0
-455,148,0,0,0,0,0,0,0,0,0,-1,769,876,0,0
-448,148,0,0,0,0,0,0,0,0,0,-1,776,876,0,0
-441,148,0,0,0,0,0,0,0,0,0,-1,783,876,0,0
-434,148,0,0,0,0,0,0,0,0,0,-1,790,876,0,0
-427,148,0,0,0,0,0,0,0,0,0,-1,797,876,0,0
-420,148,0,0,0,0,0,0,0,0,0,-1,804,876,0,0
-413,148,0,0,0,0,0,0,0,0,0,-1,811,876,0,0
-406,148,0,0,0,0,0,0,0,0,0,-1,818,876,0,0
-399,148,0,0,0,0,0,0,0,0,0,-1,825,876,0,0
-392,148,0,0,0,0,0,0,0,0,0,-1,832,876,0,0
-385,148,0,0,0,0,0,0,0,0,0,-1,839,876,0,0
-378,148,0,0,0,0,0,0,0,0,0,-1,846,876,0,0
-371,148,0,0,0,0,0,0,0,0,0,-1,853,876,0,0
-364,148,0,0,0,0,0,0,0,0,0,-1,860,876,0,0
-357,148,0,0,0,0,0,0,0,0,0,-1,867,876,0,0
-350,148,0,0,0,0,0,0,0,0,0,-1,874,876,0,0
-343,148,0,0,0,0,0,0,0,0,0,-1,881,876,0,0
-336,148,0,0,0,0,0,0,0,0,0,-1,888,876,0,0
-329,148,0,0,0,0,0,0,0,0,0,-1,895,876,0,0
-322,148,0,0,0,0,0,0,0,0,0,-1,902,876,0,0
-315,148,0,0,0,0,0,0,0,0,0,-1,909,876,0,0
-308,148,0,0,0,0,0,0,0,0,0,-1,916,876,0,0
-301,148,0,0,0,0,0,0,0,0,0,-1,923,876,0,0
-294,148,0,0,0,0,0,0,0,0,0,-1,930,876,0,0
-287,148,0,0,0,0,0,0,0,0,0,-1,937,876,0,0
-280,148,0,0,0,0,0,0,0,0,0,-1,944,876,0,0
-273,148,0,0,0,0,0,0,0,0,0,-1,951,876,0,0
-266,148,0,0,0,0,0,0,0,0,0,-1,958,876,0,0
-259,148,0,0,0,0,0,0,0,0,0,-1,965,876,0,0
-252,148,0,0,0,0,0,0,0,0,0,-1,972,876,0,0
-245,148,0,0,0,0,0,0,0,0,0,-1,979,876,0,0
-238,148,0,0,0,0,0,0,0,0,0,-1,986,876,0,0
-231,148,0,0,0,0,0,0,0,0,0,-1,993,876,0,0
-224,148,0,0,0,0,0,0,0,0,0,-1,1000,876,0,0
-217,148,0,0,0,0,0,0,0,0,0,-1,1007,876,0,0
-210,148,0,0,0,0,0,0,0,0,0,-1,1014,876,0,0
-203,148,0,0,0,0,0,0,0,0,0,-1,1021,876,0,0
-196,148,0,0,0,0,0,0,0,0,0,-1,1028,876,0,0
-189,148,0,0,0,0,0,0,0,0,0,-1,1035,876,0,0
-182,148,0,0,0,0,0,0,0,0,0,-1,1042,876,0,0
-175,148,0,0,0,0,0,0,0,0,0,-1,1049,876,0,0
-168,148,0,0,0,0,0,0,0,0,0,-1,1056,876,0,0
-161,148,0,0,0,0,0,0,0,0,0,-1,1063,876,0,0
-154,148,0,0,0,0,0,0,0,0,0,-1,1070,876,0,0
-147,148,0,0,0,0,0,0,0,0,0,-1,1077,876,0,0
-140,148,0,0,0,0,0,0,0,0,0,-1,1084,876,0,0
-133,148,0,0,0,0,0,0,0,0,0,-1,1091,876,0,0
-126,148,0,0,0,0,0,0,0,0,0,-1,1098,876,0,0
-119,148,0,0,0,0,0,0,0,0,0,-1,1105,876,0,0
-112,148,0,0,0,0,0,0,0,0,0,-1,1112,876,0,0
-105,148,0,0,0,0,0,0,0,0,0,-1,1119,876,0,0
-98,148,0,0,0,0,0,0,0,0,0,-1,1126,876,0,0
-91,148,0,0,0,0,0,0,0,0,0,-1,1133,876,0,0
-84,148,0,0,0,0,0,0,0,0,0,-1,1140,876,0,0
-77,148,0,0,0,0,0,0,0,0,0,-1,1147,876,0,0
-70,148,0,0,0,0,0,0,0,0,0,-1,1154,876,0,0
-63,148,0,0,0,0,0,0,0,0,0,-1,1161,876,0,0
-56,148,0,0,0,0,0,0,0,0,0,-1,1168,876,0,0
-49,148,0,0,0,0,0,0,0,0,0,-1,1175,876,0,0
-42,148,0,0,0,0,0,0,0,0,0,-1,1182,876,0,0
-35,148,0,0,0,0,0,0,0,0,0,-1,1189,876,0,0
-28,148,0,0,0,0,0,0,0,0,0,-1,1196,876,0,0
-21,148,0,0,0,0,0,0,0,0,0,-1,1203,876,0,0
-14,148,0,0,0,0,0,0,0,0,0,-1,1210,876,0,0
-7,148,0,0,0,0,0,0,0,0,0,-1,1217,876,0,0
0,148,0,0,0,0,0,0,0,0,0,-1,1224,876,0,0
7,148,0,0,0,0,0,0,0,0,0,-1,1231,876,0,0
14,148,0,0,0,0,0,0,0,0,0,-1,1238,876,0,0
21,148,0,0,0,0,0,0,0,0,0,-1,1245,876,0,0
28,148,0,0,0,0,0,0,0,0,0,-1,1252,876,0,0
35,148,0,0,0,0,0,0,0,0,0,-1,1259,876,0,0
42,148,0,0,0,0,0,0,0,0,0,-1,1266,876,0,0
49,148,0,0,0,0,0,0,0,0,0,-1,1273,876,0,0
56,148,0,0,0,0,0,0,0,0,0,-1,1280,876,0,0
63,148,0,0,0,0,0,0,0,0,0,-1,1287,876,0,0
70,148,0,0,0,0,0,0,0,0,0,-1,1294,876,0,0
77,148,0,0,0,0,0,0,0,0,0,-1,1301,876,0,0
84,148,0,0,0,0,0,0,0,0,0,-1,1308,876,0,0
91,148,0,0,0,0,0,0,0,0,0,-1,1315,876,0,0
98,148,0,0,0,0,0,0,0,0,0,-1,1322,876,0,0
105,148,0,0,0,0,0,0,0,0,0,-1,1329,876,0,0
112,148,0,0,0,0,0,0,0,0,0,-1,1336,876,0,0
119,148,0,0,0,0,0,0,0,0,0,-1,1343,876,0,0
126,148,0,0,0,0,0,0,0,0,0,-1,1350,876,0,0
133,148,0,0,0,0,0,0,0,0,0,-1,1357,876,0,0
140,148,0,0,0,0,0,0,0,0,0,-1,1364,876,0,0
147,148,0,0,0,0,0,0,0,0,0,-1,1371,876,0,0
154,148,0,0,0,0,0,0,0,0,0,-1,1378,876,0,0
161,148,0,0,0,0,0,0,0,0,0,-1,1385,876,0,0
168,148,0,0,0,0,0,0,0,0,0,-1,1392,876,0,0
175,148,0,0,0,0,0,0,0,0,0,-1,1399,876,0,0
182,148,0,0,0,0,0,0,0,0,0,-1,1406,876,0,0
189,148,0,0,0,0,0,0,0,0,0,-1,1413,876,0,0
196,148,0,0,0,0,0,0,0,0,0,-1,1420,876,0,0
203,148,0,0,0,0,0,0,0,0,0,-1,1427,876,0,0
210,148,0,0,0,0,0,0,0,0,0,-1,1434,876,0,0
217,148,0,0,0,0,0,0,0,0,0,-1,1441,876,0,0
224,148,0,0,0,0,0,0,0,0,0,-1,1448,876,0,0
231,148,0,0,0,0,0,0,0,0,0,-1,1455,876,0,0
238,148,0,0,0,0,0,0,0,0,0,-1,1462,876,0,0
245,148,0,0,0,0,0,0,0,0,0,-1,1469,876,0,0
252,148,0,0,0,0,0,0,0,0,0,-1,1476,876,0,0
259,148,0,0,0,0,0,0,0,0,0,-1,1483,876,0,0
266,148,0,0,0,0,0,0,0,0,0,-1,1490,876,0,0
273,148,0,0,0,0,0,0,0,0,0,-1,1497,876,0,0
280,148,0,0,0,0,0,0,0,0,0,-1,1504,876,0,0
287,148,0,0,0,0,0,0,0,0,0,-1,1511,876,0,0
294,148,0,0,0,0,0,0,0,0,0,-1,1518,876,0,0
301,148,0,0,0,0,0,0,0,0,0,-1,1525,876,0,0
308,148,0,0,0,0,0,0,0,0,0,-1,1532,876,0,0
315,148,0,0,0,0,0,0,0,0,0,-1,1539,876,0,0
322,148,0,0,0,0,0,0,0,0,0,-1,1546,876,0,0
329,148,0,0,0,0,0,0,0,0,0,-1,1553,876,0,0
336,148,0,0,0,0,0,0,0,0,0,-1,1560,876,0,0
343,148,0,0,0,0,0,0,0,0,0,-1,1567,876,0,0
350,148,0,0,0,0,0,0,0,0,0,-1,1574,876,0,0
357,148,0,0,0,0,0,0,0,0,0,-1,1581,876,0,0
364,148,0,0,0,0,0,0,0,0,0,-1,1588,876,0,0
371,148,0,0,0,0,0,0,0,0,0,-1,1595,876,0,0
378,148,0,0,0,0,0,0,0,0,0,-1,1602,876,0,0
385,148,0,0,0,0,0,0,0,0,0,-1,1609,876,0,0
392,148,0,0,0,0,0,0,0,0,0,-1,1616,876,0,0
399,148,0,0,0,0,0,0,0,0,0,-1,1623,876,0,0
406,148,0,0,0,0,0,0,0,0,0,-1,1630,876,0,0
413,148,0,0,0,0,0,0,0,0,0,-1,1637,876,0,0
420,148,0,0,0,0,0,0,0,0,0,-1,1644,876,0,0
427,148,0,0,0,0,0,0,0,0,0,-1,1651,876,0,0
434,148,0,0,0,0,0,0,0,0,0,-1,1658,876,0,0
441,148,0,0,0,0,0,0,0,0,0,-1,1665,876,0,0
448,148,0,0,0,0,0,0,0,0,0,-1,1672,876,0,0
455,148,0,0,0,0,0,0,0,0,0,-1,1679,876,0,0
462,148,0,0,0,0,0,0,0,0,0,-1,1686,876,0,0
469,148,0,0,0,0,0,0,0,0,0,-1,1693,876,0,0
476,148,0,0,0,0,0,0,0,0,0,-1,1700,876,0,0
483,148,0,0,0,0,0,0,0,0,0,-1,1707,876,0,0
490,148,0,0,0,0,0,0,0,0,0,-1,1714,876,0,0
497,148,0,0,0,0,0,0,0,0,0,-1,1721,876,0,0
504,148,0,0,0,0,0,0,0,0,0,-1,1728,876,0,0
511,148,0,0,0,0,0,0,0,0,0,-1,1735,876,0,0
518,148,0,0,0,0,0,0,0,0,0,-1,1742,876,0,0
525,148,0,0,0,0,0,0,0,0,0,-1,1749,876,0,0
532,148,0,0,0,0,0,0,0,0,0,-1,1756,876,0,0
539,148,0,0,0,0,0,0,0,0,0,-1,1763,876,0,0
546,148,0,0,0,0,0,0,0,0,0,-1,1770,876,0,0
553,148,0,0,0,0,0,0,0,0,0,-1,1777,876,0,0
560,148,0,0,0,0,0,0,0,0,0,-1,1784,876,0,0
567,148,0,0,0,0,0,0,0,0,0,-1,1791,876,0,0
574,148,0,0,0,0,0,0,0,0,0,-1,1798,876,0,0
581,148,0,0,0,0,0,0,0,0,0,-1,1805,876,0,0
588,148,0,0,0,0,0,0,0,0,0,-1,1812,876,0,0
595,148,0,0,0,0,0,0,0,0,0,-1,1819,876,0,0
602,148,0,0,0,0,0,0,0,0,0,-1,1826,876,0,0
609,148,0,0,0,0,0,0,0,0,0,-1,1833,876,0,0
616,148,0,0,0,0,0,0,0,0,0,-1,1840,876,0,0
623,148,36.8572,2.42389,0.00458677,-0.00100899,0.00295037,0.00585495,-0.00227717,0.40596,0.00484418,0.0413793,1847,876,36.8571,-2.42388
630,148,36.8538,2.51666,0.00320463,-0.000568753,0.00215165,0.00417961,-0.00154374,0.425458,0.0034192,0.0425131,1854,876,36.8538,-2.51663
637,148,36.8827,2.60236,0.00219009,-0.000153617,0.00142786,0.0028654,-0.00082893,0.441778,0.00223834,0.0391696,1861,876,36.8827,-2.60233
644,148,36.8641,2.49164,0.00151135,-3.3541e-05,0.000837351,0.00187813,-0.000400318,0.412848,0.00140467,0.0371806,1868,876,36.8642,-2.49165
651,148,36.7949,2.54474,0.00108898,-5.20158e-05,0.000413393,0.00122302,-0.000186047,0.313528,0.00088391,0.0367023,1875,876,36.795,-2.54475
658,148,36.8267,2.67029,0.000928453,-0.00016045,0.000112402,0.000939934,-0.000171932,0.101795,0.000691099,0.031417,1882,876,36.8266,-2.67028
665,148,36.8314,2.63782,0.000747413,-0.000303986,-7.57111e-05,0.000752838,-0.00030941,-0.0715181,0.000630849,0.0244265,1889,876,36.8315,-2.63784
672,148,36.8799,2.56903,0.0005053,-0.000418599,-0.000199823,0.000546666,-0.000459966,-0.204131,0.000581897,0.0283379,1896,876,36.8799,-2.56906
679,148,36.8335,2.6864,0,0,0,0,0,0,0,-1,1903,876,36.8335,-2.68638
686,148,21.6195,2.40845,0,0,0,0,0,0,0,-1,1910,876,21.6196,-2.40846
693,148,31.3058,2.36597,0,0,0,0,0,0,0,-1,1917,876,31.3058,-2.36599
700,148,31.5004,2.75726,0.000225269,-0.000493091,-0.000620051,0.00058266,-0.000850482,-0.522878,0.000832227,0.0244723,1924,876,31.5004,-2.75724
707,148,31.6313,3.22113,0.000181099,-0.000371569,-0.000690751,0.000648739,-0.00083921,-0.595124,0.000861411,0.0206987,1931,876,31.6313,-3.22115
714,148,31.5542,3.45459,0.000124429,-7.06589e-05,-0.000802258,0.000835052,-0.000781281,-0.724902,0.000933362,0.0205728,1938,876,31.5543,-3.45459
721,148,31.3691,3.75232,0.000148933,0.000434553,-0.000900001,0.001203,-0.000619517,-0.864081,0.00107006,0.0184563,1945,876,31.3691,-3.75233
728,148,31.3092,4.10132,0.000137551,0.00106373,-0.000990356,0.00169392,-0.000492637,-1.0041,0.00132439,0.0182179,1952,876,31.3092,-4.1013
735,148,31.3226,4.48596,0.000294946,0.00190775,-0.00116874,0.00252129,-0.000318595,-1.08738,0.0017965,0.0176403,1959,876,31.3227,-4.48598
742,148,31.3304,4.86694,0.000674162,0.00291251,-0.00138305,0.00357249,1.41896e-05,-1.12556,0.00237694,0.0202248,1966,876,31.3305,-4.86693
749,148,31.2474,5.20514,0.00139286,0.00400972,-0.00162953,0.00479111,0.000611465,-1.12367,0.00301102,0.0186021,1973,876,31.2475,-5.20513
756,148,31.1871,5.56976,0.00250307,0.00534693,-0.00188272,0.00628435,0.00156565,-1.10883,0.00377743,0.0224506,1980,876,31.1871,-5.56979
763,148,31.2133,5.91974,0.00446143,0.00685761,-0.00213222,0.00810529,0.00321375,-1.04136,0.00471289,0.0432919,1987,876,31.2133,-5.91971
770,148,31.2299,6.25543,0,0,0,0,0,0,0,-1,1994,876,31.2299,-6.25546
777,148,31.2094,7.14063,0,0,0,0,0,0,0,-1,2001,876,31.2094,-7.14064
784,148,31.4685,8.05865,0,0,0,0,0,0,0,-1,2008,876,31.4685,-8.05864
791,148,31.6631,8.89905,0,0,0,0,0,0,0,-1,2015,876,31.6631,-8.89902
798,148,0,0,0,0,0,0,0,0,0,-1,2022,876,0,0
805,148,0,0,0,0,0,0,0,0,0,-1,2029,876,0,0
812,148,0,0,0,0,0,0,0,0,0,-1,2036,876,0,0
-700,141,0,0,0,0,0,0,0,0,0,-1,524,883,0,0
-693,141,0,0,0,0,0,0,0,0,0,-1,531,883,0,0
-686,141,0,0,0,0,0,0,0,0,0,-1,538,883,0,0
-679,141,0,0,0,0,0,0,0,0,0,-1,545,883,0,0
-672,141,-25.7172,6.9104,0,0,0,0,0,0,0,-1,552,883,-25.7172,-6.91043
-665,141,-27.7943,7.38074,0,0,0,0,0,0,0,-1,559,883,-27.7943,-7.38074
-658,141,-27.4695,6.45087,0,0,0,0,0,0,0,-1,566,883,-27.4696,-6.45087
-651,141,-25.4844,6.159,0,0,0,0,0,0,0,-1,573,883,-25.4845,-6.15897
-644,141,-25.179,5.79144,0,0,0,0,0,0,0,-1,580,883,-25.179,-5.79146
-637,141,-22.8878,3.71924,0,0,0,0,0,0,0,-1,587,883,-22.8878,-3.71922
-630,141,-22.7626,3.39661,0.0125,0.000146434,-0.00250662,0.0129892,-0.000342803,-0.192754,0.00877597,0.0428323,594,883,-22.7626,-3.39661
-623,141,-22.5482,2.92493,0.00745608,-0.00155525,0.000156039,0.00745878,-0.00155795,0.0173089,0.00556501,0.025695,601,883,-22.5482,-2.92495
-616,141,-22.7264,2.54321,0.00397243,-0.00183597,0.00146483,0.00432094,-0.00218448,0.233574,0.00382283,0.0132606,608,883,-22.7264,-2.54324
-609,141,-22.7911,2.19434,0.00171758,-0.00185474,0.00218885,0.00275656,-0.00289372,0.44318,0.00326251,0.0139458,615,883,-22.7911,-2.19436
-602,141,-22.7841,1.87341,0.00023684,-0.00123771,0.00215853,0.00178053,-0.0027814,0.620828,0.00265488,0.0129382,622,883,-22.7841,-1.87341
-595,141,-22.7798,1.53033,-0.000582799,-0.000768762,0.00200428,0.00133065,-0.00268221,0.762219,0.00236023,0.0122897,629,883,-22.7799,-1.53035
-588,141,-23.0206,1.19788,-0.000822276,-0.00032343,0.00154084,0.000988046,-0.00213375,0.865639,0.00184239,0.0230271,636,883,-23.0206,-1.19786
-581,141,-22.9677,0.871521,-0.000723935,-8.67359e-05,0.00116558,0.000803004,-0.00161368,0.918809,0.0014212,0.0307761,643,883,-22.9676,-0.871513
-574,141,-22.6705,0.677368,-0.000535954,0.00031582,0.000678749,0.000691232,-0.000911366,1.06558,0.000928165,0.0394281,650,883,-22.6705,-0.677364
-567,141,-22.7015,0.436707,-0.000345303,0.000767956,0.000160853,0.000790731,-0.000368079,1.43014,0.000683712,0.0391229,657,883,-22.7015,-0.436723
-560,141,-22.6803,0.308167,0,0,0,0,0,0,0,-1,664,883,-22.6803,-0.308188
-553,141,-26.9257,0.877197,0,0,0,0,0,0,0,-1,671,883,-26.9257,-0.877206
-546,141,-26.9365,0.819946,0.000129964,0.00132815,-0.000834259,0.00175614,-0.000298027,-1.09679,0.0012817,0.0423687,678,883,-26.9364,-0.819946
-539,141,-26.9537,0.746094,0.000413374,0.00159102,-0.00107159,0.00222491,-0.000220511,-1.03662,0.00156197,0.0311432,685,883,-26.9537,-0.746123
-532,141,-27.0056,0.697876,0.000679796,0.00188298,-0.00130267,0.00271626,-0.000153484,-1.00172,0.00186411,0.0299463,692,883,-27.0056,-0.697906
-525,141,-26.9615,0.596924,0.000958361,0.00206008,-0.00148128,0.00308962,-7.11737e-05,-0.963415,0.00208388,0.0368124,699,883,-26.9615,-0.596954
-518,141,-26.9442,0.597473,0.00183079,0.00194432,-0.00151288,0.0034015,0.000373602,-0.80415,0.00215396,0.0437939,706,883,-26.9442,-0.597481
-511,141,-26.969,0.649719,0.00383402,0.00135308,-0.00140386,0.00446694,0.000720163,-0.423554,0.0027693,0.0423604,713,883,-26.969,-0.649737
-504,141,-26.99,0.697571,0.00712565,0.000192271,-0.00122593,0.00733603,-1.81084e-05,-0.169953,0.00489674,0.0425339,720,883,-26.99,-0.697571
-497,141,0,0,0,0,0,0,0,0,0,-1,727,883,0,0
-490,141,0,0,0,0,0,0,0,0,0,-1,734,883,0,0
-483,141,0,0,0,0,0,0,0,0,0,-1,741,883,0,0
-476,141,0,0,0,0,0,0,0,0,0,-1,748,883,0,0
-469,141,0,0,0,0,0,0,0,0,0,-1,755,883,0,0
-462,141,0,0,0,0,0,0,0,0,0,-1,762,883,0,0
-455,141,0,0,0,0,0,0,0,0,0,-1,769,883,0,0
-448,141,0,0,0,0,0,0,0,0,0,-1,776,883,0,0
-441,141,0,0,0,0,0,0,0,0,0,-1,783,883,0,0
-434,141,0,0,0,0,0,0,0,0,0,-1,790,883,0,0
-427,141,0,0,0,0,0,0,0,0,0,-1,797,883,0,0
-420,141,0,0,0,0,0,0,0,0,0,-1,804,883,0,0
-413,141,0,0,0,0,0,0,0,0,0,-1,811,883,0,0
-406,141,0,0,0,0,0,0,0,0,0,-1,818,883,0,0
-399,141,0,0,0,0,0,0,0,0,0,-1,825,883,0,0
-392,141,0,0,0,0,0,0,0,0,0,-1,832,883,0,0
-385,141,0,0,0,0,0,0,0,0,0,-1,839,883,0,0
-378,141,0,0,0,0,0,0,0,0,0,-1,846,883,0,0
-371,141,0,0,0,0,0,0,0,0,0,-1,853,883,0,0
-364,141,0,0,0,0,0,0,0,0,0,-1,860,883,0,0
-357,141,0,0,0,0,0,0,0,0,0,-1,867,883,0,0
-350,141,0,0,0,0,0,0,0,0,0,-1,874,883,0,0
-343,141,0,0,0,0,0,0,0,0,0,-1,881,883,0,0
-336,141,0,0,0,0,0,0,0,0,0,-1,888,883,0,0
-329,141,0,0,0,0,0,0,0,0,0,-1,895,883,0,0
-322,141,0,0,0,0,0,0,0,0,0,-1,902,883,0,0
-315,141,0,0,0,0,0,0,0,0,0,-1,909,883,0,0
-308,141,0,0,0,0,0,0,0,0,0,-1,916,883,0,0
-301,141,0,0,0,0,0,0,0,0,0,-1,923,883,0,0
-294,141,0,0,0,0,0,0,0,0,0,-1,930,883,0,0
-287,141,0,0,0,0,0,0,0,0,0,-1,937,883,0,0
-280,141,0,0,0,0,0,0,0,0,0,-1,944,883,0,0
-273,141,0,0,0,0,0,0,0,0,0,-1,951,883,0,0
-266,141,0,0,0,0,0,0,0,0,0,-1,958,883,0,0
-259,141,0,0,0,0,0,0,0,0,0,-1,965,883,0,0
-252,141,0,0,0,0,0,0,0,0,0,-1,972,883,0,0
-245,141,0,0,0,0,0,0,0,0,0,-1,979,883,0,0
-238,141,0,0,0,0,0,0,0,0,0,-1,986,883,0,0
-231,141,0,0,0,0,0,0,0,0,0,-1,993,883,0,0
-224,141,0,0,0,0,0,0,0,0,0,-1,1000,883,0,0
-217,141,0,0,0,0,0,0,0,0,0,-1,1007,883,0,0
-210,141,0,0,0,0,0,0,0,0,0,-1,1014,883,0,0
-203,141,0,0,0,0,0,0,0,0,0,-1,1021,883,0,0
-196,141,0,0,0,0,0,0,0,0,0,-1,1028,883,0,0
-189,141,0,0,0,0,0,0,0,0,0,-1,1035,883,0,0
-182,141,0,0,0,0,0,0,0,0,0,-1,1042,883,0,0
-175,141,0,0,0,0,0,0,0,0,0,-1,1049,883,0,0
-168,141,0,0,0,0,0,0,0,0,0,-1,1056,883,0,0
-161,141,0,0,0,0,0,0,0,0,0,-1,1063,883,0,0
-154,141,0,0,0,0,0,0,0,0,0,-1,1070,883,0,0
-147,141,0,0,0,0,0,0,0,0,0,-1,1077,883,0,0
-140,141,0,0,0,0,0,0,0,0,0,-1,1084,883,0,0
-133,141,0,0,0,0,0,0,0,0,0,-1,1091,883,0,0
-126,141,0,0,0,0,0,0,0,0,0,-1,1098,883,0,0
-119,141,0,0,0,0,0,0,0,0,0,-1,1105,883,0,0
-112,141,0,0,0,0,0,0,0,0,0,-1,1112,883,0,0
-105,141,0,0,0,0,0,0,0,0,0,-1,1119,883,0,0
-98,141,0,0,0,0,0,0,0,0,0,-1,1126,883,0,0
-91,141,0,0,0,0,0,0,0,0,0,-1,1133,883,0,0
-84,141,0,0,0,0,0,0,0,0,0,-1,1140,883,0,0
-77,141,0,0,0,0,0,0,0,0,0,-1,1147,883,0,0
-70,141,0,0,0,0,0,0,0,0,0,-1,1154,883,0,0
-63,141,0,0,0,0,0,0,0,0,0,-1,1161,883,0,0
-56,141,0,0,0,0,0,0,0,0,0,-1,1168,883,0,0
-49,141,0,0,0,0,0,0,0,0,0,-1,1175,883,0,0
-42,141,0,0,0,0,0,0,0,0,0,-1,1182,883,0,0
-35,141,0,0,0,0,0,0,0,0,0,-1,1189,883,0,0
-28,141,0,0,0,0,0,0,0,0,0,-1,1196,883,0,0
-21,141,0,0,0,0,0,0,0,0,0,-1,1203,883,0,0
-14,141,0,0,0,0,0,0,0,0,0,-1,1210,883,0,0
-7,141,0,0,0,0,0,0,0,0,0,-1,1217,883,0,0
0,141,0,0,0,0,0,0,0,0,0,-1,1224,883,0,0
7,141,0,0,0,0,0,0,0,0,0,-1,1231,883,0,0
14,141,0,0,0,0,0,0,0,0,0,-1,1238,883,0,0
21,141,0,0,0,0,0,0,0,0,0,-1,1245,883,0,0
28,141,0,0,0,0,0,0,0,0,0,-1,1252,883,0,0
35,141,0,0,0,0,0,0,0,0,0,-1,1259,883,0,0
42,141,0,0,0,0,0,0,0,0,0,-1,1266,883,0,0
49,141,0,0,0,0,0,0,0,0,0,-1,1273,883,0,0
56,141,0,0,0,0,0,0,0,0,0,-1,1280,883,0,0
63,141,0,0,0,0,0,0,0,0,0,-1,1287,883,0,0
70,141,0,0,0,0,0,0,0,0,0,-1,1294,883,0,0
77,141,0,0,0,0,0,0,0,0,0,-1,1301,883,0,0
84,141,0,0,0,0,0,0,0,0,0,-1,1308,883,0,0
91,141,0,0,0,0,0,0,0,0,0,-1,1315,883,0,0
98,141,0,0,0,0,0,0,0,0,0,-1,1322,883,0,0
105,141,0,0,0,0,0,0,0,0,0,-1,1329,883,0,0
112,141,0,0,0,0,0,0,0,0,0,-1,1336,883,0,0
119,141,0,0,0,0,0,0,0,0,0,-1,1343,883,0,0
126,141,0,0,0,0,0,0,0,0,0,-1,1350,883,0,0
133,141,0,0,0,0,0,0,0,0,0,-1,1357,883,0,0
140,141,0,0,0,0,0,0,0,0,0,-1,1364,883,0,0
147,141,0,0,0,0,0,0,0,0,0,-1,1371,883,0,0
154,141,0,0,0,0,0,0,0,0,0,-1,1378,883,0,0
161,141,0,0,0,0,0,0,0,0,0,-1,1385,883,0,0
168,141,0,0,0,0,0,0,0,0,0,-1,1392,883,0,0
175,141,0,0,0,0,0,0,0,0,0,-1,1399,883,0,0
182,141,0,0,0,0,0,0,0,0,0,-1,1406,883,0,0
189,141,0,0,0,0,0,0,0,0,0,-1,1413,883,0,0
196,141,0,0,0,0,0,0,0,0,0,-1,1420,883,0,0
203,141,0,0,0,0,0,0,0,0,0,-1,1427,883,0,0
210,141,0,0,0,0,0,0,0,0,0,-1,1434,883,0,0
217,141,0,0,0,0,0,0,0,0,0,-1,1441,883,0,0
224,141,0,0,0,0,0,0,0,0,0,-1,1448,883,0,0
231,141,0,0,0,0,0,0,0,0,0,-1,1455,883,0,0
238,141,0,0,0,0,0,0,0,0,0,-1,1462,883,0,0
245,141,0,0,0,0,0,0,0,0,0,-1,1469,883,0,0
252,141,0,0,0,0,0,0,0,0,0,-1,1476,883,0,0
259,141,0,0,0,0,0,0,0,0,0,-1,1483,883,0,0
266,141,0,0,0,0,0,0,0,0,0,-1,1490,883,0,0
273,141,0,0,0,0,0,0,0,0,0,-1,1497,883,0,0
280,141,0,0,0,0,0,0,0,0,0,-1,1504,883,0,0
287,141,0,0,0,0,0,0,0,0,0,-1,1511,883,0,0
294,141,0,0,0,0,0,0,0,0,0,-1,1518,883,0,0
301,141,0,0,0,0,0,0,0,0,0,-1,1525,883,0,0
308,141,0,0,0,0,0,0,0,0,0,-1,1532,883,0,0
315,141,0,0,0,0,0,0,0,0,0,-1,1539,883,0,0
322,141,0,0,0,0,0,0,0,0,0,-1,1546,883,0,0
329,141,0,0,0,0,0,0,0,0,0,-1,1553,883,0,0
336,141,0,0,0,0,0,0,0,0,0,-1,1560,883,0,0
343,141,0,0,0,0,0,0,0,0,0,-1,1567,883,0,0
350,141,0,0,0,0,0,0,0,0,0,-1,1574,883,0,0
357,141,0,0,0,0,0,0,0,0,0,-1,1581,883,0,0
364,141,0,0,0,0,0,0,0,0,0,-1,1588,883,0,0
371,141,0,0,0,0,0,0,0,0,0,-1,1595,883,0,0
378,141,0,0,0,0,0,0,0,0,0,-1,1602,883,0,0
385,141,0,0,0,0,0,0,0,0,0,-1,1609,883,0,0
392,141,0,0,0,0,0,0,0,0,0,-1,1616,883,0,0
399,141,0,0,0,0,0,0,0,0,0,-1,1623,883,0,0
406,141,0,0,0,0,0,0,0,0,0,-1,1630,883,0,0
413,141,0,0,0,0,0,0,0,0,0,-1,1637,883,0,0
420,141,0,0,0,0,0,0,0,0,0,-1,1644,883,0,0
427,141,0,0,0,0,0,0,0,0,0,-1,1651,883,0,0
434,141,0,0,0,0,0,0,0,0,0,-1,1658,883,0,0
441,141,0,0,0,0,0,0,0,0,0,-1,1665,883,0,0
448,141,0,0,0,0,0,0,0,0,0,-1,1672,883,0,0
455,141,0,0,0,0,0,0,0,0,0,-1,1679,883,0,0
462,141,0,0,0,0,0,0,0,0,0,-1,1686,883,0,0
469,141,0,0,0,0,0,0,0,0,0,-1,1693,883,0,0
476,141,0,0,0,0,0,0,0,0,0,-1,1700,883,0,0
483,141,0,0,0,0,0,0,0,0,0,-1,1707,883,0,0
490,141,0,0,0,0,0,0,0,0,0,-1,1714,883,0,0
497,141,0,0,0,0,0,0,0,0,0,-1,1721,883,0,0
504,141,0,0,0,0,0,0,0,0,0,-1,1728,883,0,0
511,141,0,0,0,0,0,0,0,0,0,-1,1735,883,0,0
518,141,0,0,0,0,0,0,0,0,0,-1,1742,883,0,0
525,141,0,0,0,0,0,0,0,0,0,-1,1749,883,0,0
532,141,0,0,0,0,0,0,0,0,0,-1,1756,883,0,0
539,141,0,0,0,0,0,0,0,0,0,-1,1763,883,0,0
546,141,0,0,0,0,0,0,0,0,0,-1,1770,883,0,0
553,141,0,0,0,0,0,0,0,0,0,-1,1777,883,0,0
560,141,0,0,0,0,0,0,0,0,0,-1,1784,883,0,0
567,141,0,0,0,0,0,0,0,0,0,-1,1791,883,0,0
574,141,0,0,0,0,0,0,0,0,0,-1,1798,883,0,0
581,141,0,0,0,0,0,0,0,0,0,-1,1805,883,0,0
588,141,0,0,0,0,0,0,0,0,0,-1,1812,883,0,0
595,141,0,0,0,0,0,0,0,0,0,-1,1819,883,0,0
602,141,0,0,0,0,0,0,0,0,0,-1,1826,883,0,0
609,141,0,0,0,0,0,0,0,0,0,-1,1833,883,0,0
616,141,0,0,0,0,0,0,0,0,0,-1,1840,883,0,0
623,141,36.814,2.44135,0.00505439,-0.000977168,0.00365914,0.00678036,-0.00270314,0.440743,0.00564145,0.043742,1847,883,36.814,-2.44133
630,141,36.8121,2.60657,0.00337148,-0.0007327,0.00262571,0.00465187,-0.00201309,0.453707,0.00394727,0.0454188,1854,883,36.8121,-2.60656
637,141,36.9098,2.69366,0.00218611,-0.000417304,0.00172106,0.0030423,-0.00127349,0.461625,0.00256053,0.0425311,1861,883,36.9098,-2.69363
644,141,36.9489,2.34131,0.00138075,-0.000320474,0.000990846,0.00183601,-0.00077574,0.430703,0.00154876,0.0373572,1868,883,36.9489,-2.3413
651,141,36.9675,2.42212,0.000879951,-0.000317273,0.000472756,0.00104412,-0.000481442,0.334231,0.000900532,0.0354523,1875,883,36.9676,-2.42214
658,141,36.9498,2.59808,0.000684612,-0.000405309,0.00013806,0.000701828,-0.000422525,0.12406,0.000655788,0.0356142,1882,883,36.9498,-2.59806
665,141,36.8529,2.57489,0.000559997,-0.000528982,-6.56103e-05,0.000563936,-0.000532921,-0.0599602,0.000633355,0.0272519,1889,883,36.8529,-2.57492
672,141,36.8824,2.52307,0.000412,-0.000621209,-0.000189811,0.000445766,-0.000654976,-0.176054,0.000639329,0.0191975,1896,883,36.8825,-2.52304
679,141,36.9049,2.52527,0.000285864,-0.000701421,-0.000402029,0.000428862,-0.000844418,-0.341734,0.000748065,0.0340869,1903,883,36.905,-2.52529
686,141,36.8971,2.52863,0,0,0,0,0,0,0,-1,1910,883,36.8971,-2.52863
693,141,31.5427,2.22833,0,0,0,0,0,0,0,-1,1917,883,31.5427,-2.22836
700,141,31.835,2.73065,0.000278406,-0.000598364,-0.000531524,0.000529005,-0.000848963,-0.440566,0.000802688,0.0229761,1924,883,31.8349,-2.73064
707,141,31.8353,3.15131,0.000278686,-0.000420227,-0.000599607,0.000623238,-0.00076478,-0.521557,0.00080276,0.0205824,1931,883,31.8353,-3.15131
714,141,31.6871,3.41241,0.000259428,-0.000132919,-0.000739193,0.000828036,-0.000701527,-0.655694,0.0008841,0.0208275,1938,883,31.6871,-3.41244
721,141,31.6953,3.75116,0.000273005,0.0003165,-0.000834345,0.00112938,-0.000539876,-0.798428,0.000983574,0.0134057,1945,883,31.6953,-3.75113
728,141,31.7151,4.08582,0.000243002,0.0009027,-0.000934032,0.00156341,-0.000417712,-0.955135,0.00120588,0.0138061,1952,883,31.7151,-4.08584
735,141,31.7246,4.50024,0.000352049,0.00171455,-0.00112456,0.00234811,-0.000281516,-1.05773,0.00166719,0.015259,1959,883,31.7246,-4.50024
742,141,31.6907,4.85364,0.000679507,0.00270427,-0.00137183,0.00339683,-1.30552e-05,-1.10328,0.00226892,0.0163867,1966,883,31.6907,-4.85363
749,141,31.6694,5.16382,0.00135686,0.00377235,-0.00165962,0.00461716,0.00051205,-1.09995,0.00292242,0.01389,1973,883,31.6694,-5.16382
756,141,31.6624,5.53619,0.00244871,0.00504181,-0.00194885,0.006086,0.00140452,-1.07892,0.00367962,0.0199713,1980,883,31.6624,-5.53622
763,141,31.6266,5.89569,0.00446485,0.00640147,-0.00221828,0.00785357,0.00301275,-0.991189,0.00457502,0.0440358,1987,883,31.6266,-5.89569
770,141,31.5796,6.25244,0,0,0,0,0,0,0,-1,1994,883,31.5796,-6.25241
777,141,31.6466,6.8761,0,0,0,0,0,0,0,-1,2001,883,31.6466,-6.87608
784,141,31.5253,8.06396,0,0,0,0,0,0,0,-1,2008,883,31.5252,-8.06399
791,141,31.5164,9.35089,0,0,0,0,0,0,0,-1,2015,883,31.5163,-9.35088
798,141,0,0,0,0,0,0,0,0,0,-1,2022,883,0,0
805,141,0,0,0,0,0,0,0,0,0,-1,2029,883,0,0
812,141,0,0,0,0,0,0,0,0,0,-1,2036,883,0,0
-700,134,0,0,0,0,0,0,0,0,0,-1,524,890,0,0
-693,134,0,0,0,0,0,0,0,0,0,-1,531,890,0,0
-686,134,0,0,0,0,0,0,0,0,0,-1,538,890,0,0
-679,134,0,0,0,0,0,0,0,0,0,-1,545,890,0,0
-672,134,-27.9509,7.4834,0,0,0,0,0,0,0,-1,552,890,-27.9509,-7.48339
-665,134,-27.6661,6.6524,0,0,0,0,0,0,0,-1,559,890,-27.666,-6.65238
-658,134,-27.3784,5.93018,0,0,0,0,0,0,0,-1,566,890,-27.3784,-5.93019
-651,134,-27.3689,5.25873,0,0,0,0,0,0,0,-1,573,890,-27.3689,-5.25871
-644,134,-24.3771,1.67365,0,0,0,0,0,0,0,-1,580,890,-24.3772,-1.67367
-637,134,-24.1381,1.92474,0,0,0,0,0,0,0,-1,587,890,-24.1381,-1.92474
-630,134,-22.9541,3.112,0,0,0,0,0,0,0,-1,594,890,-22.9541,-3.11197
-623,134,-22.9277,2.87616,0.00499491,-0.000488496,0.000798013,0.00510868,-0.000602272,0.14162,0.00362327,0.0230012,601,890,-22.9277,-2.87616
-616,134,-23.0973,2.53558,0.00235695,-0.00158961,0.00187978,0.00310899,-0.00234166,0.380568,0.00315731,0.0122158,608,890,-23.0973,-2.53556
-609,134,-23.1582,2.19861,0.000591601,-0.00198324,0.00244854,0.00207055,-0.00346219,0.543365,0.00322784,0.0116549,615,890,-23.1582,-2.19861
-602,134,-23.1428,1.87085,-0.000639694,-0.00136712,0.00228333,0.00130871,-0.00331552,0.706416,0.00275233,0.0122898,622,890,-23.1428,-1.87084
-595,134,-23.1124,1.5802,-0.00131356,-0.000940932,0.0020611,0.000942258,-0.00319675,0.830474,0.00250504,0.0153076,629,890,-23.1124,-1.58022
-588,134,-23.4295,1.3114,-0.00145477,-0.000512239,0.00156424,0.000650187,-0.0026172,0.93171,0.00199712,0.0284284,636,890,-23.4295,-1.3114
-581,134,-23.3206,0.811035,-0.00132202,-0.000249049,0.0011903,0.000520085,-0.00209115,0.997121,0.00159597,0.0403852,643,890,-23.3206,-0.811057
-574,134,-23.2791,0.495789,-0.0011203,0.00018333,0.000743128,0.000519999,-0.00145697,1.14541,0.00118336,0.0420357,650,890,-23.279,-0.495802
-567,134,-23.0224,0.188049,-0.000836465,0.000634173,0.000258807,0.000678389,-0.000880681,1.40158,0.000902652,0.0380142,657,890,-23.0224,-0.188072
-560,134,-22.9123,0.106567,0,0,0,0,0,0,0,-1,664,890,-22.9123,-0.106594
-553,134,-26.9197,0.724243,0,0,0,0,0,0,0,-1,671,890,-26.9197,-0.724267
-546,134,-26.9363,0.719604,-0.000244179,0.00115245,-0.000683883,0.00143155,-0.000523279,-1.18332,0.00116853,0.0271052,678,890,-26.9363,-0.719611
-539,134,-26.973,0.713684,3.57422e-05,0.00144221,-0.000911143,0.00188994,-0.000411988,-1.11406,0.00141739,0.0179169,685,890,-26.973,-0.713658
-532,134,-26.9979,0.711121,0.000304821,0.00173478,-0.00111668,0.00234576,-0.000306159,-1.07015,0.00167524,0.0216158,692,890,-26.9979,-0.711124
-525,134,-26.9552,0.647583,0.000617806,0.00190553,-0.00127345,0.00268864,-0.0001653,-1.01946,0.00184999,0.0334689,699,890,-26.9552,-0.647609
-518,134,-26.9132,0.475281,0.00150334,0.00178804,-0.00127149,0.00292513,0.000366255,-0.841144,0.00184019,0.0433075,706,890,-26.9132,-0.475304
-511,134,-27.0074,0.526184,0.00337595,0.00137694,-0.0011361,0.00388963,0.000863263,-0.424636,0.00235859,0.0457726,713,890,-27.0075,-0.526175
-504,134,0,0,0,0,0,0,0,0,0,-1,720,890,0,0
-497,134,0,0,0,0,0,0,0,0,0,-1,727,890,0,0
-490,134,0,0,0,0,0,0,0,0,0,-1,734,890,0,0
-483,134,0,0,0,0,0,0,0,0,0,-1,741,890,0,0
-476,134,0,0,0,0,0,0,0,0,0,-1,748,890,0,0
-469,134,0,0,0,0,0,0,0,0,0,-1,755,890,0,0
-462,134,0,0,0,0,0,0,0,0,0,-1,762,890,0,0
-455,134,0,0,0,0,0,0,0,0,0,-1,769,890,0,0
-448,134,0,0,0,0,0,0,0,0,0,-1,776,890,0,0
-441,134,0,0,0,0,0,0,0,0,0,-1,783,890,0,0
-434,134,0,0,0,0,0,0,0,0,0,-1,790,890,0,0
-427,134,0,0,0,0,0,0,0,0,0,-1,797,890,0,0
-420,134,0,0,0,0,0,0,0,0,0,-1,804,890,0,0
-413,134,0,0,0,0,0,0,0,0,0,-1,811,890,0,0
-406,134,0,0,0,0,0,0,0,0,0,-1,818,890,0,0
-399,134,0,0,0,0,0,0,0,0,0,-1,825,890,0,0
-392,134,0,0,0,0,0,0,0,0,0,-1,832,890,0,0
-385,134,0,0,0,0,0,0,0,0,0,-1,839,890,0,0
-378,134,0,0,0,0,0,0,0,0,0,-1,846,890,0,0
-371,134,0,0,0,0,0,0,0,0,0,-1,853,890,0,0
-364,134,0,0,0,0,0,0,0,0,0,-1,860,890,0,0
-357,134,0,0,0,0,0,0,0,0,0,-1,867,890,0,0
-350,134,0,0,0,0,0,0,0,0,0,-1,874,890,0,0
-343,134,0,0,0,0,0,0,0,0,0,-1,881,890,0,0
-336,134,0,0,0,0,0,0,0,0,0,-1,888,890,0,0
-329,134,0,0,0,0,0,0,0,0,0,-1,895,890,0,0
-322,134,0,0,0,0,0,0,0,0,0,-1,902,890,0,0
-315,134,0,0,0,0,0,0,0,0,0,-1,909,890,0,0
-308,134,0,0,0,0,0,0,0,0,0,-1,916,890,0,0
-301,134,0,0,0,0,0,0,0,0,0,-1,923,890,0,0
-294,134,0,0,0,0,0,0,0,0,0,-1,930,890,0,0
-287,134,0,0,0,0,0,0,0,0,0,-1,937,890,0,0
-280,134,0,0,0,0,0,0,0,0,0,-1,944,890,0,0
-273,134,0,0,0,0,0,0,0,0,0,-1,951,890,0,0
-266,134,0,0,0,0,0,0,0,0,0,-1,958,890,0,0
-259,134,0,0,0,0,0,0,0,0,0,-1,965,890,0,0
-252,134,0,0,0,0,0,0,0,0,0,-1,972,890,0,0
-245,134,0,0,0,0,0,0,0,0,0,-1,979,890,0,0
-238,134,0,0,0,0,0,0,0,0,0,-1,986,890,0,0
-231,134,0,0,0,0,0,0,0,0,0,-1,993,890,0,0
-224,134,0,0,0,0,0,0,0,0,0,-1,1000,890,0,0
-217,134,0,0,0,0,0,0,0,0,0,-1,1007,890,0,0
-210,134,0,0,0,0,0,0,0,0,0,-1,1014,890,0,0
-203,134,0,0,0,0,0,0,0,0,0,-1,1021,890,0,0
-196,134,0,0,0,0,0,0,0,0,0,-1,1028,890,0,0
-189,134,0,0,0,0,0,0,0,0,0,-1,1035,890,0,0
-182,134,0,0,0,0,0,0,0,0,0,-1,1042,890,0,0
-175,134,0,0,0,0,0,0,0,0,0,-1,1049,890,0,0
-168,134,0,0,0,0,0,0,0,0,0,-1,1056,890,0,0
-161,134,0,0,0,0,0,0,0,0,0,-1,1063,890,0,0
-154,134,0,0,0,0,0,0,0,0,0,-1,1070,890,0,0
-147,134,0,0,0,0,0,0,0,0,0,-1,1077,890,0,0
-140,134,0,0,0,0,0,0,0,0,0,-1,1084,890,0,0
-133,134,0,0,0,0,0,0,0,0,0,-1,1091,890,0,0
-126,134,0,0,0,0,0,0,0,0,0,-1,1098,890,0,0
-119,134,0,0,0,0,0,0,0,0,0,-1,1105,890,0,0
-112,134,0,0,0,0,0,0,0,0,0,-1,1112,890,0,0
-105,134,0,0,0,0,0,0,0,0,0,-1,1119,890,0,0
-98,134,0,0,0,0,0,0,0,0,0,-1,1126,890,0,0
-91,134,0,0,0,0,0,0,0,0,0,-1,1133,890,0,0
-84,134,0,0,0,0,0,0,0,0,0,-1,1140,890,0,0
-77,134,0,0,0,0,0,0,0,0,0,-1,1147,890,0,0
-70,134,0,0,0,0,0,0,0,0,0,-1,1154,890,0,0
-63,134,0,0,0,0,0,0,0,0,0,-1,1161,890,0,0
-56,134,0,0,0,0,0,0,0,0,0,-1,1168,890,0,0
-49,134,0,0,0,0,0,0,0,0,0,-1,1175,890,0,0
-42,134,0,0,0,0,0,0,0,0,0,-1,1182,890,0,0
-35,134,0,0,0,0,0,0,0,0,0,-1,1189,890,0,0
-28,134,0,0,0,0,0,0,0,0,0,-1,1196,890,0,0
-21,134,0,0,0,0,0,0,0,0,0,-1,1203,890,0,0
-14,134,0,0,0,0,0,0,0,0,0,-1,1210,890,0,0
-7,134,0,0,0,0,0,0,0,0,0,-1,1217,890,0,0
0,134,0,0,0,0,0,0,0,0,0,-1,1224,890,0,0
7,134,0,0,0,0,0,0,0,0,0,-1,1231,890,0,0
14,134,0,0,0,0,0,0,0,0,0,-1,1238,890,0,0
21,134,0,0,0,0,0,0,0,0,0,-1,1245,890,0,0
28,134,0,0,0,0,0,0,0,0,0,-1,1252,890,0,0
35,134,0,0,0,0,0,0,0,0,0,-1,1259,890,0,0
42,134,0,0,0,0,0,0,0,0,0,-1,1266,890,0,0
49,134,0,0,0,0,0,0,0,0,0,-1,1273,890,0,0
56,134,0,0,0,0,0,0,0,0,0,-1,1280,890,0,0
63,134,0,0,0,0,0,0,0,0,0,-1,1287,890,0,0
70,134,0,0,0,0,0,0,0,0,0,-1,1294,890,0,0
77,134,0,0,0,0,0,0,0,0,0,-1,1301,890,0,0
84,134,0,0,0,0,0,0,0,0,0,-1,1308,890,0,0
91,134,0,0,0,0,0,0,0,0,0,-1,1315,890,0,0
98,134,0,0,0,0,0,0,0,0,0,-1,1322,890,0,0
105,134,0,0,0,0,0,0,0,0,0,-1,1329,890,0,0
112,134,0,0,0,0,0,0,0,0,0,-1,1336,890,0,0
119,134,0,0,0,0,0,0,0,0,0,-1,1343,890,0,0
126,134,0,0,0,0,0,0,0,0,0,-1,1350,890,0,0
133,134,0,0,0,0,0,0,0,0,0,-1,1357,890,0,0
140,134,0,0,0,0,0,0,0,0,0,-1,1364,890,0,0
147,134,0,0,0,0,0,0,0,0,0,-1,1371,890,0,0
154,134,0,0,0,0,0,0,0,0,0,-1,1378,890,0,0
161,134,0,0,0,0,0,0,0,0,0,-1,1385,890,0,0
168,134,0,0,0,0,0,0,0,0,0,-1,1392,890,0,0
175,134,0,0,0,0,0,0,0,0,0,-1,1399,890,0,0
182,134,0,0,0,0,0,0,0,0,0,-1,1406,890,0,0
189,134,0,0,0,0,0,0,0,0,0,-1,1413,890,0,0
196,134,0,0,0,0,0,0,0,0,0,-1,1420,890,0,0
203,134,0,0,0,0,0,0,0,0,0,-1,1427,890,0,0
210,134,0,0,0,0,0,0,0,0,0,-1,1434,890,0,0
217,134,0,0,0,0,0,0,0,0,0,-1,1441,890,0,0
224,134,0,0,0,0,0,0,0,0,0,-1,1448,890,0,0
231,134,0,0,0,0,0,0,0,0,0,-1,1455,890,0,0
238,134,0,0,0,0,0,0,0,0,0,-1,1462,890,0,0
245,134,0,0,0,0,0,0,0,0,0,-1,1469,890,0,0
252,134,0,0,0,0,0,0,0,0,0,-1,1476,890,0,0
259,134,0,0,0,0,0,0,0,0,0,-1,1483,890,0,0
266,134,0,0,0,0,0,0,0,0,0,-1,1490,890,0,0
273,134,0,0,0,0,0,0,0,0,0,-1,1497,890,0,0
280,134,0,0,0,0,0,0,0,0,0,-1,1504,890,0,0
287,134,0,0,0,0,0,0,0,0,0,-1,1511,890,0,0
294,134,0,0,0,0,0,0,0,0,0,-1,1518,890,0,0
301,134,0,0,0,0,0,0,0,0,0,-1,1525,890,0,0
308,134,0,0,0,0,0,0,0,0,0,-1,1532,890,0,0
315,134,0,0,0,0,0,0,0,0,0,-1,1539,890,0,0
322,134,0,0,0,0,0,0,0,0,0,-1,1546,890,0,0
329,134,0,0,0,0,0,0,0,0,0,-1,1553,890,0,0
336,134,0,0,0,0,0,0,0,0,0,-1,1560,890,0,0
343,134,0,0,0,0,0,0,0,0,0,-1,1567,890,0,0
350,134,0,0,0,0,0,0,0,0,0,-1,1574,890,0,0
357,134,0,0,0,0,0,0,0,0,0,-1,1581,890,0,0
364,134,0,0,0,0,0,0,0,0,0,-1,1588,890,0,0
371,134,0,0,0,0,0,0,0,0,0,-1,1595,890,0,0
378,134,0,0,0,0,0,0,0,0,0,-1,1602,890,0,0
385,134,0,0,0,0,0,0,0,0,0,-1,1609,890,0,0
392,134,0,0,0,0,0,0,0,0,0,-1,1616,890,0,0
399,134,0,0,0,0,0,0,0,0,0,-1,1623,890,0,0
406,134,0,0,0,0,0,0,0,0,0,-1,1630,890,0,0
413,134,0,0,0,0,0,0,0,0,0,-1,1637,890,0,0
420,134,0,0,0,0,0,0,0,0,0,-1,1644,890,0,0
427,134,0,0,0,0,0,0,0,0,0,-1,1651,890,0,0
434,134,0,0,0,0,0,0,0,0,0,-1,1658,890,0,0
441,134,0,0,0,0,0,0,0,0,0,-1,1665,890,0,0
448,134,0,0,0,0,0,0,0,0,0,-1,1672,890,0,0
455,134,0,0,0,0,0,0,0,0,0,-1,1679,890,0,0
462,134,0,0,0,0,0,0,0,0,0,-1,1686,890,0,0
469,134,0,0,0,0,0,0,0,0,0,-1,1693,890,0,0
476,134,0,0,0,0,0,0,0,0,0,-1,1700,890,0,0
483,134,0,0,0,0,0,0,0,0,0,-1,1707,890,0,0
490,134,0,0,0,0,0,0,0,0,0,-1,1714,890,0,0
497,134,0,0,0,0,0,0,0,0,0,-1,1721,890,0,0
504,134,0,0,0,0,0,0,0,0,0,-1,1728,890,0,0
511,134,0,0,0,0,0,0,0,0,0,-1,1735,890,0,0
518,134,0,0,0,0,0,0,0,0,0,-1,1742,890,0,0
525,134,0,0,0,0,0,0,0,0,0,-1,1749,890,0,0
532,134,0,0,0,0,0,0,0,0,0,-1,1756,890,0,0
539,134,0,0,0,0,0,0,0,0,0,-1,1763,890,0,0
546,134,0,0,0,0,0,0,0,0,0,-1,1770,890,0,0
553,134,0,0,0,0,0,0,0,0,0,-1,1777,890,0,0
560,134,0,0,0,0,0,0,0,0,0,-1,1784,890,0,0
567,134,0,0,0,0,0,0,0,0,0,-1,1791,890,0,0
574,134,0,0,0,0,0,0,0,0,0,-1,1798,890,0,0
581,134,0,0,0,0,0,0,0,0,0,-1,1805,890,0,0
588,134,0,0,0,0,0,0,0,0,0,-1,1812,890,0,0
595,134,0,0,0,0,0,0,0,0,0,-1,1819,890,0,0
602,134,0,0,0,0,0,0,0,0,0,-1,1826,890,0,0
609,134,0,0,0,0,0,0,0,0,0,-1,1833,890,0,0
616,134,0,0,0,0,0,0,0,0,0,-1,1840,890,0,0
623,134,36.7086,2.44696,0.00529434,-0.000767682,0.00439671,0.00760356,-0.0030769,0.483616,0.0063483,0.0458662,1847,890,36.7086,-2.44698
630,134,36.8423,2.71265,0.00338129,-0.000752781,0.00309024,0.00503207,-0.00240357,0.490628,0.00438147,0.0471659,1854,890,36.8422,-2.71265
637,134,36.8834,2.92676,0.00210668,-0.000544131,0.00200978,0.00318875,-0.0016262,0.493894,0.00282828,0.0456851,1861,890,36.8834,-2.92675
644,134,37.0234,2.56305,0.0012313,-0.000470026,0.00116194,0.00182068,-0.00105941,0.469423,0.00168207,0.0381268,1868,890,37.0235,-2.56306
651,134,37.0394,2.31805,0.000698122,-0.000439285,0.000558207,0.000926299,-0.000667462,0.388042,0.000924195,0.0391508,1875,890,37.0394,-2.31805
658,134,36.9825,2.36353,0.000478825,-0.000493571,0.000179471,0.000510892,-0.000525638,0.176808,0.000598461,0.0374272,1882,890,36.9825,-2.36354
665,134,36.8521,2.47968,0.000412446,-0.000570326,-4.63519e-05,0.000414628,-0.000572507,-0.0470253,0.000572347,0.0310924,1889,890,36.852,-2.47966
672,134,36.8922,2.46191,0.000353038,-0.000635001,-0.000159075,0.000378018,-0.00065998,-0.155759,0.000606614,0.0203998,1896,890,36.8922,-2.46191
679,134,36.9106,2.44531,0.000294155,-0.000704979,-0.000343629,0.000400927,-0.000811752,-0.301264,0.000713407,0.0172433,1903,890,36.9106,-2.44532
686,134,36.9332,2.44171,0,0,0,0,0,0,0,-1,1910,890,36.9333,-2.44172
693,134,32.1202,2.38,0,0,0,0,0,0,0,-1,1917,890,32.1203,-2.37999
700,134,32.1334,2.65302,0.000326733,-0.00055908,-0.000450336,0.000515466,-0.000747813,-0.396858,0.000733455,0.0435494,1924,890,32.1334,-2.65301
707,134,31.8279,2.84967,0.000348714,-0.000340041,-0.000528254,0.00063493,-0.000626257,-0.496538,0.000728152,0.0213304,1931,890,31.8279,-2.84968
714,134,31.8892,3.28821,0.000369067,-5.61679e-05,-0.000672051,0.000861331,-0.000548432,-0.632194,0.000820583,0.0215231,1938,890,31.8891,-3.28821
721,134,32.0762,3.75891,0.000370478,0.000324231,-0.000753453,0.00110116,-0.000406454,-0.770058,0.0009007,0.0170731,1945,890,32.0762,-3.75893
728,134,32.1327,4.0968,0.000346415,0.000845532,-0.000853641,0.00148534,-0.000293398,-0.927608,0.00110114,0.0158448,1952,890,32.1326,-4.0968
735,134,32.1083,4.50879,0.000504816,0.00163047,-0.00101417,0.00222752,-9.22387e-05,-1.03872,0.0015167,0.0218225,1959,890,32.1083,-4.50877
742,134,32.0623,4.85443,0.000882857,0.00266275,-0.00123047,0.00329138,0.000254229,-1.09848,0.00211461,0.0151117,1966,890,32.0623,-4.85445
749,134,32.0765,5.16638,0.00163707,0.00384029,-0.00145485,0.00456355,0.000913813,-1.10944,0.00278813,0.0123591,1973,890,32.0766,-5.1664
756,134,32.0669,5.52069,0.00288577,0.00526886,-0.00162188,0.00608984,0.00206479,-1.10221,0.00357617,0.0161768,1980,890,32.0668,-5.52068
763,134,31.9919,5.87,0.00512108,0.00683506,-0.00166511,0.00785077,0.00410536,-1.02306,0.00453423,0.0363355,1987,890,31.9919,-5.86997
770,134,31.9282,6.23151,0,0,0,0,0,0,0,-1,1994,890,31.9282,-6.2315
777,134,32.2756,6.70819,0,0,0,0,0,0,0,-1,2001,890,32.2756,-6.70821
784,134,32.1942,8.30768,0,0,0,0,0,0,0,-1,2008,890,32.1942,-8.30766
791,134,32.3794,9.50098,0,0,0,0,0,0,0,-1,2015,890,32.3794,-9.50098
798,134,0,0,0,0,0,0,0,0,0,-1,2022,890,0,0
805,134,0,0,0,0,0,0,0,0,0,-1,2029,890,0,0
812,134,0,0,0,0,0,0,0,0,0,-1,2036,890,0,0
-700,127,0,0,0,0,0,0,0,0,0,-1,524,897,0,0
-693,127,0,0,0,0,0,0,0,0,0,-1,531,897,0,0
-686,127,0,0,0,0,0,0,0,0,0,-1,538,897,0,0
-679,127,-26.9346,7.58337,0,0,0,0,0,0,0,-1,545,897,-26.9346,-7.58335
-672,127,-26.8364,6.70599,0,0,0,0,0,0,0,-1,552,897,-26.8364,-6.70602
-665,127,-26.7636,5.95685,0,0,0,0,0,0,0,-1,559,897,-26.7636,-5.95686
-658,127,-27.2869,5.48474,0,0,0,0,0,0,0,-1,566,897,-27.2869,-5.48473
-651,127,-24.7625,2.34534,0,0,0,0,0,0,0,-1,573,897,-24.7625,-2.34533
-644,127,-24.3849,2.13489,0.0144748,0.0183661,-0.00759208,0.0242578,0.00858299,-0.910836,0.0142034,0.0430762,580,897,-24.3849,-2.1349
-637,127,-24.3379,1.83142,0,0,0,0,0,0,0,-1,587,897,-24.3379,-1.83143
-630,127,-23.4258,2.6261,0.0064228,0.00449821,-0.000149475,0.00643434,0.00448667,-0.0770501,0.00381006,0.0374962,594,897,-23.4258,-2.62609
-623,127,-23.4078,2.77142,0.00346534,0.00109908,0.0016781,0.00433545,0.000228963,0.478347,0.00281708,0.0149331,601,897,-23.4078,-2.77142
-616,127,-23.4519,2.50458,0.00145672,-0.00103551,0.0023925,0.00290817,-0.00248696,0.545307,0.00311804,0.0104237,608,897,-23.4519,-2.50457
-609,127,-23.4751,2.18658,-8.37234e-05,-0.00182117,0.00273447,0.0019167,-0.00382159,0.631594,0.00337331,0.0138112,615,897,-23.4751,-2.18658
-602,127,-23.4692,1.87988,-0.00134053,-0.0012503,0.00241498,0.00111998,-0.00371081,0.794738,0.00291971,0.0154341,622,897,-23.4692,-1.87986
-595,127,-23.4396,1.59387,-0.00206654,-0.00095979,0.00214934,0.000706271,-0.0037326,0.911393,0.00275418,0.0196836,629,897,-23.4396,-1.59387
-588,127,-23.5959,1.26855,-0.00221691,-0.000595748,0.00165151,0.000433384,-0.00324604,1.01353,0.00232201,0.0272666,636,897,-23.5959,-1.26853
-581,127,-23.6517,0.850525,-0.00210784,-0.000322785,0.00129758,0.000359586,-0.00279021,1.08666,0.00199086,0.0465179,643,897,-23.6516,-0.850497
-574,127,-23.6732,0.470276,-0.00192836,7.16241e-05,0.000858451,0.000389556,-0.00224629,1.2161,0.00164285,0.039465,650,897,-23.6732,-0.470288
-567,127,-22.9695,0.0559082,0,0,0,0,0,0,0,-1,657,897,-22.9695,-0.0558784
-560,127,-18.9678,1.21667,0,0,0,0,0,0,0,-1,664,897,-18.9677,-1.2167
-553,127,-26.9567,0.665161,0,0,0,0,0,0,0,-1,671,897,-26.9567,-0.665171
-546,127,-26.9583,0.659851,-0.000945512,0.000964111,-0.000579424,0.00112617,-0.00110757,-1.29808,0.00128967,0.0227254,678,897,-26.9583,-0.659832
-539,127,-26.9603,0.653015,-0.000659747,0.00128063,-0.000859689,0.00160671,-0.000985834,-1.20825,0.00151105,0.0203893,685,897,-26.9603,-0.653017
-532,127,-26.9424,0.71521,-0.000361262,0.00159362,-0.00112692,0.00210793,-0.00087558,-1.14264,0.00177084,0.0168085,692,897,-26.9424,-0.715184
-525,127,-26.9785,0.831909,1.2632e-05,0.00178856,-0.00140259,0.00256064,-0.000759448,-1.0676,0.00200868,0.0327629,699,897,-26.9785,-0.831904
-518,127,-27.0237,0.965088,0,0,0,0,0,0,0,-1,706,897,-27.0237,-0.965103
-511,127,-26.9725,0.662231,0,0,0,0,0,0,0,-1,713,897,-26.9725,-0.662261
-504,127,0,0,0,0,0,0,0,0,0,-1,720,897,0,0
-497,127,0,0,0,0,0,0,0,0,0,-1,727,897,0,0
-490,127,0,0,0,0,0,0,0,0,0,-1,734,897,0,0
-483,127,0,0,0,0,0,0,0,0,0,-1,741,897,0,0
-476,127,0,0,0,0,0,0,0,0,0,-1,748,897,0,0
-469,127,0,0,0,0,0,0,0,0,0,-1,755,897,0,0
-462,127,0,0,0,0,0,0,0,0,0,-1,762,897,0,0
-455,127,0,0,0,0,0,0,0,0,0,-1,769,897,0,0
-448,127,0,0,0,0,0,0,0,0,0,-1,776,897,0,0
-441,127,0,0,0,0,0,0,0,0,0,-1,783,897,0,0
-434,127,0,0,0,0,0,0,0,0,0,-1,790,897,0,0
-427,127,0,0,0,0,0,0,0,0,0,-1,797,897,0,0
-420,127,0,0,0,0,0,0,0,0,0,-1,804,897,0,0
-413,127,0,0,0,0,0,0,0,0,0,-1,811,897,0,0
-406,127,0,0,0,0,0,0,0,0,0,-1,818,897,0,0
-399,127,0,0,0,0,0,0,0,0,0,-1,825,897,0,0
-392,127,0,0,0,0,0,0,0,0,0,-1,832,897,0,0
-385,127,0,0,0,0,0,0,0,0,0,-1,839,897,0,0
-378,127,0,0,0,0,0,0,0,0,0,-1,846,897,0,0
-371,127,0,0,0,0,0,0,0,0,0,-1,853,897,0,0
-364,127,0,0,0,0,0,0,0,0,0,-1,860,897,0,0
-357,127,0,0,0,0,0,0,0,0,0,-1,867,897,0,0
-350,127,0,0,0,0,0,0,0,0,0,-1,874,897,0,0
-343,127,0,0,0,0,0,0,0,0,0,-1,881,897,0,0
-336,127,0,0,0,0,0,0,0,0,0,-1,888,897,0,0
-329,127,0,0,0,0,0,0,0,0,0,-1,895,897,0,0
-322,127,0,0,0,0,0,0,0,0,0,-1,902,897,0,0
-315,127,0,0,0,0,0,0,0,0,0,-1,909,897,0,0
-308,127,0,0,0,0,0,0,0,0,0,-1,916,897,0,0
-301,127,0,0,0,0,0,0,0,0,0,-1,923,897,0,0
-294,127,0,0,0,0,0,0,0,0,0,-1,930,897,0,0
-287,127,0,0,0,0,0,0,0,0,0,-1,937,897,0,0
-280,127,0,0,0,0,0,0,0,0,0,-1,944,897,0,0
-273,127,0,0,0,0,0,0,0,0,0,-1,951,897,0,0
-266,127,0,0,0,0,0,0,0,0,0,-1,958,897,0,0
-259,127,0,0,0,0,0,0,0,0,0,-1,965,897,0,0
-252,127,0,0,0,0,0,0,0,0,0,-1,972,897,0,0
-245,127,0,0,0,0,0,0,0,0,0,-1,979,897,0,0
-238,127,0,0,0,0,0,0,0,0,0,-1,986,897,0,0
-231,127,0,0,0,0,0,0,0,0,0,-1,993,897,0,0
-224,127,0,0,0,0,0,0,0,0,0,-1,1000,897,0,0
-217,127,0,0,0,0,0,0,0,0,0,-1,1007,897,0,0
-210,127,0,0,0,0,0,0,0,0,0,-1,1014,897,0,0
-203,127,0,0,0,0,0,0,0,0,0,-1,1021,897,0,0
-196,127,0,0,0,0,0,0,0,0,0,-1,1028,897,0,0
-189,127,0,0,0,0,0,0,0,0,0,-1,1035,897,0,0
-182,127,0,0,0,0,0,0,0,0,0,-1,1042,897,0,0
-175,127,0,0,0,0,0,0,0,0,0,-1,1049,897,0,0
-168,127,0,0,0,0,0,0,0,0,0,-1,1056,897,0,0
-161,127,0,0,0,0,0,0,0,0,0,-1,1063,897,0,0
-154,127,0,0,0,0,0,0,0,0,0,-1,1070,897,0,0
-147,127,0,0,0,0,0,0,0,0,0,-1,1077,897,0,0
-140,127,0,0,0,0,0,0,0,0,0,-1,1084,897,0,0
-133,127,0,0,0,0,0,0,0,0,0,-1,1091,897,0,0
-126,127,0,0,0,0,0,0,0,0,0,-1,1098,897,0,0
-119,127,0,0,0,0,0,0,0,0,0,-1,1105,897,0,0
-112,127,0,0,0,0,0,0,0,0,0,-1,1112,897,0,0
-105,127,0,0,0,0,0,0,0,0,0,-1,1119,897,0,0
-98,127,0,0,0,0,0,0,0,0,0,-1,1126,897,0,0
-91,127,0,0,0,0,0,0,0,0,0,-1,1133,897,0,0
-84,127,0,0,0,0,0,0,0,0,0,-1,1140,897,0,0
-77,127,0,0,0,0,0,0,0,0,0,-1,1147,897,0,0
-70,127,0,0,0,0,0,0,0,0,0,-1,1154,897,0,0
-63,127,0,0,0,0,0,0,0,0,0,-1,1161,897,0,0
-56,127,0,0,0,0,0,0,0,0,0,-1,1168,897,0,0
-49,127,0,0,0,0,0,0,0,0,0,-1,1175,897,0,0
-42,127,0,0,0,0,0,0,0,0,0,-1,1182,897,0,0
-35,127,0,0,0,0,0,0,0,0,0,-1,1189,897,0,0
-28,127,0,0,0,0,0,0,0,0,0,-1,1196,897,0,0
-21,127,0,0,0,0,0,0,0,0,0,-1,1203,897,0,0
-14,127,0,0,0,0,0,0,0,0,0,-1,1210,897,0,0
-7,127,0,0,0,0,0,0,0,0,0,-1,1217,897,0,0
0,127,0,0,0,0,0,0,0,0,0,-1,1224,897,0,0
7,127,0,0,0,0,0,0,0,0,0,-1,1231,897,0,0
14,127,0,0,0,0,0,0,0,0,0,-1,1238,897,0,0
21,127,0,0,0,0,0,0,0,0,0,-1,1245,897,0,0
28,127,0,0,0,0,0,0,0,0,0,-1,1252,897,0,0
35,127,0,0,0,0,0,0,0,0,0,-1,1259,897,0,0
42,127,0,0,0,0,0,0,0,0,0,-1,1266,897,0,0
49,127,0,0,0,0,0,0,0,0,0,-1,1273,897,0,0
56,127,0,0,0,0,0,0,0,0,0,-1,1280,897,0,0
63,127,0,0,0,0,0,0,0,0,0,-1,1287,897,0,0
70,127,0,0,0,0,0,0,0,0,0,-1,1294,897,0,0
77,127,0,0,0,0,0,0,0,0,0,-1,1301,897,0,0
84,127,0,0,0,0,0,0,0,0,0,-1,1308,897,0,0
91,127,0,0,0,0,0,0,0,0,0,-1,1315,897,0,0
98,127,0,0,0,0,0,0,0,0,0,-1,1322,897,0,0
105,127,0,0,0,0,0,0,0,0,0,-1,1329,897,0,0
112,127,0,0,0,0,0,0,0,0,0,-1,1336,897,0,0
119,127,0,0,0,0,0,0,0,0,0,-1,1343,897,0,0
126,127,0,0,0,0,0,0,0,0,0,-1,1350,897,0,0
133,127,0,0,0,0,0,0,0,0,0,-1,1357,897,0,0
140,127,0,0,0,0,0,0,0,0,0,-1,1364,897,0,0
147,127,0,0,0,0,0,0,0,0,0,-1,1371,897,0,0
154,127,0,0,0,0,0,0,0,0,0,-1,1378,897,0,0
161,127,0,0,0,0,0,0,0,0,0,-1,1385,897,0,0
168,127,0,0,0,0,0,0,0,0,0,-1,1392,897,0,0
175,127,0,0,0,0,0,0,0,0,0,-1,1399,897,0,0
182,127,0,0,0,0,0,0,0,0,0,-1,1406,897,0,0
189,127,0,0,0,0,0,0,0,0,0,-1,1413,897,0,0
196,127,0,0,0,0,0,0,0,0,0,-1,1420,897,0,0
203,127,0,0,0,0,0,0,0,0,0,-1,1427,897,0,0
210,127,0,0,0,0,0,0,0,0,0,-1,1434,897,0,0
217,127,0,0,0,0,0,0,0,0,0,-1,1441,897,0,0
224,127,0,0,0,0,0,0,0,0,0,-1,1448,897,0,0
231,127,0,0,0,0,0,0,0,0,0,-1,1455,897,0,0
238,127,0,0,0,0,0,0,0,0,0,-1,1462,897,0,0
245,127,0,0,0,0,0,0,0,0,0,-1,1469,897,0,0
252,127,0,0,0,0,0,0,0,0,0,-1,1476,897,0,0
259,127,0,0,0,0,0,0,0,0,0,-1,1483,897,0,0
266,127,0,0,0,0,0,0,0,0,0,-1,1490,897,0,0
273,127,0,0,0,0,0,0,0,0,0,-1,1497,897,0,0
280,127,0,0,0,0,0,0,0,0,0,-1,1504,897,0,0
287,127,0,0,0,0,0,0,0,0,0,-1,1511,897,0,0
294,127,0,0,0,0,0,0,0,0,0,-1,1518,897,0,0
301,127,0,0,0,0,0,0,0,0,0,-1,1525,897,0,0
308,127,0,0,0,0,0,0,0,0,0,-1,1532,897,0,0
315,127,0,0,0,0,0,0,0,0,0,-1,1539,897,0,0
322,127,0,0,0,0,0,0,0,0,0,-1,1546,897,0,0
329,127,0,0,0,0,0,0,0,0,0,-1,1553,897,0,0
336,127,0,0,0,0,0,0,0,0,0,-1,1560,897,0,0
343,127,0,0,0,0,0,0,0,0,0,-1,1567,897,0,0
350,127,0,0,0,0,0,0,0,0,0,-1,1574,897,0,0
357,127,0,0,0,0,0,0,0,0,0,-1,1581,897,0,0
364,127,0,0,0,0,0,0,0,0,0,-1,1588,897,0,0
371,127,0,0,0,0,0,0,0,0,0,-1,1595,897,0,0
378,127,0,0,0,0,0,0,0,0,0,-1,1602,897,0,0
385,127,0,0,0,0,0,0,0,0,0,-1,1609,897,0,0
392,127,0,0,0,0,0,0,0,0,0,-1,1616,897,0,0
399,127,0,0,0,0,0,0,0,0,0,-1,1623,897,0,0
406,127,0,0,0,0,0,0,0,0,0,-1,1630,897,0,0
413,127,0,0,0,0,0,0,0,0,0,-1,1637,897,0,0
420,127,0,0,0,0,0,0,0,0,0,-1,1644,897,0,0
427,127,0,0,0,0,0,0,0,0,0,-1,1651,897,0,0
434,127,0,0,0,0,0,0,0,0,0,-1,1658,897,0,0
441,127,0,0,0,0,0,0,0,0,0,-1,1665,897,0,0
448,127,0,0,0,0,0,0,0,0,0,-1,1672,897,0,0
455,127,0,0,0,0,0,0,0,0,0,-1,1679,897,0,0
462,127,0,0,0,0,0,0,0,0,0,-1,1686,897,0,0
469,127,0,0,0,0,0,0,0,0,0,-1,1693,897,0,0
476,127,0,0,0,0,0,0,0,0,0,-1,1700,897,0,0
483,127,0,0,0,0,0,0,0,0,0,-1,1707,897,0,0
490,127,0,0,0,0,0,0,0,0,0,-1,1714,897,0,0
497,127,0,0,0,0,0,0,0,0,0,-1,1721,897,0,0
504,127,0,0,0,0,0,0,0,0,0,-1,1728,897,0,0
511,127,0,0,0,0,0,0,0,0,0,-1,1735,897,0,0
518,127,0,0,0,0,0,0,0,0,0,-1,1742,897,0,0
525,127,0,0,0,0,0,0,0,0,0,-1,1749,897,0,0
532,127,0,0,0,0,0,0,0,0,0,-1,1756,897,0,0
539,127,0,0,0,0,0,0,0,0,0,-1,1763,897,0,0
546,127,0,0,0,0,0,0,0,0,0,-1,1770,897,0,0
553,127,0,0,0,0,0,0,0,0,0,-1,1777,897,0,0
560,127,0,0,0,0,0,0,0,0,0,-1,1784,897,0,0
567,127,0,0,0,0,0,0,0,0,0,-1,1791,897,0,0
574,127,0,0,0,0,0,0,0,0,0,-1,1798,897,0,0
581,127,0,0,0,0,0,0,0,0,0,-1,1805,897,0,0
588,127,0,0,0,0,0,0,0,0,0,-1,1812,897,0,0
595,127,0,0,0,0,0,0,0,0,0,-1,1819,897,0,0
602,127,0,0,0,0,0,0,0,0,0,-1,1826,897,0,0
609,127,0,0,0,0,0,0,0,0,0,-1,1833,897,0,0
616,127,0,0,0,0,0,0,0,0,0,-1,1840,897,0,0
623,127,0,0,0,0,0,0,0,0,0,-1,1847,897,0,0
630,127,36.9128,2.70807,0.00273612,-0.000538509,0.00373129,0.00517352,-0.00297591,0.578645,0.00476176,0.0438,1854,897,36.9129,-2.70807
637,127,36.8933,2.58209,0.00159543,-0.000414824,0.00241824,0.00320912,-0.00202851,0.588438,0.00304945,0.0399911,1861,897,36.8933,-2.58207
644,127,37.0842,2.5542,0.000807005,-0.000400203,0.00141747,0.00174404,-0.00133724,0.584111,0.00178414,0.0390607,1868,897,37.0842,-2.5542
651,127,36.9796,2.39404,0.000353806,-0.000383958,0.000695886,0.000772536,-0.000802687,0.541684,0.000909511,0.040768,1875,897,36.9796,-2.39407
658,127,36.8196,2.41254,0.000191419,-0.000406889,0.00023846,0.00027483,-0.0004903,0.336489,0.000447549,0.0387576,1882,897,36.8196,-2.41257
665,127,36.7919,2.50739,0.000214401,-0.000448821,-3.39836e-05,0.000216138,-0.000450558,-0.0510619,0.000392768,0.0355698,1889,897,36.7919,-2.50738
672,127,36.8142,2.45386,0.000268641,-0.000503486,-0.000145453,0.000295133,-0.000529978,-0.180156,0.000482767,0.0307574,1896,897,36.8142,-2.45383
679,127,36.887,2.46698,0.000298483,-0.000571385,-0.000303385,0.000393841,-0.000666743,-0.304537,0.000619049,0.0235658,1903,897,36.887,-2.46699
686,127,36.9045,2.41675,0.000353875,-0.000559489,-0.000435234,0.000528055,-0.000733669,-0.380678,0.000731674,0.0375384,1910,897,36.9046,-2.41674
693,127,36.8582,2.30261,0,0,0,0,0,0,0,-1,1917,897,36.8581,-2.30258
700,127,32.5355,2.57629,0,0,0,0,0,0,0,-1,1924,897,32.5356,-2.5763
707,127,32.1831,2.91083,0.0004269,-0.000239323,-0.000507947,0.00070122,-0.000513643,-0.495178,0.000704183,0.0257653,1931,897,32.1832,-2.91082
714,127,32.316,3.30945,0.000482559,2.09727e-05,-0.000634223,0.000926676,-0.000423144,-0.610896,0.000797189,0.0215866,1938,897,32.316,-3.30943
721,127,32.528,3.8382,0.000468711,0.000334357,-0.000682254,0.00108709,-0.000284019,-0.736324,0.000835645,0.0167236,1945,897,32.528,-3.83819
728,127,32.4951,4.13245,0.000434973,0.000789916,-0.000774936,0.00140744,-0.000182554,-0.897964,0.00100469,0.0144221,1952,897,32.4951,-4.13242
735,127,32.4778,4.51556,0.00057879,0.0015616,-0.000926939,0.00211934,2.10551e-05,-1.02913,0.00140592,0.0203761,1959,897,32.4777,-4.51553
742,127,32.4449,4.86011,0.000928583,0.00261979,-0.00112336,0.00318024,0.000368132,-1.10803,0.00200873,0.0180421,1966,897,32.4449,-4.86011
749,127,32.4252,5.16949,0.00164373,0.00390459,-0.00130709,0.00450227,0.00104605,-1.14192,0.00272071,0.0123642,1973,897,32.4252,-5.16952
756,127,32.3973,5.49707,0.00287345,0.00550535,-0.00140994,0.00611805,0.00226076,-1.16086,0.00357212,0.0140691,1980,897,32.3974,-5.49704
763,127,32.3445,5.80865,0.00503244,0.00730535,-0.00136722,0.00794676,0.00439102,-1.13214,0.00459651,0.0231378,1987,897,32.3445,-5.80863
770,127,33.1431,5.9502,0,0,0,0,0,0,0,-1,1994,897,33.1431,-5.95019
777,127,34.176,6.21722,0,0,0,0,0,0,0,-1,2001,897,34.1761,-6.21722
784,127,32.9255,8.75488,0,0,0,0,0,0,0,-1,2008,897,32.9255,-8.75486
791,127,33.1067,9.79041,0,0,0,0,0,0,0,-1,2015,897,33.1066,-9.79039
798,127,0,0,0,0,0,0,0,0,0,-1,2022,897,0,0
805,127,0,0,0,0,0,0,0,0,0,-1,2029,897,0,0
812,127,0,0,0,0,0,0,0,0,0,-1,2036,897,0,0
-700,120,0,0,0,0,0,0,0,0,0,-1,524,904,0,0
-693,120,0,0,0,0,0,0,0,0,0,-1,531,904,0,0
-686,120,0,0,0,0,0,0,0,0,0,-1,538,904,0,0
-679,120,-27.204,7.0611,0.0308568,0.117649,-0.0336212,0.129149,0.0193565,-1.24122,0.0804274,0.0457639,545,904,-27.204,-7.06107
-672,120,-27.0204,6.27271,0,0,0,0,0,0,0,-1,552,904,-27.0204,-6.27273
-665,120,-26.8516,5.56317,0.0235283,0.0728569,-0.017804,0.0786115,0.0177737,-1.25818,0.0476023,0.0467892,559,904,-26.8516,-5.56316
-658,120,-27.0028,4.93689,0,0,0,0,0,0,0,-1,566,904,-27.0028,-4.93689
-651,120,-24.6141,2.841,0,0,0,0,0,0,0,-1,573,904,-24.6142,-2.84099
-644,120,-24.3336,2.58936,0,0,0,0,0,0,0,-1,580,904,-24.3336,-2.58936
-637,120,-24.0531,2.33771,0,0,0,0,0,0,0,-1,587,904,-24.0531,-2.33773
-630,120,-23.751,2.90735,0.00428193,0.00706007,0.00121579,0.00751699,0.00382501,1.21131,0.00434016,0.0259305,594,904,-23.751,-2.90735
-623,120,-23.7697,2.75287,0.00193713,0.00287462,0.00226939,0.00472317,8.85797e-05,0.887242,0.00311967,0.0115724,601,904,-23.7696,-2.75288
-616,120,-23.7732,2.46661,0.000370095,-0.000541569,0.00247794,0.00243378,-0.00260525,0.694437,0.00290985,0.00977773,608,904,-23.7732,-2.46661
-609,120,-23.7906,2.1731,-0.000936329,-0.00161439,0.00272206,0.00146773,-0.00401845,0.723443,0.00327958,0.0132182,615,904,-23.7906,-2.17307
-602,120,-23.8136,1.87976,-0.00216593,-0.00112448,0.00235466,0.000766348,-0.00405675,0.89422,0.00299284,0.0147336,622,904,-23.8136,-1.87977
-595,120,-23.7784,1.6134,-0.00293608,-0.000936957,0.00209608,0.000385691,-0.00425873,1.00789,0.00297606,0.0233177,629,904,-23.7784,-1.61341
-588,120,-23.8167,1.2522,-0.00310645,-0.000595981,0.00160965,0.00019001,-0.00389244,1.11655,0.00266056,0.0322115,636,904,-23.8167,-1.25218
-581,120,-24.0001,0.948425,-0.00301218,-0.000263502,0.00127409,0.00023622,-0.0035119,1.19701,0.00242385,0.0441985,643,904,-24.0001,-0.948455
-574,120,-23.8701,0.544556,-0.00280727,0.000142311,0.000884106,0.000387012,-0.00305197,1.30078,0.00217515,0.0318844,650,904,-23.8701,-0.544529
-567,120,-23.6343,-0.25708,0,0,0,0,0,0,0,-1,657,904,-23.6343,0.257079
-560,120,-26.5818,0.883789,0,0,0,0,0,0,0,-1,664,904,-26.5818,-0.883793
-553,120,-26.9402,0.734497,0,0,0,0,0,0,0,-1,671,904,-26.9402,-0.734469
-546,120,-26.9281,0.695801,-0.00162045,0.00121796,-0.000416462,0.0012778,-0.00168029,-1.42808,0.00171312,0.0322751,678,904,-26.9281,-0.695819
-539,120,-26.9174,0.652405,-0.00123413,0.00163122,-0.000699507,0.00179287,-0.00139578,-1.34369,0.00184572,0.0257579,685,904,-26.9174,-0.652378
-532,120,-26.849,0.691467,-0.000812864,0.00203408,-0.000972319,0.00233446,-0.00111325,-1.27116,0.00203173,0.0275054,692,904,-26.849,-0.691465
-525,120,-26.962,0.949768,-0.000300958,0.00230404,-0.00131803,0.00285457,-0.000851487,-1.17513,0.00224145,0.0355998,699,904,-26.962,-0.949759
-518,120,-27.149,1.12634,0.000257087,0.0023303,-0.00162945,0.00322492,-0.000637537,-1.06869,0.00239096,0.0405395,706,904,-27.1491,-1.12631
-511,120,-27.0895,0.947083,0.00157689,0.00249712,-0.00208298,0.0041702,-9.61926e-05,-0.8941,0.00281275,0.0414684,713,904,-27.0895,-0.947093
-504,120,0,0,0,0,0,0,0,0,0,-1,720,904,0,0
-497,120,0,0,0,0,0,0,0,0,0,-1,727,904,0,0
-490,120,0,0,0,0,0,0,0,0,0,-1,734,904,0,0
-483,120,0,0,0,0,0,0,0,0,0,-1,741,904,0,0
-476,120,0,0,0,0,0,0,0,0,0,-1,748,904,0,0
-469,120,0,0,0,0,0,0,0,0,0,-1,755,904,0,0
-462,120,0,0,0,0,0,0,0,0,0,-1,762,904,0,0
-455,120,0,0,0,0,0,0,0,0,0,-1,769,904,0,0
-448,120,0,0,0,0,0,0,0,0,0,-1,776,904,0,0
-441,120,0,0,0,0,0,0,0,0,0,-1,783,904,0,0
-434,120,0,0,0,0,0,0,0,0,0,-1,790,904,0,0
-427,120,0,0,0,0,0,0,0,0,0,-1,797,904,0,0
-420,120,0,0,0,0,0,0,0,0,0,-1,804,904,0,0
-413,120,0,0,0,0,0,0,0,0,0,-1,811,904,0,0
-406,120,0,0,0,0,0,0,0,0,0,-1,818,904,0,0
-399,120,0,0,0,0,0,0,0,0,0,-1,825,904,0,0
-392,120,0,0,0,0,0,0,0,0,0,-1,832,904,0,0
-385,120,0,0,0,0,0,0,0,0,0,-1,839,904,0,0
-378,120,0,0,0,0,0,0,0,0,0,-1,846,904,0,0
-371,120,0,0,0,0,0,0,0,0,0,-1,853,904,0,0
-364,120,0,0,0,0,0,0,0,0,0,-1,860,904,0,0
-357,120,0,0,0,0,0,0,0,0,0,-1,867,904,0,0
-350,120,0,0,0,0,0,0,0,0,0,-1,874,904,0,0
-343,120,0,0,0,0,0,0,0,0,0,-1,881,904,0,0
-336,120,0,0,0,0,0,0,0,0,0,-1,888,904,0,0
-329,120,0,0,0,0,0,0,0,0,0,-1,895,904,0,0
-322,120,0,0,0,0,0,0,0,0,0,-1,902,904,0,0
-315,120,0,0,0,0,0,0,0,0,0,-1,909,904,0,0
-308,120,0,0,0,0,0,0,0,0,0,-1,916,904,0,0
-301,120,0,0,0,0,0,0,0,0,0,-1,923,904,0,0
-294,120,0,0,0,0,0,0,0,0,0,-1,930,904,0,0
-287,120,0,0,0,0,0,0,0,0,0,-1,937,904,0,0
-280,120,0,0,0,0,0,0,0,0,0,-1,944,904,0,0
-273,120,0,0,0,0,0,0,0,0,0,-1,951,904,0,0
-266,120,0,0,0,0,0,0,0,0,0,-1,958,904,0,0
-259,120,0,0,0,0,0,0,0,0,0,-1,965,904,0,0
-252,120,0,0,0,0,0,0,0,0,0,-1,972,904,0,0
-245,120,0,0,0,0,0,0,0,0,0,-1,979,904,0,0
-238,120,0,0,0,0,0,0,0,0,0,-1,986,904,0,0
-231,120,0,0,0,0,0,0,0,0,0,-1,993,904,0,0
-224,120,0,0,0,0,0,0,0,0,0,-1,1000,904,0,0
-217,120,0,0,0,0,0,0,0,0,0,-1,1007,904,0,0
-210,120,0,0,0,0,0,0,0,0,0,-1,1014,904,0,0
-203,120,0,0,0,0,0,0,0,0,0,-1,1021,904,0,0
-196,120,0,0,0,0,0,0,0,0,0,-1,1028,904,0,0
-189,120,0,0,0,0,0,0,0,0,0,-1,1035,904,0,0
-182,120,0,0,0,0,0,0,0,0,0,-1,1042,904,0,0
-175,120,0,0,0,0,0,0,0,0,0,-1,1049,904,0,0
-168,120,0,0,0,0,0,0,0,0,0,-1,1056,904,0,0
-161,120,0,0,0,0,0,0,0,0,0,-1,1063,904,0,0
-154,120,0,0,0,0,0,0,0,0,0,-1,1070,904,0,0
-147,120,0,0,0,0,0,0,0,0,0,-1,1077,904,0,0
-140,120,0,0,0,0,0,0,0,0,0,-1,1084,904,0,0
-133,120,0,0,0,0,0,0,0,0,0,-1,1091,904,0,0
-126,120,0,0,0,0,0,0,0,0,0,-1,1098,904,0,0
-119,120,0,0,0,0,0,0,0,0,0,-1,1105,904,0,0
-112,120,0,0,0,0,0,0,0,0,0,-1,1112,904,0,0
-105,120,0,0,0,0,0,0,0,0,0,-1,1119,904,0,0
-98,120,0,0,0,0,0,0,0,0,0,-1,1126,904,0,0
-91,120,0,0,0,0,0,0,0,0,0,-1,1133,904,0,0
-84,120,0,0,0,0,0,0,0,0,0,-1,1140,904,0,0
-77,120,0,0,0,0,0,0,0,0,0,-1,1147,904,0,0
-70,120,0,0,0,0,0,0,0,0,0,-1,1154,904,0,0
-63,120,0,0,0,0,0,0,0,0,0,-1,1161,904,0,0
-56,120,0,0,0,0,0,0,0,0,0,-1,1168,904,0,0
-49,120,0,0,0,0,0,0,0,0,0,-1,1175,904,0,0
-42,120,0,0,0,0,0,0,0,0,0,-1,1182,904,0,0
-35,120,0,0,0,0,0,0,0,0,0,-1,1189,904,0,0
-28,120,0,0,0,0,0,0,0,0,0,-1,1196,904,0,0
-21,120,0,0,0,0,0,0,0,0,0,-1,1203,904,0,0
-14,120,0,0,0,0,0,0,0,0,0,-1,1210,904,0,0
-7,120,0,0,0,0,0,0,0,0,0,-1,1217,904,0,0
0,120,0,0,0,0,0,0,0,0,0,-1,1224,904,0,0
7,120,0,0,0,0,0,0,0,0,0,-1,1231,904,0,0
14,120,0,0,0,0,0,0,0,0,0,-1,1238,904,0,0
21,120,0,0,0,0,0,0,0,0,0,-1,1245,904,0,0
28,120,0,0,0,0,0,0,0,0,0,-1,1252,904,0,0
35,120,0,0,0,0,0,0,0,0,0,-1,1259,904,0,0
42,120,0,0,0,0,0,0,0,0,0,-1,1266,904,0,0
49,120,0,0,0,0,0,0,0,0,0,-1,1273,904,0,0
56,120,0,0,0,0,0,0,0,0,0,-1,1280,904,0,0
63,120,0,0,0,0,0,0,0,0,0,-1,1287,904,0,0
70,120,0,0,0,0,0,0,0,0,0,-1,1294,904,0,0
77,120,0,0,0,0,0,0,0,0,0,-1,1301,904,0,0
84,120,0,0,0,0,0,0,0,0,0,-1,1308,904,0,0
91,120,0,0,0,0,0,0,0,0,0,-1,1315,904,0,0
98,120,0,0,0,0,0,0,0,0,0,-1,1322,904,0,0
105,120,0,0,0,0,0,0,0,0,0,-1,1329,904,0,0
112,120,0,0,0,0,0,0,0,0,0,-1,1336,904,0,0
119,120,0,0,0,0,0,0,0,0,0,-1,1343,904,0,0
126,120,0,0,0,0,0,0,0,0,0,-1,1350,904,0,0
133,120,0,0,0,0,0,0,0,0,0,-1,1357,904,0,0
140,120,0,0,0,0,0,0,0,0,0,-1,1364,904,0,0
147,120,0,0,0,0,0,0,0,0,0,-1,1371,904,0,0
154,120,0,0,0,0,0,0,0,0,0,-1,1378,904,0,0
161,120,0,0,0,0,0,0,0,0,0,-1,1385,904,0,0
168,120,0,0,0,0,0,0,0,0,0,-1,1392,904,0,0
175,120,0,0,0,0,0,0,0,0,0,-1,1399,904,0,0
182,120,0,0,0,0,0,0,0,0,0,-1,1406,904,0,0
189,120,0,0,0,0,0,0,0,0,0,-1,1413,904,0,0
196,120,0,0,0,0,0,0,0,0,0,-1,1420,904,0,0
203,120,0,0,0,0,0,0,0,0,0,-1,1427,904,0,0
210,120,0,0,0,0,0,0,0,0,0,-1,1434,904,0,0
217,120,0,0,0,0,0,0,0,0,0,-1,1441,904,0,0
224,120,0,0,0,0,0,0,0,0,0,-1,1448,904,0,0
231,120,0,0,0,0,0,0,0,0,0,-1,1455,904,0,0
238,120,0,0,0,0,0,0,0,0,0,-1,1462,904,0,0
245,120,0,0,0,0,0,0,0,0,0,-1,1469,904,0,0
252,120,0,0,0,0,0,0,0,0,0,-1,1476,904,0,0
259,120,0,0,0,0,0,0,0,0,0,-1,1483,904,0,0
266,120,0,0,0,0,0,0,0,0,0,-1,1490,904,0,0
273,120,0,0,0,0,0,0,0,0,0,-1,1497,904,0,0
280,120,0,0,0,0,0,0,0,0,0,-1,1504,904,0,0
287,120,0,0,0,0,0,0,0,0,0,-1,1511,904,0,0
294,120,0,0,0,0,0,0,0,0,0,-1,1518,904,0,0
301,120,0,0,0,0,0,0,0,0,0,-1,1525,904,0,0
308,120,0,0,0,0,0,0,0,0,0,-1,1532,904,0,0
315,120,0,0,0,0,0,0,0,0,0,-1,1539,904,0,0
322,120,0,0,0,0,0,0,0,0,0,-1,1546,904,0,0
329,120,0,0,0,0,0,0,0,0,0,-1,1553,904,0,0
336,120,0,0,0,0,0,0,0,0,0,-1,1560,904,0,0
343,120,0,0,0,0,0,0,0,0,0,-1,1567,904,0,0
350,120,0,0,0,0,0,0,0,0,0,-1,1574,904,0,0
357,120,0,0,0,0,0,0,0,0,0,-1,1581,904,0,0
364,120,0,0,0,0,0,0,0,0,0,-1,1588,904,0,0
371,120,0,0,0,0,0,0,0,0,0,-1,1595,904,0,0
378,120,0,0,0,0,0,0,0,0,0,-1,1602,904,0,0
385,120,0,0,0,0,0,0,0,0,0,-1,1609,904,0,0
392,120,0,0,0,0,0,0,0,0,0,-1,1616,904,0,0
399,120,0,0,0,0,0,0,0,0,0,-1,1623,904,0,0
406,120,0,0,0,0,0,0,0,0,0,-1,1630,904,0,0
413,120,0,0,0,0,0,0,0,0,0,-1,1637,904,0,0
420,120,0,0,0,0,0,0,0,0,0,-1,1644,904,0,0
427,120,0,0,0,0,0,0,0,0,0,-1,1651,904,0,0
434,120,0,0,0,0,0,0,0,0,0,-1,1658,904,0,0
441,120,0,0,0,0,0,0,0,0,0,-1,1665,904,0,0
448,120,0,0,0,0,0,0,0,0,0,-1,1672,904,0,0
455,120,0,0,0,0,0,0,0,0,0,-1,1679,904,0,0
462,120,0,0,0,0,0,0,0,0,0,-1,1686,904,0,0
469,120,0,0,0,0,0,0,0,0,0,-1,1693,904,0,0
476,120,0,0,0,0,0,0,0,0,0,-1,1700,904,0,0
483,120,0,0,0,0,0,0,0,0,0,-1,1707,904,0,0
490,120,0,0,0,0,0,0,0,0,0,-1,1714,904,0,0
497,120,0,0,0,0,0,0,0,0,0,-1,1721,904,0,0
504,120,0,0,0,0,0,0,0,0,0,-1,1728,904,0,0
511,120,0,0,0,0,0,0,0,0,0,-1,1735,904,0,0
518,120,0,0,0,0,0,0,0,0,0,-1,1742,904,0,0
525,120,0,0,0,0,0,0,0,0,0,-1,1749,904,0,0
532,120,0,0,0,0,0,0,0,0,0,-1,1756,904,0,0
539,120,0,0,0,0,0,0,0,0,0,-1,1763,904,0,0
546,120,0,0,0,0,0,0,0,0,0,-1,1770,904,0,0
553,120,0,0,0,0,0,0,0,0,0,-1,1777,904,0,0
560,120,0,0,0,0,0,0,0,0,0,-1,1784,904,0,0
567,120,0,0,0,0,0,0,0,0,0,-1,1791,904,0,0
574,120,0,0,0,0,0,0,0,0,0,-1,1798,904,0,0
581,120,0,0,0,0,0,0,0,0,0,-1,1805,904,0,0
588,120,0,0,0,0,0,0,0,0,0,-1,1812,904,0,0
595,120,0,0,0,0,0,0,0,0,0,-1,1819,904,0,0
602,120,0,0,0,0,0,0,0,0,0,-1,1826,904,0,0
609,120,0,0,0,0,0,0,0,0,0,-1,1833,904,0,0
616,120,0,0,0,0,0,0,0,0,0,-1,1840,904,0,0
623,120,0,0,0,0,0,0,0,0,0,-1,1847,904,0,0
630,120,37.0525,2.43079,0.00190959,9.85859e-05,0.00430295,0.00540128,-0.00339311,0.681693,0.00512138,0.0397661,1854,904,37.0525,-2.43077
637,120,37.0474,2.39551,0.000973615,0.000137618,0.00282494,0.00341131,-0.00230008,0.711948,0.00331822,0.0403347,1861,904,37.0474,-2.39548
644,120,37.1119,2.46545,0.000338804,5.75962e-05,0.00169996,0.00190397,-0.00150757,0.744137,0.00197408,0.040854,1868,904,37.1119,-2.46548
651,120,36.9324,2.55707,2.41176e-05,-1.43558e-05,0.000864189,0.000869284,-0.000859522,0.77427,0.000998133,0.0437497,1875,904,36.9324,-2.55707
658,120,36.7677,2.64838,-5.41282e-05,-7.84733e-05,0.0003093,0.000243239,-0.000375841,0.765731,0.000360148,0.0412358,1882,904,36.7677,-2.64835
665,120,36.7961,2.64941,5.41994e-05,-0.000149638,-3.65423e-05,6.05524e-05,-0.000155991,-0.172133,0.000129005,0.0358541,1889,904,36.7962,-2.64943
672,120,36.7593,2.50726,0.000183678,-0.000247545,-0.000170426,0.0002429,-0.000306767,-0.334439,0.000318064,0.0350424,1896,904,36.7593,-2.50726
679,120,36.8167,2.46246,0.000275972,-0.000361202,-0.000306343,0.000399362,-0.000484592,-0.382904,0.000511141,0.0314748,1903,904,36.8167,-2.46246
686,120,36.8778,2.48938,0.000348326,-0.00038865,-0.000426929,0.000543799,-0.000584123,-0.429369,0.000651345,0.0221556,1910,904,36.8778,-2.4894
693,120,36.8583,2.45355,0,0,0,0,0,0,0,-1,1917,904,36.8582,-2.45353
700,120,32.793,2.84778,0,0,0,0,0,0,0,-1,1924,904,32.7929,-2.84777
707,120,32.6748,3.11572,0.00034016,-0.000209371,-0.000549644,0.00067989,-0.000549101,-0.553616,0.000710896,0.0316899,1931,904,32.6748,-3.11573
714,120,32.8685,3.51801,0.000374916,7.8661e-06,-0.000662367,0.000878713,-0.000495931,-0.650252,0.000803842,0.0201355,1938,904,32.8685,-3.51801
721,120,32.8761,3.85242,0.000315606,0.000286469,-0.000672491,0.000973686,-0.000371612,-0.774568,0.000802218,0.0153562,1945,904,32.8761,-3.85243
728,120,32.8364,4.20569,0.000278269,0.000707783,-0.000760151,0.00128293,-0.000296879,-0.923069,0.000969519,0.0103272,1952,904,32.8364,-4.20569
735,120,32.8059,4.51587,0.000473682,0.00148233,-0.000936501,0.00204167,-8.56555e-05,-1.03239,0.00139054,0.0127523,1959,904,32.8059,-4.51588
742,120,32.7975,4.86188,0.000850173,0.00256562,-0.00115883,0.00314962,0.000266173,-1.10399,0.00201689,0.0137177,1966,904,32.7975,-4.86187
749,120,32.7714,5.16351,0.00161758,0.00394698,-0.0014081,0.00460965,0.000954917,-1.13094,0.00280942,0.010371,1973,904,32.7713,-5.16349
756,120,32.728,5.47815,0.00297374,0.00568492,-0.00161587,0.00643851,0.00222015,-1.13441,0.00377648,0.0127934,1980,904,32.7281,-5.47816
763,120,32.655,5.78522,0.00527775,0.00765068,-0.00173538,0.00856641,0.00436202,-1.08525,0.0049461,0.027027,1987,904,32.655,-5.78521
770,120,32.6216,6.13068,0,0,0,0,0,0,0,-1,1994,904,32.6215,-6.13067
777,120,32.5088,6.20496,0,0,0,0,0,0,0,-1,2001,904,32.5088,-6.20494
784,120,28.2545,3.00208,0,0,0,0,0,0,0,-1,2008,904,28.2545,-3.00207
791,120,33.7759,9.9859,0,0,0,0,0,0,0,-1,2015,904,33.776,-9.98587
798,120,33.8569,6.19458,0,0,0,0,0,0,0,-1,2022,904,33.8568,-6.19461
805,120,0,0,0,0,0,0,0,0,0,-1,2029,904,0,0
812,120,0,0,0,0,0,0,0,0,0,-1,2036,904,0,0
-700,113,0,0,0,0,0,0,0,0,0,-1,524,911,0,0
-693,113,0,0,0,0,0,0,0,0,0,-1,531,911,0,0
-686,113,0,0,0,0,0,0,0,0,0,-1,538,911,0,0
-679,113,-27.5416,6.50061,0,0,0,0,0,0,0,-1,545,911,-27.5416,-6.5006
-672,113,-27.3613,5.66254,0,0,0,0,0,0,0,-1,552,911,-27.3614,-5.66251
-665,113,-26.7097,5.06049,0,0,0,0,0,0,0,-1,559,911,-26.7097,-5.06046
-658,113,-26.3984,3.9104,0,0,0,0,0,0,0,-1,566,911,-26.3984,-3.91041
-651,113,-25.3766,3.41431,0.00959994,0.0376413,-0.000876819,0.0376687,0.00957255,-1.53957,0.0226076,0.0471177,573,911,-25.3766,-3.41432
-644,113,-24.3239,3.104,0.00680505,0.0249898,0.0011627,0.0250639,0.00673101,1.5072,0.0149785,0.0433447,580,911,-24.3238,-3.10401
-637,113,-24.0844,2.94745,0.0043153,0.0155498,0.00247685,0.0160716,0.00379347,1.36315,0.00970042,0.0361223,587,911,-24.0843,-2.94748
-630,113,-24.0573,3.02075,0.00229706,0.00929451,0.00287552,0.0103245,0.00126702,1.22683,0.00650197,0.0182503,594,911,-24.0573,-3.02074
-623,113,-24.0945,2.74817,0.000533145,0.00462931,0.00313346,0.00632465,-0.0011622,1.07485,0.00465247,0.011922,601,911,-24.0946,-2.74816
-616,113,-24.0976,2.45233,-0.000620748,0.000344701,0.00288782,0.00278987,-0.00306591,0.868212,0.00338209,0.00972328,608,911,-24.0976,-2.45232
-609,113,-24.114,2.17572,-0.00180378,-0.00124896,0.0028262,0.00131341,-0.00436615,0.83432,0.00343336,0.0108118,615,911,-24.114,-2.1757
-602,113,-24.1407,1.88593,-0.00307971,-0.00097457,0.00231433,0.000515308,-0.00456959,0.99882,0.00323189,0.0157748,622,911,-24.1407,-1.88593
-595,113,-24.1652,1.66449,-0.00393006,-0.000901696,0.00200187,9.41453e-05,-0.0049259,1.10919,0.00331576,0.0211281,629,911,-24.1652,-1.66449
-588,113,-24.1423,1.35999,-0.0041308,-0.000572544,0.0014753,-4.04392e-05,-0.00466291,1.22464,0.00309521,0.0248937,636,911,-24.1424,-1.35996
-581,113,-24.1503,1.04437,-0.00404364,-0.000176954,0.00112843,0.000128267,-0.00434886,1.30663,0.00294293,0.0259754,643,911,-24.1503,-1.04436
-574,113,-24.118,0.606384,0,0,0,0,0,0,0,-1,650,911,-24.118,-0.606358
-567,113,-21.8396,0.437378,0,0,0,0,0,0,0,-1,657,911,-21.8396,-0.437351
-560,113,-26.8931,0.561157,0,0,0,0,0,0,0,-1,664,911,-26.8931,-0.561185
-553,113,-26.9168,0.768066,-0.00278117,0.00118747,-3.7627e-05,0.00118782,-0.00278153,-1.56132,0.00235247,0.0392163,671,911,-26.9168,-0.768072
-546,113,-26.9154,0.792847,-0.00234738,0.00166916,-0.000222573,0.00168146,-0.00235967,-1.51561,0.00234407,0.0366552,678,911,-26.9154,-0.792848
-539,113,-26.9189,0.696411,-0.00177123,0.00219688,-0.000407944,0.00223838,-0.00181273,-1.4694,0.00234321,0.0362887,685,911,-26.9189,-0.696421
-532,113,-26.8721,0.669922,-0.00112919,0.00269925,-0.000586469,0.00278707,-0.00121701,-1.42215,0.00237026,0.0369356,692,911,-26.8721,-0.669929
-525,113,-26.9208,0.910645,-0.000440688,0.00301545,-0.000865062,0.00321988,-0.000645118,-1.33874,0.00239082,0.0393375,699,911,-26.9208,-0.910663
-518,113,-26.8904,0.998291,-0.000238801,0.0030093,-0.00113876,0.00336876,-0.000598264,-1.26503,0.00246954,0.0425269,706,911,-26.8904,-0.998316
-511,113,-26.8669,1.07471,0.000646183,0.00311072,-0.00173578,0.00400716,-0.000250261,-1.09408,0.00275865,0.0428478,713,911,-26.8669,-1.07471
-504,113,0,0,0,0,0,0,0,0,0,-1,720,911,0,0
-497,113,0,0,0,0,0,0,0,0,0,-1,727,911,0,0
-490,113,0,0,0,0,0,0,0,0,0,-1,734,911,0,0
-483,113,0,0,0,0,0,0,0,0,0,-1,741,911,0,0
-476,113,0,0,0,0,0,0,0,0,0,-1,748,911,0,0
-469,113,0,0,0,0,0,0,0,0,0,-1,755,911,0,0
-462,113,0,0,0,0,0,0,0,0,0,-1,762,911,0,0
-455,113,0,0,0,0,0,0,0,0,0,-1,769,911,0,0
-448,113,0,0,0,0,0,0,0,0,0,-1,776,911,0,0
-441,113,0,0,0,0,0,0,0,0,0,-1,783,911,0,0
-434,113,0,0,0,0,0,0,0,0,0,-1,790,911,0,0
-427,113,0,0,0,0,0,0,0,0,0,-1,797,911,0,0
-420,113,0,0,0,0,0,0,0,0,0,-1,804,911,0,0
-413,113,0,0,0,0,0,0,0,0,0,-1,811,911,0,0
-406,113,0,0,0,0,0,0,0,0,0,-1,818,911,0,0
-399,113,0,0,0,0,0,0,0,0,0,-1,825,911,0,0
-392,113,0,0,0,0,0,0,0,0,0,-1,832,911,0,0
-385,113,0,0,0,0,0,0,0,0,0,-1,839,911,0,0
-378,113,0,0,0,0,0,0,0,0,0,-1,846,911,0,0
-371,113,0,0,0,0,0,0,0,0,0,-1,853,911,0,0
-364,113,0,0,0,0,0,0,0,0,0,-1,860,911,0,0
-357,113,0,0,0,0,0,0,0,0,0,-1,867,911,0,0
-350,113,0,0,0,0,0,0,0,0,0,-1,874,911,0,0
-343,113,0,0,0,0,0,0,0,0,0,-1,881,911,0,0
-336,113,0,0,0,0,0,0,0,0,0,-1,888,911,0,0
-329,113,0,0,0,0,0,0,0,0,0,-1,895,911,0,0
-322,113,0,0,0,0,0,0,0,0,0,-1,902,911,0,0
-315,113,0,0,0,0,0,0,0,0,0,-1,909,911,0,0
-308,113,0,0,0,0,0,0,0,0,0,-1,916,911,0,0
-301,113,0,0,0,0,0,0,0,0,0,-1,923,911,0,0
-294,113,0,0,0,0,0,0,0,0,0,-1,930,911,0,0
-287,113,0,0,0,0,0,0,0,0,0,-1,937,911,0,0
-280,113,0,0,0,0,0,0,0,0,0,-1,944,911,0,0
-273,113,0,0,0,0,0,0,0,0,0,-1,951,911,0,0
-266,113,0,0,0,0,0,0,0,0,0,-1,958,911,0,0
-259,113,0,0,0,0,0,0,0,0,0,-1,965,911,0,0
-252,113,0,0,0,0,0,0,0,0,0,-1,972,911,0,0
-245,113,0,0,0,0,0,0,0,0,0,-1,979,911,0,0
-238,113,0,0,0,0,0,0,0,0,0,-1,986,911,0,0
-231,113,0,0,0,0,0,0,0,0,0,-1,993,911,0,0
-224,113,0,0,0,0,0,0,0,0,0,-1,1000,911,0,0
-217,113,0,0,0,0,0,0,0,0,0,-1,1007,911,0,0
-210,113,0,0,0,0,0,0,0,0,0,-1,1014,911,0,0
-203,113,0,0,0,0,0,0,0,0,0,-1,1021,911,0,0
-196,113,0,0,0,0,0,0,0,0,0,-1,1028,911,0,0
-189,113,0,0,0,0,0,0,0,0,0,-1,1035,911,0,0
-182,113,0,0,0,0,0,0,0,0,0,-1,1042,911,0,0
-175,113,0,0,0,0,0,0,0,0,0,-1,1049,911,0,0
-168,113,0,0,0,0,0,0,0,0,0,-1,1056,911,0,0
-161,113,0,0,0,0,0,0,0,0,0,-1,1063,911,0,0
-154,113,0,0,0,0,0,0,0,0,0,-1,1070,911,0,0
-147,113,0,0,0,0,0,0,0,0,0,-1,1077,911,0,0
-140,113,0,0,0,0,0,0,0,0,0,-1,1084,911,0,0
-133,113,0,0,0,0,0,0,0,0,0,-1,1091,911,0,0
-126,113,0,0,0,0,0,0,0,0,0,-1,1098,911,0,0
-119,113,0,0,0,0,0,0,0,0,0,-1,1105,911,0,0
-112,113,0,0,0,0,0,0,0,0,0,-1,1112,911,0,0
-105,113,0,0,0,0,0,0,0,0,0,-1,1119,911,0,0
-98,113,0,0,0,0,0,0,0,0,0,-1,1126,911,0,0
-91,113,0,0,0,0,0,0,0,0,0,-1,1133,911,0,0
-84,113,0,0,0,0,0,0,0,0,0,-1,1140,911,0,0
-77,113,0,0,0,0,0,0,0,0,0,-1,1147,911,0,0
-70,113,0,0,0,0,0,0,0,0,0,-1,1154,911,0,0
-63,113,0,0,0,0,0,0,0,0,0,-1,1161,911,0,0
-56,113,0,0,0,0,0,0,0,0,0,-1,1168,911,0,0
-49,113,0,0,0,0,0,0,0,0,0,-1,1175,911,0,0
-42,113,0,0,0,0,0,0,0,0,0,-1,1182,911,0,0
-35,113,0,0,0,0,0,0,0,0,0,-1,1189,911,0,0
-28,113,0,0,0,0,0,0,0,0,0,-1,1196,911,0,0
-21,113,0,0,0,0,0,0,0,0,0,-1,1203,911,0,0
-14,113,0,0,0,0,0,0,0,0,0,-1,1210,911,0,0
-7,113,0,0,0,0,0,0,0,0,0,-1,1217,911,0,0
0,113,0,0,0,0,0,0,0,0,0,-1,1224,911,0,0
7,113,0,0,0,0,0,0,0,0,0,-1,1231,911,0,0
14,113,0,0,0,0,0,0,0,0,0,-1,1238,911,0,0
21,113,0,0,0,0,0,0,0,0,0,-1,1245,911,0,0
28,113,0,0,0,0,0,0,0,0,0,-1,1252,911,0,0
35,113,0,0,0,0,0,0,0,0,0,-1,1259,911,0,0
42,113,0,0,0,0,0,0,0,0,0,-1,1266,911,0,0
49,113,0,0,0,0,0,0,0,0,0,-1,1273,911,0,0
56,113,0,0,0,0,0,0,0,0,0,-1,1280,911,0,0
63,113,0,0,0,0,0,0,0,0,0,-1,1287,911,0,0
70,113,0,0,0,0,0,0,0,0,0,-1,1294,911,0,0
77,113,0,0,0,0,0,0,0,0,0,-1,1301,911,0,0
84,113,0,0,0,0,0,0,0,0,0,-1,1308,911,0,0
91,113,0,0,0,0,0,0,0,0,0,-1,1315,911,0,0
98,113,0,0,0,0,0,0,0,0,0,-1,1322,911,0,0
105,113,0,0,0,0,0,0,0,0,0,-1,1329,911,0,0
112,113,0,0,0,0,0,0,0,0,0,-1,1336,911,0,0
119,113,0,0,0,0,0,0,0,0,0,-1,1343,911,0,0
126,113,0,0,0,0,0,0,0,0,0,-1,1350,911,0,0
133,113,0,0,0,0,0,0,0,0,0,-1,1357,911,0,0
140,113,0,0,0,0,0,0,0,0,0,-1,1364,911,0,0
147,113,0,0,0,0,0,0,0,0,0,-1,1371,911,0,0
154,113,0,0,0,0,0,0,0,0,0,-1,1378,911,0,0
161,113,0,0,0,0,0,0,0,0,0,-1,1385,911,0,0
168,113,0,0,0,0,0,0,0,0,0,-1,1392,911,0,0
175,113,0,0,0,0,0,0,0,0,0,-1,1399,911,0,0
182,113,0,0,0,0,0,0,0,0,0,-1,1406,911,0,0
189,113,0,0,0,0,0,0,0,0,0,-1,1413,911,0,0
196,113,0,0,0,0,0,0,0,0,0,-1,1420,911,0,0
203,113,0,0,0,0,0,0,0,0,0,-1,1427,911,0,0
210,113,0,0,0,0,0,0,0,0,0,-1,1434,911,0,0
217,113,0,0,0,0,0,0,0,0,0,-1,1441,911,0,0
224,113,0,0,0,0,0,0,0,0,0,-1,1448,911,0,0
231,113,0,0,0,0,0,0,0,0,0,-1,1455,911,0,0
238,113,0,0,0,0,0,0,0,0,0,-1,1462,911,0,0
245,113,0,0,0,0,0,0,0,0,0,-1,1469,911,0,0
252,113,0,0,0,0,0,0,0,0,0,-1,1476,911,0,0
259,113,0,0,0,0,0,0,0,0,0,-1,1483,911,0,0
266,113,0,0,0,0,0,0,0,0,0,-1,1490,911,0,0
273,113,0,0,0,0,0,0,0,0,0,-1,1497,911,0,0
280,113,0,0,0,0,0,0,0,0,0,-1,1504,911,0,0
287,113,0,0,0,0,0,0,0,0,0,-1,1511,911,0,0
294,113,0,0,0,0,0,0,0,0,0,-1,1518,911,0,0
301,113,0,0,0,0,0,0,0,0,0,-1,1525,911,0,0
308,113,0,0,0,0,0,0,0,0,0,-1,1532,911,0,0
315,113,0,0,0,0,0,0,0,0,0,-1,1539,911,0,0
322,113,0,0,0,0,0,0,0,0,0,-1,1546,911,0,0
329,113,0,0,0,0,0,0,0,0,0,-1,1553,911,0,0
336,113,0,0,0,0,0,0,0,0,0,-1,1560,911,0,0
343,113,0,0,0,0,0,0,0,0,0,-1,1567,911,0,0
350,113,0,0,0,0,0,0,0,0,0,-1,1574,911,0,0
357,113,0,0,0,0,0,0,0,0,0,-1,1581,911,0,0
364,113,0,0,0,0,0,0,0,0,0,-1,1588,911,0,0
371,113,0,0,0,0,0,0,0,0,0,-1,1595,911,0,0
378,113,0,0,0,0,0,0,0,0,0,-1,1602,911,0,0
385,113,0,0,0,0,0,0,0,0,0,-1,1609,911,0,0
392,113,0,0,0,0,0,0,0,0,0,-1,1616,911,0,0
399,113,0,0,0,0,0,0,0,0,0,-1,1623,911,0,0
406,113,0,0,0,0,0,0,0,0,0,-1,1630,911,0,0
413,113,0,0,0,0,0,0,0,0,0,-1,1637,911,0,0
420,113,0,0,0,0,0,0,0,0,0,-1,1644,911,0,0
427,113,0,0,0,0,0,0,0,0,0,-1,1651,911,0,0
434,113,0,0,0,0,0,0,0,0,0,-1,1658,911,0,0
441,113,0,0,0,0,0,0,0,0,0,-1,1665,911,0,0
448,113,0,0,0,0,0,0,0,0,0,-1,1672,911,0,0
455,113,0,0,0,0,0,0,0,0,0,-1,1679,911,0,0
462,113,0,0,0,0,0,0,0,0,0,-1,1686,911,0,0
469,113,0,0,0,0,0,0,0,0,0,-1,1693,911,0,0
476,113,0,0,0,0,0,0,0,0,0,-1,1700,911,0,0
483,113,0,0,0,0,0,0,0,0,0,-1,1707,911,0,0
490,113,0,0,0,0,0,0,0,0,0,-1,1714,911,0,0
497,113,0,0,0,0,0,0,0,0,0,-1,1721,911,0,0
504,113,0,0,0,0,0,0,0,0,0,-1,1728,911,0,0
511,113,0,0,0,0,0,0,0,0,0,-1,1735,911,0,0
518,113,0,0,0,0,0,0,0,0,0,-1,1742,911,0,0
525,113,0,0,0,0,0,0,0,0,0,-1,1749,911,0,0
532,113,0,0,0,0,0,0,0,0,0,-1,1756,911,0,0
539,113,0,0,0,0,0,0,0,0,0,-1,1763,911,0,0
546,113,0,0,0,0,0,0,0,0,0,-1,1770,911,0,0
553,113,0,0,0,0,0,0,0,0,0,-1,1777,911,0,0
560,113,0,0,0,0,0,0,0,0,0,-1,1784,911,0,0
567,113,0,0,0,0,0,0,0,0,0,-1,1791,911,0,0
574,113,0,0,0,0,0,0,0,0,0,-1,1798,911,0,0
581,113,0,0,0,0,0,0,0,0,0,-1,1805,911,0,0
588,113,0,0,0,0,0,0,0,0,0,-1,1812,911,0,0
595,113,0,0,0,0,0,0,0,0,0,-1,1819,911,0,0
602,113,0,0,0,0,0,0,0,0,0,-1,1826,911,0,0
609,113,0,0,0,0,0,0,0,0,0,-1,1833,911,0,0
616,113,0,0,0,0,0,0,0,0,0,-1,1840,911,0,0
623,113,0,0,0,0,0,0,0,0,0,-1,1847,911,0,0
630,113,36.9583,2.37512,0.000955636,0.000595236,0.0044256,0.00520471,-0.00365383,0.765051,0.00514054,0.0369153,1854,911,36.9583,-2.37515
637,113,36.91,2.58826,0.000409985,0.000505699,0.0029408,0.00339903,-0.00248334,0.793534,0.00340988,0.0381469,1861,911,36.91,-2.58824
644,113,36.9478,2.7077,2.10242e-06,0.000340938,0.00179824,0.00197772,-0.00163468,0.832366,0.00208876,0.0383232,1868,911,36.9478,-2.70767
651,113,36.9495,2.61261,-0.000165291,0.00019662,0.000930714,0.000963807,-0.000932477,0.881414,0.00109487,0.0429082,1875,911,36.9495,-2.61261
658,113,36.8729,2.69861,-0.000191079,0.00011271,0.000344029,0.000336885,-0.000415254,0.993286,0.000435032,0.0425753,1882,911,36.873,-2.69859
665,113,36.9033,2.62738,-5.7643e-05,3.22541e-05,-2.94718e-05,4.10546e-05,-6.64435e-05,-1.28062,6.26384e-05,0.0361474,1889,911,36.9033,-2.62736
672,113,36.9086,2.53638,6.2815e-05,-8.43787e-05,-0.000161262,0.000166481,-0.000188044,-0.571325,0.000204811,0.0358572,1896,911,36.9085,-2.53638
679,113,36.8595,2.47552,0.000142751,-0.000229904,-0.000256801,0.0002737,-0.000360853,-0.471556,0.00036751,0.0322489,1903,911,36.8595,-2.47554
686,113,36.8459,2.51587,0.000199134,-0.000289584,-0.000351724,0.000383051,-0.000473502,-0.481803,0.00049545,0.0275469,1910,911,36.8459,-2.51585
693,113,36.8806,2.42908,0.000191513,-0.000340665,-0.0003725,0.000383201,-0.000532353,-0.475257,0.000530928,0.0459465,1917,911,36.8806,-2.42907
700,113,36.9116,2.11133,0,0,0,0,0,0,0,-1,1924,911,36.9116,-2.11131
707,113,33.2208,3.19238,0,0,0,0,0,0,0,-1,1931,911,33.2208,-3.19237
714,113,33.1512,3.4527,0.000106172,3.63369e-05,-0.000589441,0.000661729,-0.00051922,-0.755814,0.000683474,0.020838,1938,911,33.1513,-3.45272
721,113,33.1505,3.79785,3.76485e-05,0.000298927,-0.000581499,0.000764281,-0.000427706,-0.895893,0.000697279,0.0190069,1945,911,33.1505,-3.79787
728,113,33.1782,4.20459,7.32418e-05,0.000704704,-0.000686599,0.00114469,-0.000366741,-1.0009,0.000910339,0.0180932,1952,911,33.1782,-4.20462
735,113,33.1316,4.54688,0.000443664,0.00143989,-0.000886551,0.00195868,-7.51246e-05,-1.04135,0.00133154,0.0161031,1959,911,33.1316,-4.54689
742,113,33.1263,4.83484,0.00102394,0.00251643,-0.00113493,0.00312848,0.000411893,-1.07622,0.00196281,0.011961,1966,911,33.1263,-4.83487
749,113,33.134,5.13092,0.00204343,0.00394837,-0.00143568,0.0047188,0.001273,-1.07828,0.00281903,0.00888815,1973,911,33.134,-5.13094
756,113,33.08,5.4707,0.00373798,0.00575604,-0.00169687,0.00672122,0.0027728,-1.05363,0.00390023,0.0125525,1980,911,33.0799,-5.47069
763,113,32.9568,5.90314,0.00634889,0.00780936,-0.00184858,0.00906671,0.00509153,-0.973503,0.00524788,0.0276962,1987,911,32.9568,-5.90314
770,113,33.2174,6.14215,0.010275,0.0102094,-0.00196979,0.0122123,0.00827214,-0.777068,0.0071971,0.0476307,1994,911,33.2175,-6.14213
777,113,33.6567,6.29382,0,0,0,0,0,0,0,-1,2001,911,33.6568,-6.29382
784,113,33.8761,5.66614,0,0,0,0,0,0,0,-1,2008,911,33.8761,-5.66615
791,113,32.6714,8.77631,0,0,0,0,0,0,0,-1,2015,911,32.6714,-8.77632
798,113,33.2717,6.18109,0,0,0,0,0,0,0,-1,2022,911,33.2718,-6.18106
805,113,0,0,0,0,0,0,0,0,0,-1,2029,911,0,0
812,113,0,0,0,0,0,0,0,0,0,-1,2036,911,0,0
-700,106,0,0,0,0,0,0,0,0,0,-1,524,918,0,0
-693,106,0,0,0,0,0,0,0,0,0,-1,531,918,0,0
-686,106,0,0,0,0,0,0,0,0,0,-1,538,918,0,0
-679,106,-27.8925,5.90161,0,0,0,0,0,0,0,-1,545,918,-27.8925,-5.90161
-672,106,-27.6798,4.98029,0,0,0,0,0,0,0,-1,552,918,-27.6798,-4.98028
-665,106,-27.5339,4.00439,0,0,0,0,0,0,0,-1,559,918,-27.5339,-4.00438
-658,106,-24.5048,3.37366,0,0,0,0,0,0,0,-1,566,918,-24.5048,-3.37366
-651,106,-24.4568,3.32513,0.00944235,0.0395376,0.00502244,0.0403537,0.00862631,1.40972,0.0245378,0.0480808,573,918,-24.4569,-3.32514
-644,106,-24.2408,3.2616,0.00693802,0.0274671,0.00519079,0.028705,0.00570016,1.3367,0.017548,0.0418669,580,918,-24.2408,-3.26161
-637,106,-24.2242,3.21307,0.00464355,0.0180838,0.00504969,0.0197696,0.00295776,1.24859,0.0123128,0.0285782,587,918,-24.2242,-3.21308
-630,106,-24.3538,3.05792,0.00259865,0.0118445,0.00428347,0.0135239,0.000919241,1.19715,0.0087257,0.0134769,594,918,-24.3538,-3.0579
-623,106,-24.4128,2.7149,0.000641173,0.00670009,0.00377312,0.00850944,-0.00116817,1.12365,0.00609975,0.0126489,601,918,-24.4128,-2.71491
-616,106,-24.4309,2.41254,-0.000701062,0.00155907,0.00307707,0.00370703,-0.00284902,0.961379,0.00379593,0.0123464,608,918,-24.4309,-2.41253
-609,106,-24.4411,2.14844,-0.00216386,-0.000580771,0.00274196,0.00148161,-0.00422624,0.925917,0.00342006,0.0112472,615,918,-24.4411,-2.14846
-602,106,-24.4554,1.87555,-0.00371648,-0.000546513,0.00214994,0.000539532,-0.00480253,1.10304,0.00339585,0.0151411,622,918,-24.4554,-1.87553
-595,106,-24.5466,1.62354,-0.00474588,-0.000608564,0.00181632,7.56639e-05,-0.00543011,1.21053,0.00364555,0.0187846,629,918,-24.5467,-1.62354
-588,106,-24.5243,1.31689,-0.00509996,-0.000352176,0.00131569,-1.19568e-05,-0.00544018,1.31775,0.00362281,0.0216397,636,918,-24.5243,-1.31692
-581,106,-24.405,0.989014,-0.00512081,3.05625e-05,0.00100614,0.000220104,-0.00531035,1.38459,0.00361583,0.0153993,643,918,-24.405,-0.989017
-574,106,-24.3409,0.684021,0,0,0,0,0,0,0,-1,650,918,-24.3409,-0.68403
-567,106,-26.9382,0.464172,0,0,0,0,0,0,0,-1,657,918,-26.9382,-0.464177
-560,106,-26.8786,0.708069,-0.00417605,0.00112608,0.000257334,0.00113854,-0.00418851,1.52241,0.00323925,0.0439657,664,918,-26.8786,-0.708058
-553,106,-26.8793,0.919128,-0.00373825,0.00151552,0.000137957,0.00151914,-0.00374187,1.54456,0.0031265,0.0339309,671,918,-26.8793,-0.919119
-546,106,-26.8694,0.872986,-0.00313059,0.00206213,3.13013e-05,0.00206232,-0.00313078,1.56477,0.00301932,0.0383492,678,918,-26.8694,-0.872996
-539,106,-26.9127,0.736328,-0.00230125,0.00265755,-5.45441e-05,0.00265815,-0.00230185,-1.5598,0.00286612,0.0406001,685,918,-26.9127,-0.736354
-532,106,-26.9186,0.689575,-0.00133364,0.00321133,-0.000145171,0.00321596,-0.00133827,-1.5389,0.00270286,0.0393515,692,918,-26.9186,-0.689564
-525,106,-26.9172,0.895142,-0.000404423,0.00355125,-0.000392764,0.00358987,-0.000443044,-1.47278,0.00255377,0.0393349,699,918,-26.9172,-0.895171
-518,106,-26.8188,0.807068,-0.000584,0.00357695,-0.000691455,0.00368884,-0.000695896,-1.41036,0.00272102,0.0422799,706,918,-26.8188,-0.807056
-511,106,0,0,0,0,0,0,0,0,0,-1,713,918,0,0
-504,106,0,0,0,0,0,0,0,0,0,-1,720,918,0,0
-497,106,0,0,0,0,0,0,0,0,0,-1,727,918,0,0
-490,106,0,0,0,0,0,0,0,0,0,-1,734,918,0,0
-483,106,0,0,0,0,0,0,0,0,0,-1,741,918,0,0
-476,106,0,0,0,0,0,0,0,0,0,-1,748,918,0,0
-469,106,0,0,0,0,0,0,0,0,0,-1,755,918,0,0
-462,106,0,0,0,0,0,0,0,0,0,-1,762,918,0,0
-455,106,0,0,0,0,0,0,0,0,0,-1,769,918,0,0
-448,106,0,0,0,0,0,0,0,0,0,-1,776,918,0,0
-441,106,0,0,0,0,0,0,0,0,0,-1,783,918,0,0
-434,106,0,0,0,0,0,0,0,0,0,-1,790,918,0,0
-427,106,0,0,0,0,0,0,0,0,0,-1,797,918,0,0
-420,106,0,0,0,0,0,0,0,0,0,-1,804,918,0,0
-413,106,0,0,0,0,0,0,0,0,0,-1,811,918,0,0
-406,106,0,0,0,0,0,0,0,0,0,-1,818,918,0,0
-399,106,0,0,0,0,0,0,0,0,0,-1,825,918,0,0
-392,106,0,0,0,0,0,0,0,0,0,-1,832,918,0,0
-385,106,0,0,0,0,0,0,0,0,0,-1,839,918,0,0
-378,106,0,0,0,0,0,0,0,0,0,-1,846,918,0,0
-371,106,0,0,0,0,0,0,0,0,0,-1,853,918,0,0
-364,106,0,0,0,0,0,0,0,0,0,-1,860,918,0,0
-357,106,0,0,0,0,0,0,0,0,0,-1,867,918,0,0
-350,106,0,0,0,0,0,0,0,0,0,-1,874,918,0,0
-343,106,0,0,0,0,0,0,0,0,0,-1,881,918,0,0
-336,106,0,0,0,0,0,0,0,0,0,-1,888,918,0,0
-329,106,0,0,0,0,0,0,0,0,0,-1,895,918,0,0
-322,106,0,0,0,0,0,0,0,0,0,-1,902,918,0,0
-315,106,0,0,0,0,0,0,0,0,0,-1,909,918,0,0
-308,106,0,0,0,0,0,0,0,0,0,-1,916,918,0,0
-301,106,0,0,0,0,0,0,0,0,0,-1,923,918,0,0
-294,106,0,0,0,0,0,0,0,0,0,-1,930,918,0,0
-287,106,0,0,0,0,0,0,0,0,0,-1,937,918,0,0
-280,106,0,0,0,0,0,0,0,0,0,-1,944,918,0,0
-273,106,0,0,0,0,0,0,0,0,0,-1,951,918,0,0
-266,106,0,0,0,0,0,0,0,0,0,-1,958,918,0,0
-259,106,0,0,0,0,0,0,0,0,0,-1,965,918,0,0
-252,106,0,0,0,0,0,0,0,0,0,-1,972,918,0,0
-245,106,0,0,0,0,0,0,0,0,0,-1,979,918,0,0
-238,106,0,0,0,0,0,0,0,0,0,-1,986,918,0,0
-231,106,0,0,0,0,0,0,0,0,0,-1,993,918,0,0
-224,106,0,0,0,0,0,0,0,0,0,-1,1000,918,0,0
-217,106,0,0,0,0,0,0,0,0,0,-1,1007,918,0,0
-210,106,0,0,0,0,0,0,0,0,0,-1,1014,918,0,0
-203,106,0,0,0,0,0,0,0,0,0,-1,1021,918,0,0
-196,106,0,0,0,0,0,0,0,0,0,-1,1028,918,0,0
-189,106,0,0,0,0,0,0,0,0,0,-1,1035,918,0,0
-182,106,0,0,0,0,0,0,0,0,0,-1,1042,918,0,0
-175,106,0,0,0,0,0,0,0,0,0,-1,1049,918,0,0
-168,106,0,0,0,0,0,0,0,0,0,-1,1056,918,0,0
-161,106,0,0,0,0,0,0,0,0,0,-1,1063,918,0,0
-154,106,0,0,0,0,0,0,0,0,0,-1,1070,918,0,0
-147,106,0,0,0,0,0,0,0,0,0,-1,1077,918,0,0
-140,106,0,0,0,0,0,0,0,0,0,-1,1084,918,0,0
-133,106,0,0,0,0,0,0,0,0,0,-1,1091,918,0,0
-126,106,0,0,0,0,0,0,0,0,0,-1,1098,918,0,0
-119,106,0,0,0,0,0,0,0,0,0,-1,1105,918,0,0
-112,106,0,0,0,0,0,0,0,0,0,-1,1112,918,0,0
-105,106,0,0,0,0,0,0,0,0,0,-1,1119,918,0,0
-98,106,0,0,0,0,0,0,0,0,0,-1,1126,918,0,0
-91,106,0,0,0,0,0,0,0,0,0,-1,1133,918,0,0
-84,106,0,0,0,0,0,0,0,0,0,-1,1140,918,0,0
-77,106,0,0,0,0,0,0,0,0,0,-1,1147,918,0,0
-70,106,0,0,0,0,0,0,0,0,0,-1,1154,918,0,0
-63,106,0,0,0,0,0,0,0,0,0,-1,1161,918,0,0
-56,106,0,0,0,0,0,0,0,0,0,-1,1168,918,0,0
-49,106,0,0,0,0,0,0,0,0,0,-1,1175,918,0,0
-42,106,0,0,0,0,0,0,0,0,0,-1,1182,918,0,0
-35,106,0,0,0,0,0,0,0,0,0,-1,1189,918,0,0
-28,106,0,0,0,0,0,0,0,0,0,-1,1196,918,0,0
-21,106,0,0,0,0,0,0,0,0,0,-1,1203,918,0,0
-14,106,0,0,0,0,0,0,0,0,0,-1,1210,918,0,0
-7,106,0,0,0,0,0,0,0,0,0,-1,1217,918,0,0
0,106,0,0,0,0,0,0,0,0,0,-1,1224,918,0,0
7,106,0,0,0,0,0,0,0,0,0,-1,1231,918,0,0
14,106,0,0,0,0,0,0,0,0,0,-1,1238,918,0,0
21,106,0,0,0,0,0,0,0,0,0,-1,1245,918,0,0
28,106,0,0,0,0,0,0,0,0,0,-1,1252,918,0,0
35,106,0,0,0,0,0,0,0,0,0,-1,1259,918,0,0
42,106,0,0,0,0,0,0,0,0,0,-1,1266,918,0,0
49,106,0,0,0,0,0,0,0,0,0,-1,1273,918,0,0
56,106,0,0,0,0,0,0,0,0,0,-1,1280,918,0,0
63,106,0,0,0,0,0,0,0,0,0,-1,1287,918,0,0
70,106,0,0,0,0,0,0,0,0,0,-1,1294,918,0,0
77,106,0,0,0,0,0,0,0,0,0,-1,1301,918,0,0
84,106,0,0,0,0,0,0,0,0,0,-1,1308,918,0,0
91,106,0,0,0,0,0,0,0,0,0,-1,1315,918,0,0
98,106,0,0,0,0,0,0,0,0,0,-1,1322,918,0,0
105,106,0,0,0,0,0,0,0,0,0,-1,1329,918,0,0
112,106,0,0,0,0,0,0,0,0,0,-1,1336,918,0,0
119,106,0,0,0,0,0,0,0,0,0,-1,1343,918,0,0
126,106,0,0,0,0,0,0,0,0,0,-1,1350,918,0,0
133,106,0,0,0,0,0,0,0,0,0,-1,1357,918,0,0
140,106,0,0,0,0,0,0,0,0,0,-1,1364,918,0,0
147,106,0,0,0,0,0,0,0,0,0,-1,1371,918,0,0
154,106,0,0,0,0,0,0,0,0,0,-1,1378,918,0,0
161,106,0,0,0,0,0,0,0,0,0,-1,1385,918,0,0
168,106,0,0,0,0,0,0,0,0,0,-1,1392,918,0,0
175,106,0,0,0,0,0,0,0,0,0,-1,1399,918,0,0
182,106,0,0,0,0,0,0,0,0,0,-1,1406,918,0,0
189,106,0,0,0,0,0,0,0,0,0,-1,1413,918,0,0
196,106,0,0,0,0,0,0,0,0,0,-1,1420,918,0,0
203,106,0,0,0,0,0,0,0,0,0,-1,1427,918,0,0
210,106,0,0,0,0,0,0,0,0,0,-1,1434,918,0,0
217,106,0,0,0,0,0,0,0,0,0,-1,1441,918,0,0
224,106,0,0,0,0,0,0,0,0,0,-1,1448,918,0,0
231,106,0,0,0,0,0,0,0,0,0,-1,1455,918,0,0
238,106,0,0,0,0,0,0,0,0,0,-1,1462,918,0,0
245,106,0,0,0,0,0,0,0,0,0,-1,1469,918,0,0
252,106,0,0,0,0,0,0,0,0,0,-1,1476,918,0,0
259,106,0,0,0,0,0,0,0,0,0,-1,1483,918,0,0
266,106,0,0,0,0,0,0,0,0,0,-1,1490,918,0,0
273,106,0,0,0,0,0,0,0,0,0,-1,1497,918,0,0
280,106,0,0,0,0,0,0,0,0,0,-1,1504,918,0,0
287,106,0,0,0,0,0,0,0,0,0,-1,1511,918,0,0
294,106,0,0,0,0,0,0,0,0,0,-1,1518,918,0,0
301,106,0,0,0,0,0,0,0,0,0,-1,1525,918,0,0
308,106,0,0,0,0,0,0,0,0,0,-1,1532,918,0,0
315,106,0,0,0,0,0,0,0,0,0,-1,1539,918,0,0
322,106,0,0,0,0,0,0,0,0,0,-1,1546,918,0,0
329,106,0,0,0,0,0,0,0,0,0,-1,1553,918,0,0
336,106,0,0,0,0,0,0,0,0,0,-1,1560,918,0,0
343,106,0,0,0,0,0,0,0,0,0,-1,1567,918,0,0
350,106,0,0,0,0,0,0,0,0,0,-1,1574,918,0,0
357,106,0,0,0,0,0,0,0,0,0,-1,1581,918,0,0
364,106,0,0,0,0,0,0,0,0,0,-1,1588,918,0,0
371,106,0,0,0,0,0,0,0,0,0,-1,1595,918,0,0
378,106,0,0,0,0,0,0,0,0,0,-1,1602,918,0,0
385,106,0,0,0,0,0,0,0,0,0,-1,1609,918,0,0
392,106,0,0,0,0,0,0,0,0,0,-1,1616,918,0,0
399,106,0,0,0,0,0,0,0,0,0,-1,1623,918,0,0
406,106,0,0,0,0,0,0,0,0,0,-1,1630,918,0,0
413,106,0,0,0,0,0,0,0,0,0,-1,1637,918,0,0
420,106,0,0,0,0,0,0,0,0,0,-1,1644,918,0,0
427,106,0,0,0,0,0,0,0,0,0,-1,1651,918,0,0
434,106,0,0,0,0,0,0,0,0,0,-1,1658,918,0,0
441,106,0,0,0,0,0,0,0,0,0,-1,1665,918,0,0
448,106,0,0,0,0,0,0,0,0,0,-1,1672,918,0,0
455,106,0,0,0,0,0,0,0,0,0,-1,1679,918,0,0
462,106,0,0,0,0,0,0,0,0,0,-1,1686,918,0,0
469,106,0,0,0,0,0,0,0,0,0,-1,1693,918,0,0
476,106,0,0,0,0,0,0,0,0,0,-1,1700,918,0,0
483,106,0,0,0,0,0,0,0,0,0,-1,1707,918,0,0
490,106,0,0,0,0,0,0,0,0,0,-1,1714,918,0,0
497,106,0,0,0,0,0,0,0,0,0,-1,1721,918,0,0
504,106,0,0,0,0,0,0,0,0,0,-1,1728,918,0,0
511,106,0,0,0,0,0,0,0,0,0,-1,1735,918,0,0
518,106,0,0,0,0,0,0,0,0,0,-1,1742,918,0,0
525,106,0,0,0,0,0,0,0,0,0,-1,1749,918,0,0
532,106,0,0,0,0,0,0,0,0,0,-1,1756,918,0,0
539,106,0,0,0,0,0,0,0,0,0,-1,1763,918,0,0
546,106,0,0,0,0,0,0,0,0,0,-1,1770,918,0,0
553,106,0,0,0,0,0,0,0,0,0,-1,1777,918,0,0
560,106,0,0,0,0,0,0,0,0,0,-1,1784,918,0,0
567,106,0,0,0,0,0,0,0,0,0,-1,1791,918,0,0
574,106,0,0,0,0,0,0,0,0,0,-1,1798,918,0,0
581,106,0,0,0,0,0,0,0,0,0,-1,1805,918,0,0
588,106,0,0,0,0,0,0,0,0,0,-1,1812,918,0,0
595,106,0,0,0,0,0,0,0,0,0,-1,1819,918,0,0
602,106,0,0,0,0,0,0,0,0,0,-1,1826,918,0,0
609,106,0,0,0,0,0,0,0,0,0,-1,1833,918,0,0
616,106,0,0,0,0,0,0,0,0,0,-1,1840,918,0,0
623,106,0,0,0,0,0,0,0,0,0,-1,1847,918,0,0
630,106,36.838,2.55957,-8.85901e-05,0.000965216,0.00440763,0.00487732,-0.0040007,0.844888,0.00513405,0.038445,1854,918,36.838,-2.55959
637,106,36.9468,2.69562,-0.000217451,0.000815302,0.00294119,0.0032851,-0.00268725,0.872296,0.00345389,0.0386171,1861,918,36.9468,-2.69561
644,106,36.9807,2.62903,-0.000377623,0.000611346,0.00183049,0.00201296,-0.00177924,0.917318,0.00219081,0.0372467,1868,918,36.9807,-2.62905
651,106,36.9757,2.54309,-0.000387574,0.0004217,0.000984659,0.00108162,-0.0010475,0.98035,0.0012293,0.0403466,1875,918,36.9757,-2.54308
658,106,37.0129,2.50317,-0.000354791,0.000331831,0.000414886,0.00052703,-0.00054999,1.13104,0.000621865,0.0412942,1882,918,37.0129,-2.5032
665,106,36.9631,2.49982,-0.000203557,0.000254463,5.30021e-05,0.000260517,-0.00020961,1.45708,0.000271958,0.0392666,1889,918,36.9631,-2.4998
672,106,37.0337,2.5271,-0.000127856,0.000120811,-5.20783e-05,0.000131278,-0.000138322,-1.37247,0.000155671,0.0397139,1896,918,37.0337,-2.52707
679,106,36.9578,2.58636,-9.09255e-05,-5.60247e-05,-9.48523e-05,2.29691e-05,-0.000169919,-0.876368,0.000121661,0.0346041,1903,918,36.9578,-2.58636
686,106,36.829,2.54858,-6.01559e-05,-0.000152463,-0.000161863,6.20053e-05,-0.000274624,-0.646514,0.000206872,0.0305521,1910,918,36.829,-2.54861
693,106,36.8876,2.41437,-8.08333e-05,-0.000238124,-0.000175618,3.29445e-05,-0.000351901,-0.574878,0.000246318,0.029675,1917,918,36.8876,-2.41434
700,106,36.9894,2.15009,0,0,0,0,0,0,0,-1,1924,918,36.9894,-2.15008
707,106,33.3851,3.13129,0,0,0,0,0,0,0,-1,1931,918,33.3852,-3.13131
714,106,33.4905,3.45612,-0.000269239,0.000109683,-0.000391811,0.000355436,-0.000514992,-1.0106,0.000505349,0.0262525,1938,918,33.4905,-3.45614
721,106,33.5192,3.82111,-0.000348218,0.000362403,-0.000373964,0.000522936,-0.000508751,-1.16531,0.000595664,0.0228788,1945,918,33.5192,-3.82112
728,106,33.5699,4.21136,-0.000251812,0.000765745,-0.000502002,0.000971712,-0.000457779,-1.18145,0.000842909,0.021507,1952,918,33.5699,-4.21135
735,106,33.5178,4.53033,0.000248457,0.00148525,-0.000703736,0.00180369,-6.99806e-05,-1.14587,0.00122645,0.0186418,1959,918,33.5179,-4.53032
742,106,33.4639,4.82208,0.00098133,0.00256145,-0.000937835,0.00299766,0.000545123,-1.13544,0.00184379,0.0115483,1966,918,33.4639,-4.8221
749,106,33.4603,5.1217,0.0021848,0.00403426,-0.00120883,0.0046315,0.00158755,-1.11191,0.00271771,0.00937473,1973,918,33.4603,-5.1217
756,106,33.4214,5.42603,0.00413037,0.00591281,-0.00140984,0.0066895,0.00335369,-1.06726,0.00386219,0.0118279,1980,918,33.4214,-5.42602
763,106,33.3561,5.83453,0.00692926,0.00807942,-0.00144752,0.00906191,0.00594677,-0.974479,0.00531636,0.0229578,1987,918,33.356,-5.83452
770,106,33.426,6.12329,0.0109126,0.0105085,-0.00141198,0.0121369,0.00928418,-0.714317,0.00732786,0.0443011,1994,918,33.426,-6.12327
777,106,33.6135,6.35431,0,0,0,0,0,0,0,-1,2001,918,33.6136,-6.35428
784,106,33.2528,6.64008,0,0,0,0,0,0,0,-1,2008,918,33.2528,-6.64006
791,106,33.6536,7.92932,0,0,0,0,0,0,0,-1,2015,918,33.6537,-7.9293
798,106,34.0923,7.67114,0,0,0,0,0,0,0,-1,2022,918,34.0922,-7.67112
805,106,0,0,0,0,0,0,0,0,0,-1,2029,918,0,0
812,106,0,0,0,0,0,0,0,0,0,-1,2036,918,0,0
-700,99,0,0,0,0,0,0,0,0,0,-1,524,925,0,0
-693,99,0,0,0,0,0,0,0,0,0,-1,531,925,0,0
-686,99,0,0,0,0,0,0,0,0,0,-1,538,925,0,0
-679,99,-22.8889,7.435,0,0,0,0,0,0,0,-1,545,925,-22.8889,-7.43499
-672,99,-23.149,6.93335,0,0,0,0,0,0,0,-1,552,925,-23.1491,-6.93337
-665,99,-23.4861,6.14172,0,0,0,0,0,0,0,-1,559,925,-23.4861,-6.14173
-658,99,-28.3497,0.0940552,0,0,0,0,0,0,0,-1,566,925,-28.3497,-0.0940847
-651,99,-24.2065,3.21857,0,0,0,0,0,0,0,-1,573,925,-24.2065,-3.21856
-644,99,-24.4901,3.48822,0.00786353,0.0284782,0.00788772,0.03115,0.00519176,1.2442,0.0192706,0.0479333,580,925,-24.4901,-3.4882
-637,99,-24.5287,3.27551,0.00536122,0.0194508,0.00675209,0.0221641,0.00264794,1.1887,0.0139772,0.0302235,587,925,-24.5287,-3.27552
-630,99,-24.6473,3.0213,0.0028388,0.0135633,0.00529742,0.0157387,0.000663389,1.18114,0.0102785,0.0144183,594,925,-24.6474,-3.02128
-623,99,-24.749,2.70428,0.000518049,0.00833048,0.0042058,0.0101642,-0.00131571,1.15964,0.00725461,0.00924186,601,925,-24.749,-2.70428
-616,99,-24.7645,2.41431,-0.000993807,0.00254431,0.00310943,0.0043527,-0.00280219,1.04403,0.00416308,0.0106129,608,925,-24.7645,-2.41429
-609,99,-24.7604,2.16541,-0.00261004,5.87214e-05,0.00256003,0.00161126,-0.00416258,1.02564,0.0034403,0.0108913,615,925,-24.7604,-2.16538
-602,99,-24.7599,1.92389,-0.0043527,-0.000106296,0.00191294,0.000628354,-0.00508735,1.20412,0.00361924,0.0131454,622,925,-24.76,-1.92387
-595,99,-24.8464,1.67139,-0.00552598,-0.000323951,0.00157763,0.000117103,-0.00596704,1.29819,0.00401763,0.0176207,629,925,-24.8464,-1.67141
-588,99,-24.8235,1.37512,-0.00600057,-0.00018085,0.0011235,2.85122e-05,-0.00620993,1.38656,0.00414949,0.017962,636,925,-24.8235,-1.37514
-581,99,-24.6951,1.03174,-0.00611041,0.000159344,0.00086138,0.000275533,-0.0062266,1.43672,0.00424589,0.0127693,643,925,-24.6951,-1.03175
-574,99,-24.9785,0.746521,-0.00592342,0.000529592,0.000679333,0.000600333,-0.00599416,1.46704,0.00421051,0.0294195,650,925,-24.9785,-0.746495
-567,99,-25.7552,0.518494,0,0,0,0,0,0,0,-1,657,925,-25.7552,-0.518496
-560,99,-26.8414,0.703979,-0.00518894,0.0012387,0.000354954,0.00125824,-0.00520848,1.5158,0.00395895,0.0376623,664,925,-26.8415,-0.703956
-553,99,-26.8532,0.877014,-0.00461372,0.00170006,0.000324244,0.00171666,-0.00463033,1.51962,0.00379096,0.0367265,671,925,-26.8532,-0.877008
-546,99,-26.8361,0.880676,-0.00377111,0.00231364,0.000309629,0.00232936,-0.00378683,1.52008,0.00356444,0.039951,678,925,-26.8361,-0.880672
-539,99,-26.7787,0.794067,-0.00262304,0.0029913,0.000321035,0.0030096,-0.00264133,1.51386,0.00326488,0.0404943,685,925,-26.7787,-0.794041
-532,99,-26.9094,0.787415,-0.00123661,0.00364656,0.000315138,0.00366681,-0.00125686,1.50662,0.00295401,0.0419649,692,925,-26.9093,-0.7874
-525,99,-26.9954,0.767517,-9.32757e-06,0.00414663,9.531e-05,0.00414881,-1.15123e-05,1.54788,0.00276972,0.0413202,699,925,-26.9954,-0.767512
-518,99,-26.9758,0.648865,-0.00048172,0.00445805,-0.000110433,0.00446051,-0.000484188,-1.54846,0.00314751,0.0437095,706,925,-26.9758,-0.648878
-511,99,0,0,0,0,0,0,0,0,0,-1,713,925,0,0
-504,99,0,0,0,0,0,0,0,0,0,-1,720,925,0,0
-497,99,0,0,0,0,0,0,0,0,0,-1,727,925,0,0
-490,99,0,0,0,0,0,0,0,0,0,-1,734,925,0,0
-483,99,0,0,0,0,0,0,0,0,0,-1,741,925,0,0
-476,99,0,0,0,0,0,0,0,0,0,-1,748,925,0,0
-469,99,0,0,0,0,0,0,0,0,0,-1,755,925,0,0
-462,99,0,0,0,0,0,0,0,0,0,-1,762,925,0,0
-455,99,0,0,0,0,0,0,0,0,0,-1,769,925,0,0
-448,99,0,0,0,0,0,0,0,0,0,-1,776,925,0,0
-441,99,0,0,0,0,0,0,0,0,0,-1,783,925,0,0
-434,99,0,0,0,0,0,0,0,0,0,-1,790,925,0,0
-427,99,0,0,0,0,0,0,0,0,0,-1,797,925,0,0
-420,99,0,0,0,0,0,0,0,0,0,-1,804,925,0,0
-413,99,0,0,0,0,0,0,0,0,0,-1,811,925,0,0
-406,99,0,0,0,0,0,0,0,0,0,-1,818,925,0,0
-399,99,0,0,0,0,0,0,0,0,0,-1,825,925,0,0
-392,99,0,0,0,0,0,0,0,0,0,-1,832,925,0,0
-385,99,0,0,0,0,0,0,0,0,0,-1,839,925,0,0
-378,99,0,0,0,0,0,0,0,0,0,-1,846,925,0,0
-371,99,0,0,0,0,0,0,0,0,0,-1,853,925,0,0
-364,99,0,0,0,0,0,0,0,0,0,-1,860,925,0,0
-357,99,0,0,0,0,0,0,0,0,0,-1,867,925,0,0
-350,99,0,0,0,0,0,0,0,0,0,-1,874,925,0,0
-343,99,0,0,0,0,0,0,0,0,0,-1,881,925,0,0
-336,99,0,0,0,0,0,0,0,0,0,-1,888,925,0,0
-329,99,0,0,0,0,0,0,0,0,0,-1,895,925,0,0
-322,99,0,0,0,0,0,0,0,0,0,-1,902,925,0,0
-315,99,0,0,0,0,0,0,0,0,0,-1,909,925,0,0
-308,99,0,0,0,0,0,0,0,0,0,-1,916,925,0,0
-301,99,0,0,0,0,0,0,0,0,0,-1,923,925,0,0
-294,99,0,0,0,0,0,0,0,0,0,-1,930,925,0,0
-287,99,0,0,0,0,0,0,0,0,0,-1,937,925,0,0
-280,99,0,0,0,0,0,0,0,0,0,-1,944,925,0,0
-273,99,0,0,0,0,0,0,0,0,0,-1,951,925,0,0
-266,99,0,0,0,0,0,0,0,0,0,-1,958,925,0,0
-259,99,0,0,0,0,0,0,0,0,0,-1,965,925,0,0
-252,99,0,0,0,0,0,0,0,0,0,-1,972,925,0,0
-245,99,0,0,0,0,0,0,0,0,0,-1,979,925,0,0
-238,99,0,0,0,0,0,0,0,0,0,-1,986,925,0,0
-231,99,0,0,0,0,0,0,0,0,0,-1,993,925,0,0
-224,99,0,0,0,0,0,0,0,0,0,-1,1000,925,0,0
-217,99,0,0,0,0,0,0,0,0,0,-1,1007,925,0,0
-210,99,0,0,0,0,0,0,0,0,0,-1,1014,925,0,0
-203,99,0,0,0,0,0,0,0,0,0,-1,1021,925,0,0
-196,99,0,0,0,0,0,0,0,0,0,-1,1028,925,0,0
-189,99,0,0,0,0,0,0,0,0,0,-1,1035,925,0,0
-182,99,0,0,0,0,0,0,0,0,0,-1,1042,925,0,0
-175,99,0,0,0,0,0,0,0,0,0,-1,1049,925,0,0
-168,99,0,0,0,0,0,0,0,0,0,-1,1056,925,0,0
-161,99,0,0,0,0,0,0,0,0,0,-1,1063,925,0,0
-154,99,0,0,0,0,0,0,0,0,0,-1,1070,925,0,0
-147,99,0,0,0,0,0,0,0,0,0,-1,1077,925,0,0
-140,99,0,0,0,0,0,0,0,0,0,-1,1084,925,0,0
-133,99,0,0,0,0,0,0,0,0,0,-1,1091,925,0,0
-126,99,0,0,0,0,0,0,0,0,0,-1,1098,925,0,0
-119,99,0,0,0,0,0,0,0,0,0,-1,1105,925,0,0
-112,99,0,0,0,0,0,0,0,0,0,-1,1112,925,0,0
-105,99,0,0,0,0,0,0,0,0,0,-1,1119,925,0,0
-98,99,0,0,0,0,0,0,0,0,0,-1,1126,925,0,0
-91,99,0,0,0,0,0,0,0,0,0,-1,1133,925,0,0
-84,99,0,0,0,0,0,0,0,0,0,-1,1140,925,0,0
-77,99,0,0,0,0,0,0,0,0,0,-1,1147,925,0,0
-70,99,0,0,0,0,0,0,0,0,0,-1,1154,925,0,0
-63,99,0,0,0,0,0,0,0,0,0,-1,1161,925,0,0
-56,99,0,0,0,0,0,0,0,0,0,-1,1168,925,0,0
-49,99,0,0,0,0,0,0,0,0,0,-1,1175,925,0,0
-42,99,0,0,0,0,0,0,0,0,0,-1,1182,925,0,0
-35,99,0,0,0,0,0,0,0,0,0,-1,1189,925,0,0
-28,99,0,0,0,0,0,0,0,0,0,-1,1196,925,0,0
-21,99,0,0,0,0,0,0,0,0,0,-1,1203,925,0,0
-14,99,0,0,0,0,0,0,0,0,0,-1,1210,925,0,0
-7,99,0,0,0,0,0,0,0,0,0,-1,1217,925,0,0
0,99,0,0,0,0,0,0,0,0,0,-1,1224,925,0,0
7,99,0,0,0,0,0,0,0,0,0,-1,1231,925,0,0
14,99,0,0,0,0,0,0,0,0,0,-1,1238,925,0,0
21,99,0,0,0,0,0,0,0,0,0,-1,1245,925,0,0
28,99,0,0,0,0,0,0,0,0,0,-1,1252,925,0,0
35,99,0,0,0,0,0,0,0,0,0,-1,1259,925,0,0
42,99,0,0,0,0,0,0,0,0,0,-1,1266,925,0,0
49,99,0,0,0,0,0,0,0,0,0,-1,1273,925,0,0
56,99,0,0,0,0,0,0,0,0,0,-1,1280,925,0,0
63,99,0,0,0,0,0,0,0,0,0,-1,1287,925,0,0
70,99,0,0,0,0,0,0,0,0,0,-1,1294,925,0,0
77,99,0,0,0,0,0,0,0,0,0,-1,1301,925,0,0
84,99,0,0,0,0,0,0,0,0,0,-1,1308,925,0,0
91,99,0,0,0,0,0,0,0,0,0,-1,1315,925,0,0
98,99,0,0,0,0,0,0,0,0,0,-1,1322,925,0,0
105,99,0,0,0,0,0,0,0,0,0,-1,1329,925,0,0
112,99,0,0,0,0,0,0,0,0,0,-1,1336,925,0,0
119,99,0,0,0,0,0,0,0,0,0,-1,1343,925,0,0
126,99,0,0,0,0,0,0,0,0,0,-1,1350,925,0,0
133,99,0,0,0,0,0,0,0,0,0,-1,1357,925,0,0
140,99,0,0,0,0,0,0,0,0,0,-1,1364,925,0,0
147,99,0,0,0,0,0,0,0,0,0,-1,1371,925,0,0
154,99,0,0,0,0,0,0,0,0,0,-1,1378,925,0,0
161,99,0,0,0,0,0,0,0,0,0,-1,1385,925,0,0
168,99,0,0,0,0,0,0,0,0,0,-1,1392,925,0,0
175,99,0,0,0,0,0,0,0,0,0,-1,1399,925,0,0
182,99,0,0,0,0,0,0,0,0,0,-1,1406,925,0,0
189,99,0,0,0,0,0,0,0,0,0,-1,1413,925,0,0
196,99,0,0,0,0,0,0,0,0,0,-1,1420,925,0,0
203,99,0,0,0,0,0,0,0,0,0,-1,1427,925,0,0
210,99,0,0,0,0,0,0,0,0,0,-1,1434,925,0,0
217,99,0,0,0,0,0,0,0,0,0,-1,1441,925,0,0
224,99,0,0,0,0,0,0,0,0,0,-1,1448,925,0,0
231,99,0,0,0,0,0,0,0,0,0,-1,1455,925,0,0
238,99,0,0,0,0,0,0,0,0,0,-1,1462,925,0,0
245,99,0,0,0,0,0,0,0,0,0,-1,1469,925,0,0
252,99,0,0,0,0,0,0,0,0,0,-1,1476,925,0,0
259,99,0,0,0,0,0,0,0,0,0,-1,1483,925,0,0
266,99,0,0,0,0,0,0,0,0,0,-1,1490,925,0,0
273,99,0,0,0,0,0,0,0,0,0,-1,1497,925,0,0
280,99,0,0,0,0,0,0,0,0,0,-1,1504,925,0,0
287,99,0,0,0,0,0,0,0,0,0,-1,1511,925,0,0
294,99,0,0,0,0,0,0,0,0,0,-1,1518,925,0,0
301,99,0,0,0,0,0,0,0,0,0,-1,1525,925,0,0
308,99,0,0,0,0,0,0,0,0,0,-1,1532,925,0,0
315,99,0,0,0,0,0,0,0,0,0,-1,1539,925,0,0
322,99,0,0,0,0,0,0,0,0,0,-1,1546,925,0,0
329,99,0,0,0,0,0,0,0,0,0,-1,1553,925,0,0
336,99,0,0,0,0,0,0,0,0,0,-1,1560,925,0,0
343,99,0,0,0,0,0,0,0,0,0,-1,1567,925,0,0
350,99,0,0,0,0,0,0,0,0,0,-1,1574,925,0,0
357,99,0,0,0,0,0,0,0,0,0,-1,1581,925,0,0
364,99,0,0,0,0,0,0,0,0,0,-1,1588,925,0,0
371,99,0,0,0,0,0,0,0,0,0,-1,1595,925,0,0
378,99,0,0,0,0,0,0,0,0,0,-1,1602,925,0,0
385,99,0,0,0,0,0,0,0,0,0,-1,1609,925,0,0
392,99,0,0,0,0,0,0,0,0,0,-1,1616,925,0,0
399,99,0,0,0,0,0,0,0,0,0,-1,1623,925,0,0
406,99,0,0,0,0,0,0,0,0,0,-1,1630,925,0,0
413,99,0,0,0,0,0,0,0,0,0,-1,1637,925,0,0
420,99,0,0,0,0,0,0,0,0,0,-1,1644,925,0,0
427,99,0,0,0,0,0,0,0,0,0,-1,1651,925,0,0
434,99,0,0,0,0,0,0,0,0,0,-1,1658,925,0,0
441,99,0,0,0,0,0,0,0,0,0,-1,1665,925,0,0
448,99,0,0,0,0,0,0,0,0,0,-1,1672,925,0,0
455,99,0,0,0,0,0,0,0,0,0,-1,1679,925,0,0
462,99,0,0,0,0,0,0,0,0,0,-1,1686,925,0,0
469,99,0,0,0,0,0,0,0,0,0,-1,1693,925,0,0
476,99,0,0,0,0,0,0,0,0,0,-1,1700,925,0,0
483,99,0,0,0,0,0,0,0,0,0,-1,1707,925,0,0
490,99,0,0,0,0,0,0,0,0,0,-1,1714,925,0,0
497,99,0,0,0,0,0,0,0,0,0,-1,1721,925,0,0
504,99,0,0,0,0,0,0,0,0,0,-1,1728,925,0,0
511,99,0,0,0,0,0,0,0,0,0,-1,1735,925,0,0
518,99,0,0,0,0,0,0,0,0,0,-1,1742,925,0,0
525,99,0,0,0,0,0,0,0,0,0,-1,1749,925,0,0
532,99,0,0,0,0,0,0,0,0,0,-1,1756,925,0,0
539,99,0,0,0,0,0,0,0,0,0,-1,1763,925,0,0
546,99,0,0,0,0,0,0,0,0,0,-1,1770,925,0,0
553,99,0,0,0,0,0,0,0,0,0,-1,1777,925,0,0
560,99,0,0,0,0,0,0,0,0,0,-1,1784,925,0,0
567,99,0,0,0,0,0,0,0,0,0,-1,1791,925,0,0
574,99,0,0,0,0,0,0,0,0,0,-1,1798,925,0,0
581,99,0,0,0,0,0,0,0,0,0,-1,1805,925,0,0
588,99,0,0,0,0,0,0,0,0,0,-1,1812,925,0,0
595,99,0,0,0,0,0,0,0,0,0,-1,1819,925,0,0
602,99,0,0,0,0,0,0,0,0,0,-1,1826,925,0,0
609,99,0,0,0,0,0,0,0,0,0,-1,1833,925,0,0
616,99,0,0,0,0,0,0,0,0,0,-1,1840,925,0,0
623,99,0,0,0,0,0,0,0,0,0,-1,1847,925,0,0
630,99,0,0,0,0,0,0,0,0,0,-1,1854,925,0,0
637,99,37.0491,2.57428,-0.000777766,0.00121979,0.00329629,0.00366529,-0.00322327,0.932502,0.00397984,0.0433995,1861,925,37.049,-2.57425
644,99,36.9861,2.45734,-0.00071018,0.00104435,0.0021247,0.00246577,-0.0021316,0.981182,0.00265663,0.0406158,1868,925,36.9861,-2.45731
651,99,36.833,2.53119,-0.000570515,0.00084798,0.00123235,0.00156061,-0.00128314,1.04651,0.00164444,0.0405438,1875,925,36.833,-2.53116
658,99,37.0367,2.44476,-0.00047992,0.000762217,0.000629196,0.00102524,-0.000742941,1.17485,0.00102519,0.0403874,1882,925,37.0368,-2.44477
665,99,37.0197,2.44342,-0.000323137,0.000689055,0.000249976,0.000747424,-0.000381506,1.34141,0.000663103,0.0426802,1889,925,37.0196,-2.4434
672,99,37.0117,2.53058,-0.000297949,0.000532417,0.000142367,0.000556148,-0.00032168,1.40563,0.000512805,0.0439562,1896,925,37.0117,-2.53055
679,99,36.9442,2.60327,-0.000306293,0.000319553,0.00012443,0.000343385,-0.000330125,1.38156,0.000388876,0.0374182,1903,925,36.9442,-2.60326
686,99,36.8309,2.5199,-0.000295335,0.000165675,7.03863e-05,0.000176182,-0.000305842,1.42261,0.000281633,0.0290367,1910,925,36.8309,-2.51987
693,99,36.8339,2.53033,-0.000318979,2.93094e-05,4.85453e-05,3.59492e-05,-0.000325619,1.43486,0.000230001,0.0278498,1917,925,36.8338,-2.53034
700,99,36.8826,2.4787,0,0,0,0,0,0,0,-1,1924,925,36.8825,-2.47873
707,99,33.9191,3.16962,0,0,0,0,0,0,0,-1,1931,925,33.9191,-3.16963
714,99,33.9253,3.51947,-0.000594266,0.000290584,-0.000205009,0.000335774,-0.000639456,-1.35384,0.000572077,0.029434,1938,925,33.9254,-3.51949
721,99,33.8057,3.80481,-0.000691488,0.000535142,-0.000186679,0.000562923,-0.00071927,-1.42306,0.000742107,0.025518,1945,925,33.8056,-3.80479
728,99,33.8768,4.15723,-0.000558269,0.000914825,-0.000340345,0.000989658,-0.000633101,-1.35437,0.000944409,0.0202044,1952,925,33.8769,-4.15721
735,99,33.8744,4.4989,4.65162e-07,0.00161215,-0.000553808,0.0017841,-0.000171489,-1.26974,0.00125049,0.0172143,1959,925,33.8744,-4.49889
742,99,33.8204,4.81885,0.000810006,0.00272453,-0.000771224,0.00299655,0.000537986,-1.23171,0.00184471,0.0125604,1966,925,33.8204,-4.81887
749,99,33.7797,5.12366,0.00218349,0.00428898,-0.000966808,0.00466557,0.0018069,-1.19936,0.00271639,0.01115,1973,925,33.7796,-5.12364
756,99,33.7537,5.38702,0.00434016,0.00632628,-0.00107428,0.00679618,0.00387026,-1.15846,0.00393638,0.0120219,1980,925,33.7537,-5.38704
763,99,33.7394,5.67084,0.00738967,0.00877766,-0.000955842,0.00926488,0.00690245,-1.0994,0.00555903,0.0150641,1987,925,33.7394,-5.67084
770,99,33.7395,6.03754,0.0115877,0.0115395,-0.000686432,0.0122504,0.0108767,-0.767826,0.00774975,0.0290308,1994,925,33.7396,-6.03752
777,99,33.8145,6.38531,0.0174465,0.0148056,9.76576e-05,0.0174501,0.014802,0.0369114,0.0108589,0.0430092,2001,925,33.8144,-6.38528
784,99,34.2955,6.74841,0,0,0,0,0,0,0,-1,2008,925,34.2955,-6.74844
791,99,34.803,6.85486,0,0,0,0,0,0,0,-1,2015,925,34.803,-6.85484
798,99,35.3965,6.46271,0,0,0,0,0,0,0,-1,2022,925,35.3965,-6.46272
805,99,0,0,0,0,0,0,0,0,0,-1,2029,925,0,0
812,99,0,0,0,0,0,0,0,0,0,-1,2036,925,0,0
-700,92,0,0,0,0,0,0,0,0,0,-1,524,932,0,0
-693,92,0,0,0,0,0,0,0,0,0,-1,531,932,0,0
-686,92,-23.2197,6.93481,0,0,0,0,0,0,0,-1,538,932,-23.2197,-6.93479
-679,92,-23.6923,6.39276,0,0,0,0,0,0,0,-1,545,932,-23.6923,-6.39273
-672,92,-23.9826,5.86963,0.0241101,0.0762656,0.020884,0.0835973,0.0167784,1.23317,0.0510659,0.0474607,552,932,-23.9826,-5.86964
-665,92,-24.2766,5.14105,0.0203514,0.0633123,0.017701,0.069666,0.0139978,1.22618,0.0425525,0.0482035,559,932,-24.2766,-5.14108
-658,92,-24.5435,4.45764,0,0,0,0,0,0,0,-1,566,932,-24.5435,-4.45765
-651,92,-24.8547,3.6908,0,0,0,0,0,0,0,-1,573,932,-24.8547,-3.69081
-644,92,-24.8922,3.4541,0.00950318,0.0286749,0.0100745,0.0329953,0.00518277,1.16567,0.020489,0.0460623,580,932,-24.8921,-3.45411
-637,92,-24.9326,3.20801,0.00650252,0.0203482,0.00812111,0.0240967,0.00275398,1.13835,0.0152297,0.0259115,587,932,-24.9326,-3.20801
-630,92,-24.9766,2.95471,0.003402,0.0148825,0.00604079,0.0174754,0.000809085,1.16534,0.0113902,0.0129243,594,932,-24.9765,-2.95474
-623,92,-25.0433,2.70337,0.000555362,0.00978542,0.00446503,0.0115918,-0.00125106,1.18636,0.00817688,0.00924782,601,932,-25.0433,-2.70336
-616,92,-25.0552,2.4361,-0.0012472,0.0036375,0.00306168,0.00511165,-0.00272135,1.12207,0.00459204,0.00882436,608,932,-25.0552,-2.43609
-609,92,-25.0634,2.18817,-0.00297558,0.000822661,0.00225338,0.00187047,-0.00402339,1.13554,0.00347767,0.00840138,615,932,-25.0634,-2.18817
-602,92,-25.0446,1.92419,-0.0048699,0.000421665,0.00151086,0.00082266,-0.00527089,1.31137,0.00381781,0.00999523,622,932,-25.0446,-1.92419
-595,92,-24.996,1.60962,-0.00615253,2.02738e-05,0.00111947,0.000217025,-0.00634928,1.39682,0.00430702,0.0196768,629,932,-24.996,-1.60964
-588,92,-24.9885,1.36212,-0.00671252,3.31637e-05,0.000672574,9.95686e-05,-0.00677893,1.47238,0.00455284,0.0208451,636,932,-24.9885,-1.36209
-581,92,-25.002,1.09155,-0.00688737,0.000289547,0.000443974,0.000316907,-0.00691473,1.50925,0.00471901,0.0178988,643,932,-25.002,-1.09155
-574,92,-25.5005,0.858521,-0.00673049,0.000550985,0.000343502,0.000567154,-0.00674666,1.52376,0.00469825,0.0361301,650,932,-25.5005,-0.85855
-567,92,-26.3409,0.620911,0,0,0,0,0,0,0,-1,657,932,-26.3409,-0.620907
-560,92,-26.8118,0.6474,-0.00597806,0.00126612,0.000160788,0.00126969,-0.00598163,1.54862,0.00447148,0.0382,664,932,-26.8118,-0.64738
-553,92,-26.931,0.617432,-0.00525138,0.00178357,0.000206201,0.00178961,-0.00525742,1.54152,0.00422963,0.0375952,671,932,-26.9309,-0.617426
-546,92,-26.9384,0.572998,-0.00416584,0.00243731,0.000280418,0.0024492,-0.00417773,1.52843,0.0038692,0.0377782,678,932,-26.9384,-0.573007
-539,92,-26.8696,0.555847,-0.00271273,0.00315794,0.000384633,0.00318303,-0.00273782,1.50565,0.00342163,0.0390616,685,932,-26.8696,-0.555829
-532,92,-26.9499,0.579224,-0.000968596,0.00386734,0.00044463,0.00390788,-0.00100914,1.47987,0.00299878,0.0450731,692,932,-26.9499,-0.579227
-525,92,-27.0464,0.627869,0.00034799,0.00448582,0.000210865,0.00449654,0.000337272,1.52001,0.00289183,0.0420438,699,932,-27.0464,-0.627872
-518,92,-27.0387,0.820984,-0.000647483,0.00502767,-1.35923e-05,0.00502771,-0.000647516,-1.5684,0.00358718,0.0423928,706,932,-27.0387,-0.820974
-511,92,0,0,0,0,0,0,0,0,0,-1,713,932,0,0
-504,92,0,0,0,0,0,0,0,0,0,-1,720,932,0,0
-497,92,0,0,0,0,0,0,0,0,0,-1,727,932,0,0
-490,92,0,0,0,0,0,0,0,0,0,-1,734,932,0,0
-483,92,0,0,0,0,0,0,0,0,0,-1,741,932,0,0
-476,92,0,0,0,0,0,0,0,0,0,-1,748,932,0,0
-469,92,0,0,0,0,0,0,0,0,0,-1,755,932,0,0
-462,92,0,0,0,0,0,0,0,0,0,-1,762,932,0,0
-455,92,0,0,0,0,0,0,0,0,0,-1,769,932,0,0
-448,92,0,0,0,0,0,0,0,0,0,-1,776,932,0,0
-441,92,0,0,0,0,0,0,0,0,0,-1,783,932,0,0
-434,92,0,0,0,0,0,0,0,0,0,-1,790,932,0,0
-427,92,0,0,0,0,0,0,0,0,0,-1,797,932,0,0
-420,92,0,0,0,0,0,0,0,0,0,-1,804,932,0,0
-413,92,0,0,0,0,0,0,0,0,0,-1,811,932,0,0
-406,92,0,0,0,0,0,0,0,0,0,-1,818,932,0,0
-399,92,0,0,0,0,0,0,0,0,0,-1,825,932,0,0
-392,92,0,0,0,0,0,0,0,0,0,-1,832,932,0,0
-385,92,0,0,0,0,0,0,0,0,0,-1,839,932,0,0
-378,92,0,0,0,0,0,0,0,0,0,-1,846,932,0,0
-371,92,0,0,0,0,0,0,0,0,0,-1,853,932,0,0
-364,92,0,0,0,0,0,0,0,0,0,-1,860,932,0,0
-357,92,0,0,0,0,0,0,0,0,0,-1,867,932,0,0
-350,92,0,0,0,0,0,0,0,0,0,-1,874,932,0,0
-343,92,0,0,0,0,0,0,0,0,0,-1,881,932,0,0
-336,92,0,0,0,0,0,0,0,0,0,-1,888,932,0,0
-329,92,0,0,0,0,0,0,0,0,0,-1,895,932,0,0
-322,92,0,0,0,0,0,0,0,0,0,-1,902,932,0,0
-315,92,0,0,0,0,0,0,0,0,0,-1,909,932,0,0
-308,92,0,0,0,0,0,0,0,0,0,-1,916,932,0,0
-301,92,0,0,0,0,0,0,0,0,0,-1,923,932,0,0
-294,92,0,0,0,0,0,0,0,0,0,-1,930,932,0,0
-287,92,0,0,0,0,0,0,0,0,0,-1,937,932,0,0
-280,92,0,0,0,0,0,0,0,0,0,-1,944,932,0,0
-273,92,0,0,0,0,0,0,0,0,0,-1,951,932,0,0
-266,92,0,0,0,0,0,0,0,0,0,-1,958,932,0,0
-259,92,0,0,0,0,0,0,0,0,0,-1,965,932,0,0
-252,92,0,0,0,0,0,0,0,0,0,-1,972,932,0,0
-245,92,0,0,0,0,0,0,0,0,0,-1,979,932,0,0
-238,92,0,0,0,0,0,0,0,0,0,-1,986,932,0,0
-231,92,0,0,0,0,0,0,0,0,0,-1,993,932,0,0
-224,92,0,0,0,0,0,0,0,0,0,-1,1000,932,0,0
-217,92,0,0,0,0,0,0,0,0,0,-1,1007,932,0,0
-210,92,0,0,0,0,0,0,0,0,0,-1,1014,932,0,0
-203,92,0,0,0,0,0,0,0,0,0,-1,1021,932,0,0
-196,92,0,0,0,0,0,0,0,0,0,-1,1028,932,0,0
-189,92,0,0,0,0,0,0,0,0,0,-1,1035,932,0,0
-182,92,0,0,0,0,0,0,0,0,0,-1,1042,932,0,0
-175,92,0,0,0,0,0,0,0,0,0,-1,1049,932,0,0
-168,92,0,0,0,0,0,0,0,0,0,-1,1056,932,0,0
-161,92,0,0,0,0,0,0,0,0,0,-1,1063,932,0,0
-154,92,0,0,0,0,0,0,0,0,0,-1,1070,932,0,0
-147,92,0,0,0,0,0,0,0,0,0,-1,1077,932,0,0
-140,92,0,0,0,0,0,0,0,0,0,-1,1084,932,0,0
-133,92,0,0,0,0,0,0,0,0,0,-1,1091,932,0,0
-126,92,0,0,0,0,0,0,0,0,0,-1,1098,932,0,0
-119,92,0,0,0,0,0,0,0,0,0,-1,1105,932,0,0
-112,92,0,0,0,0,0,0,0,0,0,-1,1112,932,0,0
-105,92,0,0,0,0,0,0,0,0,0,-1,1119,932,0,0
-98,92,0,0,0,0,0,0,0,0,0,-1,1126,932,0,0
-91,92,0,0,0,0,0,0,0,0,0,-1,1133,932,0,0
-84,92,0,0,0,0,0,0,0,0,0,-1,1140,932,0,0
-77,92,0,0,0,0,0,0,0,0,0,-1,1147,932,0,0
-70,92,0,0,0,0,0,0,0,0,0,-1,1154,932,0,0
-63,92,0,0,0,0,0,0,0,0,0,-1,1161,932,0,0
-56,92,0,0,0,0,0,0,0,0,0,-1,1168,932,0,0
-49,92,0,0,0,0,0,0,0,0,0,-1,1175,932,0,0
-42,92,0,0,0,0,0,0,0,0,0,-1,1182,932,0,0
-35,92,0,0,0,0,0,0,0,0,0,-1,1189,932,0,0
-28,92,0,0,0,0,0,0,0,0,0,-1,1196,932,0,0
-21,92,0,0,0,0,0,0,0,0,0,-1,1203,932,0,0
-14,92,0,0,0,0,0,0,0,0,0,-1,1210,932,0,0
-7,92,0,0,0,0,0,0,0,0,0,-1,1217,932,0,0
0,92,0,0,0,0,0,0,0,0,0,-1,1224,932,0,0
7,92,0,0,0,0,0,0,0,0,0,-1,1231,932,0,0
14,92,0,0,0,0,0,0,0,0,0,-1,1238,932,0,0
21,92,0,0,0,0,0,0,0,0,0,-1,1245,932,0,0
28,92,0,0,0,0,0,0,0,0,0,-1,1252,932,0,0
35,92,0,0,0,0,0,0,0,0,0,-1,1259,932,0,0
42,92,0,0,0,0,0,0,0,0,0,-1,1266,932,0,0
49,92,0,0,0,0,0,0,0,0,0,-1,1273,932,0,0
56,92,0,0,0,0,0,0,0,0,0,-1,1280,932,0,0
63,92,0,0,0,0,0,0,0,0,0,-1,1287,932,0,0
70,92,0,0,0,0,0,0,0,0,0,-1,1294,932,0,0
77,92,0,0,0,0,0,0,0,0,0,-1,1301,932,0,0
84,92,0,0,0,0,0,0,0,0,0,-1,1308,932,0,0
91,92,0,0,0,0,0,0,0,0,0,-1,1315,932,0,0
98,92,0,0,0,0,0,0,0,0,0,-1,1322,932,0,0
105,92,0,0,0,0,0,0,0,0,0,-1,1329,932,0,0
112,92,0,0,0,0,0,0,0,0,0,-1,1336,932,0,0
119,92,0,0,0,0,0,0,0,0,0,-1,1343,932,0,0
126,92,0,0,0,0,0,0,0,0,0,-1,1350,932,0,0
133,92,0,0,0,0,0,0,0,0,0,-1,1357,932,0,0
140,92,0,0,0,0,0,0,0,0,0,-1,1364,932,0,0
147,92,0,0,0,0,0,0,0,0,0,-1,1371,932,0,0
154,92,0,0,0,0,0,0,0,0,0,-1,1378,932,0,0
161,92,0,0,0,0,0,0,0,0,0,-1,1385,932,0,0
168,92,0,0,0,0,0,0,0,0,0,-1,1392,932,0,0
175,92,0,0,0,0,0,0,0,0,0,-1,1399,932,0,0
182,92,0,0,0,0,0,0,0,0,0,-1,1406,932,0,0
189,92,0,0,0,0,0,0,0,0,0,-1,1413,932,0,0
196,92,0,0,0,0,0,0,0,0,0,-1,1420,932,0,0
203,92,0,0,0,0,0,0,0,0,0,-1,1427,932,0,0
210,92,0,0,0,0,0,0,0,0,0,-1,1434,932,0,0
217,92,0,0,0,0,0,0,0,0,0,-1,1441,932,0,0
224,92,0,0,0,0,0,0,0,0,0,-1,1448,932,0,0
231,92,0,0,0,0,0,0,0,0,0,-1,1455,932,0,0
238,92,0,0,0,0,0,0,0,0,0,-1,1462,932,0,0
245,92,0,0,0,0,0,0,0,0,0,-1,1469,932,0,0
252,92,0,0,0,0,0,0,0,0,0,-1,1476,932,0,0
259,92,0,0,0,0,0,0,0,0,0,-1,1483,932,0,0
266,92,0,0,0,0,0,0,0,0,0,-1,1490,932,0,0
273,92,0,0,0,0,0,0,0,0,0,-1,1497,932,0,0
280,92,0,0,0,0,0,0,0,0,0,-1,1504,932,0,0
287,92,0,0,0,0,0,0,0,0,0,-1,1511,932,0,0
294,92,0,0,0,0,0,0,0,0,0,-1,1518,932,0,0
301,92,0,0,0,0,0,0,0,0,0,-1,1525,932,0,0
308,92,0,0,0,0,0,0,0,0,0,-1,1532,932,0,0
315,92,0,0,0,0,0,0,0,0,0,-1,1539,932,0,0
322,92,0,0,0,0,0,0,0,0,0,-1,1546,932,0,0
329,92,0,0,0,0,0,0,0,0,0,-1,1553,932,0,0
336,92,0,0,0,0,0,0,0,0,0,-1,1560,932,0,0
343,92,0,0,0,0,0,0,0,0,0,-1,1567,932,0,0
350,92,0,0,0,0,0,0,0,0,0,-1,1574,932,0,0
357,92,0,0,0,0,0,0,0,0,0,-1,1581,932,0,0
364,92,0,0,0,0,0,0,0,0,0,-1,1588,932,0,0
371,92,0,0,0,0,0,0,0,0,0,-1,1595,932,0,0
378,92,0,0,0,0,0,0,0,0,0,-1,1602,932,0,0
385,92,0,0,0,0,0,0,0,0,0,-1,1609,932,0,0
392,92,0,0,0,0,0,0,0,0,0,-1,1616,932,0,0
399,92,0,0,0,0,0,0,0,0,0,-1,1623,932,0,0
406,92,0,0,0,0,0,0,0,0,0,-1,1630,932,0,0
413,92,0,0,0,0,0,0,0,0,0,-1,1637,932,0,0
420,92,0,0,0,0,0,0,0,0,0,-1,1644,932,0,0
427,92,0,0,0,0,0,0,0,0,0,-1,1651,932,0,0
434,92,0,0,0,0,0,0,0,0,0,-1,1658,932,0,0
441,92,0,0,0,0,0,0,0,0,0,-1,1665,932,0,0
448,92,0,0,0,0,0,0,0,0,0,-1,1672,932,0,0
455,92,0,0,0,0,0,0,0,0,0,-1,1679,932,0,0
462,92,0,0,0,0,0,0,0,0,0,-1,1686,932,0,0
469,92,0,0,0,0,0,0,0,0,0,-1,1693,932,0,0
476,92,0,0,0,0,0,0,0,0,0,-1,1700,932,0,0
483,92,0,0,0,0,0,0,0,0,0,-1,1707,932,0,0
490,92,0,0,0,0,0,0,0,0,0,-1,1714,932,0,0
497,92,0,0,0,0,0,0,0,0,0,-1,1721,932,0,0
504,92,0,0,0,0,0,0,0,0,0,-1,1728,932,0,0
511,92,0,0,0,0,0,0,0,0,0,-1,1735,932,0,0
518,92,0,0,0,0,0,0,0,0,0,-1,1742,932,0,0
525,92,0,0,0,0,0,0,0,0,0,-1,1749,932,0,0
532,92,0,0,0,0,0,0,0,0,0,-1,1756,932,0,0
539,92,0,0,0,0,0,0,0,0,0,-1,1763,932,0,0
546,92,0,0,0,0,0,0,0,0,0,-1,1770,932,0,0
553,92,0,0,0,0,0,0,0,0,0,-1,1777,932,0,0
560,92,0,0,0,0,0,0,0,0,0,-1,1784,932,0,0
567,92,0,0,0,0,0,0,0,0,0,-1,1791,932,0,0
574,92,0,0,0,0,0,0,0,0,0,-1,1798,932,0,0
581,92,0,0,0,0,0,0,0,0,0,-1,1805,932,0,0
588,92,0,0,0,0,0,0,0,0,0,-1,1812,932,0,0
595,92,0,0,0,0,0,0,0,0,0,-1,1819,932,0,0
602,92,0,0,0,0,0,0,0,0,0,-1,1826,932,0,0
609,92,0,0,0,0,0,0,0,0,0,-1,1833,932,0,0
616,92,0,0,0,0,0,0,0,0,0,-1,1840,932,0,0
623,92,0,0,0,0,0,0,0,0,0,-1,1847,932,0,0
630,92,0,0,0,0,0,0,0,0,0,-1,1854,932,0,0
637,92,36.9412,2.66168,-0.00121936,0.00127518,0.00352058,0.0037629,-0.00370708,0.95564,0.00431284,0.0446477,1861,932,36.9411,-2.66167
644,92,36.84,2.58655,-0.000921732,0.00109545,0.00231279,0.00261001,-0.00243629,0.991013,0.00291405,0.0405044,1868,932,36.84,-2.58657
651,92,36.7054,2.62842,-0.000633431,0.00092097,0.0014078,0.00175186,-0.00146432,1.03761,0.00185933,0.0405776,1875,932,36.7055,-2.6284
658,92,36.8082,2.58405,-0.000483216,0.000869342,0.00079572,0.00123734,-0.000851218,1.13762,0.00121268,0.043607,1882,932,36.8083,-2.58404
665,92,36.9061,2.47064,-0.00032544,0.000835432,0.000402853,0.000961535,-0.000451542,1.26743,0.000833363,0.0444441,1889,932,36.9061,-2.47063
672,92,36.8757,2.58264,-0.000357666,0.000701852,0.000285947,0.000774098,-0.000429912,1.32332,0.000704539,0.0429436,1896,932,36.8758,-2.58265
679,92,36.9857,2.71069,-0.000442499,0.000488875,0.000284209,0.000568751,-0.000522375,1.29682,0.000630151,0.0387137,1903,932,36.9858,-2.71071
686,92,36.9105,2.54211,-0.00047933,0.000301998,0.000236611,0.000368065,-0.000545397,1.29851,0.00053069,0.0304133,1910,932,36.9105,-2.5421
693,92,36.8398,2.61206,-0.000527369,0.000130526,0.000198039,0.000185539,-0.000582382,1.29984,0.000462673,0.0237929,1917,932,36.8398,-2.61204
700,92,36.8303,2.57672,0,0,0,0,0,0,0,-1,1924,932,36.8303,-2.5767
707,92,32.9893,3.26874,0,0,0,0,0,0,0,-1,1931,932,32.9893,-3.26874
714,92,34.4884,3.78448,0,0,0,0,0,0,0,-1,1938,932,34.4884,-3.7845
721,92,34.2152,3.89832,-0.00109045,0.000624014,-6.53851e-05,0.000626504,-0.00109294,-1.53273,0.00100483,0.0277716,1945,932,34.2152,-3.8983
728,92,34.1273,4.24915,-0.00094833,0.000998267,-0.000225765,0.00102411,-0.000974171,-1.45683,0.00115383,0.021166,1952,932,34.1273,-4.24917
735,92,34.1418,4.52344,-0.00036425,0.00166875,-0.000446018,0.0017623,-0.000457797,-1.36405,0.00135352,0.0172251,1959,932,34.1419,-4.52344
742,92,34.1707,4.79523,0.000453603,0.00281599,-0.000645881,0.00298104,0.00028855,-1.3206,0.0018985,0.017421,1966,932,34.1707,-4.79525
749,92,34.1101,5.10193,0.00183759,0.00446569,-0.000748902,0.00466411,0.00163916,-1.31179,0.00273216,0.0156809,1973,932,34.1101,-5.10192
756,92,34.0728,5.37592,0.00403036,0.00672847,-0.00069021,0.00689478,0.00386404,-1.33434,0.00399038,0.013814,1980,932,34.0727,-5.37594
763,92,34.0848,5.66443,0.00708738,0.00964685,-0.000270108,0.00967504,0.00705918,-1.46679,0.00577891,0.0157508,1987,932,34.0848,-5.6644
770,92,34.0803,5.99988,0.0111078,0.0129496,0.000408506,0.0130361,0.0110213,1.36204,0.00810308,0.0245893,1994,932,34.0804,-5.99988
777,92,34.3154,6.32507,0.0164578,0.0170224,0.00177855,0.0185409,0.0149393,0.864098,0.0113521,0.0415295,2001,932,34.3155,-6.32508
784,92,34.6715,6.65924,0,0,0,0,0,0,0,-1,2008,932,34.6715,-6.65924
791,92,35.4802,6.27582,0,0,0,0,0,0,0,-1,2015,932,35.4801,-6.27579
798,92,35.9492,5.81573,0,0,0,0,0,0,0,-1,2022,932,35.9493,-5.81571
805,92,0,0,0,0,0,0,0,0,0,-1,2029,932,0,0
812,92,0,0,0,0,0,0,0,0,0,-1,2036,932,0,0
-700,85,0,0,0,0,0,0,0,0,0,-1,524,939,0,0
-693,85,0,0,0,0,0,0,0,0,0,-1,531,939,0,0
-686,85,-25.9093,0.874451,0,0,0,0,0,0,0,-1,538,939,-25.9093,-0.874448
-679,85,-24.4815,5.3316,0,0,0,0,0,0,0,-1,545,939,-24.4815,-5.33161
-672,85,-24.7648,4.83356,0.0311481,0.0669904,0.0279346,0.0822582,0.0158802,1.0706,0.0503866,0.0438923,552,939,-24.7648,-4.83359
-665,85,-25.0571,4.10901,0.0260196,0.0573003,0.0231282,0.0695801,0.0137398,1.0827,0.0425527,0.0429391,559,939,-25.0571,-4.10898
-658,85,-24.2961,2.86542,0,0,0,0,0,0,0,-1,566,939,-24.2961,-2.86542
-651,85,-24.5354,3.10583,0.0162154,0.0373361,0.0152977,0.0453645,0.00818697,1.0875,0.0279171,0.0408062,573,939,-24.5354,-3.10583
-644,85,-25.0966,3.28864,0.0119326,0.0284965,0.0122056,0.0349647,0.00546439,1.08348,0.0217187,0.0330645,580,939,-25.0966,-3.28864
-637,85,-25.2203,3.16003,0.00812572,0.0210239,0.00957566,0.0261197,0.00302994,1.08175,0.0164962,0.0181594,587,939,-25.2203,-3.16002
-630,85,-25.2761,2.92175,0.004248,0.0160949,0.00693753,0.0192937,0.00104914,1.13875,0.0125274,0.0116472,594,939,-25.2761,-2.92175
-623,85,-25.3314,2.66144,0.000762642,0.0111696,0.00484632,0.0130769,-0.00114465,1.19586,0.00912343,0.00987448,601,939,-25.3314,-2.66145
-616,85,-25.3319,2.43225,-0.00151276,0.00486973,0.00307338,0.00610902,-0.00275206,1.1875,0.00523689,0.0095133,608,939,-25.3319,-2.43225
-609,85,-25.3275,2.18079,-0.00342868,0.00171198,0.00197233,0.00238151,-0.0040982,1.24354,0.00378457,0.0107874,615,939,-25.3274,-2.18077
-602,85,-25.3329,1.92645,-0.00537648,0.00104515,0.0010575,0.00121481,-0.00554614,1.41171,0.00416189,0.0146458,622,939,-25.333,-1.92646
-595,85,-25.2787,1.68219,-0.00671703,0.000454184,0.000534386,0.000493787,-0.00675663,1.49682,0.00467771,0.0187048,629,939,-25.2787,-1.6822
-588,85,-25.263,1.39838,-0.00733544,0.00032837,5.29317e-05,0.000328735,-0.00733581,1.56389,0.00500372,0.0173438,636,939,-25.263,-1.3984
-581,85,-25.305,1.15375,-0.00756902,0.000487852,-0.000158974,0.000490987,-0.00757215,-1.55108,0.00521947,0.0215625,643,939,-25.305,-1.15373
-574,85,-25.8311,0.999756,-0.00742545,0.00061614,-0.000212132,0.000621732,-0.00743104,-1.54444,0.00517374,0.0401354,650,939,-25.831,-0.999746
-567,85,-26.6252,0.854553,0,0,0,0,0,0,0,-1,657,939,-26.6252,-0.854566
-560,85,-26.8355,0.602905,-0.00661604,0.00132492,-0.000241619,0.00133227,-0.00662338,-1.54041,0.00492017,0.0366287,664,939,-26.8355,-0.602935
-553,85,-26.882,0.494995,-0.00572152,0.00186653,-0.000101808,0.0018679,-0.00572288,-1.55738,0.00456704,0.0385586,671,939,-26.882,-0.494968
-546,85,-26.9444,0.514832,-0.00438578,0.00251307,9.8271e-05,0.00251447,-0.00438718,1.55656,0.00403327,0.0377987,678,939,-26.9444,-0.514861
-539,85,-26.8815,0.638428,-0.0026211,0.00319573,0.000333158,0.00321475,-0.00264011,1.51377,0.00338573,0.0386262,685,939,-26.8816,-0.63845
-532,85,-27.0102,0.373169,0,0,0,0,0,0,0,-1,692,939,-27.0102,-0.373187
-525,85,-26.9728,0.436646,0.000851145,0.00440824,0.000170788,0.00441642,0.000842964,1.52293,0.00270739,0.0399146,699,939,-26.9728,-0.436618
-518,85,-27.0123,0.690796,-0.000589181,0.0049083,-0.000282129,0.00492274,-0.000603623,-1.51966,0.00350043,0.0366781,706,939,-27.0123,-0.690804
-511,85,0,0,0,0,0,0,0,0,0,-1,713,939,0,0
-504,85,0,0,0,0,0,0,0,0,0,-1,720,939,0,0
-497,85,0,0,0,0,0,0,0,0,0,-1,727,939,0,0
-490,85,0,0,0,0,0,0,0,0,0,-1,734,939,0,0
-483,85,0,0,0,0,0,0,0,0,0,-1,741,939,0,0
-476,85,0,0,0,0,0,0,0,0,0,-1,748,939,0,0
-469,85,0,0,0,0,0,0,0,0,0,-1,755,939,0,0
-462,85,0,0,0,0,0,0,0,0,0,-1,762,939,0,0
-455,85,0,0,0,0,0,0,0,0,0,-1,769,939,0,0
-448,85,0,0,0,0,0,0,0,0,0,-1,776,939,0,0
-441,85,0,0,0,0,0,0,0,0,0,-1,783,939,0,0
-434,85,0,0,0,0,0,0,0,0,0,-1,790,939,0,0
-427,85,0,0,0,0,0,0,0,0,0,-1,797,939,0,0
-420,85,0,0,0,0,0,0,0,0,0,-1,804,939,0,0
-413,85,0,0,0,0,0,0,0,0,0,-1,811,939,0,0
-406,85,0,0,0,0,0,0,0,0,0,-1,818,939,0,0
-399,85,0,0,0,0,0,0,0,0,0,-1,825,939,0,0
-392,85,0,0,0,0,0,0,0,0,0,-1,832,939,0,0
-385,85,0,0,0,0,0,0,0,0,0,-1,839,939,0,0
-378,85,0,0,0,0,0,0,0,0,0,-1,846,939,0,0
-371,85,0,0,0,0,0,0,0,0,0,-1,853,939,0,0
-364,85,0,0,0,0,0,0,0,0,0,-1,860,939,0,0
-357,85,0,0,0,0,0,0,0,0,0,-1,867,939,0,0
-350,85,0,0,0,0,0,0,0,0,0,-1,874,939,0,0
-343,85,0,0,0,0,0,0,0,0,0,-1,881,939,0,0
-336,85,0,0,0,0,0,0,0,0,0,-1,888,939,0,0
-329,85,0,0,0,0,0,0,0,0,0,-1,895,939,0,0
-322,85,0,0,0,0,0,0,0,0,0,-1,902,939,0,0
-315,85,0,0,0,0,0,0,0,0,0,-1,909,939,0,0
-308,85,0,0,0,0,0,0,0,0,0,-1,916,939,0,0
-301,85,0,0,0,0,0,0,0,0,0,-1,923,939,0,0
-294,85,0,0,0,0,0,0,0,0,0,-1,930,939,0,0
-287,85,0,0,0,0,0,0,0,0,0,-1,937,939,0,0
-280,85,0,0,0,0,0,0,0,0,0,-1,944,939,0,0
-273,85,0,0,0,0,0,0,0,0,0,-1,951,939,0,0
-266,85,0,0,0,0,0,0,0,0,0,-1,958,939,0,0
-259,85,0,0,0,0,0,0,0,0,0,-1,965,939,0,0
-252,85,0,0,0,0,0,0,0,0,0,-1,972,939,0,0
-245,85,0,0,0,0,0,0,0,0,0,-1,979,939,0,0
-238,85,0,0,0,0,0,0,0,0,0,-1,986,939,0,0
-231,85,0,0,0,0,0,0,0,0,0,-1,993,939,0,0
-224,85,0,0,0,0,0,0,0,0,0,-1,1000,939,0,0
-217,85,0,0,0,0,0,0,0,0,0,-1,1007,939,0,0
-210,85,0,0,0,0,0,0,0,0,0,-1,1014,939,0,0
-203,85,0,0,0,0,0,0,0,0,0,-1,1021,939,0,0
-196,85,0,0,0,0,0,0,0,0,0,-1,1028,939,0,0
-189,85,0,0,0,0,0,0,0,0,0,-1,1035,939,0,0
-182,85,0,0,0,0,0,0,0,0,0,-1,1042,939,0,0
-175,85,0,0,0,0,0,0,0,0,0,-1,1049,939,0,0
-168,85,0,0,0,0,0,0,0,0,0,-1,1056,939,0,0
-161,85,0,0,0,0,0,0,0,0,0,-1,1063,939,0,0
-154,85,0,0,0,0,0,0,0,0,0,-1,1070,939,0,0
-147,85,0,0,0,0,0,0,0,0,0,-1,1077,939,0,0
-140,85,0,0,0,0,0,0,0,0,0,-1,1084,939,0,0
-133,85,0,0,0,0,0,0,0,0,0,-1,1091,939,0,0
-126,85,0,0,0,0,0,0,0,0,0,-1,1098,939,0,0
-119,85,0,0,0,0,0,0,0,0,0,-1,1105,939,0,0
-112,85,0,0,0,0,0,0,0,0,0,-1,1112,939,0,0
-105,85,0,0,0,0,0,0,0,0,0,-1,1119,939,0,0
-98,85,0,0,0,0,0,0,0,0,0,-1,1126,939,0,0
-91,85,0,0,0,0,0,0,0,0,0,-1,1133,939,0,0
-84,85,0,0,0,0,0,0,0,0,0,-1,1140,939,0,0
-77,85,0,0,0,0,0,0,0,0,0,-1,1147,939,0,0
-70,85,0,0,0,0,0,0,0,0,0,-1,1154,939,0,0
-63,85,0,0,0,0,0,0,0,0,0,-1,1161,939,0,0
-56,85,0,0,0,0,0,0,0,0,0,-1,1168,939,0,0
-49,85,0,0,0,0,0,0,0,0,0,-1,1175,939,0,0
-42,85,0,0,0,0,0,0,0,0,0,-1,1182,939,0,0
-35,85,0,0,0,0,0,0,0,0,0,-1,1189,939,0,0
-28,85,0,0,0,0,0,0,0,0,0,-1,1196,939,0,0
-21,85,0,0,0,0,0,0,0,0,0,-1,1203,939,0,0
-14,85,0,0,0,0,0,0,0,0,0,-1,1210,939,0,0
-7,85,0,0,0,0,0,0,0,0,0,-1,1217,939,0,0
0,85,0,0,0,0,0,0,0,0,0,-1,1224,939,0,0
7,85,0,0,0,0,0,0,0,0,0,-1,1231,939,0,0
14,85,0,0,0,0,0,0,0,0,0,-1,1238,939,0,0
21,85,0,0,0,0,0,0,0,0,0,-1,1245,939,0,0
28,85,0,0,0,0,0,0,0,0,0,-1,1252,939,0,0
35,85,0,0,0,0,0,0,0,0,0,-1,1259,939,0,0
42,85,0,0,0,0,0,0,0,0,0,-1,1266,939,0,0
49,85,0,0,0,0,0,0,0,0,0,-1,1273,939,0,0
56,85,0,0,0,0,0,0,0,0,0,-1,1280,939,0,0
63,85,0,0,0,0,0,0,0,0,0,-1,1287,939,0,0
70,85,0,0,0,0,0,0,0,0,0,-1,1294,939,0,0
77,85,0,0,0,0,0,0,0,0,0,-1,1301,939,0,0
84,85,0,0,0,0,0,0,0,0,0,-1,1308,939,0,0
91,85,0,0,0,0,0,0,0,0,0,-1,1315,939,0,0
98,85,0,0,0,0,0,0,0,0,0,-1,1322,939,0,0
105,85,0,0,0,0,0,0,0,0,0,-1,1329,939,0,0
112,85,0,0,0,0,0,0,0,0,0,-1,1336,939,0,0
119,85,0,0,0,0,0,0,0,0,0,-1,1343,939,0,0
126,85,0,0,0,0,0,0,0,0,0,-1,1350,939,0,0
133,85,0,0,0,0,0,0,0,0,0,-1,1357,939,0,0
140,85,0,0,0,0,0,0,0,0,0,-1,1364,939,0,0
147,85,0,0,0,0,0,0,0,0,0,-1,1371,939,0,0
154,85,0,0,0,0,0,0,0,0,0,-1,1378,939,0,0
161,85,0,0,0,0,0,0,0,0,0,-1,1385,939,0,0
168,85,0,0,0,0,0,0,0,0,0,-1,1392,939,0,0
175,85,0,0,0,0,0,0,0,0,0,-1,1399,939,0,0
182,85,0,0,0,0,0,0,0,0,0,-1,1406,939,0,0
189,85,0,0,0,0,0,0,0,0,0,-1,1413,939,0,0
196,85,0,0,0,0,0,0,0,0,0,-1,1420,939,0,0
203,85,0,0,0,0,0,0,0,0,0,-1,1427,939,0,0
210,85,0,0,0,0,0,0,0,0,0,-1,1434,939,0,0
217,85,0,0,0,0,0,0,0,0,0,-1,1441,939,0,0
224,85,0,0,0,0,0,0,0,0,0,-1,1448,939,0,0
231,85,0,0,0,0,0,0,0,0,0,-1,1455,939,0,0
238,85,0,0,0,0,0,0,0,0,0,-1,1462,939,0,0
245,85,0,0,0,0,0,0,0,0,0,-1,1469,939,0,0
252,85,0,0,0,0,0,0,0,0,0,-1,1476,939,0,0
259,85,0,0,0,0,0,0,0,0,0,-1,1483,939,0,0
266,85,0,0,0,0,0,0,0,0,0,-1,1490,939,0,0
273,85,0,0,0,0,0,0,0,0,0,-1,1497,939,0,0
280,85,0,0,0,0,0,0,0,0,0,-1,1504,939,0,0
287,85,0,0,0,0,0,0,0,0,0,-1,1511,939,0,0
294,85,0,0,0,0,0,0,0,0,0,-1,1518,939,0,0
301,85,0,0,0,0,0,0,0,0,0,-1,1525,939,0,0
308,85,0,0,0,0,0,0,0,0,0,-1,1532,939,0,0
315,85,0,0,0,0,0,0,0,0,0,-1,1539,939,0,0
322,85,0,0,0,0,0,0,0,0,0,-1,1546,939,0,0
329,85,0,0,0,0,0,0,0,0,0,-1,1553,939,0,0
336,85,0,0,0,0,0,0,0,0,0,-1,1560,939,0,0
343,85,0,0,0,0,0,0,0,0,0,-1,1567,939,0,0
350,85,0,0,0,0,0,0,0,0,0,-1,1574,939,0,0
357,85,0,0,0,0,0,0,0,0,0,-1,1581,939,0,0
364,85,0,0,0,0,0,0,0,0,0,-1,1588,939,0,0
371,85,0,0,0,0,0,0,0,0,0,-1,1595,939,0,0
378,85,0,0,0,0,0,0,0,0,0,-1,1602,939,0,0
385,85,0,0,0,0,0,0,0,0,0,-1,1609,939,0,0
392,85,0,0,0,0,0,0,0,0,0,-1,1616,939,0,0
399,85,0,0,0,0,0,0,0,0,0,-1,1623,939,0,0
406,85,0,0,0,0,0,0,0,0,0,-1,1630,939,0,0
413,85,0,0,0,0,0,0,0,0,0,-1,1637,939,0,0
420,85,0,0,0,0,0,0,0,0,0,-1,1644,939,0,0
427,85,0,0,0,0,0,0,0,0,0,-1,1651,939,0,0
434,85,0,0,0,0,0,0,0,0,0,-1,1658,939,0,0
441,85,0,0,0,0,0,0,0,0,0,-1,1665,939,0,0
448,85,0,0,0,0,0,0,0,0,0,-1,1672,939,0,0
455,85,0,0,0,0,0,0,0,0,0,-1,1679,939,0,0
462,85,0,0,0,0,0,0,0,0,0,-1,1686,939,0,0
469,85,0,0,0,0,0,0,0,0,0,-1,1693,939,0,0
476,85,0,0,0,0,0,0,0,0,0,-1,1700,939,0,0
483,85,0,0,0,0,0,0,0,0,0,-1,1707,939,0,0
490,85,0,0,0,0,0,0,0,0,0,-1,1714,939,0,0
497,85,0,0,0,0,0,0,0,0,0,-1,1721,939,0,0
504,85,0,0,0,0,0,0,0,0,0,-1,1728,939,0,0
511,85,0,0,0,0,0,0,0,0,0,-1,1735,939,0,0
518,85,0,0,0,0,0,0,0,0,0,-1,1742,939,0,0
525,85,0,0,0,0,0,0,0,0,0,-1,1749,939,0,0
532,85,0,0,0,0,0,0,0,0,0,-1,1756,939,0,0
539,85,0,0,0,0,0,0,0,0,0,-1,1763,939,0,0
546,85,0,0,0,0,0,0,0,0,0,-1,1770,939,0,0
553,85,0,0,0,0,0,0,0,0,0,-1,1777,939,0,0
560,85,0,0,0,0,0,0,0,0,0,-1,1784,939,0,0
567,85,0,0,0,0,0,0,0,0,0,-1,1791,939,0,0
574,85,0,0,0,0,0,0,0,0,0,-1,1798,939,0,0
581,85,0,0,0,0,0,0,0,0,0,-1,1805,939,0,0
588,85,0,0,0,0,0,0,0,0,0,-1,1812,939,0,0
595,85,0,0,0,0,0,0,0,0,0,-1,1819,939,0,0
602,85,0,0,0,0,0,0,0,0,0,-1,1826,939,0,0
609,85,0,0,0,0,0,0,0,0,0,-1,1833,939,0,0
616,85,0,0,0,0,0,0,0,0,0,-1,1840,939,0,0
623,85,0,0,0,0,0,0,0,0,0,-1,1847,939,0,0
630,85,0,0,0,0,0,0,0,0,0,-1,1854,939,0,0
637,85,36.8546,2.63965,-0.00162591,0.00134201,0.00362972,0.0037794,-0.0040633,0.979448,0.00452898,0.0454113,1861,939,36.8546,-2.63967
644,85,36.8104,2.60431,-0.00105772,0.000987996,0.00239803,0.0025722,-0.00264193,0.986986,0.00301047,0.0416599,1868,939,36.8104,-2.60432
651,85,36.7308,2.77826,-0.0006275,0.000727151,0.00149488,0.00169099,-0.00159134,0.998112,0.00189535,0.0431142,1875,939,36.7308,-2.77829
658,85,36.6748,2.8042,-0.000408237,0.000627884,0.000903846,0.00115161,-0.000931965,1.04563,0.00120518,0.0447958,1882,939,36.6748,-2.80419
665,85,36.707,2.57269,-0.00024096,0.000567002,0.000521478,0.000822672,-0.000496631,1.11495,0.000769414,0.0417211,1889,939,36.7071,-2.57272
672,85,36.9362,2.48505,-0.000334829,0.000430053,0.000404617,0.000604367,-0.000509143,1.16401,0.000643668,0.0389804,1896,939,36.9361,-2.48505
679,85,37.1155,2.57184,-0.000518891,0.000215763,0.000427706,0.000412229,-0.000715356,1.1402,0.000658806,0.0384042,1903,939,37.1154,-2.57184
686,85,36.8901,2.54761,-0.000626361,1.73923e-05,0.000390821,0.000201821,-0.00081079,1.12988,0.000618869,0.0355154,1910,939,36.8901,-2.54762
693,85,36.8356,2.59192,-0.00072171,-0.00016864,0.000337952,-8.50242e-06,-0.000881848,1.12829,0.000585085,0.0274306,1917,939,36.8355,-2.59195
700,85,36.8589,2.5415,-0.000879857,-0.000200485,0.000252883,-0.00011669,-0.000963652,1.25082,0.000607287,0.0368183,1924,939,36.8589,-2.54152
707,85,36.9318,2.49438,0,0,0,0,0,0,0,-1,1931,939,36.9318,-2.49437
714,85,34.5594,3.54169,0,0,0,0,0,0,0,-1,1938,939,34.5594,-3.54166
721,85,34.4952,3.91577,-0.00156085,0.000461344,5.91896e-05,0.000463075,-0.00156258,1.54156,0.0012256,0.0264463,1945,939,34.4953,-3.9158
728,85,34.4131,4.32043,-0.00143074,0.000889628,-9.8292e-05,0.000893784,-0.0014349,-1.52854,0.00135651,0.0229308,1952,939,34.4131,-4.32042
735,85,34.4323,4.55402,-0.000846257,0.00158536,-0.000331975,0.00162987,-0.000890765,-1.43752,0.001476,0.020851,1959,939,34.4323,-4.55401
742,85,34.4913,4.8139,-4.86589e-05,0.00277106,-0.000527396,0.00286647,-0.000144074,-1.39182,0.00196077,0.0154568,1966,939,34.4914,-4.81393
749,85,34.4379,5.09882,0.00134898,0.00448838,-0.000542286,0.00457942,0.00125795,-1.40448,0.00273194,0.013762,1973,939,34.4378,-5.09883
756,85,34.3772,5.35132,0.00357868,0.00693505,-0.000334834,0.00696812,0.00354561,-1.47233,0.00402326,0.0131438,1980,939,34.3771,-5.3513
763,85,34.3624,5.61792,0.00672933,0.0102446,0.000342424,0.0102777,0.00669628,1.47459,0.00602398,0.012823,1987,939,34.3625,-5.6179
770,85,34.3469,5.90161,0.0107863,0.0139674,0.00135471,0.0144661,0.0102876,1.21805,0.00859668,0.0184791,1994,939,34.3469,-5.90161
777,85,34.4086,6.17957,0.0160187,0.0185811,0.00311703,0.02067,0.0139298,0.980392,0.0121721,0.0403368,2001,939,34.4085,-6.17959
784,85,34.6266,6.48083,0.0232377,0.0244648,0.00594173,0.0298245,0.0178779,0.836847,0.0173323,0.0498526,2008,939,34.6266,-6.48086
791,85,34.6938,6.91833,0,0,0,0,0,0,0,-1,2015,939,34.6938,-6.91834
798,85,34.6609,6.90576,0,0,0,0,0,0,0,-1,2022,939,34.6609,-6.90575
805,85,37.177,4.58051,0,0,0,0,0,0,0,-1,2029,939,37.1771,-4.58051
812,85,0,0,0,0,0,0,0,0,0,-1,2036,939,0,0
-700,78,0,0,0,0,0,0,0,0,0,-1,524,946,0,0
-693,78,0,0,0,0,0,0,0,0,0,-1,531,946,0,0
-686,78,-26.7197,0.166077,0,0,0,0,0,0,0,-1,538,946,-26.7197,-0.166062
-679,78,-26.4802,0.372131,0,0,0,0,0,0,0,-1,545,946,-26.4802,-0.372113
-672,78,-25.233,3.82373,0.0406891,0.0562981,0.031564,0.0810082,0.0159791,0.906597,0.0495456,0.0450574,552,946,-25.233,-3.82371
-665,78,-25.851,3.26776,0.0338234,0.0498341,0.0260317,0.0690636,0.0145939,0.93457,0.042031,0.0462734,559,946,-25.851,-3.26773
-658,78,-25.6962,2.8855,0.0271363,0.0422677,0.021207,0.0572182,0.0121859,0.956738,0.0348021,0.0482543,566,946,-25.6962,-2.88549
-651,78,-25.2499,2.92572,0.0209331,0.0345043,0.0170583,0.0460771,0.00936033,0.974697,0.0281221,0.0425731,573,946,-25.2499,-2.92571
-644,78,-25.3331,3.25159,0.0154376,0.0271097,0.0135339,0.0360122,0.00653506,0.98896,0.0221534,0.0263591,580,946,-25.3331,-3.25157
-637,78,-25.4644,3.08148,0.0105671,0.0206363,0.0105308,0.027274,0.00392931,1.00838,0.0170247,0.0140189,587,946,-25.4643,-3.08149
-630,78,-25.5618,2.84497,0.00575544,0.0164127,0.00755137,0.0203262,0.0018419,1.09265,0.0129805,0.0128628,594,946,-25.5617,-2.84499
-623,78,-25.6067,2.60333,0.00150866,0.0118822,0.00510264,0.0139714,-0.000580521,1.18219,0.00951368,0.0123232,601,946,-25.6067,-2.60334
-616,78,-25.607,2.38269,-0.00140831,0.00570715,0.00306944,0.00684824,-0.0025494,1.21487,0.00561177,0.0105573,608,946,-25.607,-2.38271
-609,78,-25.5707,2.16937,-0.00356115,0.00243507,0.00166898,0.00286831,-0.00399439,1.31682,0.00397992,0.0108111,615,946,-25.5707,-2.16938
-602,78,-25.5867,1.9198,-0.00553095,0.00156156,0.000582414,0.00160907,-0.00557846,1.48941,0.00435556,0.0148474,622,946,-25.5867,-1.91978
-595,78,-25.5576,1.65839,-0.00692057,0.000841803,-9.07384e-05,0.000842863,-0.00692163,-1.55911,0.0049195,0.0152088,629,946,-25.5576,-1.65841
-588,78,-25.55,1.46912,-0.00761279,0.000614654,-0.000610837,0.000659757,-0.00765789,-1.49709,0.00533879,0.013121,636,946,-25.5501,-1.4691
-581,78,-25.6619,1.26019,-0.00792266,0.000710857,-0.000805049,0.000785283,-0.00799709,-1.47861,0.0056115,0.0269273,643,946,-25.6619,-1.26021
-574,78,-26.2186,0.977478,-0.00783515,0.000790391,-0.000817532,0.000867193,-0.00791195,-1.47713,0.00558618,0.0352863,650,946,-26.2185,-0.977455
-567,78,-26.8466,0.785706,0,0,0,0,0,0,0,-1,657,946,-26.8466,-0.785685
-560,78,-26.867,0.695496,-0.00700191,0.00150339,-0.0006371,0.00155085,-0.00704937,-1.49644,0.00529282,0.0339172,664,946,-26.867,-0.695522
-553,78,-26.8454,0.724304,-0.00597588,0.00203233,-0.000341937,0.0020469,-0.00599045,-1.5282,0.00482296,0.0390524,671,946,-26.8454,-0.724331
-546,78,-26.8724,0.771667,-0.00443262,0.00263599,5.60424e-05,0.00263643,-0.00443306,1.56287,0.00412527,0.0406868,678,946,-26.8724,-0.771686
-539,78,-26.7698,0.922729,-0.00240119,0.00321949,0.000520976,0.00326737,-0.00244907,1.47915,0.00331164,0.0405888,685,946,-26.7699,-0.922754
-532,78,-26.7799,0.893433,-3.57428e-06,0.00371423,0.000860304,0.00390365,-0.000192998,1.35407,0.0026691,0.0420812,692,946,-26.7799,-0.893403
-525,78,-26.8052,0.740967,0.00143712,0.0040833,0.000687912,0.00425145,0.00126897,1.33106,0.00252015,0.040257,699,946,-26.8052,-0.74096
-518,78,-26.8817,0.607117,-0.000177963,0.00430935,0.000270852,0.00432564,-0.000194253,1.51073,0.00295064,0.039014,706,946,-26.8817,-0.607117
-511,78,0,0,0,0,0,0,0,0,0,-1,713,946,0,0
-504,78,0,0,0,0,0,0,0,0,0,-1,720,946,0,0
-497,78,0,0,0,0,0,0,0,0,0,-1,727,946,0,0
-490,78,0,0,0,0,0,0,0,0,0,-1,734,946,0,0
-483,78,0,0,0,0,0,0,0,0,0,-1,741,946,0,0
-476,78,0,0,0,0,0,0,0,0,0,-1,748,946,0,0
-469,78,0,0,0,0,0,0,0,0,0,-1,755,946,0,0
-462,78,0,0,0,0,0,0,0,0,0,-1,762,946,0,0
-455,78,0,0,0,0,0,0,0,0,0,-1,769,946,0,0
-448,78,0,0,0,0,0,0,0,0,0,-1,776,946,0,0
-441,78,0,0,0,0,0,0,0,0,0,-1,783,946,0,0
-434,78,0,0,0,0,0,0,0,0,0,-1,790,946,0,0
-427,78,0,0,0,0,0,0,0,0,0,-1,797,946,0,0
-420,78,0,0,0,0,0,0,0,0,0,-1,804,946,0,0
-413,78,0,0,0,0,0,0,0,0,0,-1,811,946,0,0
-406,78,0,0,0,0,0,0,0,0,0,-1,818,946,0,0
-399,78,0,0,0,0,0,0,0,0,0,-1,825,946,0,0
-392,78,0,0,0,0,0,0,0,0,0,-1,832,946,0,0
-385,78,0,0,0,0,0,0,0,0,0,-1,839,946,0,0
-378,78,0,0,0,0,0,0,0,0,0,-1,846,946,0,0
-371,78,0,0,0,0,0,0,0,0,0,-1,853,946,0,0
-364,78,0,0,0,0,0,0,0,0,0,-1,860,946,0,0
-357,78,0,0,0,0,0,0,0,0,0,-1,867,946,0,0
-350,78,0,0,0,0,0,0,0,0,0,-1,874,946,0,0
-343,78,0,0,0,0,0,0,0,0,0,-1,881,946,0,0
-336,78,0,0,0,0,0,0,0,0,0,-1,888,946,0,0
-329,78,0,0,0,0,0,0,0,0,0,-1,895,946,0,0
-322,78,0,0,0,0,0,0,0,0,0,-1,902,946,0,0
-315,78,0,0,0,0,0,0,0,0,0,-1,909,946,0,0
-308,78,0,0,0,0,0,0,0,0,0,-1,916,946,0,0
-301,78,0,0,0,0,0,0,0,0,0,-1,923,946,0,0
-294,78,0,0,0,0,0,0,0,0,0,-1,930,946,0,0
-287,78,0,0,0,0,0,0,0,0,0,-1,937,946,0,0
-280,78,0,0,0,0,0,0,0,0,0,-1,944,946,0,0
-273,78,0,0,0,0,0,0,0,0,0,-1,951,946,0,0
-266,78,0,0,0,0,0,0,0,0,0,-1,958,946,0,0
-259,78,0,0,0,0,0,0,0,0,0,-1,965,946,0,0
-252,78,0,0,0,0,0,0,0,0,0,-1,972,946,0,0
-245,78,0,0,0,0,0,0,0,0,0,-1,979,946,0,0
-238,78,0,0,0,0,0,0,0,0,0,-1,986,946,0,0
-231,78,0,0,0,0,0,0,0,0,0,-1,993,946,0,0
-224,78,0,0,0,0,0,0,0,0,0,-1,1000,946,0,0
-217,78,0,0,0,0,0,0,0,0,0,-1,1007,946,0,0
-210,78,0,0,0,0,0,0,0,0,0,-1,1014,946,0,0
-203,78,0,0,0,0,0,0,0,0,0,-1,1021,946,0,0
-196,78,0,0,0,0,0,0,0,0,0,-1,1028,946,0,0
-189,78,0,0,0,0,0,0,0,0,0,-1,1035,946,0,0
-182,78,0,0,0,0,0,0,0,0,0,-1,1042,946,0,0
-175,78,0,0,0,0,0,0,0,0,0,-1,1049,946,0,0
-168,78,0,0,0,0,0,0,0,0,0,-1,1056,946,0,0
-161,78,0,0,0,0,0,0,0,0,0,-1,1063,946,0,0
-154,78,0,0,0,0,0,0,0,0,0,-1,1070,946,0,0
-147,78,0,0,0,0,0,0,0,0,0,-1,1077,946,0,0
-140,78,0,0,0,0,0,0,0,0,0,-1,1084,946,0,0
-133,78,0,0,0,0,0,0,0,0,0,-1,1091,946,0,0
-126,78,0,0,0,0,0,0,0,0,0,-1,1098,946,0,0
-119,78,0,0,0,0,0,0,0,0,0,-1,1105,946,0,0
-112,78,0,0,0,0,0,0,0,0,0,-1,1112,946,0,0
-105,78,0,0,0,0,0,0,0,0,0,-1,1119,946,0,0
-98,78,0,0,0,0,0,0,0,0,0,-1,1126,946,0,0
-91,78,0,0,0,0,0,0,0,0,0,-1,1133,946,0,0
-84,78,0,0,0,0,0,0,0,0,0,-1,1140,946,0,0
-77,78,0,0,0,0,0,0,0,0,0,-1,1147,946,0,0
-70,78,0,0,0,0,0,0,0,0,0,-1,1154,946,0,0
-63,78,0,0,0,0,0,0,0,0,0,-1,1161,946,0,0
-56,78,0,0,0,0,0,0,0,0,0,-1,1168,946,0,0
-49,78,0,0,0,0,0,0,0,0,0,-1,1175,946,0,0
-42,78,0,0,0,0,0,0,0,0,0,-1,1182,946,0,0
-35,78,0,0,0,0,0,0,0,0,0,-1,1189,946,0,0
-28,78,0,0,0,0,0,0,0,0,0,-1,1196,946,0,0
-21,78,0,0,0,0,0,0,0,0,0,-1,1203,946,0,0
-14,78,0,0,0,0,0,0,0,0,0,-1,1210,946,0,0
-7,78,0,0,0,0,0,0,0,0,0,-1,1217,946,0,0
0,78,0,0,0,0,0,0,0,0,0,-1,1224,946,0,0
7,78,0,0,0,0,0,0,0,0,0,-1,1231,946,0,0
14,78,0,0,0,0,0,0,0,0,0,-1,1238,946,0,0
21,78,0,0,0,0,0,0,0,0,0,-1,1245,946,0,0
28,78,0,0,0,0,0,0,0,0,0,-1,1252,946,0,0
35,78,0,0,0,0,0,0,0,0,0,-1,1259,946,0,0
42,78,0,0,0,0,0,0,0,0,0,-1,1266,946,0,0
49,78,0,0,0,0,0,0,0,0,0,-1,1273,946,0,0
56,78,0,0,0,0,0,0,0,0,0,-1,1280,946,0,0
63,78,0,0,0,0,0,0,0,0,0,-1,1287,946,0,0
70,78,0,0,0,0,0,0,0,0,0,-1,1294,946,0,0
77,78,0,0,0,0,0,0,0,0,0,-1,1301,946,0,0
84,78,0,0,0,0,0,0,0,0,0,-1,1308,946,0,0
91,78,0,0,0,0,0,0,0,0,0,-1,1315,946,0,0
98,78,0,0,0,0,0,0,0,0,0,-1,1322,946,0,0
105,78,0,0,0,0,0,0,0,0,0,-1,1329,946,0,0
112,78,0,0,0,0,0,0,0,0,0,-1,1336,946,0,0
119,78,0,0,0,0,0,0,0,0,0,-1,1343,946,0,0
126,78,0,0,0,0,0,0,0,0,0,-1,1350,946,0,0
133,78,0,0,0,0,0,0,0,0,0,-1,1357,946,0,0
140,78,0,0,0,0,0,0,0,0,0,-1,1364,946,0,0
147,78,0,0,0,0,0,0,0,0,0,-1,1371,946,0,0
154,78,0,0,0,0,0,0,0,0,0,-1,1378,946,0,0
161,78,0,0,0,0,0,0,0,0,0,-1,1385,946,0,0
168,78,0,0,0,0,0,0,0,0,0,-1,1392,946,0,0
175,78,0,0,0,0,0,0,0,0,0,-1,1399,946,0,0
182,78,0,0,0,0,0,0,0,0,0,-1,1406,946,0,0
189,78,0,0,0,0,0,0,0,0,0,-1,1413,946,0,0
196,78,0,0,0,0,0,0,0,0,0,-1,1420,946,0,0
203,78,0,0,0,0,0,0,0,0,0,-1,1427,946,0,0
210,78,0,0,0,0,0,0,0,0,0,-1,1434,946,0,0
217,78,0,0,0,0,0,0,0,0,0,-1,1441,946,0,0
224,78,0,0,0,0,0,0,0,0,0,-1,1448,946,0,0
231,78,0,0,0,0,0,0,0,0,0,-1,1455,946,0,0
238,78,0,0,0,0,0,0,0,0,0,-1,1462,946,0,0
245,78,0,0,0,0,0,0,0,0,0,-1,1469,946,0,0
252,78,0,0,0,0,0,0,0,0,0,-1,1476,946,0,0
259,78,0,0,0,0,0,0,0,0,0,-1,1483,946,0,0
266,78,0,0,0,0,0,0,0,0,0,-1,1490,946,0,0
273,78,0,0,0,0,0,0,0,0,0,-1,1497,946,0,0
280,78,0,0,0,0,0,0,0,0,0,-1,1504,946,0,0
287,78,0,0,0,0,0,0,0,0,0,-1,1511,946,0,0
294,78,0,0,0,0,0,0,0,0,0,-1,1518,946,0,0
301,78,0,0,0,0,0,0,0,0,0,-1,1525,946,0,0
308,78,0,0,0,0,0,0,0,0,0,-1,1532,946,0,0
315,78,0,0,0,0,0,0,0,0,0,-1,1539,946,0,0
322,78,0,0,0,0,0,0,0,0,0,-1,1546,946,0,0
329,78,0,0,0,0,0,0,0,0,0,-1,1553,946,0,0
336,78,0,0,0,0,0,0,0,0,0,-1,1560,946,0,0
343,78,0,0,0,0,0,0,0,0,0,-1,1567,946,0,0
350,78,0,0,0,0,0,0,0,0,0,-1,1574,946,0,0
357,78,0,0,0,0,0,0,0,0,0,-1,1581,946,0,0
364,78,0,0,0,0,0,0,0,0,0,-1,1588,946,0,0
371,78,0,0,0,0,0,0,0,0,0,-1,1595,946,0,0
378,78,0,0,0,0,0,0,0,0,0,-1,1602,946,0,0
385,78,0,0,0,0,0,0,0,0,0,-1,1609,946,0,0
392,78,0,0,0,0,0,0,0,0,0,-1,1616,946,0,0
399,78,0,0,0,0,0,0,0,0,0,-1,1623,946,0,0
406,78,0,0,0,0,0,0,0,0,0,-1,1630,946,0,0
413,78,0,0,0,0,0,0,0,0,0,-1,1637,946,0,0
420,78,0,0,0,0,0,0,0,0,0,-1,1644,946,0,0
427,78,0,0,0,0,0,0,0,0,0,-1,1651,946,0,0
434,78,0,0,0,0,0,0,0,0,0,-1,1658,946,0,0
441,78,0,0,0,0,0,0,0,0,0,-1,1665,946,0,0
448,78,0,0,0,0,0,0,0,0,0,-1,1672,946,0,0
455,78,0,0,0,0,0,0,0,0,0,-1,1679,946,0,0
462,78,0,0,0,0,0,0,0,0,0,-1,1686,946,0,0
469,78,0,0,0,0,0,0,0,0,0,-1,1693,946,0,0
476,78,0,0,0,0,0,0,0,0,0,-1,1700,946,0,0
483,78,0,0,0,0,0,0,0,0,0,-1,1707,946,0,0
490,78,0,0,0,0,0,0,0,0,0,-1,1714,946,0,0
497,78,0,0,0,0,0,0,0,0,0,-1,1721,946,0,0
504,78,0,0,0,0,0,0,0,0,0,-1,1728,946,0,0
511,78,0,0,0,0,0,0,0,0,0,-1,1735,946,0,0
518,78,0,0,0,0,0,0,0,0,0,-1,1742,946,0,0
525,78,0,0,0,0,0,0,0,0,0,-1,1749,946,0,0
532,78,0,0,0,0,0,0,0,0,0,-1,1756,946,0,0
539,78,0,0,0,0,0,0,0,0,0,-1,1763,946,0,0
546,78,0,0,0,0,0,0,0,0,0,-1,1770,946,0,0
553,78,0,0,0,0,0,0,0,0,0,-1,1777,946,0,0
560,78,0,0,0,0,0,0,0,0,0,-1,1784,946,0,0
567,78,0,0,0,0,0,0,0,0,0,-1,1791,946,0,0
574,78,0,0,0,0,0,0,0,0,0,-1,1798,946,0,0
581,78,0,0,0,0,0,0,0,0,0,-1,1805,946,0,0
588,78,0,0,0,0,0,0,0,0,0,-1,1812,946,0,0
595,78,0,0,0,0,0,0,0,0,0,-1,1819,946,0,0
602,78,0,0,0,0,0,0,0,0,0,-1,1826,946,0,0
609,78,0,0,0,0,0,0,0,0,0,-1,1833,946,0,0
616,78,0,0,0,0,0,0,0,0,0,-1,1840,946,0,0
623,78,0,0,0,0,0,0,0,0,0,-1,1847,946,0,0
630,78,0,0,0,0,0,0,0,0,0,-1,1854,946,0,0
637,78,36.9366,2.49585,-0.00250139,0.00158387,0.00389932,0.00394318,-0.0048607,1.02667,0.00509211,0.0453303,1861,946,36.9367,-2.49582
644,78,36.9109,2.63763,-0.00151387,0.00104918,0.00263138,0.00269451,-0.00315919,1.012,0.00338319,0.0424249,1868,946,36.9109,-2.63761
651,78,36.8673,2.87579,-0.000868145,0.000669983,0.00169046,0.0017581,-0.00195626,0.998877,0.0021455,0.0424386,1875,946,36.8673,-2.87577
658,78,36.7424,2.88702,-0.000481537,0.000487471,0.00110187,0.00120665,-0.00120072,0.992531,0.0013899,0.0412883,1882,946,36.7424,-2.887
665,78,36.7545,2.57867,-0.000216793,0.000412529,0.000753927,0.000914824,-0.000719088,0.98309,0.000945594,0.0392883,1889,946,36.7545,-2.57866
672,78,36.8176,2.4234,-0.000300642,0.00029438,0.000661816,0.000722482,-0.000728744,0.996633,0.000837868,0.0387875,1896,946,36.8177,-2.42339
679,78,36.8962,2.28186,-0.000535411,0.000127286,0.000735569,0.000602693,-0.00101082,0.997019,0.000941442,0.0391865,1903,946,36.8963,-2.28187
686,78,36.8497,2.37988,-0.000696322,-4.2071e-05,0.00073365,0.00043408,-0.00117247,0.995113,0.000959645,0.0381476,1910,946,36.8497,-2.37988
693,78,36.8645,2.41357,-0.000840428,-0.000198052,0.000685404,0.000237688,-0.00127617,1.00451,0.000940078,0.0311798,1917,946,36.8645,-2.41358
700,78,36.8339,2.46033,-0.00104318,-0.000214749,0.000588886,9.10092e-05,-0.00134893,1.0919,0.00093111,0.0254034,1924,946,36.8339,-2.46034
707,78,36.9304,2.49158,0,0,0,0,0,0,0,-1,1931,946,36.9304,-2.49158
714,78,34.6323,3.74542,0,0,0,0,0,0,0,-1,1938,946,34.6323,-3.74542
721,78,34.7052,3.99164,-0.00194328,0.000575165,0.000369098,0.000628145,-0.00199626,1.42823,0.00158234,0.0265034,1945,946,34.7052,-3.99164
728,78,34.7478,4.32843,-0.00182967,0.00106413,0.000206496,0.00107879,-0.00184433,1.49992,0.00170685,0.0260683,1952,946,34.7478,-4.32845
735,78,34.7826,4.59631,-0.00125206,0.00176811,-7.12277e-05,0.00176979,-0.00125374,-1.54723,0.00175409,0.0189901,1959,946,34.7826,-4.59629
742,78,34.7938,4.8399,-0.000495224,0.00297019,-0.000302213,0.00299635,-0.000521383,-1.48446,0.00219213,0.0155035,1966,946,34.7938,-4.83991
749,78,34.7344,5.08868,0.000876336,0.00466853,-0.000313759,0.00469431,0.000850552,-1.4888,0.00288808,0.0141985,1973,946,34.7343,-5.08869
756,78,34.7047,5.29657,0.00305187,0.00714462,-8.46895e-05,0.00714637,0.00305011,-1.55012,0.00414067,0.0149839,1980,946,34.7047,-5.29657
763,78,34.6499,5.53442,0.00620759,0.010615,0.000701461,0.0107239,0.00609865,1.41671,0.0062109,0.0142007,1987,946,34.6499,-5.53445
770,78,34.6052,5.75586,0.0102846,0.0146205,0.00192197,0.0153498,0.00955529,1.20813,0.00895042,0.0189093,1994,946,34.6052,-5.75586
777,78,34.5555,6.02502,0.0153692,0.0195191,0.00388204,0.0218459,0.0130424,1.03083,0.0126917,0.0384848,2001,946,34.5555,-6.02503
784,78,34.5935,6.27551,0.0221864,0.0258016,0.00698124,0.0312055,0.0167826,0.912077,0.0180337,0.0473612,2008,946,34.5935,-6.27553
791,78,34.4719,6.34509,0,0,0,0,0,0,0,-1,2015,946,34.4719,-6.3451
798,78,34.0901,5.82428,0,0,0,0,0,0,0,-1,2022,946,34.0901,-5.82431
805,78,33.603,5.29944,0,0,0,0,0,0,0,-1,2029,946,33.6031,-5.29942
812,78,0,0,0,0,0,0,0,0,0,-1,2036,946,0,0
-700,71,0,0,0,0,0,0,0,0,0,-1,524,953,0,0
-693,71,0,0,0,0,0,0,0,0,0,-1,531,953,0,0
-686,71,-27.5402,-0.573669,0.0675646,0.0431357,0.0459312,0.102878,0.00782263,0.655441,0.066132,0.0402334,538,953,-27.5402,0.573689
-679,71,-27.0766,0.354919,0.0596967,0.0476065,0.0386445,0.092766,0.0145371,0.707813,0.0576129,0.046015,545,953,-27.0766,-0.354925
-672,71,-26.7232,1.3302,0.0509449,0.0469119,0.0321909,0.0811824,0.0166744,0.754118,0.0495085,0.0448852,552,953,-26.7232,-1.33022
-665,71,-26.7454,3.12054,0,0,0,0,0,0,0,-1,559,953,-26.7453,-3.12057
-658,71,-26.5945,3.35352,0,0,0,0,0,0,0,-1,566,953,-26.5945,-3.35349
-651,71,-25.7474,2.9256,0,0,0,0,0,0,0,-1,573,953,-25.7474,-2.9256
-644,71,-25.6415,3.27368,0.0191574,0.0258983,0.0137799,0.0367139,0.00834183,0.905339,0.0222235,0.0324797,580,953,-25.6415,-3.27369
-637,71,-25.744,3.02441,0.0131732,0.0203132,0.0106518,0.0279773,0.00550903,0.947093,0.0171134,0.0147791,587,953,-25.7439,-3.02443
-630,71,-25.8196,2.79181,0.0074243,0.0167263,0.00757005,0.02096,0.00319062,1.06087,0.0130405,0.0132743,594,953,-25.8196,-2.79182
-623,71,-25.8557,2.56799,0.00245186,0.0126363,0.00495624,0.0146501,0.000438099,1.18486,0.00962401,0.0130272,601,953,-25.8557,-2.56796
-616,71,-25.8714,2.3255,-0.00101649,0.00677857,0.00277518,0.00766564,-0.00190355,1.26142,0.00584912,0.013073,608,953,-25.8714,-2.3255
-609,71,-25.8293,2.15607,-0.00340506,0.00343526,0.00115681,0.0036256,-0.0035954,1.40772,0.00416906,0.0143968,615,953,-25.8293,-2.15609
-602,71,-25.7908,1.9364,-0.0053638,0.00236791,-5.89304e-05,0.00236836,-0.00536425,-1.56317,0.00457475,0.015826,622,953,-25.7908,-1.93637
-595,71,-25.8058,1.71497,-0.00670934,0.00151404,-0.000890952,0.00160946,-0.00680476,-1.4641,0.00515739,0.0163337,629,953,-25.8058,-1.71495
-588,71,-25.7936,1.53717,-0.00740193,0.00116817,-0.00147735,0.00141569,-0.00764945,-1.40479,0.00563117,0.0185588,636,953,-25.7936,-1.53718
-581,71,-26.0009,1.21155,-0.00773241,0.00121026,-0.0016532,0.0015061,-0.00802824,-1.39372,0.00591842,0.0315206,643,953,-26.0009,-1.21153
-574,71,-26.5998,0.863525,-0.0076716,0.00123512,-0.00162513,0.00152238,-0.00795886,-1.39584,0.00587943,0.0379567,650,953,-26.5998,-0.863511
-567,71,-26.8759,0.596558,-0.00743111,0.00156644,-0.00149802,0.00180929,-0.00767397,-1.41008,0.00581369,0.0214659,657,953,-26.8759,-0.596538
-560,71,-26.8751,0.651978,-0.00684204,0.00191686,-0.0012213,0.00208396,-0.00700915,-1.43482,0.00550062,0.0279848,664,953,-26.8751,-0.652006
-553,71,-26.8182,0.781555,-0.00577699,0.00239223,-0.000755919,0.00246159,-0.00584635,-1.4793,0.0049275,0.0385451,671,953,-26.8183,-0.781535
-546,71,-26.8383,0.955688,-0.00417606,0.00290097,-0.000145588,0.00290396,-0.00417905,-1.55024,0.00411141,0.0402168,678,953,-26.8383,-0.955667
-539,71,-26.8627,0.813904,-0.00207692,0.0033373,0.000558954,0.0033944,-0.00213402,1.46899,0.00321937,0.0410096,685,953,-26.8628,-0.81391
-532,71,-26.8638,0.721863,0.000369503,0.00366963,0.00109406,0.00399938,3.97488e-05,1.27805,0.0026531,0.0436168,692,953,-26.8638,-0.721873
-525,71,-26.8138,0.785339,0.00167179,0.00390489,0.00101657,0.00429834,0.00127834,1.20152,0.00254865,0.0439483,699,953,-26.8138,-0.785317
-518,71,0,0,0,0,0,0,0,0,0,-1,706,953,0,0
-511,71,0,0,0,0,0,0,0,0,0,-1,713,953,0,0
-504,71,0,0,0,0,0,0,0,0,0,-1,720,953,0,0
-497,71,0,0,0,0,0,0,0,0,0,-1,727,953,0,0
-490,71,0,0,0,0,0,0,0,0,0,-1,734,953,0,0
-483,71,0,0,0,0,0,0,0,0,0,-1,741,953,0,0
-476,71,0,0,0,0,0,0,0,0,0,-1,748,953,0,0
-469,71,0,0,0,0,0,0,0,0,0,-1,755,953,0,0
-462,71,0,0,0,0,0,0,0,0,0,-1,762,953,0,0
-455,71,0,0,0,0,0,0,0,0,0,-1,769,953,0,0
-448,71,0,0,0,0,0,0,0,0,0,-1,776,953,0,0
-441,71,0,0,0,0,0,0,0,0,0,-1,783,953,0,0
-434,71,0,0,0,0,0,0,0,0,0,-1,790,953,0,0
-427,71,0,0,0,0,0,0,0,0,0,-1,797,953,0,0
-420,71,0,0,0,0,0,0,0,0,0,-1,804,953,0,0
-413,71,0,0,0,0,0,0,0,0,0,-1,811,953,0,0
-406,71,0,0,0,0,0,0,0,0,0,-1,818,953,0,0
-399,71,0,0,0,0,0,0,0,0,0,-1,825,953,0,0
-392,71,0,0,0,0,0,0,0,0,0,-1,832,953,0,0
-385,71,0,0,0,0,0,0,0,0,0,-1,839,953,0,0
-378,71,0,0,0,0,0,0,0,0,0,-1,846,953,0,0
-371,71,0,0,0,0,0,0,0,0,0,-1,853,953,0,0
-364,71,0,0,0,0,0,0,0,0,0,-1,860,953,0,0
-357,71,0,0,0,0,0,0,0,0,0,-1,867,953,0,0
-350,71,0,0,0,0,0,0,0,0,0,-1,874,953,0,0
-343,71,0,0,0,0,0,0,0,0,0,-1,881,953,0,0
-336,71,0,0,0,0,0,0,0,0,0,-1,888,953,0,0
-329,71,0,0,0,0,0,0,0,0,0,-1,895,953,0,0
-322,71,0,0,0,0,0,0,0,0,0,-1,902,953,0,0
-315,71,0,0,0,0,0,0,0,0,0,-1,909,953,0,0
-308,71,0,0,0,0,0,0,0,0,0,-1,916,953,0,0
-301,71,0,0,0,0,0,0,0,0,0,-1,923,953,0,0
-294,71,0,0,0,0,0,0,0,0,0,-1,930,953,0,0
-287,71,0,0,0,0,0,0,0,0,0,-1,937,953,0,0
-280,71,0,0,0,0,0,0,0,0,0,-1,944,953,0,0
-273,71,0,0,0,0,0,0,0,0,0,-1,951,953,0,0
-266,71,0,0,0,0,0,0,0,0,0,-1,958,953,0,0
-259,71,0,0,0,0,0,0,0,0,0,-1,965,953,0,0
-252,71,0,0,0,0,0,0,0,0,0,-1,972,953,0,0
-245,71,0,0,0,0,0,0,0,0,0,-1,979,953,0,0
-238,71,0,0,0,0,0,0,0,0,0,-1,986,953,0,0
-231,71,0,0,0,0,0,0,0,0,0,-1,993,953,0,0
-224,71,0,0,0,0,0,0,0,0,0,-1,1000,953,0,0
-217,71,0,0,0,0,0,0,0,0,0,-1,1007,953,0,0
-210,71,0,0,0,0,0,0,0,0,0,-1,1014,953,0,0
-203,71,0,0,0,0,0,0,0,0,0,-1,1021,953,0,0
-196,71,0,0,0,0,0,0,0,0,0,-1,1028,953,0,0
-189,71,0,0,0,0,0,0,0,0,0,-1,1035,953,0,0
-182,71,0,0,0,0,0,0,0,0,0,-1,1042,953,0,0
-175,71,0,0,0,0,0,0,0,0,0,-1,1049,953,0,0
-168,71,0,0,0,0,0,0,0,0,0,-1,1056,953,0,0
-161,71,0,0,0,0,0,0,0,0,0,-1,1063,953,0,0
-154,71,0,0,0,0,0,0,0,0,0,-1,1070,953,0,0
-147,71,0,0,0,0,0,0,0,0,0,-1,1077,953,0,0
-140,71,0,0,0,0,0,0,0,0,0,-1,1084,953,0,0
-133,71,0,0,0,0,0,0,0,0,0,-1,1091,953,0,0
-126,71,0,0,0,0,0,0,0,0,0,-1,1098,953,0,0
-119,71,0,0,0,0,0,0,0,0,0,-1,1105,953,0,0
-112,71,0,0,0,0,0,0,0,0,0,-1,1112,953,0,0
-105,71,0,0,0,0,0,0,0,0,0,-1,1119,953,0,0
-98,71,0,0,0,0,0,0,0,0,0,-1,1126,953,0,0
-91,71,0,0,0,0,0,0,0,0,0,-1,1133,953,0,0
-84,71,0,0,0,0,0,0,0,0,0,-1,1140,953,0,0
-77,71,0,0,0,0,0,0,0,0,0,-1,1147,953,0,0
-70,71,0,0,0,0,0,0,0,0,0,-1,1154,953,0,0
-63,71,0,0,0,0,0,0,0,0,0,-1,1161,953,0,0
-56,71,0,0,0,0,0,0,0,0,0,-1,1168,953,0,0
-49,71,0,0,0,0,0,0,0,0,0,-1,1175,953,0,0
-42,71,0,0,0,0,0,0,0,0,0,-1,1182,953,0,0
-35,71,0,0,0,0,0,0,0,0,0,-1,1189,953,0,0
-28,71,0,0,0,0,0,0,0,0,0,-1,1196,953,0,0
-21,71,0,0,0,0,0,0,0,0,0,-1,1203,953,0,0
-14,71,0,0,0,0,0,0,0,0,0,-1,1210,953,0,0
-7,71,0,0,0,0,0,0,0,0,0,-1,1217,953,0,0
0,71,0,0,0,0,0,0,0,0,0,-1,1224,953,0,0
7,71,0,0,0,0,0,0,0,0,0,-1,1231,953,0,0
14,71,0,0,0,0,0,0,0,0,0,-1,1238,953,0,0
21,71,0,0,0,0,0,0,0,0,0,-1,1245,953,0,0
28,71,0,0,0,0,0,0,0,0,0,-1,1252,953,0,0
35,71,0,0,0,0,0,0,0,0,0,-1,1259,953,0,0
42,71,0,0,0,0,0,0,0,0,0,-1,1266,953,0,0
49,71,0,0,0,0,0,0,0,0,0,-1,1273,953,0,0
56,71,0,0,0,0,0,0,0,0,0,-1,1280,953,0,0
63,71,0,0,0,0,0,0,0,0,0,-1,1287,953,0,0
70,71,0,0,0,0,0,0,0,0,0,-1,1294,953,0,0
77,71,0,0,0,0,0,0,0,0,0,-1,1301,953,0,0
84,71,0,0,0,0,0,0,0,0,0,-1,1308,953,0,0
91,71,0,0,0,0,0,0,0,0,0,-1,1315,953,0,0
98,71,0,0,0,0,0,0,0,0,0,-1,1322,953,0,0
105,71,0,0,0,0,0,0,0,0,0,-1,1329,953,0,0
112,71,0,0,0,0,0,0,0,0,0,-1,1336,953,0,0
119,71,0,0,0,0,0,0,0,0,0,-1,1343,953,0,0
126,71,0,0,0,0,0,0,0,0,0,-1,1350,953,0,0
133,71,0,0,0,0,0,0,0,0,0,-1,1357,953,0,0
140,71,0,0,0,0,0,0,0,0,0,-1,1364,953,0,0
147,71,0,0,0,0,0,0,0,0,0,-1,1371,953,0,0
154,71,0,0,0,0,0,0,0,0,0,-1,1378,953,0,0
161,71,0,0,0,0,0,0,0,0,0,-1,1385,953,0,0
168,71,0,0,0,0,0,0,0,0,0,-1,1392,953,0,0
175,71,0,0,0,0,0,0,0,0,0,-1,1399,953,0,0
182,71,0,0,0,0,0,0,0,0,0,-1,1406,953,0,0
189,71,0,0,0,0,0,0,0,0,0,-1,1413,953,0,0
196,71,0,0,0,0,0,0,0,0,0,-1,1420,953,0,0
203,71,0,0,0,0,0,0,0,0,0,-1,1427,953,0,0
210,71,0,0,0,0,0,0,0,0,0,-1,1434,953,0,0
217,71,0,0,0,0,0,0,0,0,0,-1,1441,953,0,0
224,71,0,0,0,0,0,0,0,0,0,-1,1448,953,0,0
231,71,0,0,0,0,0,0,0,0,0,-1,1455,953,0,0
238,71,0,0,0,0,0,0,0,0,0,-1,1462,953,0,0
245,71,0,0,0,0,0,0,0,0,0,-1,1469,953,0,0
252,71,0,0,0,0,0,0,0,0,0,-1,1476,953,0,0
259,71,0,0,0,0,0,0,0,0,0,-1,1483,953,0,0
266,71,0,0,0,0,0,0,0,0,0,-1,1490,953,0,0
273,71,0,0,0,0,0,0,0,0,0,-1,1497,953,0,0
280,71,0,0,0,0,0,0,0,0,0,-1,1504,953,0,0
287,71,0,0,0,0,0,0,0,0,0,-1,1511,953,0,0
294,71,0,0,0,0,0,0,0,0,0,-1,1518,953,0,0
301,71,0,0,0,0,0,0,0,0,0,-1,1525,953,0,0
308,71,0,0,0,0,0,0,0,0,0,-1,1532,953,0,0
315,71,0,0,0,0,0,0,0,0,0,-1,1539,953,0,0
322,71,0,0,0,0,0,0,0,0,0,-1,1546,953,0,0
329,71,0,0,0,0,0,0,0,0,0,-1,1553,953,0,0
336,71,0,0,0,0,0,0,0,0,0,-1,1560,953,0,0
343,71,0,0,0,0,0,0,0,0,0,-1,1567,953,0,0
350,71,0,0,0,0,0,0,0,0,0,-1,1574,953,0,0
357,71,0,0,0,0,0,0,0,0,0,-1,1581,953,0,0
364,71,0,0,0,0,0,0,0,0,0,-1,1588,953,0,0
371,71,0,0,0,0,0,0,0,0,0,-1,1595,953,0,0
378,71,0,0,0,0,0,0,0,0,0,-1,1602,953,0,0
385,71,0,0,0,0,0,0,0,0,0,-1,1609,953,0,0
392,71,0,0,0,0,0,0,0,0,0,-1,1616,953,0,0
399,71,0,0,0,0,0,0,0,0,0,-1,1623,953,0,0
406,71,0,0,0,0,0,0,0,0,0,-1,1630,953,0,0
413,71,0,0,0,0,0,0,0,0,0,-1,1637,953,0,0
420,71,0,0,0,0,0,0,0,0,0,-1,1644,953,0,0
427,71,0,0,0,0,0,0,0,0,0,-1,1651,953,0,0
434,71,0,0,0,0,0,0,0,0,0,-1,1658,953,0,0
441,71,0,0,0,0,0,0,0,0,0,-1,1665,953,0,0
448,71,0,0,0,0,0,0,0,0,0,-1,1672,953,0,0
455,71,0,0,0,0,0,0,0,0,0,-1,1679,953,0,0
462,71,0,0,0,0,0,0,0,0,0,-1,1686,953,0,0
469,71,0,0,0,0,0,0,0,0,0,-1,1693,953,0,0
476,71,0,0,0,0,0,0,0,0,0,-1,1700,953,0,0
483,71,0,0,0,0,0,0,0,0,0,-1,1707,953,0,0
490,71,0,0,0,0,0,0,0,0,0,-1,1714,953,0,0
497,71,0,0,0,0,0,0,0,0,0,-1,1721,953,0,0
504,71,0,0,0,0,0,0,0,0,0,-1,1728,953,0,0
511,71,0,0,0,0,0,0,0,0,0,-1,1735,953,0,0
518,71,0,0,0,0,0,0,0,0,0,-1,1742,953,0,0
525,71,0,0,0,0,0,0,0,0,0,-1,1749,953,0,0
532,71,0,0,0,0,0,0,0,0,0,-1,1756,953,0,0
539,71,0,0,0,0,0,0,0,0,0,-1,1763,953,0,0
546,71,0,0,0,0,0,0,0,0,0,-1,1770,953,0,0
553,71,0,0,0,0,0,0,0,0,0,-1,1777,953,0,0
560,71,0,0,0,0,0,0,0,0,0,-1,1784,953,0,0
567,71,0,0,0,0,0,0,0,0,0,-1,1791,953,0,0
574,71,0,0,0,0,0,0,0,0,0,-1,1798,953,0,0
581,71,0,0,0,0,0,0,0,0,0,-1,1805,953,0,0
588,71,0,0,0,0,0,0,0,0,0,-1,1812,953,0,0
595,71,0,0,0,0,0,0,0,0,0,-1,1819,953,0,0
602,71,0,0,0,0,0,0,0,0,0,-1,1826,953,0,0
609,71,0,0,0,0,0,0,0,0,0,-1,1833,953,0,0
616,71,0,0,0,0,0,0,0,0,0,-1,1840,953,0,0
623,71,0,0,0,0,0,0,0,0,0,-1,1847,953,0,0
630,71,0,0,0,0,0,0,0,0,0,-1,1854,953,0,0
637,71,36.8826,2.43372,-0.00281194,0.00188827,0.00480354,0.00488579,-0.00580945,1.0129,0.00618257,0.0404524,1861,953,36.8826,-2.43372
644,71,36.8198,2.49005,-0.0015877,0.00137924,0.00324722,0.0034658,-0.00367426,0.999663,0.0041229,0.041327,1868,953,36.8199,-2.49002
651,71,36.7881,2.42767,-0.000825794,0.000981969,0.00211389,0.00237711,-0.00222094,0.98743,0.0026552,0.0377669,1875,953,36.7881,-2.42767
658,71,36.8062,2.52179,-0.000389146,0.000750603,0.00142154,0.00171224,-0.00135079,0.976032,0.00177254,0.037258,1882,953,36.8061,-2.52178
665,71,36.7859,2.51385,-0.000141224,0.000694033,0.00104513,0.00140189,-0.000849081,0.975476,0.0013126,0.0380042,1889,953,36.7859,-2.51383
672,71,36.8894,2.34851,-0.000284773,0.000617408,0.000949164,0.00121722,-0.000884585,1.00722,0.00121853,0.0395271,1896,953,36.8894,-2.34849
679,71,36.8822,2.52112,-0.000615082,0.000507453,0.001073,0.00115712,-0.00126474,1.02637,0.00139872,0.0412235,1903,953,36.8822,-2.52111
686,71,36.8748,2.47394,-0.0008598,0.00037086,0.00112381,0.00103677,-0.00152571,1.03587,0.0014884,0.0391373,1910,953,36.8748,-2.47395
693,71,36.917,2.33887,-0.00106691,0.000237421,0.00110449,0.000867914,-0.00169741,1.05209,0.00150668,0.0339492,1917,953,36.917,-2.33887
700,71,36.842,2.37421,-0.00130489,0.000212363,0.00102446,0.000728504,-0.00182104,1.1041,0.00151636,0.0315789,1924,953,36.8421,-2.37422
707,71,36.8951,2.4646,0,0,0,0,0,0,0,-1,1931,953,36.8951,-2.46458
714,71,35.2666,3.85687,0,0,0,0,0,0,0,-1,1938,953,35.2666,-3.85685
721,71,35.1117,4.06281,-0.00241538,0.000961137,0.00080287,0.00114232,-0.00259656,1.34884,0.0022124,0.0380304,1945,953,35.1117,-4.06283
728,71,34.9962,4.37512,-0.00235218,0.00147233,0.000656928,0.00158202,-0.00246188,1.40534,0.00235309,0.0225128,1952,953,34.9963,-4.37512
735,71,35.0015,4.62421,-0.00182924,0.00213615,0.000354383,0.00216757,-0.00186067,1.48236,0.00232795,0.0161352,1959,953,35.0014,-4.62421
742,71,35.0222,4.84241,-0.00117239,0.0033184,7.97739e-05,0.00331981,-0.0011738,1.55304,0.0026912,0.0161564,1966,953,35.0222,-4.84242
749,71,35.0203,5.07043,0.000145042,0.00496927,0.000129504,0.00497274,0.000141568,1.54398,0.00326899,0.0169463,1973,953,35.0202,-5.07043
756,71,34.9912,5.28192,0.00222277,0.00740409,0.000499545,0.00745181,0.00217504,1.47555,0.00442479,0.0163067,1980,953,34.9912,-5.2819
763,71,34.949,5.52258,0.00529187,0.0109353,0.00149561,0.0113072,0.00492001,1.3271,0.00654649,0.0169865,1987,953,34.9489,-5.52258
770,71,34.8185,5.68195,0.00936671,0.0151203,0.00308551,0.0164621,0.00802493,1.1606,0.00950536,0.0198738,1994,953,34.8185,-5.68192
777,71,34.7896,5.94568,0.014402,0.0201772,0.00549432,0.0234965,0.0110826,1.02734,0.013573,0.0387799,2001,953,34.7896,-5.94566
784,71,35.2753,5.78314,0.0210666,0.0266163,0.00921454,0.0334648,0.0142182,0.931649,0.0193935,0.0468469,2008,953,35.2753,-5.78316
791,71,35.5645,5.74622,0,0,0,0,0,0,0,-1,2015,953,35.5644,-5.74622
798,71,33.4568,4.65076,0,0,0,0,0,0,0,-1,2022,953,33.4568,-4.65078
805,71,32.8438,4.09216,0,0,0,0,0,0,0,-1,2029,953,32.8437,-4.09216
812,71,0,0,0,0,0,0,0,0,0,-1,2036,953,0,0
-700,64,0,0,0,0,0,0,0,0,0,-1,524,960,0,0
-693,64,0,0,0,0,0,0,0,0,0,-1,531,960,0,0
-686,64,-27.9503,-0.210876,0.0799959,0.0285184,0.0470635,0.107899,0.000615194,0.53517,0.0717285,0.0450353,538,960,-27.9503,0.210879
-679,64,-27.6865,0.382874,0.0720254,0.0352616,0.0388232,0.0965985,0.0106884,0.564296,0.0611484,0.0420877,545,960,-27.6865,-0.38289
-672,64,-27.5264,2.34857,0,0,0,0,0,0,0,-1,552,960,-27.5265,-2.34855
-665,64,-27.2673,2.66827,0.0519152,0.0357731,0.0259595,0.0710294,0.0166589,0.634681,0.0428922,0.044285,559,960,-27.2673,-2.66829
-658,64,-26.9827,2.91394,0.0418041,0.0326232,0.0209901,0.0586999,0.0157275,0.677745,0.0350861,0.042696,566,960,-26.9827,-2.91396
-651,64,-26.5726,2.97131,0.0324027,0.028399,0.0168205,0.0473401,0.0134616,0.726171,0.0281663,0.0400942,573,960,-26.5726,-2.97133
-644,64,-26.117,3.07721,0.0240932,0.0236802,0.0132872,0.0371754,0.0105979,0.777629,0.0221143,0.0325528,580,960,-26.117,-3.07722
-637,64,-26.0124,2.91968,0.0167889,0.019172,0.0101365,0.0281868,0.00777413,0.843905,0.0168101,0.016989,587,960,-26.0124,-2.91969
-630,64,-26.0429,2.73615,0.00995186,0.0163524,0.00703746,0.0208831,0.00542117,0.998795,0.0125128,0.0133793,594,960,-26.0429,-2.73613
-623,64,-26.059,2.54877,0.0041395,0.012866,0.00432555,0.0146467,0.00235878,1.18027,0.0090809,0.0134897,601,960,-26.0589,-2.54875
-616,64,-26.0856,2.35132,-0.000164307,0.00756039,0.00216185,0.00812425,-0.000728166,1.31566,0.00567449,0.0168601,608,960,-26.0855,-2.35129
-609,64,-26.0471,2.17767,-0.00294929,0.00426098,0.000377249,0.00428067,-0.00296898,1.51867,0.00420836,0.0170378,615,960,-26.0471,-2.17768
-602,64,-26.0134,1.9776,-0.00483772,0.00304363,-0.000971932,0.00316172,-0.00495581,-1.44989,0.00472466,0.0165815,622,960,-26.0134,-1.97763
-595,64,-26.0379,1.77301,-0.00612416,0.00210008,-0.00194604,0.00253731,-0.0065614,-1.34979,0.00542169,0.0172544,629,960,-26.0379,-1.77299
-588,64,-25.8251,1.79242,0,0,0,0,0,0,0,-1,636,960,-25.8251,-1.79239
-581,64,-26.2733,1.28363,-0.00716799,0.00164451,-0.00275452,0.00243465,-0.00795813,-1.29145,0.00627639,0.0378456,643,960,-26.2733,-1.28366
-574,64,-26.7365,0.934937,-0.00713286,0.00158502,-0.00270505,0.00235616,-0.00790399,-1.29309,0.00620565,0.0382605,650,960,-26.7365,-0.934933
-567,64,-26.832,0.609497,-0.00692691,0.00181596,-0.00247753,0.00246922,-0.00758017,-1.31299,0.00604697,0.0243898,657,960,-26.8319,-0.609515
-560,64,-26.8813,0.592651,-0.00638079,0.00208116,-0.00201216,0.00253526,-0.00683489,-1.34884,0.00559649,0.0334577,664,960,-26.8813,-0.592639
-553,64,-26.8095,0.512878,-0.00535398,0.00241075,-0.00133012,0.00263228,-0.00557551,-1.40576,0.00483926,0.0384378,671,960,-26.8095,-0.512889
-546,64,-26.8153,0.867981,-0.00379358,0.00272764,-0.000457125,0.00275953,-0.00382547,-1.50115,0.00381842,0.0394889,678,960,-26.8153,-0.867985
-539,64,-26.8426,0.755005,-0.00173172,0.00292487,0.000525412,0.00298342,-0.00179026,1.45982,0.00278463,0.0415029,685,960,-26.8426,-0.75503
-532,64,-26.8699,0.490662,0.000665974,0.00306581,0.00124388,0.0035942,0.000137584,1.1691,0.00235161,0.0423752,692,960,-26.87,-0.490635
-525,64,-26.8821,0.75061,0.00174058,0.00317903,0.00125547,0.00390669,0.00101291,1.04552,0.00234104,0.0444258,699,960,-26.8821,-0.750637
-518,64,0,0,0,0,0,0,0,0,0,-1,706,960,0,0
-511,64,0,0,0,0,0,0,0,0,0,-1,713,960,0,0
-504,64,0,0,0,0,0,0,0,0,0,-1,720,960,0,0
-497,64,0,0,0,0,0,0,0,0,0,-1,727,960,0,0
-490,64,0,0,0,0,0,0,0,0,0,-1,734,960,0,0
-483,64,0,0,0,0,0,0,0,0,0,-1,741,960,0,0
-476,64,0,0,0,0,0,0,0,0,0,-1,748,960,0,0
-469,64,0,0,0,0,0,0,0,0,0,-1,755,960,0,0
-462,64,0,0,0,0,0,0,0,0,0,-1,762,960,0,0
-455,64,0,0,0,0,0,0,0,0,0,-1,769,960,0,0
-448,64,0,0,0,0,0,0,0,0,0,-1,776,960,0,0
-441,64,0,0,0,0,0,0,0,0,0,-1,783,960,0,0
-434,64,0,0,0,0,0,0,0,0,0,-1,790,960,0,0
-427,64,0,0,0,0,0,0,0,0,0,-1,797,960,0,0
-420,64,0,0,0,0,0,0,0,0,0,-1,804,960,0,0
-413,64,0,0,0,0,0,0,0,0,0,-1,811,960,0,0
-406,64,0,0,0,0,0,0,0,0,0,-1,818,960,0,0
-399,64,0,0,0,0,0,0,0,0,0,-1,825,960,0,0
-392,64,0,0,0,0,0,0,0,0,0,-1,832,960,0,0
-385,64,0,0,0,0,0,0,0,0,0,-1,839,960,0,0
-378,64,0,0,0,0,0,0,0,0,0,-1,846,960,0,0
-371,64,0,0,0,0,0,0,0,0,0,-1,853,960,0,0
-364,64,0,0,0,0,0,0,0,0,0,-1,860,960,0,0
-357,64,0,0,0,0,0,0,0,0,0,-1,867,960,0,0
-350,64,0,0,0,0,0,0,0,0,0,-1,874,960,0,0
-343,64,0,0,0,0,0,0,0,0,0,-1,881,960,0,0
-336,64,0,0,0,0,0,0,0,0,0,-1,888,960,0,0
-329,64,0,0,0,0,0,0,0,0,0,-1,895,960,0,0
-322,64,0,0,0,0,0,0,0,0,0,-1,902,960,0,0
-315,64,0,0,0,0,0,0,0,0,0,-1,909,960,0,0
-308,64,0,0,0,0,0,0,0,0,0,-1,916,960,0,0
-301,64,0,0,0,0,0,0,0,0,0,-1,923,960,0,0
-294,64,0,0,0,0,0,0,0,0,0,-1,930,960,0,0
-287,64,0,0,0,0,0,0,0,0,0,-1,937,960,0,0
-280,64,0,0,0,0,0,0,0,0,0,-1,944,960,0,0
-273,64,0,0,0,0,0,0,0,0,0,-1,951,960,0,0
-266,64,0,0,0,0,0,0,0,0,0,-1,958,960,0,0
-259,64,0,0,0,0,0,0,0,0,0,-1,965,960,0,0
-252,64,0,0,0,0,0,0,0,0,0,-1,972,960,0,0
-245,64,0,0,0,0,0,0,0,0,0,-1,979,960,0,0
-238,64,0,0,0,0,0,0,0,0,0,-1,986,960,0,0
-231,64,0,0,0,0,0,0,0,0,0,-1,993,960,0,0
-224,64,0,0,0,0,0,0,0,0,0,-1,1000,960,0,0
-217,64,0,0,0,0,0,0,0,0,0,-1,1007,960,0,0
-210,64,0,0,0,0,0,0,0,0,0,-1,1014,960,0,0
-203,64,0,0,0,0,0,0,0,0,0,-1,1021,960,0,0
-196,64,0,0,0,0,0,0,0,0,0,-1,1028,960,0,0
-189,64,0,0,0,0,0,0,0,0,0,-1,1035,960,0,0
-182,64,0,0,0,0,0,0,0,0,0,-1,1042,960,0,0
-175,64,0,0,0,0,0,0,0,0,0,-1,1049,960,0,0
-168,64,0,0,0,0,0,0,0,0,0,-1,1056,960,0,0
-161,64,0,0,0,0,0,0,0,0,0,-1,1063,960,0,0
-154,64,0,0,0,0,0,0,0,0,0,-1,1070,960,0,0
-147,64,0,0,0,0,0,0,0,0,0,-1,1077,960,0,0
-140,64,0,0,0,0,0,0,0,0,0,-1,1084,960,0,0
-133,64,0,0,0,0,0,0,0,0,0,-1,1091,960,0,0
-126,64,0,0,0,0,0,0,0,0,0,-1,1098,960,0,0
-119,64,0,0,0,0,0,0,0,0,0,-1,1105,960,0,0
-112,64,0,0,0,0,0,0,0,0,0,-1,1112,960,0,0
-105,64,0,0,0,0,0,0,0,0,0,-1,1119,960,0,0
-98,64,0,0,0,0,0,0,0,0,0,-1,1126,960,0,0
-91,64,0,0,0,0,0,0,0,0,0,-1,1133,960,0,0
-84,64,0,0,0,0,0,0,0,0,0,-1,1140,960,0,0
-77,64,0,0,0,0,0,0,0,0,0,-1,1147,960,0,0
-70,64,0,0,0,0,0,0,0,0,0,-1,1154,960,0,0
-63,64,0,0,0,0,0,0,0,0,0,-1,1161,960,0,0
-56,64,0,0,0,0,0,0,0,0,0,-1,1168,960,0,0
-49,64,0,0,0,0,0,0,0,0,0,-1,1175,960,0,0
-42,64,0,0,0,0,0,0,0,0,0,-1,1182,960,0,0
-35,64,0,0,0,0,0,0,0,0,0,-1,1189,960,0,0
-28,64,0,0,0,0,0,0,0,0,0,-1,1196,960,0,0
-21,64,0,0,0,0,0,0,0,0,0,-1,1203,960,0,0
-14,64,0,0,0,0,0,0,0,0,0,-1,1210,960,0,0
-7,64,0,0,0,0,0,0,0,0,0,-1,1217,960,0,0
0,64,0,0,0,0,0,0,0,0,0,-1,1224,960,0,0
7,64,0,0,0,0,0,0,0,0,0,-1,1231,960,0,0
14,64,0,0,0,0,0,0,0,0,0,-1,1238,960,0,0
21,64,0,0,0,0,0,0,0,0,0,-1,1245,960,0,0
28,64,0,0,0,0,0,0,0,0,0,-1,1252,960,0,0
35,64,0,0,0,0,0,0,0,0,0,-1,1259,960,0,0
42,64,0,0,0,0,0,0,0,0,0,-1,1266,960,0,0
49,64,0,0,0,0,0,0,0,0,0,-1,1273,960,0,0
56,64,0,0,0,0,0,0,0,0,0,-1,1280,960,0,0
63,64,0,0,0,0,0,0,0,0,0,-1,1287,960,0,0
70,64,0,0,0,0,0,0,0,0,0,-1,1294,960,0,0
77,64,0,0,0,0,0,0,0,0,0,-1,1301,960,0,0
84,64,0,0,0,0,0,0,0,0,0,-1,1308,960,0,0
91,64,0,0,0,0,0,0,0,0,0,-1,1315,960,0,0
98,64,0,0,0,0,0,0,0,0,0,-1,1322,960,0,0
105,64,0,0,0,0,0,0,0,0,0,-1,1329,960,0,0
112,64,0,0,0,0,0,0,0,0,0,-1,1336,960,0,0
119,64,0,0,0,0,0,0,0,0,0,-1,1343,960,0,0
126,64,0,0,0,0,0,0,0,0,0,-1,1350,960,0,0
133,64,0,0,0,0,0,0,0,0,0,-1,1357,960,0,0
140,64,0,0,0,0,0,0,0,0,0,-1,1364,960,0,0
147,64,0,0,0,0,0,0,0,0,0,-1,1371,960,0,0
154,64,0,0,0,0,0,0,0,0,0,-1,1378,960,0,0
161,64,0,0,0,0,0,0,0,0,0,-1,1385,960,0,0
168,64,0,0,0,0,0,0,0,0,0,-1,1392,960,0,0
175,64,0,0,0,0,0,0,0,0,0,-1,1399,960,0,0
182,64,0,0,0,0,0,0,0,0,0,-1,1406,960,0,0
189,64,0,0,0,0,0,0,0,0,0,-1,1413,960,0,0
196,64,0,0,0,0,0,0,0,0,0,-1,1420,960,0,0
203,64,0,0,0,0,0,0,0,0,0,-1,1427,960,0,0
210,64,0,0,0,0,0,0,0,0,0,-1,1434,960,0,0
217,64,0,0,0,0,0,0,0,0,0,-1,1441,960,0,0
224,64,0,0,0,0,0,0,0,0,0,-1,1448,960,0,0
231,64,0,0,0,0,0,0,0,0,0,-1,1455,960,0,0
238,64,0,0,0,0,0,0,0,0,0,-1,1462,960,0,0
245,64,0,0,0,0,0,0,0,0,0,-1,1469,960,0,0
252,64,0,0,0,0,0,0,0,0,0,-1,1476,960,0,0
259,64,0,0,0,0,0,0,0,0,0,-1,1483,960,0,0
266,64,0,0,0,0,0,0,0,0,0,-1,1490,960,0,0
273,64,0,0,0,0,0,0,0,0,0,-1,1497,960,0,0
280,64,0,0,0,0,0,0,0,0,0,-1,1504,960,0,0
287,64,0,0,0,0,0,0,0,0,0,-1,1511,960,0,0
294,64,0,0,0,0,0,0,0,0,0,-1,1518,960,0,0
301,64,0,0,0,0,0,0,0,0,0,-1,1525,960,0,0
308,64,0,0,0,0,0,0,0,0,0,-1,1532,960,0,0
315,64,0,0,0,0,0,0,0,0,0,-1,1539,960,0,0
322,64,0,0,0,0,0,0,0,0,0,-1,1546,960,0,0
329,64,0,0,0,0,0,0,0,0,0,-1,1553,960,0,0
336,64,0,0,0,0,0,0,0,0,0,-1,1560,960,0,0
343,64,0,0,0,0,0,0,0,0,0,-1,1567,960,0,0
350,64,0,0,0,0,0,0,0,0,0,-1,1574,960,0,0
357,64,0,0,0,0,0,0,0,0,0,-1,1581,960,0,0
364,64,0,0,0,0,0,0,0,0,0,-1,1588,960,0,0
371,64,0,0,0,0,0,0,0,0,0,-1,1595,960,0,0
378,64,0,0,0,0,0,0,0,0,0,-1,1602,960,0,0
385,64,0,0,0,0,0,0,0,0,0,-1,1609,960,0,0
392,64,0,0,0,0,0,0,0,0,0,-1,1616,960,0,0
399,64,0,0,0,0,0,0,0,0,0,-1,1623,960,0,0
406,64,0,0,0,0,0,0,0,0,0,-1,1630,960,0,0
413,64,0,0,0,0,0,0,0,0,0,-1,1637,960,0,0
420,64,0,0,0,0,0,0,0,0,0,-1,1644,960,0,0
427,64,0,0,0,0,0,0,0,0,0,-1,1651,960,0,0
434,64,0,0,0,0,0,0,0,0,0,-1,1658,960,0,0
441,64,0,0,0,0,0,0,0,0,0,-1,1665,960,0,0
448,64,0,0,0,0,0,0,0,0,0,-1,1672,960,0,0
455,64,0,0,0,0,0,0,0,0,0,-1,1679,960,0,0
462,64,0,0,0,0,0,0,0,0,0,-1,1686,960,0,0
469,64,0,0,0,0,0,0,0,0,0,-1,1693,960,0,0
476,64,0,0,0,0,0,0,0,0,0,-1,1700,960,0,0
483,64,0,0,0,0,0,0,0,0,0,-1,1707,960,0,0
490,64,0,0,0,0,0,0,0,0,0,-1,1714,960,0,0
497,64,0,0,0,0,0,0,0,0,0,-1,1721,960,0,0
504,64,0,0,0,0,0,0,0,0,0,-1,1728,960,0,0
511,64,0,0,0,0,0,0,0,0,0,-1,1735,960,0,0
518,64,0,0,0,0,0,0,0,0,0,-1,1742,960,0,0
525,64,0,0,0,0,0,0,0,0,0,-1,1749,960,0,0
532,64,0,0,0,0,0,0,0,0,0,-1,1756,960,0,0
539,64,0,0,0,0,0,0,0,0,0,-1,1763,960,0,0
546,64,0,0,0,0,0,0,0,0,0,-1,1770,960,0,0
553,64,0,0,0,0,0,0,0,0,0,-1,1777,960,0,0
560,64,0,0,0,0,0,0,0,0,0,-1,1784,960,0,0
567,64,0,0,0,0,0,0,0,0,0,-1,1791,960,0,0
574,64,0,0,0,0,0,0,0,0,0,-1,1798,960,0,0
581,64,0,0,0,0,0,0,0,0,0,-1,1805,960,0,0
588,64,0,0,0,0,0,0,0,0,0,-1,1812,960,0,0
595,64,0,0,0,0,0,0,0,0,0,-1,1819,960,0,0
602,64,0,0,0,0,0,0,0,0,0,-1,1826,960,0,0
609,64,0,0,0,0,0,0,0,0,0,-1,1833,960,0,0
616,64,0,0,0,0,0,0,0,0,0,-1,1840,960,0,0
623,64,0,0,0,0,0,0,0,0,0,-1,1847,960,0,0
630,64,0,0,0,0,0,0,0,0,0,-1,1854,960,0,0
637,64,0,0,0,0,0,0,0,0,0,-1,1861,960,0,0
644,64,36.7363,2.40466,-0.00148974,0.00246986,0.00359596,0.004595,-0.00361488,1.03704,0.00475122,0.0389413,1868,960,36.7363,-2.40469
651,64,36.7986,2.28656,-0.000666042,0.00201822,0.002379,0.00340756,-0.00205538,1.04222,0.00318608,0.0351544,1875,960,36.7986,-2.28653
658,64,36.7998,2.44519,-0.000213746,0.0016793,0.00164261,0.00262858,-0.00116303,1.04678,0.00224293,0.0339587,1882,960,36.7998,-2.44521
665,64,36.7896,2.56927,5.36543e-06,0.0015591,0.00126602,0.00226761,-0.000703139,1.06059,0.00179269,0.0391363,1889,960,36.7896,-2.56925
672,64,36.9063,2.38873,-0.00017024,0.00146005,0.00117259,0.002073,-0.000783184,1.08913,0.00170414,0.0429116,1896,960,36.9062,-2.38876
679,64,37.0017,2.47784,-0.000546374,0.00133067,0.00134143,0.0020293,-0.001245,1.09064,0.00190841,0.0427318,1903,960,37.0018,-2.47784
686,64,36.934,2.47119,-0.000836853,0.00115874,0.00145599,0.00192602,-0.00160414,1.0858,0.00204096,0.03823,1910,960,36.934,-2.47119
693,64,36.8728,2.34949,-0.00108639,0.000976722,0.00147444,0.00174464,-0.00185431,1.09064,0.00207817,0.0343084,1917,960,36.8728,-2.34951
700,64,36.8705,2.44598,-0.00133479,0.000893757,0.00141687,0.00158202,-0.00202305,1.1186,0.00208657,0.0306358,1924,960,36.8705,-2.44601
707,64,36.7898,2.71582,-0.00169153,0.000927651,0.00124808,0.00142713,-0.00219101,1.19012,0.00210439,0.0418565,1931,960,36.7898,-2.71581
714,64,36.0002,3.96759,0,0,0,0,0,0,0,-1,1938,960,36.0002,-3.96758
721,64,35.394,4.09613,-0.00253751,0.0014889,0.00117993,0.0018092,-0.00285781,1.30573,0.00271708,0.0360014,1945,960,35.394,-4.09613
728,64,35.2004,4.40356,-0.00253253,0.00195961,0.00105246,0.00219397,-0.00276688,1.3517,0.00287051,0.0179983,1952,960,35.2004,-4.40358
735,64,35.194,4.6618,-0.00206732,0.0025618,0.000753079,0.00268123,-0.00218675,1.41351,0.00281536,0.0226571,1959,960,35.194,-4.66182
742,64,35.2683,4.85089,-0.00151547,0.0037069,0.000452854,0.00374588,-0.00155444,1.48494,0.00314612,0.0197764,1966,960,35.2683,-4.85087
749,64,35.2504,5.0658,-0.000268741,0.00529343,0.000603238,0.00535811,-0.000333412,1.464,0.00368823,0.0142696,1973,960,35.2504,-5.06579
756,64,35.2312,5.28119,0.00164933,0.00768265,0.00118248,0.00790613,0.00142585,1.38401,0.00486562,0.0141835,1980,960,35.2312,-5.2812
763,64,35.212,5.4928,0.00451403,0.011269,0.00258644,0.0121456,0.00363745,1.24403,0.00719775,0.0152775,1987,960,35.212,-5.49281
770,64,35.0819,5.65576,0.00846279,0.0155754,0.00472659,0.0179342,0.00610404,1.10792,0.0105288,0.0164232,1994,960,35.082,-5.65577
777,64,35.0582,5.90741,0.0133198,0.0207307,0.00785151,0.0257072,0.00834326,1.00587,0.0151436,0.0327586,2001,960,35.0582,-5.90739
784,64,35.5981,6.02924,0.0196492,0.0271779,0.0125179,0.0364852,0.0103419,0.931457,0.0217133,0.0432528,2008,960,35.5981,-6.02923
791,64,35.9133,6.17029,0,0,0,0,0,0,0,-1,2015,960,35.9134,-6.17027
798,64,36.0703,6.53876,0,0,0,0,0,0,0,-1,2022,960,36.0703,-6.53876
805,64,32.2346,2.79114,0,0,0,0,0,0,0,-1,2029,960,32.2346,-2.79115
812,64,0,0,0,0,0,0,0,0,0,-1,2036,960,0,0
-700,57,0,0,0,0,0,0,0,0,0,-1,524,967,0,0
-693,57,0,0,0,0,0,0,0,0,0,-1,531,967,0,0
-686,57,-28.6134,-0.111633,0.0967052,0.0172196,0.0392509,0.11282,0.00110433,0.389586,0.0748482,0.0445105,538,967,-28.6134,0.111608
-679,57,-28.322,0.433899,0.0856899,0.0254578,0.0328058,0.100107,0.0110407,0.41406,0.0633791,0.0425896,545,967,-28.322,-0.433886
-672,57,-28.1497,0.97876,0.0731116,0.0290474,0.0273407,0.0861926,0.0159664,0.446254,0.0529482,0.044504,552,967,-28.1496,-0.978753
-665,57,-27.8323,1.73737,0.0603578,0.0295391,0.022665,0.0723555,0.0175413,0.486853,0.0435829,0.0444053,559,967,-27.8324,-1.73738
-658,57,-27.1069,2.34479,0.0481964,0.0279783,0.0186621,0.0593115,0.0168631,0.537178,0.0352896,0.0453451,566,967,-27.1069,-2.34481
-651,57,-26.5782,2.55823,0.0371136,0.0250901,0.0152289,0.0474743,0.0147293,0.597408,0.0280595,0.0418515,573,967,-26.5783,-2.5582
-644,57,-26.3093,2.90881,0.0274835,0.021444,0.0121843,0.0370167,0.0119108,0.663926,0.0218195,0.0324602,580,967,-26.3093,-2.90881
-637,57,-26.212,2.81195,0.0191412,0.0177669,0.00927443,0.0277539,0.00915419,0.748421,0.0163301,0.018683,587,967,-26.2121,-2.81197
-630,57,-26.2604,2.66962,0.0115442,0.015481,0.00635507,0.0201655,0.00685967,0.93558,0.0118392,0.0140478,594,967,-26.2603,-2.66959
-623,57,-26.2691,2.53473,0.00524514,0.0125127,0.00370116,0.0140657,0.00369211,1.1735,0.0084207,0.0126098,601,967,-26.2691,-2.53473
-616,57,-26.2789,2.3573,0.000381173,0.00783561,0.00161515,0.00817052,4.62653e-05,1.36634,0.00543166,0.0144823,608,967,-26.2789,-2.35732
-609,57,-26.2757,2.1637,-0.00255389,0.00465705,-0.000309877,0.00467034,-0.00256718,-1.52793,0.00423698,0.0150074,615,967,-26.2757,-2.16368
-602,57,-26.2477,1.99219,-0.00422123,0.00332946,-0.0018134,0.00374239,-0.00463416,-1.3469,0.00484533,0.0111033,622,967,-26.2477,-1.99218
-595,57,-26.2537,1.83618,-0.00528458,0.00231001,-0.00297808,0.00333853,-0.00631309,-1.23826,0.00565989,0.0122956,629,967,-26.2537,-1.83615
-588,57,-26.2811,1.73865,-0.00586261,0.00183464,-0.00368499,0.00331434,-0.00734231,-1.18896,0.00629742,0.0203103,636,967,-26.2811,-1.73864
-581,57,-26.52,1.21503,-0.00619966,0.00172671,-0.00386426,0.0032988,-0.00777176,-1.18442,0.00656319,0.0322131,643,967,-26.52,-1.21503
-574,57,-26.8262,0.729919,-0.00621749,0.00160104,-0.00377992,0.00312962,-0.00774607,-1.18651,0.0064649,0.0307512,650,967,-26.8262,-0.729945
-567,57,-26.8194,0.552551,-0.00611482,0.00173751,-0.00343422,0.00302753,-0.00740484,-1.21147,0.00619735,0.0311356,657,967,-26.8194,-0.552529
-560,57,-26.8233,0.491333,-0.00571117,0.00191173,-0.00277316,0.00281383,-0.00661328,-1.2563,0.00558815,0.0409377,664,967,-26.8233,-0.491352
-553,57,-26.7792,0.402283,-0.00486535,0.00209354,-0.00185982,0.00255941,-0.00533122,-1.32536,0.0046484,0.0421699,671,967,-26.7792,-0.402267
-546,57,-26.7338,0.426636,-0.00352731,0.00220539,-0.000720732,0.00229462,-0.00361653,-1.44763,0.00344113,0.0413858,678,967,-26.7338,-0.426659
-539,57,-26.81,0.562805,-0.00169016,0.00212865,0.000507811,0.00219502,-0.00175653,1.44083,0.0022861,0.0408257,685,967,-26.81,-0.562799
-532,57,-27.0305,0.788452,0.000455185,0.00201208,0.00133201,0.00277643,-0.000309168,1.04984,0.00196214,0.0384049,692,967,-27.0305,-0.788459
-525,57,-26.9276,0.655945,0.00120064,0.00186012,0.00132164,0.00289254,0.000168222,0.907649,0.0018748,0.0416161,699,967,-26.9276,-0.655942
-518,57,0,0,0,0,0,0,0,0,0,-1,706,967,0,0
-511,57,0,0,0,0,0,0,0,0,0,-1,713,967,0,0
-504,57,0,0,0,0,0,0,0,0,0,-1,720,967,0,0
-497,57,0,0,0,0,0,0,0,0,0,-1,727,967,0,0
-490,57,0,0,0,0,0,0,0,0,0,-1,734,967,0,0
-483,57,0,0,0,0,0,0,0,0,0,-1,741,967,0,0
-476,57,0,0,0,0,0,0,0,0,0,-1,748,967,0,0
-469,57,0,0,0,0,0,0,0,0,0,-1,755,967,0,0
-462,57,0,0,0,0,0,0,0,0,0,-1,762,967,0,0
-455,57,0,0,0,0,0,0,0,0,0,-1,769,967,0,0
-448,57,0,0,0,0,0,0,0,0,0,-1,776,967,0,0
-441,57,0,0,0,0,0,0,0,0,0,-1,783,967,0,0
-434,57,0,0,0,0,0,0,0,0,0,-1,790,967,0,0
-427,57,0,0,0,0,0,0,0,0,0,-1,797,967,0,0
-420,57,0,0,0,0,0,0,0,0,0,-1,804,967,0,0
-413,57,0,0,0,0,0,0,0,0,0,-1,811,967,0,0
-406,57,0,0,0,0,0,0,0,0,0,-1,818,967,0,0
-399,57,0,0,0,0,0,0,0,0,0,-1,825,967,0,0
-392,57,0,0,0,0,0,0,0,0,0,-1,832,967,0,0
-385,57,0,0,0,0,0,0,0,0,0,-1,839,967,0,0
-378,57,0,0,0,0,0,0,0,0,0,-1,846,967,0,0
-371,57,0,0,0,0,0,0,0,0,0,-1,853,967,0,0
-364,57,0,0,0,0,0,0,0,0,0,-1,860,967,0,0
-357,57,0,0,0,0,0,0,0,0,0,-1,867,967,0,0
-350,57,0,0,0,0,0,0,0,0,0,-1,874,967,0,0
-343,57,0,0,0,0,0,0,0,0,0,-1,881,967,0,0
-336,57,0,0,0,0,0,0,0,0,0,-1,888,967,0,0
-329,57,0,0,0,0,0,0,0,0,0,-1,895,967,0,0
-322,57,0,0,0,0,0,0,0,0,0,-1,902,967,0,0
-315,57,0,0,0,0,0,0,0,0,0,-1,909,967,0,0
-308,57,0,0,0,0,0,0,0,0,0,-1,916,967,0,0
-301,57,0,0,0,0,0,0,0,0,0,-1,923,967,0,0
-294,57,0,0,0,0,0,0,0,0,0,-1,930,967,0,0
-287,57,0,0,0,0,0,0,0,0,0,-1,937,967,0,0
-280,57,0,0,0,0,0,0,0,0,0,-1,944,967,0,0
-273,57,0,0,0,0,0,0,0,0,0,-1,951,967,0,0
-266,57,0,0,0,0,0,0,0,0,0,-1,958,967,0,0
-259,57,0,0,0,0,0,0,0,0,0,-1,965,967,0,0
-252,57,0,0,0,0,0,0,0,0,0,-1,972,967,0,0
-245,57,0,0,0,0,0,0,0,0,0,-1,979,967,0,0
-238,57,0,0,0,0,0,0,0,0,0,-1,986,967,0,0
-231,57,0,0,0,0,0,0,0,0,0,-1,993,967,0,0
-224,57,0,0,0,0,0,0,0,0,0,-1,1000,967,0,0
-217,57,0,0,0,0,0,0,0,0,0,-1,1007,967,0,0
-210,57,0,0,0,0,0,0,0,0,0,-1,1014,967,0,0
-203,57,0,0,0,0,0,0,0,0,0,-1,1021,967,0,0
-196,57,0,0,0,0,0,0,0,0,0,-1,1028,967,0,0
-189,57,0,0,0,0,0,0,0,0,0,-1,1035,967,0,0
-182,57,0,0,0,0,0,0,0,0,0,-1,1042,967,0,0
-175,57,0,0,0,0,0,0,0,0,0,-1,1049,967,0,0
-168,57,0,0,0,0,0,0,0,0,0,-1,1056,967,0,0
-161,57,0,0,0,0,0,0,0,0,0,-1,1063,967,0,0
-154,57,0,0,0,0,0,0,0,0,0,-1,1070,967,0,0
-147,57,0,0,0,0,0,0,0,0,0,-1,1077,967,0,0
-140,57,0,0,0,0,0,0,0,0,0,-1,1084,967,0,0
-133,57,0,0,0,0,0,0,0,0,0,-1,1091,967,0,0
-126,57,0,0,0,0,0,0,0,0,0,-1,1098,967,0,0
-119,57,0,0,0,0,0,0,0,0,0,-1,1105,967,0,0
-112,57,0,0,0,0,0,0,0,0,0,-1,1112,967,0,0
-105,57,0,0,0,0,0,0,0,0,0,-1,1119,967,0,0
-98,57,0,0,0,0,0,0,0,0,0,-1,1126,967,0,0
-91,57,0,0,0,0,0,0,0,0,0,-1,1133,967,0,0
-84,57,0,0,0,0,0,0,0,0,0,-1,1140,967,0,0
-77,57,0,0,0,0,0,0,0,0,0,-1,1147,967,0,0
-70,57,0,0,0,0,0,0,0,0,0,-1,1154,967,0,0
-63,57,0,0,0,0,0,0,0,0,0,-1,1161,967,0,0
-56,57,0,0,0,0,0,0,0,0,0,-1,1168,967,0,0
-49,57,0,0,0,0,0,0,0,0,0,-1,1175,967,0,0
-42,57,0,0,0,0,0,0,0,0,0,-1,1182,967,0,0
-35,57,0,0,0,0,0,0,0,0,0,-1,1189,967,0,0
-28,57,0,0,0,0,0,0,0,0,0,-1,1196,967,0,0
-21,57,0,0,0,0,0,0,0,0,0,-1,1203,967,0,0
-14,57,0,0,0,0,0,0,0,0,0,-1,1210,967,0,0
-7,57,0,0,0,0,0,0,0,0,0,-1,1217,967,0,0
0,57,0,0,0,0,0,0,0,0,0,-1,1224,967,0,0
7,57,0,0,0,0,0,0,0,0,0,-1,1231,967,0,0
14,57,0,0,0,0,0,0,0,0,0,-1,1238,967,0,0
21,57,0,0,0,0,0,0,0,0,0,-1,1245,967,0,0
28,57,0,0,0,0,0,0,0,0,0,-1,1252,967,0,0
35,57,0,0,0,0,0,0,0,0,0,-1,1259,967,0,0
42,57,0,0,0,0,0,0,0,0,0,-1,1266,967,0,0
49,57,0,0,0,0,0,0,0,0,0,-1,1273,967,0,0
56,57,0,0,0,0,0,0,0,0,0,-1,1280,967,0,0
63,57,0,0,0,0,0,0,0,0,0,-1,1287,967,0,0
70,57,0,0,0,0,0,0,0,0,0,-1,1294,967,0,0
77,57,0,0,0,0,0,0,0,0,0,-1,1301,967,0,0
84,57,0,0,0,0,0,0,0,0,0,-1,1308,967,0,0
91,57,0,0,0,0,0,0,0,0,0,-1,1315,967,0,0
98,57,0,0,0,0,0,0,0,0,0,-1,1322,967,0,0
105,57,0,0,0,0,0,0,0,0,0,-1,1329,967,0,0
112,57,0,0,0,0,0,0,0,0,0,-1,1336,967,0,0
119,57,0,0,0,0,0,0,0,0,0,-1,1343,967,0,0
126,57,0,0,0,0,0,0,0,0,0,-1,1350,967,0,0
133,57,0,0,0,0,0,0,0,0,0,-1,1357,967,0,0
140,57,0,0,0,0,0,0,0,0,0,-1,1364,967,0,0
147,57,0,0,0,0,0,0,0,0,0,-1,1371,967,0,0
154,57,0,0,0,0,0,0,0,0,0,-1,1378,967,0,0
161,57,0,0,0,0,0,0,0,0,0,-1,1385,967,0,0
168,57,0,0,0,0,0,0,0,0,0,-1,1392,967,0,0
175,57,0,0,0,0,0,0,0,0,0,-1,1399,967,0,0
182,57,0,0,0,0,0,0,0,0,0,-1,1406,967,0,0
189,57,0,0,0,0,0,0,0,0,0,-1,1413,967,0,0
196,57,0,0,0,0,0,0,0,0,0,-1,1420,967,0,0
203,57,0,0,0,0,0,0,0,0,0,-1,1427,967,0,0
210,57,0,0,0,0,0,0,0,0,0,-1,1434,967,0,0
217,57,0,0,0,0,0,0,0,0,0,-1,1441,967,0,0
224,57,0,0,0,0,0,0,0,0,0,-1,1448,967,0,0
231,57,0,0,0,0,0,0,0,0,0,-1,1455,967,0,0
238,57,0,0,0,0,0,0,0,0,0,-1,1462,967,0,0
245,57,0,0,0,0,0,0,0,0,0,-1,1469,967,0,0
252,57,0,0,0,0,0,0,0,0,0,-1,1476,967,0,0
259,57,0,0,0,0,0,0,0,0,0,-1,1483,967,0,0
266,57,0,0,0,0,0,0,0,0,0,-1,1490,967,0,0
273,57,0,0,0,0,0,0,0,0,0,-1,1497,967,0,0
280,57,0,0,0,0,0,0,0,0,0,-1,1504,967,0,0
287,57,0,0,0,0,0,0,0,0,0,-1,1511,967,0,0
294,57,0,0,0,0,0,0,0,0,0,-1,1518,967,0,0
301,57,0,0,0,0,0,0,0,0,0,-1,1525,967,0,0
308,57,0,0,0,0,0,0,0,0,0,-1,1532,967,0,0
315,57,0,0,0,0,0,0,0,0,0,-1,1539,967,0,0
322,57,0,0,0,0,0,0,0,0,0,-1,1546,967,0,0
329,57,0,0,0,0,0,0,0,0,0,-1,1553,967,0,0
336,57,0,0,0,0,0,0,0,0,0,-1,1560,967,0,0
343,57,0,0,0,0,0,0,0,0,0,-1,1567,967,0,0
350,57,0,0,0,0,0,0,0,0,0,-1,1574,967,0,0
357,57,0,0,0,0,0,0,0,0,0,-1,1581,967,0,0
364,57,0,0,0,0,0,0,0,0,0,-1,1588,967,0,0
371,57,0,0,0,0,0,0,0,0,0,-1,1595,967,0,0
378,57,0,0,0,0,0,0,0,0,0,-1,1602,967,0,0
385,57,0,0,0,0,0,0,0,0,0,-1,1609,967,0,0
392,57,0,0,0,0,0,0,0,0,0,-1,1616,967,0,0
399,57,0,0,0,0,0,0,0,0,0,-1,1623,967,0,0
406,57,0,0,0,0,0,0,0,0,0,-1,1630,967,0,0
413,57,0,0,0,0,0,0,0,0,0,-1,1637,967,0,0
420,57,0,0,0,0,0,0,0,0,0,-1,1644,967,0,0
427,57,0,0,0,0,0,0,0,0,0,-1,1651,967,0,0
434,57,0,0,0,0,0,0,0,0,0,-1,1658,967,0,0
441,57,0,0,0,0,0,0,0,0,0,-1,1665,967,0,0
448,57,0,0,0,0,0,0,0,0,0,-1,1672,967,0,0
455,57,0,0,0,0,0,0,0,0,0,-1,1679,967,0,0
462,57,0,0,0,0,0,0,0,0,0,-1,1686,967,0,0
469,57,0,0,0,0,0,0,0,0,0,-1,1693,967,0,0
476,57,0,0,0,0,0,0,0,0,0,-1,1700,967,0,0
483,57,0,0,0,0,0,0,0,0,0,-1,1707,967,0,0
490,57,0,0,0,0,0,0,0,0,0,-1,1714,967,0,0
497,57,0,0,0,0,0,0,0,0,0,-1,1721,967,0,0
504,57,0,0,0,0,0,0,0,0,0,-1,1728,967,0,0
511,57,0,0,0,0,0,0,0,0,0,-1,1735,967,0,0
518,57,0,0,0,0,0,0,0,0,0,-1,1742,967,0,0
525,57,0,0,0,0,0,0,0,0,0,-1,1749,967,0,0
532,57,0,0,0,0,0,0,0,0,0,-1,1756,967,0,0
539,57,0,0,0,0,0,0,0,0,0,-1,1763,967,0,0
546,57,0,0,0,0,0,0,0,0,0,-1,1770,967,0,0
553,57,0,0,0,0,0,0,0,0,0,-1,1777,967,0,0
560,57,0,0,0,0,0,0,0,0,0,-1,1784,967,0,0
567,57,0,0,0,0,0,0,0,0,0,-1,1791,967,0,0
574,57,0,0,0,0,0,0,0,0,0,-1,1798,967,0,0
581,57,0,0,0,0,0,0,0,0,0,-1,1805,967,0,0
588,57,0,0,0,0,0,0,0,0,0,-1,1812,967,0,0
595,57,0,0,0,0,0,0,0,0,0,-1,1819,967,0,0
602,57,0,0,0,0,0,0,0,0,0,-1,1826,967,0,0
609,57,0,0,0,0,0,0,0,0,0,-1,1833,967,0,0
616,57,0,0,0,0,0,0,0,0,0,-1,1840,967,0,0
623,57,0,0,0,0,0,0,0,0,0,-1,1847,967,0,0
630,57,0,0,0,0,0,0,0,0,0,-1,1854,967,0,0
637,57,0,0,0,0,0,0,0,0,0,-1,1861,967,0,0
644,57,36.821,2.51166,-0.00150802,0.0035328,0.00357208,0.00538414,-0.00335936,1.09263,0.00509298,0.0381171,1868,967,36.821,-2.51164
651,57,36.8751,2.37341,-0.000639358,0.0028824,0.00242062,0.00411487,-0.00187182,1.09985,0.00353636,0.0324753,1875,967,36.8752,-2.3734
658,57,36.8696,2.57483,-0.000165572,0.00237447,0.00174014,0.00325876,-0.00104986,1.10063,0.00259427,0.0331056,1882,967,36.8696,-2.57486
665,57,36.8478,2.53796,8.34818e-05,0.00213122,0.00142466,0.00286176,-0.000647057,1.09697,0.00215614,0.0418405,1889,967,36.8478,-2.53795
672,57,36.8364,2.43671,-3.91887e-05,0.00198061,0.00137016,0.00267284,-0.00073142,1.10298,0.00206925,0.0444901,1896,967,36.8364,-2.43669
679,57,36.8843,2.47754,-0.00039503,0.00182149,0.00160301,0.00266205,-0.00123559,1.08785,0.00229999,0.0417537,1903,967,36.8843,-2.47753
686,57,36.8834,2.41742,-0.000682124,0.00161158,0.00180436,0.00260272,-0.00167326,1.06849,0.0024881,0.0392442,1910,967,36.8834,-2.41742
693,57,36.8107,2.36841,-0.000939706,0.00139349,0.00187397,0.00243431,-0.00198053,1.06381,0.00255339,0.0334496,1917,967,36.8107,-2.36839
700,57,36.8463,2.43243,-0.00118043,0.00127412,0.00184447,0.00226231,-0.00216862,1.07895,0.00255839,0.0252608,1924,967,36.8463,-2.43242
707,57,36.8295,2.62799,-0.00154177,0.00128653,0.00168389,0.00207131,-0.00232655,1.13467,0.00254053,0.0447117,1931,967,36.8294,-2.62802
714,57,36.3369,3.96777,0,0,0,0,0,0,0,-1,1938,967,36.3369,-3.96777
721,57,35.6694,4.11243,-0.00250381,0.00180474,0.00161452,0.00234259,-0.00304166,1.24922,0.00311732,0.0442118,1945,967,35.6694,-4.11245
728,57,35.434,4.44983,-0.00260315,0.00223958,0.00150431,0.00266882,-0.00303239,1.29284,0.00329382,0.0229501,1952,967,35.434,-4.44984
735,57,35.4851,4.69604,-0.00226484,0.00282833,0.00118209,0.00308932,-0.00252582,1.3535,0.00324734,0.0249953,1959,967,35.4851,-4.69606
742,57,35.5247,4.84039,-0.00198947,0.00398038,0.000859533,0.00410167,-0.00211076,1.43061,0.00364763,0.0189236,1966,967,35.5246,-4.84038
749,57,35.4751,5.05963,-0.00106772,0.00555557,0.00114161,0.00574682,-0.00125897,1.40481,0.00431257,0.0147448,1973,967,35.4751,-5.05965
756,57,35.4346,5.23993,0.000418491,0.00788799,0.00195538,0.00836891,-6.24307e-05,1.32964,0.0056002,0.0113229,1980,967,35.4346,-5.2399
763,57,35.4102,5.41162,0.00270207,0.011935,0.00361979,0.0131849,0.00145213,1.23831,0.00834809,0.0115059,1987,967,35.4102,-5.4116
770,57,35.3414,5.56738,0.00604483,0.0166592,0.00618428,0.0195014,0.00320268,1.14001,0.0120757,0.011287,1994,967,35.3415,-5.5674
777,57,35.2966,5.8042,0.0102685,0.0223969,0.00981472,0.0278697,0.00479564,1.06213,0.0172055,0.0264574,2001,967,35.2966,-5.80418
784,57,35.3623,6.35144,0.0158283,0.0295889,0.0150619,0.0392675,0.00614961,0.999646,0.0243883,0.0450042,2008,967,35.3623,-6.35145
791,57,35.3896,6.8728,0,0,0,0,0,0,0,-1,2015,967,35.3898,-6.87283
798,57,36.2747,7.20764,0,0,0,0,0,0,0,-1,2022,967,36.2746,-7.20765
805,57,31.4214,1.78986,0,0,0,0,0,0,0,-1,2029,967,31.4215,-1.78988
812,57,0,0,0,0,0,0,0,0,0,-1,2036,967,0,0
-700,50,0,0,0,0,0,0,0,0,0,-1,524,974,0,0
-693,50,-30.6573,2.80127,0,0,0,0,0,0,0,-1,531,974,-30.6573,-2.80127
-686,50,-29.9597,2.67432,0.113876,0.00849077,0.0290018,0.12133,0.00103675,0.251574,0.0805433,0.045791,538,974,-29.9597,-2.67432
-679,50,-28.8217,0.417847,0.0998241,0.0172021,0.0246615,0.106625,0.0104008,0.269095,0.0678828,0.04443,545,974,-28.8217,-0.417827
-672,50,-28.3857,0.809082,0.0844395,0.0218595,0.0210199,0.0908443,0.0154546,0.295766,0.0561251,0.0448128,552,974,-28.3857,-0.809106
-665,50,-26.9408,2.29132,0,0,0,0,0,0,0,-1,559,974,-26.9408,-2.29133
-658,50,-26.7886,2.48157,0.0549514,0.0233077,0.0151128,0.0610094,0.0172497,0.38124,0.0363153,0.0496634,566,974,-26.7886,-2.48157
-651,50,-26.5756,2.60889,0.0421647,0.02154,0.012657,0.0481785,0.0155262,0.443561,0.0283956,0.0429197,573,974,-26.5756,-2.60889
-644,50,-26.348,2.81256,0.0312109,0.0188212,0.0103059,0.0370405,0.0129916,0.514786,0.0217007,0.0294809,580,974,-26.348,-2.81254
-637,50,-26.4037,2.71545,0.0218429,0.0159069,0.00779605,0.0272168,0.010533,0.603515,0.0158468,0.0172863,587,974,-26.4037,-2.71544
-630,50,-26.4373,2.61603,0.0135331,0.014086,0.00518736,0.0190043,0.00861482,0.812018,0.010988,0.0117237,594,974,-26.4373,-2.616
-623,50,-26.4489,2.50745,0.00678694,0.0116182,0.00272265,0.0128423,0.00556277,1.14825,0.00743658,0.0116736,601,974,-26.4489,-2.50747
-616,50,-26.4645,2.3548,0.00140445,0.00764652,0.000822325,0.00775304,0.00129793,1.44198,0.00479497,0.0116879,608,974,-26.4645,-2.35477
-609,50,-26.4706,2.16058,-0.00174698,0.00468325,-0.00118208,0.00489367,-0.0019574,-1.39464,0.00407476,0.0107617,615,974,-26.4706,-2.16061
-602,50,-26.4667,1.99646,-0.00325174,0.00330541,-0.00279272,0.00433361,-0.00427994,-1.21802,0.00497307,0.0109364,622,974,-26.4667,-1.99648
-595,50,-26.4536,1.86761,-0.00420338,0.00225227,-0.00409391,0.00423779,-0.0061889,-1.11923,0.00605488,0.0110908,629,974,-26.4536,-1.86759
-588,50,-26.4973,1.67328,-0.00472447,0.00178468,-0.00485287,0.00437327,-0.00731306,-1.08078,0.00681789,0.0141116,636,974,-26.4972,-1.67326
-581,50,-26.7264,1.04919,-0.00504422,0.00165952,-0.0050369,0.00435789,-0.00774259,-1.07898,0.00707673,0.0222801,643,974,-26.7265,-1.04917
-574,50,-26.9346,0.420105,0,0,0,0,0,0,0,-1,650,974,-26.9346,-0.420128
-567,50,-26.815,0.519409,-0.00516233,0.00158197,-0.00444495,0.00378915,-0.00736952,-1.1099,0.00655207,0.0363709,657,974,-26.815,-0.519435
-560,50,-26.681,0.506775,-0.00494456,0.0016916,-0.00360014,0.0032695,-0.00652247,-1.15772,0.00575644,0.043201,664,974,-26.681,-0.506784
-553,50,-26.6609,0.440735,-0.0043557,0.00177132,-0.00245956,0.00263649,-0.00522087,-1.23256,0.00461752,0.0420399,671,974,-26.6609,-0.440713
-546,50,-26.8964,0.576355,-0.0033322,0.00172501,-0.00106723,0.001941,-0.0035482,-1.37111,0.00321416,0.0407424,678,974,-26.8964,-0.576348
-539,50,-26.9106,0.798279,-0.0018211,0.0014086,0.000380056,0.00145272,-0.00186522,1.45522,0.00192055,0.0422291,685,974,-26.9106,-0.798277
-532,50,-26.9269,0.736389,-1.30069e-05,0.00106034,0.00123033,0.00186596,-0.000818624,0.991058,0.00158877,0.040687,692,974,-26.9269,-0.736359
-525,50,-26.8342,0.566284,0.000393596,0.000617204,0.00106882,0.00158006,-0.000569257,0.837511,0.00128584,0.0408476,699,974,-26.8342,-0.566277
-518,50,0,0,0,0,0,0,0,0,0,-1,706,974,0,0
-511,50,0,0,0,0,0,0,0,0,0,-1,713,974,0,0
-504,50,0,0,0,0,0,0,0,0,0,-1,720,974,0,0
-497,50,0,0,0,0,0,0,0,0,0,-1,727,974,0,0
-490,50,0,0,0,0,0,0,0,0,0,-1,734,974,0,0
-483,50,0,0,0,0,0,0,0,0,0,-1,741,974,0,0
-476,50,0,0,0,0,0,0,0,0,0,-1,748,974,0,0
-469,50,0,0,0,0,0,0,0,0,0,-1,755,974,0,0
-462,50,0,0,0,0,0,0,0,0,0,-1,762,974,0,0
-455,50,0,0,0,0,0,0,0,0,0,-1,769,974,0,0
-448,50,0,0,0,0,0,0,0,0,0,-1,776,974,0,0
-441,50,0,0,0,0,0,0,0,0,0,-1,783,974,0,0
-434,50,0,0,0,0,0,0,0,0,0,-1,790,974,0,0
-427,50,0,0,0,0,0,0,0,0,0,-1,797,974,0,0
-420,50,0,0,0,0,0,0,0,0,0,-1,804,974,0,0
-413,50,0,0,0,0,0,0,0,0,0,-1,811,974,0,0
-406,50,0,0,0,0,0,0,0,0,0,-1,818,974,0,0
-399,50,0,0,0,0,0,0,0,0,0,-1,825,974,0,0
-392,50,0,0,0,0,0,0,0,0,0,-1,832,974,0,0
-385,50,0,0,0,0,0,0,0,0,0,-1,839,974,0,0
-378,50,0,0,0,0,0,0,0,0,0,-1,846,974,0,0
-371,50,0,0,0,0,0,0,0,0,0,-1,853,974,0,0
-364,50,0,0,0,0,0,0,0,0,0,-1,860,974,0,0
-357,50,0,0,0,0,0,0,0,0,0,-1,867,974,0,0
-350,50,0,0,0,0,0,0,0,0,0,-1,874,974,0,0
-343,50,0,0,0,0,0,0,0,0,0,-1,881,974,0,0
-336,50,0,0,0,0,0,0,0,0,0,-1,888,974,0,0
-329,50,0,0,0,0,0,0,0,0,0,-1,895,974,0,0
-322,50,0,0,0,0,0,0,0,0,0,-1,902,974,0,0
-315,50,0,0,0,0,0,0,0,0,0,-1,909,974,0,0
-308,50,0,0,0,0,0,0,0,0,0,-1,916,974,0,0
-301,50,0,0,0,0,0,0,0,0,0,-1,923,974,0,0
-294,50,0,0,0,0,0,0,0,0,0,-1,930,974,0,0
-287,50,0,0,0,0,0,0,0,0,0,-1,937,974,0,0
-280,50,0,0,0,0,0,0,0,0,0,-1,944,974,0,0
-273,50,0,0,0,0,0,0,0,0,0,-1,951,974,0,0
-266,50,0,0,0,0,0,0,0,0,0,-1,958,974,0,0
-259,50,0,0,0,0,0,0,0,0,0,-1,965,974,0,0
-252,50,0,0,0,0,0,0,0,0,0,-1,972,974,0,0
-245,50,0,0,0,0,0,0,0,0,0,-1,979,974,0,0
-238,50,0,0,0,0,0,0,0,0,0,-1,986,974,0,0
-231,50,0,0,0,0,0,0,0,0,0,-1,993,974,0,0
-224,50,0,0,0,0,0,0,0,0,0,-1,1000,974,0,0
-217,50,0,0,0,0,0,0,0,0,0,-1,1007,974,0,0
-210,50,0,0,0,0,0,0,0,0,0,-1,1014,974,0,0
-203,50,0,0,0,0,0,0,0,0,0,-1,1021,974,0,0
-196,50,0,0,0,0,0,0,0,0,0,-1,1028,974,0,0
-189,50,0,0,0,0,0,0,0,0,0,-1,1035,974,0,0
-182,50,0,0,0,0,0,0,0,0,0,-1,1042,974,0,0
-175,50,0,0,0,0,0,0,0,0,0,-1,1049,974,0,0
-168,50,0,0,0,0,0,0,0,0,0,-1,1056,974,0,0
-161,50,0,0,0,0,0,0,0,0,0,-1,1063,974,0,0
-154,50,0,0,0,0,0,0,0,0,0,-1,1070,974,0,0
-147,50,0,0,0,0,0,0,0,0,0,-1,1077,974,0,0
-140,50,0,0,0,0,0,0,0,0,0,-1,1084,974,0,0
-133,50,0,0,0,0,0,0,0,0,0,-1,1091,974,0,0
-126,50,0,0,0,0,0,0,0,0,0,-1,1098,974,0,0
-119,50,0,0,0,0,0,0,0,0,0,-1,1105,974,0,0
-112,50,0,0,0,0,0,0,0,0,0,-1,1112,974,0,0
-105,50,0,0,0,0,0,0,0,0,0,-1,1119,974,0,0
-98,50,0,0,0,0,0,0,0,0,0,-1,1126,974,0,0
-91,50,0,0,0,0,0,0,0,0,0,-1,1133,974,0,0
-84,50,0,0,0,0,0,0,0,0,0,-1,1140,974,0,0
-77,50,0,0,0,0,0,0,0,0,0,-1,1147,974,0,0
-70,50,0,0,0,0,0,0,0,0,0,-1,1154,974,0,0
-63,50,0,0,0,0,0,0,0,0,0,-1,1161,974,0,0
-56,50,0,0,0,0,0,0,0,0,0,-1,1168,974,0,0
-49,50,0,0,0,0,0,0,0,0,0,-1,1175,974,0,0
-42,50,0,0,0,0,0,0,0,0,0,-1,1182,974,0,0
-35,50,0,0,0,0,0,0,0,0,0,-1,1189,974,0,0
-28,50,0,0,0,0,0,0,0,0,0,-1,1196,974,0,0
-21,50,0,0,0,0,0,0,0,0,0,-1,1203,974,0,0
-14,50,0,0,0,0,0,0,0,0,0,-1,1210,974,0,0
-7,50,0,0,0,0,0,0,0,0,0,-1,1217,974,0,0
0,50,0,0,0,0,0,0,0,0,0,-1,1224,974,0,0
7,50,0,0,0,0,0,0,0,0,0,-1,1231,974,0,0
14,50,0,0,0,0,0,0,0,0,0,-1,1238,974,0,0
21,50,0,0,0,0,0,0,0,0,0,-1,1245,974,0,0
28,50,0,0,0,0,0,0,0,0,0,-1,1252,974,0,0
35,50,0,0,0,0,0,0,0,0,0,-1,1259,974,0,0
42,50,0,0,0,0,0,0,0,0,0,-1,1266,974,0,0
49,50,0,0,0,0,0,0,0,0,0,-1,1273,974,0,0
56,50,0,0,0,0,0,0,0,0,0,-1,1280,974,0,0
63,50,0,0,0,0,0,0,0,0,0,-1,1287,974,0,0
70,50,0,0,0,0,0,0,0,0,0,-1,1294,974,0,0
77,50,0,0,0,0,0,0,0,0,0,-1,1301,974,0,0
84,50,0,0,0,0,0,0,0,0,0,-1,1308,974,0,0
91,50,0,0,0,0,0,0,0,0,0,-1,1315,974,0,0
98,50,0,0,0,0,0,0,0,0,0,-1,1322,974,0,0
105,50,0,0,0,0,0,0,0,0,0,-1,1329,974,0,0
112,50,0,0,0,0,0,0,0,0,0,-1,1336,974,0,0
119,50,0,0,0,0,0,0,0,0,0,-1,1343,974,0,0
126,50,0,0,0,0,0,0,0,0,0,-1,1350,974,0,0
133,50,0,0,0,0,0,0,0,0,0,-1,1357,974,0,0
140,50,0,0,0,0,0,0,0,0,0,-1,1364,974,0,0
147,50,0,0,0,0,0,0,0,0,0,-1,1371,974,0,0
154,50,0,0,0,0,0,0,0,0,0,-1,1378,974,0,0
161,50,0,0,0,0,0,0,0,0,0,-1,1385,974,0,0
168,50,0,0,0,0,0,0,0,0,0,-1,1392,974,0,0
175,50,0,0,0,0,0,0,0,0,0,-1,1399,974,0,0
182,50,0,0,0,0,0,0,0,0,0,-1,1406,974,0,0
189,50,0,0,0,0,0,0,0,0,0,-1,1413,974,0,0
196,50,0,0,0,0,0,0,0,0,0,-1,1420,974,0,0
203,50,0,0,0,0,0,0,0,0,0,-1,1427,974,0,0
210,50,0,0,0,0,0,0,0,0,0,-1,1434,974,0,0
217,50,0,0,0,0,0,0,0,0,0,-1,1441,974,0,0
224,50,0,0,0,0,0,0,0,0,0,-1,1448,974,0,0
231,50,0,0,0,0,0,0,0,0,0,-1,1455,974,0,0
238,50,0,0,0,0,0,0,0,0,0,-1,1462,974,0,0
245,50,0,0,0,0,0,0,0,0,0,-1,1469,974,0,0
252,50,0,0,0,0,0,0,0,0,0,-1,1476,974,0,0
259,50,0,0,0,0,0,0,0,0,0,-1,1483,974,0,0
266,50,0,0,0,0,0,0,0,0,0,-1,1490,974,0,0
273,50,0,0,0,0,0,0,0,0,0,-1,1497,974,0,0
280,50,0,0,0,0,0,0,0,0,0,-1,1504,974,0,0
287,50,0,0,0,0,0,0,0,0,0,-1,1511,974,0,0
294,50,0,0,0,0,0,0,0,0,0,-1,1518,974,0,0
301,50,0,0,0,0,0,0,0,0,0,-1,1525,974,0,0
308,50,0,0,0,0,0,0,0,0,0,-1,1532,974,0,0
315,50,0,0,0,0,0,0,0,0,0,-1,1539,974,0,0
322,50,0,0,0,0,0,0,0,0,0,-1,1546,974,0,0
329,50,0,0,0,0,0,0,0,0,0,-1,1553,974,0,0
336,50,0,0,0,0,0,0,0,0,0,-1,1560,974,0,0
343,50,0,0,0,0,0,0,0,0,0,-1,1567,974,0,0
350,50,0,0,0,0,0,0,0,0,0,-1,1574,974,0,0
357,50,0,0,0,0,0,0,0,0,0,-1,1581,974,0,0
364,50,0,0,0,0,0,0,0,0,0,-1,1588,974,0,0
371,50,0,0,0,0,0,0,0,0,0,-1,1595,974,0,0
378,50,0,0,0,0,0,0,0,0,0,-1,1602,974,0,0
385,50,0,0,0,0,0,0,0,0,0,-1,1609,974,0,0
392,50,0,0,0,0,0,0,0,0,0,-1,1616,974,0,0
399,50,0,0,0,0,0,0,0,0,0,-1,1623,974,0,0
406,50,0,0,0,0,0,0,0,0,0,-1,1630,974,0,0
413,50,0,0,0,0,0,0,0,0,0,-1,1637,974,0,0
420,50,0,0,0,0,0,0,0,0,0,-1,1644,974,0,0
427,50,0,0,0,0,0,0,0,0,0,-1,1651,974,0,0
434,50,0,0,0,0,0,0,0,0,0,-1,1658,974,0,0
441,50,0,0,0,0,0,0,0,0,0,-1,1665,974,0,0
448,50,0,0,0,0,0,0,0,0,0,-1,1672,974,0,0
455,50,0,0,0,0,0,0,0,0,0,-1,1679,974,0,0
462,50,0,0,0,0,0,0,0,0,0,-1,1686,974,0,0
469,50,0,0,0,0,0,0,0,0,0,-1,1693,974,0,0
476,50,0,0,0,0,0,0,0,0,0,-1,1700,974,0,0
483,50,0,0,0,0,0,0,0,0,0,-1,1707,974,0,0
490,50,0,0,0,0,0,0,0,0,0,-1,1714,974,0,0
497,50,0,0,0,0,0,0,0,0,0,-1,1721,974,0,0
504,50,0,0,0,0,0,0,0,0,0,-1,1728,974,0,0
511,50,0,0,0,0,0,0,0,0,0,-1,1735,974,0,0
518,50,0,0,0,0,0,0,0,0,0,-1,1742,974,0,0
525,50,0,0,0,0,0,0,0,0,0,-1,1749,974,0,0
532,50,0,0,0,0,0,0,0,0,0,-1,1756,974,0,0
539,50,0,0,0,0,0,0,0,0,0,-1,1763,974,0,0
546,50,0,0,0,0,0,0,0,0,0,-1,1770,974,0,0
553,50,0,0,0,0,0,0,0,0,0,-1,1777,974,0,0
560,50,0,0,0,0,0,0,0,0,0,-1,1784,974,0,0
567,50,0,0,0,0,0,0,0,0,0,-1,1791,974,0,0
574,50,0,0,0,0,0,0,0,0,0,-1,1798,974,0,0
581,50,0,0,0,0,0,0,0,0,0,-1,1805,974,0,0
588,50,0,0,0,0,0,0,0,0,0,-1,1812,974,0,0
595,50,0,0,0,0,0,0,0,0,0,-1,1819,974,0,0
602,50,0,0,0,0,0,0,0,0,0,-1,1826,974,0,0
609,50,0,0,0,0,0,0,0,0,0,-1,1833,974,0,0
616,50,0,0,0,0,0,0,0,0,0,-1,1840,974,0,0
623,50,0,0,0,0,0,0,0,0,0,-1,1847,974,0,0
630,50,0,0,0,0,0,0,0,0,0,-1,1854,974,0,0
637,50,0,0,0,0,0,0,0,0,0,-1,1861,974,0,0
644,50,36.8428,2.35913,-0.00194506,0.00367192,0.00387864,0.00565212,-0.00392526,1.09875,0.00555938,0.0395582,1868,974,36.8428,-2.35914
651,50,36.7789,2.34698,-0.000900945,0.00288397,0.00264069,0.0042403,-0.00225728,1.09631,0.00380917,0.0338191,1875,974,36.7789,-2.34701
658,50,36.8743,2.60309,-0.000319182,0.00229722,0.00190391,0.00329905,-0.00132101,1.08641,0.00274768,0.0380849,1882,974,36.8742,-2.60306
665,50,36.8049,2.4754,1.84296e-05,0.00203115,0.00156488,0.00288533,-0.000835749,1.07115,0.00225438,0.0412864,1889,974,36.805,-2.47542
672,50,36.7312,2.29138,6.67389e-07,0.00193398,0.00149785,0.00275001,-0.000815363,1.07195,0.00215712,0.0399589,1896,974,36.7312,-2.29137
679,50,36.6603,2.49133,-0.000288243,0.00185552,0.00176047,0.00284475,-0.00127748,1.05885,0.00243664,0.0389979,1903,974,36.6603,-2.49135
686,50,36.7408,2.53461,-0.0005376,0.00170755,0.00203088,0.00290546,-0.00173551,1.03788,0.00270769,0.0398602,1910,974,36.7409,-2.53459
693,50,36.7285,2.46796,-0.000784452,0.00154693,0.00215103,0.00282783,-0.00206535,1.03371,0.00283648,0.0382864,1917,974,36.7285,-2.46794
700,50,36.7762,2.50293,-0.00100359,0.0014533,0.00215377,0.00270433,-0.00225462,1.04457,0.00286698,0.0218055,1924,974,36.7763,-2.50293
707,50,36.8247,2.53351,-0.00135502,0.00150381,0.00201553,0.00254535,-0.00239655,1.09384,0.00285364,0.0337542,1931,974,36.8247,-2.53353
714,50,36.849,2.58087,0,0,0,0,0,0,0,-1,1938,974,36.849,-2.58088
721,50,35.7987,4.18341,0,0,0,0,0,0,0,-1,1945,974,35.7987,-4.18339
728,50,35.6841,4.45978,-0.0025967,0.00248024,0.00190532,0.00311574,-0.0032322,1.24886,0.00366519,0.0231943,1952,974,35.684,-4.45978
735,50,35.7101,4.66095,-0.00239489,0.00308621,0.00155199,0.00349515,-0.00280383,1.31316,0.00364401,0.019966,1959,974,35.7101,-4.66094
742,50,35.7343,4.83881,-0.00235255,0.00425056,0.00116922,0.00445148,-0.00255347,1.40062,0.0040935,0.0159627,1966,974,35.7343,-4.83882
749,50,35.7019,4.9743,-0.00165217,0.00578954,0.00152136,0.00608855,-0.00195118,1.37673,0.00484229,0.0167338,1973,974,35.7019,-4.97428
756,50,35.6643,5.17041,-0.000457377,0.00806756,0.00244757,0.0087203,-0.00111012,1.31017,0.0062167,0.0128915,1980,974,35.6644,-5.17042
763,50,35.6304,5.36835,0.00141991,0.0122566,0.00423175,0.0137133,-3.67817e-05,1.23927,0.0091545,0.0128109,1987,974,35.6303,-5.36833
770,50,35.5786,5.51294,0.00434869,0.0171337,0.007037,0.0202483,0.00123418,1.15412,0.0131068,0.0113209,1994,974,35.5786,-5.51291
777,50,35.5107,5.69507,0.00819053,0.0231283,0.0110335,0.0289831,0.0023357,1.08294,0.0185925,0.0218406,2001,974,35.5107,-5.69506
784,50,35.405,6.24689,0.0132106,0.0305514,0.0167259,0.0407207,0.00304137,1.02452,0.0261923,0.0387991,2008,974,35.405,-6.24692
791,50,35.2856,6.79779,0.0198391,0.0396284,0.024197,0.0558756,0.00359187,0.979485,0.0361127,0.0447489,2015,974,35.2856,-6.79779
798,50,36.0044,6.90643,0.0282885,0.0507802,0.0333484,0.0747278,0.00434088,0.948022,0.0484365,0.0473528,2022,974,36.0045,-6.9064
805,50,36.1016,7.21832,0,0,0,0,0,0,0,-1,2029,974,36.1016,-7.21834
812,50,0,0,0,0,0,0,0,0,0,-1,2036,974,0,0
-700,43,0,0,0,0,0,0,0,0,0,-1,524,981,0,0
-693,43,-30.9138,2.68164,0.137889,-0.00568101,0.0208442,0.140854,-0.00864605,0.1413,0.0969131,0.0456653,531,981,-30.9138,-2.68162
-686,43,-30.2089,2.65265,0.126293,0.00589117,0.0172181,0.128707,0.00347728,0.139287,0.0846694,0.0443041,538,981,-30.2089,-2.65266
-679,43,-29.4056,2.61932,0.110421,0.0133738,0.01465,0.112584,0.0112105,0.146607,0.0716122,0.0449778,545,981,-29.4056,-2.61934
-672,43,-28.5623,0.520447,0.0931688,0.0176992,0.0127602,0.0952679,0.0156002,0.163042,0.0590034,0.0483039,552,981,-28.5623,-0.520425
-665,43,-26.906,2.26605,0,0,0,0,0,0,0,-1,559,981,-26.906,-2.26606
-658,43,-26.7719,2.48743,0.0603451,0.0198051,0.00992643,0.0626451,0.0175051,0.227692,0.0373228,0.0483788,566,981,-26.7719,-2.4874
-651,43,-26.5683,2.68903,0.0462437,0.018624,0.00869561,0.0487534,0.0161143,0.280974,0.0286817,0.0396222,573,981,-26.5683,-2.68903
-644,43,-26.5244,2.78442,0.0342377,0.0164946,0.00728591,0.0368461,0.0138862,0.343787,0.0214871,0.0227296,580,981,-26.5244,-2.78442
-637,43,-26.582,2.6709,0.0240699,0.0141593,0.00538957,0.0264359,0.0117932,0.413676,0.0152923,0.0168411,587,981,-26.582,-2.67092
-630,43,-26.596,2.55908,0.0152515,0.0125438,0.00335868,0.0175189,0.0102764,0.593813,0.010165,0.0143405,594,981,-26.596,-2.55907
-623,43,-26.6165,2.45483,0.00819411,0.0106127,0.00128863,0.0111706,0.00763622,1.16222,0.00659269,0.0118962,601,981,-26.6165,-2.45484
-616,43,-26.6208,2.31494,0.002391,0.00741851,-0.000280111,0.00743407,0.00237545,-1.51531,0.00438426,0.010534,608,981,-26.6208,-2.31497
-609,43,-26.6229,2.16846,-0.000882881,0.0047663,-0.00224472,0.00554963,-0.00166621,-1.23504,0.00436254,0.0124205,615,981,-26.6229,-2.16844
-602,43,-26.6069,2.04803,-0.00214017,0.00341098,-0.00386277,0.00539196,-0.00412115,-1.09693,0.00550871,0.0145763,622,981,-26.6069,-2.04804
-595,43,-26.6312,1.91241,-0.00292649,0.00234657,-0.0052003,0.00554051,-0.00612043,-1.02001,0.00673523,0.0137711,629,981,-26.6312,-1.9124
-588,43,-26.6324,1.57068,-0.00336089,0.00189983,-0.00598668,0.00580852,-0.00726958,-0.992387,0.00756633,0.0163304,636,981,-26.6324,-1.5707
-581,43,-26.761,0.950745,-0.00362898,0.00175591,-0.0061614,0.00578746,-0.00766053,-0.991388,0.00778926,0.0227881,643,981,-26.761,-0.95074
-574,43,-26.8408,0.643311,-0.0037647,0.00154179,-0.0059868,0.00543694,-0.00765985,-0.993983,0.00759765,0.0280233,650,981,-26.8408,-0.643287
-567,43,-26.8012,0.627502,-0.00393781,0.00155133,-0.00538655,0.00485222,-0.0072387,-1.02102,0.00702588,0.0369055,657,981,-26.8012,-0.62752
-560,43,-26.7195,0.675171,-0.00392907,0.00155956,-0.00435952,0.00396662,-0.00633613,-1.06631,0.00600051,0.0408285,664,981,-26.7195,-0.675164
-553,43,-26.8471,0.831787,-0.00363574,0.00150382,-0.0029949,0.00288033,-0.00501225,-1.13997,0.00461186,0.0403319,671,981,-26.8471,-0.83179
-546,43,-27.0408,0.750122,-0.00297423,0.0012811,-0.00135411,0.00167545,-0.00336858,-1.28741,0.00296636,0.0440976,678,981,-27.0408,-0.75012
-539,43,-26.9437,0.704895,-0.00183581,0.000744091,0.000297269,0.000777901,-0.00186962,1.45755,0.00157127,0.0456777,685,981,-26.9437,-0.704869
-532,43,-26.795,0.615601,-0.000388206,0.000274432,0.00112948,0.00112018,-0.00123396,0.928065,0.00135969,0.0475548,692,981,-26.7951,-0.615578
-525,43,-26.7795,0.51062,-0.000218943,-0.000245171,0.000782667,0.00055072,-0.00101483,0.777021,0.000917017,0.0472891,699,981,-26.7795,-0.510635
-518,43,0,0,0,0,0,0,0,0,0,-1,706,981,0,0
-511,43,0,0,0,0,0,0,0,0,0,-1,713,981,0,0
-504,43,0,0,0,0,0,0,0,0,0,-1,720,981,0,0
-497,43,0,0,0,0,0,0,0,0,0,-1,727,981,0,0
-490,43,0,0,0,0,0,0,0,0,0,-1,734,981,0,0
-483,43,0,0,0,0,0,0,0,0,0,-1,741,981,0,0
-476,43,0,0,0,0,0,0,0,0,0,-1,748,981,0,0
-469,43,0,0,0,0,0,0,0,0,0,-1,755,981,0,0
-462,43,0,0,0,0,0,0,0,0,0,-1,762,981,0,0
-455,43,0,0,0,0,0,0,0,0,0,-1,769,981,0,0
-448,43,0,0,0,0,0,0,0,0,0,-1,776,981,0,0
-441,43,0,0,0,0,0,0,0,0,0,-1,783,981,0,0
-434,43,0,0,0,0,0,0,0,0,0,-1,790,981,0,0
-427,43,0,0,0,0,0,0,0,0,0,-1,797,981,0,0
-420,43,0,0,0,0,0,0,0,0,0,-1,804,981,0,0
-413,43,0,0,0,0,0,0,0,0,0,-1,811,981,0,0
-406,43,0,0,0,0,0,0,0,0,0,-1,818,981,0,0
-399,43,0,0,0,0,0,0,0,0,0,-1,825,981,0,0
-392,43,0,0,0,0,0,0,0,0,0,-1,832,981,0,0
-385,43,0,0,0,0,0,0,0,0,0,-1,839,981,0,0
-378,43,0,0,0,0,0,0,0,0,0,-1,846,981,0,0
-371,43,0,0,0,0,0,0,0,0,0,-1,853,981,0,0
-364,43,0,0,0,0,0,0,0,0,0,-1,860,981,0,0
-357,43,0,0,0,0,0,0,0,0,0,-1,867,981,0,0
-350,43,0,0,0,0,0,0,0,0,0,-1,874,981,0,0
-343,43,0,0,0,0,0,0,0,0,0,-1,881,981,0,0
-336,43,0,0,0,0,0,0,0,0,0,-1,888,981,0,0
-329,43,0,0,0,0,0,0,0,0,0,-1,895,981,0,0
-322,43,0,0,0,0,0,0,0,0,0,-1,902,981,0,0
-315,43,0,0,0,0,0,0,0,0,0,-1,909,981,0,0
-308,43,0,0,0,0,0,0,0,0,0,-1,916,981,0,0
-301,43,0,0,0,0,0,0,0,0,0,-1,923,981,0,0
-294,43,0,0,0,0,0,0,0,0,0,-1,930,981,0,0
-287,43,0,0,0,0,0,0,0,0,0,-1,937,981,0,0
-280,43,0,0,0,0,0,0,0,0,0,-1,944,981,0,0
-273,43,0,0,0,0,0,0,0,0,0,-1,951,981,0,0
-266,43,0,0,0,0,0,0,0,0,0,-1,958,981,0,0
-259,43,0,0,0,0,0,0,0,0,0,-1,965,981,0,0
-252,43,0,0,0,0,0,0,0,0,0,-1,972,981,0,0
-245,43,0,0,0,0,0,0,0,0,0,-1,979,981,0,0
-238,43,0,0,0,0,0,0,0,0,0,-1,986,981,0,0
-231,43,0,0,0,0,0,0,0,0,0,-1,993,981,0,0
-224,43,0,0,0,0,0,0,0,0,0,-1,1000,981,0,0
-217,43,0,0,0,0,0,0,0,0,0,-1,1007,981,0,0
-210,43,0,0,0,0,0,0,0,0,0,-1,1014,981,0,0
-203,43,0,0,0,0,0,0,0,0,0,-1,1021,981,0,0
-196,43,0,0,0,0,0,0,0,0,0,-1,1028,981,0,0
-189,43,0,0,0,0,0,0,0,0,0,-1,1035,981,0,0
-182,43,0,0,0,0,0,0,0,0,0,-1,1042,981,0,0
-175,43,0,0,0,0,0,0,0,0,0,-1,1049,981,0,0
-168,43,0,0,0,0,0,0,0,0,0,-1,1056,981,0,0
-161,43,0,0,0,0,0,0,0,0,0,-1,1063,981,0,0
-154,43,0,0,0,0,0,0,0,0,0,-1,1070,981,0,0
-147,43,0,0,0,0,0,0,0,0,0,-1,1077,981,0,0
-140,43,0,0,0,0,0,0,0,0,0,-1,1084,981,0,0
-133,43,0,0,0,0,0,0,0,0,0,-1,1091,981,0,0
-126,43,0,0,0,0,0,0,0,0,0,-1,1098,981,0,0
-119,43,0,0,0,0,0,0,0,0,0,-1,1105,981,0,0
-112,43,0,0,0,0,0,0,0,0,0,-1,1112,981,0,0
-105,43,0,0,0,0,0,0,0,0,0,-1,1119,981,0,0
-98,43,0,0,0,0,0,0,0,0,0,-1,1126,981,0,0
-91,43,0,0,0,0,0,0,0,0,0,-1,1133,981,0,0
-84,43,0,0,0,0,0,0,0,0,0,-1,1140,981,0,0
-77,43,0,0,0,0,0,0,0,0,0,-1,1147,981,0,0
-70,43,0,0,0,0,0,0,0,0,0,-1,1154,981,0,0
-63,43,0,0,0,0,0,0,0,0,0,-1,1161,981,0,0
-56,43,0,0,0,0,0,0,0,0,0,-1,1168,981,0,0
-49,43,0,0,0,0,0,0,0,0,0,-1,1175,981,0,0
-42,43,0,0,0,0,0,0,0,0,0,-1,1182,981,0,0
-35,43,0,0,0,0,0,0,0,0,0,-1,1189,981,0,0
-28,43,0,0,0,0,0,0,0,0,0,-1,1196,981,0,0
-21,43,0,0,0,0,0,0,0,0,0,-1,1203,981,0,0
-14,43,0,0,0,0,0,0,0,0,0,-1,1210,981,0,0
-7,43,0,0,0,0,0,0,0,0,0,-1,1217,981,0,0
0,43,0,0,0,0,0,0,0,0,0,-1,1224,981,0,0
7,43,0,0,0,0,0,0,0,0,0,-1,1231,981,0,0
14,43,0,0,0,0,0,0,0,0,0,-1,1238,981,0,0
21,43,0,0,0,0,0,0,0,0,0,-1,1245,981,0,0
28,43,0,0,0,0,0,0,0,0,0,-1,1252,981,0,0
35,43,0,0,0,0,0,0,0,0,0,-1,1259,981,0,0
42,43,0,0,0,0,0,0,0,0,0,-1,1266,981,0,0
49,43,0,0,0,0,0,0,0,0,0,-1,1273,981,0,0
56,43,0,0,0,0,0,0,0,0,0,-1,1280,981,0,0
63,43,0,0,0,0,0,0,0,0,0,-1,1287,981,0,0
70,43,0,0,0,0,0,0,0,0,0,-1,1294,981,0,0
77,43,0,0,0,0,0,0,0,0,0,-1,1301,981,0,0
84,43,0,0,0,0,0,0,0,0,0,-1,1308,981,0,0
91,43,0,0,0,0,0,0,0,0,0,-1,1315,981,0,0
98,43,0,0,0,0,0,0,0,0,0,-1,1322,981,0,0
105,43,0,0,0,0,0,0,0,0,0,-1,1329,981,0,0
112,43,0,0,0,0,0,0,0,0,0,-1,1336,981,0,0
119,43,0,0,0,0,0,0,0,0,0,-1,1343,981,0,0
126,43,0,0,0,0,0,0,0,0,0,-1,1350,981,0,0
133,43,0,0,0,0,0,0,0,0,0,-1,1357,981,0,0
140,43,0,0,0,0,0,0,0,0,0,-1,1364,981,0,0
147,43,0,0,0,0,0,0,0,0,0,-1,1371,981,0,0
154,43,0,0,0,0,0,0,0,0,0,-1,1378,981,0,0
161,43,0,0,0,0,0,0,0,0,0,-1,1385,981,0,0
168,43,0,0,0,0,0,0,0,0,0,-1,1392,981,0,0
175,43,0,0,0,0,0,0,0,0,0,-1,1399,981,0,0
182,43,0,0,0,0,0,0,0,0,0,-1,1406,981,0,0
189,43,0,0,0,0,0,0,0,0,0,-1,1413,981,0,0
196,43,0,0,0,0,0,0,0,0,0,-1,1420,981,0,0
203,43,0,0,0,0,0,0,0,0,0,-1,1427,981,0,0
210,43,0,0,0,0,0,0,0,0,0,-1,1434,981,0,0
217,43,0,0,0,0,0,0,0,0,0,-1,1441,981,0,0
224,43,0,0,0,0,0,0,0,0,0,-1,1448,981,0,0
231,43,0,0,0,0,0,0,0,0,0,-1,1455,981,0,0
238,43,0,0,0,0,0,0,0,0,0,-1,1462,981,0,0
245,43,0,0,0,0,0,0,0,0,0,-1,1469,981,0,0
252,43,0,0,0,0,0,0,0,0,0,-1,1476,981,0,0
259,43,0,0,0,0,0,0,0,0,0,-1,1483,981,0,0
266,43,0,0,0,0,0,0,0,0,0,-1,1490,981,0,0
273,43,0,0,0,0,0,0,0,0,0,-1,1497,981,0,0
280,43,0,0,0,0,0,0,0,0,0,-1,1504,981,0,0
287,43,0,0,0,0,0,0,0,0,0,-1,1511,981,0,0
294,43,0,0,0,0,0,0,0,0,0,-1,1518,981,0,0
301,43,0,0,0,0,0,0,0,0,0,-1,1525,981,0,0
308,43,0,0,0,0,0,0,0,0,0,-1,1532,981,0,0
315,43,0,0,0,0,0,0,0,0,0,-1,1539,981,0,0
322,43,0,0,0,0,0,0,0,0,0,-1,1546,981,0,0
329,43,0,0,0,0,0,0,0,0,0,-1,1553,981,0,0
336,43,0,0,0,0,0,0,0,0,0,-1,1560,981,0,0
343,43,0,0,0,0,0,0,0,0,0,-1,1567,981,0,0
350,43,0,0,0,0,0,0,0,0,0,-1,1574,981,0,0
357,43,0,0,0,0,0,0,0,0,0,-1,1581,981,0,0
364,43,0,0,0,0,0,0,0,0,0,-1,1588,981,0,0
371,43,0,0,0,0,0,0,0,0,0,-1,1595,981,0,0
378,43,0,0,0,0,0,0,0,0,0,-1,1602,981,0,0
385,43,0,0,0,0,0,0,0,0,0,-1,1609,981,0,0
392,43,0,0,0,0,0,0,0,0,0,-1,1616,981,0,0
399,43,0,0,0,0,0,0,0,0,0,-1,1623,981,0,0
406,43,0,0,0,0,0,0,0,0,0,-1,1630,981,0,0
413,43,0,0,0,0,0,0,0,0,0,-1,1637,981,0,0
420,43,0,0,0,0,0,0,0,0,0,-1,1644,981,0,0
427,43,0,0,0,0,0,0,0,0,0,-1,1651,981,0,0
434,43,0,0,0,0,0,0,0,0,0,-1,1658,981,0,0
441,43,0,0,0,0,0,0,0,0,0,-1,1665,981,0,0
448,43,0,0,0,0,0,0,0,0,0,-1,1672,981,0,0
455,43,0,0,0,0,0,0,0,0,0,-1,1679,981,0,0
462,43,0,0,0,0,0,0,0,0,0,-1,1686,981,0,0
469,43,0,0,0,0,0,0,0,0,0,-1,1693,981,0,0
476,43,0,0,0,0,0,0,0,0,0,-1,1700,981,0,0
483,43,0,0,0,0,0,0,0,0,0,-1,1707,981,0,0
490,43,0,0,0,0,0,0,0,0,0,-1,1714,981,0,0
497,43,0,0,0,0,0,0,0,0,0,-1,1721,981,0,0
504,43,0,0,0,0,0,0,0,0,0,-1,1728,981,0,0
511,43,0,0,0,0,0,0,0,0,0,-1,1735,981,0,0
518,43,0,0,0,0,0,0,0,0,0,-1,1742,981,0,0
525,43,0,0,0,0,0,0,0,0,0,-1,1749,981,0,0
532,43,0,0,0,0,0,0,0,0,0,-1,1756,981,0,0
539,43,0,0,0,0,0,0,0,0,0,-1,1763,981,0,0
546,43,0,0,0,0,0,0,0,0,0,-1,1770,981,0,0
553,43,0,0,0,0,0,0,0,0,0,-1,1777,981,0,0
560,43,0,0,0,0,0,0,0,0,0,-1,1784,981,0,0
567,43,0,0,0,0,0,0,0,0,0,-1,1791,981,0,0
574,43,0,0,0,0,0,0,0,0,0,-1,1798,981,0,0
581,43,0,0,0,0,0,0,0,0,0,-1,1805,981,0,0
588,43,0,0,0,0,0,0,0,0,0,-1,1812,981,0,0
595,43,0,0,0,0,0,0,0,0,0,-1,1819,981,0,0
602,43,0,0,0,0,0,0,0,0,0,-1,1826,981,0,0
609,43,0,0,0,0,0,0,0,0,0,-1,1833,981,0,0
616,43,0,0,0,0,0,0,0,0,0,-1,1840,981,0,0
623,43,0,0,0,0,0,0,0,0,0,-1,1847,981,0,0
630,43,0,0,0,0,0,0,0,0,0,-1,1854,981,0,0
637,43,0,0,0,0,0,0,0,0,0,-1,1861,981,0,0
644,43,36.6788,2.38177,-0.00195174,0.00354333,0.00398292,0.00563446,-0.00404286,1.08733,0.00561234,0.0399521,1868,981,36.6788,-2.38179
651,43,36.6053,2.4967,-0.000924768,0.00282398,0.00263365,0.00418216,-0.00228295,1.09467,0.00378594,0.0382167,1875,981,36.6054,-2.4967
658,43,36.8357,2.7135,-0.000350982,0.00230161,0.00184339,0.00324625,-0.00129562,1.09724,0.00270166,0.0412229,1882,981,36.8357,-2.71348
665,43,36.796,2.5249,6.35794e-06,0.00208885,0.00148437,0.00286076,-0.000765553,1.09126,0.00220707,0.0389921,1889,981,36.796,-2.52489
672,43,36.7275,2.22546,7.52531e-05,0.00208176,0.00141735,0.002815,-0.000657985,1.09338,0.00213014,0.0387139,1896,981,36.7276,-2.22544
679,43,36.6954,2.36823,-0.000129126,0.00209566,0.00172237,0.00303362,-0.00106709,1.07212,0.00245662,0.0391375,1903,981,36.6954,-2.36823
686,43,36.6971,2.4342,-0.000311859,0.00200452,0.00206067,0.00321017,-0.00151751,1.04142,0.00278723,0.0402053,1910,981,36.6971,-2.43421
693,43,36.7412,2.43384,-0.000513228,0.00187981,0.00225072,0.00323229,-0.00186571,1.02971,0.00297837,0.0386456,1917,981,36.7413,-2.43381
700,43,36.7393,2.51001,-0.000685542,0.00177784,0.00230719,0.00316153,-0.00206923,1.03058,0.00304185,0.0320078,1924,981,36.7393,-2.50999
707,43,36.8037,2.47839,-0.00100431,0.00185471,0.00222367,0.00306873,-0.00221833,1.07107,0.00306561,0.0270144,1931,981,36.8037,-2.47839
714,43,36.8669,2.4057,0,0,0,0,0,0,0,-1,1938,981,36.867,-2.40573
721,43,36.1122,4.16467,0,0,0,0,0,0,0,-1,1945,981,36.1122,-4.16465
728,43,36.0107,4.4317,-0.0024051,0.00277084,0.00221359,0.0035884,-0.00322265,1.217,0.00393425,0.0206004,1952,981,36.0107,-4.43171
735,43,35.9165,4.66669,-0.00234727,0.00337857,0.00182313,0.00390978,-0.00287847,1.28727,0.00393424,0.0142016,1959,981,35.9165,-4.66669
742,43,35.8872,4.78784,-0.00258949,0.00451391,0.00136115,0.0047658,-0.00284137,1.38781,0.0044386,0.0162895,1966,981,35.8871,-4.78783
749,43,35.8644,4.94189,-0.00219064,0.00597751,0.0017579,0.00633977,-0.00255289,1.36757,0.00528708,0.0180584,1973,981,35.8643,-4.9419
756,43,35.879,5.10126,-0.00134687,0.0081691,0.00275899,0.00891116,-0.00208893,1.30805,0.00674577,0.0182036,1980,981,35.879,-5.10127
763,43,35.8785,5.26831,3.79057e-05,0.0124758,0.00460181,0.0139932,-0.00147955,1.25227,0.00985907,0.0215809,1987,981,35.8785,-5.26832
770,43,35.8002,5.50519,0.00238962,0.0174296,0.00754838,0.0205645,-0.000745362,1.17715,0.0139648,0.0175575,1994,981,35.8001,-5.50519
777,43,35.7075,5.65454,0.00569868,0.0236228,0.0118359,0.0295069,-0.000185385,1.10944,0.0197333,0.0213646,2001,981,35.7076,-5.65451
784,43,35.6545,5.92542,0.0100473,0.0312191,0.0178768,0.0414092,-0.000142777,1.05271,0.0276538,0.0404515,2008,981,35.6546,-5.92545
791,43,35.6338,6.22089,0.015885,0.0405165,0.0258925,0.056873,-0.000471592,1.00739,0.0380735,0.0457741,2015,981,35.6337,-6.22088
798,43,35.6765,6.6145,0.023437,0.0519387,0.0358779,0.0762924,-0.000916675,0.974446,0.0511699,0.0435254,2022,981,35.6765,-6.61452
805,43,35.8049,6.85522,0.0326913,0.0659319,0.0479394,0.10005,-0.0014271,0.952261,0.067181,0.044905,2029,981,35.805,-6.85523
812,43,35.9094,7.11908,0.0437092,0.0832181,0.0619123,0.128451,-0.00152379,0.939828,0.0861465,0.0493383,2036,981,35.9095,-7.1191
-700,36,0,0,0,0,0,0,0,0,0,-1,524,988,0,0
-693,36,-31.3132,2.75543,0.144822,-0.00086616,0.0119049,0.145789,-0.00183255,0.0809987,0.097809,0.048687,531,988,-31.3132,-2.7554
-686,36,-30.4307,2.72748,0.133178,0.00692735,0.00874609,0.133781,0.00632435,0.0688371,0.087156,0.0438557,538,988,-30.4307,-2.7275
-679,36,-29.6751,2.65314,0.116587,0.0123501,0.00708504,0.117067,0.0118707,0.0675563,0.0744038,0.0446333,545,988,-29.6751,-2.65311
-672,36,-28.9467,2.77716,0.0983993,0.0156396,0.00624708,0.0988682,0.0151707,0.0749188,0.0614823,0.0482377,552,988,-28.9467,-2.77718
-665,36,-26.449,1.77374,0.0804151,0.0172003,0.00579594,0.0809421,0.0166733,0.090679,0.0493516,0.0463364,559,988,-26.449,-1.77372
-658,36,-26.7002,2.47412,0.0636383,0.0173665,0.0055081,0.0642849,0.0167199,0.116863,0.0385127,0.0480952,566,988,-26.7002,-2.47415
-651,36,-26.736,2.53748,0.0487104,0.0164189,0.00518835,0.0495235,0.0156057,0.155461,0.0292367,0.0362394,573,988,-26.736,-2.53745
-644,36,-26.7145,2.62183,0.0360001,0.0146167,0.00450596,0.0369108,0.013706,0.199428,0.0215444,0.0230778,580,988,-26.7145,-2.62186
-637,36,-26.7402,2.57288,0.0253447,0.0126637,0.00305024,0.0260403,0.0119682,0.224196,0.0150507,0.0186545,587,988,-26.7402,-2.57286
-630,36,-26.7393,2.52588,0.0162632,0.0111144,0.00148051,0.0166585,0.010719,0.26095,0.00974886,0.0149712,594,988,-26.7393,-2.52586
-623,36,-26.7624,2.42999,0.00910295,0.00955327,-0.000222002,0.00964431,0.00901191,-1.18163,0.00622945,0.0125792,601,988,-26.7624,-2.42999
-616,36,-26.7632,2.29913,0.0030188,0.00707007,-0.00144858,0.00753473,0.00255414,-1.26039,0.00442473,0.0103365,608,988,-26.7632,-2.29911
-609,36,-26.7449,2.20013,-0.000259206,0.00477875,-0.00332661,0.00643249,-0.00191295,-1.10945,0.00504827,0.0145631,615,988,-26.7449,-2.20014
-602,36,-26.7313,2.11383,-0.00118108,0.00340633,-0.00488907,0.00651301,-0.00428775,-1.00473,0.00627978,0.0172405,622,988,-26.7313,-2.11382
-595,36,-26.749,1.99298,-0.00174209,0.00230763,-0.00620928,0.00681386,-0.00624832,-0.943012,0.00754381,0.0193065,629,988,-26.749,-1.99299
-588,36,-26.7513,1.47229,-0.00205164,0.0018621,-0.00699441,0.00716822,-0.00735777,-0.921799,0.00838682,0.0234378,636,988,-26.7514,-1.47231
-581,36,-26.7565,0.876282,-0.00224635,0.00166662,-0.0071317,0.00710534,-0.00768506,-0.919273,0.00854143,0.0261988,643,988,-26.7565,-0.876266
-574,36,-26.7744,0.687866,-0.00242698,0.00137628,-0.00687501,0.00660781,-0.00765851,-0.920325,0.00824411,0.025562,650,988,-26.7744,-0.687866
-567,36,-26.8027,0.735718,-0.00273791,0.00127931,-0.00613021,0.00572159,-0.00718019,-0.943715,0.00746469,0.0319475,657,988,-26.8027,-0.735712
-560,36,-26.7759,0.754211,-0.0029513,0.00114721,-0.00491492,0.00442298,-0.00622707,-0.982913,0.00617815,0.0378829,664,988,-26.7759,-0.754216
-553,36,-26.7734,0.767395,-0.00297849,0.000913163,-0.00333748,0.00283063,-0.00489595,-1.04932,0.00451375,0.0433206,671,988,-26.7735,-0.767405
-546,36,-26.9092,0.692261,-0.00272068,0.000469482,-0.00148395,0.00105302,-0.00330422,-1.19614,0.00262519,0.0436625,678,988,-26.9093,-0.692267
-539,36,-26.7562,0.581604,-0.00201418,-0.000329359,0.000288357,-0.000281373,-0.00206216,1.4059,0.00129124,0.0431365,685,988,-26.7563,-0.581578
-532,36,-26.8241,0.792786,-0.000988949,-0.000932467,0.000936001,-2.42806e-05,-0.00189714,0.80048,0.00125674,0.0467775,692,988,-26.8241,-0.792757
-525,36,-26.9105,0.683777,-0.00105583,-0.00152868,0.00022277,-0.000967413,-0.0016171,0.377835,0.00093962,0.0485415,699,988,-26.9104,-0.683749
-518,36,0,0,0,0,0,0,0,0,0,-1,706,988,0,0
-511,36,0,0,0,0,0,0,0,0,0,-1,713,988,0,0
-504,36,0,0,0,0,0,0,0,0,0,-1,720,988,0,0
-497,36,0,0,0,0,0,0,0,0,0,-1,727,988,0,0
-490,36,0,0,0,0,0,0,0,0,0,-1,734,988,0,0
-483,36,0,0,0,0,0,0,0,0,0,-1,741,988,0,0
-476,36,0,0,0,0,0,0,0,0,0,-1,748,988,0,0
-469,36,0,0,0,0,0,0,0,0,0,-1,755,988,0,0
-462,36,0,0,0,0,0,0,0,0,0,-1,762,988,0,0
-455,36,0,0,0,0,0,0,0,0,0,-1,769,988,0,0
-448,36,0,0,0,0,0,0,0,0,0,-1,776,988,0,0
-441,36,0,0,0,0,0,0,0,0,0,-1,783,988,0,0
-434,36,0,0,0,0,0,0,0,0,0,-1,790,988,0,0
-427,36,0,0,0,0,0,0,0,0,0,-1,797,988,0,0
-420,36,0,0,0,0,0,0,0,0,0,-1,804,988,0,0
-413,36,0,0,0,0,0,0,0,0,0,-1,811,988,0,0
-406,36,0,0,0,0,0,0,0,0,0,-1,818,988,0,0
-399,36,0,0,0,0,0,0,0,0,0,-1,825,988,0,0
-392,36,0,0,0,0,0,0,0,0,0,-1,832,988,0,0
-385,36,0,0,0,0,0,0,0,0,0,-1,839,988,0,0
-378,36,0,0,0,0,0,0,0,0,0,-1,846,988,0,0
-371,36,0,0,0,0,0,0,0,0,0,-1,853,988,0,0
-364,36,0,0,0,0,0,0,0,0,0,-1,860,988,0,0
-357,36,0,0,0,0,0,0,0,0,0,-1,867,988,0,0
-350,36,0,0,0,0,0,0,0,0,0,-1,874,988,0,0
-343,36,0,0,0,0,0,0,0,0,0,-1,881,988,0,0
-336,36,0,0,0,0,0,0,0,0,0,-1,888,988,0,0
-329,36,0,0,0,0,0,0,0,0,0,-1,895,988,0,0
-322,36,0,0,0,0,0,0,0,0,0,-1,902,988,0,0
-315,36,0,0,0,0,0,0,0,0,0,-1,909,988,0,0
-308,36,0,0,0,0,0,0,0,0,0,-1,916,988,0,0
-301,36,0,0,0,0,0,0,0,0,0,-1,923,988,0,0
-294,36,0,0,0,0,0,0,0,0,0,-1,930,988,0,0
-287,36,0,0,0,0,0,0,0,0,0,-1,937,988,0,0
-280,36,0,0,0,0,0,0,0,0,0,-1,944,988,0,0
-273,36,0,0,0,0,0,0,0,0,0,-1,951,988,0,0
-266,36,0,0,0,0,0,0,0,0,0,-1,958,988,0,0
-259,36,0,0,0,0,0,0,0,0,0,-1,965,988,0,0
-252,36,0,0,0,0,0,0,0,0,0,-1,972,988,0,0
-245,36,0,0,0,0,0,0,0,0,0,-1,979,988,0,0
-238,36,0,0,0,0,0,0,0,0,0,-1,986,988,0,0
-231,36,0,0,0,0,0,0,0,0,0,-1,993,988,0,0
-224,36,0,0,0,0,0,0,0,0,0,-1,1000,988,0,0
-217,36,0,0,0,0,0,0,0,0,0,-1,1007,988,0,0
-210,36,0,0,0,0,0,0,0,0,0,-1,1014,988,0,0
-203,36,0,0,0,0,0,0,0,0,0,-1,1021,988,0,0
-196,36,0,0,0,0,0,0,0,0,0,-1,1028,988,0,0
-189,36,0,0,0,0,0,0,0,0,0,-1,1035,988,0,0
-182,36,0,0,0,0,0,0,0,0,0,-1,1042,988,0,0
-175,36,0,0,0,0,0,0,0,0,0,-1,1049,988,0,0
-168,36,0,0,0,0,0,0,0,0,0,-1,1056,988,0,0
-161,36,0,0,0,0,0,0,0,0,0,-1,1063,988,0,0
-154,36,0,0,0,0,0,0,0,0,0,-1,1070,988,0,0
-147,36,0,0,0,0,0,0,0,0,0,-1,1077,988,0,0
-140,36,0,0,0,0,0,0,0,0,0,-1,1084,988,0,0
-133,36,0,0,0,0,0,0,0,0,0,-1,1091,988,0,0
-126,36,0,0,0,0,0,0,0,0,0,-1,1098,988,0,0
-119,36,0,0,0,0,0,0,0,0,0,-1,1105,988,0,0
-112,36,0,0,0,0,0,0,0,0,0,-1,1112,988,0,0
-105,36,0,0,0,0,0,0,0,0,0,-1,1119,988,0,0
-98,36,0,0,0,0,0,0,0,0,0,-1,1126,988,0,0
-91,36,0,0,0,0,0,0,0,0,0,-1,1133,988,0,0
-84,36,0,0,0,0,0,0,0,0,0,-1,1140,988,0,0
-77,36,0,0,0,0,0,0,0,0,0,-1,1147,988,0,0
-70,36,0,0,0,0,0,0,0,0,0,-1,1154,988,0,0
-63,36,0,0,0,0,0,0,0,0,0,-1,1161,988,0,0
-56,36,0,0,0,0,0,0,0,0,0,-1,1168,988,0,0
-49,36,0,0,0,0,0,0,0,0,0,-1,1175,988,0,0
-42,36,0,0,0,0,0,0,0,0,0,-1,1182,988,0,0
-35,36,0,0,0,0,0,0,0,0,0,-1,1189,988,0,0
-28,36,0,0,0,0,0,0,0,0,0,-1,1196,988,0,0
-21,36,0,0,0,0,0,0,0,0,0,-1,1203,988,0,0
-14,36,0,0,0,0,0,0,0,0,0,-1,1210,988,0,0
-7,36,0,0,0,0,0,0,0,0,0,-1,1217,988,0,0
0,36,0,0,0,0,0,0,0,0,0,-1,1224,988,0,0
7,36,0,0,0,0,0,0,0,0,0,-1,1231,988,0,0
14,36,0,0,0,0,0,0,0,0,0,-1,1238,988,0,0
21,36,0,0,0,0,0,0,0,0,0,-1,1245,988,0,0
28,36,0,0,0,0,0,0,0,0,0,-1,1252,988,0,0
35,36,0,0,0,0,0,0,0,0,0,-1,1259,988,0,0
42,36,0,0,0,0,0,0,0,0,0,-1,1266,988,0,0
49,36,0,0,0,0,0,0,0,0,0,-1,1273,988,0,0
56,36,0,0,0,0,0,0,0,0,0,-1,1280,988,0,0
63,36,0,0,0,0,0,0,0,0,0,-1,1287,988,0,0
70,36,0,0,0,0,0,0,0,0,0,-1,1294,988,0,0
77,36,0,0,0,0,0,0,0,0,0,-1,1301,988,0,0
84,36,0,0,0,0,0,0,0,0,0,-1,1308,988,0,0
91,36,0,0,0,0,0,0,0,0,0,-1,1315,988,0,0
98,36,0,0,0,0,0,0,0,0,0,-1,1322,988,0,0
105,36,0,0,0,0,0,0,0,0,0,-1,1329,988,0,0
112,36,0,0,0,0,0,0,0,0,0,-1,1336,988,0,0
119,36,0,0,0,0,0,0,0,0,0,-1,1343,988,0,0
126,36,0,0,0,0,0,0,0,0,0,-1,1350,988,0,0
133,36,0,0,0,0,0,0,0,0,0,-1,1357,988,0,0
140,36,0,0,0,0,0,0,0,0,0,-1,1364,988,0,0
147,36,0,0,0,0,0,0,0,0,0,-1,1371,988,0,0
154,36,0,0,0,0,0,0,0,0,0,-1,1378,988,0,0
161,36,0,0,0,0,0,0,0,0,0,-1,1385,988,0,0
168,36,0,0,0,0,0,0,0,0,0,-1,1392,988,0,0
175,36,0,0,0,0,0,0,0,0,0,-1,1399,988,0,0
182,36,0,0,0,0,0,0,0,0,0,-1,1406,988,0,0
189,36,0,0,0,0,0,0,0,0,0,-1,1413,988,0,0
196,36,0,0,0,0,0,0,0,0,0,-1,1420,988,0,0
203,36,0,0,0,0,0,0,0,0,0,-1,1427,988,0,0
210,36,0,0,0,0,0,0,0,0,0,-1,1434,988,0,0
217,36,0,0,0,0,0,0,0,0,0,-1,1441,988,0,0
224,36,0,0,0,0,0,0,0,0,0,-1,1448,988,0,0
231,36,0,0,0,0,0,0,0,0,0,-1,1455,988,0,0
238,36,0,0,0,0,0,0,0,0,0,-1,1462,988,0,0
245,36,0,0,0,0,0,0,0,0,0,-1,1469,988,0,0
252,36,0,0,0,0,0,0,0,0,0,-1,1476,988,0,0
259,36,0,0,0,0,0,0,0,0,0,-1,1483,988,0,0
266,36,0,0,0,0,0,0,0,0,0,-1,1490,988,0,0
273,36,0,0,0,0,0,0,0,0,0,-1,1497,988,0,0
280,36,0,0,0,0,0,0,0,0,0,-1,1504,988,0,0
287,36,0,0,0,0,0,0,0,0,0,-1,1511,988,0,0
294,36,0,0,0,0,0,0,0,0,0,-1,1518,988,0,0
301,36,0,0,0,0,0,0,0,0,0,-1,1525,988,0,0
308,36,0,0,0,0,0,0,0,0,0,-1,1532,988,0,0
315,36,0,0,0,0,0,0,0,0,0,-1,1539,988,0,0
322,36,0,0,0,0,0,0,0,0,0,-1,1546,988,0,0
329,36,0,0,0,0,0,0,0,0,0,-1,1553,988,0,0
336,36,0,0,0,0,0,0,0,0,0,-1,1560,988,0,0
343,36,0,0,0,0,0,0,0,0,0,-1,1567,988,0,0
350,36,0,0,0,0,0,0,0,0,0,-1,1574,988,0,0
357,36,0,0,0,0,0,0,0,0,0,-1,1581,988,0,0
364,36,0,0,0,0,0,0,0,0,0,-1,1588,988,0,0
371,36,0,0,0,0,0,0,0,0,0,-1,1595,988,0,0
378,36,0,0,0,0,0,0,0,0,0,-1,1602,988,0,0
385,36,0,0,0,0,0,0,0,0,0,-1,1609,988,0,0
392,36,0,0,0,0,0,0,0,0,0,-1,1616,988,0,0
399,36,0,0,0,0,0,0,0,0,0,-1,1623,988,0,0
406,36,0,0,0,0,0,0,0,0,0,-1,1630,988,0,0
413,36,0,0,0,0,0,0,0,0,0,-1,1637,988,0,0
420,36,0,0,0,0,0,0,0,0,0,-1,1644,988,0,0
427,36,0,0,0,0,0,0,0,0,0,-1,1651,988,0,0
434,36,0,0,0,0,0,0,0,0,0,-1,1658,988,0,0
441,36,0,0,0,0,0,0,0,0,0,-1,1665,988,0,0
448,36,0,0,0,0,0,0,0,0,0,-1,1672,988,0,0
455,36,0,0,0,0,0,0,0,0,0,-1,1679,988,0,0
462,36,0,0,0,0,0,0,0,0,0,-1,1686,988,0,0
469,36,0,0,0,0,0,0,0,0,0,-1,1693,988,0,0
476,36,0,0,0,0,0,0,0,0,0,-1,1700,988,0,0
483,36,0,0,0,0,0,0,0,0,0,-1,1707,988,0,0
490,36,0,0,0,0,0,0,0,0,0,-1,1714,988,0,0
497,36,0,0,0,0,0,0,0,0,0,-1,1721,988,0,0
504,36,0,0,0,0,0,0,0,0,0,-1,1728,988,0,0
511,36,0,0,0,0,0,0,0,0,0,-1,1735,988,0,0
518,36,0,0,0,0,0,0,0,0,0,-1,1742,988,0,0
525,36,0,0,0,0,0,0,0,0,0,-1,1749,988,0,0
532,36,0,0,0,0,0,0,0,0,0,-1,1756,988,0,0
539,36,0,0,0,0,0,0,0,0,0,-1,1763,988,0,0
546,36,0,0,0,0,0,0,0,0,0,-1,1770,988,0,0
553,36,0,0,0,0,0,0,0,0,0,-1,1777,988,0,0
560,36,0,0,0,0,0,0,0,0,0,-1,1784,988,0,0
567,36,0,0,0,0,0,0,0,0,0,-1,1791,988,0,0
574,36,0,0,0,0,0,0,0,0,0,-1,1798,988,0,0
581,36,0,0,0,0,0,0,0,0,0,-1,1805,988,0,0
588,36,0,0,0,0,0,0,0,0,0,-1,1812,988,0,0
595,36,0,0,0,0,0,0,0,0,0,-1,1819,988,0,0
602,36,0,0,0,0,0,0,0,0,0,-1,1826,988,0,0
609,36,0,0,0,0,0,0,0,0,0,-1,1833,988,0,0
616,36,0,0,0,0,0,0,0,0,0,-1,1840,988,0,0
623,36,0,0,0,0,0,0,0,0,0,-1,1847,988,0,0
630,36,0,0,0,0,0,0,0,0,0,-1,1854,988,0,0
637,36,0,0,0,0,0,0,0,0,0,-1,1861,988,0,0
644,36,36.7125,2.59326,-0.0019774,0.00412092,0.00405112,0.00614216,-0.00399864,1.108,0.00589823,0.0390764,1868,988,36.7125,-2.59325
651,36,36.6566,2.79034,-0.00101745,0.00336144,0.00261192,0.00458019,-0.0022362,1.13422,0.00401226,0.0381933,1875,988,36.6566,-2.79036
658,36,36.8317,2.76111,-0.000472093,0.00280816,0.00177511,0.00358485,-0.00124879,1.15835,0.00289731,0.038942,1882,988,36.8316,-2.76113
665,36,36.9879,2.60254,-0.000114499,0.00254532,0.00140515,0.00315012,-0.000719299,1.16435,0.00237642,0.0377189,1889,988,36.9879,-2.60257
672,36,36.9357,2.40802,2.2004e-05,0.00252342,0.00135224,0.00311468,-0.000569248,1.1586,0.00228991,0.0396872,1896,988,36.9356,-2.40803
679,36,36.866,2.37183,-8.87397e-05,0.00254559,0.00170782,0.00338517,-0.000928327,1.11388,0.0026216,0.0404165,1903,988,36.866,-2.3718
686,36,36.7787,2.37177,-0.000203563,0.00244966,0.00212531,0.00362841,-0.00138232,1.06441,0.00298826,0.0375924,1910,988,36.7787,-2.37178
693,36,36.7639,2.44543,-0.000352036,0.0023101,0.00240381,0.00372677,-0.0017687,1.03825,0.00323925,0.0390104,1917,988,36.764,-2.44544
700,36,36.7522,2.5788,-0.000466223,0.00216371,0.00252633,0.00369681,-0.00199932,1.02536,0.00333698,0.0342333,1924,988,36.7522,-2.57879
707,36,36.7991,2.53729,-0.000743629,0.00222241,0.00250507,0.00365053,-0.00217175,1.05266,0.00339744,0.0236927,1931,988,36.7991,-2.53732
714,36,36.8994,2.37842,0,0,0,0,0,0,0,-1,1938,988,36.8994,-2.37845
721,36,36.3805,4.22266,0,0,0,0,0,0,0,-1,1945,988,36.3804,-4.22268
728,36,36.2114,4.48267,-0.00225305,0.00301871,0.0025776,0.00406955,-0.00330389,1.18369,0.0042647,0.0210864,1952,988,36.2114,-4.48268
735,36,36.095,4.71753,-0.00231022,0.00361255,0.00213898,0.00430425,-0.00300193,1.25803,0.0042405,0.0187977,1959,988,36.095,-4.71754
742,36,36.0482,4.81726,-0.00279626,0.00465445,0.00159356,0.00498097,-0.00312278,1.36869,0.00471953,0.0160785,1966,988,36.0482,-4.81726
749,36,36.0513,4.95642,-0.00268995,0.00600344,0.00199363,0.00643883,-0.00312534,1.35578,0.00563125,0.016711,1973,988,36.0513,-4.95643
756,36,36.0409,5.07922,-0.00214716,0.00804301,0.00300736,0.00886435,-0.0029685,1.30419,0.00710876,0.0146133,1980,988,36.0409,-5.07923
763,36,35.9902,5.22424,-0.00119268,0.0123805,0.00482284,0.0139196,-0.00273181,1.26188,0.0103117,0.0178398,1987,988,35.9902,-5.22425
770,36,35.9189,5.40216,0.000609098,0.0172766,0.00777798,0.0203423,-0.00245664,1.19534,0.0144502,0.0159602,1994,988,35.919,-5.40215
777,36,35.8823,5.63452,0.00336555,0.0235607,0.0122555,0.0293426,-0.00241632,1.12998,0.0204149,0.0245407,2001,988,35.8823,-5.63453
784,36,35.8318,5.78882,0.00703572,0.0312414,0.018509,0.0412533,-0.0029762,1.07495,0.028546,0.0456292,2008,988,35.8317,-5.78881
791,36,35.7898,5.96326,0,0,0,0,0,0,0,-1,2015,988,35.7899,-5.96327
798,36,35.0864,6.28021,0.0185905,0.0524719,0.0374814,0.0766632,-0.00560077,0.997646,0.0530743,0.0410228,2022,988,35.0864,-6.28021
805,36,35.4517,6.42072,0.0267021,0.067038,0.0504344,0.101187,-0.00744726,0.975602,0.0700727,0.0445368,2029,988,35.4516,-6.42074
812,36,35.6506,6.51587,0.0364227,0.0852851,0.0657597,0.131005,-0.00929751,0.963257,0.0905952,0.049889,2036,988,35.6506,-6.51588
-700,29,0,0,0,0,0,0,0,0,0,-1,524,995,0,0
-693,29,-31.3906,2.6593,0.14853,0.0118735,0.00733977,0.148923,0.0114804,0.0535044,0.0956852,0.0460093,531,995,-31.3906,-2.65927
-686,29,-30.6062,2.68317,0.137247,0.0142938,0.00366621,0.137356,0.0141846,0.0297827,0.0872279,0.0434673,538,995,-30.6062,-2.68316
-679,29,-29.9762,2.60107,0.120453,0.0162336,0.00216033,0.120498,0.0161889,0.0207168,0.0755164,0.0442952,545,995,-29.9762,-2.60106
-672,29,-28.7914,2.6593,0.101841,0.0173097,0.00177627,0.101878,0.0172724,0.0210009,0.0629562,0.0449909,552,995,-28.7915,-2.65932
-665,29,-26.3469,1.20026,0.0833407,0.0175188,0.00191011,0.083396,0.0174634,0.0289869,0.0507871,0.0442901,559,995,-26.3469,-1.20025
-658,29,-26.496,1.52228,0.0660291,0.0169184,0.00224293,0.0661313,0.0168161,0.0455445,0.039688,0.0432476,566,995,-26.496,-1.52227
-651,29,-26.64,1.92365,0.0506057,0.0155927,0.00250734,0.0507844,0.015414,0.0711279,0.0300655,0.0396051,573,995,-26.64,-1.92367
-644,29,-26.7936,2.28723,0.0373921,0.0136541,0.00231148,0.0376151,0.0134311,0.0961707,0.0220109,0.0247172,580,995,-26.7937,-2.28726
-637,29,-26.8472,2.4519,0.0263682,0.0115494,0.00108335,0.026447,0.0114706,0.0725923,0.0153138,0.0172786,587,995,-26.8472,-2.45189
-630,29,-26.8644,2.46613,0.0171046,0.0099106,-0.000108043,0.0171062,0.00990897,-0.015014,0.00991754,0.0134154,594,995,-26.8644,-2.4661
-623,29,-26.8596,2.4187,0.00989443,0.00852157,-0.0014946,0.0108527,0.0075633,-0.57013,0.00642572,0.0118339,601,995,-26.8596,-2.41871
-616,29,-26.8776,2.30243,0.00361814,0.00653753,-0.00242156,0.00790532,0.00225034,-1.05663,0.00470312,0.0132439,608,995,-26.8776,-2.30245
-609,29,-26.9025,2.21887,0.000374398,0.0045378,-0.00417222,0.00711881,-0.00220661,-1.0168,0.00562751,0.0199296,615,995,-26.9025,-2.21887
-602,29,-26.8671,2.16229,-0.000294643,0.00313758,-0.00566121,0.00733708,-0.00449414,-0.932564,0.00689617,0.0200677,622,995,-26.8671,-2.16228
-595,29,-26.8331,2.0191,-0.000684216,0.0020328,-0.00690638,0.00771302,-0.00636443,-0.88251,0.00814004,0.0196384,629,995,-26.8331,-2.0191
-588,29,-26.7771,1.5141,-0.000885647,0.00160331,-0.00766684,0.00812601,-0.00740835,-0.865856,0.00897196,0.0284763,636,995,-26.7771,-1.51412
-581,29,-26.7482,0.93866,-0.00100946,0.00138615,-0.00778072,0.00806073,-0.00768404,-0.861771,0.00909111,0.0379624,643,995,-26.7482,-0.938682
-574,29,-26.7482,0.705444,-0.00123895,0.00106499,-0.00745296,0.00745448,-0.00762845,-0.862074,0.00870833,0.0286073,650,995,-26.7482,-0.705454
-567,29,-26.783,0.597229,-0.00167494,0.000906822,-0.00660387,0.0063448,-0.00711292,-0.881918,0.00777403,0.0289058,657,995,-26.783,-0.597216
-560,29,-26.8257,0.537903,-0.00209789,0.000706337,-0.00527302,0.00476047,-0.00615202,-0.915343,0.00631738,0.036214,664,995,-26.8258,-0.537895
-553,29,-26.8183,0.512329,-0.00242639,0.000379462,-0.00358526,0.0028265,-0.00487343,-0.971892,0.00449762,0.0429768,671,995,-26.8183,-0.512344
-546,29,-26.837,0.49646,-0.00254335,-0.000194803,-0.0016522,0.00065791,-0.00339607,-1.09435,0.00251223,0.0445785,678,995,-26.837,-0.496482
-539,29,-26.9152,0.563904,-0.00222236,-0.00117861,6.05972e-05,-0.0011751,-0.00222587,1.513,0.00128577,0.0419205,685,995,-26.9152,-0.563881
-532,29,-26.9498,0.847595,-0.00155388,-0.00186355,0.000327262,-0.00134667,-0.00207076,0.564441,0.00121343,0.0459331,692,995,-26.9498,-0.847611
-525,29,-26.9384,0.90979,-0.00176633,-0.00257937,-0.000906044,-0.00117979,-0.00316592,-0.574521,0.0018475,0.0455993,699,995,-26.9384,-0.90979
-518,29,0,0,0,0,0,0,0,0,0,-1,706,995,0,0
-511,29,0,0,0,0,0,0,0,0,0,-1,713,995,0,0
-504,29,0,0,0,0,0,0,0,0,0,-1,720,995,0,0
-497,29,0,0,0,0,0,0,0,0,0,-1,727,995,0,0
-490,29,0,0,0,0,0,0,0,0,0,-1,734,995,0,0
-483,29,0,0,0,0,0,0,0,0,0,-1,741,995,0,0
-476,29,0,0,0,0,0,0,0,0,0,-1,748,995,0,0
-469,29,0,0,0,0,0,0,0,0,0,-1,755,995,0,0
-462,29,0,0,0,0,0,0,0,0,0,-1,762,995,0,0
-455,29,0,0,0,0,0,0,0,0,0,-1,769,995,0,0
-448,29,0,0,0,0,0,0,0,0,0,-1,776,995,0,0
-441,29,0,0,0,0,0,0,0,0,0,-1,783,995,0,0
-434,29,0,0,0,0,0,0,0,0,0,-1,790,995,0,0
-427,29,0,0,0,0,0,0,0,0,0,-1,797,995,0,0
-420,29,0,0,0,0,0,0,0,0,0,-1,804,995,0,0
-413,29,0,0,0,0,0,0,0,0,0,-1,811,995,0,0
-406,29,0,0,0,0,0,0,0,0,0,-1,818,995,0,0
-399,29,0,0,0,0,0,0,0,0,0,-1,825,995,0,0
-392,29,0,0,0,0,0,0,0,0,0,-1,832,995,0,0
-385,29,0,0,0,0,0,0,0,0,0,-1,839,995,0,0
-378,29,0,0,0,0,0,0,0,0,0,-1,846,995,0,0
-371,29,0,0,0,0,0,0,0,0,0,-1,853,995,0,0
-364,29,0,0,0,0,0,0,0,0,0,-1,860,995,0,0
-357,29,0,0,0,0,0,0,0,0,0,-1,867,995,0,0
-350,29,0,0,0,0,0,0,0,0,0,-1,874,995,0,0
-343,29,0,0,0,0,0,0,0,0,0,-1,881,995,0,0
-336,29,0,0,0,0,0,0,0,0,0,-1,888,995,0,0
-329,29,0,0,0,0,0,0,0,0,0,-1,895,995,0,0
-322,29,0,0,0,0,0,0,0,0,0,-1,902,995,0,0
-315,29,0,0,0,0,0,0,0,0,0,-1,909,995,0,0
-308,29,0,0,0,0,0,0,0,0,0,-1,916,995,0,0
-301,29,0,0,0,0,0,0,0,0,0,-1,923,995,0,0
-294,29,0,0,0,0,0,0,0,0,0,-1,930,995,0,0
-287,29,0,0,0,0,0,0,0,0,0,-1,937,995,0,0
-280,29,0,0,0,0,0,0,0,0,0,-1,944,995,0,0
-273,29,0,0,0,0,0,0,0,0,0,-1,951,995,0,0
-266,29,0,0,0,0,0,0,0,0,0,-1,958,995,0,0
-259,29,0,0,0,0,0,0,0,0,0,-1,965,995,0,0
-252,29,0,0,0,0,0,0,0,0,0,-1,972,995,0,0
-245,29,0,0,0,0,0,0,0,0,0,-1,979,995,0,0
-238,29,0,0,0,0,0,0,0,0,0,-1,986,995,0,0
-231,29,0,0,0,0,0,0,0,0,0,-1,993,995,0,0
-224,29,0,0,0,0,0,0,0,0,0,-1,1000,995,0,0
-217,29,0,0,0,0,0,0,0,0,0,-1,1007,995,0,0
-210,29,0,0,0,0,0,0,0,0,0,-1,1014,995,0,0
-203,29,0,0,0,0,0,0,0,0,0,-1,1021,995,0,0
-196,29,0,0,0,0,0,0,0,0,0,-1,1028,995,0,0
-189,29,0,0,0,0,0,0,0,0,0,-1,1035,995,0,0
-182,29,0,0,0,0,0,0,0,0,0,-1,1042,995,0,0
-175,29,0,0,0,0,0,0,0,0,0,-1,1049,995,0,0
-168,29,0,0,0,0,0,0,0,0,0,-1,1056,995,0,0
-161,29,0,0,0,0,0,0,0,0,0,-1,1063,995,0,0
-154,29,0,0,0,0,0,0,0,0,0,-1,1070,995,0,0
-147,29,0,0,0,0,0,0,0,0,0,-1,1077,995,0,0
-140,29,0,0,0,0,0,0,0,0,0,-1,1084,995,0,0
-133,29,0,0,0,0,0,0,0,0,0,-1,1091,995,0,0
-126,29,0,0,0,0,0,0,0,0,0,-1,1098,995,0,0
-119,29,0,0,0,0,0,0,0,0,0,-1,1105,995,0,0
-112,29,0,0,0,0,0,0,0,0,0,-1,1112,995,0,0
-105,29,0,0,0,0,0,0,0,0,0,-1,1119,995,0,0
-98,29,0,0,0,0,0,0,0,0,0,-1,1126,995,0,0
-91,29,0,0,0,0,0,0,0,0,0,-1,1133,995,0,0
-84,29,0,0,0,0,0,0,0,0,0,-1,1140,995,0,0
-77,29,0,0,0,0,0,0,0,0,0,-1,1147,995,0,0
-70,29,0,0,0,0,0,0,0,0,0,-1,1154,995,0,0
-63,29,0,0,0,0,0,0,0,0,0,-1,1161,995,0,0
-56,29,0,0,0,0,0,0,0,0,0,-1,1168,995,0,0
-49,29,0,0,0,0,0,0,0,0,0,-1,1175,995,0,0
-42,29,0,0,0,0,0,0,0,0,0,-1,1182,995,0,0
-35,29,0,0,0,0,0,0,0,0,0,-1,1189,995,0,0
-28,29,0,0,0,0,0,0,0,0,0,-1,1196,995,0,0
-21,29,0,0,0,0,0,0,0,0,0,-1,1203,995,0,0
-14,29,0,0,0,0,0,0,0,0,0,-1,1210,995,0,0
-7,29,0,0,0,0,0,0,0,0,0,-1,1217,995,0,0
0,29,0,0,0,0,0,0,0,0,0,-1,1224,995,0,0
7,29,0,0,0,0,0,0,0,0,0,-1,1231,995,0,0
14,29,0,0,0,0,0,0,0,0,0,-1,1238,995,0,0
21,29,0,0,0,0,0,0,0,0,0,-1,1245,995,0,0
28,29,0,0,0,0,0,0,0,0,0,-1,1252,995,0,0
35,29,0,0,0,0,0,0,0,0,0,-1,1259,995,0,0
42,29,0,0,0,0,0,0,0,0,0,-1,1266,995,0,0
49,29,0,0,0,0,0,0,0,0,0,-1,1273,995,0,0
56,29,0,0,0,0,0,0,0,0,0,-1,1280,995,0,0
63,29,0,0,0,0,0,0,0,0,0,-1,1287,995,0,0
70,29,0,0,0,0,0,0,0,0,0,-1,1294,995,0,0
77,29,0,0,0,0,0,0,0,0,0,-1,1301,995,0,0
84,29,0,0,0,0,0,0,0,0,0,-1,1308,995,0,0
91,29,0,0,0,0,0,0,0,0,0,-1,1315,995,0,0
98,29,0,0,0,0,0,0,0,0,0,-1,1322,995,0,0
105,29,0,0,0,0,0,0,0,0,0,-1,1329,995,0,0
112,29,0,0,0,0,0,0,0,0,0,-1,1336,995,0,0
119,29,0,0,0,0,0,0,0,0,0,-1,1343,995,0,0
126,29,0,0,0,0,0,0,0,0,0,-1,1350,995,0,0
133,29,0,0,0,0,0,0,0,0,0,-1,1357,995,0,0
140,29,0,0,0,0,0,0,0,0,0,-1,1364,995,0,0
147,29,0,0,0,0,0,0,0,0,0,-1,1371,995,0,0
154,29,0,0,0,0,0,0,0,0,0,-1,1378,995,0,0
161,29,0,0,0,0,0,0,0,0,0,-1,1385,995,0,0
168,29,0,0,0,0,0,0,0,0,0,-1,1392,995,0,0
175,29,0,0,0,0,0,0,0,0,0,-1,1399,995,0,0
182,29,0,0,0,0,0,0,0,0,0,-1,1406,995,0,0
189,29,0,0,0,0,0,0,0,0,0,-1,1413,995,0,0
196,29,0,0,0,0,0,0,0,0,0,-1,1420,995,0,0
203,29,0,0,0,0,0,0,0,0,0,-1,1427,995,0,0
210,29,0,0,0,0,0,0,0,0,0,-1,1434,995,0,0
217,29,0,0,0,0,0,0,0,0,0,-1,1441,995,0,0
224,29,0,0,0,0,0,0,0,0,0,-1,1448,995,0,0
231,29,0,0,0,0,0,0,0,0,0,-1,1455,995,0,0
238,29,0,0,0,0,0,0,0,0,0,-1,1462,995,0,0
245,29,0,0,0,0,0,0,0,0,0,-1,1469,995,0,0
252,29,0,0,0,0,0,0,0,0,0,-1,1476,995,0,0
259,29,0,0,0,0,0,0,0,0,0,-1,1483,995,0,0
266,29,0,0,0,0,0,0,0,0,0,-1,1490,995,0,0
273,29,0,0,0,0,0,0,0,0,0,-1,1497,995,0,0
280,29,0,0,0,0,0,0,0,0,0,-1,1504,995,0,0
287,29,0,0,0,0,0,0,0,0,0,-1,1511,995,0,0
294,29,0,0,0,0,0,0,0,0,0,-1,1518,995,0,0
301,29,0,0,0,0,0,0,0,0,0,-1,1525,995,0,0
308,29,0,0,0,0,0,0,0,0,0,-1,1532,995,0,0
315,29,0,0,0,0,0,0,0,0,0,-1,1539,995,0,0
322,29,0,0,0,0,0,0,0,0,0,-1,1546,995,0,0
329,29,0,0,0,0,0,0,0,0,0,-1,1553,995,0,0
336,29,0,0,0,0,0,0,0,0,0,-1,1560,995,0,0
343,29,0,0,0,0,0,0,0,0,0,-1,1567,995,0,0
350,29,0,0,0,0,0,0,0,0,0,-1,1574,995,0,0
357,29,0,0,0,0,0,0,0,0,0,-1,1581,995,0,0
364,29,0,0,0,0,0,0,0,0,0,-1,1588,995,0,0
371,29,0,0,0,0,0,0,0,0,0,-1,1595,995,0,0
378,29,0,0,0,0,0,0,0,0,0,-1,1602,995,0,0
385,29,0,0,0,0,0,0,0,0,0,-1,1609,995,0,0
392,29,0,0,0,0,0,0,0,0,0,-1,1616,995,0,0
399,29,0,0,0,0,0,0,0,0,0,-1,1623,995,0,0
406,29,0,0,0,0,0,0,0,0,0,-1,1630,995,0,0
413,29,0,0,0,0,0,0,0,0,0,-1,1637,995,0,0
420,29,0,0,0,0,0,0,0,0,0,-1,1644,995,0,0
427,29,0,0,0,0,0,0,0,0,0,-1,1651,995,0,0
434,29,0,0,0,0,0,0,0,0,0,-1,1658,995,0,0
441,29,0,0,0,0,0,0,0,0,0,-1,1665,995,0,0
448,29,0,0,0,0,0,0,0,0,0,-1,1672,995,0,0
455,29,0,0,0,0,0,0,0,0,0,-1,1679,995,0,0
462,29,0,0,0,0,0,0,0,0,0,-1,1686,995,0,0
469,29,0,0,0,0,0,0,0,0,0,-1,1693,995,0,0
476,29,0,0,0,0,0,0,0,0,0,-1,1700,995,0,0
483,29,0,0,0,0,0,0,0,0,0,-1,1707,995,0,0
490,29,0,0,0,0,0,0,0,0,0,-1,1714,995,0,0
497,29,0,0,0,0,0,0,0,0,0,-1,1721,995,0,0
504,29,0,0,0,0,0,0,0,0,0,-1,1728,995,0,0
511,29,0,0,0,0,0,0,0,0,0,-1,1735,995,0,0
518,29,0,0,0,0,0,0,0,0,0,-1,1742,995,0,0
525,29,0,0,0,0,0,0,0,0,0,-1,1749,995,0,0
532,29,0,0,0,0,0,0,0,0,0,-1,1756,995,0,0
539,29,0,0,0,0,0,0,0,0,0,-1,1763,995,0,0
546,29,0,0,0,0,0,0,0,0,0,-1,1770,995,0,0
553,29,0,0,0,0,0,0,0,0,0,-1,1777,995,0,0
560,29,0,0,0,0,0,0,0,0,0,-1,1784,995,0,0
567,29,0,0,0,0,0,0,0,0,0,-1,1791,995,0,0
574,29,0,0,0,0,0,0,0,0,0,-1,1798,995,0,0
581,29,0,0,0,0,0,0,0,0,0,-1,1805,995,0,0
588,29,0,0,0,0,0,0,0,0,0,-1,1812,995,0,0
595,29,0,0,0,0,0,0,0,0,0,-1,1819,995,0,0
602,29,0,0,0,0,0,0,0,0,0,-1,1826,995,0,0
609,29,0,0,0,0,0,0,0,0,0,-1,1833,995,0,0
616,29,0,0,0,0,0,0,0,0,0,-1,1840,995,0,0
623,29,0,0,0,0,0,0,0,0,0,-1,1847,995,0,0
630,29,0,0,0,0,0,0,0,0,0,-1,1854,995,0,0
637,29,0,0,0,0,0,0,0,0,0,-1,1861,995,0,0
644,29,36.8247,2.58612,-0.0023276,0.00401499,0.00373348,0.00574227,-0.00405487,1.13748,0.00568428,0.0392225,1868,995,36.8247,-2.58614
651,29,36.6746,2.75708,-0.00135929,0.00332342,0.00233635,0.0042897,-0.00232557,1.17863,0.00387504,0.0401817,1875,995,36.6746,-2.75708
658,29,36.7611,2.89514,-0.000786474,0.00280247,0.00153844,0.00337167,-0.00135567,1.21643,0.00281084,0.042619,1882,995,36.7611,-2.89511
665,29,36.9097,2.75153,-0.000388741,0.00253335,0.00120976,0.00296918,-0.000824579,1.225,0.00230404,0.0404848,1889,995,36.9097,-2.75153
672,29,36.7792,2.70624,-0.000164622,0.00252591,0.00120042,0.00298363,-0.000622339,1.20652,0.00222573,0.0383321,1896,995,36.7792,-2.70622
679,29,36.7683,2.57416,-0.000162491,0.0025754,0.00160747,0.00331785,-0.000904935,1.13811,0.00256727,0.0376309,1903,995,36.7684,-2.57418
686,29,36.6676,2.62537,-0.000205546,0.0024989,0.0020984,0.00364303,-0.00134968,1.07161,0.00298219,0.0372653,1910,995,36.6676,-2.6254
693,29,36.7341,2.51514,-0.000296916,0.00237667,0.00245871,0.0038385,-0.00175875,1.03439,0.0033051,0.0381022,1917,995,36.7342,-2.51515
700,29,36.7462,2.54352,-0.000352116,0.00221204,0.00264707,0.00387117,-0.00201125,1.01092,0.00345234,0.0331012,1924,995,36.7462,-2.54352
707,29,36.7673,2.53003,-0.00058187,0.00228613,0.00270151,0.00391065,-0.00220638,1.0294,0.00357707,0.0202827,1931,995,36.7673,-2.53004
714,29,36.7747,2.91248,-0.00105017,0.00238448,0.00275836,0.00391642,-0.00258212,1.06383,0.0037782,0.0321894,1938,995,36.7747,-2.91245
721,29,36.4594,4.28278,0,0,0,0,0,0,0,-1,1945,995,36.4594,-4.28276
728,29,36.3094,4.53735,-0.00213628,0.00304509,0.00284301,0.00430075,-0.00339194,1.1549,0.0044517,0.0249471,1952,995,36.3095,-4.53737
735,29,36.2307,4.76508,-0.00230649,0.00364197,0.00236685,0.0044688,-0.00313331,1.23471,0.0044116,0.016857,1959,995,36.2307,-4.76505
742,29,36.2186,4.84961,-0.00298566,0.00459907,0.00177312,0.00499311,-0.0033797,1.35212,0.00486387,0.0136992,1966,995,36.2186,-4.84962
749,29,36.1946,4.95996,-0.00309733,0.0058617,0.00217153,0.0063603,-0.00359593,1.3451,0.00582162,0.013409,1973,995,36.1946,-4.95995
756,29,36.1788,5.1015,-0.00279149,0.0077562,0.00316314,0.00863206,-0.00366736,1.30067,0.00729136,0.0126725,1980,995,36.1789,-5.10151
763,29,36.1465,5.19226,-0.00217788,0.0120715,0.00490244,0.0135952,-0.00370161,1.26945,0.0105168,0.0129263,1987,995,36.1465,-5.19226
770,29,36.074,5.28271,-0.000829077,0.0168423,0.00777894,0.0197787,-0.00376545,1.20986,0.0146036,0.0159344,1994,995,36.074,-5.28274
777,29,36.0037,5.4848,0.00145326,0.0231345,0.0123219,0.0287057,-0.00411791,1.14617,0.0206471,0.026872,2001,995,36.0036,-5.4848
784,29,36.2971,5.66278,0.00455985,0.0308114,0.0186401,0.0404834,-0.00511214,1.09216,0.0288444,0.0442718,2008,995,36.2972,-5.66279
791,29,33.7961,5.71741,0,0,0,0,0,0,0,-1,2015,995,33.7962,-5.7174
798,29,34.3872,6.03314,0,0,0,0,0,0,0,-1,2022,995,34.3873,-6.03316
805,29,34.6086,6.05847,0,0,0,0,0,0,0,-1,2029,995,34.6087,-6.05845
812,29,35.1814,5.78168,0,0,0,0,0,0,0,-1,2036,995,35.1815,-5.78165
-700,22,0,0,0,0,0,0,0,0,0,-1,524,1002,0,0
-693,22,-31.4609,2.06433,0.149471,0.0240875,0.00220382,0.14951,0.0240487,0.0175694,0.0927028,0.044551,531,1002,-31.4609,-2.06434
-686,22,-30.6307,2.40601,0.137869,0.0218228,-0.00170681,0.137894,0.0217977,-0.0147037,0.0855938,0.0440727,538,1002,-30.6307,-2.40601
-679,22,-29.6182,2.45355,0.120666,0.0205767,-0.00291761,0.120751,0.0204918,-0.029117,0.0746143,0.0465597,545,1002,-29.6182,-2.45355
-672,22,-28.6725,2.43805,0.101733,0.019559,-0.00277932,0.101827,0.0194651,-0.0337708,0.0624166,0.0468207,552,1002,-28.6725,-2.43804
-665,22,-27.8256,2.49628,0.0830176,0.0184229,-0.00203897,0.0830818,0.0183586,-0.0315237,0.0503956,0.0464069,559,1002,-27.8256,-2.49626
-658,22,-26.374,1.15875,0.0655832,0.0169909,-0.00109144,0.0656077,0.0169664,-0.022446,0.0393226,0.0428885,566,1002,-26.374,-1.15875
-651,22,-26.5703,1.46893,0.0501244,0.0151867,-0.000250634,0.0501262,0.0151849,-0.00717324,0.0296802,0.048553,573,1002,-26.5703,-1.46892
-644,22,-26.7729,2.04572,0.03683,0.0130009,6.47348e-05,0.0368301,0.0130007,0.00271661,0.0215681,0.0272235,580,1002,-26.773,-2.04572
-637,22,-26.9081,2.36377,0.0258715,0.0107376,-0.000898425,0.0259246,0.0106845,-0.0590886,0.0150444,0.0186964,587,1002,-26.9081,-2.36379
-630,22,-26.9404,2.38483,0.0168155,0.00886286,-0.00174768,0.0171827,0.00849574,-0.207052,0.00992062,0.0136707,594,1002,-26.9404,-2.38485
-623,22,-26.9691,2.35773,0.00980946,0.00756833,-0.00284296,0.0117447,0.00563306,-0.59767,0.0067827,0.0110716,601,1002,-26.9691,-2.35772
-616,22,-26.9748,2.26953,0.00372533,0.00583983,-0.00350261,0.00844127,0.00112389,-0.931973,0.00529281,0.0164836,608,1002,-26.9748,-2.26955
-609,22,-27.0001,2.19354,0.000790673,0.00409182,-0.00508018,0.00778284,-0.00290034,-0.942471,0.00637904,0.0266221,615,1002,-27.0001,-2.19353
-602,22,-27.0051,2.11926,0.000389075,0.00269993,-0.00649022,0.00813677,-0.00504777,-0.873488,0.00768142,0.0261697,622,1002,-27.005,-2.11927
-595,22,-26.9709,1.93597,0.000200351,0.00163894,-0.00766341,0.00861674,-0.00677745,-0.832191,0.00890896,0.0234159,629,1002,-26.9709,-1.93598
-588,22,-26.8253,1.42676,0.000121767,0.00123345,-0.0083926,0.0090886,-0.00773338,-0.818465,0.00972267,0.0334122,636,1002,-26.8252,-1.42677
-581,22,-26.7834,0.890808,5.72763e-05,0.000997955,-0.00849729,0.00903791,-0.00798268,-0.813046,0.00983314,0.0415547,643,1002,-26.7834,-0.890799
-574,22,-26.8021,0.671875,-0.000217486,0.000681075,-0.00809356,0.00833781,-0.00787422,-0.813125,0.0093613,0.0330136,650,1002,-26.8021,-0.671854
-567,22,-26.769,0.593445,-0.000756703,0.000511387,-0.00712749,0.00703298,-0.0072783,-0.82976,0.00826302,0.0301237,657,1002,-26.7691,-0.593456
-560,22,-26.7939,0.32605,-0.0013588,0.00030522,-0.00567032,0.00520425,-0.00625783,-0.858244,0.00662695,0.0366099,664,1002,-26.7939,-0.326074
-553,22,-26.886,0.36145,-0.00194705,-3.93793e-05,-0.00385319,0.00297628,-0.00496271,-0.906731,0.00463116,0.041688,671,1002,-26.886,-0.361458
-546,22,-26.8741,0.47699,-0.00238429,-0.000657027,-0.00181443,0.000488824,-0.00353014,-1.00752,0.00253215,0.0436485,678,1002,-26.8741,-0.476967
-539,22,-26.9709,0.47522,-0.00237576,-0.00172673,-0.000134897,-0.00169981,-0.00240268,-1.37382,0.00142644,0.0421754,685,1002,-26.9709,-0.475219
-532,22,-26.9761,0.780762,-0.00196258,-0.00237177,-0.000271415,-0.00182728,-0.00250706,-0.46243,0.00149714,0.0446727,692,1002,-26.9761,-0.78078
-525,22,0,0,0,0,0,0,0,0,0,-1,699,1002,0,0
-518,22,0,0,0,0,0,0,0,0,0,-1,706,1002,0,0
-511,22,0,0,0,0,0,0,0,0,0,-1,713,1002,0,0
-504,22,0,0,0,0,0,0,0,0,0,-1,720,1002,0,0
-497,22,0,0,0,0,0,0,0,0,0,-1,727,1002,0,0
-490,22,0,0,0,0,0,0,0,0,0,-1,734,1002,0,0
-483,22,0,0,0,0,0,0,0,0,0,-1,741,1002,0,0
-476,22,0,0,0,0,0,0,0,0,0,-1,748,1002,0,0
-469,22,0,0,0,0,0,0,0,0,0,-1,755,1002,0,0
-462,22,0,0,0,0,0,0,0,0,0,-1,762,1002,0,0
-455,22,0,0,0,0,0,0,0,0,0,-1,769,1002,0,0
-448,22,0,0,0,0,0,0,0,0,0,-1,776,1002,0,0
-441,22,0,0,0,0,0,0,0,0,0,-1,783,1002,0,0
-434,22,0,0,0,0,0,0,0,0,0,-1,790,1002,0,0
-427,22,0,0,0,0,0,0,0,0,0,-1,797,1002,0,0
-420,22,0,0,0,0,0,0,0,0,0,-1,804,1002,0,0
-413,22,0,0,0,0,0,0,0,0,0,-1,811,1002,0,0
-406,22,0,0,0,0,0,0,0,0,0,-1,818,1002,0,0
-399,22,0,0,0,0,0,0,0,0,0,-1,825,1002,0,0
-392,22,0,0,0,0,0,0,0,0,0,-1,832,1002,0,0
-385,22,0,0,0,0,0,0,0,0,0,-1,839,1002,0,0
-378,22,0,0,0,0,0,0,0,0,0,-1,846,1002,0,0
-371,22,0,0,0,0,0,0,0,0,0,-1,853,1002,0,0
-364,22,0,0,0,0,0,0,0,0,0,-1,860,1002,0,0
-357,22,0,0,0,0,0,0,0,0,0,-1,867,1002,0,0
-350,22,0,0,0,0,0,0,0,0,0,-1,874,1002,0,0
-343,22,0,0,0,0,0,0,0,0,0,-1,881,1002,0,0
-336,22,0,0,0,0,0,0,0,0,0,-1,888,1002,0,0
-329,22,0,0,0,0,0,0,0,0,0,-1,895,1002,0,0
-322,22,0,0,0,0,0,0,0,0,0,-1,902,1002,0,0
-315,22,0,0,0,0,0,0,0,0,0,-1,909,1002,0,0
-308,22,0,0,0,0,0,0,0,0,0,-1,916,1002,0,0
-301,22,0,0,0,0,0,0,0,0,0,-1,923,1002,0,0
-294,22,0,0,0,0,0,0,0,0,0,-1,930,1002,0,0
-287,22,0,0,0,0,0,0,0,0,0,-1,937,1002,0,0
-280,22,0,0,0,0,0,0,0,0,0,-1,944,1002,0,0
-273,22,0,0,0,0,0,0,0,0,0,-1,951,1002,0,0
-266,22,0,0,0,0,0,0,0,0,0,-1,958,1002,0,0
-259,22,0,0,0,0,0,0,0,0,0,-1,965,1002,0,0
-252,22,0,0,0,0,0,0,0,0,0,-1,972,1002,0,0
-245,22,0,0,0,0,0,0,0,0,0,-1,979,1002,0,0
-238,22,0,0,0,0,0,0,0,0,0,-1,986,1002,0,0
-231,22,0,0,0,0,0,0,0,0,0,-1,993,1002,0,0
-224,22,0,0,0,0,0,0,0,0,0,-1,1000,1002,0,0
-217,22,0,0,0,0,0,0,0,0,0,-1,1007,1002,0,0
-210,22,0,0,0,0,0,0,0,0,0,-1,1014,1002,0,0
-203,22,0,0,0,0,0,0,0,0,0,-1,1021,1002,0,0
-196,22,0,0,0,0,0,0,0,0,0,-1,1028,1002,0,0
-189,22,0,0,0,0,0,0,0,0,0,-1,1035,1002,0,0
-182,22,0,0,0,0,0,0,0,0,0,-1,1042,1002,0,0
-175,22,0,0,0,0,0,0,0,0,0,-1,1049,1002,0,0
-168,22,0,0,0,0,0,0,0,0,0,-1,1056,1002,0,0
-161,22,0,0,0,0,0,0,0,0,0,-1,1063,1002,0,0
-154,22,0,0,0,0,0,0,0,0,0,-1,1070,1002,0,0
-147,22,0,0,0,0,0,0,0,0,0,-1,1077,1002,0,0
-140,22,0,0,0,0,0,0,0,0,0,-1,1084,1002,0,0
-133,22,0,0,0,0,0,0,0,0,0,-1,1091,1002,0,0
-126,22,0,0,0,0,0,0,0,0,0,-1,1098,1002,0,0
-119,22,0,0,0,0,0,0,0,0,0,-1,1105,1002,0,0
-112,22,0,0,0,0,0,0,0,0,0,-1,1112,1002,0,0
-105,22,0,0,0,0,0,0,0,0,0,-1,1119,1002,0,0
-98,22,0,0,0,0,0,0,0,0,0,-1,1126,1002,0,0
-91,22,0,0,0,0,0,0,0,0,0,-1,1133,1002,0,0
-84,22,0,0,0,0,0,0,0,0,0,-1,1140,1002,0,0
-77,22,0,0,0,0,0,0,0,0,0,-1,1147,1002,0,0
-70,22,0,0,0,0,0,0,0,0,0,-1,1154,1002,0,0
-63,22,0,0,0,0,0,0,0,0,0,-1,1161,1002,0,0
-56,22,0,0,0,0,0,0,0,0,0,-1,1168,1002,0,0
-49,22,0,0,0,0,0,0,0,0,0,-1,1175,1002,0,0
-42,22,0,0,0,0,0,0,0,0,0,-1,1182,1002,0,0
-35,22,0,0,0,0,0,0,0,0,0,-1,1189,1002,0,0
-28,22,0,0,0,0,0,0,0,0,0,-1,1196,1002,0,0
-21,22,0,0,0,0,0,0,0,0,0,-1,1203,1002,0,0
-14,22,0,0,0,0,0,0,0,0,0,-1,1210,1002,0,0
-7,22,0,0,0,0,0,0,0,0,0,-1,1217,1002,0,0
0,22,0,0,0,0,0,0,0,0,0,-1,1224,1002,0,0
7,22,0,0,0,0,0,0,0,0,0,-1,1231,1002,0,0
14,22,0,0,0,0,0,0,0,0,0,-1,1238,1002,0,0
21,22,0,0,0,0,0,0,0,0,0,-1,1245,1002,0,0
28,22,0,0,0,0,0,0,0,0,0,-1,1252,1002,0,0
35,22,0,0,0,0,0,0,0,0,0,-1,1259,1002,0,0
42,22,0,0,0,0,0,0,0,0,0,-1,1266,1002,0,0
49,22,0,0,0,0,0,0,0,0,0,-1,1273,1002,0,0
56,22,0,0,0,0,0,0,0,0,0,-1,1280,1002,0,0
63,22,0,0,0,0,0,0,0,0,0,-1,1287,1002,0,0
70,22,0,0,0,0,0,0,0,0,0,-1,1294,1002,0,0
77,22,0,0,0,0,0,0,0,0,0,-1,1301,1002,0,0
84,22,0,0,0,0,0,0,0,0,0,-1,1308,1002,0,0
91,22,0,0,0,0,0,0,0,0,0,-1,1315,1002,0,0
98,22,0,0,0,0,0,0,0,0,0,-1,1322,1002,0,0
105,22,0,0,0,0,0,0,0,0,0,-1,1329,1002,0,0
112,22,0,0,0,0,0,0,0,0,0,-1,1336,1002,0,0
119,22,0,0,0,0,0,0,0,0,0,-1,1343,1002,0,0
126,22,0,0,0,0,0,0,0,0,0,-1,1350,1002,0,0
133,22,0,0,0,0,0,0,0,0,0,-1,1357,1002,0,0
140,22,0,0,0,0,0,0,0,0,0,-1,1364,1002,0,0
147,22,0,0,0,0,0,0,0,0,0,-1,1371,1002,0,0
154,22,0,0,0,0,0,0,0,0,0,-1,1378,1002,0,0
161,22,0,0,0,0,0,0,0,0,0,-1,1385,1002,0,0
168,22,0,0,0,0,0,0,0,0,0,-1,1392,1002,0,0
175,22,0,0,0,0,0,0,0,0,0,-1,1399,1002,0,0
182,22,0,0,0,0,0,0,0,0,0,-1,1406,1002,0,0
189,22,0,0,0,0,0,0,0,0,0,-1,1413,1002,0,0
196,22,0,0,0,0,0,0,0,0,0,-1,1420,1002,0,0
203,22,0,0,0,0,0,0,0,0,0,-1,1427,1002,0,0
210,22,0,0,0,0,0,0,0,0,0,-1,1434,1002,0,0
217,22,0,0,0,0,0,0,0,0,0,-1,1441,1002,0,0
224,22,0,0,0,0,0,0,0,0,0,-1,1448,1002,0,0
231,22,0,0,0,0,0,0,0,0,0,-1,1455,1002,0,0
238,22,0,0,0,0,0,0,0,0,0,-1,1462,1002,0,0
245,22,0,0,0,0,0,0,0,0,0,-1,1469,1002,0,0
252,22,0,0,0,0,0,0,0,0,0,-1,1476,1002,0,0
259,22,0,0,0,0,0,0,0,0,0,-1,1483,1002,0,0
266,22,0,0,0,0,0,0,0,0,0,-1,1490,1002,0,0
273,22,0,0,0,0,0,0,0,0,0,-1,1497,1002,0,0
280,22,0,0,0,0,0,0,0,0,0,-1,1504,1002,0,0
287,22,0,0,0,0,0,0,0,0,0,-1,1511,1002,0,0
294,22,0,0,0,0,0,0,0,0,0,-1,1518,1002,0,0
301,22,0,0,0,0,0,0,0,0,0,-1,1525,1002,0,0
308,22,0,0,0,0,0,0,0,0,0,-1,1532,1002,0,0
315,22,0,0,0,0,0,0,0,0,0,-1,1539,1002,0,0
322,22,0,0,0,0,0,0,0,0,0,-1,1546,1002,0,0
329,22,0,0,0,0,0,0,0,0,0,-1,1553,1002,0,0
336,22,0,0,0,0,0,0,0,0,0,-1,1560,1002,0,0
343,22,0,0,0,0,0,0,0,0,0,-1,1567,1002,0,0
350,22,0,0,0,0,0,0,0,0,0,-1,1574,1002,0,0
357,22,0,0,0,0,0,0,0,0,0,-1,1581,1002,0,0
364,22,0,0,0,0,0,0,0,0,0,-1,1588,1002,0,0
371,22,0,0,0,0,0,0,0,0,0,-1,1595,1002,0,0
378,22,0,0,0,0,0,0,0,0,0,-1,1602,1002,0,0
385,22,0,0,0,0,0,0,0,0,0,-1,1609,1002,0,0
392,22,0,0,0,0,0,0,0,0,0,-1,1616,1002,0,0
399,22,0,0,0,0,0,0,0,0,0,-1,1623,1002,0,0
406,22,0,0,0,0,0,0,0,0,0,-1,1630,1002,0,0
413,22,0,0,0,0,0,0,0,0,0,-1,1637,1002,0,0
420,22,0,0,0,0,0,0,0,0,0,-1,1644,1002,0,0
427,22,0,0,0,0,0,0,0,0,0,-1,1651,1002,0,0
434,22,0,0,0,0,0,0,0,0,0,-1,1658,1002,0,0
441,22,0,0,0,0,0,0,0,0,0,-1,1665,1002,0,0
448,22,0,0,0,0,0,0,0,0,0,-1,1672,1002,0,0
455,22,0,0,0,0,0,0,0,0,0,-1,1679,1002,0,0
462,22,0,0,0,0,0,0,0,0,0,-1,1686,1002,0,0
469,22,0,0,0,0,0,0,0,0,0,-1,1693,1002,0,0
476,22,0,0,0,0,0,0,0,0,0,-1,1700,1002,0,0
483,22,0,0,0,0,0,0,0,0,0,-1,1707,1002,0,0
490,22,0,0,0,0,0,0,0,0,0,-1,1714,1002,0,0
497,22,0,0,0,0,0,0,0,0,0,-1,1721,1002,0,0
504,22,0,0,0,0,0,0,0,0,0,-1,1728,1002,0,0
511,22,0,0,0,0,0,0,0,0,0,-1,1735,1002,0,0
518,22,0,0,0,0,0,0,0,0,0,-1,1742,1002,0,0
525,22,0,0,0,0,0,0,0,0,0,-1,1749,1002,0,0
532,22,0,0,0,0,0,0,0,0,0,-1,1756,1002,0,0
539,22,0,0,0,0,0,0,0,0,0,-1,1763,1002,0,0
546,22,0,0,0,0,0,0,0,0,0,-1,1770,1002,0,0
553,22,0,0,0,0,0,0,0,0,0,-1,1777,1002,0,0
560,22,0,0,0,0,0,0,0,0,0,-1,1784,1002,0,0
567,22,0,0,0,0,0,0,0,0,0,-1,1791,1002,0,0
574,22,0,0,0,0,0,0,0,0,0,-1,1798,1002,0,0
581,22,0,0,0,0,0,0,0,0,0,-1,1805,1002,0,0
588,22,0,0,0,0,0,0,0,0,0,-1,1812,1002,0,0
595,22,0,0,0,0,0,0,0,0,0,-1,1819,1002,0,0
602,22,0,0,0,0,0,0,0,0,0,-1,1826,1002,0,0
609,22,0,0,0,0,0,0,0,0,0,-1,1833,1002,0,0
616,22,0,0,0,0,0,0,0,0,0,-1,1840,1002,0,0
623,22,0,0,0,0,0,0,0,0,0,-1,1847,1002,0,0
630,22,0,0,0,0,0,0,0,0,0,-1,1854,1002,0,0
637,22,0,0,0,0,0,0,0,0,0,-1,1861,1002,0,0
644,22,36.7633,2.46198,-0.00317652,0.00326988,0.00278851,0.00430869,-0.00421534,1.21419,0.00492145,0.0388755,1868,1002,36.7634,-2.46196
651,22,36.6331,2.55383,-0.00205003,0.00279756,0.00164396,0.00330248,-0.00255495,1.2728,0.00339096,0.0418123,1875,1002,36.6331,-2.55383
658,22,36.6978,2.70288,-0.00133713,0.00243207,0.00102545,0.002693,-0.00159805,1.32164,0.00250418,0.0432666,1882,1002,36.6978,-2.7029
665,22,36.701,2.85675,-0.000820925,0.00224193,0.000825533,0.00245027,-0.00102926,1.32359,0.00206399,0.0421654,1889,1002,36.701,-2.85672
672,22,36.7753,2.73761,-0.000460789,0.00230673,0.000927813,0.00258899,-0.000743051,1.27547,0.00201977,0.0386622,1896,1002,36.7752,-2.73761
679,22,36.7593,2.56604,-0.000320129,0.00241519,0.00141865,0.00301808,-0.000923019,1.16895,0.00238015,0.0366092,1903,1002,36.7593,-2.56603
686,22,36.7786,2.75909,-0.000281088,0.00236847,0.00200022,0.00344284,-0.00135546,1.07789,0.00285634,0.0386604,1910,1002,36.7785,-2.75907
693,22,36.9047,3.03052,0,0,0,0,0,0,0,-1,1917,1002,36.9047,-3.03051
700,22,36.7675,2.45758,-0.000312618,0.00208143,0.00271839,0.00385467,-0.00208586,0.992795,0.00348008,0.0323127,1924,1002,36.7674,-2.45755
707,22,36.7401,2.45892,-0.000488419,0.00217821,0.00285205,0.00399321,-0.00230342,1.00405,0.00367874,0.027426,1931,1002,36.7401,-2.45892
714,22,36.7761,2.59918,-0.000917476,0.00227374,0.00296238,0.0040429,-0.00268664,1.03243,0.00391152,0.0310572,1938,1002,36.7761,-2.59919
721,22,36.6061,3.58282,0,0,0,0,0,0,0,-1,1945,1002,36.606,-3.58282
728,22,36.3424,4.3338,-0.0020501,0.00292141,0.00305206,0.0043719,-0.00350059,1.12714,0.00455446,0.0369902,1952,1002,36.3425,-4.3338
735,22,36.3431,4.80212,-0.00228616,0.00351857,0.00256593,0.00449019,-0.00325777,1.20882,0.00449211,0.0167135,1959,1002,36.3432,-4.80212
742,22,36.3722,4.87445,-0.00309608,0.00441852,0.00194682,0.00489293,-0.00357049,1.33177,0.0049062,0.0164916,1966,1002,36.3722,-4.87443
749,22,36.3215,4.95886,-0.00339459,0.00563822,0.00233913,0.00620802,-0.00396439,1.33186,0.00592047,0.0123784,1973,1002,36.3216,-4.95885
756,22,36.3037,5.0603,-0.00328536,0.00741593,0.00327912,0.0083408,-0.00421023,1.29589,0.00737599,0.0178657,1980,1002,36.3037,-5.06028
763,22,36.2583,5.16449,-0.00296089,0.0116704,0.00490605,0.0131632,-0.00445364,1.27543,0.0105773,0.0199232,1987,1002,36.2583,-5.16447
770,22,36.1575,5.22394,-0.00202368,0.0162813,0.00764114,0.0190517,-0.00479407,1.22297,0.0145646,0.0182898,1994,1002,36.1575,-5.22393
777,22,35.926,5.27539,-0.000203756,0.0225061,0.0121522,0.0277827,-0.00548041,1.16115,0.0205932,0.0388213,2001,1002,35.926,-5.27541
784,22,35.7322,5.37494,0,0,0,0,0,0,0,-1,2008,1002,35.7322,-5.37492
791,22,33.4714,5.38812,0,0,0,0,0,0,0,-1,2015,1002,33.4713,-5.38814
798,22,33.9885,5.93213,0.0108811,0.05169,0.0380941,0.0745002,-0.0119291,1.03127,0.0540835,0.0454613,2022,1002,33.9884,-5.93213
805,22,34.439,6.43256,0.0171583,0.067132,0.0520187,0.0998538,-0.0155636,1.0093,0.0723175,0.0485727,2029,1002,34.4389,-6.43254
812,22,34.9873,6.60657,0,0,0,0,0,0,0,-1,2036,1002,34.9873,-6.60658
-700,15,0,0,0,0,0,0,0,0,0,-1,524,1009,0,0
-693,15,-30.0165,1.87238,0,0,0,0,0,0,0,-1,531,1009,-30.0165,-1.87235
-686,15,-29.3959,2.02118,0,0,0,0,0,0,0,-1,538,1009,-29.3959,-2.02118
-679,15,-29.2092,2.12323,0,0,0,0,0,0,0,-1,545,1009,-29.2092,-2.12321
-672,15,-28.5077,2.31403,0.0974313,0.0224842,-0.00596099,0.0979025,0.022013,-0.078875,0.0593084,0.0470538,552,1009,-28.5077,-2.31401
-665,15,-26.7075,1.31818,0.0794449,0.0201593,-0.00483226,0.0798362,0.019768,-0.0807974,0.0480111,0.0475773,559,1009,-26.7075,-1.31816
-658,15,-26.6022,1.43256,0,0,0,0,0,0,0,-1,566,1009,-26.6022,-1.43255
-651,15,-26.2914,1.12164,0,0,0,0,0,0,0,-1,573,1009,-26.2914,-1.12163
-644,15,-26.6652,1.89777,0,0,0,0,0,0,0,-1,580,1009,-26.6652,-1.89777
-637,15,-27.0391,2.67389,0,0,0,0,0,0,0,-1,587,1009,-27.0391,-2.67392
-630,15,-26.9552,2.34558,0.0158687,0.00813359,-0.0028681,0.0168161,0.00718617,-0.319046,0.00974291,0.0135139,594,1009,-26.9552,-2.34555
-623,15,-27.01,2.31665,0.00932649,0.00679443,-0.00375801,0.012026,0.00409492,-0.622925,0.00705998,0.00922656,601,1009,-27.01,-2.31665
-616,15,-27.0364,2.27191,0.00369195,0.00518917,-0.00430299,0.00880818,7.29356e-05,-0.871524,0.00584796,0.0142038,608,1009,-27.0364,-2.27194
-609,15,-27.0189,2.22314,0.00111573,0.00362682,-0.00580978,0.00831517,-0.00357263,-0.891816,0.00704313,0.021259,615,1009,-27.0189,-2.22315
-602,15,-27.0198,2.14417,0.000901625,0.00228886,-0.00716631,0.00879504,-0.00560456,-0.833642,0.00838136,0.0213009,622,1009,-27.0198,-2.14418
-595,15,-26.9344,1.70203,0.000854991,0.00125453,-0.00826599,0.00932316,-0.00721364,-0.79748,0.00957339,0.0343692,629,1009,-26.9344,-1.70203
-588,15,-26.7238,1.14917,0.000897219,0.000854502,-0.00894124,0.00981713,-0.00806541,-0.784204,0.010341,0.0404064,636,1009,-26.7238,-1.14919
-581,15,-26.7047,0.617249,0,0,0,0,0,0,0,-1,643,1009,-26.7046,-0.617255
-574,15,-26.7739,0.689697,0.00063706,0.0002335,-0.00857364,0.00901129,-0.00814073,-0.773633,0.00990698,0.0322856,650,1009,-26.7739,-0.689695
-567,15,-26.7731,0.619934,5.7375e-05,2.75757e-05,-0.0075386,0.00758109,-0.00749614,-0.78441,0.00870489,0.0326753,657,1009,-26.7731,-0.619918
-560,15,-26.7136,0.388733,-0.000636842,-0.000209731,-0.00601313,0.00559364,-0.00644021,-0.803148,0.00695347,0.0385986,664,1009,-26.7136,-0.388761
-553,15,-26.7082,0.462097,-0.00137519,-0.000588481,-0.00414901,0.00318578,-0.00514945,-0.83266,0.00485665,0.0402246,671,1009,-26.7082,-0.46211
-546,15,-26.7415,0.638611,-0.00200814,-0.00124827,-0.00212223,0.000527764,-0.00378418,-0.873973,0.00271585,0.0406082,678,1009,-26.7414,-0.638617
-539,15,-26.7697,0.545105,-0.00217523,-0.00236398,-0.000626824,-0.00163571,-0.00290349,-0.710679,0.00168081,0.0419642,685,1009,-26.7697,-0.545089
-532,15,-26.8717,0.341492,-0.00187256,-0.00291588,-0.00136545,-0.000932509,-0.00385593,-0.602933,0.00232303,0.0450233,692,1009,-26.8717,-0.341495
-525,15,0,0,0,0,0,0,0,0,0,-1,699,1009,0,0
-518,15,0,0,0,0,0,0,0,0,0,-1,706,1009,0,0
-511,15,0,0,0,0,0,0,0,0,0,-1,713,1009,0,0
-504,15,0,0,0,0,0,0,0,0,0,-1,720,1009,0,0
-497,15,0,0,0,0,0,0,0,0,0,-1,727,1009,0,0
-490,15,0,0,0,0,0,0,0,0,0,-1,734,1009,0,0
-483,15,0,0,0,0,0,0,0,0,0,-1,741,1009,0,0
-476,15,0,0,0,0,0,0,0,0,0,-1,748,1009,0,0
-469,15,0,0,0,0,0,0,0,0,0,-1,755,1009,0,0
-462,15,0,0,0,0,0,0,0,0,0,-1,762,1009,0,0
-455,15,0,0,0,0,0,0,0,0,0,-1,769,1009,0,0
-448,15,0,0,0,0,0,0,0,0,0,-1,776,1009,0,0
-441,15,0,0,0,0,0,0,0,0,0,-1,783,1009,0,0
-434,15,0,0,0,0,0,0,0,0,0,-1,790,1009,0,0
-427,15,0,0,0,0,0,0,0,0,0,-1,797,1009,0,0
-420,15,0,0,0,0,0,0,0,0,0,-1,804,1009,0,0
-413,15,0,0,0,0,0,0,0,0,0,-1,811,1009,0,0
-406,15,0,0,0,0,0,0,0,0,0,-1,818,1009,0,0
-399,15,0,0,0,0,0,0,0,0,0,-1,825,1009,0,0
-392,15,0,0,0,0,0,0,0,0,0,-1,832,1009,0,0
-385,15,0,0,0,0,0,0,0,0,0,-1,839,1009,0,0
-378,15,0,0,0,0,0,0,0,0,0,-1,846,1009,0,0
-371,15,0,0,0,0,0,0,0,0,0,-1,853,1009,0,0
-364,15,0,0,0,0,0,0,0,0,0,-1,860,1009,0,0
-357,15,0,0,0,0,0,0,0,0,0,-1,867,1009,0,0
-350,15,0,0,0,0,0,0,0,0,0,-1,874,1009,0,0
-343,15,0,0,0,0,0,0,0,0,0,-1,881,1009,0,0
-336,15,0,0,0,0,0,0,0,0,0,-1,888,1009,0,0
-329,15,0,0,0,0,0,0,0,0,0,-1,895,1009,0,0
-322,15,0,0,0,0,0,0,0,0,0,-1,902,1009,0,0
-315,15,0,0,0,0,0,0,0,0,0,-1,909,1009,0,0
-308,15,0,0,0,0,0,0,0,0,0,-1,916,1009,0,0
-301,15,0,0,0,0,0,0,0,0,0,-1,923,1009,0,0
-294,15,0,0,0,0,0,0,0,0,0,-1,930,1009,0,0
-287,15,0,0,0,0,0,0,0,0,0,-1,937,1009,0,0
-280,15,0,0,0,0,0,0,0,0,0,-1,944,1009,0,0
-273,15,0,0,0,0,0,0,0,0,0,-1,951,1009,0,0
-266,15,0,0,0,0,0,0,0,0,0,-1,958,1009,0,0
-259,15,0,0,0,0,0,0,0,0,0,-1,965,1009,0,0
-252,15,0,0,0,0,0,0,0,0,0,-1,972,1009,0,0
-245,15,0,0,0,0,0,0,0,0,0,-1,979,1009,0,0
-238,15,0,0,0,0,0,0,0,0,0,-1,986,1009,0,0
-231,15,0,0,0,0,0,0,0,0,0,-1,993,1009,0,0
-224,15,0,0,0,0,0,0,0,0,0,-1,1000,1009,0,0
-217,15,0,0,0,0,0,0,0,0,0,-1,1007,1009,0,0
-210,15,0,0,0,0,0,0,0,0,0,-1,1014,1009,0,0
-203,15,0,0,0,0,0,0,0,0,0,-1,1021,1009,0,0
-196,15,0,0,0,0,0,0,0,0,0,-1,1028,1009,0,0
-189,15,0,0,0,0,0,0,0,0,0,-1,1035,1009,0,0
-182,15,0,0,0,0,0,0,0,0,0,-1,1042,1009,0,0
-175,15,0,0,0,0,0,0,0,0,0,-1,1049,1009,0,0
-168,15,0,0,0,0,0,0,0,0,0,-1,1056,1009,0,0
-161,15,0,0,0,0,0,0,0,0,0,-1,1063,1009,0,0
-154,15,0,0,0,0,0,0,0,0,0,-1,1070,1009,0,0
-147,15,0,0,0,0,0,0,0,0,0,-1,1077,1009,0,0
-140,15,0,0,0,0,0,0,0,0,0,-1,1084,1009,0,0
-133,15,0,0,0,0,0,0,0,0,0,-1,1091,1009,0,0
-126,15,0,0,0,0,0,0,0,0,0,-1,1098,1009,0,0
-119,15,0,0,0,0,0,0,0,0,0,-1,1105,1009,0,0
-112,15,0,0,0,0,0,0,0,0,0,-1,1112,1009,0,0
-105,15,0,0,0,0,0,0,0,0,0,-1,1119,1009,0,0
-98,15,0,0,0,0,0,0,0,0,0,-1,1126,1009,0,0
-91,15,0,0,0,0,0,0,0,0,0,-1,1133,1009,0,0
-84,15,0,0,0,0,0,0,0,0,0,-1,1140,1009,0,0
-77,15,0,0,0,0,0,0,0,0,0,-1,1147,1009,0,0
-70,15,0,0,0,0,0,0,0,0,0,-1,1154,1009,0,0
-63,15,0,0,0,0,0,0,0,0,0,-1,1161,1009,0,0
-56,15,0,0,0,0,0,0,0,0,0,-1,1168,1009,0,0
-49,15,0,0,0,0,0,0,0,0,0,-1,1175,1009,0,0
-42,15,0,0,0,0,0,0,0,0,0,-1,1182,1009,0,0
-35,15,0,0,0,0,0,0,0,0,0,-1,1189,1009,0,0
-28,15,0,0,0,0,0,0,0,0,0,-1,1196,1009,0,0
-21,15,0,0,0,0,0,0,0,0,0,-1,1203,1009,0,0
-14,15,0,0,0,0,0,0,0,0,0,-1,1210,1009,0,0
-7,15,0,0,0,0,0,0,0,0,0,-1,1217,1009,0,0
0,15,0,0,0,0,0,0,0,0,0,-1,1224,1009,0,0
7,15,0,0,0,0,0,0,0,0,0,-1,1231,1009,0,0
14,15,0,0,0,0,0,0,0,0,0,-1,1238,1009,0,0
21,15,0,0,0,0,0,0,0,0,0,-1,1245,1009,0,0
28,15,0,0,0,0,0,0,0,0,0,-1,1252,1009,0,0
35,15,0,0,0,0,0,0,0,0,0,-1,1259,1009,0,0
42,15,0,0,0,0,0,0,0,0,0,-1,1266,1009,0,0
49,15,0,0,0,0,0,0,0,0,0,-1,1273,1009,0,0
56,15,0,0,0,0,0,0,0,0,0,-1,1280,1009,0,0
63,15,0,0,0,0,0,0,0,0,0,-1,1287,1009,0,0
70,15,0,0,0,0,0,0,0,0,0,-1,1294,1009,0,0
77,15,0,0,0,0,0,0,0,0,0,-1,1301,1009,0,0
84,15,0,0,0,0,0,0,0,0,0,-1,1308,1009,0,0
91,15,0,0,0,0,0,0,0,0,0,-1,1315,1009,0,0
98,15,0,0,0,0,0,0,0,0,0,-1,1322,1009,0,0
105,15,0,0,0,0,0,0,0,0,0,-1,1329,1009,0,0
112,15,0,0,0,0,0,0,0,0,0,-1,1336,1009,0,0
119,15,0,0,0,0,0,0,0,0,0,-1,1343,1009,0,0
126,15,0,0,0,0,0,0,0,0,0,-1,1350,1009,0,0
133,15,0,0,0,0,0,0,0,0,0,-1,1357,1009,0,0
140,15,0,0,0,0,0,0,0,0,0,-1,1364,1009,0,0
147,15,0,0,0,0,0,0,0,0,0,-1,1371,1009,0,0
154,15,0,0,0,0,0,0,0,0,0,-1,1378,1009,0,0
161,15,0,0,0,0,0,0,0,0,0,-1,1385,1009,0,0
168,15,0,0,0,0,0,0,0,0,0,-1,1392,1009,0,0
175,15,0,0,0,0,0,0,0,0,0,-1,1399,1009,0,0
182,15,0,0,0,0,0,0,0,0,0,-1,1406,1009,0,0
189,15,0,0,0,0,0,0,0,0,0,-1,1413,1009,0,0
196,15,0,0,0,0,0,0,0,0,0,-1,1420,1009,0,0
203,15,0,0,0,0,0,0,0,0,0,-1,1427,1009,0,0
210,15,0,0,0,0,0,0,0,0,0,-1,1434,1009,0,0
217,15,0,0,0,0,0,0,0,0,0,-1,1441,1009,0,0
224,15,0,0,0,0,0,0,0,0,0,-1,1448,1009,0,0
231,15,0,0,0,0,0,0,0,0,0,-1,1455,1009,0,0
238,15,0,0,0,0,0,0,0,0,0,-1,1462,1009,0,0
245,15,0,0,0,0,0,0,0,0,0,-1,1469,1009,0,0
252,15,0,0,0,0,0,0,0,0,0,-1,1476,1009,0,0
259,15,0,0,0,0,0,0,0,0,0,-1,1483,1009,0,0
266,15,0,0,0,0,0,0,0,0,0,-1,1490,1009,0,0
273,15,0,0,0,0,0,0,0,0,0,-1,1497,1009,0,0
280,15,0,0,0,0,0,0,0,0,0,-1,1504,1009,0,0
287,15,0,0,0,0,0,0,0,0,0,-1,1511,1009,0,0
294,15,0,0,0,0,0,0,0,0,0,-1,1518,1009,0,0
301,15,0,0,0,0,0,0,0,0,0,-1,1525,1009,0,0
308,15,0,0,0,0,0,0,0,0,0,-1,1532,1009,0,0
315,15,0,0,0,0,0,0,0,0,0,-1,1539,1009,0,0
322,15,0,0,0,0,0,0,0,0,0,-1,1546,1009,0,0
329,15,0,0,0,0,0,0,0,0,0,-1,1553,1009,0,0
336,15,0,0,0,0,0,0,0,0,0,-1,1560,1009,0,0
343,15,0,0,0,0,0,0,0,0,0,-1,1567,1009,0,0
350,15,0,0,0,0,0,0,0,0,0,-1,1574,1009,0,0
357,15,0,0,0,0,0,0,0,0,0,-1,1581,1009,0,0
364,15,0,0,0,0,0,0,0,0,0,-1,1588,1009,0,0
371,15,0,0,0,0,0,0,0,0,0,-1,1595,1009,0,0
378,15,0,0,0,0,0,0,0,0,0,-1,1602,1009,0,0
385,15,0,0,0,0,0,0,0,0,0,-1,1609,1009,0,0
392,15,0,0,0,0,0,0,0,0,0,-1,1616,1009,0,0
399,15,0,0,0,0,0,0,0,0,0,-1,1623,1009,0,0
406,15,0,0,0,0,0,0,0,0,0,-1,1630,1009,0,0
413,15,0,0,0,0,0,0,0,0,0,-1,1637,1009,0,0
420,15,0,0,0,0,0,0,0,0,0,-1,1644,1009,0,0
427,15,0,0,0,0,0,0,0,0,0,-1,1651,1009,0,0
434,15,0,0,0,0,0,0,0,0,0,-1,1658,1009,0,0
441,15,0,0,0,0,0,0,0,0,0,-1,1665,1009,0,0
448,15,0,0,0,0,0,0,0,0,0,-1,1672,1009,0,0
455,15,0,0,0,0,0,0,0,0,0,-1,1679,1009,0,0
462,15,0,0,0,0,0,0,0,0,0,-1,1686,1009,0,0
469,15,0,0,0,0,0,0,0,0,0,-1,1693,1009,0,0
476,15,0,0,0,0,0,0,0,0,0,-1,1700,1009,0,0
483,15,0,0,0,0,0,0,0,0,0,-1,1707,1009,0,0
490,15,0,0,0,0,0,0,0,0,0,-1,1714,1009,0,0
497,15,0,0,0,0,0,0,0,0,0,-1,1721,1009,0,0
504,15,0,0,0,0,0,0,0,0,0,-1,1728,1009,0,0
511,15,0,0,0,0,0,0,0,0,0,-1,1735,1009,0,0
518,15,0,0,0,0,0,0,0,0,0,-1,1742,1009,0,0
525,15,0,0,0,0,0,0,0,0,0,-1,1749,1009,0,0
532,15,0,0,0,0,0,0,0,0,0,-1,1756,1009,0,0
539,15,0,0,0,0,0,0,0,0,0,-1,1763,1009,0,0
546,15,0,0,0,0,0,0,0,0,0,-1,1770,1009,0,0
553,15,0,0,0,0,0,0,0,0,0,-1,1777,1009,0,0
560,15,0,0,0,0,0,0,0,0,0,-1,1784,1009,0,0
567,15,0,0,0,0,0,0,0,0,0,-1,1791,1009,0,0
574,15,0,0,0,0,0,0,0,0,0,-1,1798,1009,0,0
581,15,0,0,0,0,0,0,0,0,0,-1,1805,1009,0,0
588,15,0,0,0,0,0,0,0,0,0,-1,1812,1009,0,0
595,15,0,0,0,0,0,0,0,0,0,-1,1819,1009,0,0
602,15,0,0,0,0,0,0,0,0,0,-1,1826,1009,0,0
609,15,0,0,0,0,0,0,0,0,0,-1,1833,1009,0,0
616,15,0,0,0,0,0,0,0,0,0,-1,1840,1009,0,0
623,15,0,0,0,0,0,0,0,0,0,-1,1847,1009,0,0
630,15,0,0,0,0,0,0,0,0,0,-1,1854,1009,0,0
637,15,0,0,0,0,0,0,0,0,0,-1,1861,1009,0,0
644,15,36.7499,2.18359,-0.00413746,0.00267595,0.00157475,0.0030223,-0.00448382,1.3543,0.00436096,0.0407288,1868,1009,36.7499,-2.18359
651,15,36.682,2.3103,-0.00284268,0.00242061,0.000725798,0.00251887,-0.00294093,1.43624,0.00315535,0.0388177,1875,1009,36.682,-2.3103
658,15,36.6597,2.47424,-0.00196967,0.00222166,0.000344038,0.00224971,-0.00199772,1.48944,0.00245369,0.0391,1882,1009,36.6596,-2.47422
665,15,36.6779,2.51465,-0.00132344,0.0021105,0.000319632,0.00214,-0.00135294,1.47877,0.00203364,0.0410191,1889,1009,36.6779,-2.51468
672,15,36.8214,2.77283,-0.000810788,0.00221018,0.000604995,0.00232683,-0.000927443,1.38031,0.0019359,0.0396824,1896,1009,36.8215,-2.77284
679,15,36.8798,2.45044,-0.000494913,0.0023245,0.00124136,0.00279316,-0.000963566,1.20981,0.00225305,0.038665,1903,1009,36.8798,-2.45044
686,15,36.83,2.57788,-0.000335332,0.00225273,0.00195649,0.0033044,-0.00138701,1.07757,0.00278297,0.0445047,1910,1009,36.83,-2.57787
693,15,36.7351,2.72388,-0.000274796,0.00210152,0.00253265,0.00371087,-0.00188415,1.00472,0.00328717,0.0415666,1917,1009,36.7351,-2.7239
700,15,36.7629,2.47449,-0.000205408,0.00188353,0.00288774,0.00390988,-0.00223176,0.958924,0.00358973,0.0303968,1924,1009,36.7629,-2.47448
707,15,36.7733,2.49237,-0.000307897,0.0019621,0.00310021,0.00412854,-0.00247434,0.960873,0.00385185,0.0246559,1931,1009,36.7734,-2.49236
714,15,36.7981,2.49261,-0.000681288,0.00203004,0.00327022,0.00421445,-0.0028657,0.98189,0.00411238,0.026458,1938,1009,36.7982,-2.49264
721,15,36.6166,3.3349,0,0,0,0,0,0,0,-1,1945,1009,36.6166,-3.33491
728,15,36.2618,4.39929,-0.00185027,0.00264798,0.00335504,0.00443802,-0.00364031,1.08068,0.0046716,0.0406193,1952,1009,36.2618,-4.39932
735,15,36.3962,4.8103,-0.00218483,0.00327128,0.00285905,0.00449499,-0.00340854,1.16638,0.00457745,0.0168825,1959,1009,36.3963,-4.8103
742,15,36.3804,4.93402,-0.00311185,0.00413691,0.00220429,0.00475458,-0.00372952,1.29759,0.0049102,0.0219671,1966,1009,36.3803,-4.93401
749,15,36.3887,4.97485,-0.00361542,0.00534019,0.00252989,0.00600545,-0.00428068,1.31366,0.00596646,0.0139845,1973,1009,36.3887,-4.97483
756,15,36.3861,4.99438,-0.00374521,0.00703984,0.00335757,0.00799968,-0.00470505,1.29235,0.00741684,0.0141511,1980,1009,36.3861,-4.99436
763,15,36.3447,5.07159,-0.0037506,0.01122,0.00480723,0.0126308,-0.00516132,1.28535,0.0105697,0.0138814,1987,1009,36.3447,-5.07159
770,15,36.2596,5.10205,-0.00328055,0.0156767,0.00729342,0.018158,-0.00576178,1.24288,0.014415,0.0190371,1994,1009,36.2597,-5.10207
777,15,35.9883,5.19342,-0.00199359,0.0217845,0.0116158,0.0265171,-0.00672611,1.18391,0.0202951,0.0434799,2001,1009,35.9883,-5.19345
784,15,36.0319,5.37952,0,0,0,0,0,0,0,-1,2008,1009,36.0318,-5.3795
791,15,33.2837,5.23755,0,0,0,0,0,0,0,-1,2015,1009,33.2837,-5.23758
798,15,33.4255,5.86871,0.00734896,0.050717,0.0370775,0.0719857,-0.0139198,1.04999,0.0532404,0.0484543,2022,1009,33.4256,-5.86873
805,15,33.8167,6.2915,0.0130962,0.066464,0.0510632,0.0973951,-0.0178348,1.02617,0.0716191,0.0458407,2029,1009,33.8165,-6.29147
812,15,33.6177,7.63074,0.020359,0.0874676,0.0684338,0.130131,-0.022304,1.01333,0.0950646,0.0479142,2036,1009,33.6176,-7.63071
-700,8,0,0,0,0,0,0,0,0,0,-1,524,1016,0,0
-693,8,-29.7112,1.35767,0,0,0,0,0,0,0,-1,531,1016,-29.7112,-1.35765
-686,8,-29.1428,1.62793,0.125344,0.0355441,-0.00608195,0.125754,0.0351341,-0.0673183,0.0749227,0.0464793,538,1016,-29.1428,-1.62795
-679,8,-28.6455,1.86188,0,0,0,0,0,0,0,-1,545,1016,-28.6455,-1.86187
-672,8,-28.1393,2.11176,0.0921668,0.0271574,-0.00672888,0.092856,0.0264683,-0.102065,0.0552371,0.0459627,552,1016,-28.1394,-2.11174
-665,8,-26.9241,1.74579,0.0749227,0.0235457,-0.00559502,0.0755249,0.0229434,-0.107227,0.0447095,0.0477219,559,1016,-26.9241,-1.74578
-658,8,-26.772,1.70117,0.0588645,0.0201449,-0.00421215,0.0593174,0.019692,-0.107117,0.0348856,0.0417305,566,1016,-26.772,-1.70115
-651,8,-26.2605,1.63489,0,0,0,0,0,0,0,-1,573,1016,-26.2605,-1.63487
-644,8,-26.5443,2.01746,0.0324059,0.0137676,-0.00216849,0.0326548,0.0135187,-0.114312,0.018946,0.0497406,580,1016,-26.5443,-2.01744
-637,8,-26.8267,2.25275,0.022433,0.0106863,-0.00302748,0.0231673,0.00995198,-0.237971,0.0134198,0.0317303,587,1016,-26.8267,-2.25274
-630,8,-26.9769,2.30646,0.0144233,0.00799813,-0.00353397,0.0159867,0.00643478,-0.416498,0.00928821,0.0183187,594,1016,-26.977,-2.30647
-623,8,-26.9901,2.30914,0.00836173,0.00628824,-0.00442751,0.0118723,0.00277772,-0.67039,0.00717057,0.0129947,601,1016,-26.9901,-2.30914
-616,8,-27.004,2.27277,0.0032363,0.00451878,-0.00498509,0.00890371,-0.00114863,-0.849363,0.00635338,0.0126842,608,1016,-27.004,-2.27276
-609,8,-27.0027,2.22009,0.00108972,0.00312516,-0.00638339,0.00857146,-0.00435658,-0.864449,0.00759508,0.0156728,615,1016,-27.0027,-2.22008
-602,8,-27.0064,2.21252,0.00103394,0.00182009,-0.0076579,0.00909499,-0.00624097,-0.811041,0.00890518,0.021526,622,1016,-27.0064,-2.21253
-595,8,-26.6923,1.72906,0.00111885,0.000791408,-0.00865216,0.00960883,-0.00769858,-0.775938,0.0100127,0.049731,629,1016,-26.6923,-1.72904
-588,8,-26.7077,0.823242,0,0,0,0,0,0,0,-1,636,1016,-26.7077,-0.823246
-581,8,-26.7231,0.713989,0.00143559,6.61544e-05,-0.00929392,0.01007,-0.00856824,-0.748628,0.0107724,0.0304597,643,1016,-26.7231,-0.713968
-574,8,-26.7155,0.684143,0.00118534,-0.000304651,-0.00877301,0.00924493,-0.00836424,-0.74304,0.0101709,0.0353005,650,1016,-26.7155,-0.684145
-567,8,-26.6607,0.558594,0.00064408,-0.000535905,-0.00767622,0.00775295,-0.00764477,-0.747044,0.00888995,0.0376328,657,1016,-26.6607,-0.558583
-560,8,-26.6893,0.61084,-2.1542e-05,-0.000773087,-0.0061071,0.00572133,-0.00651596,-0.754672,0.00707017,0.0402425,664,1016,-26.6893,-0.61085
-553,8,-26.558,0.716309,-0.000742492,-0.00111953,-0.004242,0.00331517,-0.00517719,-0.763192,0.0049422,0.0425971,671,1016,-26.558,-0.716337
-546,8,-26.6401,0.788879,-0.00136098,-0.00170865,-0.0023051,0.00077683,-0.00384646,-0.747762,0.00285865,0.0420602,678,1016,-26.6401,-0.788899
-539,8,-26.906,0.772095,-0.00146345,-0.00269426,-0.00109355,-0.000824032,-0.00333367,-0.529104,0.00200503,0.0407683,685,1016,-26.906,-0.772091
-532,8,-26.9486,0.561951,-0.00104333,-0.00296144,-0.00258586,0.000755597,-0.00476037,-0.60782,0.00345311,0.0427451,692,1016,-26.9486,-0.561937
-525,8,0,0,0,0,0,0,0,0,0,-1,699,1016,0,0
-518,8,0,0,0,0,0,0,0,0,0,-1,706,1016,0,0
-511,8,0,0,0,0,0,0,0,0,0,-1,713,1016,0,0
-504,8,0,0,0,0,0,0,0,0,0,-1,720,1016,0,0
-497,8,0,0,0,0,0,0,0,0,0,-1,727,1016,0,0
-490,8,0,0,0,0,0,0,0,0,0,-1,734,1016,0,0
-483,8,0,0,0,0,0,0,0,0,0,-1,741,1016,0,0
-476,8,0,0,0,0,0,0,0,0,0,-1,748,1016,0,0
-469,8,0,0,0,0,0,0,0,0,0,-1,755,1016,0,0
-462,8,0,0,0,0,0,0,0,0,0,-1,762,1016,0,0
-455,8,0,0,0,0,0,0,0,0,0,-1,769,1016,0,0
-448,8,0,0,0,0,0,0,0,0,0,-1,776,1016,0,0
-441,8,0,0,0,0,0,0,0,0,0,-1,783,1016,0,0
-434,8,0,0,0,0,0,0,0,0,0,-1,790,1016,0,0
-427,8,0,0,0,0,0,0,0,0,0,-1,797,1016,0,0
-420,8,0,0,0,0,0,0,0,0,0,-1,804,1016,0,0
-413,8,0,0,0,0,0,0,0,0,0,-1,811,1016,0,0
-406,8,0,0,0,0,0,0,0,0,0,-1,818,1016,0,0
-399,8,0,0,0,0,0,0,0,0,0,-1,825,1016,0,0
-392,8,0,0,0,0,0,0,0,0,0,-1,832,1016,0,0
-385,8,0,0,0,0,0,0,0,0,0,-1,839,1016,0,0
-378,8,0,0,0,0,0,0,0,0,0,-1,846,1016,0,0
-371,8,0,0,0,0,0,0,0,0,0,-1,853,1016,0,0
-364,8,0,0,0,0,0,0,0,0,0,-1,860,1016,0,0
-357,8,0,0,0,0,0,0,0,0,0,-1,867,1016,0,0
-350,8,0,0,0,0,0,0,0,0,0,-1,874,1016,0,0
-343,8,0,0,0,0,0,0,0,0,0,-1,881,1016,0,0
-336,8,0,0,0,0,0,0,0,0,0,-1,888,1016,0,0
-329,8,0,0,0,0,0,0,0,0,0,-1,895,1016,0,0
-322,8,0,0,0,0,0,0,0,0,0,-1,902,1016,0,0
-315,8,0,0,0,0,0,0,0,0,0,-1,909,1016,0,0
-308,8,0,0,0,0,0,0,0,0,0,-1,916,1016,0,0
-301,8,0,0,0,0,0,0,0,0,0,-1,923,1016,0,0
-294,8,0,0,0,0,0,0,0,0,0,-1,930,1016,0,0
-287,8,0,0,0,0,0,0,0,0,0,-1,937,1016,0,0
-280,8,0,0,0,0,0,0,0,0,0,-1,944,1016,0,0
-273,8,0,0,0,0,0,0,0,0,0,-1,951,1016,0,0
-266,8,0,0,0,0,0,0,0,0,0,-1,958,1016,0,0
-259,8,0,0,0,0,0,0,0,0,0,-1,965,1016,0,0
-252,8,0,0,0,0,0,0,0,0,0,-1,972,1016,0,0
-245,8,0,0,0,0,0,0,0,0,0,-1,979,1016,0,0
-238,8,0,0,0,0,0,0,0,0,0,-1,986,1016,0,0
-231,8,0,0,0,0,0,0,0,0,0,-1,993,1016,0,0
-224,8,0,0,0,0,0,0,0,0,0,-1,1000,1016,0,0
-217,8,0,0,0,0,0,0,0,0,0,-1,1007,1016,0,0
-210,8,0,0,0,0,0,0,0,0,0,-1,1014,1016,0,0
-203,8,0,0,0,0,0,0,0,0,0,-1,1021,1016,0,0
-196,8,0,0,0,0,0,0,0,0,0,-1,1028,1016,0,0
-189,8,0,0,0,0,0,0,0,0,0,-1,1035,1016,0,0
-182,8,0,0,0,0,0,0,0,0,0,-1,1042,1016,0,0
-175,8,0,0,0,0,0,0,0,0,0,-1,1049,1016,0,0
-168,8,0,0,0,0,0,0,0,0,0,-1,1056,1016,0,0
-161,8,0,0,0,0,0,0,0,0,0,-1,1063,1016,0,0
-154,8,0,0,0,0,0,0,0,0,0,-1,1070,1016,0,0
-147,8,0,0,0,0,0,0,0,0,0,-1,1077,1016,0,0
-140,8,0,0,0,0,0,0,0,0,0,-1,1084,1016,0,0
-133,8,0,0,0,0,0,0,0,0,0,-1,1091,1016,0,0
-126,8,0,0,0,0,0,0,0,0,0,-1,1098,1016,0,0
-119,8,0,0,0,0,0,0,0,0,0,-1,1105,1016,0,0
-112,8,0,0,0,0,0,0,0,0,0,-1,1112,1016,0,0
-105,8,0,0,0,0,0,0,0,0,0,-1,1119,1016,0,0
-98,8,0,0,0,0,0,0,0,0,0,-1,1126,1016,0,0
-91,8,0,0,0,0,0,0,0,0,0,-1,1133,1016,0,0
-84,8,0,0,0,0,0,0,0,0,0,-1,1140,1016,0,0
-77,8,0,0,0,0,0,0,0,0,0,-1,1147,1016,0,0
-70,8,0,0,0,0,0,0,0,0,0,-1,1154,1016,0,0
-63,8,0,0,0,0,0,0,0,0,0,-1,1161,1016,0,0
-56,8,0,0,0,0,0,0,0,0,0,-1,1168,1016,0,0
-49,8,0,0,0,0,0,0,0,0,0,-1,1175,1016,0,0
-42,8,0,0,0,0,0,0,0,0,0,-1,1182,1016,0,0
-35,8,0,0,0,0,0,0,0,0,0,-1,1189,1016,0,0
-28,8,0,0,0,0,0,0,0,0,0,-1,1196,1016,0,0
-21,8,0,0,0,0,0,0,0,0,0,-1,1203,1016,0,0
-14,8,0,0,0,0,0,0,0,0,0,-1,1210,1016,0,0
-7,8,0,0,0,0,0,0,0,0,0,-1,1217,1016,0,0
0,8,0,0,0,0,0,0,0,0,0,-1,1224,1016,0,0
7,8,0,0,0,0,0,0,0,0,0,-1,1231,1016,0,0
14,8,0,0,0,0,0,0,0,0,0,-1,1238,1016,0,0
21,8,0,0,0,0,0,0,0,0,0,-1,1245,1016,0,0
28,8,0,0,0,0,0,0,0,0,0,-1,1252,1016,0,0
35,8,0,0,0,0,0,0,0,0,0,-1,1259,1016,0,0
42,8,0,0,0,0,0,0,0,0,0,-1,1266,1016,0,0
49,8,0,0,0,0,0,0,0,0,0,-1,1273,1016,0,0
56,8,0,0,0,0,0,0,0,0,0,-1,1280,1016,0,0
63,8,0,0,0,0,0,0,0,0,0,-1,1287,1016,0,0
70,8,0,0,0,0,0,0,0,0,0,-1,1294,1016,0,0
77,8,0,0,0,0,0,0,0,0,0,-1,1301,1016,0,0
84,8,0,0,0,0,0,0,0,0,0,-1,1308,1016,0,0
91,8,0,0,0,0,0,0,0,0,0,-1,1315,1016,0,0
98,8,0,0,0,0,0,0,0,0,0,-1,1322,1016,0,0
105,8,0,0,0,0,0,0,0,0,0,-1,1329,1016,0,0
112,8,0,0,0,0,0,0,0,0,0,-1,1336,1016,0,0
119,8,0,0,0,0,0,0,0,0,0,-1,1343,1016,0,0
126,8,0,0,0,0,0,0,0,0,0,-1,1350,1016,0,0
133,8,0,0,0,0,0,0,0,0,0,-1,1357,1016,0,0
140,8,0,0,0,0,0,0,0,0,0,-1,1364,1016,0,0
147,8,0,0,0,0,0,0,0,0,0,-1,1371,1016,0,0
154,8,0,0,0,0,0,0,0,0,0,-1,1378,1016,0,0
161,8,0,0,0,0,0,0,0,0,0,-1,1385,1016,0,0
168,8,0,0,0,0,0,0,0,0,0,-1,1392,1016,0,0
175,8,0,0,0,0,0,0,0,0,0,-1,1399,1016,0,0
182,8,0,0,0,0,0,0,0,0,0,-1,1406,1016,0,0
189,8,0,0,0,0,0,0,0,0,0,-1,1413,1016,0,0
196,8,0,0,0,0,0,0,0,0,0,-1,1420,1016,0,0
203,8,0,0,0,0,0,0,0,0,0,-1,1427,1016,0,0
210,8,0,0,0,0,0,0,0,0,0,-1,1434,1016,0,0
217,8,0,0,0,0,0,0,0,0,0,-1,1441,1016,0,0
224,8,0,0,0,0,0,0,0,0,0,-1,1448,1016,0,0
231,8,0,0,0,0,0,0,0,0,0,-1,1455,1016,0,0
238,8,0,0,0,0,0,0,0,0,0,-1,1462,1016,0,0
245,8,0,0,0,0,0,0,0,0,0,-1,1469,1016,0,0
252,8,0,0,0,0,0,0,0,0,0,-1,1476,1016,0,0
259,8,0,0,0,0,0,0,0,0,0,-1,1483,1016,0,0
266,8,0,0,0,0,0,0,0,0,0,-1,1490,1016,0,0
273,8,0,0,0,0,0,0,0,0,0,-1,1497,1016,0,0
280,8,0,0,0,0,0,0,0,0,0,-1,1504,1016,0,0
287,8,0,0,0,0,0,0,0,0,0,-1,1511,1016,0,0
294,8,0,0,0,0,0,0,0,0,0,-1,1518,1016,0,0
301,8,0,0,0,0,0,0,0,0,0,-1,1525,1016,0,0
308,8,0,0,0,0,0,0,0,0,0,-1,1532,1016,0,0
315,8,0,0,0,0,0,0,0,0,0,-1,1539,1016,0,0
322,8,0,0,0,0,0,0,0,0,0,-1,1546,1016,0,0
329,8,0,0,0,0,0,0,0,0,0,-1,1553,1016,0,0
336,8,0,0,0,0,0,0,0,0,0,-1,1560,1016,0,0
343,8,0,0,0,0,0,0,0,0,0,-1,1567,1016,0,0
350,8,0,0,0,0,0,0,0,0,0,-1,1574,1016,0,0
357,8,0,0,0,0,0,0,0,0,0,-1,1581,1016,0,0
364,8,0,0,0,0,0,0,0,0,0,-1,1588,1016,0,0
371,8,0,0,0,0,0,0,0,0,0,-1,1595,1016,0,0
378,8,0,0,0,0,0,0,0,0,0,-1,1602,1016,0,0
385,8,0,0,0,0,0,0,0,0,0,-1,1609,1016,0,0
392,8,0,0,0,0,0,0,0,0,0,-1,1616,1016,0,0
399,8,0,0,0,0,0,0,0,0,0,-1,1623,1016,0,0
406,8,0,0,0,0,0,0,0,0,0,-1,1630,1016,0,0
413,8,0,0,0,0,0,0,0,0,0,-1,1637,1016,0,0
420,8,0,0,0,0,0,0,0,0,0,-1,1644,1016,0,0
427,8,0,0,0,0,0,0,0,0,0,-1,1651,1016,0,0
434,8,0,0,0,0,0,0,0,0,0,-1,1658,1016,0,0
441,8,0,0,0,0,0,0,0,0,0,-1,1665,1016,0,0
448,8,0,0,0,0,0,0,0,0,0,-1,1672,1016,0,0
455,8,0,0,0,0,0,0,0,0,0,-1,1679,1016,0,0
462,8,0,0,0,0,0,0,0,0,0,-1,1686,1016,0,0
469,8,0,0,0,0,0,0,0,0,0,-1,1693,1016,0,0
476,8,0,0,0,0,0,0,0,0,0,-1,1700,1016,0,0
483,8,0,0,0,0,0,0,0,0,0,-1,1707,1016,0,0
490,8,0,0,0,0,0,0,0,0,0,-1,1714,1016,0,0
497,8,0,0,0,0,0,0,0,0,0,-1,1721,1016,0,0
504,8,0,0,0,0,0,0,0,0,0,-1,1728,1016,0,0
511,8,0,0,0,0,0,0,0,0,0,-1,1735,1016,0,0
518,8,0,0,0,0,0,0,0,0,0,-1,1742,1016,0,0
525,8,0,0,0,0,0,0,0,0,0,-1,1749,1016,0,0
532,8,0,0,0,0,0,0,0,0,0,-1,1756,1016,0,0
539,8,0,0,0,0,0,0,0,0,0,-1,1763,1016,0,0
546,8,0,0,0,0,0,0,0,0,0,-1,1770,1016,0,0
553,8,0,0,0,0,0,0,0,0,0,-1,1777,1016,0,0
560,8,0,0,0,0,0,0,0,0,0,-1,1784,1016,0,0
567,8,0,0,0,0,0,0,0,0,0,-1,1791,1016,0,0
574,8,0,0,0,0,0,0,0,0,0,-1,1798,1016,0,0
581,8,0,0,0,0,0,0,0,0,0,-1,1805,1016,0,0
588,8,0,0,0,0,0,0,0,0,0,-1,1812,1016,0,0
595,8,0,0,0,0,0,0,0,0,0,-1,1819,1016,0,0
602,8,0,0,0,0,0,0,0,0,0,-1,1826,1016,0,0
609,8,0,0,0,0,0,0,0,0,0,-1,1833,1016,0,0
616,8,0,0,0,0,0,0,0,0,0,-1,1840,1016,0,0
623,8,0,0,0,0,0,0,0,0,0,-1,1847,1016,0,0
630,8,0,0,0,0,0,0,0,0,0,-1,1854,1016,0,0
637,8,0,0,0,0,0,0,0,0,0,-1,1861,1016,0,0
644,8,36.7977,2.06342,-0.00528631,0.00243177,0.00049415,0.00246328,-0.00531782,1.50712,0.00459208,0.0430863,1868,1016,36.7978,-2.06344
651,8,36.8191,2.11896,-0.00374424,0.00222727,-3.51267e-05,0.00222747,-0.00374445,-1.56491,0.00348477,0.039205,1875,1016,36.819,-2.11899
658,8,36.7627,2.32318,-0.00267429,0.00210263,-0.000187903,0.00211001,-0.00268167,-1.53154,0.00277303,0.0387142,1882,1016,36.7627,-2.32319
665,8,36.6316,2.27087,-0.00186447,0.00200231,-6.89077e-05,0.00200354,-0.0018657,-1.55298,0.00223438,0.0410969,1889,1016,36.6316,-2.27086
672,8,36.7095,2.04779,-0.00118237,0.00207388,0.00037799,0.00211718,-0.00122567,1.45674,0.00195274,0.0408914,1896,1016,36.7094,-2.0478
679,8,36.8149,2.22968,-0.000668245,0.00213627,0.00115154,0.0025485,-0.00108048,1.22703,0.00215158,0.0381678,1903,1016,36.815,-2.22967
686,8,36.8536,2.3078,-0.000375148,0.00200339,0.00199053,0.00313286,-0.00150462,1.05467,0.00273191,0.0416949,1910,1016,36.8537,-2.3078
693,8,36.7834,2.31433,-0.000216817,0.00178961,0.00268229,0.00365015,-0.00207736,0.964351,0.00334808,0.0394266,1917,1016,36.7835,-2.31433
700,8,36.7836,2.3952,-7.19003e-05,0.00152973,0.00312279,0.00395275,-0.00249492,0.910915,0.00375415,0.0291265,1924,1016,36.7835,-2.39522
707,8,36.7968,2.46307,-0.000108232,0.00157473,0.003411,0.00424652,-0.00278002,0.906332,0.00408612,0.0218516,1931,1016,36.7968,-2.46308
714,8,36.8059,2.43018,-0.000437193,0.00161558,0.00363815,0.00436935,-0.00319097,0.922884,0.00438259,0.0231196,1938,1016,36.8059,-2.43015
721,8,36.7659,3.33875,0,0,0,0,0,0,0,-1,1945,1016,36.7659,-3.33873
728,8,36.3973,4.38336,-0.00162656,0.00223709,0.00369746,0.00447698,-0.00386645,1.02613,0.00482138,0.0363749,1952,1016,36.3974,-4.38337
735,8,36.3551,4.82343,-0.00203954,0.00292398,0.0031615,0.00446145,-0.00357701,1.11816,0.00465036,0.0270876,1959,1016,36.355,-4.8234
742,8,36.4559,4.81158,-0.00303731,0.00376757,0.00246558,0.00456699,-0.00383673,1.25726,0.004858,0.0330012,1966,1016,36.456,-4.81161
749,8,36.4585,4.95435,-0.00369403,0.00495489,0.00266639,0.00571084,-0.00444998,1.29453,0.00588139,0.0245057,1973,1016,36.4585,-4.95434
756,8,36.4362,4.93396,-0.00401538,0.00659201,0.00328987,0.0075295,-0.00495287,1.29319,0.0072577,0.0186372,1980,1016,36.4361,-4.93397
763,8,36.4232,4.99402,-0.00428064,0.0106587,0.00445387,0.0118858,-0.00550769,1.30196,0.0102647,0.0142547,1987,1016,36.4232,-4.99401
770,8,36.3536,5.00299,-0.00417559,0.0149525,0.00653544,0.0169722,-0.00619528,1.27107,0.0138497,0.0186373,1994,1016,36.3536,-5.00298
777,8,36.1016,5.04639,-0.0033156,0.0208724,0.0104573,0.0247665,-0.00720974,1.21432,0.0193669,0.0310509,2001,1016,36.1016,-5.04642
784,8,36.0519,5.09125,-0.00170618,0.0280791,0.0161636,0.0351649,-0.00879196,1.15765,0.026858,0.048459,2008,1016,36.0518,-5.09125
791,8,35.9309,4.54407,0.000887051,0.037217,0.0241601,0.0492792,-0.0111751,1.10774,0.0371425,0.0480811,2015,1016,35.9308,-4.5441
798,8,32.7595,5.73315,0.0047827,0.0491358,0.0348621,0.0682771,-0.0143586,1.06868,0.0509827,0.0488766,2022,1016,32.7595,-5.73313
805,8,32.9148,6.54388,0.0102856,0.0649712,0.0487548,0.0935271,-0.0182702,1.04096,0.0692495,0.0462684,2029,1016,32.9147,-6.54387
812,8,33.0078,7.1908,0.0175423,0.0866118,0.0663829,0.126906,-0.0227516,1.02525,0.0931189,0.0444837,2036,1016,33.0077,-7.1908
-700,1,0,0,0,0,0,0,0,0,0,-1,524,1023,0,0
-693,1,-29.4352,1.14288,0,0,0,0,0,0,0,-1,531,1023,-29.4352,-1.1429
-686,1,-29.0074,1.06549,0,0,0,0,0,0,0,-1,538,1023,-29.0074,-1.06546
-679,1,-27.9688,2.11749,0,0,0,0,0,0,0,-1,545,1023,-27.9688,-2.11747
-672,1,-27.4856,2.00867,0.0854074,0.0322597,-0.00748862,0.0864424,0.0312247,-0.137341,0.0505443,0.047293,552,1023,-27.4856,-2.00868
-665,1,-27.0809,1.91565,0.0692422,0.0274495,-0.00614367,0.0701267,0.0265651,-0.142975,0.0408821,0.0443961,559,1023,-27.0809,-1.91562
-658,1,-26.9489,1.95508,0.054203,0.0230045,-0.00463843,0.054878,0.0223295,-0.144512,0.0318664,0.0354609,566,1023,-26.9488,-1.95506
-651,1,-26.8241,2.14496,0.0409416,0.0188571,-0.00329986,0.0414241,0.0183746,-0.145196,0.0239669,0.0255572,573,1023,-26.8241,-2.14496
-644,1,-26.6413,2.3205,0.0294121,0.0150995,-0.00243153,0.0298139,0.0146977,-0.163769,0.0172136,0.0376786,580,1023,-26.6413,-2.32052
-637,1,-26.8457,2.26605,0.0201008,0.0114196,-0.00338162,0.0212626,0.0102578,-0.330924,0.0122785,0.0296044,587,1023,-26.8457,-2.26606
-630,1,-27.0347,2.25189,0.0128446,0.00821812,-0.00382584,0.0150022,0.00606056,-0.513487,0.00871459,0.0246721,594,1023,-27.0347,-2.25186
-623,1,-26.9855,2.30139,0.00727983,0.00609686,-0.00478384,0.0115086,0.00186807,-0.723889,0.00713174,0.0129428,601,1023,-26.9855,-2.30138
-616,1,-27.0254,2.25385,0.00263931,0.00403749,-0.00548628,0.00886904,-0.00219224,-0.848769,0.00676293,0.015526,608,1023,-27.0254,-2.25382
-609,1,-27.0015,2.26611,0.000882931,0.00269627,-0.00685028,0.00869962,-0.00512042,-0.851193,0.0080677,0.0168757,615,1023,-27.0015,-2.26609
-602,1,-26.9354,2.28906,0.000901908,0.0013744,-0.00808346,0.00922506,-0.00694875,-0.800007,0.00936874,0.0132567,622,1023,-26.9354,-2.28905
-595,1,-26.8357,2.27618,0.00102985,0.000370821,-0.0090081,0.00971446,-0.00831379,-0.767116,0.0104191,0.0274928,629,1023,-26.8357,-2.27618
-588,1,-26.7668,1.48254,0.00129682,-4.10465e-06,-0.00953591,0.0102044,-0.00891171,-0.751345,0.0110451,0.0386037,636,1023,-26.7668,-1.48256
-581,1,-26.7348,0.725952,0.00154644,-0.00031621,-0.00955684,0.0102172,-0.008987,-0.736826,0.0110951,0.0289536,643,1023,-26.7348,-0.725977
-574,1,-26.728,0.723999,0.00137348,-0.000636465,-0.00897776,0.00940234,-0.00866532,-0.72966,0.0104343,0.0360988,650,1023,-26.7279,-0.723985
-567,1,-26.6548,0.746643,0.000951444,-0.000794979,-0.0078254,0.0079522,-0.00779573,-0.729835,0.00909222,0.0391805,657,1023,-26.6548,-0.746621
-560,1,-26.6403,0.536926,0.000431163,-0.00092061,-0.00620381,0.0059958,-0.00648525,-0.731139,0.00720778,0.0394686,664,1023,-26.6402,-0.536942
-553,1,-26.5229,0.592957,-0.000113145,-0.00111561,-0.00430315,0.00371787,-0.00494663,-0.727419,0.00501919,0.0400796,671,1023,-26.5229,-0.592977
-546,1,-26.6805,0.885254,-0.000525973,-0.00152135,-0.00238265,0.00141041,-0.00345773,-0.682439,0.00289229,0.0433459,678,1023,-26.6806,-0.885262
-539,1,-27.0113,0.838867,-0.000380632,-0.00228447,-0.00132405,0.000298172,-0.00296327,-0.473734,0.00208203,0.0412765,685,1023,-27.0113,-0.838866
-532,1,-26.9454,0.65033,0.000302838,-0.00229134,-0.00341858,0.00266213,-0.00465063,-0.604077,0.00427374,0.0398484,692,1023,-26.9454,-0.650317
-525,1,0,0,0,0,0,0,0,0,0,-1,699,1023,0,0
-518,1,0,0,0,0,0,0,0,0,0,-1,706,1023,0,0
-511,1,0,0,0,0,0,0,0,0,0,-1,713,1023,0,0
-504,1,0,0,0,0,0,0,0,0,0,-1,720,1023,0,0
-497,1,0,0,0,0,0,0,0,0,0,-1,727,1023,0,0
-490,1,0,0,0,0,0,0,0,0,0,-1,734,1023,0,0
-483,1,0,0,0,0,0,0,0,0,0,-1,741,1023,0,0
-476,1,0,0,0,0,0,0,0,0,0,-1,748,1023,0,0
-469,1,0,0,0,0,0,0,0,0,0,-1,755,1023,0,0
-462,1,0,0,0,0,0,0,0,0,0,-1,762,1023,0,0
-455,1,0,0,0,0,0,0,0,0,0,-1,769,1023,0,0
-448,1,0,0,0,0,0,0,0,0,0,-1,776,1023,0,0
-441,1,0,0,0,0,0,0,0,0,0,-1,783,1023,0,0
-434,1,0,0,0,0,0,0,0,0,0,-1,790,1023,0,0
-427,1,0,0,0,0,0,0,0,0,0,-1,797,1023,0,0
-420,1,0,0,0,0,0,0,0,0,0,-1,804,1023,0,0
-413,1,0,0,0,0,0,0,0,0,0,-1,811,1023,0,0
-406,1,0,0,0,0,0,0,0,0,0,-1,818,1023,0,0
-399,1,0,0,0,0,0,0,0,0,0,-1,825,1023,0,0
-392,1,0,0,0,0,0,0,0,0,0,-1,832,1023,0,0
-385,1,0,0,0,0,0,0,0,0,0,-1,839,1023,0,0
-378,1,0,0,0,0,0,0,0,0,0,-1,846,1023,0,0
-371,1,0,0,0,0,0,0,0,0,0,-1,853,1023,0,0
-364,1,0,0,0,0,0,0,0,0,0,-1,860,1023,0,0
-357,1,0,0,0,0,0,0,0,0,0,-1,867,1023,0,0
-350,1,0,0,0,0,0,0,0,0,0,-1,874,1023,0,0
-343,1,0,0,0,0,0,0,0,0,0,-1,881,1023,0,0
-336,1,0,0,0,0,0,0,0,0,0,-1,888,1023,0,0
-329,1,0,0,0,0,0,0,0,0,0,-1,895,1023,0,0
-322,1,0,0,0,0,0,0,0,0,0,-1,902,1023,0,0
-315,1,0,0,0,0,0,0,0,0,0,-1,909,1023,0,0
-308,1,0,0,0,0,0,0,0,0,0,-1,916,1023,0,0
-301,1,0,0,0,0,0,0,0,0,0,-1,923,1023,0,0
-294,1,0,0,0,0,0,0,0,0,0,-1,930,1023,0,0
-287,1,0,0,0,0,0,0,0,0,0,-1,937,1023,0,0
-280,1,0,0,0,0,0,0,0,0,0,-1,944,1023,0,0
-273,1,0,0,0,0,0,0,0,0,0,-1,951,1023,0,0
-266,1,0,0,0,0,0,0,0,0,0,-1,958,1023,0,0
-259,1,0,0,0,0,0,0,0,0,0,-1,965,1023,0,0
-252,1,0,0,0,0,0,0,0,0,0,-1,972,1023,0,0
-245,1,0,0,0,0,0,0,0,0,0,-1,979,1023,0,0
-238,1,0,0,0,0,0,0,0,0,0,-1,986,1023,0,0
-231,1,0,0,0,0,0,0,0,0,0,-1,993,1023,0,0
-224,1,0,0,0,0,0,0,0,0,0,-1,1000,1023,0,0
-217,1,0,0,0,0,0,0,0,0,0,-1,1007,1023,0,0
-210,1,0,0,0,0,0,0,0,0,0,-1,1014,1023,0,0
-203,1,0,0,0,0,0,0,0,0,0,-1,1021,1023,0,0
-196,1,0,0,0,0,0,0,0,0,0,-1,1028,1023,0,0
-189,1,0,0,0,0,0,0,0,0,0,-1,1035,1023,0,0
-182,1,0,0,0,0,0,0,0,0,0,-1,1042,1023,0,0
-175,1,0,0,0,0,0,0,0,0,0,-1,1049,1023,0,0
-168,1,0,0,0,0,0,0,0,0,0,-1,1056,1023,0,0
-161,1,0,0,0,0,0,0,0,0,0,-1,1063,1023,0,0
-154,1,0,0,0,0,0,0,0,0,0,-1,1070,1023,0,0
-147,1,0,0,0,0,0,0,0,0,0,-1,1077,1023,0,0
-140,1,0,0,0,0,0,0,0,0,0,-1,1084,1023,0,0
-133,1,0,0,0,0,0,0,0,0,0,-1,1091,1023,0,0
-126,1,0,0,0,0,0,0,0,0,0,-1,1098,1023,0,0
-119,1,0,0,0,0,0,0,0,0,0,-1,1105,1023,0,0
-112,1,0,0,0,0,0,0,0,0,0,-1,1112,1023,0,0
-105,1,0,0,0,0,0,0,0,0,0,-1,1119,1023,0,0
-98,1,0,0,0,0,0,0,0,0,0,-1,1126,1023,0,0
-91,1,0,0,0,0,0,0,0,0,0,-1,1133,1023,0,0
-84,1,0,0,0,0,0,0,0,0,0,-1,1140,1023,0,0
-77,1,0,0,0,0,0,0,0,0,0,-1,1147,1023,0,0
-70,1,0,0,0,0,0,0,0,0,0,-1,1154,1023,0,0
-63,1,0,0,0,0,0,0,0,0,0,-1,1161,1023,0,0
-56,1,0,0,0,0,0,0,0,0,0,-1,1168,1023,0,0
-49,1,0,0,0,0,0,0,0,0,0,-1,1175,1023,0,0
-42,1,0,0,0,0,0,0,0,0,0,-1,1182,1023,0,0
-35,1,0,0,0,0,0,0,0,0,0,-1,1189,1023,0,0
-28,1,0,0,0,0,0,0,0,0,0,-1,1196,1023,0,0
-21,1,0,0,0,0,0,0,0,0,0,-1,1203,1023,0,0
-14,1,0,0,0,0,0,0,0,0,0,-1,1210,1023,0,0
-7,1,0,0,0,0,0,0,0,0,0,-1,1217,1023,0,0
0,1,0,0,0,0,0,0,0,0,0,-1,1224,1023,0,0
7,1,0,0,0,0,0,0,0,0,0,-1,1231,1023,0,0
14,1,0,0,0,0,0,0,0,0,0,-1,1238,1023,0,0
21,1,0,0,0,0,0,0,0,0,0,-1,1245,1023,0,0
28,1,0,0,0,0,0,0,0,0,0,-1,1252,1023,0,0
35,1,0,0,0,0,0,0,0,0,0,-1,1259,1023,0,0
42,1,0,0,0,0,0,0,0,0,0,-1,1266,1023,0,0
49,1,0,0,0,0,0,0,0,0,0,-1,1273,1023,0,0
56,1,0,0,0,0,0,0,0,0,0,-1,1280,1023,0,0
63,1,0,0,0,0,0,0,0,0,0,-1,1287,1023,0,0
70,1,0,0,0,0,0,0,0,0,0,-1,1294,1023,0,0
77,1,0,0,0,0,0,0,0,0,0,-1,1301,1023,0,0
84,1,0,0,0,0,0,0,0,0,0,-1,1308,1023,0,0
91,1,0,0,0,0,0,0,0,0,0,-1,1315,1023,0,0
98,1,0,0,0,0,0,0,0,0,0,-1,1322,1023,0,0
105,1,0,0,0,0,0,0,0,0,0,-1,1329,1023,0,0
112,1,0,0,0,0,0,0,0,0,0,-1,1336,1023,0,0
119,1,0,0,0,0,0,0,0,0,0,-1,1343,1023,0,0
126,1,0,0,0,0,0,0,0,0,0,-1,1350,1023,0,0
133,1,0,0,0,0,0,0,0,0,0,-1,1357,1023,0,0
140,1,0,0,0,0,0,0,0,0,0,-1,1364,1023,0,0
147,1,0,0,0,0,0,0,0,0,0,-1,1371,1023,0,0
154,1,0,0,0,0,0,0,0,0,0,-1,1378,1023,0,0
161,1,0,0,0,0,0,0,0,0,0,-1,1385,1023,0,0
168,1,0,0,0,0,0,0,0,0,0,-1,1392,1023,0,0
175,1,0,0,0,0,0,0,0,0,0,-1,1399,1023,0,0
182,1,0,0,0,0,0,0,0,0,0,-1,1406,1023,0,0
189,1,0,0,0,0,0,0,0,0,0,-1,1413,1023,0,0
196,1,0,0,0,0,0,0,0,0,0,-1,1420,1023,0,0
203,1,0,0,0,0,0,0,0,0,0,-1,1427,1023,0,0
210,1,0,0,0,0,0,0,0,0,0,-1,1434,1023,0,0
217,1,0,0,0,0,0,0,0,0,0,-1,1441,1023,0,0
224,1,0,0,0,0,0,0,0,0,0,-1,1448,1023,0,0
231,1,0,0,0,0,0,0,0,0,0,-1,1455,1023,0,0
238,1,0,0,0,0,0,0,0,0,0,-1,1462,1023,0,0
245,1,0,0,0,0,0,0,0,0,0,-1,1469,1023,0,0
252,1,0,0,0,0,0,0,0,0,0,-1,1476,1023,0,0
259,1,0,0,0,0,0,0,0,0,0,-1,1483,1023,0,0
266,1,0,0,0,0,0,0,0,0,0,-1,1490,1023,0,0
273,1,0,0,0,0,0,0,0,0,0,-1,1497,1023,0,0
280,1,0,0,0,0,0,0,0,0,0,-1,1504,1023,0,0
287,1,0,0,0,0,0,0,0,0,0,-1,1511,1023,0,0
294,1,0,0,0,0,0,0,0,0,0,-1,1518,1023,0,0
301,1,0,0,0,0,0,0,0,0,0,-1,1525,1023,0,0
308,1,0,0,0,0,0,0,0,0,0,-1,1532,1023,0,0
315,1,0,0,0,0,0,0,0,0,0,-1,1539,1023,0,0
322,1,0,0,0,0,0,0,0,0,0,-1,1546,1023,0,0
329,1,0,0,0,0,0,0,0,0,0,-1,1553,1023,0,0
336,1,0,0,0,0,0,0,0,0,0,-1,1560,1023,0,0
343,1,0,0,0,0,0,0,0,0,0,-1,1567,1023,0,0
350,1,0,0,0,0,0,0,0,0,0,-1,1574,1023,0,0
357,1,0,0,0,0,0,0,0,0,0,-1,1581,1023,0,0
364,1,0,0,0,0,0,0,0,0,0,-1,1588,1023,0,0
371,1,0,0,0,0,0,0,0,0,0,-1,1595,1023,0,0
378,1,0,0,0,0,0,0,0,0,0,-1,1602,1023,0,0
385,1,0,0,0,0,0,0,0,0,0,-1,1609,1023,0,0
392,1,0,0,0,0,0,0,0,0,0,-1,1616,1023,0,0
399,1,0,0,0,0,0,0,0,0,0,-1,1623,1023,0,0
406,1,0,0,0,0,0,0,0,0,0,-1,1630,1023,0,0
413,1,0,0,0,0,0,0,0,0,0,-1,1637,1023,0,0
420,1,0,0,0,0,0,0,0,0,0,-1,1644,1023,0,0
427,1,0,0,0,0,0,0,0,0,0,-1,1651,1023,0,0
434,1,0,0,0,0,0,0,0,0,0,-1,1658,1023,0,0
441,1,0,0,0,0,0,0,0,0,0,-1,1665,1023,0,0
448,1,0,0,0,0,0,0,0,0,0,-1,1672,1023,0,0
455,1,0,0,0,0,0,0,0,0,0,-1,1679,1023,0,0
462,1,0,0,0,0,0,0,0,0,0,-1,1686,1023,0,0
469,1,0,0,0,0,0,0,0,0,0,-1,1693,1023,0,0
476,1,0,0,0,0,0,0,0,0,0,-1,1700,1023,0,0
483,1,0,0,0,0,0,0,0,0,0,-1,1707,1023,0,0
490,1,0,0,0,0,0,0,0,0,0,-1,1714,1023,0,0
497,1,0,0,0,0,0,0,0,0,0,-1,1721,1023,0,0
504,1,0,0,0,0,0,0,0,0,0,-1,1728,1023,0,0
511,1,0,0,0,0,0,0,0,0,0,-1,1735,1023,0,0
518,1,0,0,0,0,0,0,0,0,0,-1,1742,1023,0,0
525,1,0,0,0,0,0,0,0,0,0,-1,1749,1023,0,0
532,1,0,0,0,0,0,0,0,0,0,-1,1756,1023,0,0
539,1,0,0,0,0,0,0,0,0,0,-1,1763,1023,0,0
546,1,0,0,0,0,0,0,0,0,0,-1,1770,1023,0,0
553,1,0,0,0,0,0,0,0,0,0,-1,1777,1023,0,0
560,1,0,0,0,0,0,0,0,0,0,-1,1784,1023,0,0
567,1,0,0,0,0,0,0,0,0,0,-1,1791,1023,0,0
574,1,0,0,0,0,0,0,0,0,0,-1,1798,1023,0,0
581,1,0,0,0,0,0,0,0,0,0,-1,1805,1023,0,0
588,1,0,0,0,0,0,0,0,0,0,-1,1812,1023,0,0
595,1,0,0,0,0,0,0,0,0,0,-1,1819,1023,0,0
602,1,0,0,0,0,0,0,0,0,0,-1,1826,1023,0,0
609,1,0,0,0,0,0,0,0,0,0,-1,1833,1023,0,0
616,1,0,0,0,0,0,0,0,0,0,-1,1840,1023,0,0
623,1,0,0,0,0,0,0,0,0,0,-1,1847,1023,0,0
630,1,0,0,0,0,0,0,0,0,0,-1,1854,1023,0,0
637,1,0,0,0,0,0,0,0,0,0,-1,1861,1023,0,0
644,1,0,0,0,0,0,0,0,0,0,-1,1868,1023,0,0
651,1,36.8826,2.2998,-0.00475416,0.00144308,-0.00080491,0.00154592,-0.004857,-1.44372,0.00385797,0.0372791,1875,1023,36.8826,-2.29978
658,1,36.8408,2.50238,-0.00342028,0.00150403,-0.000761669,0.00161915,-0.0035354,-1.42079,0.00304376,0.0392585,1882,1023,36.8409,-2.50237
665,1,36.8019,2.28003,-0.00241488,0.00152644,-0.000508969,0.0015911,-0.00247955,-1.44442,0.00236878,0.0428196,1889,1023,36.8019,-2.28004
672,1,36.8558,1.96136,-0.00156575,0.0016641,7.71202e-05,0.00166595,-0.00156759,1.54694,0.00186717,0.0435075,1896,1023,36.8558,-1.96139
679,1,36.7101,2.42236,-0.000867728,0.00175554,0.000968823,0.00207455,-0.00118674,1.2527,0.00190602,0.0386088,1903,1023,36.7101,-2.42239
686,1,36.8126,2.37982,-0.000471541,0.00162216,0.00190902,0.00275252,-0.0016019,1.03619,0.00254312,0.0382578,1910,1023,36.8126,-2.37979
693,1,36.8605,2.45496,-0.00024588,0.0013896,0.00269397,0.00338721,-0.00224349,0.932751,0.00327316,0.0353236,1917,1023,36.8605,-2.45494
700,1,36.8452,2.49689,-5.17708e-05,0.00111531,0.00320553,0.00378998,-0.00272644,0.875433,0.00377893,0.0286439,1924,1023,36.8452,-2.49686
707,1,36.7866,2.45532,-4.13705e-05,0.00113866,0.00355969,0.0041569,-0.00305961,0.867526,0.00418248,0.0249626,1931,1023,36.7866,-2.45535
714,1,36.7731,2.37976,-0.000332362,0.00117165,0.00383115,0.00432391,-0.00348462,0.88231,0.00451692,0.0267084,1938,1023,36.773,-2.37973
721,1,36.7136,3.74847,0,0,0,0,0,0,0,-1,1945,1023,36.7136,-3.74846
728,1,36.4325,4.51178,0,0,0,0,0,0,0,-1,1952,1023,36.4325,-4.51178
735,1,36.1514,5.27509,0,0,0,0,0,0,0,-1,1959,1023,36.1514,-5.27511
742,1,36.423,4.90741,-0.00295606,0.00330407,0.00256958,0.0042237,-0.00387569,1.22711,0.00467763,0.0306667,1966,1023,36.4229,-4.90743
749,1,36.4138,4.95276,-0.0036773,0.00444386,0.00262232,0.00521701,-0.00445044,1.28409,0.00558735,0.0280945,1973,1023,36.4138,-4.95277
756,1,36.4603,4.96356,-0.00410242,0.00600049,0.00295791,0.00680279,-0.00490472,1.30593,0.00678888,0.0188257,1980,1023,36.4603,-4.96355
763,1,36.4277,4.95758,-0.00451311,0.00983639,0.00373811,0.0107518,-0.00542851,1.33064,0.00950873,0.0146187,1987,1023,36.4278,-4.9576
770,1,36.3932,4.96045,-0.00465042,0.0138801,0.00527228,0.0152751,-0.00604546,1.31213,0.0126881,0.0162499,1994,1023,36.3932,-4.96044
777,1,36.2056,4.9201,-0.00412359,0.0194549,0.00852833,0.0222162,-0.0068849,1.25767,0.0175615,0.0219328,2001,1023,36.2056,-4.92009
784,1,36.0634,4.8728,-0.00289241,0.0262102,0.0134623,0.0314825,-0.0081647,1.19752,0.0241739,0.0421066,2008,1023,36.0634,-4.87281
791,1,36.0293,4.36938,-0.00077667,0.0347967,0.0205343,0.0441766,-0.0101566,1.14231,0.0333561,0.0462958,2015,1023,36.0293,-4.36938
798,1,35.9517,4.20795,0,0,0,0,0,0,0,-1,2022,1023,35.9516,-4.20797
805,1,35.6956,2.9613,0,0,0,0,0,0,0,-1,2029,1023,35.6956,-2.96131
812,1,35.2542,2.97858,0,0,0,0,0,0,0,-1,2036,1023,35.2542,-2.9786
-700,-6,0,0,0,0,0,0,0,0,0,-1,524,1030,0,0
-693,-6,-27.3093,0.998291,0,0,0,0,0,0,0,-1,531,1030,-27.3093,-0.998238
-686,-6,-27.9205,2.55811,0.104906,0.0462797,-0.00643271,0.105604,0.0455821,-0.108012,0.0611599,0.0474158,538,1030,-27.9205,-2.55812
-679,-6,-27.3714,2.37708,0.0916599,0.0409897,-0.00644675,0.0924672,0.0401824,-0.124586,0.0535382,0.0492475,545,1030,-27.3714,-2.37704
-672,-6,-26.8059,2.19641,0.0769878,0.0355961,-0.00559282,0.0777302,0.0348537,-0.131967,0.0449572,0.0489246,552,1030,-26.8059,-2.19646
-665,-6,-26.8496,1.88367,0,0,0,0,0,0,0,-1,559,1030,-26.8496,-1.88369
-658,-6,-26.8099,2.13818,0.048823,0.025335,-0.00313618,0.0492346,0.0249234,-0.130477,0.0284263,0.0393249,566,1030,-26.8099,-2.13814
-651,-6,-26.9161,2.12732,0.0368225,0.0206127,-0.00209601,0.0370892,0.0203461,-0.126533,0.0214471,0.0377409,573,1030,-26.9162,-2.12727
-644,-6,-26.8202,2.49731,0,0,0,0,0,0,0,-1,580,1030,-26.8202,-2.49735
-637,-6,-26.8811,2.29797,0.0178346,0.012228,-0.00270064,0.0189238,0.0111387,-0.383373,0.0109827,0.0326257,587,1030,-26.8811,-2.29798
-630,-6,-26.9726,2.22815,0.0113746,0.00857193,-0.0034057,0.013656,0.00629054,-0.590222,0.00789243,0.0188679,594,1030,-26.9726,-2.22813
-623,-6,-26.9542,2.25073,0.00634586,0.00607405,-0.00457936,0.0107913,0.00162858,-0.770563,0.00671749,0.013923,601,1030,-26.9542,-2.25072
-616,-6,-26.9713,2.26086,0.00224686,0.00374539,-0.00554311,0.00858965,-0.0025974,-0.852576,0.00676065,0.0154975,608,1030,-26.9713,-2.26082
-609,-6,-26.9409,2.31091,0.000803672,0.00240603,-0.00697612,0.00862682,-0.00541712,-0.842571,0.00817856,0.0169986,615,1030,-26.9409,-2.31094
-602,-6,-26.9154,2.3573,0.000790819,0.00115089,-0.00821368,0.00918651,-0.0072448,-0.796356,0.00950868,0.0123429,622,1030,-26.9154,-2.35727
-595,-6,-26.7629,2.32288,0,0,0,0,0,0,0,-1,629,1030,-26.7629,-2.32288
-588,-6,-26.7596,1.41858,0.00119133,-5.39115e-05,-0.0096001,0.010189,-0.00905156,-0.753016,0.011115,0.0231131,636,1030,-26.7597,-1.41862
-581,-6,-26.7449,0.690796,0.00152118,-0.000328491,-0.00960418,0.010245,-0.00905226,-0.737399,0.0111483,0.0237413,643,1030,-26.745,-0.690798
-574,-6,-26.7509,0.673462,0.00143622,-0.000540364,-0.00901988,0.00952179,-0.00862594,-0.730832,0.0104818,0.0299227,650,1030,-26.7508,-0.67349
-567,-6,-26.7082,0.700195,0.00114686,-0.000583131,-0.00786514,0.00819443,-0.0076307,-0.730629,0.00913857,0.034927,657,1030,-26.7082,-0.700226
-560,-6,-26.6049,0.544312,0.000789784,-0.000583357,-0.00623082,0.00637174,-0.00616532,-0.730525,0.0072386,0.0371471,664,1030,-26.6049,-0.544306
-553,-6,-26.5394,0.572876,0.000442309,-0.000666299,-0.00430288,0.00422644,-0.00445044,-0.72134,0.00501016,0.0380465,671,1030,-26.5393,-0.572821
-546,-6,-26.6605,0.79126,0.00024904,-0.00100317,-0.00235097,0.00205585,-0.00280998,-0.65526,0.00282052,0.0412031,678,1030,-26.6605,-0.791228
-539,-6,-26.7601,0.692871,0.000610273,-0.00174078,-0.00130941,0.00119441,-0.00232491,-0.419612,0.00206653,0.0418937,685,1030,-26.7601,-0.692876
-532,-6,-26.6847,0.559937,0.00149175,-0.00184464,-0.00369262,0.00387551,-0.0042284,-0.573238,0.00468027,0.0412184,692,1030,-26.6847,-0.559892
-525,-6,0,0,0,0,0,0,0,0,0,-1,699,1030,0,0
-518,-6,0,0,0,0,0,0,0,0,0,-1,706,1030,0,0
-511,-6,0,0,0,0,0,0,0,0,0,-1,713,1030,0,0
-504,-6,0,0,0,0,0,0,0,0,0,-1,720,1030,0,0
-497,-6,0,0,0,0,0,0,0,0,0,-1,727,1030,0,0
-490,-6,0,0,0,0,0,0,0,0,0,-1,734,1030,0,0
-483,-6,0,0,0,0,0,0,0,0,0,-1,741,1030,0,0
-476,-6,0,0,0,0,0,0,0,0,0,-1,748,1030,0,0
-469,-6,0,0,0,0,0,0,0,0,0,-1,755,1030,0,0
-462,-6,0,0,0,0,0,0,0,0,0,-1,762,1030,0,0
-455,-6,0,0,0,0,0,0,0,0,0,-1,769,1030,0,0
-448,-6,0,0,0,0,0,0,0,0,0,-1,776,1030,0,0
-441,-6,0,0,0,0,0,0,0,0,0,-1,783,1030,0,0
-434,-6,0,0,0,0,0,0,0,0,0,-1,790,1030,0,0
-427,-6,0,0,0,0,0,0,0,0,0,-1,797,1030,0,0
-420,-6,0,0,0,0,0,0,0,0,0,-1,804,1030,0,0
-413,-6,0,0,0,0,0,0,0,0,0,-1,811,1030,0,0
-406,-6,0,0,0,0,0,0,0,0,0,-1,818,1030,0,0
-399,-6,0,0,0,0,0,0,0,0,0,-1,825,1030,0,0
-392,-6,0,0,0,0,0,0,0,0,0,-1,832,1030,0,0
-385,-6,0,0,0,0,0,0,0,0,0,-1,839,1030,0,0
-378,-6,0,0,0,0,0,0,0,0,0,-1,846,1030,0,0
-371,-6,0,0,0,0,0,0,0,0,0,-1,853,1030,0,0
-364,-6,0,0,0,0,0,0,0,0,0,-1,860,1030,0,0
-357,-6,0,0,0,0,0,0,0,0,0,-1,867,1030,0,0
-350,-6,0,0,0,0,0,0,0,0,0,-1,874,1030,0,0
-343,-6,0,0,0,0,0,0,0,0,0,-1,881,1030,0,0
-336,-6,0,0,0,0,0,0,0,0,0,-1,888,1030,0,0
-329,-6,0,0,0,0,0,0,0,0,0,-1,895,1030,0,0
-322,-6,0,0,0,0,0,0,0,0,0,-1,902,1030,0,0
-315,-6,0,0,0,0,0,0,0,0,0,-1,909,1030,0,0
-308,-6,0,0,0,0,0,0,0,0,0,-1,916,1030,0,0
-301,-6,0,0,0,0,0,0,0,0,0,-1,923,1030,0,0
-294,-6,0,0,0,0,0,0,0,0,0,-1,930,1030,0,0
-287,-6,0,0,0,0,0,0,0,0,0,-1,937,1030,0,0
-280,-6,0,0,0,0,0,0,0,0,0,-1,944,1030,0,0
-273,-6,0,0,0,0,0,0,0,0,0,-1,951,1030,0,0
-266,-6,0,0,0,0,0,0,0,0,0,-1,958,1030,0,0
-259,-6,0,0,0,0,0,0,0,0,0,-1,965,1030,0,0
-252,-6,0,0,0,0,0,0,0,0,0,-1,972,1030,0,0
-245,-6,0,0,0,0,0,0,0,0,0,-1,979,1030,0,0
-238,-6,0,0,0,0,0,0,0,0,0,-1,986,1030,0,0
-231,-6,0,0,0,0,0,0,0,0,0,-1,993,1030,0,0
-224,-6,0,0,0,0,0,0,0,0,0,-1,1000,1030,0,0
-217,-6,0,0,0,0,0,0,0,0,0,-1,1007,1030,0,0
-210,-6,0,0,0,0,0,0,0,0,0,-1,1014,1030,0,0
-203,-6,0,0,0,0,0,0,0,0,0,-1,1021,1030,0,0
-196,-6,0,0,0,0,0,0,0,0,0,-1,1028,1030,0,0
-189,-6,0,0,0,0,0,0,0,0,0,-1,1035,1030,0,0
-182,-6,0,0,0,0,0,0,0,0,0,-1,1042,1030,0,0
-175,-6,0,0,0,0,0,0,0,0,0,-1,1049,1030,0,0
-168,-6,0,0,0,0,0,0,0,0,0,-1,1056,1030,0,0
-161,-6,0,0,0,0,0,0,0,0,0,-1,1063,1030,0,0
-154,-6,0,0,0,0,0,0,0,0,0,-1,1070,1030,0,0
-147,-6,0,0,0,0,0,0,0,0,0,-1,1077,1030,0,0
-140,-6,0,0,0,0,0,0,0,0,0,-1,1084,1030,0,0
-133,-6,0,0,0,0,0,0,0,0,0,-1,1091,1030,0,0
-126,-6,0,0,0,0,0,0,0,0,0,-1,1098,1030,0,0
-119,-6,0,0,0,0,0,0,0,0,0,-1,1105,1030,0,0
-112,-6,0,0,0,0,0,0,0,0,0,-1,1112,1030,0,0
-105,-6,0,0,0,0,0,0,0,0,0,-1,1119,1030,0,0
-98,-6,0,0,0,0,0,0,0,0,0,-1,1126,1030,0,0
-91,-6,0,0,0,0,0,0,0,0,0,-1,1133,1030,0,0
-84,-6,0,0,0,0,0,0,0,0,0,-1,1140,1030,0,0
-77,-6,0,0,0,0,0,0,0,0,0,-1,1147,1030,0,0
-70,-6,0,0,0,0,0,0,0,0,0,-1,1154,1030,0,0
-63,-6,0,0,0,0,0,0,0,0,0,-1,1161,1030,0,0
-56,-6,0,0,0,0,0,0,0,0,0,-1,1168,1030,0,0
-49,-6,0,0,0,0,0,0,0,0,0,-1,1175,1030,0,0
-42,-6,0,0,0,0,0,0,0,0,0,-1,1182,1030,0,0
-35,-6,0,0,0,0,0,0,0,0,0,-1,1189,1030,0,0
-28,-6,0,0,0,0,0,0,0,0,0,-1,1196,1030,0,0
-21,-6,0,0,0,0,0,0,0,0,0,-1,1203,1030,0,0
-14,-6,0,0,0,0,0,0,0,0,0,-1,1210,1030,0,0
-7,-6,0,0,0,0,0,0,0,0,0,-1,1217,1030,0,0
0,-6,0,0,0,0,0,0,0,0,0,-1,1224,1030,0,0
7,-6,0,0,0,0,0,0,0,0,0,-1,1231,1030,0,0
14,-6,0,0,0,0,0,0,0,0,0,-1,1238,1030,0,0
21,-6,0,0,0,0,0,0,0,0,0,-1,1245,1030,0,0
28,-6,0,0,0,0,0,0,0,0,0,-1,1252,1030,0,0
35,-6,0,0,0,0,0,0,0,0,0,-1,1259,1030,0,0
42,-6,0,0,0,0,0,0,0,0,0,-1,1266,1030,0,0
49,-6,0,0,0,0,0,0,0,0,0,-1,1273,1030,0,0
56,-6,0,0,0,0,0,0,0,0,0,-1,1280,1030,0,0
63,-6,0,0,0,0,0,0,0,0,0,-1,1287,1030,0,0
70,-6,0,0,0,0,0,0,0,0,0,-1,1294,1030,0,0
77,-6,0,0,0,0,0,0,0,0,0,-1,1301,1030,0,0
84,-6,0,0,0,0,0,0,0,0,0,-1,1308,1030,0,0
91,-6,0,0,0,0,0,0,0,0,0,-1,1315,1030,0,0
98,-6,0,0,0,0,0,0,0,0,0,-1,1322,1030,0,0
105,-6,0,0,0,0,0,0,0,0,0,-1,1329,1030,0,0
112,-6,0,0,0,0,0,0,0,0,0,-1,1336,1030,0,0
119,-6,0,0,0,0,0,0,0,0,0,-1,1343,1030,0,0
126,-6,0,0,0,0,0,0,0,0,0,-1,1350,1030,0,0
133,-6,0,0,0,0,0,0,0,0,0,-1,1357,1030,0,0
140,-6,0,0,0,0,0,0,0,0,0,-1,1364,1030,0,0
147,-6,0,0,0,0,0,0,0,0,0,-1,1371,1030,0,0
154,-6,0,0,0,0,0,0,0,0,0,-1,1378,1030,0,0
161,-6,0,0,0,0,0,0,0,0,0,-1,1385,1030,0,0
168,-6,0,0,0,0,0,0,0,0,0,-1,1392,1030,0,0
175,-6,0,0,0,0,0,0,0,0,0,-1,1399,1030,0,0
182,-6,0,0,0,0,0,0,0,0,0,-1,1406,1030,0,0
189,-6,0,0,0,0,0,0,0,0,0,-1,1413,1030,0,0
196,-6,0,0,0,0,0,0,0,0,0,-1,1420,1030,0,0
203,-6,0,0,0,0,0,0,0,0,0,-1,1427,1030,0,0
210,-6,0,0,0,0,0,0,0,0,0,-1,1434,1030,0,0
217,-6,0,0,0,0,0,0,0,0,0,-1,1441,1030,0,0
224,-6,0,0,0,0,0,0,0,0,0,-1,1448,1030,0,0
231,-6,0,0,0,0,0,0,0,0,0,-1,1455,1030,0,0
238,-6,0,0,0,0,0,0,0,0,0,-1,1462,1030,0,0
245,-6,0,0,0,0,0,0,0,0,0,-1,1469,1030,0,0
252,-6,0,0,0,0,0,0,0,0,0,-1,1476,1030,0,0
259,-6,0,0,0,0,0,0,0,0,0,-1,1483,1030,0,0
266,-6,0,0,0,0,0,0,0,0,0,-1,1490,1030,0,0
273,-6,0,0,0,0,0,0,0,0,0,-1,1497,1030,0,0
280,-6,0,0,0,0,0,0,0,0,0,-1,1504,1030,0,0
287,-6,0,0,0,0,0,0,0,0,0,-1,1511,1030,0,0
294,-6,0,0,0,0,0,0,0,0,0,-1,1518,1030,0,0
301,-6,0,0,0,0,0,0,0,0,0,-1,1525,1030,0,0
308,-6,0,0,0,0,0,0,0,0,0,-1,1532,1030,0,0
315,-6,0,0,0,0,0,0,0,0,0,-1,1539,1030,0,0
322,-6,0,0,0,0,0,0,0,0,0,-1,1546,1030,0,0
329,-6,0,0,0,0,0,0,0,0,0,-1,1553,1030,0,0
336,-6,0,0,0,0,0,0,0,0,0,-1,1560,1030,0,0
343,-6,0,0,0,0,0,0,0,0,0,-1,1567,1030,0,0
350,-6,0,0,0,0,0,0,0,0,0,-1,1574,1030,0,0
357,-6,0,0,0,0,0,0,0,0,0,-1,1581,1030,0,0
364,-6,0,0,0,0,0,0,0,0,0,-1,1588,1030,0,0
371,-6,0,0,0,0,0,0,0,0,0,-1,1595,1030,0,0
378,-6,0,0,0,0,0,0,0,0,0,-1,1602,1030,0,0
385,-6,0,0,0,0,0,0,0,0,0,-1,1609,1030,0,0
392,-6,0,0,0,0,0,0,0,0,0,-1,1616,1030,0,0
399,-6,0,0,0,0,0,0,0,0,0,-1,1623,1030,0,0
406,-6,0,0,0,0,0,0,0,0,0,-1,1630,1030,0,0
413,-6,0,0,0,0,0,0,0,0,0,-1,1637,1030,0,0
420,-6,0,0,0,0,0,0,0,0,0,-1,1644,1030,0,0
427,-6,0,0,0,0,0,0,0,0,0,-1,1651,1030,0,0
434,-6,0,0,0,0,0,0,0,0,0,-1,1658,1030,0,0
441,-6,0,0,0,0,0,0,0,0,0,-1,1665,1030,0,0
448,-6,0,0,0,0,0,0,0,0,0,-1,1672,1030,0,0
455,-6,0,0,0,0,0,0,0,0,0,-1,1679,1030,0,0
462,-6,0,0,0,0,0,0,0,0,0,-1,1686,1030,0,0
469,-6,0,0,0,0,0,0,0,0,0,-1,1693,1030,0,0
476,-6,0,0,0,0,0,0,0,0,0,-1,1700,1030,0,0
483,-6,0,0,0,0,0,0,0,0,0,-1,1707,1030,0,0
490,-6,0,0,0,0,0,0,0,0,0,-1,1714,1030,0,0
497,-6,0,0,0,0,0,0,0,0,0,-1,1721,1030,0,0
504,-6,0,0,0,0,0,0,0,0,0,-1,1728,1030,0,0
511,-6,0,0,0,0,0,0,0,0,0,-1,1735,1030,0,0
518,-6,0,0,0,0,0,0,0,0,0,-1,1742,1030,0,0
525,-6,0,0,0,0,0,0,0,0,0,-1,1749,1030,0,0
532,-6,0,0,0,0,0,0,0,0,0,-1,1756,1030,0,0
539,-6,0,0,0,0,0,0,0,0,0,-1,1763,1030,0,0
546,-6,0,0,0,0,0,0,0,0,0,-1,1770,1030,0,0
553,-6,0,0,0,0,0,0,0,0,0,-1,1777,1030,0,0
560,-6,0,0,0,0,0,0,0,0,0,-1,1784,1030,0,0
567,-6,0,0,0,0,0,0,0,0,0,-1,1791,1030,0,0
574,-6,0,0,0,0,0,0,0,0,0,-1,1798,1030,0,0
581,-6,0,0,0,0,0,0,0,0,0,-1,1805,1030,0,0
588,-6,0,0,0,0,0,0,0,0,0,-1,1812,1030,0,0
595,-6,0,0,0,0,0,0,0,0,0,-1,1819,1030,0,0
602,-6,0,0,0,0,0,0,0,0,0,-1,1826,1030,0,0
609,-6,0,0,0,0,0,0,0,0,0,-1,1833,1030,0,0
616,-6,0,0,0,0,0,0,0,0,0,-1,1840,1030,0,0
623,-6,0,0,0,0,0,0,0,0,0,-1,1847,1030,0,0
630,-6,0,0,0,0,0,0,0,0,0,-1,1854,1030,0,0
637,-6,0,0,0,0,0,0,0,0,0,-1,1861,1030,0,0
644,-6,0,0,0,0,0,0,0,0,0,-1,1868,1030,0,0
651,-6,36.8866,2.6991,-0.00557084,0.00107575,-0.00172955,0.00149887,-0.00599396,-1.33087,0.00457813,0.0366505,1875,1030,36.8866,-2.69907
658,-6,36.8715,2.56128,-0.00402583,0.0011985,-0.00149265,0.00159489,-0.00442222,-1.31123,0.00359954,0.0387434,1882,1030,36.8715,-2.56128
665,-6,36.9258,2.29968,-0.00287287,0.00125865,-0.00108075,0.00152428,-0.0031385,-1.32979,0.00274531,0.043951,1889,1030,36.9257,-2.29972
672,-6,36.9059,2.28186,-0.00190747,0.0013737,-0.000317773,0.0014042,-0.00193796,-1.47513,0.00193778,0.0433145,1896,1030,36.9059,-2.28182
679,-6,36.718,2.64673,-0.00108889,0.00140988,0.000746805,0.00161606,-0.00129507,1.30142,0.00168415,0.0405407,1903,1030,36.718,-2.64672
686,-6,36.6987,2.39636,-0.000633149,0.00121887,0.00182831,0.0023423,-0.00175658,1.01981,0.00237453,0.0377006,1910,1030,36.6988,-2.39641
693,-6,36.7714,2.33667,-0.000374269,0.00093164,0.00273296,0.00308856,-0.00253119,0.902659,0.00324988,0.0350394,1917,1030,36.7714,-2.33666
700,-6,36.8195,2.45251,-0.000167996,0.000628188,0.00334129,0.00359502,-0.00313483,0.84469,0.00388851,0.0295853,1924,1030,36.8194,-2.45257
707,-6,36.7461,2.50391,-0.000133799,0.000613421,0.00376454,0.00402284,-0.00354322,0.834858,0.0043712,0.0272472,1931,1030,36.7461,-2.5039
714,-6,36.7885,2.33264,-0.00038841,0.000633353,0.00407559,0.00422995,-0.00398501,0.847749,0.00474361,0.0357061,1938,1030,36.7884,-2.33263
721,-6,36.2533,4.47058,0,0,0,0,0,0,0,-1,1945,1030,36.2533,-4.47057
728,-6,36.2804,4.83167,0,0,0,0,0,0,0,-1,1952,1030,36.2804,-4.83163
735,-6,36.3799,4.87488,-0.00198001,0.00200577,0.00349134,0.00403296,-0.0040072,1.04474,0.004642,0.0246437,1959,1030,36.3799,-4.87489
742,-6,36.4526,4.88574,-0.00293093,0.00271447,0.00276024,0.00383976,-0.00405621,1.18369,0.00455931,0.0230995,1966,1030,36.4526,-4.88569
749,-6,36.4296,4.96143,-0.0036837,0.00379203,0.00262365,0.00462091,-0.00451258,1.26479,0.00527335,0.0203947,1973,1030,36.4296,-4.96148
756,-6,36.4705,4.90759,-0.00414675,0.00525106,0.00263155,0.00593777,-0.00483345,1.31554,0.00622965,0.0171699,1980,1030,36.4704,-4.90757
763,-6,36.4094,4.85803,-0.0046091,0.00876338,0.00295447,0.00938704,-0.00523276,1.36276,0.00855358,0.0172628,1987,1030,36.4095,-4.85806
770,-6,36.3577,4.83521,-0.00488812,0.0124466,0.00385503,0.0132653,-0.00570677,1.36155,0.0112395,0.0154845,1994,1030,36.3577,-4.83523
777,-6,36.2932,4.8291,-0.00458263,0.0174947,0.00625366,0.019143,-0.00623099,1.31308,0.0152689,0.0155075,2001,1030,36.2932,-4.82907
784,-6,36.2562,4.73547,-0.00361544,0.0235701,0.0100979,0.0269104,-0.00695582,1.25133,0.0206531,0.0360267,2008,1030,36.2563,-4.73547
791,-6,36.0459,3.90771,-0.00182892,0.0313076,0.0157412,0.0375931,-0.0081144,1.19089,0.0281593,0.0448427,2015,1030,36.0458,-3.90775
798,-6,35.6963,3.32849,0,0,0,0,0,0,0,-1,2022,1030,35.6963,-3.32849
805,-6,35.3376,2.91516,0,0,0,0,0,0,0,-1,2029,1030,35.3377,-2.91512
812,-6,34.9109,2.56177,0,0,0,0,0,0,0,-1,2036,1030,34.911,-2.56176
-700,-13,0,0,0,0,0,0,0,0,0,-1,524,1037,0,0
-693,-13,-27.3147,0.809937,0.101318,0.0484536,-0.00628102,0.102054,0.0477176,-0.11665,0.0589622,0.0487587,531,1037,-27.3147,-0.809911
-686,-13,-26.735,1.05847,0.0927906,0.0460308,-0.00579773,0.0934988,0.0453227,-0.121538,0.0539899,0.0436028,538,1037,-26.7349,-1.05844
-679,-13,-26.6125,2.4801,0.0809826,0.0419908,-0.00467659,0.0815357,0.0414378,-0.117714,0.0470768,0.0470705,545,1037,-26.6125,-2.48011
-672,-13,-25.9469,2.33215,0.0680199,0.0371502,-0.00335301,0.0683799,0.0367902,-0.106956,0.0395172,0.0483063,552,1037,-25.9469,-2.33214
-665,-13,-25.3279,2.33752,0,0,0,0,0,0,0,-1,559,1037,-25.3279,-2.33754
-658,-13,-26.4576,2.42786,0.0431414,0.0268213,-0.00104073,0.0432075,0.0267552,-0.0634269,0.0251812,0.0444244,566,1037,-26.4577,-2.42786
-651,-13,-26.9037,2.06799,0.0325243,0.0218056,-0.000327295,0.0325343,0.0217956,-0.0304971,0.0191419,0.0410057,573,1037,-26.9037,-2.06802
-644,-13,-26.722,2.06738,0.0232129,0.0173445,1.12798e-05,0.0232129,0.0173445,0.00192212,0.0139372,0.0288929,580,1037,-26.7221,-2.06736
-637,-13,-26.7977,2.13513,0.0155997,0.0128222,-0.00155304,0.0162944,0.0121275,-0.420589,0.00977464,0.0219038,587,1037,-26.7977,-2.1351
-630,-13,-26.8909,2.12781,0.00991891,0.00896611,-0.00256151,0.0120479,0.00683707,-0.693456,0.00697697,0.0141052,594,1037,-26.8908,-2.12778
-623,-13,-26.8853,2.2179,0.00542418,0.00608604,-0.00408394,0.00985244,0.00165779,-0.825826,0.00609136,0.0117927,601,1037,-26.8853,-2.21795
-616,-13,-26.8685,2.28125,0.00192067,0.00348728,-0.00544757,0.00820757,-0.00279962,-0.856804,0.00660573,0.0114184,608,1037,-26.8685,-2.28129
-609,-13,-26.8438,2.34741,0.000747532,0.00212915,-0.0070209,0.00849315,-0.00561646,-0.834437,0.00820243,0.0169949,615,1037,-26.8437,-2.3474
-602,-13,-26.8563,2.40051,0.000656748,0.000970393,-0.00825579,0.00907085,-0.0074437,-0.794895,0.00955009,0.0117335,622,1037,-26.8563,-2.4005
-595,-13,-26.5089,2.5437,0,0,0,0,0,0,0,-1,629,1037,-26.5088,-2.54368
-588,-13,-26.5628,1.32373,0.000992143,-9.85375e-05,-0.00953474,0.00999712,-0.00910352,-0.756832,0.0110318,0.0278347,636,1037,-26.5628,-1.32373
-581,-13,-26.7155,0.55249,0.00138655,-0.000357746,-0.00953482,0.010089,-0.00906022,-0.73979,0.0110611,0.022018,643,1037,-26.7155,-0.552479
-574,-13,-26.7484,0.465454,0.0013963,-0.000499161,-0.00896143,0.00945998,-0.00856284,-0.732716,0.0104098,0.0318823,650,1037,-26.7483,-0.465446
-567,-13,-26.7817,0.42749,0.00124904,-0.000470793,-0.00781417,0.00825047,-0.00747222,-0.730596,0.00908121,0.0367054,657,1037,-26.7817,-0.427486
-560,-13,-26.7896,0.42981,0.00107541,-0.000382445,-0.00617157,0.00656095,-0.00586798,-0.726615,0.00717956,0.039058,664,1037,-26.7895,-0.42985
-553,-13,-26.8195,0.652466,0.000956054,-0.000370525,-0.00421462,0.00455926,-0.00397373,-0.707349,0.00493039,0.0424103,671,1037,-26.8194,-0.652425
-546,-13,-26.8364,0.759155,0.00102645,-0.000617995,-0.0022255,0.00257675,-0.0021683,-0.608448,0.00274294,0.03814,678,1037,-26.8364,-0.759098
-539,-13,-26.7368,0.537964,0.00163356,-0.00125544,-0.00120181,0.00206814,-0.00169002,-0.346973,0.00217343,0.0380858,685,1037,-26.7368,-0.537992
-532,-13,-26.7549,0.501587,0.00274182,-0.0013338,-0.00391525,0.00511783,-0.00370981,-0.54545,0.00511821,0.0391698,692,1037,-26.7549,-0.501612
-525,-13,0,0,0,0,0,0,0,0,0,-1,699,1037,0,0
-518,-13,0,0,0,0,0,0,0,0,0,-1,706,1037,0,0
-511,-13,0,0,0,0,0,0,0,0,0,-1,713,1037,0,0
-504,-13,0,0,0,0,0,0,0,0,0,-1,720,1037,0,0
-497,-13,0,0,0,0,0,0,0,0,0,-1,727,1037,0,0
-490,-13,0,0,0,0,0,0,0,0,0,-1,734,1037,0,0
-483,-13,0,0,0,0,0,0,0,0,0,-1,741,1037,0,0
-476,-13,0,0,0,0,0,0,0,0,0,-1,748,1037,0,0
-469,-13,0,0,0,0,0,0,0,0,0,-1,755,1037,0,0
-462,-13,0,0,0,0,0,0,0,0,0,-1,762,1037,0,0
-455,-13,0,0,0,0,0,0,0,0,0,-1,769,1037,0,0
-448,-13,0,0,0,0,0,0,0,0,0,-1,776,1037,0,0
-441,-13,0,0,0,0,0,0,0,0,0,-1,783,1037,0,0
-434,-13,0,0,0,0,0,0,0,0,0,-1,790,1037,0,0
-427,-13,0,0,0,0,0,0,0,0,0,-1,797,1037,0,0
-420,-13,0,0,0,0,0,0,0,0,0,-1,804,1037,0,0
-413,-13,0,0,0,0,0,0,0,0,0,-1,811,1037,0,0
-406,-13,0,0,0,0,0,0,0,0,0,-1,818,1037,0,0
-399,-13,0,0,0,0,0,0,0,0,0,-1,825,1037,0,0
-392,-13,0,0,0,0,0,0,0,0,0,-1,832,1037,0,0
-385,-13,0,0,0,0,0,0,0,0,0,-1,839,1037,0,0
-378,-13,0,0,0,0,0,0,0,0,0,-1,846,1037,0,0
-371,-13,0,0,0,0,0,0,0,0,0,-1,853,1037,0,0
-364,-13,0,0,0,0,0,0,0,0,0,-1,860,1037,0,0
-357,-13,0,0,0,0,0,0,0,0,0,-1,867,1037,0,0
-350,-13,0,0,0,0,0,0,0,0,0,-1,874,1037,0,0
-343,-13,0,0,0,0,0,0,0,0,0,-1,881,1037,0,0
-336,-13,0,0,0,0,0,0,0,0,0,-1,888,1037,0,0
-329,-13,0,0,0,0,0,0,0,0,0,-1,895,1037,0,0
-322,-13,0,0,0,0,0,0,0,0,0,-1,902,1037,0,0
-315,-13,0,0,0,0,0,0,0,0,0,-1,909,1037,0,0
-308,-13,0,0,0,0,0,0,0,0,0,-1,916,1037,0,0
-301,-13,0,0,0,0,0,0,0,0,0,-1,923,1037,0,0
-294,-13,0,0,0,0,0,0,0,0,0,-1,930,1037,0,0
-287,-13,0,0,0,0,0,0,0,0,0,-1,937,1037,0,0
-280,-13,0,0,0,0,0,0,0,0,0,-1,944,1037,0,0
-273,-13,0,0,0,0,0,0,0,0,0,-1,951,1037,0,0
-266,-13,0,0,0,0,0,0,0,0,0,-1,958,1037,0,0
-259,-13,0,0,0,0,0,0,0,0,0,-1,965,1037,0,0
-252,-13,0,0,0,0,0,0,0,0,0,-1,972,1037,0,0
-245,-13,0,0,0,0,0,0,0,0,0,-1,979,1037,0,0
-238,-13,0,0,0,0,0,0,0,0,0,-1,986,1037,0,0
-231,-13,0,0,0,0,0,0,0,0,0,-1,993,1037,0,0
-224,-13,0,0,0,0,0,0,0,0,0,-1,1000,1037,0,0
-217,-13,0,0,0,0,0,0,0,0,0,-1,1007,1037,0,0
-210,-13,0,0,0,0,0,0,0,0,0,-1,1014,1037,0,0
-203,-13,0,0,0,0,0,0,0,0,0,-1,1021,1037,0,0
-196,-13,0,0,0,0,0,0,0,0,0,-1,1028,1037,0,0
-189,-13,0,0,0,0,0,0,0,0,0,-1,1035,1037,0,0
-182,-13,0,0,0,0,0,0,0,0,0,-1,1042,1037,0,0
-175,-13,0,0,0,0,0,0,0,0,0,-1,1049,1037,0,0
-168,-13,0,0,0,0,0,0,0,0,0,-1,1056,1037,0,0
-161,-13,0,0,0,0,0,0,0,0,0,-1,1063,1037,0,0
-154,-13,0,0,0,0,0,0,0,0,0,-1,1070,1037,0,0
-147,-13,0,0,0,0,0,0,0,0,0,-1,1077,1037,0,0
-140,-13,0,0,0,0,0,0,0,0,0,-1,1084,1037,0,0
-133,-13,0,0,0,0,0,0,0,0,0,-1,1091,1037,0,0
-126,-13,0,0,0,0,0,0,0,0,0,-1,1098,1037,0,0
-119,-13,0,0,0,0,0,0,0,0,0,-1,1105,1037,0,0
-112,-13,0,0,0,0,0,0,0,0,0,-1,1112,1037,0,0
-105,-13,0,0,0,0,0,0,0,0,0,-1,1119,1037,0,0
-98,-13,0,0,0,0,0,0,0,0,0,-1,1126,1037,0,0
-91,-13,0,0,0,0,0,0,0,0,0,-1,1133,1037,0,0
-84,-13,0,0,0,0,0,0,0,0,0,-1,1140,1037,0,0
-77,-13,0,0,0,0,0,0,0,0,0,-1,1147,1037,0,0
-70,-13,0,0,0,0,0,0,0,0,0,-1,1154,1037,0,0
-63,-13,0,0,0,0,0,0,0,0,0,-1,1161,1037,0,0
-56,-13,0,0,0,0,0,0,0,0,0,-1,1168,1037,0,0
-49,-13,0,0,0,0,0,0,0,0,0,-1,1175,1037,0,0
-42,-13,0,0,0,0,0,0,0,0,0,-1,1182,1037,0,0
-35,-13,0,0,0,0,0,0,0,0,0,-1,1189,1037,0,0
-28,-13,0,0,0,0,0,0,0,0,0,-1,1196,1037,0,0
-21,-13,0,0,0,0,0,0,0,0,0,-1,1203,1037,0,0
-14,-13,0,0,0,0,0,0,0,0,0,-1,1210,1037,0,0
-7,-13,0,0,0,0,0,0,0,0,0,-1,1217,1037,0,0
0,-13,0,0,0,0,0,0,0,0,0,-1,1224,1037,0,0
7,-13,0,0,0,0,0,0,0,0,0,-1,1231,1037,0,0
14,-13,0,0,0,0,0,0,0,0,0,-1,1238,1037,0,0
21,-13,0,0,0,0,0,0,0,0,0,-1,1245,1037,0,0
28,-13,0,0,0,0,0,0,0,0,0,-1,1252,1037,0,0
35,-13,0,0,0,0,0,0,0,0,0,-1,1259,1037,0,0
42,-13,0,0,0,0,0,0,0,0,0,-1,1266,1037,0,0
49,-13,0,0,0,0,0,0,0,0,0,-1,1273,1037,0,0
56,-13,0,0,0,0,0,0,0,0,0,-1,1280,1037,0,0
63,-13,0,0,0,0,0,0,0,0,0,-1,1287,1037,0,0
70,-13,0,0,0,0,0,0,0,0,0,-1,1294,1037,0,0
77,-13,0,0,0,0,0,0,0,0,0,-1,1301,1037,0,0
84,-13,0,0,0,0,0,0,0,0,0,-1,1308,1037,0,0
91,-13,0,0,0,0,0,0,0,0,0,-1,1315,1037,0,0
98,-13,0,0,0,0,0,0,0,0,0,-1,1322,1037,0,0
105,-13,0,0,0,0,0,0,0,0,0,-1,1329,1037,0,0
112,-13,0,0,0,0,0,0,0,0,0,-1,1336,1037,0,0
119,-13,0,0,0,0,0,0,0,0,0,-1,1343,1037,0,0
126,-13,0,0,0,0,0,0,0,0,0,-1,1350,1037,0,0
133,-13,0,0,0,0,0,0,0,0,0,-1,1357,1037,0,0
140,-13,0,0,0,0,0,0,0,0,0,-1,1364,1037,0,0
147,-13,0,0,0,0,0,0,0,0,0,-1,1371,1037,0,0
154,-13,0,0,0,0,0,0,0,0,0,-1,1378,1037,0,0
161,-13,0,0,0,0,0,0,0,0,0,-1,1385,1037,0,0
168,-13,0,0,0,0,0,0,0,0,0,-1,1392,1037,0,0
175,-13,0,0,0,0,0,0,0,0,0,-1,1399,1037,0,0
182,-13,0,0,0,0,0,0,0,0,0,-1,1406,1037,0,0
189,-13,0,0,0,0,0,0,0,0,0,-1,1413,1037,0,0
196,-13,0,0,0,0,0,0,0,0,0,-1,1420,1037,0,0
203,-13,0,0,0,0,0,0,0,0,0,-1,1427,1037,0,0
210,-13,0,0,0,0,0,0,0,0,0,-1,1434,1037,0,0
217,-13,0,0,0,0,0,0,0,0,0,-1,1441,1037,0,0
224,-13,0,0,0,0,0,0,0,0,0,-1,1448,1037,0,0
231,-13,0,0,0,0,0,0,0,0,0,-1,1455,1037,0,0
238,-13,0,0,0,0,0,0,0,0,0,-1,1462,1037,0,0
245,-13,0,0,0,0,0,0,0,0,0,-1,1469,1037,0,0
252,-13,0,0,0,0,0,0,0,0,0,-1,1476,1037,0,0
259,-13,0,0,0,0,0,0,0,0,0,-1,1483,1037,0,0
266,-13,0,0,0,0,0,0,0,0,0,-1,1490,1037,0,0
273,-13,0,0,0,0,0,0,0,0,0,-1,1497,1037,0,0
280,-13,0,0,0,0,0,0,0,0,0,-1,1504,1037,0,0
287,-13,0,0,0,0,0,0,0,0,0,-1,1511,1037,0,0
294,-13,0,0,0,0,0,0,0,0,0,-1,1518,1037,0,0
301,-13,0,0,0,0,0,0,0,0,0,-1,1525,1037,0,0
308,-13,0,0,0,0,0,0,0,0,0,-1,1532,1037,0,0
315,-13,0,0,0,0,0,0,0,0,0,-1,1539,1037,0,0
322,-13,0,0,0,0,0,0,0,0,0,-1,1546,1037,0,0
329,-13,0,0,0,0,0,0,0,0,0,-1,1553,1037,0,0
336,-13,0,0,0,0,0,0,0,0,0,-1,1560,1037,0,0
343,-13,0,0,0,0,0,0,0,0,0,-1,1567,1037,0,0
350,-13,0,0,0,0,0,0,0,0,0,-1,1574,1037,0,0
357,-13,0,0,0,0,0,0,0,0,0,-1,1581,1037,0,0
364,-13,0,0,0,0,0,0,0,0,0,-1,1588,1037,0,0
371,-13,0,0,0,0,0,0,0,0,0,-1,1595,1037,0,0
378,-13,0,0,0,0,0,0,0,0,0,-1,1602,1037,0,0
385,-13,0,0,0,0,0,0,0,0,0,-1,1609,1037,0,0
392,-13,0,0,0,0,0,0,0,0,0,-1,1616,1037,0,0
399,-13,0,0,0,0,0,0,0,0,0,-1,1623,1037,0,0
406,-13,0,0,0,0,0,0,0,0,0,-1,1630,1037,0,0
413,-13,0,0,0,0,0,0,0,0,0,-1,1637,1037,0,0
420,-13,0,0,0,0,0,0,0,0,0,-1,1644,1037,0,0
427,-13,0,0,0,0,0,0,0,0,0,-1,1651,1037,0,0
434,-13,0,0,0,0,0,0,0,0,0,-1,1658,1037,0,0
441,-13,0,0,0,0,0,0,0,0,0,-1,1665,1037,0,0
448,-13,0,0,0,0,0,0,0,0,0,-1,1672,1037,0,0
455,-13,0,0,0,0,0,0,0,0,0,-1,1679,1037,0,0
462,-13,0,0,0,0,0,0,0,0,0,-1,1686,1037,0,0
469,-13,0,0,0,0,0,0,0,0,0,-1,1693,1037,0,0
476,-13,0,0,0,0,0,0,0,0,0,-1,1700,1037,0,0
483,-13,0,0,0,0,0,0,0,0,0,-1,1707,1037,0,0
490,-13,0,0,0,0,0,0,0,0,0,-1,1714,1037,0,0
497,-13,0,0,0,0,0,0,0,0,0,-1,1721,1037,0,0
504,-13,0,0,0,0,0,0,0,0,0,-1,1728,1037,0,0
511,-13,0,0,0,0,0,0,0,0,0,-1,1735,1037,0,0
518,-13,0,0,0,0,0,0,0,0,0,-1,1742,1037,0,0
525,-13,0,0,0,0,0,0,0,0,0,-1,1749,1037,0,0
532,-13,0,0,0,0,0,0,0,0,0,-1,1756,1037,0,0
539,-13,0,0,0,0,0,0,0,0,0,-1,1763,1037,0,0
546,-13,0,0,0,0,0,0,0,0,0,-1,1770,1037,0,0
553,-13,0,0,0,0,0,0,0,0,0,-1,1777,1037,0,0
560,-13,0,0,0,0,0,0,0,0,0,-1,1784,1037,0,0
567,-13,0,0,0,0,0,0,0,0,0,-1,1791,1037,0,0
574,-13,0,0,0,0,0,0,0,0,0,-1,1798,1037,0,0
581,-13,0,0,0,0,0,0,0,0,0,-1,1805,1037,0,0
588,-13,0,0,0,0,0,0,0,0,0,-1,1812,1037,0,0
595,-13,0,0,0,0,0,0,0,0,0,-1,1819,1037,0,0
602,-13,0,0,0,0,0,0,0,0,0,-1,1826,1037,0,0
609,-13,0,0,0,0,0,0,0,0,0,-1,1833,1037,0,0
616,-13,0,0,0,0,0,0,0,0,0,-1,1840,1037,0,0
623,-13,0,0,0,0,0,0,0,0,0,-1,1847,1037,0,0
630,-13,0,0,0,0,0,0,0,0,0,-1,1854,1037,0,0
637,-13,0,0,0,0,0,0,0,0,0,-1,1861,1037,0,0
644,-13,0,0,0,0,0,0,0,0,0,-1,1868,1037,0,0
651,-13,36.9019,2.80054,0,0,0,0,0,0,0,-1,1875,1037,36.9018,-2.80048
658,-13,36.8884,2.45667,-0.00471814,0.00171642,-0.00191629,0.00224388,-0.00524559,-1.3022,0.0044383,0.0435942,1882,1037,36.8884,-2.45669
665,-13,36.9463,2.29907,-0.00340725,0.00158663,-0.00136463,0.0019352,-0.00375582,-1.32071,0.00334129,0.0423162,1889,1037,36.9462,-2.29907
672,-13,36.8575,2.40479,-0.00230316,0.00150068,-0.000459957,0.00155551,-0.00235799,-1.45216,0.00227524,0.0343932,1896,1037,36.8576,-2.40479
679,-13,36.7047,2.54004,-0.00132711,0.00133098,0.000738208,0.00152224,-0.00151837,1.31729,0.00175549,0.0356058,1903,1037,36.7047,-2.54002
686,-13,36.6281,2.44788,-0.000769455,0.000977262,0.00191301,0.00220685,-0.00199904,0.999536,0.00242926,0.0390851,1910,1037,36.6281,-2.44792
693,-13,36.7134,2.16748,-0.000447054,0.000570724,0.00288753,0.00299387,-0.0028702,0.872621,0.00338587,0.0385346,1917,1037,36.7133,-2.16746
700,-13,36.7979,2.30701,-0.000215212,0.000202547,0.00355911,0.0035589,-0.00357156,0.814709,0.00411678,0.0356013,1924,1037,36.7978,-2.30703
707,-13,36.7838,2.48364,-0.000155309,0.0001254,0.00401523,0.00400273,-0.00403264,0.802869,0.00463923,0.0305481,1931,1037,36.7838,-2.48363
714,-13,36.7662,2.59839,-0.000367457,0.000118438,0.00433264,0.00421494,-0.00446396,0.813406,0.00501145,0.0315198,1938,1037,36.7663,-2.59836
721,-13,36.4976,3.74597,0,0,0,0,0,0,0,-1,1945,1037,36.4976,-3.74593
728,-13,35.9843,5.01978,0,0,0,0,0,0,0,-1,1952,1037,35.9842,-5.01983
735,-13,36.4512,4.95422,-0.00191848,0.00148573,0.00369346,0.00385042,-0.00428317,1.00132,0.00469815,0.0224757,1959,1037,36.4512,-4.95424
742,-13,36.4225,4.93347,-0.00279249,0.00215474,0.00296875,0.00354535,-0.0041831,1.13273,0.00446709,0.0145805,1966,1037,36.4225,-4.93343
749,-13,36.4363,4.90247,-0.0035091,0.00319926,0.00266709,0.00413039,-0.00444022,1.23491,0.00494932,0.0201644,1973,1037,36.4363,-4.90241
756,-13,36.4211,4.85339,-0.0039851,0.00456377,0.00236882,0.00517627,-0.00459759,1.31777,0.00564624,0.0154866,1980,1037,36.4212,-4.85343
763,-13,36.4182,4.82214,-0.00444954,0.00770082,0.00226457,0.00810917,-0.00485788,1.39239,0.00756457,0.021094,1987,1037,36.4182,-4.82215
770,-13,36.3751,4.80115,-0.00476545,0.0110143,0.0025868,0.0114276,-0.00517869,1.41239,0.00981127,0.0186252,1994,1037,36.3751,-4.80112
777,-13,36.2767,4.73132,-0.00454783,0.0154866,0.00417566,0.016322,-0.0053833,1.37332,0.0130513,0.0130646,2001,1037,36.2767,-4.73136
784,-13,36.3062,4.60083,-0.00372508,0.0208368,0.00701295,0.0226981,-0.00558638,1.31137,0.0172975,0.0278346,2008,1037,36.3062,-4.6008
791,-13,36.4395,4.36218,-0.00218696,0.0277123,0.0114104,0.0315693,-0.00604397,1.24483,0.0233234,0.0459521,2015,1037,36.4394,-4.36215
798,-13,36.5552,4.14453,0,0,0,0,0,0,0,-1,2022,1037,36.5553,-4.14451
805,-13,34.9797,2.8689,0,0,0,0,0,0,0,-1,2029,1037,34.9799,-2.86893
812,-13,34.5591,2.40369,0,0,0,0,0,0,0,-1,2036,1037,34.559,-2.40372
-700,-20,-28.5628,0.286865,0,0,0,0,0,0,0,-1,524,1044,-28.5628,-0.286807
-693,-20,-27.7286,0.699585,0.0868443,0.0430514,-0.0079765,0.0882519,0.0416438,-0.174671,0.0509791,0.045991,531,1044,-27.7286,-0.699562
-686,-20,-26.8156,1.1499,0.0792728,0.0424826,-0.0058448,0.0801791,0.0415764,-0.153824,0.046302,0.0463607,538,1044,-26.8155,-1.14991
-679,-20,-25.8885,1.57898,0.0691418,0.0398026,-0.00378679,0.0696227,0.0393217,-0.126312,0.040309,0.0471225,545,1044,-25.8885,-1.57893
-672,-20,-25.191,2.2395,0.0581106,0.035878,-0.00200032,0.0582892,0.0356994,-0.0890192,0.0339358,0.0486969,552,1044,-25.191,-2.23948
-665,-20,-24.517,2.26404,0,0,0,0,0,0,0,-1,559,1044,-24.517,-2.2641
-658,-20,-26.9888,1.31531,0.0369252,0.0264307,0.000387547,0.0369395,0.0264164,0.0368617,0.0219752,0.0459858,566,1044,-26.9888,-1.31534
-651,-20,-26.6959,1.6853,0.0278539,0.0215659,0.000915955,0.0279846,0.0214352,0.141744,0.0169017,0.0401323,573,1044,-26.6959,-1.68525
-644,-20,-26.6486,1.8396,0.0198426,0.0172362,0.0010723,0.020227,0.0168517,0.344249,0.0125123,0.0263679,580,1044,-26.6486,-1.83961
-637,-20,-26.7169,1.94421,0.0132545,0.0127331,-0.000669604,0.0137124,0.0122753,-0.599777,0.00870219,0.0174691,587,1044,-26.7169,-1.94423
-630,-20,-26.7683,2.11096,0.00838868,0.00894816,-0.0018877,0.0105767,0.0067601,-0.858959,0.0061848,0.0148792,594,1044,-26.7683,-2.11101
-623,-20,-26.7846,2.20435,0.00442761,0.00595195,-0.00362797,0.00889695,0.00148261,-0.888934,0.00550406,0.0139864,601,1044,-26.7846,-2.20434
-616,-20,-26.778,2.27087,0.00149494,0.00320182,-0.00528878,0.00770558,-0.00300882,-0.865393,0.006381,0.0134166,608,1044,-26.7779,-2.27084
-609,-20,-26.7798,2.33459,0.000608766,0.00188121,-0.00693051,0.00820464,-0.00571467,-0.83117,0.00807906,0.0145667,615,1044,-26.7798,-2.33456
-602,-20,-26.772,2.41345,0.000407428,0.00083184,-0.00812855,0.00875096,-0.00751169,-0.798448,0.00939833,0.0117514,622,1044,-26.772,-2.41348
-595,-20,-26.7517,2.40918,0,0,0,0,0,0,0,-1,629,1044,-26.7517,-2.40917
-588,-20,-26.6698,0.729858,0,0,0,0,0,0,0,-1,636,1044,-26.6698,-0.729867
-581,-20,-26.7292,0.500244,0.00113474,-0.000301539,-0.00928318,0.00972751,-0.00889431,-0.746795,0.0107549,0.0295663,643,1044,-26.7292,-0.500228
-574,-20,-26.8376,0.569336,0.00125814,-0.000371791,-0.00873544,0.00921655,-0.0083302,-0.738886,0.0101349,0.0373632,650,1044,-26.8377,-0.569345
-567,-20,-26.9503,0.577759,0.00128989,-0.000268676,-0.00762314,0.00817348,-0.00715226,-0.734462,0.00885487,0.0426446,657,1044,-26.9502,-0.577782
-560,-20,-27.009,0.524292,0.00136344,-7.15498e-05,-0.00600547,0.00669413,-0.00540224,-0.725943,0.0069971,0.0428069,664,1044,-27.009,-0.524327
-553,-20,-26.8968,0.886353,0.00157053,9.19397e-05,-0.00405134,0.00494948,-0.00328701,-0.69515,0.00478752,0.0441031,671,1044,-26.8968,-0.886309
-546,-20,-26.8346,1.07788,0.00204444,4.69309e-05,-0.00204169,0.00331857,-0.0012272,-0.557921,0.00271551,0.0421651,678,1044,-26.8346,-1.07787
-539,-20,-26.7192,0.816772,0.00302979,-0.000293811,-0.00100328,0.00330916,-0.000573184,-0.271579,0.0024199,0.0404694,685,1044,-26.7192,-0.816813
-532,-20,-26.741,0.547485,0.00452199,-8.36372e-05,-0.0039043,0.00675201,-0.00231365,-0.51895,0.00543913,0.0379217,692,1044,-26.741,-0.547509
-525,-20,0,0,0,0,0,0,0,0,0,-1,699,1044,0,0
-518,-20,0,0,0,0,0,0,0,0,0,-1,706,1044,0,0
-511,-20,0,0,0,0,0,0,0,0,0,-1,713,1044,0,0
-504,-20,0,0,0,0,0,0,0,0,0,-1,720,1044,0,0
-497,-20,0,0,0,0,0,0,0,0,0,-1,727,1044,0,0
-490,-20,0,0,0,0,0,0,0,0,0,-1,734,1044,0,0
-483,-20,0,0,0,0,0,0,0,0,0,-1,741,1044,0,0
-476,-20,0,0,0,0,0,0,0,0,0,-1,748,1044,0,0
-469,-20,0,0,0,0,0,0,0,0,0,-1,755,1044,0,0
-462,-20,0,0,0,0,0,0,0,0,0,-1,762,1044,0,0
-455,-20,0,0,0,0,0,0,0,0,0,-1,769,1044,0,0
-448,-20,0,0,0,0,0,0,0,0,0,-1,776,1044,0,0
-441,-20,0,0,0,0,0,0,0,0,0,-1,783,1044,0,0
-434,-20,0,0,0,0,0,0,0,0,0,-1,790,1044,0,0
-427,-20,0,0,0,0,0,0,0,0,0,-1,797,1044,0,0
-420,-20,0,0,0,0,0,0,0,0,0,-1,804,1044,0,0
-413,-20,0,0,0,0,0,0,0,0,0,-1,811,1044,0,0
-406,-20,0,0,0,0,0,0,0,0,0,-1,818,1044,0,0
-399,-20,0,0,0,0,0,0,0,0,0,-1,825,1044,0,0
-392,-20,0,0,0,0,0,0,0,0,0,-1,832,1044,0,0
-385,-20,0,0,0,0,0,0,0,0,0,-1,839,1044,0,0
-378,-20,0,0,0,0,0,0,0,0,0,-1,846,1044,0,0
-371,-20,0,0,0,0,0,0,0,0,0,-1,853,1044,0,0
-364,-20,0,0,0,0,0,0,0,0,0,-1,860,1044,0,0
-357,-20,0,0,0,0,0,0,0,0,0,-1,867,1044,0,0
-350,-20,0,0,0,0,0,0,0,0,0,-1,874,1044,0,0
-343,-20,0,0,0,0,0,0,0,0,0,-1,881,1044,0,0
-336,-20,0,0,0,0,0,0,0,0,0,-1,888,1044,0,0
-329,-20,0,0,0,0,0,0,0,0,0,-1,895,1044,0,0
-322,-20,0,0,0,0,0,0,0,0,0,-1,902,1044,0,0
-315,-20,0,0,0,0,0,0,0,0,0,-1,909,1044,0,0
-308,-20,0,0,0,0,0,0,0,0,0,-1,916,1044,0,0
-301,-20,0,0,0,0,0,0,0,0,0,-1,923,1044,0,0
-294,-20,0,0,0,0,0,0,0,0,0,-1,930,1044,0,0
-287,-20,0,0,0,0,0,0,0,0,0,-1,937,1044,0,0
-280,-20,0,0,0,0,0,0,0,0,0,-1,944,1044,0,0
-273,-20,0,0,0,0,0,0,0,0,0,-1,951,1044,0,0
-266,-20,0,0,0,0,0,0,0,0,0,-1,958,1044,0,0
-259,-20,0,0,0,0,0,0,0,0,0,-1,965,1044,0,0
-252,-20,0,0,0,0,0,0,0,0,0,-1,972,1044,0,0
-245,-20,0,0,0,0,0,0,0,0,0,-1,979,1044,0,0
-238,-20,0,0,0,0,0,0,0,0,0,-1,986,1044,0,0
-231,-20,0,0,0,0,0,0,0,0,0,-1,993,1044,0,0
-224,-20,0,0,0,0,0,0,0,0,0,-1,1000,1044,0,0
-217,-20,0,0,0,0,0,0,0,0,0,-1,1007,1044,0,0
-210,-20,0,0,0,0,0,0,0,0,0,-1,1014,1044,0,0
-203,-20,0,0,0,0,0,0,0,0,0,-1,1021,1044,0,0
-196,-20,0,0,0,0,0,0,0,0,0,-1,1028,1044,0,0
-189,-20,0,0,0,0,0,0,0,0,0,-1,1035,1044,0,0
-182,-20,0,0,0,0,0,0,0,0,0,-1,1042,1044,0,0
-175,-20,0,0,0,0,0,0,0,0,0,-1,1049,1044,0,0
-168,-20,0,0,0,0,0,0,0,0,0,-1,1056,1044,0,0
-161,-20,0,0,0,0,0,0,0,0,0,-1,1063,1044,0,0
-154,-20,0,0,0,0,0,0,0,0,0,-1,1070,1044,0,0
-147,-20,0,0,0,0,0,0,0,0,0,-1,1077,1044,0,0
-140,-20,0,0,0,0,0,0,0,0,0,-1,1084,1044,0,0
-133,-20,0,0,0,0,0,0,0,0,0,-1,1091,1044,0,0
-126,-20,0,0,0,0,0,0,0,0,0,-1,1098,1044,0,0
-119,-20,0,0,0,0,0,0,0,0,0,-1,1105,1044,0,0
-112,-20,0,0,0,0,0,0,0,0,0,-1,1112,1044,0,0
-105,-20,0,0,0,0,0,0,0,0,0,-1,1119,1044,0,0
-98,-20,0,0,0,0,0,0,0,0,0,-1,1126,1044,0,0
-91,-20,0,0,0,0,0,0,0,0,0,-1,1133,1044,0,0
-84,-20,0,0,0,0,0,0,0,0,0,-1,1140,1044,0,0
-77,-20,0,0,0,0,0,0,0,0,0,-1,1147,1044,0,0
-70,-20,0,0,0,0,0,0,0,0,0,-1,1154,1044,0,0
-63,-20,0,0,0,0,0,0,0,0,0,-1,1161,1044,0,0
-56,-20,0,0,0,0,0,0,0,0,0,-1,1168,1044,0,0
-49,-20,0,0,0,0,0,0,0,0,0,-1,1175,1044,0,0
-42,-20,0,0,0,0,0,0,0,0,0,-1,1182,1044,0,0
-35,-20,0,0,0,0,0,0,0,0,0,-1,1189,1044,0,0
-28,-20,0,0,0,0,0,0,0,0,0,-1,1196,1044,0,0
-21,-20,0,0,0,0,0,0,0,0,0,-1,1203,1044,0,0
-14,-20,0,0,0,0,0,0,0,0,0,-1,1210,1044,0,0
-7,-20,0,0,0,0,0,0,0,0,0,-1,1217,1044,0,0
0,-20,0,0,0,0,0,0,0,0,0,-1,1224,1044,0,0
7,-20,0,0,0,0,0,0,0,0,0,-1,1231,1044,0,0
14,-20,0,0,0,0,0,0,0,0,0,-1,1238,1044,0,0
21,-20,0,0,0,0,0,0,0,0,0,-1,1245,1044,0,0
28,-20,0,0,0,0,0,0,0,0,0,-1,1252,1044,0,0
35,-20,0,0,0,0,0,0,0,0,0,-1,1259,1044,0,0
42,-20,0,0,0,0,0,0,0,0,0,-1,1266,1044,0,0
49,-20,0,0,0,0,0,0,0,0,0,-1,1273,1044,0,0
56,-20,0,0,0,0,0,0,0,0,0,-1,1280,1044,0,0
63,-20,0,0,0,0,0,0,0,0,0,-1,1287,1044,0,0
70,-20,0,0,0,0,0,0,0,0,0,-1,1294,1044,0,0
77,-20,0,0,0,0,0,0,0,0,0,-1,1301,1044,0,0
84,-20,0,0,0,0,0,0,0,0,0,-1,1308,1044,0,0
91,-20,0,0,0,0,0,0,0,0,0,-1,1315,1044,0,0
98,-20,0,0,0,0,0,0,0,0,0,-1,1322,1044,0,0
105,-20,0,0,0,0,0,0,0,0,0,-1,1329,1044,0,0
112,-20,0,0,0,0,0,0,0,0,0,-1,1336,1044,0,0
119,-20,0,0,0,0,0,0,0,0,0,-1,1343,1044,0,0
126,-20,0,0,0,0,0,0,0,0,0,-1,1350,1044,0,0
133,-20,0,0,0,0,0,0,0,0,0,-1,1357,1044,0,0
140,-20,0,0,0,0,0,0,0,0,0,-1,1364,1044,0,0
147,-20,0,0,0,0,0,0,0,0,0,-1,1371,1044,0,0
154,-20,0,0,0,0,0,0,0,0,0,-1,1378,1044,0,0
161,-20,0,0,0,0,0,0,0,0,0,-1,1385,1044,0,0
168,-20,0,0,0,0,0,0,0,0,0,-1,1392,1044,0,0
175,-20,0,0,0,0,0,0,0,0,0,-1,1399,1044,0,0
182,-20,0,0,0,0,0,0,0,0,0,-1,1406,1044,0,0
189,-20,0,0,0,0,0,0,0,0,0,-1,1413,1044,0,0
196,-20,0,0,0,0,0,0,0,0,0,-1,1420,1044,0,0
203,-20,0,0,0,0,0,0,0,0,0,-1,1427,1044,0,0
210,-20,0,0,0,0,0,0,0,0,0,-1,1434,1044,0,0
217,-20,0,0,0,0,0,0,0,0,0,-1,1441,1044,0,0
224,-20,0,0,0,0,0,0,0,0,0,-1,1448,1044,0,0
231,-20,0,0,0,0,0,0,0,0,0,-1,1455,1044,0,0
238,-20,0,0,0,0,0,0,0,0,0,-1,1462,1044,0,0
245,-20,0,0,0,0,0,0,0,0,0,-1,1469,1044,0,0
252,-20,0,0,0,0,0,0,0,0,0,-1,1476,1044,0,0
259,-20,0,0,0,0,0,0,0,0,0,-1,1483,1044,0,0
266,-20,0,0,0,0,0,0,0,0,0,-1,1490,1044,0,0
273,-20,0,0,0,0,0,0,0,0,0,-1,1497,1044,0,0
280,-20,0,0,0,0,0,0,0,0,0,-1,1504,1044,0,0
287,-20,0,0,0,0,0,0,0,0,0,-1,1511,1044,0,0
294,-20,0,0,0,0,0,0,0,0,0,-1,1518,1044,0,0
301,-20,0,0,0,0,0,0,0,0,0,-1,1525,1044,0,0
308,-20,0,0,0,0,0,0,0,0,0,-1,1532,1044,0,0
315,-20,0,0,0,0,0,0,0,0,0,-1,1539,1044,0,0
322,-20,0,0,0,0,0,0,0,0,0,-1,1546,1044,0,0
329,-20,0,0,0,0,0,0,0,0,0,-1,1553,1044,0,0
336,-20,0,0,0,0,0,0,0,0,0,-1,1560,1044,0,0
343,-20,0,0,0,0,0,0,0,0,0,-1,1567,1044,0,0
350,-20,0,0,0,0,0,0,0,0,0,-1,1574,1044,0,0
357,-20,0,0,0,0,0,0,0,0,0,-1,1581,1044,0,0
364,-20,0,0,0,0,0,0,0,0,0,-1,1588,1044,0,0
371,-20,0,0,0,0,0,0,0,0,0,-1,1595,1044,0,0
378,-20,0,0,0,0,0,0,0,0,0,-1,1602,1044,0,0
385,-20,0,0,0,0,0,0,0,0,0,-1,1609,1044,0,0
392,-20,0,0,0,0,0,0,0,0,0,-1,1616,1044,0,0
399,-20,0,0,0,0,0,0,0,0,0,-1,1623,1044,0,0
406,-20,0,0,0,0,0,0,0,0,0,-1,1630,1044,0,0
413,-20,0,0,0,0,0,0,0,0,0,-1,1637,1044,0,0
420,-20,0,0,0,0,0,0,0,0,0,-1,1644,1044,0,0
427,-20,0,0,0,0,0,0,0,0,0,-1,1651,1044,0,0
434,-20,0,0,0,0,0,0,0,0,0,-1,1658,1044,0,0
441,-20,0,0,0,0,0,0,0,0,0,-1,1665,1044,0,0
448,-20,0,0,0,0,0,0,0,0,0,-1,1672,1044,0,0
455,-20,0,0,0,0,0,0,0,0,0,-1,1679,1044,0,0
462,-20,0,0,0,0,0,0,0,0,0,-1,1686,1044,0,0
469,-20,0,0,0,0,0,0,0,0,0,-1,1693,1044,0,0
476,-20,0,0,0,0,0,0,0,0,0,-1,1700,1044,0,0
483,-20,0,0,0,0,0,0,0,0,0,-1,1707,1044,0,0
490,-20,0,0,0,0,0,0,0,0,0,-1,1714,1044,0,0
497,-20,0,0,0,0,0,0,0,0,0,-1,1721,1044,0,0
504,-20,0,0,0,0,0,0,0,0,0,-1,1728,1044,0,0
511,-20,0,0,0,0,0,0,0,0,0,-1,1735,1044,0,0
518,-20,0,0,0,0,0,0,0,0,0,-1,1742,1044,0,0
525,-20,0,0,0,0,0,0,0,0,0,-1,1749,1044,0,0
532,-20,0,0,0,0,0,0,0,0,0,-1,1756,1044,0,0
539,-20,0,0,0,0,0,0,0,0,0,-1,1763,1044,0,0
546,-20,0,0,0,0,0,0,0,0,0,-1,1770,1044,0,0
553,-20,0,0,0,0,0,0,0,0,0,-1,1777,1044,0,0
560,-20,0,0,0,0,0,0,0,0,0,-1,1784,1044,0,0
567,-20,0,0,0,0,0,0,0,0,0,-1,1791,1044,0,0
574,-20,0,0,0,0,0,0,0,0,0,-1,1798,1044,0,0
581,-20,0,0,0,0,0,0,0,0,0,-1,1805,1044,0,0
588,-20,0,0,0,0,0,0,0,0,0,-1,1812,1044,0,0
595,-20,0,0,0,0,0,0,0,0,0,-1,1819,1044,0,0
602,-20,0,0,0,0,0,0,0,0,0,-1,1826,1044,0,0
609,-20,0,0,0,0,0,0,0,0,0,-1,1833,1044,0,0
616,-20,0,0,0,0,0,0,0,0,0,-1,1840,1044,0,0
623,-20,0,0,0,0,0,0,0,0,0,-1,1847,1044,0,0
630,-20,0,0,0,0,0,0,0,0,0,-1,1854,1044,0,0
637,-20,0,0,0,0,0,0,0,0,0,-1,1861,1044,0,0
644,-20,0,0,0,0,0,0,0,0,0,-1,1868,1044,0,0
651,-20,36.938,2.71533,-0.00701505,0.00225955,-0.00255809,0.00291832,-0.00767382,-1.31875,0.00631748,0.0427183,1875,1044,36.938,-2.71537
658,-20,36.8793,2.45093,-0.0051295,0.00201836,-0.0020453,0.00256223,-0.00567337,-1.3109,0.0048666,0.0450653,1882,1044,36.8792,-2.45098
665,-20,36.8409,2.41858,-0.00370094,0.00180494,-0.00145535,0.00216596,-0.00406195,-1.32764,0.0036508,0.0388061,1889,1044,36.8409,-2.41862
672,-20,36.8113,2.43604,-0.00248674,0.00159695,-0.000498568,0.00165694,-0.00254673,-1.45105,0.00244504,0.0229331,1896,1044,36.8112,-2.436
679,-20,36.7306,2.45374,-0.00137864,0.00127412,0.000756575,0.00147473,-0.00157925,1.31161,0.00176356,0.0265336,1903,1044,36.7306,-2.45369
686,-20,36.7791,2.3645,-0.000739141,0.000783294,0.00197161,0.00213553,-0.00209138,0.969627,0.00244045,0.0384878,1910,1044,36.7791,-2.36446
693,-20,36.8096,2.18054,-0.00038225,0.0002684,0.00297733,0.00293812,-0.00305197,0.839816,0.00345859,0.042895,1917,1044,36.8096,-2.18049
700,-20,36.7802,2.29736,-0.000149084,-0.000163349,0.00368703,0.00353082,-0.00384326,0.784431,0.0042587,0.0373343,1924,1044,36.7801,-2.29742
707,-20,36.7904,2.44263,-8.72188e-05,-0.000300683,0.00416155,0.00396897,-0.00435687,0.772577,0.00480866,0.0309176,1931,1044,36.7904,-2.44264
714,-20,36.7727,2.61243,-0.000278539,-0.000333272,0.0044805,0.00417468,-0.00478649,0.782344,0.00517775,0.0266795,1938,1044,36.7727,-2.61242
721,-20,36.7316,2.73669,0,0,0,0,0,0,0,-1,1945,1044,36.7315,-2.73666
728,-20,36.73,4.9408,0,0,0,0,0,0,0,-1,1952,1044,36.73,-4.94081
735,-20,36.4979,4.95544,-0.00182384,0.000959971,0.00384047,0.00365299,-0.00451686,0.959251,0.00472564,0.023191,1959,1044,36.4979,-4.95548
742,-20,36.3475,4.9165,-0.00265255,0.00159356,0.00314007,0.00326094,-0.00431993,1.08266,0.00439103,0.0187502,1966,1044,36.3475,-4.91654
749,-20,36.3807,4.8949,-0.00341531,0.00257604,0.00269529,0.00361008,-0.00444936,1.20446,0.00466152,0.0200297,1973,1044,36.3808,-4.89496
756,-20,36.3729,4.84888,-0.00396614,0.00385048,0.00211436,0.00438575,-0.00450141,1.32285,0.00513115,0.0152067,1980,1044,36.3729,-4.84887
763,-20,36.3334,4.81116,-0.00453435,0.00655371,0.00159086,0.00677745,-0.00475809,1.43108,0.00669398,0.0216314,1987,1044,36.3334,-4.8111
770,-20,36.2878,4.83606,-0.00505123,0.00942355,0.00130471,0.00954021,-0.00516789,1.48162,0.00861589,0.0189685,1994,1044,36.2878,-4.83606
777,-20,36.213,4.71252,-0.0051807,0.0131827,0.0019883,0.0133955,-0.00539352,1.46417,0.0111709,0.0134348,2001,1044,36.213,-4.7125
784,-20,36.2474,4.63428,-0.0048694,0.0175895,0.00364539,0.0181664,-0.00544627,1.41385,0.0142769,0.0184048,2008,1044,36.2474,-4.63424
791,-20,36.4519,4.59583,-0.00410846,0.0232436,0.00652094,0.0247187,-0.00558355,1.34833,0.0186214,0.0371737,2015,1044,36.4518,-4.5958
798,-20,36.7319,4.62598,-0.00244663,0.0309211,0.0109547,0.0341961,-0.00572162,1.2803,0.0249245,0.0449191,2022,1044,36.732,-4.626
805,-20,36.9172,4.67859,0,0,0,0,0,0,0,-1,2029,1044,36.9171,-4.67862
812,-20,36.9402,5.41833,0,0,0,0,0,0,0,-1,2036,1044,36.9403,-5.41831
-700,-27,-27.7625,0.0751953,0,0,0,0,0,0,0,-1,524,1051,-27.7625,-0.0752275
-693,-27,-29.5016,-2.51831,0,0,0,0,0,0,0,-1,531,1051,-29.5016,2.51837
-686,-27,-29.8425,-1.3573,0,0,0,0,0,0,0,-1,538,1051,-29.8425,1.35729
-679,-27,-25.8277,2.00085,0.0581346,0.0357608,-0.00242423,0.0583943,0.0355011,-0.106701,0.0339749,0.0456822,545,1051,-25.8277,-2.00087
-672,-27,-24.4858,2.06897,0.0490232,0.0330094,-0.00048665,0.0490379,0.0329946,-0.0303522,0.0288704,0.0473513,552,1051,-24.4858,-2.06895
-665,-27,-27.2609,0.532593,0.0399055,0.0292658,0.000877038,0.0399773,0.029194,0.0816961,0.0238828,0.0448047,559,1051,-27.2609,-0.532602
-658,-27,-26.9968,1.09888,0.0313207,0.024993,0.00170059,0.0317487,0.0245649,0.246601,0.019224,0.0454046,566,1051,-26.9968,-1.09884
-651,-27,-26.4619,1.73926,0.0236761,0.0205302,0.00200714,0.0246532,0.0195531,0.453046,0.0150268,0.0375194,573,1051,-26.4619,-1.73921
-644,-27,-26.55,1.78198,0.0168606,0.01655,0.00195779,0.0186692,0.0147414,0.745824,0.0113654,0.0184224,580,1051,-26.55,-1.78202
-637,-27,-26.6289,1.86572,0.0111935,0.0122408,6.18034e-05,0.0122444,0.0111898,1.51206,0.00783512,0.0145946,587,1051,-26.6289,-1.86577
-630,-27,-26.6587,2.08044,0.00705131,0.00862544,-0.00136163,0.00941111,0.00626563,-1.04745,0.00553215,0.0188887,594,1051,-26.6587,-2.0804
-623,-27,-26.6537,2.19116,0.00358501,0.00564922,-0.00326539,0.00804174,0.0011925,-0.938467,0.00501118,0.0165144,601,1051,-26.6537,-2.19116
-616,-27,-26.6464,2.28699,0.00112844,0.00296166,-0.00513377,0.00726001,-0.0031699,-0.87374,0.00617412,0.0146718,608,1051,-26.6464,-2.28693
-609,-27,-26.6545,2.39148,0.000430442,0.00171949,-0.00675428,0.00785993,-0.00571,-0.832966,0.00786731,0.0140739,615,1051,-26.6545,-2.39144
-602,-27,-26.6342,2.51221,0.000143001,0.000835617,-0.00790583,0.00840272,-0.0074241,-0.807286,0.00914344,0.0111202,622,1051,-26.6342,-2.51224
-595,-27,-26.6876,3.01257,0,0,0,0,0,0,0,-1,629,1051,-26.6876,-3.01258
-588,-27,-26.7272,1.61914,0.000346059,0.000160577,-0.00899986,0.00925366,-0.00874702,-0.780246,0.0103941,0.0213782,636,1051,-26.7272,-1.61911
-581,-27,-26.6912,0.578125,0.000847163,1.7398e-05,-0.00898395,0.00942581,-0.00856125,-0.762324,0.0103888,0.0247618,643,1051,-26.6912,-0.578103
-574,-27,-26.7574,0.588745,0.00105833,6.1597e-05,-0.00849789,0.00907245,-0.00795253,-0.756109,0.00983646,0.0362207,650,1051,-26.7575,-0.588792
-567,-27,-26.8583,0.600464,0.0012463,0.000269648,-0.00746433,0.00823826,-0.00672231,-0.752734,0.00865226,0.045582,657,1051,-26.8583,-0.600456
-560,-27,-27.0643,0.671997,0.00153743,0.00057776,-0.00591934,0.00699635,-0.00488116,-0.744955,0.00689364,0.0482902,664,1051,-27.0643,-0.671976
-553,-27,-26.8163,0.99292,0.00203862,0.000855574,-0.00401021,0.0055007,-0.0026065,-0.712174,0.00477908,0.0444533,671,1051,-26.8163,-0.992968
-546,-27,-26.7048,1.14868,0.00287832,0.000915411,-0.00200834,0.0041322,-0.000338463,-0.558119,0.00287427,0.0447652,678,1051,-26.7048,-1.14873
-539,-27,-26.6617,0.862427,0.00415788,0.000717801,-0.000962449,0.00440884,0.000466839,-0.255073,0.00279663,0.0420387,685,1051,-26.6618,-0.862423
-532,-27,-26.6824,0.527832,0.00590757,0.0009698,-0.00395274,0.00809911,-0.00122173,-0.506242,0.00584934,0.0404725,692,1051,-26.6824,-0.527828
-525,-27,0,0,0,0,0,0,0,0,0,-1,699,1051,0,0
-518,-27,0,0,0,0,0,0,0,0,0,-1,706,1051,0,0
-511,-27,0,0,0,0,0,0,0,0,0,-1,713,1051,0,0
-504,-27,0,0,0,0,0,0,0,0,0,-1,720,1051,0,0
-497,-27,0,0,0,0,0,0,0,0,0,-1,727,1051,0,0
-490,-27,0,0,0,0,0,0,0,0,0,-1,734,1051,0,0
-483,-27,0,0,0,0,0,0,0,0,0,-1,741,1051,0,0
-476,-27,0,0,0,0,0,0,0,0,0,-1,748,1051,0,0
-469,-27,0,0,0,0,0,0,0,0,0,-1,755,1051,0,0
-462,-27,0,0,0,0,0,0,0,0,0,-1,762,1051,0,0
-455,-27,0,0,0,0,0,0,0,0,0,-1,769,1051,0,0
-448,-27,0,0,0,0,0,0,0,0,0,-1,776,1051,0,0
-441,-27,0,0,0,0,0,0,0,0,0,-1,783,1051,0,0
-434,-27,0,0,0,0,0,0,0,0,0,-1,790,1051,0,0
-427,-27,0,0,0,0,0,0,0,0,0,-1,797,1051,0,0
-420,-27,0,0,0,0,0,0,0,0,0,-1,804,1051,0,0
-413,-27,0,0,0,0,0,0,0,0,0,-1,811,1051,0,0
-406,-27,0,0,0,0,0,0,0,0,0,-1,818,1051,0,0
-399,-27,0,0,0,0,0,0,0,0,0,-1,825,1051,0,0
-392,-27,0,0,0,0,0,0,0,0,0,-1,832,1051,0,0
-385,-27,0,0,0,0,0,0,0,0,0,-1,839,1051,0,0
-378,-27,0,0,0,0,0,0,0,0,0,-1,846,1051,0,0
-371,-27,0,0,0,0,0,0,0,0,0,-1,853,1051,0,0
-364,-27,0,0,0,0,0,0,0,0,0,-1,860,1051,0,0
-357,-27,0,0,0,0,0,0,0,0,0,-1,867,1051,0,0
-350,-27,0,0,0,0,0,0,0,0,0,-1,874,1051,0,0
-343,-27,0,0,0,0,0,0,0,0,0,-1,881,1051,0,0
-336,-27,0,0,0,0,0,0,0,0,0,-1,888,1051,0,0
-329,-27,0,0,0,0,0,0,0,0,0,-1,895,1051,0,0
-322,-27,0,0,0,0,0,0,0,0,0,-1,902,1051,0,0
-315,-27,0,0,0,0,0,0,0,0,0,-1,909,1051,0,0
-308,-27,0,0,0,0,0,0,0,0,0,-1,916,1051,0,0
-301,-27,0,0,0,0,0,0,0,0,0,-1,923,1051,0,0
-294,-27,0,0,0,0,0,0,0,0,0,-1,930,1051,0,0
-287,-27,0,0,0,0,0,0,0,0,0,-1,937,1051,0,0
-280,-27,0,0,0,0,0,0,0,0,0,-1,944,1051,0,0
-273,-27,0,0,0,0,0,0,0,0,0,-1,951,1051,0,0
-266,-27,0,0,0,0,0,0,0,0,0,-1,958,1051,0,0
-259,-27,0,0,0,0,0,0,0,0,0,-1,965,1051,0,0
-252,-27,0,0,0,0,0,0,0,0,0,-1,972,1051,0,0
-245,-27,0,0,0,0,0,0,0,0,0,-1,979,1051,0,0
-238,-27,0,0,0,0,0,0,0,0,0,-1,986,1051,0,0
-231,-27,0,0,0,0,0,0,0,0,0,-1,993,1051,0,0
-224,-27,0,0,0,0,0,0,0,0,0,-1,1000,1051,0,0
-217,-27,0,0,0,0,0,0,0,0,0,-1,1007,1051,0,0
-210,-27,0,0,0,0,0,0,0,0,0,-1,1014,1051,0,0
-203,-27,0,0,0,0,0,0,0,0,0,-1,1021,1051,0,0
-196,-27,0,0,0,0,0,0,0,0,0,-1,1028,1051,0,0
-189,-27,0,0,0,0,0,0,0,0,0,-1,1035,1051,0,0
-182,-27,0,0,0,0,0,0,0,0,0,-1,1042,1051,0,0
-175,-27,0,0,0,0,0,0,0,0,0,-1,1049,1051,0,0
-168,-27,0,0,0,0,0,0,0,0,0,-1,1056,1051,0,0
-161,-27,0,0,0,0,0,0,0,0,0,-1,1063,1051,0,0
-154,-27,0,0,0,0,0,0,0,0,0,-1,1070,1051,0,0
-147,-27,0,0,0,0,0,0,0,0,0,-1,1077,1051,0,0
-140,-27,0,0,0,0,0,0,0,0,0,-1,1084,1051,0,0
-133,-27,0,0,0,0,0,0,0,0,0,-1,1091,1051,0,0
-126,-27,0,0,0,0,0,0,0,0,0,-1,1098,1051,0,0
-119,-27,0,0,0,0,0,0,0,0,0,-1,1105,1051,0,0
-112,-27,0,0,0,0,0,0,0,0,0,-1,1112,1051,0,0
-105,-27,0,0,0,0,0,0,0,0,0,-1,1119,1051,0,0
-98,-27,0,0,0,0,0,0,0,0,0,-1,1126,1051,0,0
-91,-27,0,0,0,0,0,0,0,0,0,-1,1133,1051,0,0
-84,-27,0,0,0,0,0,0,0,0,0,-1,1140,1051,0,0
-77,-27,0,0,0,0,0,0,0,0,0,-1,1147,1051,0,0
-70,-27,0,0,0,0,0,0,0,0,0,-1,1154,1051,0,0
-63,-27,0,0,0,0,0,0,0,0,0,-1,1161,1051,0,0
-56,-27,0,0,0,0,0,0,0,0,0,-1,1168,1051,0,0
-49,-27,0,0,0,0,0,0,0,0,0,-1,1175,1051,0,0
-42,-27,0,0,0,0,0,0,0,0,0,-1,1182,1051,0,0
-35,-27,0,0,0,0,0,0,0,0,0,-1,1189,1051,0,0
-28,-27,0,0,0,0,0,0,0,0,0,-1,1196,1051,0,0
-21,-27,0,0,0,0,0,0,0,0,0,-1,1203,1051,0,0
-14,-27,0,0,0,0,0,0,0,0,0,-1,1210,1051,0,0
-7,-27,0,0,0,0,0,0,0,0,0,-1,1217,1051,0,0
0,-27,0,0,0,0,0,0,0,0,0,-1,1224,1051,0,0
7,-27,0,0,0,0,0,0,0,0,0,-1,1231,1051,0,0
14,-27,0,0,0,0,0,0,0,0,0,-1,1238,1051,0,0
21,-27,0,0,0,0,0,0,0,0,0,-1,1245,1051,0,0
28,-27,0,0,0,0,0,0,0,0,0,-1,1252,1051,0,0
35,-27,0,0,0,0,0,0,0,0,0,-1,1259,1051,0,0
42,-27,0,0,0,0,0,0,0,0,0,-1,1266,1051,0,0
49,-27,0,0,0,0,0,0,0,0,0,-1,1273,1051,0,0
56,-27,0,0,0,0,0,0,0,0,0,-1,1280,1051,0,0
63,-27,0,0,0,0,0,0,0,0,0,-1,1287,1051,0,0
70,-27,0,0,0,0,0,0,0,0,0,-1,1294,1051,0,0
77,-27,0,0,0,0,0,0,0,0,0,-1,1301,1051,0,0
84,-27,0,0,0,0,0,0,0,0,0,-1,1308,1051,0,0
91,-27,0,0,0,0,0,0,0,0,0,-1,1315,1051,0,0
98,-27,0,0,0,0,0,0,0,0,0,-1,1322,1051,0,0
105,-27,0,0,0,0,0,0,0,0,0,-1,1329,1051,0,0
112,-27,0,0,0,0,0,0,0,0,0,-1,1336,1051,0,0
119,-27,0,0,0,0,0,0,0,0,0,-1,1343,1051,0,0
126,-27,0,0,0,0,0,0,0,0,0,-1,1350,1051,0,0
133,-27,0,0,0,0,0,0,0,0,0,-1,1357,1051,0,0
140,-27,0,0,0,0,0,0,0,0,0,-1,1364,1051,0,0
147,-27,0,0,0,0,0,0,0,0,0,-1,1371,1051,0,0
154,-27,0,0,0,0,0,0,0,0,0,-1,1378,1051,0,0
161,-27,0,0,0,0,0,0,0,0,0,-1,1385,1051,0,0
168,-27,0,0,0,0,0,0,0,0,0,-1,1392,1051,0,0
175,-27,0,0,0,0,0,0,0,0,0,-1,1399,1051,0,0
182,-27,0,0,0,0,0,0,0,0,0,-1,1406,1051,0,0
189,-27,0,0,0,0,0,0,0,0,0,-1,1413,1051,0,0
196,-27,0,0,0,0,0,0,0,0,0,-1,1420,1051,0,0
203,-27,0,0,0,0,0,0,0,0,0,-1,1427,1051,0,0
210,-27,0,0,0,0,0,0,0,0,0,-1,1434,1051,0,0
217,-27,0,0,0,0,0,0,0,0,0,-1,1441,1051,0,0
224,-27,0,0,0,0,0,0,0,0,0,-1,1448,1051,0,0
231,-27,0,0,0,0,0,0,0,0,0,-1,1455,1051,0,0
238,-27,0,0,0,0,0,0,0,0,0,-1,1462,1051,0,0
245,-27,0,0,0,0,0,0,0,0,0,-1,1469,1051,0,0
252,-27,0,0,0,0,0,0,0,0,0,-1,1476,1051,0,0
259,-27,0,0,0,0,0,0,0,0,0,-1,1483,1051,0,0
266,-27,0,0,0,0,0,0,0,0,0,-1,1490,1051,0,0
273,-27,0,0,0,0,0,0,0,0,0,-1,1497,1051,0,0
280,-27,0,0,0,0,0,0,0,0,0,-1,1504,1051,0,0
287,-27,0,0,0,0,0,0,0,0,0,-1,1511,1051,0,0
294,-27,0,0,0,0,0,0,0,0,0,-1,1518,1051,0,0
301,-27,0,0,0,0,0,0,0,0,0,-1,1525,1051,0,0
308,-27,0,0,0,0,0,0,0,0,0,-1,1532,1051,0,0
315,-27,0,0,0,0,0,0,0,0,0,-1,1539,1051,0,0
322,-27,0,0,0,0,0,0,0,0,0,-1,1546,1051,0,0
329,-27,0,0,0,0,0,0,0,0,0,-1,1553,1051,0,0
336,-27,0,0,0,0,0,0,0,0,0,-1,1560,1051,0,0
343,-27,0,0,0,0,0,0,0,0,0,-1,1567,1051,0,0
350,-27,0,0,0,0,0,0,0,0,0,-1,1574,1051,0,0
357,-27,0,0,0,0,0,0,0,0,0,-1,1581,1051,0,0
364,-27,0,0,0,0,0,0,0,0,0,-1,1588,1051,0,0
371,-27,0,0,0,0,0,0,0,0,0,-1,1595,1051,0,0
378,-27,0,0,0,0,0,0,0,0,0,-1,1602,1051,0,0
385,-27,0,0,0,0,0,0,0,0,0,-1,1609,1051,0,0
392,-27,0,0,0,0,0,0,0,0,0,-1,1616,1051,0,0
399,-27,0,0,0,0,0,0,0,0,0,-1,1623,1051,0,0
406,-27,0,0,0,0,0,0,0,0,0,-1,1630,1051,0,0
413,-27,0,0,0,0,0,0,0,0,0,-1,1637,1051,0,0
420,-27,0,0,0,0,0,0,0,0,0,-1,1644,1051,0,0
427,-27,0,0,0,0,0,0,0,0,0,-1,1651,1051,0,0
434,-27,0,0,0,0,0,0,0,0,0,-1,1658,1051,0,0
441,-27,0,0,0,0,0,0,0,0,0,-1,1665,1051,0,0
448,-27,0,0,0,0,0,0,0,0,0,-1,1672,1051,0,0
455,-27,0,0,0,0,0,0,0,0,0,-1,1679,1051,0,0
462,-27,0,0,0,0,0,0,0,0,0,-1,1686,1051,0,0
469,-27,0,0,0,0,0,0,0,0,0,-1,1693,1051,0,0
476,-27,0,0,0,0,0,0,0,0,0,-1,1700,1051,0,0
483,-27,0,0,0,0,0,0,0,0,0,-1,1707,1051,0,0
490,-27,0,0,0,0,0,0,0,0,0,-1,1714,1051,0,0
497,-27,0,0,0,0,0,0,0,0,0,-1,1721,1051,0,0
504,-27,0,0,0,0,0,0,0,0,0,-1,1728,1051,0,0
511,-27,0,0,0,0,0,0,0,0,0,-1,1735,1051,0,0
518,-27,0,0,0,0,0,0,0,0,0,-1,1742,1051,0,0
525,-27,0,0,0,0,0,0,0,0,0,-1,1749,1051,0,0
532,-27,0,0,0,0,0,0,0,0,0,-1,1756,1051,0,0
539,-27,0,0,0,0,0,0,0,0,0,-1,1763,1051,0,0
546,-27,0,0,0,0,0,0,0,0,0,-1,1770,1051,0,0
553,-27,0,0,0,0,0,0,0,0,0,-1,1777,1051,0,0
560,-27,0,0,0,0,0,0,0,0,0,-1,1784,1051,0,0
567,-27,0,0,0,0,0,0,0,0,0,-1,1791,1051,0,0
574,-27,0,0,0,0,0,0,0,0,0,-1,1798,1051,0,0
581,-27,0,0,0,0,0,0,0,0,0,-1,1805,1051,0,0
588,-27,0,0,0,0,0,0,0,0,0,-1,1812,1051,0,0
595,-27,0,0,0,0,0,0,0,0,0,-1,1819,1051,0,0
602,-27,0,0,0,0,0,0,0,0,0,-1,1826,1051,0,0
609,-27,0,0,0,0,0,0,0,0,0,-1,1833,1051,0,0
616,-27,0,0,0,0,0,0,0,0,0,-1,1840,1051,0,0
623,-27,0,0,0,0,0,0,0,0,0,-1,1847,1051,0,0
630,-27,0,0,0,0,0,0,0,0,0,-1,1854,1051,0,0
637,-27,0,0,0,0,0,0,0,0,0,-1,1861,1051,0,0
644,-27,0,0,0,0,0,0,0,0,0,-1,1868,1051,0,0
651,-27,37.0508,2.83215,-0.00723916,0.00149352,-0.00296163,0.00240318,-0.00814882,-1.27279,0.00638615,0.0419494,1875,1051,37.0507,-2.83217
658,-27,36.8801,2.58362,-0.00528621,0.0014333,-0.00232429,0.00215892,-0.00601183,-1.26819,0.00488908,0.0424765,1882,1051,36.8802,-2.58366
665,-27,36.7765,2.5033,-0.00379825,0.00136787,-0.00166314,0.00185698,-0.00428736,-1.28477,0.00363877,0.0371695,1889,1051,36.7765,-2.50331
672,-27,36.7036,2.51062,-0.00251964,0.00118986,-0.000639836,0.00129712,-0.0026269,-1.4047,0.00230849,0.0272475,1896,1051,36.7036,-2.5106
679,-27,36.6833,2.43787,-0.00137399,0.000819101,0.000693043,0.00101975,-0.00157464,1.28898,0.00150925,0.0287332,1903,1051,36.6833,-2.43789
686,-27,36.7295,2.35132,-0.000751971,0.000262877,0.00196826,0.00178807,-0.00227717,0.911553,0.00235272,0.0398262,1910,1051,36.7296,-2.35134
693,-27,36.8574,2.41272,-0.000428035,-0.000313729,0.00302027,0.00264992,-0.00339169,0.794859,0.00349688,0.0413155,1917,1051,36.8574,-2.41271
700,-27,36.7777,2.44373,-0.000254798,-0.000779018,0.00377335,0.00326553,-0.00429935,0.750722,0.00438116,0.036522,1924,1051,36.7778,-2.44367
707,-27,36.7444,2.51868,-0.000233688,-0.000950054,0.00428199,0.00370508,-0.00488882,0.743671,0.00497735,0.0238825,1931,1051,36.7444,-2.51865
714,-27,36.7821,2.58398,-0.000439284,-0.000972582,0.00461781,0.00391956,-0.00533143,0.756558,0.00536176,0.0202072,1938,1051,36.7821,-2.58393
721,-27,36.7814,2.73523,0,0,0,0,0,0,0,-1,1945,1051,36.7814,-2.73529
728,-27,36.757,4.99744,0,0,0,0,0,0,0,-1,1952,1051,36.757,-4.99746
735,-27,36.4048,4.995,-0.00200998,0.00026829,0.00403638,0.0033232,-0.00506488,0.92293,0.00487754,0.025274,1959,1051,36.4048,-4.99498
742,-27,36.2573,4.96765,-0.00279252,0.000880743,0.00337773,0.00288889,-0.00480067,1.03441,0.00448507,0.0179128,1966,1051,36.2573,-4.96765
749,-27,36.299,4.91431,-0.00357292,0.00182422,0.00284477,0.00304674,-0.00479545,1.16491,0.00456506,0.0130283,1973,1051,36.299,-4.91427
756,-27,36.2881,4.82178,-0.00412907,0.00307002,0.00207368,0.00362461,-0.00468367,1.30947,0.00480976,0.0117351,1980,1051,36.288,-4.82174
763,-27,36.252,4.7428,-0.00470755,0.00542383,0.00124635,0.0055749,-0.00485862,1.45017,0.00602853,0.0143823,1987,1051,36.252,-4.74279
770,-27,36.2126,4.68079,-0.00530407,0.00791604,0.000478301,0.00793332,-0.00532136,1.53468,0.00770196,0.016566,1994,1051,36.2126,-4.68074
777,-27,36.1758,4.63867,-0.00562501,0.0110031,0.000377302,0.0110116,-0.00563357,1.54812,0.00977588,0.0184573,2001,1051,36.1758,-4.6387
784,-27,36.1711,4.60754,-0.00567582,0.0144935,0.000961792,0.0145393,-0.00572158,1.52325,0.0120612,0.0256463,2008,1051,36.1711,-4.60755
791,-27,36.229,4.47583,-0.00550829,0.0188837,0.00230436,0.0190995,-0.00572408,1.47742,0.0150094,0.0421681,2015,1051,36.2289,-4.47583
798,-27,36.345,4.42139,-0.00467561,0.0248117,0.00460492,0.0255141,-0.00537801,1.41943,0.0190567,0.0477746,2022,1051,36.345,-4.42135
805,-27,36.2617,4.77612,0,0,0,0,0,0,0,-1,2029,1051,36.2617,-4.77608
812,-27,36.5122,4.8717,0,0,0,0,0,0,0,-1,2036,1051,36.5122,-4.87175
-700,-34,-28.8195,-2.99609,0.0673718,0.0368084,-0.0263146,0.0825202,0.02166,-0.522334,0.0494024,0.0465114,524,1058,-28.8195,2.99608
-693,-34,-28.7237,-2.17188,0.064824,0.0408274,-0.019997,0.0761461,0.0295053,-0.515187,0.0443324,0.0449525,531,1058,-28.7237,2.17183
-686,-34,-28.618,-1.53455,0.058984,0.0407885,-0.0137745,0.066394,0.0333785,-0.493546,0.0383328,0.0449782,538,1058,-28.618,1.53459
-679,-34,-27.5329,-0.320435,0,0,0,0,0,0,0,-1,545,1058,-27.5329,0.320423
-672,-34,-27.1318,-0.0625,0.0431123,0.0347061,-0.00454951,0.0451031,0.0327153,-0.412479,0.0269074,0.0471253,552,1058,-27.1318,0.0624977
-665,-34,-26.7909,0.555176,0.0349541,0.0302516,-0.00162862,0.035463,0.0297426,-0.302892,0.0219847,0.0444057,559,1058,-26.7909,-0.555168
-658,-34,-26.5639,1.10315,0.0273394,0.0254863,0.000277362,0.02738,0.0254457,0.14543,0.0176439,0.0433705,566,1058,-26.5639,-1.1032
-651,-34,-26.294,1.7146,0.0206043,0.020703,0.00129557,0.0219502,0.0193572,0.804423,0.0138503,0.0311633,573,1058,-26.294,-1.71459
-644,-34,-26.4664,1.70154,0.014617,0.0165965,0.00170512,0.0175783,0.0136352,1.04837,0.0106506,0.0153998,580,1058,-26.4664,-1.7015
-637,-34,-26.5242,1.79907,0.00950273,0.011568,0.000533969,0.0116979,0.00937284,1.33218,0.0071507,0.0166415,587,1058,-26.5242,-1.79913
-630,-34,-26.5269,2.00549,0.00584808,0.00821324,-0.000786226,0.00845075,0.00561057,-1.27743,0.00496567,0.0181646,594,1058,-26.5268,-2.00549
-623,-34,-26.4956,2.14392,0.00284535,0.00525932,-0.00282877,0.00712785,0.000976821,-0.987045,0.00446207,0.0134364,601,1058,-26.4956,-2.14388
-616,-34,-26.4949,2.31201,0.000743415,0.00267743,-0.00479444,0.00660141,-0.00318057,-0.88491,0.00576159,0.0201151,608,1058,-26.4949,-2.31196
-609,-34,-26.4995,2.45313,0.000222578,0.00150583,-0.00638747,0.00728382,-0.00555541,-0.835456,0.00743509,0.0195824,615,1058,-26.4995,-2.45314
-602,-34,-26.5023,2.56604,-4.30689e-05,0.000734903,-0.00750772,0.00786371,-0.00717188,-0.811281,0.00868386,0.014148,622,1058,-26.5023,-2.56601
-595,-34,-26.6492,2.91174,0,0,0,0,0,0,0,-1,629,1058,-26.6492,-2.91175
-588,-34,-26.7062,1.62756,7.82324e-05,0.000224927,-0.00854893,0.00870082,-0.00839766,-0.789688,0.00987233,0.0273888,636,1058,-26.7062,-1.62757
-581,-34,-26.6959,0.650757,0.000574847,0.000145062,-0.00853474,0.0088974,-0.00817749,-0.772812,0.00986111,0.0257387,643,1058,-26.6959,-0.650731
-574,-34,-26.7286,0.587036,0.000828736,0.000282339,-0.00812392,0.00868405,-0.00757297,-0.76859,0.0093933,0.0357172,650,1058,-26.7286,-0.586987
-567,-34,-26.7415,0.635498,0.0011194,0.000591675,-0.00719859,0.00805896,-0.00634789,-0.767079,0.00833733,0.042201,657,1058,-26.7415,-0.635545
-560,-34,-27.0209,0.833374,0,0,0,0,0,0,0,-1,664,1058,-27.0209,-0.833324
-553,-34,-26.7291,0.815918,0.00228529,0.00138849,-0.00393431,0.00579667,-0.0021229,-0.728657,0.00473351,0.0425372,671,1058,-26.7291,-0.815915
-546,-34,-26.7288,0.868774,0.00341141,0.00151978,-0.00193201,0.0046167,0.00031449,-0.557772,0.00297851,0.0459572,678,1058,-26.7287,-0.868789
-539,-34,-26.7745,0.828125,0.00491226,0.00131698,-0.000778496,0.00507359,0.00115565,-0.204341,0.00307055,0.0453559,685,1058,-26.7745,-0.828121
-532,-34,-26.5111,0.672852,0.00680149,0.00135152,-0.00354096,0.00854461,-0.000391591,-0.457446,0.00583132,0.0430777,692,1058,-26.5111,-0.672856
-525,-34,0,0,0,0,0,0,0,0,0,-1,699,1058,0,0
-518,-34,0,0,0,0,0,0,0,0,0,-1,706,1058,0,0
-511,-34,0,0,0,0,0,0,0,0,0,-1,713,1058,0,0
-504,-34,0,0,0,0,0,0,0,0,0,-1,720,1058,0,0
-497,-34,0,0,0,0,0,0,0,0,0,-1,727,1058,0,0
-490,-34,0,0,0,0,0,0,0,0,0,-1,734,1058,0,0
-483,-34,0,0,0,0,0,0,0,0,0,-1,741,1058,0,0
-476,-34,0,0,0,0,0,0,0,0,0,-1,748,1058,0,0
-469,-34,0,0,0,0,0,0,0,0,0,-1,755,1058,0,0
-462,-34,0,0,0,0,0,0,0,0,0,-1,762,1058,0,0
-455,-34,0,0,0,0,0,0,0,0,0,-1,769,1058,0,0
-448,-34,0,0,0,0,0,0,0,0,0,-1,776,1058,0,0
-441,-34,0,0,0,0,0,0,0,0,0,-1,783,1058,0,0
-434,-34,0,0,0,0,0,0,0,0,0,-1,790,1058,0,0
-427,-34,0,0,0,0,0,0,0,0,0,-1,797,1058,0,0
-420,-34,0,0,0,0,0,0,0,0,0,-1,804,1058,0,0
-413,-34,0,0,0,0,0,0,0,0,0,-1,811,1058,0,0
-406,-34,0,0,0,0,0,0,0,0,0,-1,818,1058,0,0
-399,-34,0,0,0,0,0,0,0,0,0,-1,825,1058,0,0
-392,-34,0,0,0,0,0,0,0,0,0,-1,832,1058,0,0
-385,-34,0,0,0,0,0,0,0,0,0,-1,839,1058,0,0
-378,-34,0,0,0,0,0,0,0,0,0,-1,846,1058,0,0
-371,-34,0,0,0,0,0,0,0,0,0,-1,853,1058,0,0
-364,-34,0,0,0,0,0,0,0,0,0,-1,860,1058,0,0
-357,-34,0,0,0,0,0,0,0,0,0,-1,867,1058,0,0
-350,-34,0,0,0,0,0,0,0,0,0,-1,874,1058,0,0
-343,-34,0,0,0,0,0,0,0,0,0,-1,881,1058,0,0
-336,-34,0,0,0,0,0,0,0,0,0,-1,888,1058,0,0
-329,-34,0,0,0,0,0,0,0,0,0,-1,895,1058,0,0
-322,-34,0,0,0,0,0,0,0,0,0,-1,902,1058,0,0
-315,-34,0,0,0,0,0,0,0,0,0,-1,909,1058,0,0
-308,-34,0,0,0,0,0,0,0,0,0,-1,916,1058,0,0
-301,-34,0,0,0,0,0,0,0,0,0,-1,923,1058,0,0
-294,-34,0,0,0,0,0,0,0,0,0,-1,930,1058,0,0
-287,-34,0,0,0,0,0,0,0,0,0,-1,937,1058,0,0
-280,-34,0,0,0,0,0,0,0,0,0,-1,944,1058,0,0
-273,-34,0,0,0,0,0,0,0,0,0,-1,951,1058,0,0
-266,-34,0,0,0,0,0,0,0,0,0,-1,958,1058,0,0
-259,-34,0,0,0,0,0,0,0,0,0,-1,965,1058,0,0
-252,-34,0,0,0,0,0,0,0,0,0,-1,972,1058,0,0
-245,-34,0,0,0,0,0,0,0,0,0,-1,979,1058,0,0
-238,-34,0,0,0,0,0,0,0,0,0,-1,986,1058,0,0
-231,-34,0,0,0,0,0,0,0,0,0,-1,993,1058,0,0
-224,-34,0,0,0,0,0,0,0,0,0,-1,1000,1058,0,0
-217,-34,0,0,0,0,0,0,0,0,0,-1,1007,1058,0,0
-210,-34,0,0,0,0,0,0,0,0,0,-1,1014,1058,0,0
-203,-34,0,0,0,0,0,0,0,0,0,-1,1021,1058,0,0
-196,-34,0,0,0,0,0,0,0,0,0,-1,1028,1058,0,0
-189,-34,0,0,0,0,0,0,0,0,0,-1,1035,1058,0,0
-182,-34,0,0,0,0,0,0,0,0,0,-1,1042,1058,0,0
-175,-34,0,0,0,0,0,0,0,0,0,-1,1049,1058,0,0
-168,-34,0,0,0,0,0,0,0,0,0,-1,1056,1058,0,0
-161,-34,0,0,0,0,0,0,0,0,0,-1,1063,1058,0,0
-154,-34,0,0,0,0,0,0,0,0,0,-1,1070,1058,0,0
-147,-34,0,0,0,0,0,0,0,0,0,-1,1077,1058,0,0
-140,-34,0,0,0,0,0,0,0,0,0,-1,1084,1058,0,0
-133,-34,0,0,0,0,0,0,0,0,0,-1,1091,1058,0,0
-126,-34,0,0,0,0,0,0,0,0,0,-1,1098,1058,0,0
-119,-34,0,0,0,0,0,0,0,0,0,-1,1105,1058,0,0
-112,-34,0,0,0,0,0,0,0,0,0,-1,1112,1058,0,0
-105,-34,0,0,0,0,0,0,0,0,0,-1,1119,1058,0,0
-98,-34,0,0,0,0,0,0,0,0,0,-1,1126,1058,0,0
-91,-34,0,0,0,0,0,0,0,0,0,-1,1133,1058,0,0
-84,-34,0,0,0,0,0,0,0,0,0,-1,1140,1058,0,0
-77,-34,0,0,0,0,0,0,0,0,0,-1,1147,1058,0,0
-70,-34,0,0,0,0,0,0,0,0,0,-1,1154,1058,0,0
-63,-34,0,0,0,0,0,0,0,0,0,-1,1161,1058,0,0
-56,-34,0,0,0,0,0,0,0,0,0,-1,1168,1058,0,0
-49,-34,0,0,0,0,0,0,0,0,0,-1,1175,1058,0,0
-42,-34,0,0,0,0,0,0,0,0,0,-1,1182,1058,0,0
-35,-34,0,0,0,0,0,0,0,0,0,-1,1189,1058,0,0
-28,-34,0,0,0,0,0,0,0,0,0,-1,1196,1058,0,0
-21,-34,0,0,0,0,0,0,0,0,0,-1,1203,1058,0,0
-14,-34,0,0,0,0,0,0,0,0,0,-1,1210,1058,0,0
-7,-34,0,0,0,0,0,0,0,0,0,-1,1217,1058,0,0
0,-34,0,0,0,0,0,0,0,0,0,-1,1224,1058,0,0
7,-34,0,0,0,0,0,0,0,0,0,-1,1231,1058,0,0
14,-34,0,0,0,0,0,0,0,0,0,-1,1238,1058,0,0
21,-34,0,0,0,0,0,0,0,0,0,-1,1245,1058,0,0
28,-34,0,0,0,0,0,0,0,0,0,-1,1252,1058,0,0
35,-34,0,0,0,0,0,0,0,0,0,-1,1259,1058,0,0
42,-34,0,0,0,0,0,0,0,0,0,-1,1266,1058,0,0
49,-34,0,0,0,0,0,0,0,0,0,-1,1273,1058,0,0
56,-34,0,0,0,0,0,0,0,0,0,-1,1280,1058,0,0
63,-34,0,0,0,0,0,0,0,0,0,-1,1287,1058,0,0
70,-34,0,0,0,0,0,0,0,0,0,-1,1294,1058,0,0
77,-34,0,0,0,0,0,0,0,0,0,-1,1301,1058,0,0
84,-34,0,0,0,0,0,0,0,0,0,-1,1308,1058,0,0
91,-34,0,0,0,0,0,0,0,0,0,-1,1315,1058,0,0
98,-34,0,0,0,0,0,0,0,0,0,-1,1322,1058,0,0
105,-34,0,0,0,0,0,0,0,0,0,-1,1329,1058,0,0
112,-34,0,0,0,0,0,0,0,0,0,-1,1336,1058,0,0
119,-34,0,0,0,0,0,0,0,0,0,-1,1343,1058,0,0
126,-34,0,0,0,0,0,0,0,0,0,-1,1350,1058,0,0
133,-34,0,0,0,0,0,0,0,0,0,-1,1357,1058,0,0
140,-34,0,0,0,0,0,0,0,0,0,-1,1364,1058,0,0
147,-34,0,0,0,0,0,0,0,0,0,-1,1371,1058,0,0
154,-34,0,0,0,0,0,0,0,0,0,-1,1378,1058,0,0
161,-34,0,0,0,0,0,0,0,0,0,-1,1385,1058,0,0
168,-34,0,0,0,0,0,0,0,0,0,-1,1392,1058,0,0
175,-34,0,0,0,0,0,0,0,0,0,-1,1399,1058,0,0
182,-34,0,0,0,0,0,0,0,0,0,-1,1406,1058,0,0
189,-34,0,0,0,0,0,0,0,0,0,-1,1413,1058,0,0
196,-34,0,0,0,0,0,0,0,0,0,-1,1420,1058,0,0
203,-34,0,0,0,0,0,0,0,0,0,-1,1427,1058,0,0
210,-34,0,0,0,0,0,0,0,0,0,-1,1434,1058,0,0
217,-34,0,0,0,0,0,0,0,0,0,-1,1441,1058,0,0
224,-34,0,0,0,0,0,0,0,0,0,-1,1448,1058,0,0
231,-34,0,0,0,0,0,0,0,0,0,-1,1455,1058,0,0
238,-34,0,0,0,0,0,0,0,0,0,-1,1462,1058,0,0
245,-34,0,0,0,0,0,0,0,0,0,-1,1469,1058,0,0
252,-34,0,0,0,0,0,0,0,0,0,-1,1476,1058,0,0
259,-34,0,0,0,0,0,0,0,0,0,-1,1483,1058,0,0
266,-34,0,0,0,0,0,0,0,0,0,-1,1490,1058,0,0
273,-34,0,0,0,0,0,0,0,0,0,-1,1497,1058,0,0
280,-34,0,0,0,0,0,0,0,0,0,-1,1504,1058,0,0
287,-34,0,0,0,0,0,0,0,0,0,-1,1511,1058,0,0
294,-34,0,0,0,0,0,0,0,0,0,-1,1518,1058,0,0
301,-34,0,0,0,0,0,0,0,0,0,-1,1525,1058,0,0
308,-34,0,0,0,0,0,0,0,0,0,-1,1532,1058,0,0
315,-34,0,0,0,0,0,0,0,0,0,-1,1539,1058,0,0
322,-34,0,0,0,0,0,0,0,0,0,-1,1546,1058,0,0
329,-34,0,0,0,0,0,0,0,0,0,-1,1553,1058,0,0
336,-34,0,0,0,0,0,0,0,0,0,-1,1560,1058,0,0
343,-34,0,0,0,0,0,0,0,0,0,-1,1567,1058,0,0
350,-34,0,0,0,0,0,0,0,0,0,-1,1574,1058,0,0
357,-34,0,0,0,0,0,0,0,0,0,-1,1581,1058,0,0
364,-34,0,0,0,0,0,0,0,0,0,-1,1588,1058,0,0
371,-34,0,0,0,0,0,0,0,0,0,-1,1595,1058,0,0
378,-34,0,0,0,0,0,0,0,0,0,-1,1602,1058,0,0
385,-34,0,0,0,0,0,0,0,0,0,-1,1609,1058,0,0
392,-34,0,0,0,0,0,0,0,0,0,-1,1616,1058,0,0
399,-34,0,0,0,0,0,0,0,0,0,-1,1623,1058,0,0
406,-34,0,0,0,0,0,0,0,0,0,-1,1630,1058,0,0
413,-34,0,0,0,0,0,0,0,0,0,-1,1637,1058,0,0
420,-34,0,0,0,0,0,0,0,0,0,-1,1644,1058,0,0
427,-34,0,0,0,0,0,0,0,0,0,-1,1651,1058,0,0
434,-34,0,0,0,0,0,0,0,0,0,-1,1658,1058,0,0
441,-34,0,0,0,0,0,0,0,0,0,-1,1665,1058,0,0
448,-34,0,0,0,0,0,0,0,0,0,-1,1672,1058,0,0
455,-34,0,0,0,0,0,0,0,0,0,-1,1679,1058,0,0
462,-34,0,0,0,0,0,0,0,0,0,-1,1686,1058,0,0
469,-34,0,0,0,0,0,0,0,0,0,-1,1693,1058,0,0
476,-34,0,0,0,0,0,0,0,0,0,-1,1700,1058,0,0
483,-34,0,0,0,0,0,0,0,0,0,-1,1707,1058,0,0
490,-34,0,0,0,0,0,0,0,0,0,-1,1714,1058,0,0
497,-34,0,0,0,0,0,0,0,0,0,-1,1721,1058,0,0
504,-34,0,0,0,0,0,0,0,0,0,-1,1728,1058,0,0
511,-34,0,0,0,0,0,0,0,0,0,-1,1735,1058,0,0
518,-34,0,0,0,0,0,0,0,0,0,-1,1742,1058,0,0
525,-34,0,0,0,0,0,0,0,0,0,-1,1749,1058,0,0
532,-34,0,0,0,0,0,0,0,0,0,-1,1756,1058,0,0
539,-34,0,0,0,0,0,0,0,0,0,-1,1763,1058,0,0
546,-34,0,0,0,0,0,0,0,0,0,-1,1770,1058,0,0
553,-34,0,0,0,0,0,0,0,0,0,-1,1777,1058,0,0
560,-34,0,0,0,0,0,0,0,0,0,-1,1784,1058,0,0
567,-34,0,0,0,0,0,0,0,0,0,-1,1791,1058,0,0
574,-34,0,0,0,0,0,0,0,0,0,-1,1798,1058,0,0
581,-34,0,0,0,0,0,0,0,0,0,-1,1805,1058,0,0
588,-34,0,0,0,0,0,0,0,0,0,-1,1812,1058,0,0
595,-34,0,0,0,0,0,0,0,0,0,-1,1819,1058,0,0
602,-34,0,0,0,0,0,0,0,0,0,-1,1826,1058,0,0
609,-34,0,0,0,0,0,0,0,0,0,-1,1833,1058,0,0
616,-34,0,0,0,0,0,0,0,0,0,-1,1840,1058,0,0
623,-34,0,0,0,0,0,0,0,0,0,-1,1847,1058,0,0
630,-34,0,0,0,0,0,0,0,0,0,-1,1854,1058,0,0
637,-34,0,0,0,0,0,0,0,0,0,-1,1861,1058,0,0
644,-34,0,0,0,0,0,0,0,0,0,-1,1868,1058,0,0
651,-34,36.9769,2.74268,-0.00716598,0.000215386,-0.00261238,0.00104639,-0.00799699,-1.26281,0.00571216,0.0408983,1875,1058,36.9769,-2.74266
658,-34,36.8636,2.56653,-0.00526155,0.000335913,-0.00208497,0.00102717,-0.0059528,-1.25066,0.00435152,0.0430288,1882,1058,36.8636,-2.5665
665,-34,36.8074,2.3844,-0.00378028,0.000446404,-0.00150961,0.000930203,-0.00426408,-1.26066,0.0031982,0.0397242,1889,1058,36.8073,-2.38443
672,-34,36.744,2.33472,-0.00247578,0.000384695,-0.000531221,0.000480162,-0.00257125,-1.39298,0.00189461,0.0347819,1896,1058,36.744,-2.33473
679,-34,36.7551,2.40002,-0.00132107,8.44205e-05,0.000773475,0.000426718,-0.00166337,1.15416,0.00127518,0.037016,1903,1058,36.7551,-2.40005
686,-34,36.8348,2.36108,-0.000730068,-0.000420455,0.00201927,0.00144993,-0.00260046,0.823656,0.00236973,0.0425187,1910,1058,36.8348,-2.36107
693,-34,36.8698,2.62756,-0.000437346,-0.000951392,0.00305193,0.00236837,-0.00375711,0.743389,0.00356671,0.0395432,1917,1058,36.8697,-2.62753
700,-34,36.797,2.59583,-0.000321054,-0.00135949,0.00378946,0.00298459,-0.00466513,0.717314,0.00445196,0.03714,1924,1058,36.797,-2.59577
707,-34,36.7305,2.55664,-0.000334952,-0.0015222,0.0042836,0.00339596,-0.00525312,0.716546,0.00503178,0.0240075,1931,1058,36.7305,-2.55664
714,-34,36.7574,2.60986,-0.00054507,-0.00148035,0.00461132,0.00362226,-0.00564768,0.734865,0.00539441,0.0184256,1938,1058,36.7574,-2.60988
721,-34,36.8535,3.13953,-0.000955547,-0.00125489,0.00472203,0.00361918,-0.00582961,0.769555,0.0055048,0.033629,1945,1058,36.8536,-3.13949
728,-34,36.4055,5.09521,0,0,0,0,0,0,0,-1,1952,1058,36.4055,-5.0952
735,-34,36.2365,5.0509,-0.00206277,-0.000226671,0.00407767,0.00303502,-0.00532446,0.896122,0.00488631,0.0172597,1959,1058,36.2365,-5.05089
742,-34,36.16,4.98425,-0.00278975,0.000365416,0.00347304,0.00260238,-0.00502672,0.998584,0.00447818,0.0155067,1966,1058,36.16,-4.98425
749,-34,36.1957,4.8988,-0.00358568,0.00121602,0.00284087,0.00253466,-0.00490432,1.13622,0.00436693,0.0125445,1973,1058,36.1957,-4.89882
756,-34,36.2207,4.79236,-0.00417501,0.00237887,0.00187435,0.00287705,-0.00467318,1.31101,0.00440005,0.00950515,1980,1058,36.2207,-4.79239
763,-34,36.177,4.70532,-0.00478777,0.00435461,0.0007612,0.00441755,-0.00485071,1.48829,0.00535298,0.0117414,1987,1058,36.177,-4.70528
770,-34,36.1113,4.61157,-0.00551813,0.00642983,-0.000471778,0.00644843,-0.00553673,-1.53139,0.00692631,0.0182219,1994,1058,36.1113,-4.6116
777,-34,36.0521,4.5376,-0.00613281,0.00882595,-0.00134349,0.00894566,-0.00625251,-1.48193,0.00882047,0.0194042,2001,1058,36.0522,-4.53761
784,-34,35.9755,4.46765,-0.00668007,0.0114173,-0.00184083,0.0116026,-0.00686542,-1.47045,0.0107788,0.0342236,2008,1058,35.9754,-4.46765
791,-34,36.0171,4.31897,-0.00728165,0.014603,-0.0020572,0.0147947,-0.00747335,-1.47788,0.013086,0.0447275,2015,1058,36.0171,-4.31897
798,-34,36.1541,4.10913,0,0,0,0,0,0,0,-1,2022,1058,36.1541,-4.10915
805,-34,33.7822,2.58533,0,0,0,0,0,0,0,-1,2029,1058,33.7823,-2.58538
812,-34,36.1277,4.27698,0,0,0,0,0,0,0,-1,2036,1058,36.1277,-4.27698
-700,-41,-28.2575,-2.5907,0.0585906,0.0433925,-0.0340117,0.0858418,0.0161413,-0.67549,0.0526783,0.0473153,524,1065,-28.2575,2.5907
-693,-41,-27.8018,-2.07336,0.0559309,0.0450449,-0.0247939,0.0758722,0.0251037,-0.677347,0.0446324,0.0445565,531,1065,-27.8018,2.07338
-686,-41,-27.4238,-1.45117,0.0505293,0.0432504,-0.0165586,0.0638437,0.0299361,-0.677223,0.0368839,0.0438316,538,1065,-27.4238,1.45122
-679,-41,-27.1324,-0.617798,0.0437658,0.0396743,-0.00997344,0.0519012,0.031539,-0.684241,0.0301959,0.047665,545,1065,-27.1324,0.617818
-672,-41,-26.8221,-0.0848389,0.0366135,0.0351754,-0.00495607,0.0409024,0.0308865,-0.713358,0.0246184,0.0456203,552,1065,-26.8222,0.0848216
-665,-41,-26.5128,0.473755,0.0296115,0.0302607,-0.00139905,0.0313723,0.0284999,-0.899385,0.0200262,0.0425302,559,1065,-26.5128,-0.473779
-658,-41,-26.2731,0.94397,0.0231184,0.0252599,0.000868422,0.0255678,0.0228105,1.23007,0.0162045,0.0400623,566,1065,-26.2732,-0.943951
-651,-41,-26.0475,1.44861,0.0174,0.0203927,0.00205518,0.0214386,0.0163542,1.10006,0.0129351,0.0300978,573,1065,-26.0475,-1.44857
-644,-41,-26.3135,1.66003,0.0123029,0.0163455,0.00255168,0.0175795,0.0110689,1.12037,0.0102626,0.0161415,580,1065,-26.3135,-1.66
-637,-41,-26.3546,1.78735,0.00784104,0.0107758,0.00161238,0.0114885,0.00712829,1.15457,0.00669678,0.0172484,587,1065,-26.3546,-1.78733
-630,-41,-26.3627,1.94727,0.00473325,0.00780001,0.000173262,0.00780977,0.00472349,1.51454,0.00454188,0.0146084,594,1065,-26.3627,-1.9473
-623,-41,-26.3474,2.11841,0.0021777,0.00498693,-0.00201855,0.00604148,0.00112315,-1.08937,0.00371037,0.0118737,601,1065,-26.3474,-2.11846
-616,-41,-26.3316,2.31702,0.000440127,0.00253069,-0.00410471,0.00572112,-0.00275031,-0.910075,0.00499022,0.0150381,608,1065,-26.3316,-2.31707
-609,-41,-26.3094,2.46985,5.17546e-05,0.00143935,-0.00571881,0.0065063,-0.0050152,-0.845762,0.00667048,0.0201304,615,1065,-26.3094,-2.46984
-602,-41,-26.3383,2.58557,-0.000194129,0.00073409,-0.00679928,0.00708508,-0.00654512,-0.819475,0.00787145,0.0118173,622,1065,-26.3383,-2.58552
-595,-41,-26.4925,2.66492,0,0,0,0,0,0,0,-1,629,1065,-26.4925,-2.66495
-588,-41,-26.6165,1.52844,-8.42915e-05,0.000303403,-0.00785512,0.00796706,-0.00774795,-0.797735,0.00907336,0.030678,636,1065,-26.6165,-1.52841
-581,-41,-26.6979,0.584595,0.000397672,0.000269437,-0.00785446,0.00818828,-0.00752117,-0.781317,0.00907258,0.0341467,643,1065,-26.6979,-0.584567
-574,-41,-26.7761,0.713257,0.000673765,0.000473043,-0.00753177,0.00810585,-0.00695904,-0.778736,0.00870611,0.0370025,650,1065,-26.7761,-0.71326
-567,-41,-26.7971,0.803711,0.00102883,0.000861962,-0.00673243,0.00767834,-0.00578755,-0.779202,0.00780004,0.0418041,657,1065,-26.7971,-0.803751
-560,-41,-26.7251,0.749634,0.00157084,0.00137716,-0.00542673,0.00690159,-0.00395359,-0.776477,0.00634382,0.0418686,664,1065,-26.7251,-0.749617
-553,-41,-26.7107,0.72229,0.00243035,0.0018782,-0.00367236,0.00583699,-0.00152845,-0.747881,0.00448841,0.0410199,671,1065,-26.7107,-0.722335
-546,-41,-26.7857,0.770996,0.00374006,0.00213176,-0.0016186,0.00474326,0.00112855,-0.55485,0.00286117,0.044129,678,1065,-26.7857,-0.771056
-539,-41,-26.7183,0.809082,0.00538893,0.00200703,-0.000218094,0.00540294,0.00199302,-0.0641345,0.00315494,0.044849,685,1065,-26.7183,-0.809115
-532,-41,-26.4799,0.712402,0.00728779,0.00190436,-0.00246444,0.00824557,0.000946579,-0.370674,0.00521026,0.0405673,692,1065,-26.4799,-0.712409
-525,-41,0,0,0,0,0,0,0,0,0,-1,699,1065,0,0
-518,-41,0,0,0,0,0,0,0,0,0,-1,706,1065,0,0
-511,-41,0,0,0,0,0,0,0,0,0,-1,713,1065,0,0
-504,-41,0,0,0,0,0,0,0,0,0,-1,720,1065,0,0
-497,-41,0,0,0,0,0,0,0,0,0,-1,727,1065,0,0
-490,-41,0,0,0,0,0,0,0,0,0,-1,734,1065,0,0
-483,-41,0,0,0,0,0,0,0,0,0,-1,741,1065,0,0
-476,-41,0,0,0,0,0,0,0,0,0,-1,748,1065,0,0
-469,-41,0,0,0,0,0,0,0,0,0,-1,755,1065,0,0
-462,-41,0,0,0,0,0,0,0,0,0,-1,762,1065,0,0
-455,-41,0,0,0,0,0,0,0,0,0,-1,769,1065,0,0
-448,-41,0,0,0,0,0,0,0,0,0,-1,776,1065,0,0
-441,-41,0,0,0,0,0,0,0,0,0,-1,783,1065,0,0
-434,-41,0,0,0,0,0,0,0,0,0,-1,790,1065,0,0
-427,-41,0,0,0,0,0,0,0,0,0,-1,797,1065,0,0
-420,-41,0,0,0,0,0,0,0,0,0,-1,804,1065,0,0
-413,-41,0,0,0,0,0,0,0,0,0,-1,811,1065,0,0
-406,-41,0,0,0,0,0,0,0,0,0,-1,818,1065,0,0
-399,-41,0,0,0,0,0,0,0,0,0,-1,825,1065,0,0
-392,-41,0,0,0,0,0,0,0,0,0,-1,832,1065,0,0
-385,-41,0,0,0,0,0,0,0,0,0,-1,839,1065,0,0
-378,-41,0,0,0,0,0,0,0,0,0,-1,846,1065,0,0
-371,-41,0,0,0,0,0,0,0,0,0,-1,853,1065,0,0
-364,-41,0,0,0,0,0,0,0,0,0,-1,860,1065,0,0
-357,-41,0,0,0,0,0,0,0,0,0,-1,867,1065,0,0
-350,-41,0,0,0,0,0,0,0,0,0,-1,874,1065,0,0
-343,-41,0,0,0,0,0,0,0,0,0,-1,881,1065,0,0
-336,-41,0,0,0,0,0,0,0,0,0,-1,888,1065,0,0
-329,-41,0,0,0,0,0,0,0,0,0,-1,895,1065,0,0
-322,-41,0,0,0,0,0,0,0,0,0,-1,902,1065,0,0
-315,-41,0,0,0,0,0,0,0,0,0,-1,909,1065,0,0
-308,-41,0,0,0,0,0,0,0,0,0,-1,916,1065,0,0
-301,-41,0,0,0,0,0,0,0,0,0,-1,923,1065,0,0
-294,-41,0,0,0,0,0,0,0,0,0,-1,930,1065,0,0
-287,-41,0,0,0,0,0,0,0,0,0,-1,937,1065,0,0
-280,-41,0,0,0,0,0,0,0,0,0,-1,944,1065,0,0
-273,-41,0,0,0,0,0,0,0,0,0,-1,951,1065,0,0
-266,-41,0,0,0,0,0,0,0,0,0,-1,958,1065,0,0
-259,-41,0,0,0,0,0,0,0,0,0,-1,965,1065,0,0
-252,-41,0,0,0,0,0,0,0,0,0,-1,972,1065,0,0
-245,-41,0,0,0,0,0,0,0,0,0,-1,979,1065,0,0
-238,-41,0,0,0,0,0,0,0,0,0,-1,986,1065,0,0
-231,-41,0,0,0,0,0,0,0,0,0,-1,993,1065,0,0
-224,-41,0,0,0,0,0,0,0,0,0,-1,1000,1065,0,0
-217,-41,0,0,0,0,0,0,0,0,0,-1,1007,1065,0,0
-210,-41,0,0,0,0,0,0,0,0,0,-1,1014,1065,0,0
-203,-41,0,0,0,0,0,0,0,0,0,-1,1021,1065,0,0
-196,-41,0,0,0,0,0,0,0,0,0,-1,1028,1065,0,0
-189,-41,0,0,0,0,0,0,0,0,0,-1,1035,1065,0,0
-182,-41,0,0,0,0,0,0,0,0,0,-1,1042,1065,0,0
-175,-41,0,0,0,0,0,0,0,0,0,-1,1049,1065,0,0
-168,-41,0,0,0,0,0,0,0,0,0,-1,1056,1065,0,0
-161,-41,0,0,0,0,0,0,0,0,0,-1,1063,1065,0,0
-154,-41,0,0,0,0,0,0,0,0,0,-1,1070,1065,0,0
-147,-41,0,0,0,0,0,0,0,0,0,-1,1077,1065,0,0
-140,-41,0,0,0,0,0,0,0,0,0,-1,1084,1065,0,0
-133,-41,0,0,0,0,0,0,0,0,0,-1,1091,1065,0,0
-126,-41,0,0,0,0,0,0,0,0,0,-1,1098,1065,0,0
-119,-41,0,0,0,0,0,0,0,0,0,-1,1105,1065,0,0
-112,-41,0,0,0,0,0,0,0,0,0,-1,1112,1065,0,0
-105,-41,0,0,0,0,0,0,0,0,0,-1,1119,1065,0,0
-98,-41,0,0,0,0,0,0,0,0,0,-1,1126,1065,0,0
-91,-41,0,0,0,0,0,0,0,0,0,-1,1133,1065,0,0
-84,-41,0,0,0,0,0,0,0,0,0,-1,1140,1065,0,0
-77,-41,0,0,0,0,0,0,0,0,0,-1,1147,1065,0,0
-70,-41,0,0,0,0,0,0,0,0,0,-1,1154,1065,0,0
-63,-41,0,0,0,0,0,0,0,0,0,-1,1161,1065,0,0
-56,-41,0,0,0,0,0,0,0,0,0,-1,1168,1065,0,0
-49,-41,0,0,0,0,0,0,0,0,0,-1,1175,1065,0,0
-42,-41,0,0,0,0,0,0,0,0,0,-1,1182,1065,0,0
-35,-41,0,0,0,0,0,0,0,0,0,-1,1189,1065,0,0
-28,-41,0,0,0,0,0,0,0,0,0,-1,1196,1065,0,0
-21,-41,0,0,0,0,0,0,0,0,0,-1,1203,1065,0,0
-14,-41,0,0,0,0,0,0,0,0,0,-1,1210,1065,0,0
-7,-41,0,0,0,0,0,0,0,0,0,-1,1217,1065,0,0
0,-41,0,0,0,0,0,0,0,0,0,-1,1224,1065,0,0
7,-41,0,0,0,0,0,0,0,0,0,-1,1231,1065,0,0
14,-41,0,0,0,0,0,0,0,0,0,-1,1238,1065,0,0
21,-41,0,0,0,0,0,0,0,0,0,-1,1245,1065,0,0
28,-41,0,0,0,0,0,0,0,0,0,-1,1252,1065,0,0
35,-41,0,0,0,0,0,0,0,0,0,-1,1259,1065,0,0
42,-41,0,0,0,0,0,0,0,0,0,-1,1266,1065,0,0
49,-41,0,0,0,0,0,0,0,0,0,-1,1273,1065,0,0
56,-41,0,0,0,0,0,0,0,0,0,-1,1280,1065,0,0
63,-41,0,0,0,0,0,0,0,0,0,-1,1287,1065,0,0
70,-41,0,0,0,0,0,0,0,0,0,-1,1294,1065,0,0
77,-41,0,0,0,0,0,0,0,0,0,-1,1301,1065,0,0
84,-41,0,0,0,0,0,0,0,0,0,-1,1308,1065,0,0
91,-41,0,0,0,0,0,0,0,0,0,-1,1315,1065,0,0
98,-41,0,0,0,0,0,0,0,0,0,-1,1322,1065,0,0
105,-41,0,0,0,0,0,0,0,0,0,-1,1329,1065,0,0
112,-41,0,0,0,0,0,0,0,0,0,-1,1336,1065,0,0
119,-41,0,0,0,0,0,0,0,0,0,-1,1343,1065,0,0
126,-41,0,0,0,0,0,0,0,0,0,-1,1350,1065,0,0
133,-41,0,0,0,0,0,0,0,0,0,-1,1357,1065,0,0
140,-41,0,0,0,0,0,0,0,0,0,-1,1364,1065,0,0
147,-41,0,0,0,0,0,0,0,0,0,-1,1371,1065,0,0
154,-41,0,0,0,0,0,0,0,0,0,-1,1378,1065,0,0
161,-41,0,0,0,0,0,0,0,0,0,-1,1385,1065,0,0
168,-41,0,0,0,0,0,0,0,0,0,-1,1392,1065,0,0
175,-41,0,0,0,0,0,0,0,0,0,-1,1399,1065,0,0
182,-41,0,0,0,0,0,0,0,0,0,-1,1406,1065,0,0
189,-41,0,0,0,0,0,0,0,0,0,-1,1413,1065,0,0
196,-41,0,0,0,0,0,0,0,0,0,-1,1420,1065,0,0
203,-41,0,0,0,0,0,0,0,0,0,-1,1427,1065,0,0
210,-41,0,0,0,0,0,0,0,0,0,-1,1434,1065,0,0
217,-41,0,0,0,0,0,0,0,0,0,-1,1441,1065,0,0
224,-41,0,0,0,0,0,0,0,0,0,-1,1448,1065,0,0
231,-41,0,0,0,0,0,0,0,0,0,-1,1455,1065,0,0
238,-41,0,0,0,0,0,0,0,0,0,-1,1462,1065,0,0
245,-41,0,0,0,0,0,0,0,0,0,-1,1469,1065,0,0
252,-41,0,0,0,0,0,0,0,0,0,-1,1476,1065,0,0
259,-41,0,0,0,0,0,0,0,0,0,-1,1483,1065,0,0
266,-41,0,0,0,0,0,0,0,0,0,-1,1490,1065,0,0
273,-41,0,0,0,0,0,0,0,0,0,-1,1497,1065,0,0
280,-41,0,0,0,0,0,0,0,0,0,-1,1504,1065,0,0
287,-41,0,0,0,0,0,0,0,0,0,-1,1511,1065,0,0
294,-41,0,0,0,0,0,0,0,0,0,-1,1518,1065,0,0
301,-41,0,0,0,0,0,0,0,0,0,-1,1525,1065,0,0
308,-41,0,0,0,0,0,0,0,0,0,-1,1532,1065,0,0
315,-41,0,0,0,0,0,0,0,0,0,-1,1539,1065,0,0
322,-41,0,0,0,0,0,0,0,0,0,-1,1546,1065,0,0
329,-41,0,0,0,0,0,0,0,0,0,-1,1553,1065,0,0
336,-41,0,0,0,0,0,0,0,0,0,-1,1560,1065,0,0
343,-41,0,0,0,0,0,0,0,0,0,-1,1567,1065,0,0
350,-41,0,0,0,0,0,0,0,0,0,-1,1574,1065,0,0
357,-41,0,0,0,0,0,0,0,0,0,-1,1581,1065,0,0
364,-41,0,0,0,0,0,0,0,0,0,-1,1588,1065,0,0
371,-41,0,0,0,0,0,0,0,0,0,-1,1595,1065,0,0
378,-41,0,0,0,0,0,0,0,0,0,-1,1602,1065,0,0
385,-41,0,0,0,0,0,0,0,0,0,-1,1609,1065,0,0
392,-41,0,0,0,0,0,0,0,0,0,-1,1616,1065,0,0
399,-41,0,0,0,0,0,0,0,0,0,-1,1623,1065,0,0
406,-41,0,0,0,0,0,0,0,0,0,-1,1630,1065,0,0
413,-41,0,0,0,0,0,0,0,0,0,-1,1637,1065,0,0
420,-41,0,0,0,0,0,0,0,0,0,-1,1644,1065,0,0
427,-41,0,0,0,0,0,0,0,0,0,-1,1651,1065,0,0
434,-41,0,0,0,0,0,0,0,0,0,-1,1658,1065,0,0
441,-41,0,0,0,0,0,0,0,0,0,-1,1665,1065,0,0
448,-41,0,0,0,0,0,0,0,0,0,-1,1672,1065,0,0
455,-41,0,0,0,0,0,0,0,0,0,-1,1679,1065,0,0
462,-41,0,0,0,0,0,0,0,0,0,-1,1686,1065,0,0
469,-41,0,0,0,0,0,0,0,0,0,-1,1693,1065,0,0
476,-41,0,0,0,0,0,0,0,0,0,-1,1700,1065,0,0
483,-41,0,0,0,0,0,0,0,0,0,-1,1707,1065,0,0
490,-41,0,0,0,0,0,0,0,0,0,-1,1714,1065,0,0
497,-41,0,0,0,0,0,0,0,0,0,-1,1721,1065,0,0
504,-41,0,0,0,0,0,0,0,0,0,-1,1728,1065,0,0
511,-41,0,0,0,0,0,0,0,0,0,-1,1735,1065,0,0
518,-41,0,0,0,0,0,0,0,0,0,-1,1742,1065,0,0
525,-41,0,0,0,0,0,0,0,0,0,-1,1749,1065,0,0
532,-41,0,0,0,0,0,0,0,0,0,-1,1756,1065,0,0
539,-41,0,0,0,0,0,0,0,0,0,-1,1763,1065,0,0
546,-41,0,0,0,0,0,0,0,0,0,-1,1770,1065,0,0
553,-41,0,0,0,0,0,0,0,0,0,-1,1777,1065,0,0
560,-41,0,0,0,0,0,0,0,0,0,-1,1784,1065,0,0
567,-41,0,0,0,0,0,0,0,0,0,-1,1791,1065,0,0
574,-41,0,0,0,0,0,0,0,0,0,-1,1798,1065,0,0
581,-41,0,0,0,0,0,0,0,0,0,-1,1805,1065,0,0
588,-41,0,0,0,0,0,0,0,0,0,-1,1812,1065,0,0
595,-41,0,0,0,0,0,0,0,0,0,-1,1819,1065,0,0
602,-41,0,0,0,0,0,0,0,0,0,-1,1826,1065,0,0
609,-41,0,0,0,0,0,0,0,0,0,-1,1833,1065,0,0
616,-41,0,0,0,0,0,0,0,0,0,-1,1840,1065,0,0
623,-41,0,0,0,0,0,0,0,0,0,-1,1847,1065,0,0
630,-41,0,0,0,0,0,0,0,0,0,-1,1854,1065,0,0
637,-41,0,0,0,0,0,0,0,0,0,-1,1861,1065,0,0
644,-41,0,0,0,0,0,0,0,0,0,-1,1868,1065,0,0
651,-41,36.7898,2.48853,-0.00667361,-0.000512392,-0.0021647,0.000172115,-0.00735812,-1.26453,0.00496378,0.0361443,1875,1065,36.7898,-2.48856
658,-41,36.7332,2.4187,-0.00487841,-0.000433347,-0.0017621,0.000180432,-0.00549218,-1.23562,0.00372306,0.0400546,1882,1065,36.7331,-2.41869
665,-41,36.7819,2.3457,-0.00347258,-0.000318728,-0.00128823,0.000140579,-0.00393189,-1.22831,0.00266935,0.0396003,1889,1065,36.7818,-2.34571
672,-41,36.7306,2.3479,-0.00220221,-0.000361709,-0.000380198,-0.000286263,-0.00227766,-1.3749,0.00143258,0.0370139,1896,1065,36.7306,-2.34793
679,-41,36.7648,2.4856,-0.00111524,-0.000634947,0.00085918,1.70174e-05,-0.0017672,0.921673,0.00118385,0.0385642,1903,1065,36.7648,-2.48563
686,-41,36.875,2.40308,-0.000617696,-0.0010912,0.00204112,0.00120035,-0.00290925,0.72766,0.0024401,0.0425406,1910,1065,36.875,-2.40306
693,-41,36.7889,2.67285,-0.000391177,-0.00156055,0.00302139,0.00210158,-0.00405331,0.689822,0.00361259,0.0420098,1917,1065,36.7889,-2.67289
700,-41,36.8118,2.60059,-0.000352302,-0.00188614,0.00372421,0.00268313,-0.00492158,0.683854,0.00445353,0.0375285,1924,1065,36.8118,-2.60057
707,-41,36.7306,2.51379,-0.00042547,-0.00202331,0.00419766,0.00304862,-0.0054974,0.69136,0.00500111,0.0265369,1931,1065,36.7306,-2.51384
714,-41,36.7371,2.55542,-0.000658113,-0.00192521,0.00450975,0.00326238,-0.0058457,0.715613,0.00532859,0.0186474,1938,1065,36.737,-2.5554
721,-41,36.84,3.42065,-0.00105903,-0.00167096,0.00462401,0.00326913,-0.00599912,0.752362,0.00542785,0.0476645,1945,1065,36.84,-3.42063
728,-41,36.2427,5.12561,0,0,0,0,0,0,0,-1,1952,1065,36.2427,-5.1256
735,-41,36.12,5.05237,-0.00214379,-0.000617393,0.0040585,0.00274904,-0.00551022,0.878338,0.0048565,0.0164478,1959,1065,36.12,-5.05238
742,-41,36.0547,4.97559,-0.0028391,-5.16861e-05,0.00350905,0.0023303,-0.00522109,0.974432,0.00446501,0.0142162,1966,1065,36.0547,-4.97561
749,-41,36.0793,4.88062,-0.00365805,0.000689166,0.00280574,0.00206475,-0.00503363,1.11496,0.00421604,0.0132902,1973,1065,36.0793,-4.88064
756,-41,36.103,4.77466,-0.00423344,0.00172304,0.00169257,0.0021704,-0.0046808,1.3124,0.00404309,0.0130009,1980,1065,36.103,-4.77464
763,-41,36.0516,4.66345,-0.00482497,0.00326237,0.000271113,0.00327145,-0.00483405,1.53732,0.00470861,0.0114061,1987,1065,36.0516,-4.6635
770,-41,35.9849,4.56567,-0.00559973,0.00485696,-0.00142312,0.00504718,-0.00578995,-1.43792,0.00626172,0.0132055,1994,1065,35.9849,-4.56561
777,-41,35.9113,4.45239,-0.00633909,0.00651577,-0.00310125,0.00722484,-0.00704816,-1.34602,0.00824073,0.014588,2001,1065,35.9112,-4.45236
784,-41,35.8031,4.3125,-0.00712114,0.00817756,-0.00478672,0.0095518,-0.00849538,-1.29122,0.0104255,0.0246967,2008,1065,35.8032,-4.31255
791,-41,35.8352,4.23621,-0.00805051,0.0101323,-0.0068066,0.012398,-0.0103162,-1.24947,0.0131324,0.0442619,2015,1065,35.8351,-4.23621
798,-41,34.0027,2.89124,0,0,0,0,0,0,0,-1,2022,1065,34.0027,-2.89119
805,-41,33.834,2.48694,0,0,0,0,0,0,0,-1,2029,1065,33.8339,-2.48692
812,-41,33.6978,1.81311,0,0,0,0,0,0,0,-1,2036,1065,33.6976,-1.81307
-700,-48,-27.7863,-2.22937,0,0,0,0,0,0,0,-1,524,1072,-27.7863,2.22934
-693,-48,-26.8653,-1.92896,0,0,0,0,0,0,0,-1,531,1072,-26.8653,1.9289
-686,-48,-26.4919,-1.33508,0.0454371,0.0430241,-0.0199876,0.0642546,0.0242066,-0.755253,0.0374713,0.0462572,538,1072,-26.4919,1.33507
-679,-48,-27.8006,-2.38745,0.0393404,0.0386566,-0.0118738,0.0508772,0.0271198,-0.771004,0.0293953,0.0426567,545,1072,-27.8006,2.38749
-672,-48,-26.9166,-1.21619,0.0329519,0.0338317,-0.00582951,0.0392379,0.0275457,-0.823056,0.0232622,0.0429172,552,1072,-26.9166,1.21624
-665,-48,-26.3436,-0.00671387,0.0267181,0.0288844,-0.00161141,0.0297428,0.0258596,-1.0813,0.0186693,0.0443784,559,1072,-26.3436,0.006718
-658,-48,-26.0555,0.601318,0.0209407,0.0240251,0.00104829,0.0243477,0.0206182,1.2723,0.0151425,0.0441241,566,1072,-26.0556,-0.601366
-651,-48,-25.9534,1.14941,0.0158466,0.0193881,0.00244296,0.0206346,0.0146001,1.099,0.0122508,0.0345038,573,1072,-25.9534,-1.14938
-644,-48,-26.0935,1.62927,0.0112895,0.0156614,0.00306967,0.0172439,0.00970703,1.0948,0.00998204,0.0185821,580,1072,-26.0935,-1.62924
-637,-48,-26.1063,1.73633,0.00718487,0.00995693,0.00243601,0.0113736,0.00576818,1.04405,0.00656679,0.0173674,587,1072,-26.1062,-1.73638
-630,-48,-26.1049,1.9115,0.00433384,0.00743938,0.000944724,0.00770419,0.00406903,1.29751,0.00445037,0.018371,594,1072,-26.1049,-1.91156
-623,-48,-26.1807,2.09375,0.00202977,0.00486303,-0.00133769,0.0053948,0.00149801,-1.19242,0.00321569,0.0108512,601,1072,-26.1807,-2.0937
-616,-48,-26.1784,2.26367,0.000464039,0.00261199,-0.00349472,0.00519403,-0.002118,-0.934475,0.00434434,0.0102969,608,1072,-26.1784,-2.26369
-609,-48,-26.1329,2.44482,7.31254e-05,0.0016138,-0.00509867,0.00599999,-0.00431307,-0.860374,0.00598074,0.011532,615,1072,-26.1329,-2.44479
-602,-48,-26.1664,2.60364,-0.000154846,0.00100148,-0.0061494,0.00659984,-0.0057532,-0.83227,0.00713762,0.0112086,622,1072,-26.1665,-2.60369
-595,-48,-26.349,2.7323,0,0,0,0,0,0,0,-1,629,1072,-26.349,-2.73229
-588,-48,-26.4579,1.58044,-5.44898e-05,0.000678253,-0.00721218,0.00753336,-0.0069096,-0.810776,0.00834124,0.0432684,636,1072,-26.4579,-1.58042
-581,-48,-26.6819,0.573242,0.000383142,0.000702302,-0.00721276,0.00775725,-0.0066718,-0.796459,0.00833847,0.0415246,643,1072,-26.6819,-0.573274
-574,-48,-26.7781,0.726074,0.000665535,0.000962484,-0.00697643,0.00779202,-0.006164,-0.796038,0.00807577,0.0408406,650,1072,-26.7781,-0.726051
-567,-48,-26.8749,0.84436,0.00104576,0.00140111,-0.00631214,0.00753808,-0.00509121,-0.799469,0.007337,0.0407752,657,1072,-26.8749,-0.84437
-560,-48,-26.9399,0.887451,0.00161307,0.00196733,-0.00515825,0.00695149,-0.00337109,-0.802561,0.00607807,0.0426748,664,1072,-26.94,-0.88746
-553,-48,-26.7449,0.773682,0.00249616,0.00251552,-0.00351348,0.00601933,-0.00100765,-0.786776,0.00438751,0.0441051,671,1072,-26.7449,-0.773646
-546,-48,-26.6805,0.55835,0.00382752,0.00280981,-0.00144361,0.00484933,0.00178799,-0.615953,0.00283175,0.0417424,678,1072,-26.6805,-0.55831
-539,-48,-26.7547,0.508057,0.00547697,0.00274923,0.000172528,0.00548783,0.00273836,0.0629154,0.00316841,0.0418725,685,1072,-26.7547,-0.50801
-532,-48,-26.5811,0.675537,0.00726115,0.0025645,-0.00156944,0.00773732,0.00208833,-0.294574,0.00462213,0.03855,692,1072,-26.581,-0.675517
-525,-48,0,0,0,0,0,0,0,0,0,-1,699,1072,0,0
-518,-48,0,0,0,0,0,0,0,0,0,-1,706,1072,0,0
-511,-48,0,0,0,0,0,0,0,0,0,-1,713,1072,0,0
-504,-48,0,0,0,0,0,0,0,0,0,-1,720,1072,0,0
-497,-48,0,0,0,0,0,0,0,0,0,-1,727,1072,0,0
-490,-48,0,0,0,0,0,0,0,0,0,-1,734,1072,0,0
-483,-48,0,0,0,0,0,0,0,0,0,-1,741,1072,0,0
-476,-48,0,0,0,0,0,0,0,0,0,-1,748,1072,0,0
-469,-48,0,0,0,0,0,0,0,0,0,-1,755,1072,0,0
-462,-48,0,0,0,0,0,0,0,0,0,-1,762,1072,0,0
-455,-48,0,0,0,0,0,0,0,0,0,-1,769,1072,0,0
-448,-48,0,0,0,0,0,0,0,0,0,-1,776,1072,0,0
-441,-48,0,0,0,0,0,0,0,0,0,-1,783,1072,0,0
-434,-48,0,0,0,0,0,0,0,0,0,-1,790,1072,0,0
-427,-48,0,0,0,0,0,0,0,0,0,-1,797,1072,0,0
-420,-48,0,0,0,0,0,0,0,0,0,-1,804,1072,0,0
-413,-48,0,0,0,0,0,0,0,0,0,-1,811,1072,0,0
-406,-48,0,0,0,0,0,0,0,0,0,-1,818,1072,0,0
-399,-48,0,0,0,0,0,0,0,0,0,-1,825,1072,0,0
-392,-48,0,0,0,0,0,0,0,0,0,-1,832,1072,0,0
-385,-48,0,0,0,0,0,0,0,0,0,-1,839,1072,0,0
-378,-48,0,0,0,0,0,0,0,0,0,-1,846,1072,0,0
-371,-48,0,0,0,0,0,0,0,0,0,-1,853,1072,0,0
-364,-48,0,0,0,0,0,0,0,0,0,-1,860,1072,0,0
-357,-48,0,0,0,0,0,0,0,0,0,-1,867,1072,0,0
-350,-48,0,0,0,0,0,0,0,0,0,-1,874,1072,0,0
-343,-48,0,0,0,0,0,0,0,0,0,-1,881,1072,0,0
-336,-48,0,0,0,0,0,0,0,0,0,-1,888,1072,0,0
-329,-48,0,0,0,0,0,0,0,0,0,-1,895,1072,0,0
-322,-48,0,0,0,0,0,0,0,0,0,-1,902,1072,0,0
-315,-48,0,0,0,0,0,0,0,0,0,-1,909,1072,0,0
-308,-48,0,0,0,0,0,0,0,0,0,-1,916,1072,0,0
-301,-48,0,0,0,0,0,0,0,0,0,-1,923,1072,0,0
-294,-48,0,0,0,0,0,0,0,0,0,-1,930,1072,0,0
-287,-48,0,0,0,0,0,0,0,0,0,-1,937,1072,0,0
-280,-48,0,0,0,0,0,0,0,0,0,-1,944,1072,0,0
-273,-48,0,0,0,0,0,0,0,0,0,-1,951,1072,0,0
-266,-48,0,0,0,0,0,0,0,0,0,-1,958,1072,0,0
-259,-48,0,0,0,0,0,0,0,0,0,-1,965,1072,0,0
-252,-48,0,0,0,0,0,0,0,0,0,-1,972,1072,0,0
-245,-48,0,0,0,0,0,0,0,0,0,-1,979,1072,0,0
-238,-48,0,0,0,0,0,0,0,0,0,-1,986,1072,0,0
-231,-48,0,0,0,0,0,0,0,0,0,-1,993,1072,0,0
-224,-48,0,0,0,0,0,0,0,0,0,-1,1000,1072,0,0
-217,-48,0,0,0,0,0,0,0,0,0,-1,1007,1072,0,0
-210,-48,0,0,0,0,0,0,0,0,0,-1,1014,1072,0,0
-203,-48,0,0,0,0,0,0,0,0,0,-1,1021,1072,0,0
-196,-48,0,0,0,0,0,0,0,0,0,-1,1028,1072,0,0
-189,-48,0,0,0,0,0,0,0,0,0,-1,1035,1072,0,0
-182,-48,0,0,0,0,0,0,0,0,0,-1,1042,1072,0,0
-175,-48,0,0,0,0,0,0,0,0,0,-1,1049,1072,0,0
-168,-48,0,0,0,0,0,0,0,0,0,-1,1056,1072,0,0
-161,-48,0,0,0,0,0,0,0,0,0,-1,1063,1072,0,0
-154,-48,0,0,0,0,0,0,0,0,0,-1,1070,1072,0,0
-147,-48,0,0,0,0,0,0,0,0,0,-1,1077,1072,0,0
-140,-48,0,0,0,0,0,0,0,0,0,-1,1084,1072,0,0
-133,-48,0,0,0,0,0,0,0,0,0,-1,1091,1072,0,0
-126,-48,0,0,0,0,0,0,0,0,0,-1,1098,1072,0,0
-119,-48,0,0,0,0,0,0,0,0,0,-1,1105,1072,0,0
-112,-48,0,0,0,0,0,0,0,0,0,-1,1112,1072,0,0
-105,-48,0,0,0,0,0,0,0,0,0,-1,1119,1072,0,0
-98,-48,0,0,0,0,0,0,0,0,0,-1,1126,1072,0,0
-91,-48,0,0,0,0,0,0,0,0,0,-1,1133,1072,0,0
-84,-48,0,0,0,0,0,0,0,0,0,-1,1140,1072,0,0
-77,-48,0,0,0,0,0,0,0,0,0,-1,1147,1072,0,0
-70,-48,0,0,0,0,0,0,0,0,0,-1,1154,1072,0,0
-63,-48,0,0,0,0,0,0,0,0,0,-1,1161,1072,0,0
-56,-48,0,0,0,0,0,0,0,0,0,-1,1168,1072,0,0
-49,-48,0,0,0,0,0,0,0,0,0,-1,1175,1072,0,0
-42,-48,0,0,0,0,0,0,0,0,0,-1,1182,1072,0,0
-35,-48,0,0,0,0,0,0,0,0,0,-1,1189,1072,0,0
-28,-48,0,0,0,0,0,0,0,0,0,-1,1196,1072,0,0
-21,-48,0,0,0,0,0,0,0,0,0,-1,1203,1072,0,0
-14,-48,0,0,0,0,0,0,0,0,0,-1,1210,1072,0,0
-7,-48,0,0,0,0,0,0,0,0,0,-1,1217,1072,0,0
0,-48,0,0,0,0,0,0,0,0,0,-1,1224,1072,0,0
7,-48,0,0,0,0,0,0,0,0,0,-1,1231,1072,0,0
14,-48,0,0,0,0,0,0,0,0,0,-1,1238,1072,0,0
21,-48,0,0,0,0,0,0,0,0,0,-1,1245,1072,0,0
28,-48,0,0,0,0,0,0,0,0,0,-1,1252,1072,0,0
35,-48,0,0,0,0,0,0,0,0,0,-1,1259,1072,0,0
42,-48,0,0,0,0,0,0,0,0,0,-1,1266,1072,0,0
49,-48,0,0,0,0,0,0,0,0,0,-1,1273,1072,0,0
56,-48,0,0,0,0,0,0,0,0,0,-1,1280,1072,0,0
63,-48,0,0,0,0,0,0,0,0,0,-1,1287,1072,0,0
70,-48,0,0,0,0,0,0,0,0,0,-1,1294,1072,0,0
77,-48,0,0,0,0,0,0,0,0,0,-1,1301,1072,0,0
84,-48,0,0,0,0,0,0,0,0,0,-1,1308,1072,0,0
91,-48,0,0,0,0,0,0,0,0,0,-1,1315,1072,0,0
98,-48,0,0,0,0,0,0,0,0,0,-1,1322,1072,0,0
105,-48,0,0,0,0,0,0,0,0,0,-1,1329,1072,0,0
112,-48,0,0,0,0,0,0,0,0,0,-1,1336,1072,0,0
119,-48,0,0,0,0,0,0,0,0,0,-1,1343,1072,0,0
126,-48,0,0,0,0,0,0,0,0,0,-1,1350,1072,0,0
133,-48,0,0,0,0,0,0,0,0,0,-1,1357,1072,0,0
140,-48,0,0,0,0,0,0,0,0,0,-1,1364,1072,0,0
147,-48,0,0,0,0,0,0,0,0,0,-1,1371,1072,0,0
154,-48,0,0,0,0,0,0,0,0,0,-1,1378,1072,0,0
161,-48,0,0,0,0,0,0,0,0,0,-1,1385,1072,0,0
168,-48,0,0,0,0,0,0,0,0,0,-1,1392,1072,0,0
175,-48,0,0,0,0,0,0,0,0,0,-1,1399,1072,0,0
182,-48,0,0,0,0,0,0,0,0,0,-1,1406,1072,0,0
189,-48,0,0,0,0,0,0,0,0,0,-1,1413,1072,0,0
196,-48,0,0,0,0,0,0,0,0,0,-1,1420,1072,0,0
203,-48,0,0,0,0,0,0,0,0,0,-1,1427,1072,0,0
210,-48,0,0,0,0,0,0,0,0,0,-1,1434,1072,0,0
217,-48,0,0,0,0,0,0,0,0,0,-1,1441,1072,0,0
224,-48,0,0,0,0,0,0,0,0,0,-1,1448,1072,0,0
231,-48,0,0,0,0,0,0,0,0,0,-1,1455,1072,0,0
238,-48,0,0,0,0,0,0,0,0,0,-1,1462,1072,0,0
245,-48,0,0,0,0,0,0,0,0,0,-1,1469,1072,0,0
252,-48,0,0,0,0,0,0,0,0,0,-1,1476,1072,0,0
259,-48,0,0,0,0,0,0,0,0,0,-1,1483,1072,0,0
266,-48,0,0,0,0,0,0,0,0,0,-1,1490,1072,0,0
273,-48,0,0,0,0,0,0,0,0,0,-1,1497,1072,0,0
280,-48,0,0,0,0,0,0,0,0,0,-1,1504,1072,0,0
287,-48,0,0,0,0,0,0,0,0,0,-1,1511,1072,0,0
294,-48,0,0,0,0,0,0,0,0,0,-1,1518,1072,0,0
301,-48,0,0,0,0,0,0,0,0,0,-1,1525,1072,0,0
308,-48,0,0,0,0,0,0,0,0,0,-1,1532,1072,0,0
315,-48,0,0,0,0,0,0,0,0,0,-1,1539,1072,0,0
322,-48,0,0,0,0,0,0,0,0,0,-1,1546,1072,0,0
329,-48,0,0,0,0,0,0,0,0,0,-1,1553,1072,0,0
336,-48,0,0,0,0,0,0,0,0,0,-1,1560,1072,0,0
343,-48,0,0,0,0,0,0,0,0,0,-1,1567,1072,0,0
350,-48,0,0,0,0,0,0,0,0,0,-1,1574,1072,0,0
357,-48,0,0,0,0,0,0,0,0,0,-1,1581,1072,0,0
364,-48,0,0,0,0,0,0,0,0,0,-1,1588,1072,0,0
371,-48,0,0,0,0,0,0,0,0,0,-1,1595,1072,0,0
378,-48,0,0,0,0,0,0,0,0,0,-1,1602,1072,0,0
385,-48,0,0,0,0,0,0,0,0,0,-1,1609,1072,0,0
392,-48,0,0,0,0,0,0,0,0,0,-1,1616,1072,0,0
399,-48,0,0,0,0,0,0,0,0,0,-1,1623,1072,0,0
406,-48,0,0,0,0,0,0,0,0,0,-1,1630,1072,0,0
413,-48,0,0,0,0,0,0,0,0,0,-1,1637,1072,0,0
420,-48,0,0,0,0,0,0,0,0,0,-1,1644,1072,0,0
427,-48,0,0,0,0,0,0,0,0,0,-1,1651,1072,0,0
434,-48,0,0,0,0,0,0,0,0,0,-1,1658,1072,0,0
441,-48,0,0,0,0,0,0,0,0,0,-1,1665,1072,0,0
448,-48,0,0,0,0,0,0,0,0,0,-1,1672,1072,0,0
455,-48,0,0,0,0,0,0,0,0,0,-1,1679,1072,0,0
462,-48,0,0,0,0,0,0,0,0,0,-1,1686,1072,0,0
469,-48,0,0,0,0,0,0,0,0,0,-1,1693,1072,0,0
476,-48,0,0,0,0,0,0,0,0,0,-1,1700,1072,0,0
483,-48,0,0,0,0,0,0,0,0,0,-1,1707,1072,0,0
490,-48,0,0,0,0,0,0,0,0,0,-1,1714,1072,0,0
497,-48,0,0,0,0,0,0,0,0,0,-1,1721,1072,0,0
504,-48,0,0,0,0,0,0,0,0,0,-1,1728,1072,0,0
511,-48,0,0,0,0,0,0,0,0,0,-1,1735,1072,0,0
518,-48,0,0,0,0,0,0,0,0,0,-1,1742,1072,0,0
525,-48,0,0,0,0,0,0,0,0,0,-1,1749,1072,0,0
532,-48,0,0,0,0,0,0,0,0,0,-1,1756,1072,0,0
539,-48,0,0,0,0,0,0,0,0,0,-1,1763,1072,0,0
546,-48,0,0,0,0,0,0,0,0,0,-1,1770,1072,0,0
553,-48,0,0,0,0,0,0,0,0,0,-1,1777,1072,0,0
560,-48,0,0,0,0,0,0,0,0,0,-1,1784,1072,0,0
567,-48,0,0,0,0,0,0,0,0,0,-1,1791,1072,0,0
574,-48,0,0,0,0,0,0,0,0,0,-1,1798,1072,0,0
581,-48,0,0,0,0,0,0,0,0,0,-1,1805,1072,0,0
588,-48,0,0,0,0,0,0,0,0,0,-1,1812,1072,0,0
595,-48,0,0,0,0,0,0,0,0,0,-1,1819,1072,0,0
602,-48,0,0,0,0,0,0,0,0,0,-1,1826,1072,0,0
609,-48,0,0,0,0,0,0,0,0,0,-1,1833,1072,0,0
616,-48,0,0,0,0,0,0,0,0,0,-1,1840,1072,0,0
623,-48,0,0,0,0,0,0,0,0,0,-1,1847,1072,0,0
630,-48,0,0,0,0,0,0,0,0,0,-1,1854,1072,0,0
637,-48,0,0,0,0,0,0,0,0,0,-1,1861,1072,0,0
644,-48,0,0,0,0,0,0,0,0,0,-1,1868,1072,0,0
651,-48,36.7678,2.46277,-0.00550295,-0.000466111,-0.00169783,5.27503e-05,-0.00602181,-1.27421,0.00403224,0.0322634,1875,1072,36.7678,-2.4628
658,-48,36.7197,2.53503,-0.00403338,-0.000347793,-0.00145769,0.000159043,-0.00454022,-1.23617,0.00308119,0.0374724,1882,1072,36.7198,-2.53507
665,-48,36.587,2.58191,-0.00286542,-0.000230615,-0.00110564,0.000171861,-0.00326789,-1.22168,0.00223808,0.0414773,1889,1072,36.5871,-2.58192
672,-48,36.2029,2.77893,0,0,0,0,0,0,0,-1,1896,1072,36.2029,-2.77889
679,-48,36.6034,2.56055,-0.000822377,-0.000581303,0.000816959,0.000123964,-0.00152764,0.858642,0.00106216,0.0399099,1903,1072,36.6034,-2.56049
686,-48,36.7832,2.4491,-0.000461974,-0.00104276,0.00189337,0.00116314,-0.00266787,0.709305,0.002268,0.0417052,1910,1072,36.7832,-2.44906
693,-48,36.717,2.52856,-0.000322065,-0.00151416,0.00279308,0.00193786,-0.00377408,0.680274,0.00335411,0.0398825,1917,1072,36.717,-2.52851
700,-48,36.8099,2.41833,-0.000366526,-0.00183525,0.00344335,0.0024199,-0.00462167,0.680337,0.00413117,0.0349393,1924,1072,36.8099,-2.41829
707,-48,36.7589,2.46033,-0.000492671,-0.00200365,0.00389797,0.00272235,-0.00521867,0.689677,0.00465965,0.0267688,1931,1072,36.7589,-2.46034
714,-48,36.7307,2.60034,-0.000743756,-0.00191539,0.0042067,0.00291772,-0.00557687,0.716214,0.00498381,0.0302071,1938,1072,36.7307,-2.60029
721,-48,36.7214,2.82263,0,0,0,0,0,0,0,-1,1945,1072,36.7215,-2.82264
728,-48,36.0851,5.26465,0,0,0,0,0,0,0,-1,1952,1072,36.0851,-5.26467
735,-48,36.0001,5.13928,-0.00217333,-0.000766679,0.00391693,0.00250957,-0.00544958,0.874232,0.00469856,0.0174386,1959,1072,36.0001,-5.13933
742,-48,35.908,5.0022,-0.00276759,-0.000285326,0.00344651,0.00213672,-0.00518964,0.958226,0.00435057,0.0148569,1966,1072,35.908,-5.00214
749,-48,35.9355,4.86169,-0.0034947,0.000307048,0.00272048,0.00172496,-0.00491261,1.09033,0.00397678,0.0139877,1973,1072,35.9355,-4.86172
756,-48,35.9379,4.73633,-0.00395237,0.00122599,0.00154743,0.00165317,-0.00437954,1.30145,0.0035996,0.0129815,1980,1072,35.9379,-4.7363
763,-48,35.8971,4.63635,-0.0043671,0.00217031,3.29419e-05,0.00217048,-0.00436727,1.56576,0.00384494,0.0124237,1987,1072,35.8971,-4.63631
770,-48,35.8807,4.51917,-0.00490991,0.00314298,-0.00188182,0.00356102,-0.00532796,-1.3522,0.00516574,0.0132234,1994,1072,35.8808,-4.51919
777,-48,35.8032,4.38367,-0.00536832,0.00383309,-0.003985,0.00531899,-0.00685422,-1.21389,0.00704681,0.0119173,2001,1072,35.8032,-4.38367
784,-48,35.7133,4.22278,-0.00584537,0.00416473,-0.00634088,0.00723787,-0.00891852,-1.1195,0.00934471,0.023236,2008,1072,35.7132,-4.22275
791,-48,34.3777,2.81323,0,0,0,0,0,0,0,-1,2015,1072,34.3777,-2.81321
798,-48,34.0959,2.73047,-0.00635164,0.00388063,-0.0134818,0.0131844,-0.0156554,-0.966747,0.016671,0.0489859,2022,1072,34.0959,-2.73051
805,-48,33.9495,2.58301,-0.00540647,0.00359764,-0.0188323,0.0184585,-0.0202674,-0.902726,0.0223665,0.0446523,2029,1072,33.9495,-2.58299
812,-48,33.7478,2.11816,0,0,0,0,0,0,0,-1,2036,1072,33.7478,-2.1182
-700,-55,-27.2876,-1.92114,0.0500556,0.0588723,-0.0550314,0.109672,-0.000743754,-0.825366,0.0733636,0.0458502,524,1079,-27.2876,1.9212
-693,-55,-27.102,-1.65588,0.0472655,0.0524381,-0.0385098,0.0884483,0.0112552,-0.818928,0.0555949,0.0477174,531,1079,-27.102,1.65592
-686,-55,-27.6718,-2.18469,0,0,0,0,0,0,0,-1,538,1079,-27.6718,2.18466
-679,-55,-26.9951,-1.87244,0.0366755,0.0393523,-0.0151262,0.0531992,0.0228287,-0.829525,0.0308173,0.0488608,545,1079,-26.9951,1.87245
-672,-55,-26.5363,-1.34985,0.0307334,0.0333495,-0.00770701,0.0398587,0.0242243,-0.869457,0.0231899,0.0489419,552,1079,-26.5363,1.34985
-665,-55,-26.2307,-0.490723,0.0249491,0.0278225,-0.00256888,0.0293291,0.0234424,-1.04036,0.0179158,0.0480958,559,1079,-26.2306,0.490747
-658,-55,-26.1596,0.349609,0.0195917,0.0227808,0.000677136,0.0229186,0.0194539,1.37001,0.0142651,0.0473187,566,1079,-26.1596,-0.349641
-651,-55,-25.9722,0.978516,0.0148801,0.0182051,0.00242253,0.0194807,0.0136045,1.08612,0.0115385,0.039065,573,1079,-25.9722,-0.978518
-644,-55,-25.9421,1.54114,0.0106951,0.0147237,0.00326852,0.0165488,0.00887003,1.06155,0.00956269,0.0202138,580,1079,-25.9421,-1.54109
-637,-55,-25.9485,1.68384,0.00678746,0.00881756,0.00310255,0.0110669,0.00453814,0.943494,0.00642383,0.0151781,587,1079,-25.9485,-1.68378
-630,-55,-25.9275,1.88257,0.00407788,0.00681216,0.00167105,0.00760407,0.00328598,1.12825,0.00440367,0.0166375,594,1079,-25.9275,-1.88251
-623,-55,-25.997,2.09998,0.00200097,0.00457789,-0.0006413,0.00472867,0.00185019,-1.33988,0.00275153,0.0155769,601,1079,-25.997,-2.10003
-616,-55,-26.0169,2.26794,0.000570543,0.00259443,-0.00277929,0.00454027,-0.0013753,-0.959989,0.00357458,0.0150066,608,1079,-26.0169,-2.26795
-609,-55,-25.9816,2.48975,0.000169662,0.00173227,-0.00433105,0.00535192,-0.00344999,-0.874637,0.00512118,0.014979,615,1079,-25.9815,-2.48976
-602,-55,-25.973,2.66455,-4.41602e-05,0.00124938,-0.00533305,0.00597474,-0.00476952,-0.845742,0.0062162,0.0133215,622,1079,-25.973,-2.66449
-595,-55,-25.8082,2.90747,0,0,0,0,0,0,0,-1,629,1079,-25.8082,-2.90745
-588,-55,-26.0842,1.77063,0,0,0,0,0,0,0,-1,636,1079,-26.0842,-1.77068
-581,-55,-26.3603,0.633911,0,0,0,0,0,0,0,-1,643,1079,-26.3603,-0.633903
-574,-55,-26.7521,0.798584,0.000686475,0.00142559,-0.00617525,0.00724233,-0.00513026,-0.815285,0.00717793,0.0399025,650,1079,-26.7521,-0.798622
-567,-55,-26.7202,0.696289,0.00102317,0.00189271,-0.00565049,0.00712513,-0.00420925,-0.823794,0.0066157,0.0381954,657,1079,-26.7201,-0.696307
-560,-55,-26.7724,0.504517,0.00151548,0.00247419,-0.00467213,0.00669149,-0.00270182,-0.836518,0.00558391,0.0426421,664,1079,-26.7724,-0.50455
-553,-55,-26.6613,0.641357,0.00226283,0.00302018,-0.00318569,0.00584962,-0.000566607,-0.844555,0.00410168,0.0431504,671,1079,-26.6613,-0.641297
-546,-55,-26.6561,0.422485,0.00341775,0.00328929,-0.00116295,0.00451824,0.0021888,-0.757811,0.00260903,0.0387143,678,1079,-26.6561,-0.422465
-539,-55,-26.772,0.480103,0.00493724,0.00320609,0.000657892,0.00515889,0.00298445,0.324955,0.0029907,0.0385374,685,1079,-26.772,-0.480043
-532,-55,-26.7611,0.705688,0.0063611,0.00285915,-0.000352878,0.0063963,0.00282394,-0.0994342,0.00370132,0.0391278,692,1079,-26.7611,-0.705688
-525,-55,0,0,0,0,0,0,0,0,0,-1,699,1079,0,0
-518,-55,0,0,0,0,0,0,0,0,0,-1,706,1079,0,0
-511,-55,0,0,0,0,0,0,0,0,0,-1,713,1079,0,0
-504,-55,0,0,0,0,0,0,0,0,0,-1,720,1079,0,0
-497,-55,0,0,0,0,0,0,0,0,0,-1,727,1079,0,0
-490,-55,0,0,0,0,0,0,0,0,0,-1,734,1079,0,0
-483,-55,0,0,0,0,0,0,0,0,0,-1,741,1079,0,0
-476,-55,0,0,0,0,0,0,0,0,0,-1,748,1079,0,0
-469,-55,0,0,0,0,0,0,0,0,0,-1,755,1079,0,0
-462,-55,0,0,0,0,0,0,0,0,0,-1,762,1079,0,0
-455,-55,0,0,0,0,0,0,0,0,0,-1,769,1079,0,0
-448,-55,0,0,0,0,0,0,0,0,0,-1,776,1079,0,0
-441,-55,0,0,0,0,0,0,0,0,0,-1,783,1079,0,0
-434,-55,0,0,0,0,0,0,0,0,0,-1,790,1079,0,0
-427,-55,0,0,0,0,0,0,0,0,0,-1,797,1079,0,0
-420,-55,0,0,0,0,0,0,0,0,0,-1,804,1079,0,0
-413,-55,0,0,0,0,0,0,0,0,0,-1,811,1079,0,0
-406,-55,0,0,0,0,0,0,0,0,0,-1,818,1079,0,0
-399,-55,0,0,0,0,0,0,0,0,0,-1,825,1079,0,0
-392,-55,0,0,0,0,0,0,0,0,0,-1,832,1079,0,0
-385,-55,0,0,0,0,0,0,0,0,0,-1,839,1079,0,0
-378,-55,0,0,0,0,0,0,0,0,0,-1,846,1079,0,0
-371,-55,0,0,0,0,0,0,0,0,0,-1,853,1079,0,0
-364,-55,0,0,0,0,0,0,0,0,0,-1,860,1079,0,0
-357,-55,0,0,0,0,0,0,0,0,0,-1,867,1079,0,0
-350,-55,0,0,0,0,0,0,0,0,0,-1,874,1079,0,0
-343,-55,0,0,0,0,0,0,0,0,0,-1,881,1079,0,0
-336,-55,0,0,0,0,0,0,0,0,0,-1,888,1079,0,0
-329,-55,0,0,0,0,0,0,0,0,0,-1,895,1079,0,0
-322,-55,0,0,0,0,0,0,0,0,0,-1,902,1079,0,0
-315,-55,0,0,0,0,0,0,0,0,0,-1,909,1079,0,0
-308,-55,0,0,0,0,0,0,0,0,0,-1,916,1079,0,0
-301,-55,0,0,0,0,0,0,0,0,0,-1,923,1079,0,0
-294,-55,0,0,0,0,0,0,0,0,0,-1,930,1079,0,0
-287,-55,0,0,0,0,0,0,0,0,0,-1,937,1079,0,0
-280,-55,0,0,0,0,0,0,0,0,0,-1,944,1079,0,0
-273,-55,0,0,0,0,0,0,0,0,0,-1,951,1079,0,0
-266,-55,0,0,0,0,0,0,0,0,0,-1,958,1079,0,0
-259,-55,0,0,0,0,0,0,0,0,0,-1,965,1079,0,0
-252,-55,0,0,0,0,0,0,0,0,0,-1,972,1079,0,0
-245,-55,0,0,0,0,0,0,0,0,0,-1,979,1079,0,0
-238,-55,0,0,0,0,0,0,0,0,0,-1,986,1079,0,0
-231,-55,0,0,0,0,0,0,0,0,0,-1,993,1079,0,0
-224,-55,0,0,0,0,0,0,0,0,0,-1,1000,1079,0,0
-217,-55,0,0,0,0,0,0,0,0,0,-1,1007,1079,0,0
-210,-55,0,0,0,0,0,0,0,0,0,-1,1014,1079,0,0
-203,-55,0,0,0,0,0,0,0,0,0,-1,1021,1079,0,0
-196,-55,0,0,0,0,0,0,0,0,0,-1,1028,1079,0,0
-189,-55,0,0,0,0,0,0,0,0,0,-1,1035,1079,0,0
-182,-55,0,0,0,0,0,0,0,0,0,-1,1042,1079,0,0
-175,-55,0,0,0,0,0,0,0,0,0,-1,1049,1079,0,0
-168,-55,0,0,0,0,0,0,0,0,0,-1,1056,1079,0,0
-161,-55,0,0,0,0,0,0,0,0,0,-1,1063,1079,0,0
-154,-55,0,0,0,0,0,0,0,0,0,-1,1070,1079,0,0
-147,-55,0,0,0,0,0,0,0,0,0,-1,1077,1079,0,0
-140,-55,0,0,0,0,0,0,0,0,0,-1,1084,1079,0,0
-133,-55,0,0,0,0,0,0,0,0,0,-1,1091,1079,0,0
-126,-55,0,0,0,0,0,0,0,0,0,-1,1098,1079,0,0
-119,-55,0,0,0,0,0,0,0,0,0,-1,1105,1079,0,0
-112,-55,0,0,0,0,0,0,0,0,0,-1,1112,1079,0,0
-105,-55,0,0,0,0,0,0,0,0,0,-1,1119,1079,0,0
-98,-55,0,0,0,0,0,0,0,0,0,-1,1126,1079,0,0
-91,-55,0,0,0,0,0,0,0,0,0,-1,1133,1079,0,0
-84,-55,0,0,0,0,0,0,0,0,0,-1,1140,1079,0,0
-77,-55,0,0,0,0,0,0,0,0,0,-1,1147,1079,0,0
-70,-55,0,0,0,0,0,0,0,0,0,-1,1154,1079,0,0
-63,-55,0,0,0,0,0,0,0,0,0,-1,1161,1079,0,0
-56,-55,0,0,0,0,0,0,0,0,0,-1,1168,1079,0,0
-49,-55,0,0,0,0,0,0,0,0,0,-1,1175,1079,0,0
-42,-55,0,0,0,0,0,0,0,0,0,-1,1182,1079,0,0
-35,-55,0,0,0,0,0,0,0,0,0,-1,1189,1079,0,0
-28,-55,0,0,0,0,0,0,0,0,0,-1,1196,1079,0,0
-21,-55,0,0,0,0,0,0,0,0,0,-1,1203,1079,0,0
-14,-55,0,0,0,0,0,0,0,0,0,-1,1210,1079,0,0
-7,-55,0,0,0,0,0,0,0,0,0,-1,1217,1079,0,0
0,-55,0,0,0,0,0,0,0,0,0,-1,1224,1079,0,0
7,-55,0,0,0,0,0,0,0,0,0,-1,1231,1079,0,0
14,-55,0,0,0,0,0,0,0,0,0,-1,1238,1079,0,0
21,-55,0,0,0,0,0,0,0,0,0,-1,1245,1079,0,0
28,-55,0,0,0,0,0,0,0,0,0,-1,1252,1079,0,0
35,-55,0,0,0,0,0,0,0,0,0,-1,1259,1079,0,0
42,-55,0,0,0,0,0,0,0,0,0,-1,1266,1079,0,0
49,-55,0,0,0,0,0,0,0,0,0,-1,1273,1079,0,0
56,-55,0,0,0,0,0,0,0,0,0,-1,1280,1079,0,0
63,-55,0,0,0,0,0,0,0,0,0,-1,1287,1079,0,0
70,-55,0,0,0,0,0,0,0,0,0,-1,1294,1079,0,0
77,-55,0,0,0,0,0,0,0,0,0,-1,1301,1079,0,0
84,-55,0,0,0,0,0,0,0,0,0,-1,1308,1079,0,0
91,-55,0,0,0,0,0,0,0,0,0,-1,1315,1079,0,0
98,-55,0,0,0,0,0,0,0,0,0,-1,1322,1079,0,0
105,-55,0,0,0,0,0,0,0,0,0,-1,1329,1079,0,0
112,-55,0,0,0,0,0,0,0,0,0,-1,1336,1079,0,0
119,-55,0,0,0,0,0,0,0,0,0,-1,1343,1079,0,0
126,-55,0,0,0,0,0,0,0,0,0,-1,1350,1079,0,0
133,-55,0,0,0,0,0,0,0,0,0,-1,1357,1079,0,0
140,-55,0,0,0,0,0,0,0,0,0,-1,1364,1079,0,0
147,-55,0,0,0,0,0,0,0,0,0,-1,1371,1079,0,0
154,-55,0,0,0,0,0,0,0,0,0,-1,1378,1079,0,0
161,-55,0,0,0,0,0,0,0,0,0,-1,1385,1079,0,0
168,-55,0,0,0,0,0,0,0,0,0,-1,1392,1079,0,0
175,-55,0,0,0,0,0,0,0,0,0,-1,1399,1079,0,0
182,-55,0,0,0,0,0,0,0,0,0,-1,1406,1079,0,0
189,-55,0,0,0,0,0,0,0,0,0,-1,1413,1079,0,0
196,-55,0,0,0,0,0,0,0,0,0,-1,1420,1079,0,0
203,-55,0,0,0,0,0,0,0,0,0,-1,1427,1079,0,0
210,-55,0,0,0,0,0,0,0,0,0,-1,1434,1079,0,0
217,-55,0,0,0,0,0,0,0,0,0,-1,1441,1079,0,0
224,-55,0,0,0,0,0,0,0,0,0,-1,1448,1079,0,0
231,-55,0,0,0,0,0,0,0,0,0,-1,1455,1079,0,0
238,-55,0,0,0,0,0,0,0,0,0,-1,1462,1079,0,0
245,-55,0,0,0,0,0,0,0,0,0,-1,1469,1079,0,0
252,-55,0,0,0,0,0,0,0,0,0,-1,1476,1079,0,0
259,-55,0,0,0,0,0,0,0,0,0,-1,1483,1079,0,0
266,-55,0,0,0,0,0,0,0,0,0,-1,1490,1079,0,0
273,-55,0,0,0,0,0,0,0,0,0,-1,1497,1079,0,0
280,-55,0,0,0,0,0,0,0,0,0,-1,1504,1079,0,0
287,-55,0,0,0,0,0,0,0,0,0,-1,1511,1079,0,0
294,-55,0,0,0,0,0,0,0,0,0,-1,1518,1079,0,0
301,-55,0,0,0,0,0,0,0,0,0,-1,1525,1079,0,0
308,-55,0,0,0,0,0,0,0,0,0,-1,1532,1079,0,0
315,-55,0,0,0,0,0,0,0,0,0,-1,1539,1079,0,0
322,-55,0,0,0,0,0,0,0,0,0,-1,1546,1079,0,0
329,-55,0,0,0,0,0,0,0,0,0,-1,1553,1079,0,0
336,-55,0,0,0,0,0,0,0,0,0,-1,1560,1079,0,0
343,-55,0,0,0,0,0,0,0,0,0,-1,1567,1079,0,0
350,-55,0,0,0,0,0,0,0,0,0,-1,1574,1079,0,0
357,-55,0,0,0,0,0,0,0,0,0,-1,1581,1079,0,0
364,-55,0,0,0,0,0,0,0,0,0,-1,1588,1079,0,0
371,-55,0,0,0,0,0,0,0,0,0,-1,1595,1079,0,0
378,-55,0,0,0,0,0,0,0,0,0,-1,1602,1079,0,0
385,-55,0,0,0,0,0,0,0,0,0,-1,1609,1079,0,0
392,-55,0,0,0,0,0,0,0,0,0,-1,1616,1079,0,0
399,-55,0,0,0,0,0,0,0,0,0,-1,1623,1079,0,0
406,-55,0,0,0,0,0,0,0,0,0,-1,1630,1079,0,0
413,-55,0,0,0,0,0,0,0,0,0,-1,1637,1079,0,0
420,-55,0,0,0,0,0,0,0,0,0,-1,1644,1079,0,0
427,-55,0,0,0,0,0,0,0,0,0,-1,1651,1079,0,0
434,-55,0,0,0,0,0,0,0,0,0,-1,1658,1079,0,0
441,-55,0,0,0,0,0,0,0,0,0,-1,1665,1079,0,0
448,-55,0,0,0,0,0,0,0,0,0,-1,1672,1079,0,0
455,-55,0,0,0,0,0,0,0,0,0,-1,1679,1079,0,0
462,-55,0,0,0,0,0,0,0,0,0,-1,1686,1079,0,0
469,-55,0,0,0,0,0,0,0,0,0,-1,1693,1079,0,0
476,-55,0,0,0,0,0,0,0,0,0,-1,1700,1079,0,0
483,-55,0,0,0,0,0,0,0,0,0,-1,1707,1079,0,0
490,-55,0,0,0,0,0,0,0,0,0,-1,1714,1079,0,0
497,-55,0,0,0,0,0,0,0,0,0,-1,1721,1079,0,0
504,-55,0,0,0,0,0,0,0,0,0,-1,1728,1079,0,0
511,-55,0,0,0,0,0,0,0,0,0,-1,1735,1079,0,0
518,-55,0,0,0,0,0,0,0,0,0,-1,1742,1079,0,0
525,-55,0,0,0,0,0,0,0,0,0,-1,1749,1079,0,0
532,-55,0,0,0,0,0,0,0,0,0,-1,1756,1079,0,0
539,-55,0,0,0,0,0,0,0,0,0,-1,1763,1079,0,0
546,-55,0,0,0,0,0,0,0,0,0,-1,1770,1079,0,0
553,-55,0,0,0,0,0,0,0,0,0,-1,1777,1079,0,0
560,-55,0,0,0,0,0,0,0,0,0,-1,1784,1079,0,0
567,-55,0,0,0,0,0,0,0,0,0,-1,1791,1079,0,0
574,-55,0,0,0,0,0,0,0,0,0,-1,1798,1079,0,0
581,-55,0,0,0,0,0,0,0,0,0,-1,1805,1079,0,0
588,-55,0,0,0,0,0,0,0,0,0,-1,1812,1079,0,0
595,-55,0,0,0,0,0,0,0,0,0,-1,1819,1079,0,0
602,-55,0,0,0,0,0,0,0,0,0,-1,1826,1079,0,0
609,-55,0,0,0,0,0,0,0,0,0,-1,1833,1079,0,0
616,-55,0,0,0,0,0,0,0,0,0,-1,1840,1079,0,0
623,-55,0,0,0,0,0,0,0,0,0,-1,1847,1079,0,0
630,-55,0,0,0,0,0,0,0,0,0,-1,1854,1079,0,0
637,-55,0,0,0,0,0,0,0,0,0,-1,1861,1079,0,0
644,-55,0,0,0,0,0,0,0,0,0,-1,1868,1079,0,0
651,-55,36.8035,2.42249,-0.00345804,0.00027697,-0.0013213,0.000697131,-0.0038782,-1.26292,0.00284645,0.0345691,1875,1079,36.8035,-2.4225
658,-55,36.7941,2.64844,-0.00261649,0.000421531,-0.00120103,0.000838978,-0.00303393,-1.23628,0.00235268,0.0337446,1882,1079,36.7941,-2.64844
665,-55,36.6271,2.75208,-0.00189028,0.000506713,-0.000927599,0.000823746,-0.00220732,-1.24146,0.00180974,0.0391479,1889,1079,36.6271,-2.75203
672,-55,36.5331,2.63806,-0.0010775,0.000368182,-0.000220487,0.000401062,-0.00111038,-1.42276,0.000904096,0.040087,1896,1079,36.5331,-2.63809
679,-55,36.6556,2.48401,-0.000443185,3.37405e-06,0.000787503,0.000598639,-0.00103845,0.923537,0.000956476,0.0380923,1903,1079,36.6557,-2.48403
686,-55,36.702,2.32654,-0.000285889,-0.000526226,0.00175994,0.00135798,-0.00217009,0.751311,0.00205484,0.0401401,1910,1079,36.7021,-2.32655
693,-55,36.6503,2.42761,-0.000260714,-0.00105942,0.0025801,0.00195075,-0.00327088,0.708617,0.00304666,0.0385035,1917,1079,36.6502,-2.42758
700,-55,36.7645,2.37549,-0.00041451,-0.00143665,0.00317515,0.00229044,-0.00414159,0.705603,0.00376445,0.0333743,1924,1079,36.7645,-2.37545
707,-55,36.7708,2.41846,-0.000605166,-0.00167638,0.00361755,0.00251621,-0.00479776,0.711903,0.00429066,0.0271243,1931,1079,36.7708,-2.41841
714,-55,36.7401,2.61243,-0.000872162,-0.00163727,0.00393072,0.00269457,-0.00520401,0.736889,0.00463633,0.0375735,1938,1079,36.7401,-2.61248
721,-55,36.7714,2.88025,0,0,0,0,0,0,0,-1,1945,1079,36.7713,-2.88031
728,-55,35.8979,5.31396,0,0,0,0,0,0,0,-1,1952,1079,35.898,-5.31399
735,-55,35.812,5.15125,-0.00222143,-0.000800293,0.00382115,0.00237579,-0.00539752,0.877327,0.00459956,0.0176752,1959,1079,35.8121,-5.15124
742,-55,35.7974,5.01611,-0.00280361,-0.000413717,0.003473,0.00206416,-0.00528148,0.951088,0.0043745,0.0180956,1966,1079,35.7974,-5.01617
749,-55,35.8264,4.87537,-0.00356739,6.67813e-05,0.00283904,0.00162044,-0.00512106,1.07007,0.00406336,0.0135791,1973,1079,35.8264,-4.87532
756,-55,35.7593,4.72876,-0.00400529,0.000889771,0.00178941,0.00147414,-0.00458966,1.25515,0.00365172,0.0119856,1980,1079,35.7593,-4.72881
763,-55,35.7268,4.625,-0.00441695,0.00167723,0.000418179,0.00170579,-0.00444552,1.5026,0.003667,0.0147244,1987,1079,35.7269,-4.62504
770,-55,35.7328,4.48633,-0.00498888,0.00247212,-0.00133503,0.0027038,-0.00522057,-1.39896,0.00465142,0.0157081,1994,1079,35.7328,-4.48635
777,-55,35.6816,4.33618,-0.00551563,0.00297124,-0.00328719,0.00409552,-0.00663991,-1.24125,0.00625586,0.0128687,2001,1079,35.6816,-4.33614
784,-55,35.6191,4.005,-0.00610482,0.00310965,-0.00552736,0.00569813,-0.0086933,-1.13283,0.00836866,0.0276294,2008,1079,35.6191,-4.00495
791,-55,34.136,2.99902,0,0,0,0,0,0,0,-1,2015,1079,34.1359,-2.99905
798,-55,34.3237,2.74292,-0.00696192,0.00243128,-0.0125104,0.0110976,-0.0156282,-0.964966,0.0155039,0.0475369,2022,1079,34.3238,-2.74289
805,-55,34.4641,2.4585,-0.00636784,0.00186085,-0.0178616,0.0160758,-0.0205828,-0.898597,0.0212181,0.0446111,2029,1079,34.4641,-2.45846
812,-55,34.5654,2.21777,-0.00473677,0.00151617,-0.0248546,0.0234401,-0.0266607,-0.847965,0.0289456,0.0449311,2036,1079,34.5655,-2.21781
-700,-62,-26.7637,-1.56287,0.0492048,0.0755127,-0.0665096,0.130157,-0.00543918,-0.883026,0.0886398,0.0486427,524,1086,-26.7637,1.56289
-693,-62,-26.6394,-1.28748,0.045661,0.0619453,-0.0463602,0.100873,0.00673341,-0.872325,0.0651203,0.0481493,531,1086,-26.6394,1.28744
-686,-62,-26.8373,-1.16589,0.040453,0.0506363,-0.0306182,0.0765833,0.014506,-0.867791,0.0469729,0.0459062,538,1086,-26.8373,1.16593
-679,-62,-26.5551,-1.8158,0,0,0,0,0,0,0,-1,545,1086,-26.5551,1.81582
-672,-62,-26.4114,-1.64856,0,0,0,0,0,0,0,-1,552,1086,-26.4114,1.64852
-665,-62,-26.0526,-0.94165,0.0233759,0.0267925,-0.00386676,0.0293115,0.0208569,-0.993403,0.0174207,0.0491823,559,1086,-26.0526,0.941701
-658,-62,-26.0605,0.900757,0.0182921,0.0213044,1.80493e-05,0.0213045,0.018292,1.5648,0.013313,0.0480566,566,1086,-26.0605,-0.900796
-651,-62,-25.7928,1.19592,0.0138767,0.0166604,0.00217076,0.0178472,0.0126899,1.07048,0.0106056,0.0405078,573,1086,-25.7928,-1.19589
-644,-62,-25.7559,1.46948,0.010042,0.0133152,0.00326755,0.0153331,0.00802415,1.01757,0.0088558,0.0140527,580,1086,-25.7558,-1.4695
-637,-62,-25.7716,1.68188,0.00632407,0.00710323,0.0036545,0.0103889,0.00303844,0.838499,0.00616782,0.0114618,587,1086,-25.7716,-1.68184
-630,-62,-25.79,1.87463,0.00380099,0.00579465,0.0022932,0.00729831,0.00229733,0.990423,0.00430898,0.0129651,594,1086,-25.79,-1.8746
-623,-62,-25.7984,2.09167,0.0019937,0.00390857,-2.11635e-05,0.0039088,0.00199347,-1.55975,0.0022569,0.0157107,601,1086,-25.7984,-2.09172
-616,-62,-25.7923,2.3114,0.000740948,0.00218619,-0.00206215,0.00364867,-0.000721528,-0.953923,0.00270522,0.0155294,608,1086,-25.7923,-2.31135
-609,-62,-25.7802,2.51038,0.000368371,0.00146245,-0.00352898,0.00448654,-0.00265572,-0.862293,0.0041685,0.014549,615,1086,-25.7802,-2.5104
-602,-62,-25.7472,2.70288,0.000181888,0.00107249,-0.00449814,0.00514732,-0.00389294,-0.834736,0.00523612,0.0149032,622,1086,-25.7472,-2.70287
-595,-62,-25.5443,3.05396,0,0,0,0,0,0,0,-1,629,1086,-25.5443,-3.05392
-588,-62,-25.9202,2.04919,0,0,0,0,0,0,0,-1,636,1086,-25.9202,-2.04925
-581,-62,-26.296,1.04456,0,0,0,0,0,0,0,-1,643,1086,-26.296,-1.04457
-574,-62,-26.6986,0.754639,0.000727308,0.00130729,-0.00543702,0.00646205,-0.00442745,-0.812041,0.00632353,0.0345003,650,1086,-26.6986,-0.754671
-567,-62,-26.6791,0.517212,0.000960147,0.00176858,-0.00506772,0.00644817,-0.00371945,-0.825195,0.00594033,0.037772,657,1086,-26.6792,-0.51719
-560,-62,-26.593,0.134521,0.00128851,0.00235095,-0.00429514,0.0061476,-0.00250813,-0.846925,0.00514253,0.0416048,664,1086,-26.593,-0.134478
-553,-62,-26.5963,0.544922,0.00174504,0.00292938,-0.00302375,0.0054184,-0.000743977,-0.882094,0.00388408,0.0360241,671,1086,-26.5962,-0.54493
-546,-62,-26.6205,0.575806,0.00248681,0.0032852,-0.00112886,0.00408336,0.00168865,-0.955348,0.00236925,0.0312994,678,1086,-26.6205,-0.575798
-539,-62,-26.7429,0.62146,0.00364892,0.00326647,0.000881561,0.00435976,0.00255564,0.678595,0.00252954,0.0370608,685,1086,-26.7429,-0.621448
-532,-62,-26.5889,0.904663,0,0,0,0,0,0,0,-1,692,1086,-26.5889,-0.904661
-525,-62,0,0,0,0,0,0,0,0,0,-1,699,1086,0,0
-518,-62,0,0,0,0,0,0,0,0,0,-1,706,1086,0,0
-511,-62,0,0,0,0,0,0,0,0,0,-1,713,1086,0,0
-504,-62,0,0,0,0,0,0,0,0,0,-1,720,1086,0,0
-497,-62,0,0,0,0,0,0,0,0,0,-1,727,1086,0,0
-490,-62,0,0,0,0,0,0,0,0,0,-1,734,1086,0,0
-483,-62,0,0,0,0,0,0,0,0,0,-1,741,1086,0,0
-476,-62,0,0,0,0,0,0,0,0,0,-1,748,1086,0,0
-469,-62,0,0,0,0,0,0,0,0,0,-1,755,1086,0,0
-462,-62,0,0,0,0,0,0,0,0,0,-1,762,1086,0,0
-455,-62,0,0,0,0,0,0,0,0,0,-1,769,1086,0,0
-448,-62,0,0,0,0,0,0,0,0,0,-1,776,1086,0,0
-441,-62,0,0,0,0,0,0,0,0,0,-1,783,1086,0,0
-434,-62,0,0,0,0,0,0,0,0,0,-1,790,1086,0,0
-427,-62,0,0,0,0,0,0,0,0,0,-1,797,1086,0,0
-420,-62,0,0,0,0,0,0,0,0,0,-1,804,1086,0,0
-413,-62,0,0,0,0,0,0,0,0,0,-1,811,1086,0,0
-406,-62,0,0,0,0,0,0,0,0,0,-1,818,1086,0,0
-399,-62,0,0,0,0,0,0,0,0,0,-1,825,1086,0,0
-392,-62,0,0,0,0,0,0,0,0,0,-1,832,1086,0,0
-385,-62,0,0,0,0,0,0,0,0,0,-1,839,1086,0,0
-378,-62,0,0,0,0,0,0,0,0,0,-1,846,1086,0,0
-371,-62,0,0,0,0,0,0,0,0,0,-1,853,1086,0,0
-364,-62,0,0,0,0,0,0,0,0,0,-1,860,1086,0,0
-357,-62,0,0,0,0,0,0,0,0,0,-1,867,1086,0,0
-350,-62,0,0,0,0,0,0,0,0,0,-1,874,1086,0,0
-343,-62,0,0,0,0,0,0,0,0,0,-1,881,1086,0,0
-336,-62,0,0,0,0,0,0,0,0,0,-1,888,1086,0,0
-329,-62,0,0,0,0,0,0,0,0,0,-1,895,1086,0,0
-322,-62,0,0,0,0,0,0,0,0,0,-1,902,1086,0,0
-315,-62,0,0,0,0,0,0,0,0,0,-1,909,1086,0,0
-308,-62,0,0,0,0,0,0,0,0,0,-1,916,1086,0,0
-301,-62,0,0,0,0,0,0,0,0,0,-1,923,1086,0,0
-294,-62,0,0,0,0,0,0,0,0,0,-1,930,1086,0,0
-287,-62,0,0,0,0,0,0,0,0,0,-1,937,1086,0,0
-280,-62,0,0,0,0,0,0,0,0,0,-1,944,1086,0,0
-273,-62,0,0,0,0,0,0,0,0,0,-1,951,1086,0,0
-266,-62,0,0,0,0,0,0,0,0,0,-1,958,1086,0,0
-259,-62,0,0,0,0,0,0,0,0,0,-1,965,1086,0,0
-252,-62,0,0,0,0,0,0,0,0,0,-1,972,1086,0,0
-245,-62,0,0,0,0,0,0,0,0,0,-1,979,1086,0,0
-238,-62,0,0,0,0,0,0,0,0,0,-1,986,1086,0,0
-231,-62,0,0,0,0,0,0,0,0,0,-1,993,1086,0,0
-224,-62,0,0,0,0,0,0,0,0,0,-1,1000,1086,0,0
-217,-62,0,0,0,0,0,0,0,0,0,-1,1007,1086,0,0
-210,-62,0,0,0,0,0,0,0,0,0,-1,1014,1086,0,0
-203,-62,0,0,0,0,0,0,0,0,0,-1,1021,1086,0,0
-196,-62,0,0,0,0,0,0,0,0,0,-1,1028,1086,0,0
-189,-62,0,0,0,0,0,0,0,0,0,-1,1035,1086,0,0
-182,-62,0,0,0,0,0,0,0,0,0,-1,1042,1086,0,0
-175,-62,0,0,0,0,0,0,0,0,0,-1,1049,1086,0,0
-168,-62,0,0,0,0,0,0,0,0,0,-1,1056,1086,0,0
-161,-62,0,0,0,0,0,0,0,0,0,-1,1063,1086,0,0
-154,-62,0,0,0,0,0,0,0,0,0,-1,1070,1086,0,0
-147,-62,0,0,0,0,0,0,0,0,0,-1,1077,1086,0,0
-140,-62,0,0,0,0,0,0,0,0,0,-1,1084,1086,0,0
-133,-62,0,0,0,0,0,0,0,0,0,-1,1091,1086,0,0
-126,-62,0,0,0,0,0,0,0,0,0,-1,1098,1086,0,0
-119,-62,0,0,0,0,0,0,0,0,0,-1,1105,1086,0,0
-112,-62,0,0,0,0,0,0,0,0,0,-1,1112,1086,0,0
-105,-62,0,0,0,0,0,0,0,0,0,-1,1119,1086,0,0
-98,-62,0,0,0,0,0,0,0,0,0,-1,1126,1086,0,0
-91,-62,0,0,0,0,0,0,0,0,0,-1,1133,1086,0,0
-84,-62,0,0,0,0,0,0,0,0,0,-1,1140,1086,0,0
-77,-62,0,0,0,0,0,0,0,0,0,-1,1147,1086,0,0
-70,-62,0,0,0,0,0,0,0,0,0,-1,1154,1086,0,0
-63,-62,0,0,0,0,0,0,0,0,0,-1,1161,1086,0,0
-56,-62,0,0,0,0,0,0,0,0,0,-1,1168,1086,0,0
-49,-62,0,0,0,0,0,0,0,0,0,-1,1175,1086,0,0
-42,-62,0,0,0,0,0,0,0,0,0,-1,1182,1086,0,0
-35,-62,0,0,0,0,0,0,0,0,0,-1,1189,1086,0,0
-28,-62,0,0,0,0,0,0,0,0,0,-1,1196,1086,0,0
-21,-62,0,0,0,0,0,0,0,0,0,-1,1203,1086,0,0
-14,-62,0,0,0,0,0,0,0,0,0,-1,1210,1086,0,0
-7,-62,0,0,0,0,0,0,0,0,0,-1,1217,1086,0,0
0,-62,0,0,0,0,0,0,0,0,0,-1,1224,1086,0,0
7,-62,0,0,0,0,0,0,0,0,0,-1,1231,1086,0,0
14,-62,0,0,0,0,0,0,0,0,0,-1,1238,1086,0,0
21,-62,0,0,0,0,0,0,0,0,0,-1,1245,1086,0,0
28,-62,0,0,0,0,0,0,0,0,0,-1,1252,1086,0,0
35,-62,0,0,0,0,0,0,0,0,0,-1,1259,1086,0,0
42,-62,0,0,0,0,0,0,0,0,0,-1,1266,1086,0,0
49,-62,0,0,0,0,0,0,0,0,0,-1,1273,1086,0,0
56,-62,0,0,0,0,0,0,0,0,0,-1,1280,1086,0,0
63,-62,0,0,0,0,0,0,0,0,0,-1,1287,1086,0,0
70,-62,0,0,0,0,0,0,0,0,0,-1,1294,1086,0,0
77,-62,0,0,0,0,0,0,0,0,0,-1,1301,1086,0,0
84,-62,0,0,0,0,0,0,0,0,0,-1,1308,1086,0,0
91,-62,0,0,0,0,0,0,0,0,0,-1,1315,1086,0,0
98,-62,0,0,0,0,0,0,0,0,0,-1,1322,1086,0,0
105,-62,0,0,0,0,0,0,0,0,0,-1,1329,1086,0,0
112,-62,0,0,0,0,0,0,0,0,0,-1,1336,1086,0,0
119,-62,0,0,0,0,0,0,0,0,0,-1,1343,1086,0,0
126,-62,0,0,0,0,0,0,0,0,0,-1,1350,1086,0,0
133,-62,0,0,0,0,0,0,0,0,0,-1,1357,1086,0,0
140,-62,0,0,0,0,0,0,0,0,0,-1,1364,1086,0,0
147,-62,0,0,0,0,0,0,0,0,0,-1,1371,1086,0,0
154,-62,0,0,0,0,0,0,0,0,0,-1,1378,1086,0,0
161,-62,0,0,0,0,0,0,0,0,0,-1,1385,1086,0,0
168,-62,0,0,0,0,0,0,0,0,0,-1,1392,1086,0,0
175,-62,0,0,0,0,0,0,0,0,0,-1,1399,1086,0,0
182,-62,0,0,0,0,0,0,0,0,0,-1,1406,1086,0,0
189,-62,0,0,0,0,0,0,0,0,0,-1,1413,1086,0,0
196,-62,0,0,0,0,0,0,0,0,0,-1,1420,1086,0,0
203,-62,0,0,0,0,0,0,0,0,0,-1,1427,1086,0,0
210,-62,0,0,0,0,0,0,0,0,0,-1,1434,1086,0,0
217,-62,0,0,0,0,0,0,0,0,0,-1,1441,1086,0,0
224,-62,0,0,0,0,0,0,0,0,0,-1,1448,1086,0,0
231,-62,0,0,0,0,0,0,0,0,0,-1,1455,1086,0,0
238,-62,0,0,0,0,0,0,0,0,0,-1,1462,1086,0,0
245,-62,0,0,0,0,0,0,0,0,0,-1,1469,1086,0,0
252,-62,0,0,0,0,0,0,0,0,0,-1,1476,1086,0,0
259,-62,0,0,0,0,0,0,0,0,0,-1,1483,1086,0,0
266,-62,0,0,0,0,0,0,0,0,0,-1,1490,1086,0,0
273,-62,0,0,0,0,0,0,0,0,0,-1,1497,1086,0,0
280,-62,0,0,0,0,0,0,0,0,0,-1,1504,1086,0,0
287,-62,0,0,0,0,0,0,0,0,0,-1,1511,1086,0,0
294,-62,0,0,0,0,0,0,0,0,0,-1,1518,1086,0,0
301,-62,0,0,0,0,0,0,0,0,0,-1,1525,1086,0,0
308,-62,0,0,0,0,0,0,0,0,0,-1,1532,1086,0,0
315,-62,0,0,0,0,0,0,0,0,0,-1,1539,1086,0,0
322,-62,0,0,0,0,0,0,0,0,0,-1,1546,1086,0,0
329,-62,0,0,0,0,0,0,0,0,0,-1,1553,1086,0,0
336,-62,0,0,0,0,0,0,0,0,0,-1,1560,1086,0,0
343,-62,0,0,0,0,0,0,0,0,0,-1,1567,1086,0,0
350,-62,0,0,0,0,0,0,0,0,0,-1,1574,1086,0,0
357,-62,0,0,0,0,0,0,0,0,0,-1,1581,1086,0,0
364,-62,0,0,0,0,0,0,0,0,0,-1,1588,1086,0,0
371,-62,0,0,0,0,0,0,0,0,0,-1,1595,1086,0,0
378,-62,0,0,0,0,0,0,0,0,0,-1,1602,1086,0,0
385,-62,0,0,0,0,0,0,0,0,0,-1,1609,1086,0,0
392,-62,0,0,0,0,0,0,0,0,0,-1,1616,1086,0,0
399,-62,0,0,0,0,0,0,0,0,0,-1,1623,1086,0,0
406,-62,0,0,0,0,0,0,0,0,0,-1,1630,1086,0,0
413,-62,0,0,0,0,0,0,0,0,0,-1,1637,1086,0,0
420,-62,0,0,0,0,0,0,0,0,0,-1,1644,1086,0,0
427,-62,0,0,0,0,0,0,0,0,0,-1,1651,1086,0,0
434,-62,0,0,0,0,0,0,0,0,0,-1,1658,1086,0,0
441,-62,0,0,0,0,0,0,0,0,0,-1,1665,1086,0,0
448,-62,0,0,0,0,0,0,0,0,0,-1,1672,1086,0,0
455,-62,0,0,0,0,0,0,0,0,0,-1,1679,1086,0,0
462,-62,0,0,0,0,0,0,0,0,0,-1,1686,1086,0,0
469,-62,0,0,0,0,0,0,0,0,0,-1,1693,1086,0,0
476,-62,0,0,0,0,0,0,0,0,0,-1,1700,1086,0,0
483,-62,0,0,0,0,0,0,0,0,0,-1,1707,1086,0,0
490,-62,0,0,0,0,0,0,0,0,0,-1,1714,1086,0,0
497,-62,0,0,0,0,0,0,0,0,0,-1,1721,1086,0,0
504,-62,0,0,0,0,0,0,0,0,0,-1,1728,1086,0,0
511,-62,0,0,0,0,0,0,0,0,0,-1,1735,1086,0,0
518,-62,0,0,0,0,0,0,0,0,0,-1,1742,1086,0,0
525,-62,0,0,0,0,0,0,0,0,0,-1,1749,1086,0,0
532,-62,0,0,0,0,0,0,0,0,0,-1,1756,1086,0,0
539,-62,0,0,0,0,0,0,0,0,0,-1,1763,1086,0,0
546,-62,0,0,0,0,0,0,0,0,0,-1,1770,1086,0,0
553,-62,0,0,0,0,0,0,0,0,0,-1,1777,1086,0,0
560,-62,0,0,0,0,0,0,0,0,0,-1,1784,1086,0,0
567,-62,0,0,0,0,0,0,0,0,0,-1,1791,1086,0,0
574,-62,0,0,0,0,0,0,0,0,0,-1,1798,1086,0,0
581,-62,0,0,0,0,0,0,0,0,0,-1,1805,1086,0,0
588,-62,0,0,0,0,0,0,0,0,0,-1,1812,1086,0,0
595,-62,0,0,0,0,0,0,0,0,0,-1,1819,1086,0,0
602,-62,0,0,0,0,0,0,0,0,0,-1,1826,1086,0,0
609,-62,0,0,0,0,0,0,0,0,0,-1,1833,1086,0,0
616,-62,0,0,0,0,0,0,0,0,0,-1,1840,1086,0,0
623,-62,0,0,0,0,0,0,0,0,0,-1,1847,1086,0,0
630,-62,0,0,0,0,0,0,0,0,0,-1,1854,1086,0,0
637,-62,0,0,0,0,0,0,0,0,0,-1,1861,1086,0,0
644,-62,0,0,0,0,0,0,0,0,0,-1,1868,1086,0,0
651,-62,36.8276,2.39648,-0.000984889,1.54406e-05,-0.000837236,0.000490534,-0.00145998,-1.05465,0.00117158,0.0386948,1875,1086,36.8277,-2.39645
658,-62,36.8271,2.43774,-0.000900413,0.000251444,-0.000816771,0.000674919,-0.00132389,-1.09248,0.00117411,0.0385062,1882,1086,36.8271,-2.4377
665,-62,36.724,2.47803,-0.000702955,0.000398342,-0.000612345,0.00067121,-0.000975823,-1.1516,0.000956321,0.0391941,1889,1086,36.724,-2.47798
672,-62,36.6716,2.52246,-0.000278945,0.000295476,-5.07613e-06,0.000295521,-0.00027899,-1.56196,0.00033174,0.0378121,1896,1086,36.6716,-2.52248
679,-62,36.6846,2.43665,-9.09794e-06,-2.50772e-05,0.000868675,0.000851624,-0.0008858,0.7808,0.00100317,0.0369862,1903,1086,36.6845,-2.43665
686,-62,36.6282,2.33923,-9.48182e-05,-0.000510792,0.00171947,0.0014292,-0.00203481,0.725211,0.00201011,0.0384199,1910,1086,36.6282,-2.33918
693,-62,36.6251,2.46008,-0.000207431,-0.00100708,0.0024352,0.00186055,-0.00307506,0.704032,0.00287819,0.0376498,1917,1086,36.6251,-2.46008
700,-62,36.7214,2.38489,-0.000484663,-0.00135009,0.0029477,0.00206192,-0.00389667,0.71252,0.00349413,0.0313863,1924,1086,36.7214,-2.38485
707,-62,36.7339,2.44019,-0.000748251,-0.00159255,0.00335688,0.00221292,-0.00455372,0.722848,0.00398388,0.0237997,1931,1086,36.7339,-2.44021
714,-62,36.7761,2.54749,-0.00102773,-0.00153215,0.00366086,0.0023896,-0.00494948,0.751006,0.00432228,0.033349,1938,1086,36.7761,-2.54749
721,-62,36.8689,2.82104,0,0,0,0,0,0,0,-1,1945,1086,36.8689,-2.82099
728,-62,35.6802,5.40674,0,0,0,0,0,0,0,-1,1952,1086,35.6801,-5.40669
735,-62,35.6699,5.16602,-0.00230768,-0.000864518,0.0036776,0.00216162,-0.00533381,0.882272,0.0044548,0.0202326,1959,1086,35.67,-5.16601
742,-62,35.649,5.03845,-0.00287699,-0.000526164,0.0034483,0.00194155,-0.0053447,0.949656,0.00435699,0.019746,1966,1086,35.6491,-5.03845
749,-62,35.6228,4.85779,-0.00362152,-9.40849e-05,0.00294668,0.00157638,-0.00529198,1.05507,0.00415437,0.0159483,1973,1086,35.6228,-4.85779
756,-62,35.5496,4.75745,-0.00394952,0.000670832,0.00206569,0.00145968,-0.00473837,1.206,0.00374162,0.0145213,1980,1086,35.5495,-4.7574
763,-62,35.554,4.61792,-0.00426314,0.00134948,0.000886788,0.00148626,-0.00439992,1.41776,0.00353445,0.0158849,1987,1086,35.5539,-4.61794
770,-62,35.5798,4.44983,-0.004693,0.0020234,-0.000623745,0.00208083,-0.00475043,-1.47897,0.00404317,0.0132347,1994,1086,35.5798,-4.44978
777,-62,35.5085,4.26099,-0.00502282,0.00241687,-0.00231422,0.00307799,-0.00568394,-1.29253,0.00513274,0.0139184,2001,1086,35.5085,-4.261
784,-62,35.4525,3.88574,-0.00536604,0.00245412,-0.00430955,0.00436306,-0.00727498,-1.15382,0.00678897,0.0267848,2008,1086,35.4525,-3.8857
791,-62,34.1782,3.32324,0,0,0,0,0,0,0,-1,2015,1086,34.1783,-3.32326
798,-62,34.4185,3.10156,0,0,0,0,0,0,0,-1,2022,1086,34.4185,-3.10151
805,-62,34.6587,2.87976,0,0,0,0,0,0,0,-1,2029,1086,34.6587,-2.87975
812,-62,34.8757,2.08032,0,0,0,0,0,0,0,-1,2036,1086,34.8758,-2.08036
-700,-69,-26.1575,-1.06531,0,0,0,0,0,0,0,-1,524,1093,-26.1575,1.06535
-693,-69,-26.0041,-0.646973,0.0426468,0.0704246,-0.0484717,0.106958,0.00611341,-0.924928,0.0693574,0.0460255,531,1093,-26.0041,0.646957
-686,-69,-26.1711,-0.345215,0.0373594,0.0540478,-0.0319068,0.0786835,0.0127237,-0.913292,0.0487708,0.0447928,538,1093,-26.1711,0.345233
-679,-69,-26.2701,-0.0814209,0.0318019,0.0414068,-0.0194711,0.056659,0.0165498,-0.906308,0.0336415,0.049957,545,1093,-26.2701,0.0813791
-672,-69,-26.3131,0.203735,0,0,0,0,0,0,0,-1,552,1093,-26.3131,-0.203731
-665,-69,-25.9222,-1.41284,0,0,0,0,0,0,0,-1,559,1093,-25.9223,1.41286
-658,-69,-25.6288,0.906372,0.0165865,0.0183809,-6.63449e-05,0.0183833,0.0165841,-1.53389,0.011702,0.0471568,566,1093,-25.6289,-0.906329
-651,-69,-25.5404,1.28918,0.0125783,0.0138716,0.00217767,0.0154966,0.0109533,0.929719,0.00919856,0.0357993,573,1093,-25.5404,-1.28916
-644,-69,-25.5288,1.45349,0.00918319,0.0108531,0.00331173,0.0134335,0.00660278,0.908885,0.00775621,0.0105204,580,1093,-25.5288,-1.45351
-637,-69,-25.5414,1.68298,0.00584282,0.00459709,0.00408043,0.00934765,0.00109226,0.709659,0.00590147,0.0115275,587,1093,-25.5414,-1.68295
-630,-69,-25.5463,1.86719,0.00360658,0.00417392,0.00282858,0.00673302,0.00104748,0.835375,0.00418347,0.0148681,594,1093,-25.5463,-1.86719
-623,-69,-25.5377,2.07849,0.00212639,0.00286141,0.00055239,0.00315738,0.00183042,1.07893,0.00183062,0.0152363,601,1093,-25.5377,-2.07845
-616,-69,-25.5372,2.28503,0.00112262,0.0016329,-0.00136189,0.00276334,-7.81938e-06,-0.877995,0.00184484,0.0160357,608,1093,-25.5372,-2.28507
-609,-69,-25.554,2.47119,0.000863758,0.00105792,-0.00274474,0.0037073,-0.00178562,-0.803076,0.00323538,0.0141157,615,1093,-25.554,-2.47115
-602,-69,-25.5372,2.73364,0.000758197,0.000765549,-0.00367247,0.00443435,-0.0029106,-0.785899,0.00427092,0.0179076,622,1093,-25.5373,-2.73361
-595,-69,-25.3251,3.32605,0,0,0,0,0,0,0,-1,629,1093,-25.3251,-3.32609
-588,-69,-25.8271,2.39246,0,0,0,0,0,0,0,-1,636,1093,-25.8272,-2.3925
-581,-69,-26.3292,1.45886,0,0,0,0,0,0,0,-1,643,1093,-26.3292,-1.45892
-574,-69,-26.6819,0.647583,0.00116802,0.00107792,-0.0047056,0.00582878,-0.00358285,-0.780612,0.00548514,0.03172,650,1093,-26.6819,-0.647631
-567,-69,-26.7557,0.568604,0.00126742,0.00154055,-0.00448323,0.00588929,-0.00308132,-0.800625,0.00526309,0.038924,657,1093,-26.7557,-0.568641
-560,-69,-26.7249,0.762329,0.00136303,0.00214144,-0.00393205,0.00570349,-0.00219903,-0.834729,0.00470969,0.0408739,664,1093,-26.7249,-0.762318
-553,-69,-26.6448,0.601807,0.00138659,0.00278365,-0.00295261,0.00511923,-0.000948999,-0.901553,0.00376919,0.0374744,671,1093,-26.6448,-0.60176
-546,-69,-26.6299,0.562134,0.00145454,0.00329361,-0.00136116,0.00401673,0.000731423,-1.08246,0.00247037,0.0349398,678,1093,-26.6299,-0.562079
-539,-69,-26.6558,0.566284,0.001911,0.00347716,0.00059693,0.00367874,0.00170943,1.24514,0.00212569,0.0393913,685,1093,-26.6558,-0.566309
-532,-69,-26.6318,0.664429,0.00206947,0.00331323,0.000978052,0.00385037,0.00153233,1.06858,0.00223839,0.0427282,692,1093,-26.6318,-0.664482
-525,-69,0,0,0,0,0,0,0,0,0,-1,699,1093,0,0
-518,-69,0,0,0,0,0,0,0,0,0,-1,706,1093,0,0
-511,-69,0,0,0,0,0,0,0,0,0,-1,713,1093,0,0
-504,-69,0,0,0,0,0,0,0,0,0,-1,720,1093,0,0
-497,-69,0,0,0,0,0,0,0,0,0,-1,727,1093,0,0
-490,-69,0,0,0,0,0,0,0,0,0,-1,734,1093,0,0
-483,-69,0,0,0,0,0,0,0,0,0,-1,741,1093,0,0
-476,-69,0,0,0,0,0,0,0,0,0,-1,748,1093,0,0
-469,-69,0,0,0,0,0,0,0,0,0,-1,755,1093,0,0
-462,-69,0,0,0,0,0,0,0,0,0,-1,762,1093,0,0
-455,-69,0,0,0,0,0,0,0,0,0,-1,769,1093,0,0
-448,-69,0,0,0,0,0,0,0,0,0,-1,776,1093,0,0
-441,-69,0,0,0,0,0,0,0,0,0,-1,783,1093,0,0
-434,-69,0,0,0,0,0,0,0,0,0,-1,790,1093,0,0
-427,-69,0,0,0,0,0,0,0,0,0,-1,797,1093,0,0
-420,-69,0,0,0,0,0,0,0,0,0,-1,804,1093,0,0
-413,-69,0,0,0,0,0,0,0,0,0,-1,811,1093,0,0
-406,-69,0,0,0,0,0,0,0,0,0,-1,818,1093,0,0
-399,-69,0,0,0,0,0,0,0,0,0,-1,825,1093,0,0
-392,-69,0,0,0,0,0,0,0,0,0,-1,832,1093,0,0
-385,-69,0,0,0,0,0,0,0,0,0,-1,839,1093,0,0
-378,-69,0,0,0,0,0,0,0,0,0,-1,846,1093,0,0
-371,-69,0,0,0,0,0,0,0,0,0,-1,853,1093,0,0
-364,-69,0,0,0,0,0,0,0,0,0,-1,860,1093,0,0
-357,-69,0,0,0,0,0,0,0,0,0,-1,867,1093,0,0
-350,-69,0,0,0,0,0,0,0,0,0,-1,874,1093,0,0
-343,-69,0,0,0,0,0,0,0,0,0,-1,881,1093,0,0
-336,-69,0,0,0,0,0,0,0,0,0,-1,888,1093,0,0
-329,-69,0,0,0,0,0,0,0,0,0,-1,895,1093,0,0
-322,-69,0,0,0,0,0,0,0,0,0,-1,902,1093,0,0
-315,-69,0,0,0,0,0,0,0,0,0,-1,909,1093,0,0
-308,-69,0,0,0,0,0,0,0,0,0,-1,916,1093,0,0
-301,-69,0,0,0,0,0,0,0,0,0,-1,923,1093,0,0
-294,-69,0,0,0,0,0,0,0,0,0,-1,930,1093,0,0
-287,-69,0,0,0,0,0,0,0,0,0,-1,937,1093,0,0
-280,-69,0,0,0,0,0,0,0,0,0,-1,944,1093,0,0
-273,-69,0,0,0,0,0,0,0,0,0,-1,951,1093,0,0
-266,-69,0,0,0,0,0,0,0,0,0,-1,958,1093,0,0
-259,-69,0,0,0,0,0,0,0,0,0,-1,965,1093,0,0
-252,-69,0,0,0,0,0,0,0,0,0,-1,972,1093,0,0
-245,-69,0,0,0,0,0,0,0,0,0,-1,979,1093,0,0
-238,-69,0,0,0,0,0,0,0,0,0,-1,986,1093,0,0
-231,-69,0,0,0,0,0,0,0,0,0,-1,993,1093,0,0
-224,-69,0,0,0,0,0,0,0,0,0,-1,1000,1093,0,0
-217,-69,0,0,0,0,0,0,0,0,0,-1,1007,1093,0,0
-210,-69,0,0,0,0,0,0,0,0,0,-1,1014,1093,0,0
-203,-69,0,0,0,0,0,0,0,0,0,-1,1021,1093,0,0
-196,-69,0,0,0,0,0,0,0,0,0,-1,1028,1093,0,0
-189,-69,0,0,0,0,0,0,0,0,0,-1,1035,1093,0,0
-182,-69,0,0,0,0,0,0,0,0,0,-1,1042,1093,0,0
-175,-69,0,0,0,0,0,0,0,0,0,-1,1049,1093,0,0
-168,-69,0,0,0,0,0,0,0,0,0,-1,1056,1093,0,0
-161,-69,0,0,0,0,0,0,0,0,0,-1,1063,1093,0,0
-154,-69,0,0,0,0,0,0,0,0,0,-1,1070,1093,0,0
-147,-69,0,0,0,0,0,0,0,0,0,-1,1077,1093,0,0
-140,-69,0,0,0,0,0,0,0,0,0,-1,1084,1093,0,0
-133,-69,0,0,0,0,0,0,0,0,0,-1,1091,1093,0,0
-126,-69,0,0,0,0,0,0,0,0,0,-1,1098,1093,0,0
-119,-69,0,0,0,0,0,0,0,0,0,-1,1105,1093,0,0
-112,-69,0,0,0,0,0,0,0,0,0,-1,1112,1093,0,0
-105,-69,0,0,0,0,0,0,0,0,0,-1,1119,1093,0,0
-98,-69,0,0,0,0,0,0,0,0,0,-1,1126,1093,0,0
-91,-69,0,0,0,0,0,0,0,0,0,-1,1133,1093,0,0
-84,-69,0,0,0,0,0,0,0,0,0,-1,1140,1093,0,0
-77,-69,0,0,0,0,0,0,0,0,0,-1,1147,1093,0,0
-70,-69,0,0,0,0,0,0,0,0,0,-1,1154,1093,0,0
-63,-69,0,0,0,0,0,0,0,0,0,-1,1161,1093,0,0
-56,-69,0,0,0,0,0,0,0,0,0,-1,1168,1093,0,0
-49,-69,0,0,0,0,0,0,0,0,0,-1,1175,1093,0,0
-42,-69,0,0,0,0,0,0,0,0,0,-1,1182,1093,0,0
-35,-69,0,0,0,0,0,0,0,0,0,-1,1189,1093,0,0
-28,-69,0,0,0,0,0,0,0,0,0,-1,1196,1093,0,0
-21,-69,0,0,0,0,0,0,0,0,0,-1,1203,1093,0,0
-14,-69,0,0,0,0,0,0,0,0,0,-1,1210,1093,0,0
-7,-69,0,0,0,0,0,0,0,0,0,-1,1217,1093,0,0
0,-69,0,0,0,0,0,0,0,0,0,-1,1224,1093,0,0
7,-69,0,0,0,0,0,0,0,0,0,-1,1231,1093,0,0
14,-69,0,0,0,0,0,0,0,0,0,-1,1238,1093,0,0
21,-69,0,0,0,0,0,0,0,0,0,-1,1245,1093,0,0
28,-69,0,0,0,0,0,0,0,0,0,-1,1252,1093,0,0
35,-69,0,0,0,0,0,0,0,0,0,-1,1259,1093,0,0
42,-69,0,0,0,0,0,0,0,0,0,-1,1266,1093,0,0
49,-69,0,0,0,0,0,0,0,0,0,-1,1273,1093,0,0
56,-69,0,0,0,0,0,0,0,0,0,-1,1280,1093,0,0
63,-69,0,0,0,0,0,0,0,0,0,-1,1287,1093,0,0
70,-69,0,0,0,0,0,0,0,0,0,-1,1294,1093,0,0
77,-69,0,0,0,0,0,0,0,0,0,-1,1301,1093,0,0
84,-69,0,0,0,0,0,0,0,0,0,-1,1308,1093,0,0
91,-69,0,0,0,0,0,0,0,0,0,-1,1315,1093,0,0
98,-69,0,0,0,0,0,0,0,0,0,-1,1322,1093,0,0
105,-69,0,0,0,0,0,0,0,0,0,-1,1329,1093,0,0
112,-69,0,0,0,0,0,0,0,0,0,-1,1336,1093,0,0
119,-69,0,0,0,0,0,0,0,0,0,-1,1343,1093,0,0
126,-69,0,0,0,0,0,0,0,0,0,-1,1350,1093,0,0
133,-69,0,0,0,0,0,0,0,0,0,-1,1357,1093,0,0
140,-69,0,0,0,0,0,0,0,0,0,-1,1364,1093,0,0
147,-69,0,0,0,0,0,0,0,0,0,-1,1371,1093,0,0
154,-69,0,0,0,0,0,0,0,0,0,-1,1378,1093,0,0
161,-69,0,0,0,0,0,0,0,0,0,-1,1385,1093,0,0
168,-69,0,0,0,0,0,0,0,0,0,-1,1392,1093,0,0
175,-69,0,0,0,0,0,0,0,0,0,-1,1399,1093,0,0
182,-69,0,0,0,0,0,0,0,0,0,-1,1406,1093,0,0
189,-69,0,0,0,0,0,0,0,0,0,-1,1413,1093,0,0
196,-69,0,0,0,0,0,0,0,0,0,-1,1420,1093,0,0
203,-69,0,0,0,0,0,0,0,0,0,-1,1427,1093,0,0
210,-69,0,0,0,0,0,0,0,0,0,-1,1434,1093,0,0
217,-69,0,0,0,0,0,0,0,0,0,-1,1441,1093,0,0
224,-69,0,0,0,0,0,0,0,0,0,-1,1448,1093,0,0
231,-69,0,0,0,0,0,0,0,0,0,-1,1455,1093,0,0
238,-69,0,0,0,0,0,0,0,0,0,-1,1462,1093,0,0
245,-69,0,0,0,0,0,0,0,0,0,-1,1469,1093,0,0
252,-69,0,0,0,0,0,0,0,0,0,-1,1476,1093,0,0
259,-69,0,0,0,0,0,0,0,0,0,-1,1483,1093,0,0
266,-69,0,0,0,0,0,0,0,0,0,-1,1490,1093,0,0
273,-69,0,0,0,0,0,0,0,0,0,-1,1497,1093,0,0
280,-69,0,0,0,0,0,0,0,0,0,-1,1504,1093,0,0
287,-69,0,0,0,0,0,0,0,0,0,-1,1511,1093,0,0
294,-69,0,0,0,0,0,0,0,0,0,-1,1518,1093,0,0
301,-69,0,0,0,0,0,0,0,0,0,-1,1525,1093,0,0
308,-69,0,0,0,0,0,0,0,0,0,-1,1532,1093,0,0
315,-69,0,0,0,0,0,0,0,0,0,-1,1539,1093,0,0
322,-69,0,0,0,0,0,0,0,0,0,-1,1546,1093,0,0
329,-69,0,0,0,0,0,0,0,0,0,-1,1553,1093,0,0
336,-69,0,0,0,0,0,0,0,0,0,-1,1560,1093,0,0
343,-69,0,0,0,0,0,0,0,0,0,-1,1567,1093,0,0
350,-69,0,0,0,0,0,0,0,0,0,-1,1574,1093,0,0
357,-69,0,0,0,0,0,0,0,0,0,-1,1581,1093,0,0
364,-69,0,0,0,0,0,0,0,0,0,-1,1588,1093,0,0
371,-69,0,0,0,0,0,0,0,0,0,-1,1595,1093,0,0
378,-69,0,0,0,0,0,0,0,0,0,-1,1602,1093,0,0
385,-69,0,0,0,0,0,0,0,0,0,-1,1609,1093,0,0
392,-69,0,0,0,0,0,0,0,0,0,-1,1616,1093,0,0
399,-69,0,0,0,0,0,0,0,0,0,-1,1623,1093,0,0
406,-69,0,0,0,0,0,0,0,0,0,-1,1630,1093,0,0
413,-69,0,0,0,0,0,0,0,0,0,-1,1637,1093,0,0
420,-69,0,0,0,0,0,0,0,0,0,-1,1644,1093,0,0
427,-69,0,0,0,0,0,0,0,0,0,-1,1651,1093,0,0
434,-69,0,0,0,0,0,0,0,0,0,-1,1658,1093,0,0
441,-69,0,0,0,0,0,0,0,0,0,-1,1665,1093,0,0
448,-69,0,0,0,0,0,0,0,0,0,-1,1672,1093,0,0
455,-69,0,0,0,0,0,0,0,0,0,-1,1679,1093,0,0
462,-69,0,0,0,0,0,0,0,0,0,-1,1686,1093,0,0
469,-69,0,0,0,0,0,0,0,0,0,-1,1693,1093,0,0
476,-69,0,0,0,0,0,0,0,0,0,-1,1700,1093,0,0
483,-69,0,0,0,0,0,0,0,0,0,-1,1707,1093,0,0
490,-69,0,0,0,0,0,0,0,0,0,-1,1714,1093,0,0
497,-69,0,0,0,0,0,0,0,0,0,-1,1721,1093,0,0
504,-69,0,0,0,0,0,0,0,0,0,-1,1728,1093,0,0
511,-69,0,0,0,0,0,0,0,0,0,-1,1735,1093,0,0
518,-69,0,0,0,0,0,0,0,0,0,-1,1742,1093,0,0
525,-69,0,0,0,0,0,0,0,0,0,-1,1749,1093,0,0
532,-69,0,0,0,0,0,0,0,0,0,-1,1756,1093,0,0
539,-69,0,0,0,0,0,0,0,0,0,-1,1763,1093,0,0
546,-69,0,0,0,0,0,0,0,0,0,-1,1770,1093,0,0
553,-69,0,0,0,0,0,0,0,0,0,-1,1777,1093,0,0
560,-69,0,0,0,0,0,0,0,0,0,-1,1784,1093,0,0
567,-69,0,0,0,0,0,0,0,0,0,-1,1791,1093,0,0
574,-69,0,0,0,0,0,0,0,0,0,-1,1798,1093,0,0
581,-69,0,0,0,0,0,0,0,0,0,-1,1805,1093,0,0
588,-69,0,0,0,0,0,0,0,0,0,-1,1812,1093,0,0
595,-69,0,0,0,0,0,0,0,0,0,-1,1819,1093,0,0
602,-69,0,0,0,0,0,0,0,0,0,-1,1826,1093,0,0
609,-69,0,0,0,0,0,0,0,0,0,-1,1833,1093,0,0
616,-69,0,0,0,0,0,0,0,0,0,-1,1840,1093,0,0
623,-69,0,0,0,0,0,0,0,0,0,-1,1847,1093,0,0
630,-69,0,0,0,0,0,0,0,0,0,-1,1854,1093,0,0
637,-69,0,0,0,0,0,0,0,0,0,-1,1861,1093,0,0
644,-69,0,0,0,0,0,0,0,0,0,-1,1868,1093,0,0
651,-69,36.598,2.28516,0.00168524,-0.00103451,-0.00084315,0.00192542,-0.00127468,-0.277505,0.00186027,0.0382427,1875,1093,36.5981,-2.28511
658,-69,36.6847,2.16846,0.000949515,-0.000646237,-0.000726229,0.00123053,-0.000927256,-0.369212,0.0012499,0.0418318,1882,1093,36.6847,-2.16845
665,-69,36.7013,2.24548,0.000572333,-0.000371823,-0.000471877,0.000767733,-0.000567222,-0.392593,0.000773629,0.0420533,1889,1093,36.7013,-2.24548
672,-69,36.6385,2.45911,0.000565626,-0.00035248,8.86938e-05,0.000574116,-0.00036097,0.0954292,0.000544527,0.0364292,1896,1093,36.6385,-2.4591
679,-69,36.6198,2.47546,0.00045019,-0.000536931,0.000846061,0.000936131,-0.00102287,0.52135,0.0011314,0.0354086,1903,1093,36.6197,-2.47549
686,-69,36.7042,2.37219,0.000138647,-0.000892923,0.00156504,0.0012707,-0.00202498,0.626219,0.0019193,0.0360609,1910,1093,36.7042,-2.37214
693,-69,36.7029,2.42786,-8.6897e-05,-0.00127015,0.00215707,0.0015582,-0.00291525,0.651552,0.00262207,0.0349254,1917,1093,36.7029,-2.42786
700,-69,36.6985,2.41956,-0.000474745,-0.00152012,0.00257596,0.00163102,-0.00362589,0.685302,0.00310707,0.0284216,1924,1093,36.6985,-2.41955
707,-69,36.728,2.43396,-0.000792838,-0.00169696,0.00293628,0.00172598,-0.00421577,0.709019,0.00352944,0.0225323,1931,1093,36.7281,-2.43396
714,-69,36.7892,2.48962,-0.001068,-0.00156401,0.00320812,0.00190168,-0.0045337,0.746822,0.00381765,0.0286848,1938,1093,36.7891,-2.48964
721,-69,36.8904,2.66553,0,0,0,0,0,0,0,-1,1945,1093,36.8903,-2.66549
728,-69,35.2822,5.55151,0,0,0,0,0,0,0,-1,1952,1093,35.2822,-5.55147
735,-69,35.4928,5.29895,-0.00228705,-0.000912983,0.00332624,0.00179643,-0.00499646,0.887241,0.00406435,0.0267685,1959,1093,35.4929,-5.29899
742,-69,35.4747,5.11914,-0.00289079,-0.000580738,0.00319576,0.00166232,-0.00513384,0.958806,0.00409084,0.0203452,1966,1093,35.4747,-5.11913
749,-69,35.3339,4.89648,-0.00366295,-0.000183987,0.00281341,0.00138426,-0.0052312,1.06227,0.00402895,0.02165,1973,1093,35.3339,-4.89654
756,-69,35.3801,4.75757,-0.0039945,0.000548876,0.00210582,0.00137478,-0.0048204,1.19703,0.00375667,0.015656,1980,1093,35.3802,-4.75759
763,-69,35.3715,4.58484,-0.00433425,0.00115514,0.00111726,0.00137382,-0.00455294,1.37751,0.00358215,0.0167432,1987,1093,35.3715,-4.58487
770,-69,35.3442,4.45142,-0.00480325,0.00174113,-0.000160605,0.00174507,-0.00480719,-1.54628,0.00391823,0.0174737,1994,1093,35.3442,-4.45148
777,-69,35.2797,4.27197,-0.00515424,0.00205076,-0.0016397,0.00240637,-0.00550985,-1.35723,0.00468605,0.0217565,2001,1093,35.2797,-4.27197
784,-69,35.2699,3.91406,-0.00549022,0.00201589,-0.00344919,0.00336012,-0.00683445,-1.19918,0.00599869,0.0340437,2008,1093,35.2699,-3.91403
791,-69,35.333,3.38953,-0.00578594,0.00165885,-0.00595319,0.00495762,-0.0090847,-1.0648,0.00822323,0.046011,2015,1093,35.3331,-3.38952
798,-69,34.4961,3.3186,-0.00546671,0.000973028,-0.00947457,0.00775991,-0.0122536,-0.949197,0.0116515,0.0474866,2022,1093,34.4962,-3.31861
805,-69,34.6851,3.11023,0,0,0,0,0,0,0,-1,2029,1093,34.6851,-3.11018
812,-69,35.0974,2.02319,0,0,0,0,0,0,0,-1,2036,1093,35.0975,-2.02314
-700,-76,0,0,0,0,0,0,0,0,0,-1,524,1100,0,0
-693,-76,-25.1812,-0.0609131,0,0,0,0,0,0,0,-1,531,1100,-25.1812,0.060916
-686,-76,-25.3315,0.292969,0,0,0,0,0,0,0,-1,538,1100,-25.3316,-0.292946
-679,-76,-25.4014,0.290405,0.0288813,0.0411062,-0.0172674,0.0533111,0.0166764,-0.955511,0.0314899,0.0496012,545,1100,-25.4014,-0.290454
-672,-76,-25.2408,0.731079,0.023809,0.029885,-0.00881011,0.0361662,0.0175278,-0.951429,0.0208838,0.0444284,552,1100,-25.2408,-0.73109
-665,-76,-25.0645,1.03101,0.0190582,0.0216751,-0.00307033,0.0237042,0.0170291,-0.986826,0.0141141,0.0458659,559,1100,-25.0645,-1.03105
-658,-76,-25.274,0.838013,0.0147611,0.0157156,0.000500542,0.01593,0.0145468,1.16619,0.0101903,0.0450932,566,1100,-25.274,-0.838019
-651,-76,-25.2148,1.1571,0.0111152,0.0113764,0.00242159,0.0136709,0.00882067,0.812343,0.00800308,0.0304591,573,1100,-25.2149,-1.15716
-644,-76,-25.2347,1.41846,0.00810634,0.00864141,0.00329769,0.0116824,0.00506535,0.825874,0.00676464,0.01109,580,1100,-25.2347,-1.41841
-637,-76,-25.2881,1.63696,0.0051979,0.00251426,0.00419617,0.00826158,-0.000549412,0.63065,0.00569969,0.0135489,587,1100,-25.2881,-1.63691
-630,-76,-25.2982,1.83228,0.00329755,0.0028047,0.00297532,0.00603663,6.56194e-05,0.744081,0.00400273,0.0153396,594,1100,-25.2982,-1.8323
-623,-76,-25.2892,2.0603,0.00214512,0.00203978,0.000719011,0.00281338,0.00137151,0.748837,0.00162448,0.0147898,601,1100,-25.2893,-2.06029
-616,-76,-25.3118,2.30127,0.00139323,0.00126426,-0.00100964,0.00234044,0.000317046,-0.753506,0.00146609,0.013695,608,1100,-25.3118,-2.30132
-609,-76,-25.3226,2.51697,0.00128636,0.000833204,-0.00222672,0.003298,-0.00117843,-0.734695,0.0026793,0.0148252,615,1100,-25.3226,-2.51697
-602,-76,-25.2954,2.74512,0.00128957,0.000624036,-0.00302252,0.00399759,-0.00208398,-0.730571,0.00356866,0.0191632,622,1100,-25.2954,-2.74514
-595,-76,-25.0128,3.44373,0,0,0,0,0,0,0,-1,629,1100,-25.0128,-3.44372
-588,-76,-25.646,2.42615,0,0,0,0,0,0,0,-1,636,1100,-25.646,-2.42612
-581,-76,-26.2792,1.40857,0,0,0,0,0,0,0,-1,643,1100,-26.2792,-1.40853
-574,-76,-26.6567,0.552979,0.00160332,0.000993588,-0.00399475,0.00530482,-0.00270791,-0.747313,0.00470644,0.0343868,650,1100,-26.6567,-0.552976
-567,-76,-26.7038,0.425537,0.00157723,0.00144269,-0.00384789,0.00535844,-0.00233852,-0.776658,0.00455643,0.0417769,657,1100,-26.7038,-0.42557
-560,-76,-26.7519,0.421387,0.00146559,0.00203028,-0.00343034,0.00518987,-0.001694,-0.826459,0.00414171,0.0444652,664,1100,-26.7519,-0.421378
-553,-76,-26.7343,0.444092,0.00109874,0.00267973,-0.00265141,0.00465598,-0.000877504,-0.930274,0.00343406,0.0464003,671,1100,-26.7343,-0.444134
-546,-76,-26.6483,0.439819,0.000534279,0.00326032,-0.00130885,0.00378698,7.61531e-06,-1.18823,0.00252212,0.0451869,678,1100,-26.6483,-0.439838
-539,-76,-26.6371,0.506592,0.0002638,0.00359088,0.000571811,0.00368642,0.000168268,1.40526,0.00240349,0.0424662,685,1100,-26.6371,-0.506645
-532,-76,-26.6592,0.49939,-0.000169131,0.0035659,0.00140528,0.00403557,-0.0006388,1.24825,0.00292665,0.0407683,692,1100,-26.6592,-0.499436
-525,-76,0,0,0,0,0,0,0,0,0,-1,699,1100,0,0
-518,-76,0,0,0,0,0,0,0,0,0,-1,706,1100,0,0
-511,-76,0,0,0,0,0,0,0,0,0,-1,713,1100,0,0
-504,-76,0,0,0,0,0,0,0,0,0,-1,720,1100,0,0
-497,-76,0,0,0,0,0,0,0,0,0,-1,727,1100,0,0
-490,-76,0,0,0,0,0,0,0,0,0,-1,734,1100,0,0
-483,-76,0,0,0,0,0,0,0,0,0,-1,741,1100,0,0
-476,-76,0,0,0,0,0,0,0,0,0,-1,748,1100,0,0
-469,-76,0,0,0,0,0,0,0,0,0,-1,755,1100,0,0
-462,-76,0,0,0,0,0,0,0,0,0,-1,762,1100,0,0
-455,-76,0,0,0,0,0,0,0,0,0,-1,769,1100,0,0
-448,-76,0,0,0,0,0,0,0,0,0,-1,776,1100,0,0
-441,-76,0,0,0,0,0,0,0,0,0,-1,783,1100,0,0
-434,-76,0,0,0,0,0,0,0,0,0,-1,790,1100,0,0
-427,-76,0,0,0,0,0,0,0,0,0,-1,797,1100,0,0
-420,-76,0,0,0,0,0,0,0,0,0,-1,804,1100,0,0
-413,-76,0,0,0,0,0,0,0,0,0,-1,811,1100,0,0
-406,-76,0,0,0,0,0,0,0,0,0,-1,818,1100,0,0
-399,-76,0,0,0,0,0,0,0,0,0,-1,825,1100,0,0
-392,-76,0,0,0,0,0,0,0,0,0,-1,832,1100,0,0
-385,-76,0,0,0,0,0,0,0,0,0,-1,839,1100,0,0
-378,-76,0,0,0,0,0,0,0,0,0,-1,846,1100,0,0
-371,-76,0,0,0,0,0,0,0,0,0,-1,853,1100,0,0
-364,-76,0,0,0,0,0,0,0,0,0,-1,860,1100,0,0
-357,-76,0,0,0,0,0,0,0,0,0,-1,867,1100,0,0
-350,-76,0,0,0,0,0,0,0,0,0,-1,874,1100,0,0
-343,-76,0,0,0,0,0,0,0,0,0,-1,881,1100,0,0
-336,-76,0,0,0,0,0,0,0,0,0,-1,888,1100,0,0
-329,-76,0,0,0,0,0,0,0,0,0,-1,895,1100,0,0
-322,-76,0,0,0,0,0,0,0,0,0,-1,902,1100,0,0
-315,-76,0,0,0,0,0,0,0,0,0,-1,909,1100,0,0
-308,-76,0,0,0,0,0,0,0,0,0,-1,916,1100,0,0
-301,-76,0,0,0,0,0,0,0,0,0,-1,923,1100,0,0
-294,-76,0,0,0,0,0,0,0,0,0,-1,930,1100,0,0
-287,-76,0,0,0,0,0,0,0,0,0,-1,937,1100,0,0
-280,-76,0,0,0,0,0,0,0,0,0,-1,944,1100,0,0
-273,-76,0,0,0,0,0,0,0,0,0,-1,951,1100,0,0
-266,-76,0,0,0,0,0,0,0,0,0,-1,958,1100,0,0
-259,-76,0,0,0,0,0,0,0,0,0,-1,965,1100,0,0
-252,-76,0,0,0,0,0,0,0,0,0,-1,972,1100,0,0
-245,-76,0,0,0,0,0,0,0,0,0,-1,979,1100,0,0
-238,-76,0,0,0,0,0,0,0,0,0,-1,986,1100,0,0
-231,-76,0,0,0,0,0,0,0,0,0,-1,993,1100,0,0
-224,-76,0,0,0,0,0,0,0,0,0,-1,1000,1100,0,0
-217,-76,0,0,0,0,0,0,0,0,0,-1,1007,1100,0,0
-210,-76,0,0,0,0,0,0,0,0,0,-1,1014,1100,0,0
-203,-76,0,0,0,0,0,0,0,0,0,-1,1021,1100,0,0
-196,-76,0,0,0,0,0,0,0,0,0,-1,1028,1100,0,0
-189,-76,0,0,0,0,0,0,0,0,0,-1,1035,1100,0,0
-182,-76,0,0,0,0,0,0,0,0,0,-1,1042,1100,0,0
-175,-76,0,0,0,0,0,0,0,0,0,-1,1049,1100,0,0
-168,-76,0,0,0,0,0,0,0,0,0,-1,1056,1100,0,0
-161,-76,0,0,0,0,0,0,0,0,0,-1,1063,1100,0,0
-154,-76,0,0,0,0,0,0,0,0,0,-1,1070,1100,0,0
-147,-76,0,0,0,0,0,0,0,0,0,-1,1077,1100,0,0
-140,-76,0,0,0,0,0,0,0,0,0,-1,1084,1100,0,0
-133,-76,0,0,0,0,0,0,0,0,0,-1,1091,1100,0,0
-126,-76,0,0,0,0,0,0,0,0,0,-1,1098,1100,0,0
-119,-76,0,0,0,0,0,0,0,0,0,-1,1105,1100,0,0
-112,-76,0,0,0,0,0,0,0,0,0,-1,1112,1100,0,0
-105,-76,0,0,0,0,0,0,0,0,0,-1,1119,1100,0,0
-98,-76,0,0,0,0,0,0,0,0,0,-1,1126,1100,0,0
-91,-76,0,0,0,0,0,0,0,0,0,-1,1133,1100,0,0
-84,-76,0,0,0,0,0,0,0,0,0,-1,1140,1100,0,0
-77,-76,0,0,0,0,0,0,0,0,0,-1,1147,1100,0,0
-70,-76,0,0,0,0,0,0,0,0,0,-1,1154,1100,0,0
-63,-76,0,0,0,0,0,0,0,0,0,-1,1161,1100,0,0
-56,-76,0,0,0,0,0,0,0,0,0,-1,1168,1100,0,0
-49,-76,0,0,0,0,0,0,0,0,0,-1,1175,1100,0,0
-42,-76,0,0,0,0,0,0,0,0,0,-1,1182,1100,0,0
-35,-76,0,0,0,0,0,0,0,0,0,-1,1189,1100,0,0
-28,-76,0,0,0,0,0,0,0,0,0,-1,1196,1100,0,0
-21,-76,0,0,0,0,0,0,0,0,0,-1,1203,1100,0,0
-14,-76,0,0,0,0,0,0,0,0,0,-1,1210,1100,0,0
-7,-76,0,0,0,0,0,0,0,0,0,-1,1217,1100,0,0
0,-76,0,0,0,0,0,0,0,0,0,-1,1224,1100,0,0
7,-76,0,0,0,0,0,0,0,0,0,-1,1231,1100,0,0
14,-76,0,0,0,0,0,0,0,0,0,-1,1238,1100,0,0
21,-76,0,0,0,0,0,0,0,0,0,-1,1245,1100,0,0
28,-76,0,0,0,0,0,0,0,0,0,-1,1252,1100,0,0
35,-76,0,0,0,0,0,0,0,0,0,-1,1259,1100,0,0
42,-76,0,0,0,0,0,0,0,0,0,-1,1266,1100,0,0
49,-76,0,0,0,0,0,0,0,0,0,-1,1273,1100,0,0
56,-76,0,0,0,0,0,0,0,0,0,-1,1280,1100,0,0
63,-76,0,0,0,0,0,0,0,0,0,-1,1287,1100,0,0
70,-76,0,0,0,0,0,0,0,0,0,-1,1294,1100,0,0
77,-76,0,0,0,0,0,0,0,0,0,-1,1301,1100,0,0
84,-76,0,0,0,0,0,0,0,0,0,-1,1308,1100,0,0
91,-76,0,0,0,0,0,0,0,0,0,-1,1315,1100,0,0
98,-76,0,0,0,0,0,0,0,0,0,-1,1322,1100,0,0
105,-76,0,0,0,0,0,0,0,0,0,-1,1329,1100,0,0
112,-76,0,0,0,0,0,0,0,0,0,-1,1336,1100,0,0
119,-76,0,0,0,0,0,0,0,0,0,-1,1343,1100,0,0
126,-76,0,0,0,0,0,0,0,0,0,-1,1350,1100,0,0
133,-76,0,0,0,0,0,0,0,0,0,-1,1357,1100,0,0
140,-76,0,0,0,0,0,0,0,0,0,-1,1364,1100,0,0
147,-76,0,0,0,0,0,0,0,0,0,-1,1371,1100,0,0
154,-76,0,0,0,0,0,0,0,0,0,-1,1378,1100,0,0
161,-76,0,0,0,0,0,0,0,0,0,-1,1385,1100,0,0
168,-76,0,0,0,0,0,0,0,0,0,-1,1392,1100,0,0
175,-76,0,0,0,0,0,0,0,0,0,-1,1399,1100,0,0
182,-76,0,0,0,0,0,0,0,0,0,-1,1406,1100,0,0
189,-76,0,0,0,0,0,0,0,0,0,-1,1413,1100,0,0
196,-76,0,0,0,0,0,0,0,0,0,-1,1420,1100,0,0
203,-76,0,0,0,0,0,0,0,0,0,-1,1427,1100,0,0
210,-76,0,0,0,0,0,0,0,0,0,-1,1434,1100,0,0
217,-76,0,0,0,0,0,0,0,0,0,-1,1441,1100,0,0
224,-76,0,0,0,0,0,0,0,0,0,-1,1448,1100,0,0
231,-76,0,0,0,0,0,0,0,0,0,-1,1455,1100,0,0
238,-76,0,0,0,0,0,0,0,0,0,-1,1462,1100,0,0
245,-76,0,0,0,0,0,0,0,0,0,-1,1469,1100,0,0
252,-76,0,0,0,0,0,0,0,0,0,-1,1476,1100,0,0
259,-76,0,0,0,0,0,0,0,0,0,-1,1483,1100,0,0
266,-76,0,0,0,0,0,0,0,0,0,-1,1490,1100,0,0
273,-76,0,0,0,0,0,0,0,0,0,-1,1497,1100,0,0
280,-76,0,0,0,0,0,0,0,0,0,-1,1504,1100,0,0
287,-76,0,0,0,0,0,0,0,0,0,-1,1511,1100,0,0
294,-76,0,0,0,0,0,0,0,0,0,-1,1518,1100,0,0
301,-76,0,0,0,0,0,0,0,0,0,-1,1525,1100,0,0
308,-76,0,0,0,0,0,0,0,0,0,-1,1532,1100,0,0
315,-76,0,0,0,0,0,0,0,0,0,-1,1539,1100,0,0
322,-76,0,0,0,0,0,0,0,0,0,-1,1546,1100,0,0
329,-76,0,0,0,0,0,0,0,0,0,-1,1553,1100,0,0
336,-76,0,0,0,0,0,0,0,0,0,-1,1560,1100,0,0
343,-76,0,0,0,0,0,0,0,0,0,-1,1567,1100,0,0
350,-76,0,0,0,0,0,0,0,0,0,-1,1574,1100,0,0
357,-76,0,0,0,0,0,0,0,0,0,-1,1581,1100,0,0
364,-76,0,0,0,0,0,0,0,0,0,-1,1588,1100,0,0
371,-76,0,0,0,0,0,0,0,0,0,-1,1595,1100,0,0
378,-76,0,0,0,0,0,0,0,0,0,-1,1602,1100,0,0
385,-76,0,0,0,0,0,0,0,0,0,-1,1609,1100,0,0
392,-76,0,0,0,0,0,0,0,0,0,-1,1616,1100,0,0
399,-76,0,0,0,0,0,0,0,0,0,-1,1623,1100,0,0
406,-76,0,0,0,0,0,0,0,0,0,-1,1630,1100,0,0
413,-76,0,0,0,0,0,0,0,0,0,-1,1637,1100,0,0
420,-76,0,0,0,0,0,0,0,0,0,-1,1644,1100,0,0
427,-76,0,0,0,0,0,0,0,0,0,-1,1651,1100,0,0
434,-76,0,0,0,0,0,0,0,0,0,-1,1658,1100,0,0
441,-76,0,0,0,0,0,0,0,0,0,-1,1665,1100,0,0
448,-76,0,0,0,0,0,0,0,0,0,-1,1672,1100,0,0
455,-76,0,0,0,0,0,0,0,0,0,-1,1679,1100,0,0
462,-76,0,0,0,0,0,0,0,0,0,-1,1686,1100,0,0
469,-76,0,0,0,0,0,0,0,0,0,-1,1693,1100,0,0
476,-76,0,0,0,0,0,0,0,0,0,-1,1700,1100,0,0
483,-76,0,0,0,0,0,0,0,0,0,-1,1707,1100,0,0
490,-76,0,0,0,0,0,0,0,0,0,-1,1714,1100,0,0
497,-76,0,0,0,0,0,0,0,0,0,-1,1721,1100,0,0
504,-76,0,0,0,0,0,0,0,0,0,-1,1728,1100,0,0
511,-76,0,0,0,0,0,0,0,0,0,-1,1735,1100,0,0
518,-76,0,0,0,0,0,0,0,0,0,-1,1742,1100,0,0
525,-76,0,0,0,0,0,0,0,0,0,-1,1749,1100,0,0
532,-76,0,0,0,0,0,0,0,0,0,-1,1756,1100,0,0
539,-76,0,0,0,0,0,0,0,0,0,-1,1763,1100,0,0
546,-76,0,0,0,0,0,0,0,0,0,-1,1770,1100,0,0
553,-76,0,0,0,0,0,0,0,0,0,-1,1777,1100,0,0
560,-76,0,0,0,0,0,0,0,0,0,-1,1784,1100,0,0
567,-76,0,0,0,0,0,0,0,0,0,-1,1791,1100,0,0
574,-76,0,0,0,0,0,0,0,0,0,-1,1798,1100,0,0
581,-76,0,0,0,0,0,0,0,0,0,-1,1805,1100,0,0
588,-76,0,0,0,0,0,0,0,0,0,-1,1812,1100,0,0
595,-76,0,0,0,0,0,0,0,0,0,-1,1819,1100,0,0
602,-76,0,0,0,0,0,0,0,0,0,-1,1826,1100,0,0
609,-76,0,0,0,0,0,0,0,0,0,-1,1833,1100,0,0
616,-76,0,0,0,0,0,0,0,0,0,-1,1840,1100,0,0
623,-76,0,0,0,0,0,0,0,0,0,-1,1847,1100,0,0
630,-76,0,0,0,0,0,0,0,0,0,-1,1854,1100,0,0
637,-76,0,0,0,0,0,0,0,0,0,-1,1861,1100,0,0
644,-76,0,0,0,0,0,0,0,0,0,-1,1868,1100,0,0
651,-76,36.7196,2.45947,0.0037865,-0.00127798,-0.000853751,0.00392655,-0.00141803,-0.162592,0.00319699,0.0390407,1875,1100,36.7196,-2.4595
658,-76,36.6715,2.33704,0.00243899,-0.000921464,-0.000647239,0.00255934,-0.00104181,-0.183845,0.00213978,0.0416848,1882,1100,36.6716,-2.33703
665,-76,36.6869,2.30981,0.00161729,-0.000665985,-0.000354341,0.00167101,-0.000719711,-0.150476,0.00141624,0.0381975,1889,1100,36.6869,-2.30986
672,-76,36.7042,2.45081,0.00125004,-0.000646611,0.000171361,0.0012654,-0.000661969,0.0893848,0.0011308,0.0348189,1896,1100,36.7042,-2.45078
679,-76,36.703,2.52942,0.000822657,-0.000796795,0.000836336,0.00117703,-0.00115116,0.400781,0.00134421,0.0356712,1903,1100,36.703,-2.52937
686,-76,36.8284,2.46814,0.000350711,-0.00109517,0.00144187,0.00124072,-0.00198519,0.553017,0.00187894,0.0357504,1910,1100,36.8283,-2.4681
693,-76,36.8118,2.46484,5.5624e-05,-0.00140102,0.00193093,0.00139103,-0.00273642,0.605055,0.00242482,0.0364366,1917,1100,36.8118,-2.46479
700,-76,36.7091,2.42896,-0.000403,-0.00159687,0.00227547,0.00135253,-0.00335241,0.657121,0.002797,0.0310492,1924,1100,36.7091,-2.42892
707,-76,36.7286,2.45935,-0.000756436,-0.00173026,0.00257838,0.0013806,-0.0038673,0.692075,0.00314121,0.0241428,1931,1100,36.7287,-2.45937
714,-76,36.8063,2.69592,-0.00102463,-0.00154996,0.00281287,0.00153781,-0.0041124,0.738843,0.00337315,0.044853,1938,1100,36.8062,-2.69593
721,-76,35.8271,5.37085,0,0,0,0,0,0,0,-1,1945,1100,35.8271,-5.37082
728,-76,35.5642,5.44714,-0.00175339,-0.00129167,0.00299687,0.00148322,-0.00452828,0.823838,0.00361612,0.040473,1952,1100,35.5642,-5.44712
735,-76,35.0435,5.38025,-0.00214048,-0.000907399,0.00299257,0.00153148,-0.00457936,0.886989,0.00367147,0.031627,1959,1100,35.0434,-5.3802
742,-76,35.2488,5.16113,-0.00275302,-0.000579899,0.00292934,0.00145791,-0.00479083,0.962994,0.00377489,0.0205515,1966,1100,35.2488,-5.16109
749,-76,35.1553,4.91895,-0.0035415,-0.000215806,0.00263867,0.00124027,-0.00499757,1.06656,0.00381298,0.0201043,1973,1100,35.1552,-4.91889
756,-76,35.1915,4.76575,-0.00385229,0.000483349,0.00206293,0.00130804,-0.00467698,1.19049,0.00363335,0.015348,1980,1100,35.1916,-4.76577
763,-76,35.1683,4.55823,-0.00417786,0.00103014,0.00123137,0.00130661,-0.00445433,1.34994,0.00348765,0.0158785,1987,1100,35.1683,-4.55827
770,-76,35.0842,4.42151,-0.00461835,0.00155241,0.000141439,0.00155565,-0.00462159,1.54789,0.00370997,0.0166741,1994,1100,35.0842,-4.42146
777,-76,35.0228,4.33911,-0.00490906,0.0017938,-0.00114121,0.00198277,-0.00509804,-1.4067,0.00421793,0.0211846,2001,1100,35.0228,-4.3391
784,-76,35.1681,4.01904,-0.00514395,0.00170131,-0.00278269,0.00268977,-0.00613242,-1.22948,0.00522116,0.0334373,2008,1100,35.1681,-4.01901
791,-76,35.5239,3.65857,-0.00527578,0.00126732,-0.00510863,0.00406217,-0.00807062,-1.0702,0.00713116,0.0437894,2015,1100,35.5238,-3.65863
798,-76,34.5374,3.52356,-0.00469672,0.000484015,-0.00841616,0.00669942,-0.0109121,-0.93469,0.0102645,0.0469821,2022,1100,34.5373,-3.52356
805,-76,34.6353,3.30603,0,0,0,0,0,0,0,-1,2029,1100,34.6352,-3.306
812,-76,33.0095,2.96436,0,0,0,0,0,0,0,-1,2036,1100,33.0095,-2.96433
-700,-83,0,0,0,0,0,0,0,0,0,-1,524,1107,0,0
-693,-83,-23.9437,0.438599,0.0377713,0.086189,-0.0396249,0.108415,0.0155453,-1.05961,0.0676925,0.048357,531,1107,-23.9437,-0.438609
-686,-83,-24.4531,-5.71155,0.0324884,0.0607043,-0.024752,0.0750866,0.0181061,-1.04442,0.0452465,0.0497633,538,1107,-24.4531,5.71155
-679,-83,-24.936,-4.83105,0,0,0,0,0,0,0,-1,545,1107,-24.9359,4.83103
-672,-83,-24.1384,1.19714,0.0223342,0.0296393,-0.00664456,0.0335691,0.0184045,-1.03671,0.0194112,0.0458224,552,1107,-24.1384,-1.19717
-665,-83,-24.1322,1.49658,0.0177804,0.0205522,-0.00172116,0.0213761,0.0169565,-1.12436,0.0130298,0.0467352,559,1107,-24.1322,-1.49662
-658,-83,-25.1104,0.641357,0.013682,0.0142436,0.00122898,0.0152234,0.0127022,0.8977,0.00942166,0.0432783,566,1107,-25.1104,-0.64134
-651,-83,-24.9969,0.986328,0.0102299,0.00989096,0.00272169,0.0127874,0.00733348,0.754302,0.00740935,0.0320598,573,1107,-24.9969,-0.986309
-644,-83,-24.978,1.32202,0.00747144,0.00724687,0.00330287,0.0106639,0.00405437,0.768407,0.00621546,0.0153615,580,1107,-24.978,-1.32206
-637,-83,-25.0303,1.60205,0.00479092,0.00104932,0.00421318,0.00752998,-0.00168973,0.576457,0.00566782,0.0124681,587,1107,-25.0303,-1.60202
-630,-83,-25.0518,1.84534,0.00305799,0.00188859,0.0030851,0.00561331,-0.000666723,0.691747,0.00398309,0.0183029,594,1107,-25.0518,-1.84539
-623,-83,-25.0531,2.05994,0.00218102,0.00152223,0.000963609,0.00286997,0.000833267,0.620707,0.00170485,0.0162456,601,1107,-25.0531,-2.05989
-616,-83,-25.0641,2.29407,0.00160502,0.00108136,-0.000482435,0.00189209,0.000794281,-0.536778,0.00109708,0.0142311,608,1107,-25.0641,-2.29407
-609,-83,-25.0818,2.50085,0.00156594,0.000696191,-0.00147374,0.00266762,-0.000405496,-0.641929,0.00192785,0.0155521,615,1107,-25.0818,-2.50088
-602,-83,-25.0841,2.77209,0.00161947,0.000442616,-0.00208271,0.00319528,-0.00113319,-0.647721,0.00259185,0.0166457,622,1107,-25.0841,-2.77208
-595,-83,-25.0057,3.02759,0.00170406,0.00027116,-0.00268736,0.00376883,-0.00179362,-0.655128,0.00327828,0.0199051,629,1107,-25.0057,-3.02761
-588,-83,-25.5339,2.19592,0,0,0,0,0,0,0,-1,636,1107,-25.534,-2.19591
-581,-83,-26.6086,0.530396,0,0,0,0,0,0,0,-1,643,1107,-26.6086,-0.530341
-574,-83,-26.6218,0.447754,0.0018843,0.000595864,-0.00291191,0.0042224,-0.00174224,-0.676534,0.00354153,0.0364316,650,1107,-26.6218,-0.447773
-567,-83,-26.6831,0.377197,0.00178898,0.000954742,-0.00283096,0.00423339,-0.00148966,-0.712253,0.00342844,0.0435978,657,1107,-26.6831,-0.377146
-560,-83,-26.6848,-0.00476074,0,0,0,0,0,0,0,-1,664,1107,-26.6847,0.00471971
-553,-83,-26.6933,0.0218506,0,0,0,0,0,0,0,-1,671,1107,-26.6933,-0.0218627
-546,-83,-26.5138,0.563354,-3.65891e-05,0.0025884,-0.00106646,0.00296706,-0.000415243,-1.22962,0.00212999,0.0451849,678,1107,-26.5138,-0.563309
-539,-83,-26.4704,0.561157,-0.000876511,0.00304777,0.000497602,0.00310988,-0.000938624,1.44661,0.00244689,0.0435497,685,1107,-26.4704,-0.561196
-532,-83,-26.5394,0.493652,-0.00172986,0.00327121,0.00163239,0.00375688,-0.00221552,1.28162,0.00348623,0.0418352,692,1107,-26.5394,-0.493692
-525,-83,0,0,0,0,0,0,0,0,0,-1,699,1107,0,0
-518,-83,0,0,0,0,0,0,0,0,0,-1,706,1107,0,0
-511,-83,0,0,0,0,0,0,0,0,0,-1,713,1107,0,0
-504,-83,0,0,0,0,0,0,0,0,0,-1,720,1107,0,0
-497,-83,0,0,0,0,0,0,0,0,0,-1,727,1107,0,0
-490,-83,0,0,0,0,0,0,0,0,0,-1,734,1107,0,0
-483,-83,0,0,0,0,0,0,0,0,0,-1,741,1107,0,0
-476,-83,0,0,0,0,0,0,0,0,0,-1,748,1107,0,0
-469,-83,0,0,0,0,0,0,0,0,0,-1,755,1107,0,0
-462,-83,0,0,0,0,0,0,0,0,0,-1,762,1107,0,0
-455,-83,0,0,0,0,0,0,0,0,0,-1,769,1107,0,0
-448,-83,0,0,0,0,0,0,0,0,0,-1,776,1107,0,0
-441,-83,0,0,0,0,0,0,0,0,0,-1,783,1107,0,0
-434,-83,0,0,0,0,0,0,0,0,0,-1,790,1107,0,0
-427,-83,0,0,0,0,0,0,0,0,0,-1,797,1107,0,0
-420,-83,0,0,0,0,0,0,0,0,0,-1,804,1107,0,0
-413,-83,0,0,0,0,0,0,0,0,0,-1,811,1107,0,0
-406,-83,0,0,0,0,0,0,0,0,0,-1,818,1107,0,0
-399,-83,0,0,0,0,0,0,0,0,0,-1,825,1107,0,0
-392,-83,0,0,0,0,0,0,0,0,0,-1,832,1107,0,0
-385,-83,0,0,0,0,0,0,0,0,0,-1,839,1107,0,0
-378,-83,0,0,0,0,0,0,0,0,0,-1,846,1107,0,0
-371,-83,0,0,0,0,0,0,0,0,0,-1,853,1107,0,0
-364,-83,0,0,0,0,0,0,0,0,0,-1,860,1107,0,0
-357,-83,0,0,0,0,0,0,0,0,0,-1,867,1107,0,0
-350,-83,0,0,0,0,0,0,0,0,0,-1,874,1107,0,0
-343,-83,0,0,0,0,0,0,0,0,0,-1,881,1107,0,0
-336,-83,0,0,0,0,0,0,0,0,0,-1,888,1107,0,0
-329,-83,0,0,0,0,0,0,0,0,0,-1,895,1107,0,0
-322,-83,0,0,0,0,0,0,0,0,0,-1,902,1107,0,0
-315,-83,0,0,0,0,0,0,0,0,0,-1,909,1107,0,0
-308,-83,0,0,0,0,0,0,0,0,0,-1,916,1107,0,0
-301,-83,0,0,0,0,0,0,0,0,0,-1,923,1107,0,0
-294,-83,0,0,0,0,0,0,0,0,0,-1,930,1107,0,0
-287,-83,0,0,0,0,0,0,0,0,0,-1,937,1107,0,0
-280,-83,0,0,0,0,0,0,0,0,0,-1,944,1107,0,0
-273,-83,0,0,0,0,0,0,0,0,0,-1,951,1107,0,0
-266,-83,0,0,0,0,0,0,0,0,0,-1,958,1107,0,0
-259,-83,0,0,0,0,0,0,0,0,0,-1,965,1107,0,0
-252,-83,0,0,0,0,0,0,0,0,0,-1,972,1107,0,0
-245,-83,0,0,0,0,0,0,0,0,0,-1,979,1107,0,0
-238,-83,0,0,0,0,0,0,0,0,0,-1,986,1107,0,0
-231,-83,0,0,0,0,0,0,0,0,0,-1,993,1107,0,0
-224,-83,0,0,0,0,0,0,0,0,0,-1,1000,1107,0,0
-217,-83,0,0,0,0,0,0,0,0,0,-1,1007,1107,0,0
-210,-83,0,0,0,0,0,0,0,0,0,-1,1014,1107,0,0
-203,-83,0,0,0,0,0,0,0,0,0,-1,1021,1107,0,0
-196,-83,0,0,0,0,0,0,0,0,0,-1,1028,1107,0,0
-189,-83,0,0,0,0,0,0,0,0,0,-1,1035,1107,0,0
-182,-83,0,0,0,0,0,0,0,0,0,-1,1042,1107,0,0
-175,-83,0,0,0,0,0,0,0,0,0,-1,1049,1107,0,0
-168,-83,0,0,0,0,0,0,0,0,0,-1,1056,1107,0,0
-161,-83,0,0,0,0,0,0,0,0,0,-1,1063,1107,0,0
-154,-83,0,0,0,0,0,0,0,0,0,-1,1070,1107,0,0
-147,-83,0,0,0,0,0,0,0,0,0,-1,1077,1107,0,0
-140,-83,0,0,0,0,0,0,0,0,0,-1,1084,1107,0,0
-133,-83,0,0,0,0,0,0,0,0,0,-1,1091,1107,0,0
-126,-83,0,0,0,0,0,0,0,0,0,-1,1098,1107,0,0
-119,-83,0,0,0,0,0,0,0,0,0,-1,1105,1107,0,0
-112,-83,0,0,0,0,0,0,0,0,0,-1,1112,1107,0,0
-105,-83,0,0,0,0,0,0,0,0,0,-1,1119,1107,0,0
-98,-83,0,0,0,0,0,0,0,0,0,-1,1126,1107,0,0
-91,-83,0,0,0,0,0,0,0,0,0,-1,1133,1107,0,0
-84,-83,0,0,0,0,0,0,0,0,0,-1,1140,1107,0,0
-77,-83,0,0,0,0,0,0,0,0,0,-1,1147,1107,0,0
-70,-83,0,0,0,0,0,0,0,0,0,-1,1154,1107,0,0
-63,-83,0,0,0,0,0,0,0,0,0,-1,1161,1107,0,0
-56,-83,0,0,0,0,0,0,0,0,0,-1,1168,1107,0,0
-49,-83,0,0,0,0,0,0,0,0,0,-1,1175,1107,0,0
-42,-83,0,0,0,0,0,0,0,0,0,-1,1182,1107,0,0
-35,-83,0,0,0,0,0,0,0,0,0,-1,1189,1107,0,0
-28,-83,0,0,0,0,0,0,0,0,0,-1,1196,1107,0,0
-21,-83,0,0,0,0,0,0,0,0,0,-1,1203,1107,0,0
-14,-83,0,0,0,0,0,0,0,0,0,-1,1210,1107,0,0
-7,-83,0,0,0,0,0,0,0,0,0,-1,1217,1107,0,0
0,-83,0,0,0,0,0,0,0,0,0,-1,1224,1107,0,0
7,-83,0,0,0,0,0,0,0,0,0,-1,1231,1107,0,0
14,-83,0,0,0,0,0,0,0,0,0,-1,1238,1107,0,0
21,-83,0,0,0,0,0,0,0,0,0,-1,1245,1107,0,0
28,-83,0,0,0,0,0,0,0,0,0,-1,1252,1107,0,0
35,-83,0,0,0,0,0,0,0,0,0,-1,1259,1107,0,0
42,-83,0,0,0,0,0,0,0,0,0,-1,1266,1107,0,0
49,-83,0,0,0,0,0,0,0,0,0,-1,1273,1107,0,0
56,-83,0,0,0,0,0,0,0,0,0,-1,1280,1107,0,0
63,-83,0,0,0,0,0,0,0,0,0,-1,1287,1107,0,0
70,-83,0,0,0,0,0,0,0,0,0,-1,1294,1107,0,0
77,-83,0,0,0,0,0,0,0,0,0,-1,1301,1107,0,0
84,-83,0,0,0,0,0,0,0,0,0,-1,1308,1107,0,0
91,-83,0,0,0,0,0,0,0,0,0,-1,1315,1107,0,0
98,-83,0,0,0,0,0,0,0,0,0,-1,1322,1107,0,0
105,-83,0,0,0,0,0,0,0,0,0,-1,1329,1107,0,0
112,-83,0,0,0,0,0,0,0,0,0,-1,1336,1107,0,0
119,-83,0,0,0,0,0,0,0,0,0,-1,1343,1107,0,0
126,-83,0,0,0,0,0,0,0,0,0,-1,1350,1107,0,0
133,-83,0,0,0,0,0,0,0,0,0,-1,1357,1107,0,0
140,-83,0,0,0,0,0,0,0,0,0,-1,1364,1107,0,0
147,-83,0,0,0,0,0,0,0,0,0,-1,1371,1107,0,0
154,-83,0,0,0,0,0,0,0,0,0,-1,1378,1107,0,0
161,-83,0,0,0,0,0,0,0,0,0,-1,1385,1107,0,0
168,-83,0,0,0,0,0,0,0,0,0,-1,1392,1107,0,0
175,-83,0,0,0,0,0,0,0,0,0,-1,1399,1107,0,0
182,-83,0,0,0,0,0,0,0,0,0,-1,1406,1107,0,0
189,-83,0,0,0,0,0,0,0,0,0,-1,1413,1107,0,0
196,-83,0,0,0,0,0,0,0,0,0,-1,1420,1107,0,0
203,-83,0,0,0,0,0,0,0,0,0,-1,1427,1107,0,0
210,-83,0,0,0,0,0,0,0,0,0,-1,1434,1107,0,0
217,-83,0,0,0,0,0,0,0,0,0,-1,1441,1107,0,0
224,-83,0,0,0,0,0,0,0,0,0,-1,1448,1107,0,0
231,-83,0,0,0,0,0,0,0,0,0,-1,1455,1107,0,0
238,-83,0,0,0,0,0,0,0,0,0,-1,1462,1107,0,0
245,-83,0,0,0,0,0,0,0,0,0,-1,1469,1107,0,0
252,-83,0,0,0,0,0,0,0,0,0,-1,1476,1107,0,0
259,-83,0,0,0,0,0,0,0,0,0,-1,1483,1107,0,0
266,-83,0,0,0,0,0,0,0,0,0,-1,1490,1107,0,0
273,-83,0,0,0,0,0,0,0,0,0,-1,1497,1107,0,0
280,-83,0,0,0,0,0,0,0,0,0,-1,1504,1107,0,0
287,-83,0,0,0,0,0,0,0,0,0,-1,1511,1107,0,0
294,-83,0,0,0,0,0,0,0,0,0,-1,1518,1107,0,0
301,-83,0,0,0,0,0,0,0,0,0,-1,1525,1107,0,0
308,-83,0,0,0,0,0,0,0,0,0,-1,1532,1107,0,0
315,-83,0,0,0,0,0,0,0,0,0,-1,1539,1107,0,0
322,-83,0,0,0,0,0,0,0,0,0,-1,1546,1107,0,0
329,-83,0,0,0,0,0,0,0,0,0,-1,1553,1107,0,0
336,-83,0,0,0,0,0,0,0,0,0,-1,1560,1107,0,0
343,-83,0,0,0,0,0,0,0,0,0,-1,1567,1107,0,0
350,-83,0,0,0,0,0,0,0,0,0,-1,1574,1107,0,0
357,-83,0,0,0,0,0,0,0,0,0,-1,1581,1107,0,0
364,-83,0,0,0,0,0,0,0,0,0,-1,1588,1107,0,0
371,-83,0,0,0,0,0,0,0,0,0,-1,1595,1107,0,0
378,-83,0,0,0,0,0,0,0,0,0,-1,1602,1107,0,0
385,-83,0,0,0,0,0,0,0,0,0,-1,1609,1107,0,0
392,-83,0,0,0,0,0,0,0,0,0,-1,1616,1107,0,0
399,-83,0,0,0,0,0,0,0,0,0,-1,1623,1107,0,0
406,-83,0,0,0,0,0,0,0,0,0,-1,1630,1107,0,0
413,-83,0,0,0,0,0,0,0,0,0,-1,1637,1107,0,0
420,-83,0,0,0,0,0,0,0,0,0,-1,1644,1107,0,0
427,-83,0,0,0,0,0,0,0,0,0,-1,1651,1107,0,0
434,-83,0,0,0,0,0,0,0,0,0,-1,1658,1107,0,0
441,-83,0,0,0,0,0,0,0,0,0,-1,1665,1107,0,0
448,-83,0,0,0,0,0,0,0,0,0,-1,1672,1107,0,0
455,-83,0,0,0,0,0,0,0,0,0,-1,1679,1107,0,0
462,-83,0,0,0,0,0,0,0,0,0,-1,1686,1107,0,0
469,-83,0,0,0,0,0,0,0,0,0,-1,1693,1107,0,0
476,-83,0,0,0,0,0,0,0,0,0,-1,1700,1107,0,0
483,-83,0,0,0,0,0,0,0,0,0,-1,1707,1107,0,0
490,-83,0,0,0,0,0,0,0,0,0,-1,1714,1107,0,0
497,-83,0,0,0,0,0,0,0,0,0,-1,1721,1107,0,0
504,-83,0,0,0,0,0,0,0,0,0,-1,1728,1107,0,0
511,-83,0,0,0,0,0,0,0,0,0,-1,1735,1107,0,0
518,-83,0,0,0,0,0,0,0,0,0,-1,1742,1107,0,0
525,-83,0,0,0,0,0,0,0,0,0,-1,1749,1107,0,0
532,-83,0,0,0,0,0,0,0,0,0,-1,1756,1107,0,0
539,-83,0,0,0,0,0,0,0,0,0,-1,1763,1107,0,0
546,-83,0,0,0,0,0,0,0,0,0,-1,1770,1107,0,0
553,-83,0,0,0,0,0,0,0,0,0,-1,1777,1107,0,0
560,-83,0,0,0,0,0,0,0,0,0,-1,1784,1107,0,0
567,-83,0,0,0,0,0,0,0,0,0,-1,1791,1107,0,0
574,-83,0,0,0,0,0,0,0,0,0,-1,1798,1107,0,0
581,-83,0,0,0,0,0,0,0,0,0,-1,1805,1107,0,0
588,-83,0,0,0,0,0,0,0,0,0,-1,1812,1107,0,0
595,-83,0,0,0,0,0,0,0,0,0,-1,1819,1107,0,0
602,-83,0,0,0,0,0,0,0,0,0,-1,1826,1107,0,0
609,-83,0,0,0,0,0,0,0,0,0,-1,1833,1107,0,0
616,-83,0,0,0,0,0,0,0,0,0,-1,1840,1107,0,0
623,-83,0,0,0,0,0,0,0,0,0,-1,1847,1107,0,0
630,-83,0,0,0,0,0,0,0,0,0,-1,1854,1107,0,0
637,-83,0,0,0,0,0,0,0,0,0,-1,1861,1107,0,0
644,-83,36.7731,2.41199,0.00859789,-0.00215989,-0.00156526,0.00882101,-0.00238301,-0.14159,0.00681533,0.0338016,1868,1107,36.773,-2.41199
651,-83,36.8602,2.50305,0.00558698,-0.00163585,-0.0011475,0.0057649,-0.00181377,-0.153827,0.00456947,0.0407097,1875,1107,36.8602,-2.50304
658,-83,36.6672,2.79883,0.00372766,-0.00123075,-0.000812564,0.00385743,-0.00136051,-0.158359,0.00312544,0.0442215,1882,1107,36.6672,-2.79878
665,-83,36.5967,2.5199,0.00250905,-0.000936599,-0.000441775,0.00256479,-0.000992338,-0.125508,0.00211954,0.0397902,1889,1107,36.5967,-2.51994
672,-83,36.6885,2.38196,0.00180052,-0.000858454,8.86764e-05,0.00180347,-0.000861408,0.0333005,0.00157029,0.035665,1896,1107,36.6885,-2.38194
679,-83,36.6298,2.37927,0.00110618,-0.000942212,0.000701159,0.00132319,-0.00115923,0.300156,0.00143427,0.0348765,1903,1107,36.6297,-2.37926
686,-83,36.7188,2.46667,0.000506691,-0.00116696,0.00122333,0.00115203,-0.0018123,0.485426,0.00172555,0.0338671,1910,1107,36.7187,-2.46663
693,-83,36.7875,2.50342,0.000164314,-0.00139653,0.00163874,0.00119898,-0.00243119,0.563172,0.00213575,0.0351572,1917,1107,36.7874,-2.50338
700,-83,36.7385,2.50769,-0.000334683,-0.00154079,0.00193497,0.00108903,-0.00296451,0.634339,0.00242237,0.0306314,1924,1107,36.7385,-2.50772
707,-83,36.7312,2.48242,-0.000711069,-0.00163161,0.00220754,0.00108368,-0.00342635,0.682622,0.00271844,0.0243649,1931,1107,36.7312,-2.48246
714,-83,36.7415,2.46411,0,0,0,0,0,0,0,-1,1938,1107,36.7414,-2.46412
721,-83,34.9644,5.76636,0,0,0,0,0,0,0,-1,1945,1107,34.9644,-5.7664
728,-83,35.0021,5.56799,-0.00163654,-0.00117325,0.00261967,0.001225,-0.00403479,0.829496,0.0031779,0.0297502,1952,1107,35.0021,-5.56795
735,-83,34.8149,5.33862,-0.00197731,-0.000813038,0.00266804,0.00133563,-0.00412598,0.89281,0.00328758,0.0315387,1959,1107,34.815,-5.33861
742,-83,34.9579,5.14844,-0.00256207,-0.000500691,0.00267919,0.00133923,-0.00440199,0.969023,0.00346835,0.0186469,1966,1107,34.9579,-5.14849
749,-83,34.996,4.94238,-0.00329499,-0.000147093,0.00249953,0.00123277,-0.00467485,1.06638,0.00359858,0.0132067,1973,1107,34.996,-4.94237
756,-83,35.0081,4.74182,-0.00353475,0.000526698,0.00206567,0.00139267,-0.00440072,1.17383,0.00349187,0.0146304,1980,1107,35.0081,-4.74176
763,-83,35.0031,4.51685,-0.00375641,0.00104821,0.00141278,0.00143284,-0.00414104,1.30499,0.0033423,0.0118385,1987,1107,35.003,-4.51684
770,-83,34.9203,4.37769,-0.00401673,0.00156744,0.000551812,0.00162145,-0.00407074,1.47324,0.00338628,0.0144846,1994,1107,34.9202,-4.37771
777,-83,34.8385,4.23767,-0.00405642,0.00183772,-0.000477015,0.00187608,-0.00409478,-1.49056,0.00352571,0.0164608,2001,1107,34.8385,-4.2377
784,-83,34.8173,4.12634,-0.0039432,0.0018065,-0.00186741,0.00235976,-0.00449647,-1.28276,0.00402201,0.0250701,2008,1107,34.8173,-4.1264
791,-83,34.708,3.8562,-0.00358277,0.00144597,-0.0038975,0.00356977,-0.00570656,-1.07187,0.00540285,0.0411618,2015,1107,34.7079,-3.85624
798,-83,34.5769,3.8313,-0.00232769,0.000758341,-0.00682959,0.00621705,-0.0077864,-0.896498,0.0081018,0.0473542,2022,1107,34.5769,-3.83136
805,-83,34.5781,3.73914,0,0,0,0,0,0,0,-1,2029,1107,34.5781,-3.73919
812,-83,33.9109,3.28577,0,0,0,0,0,0,0,-1,2036,1107,33.9109,-3.28581
-700,-90,0,0,0,0,0,0,0,0,0,-1,524,1114,0,0
-693,-90,-24.8271,-6.26624,0.0358464,0.0942872,-0.0314025,0.107961,0.0221722,-1.16011,0.06584,0.0466577,531,1114,-24.8271,6.26622
-686,-90,-24.7256,-5.46509,0.0304918,0.0643605,-0.01858,0.0725655,0.0222867,-1.15494,0.0429222,0.0454855,538,1114,-24.7256,5.46504
-679,-90,-24.8594,-4.3407,0.0252938,0.0436346,-0.009713,0.0478223,0.0211061,-1.16373,0.0276735,0.0474583,545,1114,-24.8594,4.34073
-672,-90,-24.7281,-2.51367,0,0,0,0,0,0,0,-1,552,1114,-24.7281,2.51364
-665,-90,-24.7371,-0.00366211,0,0,0,0,0,0,0,-1,559,1114,-24.7371,0.00363026
-658,-90,-24.7268,0.404785,0.0123032,0.0129858,0.0020725,0.0147449,0.010544,0.867007,0.00877161,0.0482431,566,1114,-24.7268,-0.404777
-651,-90,-24.7212,0.824097,0.00906667,0.00865554,0.00297395,0.0118422,0.00588006,0.750893,0.00683712,0.0331098,573,1114,-24.7212,-0.824052
-644,-90,-24.7671,1.24658,0.00656098,0.00604843,0.0031761,0.00949113,0.00311828,0.745142,0.00558606,0.0147615,580,1114,-24.7671,-1.24656
-637,-90,-24.7788,1.58594,0.00417174,-4.86522e-05,0.00390378,0.00649915,-0.00237607,0.537618,0.00530523,0.0124659,587,1114,-24.7788,-1.58596
-630,-90,-24.7737,1.83948,0.00265456,0.00109312,0.0028253,0.00480502,-0.00105734,0.650596,0.00360781,0.0120957,594,1114,-24.7737,-1.83949
-623,-90,-24.7702,2.0752,0.00199315,0.00102607,0.000905323,0.00253597,0.00048325,0.54012,0.0015548,0.00956486,601,1114,-24.7702,-2.07524
-616,-90,-24.7963,2.32861,0.00164433,0.000810064,-0.000212907,0.00169553,0.000758871,-0.235969,0.000980704,0.0114028,608,1114,-24.7963,-2.32865
-609,-90,-24.822,2.53442,0.00172235,0.000388419,-0.000886861,0.00216505,-5.42847e-05,-0.462992,0.0014618,0.0166379,615,1114,-24.822,-2.53443
-602,-90,-24.8831,2.78235,0.00181085,4.75986e-05,-0.0012585,0.00246581,-0.000607361,-0.479856,0.00187933,0.0166143,622,1114,-24.8831,-2.78231
-595,-90,-24.7343,3.09521,0.00197241,-0.000211743,-0.00175662,0.00294875,-0.00118808,-0.507289,0.00245945,0.0130611,629,1114,-24.7343,-3.09518
-588,-90,-24.6546,3.31262,0,0,0,0,0,0,0,-1,636,1114,-24.6546,-3.31263
-581,-90,-26.6314,0.602905,0,0,0,0,0,0,0,-1,643,1114,-26.6314,-0.602958
-574,-90,-26.6218,0.651855,0.00206538,-8.36625e-05,-0.00186267,0.00314123,-0.00115952,-0.523778,0.00256941,0.0345954,650,1114,-26.6218,-0.65187
-567,-90,-26.686,0.704102,0.0019204,0.000178018,-0.00181209,0.00305984,-0.000961423,-0.561327,0.00242476,0.0374618,657,1114,-26.686,-0.704095
-560,-90,-26.7941,0.67627,0.00160297,0.000568195,-0.00164138,0.00280658,-0.000635411,-0.63272,0.00211492,0.0411299,664,1114,-26.7941,-0.676234
-553,-90,-26.5483,0.759399,0.000828029,0.0010734,-0.0013259,0.00228228,-0.000380849,-0.831531,0.00166307,0.0398479,671,1114,-26.5484,-0.75936
-546,-90,-26.3857,0.723877,-0.000484652,0.0016687,-0.000737937,0.00189731,-0.000713266,-1.27037,0.00155804,0.0414029,678,1114,-26.3857,-0.723819
-539,-90,-26.4456,0.566406,-0.00186988,0.00226948,0.000393772,0.0023066,-0.001907,1.47679,0.00243637,0.0423976,685,1114,-26.4456,-0.566433
-532,-90,-26.5098,0.503784,-0.00316741,0.00275092,0.00151303,0.00311529,-0.00353178,1.33447,0.0038402,0.040872,692,1114,-26.5097,-0.503797
-525,-90,0,0,0,0,0,0,0,0,0,-1,699,1114,0,0
-518,-90,0,0,0,0,0,0,0,0,0,-1,706,1114,0,0
-511,-90,0,0,0,0,0,0,0,0,0,-1,713,1114,0,0
-504,-90,0,0,0,0,0,0,0,0,0,-1,720,1114,0,0
-497,-90,0,0,0,0,0,0,0,0,0,-1,727,1114,0,0
-490,-90,0,0,0,0,0,0,0,0,0,-1,734,1114,0,0
-483,-90,0,0,0,0,0,0,0,0,0,-1,741,1114,0,0
-476,-90,0,0,0,0,0,0,0,0,0,-1,748,1114,0,0
-469,-90,0,0,0,0,0,0,0,0,0,-1,755,1114,0,0
-462,-90,0,0,0,0,0,0,0,0,0,-1,762,1114,0,0
-455,-90,0,0,0,0,0,0,0,0,0,-1,769,1114,0,0
-448,-90,0,0,0,0,0,0,0,0,0,-1,776,1114,0,0
-441,-90,0,0,0,0,0,0,0,0,0,-1,783,1114,0,0
-434,-90,0,0,0,0,0,0,0,0,0,-1,790,1114,0,0
-427,-90,0,0,0,0,0,0,0,0,0,-1,797,1114,0,0
-420,-90,0,0,0,0,0,0,0,0,0,-1,804,1114,0,0
-413,-90,0,0,0,0,0,0,0,0,0,-1,811,1114,0,0
-406,-90,0,0,0,0,0,0,0,0,0,-1,818,1114,0,0
-399,-90,0,0,0,0,0,0,0,0,0,-1,825,1114,0,0
-392,-90,0,0,0,0,0,0,0,0,0,-1,832,1114,0,0
-385,-90,0,0,0,0,0,0,0,0,0,-1,839,1114,0,0
-378,-90,0,0,0,0,0,0,0,0,0,-1,846,1114,0,0
-371,-90,0,0,0,0,0,0,0,0,0,-1,853,1114,0,0
-364,-90,0,0,0,0,0,0,0,0,0,-1,860,1114,0,0
-357,-90,0,0,0,0,0,0,0,0,0,-1,867,1114,0,0
-350,-90,0,0,0,0,0,0,0,0,0,-1,874,1114,0,0
-343,-90,0,0,0,0,0,0,0,0,0,-1,881,1114,0,0
-336,-90,0,0,0,0,0,0,0,0,0,-1,888,1114,0,0
-329,-90,0,0,0,0,0,0,0,0,0,-1,895,1114,0,0
-322,-90,0,0,0,0,0,0,0,0,0,-1,902,1114,0,0
-315,-90,0,0,0,0,0,0,0,0,0,-1,909,1114,0,0
-308,-90,0,0,0,0,0,0,0,0,0,-1,916,1114,0,0
-301,-90,0,0,0,0,0,0,0,0,0,-1,923,1114,0,0
-294,-90,0,0,0,0,0,0,0,0,0,-1,930,1114,0,0
-287,-90,0,0,0,0,0,0,0,0,0,-1,937,1114,0,0
-280,-90,0,0,0,0,0,0,0,0,0,-1,944,1114,0,0
-273,-90,0,0,0,0,0,0,0,0,0,-1,951,1114,0,0
-266,-90,0,0,0,0,0,0,0,0,0,-1,958,1114,0,0
-259,-90,0,0,0,0,0,0,0,0,0,-1,965,1114,0,0
-252,-90,0,0,0,0,0,0,0,0,0,-1,972,1114,0,0
-245,-90,0,0,0,0,0,0,0,0,0,-1,979,1114,0,0
-238,-90,0,0,0,0,0,0,0,0,0,-1,986,1114,0,0
-231,-90,0,0,0,0,0,0,0,0,0,-1,993,1114,0,0
-224,-90,0,0,0,0,0,0,0,0,0,-1,1000,1114,0,0
-217,-90,0,0,0,0,0,0,0,0,0,-1,1007,1114,0,0
-210,-90,0,0,0,0,0,0,0,0,0,-1,1014,1114,0,0
-203,-90,0,0,0,0,0,0,0,0,0,-1,1021,1114,0,0
-196,-90,0,0,0,0,0,0,0,0,0,-1,1028,1114,0,0
-189,-90,0,0,0,0,0,0,0,0,0,-1,1035,1114,0,0
-182,-90,0,0,0,0,0,0,0,0,0,-1,1042,1114,0,0
-175,-90,0,0,0,0,0,0,0,0,0,-1,1049,1114,0,0
-168,-90,0,0,0,0,0,0,0,0,0,-1,1056,1114,0,0
-161,-90,0,0,0,0,0,0,0,0,0,-1,1063,1114,0,0
-154,-90,0,0,0,0,0,0,0,0,0,-1,1070,1114,0,0
-147,-90,0,0,0,0,0,0,0,0,0,-1,1077,1114,0,0
-140,-90,0,0,0,0,0,0,0,0,0,-1,1084,1114,0,0
-133,-90,0,0,0,0,0,0,0,0,0,-1,1091,1114,0,0
-126,-90,0,0,0,0,0,0,0,0,0,-1,1098,1114,0,0
-119,-90,0,0,0,0,0,0,0,0,0,-1,1105,1114,0,0
-112,-90,0,0,0,0,0,0,0,0,0,-1,1112,1114,0,0
-105,-90,0,0,0,0,0,0,0,0,0,-1,1119,1114,0,0
-98,-90,0,0,0,0,0,0,0,0,0,-1,1126,1114,0,0
-91,-90,0,0,0,0,0,0,0,0,0,-1,1133,1114,0,0
-84,-90,0,0,0,0,0,0,0,0,0,-1,1140,1114,0,0
-77,-90,0,0,0,0,0,0,0,0,0,-1,1147,1114,0,0
-70,-90,0,0,0,0,0,0,0,0,0,-1,1154,1114,0,0
-63,-90,0,0,0,0,0,0,0,0,0,-1,1161,1114,0,0
-56,-90,0,0,0,0,0,0,0,0,0,-1,1168,1114,0,0
-49,-90,0,0,0,0,0,0,0,0,0,-1,1175,1114,0,0
-42,-90,0,0,0,0,0,0,0,0,0,-1,1182,1114,0,0
-35,-90,0,0,0,0,0,0,0,0,0,-1,1189,1114,0,0
-28,-90,0,0,0,0,0,0,0,0,0,-1,1196,1114,0,0
-21,-90,0,0,0,0,0,0,0,0,0,-1,1203,1114,0,0
-14,-90,0,0,0,0,0,0,0,0,0,-1,1210,1114,0,0
-7,-90,0,0,0,0,0,0,0,0,0,-1,1217,1114,0,0
0,-90,0,0,0,0,0,0,0,0,0,-1,1224,1114,0,0
7,-90,0,0,0,0,0,0,0,0,0,-1,1231,1114,0,0
14,-90,0,0,0,0,0,0,0,0,0,-1,1238,1114,0,0
21,-90,0,0,0,0,0,0,0,0,0,-1,1245,1114,0,0
28,-90,0,0,0,0,0,0,0,0,0,-1,1252,1114,0,0
35,-90,0,0,0,0,0,0,0,0,0,-1,1259,1114,0,0
42,-90,0,0,0,0,0,0,0,0,0,-1,1266,1114,0,0
49,-90,0,0,0,0,0,0,0,0,0,-1,1273,1114,0,0
56,-90,0,0,0,0,0,0,0,0,0,-1,1280,1114,0,0
63,-90,0,0,0,0,0,0,0,0,0,-1,1287,1114,0,0
70,-90,0,0,0,0,0,0,0,0,0,-1,1294,1114,0,0
77,-90,0,0,0,0,0,0,0,0,0,-1,1301,1114,0,0
84,-90,0,0,0,0,0,0,0,0,0,-1,1308,1114,0,0
91,-90,0,0,0,0,0,0,0,0,0,-1,1315,1114,0,0
98,-90,0,0,0,0,0,0,0,0,0,-1,1322,1114,0,0
105,-90,0,0,0,0,0,0,0,0,0,-1,1329,1114,0,0
112,-90,0,0,0,0,0,0,0,0,0,-1,1336,1114,0,0
119,-90,0,0,0,0,0,0,0,0,0,-1,1343,1114,0,0
126,-90,0,0,0,0,0,0,0,0,0,-1,1350,1114,0,0
133,-90,0,0,0,0,0,0,0,0,0,-1,1357,1114,0,0
140,-90,0,0,0,0,0,0,0,0,0,-1,1364,1114,0,0
147,-90,0,0,0,0,0,0,0,0,0,-1,1371,1114,0,0
154,-90,0,0,0,0,0,0,0,0,0,-1,1378,1114,0,0
161,-90,0,0,0,0,0,0,0,0,0,-1,1385,1114,0,0
168,-90,0,0,0,0,0,0,0,0,0,-1,1392,1114,0,0
175,-90,0,0,0,0,0,0,0,0,0,-1,1399,1114,0,0
182,-90,0,0,0,0,0,0,0,0,0,-1,1406,1114,0,0
189,-90,0,0,0,0,0,0,0,0,0,-1,1413,1114,0,0
196,-90,0,0,0,0,0,0,0,0,0,-1,1420,1114,0,0
203,-90,0,0,0,0,0,0,0,0,0,-1,1427,1114,0,0
210,-90,0,0,0,0,0,0,0,0,0,-1,1434,1114,0,0
217,-90,0,0,0,0,0,0,0,0,0,-1,1441,1114,0,0
224,-90,0,0,0,0,0,0,0,0,0,-1,1448,1114,0,0
231,-90,0,0,0,0,0,0,0,0,0,-1,1455,1114,0,0
238,-90,0,0,0,0,0,0,0,0,0,-1,1462,1114,0,0
245,-90,0,0,0,0,0,0,0,0,0,-1,1469,1114,0,0
252,-90,0,0,0,0,0,0,0,0,0,-1,1476,1114,0,0
259,-90,0,0,0,0,0,0,0,0,0,-1,1483,1114,0,0
266,-90,0,0,0,0,0,0,0,0,0,-1,1490,1114,0,0
273,-90,0,0,0,0,0,0,0,0,0,-1,1497,1114,0,0
280,-90,0,0,0,0,0,0,0,0,0,-1,1504,1114,0,0
287,-90,0,0,0,0,0,0,0,0,0,-1,1511,1114,0,0
294,-90,0,0,0,0,0,0,0,0,0,-1,1518,1114,0,0
301,-90,0,0,0,0,0,0,0,0,0,-1,1525,1114,0,0
308,-90,0,0,0,0,0,0,0,0,0,-1,1532,1114,0,0
315,-90,0,0,0,0,0,0,0,0,0,-1,1539,1114,0,0
322,-90,0,0,0,0,0,0,0,0,0,-1,1546,1114,0,0
329,-90,0,0,0,0,0,0,0,0,0,-1,1553,1114,0,0
336,-90,0,0,0,0,0,0,0,0,0,-1,1560,1114,0,0
343,-90,0,0,0,0,0,0,0,0,0,-1,1567,1114,0,0
350,-90,0,0,0,0,0,0,0,0,0,-1,1574,1114,0,0
357,-90,0,0,0,0,0,0,0,0,0,-1,1581,1114,0,0
364,-90,0,0,0,0,0,0,0,0,0,-1,1588,1114,0,0
371,-90,0,0,0,0,0,0,0,0,0,-1,1595,1114,0,0
378,-90,0,0,0,0,0,0,0,0,0,-1,1602,1114,0,0
385,-90,0,0,0,0,0,0,0,0,0,-1,1609,1114,0,0
392,-90,0,0,0,0,0,0,0,0,0,-1,1616,1114,0,0
399,-90,0,0,0,0,0,0,0,0,0,-1,1623,1114,0,0
406,-90,0,0,0,0,0,0,0,0,0,-1,1630,1114,0,0
413,-90,0,0,0,0,0,0,0,0,0,-1,1637,1114,0,0
420,-90,0,0,0,0,0,0,0,0,0,-1,1644,1114,0,0
427,-90,0,0,0,0,0,0,0,0,0,-1,1651,1114,0,0
434,-90,0,0,0,0,0,0,0,0,0,-1,1658,1114,0,0
441,-90,0,0,0,0,0,0,0,0,0,-1,1665,1114,0,0
448,-90,0,0,0,0,0,0,0,0,0,-1,1672,1114,0,0
455,-90,0,0,0,0,0,0,0,0,0,-1,1679,1114,0,0
462,-90,0,0,0,0,0,0,0,0,0,-1,1686,1114,0,0
469,-90,0,0,0,0,0,0,0,0,0,-1,1693,1114,0,0
476,-90,0,0,0,0,0,0,0,0,0,-1,1700,1114,0,0
483,-90,0,0,0,0,0,0,0,0,0,-1,1707,1114,0,0
490,-90,0,0,0,0,0,0,0,0,0,-1,1714,1114,0,0
497,-90,0,0,0,0,0,0,0,0,0,-1,1721,1114,0,0
504,-90,0,0,0,0,0,0,0,0,0,-1,1728,1114,0,0
511,-90,0,0,0,0,0,0,0,0,0,-1,1735,1114,0,0
518,-90,0,0,0,0,0,0,0,0,0,-1,1742,1114,0,0
525,-90,0,0,0,0,0,0,0,0,0,-1,1749,1114,0,0
532,-90,0,0,0,0,0,0,0,0,0,-1,1756,1114,0,0
539,-90,0,0,0,0,0,0,0,0,0,-1,1763,1114,0,0
546,-90,0,0,0,0,0,0,0,0,0,-1,1770,1114,0,0
553,-90,0,0,0,0,0,0,0,0,0,-1,1777,1114,0,0
560,-90,0,0,0,0,0,0,0,0,0,-1,1784,1114,0,0
567,-90,0,0,0,0,0,0,0,0,0,-1,1791,1114,0,0
574,-90,0,0,0,0,0,0,0,0,0,-1,1798,1114,0,0
581,-90,0,0,0,0,0,0,0,0,0,-1,1805,1114,0,0
588,-90,0,0,0,0,0,0,0,0,0,-1,1812,1114,0,0
595,-90,0,0,0,0,0,0,0,0,0,-1,1819,1114,0,0
602,-90,0,0,0,0,0,0,0,0,0,-1,1826,1114,0,0
609,-90,0,0,0,0,0,0,0,0,0,-1,1833,1114,0,0
616,-90,0,0,0,0,0,0,0,0,0,-1,1840,1114,0,0
623,-90,0,0,0,0,0,0,0,0,0,-1,1847,1114,0,0
630,-90,0,0,0,0,0,0,0,0,0,-1,1854,1114,0,0
637,-90,0,0,0,0,0,0,0,0,0,-1,1861,1114,0,0
644,-90,36.6526,2.43286,0.0107071,-0.0027653,-0.00230202,0.0110896,-0.00314778,-0.164648,0.00863573,0.0347167,1868,1114,36.6525,-2.43285
651,-90,36.7114,2.38025,0.00704735,-0.00216469,-0.00165197,0.00733463,-0.00245198,-0.172182,0.00588004,0.0391564,1875,1114,36.7114,-2.38028
658,-90,36.754,2.33167,0,0,0,0,0,0,0,-1,1882,1114,36.754,-2.33166
665,-90,36.6155,2.43323,0.00315661,-0.00132423,-0.000631326,0.00324386,-0.00141148,-0.137334,0.00275629,0.043821,1889,1114,36.6155,-2.43319
672,-90,36.7134,2.51184,0.00212823,-0.00114041,-6.63686e-05,0.00212958,-0.00114175,-0.0202935,0.00191719,0.0442621,1896,1114,36.7133,-2.51184
679,-90,36.6792,2.50806,0.00120606,-0.00111814,0.000501329,0.00130959,-0.00122166,0.203639,0.00146171,0.0390484,1903,1114,36.6791,-2.50806
686,-90,36.6621,2.58203,0.000502198,-0.00123916,0.000941215,0.000913692,-0.00165065,0.412154,0.00150077,0.0353342,1910,1114,36.6621,-2.58197
693,-90,36.7219,2.49219,0.000125866,-0.00137069,0.00127677,0.000857471,-0.00210229,0.52034,0.00175848,0.0336618,1917,1114,36.7219,-2.49217
700,-90,36.7343,2.48901,-0.000405203,-0.00144986,0.00152602,0.000685409,-0.00254047,0.620508,0.00196243,0.0281981,1924,1114,36.7343,-2.48899
707,-90,36.7144,2.43677,-0.000801455,-0.00147661,0.00176857,0.000661463,-0.00293953,0.691094,0.00221337,0.0237583,1931,1114,36.7144,-2.43674
714,-90,36.741,2.3363,0,0,0,0,0,0,0,-1,1938,1114,36.741,-2.33629
721,-90,34.7163,5.81958,0,0,0,0,0,0,0,-1,1945,1114,34.7163,-5.81962
728,-90,34.7509,5.64026,-0.00159987,-0.000949797,0.00214794,0.000897558,-0.00344722,0.860491,0.00264853,0.0222891,1952,1114,34.7508,-5.6403
735,-90,34.6371,5.3728,-0.00186973,-0.000626076,0.00225258,0.00108893,-0.00358473,0.920069,0.00282368,0.0261453,1959,1114,34.6371,-5.37281
742,-90,34.6897,5.13684,-0.00237671,-0.000318847,0.00234391,0.00121203,-0.00390758,0.992225,0.00308936,0.0222267,1966,1114,34.6897,-5.13686
749,-90,34.8662,4.87524,-0.00298662,7.22042e-05,0.00232048,0.00132195,-0.00423637,1.07677,0.00335292,0.0146791,1973,1114,34.8663,-4.87524
756,-90,34.8433,4.69885,-0.00308867,0.000759442,0.00206313,0.00165647,-0.00398569,1.16066,0.00334875,0.0148511,1980,1114,34.8433,-4.69885
763,-90,34.8107,4.50598,-0.00310109,0.00131311,0.00165463,0.00186446,-0.00365245,1.24915,0.00324047,0.0120978,1987,1114,34.8107,-4.50594
770,-90,34.7645,4.30322,-0.00303251,0.00191272,0.00111794,0.0021537,-0.00327349,1.35848,0.00315555,0.01506,1994,1114,34.7645,-4.30325
777,-90,34.6969,4.16699,-0.00266004,0.00233051,0.00044333,0.00236958,-0.00269912,1.48288,0.00292848,0.0152656,2001,1114,34.6969,-4.16695
784,-90,34.6455,4.11548,-0.002033,0.00253281,-0.000569891,0.00260286,-0.00210305,-1.44848,0.00272207,0.0270237,2008,1114,34.6455,-4.11547
791,-90,34.5703,4.15588,-0.000968009,0.00248509,-0.00213466,0.00350403,-0.00198696,-1.12544,0.00321031,0.0397306,2015,1114,34.5702,-4.15594
798,-90,34.5242,4.14746,0.00121787,0.00219892,-0.00447961,0.00621478,-0.00279799,-0.839932,0.00532671,0.0445693,2022,1114,34.5241,-4.14744
805,-90,34.5439,3.99622,0.00486915,0.00167043,-0.00786631,0.011297,-0.00475747,-0.685106,0.00952195,0.0436181,2029,1114,34.544,-3.99624
812,-90,34.6887,3.78369,0.0105182,0.000988736,-0.012598,0.0192224,-0.00771548,-0.604606,0.0160186,0.0414496,2036,1114,34.6886,-3.7837
-700,-97,0,0,0,0,0,0,0,0,0,-1,524,1121,0,0
-693,-97,-24.7738,-6.16052,0.0310789,0.0970242,-0.0194675,0.102342,0.0257609,-1.30413,0.0614677,0.0477097,531,1121,-24.7738,6.16048
-686,-97,-24.6971,-4.95837,0.0265461,0.0642646,-0.00982674,0.0666712,0.0241395,-1.33062,0.0389778,0.047166,538,1121,-24.6972,4.95843
-679,-97,-24.7493,-3.76697,0.0220245,0.0421927,-0.00353714,0.0427951,0.0214222,-1.40212,0.0247077,0.0471226,545,1121,-24.7493,3.76691
-672,-97,-24.8867,-2.32263,0.0178557,0.0273411,0.000379219,0.0273563,0.0178405,1.5309,0.0160361,0.0450131,552,1121,-24.8866,2.32257
-665,-97,-24.8567,-1.06677,0.0140264,0.0175084,0.00258095,0.0188806,0.0126542,1.08212,0.0111093,0.045394,559,1121,-24.8567,1.06677
-658,-97,-24.641,-0.152466,0.0105647,0.0111432,0.00353275,0.0143985,0.00730935,0.826246,0.0083133,0.0414413,566,1121,-24.641,0.152425
-651,-97,-24.4789,0.851318,0.00765301,0.00709596,0.00363994,0.0110251,0.0037239,0.747213,0.00647605,0.0323899,573,1121,-24.4789,-0.851334
-644,-97,-24.5026,1.26892,0.00545856,0.00469763,0.00330728,0.00840719,0.001749,0.728131,0.00512231,0.0119573,580,1121,-24.5026,-1.26895
-637,-97,-24.5121,1.56458,0.00342545,-0.00103035,0.00363762,0.0054632,-0.00306811,0.510632,0.00498983,0.0119237,587,1121,-24.5121,-1.56459
-630,-97,-24.5095,1.80542,0.00213463,0.000288083,0.00248556,0.00386285,-0.00144014,0.607569,0.0031664,0.00967167,594,1121,-24.5095,-1.8054
-623,-97,-24.5116,2.05554,0.00165934,0.000521196,0.000709566,0.00199984,0.000180693,0.447419,0.00127726,0.0114674,601,1121,-24.5116,-2.05555
-616,-97,-24.5415,2.32471,0.00150221,0.000434955,-0.000178086,0.00153114,0.000406023,-0.161053,0.000915924,0.016341,608,1121,-24.5415,-2.32473
-609,-97,-24.6052,2.60364,0.00169341,-9.44287e-06,-0.000558228,0.00186009,-0.000176125,-0.290165,0.00130274,0.0221512,615,1121,-24.6052,-2.60363
-602,-97,-24.6318,2.81042,0.00183532,-0.000349193,-0.000722257,0.00205252,-0.000566394,-0.292123,0.00159111,0.0201417,622,1121,-24.6318,-2.81038
-595,-97,-24.5038,3.0824,0.00208192,-0.000594726,-0.00113725,0.00249986,-0.00101266,-0.352177,0.00208767,0.0165641,629,1121,-24.5038,-3.08235
-588,-97,-24.4705,3.33752,0,0,0,0,0,0,0,-1,636,1121,-24.4704,-3.33755
-581,-97,-26.6713,0.650269,0,0,0,0,0,0,0,-1,643,1121,-26.6712,-0.65021
-574,-97,-26.6414,0.755127,0.0021353,-0.00055999,-0.00112773,0.0025449,-0.000969596,-0.348396,0.00209594,0.0409133,650,1121,-26.6413,-0.755182
-567,-97,-26.6072,0.685059,0.00197026,-0.000336054,-0.00108042,0.00239732,-0.000763114,-0.376423,0.00190425,0.0364262,657,1121,-26.6072,-0.685097
-560,-97,-26.5594,0.619019,0.0016201,5.62892e-06,-0.000961352,0.00206819,-0.000442454,-0.436159,0.00154751,0.0390891,664,1121,-26.5594,-0.619025
-553,-97,-26.51,0.934204,0.000743538,0.000452455,-0.000775132,0.00138667,-0.000190681,-0.692597,0.000994124,0.0412599,671,1121,-26.51,-0.934211
-546,-97,-26.5026,0.961304,-0.000774596,0.000954135,-0.00044032,0.00105983,-0.000880287,-1.33522,0.00112172,0.0424507,678,1121,-26.5026,-0.961308
-539,-97,-26.4493,0.63147,-0.00261124,0.00137897,0.000320024,0.00140448,-0.00263674,1.49127,0.00236908,0.0419937,685,1121,-26.4493,-0.631501
-532,-97,-26.5016,0.588013,-0.00425078,0.00166263,0.00136755,0.00196358,-0.00455173,1.35419,0.00385928,0.0404282,692,1121,-26.5016,-0.588008
-525,-97,0,0,0,0,0,0,0,0,0,-1,699,1121,0,0
-518,-97,0,0,0,0,0,0,0,0,0,-1,706,1121,0,0
-511,-97,0,0,0,0,0,0,0,0,0,-1,713,1121,0,0
-504,-97,0,0,0,0,0,0,0,0,0,-1,720,1121,0,0
-497,-97,0,0,0,0,0,0,0,0,0,-1,727,1121,0,0
-490,-97,0,0,0,0,0,0,0,0,0,-1,734,1121,0,0
-483,-97,0,0,0,0,0,0,0,0,0,-1,741,1121,0,0
-476,-97,0,0,0,0,0,0,0,0,0,-1,748,1121,0,0
-469,-97,0,0,0,0,0,0,0,0,0,-1,755,1121,0,0
-462,-97,0,0,0,0,0,0,0,0,0,-1,762,1121,0,0
-455,-97,0,0,0,0,0,0,0,0,0,-1,769,1121,0,0
-448,-97,0,0,0,0,0,0,0,0,0,-1,776,1121,0,0
-441,-97,0,0,0,0,0,0,0,0,0,-1,783,1121,0,0
-434,-97,0,0,0,0,0,0,0,0,0,-1,790,1121,0,0
-427,-97,0,0,0,0,0,0,0,0,0,-1,797,1121,0,0
-420,-97,0,0,0,0,0,0,0,0,0,-1,804,1121,0,0
-413,-97,0,0,0,0,0,0,0,0,0,-1,811,1121,0,0
-406,-97,0,0,0,0,0,0,0,0,0,-1,818,1121,0,0
-399,-97,0,0,0,0,0,0,0,0,0,-1,825,1121,0,0
-392,-97,0,0,0,0,0,0,0,0,0,-1,832,1121,0,0
-385,-97,0,0,0,0,0,0,0,0,0,-1,839,1121,0,0
-378,-97,0,0,0,0,0,0,0,0,0,-1,846,1121,0,0
-371,-97,0,0,0,0,0,0,0,0,0,-1,853,1121,0,0
-364,-97,0,0,0,0,0,0,0,0,0,-1,860,1121,0,0
-357,-97,0,0,0,0,0,0,0,0,0,-1,867,1121,0,0
-350,-97,0,0,0,0,0,0,0,0,0,-1,874,1121,0,0
-343,-97,0,0,0,0,0,0,0,0,0,-1,881,1121,0,0
-336,-97,0,0,0,0,0,0,0,0,0,-1,888,1121,0,0
-329,-97,0,0,0,0,0,0,0,0,0,-1,895,1121,0,0
-322,-97,0,0,0,0,0,0,0,0,0,-1,902,1121,0,0
-315,-97,0,0,0,0,0,0,0,0,0,-1,909,1121,0,0
-308,-97,0,0,0,0,0,0,0,0,0,-1,916,1121,0,0
-301,-97,0,0,0,0,0,0,0,0,0,-1,923,1121,0,0
-294,-97,0,0,0,0,0,0,0,0,0,-1,930,1121,0,0
-287,-97,0,0,0,0,0,0,0,0,0,-1,937,1121,0,0
-280,-97,0,0,0,0,0,0,0,0,0,-1,944,1121,0,0
-273,-97,0,0,0,0,0,0,0,0,0,-1,951,1121,0,0
-266,-97,0,0,0,0,0,0,0,0,0,-1,958,1121,0,0
-259,-97,0,0,0,0,0,0,0,0,0,-1,965,1121,0,0
-252,-97,0,0,0,0,0,0,0,0,0,-1,972,1121,0,0
-245,-97,0,0,0,0,0,0,0,0,0,-1,979,1121,0,0
-238,-97,0,0,0,0,0,0,0,0,0,-1,986,1121,0,0
-231,-97,0,0,0,0,0,0,0,0,0,-1,993,1121,0,0
-224,-97,0,0,0,0,0,0,0,0,0,-1,1000,1121,0,0
-217,-97,0,0,0,0,0,0,0,0,0,-1,1007,1121,0,0
-210,-97,0,0,0,0,0,0,0,0,0,-1,1014,1121,0,0
-203,-97,0,0,0,0,0,0,0,0,0,-1,1021,1121,0,0
-196,-97,0,0,0,0,0,0,0,0,0,-1,1028,1121,0,0
-189,-97,0,0,0,0,0,0,0,0,0,-1,1035,1121,0,0
-182,-97,0,0,0,0,0,0,0,0,0,-1,1042,1121,0,0
-175,-97,0,0,0,0,0,0,0,0,0,-1,1049,1121,0,0
-168,-97,0,0,0,0,0,0,0,0,0,-1,1056,1121,0,0
-161,-97,0,0,0,0,0,0,0,0,0,-1,1063,1121,0,0
-154,-97,0,0,0,0,0,0,0,0,0,-1,1070,1121,0,0
-147,-97,0,0,0,0,0,0,0,0,0,-1,1077,1121,0,0
-140,-97,0,0,0,0,0,0,0,0,0,-1,1084,1121,0,0
-133,-97,0,0,0,0,0,0,0,0,0,-1,1091,1121,0,0
-126,-97,0,0,0,0,0,0,0,0,0,-1,1098,1121,0,0
-119,-97,0,0,0,0,0,0,0,0,0,-1,1105,1121,0,0
-112,-97,0,0,0,0,0,0,0,0,0,-1,1112,1121,0,0
-105,-97,0,0,0,0,0,0,0,0,0,-1,1119,1121,0,0
-98,-97,0,0,0,0,0,0,0,0,0,-1,1126,1121,0,0
-91,-97,0,0,0,0,0,0,0,0,0,-1,1133,1121,0,0
-84,-97,0,0,0,0,0,0,0,0,0,-1,1140,1121,0,0
-77,-97,0,0,0,0,0,0,0,0,0,-1,1147,1121,0,0
-70,-97,0,0,0,0,0,0,0,0,0,-1,1154,1121,0,0
-63,-97,0,0,0,0,0,0,0,0,0,-1,1161,1121,0,0
-56,-97,0,0,0,0,0,0,0,0,0,-1,1168,1121,0,0
-49,-97,0,0,0,0,0,0,0,0,0,-1,1175,1121,0,0
-42,-97,0,0,0,0,0,0,0,0,0,-1,1182,1121,0,0
-35,-97,0,0,0,0,0,0,0,0,0,-1,1189,1121,0,0
-28,-97,0,0,0,0,0,0,0,0,0,-1,1196,1121,0,0
-21,-97,0,0,0,0,0,0,0,0,0,-1,1203,1121,0,0
-14,-97,0,0,0,0,0,0,0,0,0,-1,1210,1121,0,0
-7,-97,0,0,0,0,0,0,0,0,0,-1,1217,1121,0,0
0,-97,0,0,0,0,0,0,0,0,0,-1,1224,1121,0,0
7,-97,0,0,0,0,0,0,0,0,0,-1,1231,1121,0,0
14,-97,0,0,0,0,0,0,0,0,0,-1,1238,1121,0,0
21,-97,0,0,0,0,0,0,0,0,0,-1,1245,1121,0,0
28,-97,0,0,0,0,0,0,0,0,0,-1,1252,1121,0,0
35,-97,0,0,0,0,0,0,0,0,0,-1,1259,1121,0,0
42,-97,0,0,0,0,0,0,0,0,0,-1,1266,1121,0,0
49,-97,0,0,0,0,0,0,0,0,0,-1,1273,1121,0,0
56,-97,0,0,0,0,0,0,0,0,0,-1,1280,1121,0,0
63,-97,0,0,0,0,0,0,0,0,0,-1,1287,1121,0,0
70,-97,0,0,0,0,0,0,0,0,0,-1,1294,1121,0,0
77,-97,0,0,0,0,0,0,0,0,0,-1,1301,1121,0,0
84,-97,0,0,0,0,0,0,0,0,0,-1,1308,1121,0,0
91,-97,0,0,0,0,0,0,0,0,0,-1,1315,1121,0,0
98,-97,0,0,0,0,0,0,0,0,0,-1,1322,1121,0,0
105,-97,0,0,0,0,0,0,0,0,0,-1,1329,1121,0,0
112,-97,0,0,0,0,0,0,0,0,0,-1,1336,1121,0,0
119,-97,0,0,0,0,0,0,0,0,0,-1,1343,1121,0,0
126,-97,0,0,0,0,0,0,0,0,0,-1,1350,1121,0,0
133,-97,0,0,0,0,0,0,0,0,0,-1,1357,1121,0,0
140,-97,0,0,0,0,0,0,0,0,0,-1,1364,1121,0,0
147,-97,0,0,0,0,0,0,0,0,0,-1,1371,1121,0,0
154,-97,0,0,0,0,0,0,0,0,0,-1,1378,1121,0,0
161,-97,0,0,0,0,0,0,0,0,0,-1,1385,1121,0,0
168,-97,0,0,0,0,0,0,0,0,0,-1,1392,1121,0,0
175,-97,0,0,0,0,0,0,0,0,0,-1,1399,1121,0,0
182,-97,0,0,0,0,0,0,0,0,0,-1,1406,1121,0,0
189,-97,0,0,0,0,0,0,0,0,0,-1,1413,1121,0,0
196,-97,0,0,0,0,0,0,0,0,0,-1,1420,1121,0,0
203,-97,0,0,0,0,0,0,0,0,0,-1,1427,1121,0,0
210,-97,0,0,0,0,0,0,0,0,0,-1,1434,1121,0,0
217,-97,0,0,0,0,0,0,0,0,0,-1,1441,1121,0,0
224,-97,0,0,0,0,0,0,0,0,0,-1,1448,1121,0,0
231,-97,0,0,0,0,0,0,0,0,0,-1,1455,1121,0,0
238,-97,0,0,0,0,0,0,0,0,0,-1,1462,1121,0,0
245,-97,0,0,0,0,0,0,0,0,0,-1,1469,1121,0,0
252,-97,0,0,0,0,0,0,0,0,0,-1,1476,1121,0,0
259,-97,0,0,0,0,0,0,0,0,0,-1,1483,1121,0,0
266,-97,0,0,0,0,0,0,0,0,0,-1,1490,1121,0,0
273,-97,0,0,0,0,0,0,0,0,0,-1,1497,1121,0,0
280,-97,0,0,0,0,0,0,0,0,0,-1,1504,1121,0,0
287,-97,0,0,0,0,0,0,0,0,0,-1,1511,1121,0,0
294,-97,0,0,0,0,0,0,0,0,0,-1,1518,1121,0,0
301,-97,0,0,0,0,0,0,0,0,0,-1,1525,1121,0,0
308,-97,0,0,0,0,0,0,0,0,0,-1,1532,1121,0,0
315,-97,0,0,0,0,0,0,0,0,0,-1,1539,1121,0,0
322,-97,0,0,0,0,0,0,0,0,0,-1,1546,1121,0,0
329,-97,0,0,0,0,0,0,0,0,0,-1,1553,1121,0,0
336,-97,0,0,0,0,0,0,0,0,0,-1,1560,1121,0,0
343,-97,0,0,0,0,0,0,0,0,0,-1,1567,1121,0,0
350,-97,0,0,0,0,0,0,0,0,0,-1,1574,1121,0,0
357,-97,0,0,0,0,0,0,0,0,0,-1,1581,1121,0,0
364,-97,0,0,0,0,0,0,0,0,0,-1,1588,1121,0,0
371,-97,0,0,0,0,0,0,0,0,0,-1,1595,1121,0,0
378,-97,0,0,0,0,0,0,0,0,0,-1,1602,1121,0,0
385,-97,0,0,0,0,0,0,0,0,0,-1,1609,1121,0,0
392,-97,0,0,0,0,0,0,0,0,0,-1,1616,1121,0,0
399,-97,0,0,0,0,0,0,0,0,0,-1,1623,1121,0,0
406,-97,0,0,0,0,0,0,0,0,0,-1,1630,1121,0,0
413,-97,0,0,0,0,0,0,0,0,0,-1,1637,1121,0,0
420,-97,0,0,0,0,0,0,0,0,0,-1,1644,1121,0,0
427,-97,0,0,0,0,0,0,0,0,0,-1,1651,1121,0,0
434,-97,0,0,0,0,0,0,0,0,0,-1,1658,1121,0,0
441,-97,0,0,0,0,0,0,0,0,0,-1,1665,1121,0,0
448,-97,0,0,0,0,0,0,0,0,0,-1,1672,1121,0,0
455,-97,0,0,0,0,0,0,0,0,0,-1,1679,1121,0,0
462,-97,0,0,0,0,0,0,0,0,0,-1,1686,1121,0,0
469,-97,0,0,0,0,0,0,0,0,0,-1,1693,1121,0,0
476,-97,0,0,0,0,0,0,0,0,0,-1,1700,1121,0,0
483,-97,0,0,0,0,0,0,0,0,0,-1,1707,1121,0,0
490,-97,0,0,0,0,0,0,0,0,0,-1,1714,1121,0,0
497,-97,0,0,0,0,0,0,0,0,0,-1,1721,1121,0,0
504,-97,0,0,0,0,0,0,0,0,0,-1,1728,1121,0,0
511,-97,0,0,0,0,0,0,0,0,0,-1,1735,1121,0,0
518,-97,0,0,0,0,0,0,0,0,0,-1,1742,1121,0,0
525,-97,0,0,0,0,0,0,0,0,0,-1,1749,1121,0,0
532,-97,0,0,0,0,0,0,0,0,0,-1,1756,1121,0,0
539,-97,0,0,0,0,0,0,0,0,0,-1,1763,1121,0,0
546,-97,0,0,0,0,0,0,0,0,0,-1,1770,1121,0,0
553,-97,0,0,0,0,0,0,0,0,0,-1,1777,1121,0,0
560,-97,0,0,0,0,0,0,0,0,0,-1,1784,1121,0,0
567,-97,0,0,0,0,0,0,0,0,0,-1,1791,1121,0,0
574,-97,0,0,0,0,0,0,0,0,0,-1,1798,1121,0,0
581,-97,0,0,0,0,0,0,0,0,0,-1,1805,1121,0,0
588,-97,0,0,0,0,0,0,0,0,0,-1,1812,1121,0,0
595,-97,0,0,0,0,0,0,0,0,0,-1,1819,1121,0,0
602,-97,0,0,0,0,0,0,0,0,0,-1,1826,1121,0,0
609,-97,0,0,0,0,0,0,0,0,0,-1,1833,1121,0,0
616,-97,0,0,0,0,0,0,0,0,0,-1,1840,1121,0,0
623,-97,0,0,0,0,0,0,0,0,0,-1,1847,1121,0,0
630,-97,0,0,0,0,0,0,0,0,0,-1,1854,1121,0,0
637,-97,0,0,0,0,0,0,0,0,0,-1,1861,1121,0,0
644,-97,36.5988,2.49597,0.0117018,-0.00336928,-0.00286965,0.0122297,-0.00389719,-0.18193,0.00971631,0.0387509,1868,1121,36.5988,-2.49598
651,-97,36.8173,2.36841,0.00775178,-0.00260309,-0.00205369,0.00814422,-0.00299553,-0.188812,0.00665658,0.0371866,1875,1121,36.8173,-2.36836
658,-97,36.7809,2.26563,0.00522124,-0.00203037,-0.00138896,0.00547817,-0.00228731,-0.182916,0.00460784,0.0378851,1882,1121,36.7809,-2.2656
665,-97,36.8344,2.31726,0.00342993,-0.00160343,-0.000781452,0.00354846,-0.00172197,-0.150535,0.00310319,0.0417443,1889,1121,36.8343,-2.31729
672,-97,36.8486,2.45215,0.00221654,-0.0013464,-0.000192324,0.00222689,-0.00135675,-0.0537707,0.00208925,0.045103,1896,1121,36.8486,-2.45218
679,-97,36.729,2.62781,0.00116249,-0.00124307,0.000321741,0.00120478,-0.00128536,0.130689,0.00143793,0.043173,1903,1121,36.729,-2.62783
686,-97,36.7125,2.54321,0.000398166,-0.00128135,0.000686079,0.000642796,-0.00152598,0.342509,0.00128629,0.0377007,1910,1121,36.7125,-2.54319
693,-97,36.7372,2.40332,3.32297e-06,-0.00132112,0.000942645,0.000493107,-0.0018109,0.479193,0.00140087,0.0330812,1917,1121,36.7372,-2.40331
700,-97,36.7267,2.44836,-0.00055243,-0.00134302,0.001151,0.00026926,-0.00216471,0.61999,0.00154076,0.0254136,1924,1121,36.7266,-2.44831
707,-97,36.7048,2.45593,-0.00096883,-0.00131555,0.00135566,0.000224504,-0.00250889,0.721803,0.00175223,0.0221143,1931,1121,36.7048,-2.45594
714,-97,36.7312,2.4104,0,0,0,0,0,0,0,-1,1938,1121,36.7312,-2.41045
721,-97,34.5624,5.77954,0,0,0,0,0,0,0,-1,1945,1121,34.5623,-5.77951
728,-97,34.5876,5.62158,-0.00166878,-0.000720601,0.00169314,0.000563569,-0.00295295,0.921905,0.0021809,0.0203329,1952,1121,34.5876,-5.62163
735,-97,34.5537,5.32959,-0.00189612,-0.000422315,0.00185301,0.000834939,-0.00315338,0.97465,0.00242888,0.0220264,1959,1121,34.5538,-5.32965
742,-97,34.5306,5.12659,-0.00234513,-9.58063e-05,0.00201812,0.00108987,-0.0035308,1.03961,0.00278907,0.0172445,1966,1121,34.5306,-5.12656
749,-97,34.5958,4.90967,-0.00283807,0.000374335,0.00215018,0.001452,-0.00391574,1.10619,0.00320604,0.0177702,1973,1121,34.5959,-4.90961
756,-97,34.5894,4.69043,-0.00279746,0.00110918,0.00207634,0.00200658,-0.00369486,1.16284,0.00333949,0.0150005,1980,1121,34.5894,-4.69049
763,-97,34.5415,4.49048,-0.00258274,0.00173559,0.00192247,0.00246743,-0.00331457,1.20706,0.00335016,0.0119174,1987,1121,34.5415,-4.49042
770,-97,34.5234,4.30664,-0.00217298,0.00246172,0.0017114,0.00302518,-0.00273643,1.25274,0.00332786,0.0109325,1994,1121,34.5234,-4.3066
777,-97,34.5099,4.12927,-0.00139464,0.00308875,0.00137113,0.00347483,-0.00178072,1.29633,0.00308639,0.0157793,2001,1121,34.5099,-4.12927
784,-97,34.5076,4.12439,-0.000239376,0.00360026,0.000726772,0.00373322,-0.000372336,1.38985,0.00262175,0.0349054,2008,1121,34.5076,-4.12443
791,-97,34.5889,4.21533,0.00158416,0.00398739,-0.000389546,0.00404895,0.00152259,-1.41405,0.00236149,0.0402306,2015,1121,34.5888,-4.21532
798,-97,34.6118,4.21179,0.00482393,0.00425738,-0.00218361,0.00674256,0.00233875,-0.720894,0.00395321,0.0403903,2022,1121,34.6118,-4.21185
805,-97,34.6321,4.01282,0.0098726,0.0043975,-0.00489898,0.012747,0.00152308,-0.530611,0.00803856,0.0413433,2029,1121,34.6321,-4.01287
812,-97,34.7375,3.92639,0.0173636,0.00448828,-0.00884744,0.0218676,-1.57487e-05,-0.470883,0.0145837,0.049148,2036,1121,34.7377,-3.92634
-700,-104,0,0,0,0,0,0,0,0,0,-1,524,1128,0,0
-693,-104,-24.4668,-5.80347,0,0,0,0,0,0,0,-1,531,1128,-24.4668,5.80349
-686,-104,-24.5062,-4.37915,0,0,0,0,0,0,0,-1,538,1128,-24.5062,4.37918
-679,-104,-24.7362,-3.2572,0.0192097,0.0382306,0.00557567,0.0397445,0.0176958,1.30567,0.0229923,0.048832,545,1128,-24.7362,3.25722
-672,-104,-24.96,-2.45874,0.0156376,0.0241754,0.00636148,0.0275676,0.0122454,1.08092,0.0159492,0.0474406,552,1128,-24.9599,2.45878
-665,-104,-24.7595,-1.05981,0.0122839,0.0150442,0.00627328,0.0200873,0.00724074,0.893673,0.011747,0.0454486,559,1128,-24.7595,1.05984
-658,-104,-24.3862,0.059082,0.00918197,0.009264,0.0056051,0.0148282,0.00361774,0.789057,0.00892736,0.0413207,566,1128,-24.3862,-0.0590783
-651,-104,-24.2218,0.894653,0.00651882,0.005682,0.00462327,0.0107426,0.00145825,0.740271,0.00672851,0.0372738,573,1128,-24.2218,-0.894702
-644,-104,-24.2272,1.24927,0.00453124,0.00361272,0.00359623,0.00769742,0.000446552,0.721889,0.00498943,0.0154145,580,1128,-24.2272,-1.24923
-637,-104,-24.222,1.54419,0.00282399,-0.0015369,0.00336712,0.004655,-0.00336791,0.498066,0.00465186,0.0108221,587,1128,-24.222,-1.54414
-630,-104,-24.2461,1.76904,0.00169577,-0.000197783,0.00202418,0.00298365,-0.00148566,0.566647,0.00262822,0.0129891,594,1128,-24.2461,-1.76909
-623,-104,-24.238,2.04724,0.00141569,0.00017257,0.000372074,0.00151854,6.97154e-05,0.2697,0.000989941,0.0163856,601,1128,-24.238,-2.04725
-616,-104,-24.3751,2.36499,0.00150112,0.000184386,-0.000248286,0.00154638,0.000139125,-0.180315,0.000987818,0.0189906,608,1128,-24.375,-2.36502
-609,-104,-24.5078,2.52979,0.00181185,-0.000305384,-0.000293266,0.00185172,-0.000345254,-0.135125,0.00136421,0.0235918,615,1128,-24.5077,-2.52974
-602,-104,-24.3624,2.80811,0.00197982,-0.000633509,-0.000195386,0.00199435,-0.000648037,-0.0742152,0.00159022,0.0200542,622,1128,-24.3624,-2.80812
-595,-104,-24.2363,3.14246,0.00226681,-0.000861454,-0.000479215,0.00233857,-0.000933219,-0.148649,0.00194619,0.0165008,629,1128,-24.2364,-3.14247
-588,-104,-24.1665,3.49817,0,0,0,0,0,0,0,-1,636,1128,-24.1665,-3.49814
-581,-104,-23.9373,2.85864,0,0,0,0,0,0,0,-1,643,1128,-23.9373,-2.85861
-574,-104,-26.641,0.841187,0,0,0,0,0,0,0,-1,650,1128,-26.641,-0.841155
-567,-104,-26.5078,0.595337,0.002031,-0.000760652,-0.000180845,0.00204267,-0.000772318,-0.064422,0.00167949,0.0378204,657,1128,-26.5078,-0.595289
-560,-104,-26.4328,0.569214,0.00163869,-0.000486095,-6.88508e-05,0.00164092,-0.000488324,-0.0323583,0.00128796,0.0414268,664,1128,-26.4328,-0.56923
-553,-104,-26.6147,0.580322,0.000691402,-0.00012508,3.38925e-05,0.000692806,-0.000126484,0.0414155,0.000509295,0.0441028,671,1128,-26.6147,-0.580299
-546,-104,-26.8336,0.490234,-0.000936536,0.000245833,0.000153407,0.000265413,-0.000956115,1.44385,0.000741879,0.0435475,678,1128,-26.8336,-0.490229
-539,-104,-26.4371,0.693359,-0.00297592,0.000406607,0.000540597,0.000490904,-0.00306021,1.41611,0.00222193,0.0413952,685,1128,-26.4371,-0.693381
-532,-104,-26.533,0.736206,-0.00463261,0.000353243,0.00137051,0.000705131,-0.0049845,1.31947,0.00358126,0.0417359,692,1128,-26.533,-0.736172
-525,-104,-26.6498,0.75293,-0.00709371,0.00038387,0.00229551,0.00103232,-0.00774216,1.29548,0.00553772,0.0386184,699,1128,-26.6498,-0.752876
-518,-104,0,0,0,0,0,0,0,0,0,-1,706,1128,0,0
-511,-104,0,0,0,0,0,0,0,0,0,-1,713,1128,0,0
-504,-104,0,0,0,0,0,0,0,0,0,-1,720,1128,0,0
-497,-104,0,0,0,0,0,0,0,0,0,-1,727,1128,0,0
-490,-104,0,0,0,0,0,0,0,0,0,-1,734,1128,0,0
-483,-104,0,0,0,0,0,0,0,0,0,-1,741,1128,0,0
-476,-104,0,0,0,0,0,0,0,0,0,-1,748,1128,0,0
-469,-104,0,0,0,0,0,0,0,0,0,-1,755,1128,0,0
-462,-104,0,0,0,0,0,0,0,0,0,-1,762,1128,0,0
-455,-104,0,0,0,0,0,0,0,0,0,-1,769,1128,0,0
-448,-104,0,0,0,0,0,0,0,0,0,-1,776,1128,0,0
-441,-104,0,0,0,0,0,0,0,0,0,-1,783,1128,0,0
-434,-104,0,0,0,0,0,0,0,0,0,-1,790,1128,0,0
-427,-104,0,0,0,0,0,0,0,0,0,-1,797,1128,0,0
-420,-104,0,0,0,0,0,0,0,0,0,-1,804,1128,0,0
-413,-104,0,0,0,0,0,0,0,0,0,-1,811,1128,0,0
-406,-104,0,0,0,0,0,0,0,0,0,-1,818,1128,0,0
-399,-104,0,0,0,0,0,0,0,0,0,-1,825,1128,0,0
-392,-104,0,0,0,0,0,0,0,0,0,-1,832,1128,0,0
-385,-104,0,0,0,0,0,0,0,0,0,-1,839,1128,0,0
-378,-104,0,0,0,0,0,0,0,0,0,-1,846,1128,0,0
-371,-104,0,0,0,0,0,0,0,0,0,-1,853,1128,0,0
-364,-104,0,0,0,0,0,0,0,0,0,-1,860,1128,0,0
-357,-104,0,0,0,0,0,0,0,0,0,-1,867,1128,0,0
-350,-104,0,0,0,0,0,0,0,0,0,-1,874,1128,0,0
-343,-104,0,0,0,0,0,0,0,0,0,-1,881,1128,0,0
-336,-104,0,0,0,0,0,0,0,0,0,-1,888,1128,0,0
-329,-104,0,0,0,0,0,0,0,0,0,-1,895,1128,0,0
-322,-104,0,0,0,0,0,0,0,0,0,-1,902,1128,0,0
-315,-104,0,0,0,0,0,0,0,0,0,-1,909,1128,0,0
-308,-104,0,0,0,0,0,0,0,0,0,-1,916,1128,0,0
-301,-104,0,0,0,0,0,0,0,0,0,-1,923,1128,0,0
-294,-104,0,0,0,0,0,0,0,0,0,-1,930,1128,0,0
-287,-104,0,0,0,0,0,0,0,0,0,-1,937,1128,0,0
-280,-104,0,0,0,0,0,0,0,0,0,-1,944,1128,0,0
-273,-104,0,0,0,0,0,0,0,0,0,-1,951,1128,0,0
-266,-104,0,0,0,0,0,0,0,0,0,-1,958,1128,0,0
-259,-104,0,0,0,0,0,0,0,0,0,-1,965,1128,0,0
-252,-104,0,0,0,0,0,0,0,0,0,-1,972,1128,0,0
-245,-104,0,0,0,0,0,0,0,0,0,-1,979,1128,0,0
-238,-104,0,0,0,0,0,0,0,0,0,-1,986,1128,0,0
-231,-104,0,0,0,0,0,0,0,0,0,-1,993,1128,0,0
-224,-104,0,0,0,0,0,0,0,0,0,-1,1000,1128,0,0
-217,-104,0,0,0,0,0,0,0,0,0,-1,1007,1128,0,0
-210,-104,0,0,0,0,0,0,0,0,0,-1,1014,1128,0,0
-203,-104,0,0,0,0,0,0,0,0,0,-1,1021,1128,0,0
-196,-104,0,0,0,0,0,0,0,0,0,-1,1028,1128,0,0
-189,-104,0,0,0,0,0,0,0,0,0,-1,1035,1128,0,0
-182,-104,0,0,0,0,0,0,0,0,0,-1,1042,1128,0,0
-175,-104,0,0,0,0,0,0,0,0,0,-1,1049,1128,0,0
-168,-104,0,0,0,0,0,0,0,0,0,-1,1056,1128,0,0
-161,-104,0,0,0,0,0,0,0,0,0,-1,1063,1128,0,0
-154,-104,0,0,0,0,0,0,0,0,0,-1,1070,1128,0,0
-147,-104,0,0,0,0,0,0,0,0,0,-1,1077,1128,0,0
-140,-104,0,0,0,0,0,0,0,0,0,-1,1084,1128,0,0
-133,-104,0,0,0,0,0,0,0,0,0,-1,1091,1128,0,0
-126,-104,0,0,0,0,0,0,0,0,0,-1,1098,1128,0,0
-119,-104,0,0,0,0,0,0,0,0,0,-1,1105,1128,0,0
-112,-104,0,0,0,0,0,0,0,0,0,-1,1112,1128,0,0
-105,-104,0,0,0,0,0,0,0,0,0,-1,1119,1128,0,0
-98,-104,0,0,0,0,0,0,0,0,0,-1,1126,1128,0,0
-91,-104,0,0,0,0,0,0,0,0,0,-1,1133,1128,0,0
-84,-104,0,0,0,0,0,0,0,0,0,-1,1140,1128,0,0
-77,-104,0,0,0,0,0,0,0,0,0,-1,1147,1128,0,0
-70,-104,0,0,0,0,0,0,0,0,0,-1,1154,1128,0,0
-63,-104,0,0,0,0,0,0,0,0,0,-1,1161,1128,0,0
-56,-104,0,0,0,0,0,0,0,0,0,-1,1168,1128,0,0
-49,-104,0,0,0,0,0,0,0,0,0,-1,1175,1128,0,0
-42,-104,0,0,0,0,0,0,0,0,0,-1,1182,1128,0,0
-35,-104,0,0,0,0,0,0,0,0,0,-1,1189,1128,0,0
-28,-104,0,0,0,0,0,0,0,0,0,-1,1196,1128,0,0
-21,-104,0,0,0,0,0,0,0,0,0,-1,1203,1128,0,0
-14,-104,0,0,0,0,0,0,0,0,0,-1,1210,1128,0,0
-7,-104,0,0,0,0,0,0,0,0,0,-1,1217,1128,0,0
0,-104,0,0,0,0,0,0,0,0,0,-1,1224,1128,0,0
7,-104,0,0,0,0,0,0,0,0,0,-1,1231,1128,0,0
14,-104,0,0,0,0,0,0,0,0,0,-1,1238,1128,0,0
21,-104,0,0,0,0,0,0,0,0,0,-1,1245,1128,0,0
28,-104,0,0,0,0,0,0,0,0,0,-1,1252,1128,0,0
35,-104,0,0,0,0,0,0,0,0,0,-1,1259,1128,0,0
42,-104,0,0,0,0,0,0,0,0,0,-1,1266,1128,0,0
49,-104,0,0,0,0,0,0,0,0,0,-1,1273,1128,0,0
56,-104,0,0,0,0,0,0,0,0,0,-1,1280,1128,0,0
63,-104,0,0,0,0,0,0,0,0,0,-1,1287,1128,0,0
70,-104,0,0,0,0,0,0,0,0,0,-1,1294,1128,0,0
77,-104,0,0,0,0,0,0,0,0,0,-1,1301,1128,0,0
84,-104,0,0,0,0,0,0,0,0,0,-1,1308,1128,0,0
91,-104,0,0,0,0,0,0,0,0,0,-1,1315,1128,0,0
98,-104,0,0,0,0,0,0,0,0,0,-1,1322,1128,0,0
105,-104,0,0,0,0,0,0,0,0,0,-1,1329,1128,0,0
112,-104,0,0,0,0,0,0,0,0,0,-1,1336,1128,0,0
119,-104,0,0,0,0,0,0,0,0,0,-1,1343,1128,0,0
126,-104,0,0,0,0,0,0,0,0,0,-1,1350,1128,0,0
133,-104,0,0,0,0,0,0,0,0,0,-1,1357,1128,0,0
140,-104,0,0,0,0,0,0,0,0,0,-1,1364,1128,0,0
147,-104,0,0,0,0,0,0,0,0,0,-1,1371,1128,0,0
154,-104,0,0,0,0,0,0,0,0,0,-1,1378,1128,0,0
161,-104,0,0,0,0,0,0,0,0,0,-1,1385,1128,0,0
168,-104,0,0,0,0,0,0,0,0,0,-1,1392,1128,0,0
175,-104,0,0,0,0,0,0,0,0,0,-1,1399,1128,0,0
182,-104,0,0,0,0,0,0,0,0,0,-1,1406,1128,0,0
189,-104,0,0,0,0,0,0,0,0,0,-1,1413,1128,0,0
196,-104,0,0,0,0,0,0,0,0,0,-1,1420,1128,0,0
203,-104,0,0,0,0,0,0,0,0,0,-1,1427,1128,0,0
210,-104,0,0,0,0,0,0,0,0,0,-1,1434,1128,0,0
217,-104,0,0,0,0,0,0,0,0,0,-1,1441,1128,0,0
224,-104,0,0,0,0,0,0,0,0,0,-1,1448,1128,0,0
231,-104,0,0,0,0,0,0,0,0,0,-1,1455,1128,0,0
238,-104,0,0,0,0,0,0,0,0,0,-1,1462,1128,0,0
245,-104,0,0,0,0,0,0,0,0,0,-1,1469,1128,0,0
252,-104,0,0,0,0,0,0,0,0,0,-1,1476,1128,0,0
259,-104,0,0,0,0,0,0,0,0,0,-1,1483,1128,0,0
266,-104,0,0,0,0,0,0,0,0,0,-1,1490,1128,0,0
273,-104,0,0,0,0,0,0,0,0,0,-1,1497,1128,0,0
280,-104,0,0,0,0,0,0,0,0,0,-1,1504,1128,0,0
287,-104,0,0,0,0,0,0,0,0,0,-1,1511,1128,0,0
294,-104,0,0,0,0,0,0,0,0,0,-1,1518,1128,0,0
301,-104,0,0,0,0,0,0,0,0,0,-1,1525,1128,0,0
308,-104,0,0,0,0,0,0,0,0,0,-1,1532,1128,0,0
315,-104,0,0,0,0,0,0,0,0,0,-1,1539,1128,0,0
322,-104,0,0,0,0,0,0,0,0,0,-1,1546,1128,0,0
329,-104,0,0,0,0,0,0,0,0,0,-1,1553,1128,0,0
336,-104,0,0,0,0,0,0,0,0,0,-1,1560,1128,0,0
343,-104,0,0,0,0,0,0,0,0,0,-1,1567,1128,0,0
350,-104,0,0,0,0,0,0,0,0,0,-1,1574,1128,0,0
357,-104,0,0,0,0,0,0,0,0,0,-1,1581,1128,0,0
364,-104,0,0,0,0,0,0,0,0,0,-1,1588,1128,0,0
371,-104,0,0,0,0,0,0,0,0,0,-1,1595,1128,0,0
378,-104,0,0,0,0,0,0,0,0,0,-1,1602,1128,0,0
385,-104,0,0,0,0,0,0,0,0,0,-1,1609,1128,0,0
392,-104,0,0,0,0,0,0,0,0,0,-1,1616,1128,0,0
399,-104,0,0,0,0,0,0,0,0,0,-1,1623,1128,0,0
406,-104,0,0,0,0,0,0,0,0,0,-1,1630,1128,0,0
413,-104,0,0,0,0,0,0,0,0,0,-1,1637,1128,0,0
420,-104,0,0,0,0,0,0,0,0,0,-1,1644,1128,0,0
427,-104,0,0,0,0,0,0,0,0,0,-1,1651,1128,0,0
434,-104,0,0,0,0,0,0,0,0,0,-1,1658,1128,0,0
441,-104,0,0,0,0,0,0,0,0,0,-1,1665,1128,0,0
448,-104,0,0,0,0,0,0,0,0,0,-1,1672,1128,0,0
455,-104,0,0,0,0,0,0,0,0,0,-1,1679,1128,0,0
462,-104,0,0,0,0,0,0,0,0,0,-1,1686,1128,0,0
469,-104,0,0,0,0,0,0,0,0,0,-1,1693,1128,0,0
476,-104,0,0,0,0,0,0,0,0,0,-1,1700,1128,0,0
483,-104,0,0,0,0,0,0,0,0,0,-1,1707,1128,0,0
490,-104,0,0,0,0,0,0,0,0,0,-1,1714,1128,0,0
497,-104,0,0,0,0,0,0,0,0,0,-1,1721,1128,0,0
504,-104,0,0,0,0,0,0,0,0,0,-1,1728,1128,0,0
511,-104,0,0,0,0,0,0,0,0,0,-1,1735,1128,0,0
518,-104,0,0,0,0,0,0,0,0,0,-1,1742,1128,0,0
525,-104,0,0,0,0,0,0,0,0,0,-1,1749,1128,0,0
532,-104,0,0,0,0,0,0,0,0,0,-1,1756,1128,0,0
539,-104,0,0,0,0,0,0,0,0,0,-1,1763,1128,0,0
546,-104,0,0,0,0,0,0,0,0,0,-1,1770,1128,0,0
553,-104,0,0,0,0,0,0,0,0,0,-1,1777,1128,0,0
560,-104,0,0,0,0,0,0,0,0,0,-1,1784,1128,0,0
567,-104,0,0,0,0,0,0,0,0,0,-1,1791,1128,0,0
574,-104,0,0,0,0,0,0,0,0,0,-1,1798,1128,0,0
581,-104,0,0,0,0,0,0,0,0,0,-1,1805,1128,0,0
588,-104,0,0,0,0,0,0,0,0,0,-1,1812,1128,0,0
595,-104,0,0,0,0,0,0,0,0,0,-1,1819,1128,0,0
602,-104,0,0,0,0,0,0,0,0,0,-1,1826,1128,0,0
609,-104,0,0,0,0,0,0,0,0,0,-1,1833,1128,0,0
616,-104,0,0,0,0,0,0,0,0,0,-1,1840,1128,0,0
623,-104,0,0,0,0,0,0,0,0,0,-1,1847,1128,0,0
630,-104,0,0,0,0,0,0,0,0,0,-1,1854,1128,0,0
637,-104,0,0,0,0,0,0,0,0,0,-1,1861,1128,0,0
644,-104,36.6019,2.5033,0.0122273,-0.00392669,-0.0032088,0.0128413,-0.00454074,-0.189079,0.01041,0.0391341,1868,1128,36.6019,-2.50331
651,-104,36.8496,2.41602,0.00816578,-0.00299405,-0.0022572,0.00860504,-0.0034333,-0.1922,0.00716094,0.0386959,1875,1128,36.8496,-2.41603
658,-104,37.0001,2.17053,0.00550746,-0.00233034,-0.00147778,0.00577683,-0.00259971,-0.180301,0.0049508,0.0409206,1882,1128,37.0001,-2.17049
665,-104,37.0516,2.18408,0.00357069,-0.00185066,-0.000783494,0.00368165,-0.00196162,-0.140686,0.00330821,0.0437983,1889,1128,37.0516,-2.18414
672,-104,36.9581,2.31042,0.00225144,-0.00155619,-0.000154934,0.00225774,-0.00156248,-0.0406008,0.00221775,0.0434048,1896,1128,36.9582,-2.31042
679,-104,36.7966,2.40723,0.00115863,-0.00140962,0.000336729,0.00120205,-0.00145304,0.128225,0.0015352,0.0408664,1903,1128,36.7966,-2.40725
686,-104,36.7341,2.35864,0.000416409,-0.00140325,0.000659119,0.000630068,-0.00161691,0.313471,0.00133835,0.037823,1910,1128,36.7342,-2.35859
693,-104,36.7284,2.41711,5.53857e-05,-0.00136966,0.000870385,0.0004677,-0.00178197,0.4424,0.00137074,0.0330375,1917,1128,36.7284,-2.41713
700,-104,36.7456,2.47815,-0.000476453,-0.00134335,0.0010621,0.000237244,-0.00205704,0.591662,0.0014569,0.027189,1924,1128,36.7456,-2.47813
707,-104,36.7235,2.49707,-0.000882402,-0.00128467,0.00124276,0.000175396,-0.00234247,0.705171,0.00162328,0.0387337,1931,1128,36.7235,-2.49711
714,-104,36.6985,2.56091,0,0,0,0,0,0,0,-1,1938,1128,36.6985,-2.56091
721,-104,34.2723,5.86194,0,0,0,0,0,0,0,-1,1945,1128,34.2723,-5.8619
728,-104,34.4468,5.53162,-0.00148092,-0.000639743,0.00152868,0.000525154,-0.00264582,0.919643,0.00196249,0.022503,1952,1128,34.4468,-5.53159
735,-104,34.4391,5.25391,-0.00168853,-0.000331141,0.00170863,0.000828651,-0.00284832,0.97445,0.00222709,0.0245653,1959,1128,34.4391,-5.25387
742,-104,34.3562,5.10376,-0.00210444,5.6951e-05,0.00190725,0.0011684,-0.00321589,1.04316,0.00262167,0.015726,1966,1128,34.3562,-5.10381
749,-104,34.3328,4.92371,-0.00255024,0.000607291,0.00215217,0.00169767,-0.00364062,1.10185,0.00314937,0.0169571,1973,1128,34.3328,-4.9237
756,-104,34.3204,4.68677,-0.0024835,0.00136985,0.00224058,0.00239821,-0.00351187,1.1405,0.00343232,0.0164702,1980,1128,34.3204,-4.68683
763,-104,34.282,4.47498,-0.00218377,0.00206376,0.00230363,0.00307322,-0.00319323,1.1578,0.00361815,0.0151459,1987,1128,34.2819,-4.47495
770,-104,34.264,4.29138,-0.00165746,0.00285257,0.00235977,0.00386154,-0.00266644,1.16675,0.00378993,0.0129527,1994,1128,34.264,-4.29133
777,-104,34.2349,4.10168,-0.000763355,0.00355467,0.00231223,0.00455916,-0.00176785,1.16097,0.00376953,0.0205434,2001,1128,34.2348,-4.10163
784,-104,34.2551,4.11243,0.000561927,0.00414939,0.0020303,0.00506482,-0.000353507,1.14721,0.00350034,0.0373157,2008,1128,34.2552,-4.11247
791,-104,34.4219,3.96924,0.00262998,0.00461315,0.00135093,0.00529735,0.00194578,1.10199,0.00309412,0.0415416,2015,1128,34.4218,-3.96927
798,-104,34.5242,3.73926,0.00615457,0.00490275,8.15689e-05,0.00615986,0.00489746,0.0647955,0.00375715,0.0444121,2022,1128,34.5241,-3.7393
805,-104,34.7354,3.66016,0.0114644,0.00492955,-0.00203186,0.0120446,0.00434931,-0.278167,0.00704284,0.0479754,2029,1128,34.7353,-3.66017
812,-104,34.8369,3.61768,0,0,0,0,0,0,0,-1,2036,1128,34.837,-3.61771
-700,-111,0,0,0,0,0,0,0,0,0,-1,524,1135,0,0
-693,-111,-23.8565,-6.37219,0,0,0,0,0,0,0,-1,531,1135,-23.8565,6.37214
-686,-111,-24.2507,-4.45715,0,0,0,0,0,0,0,-1,538,1135,-24.2507,4.45715
-679,-111,-24.903,-2.74243,0,0,0,0,0,0,0,-1,545,1135,-24.903,2.74246
-672,-111,-24.8195,-2.64441,0,0,0,0,0,0,0,-1,552,1135,-24.8195,2.64436
-665,-111,-24.7089,-1.10046,0,0,0,0,0,0,0,-1,559,1135,-24.7088,1.10047
-658,-111,-24.0664,0.210083,0.00725593,0.00848641,0.00738272,0.0152795,0.000462863,0.82697,0.0100356,0.0458226,566,1135,-24.0664,-0.210062
-651,-111,-23.8836,0.78833,0.00506289,0.0052706,0.00533047,0.0104982,-0.000164746,0.795139,0.00705437,0.038194,573,1135,-23.8836,-0.788289
-644,-111,-23.8795,1.24194,0.00340844,0.0033876,0.00364203,0.00704006,-0.000244016,0.783968,0.00477679,0.0250676,580,1135,-23.8795,-1.24195
-637,-111,-23.9413,1.52979,0.00210064,-0.00117632,0.00282118,0.00372463,-0.0028003,0.522315,0.00377975,0.0102053,587,1135,-23.9413,-1.52973
-630,-111,-23.9697,1.75513,0.00122022,-5.73716e-05,0.00136545,0.00208891,-0.00092606,0.566608,0.00178333,0.0174425,594,1135,-23.9697,-1.75512
-623,-111,-23.9696,2.03296,0.0010519,0.000237472,-0.000171546,0.00108656,0.000202814,-0.199352,0.000667126,0.015774,601,1135,-23.9696,-2.03293
-616,-111,-24.0803,2.30261,0.00125399,0.000253555,-0.000549146,0.00149659,1.09546e-05,-0.415995,0.000994097,0.0159856,608,1135,-24.0803,-2.30262
-609,-111,-24.2661,2.54224,0.00160021,-0.000335412,-0.000272921,0.00163796,-0.000373157,-0.13743,0.00123529,0.0237226,615,1135,-24.2661,-2.5422
-602,-111,-24.1884,2.80566,0.00176159,-0.00068883,6.72164e-05,0.00176343,-0.000690673,0.0274031,0.0014613,0.0254159,622,1135,-24.1884,-2.80566
-595,-111,-24.0406,3.13672,0.00207254,-0.000887303,-8.26966e-05,0.00207485,-0.000889612,-0.0279105,0.00175654,0.0150944,629,1135,-24.0406,-3.13669
-588,-111,-23.8313,3.54797,0,0,0,0,0,0,0,-1,636,1135,-23.8313,-3.54796
-581,-111,-21.0555,3.14551,0,0,0,0,0,0,0,-1,643,1135,-21.0555,-3.14548
-574,-111,-26.5696,0.620972,0,0,0,0,0,0,0,-1,650,1135,-26.5697,-0.621
-567,-111,-26.4901,0.646606,0.00194448,-0.000941109,0.00044881,0.00201267,-0.0010093,0.150791,0.00177651,0.0409393,657,1135,-26.4901,-0.646553
-560,-111,-26.4448,0.703247,0.00163586,-0.000753425,0.000566416,0.00176334,-0.000880901,0.221369,0.00155473,0.0401166,664,1135,-26.4448,-0.703278
-553,-111,-26.551,0.511719,0.000849016,-0.000496206,0.00061046,0.00108474,-0.000731928,0.368499,0.00105542,0.0419273,671,1135,-26.551,-0.511683
-546,-111,-26.6462,0.277832,-0.000482278,-0.000263771,0.000549379,0.000187113,-0.000933162,0.883551,0.000692951,0.0368836,678,1135,-26.6462,-0.277869
-539,-111,-26.5676,0.338013,-0.00211913,-0.000298211,0.000582924,-0.000127589,-0.00228975,1.28605,0.0014858,0.0386168,685,1135,-26.5676,-0.338015
-532,-111,-26.494,0.532227,-0.00312604,-0.000641542,0.00101337,-0.000280636,-0.00348695,1.22866,0.00223696,0.0419063,692,1135,-26.494,-0.532259
-525,-111,-26.7522,0.814819,-0.00475209,-0.000921534,0.00155895,-0.000367274,-0.00530635,1.2292,0.00342172,0.0394575,699,1135,-26.7522,-0.814872
-518,-111,0,0,0,0,0,0,0,0,0,-1,706,1135,0,0
-511,-111,0,0,0,0,0,0,0,0,0,-1,713,1135,0,0
-504,-111,0,0,0,0,0,0,0,0,0,-1,720,1135,0,0
-497,-111,0,0,0,0,0,0,0,0,0,-1,727,1135,0,0
-490,-111,0,0,0,0,0,0,0,0,0,-1,734,1135,0,0
-483,-111,0,0,0,0,0,0,0,0,0,-1,741,1135,0,0
-476,-111,0,0,0,0,0,0,0,0,0,-1,748,1135,0,0
-469,-111,0,0,0,0,0,0,0,0,0,-1,755,1135,0,0
-462,-111,0,0,0,0,0,0,0,0,0,-1,762,1135,0,0
-455,-111,0,0,0,0,0,0,0,0,0,-1,769,1135,0,0
-448,-111,0,0,0,0,0,0,0,0,0,-1,776,1135,0,0
-441,-111,0,0,0,0,0,0,0,0,0,-1,783,1135,0,0
-434,-111,0,0,0,0,0,0,0,0,0,-1,790,1135,0,0
-427,-111,0,0,0,0,0,0,0,0,0,-1,797,1135,0,0
-420,-111,0,0,0,0,0,0,0,0,0,-1,804,1135,0,0
-413,-111,0,0,0,0,0,0,0,0,0,-1,811,1135,0,0
-406,-111,0,0,0,0,0,0,0,0,0,-1,818,1135,0,0
-399,-111,0,0,0,0,0,0,0,0,0,-1,825,1135,0,0
-392,-111,0,0,0,0,0,0,0,0,0,-1,832,1135,0,0
-385,-111,0,0,0,0,0,0,0,0,0,-1,839,1135,0,0
-378,-111,0,0,0,0,0,0,0,0,0,-1,846,1135,0,0
-371,-111,0,0,0,0,0,0,0,0,0,-1,853,1135,0,0
-364,-111,0,0,0,0,0,0,0,0,0,-1,860,1135,0,0
-357,-111,0,0,0,0,0,0,0,0,0,-1,867,1135,0,0
-350,-111,0,0,0,0,0,0,0,0,0,-1,874,1135,0,0
-343,-111,0,0,0,0,0,0,0,0,0,-1,881,1135,0,0
-336,-111,0,0,0,0,0,0,0,0,0,-1,888,1135,0,0
-329,-111,0,0,0,0,0,0,0,0,0,-1,895,1135,0,0
-322,-111,0,0,0,0,0,0,0,0,0,-1,902,1135,0,0
-315,-111,0,0,0,0,0,0,0,0,0,-1,909,1135,0,0
-308,-111,0,0,0,0,0,0,0,0,0,-1,916,1135,0,0
-301,-111,0,0,0,0,0,0,0,0,0,-1,923,1135,0,0
-294,-111,0,0,0,0,0,0,0,0,0,-1,930,1135,0,0
-287,-111,0,0,0,0,0,0,0,0,0,-1,937,1135,0,0
-280,-111,0,0,0,0,0,0,0,0,0,-1,944,1135,0,0
-273,-111,0,0,0,0,0,0,0,0,0,-1,951,1135,0,0
-266,-111,0,0,0,0,0,0,0,0,0,-1,958,1135,0,0
-259,-111,0,0,0,0,0,0,0,0,0,-1,965,1135,0,0
-252,-111,0,0,0,0,0,0,0,0,0,-1,972,1135,0,0
-245,-111,0,0,0,0,0,0,0,0,0,-1,979,1135,0,0
-238,-111,0,0,0,0,0,0,0,0,0,-1,986,1135,0,0
-231,-111,0,0,0,0,0,0,0,0,0,-1,993,1135,0,0
-224,-111,0,0,0,0,0,0,0,0,0,-1,1000,1135,0,0
-217,-111,0,0,0,0,0,0,0,0,0,-1,1007,1135,0,0
-210,-111,0,0,0,0,0,0,0,0,0,-1,1014,1135,0,0
-203,-111,0,0,0,0,0,0,0,0,0,-1,1021,1135,0,0
-196,-111,0,0,0,0,0,0,0,0,0,-1,1028,1135,0,0
-189,-111,0,0,0,0,0,0,0,0,0,-1,1035,1135,0,0
-182,-111,0,0,0,0,0,0,0,0,0,-1,1042,1135,0,0
-175,-111,0,0,0,0,0,0,0,0,0,-1,1049,1135,0,0
-168,-111,0,0,0,0,0,0,0,0,0,-1,1056,1135,0,0
-161,-111,0,0,0,0,0,0,0,0,0,-1,1063,1135,0,0
-154,-111,0,0,0,0,0,0,0,0,0,-1,1070,1135,0,0
-147,-111,0,0,0,0,0,0,0,0,0,-1,1077,1135,0,0
-140,-111,0,0,0,0,0,0,0,0,0,-1,1084,1135,0,0
-133,-111,0,0,0,0,0,0,0,0,0,-1,1091,1135,0,0
-126,-111,0,0,0,0,0,0,0,0,0,-1,1098,1135,0,0
-119,-111,0,0,0,0,0,0,0,0,0,-1,1105,1135,0,0
-112,-111,0,0,0,0,0,0,0,0,0,-1,1112,1135,0,0
-105,-111,0,0,0,0,0,0,0,0,0,-1,1119,1135,0,0
-98,-111,0,0,0,0,0,0,0,0,0,-1,1126,1135,0,0
-91,-111,0,0,0,0,0,0,0,0,0,-1,1133,1135,0,0
-84,-111,0,0,0,0,0,0,0,0,0,-1,1140,1135,0,0
-77,-111,0,0,0,0,0,0,0,0,0,-1,1147,1135,0,0
-70,-111,0,0,0,0,0,0,0,0,0,-1,1154,1135,0,0
-63,-111,0,0,0,0,0,0,0,0,0,-1,1161,1135,0,0
-56,-111,0,0,0,0,0,0,0,0,0,-1,1168,1135,0,0
-49,-111,0,0,0,0,0,0,0,0,0,-1,1175,1135,0,0
-42,-111,0,0,0,0,0,0,0,0,0,-1,1182,1135,0,0
-35,-111,0,0,0,0,0,0,0,0,0,-1,1189,1135,0,0
-28,-111,0,0,0,0,0,0,0,0,0,-1,1196,1135,0,0
-21,-111,0,0,0,0,0,0,0,0,0,-1,1203,1135,0,0
-14,-111,0,0,0,0,0,0,0,0,0,-1,1210,1135,0,0
-7,-111,0,0,0,0,0,0,0,0,0,-1,1217,1135,0,0
0,-111,0,0,0,0,0,0,0,0,0,-1,1224,1135,0,0
7,-111,0,0,0,0,0,0,0,0,0,-1,1231,1135,0,0
14,-111,0,0,0,0,0,0,0,0,0,-1,1238,1135,0,0
21,-111,0,0,0,0,0,0,0,0,0,-1,1245,1135,0,0
28,-111,0,0,0,0,0,0,0,0,0,-1,1252,1135,0,0
35,-111,0,0,0,0,0,0,0,0,0,-1,1259,1135,0,0
42,-111,0,0,0,0,0,0,0,0,0,-1,1266,1135,0,0
49,-111,0,0,0,0,0,0,0,0,0,-1,1273,1135,0,0
56,-111,0,0,0,0,0,0,0,0,0,-1,1280,1135,0,0
63,-111,0,0,0,0,0,0,0,0,0,-1,1287,1135,0,0
70,-111,0,0,0,0,0,0,0,0,0,-1,1294,1135,0,0
77,-111,0,0,0,0,0,0,0,0,0,-1,1301,1135,0,0
84,-111,0,0,0,0,0,0,0,0,0,-1,1308,1135,0,0
91,-111,0,0,0,0,0,0,0,0,0,-1,1315,1135,0,0
98,-111,0,0,0,0,0,0,0,0,0,-1,1322,1135,0,0
105,-111,0,0,0,0,0,0,0,0,0,-1,1329,1135,0,0
112,-111,0,0,0,0,0,0,0,0,0,-1,1336,1135,0,0
119,-111,0,0,0,0,0,0,0,0,0,-1,1343,1135,0,0
126,-111,0,0,0,0,0,0,0,0,0,-1,1350,1135,0,0
133,-111,0,0,0,0,0,0,0,0,0,-1,1357,1135,0,0
140,-111,0,0,0,0,0,0,0,0,0,-1,1364,1135,0,0
147,-111,0,0,0,0,0,0,0,0,0,-1,1371,1135,0,0
154,-111,0,0,0,0,0,0,0,0,0,-1,1378,1135,0,0
161,-111,0,0,0,0,0,0,0,0,0,-1,1385,1135,0,0
168,-111,0,0,0,0,0,0,0,0,0,-1,1392,1135,0,0
175,-111,0,0,0,0,0,0,0,0,0,-1,1399,1135,0,0
182,-111,0,0,0,0,0,0,0,0,0,-1,1406,1135,0,0
189,-111,0,0,0,0,0,0,0,0,0,-1,1413,1135,0,0
196,-111,0,0,0,0,0,0,0,0,0,-1,1420,1135,0,0
203,-111,0,0,0,0,0,0,0,0,0,-1,1427,1135,0,0
210,-111,0,0,0,0,0,0,0,0,0,-1,1434,1135,0,0
217,-111,0,0,0,0,0,0,0,0,0,-1,1441,1135,0,0
224,-111,0,0,0,0,0,0,0,0,0,-1,1448,1135,0,0
231,-111,0,0,0,0,0,0,0,0,0,-1,1455,1135,0,0
238,-111,0,0,0,0,0,0,0,0,0,-1,1462,1135,0,0
245,-111,0,0,0,0,0,0,0,0,0,-1,1469,1135,0,0
252,-111,0,0,0,0,0,0,0,0,0,-1,1476,1135,0,0
259,-111,0,0,0,0,0,0,0,0,0,-1,1483,1135,0,0
266,-111,0,0,0,0,0,0,0,0,0,-1,1490,1135,0,0
273,-111,0,0,0,0,0,0,0,0,0,-1,1497,1135,0,0
280,-111,0,0,0,0,0,0,0,0,0,-1,1504,1135,0,0
287,-111,0,0,0,0,0,0,0,0,0,-1,1511,1135,0,0
294,-111,0,0,0,0,0,0,0,0,0,-1,1518,1135,0,0
301,-111,0,0,0,0,0,0,0,0,0,-1,1525,1135,0,0
308,-111,0,0,0,0,0,0,0,0,0,-1,1532,1135,0,0
315,-111,0,0,0,0,0,0,0,0,0,-1,1539,1135,0,0
322,-111,0,0,0,0,0,0,0,0,0,-1,1546,1135,0,0
329,-111,0,0,0,0,0,0,0,0,0,-1,1553,1135,0,0
336,-111,0,0,0,0,0,0,0,0,0,-1,1560,1135,0,0
343,-111,0,0,0,0,0,0,0,0,0,-1,1567,1135,0,0
350,-111,0,0,0,0,0,0,0,0,0,-1,1574,1135,0,0
357,-111,0,0,0,0,0,0,0,0,0,-1,1581,1135,0,0
364,-111,0,0,0,0,0,0,0,0,0,-1,1588,1135,0,0
371,-111,0,0,0,0,0,0,0,0,0,-1,1595,1135,0,0
378,-111,0,0,0,0,0,0,0,0,0,-1,1602,1135,0,0
385,-111,0,0,0,0,0,0,0,0,0,-1,1609,1135,0,0
392,-111,0,0,0,0,0,0,0,0,0,-1,1616,1135,0,0
399,-111,0,0,0,0,0,0,0,0,0,-1,1623,1135,0,0
406,-111,0,0,0,0,0,0,0,0,0,-1,1630,1135,0,0
413,-111,0,0,0,0,0,0,0,0,0,-1,1637,1135,0,0
420,-111,0,0,0,0,0,0,0,0,0,-1,1644,1135,0,0
427,-111,0,0,0,0,0,0,0,0,0,-1,1651,1135,0,0
434,-111,0,0,0,0,0,0,0,0,0,-1,1658,1135,0,0
441,-111,0,0,0,0,0,0,0,0,0,-1,1665,1135,0,0
448,-111,0,0,0,0,0,0,0,0,0,-1,1672,1135,0,0
455,-111,0,0,0,0,0,0,0,0,0,-1,1679,1135,0,0
462,-111,0,0,0,0,0,0,0,0,0,-1,1686,1135,0,0
469,-111,0,0,0,0,0,0,0,0,0,-1,1693,1135,0,0
476,-111,0,0,0,0,0,0,0,0,0,-1,1700,1135,0,0
483,-111,0,0,0,0,0,0,0,0,0,-1,1707,1135,0,0
490,-111,0,0,0,0,0,0,0,0,0,-1,1714,1135,0,0
497,-111,0,0,0,0,0,0,0,0,0,-1,1721,1135,0,0
504,-111,0,0,0,0,0,0,0,0,0,-1,1728,1135,0,0
511,-111,0,0,0,0,0,0,0,0,0,-1,1735,1135,0,0
518,-111,0,0,0,0,0,0,0,0,0,-1,1742,1135,0,0
525,-111,0,0,0,0,0,0,0,0,0,-1,1749,1135,0,0
532,-111,0,0,0,0,0,0,0,0,0,-1,1756,1135,0,0
539,-111,0,0,0,0,0,0,0,0,0,-1,1763,1135,0,0
546,-111,0,0,0,0,0,0,0,0,0,-1,1770,1135,0,0
553,-111,0,0,0,0,0,0,0,0,0,-1,1777,1135,0,0
560,-111,0,0,0,0,0,0,0,0,0,-1,1784,1135,0,0
567,-111,0,0,0,0,0,0,0,0,0,-1,1791,1135,0,0
574,-111,0,0,0,0,0,0,0,0,0,-1,1798,1135,0,0
581,-111,0,0,0,0,0,0,0,0,0,-1,1805,1135,0,0
588,-111,0,0,0,0,0,0,0,0,0,-1,1812,1135,0,0
595,-111,0,0,0,0,0,0,0,0,0,-1,1819,1135,0,0
602,-111,0,0,0,0,0,0,0,0,0,-1,1826,1135,0,0
609,-111,0,0,0,0,0,0,0,0,0,-1,1833,1135,0,0
616,-111,0,0,0,0,0,0,0,0,0,-1,1840,1135,0,0
623,-111,0,0,0,0,0,0,0,0,0,-1,1847,1135,0,0
630,-111,0,0,0,0,0,0,0,0,0,-1,1854,1135,0,0
637,-111,0,0,0,0,0,0,0,0,0,-1,1861,1135,0,0
644,-111,36.5476,2.55151,0.0121306,-0.00407495,-0.00384789,0.0129979,-0.00494219,-0.221677,0.0107001,0.0406267,1868,1135,36.5476,-2.55147
651,-111,36.8136,2.59778,0.00817837,-0.00321234,-0.00264084,0.00876084,-0.00379481,-0.217087,0.00743561,0.0408356,1875,1135,36.8136,-2.59779
658,-111,37.144,2.22107,0.00553343,-0.00257445,-0.00166812,0.00586322,-0.00290424,-0.195182,0.00515709,0.0441274,1882,1135,37.144,-2.22109
665,-111,37.0894,2.0658,0.00355665,-0.00208754,-0.000836558,0.00367804,-0.00220892,-0.14409,0.00343393,0.0468848,1889,1135,37.0894,-2.06584
672,-111,36.8423,2.3429,0.00223099,-0.00177306,-0.000146439,0.00223634,-0.00177841,-0.0365076,0.00232294,0.045024,1896,1135,36.8423,-2.34288
679,-111,36.7766,2.30774,0.00116328,-0.00156725,0.000330094,0.00120261,-0.00160659,0.118614,0.00162747,0.0424851,1903,1135,36.7767,-2.3078
686,-111,36.72,2.28455,0.000463707,-0.00151322,0.000608937,0.000636219,-0.00168573,0.276066,0.00138547,0.0380416,1910,1135,36.72,-2.28459
693,-111,36.6682,2.51392,0.000134841,-0.0014077,0.000778208,0.000459228,-0.00173209,0.394937,0.00133441,0.0333727,1917,1135,36.6682,-2.51388
700,-111,36.7573,2.52283,-0.000367946,-0.00134658,0.000962955,0.000222883,-0.00193741,0.550329,0.00137195,0.0267596,1924,1135,36.7573,-2.52279
707,-111,36.6962,2.46887,0,0,0,0,0,0,0,-1,1931,1135,36.6961,-2.46887
714,-111,34.4091,6.05664,0,0,0,0,0,0,0,-1,1938,1135,34.4091,-6.05664
721,-111,34.1508,5.82434,-0.00112894,-0.000775558,0.00126893,0.000328925,-0.00223342,0.854575,0.00160983,0.0224893,1945,1135,34.1508,-5.8243
728,-111,34.1603,5.55798,-0.00129905,-0.000539331,0.00132482,0.000459013,-0.0022974,0.925016,0.00170532,0.021056,1952,1135,34.1602,-5.55794
735,-111,34.1561,5.3158,-0.00152794,-0.000215917,0.00149966,0.000764938,-0.00250879,0.991578,0.00197746,0.0206068,1959,1135,34.1561,-5.31576
742,-111,34.1117,5.13586,-0.00194811,0.000227835,0.00169572,0.00115459,-0.00287487,1.07062,0.00239604,0.0128479,1966,1135,34.1117,-5.13589
749,-111,34.0809,4.91406,-0.00240006,0.000816031,0.00201355,0.00178484,-0.00336888,1.12235,0.00302199,0.0150718,1973,1135,34.081,-4.91408
756,-111,34.0645,4.68005,-0.00240982,0.00157349,0.0022257,0.00256854,-0.00340487,1.15038,0.00346,0.016173,1980,1135,34.0645,-4.68005
763,-111,34.0504,4.47314,-0.00216817,0.00230862,0.00246571,0.00340041,-0.00325996,1.15395,0.00384566,0.014034,1987,1135,34.0504,-4.47318
770,-111,34.0459,4.26306,-0.00174718,0.00310524,0.00270539,0.00431299,-0.00295493,1.15092,0.00422048,0.0109879,1994,1135,34.0459,-4.26307
777,-111,33.9626,4.06897,-0.0010297,0.00378477,0.00285919,0.00511515,-0.00236008,1.13529,0.00441245,0.0228453,2001,1135,33.9627,-4.06896
784,-111,33.8542,3.82275,6.81754e-05,0.0043099,0.00283569,0.0057301,-0.00135203,1.10648,0.0043415,0.0389626,2008,1135,33.8543,-3.82274
791,-111,33.8254,3.64355,0.00180095,0.00459132,0.00248702,0.00604777,0.000344501,1.04102,0.00392206,0.0411034,2015,1135,33.8255,-3.64352
798,-111,33.7886,3.38611,0.00481724,0.00451025,0.00164397,0.00631487,0.00301262,0.73885,0.00364717,0.0444758,2022,1135,33.7885,-3.38605
805,-111,34.9102,3.60413,0.00937381,0.00385423,6.59356e-05,0.0093746,0.00385344,0.0119435,0.0054409,0.0496982,2029,1135,34.9102,-3.60413
812,-111,35.5227,3.46338,0,0,0,0,0,0,0,-1,2036,1135,35.5228,-3.46343
-700,-118,0,0,0,0,0,0,0,0,0,-1,524,1142,0,0
-693,-118,-23.5414,-6.3335,0.0105451,0.07588,0.0368595,0.0924648,-0.00603969,1.14799,0.0637519,0.0478728,531,1142,-23.5414,6.3335
-686,-118,-24.045,-4.64685,0.0110783,0.0483096,0.0294877,0.0645661,-0.00517822,1.06696,0.0448699,0.0482357,538,1142,-24.045,4.64689
-679,-118,-24.4041,-3.26746,0.0103005,0.030907,0.022808,0.045631,-0.00442348,0.997547,0.0319972,0.0443079,545,1142,-24.404,3.26744
-672,-118,-24.5145,-2.51941,0.00900571,0.0197225,0.0170713,0.0322566,-0.00352834,0.937471,0.0227718,0.0458623,552,1142,-24.5145,2.51937
-665,-118,-25.1138,1.3363,0,0,0,0,0,0,0,-1,559,1142,-25.1138,-1.33626
-658,-118,-25.0456,1.00488,0,0,0,0,0,0,0,-1,566,1142,-25.0456,-1.00485
-651,-118,-23.5826,0.78418,0.00383341,0.00526101,0.00556007,0.0101529,-0.00105849,0.849239,0.00714762,0.0392692,573,1142,-23.5826,-0.784135
-644,-118,-23.5024,1.1936,0.00241862,0.00354371,0.00333946,0.00636768,-0.000405346,0.868841,0.00438648,0.0270227,580,1142,-23.5024,-1.19355
-637,-118,-23.6299,1.52026,0.00140971,-0.00037966,0.00204461,0.00274682,-0.00171677,0.579159,0.00259982,0.0158205,587,1142,-23.6299,-1.52024
-630,-118,-23.671,1.78149,0.000689766,0.000340044,0.000570865,0.00111195,-8.21406e-05,0.636781,0.000770142,0.0209642,594,1142,-23.6709,-1.78147
-623,-118,-23.6701,2.05481,0.000536311,0.000459311,-0.000726449,0.00122528,-0.000229657,-0.758924,0.000903191,0.0174343,601,1142,-23.6701,-2.05482
-616,-118,-23.7043,2.31641,0.000783613,0.000398615,-0.000830813,0.00144394,-0.000261709,-0.671557,0.00106068,0.0157839,608,1142,-23.7043,-2.3164
-609,-118,-23.8459,2.49426,0.001136,-0.000232591,-0.000257917,0.00118299,-0.000279583,-0.180221,0.000896508,0.0252962,615,1142,-23.846,-2.49426
-602,-118,-23.8046,2.87158,0.00127399,-0.000538573,0.00027712,0.00131541,-0.000579995,0.148374,0.00112143,0.0249143,622,1142,-23.8046,-2.87161
-595,-118,-23.8467,3.11804,0.00158611,-0.000658873,0.000238857,0.00161124,-0.000684005,0.104832,0.00136073,0.0207924,629,1142,-23.8467,-3.11806
-588,-118,-23.4974,3.47913,0.00188457,-0.000683057,0.000243343,0.00190743,-0.000705916,0.0936622,0.00156107,0.0459141,636,1142,-23.4975,-3.47911
-581,-118,-23.174,3.67578,0,0,0,0,0,0,0,-1,643,1142,-23.1739,-3.67584
-574,-118,-26.5813,0.65332,0,0,0,0,0,0,0,-1,650,1142,-26.5813,-0.653343
-567,-118,-26.5229,0.673096,0.00172899,-0.000721522,0.00106501,0.00212715,-0.00111969,0.357772,0.00190441,0.0457524,657,1142,-26.5229,-0.673077
-560,-118,-26.4682,0.704468,0.00156497,-0.00057912,0.00122896,0.00212376,-0.00113791,0.426744,0.00191158,0.037702,664,1142,-26.4682,-0.704483
-553,-118,-26.401,0.699585,0.00102639,-0.000401289,0.00129049,0.00178731,-0.00116221,0.532767,0.00171561,0.0386767,671,1142,-26.401,-0.699634
-546,-118,-26.3179,0.646729,9.21448e-05,-0.000315854,0.00118221,0.00108783,-0.00131154,0.699961,0.00138728,0.0389492,678,1142,-26.3179,-0.646734
-539,-118,-26.2605,0.494385,-0.00107727,-0.000624132,0.00106187,0.000235076,-0.00193648,0.890505,0.00137605,0.0412137,685,1142,-26.2605,-0.494397
-532,-118,-26.4683,0.45459,-0.00153101,-0.00135629,0.00133169,-0.000109102,-0.0027782,0.818151,0.00181686,0.0425019,692,1142,-26.4683,-0.454534
-525,-118,-26.6791,0.692993,-0.0024401,-0.00206869,0.00176525,-0.000479403,-0.00402939,0.837806,0.00254157,0.042056,699,1142,-26.6791,-0.692932
-518,-118,0,0,0,0,0,0,0,0,0,-1,706,1142,0,0
-511,-118,0,0,0,0,0,0,0,0,0,-1,713,1142,0,0
-504,-118,0,0,0,0,0,0,0,0,0,-1,720,1142,0,0
-497,-118,0,0,0,0,0,0,0,0,0,-1,727,1142,0,0
-490,-118,0,0,0,0,0,0,0,0,0,-1,734,1142,0,0
-483,-118,0,0,0,0,0,0,0,0,0,-1,741,1142,0,0
-476,-118,0,0,0,0,0,0,0,0,0,-1,748,1142,0,0
-469,-118,0,0,0,0,0,0,0,0,0,-1,755,1142,0,0
-462,-118,0,0,0,0,0,0,0,0,0,-1,762,1142,0,0
-455,-118,0,0,0,0,0,0,0,0,0,-1,769,1142,0,0
-448,-118,0,0,0,0,0,0,0,0,0,-1,776,1142,0,0
-441,-118,0,0,0,0,0,0,0,0,0,-1,783,1142,0,0
-434,-118,0,0,0,0,0,0,0,0,0,-1,790,1142,0,0
-427,-118,0,0,0,0,0,0,0,0,0,-1,797,1142,0,0
-420,-118,0,0,0,0,0,0,0,0,0,-1,804,1142,0,0
-413,-118,0,0,0,0,0,0,0,0,0,-1,811,1142,0,0
-406,-118,0,0,0,0,0,0,0,0,0,-1,818,1142,0,0
-399,-118,0,0,0,0,0,0,0,0,0,-1,825,1142,0,0
-392,-118,0,0,0,0,0,0,0,0,0,-1,832,1142,0,0
-385,-118,0,0,0,0,0,0,0,0,0,-1,839,1142,0,0
-378,-118,0,0,0,0,0,0,0,0,0,-1,846,1142,0,0
-371,-118,0,0,0,0,0,0,0,0,0,-1,853,1142,0,0
-364,-118,0,0,0,0,0,0,0,0,0,-1,860,1142,0,0
-357,-118,0,0,0,0,0,0,0,0,0,-1,867,1142,0,0
-350,-118,0,0,0,0,0,0,0,0,0,-1,874,1142,0,0
-343,-118,0,0,0,0,0,0,0,0,0,-1,881,1142,0,0
-336,-118,0,0,0,0,0,0,0,0,0,-1,888,1142,0,0
-329,-118,0,0,0,0,0,0,0,0,0,-1,895,1142,0,0
-322,-118,0,0,0,0,0,0,0,0,0,-1,902,1142,0,0
-315,-118,0,0,0,0,0,0,0,0,0,-1,909,1142,0,0
-308,-118,0,0,0,0,0,0,0,0,0,-1,916,1142,0,0
-301,-118,0,0,0,0,0,0,0,0,0,-1,923,1142,0,0
-294,-118,0,0,0,0,0,0,0,0,0,-1,930,1142,0,0
-287,-118,0,0,0,0,0,0,0,0,0,-1,937,1142,0,0
-280,-118,0,0,0,0,0,0,0,0,0,-1,944,1142,0,0
-273,-118,0,0,0,0,0,0,0,0,0,-1,951,1142,0,0
-266,-118,0,0,0,0,0,0,0,0,0,-1,958,1142,0,0
-259,-118,0,0,0,0,0,0,0,0,0,-1,965,1142,0,0
-252,-118,0,0,0,0,0,0,0,0,0,-1,972,1142,0,0
-245,-118,0,0,0,0,0,0,0,0,0,-1,979,1142,0,0
-238,-118,0,0,0,0,0,0,0,0,0,-1,986,1142,0,0
-231,-118,0,0,0,0,0,0,0,0,0,-1,993,1142,0,0
-224,-118,0,0,0,0,0,0,0,0,0,-1,1000,1142,0,0
-217,-118,0,0,0,0,0,0,0,0,0,-1,1007,1142,0,0
-210,-118,0,0,0,0,0,0,0,0,0,-1,1014,1142,0,0
-203,-118,0,0,0,0,0,0,0,0,0,-1,1021,1142,0,0
-196,-118,0,0,0,0,0,0,0,0,0,-1,1028,1142,0,0
-189,-118,0,0,0,0,0,0,0,0,0,-1,1035,1142,0,0
-182,-118,0,0,0,0,0,0,0,0,0,-1,1042,1142,0,0
-175,-118,0,0,0,0,0,0,0,0,0,-1,1049,1142,0,0
-168,-118,0,0,0,0,0,0,0,0,0,-1,1056,1142,0,0
-161,-118,0,0,0,0,0,0,0,0,0,-1,1063,1142,0,0
-154,-118,0,0,0,0,0,0,0,0,0,-1,1070,1142,0,0
-147,-118,0,0,0,0,0,0,0,0,0,-1,1077,1142,0,0
-140,-118,0,0,0,0,0,0,0,0,0,-1,1084,1142,0,0
-133,-118,0,0,0,0,0,0,0,0,0,-1,1091,1142,0,0
-126,-118,0,0,0,0,0,0,0,0,0,-1,1098,1142,0,0
-119,-118,0,0,0,0,0,0,0,0,0,-1,1105,1142,0,0
-112,-118,0,0,0,0,0,0,0,0,0,-1,1112,1142,0,0
-105,-118,0,0,0,0,0,0,0,0,0,-1,1119,1142,0,0
-98,-118,0,0,0,0,0,0,0,0,0,-1,1126,1142,0,0
-91,-118,0,0,0,0,0,0,0,0,0,-1,1133,1142,0,0
-84,-118,0,0,0,0,0,0,0,0,0,-1,1140,1142,0,0
-77,-118,0,0,0,0,0,0,0,0,0,-1,1147,1142,0,0
-70,-118,0,0,0,0,0,0,0,0,0,-1,1154,1142,0,0
-63,-118,0,0,0,0,0,0,0,0,0,-1,1161,1142,0,0
-56,-118,0,0,0,0,0,0,0,0,0,-1,1168,1142,0,0
-49,-118,0,0,0,0,0,0,0,0,0,-1,1175,1142,0,0
-42,-118,0,0,0,0,0,0,0,0,0,-1,1182,1142,0,0
-35,-118,0,0,0,0,0,0,0,0,0,-1,1189,1142,0,0
-28,-118,0,0,0,0,0,0,0,0,0,-1,1196,1142,0,0
-21,-118,0,0,0,0,0,0,0,0,0,-1,1203,1142,0,0
-14,-118,0,0,0,0,0,0,0,0,0,-1,1210,1142,0,0
-7,-118,0,0,0,0,0,0,0,0,0,-1,1217,1142,0,0
0,-118,0,0,0,0,0,0,0,0,0,-1,1224,1142,0,0
7,-118,0,0,0,0,0,0,0,0,0,-1,1231,1142,0,0
14,-118,0,0,0,0,0,0,0,0,0,-1,1238,1142,0,0
21,-118,0,0,0,0,0,0,0,0,0,-1,1245,1142,0,0
28,-118,0,0,0,0,0,0,0,0,0,-1,1252,1142,0,0
35,-118,0,0,0,0,0,0,0,0,0,-1,1259,1142,0,0
42,-118,0,0,0,0,0,0,0,0,0,-1,1266,1142,0,0
49,-118,0,0,0,0,0,0,0,0,0,-1,1273,1142,0,0
56,-118,0,0,0,0,0,0,0,0,0,-1,1280,1142,0,0
63,-118,0,0,0,0,0,0,0,0,0,-1,1287,1142,0,0
70,-118,0,0,0,0,0,0,0,0,0,-1,1294,1142,0,0
77,-118,0,0,0,0,0,0,0,0,0,-1,1301,1142,0,0
84,-118,0,0,0,0,0,0,0,0,0,-1,1308,1142,0,0
91,-118,0,0,0,0,0,0,0,0,0,-1,1315,1142,0,0
98,-118,0,0,0,0,0,0,0,0,0,-1,1322,1142,0,0
105,-118,0,0,0,0,0,0,0,0,0,-1,1329,1142,0,0
112,-118,0,0,0,0,0,0,0,0,0,-1,1336,1142,0,0
119,-118,0,0,0,0,0,0,0,0,0,-1,1343,1142,0,0
126,-118,0,0,0,0,0,0,0,0,0,-1,1350,1142,0,0
133,-118,0,0,0,0,0,0,0,0,0,-1,1357,1142,0,0
140,-118,0,0,0,0,0,0,0,0,0,-1,1364,1142,0,0
147,-118,0,0,0,0,0,0,0,0,0,-1,1371,1142,0,0
154,-118,0,0,0,0,0,0,0,0,0,-1,1378,1142,0,0
161,-118,0,0,0,0,0,0,0,0,0,-1,1385,1142,0,0
168,-118,0,0,0,0,0,0,0,0,0,-1,1392,1142,0,0
175,-118,0,0,0,0,0,0,0,0,0,-1,1399,1142,0,0
182,-118,0,0,0,0,0,0,0,0,0,-1,1406,1142,0,0
189,-118,0,0,0,0,0,0,0,0,0,-1,1413,1142,0,0
196,-118,0,0,0,0,0,0,0,0,0,-1,1420,1142,0,0
203,-118,0,0,0,0,0,0,0,0,0,-1,1427,1142,0,0
210,-118,0,0,0,0,0,0,0,0,0,-1,1434,1142,0,0
217,-118,0,0,0,0,0,0,0,0,0,-1,1441,1142,0,0
224,-118,0,0,0,0,0,0,0,0,0,-1,1448,1142,0,0
231,-118,0,0,0,0,0,0,0,0,0,-1,1455,1142,0,0
238,-118,0,0,0,0,0,0,0,0,0,-1,1462,1142,0,0
245,-118,0,0,0,0,0,0,0,0,0,-1,1469,1142,0,0
252,-118,0,0,0,0,0,0,0,0,0,-1,1476,1142,0,0
259,-118,0,0,0,0,0,0,0,0,0,-1,1483,1142,0,0
266,-118,0,0,0,0,0,0,0,0,0,-1,1490,1142,0,0
273,-118,0,0,0,0,0,0,0,0,0,-1,1497,1142,0,0
280,-118,0,0,0,0,0,0,0,0,0,-1,1504,1142,0,0
287,-118,0,0,0,0,0,0,0,0,0,-1,1511,1142,0,0
294,-118,0,0,0,0,0,0,0,0,0,-1,1518,1142,0,0
301,-118,0,0,0,0,0,0,0,0,0,-1,1525,1142,0,0
308,-118,0,0,0,0,0,0,0,0,0,-1,1532,1142,0,0
315,-118,0,0,0,0,0,0,0,0,0,-1,1539,1142,0,0
322,-118,0,0,0,0,0,0,0,0,0,-1,1546,1142,0,0
329,-118,0,0,0,0,0,0,0,0,0,-1,1553,1142,0,0
336,-118,0,0,0,0,0,0,0,0,0,-1,1560,1142,0,0
343,-118,0,0,0,0,0,0,0,0,0,-1,1567,1142,0,0
350,-118,0,0,0,0,0,0,0,0,0,-1,1574,1142,0,0
357,-118,0,0,0,0,0,0,0,0,0,-1,1581,1142,0,0
364,-118,0,0,0,0,0,0,0,0,0,-1,1588,1142,0,0
371,-118,0,0,0,0,0,0,0,0,0,-1,1595,1142,0,0
378,-118,0,0,0,0,0,0,0,0,0,-1,1602,1142,0,0
385,-118,0,0,0,0,0,0,0,0,0,-1,1609,1142,0,0
392,-118,0,0,0,0,0,0,0,0,0,-1,1616,1142,0,0
399,-118,0,0,0,0,0,0,0,0,0,-1,1623,1142,0,0
406,-118,0,0,0,0,0,0,0,0,0,-1,1630,1142,0,0
413,-118,0,0,0,0,0,0,0,0,0,-1,1637,1142,0,0
420,-118,0,0,0,0,0,0,0,0,0,-1,1644,1142,0,0
427,-118,0,0,0,0,0,0,0,0,0,-1,1651,1142,0,0
434,-118,0,0,0,0,0,0,0,0,0,-1,1658,1142,0,0
441,-118,0,0,0,0,0,0,0,0,0,-1,1665,1142,0,0
448,-118,0,0,0,0,0,0,0,0,0,-1,1672,1142,0,0
455,-118,0,0,0,0,0,0,0,0,0,-1,1679,1142,0,0
462,-118,0,0,0,0,0,0,0,0,0,-1,1686,1142,0,0
469,-118,0,0,0,0,0,0,0,0,0,-1,1693,1142,0,0
476,-118,0,0,0,0,0,0,0,0,0,-1,1700,1142,0,0
483,-118,0,0,0,0,0,0,0,0,0,-1,1707,1142,0,0
490,-118,0,0,0,0,0,0,0,0,0,-1,1714,1142,0,0
497,-118,0,0,0,0,0,0,0,0,0,-1,1721,1142,0,0
504,-118,0,0,0,0,0,0,0,0,0,-1,1728,1142,0,0
511,-118,0,0,0,0,0,0,0,0,0,-1,1735,1142,0,0
518,-118,0,0,0,0,0,0,0,0,0,-1,1742,1142,0,0
525,-118,0,0,0,0,0,0,0,0,0,-1,1749,1142,0,0
532,-118,0,0,0,0,0,0,0,0,0,-1,1756,1142,0,0
539,-118,0,0,0,0,0,0,0,0,0,-1,1763,1142,0,0
546,-118,0,0,0,0,0,0,0,0,0,-1,1770,1142,0,0
553,-118,0,0,0,0,0,0,0,0,0,-1,1777,1142,0,0
560,-118,0,0,0,0,0,0,0,0,0,-1,1784,1142,0,0
567,-118,0,0,0,0,0,0,0,0,0,-1,1791,1142,0,0
574,-118,0,0,0,0,0,0,0,0,0,-1,1798,1142,0,0
581,-118,0,0,0,0,0,0,0,0,0,-1,1805,1142,0,0
588,-118,0,0,0,0,0,0,0,0,0,-1,1812,1142,0,0
595,-118,0,0,0,0,0,0,0,0,0,-1,1819,1142,0,0
602,-118,0,0,0,0,0,0,0,0,0,-1,1826,1142,0,0
609,-118,0,0,0,0,0,0,0,0,0,-1,1833,1142,0,0
616,-118,0,0,0,0,0,0,0,0,0,-1,1840,1142,0,0
623,-118,0,0,0,0,0,0,0,0,0,-1,1847,1142,0,0
630,-118,0,0,0,0,0,0,0,0,0,-1,1854,1142,0,0
637,-118,0,0,0,0,0,0,0,0,0,-1,1861,1142,0,0
644,-118,36.5107,2.80457,0.0112866,-0.00377845,-0.00446349,0.0125097,-0.00500159,-0.267467,0.0104153,0.0447642,1868,1142,36.5107,-2.80458
651,-118,36.8416,2.68994,0.00763716,-0.00308455,-0.00303342,0.00843588,-0.00388328,-0.257464,0.00727256,0.041557,1875,1142,36.8416,-2.68989
658,-118,36.8998,2.48767,0.00515391,-0.00252571,-0.00188864,0.00559325,-0.00296504,-0.228556,0.00501819,0.0409639,1882,1142,36.8997,-2.48767
665,-118,36.7765,2.48669,0.0032697,-0.00206104,-0.000925913,0.00342595,-0.00221728,-0.167172,0.00328294,0.0428136,1889,1142,36.7765,-2.48671
672,-118,36.694,2.49585,0.00204313,-0.00174703,-0.000169715,0.00205072,-0.00175461,-0.0446586,0.00219922,0.0462557,1896,1142,36.694,-2.49585
679,-118,36.6478,2.31116,0.00105476,-0.00148274,0.000304182,0.00109071,-0.0015187,0.117654,0.00151328,0.0424599,1903,1142,36.6478,-2.31119
686,-118,36.6487,2.36084,0.000424114,-0.00139044,0.000558217,0.000582088,-0.00154841,0.275785,0.00127152,0.0351374,1910,1142,36.6487,-2.36082
693,-118,36.6471,2.51428,0.000134972,-0.00124132,0.000710525,0.000435962,-0.00154231,0.400698,0.00120022,0.0336839,1917,1142,36.647,-2.51424
700,-118,36.7457,2.52991,-0.000310265,-0.00117727,0.000898212,0.000253583,-0.00174112,0.560571,0.00125385,0.0226398,1924,1142,36.7457,-2.52991
707,-118,36.8069,2.6936,0,0,0,0,0,0,0,-1,1931,1142,36.8068,-2.69363
714,-118,34.0328,6.17041,0,0,0,0,0,0,0,-1,1938,1142,34.0329,-6.17045
721,-118,33.8918,5.88306,-0.00101137,-0.000546706,0.00113049,0.00037508,-0.00193316,0.886744,0.00143029,0.0160766,1945,1142,33.8919,-5.88307
728,-118,33.902,5.62585,-0.00114447,-0.000310441,0.00116644,0.000511289,-0.0019662,0.957073,0.00151036,0.01806,1952,1142,33.9019,-5.62586
735,-118,33.8538,5.39624,-0.00140725,1.72255e-05,0.00130505,0.000791741,-0.00218177,1.03519,0.00177818,0.0174511,1959,1142,33.8537,-5.39621
742,-118,33.8785,5.15979,-0.00183442,0.000494397,0.00146378,0.00120042,-0.00254044,1.12139,0.00220549,0.0231017,1966,1142,33.8786,-5.15984
749,-118,33.854,4.91272,-0.00230186,0.00105991,0.0018026,0.00184372,-0.00308568,1.16063,0.00287594,0.0217286,1973,1142,33.854,-4.91275
756,-118,33.8308,4.66638,-0.00241697,0.00173978,0.00206514,0.00259133,-0.00326852,1.17969,0.0033907,0.0183967,1980,1142,33.8308,-4.66635
763,-118,33.833,4.45276,-0.00227115,0.00243904,0.00236114,0.00341882,-0.00325094,1.17746,0.00385119,0.0102692,1987,1142,33.833,-4.45272
770,-118,33.7943,4.25012,-0.00204073,0.00311465,0.00265195,0.00423525,-0.00316133,1.171,0.00428539,0.01228,1994,1142,33.7943,-4.25008
777,-118,33.713,4.07837,-0.00162998,0.00360108,0.00287027,0.00486877,-0.00289768,1.1549,0.00453184,0.0263114,2001,1142,33.7131,-4.07835
784,-118,33.5908,3.90161,-0.000979882,0.00382377,0.00294892,0.00522522,-0.00238133,1.12715,0.00449279,0.0432228,2008,1142,33.5908,-3.90164
791,-118,33.4187,3.73743,7.10197e-05,0.00361076,0.00276759,0.00512601,-0.00144422,1.06988,0.00398691,0.0465251,2015,1142,33.4187,-3.7374
798,-118,33.1892,3.63538,0,0,0,0,0,0,0,-1,2022,1142,33.1893,-3.63536
805,-118,35.0227,3.52039,0,0,0,0,0,0,0,-1,2029,1142,35.0226,-3.52033
812,-118,35.626,3.30017,0,0,0,0,0,0,0,-1,2036,1142,35.6259,-3.30021
-700,-125,0,0,0,0,0,0,0,0,0,-1,524,1149,0,0
-693,-125,-23.218,-6.28613,0.000975288,0.0625133,0.0520565,0.0922142,-0.0287256,1.05231,0.0729613,0.0481726,531,1149,-23.218,6.2861
-686,-125,-23.7932,-4.8479,0.004554,0.0409991,0.0391012,0.0659155,-0.0203624,1.00345,0.0520755,0.0456176,538,1149,-23.7932,4.84784
-679,-125,-24.2043,-3.42163,0.00582512,0.0273115,0.0286474,0.0471638,-0.0140273,0.96479,0.0370151,0.0432421,545,1149,-24.2043,3.42166
-672,-125,-24.2432,1.18774,0.00594485,0.018334,0.0203695,0.03343,-0.00915112,0.93301,0.025882,0.04944,552,1149,-24.2432,-1.18775
-665,-125,-24.2083,1.26355,0.00535801,0.0124264,0.0140102,0.0233413,-0.00555687,0.90895,0.0177062,0.0452753,559,1149,-24.2083,-1.26351
-658,-125,-24.2504,1.01575,0.00422775,0.00855448,0.00916883,0.0158117,-0.00302948,0.901253,0.0116826,0.0414786,566,1149,-24.2504,-1.01576
-651,-125,-24.5503,1.05432,0,0,0,0,0,0,0,-1,573,1149,-24.5503,-1.05436
-644,-125,-23.2448,1.21082,0.00163263,0.00431479,0.00301839,0.00627662,-0.000329199,0.994451,0.00429835,0.0272324,580,1149,-23.2448,-1.21087
-637,-125,-23.3363,1.49634,0.000841238,0.000873096,0.00138194,0.0022392,-0.000524865,0.791161,0.00169506,0.0140665,587,1149,-23.3363,-1.49629
-630,-125,-23.364,1.79041,0.000245087,0.0010294,-5.11971e-05,0.00103273,0.000241759,-1.50589,0.000623718,0.0152858,594,1149,-23.364,-1.79039
-623,-125,-23.3615,2.08423,5.54638e-05,0.000798909,-0.00114502,0.00163104,-0.000776663,-0.942352,0.00141896,0.0134219,601,1149,-23.3615,-2.08425
-616,-125,-23.359,2.33923,0.000305798,0.000542512,-0.00105184,0.00148263,-0.00063432,-0.841424,0.00125451,0.014782,608,1149,-23.359,-2.33919
-609,-125,-23.4821,2.54883,0.000626433,-0.000160813,-0.000295009,0.000724714,-0.000259094,-0.321581,0.000588825,0.0276816,615,1149,-23.4821,-2.54887
-602,-125,-23.5162,2.92749,0.000703313,-0.000438444,0.000397306,0.000827959,-0.00056309,0.304003,0.000807961,0.0248055,622,1149,-23.5162,-2.92749
-595,-125,-23.5315,3.22498,0.000951507,-0.000521492,0.000470952,0.00108921,-0.000659194,0.28446,0.00101957,0.0240967,629,1149,-23.5315,-3.22496
-588,-125,-23.2102,3.59363,0.00119861,-0.000528155,0.000521143,0.0013437,-0.000673246,0.271534,0.00118574,0.0395642,636,1149,-23.2102,-3.59365
-581,-125,-22.8976,3.96924,0,0,0,0,0,0,0,-1,643,1149,-22.8977,-3.96922
-574,-125,-26.5499,0.656372,0,0,0,0,0,0,0,-1,650,1149,-26.5499,-0.65636
-567,-125,-26.5126,0.653931,0.00127332,-0.000662631,0.00159241,0.00216888,-0.00155819,0.512306,0.00216143,0.0429928,657,1149,-26.5126,-0.653954
-560,-125,-26.5221,0.720337,0.00122103,-0.00056392,0.00183893,0.00237262,-0.00171551,0.55948,0.00237042,0.0386368,664,1149,-26.5221,-0.72034
-553,-125,-26.525,0.78064,0.000905788,-0.000466568,0.00198423,0.00231914,-0.00187992,0.618927,0.00242875,0.0398756,671,1149,-26.525,-0.780582
-546,-125,-26.478,0.703247,0.000355933,-0.000526432,0.00193871,0.00190303,-0.00207353,0.673521,0.00229657,0.0402185,678,1149,-26.478,-0.703253
-539,-125,-26.3863,0.526978,-0.000348553,-0.00111316,0.00181667,0.00112561,-0.00258732,0.68169,0.00219834,0.0416417,685,1149,-26.3863,-0.526988
-532,-125,-26.3557,0.5177,-0.000267285,-0.00225488,0.00205618,0.00102266,-0.00354483,0.560289,0.00276782,0.0399017,692,1149,-26.3556,-0.517742
-525,-125,-26.4955,0.572632,-0.000448589,-0.00347228,0.00248918,0.000951898,-0.00487276,0.512489,0.00360791,0.0415261,699,1149,-26.4955,-0.572624
-518,-125,0,0,0,0,0,0,0,0,0,-1,706,1149,0,0
-511,-125,0,0,0,0,0,0,0,0,0,-1,713,1149,0,0
-504,-125,0,0,0,0,0,0,0,0,0,-1,720,1149,0,0
-497,-125,0,0,0,0,0,0,0,0,0,-1,727,1149,0,0
-490,-125,0,0,0,0,0,0,0,0,0,-1,734,1149,0,0
-483,-125,0,0,0,0,0,0,0,0,0,-1,741,1149,0,0
-476,-125,0,0,0,0,0,0,0,0,0,-1,748,1149,0,0
-469,-125,0,0,0,0,0,0,0,0,0,-1,755,1149,0,0
-462,-125,0,0,0,0,0,0,0,0,0,-1,762,1149,0,0
-455,-125,0,0,0,0,0,0,0,0,0,-1,769,1149,0,0
-448,-125,0,0,0,0,0,0,0,0,0,-1,776,1149,0,0
-441,-125,0,0,0,0,0,0,0,0,0,-1,783,1149,0,0
-434,-125,0,0,0,0,0,0,0,0,0,-1,790,1149,0,0
-427,-125,0,0,0,0,0,0,0,0,0,-1,797,1149,0,0
-420,-125,0,0,0,0,0,0,0,0,0,-1,804,1149,0,0
-413,-125,0,0,0,0,0,0,0,0,0,-1,811,1149,0,0
-406,-125,0,0,0,0,0,0,0,0,0,-1,818,1149,0,0
-399,-125,0,0,0,0,0,0,0,0,0,-1,825,1149,0,0
-392,-125,0,0,0,0,0,0,0,0,0,-1,832,1149,0,0
-385,-125,0,0,0,0,0,0,0,0,0,-1,839,1149,0,0
-378,-125,0,0,0,0,0,0,0,0,0,-1,846,1149,0,0
-371,-125,0,0,0,0,0,0,0,0,0,-1,853,1149,0,0
-364,-125,0,0,0,0,0,0,0,0,0,-1,860,1149,0,0
-357,-125,0,0,0,0,0,0,0,0,0,-1,867,1149,0,0
-350,-125,0,0,0,0,0,0,0,0,0,-1,874,1149,0,0
-343,-125,0,0,0,0,0,0,0,0,0,-1,881,1149,0,0
-336,-125,0,0,0,0,0,0,0,0,0,-1,888,1149,0,0
-329,-125,0,0,0,0,0,0,0,0,0,-1,895,1149,0,0
-322,-125,0,0,0,0,0,0,0,0,0,-1,902,1149,0,0
-315,-125,0,0,0,0,0,0,0,0,0,-1,909,1149,0,0
-308,-125,0,0,0,0,0,0,0,0,0,-1,916,1149,0,0
-301,-125,0,0,0,0,0,0,0,0,0,-1,923,1149,0,0
-294,-125,0,0,0,0,0,0,0,0,0,-1,930,1149,0,0
-287,-125,0,0,0,0,0,0,0,0,0,-1,937,1149,0,0
-280,-125,0,0,0,0,0,0,0,0,0,-1,944,1149,0,0
-273,-125,0,0,0,0,0,0,0,0,0,-1,951,1149,0,0
-266,-125,0,0,0,0,0,0,0,0,0,-1,958,1149,0,0
-259,-125,0,0,0,0,0,0,0,0,0,-1,965,1149,0,0
-252,-125,0,0,0,0,0,0,0,0,0,-1,972,1149,0,0
-245,-125,0,0,0,0,0,0,0,0,0,-1,979,1149,0,0
-238,-125,0,0,0,0,0,0,0,0,0,-1,986,1149,0,0
-231,-125,0,0,0,0,0,0,0,0,0,-1,993,1149,0,0
-224,-125,0,0,0,0,0,0,0,0,0,-1,1000,1149,0,0
-217,-125,0,0,0,0,0,0,0,0,0,-1,1007,1149,0,0
-210,-125,0,0,0,0,0,0,0,0,0,-1,1014,1149,0,0
-203,-125,0,0,0,0,0,0,0,0,0,-1,1021,1149,0,0
-196,-125,0,0,0,0,0,0,0,0,0,-1,1028,1149,0,0
-189,-125,0,0,0,0,0,0,0,0,0,-1,1035,1149,0,0
-182,-125,0,0,0,0,0,0,0,0,0,-1,1042,1149,0,0
-175,-125,0,0,0,0,0,0,0,0,0,-1,1049,1149,0,0
-168,-125,0,0,0,0,0,0,0,0,0,-1,1056,1149,0,0
-161,-125,0,0,0,0,0,0,0,0,0,-1,1063,1149,0,0
-154,-125,0,0,0,0,0,0,0,0,0,-1,1070,1149,0,0
-147,-125,0,0,0,0,0,0,0,0,0,-1,1077,1149,0,0
-140,-125,0,0,0,0,0,0,0,0,0,-1,1084,1149,0,0
-133,-125,0,0,0,0,0,0,0,0,0,-1,1091,1149,0,0
-126,-125,0,0,0,0,0,0,0,0,0,-1,1098,1149,0,0
-119,-125,0,0,0,0,0,0,0,0,0,-1,1105,1149,0,0
-112,-125,0,0,0,0,0,0,0,0,0,-1,1112,1149,0,0
-105,-125,0,0,0,0,0,0,0,0,0,-1,1119,1149,0,0
-98,-125,0,0,0,0,0,0,0,0,0,-1,1126,1149,0,0
-91,-125,0,0,0,0,0,0,0,0,0,-1,1133,1149,0,0
-84,-125,0,0,0,0,0,0,0,0,0,-1,1140,1149,0,0
-77,-125,0,0,0,0,0,0,0,0,0,-1,1147,1149,0,0
-70,-125,0,0,0,0,0,0,0,0,0,-1,1154,1149,0,0
-63,-125,0,0,0,0,0,0,0,0,0,-1,1161,1149,0,0
-56,-125,0,0,0,0,0,0,0,0,0,-1,1168,1149,0,0
-49,-125,0,0,0,0,0,0,0,0,0,-1,1175,1149,0,0
-42,-125,0,0,0,0,0,0,0,0,0,-1,1182,1149,0,0
-35,-125,0,0,0,0,0,0,0,0,0,-1,1189,1149,0,0
-28,-125,0,0,0,0,0,0,0,0,0,-1,1196,1149,0,0
-21,-125,0,0,0,0,0,0,0,0,0,-1,1203,1149,0,0
-14,-125,0,0,0,0,0,0,0,0,0,-1,1210,1149,0,0
-7,-125,0,0,0,0,0,0,0,0,0,-1,1217,1149,0,0
0,-125,0,0,0,0,0,0,0,0,0,-1,1224,1149,0,0
7,-125,0,0,0,0,0,0,0,0,0,-1,1231,1149,0,0
14,-125,0,0,0,0,0,0,0,0,0,-1,1238,1149,0,0
21,-125,0,0,0,0,0,0,0,0,0,-1,1245,1149,0,0
28,-125,0,0,0,0,0,0,0,0,0,-1,1252,1149,0,0
35,-125,0,0,0,0,0,0,0,0,0,-1,1259,1149,0,0
42,-125,0,0,0,0,0,0,0,0,0,-1,1266,1149,0,0
49,-125,0,0,0,0,0,0,0,0,0,-1,1273,1149,0,0
56,-125,0,0,0,0,0,0,0,0,0,-1,1280,1149,0,0
63,-125,0,0,0,0,0,0,0,0,0,-1,1287,1149,0,0
70,-125,0,0,0,0,0,0,0,0,0,-1,1294,1149,0,0
77,-125,0,0,0,0,0,0,0,0,0,-1,1301,1149,0,0
84,-125,0,0,0,0,0,0,0,0,0,-1,1308,1149,0,0
91,-125,0,0,0,0,0,0,0,0,0,-1,1315,1149,0,0
98,-125,0,0,0,0,0,0,0,0,0,-1,1322,1149,0,0
105,-125,0,0,0,0,0,0,0,0,0,-1,1329,1149,0,0
112,-125,0,0,0,0,0,0,0,0,0,-1,1336,1149,0,0
119,-125,0,0,0,0,0,0,0,0,0,-1,1343,1149,0,0
126,-125,0,0,0,0,0,0,0,0,0,-1,1350,1149,0,0
133,-125,0,0,0,0,0,0,0,0,0,-1,1357,1149,0,0
140,-125,0,0,0,0,0,0,0,0,0,-1,1364,1149,0,0
147,-125,0,0,0,0,0,0,0,0,0,-1,1371,1149,0,0
154,-125,0,0,0,0,0,0,0,0,0,-1,1378,1149,0,0
161,-125,0,0,0,0,0,0,0,0,0,-1,1385,1149,0,0
168,-125,0,0,0,0,0,0,0,0,0,-1,1392,1149,0,0
175,-125,0,0,0,0,0,0,0,0,0,-1,1399,1149,0,0
182,-125,0,0,0,0,0,0,0,0,0,-1,1406,1149,0,0
189,-125,0,0,0,0,0,0,0,0,0,-1,1413,1149,0,0
196,-125,0,0,0,0,0,0,0,0,0,-1,1420,1149,0,0
203,-125,0,0,0,0,0,0,0,0,0,-1,1427,1149,0,0
210,-125,0,0,0,0,0,0,0,0,0,-1,1434,1149,0,0
217,-125,0,0,0,0,0,0,0,0,0,-1,1441,1149,0,0
224,-125,0,0,0,0,0,0,0,0,0,-1,1448,1149,0,0
231,-125,0,0,0,0,0,0,0,0,0,-1,1455,1149,0,0
238,-125,0,0,0,0,0,0,0,0,0,-1,1462,1149,0,0
245,-125,0,0,0,0,0,0,0,0,0,-1,1469,1149,0,0
252,-125,0,0,0,0,0,0,0,0,0,-1,1476,1149,0,0
259,-125,0,0,0,0,0,0,0,0,0,-1,1483,1149,0,0
266,-125,0,0,0,0,0,0,0,0,0,-1,1490,1149,0,0
273,-125,0,0,0,0,0,0,0,0,0,-1,1497,1149,0,0
280,-125,0,0,0,0,0,0,0,0,0,-1,1504,1149,0,0
287,-125,0,0,0,0,0,0,0,0,0,-1,1511,1149,0,0
294,-125,0,0,0,0,0,0,0,0,0,-1,1518,1149,0,0
301,-125,0,0,0,0,0,0,0,0,0,-1,1525,1149,0,0
308,-125,0,0,0,0,0,0,0,0,0,-1,1532,1149,0,0
315,-125,0,0,0,0,0,0,0,0,0,-1,1539,1149,0,0
322,-125,0,0,0,0,0,0,0,0,0,-1,1546,1149,0,0
329,-125,0,0,0,0,0,0,0,0,0,-1,1553,1149,0,0
336,-125,0,0,0,0,0,0,0,0,0,-1,1560,1149,0,0
343,-125,0,0,0,0,0,0,0,0,0,-1,1567,1149,0,0
350,-125,0,0,0,0,0,0,0,0,0,-1,1574,1149,0,0
357,-125,0,0,0,0,0,0,0,0,0,-1,1581,1149,0,0
364,-125,0,0,0,0,0,0,0,0,0,-1,1588,1149,0,0
371,-125,0,0,0,0,0,0,0,0,0,-1,1595,1149,0,0
378,-125,0,0,0,0,0,0,0,0,0,-1,1602,1149,0,0
385,-125,0,0,0,0,0,0,0,0,0,-1,1609,1149,0,0
392,-125,0,0,0,0,0,0,0,0,0,-1,1616,1149,0,0
399,-125,0,0,0,0,0,0,0,0,0,-1,1623,1149,0,0
406,-125,0,0,0,0,0,0,0,0,0,-1,1630,1149,0,0
413,-125,0,0,0,0,0,0,0,0,0,-1,1637,1149,0,0
420,-125,0,0,0,0,0,0,0,0,0,-1,1644,1149,0,0
427,-125,0,0,0,0,0,0,0,0,0,-1,1651,1149,0,0
434,-125,0,0,0,0,0,0,0,0,0,-1,1658,1149,0,0
441,-125,0,0,0,0,0,0,0,0,0,-1,1665,1149,0,0
448,-125,0,0,0,0,0,0,0,0,0,-1,1672,1149,0,0
455,-125,0,0,0,0,0,0,0,0,0,-1,1679,1149,0,0
462,-125,0,0,0,0,0,0,0,0,0,-1,1686,1149,0,0
469,-125,0,0,0,0,0,0,0,0,0,-1,1693,1149,0,0
476,-125,0,0,0,0,0,0,0,0,0,-1,1700,1149,0,0
483,-125,0,0,0,0,0,0,0,0,0,-1,1707,1149,0,0
490,-125,0,0,0,0,0,0,0,0,0,-1,1714,1149,0,0
497,-125,0,0,0,0,0,0,0,0,0,-1,1721,1149,0,0
504,-125,0,0,0,0,0,0,0,0,0,-1,1728,1149,0,0
511,-125,0,0,0,0,0,0,0,0,0,-1,1735,1149,0,0
518,-125,0,0,0,0,0,0,0,0,0,-1,1742,1149,0,0
525,-125,0,0,0,0,0,0,0,0,0,-1,1749,1149,0,0
532,-125,0,0,0,0,0,0,0,0,0,-1,1756,1149,0,0
539,-125,0,0,0,0,0,0,0,0,0,-1,1763,1149,0,0
546,-125,0,0,0,0,0,0,0,0,0,-1,1770,1149,0,0
553,-125,0,0,0,0,0,0,0,0,0,-1,1777,1149,0,0
560,-125,0,0,0,0,0,0,0,0,0,-1,1784,1149,0,0
567,-125,0,0,0,0,0,0,0,0,0,-1,1791,1149,0,0
574,-125,0,0,0,0,0,0,0,0,0,-1,1798,1149,0,0
581,-125,0,0,0,0,0,0,0,0,0,-1,1805,1149,0,0
588,-125,0,0,0,0,0,0,0,0,0,-1,1812,1149,0,0
595,-125,0,0,0,0,0,0,0,0,0,-1,1819,1149,0,0
602,-125,0,0,0,0,0,0,0,0,0,-1,1826,1149,0,0
609,-125,0,0,0,0,0,0,0,0,0,-1,1833,1149,0,0
616,-125,0,0,0,0,0,0,0,0,0,-1,1840,1149,0,0
623,-125,0,0,0,0,0,0,0,0,0,-1,1847,1149,0,0
630,-125,0,0,0,0,0,0,0,0,0,-1,1854,1149,0,0
637,-125,0,0,0,0,0,0,0,0,0,-1,1861,1149,0,0
644,-125,36.6635,2.63037,0.00979339,-0.00331467,-0.00464916,0.0112749,-0.00479619,-0.30849,0.00952665,0.043865,1868,1149,36.6634,-2.63036
651,-125,36.6793,2.50525,0.00655593,-0.00271069,-0.00312711,0.00751247,-0.00366722,-0.296847,0.00658063,0.0397533,1875,1149,36.6793,-2.50525
658,-125,36.5909,2.59546,0.00434029,-0.00220759,-0.0019059,0.00485464,-0.00272194,-0.263593,0.00443173,0.0385646,1882,1149,36.5909,-2.59543
665,-125,36.5513,2.65222,0.00267115,-0.00177067,-0.00088988,0.00284279,-0.00194232,-0.190548,0.00277894,0.0414881,1889,1149,36.5513,-2.65222
672,-125,36.5406,2.57068,0.00164274,-0.00147565,-0.000140036,0.00164902,-0.00148193,-0.0447863,0.00180851,0.0428493,1896,1149,36.5407,-2.57074
679,-125,36.5992,2.52454,0.000746179,-0.00117586,0.0003002,0.000791975,-0.00122165,0.151387,0.00117136,0.0375273,1903,1149,36.5992,-2.52456
686,-125,36.626,2.55859,0.000175738,-0.00106748,0.000512577,0.000359817,-0.00125156,0.34478,0.000976662,0.0345236,1910,1149,36.626,-2.55854
693,-125,36.6516,2.51648,-9.32581e-05,-0.0009034,0.000648942,0.00026666,-0.00126332,0.506386,0.000943741,0.0331332,1917,1149,36.6516,-2.51651
700,-125,36.7412,2.57581,-0.00050505,-0.000842924,0.000842862,0.000185638,-0.00153361,0.686493,0.00108957,0.0176022,1924,1149,36.7412,-2.57581
707,-125,36.9376,2.8634,0,0,0,0,0,0,0,-1,1931,1149,36.9376,-2.86342
714,-125,33.6024,6.18616,0,0,0,0,0,0,0,-1,1938,1149,33.6024,-6.18615
721,-125,33.5917,5.92273,-0.00115892,-0.000222905,0.00101042,0.00042263,-0.00180445,1.00228,0.00136582,0.0240339,1945,1149,33.5916,-5.92271
728,-125,33.5918,5.69202,-0.00126047,5.19011e-06,0.00104996,0.000598284,-0.00185356,1.05661,0.00147612,0.0185758,1952,1149,33.5918,-5.69197
735,-125,33.5756,5.45154,-0.0015296,0.000322131,0.00115914,0.000879789,-0.00208725,1.12239,0.00175967,0.0204709,1959,1149,33.5756,-5.45153
742,-125,33.6204,5.17065,-0.00194087,0.000814553,0.00131231,0.00133954,-0.00246586,1.19025,0.00222889,0.0247456,1966,1149,33.6203,-5.17063
749,-125,33.6041,4.95947,-0.00238935,0.00134596,0.00170379,0.00200636,-0.00304974,1.20102,0.00293979,0.0272532,1973,1149,33.6041,-4.95947
756,-125,33.5851,4.70166,-0.00257111,0.00189979,0.00208336,0.00272009,-0.00339141,1.1957,0.00353557,0.0215751,1980,1149,33.5851,-4.7016
763,-125,33.5724,4.43298,-0.0025204,0.00248811,0.00253628,0.00354812,-0.00358041,1.17492,0.00411568,0.0115513,1987,1149,33.5724,-4.43298
770,-125,33.5311,4.20679,-0.0025167,0.00293189,0.00304915,0.00429649,-0.0038813,1.14999,0.00472348,0.0147436,1994,1149,33.5312,-4.20677
777,-125,33.4785,4.04053,-0.00247122,0.00309461,0.00355574,0.00482699,-0.0042036,1.11744,0.00521795,0.0268901,2001,1149,33.4786,-4.0405
784,-125,33.5067,3.85059,-0.00240482,0.00280676,0.00404422,0.00501199,-0.00461004,1.07159,0.0055569,0.044527,2008,1149,33.5067,-3.85059
791,-125,33.5564,3.65808,0,0,0,0,0,0,0,-1,2015,1149,33.5564,-3.65807
798,-125,31.2998,5.5686,0,0,0,0,0,0,0,-1,2022,1149,31.2997,-5.56859
805,-125,34.1599,4.07874,0,0,0,0,0,0,0,-1,2029,1149,34.16,-4.0787
812,-125,34.2925,3.58679,0,0,0,0,0,0,0,-1,2036,1149,34.2924,-3.58681
-700,-132,0,0,0,0,0,0,0,0,0,-1,524,1156,0,0
-693,-132,-22.941,-6.27258,0,0,0,0,0,0,0,-1,531,1156,-22.941,6.27258
-686,-132,-23.6333,-5.10571,0,0,0,0,0,0,0,-1,538,1156,-23.6333,5.10574
-679,-132,-23.354,0.500244,0,0,0,0,0,0,0,-1,545,1156,-23.354,-0.500237
-672,-132,-23.2745,0.713501,0.00251953,0.0221887,0.0235736,0.0378969,-0.0131887,0.983015,0.0306227,0.0466454,552,1156,-23.2746,-0.713541
-665,-132,-23.4699,1.15271,0.00288115,0.0165487,0.0161474,0.0272489,-0.00781899,0.985577,0.0212571,0.0434581,559,1156,-23.4699,-1.1527
-658,-132,-23.4548,1.0675,0.00244622,0.0124151,0.0105585,0.0191066,-0.00424528,1.00593,0.0143635,0.0426938,566,1156,-23.4548,-1.06747
-651,-132,-22.968,1.12476,0,0,0,0,0,0,0,-1,573,1156,-22.968,-1.12471
-644,-132,-23.0219,1.22876,0.000636781,0.00699418,0.00346316,0.00851628,-0.000885326,1.1567,0.00599446,0.0228634,580,1156,-23.0219,-1.22877
-637,-132,-23.0368,1.49414,0.00010618,0.00347657,0.00143556,0.00400513,-0.000422379,1.21801,0.00282144,0.0119069,587,1156,-23.0368,-1.49411
-630,-132,-23.0425,1.77905,-0.000314819,0.00267206,-0.000110587,0.00267615,-0.000318908,-1.53384,0.00189935,0.0102132,594,1156,-23.0425,-1.779
-623,-132,-23.0616,2.08972,-0.000496994,0.00169651,-0.00118908,0.00221741,-0.00101789,-1.15791,0.00191021,0.0149579,601,1156,-23.0616,-2.08969
-616,-132,-23.0953,2.37354,-0.000246625,0.000972644,-0.00104337,0.00157143,-0.000845408,-1.04979,0.00141619,0.0216569,608,1156,-23.0954,-2.37349
-609,-132,-22.9778,2.62097,3.97606e-05,-8.96027e-06,-0.000235743,0.000252398,-0.000221598,-0.733914,0.000273854,0.0247454,615,1156,-22.9778,-2.62098
-602,-132,-23.1164,2.86804,7.48076e-05,-0.000393084,0.000514741,0.000406272,-0.000724548,0.572106,0.000661443,0.0232837,622,1156,-23.1164,-2.86803
-595,-132,-23.1889,3.19177,0.000256253,-0.000453323,0.000667494,0.00065739,-0.00085446,0.541125,0.000875335,0.0310414,629,1156,-23.1889,-3.19173
-588,-132,-23.0439,3.60913,0.000461415,-0.000450196,0.000753779,0.000886485,-0.000875266,0.513466,0.00101715,0.0271897,636,1156,-23.0439,-3.60909
-581,-132,-22.7386,4.10425,0,0,0,0,0,0,0,-1,643,1156,-22.7386,-4.10422
-574,-132,-26.4,0.62793,0,0,0,0,0,0,0,-1,650,1156,-26.4001,-0.627915
-567,-132,-26.5425,0.610229,0.000829963,-0.000750736,0.00203079,0.00221878,-0.00213955,0.599824,0.00251642,0.0472767,657,1156,-26.5425,-0.610205
-560,-132,-26.5956,0.689209,0.000895291,-0.000712804,0.00235481,0.00257954,-0.00239705,0.62088,0.00287388,0.0354319,664,1156,-26.5956,-0.68925
-553,-132,-26.7232,0.92395,0.000818488,-0.000693701,0.00258859,0.00275915,-0.00263436,0.643307,0.00311422,0.0392168,671,1156,-26.7232,-0.924008
-546,-132,-26.6699,0.859497,0.000688512,-0.000863504,0.00263076,0.00265533,-0.00283032,0.641978,0.00316768,0.0409886,678,1156,-26.6699,-0.859439
-539,-132,-26.48,0.614136,0.000515746,-0.00163332,0.00254396,0.00220279,-0.00332037,0.585571,0.00321049,0.0412387,685,1156,-26.48,-0.614143
-532,-132,-26.3351,0.549561,0.00119187,-0.00303906,0.00275063,0.00254644,-0.00439363,0.457596,0.00405388,0.041195,692,1156,-26.3352,-0.549507
-525,-132,-26.3401,0.617432,0.0018399,-0.00462496,0.00315991,0.00312783,-0.00591289,0.387027,0.00530157,0.0415029,699,1156,-26.3401,-0.617432
-518,-132,0,0,0,0,0,0,0,0,0,-1,706,1156,0,0
-511,-132,0,0,0,0,0,0,0,0,0,-1,713,1156,0,0
-504,-132,0,0,0,0,0,0,0,0,0,-1,720,1156,0,0
-497,-132,0,0,0,0,0,0,0,0,0,-1,727,1156,0,0
-490,-132,0,0,0,0,0,0,0,0,0,-1,734,1156,0,0
-483,-132,0,0,0,0,0,0,0,0,0,-1,741,1156,0,0
-476,-132,0,0,0,0,0,0,0,0,0,-1,748,1156,0,0
-469,-132,0,0,0,0,0,0,0,0,0,-1,755,1156,0,0
-462,-132,0,0,0,0,0,0,0,0,0,-1,762,1156,0,0
-455,-132,0,0,0,0,0,0,0,0,0,-1,769,1156,0,0
-448,-132,0,0,0,0,0,0,0,0,0,-1,776,1156,0,0
-441,-132,0,0,0,0,0,0,0,0,0,-1,783,1156,0,0
-434,-132,0,0,0,0,0,0,0,0,0,-1,790,1156,0,0
-427,-132,0,0,0,0,0,0,0,0,0,-1,797,1156,0,0
-420,-132,0,0,0,0,0,0,0,0,0,-1,804,1156,0,0
-413,-132,0,0,0,0,0,0,0,0,0,-1,811,1156,0,0
-406,-132,0,0,0,0,0,0,0,0,0,-1,818,1156,0,0
-399,-132,0,0,0,0,0,0,0,0,0,-1,825,1156,0,0
-392,-132,0,0,0,0,0,0,0,0,0,-1,832,1156,0,0
-385,-132,0,0,0,0,0,0,0,0,0,-1,839,1156,0,0
-378,-132,0,0,0,0,0,0,0,0,0,-1,846,1156,0,0
-371,-132,0,0,0,0,0,0,0,0,0,-1,853,1156,0,0
-364,-132,0,0,0,0,0,0,0,0,0,-1,860,1156,0,0
-357,-132,0,0,0,0,0,0,0,0,0,-1,867,1156,0,0
-350,-132,0,0,0,0,0,0,0,0,0,-1,874,1156,0,0
-343,-132,0,0,0,0,0,0,0,0,0,-1,881,1156,0,0
-336,-132,0,0,0,0,0,0,0,0,0,-1,888,1156,0,0
-329,-132,0,0,0,0,0,0,0,0,0,-1,895,1156,0,0
-322,-132,0,0,0,0,0,0,0,0,0,-1,902,1156,0,0
-315,-132,0,0,0,0,0,0,0,0,0,-1,909,1156,0,0
-308,-132,0,0,0,0,0,0,0,0,0,-1,916,1156,0,0
-301,-132,0,0,0,0,0,0,0,0,0,-1,923,1156,0,0
-294,-132,0,0,0,0,0,0,0,0,0,-1,930,1156,0,0
-287,-132,0,0,0,0,0,0,0,0,0,-1,937,1156,0,0
-280,-132,0,0,0,0,0,0,0,0,0,-1,944,1156,0,0
-273,-132,0,0,0,0,0,0,0,0,0,-1,951,1156,0,0
-266,-132,0,0,0,0,0,0,0,0,0,-1,958,1156,0,0
-259,-132,0,0,0,0,0,0,0,0,0,-1,965,1156,0,0
-252,-132,0,0,0,0,0,0,0,0,0,-1,972,1156,0,0
-245,-132,0,0,0,0,0,0,0,0,0,-1,979,1156,0,0
-238,-132,0,0,0,0,0,0,0,0,0,-1,986,1156,0,0
-231,-132,0,0,0,0,0,0,0,0,0,-1,993,1156,0,0
-224,-132,0,0,0,0,0,0,0,0,0,-1,1000,1156,0,0
-217,-132,0,0,0,0,0,0,0,0,0,-1,1007,1156,0,0
-210,-132,0,0,0,0,0,0,0,0,0,-1,1014,1156,0,0
-203,-132,0,0,0,0,0,0,0,0,0,-1,1021,1156,0,0
-196,-132,0,0,0,0,0,0,0,0,0,-1,1028,1156,0,0
-189,-132,0,0,0,0,0,0,0,0,0,-1,1035,1156,0,0
-182,-132,0,0,0,0,0,0,0,0,0,-1,1042,1156,0,0
-175,-132,0,0,0,0,0,0,0,0,0,-1,1049,1156,0,0
-168,-132,0,0,0,0,0,0,0,0,0,-1,1056,1156,0,0
-161,-132,0,0,0,0,0,0,0,0,0,-1,1063,1156,0,0
-154,-132,0,0,0,0,0,0,0,0,0,-1,1070,1156,0,0
-147,-132,0,0,0,0,0,0,0,0,0,-1,1077,1156,0,0
-140,-132,0,0,0,0,0,0,0,0,0,-1,1084,1156,0,0
-133,-132,0,0,0,0,0,0,0,0,0,-1,1091,1156,0,0
-126,-132,0,0,0,0,0,0,0,0,0,-1,1098,1156,0,0
-119,-132,0,0,0,0,0,0,0,0,0,-1,1105,1156,0,0
-112,-132,0,0,0,0,0,0,0,0,0,-1,1112,1156,0,0
-105,-132,0,0,0,0,0,0,0,0,0,-1,1119,1156,0,0
-98,-132,0,0,0,0,0,0,0,0,0,-1,1126,1156,0,0
-91,-132,0,0,0,0,0,0,0,0,0,-1,1133,1156,0,0
-84,-132,0,0,0,0,0,0,0,0,0,-1,1140,1156,0,0
-77,-132,0,0,0,0,0,0,0,0,0,-1,1147,1156,0,0
-70,-132,0,0,0,0,0,0,0,0,0,-1,1154,1156,0,0
-63,-132,0,0,0,0,0,0,0,0,0,-1,1161,1156,0,0
-56,-132,0,0,0,0,0,0,0,0,0,-1,1168,1156,0,0
-49,-132,0,0,0,0,0,0,0,0,0,-1,1175,1156,0,0
-42,-132,0,0,0,0,0,0,0,0,0,-1,1182,1156,0,0
-35,-132,0,0,0,0,0,0,0,0,0,-1,1189,1156,0,0
-28,-132,0,0,0,0,0,0,0,0,0,-1,1196,1156,0,0
-21,-132,0,0,0,0,0,0,0,0,0,-1,1203,1156,0,0
-14,-132,0,0,0,0,0,0,0,0,0,-1,1210,1156,0,0
-7,-132,0,0,0,0,0,0,0,0,0,-1,1217,1156,0,0
0,-132,0,0,0,0,0,0,0,0,0,-1,1224,1156,0,0
7,-132,0,0,0,0,0,0,0,0,0,-1,1231,1156,0,0
14,-132,0,0,0,0,0,0,0,0,0,-1,1238,1156,0,0
21,-132,0,0,0,0,0,0,0,0,0,-1,1245,1156,0,0
28,-132,0,0,0,0,0,0,0,0,0,-1,1252,1156,0,0
35,-132,0,0,0,0,0,0,0,0,0,-1,1259,1156,0,0
42,-132,0,0,0,0,0,0,0,0,0,-1,1266,1156,0,0
49,-132,0,0,0,0,0,0,0,0,0,-1,1273,1156,0,0
56,-132,0,0,0,0,0,0,0,0,0,-1,1280,1156,0,0
63,-132,0,0,0,0,0,0,0,0,0,-1,1287,1156,0,0
70,-132,0,0,0,0,0,0,0,0,0,-1,1294,1156,0,0
77,-132,0,0,0,0,0,0,0,0,0,-1,1301,1156,0,0
84,-132,0,0,0,0,0,0,0,0,0,-1,1308,1156,0,0
91,-132,0,0,0,0,0,0,0,0,0,-1,1315,1156,0,0
98,-132,0,0,0,0,0,0,0,0,0,-1,1322,1156,0,0
105,-132,0,0,0,0,0,0,0,0,0,-1,1329,1156,0,0
112,-132,0,0,0,0,0,0,0,0,0,-1,1336,1156,0,0
119,-132,0,0,0,0,0,0,0,0,0,-1,1343,1156,0,0
126,-132,0,0,0,0,0,0,0,0,0,-1,1350,1156,0,0
133,-132,0,0,0,0,0,0,0,0,0,-1,1357,1156,0,0
140,-132,0,0,0,0,0,0,0,0,0,-1,1364,1156,0,0
147,-132,0,0,0,0,0,0,0,0,0,-1,1371,1156,0,0
154,-132,0,0,0,0,0,0,0,0,0,-1,1378,1156,0,0
161,-132,0,0,0,0,0,0,0,0,0,-1,1385,1156,0,0
168,-132,0,0,0,0,0,0,0,0,0,-1,1392,1156,0,0
175,-132,0,0,0,0,0,0,0,0,0,-1,1399,1156,0,0
182,-132,0,0,0,0,0,0,0,0,0,-1,1406,1156,0,0
189,-132,0,0,0,0,0,0,0,0,0,-1,1413,1156,0,0
196,-132,0,0,0,0,0,0,0,0,0,-1,1420,1156,0,0
203,-132,0,0,0,0,0,0,0,0,0,-1,1427,1156,0,0
210,-132,0,0,0,0,0,0,0,0,0,-1,1434,1156,0,0
217,-132,0,0,0,0,0,0,0,0,0,-1,1441,1156,0,0
224,-132,0,0,0,0,0,0,0,0,0,-1,1448,1156,0,0
231,-132,0,0,0,0,0,0,0,0,0,-1,1455,1156,0,0
238,-132,0,0,0,0,0,0,0,0,0,-1,1462,1156,0,0
245,-132,0,0,0,0,0,0,0,0,0,-1,1469,1156,0,0
252,-132,0,0,0,0,0,0,0,0,0,-1,1476,1156,0,0
259,-132,0,0,0,0,0,0,0,0,0,-1,1483,1156,0,0
266,-132,0,0,0,0,0,0,0,0,0,-1,1490,1156,0,0
273,-132,0,0,0,0,0,0,0,0,0,-1,1497,1156,0,0
280,-132,0,0,0,0,0,0,0,0,0,-1,1504,1156,0,0
287,-132,0,0,0,0,0,0,0,0,0,-1,1511,1156,0,0
294,-132,0,0,0,0,0,0,0,0,0,-1,1518,1156,0,0
301,-132,0,0,0,0,0,0,0,0,0,-1,1525,1156,0,0
308,-132,0,0,0,0,0,0,0,0,0,-1,1532,1156,0,0
315,-132,0,0,0,0,0,0,0,0,0,-1,1539,1156,0,0
322,-132,0,0,0,0,0,0,0,0,0,-1,1546,1156,0,0
329,-132,0,0,0,0,0,0,0,0,0,-1,1553,1156,0,0
336,-132,0,0,0,0,0,0,0,0,0,-1,1560,1156,0,0
343,-132,0,0,0,0,0,0,0,0,0,-1,1567,1156,0,0
350,-132,0,0,0,0,0,0,0,0,0,-1,1574,1156,0,0
357,-132,0,0,0,0,0,0,0,0,0,-1,1581,1156,0,0
364,-132,0,0,0,0,0,0,0,0,0,-1,1588,1156,0,0
371,-132,0,0,0,0,0,0,0,0,0,-1,1595,1156,0,0
378,-132,0,0,0,0,0,0,0,0,0,-1,1602,1156,0,0
385,-132,0,0,0,0,0,0,0,0,0,-1,1609,1156,0,0
392,-132,0,0,0,0,0,0,0,0,0,-1,1616,1156,0,0
399,-132,0,0,0,0,0,0,0,0,0,-1,1623,1156,0,0
406,-132,0,0,0,0,0,0,0,0,0,-1,1630,1156,0,0
413,-132,0,0,0,0,0,0,0,0,0,-1,1637,1156,0,0
420,-132,0,0,0,0,0,0,0,0,0,-1,1644,1156,0,0
427,-132,0,0,0,0,0,0,0,0,0,-1,1651,1156,0,0
434,-132,0,0,0,0,0,0,0,0,0,-1,1658,1156,0,0
441,-132,0,0,0,0,0,0,0,0,0,-1,1665,1156,0,0
448,-132,0,0,0,0,0,0,0,0,0,-1,1672,1156,0,0
455,-132,0,0,0,0,0,0,0,0,0,-1,1679,1156,0,0
462,-132,0,0,0,0,0,0,0,0,0,-1,1686,1156,0,0
469,-132,0,0,0,0,0,0,0,0,0,-1,1693,1156,0,0
476,-132,0,0,0,0,0,0,0,0,0,-1,1700,1156,0,0
483,-132,0,0,0,0,0,0,0,0,0,-1,1707,1156,0,0
490,-132,0,0,0,0,0,0,0,0,0,-1,1714,1156,0,0
497,-132,0,0,0,0,0,0,0,0,0,-1,1721,1156,0,0
504,-132,0,0,0,0,0,0,0,0,0,-1,1728,1156,0,0
511,-132,0,0,0,0,0,0,0,0,0,-1,1735,1156,0,0
518,-132,0,0,0,0,0,0,0,0,0,-1,1742,1156,0,0
525,-132,0,0,0,0,0,0,0,0,0,-1,1749,1156,0,0
532,-132,0,0,0,0,0,0,0,0,0,-1,1756,1156,0,0
539,-132,0,0,0,0,0,0,0,0,0,-1,1763,1156,0,0
546,-132,0,0,0,0,0,0,0,0,0,-1,1770,1156,0,0
553,-132,0,0,0,0,0,0,0,0,0,-1,1777,1156,0,0
560,-132,0,0,0,0,0,0,0,0,0,-1,1784,1156,0,0
567,-132,0,0,0,0,0,0,0,0,0,-1,1791,1156,0,0
574,-132,0,0,0,0,0,0,0,0,0,-1,1798,1156,0,0
581,-132,0,0,0,0,0,0,0,0,0,-1,1805,1156,0,0
588,-132,0,0,0,0,0,0,0,0,0,-1,1812,1156,0,0
595,-132,0,0,0,0,0,0,0,0,0,-1,1819,1156,0,0
602,-132,0,0,0,0,0,0,0,0,0,-1,1826,1156,0,0
609,-132,0,0,0,0,0,0,0,0,0,-1,1833,1156,0,0
616,-132,0,0,0,0,0,0,0,0,0,-1,1840,1156,0,0
623,-132,0,0,0,0,0,0,0,0,0,-1,1847,1156,0,0
630,-132,0,0,0,0,0,0,0,0,0,-1,1854,1156,0,0
637,-132,0,0,0,0,0,0,0,0,0,-1,1861,1156,0,0
644,-132,36.8304,2.5033,0.00853139,-0.0021542,-0.00446803,0.0101534,-0.00377623,-0.348235,0.00831848,0.043755,1868,1156,36.8305,-2.50326
651,-132,36.7313,2.4425,0.00565193,-0.00179697,-0.00295149,0.00667962,-0.00282465,-0.335064,0.00563574,0.0382416,1875,1156,36.7314,-2.44255
658,-132,36.5465,2.51343,0.00367376,-0.00148358,-0.00173297,0.00420197,-0.00201179,-0.295857,0.00366105,0.0378645,1882,1156,36.5465,-2.51341
665,-132,36.5443,2.55188,0.00221028,-0.00118928,-0.0007419,0.00236514,-0.00134413,-0.205772,0.00216842,0.0396467,1889,1156,36.5443,-2.55187
672,-132,36.5892,2.55164,0.00132301,-0.0010279,-3.68077e-05,0.00132359,-0.00102848,-0.0156516,0.00136152,0.0374305,1896,1156,36.5892,-2.55158
679,-132,36.6659,2.59937,0.000486649,-0.000772334,0.000342442,0.000573764,-0.000859449,0.249112,0.000832928,0.0362484,1903,1156,36.6659,-2.59936
686,-132,36.7211,2.65454,-6.30424e-05,-0.000725351,0.000515676,0.000218653,-0.00100705,0.499971,0.000754879,0.0348731,1910,1156,36.7211,-2.65454
693,-132,36.6741,2.58118,-0.000370613,-0.000600951,0.000641011,0.000165493,-0.00113706,0.696513,0.000818796,0.030122,1917,1156,36.674,-2.58124
700,-132,36.7196,2.54602,-0.000772251,-0.000561496,0.000843044,0.000182731,-0.00151648,0.847574,0.00107707,0.0367104,1924,1156,36.7196,-2.54607
707,-132,36.7999,2.56714,0,0,0,0,0,0,0,-1,1931,1156,36.7999,-2.56711
714,-132,33.2096,6.18237,0,0,0,0,0,0,0,-1,1938,1156,33.2096,-6.18236
721,-132,33.3057,5.93359,-0.00139724,-1.63079e-05,0.000940774,0.000460188,-0.00187373,1.10197,0.0014275,0.0307249,1945,1156,33.3057,-5.93355
728,-132,33.3304,5.69385,-0.0014759,0.000198469,0.000966987,0.000640323,-0.00191776,1.14219,0.00153707,0.020685,1952,1156,33.3305,-5.6938
735,-132,33.2917,5.47485,-0.00173493,0.0005034,0.00102291,0.000900437,-0.00213196,1.20055,0.00179824,0.022003,1959,1156,33.2917,-5.47486
742,-132,33.3109,5.17395,-0.00209954,0.000991773,0.00112569,0.00135825,-0.00246602,1.25606,0.0022386,0.0209738,1966,1156,33.3109,-5.17395
749,-132,33.3478,4.95239,-0.00251216,0.00148609,0.00149836,0.00198528,-0.00301135,1.2492,0.00290501,0.0254341,1973,1156,33.3478,-4.95242
756,-132,33.3385,4.71948,-0.00277313,0.00192016,0.00189502,0.00258977,-0.00344275,1.23113,0.00349446,0.0213649,1980,1156,33.3385,-4.71947
763,-132,33.3104,4.45215,-0.00289339,0.00237269,0.00238297,0.0032909,-0.00381161,1.203,0.00410431,0.0129499,1987,1156,33.3105,-4.4521
770,-132,33.2782,4.21008,-0.00319323,0.00258092,0.00295771,0.00382703,-0.00443934,1.17205,0.00477696,0.0139999,1994,1156,33.2782,-4.2101
777,-132,33.23,3.9541,-0.00360636,0.00242499,0.00358149,0.00409134,-0.00527271,1.13532,0.00542066,0.0224518,2001,1156,33.23,-3.95406
784,-132,33.2231,3.74023,-0.00421978,0.00165491,0.00427502,0.00390445,-0.00646932,1.0864,0.00605001,0.0421536,2008,1156,33.2231,-3.74018
791,-132,33.1987,3.65601,-0.0050062,-7.79968e-05,0.00501198,0.00304286,-0.00812706,1.01387,0.00666792,0.0490254,2015,1156,33.1988,-3.65595
798,-132,32.9675,3.45215,0,0,0,0,0,0,0,-1,2022,1156,32.9676,-3.45209
805,-132,32.3442,3.72253,0,0,0,0,0,0,0,-1,2029,1156,32.3442,-3.7225
812,-132,30.3906,4.97888,0,0,0,0,0,0,0,-1,2036,1156,30.3906,-4.97882
-700,-139,0,0,0,0,0,0,0,0,0,-1,524,1163,0,0
-693,-139,-18.1703,-0.545288,0,0,0,0,0,0,0,-1,531,1163,-18.1703,0.545308
-686,-139,-18.8467,-0.232056,0,0,0,0,0,0,0,-1,538,1163,-18.8468,0.232008
-679,-139,-22.4431,-0.00427246,0,0,0,0,0,0,0,-1,545,1163,-22.4431,0.00427432
-672,-139,-22.4664,0.261108,-0.00284021,0.0226896,0.0339838,0.0462268,-0.0263774,0.965054,0.042437,0.0466493,552,1163,-22.4664,-0.261169
-665,-139,-22.7371,0.729858,-0.000934787,0.018364,0.0235497,0.0341645,-0.0167353,0.979838,0.0299558,0.0426902,559,1163,-22.7372,-0.729827
-658,-139,-22.6022,0.969482,-0.000171959,0.0148426,0.0156129,0.0246593,-0.00998867,1.0095,0.0205931,0.0445292,566,1163,-22.6022,-0.969429
-651,-139,-22.577,1.09058,-0.000135435,0.0118711,0.00966067,0.0172418,-0.00550616,1.06341,0.0137038,0.0425053,573,1163,-22.577,-1.0906
-644,-139,-22.6901,1.17969,-0.000481637,0.00929977,0.00543117,0.0117177,-0.0028996,1.15194,0.00893656,0.0228543,580,1163,-22.6901,-1.17968
-637,-139,-22.704,1.46423,-0.000478606,0.00657323,0.00204899,0.00712536,-0.00103073,1.30758,0.00512846,0.0127731,587,1163,-22.7039,-1.46425
-630,-139,-22.7204,1.76184,-0.000619848,0.0046278,2.55069e-05,0.00462792,-0.000619972,1.56594,0.00331134,0.0109246,594,1163,-22.7204,-1.76179
-623,-139,-22.7525,2.07776,-0.000884733,0.00280238,-0.00110084,0.00310605,-0.0011884,-1.30164,0.00256047,0.0161622,601,1163,-22.7525,-2.07778
-616,-139,-22.746,2.35681,-0.000717788,0.00154398,-0.000999819,0.00192258,-0.00109639,-1.20881,0.00176462,0.0174521,608,1163,-22.7461,-2.35684
-609,-139,-22.6162,2.66663,-0.000533927,0.000372108,-0.000229661,0.000426997,-0.000588816,-1.3362,0.000588955,0.0313865,615,1163,-22.6162,-2.66657
-602,-139,-22.798,2.97034,-0.000578047,-2.53009e-05,0.000518748,0.000286102,-0.000889451,1.03016,0.000707877,0.0275355,622,1163,-22.798,-2.97033
-595,-139,-22.9152,3.23462,-0.000496452,-1.6389e-07,0.00075222,0.000543785,-0.0010404,0.944719,0.000929489,0.0291899,629,1163,-22.9152,-3.23464
-588,-139,-23.028,3.48328,0,0,0,0,0,0,0,-1,636,1163,-23.028,-3.48332
-581,-139,-24.3266,2.91687,0,0,0,0,0,0,0,-1,643,1163,-24.3266,-2.91685
-574,-139,-23.0725,2.4043,0,0,0,0,0,0,0,-1,650,1163,-23.0725,-2.40433
-567,-139,-26.5099,0.525513,0,0,0,0,0,0,0,-1,657,1163,-26.51,-0.525502
-560,-139,-26.6323,0.806519,0.000462355,-0.000333729,0.00272821,0.0028214,-0.00269278,0.71296,0.0031839,0.0347423,664,1163,-26.6323,-0.80657
-553,-139,-26.7194,1.17627,0.000622339,-0.000372218,0.00306157,0.00322675,-0.00297663,0.704888,0.0035825,0.0397718,671,1163,-26.7194,-1.17625
-546,-139,-26.8154,1.55029,0,0,0,0,0,0,0,-1,678,1163,-26.8154,-1.55024
-539,-139,-26.543,0.687012,0.00133483,-0.00167987,0.003235,0.00339642,-0.00374146,0.567379,0.00412266,0.0400649,685,1163,-26.543,-0.686974
-532,-139,-26.3967,0.540405,0.00260006,-0.00344801,0.00341769,0.00413951,-0.00498746,0.423216,0.00527703,0.0410163,692,1163,-26.3966,-0.540364
-525,-139,-26.3268,0.478271,0.00404934,-0.00549111,0.00375487,0.00534988,-0.00679164,0.333427,0.00702636,0.0413428,699,1163,-26.3268,-0.478211
-518,-139,0,0,0,0,0,0,0,0,0,-1,706,1163,0,0
-511,-139,0,0,0,0,0,0,0,0,0,-1,713,1163,0,0
-504,-139,0,0,0,0,0,0,0,0,0,-1,720,1163,0,0
-497,-139,0,0,0,0,0,0,0,0,0,-1,727,1163,0,0
-490,-139,0,0,0,0,0,0,0,0,0,-1,734,1163,0,0
-483,-139,0,0,0,0,0,0,0,0,0,-1,741,1163,0,0
-476,-139,0,0,0,0,0,0,0,0,0,-1,748,1163,0,0
-469,-139,0,0,0,0,0,0,0,0,0,-1,755,1163,0,0
-462,-139,0,0,0,0,0,0,0,0,0,-1,762,1163,0,0
-455,-139,0,0,0,0,0,0,0,0,0,-1,769,1163,0,0
-448,-139,0,0,0,0,0,0,0,0,0,-1,776,1163,0,0
-441,-139,0,0,0,0,0,0,0,0,0,-1,783,1163,0,0
-434,-139,0,0,0,0,0,0,0,0,0,-1,790,1163,0,0
-427,-139,0,0,0,0,0,0,0,0,0,-1,797,1163,0,0
-420,-139,0,0,0,0,0,0,0,0,0,-1,804,1163,0,0
-413,-139,0,0,0,0,0,0,0,0,0,-1,811,1163,0,0
-406,-139,0,0,0,0,0,0,0,0,0,-1,818,1163,0,0
-399,-139,0,0,0,0,0,0,0,0,0,-1,825,1163,0,0
-392,-139,0,0,0,0,0,0,0,0,0,-1,832,1163,0,0
-385,-139,0,0,0,0,0,0,0,0,0,-1,839,1163,0,0
-378,-139,0,0,0,0,0,0,0,0,0,-1,846,1163,0,0
-371,-139,0,0,0,0,0,0,0,0,0,-1,853,1163,0,0
-364,-139,0,0,0,0,0,0,0,0,0,-1,860,1163,0,0
-357,-139,0,0,0,0,0,0,0,0,0,-1,867,1163,0,0
-350,-139,0,0,0,0,0,0,0,0,0,-1,874,1163,0,0
-343,-139,0,0,0,0,0,0,0,0,0,-1,881,1163,0,0
-336,-139,0,0,0,0,0,0,0,0,0,-1,888,1163,0,0
-329,-139,0,0,0,0,0,0,0,0,0,-1,895,1163,0,0
-322,-139,0,0,0,0,0,0,0,0,0,-1,902,1163,0,0
-315,-139,0,0,0,0,0,0,0,0,0,-1,909,1163,0,0
-308,-139,0,0,0,0,0,0,0,0,0,-1,916,1163,0,0
-301,-139,0,0,0,0,0,0,0,0,0,-1,923,1163,0,0
-294,-139,0,0,0,0,0,0,0,0,0,-1,930,1163,0,0
-287,-139,0,0,0,0,0,0,0,0,0,-1,937,1163,0,0
-280,-139,0,0,0,0,0,0,0,0,0,-1,944,1163,0,0
-273,-139,0,0,0,0,0,0,0,0,0,-1,951,1163,0,0
-266,-139,0,0,0,0,0,0,0,0,0,-1,958,1163,0,0
-259,-139,0,0,0,0,0,0,0,0,0,-1,965,1163,0,0
-252,-139,0,0,0,0,0,0,0,0,0,-1,972,1163,0,0
-245,-139,0,0,0,0,0,0,0,0,0,-1,979,1163,0,0
-238,-139,0,0,0,0,0,0,0,0,0,-1,986,1163,0,0
-231,-139,0,0,0,0,0,0,0,0,0,-1,993,1163,0,0
-224,-139,0,0,0,0,0,0,0,0,0,-1,1000,1163,0,0
-217,-139,0,0,0,0,0,0,0,0,0,-1,1007,1163,0,0
-210,-139,0,0,0,0,0,0,0,0,0,-1,1014,1163,0,0
-203,-139,0,0,0,0,0,0,0,0,0,-1,1021,1163,0,0
-196,-139,0,0,0,0,0,0,0,0,0,-1,1028,1163,0,0
-189,-139,0,0,0,0,0,0,0,0,0,-1,1035,1163,0,0
-182,-139,0,0,0,0,0,0,0,0,0,-1,1042,1163,0,0
-175,-139,0,0,0,0,0,0,0,0,0,-1,1049,1163,0,0
-168,-139,0,0,0,0,0,0,0,0,0,-1,1056,1163,0,0
-161,-139,0,0,0,0,0,0,0,0,0,-1,1063,1163,0,0
-154,-139,0,0,0,0,0,0,0,0,0,-1,1070,1163,0,0
-147,-139,0,0,0,0,0,0,0,0,0,-1,1077,1163,0,0
-140,-139,0,0,0,0,0,0,0,0,0,-1,1084,1163,0,0
-133,-139,0,0,0,0,0,0,0,0,0,-1,1091,1163,0,0
-126,-139,0,0,0,0,0,0,0,0,0,-1,1098,1163,0,0
-119,-139,0,0,0,0,0,0,0,0,0,-1,1105,1163,0,0
-112,-139,0,0,0,0,0,0,0,0,0,-1,1112,1163,0,0
-105,-139,0,0,0,0,0,0,0,0,0,-1,1119,1163,0,0
-98,-139,0,0,0,0,0,0,0,0,0,-1,1126,1163,0,0
-91,-139,0,0,0,0,0,0,0,0,0,-1,1133,1163,0,0
-84,-139,0,0,0,0,0,0,0,0,0,-1,1140,1163,0,0
-77,-139,0,0,0,0,0,0,0,0,0,-1,1147,1163,0,0
-70,-139,0,0,0,0,0,0,0,0,0,-1,1154,1163,0,0
-63,-139,0,0,0,0,0,0,0,0,0,-1,1161,1163,0,0
-56,-139,0,0,0,0,0,0,0,0,0,-1,1168,1163,0,0
-49,-139,0,0,0,0,0,0,0,0,0,-1,1175,1163,0,0
-42,-139,0,0,0,0,0,0,0,0,0,-1,1182,1163,0,0
-35,-139,0,0,0,0,0,0,0,0,0,-1,1189,1163,0,0
-28,-139,0,0,0,0,0,0,0,0,0,-1,1196,1163,0,0
-21,-139,0,0,0,0,0,0,0,0,0,-1,1203,1163,0,0
-14,-139,0,0,0,0,0,0,0,0,0,-1,1210,1163,0,0
-7,-139,0,0,0,0,0,0,0,0,0,-1,1217,1163,0,0
0,-139,0,0,0,0,0,0,0,0,0,-1,1224,1163,0,0
7,-139,0,0,0,0,0,0,0,0,0,-1,1231,1163,0,0
14,-139,0,0,0,0,0,0,0,0,0,-1,1238,1163,0,0
21,-139,0,0,0,0,0,0,0,0,0,-1,1245,1163,0,0
28,-139,0,0,0,0,0,0,0,0,0,-1,1252,1163,0,0
35,-139,0,0,0,0,0,0,0,0,0,-1,1259,1163,0,0
42,-139,0,0,0,0,0,0,0,0,0,-1,1266,1163,0,0
49,-139,0,0,0,0,0,0,0,0,0,-1,1273,1163,0,0
56,-139,0,0,0,0,0,0,0,0,0,-1,1280,1163,0,0
63,-139,0,0,0,0,0,0,0,0,0,-1,1287,1163,0,0
70,-139,0,0,0,0,0,0,0,0,0,-1,1294,1163,0,0
77,-139,0,0,0,0,0,0,0,0,0,-1,1301,1163,0,0
84,-139,0,0,0,0,0,0,0,0,0,-1,1308,1163,0,0
91,-139,0,0,0,0,0,0,0,0,0,-1,1315,1163,0,0
98,-139,0,0,0,0,0,0,0,0,0,-1,1322,1163,0,0
105,-139,0,0,0,0,0,0,0,0,0,-1,1329,1163,0,0
112,-139,0,0,0,0,0,0,0,0,0,-1,1336,1163,0,0
119,-139,0,0,0,0,0,0,0,0,0,-1,1343,1163,0,0
126,-139,0,0,0,0,0,0,0,0,0,-1,1350,1163,0,0
133,-139,0,0,0,0,0,0,0,0,0,-1,1357,1163,0,0
140,-139,0,0,0,0,0,0,0,0,0,-1,1364,1163,0,0
147,-139,0,0,0,0,0,0,0,0,0,-1,1371,1163,0,0
154,-139,0,0,0,0,0,0,0,0,0,-1,1378,1163,0,0
161,-139,0,0,0,0,0,0,0,0,0,-1,1385,1163,0,0
168,-139,0,0,0,0,0,0,0,0,0,-1,1392,1163,0,0
175,-139,0,0,0,0,0,0,0,0,0,-1,1399,1163,0,0
182,-139,0,0,0,0,0,0,0,0,0,-1,1406,1163,0,0
189,-139,0,0,0,0,0,0,0,0,0,-1,1413,1163,0,0
196,-139,0,0,0,0,0,0,0,0,0,-1,1420,1163,0,0
203,-139,0,0,0,0,0,0,0,0,0,-1,1427,1163,0,0
210,-139,0,0,0,0,0,0,0,0,0,-1,1434,1163,0,0
217,-139,0,0,0,0,0,0,0,0,0,-1,1441,1163,0,0
224,-139,0,0,0,0,0,0,0,0,0,-1,1448,1163,0,0
231,-139,0,0,0,0,0,0,0,0,0,-1,1455,1163,0,0
238,-139,0,0,0,0,0,0,0,0,0,-1,1462,1163,0,0
245,-139,0,0,0,0,0,0,0,0,0,-1,1469,1163,0,0
252,-139,0,0,0,0,0,0,0,0,0,-1,1476,1163,0,0
259,-139,0,0,0,0,0,0,0,0,0,-1,1483,1163,0,0
266,-139,0,0,0,0,0,0,0,0,0,-1,1490,1163,0,0
273,-139,0,0,0,0,0,0,0,0,0,-1,1497,1163,0,0
280,-139,0,0,0,0,0,0,0,0,0,-1,1504,1163,0,0
287,-139,0,0,0,0,0,0,0,0,0,-1,1511,1163,0,0
294,-139,0,0,0,0,0,0,0,0,0,-1,1518,1163,0,0
301,-139,0,0,0,0,0,0,0,0,0,-1,1525,1163,0,0
308,-139,0,0,0,0,0,0,0,0,0,-1,1532,1163,0,0
315,-139,0,0,0,0,0,0,0,0,0,-1,1539,1163,0,0
322,-139,0,0,0,0,0,0,0,0,0,-1,1546,1163,0,0
329,-139,0,0,0,0,0,0,0,0,0,-1,1553,1163,0,0
336,-139,0,0,0,0,0,0,0,0,0,-1,1560,1163,0,0
343,-139,0,0,0,0,0,0,0,0,0,-1,1567,1163,0,0
350,-139,0,0,0,0,0,0,0,0,0,-1,1574,1163,0,0
357,-139,0,0,0,0,0,0,0,0,0,-1,1581,1163,0,0
364,-139,0,0,0,0,0,0,0,0,0,-1,1588,1163,0,0
371,-139,0,0,0,0,0,0,0,0,0,-1,1595,1163,0,0
378,-139,0,0,0,0,0,0,0,0,0,-1,1602,1163,0,0
385,-139,0,0,0,0,0,0,0,0,0,-1,1609,1163,0,0
392,-139,0,0,0,0,0,0,0,0,0,-1,1616,1163,0,0
399,-139,0,0,0,0,0,0,0,0,0,-1,1623,1163,0,0
406,-139,0,0,0,0,0,0,0,0,0,-1,1630,1163,0,0
413,-139,0,0,0,0,0,0,0,0,0,-1,1637,1163,0,0
420,-139,0,0,0,0,0,0,0,0,0,-1,1644,1163,0,0
427,-139,0,0,0,0,0,0,0,0,0,-1,1651,1163,0,0
434,-139,0,0,0,0,0,0,0,0,0,-1,1658,1163,0,0
441,-139,0,0,0,0,0,0,0,0,0,-1,1665,1163,0,0
448,-139,0,0,0,0,0,0,0,0,0,-1,1672,1163,0,0
455,-139,0,0,0,0,0,0,0,0,0,-1,1679,1163,0,0
462,-139,0,0,0,0,0,0,0,0,0,-1,1686,1163,0,0
469,-139,0,0,0,0,0,0,0,0,0,-1,1693,1163,0,0
476,-139,0,0,0,0,0,0,0,0,0,-1,1700,1163,0,0
483,-139,0,0,0,0,0,0,0,0,0,-1,1707,1163,0,0
490,-139,0,0,0,0,0,0,0,0,0,-1,1714,1163,0,0
497,-139,0,0,0,0,0,0,0,0,0,-1,1721,1163,0,0
504,-139,0,0,0,0,0,0,0,0,0,-1,1728,1163,0,0
511,-139,0,0,0,0,0,0,0,0,0,-1,1735,1163,0,0
518,-139,0,0,0,0,0,0,0,0,0,-1,1742,1163,0,0
525,-139,0,0,0,0,0,0,0,0,0,-1,1749,1163,0,0
532,-139,0,0,0,0,0,0,0,0,0,-1,1756,1163,0,0
539,-139,0,0,0,0,0,0,0,0,0,-1,1763,1163,0,0
546,-139,0,0,0,0,0,0,0,0,0,-1,1770,1163,0,0
553,-139,0,0,0,0,0,0,0,0,0,-1,1777,1163,0,0
560,-139,0,0,0,0,0,0,0,0,0,-1,1784,1163,0,0
567,-139,0,0,0,0,0,0,0,0,0,-1,1791,1163,0,0
574,-139,0,0,0,0,0,0,0,0,0,-1,1798,1163,0,0
581,-139,0,0,0,0,0,0,0,0,0,-1,1805,1163,0,0
588,-139,0,0,0,0,0,0,0,0,0,-1,1812,1163,0,0
595,-139,0,0,0,0,0,0,0,0,0,-1,1819,1163,0,0
602,-139,0,0,0,0,0,0,0,0,0,-1,1826,1163,0,0
609,-139,0,0,0,0,0,0,0,0,0,-1,1833,1163,0,0
616,-139,0,0,0,0,0,0,0,0,0,-1,1840,1163,0,0
623,-139,0,0,0,0,0,0,0,0,0,-1,1847,1163,0,0
630,-139,0,0,0,0,0,0,0,0,0,-1,1854,1163,0,0
637,-139,0,0,0,0,0,0,0,0,0,-1,1861,1163,0,0
644,-139,36.7645,2.40649,0.00723164,-0.00129144,-0.00452948,0.00918918,-0.00324898,-0.407934,0.00744916,0.0401622,1868,1163,36.7646,-2.40644
651,-139,36.778,2.33813,0.00473628,-0.0010605,-0.00298099,0.00599565,-0.00231987,-0.399723,0.00495485,0.0369388,1875,1163,36.7779,-2.33813
658,-139,36.8317,2.3396,0.00301049,-0.000834953,-0.0017312,0.00367503,-0.00149949,-0.366515,0.00307427,0.0387677,1882,1163,36.8316,-2.33961
665,-139,36.7596,2.40601,0.00179264,-0.000652576,-0.000697749,0.00197773,-0.00083767,-0.2593,0.00166931,0.0385211,1889,1163,36.7597,-2.406
672,-139,36.7346,2.5437,0.00105753,-0.000641902,4.9558e-05,0.00105897,-0.000643346,0.0291285,0.00099255,0.0375482,1896,1163,36.7346,-2.54372
679,-139,36.7719,2.56348,0.000243872,-0.000482886,0.000471592,0.000475844,-0.000714859,0.45714,0.000692054,0.0353481,1903,1163,36.7719,-2.56353
686,-139,36.7178,2.62451,-0.0003188,-0.0005386,0.000684017,0.000264089,-0.00112149,0.705745,0.000849485,0.0334436,1910,1163,36.7178,-2.62445
693,-139,36.6735,2.55042,-0.000679409,-0.000481878,0.000843697,0.000268814,-0.0014301,0.843664,0.00105449,0.0235067,1917,1163,36.6734,-2.55044
700,-139,36.7476,2.53821,0,0,0,0,0,0,0,-1,1924,1163,36.7475,-2.53818
707,-139,32.116,6.54346,0,0,0,0,0,0,0,-1,1931,1163,32.116,-6.54343
714,-139,32.9822,6.30103,0,0,0,0,0,0,0,-1,1938,1163,32.9822,-6.30104
721,-139,33.094,5.92285,-0.00171569,-6.50295e-05,0.00115441,0.000528735,-0.00230945,1.09574,0.00174282,0.0286215,1945,1163,33.094,-5.92287
728,-139,33.0469,5.72119,-0.00180189,0.000115107,0.00117213,0.000670743,-0.00235752,1.12813,0.00183656,0.0299001,1952,1163,33.0469,-5.72113
735,-139,32.9857,5.52185,-0.0020716,0.000392053,0.00118025,0.000866209,-0.00254576,1.18879,0.00204791,0.0222917,1959,1163,32.9858,-5.52186
742,-139,33.017,5.16479,-0.00239879,0.000904984,0.00121601,0.00130429,-0.0027981,1.25351,0.00242029,0.0233882,1966,1163,33.017,-5.16482
749,-139,33.0332,4.93286,-0.00278832,0.00140302,0.00150647,0.00188829,-0.0032736,1.25916,0.00301578,0.0201269,1973,1163,33.0332,-4.93281
756,-139,33.0131,4.70984,-0.0031757,0.0017018,0.00183294,0.00231382,-0.00378771,1.24854,0.00355681,0.010423,1980,1163,33.013,-4.70984
763,-139,33.0032,4.43689,-0.00357234,0.00198292,0.00225166,0.00278093,-0.00437035,1.2302,0.00416265,0.0107922,1987,1163,33.0032,-4.43686
770,-139,33.0081,4.19336,-0.00431295,0.00188286,0.00282221,0.00297565,-0.00540574,1.20137,0.00490632,0.0129397,1994,1163,33.0081,-4.1933
777,-139,32.9862,3.95923,-0.00539274,0.00128974,0.00352646,0.00280646,-0.00690946,1.16462,0.00577381,0.0240434,2001,1163,32.9862,-3.9592
784,-139,33.0641,3.56042,-0.00699897,-9.96606e-05,0.00440449,0.0020453,-0.00914392,1.11761,0.00687981,0.0409903,2008,1163,33.064,-3.56042
791,-139,33.2468,3.5376,-0.00915236,-0.00270173,0.00548011,0.000431747,-0.0122858,1.05138,0.0083382,0.0472221,2015,1163,33.2468,-3.53765
798,-139,33.0198,3.48804,0,0,0,0,0,0,0,-1,2022,1163,33.0197,-3.48805
805,-139,31.751,3.4751,0,0,0,0,0,0,0,-1,2029,1163,31.7509,-3.47508
812,-139,0,0,0,0,0,0,0,0,0,-1,2036,1163,0,0
-700,-146,0,0,0,0,0,0,0,0,0,-1,524,1170,0,0
-693,-146,-18.1063,-0.906128,0,0,0,0,0,0,0,-1,531,1170,-18.1063,0.906186
-686,-146,-19.1865,-1.82141,0,0,0,0,0,0,0,-1,538,1170,-19.1864,1.82135
-679,-146,-22.0822,-0.251099,0,0,0,0,0,0,0,-1,545,1170,-22.0822,0.251064
-672,-146,-22.0042,0.0389404,-0.0040011,0.0302793,0.0374009,0.0542805,-0.0280023,1.00026,0.0483068,0.0477497,552,1170,-22.0042,-0.0390002
-665,-146,-21.9641,0.355835,-0.00216286,0.0257466,0.0257689,0.0410967,-0.0175129,1.03356,0.0347394,0.0426161,559,1170,-21.964,-0.355779
-658,-146,-21.9529,0.668457,0,0,0,0,0,0,0,-1,566,1170,-21.9529,-0.668459
-651,-146,-22.1379,0.883301,-0.00112378,0.0172802,0.0105646,0.0220885,-0.00593207,1.14368,0.0170506,0.0373696,573,1170,-22.1379,-0.883286
-644,-146,-22.327,1.11084,-0.00130873,0.0134767,0.00598933,0.0155984,-0.00343044,1.23034,0.0117111,0.0210193,580,1170,-22.3269,-1.11081
-637,-146,-22.371,1.4408,-0.00123426,0.0101926,0.00250733,0.0107186,-0.00176022,1.36403,0.00779894,0.0117698,587,1170,-22.371,-1.44077
-630,-146,-22.4017,1.75854,-0.00129838,0.0069294,0.000364368,0.00694551,-0.00131449,1.52663,0.005125,0.0110545,594,1170,-22.4016,-1.75853
-623,-146,-22.432,2.04578,-0.00150515,0.00407893,-0.000929256,0.00422951,-0.00165573,-1.41015,0.00350448,0.0133342,601,1170,-22.432,-2.0458
-616,-146,-22.4703,2.36963,-0.00134084,0.0021934,-0.000977528,0.00244575,-0.0015932,-1.31816,0.00234914,0.0194851,608,1170,-22.4703,-2.36967
-609,-146,-22.1431,3.25012,0,0,0,0,0,0,0,-1,615,1170,-22.143,-3.25017
-602,-146,-22.4338,3.22607,-0.00132302,0.000372936,0.000458224,0.000488823,-0.00143891,1.32309,0.00115716,0.0443728,622,1170,-22.4338,-3.22609
-595,-146,-22.6609,3.29895,-0.00131396,0.00047991,0.000722322,0.000734601,-0.00156865,1.23181,0.00135853,0.0275284,629,1170,-22.661,-3.29897
-588,-146,-22.7115,3.45911,0,0,0,0,0,0,0,-1,636,1170,-22.7115,-3.45915
-581,-146,-21.6071,3.85474,0,0,0,0,0,0,0,-1,643,1170,-21.6071,-3.85478
-574,-146,-17.9915,3.79114,0,0,0,0,0,0,0,-1,650,1170,-17.9915,-3.79118
-567,-146,-26.4569,0.403442,0,0,0,0,0,0,0,-1,657,1170,-26.4569,-0.403482
-560,-146,-26.5627,0.729126,2.83649e-05,7.10611e-05,0.00278301,0.0028328,-0.00273338,0.789234,0.00321381,0.0366228,664,1170,-26.5627,-0.729124
-553,-146,-26.5756,1.11694,0.00037802,-6.39637e-06,0.0031778,0.00336942,-0.0029978,0.755193,0.0036782,0.038691,671,1170,-26.5756,-1.11696
-546,-146,-26.5864,1.06079,0.00103202,-0.000361874,0.00346229,0.00386682,-0.00319667,0.686077,0.00408422,0.042087,678,1170,-26.5864,-1.06081
-539,-146,-26.6649,0.810913,0.00192237,-0.00148447,0.00361654,0.00421658,-0.00377867,0.565305,0.00461837,0.0403946,685,1170,-26.6648,-0.810951
-532,-146,-26.7183,0.705933,0.00364738,-0.00344115,0.00388232,0.00535995,-0.00515371,0.415443,0.00607045,0.0395172,692,1170,-26.7183,-0.705934
-525,-146,-26.6407,0.563232,0.00577337,-0.0058477,0.00424093,0.00715643,-0.00723076,0.315246,0.00830649,0.0412931,699,1170,-26.6407,-0.563267
-518,-146,0,0,0,0,0,0,0,0,0,-1,706,1170,0,0
-511,-146,0,0,0,0,0,0,0,0,0,-1,713,1170,0,0
-504,-146,0,0,0,0,0,0,0,0,0,-1,720,1170,0,0
-497,-146,0,0,0,0,0,0,0,0,0,-1,727,1170,0,0
-490,-146,0,0,0,0,0,0,0,0,0,-1,734,1170,0,0
-483,-146,0,0,0,0,0,0,0,0,0,-1,741,1170,0,0
-476,-146,0,0,0,0,0,0,0,0,0,-1,748,1170,0,0
-469,-146,0,0,0,0,0,0,0,0,0,-1,755,1170,0,0
-462,-146,0,0,0,0,0,0,0,0,0,-1,762,1170,0,0
-455,-146,0,0,0,0,0,0,0,0,0,-1,769,1170,0,0
-448,-146,0,0,0,0,0,0,0,0,0,-1,776,1170,0,0
-441,-146,0,0,0,0,0,0,0,0,0,-1,783,1170,0,0
-434,-146,0,0,0,0,0,0,0,0,0,-1,790,1170,0,0
-427,-146,0,0,0,0,0,0,0,0,0,-1,797,1170,0,0
-420,-146,0,0,0,0,0,0,0,0,0,-1,804,1170,0,0
-413,-146,0,0,0,0,0,0,0,0,0,-1,811,1170,0,0
-406,-146,0,0,0,0,0,0,0,0,0,-1,818,1170,0,0
-399,-146,0,0,0,0,0,0,0,0,0,-1,825,1170,0,0
-392,-146,0,0,0,0,0,0,0,0,0,-1,832,1170,0,0
-385,-146,0,0,0,0,0,0,0,0,0,-1,839,1170,0,0
-378,-146,0,0,0,0,0,0,0,0,0,-1,846,1170,0,0
-371,-146,0,0,0,0,0,0,0,0,0,-1,853,1170,0,0
-364,-146,0,0,0,0,0,0,0,0,0,-1,860,1170,0,0
-357,-146,0,0,0,0,0,0,0,0,0,-1,867,1170,0,0
-350,-146,0,0,0,0,0,0,0,0,0,-1,874,1170,0,0
-343,-146,0,0,0,0,0,0,0,0,0,-1,881,1170,0,0
-336,-146,0,0,0,0,0,0,0,0,0,-1,888,1170,0,0
-329,-146,0,0,0,0,0,0,0,0,0,-1,895,1170,0,0
-322,-146,0,0,0,0,0,0,0,0,0,-1,902,1170,0,0
-315,-146,0,0,0,0,0,0,0,0,0,-1,909,1170,0,0
-308,-146,0,0,0,0,0,0,0,0,0,-1,916,1170,0,0
-301,-146,0,0,0,0,0,0,0,0,0,-1,923,1170,0,0
-294,-146,0,0,0,0,0,0,0,0,0,-1,930,1170,0,0
-287,-146,0,0,0,0,0,0,0,0,0,-1,937,1170,0,0
-280,-146,0,0,0,0,0,0,0,0,0,-1,944,1170,0,0
-273,-146,0,0,0,0,0,0,0,0,0,-1,951,1170,0,0
-266,-146,0,0,0,0,0,0,0,0,0,-1,958,1170,0,0
-259,-146,0,0,0,0,0,0,0,0,0,-1,965,1170,0,0
-252,-146,0,0,0,0,0,0,0,0,0,-1,972,1170,0,0
-245,-146,0,0,0,0,0,0,0,0,0,-1,979,1170,0,0
-238,-146,0,0,0,0,0,0,0,0,0,-1,986,1170,0,0
-231,-146,0,0,0,0,0,0,0,0,0,-1,993,1170,0,0
-224,-146,0,0,0,0,0,0,0,0,0,-1,1000,1170,0,0
-217,-146,0,0,0,0,0,0,0,0,0,-1,1007,1170,0,0
-210,-146,0,0,0,0,0,0,0,0,0,-1,1014,1170,0,0
-203,-146,0,0,0,0,0,0,0,0,0,-1,1021,1170,0,0
-196,-146,0,0,0,0,0,0,0,0,0,-1,1028,1170,0,0
-189,-146,0,0,0,0,0,0,0,0,0,-1,1035,1170,0,0
-182,-146,0,0,0,0,0,0,0,0,0,-1,1042,1170,0,0
-175,-146,0,0,0,0,0,0,0,0,0,-1,1049,1170,0,0
-168,-146,0,0,0,0,0,0,0,0,0,-1,1056,1170,0,0
-161,-146,0,0,0,0,0,0,0,0,0,-1,1063,1170,0,0
-154,-146,0,0,0,0,0,0,0,0,0,-1,1070,1170,0,0
-147,-146,0,0,0,0,0,0,0,0,0,-1,1077,1170,0,0
-140,-146,0,0,0,0,0,0,0,0,0,-1,1084,1170,0,0
-133,-146,0,0,0,0,0,0,0,0,0,-1,1091,1170,0,0
-126,-146,0,0,0,0,0,0,0,0,0,-1,1098,1170,0,0
-119,-146,0,0,0,0,0,0,0,0,0,-1,1105,1170,0,0
-112,-146,0,0,0,0,0,0,0,0,0,-1,1112,1170,0,0
-105,-146,0,0,0,0,0,0,0,0,0,-1,1119,1170,0,0
-98,-146,0,0,0,0,0,0,0,0,0,-1,1126,1170,0,0
-91,-146,0,0,0,0,0,0,0,0,0,-1,1133,1170,0,0
-84,-146,0,0,0,0,0,0,0,0,0,-1,1140,1170,0,0
-77,-146,0,0,0,0,0,0,0,0,0,-1,1147,1170,0,0
-70,-146,0,0,0,0,0,0,0,0,0,-1,1154,1170,0,0
-63,-146,0,0,0,0,0,0,0,0,0,-1,1161,1170,0,0
-56,-146,0,0,0,0,0,0,0,0,0,-1,1168,1170,0,0
-49,-146,0,0,0,0,0,0,0,0,0,-1,1175,1170,0,0
-42,-146,0,0,0,0,0,0,0,0,0,-1,1182,1170,0,0
-35,-146,0,0,0,0,0,0,0,0,0,-1,1189,1170,0,0
-28,-146,0,0,0,0,0,0,0,0,0,-1,1196,1170,0,0
-21,-146,0,0,0,0,0,0,0,0,0,-1,1203,1170,0,0
-14,-146,0,0,0,0,0,0,0,0,0,-1,1210,1170,0,0
-7,-146,0,0,0,0,0,0,0,0,0,-1,1217,1170,0,0
0,-146,0,0,0,0,0,0,0,0,0,-1,1224,1170,0,0
7,-146,0,0,0,0,0,0,0,0,0,-1,1231,1170,0,0
14,-146,0,0,0,0,0,0,0,0,0,-1,1238,1170,0,0
21,-146,0,0,0,0,0,0,0,0,0,-1,1245,1170,0,0
28,-146,0,0,0,0,0,0,0,0,0,-1,1252,1170,0,0
35,-146,0,0,0,0,0,0,0,0,0,-1,1259,1170,0,0
42,-146,0,0,0,0,0,0,0,0,0,-1,1266,1170,0,0
49,-146,0,0,0,0,0,0,0,0,0,-1,1273,1170,0,0
56,-146,0,0,0,0,0,0,0,0,0,-1,1280,1170,0,0
63,-146,0,0,0,0,0,0,0,0,0,-1,1287,1170,0,0
70,-146,0,0,0,0,0,0,0,0,0,-1,1294,1170,0,0
77,-146,0,0,0,0,0,0,0,0,0,-1,1301,1170,0,0
84,-146,0,0,0,0,0,0,0,0,0,-1,1308,1170,0,0
91,-146,0,0,0,0,0,0,0,0,0,-1,1315,1170,0,0
98,-146,0,0,0,0,0,0,0,0,0,-1,1322,1170,0,0
105,-146,0,0,0,0,0,0,0,0,0,-1,1329,1170,0,0
112,-146,0,0,0,0,0,0,0,0,0,-1,1336,1170,0,0
119,-146,0,0,0,0,0,0,0,0,0,-1,1343,1170,0,0
126,-146,0,0,0,0,0,0,0,0,0,-1,1350,1170,0,0
133,-146,0,0,0,0,0,0,0,0,0,-1,1357,1170,0,0
140,-146,0,0,0,0,0,0,0,0,0,-1,1364,1170,0,0
147,-146,0,0,0,0,0,0,0,0,0,-1,1371,1170,0,0
154,-146,0,0,0,0,0,0,0,0,0,-1,1378,1170,0,0
161,-146,0,0,0,0,0,0,0,0,0,-1,1385,1170,0,0
168,-146,0,0,0,0,0,0,0,0,0,-1,1392,1170,0,0
175,-146,0,0,0,0,0,0,0,0,0,-1,1399,1170,0,0
182,-146,0,0,0,0,0,0,0,0,0,-1,1406,1170,0,0
189,-146,0,0,0,0,0,0,0,0,0,-1,1413,1170,0,0
196,-146,0,0,0,0,0,0,0,0,0,-1,1420,1170,0,0
203,-146,0,0,0,0,0,0,0,0,0,-1,1427,1170,0,0
210,-146,0,0,0,0,0,0,0,0,0,-1,1434,1170,0,0
217,-146,0,0,0,0,0,0,0,0,0,-1,1441,1170,0,0
224,-146,0,0,0,0,0,0,0,0,0,-1,1448,1170,0,0
231,-146,0,0,0,0,0,0,0,0,0,-1,1455,1170,0,0
238,-146,0,0,0,0,0,0,0,0,0,-1,1462,1170,0,0
245,-146,0,0,0,0,0,0,0,0,0,-1,1469,1170,0,0
252,-146,0,0,0,0,0,0,0,0,0,-1,1476,1170,0,0
259,-146,0,0,0,0,0,0,0,0,0,-1,1483,1170,0,0
266,-146,0,0,0,0,0,0,0,0,0,-1,1490,1170,0,0
273,-146,0,0,0,0,0,0,0,0,0,-1,1497,1170,0,0
280,-146,0,0,0,0,0,0,0,0,0,-1,1504,1170,0,0
287,-146,0,0,0,0,0,0,0,0,0,-1,1511,1170,0,0
294,-146,0,0,0,0,0,0,0,0,0,-1,1518,1170,0,0
301,-146,0,0,0,0,0,0,0,0,0,-1,1525,1170,0,0
308,-146,0,0,0,0,0,0,0,0,0,-1,1532,1170,0,0
315,-146,0,0,0,0,0,0,0,0,0,-1,1539,1170,0,0
322,-146,0,0,0,0,0,0,0,0,0,-1,1546,1170,0,0
329,-146,0,0,0,0,0,0,0,0,0,-1,1553,1170,0,0
336,-146,0,0,0,0,0,0,0,0,0,-1,1560,1170,0,0
343,-146,0,0,0,0,0,0,0,0,0,-1,1567,1170,0,0
350,-146,0,0,0,0,0,0,0,0,0,-1,1574,1170,0,0
357,-146,0,0,0,0,0,0,0,0,0,-1,1581,1170,0,0
364,-146,0,0,0,0,0,0,0,0,0,-1,1588,1170,0,0
371,-146,0,0,0,0,0,0,0,0,0,-1,1595,1170,0,0
378,-146,0,0,0,0,0,0,0,0,0,-1,1602,1170,0,0
385,-146,0,0,0,0,0,0,0,0,0,-1,1609,1170,0,0
392,-146,0,0,0,0,0,0,0,0,0,-1,1616,1170,0,0
399,-146,0,0,0,0,0,0,0,0,0,-1,1623,1170,0,0
406,-146,0,0,0,0,0,0,0,0,0,-1,1630,1170,0,0
413,-146,0,0,0,0,0,0,0,0,0,-1,1637,1170,0,0
420,-146,0,0,0,0,0,0,0,0,0,-1,1644,1170,0,0
427,-146,0,0,0,0,0,0,0,0,0,-1,1651,1170,0,0
434,-146,0,0,0,0,0,0,0,0,0,-1,1658,1170,0,0
441,-146,0,0,0,0,0,0,0,0,0,-1,1665,1170,0,0
448,-146,0,0,0,0,0,0,0,0,0,-1,1672,1170,0,0
455,-146,0,0,0,0,0,0,0,0,0,-1,1679,1170,0,0
462,-146,0,0,0,0,0,0,0,0,0,-1,1686,1170,0,0
469,-146,0,0,0,0,0,0,0,0,0,-1,1693,1170,0,0
476,-146,0,0,0,0,0,0,0,0,0,-1,1700,1170,0,0
483,-146,0,0,0,0,0,0,0,0,0,-1,1707,1170,0,0
490,-146,0,0,0,0,0,0,0,0,0,-1,1714,1170,0,0
497,-146,0,0,0,0,0,0,0,0,0,-1,1721,1170,0,0
504,-146,0,0,0,0,0,0,0,0,0,-1,1728,1170,0,0
511,-146,0,0,0,0,0,0,0,0,0,-1,1735,1170,0,0
518,-146,0,0,0,0,0,0,0,0,0,-1,1742,1170,0,0
525,-146,0,0,0,0,0,0,0,0,0,-1,1749,1170,0,0
532,-146,0,0,0,0,0,0,0,0,0,-1,1756,1170,0,0
539,-146,0,0,0,0,0,0,0,0,0,-1,1763,1170,0,0
546,-146,0,0,0,0,0,0,0,0,0,-1,1770,1170,0,0
553,-146,0,0,0,0,0,0,0,0,0,-1,1777,1170,0,0
560,-146,0,0,0,0,0,0,0,0,0,-1,1784,1170,0,0
567,-146,0,0,0,0,0,0,0,0,0,-1,1791,1170,0,0
574,-146,0,0,0,0,0,0,0,0,0,-1,1798,1170,0,0
581,-146,0,0,0,0,0,0,0,0,0,-1,1805,1170,0,0
588,-146,0,0,0,0,0,0,0,0,0,-1,1812,1170,0,0
595,-146,0,0,0,0,0,0,0,0,0,-1,1819,1170,0,0
602,-146,0,0,0,0,0,0,0,0,0,-1,1826,1170,0,0
609,-146,0,0,0,0,0,0,0,0,0,-1,1833,1170,0,0
616,-146,0,0,0,0,0,0,0,0,0,-1,1840,1170,0,0
623,-146,0,0,0,0,0,0,0,0,0,-1,1847,1170,0,0
630,-146,0,0,0,0,0,0,0,0,0,-1,1854,1170,0,0
637,-146,36.7529,2.41357,0.00892152,-0.00113842,-0.00595271,0.0116848,-0.00390174,-0.43461,0.00936543,0.0386197,1861,1170,36.7529,-2.41363
644,-146,36.8071,2.30066,0.00582767,-0.00103764,-0.00408402,0.00773002,-0.00293999,-0.435919,0.00636389,0.0358023,1868,1170,36.8072,-2.30061
651,-146,36.7819,2.34607,0.00372047,-0.00083976,-0.00271347,0.00498463,-0.00210392,-0.435982,0.00420372,0.0349793,1875,1170,36.7819,-2.34609
658,-146,36.8248,2.39392,0.00228364,-0.000617232,-0.00159278,0.00298743,-0.00132102,-0.416069,0.00254875,0.0384494,1882,1170,36.8249,-2.39397
665,-146,36.771,2.49414,0.00133818,-0.000430749,-0.000664372,0.00155991,-0.000652479,-0.322121,0.00131265,0.0385891,1889,1170,36.771,-2.49416
672,-146,36.7734,2.52246,0.000756128,-0.000457784,3.6629e-05,0.000757232,-0.000458888,0.0301378,0.000709135,0.0385206,1896,1170,36.7734,-2.52251
679,-146,36.719,2.46899,-3.31954e-05,-0.000314882,0.000471776,0.000318312,-0.00066639,0.64034,0.000580237,0.0320824,1903,1170,36.719,-2.46903
686,-146,36.6593,2.48877,-0.000598756,-0.000403276,0.000708072,0.000213771,-0.0012158,0.853983,0.000890387,0.0249949,1910,1170,36.6593,-2.48872
693,-146,36.7321,2.49377,-0.000997011,-0.000369962,0.000908125,0.000277237,-0.00164421,0.951614,0.00119928,0.0171606,1917,1170,36.732,-2.4938
700,-146,36.8612,2.39014,0,0,0,0,0,0,0,-1,1924,1170,36.8612,-2.39013
707,-146,29.9441,6.94653,0,0,0,0,0,0,0,-1,1931,1170,29.9441,-6.94652
714,-146,31.325,6.13245,0,0,0,0,0,0,0,-1,1938,1170,31.325,-6.1325
721,-146,32.8635,5.81982,0,0,0,0,0,0,0,-1,1945,1170,32.8635,-5.81978
728,-146,33.0664,5.52747,-0.00209407,0.000107755,0.00136593,0.000761198,-0.00274751,1.12459,0.00213121,0.0413864,1952,1170,33.0664,-5.52752
735,-146,32.7594,5.48315,-0.00237924,0.00033246,0.00137035,0.000904348,-0.00295113,1.17544,0.00232817,0.0214834,1959,1170,32.7594,-5.48319
742,-146,32.774,5.16333,-0.00267206,0.000858456,0.00134206,0.00131069,-0.00312429,1.24578,0.00263093,0.0184018,1966,1170,32.7741,-5.16333
749,-146,32.7556,4.92065,-0.00303437,0.00134231,0.00154608,0.00183338,-0.00352543,1.26326,0.0031449,0.0166663,1973,1170,32.7557,-4.92065
756,-146,32.7426,4.67139,-0.0035862,0.0014393,0.00182176,0.00203022,-0.00417711,1.25714,0.00365455,0.0120968,1980,1170,32.7426,-4.67135
763,-146,32.7245,4.40186,-0.00432392,0.00147554,0.00221933,0.00222736,-0.00507575,1.24417,0.00432203,0.0111867,1987,1170,32.7245,-4.40191
770,-146,32.7247,4.16736,-0.00558625,0.0009978,0.00284062,0.00205394,-0.00664239,1.21483,0.00524863,0.0126185,1994,1170,32.7247,-4.16736
777,-146,32.7197,3.99353,-0.0074582,-0.000120268,0.00370952,0.00142823,-0.0090067,1.17535,0.00653279,0.022098,2001,1170,32.7197,-3.99354
784,-146,32.6039,3.74451,-0.0102215,-0.00221745,0.00490329,0.00010969,-0.0125487,1.12767,0.00840259,0.0390372,2008,1170,32.6039,-3.74448
791,-146,33.2927,3.0802,0,0,0,0,0,0,0,-1,2015,1170,33.2926,-3.08019
798,-146,31.9756,2.34338,0,0,0,0,0,0,0,-1,2022,1170,31.9755,-2.34337
805,-146,31.3894,2.39844,0,0,0,0,0,0,0,-1,2029,1170,31.3893,-2.3985
812,-146,0,0,0,0,0,0,0,0,0,-1,2036,1170,0,0
-700,-153,0,0,0,0,0,0,0,0,0,-1,524,1177,0,0
-693,-153,0,0,0,0,0,0,0,0,0,-1,531,1177,0,0
-686,-153,-21.3666,1.26343,0,0,0,0,0,0,0,-1,538,1177,-21.3666,-1.26338
-679,-153,-21.1848,1.41162,0,0,0,0,0,0,0,-1,545,1177,-21.1848,-1.41168
-672,-153,-21.201,-0.331299,0,0,0,0,0,0,0,-1,552,1177,-21.2011,0.331337
-665,-153,-21.4741,0.668213,0,0,0,0,0,0,0,-1,559,1177,-21.4741,-0.668177
-658,-153,-21.6801,0.6521,0,0,0,0,0,0,0,-1,566,1177,-21.6801,-0.652138
-651,-153,-22.0139,0.758789,-0.00261174,0.025001,0.0118366,0.0293804,-0.00699109,1.21643,0.0222858,0.0470259,573,1177,-22.0139,-0.758819
-644,-153,-22.0275,1.09326,-0.00247232,0.0192467,0.00690404,0.0212556,-0.00448117,1.28765,0.0158763,0.0287216,580,1177,-22.0275,-1.09332
-637,-153,-22.0562,1.43823,-0.00218363,0.0142889,0.00322456,0.0148976,-0.00279235,1.38421,0.0109815,0.0122419,587,1177,-22.0562,-1.43822
-630,-153,-22.0754,1.75171,-0.00206284,0.00960693,0.000866103,0.00967086,-0.00212677,1.49712,0.00726074,0.0106324,594,1177,-22.0755,-1.75165
-623,-153,-22.0991,2.04529,-0.00215811,0.00557069,-0.000737501,0.00564043,-0.00222785,-1.47651,0.00468301,0.0102449,601,1177,-22.0991,-2.04534
-616,-153,-22.1185,2.34595,-0.00200405,0.00282413,-0.00103736,0.00303758,-0.0022175,-1.36787,0.00304631,0.0131246,608,1177,-22.1185,-2.34596
-609,-153,-22.091,2.67151,-0.00193776,0.000950119,-0.000513658,0.00103876,-0.0020264,-1.39991,0.00180003,0.0189177,615,1177,-22.091,-2.6715
-602,-153,-21.9927,3.08154,0,0,0,0,0,0,0,-1,622,1177,-21.9927,-3.08148
-595,-153,-22.2791,3.3783,0,0,0,0,0,0,0,-1,629,1177,-22.2791,-3.37826
-588,-153,-22.5655,3.67505,0,0,0,0,0,0,0,-1,636,1177,-22.5655,-3.67503
-581,-153,-21.3999,3.81421,0,0,0,0,0,0,0,-1,643,1177,-21.3999,-3.81419
-574,-153,-21.4203,4.07483,0,0,0,0,0,0,0,-1,650,1177,-21.4204,-4.07486
-567,-153,-26.3303,0.239746,0,0,0,0,0,0,0,-1,657,1177,-26.3302,-0.239746
-560,-153,-26.4525,0.514526,-0.000601973,-0.000141516,0.00243283,0.00207195,-0.00281544,0.832575,0.0028326,0.0392954,664,1177,-26.4525,-0.514583
-553,-153,-26.4849,0.717529,-9.6644e-05,-0.000231836,0.00289715,0.0027337,-0.00306218,0.773734,0.00334804,0.0378086,671,1177,-26.4849,-0.717542
-546,-153,-26.4941,0.747681,0.000846313,-0.000566752,0.00334436,0.00355796,-0.00327839,0.681298,0.00394807,0.0409922,678,1177,-26.4941,-0.747621
-539,-153,-26.8454,0.805542,0.00217463,-0.00160067,0.00378945,0.00452055,-0.00394659,0.554322,0.00489225,0.0411286,685,1177,-26.8454,-0.805555
-532,-153,-27.1354,0.884521,0.00435263,-0.0034218,0.00442072,0.00635211,-0.00542128,0.424763,0.00680445,0.0421864,692,1177,-27.1354,-0.884489
-525,-153,-26.9036,0.856079,0.00713054,-0.0059683,0.00510501,0.0088851,-0.00772285,0.331045,0.00959643,0.040256,699,1177,-26.9036,-0.856075
-518,-153,0,0,0,0,0,0,0,0,0,-1,706,1177,0,0
-511,-153,0,0,0,0,0,0,0,0,0,-1,713,1177,0,0
-504,-153,0,0,0,0,0,0,0,0,0,-1,720,1177,0,0
-497,-153,0,0,0,0,0,0,0,0,0,-1,727,1177,0,0
-490,-153,0,0,0,0,0,0,0,0,0,-1,734,1177,0,0
-483,-153,0,0,0,0,0,0,0,0,0,-1,741,1177,0,0
-476,-153,0,0,0,0,0,0,0,0,0,-1,748,1177,0,0
-469,-153,0,0,0,0,0,0,0,0,0,-1,755,1177,0,0
-462,-153,0,0,0,0,0,0,0,0,0,-1,762,1177,0,0
-455,-153,0,0,0,0,0,0,0,0,0,-1,769,1177,0,0
-448,-153,0,0,0,0,0,0,0,0,0,-1,776,1177,0,0
-441,-153,0,0,0,0,0,0,0,0,0,-1,783,1177,0,0
-434,-153,0,0,0,0,0,0,0,0,0,-1,790,1177,0,0
-427,-153,0,0,0,0,0,0,0,0,0,-1,797,1177,0,0
-420,-153,0,0,0,0,0,0,0,0,0,-1,804,1177,0,0
-413,-153,0,0,0,0,0,0,0,0,0,-1,811,1177,0,0
-406,-153,0,0,0,0,0,0,0,0,0,-1,818,1177,0,0
-399,-153,0,0,0,0,0,0,0,0,0,-1,825,1177,0,0
-392,-153,0,0,0,0,0,0,0,0,0,-1,832,1177,0,0
-385,-153,0,0,0,0,0,0,0,0,0,-1,839,1177,0,0
-378,-153,0,0,0,0,0,0,0,0,0,-1,846,1177,0,0
-371,-153,0,0,0,0,0,0,0,0,0,-1,853,1177,0,0
-364,-153,0,0,0,0,0,0,0,0,0,-1,860,1177,0,0
-357,-153,0,0,0,0,0,0,0,0,0,-1,867,1177,0,0
-350,-153,0,0,0,0,0,0,0,0,0,-1,874,1177,0,0
-343,-153,0,0,0,0,0,0,0,0,0,-1,881,1177,0,0
-336,-153,0,0,0,0,0,0,0,0,0,-1,888,1177,0,0
-329,-153,0,0,0,0,0,0,0,0,0,-1,895,1177,0,0
-322,-153,0,0,0,0,0,0,0,0,0,-1,902,1177,0,0
-315,-153,0,0,0,0,0,0,0,0,0,-1,909,1177,0,0
-308,-153,0,0,0,0,0,0,0,0,0,-1,916,1177,0,0
-301,-153,0,0,0,0,0,0,0,0,0,-1,923,1177,0,0
-294,-153,0,0,0,0,0,0,0,0,0,-1,930,1177,0,0
-287,-153,0,0,0,0,0,0,0,0,0,-1,937,1177,0,0
-280,-153,0,0,0,0,0,0,0,0,0,-1,944,1177,0,0
-273,-153,0,0,0,0,0,0,0,0,0,-1,951,1177,0,0
-266,-153,0,0,0,0,0,0,0,0,0,-1,958,1177,0,0
-259,-153,0,0,0,0,0,0,0,0,0,-1,965,1177,0,0
-252,-153,0,0,0,0,0,0,0,0,0,-1,972,1177,0,0
-245,-153,0,0,0,0,0,0,0,0,0,-1,979,1177,0,0
-238,-153,0,0,0,0,0,0,0,0,0,-1,986,1177,0,0
-231,-153,0,0,0,0,0,0,0,0,0,-1,993,1177,0,0
-224,-153,0,0,0,0,0,0,0,0,0,-1,1000,1177,0,0
-217,-153,0,0,0,0,0,0,0,0,0,-1,1007,1177,0,0
-210,-153,0,0,0,0,0,0,0,0,0,-1,1014,1177,0,0
-203,-153,0,0,0,0,0,0,0,0,0,-1,1021,1177,0,0
-196,-153,0,0,0,0,0,0,0,0,0,-1,1028,1177,0,0
-189,-153,0,0,0,0,0,0,0,0,0,-1,1035,1177,0,0
-182,-153,0,0,0,0,0,0,0,0,0,-1,1042,1177,0,0
-175,-153,0,0,0,0,0,0,0,0,0,-1,1049,1177,0,0
-168,-153,0,0,0,0,0,0,0,0,0,-1,1056,1177,0,0
-161,-153,0,0,0,0,0,0,0,0,0,-1,1063,1177,0,0
-154,-153,0,0,0,0,0,0,0,0,0,-1,1070,1177,0,0
-147,-153,0,0,0,0,0,0,0,0,0,-1,1077,1177,0,0
-140,-153,0,0,0,0,0,0,0,0,0,-1,1084,1177,0,0
-133,-153,0,0,0,0,0,0,0,0,0,-1,1091,1177,0,0
-126,-153,0,0,0,0,0,0,0,0,0,-1,1098,1177,0,0
-119,-153,0,0,0,0,0,0,0,0,0,-1,1105,1177,0,0
-112,-153,0,0,0,0,0,0,0,0,0,-1,1112,1177,0,0
-105,-153,0,0,0,0,0,0,0,0,0,-1,1119,1177,0,0
-98,-153,0,0,0,0,0,0,0,0,0,-1,1126,1177,0,0
-91,-153,0,0,0,0,0,0,0,0,0,-1,1133,1177,0,0
-84,-153,0,0,0,0,0,0,0,0,0,-1,1140,1177,0,0
-77,-153,0,0,0,0,0,0,0,0,0,-1,1147,1177,0,0
-70,-153,0,0,0,0,0,0,0,0,0,-1,1154,1177,0,0
-63,-153,0,0,0,0,0,0,0,0,0,-1,1161,1177,0,0
-56,-153,0,0,0,0,0,0,0,0,0,-1,1168,1177,0,0
-49,-153,0,0,0,0,0,0,0,0,0,-1,1175,1177,0,0
-42,-153,0,0,0,0,0,0,0,0,0,-1,1182,1177,0,0
-35,-153,0,0,0,0,0,0,0,0,0,-1,1189,1177,0,0
-28,-153,0,0,0,0,0,0,0,0,0,-1,1196,1177,0,0
-21,-153,0,0,0,0,0,0,0,0,0,-1,1203,1177,0,0
-14,-153,0,0,0,0,0,0,0,0,0,-1,1210,1177,0,0
-7,-153,0,0,0,0,0,0,0,0,0,-1,1217,1177,0,0
0,-153,0,0,0,0,0,0,0,0,0,-1,1224,1177,0,0
7,-153,0,0,0,0,0,0,0,0,0,-1,1231,1177,0,0
14,-153,0,0,0,0,0,0,0,0,0,-1,1238,1177,0,0
21,-153,0,0,0,0,0,0,0,0,0,-1,1245,1177,0,0
28,-153,0,0,0,0,0,0,0,0,0,-1,1252,1177,0,0
35,-153,0,0,0,0,0,0,0,0,0,-1,1259,1177,0,0
42,-153,0,0,0,0,0,0,0,0,0,-1,1266,1177,0,0
49,-153,0,0,0,0,0,0,0,0,0,-1,1273,1177,0,0
56,-153,0,0,0,0,0,0,0,0,0,-1,1280,1177,0,0
63,-153,0,0,0,0,0,0,0,0,0,-1,1287,1177,0,0
70,-153,0,0,0,0,0,0,0,0,0,-1,1294,1177,0,0
77,-153,0,0,0,0,0,0,0,0,0,-1,1301,1177,0,0
84,-153,0,0,0,0,0,0,0,0,0,-1,1308,1177,0,0
91,-153,0,0,0,0,0,0,0,0,0,-1,1315,1177,0,0
98,-153,0,0,0,0,0,0,0,0,0,-1,1322,1177,0,0
105,-153,0,0,0,0,0,0,0,0,0,-1,1329,1177,0,0
112,-153,0,0,0,0,0,0,0,0,0,-1,1336,1177,0,0
119,-153,0,0,0,0,0,0,0,0,0,-1,1343,1177,0,0
126,-153,0,0,0,0,0,0,0,0,0,-1,1350,1177,0,0
133,-153,0,0,0,0,0,0,0,0,0,-1,1357,1177,0,0
140,-153,0,0,0,0,0,0,0,0,0,-1,1364,1177,0,0
147,-153,0,0,0,0,0,0,0,0,0,-1,1371,1177,0,0
154,-153,0,0,0,0,0,0,0,0,0,-1,1378,1177,0,0
161,-153,0,0,0,0,0,0,0,0,0,-1,1385,1177,0,0
168,-153,0,0,0,0,0,0,0,0,0,-1,1392,1177,0,0
175,-153,0,0,0,0,0,0,0,0,0,-1,1399,1177,0,0
182,-153,0,0,0,0,0,0,0,0,0,-1,1406,1177,0,0
189,-153,0,0,0,0,0,0,0,0,0,-1,1413,1177,0,0
196,-153,0,0,0,0,0,0,0,0,0,-1,1420,1177,0,0
203,-153,0,0,0,0,0,0,0,0,0,-1,1427,1177,0,0
210,-153,0,0,0,0,0,0,0,0,0,-1,1434,1177,0,0
217,-153,0,0,0,0,0,0,0,0,0,-1,1441,1177,0,0
224,-153,0,0,0,0,0,0,0,0,0,-1,1448,1177,0,0
231,-153,0,0,0,0,0,0,0,0,0,-1,1455,1177,0,0
238,-153,0,0,0,0,0,0,0,0,0,-1,1462,1177,0,0
245,-153,0,0,0,0,0,0,0,0,0,-1,1469,1177,0,0
252,-153,0,0,0,0,0,0,0,0,0,-1,1476,1177,0,0
259,-153,0,0,0,0,0,0,0,0,0,-1,1483,1177,0,0
266,-153,0,0,0,0,0,0,0,0,0,-1,1490,1177,0,0
273,-153,0,0,0,0,0,0,0,0,0,-1,1497,1177,0,0
280,-153,0,0,0,0,0,0,0,0,0,-1,1504,1177,0,0
287,-153,0,0,0,0,0,0,0,0,0,-1,1511,1177,0,0
294,-153,0,0,0,0,0,0,0,0,0,-1,1518,1177,0,0
301,-153,0,0,0,0,0,0,0,0,0,-1,1525,1177,0,0
308,-153,0,0,0,0,0,0,0,0,0,-1,1532,1177,0,0
315,-153,0,0,0,0,0,0,0,0,0,-1,1539,1177,0,0
322,-153,0,0,0,0,0,0,0,0,0,-1,1546,1177,0,0
329,-153,0,0,0,0,0,0,0,0,0,-1,1553,1177,0,0
336,-153,0,0,0,0,0,0,0,0,0,-1,1560,1177,0,0
343,-153,0,0,0,0,0,0,0,0,0,-1,1567,1177,0,0
350,-153,0,0,0,0,0,0,0,0,0,-1,1574,1177,0,0
357,-153,0,0,0,0,0,0,0,0,0,-1,1581,1177,0,0
364,-153,0,0,0,0,0,0,0,0,0,-1,1588,1177,0,0
371,-153,0,0,0,0,0,0,0,0,0,-1,1595,1177,0,0
378,-153,0,0,0,0,0,0,0,0,0,-1,1602,1177,0,0
385,-153,0,0,0,0,0,0,0,0,0,-1,1609,1177,0,0
392,-153,0,0,0,0,0,0,0,0,0,-1,1616,1177,0,0
399,-153,0,0,0,0,0,0,0,0,0,-1,1623,1177,0,0
406,-153,0,0,0,0,0,0,0,0,0,-1,1630,1177,0,0
413,-153,0,0,0,0,0,0,0,0,0,-1,1637,1177,0,0
420,-153,0,0,0,0,0,0,0,0,0,-1,1644,1177,0,0
427,-153,0,0,0,0,0,0,0,0,0,-1,1651,1177,0,0
434,-153,0,0,0,0,0,0,0,0,0,-1,1658,1177,0,0
441,-153,0,0,0,0,0,0,0,0,0,-1,1665,1177,0,0
448,-153,0,0,0,0,0,0,0,0,0,-1,1672,1177,0,0
455,-153,0,0,0,0,0,0,0,0,0,-1,1679,1177,0,0
462,-153,0,0,0,0,0,0,0,0,0,-1,1686,1177,0,0
469,-153,0,0,0,0,0,0,0,0,0,-1,1693,1177,0,0
476,-153,0,0,0,0,0,0,0,0,0,-1,1700,1177,0,0
483,-153,0,0,0,0,0,0,0,0,0,-1,1707,1177,0,0
490,-153,0,0,0,0,0,0,0,0,0,-1,1714,1177,0,0
497,-153,0,0,0,0,0,0,0,0,0,-1,1721,1177,0,0
504,-153,0,0,0,0,0,0,0,0,0,-1,1728,1177,0,0
511,-153,0,0,0,0,0,0,0,0,0,-1,1735,1177,0,0
518,-153,0,0,0,0,0,0,0,0,0,-1,1742,1177,0,0
525,-153,0,0,0,0,0,0,0,0,0,-1,1749,1177,0,0
532,-153,0,0,0,0,0,0,0,0,0,-1,1756,1177,0,0
539,-153,0,0,0,0,0,0,0,0,0,-1,1763,1177,0,0
546,-153,0,0,0,0,0,0,0,0,0,-1,1770,1177,0,0
553,-153,0,0,0,0,0,0,0,0,0,-1,1777,1177,0,0
560,-153,0,0,0,0,0,0,0,0,0,-1,1784,1177,0,0
567,-153,0,0,0,0,0,0,0,0,0,-1,1791,1177,0,0
574,-153,0,0,0,0,0,0,0,0,0,-1,1798,1177,0,0
581,-153,0,0,0,0,0,0,0,0,0,-1,1805,1177,0,0
588,-153,0,0,0,0,0,0,0,0,0,-1,1812,1177,0,0
595,-153,0,0,0,0,0,0,0,0,0,-1,1819,1177,0,0
602,-153,0,0,0,0,0,0,0,0,0,-1,1826,1177,0,0
609,-153,0,0,0,0,0,0,0,0,0,-1,1833,1177,0,0
616,-153,0,0,0,0,0,0,0,0,0,-1,1840,1177,0,0
623,-153,0,0,0,0,0,0,0,0,0,-1,1847,1177,0,0
630,-153,0,0,0,0,0,0,0,0,0,-1,1854,1177,0,0
637,-153,36.6122,2.62512,0.00717101,-0.000481646,-0.00497202,0.00961857,-0.00292921,-0.457443,0.00757986,0.0390535,1861,1177,36.6122,-2.62514
644,-153,36.6892,2.54578,0.00463564,-0.0006178,-0.00344512,0.00634119,-0.00232335,-0.459689,0.00517865,0.0363223,1868,1177,36.6892,-2.54583
651,-153,36.7354,2.40015,0.00293599,-0.000564314,-0.00230836,0.00408265,-0.00171098,-0.46104,0.0034371,0.0314631,1875,1177,36.7354,-2.40014
658,-153,36.7526,2.39319,0.00187458,-0.000471677,-0.00141543,0.00253984,-0.00113694,-0.439366,0.00217369,0.0349775,1882,1177,36.7526,-2.39325
665,-153,36.7749,2.50464,0.00127026,-0.000388837,-0.000680789,0.00151385,-0.000632426,-0.343611,0.00127351,0.0366731,1889,1177,36.7749,-2.50465
672,-153,36.7354,2.46411,0.000855716,-0.000519493,-7.102e-05,0.000859374,-0.000523151,-0.0514606,0.000806031,0.0369396,1896,1177,36.7354,-2.46409
679,-153,36.6177,2.37402,0.000102341,-0.000441714,0.00035994,0.000281485,-0.000620858,0.46181,0.000533109,0.0303099,1903,1177,36.6177,-2.37405
686,-153,36.6642,2.474,-0.00048138,-0.00056064,0.000620779,0.000101033,-0.00114305,0.753522,0.000797848,0.0199111,1910,1177,36.6641,-2.47405
693,-153,36.7723,2.47449,-0.00092502,-0.000545531,0.000862478,0.000147827,-0.00161838,0.893673,0.00113142,0.0313629,1917,1177,36.7724,-2.47452
700,-153,36.8911,2.42529,0,0,0,0,0,0,0,-1,1924,1177,36.8911,-2.42526
707,-153,29.6483,6.6842,0,0,0,0,0,0,0,-1,1931,1177,29.6483,-6.68415
714,-153,32.3099,6.05176,0,0,0,0,0,0,0,-1,1938,1177,32.31,-6.05175
721,-153,32.693,5.83923,0,0,0,0,0,0,0,-1,1945,1177,32.693,-5.83919
728,-153,32.5328,5.57007,0,0,0,0,0,0,0,-1,1952,1177,32.5328,-5.5701
735,-153,32.5049,5.42407,-0.00246254,0.000167384,0.00152659,0.000867266,-0.00316243,1.14093,0.0024491,0.0240961,1959,1177,32.5049,-5.42408
742,-153,32.5072,5.19373,-0.00271714,0.000743518,0.00142775,0.00125651,-0.00323014,1.22586,0.0026726,0.0156782,1966,1177,32.5073,-5.19377
749,-153,32.4954,4.94055,-0.0030586,0.00119698,0.00154574,0.00169917,-0.0035608,1.25667,0.0030996,0.0164208,1973,1177,32.4953,-4.94056
756,-153,32.478,4.6709,-0.00379769,0.00103414,0.00179046,0.00162529,-0.00438883,1.2519,0.00359237,0.0110575,1980,1177,32.478,-4.67089
763,-153,32.4493,4.40125,-0.00485668,0.000752839,0.00216617,0.00149195,-0.00559578,1.24198,0.00431469,0.010625,1987,1177,32.4493,-4.40128
770,-153,32.4442,4.15674,-0.00662765,-0.000193821,0.00283293,0.000875758,-0.00769723,1.20979,0.00544693,0.0107134,1994,1177,32.4443,-4.15672
777,-153,32.443,3.9198,-0.00931407,-0.00199826,0.00385653,-0.000340805,-0.0109715,1.16488,0.00720344,0.0223582,2001,1177,32.443,-3.91986
784,-153,32.264,3.63733,-0.013282,-0.00502464,0.00534729,-0.00239762,-0.015909,1.11415,0.00990404,0.0428796,2008,1177,32.264,-3.63733
791,-153,32.1019,3.35156,0,0,0,0,0,0,0,-1,2015,1177,32.1019,-3.35159
798,-153,31.7463,2.64539,-0.0252776,-0.0169131,0.0101708,-0.0100983,-0.0320925,0.980462,0.0189482,0.045987,2022,1177,31.7462,-2.64537
805,-153,31.3428,2.69666,-0.0332973,-0.0268664,0.0138474,-0.015866,-0.0442977,0.899478,0.025916,0.046284,2029,1177,31.3428,-2.69662
812,-153,0,0,0,0,0,0,0,0,0,-1,2036,1177,0,0
-700,-160,0,0,0,0,0,0,0,0,0,-1,524,1184,0,0
-693,-160,0,0,0,0,0,0,0,0,0,-1,531,1184,0,0
-686,-160,-20.793,0.752197,0,0,0,0,0,0,0,-1,538,1184,-20.793,-0.752229
-679,-160,-20.5212,0.863281,0,0,0,0,0,0,0,-1,545,1184,-20.5213,-0.863299
-672,-160,-20.5992,0.838623,0,0,0,0,0,0,0,-1,552,1184,-20.5992,-0.838659
-665,-160,-20.794,0.794067,0,0,0,0,0,0,0,-1,559,1184,-20.794,-0.794078
-658,-160,-21.4765,0.24585,0,0,0,0,0,0,0,-1,566,1184,-21.4765,-0.245851
-651,-160,-21.8255,1.0481,0,0,0,0,0,0,0,-1,573,1184,-21.8255,-1.04805
-644,-160,-21.7441,1.24524,-0.00340002,0.0253473,0.0087451,0.0277986,-0.00585131,1.29751,0.0207596,0.0369063,580,1184,-21.7442,-1.24524
-637,-160,-21.7113,1.44312,-0.00292637,0.0186934,0.00464589,0.0196495,-0.00388245,1.36784,0.0145673,0.0145373,587,1184,-21.7113,-1.44314
-630,-160,-21.7588,1.72034,-0.00263011,0.0126249,0.00186346,0.0128492,-0.00285444,1.45099,0.00965925,0.00921624,594,1184,-21.7588,-1.72031
-623,-160,-21.8007,2.00342,-0.00261486,0.00737268,-0.000180318,0.00737594,-0.00261811,-1.55275,0.00598405,0.011828,601,1184,-21.8007,-2.00347
-616,-160,-21.8118,2.32642,-0.00246104,0.00366078,-0.000901243,0.0037907,-0.00259096,-1.42762,0.00370609,0.0104099,608,1184,-21.8118,-2.32639
-609,-160,-21.8035,2.68884,-0.00243401,0.00115627,-0.000703563,0.00128922,-0.00256696,-1.38403,0.00226674,0.0125248,615,1184,-21.8035,-2.68883
-602,-160,-21.7094,3.13965,-0.00264674,0.000280961,-0.000173319,0.000291185,-0.00265697,-1.51187,0.00187592,0.0313914,622,1184,-21.7094,-3.13965
-595,-160,-21.7255,3.53613,-0.00282975,0.00022123,4.57891e-05,0.000221917,-0.00283043,1.55579,0.00196511,0.0440564,629,1184,-21.7255,-3.53612
-588,-160,-22.0456,3.91797,0,0,0,0,0,0,0,-1,636,1184,-22.0456,-3.91795
-581,-160,-21.1202,3.86975,0,0,0,0,0,0,0,-1,643,1184,-21.1202,-3.86978
-574,-160,-21.3502,4.30029,0,0,0,0,0,0,0,-1,650,1184,-21.3501,-4.30028
-567,-160,-26.2493,0.174438,0,0,0,0,0,0,0,-1,657,1184,-26.2493,-0.174494
-560,-160,-26.3508,0.390381,-0.00100218,-0.000639115,0.00213795,0.00132499,-0.00296629,0.827752,0.00253726,0.0411796,664,1184,-26.3508,-0.390401
-553,-160,-26.4165,0.559692,-0.000390491,-0.000760008,0.00265456,0.00208573,-0.00323623,0.750654,0.00309647,0.0385976,671,1184,-26.4165,-0.559694
-546,-160,-26.4434,0.536133,0.000712117,-0.00107968,0.00323156,0.00316967,-0.00353723,0.650177,0.00387417,0.0391703,678,1184,-26.4434,-0.536132
-539,-160,-26.5991,0.551147,0.00226986,-0.00198329,0.00389221,0.00457855,-0.00429198,0.535373,0.00512229,0.0408983,685,1184,-26.599,-0.551205
-532,-160,-27.3589,1.15125,0,0,0,0,0,0,0,-1,692,1184,-27.3589,-1.15129
-525,-160,-26.9108,1.1178,0.00793202,-0.00606213,0.00573737,0.00998351,-0.00811362,0.343399,0.010467,0.0463191,699,1184,-26.9108,-1.11778
-518,-160,-26.5207,1.03479,0.0104768,-0.0090802,0.00653413,0.012459,-0.0110624,0.294537,0.013588,0.0427748,706,1184,-26.5207,-1.03475
-511,-160,0,0,0,0,0,0,0,0,0,-1,713,1184,0,0
-504,-160,0,0,0,0,0,0,0,0,0,-1,720,1184,0,0
-497,-160,0,0,0,0,0,0,0,0,0,-1,727,1184,0,0
-490,-160,0,0,0,0,0,0,0,0,0,-1,734,1184,0,0
-483,-160,0,0,0,0,0,0,0,0,0,-1,741,1184,0,0
-476,-160,0,0,0,0,0,0,0,0,0,-1,748,1184,0,0
-469,-160,0,0,0,0,0,0,0,0,0,-1,755,1184,0,0
-462,-160,0,0,0,0,0,0,0,0,0,-1,762,1184,0,0
-455,-160,0,0,0,0,0,0,0,0,0,-1,769,1184,0,0
-448,-160,0,0,0,0,0,0,0,0,0,-1,776,1184,0,0
-441,-160,0,0,0,0,0,0,0,0,0,-1,783,1184,0,0
-434,-160,0,0,0,0,0,0,0,0,0,-1,790,1184,0,0
-427,-160,0,0,0,0,0,0,0,0,0,-1,797,1184,0,0
-420,-160,0,0,0,0,0,0,0,0,0,-1,804,1184,0,0
-413,-160,0,0,0,0,0,0,0,0,0,-1,811,1184,0,0
-406,-160,0,0,0,0,0,0,0,0,0,-1,818,1184,0,0
-399,-160,0,0,0,0,0,0,0,0,0,-1,825,1184,0,0
-392,-160,0,0,0,0,0,0,0,0,0,-1,832,1184,0,0
-385,-160,0,0,0,0,0,0,0,0,0,-1,839,1184,0,0
-378,-160,0,0,0,0,0,0,0,0,0,-1,846,1184,0,0
-371,-160,0,0,0,0,0,0,0,0,0,-1,853,1184,0,0
-364,-160,0,0,0,0,0,0,0,0,0,-1,860,1184,0,0
-357,-160,0,0,0,0,0,0,0,0,0,-1,867,1184,0,0
-350,-160,0,0,0,0,0,0,0,0,0,-1,874,1184,0,0
-343,-160,0,0,0,0,0,0,0,0,0,-1,881,1184,0,0
-336,-160,0,0,0,0,0,0,0,0,0,-1,888,1184,0,0
-329,-160,0,0,0,0,0,0,0,0,0,-1,895,1184,0,0
-322,-160,0,0,0,0,0,0,0,0,0,-1,902,1184,0,0
-315,-160,0,0,0,0,0,0,0,0,0,-1,909,1184,0,0
-308,-160,0,0,0,0,0,0,0,0,0,-1,916,1184,0,0
-301,-160,0,0,0,0,0,0,0,0,0,-1,923,1184,0,0
-294,-160,0,0,0,0,0,0,0,0,0,-1,930,1184,0,0
-287,-160,0,0,0,0,0,0,0,0,0,-1,937,1184,0,0
-280,-160,0,0,0,0,0,0,0,0,0,-1,944,1184,0,0
-273,-160,0,0,0,0,0,0,0,0,0,-1,951,1184,0,0
-266,-160,0,0,0,0,0,0,0,0,0,-1,958,1184,0,0
-259,-160,0,0,0,0,0,0,0,0,0,-1,965,1184,0,0
-252,-160,0,0,0,0,0,0,0,0,0,-1,972,1184,0,0
-245,-160,0,0,0,0,0,0,0,0,0,-1,979,1184,0,0
-238,-160,0,0,0,0,0,0,0,0,0,-1,986,1184,0,0
-231,-160,0,0,0,0,0,0,0,0,0,-1,993,1184,0,0
-224,-160,0,0,0,0,0,0,0,0,0,-1,1000,1184,0,0
-217,-160,0,0,0,0,0,0,0,0,0,-1,1007,1184,0,0
-210,-160,0,0,0,0,0,0,0,0,0,-1,1014,1184,0,0
-203,-160,0,0,0,0,0,0,0,0,0,-1,1021,1184,0,0
-196,-160,0,0,0,0,0,0,0,0,0,-1,1028,1184,0,0
-189,-160,0,0,0,0,0,0,0,0,0,-1,1035,1184,0,0
-182,-160,0,0,0,0,0,0,0,0,0,-1,1042,1184,0,0
-175,-160,0,0,0,0,0,0,0,0,0,-1,1049,1184,0,0
-168,-160,0,0,0,0,0,0,0,0,0,-1,1056,1184,0,0
-161,-160,0,0,0,0,0,0,0,0,0,-1,1063,1184,0,0
-154,-160,0,0,0,0,0,0,0,0,0,-1,1070,1184,0,0
-147,-160,0,0,0,0,0,0,0,0,0,-1,1077,1184,0,0
-140,-160,0,0,0,0,0,0,0,0,0,-1,1084,1184,0,0
-133,-160,0,0,0,0,0,0,0,0,0,-1,1091,1184,0,0
-126,-160,0,0,0,0,0,0,0,0,0,-1,1098,1184,0,0
-119,-160,0,0,0,0,0,0,0,0,0,-1,1105,1184,0,0
-112,-160,0,0,0,0,0,0,0,0,0,-1,1112,1184,0,0
-105,-160,0,0,0,0,0,0,0,0,0,-1,1119,1184,0,0
-98,-160,0,0,0,0,0,0,0,0,0,-1,1126,1184,0,0
-91,-160,0,0,0,0,0,0,0,0,0,-1,1133,1184,0,0
-84,-160,0,0,0,0,0,0,0,0,0,-1,1140,1184,0,0
-77,-160,0,0,0,0,0,0,0,0,0,-1,1147,1184,0,0
-70,-160,0,0,0,0,0,0,0,0,0,-1,1154,1184,0,0
-63,-160,0,0,0,0,0,0,0,0,0,-1,1161,1184,0,0
-56,-160,0,0,0,0,0,0,0,0,0,-1,1168,1184,0,0
-49,-160,0,0,0,0,0,0,0,0,0,-1,1175,1184,0,0
-42,-160,0,0,0,0,0,0,0,0,0,-1,1182,1184,0,0
-35,-160,0,0,0,0,0,0,0,0,0,-1,1189,1184,0,0
-28,-160,0,0,0,0,0,0,0,0,0,-1,1196,1184,0,0
-21,-160,0,0,0,0,0,0,0,0,0,-1,1203,1184,0,0
-14,-160,0,0,0,0,0,0,0,0,0,-1,1210,1184,0,0
-7,-160,0,0,0,0,0,0,0,0,0,-1,1217,1184,0,0
0,-160,0,0,0,0,0,0,0,0,0,-1,1224,1184,0,0
7,-160,0,0,0,0,0,0,0,0,0,-1,1231,1184,0,0
14,-160,0,0,0,0,0,0,0,0,0,-1,1238,1184,0,0
21,-160,0,0,0,0,0,0,0,0,0,-1,1245,1184,0,0
28,-160,0,0,0,0,0,0,0,0,0,-1,1252,1184,0,0
35,-160,0,0,0,0,0,0,0,0,0,-1,1259,1184,0,0
42,-160,0,0,0,0,0,0,0,0,0,-1,1266,1184,0,0
49,-160,0,0,0,0,0,0,0,0,0,-1,1273,1184,0,0
56,-160,0,0,0,0,0,0,0,0,0,-1,1280,1184,0,0
63,-160,0,0,0,0,0,0,0,0,0,-1,1287,1184,0,0
70,-160,0,0,0,0,0,0,0,0,0,-1,1294,1184,0,0
77,-160,0,0,0,0,0,0,0,0,0,-1,1301,1184,0,0
84,-160,0,0,0,0,0,0,0,0,0,-1,1308,1184,0,0
91,-160,0,0,0,0,0,0,0,0,0,-1,1315,1184,0,0
98,-160,0,0,0,0,0,0,0,0,0,-1,1322,1184,0,0
105,-160,0,0,0,0,0,0,0,0,0,-1,1329,1184,0,0
112,-160,0,0,0,0,0,0,0,0,0,-1,1336,1184,0,0
119,-160,0,0,0,0,0,0,0,0,0,-1,1343,1184,0,0
126,-160,0,0,0,0,0,0,0,0,0,-1,1350,1184,0,0
133,-160,0,0,0,0,0,0,0,0,0,-1,1357,1184,0,0
140,-160,0,0,0,0,0,0,0,0,0,-1,1364,1184,0,0
147,-160,0,0,0,0,0,0,0,0,0,-1,1371,1184,0,0
154,-160,0,0,0,0,0,0,0,0,0,-1,1378,1184,0,0
161,-160,0,0,0,0,0,0,0,0,0,-1,1385,1184,0,0
168,-160,0,0,0,0,0,0,0,0,0,-1,1392,1184,0,0
175,-160,0,0,0,0,0,0,0,0,0,-1,1399,1184,0,0
182,-160,0,0,0,0,0,0,0,0,0,-1,1406,1184,0,0
189,-160,0,0,0,0,0,0,0,0,0,-1,1413,1184,0,0
196,-160,0,0,0,0,0,0,0,0,0,-1,1420,1184,0,0
203,-160,0,0,0,0,0,0,0,0,0,-1,1427,1184,0,0
210,-160,0,0,0,0,0,0,0,0,0,-1,1434,1184,0,0
217,-160,0,0,0,0,0,0,0,0,0,-1,1441,1184,0,0
224,-160,0,0,0,0,0,0,0,0,0,-1,1448,1184,0,0
231,-160,0,0,0,0,0,0,0,0,0,-1,1455,1184,0,0
238,-160,0,0,0,0,0,0,0,0,0,-1,1462,1184,0,0
245,-160,0,0,0,0,0,0,0,0,0,-1,1469,1184,0,0
252,-160,0,0,0,0,0,0,0,0,0,-1,1476,1184,0,0
259,-160,0,0,0,0,0,0,0,0,0,-1,1483,1184,0,0
266,-160,0,0,0,0,0,0,0,0,0,-1,1490,1184,0,0
273,-160,0,0,0,0,0,0,0,0,0,-1,1497,1184,0,0
280,-160,0,0,0,0,0,0,0,0,0,-1,1504,1184,0,0
287,-160,0,0,0,0,0,0,0,0,0,-1,1511,1184,0,0
294,-160,0,0,0,0,0,0,0,0,0,-1,1518,1184,0,0
301,-160,0,0,0,0,0,0,0,0,0,-1,1525,1184,0,0
308,-160,0,0,0,0,0,0,0,0,0,-1,1532,1184,0,0
315,-160,0,0,0,0,0,0,0,0,0,-1,1539,1184,0,0
322,-160,0,0,0,0,0,0,0,0,0,-1,1546,1184,0,0
329,-160,0,0,0,0,0,0,0,0,0,-1,1553,1184,0,0
336,-160,0,0,0,0,0,0,0,0,0,-1,1560,1184,0,0
343,-160,0,0,0,0,0,0,0,0,0,-1,1567,1184,0,0
350,-160,0,0,0,0,0,0,0,0,0,-1,1574,1184,0,0
357,-160,0,0,0,0,0,0,0,0,0,-1,1581,1184,0,0
364,-160,0,0,0,0,0,0,0,0,0,-1,1588,1184,0,0
371,-160,0,0,0,0,0,0,0,0,0,-1,1595,1184,0,0
378,-160,0,0,0,0,0,0,0,0,0,-1,1602,1184,0,0
385,-160,0,0,0,0,0,0,0,0,0,-1,1609,1184,0,0
392,-160,0,0,0,0,0,0,0,0,0,-1,1616,1184,0,0
399,-160,0,0,0,0,0,0,0,0,0,-1,1623,1184,0,0
406,-160,0,0,0,0,0,0,0,0,0,-1,1630,1184,0,0
413,-160,0,0,0,0,0,0,0,0,0,-1,1637,1184,0,0
420,-160,0,0,0,0,0,0,0,0,0,-1,1644,1184,0,0
427,-160,0,0,0,0,0,0,0,0,0,-1,1651,1184,0,0
434,-160,0,0,0,0,0,0,0,0,0,-1,1658,1184,0,0
441,-160,0,0,0,0,0,0,0,0,0,-1,1665,1184,0,0
448,-160,0,0,0,0,0,0,0,0,0,-1,1672,1184,0,0
455,-160,0,0,0,0,0,0,0,0,0,-1,1679,1184,0,0
462,-160,0,0,0,0,0,0,0,0,0,-1,1686,1184,0,0
469,-160,0,0,0,0,0,0,0,0,0,-1,1693,1184,0,0
476,-160,0,0,0,0,0,0,0,0,0,-1,1700,1184,0,0
483,-160,0,0,0,0,0,0,0,0,0,-1,1707,1184,0,0
490,-160,0,0,0,0,0,0,0,0,0,-1,1714,1184,0,0
497,-160,0,0,0,0,0,0,0,0,0,-1,1721,1184,0,0
504,-160,0,0,0,0,0,0,0,0,0,-1,1728,1184,0,0
511,-160,0,0,0,0,0,0,0,0,0,-1,1735,1184,0,0
518,-160,0,0,0,0,0,0,0,0,0,-1,1742,1184,0,0
525,-160,0,0,0,0,0,0,0,0,0,-1,1749,1184,0,0
532,-160,0,0,0,0,0,0,0,0,0,-1,1756,1184,0,0
539,-160,0,0,0,0,0,0,0,0,0,-1,1763,1184,0,0
546,-160,0,0,0,0,0,0,0,0,0,-1,1770,1184,0,0
553,-160,0,0,0,0,0,0,0,0,0,-1,1777,1184,0,0
560,-160,0,0,0,0,0,0,0,0,0,-1,1784,1184,0,0
567,-160,0,0,0,0,0,0,0,0,0,-1,1791,1184,0,0
574,-160,0,0,0,0,0,0,0,0,0,-1,1798,1184,0,0
581,-160,0,0,0,0,0,0,0,0,0,-1,1805,1184,0,0
588,-160,0,0,0,0,0,0,0,0,0,-1,1812,1184,0,0
595,-160,0,0,0,0,0,0,0,0,0,-1,1819,1184,0,0
602,-160,0,0,0,0,0,0,0,0,0,-1,1826,1184,0,0
609,-160,0,0,0,0,0,0,0,0,0,-1,1833,1184,0,0
616,-160,0,0,0,0,0,0,0,0,0,-1,1840,1184,0,0
623,-160,0,0,0,0,0,0,0,0,0,-1,1847,1184,0,0
630,-160,0,0,0,0,0,0,0,0,0,-1,1854,1184,0,0
637,-160,36.4917,2.93079,0.00545326,0.000251841,-0.00421067,0.00780163,-0.00209653,-0.508751,0.00602282,0.0422935,1861,1184,36.4917,-2.9308
644,-160,36.5459,2.80481,0.00349494,-8.44252e-05,-0.00297368,0.00517596,-0.00176544,-0.514513,0.00416574,0.0421509,1868,1184,36.5459,-2.80487
651,-160,36.6584,2.51721,0.00222758,-0.000181281,-0.00205109,0.00340173,-0.00135543,-0.519915,0.00282998,0.0386831,1875,1184,36.6584,-2.51726
658,-160,36.7203,2.46021,0.00157024,-0.000246715,-0.00138261,0.00231613,-0.00099261,-0.494732,0.00196059,0.0374895,1882,1184,36.7204,-2.46019
665,-160,36.7631,2.50879,0.00128702,-0.000301108,-0.000831918,0.00164301,-0.000657099,-0.404338,0.00136803,0.036372,1889,1184,36.7631,-2.50878
672,-160,36.677,2.4519,0.000999677,-0.000562851,-0.000295285,0.00105362,-0.000616792,-0.180681,0.000975342,0.0340383,1896,1184,36.677,-2.45195
679,-160,36.6365,2.40759,0.000281587,-0.000576641,0.000135135,0.000302362,-0.000597416,0.152543,0.000528715,0.0273329,1903,1184,36.6365,-2.4076
686,-160,36.7002,2.47339,-0.00030581,-0.00073257,0.000411939,-5.52669e-05,-0.000983113,0.54643,0.000637785,0.0183584,1910,1184,36.7002,-2.47339
693,-160,36.7885,2.44714,0,0,0,0,0,0,0,-1,1917,1184,36.7884,-2.44717
700,-160,36.0328,2.39001,0,0,0,0,0,0,0,-1,1924,1184,36.0329,-2.39001
707,-160,24.5115,6.27405,0,0,0,0,0,0,0,-1,1931,1184,24.5115,-6.27401
714,-160,32.0953,6.09717,0,0,0,0,0,0,0,-1,1938,1184,32.0954,-6.09719
721,-160,32.5177,5.72156,-0.00177284,-0.000407758,0.00129735,0.000375641,-0.00255624,1.02755,0.00184218,0.0341286,1945,1184,32.5177,-5.72159
728,-160,32.6428,5.55042,0,0,0,0,0,0,0,-1,1952,1184,32.6429,-5.55047
735,-160,32.2863,5.4895,-0.00239932,-2.57094e-05,0.00153515,0.000727899,-0.00315293,1.11445,0.00238195,0.0183788,1959,1184,32.2863,-5.48953
742,-160,32.2335,5.18616,-0.00258096,0.000601191,0.00139539,0.00112639,-0.00310616,1.21081,0.00253121,0.0161763,1966,1184,32.2336,-5.18613
749,-160,32.213,4.91772,-0.00287201,0.000983195,0.00146066,0.0014741,-0.00336292,1.24657,0.00286275,0.0175057,1973,1184,32.213,-4.91774
756,-160,32.1987,4.66809,-0.00376105,0.000530614,0.00172358,0.00113711,-0.00436754,1.23245,0.00335558,0.010922,1980,1184,32.1987,-4.66812
763,-160,32.1549,4.42188,-0.0050433,-8.04074e-05,0.00210145,0.000689864,-0.00581357,1.21946,0.00412494,0.0113972,1987,1184,32.1549,-4.4219
770,-160,32.0896,4.11316,-0.00722722,-0.00150941,0.00282221,-0.00035108,-0.00838555,1.18133,0.00547709,0.0204038,1994,1184,32.0896,-4.11321
777,-160,32.1992,3.83643,-0.0106322,-0.00403718,0.00398814,-0.00215986,-0.0125095,1.13084,0.00772107,0.0341533,2001,1184,32.1992,-3.83645
784,-160,32.1125,3.52881,-0.0156893,-0.0080228,0.00572164,-0.00496904,-0.0187431,1.08054,0.0112123,0.0455022,2008,1184,32.1125,-3.52877
791,-160,31.9272,3.17297,-0.0225633,-0.0141447,0.00815524,-0.00917654,-0.0275315,1.02364,0.0161871,0.0490134,2015,1184,31.9273,-3.17299
798,-160,31.6389,2.97583,-0.0312407,-0.0228938,0.0113789,-0.0149471,-0.0391874,0.961165,0.0228359,0.0464813,2022,1184,31.6389,-2.97581
805,-160,31.2397,3.00146,-0.0419785,-0.0349512,0.0156793,-0.0223967,-0.054533,0.895624,0.0316516,0.0476181,2029,1184,31.2397,-3.00151
812,-160,0,0,0,0,0,0,0,0,0,-1,2036,1184,0,0
-700,-167,0,0,0,0,0,0,0,0,0,-1,524,1191,0,0
-693,-167,0,0,0,0,0,0,0,0,0,-1,531,1191,0,0
-686,-167,-19.9374,-0.55603,0,0,0,0,0,0,0,-1,538,1191,-19.9374,0.556054
-679,-167,-20.1088,-0.147949,0,0,0,0,0,0,0,-1,545,1191,-20.1088,0.147949
-672,-167,-20.1068,0.470215,0,0,0,0,0,0,0,-1,552,1191,-20.1068,-0.470231
-665,-167,-19.9867,1.1366,0,0,0,0,0,0,0,-1,559,1191,-19.9867,-1.13665
-658,-167,-20.4414,0.448608,0,0,0,0,0,0,0,-1,566,1191,-20.4414,-0.448634
-651,-167,-21.411,1.00586,0,0,0,0,0,0,0,-1,573,1191,-21.411,-1.00585
-644,-167,-21.3737,1.22473,-0.00389724,0.0310443,0.0118328,0.0346743,-0.00752724,1.27314,0.0259912,0.0382284,580,1191,-21.3737,-1.22478
-637,-167,-21.3689,1.43604,-0.00330379,0.0228006,0.00700917,0.0245635,-0.00506673,1.32439,0.0182999,0.0167026,587,1191,-21.3689,-1.436
-630,-167,-21.425,1.70398,-0.00289494,0.015516,0.00356227,0.0161813,-0.00356015,1.38618,0.0121494,0.00930864,594,1191,-21.425,-1.70396
-623,-167,-21.446,1.99353,-0.00277023,0.00929388,0.00089228,0.00935952,-0.00283587,1.49737,0.00736916,0.0116629,601,1191,-21.446,-1.99347
-616,-167,-21.4673,2.32654,-0.00262672,0.0046946,-0.000407143,0.00471717,-0.00264929,-1.51541,0.00430853,0.0147716,608,1191,-21.4673,-2.3265
-609,-167,-21.4911,2.68774,-0.0026461,0.00152636,-0.00066486,0.00162974,-0.00274948,-1.41654,0.00255575,0.0130058,615,1191,-21.4911,-2.68768
-602,-167,-21.5134,2.98474,-0.00289189,0.000359787,-0.000273712,0.000382666,-0.00291477,-1.4874,0.00208249,0.0142523,622,1191,-21.5134,-2.9847
-595,-167,-21.4453,3.30664,-0.00313609,0.000244175,-4.13627e-05,0.000244681,-0.00313659,-1.55856,0.00217721,0.0291011,629,1191,-21.4452,-3.30665
-588,-167,-21.58,3.59302,-0.0030164,0.000260181,6.2899e-05,0.000261388,-0.00301761,1.55161,0.00210429,0.0294928,636,1191,-21.5799,-3.59302
-581,-167,-21.6351,3.81677,0,0,0,0,0,0,0,-1,643,1191,-21.6352,-3.81673
-574,-167,-21.0272,4.521,0,0,0,0,0,0,0,-1,650,1191,-21.0271,-4.52097
-567,-167,-25.0102,-0.140869,0,0,0,0,0,0,0,-1,657,1191,-25.0102,0.140898
-560,-167,-26.2202,0.240967,0,0,0,0,0,0,0,-1,664,1191,-26.2202,-0.240972
-553,-167,-26.3141,0.464355,-0.000244622,-0.000878424,0.00260465,0.00206234,-0.00318538,0.724862,0.00305281,0.0380792,671,1191,-26.3141,-0.464316
-546,-167,-26.4087,0.543823,0.000919507,-0.0011602,0.0032252,0.00326834,-0.00350904,0.629452,0.00391374,0.0342356,678,1191,-26.4087,-0.543869
-539,-167,-26.3016,0.5896,0.00253112,-0.00188674,0.00394161,0.00484056,-0.00419619,0.529997,0.00522179,0.0378181,685,1191,-26.3016,-0.589573
-532,-167,-26.0401,0.523071,0.00484665,-0.00308317,0.0048306,0.00713116,-0.00536768,0.441753,0.00724011,0.0439441,692,1191,-26.0401,-0.523021
-525,-167,-26.946,1.34619,0,0,0,0,0,0,0,-1,699,1191,-26.946,-1.34621
-518,-167,-26.4365,1.08142,0,0,0,0,0,0,0,-1,706,1191,-26.4365,-1.0814
-511,-167,0,0,0,0,0,0,0,0,0,-1,713,1191,0,0
-504,-167,0,0,0,0,0,0,0,0,0,-1,720,1191,0,0
-497,-167,0,0,0,0,0,0,0,0,0,-1,727,1191,0,0
-490,-167,0,0,0,0,0,0,0,0,0,-1,734,1191,0,0
-483,-167,0,0,0,0,0,0,0,0,0,-1,741,1191,0,0
-476,-167,0,0,0,0,0,0,0,0,0,-1,748,1191,0,0
-469,-167,0,0,0,0,0,0,0,0,0,-1,755,1191,0,0
-462,-167,0,0,0,0,0,0,0,0,0,-1,762,1191,0,0
-455,-167,0,0,0,0,0,0,0,0,0,-1,769,1191,0,0
-448,-167,0,0,0,0,0,0,0,0,0,-1,776,1191,0,0
-441,-167,0,0,0,0,0,0,0,0,0,-1,783,1191,0,0
-434,-167,0,0,0,0,0,0,0,0,0,-1,790,1191,0,0
-427,-167,0,0,0,0,0,0,0,0,0,-1,797,1191,0,0
-420,-167,0,0,0,0,0,0,0,0,0,-1,804,1191,0,0
-413,-167,0,0,0,0,0,0,0,0,0,-1,811,1191,0,0
-406,-167,0,0,0,0,0,0,0,0,0,-1,818,1191,0,0
-399,-167,0,0,0,0,0,0,0,0,0,-1,825,1191,0,0
-392,-167,0,0,0,0,0,0,0,0,0,-1,832,1191,0,0
-385,-167,0,0,0,0,0,0,0,0,0,-1,839,1191,0,0
-378,-167,0,0,0,0,0,0,0,0,0,-1,846,1191,0,0
-371,-167,0,0,0,0,0,0,0,0,0,-1,853,1191,0,0
-364,-167,0,0,0,0,0,0,0,0,0,-1,860,1191,0,0
-357,-167,0,0,0,0,0,0,0,0,0,-1,867,1191,0,0
-350,-167,0,0,0,0,0,0,0,0,0,-1,874,1191,0,0
-343,-167,0,0,0,0,0,0,0,0,0,-1,881,1191,0,0
-336,-167,0,0,0,0,0,0,0,0,0,-1,888,1191,0,0
-329,-167,0,0,0,0,0,0,0,0,0,-1,895,1191,0,0
-322,-167,0,0,0,0,0,0,0,0,0,-1,902,1191,0,0
-315,-167,0,0,0,0,0,0,0,0,0,-1,909,1191,0,0
-308,-167,0,0,0,0,0,0,0,0,0,-1,916,1191,0,0
-301,-167,0,0,0,0,0,0,0,0,0,-1,923,1191,0,0
-294,-167,0,0,0,0,0,0,0,0,0,-1,930,1191,0,0
-287,-167,0,0,0,0,0,0,0,0,0,-1,937,1191,0,0
-280,-167,0,0,0,0,0,0,0,0,0,-1,944,1191,0,0
-273,-167,0,0,0,0,0,0,0,0,0,-1,951,1191,0,0
-266,-167,0,0,0,0,0,0,0,0,0,-1,958,1191,0,0
-259,-167,0,0,0,0,0,0,0,0,0,-1,965,1191,0,0
-252,-167,0,0,0,0,0,0,0,0,0,-1,972,1191,0,0
-245,-167,0,0,0,0,0,0,0,0,0,-1,979,1191,0,0
-238,-167,0,0,0,0,0,0,0,0,0,-1,986,1191,0,0
-231,-167,0,0,0,0,0,0,0,0,0,-1,993,1191,0,0
-224,-167,0,0,0,0,0,0,0,0,0,-1,1000,1191,0,0
-217,-167,0,0,0,0,0,0,0,0,0,-1,1007,1191,0,0
-210,-167,0,0,0,0,0,0,0,0,0,-1,1014,1191,0,0
-203,-167,0,0,0,0,0,0,0,0,0,-1,1021,1191,0,0
-196,-167,0,0,0,0,0,0,0,0,0,-1,1028,1191,0,0
-189,-167,0,0,0,0,0,0,0,0,0,-1,1035,1191,0,0
-182,-167,0,0,0,0,0,0,0,0,0,-1,1042,1191,0,0
-175,-167,0,0,0,0,0,0,0,0,0,-1,1049,1191,0,0
-168,-167,0,0,0,0,0,0,0,0,0,-1,1056,1191,0,0
-161,-167,0,0,0,0,0,0,0,0,0,-1,1063,1191,0,0
-154,-167,0,0,0,0,0,0,0,0,0,-1,1070,1191,0,0
-147,-167,0,0,0,0,0,0,0,0,0,-1,1077,1191,0,0
-140,-167,0,0,0,0,0,0,0,0,0,-1,1084,1191,0,0
-133,-167,0,0,0,0,0,0,0,0,0,-1,1091,1191,0,0
-126,-167,0,0,0,0,0,0,0,0,0,-1,1098,1191,0,0
-119,-167,0,0,0,0,0,0,0,0,0,-1,1105,1191,0,0
-112,-167,0,0,0,0,0,0,0,0,0,-1,1112,1191,0,0
-105,-167,0,0,0,0,0,0,0,0,0,-1,1119,1191,0,0
-98,-167,0,0,0,0,0,0,0,0,0,-1,1126,1191,0,0
-91,-167,0,0,0,0,0,0,0,0,0,-1,1133,1191,0,0
-84,-167,0,0,0,0,0,0,0,0,0,-1,1140,1191,0,0
-77,-167,0,0,0,0,0,0,0,0,0,-1,1147,1191,0,0
-70,-167,0,0,0,0,0,0,0,0,0,-1,1154,1191,0,0
-63,-167,0,0,0,0,0,0,0,0,0,-1,1161,1191,0,0
-56,-167,0,0,0,0,0,0,0,0,0,-1,1168,1191,0,0
-49,-167,0,0,0,0,0,0,0,0,0,-1,1175,1191,0,0
-42,-167,0,0,0,0,0,0,0,0,0,-1,1182,1191,0,0
-35,-167,0,0,0,0,0,0,0,0,0,-1,1189,1191,0,0
-28,-167,0,0,0,0,0,0,0,0,0,-1,1196,1191,0,0
-21,-167,0,0,0,0,0,0,0,0,0,-1,1203,1191,0,0
-14,-167,0,0,0,0,0,0,0,0,0,-1,1210,1191,0,0
-7,-167,0,0,0,0,0,0,0,0,0,-1,1217,1191,0,0
0,-167,0,0,0,0,0,0,0,0,0,-1,1224,1191,0,0
7,-167,0,0,0,0,0,0,0,0,0,-1,1231,1191,0,0
14,-167,0,0,0,0,0,0,0,0,0,-1,1238,1191,0,0
21,-167,0,0,0,0,0,0,0,0,0,-1,1245,1191,0,0
28,-167,0,0,0,0,0,0,0,0,0,-1,1252,1191,0,0
35,-167,0,0,0,0,0,0,0,0,0,-1,1259,1191,0,0
42,-167,0,0,0,0,0,0,0,0,0,-1,1266,1191,0,0
49,-167,0,0,0,0,0,0,0,0,0,-1,1273,1191,0,0
56,-167,0,0,0,0,0,0,0,0,0,-1,1280,1191,0,0
63,-167,0,0,0,0,0,0,0,0,0,-1,1287,1191,0,0
70,-167,0,0,0,0,0,0,0,0,0,-1,1294,1191,0,0
77,-167,0,0,0,0,0,0,0,0,0,-1,1301,1191,0,0
84,-167,0,0,0,0,0,0,0,0,0,-1,1308,1191,0,0
91,-167,0,0,0,0,0,0,0,0,0,-1,1315,1191,0,0
98,-167,0,0,0,0,0,0,0,0,0,-1,1322,1191,0,0
105,-167,0,0,0,0,0,0,0,0,0,-1,1329,1191,0,0
112,-167,0,0,0,0,0,0,0,0,0,-1,1336,1191,0,0
119,-167,0,0,0,0,0,0,0,0,0,-1,1343,1191,0,0
126,-167,0,0,0,0,0,0,0,0,0,-1,1350,1191,0,0
133,-167,0,0,0,0,0,0,0,0,0,-1,1357,1191,0,0
140,-167,0,0,0,0,0,0,0,0,0,-1,1364,1191,0,0
147,-167,0,0,0,0,0,0,0,0,0,-1,1371,1191,0,0
154,-167,0,0,0,0,0,0,0,0,0,-1,1378,1191,0,0
161,-167,0,0,0,0,0,0,0,0,0,-1,1385,1191,0,0
168,-167,0,0,0,0,0,0,0,0,0,-1,1392,1191,0,0
175,-167,0,0,0,0,0,0,0,0,0,-1,1399,1191,0,0
182,-167,0,0,0,0,0,0,0,0,0,-1,1406,1191,0,0
189,-167,0,0,0,0,0,0,0,0,0,-1,1413,1191,0,0
196,-167,0,0,0,0,0,0,0,0,0,-1,1420,1191,0,0
203,-167,0,0,0,0,0,0,0,0,0,-1,1427,1191,0,0
210,-167,0,0,0,0,0,0,0,0,0,-1,1434,1191,0,0
217,-167,0,0,0,0,0,0,0,0,0,-1,1441,1191,0,0
224,-167,0,0,0,0,0,0,0,0,0,-1,1448,1191,0,0
231,-167,0,0,0,0,0,0,0,0,0,-1,1455,1191,0,0
238,-167,0,0,0,0,0,0,0,0,0,-1,1462,1191,0,0
245,-167,0,0,0,0,0,0,0,0,0,-1,1469,1191,0,0
252,-167,0,0,0,0,0,0,0,0,0,-1,1476,1191,0,0
259,-167,0,0,0,0,0,0,0,0,0,-1,1483,1191,0,0
266,-167,0,0,0,0,0,0,0,0,0,-1,1490,1191,0,0
273,-167,0,0,0,0,0,0,0,0,0,-1,1497,1191,0,0
280,-167,0,0,0,0,0,0,0,0,0,-1,1504,1191,0,0
287,-167,0,0,0,0,0,0,0,0,0,-1,1511,1191,0,0
294,-167,0,0,0,0,0,0,0,0,0,-1,1518,1191,0,0
301,-167,0,0,0,0,0,0,0,0,0,-1,1525,1191,0,0
308,-167,0,0,0,0,0,0,0,0,0,-1,1532,1191,0,0
315,-167,0,0,0,0,0,0,0,0,0,-1,1539,1191,0,0
322,-167,0,0,0,0,0,0,0,0,0,-1,1546,1191,0,0
329,-167,0,0,0,0,0,0,0,0,0,-1,1553,1191,0,0
336,-167,0,0,0,0,0,0,0,0,0,-1,1560,1191,0,0
343,-167,0,0,0,0,0,0,0,0,0,-1,1567,1191,0,0
350,-167,0,0,0,0,0,0,0,0,0,-1,1574,1191,0,0
357,-167,0,0,0,0,0,0,0,0,0,-1,1581,1191,0,0
364,-167,0,0,0,0,0,0,0,0,0,-1,1588,1191,0,0
371,-167,0,0,0,0,0,0,0,0,0,-1,1595,1191,0,0
378,-167,0,0,0,0,0,0,0,0,0,-1,1602,1191,0,0
385,-167,0,0,0,0,0,0,0,0,0,-1,1609,1191,0,0
392,-167,0,0,0,0,0,0,0,0,0,-1,1616,1191,0,0
399,-167,0,0,0,0,0,0,0,0,0,-1,1623,1191,0,0
406,-167,0,0,0,0,0,0,0,0,0,-1,1630,1191,0,0
413,-167,0,0,0,0,0,0,0,0,0,-1,1637,1191,0,0
420,-167,0,0,0,0,0,0,0,0,0,-1,1644,1191,0,0
427,-167,0,0,0,0,0,0,0,0,0,-1,1651,1191,0,0
434,-167,0,0,0,0,0,0,0,0,0,-1,1658,1191,0,0
441,-167,0,0,0,0,0,0,0,0,0,-1,1665,1191,0,0
448,-167,0,0,0,0,0,0,0,0,0,-1,1672,1191,0,0
455,-167,0,0,0,0,0,0,0,0,0,-1,1679,1191,0,0
462,-167,0,0,0,0,0,0,0,0,0,-1,1686,1191,0,0
469,-167,0,0,0,0,0,0,0,0,0,-1,1693,1191,0,0
476,-167,0,0,0,0,0,0,0,0,0,-1,1700,1191,0,0
483,-167,0,0,0,0,0,0,0,0,0,-1,1707,1191,0,0
490,-167,0,0,0,0,0,0,0,0,0,-1,1714,1191,0,0
497,-167,0,0,0,0,0,0,0,0,0,-1,1721,1191,0,0
504,-167,0,0,0,0,0,0,0,0,0,-1,1728,1191,0,0
511,-167,0,0,0,0,0,0,0,0,0,-1,1735,1191,0,0
518,-167,0,0,0,0,0,0,0,0,0,-1,1742,1191,0,0
525,-167,0,0,0,0,0,0,0,0,0,-1,1749,1191,0,0
532,-167,0,0,0,0,0,0,0,0,0,-1,1756,1191,0,0
539,-167,0,0,0,0,0,0,0,0,0,-1,1763,1191,0,0
546,-167,0,0,0,0,0,0,0,0,0,-1,1770,1191,0,0
553,-167,0,0,0,0,0,0,0,0,0,-1,1777,1191,0,0
560,-167,0,0,0,0,0,0,0,0,0,-1,1784,1191,0,0
567,-167,0,0,0,0,0,0,0,0,0,-1,1791,1191,0,0
574,-167,0,0,0,0,0,0,0,0,0,-1,1798,1191,0,0
581,-167,0,0,0,0,0,0,0,0,0,-1,1805,1191,0,0
588,-167,0,0,0,0,0,0,0,0,0,-1,1812,1191,0,0
595,-167,0,0,0,0,0,0,0,0,0,-1,1819,1191,0,0
602,-167,0,0,0,0,0,0,0,0,0,-1,1826,1191,0,0
609,-167,0,0,0,0,0,0,0,0,0,-1,1833,1191,0,0
616,-167,0,0,0,0,0,0,0,0,0,-1,1840,1191,0,0
623,-167,0,0,0,0,0,0,0,0,0,-1,1847,1191,0,0
630,-167,0,0,0,0,0,0,0,0,0,-1,1854,1191,0,0
637,-167,36.7596,2.68591,0.00383311,0.000951453,-0.0035995,0.00626944,-0.00148488,-0.595022,0.00475255,0.0434806,1861,1191,36.7596,-2.6859
644,-167,36.8658,2.46997,0.00246931,0.000555428,-0.00265286,0.00433255,-0.00130781,-0.612302,0.00340898,0.0449074,1868,1191,36.8658,-2.46993
651,-167,36.726,2.48193,0.00167295,0.000338807,-0.00195889,0.00307524,-0.00106348,-0.621289,0.0024818,0.0417603,1875,1191,36.7259,-2.48189
658,-167,36.6975,2.50806,0.00142224,0.000133874,-0.00152804,0.00243634,-0.000880218,-0.585915,0.00198383,0.0422518,1882,1191,36.6975,-2.50812
665,-167,36.7371,2.48657,0.00139738,-1.45248e-05,-0.00115832,0.00204791,-0.000665063,-0.511724,0.00163276,0.037624,1889,1191,36.7371,-2.48655
672,-167,36.6594,2.48877,0.00117008,-0.000363748,-0.000678856,0.00142737,-0.000621043,-0.362283,0.00121281,0.0285016,1896,1191,36.6594,-2.4888
679,-167,36.6627,2.46155,0.000473994,-0.000429611,-0.000250219,0.000538655,-0.000494273,-0.252888,0.000596545,0.0224881,1903,1191,36.6627,-2.46154
686,-167,36.7083,2.50952,-0.000121637,-0.000612511,4.81247e-05,-0.000116964,-0.000617184,0.0968108,0.00037854,0.0319645,1910,1191,36.7082,-2.5095
693,-167,36.7297,2.59534,0,0,0,0,0,0,0,-1,1917,1191,36.7297,-2.59535
700,-167,28.0459,2.70508,0,0,0,0,0,0,0,-1,1924,1191,28.0459,-2.70513
707,-167,29.4708,7.10168,0,0,0,0,0,0,0,-1,1931,1191,29.4708,-7.10172
714,-167,32.2689,6.14636,0,0,0,0,0,0,0,-1,1938,1191,32.269,-6.14636
721,-167,32.4689,5.76965,0,0,0,0,0,0,0,-1,1945,1191,32.4689,-5.76968
728,-167,32.0159,5.79456,0,0,0,0,0,0,0,-1,1952,1191,32.0159,-5.79461
735,-167,31.9714,5.53198,-0.00233847,-4.90809e-05,0.00150419,0.00069644,-0.00308399,1.11065,0.0023232,0.015377,1959,1191,31.9714,-5.53192
742,-167,31.9194,5.22229,-0.00236972,0.000596727,0.00136437,0.00112881,-0.0029018,1.19895,0.00240095,0.0157328,1966,1191,31.9194,-5.22229
749,-167,31.9128,4.92834,-0.00255011,0.000887494,0.00141314,0.00139383,-0.00305645,1.22674,0.00262846,0.0140331,1973,1191,31.9129,-4.92835
756,-167,31.9198,4.6687,-0.00353053,0.000173798,0.00173922,0.000862383,-0.00421912,1.19382,0.00313993,0.0106392,1980,1191,31.9198,-4.66867
763,-167,31.8481,4.37097,-0.00493461,-0.000682066,0.00215812,0.000221268,-0.00583794,1.17438,0.00396778,0.0123947,1987,1191,31.8482,-4.37096
770,-167,31.7339,4.15186,-0.00744047,-0.00246946,0.00296075,-0.00108924,-0.00882069,1.13458,0.0055531,0.0266787,1994,1191,31.7339,-4.1518
777,-167,32.1217,3.84998,-0.0114698,-0.00555254,0.00429533,-0.0032955,-0.0137269,1.08698,0.00827448,0.0434321,2001,1191,32.1217,-3.84999
784,-167,32.0474,3.38623,-0.0175115,-0.0102446,0.00627839,-0.00662408,-0.021132,1.04771,0.0124804,0.0496641,2008,1191,32.0474,-3.38629
791,-167,31.9213,3.00244,-0.0257821,-0.0173537,0.00906512,-0.0115711,-0.0315647,1.00298,0.0184389,0.0478677,2015,1191,31.9212,-3.00249
798,-167,31.5742,3.30908,-0.0363535,-0.0273602,0.0127599,-0.0183278,-0.0453859,0.954806,0.0263646,0.0480751,2022,1191,31.5743,-3.30902
805,-167,31.1702,3.4093,-0.0497004,-0.0409617,0.0176555,-0.0271429,-0.0635191,0.9067,0.0368017,0.0470991,2029,1191,31.1701,-3.40928
812,-167,0,0,0,0,0,0,0,0,0,-1,2036,1191,0,0
-700,-174,0,0,0,0,0,0,0,0,0,-1,524,1198,0,0
-693,-174,0,0,0,0,0,0,0,0,0,-1,531,1198,0,0
-686,-174,-19.328,-1.53882,0,0,0,0,0,0,0,-1,538,1198,-19.328,1.53885
-679,-174,-20.1857,-1.77722,0,0,0,0,0,0,0,-1,545,1198,-20.1856,1.77718
-672,-174,-20.3346,-0.93811,0,0,0,0,0,0,0,-1,552,1198,-20.3346,0.938121
-665,-174,-20.1514,-0.140869,0,0,0,0,0,0,0,-1,559,1198,-20.1515,0.140824
-658,-174,-21.1301,0.43103,0,0,0,0,0,0,0,-1,566,1198,-21.1301,-0.430975
-651,-174,-21.0959,0.729492,-0.00486146,0.0499712,0.0219795,0.057694,-0.0125842,1.23291,0.0432717,0.0486701,573,1198,-21.0959,-0.729446
-644,-174,-21.0424,1.01282,-0.0040952,0.0378487,0.0149915,0.042656,-0.00890248,1.26049,0.0318226,0.0447257,580,1198,-21.0424,-1.01287
-637,-174,-21.0103,1.37134,-0.00347767,0.0275295,0.00955432,0.030237,-0.00618524,1.29465,0.0225049,0.0231106,587,1198,-21.0103,-1.3713
-630,-174,-21.0686,1.70374,-0.00303012,0.0187918,0.00548527,0.020093,-0.00433133,1.33788,0.0150484,0.0125731,594,1198,-21.0686,-1.70378
-623,-174,-21.0917,2.02002,-0.00283186,0.0115159,0.00219172,0.0118432,-0.0031592,1.42254,0.00913254,0.0133773,601,1198,-21.0917,-2.02007
-616,-174,-21.1185,2.35962,-0.00269087,0.00587392,0.000279915,0.00588306,-0.00270001,1.53816,0.00506775,0.0190869,608,1198,-21.1185,-2.35966
-609,-174,-21.1578,2.69751,-0.00277094,0.0020337,-0.000527907,0.00209102,-0.00282826,-1.46264,0.00285076,0.0213214,615,1198,-21.1578,-2.69755
-602,-174,-21.1923,2.99878,-0.00307991,0.00052834,-0.000378089,0.000567532,-0.0031191,-1.46751,0.00229212,0.0144384,622,1198,-21.1922,-2.99872
-595,-174,-21.1874,3.35425,-0.00338244,0.000334571,-0.000184341,0.000343691,-0.00339156,-1.52136,0.00238388,0.0213334,629,1198,-21.1874,-3.3542
-588,-174,-21.4388,3.56958,-0.00321504,0.000370313,-6.96651e-05,0.000371666,-0.00321639,-1.55138,0.00227828,0.0242252,636,1198,-21.4389,-3.56957
-581,-174,-21.3692,3.95569,-0.00252996,7.97728e-05,0.000423405,0.000146748,-0.00259693,1.41391,0.00178222,0.0293752,643,1198,-21.3692,-3.95566
-574,-174,-21.3204,4.43665,0,0,0,0,0,0,0,-1,650,1198,-21.3204,-4.43663
-567,-174,-22.5471,1.97351,0,0,0,0,0,0,0,-1,657,1198,-22.5471,-1.97355
-560,-174,-26.1573,0.249023,0,0,0,0,0,0,0,-1,664,1198,-26.1574,-0.249043
-553,-174,-26.2581,0.427979,-8.15518e-05,-0.000786744,0.0024376,0.00202882,-0.00289712,0.713572,0.00285868,0.0377131,671,1198,-26.2581,-0.427989
-546,-174,-26.3965,0.603882,0.00106783,-0.00101478,0.00308273,0.00328037,-0.00322732,0.622522,0.00375726,0.0295475,678,1198,-26.3965,-0.603847
-539,-174,-26.3654,0.550903,0.00261554,-0.00154314,0.00384167,0.00490451,-0.0038321,0.537344,0.00505674,0.0355915,685,1198,-26.3654,-0.550854
-532,-174,-26.2502,0.456665,0.00468742,-0.00232759,0.00477594,0.00710547,-0.00474564,0.468673,0.0068873,0.0464078,692,1198,-26.2503,-0.456695
-525,-174,-26.0959,0.571777,0.00777882,-0.00398989,0.00582289,0.0101728,-0.00638392,0.390074,0.00964213,0.0467573,699,1198,-26.0959,-0.571768
-518,-174,-26.2404,0.987549,0.0107529,-0.00696889,0.00655435,0.0129135,-0.00912957,0.318437,0.0127889,0.0434371,706,1198,-26.2404,-0.987555
-511,-174,0,0,0,0,0,0,0,0,0,-1,713,1198,0,0
-504,-174,0,0,0,0,0,0,0,0,0,-1,720,1198,0,0
-497,-174,0,0,0,0,0,0,0,0,0,-1,727,1198,0,0
-490,-174,0,0,0,0,0,0,0,0,0,-1,734,1198,0,0
-483,-174,0,0,0,0,0,0,0,0,0,-1,741,1198,0,0
-476,-174,0,0,0,0,0,0,0,0,0,-1,748,1198,0,0
-469,-174,0,0,0,0,0,0,0,0,0,-1,755,1198,0,0
-462,-174,0,0,0,0,0,0,0,0,0,-1,762,1198,0,0
-455,-174,0,0,0,0,0,0,0,0,0,-1,769,1198,0,0
-448,-174,0,0,0,0,0,0,0,0,0,-1,776,1198,0,0
-441,-174,0,0,0,0,0,0,0,0,0,-1,783,1198,0,0
-434,-174,0,0,0,0,0,0,0,0,0,-1,790,1198,0,0
-427,-174,0,0,0,0,0,0,0,0,0,-1,797,1198,0,0
-420,-174,0,0,0,0,0,0,0,0,0,-1,804,1198,0,0
-413,-174,0,0,0,0,0,0,0,0,0,-1,811,1198,0,0
-406,-174,0,0,0,0,0,0,0,0,0,-1,818,1198,0,0
-399,-174,0,0,0,0,0,0,0,0,0,-1,825,1198,0,0
-392,-174,0,0,0,0,0,0,0,0,0,-1,832,1198,0,0
-385,-174,0,0,0,0,0,0,0,0,0,-1,839,1198,0,0
-378,-174,0,0,0,0,0,0,0,0,0,-1,846,1198,0,0
-371,-174,0,0,0,0,0,0,0,0,0,-1,853,1198,0,0
-364,-174,0,0,0,0,0,0,0,0,0,-1,860,1198,0,0
-357,-174,0,0,0,0,0,0,0,0,0,-1,867,1198,0,0
-350,-174,0,0,0,0,0,0,0,0,0,-1,874,1198,0,0
-343,-174,0,0,0,0,0,0,0,0,0,-1,881,1198,0,0
-336,-174,0,0,0,0,0,0,0,0,0,-1,888,1198,0,0
-329,-174,0,0,0,0,0,0,0,0,0,-1,895,1198,0,0
-322,-174,0,0,0,0,0,0,0,0,0,-1,902,1198,0,0
-315,-174,0,0,0,0,0,0,0,0,0,-1,909,1198,0,0
-308,-174,0,0,0,0,0,0,0,0,0,-1,916,1198,0,0
-301,-174,0,0,0,0,0,0,0,0,0,-1,923,1198,0,0
-294,-174,0,0,0,0,0,0,0,0,0,-1,930,1198,0,0
-287,-174,0,0,0,0,0,0,0,0,0,-1,937,1198,0,0
-280,-174,0,0,0,0,0,0,0,0,0,-1,944,1198,0,0
-273,-174,0,0,0,0,0,0,0,0,0,-1,951,1198,0,0
-266,-174,0,0,0,0,0,0,0,0,0,-1,958,1198,0,0
-259,-174,0,0,0,0,0,0,0,0,0,-1,965,1198,0,0
-252,-174,0,0,0,0,0,0,0,0,0,-1,972,1198,0,0
-245,-174,0,0,0,0,0,0,0,0,0,-1,979,1198,0,0
-238,-174,0,0,0,0,0,0,0,0,0,-1,986,1198,0,0
-231,-174,0,0,0,0,0,0,0,0,0,-1,993,1198,0,0
-224,-174,0,0,0,0,0,0,0,0,0,-1,1000,1198,0,0
-217,-174,0,0,0,0,0,0,0,0,0,-1,1007,1198,0,0
-210,-174,0,0,0,0,0,0,0,0,0,-1,1014,1198,0,0
-203,-174,0,0,0,0,0,0,0,0,0,-1,1021,1198,0,0
-196,-174,0,0,0,0,0,0,0,0,0,-1,1028,1198,0,0
-189,-174,0,0,0,0,0,0,0,0,0,-1,1035,1198,0,0
-182,-174,0,0,0,0,0,0,0,0,0,-1,1042,1198,0,0
-175,-174,0,0,0,0,0,0,0,0,0,-1,1049,1198,0,0
-168,-174,0,0,0,0,0,0,0,0,0,-1,1056,1198,0,0
-161,-174,0,0,0,0,0,0,0,0,0,-1,1063,1198,0,0
-154,-174,0,0,0,0,0,0,0,0,0,-1,1070,1198,0,0
-147,-174,0,0,0,0,0,0,0,0,0,-1,1077,1198,0,0
-140,-174,0,0,0,0,0,0,0,0,0,-1,1084,1198,0,0
-133,-174,0,0,0,0,0,0,0,0,0,-1,1091,1198,0,0
-126,-174,0,0,0,0,0,0,0,0,0,-1,1098,1198,0,0
-119,-174,0,0,0,0,0,0,0,0,0,-1,1105,1198,0,0
-112,-174,0,0,0,0,0,0,0,0,0,-1,1112,1198,0,0
-105,-174,0,0,0,0,0,0,0,0,0,-1,1119,1198,0,0
-98,-174,0,0,0,0,0,0,0,0,0,-1,1126,1198,0,0
-91,-174,0,0,0,0,0,0,0,0,0,-1,1133,1198,0,0
-84,-174,0,0,0,0,0,0,0,0,0,-1,1140,1198,0,0
-77,-174,0,0,0,0,0,0,0,0,0,-1,1147,1198,0,0
-70,-174,0,0,0,0,0,0,0,0,0,-1,1154,1198,0,0
-63,-174,0,0,0,0,0,0,0,0,0,-1,1161,1198,0,0
-56,-174,0,0,0,0,0,0,0,0,0,-1,1168,1198,0,0
-49,-174,0,0,0,0,0,0,0,0,0,-1,1175,1198,0,0
-42,-174,0,0,0,0,0,0,0,0,0,-1,1182,1198,0,0
-35,-174,0,0,0,0,0,0,0,0,0,-1,1189,1198,0,0
-28,-174,0,0,0,0,0,0,0,0,0,-1,1196,1198,0,0
-21,-174,0,0,0,0,0,0,0,0,0,-1,1203,1198,0,0
-14,-174,0,0,0,0,0,0,0,0,0,-1,1210,1198,0,0
-7,-174,0,0,0,0,0,0,0,0,0,-1,1217,1198,0,0
0,-174,0,0,0,0,0,0,0,0,0,-1,1224,1198,0,0
7,-174,0,0,0,0,0,0,0,0,0,-1,1231,1198,0,0
14,-174,0,0,0,0,0,0,0,0,0,-1,1238,1198,0,0
21,-174,0,0,0,0,0,0,0,0,0,-1,1245,1198,0,0
28,-174,0,0,0,0,0,0,0,0,0,-1,1252,1198,0,0
35,-174,0,0,0,0,0,0,0,0,0,-1,1259,1198,0,0
42,-174,0,0,0,0,0,0,0,0,0,-1,1266,1198,0,0
49,-174,0,0,0,0,0,0,0,0,0,-1,1273,1198,0,0
56,-174,0,0,0,0,0,0,0,0,0,-1,1280,1198,0,0
63,-174,0,0,0,0,0,0,0,0,0,-1,1287,1198,0,0
70,-174,0,0,0,0,0,0,0,0,0,-1,1294,1198,0,0
77,-174,0,0,0,0,0,0,0,0,0,-1,1301,1198,0,0
84,-174,0,0,0,0,0,0,0,0,0,-1,1308,1198,0,0
91,-174,0,0,0,0,0,0,0,0,0,-1,1315,1198,0,0
98,-174,0,0,0,0,0,0,0,0,0,-1,1322,1198,0,0
105,-174,0,0,0,0,0,0,0,0,0,-1,1329,1198,0,0
112,-174,0,0,0,0,0,0,0,0,0,-1,1336,1198,0,0
119,-174,0,0,0,0,0,0,0,0,0,-1,1343,1198,0,0
126,-174,0,0,0,0,0,0,0,0,0,-1,1350,1198,0,0
133,-174,0,0,0,0,0,0,0,0,0,-1,1357,1198,0,0
140,-174,0,0,0,0,0,0,0,0,0,-1,1364,1198,0,0
147,-174,0,0,0,0,0,0,0,0,0,-1,1371,1198,0,0
154,-174,0,0,0,0,0,0,0,0,0,-1,1378,1198,0,0
161,-174,0,0,0,0,0,0,0,0,0,-1,1385,1198,0,0
168,-174,0,0,0,0,0,0,0,0,0,-1,1392,1198,0,0
175,-174,0,0,0,0,0,0,0,0,0,-1,1399,1198,0,0
182,-174,0,0,0,0,0,0,0,0,0,-1,1406,1198,0,0
189,-174,0,0,0,0,0,0,0,0,0,-1,1413,1198,0,0
196,-174,0,0,0,0,0,0,0,0,0,-1,1420,1198,0,0
203,-174,0,0,0,0,0,0,0,0,0,-1,1427,1198,0,0
210,-174,0,0,0,0,0,0,0,0,0,-1,1434,1198,0,0
217,-174,0,0,0,0,0,0,0,0,0,-1,1441,1198,0,0
224,-174,0,0,0,0,0,0,0,0,0,-1,1448,1198,0,0
231,-174,0,0,0,0,0,0,0,0,0,-1,1455,1198,0,0
238,-174,0,0,0,0,0,0,0,0,0,-1,1462,1198,0,0
245,-174,0,0,0,0,0,0,0,0,0,-1,1469,1198,0,0
252,-174,0,0,0,0,0,0,0,0,0,-1,1476,1198,0,0
259,-174,0,0,0,0,0,0,0,0,0,-1,1483,1198,0,0
266,-174,0,0,0,0,0,0,0,0,0,-1,1490,1198,0,0
273,-174,0,0,0,0,0,0,0,0,0,-1,1497,1198,0,0
280,-174,0,0,0,0,0,0,0,0,0,-1,1504,1198,0,0
287,-174,0,0,0,0,0,0,0,0,0,-1,1511,1198,0,0
294,-174,0,0,0,0,0,0,0,0,0,-1,1518,1198,0,0
301,-174,0,0,0,0,0,0,0,0,0,-1,1525,1198,0,0
308,-174,0,0,0,0,0,0,0,0,0,-1,1532,1198,0,0
315,-174,0,0,0,0,0,0,0,0,0,-1,1539,1198,0,0
322,-174,0,0,0,0,0,0,0,0,0,-1,1546,1198,0,0
329,-174,0,0,0,0,0,0,0,0,0,-1,1553,1198,0,0
336,-174,0,0,0,0,0,0,0,0,0,-1,1560,1198,0,0
343,-174,0,0,0,0,0,0,0,0,0,-1,1567,1198,0,0
350,-174,0,0,0,0,0,0,0,0,0,-1,1574,1198,0,0
357,-174,0,0,0,0,0,0,0,0,0,-1,1581,1198,0,0
364,-174,0,0,0,0,0,0,0,0,0,-1,1588,1198,0,0
371,-174,0,0,0,0,0,0,0,0,0,-1,1595,1198,0,0
378,-174,0,0,0,0,0,0,0,0,0,-1,1602,1198,0,0
385,-174,0,0,0,0,0,0,0,0,0,-1,1609,1198,0,0
392,-174,0,0,0,0,0,0,0,0,0,-1,1616,1198,0,0
399,-174,0,0,0,0,0,0,0,0,0,-1,1623,1198,0,0
406,-174,0,0,0,0,0,0,0,0,0,-1,1630,1198,0,0
413,-174,0,0,0,0,0,0,0,0,0,-1,1637,1198,0,0
420,-174,0,0,0,0,0,0,0,0,0,-1,1644,1198,0,0
427,-174,0,0,0,0,0,0,0,0,0,-1,1651,1198,0,0
434,-174,0,0,0,0,0,0,0,0,0,-1,1658,1198,0,0
441,-174,0,0,0,0,0,0,0,0,0,-1,1665,1198,0,0
448,-174,0,0,0,0,0,0,0,0,0,-1,1672,1198,0,0
455,-174,0,0,0,0,0,0,0,0,0,-1,1679,1198,0,0
462,-174,0,0,0,0,0,0,0,0,0,-1,1686,1198,0,0
469,-174,0,0,0,0,0,0,0,0,0,-1,1693,1198,0,0
476,-174,0,0,0,0,0,0,0,0,0,-1,1700,1198,0,0
483,-174,0,0,0,0,0,0,0,0,0,-1,1707,1198,0,0
490,-174,0,0,0,0,0,0,0,0,0,-1,1714,1198,0,0
497,-174,0,0,0,0,0,0,0,0,0,-1,1721,1198,0,0
504,-174,0,0,0,0,0,0,0,0,0,-1,1728,1198,0,0
511,-174,0,0,0,0,0,0,0,0,0,-1,1735,1198,0,0
518,-174,0,0,0,0,0,0,0,0,0,-1,1742,1198,0,0
525,-174,0,0,0,0,0,0,0,0,0,-1,1749,1198,0,0
532,-174,0,0,0,0,0,0,0,0,0,-1,1756,1198,0,0
539,-174,0,0,0,0,0,0,0,0,0,-1,1763,1198,0,0
546,-174,0,0,0,0,0,0,0,0,0,-1,1770,1198,0,0
553,-174,0,0,0,0,0,0,0,0,0,-1,1777,1198,0,0
560,-174,0,0,0,0,0,0,0,0,0,-1,1784,1198,0,0
567,-174,0,0,0,0,0,0,0,0,0,-1,1791,1198,0,0
574,-174,0,0,0,0,0,0,0,0,0,-1,1798,1198,0,0
581,-174,0,0,0,0,0,0,0,0,0,-1,1805,1198,0,0
588,-174,0,0,0,0,0,0,0,0,0,-1,1812,1198,0,0
595,-174,0,0,0,0,0,0,0,0,0,-1,1819,1198,0,0
602,-174,0,0,0,0,0,0,0,0,0,-1,1826,1198,0,0
609,-174,0,0,0,0,0,0,0,0,0,-1,1833,1198,0,0
616,-174,0,0,0,0,0,0,0,0,0,-1,1840,1198,0,0
623,-174,0,0,0,0,0,0,0,0,0,-1,1847,1198,0,0
630,-174,0,0,0,0,0,0,0,0,0,-1,1854,1198,0,0
637,-174,36.8398,2.61462,0.00291786,0.00138848,-0.00290177,0.00515401,-0.000847667,-0.656565,0.00375063,0.0408308,1861,1198,36.8398,-2.61465
644,-174,36.8799,2.39819,0.00192115,0.00099274,-0.00226491,0.00376893,-0.000855043,-0.684321,0.00284086,0.0420804,1868,1198,36.8799,-2.39817
651,-174,36.8358,2.44604,0.00143379,0.000741671,-0.00182925,0.00294943,-0.000773967,-0.691912,0.00226872,0.0422712,1875,1198,36.8358,-2.44603
658,-174,36.6277,2.48865,0.00143084,0.000485628,-0.00162341,0.00264904,-0.000732571,-0.643753,0.00205423,0.0386417,1882,1198,36.6276,-2.48871
665,-174,36.6056,2.48083,0.00151462,0.000314129,-0.00138772,0.00242635,-0.000597594,-0.581277,0.00184923,0.0323732,1889,1198,36.6055,-2.48083
672,-174,36.6567,2.4519,0.00127789,-6.49314e-05,-0.000943346,0.00176436,-0.000551405,-0.47612,0.0013968,0.0260568,1896,1198,36.6568,-2.45186
679,-174,36.6609,2.44653,0.000605374,-0.000162557,-0.000510658,0.000860315,-0.000417498,-0.463039,0.000752367,0.0240538,1903,1198,36.6608,-2.44653
686,-174,36.7186,2.45544,0,0,0,0,0,0,0,-1,1910,1198,36.7186,-2.45545
693,-174,36.1349,2.79163,0,0,0,0,0,0,0,-1,1917,1198,36.1349,-2.79158
700,-174,25.4004,6.11792,0,0,0,0,0,0,0,-1,1924,1198,25.4004,-6.11797
707,-174,31.9707,6.94861,0,0,0,0,0,0,0,-1,1931,1198,31.9707,-6.94863
714,-174,32.1296,6.37793,-0.00128752,-0.000363762,0.000857932,0.000148719,-0.00180001,1.03233,0.00125252,0.0455829,1938,1198,32.1296,-6.37788
721,-174,32.1438,5.875,-0.00163783,-0.000333703,0.0011264,0.000315758,-0.00228729,1.04778,0.00164028,0.0414425,1945,1198,32.1438,-5.87505
728,-174,31.723,5.78442,-0.00198115,-0.000284538,0.00141832,0.000519807,-0.0027855,1.05491,0.00205233,0.0285981,1952,1198,31.723,-5.78444
735,-174,31.6412,5.52246,-0.00221032,-2.72103e-05,0.00154771,0.000775143,-0.00301268,1.09253,0.00231059,0.0128232,1959,1198,31.6412,-5.52245
742,-174,31.6123,5.21765,-0.00200334,0.00064648,0.00140196,0.00125053,-0.00260739,1.16397,0.00227283,0.0207402,1966,1198,31.6123,-5.21769
749,-174,31.631,4.94385,-0.00194306,0.000908796,0.00146693,0.00152863,-0.0025629,1.17101,0.00238727,0.01822,1973,1198,31.6309,-4.94382
756,-174,31.6206,4.64551,-0.00273288,6.03364e-05,0.00187694,0.00100326,-0.00367581,1.10525,0.00284456,0.0110412,1980,1198,31.6205,-4.64556
763,-174,31.5714,4.33533,-0.00392164,-0.000881643,0.00238143,0.000423533,-0.00522682,1.06944,0.00363396,0.0145515,1987,1198,31.5714,-4.33532
770,-174,31.5919,4.06543,-0.00630117,-0.00282189,0.0033246,-0.000809291,-0.00831377,1.02644,0.00529341,0.0287107,1994,1198,31.5919,-4.0654
777,-174,31.7312,3.77063,-0.0103584,-0.00621866,0.00490864,-0.00296132,-0.0136157,0.984925,0.00826874,0.0479868,2001,1198,31.7312,-3.77066
784,-174,31.9608,3.31641,0,0,0,0,0,0,0,-1,2008,1198,31.9608,-3.31644
791,-174,31.8392,2.90527,-0.0252628,-0.0190818,0.0105003,-0.0112266,-0.033118,0.928519,0.0194483,0.0488087,2015,1198,31.8392,-2.90528
798,-174,31.4763,3.57654,-0.0364035,-0.0300033,0.0148643,-0.0179986,-0.0484083,0.891424,0.0282531,0.0482334,2022,1198,31.4764,-3.57659
805,-174,31.0103,4.19836,-0.0504921,-0.0447522,0.0206681,-0.0267558,-0.0684885,0.854387,0.0398558,0.0433374,2029,1198,31.0102,-4.19831
812,-174,0,0,0,0,0,0,0,0,0,-1,2036,1198,0,0
-700,-181,0,0,0,0,0,0,0,0,0,-1,524,1205,0,0
-693,-181,0,0,0,0,0,0,0,0,0,-1,531,1205,0,0
-686,-181,-18.7496,-2.49707,0,0,0,0,0,0,0,-1,538,1205,-18.7496,2.49707
-679,-181,-18.6263,-2.49438,0,0,0,0,0,0,0,-1,545,1205,-18.6263,2.49444
-672,-181,-20.1401,-2.2179,0,0,0,0,0,0,0,-1,552,1205,-20.1401,2.21786
-665,-181,-20.2204,-1.33118,-0.00946935,0.0897106,0.0458351,0.107649,-0.0274073,1.19776,0.0824344,0.0478042,559,1205,-20.2204,1.33123
-658,-181,-20.2822,-0.371338,-0.00770455,0.073144,0.0353823,0.0864415,-0.0210021,1.2113,0.065756,0.0447181,566,1205,-20.2822,0.37138
-651,-181,-20.4483,0.365723,-0.00611817,0.0574233,0.0262079,0.0668379,-0.0155328,1.22592,0.0505382,0.0472382,573,1205,-20.4483,-0.365784
-644,-181,-20.6881,0.932739,0,0,0,0,0,0,0,-1,580,1205,-20.6881,-0.932768
-637,-181,-20.6895,1.34814,-0.00390794,0.0313031,0.0123532,0.0352047,-0.00780953,1.26487,0.02646,0.0240908,587,1205,-20.6895,-1.34817
-630,-181,-20.7416,1.70447,-0.00322796,0.0214466,0.00760689,0.0236032,-0.00538458,1.29454,0.0178039,0.0125495,594,1205,-20.7416,-1.70448
-623,-181,-20.7788,2.0238,-0.00276803,0.0133959,0.00374236,0.0142203,-0.00359244,1.35397,0.0108773,0.0141615,601,1205,-20.7788,-2.02386
-616,-181,-20.781,2.36084,-0.00250266,0.00702686,0.0011994,0.0071755,-0.00265131,1.4475,0.00587052,0.0146796,608,1205,-20.781,-2.3609
-609,-181,-20.8063,2.70776,-0.00259714,0.00245975,-0.000300903,0.0024776,-0.00261498,-1.51157,0.00294056,0.015036,615,1205,-20.8062,-2.70772
-602,-181,-20.8143,3.04626,-0.00292475,0.000475885,-0.000537283,0.000558753,-0.00300762,-1.41777,0.00221495,0.0130871,622,1205,-20.8143,-3.04626
-595,-181,-20.9049,3.32153,-0.00325411,0.000115321,-0.000439845,0.000171792,-0.00331058,-1.44311,0.00226649,0.0202704,629,1205,-20.9049,-3.32149
-588,-181,-21.0629,3.69421,-0.00304727,0.000127411,-0.000347661,0.000165038,-0.0030849,-1.46299,0.00211376,0.0229186,636,1205,-21.0629,-3.6942
-581,-181,-20.988,4.11523,-0.00229225,-0.000153753,9.706e-05,-0.000149357,-0.00229665,1.52553,0.00148382,0.0227264,643,1205,-20.988,-4.11526
-574,-181,-20.9423,4.48193,0,0,0,0,0,0,0,-1,650,1205,-20.9423,-4.48187
-567,-181,-21.7781,2.03772,0,0,0,0,0,0,0,-1,657,1205,-21.7781,-2.03772
-560,-181,-26.3774,0.630737,0,0,0,0,0,0,0,-1,664,1205,-26.3774,-0.63073
-553,-181,-26.3615,0.604126,0.000254307,-0.000979277,0.0021381,0.00186281,-0.00258778,0.644973,0.00258088,0.043217,671,1205,-26.3615,-0.604109
-546,-181,-26.3663,0.59668,0.00130391,-0.00112481,0.00280657,0.00314757,-0.00296847,0.581218,0.0035316,0.0347225,678,1205,-26.3663,-0.596659
-539,-181,-26.4692,0.604858,0.00264383,-0.00143771,0.00358907,0.00473176,-0.00352564,0.52689,0.00478433,0.039173,685,1205,-26.4692,-0.604821
-532,-181,-26.2657,0.595093,0.00427892,-0.00181222,0.00455613,0.00671367,-0.00424696,0.490778,0.00638132,0.0463353,692,1205,-26.2657,-0.595141
-525,-181,-26.1513,0.727905,0.00665928,-0.00282327,0.00569028,0.00932469,-0.00548868,0.438062,0.00864756,0.0436892,699,1205,-26.1513,-0.727871
-518,-181,-26.235,0.798706,0.00927952,-0.00536732,0.00660223,0.0118162,-0.00790402,0.366828,0.0114599,0.0399283,706,1205,-26.2351,-0.798699
-511,-181,0,0,0,0,0,0,0,0,0,-1,713,1205,0,0
-504,-181,0,0,0,0,0,0,0,0,0,-1,720,1205,0,0
-497,-181,0,0,0,0,0,0,0,0,0,-1,727,1205,0,0
-490,-181,0,0,0,0,0,0,0,0,0,-1,734,1205,0,0
-483,-181,0,0,0,0,0,0,0,0,0,-1,741,1205,0,0
-476,-181,0,0,0,0,0,0,0,0,0,-1,748,1205,0,0
-469,-181,0,0,0,0,0,0,0,0,0,-1,755,1205,0,0
-462,-181,0,0,0,0,0,0,0,0,0,-1,762,1205,0,0
-455,-181,0,0,0,0,0,0,0,0,0,-1,769,1205,0,0
-448,-181,0,0,0,0,0,0,0,0,0,-1,776,1205,0,0
-441,-181,0,0,0,0,0,0,0,0,0,-1,783,1205,0,0
-434,-181,0,0,0,0,0,0,0,0,0,-1,790,1205,0,0
-427,-181,0,0,0,0,0,0,0,0,0,-1,797,1205,0,0
-420,-181,0,0,0,0,0,0,0,0,0,-1,804,1205,0,0
-413,-181,0,0,0,0,0,0,0,0,0,-1,811,1205,0,0
-406,-181,0,0,0,0,0,0,0,0,0,-1,818,1205,0,0
-399,-181,0,0,0,0,0,0,0,0,0,-1,825,1205,0,0
-392,-181,0,0,0,0,0,0,0,0,0,-1,832,1205,0,0
-385,-181,0,0,0,0,0,0,0,0,0,-1,839,1205,0,0
-378,-181,0,0,0,0,0,0,0,0,0,-1,846,1205,0,0
-371,-181,0,0,0,0,0,0,0,0,0,-1,853,1205,0,0
-364,-181,0,0,0,0,0,0,0,0,0,-1,860,1205,0,0
-357,-181,0,0,0,0,0,0,0,0,0,-1,867,1205,0,0
-350,-181,0,0,0,0,0,0,0,0,0,-1,874,1205,0,0
-343,-181,0,0,0,0,0,0,0,0,0,-1,881,1205,0,0
-336,-181,0,0,0,0,0,0,0,0,0,-1,888,1205,0,0
-329,-181,0,0,0,0,0,0,0,0,0,-1,895,1205,0,0
-322,-181,0,0,0,0,0,0,0,0,0,-1,902,1205,0,0
-315,-181,0,0,0,0,0,0,0,0,0,-1,909,1205,0,0
-308,-181,0,0,0,0,0,0,0,0,0,-1,916,1205,0,0
-301,-181,0,0,0,0,0,0,0,0,0,-1,923,1205,0,0
-294,-181,0,0,0,0,0,0,0,0,0,-1,930,1205,0,0
-287,-181,0,0,0,0,0,0,0,0,0,-1,937,1205,0,0
-280,-181,0,0,0,0,0,0,0,0,0,-1,944,1205,0,0
-273,-181,0,0,0,0,0,0,0,0,0,-1,951,1205,0,0
-266,-181,0,0,0,0,0,0,0,0,0,-1,958,1205,0,0
-259,-181,0,0,0,0,0,0,0,0,0,-1,965,1205,0,0
-252,-181,0,0,0,0,0,0,0,0,0,-1,972,1205,0,0
-245,-181,0,0,0,0,0,0,0,0,0,-1,979,1205,0,0
-238,-181,0,0,0,0,0,0,0,0,0,-1,986,1205,0,0
-231,-181,0,0,0,0,0,0,0,0,0,-1,993,1205,0,0
-224,-181,0,0,0,0,0,0,0,0,0,-1,1000,1205,0,0
-217,-181,0,0,0,0,0,0,0,0,0,-1,1007,1205,0,0
-210,-181,0,0,0,0,0,0,0,0,0,-1,1014,1205,0,0
-203,-181,0,0,0,0,0,0,0,0,0,-1,1021,1205,0,0
-196,-181,0,0,0,0,0,0,0,0,0,-1,1028,1205,0,0
-189,-181,0,0,0,0,0,0,0,0,0,-1,1035,1205,0,0
-182,-181,0,0,0,0,0,0,0,0,0,-1,1042,1205,0,0
-175,-181,0,0,0,0,0,0,0,0,0,-1,1049,1205,0,0
-168,-181,0,0,0,0,0,0,0,0,0,-1,1056,1205,0,0
-161,-181,0,0,0,0,0,0,0,0,0,-1,1063,1205,0,0
-154,-181,0,0,0,0,0,0,0,0,0,-1,1070,1205,0,0
-147,-181,0,0,0,0,0,0,0,0,0,-1,1077,1205,0,0
-140,-181,0,0,0,0,0,0,0,0,0,-1,1084,1205,0,0
-133,-181,0,0,0,0,0,0,0,0,0,-1,1091,1205,0,0
-126,-181,0,0,0,0,0,0,0,0,0,-1,1098,1205,0,0
-119,-181,0,0,0,0,0,0,0,0,0,-1,1105,1205,0,0
-112,-181,0,0,0,0,0,0,0,0,0,-1,1112,1205,0,0
-105,-181,0,0,0,0,0,0,0,0,0,-1,1119,1205,0,0
-98,-181,0,0,0,0,0,0,0,0,0,-1,1126,1205,0,0
-91,-181,0,0,0,0,0,0,0,0,0,-1,1133,1205,0,0
-84,-181,0,0,0,0,0,0,0,0,0,-1,1140,1205,0,0
-77,-181,0,0,0,0,0,0,0,0,0,-1,1147,1205,0,0
-70,-181,0,0,0,0,0,0,0,0,0,-1,1154,1205,0,0
-63,-181,0,0,0,0,0,0,0,0,0,-1,1161,1205,0,0
-56,-181,0,0,0,0,0,0,0,0,0,-1,1168,1205,0,0
-49,-181,0,0,0,0,0,0,0,0,0,-1,1175,1205,0,0
-42,-181,0,0,0,0,0,0,0,0,0,-1,1182,1205,0,0
-35,-181,0,0,0,0,0,0,0,0,0,-1,1189,1205,0,0
-28,-181,0,0,0,0,0,0,0,0,0,-1,1196,1205,0,0
-21,-181,0,0,0,0,0,0,0,0,0,-1,1203,1205,0,0
-14,-181,0,0,0,0,0,0,0,0,0,-1,1210,1205,0,0
-7,-181,0,0,0,0,0,0,0,0,0,-1,1217,1205,0,0
0,-181,0,0,0,0,0,0,0,0,0,-1,1224,1205,0,0
7,-181,0,0,0,0,0,0,0,0,0,-1,1231,1205,0,0
14,-181,0,0,0,0,0,0,0,0,0,-1,1238,1205,0,0
21,-181,0,0,0,0,0,0,0,0,0,-1,1245,1205,0,0
28,-181,0,0,0,0,0,0,0,0,0,-1,1252,1205,0,0
35,-181,0,0,0,0,0,0,0,0,0,-1,1259,1205,0,0
42,-181,0,0,0,0,0,0,0,0,0,-1,1266,1205,0,0
49,-181,0,0,0,0,0,0,0,0,0,-1,1273,1205,0,0
56,-181,0,0,0,0,0,0,0,0,0,-1,1280,1205,0,0
63,-181,0,0,0,0,0,0,0,0,0,-1,1287,1205,0,0
70,-181,0,0,0,0,0,0,0,0,0,-1,1294,1205,0,0
77,-181,0,0,0,0,0,0,0,0,0,-1,1301,1205,0,0
84,-181,0,0,0,0,0,0,0,0,0,-1,1308,1205,0,0
91,-181,0,0,0,0,0,0,0,0,0,-1,1315,1205,0,0
98,-181,0,0,0,0,0,0,0,0,0,-1,1322,1205,0,0
105,-181,0,0,0,0,0,0,0,0,0,-1,1329,1205,0,0
112,-181,0,0,0,0,0,0,0,0,0,-1,1336,1205,0,0
119,-181,0,0,0,0,0,0,0,0,0,-1,1343,1205,0,0
126,-181,0,0,0,0,0,0,0,0,0,-1,1350,1205,0,0
133,-181,0,0,0,0,0,0,0,0,0,-1,1357,1205,0,0
140,-181,0,0,0,0,0,0,0,0,0,-1,1364,1205,0,0
147,-181,0,0,0,0,0,0,0,0,0,-1,1371,1205,0,0
154,-181,0,0,0,0,0,0,0,0,0,-1,1378,1205,0,0
161,-181,0,0,0,0,0,0,0,0,0,-1,1385,1205,0,0
168,-181,0,0,0,0,0,0,0,0,0,-1,1392,1205,0,0
175,-181,0,0,0,0,0,0,0,0,0,-1,1399,1205,0,0
182,-181,0,0,0,0,0,0,0,0,0,-1,1406,1205,0,0
189,-181,0,0,0,0,0,0,0,0,0,-1,1413,1205,0,0
196,-181,0,0,0,0,0,0,0,0,0,-1,1420,1205,0,0
203,-181,0,0,0,0,0,0,0,0,0,-1,1427,1205,0,0
210,-181,0,0,0,0,0,0,0,0,0,-1,1434,1205,0,0
217,-181,0,0,0,0,0,0,0,0,0,-1,1441,1205,0,0
224,-181,0,0,0,0,0,0,0,0,0,-1,1448,1205,0,0
231,-181,0,0,0,0,0,0,0,0,0,-1,1455,1205,0,0
238,-181,0,0,0,0,0,0,0,0,0,-1,1462,1205,0,0
245,-181,0,0,0,0,0,0,0,0,0,-1,1469,1205,0,0
252,-181,0,0,0,0,0,0,0,0,0,-1,1476,1205,0,0
259,-181,0,0,0,0,0,0,0,0,0,-1,1483,1205,0,0
266,-181,0,0,0,0,0,0,0,0,0,-1,1490,1205,0,0
273,-181,0,0,0,0,0,0,0,0,0,-1,1497,1205,0,0
280,-181,0,0,0,0,0,0,0,0,0,-1,1504,1205,0,0
287,-181,0,0,0,0,0,0,0,0,0,-1,1511,1205,0,0
294,-181,0,0,0,0,0,0,0,0,0,-1,1518,1205,0,0
301,-181,0,0,0,0,0,0,0,0,0,-1,1525,1205,0,0
308,-181,0,0,0,0,0,0,0,0,0,-1,1532,1205,0,0
315,-181,0,0,0,0,0,0,0,0,0,-1,1539,1205,0,0
322,-181,0,0,0,0,0,0,0,0,0,-1,1546,1205,0,0
329,-181,0,0,0,0,0,0,0,0,0,-1,1553,1205,0,0
336,-181,0,0,0,0,0,0,0,0,0,-1,1560,1205,0,0
343,-181,0,0,0,0,0,0,0,0,0,-1,1567,1205,0,0
350,-181,0,0,0,0,0,0,0,0,0,-1,1574,1205,0,0
357,-181,0,0,0,0,0,0,0,0,0,-1,1581,1205,0,0
364,-181,0,0,0,0,0,0,0,0,0,-1,1588,1205,0,0
371,-181,0,0,0,0,0,0,0,0,0,-1,1595,1205,0,0
378,-181,0,0,0,0,0,0,0,0,0,-1,1602,1205,0,0
385,-181,0,0,0,0,0,0,0,0,0,-1,1609,1205,0,0
392,-181,0,0,0,0,0,0,0,0,0,-1,1616,1205,0,0
399,-181,0,0,0,0,0,0,0,0,0,-1,1623,1205,0,0
406,-181,0,0,0,0,0,0,0,0,0,-1,1630,1205,0,0
413,-181,0,0,0,0,0,0,0,0,0,-1,1637,1205,0,0
420,-181,0,0,0,0,0,0,0,0,0,-1,1644,1205,0,0
427,-181,0,0,0,0,0,0,0,0,0,-1,1651,1205,0,0
434,-181,0,0,0,0,0,0,0,0,0,-1,1658,1205,0,0
441,-181,0,0,0,0,0,0,0,0,0,-1,1665,1205,0,0
448,-181,0,0,0,0,0,0,0,0,0,-1,1672,1205,0,0
455,-181,0,0,0,0,0,0,0,0,0,-1,1679,1205,0,0
462,-181,0,0,0,0,0,0,0,0,0,-1,1686,1205,0,0
469,-181,0,0,0,0,0,0,0,0,0,-1,1693,1205,0,0
476,-181,0,0,0,0,0,0,0,0,0,-1,1700,1205,0,0
483,-181,0,0,0,0,0,0,0,0,0,-1,1707,1205,0,0
490,-181,0,0,0,0,0,0,0,0,0,-1,1714,1205,0,0
497,-181,0,0,0,0,0,0,0,0,0,-1,1721,1205,0,0
504,-181,0,0,0,0,0,0,0,0,0,-1,1728,1205,0,0
511,-181,0,0,0,0,0,0,0,0,0,-1,1735,1205,0,0
518,-181,0,0,0,0,0,0,0,0,0,-1,1742,1205,0,0
525,-181,0,0,0,0,0,0,0,0,0,-1,1749,1205,0,0
532,-181,0,0,0,0,0,0,0,0,0,-1,1756,1205,0,0
539,-181,0,0,0,0,0,0,0,0,0,-1,1763,1205,0,0
546,-181,0,0,0,0,0,0,0,0,0,-1,1770,1205,0,0
553,-181,0,0,0,0,0,0,0,0,0,-1,1777,1205,0,0
560,-181,0,0,0,0,0,0,0,0,0,-1,1784,1205,0,0
567,-181,0,0,0,0,0,0,0,0,0,-1,1791,1205,0,0
574,-181,0,0,0,0,0,0,0,0,0,-1,1798,1205,0,0
581,-181,0,0,0,0,0,0,0,0,0,-1,1805,1205,0,0
588,-181,0,0,0,0,0,0,0,0,0,-1,1812,1205,0,0
595,-181,0,0,0,0,0,0,0,0,0,-1,1819,1205,0,0
602,-181,0,0,0,0,0,0,0,0,0,-1,1826,1205,0,0
609,-181,0,0,0,0,0,0,0,0,0,-1,1833,1205,0,0
616,-181,0,0,0,0,0,0,0,0,0,-1,1840,1205,0,0
623,-181,0,0,0,0,0,0,0,0,0,-1,1847,1205,0,0
630,-181,36.623,2.68286,0.00378638,0.00199413,-0.0027566,0.00578885,-8.34442e-06,-0.628244,0.00386202,0.0378039,1854,1205,36.623,-2.6828
637,-181,36.7891,2.52917,0.0024549,0.00151927,-0.00224562,0.00428092,-0.000306744,-0.682706,0.00296149,0.0362962,1861,1205,36.789,-2.52923
644,-181,36.8026,2.43457,0.0016773,0.00114996,-0.0018661,0.00329827,-0.000471008,-0.715216,0.00237149,0.0399171,1868,1205,36.8026,-2.43454
651,-181,36.6991,2.54663,0.00139439,0.000893711,-0.00166196,0.00282476,-0.000536659,-0.710646,0.00208521,0.0406485,1875,1205,36.6991,-2.54666
658,-181,36.4985,2.62,0.00156119,0.000584179,-0.00163286,0.00277705,-0.000631684,-0.64005,0.00209394,0.0351271,1882,1205,36.4986,-2.62002
665,-181,36.541,2.53613,0.00171087,0.000368124,-0.00148567,0.00266982,-0.00059083,-0.573183,0.00200604,0.0313573,1889,1205,36.541,-2.53616
672,-181,36.6643,2.47852,0.00147876,-4.05102e-05,-0.00107378,0.00203444,-0.000596191,-0.477548,0.00159266,0.0249712,1896,1205,36.6643,-2.47847
679,-181,36.7107,2.5127,0.000864438,-0.00016923,-0.000651799,0.00117945,-0.000484237,-0.450189,0.000988086,0.0333864,1903,1205,36.7107,-2.51266
686,-181,36.7598,2.52856,0,0,0,0,0,0,0,-1,1910,1205,36.7598,-2.5286
693,-181,36.1301,2.91016,0,0,0,0,0,0,0,-1,1917,1205,36.1302,-2.9102
700,-181,29.5845,6.58398,0,0,0,0,0,0,0,-1,1924,1205,29.5844,-6.58395
707,-181,31.9944,6.29858,0,0,0,0,0,0,0,-1,1931,1205,31.9944,-6.29854
714,-181,31.868,6.24683,-0.00107445,-0.000434425,0.000811821,0.00011818,-0.00162705,0.973142,0.00112617,0.0405081,1938,1205,31.8681,-6.24685
721,-181,31.6857,5.9845,-0.00147754,-0.000409746,0.00113951,0.00031474,-0.00220203,1.00448,0.00158339,0.0324319,1945,1205,31.6857,-5.98444
728,-181,31.3462,5.8197,-0.00180227,-0.000367494,0.00145084,0.000533627,-0.00270339,1.015,0.00200396,0.0160731,1952,1205,31.3462,-5.81973
735,-181,31.3586,5.5343,-0.00189127,-9.53751e-05,0.00157923,0.000823343,-0.00280998,1.0439,0.00219975,0.0117509,1959,1205,31.3587,-5.53434
742,-181,31.3429,5.24854,-0.00142802,0.000623227,0.00143071,0.00135795,-0.00216274,1.09638,0.0020503,0.0177598,1966,1205,31.3429,-5.24853
749,-181,31.3173,4.92737,-0.00110422,0.000897631,0.00152324,0.00171937,-0.00192596,1.07607,0.00210576,0.0170382,1973,1205,31.3173,-4.92741
756,-181,31.3162,4.62866,-0.00161767,2.16038e-05,0.00200885,0.00137159,-0.00296765,0.979096,0.00256113,0.0123864,1980,1205,31.3162,-4.62864
763,-181,31.3398,4.34924,-0.00246423,-0.000919749,0.00260024,0.0010205,-0.00440448,0.929744,0.00332904,0.0136859,1987,1205,31.3398,-4.3492
770,-181,31.374,3.97998,-0.00454683,-0.00289996,0.00368896,5.63525e-05,-0.00750314,0.895206,0.00502098,0.0306773,1994,1205,31.374,-3.98001
777,-181,31.5358,3.56812,0,0,0,0,0,0,0,-1,2001,1205,31.5357,-3.56811
784,-181,28.9574,1.25378,0,0,0,0,0,0,0,-1,2008,1205,28.9574,-1.25381
791,-181,31.7399,2.83203,0,0,0,0,0,0,0,-1,2015,1205,31.7399,-2.83199
798,-181,31.3916,3.91638,0,0,0,0,0,0,0,-1,2022,1205,31.3917,-3.91641
805,-181,0,0,0,0,0,0,0,0,0,-1,2029,1205,0,0
812,-181,0,0,0,0,0,0,0,0,0,-1,2036,1205,0,0
-700,-188,0,0,0,0,0,0,0,0,0,-1,524,1212,0,0
-693,-188,0,0,0,0,0,0,0,0,0,-1,531,1212,0,0
-686,-188,0,0,0,0,0,0,0,0,0,-1,538,1212,0,0
-679,-188,-20.1332,-4.57971,0,0,0,0,0,0,0,-1,545,1212,-20.1332,4.57974
-672,-188,-20.2855,-3.37427,0,0,0,0,0,0,0,-1,552,1212,-20.2855,3.3743
-665,-188,-20.3818,-2.50964,-0.0099899,0.0945309,0.0551326,0.118236,-0.0336949,1.16473,0.0921329,0.046721,559,1212,-20.3818,2.50968
-658,-188,-20.4435,-1.51245,-0.00802551,0.077471,0.0428891,0.0952776,-0.0258321,1.17727,0.0736548,0.0450204,566,1212,-20.4436,1.51244
-651,-188,-20.0698,0.238647,0,0,0,0,0,0,0,-1,573,1212,-20.0698,-0.238628
-644,-188,-20.3953,0.91333,-0.0048177,0.0462969,0.0229877,0.0551142,-0.0136349,1.20454,0.0420315,0.0407843,580,1212,-20.3953,-0.913354
-637,-188,-20.4149,1.32544,-0.00373884,0.0336309,0.0156579,0.0393242,-0.00943213,1.22205,0.0298609,0.0221812,587,1212,-20.4149,-1.32538
-630,-188,-20.4321,1.71021,-0.00297178,0.0232094,0.00997428,0.0265763,-0.00633871,1.24525,0.0201653,0.0106882,594,1212,-20.4321,-1.71022
-623,-188,-20.4318,2.04114,-0.00243191,0.0147691,0.00536209,0.0163037,-0.00396653,1.29205,0.0124046,0.0105981,601,1212,-20.4318,-2.04108
-616,-188,-20.4133,2.37231,-0.00210843,0.00805975,0.00219439,0.0085131,-0.00256179,1.36706,0.00669475,0.0109864,608,1212,-20.4133,-2.37232
-609,-188,-20.421,2.73523,-0.00208643,0.00292457,9.07931e-05,0.00292622,-0.00208807,1.55269,0.00290845,0.0142269,615,1212,-20.421,-2.73529
-602,-188,-20.4387,3.10278,-0.00230424,0.000456763,-0.000557687,0.000565153,-0.00241263,-1.37883,0.00182619,0.0171394,622,1212,-20.4387,-3.10276
-595,-188,-20.4832,3.4054,-0.00256795,-6.66049e-05,-0.000549072,4.86148e-05,-0.00268317,-1.36395,0.0018052,0.014256,629,1212,-20.4832,-3.40546
-588,-188,-20.5488,3.7251,-0.00228706,-7.13762e-05,-0.000449506,1.63444e-05,-0.00237478,-1.37807,0.00158866,0.0183183,636,1212,-20.5488,-3.72507
-581,-188,-20.5836,4.05237,-0.00148746,-0.000321158,-4.37658e-05,-0.000319518,-0.0014891,-1.53334,0.000905226,0.0195281,643,1212,-20.5836,-4.05234
-574,-188,-20.9109,4.34363,0,0,0,0,0,0,0,-1,650,1212,-20.9109,-4.34368
-567,-188,-19.5786,4.10388,0,0,0,0,0,0,0,-1,657,1212,-19.5785,-4.10383
-560,-188,-23.9507,0.416626,0,0,0,0,0,0,0,-1,664,1212,-23.9508,-0.416602
-553,-188,-26.3585,0.561768,0,0,0,0,0,0,0,-1,671,1212,-26.3585,-0.561714
-546,-188,-26.3837,0.658325,0.00176823,-0.00106232,0.00266577,0.00337112,-0.00266522,0.541365,0.00349302,0.0426358,678,1212,-26.3838,-0.65836
-539,-188,-26.459,0.702515,0.00273591,-0.00122355,0.00337244,0.00466677,-0.00315441,0.519983,0.00454361,0.0376974,685,1212,-26.459,-0.702472
-532,-188,-26.3723,0.724976,0.00371229,-0.00136526,0.00418172,0.00606557,-0.00371853,0.512582,0.00570277,0.0414577,692,1212,-26.3722,-0.72503
-525,-188,-26.2931,0.772339,0.00499049,-0.00195751,0.00507718,0.00766843,-0.00463546,0.485364,0.00717524,0.0406801,699,1212,-26.2931,-0.772373
-518,-188,-26.3192,0.82373,0.00650013,-0.00405381,0.00583362,0.00908938,-0.00664306,0.417729,0.00911966,0.0408039,706,1212,-26.3192,-0.82372
-511,-188,-26.2918,0.84082,0.00960777,-0.00576502,0.00721619,0.0124643,-0.00862159,0.376928,0.0122412,0.0381857,713,1212,-26.2918,-0.840845
-504,-188,0,0,0,0,0,0,0,0,0,-1,720,1212,0,0
-497,-188,0,0,0,0,0,0,0,0,0,-1,727,1212,0,0
-490,-188,0,0,0,0,0,0,0,0,0,-1,734,1212,0,0
-483,-188,0,0,0,0,0,0,0,0,0,-1,741,1212,0,0
-476,-188,0,0,0,0,0,0,0,0,0,-1,748,1212,0,0
-469,-188,0,0,0,0,0,0,0,0,0,-1,755,1212,0,0
-462,-188,0,0,0,0,0,0,0,0,0,-1,762,1212,0,0
-455,-188,0,0,0,0,0,0,0,0,0,-1,769,1212,0,0
-448,-188,0,0,0,0,0,0,0,0,0,-1,776,1212,0,0
-441,-188,0,0,0,0,0,0,0,0,0,-1,783,1212,0,0
-434,-188,0,0,0,0,0,0,0,0,0,-1,790,1212,0,0
-427,-188,0,0,0,0,0,0,0,0,0,-1,797,1212,0,0
-420,-188,0,0,0,0,0,0,0,0,0,-1,804,1212,0,0
-413,-188,0,0,0,0,0,0,0,0,0,-1,811,1212,0,0
-406,-188,0,0,0,0,0,0,0,0,0,-1,818,1212,0,0
-399,-188,0,0,0,0,0,0,0,0,0,-1,825,1212,0,0
-392,-188,0,0,0,0,0,0,0,0,0,-1,832,1212,0,0
-385,-188,0,0,0,0,0,0,0,0,0,-1,839,1212,0,0
-378,-188,0,0,0,0,0,0,0,0,0,-1,846,1212,0,0
-371,-188,0,0,0,0,0,0,0,0,0,-1,853,1212,0,0
-364,-188,0,0,0,0,0,0,0,0,0,-1,860,1212,0,0
-357,-188,0,0,0,0,0,0,0,0,0,-1,867,1212,0,0
-350,-188,0,0,0,0,0,0,0,0,0,-1,874,1212,0,0
-343,-188,0,0,0,0,0,0,0,0,0,-1,881,1212,0,0
-336,-188,0,0,0,0,0,0,0,0,0,-1,888,1212,0,0
-329,-188,0,0,0,0,0,0,0,0,0,-1,895,1212,0,0
-322,-188,0,0,0,0,0,0,0,0,0,-1,902,1212,0,0
-315,-188,0,0,0,0,0,0,0,0,0,-1,909,1212,0,0
-308,-188,0,0,0,0,0,0,0,0,0,-1,916,1212,0,0
-301,-188,0,0,0,0,0,0,0,0,0,-1,923,1212,0,0
-294,-188,0,0,0,0,0,0,0,0,0,-1,930,1212,0,0
-287,-188,0,0,0,0,0,0,0,0,0,-1,937,1212,0,0
-280,-188,0,0,0,0,0,0,0,0,0,-1,944,1212,0,0
-273,-188,0,0,0,0,0,0,0,0,0,-1,951,1212,0,0
-266,-188,0,0,0,0,0,0,0,0,0,-1,958,1212,0,0
-259,-188,0,0,0,0,0,0,0,0,0,-1,965,1212,0,0
-252,-188,0,0,0,0,0,0,0,0,0,-1,972,1212,0,0
-245,-188,0,0,0,0,0,0,0,0,0,-1,979,1212,0,0
-238,-188,0,0,0,0,0,0,0,0,0,-1,986,1212,0,0
-231,-188,0,0,0,0,0,0,0,0,0,-1,993,1212,0,0
-224,-188,0,0,0,0,0,0,0,0,0,-1,1000,1212,0,0
-217,-188,0,0,0,0,0,0,0,0,0,-1,1007,1212,0,0
-210,-188,0,0,0,0,0,0,0,0,0,-1,1014,1212,0,0
-203,-188,0,0,0,0,0,0,0,0,0,-1,1021,1212,0,0
-196,-188,0,0,0,0,0,0,0,0,0,-1,1028,1212,0,0
-189,-188,0,0,0,0,0,0,0,0,0,-1,1035,1212,0,0
-182,-188,0,0,0,0,0,0,0,0,0,-1,1042,1212,0,0
-175,-188,0,0,0,0,0,0,0,0,0,-1,1049,1212,0,0
-168,-188,0,0,0,0,0,0,0,0,0,-1,1056,1212,0,0
-161,-188,0,0,0,0,0,0,0,0,0,-1,1063,1212,0,0
-154,-188,0,0,0,0,0,0,0,0,0,-1,1070,1212,0,0
-147,-188,0,0,0,0,0,0,0,0,0,-1,1077,1212,0,0
-140,-188,0,0,0,0,0,0,0,0,0,-1,1084,1212,0,0
-133,-188,0,0,0,0,0,0,0,0,0,-1,1091,1212,0,0
-126,-188,0,0,0,0,0,0,0,0,0,-1,1098,1212,0,0
-119,-188,0,0,0,0,0,0,0,0,0,-1,1105,1212,0,0
-112,-188,0,0,0,0,0,0,0,0,0,-1,1112,1212,0,0
-105,-188,0,0,0,0,0,0,0,0,0,-1,1119,1212,0,0
-98,-188,0,0,0,0,0,0,0,0,0,-1,1126,1212,0,0
-91,-188,0,0,0,0,0,0,0,0,0,-1,1133,1212,0,0
-84,-188,0,0,0,0,0,0,0,0,0,-1,1140,1212,0,0
-77,-188,0,0,0,0,0,0,0,0,0,-1,1147,1212,0,0
-70,-188,0,0,0,0,0,0,0,0,0,-1,1154,1212,0,0
-63,-188,0,0,0,0,0,0,0,0,0,-1,1161,1212,0,0
-56,-188,0,0,0,0,0,0,0,0,0,-1,1168,1212,0,0
-49,-188,0,0,0,0,0,0,0,0,0,-1,1175,1212,0,0
-42,-188,0,0,0,0,0,0,0,0,0,-1,1182,1212,0,0
-35,-188,0,0,0,0,0,0,0,0,0,-1,1189,1212,0,0
-28,-188,0,0,0,0,0,0,0,0,0,-1,1196,1212,0,0
-21,-188,0,0,0,0,0,0,0,0,0,-1,1203,1212,0,0
-14,-188,0,0,0,0,0,0,0,0,0,-1,1210,1212,0,0
-7,-188,0,0,0,0,0,0,0,0,0,-1,1217,1212,0,0
0,-188,0,0,0,0,0,0,0,0,0,-1,1224,1212,0,0
7,-188,0,0,0,0,0,0,0,0,0,-1,1231,1212,0,0
14,-188,0,0,0,0,0,0,0,0,0,-1,1238,1212,0,0
21,-188,0,0,0,0,0,0,0,0,0,-1,1245,1212,0,0
28,-188,0,0,0,0,0,0,0,0,0,-1,1252,1212,0,0
35,-188,0,0,0,0,0,0,0,0,0,-1,1259,1212,0,0
42,-188,0,0,0,0,0,0,0,0,0,-1,1266,1212,0,0
49,-188,0,0,0,0,0,0,0,0,0,-1,1273,1212,0,0
56,-188,0,0,0,0,0,0,0,0,0,-1,1280,1212,0,0
63,-188,0,0,0,0,0,0,0,0,0,-1,1287,1212,0,0
70,-188,0,0,0,0,0,0,0,0,0,-1,1294,1212,0,0
77,-188,0,0,0,0,0,0,0,0,0,-1,1301,1212,0,0
84,-188,0,0,0,0,0,0,0,0,0,-1,1308,1212,0,0
91,-188,0,0,0,0,0,0,0,0,0,-1,1315,1212,0,0
98,-188,0,0,0,0,0,0,0,0,0,-1,1322,1212,0,0
105,-188,0,0,0,0,0,0,0,0,0,-1,1329,1212,0,0
112,-188,0,0,0,0,0,0,0,0,0,-1,1336,1212,0,0
119,-188,0,0,0,0,0,0,0,0,0,-1,1343,1212,0,0
126,-188,0,0,0,0,0,0,0,0,0,-1,1350,1212,0,0
133,-188,0,0,0,0,0,0,0,0,0,-1,1357,1212,0,0
140,-188,0,0,0,0,0,0,0,0,0,-1,1364,1212,0,0
147,-188,0,0,0,0,0,0,0,0,0,-1,1371,1212,0,0
154,-188,0,0,0,0,0,0,0,0,0,-1,1378,1212,0,0
161,-188,0,0,0,0,0,0,0,0,0,-1,1385,1212,0,0
168,-188,0,0,0,0,0,0,0,0,0,-1,1392,1212,0,0
175,-188,0,0,0,0,0,0,0,0,0,-1,1399,1212,0,0
182,-188,0,0,0,0,0,0,0,0,0,-1,1406,1212,0,0
189,-188,0,0,0,0,0,0,0,0,0,-1,1413,1212,0,0
196,-188,0,0,0,0,0,0,0,0,0,-1,1420,1212,0,0
203,-188,0,0,0,0,0,0,0,0,0,-1,1427,1212,0,0
210,-188,0,0,0,0,0,0,0,0,0,-1,1434,1212,0,0
217,-188,0,0,0,0,0,0,0,0,0,-1,1441,1212,0,0
224,-188,0,0,0,0,0,0,0,0,0,-1,1448,1212,0,0
231,-188,0,0,0,0,0,0,0,0,0,-1,1455,1212,0,0
238,-188,0,0,0,0,0,0,0,0,0,-1,1462,1212,0,0
245,-188,0,0,0,0,0,0,0,0,0,-1,1469,1212,0,0
252,-188,0,0,0,0,0,0,0,0,0,-1,1476,1212,0,0
259,-188,0,0,0,0,0,0,0,0,0,-1,1483,1212,0,0
266,-188,0,0,0,0,0,0,0,0,0,-1,1490,1212,0,0
273,-188,0,0,0,0,0,0,0,0,0,-1,1497,1212,0,0
280,-188,0,0,0,0,0,0,0,0,0,-1,1504,1212,0,0
287,-188,0,0,0,0,0,0,0,0,0,-1,1511,1212,0,0
294,-188,0,0,0,0,0,0,0,0,0,-1,1518,1212,0,0
301,-188,0,0,0,0,0,0,0,0,0,-1,1525,1212,0,0
308,-188,0,0,0,0,0,0,0,0,0,-1,1532,1212,0,0
315,-188,0,0,0,0,0,0,0,0,0,-1,1539,1212,0,0
322,-188,0,0,0,0,0,0,0,0,0,-1,1546,1212,0,0
329,-188,0,0,0,0,0,0,0,0,0,-1,1553,1212,0,0
336,-188,0,0,0,0,0,0,0,0,0,-1,1560,1212,0,0
343,-188,0,0,0,0,0,0,0,0,0,-1,1567,1212,0,0
350,-188,0,0,0,0,0,0,0,0,0,-1,1574,1212,0,0
357,-188,0,0,0,0,0,0,0,0,0,-1,1581,1212,0,0
364,-188,0,0,0,0,0,0,0,0,0,-1,1588,1212,0,0
371,-188,0,0,0,0,0,0,0,0,0,-1,1595,1212,0,0
378,-188,0,0,0,0,0,0,0,0,0,-1,1602,1212,0,0
385,-188,0,0,0,0,0,0,0,0,0,-1,1609,1212,0,0
392,-188,0,0,0,0,0,0,0,0,0,-1,1616,1212,0,0
399,-188,0,0,0,0,0,0,0,0,0,-1,1623,1212,0,0
406,-188,0,0,0,0,0,0,0,0,0,-1,1630,1212,0,0
413,-188,0,0,0,0,0,0,0,0,0,-1,1637,1212,0,0
420,-188,0,0,0,0,0,0,0,0,0,-1,1644,1212,0,0
427,-188,0,0,0,0,0,0,0,0,0,-1,1651,1212,0,0
434,-188,0,0,0,0,0,0,0,0,0,-1,1658,1212,0,0
441,-188,0,0,0,0,0,0,0,0,0,-1,1665,1212,0,0
448,-188,0,0,0,0,0,0,0,0,0,-1,1672,1212,0,0
455,-188,0,0,0,0,0,0,0,0,0,-1,1679,1212,0,0
462,-188,0,0,0,0,0,0,0,0,0,-1,1686,1212,0,0
469,-188,0,0,0,0,0,0,0,0,0,-1,1693,1212,0,0
476,-188,0,0,0,0,0,0,0,0,0,-1,1700,1212,0,0
483,-188,0,0,0,0,0,0,0,0,0,-1,1707,1212,0,0
490,-188,0,0,0,0,0,0,0,0,0,-1,1714,1212,0,0
497,-188,0,0,0,0,0,0,0,0,0,-1,1721,1212,0,0
504,-188,0,0,0,0,0,0,0,0,0,-1,1728,1212,0,0
511,-188,0,0,0,0,0,0,0,0,0,-1,1735,1212,0,0
518,-188,0,0,0,0,0,0,0,0,0,-1,1742,1212,0,0
525,-188,0,0,0,0,0,0,0,0,0,-1,1749,1212,0,0
532,-188,0,0,0,0,0,0,0,0,0,-1,1756,1212,0,0
539,-188,0,0,0,0,0,0,0,0,0,-1,1763,1212,0,0
546,-188,0,0,0,0,0,0,0,0,0,-1,1770,1212,0,0
553,-188,0,0,0,0,0,0,0,0,0,-1,1777,1212,0,0
560,-188,0,0,0,0,0,0,0,0,0,-1,1784,1212,0,0
567,-188,0,0,0,0,0,0,0,0,0,-1,1791,1212,0,0
574,-188,0,0,0,0,0,0,0,0,0,-1,1798,1212,0,0
581,-188,0,0,0,0,0,0,0,0,0,-1,1805,1212,0,0
588,-188,0,0,0,0,0,0,0,0,0,-1,1812,1212,0,0
595,-188,0,0,0,0,0,0,0,0,0,-1,1819,1212,0,0
602,-188,0,0,0,0,0,0,0,0,0,-1,1826,1212,0,0
609,-188,0,0,0,0,0,0,0,0,0,-1,1833,1212,0,0
616,-188,0,0,0,0,0,0,0,0,0,-1,1840,1212,0,0
623,-188,0,0,0,0,0,0,0,0,0,-1,1847,1212,0,0
630,-188,36.6324,2.5105,0.00260208,0.00216505,-0.00150863,0.00390794,0.000859191,-0.713477,0.00237136,0.0405087,1854,1212,36.6324,-2.51047
637,-188,36.6851,2.41345,0.00164536,0.00171198,-0.00132254,0.00300163,0.00035571,-0.797988,0.00189369,0.0399027,1861,1212,36.6851,-2.41351
644,-188,36.7117,2.42017,0.00113484,0.00135313,-0.00126665,0.00251533,-2.73639e-05,-0.828376,0.00168608,0.0371307,1868,1212,36.7117,-2.42019
651,-188,36.5699,2.54443,0.00114277,0.00102254,-0.00136608,0.00245006,-0.000284743,-0.76341,0.00173609,0.0319812,1875,1212,36.5699,-2.54443
658,-188,36.5427,2.56641,0.00154893,0.000585578,-0.00153265,0.00267381,-0.000539302,-0.633146,0.00198686,0.0318569,1882,1212,36.5427,-2.56638
665,-188,36.5984,2.5033,0.00182684,0.000261615,-0.00148111,0.00271939,-0.000630935,-0.542345,0.00205577,0.0306154,1889,1212,36.5984,-2.50335
672,-188,36.6364,2.48364,0.00168403,-0.000213906,-0.00113661,0.00221575,-0.00074562,-0.437563,0.00177859,0.025653,1896,1212,36.6364,-2.48359
679,-188,36.6469,2.43958,0.00121512,-0.000390784,-0.000752473,0.0015126,-0.000688263,-0.376478,0.00130004,0.0496433,1903,1212,36.6468,-2.43962
686,-188,36.6853,2.43347,0,0,0,0,0,0,0,-1,1910,1212,36.6853,-2.43346
693,-188,35.9054,2.18042,0,0,0,0,0,0,0,-1,1917,1212,35.9054,-2.18038
700,-188,31.5656,6.84668,0,0,0,0,0,0,0,-1,1924,1212,31.5655,-6.8467
707,-188,31.2886,6.61182,-0.000308475,-0.000834236,0.000445508,-5.40712e-05,-0.00108864,0.518855,0.000708425,0.0288786,1931,1212,31.2886,-6.61185
714,-188,31.3193,6.40942,-0.000699831,-0.000737678,0.000765287,4.67663e-05,-0.00148428,0.773037,0.00100547,0.0259836,1938,1212,31.3193,-6.40947
721,-188,31.1599,6.16138,-0.00114524,-0.000671068,0.00113892,0.000255179,-0.00207149,0.888017,0.00147344,0.0230519,1945,1212,31.1599,-6.16132
728,-188,31.0608,5.84485,-0.00142492,-0.000588813,0.00146433,0.000515966,-0.0025297,0.924446,0.00188218,0.0102817,1952,1212,31.0608,-5.8449
735,-188,31.0466,5.54053,-0.00134547,-0.000246935,0.00158619,0.0008824,-0.00247481,0.952077,0.00200965,0.0128894,1959,1212,31.0467,-5.54055
742,-188,31.0236,5.23486,-0.000642859,0.000525745,0.00145527,0.00150963,-0.00162674,0.976301,0.00181121,0.0147486,1966,1212,31.0235,-5.23481
749,-188,31.02,4.93945,-6.29827e-05,0.000829229,0.00157241,0.00201759,-0.00125134,0.92362,0.00190453,0.0148617,1973,1212,31.02,-4.93943
756,-188,31.019,4.62756,-0.000247695,-1.08441e-05,0.0020875,0.00196159,-0.00222013,0.813733,0.00241585,0.0133459,1980,1212,31.019,-4.62758
763,-188,31.0466,4.33496,-0.000666855,-0.000913875,0.00272043,0.00193287,-0.0035136,0.762713,0.00318836,0.0154251,1987,1212,31.0466,-4.33496
770,-188,30.998,4.02722,-0.00231448,-0.00286286,0.00390182,0.00132277,-0.00650011,0.75032,0.00483502,0.0275993,1994,1212,30.998,-4.02727
777,-188,30.948,3.69067,0,0,0,0,0,0,0,-1,2001,1212,30.948,-3.69066
784,-188,33.1111,3.13062,0,0,0,0,0,0,0,-1,2008,1212,33.1111,-3.13066
791,-188,32.6324,2.58765,0,0,0,0,0,0,0,-1,2015,1212,32.6325,-2.58764
798,-188,33.0073,2.91968,0,0,0,0,0,0,0,-1,2022,1212,33.0073,-2.91962
805,-188,0,0,0,0,0,0,0,0,0,-1,2029,1212,0,0
812,-188,0,0,0,0,0,0,0,0,0,-1,2036,1212,0,0
-700,-195,0,0,0,0,0,0,0,0,0,-1,524,1219,0,0
-693,-195,0,0,0,0,0,0,0,0,0,-1,531,1219,0,0
-686,-195,0,0,0,0,0,0,0,0,0,-1,538,1219,0,0
-679,-195,-20.3583,-5.03174,-0.0155782,0.12885,0.0924968,0.173984,-0.060712,1.11684,0.140664,0.0487317,545,1219,-20.3583,5.03176
-672,-195,-20.5665,-4.24915,-0.0130801,0.114372,0.0769545,0.150561,-0.049269,1.13122,0.120211,0.0461875,552,1219,-20.5665,4.2492
-665,-195,-20.7527,-3.40918,-0.0106218,0.0973649,0.0623227,0.12583,-0.0390869,1.14235,0.0995084,0.0435282,559,1219,-20.7528,3.40919
-658,-195,-20.6443,-2.66797,-0.00841188,0.0799881,0.0489976,0.101776,-0.0301998,1.15238,0.0798443,0.0462566,566,1219,-20.6443,2.66796
-651,-195,-19.3477,0.402954,0,0,0,0,0,0,0,-1,573,1219,-19.3477,-0.40293
-644,-195,-19.6537,0.858765,-0.00480595,0.0479668,0.0270508,0.0593691,-0.0162083,1.17188,0.0459453,0.0408429,580,1219,-19.6538,-0.858743
-637,-195,-19.9833,1.34473,-0.00355036,0.0348809,0.0188139,0.0425577,-0.0112272,1.18338,0.0327618,0.0222216,587,1219,-19.9833,-1.34478
-630,-195,-20.076,1.71301,-0.00264925,0.0241647,0.0123816,0.0290074,-0.00749197,1.19797,0.0222599,0.00863308,594,1219,-20.076,-1.71301
-623,-195,-20.0789,2.04163,-0.00197518,0.0156111,0.007167,0.0181619,-0.00452599,1.22887,0.0138651,0.00858003,601,1219,-20.0788,-2.04166
-616,-195,-20.0574,2.38782,-0.00154252,0.00885792,0.00348205,0.00991605,-0.00260065,1.27578,0.00762684,0.0105805,608,1219,-20.0574,-2.38787
-609,-195,-20.0778,2.77747,-0.00137069,0.00344311,0.000815365,0.00357747,-0.00150505,1.40748,0.00301461,0.0186607,615,1219,-20.0777,-2.77752
-602,-195,-20.117,3.10571,-0.00143108,0.000559373,-0.000322103,0.000610199,-0.00148191,-1.41429,0.00124234,0.0224717,622,1219,-20.117,-3.10577
-595,-195,-20.1502,3.42908,-0.00156389,-0.00015126,-0.000460152,-1.45908e-05,-0.00170055,-1.28209,0.00112887,0.0163545,629,1219,-20.1502,-3.42909
-588,-195,-20.1279,3.7677,-0.0012017,-0.00023425,-0.000382883,-0.000101056,-0.00133489,-1.23602,0.000858228,0.0149313,636,1219,-20.1279,-3.76764
-581,-195,-20.2114,4.00635,-0.00039904,-0.000469285,-5.72784e-05,-0.000366973,-0.000501351,-0.510368,0.000299659,0.0230703,643,1219,-20.2114,-4.00639
-574,-195,-20.7608,3.82117,0,0,0,0,0,0,0,-1,650,1219,-20.7608,-3.82115
-567,-195,-20.6388,3.78369,0,0,0,0,0,0,0,-1,657,1219,-20.6388,-3.78369
-560,-195,-20.878,2.10388,0,0,0,0,0,0,0,-1,664,1219,-20.878,-2.10385
-553,-195,-26.5991,1.00024,0,0,0,0,0,0,0,-1,671,1219,-26.5991,-1.0003
-546,-195,-26.4501,0.876587,0.00244811,-0.000936737,0.0026043,0.0038616,-0.00235023,0.497261,0.00362161,0.0482829,678,1219,-26.4501,-0.876546
-539,-195,-26.3993,0.752075,0.00310511,-0.000934633,0.00322089,0.00488708,-0.00271661,0.505339,0.00444921,0.0395773,685,1219,-26.3993,-0.75212
-532,-195,-26.4129,0.674072,0.00361974,-0.000864939,0.00386019,0.00584161,-0.00308681,0.522274,0.00523597,0.0370472,692,1219,-26.4129,-0.674037
-525,-195,-26.2886,0.717896,0.00418316,-0.00106496,0.00449465,0.00676367,-0.00364547,0.52118,0.00609894,0.0420375,699,1219,-26.2887,-0.717853
-518,-195,-26.2785,0.870239,0.0047685,-0.00249522,0.00497876,0.00729931,-0.00502603,0.470282,0.00715627,0.0436898,706,1219,-26.2785,-0.870237
-511,-195,-26.2888,0.883667,0.00713382,-0.00402879,0.00614742,0.00985563,-0.0067506,0.416814,0.00964332,0.0441332,713,1219,-26.2887,-0.883625
-504,-195,0,0,0,0,0,0,0,0,0,-1,720,1219,0,0
-497,-195,0,0,0,0,0,0,0,0,0,-1,727,1219,0,0
-490,-195,0,0,0,0,0,0,0,0,0,-1,734,1219,0,0
-483,-195,0,0,0,0,0,0,0,0,0,-1,741,1219,0,0
-476,-195,0,0,0,0,0,0,0,0,0,-1,748,1219,0,0
-469,-195,0,0,0,0,0,0,0,0,0,-1,755,1219,0,0
-462,-195,0,0,0,0,0,0,0,0,0,-1,762,1219,0,0
-455,-195,0,0,0,0,0,0,0,0,0,-1,769,1219,0,0
-448,-195,0,0,0,0,0,0,0,0,0,-1,776,1219,0,0
-441,-195,0,0,0,0,0,0,0,0,0,-1,783,1219,0,0
-434,-195,0,0,0,0,0,0,0,0,0,-1,790,1219,0,0
-427,-195,0,0,0,0,0,0,0,0,0,-1,797,1219,0,0
-420,-195,0,0,0,0,0,0,0,0,0,-1,804,1219,0,0
-413,-195,0,0,0,0,0,0,0,0,0,-1,811,1219,0,0
-406,-195,0,0,0,0,0,0,0,0,0,-1,818,1219,0,0
-399,-195,0,0,0,0,0,0,0,0,0,-1,825,1219,0,0
-392,-195,0,0,0,0,0,0,0,0,0,-1,832,1219,0,0
-385,-195,0,0,0,0,0,0,0,0,0,-1,839,1219,0,0
-378,-195,0,0,0,0,0,0,0,0,0,-1,846,1219,0,0
-371,-195,0,0,0,0,0,0,0,0,0,-1,853,1219,0,0
-364,-195,0,0,0,0,0,0,0,0,0,-1,860,1219,0,0
-357,-195,0,0,0,0,0,0,0,0,0,-1,867,1219,0,0
-350,-195,0,0,0,0,0,0,0,0,0,-1,874,1219,0,0
-343,-195,0,0,0,0,0,0,0,0,0,-1,881,1219,0,0
-336,-195,0,0,0,0,0,0,0,0,0,-1,888,1219,0,0
-329,-195,0,0,0,0,0,0,0,0,0,-1,895,1219,0,0
-322,-195,0,0,0,0,0,0,0,0,0,-1,902,1219,0,0
-315,-195,0,0,0,0,0,0,0,0,0,-1,909,1219,0,0
-308,-195,0,0,0,0,0,0,0,0,0,-1,916,1219,0,0
-301,-195,0,0,0,0,0,0,0,0,0,-1,923,1219,0,0
-294,-195,0,0,0,0,0,0,0,0,0,-1,930,1219,0,0
-287,-195,0,0,0,0,0,0,0,0,0,-1,937,1219,0,0
-280,-195,0,0,0,0,0,0,0,0,0,-1,944,1219,0,0
-273,-195,0,0,0,0,0,0,0,0,0,-1,951,1219,0,0
-266,-195,0,0,0,0,0,0,0,0,0,-1,958,1219,0,0
-259,-195,0,0,0,0,0,0,0,0,0,-1,965,1219,0,0
-252,-195,0,0,0,0,0,0,0,0,0,-1,972,1219,0,0
-245,-195,0,0,0,0,0,0,0,0,0,-1,979,1219,0,0
-238,-195,0,0,0,0,0,0,0,0,0,-1,986,1219,0,0
-231,-195,0,0,0,0,0,0,0,0,0,-1,993,1219,0,0
-224,-195,0,0,0,0,0,0,0,0,0,-1,1000,1219,0,0
-217,-195,0,0,0,0,0,0,0,0,0,-1,1007,1219,0,0
-210,-195,0,0,0,0,0,0,0,0,0,-1,1014,1219,0,0
-203,-195,0,0,0,0,0,0,0,0,0,-1,1021,1219,0,0
-196,-195,0,0,0,0,0,0,0,0,0,-1,1028,1219,0,0
-189,-195,0,0,0,0,0,0,0,0,0,-1,1035,1219,0,0
-182,-195,0,0,0,0,0,0,0,0,0,-1,1042,1219,0,0
-175,-195,0,0,0,0,0,0,0,0,0,-1,1049,1219,0,0
-168,-195,0,0,0,0,0,0,0,0,0,-1,1056,1219,0,0
-161,-195,0,0,0,0,0,0,0,0,0,-1,1063,1219,0,0
-154,-195,0,0,0,0,0,0,0,0,0,-1,1070,1219,0,0
-147,-195,0,0,0,0,0,0,0,0,0,-1,1077,1219,0,0
-140,-195,0,0,0,0,0,0,0,0,0,-1,1084,1219,0,0
-133,-195,0,0,0,0,0,0,0,0,0,-1,1091,1219,0,0
-126,-195,0,0,0,0,0,0,0,0,0,-1,1098,1219,0,0
-119,-195,0,0,0,0,0,0,0,0,0,-1,1105,1219,0,0
-112,-195,0,0,0,0,0,0,0,0,0,-1,1112,1219,0,0
-105,-195,0,0,0,0,0,0,0,0,0,-1,1119,1219,0,0
-98,-195,0,0,0,0,0,0,0,0,0,-1,1126,1219,0,0
-91,-195,0,0,0,0,0,0,0,0,0,-1,1133,1219,0,0
-84,-195,0,0,0,0,0,0,0,0,0,-1,1140,1219,0,0
-77,-195,0,0,0,0,0,0,0,0,0,-1,1147,1219,0,0
-70,-195,0,0,0,0,0,0,0,0,0,-1,1154,1219,0,0
-63,-195,0,0,0,0,0,0,0,0,0,-1,1161,1219,0,0
-56,-195,0,0,0,0,0,0,0,0,0,-1,1168,1219,0,0
-49,-195,0,0,0,0,0,0,0,0,0,-1,1175,1219,0,0
-42,-195,0,0,0,0,0,0,0,0,0,-1,1182,1219,0,0
-35,-195,0,0,0,0,0,0,0,0,0,-1,1189,1219,0,0
-28,-195,0,0,0,0,0,0,0,0,0,-1,1196,1219,0,0
-21,-195,0,0,0,0,0,0,0,0,0,-1,1203,1219,0,0
-14,-195,0,0,0,0,0,0,0,0,0,-1,1210,1219,0,0
-7,-195,0,0,0,0,0,0,0,0,0,-1,1217,1219,0,0
0,-195,0,0,0,0,0,0,0,0,0,-1,1224,1219,0,0
7,-195,0,0,0,0,0,0,0,0,0,-1,1231,1219,0,0
14,-195,0,0,0,0,0,0,0,0,0,-1,1238,1219,0,0
21,-195,0,0,0,0,0,0,0,0,0,-1,1245,1219,0,0
28,-195,0,0,0,0,0,0,0,0,0,-1,1252,1219,0,0
35,-195,0,0,0,0,0,0,0,0,0,-1,1259,1219,0,0
42,-195,0,0,0,0,0,0,0,0,0,-1,1266,1219,0,0
49,-195,0,0,0,0,0,0,0,0,0,-1,1273,1219,0,0
56,-195,0,0,0,0,0,0,0,0,0,-1,1280,1219,0,0
63,-195,0,0,0,0,0,0,0,0,0,-1,1287,1219,0,0
70,-195,0,0,0,0,0,0,0,0,0,-1,1294,1219,0,0
77,-195,0,0,0,0,0,0,0,0,0,-1,1301,1219,0,0
84,-195,0,0,0,0,0,0,0,0,0,-1,1308,1219,0,0
91,-195,0,0,0,0,0,0,0,0,0,-1,1315,1219,0,0
98,-195,0,0,0,0,0,0,0,0,0,-1,1322,1219,0,0
105,-195,0,0,0,0,0,0,0,0,0,-1,1329,1219,0,0
112,-195,0,0,0,0,0,0,0,0,0,-1,1336,1219,0,0
119,-195,0,0,0,0,0,0,0,0,0,-1,1343,1219,0,0
126,-195,0,0,0,0,0,0,0,0,0,-1,1350,1219,0,0
133,-195,0,0,0,0,0,0,0,0,0,-1,1357,1219,0,0
140,-195,0,0,0,0,0,0,0,0,0,-1,1364,1219,0,0
147,-195,0,0,0,0,0,0,0,0,0,-1,1371,1219,0,0
154,-195,0,0,0,0,0,0,0,0,0,-1,1378,1219,0,0
161,-195,0,0,0,0,0,0,0,0,0,-1,1385,1219,0,0
168,-195,0,0,0,0,0,0,0,0,0,-1,1392,1219,0,0
175,-195,0,0,0,0,0,0,0,0,0,-1,1399,1219,0,0
182,-195,0,0,0,0,0,0,0,0,0,-1,1406,1219,0,0
189,-195,0,0,0,0,0,0,0,0,0,-1,1413,1219,0,0
196,-195,0,0,0,0,0,0,0,0,0,-1,1420,1219,0,0
203,-195,0,0,0,0,0,0,0,0,0,-1,1427,1219,0,0
210,-195,0,0,0,0,0,0,0,0,0,-1,1434,1219,0,0
217,-195,0,0,0,0,0,0,0,0,0,-1,1441,1219,0,0
224,-195,0,0,0,0,0,0,0,0,0,-1,1448,1219,0,0
231,-195,0,0,0,0,0,0,0,0,0,-1,1455,1219,0,0
238,-195,0,0,0,0,0,0,0,0,0,-1,1462,1219,0,0
245,-195,0,0,0,0,0,0,0,0,0,-1,1469,1219,0,0
252,-195,0,0,0,0,0,0,0,0,0,-1,1476,1219,0,0
259,-195,0,0,0,0,0,0,0,0,0,-1,1483,1219,0,0
266,-195,0,0,0,0,0,0,0,0,0,-1,1490,1219,0,0
273,-195,0,0,0,0,0,0,0,0,0,-1,1497,1219,0,0
280,-195,0,0,0,0,0,0,0,0,0,-1,1504,1219,0,0
287,-195,0,0,0,0,0,0,0,0,0,-1,1511,1219,0,0
294,-195,0,0,0,0,0,0,0,0,0,-1,1518,1219,0,0
301,-195,0,0,0,0,0,0,0,0,0,-1,1525,1219,0,0
308,-195,0,0,0,0,0,0,0,0,0,-1,1532,1219,0,0
315,-195,0,0,0,0,0,0,0,0,0,-1,1539,1219,0,0
322,-195,0,0,0,0,0,0,0,0,0,-1,1546,1219,0,0
329,-195,0,0,0,0,0,0,0,0,0,-1,1553,1219,0,0
336,-195,0,0,0,0,0,0,0,0,0,-1,1560,1219,0,0
343,-195,0,0,0,0,0,0,0,0,0,-1,1567,1219,0,0
350,-195,0,0,0,0,0,0,0,0,0,-1,1574,1219,0,0
357,-195,0,0,0,0,0,0,0,0,0,-1,1581,1219,0,0
364,-195,0,0,0,0,0,0,0,0,0,-1,1588,1219,0,0
371,-195,0,0,0,0,0,0,0,0,0,-1,1595,1219,0,0
378,-195,0,0,0,0,0,0,0,0,0,-1,1602,1219,0,0
385,-195,0,0,0,0,0,0,0,0,0,-1,1609,1219,0,0
392,-195,0,0,0,0,0,0,0,0,0,-1,1616,1219,0,0
399,-195,0,0,0,0,0,0,0,0,0,-1,1623,1219,0,0
406,-195,0,0,0,0,0,0,0,0,0,-1,1630,1219,0,0
413,-195,0,0,0,0,0,0,0,0,0,-1,1637,1219,0,0
420,-195,0,0,0,0,0,0,0,0,0,-1,1644,1219,0,0
427,-195,0,0,0,0,0,0,0,0,0,-1,1651,1219,0,0
434,-195,0,0,0,0,0,0,0,0,0,-1,1658,1219,0,0
441,-195,0,0,0,0,0,0,0,0,0,-1,1665,1219,0,0
448,-195,0,0,0,0,0,0,0,0,0,-1,1672,1219,0,0
455,-195,0,0,0,0,0,0,0,0,0,-1,1679,1219,0,0
462,-195,0,0,0,0,0,0,0,0,0,-1,1686,1219,0,0
469,-195,0,0,0,0,0,0,0,0,0,-1,1693,1219,0,0
476,-195,0,0,0,0,0,0,0,0,0,-1,1700,1219,0,0
483,-195,0,0,0,0,0,0,0,0,0,-1,1707,1219,0,0
490,-195,0,0,0,0,0,0,0,0,0,-1,1714,1219,0,0
497,-195,0,0,0,0,0,0,0,0,0,-1,1721,1219,0,0
504,-195,0,0,0,0,0,0,0,0,0,-1,1728,1219,0,0
511,-195,0,0,0,0,0,0,0,0,0,-1,1735,1219,0,0
518,-195,0,0,0,0,0,0,0,0,0,-1,1742,1219,0,0
525,-195,0,0,0,0,0,0,0,0,0,-1,1749,1219,0,0
532,-195,0,0,0,0,0,0,0,0,0,-1,1756,1219,0,0
539,-195,0,0,0,0,0,0,0,0,0,-1,1763,1219,0,0
546,-195,0,0,0,0,0,0,0,0,0,-1,1770,1219,0,0
553,-195,0,0,0,0,0,0,0,0,0,-1,1777,1219,0,0
560,-195,0,0,0,0,0,0,0,0,0,-1,1784,1219,0,0
567,-195,0,0,0,0,0,0,0,0,0,-1,1791,1219,0,0
574,-195,0,0,0,0,0,0,0,0,0,-1,1798,1219,0,0
581,-195,0,0,0,0,0,0,0,0,0,-1,1805,1219,0,0
588,-195,0,0,0,0,0,0,0,0,0,-1,1812,1219,0,0
595,-195,0,0,0,0,0,0,0,0,0,-1,1819,1219,0,0
602,-195,0,0,0,0,0,0,0,0,0,-1,1826,1219,0,0
609,-195,0,0,0,0,0,0,0,0,0,-1,1833,1219,0,0
616,-195,0,0,0,0,0,0,0,0,0,-1,1840,1219,0,0
623,-195,0,0,0,0,0,0,0,0,0,-1,1847,1219,0,0
630,-195,36.5992,2.35291,0.00132012,0.0020061,-0.000436806,0.00221848,0.00110773,-1.11823,0.00128084,0.0388289,1854,1219,36.5993,-2.35295
637,-195,36.646,2.51465,0.000672566,0.00168731,-0.000557107,0.00193346,0.000426416,-1.15475,0.00117296,0.0383875,1861,1219,36.646,-2.51468
644,-195,36.637,2.55054,0.000472103,0.00138329,-0.000808294,0.00185555,-1.53435e-07,-1.04203,0.00123708,0.0355562,1868,1219,36.6369,-2.55052
651,-195,36.6083,2.54102,0.000833198,0.00102028,-0.00119445,0.00212484,-0.000271364,-0.824475,0.00151514,0.0285275,1875,1219,36.6082,-2.54098
658,-195,36.6261,2.52783,0.00148489,0.000516559,-0.00151494,0.00259116,-0.000589704,-0.630731,0.0019539,0.0248316,1882,1219,36.6261,-2.52782
665,-195,36.6667,2.4679,0.00190242,0.000132118,-0.00154125,0.00279461,-0.00076007,-0.524741,0.00216144,0.0230308,1889,1219,36.6667,-2.46785
672,-195,36.6559,2.39661,0.00189627,-0.000363952,-0.00129531,0.00248516,-0.00095285,-0.426703,0.0020496,0.0343655,1896,1219,36.6558,-2.39656
679,-195,36.6289,2.29932,0.00163569,-0.000572395,-0.000974205,0.00200406,-0.00094076,-0.361502,0.00173674,0.0475926,1903,1219,36.6289,-2.29927
686,-195,36.6719,2.23584,0,0,0,0,0,0,0,-1,1910,1219,36.6718,-2.23589
693,-195,24.4368,5.68298,0,0,0,0,0,0,0,-1,1917,1219,24.4368,-5.68293
700,-195,30.7473,7.28687,0,0,0,0,0,0,0,-1,1924,1219,30.7473,-7.28686
707,-195,30.7715,6.83923,0.000393007,-0.00122574,0.000231343,0.00042542,-0.00125815,0.139203,0.00101087,0.0292766,1931,1219,30.7715,-6.83926
714,-195,30.7528,6.39648,-4.1549e-05,-0.00112279,0.000637395,0.00025362,-0.00141795,0.433683,0.0010402,0.0304325,1938,1219,30.7527,-6.39649
721,-195,30.7524,6.15906,-0.000517616,-0.00101986,0.00108515,0.000345088,-0.00188257,0.67169,0.00138449,0.0147523,1945,1219,30.7525,-6.15909
728,-195,30.7417,5.87549,-0.000742013,-0.000866097,0.00145028,0.000647552,-0.00225566,0.764021,0.0017598,0.0101033,1952,1219,30.7416,-5.87546
735,-195,30.7368,5.52673,-0.000492508,-0.000414457,0.00158584,0.00113284,-0.0020398,0.7977,0.0018565,0.0122252,1959,1219,30.7368,-5.52674
742,-195,30.7189,5.21191,0.00042714,0.000419015,0.00148622,0.0019093,-0.00106315,0.784031,0.00173917,0.0139401,1966,1219,30.7189,-5.21186
749,-195,30.7152,4.93604,0.00131359,0.000793763,0.00159446,0.00266919,-0.000561833,0.704604,0.0019933,0.0142275,1973,1219,30.7152,-4.93607
756,-195,30.7206,4.62756,0.00160677,0.000102644,0.00205117,0.0030394,-0.00132999,0.609683,0.00258622,0.0135231,1980,1219,30.7206,-4.62754
763,-195,30.7313,4.33374,0.00182615,-0.000659515,0.0026152,0.00347881,-0.00231218,0.563579,0.00336597,0.0164202,1987,1219,30.7313,-4.33373
770,-195,30.7142,4.16125,0.000934403,-0.00243613,0.00374398,0.00335492,-0.00485665,0.573918,0.00476731,0.0326189,1994,1219,30.7143,-4.16131
777,-195,30.7328,4.05859,0,0,0,0,0,0,0,-1,2001,1219,30.7328,-4.05864
784,-195,33.4717,2.00452,0,0,0,0,0,0,0,-1,2008,1219,33.4717,-2.00449
791,-195,33.4631,2.66418,0,0,0,0,0,0,0,-1,2015,1219,33.4632,-2.66422
798,-195,33.2454,3.11206,0,0,0,0,0,0,0,-1,2022,1219,33.2453,-3.11208
805,-195,0,0,0,0,0,0,0,0,0,-1,2029,1219,0,0
812,-195,0,0,0,0,0,0,0,0,0,-1,2036,1219,0,0
-700,-202,0,0,0,0,0,0,0,0,0,-1,524,1226,0,0
-693,-202,0,0,0,0,0,0,0,0,0,-1,531,1226,0,0
-686,-202,0,0,0,0,0,0,0,0,0,-1,538,1226,0,0
-679,-202,-20.5982,-5.48926,-0.0178183,0.127951,0.0979215,0.177135,-0.0670025,1.10533,0.145655,0.048619,545,1226,-20.5982,5.48926
-672,-202,-20.7805,-4.75073,-0.0144294,0.114104,0.0817812,0.153849,-0.0541741,1.11842,0.124613,0.0451204,552,1226,-20.7804,4.75068
-665,-202,-20.9448,-4.03906,-0.0112992,0.0976854,0.0666006,0.129246,-0.0428595,1.12827,0.103453,0.0435523,559,1226,-20.9448,4.03902
-658,-202,-21.0938,-3.46985,-0.00856825,0.0805571,0.0526106,0.104942,-0.0329527,1.13678,0.0831511,0.0452192,566,1226,-21.0938,3.4699
-651,-202,-21.2686,-3.00879,0,0,0,0,0,0,0,-1,573,1226,-21.2686,3.00876
-644,-202,-19.1241,0.943359,0,0,0,0,0,0,0,-1,580,1226,-19.1242,-0.943331
-637,-202,-19.6185,1.36877,-0.00286171,0.035279,0.0206642,0.0443278,-0.0119105,1.15805,0.0342201,0.0338358,587,1226,-19.6185,-1.36878
-630,-202,-19.702,1.69958,-0.00182757,0.0244934,0.0138219,0.0304181,-0.00775224,1.16584,0.0232968,0.0147243,594,1226,-19.702,-1.69955
-623,-202,-19.7315,2.03162,-0.00105166,0.0160102,0.00832531,0.0193993,-0.00444078,1.1842,0.0146394,0.0089979,601,1226,-19.7315,-2.03165
-616,-202,-19.7264,2.38562,-0.000552983,0.00935174,0.00442416,0.0110401,-0.00224134,1.20623,0.0082098,0.00901162,608,1226,-19.7264,-2.38557
-609,-202,-19.7457,2.74731,-0.000315482,0.00387245,0.00150956,0.00435985,-0.000802883,1.25849,0.00320786,0.02186,615,1226,-19.7457,-2.74737
-602,-202,-19.7836,3.06641,-0.000314123,0.000673448,0.000110191,0.000685593,-0.000326268,1.46102,0.00059635,0.0219175,622,1226,-19.7836,-3.06643
-595,-202,-19.7959,3.44116,-0.000382358,-0.000289838,-0.000106128,-0.000220326,-0.00045187,-0.990925,0.000260914,0.0172016,629,1226,-19.7959,-3.44121
-588,-202,-19.7286,3.79163,6.13565e-05,-0.000527118,-4.02227e-05,6.4093e-05,-0.000529855,-0.0679297,0.000376424,0.0104967,636,1226,-19.7286,-3.79164
-581,-202,-19.7083,4.03333,0.000859287,-0.000783253,0.000223554,0.00088917,-0.000813135,0.132883,0.000983153,0.0320752,643,1226,-19.7082,-4.03329
-574,-202,-20.0477,4.07593,0.00144018,-0.00116247,0.000778862,0.00165545,-0.00137775,0.269663,0.00175366,0.0430374,650,1226,-20.0478,-4.07595
-567,-202,-20.3392,4.13074,0,0,0,0,0,0,0,-1,657,1226,-20.3392,-4.13076
-560,-202,-10.929,2.73096,0,0,0,0,0,0,0,-1,664,1226,-10.929,-2.73092
-553,-202,-26.5464,0.988647,0,0,0,0,0,0,0,-1,671,1226,-26.5464,-0.988682
-546,-202,-26.3292,0.789429,0.00326115,-0.000787159,0.00275991,0.00465962,-0.00218562,0.468998,0.00403722,0.0497004,678,1226,-26.3292,-0.789439
-539,-202,-26.3371,0.778564,0.00366023,-0.000585277,0.00324632,0.00541622,-0.00234127,0.495844,0.00459458,0.0429243,685,1226,-26.3371,-0.77854
-532,-202,-26.3891,0.699097,0.003824,-0.00029224,0.00367183,0.00597518,-0.00244342,0.529958,0.00500102,0.0322489,692,1226,-26.3891,-0.699053
-525,-202,-26.334,0.670532,0.00388902,-0.000108715,0.00398599,0.00634926,-0.00256895,0.552985,0.00530088,0.0373819,699,1226,-26.334,-0.67052
-518,-202,-26.3091,0.809692,0.00376598,-0.000737621,0.00408651,0.00618003,-0.00315167,0.53358,0.00548141,0.0414437,706,1226,-26.3091,-0.809653
-511,-202,-26.2667,0.998657,0.00524229,-0.00181426,0.00477635,0.00765221,-0.00422419,0.467284,0.0069514,0.0458317,713,1226,-26.2667,-0.998612
-504,-202,0,0,0,0,0,0,0,0,0,-1,720,1226,0,0
-497,-202,0,0,0,0,0,0,0,0,0,-1,727,1226,0,0
-490,-202,0,0,0,0,0,0,0,0,0,-1,734,1226,0,0
-483,-202,0,0,0,0,0,0,0,0,0,-1,741,1226,0,0
-476,-202,0,0,0,0,0,0,0,0,0,-1,748,1226,0,0
-469,-202,0,0,0,0,0,0,0,0,0,-1,755,1226,0,0
-462,-202,0,0,0,0,0,0,0,0,0,-1,762,1226,0,0
-455,-202,0,0,0,0,0,0,0,0,0,-1,769,1226,0,0
-448,-202,0,0,0,0,0,0,0,0,0,-1,776,1226,0,0
-441,-202,0,0,0,0,0,0,0,0,0,-1,783,1226,0,0
-434,-202,0,0,0,0,0,0,0,0,0,-1,790,1226,0,0
-427,-202,0,0,0,0,0,0,0,0,0,-1,797,1226,0,0
-420,-202,0,0,0,0,0,0,0,0,0,-1,804,1226,0,0
-413,-202,0,0,0,0,0,0,0,0,0,-1,811,1226,0,0
-406,-202,0,0,0,0,0,0,0,0,0,-1,818,1226,0,0
-399,-202,0,0,0,0,0,0,0,0,0,-1,825,1226,0,0
-392,-202,0,0,0,0,0,0,0,0,0,-1,832,1226,0,0
-385,-202,0,0,0,0,0,0,0,0,0,-1,839,1226,0,0
-378,-202,0,0,0,0,0,0,0,0,0,-1,846,1226,0,0
-371,-202,0,0,0,0,0,0,0,0,0,-1,853,1226,0,0
-364,-202,0,0,0,0,0,0,0,0,0,-1,860,1226,0,0
-357,-202,0,0,0,0,0,0,0,0,0,-1,867,1226,0,0
-350,-202,0,0,0,0,0,0,0,0,0,-1,874,1226,0,0
-343,-202,0,0,0,0,0,0,0,0,0,-1,881,1226,0,0
-336,-202,0,0,0,0,0,0,0,0,0,-1,888,1226,0,0
-329,-202,0,0,0,0,0,0,0,0,0,-1,895,1226,0,0
-322,-202,0,0,0,0,0,0,0,0,0,-1,902,1226,0,0
-315,-202,0,0,0,0,0,0,0,0,0,-1,909,1226,0,0
-308,-202,0,0,0,0,0,0,0,0,0,-1,916,1226,0,0
-301,-202,0,0,0,0,0,0,0,0,0,-1,923,1226,0,0
-294,-202,0,0,0,0,0,0,0,0,0,-1,930,1226,0,0
-287,-202,0,0,0,0,0,0,0,0,0,-1,937,1226,0,0
-280,-202,0,0,0,0,0,0,0,0,0,-1,944,1226,0,0
-273,-202,0,0,0,0,0,0,0,0,0,-1,951,1226,0,0
-266,-202,0,0,0,0,0,0,0,0,0,-1,958,1226,0,0
-259,-202,0,0,0,0,0,0,0,0,0,-1,965,1226,0,0
-252,-202,0,0,0,0,0,0,0,0,0,-1,972,1226,0,0
-245,-202,0,0,0,0,0,0,0,0,0,-1,979,1226,0,0
-238,-202,0,0,0,0,0,0,0,0,0,-1,986,1226,0,0
-231,-202,0,0,0,0,0,0,0,0,0,-1,993,1226,0,0
-224,-202,0,0,0,0,0,0,0,0,0,-1,1000,1226,0,0
-217,-202,0,0,0,0,0,0,0,0,0,-1,1007,1226,0,0
-210,-202,0,0,0,0,0,0,0,0,0,-1,1014,1226,0,0
-203,-202,0,0,0,0,0,0,0,0,0,-1,1021,1226,0,0
-196,-202,0,0,0,0,0,0,0,0,0,-1,1028,1226,0,0
-189,-202,0,0,0,0,0,0,0,0,0,-1,1035,1226,0,0
-182,-202,0,0,0,0,0,0,0,0,0,-1,1042,1226,0,0
-175,-202,0,0,0,0,0,0,0,0,0,-1,1049,1226,0,0
-168,-202,0,0,0,0,0,0,0,0,0,-1,1056,1226,0,0
-161,-202,0,0,0,0,0,0,0,0,0,-1,1063,1226,0,0
-154,-202,0,0,0,0,0,0,0,0,0,-1,1070,1226,0,0
-147,-202,0,0,0,0,0,0,0,0,0,-1,1077,1226,0,0
-140,-202,0,0,0,0,0,0,0,0,0,-1,1084,1226,0,0
-133,-202,0,0,0,0,0,0,0,0,0,-1,1091,1226,0,0
-126,-202,0,0,0,0,0,0,0,0,0,-1,1098,1226,0,0
-119,-202,0,0,0,0,0,0,0,0,0,-1,1105,1226,0,0
-112,-202,0,0,0,0,0,0,0,0,0,-1,1112,1226,0,0
-105,-202,0,0,0,0,0,0,0,0,0,-1,1119,1226,0,0
-98,-202,0,0,0,0,0,0,0,0,0,-1,1126,1226,0,0
-91,-202,0,0,0,0,0,0,0,0,0,-1,1133,1226,0,0
-84,-202,0,0,0,0,0,0,0,0,0,-1,1140,1226,0,0
-77,-202,0,0,0,0,0,0,0,0,0,-1,1147,1226,0,0
-70,-202,0,0,0,0,0,0,0,0,0,-1,1154,1226,0,0
-63,-202,0,0,0,0,0,0,0,0,0,-1,1161,1226,0,0
-56,-202,0,0,0,0,0,0,0,0,0,-1,1168,1226,0,0
-49,-202,0,0,0,0,0,0,0,0,0,-1,1175,1226,0,0
-42,-202,0,0,0,0,0,0,0,0,0,-1,1182,1226,0,0
-35,-202,0,0,0,0,0,0,0,0,0,-1,1189,1226,0,0
-28,-202,0,0,0,0,0,0,0,0,0,-1,1196,1226,0,0
-21,-202,0,0,0,0,0,0,0,0,0,-1,1203,1226,0,0
-14,-202,0,0,0,0,0,0,0,0,0,-1,1210,1226,0,0
-7,-202,0,0,0,0,0,0,0,0,0,-1,1217,1226,0,0
0,-202,0,0,0,0,0,0,0,0,0,-1,1224,1226,0,0
7,-202,0,0,0,0,0,0,0,0,0,-1,1231,1226,0,0
14,-202,0,0,0,0,0,0,0,0,0,-1,1238,1226,0,0
21,-202,0,0,0,0,0,0,0,0,0,-1,1245,1226,0,0
28,-202,0,0,0,0,0,0,0,0,0,-1,1252,1226,0,0
35,-202,0,0,0,0,0,0,0,0,0,-1,1259,1226,0,0
42,-202,0,0,0,0,0,0,0,0,0,-1,1266,1226,0,0
49,-202,0,0,0,0,0,0,0,0,0,-1,1273,1226,0,0
56,-202,0,0,0,0,0,0,0,0,0,-1,1280,1226,0,0
63,-202,0,0,0,0,0,0,0,0,0,-1,1287,1226,0,0
70,-202,0,0,0,0,0,0,0,0,0,-1,1294,1226,0,0
77,-202,0,0,0,0,0,0,0,0,0,-1,1301,1226,0,0
84,-202,0,0,0,0,0,0,0,0,0,-1,1308,1226,0,0
91,-202,0,0,0,0,0,0,0,0,0,-1,1315,1226,0,0
98,-202,0,0,0,0,0,0,0,0,0,-1,1322,1226,0,0
105,-202,0,0,0,0,0,0,0,0,0,-1,1329,1226,0,0
112,-202,0,0,0,0,0,0,0,0,0,-1,1336,1226,0,0
119,-202,0,0,0,0,0,0,0,0,0,-1,1343,1226,0,0
126,-202,0,0,0,0,0,0,0,0,0,-1,1350,1226,0,0
133,-202,0,0,0,0,0,0,0,0,0,-1,1357,1226,0,0
140,-202,0,0,0,0,0,0,0,0,0,-1,1364,1226,0,0
147,-202,0,0,0,0,0,0,0,0,0,-1,1371,1226,0,0
154,-202,0,0,0,0,0,0,0,0,0,-1,1378,1226,0,0
161,-202,0,0,0,0,0,0,0,0,0,-1,1385,1226,0,0
168,-202,0,0,0,0,0,0,0,0,0,-1,1392,1226,0,0
175,-202,0,0,0,0,0,0,0,0,0,-1,1399,1226,0,0
182,-202,0,0,0,0,0,0,0,0,0,-1,1406,1226,0,0
189,-202,0,0,0,0,0,0,0,0,0,-1,1413,1226,0,0
196,-202,0,0,0,0,0,0,0,0,0,-1,1420,1226,0,0
203,-202,0,0,0,0,0,0,0,0,0,-1,1427,1226,0,0
210,-202,0,0,0,0,0,0,0,0,0,-1,1434,1226,0,0
217,-202,0,0,0,0,0,0,0,0,0,-1,1441,1226,0,0
224,-202,0,0,0,0,0,0,0,0,0,-1,1448,1226,0,0
231,-202,0,0,0,0,0,0,0,0,0,-1,1455,1226,0,0
238,-202,0,0,0,0,0,0,0,0,0,-1,1462,1226,0,0
245,-202,0,0,0,0,0,0,0,0,0,-1,1469,1226,0,0
252,-202,0,0,0,0,0,0,0,0,0,-1,1476,1226,0,0
259,-202,0,0,0,0,0,0,0,0,0,-1,1483,1226,0,0
266,-202,0,0,0,0,0,0,0,0,0,-1,1490,1226,0,0
273,-202,0,0,0,0,0,0,0,0,0,-1,1497,1226,0,0
280,-202,0,0,0,0,0,0,0,0,0,-1,1504,1226,0,0
287,-202,0,0,0,0,0,0,0,0,0,-1,1511,1226,0,0
294,-202,0,0,0,0,0,0,0,0,0,-1,1518,1226,0,0
301,-202,0,0,0,0,0,0,0,0,0,-1,1525,1226,0,0
308,-202,0,0,0,0,0,0,0,0,0,-1,1532,1226,0,0
315,-202,0,0,0,0,0,0,0,0,0,-1,1539,1226,0,0
322,-202,0,0,0,0,0,0,0,0,0,-1,1546,1226,0,0
329,-202,0,0,0,0,0,0,0,0,0,-1,1553,1226,0,0
336,-202,0,0,0,0,0,0,0,0,0,-1,1560,1226,0,0
343,-202,0,0,0,0,0,0,0,0,0,-1,1567,1226,0,0
350,-202,0,0,0,0,0,0,0,0,0,-1,1574,1226,0,0
357,-202,0,0,0,0,0,0,0,0,0,-1,1581,1226,0,0
364,-202,0,0,0,0,0,0,0,0,0,-1,1588,1226,0,0
371,-202,0,0,0,0,0,0,0,0,0,-1,1595,1226,0,0
378,-202,0,0,0,0,0,0,0,0,0,-1,1602,1226,0,0
385,-202,0,0,0,0,0,0,0,0,0,-1,1609,1226,0,0
392,-202,0,0,0,0,0,0,0,0,0,-1,1616,1226,0,0
399,-202,0,0,0,0,0,0,0,0,0,-1,1623,1226,0,0
406,-202,0,0,0,0,0,0,0,0,0,-1,1630,1226,0,0
413,-202,0,0,0,0,0,0,0,0,0,-1,1637,1226,0,0
420,-202,0,0,0,0,0,0,0,0,0,-1,1644,1226,0,0
427,-202,0,0,0,0,0,0,0,0,0,-1,1651,1226,0,0
434,-202,0,0,0,0,0,0,0,0,0,-1,1658,1226,0,0
441,-202,0,0,0,0,0,0,0,0,0,-1,1665,1226,0,0
448,-202,0,0,0,0,0,0,0,0,0,-1,1672,1226,0,0
455,-202,0,0,0,0,0,0,0,0,0,-1,1679,1226,0,0
462,-202,0,0,0,0,0,0,0,0,0,-1,1686,1226,0,0
469,-202,0,0,0,0,0,0,0,0,0,-1,1693,1226,0,0
476,-202,0,0,0,0,0,0,0,0,0,-1,1700,1226,0,0
483,-202,0,0,0,0,0,0,0,0,0,-1,1707,1226,0,0
490,-202,0,0,0,0,0,0,0,0,0,-1,1714,1226,0,0
497,-202,0,0,0,0,0,0,0,0,0,-1,1721,1226,0,0
504,-202,0,0,0,0,0,0,0,0,0,-1,1728,1226,0,0
511,-202,0,0,0,0,0,0,0,0,0,-1,1735,1226,0,0
518,-202,0,0,0,0,0,0,0,0,0,-1,1742,1226,0,0
525,-202,0,0,0,0,0,0,0,0,0,-1,1749,1226,0,0
532,-202,0,0,0,0,0,0,0,0,0,-1,1756,1226,0,0
539,-202,0,0,0,0,0,0,0,0,0,-1,1763,1226,0,0
546,-202,0,0,0,0,0,0,0,0,0,-1,1770,1226,0,0
553,-202,0,0,0,0,0,0,0,0,0,-1,1777,1226,0,0
560,-202,0,0,0,0,0,0,0,0,0,-1,1784,1226,0,0
567,-202,0,0,0,0,0,0,0,0,0,-1,1791,1226,0,0
574,-202,0,0,0,0,0,0,0,0,0,-1,1798,1226,0,0
581,-202,0,0,0,0,0,0,0,0,0,-1,1805,1226,0,0
588,-202,0,0,0,0,0,0,0,0,0,-1,1812,1226,0,0
595,-202,0,0,0,0,0,0,0,0,0,-1,1819,1226,0,0
602,-202,0,0,0,0,0,0,0,0,0,-1,1826,1226,0,0
609,-202,0,0,0,0,0,0,0,0,0,-1,1833,1226,0,0
616,-202,0,0,0,0,0,0,0,0,0,-1,1840,1226,0,0
623,-202,0,0,0,0,0,0,0,0,0,-1,1847,1226,0,0
630,-202,36.5521,2.4408,0.000291655,0.00181011,0.000214557,0.00183984,0.00026192,1.43309,0.00114925,0.0343945,1854,1226,36.5521,-2.44086
637,-202,36.6787,2.5907,2.68347e-05,0.00157422,-0.000118584,0.00158325,1.77997e-05,-1.49475,0.00104962,0.0340742,1861,1226,36.6787,-2.59073
644,-202,36.6801,2.58423,0.000186022,0.00124449,-0.000572185,0.00149466,-6.41567e-05,-1.15861,0.0010185,0.0325793,1868,1226,36.6801,-2.58423
651,-202,36.6958,2.50879,0.000820659,0.000867994,-0.00113108,0.00197565,-0.000286999,-0.795859,0.00142245,0.0272258,1875,1226,36.6958,-2.50881
658,-202,36.6827,2.45642,0.00156864,0.000384514,-0.00151692,0.00260494,-0.000651789,-0.599337,0.0019898,0.0230785,1882,1226,36.6827,-2.45644
665,-202,36.697,2.44934,0.00201163,4.39149e-05,-0.00158712,0.0028951,-0.000839554,-0.507935,0.00226245,0.0210455,1889,1226,36.6971,-2.44933
672,-202,36.7521,2.45862,0.00206012,-0.00038233,-0.00144517,0.00273096,-0.00105317,-0.434596,0.00225522,0.04103,1896,1226,36.7521,-2.45867
679,-202,36.8955,2.38037,0.00197707,-0.000560847,-0.00121571,0.00246544,-0.00104921,-0.381984,0.00208337,0.0461576,1903,1226,36.8955,-2.38037
686,-202,37.1454,2.45105,0,0,0,0,0,0,0,-1,1910,1226,37.1454,-2.45099
693,-202,30.2089,7.63977,0,0,0,0,0,0,0,-1,1917,1226,30.2089,-7.63974
700,-202,30.2814,7.18262,0.00132277,-0.00138473,-0.000425781,0.00138815,-0.00145011,-0.152362,0.0016388,0.0430329,1924,1226,30.2814,-7.18259
707,-202,30.3718,6.69336,0.00109112,-0.00146693,-0.00010193,0.00109518,-0.00147098,-0.0397625,0.00148686,0.0338405,1931,1226,30.3718,-6.6933
714,-202,30.4114,6.37512,0.000640194,-0.00136614,0.000409818,0.000720676,-0.00144663,0.193916,0.00127448,0.019788,1938,1226,30.4113,-6.37518
721,-202,30.4358,6.1355,0.000199208,-0.00122544,0.000935454,0.000662672,-0.00168891,0.459995,0.00140012,0.0135517,1945,1226,30.4358,-6.13553
728,-202,30.4308,5.85327,8.57267e-05,-0.000982995,0.00133539,0.000989703,-0.00188697,0.595079,0.00168756,0.0105938,1952,1226,30.4308,-5.85323
735,-202,30.4268,5.53821,0.000526632,-0.000412117,0.00149572,0.00162489,-0.00151038,0.633358,0.00181055,0.0107435,1959,1226,30.4268,-5.53826
742,-202,30.4193,5.23352,0.00162256,0.000500866,0.00143713,0.0026044,-0.000480975,0.599359,0.00191681,0.0106643,1966,1226,30.4193,-5.23356
749,-202,30.3843,4.93823,0.00275921,0.00102791,0.00153364,0.00365464,0.000132474,0.528467,0.00239349,0.0107099,1973,1226,30.3843,-4.93826
756,-202,30.3929,4.62854,0.00351404,0.000639181,0.00190266,0.00446121,-0.000307987,0.461897,0.00308194,0.0107357,1980,1226,30.3929,-4.62859
763,-202,30.4454,4.37927,0.00439296,0.000186043,0.0023612,0.00545175,-0.000872745,0.421532,0.00395762,0.0172135,1987,1226,30.4455,-4.37931
770,-202,30.6366,4.18201,0.00437494,-0.00118252,0.00337083,0.00596471,-0.0027723,0.440693,0.00515534,0.0451684,1994,1226,30.6366,-4.18202
777,-202,30.8719,3.95911,0,0,0,0,0,0,0,-1,2001,1226,30.872,-3.95905
784,-202,34.0176,2.00122,0,0,0,0,0,0,0,-1,2008,1226,34.0175,-2.00124
791,-202,34.1589,2.83984,0,0,0,0,0,0,0,-1,2015,1226,34.1589,-2.8398
798,-202,34.1953,3.11951,0,0,0,0,0,0,0,-1,2022,1226,34.1954,-3.11949
805,-202,0,0,0,0,0,0,0,0,0,-1,2029,1226,0,0
812,-202,0,0,0,0,0,0,0,0,0,-1,2036,1226,0,0
-700,-209,0,0,0,0,0,0,0,0,0,-1,524,1233,0,0
-693,-209,0,0,0,0,0,0,0,0,0,-1,531,1233,0,0
-686,-209,0,0,0,0,0,0,0,0,0,-1,538,1233,0,0
-679,-209,-21.101,-5.8562,0,0,0,0,0,0,0,-1,545,1233,-21.101,5.8562
-672,-209,-20.9714,-5.26318,0,0,0,0,0,0,0,-1,552,1233,-20.9714,5.2632
-665,-209,-21.1429,-4.69568,-0.0107551,0.0954412,0.0692393,0.129598,-0.0449122,1.11251,0.104634,0.04634,559,1233,-21.143,4.69563
-658,-209,-21.3133,-4.14648,-0.00777902,0.0793576,0.0551302,0.106057,-0.0344784,1.11979,0.0845734,0.0485743,566,1233,-21.3133,4.14646
-651,-209,-19.5743,0.757568,0,0,0,0,0,0,0,-1,573,1233,-19.5743,-0.757547
-644,-209,-19.5225,1.05383,0,0,0,0,0,0,0,-1,580,1233,-19.5225,-1.05387
-637,-209,-19.4146,1.30823,-0.00185514,0.0352324,0.022278,0.0456745,-0.0122972,1.13249,0.0352707,0.044534,587,1233,-19.4145,-1.30827
-630,-209,-19.2756,1.61536,-0.00084856,0.0246014,0.0151666,0.0316742,-0.00792131,1.13444,0.0241927,0.0237809,594,1233,-19.2756,-1.61541
-623,-209,-19.3474,2.01636,-0.000104535,0.0162945,0.00947201,0.020623,-0.00443304,1.14215,0.0154399,0.0120603,601,1233,-19.3473,-2.01636
-616,-209,-19.3754,2.39844,0.000330464,0.00977611,0.00539676,0.0122248,-0.00211819,1.14485,0.00893994,0.0121436,608,1233,-19.3754,-2.39845
-609,-209,-19.3781,2.75244,0.000545883,0.00431831,0.00230314,0.00540905,-0.00054486,1.1285,0.0038007,0.014726,615,1233,-19.3781,-2.75249
-602,-209,-19.4041,3.10596,0.000573044,0.000902743,0.000645713,0.00140432,7.14693e-05,0.910378,0.000913321,0.0171014,622,1233,-19.4041,-3.1059
-595,-209,-19.3846,3.43359,0.000602804,-0.000278249,0.000294741,0.000692311,-0.000367756,0.294831,0.000621518,0.0125864,629,1233,-19.3846,-3.43355
-588,-209,-19.3542,3.78857,0.00119461,-0.000706185,0.000324283,0.00124841,-0.000759986,0.164411,0.00117092,0.0143805,636,1233,-19.3542,-3.78859
-581,-209,-19.1606,4.21179,0.00204932,-0.000988031,0.000529688,0.00213904,-0.00107775,0.167795,0.00189061,0.0326292,643,1233,-19.1606,-4.21177
-574,-209,-19.4319,4.50049,0.00260465,-0.00123459,0.00110582,0.00290038,-0.00153032,0.261317,0.00259851,0.0392704,650,1233,-19.4319,-4.50045
-567,-209,-19.6322,4.60095,0,0,0,0,0,0,0,-1,657,1233,-19.6322,-4.60097
-560,-209,-13.9294,4.16626,0,0,0,0,0,0,0,-1,664,1233,-13.9294,-4.16621
-553,-209,-22.7542,0.748779,0,0,0,0,0,0,0,-1,671,1233,-22.7541,-0.748796
-546,-209,-26.4246,0.475708,0,0,0,0,0,0,0,-1,678,1233,-26.4246,-0.47566
-539,-209,-26.3079,0.541016,0.00424811,0.000107041,0.00331499,0.00608607,-0.00173091,0.506243,0.00474087,0.0387269,685,1233,-26.3079,-0.541006
-532,-209,-26.2715,0.702881,0.00408508,0.000586005,0.00351823,0.00626477,-0.00159369,0.554665,0.00479681,0.0326042,692,1233,-26.2715,-0.702937
-525,-209,-26.3762,0.786499,0.00372358,0.00102112,0.00351138,0.00613475,-0.00139005,0.601724,0.00462337,0.0333456,699,1233,-26.3762,-0.786501
-518,-209,-26.5059,1.06384,0.00300788,0.00095859,0.00322952,0.0053714,-0.00140494,0.631784,0.00412969,0.0399713,706,1233,-26.5059,-1.06389
-511,-209,-26.3906,1.13147,0.00344218,0.000319971,0.003313,0.00554346,-0.00178131,0.565224,0.00441097,0.0443557,713,1233,-26.3906,-1.13148
-504,-209,0,0,0,0,0,0,0,0,0,-1,720,1233,0,0
-497,-209,0,0,0,0,0,0,0,0,0,-1,727,1233,0,0
-490,-209,0,0,0,0,0,0,0,0,0,-1,734,1233,0,0
-483,-209,0,0,0,0,0,0,0,0,0,-1,741,1233,0,0
-476,-209,0,0,0,0,0,0,0,0,0,-1,748,1233,0,0
-469,-209,0,0,0,0,0,0,0,0,0,-1,755,1233,0,0
-462,-209,0,0,0,0,0,0,0,0,0,-1,762,1233,0,0
-455,-209,0,0,0,0,0,0,0,0,0,-1,769,1233,0,0
-448,-209,0,0,0,0,0,0,0,0,0,-1,776,1233,0,0
-441,-209,0,0,0,0,0,0,0,0,0,-1,783,1233,0,0
-434,-209,0,0,0,0,0,0,0,0,0,-1,790,1233,0,0
-427,-209,0,0,0,0,0,0,0,0,0,-1,797,1233,0,0
-420,-209,0,0,0,0,0,0,0,0,0,-1,804,1233,0,0
-413,-209,0,0,0,0,0,0,0,0,0,-1,811,1233,0,0
-406,-209,0,0,0,0,0,0,0,0,0,-1,818,1233,0,0
-399,-209,0,0,0,0,0,0,0,0,0,-1,825,1233,0,0
-392,-209,0,0,0,0,0,0,0,0,0,-1,832,1233,0,0
-385,-209,0,0,0,0,0,0,0,0,0,-1,839,1233,0,0
-378,-209,0,0,0,0,0,0,0,0,0,-1,846,1233,0,0
-371,-209,0,0,0,0,0,0,0,0,0,-1,853,1233,0,0
-364,-209,0,0,0,0,0,0,0,0,0,-1,860,1233,0,0
-357,-209,0,0,0,0,0,0,0,0,0,-1,867,1233,0,0
-350,-209,0,0,0,0,0,0,0,0,0,-1,874,1233,0,0
-343,-209,0,0,0,0,0,0,0,0,0,-1,881,1233,0,0
-336,-209,0,0,0,0,0,0,0,0,0,-1,888,1233,0,0
-329,-209,0,0,0,0,0,0,0,0,0,-1,895,1233,0,0
-322,-209,0,0,0,0,0,0,0,0,0,-1,902,1233,0,0
-315,-209,0,0,0,0,0,0,0,0,0,-1,909,1233,0,0
-308,-209,0,0,0,0,0,0,0,0,0,-1,916,1233,0,0
-301,-209,0,0,0,0,0,0,0,0,0,-1,923,1233,0,0
-294,-209,0,0,0,0,0,0,0,0,0,-1,930,1233,0,0
-287,-209,0,0,0,0,0,0,0,0,0,-1,937,1233,0,0
-280,-209,0,0,0,0,0,0,0,0,0,-1,944,1233,0,0
-273,-209,0,0,0,0,0,0,0,0,0,-1,951,1233,0,0
-266,-209,0,0,0,0,0,0,0,0,0,-1,958,1233,0,0
-259,-209,0,0,0,0,0,0,0,0,0,-1,965,1233,0,0
-252,-209,0,0,0,0,0,0,0,0,0,-1,972,1233,0,0
-245,-209,0,0,0,0,0,0,0,0,0,-1,979,1233,0,0
-238,-209,0,0,0,0,0,0,0,0,0,-1,986,1233,0,0
-231,-209,0,0,0,0,0,0,0,0,0,-1,993,1233,0,0
-224,-209,0,0,0,0,0,0,0,0,0,-1,1000,1233,0,0
-217,-209,0,0,0,0,0,0,0,0,0,-1,1007,1233,0,0
-210,-209,0,0,0,0,0,0,0,0,0,-1,1014,1233,0,0
-203,-209,0,0,0,0,0,0,0,0,0,-1,1021,1233,0,0
-196,-209,0,0,0,0,0,0,0,0,0,-1,1028,1233,0,0
-189,-209,0,0,0,0,0,0,0,0,0,-1,1035,1233,0,0
-182,-209,0,0,0,0,0,0,0,0,0,-1,1042,1233,0,0
-175,-209,0,0,0,0,0,0,0,0,0,-1,1049,1233,0,0
-168,-209,0,0,0,0,0,0,0,0,0,-1,1056,1233,0,0
-161,-209,0,0,0,0,0,0,0,0,0,-1,1063,1233,0,0
-154,-209,0,0,0,0,0,0,0,0,0,-1,1070,1233,0,0
-147,-209,0,0,0,0,0,0,0,0,0,-1,1077,1233,0,0
-140,-209,0,0,0,0,0,0,0,0,0,-1,1084,1233,0,0
-133,-209,0,0,0,0,0,0,0,0,0,-1,1091,1233,0,0
-126,-209,0,0,0,0,0,0,0,0,0,-1,1098,1233,0,0
-119,-209,0,0,0,0,0,0,0,0,0,-1,1105,1233,0,0
-112,-209,0,0,0,0,0,0,0,0,0,-1,1112,1233,0,0
-105,-209,0,0,0,0,0,0,0,0,0,-1,1119,1233,0,0
-98,-209,0,0,0,0,0,0,0,0,0,-1,1126,1233,0,0
-91,-209,0,0,0,0,0,0,0,0,0,-1,1133,1233,0,0
-84,-209,0,0,0,0,0,0,0,0,0,-1,1140,1233,0,0
-77,-209,0,0,0,0,0,0,0,0,0,-1,1147,1233,0,0
-70,-209,0,0,0,0,0,0,0,0,0,-1,1154,1233,0,0
-63,-209,0,0,0,0,0,0,0,0,0,-1,1161,1233,0,0
-56,-209,0,0,0,0,0,0,0,0,0,-1,1168,1233,0,0
-49,-209,0,0,0,0,0,0,0,0,0,-1,1175,1233,0,0
-42,-209,0,0,0,0,0,0,0,0,0,-1,1182,1233,0,0
-35,-209,0,0,0,0,0,0,0,0,0,-1,1189,1233,0,0
-28,-209,0,0,0,0,0,0,0,0,0,-1,1196,1233,0,0
-21,-209,0,0,0,0,0,0,0,0,0,-1,1203,1233,0,0
-14,-209,0,0,0,0,0,0,0,0,0,-1,1210,1233,0,0
-7,-209,0,0,0,0,0,0,0,0,0,-1,1217,1233,0,0
0,-209,0,0,0,0,0,0,0,0,0,-1,1224,1233,0,0
7,-209,0,0,0,0,0,0,0,0,0,-1,1231,1233,0,0
14,-209,0,0,0,0,0,0,0,0,0,-1,1238,1233,0,0
21,-209,0,0,0,0,0,0,0,0,0,-1,1245,1233,0,0
28,-209,0,0,0,0,0,0,0,0,0,-1,1252,1233,0,0
35,-209,0,0,0,0,0,0,0,0,0,-1,1259,1233,0,0
42,-209,0,0,0,0,0,0,0,0,0,-1,1266,1233,0,0
49,-209,0,0,0,0,0,0,0,0,0,-1,1273,1233,0,0
56,-209,0,0,0,0,0,0,0,0,0,-1,1280,1233,0,0
63,-209,0,0,0,0,0,0,0,0,0,-1,1287,1233,0,0
70,-209,0,0,0,0,0,0,0,0,0,-1,1294,1233,0,0
77,-209,0,0,0,0,0,0,0,0,0,-1,1301,1233,0,0
84,-209,0,0,0,0,0,0,0,0,0,-1,1308,1233,0,0
91,-209,0,0,0,0,0,0,0,0,0,-1,1315,1233,0,0
98,-209,0,0,0,0,0,0,0,0,0,-1,1322,1233,0,0
105,-209,0,0,0,0,0,0,0,0,0,-1,1329,1233,0,0
112,-209,0,0,0,0,0,0,0,0,0,-1,1336,1233,0,0
119,-209,0,0,0,0,0,0,0,0,0,-1,1343,1233,0,0
126,-209,0,0,0,0,0,0,0,0,0,-1,1350,1233,0,0
133,-209,0,0,0,0,0,0,0,0,0,-1,1357,1233,0,0
140,-209,0,0,0,0,0,0,0,0,0,-1,1364,1233,0,0
147,-209,0,0,0,0,0,0,0,0,0,-1,1371,1233,0,0
154,-209,0,0,0,0,0,0,0,0,0,-1,1378,1233,0,0
161,-209,0,0,0,0,0,0,0,0,0,-1,1385,1233,0,0
168,-209,0,0,0,0,0,0,0,0,0,-1,1392,1233,0,0
175,-209,0,0,0,0,0,0,0,0,0,-1,1399,1233,0,0
182,-209,0,0,0,0,0,0,0,0,0,-1,1406,1233,0,0
189,-209,0,0,0,0,0,0,0,0,0,-1,1413,1233,0,0
196,-209,0,0,0,0,0,0,0,0,0,-1,1420,1233,0,0
203,-209,0,0,0,0,0,0,0,0,0,-1,1427,1233,0,0
210,-209,0,0,0,0,0,0,0,0,0,-1,1434,1233,0,0
217,-209,0,0,0,0,0,0,0,0,0,-1,1441,1233,0,0
224,-209,0,0,0,0,0,0,0,0,0,-1,1448,1233,0,0
231,-209,0,0,0,0,0,0,0,0,0,-1,1455,1233,0,0
238,-209,0,0,0,0,0,0,0,0,0,-1,1462,1233,0,0
245,-209,0,0,0,0,0,0,0,0,0,-1,1469,1233,0,0
252,-209,0,0,0,0,0,0,0,0,0,-1,1476,1233,0,0
259,-209,0,0,0,0,0,0,0,0,0,-1,1483,1233,0,0
266,-209,0,0,0,0,0,0,0,0,0,-1,1490,1233,0,0
273,-209,0,0,0,0,0,0,0,0,0,-1,1497,1233,0,0
280,-209,0,0,0,0,0,0,0,0,0,-1,1504,1233,0,0
287,-209,0,0,0,0,0,0,0,0,0,-1,1511,1233,0,0
294,-209,0,0,0,0,0,0,0,0,0,-1,1518,1233,0,0
301,-209,0,0,0,0,0,0,0,0,0,-1,1525,1233,0,0
308,-209,0,0,0,0,0,0,0,0,0,-1,1532,1233,0,0
315,-209,0,0,0,0,0,0,0,0,0,-1,1539,1233,0,0
322,-209,0,0,0,0,0,0,0,0,0,-1,1546,1233,0,0
329,-209,0,0,0,0,0,0,0,0,0,-1,1553,1233,0,0
336,-209,0,0,0,0,0,0,0,0,0,-1,1560,1233,0,0
343,-209,0,0,0,0,0,0,0,0,0,-1,1567,1233,0,0
350,-209,0,0,0,0,0,0,0,0,0,-1,1574,1233,0,0
357,-209,0,0,0,0,0,0,0,0,0,-1,1581,1233,0,0
364,-209,0,0,0,0,0,0,0,0,0,-1,1588,1233,0,0
371,-209,0,0,0,0,0,0,0,0,0,-1,1595,1233,0,0
378,-209,0,0,0,0,0,0,0,0,0,-1,1602,1233,0,0
385,-209,0,0,0,0,0,0,0,0,0,-1,1609,1233,0,0
392,-209,0,0,0,0,0,0,0,0,0,-1,1616,1233,0,0
399,-209,0,0,0,0,0,0,0,0,0,-1,1623,1233,0,0
406,-209,0,0,0,0,0,0,0,0,0,-1,1630,1233,0,0
413,-209,0,0,0,0,0,0,0,0,0,-1,1637,1233,0,0
420,-209,0,0,0,0,0,0,0,0,0,-1,1644,1233,0,0
427,-209,0,0,0,0,0,0,0,0,0,-1,1651,1233,0,0
434,-209,0,0,0,0,0,0,0,0,0,-1,1658,1233,0,0
441,-209,0,0,0,0,0,0,0,0,0,-1,1665,1233,0,0
448,-209,0,0,0,0,0,0,0,0,0,-1,1672,1233,0,0
455,-209,0,0,0,0,0,0,0,0,0,-1,1679,1233,0,0
462,-209,0,0,0,0,0,0,0,0,0,-1,1686,1233,0,0
469,-209,0,0,0,0,0,0,0,0,0,-1,1693,1233,0,0
476,-209,0,0,0,0,0,0,0,0,0,-1,1700,1233,0,0
483,-209,0,0,0,0,0,0,0,0,0,-1,1707,1233,0,0
490,-209,0,0,0,0,0,0,0,0,0,-1,1714,1233,0,0
497,-209,0,0,0,0,0,0,0,0,0,-1,1721,1233,0,0
504,-209,0,0,0,0,0,0,0,0,0,-1,1728,1233,0,0
511,-209,0,0,0,0,0,0,0,0,0,-1,1735,1233,0,0
518,-209,0,0,0,0,0,0,0,0,0,-1,1742,1233,0,0
525,-209,0,0,0,0,0,0,0,0,0,-1,1749,1233,0,0
532,-209,0,0,0,0,0,0,0,0,0,-1,1756,1233,0,0
539,-209,0,0,0,0,0,0,0,0,0,-1,1763,1233,0,0
546,-209,0,0,0,0,0,0,0,0,0,-1,1770,1233,0,0
553,-209,0,0,0,0,0,0,0,0,0,-1,1777,1233,0,0
560,-209,0,0,0,0,0,0,0,0,0,-1,1784,1233,0,0
567,-209,0,0,0,0,0,0,0,0,0,-1,1791,1233,0,0
574,-209,0,0,0,0,0,0,0,0,0,-1,1798,1233,0,0
581,-209,0,0,0,0,0,0,0,0,0,-1,1805,1233,0,0
588,-209,0,0,0,0,0,0,0,0,0,-1,1812,1233,0,0
595,-209,0,0,0,0,0,0,0,0,0,-1,1819,1233,0,0
602,-209,0,0,0,0,0,0,0,0,0,-1,1826,1233,0,0
609,-209,0,0,0,0,0,0,0,0,0,-1,1833,1233,0,0
616,-209,0,0,0,0,0,0,0,0,0,-1,1840,1233,0,0
623,-209,36.6674,2.35059,-0.000153985,0.00186711,0.000740319,0.00210927,-0.000396146,1.25466,0.00155514,0.0367475,1847,1233,36.6674,-2.35064
630,-209,36.6703,2.38269,-0.000538705,0.00175391,0.000683423,0.00194218,-0.000726972,1.30199,0.00159338,0.0355146,1854,1233,36.6703,-2.38266
637,-209,36.6981,2.48389,-0.000387047,0.00142136,0.000193949,0.00144192,-0.000407614,1.46515,0.00112211,0.0349754,1861,1233,36.6981,-2.48388
644,-209,36.677,2.52954,0.000135679,0.000961496,-0.000373418,0.00110531,-8.12986e-06,-1.20319,0.000739595,0.0300633,1868,1233,36.6771,-2.52954
651,-209,36.6934,2.49902,0.000929225,0.000589207,-0.00100329,0.00177681,-0.000258373,-0.701469,0.00127939,0.0240645,1875,1233,36.6933,-2.49907
658,-209,36.6787,2.49524,0.00165144,0.000179225,-0.00138233,0.00248144,-0.000650779,-0.540741,0.00190857,0.0224107,1882,1233,36.6787,-2.4953
665,-209,36.7407,2.47241,0.00204553,-6.80154e-05,-0.00146706,0.00279681,-0.000819291,-0.473277,0.00218934,0.0374639,1889,1233,36.7408,-2.47243
672,-209,36.8153,2.41174,0.00210859,-0.00037863,-0.00142674,0.00275764,-0.00102768,-0.426935,0.00226025,0.045911,1896,1233,36.8153,-2.41169
679,-209,36.9794,2.44946,0,0,0,0,0,0,0,-1,1903,1233,36.9793,-2.44947
686,-209,33.3711,3.89856,0,0,0,0,0,0,0,-1,1910,1233,33.3711,-3.89855
693,-209,29.9067,7.83704,0,0,0,0,0,0,0,-1,1917,1233,29.9068,-7.83707
700,-209,29.9673,7.26892,0.00177269,-0.00132276,-0.000738309,0.00193977,-0.00148984,-0.222551,0.00198576,0.0370057,1924,1233,29.9673,-7.26892
707,-209,30.061,6.77991,0.00150981,-0.00145157,-0.000398979,0.00156262,-0.00150438,-0.131602,0.00177084,0.0287968,1931,1233,30.0611,-6.77988
714,-209,30.1008,6.48718,0.00100185,-0.00131904,0.000193066,0.0010178,-0.00133499,0.0824312,0.00136249,0.0147863,1938,1233,30.1008,-6.48723
721,-209,30.1031,6.16943,0.000605457,-0.00110414,0.000770824,0.00090168,-0.00140036,0.366894,0.00133944,0.0130409,1945,1233,30.1031,-6.16944
728,-209,30.1248,5.86218,0.000618792,-0.000780851,0.00119635,0.00130497,-0.00146703,0.520753,0.00160133,0.012833,1952,1233,30.1247,-5.86214
735,-209,30.1223,5.55212,0.00128233,-0.000161064,0.0013941,0.00213046,-0.00100919,0.546552,0.00185081,0.0135922,1959,1233,30.1223,-5.55217
742,-209,30.1176,5.23938,0.00260529,0.000734485,0.00139345,0.00334818,-8.40833e-06,0.489801,0.00223493,0.0123064,1966,1233,30.1176,-5.23932
749,-209,30.0831,4.94177,0.00414516,0.00138174,0.00148612,0.00479265,0.000734245,0.410895,0.00298065,0.0108339,1973,1233,30.0831,-4.94176
756,-209,30.0609,4.65283,0.005637,0.00132658,0.00175334,0.00626013,0.000703452,0.34147,0.00395982,0.0105374,1980,1233,30.061,-4.65284
763,-209,30.0917,4.41821,0.0075131,0.0012158,0.0020853,0.00814102,0.000587885,0.292481,0.00524238,0.0190595,1987,1233,30.0916,-4.41816
770,-209,30.4034,4.11084,0.00887822,0.000368677,0.00292148,0.00978466,-0.000537765,0.30085,0.00670955,0.0466188,1994,1233,30.4034,-4.11082
777,-209,30.7786,3.78101,0,0,0,0,0,0,0,-1,2001,1233,30.7785,-3.78095
784,-209,34.295,2.21448,0,0,0,0,0,0,0,-1,2008,1233,34.2951,-2.21446
791,-209,34.4851,3.04919,0,0,0,0,0,0,0,-1,2015,1233,34.4852,-3.04918
798,-209,34.6123,3.95276,0,0,0,0,0,0,0,-1,2022,1233,34.6124,-3.95278
805,-209,0,0,0,0,0,0,0,0,0,-1,2029,1233,0,0
812,-209,0,0,0,0,0,0,0,0,0,-1,2036,1233,0,0
-700,-216,0,0,0,0,0,0,0,0,0,-1,524,1240,0,0
-693,-216,0,0,0,0,0,0,0,0,0,-1,531,1240,0,0
-686,-216,0,0,0,0,0,0,0,0,0,-1,538,1240,0,0
-679,-216,-21.6625,-6.04614,0,0,0,0,0,0,0,-1,545,1240,-21.6625,6.0461
-672,-216,-26.3083,-5.57971,0,0,0,0,0,0,0,-1,552,1240,-26.3083,5.5797
-665,-216,-21.3427,-5.44397,0,0,0,0,0,0,0,-1,559,1240,-21.3427,5.44399
-658,-216,-21.5083,-4.95435,0,0,0,0,0,0,0,-1,566,1240,-21.5083,4.95432
-651,-216,-18.6517,0.335327,0,0,0,0,0,0,0,-1,573,1240,-18.6517,-0.33537
-644,-216,-19.1166,0.891479,0,0,0,0,0,0,0,-1,580,1240,-19.1166,-0.891518
-637,-216,-19.0406,1.13977,-0.00157726,0.0356,0.0241664,0.0474999,-0.0134772,1.11323,0.0369867,0.0479111,587,1240,-19.0406,-1.1398
-630,-216,-18.9716,1.45166,-0.00038964,0.0249961,0.0168066,0.0333644,-0.00875793,1.10882,0.0256652,0.0301356,594,1240,-18.9716,-1.4516
-623,-216,-18.957,2.02698,0.000460758,0.0167541,0.0109138,0.0222265,-0.00501161,1.10601,0.0167402,0.0126968,601,1240,-18.957,-2.02704
-616,-216,-19.0223,2.41541,0.000948168,0.0102922,0.0066269,0.0137284,-0.00248806,1.09244,0.0100845,0.0137893,608,1240,-19.0223,-2.41535
-609,-216,-19.0295,2.76904,0.00123561,0.00488242,0.00334393,0.00686778,-0.000749751,1.03501,0.0048478,0.0140233,615,1240,-19.0295,-2.76909
-602,-216,-19.0323,3.06714,0.00136584,0.00132608,0.00140313,0.00274923,-5.73095e-05,0.778314,0.00185222,0.0136091,622,1240,-19.0323,-3.06709
-595,-216,-19.0244,3.38586,0.0015172,-7.45845e-05,0.000821705,0.00186527,-0.000422651,0.400676,0.00140574,0.0179903,629,1240,-19.0244,-3.38589
-588,-216,-19.0152,3.76697,0.00220583,-0.000647569,0.000793127,0.00241147,-0.000853206,0.253687,0.00195512,0.0202791,636,1240,-19.0152,-3.76694
-581,-216,-18.9962,4.18164,0.00310551,-0.000941926,0.00100863,0.00334293,-0.00117935,0.231186,0.00270872,0.0239323,643,1240,-18.9962,-4.18162
-574,-216,-18.9119,4.83032,0.00363691,-0.00104612,0.00165667,0.00416372,-0.00157293,0.307877,0.00342279,0.0401309,650,1240,-18.9119,-4.83037
-567,-216,-19.0871,5.41296,0,0,0,0,0,0,0,-1,657,1240,-19.0871,-5.41296
-560,-216,-16.5087,5.4574,0,0,0,0,0,0,0,-1,664,1240,-16.5087,-5.45746
-553,-216,-16.2355,1.22351,0,0,0,0,0,0,0,-1,671,1240,-16.2356,-1.22356
-546,-216,-26.8808,0.0130615,0,0,0,0,0,0,0,-1,678,1240,-26.8808,-0.0131225
-539,-216,-26.4213,0.370117,0.00465699,0.00106822,0.00359326,0.00687898,-0.00115378,0.553824,0.00501502,0.0411852,685,1240,-26.4213,-0.370174
-532,-216,-26.1121,0.671387,0.00425043,0.00168771,0.00353324,0.00672748,-0.000789342,0.611445,0.00476992,0.0450712,692,1240,-26.1121,-0.671348
-525,-216,-26.2805,0.777832,0.00354826,0.00226067,0.00315591,0.00612538,-0.000316442,0.68478,0.00419305,0.0427096,699,1240,-26.2804,-0.777869
-518,-216,-26.4644,1.03577,0.00233833,0.00244815,0.00246754,0.00486139,-7.4906e-05,0.796522,0.00326618,0.0416789,706,1240,-26.4644,-1.03583
-511,-216,-26.4631,1.10779,0.00158795,0.00218292,0.0019796,0.00388726,-0.000116389,0.859978,0.00263116,0.0423808,713,1240,-26.4632,-1.10785
-504,-216,-26.2549,0.829712,0.00292645,0.00144741,0.00311877,0.00539217,-0.00101831,0.668988,0.00397791,0.0413631,720,1240,-26.255,-0.829728
-497,-216,0,0,0,0,0,0,0,0,0,-1,727,1240,0,0
-490,-216,0,0,0,0,0,0,0,0,0,-1,734,1240,0,0
-483,-216,0,0,0,0,0,0,0,0,0,-1,741,1240,0,0
-476,-216,0,0,0,0,0,0,0,0,0,-1,748,1240,0,0
-469,-216,0,0,0,0,0,0,0,0,0,-1,755,1240,0,0
-462,-216,0,0,0,0,0,0,0,0,0,-1,762,1240,0,0
-455,-216,0,0,0,0,0,0,0,0,0,-1,769,1240,0,0
-448,-216,0,0,0,0,0,0,0,0,0,-1,776,1240,0,0
-441,-216,0,0,0,0,0,0,0,0,0,-1,783,1240,0,0
-434,-216,0,0,0,0,0,0,0,0,0,-1,790,1240,0,0
-427,-216,0,0,0,0,0,0,0,0,0,-1,797,1240,0,0
-420,-216,0,0,0,0,0,0,0,0,0,-1,804,1240,0,0
-413,-216,0,0,0,0,0,0,0,0,0,-1,811,1240,0,0
-406,-216,0,0,0,0,0,0,0,0,0,-1,818,1240,0,0
-399,-216,0,0,0,0,0,0,0,0,0,-1,825,1240,0,0
-392,-216,0,0,0,0,0,0,0,0,0,-1,832,1240,0,0
-385,-216,0,0,0,0,0,0,0,0,0,-1,839,1240,0,0
-378,-216,0,0,0,0,0,0,0,0,0,-1,846,1240,0,0
-371,-216,0,0,0,0,0,0,0,0,0,-1,853,1240,0,0
-364,-216,0,0,0,0,0,0,0,0,0,-1,860,1240,0,0
-357,-216,0,0,0,0,0,0,0,0,0,-1,867,1240,0,0
-350,-216,0,0,0,0,0,0,0,0,0,-1,874,1240,0,0
-343,-216,0,0,0,0,0,0,0,0,0,-1,881,1240,0,0
-336,-216,0,0,0,0,0,0,0,0,0,-1,888,1240,0,0
-329,-216,0,0,0,0,0,0,0,0,0,-1,895,1240,0,0
-322,-216,0,0,0,0,0,0,0,0,0,-1,902,1240,0,0
-315,-216,0,0,0,0,0,0,0,0,0,-1,909,1240,0,0
-308,-216,0,0,0,0,0,0,0,0,0,-1,916,1240,0,0
-301,-216,0,0,0,0,0,0,0,0,0,-1,923,1240,0,0
-294,-216,0,0,0,0,0,0,0,0,0,-1,930,1240,0,0
-287,-216,0,0,0,0,0,0,0,0,0,-1,937,1240,0,0
-280,-216,0,0,0,0,0,0,0,0,0,-1,944,1240,0,0
-273,-216,0,0,0,0,0,0,0,0,0,-1,951,1240,0,0
-266,-216,0,0,0,0,0,0,0,0,0,-1,958,1240,0,0
-259,-216,0,0,0,0,0,0,0,0,0,-1,965,1240,0,0
-252,-216,0,0,0,0,0,0,0,0,0,-1,972,1240,0,0
-245,-216,0,0,0,0,0,0,0,0,0,-1,979,1240,0,0
-238,-216,0,0,0,0,0,0,0,0,0,-1,986,1240,0,0
-231,-216,0,0,0,0,0,0,0,0,0,-1,993,1240,0,0
-224,-216,0,0,0,0,0,0,0,0,0,-1,1000,1240,0,0
-217,-216,0,0,0,0,0,0,0,0,0,-1,1007,1240,0,0
-210,-216,0,0,0,0,0,0,0,0,0,-1,1014,1240,0,0
-203,-216,0,0,0,0,0,0,0,0,0,-1,1021,1240,0,0
-196,-216,0,0,0,0,0,0,0,0,0,-1,1028,1240,0,0
-189,-216,0,0,0,0,0,0,0,0,0,-1,1035,1240,0,0
-182,-216,0,0,0,0,0,0,0,0,0,-1,1042,1240,0,0
-175,-216,0,0,0,0,0,0,0,0,0,-1,1049,1240,0,0
-168,-216,0,0,0,0,0,0,0,0,0,-1,1056,1240,0,0
-161,-216,0,0,0,0,0,0,0,0,0,-1,1063,1240,0,0
-154,-216,0,0,0,0,0,0,0,0,0,-1,1070,1240,0,0
-147,-216,0,0,0,0,0,0,0,0,0,-1,1077,1240,0,0
-140,-216,0,0,0,0,0,0,0,0,0,-1,1084,1240,0,0
-133,-216,0,0,0,0,0,0,0,0,0,-1,1091,1240,0,0
-126,-216,0,0,0,0,0,0,0,0,0,-1,1098,1240,0,0
-119,-216,0,0,0,0,0,0,0,0,0,-1,1105,1240,0,0
-112,-216,0,0,0,0,0,0,0,0,0,-1,1112,1240,0,0
-105,-216,0,0,0,0,0,0,0,0,0,-1,1119,1240,0,0
-98,-216,0,0,0,0,0,0,0,0,0,-1,1126,1240,0,0
-91,-216,0,0,0,0,0,0,0,0,0,-1,1133,1240,0,0
-84,-216,0,0,0,0,0,0,0,0,0,-1,1140,1240,0,0
-77,-216,0,0,0,0,0,0,0,0,0,-1,1147,1240,0,0
-70,-216,0,0,0,0,0,0,0,0,0,-1,1154,1240,0,0
-63,-216,0,0,0,0,0,0,0,0,0,-1,1161,1240,0,0
-56,-216,0,0,0,0,0,0,0,0,0,-1,1168,1240,0,0
-49,-216,0,0,0,0,0,0,0,0,0,-1,1175,1240,0,0
-42,-216,0,0,0,0,0,0,0,0,0,-1,1182,1240,0,0
-35,-216,0,0,0,0,0,0,0,0,0,-1,1189,1240,0,0
-28,-216,0,0,0,0,0,0,0,0,0,-1,1196,1240,0,0
-21,-216,0,0,0,0,0,0,0,0,0,-1,1203,1240,0,0
-14,-216,0,0,0,0,0,0,0,0,0,-1,1210,1240,0,0
-7,-216,0,0,0,0,0,0,0,0,0,-1,1217,1240,0,0
0,-216,0,0,0,0,0,0,0,0,0,-1,1224,1240,0,0
7,-216,0,0,0,0,0,0,0,0,0,-1,1231,1240,0,0
14,-216,0,0,0,0,0,0,0,0,0,-1,1238,1240,0,0
21,-216,0,0,0,0,0,0,0,0,0,-1,1245,1240,0,0
28,-216,0,0,0,0,0,0,0,0,0,-1,1252,1240,0,0
35,-216,0,0,0,0,0,0,0,0,0,-1,1259,1240,0,0
42,-216,0,0,0,0,0,0,0,0,0,-1,1266,1240,0,0
49,-216,0,0,0,0,0,0,0,0,0,-1,1273,1240,0,0
56,-216,0,0,0,0,0,0,0,0,0,-1,1280,1240,0,0
63,-216,0,0,0,0,0,0,0,0,0,-1,1287,1240,0,0
70,-216,0,0,0,0,0,0,0,0,0,-1,1294,1240,0,0
77,-216,0,0,0,0,0,0,0,0,0,-1,1301,1240,0,0
84,-216,0,0,0,0,0,0,0,0,0,-1,1308,1240,0,0
91,-216,0,0,0,0,0,0,0,0,0,-1,1315,1240,0,0
98,-216,0,0,0,0,0,0,0,0,0,-1,1322,1240,0,0
105,-216,0,0,0,0,0,0,0,0,0,-1,1329,1240,0,0
112,-216,0,0,0,0,0,0,0,0,0,-1,1336,1240,0,0
119,-216,0,0,0,0,0,0,0,0,0,-1,1343,1240,0,0
126,-216,0,0,0,0,0,0,0,0,0,-1,1350,1240,0,0
133,-216,0,0,0,0,0,0,0,0,0,-1,1357,1240,0,0
140,-216,0,0,0,0,0,0,0,0,0,-1,1364,1240,0,0
147,-216,0,0,0,0,0,0,0,0,0,-1,1371,1240,0,0
154,-216,0,0,0,0,0,0,0,0,0,-1,1378,1240,0,0
161,-216,0,0,0,0,0,0,0,0,0,-1,1385,1240,0,0
168,-216,0,0,0,0,0,0,0,0,0,-1,1392,1240,0,0
175,-216,0,0,0,0,0,0,0,0,0,-1,1399,1240,0,0
182,-216,0,0,0,0,0,0,0,0,0,-1,1406,1240,0,0
189,-216,0,0,0,0,0,0,0,0,0,-1,1413,1240,0,0
196,-216,0,0,0,0,0,0,0,0,0,-1,1420,1240,0,0
203,-216,0,0,0,0,0,0,0,0,0,-1,1427,1240,0,0
210,-216,0,0,0,0,0,0,0,0,0,-1,1434,1240,0,0
217,-216,0,0,0,0,0,0,0,0,0,-1,1441,1240,0,0
224,-216,0,0,0,0,0,0,0,0,0,-1,1448,1240,0,0
231,-216,0,0,0,0,0,0,0,0,0,-1,1455,1240,0,0
238,-216,0,0,0,0,0,0,0,0,0,-1,1462,1240,0,0
245,-216,0,0,0,0,0,0,0,0,0,-1,1469,1240,0,0
252,-216,0,0,0,0,0,0,0,0,0,-1,1476,1240,0,0
259,-216,0,0,0,0,0,0,0,0,0,-1,1483,1240,0,0
266,-216,0,0,0,0,0,0,0,0,0,-1,1490,1240,0,0
273,-216,0,0,0,0,0,0,0,0,0,-1,1497,1240,0,0
280,-216,0,0,0,0,0,0,0,0,0,-1,1504,1240,0,0
287,-216,0,0,0,0,0,0,0,0,0,-1,1511,1240,0,0
294,-216,0,0,0,0,0,0,0,0,0,-1,1518,1240,0,0
301,-216,0,0,0,0,0,0,0,0,0,-1,1525,1240,0,0
308,-216,0,0,0,0,0,0,0,0,0,-1,1532,1240,0,0
315,-216,0,0,0,0,0,0,0,0,0,-1,1539,1240,0,0
322,-216,0,0,0,0,0,0,0,0,0,-1,1546,1240,0,0
329,-216,0,0,0,0,0,0,0,0,0,-1,1553,1240,0,0
336,-216,0,0,0,0,0,0,0,0,0,-1,1560,1240,0,0
343,-216,0,0,0,0,0,0,0,0,0,-1,1567,1240,0,0
350,-216,0,0,0,0,0,0,0,0,0,-1,1574,1240,0,0
357,-216,0,0,0,0,0,0,0,0,0,-1,1581,1240,0,0
364,-216,0,0,0,0,0,0,0,0,0,-1,1588,1240,0,0
371,-216,0,0,0,0,0,0,0,0,0,-1,1595,1240,0,0
378,-216,0,0,0,0,0,0,0,0,0,-1,1602,1240,0,0
385,-216,0,0,0,0,0,0,0,0,0,-1,1609,1240,0,0
392,-216,0,0,0,0,0,0,0,0,0,-1,1616,1240,0,0
399,-216,0,0,0,0,0,0,0,0,0,-1,1623,1240,0,0
406,-216,0,0,0,0,0,0,0,0,0,-1,1630,1240,0,0
413,-216,0,0,0,0,0,0,0,0,0,-1,1637,1240,0,0
420,-216,0,0,0,0,0,0,0,0,0,-1,1644,1240,0,0
427,-216,0,0,0,0,0,0,0,0,0,-1,1651,1240,0,0
434,-216,0,0,0,0,0,0,0,0,0,-1,1658,1240,0,0
441,-216,0,0,0,0,0,0,0,0,0,-1,1665,1240,0,0
448,-216,0,0,0,0,0,0,0,0,0,-1,1672,1240,0,0
455,-216,0,0,0,0,0,0,0,0,0,-1,1679,1240,0,0
462,-216,0,0,0,0,0,0,0,0,0,-1,1686,1240,0,0
469,-216,0,0,0,0,0,0,0,0,0,-1,1693,1240,0,0
476,-216,0,0,0,0,0,0,0,0,0,-1,1700,1240,0,0
483,-216,0,0,0,0,0,0,0,0,0,-1,1707,1240,0,0
490,-216,0,0,0,0,0,0,0,0,0,-1,1714,1240,0,0
497,-216,0,0,0,0,0,0,0,0,0,-1,1721,1240,0,0
504,-216,0,0,0,0,0,0,0,0,0,-1,1728,1240,0,0
511,-216,0,0,0,0,0,0,0,0,0,-1,1735,1240,0,0
518,-216,0,0,0,0,0,0,0,0,0,-1,1742,1240,0,0
525,-216,0,0,0,0,0,0,0,0,0,-1,1749,1240,0,0
532,-216,0,0,0,0,0,0,0,0,0,-1,1756,1240,0,0
539,-216,0,0,0,0,0,0,0,0,0,-1,1763,1240,0,0
546,-216,0,0,0,0,0,0,0,0,0,-1,1770,1240,0,0
553,-216,0,0,0,0,0,0,0,0,0,-1,1777,1240,0,0
560,-216,0,0,0,0,0,0,0,0,0,-1,1784,1240,0,0
567,-216,0,0,0,0,0,0,0,0,0,-1,1791,1240,0,0
574,-216,0,0,0,0,0,0,0,0,0,-1,1798,1240,0,0
581,-216,0,0,0,0,0,0,0,0,0,-1,1805,1240,0,0
588,-216,0,0,0,0,0,0,0,0,0,-1,1812,1240,0,0
595,-216,0,0,0,0,0,0,0,0,0,-1,1819,1240,0,0
602,-216,0,0,0,0,0,0,0,0,0,-1,1826,1240,0,0
609,-216,0,0,0,0,0,0,0,0,0,-1,1833,1240,0,0
616,-216,0,0,0,0,0,0,0,0,0,-1,1840,1240,0,0
623,-216,36.8353,2.41943,-0.000893909,0.0014707,0.00179492,0.00243772,-0.00186092,1.07663,0.00248926,0.04227,1847,1240,36.8353,-2.41939
630,-216,36.7764,2.38135,-0.000979785,0.0013252,0.00134902,0.001947,-0.00160158,1.1389,0.00205201,0.0379571,1854,1240,36.7764,-2.3814
637,-216,36.7172,2.49426,-0.000554131,0.000982095,0.000568094,0.00116935,-0.000741386,1.25239,0.00111235,0.0311202,1861,1240,36.7171,-2.49431
644,-216,36.673,2.53943,0.000185406,0.000554203,-0.000142743,0.000602996,0.000136613,-1.24142,0.000365082,0.0263606,1868,1240,36.673,-2.53938
651,-216,36.6719,2.52649,0.000992963,0.000277318,-0.000797443,0.00150918,-0.000238903,-0.574507,0.00109448,0.0234897,1875,1240,36.6719,-2.52646
658,-216,36.7167,2.58008,0.00161468,-4.27359e-05,-0.00112827,0.00218588,-0.000613942,-0.468647,0.00169928,0.0345188,1882,1240,36.7167,-2.58014
665,-216,36.8457,2.55017,0.00194778,-0.000217286,-0.00121579,0.00249314,-0.000762645,-0.421657,0.00196624,0.0488189,1889,1240,36.8457,-2.55014
672,-216,36.9891,2.49377,0,0,0,0,0,0,0,-1,1896,1240,36.9891,-2.49379
679,-216,36.3712,2.45935,0,0,0,0,0,0,0,-1,1903,1240,36.3712,-2.45935
686,-216,21.5172,6.19458,0,0,0,0,0,0,0,-1,1910,1240,21.5172,-6.19453
693,-216,29.9489,7.37244,0,0,0,0,0,0,0,-1,1917,1240,29.9489,-7.37248
700,-216,29.7421,7.28052,0.00212191,-0.00121177,-0.000890625,0.00234493,-0.00143479,-0.245362,0.00220321,0.0350391,1924,1240,29.7421,-7.2805
707,-216,29.7645,6.85608,0.0018301,-0.00135106,-0.00055826,0.00192523,-0.00144618,-0.168773,0.00195302,0.0255178,1931,1240,29.7646,-6.85614
714,-216,29.824,6.49158,0.00127294,-0.00117179,8.18886e-05,0.00127568,-0.00117453,0.0334461,0.00141503,0.0138262,1938,1240,29.824,-6.49161
721,-216,29.8169,6.18359,0.000953481,-0.000874817,0.000679288,0.00117824,-0.00109957,0.319529,0.00131535,0.0129792,1945,1240,29.8168,-6.18356
728,-216,29.8337,5.8717,0.00110178,-0.00047759,0.001113,0.00167679,-0.0010526,0.476859,0.00158949,0.0118527,1952,1240,29.8338,-5.87173
735,-216,29.8468,5.56628,0.00195155,0.000176729,0.00133752,0.00266927,-0.000540996,0.492504,0.00198458,0.0123343,1959,1240,29.8468,-5.56631
742,-216,29.8231,5.27368,0.00348817,0.00104348,0.00139771,0.00412263,0.000409019,0.426115,0.00262274,0.0136179,1966,1240,29.8232,-5.27363
749,-216,29.7931,4.95154,0.00543781,0.0018007,0.00150053,0.00597695,0.00126156,0.344937,0.00363777,0.0106436,1973,1240,29.7931,-4.95154
756,-216,29.7382,4.63892,0.00776035,0.00209519,0.00168515,0.00822371,0.00163182,0.268337,0.0050276,0.0108285,1980,1240,29.7381,-4.63896
763,-216,29.755,4.37305,0.0108259,0.00235352,0.00192279,0.0112419,0.00193757,0.213044,0.00693949,0.0177222,1987,1240,29.7551,-4.37307
770,-216,30.0137,4.10645,0.013976,0.00208463,0.00263319,0.014533,0.00152763,0.208456,0.00922173,0.0398853,1994,1240,30.0136,-4.1064
777,-216,30.3196,3.83838,0,0,0,0,0,0,0,-1,2001,1240,30.3196,-3.83844
784,-216,34.6017,2.20264,0,0,0,0,0,0,0,-1,2008,1240,34.6017,-2.20259
791,-216,34.4995,2.99756,0,0,0,0,0,0,0,-1,2015,1240,34.4996,-2.9976
798,-216,0,0,0,0,0,0,0,0,0,-1,2022,1240,0,0
805,-216,0,0,0,0,0,0,0,0,0,-1,2029,1240,0,0
812,-216,0,0,0,0,0,0,0,0,0,-1,2036,1240,0,0
-700,-223,0,0,0,0,0,0,0,0,0,-1,524,1247,0,0
-693,-223,0,0,0,0,0,0,0,0,0,-1,531,1247,0,0
-686,-223,0,0,0,0,0,0,0,0,0,-1,538,1247,0,0
-679,-223,0,0,0,0,0,0,0,0,0,-1,545,1247,0,0
-672,-223,-25.7662,-5.46472,0,0,0,0,0,0,0,-1,552,1247,-25.7663,5.46466
-665,-223,-24.21,-4.53613,0,0,0,0,0,0,0,-1,559,1247,-24.21,4.53616
-658,-223,-23.2206,-3.04272,0,0,0,0,0,0,0,-1,566,1247,-23.2206,3.04271
-651,-223,-18.918,1.33472,0,0,0,0,0,0,0,-1,573,1247,-18.918,-1.33478
-644,-223,-18.7415,0.671387,0,0,0,0,0,0,0,-1,580,1247,-18.7415,-0.671437
-637,-223,-18.678,0.977539,-0.00191802,0.0349534,0.0269298,0.0491534,-0.0161181,1.08555,0.0392604,0.0491194,587,1247,-18.678,-0.977523
-630,-223,-18.6889,1.38855,-0.00041796,0.0246973,0.0191598,0.035048,-0.0107687,1.07548,0.0276626,0.0392135,594,1247,-18.6889,-1.38855
-623,-223,-18.649,1.98584,0.000642487,0.0167476,0.012914,0.023914,-0.0065239,1.06418,0.0185047,0.0202763,601,1247,-18.649,-1.98579
-616,-223,-18.6691,2.38208,0.0012861,0.0105535,0.00826913,0.0153987,-0.00355911,1.04078,0.0116351,0.0152061,608,1247,-18.6692,-2.38211
-609,-223,-18.6524,2.74658,0.00173039,0.00542735,0.00470767,0.00863644,-0.0014787,0.972477,0.00630856,0.0117973,615,1247,-18.6524,-2.74659
-602,-223,-18.6688,3.05273,0.00202717,0.0019233,0.00239145,0.00436725,-0.000416786,0.774541,0.00305991,0.0143707,622,1247,-18.6688,-3.05272
-595,-223,-18.6703,3.40955,0.00232803,0.000425662,0.00148779,0.00314271,-0.000389019,0.500981,0.00223612,0.0197164,629,1247,-18.6704,-3.40955
-588,-223,-18.6719,3.76379,0.00303063,-0.000221967,0.00129616,0.00348397,-0.0006753,0.336454,0.0025774,0.0228777,636,1247,-18.6719,-3.76378
-581,-223,-18.7045,4.16406,0.00385908,-0.000549708,0.00145958,0.00429849,-0.00098912,0.292425,0.003246,0.020998,643,1247,-18.7045,-4.16411
-574,-223,-18.6392,4.59717,0.00439223,-0.000599598,0.00212429,0.00517385,-0.00138121,0.352568,0.00399013,0.0197777,650,1247,-18.6392,-4.59713
-567,-223,-18.4004,5.14343,0.00450866,-0.000290616,0.00275844,0.00576515,-0.0015471,0.427424,0.00444971,0.0334829,657,1247,-18.4004,-5.14341
-560,-223,-18.2937,5.71313,0,0,0,0,0,0,0,-1,664,1247,-18.2937,-5.71317
-553,-223,-11.4025,4.14722,0,0,0,0,0,0,0,-1,671,1247,-11.4025,-4.14719
-546,-223,-26.9034,-0.148682,0,0,0,0,0,0,0,-1,678,1247,-26.9034,0.14867
-539,-223,-26.2131,0.540405,0,0,0,0,0,0,0,-1,685,1247,-26.2131,-0.540404
-532,-223,-25.978,0.63147,0,0,0,0,0,0,0,-1,692,1247,-25.978,-0.631451
-525,-223,-26.2189,0.680298,0,0,0,0,0,0,0,-1,699,1247,-26.219,-0.680247
-518,-223,-26.4142,0.929321,0.00212427,0.00349371,0.00168449,0.00462733,0.00099065,0.97844,0.00281342,0.0470443,706,1247,-26.4143,-0.929331
-511,-223,-26.4016,0.842163,0.00102632,0.00357989,0.000642111,0.00373226,0.000873949,1.33781,0.00225406,0.0382934,713,1247,-26.4016,-0.842162
-504,-223,-26.3367,0.833008,0.00130454,0.00319424,0.000571169,0.00335347,0.00114532,1.29893,0.00196827,0.0406803,720,1247,-26.3367,-0.833021
-497,-223,0,0,0,0,0,0,0,0,0,-1,727,1247,0,0
-490,-223,0,0,0,0,0,0,0,0,0,-1,734,1247,0,0
-483,-223,0,0,0,0,0,0,0,0,0,-1,741,1247,0,0
-476,-223,0,0,0,0,0,0,0,0,0,-1,748,1247,0,0
-469,-223,0,0,0,0,0,0,0,0,0,-1,755,1247,0,0
-462,-223,0,0,0,0,0,0,0,0,0,-1,762,1247,0,0
-455,-223,0,0,0,0,0,0,0,0,0,-1,769,1247,0,0
-448,-223,0,0,0,0,0,0,0,0,0,-1,776,1247,0,0
-441,-223,0,0,0,0,0,0,0,0,0,-1,783,1247,0,0
-434,-223,0,0,0,0,0,0,0,0,0,-1,790,1247,0,0
-427,-223,0,0,0,0,0,0,0,0,0,-1,797,1247,0,0
-420,-223,0,0,0,0,0,0,0,0,0,-1,804,1247,0,0
-413,-223,0,0,0,0,0,0,0,0,0,-1,811,1247,0,0
-406,-223,0,0,0,0,0,0,0,0,0,-1,818,1247,0,0
-399,-223,0,0,0,0,0,0,0,0,0,-1,825,1247,0,0
-392,-223,0,0,0,0,0,0,0,0,0,-1,832,1247,0,0
-385,-223,0,0,0,0,0,0,0,0,0,-1,839,1247,0,0
-378,-223,0,0,0,0,0,0,0,0,0,-1,846,1247,0,0
-371,-223,0,0,0,0,0,0,0,0,0,-1,853,1247,0,0
-364,-223,0,0,0,0,0,0,0,0,0,-1,860,1247,0,0
-357,-223,0,0,0,0,0,0,0,0,0,-1,867,1247,0,0
-350,-223,0,0,0,0,0,0,0,0,0,-1,874,1247,0,0
-343,-223,0,0,0,0,0,0,0,0,0,-1,881,1247,0,0
-336,-223,0,0,0,0,0,0,0,0,0,-1,888,1247,0,0
-329,-223,0,0,0,0,0,0,0,0,0,-1,895,1247,0,0
-322,-223,0,0,0,0,0,0,0,0,0,-1,902,1247,0,0
-315,-223,0,0,0,0,0,0,0,0,0,-1,909,1247,0,0
-308,-223,0,0,0,0,0,0,0,0,0,-1,916,1247,0,0
-301,-223,0,0,0,0,0,0,0,0,0,-1,923,1247,0,0
-294,-223,0,0,0,0,0,0,0,0,0,-1,930,1247,0,0
-287,-223,0,0,0,0,0,0,0,0,0,-1,937,1247,0,0
-280,-223,0,0,0,0,0,0,0,0,0,-1,944,1247,0,0
-273,-223,0,0,0,0,0,0,0,0,0,-1,951,1247,0,0
-266,-223,0,0,0,0,0,0,0,0,0,-1,958,1247,0,0
-259,-223,0,0,0,0,0,0,0,0,0,-1,965,1247,0,0
-252,-223,0,0,0,0,0,0,0,0,0,-1,972,1247,0,0
-245,-223,0,0,0,0,0,0,0,0,0,-1,979,1247,0,0
-238,-223,0,0,0,0,0,0,0,0,0,-1,986,1247,0,0
-231,-223,0,0,0,0,0,0,0,0,0,-1,993,1247,0,0
-224,-223,0,0,0,0,0,0,0,0,0,-1,1000,1247,0,0
-217,-223,0,0,0,0,0,0,0,0,0,-1,1007,1247,0,0
-210,-223,0,0,0,0,0,0,0,0,0,-1,1014,1247,0,0
-203,-223,0,0,0,0,0,0,0,0,0,-1,1021,1247,0,0
-196,-223,0,0,0,0,0,0,0,0,0,-1,1028,1247,0,0
-189,-223,0,0,0,0,0,0,0,0,0,-1,1035,1247,0,0
-182,-223,0,0,0,0,0,0,0,0,0,-1,1042,1247,0,0
-175,-223,0,0,0,0,0,0,0,0,0,-1,1049,1247,0,0
-168,-223,0,0,0,0,0,0,0,0,0,-1,1056,1247,0,0
-161,-223,0,0,0,0,0,0,0,0,0,-1,1063,1247,0,0
-154,-223,0,0,0,0,0,0,0,0,0,-1,1070,1247,0,0
-147,-223,0,0,0,0,0,0,0,0,0,-1,1077,1247,0,0
-140,-223,0,0,0,0,0,0,0,0,0,-1,1084,1247,0,0
-133,-223,0,0,0,0,0,0,0,0,0,-1,1091,1247,0,0
-126,-223,0,0,0,0,0,0,0,0,0,-1,1098,1247,0,0
-119,-223,0,0,0,0,0,0,0,0,0,-1,1105,1247,0,0
-112,-223,0,0,0,0,0,0,0,0,0,-1,1112,1247,0,0
-105,-223,0,0,0,0,0,0,0,0,0,-1,1119,1247,0,0
-98,-223,0,0,0,0,0,0,0,0,0,-1,1126,1247,0,0
-91,-223,0,0,0,0,0,0,0,0,0,-1,1133,1247,0,0
-84,-223,0,0,0,0,0,0,0,0,0,-1,1140,1247,0,0
-77,-223,0,0,0,0,0,0,0,0,0,-1,1147,1247,0,0
-70,-223,0,0,0,0,0,0,0,0,0,-1,1154,1247,0,0
-63,-223,0,0,0,0,0,0,0,0,0,-1,1161,1247,0,0
-56,-223,0,0,0,0,0,0,0,0,0,-1,1168,1247,0,0
-49,-223,0,0,0,0,0,0,0,0,0,-1,1175,1247,0,0
-42,-223,0,0,0,0,0,0,0,0,0,-1,1182,1247,0,0
-35,-223,0,0,0,0,0,0,0,0,0,-1,1189,1247,0,0
-28,-223,0,0,0,0,0,0,0,0,0,-1,1196,1247,0,0
-21,-223,0,0,0,0,0,0,0,0,0,-1,1203,1247,0,0
-14,-223,0,0,0,0,0,0,0,0,0,-1,1210,1247,0,0
-7,-223,0,0,0,0,0,0,0,0,0,-1,1217,1247,0,0
0,-223,0,0,0,0,0,0,0,0,0,-1,1224,1247,0,0
7,-223,0,0,0,0,0,0,0,0,0,-1,1231,1247,0,0
14,-223,0,0,0,0,0,0,0,0,0,-1,1238,1247,0,0
21,-223,0,0,0,0,0,0,0,0,0,-1,1245,1247,0,0
28,-223,0,0,0,0,0,0,0,0,0,-1,1252,1247,0,0
35,-223,0,0,0,0,0,0,0,0,0,-1,1259,1247,0,0
42,-223,0,0,0,0,0,0,0,0,0,-1,1266,1247,0,0
49,-223,0,0,0,0,0,0,0,0,0,-1,1273,1247,0,0
56,-223,0,0,0,0,0,0,0,0,0,-1,1280,1247,0,0
63,-223,0,0,0,0,0,0,0,0,0,-1,1287,1247,0,0
70,-223,0,0,0,0,0,0,0,0,0,-1,1294,1247,0,0
77,-223,0,0,0,0,0,0,0,0,0,-1,1301,1247,0,0
84,-223,0,0,0,0,0,0,0,0,0,-1,1308,1247,0,0
91,-223,0,0,0,0,0,0,0,0,0,-1,1315,1247,0,0
98,-223,0,0,0,0,0,0,0,0,0,-1,1322,1247,0,0
105,-223,0,0,0,0,0,0,0,0,0,-1,1329,1247,0,0
112,-223,0,0,0,0,0,0,0,0,0,-1,1336,1247,0,0
119,-223,0,0,0,0,0,0,0,0,0,-1,1343,1247,0,0
126,-223,0,0,0,0,0,0,0,0,0,-1,1350,1247,0,0
133,-223,0,0,0,0,0,0,0,0,0,-1,1357,1247,0,0
140,-223,0,0,0,0,0,0,0,0,0,-1,1364,1247,0,0
147,-223,0,0,0,0,0,0,0,0,0,-1,1371,1247,0,0
154,-223,0,0,0,0,0,0,0,0,0,-1,1378,1247,0,0
161,-223,0,0,0,0,0,0,0,0,0,-1,1385,1247,0,0
168,-223,0,0,0,0,0,0,0,0,0,-1,1392,1247,0,0
175,-223,0,0,0,0,0,0,0,0,0,-1,1399,1247,0,0
182,-223,0,0,0,0,0,0,0,0,0,-1,1406,1247,0,0
189,-223,0,0,0,0,0,0,0,0,0,-1,1413,1247,0,0
196,-223,0,0,0,0,0,0,0,0,0,-1,1420,1247,0,0
203,-223,0,0,0,0,0,0,0,0,0,-1,1427,1247,0,0
210,-223,0,0,0,0,0,0,0,0,0,-1,1434,1247,0,0
217,-223,0,0,0,0,0,0,0,0,0,-1,1441,1247,0,0
224,-223,0,0,0,0,0,0,0,0,0,-1,1448,1247,0,0
231,-223,0,0,0,0,0,0,0,0,0,-1,1455,1247,0,0
238,-223,0,0,0,0,0,0,0,0,0,-1,1462,1247,0,0
245,-223,0,0,0,0,0,0,0,0,0,-1,1469,1247,0,0
252,-223,0,0,0,0,0,0,0,0,0,-1,1476,1247,0,0
259,-223,0,0,0,0,0,0,0,0,0,-1,1483,1247,0,0
266,-223,0,0,0,0,0,0,0,0,0,-1,1490,1247,0,0
273,-223,0,0,0,0,0,0,0,0,0,-1,1497,1247,0,0
280,-223,0,0,0,0,0,0,0,0,0,-1,1504,1247,0,0
287,-223,0,0,0,0,0,0,0,0,0,-1,1511,1247,0,0
294,-223,0,0,0,0,0,0,0,0,0,-1,1518,1247,0,0
301,-223,0,0,0,0,0,0,0,0,0,-1,1525,1247,0,0
308,-223,0,0,0,0,0,0,0,0,0,-1,1532,1247,0,0
315,-223,0,0,0,0,0,0,0,0,0,-1,1539,1247,0,0
322,-223,0,0,0,0,0,0,0,0,0,-1,1546,1247,0,0
329,-223,0,0,0,0,0,0,0,0,0,-1,1553,1247,0,0
336,-223,0,0,0,0,0,0,0,0,0,-1,1560,1247,0,0
343,-223,0,0,0,0,0,0,0,0,0,-1,1567,1247,0,0
350,-223,0,0,0,0,0,0,0,0,0,-1,1574,1247,0,0
357,-223,0,0,0,0,0,0,0,0,0,-1,1581,1247,0,0
364,-223,0,0,0,0,0,0,0,0,0,-1,1588,1247,0,0
371,-223,0,0,0,0,0,0,0,0,0,-1,1595,1247,0,0
378,-223,0,0,0,0,0,0,0,0,0,-1,1602,1247,0,0
385,-223,0,0,0,0,0,0,0,0,0,-1,1609,1247,0,0
392,-223,0,0,0,0,0,0,0,0,0,-1,1616,1247,0,0
399,-223,0,0,0,0,0,0,0,0,0,-1,1623,1247,0,0
406,-223,0,0,0,0,0,0,0,0,0,-1,1630,1247,0,0
413,-223,0,0,0,0,0,0,0,0,0,-1,1637,1247,0,0
420,-223,0,0,0,0,0,0,0,0,0,-1,1644,1247,0,0
427,-223,0,0,0,0,0,0,0,0,0,-1,1651,1247,0,0
434,-223,0,0,0,0,0,0,0,0,0,-1,1658,1247,0,0
441,-223,0,0,0,0,0,0,0,0,0,-1,1665,1247,0,0
448,-223,0,0,0,0,0,0,0,0,0,-1,1672,1247,0,0
455,-223,0,0,0,0,0,0,0,0,0,-1,1679,1247,0,0
462,-223,0,0,0,0,0,0,0,0,0,-1,1686,1247,0,0
469,-223,0,0,0,0,0,0,0,0,0,-1,1693,1247,0,0
476,-223,0,0,0,0,0,0,0,0,0,-1,1700,1247,0,0
483,-223,0,0,0,0,0,0,0,0,0,-1,1707,1247,0,0
490,-223,0,0,0,0,0,0,0,0,0,-1,1714,1247,0,0
497,-223,0,0,0,0,0,0,0,0,0,-1,1721,1247,0,0
504,-223,0,0,0,0,0,0,0,0,0,-1,1728,1247,0,0
511,-223,0,0,0,0,0,0,0,0,0,-1,1735,1247,0,0
518,-223,0,0,0,0,0,0,0,0,0,-1,1742,1247,0,0
525,-223,0,0,0,0,0,0,0,0,0,-1,1749,1247,0,0
532,-223,0,0,0,0,0,0,0,0,0,-1,1756,1247,0,0
539,-223,0,0,0,0,0,0,0,0,0,-1,1763,1247,0,0
546,-223,0,0,0,0,0,0,0,0,0,-1,1770,1247,0,0
553,-223,0,0,0,0,0,0,0,0,0,-1,1777,1247,0,0
560,-223,0,0,0,0,0,0,0,0,0,-1,1784,1247,0,0
567,-223,0,0,0,0,0,0,0,0,0,-1,1791,1247,0,0
574,-223,0,0,0,0,0,0,0,0,0,-1,1798,1247,0,0
581,-223,0,0,0,0,0,0,0,0,0,-1,1805,1247,0,0
588,-223,0,0,0,0,0,0,0,0,0,-1,1812,1247,0,0
595,-223,0,0,0,0,0,0,0,0,0,-1,1819,1247,0,0
602,-223,0,0,0,0,0,0,0,0,0,-1,1826,1247,0,0
609,-223,0,0,0,0,0,0,0,0,0,-1,1833,1247,0,0
616,-223,0,0,0,0,0,0,0,0,0,-1,1840,1247,0,0
623,-223,36.7384,2.78442,0,0,0,0,0,0,0,-1,1847,1247,36.7385,-2.78439
630,-223,36.9507,2.70483,0,0,0,0,0,0,0,-1,1854,1247,36.9507,-2.70478
637,-223,36.6827,2.46985,0.000549156,0.000324377,0.000787235,0.00123198,-0.000358451,0.714495,0.000963299,0.0292024,1861,1247,36.6828,-2.46984
644,-223,36.632,2.4939,0.00128846,-1.30481e-05,8.9346e-05,0.00129457,-1.9153e-05,0.0682214,0.000869499,0.0237993,1868,1247,36.6319,-2.49391
651,-223,36.6271,2.49951,0.00182065,-0.000171995,-0.000513938,0.0019454,-0.000296739,-0.238117,0.00140632,0.0312866,1875,1247,36.627,-2.49948
658,-223,36.7878,2.64612,0,0,0,0,0,0,0,-1,1882,1247,36.7878,-2.64616
665,-223,36.9299,2.62256,0,0,0,0,0,0,0,-1,1889,1247,36.9299,-2.62253
672,-223,36.4604,2.50073,0,0,0,0,0,0,0,-1,1896,1247,36.4605,-2.50076
679,-223,33.2679,1.37097,0,0,0,0,0,0,0,-1,1903,1247,33.2679,-1.371
686,-223,29.4832,7.62817,0,0,0,0,0,0,0,-1,1910,1247,29.4832,-7.62817
693,-223,29.5221,7.41638,0.0023861,-0.000892688,-0.000960364,0.00264668,-0.00115327,-0.264958,0.00224967,0.0390631,1917,1247,29.5221,-7.41639
700,-223,29.5132,7.13672,0.00235556,-0.00115795,-0.00100176,0.00262111,-0.0014235,-0.259121,0.00236903,0.0190809,1924,1247,29.5132,-7.13667
707,-223,29.4713,6.82202,0.00200871,-0.0012812,-0.000676456,0.00214237,-0.00141486,-0.195075,0.00206804,0.0153268,1931,1247,29.4713,-6.82201
714,-223,29.4915,6.51123,0.00139794,-0.00104022,-9.78812e-06,0.00139798,-0.00104026,-0.00401447,0.00141276,0.0110409,1938,1247,29.4914,-6.51127
721,-223,29.5005,6.18738,0.00115876,-0.000659997,0.000586096,0.00133127,-0.000832504,0.28625,0.00126027,0.0135863,1945,1247,29.5005,-6.18742
728,-223,29.5073,5.86963,0.00140815,-0.000183244,0.00101432,0.00190162,-0.000676723,0.4528,0.00154359,0.0160403,1952,1247,29.5074,-5.86964
735,-223,29.4821,5.57947,0.00236425,0.000511969,0.00126197,0.00300346,-0.000127239,0.468845,0.00204604,0.016113,1959,1247,29.482,-5.57942
742,-223,29.4503,5.29285,0.00402157,0.00137292,0.00135638,0.00459293,0.000801565,0.398676,0.00283282,0.0141709,1966,1247,29.4503,-5.29288
749,-223,29.4406,4.9386,0.00630828,0.00224306,0.00143026,0.00676106,0.00179028,0.306588,0.0040449,0.0116831,1973,1247,29.4406,-4.93855
756,-223,29.3867,4.61182,0.00942523,0.00295729,0.00147382,0.00974524,0.00263729,0.213805,0.00582042,0.0144981,1980,1247,29.3867,-4.61178
763,-223,29.3759,4.34485,0.0137468,0.00370806,0.0015042,0.0139673,0.00348752,0.145581,0.00839411,0.0187832,1987,1247,29.3759,-4.3449
770,-223,29.6284,4.0968,0.0190516,0.00428577,0.00187241,0.0192854,0.00405203,0.124188,0.0117417,0.0400861,1994,1247,29.6284,-4.09675
777,-223,29.8967,3.84155,0,0,0,0,0,0,0,-1,2001,1247,29.8968,-3.84161
784,-223,35.1801,2.14172,0,0,0,0,0,0,0,-1,2008,1247,35.1801,-2.14178
791,-223,34.7136,2.92554,0,0,0,0,0,0,0,-1,2015,1247,34.7137,-2.92555
798,-223,0,0,0,0,0,0,0,0,0,-1,2022,1247,0,0
805,-223,0,0,0,0,0,0,0,0,0,-1,2029,1247,0,0
812,-223,0,0,0,0,0,0,0,0,0,-1,2036,1247,0,0
-700,-230,0,0,0,0,0,0,0,0,0,-1,524,1254,0,0
-693,-230,0,0,0,0,0,0,0,0,0,-1,531,1254,0,0
-686,-230,0,0,0,0,0,0,0,0,0,-1,538,1254,0,0
-679,-230,0,0,0,0,0,0,0,0,0,-1,545,1254,0,0
-672,-230,-25.1188,-5.49597,0,0,0,0,0,0,0,-1,552,1254,-25.1188,5.49597
-665,-230,-23.8176,-4.34497,0,0,0,0,0,0,0,-1,559,1254,-23.8176,4.34502
-658,-230,-22.8109,-2.85522,0,0,0,0,0,0,0,-1,566,1254,-22.8108,2.85523
-651,-230,-21.3426,-1.73706,0,0,0,0,0,0,0,-1,573,1254,-21.3426,1.73706
-644,-230,-20.4573,-1.02039,0,0,0,0,0,0,0,-1,580,1254,-20.4573,1.02039
-637,-230,-18.2849,0.809082,0,0,0,0,0,0,0,-1,587,1254,-18.2848,-0.809132
-630,-230,-18.3757,1.35681,-0.000549121,0.0236273,0.0223177,0.0369203,-0.0138421,1.0336,0.0303005,0.0436765,594,1254,-18.3757,-1.35677
-623,-230,-18.2889,1.99182,0.000808438,0.0162887,0.0155501,0.0259185,-0.0088214,1.01632,0.020851,0.0267034,601,1254,-18.2889,-1.99179
-616,-230,-18.2992,2.37671,0.00165855,0.0106116,0.0103908,0.0174491,-0.00517896,0.988792,0.0136896,0.0159838,608,1254,-18.2992,-2.37676
-609,-230,-18.2797,2.74194,0.00225566,0.00596218,0.00642441,0.0107953,-0.00257746,0.925821,0.00819231,0.0116616,615,1254,-18.2796,-2.7419
-602,-230,-18.2792,3.08386,0.00267254,0.0026902,0.00361944,0.00630082,-0.00093808,0.786618,0.00454562,0.0115418,622,1254,-18.2792,-3.08391
-595,-230,-18.3027,3.44348,0.00307486,0.00114743,0.00224753,0.00455657,-0.000334286,0.58286,0.00315505,0.0178603,629,1254,-18.3028,-3.44353
-588,-230,-18.3138,3.82129,0.00374528,0.000429177,0.00176302,0.00450743,-0.000332976,0.408036,0.00312187,0.026499,636,1254,-18.3139,-3.82134
-581,-230,-18.3337,4.2146,0.00450216,5.18754e-05,0.00181972,0.0051515,-0.000597465,0.342751,0.00364983,0.0260916,643,1254,-18.3337,-4.21463
-574,-230,-18.2983,4.56897,0.00503521,2.1233e-05,0.00240998,0.00600572,-0.000949275,0.382835,0.00435486,0.0185711,650,1254,-18.2983,-4.56903
-567,-230,-18.0818,5.01721,0.00517142,0.000290529,0.00295706,0.00656503,-0.00110308,0.44041,0.00478693,0.0318705,657,1254,-18.0819,-5.01722
-560,-230,-17.7611,5.53284,0,0,0,0,0,0,0,-1,664,1254,-17.7611,-5.53278
-553,-230,-13.1939,4.9718,0,0,0,0,0,0,0,-1,671,1254,-13.1939,-4.97175
-546,-230,-15.23,0.453979,0,0,0,0,0,0,0,-1,678,1254,-15.23,-0.453996
-539,-230,-25.8232,0.512817,0,0,0,0,0,0,0,-1,685,1254,-25.8232,-0.512878
-532,-230,-21.1644,1.52966,0,0,0,0,0,0,0,-1,692,1254,-21.1644,-1.52969
-525,-230,-24.1401,0.738647,0,0,0,0,0,0,0,-1,699,1254,-24.1401,-0.738616
-518,-230,-26.3364,0.755371,0,0,0,0,0,0,0,-1,706,1254,-26.3364,-0.75534
-511,-230,-26.3614,0.69104,6.33076e-06,0.00426743,-0.000304726,0.00428911,-1.5351e-05,-1.49976,0.00286454,0.0389024,713,1254,-26.3614,-0.691048
-504,-230,-26.3395,0.703125,-0.000360037,0.00434421,-0.00109822,0.00458796,-0.000603788,-1.35239,0.00327849,0.0379058,720,1254,-26.3395,-0.703098
-497,-230,0,0,0,0,0,0,0,0,0,-1,727,1254,0,0
-490,-230,0,0,0,0,0,0,0,0,0,-1,734,1254,0,0
-483,-230,0,0,0,0,0,0,0,0,0,-1,741,1254,0,0
-476,-230,0,0,0,0,0,0,0,0,0,-1,748,1254,0,0
-469,-230,0,0,0,0,0,0,0,0,0,-1,755,1254,0,0
-462,-230,0,0,0,0,0,0,0,0,0,-1,762,1254,0,0
-455,-230,0,0,0,0,0,0,0,0,0,-1,769,1254,0,0
-448,-230,0,0,0,0,0,0,0,0,0,-1,776,1254,0,0
-441,-230,0,0,0,0,0,0,0,0,0,-1,783,1254,0,0
-434,-230,0,0,0,0,0,0,0,0,0,-1,790,1254,0,0
-427,-230,0,0,0,0,0,0,0,0,0,-1,797,1254,0,0
-420,-230,0,0,0,0,0,0,0,0,0,-1,804,1254,0,0
-413,-230,0,0,0,0,0,0,0,0,0,-1,811,1254,0,0
-406,-230,0,0,0,0,0,0,0,0,0,-1,818,1254,0,0
-399,-230,0,0,0,0,0,0,0,0,0,-1,825,1254,0,0
-392,-230,0,0,0,0,0,0,0,0,0,-1,832,1254,0,0
-385,-230,0,0,0,0,0,0,0,0,0,-1,839,1254,0,0
-378,-230,0,0,0,0,0,0,0,0,0,-1,846,1254,0,0
-371,-230,0,0,0,0,0,0,0,0,0,-1,853,1254,0,0
-364,-230,0,0,0,0,0,0,0,0,0,-1,860,1254,0,0
-357,-230,0,0,0,0,0,0,0,0,0,-1,867,1254,0,0
-350,-230,0,0,0,0,0,0,0,0,0,-1,874,1254,0,0
-343,-230,0,0,0,0,0,0,0,0,0,-1,881,1254,0,0
-336,-230,0,0,0,0,0,0,0,0,0,-1,888,1254,0,0
-329,-230,0,0,0,0,0,0,0,0,0,-1,895,1254,0,0
-322,-230,0,0,0,0,0,0,0,0,0,-1,902,1254,0,0
-315,-230,0,0,0,0,0,0,0,0,0,-1,909,1254,0,0
-308,-230,0,0,0,0,0,0,0,0,0,-1,916,1254,0,0
-301,-230,0,0,0,0,0,0,0,0,0,-1,923,1254,0,0
-294,-230,0,0,0,0,0,0,0,0,0,-1,930,1254,0,0
-287,-230,0,0,0,0,0,0,0,0,0,-1,937,1254,0,0
-280,-230,0,0,0,0,0,0,0,0,0,-1,944,1254,0,0
-273,-230,0,0,0,0,0,0,0,0,0,-1,951,1254,0,0
-266,-230,0,0,0,0,0,0,0,0,0,-1,958,1254,0,0
-259,-230,0,0,0,0,0,0,0,0,0,-1,965,1254,0,0
-252,-230,0,0,0,0,0,0,0,0,0,-1,972,1254,0,0
-245,-230,0,0,0,0,0,0,0,0,0,-1,979,1254,0,0
-238,-230,0,0,0,0,0,0,0,0,0,-1,986,1254,0,0
-231,-230,0,0,0,0,0,0,0,0,0,-1,993,1254,0,0
-224,-230,0,0,0,0,0,0,0,0,0,-1,1000,1254,0,0
-217,-230,0,0,0,0,0,0,0,0,0,-1,1007,1254,0,0
-210,-230,0,0,0,0,0,0,0,0,0,-1,1014,1254,0,0
-203,-230,0,0,0,0,0,0,0,0,0,-1,1021,1254,0,0
-196,-230,0,0,0,0,0,0,0,0,0,-1,1028,1254,0,0
-189,-230,0,0,0,0,0,0,0,0,0,-1,1035,1254,0,0
-182,-230,0,0,0,0,0,0,0,0,0,-1,1042,1254,0,0
-175,-230,0,0,0,0,0,0,0,0,0,-1,1049,1254,0,0
-168,-230,0,0,0,0,0,0,0,0,0,-1,1056,1254,0,0
-161,-230,0,0,0,0,0,0,0,0,0,-1,1063,1254,0,0
-154,-230,0,0,0,0,0,0,0,0,0,-1,1070,1254,0,0
-147,-230,0,0,0,0,0,0,0,0,0,-1,1077,1254,0,0
-140,-230,0,0,0,0,0,0,0,0,0,-1,1084,1254,0,0
-133,-230,0,0,0,0,0,0,0,0,0,-1,1091,1254,0,0
-126,-230,0,0,0,0,0,0,0,0,0,-1,1098,1254,0,0
-119,-230,0,0,0,0,0,0,0,0,0,-1,1105,1254,0,0
-112,-230,0,0,0,0,0,0,0,0,0,-1,1112,1254,0,0
-105,-230,0,0,0,0,0,0,0,0,0,-1,1119,1254,0,0
-98,-230,0,0,0,0,0,0,0,0,0,-1,1126,1254,0,0
-91,-230,0,0,0,0,0,0,0,0,0,-1,1133,1254,0,0
-84,-230,0,0,0,0,0,0,0,0,0,-1,1140,1254,0,0
-77,-230,0,0,0,0,0,0,0,0,0,-1,1147,1254,0,0
-70,-230,0,0,0,0,0,0,0,0,0,-1,1154,1254,0,0
-63,-230,0,0,0,0,0,0,0,0,0,-1,1161,1254,0,0
-56,-230,0,0,0,0,0,0,0,0,0,-1,1168,1254,0,0
-49,-230,0,0,0,0,0,0,0,0,0,-1,1175,1254,0,0
-42,-230,0,0,0,0,0,0,0,0,0,-1,1182,1254,0,0
-35,-230,0,0,0,0,0,0,0,0,0,-1,1189,1254,0,0
-28,-230,0,0,0,0,0,0,0,0,0,-1,1196,1254,0,0
-21,-230,0,0,0,0,0,0,0,0,0,-1,1203,1254,0,0
-14,-230,0,0,0,0,0,0,0,0,0,-1,1210,1254,0,0
-7,-230,0,0,0,0,0,0,0,0,0,-1,1217,1254,0,0
0,-230,0,0,0,0,0,0,0,0,0,-1,1224,1254,0,0
7,-230,0,0,0,0,0,0,0,0,0,-1,1231,1254,0,0
14,-230,0,0,0,0,0,0,0,0,0,-1,1238,1254,0,0
21,-230,0,0,0,0,0,0,0,0,0,-1,1245,1254,0,0
28,-230,0,0,0,0,0,0,0,0,0,-1,1252,1254,0,0
35,-230,0,0,0,0,0,0,0,0,0,-1,1259,1254,0,0
42,-230,0,0,0,0,0,0,0,0,0,-1,1266,1254,0,0
49,-230,0,0,0,0,0,0,0,0,0,-1,1273,1254,0,0
56,-230,0,0,0,0,0,0,0,0,0,-1,1280,1254,0,0
63,-230,0,0,0,0,0,0,0,0,0,-1,1287,1254,0,0
70,-230,0,0,0,0,0,0,0,0,0,-1,1294,1254,0,0
77,-230,0,0,0,0,0,0,0,0,0,-1,1301,1254,0,0
84,-230,0,0,0,0,0,0,0,0,0,-1,1308,1254,0,0
91,-230,0,0,0,0,0,0,0,0,0,-1,1315,1254,0,0
98,-230,0,0,0,0,0,0,0,0,0,-1,1322,1254,0,0
105,-230,0,0,0,0,0,0,0,0,0,-1,1329,1254,0,0
112,-230,0,0,0,0,0,0,0,0,0,-1,1336,1254,0,0
119,-230,0,0,0,0,0,0,0,0,0,-1,1343,1254,0,0
126,-230,0,0,0,0,0,0,0,0,0,-1,1350,1254,0,0
133,-230,0,0,0,0,0,0,0,0,0,-1,1357,1254,0,0
140,-230,0,0,0,0,0,0,0,0,0,-1,1364,1254,0,0
147,-230,0,0,0,0,0,0,0,0,0,-1,1371,1254,0,0
154,-230,0,0,0,0,0,0,0,0,0,-1,1378,1254,0,0
161,-230,0,0,0,0,0,0,0,0,0,-1,1385,1254,0,0
168,-230,0,0,0,0,0,0,0,0,0,-1,1392,1254,0,0
175,-230,0,0,0,0,0,0,0,0,0,-1,1399,1254,0,0
182,-230,0,0,0,0,0,0,0,0,0,-1,1406,1254,0,0
189,-230,0,0,0,0,0,0,0,0,0,-1,1413,1254,0,0
196,-230,0,0,0,0,0,0,0,0,0,-1,1420,1254,0,0
203,-230,0,0,0,0,0,0,0,0,0,-1,1427,1254,0,0
210,-230,0,0,0,0,0,0,0,0,0,-1,1434,1254,0,0
217,-230,0,0,0,0,0,0,0,0,0,-1,1441,1254,0,0
224,-230,0,0,0,0,0,0,0,0,0,-1,1448,1254,0,0
231,-230,0,0,0,0,0,0,0,0,0,-1,1455,1254,0,0
238,-230,0,0,0,0,0,0,0,0,0,-1,1462,1254,0,0
245,-230,0,0,0,0,0,0,0,0,0,-1,1469,1254,0,0
252,-230,0,0,0,0,0,0,0,0,0,-1,1476,1254,0,0
259,-230,0,0,0,0,0,0,0,0,0,-1,1483,1254,0,0
266,-230,0,0,0,0,0,0,0,0,0,-1,1490,1254,0,0
273,-230,0,0,0,0,0,0,0,0,0,-1,1497,1254,0,0
280,-230,0,0,0,0,0,0,0,0,0,-1,1504,1254,0,0
287,-230,0,0,0,0,0,0,0,0,0,-1,1511,1254,0,0
294,-230,0,0,0,0,0,0,0,0,0,-1,1518,1254,0,0
301,-230,0,0,0,0,0,0,0,0,0,-1,1525,1254,0,0
308,-230,0,0,0,0,0,0,0,0,0,-1,1532,1254,0,0
315,-230,0,0,0,0,0,0,0,0,0,-1,1539,1254,0,0
322,-230,0,0,0,0,0,0,0,0,0,-1,1546,1254,0,0
329,-230,0,0,0,0,0,0,0,0,0,-1,1553,1254,0,0
336,-230,0,0,0,0,0,0,0,0,0,-1,1560,1254,0,0
343,-230,0,0,0,0,0,0,0,0,0,-1,1567,1254,0,0
350,-230,0,0,0,0,0,0,0,0,0,-1,1574,1254,0,0
357,-230,0,0,0,0,0,0,0,0,0,-1,1581,1254,0,0
364,-230,0,0,0,0,0,0,0,0,0,-1,1588,1254,0,0
371,-230,0,0,0,0,0,0,0,0,0,-1,1595,1254,0,0
378,-230,0,0,0,0,0,0,0,0,0,-1,1602,1254,0,0
385,-230,0,0,0,0,0,0,0,0,0,-1,1609,1254,0,0
392,-230,0,0,0,0,0,0,0,0,0,-1,1616,1254,0,0
399,-230,0,0,0,0,0,0,0,0,0,-1,1623,1254,0,0
406,-230,0,0,0,0,0,0,0,0,0,-1,1630,1254,0,0
413,-230,0,0,0,0,0,0,0,0,0,-1,1637,1254,0,0
420,-230,0,0,0,0,0,0,0,0,0,-1,1644,1254,0,0
427,-230,0,0,0,0,0,0,0,0,0,-1,1651,1254,0,0
434,-230,0,0,0,0,0,0,0,0,0,-1,1658,1254,0,0
441,-230,0,0,0,0,0,0,0,0,0,-1,1665,1254,0,0
448,-230,0,0,0,0,0,0,0,0,0,-1,1672,1254,0,0
455,-230,0,0,0,0,0,0,0,0,0,-1,1679,1254,0,0
462,-230,0,0,0,0,0,0,0,0,0,-1,1686,1254,0,0
469,-230,0,0,0,0,0,0,0,0,0,-1,1693,1254,0,0
476,-230,0,0,0,0,0,0,0,0,0,-1,1700,1254,0,0
483,-230,0,0,0,0,0,0,0,0,0,-1,1707,1254,0,0
490,-230,0,0,0,0,0,0,0,0,0,-1,1714,1254,0,0
497,-230,0,0,0,0,0,0,0,0,0,-1,1721,1254,0,0
504,-230,0,0,0,0,0,0,0,0,0,-1,1728,1254,0,0
511,-230,0,0,0,0,0,0,0,0,0,-1,1735,1254,0,0
518,-230,0,0,0,0,0,0,0,0,0,-1,1742,1254,0,0
525,-230,0,0,0,0,0,0,0,0,0,-1,1749,1254,0,0
532,-230,0,0,0,0,0,0,0,0,0,-1,1756,1254,0,0
539,-230,0,0,0,0,0,0,0,0,0,-1,1763,1254,0,0
546,-230,0,0,0,0,0,0,0,0,0,-1,1770,1254,0,0
553,-230,0,0,0,0,0,0,0,0,0,-1,1777,1254,0,0
560,-230,0,0,0,0,0,0,0,0,0,-1,1784,1254,0,0
567,-230,0,0,0,0,0,0,0,0,0,-1,1791,1254,0,0
574,-230,0,0,0,0,0,0,0,0,0,-1,1798,1254,0,0
581,-230,0,0,0,0,0,0,0,0,0,-1,1805,1254,0,0
588,-230,0,0,0,0,0,0,0,0,0,-1,1812,1254,0,0
595,-230,0,0,0,0,0,0,0,0,0,-1,1819,1254,0,0
602,-230,0,0,0,0,0,0,0,0,0,-1,1826,1254,0,0
609,-230,0,0,0,0,0,0,0,0,0,-1,1833,1254,0,0
616,-230,36.7192,2.66821,0,0,0,0,0,0,0,-1,1840,1254,36.7193,-2.66816
623,-230,36.608,3.22705,0,0,0,0,0,0,0,-1,1847,1254,36.608,-3.22707
630,-230,36.7333,2.6875,0.00149427,0.000182406,0.00195526,0.00290069,-0.00122401,0.623561,0.0024461,0.0327705,1854,1254,36.7333,-2.68749
637,-230,36.6229,2.48132,0.00289169,-0.000190811,0.000964717,0.00316871,-0.000467838,0.279634,0.00228445,0.0280075,1861,1254,36.6229,-2.48131
644,-230,36.5338,2.42993,0.00331571,-0.000488039,0.000412299,0.00335988,-0.000532216,0.106741,0.00243678,0.0225569,1868,1254,36.5338,-2.42996
651,-230,36.498,2.42786,0.00335689,-0.000551967,-0.000117319,0.00336041,-0.000555485,-0.0299776,0.00244655,0.0480909,1875,1254,36.498,-2.42787
658,-230,36.4692,2.46216,0,0,0,0,0,0,0,-1,1882,1254,36.4692,-2.46213
665,-230,35.6455,2.42224,0,0,0,0,0,0,0,-1,1889,1254,35.6455,-2.42224
672,-230,36.2837,2.78186,0,0,0,0,0,0,0,-1,1896,1254,36.2837,-2.78192
679,-230,27.9967,2.37708,0,0,0,0,0,0,0,-1,1903,1254,27.9967,-2.3771
686,-230,29.0447,7.58618,0,0,0,0,0,0,0,-1,1910,1254,29.0447,-7.58612
693,-230,29.1034,7.41003,0.0025135,-0.000830382,-0.000897894,0.00273935,-0.00105623,-0.246418,0.00226206,0.037524,1917,1254,29.1033,-7.41004
700,-230,29.1761,7.17615,0.00252741,-0.00110658,-0.00101191,0.00279018,-0.00136935,-0.254069,0.00244776,0.0122919,1924,1254,29.1761,-7.17612
707,-230,29.1534,6.85486,0.00212982,-0.00122144,-0.00068006,0.00226257,-0.00135418,-0.192771,0.00210997,0.00949463,1931,1254,29.1534,-6.85492
714,-230,29.145,6.52808,0.00147182,-0.000925894,-1.2976e-05,0.00147189,-0.000925964,-0.0054116,0.00139631,0.0125098,1938,1254,29.145,-6.52813
721,-230,29.1561,6.19604,0.00131987,-0.000470768,0.000544674,0.00147254,-0.000623431,0.273271,0.00124277,0.012409,1945,1254,29.1561,-6.19609
728,-230,29.149,5.89221,0.00162784,8.46592e-05,0.000930936,0.00206538,-0.000352879,0.439359,0.00150837,0.0135433,1952,1254,29.149,-5.89223
735,-230,29.1304,5.59155,0.00259985,0.00083882,0.00114566,0.00316427,0.000274396,0.45776,0.00202426,0.0144005,1959,1254,29.1303,-5.59151
742,-230,29.1123,5.26221,0.0043045,0.00173267,0.00116842,0.00475605,0.00128112,0.36878,0.00284161,0.0112665,1966,1254,29.1123,-5.26222
749,-230,29.0995,4.92871,0.00685496,0.0027369,0.00106817,0.00711554,0.00247632,0.239276,0.00417094,0.0107864,1973,1254,29.0995,-4.92876
756,-230,29.084,4.60876,0.0107118,0.00394088,0.000685935,0.0107806,0.00387209,0.0999524,0.00630596,0.0155725,1980,1254,29.084,-4.60877
763,-230,29.0741,4.2594,0.0163334,0.0053336,2.61153e-05,0.0163335,0.00533354,0.00237414,0.00961745,0.0309813,1987,1254,29.0741,-4.25941
770,-230,29.3466,3.91956,0.0241349,0.00705429,-0.000841434,0.0241762,0.00701294,-0.0491042,0.0143624,0.0459338,1994,1254,29.3465,-3.91954
777,-230,29.6378,3.65405,0,0,0,0,0,0,0,-1,2001,1254,29.6378,-3.65407
784,-230,35.8896,1.80334,0,0,0,0,0,0,0,-1,2008,1254,35.8897,-1.80338
791,-230,35.6028,2.20642,0,0,0,0,0,0,0,-1,2015,1254,35.6027,-2.2064
798,-230,0,0,0,0,0,0,0,0,0,-1,2022,1254,0,0
805,-230,0,0,0,0,0,0,0,0,0,-1,2029,1254,0,0
812,-230,0,0,0,0,0,0,0,0,0,-1,2036,1254,0,0
-700,-237,0,0,0,0,0,0,0,0,0,-1,524,1261,0,0
-693,-237,0,0,0,0,0,0,0,0,0,-1,531,1261,0,0
-686,-237,0,0,0,0,0,0,0,0,0,-1,538,1261,0,0
-679,-237,0,0,0,0,0,0,0,0,0,-1,545,1261,0,0
-672,-237,-24.1933,-5.62341,0,0,0,0,0,0,0,-1,552,1261,-24.1933,5.62342
-665,-237,-23.6584,-3.88452,0,0,0,0,0,0,0,-1,559,1261,-23.6584,3.88455
-658,-237,-22.2975,-2.88074,0,0,0,0,0,0,0,-1,566,1261,-22.2975,2.8807
-651,-237,-20.9041,-1.64807,0,0,0,0,0,0,0,-1,573,1261,-20.9041,1.64811
-644,-237,-19.877,-0.803223,0,0,0,0,0,0,0,-1,580,1261,-19.8769,0.803206
-637,-237,-18.1058,0.845703,0,0,0,0,0,0,0,-1,587,1261,-18.1058,-0.845733
-630,-237,-18.0281,1.41809,-0.000717341,0.0218656,0.0243072,0.0373759,-0.0162277,1.00283,0.0317407,0.0448456,594,1261,-18.0281,-1.41807
-623,-237,-17.9308,1.98853,0.000868636,0.0154865,0.0174386,0.0270859,-0.0107307,0.98384,0.0225038,0.0295369,601,1261,-17.9308,-1.98847
-616,-237,-17.9011,2.38916,0.00186293,0.0105255,0.0120697,0.0190175,-0.00662912,0.957669,0.0153721,0.0144348,608,1261,-17.901,-2.3891
-609,-237,-17.8997,2.75757,0.00256247,0.00651883,0.0079339,0.0127174,-0.00363614,0.907574,0.00991513,0.0158906,615,1261,-17.8997,-2.75751
-602,-237,-17.9024,3.10986,0.00305115,0.00357249,0.00481793,0.0081368,-0.00151315,0.812424,0.00599293,0.0123623,622,1261,-17.9024,-3.10981
-595,-237,-17.9429,3.48022,0.00351095,0.00186528,0.00302192,0.00582005,-0.000443821,0.652476,0.00403612,0.0156912,629,1261,-17.9429,-3.48018
-588,-237,-17.9589,3.85266,0.00411075,0.0010278,0.00219421,0.00525083,-0.000112276,0.479191,0.00353857,0.0280772,636,1261,-17.9589,-3.85268
-581,-237,-17.9534,4.23584,0.00477528,0.000585276,0.00212006,0.00566083,-0.000300271,0.395671,0.00387785,0.0269348,643,1261,-17.9534,-4.2358
-574,-237,-17.9558,4.61047,0.00529728,0.000553799,0.00262217,0.00646121,-0.000610127,0.417752,0.00452458,0.0155972,650,1261,-17.9558,-4.61045
-567,-237,-17.8914,5.01367,0.00547222,0.000816373,0.00309857,0.00701991,-0.000731315,0.463235,0.00494178,0.0205728,657,1261,-17.8914,-5.01363
-560,-237,-17.517,5.53735,0.00549671,0.00131246,0.00321317,0.00723884,-0.00042966,0.496821,0.0049753,0.0462003,664,1261,-17.517,-5.53736
-553,-237,-17.1097,5.88147,0,0,0,0,0,0,0,-1,671,1261,-17.1097,-5.88149
-546,-237,-11.192,1.14014,0,0,0,0,0,0,0,-1,678,1261,-11.192,-1.14011
-539,-237,-16.512,1.53455,0,0,0,0,0,0,0,-1,685,1261,-16.512,-1.53457
-532,-237,-22.1423,1.43213,0,0,0,0,0,0,0,-1,692,1261,-22.1423,-1.43207
-525,-237,-26.1511,1.29529,0,0,0,0,0,0,0,-1,699,1261,-26.1511,-1.29528
-518,-237,-26.1732,0.914795,-0.000365755,0.0031924,-0.000157113,0.00319932,-0.000372679,-1.52675,0.00226734,0.0499749,706,1261,-26.1732,-0.914778
-511,-237,-26.3008,0.729492,-0.00145948,0.00366601,-0.00143851,0.00404214,-0.0018356,-1.31505,0.00347231,0.0423972,713,1261,-26.3008,-0.729498
-504,-237,-26.441,0.741943,-0.00206358,0.00409789,-0.00227943,0.00484948,-0.00281518,-1.25229,0.00447685,0.0408928,720,1261,-26.441,-0.741893
-497,-237,-26.5665,0.897095,0,0,0,0,0,0,0,-1,727,1261,-26.5665,-0.89715
-490,-237,0,0,0,0,0,0,0,0,0,-1,734,1261,0,0
-483,-237,0,0,0,0,0,0,0,0,0,-1,741,1261,0,0
-476,-237,0,0,0,0,0,0,0,0,0,-1,748,1261,0,0
-469,-237,0,0,0,0,0,0,0,0,0,-1,755,1261,0,0
-462,-237,0,0,0,0,0,0,0,0,0,-1,762,1261,0,0
-455,-237,0,0,0,0,0,0,0,0,0,-1,769,1261,0,0
-448,-237,0,0,0,0,0,0,0,0,0,-1,776,1261,0,0
-441,-237,0,0,0,0,0,0,0,0,0,-1,783,1261,0,0
-434,-237,0,0,0,0,0,0,0,0,0,-1,790,1261,0,0
-427,-237,0,0,0,0,0,0,0,0,0,-1,797,1261,0,0
-420,-237,0,0,0,0,0,0,0,0,0,-1,804,1261,0,0
-413,-237,0,0,0,0,0,0,0,0,0,-1,811,1261,0,0
-406,-237,0,0,0,0,0,0,0,0,0,-1,818,1261,0,0
-399,-237,0,0,0,0,0,0,0,0,0,-1,825,1261,0,0
-392,-237,0,0,0,0,0,0,0,0,0,-1,832,1261,0,0
-385,-237,0,0,0,0,0,0,0,0,0,-1,839,1261,0,0
-378,-237,0,0,0,0,0,0,0,0,0,-1,846,1261,0,0
-371,-237,0,0,0,0,0,0,0,0,0,-1,853,1261,0,0
-364,-237,0,0,0,0,0,0,0,0,0,-1,860,1261,0,0
-357,-237,0,0,0,0,0,0,0,0,0,-1,867,1261,0,0
-350,-237,0,0,0,0,0,0,0,0,0,-1,874,1261,0,0
-343,-237,0,0,0,0,0,0,0,0,0,-1,881,1261,0,0
-336,-237,0,0,0,0,0,0,0,0,0,-1,888,1261,0,0
-329,-237,0,0,0,0,0,0,0,0,0,-1,895,1261,0,0
-322,-237,0,0,0,0,0,0,0,0,0,-1,902,1261,0,0
-315,-237,0,0,0,0,0,0,0,0,0,-1,909,1261,0,0
-308,-237,0,0,0,0,0,0,0,0,0,-1,916,1261,0,0
-301,-237,0,0,0,0,0,0,0,0,0,-1,923,1261,0,0
-294,-237,0,0,0,0,0,0,0,0,0,-1,930,1261,0,0
-287,-237,0,0,0,0,0,0,0,0,0,-1,937,1261,0,0
-280,-237,0,0,0,0,0,0,0,0,0,-1,944,1261,0,0
-273,-237,0,0,0,0,0,0,0,0,0,-1,951,1261,0,0
-266,-237,0,0,0,0,0,0,0,0,0,-1,958,1261,0,0
-259,-237,0,0,0,0,0,0,0,0,0,-1,965,1261,0,0
-252,-237,0,0,0,0,0,0,0,0,0,-1,972,1261,0,0
-245,-237,0,0,0,0,0,0,0,0,0,-1,979,1261,0,0
-238,-237,0,0,0,0,0,0,0,0,0,-1,986,1261,0,0
-231,-237,0,0,0,0,0,0,0,0,0,-1,993,1261,0,0
-224,-237,0,0,0,0,0,0,0,0,0,-1,1000,1261,0,0
-217,-237,0,0,0,0,0,0,0,0,0,-1,1007,1261,0,0
-210,-237,0,0,0,0,0,0,0,0,0,-1,1014,1261,0,0
-203,-237,0,0,0,0,0,0,0,0,0,-1,1021,1261,0,0
-196,-237,0,0,0,0,0,0,0,0,0,-1,1028,1261,0,0
-189,-237,0,0,0,0,0,0,0,0,0,-1,1035,1261,0,0
-182,-237,0,0,0,0,0,0,0,0,0,-1,1042,1261,0,0
-175,-237,0,0,0,0,0,0,0,0,0,-1,1049,1261,0,0
-168,-237,0,0,0,0,0,0,0,0,0,-1,1056,1261,0,0
-161,-237,0,0,0,0,0,0,0,0,0,-1,1063,1261,0,0
-154,-237,0,0,0,0,0,0,0,0,0,-1,1070,1261,0,0
-147,-237,0,0,0,0,0,0,0,0,0,-1,1077,1261,0,0
-140,-237,0,0,0,0,0,0,0,0,0,-1,1084,1261,0,0
-133,-237,0,0,0,0,0,0,0,0,0,-1,1091,1261,0,0
-126,-237,0,0,0,0,0,0,0,0,0,-1,1098,1261,0,0
-119,-237,0,0,0,0,0,0,0,0,0,-1,1105,1261,0,0
-112,-237,0,0,0,0,0,0,0,0,0,-1,1112,1261,0,0
-105,-237,0,0,0,0,0,0,0,0,0,-1,1119,1261,0,0
-98,-237,0,0,0,0,0,0,0,0,0,-1,1126,1261,0,0
-91,-237,0,0,0,0,0,0,0,0,0,-1,1133,1261,0,0
-84,-237,0,0,0,0,0,0,0,0,0,-1,1140,1261,0,0
-77,-237,0,0,0,0,0,0,0,0,0,-1,1147,1261,0,0
-70,-237,0,0,0,0,0,0,0,0,0,-1,1154,1261,0,0
-63,-237,0,0,0,0,0,0,0,0,0,-1,1161,1261,0,0
-56,-237,0,0,0,0,0,0,0,0,0,-1,1168,1261,0,0
-49,-237,0,0,0,0,0,0,0,0,0,-1,1175,1261,0,0
-42,-237,0,0,0,0,0,0,0,0,0,-1,1182,1261,0,0
-35,-237,0,0,0,0,0,0,0,0,0,-1,1189,1261,0,0
-28,-237,0,0,0,0,0,0,0,0,0,-1,1196,1261,0,0
-21,-237,0,0,0,0,0,0,0,0,0,-1,1203,1261,0,0
-14,-237,0,0,0,0,0,0,0,0,0,-1,1210,1261,0,0
-7,-237,0,0,0,0,0,0,0,0,0,-1,1217,1261,0,0
0,-237,0,0,0,0,0,0,0,0,0,-1,1224,1261,0,0
7,-237,0,0,0,0,0,0,0,0,0,-1,1231,1261,0,0
14,-237,0,0,0,0,0,0,0,0,0,-1,1238,1261,0,0
21,-237,0,0,0,0,0,0,0,0,0,-1,1245,1261,0,0
28,-237,0,0,0,0,0,0,0,0,0,-1,1252,1261,0,0
35,-237,0,0,0,0,0,0,0,0,0,-1,1259,1261,0,0
42,-237,0,0,0,0,0,0,0,0,0,-1,1266,1261,0,0
49,-237,0,0,0,0,0,0,0,0,0,-1,1273,1261,0,0
56,-237,0,0,0,0,0,0,0,0,0,-1,1280,1261,0,0
63,-237,0,0,0,0,0,0,0,0,0,-1,1287,1261,0,0
70,-237,0,0,0,0,0,0,0,0,0,-1,1294,1261,0,0
77,-237,0,0,0,0,0,0,0,0,0,-1,1301,1261,0,0
84,-237,0,0,0,0,0,0,0,0,0,-1,1308,1261,0,0
91,-237,0,0,0,0,0,0,0,0,0,-1,1315,1261,0,0
98,-237,0,0,0,0,0,0,0,0,0,-1,1322,1261,0,0
105,-237,0,0,0,0,0,0,0,0,0,-1,1329,1261,0,0
112,-237,0,0,0,0,0,0,0,0,0,-1,1336,1261,0,0
119,-237,0,0,0,0,0,0,0,0,0,-1,1343,1261,0,0
126,-237,0,0,0,0,0,0,0,0,0,-1,1350,1261,0,0
133,-237,0,0,0,0,0,0,0,0,0,-1,1357,1261,0,0
140,-237,0,0,0,0,0,0,0,0,0,-1,1364,1261,0,0
147,-237,0,0,0,0,0,0,0,0,0,-1,1371,1261,0,0
154,-237,0,0,0,0,0,0,0,0,0,-1,1378,1261,0,0
161,-237,0,0,0,0,0,0,0,0,0,-1,1385,1261,0,0
168,-237,0,0,0,0,0,0,0,0,0,-1,1392,1261,0,0
175,-237,0,0,0,0,0,0,0,0,0,-1,1399,1261,0,0
182,-237,0,0,0,0,0,0,0,0,0,-1,1406,1261,0,0
189,-237,0,0,0,0,0,0,0,0,0,-1,1413,1261,0,0
196,-237,0,0,0,0,0,0,0,0,0,-1,1420,1261,0,0
203,-237,0,0,0,0,0,0,0,0,0,-1,1427,1261,0,0
210,-237,0,0,0,0,0,0,0,0,0,-1,1434,1261,0,0
217,-237,0,0,0,0,0,0,0,0,0,-1,1441,1261,0,0
224,-237,0,0,0,0,0,0,0,0,0,-1,1448,1261,0,0
231,-237,0,0,0,0,0,0,0,0,0,-1,1455,1261,0,0
238,-237,0,0,0,0,0,0,0,0,0,-1,1462,1261,0,0
245,-237,0,0,0,0,0,0,0,0,0,-1,1469,1261,0,0
252,-237,0,0,0,0,0,0,0,0,0,-1,1476,1261,0,0
259,-237,0,0,0,0,0,0,0,0,0,-1,1483,1261,0,0
266,-237,0,0,0,0,0,0,0,0,0,-1,1490,1261,0,0
273,-237,0,0,0,0,0,0,0,0,0,-1,1497,1261,0,0
280,-237,0,0,0,0,0,0,0,0,0,-1,1504,1261,0,0
287,-237,0,0,0,0,0,0,0,0,0,-1,1511,1261,0,0
294,-237,0,0,0,0,0,0,0,0,0,-1,1518,1261,0,0
301,-237,0,0,0,0,0,0,0,0,0,-1,1525,1261,0,0
308,-237,0,0,0,0,0,0,0,0,0,-1,1532,1261,0,0
315,-237,0,0,0,0,0,0,0,0,0,-1,1539,1261,0,0
322,-237,0,0,0,0,0,0,0,0,0,-1,1546,1261,0,0
329,-237,0,0,0,0,0,0,0,0,0,-1,1553,1261,0,0
336,-237,0,0,0,0,0,0,0,0,0,-1,1560,1261,0,0
343,-237,0,0,0,0,0,0,0,0,0,-1,1567,1261,0,0
350,-237,0,0,0,0,0,0,0,0,0,-1,1574,1261,0,0
357,-237,0,0,0,0,0,0,0,0,0,-1,1581,1261,0,0
364,-237,0,0,0,0,0,0,0,0,0,-1,1588,1261,0,0
371,-237,0,0,0,0,0,0,0,0,0,-1,1595,1261,0,0
378,-237,0,0,0,0,0,0,0,0,0,-1,1602,1261,0,0
385,-237,0,0,0,0,0,0,0,0,0,-1,1609,1261,0,0
392,-237,0,0,0,0,0,0,0,0,0,-1,1616,1261,0,0
399,-237,0,0,0,0,0,0,0,0,0,-1,1623,1261,0,0
406,-237,0,0,0,0,0,0,0,0,0,-1,1630,1261,0,0
413,-237,0,0,0,0,0,0,0,0,0,-1,1637,1261,0,0
420,-237,0,0,0,0,0,0,0,0,0,-1,1644,1261,0,0
427,-237,0,0,0,0,0,0,0,0,0,-1,1651,1261,0,0
434,-237,0,0,0,0,0,0,0,0,0,-1,1658,1261,0,0
441,-237,0,0,0,0,0,0,0,0,0,-1,1665,1261,0,0
448,-237,0,0,0,0,0,0,0,0,0,-1,1672,1261,0,0
455,-237,0,0,0,0,0,0,0,0,0,-1,1679,1261,0,0
462,-237,0,0,0,0,0,0,0,0,0,-1,1686,1261,0,0
469,-237,0,0,0,0,0,0,0,0,0,-1,1693,1261,0,0
476,-237,0,0,0,0,0,0,0,0,0,-1,1700,1261,0,0
483,-237,0,0,0,0,0,0,0,0,0,-1,1707,1261,0,0
490,-237,0,0,0,0,0,0,0,0,0,-1,1714,1261,0,0
497,-237,0,0,0,0,0,0,0,0,0,-1,1721,1261,0,0
504,-237,0,0,0,0,0,0,0,0,0,-1,1728,1261,0,0
511,-237,0,0,0,0,0,0,0,0,0,-1,1735,1261,0,0
518,-237,0,0,0,0,0,0,0,0,0,-1,1742,1261,0,0
525,-237,0,0,0,0,0,0,0,0,0,-1,1749,1261,0,0
532,-237,0,0,0,0,0,0,0,0,0,-1,1756,1261,0,0
539,-237,0,0,0,0,0,0,0,0,0,-1,1763,1261,0,0
546,-237,0,0,0,0,0,0,0,0,0,-1,1770,1261,0,0
553,-237,0,0,0,0,0,0,0,0,0,-1,1777,1261,0,0
560,-237,0,0,0,0,0,0,0,0,0,-1,1784,1261,0,0
567,-237,0,0,0,0,0,0,0,0,0,-1,1791,1261,0,0
574,-237,0,0,0,0,0,0,0,0,0,-1,1798,1261,0,0
581,-237,0,0,0,0,0,0,0,0,0,-1,1805,1261,0,0
588,-237,0,0,0,0,0,0,0,0,0,-1,1812,1261,0,0
595,-237,0,0,0,0,0,0,0,0,0,-1,1819,1261,0,0
602,-237,0,0,0,0,0,0,0,0,0,-1,1826,1261,0,0
609,-237,0,0,0,0,0,0,0,0,0,-1,1833,1261,0,0
616,-237,36.8119,2.45569,-0.00199855,0.00104171,0.00298965,0.00287551,-0.00383235,1.0206,0.00388589,0.0394672,1840,1261,36.8119,-2.45566
623,-237,36.7789,2.51123,0.00149925,0.000411183,0.00260514,0.00361656,-0.00170612,0.682462,0.00313834,0.0346104,1847,1261,36.779,-2.51122
630,-237,36.6505,2.51831,0.00457153,-0.000147475,0.00198575,0.00529593,-0.000871876,0.349798,0.00385426,0.0268748,1854,1261,36.6506,-2.51826
637,-237,36.4969,2.39966,0.0063325,-0.000549735,0.00114623,0.00651838,-0.000735617,0.160769,0.0046104,0.022542,1861,1261,36.4969,-2.39962
644,-237,36.3212,2.24158,0.00602157,-0.000782756,0.000703843,0.00609361,-0.0008548,0.102002,0.00437526,0.0442126,1868,1261,36.3212,-2.24161
651,-237,36.3834,2.39929,0,0,0,0,0,0,0,-1,1875,1261,36.3834,-2.39924
658,-237,35.9078,2.54199,0,0,0,0,0,0,0,-1,1882,1261,35.9078,-2.54204
665,-237,35.4371,2.24023,0,0,0,0,0,0,0,-1,1889,1261,35.4371,-2.24018
672,-237,34.3209,1.89246,0,0,0,0,0,0,0,-1,1896,1261,34.3209,-1.89241
679,-237,23.1501,7.37488,0,0,0,0,0,0,0,-1,1903,1261,23.1502,-7.37493
686,-237,28.8073,7.87964,0,0,0,0,0,0,0,-1,1910,1261,28.8072,-7.87958
693,-237,28.7817,7.5282,0.0026391,-0.000729768,-0.000965404,0.00289614,-0.000986808,-0.260215,0.00233042,0.0398356,1917,1261,28.7817,-7.52816
700,-237,28.8375,7.19434,0.00265225,-0.000989263,-0.00111705,0.0029676,-0.00130461,-0.275147,0.00252808,0.0117511,1924,1261,28.8375,-7.19432
707,-237,28.8282,6.86536,0.00218728,-0.00106541,-0.000758263,0.00235536,-0.00123349,-0.218137,0.0021055,0.0100332,1931,1261,28.8283,-6.86537
714,-237,28.819,6.53528,0.00149872,-0.000704298,-0.000107798,0.00150398,-0.00070956,-0.0487768,0.00130513,0.0142596,1938,1261,28.8189,-6.53524
721,-237,28.7893,6.21106,0.00141707,-0.000174959,0.000401548,0.00151261,-0.000270505,0.233601,0.00110962,0.0163366,1945,1261,28.7893,-6.21101
728,-237,28.8208,5.8822,0.00174437,0.000456226,0.000759829,0.00209637,0.000104221,0.433833,0.00136417,0.0147311,1952,1261,28.8207,-5.88214
735,-237,28.8013,5.55615,0.0026807,0.00126644,0.000957147,0.00316359,0.000783545,0.467255,0.00190245,0.0187265,1959,1261,28.8012,-5.5561
742,-237,28.796,5.25818,0.0043293,0.00222096,0.000969861,0.00470758,0.00184268,0.371884,0.0027392,0.0143318,1966,1261,28.796,-5.2582
749,-237,28.7561,4.96179,0.00690392,0.00331678,0.000835796,0.0070891,0.0031316,0.218038,0.00410214,0.00997804,1973,1261,28.7562,-4.96177
756,-237,28.7223,4.63818,0.0108998,0.00467775,0.000353611,0.0109198,0.00465772,0.0565894,0.00632719,0.0166409,1980,1261,28.7223,-4.63816
763,-237,28.6859,4.27124,0.0168192,0.0062932,-0.000473776,0.0168405,0.00627192,-0.0448891,0.00982776,0.0325543,1987,1261,28.6859,-4.2712
770,-237,28.868,3.78638,0.0251908,0.00829541,-0.00163764,0.0253481,0.00813814,-0.0957405,0.0149439,0.045712,1994,1261,28.868,-3.78634
777,-237,29.0082,3.32373,0,0,0,0,0,0,0,-1,2001,1261,29.0082,-3.32376
784,-237,36.3441,1.68591,0,0,0,0,0,0,0,-1,2008,1261,36.3441,-1.68592
791,-237,32.3025,6.03235,0,0,0,0,0,0,0,-1,2015,1261,32.3025,-6.03229
798,-237,0,0,0,0,0,0,0,0,0,-1,2022,1261,0,0
805,-237,0,0,0,0,0,0,0,0,0,-1,2029,1261,0,0
812,-237,0,0,0,0,0,0,0,0,0,-1,2036,1261,0,0
-700,-244,0,0,0,0,0,0,0,0,0,-1,524,1268,0,0
-693,-244,0,0,0,0,0,0,0,0,0,-1,531,1268,0,0
-686,-244,0,0,0,0,0,0,0,0,0,-1,538,1268,0,0
-679,-244,0,0,0,0,0,0,0,0,0,-1,545,1268,0,0
-672,-244,-24.6511,-4.55249,0,0,0,0,0,0,0,-1,552,1268,-24.6511,4.55252
-665,-244,-23.2858,-3.56384,0,0,0,0,0,0,0,-1,559,1268,-23.2859,3.56386
-658,-244,-21.9284,-2.57263,0,0,0,0,0,0,0,-1,566,1268,-21.9284,2.57259
-651,-244,-20.579,-1.52625,0,0,0,0,0,0,0,-1,573,1268,-20.579,1.52629
-644,-244,-17.5208,-0.124756,0,0,0,0,0,0,0,-1,580,1268,-17.5208,0.124729
-637,-244,-17.598,0.517212,-0.00382704,0.0280652,0.0352613,0.0508185,-0.0265803,0.99775,0.0454107,0.0468392,587,1268,-17.598,-0.517245
-630,-244,-17.8154,1.3689,-0.00123795,0.0210482,0.0269147,0.0390354,-0.0192251,0.981663,0.0342787,0.0410823,594,1268,-17.8154,-1.36885
-623,-244,-17.7711,1.97156,0.000562867,0.0154166,0.0198089,0.0291452,-0.0131657,0.964751,0.0250021,0.0322262,601,1268,-17.7711,-1.97161
-616,-244,-17.5228,2.40271,0.00170169,0.0109307,0.0140868,0.0211395,-0.00850711,0.943679,0.0176268,0.0168527,608,1268,-17.5228,-2.40274
-609,-244,-17.5174,2.75354,0.00250554,0.00730651,0.00963747,0.014838,-0.00502591,0.907454,0.0119257,0.0147297,615,1268,-17.5174,-2.75355
-602,-244,-17.537,3.11572,0.00307441,0.00450022,0.00613419,0.00996279,-0.00238817,0.843248,0.00756464,0.015523,622,1268,-17.5371,-3.11569
-595,-244,-17.5801,3.49561,0.00363807,0.00251081,0.00385504,0.00697047,-0.000821588,0.712809,0.00494365,0.0166037,629,1268,-17.5802,-3.49561
-588,-244,-17.5842,3.86072,0.00420715,0.00150556,0.00260012,0.00578642,-7.37119e-05,0.54583,0.00388242,0.0211112,636,1268,-17.5842,-3.86069
-581,-244,-17.5698,4.21936,0.00483032,0.000898607,0.00236261,0.00593798,-0.000209059,0.438403,0.00403015,0.018285,643,1268,-17.5698,-4.21936
-574,-244,-17.5894,4.6134,0.00538824,0.000790925,0.00277716,0.00669464,-0.000515475,0.439695,0.00464446,0.0127675,650,1268,-17.5893,-4.61346
-567,-244,-17.5848,4.99634,0.0056592,0.00105453,0.00320472,0.00730287,-0.000589137,0.473907,0.00507637,0.0107322,657,1268,-17.5849,-4.99636
-560,-244,-17.5233,5.36951,0.00566224,0.00158865,0.00325226,0.00746286,-0.00021197,0.505642,0.00504738,0.0300862,664,1268,-17.5233,-5.36948
-553,-244,-17.4187,5.77124,0,0,0,0,0,0,0,-1,671,1268,-17.4187,-5.77119
-546,-244,-11.2686,4.41772,0,0,0,0,0,0,0,-1,678,1268,-11.2686,-4.41767
-539,-244,-12.8706,0.3302,0,0,0,0,0,0,0,-1,685,1268,-12.8706,-0.330156
-532,-244,-18.1502,0.816528,0,0,0,0,0,0,0,-1,692,1268,-18.1502,-0.816514
-525,-244,-26.207,1.06152,0,0,0,0,0,0,0,-1,699,1268,-26.207,-1.06152
-518,-244,-26.1326,0.911133,0,0,0,0,0,0,0,-1,706,1268,-26.1326,-0.911094
-511,-244,-26.3707,0.950806,0,0,0,0,0,0,0,-1,713,1268,-26.3707,-0.95076
-504,-244,-26.3754,0.839844,0,0,0,0,0,0,0,-1,720,1268,-26.3753,-0.839903
-497,-244,-26.7557,1.10742,0,0,0,0,0,0,0,-1,727,1268,-26.7557,-1.10741
-490,-244,0,0,0,0,0,0,0,0,0,-1,734,1268,0,0
-483,-244,0,0,0,0,0,0,0,0,0,-1,741,1268,0,0
-476,-244,0,0,0,0,0,0,0,0,0,-1,748,1268,0,0
-469,-244,0,0,0,0,0,0,0,0,0,-1,755,1268,0,0
-462,-244,0,0,0,0,0,0,0,0,0,-1,762,1268,0,0
-455,-244,0,0,0,0,0,0,0,0,0,-1,769,1268,0,0
-448,-244,0,0,0,0,0,0,0,0,0,-1,776,1268,0,0
-441,-244,0,0,0,0,0,0,0,0,0,-1,783,1268,0,0
-434,-244,0,0,0,0,0,0,0,0,0,-1,790,1268,0,0
-427,-244,0,0,0,0,0,0,0,0,0,-1,797,1268,0,0
-420,-244,0,0,0,0,0,0,0,0,0,-1,804,1268,0,0
-413,-244,0,0,0,0,0,0,0,0,0,-1,811,1268,0,0
-406,-244,0,0,0,0,0,0,0,0,0,-1,818,1268,0,0
-399,-244,0,0,0,0,0,0,0,0,0,-1,825,1268,0,0
-392,-244,0,0,0,0,0,0,0,0,0,-1,832,1268,0,0
-385,-244,0,0,0,0,0,0,0,0,0,-1,839,1268,0,0
-378,-244,0,0,0,0,0,0,0,0,0,-1,846,1268,0,0
-371,-244,0,0,0,0,0,0,0,0,0,-1,853,1268,0,0
-364,-244,0,0,0,0,0,0,0,0,0,-1,860,1268,0,0
-357,-244,0,0,0,0,0,0,0,0,0,-1,867,1268,0,0
-350,-244,0,0,0,0,0,0,0,0,0,-1,874,1268,0,0
-343,-244,0,0,0,0,0,0,0,0,0,-1,881,1268,0,0
-336,-244,0,0,0,0,0,0,0,0,0,-1,888,1268,0,0
-329,-244,0,0,0,0,0,0,0,0,0,-1,895,1268,0,0
-322,-244,0,0,0,0,0,0,0,0,0,-1,902,1268,0,0
-315,-244,0,0,0,0,0,0,0,0,0,-1,909,1268,0,0
-308,-244,0,0,0,0,0,0,0,0,0,-1,916,1268,0,0
-301,-244,0,0,0,0,0,0,0,0,0,-1,923,1268,0,0
-294,-244,0,0,0,0,0,0,0,0,0,-1,930,1268,0,0
-287,-244,0,0,0,0,0,0,0,0,0,-1,937,1268,0,0
-280,-244,0,0,0,0,0,0,0,0,0,-1,944,1268,0,0
-273,-244,0,0,0,0,0,0,0,0,0,-1,951,1268,0,0
-266,-244,0,0,0,0,0,0,0,0,0,-1,958,1268,0,0
-259,-244,0,0,0,0,0,0,0,0,0,-1,965,1268,0,0
-252,-244,0,0,0,0,0,0,0,0,0,-1,972,1268,0,0
-245,-244,0,0,0,0,0,0,0,0,0,-1,979,1268,0,0
-238,-244,0,0,0,0,0,0,0,0,0,-1,986,1268,0,0
-231,-244,0,0,0,0,0,0,0,0,0,-1,993,1268,0,0
-224,-244,0,0,0,0,0,0,0,0,0,-1,1000,1268,0,0
-217,-244,0,0,0,0,0,0,0,0,0,-1,1007,1268,0,0
-210,-244,0,0,0,0,0,0,0,0,0,-1,1014,1268,0,0
-203,-244,0,0,0,0,0,0,0,0,0,-1,1021,1268,0,0
-196,-244,0,0,0,0,0,0,0,0,0,-1,1028,1268,0,0
-189,-244,0,0,0,0,0,0,0,0,0,-1,1035,1268,0,0
-182,-244,0,0,0,0,0,0,0,0,0,-1,1042,1268,0,0
-175,-244,0,0,0,0,0,0,0,0,0,-1,1049,1268,0,0
-168,-244,0,0,0,0,0,0,0,0,0,-1,1056,1268,0,0
-161,-244,0,0,0,0,0,0,0,0,0,-1,1063,1268,0,0
-154,-244,0,0,0,0,0,0,0,0,0,-1,1070,1268,0,0
-147,-244,0,0,0,0,0,0,0,0,0,-1,1077,1268,0,0
-140,-244,0,0,0,0,0,0,0,0,0,-1,1084,1268,0,0
-133,-244,0,0,0,0,0,0,0,0,0,-1,1091,1268,0,0
-126,-244,0,0,0,0,0,0,0,0,0,-1,1098,1268,0,0
-119,-244,0,0,0,0,0,0,0,0,0,-1,1105,1268,0,0
-112,-244,0,0,0,0,0,0,0,0,0,-1,1112,1268,0,0
-105,-244,0,0,0,0,0,0,0,0,0,-1,1119,1268,0,0
-98,-244,0,0,0,0,0,0,0,0,0,-1,1126,1268,0,0
-91,-244,0,0,0,0,0,0,0,0,0,-1,1133,1268,0,0
-84,-244,0,0,0,0,0,0,0,0,0,-1,1140,1268,0,0
-77,-244,0,0,0,0,0,0,0,0,0,-1,1147,1268,0,0
-70,-244,0,0,0,0,0,0,0,0,0,-1,1154,1268,0,0
-63,-244,0,0,0,0,0,0,0,0,0,-1,1161,1268,0,0
-56,-244,0,0,0,0,0,0,0,0,0,-1,1168,1268,0,0
-49,-244,0,0,0,0,0,0,0,0,0,-1,1175,1268,0,0
-42,-244,0,0,0,0,0,0,0,0,0,-1,1182,1268,0,0
-35,-244,0,0,0,0,0,0,0,0,0,-1,1189,1268,0,0
-28,-244,0,0,0,0,0,0,0,0,0,-1,1196,1268,0,0
-21,-244,0,0,0,0,0,0,0,0,0,-1,1203,1268,0,0
-14,-244,0,0,0,0,0,0,0,0,0,-1,1210,1268,0,0
-7,-244,0,0,0,0,0,0,0,0,0,-1,1217,1268,0,0
0,-244,0,0,0,0,0,0,0,0,0,-1,1224,1268,0,0
7,-244,0,0,0,0,0,0,0,0,0,-1,1231,1268,0,0
14,-244,0,0,0,0,0,0,0,0,0,-1,1238,1268,0,0
21,-244,0,0,0,0,0,0,0,0,0,-1,1245,1268,0,0
28,-244,0,0,0,0,0,0,0,0,0,-1,1252,1268,0,0
35,-244,0,0,0,0,0,0,0,0,0,-1,1259,1268,0,0
42,-244,0,0,0,0,0,0,0,0,0,-1,1266,1268,0,0
49,-244,0,0,0,0,0,0,0,0,0,-1,1273,1268,0,0
56,-244,0,0,0,0,0,0,0,0,0,-1,1280,1268,0,0
63,-244,0,0,0,0,0,0,0,0,0,-1,1287,1268,0,0
70,-244,0,0,0,0,0,0,0,0,0,-1,1294,1268,0,0
77,-244,0,0,0,0,0,0,0,0,0,-1,1301,1268,0,0
84,-244,0,0,0,0,0,0,0,0,0,-1,1308,1268,0,0
91,-244,0,0,0,0,0,0,0,0,0,-1,1315,1268,0,0
98,-244,0,0,0,0,0,0,0,0,0,-1,1322,1268,0,0
105,-244,0,0,0,0,0,0,0,0,0,-1,1329,1268,0,0
112,-244,0,0,0,0,0,0,0,0,0,-1,1336,1268,0,0
119,-244,0,0,0,0,0,0,0,0,0,-1,1343,1268,0,0
126,-244,0,0,0,0,0,0,0,0,0,-1,1350,1268,0,0
133,-244,0,0,0,0,0,0,0,0,0,-1,1357,1268,0,0
140,-244,0,0,0,0,0,0,0,0,0,-1,1364,1268,0,0
147,-244,0,0,0,0,0,0,0,0,0,-1,1371,1268,0,0
154,-244,0,0,0,0,0,0,0,0,0,-1,1378,1268,0,0
161,-244,0,0,0,0,0,0,0,0,0,-1,1385,1268,0,0
168,-244,0,0,0,0,0,0,0,0,0,-1,1392,1268,0,0
175,-244,0,0,0,0,0,0,0,0,0,-1,1399,1268,0,0
182,-244,0,0,0,0,0,0,0,0,0,-1,1406,1268,0,0
189,-244,0,0,0,0,0,0,0,0,0,-1,1413,1268,0,0
196,-244,0,0,0,0,0,0,0,0,0,-1,1420,1268,0,0
203,-244,0,0,0,0,0,0,0,0,0,-1,1427,1268,0,0
210,-244,0,0,0,0,0,0,0,0,0,-1,1434,1268,0,0
217,-244,0,0,0,0,0,0,0,0,0,-1,1441,1268,0,0
224,-244,0,0,0,0,0,0,0,0,0,-1,1448,1268,0,0
231,-244,0,0,0,0,0,0,0,0,0,-1,1455,1268,0,0
238,-244,0,0,0,0,0,0,0,0,0,-1,1462,1268,0,0
245,-244,0,0,0,0,0,0,0,0,0,-1,1469,1268,0,0
252,-244,0,0,0,0,0,0,0,0,0,-1,1476,1268,0,0
259,-244,0,0,0,0,0,0,0,0,0,-1,1483,1268,0,0
266,-244,0,0,0,0,0,0,0,0,0,-1,1490,1268,0,0
273,-244,0,0,0,0,0,0,0,0,0,-1,1497,1268,0,0
280,-244,0,0,0,0,0,0,0,0,0,-1,1504,1268,0,0
287,-244,0,0,0,0,0,0,0,0,0,-1,1511,1268,0,0
294,-244,0,0,0,0,0,0,0,0,0,-1,1518,1268,0,0
301,-244,0,0,0,0,0,0,0,0,0,-1,1525,1268,0,0
308,-244,0,0,0,0,0,0,0,0,0,-1,1532,1268,0,0
315,-244,0,0,0,0,0,0,0,0,0,-1,1539,1268,0,0
322,-244,0,0,0,0,0,0,0,0,0,-1,1546,1268,0,0
329,-244,0,0,0,0,0,0,0,0,0,-1,1553,1268,0,0
336,-244,0,0,0,0,0,0,0,0,0,-1,1560,1268,0,0
343,-244,0,0,0,0,0,0,0,0,0,-1,1567,1268,0,0
350,-244,0,0,0,0,0,0,0,0,0,-1,1574,1268,0,0
357,-244,0,0,0,0,0,0,0,0,0,-1,1581,1268,0,0
364,-244,0,0,0,0,0,0,0,0,0,-1,1588,1268,0,0
371,-244,0,0,0,0,0,0,0,0,0,-1,1595,1268,0,0
378,-244,0,0,0,0,0,0,0,0,0,-1,1602,1268,0,0
385,-244,0,0,0,0,0,0,0,0,0,-1,1609,1268,0,0
392,-244,0,0,0,0,0,0,0,0,0,-1,1616,1268,0,0
399,-244,0,0,0,0,0,0,0,0,0,-1,1623,1268,0,0
406,-244,0,0,0,0,0,0,0,0,0,-1,1630,1268,0,0
413,-244,0,0,0,0,0,0,0,0,0,-1,1637,1268,0,0
420,-244,0,0,0,0,0,0,0,0,0,-1,1644,1268,0,0
427,-244,0,0,0,0,0,0,0,0,0,-1,1651,1268,0,0
434,-244,0,0,0,0,0,0,0,0,0,-1,1658,1268,0,0
441,-244,0,0,0,0,0,0,0,0,0,-1,1665,1268,0,0
448,-244,0,0,0,0,0,0,0,0,0,-1,1672,1268,0,0
455,-244,0,0,0,0,0,0,0,0,0,-1,1679,1268,0,0
462,-244,0,0,0,0,0,0,0,0,0,-1,1686,1268,0,0
469,-244,0,0,0,0,0,0,0,0,0,-1,1693,1268,0,0
476,-244,0,0,0,0,0,0,0,0,0,-1,1700,1268,0,0
483,-244,0,0,0,0,0,0,0,0,0,-1,1707,1268,0,0
490,-244,0,0,0,0,0,0,0,0,0,-1,1714,1268,0,0
497,-244,0,0,0,0,0,0,0,0,0,-1,1721,1268,0,0
504,-244,0,0,0,0,0,0,0,0,0,-1,1728,1268,0,0
511,-244,0,0,0,0,0,0,0,0,0,-1,1735,1268,0,0
518,-244,0,0,0,0,0,0,0,0,0,-1,1742,1268,0,0
525,-244,0,0,0,0,0,0,0,0,0,-1,1749,1268,0,0
532,-244,0,0,0,0,0,0,0,0,0,-1,1756,1268,0,0
539,-244,0,0,0,0,0,0,0,0,0,-1,1763,1268,0,0
546,-244,0,0,0,0,0,0,0,0,0,-1,1770,1268,0,0
553,-244,0,0,0,0,0,0,0,0,0,-1,1777,1268,0,0
560,-244,0,0,0,0,0,0,0,0,0,-1,1784,1268,0,0
567,-244,0,0,0,0,0,0,0,0,0,-1,1791,1268,0,0
574,-244,0,0,0,0,0,0,0,0,0,-1,1798,1268,0,0
581,-244,0,0,0,0,0,0,0,0,0,-1,1805,1268,0,0
588,-244,0,0,0,0,0,0,0,0,0,-1,1812,1268,0,0
595,-244,0,0,0,0,0,0,0,0,0,-1,1819,1268,0,0
602,-244,0,0,0,0,0,0,0,0,0,-1,1826,1268,0,0
609,-244,0,0,0,0,0,0,0,0,0,-1,1833,1268,0,0
616,-244,36.6218,2.39941,-0.000130964,0.00177501,0.0027413,0.00372425,-0.00208021,0.952683,0.00339572,0.0351648,1840,1268,36.6218,-2.39938
623,-244,36.6536,2.49854,0.00573286,0.000475386,0.00263693,0.00682752,-0.000619271,0.393477,0.00477152,0.0280007,1847,1268,36.6535,-2.4985
630,-244,36.606,2.49524,0.00982241,-0.000555685,0.00221444,0.0102752,-0.00100844,0.201677,0.00720981,0.0253696,1854,1268,36.6059,-2.49518
637,-244,36.5217,2.45007,0.010612,-0.00107583,0.00150606,0.0108029,-0.00126677,0.126113,0.00765919,0.0418636,1861,1268,36.5217,-2.45004
644,-244,36.0835,2.02588,0,0,0,0,0,0,0,-1,1868,1268,36.0836,-2.02583
651,-244,35.6914,2.7644,0,0,0,0,0,0,0,-1,1875,1268,35.6914,-2.76441
658,-244,36.0818,2.49146,0,0,0,0,0,0,0,-1,1882,1268,36.0818,-2.49151
665,-244,34.1017,1.93958,0,0,0,0,0,0,0,-1,1889,1268,34.1016,-1.93961
672,-244,32.224,3.6123,0,0,0,0,0,0,0,-1,1896,1268,32.224,-3.6123
679,-244,27.2593,7.90649,0,0,0,0,0,0,0,-1,1903,1268,27.2592,-7.9065
686,-244,28.4926,8.0459,0,0,0,0,0,0,0,-1,1910,1268,28.4925,-8.04585
693,-244,28.4681,7.63599,0.00259461,-0.000782887,-0.00098481,0.00286079,-0.00104906,-0.263972,0.00233674,0.0207374,1917,1268,28.4681,-7.63602
700,-244,28.4861,7.22266,0.00253933,-0.000967087,-0.00116363,0.00289035,-0.0013181,-0.292978,0.00248563,0.0089985,1924,1268,28.4861,-7.22271
707,-244,28.4832,6.88391,0.0019899,-0.000927913,-0.000803046,0.00219632,-0.00113433,-0.251592,0.00195526,0.0104042,1931,1268,28.4832,-6.88392
714,-244,28.5178,6.56396,0.00129862,-0.000472634,-0.000189095,0.00131858,-0.000492596,-0.105179,0.00108132,0.013007,1938,1268,28.5178,-6.56397
721,-244,28.4825,6.25305,0.00127665,0.000125582,0.000274599,0.0013388,6.34296e-05,0.222589,0.00087216,0.0162289,1945,1268,28.4825,-6.253
728,-244,28.4512,5.875,0.00161334,0.000813654,0.000612844,0.00194525,0.000481752,0.496353,0.00116979,0.0205063,1952,1268,28.4512,-5.87501
735,-244,28.4271,5.49792,0.00253092,0.00166012,0.000798148,0.0030047,0.00118634,0.535702,0.00174751,0.0244035,1959,1268,28.4271,-5.4979
742,-244,28.4127,5.26672,0.00415476,0.00266734,0.000796329,0.00450065,0.00232144,0.409776,0.00259889,0.0165278,1966,1268,28.4127,-5.26669
749,-244,28.3252,5.03491,0.00678812,0.00386038,0.000612693,0.00691116,0.00373733,0.198195,0.00399458,0.0229782,1973,1268,28.3253,-5.03495
756,-244,28.1982,4.73633,0.0109534,0.0054058,-4.35447e-06,0.0109534,0.0054058,-0.00078493,0.00632412,0.0323107,1980,1268,28.1982,-4.73631
763,-244,28.2976,4.28735,0.0171638,0.00733375,-0.00109402,0.017284,0.00721347,-0.109509,0.0100243,0.0430971,1987,1268,28.2977,-4.28741
770,-244,28.8223,3.80945,0.0260749,0.00972521,-0.00270153,0.0265097,0.00929039,-0.159586,0.0155319,0.0489054,1994,1268,28.8222,-3.80947
777,-244,28.9069,3.28882,0,0,0,0,0,0,0,-1,2001,1268,28.9069,-3.28885
784,-244,31.7908,5.20081,0,0,0,0,0,0,0,-1,2008,1268,31.7907,-5.20083
791,-244,0,0,0,0,0,0,0,0,0,-1,2015,1268,0,0
798,-244,0,0,0,0,0,0,0,0,0,-1,2022,1268,0,0
805,-244,0,0,0,0,0,0,0,0,0,-1,2029,1268,0,0
812,-244,0,0,0,0,0,0,0,0,0,-1,2036,1268,0,0
-700,-251,0,0,0,0,0,0,0,0,0,-1,524,1275,0,0
-693,-251,0,0,0,0,0,0,0,0,0,-1,531,1275,0,0
-686,-251,0,0,0,0,0,0,0,0,0,-1,538,1275,0,0
-679,-251,0,0,0,0,0,0,0,0,0,-1,545,1275,0,0
-672,-251,0,0,0,0,0,0,0,0,0,-1,552,1275,0,0
-665,-251,-22.9258,-3.25146,0,0,0,0,0,0,0,-1,559,1275,-22.9258,3.25143
-658,-251,-21.5661,-2.2854,0,0,0,0,0,0,0,-1,566,1275,-21.5661,2.28545
-651,-251,-19.854,-1.68555,0,0,0,0,0,0,0,-1,573,1275,-19.854,1.68556
-644,-251,-17.6574,0.0905762,0,0,0,0,0,0,0,-1,580,1275,-17.6574,-0.0906182
-637,-251,-17.6461,0.716187,-0.00450839,0.0267389,0.0383036,0.0524827,-0.0302522,0.979043,0.0483384,0.0450726,587,1275,-17.646,-0.716127
-630,-251,-17.6772,1.31824,-0.00175063,0.020727,0.0298604,0.0413936,-0.0224172,0.965388,0.0373803,0.0454789,594,1275,-17.6772,-1.31821
-623,-251,-17.5154,1.9325,0.000185598,0.0157519,0.0224847,0.0317624,-0.0158249,0.95202,0.0279834,0.0395234,601,1275,-17.5154,-1.93244
-616,-251,-17.1378,2.3866,0.00143466,0.0116164,0.0163417,0.0236419,-0.0105908,0.936397,0.0202374,0.0204681,608,1275,-17.1378,-2.38657
-609,-251,-17.16,2.73743,0.00233376,0.00816819,0.0114335,0.0170508,-0.00654885,0.910306,0.0140678,0.0202665,615,1275,-17.16,-2.73737
-602,-251,-17.1684,3.10718,0.00297986,0.00539342,0.00744679,0.0117306,-0.0033573,0.865727,0.00914721,0.0148898,622,1275,-17.1684,-3.10722
-595,-251,-17.181,3.47339,0.00363342,0.00306829,0.00463554,0.007995,-0.00129328,0.754958,0.00580928,0.0129679,629,1275,-17.1809,-3.47336
-588,-251,-17.1951,3.83875,0.00412604,0.00188697,0.00290641,0.00612107,-0.00010807,0.601559,0.00411721,0.014644,636,1275,-17.1951,-3.83873
-581,-251,-17.1906,4.23364,0.00465655,0.00106671,0.00250127,0.00594029,-0.000217018,0.474177,0.00403448,0.0136292,643,1275,-17.1906,-4.23364
-574,-251,-17.1875,4.64746,0.00519767,0.000850408,0.00287273,0.00662644,-0.000578357,0.461529,0.00462249,0.012589,650,1275,-17.1875,-4.64741
-567,-251,-17.1997,5.02722,0.00558147,0.00105349,0.00331583,0.0073325,-0.000697544,0.48586,0.00513666,0.0116634,657,1275,-17.1997,-5.02717
-560,-251,-17.1832,5.46313,0.00567212,0.00161117,0.00337959,0.00758429,-0.000301002,0.514893,0.00515946,0.0263606,664,1275,-17.1832,-5.46313
-553,-251,-17.0978,5.89331,0,0,0,0,0,0,0,-1,671,1275,-17.0978,-5.89327
-546,-251,-12.995,4.5675,0,0,0,0,0,0,0,-1,678,1275,-12.995,-4.56745
-539,-251,-10.7916,0.366333,0,0,0,0,0,0,0,-1,685,1275,-10.7916,-0.366282
-532,-251,-10.7391,-0.00769043,0,0,0,0,0,0,0,-1,692,1275,-10.7391,0.00773227
-525,-251,-25.9559,1.01697,0,0,0,0,0,0,0,-1,699,1275,-25.956,-1.01692
-518,-251,-25.828,0.962158,0,0,0,0,0,0,0,-1,706,1275,-25.828,-0.962102
-511,-251,-25.7001,0.907227,0,0,0,0,0,0,0,-1,713,1275,-25.7001,-0.907283
-504,-251,-26.1997,0.647339,0,0,0,0,0,0,0,-1,720,1275,-26.1997,-0.647344
-497,-251,-26.3107,1.48792,0,0,0,0,0,0,0,-1,727,1275,-26.3107,-1.48792
-490,-251,0,0,0,0,0,0,0,0,0,-1,734,1275,0,0
-483,-251,0,0,0,0,0,0,0,0,0,-1,741,1275,0,0
-476,-251,0,0,0,0,0,0,0,0,0,-1,748,1275,0,0
-469,-251,0,0,0,0,0,0,0,0,0,-1,755,1275,0,0
-462,-251,0,0,0,0,0,0,0,0,0,-1,762,1275,0,0
-455,-251,0,0,0,0,0,0,0,0,0,-1,769,1275,0,0
-448,-251,0,0,0,0,0,0,0,0,0,-1,776,1275,0,0
-441,-251,0,0,0,0,0,0,0,0,0,-1,783,1275,0,0
-434,-251,0,0,0,0,0,0,0,0,0,-1,790,1275,0,0
-427,-251,0,0,0,0,0,0,0,0,0,-1,797,1275,0,0
-420,-251,0,0,0,0,0,0,0,0,0,-1,804,1275,0,0
-413,-251,0,0,0,0,0,0,0,0,0,-1,811,1275,0,0
-406,-251,0,0,0,0,0,0,0,0,0,-1,818,1275,0,0
-399,-251,0,0,0,0,0,0,0,0,0,-1,825,1275,0,0
-392,-251,0,0,0,0,0,0,0,0,0,-1,832,1275,0,0
-385,-251,0,0,0,0,0,0,0,0,0,-1,839,1275,0,0
-378,-251,0,0,0,0,0,0,0,0,0,-1,846,1275,0,0
-371,-251,0,0,0,0,0,0,0,0,0,-1,853,1275,0,0
-364,-251,0,0,0,0,0,0,0,0,0,-1,860,1275,0,0
-357,-251,0,0,0,0,0,0,0,0,0,-1,867,1275,0,0
-350,-251,0,0,0,0,0,0,0,0,0,-1,874,1275,0,0
-343,-251,0,0,0,0,0,0,0,0,0,-1,881,1275,0,0
-336,-251,0,0,0,0,0,0,0,0,0,-1,888,1275,0,0
-329,-251,0,0,0,0,0,0,0,0,0,-1,895,1275,0,0
-322,-251,0,0,0,0,0,0,0,0,0,-1,902,1275,0,0
-315,-251,0,0,0,0,0,0,0,0,0,-1,909,1275,0,0
-308,-251,0,0,0,0,0,0,0,0,0,-1,916,1275,0,0
-301,-251,0,0,0,0,0,0,0,0,0,-1,923,1275,0,0
-294,-251,0,0,0,0,0,0,0,0,0,-1,930,1275,0,0
-287,-251,0,0,0,0,0,0,0,0,0,-1,937,1275,0,0
-280,-251,0,0,0,0,0,0,0,0,0,-1,944,1275,0,0
-273,-251,0,0,0,0,0,0,0,0,0,-1,951,1275,0,0
-266,-251,0,0,0,0,0,0,0,0,0,-1,958,1275,0,0
-259,-251,0,0,0,0,0,0,0,0,0,-1,965,1275,0,0
-252,-251,0,0,0,0,0,0,0,0,0,-1,972,1275,0,0
-245,-251,0,0,0,0,0,0,0,0,0,-1,979,1275,0,0
-238,-251,0,0,0,0,0,0,0,0,0,-1,986,1275,0,0
-231,-251,0,0,0,0,0,0,0,0,0,-1,993,1275,0,0
-224,-251,0,0,0,0,0,0,0,0,0,-1,1000,1275,0,0
-217,-251,0,0,0,0,0,0,0,0,0,-1,1007,1275,0,0
-210,-251,0,0,0,0,0,0,0,0,0,-1,1014,1275,0,0
-203,-251,0,0,0,0,0,0,0,0,0,-1,1021,1275,0,0
-196,-251,0,0,0,0,0,0,0,0,0,-1,1028,1275,0,0
-189,-251,0,0,0,0,0,0,0,0,0,-1,1035,1275,0,0
-182,-251,0,0,0,0,0,0,0,0,0,-1,1042,1275,0,0
-175,-251,0,0,0,0,0,0,0,0,0,-1,1049,1275,0,0
-168,-251,0,0,0,0,0,0,0,0,0,-1,1056,1275,0,0
-161,-251,0,0,0,0,0,0,0,0,0,-1,1063,1275,0,0
-154,-251,0,0,0,0,0,0,0,0,0,-1,1070,1275,0,0
-147,-251,0,0,0,0,0,0,0,0,0,-1,1077,1275,0,0
-140,-251,0,0,0,0,0,0,0,0,0,-1,1084,1275,0,0
-133,-251,0,0,0,0,0,0,0,0,0,-1,1091,1275,0,0
-126,-251,0,0,0,0,0,0,0,0,0,-1,1098,1275,0,0
-119,-251,0,0,0,0,0,0,0,0,0,-1,1105,1275,0,0
-112,-251,0,0,0,0,0,0,0,0,0,-1,1112,1275,0,0
-105,-251,0,0,0,0,0,0,0,0,0,-1,1119,1275,0,0
-98,-251,0,0,0,0,0,0,0,0,0,-1,1126,1275,0,0
-91,-251,0,0,0,0,0,0,0,0,0,-1,1133,1275,0,0
-84,-251,0,0,0,0,0,0,0,0,0,-1,1140,1275,0,0
-77,-251,0,0,0,0,0,0,0,0,0,-1,1147,1275,0,0
-70,-251,0,0,0,0,0,0,0,0,0,-1,1154,1275,0,0
-63,-251,0,0,0,0,0,0,0,0,0,-1,1161,1275,0,0
-56,-251,0,0,0,0,0,0,0,0,0,-1,1168,1275,0,0
-49,-251,0,0,0,0,0,0,0,0,0,-1,1175,1275,0,0
-42,-251,0,0,0,0,0,0,0,0,0,-1,1182,1275,0,0
-35,-251,0,0,0,0,0,0,0,0,0,-1,1189,1275,0,0
-28,-251,0,0,0,0,0,0,0,0,0,-1,1196,1275,0,0
-21,-251,0,0,0,0,0,0,0,0,0,-1,1203,1275,0,0
-14,-251,0,0,0,0,0,0,0,0,0,-1,1210,1275,0,0
-7,-251,0,0,0,0,0,0,0,0,0,-1,1217,1275,0,0
0,-251,0,0,0,0,0,0,0,0,0,-1,1224,1275,0,0
7,-251,0,0,0,0,0,0,0,0,0,-1,1231,1275,0,0
14,-251,0,0,0,0,0,0,0,0,0,-1,1238,1275,0,0
21,-251,0,0,0,0,0,0,0,0,0,-1,1245,1275,0,0
28,-251,0,0,0,0,0,0,0,0,0,-1,1252,1275,0,0
35,-251,0,0,0,0,0,0,0,0,0,-1,1259,1275,0,0
42,-251,0,0,0,0,0,0,0,0,0,-1,1266,1275,0,0
49,-251,0,0,0,0,0,0,0,0,0,-1,1273,1275,0,0
56,-251,0,0,0,0,0,0,0,0,0,-1,1280,1275,0,0
63,-251,0,0,0,0,0,0,0,0,0,-1,1287,1275,0,0
70,-251,0,0,0,0,0,0,0,0,0,-1,1294,1275,0,0
77,-251,0,0,0,0,0,0,0,0,0,-1,1301,1275,0,0
84,-251,0,0,0,0,0,0,0,0,0,-1,1308,1275,0,0
91,-251,0,0,0,0,0,0,0,0,0,-1,1315,1275,0,0
98,-251,0,0,0,0,0,0,0,0,0,-1,1322,1275,0,0
105,-251,0,0,0,0,0,0,0,0,0,-1,1329,1275,0,0
112,-251,0,0,0,0,0,0,0,0,0,-1,1336,1275,0,0
119,-251,0,0,0,0,0,0,0,0,0,-1,1343,1275,0,0
126,-251,0,0,0,0,0,0,0,0,0,-1,1350,1275,0,0
133,-251,0,0,0,0,0,0,0,0,0,-1,1357,1275,0,0
140,-251,0,0,0,0,0,0,0,0,0,-1,1364,1275,0,0
147,-251,0,0,0,0,0,0,0,0,0,-1,1371,1275,0,0
154,-251,0,0,0,0,0,0,0,0,0,-1,1378,1275,0,0
161,-251,0,0,0,0,0,0,0,0,0,-1,1385,1275,0,0
168,-251,0,0,0,0,0,0,0,0,0,-1,1392,1275,0,0
175,-251,0,0,0,0,0,0,0,0,0,-1,1399,1275,0,0
182,-251,0,0,0,0,0,0,0,0,0,-1,1406,1275,0,0
189,-251,0,0,0,0,0,0,0,0,0,-1,1413,1275,0,0
196,-251,0,0,0,0,0,0,0,0,0,-1,1420,1275,0,0
203,-251,0,0,0,0,0,0,0,0,0,-1,1427,1275,0,0
210,-251,0,0,0,0,0,0,0,0,0,-1,1434,1275,0,0
217,-251,0,0,0,0,0,0,0,0,0,-1,1441,1275,0,0
224,-251,0,0,0,0,0,0,0,0,0,-1,1448,1275,0,0
231,-251,0,0,0,0,0,0,0,0,0,-1,1455,1275,0,0
238,-251,0,0,0,0,0,0,0,0,0,-1,1462,1275,0,0
245,-251,0,0,0,0,0,0,0,0,0,-1,1469,1275,0,0
252,-251,0,0,0,0,0,0,0,0,0,-1,1476,1275,0,0
259,-251,0,0,0,0,0,0,0,0,0,-1,1483,1275,0,0
266,-251,0,0,0,0,0,0,0,0,0,-1,1490,1275,0,0
273,-251,0,0,0,0,0,0,0,0,0,-1,1497,1275,0,0
280,-251,0,0,0,0,0,0,0,0,0,-1,1504,1275,0,0
287,-251,0,0,0,0,0,0,0,0,0,-1,1511,1275,0,0
294,-251,0,0,0,0,0,0,0,0,0,-1,1518,1275,0,0
301,-251,0,0,0,0,0,0,0,0,0,-1,1525,1275,0,0
308,-251,0,0,0,0,0,0,0,0,0,-1,1532,1275,0,0
315,-251,0,0,0,0,0,0,0,0,0,-1,1539,1275,0,0
322,-251,0,0,0,0,0,0,0,0,0,-1,1546,1275,0,0
329,-251,0,0,0,0,0,0,0,0,0,-1,1553,1275,0,0
336,-251,0,0,0,0,0,0,0,0,0,-1,1560,1275,0,0
343,-251,0,0,0,0,0,0,0,0,0,-1,1567,1275,0,0
350,-251,0,0,0,0,0,0,0,0,0,-1,1574,1275,0,0
357,-251,0,0,0,0,0,0,0,0,0,-1,1581,1275,0,0
364,-251,0,0,0,0,0,0,0,0,0,-1,1588,1275,0,0
371,-251,0,0,0,0,0,0,0,0,0,-1,1595,1275,0,0
378,-251,0,0,0,0,0,0,0,0,0,-1,1602,1275,0,0
385,-251,0,0,0,0,0,0,0,0,0,-1,1609,1275,0,0
392,-251,0,0,0,0,0,0,0,0,0,-1,1616,1275,0,0
399,-251,0,0,0,0,0,0,0,0,0,-1,1623,1275,0,0
406,-251,0,0,0,0,0,0,0,0,0,-1,1630,1275,0,0
413,-251,0,0,0,0,0,0,0,0,0,-1,1637,1275,0,0
420,-251,0,0,0,0,0,0,0,0,0,-1,1644,1275,0,0
427,-251,0,0,0,0,0,0,0,0,0,-1,1651,1275,0,0
434,-251,0,0,0,0,0,0,0,0,0,-1,1658,1275,0,0
441,-251,0,0,0,0,0,0,0,0,0,-1,1665,1275,0,0
448,-251,0,0,0,0,0,0,0,0,0,-1,1672,1275,0,0
455,-251,0,0,0,0,0,0,0,0,0,-1,1679,1275,0,0
462,-251,0,0,0,0,0,0,0,0,0,-1,1686,1275,0,0
469,-251,0,0,0,0,0,0,0,0,0,-1,1693,1275,0,0
476,-251,0,0,0,0,0,0,0,0,0,-1,1700,1275,0,0
483,-251,0,0,0,0,0,0,0,0,0,-1,1707,1275,0,0
490,-251,0,0,0,0,0,0,0,0,0,-1,1714,1275,0,0
497,-251,0,0,0,0,0,0,0,0,0,-1,1721,1275,0,0
504,-251,0,0,0,0,0,0,0,0,0,-1,1728,1275,0,0
511,-251,0,0,0,0,0,0,0,0,0,-1,1735,1275,0,0
518,-251,0,0,0,0,0,0,0,0,0,-1,1742,1275,0,0
525,-251,0,0,0,0,0,0,0,0,0,-1,1749,1275,0,0
532,-251,0,0,0,0,0,0,0,0,0,-1,1756,1275,0,0
539,-251,0,0,0,0,0,0,0,0,0,-1,1763,1275,0,0
546,-251,0,0,0,0,0,0,0,0,0,-1,1770,1275,0,0
553,-251,0,0,0,0,0,0,0,0,0,-1,1777,1275,0,0
560,-251,0,0,0,0,0,0,0,0,0,-1,1784,1275,0,0
567,-251,0,0,0,0,0,0,0,0,0,-1,1791,1275,0,0
574,-251,0,0,0,0,0,0,0,0,0,-1,1798,1275,0,0
581,-251,0,0,0,0,0,0,0,0,0,-1,1805,1275,0,0
588,-251,0,0,0,0,0,0,0,0,0,-1,1812,1275,0,0
595,-251,0,0,0,0,0,0,0,0,0,-1,1819,1275,0,0
602,-251,0,0,0,0,0,0,0,0,0,-1,1826,1275,0,0
609,-251,36.6333,2.40271,-0.00506447,0.00460004,0.0024641,0.00519203,-0.00565646,1.33502,0.00626529,0.0312944,1833,1275,36.6333,-2.40275
616,-251,36.5559,2.46423,0.00393811,0.00253378,0.00296356,0.00628155,0.00019034,0.669076,0.00412572,0.0275365,1840,1275,36.5559,-2.46421
623,-251,36.6118,2.57446,0.0118888,0.000541174,0.00322581,0.0127417,-0.000311726,0.258484,0.00860028,0.0245561,1847,1275,36.6119,-2.57449
630,-251,36.6464,2.54199,0.0157355,-0.000839469,0.00294011,0.0162416,-0.00134554,0.170457,0.011303,0.0365384,1854,1275,36.6463,-2.54197
637,-251,36.783,2.58875,0.0145768,-0.00133833,0.00221249,0.0148786,-0.00164018,0.135594,0.0105086,0.042498,1861,1275,36.783,-2.5888
644,-251,36.9437,2.70264,0.0120723,-0.00138499,0.00168285,0.0122795,-0.00159225,0.122538,0.00876543,0.0473419,1868,1275,36.9438,-2.70267
651,-251,37.0703,2.79431,0,0,0,0,0,0,0,-1,1875,1275,37.0703,-2.79431
658,-251,35.0505,3.35718,0,0,0,0,0,0,0,-1,1882,1275,35.0505,-3.3572
665,-251,32.9579,2.60229,0,0,0,0,0,0,0,-1,1889,1275,32.9579,-2.60231
672,-251,26.0721,4.53064,0,0,0,0,0,0,0,-1,1896,1275,26.0721,-4.53063
679,-251,28.0179,8.17664,0,0,0,0,0,0,0,-1,1903,1275,28.0179,-8.17658
686,-251,28.1044,7.95068,0,0,0,0,0,0,0,-1,1910,1275,28.1044,-7.95064
693,-251,28.1693,7.62695,0.00259943,-0.000845101,-0.000746673,0.00275432,-0.000999993,-0.204542,0.00224505,0.0117557,1917,1275,28.1694,-7.62693
700,-251,28.1658,7.26184,0.00240416,-0.000977963,-0.000918875,0.00263768,-0.00121148,-0.24887,0.0022726,0.00865796,1924,1275,28.1658,-7.26181
707,-251,28.1669,6.90186,0.00172671,-0.000866861,-0.000567204,0.00184533,-0.000985481,-0.20616,0.00165931,0.0108336,1931,1275,28.1669,-6.90183
714,-251,28.1812,6.57764,0.00100093,-0.000367046,-1.07327e-05,0.00100101,-0.00036713,-0.00784506,0.000817668,0.0128156,1938,1275,28.1811,-6.57759
721,-251,28.1156,6.26917,0.000974391,0.000266738,0.000385947,0.00114416,9.69724e-05,0.414395,0.000732589,0.0158994,1945,1275,28.1156,-6.26916
728,-251,28.0781,5.92505,0.00125118,0.000995066,0.000681037,0.0018161,0.000430153,0.692466,0.00109586,0.0182728,1952,1275,28.0781,-5.92501
735,-251,28.1047,5.54517,0.00209312,0.0018842,0.000832635,0.00282782,0.0011495,0.722994,0.00164213,0.0159783,1959,1275,28.1048,-5.54519
742,-251,28.0726,5.31238,0.00364786,0.00296524,0.000793037,0.00416992,0.00244319,0.582188,0.00241932,0.0173278,1966,1275,28.0727,-5.31232
749,-251,27.8955,5.14404,0.00629515,0.0042865,0.000530691,0.00642674,0.00415491,0.243056,0.0037632,0.0332821,1973,1275,27.8955,-5.14401
756,-251,27.7714,4.65564,0.0105733,0.00606049,-0.000255255,0.0105877,0.0060461,-0.0563226,0.00613335,0.0471613,1980,1275,27.7714,-4.65558
763,-251,27.9446,4.17163,0.0170374,0.00830021,-0.00161051,0.0173248,0.0080128,-0.176598,0.0100119,0.0469354,1987,1275,27.9445,-4.17165
770,-251,28.8304,4.16394,0,0,0,0,0,0,0,-1,1994,1275,28.8304,-4.16397
777,-251,31.5731,4.33252,0,0,0,0,0,0,0,-1,2001,1275,31.5731,-4.33251
784,-251,32.0776,5.78247,0,0,0,0,0,0,0,-1,2008,1275,32.0776,-5.78247
791,-251,0,0,0,0,0,0,0,0,0,-1,2015,1275,0,0
798,-251,0,0,0,0,0,0,0,0,0,-1,2022,1275,0,0
805,-251,0,0,0,0,0,0,0,0,0,-1,2029,1275,0,0
812,-251,0,0,0,0,0,0,0,0,0,-1,2036,1275,0,0
-700,-258,0,0,0,0,0,0,0,0,0,-1,524,1282,0,0
-693,-258,0,0,0,0,0,0,0,0,0,-1,531,1282,0,0
-686,-258,0,0,0,0,0,0,0,0,0,-1,538,1282,0,0
-679,-258,0,0,0,0,0,0,0,0,0,-1,545,1282,0,0
-672,-258,0,0,0,0,0,0,0,0,0,-1,552,1282,0,0
-665,-258,-15.0148,0.429932,0,0,0,0,0,0,0,-1,559,1282,-15.0148,-0.42996
-658,-258,-14.7435,1.13538,0,0,0,0,0,0,0,-1,566,1282,-14.7435,-1.13538
-651,-258,-15.4617,-0.246094,0,0,0,0,0,0,0,-1,573,1282,-15.4617,0.246136
-644,-258,-15.5823,0.0285645,-0.00919246,0.0320132,0.0509631,0.0663805,-0.0435598,0.977489,0.0639283,0.0495941,580,1282,-15.5823,-0.028621
-637,-258,-15.5447,0.910889,-0.00557096,0.0260641,0.0417204,0.0548648,-0.0343716,0.966592,0.0519716,0.0439275,587,1282,-15.5447,-0.910878
-630,-258,-17.5147,1.26843,0,0,0,0,0,0,0,-1,594,1282,-17.5147,-1.26844
-623,-258,-16.9182,1.78687,-0.000679157,0.0164401,0.0253495,0.0346361,-0.0188752,0.94822,0.0313383,0.0472679,601,1282,-16.9182,-1.78683
-616,-258,-16.7476,2.3418,0.000760389,0.0125017,0.018686,0.0262176,-0.0129555,0.937603,0.0230446,0.0323864,608,1282,-16.7476,-2.34174
-609,-258,-16.755,2.74817,0.0018238,0.00910381,0.0132316,0.0191869,-0.00825931,0.919628,0.0162594,0.0176141,615,1282,-16.755,-2.74812
-602,-258,-16.759,3.12781,0.00260337,0.00630813,0.00872518,0.0133754,-0.00446389,0.889996,0.0107193,0.0139788,622,1282,-16.759,-3.12775
-595,-258,-16.7852,3.48816,0.0034546,0.0036691,0.00538153,0.00894445,-0.00182075,0.795361,0.00665345,0.0108244,629,1282,-16.7852,-3.48813
-588,-258,-16.8054,3.85168,0.00399139,0.0023616,0.00318651,0.00646555,-0.000112562,0.660214,0.00434837,0.0115911,636,1282,-16.8054,-3.85168
-581,-258,-16.8064,4.25024,0.00449784,0.00134623,0.00261324,0.00597362,-0.000129549,0.514084,0.00402629,0.0140104,643,1282,-16.8064,-4.25019
-574,-258,-16.7795,4.64856,0.00507394,0.00104429,0.00296613,0.00664485,-0.000526608,0.487057,0.00461546,0.0145206,650,1282,-16.7795,-4.64851
-567,-258,-16.8077,5.05457,0.00560771,0.00115839,0.003423,0.00746546,-0.000699359,0.49724,0.00522572,0.0144161,657,1282,-16.8078,-5.0546
-560,-258,-16.8092,5.44421,0.00585811,0.00168867,0.0035054,0.00785185,-0.000305073,0.517136,0.00533917,0.030696,664,1282,-16.8092,-5.44421
-553,-258,-16.7466,5.83142,0,0,0,0,0,0,0,-1,671,1282,-16.7466,-5.83143
-546,-258,-14.2231,5.92029,0,0,0,0,0,0,0,-1,678,1282,-14.2231,-5.92028
-539,-258,-10.2228,4.05823,0,0,0,0,0,0,0,-1,685,1282,-10.2228,-4.05823
-532,-258,-10.2173,-0.353882,0,0,0,0,0,0,0,-1,692,1282,-10.2173,0.353836
-525,-258,-21.8661,-1.5929,0,0,0,0,0,0,0,-1,699,1282,-21.8661,1.59285
-518,-258,-25.6467,0.979126,0,0,0,0,0,0,0,-1,706,1282,-25.6468,-0.979156
-511,-258,-23.5061,1.16833,0,0,0,0,0,0,0,-1,713,1282,-23.5061,-1.16833
-504,-258,-22.9178,0.484131,0,0,0,0,0,0,0,-1,720,1282,-22.9178,-0.484106
-497,-258,-17.8047,0.730469,0,0,0,0,0,0,0,-1,727,1282,-17.8048,-0.730489
-490,-258,-15.4346,0.632935,0,0,0,0,0,0,0,-1,734,1282,-15.4346,-0.632917
-483,-258,0,0,0,0,0,0,0,0,0,-1,741,1282,0,0
-476,-258,0,0,0,0,0,0,0,0,0,-1,748,1282,0,0
-469,-258,0,0,0,0,0,0,0,0,0,-1,755,1282,0,0
-462,-258,0,0,0,0,0,0,0,0,0,-1,762,1282,0,0
-455,-258,0,0,0,0,0,0,0,0,0,-1,769,1282,0,0
-448,-258,0,0,0,0,0,0,0,0,0,-1,776,1282,0,0
-441,-258,0,0,0,0,0,0,0,0,0,-1,783,1282,0,0
-434,-258,0,0,0,0,0,0,0,0,0,-1,790,1282,0,0
-427,-258,0,0,0,0,0,0,0,0,0,-1,797,1282,0,0
-420,-258,0,0,0,0,0,0,0,0,0,-1,804,1282,0,0
-413,-258,0,0,0,0,0,0,0,0,0,-1,811,1282,0,0
-406,-258,0,0,0,0,0,0,0,0,0,-1,818,1282,0,0
-399,-258,0,0,0,0,0,0,0,0,0,-1,825,1282,0,0
-392,-258,0,0,0,0,0,0,0,0,0,-1,832,1282,0,0
-385,-258,0,0,0,0,0,0,0,0,0,-1,839,1282,0,0
-378,-258,0,0,0,0,0,0,0,0,0,-1,846,1282,0,0
-371,-258,0,0,0,0,0,0,0,0,0,-1,853,1282,0,0
-364,-258,0,0,0,0,0,0,0,0,0,-1,860,1282,0,0
-357,-258,0,0,0,0,0,0,0,0,0,-1,867,1282,0,0
-350,-258,0,0,0,0,0,0,0,0,0,-1,874,1282,0,0
-343,-258,0,0,0,0,0,0,0,0,0,-1,881,1282,0,0
-336,-258,0,0,0,0,0,0,0,0,0,-1,888,1282,0,0
-329,-258,0,0,0,0,0,0,0,0,0,-1,895,1282,0,0
-322,-258,0,0,0,0,0,0,0,0,0,-1,902,1282,0,0
-315,-258,0,0,0,0,0,0,0,0,0,-1,909,1282,0,0
-308,-258,0,0,0,0,0,0,0,0,0,-1,916,1282,0,0
-301,-258,0,0,0,0,0,0,0,0,0,-1,923,1282,0,0
-294,-258,0,0,0,0,0,0,0,0,0,-1,930,1282,0,0
-287,-258,0,0,0,0,0,0,0,0,0,-1,937,1282,0,0
-280,-258,0,0,0,0,0,0,0,0,0,-1,944,1282,0,0
-273,-258,0,0,0,0,0,0,0,0,0,-1,951,1282,0,0
-266,-258,0,0,0,0,0,0,0,0,0,-1,958,1282,0,0
-259,-258,0,0,0,0,0,0,0,0,0,-1,965,1282,0,0
-252,-258,0,0,0,0,0,0,0,0,0,-1,972,1282,0,0
-245,-258,0,0,0,0,0,0,0,0,0,-1,979,1282,0,0
-238,-258,0,0,0,0,0,0,0,0,0,-1,986,1282,0,0
-231,-258,0,0,0,0,0,0,0,0,0,-1,993,1282,0,0
-224,-258,0,0,0,0,0,0,0,0,0,-1,1000,1282,0,0
-217,-258,0,0,0,0,0,0,0,0,0,-1,1007,1282,0,0
-210,-258,0,0,0,0,0,0,0,0,0,-1,1014,1282,0,0
-203,-258,0,0,0,0,0,0,0,0,0,-1,1021,1282,0,0
-196,-258,0,0,0,0,0,0,0,0,0,-1,1028,1282,0,0
-189,-258,0,0,0,0,0,0,0,0,0,-1,1035,1282,0,0
-182,-258,0,0,0,0,0,0,0,0,0,-1,1042,1282,0,0
-175,-258,0,0,0,0,0,0,0,0,0,-1,1049,1282,0,0
-168,-258,0,0,0,0,0,0,0,0,0,-1,1056,1282,0,0
-161,-258,0,0,0,0,0,0,0,0,0,-1,1063,1282,0,0
-154,-258,0,0,0,0,0,0,0,0,0,-1,1070,1282,0,0
-147,-258,0,0,0,0,0,0,0,0,0,-1,1077,1282,0,0
-140,-258,0,0,0,0,0,0,0,0,0,-1,1084,1282,0,0
-133,-258,0,0,0,0,0,0,0,0,0,-1,1091,1282,0,0
-126,-258,0,0,0,0,0,0,0,0,0,-1,1098,1282,0,0
-119,-258,0,0,0,0,0,0,0,0,0,-1,1105,1282,0,0
-112,-258,0,0,0,0,0,0,0,0,0,-1,1112,1282,0,0
-105,-258,0,0,0,0,0,0,0,0,0,-1,1119,1282,0,0
-98,-258,0,0,0,0,0,0,0,0,0,-1,1126,1282,0,0
-91,-258,0,0,0,0,0,0,0,0,0,-1,1133,1282,0,0
-84,-258,0,0,0,0,0,0,0,0,0,-1,1140,1282,0,0
-77,-258,0,0,0,0,0,0,0,0,0,-1,1147,1282,0,0
-70,-258,0,0,0,0,0,0,0,0,0,-1,1154,1282,0,0
-63,-258,0,0,0,0,0,0,0,0,0,-1,1161,1282,0,0
-56,-258,0,0,0,0,0,0,0,0,0,-1,1168,1282,0,0
-49,-258,0,0,0,0,0,0,0,0,0,-1,1175,1282,0,0
-42,-258,0,0,0,0,0,0,0,0,0,-1,1182,1282,0,0
-35,-258,0,0,0,0,0,0,0,0,0,-1,1189,1282,0,0
-28,-258,0,0,0,0,0,0,0,0,0,-1,1196,1282,0,0
-21,-258,0,0,0,0,0,0,0,0,0,-1,1203,1282,0,0
-14,-258,0,0,0,0,0,0,0,0,0,-1,1210,1282,0,0
-7,-258,0,0,0,0,0,0,0,0,0,-1,1217,1282,0,0
0,-258,0,0,0,0,0,0,0,0,0,-1,1224,1282,0,0
7,-258,0,0,0,0,0,0,0,0,0,-1,1231,1282,0,0
14,-258,0,0,0,0,0,0,0,0,0,-1,1238,1282,0,0
21,-258,0,0,0,0,0,0,0,0,0,-1,1245,1282,0,0
28,-258,0,0,0,0,0,0,0,0,0,-1,1252,1282,0,0
35,-258,0,0,0,0,0,0,0,0,0,-1,1259,1282,0,0
42,-258,0,0,0,0,0,0,0,0,0,-1,1266,1282,0,0
49,-258,0,0,0,0,0,0,0,0,0,-1,1273,1282,0,0
56,-258,0,0,0,0,0,0,0,0,0,-1,1280,1282,0,0
63,-258,0,0,0,0,0,0,0,0,0,-1,1287,1282,0,0
70,-258,0,0,0,0,0,0,0,0,0,-1,1294,1282,0,0
77,-258,0,0,0,0,0,0,0,0,0,-1,1301,1282,0,0
84,-258,0,0,0,0,0,0,0,0,0,-1,1308,1282,0,0
91,-258,0,0,0,0,0,0,0,0,0,-1,1315,1282,0,0
98,-258,0,0,0,0,0,0,0,0,0,-1,1322,1282,0,0
105,-258,0,0,0,0,0,0,0,0,0,-1,1329,1282,0,0
112,-258,0,0,0,0,0,0,0,0,0,-1,1336,1282,0,0
119,-258,0,0,0,0,0,0,0,0,0,-1,1343,1282,0,0
126,-258,0,0,0,0,0,0,0,0,0,-1,1350,1282,0,0
133,-258,0,0,0,0,0,0,0,0,0,-1,1357,1282,0,0
140,-258,0,0,0,0,0,0,0,0,0,-1,1364,1282,0,0
147,-258,0,0,0,0,0,0,0,0,0,-1,1371,1282,0,0
154,-258,0,0,0,0,0,0,0,0,0,-1,1378,1282,0,0
161,-258,0,0,0,0,0,0,0,0,0,-1,1385,1282,0,0
168,-258,0,0,0,0,0,0,0,0,0,-1,1392,1282,0,0
175,-258,0,0,0,0,0,0,0,0,0,-1,1399,1282,0,0
182,-258,0,0,0,0,0,0,0,0,0,-1,1406,1282,0,0
189,-258,0,0,0,0,0,0,0,0,0,-1,1413,1282,0,0
196,-258,0,0,0,0,0,0,0,0,0,-1,1420,1282,0,0
203,-258,0,0,0,0,0,0,0,0,0,-1,1427,1282,0,0
210,-258,0,0,0,0,0,0,0,0,0,-1,1434,1282,0,0
217,-258,0,0,0,0,0,0,0,0,0,-1,1441,1282,0,0
224,-258,0,0,0,0,0,0,0,0,0,-1,1448,1282,0,0
231,-258,0,0,0,0,0,0,0,0,0,-1,1455,1282,0,0
238,-258,0,0,0,0,0,0,0,0,0,-1,1462,1282,0,0
245,-258,0,0,0,0,0,0,0,0,0,-1,1469,1282,0,0
252,-258,0,0,0,0,0,0,0,0,0,-1,1476,1282,0,0
259,-258,0,0,0,0,0,0,0,0,0,-1,1483,1282,0,0
266,-258,0,0,0,0,0,0,0,0,0,-1,1490,1282,0,0
273,-258,0,0,0,0,0,0,0,0,0,-1,1497,1282,0,0
280,-258,0,0,0,0,0,0,0,0,0,-1,1504,1282,0,0
287,-258,0,0,0,0,0,0,0,0,0,-1,1511,1282,0,0
294,-258,0,0,0,0,0,0,0,0,0,-1,1518,1282,0,0
301,-258,0,0,0,0,0,0,0,0,0,-1,1525,1282,0,0
308,-258,0,0,0,0,0,0,0,0,0,-1,1532,1282,0,0
315,-258,0,0,0,0,0,0,0,0,0,-1,1539,1282,0,0
322,-258,0,0,0,0,0,0,0,0,0,-1,1546,1282,0,0
329,-258,0,0,0,0,0,0,0,0,0,-1,1553,1282,0,0
336,-258,0,0,0,0,0,0,0,0,0,-1,1560,1282,0,0
343,-258,0,0,0,0,0,0,0,0,0,-1,1567,1282,0,0
350,-258,0,0,0,0,0,0,0,0,0,-1,1574,1282,0,0
357,-258,0,0,0,0,0,0,0,0,0,-1,1581,1282,0,0
364,-258,0,0,0,0,0,0,0,0,0,-1,1588,1282,0,0
371,-258,0,0,0,0,0,0,0,0,0,-1,1595,1282,0,0
378,-258,0,0,0,0,0,0,0,0,0,-1,1602,1282,0,0
385,-258,0,0,0,0,0,0,0,0,0,-1,1609,1282,0,0
392,-258,0,0,0,0,0,0,0,0,0,-1,1616,1282,0,0
399,-258,0,0,0,0,0,0,0,0,0,-1,1623,1282,0,0
406,-258,0,0,0,0,0,0,0,0,0,-1,1630,1282,0,0
413,-258,0,0,0,0,0,0,0,0,0,-1,1637,1282,0,0
420,-258,0,0,0,0,0,0,0,0,0,-1,1644,1282,0,0
427,-258,0,0,0,0,0,0,0,0,0,-1,1651,1282,0,0
434,-258,0,0,0,0,0,0,0,0,0,-1,1658,1282,0,0
441,-258,0,0,0,0,0,0,0,0,0,-1,1665,1282,0,0
448,-258,0,0,0,0,0,0,0,0,0,-1,1672,1282,0,0
455,-258,0,0,0,0,0,0,0,0,0,-1,1679,1282,0,0
462,-258,0,0,0,0,0,0,0,0,0,-1,1686,1282,0,0
469,-258,0,0,0,0,0,0,0,0,0,-1,1693,1282,0,0
476,-258,0,0,0,0,0,0,0,0,0,-1,1700,1282,0,0
483,-258,0,0,0,0,0,0,0,0,0,-1,1707,1282,0,0
490,-258,0,0,0,0,0,0,0,0,0,-1,1714,1282,0,0
497,-258,0,0,0,0,0,0,0,0,0,-1,1721,1282,0,0
504,-258,0,0,0,0,0,0,0,0,0,-1,1728,1282,0,0
511,-258,0,0,0,0,0,0,0,0,0,-1,1735,1282,0,0
518,-258,0,0,0,0,0,0,0,0,0,-1,1742,1282,0,0
525,-258,0,0,0,0,0,0,0,0,0,-1,1749,1282,0,0
532,-258,0,0,0,0,0,0,0,0,0,-1,1756,1282,0,0
539,-258,0,0,0,0,0,0,0,0,0,-1,1763,1282,0,0
546,-258,0,0,0,0,0,0,0,0,0,-1,1770,1282,0,0
553,-258,0,0,0,0,0,0,0,0,0,-1,1777,1282,0,0
560,-258,0,0,0,0,0,0,0,0,0,-1,1784,1282,0,0
567,-258,0,0,0,0,0,0,0,0,0,-1,1791,1282,0,0
574,-258,0,0,0,0,0,0,0,0,0,-1,1798,1282,0,0
581,-258,0,0,0,0,0,0,0,0,0,-1,1805,1282,0,0
588,-258,0,0,0,0,0,0,0,0,0,-1,1812,1282,0,0
595,-258,0,0,0,0,0,0,0,0,0,-1,1819,1282,0,0
602,-258,0,0,0,0,0,0,0,0,0,-1,1826,1282,0,0
609,-258,36.6173,2.52625,0.000105233,0.00542947,0.0027218,0.0065746,-0.00103989,1.17255,0.00476765,0.0260808,1833,1282,36.6173,-2.52628
616,-258,36.6091,2.57336,0.0122391,0.00268566,0.00371534,0.0135139,0.00141087,0.330528,0.00857776,0.0259398,1840,1282,36.6092,-2.57335
623,-258,36.6724,2.646,0.0204292,0.000268139,0.00424247,0.0212855,-0.000588225,0.199179,0.0143904,0.036803,1847,1282,36.6724,-2.64603
630,-258,36.7419,2.57434,0.0217159,-0.00110203,0.00385359,0.0223492,-0.00173527,0.162868,0.0155103,0.0453096,1854,1282,36.7419,-2.5744
637,-258,36.8787,2.68689,0.0180416,-0.00145235,0.00297401,0.0184853,-0.00189598,0.148074,0.0130017,0.0468631,1861,1282,36.8787,-2.68684
644,-258,37.0056,2.8501,0.0147408,-0.00141193,0.00233151,0.0150706,-0.00174173,0.140521,0.0106751,0.0486819,1868,1282,37.0056,-2.85012
651,-258,37.121,2.95618,0,0,0,0,0,0,0,-1,1875,1282,37.121,-2.95617
658,-258,34.4684,3.25745,0,0,0,0,0,0,0,-1,1882,1282,34.4684,-3.25745
665,-258,31.9969,2.59033,0,0,0,0,0,0,0,-1,1889,1282,31.9969,-2.59034
672,-258,22.703,2.80957,0,0,0,0,0,0,0,-1,1896,1282,22.703,-2.80962
679,-258,26.8693,8.19543,0,0,0,0,0,0,0,-1,1903,1282,26.8692,-8.19548
686,-258,27.792,8.01355,0,0,0,0,0,0,0,-1,1910,1282,27.792,-8.01352
693,-258,27.8575,7.6178,0.00220059,-0.000746841,-0.000420488,0.00225941,-0.000805655,-0.13897,0.00183476,0.0116908,1917,1282,27.8576,-7.61774
700,-258,27.8405,7.25439,0.00187177,-0.000783391,-0.000576809,0.00199167,-0.000903284,-0.204937,0.00171032,0.00890832,1924,1282,27.8404,-7.25439
707,-258,27.8397,6.90161,0.00117227,-0.00063323,-0.000240673,0.0012038,-0.000664761,-0.13027,0.00109368,0.00989313,1931,1282,27.8397,-6.90159
714,-258,27.8279,6.58569,0.00050864,-0.000138868,0.000254843,0.000596907,-0.000227135,0.333428,0.000491468,0.0102517,1938,1282,27.8279,-6.58566
721,-258,27.8015,6.23999,0.000486819,0.000487555,0.000591657,0.00107884,-0.00010447,0.785709,0.000756461,0.014476,1945,1282,27.8015,-6.23995
728,-258,27.769,5.91992,0.000682627,0.00122987,0.00085736,0.00185621,5.62848e-05,0.939861,0.00121915,0.013932,1952,1282,27.769,-5.91992
735,-258,27.7964,5.59216,0.00138482,0.00215754,0.000992645,0.00283637,0.000705997,0.970988,0.00170502,0.0139026,1959,1282,27.7964,-5.59213
742,-258,27.7983,5.29761,0.00279115,0.00331804,0.000928417,0.00401967,0.00208953,0.923643,0.00232137,0.0174232,1966,1282,27.7983,-5.29758
749,-258,27.7172,5.09705,0.00534252,0.00478504,0.000602423,0.00572757,0.0044,0.568717,0.00346177,0.0358415,1973,1282,27.7172,-5.09699
756,-258,27.6641,4.79932,0,0,0,0,0,0,0,-1,1980,1282,27.6641,-4.79936
763,-258,27.4912,3.77307,0,0,0,0,0,0,0,-1,1987,1282,27.4912,-3.77308
770,-258,28.1686,3.72485,0,0,0,0,0,0,0,-1,1994,1282,28.1686,-3.72487
777,-258,31.912,4.83093,0,0,0,0,0,0,0,-1,2001,1282,31.912,-4.8309
784,-258,32.6525,6.43091,0,0,0,0,0,0,0,-1,2008,1282,32.6525,-6.43091
791,-258,0,0,0,0,0,0,0,0,0,-1,2015,1282,0,0
798,-258,0,0,0,0,0,0,0,0,0,-1,2022,1282,0,0
805,-258,0,0,0,0,0,0,0,0,0,-1,2029,1282,0,0
812,-258,0,0,0,0,0,0,0,0,0,-1,2036,1282,0,0
-700,-265,0,0,0,0,0,0,0,0,0,-1,524,1289,0,0
-693,-265,0,0,0,0,0,0,0,0,0,-1,531,1289,0,0
-686,-265,0,0,0,0,0,0,0,0,0,-1,538,1289,0,0
-679,-265,0,0,0,0,0,0,0,0,0,-1,545,1289,0,0
-672,-265,0,0,0,0,0,0,0,0,0,-1,552,1289,0,0
-665,-265,-14.2366,0.0311279,0,0,0,0,0,0,0,-1,559,1289,-14.2366,-0.0310941
-658,-265,-15.423,-0.557739,0,0,0,0,0,0,0,-1,566,1289,-15.423,0.55772
-651,-265,-15.7294,-0.327393,-0.0154788,0.0359645,0.0641702,0.0793762,-0.0588906,0.976011,0.0801199,0.0490094,573,1289,-15.7294,0.327345
-644,-265,-15.9884,-0.19519,-0.0110201,0.0308508,0.0548157,0.0685929,-0.0487622,0.967812,0.0680767,0.0489058,580,1289,-15.9884,0.195248
-637,-265,-16.1208,0.272339,-0.00740379,0.0260929,0.0454993,0.0578285,-0.0391394,0.961752,0.05633,0.0466323,587,1289,-16.1208,-0.272385
-630,-265,-16.4127,0.947388,0,0,0,0,0,0,0,-1,594,1289,-16.4126,-0.947345
-623,-265,-16.5365,1.57776,-0.00204617,0.0173492,0.0283872,0.0376495,-0.0223464,0.949994,0.0350123,0.0469154,601,1289,-16.5365,-1.57773
-616,-265,-16.373,2.12219,-0.00029969,0.0134543,0.0211199,0.0287887,-0.015634,0.942793,0.0260196,0.0400042,608,1289,-16.373,-2.12217
-609,-265,-16.3384,2.729,0.000992517,0.0100324,0.0150369,0.021214,-0.0101891,0.931397,0.0184993,0.0184386,615,1289,-16.3384,-2.72905
-602,-265,-16.3775,3.14209,0.00193607,0.00718534,0.0099523,0.0148533,-0.00573186,0.914324,0.0122676,0.0144914,622,1289,-16.3775,-3.14213
-595,-265,-16.4035,3.51733,0.00300734,0.00421721,0.00599934,0.00964203,-0.00241749,0.835645,0.00736727,0.0117475,629,1289,-16.4035,-3.51738
-588,-265,-16.4156,3.87891,0.00359869,0.0028072,0.00324372,0.00647071,-6.48217e-05,0.724697,0.00433558,0.010739,636,1289,-16.4156,-3.87892
-581,-265,-16.4207,4.26843,0.00407669,0.00157959,0.00237821,0.00551417,0.000142111,0.543675,0.00362967,0.0131175,643,1289,-16.4207,-4.26838
-574,-265,-16.424,4.68604,0.00465389,0.0011842,0.00258713,0.006034,-0.000195907,0.49005,0.00408953,0.0143614,650,1289,-16.424,-4.68603
-567,-265,-16.4726,5.07849,0.00535614,0.00116973,0.00298126,0.00690566,-0.000379787,0.479325,0.00473545,0.0192209,657,1289,-16.4726,-5.07847
-560,-265,-16.4986,5.46423,0.0059474,0.00160693,0.00314008,0.00759423,-3.99093e-05,0.483021,0.00507618,0.0205718,664,1289,-16.4986,-5.46419
-553,-265,-16.3188,5.91357,0.0060102,0.00191984,0.00308816,0.007669,0.000261042,0.492923,0.00502791,0.0418602,671,1289,-16.3189,-5.91355
-546,-265,-16.1452,6.3783,0,0,0,0,0,0,0,-1,678,1289,-16.1452,-6.37828
-539,-265,-13.7668,6.39917,0,0,0,0,0,0,0,-1,685,1289,-13.7668,-6.39915
-532,-265,-8.53998,3.41467,0,0,0,0,0,0,0,-1,692,1289,-8.53996,-3.41473
-525,-265,-12.1317,0.514648,0,0,0,0,0,0,0,-1,699,1289,-12.1317,-0.514634
-518,-265,-24.1604,0.712402,0,0,0,0,0,0,0,-1,706,1289,-24.1604,-0.712425
-511,-265,-23.233,0.791626,0,0,0,0,0,0,0,-1,713,1289,-23.233,-0.791617
-504,-265,-22.3056,0.87085,0,0,0,0,0,0,0,-1,720,1289,-22.3056,-0.87081
-497,-265,-18.689,-0.278442,0,0,0,0,0,0,0,-1,727,1289,-18.689,0.278423
-490,-265,-15.1696,0.492676,0,0,0,0,0,0,0,-1,734,1289,-15.1696,-0.492688
-483,-265,0,0,0,0,0,0,0,0,0,-1,741,1289,0,0
-476,-265,0,0,0,0,0,0,0,0,0,-1,748,1289,0,0
-469,-265,0,0,0,0,0,0,0,0,0,-1,755,1289,0,0
-462,-265,0,0,0,0,0,0,0,0,0,-1,762,1289,0,0
-455,-265,0,0,0,0,0,0,0,0,0,-1,769,1289,0,0
-448,-265,0,0,0,0,0,0,0,0,0,-1,776,1289,0,0
-441,-265,0,0,0,0,0,0,0,0,0,-1,783,1289,0,0
-434,-265,0,0,0,0,0,0,0,0,0,-1,790,1289,0,0
-427,-265,0,0,0,0,0,0,0,0,0,-1,797,1289,0,0
-420,-265,0,0,0,0,0,0,0,0,0,-1,804,1289,0,0
-413,-265,0,0,0,0,0,0,0,0,0,-1,811,1289,0,0
-406,-265,0,0,0,0,0,0,0,0,0,-1,818,1289,0,0
-399,-265,0,0,0,0,0,0,0,0,0,-1,825,1289,0,0
-392,-265,0,0,0,0,0,0,0,0,0,-1,832,1289,0,0
-385,-265,0,0,0,0,0,0,0,0,0,-1,839,1289,0,0
-378,-265,0,0,0,0,0,0,0,0,0,-1,846,1289,0,0
-371,-265,0,0,0,0,0,0,0,0,0,-1,853,1289,0,0
-364,-265,0,0,0,0,0,0,0,0,0,-1,860,1289,0,0
-357,-265,0,0,0,0,0,0,0,0,0,-1,867,1289,0,0
-350,-265,0,0,0,0,0,0,0,0,0,-1,874,1289,0,0
-343,-265,0,0,0,0,0,0,0,0,0,-1,881,1289,0,0
-336,-265,0,0,0,0,0,0,0,0,0,-1,888,1289,0,0
-329,-265,0,0,0,0,0,0,0,0,0,-1,895,1289,0,0
-322,-265,0,0,0,0,0,0,0,0,0,-1,902,1289,0,0
-315,-265,0,0,0,0,0,0,0,0,0,-1,909,1289,0,0
-308,-265,0,0,0,0,0,0,0,0,0,-1,916,1289,0,0
-301,-265,0,0,0,0,0,0,0,0,0,-1,923,1289,0,0
-294,-265,0,0,0,0,0,0,0,0,0,-1,930,1289,0,0
-287,-265,0,0,0,0,0,0,0,0,0,-1,937,1289,0,0
-280,-265,0,0,0,0,0,0,0,0,0,-1,944,1289,0,0
-273,-265,0,0,0,0,0,0,0,0,0,-1,951,1289,0,0
-266,-265,0,0,0,0,0,0,0,0,0,-1,958,1289,0,0
-259,-265,0,0,0,0,0,0,0,0,0,-1,965,1289,0,0
-252,-265,0,0,0,0,0,0,0,0,0,-1,972,1289,0,0
-245,-265,0,0,0,0,0,0,0,0,0,-1,979,1289,0,0
-238,-265,0,0,0,0,0,0,0,0,0,-1,986,1289,0,0
-231,-265,0,0,0,0,0,0,0,0,0,-1,993,1289,0,0
-224,-265,0,0,0,0,0,0,0,0,0,-1,1000,1289,0,0
-217,-265,0,0,0,0,0,0,0,0,0,-1,1007,1289,0,0
-210,-265,0,0,0,0,0,0,0,0,0,-1,1014,1289,0,0
-203,-265,0,0,0,0,0,0,0,0,0,-1,1021,1289,0,0
-196,-265,0,0,0,0,0,0,0,0,0,-1,1028,1289,0,0
-189,-265,0,0,0,0,0,0,0,0,0,-1,1035,1289,0,0
-182,-265,0,0,0,0,0,0,0,0,0,-1,1042,1289,0,0
-175,-265,0,0,0,0,0,0,0,0,0,-1,1049,1289,0,0
-168,-265,0,0,0,0,0,0,0,0,0,-1,1056,1289,0,0
-161,-265,0,0,0,0,0,0,0,0,0,-1,1063,1289,0,0
-154,-265,0,0,0,0,0,0,0,0,0,-1,1070,1289,0,0
-147,-265,0,0,0,0,0,0,0,0,0,-1,1077,1289,0,0
-140,-265,0,0,0,0,0,0,0,0,0,-1,1084,1289,0,0
-133,-265,0,0,0,0,0,0,0,0,0,-1,1091,1289,0,0
-126,-265,0,0,0,0,0,0,0,0,0,-1,1098,1289,0,0
-119,-265,0,0,0,0,0,0,0,0,0,-1,1105,1289,0,0
-112,-265,0,0,0,0,0,0,0,0,0,-1,1112,1289,0,0
-105,-265,0,0,0,0,0,0,0,0,0,-1,1119,1289,0,0
-98,-265,0,0,0,0,0,0,0,0,0,-1,1126,1289,0,0
-91,-265,0,0,0,0,0,0,0,0,0,-1,1133,1289,0,0
-84,-265,0,0,0,0,0,0,0,0,0,-1,1140,1289,0,0
-77,-265,0,0,0,0,0,0,0,0,0,-1,1147,1289,0,0
-70,-265,0,0,0,0,0,0,0,0,0,-1,1154,1289,0,0
-63,-265,0,0,0,0,0,0,0,0,0,-1,1161,1289,0,0
-56,-265,0,0,0,0,0,0,0,0,0,-1,1168,1289,0,0
-49,-265,0,0,0,0,0,0,0,0,0,-1,1175,1289,0,0
-42,-265,0,0,0,0,0,0,0,0,0,-1,1182,1289,0,0
-35,-265,0,0,0,0,0,0,0,0,0,-1,1189,1289,0,0
-28,-265,0,0,0,0,0,0,0,0,0,-1,1196,1289,0,0
-21,-265,0,0,0,0,0,0,0,0,0,-1,1203,1289,0,0
-14,-265,0,0,0,0,0,0,0,0,0,-1,1210,1289,0,0
-7,-265,0,0,0,0,0,0,0,0,0,-1,1217,1289,0,0
0,-265,0,0,0,0,0,0,0,0,0,-1,1224,1289,0,0
7,-265,0,0,0,0,0,0,0,0,0,-1,1231,1289,0,0
14,-265,0,0,0,0,0,0,0,0,0,-1,1238,1289,0,0
21,-265,0,0,0,0,0,0,0,0,0,-1,1245,1289,0,0
28,-265,0,0,0,0,0,0,0,0,0,-1,1252,1289,0,0
35,-265,0,0,0,0,0,0,0,0,0,-1,1259,1289,0,0
42,-265,0,0,0,0,0,0,0,0,0,-1,1266,1289,0,0
49,-265,0,0,0,0,0,0,0,0,0,-1,1273,1289,0,0
56,-265,0,0,0,0,0,0,0,0,0,-1,1280,1289,0,0
63,-265,0,0,0,0,0,0,0,0,0,-1,1287,1289,0,0
70,-265,0,0,0,0,0,0,0,0,0,-1,1294,1289,0,0
77,-265,0,0,0,0,0,0,0,0,0,-1,1301,1289,0,0
84,-265,0,0,0,0,0,0,0,0,0,-1,1308,1289,0,0
91,-265,0,0,0,0,0,0,0,0,0,-1,1315,1289,0,0
98,-265,0,0,0,0,0,0,0,0,0,-1,1322,1289,0,0
105,-265,0,0,0,0,0,0,0,0,0,-1,1329,1289,0,0
112,-265,0,0,0,0,0,0,0,0,0,-1,1336,1289,0,0
119,-265,0,0,0,0,0,0,0,0,0,-1,1343,1289,0,0
126,-265,0,0,0,0,0,0,0,0,0,-1,1350,1289,0,0
133,-265,0,0,0,0,0,0,0,0,0,-1,1357,1289,0,0
140,-265,0,0,0,0,0,0,0,0,0,-1,1364,1289,0,0
147,-265,0,0,0,0,0,0,0,0,0,-1,1371,1289,0,0
154,-265,0,0,0,0,0,0,0,0,0,-1,1378,1289,0,0
161,-265,0,0,0,0,0,0,0,0,0,-1,1385,1289,0,0
168,-265,0,0,0,0,0,0,0,0,0,-1,1392,1289,0,0
175,-265,0,0,0,0,0,0,0,0,0,-1,1399,1289,0,0
182,-265,0,0,0,0,0,0,0,0,0,-1,1406,1289,0,0
189,-265,0,0,0,0,0,0,0,0,0,-1,1413,1289,0,0
196,-265,0,0,0,0,0,0,0,0,0,-1,1420,1289,0,0
203,-265,0,0,0,0,0,0,0,0,0,-1,1427,1289,0,0
210,-265,0,0,0,0,0,0,0,0,0,-1,1434,1289,0,0
217,-265,0,0,0,0,0,0,0,0,0,-1,1441,1289,0,0
224,-265,0,0,0,0,0,0,0,0,0,-1,1448,1289,0,0
231,-265,0,0,0,0,0,0,0,0,0,-1,1455,1289,0,0
238,-265,0,0,0,0,0,0,0,0,0,-1,1462,1289,0,0
245,-265,0,0,0,0,0,0,0,0,0,-1,1469,1289,0,0
252,-265,0,0,0,0,0,0,0,0,0,-1,1476,1289,0,0
259,-265,0,0,0,0,0,0,0,0,0,-1,1483,1289,0,0
266,-265,0,0,0,0,0,0,0,0,0,-1,1490,1289,0,0
273,-265,0,0,0,0,0,0,0,0,0,-1,1497,1289,0,0
280,-265,0,0,0,0,0,0,0,0,0,-1,1504,1289,0,0
287,-265,0,0,0,0,0,0,0,0,0,-1,1511,1289,0,0
294,-265,0,0,0,0,0,0,0,0,0,-1,1518,1289,0,0
301,-265,0,0,0,0,0,0,0,0,0,-1,1525,1289,0,0
308,-265,0,0,0,0,0,0,0,0,0,-1,1532,1289,0,0
315,-265,0,0,0,0,0,0,0,0,0,-1,1539,1289,0,0
322,-265,0,0,0,0,0,0,0,0,0,-1,1546,1289,0,0
329,-265,0,0,0,0,0,0,0,0,0,-1,1553,1289,0,0
336,-265,0,0,0,0,0,0,0,0,0,-1,1560,1289,0,0
343,-265,0,0,0,0,0,0,0,0,0,-1,1567,1289,0,0
350,-265,0,0,0,0,0,0,0,0,0,-1,1574,1289,0,0
357,-265,0,0,0,0,0,0,0,0,0,-1,1581,1289,0,0
364,-265,0,0,0,0,0,0,0,0,0,-1,1588,1289,0,0
371,-265,0,0,0,0,0,0,0,0,0,-1,1595,1289,0,0
378,-265,0,0,0,0,0,0,0,0,0,-1,1602,1289,0,0
385,-265,0,0,0,0,0,0,0,0,0,-1,1609,1289,0,0
392,-265,0,0,0,0,0,0,0,0,0,-1,1616,1289,0,0
399,-265,0,0,0,0,0,0,0,0,0,-1,1623,1289,0,0
406,-265,0,0,0,0,0,0,0,0,0,-1,1630,1289,0,0
413,-265,0,0,0,0,0,0,0,0,0,-1,1637,1289,0,0
420,-265,0,0,0,0,0,0,0,0,0,-1,1644,1289,0,0
427,-265,0,0,0,0,0,0,0,0,0,-1,1651,1289,0,0
434,-265,0,0,0,0,0,0,0,0,0,-1,1658,1289,0,0
441,-265,0,0,0,0,0,0,0,0,0,-1,1665,1289,0,0
448,-265,0,0,0,0,0,0,0,0,0,-1,1672,1289,0,0
455,-265,0,0,0,0,0,0,0,0,0,-1,1679,1289,0,0
462,-265,0,0,0,0,0,0,0,0,0,-1,1686,1289,0,0
469,-265,0,0,0,0,0,0,0,0,0,-1,1693,1289,0,0
476,-265,0,0,0,0,0,0,0,0,0,-1,1700,1289,0,0
483,-265,0,0,0,0,0,0,0,0,0,-1,1707,1289,0,0
490,-265,0,0,0,0,0,0,0,0,0,-1,1714,1289,0,0
497,-265,0,0,0,0,0,0,0,0,0,-1,1721,1289,0,0
504,-265,0,0,0,0,0,0,0,0,0,-1,1728,1289,0,0
511,-265,0,0,0,0,0,0,0,0,0,-1,1735,1289,0,0
518,-265,0,0,0,0,0,0,0,0,0,-1,1742,1289,0,0
525,-265,0,0,0,0,0,0,0,0,0,-1,1749,1289,0,0
532,-265,0,0,0,0,0,0,0,0,0,-1,1756,1289,0,0
539,-265,0,0,0,0,0,0,0,0,0,-1,1763,1289,0,0
546,-265,0,0,0,0,0,0,0,0,0,-1,1770,1289,0,0
553,-265,0,0,0,0,0,0,0,0,0,-1,1777,1289,0,0
560,-265,0,0,0,0,0,0,0,0,0,-1,1784,1289,0,0
567,-265,0,0,0,0,0,0,0,0,0,-1,1791,1289,0,0
574,-265,0,0,0,0,0,0,0,0,0,-1,1798,1289,0,0
581,-265,0,0,0,0,0,0,0,0,0,-1,1805,1289,0,0
588,-265,0,0,0,0,0,0,0,0,0,-1,1812,1289,0,0
595,-265,0,0,0,0,0,0,0,0,0,-1,1819,1289,0,0
602,-265,36.5575,2.54346,-0.00945132,0.00957798,0.00154356,0.00970238,-0.00957572,1.49038,0.0111303,0.0270434,1826,1289,36.5575,-2.54344
609,-265,36.5933,2.51465,0.00791248,0.00622364,0.00329739,0.0104719,0.00366427,0.660048,0.00613605,0.0289446,1833,1289,36.5932,-2.51462
616,-265,36.6344,2.55212,0.0238089,0.00280649,0.00482704,0.0248652,0.00175021,0.215431,0.0160253,0.0355852,1840,1289,36.6343,-2.55209
623,-265,36.8162,2.6532,0.030612,0.000170643,0.00536604,0.0315302,-0.000747561,0.169472,0.0212737,0.0477883,1847,1289,36.8162,-2.65317
630,-265,36.7947,2.61609,0.0283606,-0.00109,0.00465579,0.0290791,-0.0018085,0.153115,0.0200161,0.0471568,1854,1289,36.7947,-2.61614
637,-265,36.9304,2.77551,0,0,0,0,0,0,0,-1,1861,1289,36.9305,-2.77546
644,-265,37.0225,2.93787,0,0,0,0,0,0,0,-1,1868,1289,37.0224,-2.9379
651,-265,33.0018,2.61646,0,0,0,0,0,0,0,-1,1875,1289,33.0019,-2.6165
658,-265,32.7052,2.53784,0,0,0,0,0,0,0,-1,1882,1289,32.7052,-2.53779
665,-265,31.3497,2.93079,0,0,0,0,0,0,0,-1,1889,1289,31.3497,-2.93077
672,-265,20.0045,6.62671,0,0,0,0,0,0,0,-1,1896,1289,20.0045,-6.62668
679,-265,27.4128,8.35034,0,0,0,0,0,0,0,-1,1903,1289,27.4129,-8.35036
686,-265,27.4659,7.97156,0.0019469,-0.00103976,-0.00041708,0.00200405,-0.00109692,-0.136177,0.0018157,0.029976,1910,1289,27.4659,-7.97156
693,-265,27.4934,7.6217,0.00192532,-0.000643725,-0.00029582,0.00195895,-0.000677348,-0.113174,0.00158088,0.0094176,1917,1289,27.4934,-7.62165
700,-265,27.4845,7.26477,0.0014567,-0.000563782,-0.000366522,0.00152113,-0.000628216,-0.174019,0.00127612,0.00992706,1924,1289,27.4845,-7.2648
707,-265,27.4879,6.91663,0.00075295,-0.000378639,3.68636e-06,0.000752962,-0.000378651,0.00325764,0.000665144,0.00966168,1931,1289,27.4879,-6.91663
714,-265,27.4757,6.58459,0.000150696,9.78046e-05,0.000465931,0.000590931,-0.000342431,0.757049,0.000545206,0.0105996,1938,1289,27.4757,-6.58462
721,-265,27.4512,6.25061,8.74994e-05,0.000700077,0.00076322,0.00121617,-0.000428598,0.976216,0.000985229,0.0113319,1945,1289,27.4512,-6.25062
728,-265,27.4281,5.93396,0.000161116,0.0014333,0.00101538,0.00199538,-0.00040096,1.06522,0.00148209,0.0124259,1952,1289,27.4281,-5.93401
735,-265,27.4509,5.61475,0.000687373,0.00236897,0.001131,0.00293746,0.000118883,1.10503,0.00191991,0.0146676,1959,1289,27.4509,-5.61475
742,-265,27.4783,5.27429,0.00189518,0.00357134,0.0010301,0.00406122,0.0014053,1.12689,0.00238152,0.0189142,1966,1289,27.4783,-5.27431
749,-265,27.4818,4.92432,0.00425914,0.00514229,0.000623412,0.00546468,0.00393676,1.09354,0.0032556,0.0422142,1973,1289,27.4819,-4.92437
756,-265,27.6166,4.57996,0,0,0,0,0,0,0,-1,1980,1289,27.6166,-4.57993
763,-265,27.068,3.57874,0,0,0,0,0,0,0,-1,1987,1289,27.068,-3.57879
770,-265,27.3834,3.41516,0,0,0,0,0,0,0,-1,1994,1289,27.3834,-3.41518
777,-265,32.1664,5.3457,0,0,0,0,0,0,0,-1,2001,1289,32.1664,-5.34568
784,-265,0,0,0,0,0,0,0,0,0,-1,2008,1289,0,0
791,-265,0,0,0,0,0,0,0,0,0,-1,2015,1289,0,0
798,-265,0,0,0,0,0,0,0,0,0,-1,2022,1289,0,0
805,-265,0,0,0,0,0,0,0,0,0,-1,2029,1289,0,0
812,-265,0,0,0,0,0,0,0,0,0,-1,2036,1289,0,0
-700,-272,0,0,0,0,0,0,0,0,0,-1,524,1296,0,0
-693,-272,0,0,0,0,0,0,0,0,0,-1,531,1296,0,0
-686,-272,0,0,0,0,0,0,0,0,0,-1,538,1296,0,0
-679,-272,0,0,0,0,0,0,0,0,0,-1,545,1296,0,0
-672,-272,0,0,0,0,0,0,0,0,0,-1,552,1296,0,0
-665,-272,0,0,0,0,0,0,0,0,0,-1,559,1296,0,0
-658,-272,-16.1246,-1.56787,-0.0238991,0.0418108,0.0759871,0.0917416,-0.07383,0.989448,0.0957791,0.0451098,566,1296,-16.1246,1.56789
-651,-272,-16.1195,-1.11047,-0.0179206,0.0358189,0.0679674,0.0820351,-0.0641368,0.973636,0.084603,0.0477418,573,1296,-16.1195,1.11048
-644,-272,-16.4286,-0.428101,-0.0135852,0.0312257,0.0585651,0.071525,-0.0538844,0.968095,0.0726435,0.0497693,580,1296,-16.4287,0.428143
-637,-272,-16.7374,-0.136597,-0.00969263,0.026916,0.0491804,0.061088,-0.0438646,0.963549,0.0608658,0.0489079,587,1296,-16.7373,0.136649
-630,-272,-16.8173,0.21106,0,0,0,0,0,0,0,-1,594,1296,-16.8172,-0.211073
-623,-272,-16.1337,1.33325,0,0,0,0,0,0,0,-1,601,1296,-16.1337,-1.33322
-616,-272,-15.8723,2.17859,0,0,0,0,0,0,0,-1,608,1296,-15.8723,-2.17855
-609,-272,-15.9287,2.87415,0.000186865,0.0109544,0.0168857,0.0232938,-0.0121526,0.939721,0.0207992,0.0244213,615,1296,-15.9287,-2.87419
-602,-272,-15.9916,3.14136,0.0013284,0.00798179,0.0111944,0.0163333,-0.00702313,0.92983,0.0138373,0.0142808,622,1296,-15.9915,-3.14134
-595,-272,-16.0237,3.53638,0.00261658,0.00465969,0.00658782,0.0103047,-0.00302842,0.862319,0.00807093,0.011603,629,1296,-16.0238,-3.53636
-588,-272,-16.0241,3.90808,0.00322367,0.0031436,0.0032524,0.00643628,-6.90066e-05,0.779244,0.00431404,0.0108619,636,1296,-16.0241,-3.90805
-581,-272,-16.0355,4.27991,0.00353851,0.00168483,0.00203151,0.00484462,0.000378714,0.571386,0.0031112,0.0102713,643,1296,-16.0355,-4.27989
-574,-272,-16.0548,4.68469,0.00390477,0.00116513,0.00203019,0.00498405,8.5853e-05,0.488617,0.00329445,0.0149148,650,1296,-16.0548,-4.68468
-567,-272,-16.0844,5.07056,0.00452765,0.000954758,0.00229108,0.00564645,-0.000164039,0.454266,0.00382015,0.0194172,657,1296,-16.0844,-5.07057
-560,-272,-16.1078,5.47607,0.0052802,0.00116502,0.0025263,0.00648081,-3.5587e-05,0.443648,0.00433245,0.0188673,664,1296,-16.1078,-5.47612
-553,-272,-16.0198,5.85046,0.00569675,0.00142258,0.00272749,0.00702468,9.46505e-05,0.453087,0.00465189,0.018194,671,1296,-16.0198,-5.85045
-546,-272,-15.9094,6.3313,0.00576744,0.00187177,0.00260353,0.00707114,0.00056808,0.46424,0.0045366,0.0326222,678,1296,-15.9094,-6.33125
-539,-272,-16.085,6.86914,0,0,0,0,0,0,0,-1,685,1296,-16.085,-6.86915
-532,-272,-10.5572,4.53943,0,0,0,0,0,0,0,-1,692,1296,-10.5572,-4.53943
-525,-272,-11.9599,0.0393066,0,0,0,0,0,0,0,-1,699,1296,-11.9599,-0.0393577
-518,-272,-21.1357,-1.41382,0,0,0,0,0,0,0,-1,706,1296,-21.1357,1.41379
-511,-272,-23.2565,0.226318,0,0,0,0,0,0,0,-1,713,1296,-23.2565,-0.22626
-504,-272,-19.7397,0.114746,0,0,0,0,0,0,0,-1,720,1296,-19.7397,-0.114701
-497,-272,-19.2225,1.71301,0,0,0,0,0,0,0,-1,727,1296,-19.2225,-1.71302
-490,-272,-20.1948,2.4032,0,0,0,0,0,0,0,-1,734,1296,-20.1948,-2.40322
-483,-272,-15.3736,0.792603,0,0,0,0,0,0,0,-1,741,1296,-15.3736,-0.79263
-476,-272,0,0,0,0,0,0,0,0,0,-1,748,1296,0,0
-469,-272,0,0,0,0,0,0,0,0,0,-1,755,1296,0,0
-462,-272,0,0,0,0,0,0,0,0,0,-1,762,1296,0,0
-455,-272,0,0,0,0,0,0,0,0,0,-1,769,1296,0,0
-448,-272,0,0,0,0,0,0,0,0,0,-1,776,1296,0,0
-441,-272,0,0,0,0,0,0,0,0,0,-1,783,1296,0,0
-434,-272,0,0,0,0,0,0,0,0,0,-1,790,1296,0,0
-427,-272,0,0,0,0,0,0,0,0,0,-1,797,1296,0,0
-420,-272,0,0,0,0,0,0,0,0,0,-1,804,1296,0,0
-413,-272,0,0,0,0,0,0,0,0,0,-1,811,1296,0,0
-406,-272,0,0,0,0,0,0,0,0,0,-1,818,1296,0,0
-399,-272,0,0,0,0,0,0,0,0,0,-1,825,1296,0,0
-392,-272,0,0,0,0,0,0,0,0,0,-1,832,1296,0,0
-385,-272,0,0,0,0,0,0,0,0,0,-1,839,1296,0,0
-378,-272,0,0,0,0,0,0,0,0,0,-1,846,1296,0,0
-371,-272,0,0,0,0,0,0,0,0,0,-1,853,1296,0,0
-364,-272,0,0,0,0,0,0,0,0,0,-1,860,1296,0,0
-357,-272,0,0,0,0,0,0,0,0,0,-1,867,1296,0,0
-350,-272,0,0,0,0,0,0,0,0,0,-1,874,1296,0,0
-343,-272,0,0,0,0,0,0,0,0,0,-1,881,1296,0,0
-336,-272,0,0,0,0,0,0,0,0,0,-1,888,1296,0,0
-329,-272,0,0,0,0,0,0,0,0,0,-1,895,1296,0,0
-322,-272,0,0,0,0,0,0,0,0,0,-1,902,1296,0,0
-315,-272,0,0,0,0,0,0,0,0,0,-1,909,1296,0,0
-308,-272,0,0,0,0,0,0,0,0,0,-1,916,1296,0,0
-301,-272,0,0,0,0,0,0,0,0,0,-1,923,1296,0,0
-294,-272,0,0,0,0,0,0,0,0,0,-1,930,1296,0,0
-287,-272,0,0,0,0,0,0,0,0,0,-1,937,1296,0,0
-280,-272,0,0,0,0,0,0,0,0,0,-1,944,1296,0,0
-273,-272,0,0,0,0,0,0,0,0,0,-1,951,1296,0,0
-266,-272,0,0,0,0,0,0,0,0,0,-1,958,1296,0,0
-259,-272,0,0,0,0,0,0,0,0,0,-1,965,1296,0,0
-252,-272,0,0,0,0,0,0,0,0,0,-1,972,1296,0,0
-245,-272,0,0,0,0,0,0,0,0,0,-1,979,1296,0,0
-238,-272,0,0,0,0,0,0,0,0,0,-1,986,1296,0,0
-231,-272,0,0,0,0,0,0,0,0,0,-1,993,1296,0,0
-224,-272,0,0,0,0,0,0,0,0,0,-1,1000,1296,0,0
-217,-272,0,0,0,0,0,0,0,0,0,-1,1007,1296,0,0
-210,-272,0,0,0,0,0,0,0,0,0,-1,1014,1296,0,0
-203,-272,0,0,0,0,0,0,0,0,0,-1,1021,1296,0,0
-196,-272,0,0,0,0,0,0,0,0,0,-1,1028,1296,0,0
-189,-272,0,0,0,0,0,0,0,0,0,-1,1035,1296,0,0
-182,-272,0,0,0,0,0,0,0,0,0,-1,1042,1296,0,0
-175,-272,0,0,0,0,0,0,0,0,0,-1,1049,1296,0,0
-168,-272,0,0,0,0,0,0,0,0,0,-1,1056,1296,0,0
-161,-272,0,0,0,0,0,0,0,0,0,-1,1063,1296,0,0
-154,-272,0,0,0,0,0,0,0,0,0,-1,1070,1296,0,0
-147,-272,0,0,0,0,0,0,0,0,0,-1,1077,1296,0,0
-140,-272,0,0,0,0,0,0,0,0,0,-1,1084,1296,0,0
-133,-272,0,0,0,0,0,0,0,0,0,-1,1091,1296,0,0
-126,-272,0,0,0,0,0,0,0,0,0,-1,1098,1296,0,0
-119,-272,0,0,0,0,0,0,0,0,0,-1,1105,1296,0,0
-112,-272,0,0,0,0,0,0,0,0,0,-1,1112,1296,0,0
-105,-272,0,0,0,0,0,0,0,0,0,-1,1119,1296,0,0
-98,-272,0,0,0,0,0,0,0,0,0,-1,1126,1296,0,0
-91,-272,0,0,0,0,0,0,0,0,0,-1,1133,1296,0,0
-84,-272,0,0,0,0,0,0,0,0,0,-1,1140,1296,0,0
-77,-272,0,0,0,0,0,0,0,0,0,-1,1147,1296,0,0
-70,-272,0,0,0,0,0,0,0,0,0,-1,1154,1296,0,0
-63,-272,0,0,0,0,0,0,0,0,0,-1,1161,1296,0,0
-56,-272,0,0,0,0,0,0,0,0,0,-1,1168,1296,0,0
-49,-272,0,0,0,0,0,0,0,0,0,-1,1175,1296,0,0
-42,-272,0,0,0,0,0,0,0,0,0,-1,1182,1296,0,0
-35,-272,0,0,0,0,0,0,0,0,0,-1,1189,1296,0,0
-28,-272,0,0,0,0,0,0,0,0,0,-1,1196,1296,0,0
-21,-272,0,0,0,0,0,0,0,0,0,-1,1203,1296,0,0
-14,-272,0,0,0,0,0,0,0,0,0,-1,1210,1296,0,0
-7,-272,0,0,0,0,0,0,0,0,0,-1,1217,1296,0,0
0,-272,0,0,0,0,0,0,0,0,0,-1,1224,1296,0,0
7,-272,0,0,0,0,0,0,0,0,0,-1,1231,1296,0,0
14,-272,0,0,0,0,0,0,0,0,0,-1,1238,1296,0,0
21,-272,0,0,0,0,0,0,0,0,0,-1,1245,1296,0,0
28,-272,0,0,0,0,0,0,0,0,0,-1,1252,1296,0,0
35,-272,0,0,0,0,0,0,0,0,0,-1,1259,1296,0,0
42,-272,0,0,0,0,0,0,0,0,0,-1,1266,1296,0,0
49,-272,0,0,0,0,0,0,0,0,0,-1,1273,1296,0,0
56,-272,0,0,0,0,0,0,0,0,0,-1,1280,1296,0,0
63,-272,0,0,0,0,0,0,0,0,0,-1,1287,1296,0,0
70,-272,0,0,0,0,0,0,0,0,0,-1,1294,1296,0,0
77,-272,0,0,0,0,0,0,0,0,0,-1,1301,1296,0,0
84,-272,0,0,0,0,0,0,0,0,0,-1,1308,1296,0,0
91,-272,0,0,0,0,0,0,0,0,0,-1,1315,1296,0,0
98,-272,0,0,0,0,0,0,0,0,0,-1,1322,1296,0,0
105,-272,0,0,0,0,0,0,0,0,0,-1,1329,1296,0,0
112,-272,0,0,0,0,0,0,0,0,0,-1,1336,1296,0,0
119,-272,0,0,0,0,0,0,0,0,0,-1,1343,1296,0,0
126,-272,0,0,0,0,0,0,0,0,0,-1,1350,1296,0,0
133,-272,0,0,0,0,0,0,0,0,0,-1,1357,1296,0,0
140,-272,0,0,0,0,0,0,0,0,0,-1,1364,1296,0,0
147,-272,0,0,0,0,0,0,0,0,0,-1,1371,1296,0,0
154,-272,0,0,0,0,0,0,0,0,0,-1,1378,1296,0,0
161,-272,0,0,0,0,0,0,0,0,0,-1,1385,1296,0,0
168,-272,0,0,0,0,0,0,0,0,0,-1,1392,1296,0,0
175,-272,0,0,0,0,0,0,0,0,0,-1,1399,1296,0,0
182,-272,0,0,0,0,0,0,0,0,0,-1,1406,1296,0,0
189,-272,0,0,0,0,0,0,0,0,0,-1,1413,1296,0,0
196,-272,0,0,0,0,0,0,0,0,0,-1,1420,1296,0,0
203,-272,0,0,0,0,0,0,0,0,0,-1,1427,1296,0,0
210,-272,0,0,0,0,0,0,0,0,0,-1,1434,1296,0,0
217,-272,0,0,0,0,0,0,0,0,0,-1,1441,1296,0,0
224,-272,0,0,0,0,0,0,0,0,0,-1,1448,1296,0,0
231,-272,0,0,0,0,0,0,0,0,0,-1,1455,1296,0,0
238,-272,0,0,0,0,0,0,0,0,0,-1,1462,1296,0,0
245,-272,0,0,0,0,0,0,0,0,0,-1,1469,1296,0,0
252,-272,0,0,0,0,0,0,0,0,0,-1,1476,1296,0,0
259,-272,0,0,0,0,0,0,0,0,0,-1,1483,1296,0,0
266,-272,0,0,0,0,0,0,0,0,0,-1,1490,1296,0,0
273,-272,0,0,0,0,0,0,0,0,0,-1,1497,1296,0,0
280,-272,0,0,0,0,0,0,0,0,0,-1,1504,1296,0,0
287,-272,0,0,0,0,0,0,0,0,0,-1,1511,1296,0,0
294,-272,0,0,0,0,0,0,0,0,0,-1,1518,1296,0,0
301,-272,0,0,0,0,0,0,0,0,0,-1,1525,1296,0,0
308,-272,0,0,0,0,0,0,0,0,0,-1,1532,1296,0,0
315,-272,0,0,0,0,0,0,0,0,0,-1,1539,1296,0,0
322,-272,0,0,0,0,0,0,0,0,0,-1,1546,1296,0,0
329,-272,0,0,0,0,0,0,0,0,0,-1,1553,1296,0,0
336,-272,0,0,0,0,0,0,0,0,0,-1,1560,1296,0,0
343,-272,0,0,0,0,0,0,0,0,0,-1,1567,1296,0,0
350,-272,0,0,0,0,0,0,0,0,0,-1,1574,1296,0,0
357,-272,0,0,0,0,0,0,0,0,0,-1,1581,1296,0,0
364,-272,0,0,0,0,0,0,0,0,0,-1,1588,1296,0,0
371,-272,0,0,0,0,0,0,0,0,0,-1,1595,1296,0,0
378,-272,0,0,0,0,0,0,0,0,0,-1,1602,1296,0,0
385,-272,0,0,0,0,0,0,0,0,0,-1,1609,1296,0,0
392,-272,0,0,0,0,0,0,0,0,0,-1,1616,1296,0,0
399,-272,0,0,0,0,0,0,0,0,0,-1,1623,1296,0,0
406,-272,0,0,0,0,0,0,0,0,0,-1,1630,1296,0,0
413,-272,0,0,0,0,0,0,0,0,0,-1,1637,1296,0,0
420,-272,0,0,0,0,0,0,0,0,0,-1,1644,1296,0,0
427,-272,0,0,0,0,0,0,0,0,0,-1,1651,1296,0,0
434,-272,0,0,0,0,0,0,0,0,0,-1,1658,1296,0,0
441,-272,0,0,0,0,0,0,0,0,0,-1,1665,1296,0,0
448,-272,0,0,0,0,0,0,0,0,0,-1,1672,1296,0,0
455,-272,0,0,0,0,0,0,0,0,0,-1,1679,1296,0,0
462,-272,0,0,0,0,0,0,0,0,0,-1,1686,1296,0,0
469,-272,0,0,0,0,0,0,0,0,0,-1,1693,1296,0,0
476,-272,0,0,0,0,0,0,0,0,0,-1,1700,1296,0,0
483,-272,0,0,0,0,0,0,0,0,0,-1,1707,1296,0,0
490,-272,0,0,0,0,0,0,0,0,0,-1,1714,1296,0,0
497,-272,0,0,0,0,0,0,0,0,0,-1,1721,1296,0,0
504,-272,0,0,0,0,0,0,0,0,0,-1,1728,1296,0,0
511,-272,0,0,0,0,0,0,0,0,0,-1,1735,1296,0,0
518,-272,0,0,0,0,0,0,0,0,0,-1,1742,1296,0,0
525,-272,0,0,0,0,0,0,0,0,0,-1,1749,1296,0,0
532,-272,0,0,0,0,0,0,0,0,0,-1,1756,1296,0,0
539,-272,0,0,0,0,0,0,0,0,0,-1,1763,1296,0,0
546,-272,0,0,0,0,0,0,0,0,0,-1,1770,1296,0,0
553,-272,0,0,0,0,0,0,0,0,0,-1,1777,1296,0,0
560,-272,0,0,0,0,0,0,0,0,0,-1,1784,1296,0,0
567,-272,0,0,0,0,0,0,0,0,0,-1,1791,1296,0,0
574,-272,0,0,0,0,0,0,0,0,0,-1,1798,1296,0,0
581,-272,0,0,0,0,0,0,0,0,0,-1,1805,1296,0,0
588,-272,0,0,0,0,0,0,0,0,0,-1,1812,1296,0,0
595,-272,0,0,0,0,0,0,0,0,0,-1,1819,1296,0,0
602,-272,36.551,2.51428,-0.00278423,0.0113036,0.00168749,0.0115029,-0.00298354,1.45323,0.00883268,0.0301604,1826,1296,36.551,-2.51433
609,-272,36.4893,2.35864,0.0194438,0.0071454,0.00410869,0.0206902,0.00589907,0.294519,0.0123077,0.0387874,1833,1296,36.4893,-2.35858
616,-272,36.3207,2.11829,0.0350991,0.00310933,0.00597206,0.0361776,0.00203079,0.178672,0.0234708,0.042981,1840,1296,36.3207,-2.11834
623,-272,37.1439,2.86951,0.0375544,0.000470833,0.00627879,0.0385887,-0.000563415,0.163255,0.0259156,0.0452685,1847,1296,37.1439,-2.86949
630,-272,36.8367,2.63672,0,0,0,0,0,0,0,-1,1854,1296,36.8366,-2.63668
637,-272,35.5508,2.6123,0,0,0,0,0,0,0,-1,1861,1296,35.5508,-2.61231
644,-272,31.8978,2.58643,0,0,0,0,0,0,0,-1,1868,1296,31.8978,-2.58637
651,-272,31.4108,2.48743,0,0,0,0,0,0,0,-1,1875,1296,31.4107,-2.48747
658,-272,30.9236,2.38855,0,0,0,0,0,0,0,-1,1882,1296,30.9236,-2.38858
665,-272,22.0238,4.14417,0,0,0,0,0,0,0,-1,1889,1296,22.0238,-4.14421
672,-272,22.661,7.21765,0,0,0,0,0,0,0,-1,1896,1296,22.661,-7.21761
679,-272,27.1454,8.37195,0,0,0,0,0,0,0,-1,1903,1296,27.1454,-8.37197
686,-272,27.1361,8.00818,0.00162341,-0.00103512,-0.000368394,0.00167351,-0.00108523,-0.135178,0.00160479,0.018658,1910,1296,27.1361,-8.00815
693,-272,27.1427,7.64087,0.00148503,-0.000630664,-0.000202926,0.00150432,-0.000649952,-0.0947634,0.00127596,0.0112533,1917,1296,27.1427,-7.64092
700,-272,27.1389,7.28101,0.000987938,-0.000471475,-0.000177503,0.00100922,-0.000492754,-0.119309,0.000884087,0.0109378,1924,1296,27.1389,-7.28103
707,-272,27.1462,6.92493,0.000363121,-0.000266012,0.000215744,0.000429996,-0.000332887,0.300581,0.000441639,0.0106993,1931,1296,27.1462,-6.9249
714,-272,27.1351,6.58435,-0.000150555,0.000199499,0.000638725,0.000686744,-0.0006378,0.919128,0.0007649,0.0117971,1938,1296,27.1351,-6.58434
721,-272,27.111,6.27161,-0.000295752,0.000785183,0.000925943,0.00131685,-0.00082742,1.04957,0.0012487,0.0132555,1945,1296,27.1109,-6.27158
728,-272,27.1058,5.92383,-0.000384485,0.00152461,0.00119012,0.0020957,-0.000955569,1.1234,0.00180218,0.0141363,1952,1296,27.1059,-5.92377
735,-272,27.097,5.63428,-7.28807e-05,0.00249888,0.00130575,0.00304561,-0.000619614,1.17426,0.00226537,0.0139754,1959,1296,27.097,-5.63424
742,-272,27.0063,5.30225,0.000882378,0.0037779,0.00119504,0.0042074,0.000452874,1.22577,0.00266683,0.02529,1966,1296,27.0063,-5.30222
749,-272,26.9661,4.84705,0.00295613,0.00550588,0.000741119,0.00570565,0.00275637,1.30751,0.00329478,0.0465509,1973,1296,26.9661,-4.84705
756,-272,27.1566,4.50427,0,0,0,0,0,0,0,-1,1980,1296,27.1567,-4.50426
763,-272,26.9349,3.40161,0,0,0,0,0,0,0,-1,1987,1296,26.9349,-3.40166
770,-272,25.9485,3.67749,0,0,0,0,0,0,0,-1,1994,1296,25.9485,-3.67744
777,-272,32.3619,6.13257,0,0,0,0,0,0,0,-1,2001,1296,32.362,-6.1326
784,-272,0,0,0,0,0,0,0,0,0,-1,2008,1296,0,0
791,-272,0,0,0,0,0,0,0,0,0,-1,2015,1296,0,0
798,-272,0,0,0,0,0,0,0,0,0,-1,2022,1296,0,0
805,-272,0,0,0,0,0,0,0,0,0,-1,2029,1296,0,0
812,-272,0,0,0,0,0,0,0,0,0,-1,2036,1296,0,0
-700,-279,0,0,0,0,0,0,0,0,0,-1,524,1303,0,0
-693,-279,0,0,0,0,0,0,0,0,0,-1,531,1303,0,0
-686,-279,0,0,0,0,0,0,0,0,0,-1,538,1303,0,0
-679,-279,0,0,0,0,0,0,0,0,0,-1,545,1303,0,0
-672,-279,0,0,0,0,0,0,0,0,0,-1,552,1303,0,0
-665,-279,0,0,0,0,0,0,0,0,0,-1,559,1303,0,0
-658,-279,-16.6409,-2.00916,-0.0259709,0.0390299,0.0793335,0.0922622,-0.0792031,0.979805,0.0990912,0.0465541,566,1303,-16.6409,2.00914
-651,-279,-16.6926,-1.27441,-0.0208983,0.0342066,0.0710838,0.0828909,-0.0695826,0.970286,0.0881423,0.0460228,573,1303,-16.6926,1.27442
-644,-279,-17.6277,-0.120361,-0.0165243,0.030526,0.0618149,0.0731409,-0.0591393,0.967222,0.0765145,0.0468941,580,1303,-17.6277,0.120317
-637,-279,-17.4364,-0.186401,-0.012178,0.0270117,0.052554,0.0635049,-0.0486713,0.963841,0.0649535,0.0463654,587,1303,-17.4364,0.186442
-630,-279,-17.517,-0.121338,0,0,0,0,0,0,0,-1,594,1303,-17.517,0.121374
-623,-279,-16.5671,2.21411,0,0,0,0,0,0,0,-1,601,1303,-16.5672,-2.2141
-616,-279,-16.3333,2.42395,0,0,0,0,0,0,0,-1,608,1303,-16.3333,-2.42391
-609,-279,-15.8099,2.75378,-0.000587263,0.0117613,0.0187113,0.0252907,-0.0141167,0.944761,0.0230547,0.0411863,615,1303,-15.8099,-2.75383
-602,-279,-15.5957,3.15649,0.000776154,0.00872482,0.0124228,0.0177936,-0.00829261,0.940214,0.0153902,0.0129298,622,1303,-15.5957,-3.15652
-595,-279,-15.6337,3.54028,0.00230717,0.00506114,0.00715184,0.0109673,-0.00359904,0.880502,0.00876122,0.00997321,629,1303,-15.6336,-3.54025
-588,-279,-15.622,3.91858,0.00294586,0.00345061,0.00329543,0.00650332,-0.000106849,0.823615,0.0043716,0.0105385,636,1303,-15.622,-3.9186
-581,-279,-15.6374,4.28748,0.00310654,0.00177391,0.00179179,0.00435189,0.000528557,0.607386,0.00274211,0.0117678,643,1303,-15.6374,-4.28742
-574,-279,-15.6659,4.68384,0.0032521,0.00113105,0.0016442,0.00414813,0.000235027,0.498968,0.0026905,0.0114898,650,1303,-15.6659,-4.68386
-567,-279,-15.6741,5.07495,0.00367801,0.000717251,0.00180363,0.004531,-0.000135741,0.441758,0.00306691,0.0149455,657,1303,-15.6741,-5.07498
-560,-279,-15.6729,5.48999,0.0044183,0.000636744,0.00207424,0.00533422,-0.00027917,0.415818,0.00365276,0.0158333,664,1303,-15.6729,-5.49002
-553,-279,-15.6747,5.896,0.00512026,0.000674939,0.00243027,0.00619099,-0.000395795,0.414994,0.00426539,0.0119065,671,1303,-15.6747,-5.89597
-546,-279,-15.6777,6.27576,0.00563188,0.000891892,0.00263597,0.00680663,-0.000282854,0.41924,0.00463491,0.018137,678,1303,-15.6777,-6.27581
-539,-279,-15.8524,6.69568,0,0,0,0,0,0,0,-1,685,1303,-15.8524,-6.69572
-532,-279,-14.9813,7.89917,0,0,0,0,0,0,0,-1,692,1303,-14.9813,-7.89918
-525,-279,-11.7063,-0.539185,0,0,0,0,0,0,0,-1,699,1303,-11.7063,0.539166
-518,-279,-16.8138,1.11963,0,0,0,0,0,0,0,-1,706,1303,-16.8138,-1.11968
-511,-279,-20.1063,-1.37915,0,0,0,0,0,0,0,-1,713,1303,-20.1062,1.37918
-504,-279,-18.3766,1.04578,0,0,0,0,0,0,0,-1,720,1303,-18.3767,-1.04577
-497,-279,-19.0046,2.08911,0,0,0,0,0,0,0,-1,727,1303,-19.0046,-2.08905
-490,-279,-20.0176,2.55188,0,0,0,0,0,0,0,-1,734,1303,-20.0176,-2.55183
-483,-279,-20.8064,2.99792,0,0,0,0,0,0,0,-1,741,1303,-20.8064,-2.99797
-476,-279,0,0,0,0,0,0,0,0,0,-1,748,1303,0,0
-469,-279,0,0,0,0,0,0,0,0,0,-1,755,1303,0,0
-462,-279,0,0,0,0,0,0,0,0,0,-1,762,1303,0,0
-455,-279,0,0,0,0,0,0,0,0,0,-1,769,1303,0,0
-448,-279,0,0,0,0,0,0,0,0,0,-1,776,1303,0,0
-441,-279,0,0,0,0,0,0,0,0,0,-1,783,1303,0,0
-434,-279,0,0,0,0,0,0,0,0,0,-1,790,1303,0,0
-427,-279,0,0,0,0,0,0,0,0,0,-1,797,1303,0,0
-420,-279,0,0,0,0,0,0,0,0,0,-1,804,1303,0,0
-413,-279,0,0,0,0,0,0,0,0,0,-1,811,1303,0,0
-406,-279,0,0,0,0,0,0,0,0,0,-1,818,1303,0,0
-399,-279,0,0,0,0,0,0,0,0,0,-1,825,1303,0,0
-392,-279,0,0,0,0,0,0,0,0,0,-1,832,1303,0,0
-385,-279,0,0,0,0,0,0,0,0,0,-1,839,1303,0,0
-378,-279,0,0,0,0,0,0,0,0,0,-1,846,1303,0,0
-371,-279,0,0,0,0,0,0,0,0,0,-1,853,1303,0,0
-364,-279,0,0,0,0,0,0,0,0,0,-1,860,1303,0,0
-357,-279,0,0,0,0,0,0,0,0,0,-1,867,1303,0,0
-350,-279,0,0,0,0,0,0,0,0,0,-1,874,1303,0,0
-343,-279,0,0,0,0,0,0,0,0,0,-1,881,1303,0,0
-336,-279,0,0,0,0,0,0,0,0,0,-1,888,1303,0,0
-329,-279,0,0,0,0,0,0,0,0,0,-1,895,1303,0,0
-322,-279,0,0,0,0,0,0,0,0,0,-1,902,1303,0,0
-315,-279,0,0,0,0,0,0,0,0,0,-1,909,1303,0,0
-308,-279,0,0,0,0,0,0,0,0,0,-1,916,1303,0,0
-301,-279,0,0,0,0,0,0,0,0,0,-1,923,1303,0,0
-294,-279,0,0,0,0,0,0,0,0,0,-1,930,1303,0,0
-287,-279,0,0,0,0,0,0,0,0,0,-1,937,1303,0,0
-280,-279,0,0,0,0,0,0,0,0,0,-1,944,1303,0,0
-273,-279,0,0,0,0,0,0,0,0,0,-1,951,1303,0,0
-266,-279,0,0,0,0,0,0,0,0,0,-1,958,1303,0,0
-259,-279,0,0,0,0,0,0,0,0,0,-1,965,1303,0,0
-252,-279,0,0,0,0,0,0,0,0,0,-1,972,1303,0,0
-245,-279,0,0,0,0,0,0,0,0,0,-1,979,1303,0,0
-238,-279,0,0,0,0,0,0,0,0,0,-1,986,1303,0,0
-231,-279,0,0,0,0,0,0,0,0,0,-1,993,1303,0,0
-224,-279,0,0,0,0,0,0,0,0,0,-1,1000,1303,0,0
-217,-279,0,0,0,0,0,0,0,0,0,-1,1007,1303,0,0
-210,-279,0,0,0,0,0,0,0,0,0,-1,1014,1303,0,0
-203,-279,0,0,0,0,0,0,0,0,0,-1,1021,1303,0,0
-196,-279,0,0,0,0,0,0,0,0,0,-1,1028,1303,0,0
-189,-279,0,0,0,0,0,0,0,0,0,-1,1035,1303,0,0
-182,-279,0,0,0,0,0,0,0,0,0,-1,1042,1303,0,0
-175,-279,0,0,0,0,0,0,0,0,0,-1,1049,1303,0,0
-168,-279,0,0,0,0,0,0,0,0,0,-1,1056,1303,0,0
-161,-279,0,0,0,0,0,0,0,0,0,-1,1063,1303,0,0
-154,-279,0,0,0,0,0,0,0,0,0,-1,1070,1303,0,0
-147,-279,0,0,0,0,0,0,0,0,0,-1,1077,1303,0,0
-140,-279,0,0,0,0,0,0,0,0,0,-1,1084,1303,0,0
-133,-279,0,0,0,0,0,0,0,0,0,-1,1091,1303,0,0
-126,-279,0,0,0,0,0,0,0,0,0,-1,1098,1303,0,0
-119,-279,0,0,0,0,0,0,0,0,0,-1,1105,1303,0,0
-112,-279,0,0,0,0,0,0,0,0,0,-1,1112,1303,0,0
-105,-279,0,0,0,0,0,0,0,0,0,-1,1119,1303,0,0
-98,-279,0,0,0,0,0,0,0,0,0,-1,1126,1303,0,0
-91,-279,0,0,0,0,0,0,0,0,0,-1,1133,1303,0,0
-84,-279,0,0,0,0,0,0,0,0,0,-1,1140,1303,0,0
-77,-279,0,0,0,0,0,0,0,0,0,-1,1147,1303,0,0
-70,-279,0,0,0,0,0,0,0,0,0,-1,1154,1303,0,0
-63,-279,0,0,0,0,0,0,0,0,0,-1,1161,1303,0,0
-56,-279,0,0,0,0,0,0,0,0,0,-1,1168,1303,0,0
-49,-279,0,0,0,0,0,0,0,0,0,-1,1175,1303,0,0
-42,-279,0,0,0,0,0,0,0,0,0,-1,1182,1303,0,0
-35,-279,0,0,0,0,0,0,0,0,0,-1,1189,1303,0,0
-28,-279,0,0,0,0,0,0,0,0,0,-1,1196,1303,0,0
-21,-279,0,0,0,0,0,0,0,0,0,-1,1203,1303,0,0
-14,-279,0,0,0,0,0,0,0,0,0,-1,1210,1303,0,0
-7,-279,0,0,0,0,0,0,0,0,0,-1,1217,1303,0,0
0,-279,0,0,0,0,0,0,0,0,0,-1,1224,1303,0,0
7,-279,0,0,0,0,0,0,0,0,0,-1,1231,1303,0,0
14,-279,0,0,0,0,0,0,0,0,0,-1,1238,1303,0,0
21,-279,0,0,0,0,0,0,0,0,0,-1,1245,1303,0,0
28,-279,0,0,0,0,0,0,0,0,0,-1,1252,1303,0,0
35,-279,0,0,0,0,0,0,0,0,0,-1,1259,1303,0,0
42,-279,0,0,0,0,0,0,0,0,0,-1,1266,1303,0,0
49,-279,0,0,0,0,0,0,0,0,0,-1,1273,1303,0,0
56,-279,0,0,0,0,0,0,0,0,0,-1,1280,1303,0,0
63,-279,0,0,0,0,0,0,0,0,0,-1,1287,1303,0,0
70,-279,0,0,0,0,0,0,0,0,0,-1,1294,1303,0,0
77,-279,0,0,0,0,0,0,0,0,0,-1,1301,1303,0,0
84,-279,0,0,0,0,0,0,0,0,0,-1,1308,1303,0,0
91,-279,0,0,0,0,0,0,0,0,0,-1,1315,1303,0,0
98,-279,0,0,0,0,0,0,0,0,0,-1,1322,1303,0,0
105,-279,0,0,0,0,0,0,0,0,0,-1,1329,1303,0,0
112,-279,0,0,0,0,0,0,0,0,0,-1,1336,1303,0,0
119,-279,0,0,0,0,0,0,0,0,0,-1,1343,1303,0,0
126,-279,0,0,0,0,0,0,0,0,0,-1,1350,1303,0,0
133,-279,0,0,0,0,0,0,0,0,0,-1,1357,1303,0,0
140,-279,0,0,0,0,0,0,0,0,0,-1,1364,1303,0,0
147,-279,0,0,0,0,0,0,0,0,0,-1,1371,1303,0,0
154,-279,0,0,0,0,0,0,0,0,0,-1,1378,1303,0,0
161,-279,0,0,0,0,0,0,0,0,0,-1,1385,1303,0,0
168,-279,0,0,0,0,0,0,0,0,0,-1,1392,1303,0,0
175,-279,0,0,0,0,0,0,0,0,0,-1,1399,1303,0,0
182,-279,0,0,0,0,0,0,0,0,0,-1,1406,1303,0,0
189,-279,0,0,0,0,0,0,0,0,0,-1,1413,1303,0,0
196,-279,0,0,0,0,0,0,0,0,0,-1,1420,1303,0,0
203,-279,0,0,0,0,0,0,0,0,0,-1,1427,1303,0,0
210,-279,0,0,0,0,0,0,0,0,0,-1,1434,1303,0,0
217,-279,0,0,0,0,0,0,0,0,0,-1,1441,1303,0,0
224,-279,0,0,0,0,0,0,0,0,0,-1,1448,1303,0,0
231,-279,0,0,0,0,0,0,0,0,0,-1,1455,1303,0,0
238,-279,0,0,0,0,0,0,0,0,0,-1,1462,1303,0,0
245,-279,0,0,0,0,0,0,0,0,0,-1,1469,1303,0,0
252,-279,0,0,0,0,0,0,0,0,0,-1,1476,1303,0,0
259,-279,0,0,0,0,0,0,0,0,0,-1,1483,1303,0,0
266,-279,0,0,0,0,0,0,0,0,0,-1,1490,1303,0,0
273,-279,0,0,0,0,0,0,0,0,0,-1,1497,1303,0,0
280,-279,0,0,0,0,0,0,0,0,0,-1,1504,1303,0,0
287,-279,0,0,0,0,0,0,0,0,0,-1,1511,1303,0,0
294,-279,0,0,0,0,0,0,0,0,0,-1,1518,1303,0,0
301,-279,0,0,0,0,0,0,0,0,0,-1,1525,1303,0,0
308,-279,0,0,0,0,0,0,0,0,0,-1,1532,1303,0,0
315,-279,0,0,0,0,0,0,0,0,0,-1,1539,1303,0,0
322,-279,0,0,0,0,0,0,0,0,0,-1,1546,1303,0,0
329,-279,0,0,0,0,0,0,0,0,0,-1,1553,1303,0,0
336,-279,0,0,0,0,0,0,0,0,0,-1,1560,1303,0,0
343,-279,0,0,0,0,0,0,0,0,0,-1,1567,1303,0,0
350,-279,0,0,0,0,0,0,0,0,0,-1,1574,1303,0,0
357,-279,0,0,0,0,0,0,0,0,0,-1,1581,1303,0,0
364,-279,0,0,0,0,0,0,0,0,0,-1,1588,1303,0,0
371,-279,0,0,0,0,0,0,0,0,0,-1,1595,1303,0,0
378,-279,0,0,0,0,0,0,0,0,0,-1,1602,1303,0,0
385,-279,0,0,0,0,0,0,0,0,0,-1,1609,1303,0,0
392,-279,0,0,0,0,0,0,0,0,0,-1,1616,1303,0,0
399,-279,0,0,0,0,0,0,0,0,0,-1,1623,1303,0,0
406,-279,0,0,0,0,0,0,0,0,0,-1,1630,1303,0,0
413,-279,0,0,0,0,0,0,0,0,0,-1,1637,1303,0,0
420,-279,0,0,0,0,0,0,0,0,0,-1,1644,1303,0,0
427,-279,0,0,0,0,0,0,0,0,0,-1,1651,1303,0,0
434,-279,0,0,0,0,0,0,0,0,0,-1,1658,1303,0,0
441,-279,0,0,0,0,0,0,0,0,0,-1,1665,1303,0,0
448,-279,0,0,0,0,0,0,0,0,0,-1,1672,1303,0,0
455,-279,0,0,0,0,0,0,0,0,0,-1,1679,1303,0,0
462,-279,0,0,0,0,0,0,0,0,0,-1,1686,1303,0,0
469,-279,0,0,0,0,0,0,0,0,0,-1,1693,1303,0,0
476,-279,0,0,0,0,0,0,0,0,0,-1,1700,1303,0,0
483,-279,0,0,0,0,0,0,0,0,0,-1,1707,1303,0,0
490,-279,0,0,0,0,0,0,0,0,0,-1,1714,1303,0,0
497,-279,0,0,0,0,0,0,0,0,0,-1,1721,1303,0,0
504,-279,0,0,0,0,0,0,0,0,0,-1,1728,1303,0,0
511,-279,0,0,0,0,0,0,0,0,0,-1,1735,1303,0,0
518,-279,0,0,0,0,0,0,0,0,0,-1,1742,1303,0,0
525,-279,0,0,0,0,0,0,0,0,0,-1,1749,1303,0,0
532,-279,0,0,0,0,0,0,0,0,0,-1,1756,1303,0,0
539,-279,0,0,0,0,0,0,0,0,0,-1,1763,1303,0,0
546,-279,0,0,0,0,0,0,0,0,0,-1,1770,1303,0,0
553,-279,0,0,0,0,0,0,0,0,0,-1,1777,1303,0,0
560,-279,0,0,0,0,0,0,0,0,0,-1,1784,1303,0,0
567,-279,0,0,0,0,0,0,0,0,0,-1,1791,1303,0,0
574,-279,0,0,0,0,0,0,0,0,0,-1,1798,1303,0,0
581,-279,0,0,0,0,0,0,0,0,0,-1,1805,1303,0,0
588,-279,0,0,0,0,0,0,0,0,0,-1,1812,1303,0,0
595,-279,0,0,0,0,0,0,0,0,0,-1,1819,1303,0,0
602,-279,36.5017,2.41589,0,0,0,0,0,0,0,-1,1826,1303,36.5017,-2.41592
609,-279,36.4731,2.01221,0,0,0,0,0,0,0,-1,1833,1303,36.4731,-2.01223
616,-279,36.975,2.3844,0.0444614,0.00346387,0.00611311,0.0453535,0.00257176,0.144911,0.0294159,0.04848,1840,1303,36.975,-2.38443
623,-279,37.4862,2.97144,0.0432775,0.00104706,0.00642648,0.0442338,9.07574e-05,0.147723,0.029459,0.0471608,1847,1303,37.4862,-2.97144
630,-279,37.9149,3.59375,0.0366098,-0.0001268,0.00553278,0.037425,-0.000941986,0.146285,0.0252698,0.0476441,1854,1303,37.9149,-3.59377
637,-279,38.3188,4.15442,0,0,0,0,0,0,0,-1,1861,1303,38.3188,-4.15445
644,-279,33.5021,3.40234,0,0,0,0,0,0,0,-1,1868,1303,33.5021,-3.40237
651,-279,29.8456,2.3562,0,0,0,0,0,0,0,-1,1875,1303,29.8455,-2.35615
658,-279,21.5076,7.65649,0,0,0,0,0,0,0,-1,1882,1303,21.5076,-7.65648
665,-279,18.9794,6.09607,0,0,0,0,0,0,0,-1,1889,1303,18.9793,-6.09601
672,-279,23.5206,8.32507,0,0,0,0,0,0,0,-1,1896,1303,23.5206,-8.32512
679,-279,26.7397,8.34204,0,0,0,0,0,0,0,-1,1903,1303,26.7397,-8.34205
686,-279,26.7677,8.00586,0.00164994,-0.00116278,-0.000563091,0.00175848,-0.00127132,-0.190421,0.00175678,0.0236118,1910,1303,26.7677,-8.00581
693,-279,26.7821,7.65332,0.00134056,-0.000721649,-0.000336866,0.00139419,-0.000775282,-0.157886,0.00126942,0.0164713,1917,1303,26.7821,-7.65336
700,-279,26.7954,7.29346,0.000745453,-0.000439684,-0.000163809,0.000767678,-0.000461909,-0.134852,0.000717182,0.0109051,1924,1303,26.7955,-7.29345
707,-279,26.7944,6.93384,7.48607e-05,-0.000176875,0.00030519,0.00027912,-0.000381134,0.589813,0.000382712,0.0088436,1931,1303,26.7945,-6.93381
714,-279,26.7643,6.58813,-0.000495028,0.000291245,0.000764419,0.000757698,-0.000961481,1.02291,0.00099489,0.00995164,1938,1303,26.7643,-6.5881
721,-279,26.7664,6.25635,-0.000831372,0.000846748,0.00112421,0.00141049,-0.00139512,1.10598,0.00161983,0.0125029,1945,1303,26.7664,-6.25632
728,-279,26.7878,5.92786,-0.00115581,0.00157049,0.00147213,0.00221367,-0.00179898,1.15889,0.00232082,0.0137799,1952,1303,26.7879,-5.92782
735,-279,26.7531,5.62183,-0.00114041,0.00256181,0.00165958,0.00319683,-0.00177542,1.20535,0.00290957,0.0148455,1959,1303,26.753,-5.62179
742,-279,26.6451,5.30505,-0.000546228,0.00389247,0.00162706,0.00442499,-0.00107875,1.25449,0.00336767,0.0328977,1966,1303,26.6451,-5.30505
749,-279,26.7307,4.92432,0,0,0,0,0,0,0,-1,1973,1303,26.7307,-4.92427
756,-279,23.2091,4.43433,0,0,0,0,0,0,0,-1,1980,1303,23.2092,-4.43432
763,-279,27.1613,3.46265,0,0,0,0,0,0,0,-1,1987,1303,27.1613,-3.4627
770,-279,21.5828,3.54199,0,0,0,0,0,0,0,-1,1994,1303,21.5827,-3.54198
777,-279,32.5369,6.99609,0,0,0,0,0,0,0,-1,2001,1303,32.5369,-6.99608
784,-279,0,0,0,0,0,0,0,0,0,-1,2008,1303,0,0
791,-279,0,0,0,0,0,0,0,0,0,-1,2015,1303,0,0
798,-279,0,0,0,0,0,0,0,0,0,-1,2022,1303,0,0
805,-279,0,0,0,0,0,0,0,0,0,-1,2029,1303,0,0
812,-279,0,0,0,0,0,0,0,0,0,-1,2036,1303,0,0
-700,-286,0,0,0,0,0,0,0,0,0,-1,524,1310,0,0
-693,-286,0,0,0,0,0,0,0,0,0,-1,531,1310,0,0
-686,-286,0,0,0,0,0,0,0,0,0,-1,538,1310,0,0
-679,-286,0,0,0,0,0,0,0,0,0,-1,545,1310,0,0
-672,-286,0,0,0,0,0,0,0,0,0,-1,552,1310,0,0
-665,-286,0,0,0,0,0,0,0,0,0,-1,559,1310,0,0
-658,-286,-16.8094,-1.84253,-0.0283732,0.0319341,0.0818782,0.0890346,-0.0854737,0.961829,0.100759,0.0481515,566,1310,-16.8095,1.84247
-651,-286,-16.9493,-1.54053,-0.0242694,0.0297699,0.0735296,0.0810871,-0.0755866,0.961473,0.0904742,0.0478056,573,1310,-16.9493,1.54048
-644,-286,-16.9966,-1.42078,0,0,0,0,0,0,0,-1,580,1310,-16.9967,1.42082
-637,-286,-18.2242,-0.370728,0,0,0,0,0,0,0,-1,587,1310,-18.2243,0.370743
-630,-286,-18.2233,-0.218018,0,0,0,0,0,0,0,-1,594,1310,-18.2234,0.218011
-623,-286,-16.557,-0.6604,0,0,0,0,0,0,0,-1,601,1310,-16.557,0.660343
-616,-286,-16.5459,1.66931,0,0,0,0,0,0,0,-1,608,1310,-16.5459,-1.66927
-609,-286,-15.5104,2.50574,0,0,0,0,0,0,0,-1,615,1310,-15.5104,-2.50576
-602,-286,-15.2155,3.1051,0.000369082,0.00931351,0.0134961,0.0190591,-0.0093765,0.94539,0.0167315,0.0167744,622,1310,-15.2154,-3.10516
-595,-286,-15.2461,3.53992,0.00214942,0.00540208,0.00760599,0.0115537,-0.00400217,0.890723,0.00932724,0.0110249,629,1310,-15.2461,-3.53986
-588,-286,-15.2136,3.92065,0.00281951,0.00376984,0.00334769,0.00667592,-8.65723e-05,0.855897,0.00447975,0.0117692,636,1310,-15.2136,-3.92062
-581,-286,-15.2061,4.29382,0.00284882,0.00196888,0.00165752,0.00412376,0.000693929,0.65567,0.00254954,0.0136886,643,1310,-15.2061,-4.29377
-574,-286,-15.2557,4.68665,0.00284609,0.0012729,0.00143243,0.00369368,0.000425303,0.534308,0.00233364,0.0136985,650,1310,-15.2557,-4.68665
-567,-286,-15.2724,5.09155,0.00310942,0.000759708,0.00148669,0.00382944,3.96918e-05,0.451015,0.00253983,0.0130184,657,1310,-15.2724,-5.0915
-560,-286,-15.2695,5.50696,0.00377096,0.000535503,0.00170223,0.00450156,-0.00019509,0.405422,0.00306814,0.0131453,664,1310,-15.2695,-5.50696
-553,-286,-15.2759,5.91248,0.00460673,0.000433805,0.00204563,0.00544224,-0.000401705,0.387758,0.0037692,0.0097832,671,1310,-15.2759,-5.91252
-546,-286,-15.2913,6.32581,0.00543882,0.00048618,0.00236226,0.00638484,-0.000459841,0.380914,0.00441783,0.0156919,678,1310,-15.2913,-6.32579
-539,-286,-15.2945,6.68396,0.00629258,0.000382778,0.00265697,0.00731146,-0.0006361,0.366179,0.00509958,0.0392934,685,1310,-15.2945,-6.68397
-532,-286,-15.1929,7.02527,0,0,0,0,0,0,0,-1,692,1310,-15.193,-7.02531
-525,-286,-11.4528,-1.11768,0,0,0,0,0,0,0,-1,699,1310,-11.4528,1.11769
-518,-286,-11.0701,1.37329,0,0,0,0,0,0,0,-1,706,1310,-11.0701,-1.37332
-511,-286,-17.7545,-0.0791016,0,0,0,0,0,0,0,-1,713,1310,-17.7544,0.0791606
-504,-286,-18.0455,1.29602,0,0,0,0,0,0,0,-1,720,1310,-18.0455,-1.29601
-497,-286,-18.3367,2.67114,0,0,0,0,0,0,0,-1,727,1310,-18.3366,-2.67118
-490,-286,-19.5795,2.47266,0,0,0,0,0,0,0,-1,734,1310,-19.5795,-2.4727
-483,-286,-19.7277,2.74744,0,0,0,0,0,0,0,-1,741,1310,-19.7277,-2.74747
-476,-286,-20.0391,3.06177,0,0,0,0,0,0,0,-1,748,1310,-20.0391,-3.06178
-469,-286,0,0,0,0,0,0,0,0,0,-1,755,1310,0,0
-462,-286,0,0,0,0,0,0,0,0,0,-1,762,1310,0,0
-455,-286,0,0,0,0,0,0,0,0,0,-1,769,1310,0,0
-448,-286,0,0,0,0,0,0,0,0,0,-1,776,1310,0,0
-441,-286,0,0,0,0,0,0,0,0,0,-1,783,1310,0,0
-434,-286,0,0,0,0,0,0,0,0,0,-1,790,1310,0,0
-427,-286,0,0,0,0,0,0,0,0,0,-1,797,1310,0,0
-420,-286,0,0,0,0,0,0,0,0,0,-1,804,1310,0,0
-413,-286,0,0,0,0,0,0,0,0,0,-1,811,1310,0,0
-406,-286,0,0,0,0,0,0,0,0,0,-1,818,1310,0,0
-399,-286,0,0,0,0,0,0,0,0,0,-1,825,1310,0,0
-392,-286,0,0,0,0,0,0,0,0,0,-1,832,1310,0,0
-385,-286,0,0,0,0,0,0,0,0,0,-1,839,1310,0,0
-378,-286,0,0,0,0,0,0,0,0,0,-1,846,1310,0,0
-371,-286,0,0,0,0,0,0,0,0,0,-1,853,1310,0,0
-364,-286,0,0,0,0,0,0,0,0,0,-1,860,1310,0,0
-357,-286,0,0,0,0,0,0,0,0,0,-1,867,1310,0,0
-350,-286,0,0,0,0,0,0,0,0,0,-1,874,1310,0,0
-343,-286,0,0,0,0,0,0,0,0,0,-1,881,1310,0,0
-336,-286,0,0,0,0,0,0,0,0,0,-1,888,1310,0,0
-329,-286,0,0,0,0,0,0,0,0,0,-1,895,1310,0,0
-322,-286,0,0,0,0,0,0,0,0,0,-1,902,1310,0,0
-315,-286,0,0,0,0,0,0,0,0,0,-1,909,1310,0,0
-308,-286,0,0,0,0,0,0,0,0,0,-1,916,1310,0,0
-301,-286,0,0,0,0,0,0,0,0,0,-1,923,1310,0,0
-294,-286,0,0,0,0,0,0,0,0,0,-1,930,1310,0,0
-287,-286,0,0,0,0,0,0,0,0,0,-1,937,1310,0,0
-280,-286,0,0,0,0,0,0,0,0,0,-1,944,1310,0,0
-273,-286,0,0,0,0,0,0,0,0,0,-1,951,1310,0,0
-266,-286,0,0,0,0,0,0,0,0,0,-1,958,1310,0,0
-259,-286,0,0,0,0,0,0,0,0,0,-1,965,1310,0,0
-252,-286,0,0,0,0,0,0,0,0,0,-1,972,1310,0,0
-245,-286,0,0,0,0,0,0,0,0,0,-1,979,1310,0,0
-238,-286,0,0,0,0,0,0,0,0,0,-1,986,1310,0,0
-231,-286,0,0,0,0,0,0,0,0,0,-1,993,1310,0,0
-224,-286,0,0,0,0,0,0,0,0,0,-1,1000,1310,0,0
-217,-286,0,0,0,0,0,0,0,0,0,-1,1007,1310,0,0
-210,-286,0,0,0,0,0,0,0,0,0,-1,1014,1310,0,0
-203,-286,0,0,0,0,0,0,0,0,0,-1,1021,1310,0,0
-196,-286,0,0,0,0,0,0,0,0,0,-1,1028,1310,0,0
-189,-286,0,0,0,0,0,0,0,0,0,-1,1035,1310,0,0
-182,-286,0,0,0,0,0,0,0,0,0,-1,1042,1310,0,0
-175,-286,0,0,0,0,0,0,0,0,0,-1,1049,1310,0,0
-168,-286,0,0,0,0,0,0,0,0,0,-1,1056,1310,0,0
-161,-286,0,0,0,0,0,0,0,0,0,-1,1063,1310,0,0
-154,-286,0,0,0,0,0,0,0,0,0,-1,1070,1310,0,0
-147,-286,0,0,0,0,0,0,0,0,0,-1,1077,1310,0,0
-140,-286,0,0,0,0,0,0,0,0,0,-1,1084,1310,0,0
-133,-286,0,0,0,0,0,0,0,0,0,-1,1091,1310,0,0
-126,-286,0,0,0,0,0,0,0,0,0,-1,1098,1310,0,0
-119,-286,0,0,0,0,0,0,0,0,0,-1,1105,1310,0,0
-112,-286,0,0,0,0,0,0,0,0,0,-1,1112,1310,0,0
-105,-286,0,0,0,0,0,0,0,0,0,-1,1119,1310,0,0
-98,-286,0,0,0,0,0,0,0,0,0,-1,1126,1310,0,0
-91,-286,0,0,0,0,0,0,0,0,0,-1,1133,1310,0,0
-84,-286,0,0,0,0,0,0,0,0,0,-1,1140,1310,0,0
-77,-286,0,0,0,0,0,0,0,0,0,-1,1147,1310,0,0
-70,-286,0,0,0,0,0,0,0,0,0,-1,1154,1310,0,0
-63,-286,0,0,0,0,0,0,0,0,0,-1,1161,1310,0,0
-56,-286,0,0,0,0,0,0,0,0,0,-1,1168,1310,0,0
-49,-286,0,0,0,0,0,0,0,0,0,-1,1175,1310,0,0
-42,-286,0,0,0,0,0,0,0,0,0,-1,1182,1310,0,0
-35,-286,0,0,0,0,0,0,0,0,0,-1,1189,1310,0,0
-28,-286,0,0,0,0,0,0,0,0,0,-1,1196,1310,0,0
-21,-286,0,0,0,0,0,0,0,0,0,-1,1203,1310,0,0
-14,-286,0,0,0,0,0,0,0,0,0,-1,1210,1310,0,0
-7,-286,0,0,0,0,0,0,0,0,0,-1,1217,1310,0,0
0,-286,0,0,0,0,0,0,0,0,0,-1,1224,1310,0,0
7,-286,0,0,0,0,0,0,0,0,0,-1,1231,1310,0,0
14,-286,0,0,0,0,0,0,0,0,0,-1,1238,1310,0,0
21,-286,0,0,0,0,0,0,0,0,0,-1,1245,1310,0,0
28,-286,0,0,0,0,0,0,0,0,0,-1,1252,1310,0,0
35,-286,0,0,0,0,0,0,0,0,0,-1,1259,1310,0,0
42,-286,0,0,0,0,0,0,0,0,0,-1,1266,1310,0,0
49,-286,0,0,0,0,0,0,0,0,0,-1,1273,1310,0,0
56,-286,0,0,0,0,0,0,0,0,0,-1,1280,1310,0,0
63,-286,0,0,0,0,0,0,0,0,0,-1,1287,1310,0,0
70,-286,0,0,0,0,0,0,0,0,0,-1,1294,1310,0,0
77,-286,0,0,0,0,0,0,0,0,0,-1,1301,1310,0,0
84,-286,0,0,0,0,0,0,0,0,0,-1,1308,1310,0,0
91,-286,0,0,0,0,0,0,0,0,0,-1,1315,1310,0,0
98,-286,0,0,0,0,0,0,0,0,0,-1,1322,1310,0,0
105,-286,0,0,0,0,0,0,0,0,0,-1,1329,1310,0,0
112,-286,0,0,0,0,0,0,0,0,0,-1,1336,1310,0,0
119,-286,0,0,0,0,0,0,0,0,0,-1,1343,1310,0,0
126,-286,0,0,0,0,0,0,0,0,0,-1,1350,1310,0,0
133,-286,0,0,0,0,0,0,0,0,0,-1,1357,1310,0,0
140,-286,0,0,0,0,0,0,0,0,0,-1,1364,1310,0,0
147,-286,0,0,0,0,0,0,0,0,0,-1,1371,1310,0,0
154,-286,0,0,0,0,0,0,0,0,0,-1,1378,1310,0,0
161,-286,0,0,0,0,0,0,0,0,0,-1,1385,1310,0,0
168,-286,0,0,0,0,0,0,0,0,0,-1,1392,1310,0,0
175,-286,0,0,0,0,0,0,0,0,0,-1,1399,1310,0,0
182,-286,0,0,0,0,0,0,0,0,0,-1,1406,1310,0,0
189,-286,0,0,0,0,0,0,0,0,0,-1,1413,1310,0,0
196,-286,0,0,0,0,0,0,0,0,0,-1,1420,1310,0,0
203,-286,0,0,0,0,0,0,0,0,0,-1,1427,1310,0,0
210,-286,0,0,0,0,0,0,0,0,0,-1,1434,1310,0,0
217,-286,0,0,0,0,0,0,0,0,0,-1,1441,1310,0,0
224,-286,0,0,0,0,0,0,0,0,0,-1,1448,1310,0,0
231,-286,0,0,0,0,0,0,0,0,0,-1,1455,1310,0,0
238,-286,0,0,0,0,0,0,0,0,0,-1,1462,1310,0,0
245,-286,0,0,0,0,0,0,0,0,0,-1,1469,1310,0,0
252,-286,0,0,0,0,0,0,0,0,0,-1,1476,1310,0,0
259,-286,0,0,0,0,0,0,0,0,0,-1,1483,1310,0,0
266,-286,0,0,0,0,0,0,0,0,0,-1,1490,1310,0,0
273,-286,0,0,0,0,0,0,0,0,0,-1,1497,1310,0,0
280,-286,0,0,0,0,0,0,0,0,0,-1,1504,1310,0,0
287,-286,0,0,0,0,0,0,0,0,0,-1,1511,1310,0,0
294,-286,0,0,0,0,0,0,0,0,0,-1,1518,1310,0,0
301,-286,0,0,0,0,0,0,0,0,0,-1,1525,1310,0,0
308,-286,0,0,0,0,0,0,0,0,0,-1,1532,1310,0,0
315,-286,0,0,0,0,0,0,0,0,0,-1,1539,1310,0,0
322,-286,0,0,0,0,0,0,0,0,0,-1,1546,1310,0,0
329,-286,0,0,0,0,0,0,0,0,0,-1,1553,1310,0,0
336,-286,0,0,0,0,0,0,0,0,0,-1,1560,1310,0,0
343,-286,0,0,0,0,0,0,0,0,0,-1,1567,1310,0,0
350,-286,0,0,0,0,0,0,0,0,0,-1,1574,1310,0,0
357,-286,0,0,0,0,0,0,0,0,0,-1,1581,1310,0,0
364,-286,0,0,0,0,0,0,0,0,0,-1,1588,1310,0,0
371,-286,0,0,0,0,0,0,0,0,0,-1,1595,1310,0,0
378,-286,0,0,0,0,0,0,0,0,0,-1,1602,1310,0,0
385,-286,0,0,0,0,0,0,0,0,0,-1,1609,1310,0,0
392,-286,0,0,0,0,0,0,0,0,0,-1,1616,1310,0,0
399,-286,0,0,0,0,0,0,0,0,0,-1,1623,1310,0,0
406,-286,0,0,0,0,0,0,0,0,0,-1,1630,1310,0,0
413,-286,0,0,0,0,0,0,0,0,0,-1,1637,1310,0,0
420,-286,0,0,0,0,0,0,0,0,0,-1,1644,1310,0,0
427,-286,0,0,0,0,0,0,0,0,0,-1,1651,1310,0,0
434,-286,0,0,0,0,0,0,0,0,0,-1,1658,1310,0,0
441,-286,0,0,0,0,0,0,0,0,0,-1,1665,1310,0,0
448,-286,0,0,0,0,0,0,0,0,0,-1,1672,1310,0,0
455,-286,0,0,0,0,0,0,0,0,0,-1,1679,1310,0,0
462,-286,0,0,0,0,0,0,0,0,0,-1,1686,1310,0,0
469,-286,0,0,0,0,0,0,0,0,0,-1,1693,1310,0,0
476,-286,0,0,0,0,0,0,0,0,0,-1,1700,1310,0,0
483,-286,0,0,0,0,0,0,0,0,0,-1,1707,1310,0,0
490,-286,0,0,0,0,0,0,0,0,0,-1,1714,1310,0,0
497,-286,0,0,0,0,0,0,0,0,0,-1,1721,1310,0,0
504,-286,0,0,0,0,0,0,0,0,0,-1,1728,1310,0,0
511,-286,0,0,0,0,0,0,0,0,0,-1,1735,1310,0,0
518,-286,0,0,0,0,0,0,0,0,0,-1,1742,1310,0,0
525,-286,0,0,0,0,0,0,0,0,0,-1,1749,1310,0,0
532,-286,0,0,0,0,0,0,0,0,0,-1,1756,1310,0,0
539,-286,0,0,0,0,0,0,0,0,0,-1,1763,1310,0,0
546,-286,0,0,0,0,0,0,0,0,0,-1,1770,1310,0,0
553,-286,0,0,0,0,0,0,0,0,0,-1,1777,1310,0,0
560,-286,0,0,0,0,0,0,0,0,0,-1,1784,1310,0,0
567,-286,0,0,0,0,0,0,0,0,0,-1,1791,1310,0,0
574,-286,0,0,0,0,0,0,0,0,0,-1,1798,1310,0,0
581,-286,0,0,0,0,0,0,0,0,0,-1,1805,1310,0,0
588,-286,0,0,0,0,0,0,0,0,0,-1,1812,1310,0,0
595,-286,36.578,2.4469,0,0,0,0,0,0,0,-1,1819,1310,36.578,-2.44685
602,-286,36.5691,2.22546,0.0118994,0.0129157,-0.00194871,0.0144214,0.0103937,-0.912936,0.00859235,0.0483504,1826,1310,36.5691,-2.22543
609,-286,36.5018,1.92737,0.0426092,0.00780836,0.00346673,0.0429512,0.00746638,0.0983288,0.0264983,0.0475927,1833,1310,36.5018,-1.92738
616,-286,37.0356,2.18457,0.0517313,0.00396447,0.00603238,0.0524814,0.00321443,0.123701,0.0339668,0.0470905,1840,1310,37.0357,-2.18461
623,-286,37.953,2.95618,0.0476778,0.00179351,0.006324,0.0485334,0.000937864,0.134485,0.0320476,0.0454883,1847,1310,37.9529,-2.95617
630,-286,38.2407,3.61108,0.0404649,0.000546154,0.00560819,0.0412378,-0.000226775,0.136959,0.0275678,0.0477256,1854,1310,38.2407,-3.61107
637,-286,38.6868,4.04199,0,0,0,0,0,0,0,-1,1861,1310,38.6867,-4.04195
644,-286,25.6433,1.33862,0,0,0,0,0,0,0,-1,1868,1310,25.6433,-1.33858
651,-286,25.2507,1.88245,0,0,0,0,0,0,0,-1,1875,1310,25.2508,-1.88245
658,-286,25.9475,9.43689,0,0,0,0,0,0,0,-1,1882,1310,25.9475,-9.43693
665,-286,24.9838,8.03101,0,0,0,0,0,0,0,-1,1889,1310,24.9837,-8.03104
672,-286,26.3431,8.88782,0,0,0,0,0,0,0,-1,1896,1310,26.3431,-8.88788
679,-286,26.3658,8.42493,0.00316435,-0.00163501,-7.35564e-05,0.00316548,-0.00163614,-0.0153215,0.0028187,0.0387293,1903,1310,26.3658,-8.42489
686,-286,26.4286,8.00623,0.00153976,-0.00115926,-0.00068397,0.00170319,-0.0013227,-0.234547,0.0017516,0.021811,1910,1310,26.4286,-8.00623
693,-286,26.4176,7.6582,0.00107605,-0.000661256,-0.000403727,0.00116529,-0.000750493,-0.217535,0.00111469,0.0164095,1917,1310,26.4176,-7.65818
700,-286,26.4362,7.30164,0.000447422,-0.000281735,-0.000103586,0.000461852,-0.000296165,-0.138414,0.000441113,0.0111236,1924,1310,26.4361,-7.30159
707,-286,26.4406,6.96472,-0.000214218,1.03798e-05,0.000413907,0.000326952,-0.00053079,0.917866,0.000499857,0.00867572,1931,1310,26.4405,-6.96475
714,-286,26.4288,6.61902,-0.000815581,0.00045868,0.000913745,0.000935491,-0.00129239,1.08984,0.00129176,0.00923154,1938,1310,26.4288,-6.619
721,-286,26.4326,6.29248,-0.00132741,0.000962332,0.00136138,0.00159625,-0.00196133,1.13501,0.00205757,0.0119871,1945,1310,26.4326,-6.29246
728,-286,26.4347,5.9646,-0.00188175,0.00164893,0.00181869,0.00241817,-0.00265098,1.17065,0.0029277,0.0143825,1952,1310,26.4347,-5.96464
735,-286,26.4486,5.58191,-0.0021924,0.00263352,0.00211577,0.00342975,-0.00298862,1.21086,0.00370856,0.0185999,1959,1310,26.4487,-5.58189
742,-286,26.4523,5.23828,-0.00206107,0.00398239,0.00223296,0.00471792,-0.0027966,1.2526,0.00438552,0.0432318,1966,1310,26.4523,-5.2383
749,-286,26.6481,4.85974,0,0,0,0,0,0,0,-1,1973,1310,26.6481,-4.85969
756,-286,24.8226,4.43481,0,0,0,0,0,0,0,-1,1980,1310,24.8227,-4.43479
763,-286,20.6671,3.99683,0,0,0,0,0,0,0,-1,1987,1310,20.6671,-3.99683
770,-286,23.9147,4.45679,0,0,0,0,0,0,0,-1,1994,1310,23.9146,-4.45675
777,-286,0,0,0,0,0,0,0,0,0,-1,2001,1310,0,0
784,-286,0,0,0,0,0,0,0,0,0,-1,2008,1310,0,0
791,-286,0,0,0,0,0,0,0,0,0,-1,2015,1310,0,0
798,-286,0,0,0,0,0,0,0,0,0,-1,2022,1310,0,0
805,-286,0,0,0,0,0,0,0,0,0,-1,2029,1310,0,0
812,-286,0,0,0,0,0,0,0,0,0,-1,2036,1310,0,0
-700,-293,0,0,0,0,0,0,0,0,0,-1,524,1317,0,0
-693,-293,0,0,0,0,0,0,0,0,0,-1,531,1317,0,0
-686,-293,0,0,0,0,0,0,0,0,0,-1,538,1317,0,0
-679,-293,0,0,0,0,0,0,0,0,0,-1,545,1317,0,0
-672,-293,0,0,0,0,0,0,0,0,0,-1,552,1317,0,0
-665,-293,0,0,0,0,0,0,0,0,0,-1,559,1317,0,0
-658,-293,0,0,0,0,0,0,0,0,0,-1,566,1317,0,0
-651,-293,-17.3409,-1.65552,0,0,0,0,0,0,0,-1,573,1317,-17.341,1.6555
-644,-293,-17.3585,-1.57813,0,0,0,0,0,0,0,-1,580,1317,-17.3585,1.57817
-637,-293,-18.9014,-0.578613,0,0,0,0,0,0,0,-1,587,1317,-18.9014,0.578587
-630,-293,-12.4562,-1.74414,0,0,0,0,0,0,0,-1,594,1317,-12.4561,1.7441
-623,-293,-14.0003,0.520264,0,0,0,0,0,0,0,-1,601,1317,-14.0003,-0.520315
-616,-293,-14.1575,1.42529,0,0,0,0,0,0,0,-1,608,1317,-14.1575,-1.4253
-609,-293,-14.3746,2.31738,0,0,0,0,0,0,0,-1,615,1317,-14.3746,-2.31743
-602,-293,-14.7375,2.99231,0.000270337,0.00984513,0.0146169,0.0204387,-0.0103232,0.943655,0.0180776,0.0387317,622,1317,-14.7375,-2.99235
-595,-293,-14.8793,3.54004,0.00228032,0.0057028,0.00808223,0.012253,-0.00426985,0.889722,0.00990364,0.0170303,629,1317,-14.8793,-3.54006
-588,-293,-14.8232,3.91309,0.00291235,0.00403824,0.00345987,0.00698067,-3.00766e-05,0.866045,0.00466384,0.0158528,636,1317,-14.8233,-3.91304
-581,-293,-14.8124,4.29822,0.00274544,0.00213388,0.00159756,0.00406622,0.000813099,0.69084,0.00248454,0.0180954,643,1317,-14.8124,-4.29818
-574,-293,-14.8373,4.70386,0.00257208,0.00136779,0.00127752,0.00338225,0.000557622,0.565168,0.00209386,0.0159244,650,1317,-14.8373,-4.7039
-567,-293,-14.8821,5.11365,0.00268065,0.000756051,0.00122801,0.00327849,0.000158212,0.45306,0.00213488,0.0154677,657,1317,-14.8821,-5.11362
-560,-293,-14.8812,5.5354,0.00326792,0.000419109,0.00137931,0.0038263,-0.000139265,0.384657,0.00259853,0.0159141,664,1317,-14.8812,-5.53544
-553,-293,-14.8728,5.92688,0.00425456,0.000245112,0.00170208,0.00487967,-0.000379994,0.351967,0.00338689,0.0111895,671,1317,-14.8728,-5.92683
-546,-293,-14.8885,6.32861,0.00551021,0.000226331,0.00214915,0.00627396,-0.000537411,0.341451,0.0043728,0.011178,678,1317,-14.8885,-6.32861
-539,-293,-14.8745,6.70959,0.00733588,0.00013957,0.00279472,0.00829373,-0.00081828,0.330188,0.00582112,0.03224,685,1317,-14.8745,-6.7096
-532,-293,-14.8465,7.01685,0,0,0,0,0,0,0,-1,692,1317,-14.8465,-7.01681
-525,-293,-8.20642,3.62256,0,0,0,0,0,0,0,-1,699,1317,-8.20639,-3.6226
-518,-293,-10.1053,0.314209,0,0,0,0,0,0,0,-1,706,1317,-10.1053,-0.314234
-511,-293,-11.6276,0.235352,0,0,0,0,0,0,0,-1,713,1317,-11.6276,-0.235372
-504,-293,-17.9086,1.25427,0,0,0,0,0,0,0,-1,720,1317,-17.9086,-1.25423
-497,-293,-18.8006,1.62122,0,0,0,0,0,0,0,-1,727,1317,-18.8006,-1.62119
-490,-293,-18.8961,1.99255,0,0,0,0,0,0,0,-1,734,1317,-18.8961,-1.99251
-483,-293,-19.0831,2.35498,0,0,0,0,0,0,0,-1,741,1317,-19.0831,-2.35497
-476,-293,-19.5228,2.61243,0,0,0,0,0,0,0,-1,748,1317,-19.5228,-2.61237
-469,-293,0,0,0,0,0,0,0,0,0,-1,755,1317,0,0
-462,-293,0,0,0,0,0,0,0,0,0,-1,762,1317,0,0
-455,-293,0,0,0,0,0,0,0,0,0,-1,769,1317,0,0
-448,-293,0,0,0,0,0,0,0,0,0,-1,776,1317,0,0
-441,-293,0,0,0,0,0,0,0,0,0,-1,783,1317,0,0
-434,-293,0,0,0,0,0,0,0,0,0,-1,790,1317,0,0
-427,-293,0,0,0,0,0,0,0,0,0,-1,797,1317,0,0
-420,-293,0,0,0,0,0,0,0,0,0,-1,804,1317,0,0
-413,-293,0,0,0,0,0,0,0,0,0,-1,811,1317,0,0
-406,-293,0,0,0,0,0,0,0,0,0,-1,818,1317,0,0
-399,-293,0,0,0,0,0,0,0,0,0,-1,825,1317,0,0
-392,-293,0,0,0,0,0,0,0,0,0,-1,832,1317,0,0
-385,-293,0,0,0,0,0,0,0,0,0,-1,839,1317,0,0
-378,-293,0,0,0,0,0,0,0,0,0,-1,846,1317,0,0
-371,-293,0,0,0,0,0,0,0,0,0,-1,853,1317,0,0
-364,-293,0,0,0,0,0,0,0,0,0,-1,860,1317,0,0
-357,-293,0,0,0,0,0,0,0,0,0,-1,867,1317,0,0
-350,-293,0,0,0,0,0,0,0,0,0,-1,874,1317,0,0
-343,-293,0,0,0,0,0,0,0,0,0,-1,881,1317,0,0
-336,-293,0,0,0,0,0,0,0,0,0,-1,888,1317,0,0
-329,-293,0,0,0,0,0,0,0,0,0,-1,895,1317,0,0
-322,-293,0,0,0,0,0,0,0,0,0,-1,902,1317,0,0
-315,-293,0,0,0,0,0,0,0,0,0,-1,909,1317,0,0
-308,-293,0,0,0,0,0,0,0,0,0,-1,916,1317,0,0
-301,-293,0,0,0,0,0,0,0,0,0,-1,923,1317,0,0
-294,-293,0,0,0,0,0,0,0,0,0,-1,930,1317,0,0
-287,-293,0,0,0,0,0,0,0,0,0,-1,937,1317,0,0
-280,-293,0,0,0,0,0,0,0,0,0,-1,944,1317,0,0
-273,-293,0,0,0,0,0,0,0,0,0,-1,951,1317,0,0
-266,-293,0,0,0,0,0,0,0,0,0,-1,958,1317,0,0
-259,-293,0,0,0,0,0,0,0,0,0,-1,965,1317,0,0
-252,-293,0,0,0,0,0,0,0,0,0,-1,972,1317,0,0
-245,-293,0,0,0,0,0,0,0,0,0,-1,979,1317,0,0
-238,-293,0,0,0,0,0,0,0,0,0,-1,986,1317,0,0
-231,-293,0,0,0,0,0,0,0,0,0,-1,993,1317,0,0
-224,-293,0,0,0,0,0,0,0,0,0,-1,1000,1317,0,0
-217,-293,0,0,0,0,0,0,0,0,0,-1,1007,1317,0,0
-210,-293,0,0,0,0,0,0,0,0,0,-1,1014,1317,0,0
-203,-293,0,0,0,0,0,0,0,0,0,-1,1021,1317,0,0
-196,-293,0,0,0,0,0,0,0,0,0,-1,1028,1317,0,0
-189,-293,0,0,0,0,0,0,0,0,0,-1,1035,1317,0,0
-182,-293,0,0,0,0,0,0,0,0,0,-1,1042,1317,0,0
-175,-293,0,0,0,0,0,0,0,0,0,-1,1049,1317,0,0
-168,-293,0,0,0,0,0,0,0,0,0,-1,1056,1317,0,0
-161,-293,0,0,0,0,0,0,0,0,0,-1,1063,1317,0,0
-154,-293,0,0,0,0,0,0,0,0,0,-1,1070,1317,0,0
-147,-293,0,0,0,0,0,0,0,0,0,-1,1077,1317,0,0
-140,-293,0,0,0,0,0,0,0,0,0,-1,1084,1317,0,0
-133,-293,0,0,0,0,0,0,0,0,0,-1,1091,1317,0,0
-126,-293,0,0,0,0,0,0,0,0,0,-1,1098,1317,0,0
-119,-293,0,0,0,0,0,0,0,0,0,-1,1105,1317,0,0
-112,-293,0,0,0,0,0,0,0,0,0,-1,1112,1317,0,0
-105,-293,0,0,0,0,0,0,0,0,0,-1,1119,1317,0,0
-98,-293,0,0,0,0,0,0,0,0,0,-1,1126,1317,0,0
-91,-293,0,0,0,0,0,0,0,0,0,-1,1133,1317,0,0
-84,-293,0,0,0,0,0,0,0,0,0,-1,1140,1317,0,0
-77,-293,0,0,0,0,0,0,0,0,0,-1,1147,1317,0,0
-70,-293,0,0,0,0,0,0,0,0,0,-1,1154,1317,0,0
-63,-293,0,0,0,0,0,0,0,0,0,-1,1161,1317,0,0
-56,-293,0,0,0,0,0,0,0,0,0,-1,1168,1317,0,0
-49,-293,0,0,0,0,0,0,0,0,0,-1,1175,1317,0,0
-42,-293,0,0,0,0,0,0,0,0,0,-1,1182,1317,0,0
-35,-293,0,0,0,0,0,0,0,0,0,-1,1189,1317,0,0
-28,-293,0,0,0,0,0,0,0,0,0,-1,1196,1317,0,0
-21,-293,0,0,0,0,0,0,0,0,0,-1,1203,1317,0,0
-14,-293,0,0,0,0,0,0,0,0,0,-1,1210,1317,0,0
-7,-293,0,0,0,0,0,0,0,0,0,-1,1217,1317,0,0
0,-293,0,0,0,0,0,0,0,0,0,-1,1224,1317,0,0
7,-293,0,0,0,0,0,0,0,0,0,-1,1231,1317,0,0
14,-293,0,0,0,0,0,0,0,0,0,-1,1238,1317,0,0
21,-293,0,0,0,0,0,0,0,0,0,-1,1245,1317,0,0
28,-293,0,0,0,0,0,0,0,0,0,-1,1252,1317,0,0
35,-293,0,0,0,0,0,0,0,0,0,-1,1259,1317,0,0
42,-293,0,0,0,0,0,0,0,0,0,-1,1266,1317,0,0
49,-293,0,0,0,0,0,0,0,0,0,-1,1273,1317,0,0
56,-293,0,0,0,0,0,0,0,0,0,-1,1280,1317,0,0
63,-293,0,0,0,0,0,0,0,0,0,-1,1287,1317,0,0
70,-293,0,0,0,0,0,0,0,0,0,-1,1294,1317,0,0
77,-293,0,0,0,0,0,0,0,0,0,-1,1301,1317,0,0
84,-293,0,0,0,0,0,0,0,0,0,-1,1308,1317,0,0
91,-293,0,0,0,0,0,0,0,0,0,-1,1315,1317,0,0
98,-293,0,0,0,0,0,0,0,0,0,-1,1322,1317,0,0
105,-293,0,0,0,0,0,0,0,0,0,-1,1329,1317,0,0
112,-293,0,0,0,0,0,0,0,0,0,-1,1336,1317,0,0
119,-293,0,0,0,0,0,0,0,0,0,-1,1343,1317,0,0
126,-293,0,0,0,0,0,0,0,0,0,-1,1350,1317,0,0
133,-293,0,0,0,0,0,0,0,0,0,-1,1357,1317,0,0
140,-293,0,0,0,0,0,0,0,0,0,-1,1364,1317,0,0
147,-293,0,0,0,0,0,0,0,0,0,-1,1371,1317,0,0
154,-293,0,0,0,0,0,0,0,0,0,-1,1378,1317,0,0
161,-293,0,0,0,0,0,0,0,0,0,-1,1385,1317,0,0
168,-293,0,0,0,0,0,0,0,0,0,-1,1392,1317,0,0
175,-293,0,0,0,0,0,0,0,0,0,-1,1399,1317,0,0
182,-293,0,0,0,0,0,0,0,0,0,-1,1406,1317,0,0
189,-293,0,0,0,0,0,0,0,0,0,-1,1413,1317,0,0
196,-293,0,0,0,0,0,0,0,0,0,-1,1420,1317,0,0
203,-293,0,0,0,0,0,0,0,0,0,-1,1427,1317,0,0
210,-293,0,0,0,0,0,0,0,0,0,-1,1434,1317,0,0
217,-293,0,0,0,0,0,0,0,0,0,-1,1441,1317,0,0
224,-293,0,0,0,0,0,0,0,0,0,-1,1448,1317,0,0
231,-293,0,0,0,0,0,0,0,0,0,-1,1455,1317,0,0
238,-293,0,0,0,0,0,0,0,0,0,-1,1462,1317,0,0
245,-293,0,0,0,0,0,0,0,0,0,-1,1469,1317,0,0
252,-293,0,0,0,0,0,0,0,0,0,-1,1476,1317,0,0
259,-293,0,0,0,0,0,0,0,0,0,-1,1483,1317,0,0
266,-293,0,0,0,0,0,0,0,0,0,-1,1490,1317,0,0
273,-293,0,0,0,0,0,0,0,0,0,-1,1497,1317,0,0
280,-293,0,0,0,0,0,0,0,0,0,-1,1504,1317,0,0
287,-293,0,0,0,0,0,0,0,0,0,-1,1511,1317,0,0
294,-293,0,0,0,0,0,0,0,0,0,-1,1518,1317,0,0
301,-293,0,0,0,0,0,0,0,0,0,-1,1525,1317,0,0
308,-293,0,0,0,0,0,0,0,0,0,-1,1532,1317,0,0
315,-293,0,0,0,0,0,0,0,0,0,-1,1539,1317,0,0
322,-293,0,0,0,0,0,0,0,0,0,-1,1546,1317,0,0
329,-293,0,0,0,0,0,0,0,0,0,-1,1553,1317,0,0
336,-293,0,0,0,0,0,0,0,0,0,-1,1560,1317,0,0
343,-293,0,0,0,0,0,0,0,0,0,-1,1567,1317,0,0
350,-293,0,0,0,0,0,0,0,0,0,-1,1574,1317,0,0
357,-293,0,0,0,0,0,0,0,0,0,-1,1581,1317,0,0
364,-293,0,0,0,0,0,0,0,0,0,-1,1588,1317,0,0
371,-293,0,0,0,0,0,0,0,0,0,-1,1595,1317,0,0
378,-293,0,0,0,0,0,0,0,0,0,-1,1602,1317,0,0
385,-293,0,0,0,0,0,0,0,0,0,-1,1609,1317,0,0
392,-293,0,0,0,0,0,0,0,0,0,-1,1616,1317,0,0
399,-293,0,0,0,0,0,0,0,0,0,-1,1623,1317,0,0
406,-293,0,0,0,0,0,0,0,0,0,-1,1630,1317,0,0
413,-293,0,0,0,0,0,0,0,0,0,-1,1637,1317,0,0
420,-293,0,0,0,0,0,0,0,0,0,-1,1644,1317,0,0
427,-293,0,0,0,0,0,0,0,0,0,-1,1651,1317,0,0
434,-293,0,0,0,0,0,0,0,0,0,-1,1658,1317,0,0
441,-293,0,0,0,0,0,0,0,0,0,-1,1665,1317,0,0
448,-293,0,0,0,0,0,0,0,0,0,-1,1672,1317,0,0
455,-293,0,0,0,0,0,0,0,0,0,-1,1679,1317,0,0
462,-293,0,0,0,0,0,0,0,0,0,-1,1686,1317,0,0
469,-293,0,0,0,0,0,0,0,0,0,-1,1693,1317,0,0
476,-293,0,0,0,0,0,0,0,0,0,-1,1700,1317,0,0
483,-293,0,0,0,0,0,0,0,0,0,-1,1707,1317,0,0
490,-293,0,0,0,0,0,0,0,0,0,-1,1714,1317,0,0
497,-293,0,0,0,0,0,0,0,0,0,-1,1721,1317,0,0
504,-293,0,0,0,0,0,0,0,0,0,-1,1728,1317,0,0
511,-293,0,0,0,0,0,0,0,0,0,-1,1735,1317,0,0
518,-293,0,0,0,0,0,0,0,0,0,-1,1742,1317,0,0
525,-293,0,0,0,0,0,0,0,0,0,-1,1749,1317,0,0
532,-293,0,0,0,0,0,0,0,0,0,-1,1756,1317,0,0
539,-293,0,0,0,0,0,0,0,0,0,-1,1763,1317,0,0
546,-293,0,0,0,0,0,0,0,0,0,-1,1770,1317,0,0
553,-293,0,0,0,0,0,0,0,0,0,-1,1777,1317,0,0
560,-293,0,0,0,0,0,0,0,0,0,-1,1784,1317,0,0
567,-293,0,0,0,0,0,0,0,0,0,-1,1791,1317,0,0
574,-293,0,0,0,0,0,0,0,0,0,-1,1798,1317,0,0
581,-293,0,0,0,0,0,0,0,0,0,-1,1805,1317,0,0
588,-293,0,0,0,0,0,0,0,0,0,-1,1812,1317,0,0
595,-293,36.663,2.29944,0,0,0,0,0,0,0,-1,1819,1317,36.663,-2.29939
602,-293,36.5458,1.99426,0.0232769,0.0144317,-0.00674354,0.0269187,0.0107899,-0.495167,0.0156431,0.0497327,1826,1317,36.5457,-1.9943
609,-293,36.5299,1.85388,0.0504132,0.00899899,0.000778308,0.0504279,0.00898436,0.0187844,0.03106,0.0482622,1833,1317,36.5299,-1.85392
616,-293,37.567,2.41138,0.054185,0.00544499,0.00395084,0.0545031,0.00512682,0.0803605,0.0347528,0.047752,1840,1317,37.567,-2.41134
623,-293,38.3665,3.07056,0.0492365,0.00322087,0.00498328,0.04977,0.00268739,0.106648,0.0323215,0.0488759,1847,1317,38.3664,-3.0705
630,-293,38.6793,3.67725,0,0,0,0,0,0,0,-1,1854,1317,38.6793,-3.6773
637,-293,30.8379,3.60046,0,0,0,0,0,0,0,-1,1861,1317,30.8379,-3.60043
644,-293,24.4565,0.520752,0,0,0,0,0,0,0,-1,1868,1317,24.4566,-0.520709
651,-293,25.8926,9.51245,0,0,0,0,0,0,0,-1,1875,1317,25.8926,-9.51246
658,-293,25.4904,9.10205,0,0,0,0,0,0,0,-1,1882,1317,25.4904,-9.10209
665,-293,26.3273,8.97742,0,0,0,0,0,0,0,-1,1889,1317,26.3273,-8.97747
672,-293,26.156,8.75989,0.00897779,-0.00251277,0.000999544,0.00906409,-0.00259907,0.0861263,0.00707016,0.0276577,1896,1317,26.156,-8.75991
679,-293,26.1248,8.37231,0.00302828,-0.0015051,1.03369e-05,0.0030283,-0.00150513,0.00228015,0.00266617,0.0135733,1903,1317,26.1247,-8.37238
686,-293,26.1244,8.02087,0.00130636,-0.000942444,-0.000539153,0.00142894,-0.00106502,-0.223558,0.00144499,0.0160194,1910,1317,26.1244,-8.02083
693,-293,26.1039,7.66943,0.000751105,-0.000489443,-0.000256025,0.000801866,-0.000540205,-0.19573,0.000779738,0.0123334,1917,1317,26.1038,-7.6694
700,-293,26.0835,7.30798,0.000123095,-0.000110447,9.28505e-05,0.000155511,-0.000142862,0.335889,0.000172317,0.0106403,1924,1317,26.0834,-7.30804
707,-293,26.0863,6.99146,-0.000513702,0.000142876,0.000604453,0.000502436,-0.000873263,1.03417,0.000803821,0.0108119,1931,1317,26.0862,-6.99148
714,-293,26.0872,6.64636,-0.00116997,0.000554038,0.00112733,0.00111116,-0.00172709,1.1118,0.00165148,0.00815884,1938,1317,26.0872,-6.64637
721,-293,26.1056,6.28259,-0.00186579,0.00102143,0.00167225,0.00178699,-0.00263135,1.14147,0.00256641,0.0101847,1945,1317,26.1055,-6.28257
728,-293,26.1036,5.92188,-0.00265822,0.001694,0.00225315,0.00265033,-0.00361454,1.1694,0.00363128,0.0119426,1952,1317,26.1036,-5.92191
735,-293,26.1094,5.54382,-0.00331251,0.00271923,0.00269897,0.00375057,-0.00434385,1.2058,0.0046775,0.0219629,1959,1317,26.1093,-5.54385
742,-293,26.2257,5.14307,0,0,0,0,0,0,0,-1,1966,1317,26.2258,-5.14302
749,-293,26.356,5.00586,0,0,0,0,0,0,0,-1,1973,1317,26.3559,-5.00587
756,-293,24.978,3.9718,0,0,0,0,0,0,0,-1,1980,1317,24.978,-3.97186
763,-293,26.6713,4.74097,0,0,0,0,0,0,0,-1,1987,1317,26.6713,-4.74098
770,-293,24.1349,4.69153,0,0,0,0,0,0,0,-1,1994,1317,24.1348,-4.69159
777,-293,0,0,0,0,0,0,0,0,0,-1,2001,1317,0,0
784,-293,0,0,0,0,0,0,0,0,0,-1,2008,1317,0,0
791,-293,0,0,0,0,0,0,0,0,0,-1,2015,1317,0,0
798,-293,0,0,0,0,0,0,0,0,0,-1,2022,1317,0,0
805,-293,0,0,0,0,0,0,0,0,0,-1,2029,1317,0,0
812,-293,0,0,0,0,0,0,0,0,0,-1,2036,1317,0,0
-700,-300,0,0,0,0,0,0,0,0,0,-1,524,1324,0,0
-693,-300,0,0,0,0,0,0,0,0,0,-1,531,1324,0,0
-686,-300,0,0,0,0,0,0,0,0,0,-1,538,1324,0,0
-679,-300,0,0,0,0,0,0,0,0,0,-1,545,1324,0,0
-672,-300,0,0,0,0,0,0,0,0,0,-1,552,1324,0,0
-665,-300,0,0,0,0,0,0,0,0,0,-1,559,1324,0,0
-658,-300,0,0,0,0,0,0,0,0,0,-1,566,1324,0,0
-651,-300,-17.7904,-1.77905,0,0,0,0,0,0,0,-1,573,1324,-17.7904,1.779
-644,-300,-11.7995,-1.74756,0,0,0,0,0,0,0,-1,580,1324,-11.7995,1.74754
-637,-300,-11.6964,-1.78064,0,0,0,0,0,0,0,-1,587,1324,-11.6964,1.78059
-630,-300,-11.5876,-2.3512,0,0,0,0,0,0,0,-1,594,1324,-11.5876,2.35116
-623,-300,-12.7067,1.48462,0,0,0,0,0,0,0,-1,601,1324,-12.7067,-1.48462
-616,-300,-13.8024,1.48193,0,0,0,0,0,0,0,-1,608,1324,-13.8024,-1.48193
-609,-300,-14.0363,2.35522,0,0,0,0,0,0,0,-1,615,1324,-14.0363,-2.35527
-602,-300,-14.3481,2.90259,0,0,0,0,0,0,0,-1,622,1324,-14.3481,-2.90257
-595,-300,-14.4993,3.5238,0.00240523,0.00595247,0.00818593,0.0125547,-0.00419701,0.892083,0.0100649,0.0286073,629,1324,-14.4992,-3.52386
-588,-300,-14.4412,3.94507,0.00298715,0.004235,0.00338594,0.00705402,0.000168135,0.876511,0.00464765,0.0209192,636,1324,-14.4412,-3.94504
-581,-300,-14.4354,4.35535,0.0026608,0.00224797,0.00156324,0.00403119,0.000877572,0.719756,0.00244795,0.0205347,643,1324,-14.4354,-4.35529
-574,-300,-14.4485,4.74023,0.00246239,0.00147152,0.00125476,0.00331598,0.000617924,0.597373,0.00203618,0.0154235,650,1324,-14.4486,-4.74023
-567,-300,-14.4977,5.14185,0.0025609,0.000838874,0.00115927,0.00314393,0.000255847,0.465985,0.00201609,0.0156813,657,1324,-14.4978,-5.14179
-560,-300,-14.5007,5.55725,0.00309687,0.000450944,0.00123893,0.00358641,-3.85974e-05,0.376304,0.00240391,0.0144046,664,1324,-14.5007,-5.55726
-553,-300,-14.4789,5.94739,0.00400076,0.000215229,0.00147904,0.0045101,-0.000294114,0.331654,0.00310941,0.0100846,671,1324,-14.4789,-5.94738
-546,-300,-14.4833,6.31824,0.00520702,9.51864e-05,0.00185926,0.00581173,-0.000509523,0.314451,0.00405501,0.00890929,678,1324,-14.4833,-6.31824
-539,-300,-14.4725,6.71313,0.00691819,-5.98959e-05,0.00241697,0.00767357,-0.000815279,0.302915,0.005408,0.0190953,685,1324,-14.4725,-6.71309
-532,-300,-14.4549,7.08936,0,0,0,0,0,0,0,-1,692,1324,-14.4549,-7.08935
-525,-300,-13.5115,6.27783,0,0,0,0,0,0,0,-1,699,1324,-13.5115,-6.2778
-518,-300,-9.8349,-0.537109,0,0,0,0,0,0,0,-1,706,1324,-9.83487,0.537068
-511,-300,-12.8644,0.081665,0,0,0,0,0,0,0,-1,713,1324,-12.8644,-0.0817016
-504,-300,-13.4829,-0.165527,0,0,0,0,0,0,0,-1,720,1324,-13.4829,0.165544
-497,-300,-18.1063,0.956543,0,0,0,0,0,0,0,-1,727,1324,-18.1063,-0.9565
-490,-300,-18.2293,1.53625,0,0,0,0,0,0,0,-1,734,1324,-18.2293,-1.53626
-483,-300,-18.3522,1.61084,0,0,0,0,0,0,0,-1,741,1324,-18.3522,-1.6108
-476,-300,-18.7489,1.96387,0,0,0,0,0,0,0,-1,748,1324,-18.7489,-1.96387
-469,-300,0,0,0,0,0,0,0,0,0,-1,755,1324,0,0
-462,-300,0,0,0,0,0,0,0,0,0,-1,762,1324,0,0
-455,-300,0,0,0,0,0,0,0,0,0,-1,769,1324,0,0
-448,-300,0,0,0,0,0,0,0,0,0,-1,776,1324,0,0
-441,-300,0,0,0,0,0,0,0,0,0,-1,783,1324,0,0
-434,-300,0,0,0,0,0,0,0,0,0,-1,790,1324,0,0
-427,-300,0,0,0,0,0,0,0,0,0,-1,797,1324,0,0
-420,-300,0,0,0,0,0,0,0,0,0,-1,804,1324,0,0
-413,-300,0,0,0,0,0,0,0,0,0,-1,811,1324,0,0
-406,-300,0,0,0,0,0,0,0,0,0,-1,818,1324,0,0
-399,-300,0,0,0,0,0,0,0,0,0,-1,825,1324,0,0
-392,-300,0,0,0,0,0,0,0,0,0,-1,832,1324,0,0
-385,-300,0,0,0,0,0,0,0,0,0,-1,839,1324,0,0
-378,-300,0,0,0,0,0,0,0,0,0,-1,846,1324,0,0
-371,-300,0,0,0,0,0,0,0,0,0,-1,853,1324,0,0
-364,-300,0,0,0,0,0,0,0,0,0,-1,860,1324,0,0
-357,-300,0,0,0,0,0,0,0,0,0,-1,867,1324,0,0
-350,-300,0,0,0,0,0,0,0,0,0,-1,874,1324,0,0
-343,-300,0,0,0,0,0,0,0,0,0,-1,881,1324,0,0
-336,-300,0,0,0,0,0,0,0,0,0,-1,888,1324,0,0
-329,-300,0,0,0,0,0,0,0,0,0,-1,895,1324,0,0
-322,-300,0,0,0,0,0,0,0,0,0,-1,902,1324,0,0
-315,-300,0,0,0,0,0,0,0,0,0,-1,909,1324,0,0
-308,-300,0,0,0,0,0,0,0,0,0,-1,916,1324,0,0
-301,-300,0,0,0,0,0,0,0,0,0,-1,923,1324,0,0
-294,-300,0,0,0,0,0,0,0,0,0,-1,930,1324,0,0
-287,-300,0,0,0,0,0,0,0,0,0,-1,937,1324,0,0
-280,-300,0,0,0,0,0,0,0,0,0,-1,944,1324,0,0
-273,-300,0,0,0,0,0,0,0,0,0,-1,951,1324,0,0
-266,-300,0,0,0,0,0,0,0,0,0,-1,958,1324,0,0
-259,-300,0,0,0,0,0,0,0,0,0,-1,965,1324,0,0
-252,-300,0,0,0,0,0,0,0,0,0,-1,972,1324,0,0
-245,-300,0,0,0,0,0,0,0,0,0,-1,979,1324,0,0
-238,-300,0,0,0,0,0,0,0,0,0,-1,986,1324,0,0
-231,-300,0,0,0,0,0,0,0,0,0,-1,993,1324,0,0
-224,-300,0,0,0,0,0,0,0,0,0,-1,1000,1324,0,0
-217,-300,0,0,0,0,0,0,0,0,0,-1,1007,1324,0,0
-210,-300,0,0,0,0,0,0,0,0,0,-1,1014,1324,0,0
-203,-300,0,0,0,0,0,0,0,0,0,-1,1021,1324,0,0
-196,-300,0,0,0,0,0,0,0,0,0,-1,1028,1324,0,0
-189,-300,0,0,0,0,0,0,0,0,0,-1,1035,1324,0,0
-182,-300,0,0,0,0,0,0,0,0,0,-1,1042,1324,0,0
-175,-300,0,0,0,0,0,0,0,0,0,-1,1049,1324,0,0
-168,-300,0,0,0,0,0,0,0,0,0,-1,1056,1324,0,0
-161,-300,0,0,0,0,0,0,0,0,0,-1,1063,1324,0,0
-154,-300,0,0,0,0,0,0,0,0,0,-1,1070,1324,0,0
-147,-300,0,0,0,0,0,0,0,0,0,-1,1077,1324,0,0
-140,-300,0,0,0,0,0,0,0,0,0,-1,1084,1324,0,0
-133,-300,0,0,0,0,0,0,0,0,0,-1,1091,1324,0,0
-126,-300,0,0,0,0,0,0,0,0,0,-1,1098,1324,0,0
-119,-300,0,0,0,0,0,0,0,0,0,-1,1105,1324,0,0
-112,-300,0,0,0,0,0,0,0,0,0,-1,1112,1324,0,0
-105,-300,0,0,0,0,0,0,0,0,0,-1,1119,1324,0,0
-98,-300,0,0,0,0,0,0,0,0,0,-1,1126,1324,0,0
-91,-300,0,0,0,0,0,0,0,0,0,-1,1133,1324,0,0
-84,-300,0,0,0,0,0,0,0,0,0,-1,1140,1324,0,0
-77,-300,0,0,0,0,0,0,0,0,0,-1,1147,1324,0,0
-70,-300,0,0,0,0,0,0,0,0,0,-1,1154,1324,0,0
-63,-300,0,0,0,0,0,0,0,0,0,-1,1161,1324,0,0
-56,-300,0,0,0,0,0,0,0,0,0,-1,1168,1324,0,0
-49,-300,0,0,0,0,0,0,0,0,0,-1,1175,1324,0,0
-42,-300,0,0,0,0,0,0,0,0,0,-1,1182,1324,0,0
-35,-300,0,0,0,0,0,0,0,0,0,-1,1189,1324,0,0
-28,-300,0,0,0,0,0,0,0,0,0,-1,1196,1324,0,0
-21,-300,0,0,0,0,0,0,0,0,0,-1,1203,1324,0,0
-14,-300,0,0,0,0,0,0,0,0,0,-1,1210,1324,0,0
-7,-300,0,0,0,0,0,0,0,0,0,-1,1217,1324,0,0
0,-300,0,0,0,0,0,0,0,0,0,-1,1224,1324,0,0
7,-300,0,0,0,0,0,0,0,0,0,-1,1231,1324,0,0
14,-300,0,0,0,0,0,0,0,0,0,-1,1238,1324,0,0
21,-300,0,0,0,0,0,0,0,0,0,-1,1245,1324,0,0
28,-300,0,0,0,0,0,0,0,0,0,-1,1252,1324,0,0
35,-300,0,0,0,0,0,0,0,0,0,-1,1259,1324,0,0
42,-300,0,0,0,0,0,0,0,0,0,-1,1266,1324,0,0
49,-300,0,0,0,0,0,0,0,0,0,-1,1273,1324,0,0
56,-300,0,0,0,0,0,0,0,0,0,-1,1280,1324,0,0
63,-300,0,0,0,0,0,0,0,0,0,-1,1287,1324,0,0
70,-300,0,0,0,0,0,0,0,0,0,-1,1294,1324,0,0
77,-300,0,0,0,0,0,0,0,0,0,-1,1301,1324,0,0
84,-300,0,0,0,0,0,0,0,0,0,-1,1308,1324,0,0
91,-300,0,0,0,0,0,0,0,0,0,-1,1315,1324,0,0
98,-300,0,0,0,0,0,0,0,0,0,-1,1322,1324,0,0
105,-300,0,0,0,0,0,0,0,0,0,-1,1329,1324,0,0
112,-300,0,0,0,0,0,0,0,0,0,-1,1336,1324,0,0
119,-300,0,0,0,0,0,0,0,0,0,-1,1343,1324,0,0
126,-300,0,0,0,0,0,0,0,0,0,-1,1350,1324,0,0
133,-300,0,0,0,0,0,0,0,0,0,-1,1357,1324,0,0
140,-300,0,0,0,0,0,0,0,0,0,-1,1364,1324,0,0
147,-300,0,0,0,0,0,0,0,0,0,-1,1371,1324,0,0
154,-300,0,0,0,0,0,0,0,0,0,-1,1378,1324,0,0
161,-300,0,0,0,0,0,0,0,0,0,-1,1385,1324,0,0
168,-300,0,0,0,0,0,0,0,0,0,-1,1392,1324,0,0
175,-300,0,0,0,0,0,0,0,0,0,-1,1399,1324,0,0
182,-300,0,0,0,0,0,0,0,0,0,-1,1406,1324,0,0
189,-300,0,0,0,0,0,0,0,0,0,-1,1413,1324,0,0
196,-300,0,0,0,0,0,0,0,0,0,-1,1420,1324,0,0
203,-300,0,0,0,0,0,0,0,0,0,-1,1427,1324,0,0
210,-300,0,0,0,0,0,0,0,0,0,-1,1434,1324,0,0
217,-300,0,0,0,0,0,0,0,0,0,-1,1441,1324,0,0
224,-300,0,0,0,0,0,0,0,0,0,-1,1448,1324,0,0
231,-300,0,0,0,0,0,0,0,0,0,-1,1455,1324,0,0
238,-300,0,0,0,0,0,0,0,0,0,-1,1462,1324,0,0
245,-300,0,0,0,0,0,0,0,0,0,-1,1469,1324,0,0
252,-300,0,0,0,0,0,0,0,0,0,-1,1476,1324,0,0
259,-300,0,0,0,0,0,0,0,0,0,-1,1483,1324,0,0
266,-300,0,0,0,0,0,0,0,0,0,-1,1490,1324,0,0
273,-300,0,0,0,0,0,0,0,0,0,-1,1497,1324,0,0
280,-300,0,0,0,0,0,0,0,0,0,-1,1504,1324,0,0
287,-300,0,0,0,0,0,0,0,0,0,-1,1511,1324,0,0
294,-300,0,0,0,0,0,0,0,0,0,-1,1518,1324,0,0
301,-300,0,0,0,0,0,0,0,0,0,-1,1525,1324,0,0
308,-300,0,0,0,0,0,0,0,0,0,-1,1532,1324,0,0
315,-300,0,0,0,0,0,0,0,0,0,-1,1539,1324,0,0
322,-300,0,0,0,0,0,0,0,0,0,-1,1546,1324,0,0
329,-300,0,0,0,0,0,0,0,0,0,-1,1553,1324,0,0
336,-300,0,0,0,0,0,0,0,0,0,-1,1560,1324,0,0
343,-300,0,0,0,0,0,0,0,0,0,-1,1567,1324,0,0
350,-300,0,0,0,0,0,0,0,0,0,-1,1574,1324,0,0
357,-300,0,0,0,0,0,0,0,0,0,-1,1581,1324,0,0
364,-300,0,0,0,0,0,0,0,0,0,-1,1588,1324,0,0
371,-300,0,0,0,0,0,0,0,0,0,-1,1595,1324,0,0
378,-300,0,0,0,0,0,0,0,0,0,-1,1602,1324,0,0
385,-300,0,0,0,0,0,0,0,0,0,-1,1609,1324,0,0
392,-300,0,0,0,0,0,0,0,0,0,-1,1616,1324,0,0
399,-300,0,0,0,0,0,0,0,0,0,-1,1623,1324,0,0
406,-300,0,0,0,0,0,0,0,0,0,-1,1630,1324,0,0
413,-300,0,0,0,0,0,0,0,0,0,-1,1637,1324,0,0
420,-300,0,0,0,0,0,0,0,0,0,-1,1644,1324,0,0
427,-300,0,0,0,0,0,0,0,0,0,-1,1651,1324,0,0
434,-300,0,0,0,0,0,0,0,0,0,-1,1658,1324,0,0
441,-300,0,0,0,0,0,0,0,0,0,-1,1665,1324,0,0
448,-300,0,0,0,0,0,0,0,0,0,-1,1672,1324,0,0
455,-300,0,0,0,0,0,0,0,0,0,-1,1679,1324,0,0
462,-300,0,0,0,0,0,0,0,0,0,-1,1686,1324,0,0
469,-300,0,0,0,0,0,0,0,0,0,-1,1693,1324,0,0
476,-300,0,0,0,0,0,0,0,0,0,-1,1700,1324,0,0
483,-300,0,0,0,0,0,0,0,0,0,-1,1707,1324,0,0
490,-300,0,0,0,0,0,0,0,0,0,-1,1714,1324,0,0
497,-300,0,0,0,0,0,0,0,0,0,-1,1721,1324,0,0
504,-300,0,0,0,0,0,0,0,0,0,-1,1728,1324,0,0
511,-300,0,0,0,0,0,0,0,0,0,-1,1735,1324,0,0
518,-300,0,0,0,0,0,0,0,0,0,-1,1742,1324,0,0
525,-300,0,0,0,0,0,0,0,0,0,-1,1749,1324,0,0
532,-300,0,0,0,0,0,0,0,0,0,-1,1756,1324,0,0
539,-300,0,0,0,0,0,0,0,0,0,-1,1763,1324,0,0
546,-300,0,0,0,0,0,0,0,0,0,-1,1770,1324,0,0
553,-300,0,0,0,0,0,0,0,0,0,-1,1777,1324,0,0
560,-300,0,0,0,0,0,0,0,0,0,-1,1784,1324,0,0
567,-300,0,0,0,0,0,0,0,0,0,-1,1791,1324,0,0
574,-300,0,0,0,0,0,0,0,0,0,-1,1798,1324,0,0
581,-300,0,0,0,0,0,0,0,0,0,-1,1805,1324,0,0
588,-300,36.5757,2.53455,0,0,0,0,0,0,0,-1,1812,1324,36.5757,-2.53455
595,-300,36.42,1.88623,-0.00750786,0.0245106,-0.0244173,0.037699,-0.0206962,-1.07557,0.0341876,0.0442518,1819,1324,36.42,-1.88618
602,-300,36.1389,1.52087,0.0352236,0.0167028,-0.0107688,0.0401661,0.0117603,-0.430283,0.0238444,0.0455291,1826,1324,36.139,-1.52083
609,-300,36.8794,1.96899,0.0530812,0.0112302,-0.00280462,0.0532684,0.0110431,-0.0666173,0.0324634,0.0465129,1833,1324,36.8794,-1.96903
616,-300,37.6439,2.43262,0.0528546,0.00771665,0.000881595,0.0528718,0.00769944,0.0195212,0.0329823,0.0476802,1840,1324,37.6439,-2.43257
623,-300,38.7365,3.16052,0,0,0,0,0,0,0,-1,1847,1324,38.7364,-3.16056
630,-300,34.4613,4.74854,0,0,0,0,0,0,0,-1,1854,1324,34.4614,-4.74855
637,-300,31.1719,4.6366,0,0,0,0,0,0,0,-1,1861,1324,31.1718,-4.63665
644,-300,22.9836,3.44934,0,0,0,0,0,0,0,-1,1868,1324,22.9836,-3.4493
651,-300,25.5004,9.11853,0,0,0,0,0,0,0,-1,1875,1324,25.5004,-9.11851
658,-300,25.4012,9.20032,0,0,0,0,0,0,0,-1,1882,1324,25.4012,-9.20036
665,-300,25.796,9.16504,0,0,0,0,0,0,0,-1,1889,1324,25.796,-9.165
672,-300,25.7528,8.79553,0.00800786,-0.00202643,0.00113949,0.00813563,-0.0021542,0.111665,0.00626649,0.0165129,1896,1324,25.7529,-8.79552
679,-300,25.7831,8.39453,0.0023156,-0.00108925,0.000207827,0.00232824,-0.00110189,0.0607379,0.00202214,0.0128327,1903,1324,25.783,-8.39454
686,-300,25.7897,8.05933,0.000826085,-0.000646551,-0.000257048,0.000869663,-0.000690129,-0.167936,0.000902532,0.0135474,1910,1324,25.7896,-8.05935
693,-300,25.7469,7.69604,0.00038555,-0.00031887,-3.8703e-05,0.000387671,-0.00032099,-0.0547234,0.000409749,0.011228,1917,1324,25.7469,-7.69611
700,-300,25.7198,7.31665,-0.000120123,8.04324e-07,0.000288574,0.000235181,-0.0003545,0.888667,0.000342768,0.0122506,1924,1324,25.7199,-7.31666
707,-300,25.7288,6.96423,-0.000707617,0.000239958,0.000758629,0.000660593,-0.00112825,1.06453,0.00104449,0.00854102,1931,1324,25.7287,-6.96423
714,-300,25.7426,6.63855,-0.00144813,0.000617535,0.00128607,0.00123417,-0.00206476,1.12371,0.00192466,0.0102582,1938,1324,25.7425,-6.63858
721,-300,25.755,6.2771,-0.00243227,0.00107337,0.00193528,0.00193161,-0.00329052,1.15338,0.00304883,0.012019,1945,1324,25.7551,-6.27708
728,-300,25.7769,5.88806,-0.00360509,0.00174376,0.00265943,0.00284095,-0.00470228,1.1795,0.00439906,0.0137408,1952,1324,25.7769,-5.88803
735,-300,25.6198,5.74817,-0.00489016,0.00281898,0.00331396,0.00404772,-0.0061189,1.21573,0.00591017,0.0263917,1959,1324,25.6197,-5.74818
742,-300,25.5825,5.48645,0,0,0,0,0,0,0,-1,1966,1324,25.5825,-5.48647
749,-300,25.5773,5.43201,0,0,0,0,0,0,0,-1,1973,1324,25.5773,-5.43203
756,-300,22.1423,3.45642,0,0,0,0,0,0,0,-1,1980,1324,22.1423,-3.45638
763,-300,22.6136,5.1571,0,0,0,0,0,0,0,-1,1987,1324,22.6136,-5.15706
770,-300,24.859,4.77979,0,0,0,0,0,0,0,-1,1994,1324,24.859,-4.77972
777,-300,0,0,0,0,0,0,0,0,0,-1,2001,1324,0,0
784,-300,0,0,0,0,0,0,0,0,0,-1,2008,1324,0,0
791,-300,0,0,0,0,0,0,0,0,0,-1,2015,1324,0,0
798,-300,0,0,0,0,0,0,0,0,0,-1,2022,1324,0,0
805,-300,0,0,0,0,0,0,0,0,0,-1,2029,1324,0,0
812,-300,0,0,0,0,0,0,0,0,0,-1,2036,1324,0,0
-700,-307,0,0,0,0,0,0,0,0,0,-1,524,1331,0,0
-693,-307,0,0,0,0,0,0,0,0,0,-1,531,1331,0,0
-686,-307,0,0,0,0,0,0,0,0,0,-1,538,1331,0,0
-679,-307,0,0,0,0,0,0,0,0,0,-1,545,1331,0,0
-672,-307,0,0,0,0,0,0,0,0,0,-1,552,1331,0,0
-665,-307,0,0,0,0,0,0,0,0,0,-1,559,1331,0,0
-658,-307,0,0,0,0,0,0,0,0,0,-1,566,1331,0,0
-651,-307,-12.0636,-4.25879,0,0,0,0,0,0,0,-1,573,1331,-12.0636,4.25881
-644,-307,-10.8427,-1.97888,0,0,0,0,0,0,0,-1,580,1331,-10.8427,1.97888
-637,-307,-11.3618,-2.50574,0,0,0,0,0,0,0,-1,587,1331,-11.3618,2.50571
-630,-307,-12.0005,0.767212,0,0,0,0,0,0,0,-1,594,1331,-12.0005,-0.767266
-623,-307,-12.2128,2.93811,0,0,0,0,0,0,0,-1,601,1331,-12.2128,-2.93813
-616,-307,-12.6612,2.08289,0,0,0,0,0,0,0,-1,608,1331,-12.6612,-2.08293
-609,-307,-12.2767,1.83228,0,0,0,0,0,0,0,-1,615,1331,-12.2768,-1.83224
-602,-307,-14.0502,3.01709,0,0,0,0,0,0,0,-1,622,1331,-14.0502,-3.0171
-595,-307,-14.1269,3.53552,0.00245281,0.00595232,0.00851469,0.0128952,-0.00449005,0.886737,0.010421,0.0347229,629,1331,-14.1269,-3.53546
-588,-307,-14.0546,3.99133,0.00297925,0.00424411,0.00350815,0.00717638,4.69789e-05,0.874577,0.00476867,0.0202053,636,1331,-14.0546,-3.99138
-581,-307,-14.0535,4.38086,0.00253722,0.00229958,0.00157748,0.00400035,0.000836445,0.747808,0.00243643,0.0169863,643,1331,-14.0535,-4.38088
-574,-307,-14.0721,4.74927,0.00236288,0.00156266,0.00127558,0.00329963,0.000625909,0.633425,0.00202365,0.0139129,650,1331,-14.0721,-4.74923
-567,-307,-14.0867,5.15149,0.00248849,0.000966852,0.00114436,0.00310186,0.000353481,0.492028,0.00196073,0.0132501,657,1331,-14.0867,-5.15153
-560,-307,-14.0802,5.55847,0.00301829,0.000579183,0.00119698,0.00350756,8.99141e-05,0.388029,0.00230899,0.0131236,664,1331,-14.0802,-5.55851
-553,-307,-14.0776,5.95117,0.00388034,0.000321408,0.00140047,0.00436534,-0.000163594,0.333387,0.00296626,0.0103238,671,1331,-14.0775,-5.95112
-546,-307,-14.0876,6.32642,0.00508534,0.000149788,0.00176216,0.00564991,-0.000414782,0.310052,0.0039122,0.0103285,678,1331,-14.0876,-6.32642
-539,-307,-14.0804,6.73242,0.00675571,-2.12707e-05,0.00229741,0.00746112,-0.000726673,0.297905,0.00523315,0.0144336,685,1331,-14.0805,-6.73238
-532,-307,-14.0771,7.14514,0,0,0,0,0,0,0,-1,692,1331,-14.0771,-7.14517
-525,-307,-13.2009,6.91309,0,0,0,0,0,0,0,-1,699,1331,-13.2009,-6.9131
-518,-307,-9.77777,-1.56653,0,0,0,0,0,0,0,-1,706,1331,-9.77777,1.56651
-511,-307,-12.5226,0.26709,0,0,0,0,0,0,0,-1,713,1331,-12.5226,-0.267038
-504,-307,-12.5913,-0.308105,0,0,0,0,0,0,0,-1,720,1331,-12.5913,0.308124
-497,-307,-13.8586,-0.115845,0,0,0,0,0,0,0,-1,727,1331,-13.8587,0.115861
-490,-307,-17.9429,0.982178,0,0,0,0,0,0,0,-1,734,1331,-17.9429,-0.982198
-483,-307,-18.1066,0.927612,0,0,0,0,0,0,0,-1,741,1331,-18.1066,-0.927609
-476,-307,-18.1288,1.1228,0,0,0,0,0,0,0,-1,748,1331,-18.1289,-1.12286
-469,-307,-18.2028,0.798584,0,0,0,0,0,0,0,-1,755,1331,-18.2027,-0.798546
-462,-307,0,0,0,0,0,0,0,0,0,-1,762,1331,0,0
-455,-307,0,0,0,0,0,0,0,0,0,-1,769,1331,0,0
-448,-307,0,0,0,0,0,0,0,0,0,-1,776,1331,0,0
-441,-307,0,0,0,0,0,0,0,0,0,-1,783,1331,0,0
-434,-307,0,0,0,0,0,0,0,0,0,-1,790,1331,0,0
-427,-307,0,0,0,0,0,0,0,0,0,-1,797,1331,0,0
-420,-307,0,0,0,0,0,0,0,0,0,-1,804,1331,0,0
-413,-307,0,0,0,0,0,0,0,0,0,-1,811,1331,0,0
-406,-307,0,0,0,0,0,0,0,0,0,-1,818,1331,0,0
-399,-307,0,0,0,0,0,0,0,0,0,-1,825,1331,0,0
-392,-307,0,0,0,0,0,0,0,0,0,-1,832,1331,0,0
-385,-307,0,0,0,0,0,0,0,0,0,-1,839,1331,0,0
-378,-307,0,0,0,0,0,0,0,0,0,-1,846,1331,0,0
-371,-307,0,0,0,0,0,0,0,0,0,-1,853,1331,0,0
-364,-307,0,0,0,0,0,0,0,0,0,-1,860,1331,0,0
-357,-307,0,0,0,0,0,0,0,0,0,-1,867,1331,0,0
-350,-307,0,0,0,0,0,0,0,0,0,-1,874,1331,0,0
-343,-307,0,0,0,0,0,0,0,0,0,-1,881,1331,0,0
-336,-307,0,0,0,0,0,0,0,0,0,-1,888,1331,0,0
-329,-307,0,0,0,0,0,0,0,0,0,-1,895,1331,0,0
-322,-307,0,0,0,0,0,0,0,0,0,-1,902,1331,0,0
-315,-307,0,0,0,0,0,0,0,0,0,-1,909,1331,0,0
-308,-307,0,0,0,0,0,0,0,0,0,-1,916,1331,0,0
-301,-307,0,0,0,0,0,0,0,0,0,-1,923,1331,0,0
-294,-307,0,0,0,0,0,0,0,0,0,-1,930,1331,0,0
-287,-307,0,0,0,0,0,0,0,0,0,-1,937,1331,0,0
-280,-307,0,0,0,0,0,0,0,0,0,-1,944,1331,0,0
-273,-307,0,0,0,0,0,0,0,0,0,-1,951,1331,0,0
-266,-307,0,0,0,0,0,0,0,0,0,-1,958,1331,0,0
-259,-307,0,0,0,0,0,0,0,0,0,-1,965,1331,0,0
-252,-307,0,0,0,0,0,0,0,0,0,-1,972,1331,0,0
-245,-307,0,0,0,0,0,0,0,0,0,-1,979,1331,0,0
-238,-307,0,0,0,0,0,0,0,0,0,-1,986,1331,0,0
-231,-307,0,0,0,0,0,0,0,0,0,-1,993,1331,0,0
-224,-307,0,0,0,0,0,0,0,0,0,-1,1000,1331,0,0
-217,-307,0,0,0,0,0,0,0,0,0,-1,1007,1331,0,0
-210,-307,0,0,0,0,0,0,0,0,0,-1,1014,1331,0,0
-203,-307,0,0,0,0,0,0,0,0,0,-1,1021,1331,0,0
-196,-307,0,0,0,0,0,0,0,0,0,-1,1028,1331,0,0
-189,-307,0,0,0,0,0,0,0,0,0,-1,1035,1331,0,0
-182,-307,0,0,0,0,0,0,0,0,0,-1,1042,1331,0,0
-175,-307,0,0,0,0,0,0,0,0,0,-1,1049,1331,0,0
-168,-307,0,0,0,0,0,0,0,0,0,-1,1056,1331,0,0
-161,-307,0,0,0,0,0,0,0,0,0,-1,1063,1331,0,0
-154,-307,0,0,0,0,0,0,0,0,0,-1,1070,1331,0,0
-147,-307,0,0,0,0,0,0,0,0,0,-1,1077,1331,0,0
-140,-307,0,0,0,0,0,0,0,0,0,-1,1084,1331,0,0
-133,-307,0,0,0,0,0,0,0,0,0,-1,1091,1331,0,0
-126,-307,0,0,0,0,0,0,0,0,0,-1,1098,1331,0,0
-119,-307,0,0,0,0,0,0,0,0,0,-1,1105,1331,0,0
-112,-307,0,0,0,0,0,0,0,0,0,-1,1112,1331,0,0
-105,-307,0,0,0,0,0,0,0,0,0,-1,1119,1331,0,0
-98,-307,0,0,0,0,0,0,0,0,0,-1,1126,1331,0,0
-91,-307,0,0,0,0,0,0,0,0,0,-1,1133,1331,0,0
-84,-307,0,0,0,0,0,0,0,0,0,-1,1140,1331,0,0
-77,-307,0,0,0,0,0,0,0,0,0,-1,1147,1331,0,0
-70,-307,0,0,0,0,0,0,0,0,0,-1,1154,1331,0,0
-63,-307,0,0,0,0,0,0,0,0,0,-1,1161,1331,0,0
-56,-307,0,0,0,0,0,0,0,0,0,-1,1168,1331,0,0
-49,-307,0,0,0,0,0,0,0,0,0,-1,1175,1331,0,0
-42,-307,0,0,0,0,0,0,0,0,0,-1,1182,1331,0,0
-35,-307,0,0,0,0,0,0,0,0,0,-1,1189,1331,0,0
-28,-307,0,0,0,0,0,0,0,0,0,-1,1196,1331,0,0
-21,-307,0,0,0,0,0,0,0,0,0,-1,1203,1331,0,0
-14,-307,0,0,0,0,0,0,0,0,0,-1,1210,1331,0,0
-7,-307,0,0,0,0,0,0,0,0,0,-1,1217,1331,0,0
0,-307,0,0,0,0,0,0,0,0,0,-1,1224,1331,0,0
7,-307,0,0,0,0,0,0,0,0,0,-1,1231,1331,0,0
14,-307,0,0,0,0,0,0,0,0,0,-1,1238,1331,0,0
21,-307,0,0,0,0,0,0,0,0,0,-1,1245,1331,0,0
28,-307,0,0,0,0,0,0,0,0,0,-1,1252,1331,0,0
35,-307,0,0,0,0,0,0,0,0,0,-1,1259,1331,0,0
42,-307,0,0,0,0,0,0,0,0,0,-1,1266,1331,0,0
49,-307,0,0,0,0,0,0,0,0,0,-1,1273,1331,0,0
56,-307,0,0,0,0,0,0,0,0,0,-1,1280,1331,0,0
63,-307,0,0,0,0,0,0,0,0,0,-1,1287,1331,0,0
70,-307,0,0,0,0,0,0,0,0,0,-1,1294,1331,0,0
77,-307,0,0,0,0,0,0,0,0,0,-1,1301,1331,0,0
84,-307,0,0,0,0,0,0,0,0,0,-1,1308,1331,0,0
91,-307,0,0,0,0,0,0,0,0,0,-1,1315,1331,0,0
98,-307,0,0,0,0,0,0,0,0,0,-1,1322,1331,0,0
105,-307,0,0,0,0,0,0,0,0,0,-1,1329,1331,0,0
112,-307,0,0,0,0,0,0,0,0,0,-1,1336,1331,0,0
119,-307,0,0,0,0,0,0,0,0,0,-1,1343,1331,0,0
126,-307,0,0,0,0,0,0,0,0,0,-1,1350,1331,0,0
133,-307,0,0,0,0,0,0,0,0,0,-1,1357,1331,0,0
140,-307,0,0,0,0,0,0,0,0,0,-1,1364,1331,0,0
147,-307,0,0,0,0,0,0,0,0,0,-1,1371,1331,0,0
154,-307,0,0,0,0,0,0,0,0,0,-1,1378,1331,0,0
161,-307,0,0,0,0,0,0,0,0,0,-1,1385,1331,0,0
168,-307,0,0,0,0,0,0,0,0,0,-1,1392,1331,0,0
175,-307,0,0,0,0,0,0,0,0,0,-1,1399,1331,0,0
182,-307,0,0,0,0,0,0,0,0,0,-1,1406,1331,0,0
189,-307,0,0,0,0,0,0,0,0,0,-1,1413,1331,0,0
196,-307,0,0,0,0,0,0,0,0,0,-1,1420,1331,0,0
203,-307,0,0,0,0,0,0,0,0,0,-1,1427,1331,0,0
210,-307,0,0,0,0,0,0,0,0,0,-1,1434,1331,0,0
217,-307,0,0,0,0,0,0,0,0,0,-1,1441,1331,0,0
224,-307,0,0,0,0,0,0,0,0,0,-1,1448,1331,0,0
231,-307,0,0,0,0,0,0,0,0,0,-1,1455,1331,0,0
238,-307,0,0,0,0,0,0,0,0,0,-1,1462,1331,0,0
245,-307,0,0,0,0,0,0,0,0,0,-1,1469,1331,0,0
252,-307,0,0,0,0,0,0,0,0,0,-1,1476,1331,0,0
259,-307,0,0,0,0,0,0,0,0,0,-1,1483,1331,0,0
266,-307,0,0,0,0,0,0,0,0,0,-1,1490,1331,0,0
273,-307,0,0,0,0,0,0,0,0,0,-1,1497,1331,0,0
280,-307,0,0,0,0,0,0,0,0,0,-1,1504,1331,0,0
287,-307,0,0,0,0,0,0,0,0,0,-1,1511,1331,0,0
294,-307,0,0,0,0,0,0,0,0,0,-1,1518,1331,0,0
301,-307,0,0,0,0,0,0,0,0,0,-1,1525,1331,0,0
308,-307,0,0,0,0,0,0,0,0,0,-1,1532,1331,0,0
315,-307,0,0,0,0,0,0,0,0,0,-1,1539,1331,0,0
322,-307,0,0,0,0,0,0,0,0,0,-1,1546,1331,0,0
329,-307,0,0,0,0,0,0,0,0,0,-1,1553,1331,0,0
336,-307,0,0,0,0,0,0,0,0,0,-1,1560,1331,0,0
343,-307,0,0,0,0,0,0,0,0,0,-1,1567,1331,0,0
350,-307,0,0,0,0,0,0,0,0,0,-1,1574,1331,0,0
357,-307,0,0,0,0,0,0,0,0,0,-1,1581,1331,0,0
364,-307,0,0,0,0,0,0,0,0,0,-1,1588,1331,0,0
371,-307,0,0,0,0,0,0,0,0,0,-1,1595,1331,0,0
378,-307,0,0,0,0,0,0,0,0,0,-1,1602,1331,0,0
385,-307,0,0,0,0,0,0,0,0,0,-1,1609,1331,0,0
392,-307,0,0,0,0,0,0,0,0,0,-1,1616,1331,0,0
399,-307,0,0,0,0,0,0,0,0,0,-1,1623,1331,0,0
406,-307,0,0,0,0,0,0,0,0,0,-1,1630,1331,0,0
413,-307,0,0,0,0,0,0,0,0,0,-1,1637,1331,0,0
420,-307,0,0,0,0,0,0,0,0,0,-1,1644,1331,0,0
427,-307,0,0,0,0,0,0,0,0,0,-1,1651,1331,0,0
434,-307,0,0,0,0,0,0,0,0,0,-1,1658,1331,0,0
441,-307,0,0,0,0,0,0,0,0,0,-1,1665,1331,0,0
448,-307,0,0,0,0,0,0,0,0,0,-1,1672,1331,0,0
455,-307,0,0,0,0,0,0,0,0,0,-1,1679,1331,0,0
462,-307,0,0,0,0,0,0,0,0,0,-1,1686,1331,0,0
469,-307,0,0,0,0,0,0,0,0,0,-1,1693,1331,0,0
476,-307,0,0,0,0,0,0,0,0,0,-1,1700,1331,0,0
483,-307,0,0,0,0,0,0,0,0,0,-1,1707,1331,0,0
490,-307,0,0,0,0,0,0,0,0,0,-1,1714,1331,0,0
497,-307,0,0,0,0,0,0,0,0,0,-1,1721,1331,0,0
504,-307,0,0,0,0,0,0,0,0,0,-1,1728,1331,0,0
511,-307,0,0,0,0,0,0,0,0,0,-1,1735,1331,0,0
518,-307,0,0,0,0,0,0,0,0,0,-1,1742,1331,0,0
525,-307,0,0,0,0,0,0,0,0,0,-1,1749,1331,0,0
532,-307,0,0,0,0,0,0,0,0,0,-1,1756,1331,0,0
539,-307,0,0,0,0,0,0,0,0,0,-1,1763,1331,0,0
546,-307,0,0,0,0,0,0,0,0,0,-1,1770,1331,0,0
553,-307,0,0,0,0,0,0,0,0,0,-1,1777,1331,0,0
560,-307,0,0,0,0,0,0,0,0,0,-1,1784,1331,0,0
567,-307,0,0,0,0,0,0,0,0,0,-1,1791,1331,0,0
574,-307,0,0,0,0,0,0,0,0,0,-1,1798,1331,0,0
581,-307,0,0,0,0,0,0,0,0,0,-1,1805,1331,0,0
588,-307,35.7261,3.01331,0,0,0,0,0,0,0,-1,1812,1331,35.7261,-3.01335
595,-307,35.7372,2.02258,0.0103626,0.0274992,-0.0275125,0.0477468,-0.00988493,-0.936355,0.0355868,0.043888,1819,1331,35.7372,-2.02254
602,-307,35.5815,1.32471,0.0437092,0.0192675,-0.0143407,0.0503299,0.0126468,-0.43252,0.0302327,0.04422,1826,1331,35.5816,-1.32472
609,-307,36.9973,1.92383,0.0511437,0.0140372,-0.00711292,0.0524604,0.0127204,-0.183048,0.0315988,0.0454876,1833,1331,36.9973,-1.92379
616,-307,37.8022,2.19275,0,0,0,0,0,0,0,-1,1840,1331,37.8022,-2.19277
623,-307,31.056,1.59509,0,0,0,0,0,0,0,-1,1847,1331,31.0561,-1.59509
630,-307,29.8116,1.51184,0,0,0,0,0,0,0,-1,1854,1331,29.8116,-1.51188
637,-307,24.6407,4.09106,0,0,0,0,0,0,0,-1,1861,1331,24.6407,-4.09103
644,-307,22.6885,5.80408,0,0,0,0,0,0,0,-1,1868,1331,22.6884,-5.80408
651,-307,17.5013,5.80078,0,0,0,0,0,0,0,-1,1875,1331,17.5014,-5.80072
658,-307,25.627,9.57544,0,0,0,0,0,0,0,-1,1882,1331,25.627,-9.57545
665,-307,25.4578,9.12158,0.0144134,-0.00156406,0.0025142,0.0147997,-0.00195035,0.152453,0.0105767,0.0310081,1889,1331,25.4578,-9.12159
672,-307,25.4196,8.77319,0.00652555,-0.00142297,0.00106315,0.0066653,-0.00156272,0.130694,0.00504576,0.0119789,1896,1331,25.4196,-8.7732
679,-307,25.4127,8.40625,0.00149351,-0.000689902,0.000222905,0.00151603,-0.000712426,0.100706,0.00131419,0.0107838,1903,1331,25.4128,-8.40622
686,-307,25.3986,8.05115,0.00041269,-0.000424354,-0.000116041,0.000428479,-0.000440143,-0.135234,0.000501514,0.00995636,1910,1331,25.3985,-8.0511
693,-307,25.3696,7.6958,0.000137077,-0.000186403,8.53338e-05,0.000158208,-0.000207533,0.242741,0.0002118,0.0115629,1917,1331,25.3697,-7.69586
700,-307,25.3694,7.30884,-0.000292365,8.16878e-05,0.000421365,0.000355668,-0.000566346,0.994266,0.000536938,0.0136822,1924,1331,25.3694,-7.3089
707,-307,25.3682,6.93896,-0.000879778,0.000339655,0.000877716,0.000798647,-0.00133877,1.08897,0.0012471,0.0140432,1931,1331,25.3682,-6.93891
714,-307,25.3827,6.63,-0.0017124,0.000673046,0.00144234,0.00135193,-0.00239129,1.13087,0.00218875,0.0121637,1938,1331,25.3827,-6.63004
721,-307,25.4119,6.28906,-0.00283771,0.00109128,0.00217569,0.00205815,-0.00380458,1.15261,0.00343454,0.0158812,1945,1331,25.4118,-6.28902
728,-307,25.3831,6.0542,-0.00424752,0.00169242,0.00305184,0.00298091,-0.005536,1.1713,0.00499046,0.0348694,1952,1331,25.3831,-6.05426
735,-307,25.1078,5.83594,-0.00591216,0.00266336,0.00392065,0.00418563,-0.00743443,1.20044,0.00679568,0.0465274,1959,1331,25.1078,-5.83589
742,-307,25.0906,5.56909,-0.00811027,0.00402358,0.00505835,0.00585567,-0.00994236,1.2233,0.00922216,0.0453544,1966,1331,25.0906,-5.56907
749,-307,25.2097,5.26538,0,0,0,0,0,0,0,-1,1973,1331,25.2097,-5.26537
756,-307,25.9033,5.2981,0,0,0,0,0,0,0,-1,1980,1331,25.9033,-5.29807
763,-307,18.7522,3.55298,0,0,0,0,0,0,0,-1,1987,1331,18.7522,-3.55301
770,-307,0,0,0,0,0,0,0,0,0,-1,1994,1331,0,0
777,-307,0,0,0,0,0,0,0,0,0,-1,2001,1331,0,0
784,-307,0,0,0,0,0,0,0,0,0,-1,2008,1331,0,0
791,-307,0,0,0,0,0,0,0,0,0,-1,2015,1331,0,0
798,-307,0,0,0,0,0,0,0,0,0,-1,2022,1331,0,0
805,-307,0,0,0,0,0,0,0,0,0,-1,2029,1331,0,0
812,-307,0,0,0,0,0,0,0,0,0,-1,2036,1331,0,0
-700,-314,0,0,0,0,0,0,0,0,0,-1,524,1338,0,0
-693,-314,0,0,0,0,0,0,0,0,0,-1,531,1338,0,0
-686,-314,0,0,0,0,0,0,0,0,0,-1,538,1338,0,0
-679,-314,0,0,0,0,0,0,0,0,0,-1,545,1338,0,0
-672,-314,0,0,0,0,0,0,0,0,0,-1,552,1338,0,0
-665,-314,0,0,0,0,0,0,0,0,0,-1,559,1338,0,0
-658,-314,0,0,0,0,0,0,0,0,0,-1,566,1338,0,0
-651,-314,0,0,0,0,0,0,0,0,0,-1,573,1338,0,0
-644,-314,-11.7038,-3.74414,0,0,0,0,0,0,0,-1,580,1338,-11.7038,3.74412
-637,-314,-11.3976,-1.95752,0,0,0,0,0,0,0,-1,587,1338,-11.3976,1.95747
-630,-314,-13.2771,2.98938,0,0,0,0,0,0,0,-1,594,1338,-13.2771,-2.98943
-623,-314,-13.3542,3.00903,0,0,0,0,0,0,0,-1,601,1338,-13.3542,-3.00907
-616,-314,-9.93311,1.15088,0,0,0,0,0,0,0,-1,608,1338,-9.93308,-1.15093
-609,-314,-9.4361,2.86292,0,0,0,0,0,0,0,-1,615,1338,-9.43612,-2.86286
-602,-314,-11.8027,2.42798,0,0,0,0,0,0,0,-1,622,1338,-11.8027,-2.42802
-595,-314,-13.8505,3.47351,0,0,0,0,0,0,0,-1,629,1338,-13.8505,-3.4735
-588,-314,-13.707,3.9259,0.00304202,0.00384296,0.00344777,0.00691344,-2.84656e-05,0.843215,0.00461848,0.0254334,636,1338,-13.7071,-3.92589
-581,-314,-13.6484,4.36145,0.0024471,0.00221087,0.00153332,0.00386685,0.000791126,0.746959,0.00235883,0.0134388,643,1338,-13.6484,-4.36144
-574,-314,-13.6801,4.73938,0.00224916,0.00155116,0.00120454,0.00315424,0.000646078,0.64439,0.00192397,0.013,650,1338,-13.6801,-4.73939
-567,-314,-13.6641,5.1449,0.0023782,0.00103483,0.00106646,0.00296687,0.000446158,0.504367,0.00184724,0.0146767,657,1338,-13.664,-5.14493
-560,-314,-13.6559,5.54553,0.00288112,0.000674861,0.00112326,0.00335235,0.000203631,0.39722,0.00217021,0.0154117,664,1338,-13.6559,-5.54551
-553,-314,-13.7001,5.9397,0.00369429,0.000410722,0.00132123,0.0041599,-5.48842e-05,0.338816,0.00279174,0.0174172,671,1338,-13.7001,-5.93969
-546,-314,-13.7509,6.34448,0.00485924,0.000212057,0.0016852,0.00540601,-0.000334714,0.313738,0.0037206,0.0180107,678,1338,-13.7508,-6.34445
-539,-314,-13.7131,6.75476,0.00642441,4.28043e-05,0.00221385,0.0071172,-0.000649993,0.303284,0.00497564,0.0168552,685,1338,-13.7131,-6.75475
-532,-314,-13.4341,7.19849,0.00865675,-1.22449e-05,0.00302025,0.00960523,-0.000960719,0.304286,0.00674656,0.0497817,692,1338,-13.4341,-7.19849
-525,-314,-13.3017,7.50671,0,0,0,0,0,0,0,-1,699,1338,-13.3017,-7.50669
-518,-314,-8.52753,4.70032,0,0,0,0,0,0,0,-1,706,1338,-8.52755,-4.70034
-511,-314,-11.8597,0.384888,0,0,0,0,0,0,0,-1,713,1338,-11.8597,-0.384927
-504,-314,-11.4322,-0.187378,0,0,0,0,0,0,0,-1,720,1338,-11.4322,0.187381
-497,-314,-11.0047,-0.759644,0,0,0,0,0,0,0,-1,727,1338,-11.0047,0.759689
-490,-314,-18.5143,0.471069,0,0,0,0,0,0,0,-1,734,1338,-18.5143,-0.47103
-483,-314,-17.8528,0.577271,0,0,0,0,0,0,0,-1,741,1338,-17.8528,-0.577327
-476,-314,-17.714,0.665405,0,0,0,0,0,0,0,-1,748,1338,-17.714,-0.665388
-469,-314,-17.7246,0.794678,0,0,0,0,0,0,0,-1,755,1338,-17.7246,-0.794645
-462,-314,0,0,0,0,0,0,0,0,0,-1,762,1338,0,0
-455,-314,0,0,0,0,0,0,0,0,0,-1,769,1338,0,0
-448,-314,0,0,0,0,0,0,0,0,0,-1,776,1338,0,0
-441,-314,0,0,0,0,0,0,0,0,0,-1,783,1338,0,0
-434,-314,0,0,0,0,0,0,0,0,0,-1,790,1338,0,0
-427,-314,0,0,0,0,0,0,0,0,0,-1,797,1338,0,0
-420,-314,0,0,0,0,0,0,0,0,0,-1,804,1338,0,0
-413,-314,0,0,0,0,0,0,0,0,0,-1,811,1338,0,0
-406,-314,0,0,0,0,0,0,0,0,0,-1,818,1338,0,0
-399,-314,0,0,0,0,0,0,0,0,0,-1,825,1338,0,0
-392,-314,0,0,0,0,0,0,0,0,0,-1,832,1338,0,0
-385,-314,0,0,0,0,0,0,0,0,0,-1,839,1338,0,0
-378,-314,0,0,0,0,0,0,0,0,0,-1,846,1338,0,0
-371,-314,0,0,0,0,0,0,0,0,0,-1,853,1338,0,0
-364,-314,0,0,0,0,0,0,0,0,0,-1,860,1338,0,0
-357,-314,0,0,0,0,0,0,0,0,0,-1,867,1338,0,0
-350,-314,0,0,0,0,0,0,0,0,0,-1,874,1338,0,0
-343,-314,0,0,0,0,0,0,0,0,0,-1,881,1338,0,0
-336,-314,0,0,0,0,0,0,0,0,0,-1,888,1338,0,0
-329,-314,0,0,0,0,0,0,0,0,0,-1,895,1338,0,0
-322,-314,0,0,0,0,0,0,0,0,0,-1,902,1338,0,0
-315,-314,0,0,0,0,0,0,0,0,0,-1,909,1338,0,0
-308,-314,0,0,0,0,0,0,0,0,0,-1,916,1338,0,0
-301,-314,0,0,0,0,0,0,0,0,0,-1,923,1338,0,0
-294,-314,0,0,0,0,0,0,0,0,0,-1,930,1338,0,0
-287,-314,0,0,0,0,0,0,0,0,0,-1,937,1338,0,0
-280,-314,0,0,0,0,0,0,0,0,0,-1,944,1338,0,0
-273,-314,0,0,0,0,0,0,0,0,0,-1,951,1338,0,0
-266,-314,0,0,0,0,0,0,0,0,0,-1,958,1338,0,0
-259,-314,0,0,0,0,0,0,0,0,0,-1,965,1338,0,0
-252,-314,0,0,0,0,0,0,0,0,0,-1,972,1338,0,0
-245,-314,0,0,0,0,0,0,0,0,0,-1,979,1338,0,0
-238,-314,0,0,0,0,0,0,0,0,0,-1,986,1338,0,0
-231,-314,0,0,0,0,0,0,0,0,0,-1,993,1338,0,0
-224,-314,0,0,0,0,0,0,0,0,0,-1,1000,1338,0,0
-217,-314,0,0,0,0,0,0,0,0,0,-1,1007,1338,0,0
-210,-314,0,0,0,0,0,0,0,0,0,-1,1014,1338,0,0
-203,-314,0,0,0,0,0,0,0,0,0,-1,1021,1338,0,0
-196,-314,0,0,0,0,0,0,0,0,0,-1,1028,1338,0,0
-189,-314,0,0,0,0,0,0,0,0,0,-1,1035,1338,0,0
-182,-314,0,0,0,0,0,0,0,0,0,-1,1042,1338,0,0
-175,-314,0,0,0,0,0,0,0,0,0,-1,1049,1338,0,0
-168,-314,0,0,0,0,0,0,0,0,0,-1,1056,1338,0,0
-161,-314,0,0,0,0,0,0,0,0,0,-1,1063,1338,0,0
-154,-314,0,0,0,0,0,0,0,0,0,-1,1070,1338,0,0
-147,-314,0,0,0,0,0,0,0,0,0,-1,1077,1338,0,0
-140,-314,0,0,0,0,0,0,0,0,0,-1,1084,1338,0,0
-133,-314,0,0,0,0,0,0,0,0,0,-1,1091,1338,0,0
-126,-314,0,0,0,0,0,0,0,0,0,-1,1098,1338,0,0
-119,-314,0,0,0,0,0,0,0,0,0,-1,1105,1338,0,0
-112,-314,0,0,0,0,0,0,0,0,0,-1,1112,1338,0,0
-105,-314,0,0,0,0,0,0,0,0,0,-1,1119,1338,0,0
-98,-314,0,0,0,0,0,0,0,0,0,-1,1126,1338,0,0
-91,-314,0,0,0,0,0,0,0,0,0,-1,1133,1338,0,0
-84,-314,0,0,0,0,0,0,0,0,0,-1,1140,1338,0,0
-77,-314,0,0,0,0,0,0,0,0,0,-1,1147,1338,0,0
-70,-314,0,0,0,0,0,0,0,0,0,-1,1154,1338,0,0
-63,-314,0,0,0,0,0,0,0,0,0,-1,1161,1338,0,0
-56,-314,0,0,0,0,0,0,0,0,0,-1,1168,1338,0,0
-49,-314,0,0,0,0,0,0,0,0,0,-1,1175,1338,0,0
-42,-314,0,0,0,0,0,0,0,0,0,-1,1182,1338,0,0
-35,-314,0,0,0,0,0,0,0,0,0,-1,1189,1338,0,0
-28,-314,0,0,0,0,0,0,0,0,0,-1,1196,1338,0,0
-21,-314,0,0,0,0,0,0,0,0,0,-1,1203,1338,0,0
-14,-314,0,0,0,0,0,0,0,0,0,-1,1210,1338,0,0
-7,-314,0,0,0,0,0,0,0,0,0,-1,1217,1338,0,0
0,-314,0,0,0,0,0,0,0,0,0,-1,1224,1338,0,0
7,-314,0,0,0,0,0,0,0,0,0,-1,1231,1338,0,0
14,-314,0,0,0,0,0,0,0,0,0,-1,1238,1338,0,0
21,-314,0,0,0,0,0,0,0,0,0,-1,1245,1338,0,0
28,-314,0,0,0,0,0,0,0,0,0,-1,1252,1338,0,0
35,-314,0,0,0,0,0,0,0,0,0,-1,1259,1338,0,0
42,-314,0,0,0,0,0,0,0,0,0,-1,1266,1338,0,0
49,-314,0,0,0,0,0,0,0,0,0,-1,1273,1338,0,0
56,-314,0,0,0,0,0,0,0,0,0,-1,1280,1338,0,0
63,-314,0,0,0,0,0,0,0,0,0,-1,1287,1338,0,0
70,-314,0,0,0,0,0,0,0,0,0,-1,1294,1338,0,0
77,-314,0,0,0,0,0,0,0,0,0,-1,1301,1338,0,0
84,-314,0,0,0,0,0,0,0,0,0,-1,1308,1338,0,0
91,-314,0,0,0,0,0,0,0,0,0,-1,1315,1338,0,0
98,-314,0,0,0,0,0,0,0,0,0,-1,1322,1338,0,0
105,-314,0,0,0,0,0,0,0,0,0,-1,1329,1338,0,0
112,-314,0,0,0,0,0,0,0,0,0,-1,1336,1338,0,0
119,-314,0,0,0,0,0,0,0,0,0,-1,1343,1338,0,0
126,-314,0,0,0,0,0,0,0,0,0,-1,1350,1338,0,0
133,-314,0,0,0,0,0,0,0,0,0,-1,1357,1338,0,0
140,-314,0,0,0,0,0,0,0,0,0,-1,1364,1338,0,0
147,-314,0,0,0,0,0,0,0,0,0,-1,1371,1338,0,0
154,-314,0,0,0,0,0,0,0,0,0,-1,1378,1338,0,0
161,-314,0,0,0,0,0,0,0,0,0,-1,1385,1338,0,0
168,-314,0,0,0,0,0,0,0,0,0,-1,1392,1338,0,0
175,-314,0,0,0,0,0,0,0,0,0,-1,1399,1338,0,0
182,-314,0,0,0,0,0,0,0,0,0,-1,1406,1338,0,0
189,-314,0,0,0,0,0,0,0,0,0,-1,1413,1338,0,0
196,-314,0,0,0,0,0,0,0,0,0,-1,1420,1338,0,0
203,-314,0,0,0,0,0,0,0,0,0,-1,1427,1338,0,0
210,-314,0,0,0,0,0,0,0,0,0,-1,1434,1338,0,0
217,-314,0,0,0,0,0,0,0,0,0,-1,1441,1338,0,0
224,-314,0,0,0,0,0,0,0,0,0,-1,1448,1338,0,0
231,-314,0,0,0,0,0,0,0,0,0,-1,1455,1338,0,0
238,-314,0,0,0,0,0,0,0,0,0,-1,1462,1338,0,0
245,-314,0,0,0,0,0,0,0,0,0,-1,1469,1338,0,0
252,-314,0,0,0,0,0,0,0,0,0,-1,1476,1338,0,0
259,-314,0,0,0,0,0,0,0,0,0,-1,1483,1338,0,0
266,-314,0,0,0,0,0,0,0,0,0,-1,1490,1338,0,0
273,-314,0,0,0,0,0,0,0,0,0,-1,1497,1338,0,0
280,-314,0,0,0,0,0,0,0,0,0,-1,1504,1338,0,0
287,-314,0,0,0,0,0,0,0,0,0,-1,1511,1338,0,0
294,-314,0,0,0,0,0,0,0,0,0,-1,1518,1338,0,0
301,-314,0,0,0,0,0,0,0,0,0,-1,1525,1338,0,0
308,-314,0,0,0,0,0,0,0,0,0,-1,1532,1338,0,0
315,-314,0,0,0,0,0,0,0,0,0,-1,1539,1338,0,0
322,-314,0,0,0,0,0,0,0,0,0,-1,1546,1338,0,0
329,-314,0,0,0,0,0,0,0,0,0,-1,1553,1338,0,0
336,-314,0,0,0,0,0,0,0,0,0,-1,1560,1338,0,0
343,-314,0,0,0,0,0,0,0,0,0,-1,1567,1338,0,0
350,-314,0,0,0,0,0,0,0,0,0,-1,1574,1338,0,0
357,-314,0,0,0,0,0,0,0,0,0,-1,1581,1338,0,0
364,-314,0,0,0,0,0,0,0,0,0,-1,1588,1338,0,0
371,-314,0,0,0,0,0,0,0,0,0,-1,1595,1338,0,0
378,-314,0,0,0,0,0,0,0,0,0,-1,1602,1338,0,0
385,-314,0,0,0,0,0,0,0,0,0,-1,1609,1338,0,0
392,-314,0,0,0,0,0,0,0,0,0,-1,1616,1338,0,0
399,-314,0,0,0,0,0,0,0,0,0,-1,1623,1338,0,0
406,-314,0,0,0,0,0,0,0,0,0,-1,1630,1338,0,0
413,-314,0,0,0,0,0,0,0,0,0,-1,1637,1338,0,0
420,-314,0,0,0,0,0,0,0,0,0,-1,1644,1338,0,0
427,-314,0,0,0,0,0,0,0,0,0,-1,1651,1338,0,0
434,-314,0,0,0,0,0,0,0,0,0,-1,1658,1338,0,0
441,-314,0,0,0,0,0,0,0,0,0,-1,1665,1338,0,0
448,-314,0,0,0,0,0,0,0,0,0,-1,1672,1338,0,0
455,-314,0,0,0,0,0,0,0,0,0,-1,1679,1338,0,0
462,-314,0,0,0,0,0,0,0,0,0,-1,1686,1338,0,0
469,-314,0,0,0,0,0,0,0,0,0,-1,1693,1338,0,0
476,-314,0,0,0,0,0,0,0,0,0,-1,1700,1338,0,0
483,-314,0,0,0,0,0,0,0,0,0,-1,1707,1338,0,0
490,-314,0,0,0,0,0,0,0,0,0,-1,1714,1338,0,0
497,-314,0,0,0,0,0,0,0,0,0,-1,1721,1338,0,0
504,-314,0,0,0,0,0,0,0,0,0,-1,1728,1338,0,0
511,-314,0,0,0,0,0,0,0,0,0,-1,1735,1338,0,0
518,-314,0,0,0,0,0,0,0,0,0,-1,1742,1338,0,0
525,-314,0,0,0,0,0,0,0,0,0,-1,1749,1338,0,0
532,-314,0,0,0,0,0,0,0,0,0,-1,1756,1338,0,0
539,-314,0,0,0,0,0,0,0,0,0,-1,1763,1338,0,0
546,-314,0,0,0,0,0,0,0,0,0,-1,1770,1338,0,0
553,-314,0,0,0,0,0,0,0,0,0,-1,1777,1338,0,0
560,-314,0,0,0,0,0,0,0,0,0,-1,1784,1338,0,0
567,-314,0,0,0,0,0,0,0,0,0,-1,1791,1338,0,0
574,-314,0,0,0,0,0,0,0,0,0,-1,1798,1338,0,0
581,-314,35.2161,4.19824,0,0,0,0,0,0,0,-1,1805,1338,35.2161,-4.19827
588,-314,35.2616,3.28503,0,0,0,0,0,0,0,-1,1812,1338,35.2616,-3.28501
595,-314,35.2086,2.14893,0.0245809,0.0299313,-0.0299919,0.0573671,-0.00285487,-0.829879,0.039231,0.0447365,1819,1338,35.2086,-2.14894
602,-314,35.0571,1.35522,0.044147,0.0222612,-0.0187007,0.0548711,0.011537,-0.520679,0.0334059,0.0420876,1826,1338,35.0572,-1.35519
609,-314,37.152,1.79211,0.0457026,0.017142,-0.0119646,0.0500524,0.0127922,-0.348697,0.0300266,0.0442875,1833,1338,37.152,-1.7921
616,-314,37.8346,2.0636,0,0,0,0,0,0,0,-1,1840,1338,37.8346,-2.0636
623,-314,31.2539,1.52954,0,0,0,0,0,0,0,-1,1847,1338,31.254,-1.52956
630,-314,29.4308,6.23206,0,0,0,0,0,0,0,-1,1854,1338,29.4308,-6.23202
637,-314,22.1349,5.16418,0,0,0,0,0,0,0,-1,1861,1338,22.1349,-5.16414
644,-314,18.7517,6.2605,0,0,0,0,0,0,0,-1,1868,1338,18.7517,-6.26053
651,-314,23.1317,8.005,0,0,0,0,0,0,0,-1,1875,1338,23.1317,-8.00506
658,-314,25.0833,9.52551,0,0,0,0,0,0,0,-1,1882,1338,25.0833,-9.52549
665,-314,25.0383,9.15967,0.0125051,-0.00105461,0.00226552,0.0128736,-0.00142311,0.161245,0.00909393,0.0221844,1889,1338,25.0383,-9.15962
672,-314,25.052,8.8092,0.00487928,-0.000926412,0.000860285,0.00500407,-0.00105121,0.144057,0.00373607,0.0123863,1896,1338,25.052,-8.80921
679,-314,25.04,8.42798,0.000857966,-0.00040464,0.000144834,0.000874367,-0.000421041,0.112759,0.000763017,0.00995355,1903,1338,25.04,-8.42795
686,-314,25.0059,8.03564,0.000201196,-0.000261688,-5.53146e-05,0.000207714,-0.000268207,-0.117299,0.000275512,0.0112094,1910,1338,25.0059,-8.03568
693,-314,24.9982,7.67883,6.19464e-05,-4.12897e-05,0.000133372,0.000153341,-0.000132684,0.600764,0.00016528,0.0121145,1917,1338,24.9982,-7.6788
700,-314,25.0082,7.30957,-0.000293596,0.0002075,0.000450047,0.000472041,-0.000558137,1.03939,0.000595465,0.0140091,1924,1338,25.0082,-7.30951
707,-314,25.03,6.95276,-0.000854771,0.000499775,0.000874231,0.000928386,-0.00128338,1.11496,0.00128244,0.0130169,1931,1338,25.0301,-6.95273
714,-314,25.0116,6.61707,-0.00172378,0.000848606,0.00145146,0.00150175,-0.00237693,1.14795,0.00225828,0.0109727,1938,1338,25.0117,-6.61707
721,-314,24.9967,6.30859,-0.0029441,0.0012866,0.00223894,0.00225144,-0.00390894,1.16391,0.00359935,0.0219726,1945,1338,24.9967,-6.3086
728,-314,25.0507,6.01636,0,0,0,0,0,0,0,-1,1952,1338,25.0506,-6.01635
735,-314,24.7332,5.78516,0,0,0,0,0,0,0,-1,1959,1338,24.7332,-5.78519
742,-314,24.799,5.32788,0,0,0,0,0,0,0,-1,1966,1338,24.799,-5.32789
749,-314,25.0093,5.06665,0,0,0,0,0,0,0,-1,1973,1338,25.0093,-5.06659
756,-314,24.2521,5.93408,0,0,0,0,0,0,0,-1,1980,1338,24.252,-5.93413
763,-314,19.2207,4.07239,0,0,0,0,0,0,0,-1,1987,1338,19.2206,-4.07239
770,-314,0,0,0,0,0,0,0,0,0,-1,1994,1338,0,0
777,-314,0,0,0,0,0,0,0,0,0,-1,2001,1338,0,0
784,-314,0,0,0,0,0,0,0,0,0,-1,2008,1338,0,0
791,-314,0,0,0,0,0,0,0,0,0,-1,2015,1338,0,0
798,-314,0,0,0,0,0,0,0,0,0,-1,2022,1338,0,0
805,-314,0,0,0,0,0,0,0,0,0,-1,2029,1338,0,0
812,-314,0,0,0,0,0,0,0,0,0,-1,2036,1338,0,0
-700,-321,0,0,0,0,0,0,0,0,0,-1,524,1345,0,0
-693,-321,0,0,0,0,0,0,0,0,0,-1,531,1345,0,0
-686,-321,0,0,0,0,0,0,0,0,0,-1,538,1345,0,0
-679,-321,0,0,0,0,0,0,0,0,0,-1,545,1345,0,0
-672,-321,0,0,0,0,0,0,0,0,0,-1,552,1345,0,0
-665,-321,0,0,0,0,0,0,0,0,0,-1,559,1345,0,0
-658,-321,0,0,0,0,0,0,0,0,0,-1,566,1345,0,0
-651,-321,0,0,0,0,0,0,0,0,0,-1,573,1345,0,0
-644,-321,-10.9585,-1.48376,0,0,0,0,0,0,0,-1,580,1345,-10.9585,1.48374
-637,-321,-13.3991,3.59241,0,0,0,0,0,0,0,-1,587,1345,-13.3991,-3.59236
-630,-321,-13.2958,3.65039,0,0,0,0,0,0,0,-1,594,1345,-13.2958,-3.65042
-623,-321,-13.2242,3.14148,0,0,0,0,0,0,0,-1,601,1345,-13.2243,-3.14146
-616,-321,-11.6754,3.13794,0,0,0,0,0,0,0,-1,608,1345,-11.6754,-3.13789
-609,-321,-7.95209,1.14758,0,0,0,0,0,0,0,-1,615,1345,-7.95208,-1.14757
-602,-321,-8.85791,2.50049,0,0,0,0,0,0,0,-1,622,1345,-8.85791,-2.50048
-595,-321,-13.7009,3.35291,0,0,0,0,0,0,0,-1,629,1345,-13.7009,-3.35285
-588,-321,-13.372,3.8418,0.00301057,0.0031219,0.00273591,0.00580271,0.000329764,0.795569,0.00376337,0.036353,636,1345,-13.372,-3.8418
-581,-321,-13.2739,4.37,0.00208255,0.00197452,0.00120063,0.00323038,0.000826687,0.762921,0.00193773,0.0128783,643,1345,-13.2739,-4.36999
-574,-321,-13.3005,4.74133,0.0018649,0.00140896,0.000905104,0.0025703,0.00070356,0.662029,0.00153378,0.0142905,650,1345,-13.3005,-4.74136
-567,-321,-13.2828,5.10706,0.0020083,0.0009945,0.000817687,0.00246346,0.000539339,0.50793,0.00149531,0.0222365,657,1345,-13.2828,-5.10703
-560,-321,-13.2707,5.5376,0.00250839,0.000682004,0.000920124,0.00289156,0.000298837,0.394589,0.00183622,0.0270371,664,1345,-13.2707,-5.53758
-553,-321,-13.2997,5.92285,0.0033166,0.000432747,0.00116815,0.0037304,1.89425e-05,0.340445,0.00248064,0.0279744,671,1345,-13.2997,-5.92291
-546,-321,-13.3663,6.32947,0.00447468,0.000242784,0.00157588,0.00499704,-0.000279572,0.320071,0.00342835,0.0268918,678,1345,-13.3663,-6.32948
-539,-321,-13.3594,6.75867,0.00598691,0.000107109,0.00214362,0.00668543,-0.000591415,0.315011,0.0046666,0.0238365,685,1345,-13.3594,-6.75864
-532,-321,-13.1843,7.16711,0.00805484,7.3093e-05,0.00297162,0.00903967,-0.000911734,0.320019,0.00635221,0.0264026,692,1345,-13.1843,-7.16711
-525,-321,-13.2407,7.5835,0,0,0,0,0,0,0,-1,699,1345,-13.2407,-7.5835
-518,-321,-10.3564,6.75696,0,0,0,0,0,0,0,-1,706,1345,-10.3564,-6.75694
-511,-321,-9.3302,5.29297,0,0,0,0,0,0,0,-1,713,1345,-9.33023,-5.29294
-504,-321,-10.4713,0.0145264,0,0,0,0,0,0,0,-1,720,1345,-10.4713,-0.0145296
-497,-321,-9.96771,0.313599,0,0,0,0,0,0,0,-1,727,1345,-9.96769,-0.313618
-490,-321,-10.7631,0.973511,0,0,0,0,0,0,0,-1,734,1345,-10.7631,-0.97353
-483,-321,-17.5908,0.2323,0,0,0,0,0,0,0,-1,741,1345,-17.5908,-0.232355
-476,-321,-17.2915,0.297363,0,0,0,0,0,0,0,-1,748,1345,-17.2915,-0.297342
-469,-321,-17.2441,0.478027,0,0,0,0,0,0,0,-1,755,1345,-17.2441,-0.477994
-462,-321,-17.1672,0.526489,0,0,0,0,0,0,0,-1,762,1345,-17.1672,-0.526533
-455,-321,0,0,0,0,0,0,0,0,0,-1,769,1345,0,0
-448,-321,0,0,0,0,0,0,0,0,0,-1,776,1345,0,0
-441,-321,0,0,0,0,0,0,0,0,0,-1,783,1345,0,0
-434,-321,0,0,0,0,0,0,0,0,0,-1,790,1345,0,0
-427,-321,0,0,0,0,0,0,0,0,0,-1,797,1345,0,0
-420,-321,0,0,0,0,0,0,0,0,0,-1,804,1345,0,0
-413,-321,0,0,0,0,0,0,0,0,0,-1,811,1345,0,0
-406,-321,0,0,0,0,0,0,0,0,0,-1,818,1345,0,0
-399,-321,0,0,0,0,0,0,0,0,0,-1,825,1345,0,0
-392,-321,0,0,0,0,0,0,0,0,0,-1,832,1345,0,0
-385,-321,0,0,0,0,0,0,0,0,0,-1,839,1345,0,0
-378,-321,0,0,0,0,0,0,0,0,0,-1,846,1345,0,0
-371,-321,0,0,0,0,0,0,0,0,0,-1,853,1345,0,0
-364,-321,0,0,0,0,0,0,0,0,0,-1,860,1345,0,0
-357,-321,0,0,0,0,0,0,0,0,0,-1,867,1345,0,0
-350,-321,0,0,0,0,0,0,0,0,0,-1,874,1345,0,0
-343,-321,0,0,0,0,0,0,0,0,0,-1,881,1345,0,0
-336,-321,0,0,0,0,0,0,0,0,0,-1,888,1345,0,0
-329,-321,0,0,0,0,0,0,0,0,0,-1,895,1345,0,0
-322,-321,0,0,0,0,0,0,0,0,0,-1,902,1345,0,0
-315,-321,0,0,0,0,0,0,0,0,0,-1,909,1345,0,0
-308,-321,0,0,0,0,0,0,0,0,0,-1,916,1345,0,0
-301,-321,0,0,0,0,0,0,0,0,0,-1,923,1345,0,0
-294,-321,0,0,0,0,0,0,0,0,0,-1,930,1345,0,0
-287,-321,0,0,0,0,0,0,0,0,0,-1,937,1345,0,0
-280,-321,0,0,0,0,0,0,0,0,0,-1,944,1345,0,0
-273,-321,0,0,0,0,0,0,0,0,0,-1,951,1345,0,0
-266,-321,0,0,0,0,0,0,0,0,0,-1,958,1345,0,0
-259,-321,0,0,0,0,0,0,0,0,0,-1,965,1345,0,0
-252,-321,0,0,0,0,0,0,0,0,0,-1,972,1345,0,0
-245,-321,0,0,0,0,0,0,0,0,0,-1,979,1345,0,0
-238,-321,0,0,0,0,0,0,0,0,0,-1,986,1345,0,0
-231,-321,0,0,0,0,0,0,0,0,0,-1,993,1345,0,0
-224,-321,0,0,0,0,0,0,0,0,0,-1,1000,1345,0,0
-217,-321,0,0,0,0,0,0,0,0,0,-1,1007,1345,0,0
-210,-321,0,0,0,0,0,0,0,0,0,-1,1014,1345,0,0
-203,-321,0,0,0,0,0,0,0,0,0,-1,1021,1345,0,0
-196,-321,0,0,0,0,0,0,0,0,0,-1,1028,1345,0,0
-189,-321,0,0,0,0,0,0,0,0,0,-1,1035,1345,0,0
-182,-321,0,0,0,0,0,0,0,0,0,-1,1042,1345,0,0
-175,-321,0,0,0,0,0,0,0,0,0,-1,1049,1345,0,0
-168,-321,0,0,0,0,0,0,0,0,0,-1,1056,1345,0,0
-161,-321,0,0,0,0,0,0,0,0,0,-1,1063,1345,0,0
-154,-321,0,0,0,0,0,0,0,0,0,-1,1070,1345,0,0
-147,-321,0,0,0,0,0,0,0,0,0,-1,1077,1345,0,0
-140,-321,0,0,0,0,0,0,0,0,0,-1,1084,1345,0,0
-133,-321,0,0,0,0,0,0,0,0,0,-1,1091,1345,0,0
-126,-321,0,0,0,0,0,0,0,0,0,-1,1098,1345,0,0
-119,-321,0,0,0,0,0,0,0,0,0,-1,1105,1345,0,0
-112,-321,0,0,0,0,0,0,0,0,0,-1,1112,1345,0,0
-105,-321,0,0,0,0,0,0,0,0,0,-1,1119,1345,0,0
-98,-321,0,0,0,0,0,0,0,0,0,-1,1126,1345,0,0
-91,-321,0,0,0,0,0,0,0,0,0,-1,1133,1345,0,0
-84,-321,0,0,0,0,0,0,0,0,0,-1,1140,1345,0,0
-77,-321,0,0,0,0,0,0,0,0,0,-1,1147,1345,0,0
-70,-321,0,0,0,0,0,0,0,0,0,-1,1154,1345,0,0
-63,-321,0,0,0,0,0,0,0,0,0,-1,1161,1345,0,0
-56,-321,0,0,0,0,0,0,0,0,0,-1,1168,1345,0,0
-49,-321,0,0,0,0,0,0,0,0,0,-1,1175,1345,0,0
-42,-321,0,0,0,0,0,0,0,0,0,-1,1182,1345,0,0
-35,-321,0,0,0,0,0,0,0,0,0,-1,1189,1345,0,0
-28,-321,0,0,0,0,0,0,0,0,0,-1,1196,1345,0,0
-21,-321,0,0,0,0,0,0,0,0,0,-1,1203,1345,0,0
-14,-321,0,0,0,0,0,0,0,0,0,-1,1210,1345,0,0
-7,-321,0,0,0,0,0,0,0,0,0,-1,1217,1345,0,0
0,-321,0,0,0,0,0,0,0,0,0,-1,1224,1345,0,0
7,-321,0,0,0,0,0,0,0,0,0,-1,1231,1345,0,0
14,-321,0,0,0,0,0,0,0,0,0,-1,1238,1345,0,0
21,-321,0,0,0,0,0,0,0,0,0,-1,1245,1345,0,0
28,-321,0,0,0,0,0,0,0,0,0,-1,1252,1345,0,0
35,-321,0,0,0,0,0,0,0,0,0,-1,1259,1345,0,0
42,-321,0,0,0,0,0,0,0,0,0,-1,1266,1345,0,0
49,-321,0,0,0,0,0,0,0,0,0,-1,1273,1345,0,0
56,-321,0,0,0,0,0,0,0,0,0,-1,1280,1345,0,0
63,-321,0,0,0,0,0,0,0,0,0,-1,1287,1345,0,0
70,-321,0,0,0,0,0,0,0,0,0,-1,1294,1345,0,0
77,-321,0,0,0,0,0,0,0,0,0,-1,1301,1345,0,0
84,-321,0,0,0,0,0,0,0,0,0,-1,1308,1345,0,0
91,-321,0,0,0,0,0,0,0,0,0,-1,1315,1345,0,0
98,-321,0,0,0,0,0,0,0,0,0,-1,1322,1345,0,0
105,-321,0,0,0,0,0,0,0,0,0,-1,1329,1345,0,0
112,-321,0,0,0,0,0,0,0,0,0,-1,1336,1345,0,0
119,-321,0,0,0,0,0,0,0,0,0,-1,1343,1345,0,0
126,-321,0,0,0,0,0,0,0,0,0,-1,1350,1345,0,0
133,-321,0,0,0,0,0,0,0,0,0,-1,1357,1345,0,0
140,-321,0,0,0,0,0,0,0,0,0,-1,1364,1345,0,0
147,-321,0,0,0,0,0,0,0,0,0,-1,1371,1345,0,0
154,-321,0,0,0,0,0,0,0,0,0,-1,1378,1345,0,0
161,-321,0,0,0,0,0,0,0,0,0,-1,1385,1345,0,0
168,-321,0,0,0,0,0,0,0,0,0,-1,1392,1345,0,0
175,-321,0,0,0,0,0,0,0,0,0,-1,1399,1345,0,0
182,-321,0,0,0,0,0,0,0,0,0,-1,1406,1345,0,0
189,-321,0,0,0,0,0,0,0,0,0,-1,1413,1345,0,0
196,-321,0,0,0,0,0,0,0,0,0,-1,1420,1345,0,0
203,-321,0,0,0,0,0,0,0,0,0,-1,1427,1345,0,0
210,-321,0,0,0,0,0,0,0,0,0,-1,1434,1345,0,0
217,-321,0,0,0,0,0,0,0,0,0,-1,1441,1345,0,0
224,-321,0,0,0,0,0,0,0,0,0,-1,1448,1345,0,0
231,-321,0,0,0,0,0,0,0,0,0,-1,1455,1345,0,0
238,-321,0,0,0,0,0,0,0,0,0,-1,1462,1345,0,0
245,-321,0,0,0,0,0,0,0,0,0,-1,1469,1345,0,0
252,-321,0,0,0,0,0,0,0,0,0,-1,1476,1345,0,0
259,-321,0,0,0,0,0,0,0,0,0,-1,1483,1345,0,0
266,-321,0,0,0,0,0,0,0,0,0,-1,1490,1345,0,0
273,-321,0,0,0,0,0,0,0,0,0,-1,1497,1345,0,0
280,-321,0,0,0,0,0,0,0,0,0,-1,1504,1345,0,0
287,-321,0,0,0,0,0,0,0,0,0,-1,1511,1345,0,0
294,-321,0,0,0,0,0,0,0,0,0,-1,1518,1345,0,0
301,-321,0,0,0,0,0,0,0,0,0,-1,1525,1345,0,0
308,-321,0,0,0,0,0,0,0,0,0,-1,1532,1345,0,0
315,-321,0,0,0,0,0,0,0,0,0,-1,1539,1345,0,0
322,-321,0,0,0,0,0,0,0,0,0,-1,1546,1345,0,0
329,-321,0,0,0,0,0,0,0,0,0,-1,1553,1345,0,0
336,-321,0,0,0,0,0,0,0,0,0,-1,1560,1345,0,0
343,-321,0,0,0,0,0,0,0,0,0,-1,1567,1345,0,0
350,-321,0,0,0,0,0,0,0,0,0,-1,1574,1345,0,0
357,-321,0,0,0,0,0,0,0,0,0,-1,1581,1345,0,0
364,-321,0,0,0,0,0,0,0,0,0,-1,1588,1345,0,0
371,-321,0,0,0,0,0,0,0,0,0,-1,1595,1345,0,0
378,-321,0,0,0,0,0,0,0,0,0,-1,1602,1345,0,0
385,-321,0,0,0,0,0,0,0,0,0,-1,1609,1345,0,0
392,-321,0,0,0,0,0,0,0,0,0,-1,1616,1345,0,0
399,-321,0,0,0,0,0,0,0,0,0,-1,1623,1345,0,0
406,-321,0,0,0,0,0,0,0,0,0,-1,1630,1345,0,0
413,-321,0,0,0,0,0,0,0,0,0,-1,1637,1345,0,0
420,-321,0,0,0,0,0,0,0,0,0,-1,1644,1345,0,0
427,-321,0,0,0,0,0,0,0,0,0,-1,1651,1345,0,0
434,-321,0,0,0,0,0,0,0,0,0,-1,1658,1345,0,0
441,-321,0,0,0,0,0,0,0,0,0,-1,1665,1345,0,0
448,-321,0,0,0,0,0,0,0,0,0,-1,1672,1345,0,0
455,-321,0,0,0,0,0,0,0,0,0,-1,1679,1345,0,0
462,-321,0,0,0,0,0,0,0,0,0,-1,1686,1345,0,0
469,-321,0,0,0,0,0,0,0,0,0,-1,1693,1345,0,0
476,-321,0,0,0,0,0,0,0,0,0,-1,1700,1345,0,0
483,-321,0,0,0,0,0,0,0,0,0,-1,1707,1345,0,0
490,-321,0,0,0,0,0,0,0,0,0,-1,1714,1345,0,0
497,-321,0,0,0,0,0,0,0,0,0,-1,1721,1345,0,0
504,-321,0,0,0,0,0,0,0,0,0,-1,1728,1345,0,0
511,-321,0,0,0,0,0,0,0,0,0,-1,1735,1345,0,0
518,-321,0,0,0,0,0,0,0,0,0,-1,1742,1345,0,0
525,-321,0,0,0,0,0,0,0,0,0,-1,1749,1345,0,0
532,-321,0,0,0,0,0,0,0,0,0,-1,1756,1345,0,0
539,-321,0,0,0,0,0,0,0,0,0,-1,1763,1345,0,0
546,-321,0,0,0,0,0,0,0,0,0,-1,1770,1345,0,0
553,-321,0,0,0,0,0,0,0,0,0,-1,1777,1345,0,0
560,-321,0,0,0,0,0,0,0,0,0,-1,1784,1345,0,0
567,-321,0,0,0,0,0,0,0,0,0,-1,1791,1345,0,0
574,-321,0,0,0,0,0,0,0,0,0,-1,1798,1345,0,0
581,-321,35.4694,3.68201,0,0,0,0,0,0,0,-1,1805,1345,35.4694,-3.68202
588,-321,35.1063,2.6969,0,0,0,0,0,0,0,-1,1812,1345,35.1063,-2.69684
595,-321,34.8334,1.88672,0.02984,0.0321502,-0.0346081,0.0656225,-0.00363229,-0.80208,0.045008,0.0466664,1819,1345,34.8334,-1.88666
602,-321,34.5295,1.33301,0.0382151,0.025359,-0.0247764,0.0573838,0.00619034,-0.658475,0.0363684,0.0442571,1826,1345,34.5296,-1.33303
609,-321,37.3967,1.66943,0,0,0,0,0,0,0,-1,1833,1345,37.3967,-1.6694
616,-321,31.4971,2.1814,0,0,0,0,0,0,0,-1,1840,1345,31.4971,-2.18138
623,-321,30.2665,2.45361,0,0,0,0,0,0,0,-1,1847,1345,30.2665,-2.4536
630,-321,23.6674,4.34106,0,0,0,0,0,0,0,-1,1854,1345,23.6674,-4.34112
637,-321,21.7925,6.79224,0,0,0,0,0,0,0,-1,1861,1345,21.7925,-6.7922
644,-321,16.8844,6.71973,0,0,0,0,0,0,0,-1,1868,1345,16.8844,-6.71971
651,-321,25.3481,9.4082,0,0,0,0,0,0,0,-1,1875,1345,25.3482,-9.4082
658,-321,24.8412,9.45557,0.0240463,-0.000181151,0.00311871,0.0244413,-0.00057617,0.12599,0.0164896,0.0440201,1882,1345,24.8412,-9.45559
665,-321,24.6709,9.17822,0.0098772,-0.000796627,0.00181488,0.0101773,-0.00109677,0.163897,0.00717847,0.0186177,1889,1345,24.6709,-9.17818
672,-321,24.6952,8.80945,0.0033796,-0.00056293,0.000625554,0.00347648,-0.000659805,0.153642,0.00256602,0.0130497,1896,1345,24.6952,-8.80942
679,-321,24.6882,8.45068,0.000553615,-0.000227867,5.83198e-05,0.000557943,-0.000232195,0.0740804,0.000468931,0.010666,1903,1345,24.6883,-8.4507
686,-321,24.6489,8.07947,0.000184706,-0.000134373,-4.10482e-05,0.000189902,-0.000139569,-0.125915,0.000190959,0.0115422,1910,1345,24.649,-8.07947
693,-321,24.6366,7.72388,0.000118923,0.000107257,0.000107089,0.000220337,5.84221e-06,0.758191,0.000144983,0.012531,1917,1345,24.6366,-7.72391
700,-321,24.6588,7.35669,-0.000165909,0.000343281,0.000379264,0.000545479,-0.000368106,1.081,0.000530762,0.0125681,1924,1345,24.6588,-7.35674
707,-321,24.6759,6.9989,-0.000679951,0.000651265,0.000755113,0.000992249,-0.00102094,1.14664,0.00116235,0.0141459,1931,1345,24.6759,-6.99892
714,-321,24.6521,6.62732,-0.00157497,0.000993375,0.00133486,0.00156149,-0.00214308,1.16842,0.0021476,0.012763,1938,1345,24.652,-6.62729
721,-321,24.6119,6.25037,-0.0028871,0.0014422,0.0021636,0.00233809,-0.00378299,1.17822,0.00356667,0.0334753,1945,1345,24.612,-6.25031
728,-321,24.6135,5.93774,0,0,0,0,0,0,0,-1,1952,1345,24.6135,-5.9377
735,-321,22.0081,5.65479,0,0,0,0,0,0,0,-1,1959,1345,22.008,-5.65481
742,-321,24.5398,5.05725,0,0,0,0,0,0,0,-1,1966,1345,24.5398,-5.05729
749,-321,24.0675,5.4458,0,0,0,0,0,0,0,-1,1973,1345,24.0675,-5.44581
756,-321,19.6251,4.98315,0,0,0,0,0,0,0,-1,1980,1345,19.6251,-4.98311
763,-321,19.6747,4.61438,0,0,0,0,0,0,0,-1,1987,1345,19.6747,-4.61436
770,-321,0,0,0,0,0,0,0,0,0,-1,1994,1345,0,0
777,-321,0,0,0,0,0,0,0,0,0,-1,2001,1345,0,0
784,-321,0,0,0,0,0,0,0,0,0,-1,2008,1345,0,0
791,-321,0,0,0,0,0,0,0,0,0,-1,2015,1345,0,0
798,-321,0,0,0,0,0,0,0,0,0,-1,2022,1345,0,0
805,-321,0,0,0,0,0,0,0,0,0,-1,2029,1345,0,0
812,-321,0,0,0,0,0,0,0,0,0,-1,2036,1345,0,0
-700,-328,0,0,0,0,0,0,0,0,0,-1,524,1352,0,0
-693,-328,0,0,0,0,0,0,0,0,0,-1,531,1352,0,0
-686,-328,0,0,0,0,0,0,0,0,0,-1,538,1352,0,0
-679,-328,0,0,0,0,0,0,0,0,0,-1,545,1352,0,0
-672,-328,0,0,0,0,0,0,0,0,0,-1,552,1352,0,0
-665,-328,0,0,0,0,0,0,0,0,0,-1,559,1352,0,0
-658,-328,0,0,0,0,0,0,0,0,0,-1,566,1352,0,0
-651,-328,0,0,0,0,0,0,0,0,0,-1,573,1352,0,0
-644,-328,0,0,0,0,0,0,0,0,0,-1,580,1352,0,0
-637,-328,-12.0695,1.02014,0,0,0,0,0,0,0,-1,587,1352,-12.0694,-1.02017
-630,-328,-13.3971,4.54578,0,0,0,0,0,0,0,-1,594,1352,-13.3971,-4.54572
-623,-328,-10.7739,4.55042,0,0,0,0,0,0,0,-1,601,1352,-10.7739,-4.55041
-616,-328,-8.22198,-0.25708,0,0,0,0,0,0,0,-1,608,1352,-8.22201,0.257067
-609,-328,-7.87439,0.192871,0,0,0,0,0,0,0,-1,615,1352,-7.87441,-0.192822
-602,-328,-7.63062,1.31665,0,0,0,0,0,0,0,-1,622,1352,-7.63064,-1.3166
-595,-328,-9.42639,2.93494,0,0,0,0,0,0,0,-1,629,1352,-9.42638,-2.93499
-588,-328,-13.0756,3.54492,0,0,0,0,0,0,0,-1,636,1352,-13.0755,-3.54495
-581,-328,-12.8788,4.34509,0.00140038,0.00212854,0.000783483,0.0026284,0.000900517,1.0029,0.00154237,0.0204621,643,1352,-12.8788,-4.34506
-574,-328,-12.8759,4.75195,0.00116917,0.00151222,0.000506429,0.00187538,0.000806004,0.948684,0.00108631,0.0147039,650,1352,-12.8758,-4.7519
-567,-328,-12.9047,5.13403,0.00134923,0.0010783,0.000464353,0.00169748,0.00073006,0.643473,0.000983228,0.0205269,657,1352,-12.9048,-5.13398
-560,-328,-12.8657,5.5835,0.00190742,0.000735247,0.000618415,0.00217335,0.000469316,0.406115,0.00132056,0.0294315,664,1352,-12.8657,-5.58355
-553,-328,-12.8464,5.97876,0.00277231,0.000465982,0.000935614,0.00310412,0.000134167,0.340811,0.00202617,0.0308367,671,1352,-12.8464,-5.97878
-546,-328,-12.8814,6.35742,0.0039683,0.000251828,0.00140328,0.00443864,-0.000218505,0.3234,0.00303455,0.0278345,678,1352,-12.8814,-6.35742
-539,-328,-12.9159,6.76636,0.00545351,0.000105132,0.00201898,0.00613008,-0.000571437,0.323343,0.0042899,0.0232757,685,1352,-12.9159,-6.76638
-532,-328,-12.889,7.17712,0.00736255,3.95672e-05,0.00285716,0.0083454,-0.000943281,0.331315,0.0059032,0.0172288,692,1352,-12.8891,-7.17707
-525,-328,-12.8604,7.64502,0.0096605,-0.000108215,0.00383341,0.0109852,-0.00143288,0.332713,0.00784482,0.0220753,699,1352,-12.8603,-7.64508
-518,-328,-12.9253,8.16687,0,0,0,0,0,0,0,-1,706,1352,-12.9253,-8.16682
-511,-328,-9.39868,7.16113,0,0,0,0,0,0,0,-1,713,1352,-9.39869,-7.16113
-504,-328,-8.60626,-0.905762,0,0,0,0,0,0,0,-1,720,1352,-8.60623,0.905787
-497,-328,-9.29102,-0.0517578,0,0,0,0,0,0,0,-1,727,1352,-9.29104,0.0518175
-490,-328,-10.0663,0.882813,0,0,0,0,0,0,0,-1,734,1352,-10.0663,-0.882795
-483,-328,-10.8181,1.72375,0,0,0,0,0,0,0,-1,741,1352,-10.8181,-1.72374
-476,-328,-16.8951,-0.150757,0,0,0,0,0,0,0,-1,748,1352,-16.8951,0.150795
-469,-328,-16.8412,0.00158691,0,0,0,0,0,0,0,-1,755,1352,-16.8412,-0.00161515
-462,-328,-16.3546,-0.203491,0,0,0,0,0,0,0,-1,762,1352,-16.3545,0.203532
-455,-328,0,0,0,0,0,0,0,0,0,-1,769,1352,0,0
-448,-328,0,0,0,0,0,0,0,0,0,-1,776,1352,0,0
-441,-328,0,0,0,0,0,0,0,0,0,-1,783,1352,0,0
-434,-328,0,0,0,0,0,0,0,0,0,-1,790,1352,0,0
-427,-328,0,0,0,0,0,0,0,0,0,-1,797,1352,0,0
-420,-328,0,0,0,0,0,0,0,0,0,-1,804,1352,0,0
-413,-328,0,0,0,0,0,0,0,0,0,-1,811,1352,0,0
-406,-328,0,0,0,0,0,0,0,0,0,-1,818,1352,0,0
-399,-328,0,0,0,0,0,0,0,0,0,-1,825,1352,0,0
-392,-328,0,0,0,0,0,0,0,0,0,-1,832,1352,0,0
-385,-328,0,0,0,0,0,0,0,0,0,-1,839,1352,0,0
-378,-328,0,0,0,0,0,0,0,0,0,-1,846,1352,0,0
-371,-328,0,0,0,0,0,0,0,0,0,-1,853,1352,0,0
-364,-328,0,0,0,0,0,0,0,0,0,-1,860,1352,0,0
-357,-328,0,0,0,0,0,0,0,0,0,-1,867,1352,0,0
-350,-328,0,0,0,0,0,0,0,0,0,-1,874,1352,0,0
-343,-328,0,0,0,0,0,0,0,0,0,-1,881,1352,0,0
-336,-328,0,0,0,0,0,0,0,0,0,-1,888,1352,0,0
-329,-328,0,0,0,0,0,0,0,0,0,-1,895,1352,0,0
-322,-328,0,0,0,0,0,0,0,0,0,-1,902,1352,0,0
-315,-328,0,0,0,0,0,0,0,0,0,-1,909,1352,0,0
-308,-328,0,0,0,0,0,0,0,0,0,-1,916,1352,0,0
-301,-328,0,0,0,0,0,0,0,0,0,-1,923,1352,0,0
-294,-328,0,0,0,0,0,0,0,0,0,-1,930,1352,0,0
-287,-328,0,0,0,0,0,0,0,0,0,-1,937,1352,0,0
-280,-328,0,0,0,0,0,0,0,0,0,-1,944,1352,0,0
-273,-328,0,0,0,0,0,0,0,0,0,-1,951,1352,0,0
-266,-328,0,0,0,0,0,0,0,0,0,-1,958,1352,0,0
-259,-328,0,0,0,0,0,0,0,0,0,-1,965,1352,0,0
-252,-328,0,0,0,0,0,0,0,0,0,-1,972,1352,0,0
-245,-328,0,0,0,0,0,0,0,0,0,-1,979,1352,0,0
-238,-328,0,0,0,0,0,0,0,0,0,-1,986,1352,0,0
-231,-328,0,0,0,0,0,0,0,0,0,-1,993,1352,0,0
-224,-328,0,0,0,0,0,0,0,0,0,-1,1000,1352,0,0
-217,-328,0,0,0,0,0,0,0,0,0,-1,1007,1352,0,0
-210,-328,0,0,0,0,0,0,0,0,0,-1,1014,1352,0,0
-203,-328,0,0,0,0,0,0,0,0,0,-1,1021,1352,0,0
-196,-328,0,0,0,0,0,0,0,0,0,-1,1028,1352,0,0
-189,-328,0,0,0,0,0,0,0,0,0,-1,1035,1352,0,0
-182,-328,0,0,0,0,0,0,0,0,0,-1,1042,1352,0,0
-175,-328,0,0,0,0,0,0,0,0,0,-1,1049,1352,0,0
-168,-328,0,0,0,0,0,0,0,0,0,-1,1056,1352,0,0
-161,-328,0,0,0,0,0,0,0,0,0,-1,1063,1352,0,0
-154,-328,0,0,0,0,0,0,0,0,0,-1,1070,1352,0,0
-147,-328,0,0,0,0,0,0,0,0,0,-1,1077,1352,0,0
-140,-328,0,0,0,0,0,0,0,0,0,-1,1084,1352,0,0
-133,-328,0,0,0,0,0,0,0,0,0,-1,1091,1352,0,0
-126,-328,0,0,0,0,0,0,0,0,0,-1,1098,1352,0,0
-119,-328,0,0,0,0,0,0,0,0,0,-1,1105,1352,0,0
-112,-328,0,0,0,0,0,0,0,0,0,-1,1112,1352,0,0
-105,-328,0,0,0,0,0,0,0,0,0,-1,1119,1352,0,0
-98,-328,0,0,0,0,0,0,0,0,0,-1,1126,1352,0,0
-91,-328,0,0,0,0,0,0,0,0,0,-1,1133,1352,0,0
-84,-328,0,0,0,0,0,0,0,0,0,-1,1140,1352,0,0
-77,-328,0,0,0,0,0,0,0,0,0,-1,1147,1352,0,0
-70,-328,0,0,0,0,0,0,0,0,0,-1,1154,1352,0,0
-63,-328,0,0,0,0,0,0,0,0,0,-1,1161,1352,0,0
-56,-328,0,0,0,0,0,0,0,0,0,-1,1168,1352,0,0
-49,-328,0,0,0,0,0,0,0,0,0,-1,1175,1352,0,0
-42,-328,0,0,0,0,0,0,0,0,0,-1,1182,1352,0,0
-35,-328,0,0,0,0,0,0,0,0,0,-1,1189,1352,0,0
-28,-328,0,0,0,0,0,0,0,0,0,-1,1196,1352,0,0
-21,-328,0,0,0,0,0,0,0,0,0,-1,1203,1352,0,0
-14,-328,0,0,0,0,0,0,0,0,0,-1,1210,1352,0,0
-7,-328,0,0,0,0,0,0,0,0,0,-1,1217,1352,0,0
0,-328,0,0,0,0,0,0,0,0,0,-1,1224,1352,0,0
7,-328,0,0,0,0,0,0,0,0,0,-1,1231,1352,0,0
14,-328,0,0,0,0,0,0,0,0,0,-1,1238,1352,0,0
21,-328,0,0,0,0,0,0,0,0,0,-1,1245,1352,0,0
28,-328,0,0,0,0,0,0,0,0,0,-1,1252,1352,0,0
35,-328,0,0,0,0,0,0,0,0,0,-1,1259,1352,0,0
42,-328,0,0,0,0,0,0,0,0,0,-1,1266,1352,0,0
49,-328,0,0,0,0,0,0,0,0,0,-1,1273,1352,0,0
56,-328,0,0,0,0,0,0,0,0,0,-1,1280,1352,0,0
63,-328,0,0,0,0,0,0,0,0,0,-1,1287,1352,0,0
70,-328,0,0,0,0,0,0,0,0,0,-1,1294,1352,0,0
77,-328,0,0,0,0,0,0,0,0,0,-1,1301,1352,0,0
84,-328,0,0,0,0,0,0,0,0,0,-1,1308,1352,0,0
91,-328,0,0,0,0,0,0,0,0,0,-1,1315,1352,0,0
98,-328,0,0,0,0,0,0,0,0,0,-1,1322,1352,0,0
105,-328,0,0,0,0,0,0,0,0,0,-1,1329,1352,0,0
112,-328,0,0,0,0,0,0,0,0,0,-1,1336,1352,0,0
119,-328,0,0,0,0,0,0,0,0,0,-1,1343,1352,0,0
126,-328,0,0,0,0,0,0,0,0,0,-1,1350,1352,0,0
133,-328,0,0,0,0,0,0,0,0,0,-1,1357,1352,0,0
140,-328,0,0,0,0,0,0,0,0,0,-1,1364,1352,0,0
147,-328,0,0,0,0,0,0,0,0,0,-1,1371,1352,0,0
154,-328,0,0,0,0,0,0,0,0,0,-1,1378,1352,0,0
161,-328,0,0,0,0,0,0,0,0,0,-1,1385,1352,0,0
168,-328,0,0,0,0,0,0,0,0,0,-1,1392,1352,0,0
175,-328,0,0,0,0,0,0,0,0,0,-1,1399,1352,0,0
182,-328,0,0,0,0,0,0,0,0,0,-1,1406,1352,0,0
189,-328,0,0,0,0,0,0,0,0,0,-1,1413,1352,0,0
196,-328,0,0,0,0,0,0,0,0,0,-1,1420,1352,0,0
203,-328,0,0,0,0,0,0,0,0,0,-1,1427,1352,0,0
210,-328,0,0,0,0,0,0,0,0,0,-1,1434,1352,0,0
217,-328,0,0,0,0,0,0,0,0,0,-1,1441,1352,0,0
224,-328,0,0,0,0,0,0,0,0,0,-1,1448,1352,0,0
231,-328,0,0,0,0,0,0,0,0,0,-1,1455,1352,0,0
238,-328,0,0,0,0,0,0,0,0,0,-1,1462,1352,0,0
245,-328,0,0,0,0,0,0,0,0,0,-1,1469,1352,0,0
252,-328,0,0,0,0,0,0,0,0,0,-1,1476,1352,0,0
259,-328,0,0,0,0,0,0,0,0,0,-1,1483,1352,0,0
266,-328,0,0,0,0,0,0,0,0,0,-1,1490,1352,0,0
273,-328,0,0,0,0,0,0,0,0,0,-1,1497,1352,0,0
280,-328,0,0,0,0,0,0,0,0,0,-1,1504,1352,0,0
287,-328,0,0,0,0,0,0,0,0,0,-1,1511,1352,0,0
294,-328,0,0,0,0,0,0,0,0,0,-1,1518,1352,0,0
301,-328,0,0,0,0,0,0,0,0,0,-1,1525,1352,0,0
308,-328,0,0,0,0,0,0,0,0,0,-1,1532,1352,0,0
315,-328,0,0,0,0,0,0,0,0,0,-1,1539,1352,0,0
322,-328,0,0,0,0,0,0,0,0,0,-1,1546,1352,0,0
329,-328,0,0,0,0,0,0,0,0,0,-1,1553,1352,0,0
336,-328,0,0,0,0,0,0,0,0,0,-1,1560,1352,0,0
343,-328,0,0,0,0,0,0,0,0,0,-1,1567,1352,0,0
350,-328,0,0,0,0,0,0,0,0,0,-1,1574,1352,0,0
357,-328,0,0,0,0,0,0,0,0,0,-1,1581,1352,0,0
364,-328,0,0,0,0,0,0,0,0,0,-1,1588,1352,0,0
371,-328,0,0,0,0,0,0,0,0,0,-1,1595,1352,0,0
378,-328,0,0,0,0,0,0,0,0,0,-1,1602,1352,0,0
385,-328,0,0,0,0,0,0,0,0,0,-1,1609,1352,0,0
392,-328,0,0,0,0,0,0,0,0,0,-1,1616,1352,0,0
399,-328,0,0,0,0,0,0,0,0,0,-1,1623,1352,0,0
406,-328,0,0,0,0,0,0,0,0,0,-1,1630,1352,0,0
413,-328,0,0,0,0,0,0,0,0,0,-1,1637,1352,0,0
420,-328,0,0,0,0,0,0,0,0,0,-1,1644,1352,0,0
427,-328,0,0,0,0,0,0,0,0,0,-1,1651,1352,0,0
434,-328,0,0,0,0,0,0,0,0,0,-1,1658,1352,0,0
441,-328,0,0,0,0,0,0,0,0,0,-1,1665,1352,0,0
448,-328,0,0,0,0,0,0,0,0,0,-1,1672,1352,0,0
455,-328,0,0,0,0,0,0,0,0,0,-1,1679,1352,0,0
462,-328,0,0,0,0,0,0,0,0,0,-1,1686,1352,0,0
469,-328,0,0,0,0,0,0,0,0,0,-1,1693,1352,0,0
476,-328,0,0,0,0,0,0,0,0,0,-1,1700,1352,0,0
483,-328,0,0,0,0,0,0,0,0,0,-1,1707,1352,0,0
490,-328,0,0,0,0,0,0,0,0,0,-1,1714,1352,0,0
497,-328,0,0,0,0,0,0,0,0,0,-1,1721,1352,0,0
504,-328,0,0,0,0,0,0,0,0,0,-1,1728,1352,0,0
511,-328,0,0,0,0,0,0,0,0,0,-1,1735,1352,0,0
518,-328,0,0,0,0,0,0,0,0,0,-1,1742,1352,0,0
525,-328,0,0,0,0,0,0,0,0,0,-1,1749,1352,0,0
532,-328,0,0,0,0,0,0,0,0,0,-1,1756,1352,0,0
539,-328,0,0,0,0,0,0,0,0,0,-1,1763,1352,0,0
546,-328,0,0,0,0,0,0,0,0,0,-1,1770,1352,0,0
553,-328,0,0,0,0,0,0,0,0,0,-1,1777,1352,0,0
560,-328,0,0,0,0,0,0,0,0,0,-1,1784,1352,0,0
567,-328,0,0,0,0,0,0,0,0,0,-1,1791,1352,0,0
574,-328,35.5333,4.14478,0,0,0,0,0,0,0,-1,1798,1352,35.5333,-4.14481
581,-328,35.269,3.53455,-0.0179193,0.0587119,-0.0699602,0.100162,-0.0593691,-1.03593,0.0931034,0.0429013,1805,1352,35.269,-3.53452
588,-328,34.9541,2.59863,0.0101081,0.0447892,-0.0538443,0.0840163,-0.029119,-0.941179,0.0678336,0.0493047,1812,1352,34.9541,-2.59867
595,-328,34.7501,1.58643,0.0242893,0.0355818,-0.0412275,0.0715479,-0.0116768,-0.853451,0.0520295,0.0483362,1819,1352,34.7501,-1.58645
602,-328,34.0162,1.29675,0,0,0,0,0,0,0,-1,1826,1352,34.0162,-1.29681
609,-328,34.6511,3.51038,0,0,0,0,0,0,0,-1,1833,1352,34.6511,-3.51036
616,-328,30.9546,2.59326,0,0,0,0,0,0,0,-1,1840,1352,30.9546,-2.59329
623,-328,26.8594,6.41528,0,0,0,0,0,0,0,-1,1847,1352,26.8593,-6.41528
630,-328,22.0211,5.026,0,0,0,0,0,0,0,-1,1854,1352,22.0212,-5.02603
637,-328,21.15,5.53699,0,0,0,0,0,0,0,-1,1861,1352,21.15,-5.53704
644,-328,16.9579,6.3396,0,0,0,0,0,0,0,-1,1868,1352,16.9579,-6.33959
651,-328,24.5132,9.90503,0,0,0,0,0,0,0,-1,1875,1352,24.5131,-9.90503
658,-328,24.3398,9.55615,0.0198369,0.000156278,0.0022168,0.0200836,-9.03299e-05,0.110789,0.0134192,0.0337669,1882,1352,24.3398,-9.55614
665,-328,24.3442,9.16711,0.00653438,-0.000365386,0.00101172,0.00667967,-0.000510676,0.142632,0.00463273,0.0140929,1889,1352,24.3443,-9.16711
672,-328,24.3148,8.81641,0.00195404,-0.000199147,0.000200154,0.00197249,-0.000217594,0.0919076,0.0013932,0.012244,1896,1352,24.3148,-8.81635
679,-328,24.3231,8.46179,0.000474262,-6.32132e-05,-6.79803e-05,0.000482727,-7.16781e-05,-0.123882,0.000348179,0.0138695,1903,1352,24.3232,-8.46174
686,-328,24.3051,8.10828,0.000326505,-3.94957e-05,-5.34195e-05,0.000334142,-4.71332e-05,-0.142009,0.00024002,0.0132314,1910,1352,24.305,-8.10834
693,-328,24.2992,7.7478,0.000324288,0.00017031,8.64747e-05,0.000363079,0.000131518,0.421681,0.00021226,0.009536,1917,1352,24.2992,-7.7478
700,-328,24.3032,7.37964,0.000131121,0.000370754,0.000321508,0.000594046,-9.21713e-05,0.963762,0.000430059,0.0138091,1924,1352,24.3032,-7.37966
707,-328,24.3007,7.01526,-0.000305538,0.000675155,0.000645882,0.000995736,-0.000626119,1.11008,0.000944449,0.0159129,1931,1352,24.3007,-7.01531
714,-328,24.3065,6.64294,-0.00117963,0.000990237,0.00122237,0.00153971,-0.0017291,1.14835,0.0018883,0.0152057,1938,1352,24.3066,-6.64289
721,-328,24.1217,6.26648,-0.00250949,0.00144671,0.00207624,0.0023363,-0.00339908,1.166,0.00333022,0.0418985,1945,1352,24.1218,-6.26653
728,-328,24.1923,5.73206,0,0,0,0,0,0,0,-1,1952,1352,24.1923,-5.73209
735,-328,20.8927,5.23523,0,0,0,0,0,0,0,-1,1959,1352,20.8927,-5.23528
742,-328,20.3547,4.11316,0,0,0,0,0,0,0,-1,1966,1352,20.3547,-4.11321
749,-328,20.0669,5.66321,0,0,0,0,0,0,0,-1,1973,1352,20.0669,-5.66319
756,-328,19.9543,5.50464,0,0,0,0,0,0,0,-1,1980,1352,19.9543,-5.50463
763,-328,0,0,0,0,0,0,0,0,0,-1,1987,1352,0,0
770,-328,0,0,0,0,0,0,0,0,0,-1,1994,1352,0,0
777,-328,0,0,0,0,0,0,0,0,0,-1,2001,1352,0,0
784,-328,0,0,0,0,0,0,0,0,0,-1,2008,1352,0,0
791,-328,0,0,0,0,0,0,0,0,0,-1,2015,1352,0,0
798,-328,0,0,0,0,0,0,0,0,0,-1,2022,1352,0,0
805,-328,0,0,0,0,0,0,0,0,0,-1,2029,1352,0,0
812,-328,0,0,0,0,0,0,0,0,0,-1,2036,1352,0,0
-700,-335,0,0,0,0,0,0,0,0,0,-1,524,1359,0,0
-693,-335,0,0,0,0,0,0,0,0,0,-1,531,1359,0,0
-686,-335,0,0,0,0,0,0,0,0,0,-1,538,1359,0,0
-679,-335,0,0,0,0,0,0,0,0,0,-1,545,1359,0,0
-672,-335,0,0,0,0,0,0,0,0,0,-1,552,1359,0,0
-665,-335,0,0,0,0,0,0,0,0,0,-1,559,1359,0,0
-658,-335,0,0,0,0,0,0,0,0,0,-1,566,1359,0,0
-651,-335,0,0,0,0,0,0,0,0,0,-1,573,1359,0,0
-644,-335,0,0,0,0,0,0,0,0,0,-1,580,1359,0,0
-637,-335,-9.64746,3.53809,0,0,0,0,0,0,0,-1,587,1359,-9.64744,-3.53803
-630,-335,-6.07397,-2.99902,0,0,0,0,0,0,0,-1,594,1359,-6.07397,2.99902
-623,-335,-8.43304,1.09509,0,0,0,0,0,0,0,-1,601,1359,-8.43301,-1.09507
-616,-335,-7.80927,-0.485352,0,0,0,0,0,0,0,-1,608,1359,-7.80926,0.485291
-609,-335,-7.12256,-2.03601,0,0,0,0,0,0,0,-1,615,1359,-7.12253,2.03601
-602,-335,-9.39935,2.25146,0,0,0,0,0,0,0,-1,622,1359,-9.39935,-2.25145
-595,-335,-9.54767,3.01917,0,0,0,0,0,0,0,-1,629,1359,-9.54768,-3.01911
-588,-335,-12.569,3.81177,0,0,0,0,0,0,0,-1,636,1359,-12.569,-3.81171
-581,-335,-12.4671,4.40747,-0.00031361,0.00261776,0.000153996,0.00262582,-0.000321678,1.51845,0.00186704,0.033556,643,1359,-12.4671,-4.40742
-574,-335,-12.4661,4.75256,-0.000253503,0.00192403,-8.81204e-06,0.00192406,-0.000253538,-1.56675,0.00137503,0.012653,650,1359,-12.4661,-4.75252
-567,-335,-12.4737,5.18701,0.000191456,0.00142789,5.48018e-05,0.00143031,0.000189032,1.52659,0.000897192,0.0167286,657,1359,-12.4737,-5.18697
-560,-335,-12.4639,5.5426,0.000976063,0.000995816,0.000290674,0.00127678,0.000695098,0.80238,0.000738119,0.0256189,664,1359,-12.4639,-5.54256
-553,-335,-12.4584,5.92188,0.00205892,0.000656856,0.000704527,0.00235177,0.000364004,0.393942,0.0014617,0.0285839,671,1359,-12.4584,-5.92193
-546,-335,-12.4738,6.36279,0.00339893,0.000371194,0.00124054,0.00384228,-7.21648e-05,0.343245,0.00258591,0.0260365,678,1359,-12.4738,-6.36275
-539,-335,-12.4902,6.79089,0.00495017,0.000164681,0.00190533,0.0056161,-0.000501249,0.336238,0.00392184,0.0211873,685,1359,-12.4901,-6.79087
-532,-335,-12.5209,7.22095,0.00680689,3.34356e-05,0.00274775,0.00778136,-0.000941035,0.340805,0.00552801,0.0158175,692,1359,-12.5209,-7.22096
-525,-335,-12.4655,7.64844,0.00897217,-0.000103622,0.00373325,0.0103105,-0.00144192,0.34421,0.00740125,0.0109675,699,1359,-12.4655,-7.64846
-518,-335,-12.4261,8.00464,0.0114735,-9.59411e-05,0.00491657,0.0132806,-0.00190304,0.352225,0.00955148,0.0343677,706,1359,-12.4261,-8.00466
-511,-335,-12.3621,8.3136,0,0,0,0,0,0,0,-1,713,1359,-12.3621,-8.31362
-504,-335,-9.35767,5.99695,0,0,0,0,0,0,0,-1,720,1359,-9.35767,-5.99694
-497,-335,-8.75024,-0.650513,0,0,0,0,0,0,0,-1,727,1359,-8.75024,0.650521
-490,-335,-9.51971,0.417603,0,0,0,0,0,0,0,-1,734,1359,-9.51974,-0.41765
-483,-335,-10.2883,1.29224,0,0,0,0,0,0,0,-1,741,1359,-10.2883,-1.2922
-476,-335,-11.9938,-0.173462,0,0,0,0,0,0,0,-1,748,1359,-11.9938,0.173429
-469,-335,-12.8704,-0.204102,0,0,0,0,0,0,0,-1,755,1359,-12.8704,0.204117
-462,-335,-13.486,0.0218506,0,0,0,0,0,0,0,-1,762,1359,-13.4859,-0.0217908
-455,-335,-14.1504,0.549561,0,0,0,0,0,0,0,-1,769,1359,-14.1504,-0.549583
-448,-335,0,0,0,0,0,0,0,0,0,-1,776,1359,0,0
-441,-335,0,0,0,0,0,0,0,0,0,-1,783,1359,0,0
-434,-335,0,0,0,0,0,0,0,0,0,-1,790,1359,0,0
-427,-335,0,0,0,0,0,0,0,0,0,-1,797,1359,0,0
-420,-335,0,0,0,0,0,0,0,0,0,-1,804,1359,0,0
-413,-335,0,0,0,0,0,0,0,0,0,-1,811,1359,0,0
-406,-335,0,0,0,0,0,0,0,0,0,-1,818,1359,0,0
-399,-335,0,0,0,0,0,0,0,0,0,-1,825,1359,0,0
-392,-335,0,0,0,0,0,0,0,0,0,-1,832,1359,0,0
-385,-335,0,0,0,0,0,0,0,0,0,-1,839,1359,0,0
-378,-335,0,0,0,0,0,0,0,0,0,-1,846,1359,0,0
-371,-335,0,0,0,0,0,0,0,0,0,-1,853,1359,0,0
-364,-335,0,0,0,0,0,0,0,0,0,-1,860,1359,0,0
-357,-335,0,0,0,0,0,0,0,0,0,-1,867,1359,0,0
-350,-335,0,0,0,0,0,0,0,0,0,-1,874,1359,0,0
-343,-335,0,0,0,0,0,0,0,0,0,-1,881,1359,0,0
-336,-335,0,0,0,0,0,0,0,0,0,-1,888,1359,0,0
-329,-335,0,0,0,0,0,0,0,0,0,-1,895,1359,0,0
-322,-335,0,0,0,0,0,0,0,0,0,-1,902,1359,0,0
-315,-335,0,0,0,0,0,0,0,0,0,-1,909,1359,0,0
-308,-335,0,0,0,0,0,0,0,0,0,-1,916,1359,0,0
-301,-335,0,0,0,0,0,0,0,0,0,-1,923,1359,0,0
-294,-335,0,0,0,0,0,0,0,0,0,-1,930,1359,0,0
-287,-335,0,0,0,0,0,0,0,0,0,-1,937,1359,0,0
-280,-335,0,0,0,0,0,0,0,0,0,-1,944,1359,0,0
-273,-335,0,0,0,0,0,0,0,0,0,-1,951,1359,0,0
-266,-335,0,0,0,0,0,0,0,0,0,-1,958,1359,0,0
-259,-335,0,0,0,0,0,0,0,0,0,-1,965,1359,0,0
-252,-335,0,0,0,0,0,0,0,0,0,-1,972,1359,0,0
-245,-335,0,0,0,0,0,0,0,0,0,-1,979,1359,0,0
-238,-335,0,0,0,0,0,0,0,0,0,-1,986,1359,0,0
-231,-335,0,0,0,0,0,0,0,0,0,-1,993,1359,0,0
-224,-335,0,0,0,0,0,0,0,0,0,-1,1000,1359,0,0
-217,-335,0,0,0,0,0,0,0,0,0,-1,1007,1359,0,0
-210,-335,0,0,0,0,0,0,0,0,0,-1,1014,1359,0,0
-203,-335,0,0,0,0,0,0,0,0,0,-1,1021,1359,0,0
-196,-335,0,0,0,0,0,0,0,0,0,-1,1028,1359,0,0
-189,-335,0,0,0,0,0,0,0,0,0,-1,1035,1359,0,0
-182,-335,0,0,0,0,0,0,0,0,0,-1,1042,1359,0,0
-175,-335,0,0,0,0,0,0,0,0,0,-1,1049,1359,0,0
-168,-335,0,0,0,0,0,0,0,0,0,-1,1056,1359,0,0
-161,-335,0,0,0,0,0,0,0,0,0,-1,1063,1359,0,0
-154,-335,0,0,0,0,0,0,0,0,0,-1,1070,1359,0,0
-147,-335,0,0,0,0,0,0,0,0,0,-1,1077,1359,0,0
-140,-335,0,0,0,0,0,0,0,0,0,-1,1084,1359,0,0
-133,-335,0,0,0,0,0,0,0,0,0,-1,1091,1359,0,0
-126,-335,0,0,0,0,0,0,0,0,0,-1,1098,1359,0,0
-119,-335,0,0,0,0,0,0,0,0,0,-1,1105,1359,0,0
-112,-335,0,0,0,0,0,0,0,0,0,-1,1112,1359,0,0
-105,-335,0,0,0,0,0,0,0,0,0,-1,1119,1359,0,0
-98,-335,0,0,0,0,0,0,0,0,0,-1,1126,1359,0,0
-91,-335,0,0,0,0,0,0,0,0,0,-1,1133,1359,0,0
-84,-335,0,0,0,0,0,0,0,0,0,-1,1140,1359,0,0
-77,-335,0,0,0,0,0,0,0,0,0,-1,1147,1359,0,0
-70,-335,0,0,0,0,0,0,0,0,0,-1,1154,1359,0,0
-63,-335,0,0,0,0,0,0,0,0,0,-1,1161,1359,0,0
-56,-335,0,0,0,0,0,0,0,0,0,-1,1168,1359,0,0
-49,-335,0,0,0,0,0,0,0,0,0,-1,1175,1359,0,0
-42,-335,0,0,0,0,0,0,0,0,0,-1,1182,1359,0,0
-35,-335,0,0,0,0,0,0,0,0,0,-1,1189,1359,0,0
-28,-335,0,0,0,0,0,0,0,0,0,-1,1196,1359,0,0
-21,-335,0,0,0,0,0,0,0,0,0,-1,1203,1359,0,0
-14,-335,0,0,0,0,0,0,0,0,0,-1,1210,1359,0,0
-7,-335,0,0,0,0,0,0,0,0,0,-1,1217,1359,0,0
0,-335,0,0,0,0,0,0,0,0,0,-1,1224,1359,0,0
7,-335,0,0,0,0,0,0,0,0,0,-1,1231,1359,0,0
14,-335,0,0,0,0,0,0,0,0,0,-1,1238,1359,0,0
21,-335,0,0,0,0,0,0,0,0,0,-1,1245,1359,0,0
28,-335,0,0,0,0,0,0,0,0,0,-1,1252,1359,0,0
35,-335,0,0,0,0,0,0,0,0,0,-1,1259,1359,0,0
42,-335,0,0,0,0,0,0,0,0,0,-1,1266,1359,0,0
49,-335,0,0,0,0,0,0,0,0,0,-1,1273,1359,0,0
56,-335,0,0,0,0,0,0,0,0,0,-1,1280,1359,0,0
63,-335,0,0,0,0,0,0,0,0,0,-1,1287,1359,0,0
70,-335,0,0,0,0,0,0,0,0,0,-1,1294,1359,0,0
77,-335,0,0,0,0,0,0,0,0,0,-1,1301,1359,0,0
84,-335,0,0,0,0,0,0,0,0,0,-1,1308,1359,0,0
91,-335,0,0,0,0,0,0,0,0,0,-1,1315,1359,0,0
98,-335,0,0,0,0,0,0,0,0,0,-1,1322,1359,0,0
105,-335,0,0,0,0,0,0,0,0,0,-1,1329,1359,0,0
112,-335,0,0,0,0,0,0,0,0,0,-1,1336,1359,0,0
119,-335,0,0,0,0,0,0,0,0,0,-1,1343,1359,0,0
126,-335,0,0,0,0,0,0,0,0,0,-1,1350,1359,0,0
133,-335,0,0,0,0,0,0,0,0,0,-1,1357,1359,0,0
140,-335,0,0,0,0,0,0,0,0,0,-1,1364,1359,0,0
147,-335,0,0,0,0,0,0,0,0,0,-1,1371,1359,0,0
154,-335,0,0,0,0,0,0,0,0,0,-1,1378,1359,0,0
161,-335,0,0,0,0,0,0,0,0,0,-1,1385,1359,0,0
168,-335,0,0,0,0,0,0,0,0,0,-1,1392,1359,0,0
175,-335,0,0,0,0,0,0,0,0,0,-1,1399,1359,0,0
182,-335,0,0,0,0,0,0,0,0,0,-1,1406,1359,0,0
189,-335,0,0,0,0,0,0,0,0,0,-1,1413,1359,0,0
196,-335,0,0,0,0,0,0,0,0,0,-1,1420,1359,0,0
203,-335,0,0,0,0,0,0,0,0,0,-1,1427,1359,0,0
210,-335,0,0,0,0,0,0,0,0,0,-1,1434,1359,0,0
217,-335,0,0,0,0,0,0,0,0,0,-1,1441,1359,0,0
224,-335,0,0,0,0,0,0,0,0,0,-1,1448,1359,0,0
231,-335,0,0,0,0,0,0,0,0,0,-1,1455,1359,0,0
238,-335,0,0,0,0,0,0,0,0,0,-1,1462,1359,0,0
245,-335,0,0,0,0,0,0,0,0,0,-1,1469,1359,0,0
252,-335,0,0,0,0,0,0,0,0,0,-1,1476,1359,0,0
259,-335,0,0,0,0,0,0,0,0,0,-1,1483,1359,0,0
266,-335,0,0,0,0,0,0,0,0,0,-1,1490,1359,0,0
273,-335,0,0,0,0,0,0,0,0,0,-1,1497,1359,0,0
280,-335,0,0,0,0,0,0,0,0,0,-1,1504,1359,0,0
287,-335,0,0,0,0,0,0,0,0,0,-1,1511,1359,0,0
294,-335,0,0,0,0,0,0,0,0,0,-1,1518,1359,0,0
301,-335,0,0,0,0,0,0,0,0,0,-1,1525,1359,0,0
308,-335,0,0,0,0,0,0,0,0,0,-1,1532,1359,0,0
315,-335,0,0,0,0,0,0,0,0,0,-1,1539,1359,0,0
322,-335,0,0,0,0,0,0,0,0,0,-1,1546,1359,0,0
329,-335,0,0,0,0,0,0,0,0,0,-1,1553,1359,0,0
336,-335,0,0,0,0,0,0,0,0,0,-1,1560,1359,0,0
343,-335,0,0,0,0,0,0,0,0,0,-1,1567,1359,0,0
350,-335,0,0,0,0,0,0,0,0,0,-1,1574,1359,0,0
357,-335,0,0,0,0,0,0,0,0,0,-1,1581,1359,0,0
364,-335,0,0,0,0,0,0,0,0,0,-1,1588,1359,0,0
371,-335,0,0,0,0,0,0,0,0,0,-1,1595,1359,0,0
378,-335,0,0,0,0,0,0,0,0,0,-1,1602,1359,0,0
385,-335,0,0,0,0,0,0,0,0,0,-1,1609,1359,0,0
392,-335,0,0,0,0,0,0,0,0,0,-1,1616,1359,0,0
399,-335,0,0,0,0,0,0,0,0,0,-1,1623,1359,0,0
406,-335,0,0,0,0,0,0,0,0,0,-1,1630,1359,0,0
413,-335,0,0,0,0,0,0,0,0,0,-1,1637,1359,0,0
420,-335,0,0,0,0,0,0,0,0,0,-1,1644,1359,0,0
427,-335,0,0,0,0,0,0,0,0,0,-1,1651,1359,0,0
434,-335,0,0,0,0,0,0,0,0,0,-1,1658,1359,0,0
441,-335,0,0,0,0,0,0,0,0,0,-1,1665,1359,0,0
448,-335,0,0,0,0,0,0,0,0,0,-1,1672,1359,0,0
455,-335,0,0,0,0,0,0,0,0,0,-1,1679,1359,0,0
462,-335,0,0,0,0,0,0,0,0,0,-1,1686,1359,0,0
469,-335,0,0,0,0,0,0,0,0,0,-1,1693,1359,0,0
476,-335,0,0,0,0,0,0,0,0,0,-1,1700,1359,0,0
483,-335,0,0,0,0,0,0,0,0,0,-1,1707,1359,0,0
490,-335,0,0,0,0,0,0,0,0,0,-1,1714,1359,0,0
497,-335,0,0,0,0,0,0,0,0,0,-1,1721,1359,0,0
504,-335,0,0,0,0,0,0,0,0,0,-1,1728,1359,0,0
511,-335,0,0,0,0,0,0,0,0,0,-1,1735,1359,0,0
518,-335,0,0,0,0,0,0,0,0,0,-1,1742,1359,0,0
525,-335,0,0,0,0,0,0,0,0,0,-1,1749,1359,0,0
532,-335,0,0,0,0,0,0,0,0,0,-1,1756,1359,0,0
539,-335,0,0,0,0,0,0,0,0,0,-1,1763,1359,0,0
546,-335,0,0,0,0,0,0,0,0,0,-1,1770,1359,0,0
553,-335,0,0,0,0,0,0,0,0,0,-1,1777,1359,0,0
560,-335,0,0,0,0,0,0,0,0,0,-1,1784,1359,0,0
567,-335,0,0,0,0,0,0,0,0,0,-1,1791,1359,0,0
574,-335,34.9928,4.15149,0,0,0,0,0,0,0,-1,1798,1359,34.9927,-4.15143
581,-335,34.8635,3.40503,-0.0106578,0.0611457,-0.0756864,0.109014,-0.0585258,-1.00686,0.098182,0.0420676,1805,1359,34.8635,-3.40499
588,-335,34.8359,2.43542,0.00811211,0.0476678,-0.0598053,0.0908807,-0.0351008,-0.945089,0.0750744,0.045621,1812,1359,34.8359,-2.43547
595,-335,34.6606,1.38843,0,0,0,0,0,0,0,-1,1819,1359,34.6607,-1.38845
602,-335,36.3344,3.88892,0,0,0,0,0,0,0,-1,1826,1359,36.3343,-3.88897
609,-335,30.826,4.40063,0,0,0,0,0,0,0,-1,1833,1359,30.826,-4.40063
616,-335,28.298,5.98853,0,0,0,0,0,0,0,-1,1840,1359,28.298,-5.98849
623,-335,26.6051,6.54333,0,0,0,0,0,0,0,-1,1847,1359,26.6051,-6.54339
630,-335,19.1707,1.00952,0,0,0,0,0,0,0,-1,1854,1359,19.1707,-1.00953
637,-335,18.2009,6.65454,0,0,0,0,0,0,0,-1,1861,1359,18.2009,-6.6546
644,-335,23.8501,10.2943,0,0,0,0,0,0,0,-1,1868,1359,23.8501,-10.2944
651,-335,23.807,9.9635,0,0,0,0,0,0,0,-1,1875,1359,23.807,-9.96347
658,-335,23.9309,9.61121,0.0150673,0.000569058,0.0012076,0.0151672,0.000469162,0.0825347,0.00995879,0.021241,1882,1359,23.9309,-9.61115
665,-335,23.957,9.19775,0.00377928,1.90299e-05,0.000287118,0.00380107,-2.76696e-06,0.0757708,0.00253497,0.0146347,1889,1359,23.9571,-9.1977
672,-335,23.9514,8.81543,0.00102785,4.79547e-05,-0.000133585,0.00104574,3.00701e-05,-0.133091,0.000687355,0.0174788,1896,1359,23.9514,-8.81547
679,-335,23.9651,8.47986,0.000455178,6.13585e-05,-0.00019604,0.000536127,-1.95902e-05,-0.391593,0.000364124,0.0146054,1903,1359,23.965,-8.47986
686,-335,23.975,8.12683,0.000565579,2.77117e-05,-9.46932e-05,0.000581763,1.15276e-05,-0.169275,0.000384057,0.0119133,1910,1359,23.975,-8.12678
693,-335,23.9515,7.74341,0.000659029,0.000200934,2.89386e-05,0.00066085,0.000199113,0.0628387,0.000391456,0.0103761,1917,1359,23.9516,-7.74343
700,-335,23.9233,7.38623,0.00059425,0.000394814,0.000213996,0.000730621,0.000258444,0.567366,0.000427798,0.0113716,1924,1359,23.9234,-7.38626
707,-335,23.9115,7.01135,0.000274268,0.000720186,0.000470288,0.00101769,-2.32355e-05,1.00675,0.000686336,0.0145822,1931,1359,23.9115,-7.01135
714,-335,23.9467,6.52979,-0.000512646,0.00103127,0.00102583,0.00154316,-0.00102453,1.10795,0.0014925,0.0301658,1938,1359,23.9467,-6.52982
721,-335,23.9199,5.9856,0,0,0,0,0,0,0,-1,1945,1359,23.9199,-5.98559
728,-335,20.8126,5.21167,0,0,0,0,0,0,0,-1,1952,1359,20.8127,-5.21172
735,-335,20.2725,5.34729,0,0,0,0,0,0,0,-1,1959,1359,20.2724,-5.34734
742,-335,19.8624,4.72229,0,0,0,0,0,0,0,-1,1966,1359,19.8624,-4.72225
749,-335,20.5887,6.05322,0,0,0,0,0,0,0,-1,1973,1359,20.5887,-6.05322
756,-335,20.7832,6.00452,0,0,0,0,0,0,0,-1,1980,1359,20.7832,-6.00447
763,-335,0,0,0,0,0,0,0,0,0,-1,1987,1359,0,0
770,-335,0,0,0,0,0,0,0,0,0,-1,1994,1359,0,0
777,-335,0,0,0,0,0,0,0,0,0,-1,2001,1359,0,0
784,-335,0,0,0,0,0,0,0,0,0,-1,2008,1359,0,0
791,-335,0,0,0,0,0,0,0,0,0,-1,2015,1359,0,0
798,-335,0,0,0,0,0,0,0,0,0,-1,2022,1359,0,0
805,-335,0,0,0,0,0,0,0,0,0,-1,2029,1359,0,0
812,-335,0,0,0,0,0,0,0,0,0,-1,2036,1359,0,0
-700,-342,0,0,0,0,0,0,0,0,0,-1,524,1366,0,0
-693,-342,0,0,0,0,0,0,0,0,0,-1,531,1366,0,0
-686,-342,0,0,0,0,0,0,0,0,0,-1,538,1366,0,0
-679,-342,0,0,0,0,0,0,0,0,0,-1,545,1366,0,0
-672,-342,0,0,0,0,0,0,0,0,0,-1,552,1366,0,0
-665,-342,0,0,0,0,0,0,0,0,0,-1,559,1366,0,0
-658,-342,0,0,0,0,0,0,0,0,0,-1,566,1366,0,0
-651,-342,0,0,0,0,0,0,0,0,0,-1,573,1366,0,0
-644,-342,0,0,0,0,0,0,0,0,0,-1,580,1366,0,0
-637,-342,-8.67786,-4.58557,0,0,0,0,0,0,0,-1,587,1366,-8.67788,4.5856
-630,-342,-8.60132,2.71777,0,0,0,0,0,0,0,-1,594,1366,-8.60135,-2.71779
-623,-342,-8.41168,0.662476,0,0,0,0,0,0,0,-1,601,1366,-8.41168,-0.662442
-616,-342,-6.625,-1.28015,0,0,0,0,0,0,0,-1,608,1366,-6.62499,1.28011
-609,-342,-7.83154,0.674561,0,0,0,0,0,0,0,-1,615,1366,-7.83155,-0.674598
-602,-342,-9.65765,2.25195,0,0,0,0,0,0,0,-1,622,1366,-9.65767,-2.25192
-595,-342,-9.47687,3.00671,0,0,0,0,0,0,0,-1,629,1366,-9.47686,-3.00668
-588,-342,-9.78467,3.57727,0,0,0,0,0,0,0,-1,636,1366,-9.78468,-3.57723
-581,-342,-12.1744,4.39514,0,0,0,0,0,0,0,-1,643,1366,-12.1744,-4.39511
-574,-342,-12.0999,4.7666,-0.00158563,0.0021534,-0.000615889,0.00225224,-0.00168447,-1.41168,0.00228073,0.0138882,650,1366,-12.0999,-4.76665
-567,-342,-12.0613,5.17908,-0.000943118,0.00162971,-0.000436406,0.00170172,-0.00101513,-1.40727,0.00158518,0.0165932,657,1366,-12.0613,-5.17908
-560,-342,-12.1019,5.53088,1.82787e-06,0.00114968,-0.000116576,0.0011614,-9.89193e-06,-1.4706,0.000777587,0.0250484,664,1366,-12.1019,-5.53084
-553,-342,-12.1358,5.89087,0.00122755,0.000786099,0.000387085,0.00145242,0.00056123,0.526277,0.000845739,0.0279042,671,1366,-12.1358,-5.89092
-546,-342,-12.159,6.33704,0.00266696,0.000498673,0.00100579,0.00306165,0.000103974,0.373962,0.00200734,0.0280615,678,1366,-12.159,-6.33706
-539,-342,-12.1187,6.83032,0.0042642,0.000319347,0.00174095,0.00492263,-0.00033908,0.361572,0.00340042,0.0233973,685,1366,-12.1187,-6.83033
-532,-342,-12.1342,7.25891,0.00606509,0.000216878,0.00260663,0.00705824,-0.000776277,0.36403,0.00498444,0.0174995,692,1366,-12.1342,-7.25892
-525,-342,-12.0773,7.67627,0.00809814,0.000187935,0.00361198,0.00949927,-0.00121319,0.370042,0.00677356,0.0118836,699,1366,-12.0774,-7.67629
-518,-342,-12.0326,8.09741,0.0103858,0.000334515,0.00479452,0.012306,-0.00158568,0.380934,0.0087804,0.0228972,706,1366,-12.0326,-8.09739
-511,-342,-12.0536,8.49512,0,0,0,0,0,0,0,-1,713,1366,-12.0536,-8.49506
-504,-342,-8.95709,6.5719,0,0,0,0,0,0,0,-1,720,1366,-8.95707,-6.57192
-497,-342,-8.26587,-0.943604,0,0,0,0,0,0,0,-1,727,1366,-8.26586,0.943543
-490,-342,-9.07153,-0.0227051,0,0,0,0,0,0,0,-1,734,1366,-9.07155,0.0227087
-483,-342,-9.87726,0.898071,0,0,0,0,0,0,0,-1,741,1366,-9.87724,-0.898125
-476,-342,-11.6371,-0.736328,0,0,0,0,0,0,0,-1,748,1366,-11.6371,0.736281
-469,-342,-12.6245,-0.987549,0,0,0,0,0,0,0,-1,755,1366,-12.6245,0.987553
-462,-342,-13.0912,-0.533203,0,0,0,0,0,0,0,-1,762,1366,-13.0912,0.533224
-455,-342,-13.7612,0.122925,0,0,0,0,0,0,0,-1,769,1366,-13.7612,-0.122896
-448,-342,-14.5278,0.826904,0,0,0,0,0,0,0,-1,776,1366,-14.5277,-0.826861
-441,-342,0,0,0,0,0,0,0,0,0,-1,783,1366,0,0
-434,-342,0,0,0,0,0,0,0,0,0,-1,790,1366,0,0
-427,-342,0,0,0,0,0,0,0,0,0,-1,797,1366,0,0
-420,-342,0,0,0,0,0,0,0,0,0,-1,804,1366,0,0
-413,-342,0,0,0,0,0,0,0,0,0,-1,811,1366,0,0
-406,-342,0,0,0,0,0,0,0,0,0,-1,818,1366,0,0
-399,-342,0,0,0,0,0,0,0,0,0,-1,825,1366,0,0
-392,-342,0,0,0,0,0,0,0,0,0,-1,832,1366,0,0
-385,-342,0,0,0,0,0,0,0,0,0,-1,839,1366,0,0
-378,-342,0,0,0,0,0,0,0,0,0,-1,846,1366,0,0
-371,-342,0,0,0,0,0,0,0,0,0,-1,853,1366,0,0
-364,-342,0,0,0,0,0,0,0,0,0,-1,860,1366,0,0
-357,-342,0,0,0,0,0,0,0,0,0,-1,867,1366,0,0
-350,-342,0,0,0,0,0,0,0,0,0,-1,874,1366,0,0
-343,-342,0,0,0,0,0,0,0,0,0,-1,881,1366,0,0
-336,-342,0,0,0,0,0,0,0,0,0,-1,888,1366,0,0
-329,-342,0,0,0,0,0,0,0,0,0,-1,895,1366,0,0
-322,-342,0,0,0,0,0,0,0,0,0,-1,902,1366,0,0
-315,-342,0,0,0,0,0,0,0,0,0,-1,909,1366,0,0
-308,-342,0,0,0,0,0,0,0,0,0,-1,916,1366,0,0
-301,-342,0,0,0,0,0,0,0,0,0,-1,923,1366,0,0
-294,-342,0,0,0,0,0,0,0,0,0,-1,930,1366,0,0
-287,-342,0,0,0,0,0,0,0,0,0,-1,937,1366,0,0
-280,-342,0,0,0,0,0,0,0,0,0,-1,944,1366,0,0
-273,-342,0,0,0,0,0,0,0,0,0,-1,951,1366,0,0
-266,-342,0,0,0,0,0,0,0,0,0,-1,958,1366,0,0
-259,-342,0,0,0,0,0,0,0,0,0,-1,965,1366,0,0
-252,-342,0,0,0,0,0,0,0,0,0,-1,972,1366,0,0
-245,-342,0,0,0,0,0,0,0,0,0,-1,979,1366,0,0
-238,-342,0,0,0,0,0,0,0,0,0,-1,986,1366,0,0
-231,-342,0,0,0,0,0,0,0,0,0,-1,993,1366,0,0
-224,-342,0,0,0,0,0,0,0,0,0,-1,1000,1366,0,0
-217,-342,0,0,0,0,0,0,0,0,0,-1,1007,1366,0,0
-210,-342,0,0,0,0,0,0,0,0,0,-1,1014,1366,0,0
-203,-342,0,0,0,0,0,0,0,0,0,-1,1021,1366,0,0
-196,-342,0,0,0,0,0,0,0,0,0,-1,1028,1366,0,0
-189,-342,0,0,0,0,0,0,0,0,0,-1,1035,1366,0,0
-182,-342,0,0,0,0,0,0,0,0,0,-1,1042,1366,0,0
-175,-342,0,0,0,0,0,0,0,0,0,-1,1049,1366,0,0
-168,-342,0,0,0,0,0,0,0,0,0,-1,1056,1366,0,0
-161,-342,0,0,0,0,0,0,0,0,0,-1,1063,1366,0,0
-154,-342,0,0,0,0,0,0,0,0,0,-1,1070,1366,0,0
-147,-342,0,0,0,0,0,0,0,0,0,-1,1077,1366,0,0
-140,-342,0,0,0,0,0,0,0,0,0,-1,1084,1366,0,0
-133,-342,0,0,0,0,0,0,0,0,0,-1,1091,1366,0,0
-126,-342,0,0,0,0,0,0,0,0,0,-1,1098,1366,0,0
-119,-342,0,0,0,0,0,0,0,0,0,-1,1105,1366,0,0
-112,-342,0,0,0,0,0,0,0,0,0,-1,1112,1366,0,0
-105,-342,0,0,0,0,0,0,0,0,0,-1,1119,1366,0,0
-98,-342,0,0,0,0,0,0,0,0,0,-1,1126,1366,0,0
-91,-342,0,0,0,0,0,0,0,0,0,-1,1133,1366,0,0
-84,-342,0,0,0,0,0,0,0,0,0,-1,1140,1366,0,0
-77,-342,0,0,0,0,0,0,0,0,0,-1,1147,1366,0,0
-70,-342,0,0,0,0,0,0,0,0,0,-1,1154,1366,0,0
-63,-342,0,0,0,0,0,0,0,0,0,-1,1161,1366,0,0
-56,-342,0,0,0,0,0,0,0,0,0,-1,1168,1366,0,0
-49,-342,0,0,0,0,0,0,0,0,0,-1,1175,1366,0,0
-42,-342,0,0,0,0,0,0,0,0,0,-1,1182,1366,0,0
-35,-342,0,0,0,0,0,0,0,0,0,-1,1189,1366,0,0
-28,-342,0,0,0,0,0,0,0,0,0,-1,1196,1366,0,0
-21,-342,0,0,0,0,0,0,0,0,0,-1,1203,1366,0,0
-14,-342,0,0,0,0,0,0,0,0,0,-1,1210,1366,0,0
-7,-342,0,0,0,0,0,0,0,0,0,-1,1217,1366,0,0
0,-342,0,0,0,0,0,0,0,0,0,-1,1224,1366,0,0
7,-342,0,0,0,0,0,0,0,0,0,-1,1231,1366,0,0
14,-342,0,0,0,0,0,0,0,0,0,-1,1238,1366,0,0
21,-342,0,0,0,0,0,0,0,0,0,-1,1245,1366,0,0
28,-342,0,0,0,0,0,0,0,0,0,-1,1252,1366,0,0
35,-342,0,0,0,0,0,0,0,0,0,-1,1259,1366,0,0
42,-342,0,0,0,0,0,0,0,0,0,-1,1266,1366,0,0
49,-342,0,0,0,0,0,0,0,0,0,-1,1273,1366,0,0
56,-342,0,0,0,0,0,0,0,0,0,-1,1280,1366,0,0
63,-342,0,0,0,0,0,0,0,0,0,-1,1287,1366,0,0
70,-342,0,0,0,0,0,0,0,0,0,-1,1294,1366,0,0
77,-342,0,0,0,0,0,0,0,0,0,-1,1301,1366,0,0
84,-342,0,0,0,0,0,0,0,0,0,-1,1308,1366,0,0
91,-342,0,0,0,0,0,0,0,0,0,-1,1315,1366,0,0
98,-342,0,0,0,0,0,0,0,0,0,-1,1322,1366,0,0
105,-342,0,0,0,0,0,0,0,0,0,-1,1329,1366,0,0
112,-342,0,0,0,0,0,0,0,0,0,-1,1336,1366,0,0
119,-342,0,0,0,0,0,0,0,0,0,-1,1343,1366,0,0
126,-342,0,0,0,0,0,0,0,0,0,-1,1350,1366,0,0
133,-342,0,0,0,0,0,0,0,0,0,-1,1357,1366,0,0
140,-342,0,0,0,0,0,0,0,0,0,-1,1364,1366,0,0
147,-342,0,0,0,0,0,0,0,0,0,-1,1371,1366,0,0
154,-342,0,0,0,0,0,0,0,0,0,-1,1378,1366,0,0
161,-342,0,0,0,0,0,0,0,0,0,-1,1385,1366,0,0
168,-342,0,0,0,0,0,0,0,0,0,-1,1392,1366,0,0
175,-342,0,0,0,0,0,0,0,0,0,-1,1399,1366,0,0
182,-342,0,0,0,0,0,0,0,0,0,-1,1406,1366,0,0
189,-342,0,0,0,0,0,0,0,0,0,-1,1413,1366,0,0
196,-342,0,0,0,0,0,0,0,0,0,-1,1420,1366,0,0
203,-342,0,0,0,0,0,0,0,0,0,-1,1427,1366,0,0
210,-342,0,0,0,0,0,0,0,0,0,-1,1434,1366,0,0
217,-342,0,0,0,0,0,0,0,0,0,-1,1441,1366,0,0
224,-342,0,0,0,0,0,0,0,0,0,-1,1448,1366,0,0
231,-342,0,0,0,0,0,0,0,0,0,-1,1455,1366,0,0
238,-342,0,0,0,0,0,0,0,0,0,-1,1462,1366,0,0
245,-342,0,0,0,0,0,0,0,0,0,-1,1469,1366,0,0
252,-342,0,0,0,0,0,0,0,0,0,-1,1476,1366,0,0
259,-342,0,0,0,0,0,0,0,0,0,-1,1483,1366,0,0
266,-342,0,0,0,0,0,0,0,0,0,-1,1490,1366,0,0
273,-342,0,0,0,0,0,0,0,0,0,-1,1497,1366,0,0
280,-342,0,0,0,0,0,0,0,0,0,-1,1504,1366,0,0
287,-342,0,0,0,0,0,0,0,0,0,-1,1511,1366,0,0
294,-342,0,0,0,0,0,0,0,0,0,-1,1518,1366,0,0
301,-342,0,0,0,0,0,0,0,0,0,-1,1525,1366,0,0
308,-342,0,0,0,0,0,0,0,0,0,-1,1532,1366,0,0
315,-342,0,0,0,0,0,0,0,0,0,-1,1539,1366,0,0
322,-342,0,0,0,0,0,0,0,0,0,-1,1546,1366,0,0
329,-342,0,0,0,0,0,0,0,0,0,-1,1553,1366,0,0
336,-342,0,0,0,0,0,0,0,0,0,-1,1560,1366,0,0
343,-342,0,0,0,0,0,0,0,0,0,-1,1567,1366,0,0
350,-342,0,0,0,0,0,0,0,0,0,-1,1574,1366,0,0
357,-342,0,0,0,0,0,0,0,0,0,-1,1581,1366,0,0
364,-342,0,0,0,0,0,0,0,0,0,-1,1588,1366,0,0
371,-342,0,0,0,0,0,0,0,0,0,-1,1595,1366,0,0
378,-342,0,0,0,0,0,0,0,0,0,-1,1602,1366,0,0
385,-342,0,0,0,0,0,0,0,0,0,-1,1609,1366,0,0
392,-342,0,0,0,0,0,0,0,0,0,-1,1616,1366,0,0
399,-342,0,0,0,0,0,0,0,0,0,-1,1623,1366,0,0
406,-342,0,0,0,0,0,0,0,0,0,-1,1630,1366,0,0
413,-342,0,0,0,0,0,0,0,0,0,-1,1637,1366,0,0
420,-342,0,0,0,0,0,0,0,0,0,-1,1644,1366,0,0
427,-342,0,0,0,0,0,0,0,0,0,-1,1651,1366,0,0
434,-342,0,0,0,0,0,0,0,0,0,-1,1658,1366,0,0
441,-342,0,0,0,0,0,0,0,0,0,-1,1665,1366,0,0
448,-342,0,0,0,0,0,0,0,0,0,-1,1672,1366,0,0
455,-342,0,0,0,0,0,0,0,0,0,-1,1679,1366,0,0
462,-342,0,0,0,0,0,0,0,0,0,-1,1686,1366,0,0
469,-342,0,0,0,0,0,0,0,0,0,-1,1693,1366,0,0
476,-342,0,0,0,0,0,0,0,0,0,-1,1700,1366,0,0
483,-342,0,0,0,0,0,0,0,0,0,-1,1707,1366,0,0
490,-342,0,0,0,0,0,0,0,0,0,-1,1714,1366,0,0
497,-342,0,0,0,0,0,0,0,0,0,-1,1721,1366,0,0
504,-342,0,0,0,0,0,0,0,0,0,-1,1728,1366,0,0
511,-342,0,0,0,0,0,0,0,0,0,-1,1735,1366,0,0
518,-342,0,0,0,0,0,0,0,0,0,-1,1742,1366,0,0
525,-342,0,0,0,0,0,0,0,0,0,-1,1749,1366,0,0
532,-342,0,0,0,0,0,0,0,0,0,-1,1756,1366,0,0
539,-342,0,0,0,0,0,0,0,0,0,-1,1763,1366,0,0
546,-342,0,0,0,0,0,0,0,0,0,-1,1770,1366,0,0
553,-342,0,0,0,0,0,0,0,0,0,-1,1777,1366,0,0
560,-342,0,0,0,0,0,0,0,0,0,-1,1784,1366,0,0
567,-342,35.4581,5.60889,-0.033462,0.100135,-0.116583,0.1677,-0.101027,-1.04555,0.156733,0.0466369,1791,1366,35.4581,-5.6089
574,-342,35.1605,4.25122,-0.0251868,0.0805327,-0.0980283,0.139045,-0.0836989,-1.03267,0.129918,0.0468755,1798,1366,35.1605,-4.25123
581,-342,34.7644,3.17712,-0.0117971,0.0632915,-0.0805473,0.114615,-0.0631203,-1.00349,0.104041,0.045103,1805,1366,34.7644,-3.17708
588,-342,34.6512,2.19006,-0.0012655,0.051056,-0.0652256,0.0951716,-0.0453811,-0.976117,0.082828,0.0455721,1812,1366,34.6513,-2.19011
595,-342,34.5305,1.15149,0,0,0,0,0,0,0,-1,1819,1366,34.5305,-1.15149
602,-342,31.0818,5.28552,0,0,0,0,0,0,0,-1,1826,1366,31.0818,-5.28547
609,-342,29.3829,5.81714,0,0,0,0,0,0,0,-1,1833,1366,29.3829,-5.81711
616,-342,27.7058,6.33801,0,0,0,0,0,0,0,-1,1840,1366,27.7058,-6.33796
623,-342,26.0299,6.86865,0,0,0,0,0,0,0,-1,1847,1366,26.0299,-6.86863
630,-342,17.3431,0.773071,0,0,0,0,0,0,0,-1,1854,1366,17.3432,-0.773095
637,-342,16.196,6.76172,0,0,0,0,0,0,0,-1,1861,1366,16.1961,-6.76174
644,-342,23.5189,10.3448,0,0,0,0,0,0,0,-1,1868,1366,23.519,-10.3449
651,-342,23.6188,10.0157,0.0185106,0.00204986,0.00175602,0.0186958,0.00186462,0.105103,0.0118912,0.0334529,1875,1366,23.6188,-10.0157
658,-342,23.5795,9.60083,0.0102706,0.000774387,0.000383149,0.010286,0.000758952,0.0402605,0.00661887,0.0194367,1882,1366,23.5795,-9.60082
665,-342,23.5892,9.19507,0.0017398,0.000252737,-0.000184967,0.00176246,0.000230076,-0.12191,0.00110629,0.0166067,1889,1366,23.5893,-9.19508
672,-342,23.5979,8.84424,0.000561154,0.000153019,-0.00025999,0.000687599,2.65739e-05,-0.452664,0.000449803,0.0128519,1896,1366,23.5979,-8.8442
679,-342,23.5857,8.49402,0.000580407,5.66632e-05,-0.000171078,0.000631336,5.73383e-06,-0.289342,0.000418992,0.013326,1903,1366,23.5857,-8.49403
686,-342,23.5939,8.15405,0.000818805,-3.34084e-05,-3.07137e-05,0.00081991,-3.45139e-05,-0.0359778,0.000558467,0.0118213,1910,1366,23.5939,-8.15408
693,-342,23.5743,7.76123,0.000995802,7.42158e-05,8.25343e-05,0.00100314,6.68827e-05,0.088617,0.000647615,0.0119943,1917,1366,23.5744,-7.76125
700,-342,23.5439,7.38794,0.00106367,0.000242983,0.000213431,0.00111586,0.000190796,0.23981,0.000689168,0.013988,1924,1366,23.544,-7.38793
707,-342,23.5499,6.98999,0.000851633,0.000561337,0.000396762,0.00112896,0.000284007,0.610044,0.000678097,0.0135561,1931,1366,23.5499,-6.99003
714,-342,23.6069,6.59778,0,0,0,0,0,0,0,-1,1938,1366,23.6069,-6.59781
721,-342,22.4666,6.08679,0,0,0,0,0,0,0,-1,1945,1366,22.4666,-6.08678
728,-342,19.8912,5.26636,0,0,0,0,0,0,0,-1,1952,1366,19.8913,-5.26636
735,-342,19.481,4.41968,0,0,0,0,0,0,0,-1,1959,1366,19.4809,-4.41962
742,-342,19.309,2.66943,0,0,0,0,0,0,0,-1,1966,1366,19.3089,-2.66948
749,-342,21.0934,6.47729,0,0,0,0,0,0,0,-1,1973,1366,21.0934,-6.4773
756,-342,0,0,0,0,0,0,0,0,0,-1,1980,1366,0,0
763,-342,0,0,0,0,0,0,0,0,0,-1,1987,1366,0,0
770,-342,0,0,0,0,0,0,0,0,0,-1,1994,1366,0,0
777,-342,0,0,0,0,0,0,0,0,0,-1,2001,1366,0,0
784,-342,0,0,0,0,0,0,0,0,0,-1,2008,1366,0,0
791,-342,0,0,0,0,0,0,0,0,0,-1,2015,1366,0,0
798,-342,0,0,0,0,0,0,0,0,0,-1,2022,1366,0,0
805,-342,0,0,0,0,0,0,0,0,0,-1,2029,1366,0,0
812,-342,0,0,0,0,0,0,0,0,0,-1,2036,1366,0,0
-700,-349,0,0,0,0,0,0,0,0,0,-1,524,1373,0,0
-693,-349,0,0,0,0,0,0,0,0,0,-1,531,1373,0,0
-686,-349,0,0,0,0,0,0,0,0,0,-1,538,1373,0,0
-679,-349,0,0,0,0,0,0,0,0,0,-1,545,1373,0,0
-672,-349,0,0,0,0,0,0,0,0,0,-1,552,1373,0,0
-665,-349,0,0,0,0,0,0,0,0,0,-1,559,1373,0,0
-658,-349,0,0,0,0,0,0,0,0,0,-1,566,1373,0,0
-651,-349,0,0,0,0,0,0,0,0,0,-1,573,1373,0,0
-644,-349,0,0,0,0,0,0,0,0,0,-1,580,1373,0,0
-637,-349,0,0,0,0,0,0,0,0,0,-1,587,1373,0,0
-630,-349,-7.64117,-5.06177,0,0,0,0,0,0,0,-1,594,1373,-7.64118,5.0618
-623,-349,-8.63507,0.51123,0,0,0,0,0,0,0,-1,601,1373,-8.63505,-0.511275
-616,-349,-5.2066,-0.188232,0,0,0,0,0,0,0,-1,608,1373,-5.20659,0.188211
-609,-349,-7.12073,1.37048,0,0,0,0,0,0,0,-1,615,1373,-7.12072,-1.37044
-602,-349,-9.00623,3.39587,0,0,0,0,0,0,0,-1,622,1373,-9.0062,-3.39591
-595,-349,-9.50568,2.96912,0,0,0,0,0,0,0,-1,629,1373,-9.50569,-2.96906
-588,-349,-8.60046,3.56042,0,0,0,0,0,0,0,-1,636,1373,-8.60046,-3.56047
-581,-349,-11.6191,4.37463,0,0,0,0,0,0,0,-1,643,1373,-11.6191,-4.37458
-574,-349,-11.6492,4.73376,-0.00309835,0.00257233,-0.00141143,0.00290421,-0.00343023,-1.33985,0.00366139,0.0291235,650,1373,-11.6492,-4.73373
-567,-349,-11.679,5.18823,-0.00221858,0.00197643,-0.00105948,0.00222883,-0.00247097,-1.33693,0.00271463,0.0169617,657,1373,-11.679,-5.18821
-560,-349,-11.7018,5.60583,-0.0011056,0.00140795,-0.000637329,0.00156031,-0.00125796,-1.33613,0.00163025,0.021044,664,1373,-11.7018,-5.60584
-553,-349,-11.7653,5.97083,0.000259153,0.000989085,-3.9906e-05,0.00099126,0.000256977,-1.51634,0.000594008,0.0267646,671,1373,-11.7653,-5.97085
-546,-349,-11.7654,6.38379,0.00177096,0.000674684,0.000654797,0.00207676,0.000368881,0.436916,0.0012794,0.0281972,678,1373,-11.7654,-6.38382
-539,-349,-11.7298,6.84216,0.00340259,0.000485932,0.0014412,0.00399457,-0.000106051,0.389746,0.00269909,0.0218646,685,1373,-11.7298,-6.84214
-532,-349,-11.7281,7.26233,0.00519071,0.000405485,0.0023419,0.0061461,-0.000549898,0.387343,0.00429246,0.0164801,692,1373,-11.7282,-7.2623
-525,-349,-11.6976,7.68689,0.00713314,0.000445722,0.00336211,0.00853118,-0.000952314,0.394071,0.00603001,0.0129645,699,1373,-11.6976,-7.68689
-518,-349,-11.6749,8.12268,0.0092849,0.00067557,0.00454504,0.0112402,-0.00127976,0.406277,0.00795446,0.0164619,706,1373,-11.6749,-8.1227
-511,-349,-11.6359,8.55408,0,0,0,0,0,0,0,-1,713,1373,-11.6359,-8.55412
-504,-349,-9.60516,7.88831,0,0,0,0,0,0,0,-1,720,1373,-9.60519,-7.88825
-497,-349,-7.9339,5.58789,0,0,0,0,0,0,0,-1,727,1373,-7.93388,-5.58785
-490,-349,-8.73969,-0.503784,0,0,0,0,0,0,0,-1,734,1373,-8.73966,0.503752
-483,-349,-5.66974,3.7395,0,0,0,0,0,0,0,-1,741,1373,-5.66975,-3.73949
-476,-349,-10.8496,1.15759,0,0,0,0,0,0,0,-1,748,1373,-10.8496,-1.15756
-469,-349,-12.3314,-1.74878,0,0,0,0,0,0,0,-1,755,1373,-12.3314,1.74882
-462,-349,-12.6559,-0.995361,0,0,0,0,0,0,0,-1,762,1373,-12.656,0.995351
-455,-349,-13.2897,-0.234253,0,0,0,0,0,0,0,-1,769,1373,-13.2897,0.234261
-448,-349,-14.045,0.712891,0,0,0,0,0,0,0,-1,776,1373,-14.045,-0.712838
-441,-349,0,0,0,0,0,0,0,0,0,-1,783,1373,0,0
-434,-349,0,0,0,0,0,0,0,0,0,-1,790,1373,0,0
-427,-349,0,0,0,0,0,0,0,0,0,-1,797,1373,0,0
-420,-349,0,0,0,0,0,0,0,0,0,-1,804,1373,0,0
-413,-349,0,0,0,0,0,0,0,0,0,-1,811,1373,0,0
-406,-349,0,0,0,0,0,0,0,0,0,-1,818,1373,0,0
-399,-349,0,0,0,0,0,0,0,0,0,-1,825,1373,0,0
-392,-349,0,0,0,0,0,0,0,0,0,-1,832,1373,0,0
-385,-349,0,0,0,0,0,0,0,0,0,-1,839,1373,0,0
-378,-349,0,0,0,0,0,0,0,0,0,-1,846,1373,0,0
-371,-349,0,0,0,0,0,0,0,0,0,-1,853,1373,0,0
-364,-349,0,0,0,0,0,0,0,0,0,-1,860,1373,0,0
-357,-349,0,0,0,0,0,0,0,0,0,-1,867,1373,0,0
-350,-349,0,0,0,0,0,0,0,0,0,-1,874,1373,0,0
-343,-349,0,0,0,0,0,0,0,0,0,-1,881,1373,0,0
-336,-349,0,0,0,0,0,0,0,0,0,-1,888,1373,0,0
-329,-349,0,0,0,0,0,0,0,0,0,-1,895,1373,0,0
-322,-349,0,0,0,0,0,0,0,0,0,-1,902,1373,0,0
-315,-349,0,0,0,0,0,0,0,0,0,-1,909,1373,0,0
-308,-349,0,0,0,0,0,0,0,0,0,-1,916,1373,0,0
-301,-349,0,0,0,0,0,0,0,0,0,-1,923,1373,0,0
-294,-349,0,0,0,0,0,0,0,0,0,-1,930,1373,0,0
-287,-349,0,0,0,0,0,0,0,0,0,-1,937,1373,0,0
-280,-349,0,0,0,0,0,0,0,0,0,-1,944,1373,0,0
-273,-349,0,0,0,0,0,0,0,0,0,-1,951,1373,0,0
-266,-349,0,0,0,0,0,0,0,0,0,-1,958,1373,0,0
-259,-349,0,0,0,0,0,0,0,0,0,-1,965,1373,0,0
-252,-349,0,0,0,0,0,0,0,0,0,-1,972,1373,0,0
-245,-349,0,0,0,0,0,0,0,0,0,-1,979,1373,0,0
-238,-349,0,0,0,0,0,0,0,0,0,-1,986,1373,0,0
-231,-349,0,0,0,0,0,0,0,0,0,-1,993,1373,0,0
-224,-349,0,0,0,0,0,0,0,0,0,-1,1000,1373,0,0
-217,-349,0,0,0,0,0,0,0,0,0,-1,1007,1373,0,0
-210,-349,0,0,0,0,0,0,0,0,0,-1,1014,1373,0,0
-203,-349,0,0,0,0,0,0,0,0,0,-1,1021,1373,0,0
-196,-349,0,0,0,0,0,0,0,0,0,-1,1028,1373,0,0
-189,-349,0,0,0,0,0,0,0,0,0,-1,1035,1373,0,0
-182,-349,0,0,0,0,0,0,0,0,0,-1,1042,1373,0,0
-175,-349,0,0,0,0,0,0,0,0,0,-1,1049,1373,0,0
-168,-349,0,0,0,0,0,0,0,0,0,-1,1056,1373,0,0
-161,-349,0,0,0,0,0,0,0,0,0,-1,1063,1373,0,0
-154,-349,0,0,0,0,0,0,0,0,0,-1,1070,1373,0,0
-147,-349,0,0,0,0,0,0,0,0,0,-1,1077,1373,0,0
-140,-349,0,0,0,0,0,0,0,0,0,-1,1084,1373,0,0
-133,-349,0,0,0,0,0,0,0,0,0,-1,1091,1373,0,0
-126,-349,0,0,0,0,0,0,0,0,0,-1,1098,1373,0,0
-119,-349,0,0,0,0,0,0,0,0,0,-1,1105,1373,0,0
-112,-349,0,0,0,0,0,0,0,0,0,-1,1112,1373,0,0
-105,-349,0,0,0,0,0,0,0,0,0,-1,1119,1373,0,0
-98,-349,0,0,0,0,0,0,0,0,0,-1,1126,1373,0,0
-91,-349,0,0,0,0,0,0,0,0,0,-1,1133,1373,0,0
-84,-349,0,0,0,0,0,0,0,0,0,-1,1140,1373,0,0
-77,-349,0,0,0,0,0,0,0,0,0,-1,1147,1373,0,0
-70,-349,0,0,0,0,0,0,0,0,0,-1,1154,1373,0,0
-63,-349,0,0,0,0,0,0,0,0,0,-1,1161,1373,0,0
-56,-349,0,0,0,0,0,0,0,0,0,-1,1168,1373,0,0
-49,-349,0,0,0,0,0,0,0,0,0,-1,1175,1373,0,0
-42,-349,0,0,0,0,0,0,0,0,0,-1,1182,1373,0,0
-35,-349,0,0,0,0,0,0,0,0,0,-1,1189,1373,0,0
-28,-349,0,0,0,0,0,0,0,0,0,-1,1196,1373,0,0
-21,-349,0,0,0,0,0,0,0,0,0,-1,1203,1373,0,0
-14,-349,0,0,0,0,0,0,0,0,0,-1,1210,1373,0,0
-7,-349,0,0,0,0,0,0,0,0,0,-1,1217,1373,0,0
0,-349,0,0,0,0,0,0,0,0,0,-1,1224,1373,0,0
7,-349,0,0,0,0,0,0,0,0,0,-1,1231,1373,0,0
14,-349,0,0,0,0,0,0,0,0,0,-1,1238,1373,0,0
21,-349,0,0,0,0,0,0,0,0,0,-1,1245,1373,0,0
28,-349,0,0,0,0,0,0,0,0,0,-1,1252,1373,0,0
35,-349,0,0,0,0,0,0,0,0,0,-1,1259,1373,0,0
42,-349,0,0,0,0,0,0,0,0,0,-1,1266,1373,0,0
49,-349,0,0,0,0,0,0,0,0,0,-1,1273,1373,0,0
56,-349,0,0,0,0,0,0,0,0,0,-1,1280,1373,0,0
63,-349,0,0,0,0,0,0,0,0,0,-1,1287,1373,0,0
70,-349,0,0,0,0,0,0,0,0,0,-1,1294,1373,0,0
77,-349,0,0,0,0,0,0,0,0,0,-1,1301,1373,0,0
84,-349,0,0,0,0,0,0,0,0,0,-1,1308,1373,0,0
91,-349,0,0,0,0,0,0,0,0,0,-1,1315,1373,0,0
98,-349,0,0,0,0,0,0,0,0,0,-1,1322,1373,0,0
105,-349,0,0,0,0,0,0,0,0,0,-1,1329,1373,0,0
112,-349,0,0,0,0,0,0,0,0,0,-1,1336,1373,0,0
119,-349,0,0,0,0,0,0,0,0,0,-1,1343,1373,0,0
126,-349,0,0,0,0,0,0,0,0,0,-1,1350,1373,0,0
133,-349,0,0,0,0,0,0,0,0,0,-1,1357,1373,0,0
140,-349,0,0,0,0,0,0,0,0,0,-1,1364,1373,0,0
147,-349,0,0,0,0,0,0,0,0,0,-1,1371,1373,0,0
154,-349,0,0,0,0,0,0,0,0,0,-1,1378,1373,0,0
161,-349,0,0,0,0,0,0,0,0,0,-1,1385,1373,0,0
168,-349,0,0,0,0,0,0,0,0,0,-1,1392,1373,0,0
175,-349,0,0,0,0,0,0,0,0,0,-1,1399,1373,0,0
182,-349,0,0,0,0,0,0,0,0,0,-1,1406,1373,0,0
189,-349,0,0,0,0,0,0,0,0,0,-1,1413,1373,0,0
196,-349,0,0,0,0,0,0,0,0,0,-1,1420,1373,0,0
203,-349,0,0,0,0,0,0,0,0,0,-1,1427,1373,0,0
210,-349,0,0,0,0,0,0,0,0,0,-1,1434,1373,0,0
217,-349,0,0,0,0,0,0,0,0,0,-1,1441,1373,0,0
224,-349,0,0,0,0,0,0,0,0,0,-1,1448,1373,0,0
231,-349,0,0,0,0,0,0,0,0,0,-1,1455,1373,0,0
238,-349,0,0,0,0,0,0,0,0,0,-1,1462,1373,0,0
245,-349,0,0,0,0,0,0,0,0,0,-1,1469,1373,0,0
252,-349,0,0,0,0,0,0,0,0,0,-1,1476,1373,0,0
259,-349,0,0,0,0,0,0,0,0,0,-1,1483,1373,0,0
266,-349,0,0,0,0,0,0,0,0,0,-1,1490,1373,0,0
273,-349,0,0,0,0,0,0,0,0,0,-1,1497,1373,0,0
280,-349,0,0,0,0,0,0,0,0,0,-1,1504,1373,0,0
287,-349,0,0,0,0,0,0,0,0,0,-1,1511,1373,0,0
294,-349,0,0,0,0,0,0,0,0,0,-1,1518,1373,0,0
301,-349,0,0,0,0,0,0,0,0,0,-1,1525,1373,0,0
308,-349,0,0,0,0,0,0,0,0,0,-1,1532,1373,0,0
315,-349,0,0,0,0,0,0,0,0,0,-1,1539,1373,0,0
322,-349,0,0,0,0,0,0,0,0,0,-1,1546,1373,0,0
329,-349,0,0,0,0,0,0,0,0,0,-1,1553,1373,0,0
336,-349,0,0,0,0,0,0,0,0,0,-1,1560,1373,0,0
343,-349,0,0,0,0,0,0,0,0,0,-1,1567,1373,0,0
350,-349,0,0,0,0,0,0,0,0,0,-1,1574,1373,0,0
357,-349,0,0,0,0,0,0,0,0,0,-1,1581,1373,0,0
364,-349,0,0,0,0,0,0,0,0,0,-1,1588,1373,0,0
371,-349,0,0,0,0,0,0,0,0,0,-1,1595,1373,0,0
378,-349,0,0,0,0,0,0,0,0,0,-1,1602,1373,0,0
385,-349,0,0,0,0,0,0,0,0,0,-1,1609,1373,0,0
392,-349,0,0,0,0,0,0,0,0,0,-1,1616,1373,0,0
399,-349,0,0,0,0,0,0,0,0,0,-1,1623,1373,0,0
406,-349,0,0,0,0,0,0,0,0,0,-1,1630,1373,0,0
413,-349,0,0,0,0,0,0,0,0,0,-1,1637,1373,0,0
420,-349,0,0,0,0,0,0,0,0,0,-1,1644,1373,0,0
427,-349,0,0,0,0,0,0,0,0,0,-1,1651,1373,0,0
434,-349,0,0,0,0,0,0,0,0,0,-1,1658,1373,0,0
441,-349,0,0,0,0,0,0,0,0,0,-1,1665,1373,0,0
448,-349,0,0,0,0,0,0,0,0,0,-1,1672,1373,0,0
455,-349,0,0,0,0,0,0,0,0,0,-1,1679,1373,0,0
462,-349,0,0,0,0,0,0,0,0,0,-1,1686,1373,0,0
469,-349,0,0,0,0,0,0,0,0,0,-1,1693,1373,0,0
476,-349,0,0,0,0,0,0,0,0,0,-1,1700,1373,0,0
483,-349,0,0,0,0,0,0,0,0,0,-1,1707,1373,0,0
490,-349,0,0,0,0,0,0,0,0,0,-1,1714,1373,0,0
497,-349,0,0,0,0,0,0,0,0,0,-1,1721,1373,0,0
504,-349,0,0,0,0,0,0,0,0,0,-1,1728,1373,0,0
511,-349,0,0,0,0,0,0,0,0,0,-1,1735,1373,0,0
518,-349,0,0,0,0,0,0,0,0,0,-1,1742,1373,0,0
525,-349,0,0,0,0,0,0,0,0,0,-1,1749,1373,0,0
532,-349,0,0,0,0,0,0,0,0,0,-1,1756,1373,0,0
539,-349,0,0,0,0,0,0,0,0,0,-1,1763,1373,0,0
546,-349,0,0,0,0,0,0,0,0,0,-1,1770,1373,0,0
553,-349,0,0,0,0,0,0,0,0,0,-1,1777,1373,0,0
560,-349,36.5105,6.17969,-0.0366458,0.126081,-0.139371,0.2061,-0.116665,-1.04961,0.188718,0.0454149,1784,1373,36.5104,-6.17974
567,-349,36.2422,5.02686,-0.0355858,0.103475,-0.120555,0.173113,-0.105224,-1.04697,0.162284,0.0458457,1791,1373,36.2422,-5.0268
574,-349,35.9885,3.77087,-0.028874,0.083594,-0.101861,0.143712,-0.0889922,-1.03761,0.135584,0.0469738,1798,1373,35.9885,-3.77085
581,-349,35.2635,2.67859,-0.0194588,0.0664936,-0.0839209,0.117802,-0.0707676,-1.02204,0.109994,0.0451754,1805,1373,35.2635,-2.67863
588,-349,34.5067,2.00671,0,0,0,0,0,0,0,-1,1812,1373,34.5067,-2.00673
595,-349,32.3793,4.93115,0,0,0,0,0,0,0,-1,1819,1373,32.3793,-4.9312
602,-349,30.6421,5.56592,0,0,0,0,0,0,0,-1,1826,1373,30.6421,-5.56589
609,-349,28.8674,6.13806,0,0,0,0,0,0,0,-1,1833,1373,28.8674,-6.13809
616,-349,27.1451,6.68274,0,0,0,0,0,0,0,-1,1840,1373,27.1451,-6.6828
623,-349,18.8478,2.75769,0,0,0,0,0,0,0,-1,1847,1373,18.8478,-2.75774
630,-349,15.4948,6.47644,0,0,0,0,0,0,0,-1,1854,1373,15.4947,-6.4765
637,-349,16.5161,6.92639,0,0,0,0,0,0,0,-1,1861,1373,16.5161,-6.92636
644,-349,23.3604,10.3201,0,0,0,0,0,0,0,-1,1868,1373,23.3603,-10.3201
651,-349,23.3406,9.93347,0.0121435,0.00193195,0.000747612,0.012198,0.0018775,0.0726957,0.007584,0.0293351,1875,1373,23.3406,-9.93346
658,-349,23.2139,9.56543,0.0058288,0.0010053,-0.000189307,0.00583622,0.000997877,-0.0391664,0.00360453,0.0259259,1882,1373,23.2138,-9.56549
665,-349,23.2236,9.2019,0.000646393,0.000450006,-0.00041058,0.000970357,0.000126041,-0.668024,0.000609253,0.02024,1889,1373,23.2236,-9.20189
672,-349,23.2302,8.84351,0.000586724,0.000214973,-0.000274405,0.000732281,6.94156e-05,-0.487708,0.000466773,0.0140946,1896,1373,23.2302,-8.84356
679,-349,23.203,8.49268,0.000915719,2.49216e-05,-0.000116511,0.000930705,9.93485e-06,-0.127928,0.000617185,0.0140768,1903,1373,23.203,-8.49269
686,-349,23.2413,8.17078,0.00119957,-0.000111884,2.61865e-05,0.00120009,-0.000112407,0.0199569,0.000840042,0.0140341,1910,1373,23.2413,-8.17083
693,-349,23.2047,7.77844,0.00146307,-6.82353e-05,0.000120826,0.00147255,-7.77104e-05,0.0782585,0.0010086,0.0164287,1917,1373,23.2048,-7.77845
700,-349,23.1735,7.41846,0.00167927,8.42652e-05,0.000181323,0.00169962,6.39117e-05,0.111782,0.00111239,0.0172234,1924,1373,23.1734,-7.41846
707,-349,23.2559,7.01855,0.00159395,0.000402399,0.000259317,0.00164794,0.00034841,0.205263,0.00100287,0.031548,1931,1373,23.2558,-7.0186
714,-349,23.4014,6.53442,0,0,0,0,0,0,0,-1,1938,1373,23.4013,-6.53446
721,-349,19.6688,5.93604,0,0,0,0,0,0,0,-1,1945,1373,19.6688,-5.93606
728,-349,18.6333,3.73218,0,0,0,0,0,0,0,-1,1952,1373,18.6333,-3.73214
735,-349,18.1918,3.39954,0,0,0,0,0,0,0,-1,1959,1373,18.1918,-3.3995
742,-349,20.7345,2.07483,0,0,0,0,0,0,0,-1,1966,1373,20.7345,-2.07485
749,-349,21.9037,1.45789,0,0,0,0,0,0,0,-1,1973,1373,21.9037,-1.45788
756,-349,0,0,0,0,0,0,0,0,0,-1,1980,1373,0,0
763,-349,0,0,0,0,0,0,0,0,0,-1,1987,1373,0,0
770,-349,0,0,0,0,0,0,0,0,0,-1,1994,1373,0,0
777,-349,0,0,0,0,0,0,0,0,0,-1,2001,1373,0,0
784,-349,0,0,0,0,0,0,0,0,0,-1,2008,1373,0,0
791,-349,0,0,0,0,0,0,0,0,0,-1,2015,1373,0,0
798,-349,0,0,0,0,0,0,0,0,0,-1,2022,1373,0,0
805,-349,0,0,0,0,0,0,0,0,0,-1,2029,1373,0,0
812,-349,0,0,0,0,0,0,0,0,0,-1,2036,1373,0,0
-700,-356,0,0,0,0,0,0,0,0,0,-1,524,1380,0,0
-693,-356,0,0,0,0,0,0,0,0,0,-1,531,1380,0,0
-686,-356,0,0,0,0,0,0,0,0,0,-1,538,1380,0,0
-679,-356,0,0,0,0,0,0,0,0,0,-1,545,1380,0,0
-672,-356,0,0,0,0,0,0,0,0,0,-1,552,1380,0,0
-665,-356,0,0,0,0,0,0,0,0,0,-1,559,1380,0,0
-658,-356,0,0,0,0,0,0,0,0,0,-1,566,1380,0,0
-651,-356,0,0,0,0,0,0,0,0,0,-1,573,1380,0,0
-644,-356,0,0,0,0,0,0,0,0,0,-1,580,1380,0,0
-637,-356,0,0,0,0,0,0,0,0,0,-1,587,1380,0,0
-630,-356,-8.23126,-5.01917,0,0,0,0,0,0,0,-1,594,1380,-8.23124,5.0192
-623,-356,-0.263855,-0.675781,0,0,0,0,0,0,0,-1,601,1380,-0.263835,0.675841
-616,-356,-8.26532,-3.43945,0,0,0,0,0,0,0,-1,608,1380,-8.2653,3.43948
-609,-356,-4.88483,0.734497,0,0,0,0,0,0,0,-1,615,1380,-4.88485,-0.734532
-602,-356,-9.06635,2.4021,0,0,0,0,0,0,0,-1,622,1380,-9.06634,-2.40206
-595,-356,-8.45703,3.61853,0,0,0,0,0,0,0,-1,629,1380,-8.45706,-3.61848
-588,-356,-9.31738,4.14258,0,0,0,0,0,0,0,-1,636,1380,-9.31736,-4.14255
-581,-356,-11.1066,4.99524,0,0,0,0,0,0,0,-1,643,1380,-11.1066,-4.99525
-574,-356,-11.2922,4.68787,0,0,0,0,0,0,0,-1,650,1380,-11.2921,-4.68781
-567,-356,-11.2889,5.1449,-0.00385223,0.00259029,-0.00169078,0.00300706,-0.004269,-1.32912,0.00422184,0.0181433,657,1380,-11.2889,-5.14486
-560,-356,-11.2657,5.62878,-0.00244519,0.00183824,-0.00117384,0.00213883,-0.00274578,-1.32011,0.00282738,0.0179556,664,1380,-11.2657,-5.62875
-553,-356,-11.2953,6.02319,-0.000871226,0.00130039,-0.000496865,0.00140867,-0.000979509,-1.35622,0.00138622,0.0205053,671,1380,-11.2954,-6.02321
-546,-356,-11.3139,6.40637,0.000758987,0.000901211,0.000254994,0.00109482,0.000565375,0.921382,0.00063221,0.0223152,678,1380,-11.3139,-6.40639
-539,-356,-11.3025,6.83118,0.00243536,0.000660183,0.00107343,0.00294064,0.000154908,0.439942,0.00191088,0.0156848,685,1380,-11.3025,-6.83123
-532,-356,-11.3195,7.26001,0.00418963,0.000562791,0.0019851,0.00506491,-0.000312488,0.415281,0.00348544,0.0149555,692,1380,-11.3195,-7.25997
-525,-356,-11.3068,7.68066,0.00601373,0.000586482,0.00297713,0.00732838,-0.000728175,0.415835,0.00514552,0.0123298,699,1380,-11.3068,-7.6807
-518,-356,-11.2789,8.1095,0.00797383,0.000796132,0.00410082,0.00983444,-0.00106448,0.42594,0.00693839,0.0115413,706,1380,-11.2789,-8.10947
-511,-356,-11.0966,8.6012,0.00973676,0.00149418,0.00532851,0.0123518,-0.00112086,0.456231,0.00863244,0.0383333,713,1380,-11.0965,-8.60124
-504,-356,-10.9373,9.19873,0,0,0,0,0,0,0,-1,720,1380,-10.9372,-9.19875
-497,-356,-5.68604,4.96387,0,0,0,0,0,0,0,-1,727,1380,-5.68605,-4.96385
-490,-356,-7.95288,5.5625,0,0,0,0,0,0,0,-1,734,1380,-7.95285,-5.56246
-483,-356,-7.2627,4.07446,0,0,0,0,0,0,0,-1,741,1380,-7.2627,-4.07441
-476,-356,-5.1936,4.16016,0,0,0,0,0,0,0,-1,748,1380,-5.1936,-4.16012
-469,-356,-10.0883,0.536011,0,0,0,0,0,0,0,-1,755,1380,-10.0883,-0.535989
-462,-356,-12.3481,-0.215698,0,0,0,0,0,0,0,-1,762,1380,-12.3481,0.215641
-455,-356,-13.1367,-0.264648,0,0,0,0,0,0,0,-1,769,1380,-13.1367,0.264647
-448,-356,-13.9116,-0.310181,0,0,0,0,0,0,0,-1,776,1380,-13.9115,0.310207
-441,-356,-13.1602,3.05603,0,0,0,0,0,0,0,-1,783,1380,-13.1602,-3.05609
-434,-356,0,0,0,0,0,0,0,0,0,-1,790,1380,0,0
-427,-356,0,0,0,0,0,0,0,0,0,-1,797,1380,0,0
-420,-356,0,0,0,0,0,0,0,0,0,-1,804,1380,0,0
-413,-356,0,0,0,0,0,0,0,0,0,-1,811,1380,0,0
-406,-356,0,0,0,0,0,0,0,0,0,-1,818,1380,0,0
-399,-356,0,0,0,0,0,0,0,0,0,-1,825,1380,0,0
-392,-356,0,0,0,0,0,0,0,0,0,-1,832,1380,0,0
-385,-356,0,0,0,0,0,0,0,0,0,-1,839,1380,0,0
-378,-356,0,0,0,0,0,0,0,0,0,-1,846,1380,0,0
-371,-356,0,0,0,0,0,0,0,0,0,-1,853,1380,0,0
-364,-356,0,0,0,0,0,0,0,0,0,-1,860,1380,0,0
-357,-356,0,0,0,0,0,0,0,0,0,-1,867,1380,0,0
-350,-356,0,0,0,0,0,0,0,0,0,-1,874,1380,0,0
-343,-356,0,0,0,0,0,0,0,0,0,-1,881,1380,0,0
-336,-356,0,0,0,0,0,0,0,0,0,-1,888,1380,0,0
-329,-356,0,0,0,0,0,0,0,0,0,-1,895,1380,0,0
-322,-356,0,0,0,0,0,0,0,0,0,-1,902,1380,0,0
-315,-356,0,0,0,0,0,0,0,0,0,-1,909,1380,0,0
-308,-356,0,0,0,0,0,0,0,0,0,-1,916,1380,0,0
-301,-356,0,0,0,0,0,0,0,0,0,-1,923,1380,0,0
-294,-356,0,0,0,0,0,0,0,0,0,-1,930,1380,0,0
-287,-356,0,0,0,0,0,0,0,0,0,-1,937,1380,0,0
-280,-356,0,0,0,0,0,0,0,0,0,-1,944,1380,0,0
-273,-356,0,0,0,0,0,0,0,0,0,-1,951,1380,0,0
-266,-356,0,0,0,0,0,0,0,0,0,-1,958,1380,0,0
-259,-356,0,0,0,0,0,0,0,0,0,-1,965,1380,0,0
-252,-356,0,0,0,0,0,0,0,0,0,-1,972,1380,0,0
-245,-356,0,0,0,0,0,0,0,0,0,-1,979,1380,0,0
-238,-356,0,0,0,0,0,0,0,0,0,-1,986,1380,0,0
-231,-356,0,0,0,0,0,0,0,0,0,-1,993,1380,0,0
-224,-356,0,0,0,0,0,0,0,0,0,-1,1000,1380,0,0
-217,-356,0,0,0,0,0,0,0,0,0,-1,1007,1380,0,0
-210,-356,0,0,0,0,0,0,0,0,0,-1,1014,1380,0,0
-203,-356,0,0,0,0,0,0,0,0,0,-1,1021,1380,0,0
-196,-356,0,0,0,0,0,0,0,0,0,-1,1028,1380,0,0
-189,-356,0,0,0,0,0,0,0,0,0,-1,1035,1380,0,0
-182,-356,0,0,0,0,0,0,0,0,0,-1,1042,1380,0,0
-175,-356,0,0,0,0,0,0,0,0,0,-1,1049,1380,0,0
-168,-356,0,0,0,0,0,0,0,0,0,-1,1056,1380,0,0
-161,-356,0,0,0,0,0,0,0,0,0,-1,1063,1380,0,0
-154,-356,0,0,0,0,0,0,0,0,0,-1,1070,1380,0,0
-147,-356,0,0,0,0,0,0,0,0,0,-1,1077,1380,0,0
-140,-356,0,0,0,0,0,0,0,0,0,-1,1084,1380,0,0
-133,-356,0,0,0,0,0,0,0,0,0,-1,1091,1380,0,0
-126,-356,0,0,0,0,0,0,0,0,0,-1,1098,1380,0,0
-119,-356,0,0,0,0,0,0,0,0,0,-1,1105,1380,0,0
-112,-356,0,0,0,0,0,0,0,0,0,-1,1112,1380,0,0
-105,-356,0,0,0,0,0,0,0,0,0,-1,1119,1380,0,0
-98,-356,0,0,0,0,0,0,0,0,0,-1,1126,1380,0,0
-91,-356,0,0,0,0,0,0,0,0,0,-1,1133,1380,0,0
-84,-356,0,0,0,0,0,0,0,0,0,-1,1140,1380,0,0
-77,-356,0,0,0,0,0,0,0,0,0,-1,1147,1380,0,0
-70,-356,0,0,0,0,0,0,0,0,0,-1,1154,1380,0,0
-63,-356,0,0,0,0,0,0,0,0,0,-1,1161,1380,0,0
-56,-356,0,0,0,0,0,0,0,0,0,-1,1168,1380,0,0
-49,-356,0,0,0,0,0,0,0,0,0,-1,1175,1380,0,0
-42,-356,0,0,0,0,0,0,0,0,0,-1,1182,1380,0,0
-35,-356,0,0,0,0,0,0,0,0,0,-1,1189,1380,0,0
-28,-356,0,0,0,0,0,0,0,0,0,-1,1196,1380,0,0
-21,-356,0,0,0,0,0,0,0,0,0,-1,1203,1380,0,0
-14,-356,0,0,0,0,0,0,0,0,0,-1,1210,1380,0,0
-7,-356,0,0,0,0,0,0,0,0,0,-1,1217,1380,0,0
0,-356,0,0,0,0,0,0,0,0,0,-1,1224,1380,0,0
7,-356,0,0,0,0,0,0,0,0,0,-1,1231,1380,0,0
14,-356,0,0,0,0,0,0,0,0,0,-1,1238,1380,0,0
21,-356,0,0,0,0,0,0,0,0,0,-1,1245,1380,0,0
28,-356,0,0,0,0,0,0,0,0,0,-1,1252,1380,0,0
35,-356,0,0,0,0,0,0,0,0,0,-1,1259,1380,0,0
42,-356,0,0,0,0,0,0,0,0,0,-1,1266,1380,0,0
49,-356,0,0,0,0,0,0,0,0,0,-1,1273,1380,0,0
56,-356,0,0,0,0,0,0,0,0,0,-1,1280,1380,0,0
63,-356,0,0,0,0,0,0,0,0,0,-1,1287,1380,0,0
70,-356,0,0,0,0,0,0,0,0,0,-1,1294,1380,0,0
77,-356,0,0,0,0,0,0,0,0,0,-1,1301,1380,0,0
84,-356,0,0,0,0,0,0,0,0,0,-1,1308,1380,0,0
91,-356,0,0,0,0,0,0,0,0,0,-1,1315,1380,0,0
98,-356,0,0,0,0,0,0,0,0,0,-1,1322,1380,0,0
105,-356,0,0,0,0,0,0,0,0,0,-1,1329,1380,0,0
112,-356,0,0,0,0,0,0,0,0,0,-1,1336,1380,0,0
119,-356,0,0,0,0,0,0,0,0,0,-1,1343,1380,0,0
126,-356,0,0,0,0,0,0,0,0,0,-1,1350,1380,0,0
133,-356,0,0,0,0,0,0,0,0,0,-1,1357,1380,0,0
140,-356,0,0,0,0,0,0,0,0,0,-1,1364,1380,0,0
147,-356,0,0,0,0,0,0,0,0,0,-1,1371,1380,0,0
154,-356,0,0,0,0,0,0,0,0,0,-1,1378,1380,0,0
161,-356,0,0,0,0,0,0,0,0,0,-1,1385,1380,0,0
168,-356,0,0,0,0,0,0,0,0,0,-1,1392,1380,0,0
175,-356,0,0,0,0,0,0,0,0,0,-1,1399,1380,0,0
182,-356,0,0,0,0,0,0,0,0,0,-1,1406,1380,0,0
189,-356,0,0,0,0,0,0,0,0,0,-1,1413,1380,0,0
196,-356,0,0,0,0,0,0,0,0,0,-1,1420,1380,0,0
203,-356,0,0,0,0,0,0,0,0,0,-1,1427,1380,0,0
210,-356,0,0,0,0,0,0,0,0,0,-1,1434,1380,0,0
217,-356,0,0,0,0,0,0,0,0,0,-1,1441,1380,0,0
224,-356,0,0,0,0,0,0,0,0,0,-1,1448,1380,0,0
231,-356,0,0,0,0,0,0,0,0,0,-1,1455,1380,0,0
238,-356,0,0,0,0,0,0,0,0,0,-1,1462,1380,0,0
245,-356,0,0,0,0,0,0,0,0,0,-1,1469,1380,0,0
252,-356,0,0,0,0,0,0,0,0,0,-1,1476,1380,0,0
259,-356,0,0,0,0,0,0,0,0,0,-1,1483,1380,0,0
266,-356,0,0,0,0,0,0,0,0,0,-1,1490,1380,0,0
273,-356,0,0,0,0,0,0,0,0,0,-1,1497,1380,0,0
280,-356,0,0,0,0,0,0,0,0,0,-1,1504,1380,0,0
287,-356,0,0,0,0,0,0,0,0,0,-1,1511,1380,0,0
294,-356,0,0,0,0,0,0,0,0,0,-1,1518,1380,0,0
301,-356,0,0,0,0,0,0,0,0,0,-1,1525,1380,0,0
308,-356,0,0,0,0,0,0,0,0,0,-1,1532,1380,0,0
315,-356,0,0,0,0,0,0,0,0,0,-1,1539,1380,0,0
322,-356,0,0,0,0,0,0,0,0,0,-1,1546,1380,0,0
329,-356,0,0,0,0,0,0,0,0,0,-1,1553,1380,0,0
336,-356,0,0,0,0,0,0,0,0,0,-1,1560,1380,0,0
343,-356,0,0,0,0,0,0,0,0,0,-1,1567,1380,0,0
350,-356,0,0,0,0,0,0,0,0,0,-1,1574,1380,0,0
357,-356,0,0,0,0,0,0,0,0,0,-1,1581,1380,0,0
364,-356,0,0,0,0,0,0,0,0,0,-1,1588,1380,0,0
371,-356,0,0,0,0,0,0,0,0,0,-1,1595,1380,0,0
378,-356,0,0,0,0,0,0,0,0,0,-1,1602,1380,0,0
385,-356,0,0,0,0,0,0,0,0,0,-1,1609,1380,0,0
392,-356,0,0,0,0,0,0,0,0,0,-1,1616,1380,0,0
399,-356,0,0,0,0,0,0,0,0,0,-1,1623,1380,0,0
406,-356,0,0,0,0,0,0,0,0,0,-1,1630,1380,0,0
413,-356,0,0,0,0,0,0,0,0,0,-1,1637,1380,0,0
420,-356,0,0,0,0,0,0,0,0,0,-1,1644,1380,0,0
427,-356,0,0,0,0,0,0,0,0,0,-1,1651,1380,0,0
434,-356,0,0,0,0,0,0,0,0,0,-1,1658,1380,0,0
441,-356,0,0,0,0,0,0,0,0,0,-1,1665,1380,0,0
448,-356,0,0,0,0,0,0,0,0,0,-1,1672,1380,0,0
455,-356,0,0,0,0,0,0,0,0,0,-1,1679,1380,0,0
462,-356,0,0,0,0,0,0,0,0,0,-1,1686,1380,0,0
469,-356,0,0,0,0,0,0,0,0,0,-1,1693,1380,0,0
476,-356,0,0,0,0,0,0,0,0,0,-1,1700,1380,0,0
483,-356,0,0,0,0,0,0,0,0,0,-1,1707,1380,0,0
490,-356,0,0,0,0,0,0,0,0,0,-1,1714,1380,0,0
497,-356,0,0,0,0,0,0,0,0,0,-1,1721,1380,0,0
504,-356,0,0,0,0,0,0,0,0,0,-1,1728,1380,0,0
511,-356,0,0,0,0,0,0,0,0,0,-1,1735,1380,0,0
518,-356,0,0,0,0,0,0,0,0,0,-1,1742,1380,0,0
525,-356,0,0,0,0,0,0,0,0,0,-1,1749,1380,0,0
532,-356,0,0,0,0,0,0,0,0,0,-1,1756,1380,0,0
539,-356,0,0,0,0,0,0,0,0,0,-1,1763,1380,0,0
546,-356,0,0,0,0,0,0,0,0,0,-1,1770,1380,0,0
553,-356,0,0,0,0,0,0,0,0,0,-1,1777,1380,0,0
560,-356,36.9399,5.42041,-0.0428035,0.13088,-0.139663,0.208499,-0.120422,-1.06354,0.192159,0.0498161,1784,1380,36.9399,-5.4204
567,-356,36.7563,4.271,-0.040187,0.108262,-0.120962,0.175957,-0.107881,-1.06059,0.165438,0.0443696,1791,1380,36.7564,-4.27096
574,-356,36.4429,3.24304,-0.0334136,0.08808,-0.103032,0.14694,-0.0922737,-1.05176,0.139307,0.0447246,1798,1380,36.4429,-3.24309
581,-356,35.8042,2.13818,0,0,0,0,0,0,0,-1,1805,1380,35.8042,-2.13823
588,-356,32.496,1.32678,0,0,0,0,0,0,0,-1,1812,1380,32.496,-1.32676
595,-356,32.0834,5.86084,0,0,0,0,0,0,0,-1,1819,1380,32.0834,-5.86079
602,-356,30.1604,6.07104,0,0,0,0,0,0,0,-1,1826,1380,30.1604,-6.07104
609,-356,28.3435,6.48901,0,0,0,0,0,0,0,-1,1833,1380,28.3435,-6.48899
616,-356,26.9358,6.80872,0,0,0,0,0,0,0,-1,1840,1380,26.9358,-6.80877
623,-356,16.1803,1.07532,0,0,0,0,0,0,0,-1,1847,1380,16.1803,-1.07529
630,-356,16.4138,6.91553,0,0,0,0,0,0,0,-1,1854,1380,16.4138,-6.9155
637,-356,22.7855,11.187,0,0,0,0,0,0,0,-1,1861,1380,22.7855,-11.187
644,-356,22.8344,10.5096,0.00999945,0.00332001,-0.00182376,0.010465,0.0028545,-0.249915,0.00624647,0.04564,1868,1380,22.8344,-10.5097
651,-356,22.9163,9.94934,0.0071063,0.0016794,-0.000385806,0.00713359,0.00165211,-0.0706182,0.00431185,0.0180056,1875,1380,22.9162,-9.9493
658,-356,22.8781,9.53784,0.00320998,0.00102429,-0.000623146,0.00337516,0.000859114,-0.259112,0.00202541,0.0152512,1882,1380,22.878,-9.53788
665,-356,22.8804,9.21521,0.000545781,0.00045595,-0.000501014,0.00100389,-2.15811e-06,-0.740693,0.00066998,0.0147677,1889,1380,22.8803,-9.21516
672,-356,22.8507,8.88074,0.00082543,0.000168137,-0.000220694,0.000892656,0.000100912,-0.295679,0.000564481,0.0145892,1896,1380,22.8507,-8.88075
679,-356,22.8585,8.50464,0.0011473,-7.03758e-05,-2.63525e-05,0.00114787,-7.09459e-05,-0.0216281,0.000789959,0.0157148,1903,1380,22.8586,-8.50459
686,-356,22.8583,8.15283,0.00149796,-0.000246118,0.000104391,0.00150418,-0.000252344,0.0595711,0.00109663,0.0159884,1910,1380,22.8583,-8.15283
693,-356,22.8602,7.78967,0.00187504,-0.000259746,0.000169897,0.00188848,-0.000273182,0.0789229,0.00135923,0.0146773,1917,1380,22.8602,-7.7897
700,-356,22.8624,7.42017,0.00231374,-9.77597e-05,0.000123315,0.00232003,-0.000104049,0.0509592,0.00158251,0.0206051,1924,1380,22.8624,-7.42023
707,-356,22.9254,7.06689,0,0,0,0,0,0,0,-1,1931,1380,22.9254,-7.06693
714,-356,19.6907,5.82129,0,0,0,0,0,0,0,-1,1938,1380,19.6907,-5.82132
721,-356,17.2948,4.1958,0,0,0,0,0,0,0,-1,1945,1380,17.2948,-4.19584
728,-356,19.1846,2.31519,0,0,0,0,0,0,0,-1,1952,1380,19.1846,-2.31514
735,-356,20.0731,2.50842,0,0,0,0,0,0,0,-1,1959,1380,20.0731,-2.50844
742,-356,21.0111,2.43762,0,0,0,0,0,0,0,-1,1966,1380,21.0112,-2.43762
749,-356,22.1411,1.83276,0,0,0,0,0,0,0,-1,1973,1380,22.1411,-1.83275
756,-356,0,0,0,0,0,0,0,0,0,-1,1980,1380,0,0
763,-356,0,0,0,0,0,0,0,0,0,-1,1987,1380,0,0
770,-356,0,0,0,0,0,0,0,0,0,-1,1994,1380,0,0
777,-356,0,0,0,0,0,0,0,0,0,-1,2001,1380,0,0
784,-356,0,0,0,0,0,0,0,0,0,-1,2008,1380,0,0
791,-356,0,0,0,0,0,0,0,0,0,-1,2015,1380,0,0
798,-356,0,0,0,0,0,0,0,0,0,-1,2022,1380,0,0
805,-356,0,0,0,0,0,0,0,0,0,-1,2029,1380,0,0
812,-356,0,0,0,0,0,0,0,0,0,-1,2036,1380,0,0
-700,-363,0,0,0,0,0,0,0,0,0,-1,524,1387,0,0
-693,-363,0,0,0,0,0,0,0,0,0,-1,531,1387,0,0
-686,-363,0,0,0,0,0,0,0,0,0,-1,538,1387,0,0
-679,-363,0,0,0,0,0,0,0,0,0,-1,545,1387,0,0
-672,-363,0,0,0,0,0,0,0,0,0,-1,552,1387,0,0
-665,-363,0,0,0,0,0,0,0,0,0,-1,559,1387,0,0
-658,-363,0,0,0,0,0,0,0,0,0,-1,566,1387,0,0
-651,-363,0,0,0,0,0,0,0,0,0,-1,573,1387,0,0
-644,-363,0,0,0,0,0,0,0,0,0,-1,580,1387,0,0
-637,-363,0,0,0,0,0,0,0,0,0,-1,587,1387,0,0
-630,-363,0,0,0,0,0,0,0,0,0,-1,594,1387,0,0
-623,-363,-9.67566,-5.91846,0,0,0,0,0,0,0,-1,601,1387,-9.67563,5.91847
-616,-363,-9.02985,-2.98083,0,0,0,0,0,0,0,-1,608,1387,-9.02987,2.98079
-609,-363,-4.90265,0.195679,0,0,0,0,0,0,0,-1,615,1387,-4.90263,-0.195721
-602,-363,-9.65009,3.5321,0,0,0,0,0,0,0,-1,622,1387,-9.65007,-3.53211
-595,-363,-8.00256,3.48853,0,0,0,0,0,0,0,-1,629,1387,-8.00256,-3.48855
-588,-363,-9.78369,4.58679,0,0,0,0,0,0,0,-1,636,1387,-9.78372,-4.58682
-581,-363,-10.1558,5.11975,0,0,0,0,0,0,0,-1,643,1387,-10.1558,-5.11969
-574,-363,-10.8014,4.66394,0,0,0,0,0,0,0,-1,650,1387,-10.8014,-4.66394
-567,-363,-10.8651,5.20117,-0.00574217,0.00325662,-0.00237448,0.00384473,-0.00633028,-1.328,0.00593268,0.0323808,657,1387,-10.8651,-5.20113
-560,-363,-10.8685,5.599,-0.00394733,0.00227666,-0.00175191,0.00273589,-0.00440657,-1.31443,0.00416113,0.0130655,664,1387,-10.8686,-5.59905
-553,-363,-10.874,6.03137,-0.00211364,0.00159721,-0.000999179,0.00184914,-0.00236558,-1.3238,0.00243945,0.0131375,671,1387,-10.874,-6.03141
-546,-363,-10.8867,6.41968,-0.000334769,0.00110329,-0.000196615,0.00112968,-0.000361166,-1.43734,0.000898055,0.0137213,678,1387,-10.8867,-6.41965
-539,-363,-10.8821,6.82043,0.00140574,0.000806217,0.000643659,0.00181602,0.000395941,0.567476,0.00110265,0.0161934,685,1387,-10.8821,-6.82048
-532,-363,-10.8962,7.25757,0.0031518,0.000696415,0.00155902,0.00390849,-6.02743e-05,0.451869,0.00262598,0.0138191,692,1387,-10.8962,-7.25752
-525,-363,-10.886,7.67798,0.004893,0.00072885,0.0025254,0.00608395,-0.000462099,0.440661,0.00421845,0.010907,699,1387,-10.886,-7.67802
-518,-363,-10.8736,8.09912,0.00667322,0.000910339,0.00356145,0.0083729,-0.00078934,0.445277,0.00586279,0.00919356,706,1387,-10.8736,-8.09915
-511,-363,-10.8356,8.55615,0.00827012,0.00155011,0.00468692,0.010677,-0.000856763,0.474412,0.00742009,0.020355,713,1387,-10.8357,-8.55615
-504,-363,-10.7759,9.04224,0,0,0,0,0,0,0,-1,720,1387,-10.7759,-9.04219
-497,-363,-7.18842,7.29944,0,0,0,0,0,0,0,-1,727,1387,-7.18839,-7.29945
-490,-363,-5.42413,4.6958,0,0,0,0,0,0,0,-1,734,1387,-5.42412,-4.69583
-483,-363,-6.28375,4.1394,0,0,0,0,0,0,0,-1,741,1387,-6.28374,-4.13944
-476,-363,-5.83807,4.31018,0,0,0,0,0,0,0,-1,748,1387,-5.8381,-4.31013
-469,-363,-10.7125,0.697754,0,0,0,0,0,0,0,-1,755,1387,-10.7125,-0.697811
-462,-363,-9.55951,-0.0830078,0,0,0,0,0,0,0,-1,762,1387,-9.55949,0.0830163
-455,-363,-13.1008,-0.290894,0,0,0,0,0,0,0,-1,769,1387,-13.1008,0.290921
-448,-363,-11.7324,2.46606,0,0,0,0,0,0,0,-1,776,1387,-11.7324,-2.46605
-441,-363,-12.4464,2.5354,0,0,0,0,0,0,0,-1,783,1387,-12.4463,-2.53537
-434,-363,-13.6918,2.14661,0,0,0,0,0,0,0,-1,790,1387,-13.6918,-2.14662
-427,-363,0,0,0,0,0,0,0,0,0,-1,797,1387,0,0
-420,-363,0,0,0,0,0,0,0,0,0,-1,804,1387,0,0
-413,-363,0,0,0,0,0,0,0,0,0,-1,811,1387,0,0
-406,-363,0,0,0,0,0,0,0,0,0,-1,818,1387,0,0
-399,-363,0,0,0,0,0,0,0,0,0,-1,825,1387,0,0
-392,-363,0,0,0,0,0,0,0,0,0,-1,832,1387,0,0
-385,-363,0,0,0,0,0,0,0,0,0,-1,839,1387,0,0
-378,-363,0,0,0,0,0,0,0,0,0,-1,846,1387,0,0
-371,-363,0,0,0,0,0,0,0,0,0,-1,853,1387,0,0
-364,-363,0,0,0,0,0,0,0,0,0,-1,860,1387,0,0
-357,-363,0,0,0,0,0,0,0,0,0,-1,867,1387,0,0
-350,-363,0,0,0,0,0,0,0,0,0,-1,874,1387,0,0
-343,-363,0,0,0,0,0,0,0,0,0,-1,881,1387,0,0
-336,-363,0,0,0,0,0,0,0,0,0,-1,888,1387,0,0
-329,-363,0,0,0,0,0,0,0,0,0,-1,895,1387,0,0
-322,-363,0,0,0,0,0,0,0,0,0,-1,902,1387,0,0
-315,-363,0,0,0,0,0,0,0,0,0,-1,909,1387,0,0
-308,-363,0,0,0,0,0,0,0,0,0,-1,916,1387,0,0
-301,-363,0,0,0,0,0,0,0,0,0,-1,923,1387,0,0
-294,-363,0,0,0,0,0,0,0,0,0,-1,930,1387,0,0
-287,-363,0,0,0,0,0,0,0,0,0,-1,937,1387,0,0
-280,-363,0,0,0,0,0,0,0,0,0,-1,944,1387,0,0
-273,-363,0,0,0,0,0,0,0,0,0,-1,951,1387,0,0
-266,-363,0,0,0,0,0,0,0,0,0,-1,958,1387,0,0
-259,-363,0,0,0,0,0,0,0,0,0,-1,965,1387,0,0
-252,-363,0,0,0,0,0,0,0,0,0,-1,972,1387,0,0
-245,-363,0,0,0,0,0,0,0,0,0,-1,979,1387,0,0
-238,-363,0,0,0,0,0,0,0,0,0,-1,986,1387,0,0
-231,-363,0,0,0,0,0,0,0,0,0,-1,993,1387,0,0
-224,-363,0,0,0,0,0,0,0,0,0,-1,1000,1387,0,0
-217,-363,0,0,0,0,0,0,0,0,0,-1,1007,1387,0,0
-210,-363,0,0,0,0,0,0,0,0,0,-1,1014,1387,0,0
-203,-363,0,0,0,0,0,0,0,0,0,-1,1021,1387,0,0
-196,-363,0,0,0,0,0,0,0,0,0,-1,1028,1387,0,0
-189,-363,0,0,0,0,0,0,0,0,0,-1,1035,1387,0,0
-182,-363,0,0,0,0,0,0,0,0,0,-1,1042,1387,0,0
-175,-363,0,0,0,0,0,0,0,0,0,-1,1049,1387,0,0
-168,-363,0,0,0,0,0,0,0,0,0,-1,1056,1387,0,0
-161,-363,0,0,0,0,0,0,0,0,0,-1,1063,1387,0,0
-154,-363,0,0,0,0,0,0,0,0,0,-1,1070,1387,0,0
-147,-363,0,0,0,0,0,0,0,0,0,-1,1077,1387,0,0
-140,-363,0,0,0,0,0,0,0,0,0,-1,1084,1387,0,0
-133,-363,0,0,0,0,0,0,0,0,0,-1,1091,1387,0,0
-126,-363,0,0,0,0,0,0,0,0,0,-1,1098,1387,0,0
-119,-363,0,0,0,0,0,0,0,0,0,-1,1105,1387,0,0
-112,-363,0,0,0,0,0,0,0,0,0,-1,1112,1387,0,0
-105,-363,0,0,0,0,0,0,0,0,0,-1,1119,1387,0,0
-98,-363,0,0,0,0,0,0,0,0,0,-1,1126,1387,0,0
-91,-363,0,0,0,0,0,0,0,0,0,-1,1133,1387,0,0
-84,-363,0,0,0,0,0,0,0,0,0,-1,1140,1387,0,0
-77,-363,0,0,0,0,0,0,0,0,0,-1,1147,1387,0,0
-70,-363,0,0,0,0,0,0,0,0,0,-1,1154,1387,0,0
-63,-363,0,0,0,0,0,0,0,0,0,-1,1161,1387,0,0
-56,-363,0,0,0,0,0,0,0,0,0,-1,1168,1387,0,0
-49,-363,0,0,0,0,0,0,0,0,0,-1,1175,1387,0,0
-42,-363,0,0,0,0,0,0,0,0,0,-1,1182,1387,0,0
-35,-363,0,0,0,0,0,0,0,0,0,-1,1189,1387,0,0
-28,-363,0,0,0,0,0,0,0,0,0,-1,1196,1387,0,0
-21,-363,0,0,0,0,0,0,0,0,0,-1,1203,1387,0,0
-14,-363,0,0,0,0,0,0,0,0,0,-1,1210,1387,0,0
-7,-363,0,0,0,0,0,0,0,0,0,-1,1217,1387,0,0
0,-363,0,0,0,0,0,0,0,0,0,-1,1224,1387,0,0
7,-363,0,0,0,0,0,0,0,0,0,-1,1231,1387,0,0
14,-363,0,0,0,0,0,0,0,0,0,-1,1238,1387,0,0
21,-363,0,0,0,0,0,0,0,0,0,-1,1245,1387,0,0
28,-363,0,0,0,0,0,0,0,0,0,-1,1252,1387,0,0
35,-363,0,0,0,0,0,0,0,0,0,-1,1259,1387,0,0
42,-363,0,0,0,0,0,0,0,0,0,-1,1266,1387,0,0
49,-363,0,0,0,0,0,0,0,0,0,-1,1273,1387,0,0
56,-363,0,0,0,0,0,0,0,0,0,-1,1280,1387,0,0
63,-363,0,0,0,0,0,0,0,0,0,-1,1287,1387,0,0
70,-363,0,0,0,0,0,0,0,0,0,-1,1294,1387,0,0
77,-363,0,0,0,0,0,0,0,0,0,-1,1301,1387,0,0
84,-363,0,0,0,0,0,0,0,0,0,-1,1308,1387,0,0
91,-363,0,0,0,0,0,0,0,0,0,-1,1315,1387,0,0
98,-363,0,0,0,0,0,0,0,0,0,-1,1322,1387,0,0
105,-363,0,0,0,0,0,0,0,0,0,-1,1329,1387,0,0
112,-363,0,0,0,0,0,0,0,0,0,-1,1336,1387,0,0
119,-363,0,0,0,0,0,0,0,0,0,-1,1343,1387,0,0
126,-363,0,0,0,0,0,0,0,0,0,-1,1350,1387,0,0
133,-363,0,0,0,0,0,0,0,0,0,-1,1357,1387,0,0
140,-363,0,0,0,0,0,0,0,0,0,-1,1364,1387,0,0
147,-363,0,0,0,0,0,0,0,0,0,-1,1371,1387,0,0
154,-363,0,0,0,0,0,0,0,0,0,-1,1378,1387,0,0
161,-363,0,0,0,0,0,0,0,0,0,-1,1385,1387,0,0
168,-363,0,0,0,0,0,0,0,0,0,-1,1392,1387,0,0
175,-363,0,0,0,0,0,0,0,0,0,-1,1399,1387,0,0
182,-363,0,0,0,0,0,0,0,0,0,-1,1406,1387,0,0
189,-363,0,0,0,0,0,0,0,0,0,-1,1413,1387,0,0
196,-363,0,0,0,0,0,0,0,0,0,-1,1420,1387,0,0
203,-363,0,0,0,0,0,0,0,0,0,-1,1427,1387,0,0
210,-363,0,0,0,0,0,0,0,0,0,-1,1434,1387,0,0
217,-363,0,0,0,0,0,0,0,0,0,-1,1441,1387,0,0
224,-363,0,0,0,0,0,0,0,0,0,-1,1448,1387,0,0
231,-363,0,0,0,0,0,0,0,0,0,-1,1455,1387,0,0
238,-363,0,0,0,0,0,0,0,0,0,-1,1462,1387,0,0
245,-363,0,0,0,0,0,0,0,0,0,-1,1469,1387,0,0
252,-363,0,0,0,0,0,0,0,0,0,-1,1476,1387,0,0
259,-363,0,0,0,0,0,0,0,0,0,-1,1483,1387,0,0
266,-363,0,0,0,0,0,0,0,0,0,-1,1490,1387,0,0
273,-363,0,0,0,0,0,0,0,0,0,-1,1497,1387,0,0
280,-363,0,0,0,0,0,0,0,0,0,-1,1504,1387,0,0
287,-363,0,0,0,0,0,0,0,0,0,-1,1511,1387,0,0
294,-363,0,0,0,0,0,0,0,0,0,-1,1518,1387,0,0
301,-363,0,0,0,0,0,0,0,0,0,-1,1525,1387,0,0
308,-363,0,0,0,0,0,0,0,0,0,-1,1532,1387,0,0
315,-363,0,0,0,0,0,0,0,0,0,-1,1539,1387,0,0
322,-363,0,0,0,0,0,0,0,0,0,-1,1546,1387,0,0
329,-363,0,0,0,0,0,0,0,0,0,-1,1553,1387,0,0
336,-363,0,0,0,0,0,0,0,0,0,-1,1560,1387,0,0
343,-363,0,0,0,0,0,0,0,0,0,-1,1567,1387,0,0
350,-363,0,0,0,0,0,0,0,0,0,-1,1574,1387,0,0
357,-363,0,0,0,0,0,0,0,0,0,-1,1581,1387,0,0
364,-363,0,0,0,0,0,0,0,0,0,-1,1588,1387,0,0
371,-363,0,0,0,0,0,0,0,0,0,-1,1595,1387,0,0
378,-363,0,0,0,0,0,0,0,0,0,-1,1602,1387,0,0
385,-363,0,0,0,0,0,0,0,0,0,-1,1609,1387,0,0
392,-363,0,0,0,0,0,0,0,0,0,-1,1616,1387,0,0
399,-363,0,0,0,0,0,0,0,0,0,-1,1623,1387,0,0
406,-363,0,0,0,0,0,0,0,0,0,-1,1630,1387,0,0
413,-363,0,0,0,0,0,0,0,0,0,-1,1637,1387,0,0
420,-363,0,0,0,0,0,0,0,0,0,-1,1644,1387,0,0
427,-363,0,0,0,0,0,0,0,0,0,-1,1651,1387,0,0
434,-363,0,0,0,0,0,0,0,0,0,-1,1658,1387,0,0
441,-363,0,0,0,0,0,0,0,0,0,-1,1665,1387,0,0
448,-363,0,0,0,0,0,0,0,0,0,-1,1672,1387,0,0
455,-363,0,0,0,0,0,0,0,0,0,-1,1679,1387,0,0
462,-363,0,0,0,0,0,0,0,0,0,-1,1686,1387,0,0
469,-363,0,0,0,0,0,0,0,0,0,-1,1693,1387,0,0
476,-363,0,0,0,0,0,0,0,0,0,-1,1700,1387,0,0
483,-363,0,0,0,0,0,0,0,0,0,-1,1707,1387,0,0
490,-363,0,0,0,0,0,0,0,0,0,-1,1714,1387,0,0
497,-363,0,0,0,0,0,0,0,0,0,-1,1721,1387,0,0
504,-363,0,0,0,0,0,0,0,0,0,-1,1728,1387,0,0
511,-363,0,0,0,0,0,0,0,0,0,-1,1735,1387,0,0
518,-363,0,0,0,0,0,0,0,0,0,-1,1742,1387,0,0
525,-363,0,0,0,0,0,0,0,0,0,-1,1749,1387,0,0
532,-363,0,0,0,0,0,0,0,0,0,-1,1756,1387,0,0
539,-363,0,0,0,0,0,0,0,0,0,-1,1763,1387,0,0
546,-363,0,0,0,0,0,0,0,0,0,-1,1770,1387,0,0
553,-363,37.9039,5.52307,0,0,0,0,0,0,0,-1,1777,1387,37.9039,-5.52309
560,-363,37.6345,4.26685,-0.0445821,0.137095,-0.134446,0.208514,-0.116001,-1.0825,0.189879,0.0485517,1784,1387,37.6345,-4.26688
567,-363,37.2367,3.52637,-0.0407543,0.1136,-0.117552,0.177046,-0.1042,-1.07588,0.164183,0.0460486,1791,1387,37.2367,-3.52642
574,-363,36.9333,2.89648,-0.0349354,0.0924571,-0.101185,0.148325,-0.0908032,-1.06631,0.139386,0.0445711,1798,1387,36.9333,-2.89643
581,-363,37.0035,3.00439,0,0,0,0,0,0,0,-1,1805,1387,37.0035,-3.00435
588,-363,32.5608,6.72131,0,0,0,0,0,0,0,-1,1812,1387,32.5608,-6.72131
595,-363,31.4688,6.95435,0,0,0,0,0,0,0,-1,1819,1387,31.4688,-6.95431
602,-363,25.7437,5.33667,0,0,0,0,0,0,0,-1,1826,1387,25.7437,-5.33667
609,-363,27.7048,7.06885,0,0,0,0,0,0,0,-1,1833,1387,27.7048,-7.06882
616,-363,16.229,1.08704,0,0,0,0,0,0,0,-1,1840,1387,16.229,-1.08706
623,-363,15.7283,7.16663,0,0,0,0,0,0,0,-1,1847,1387,15.7282,-7.16665
630,-363,18.3192,9.27844,0,0,0,0,0,0,0,-1,1854,1387,18.3192,-9.27843
637,-363,22.4384,10.8661,0,0,0,0,0,0,0,-1,1861,1387,22.4384,-10.8661
644,-363,22.4843,10.3969,0.00460813,0.00292088,-0.00237337,0.00628336,0.00124566,-0.614635,0.0038416,0.014116,1868,1387,22.4843,-10.3968
651,-363,22.5133,9.97681,0.00326418,0.00146708,-0.000992578,0.00370451,0.00102675,-0.417539,0.00220847,0.0121568,1875,1387,22.5133,-9.97679
658,-363,22.5159,9.58777,0.0017694,0.00087627,-0.000780068,0.00222168,0.000423987,-0.525434,0.00136197,0.0125374,1882,1387,22.5159,-9.5878
665,-363,22.5033,9.24426,0.000841375,0.000356192,-0.000460136,0.00111895,7.86146e-05,-0.542807,0.000721194,0.0121762,1889,1387,22.5033,-9.2443
672,-363,22.4885,8.89331,0.001099,3.42762e-05,-0.00015506,0.00112112,1.21538e-05,-0.141714,0.000743396,0.0129532,1896,1387,22.4886,-8.89333
679,-363,22.4889,8.51782,0.00144136,-0.000237089,5.94745e-05,0.00144346,-0.000239193,0.0353751,0.00105115,0.0140602,1903,1387,22.4889,-8.51777
686,-363,22.4772,8.16052,0.00187386,-0.00045804,0.000182023,0.00188798,-0.000472163,0.0774329,0.00144204,0.0140687,1910,1387,22.4772,-8.16055
693,-363,22.4698,7.7699,0.00239948,-0.000603524,0.000213972,0.00241465,-0.000618693,0.0707761,0.00185079,0.0135006,1917,1387,22.4699,-7.76984
700,-363,22.5997,7.3656,0.00313286,-0.000505664,4.34056e-05,0.00313338,-0.000506182,0.0119272,0.00227648,0.0231422,1924,1387,22.5997,-7.36565
707,-363,22.839,7.01038,0,0,0,0,0,0,0,-1,1931,1387,22.839,-7.01038
714,-363,16.5782,5.3147,0,0,0,0,0,0,0,-1,1938,1387,16.5783,-5.31472
721,-363,14.4045,4.51685,0,0,0,0,0,0,0,-1,1945,1387,14.4045,-4.51685
728,-363,19.9756,0.853027,0,0,0,0,0,0,0,-1,1952,1387,19.9756,-0.853059
735,-363,21.4297,1.2981,0,0,0,0,0,0,0,-1,1959,1387,21.4297,-1.29811
742,-363,21.3621,2.79663,0,0,0,0,0,0,0,-1,1966,1387,21.362,-2.7966
749,-363,0,0,0,0,0,0,0,0,0,-1,1973,1387,0,0
756,-363,0,0,0,0,0,0,0,0,0,-1,1980,1387,0,0
763,-363,0,0,0,0,0,0,0,0,0,-1,1987,1387,0,0
770,-363,0,0,0,0,0,0,0,0,0,-1,1994,1387,0,0
777,-363,0,0,0,0,0,0,0,0,0,-1,2001,1387,0,0
784,-363,0,0,0,0,0,0,0,0,0,-1,2008,1387,0,0
791,-363,0,0,0,0,0,0,0,0,0,-1,2015,1387,0,0
798,-363,0,0,0,0,0,0,0,0,0,-1,2022,1387,0,0
805,-363,0,0,0,0,0,0,0,0,0,-1,2029,1387,0,0
812,-363,0,0,0,0,0,0,0,0,0,-1,2036,1387,0,0
-700,-370,0,0,0,0,0,0,0,0,0,-1,524,1394,0,0
-693,-370,0,0,0,0,0,0,0,0,0,-1,531,1394,0,0
-686,-370,0,0,0,0,0,0,0,0,0,-1,538,1394,0,0
-679,-370,0,0,0,0,0,0,0,0,0,-1,545,1394,0,0
-672,-370,0,0,0,0,0,0,0,0,0,-1,552,1394,0,0
-665,-370,0,0,0,0,0,0,0,0,0,-1,559,1394,0,0
-658,-370,0,0,0,0,0,0,0,0,0,-1,566,1394,0,0
-651,-370,0,0,0,0,0,0,0,0,0,-1,573,1394,0,0
-644,-370,0,0,0,0,0,0,0,0,0,-1,580,1394,0,0
-637,-370,0,0,0,0,0,0,0,0,0,-1,587,1394,0,0
-630,-370,0,0,0,0,0,0,0,0,0,-1,594,1394,0,0
-623,-370,-10.1758,-7.10486,0,0,0,0,0,0,0,-1,601,1394,-10.1758,7.10483
-616,-370,-8.85925,-1.61475,0,0,0,0,0,0,0,-1,608,1394,-8.85925,1.61476
-609,-370,-5.39325,0.0421143,0,0,0,0,0,0,0,-1,615,1394,-5.39328,-0.0421372
-602,-370,-12.3151,3.44592,0,0,0,0,0,0,0,-1,622,1394,-12.3151,-3.44595
-595,-370,-7.53284,5.44214,0,0,0,0,0,0,0,-1,629,1394,-7.53284,-5.44216
-588,-370,-9.82947,4.03198,0,0,0,0,0,0,0,-1,636,1394,-9.82949,-4.03199
-581,-370,-10.1887,4.60059,0,0,0,0,0,0,0,-1,643,1394,-10.1887,-4.60053
-574,-370,-10.1957,5.05713,0,0,0,0,0,0,0,-1,650,1394,-10.1957,-5.05713
-567,-370,-10.3169,5.31421,-0.00771366,0.00403468,-0.00310021,0.00480258,-0.00848157,-1.32799,0.00776703,0.0407833,657,1394,-10.3169,-5.31424
-560,-370,-10.4955,5.57629,-0.00555336,0.00277566,-0.00239359,0.00341452,-0.00619223,-1.30997,0.00562321,0.0199804,664,1394,-10.4955,-5.57627
-553,-370,-10.4517,6.01294,-0.00349803,0.00192108,-0.00158631,0.00235128,-0.00392823,-1.30597,0.00366339,0.0108998,671,1394,-10.4517,-6.01289
-546,-370,-10.4472,6.41064,-0.00160589,0.00130837,-0.000746161,0.00148831,-0.00178582,-1.33417,0.00189292,0.014774,678,1394,-10.4472,-6.41067
-539,-370,-10.4135,6.84985,0.000166158,0.000932446,0.000104021,0.000946316,0.000152288,1.43824,0.00058674,0.0191748,685,1394,-10.4135,-6.84986
-532,-370,-10.4645,7.27075,0.00189969,0.000789836,0.00102281,0.00250842,0.000181107,0.536846,0.0016153,0.0204728,692,1394,-10.4645,-7.27071
-525,-370,-10.4581,7.6781,0.00358101,0.000815033,0.00197929,0.00461261,-0.000216566,0.480461,0.00314974,0.0153534,699,1394,-10.4581,-7.67804
-518,-370,-10.4693,8.07178,0.0052625,0.000986042,0.0029893,0.00679958,-0.000551044,0.47494,0.00472745,0.0110563,706,1394,-10.4693,-8.07173
-511,-370,-10.474,8.50916,0.0068292,0.00156039,0.00409266,0.00906202,-0.000672434,0.499434,0.00627751,0.0136629,713,1394,-10.474,-8.50919
-504,-370,-10.3541,8.97791,0.00854413,0.00220624,0.00530006,0.0115504,-0.000799993,0.515958,0.00798029,0.0402936,720,1394,-10.3541,-8.97794
-497,-370,-10.1674,9.39099,0,0,0,0,0,0,0,-1,727,1394,-10.1674,-9.39095
-490,-370,-5.30695,4.5271,0,0,0,0,0,0,0,-1,734,1394,-5.30698,-4.52704
-483,-370,-6.02997,4.59253,0,0,0,0,0,0,0,-1,741,1394,-6.02994,-4.5925
-476,-370,-6.75293,4.65796,0,0,0,0,0,0,0,-1,748,1394,-6.7529,-4.65795
-469,-370,-10.584,1.14294,0,0,0,0,0,0,0,-1,755,1394,-10.584,-1.14293
-462,-370,-9.54462,0.387207,0,0,0,0,0,0,0,-1,762,1394,-9.5446,-0.387176
-455,-370,-8.50525,-0.36853,0,0,0,0,0,0,0,-1,769,1394,-8.50523,0.368582
-448,-370,-10.9543,2.28833,0,0,0,0,0,0,0,-1,776,1394,-10.9543,-2.28835
-441,-370,-11.8699,1.8313,0,0,0,0,0,0,0,-1,783,1394,-11.8699,-1.83127
-434,-370,-12.7855,1.37415,0,0,0,0,0,0,0,-1,790,1394,-12.7855,-1.37419
-427,-370,0,0,0,0,0,0,0,0,0,-1,797,1394,0,0
-420,-370,0,0,0,0,0,0,0,0,0,-1,804,1394,0,0
-413,-370,0,0,0,0,0,0,0,0,0,-1,811,1394,0,0
-406,-370,0,0,0,0,0,0,0,0,0,-1,818,1394,0,0
-399,-370,0,0,0,0,0,0,0,0,0,-1,825,1394,0,0
-392,-370,0,0,0,0,0,0,0,0,0,-1,832,1394,0,0
-385,-370,0,0,0,0,0,0,0,0,0,-1,839,1394,0,0
-378,-370,0,0,0,0,0,0,0,0,0,-1,846,1394,0,0
-371,-370,0,0,0,0,0,0,0,0,0,-1,853,1394,0,0
-364,-370,0,0,0,0,0,0,0,0,0,-1,860,1394,0,0
-357,-370,0,0,0,0,0,0,0,0,0,-1,867,1394,0,0
-350,-370,0,0,0,0,0,0,0,0,0,-1,874,1394,0,0
-343,-370,0,0,0,0,0,0,0,0,0,-1,881,1394,0,0
-336,-370,0,0,0,0,0,0,0,0,0,-1,888,1394,0,0
-329,-370,0,0,0,0,0,0,0,0,0,-1,895,1394,0,0
-322,-370,0,0,0,0,0,0,0,0,0,-1,902,1394,0,0
-315,-370,0,0,0,0,0,0,0,0,0,-1,909,1394,0,0
-308,-370,0,0,0,0,0,0,0,0,0,-1,916,1394,0,0
-301,-370,0,0,0,0,0,0,0,0,0,-1,923,1394,0,0
-294,-370,0,0,0,0,0,0,0,0,0,-1,930,1394,0,0
-287,-370,0,0,0,0,0,0,0,0,0,-1,937,1394,0,0
-280,-370,0,0,0,0,0,0,0,0,0,-1,944,1394,0,0
-273,-370,0,0,0,0,0,0,0,0,0,-1,951,1394,0,0
-266,-370,0,0,0,0,0,0,0,0,0,-1,958,1394,0,0
-259,-370,0,0,0,0,0,0,0,0,0,-1,965,1394,0,0
-252,-370,0,0,0,0,0,0,0,0,0,-1,972,1394,0,0
-245,-370,0,0,0,0,0,0,0,0,0,-1,979,1394,0,0
-238,-370,0,0,0,0,0,0,0,0,0,-1,986,1394,0,0
-231,-370,0,0,0,0,0,0,0,0,0,-1,993,1394,0,0
-224,-370,0,0,0,0,0,0,0,0,0,-1,1000,1394,0,0
-217,-370,0,0,0,0,0,0,0,0,0,-1,1007,1394,0,0
-210,-370,0,0,0,0,0,0,0,0,0,-1,1014,1394,0,0
-203,-370,0,0,0,0,0,0,0,0,0,-1,1021,1394,0,0
-196,-370,0,0,0,0,0,0,0,0,0,-1,1028,1394,0,0
-189,-370,0,0,0,0,0,0,0,0,0,-1,1035,1394,0,0
-182,-370,0,0,0,0,0,0,0,0,0,-1,1042,1394,0,0
-175,-370,0,0,0,0,0,0,0,0,0,-1,1049,1394,0,0
-168,-370,0,0,0,0,0,0,0,0,0,-1,1056,1394,0,0
-161,-370,0,0,0,0,0,0,0,0,0,-1,1063,1394,0,0
-154,-370,0,0,0,0,0,0,0,0,0,-1,1070,1394,0,0
-147,-370,0,0,0,0,0,0,0,0,0,-1,1077,1394,0,0
-140,-370,0,0,0,0,0,0,0,0,0,-1,1084,1394,0,0
-133,-370,0,0,0,0,0,0,0,0,0,-1,1091,1394,0,0
-126,-370,0,0,0,0,0,0,0,0,0,-1,1098,1394,0,0
-119,-370,0,0,0,0,0,0,0,0,0,-1,1105,1394,0,0
-112,-370,0,0,0,0,0,0,0,0,0,-1,1112,1394,0,0
-105,-370,0,0,0,0,0,0,0,0,0,-1,1119,1394,0,0
-98,-370,0,0,0,0,0,0,0,0,0,-1,1126,1394,0,0
-91,-370,0,0,0,0,0,0,0,0,0,-1,1133,1394,0,0
-84,-370,0,0,0,0,0,0,0,0,0,-1,1140,1394,0,0
-77,-370,0,0,0,0,0,0,0,0,0,-1,1147,1394,0,0
-70,-370,0,0,0,0,0,0,0,0,0,-1,1154,1394,0,0
-63,-370,0,0,0,0,0,0,0,0,0,-1,1161,1394,0,0
-56,-370,0,0,0,0,0,0,0,0,0,-1,1168,1394,0,0
-49,-370,0,0,0,0,0,0,0,0,0,-1,1175,1394,0,0
-42,-370,0,0,0,0,0,0,0,0,0,-1,1182,1394,0,0
-35,-370,0,0,0,0,0,0,0,0,0,-1,1189,1394,0,0
-28,-370,0,0,0,0,0,0,0,0,0,-1,1196,1394,0,0
-21,-370,0,0,0,0,0,0,0,0,0,-1,1203,1394,0,0
-14,-370,0,0,0,0,0,0,0,0,0,-1,1210,1394,0,0
-7,-370,0,0,0,0,0,0,0,0,0,-1,1217,1394,0,0
0,-370,0,0,0,0,0,0,0,0,0,-1,1224,1394,0,0
7,-370,0,0,0,0,0,0,0,0,0,-1,1231,1394,0,0
14,-370,0,0,0,0,0,0,0,0,0,-1,1238,1394,0,0
21,-370,0,0,0,0,0,0,0,0,0,-1,1245,1394,0,0
28,-370,0,0,0,0,0,0,0,0,0,-1,1252,1394,0,0
35,-370,0,0,0,0,0,0,0,0,0,-1,1259,1394,0,0
42,-370,0,0,0,0,0,0,0,0,0,-1,1266,1394,0,0
49,-370,0,0,0,0,0,0,0,0,0,-1,1273,1394,0,0
56,-370,0,0,0,0,0,0,0,0,0,-1,1280,1394,0,0
63,-370,0,0,0,0,0,0,0,0,0,-1,1287,1394,0,0
70,-370,0,0,0,0,0,0,0,0,0,-1,1294,1394,0,0
77,-370,0,0,0,0,0,0,0,0,0,-1,1301,1394,0,0
84,-370,0,0,0,0,0,0,0,0,0,-1,1308,1394,0,0
91,-370,0,0,0,0,0,0,0,0,0,-1,1315,1394,0,0
98,-370,0,0,0,0,0,0,0,0,0,-1,1322,1394,0,0
105,-370,0,0,0,0,0,0,0,0,0,-1,1329,1394,0,0
112,-370,0,0,0,0,0,0,0,0,0,-1,1336,1394,0,0
119,-370,0,0,0,0,0,0,0,0,0,-1,1343,1394,0,0
126,-370,0,0,0,0,0,0,0,0,0,-1,1350,1394,0,0
133,-370,0,0,0,0,0,0,0,0,0,-1,1357,1394,0,0
140,-370,0,0,0,0,0,0,0,0,0,-1,1364,1394,0,0
147,-370,0,0,0,0,0,0,0,0,0,-1,1371,1394,0,0
154,-370,0,0,0,0,0,0,0,0,0,-1,1378,1394,0,0
161,-370,0,0,0,0,0,0,0,0,0,-1,1385,1394,0,0
168,-370,0,0,0,0,0,0,0,0,0,-1,1392,1394,0,0
175,-370,0,0,0,0,0,0,0,0,0,-1,1399,1394,0,0
182,-370,0,0,0,0,0,0,0,0,0,-1,1406,1394,0,0
189,-370,0,0,0,0,0,0,0,0,0,-1,1413,1394,0,0
196,-370,0,0,0,0,0,0,0,0,0,-1,1420,1394,0,0
203,-370,0,0,0,0,0,0,0,0,0,-1,1427,1394,0,0
210,-370,0,0,0,0,0,0,0,0,0,-1,1434,1394,0,0
217,-370,0,0,0,0,0,0,0,0,0,-1,1441,1394,0,0
224,-370,0,0,0,0,0,0,0,0,0,-1,1448,1394,0,0
231,-370,0,0,0,0,0,0,0,0,0,-1,1455,1394,0,0
238,-370,0,0,0,0,0,0,0,0,0,-1,1462,1394,0,0
245,-370,0,0,0,0,0,0,0,0,0,-1,1469,1394,0,0
252,-370,0,0,0,0,0,0,0,0,0,-1,1476,1394,0,0
259,-370,0,0,0,0,0,0,0,0,0,-1,1483,1394,0,0
266,-370,0,0,0,0,0,0,0,0,0,-1,1490,1394,0,0
273,-370,0,0,0,0,0,0,0,0,0,-1,1497,1394,0,0
280,-370,0,0,0,0,0,0,0,0,0,-1,1504,1394,0,0
287,-370,0,0,0,0,0,0,0,0,0,-1,1511,1394,0,0
294,-370,0,0,0,0,0,0,0,0,0,-1,1518,1394,0,0
301,-370,0,0,0,0,0,0,0,0,0,-1,1525,1394,0,0
308,-370,0,0,0,0,0,0,0,0,0,-1,1532,1394,0,0
315,-370,0,0,0,0,0,0,0,0,0,-1,1539,1394,0,0
322,-370,0,0,0,0,0,0,0,0,0,-1,1546,1394,0,0
329,-370,0,0,0,0,0,0,0,0,0,-1,1553,1394,0,0
336,-370,0,0,0,0,0,0,0,0,0,-1,1560,1394,0,0
343,-370,0,0,0,0,0,0,0,0,0,-1,1567,1394,0,0
350,-370,0,0,0,0,0,0,0,0,0,-1,1574,1394,0,0
357,-370,0,0,0,0,0,0,0,0,0,-1,1581,1394,0,0
364,-370,0,0,0,0,0,0,0,0,0,-1,1588,1394,0,0
371,-370,0,0,0,0,0,0,0,0,0,-1,1595,1394,0,0
378,-370,0,0,0,0,0,0,0,0,0,-1,1602,1394,0,0
385,-370,0,0,0,0,0,0,0,0,0,-1,1609,1394,0,0
392,-370,0,0,0,0,0,0,0,0,0,-1,1616,1394,0,0
399,-370,0,0,0,0,0,0,0,0,0,-1,1623,1394,0,0
406,-370,0,0,0,0,0,0,0,0,0,-1,1630,1394,0,0
413,-370,0,0,0,0,0,0,0,0,0,-1,1637,1394,0,0
420,-370,0,0,0,0,0,0,0,0,0,-1,1644,1394,0,0
427,-370,0,0,0,0,0,0,0,0,0,-1,1651,1394,0,0
434,-370,0,0,0,0,0,0,0,0,0,-1,1658,1394,0,0
441,-370,0,0,0,0,0,0,0,0,0,-1,1665,1394,0,0
448,-370,0,0,0,0,0,0,0,0,0,-1,1672,1394,0,0
455,-370,0,0,0,0,0,0,0,0,0,-1,1679,1394,0,0
462,-370,0,0,0,0,0,0,0,0,0,-1,1686,1394,0,0
469,-370,0,0,0,0,0,0,0,0,0,-1,1693,1394,0,0
476,-370,0,0,0,0,0,0,0,0,0,-1,1700,1394,0,0
483,-370,0,0,0,0,0,0,0,0,0,-1,1707,1394,0,0
490,-370,0,0,0,0,0,0,0,0,0,-1,1714,1394,0,0
497,-370,0,0,0,0,0,0,0,0,0,-1,1721,1394,0,0
504,-370,0,0,0,0,0,0,0,0,0,-1,1728,1394,0,0
511,-370,0,0,0,0,0,0,0,0,0,-1,1735,1394,0,0
518,-370,0,0,0,0,0,0,0,0,0,-1,1742,1394,0,0
525,-370,0,0,0,0,0,0,0,0,0,-1,1749,1394,0,0
532,-370,0,0,0,0,0,0,0,0,0,-1,1756,1394,0,0
539,-370,0,0,0,0,0,0,0,0,0,-1,1763,1394,0,0
546,-370,27.4949,2.81201,0,0,0,0,0,0,0,-1,1770,1394,27.4948,-2.81198
553,-370,26.5985,1.99329,0,0,0,0,0,0,0,-1,1777,1394,26.5985,-1.99327
560,-370,38.1403,3.45044,0,0,0,0,0,0,0,-1,1784,1394,38.1403,-3.45042
567,-370,37.7321,2.9021,0,0,0,0,0,0,0,-1,1791,1394,37.7321,-2.90213
574,-370,37.6722,2.68494,0,0,0,0,0,0,0,-1,1798,1394,37.6723,-2.68495
581,-370,26.7473,2.29626,0,0,0,0,0,0,0,-1,1805,1394,26.7473,-2.29625
588,-370,32.1333,7.8728,0,0,0,0,0,0,0,-1,1812,1394,32.1333,-7.87275
595,-370,25.793,4.5271,0,0,0,0,0,0,0,-1,1819,1394,25.793,-4.52711
602,-370,25.1077,5.34937,0,0,0,0,0,0,0,-1,1826,1394,25.1077,-5.34932
609,-370,16.712,0.993286,0,0,0,0,0,0,0,-1,1833,1394,16.7121,-0.99323
616,-370,16.7764,7.23315,0,0,0,0,0,0,0,-1,1840,1394,16.7764,-7.23313
623,-370,17.6625,8.94263,0,0,0,0,0,0,0,-1,1847,1394,17.6624,-8.94258
630,-370,20.9681,11.1785,0,0,0,0,0,0,0,-1,1854,1394,20.9681,-11.1784
637,-370,22.1317,10.7836,0,0,0,0,0,0,0,-1,1861,1394,22.1318,-10.7836
644,-370,22.1367,10.3882,-0.000296051,0.00228914,-0.00220535,0.00355279,-0.0015597,-1.05047,0.00302554,0.0121638,1868,1394,22.1368,-10.3882
651,-370,22.1472,9.99634,0.000361041,0.00119798,-0.00108051,0.00193823,-0.000379204,-0.970149,0.00143535,0.0121798,1875,1394,22.1472,-9.99638
658,-370,22.1549,9.62219,0.000773867,0.000662736,-0.000689228,0.00140976,2.68372e-05,-0.745175,0.000931027,0.0129384,1882,1394,22.1549,-9.62222
665,-370,22.1338,9.24805,0.00101932,0.000217646,-0.000314596,0.00112803,0.000108933,-0.332718,0.000718466,0.0139432,1889,1394,22.1338,-9.24808
672,-370,22.1241,8.86816,0.00127629,-0.00010552,-9.23476e-06,0.00127635,-0.000105582,-0.00668269,0.00088819,0.0144484,1896,1394,22.1242,-8.86813
679,-370,22.1226,8.5144,0.00162791,-0.000411007,0.000224469,0.00165233,-0.000435426,0.108363,0.00127179,0.0139801,1903,1394,22.1225,-8.51442
686,-370,22.1019,8.15979,0.00209356,-0.000714081,0.000381629,0.00214451,-0.000765029,0.132718,0.00174162,0.0139535,1910,1394,22.1019,-8.15984
693,-370,22.0769,7.76099,0.00269747,-0.000970211,0.000443335,0.00275029,-0.00102304,0.118601,0.00225333,0.0124196,1917,1394,22.0769,-7.76104
700,-370,22.1816,7.33313,0.00360821,-0.0010067,0.000274797,0.00362451,-0.00102301,0.0592664,0.00281989,0.0275784,1924,1394,22.1817,-7.33311
707,-370,22.3728,6.86414,0,0,0,0,0,0,0,-1,1931,1394,22.3728,-6.86419
714,-370,16.9116,5.93018,0,0,0,0,0,0,0,-1,1938,1394,16.9116,-5.93014
721,-370,17.2007,4.69153,0,0,0,0,0,0,0,-1,1945,1394,17.2007,-4.69158
728,-370,20.5315,-0.313354,0,0,0,0,0,0,0,-1,1952,1394,20.5315,0.313332
735,-370,22.3652,0.233398,0,0,0,0,0,0,0,-1,1959,1394,22.3652,-0.233355
742,-370,24.1989,0.780029,0,0,0,0,0,0,0,-1,1966,1394,24.1989,-0.780041
749,-370,0,0,0,0,0,0,0,0,0,-1,1973,1394,0,0
756,-370,0,0,0,0,0,0,0,0,0,-1,1980,1394,0,0
763,-370,0,0,0,0,0,0,0,0,0,-1,1987,1394,0,0
770,-370,0,0,0,0,0,0,0,0,0,-1,1994,1394,0,0
777,-370,0,0,0,0,0,0,0,0,0,-1,2001,1394,0,0
784,-370,0,0,0,0,0,0,0,0,0,-1,2008,1394,0,0
791,-370,0,0,0,0,0,0,0,0,0,-1,2015,1394,0,0
798,-370,0,0,0,0,0,0,0,0,0,-1,2022,1394,0,0
805,-370,0,0,0,0,0,0,0,0,0,-1,2029,1394,0,0
812,-370,0,0,0,0,0,0,0,0,0,-1,2036,1394,0,0
-700,-377,0,0,0,0,0,0,0,0,0,-1,524,1401,0,0
-693,-377,0,0,0,0,0,0,0,0,0,-1,531,1401,0,0
-686,-377,0,0,0,0,0,0,0,0,0,-1,538,1401,0,0
-679,-377,0,0,0,0,0,0,0,0,0,-1,545,1401,0,0
-672,-377,0,0,0,0,0,0,0,0,0,-1,552,1401,0,0
-665,-377,0,0,0,0,0,0,0,0,0,-1,559,1401,0,0
-658,-377,0,0,0,0,0,0,0,0,0,-1,566,1401,0,0
-651,-377,0,0,0,0,0,0,0,0,0,-1,573,1401,0,0
-644,-377,0,0,0,0,0,0,0,0,0,-1,580,1401,0,0
-637,-377,0,0,0,0,0,0,0,0,0,-1,587,1401,0,0
-630,-377,0,0,0,0,0,0,0,0,0,-1,594,1401,0,0
-623,-377,0,0,0,0,0,0,0,0,0,-1,601,1401,0,0
-616,-377,-9.43915,-2.4906,0,0,0,0,0,0,0,-1,608,1401,-9.43915,2.49062
-609,-377,-7.2821,-1.35278,0,0,0,0,0,0,0,-1,615,1401,-7.28208,1.35279
-602,-377,-14.9736,3.98279,0,0,0,0,0,0,0,-1,622,1401,-14.9737,-3.98276
-595,-377,-6.9082,1.18201,0,0,0,0,0,0,0,-1,629,1401,-6.90822,-1.18204
-588,-377,-9.32385,4.25415,0,0,0,0,0,0,0,-1,636,1401,-9.32383,-4.25418
-581,-377,-9.63312,4.55225,0,0,0,0,0,0,0,-1,643,1401,-9.63314,-4.55219
-574,-377,-9.68341,4.81799,0,0,0,0,0,0,0,-1,650,1401,-9.68344,-4.81796
-567,-377,-9.81049,5.37146,-0.0104221,0.00517552,-0.00392014,0.00610534,-0.011352,-1.33791,0.0102296,0.0410054,657,1401,-9.8105,-5.37149
-560,-377,-10.1303,5.66077,-0.00772417,0.0035705,-0.00306162,0.00434702,-0.00850069,-1.3224,0.00754574,0.0355629,664,1401,-10.1303,-5.66072
-553,-377,-10.0149,5.9967,-0.00531976,0.00248779,-0.00216685,0.00304884,-0.00588081,-1.31743,0.00524125,0.0133642,671,1401,-10.0149,-5.99666
-546,-377,-10.0454,6.47144,-0.0031944,0.00170731,-0.00127055,0.00201707,-0.00350416,-1.33166,0.003226,0.0162147,678,1401,-10.0454,-6.47148
-539,-377,-10.0103,6.86157,-0.00126891,0.00119747,-0.000404407,0.00126209,-0.00133352,-1.41235,0.00149877,0.0219874,685,1401,-10.0103,-6.86158
-532,-377,-10.0534,7.24646,0.000583705,0.000964661,0.000517221,0.00132536,0.000223002,0.961828,0.000819419,0.019125,692,1401,-10.0534,-7.2465
-525,-377,-10.0162,7.69128,0.00234389,0.000915845,0.00145261,0.00324848,1.12518e-05,0.556969,0.00216191,0.0187114,699,1401,-10.0162,-7.69123
-518,-377,-10.0606,8.08459,0.00407725,0.00102233,0.0024222,0.00541339,-0.000313804,0.504087,0.00371794,0.0125679,706,1401,-10.0606,-8.08462
-511,-377,-10.0947,8.51172,0.0058017,0.00147479,0.00351605,0.00776658,-0.000490097,0.509598,0.00534858,0.0113331,713,1401,-10.0947,-8.51168
-504,-377,-10.1104,8.95032,0.00759588,0.0020448,0.00468139,0.0102627,-0.000621999,0.517812,0.00705826,0.0138057,720,1401,-10.1103,-8.95033
-497,-377,-10.1023,9.35925,0,0,0,0,0,0,0,-1,727,1401,-10.1023,-9.35926
-490,-377,-8.88409,10.1245,0,0,0,0,0,0,0,-1,734,1401,-8.8841,-10.1245
-483,-377,-5.6524,5.07324,0,0,0,0,0,0,0,-1,741,1401,-5.6524,-5.07325
-476,-377,-6.11682,5.10535,0,0,0,0,0,0,0,-1,748,1401,-6.11681,-5.10537
-469,-377,-10.3211,1.9281,0,0,0,0,0,0,0,-1,755,1401,-10.3211,-1.92808
-462,-377,-9.2204,1.0022,0,0,0,0,0,0,0,-1,762,1401,-9.22039,-1.00218
-455,-377,-8.11969,0.0762939,0,0,0,0,0,0,0,-1,769,1401,-8.11968,-0.0762759
-448,-377,-9.05334,0.877319,0,0,0,0,0,0,0,-1,776,1401,-9.05332,-0.877324
-441,-377,-11.212,0.763428,0,0,0,0,0,0,0,-1,783,1401,-11.212,-0.763415
-434,-377,-11.0984,0.996216,0,0,0,0,0,0,0,-1,790,1401,-11.0984,-0.996265
-427,-377,-11.1733,1.25732,0,0,0,0,0,0,0,-1,797,1401,-11.1733,-1.25732
-420,-377,0,0,0,0,0,0,0,0,0,-1,804,1401,0,0
-413,-377,0,0,0,0,0,0,0,0,0,-1,811,1401,0,0
-406,-377,0,0,0,0,0,0,0,0,0,-1,818,1401,0,0
-399,-377,0,0,0,0,0,0,0,0,0,-1,825,1401,0,0
-392,-377,0,0,0,0,0,0,0,0,0,-1,832,1401,0,0
-385,-377,0,0,0,0,0,0,0,0,0,-1,839,1401,0,0
-378,-377,0,0,0,0,0,0,0,0,0,-1,846,1401,0,0
-371,-377,0,0,0,0,0,0,0,0,0,-1,853,1401,0,0
-364,-377,0,0,0,0,0,0,0,0,0,-1,860,1401,0,0
-357,-377,0,0,0,0,0,0,0,0,0,-1,867,1401,0,0
-350,-377,0,0,0,0,0,0,0,0,0,-1,874,1401,0,0
-343,-377,0,0,0,0,0,0,0,0,0,-1,881,1401,0,0
-336,-377,0,0,0,0,0,0,0,0,0,-1,888,1401,0,0
-329,-377,0,0,0,0,0,0,0,0,0,-1,895,1401,0,0
-322,-377,0,0,0,0,0,0,0,0,0,-1,902,1401,0,0
-315,-377,0,0,0,0,0,0,0,0,0,-1,909,1401,0,0
-308,-377,0,0,0,0,0,0,0,0,0,-1,916,1401,0,0
-301,-377,0,0,0,0,0,0,0,0,0,-1,923,1401,0,0
-294,-377,0,0,0,0,0,0,0,0,0,-1,930,1401,0,0
-287,-377,0,0,0,0,0,0,0,0,0,-1,937,1401,0,0
-280,-377,0,0,0,0,0,0,0,0,0,-1,944,1401,0,0
-273,-377,0,0,0,0,0,0,0,0,0,-1,951,1401,0,0
-266,-377,0,0,0,0,0,0,0,0,0,-1,958,1401,0,0
-259,-377,0,0,0,0,0,0,0,0,0,-1,965,1401,0,0
-252,-377,0,0,0,0,0,0,0,0,0,-1,972,1401,0,0
-245,-377,0,0,0,0,0,0,0,0,0,-1,979,1401,0,0
-238,-377,0,0,0,0,0,0,0,0,0,-1,986,1401,0,0
-231,-377,0,0,0,0,0,0,0,0,0,-1,993,1401,0,0
-224,-377,0,0,0,0,0,0,0,0,0,-1,1000,1401,0,0
-217,-377,0,0,0,0,0,0,0,0,0,-1,1007,1401,0,0
-210,-377,0,0,0,0,0,0,0,0,0,-1,1014,1401,0,0
-203,-377,0,0,0,0,0,0,0,0,0,-1,1021,1401,0,0
-196,-377,0,0,0,0,0,0,0,0,0,-1,1028,1401,0,0
-189,-377,0,0,0,0,0,0,0,0,0,-1,1035,1401,0,0
-182,-377,0,0,0,0,0,0,0,0,0,-1,1042,1401,0,0
-175,-377,0,0,0,0,0,0,0,0,0,-1,1049,1401,0,0
-168,-377,0,0,0,0,0,0,0,0,0,-1,1056,1401,0,0
-161,-377,0,0,0,0,0,0,0,0,0,-1,1063,1401,0,0
-154,-377,0,0,0,0,0,0,0,0,0,-1,1070,1401,0,0
-147,-377,0,0,0,0,0,0,0,0,0,-1,1077,1401,0,0
-140,-377,0,0,0,0,0,0,0,0,0,-1,1084,1401,0,0
-133,-377,0,0,0,0,0,0,0,0,0,-1,1091,1401,0,0
-126,-377,0,0,0,0,0,0,0,0,0,-1,1098,1401,0,0
-119,-377,0,0,0,0,0,0,0,0,0,-1,1105,1401,0,0
-112,-377,0,0,0,0,0,0,0,0,0,-1,1112,1401,0,0
-105,-377,0,0,0,0,0,0,0,0,0,-1,1119,1401,0,0
-98,-377,0,0,0,0,0,0,0,0,0,-1,1126,1401,0,0
-91,-377,0,0,0,0,0,0,0,0,0,-1,1133,1401,0,0
-84,-377,0,0,0,0,0,0,0,0,0,-1,1140,1401,0,0
-77,-377,0,0,0,0,0,0,0,0,0,-1,1147,1401,0,0
-70,-377,0,0,0,0,0,0,0,0,0,-1,1154,1401,0,0
-63,-377,0,0,0,0,0,0,0,0,0,-1,1161,1401,0,0
-56,-377,0,0,0,0,0,0,0,0,0,-1,1168,1401,0,0
-49,-377,0,0,0,0,0,0,0,0,0,-1,1175,1401,0,0
-42,-377,0,0,0,0,0,0,0,0,0,-1,1182,1401,0,0
-35,-377,0,0,0,0,0,0,0,0,0,-1,1189,1401,0,0
-28,-377,0,0,0,0,0,0,0,0,0,-1,1196,1401,0,0
-21,-377,0,0,0,0,0,0,0,0,0,-1,1203,1401,0,0
-14,-377,0,0,0,0,0,0,0,0,0,-1,1210,1401,0,0
-7,-377,0,0,0,0,0,0,0,0,0,-1,1217,1401,0,0
0,-377,0,0,0,0,0,0,0,0,0,-1,1224,1401,0,0
7,-377,0,0,0,0,0,0,0,0,0,-1,1231,1401,0,0
14,-377,0,0,0,0,0,0,0,0,0,-1,1238,1401,0,0
21,-377,0,0,0,0,0,0,0,0,0,-1,1245,1401,0,0
28,-377,0,0,0,0,0,0,0,0,0,-1,1252,1401,0,0
35,-377,0,0,0,0,0,0,0,0,0,-1,1259,1401,0,0
42,-377,0,0,0,0,0,0,0,0,0,-1,1266,1401,0,0
49,-377,0,0,0,0,0,0,0,0,0,-1,1273,1401,0,0
56,-377,0,0,0,0,0,0,0,0,0,-1,1280,1401,0,0
63,-377,0,0,0,0,0,0,0,0,0,-1,1287,1401,0,0
70,-377,0,0,0,0,0,0,0,0,0,-1,1294,1401,0,0
77,-377,0,0,0,0,0,0,0,0,0,-1,1301,1401,0,0
84,-377,0,0,0,0,0,0,0,0,0,-1,1308,1401,0,0
91,-377,0,0,0,0,0,0,0,0,0,-1,1315,1401,0,0
98,-377,0,0,0,0,0,0,0,0,0,-1,1322,1401,0,0
105,-377,0,0,0,0,0,0,0,0,0,-1,1329,1401,0,0
112,-377,0,0,0,0,0,0,0,0,0,-1,1336,1401,0,0
119,-377,0,0,0,0,0,0,0,0,0,-1,1343,1401,0,0
126,-377,0,0,0,0,0,0,0,0,0,-1,1350,1401,0,0
133,-377,0,0,0,0,0,0,0,0,0,-1,1357,1401,0,0
140,-377,0,0,0,0,0,0,0,0,0,-1,1364,1401,0,0
147,-377,0,0,0,0,0,0,0,0,0,-1,1371,1401,0,0
154,-377,0,0,0,0,0,0,0,0,0,-1,1378,1401,0,0
161,-377,0,0,0,0,0,0,0,0,0,-1,1385,1401,0,0
168,-377,0,0,0,0,0,0,0,0,0,-1,1392,1401,0,0
175,-377,0,0,0,0,0,0,0,0,0,-1,1399,1401,0,0
182,-377,0,0,0,0,0,0,0,0,0,-1,1406,1401,0,0
189,-377,0,0,0,0,0,0,0,0,0,-1,1413,1401,0,0
196,-377,0,0,0,0,0,0,0,0,0,-1,1420,1401,0,0
203,-377,0,0,0,0,0,0,0,0,0,-1,1427,1401,0,0
210,-377,0,0,0,0,0,0,0,0,0,-1,1434,1401,0,0
217,-377,0,0,0,0,0,0,0,0,0,-1,1441,1401,0,0
224,-377,0,0,0,0,0,0,0,0,0,-1,1448,1401,0,0
231,-377,0,0,0,0,0,0,0,0,0,-1,1455,1401,0,0
238,-377,0,0,0,0,0,0,0,0,0,-1,1462,1401,0,0
245,-377,0,0,0,0,0,0,0,0,0,-1,1469,1401,0,0
252,-377,0,0,0,0,0,0,0,0,0,-1,1476,1401,0,0
259,-377,0,0,0,0,0,0,0,0,0,-1,1483,1401,0,0
266,-377,0,0,0,0,0,0,0,0,0,-1,1490,1401,0,0
273,-377,0,0,0,0,0,0,0,0,0,-1,1497,1401,0,0
280,-377,0,0,0,0,0,0,0,0,0,-1,1504,1401,0,0
287,-377,0,0,0,0,0,0,0,0,0,-1,1511,1401,0,0
294,-377,0,0,0,0,0,0,0,0,0,-1,1518,1401,0,0
301,-377,0,0,0,0,0,0,0,0,0,-1,1525,1401,0,0
308,-377,0,0,0,0,0,0,0,0,0,-1,1532,1401,0,0
315,-377,0,0,0,0,0,0,0,0,0,-1,1539,1401,0,0
322,-377,0,0,0,0,0,0,0,0,0,-1,1546,1401,0,0
329,-377,0,0,0,0,0,0,0,0,0,-1,1553,1401,0,0
336,-377,0,0,0,0,0,0,0,0,0,-1,1560,1401,0,0
343,-377,0,0,0,0,0,0,0,0,0,-1,1567,1401,0,0
350,-377,0,0,0,0,0,0,0,0,0,-1,1574,1401,0,0
357,-377,0,0,0,0,0,0,0,0,0,-1,1581,1401,0,0
364,-377,0,0,0,0,0,0,0,0,0,-1,1588,1401,0,0
371,-377,0,0,0,0,0,0,0,0,0,-1,1595,1401,0,0
378,-377,0,0,0,0,0,0,0,0,0,-1,1602,1401,0,0
385,-377,0,0,0,0,0,0,0,0,0,-1,1609,1401,0,0
392,-377,0,0,0,0,0,0,0,0,0,-1,1616,1401,0,0
399,-377,0,0,0,0,0,0,0,0,0,-1,1623,1401,0,0
406,-377,0,0,0,0,0,0,0,0,0,-1,1630,1401,0,0
413,-377,0,0,0,0,0,0,0,0,0,-1,1637,1401,0,0
420,-377,0,0,0,0,0,0,0,0,0,-1,1644,1401,0,0
427,-377,0,0,0,0,0,0,0,0,0,-1,1651,1401,0,0
434,-377,0,0,0,0,0,0,0,0,0,-1,1658,1401,0,0
441,-377,0,0,0,0,0,0,0,0,0,-1,1665,1401,0,0
448,-377,0,0,0,0,0,0,0,0,0,-1,1672,1401,0,0
455,-377,0,0,0,0,0,0,0,0,0,-1,1679,1401,0,0
462,-377,0,0,0,0,0,0,0,0,0,-1,1686,1401,0,0
469,-377,0,0,0,0,0,0,0,0,0,-1,1693,1401,0,0
476,-377,0,0,0,0,0,0,0,0,0,-1,1700,1401,0,0
483,-377,0,0,0,0,0,0,0,0,0,-1,1707,1401,0,0
490,-377,0,0,0,0,0,0,0,0,0,-1,1714,1401,0,0
497,-377,0,0,0,0,0,0,0,0,0,-1,1721,1401,0,0
504,-377,0,0,0,0,0,0,0,0,0,-1,1728,1401,0,0
511,-377,0,0,0,0,0,0,0,0,0,-1,1735,1401,0,0
518,-377,0,0,0,0,0,0,0,0,0,-1,1742,1401,0,0
525,-377,0,0,0,0,0,0,0,0,0,-1,1749,1401,0,0
532,-377,0,0,0,0,0,0,0,0,0,-1,1756,1401,0,0
539,-377,0,0,0,0,0,0,0,0,0,-1,1763,1401,0,0
546,-377,27.8485,2.34094,0,0,0,0,0,0,0,-1,1770,1401,27.8486,-2.34091
553,-377,27.2189,2.42493,0,0,0,0,0,0,0,-1,1777,1401,27.2188,-2.42498
560,-377,26.9808,1.78674,0,0,0,0,0,0,0,-1,1784,1401,26.9808,-1.78676
567,-377,27.4503,2.03894,0,0,0,0,0,0,0,-1,1791,1401,27.4503,-2.03893
574,-377,27.812,2.3855,0,0,0,0,0,0,0,-1,1798,1401,27.812,-2.38552
581,-377,26.3328,2.77588,0,0,0,0,0,0,0,-1,1805,1401,26.3328,-2.77582
588,-377,25.882,4.35217,0,0,0,0,0,0,0,-1,1812,1401,25.8819,-4.3522
595,-377,25.5392,5.11804,0,0,0,0,0,0,0,-1,1819,1401,25.5392,-5.11808
602,-377,24.816,5.79126,0,0,0,0,0,0,0,-1,1826,1401,24.816,-5.79124
609,-377,15.0223,4.76135,0,0,0,0,0,0,0,-1,1833,1401,15.0224,-4.76129
616,-377,14.1842,5.78992,0,0,0,0,0,0,0,-1,1840,1401,14.1842,-5.78987
623,-377,15.8248,8.76721,0,0,0,0,0,0,0,-1,1847,1401,15.8248,-8.76725
630,-377,21.4873,11.3799,0,0,0,0,0,0,0,-1,1854,1401,21.4873,-11.3799
637,-377,21.7062,10.8136,2.95153e-05,0.00318579,-0.00390835,0.0058226,-0.00260729,-0.977281,0.00498361,0.0244933,1861,1401,21.7062,-10.8135
644,-377,21.7711,10.4054,0.000529257,0.00172565,-0.00163362,0.00286715,-0.000612248,-0.960905,0.00214484,0.0115324,1868,1401,21.7712,-10.4054
651,-377,21.7731,10.0077,0.000793054,0.0010176,-0.000894455,0.0018068,3.8541e-06,-0.847832,0.00120325,0.0130268,1875,1401,21.773,-10.0077
658,-377,21.7762,9.63391,0.00103388,0.00052799,-0.000543981,0.00138085,0.00018102,-0.567775,0.00086655,0.0154138,1882,1401,21.7762,-9.63392
665,-377,21.7885,9.23572,0.00124939,0.00011225,-0.000178324,0.0012767,8.49412e-05,-0.15196,0.000824281,0.0183712,1889,1401,21.7884,-9.23572
672,-377,21.7875,8.8512,0.00147363,-0.00021096,0.000140554,0.00148528,-0.000222607,0.0826735,0.00107212,0.0172381,1896,1401,21.7874,-8.85125
679,-377,21.7042,8.52771,0.00179001,-0.000553498,0.000413535,0.00186084,-0.00062433,0.169637,0.00149284,0.0168927,1903,1401,21.7043,-8.52772
686,-377,21.7024,8.17444,0.00223639,-0.000952842,0.00064133,0.00236053,-0.00107698,0.191194,0.00203024,0.0154931,1910,1401,21.7025,-8.17441
693,-377,21.738,7.78088,0.00286042,-0.00134064,0.000784038,0.00300198,-0.00148219,0.178621,0.00263803,0.0141353,1917,1401,21.7381,-7.78083
700,-377,21.7563,7.47815,0.00388203,-0.00156524,0.00070115,0.00397083,-0.00165404,0.125981,0.00333808,0.039569,1924,1401,21.7563,-7.47814
707,-377,21.9532,7.08972,0,0,0,0,0,0,0,-1,1931,1401,21.9532,-7.08969
714,-377,16.5369,5.45959,0,0,0,0,0,0,0,-1,1938,1401,16.5369,-5.4596
721,-377,17.0913,5.42529,0,0,0,0,0,0,0,-1,1945,1401,17.0914,-5.42529
728,-377,14.5396,2.79724,0,0,0,0,0,0,0,-1,1952,1401,14.5396,-2.7972
735,-377,23.2977,-0.991089,0,0,0,0,0,0,0,-1,1959,1401,23.2978,0.991076
742,-377,0,0,0,0,0,0,0,0,0,-1,1966,1401,0,0
749,-377,0,0,0,0,0,0,0,0,0,-1,1973,1401,0,0
756,-377,0,0,0,0,0,0,0,0,0,-1,1980,1401,0,0
763,-377,0,0,0,0,0,0,0,0,0,-1,1987,1401,0,0
770,-377,0,0,0,0,0,0,0,0,0,-1,1994,1401,0,0
777,-377,0,0,0,0,0,0,0,0,0,-1,2001,1401,0,0
784,-377,0,0,0,0,0,0,0,0,0,-1,2008,1401,0,0
791,-377,0,0,0,0,0,0,0,0,0,-1,2015,1401,0,0
798,-377,0,0,0,0,0,0,0,0,0,-1,2022,1401,0,0
805,-377,0,0,0,0,0,0,0,0,0,-1,2029,1401,0,0
812,-377,0,0,0,0,0,0,0,0,0,-1,2036,1401,0,0
-700,-384,0,0,0,0,0,0,0,0,0,-1,524,1408,0,0
-693,-384,0,0,0,0,0,0,0,0,0,-1,531,1408,0,0
-686,-384,0,0,0,0,0,0,0,0,0,-1,538,1408,0,0
-679,-384,0,0,0,0,0,0,0,0,0,-1,545,1408,0,0
-672,-384,0,0,0,0,0,0,0,0,0,-1,552,1408,0,0
-665,-384,0,0,0,0,0,0,0,0,0,-1,559,1408,0,0
-658,-384,0,0,0,0,0,0,0,0,0,-1,566,1408,0,0
-651,-384,0,0,0,0,0,0,0,0,0,-1,573,1408,0,0
-644,-384,0,0,0,0,0,0,0,0,0,-1,580,1408,0,0
-637,-384,0,0,0,0,0,0,0,0,0,-1,587,1408,0,0
-630,-384,0,0,0,0,0,0,0,0,0,-1,594,1408,0,0
-623,-384,0,0,0,0,0,0,0,0,0,-1,601,1408,0,0
-616,-384,-10.019,-3.36646,0,0,0,0,0,0,0,-1,608,1408,-10.019,3.36648
-609,-384,-7.72357,-2.3418,0,0,0,0,0,0,0,-1,615,1408,-7.72358,2.34182
-602,-384,-11.7632,-2.85156,0,0,0,0,0,0,0,-1,622,1408,-11.7632,2.85157
-595,-384,-10.2217,2.8855,0,0,0,0,0,0,0,-1,629,1408,-10.2218,-2.88548
-588,-384,-9.71045,2.79968,0,0,0,0,0,0,0,-1,636,1408,-9.71046,-2.79971
-581,-384,-9.32562,3.38843,0,0,0,0,0,0,0,-1,643,1408,-9.32559,-3.38837
-574,-384,-9.32947,4.21301,0,0,0,0,0,0,0,-1,650,1408,-9.32944,-4.21304
-567,-384,-9.28503,5.06897,-0.0130134,0.00705945,-0.00403191,0.00783904,-0.013793,-1.3798,0.012646,0.0440623,657,1408,-9.28505,-5.06895
-560,-384,-9.50348,5.64343,-0.00975889,0.00493367,-0.00311645,0.00556737,-0.0103926,-1.37019,0.00935381,0.0472076,664,1408,-9.50349,-5.64349
-553,-384,-9.6178,6.03381,-0.00700558,0.00350257,-0.00222716,0.00395512,-0.00745813,-1.37033,0.0066921,0.0269914,671,1408,-9.6178,-6.03377
-546,-384,-9.62628,6.50049,-0.00465439,0.00246189,-0.00136745,0.00271561,-0.00490811,-1.38734,0.00446181,0.0140551,678,1408,-9.6263,-6.50044
-539,-384,-9.65277,6.87659,-0.0025914,0.0017366,-0.000584767,0.00181422,-0.00266901,-1.43884,0.00260403,0.0157406,685,1408,-9.65279,-6.87664
-532,-384,-9.64294,7.22852,-0.000653345,0.00133364,0.000225647,0.00135895,-0.000678648,1.45913,0.00119806,0.0207467,692,1408,-9.64295,-7.22846
-525,-384,-9.64667,7.7002,0.00117294,0.00114788,0.00104473,0.00220522,0.000115598,0.779402,0.00143317,0.0205239,699,1408,-9.64668,-7.70014
-518,-384,-9.67664,8.12573,0.00292952,0.00112297,0.00187891,0.004111,-5.85113e-05,0.561336,0.00276038,0.0126745,706,1408,-9.67663,-8.12576
-511,-384,-9.69794,8.54761,0.0047526,0.00137958,0.00285737,0.00638405,-0.000251876,0.518795,0.00434243,0.0106472,713,1408,-9.69793,-8.54762
-504,-384,-9.6955,8.9801,0.0066373,0.00182979,0.0039317,0.00884183,-0.000374742,0.511026,0.00602335,0.0119711,720,1408,-9.69548,-8.98008
-497,-384,-9.64313,9.42542,0.00871711,0.00240363,0.00517796,0.0116247,-0.000503976,0.511656,0.00792315,0.0287765,727,1408,-9.64316,-9.42544
-490,-384,-9.3313,10.1503,0,0,0,0,0,0,0,-1,734,1408,-9.33132,-10.1502
-483,-384,-6.26471,7.61194,0,0,0,0,0,0,0,-1,741,1408,-6.26469,-7.61191
-476,-384,-6.02734,5.67761,0,0,0,0,0,0,0,-1,748,1408,-6.02736,-5.6776
-469,-384,-10.206,2.63721,0,0,0,0,0,0,0,-1,755,1408,-10.206,-2.6372
-462,-384,-9.04291,1.43542,0,0,0,0,0,0,0,-1,762,1408,-9.04293,-1.43545
-455,-384,-7.87988,0.233765,0,0,0,0,0,0,0,-1,769,1408,-7.87986,-0.233709
-448,-384,-9.35529,7.19226,0,0,0,0,0,0,0,-1,776,1408,-9.35531,-7.19226
-441,-384,-10.4697,1.79004,0,0,0,0,0,0,0,-1,783,1408,-10.4697,-1.79003
-434,-384,-10.6449,0.552246,0,0,0,0,0,0,0,-1,790,1408,-10.6449,-0.552216
-427,-384,-10.968,1.10583,0,0,0,0,0,0,0,-1,797,1408,-10.968,-1.10588
-420,-384,-12.5607,4.54858,0,0,0,0,0,0,0,-1,804,1408,-12.5607,-4.54859
-413,-384,0,0,0,0,0,0,0,0,0,-1,811,1408,0,0
-406,-384,0,0,0,0,0,0,0,0,0,-1,818,1408,0,0
-399,-384,0,0,0,0,0,0,0,0,0,-1,825,1408,0,0
-392,-384,0,0,0,0,0,0,0,0,0,-1,832,1408,0,0
-385,-384,0,0,0,0,0,0,0,0,0,-1,839,1408,0,0
-378,-384,0,0,0,0,0,0,0,0,0,-1,846,1408,0,0
-371,-384,0,0,0,0,0,0,0,0,0,-1,853,1408,0,0
-364,-384,0,0,0,0,0,0,0,0,0,-1,860,1408,0,0
-357,-384,0,0,0,0,0,0,0,0,0,-1,867,1408,0,0
-350,-384,0,0,0,0,0,0,0,0,0,-1,874,1408,0,0
-343,-384,0,0,0,0,0,0,0,0,0,-1,881,1408,0,0
-336,-384,0,0,0,0,0,0,0,0,0,-1,888,1408,0,0
-329,-384,0,0,0,0,0,0,0,0,0,-1,895,1408,0,0
-322,-384,0,0,0,0,0,0,0,0,0,-1,902,1408,0,0
-315,-384,0,0,0,0,0,0,0,0,0,-1,909,1408,0,0
-308,-384,0,0,0,0,0,0,0,0,0,-1,916,1408,0,0
-301,-384,0,0,0,0,0,0,0,0,0,-1,923,1408,0,0
-294,-384,0,0,0,0,0,0,0,0,0,-1,930,1408,0,0
-287,-384,0,0,0,0,0,0,0,0,0,-1,937,1408,0,0
-280,-384,0,0,0,0,0,0,0,0,0,-1,944,1408,0,0
-273,-384,0,0,0,0,0,0,0,0,0,-1,951,1408,0,0
-266,-384,0,0,0,0,0,0,0,0,0,-1,958,1408,0,0
-259,-384,0,0,0,0,0,0,0,0,0,-1,965,1408,0,0
-252,-384,0,0,0,0,0,0,0,0,0,-1,972,1408,0,0
-245,-384,0,0,0,0,0,0,0,0,0,-1,979,1408,0,0
-238,-384,0,0,0,0,0,0,0,0,0,-1,986,1408,0,0
-231,-384,0,0,0,0,0,0,0,0,0,-1,993,1408,0,0
-224,-384,0,0,0,0,0,0,0,0,0,-1,1000,1408,0,0
-217,-384,0,0,0,0,0,0,0,0,0,-1,1007,1408,0,0
-210,-384,0,0,0,0,0,0,0,0,0,-1,1014,1408,0,0
-203,-384,0,0,0,0,0,0,0,0,0,-1,1021,1408,0,0
-196,-384,0,0,0,0,0,0,0,0,0,-1,1028,1408,0,0
-189,-384,0,0,0,0,0,0,0,0,0,-1,1035,1408,0,0
-182,-384,0,0,0,0,0,0,0,0,0,-1,1042,1408,0,0
-175,-384,0,0,0,0,0,0,0,0,0,-1,1049,1408,0,0
-168,-384,0,0,0,0,0,0,0,0,0,-1,1056,1408,0,0
-161,-384,0,0,0,0,0,0,0,0,0,-1,1063,1408,0,0
-154,-384,0,0,0,0,0,0,0,0,0,-1,1070,1408,0,0
-147,-384,0,0,0,0,0,0,0,0,0,-1,1077,1408,0,0
-140,-384,0,0,0,0,0,0,0,0,0,-1,1084,1408,0,0
-133,-384,0,0,0,0,0,0,0,0,0,-1,1091,1408,0,0
-126,-384,0,0,0,0,0,0,0,0,0,-1,1098,1408,0,0
-119,-384,0,0,0,0,0,0,0,0,0,-1,1105,1408,0,0
-112,-384,0,0,0,0,0,0,0,0,0,-1,1112,1408,0,0
-105,-384,0,0,0,0,0,0,0,0,0,-1,1119,1408,0,0
-98,-384,0,0,0,0,0,0,0,0,0,-1,1126,1408,0,0
-91,-384,0,0,0,0,0,0,0,0,0,-1,1133,1408,0,0
-84,-384,0,0,0,0,0,0,0,0,0,-1,1140,1408,0,0
-77,-384,0,0,0,0,0,0,0,0,0,-1,1147,1408,0,0
-70,-384,0,0,0,0,0,0,0,0,0,-1,1154,1408,0,0
-63,-384,0,0,0,0,0,0,0,0,0,-1,1161,1408,0,0
-56,-384,0,0,0,0,0,0,0,0,0,-1,1168,1408,0,0
-49,-384,0,0,0,0,0,0,0,0,0,-1,1175,1408,0,0
-42,-384,0,0,0,0,0,0,0,0,0,-1,1182,1408,0,0
-35,-384,0,0,0,0,0,0,0,0,0,-1,1189,1408,0,0
-28,-384,0,0,0,0,0,0,0,0,0,-1,1196,1408,0,0
-21,-384,0,0,0,0,0,0,0,0,0,-1,1203,1408,0,0
-14,-384,0,0,0,0,0,0,0,0,0,-1,1210,1408,0,0
-7,-384,0,0,0,0,0,0,0,0,0,-1,1217,1408,0,0
0,-384,0,0,0,0,0,0,0,0,0,-1,1224,1408,0,0
7,-384,0,0,0,0,0,0,0,0,0,-1,1231,1408,0,0
14,-384,0,0,0,0,0,0,0,0,0,-1,1238,1408,0,0
21,-384,0,0,0,0,0,0,0,0,0,-1,1245,1408,0,0
28,-384,0,0,0,0,0,0,0,0,0,-1,1252,1408,0,0
35,-384,0,0,0,0,0,0,0,0,0,-1,1259,1408,0,0
42,-384,0,0,0,0,0,0,0,0,0,-1,1266,1408,0,0
49,-384,0,0,0,0,0,0,0,0,0,-1,1273,1408,0,0
56,-384,0,0,0,0,0,0,0,0,0,-1,1280,1408,0,0
63,-384,0,0,0,0,0,0,0,0,0,-1,1287,1408,0,0
70,-384,0,0,0,0,0,0,0,0,0,-1,1294,1408,0,0
77,-384,0,0,0,0,0,0,0,0,0,-1,1301,1408,0,0
84,-384,0,0,0,0,0,0,0,0,0,-1,1308,1408,0,0
91,-384,0,0,0,0,0,0,0,0,0,-1,1315,1408,0,0
98,-384,0,0,0,0,0,0,0,0,0,-1,1322,1408,0,0
105,-384,0,0,0,0,0,0,0,0,0,-1,1329,1408,0,0
112,-384,0,0,0,0,0,0,0,0,0,-1,1336,1408,0,0
119,-384,0,0,0,0,0,0,0,0,0,-1,1343,1408,0,0
126,-384,0,0,0,0,0,0,0,0,0,-1,1350,1408,0,0
133,-384,0,0,0,0,0,0,0,0,0,-1,1357,1408,0,0
140,-384,0,0,0,0,0,0,0,0,0,-1,1364,1408,0,0
147,-384,0,0,0,0,0,0,0,0,0,-1,1371,1408,0,0
154,-384,0,0,0,0,0,0,0,0,0,-1,1378,1408,0,0
161,-384,0,0,0,0,0,0,0,0,0,-1,1385,1408,0,0
168,-384,0,0,0,0,0,0,0,0,0,-1,1392,1408,0,0
175,-384,0,0,0,0,0,0,0,0,0,-1,1399,1408,0,0
182,-384,0,0,0,0,0,0,0,0,0,-1,1406,1408,0,0
189,-384,0,0,0,0,0,0,0,0,0,-1,1413,1408,0,0
196,-384,0,0,0,0,0,0,0,0,0,-1,1420,1408,0,0
203,-384,0,0,0,0,0,0,0,0,0,-1,1427,1408,0,0
210,-384,0,0,0,0,0,0,0,0,0,-1,1434,1408,0,0
217,-384,0,0,0,0,0,0,0,0,0,-1,1441,1408,0,0
224,-384,0,0,0,0,0,0,0,0,0,-1,1448,1408,0,0
231,-384,0,0,0,0,0,0,0,0,0,-1,1455,1408,0,0
238,-384,0,0,0,0,0,0,0,0,0,-1,1462,1408,0,0
245,-384,0,0,0,0,0,0,0,0,0,-1,1469,1408,0,0
252,-384,0,0,0,0,0,0,0,0,0,-1,1476,1408,0,0
259,-384,0,0,0,0,0,0,0,0,0,-1,1483,1408,0,0
266,-384,0,0,0,0,0,0,0,0,0,-1,1490,1408,0,0
273,-384,0,0,0,0,0,0,0,0,0,-1,1497,1408,0,0
280,-384,0,0,0,0,0,0,0,0,0,-1,1504,1408,0,0
287,-384,0,0,0,0,0,0,0,0,0,-1,1511,1408,0,0
294,-384,0,0,0,0,0,0,0,0,0,-1,1518,1408,0,0
301,-384,0,0,0,0,0,0,0,0,0,-1,1525,1408,0,0
308,-384,0,0,0,0,0,0,0,0,0,-1,1532,1408,0,0
315,-384,0,0,0,0,0,0,0,0,0,-1,1539,1408,0,0
322,-384,0,0,0,0,0,0,0,0,0,-1,1546,1408,0,0
329,-384,0,0,0,0,0,0,0,0,0,-1,1553,1408,0,0
336,-384,0,0,0,0,0,0,0,0,0,-1,1560,1408,0,0
343,-384,0,0,0,0,0,0,0,0,0,-1,1567,1408,0,0
350,-384,0,0,0,0,0,0,0,0,0,-1,1574,1408,0,0
357,-384,0,0,0,0,0,0,0,0,0,-1,1581,1408,0,0
364,-384,0,0,0,0,0,0,0,0,0,-1,1588,1408,0,0
371,-384,0,0,0,0,0,0,0,0,0,-1,1595,1408,0,0
378,-384,0,0,0,0,0,0,0,0,0,-1,1602,1408,0,0
385,-384,0,0,0,0,0,0,0,0,0,-1,1609,1408,0,0
392,-384,0,0,0,0,0,0,0,0,0,-1,1616,1408,0,0
399,-384,0,0,0,0,0,0,0,0,0,-1,1623,1408,0,0
406,-384,0,0,0,0,0,0,0,0,0,-1,1630,1408,0,0
413,-384,0,0,0,0,0,0,0,0,0,-1,1637,1408,0,0
420,-384,0,0,0,0,0,0,0,0,0,-1,1644,1408,0,0
427,-384,0,0,0,0,0,0,0,0,0,-1,1651,1408,0,0
434,-384,0,0,0,0,0,0,0,0,0,-1,1658,1408,0,0
441,-384,0,0,0,0,0,0,0,0,0,-1,1665,1408,0,0
448,-384,0,0,0,0,0,0,0,0,0,-1,1672,1408,0,0
455,-384,0,0,0,0,0,0,0,0,0,-1,1679,1408,0,0
462,-384,0,0,0,0,0,0,0,0,0,-1,1686,1408,0,0
469,-384,0,0,0,0,0,0,0,0,0,-1,1693,1408,0,0
476,-384,0,0,0,0,0,0,0,0,0,-1,1700,1408,0,0
483,-384,0,0,0,0,0,0,0,0,0,-1,1707,1408,0,0
490,-384,0,0,0,0,0,0,0,0,0,-1,1714,1408,0,0
497,-384,0,0,0,0,0,0,0,0,0,-1,1721,1408,0,0
504,-384,0,0,0,0,0,0,0,0,0,-1,1728,1408,0,0
511,-384,0,0,0,0,0,0,0,0,0,-1,1735,1408,0,0
518,-384,0,0,0,0,0,0,0,0,0,-1,1742,1408,0,0
525,-384,0,0,0,0,0,0,0,0,0,-1,1749,1408,0,0
532,-384,0,0,0,0,0,0,0,0,0,-1,1756,1408,0,0
539,-384,27.6886,2.85803,0,0,0,0,0,0,0,-1,1763,1408,27.6886,-2.85807
546,-384,27.5044,2.9425,0,0,0,0,0,0,0,-1,1770,1408,27.5044,-2.94255
553,-384,27.3052,2.78394,0,0,0,0,0,0,0,-1,1777,1408,27.3051,-2.78394
560,-384,26.833,3.19812,0,0,0,0,0,0,0,-1,1784,1408,26.833,-3.19816
567,-384,32.4751,6.03601,0,0,0,0,0,0,0,-1,1791,1408,32.4751,-6.03605
574,-384,25.8635,3.7915,0,0,0,0,0,0,0,-1,1798,1408,25.8636,-3.79148
581,-384,25.819,3.91846,0,0,0,0,0,0,0,-1,1805,1408,25.8189,-3.91848
588,-384,23.3721,4.25439,0,0,0,0,0,0,0,-1,1812,1408,23.3721,-4.25442
595,-384,24.981,5.59595,0,0,0,0,0,0,0,-1,1819,1408,24.981,-5.59598
602,-384,20.6605,4.17261,0,0,0,0,0,0,0,-1,1826,1408,20.6606,-4.17265
609,-384,14.158,5.49475,0,0,0,0,0,0,0,-1,1833,1408,14.158,-5.49474
616,-384,14.7997,7.6908,0,0,0,0,0,0,0,-1,1840,1408,14.7996,-7.69079
623,-384,16.4293,9.58899,0,0,0,0,0,0,0,-1,1847,1408,16.4294,-9.58901
630,-384,21.391,11.0444,0,0,0,0,0,0,0,-1,1854,1408,21.391,-11.0444
637,-384,21.4106,10.7739,0.000270714,0.00219659,-0.0020603,0.00350788,-0.00104057,-1.004,0.00275182,0.0184735,1861,1408,21.4106,-10.774
644,-384,21.3958,10.4192,0.000543471,0.00125379,-0.000951066,0.00191385,-0.000116586,-0.964096,0.00131648,0.0159758,1868,1408,21.3957,-10.4192
651,-384,21.3882,10.0109,0.000769639,0.000768808,-0.000605184,0.00137441,0.00016404,-0.785055,0.000866782,0.0159125,1875,1408,21.3882,-10.0109
658,-384,21.3799,9.61914,0.00103052,0.000313924,-0.000308103,0.00114478,0.000199671,-0.355108,0.000706101,0.0166112,1882,1408,21.3799,-9.61912
665,-384,21.3997,9.27368,0.00126288,-7.88023e-05,2.5311e-05,0.00126336,-7.92795e-05,0.0188561,0.000869871,0.0174086,1889,1408,21.3997,-9.27368
672,-384,21.4021,8.87976,0.00152224,-0.000399965,0.000327392,0.00157647,-0.000454197,0.164157,0.00123064,0.0147898,1896,1408,21.4021,-8.87974
679,-384,21.348,8.50989,0.00187392,-0.000779225,0.000609615,0.00200729,-0.000912593,0.21538,0.00172483,0.0148839,1903,1408,21.348,-8.50985
686,-384,21.3291,8.17236,0.00238444,-0.00128034,0.000884745,0.00258686,-0.00148275,0.224911,0.00237824,0.0131357,1910,1408,21.3292,-8.1723
693,-384,21.3611,7.81335,0.00313781,-0.00180633,0.00109078,0.00336777,-0.00203628,0.207773,0.00315144,0.0204671,1917,1408,21.3611,-7.81331
700,-384,21.2118,7.3147,0,0,0,0,0,0,0,-1,1924,1408,21.2118,-7.31473
707,-384,17.0566,6.62842,0,0,0,0,0,0,0,-1,1931,1408,17.0567,-6.62848
714,-384,16.038,5.0282,0,0,0,0,0,0,0,-1,1938,1408,16.038,-5.02819
721,-384,13.8843,2.8717,0,0,0,0,0,0,0,-1,1945,1408,13.8843,-2.87171
728,-384,15.4409,6.25745,0,0,0,0,0,0,0,-1,1952,1408,15.4409,-6.2574
735,-384,16.7598,6.71289,0,0,0,0,0,0,0,-1,1959,1408,16.7598,-6.71287
742,-384,0,0,0,0,0,0,0,0,0,-1,1966,1408,0,0
749,-384,0,0,0,0,0,0,0,0,0,-1,1973,1408,0,0
756,-384,0,0,0,0,0,0,0,0,0,-1,1980,1408,0,0
763,-384,0,0,0,0,0,0,0,0,0,-1,1987,1408,0,0
770,-384,0,0,0,0,0,0,0,0,0,-1,1994,1408,0,0
777,-384,0,0,0,0,0,0,0,0,0,-1,2001,1408,0,0
784,-384,0,0,0,0,0,0,0,0,0,-1,2008,1408,0,0
791,-384,0,0,0,0,0,0,0,0,0,-1,2015,1408,0,0
798,-384,0,0,0,0,0,0,0,0,0,-1,2022,1408,0,0
805,-384,0,0,0,0,0,0,0,0,0,-1,2029,1408,0,0
812,-384,0,0,0,0,0,0,0,0,0,-1,2036,1408,0,0
-700,-391,0,0,0,0,0,0,0,0,0,-1,524,1415,0,0
-693,-391,0,0,0,0,0,0,0,0,0,-1,531,1415,0,0
-686,-391,0,0,0,0,0,0,0,0,0,-1,538,1415,0,0
-679,-391,0,0,0,0,0,0,0,0,0,-1,545,1415,0,0
-672,-391,0,0,0,0,0,0,0,0,0,-1,552,1415,0,0
-665,-391,0,0,0,0,0,0,0,0,0,-1,559,1415,0,0
-658,-391,0,0,0,0,0,0,0,0,0,-1,566,1415,0,0
-651,-391,0,0,0,0,0,0,0,0,0,-1,573,1415,0,0
-644,-391,0,0,0,0,0,0,0,0,0,-1,580,1415,0,0
-637,-391,0,0,0,0,0,0,0,0,0,-1,587,1415,0,0
-630,-391,0,0,0,0,0,0,0,0,0,-1,594,1415,0,0
-623,-391,0,0,0,0,0,0,0,0,0,-1,601,1415,0,0
-616,-391,0,0,0,0,0,0,0,0,0,-1,608,1415,0,0
-609,-391,-7.71753,-3.69763,0,0,0,0,0,0,0,-1,615,1415,-7.71751,3.69759
-602,-391,-13.9493,-4.12805,0,0,0,0,0,0,0,-1,622,1415,-13.9493,4.12803
-595,-391,-10.8315,1.76172,0,0,0,0,0,0,0,-1,629,1415,-10.8315,-1.76171
-588,-391,-10.265,2.16431,0,0,0,0,0,0,0,-1,636,1415,-10.265,-2.16431
-581,-391,-10.071,3.51843,0,0,0,0,0,0,0,-1,643,1415,-10.071,-3.51848
-574,-391,-8.53308,3.9967,0,0,0,0,0,0,0,-1,650,1415,-8.53306,-3.99675
-567,-391,-8.70782,4.78662,0,0,0,0,0,0,0,-1,657,1415,-8.70784,-4.78663
-560,-391,-8.74249,5.46936,0,0,0,0,0,0,0,-1,664,1415,-8.74248,-5.46939
-553,-391,-9.15747,6.02881,-0.00899224,0.00456409,-0.0021681,0.00490239,-0.00933055,-1.41601,0.00834891,0.0440078,671,1415,-9.15747,-6.02883
-546,-391,-9.22485,6.47729,-0.00634967,0.00324014,-0.00136147,0.00342969,-0.00653921,-1.43247,0.00584813,0.0135611,678,1415,-9.22483,-6.47735
-539,-391,-9.20416,6.9021,-0.00410111,0.00229627,-0.000673845,0.00236648,-0.00417132,-1.46698,0.00382224,0.0135042,685,1415,-9.20415,-6.90205
-532,-391,-9.1814,7.32227,-0.00204133,0.00173434,1.80767e-05,0.00173443,-0.00204142,1.56601,0.00218239,0.0248786,692,1415,-9.18138,-7.32231
-525,-391,-9.22107,7.75867,-0.000109497,0.00143568,0.000728119,0.00172472,-0.000398534,1.19291,0.00130313,0.0242003,699,1415,-9.22107,-7.75869
-518,-391,-9.28802,8.15881,0.00170654,0.00131303,0.00144678,0.00296988,4.96876e-05,0.717817,0.00196357,0.0145163,706,1415,-9.28801,-8.15877
-511,-391,-9.28265,8.5647,0.00361747,0.0014138,0.00231556,0.00507998,-4.87065e-05,0.563331,0.003403,0.0134443,713,1415,-9.28263,-8.56464
-504,-391,-9.2793,8.99463,0.00554211,0.00177884,0.00330122,0.00746029,-0.000139338,0.526371,0.00502062,0.012443,720,1415,-9.27927,-8.99468
-497,-391,-9.26965,9.39685,0.00753806,0.00224454,0.00441006,0.0100346,-0.000252042,0.515128,0.00677534,0.0119947,727,1415,-9.26964,-9.39688
-490,-391,-9.2052,9.90796,0.00987421,0.00285276,0.00579347,0.0131377,-0.000410693,0.512996,0.0088985,0.0379607,734,1415,-9.20519,-9.90794
-483,-391,-9.03931,10.5538,0,0,0,0,0,0,0,-1,741,1415,-9.03932,-10.5539
-476,-391,-6.05731,6.85303,0,0,0,0,0,0,0,-1,748,1415,-6.05728,-6.85304
-469,-391,-3.88953,5.0979,0,0,0,0,0,0,0,-1,755,1415,-3.88955,-5.09794
-462,-391,-8.67688,2.03125,0,0,0,0,0,0,0,-1,762,1415,-8.67685,-2.03121
-455,-391,-8.65576,6.46997,0,0,0,0,0,0,0,-1,769,1415,-8.65579,-6.46999
-448,-391,-8.39618,4.38403,0,0,0,0,0,0,0,-1,776,1415,-8.39617,-4.38405
-441,-391,-9.77704,2.5946,0,0,0,0,0,0,0,-1,783,1415,-9.77702,-2.5946
-434,-391,-11.5403,2.12878,0,0,0,0,0,0,0,-1,790,1415,-11.5403,-2.12881
-427,-391,-10.5311,2.50403,0,0,0,0,0,0,0,-1,797,1415,-10.5311,-2.504
-420,-391,-14.7087,1.24365,0,0,0,0,0,0,0,-1,804,1415,-14.7088,-1.24365
-413,-391,0,0,0,0,0,0,0,0,0,-1,811,1415,0,0
-406,-391,0,0,0,0,0,0,0,0,0,-1,818,1415,0,0
-399,-391,0,0,0,0,0,0,0,0,0,-1,825,1415,0,0
-392,-391,0,0,0,0,0,0,0,0,0,-1,832,1415,0,0
-385,-391,0,0,0,0,0,0,0,0,0,-1,839,1415,0,0
-378,-391,0,0,0,0,0,0,0,0,0,-1,846,1415,0,0
-371,-391,0,0,0,0,0,0,0,0,0,-1,853,1415,0,0
-364,-391,0,0,0,0,0,0,0,0,0,-1,860,1415,0,0
-357,-391,0,0,0,0,0,0,0,0,0,-1,867,1415,0,0
-350,-391,0,0,0,0,0,0,0,0,0,-1,874,1415,0,0
-343,-391,0,0,0,0,0,0,0,0,0,-1,881,1415,0,0
-336,-391,0,0,0,0,0,0,0,0,0,-1,888,1415,0,0
-329,-391,0,0,0,0,0,0,0,0,0,-1,895,1415,0,0
-322,-391,0,0,0,0,0,0,0,0,0,-1,902,1415,0,0
-315,-391,0,0,0,0,0,0,0,0,0,-1,909,1415,0,0
-308,-391,0,0,0,0,0,0,0,0,0,-1,916,1415,0,0
-301,-391,0,0,0,0,0,0,0,0,0,-1,923,1415,0,0
-294,-391,0,0,0,0,0,0,0,0,0,-1,930,1415,0,0
-287,-391,0,0,0,0,0,0,0,0,0,-1,937,1415,0,0
-280,-391,0,0,0,0,0,0,0,0,0,-1,944,1415,0,0
-273,-391,0,0,0,0,0,0,0,0,0,-1,951,1415,0,0
-266,-391,0,0,0,0,0,0,0,0,0,-1,958,1415,0,0
-259,-391,0,0,0,0,0,0,0,0,0,-1,965,1415,0,0
-252,-391,0,0,0,0,0,0,0,0,0,-1,972,1415,0,0
-245,-391,0,0,0,0,0,0,0,0,0,-1,979,1415,0,0
-238,-391,0,0,0,0,0,0,0,0,0,-1,986,1415,0,0
-231,-391,0,0,0,0,0,0,0,0,0,-1,993,1415,0,0
-224,-391,0,0,0,0,0,0,0,0,0,-1,1000,1415,0,0
-217,-391,0,0,0,0,0,0,0,0,0,-1,1007,1415,0,0
-210,-391,0,0,0,0,0,0,0,0,0,-1,1014,1415,0,0
-203,-391,0,0,0,0,0,0,0,0,0,-1,1021,1415,0,0
-196,-391,0,0,0,0,0,0,0,0,0,-1,1028,1415,0,0
-189,-391,0,0,0,0,0,0,0,0,0,-1,1035,1415,0,0
-182,-391,0,0,0,0,0,0,0,0,0,-1,1042,1415,0,0
-175,-391,0,0,0,0,0,0,0,0,0,-1,1049,1415,0,0
-168,-391,0,0,0,0,0,0,0,0,0,-1,1056,1415,0,0
-161,-391,0,0,0,0,0,0,0,0,0,-1,1063,1415,0,0
-154,-391,0,0,0,0,0,0,0,0,0,-1,1070,1415,0,0
-147,-391,0,0,0,0,0,0,0,0,0,-1,1077,1415,0,0
-140,-391,0,0,0,0,0,0,0,0,0,-1,1084,1415,0,0
-133,-391,0,0,0,0,0,0,0,0,0,-1,1091,1415,0,0
-126,-391,0,0,0,0,0,0,0,0,0,-1,1098,1415,0,0
-119,-391,0,0,0,0,0,0,0,0,0,-1,1105,1415,0,0
-112,-391,0,0,0,0,0,0,0,0,0,-1,1112,1415,0,0
-105,-391,0,0,0,0,0,0,0,0,0,-1,1119,1415,0,0
-98,-391,0,0,0,0,0,0,0,0,0,-1,1126,1415,0,0
-91,-391,0,0,0,0,0,0,0,0,0,-1,1133,1415,0,0
-84,-391,0,0,0,0,0,0,0,0,0,-1,1140,1415,0,0
-77,-391,0,0,0,0,0,0,0,0,0,-1,1147,1415,0,0
-70,-391,0,0,0,0,0,0,0,0,0,-1,1154,1415,0,0
-63,-391,0,0,0,0,0,0,0,0,0,-1,1161,1415,0,0
-56,-391,0,0,0,0,0,0,0,0,0,-1,1168,1415,0,0
-49,-391,0,0,0,0,0,0,0,0,0,-1,1175,1415,0,0
-42,-391,0,0,0,0,0,0,0,0,0,-1,1182,1415,0,0
-35,-391,0,0,0,0,0,0,0,0,0,-1,1189,1415,0,0
-28,-391,0,0,0,0,0,0,0,0,0,-1,1196,1415,0,0
-21,-391,0,0,0,0,0,0,0,0,0,-1,1203,1415,0,0
-14,-391,0,0,0,0,0,0,0,0,0,-1,1210,1415,0,0
-7,-391,0,0,0,0,0,0,0,0,0,-1,1217,1415,0,0
0,-391,0,0,0,0,0,0,0,0,0,-1,1224,1415,0,0
7,-391,0,0,0,0,0,0,0,0,0,-1,1231,1415,0,0
14,-391,0,0,0,0,0,0,0,0,0,-1,1238,1415,0,0
21,-391,0,0,0,0,0,0,0,0,0,-1,1245,1415,0,0
28,-391,0,0,0,0,0,0,0,0,0,-1,1252,1415,0,0
35,-391,0,0,0,0,0,0,0,0,0,-1,1259,1415,0,0
42,-391,0,0,0,0,0,0,0,0,0,-1,1266,1415,0,0
49,-391,0,0,0,0,0,0,0,0,0,-1,1273,1415,0,0
56,-391,0,0,0,0,0,0,0,0,0,-1,1280,1415,0,0
63,-391,0,0,0,0,0,0,0,0,0,-1,1287,1415,0,0
70,-391,0,0,0,0,0,0,0,0,0,-1,1294,1415,0,0
77,-391,0,0,0,0,0,0,0,0,0,-1,1301,1415,0,0
84,-391,0,0,0,0,0,0,0,0,0,-1,1308,1415,0,0
91,-391,0,0,0,0,0,0,0,0,0,-1,1315,1415,0,0
98,-391,0,0,0,0,0,0,0,0,0,-1,1322,1415,0,0
105,-391,0,0,0,0,0,0,0,0,0,-1,1329,1415,0,0
112,-391,0,0,0,0,0,0,0,0,0,-1,1336,1415,0,0
119,-391,0,0,0,0,0,0,0,0,0,-1,1343,1415,0,0
126,-391,0,0,0,0,0,0,0,0,0,-1,1350,1415,0,0
133,-391,0,0,0,0,0,0,0,0,0,-1,1357,1415,0,0
140,-391,0,0,0,0,0,0,0,0,0,-1,1364,1415,0,0
147,-391,0,0,0,0,0,0,0,0,0,-1,1371,1415,0,0
154,-391,0,0,0,0,0,0,0,0,0,-1,1378,1415,0,0
161,-391,0,0,0,0,0,0,0,0,0,-1,1385,1415,0,0
168,-391,0,0,0,0,0,0,0,0,0,-1,1392,1415,0,0
175,-391,0,0,0,0,0,0,0,0,0,-1,1399,1415,0,0
182,-391,0,0,0,0,0,0,0,0,0,-1,1406,1415,0,0
189,-391,0,0,0,0,0,0,0,0,0,-1,1413,1415,0,0
196,-391,0,0,0,0,0,0,0,0,0,-1,1420,1415,0,0
203,-391,0,0,0,0,0,0,0,0,0,-1,1427,1415,0,0
210,-391,0,0,0,0,0,0,0,0,0,-1,1434,1415,0,0
217,-391,0,0,0,0,0,0,0,0,0,-1,1441,1415,0,0
224,-391,0,0,0,0,0,0,0,0,0,-1,1448,1415,0,0
231,-391,0,0,0,0,0,0,0,0,0,-1,1455,1415,0,0
238,-391,0,0,0,0,0,0,0,0,0,-1,1462,1415,0,0
245,-391,0,0,0,0,0,0,0,0,0,-1,1469,1415,0,0
252,-391,0,0,0,0,0,0,0,0,0,-1,1476,1415,0,0
259,-391,0,0,0,0,0,0,0,0,0,-1,1483,1415,0,0
266,-391,0,0,0,0,0,0,0,0,0,-1,1490,1415,0,0
273,-391,0,0,0,0,0,0,0,0,0,-1,1497,1415,0,0
280,-391,0,0,0,0,0,0,0,0,0,-1,1504,1415,0,0
287,-391,0,0,0,0,0,0,0,0,0,-1,1511,1415,0,0
294,-391,0,0,0,0,0,0,0,0,0,-1,1518,1415,0,0
301,-391,0,0,0,0,0,0,0,0,0,-1,1525,1415,0,0
308,-391,0,0,0,0,0,0,0,0,0,-1,1532,1415,0,0
315,-391,0,0,0,0,0,0,0,0,0,-1,1539,1415,0,0
322,-391,0,0,0,0,0,0,0,0,0,-1,1546,1415,0,0
329,-391,0,0,0,0,0,0,0,0,0,-1,1553,1415,0,0
336,-391,0,0,0,0,0,0,0,0,0,-1,1560,1415,0,0
343,-391,0,0,0,0,0,0,0,0,0,-1,1567,1415,0,0
350,-391,0,0,0,0,0,0,0,0,0,-1,1574,1415,0,0
357,-391,0,0,0,0,0,0,0,0,0,-1,1581,1415,0,0
364,-391,0,0,0,0,0,0,0,0,0,-1,1588,1415,0,0
371,-391,0,0,0,0,0,0,0,0,0,-1,1595,1415,0,0
378,-391,0,0,0,0,0,0,0,0,0,-1,1602,1415,0,0
385,-391,0,0,0,0,0,0,0,0,0,-1,1609,1415,0,0
392,-391,0,0,0,0,0,0,0,0,0,-1,1616,1415,0,0
399,-391,0,0,0,0,0,0,0,0,0,-1,1623,1415,0,0
406,-391,0,0,0,0,0,0,0,0,0,-1,1630,1415,0,0
413,-391,0,0,0,0,0,0,0,0,0,-1,1637,1415,0,0
420,-391,0,0,0,0,0,0,0,0,0,-1,1644,1415,0,0
427,-391,0,0,0,0,0,0,0,0,0,-1,1651,1415,0,0
434,-391,0,0,0,0,0,0,0,0,0,-1,1658,1415,0,0
441,-391,0,0,0,0,0,0,0,0,0,-1,1665,1415,0,0
448,-391,0,0,0,0,0,0,0,0,0,-1,1672,1415,0,0
455,-391,0,0,0,0,0,0,0,0,0,-1,1679,1415,0,0
462,-391,0,0,0,0,0,0,0,0,0,-1,1686,1415,0,0
469,-391,0,0,0,0,0,0,0,0,0,-1,1693,1415,0,0
476,-391,0,0,0,0,0,0,0,0,0,-1,1700,1415,0,0
483,-391,0,0,0,0,0,0,0,0,0,-1,1707,1415,0,0
490,-391,0,0,0,0,0,0,0,0,0,-1,1714,1415,0,0
497,-391,0,0,0,0,0,0,0,0,0,-1,1721,1415,0,0
504,-391,0,0,0,0,0,0,0,0,0,-1,1728,1415,0,0
511,-391,0,0,0,0,0,0,0,0,0,-1,1735,1415,0,0
518,-391,0,0,0,0,0,0,0,0,0,-1,1742,1415,0,0
525,-391,0,0,0,0,0,0,0,0,0,-1,1749,1415,0,0
532,-391,28.5959,3.02356,0,0,0,0,0,0,0,-1,1756,1415,28.596,-3.02358
539,-391,27.5881,3.25012,0,0,0,0,0,0,0,-1,1763,1415,27.5882,-3.25016
546,-391,27.2837,3.28064,0,0,0,0,0,0,0,-1,1770,1415,27.2837,-3.28064
553,-391,32.5952,5.04553,0,0,0,0,0,0,0,-1,1777,1415,32.5952,-5.04551
560,-391,31.2947,5.67017,0,0,0,0,0,0,0,-1,1784,1415,31.2947,-5.67011
567,-391,30.1473,6.17603,0,0,0,0,0,0,0,-1,1791,1415,30.1473,-6.17602
574,-391,27.5656,5.6842,0,0,0,0,0,0,0,-1,1798,1415,27.5655,-5.68422
581,-391,25.8883,5.76123,0,0,0,0,0,0,0,-1,1805,1415,25.8883,-5.76124
588,-391,24.2717,5.47986,0,0,0,0,0,0,0,-1,1812,1415,24.2717,-5.47982
595,-391,22.8827,6.1991,0,0,0,0,0,0,0,-1,1819,1415,22.8827,-6.19909
602,-391,15.1635,5.69849,0,0,0,0,0,0,0,-1,1826,1415,15.1635,-5.69847
609,-391,14.8285,7.50476,0,0,0,0,0,0,0,-1,1833,1415,14.8285,-7.50479
616,-391,20.7952,12.0503,0,0,0,0,0,0,0,-1,1840,1415,20.7952,-12.0503
623,-391,20.963,11.5342,0,0,0,0,0,0,0,-1,1847,1415,20.9631,-11.5342
630,-391,21.0383,11.0823,-0.00116384,0.003416,-0.00326077,0.00511059,-0.00285843,-1.09152,0.00466176,0.0279953,1854,1415,21.0383,-11.0823
637,-391,21.0209,10.7617,0.000164906,0.00163477,-0.00118628,0.00229532,-0.000495646,-1.06273,0.00171941,0.0150847,1861,1415,21.0209,-10.7617
644,-391,21.016,10.3945,0.000454685,0.000951168,-0.000619451,0.00137027,3.55859e-05,-0.975972,0.000901883,0.016465,1868,1415,21.016,-10.3945
651,-391,21.0233,10.0188,0.000713464,0.000490857,-0.000315114,0.000936354,0.000267967,-0.61563,0.000556838,0.0180001,1875,1415,21.0233,-10.0188
658,-391,20.9995,9.64526,0.000987512,7.51743e-05,-5.32787e-05,0.000990613,7.20734e-05,-0.0581345,0.000637743,0.0170322,1882,1415,20.9995,-9.64526
665,-391,20.9946,9.29578,0.00122506,-0.000285146,0.000256089,0.0012673,-0.00032739,0.163486,0.000972542,0.013563,1889,1415,20.9946,-9.29578
672,-391,21.0016,8.91638,0.00147655,-0.000596413,0.000552199,0.00161447,-0.000734333,0.244757,0.00138745,0.0120678,1896,1415,21.0016,-8.91633
679,-391,20.9918,8.54712,0.00181317,-0.00100302,0.000849998,0.00204983,-0.00123969,0.271549,0.00191831,0.0117347,1903,1415,20.9918,-8.54706
686,-391,20.9833,8.18872,0.00229122,-0.00160454,0.00119251,0.00262726,-0.00194058,0.274674,0.00264716,0.0149425,1910,1415,20.9832,-8.18876
693,-391,20.9603,7.91174,0.00298746,-0.00227714,0.00150849,0.00338906,-0.00267874,0.260191,0.00351124,0.0353716,1917,1415,20.9603,-7.91173
700,-391,20.9824,7.63232,0,0,0,0,0,0,0,-1,1924,1415,20.9825,-7.63227
707,-391,12.9524,5.96851,0,0,0,0,0,0,0,-1,1931,1415,12.9524,-5.96849
714,-391,15.6875,7.67896,0,0,0,0,0,0,0,-1,1938,1415,15.6875,-7.67893
721,-391,14.1808,8.08435,0,0,0,0,0,0,0,-1,1945,1415,14.1808,-8.08439
728,-391,13.8102,7.28174,0,0,0,0,0,0,0,-1,1952,1415,13.8102,-7.28174
735,-391,0,0,0,0,0,0,0,0,0,-1,1959,1415,0,0
742,-391,0,0,0,0,0,0,0,0,0,-1,1966,1415,0,0
749,-391,0,0,0,0,0,0,0,0,0,-1,1973,1415,0,0
756,-391,0,0,0,0,0,0,0,0,0,-1,1980,1415,0,0
763,-391,0,0,0,0,0,0,0,0,0,-1,1987,1415,0,0
770,-391,0,0,0,0,0,0,0,0,0,-1,1994,1415,0,0
777,-391,0,0,0,0,0,0,0,0,0,-1,2001,1415,0,0
784,-391,0,0,0,0,0,0,0,0,0,-1,2008,1415,0,0
791,-391,0,0,0,0,0,0,0,0,0,-1,2015,1415,0,0
798,-391,0,0,0,0,0,0,0,0,0,-1,2022,1415,0,0
805,-391,0,0,0,0,0,0,0,0,0,-1,2029,1415,0,0
812,-391,0,0,0,0,0,0,0,0,0,-1,2036,1415,0,0
-700,-398,0,0,0,0,0,0,0,0,0,-1,524,1422,0,0
-693,-398,0,0,0,0,0,0,0,0,0,-1,531,1422,0,0
-686,-398,0,0,0,0,0,0,0,0,0,-1,538,1422,0,0
-679,-398,0,0,0,0,0,0,0,0,0,-1,545,1422,0,0
-672,-398,0,0,0,0,0,0,0,0,0,-1,552,1422,0,0
-665,-398,0,0,0,0,0,0,0,0,0,-1,559,1422,0,0
-658,-398,0,0,0,0,0,0,0,0,0,-1,566,1422,0,0
-651,-398,0,0,0,0,0,0,0,0,0,-1,573,1422,0,0
-644,-398,0,0,0,0,0,0,0,0,0,-1,580,1422,0,0
-637,-398,0,0,0,0,0,0,0,0,0,-1,587,1422,0,0
-630,-398,0,0,0,0,0,0,0,0,0,-1,594,1422,0,0
-623,-398,0,0,0,0,0,0,0,0,0,-1,601,1422,0,0
-616,-398,0,0,0,0,0,0,0,0,0,-1,608,1422,0,0
-609,-398,-7.47125,-4.05322,0,0,0,0,0,0,0,-1,615,1422,-7.47128,4.05317
-602,-398,-4.58868,-2.77026,0,0,0,0,0,0,0,-1,622,1422,-4.58869,2.77023
-595,-398,-12.2224,-1.82007,0,0,0,0,0,0,0,-1,629,1422,-12.2224,1.82006
-588,-398,-10.6939,1.32336,0,0,0,0,0,0,0,-1,636,1422,-10.6939,-1.32337
-581,-398,-10.433,3.1123,0,0,0,0,0,0,0,-1,643,1422,-10.433,-3.11233
-574,-398,-6.07343,3.35437,0,0,0,0,0,0,0,-1,650,1422,-6.07343,-3.35439
-567,-398,-8.1236,4.48645,0,0,0,0,0,0,0,-1,657,1422,-8.12359,-4.4864
-560,-398,-8.4776,6.01099,0,0,0,0,0,0,0,-1,664,1422,-8.47762,-6.01101
-553,-398,-8.83203,5.97498,0,0,0,0,0,0,0,-1,671,1422,-8.83203,-5.97501
-546,-398,-8.82678,6.47839,-0.00808584,0.0041315,-0.00125698,0.00425949,-0.00821382,-1.46933,0.0073211,0.0226489,678,1422,-8.82676,-6.47833
-539,-398,-8.78339,6.93323,-0.00565071,0.00293152,-0.000694399,0.00298734,-0.00570654,-1.49058,0.00510059,0.0123386,685,1422,-8.78341,-6.93323
-532,-398,-8.77991,7.35693,-0.00348096,0.00216599,-0.000147452,0.00216984,-0.00348481,-1.54471,0.00329401,0.0208216,692,1422,-8.77989,-7.35693
-525,-398,-8.82111,7.76807,-0.00145509,0.00172372,0.000446495,0.00178524,-0.00151662,1.43387,0.00190843,0.021351,699,1422,-8.82111,-7.76806
-518,-398,-8.84637,8.17468,0.000415208,0.00147781,0.00105121,0.00212435,-0.000231333,1.01939,0.00149931,0.01832,706,1422,-8.84636,-8.1747
-511,-398,-8.83643,8.55212,0.00236358,0.00142388,0.00180693,0.00376074,2.67177e-05,0.658201,0.0024983,0.0136559,713,1422,-8.83645,-8.55206
-504,-398,-8.84106,8.98157,0.00428095,0.00169432,0.00269598,0.00597778,-2.50689e-06,0.561752,0.00398602,0.0139994,720,1422,-8.84107,-8.98157
-497,-398,-8.85272,9.38635,0.00617445,0.00208925,0.00369569,0.00835445,-9.07425e-05,0.532942,0.00560012,0.0100441,727,1422,-8.85271,-9.38632
-490,-398,-8.85187,9.79907,0.00815492,0.00261708,0.00483721,0.0109596,-0.000187645,0.525451,0.00736977,0.0148565,734,1422,-8.85188,-9.79902
-483,-398,-8.64697,10.3721,0.0101053,0.00343561,0.0057725,0.013437,0.000103891,0.523464,0.00892357,0.0432398,741,1422,-8.64699,-10.3721
-476,-398,-8.12256,10.9404,0,0,0,0,0,0,0,-1,748,1422,-8.12256,-10.9404
-469,-398,-8.41608,10.077,0,0,0,0,0,0,0,-1,755,1422,-8.41605,-10.077
-462,-398,-9.59753,9.32532,0,0,0,0,0,0,0,-1,762,1422,-9.59753,-9.32531
-455,-398,-8.08331,6.75024,0,0,0,0,0,0,0,-1,769,1422,-8.08333,-6.75022
-448,-398,-7.4505,5.25293,0,0,0,0,0,0,0,-1,776,1422,-7.4505,-5.25291
-441,-398,-7.61639,3.32141,0,0,0,0,0,0,0,-1,783,1422,-7.61637,-3.32145
-434,-398,-10.7618,3.297,0,0,0,0,0,0,0,-1,790,1422,-10.7618,-3.29704
-427,-398,-11.9061,2.24939,0,0,0,0,0,0,0,-1,797,1422,-11.9061,-2.24941
-420,-398,-13.467,2.32788,0,0,0,0,0,0,0,-1,804,1422,-13.467,-2.32787
-413,-398,-14.7983,2.15515,0,0,0,0,0,0,0,-1,811,1422,-14.7983,-2.15516
-406,-398,0,0,0,0,0,0,0,0,0,-1,818,1422,0,0
-399,-398,0,0,0,0,0,0,0,0,0,-1,825,1422,0,0
-392,-398,0,0,0,0,0,0,0,0,0,-1,832,1422,0,0
-385,-398,0,0,0,0,0,0,0,0,0,-1,839,1422,0,0
-378,-398,0,0,0,0,0,0,0,0,0,-1,846,1422,0,0
-371,-398,0,0,0,0,0,0,0,0,0,-1,853,1422,0,0
-364,-398,0,0,0,0,0,0,0,0,0,-1,860,1422,0,0
-357,-398,0,0,0,0,0,0,0,0,0,-1,867,1422,0,0
-350,-398,0,0,0,0,0,0,0,0,0,-1,874,1422,0,0
-343,-398,0,0,0,0,0,0,0,0,0,-1,881,1422,0,0
-336,-398,0,0,0,0,0,0,0,0,0,-1,888,1422,0,0
-329,-398,0,0,0,0,0,0,0,0,0,-1,895,1422,0,0
-322,-398,0,0,0,0,0,0,0,0,0,-1,902,1422,0,0
-315,-398,0,0,0,0,0,0,0,0,0,-1,909,1422,0,0
-308,-398,0,0,0,0,0,0,0,0,0,-1,916,1422,0,0
-301,-398,0,0,0,0,0,0,0,0,0,-1,923,1422,0,0
-294,-398,0,0,0,0,0,0,0,0,0,-1,930,1422,0,0
-287,-398,0,0,0,0,0,0,0,0,0,-1,937,1422,0,0
-280,-398,0,0,0,0,0,0,0,0,0,-1,944,1422,0,0
-273,-398,0,0,0,0,0,0,0,0,0,-1,951,1422,0,0
-266,-398,0,0,0,0,0,0,0,0,0,-1,958,1422,0,0
-259,-398,0,0,0,0,0,0,0,0,0,-1,965,1422,0,0
-252,-398,0,0,0,0,0,0,0,0,0,-1,972,1422,0,0
-245,-398,0,0,0,0,0,0,0,0,0,-1,979,1422,0,0
-238,-398,0,0,0,0,0,0,0,0,0,-1,986,1422,0,0
-231,-398,0,0,0,0,0,0,0,0,0,-1,993,1422,0,0
-224,-398,0,0,0,0,0,0,0,0,0,-1,1000,1422,0,0
-217,-398,0,0,0,0,0,0,0,0,0,-1,1007,1422,0,0
-210,-398,0,0,0,0,0,0,0,0,0,-1,1014,1422,0,0
-203,-398,0,0,0,0,0,0,0,0,0,-1,1021,1422,0,0
-196,-398,0,0,0,0,0,0,0,0,0,-1,1028,1422,0,0
-189,-398,0,0,0,0,0,0,0,0,0,-1,1035,1422,0,0
-182,-398,0,0,0,0,0,0,0,0,0,-1,1042,1422,0,0
-175,-398,0,0,0,0,0,0,0,0,0,-1,1049,1422,0,0
-168,-398,0,0,0,0,0,0,0,0,0,-1,1056,1422,0,0
-161,-398,0,0,0,0,0,0,0,0,0,-1,1063,1422,0,0
-154,-398,0,0,0,0,0,0,0,0,0,-1,1070,1422,0,0
-147,-398,0,0,0,0,0,0,0,0,0,-1,1077,1422,0,0
-140,-398,0,0,0,0,0,0,0,0,0,-1,1084,1422,0,0
-133,-398,0,0,0,0,0,0,0,0,0,-1,1091,1422,0,0
-126,-398,0,0,0,0,0,0,0,0,0,-1,1098,1422,0,0
-119,-398,0,0,0,0,0,0,0,0,0,-1,1105,1422,0,0
-112,-398,0,0,0,0,0,0,0,0,0,-1,1112,1422,0,0
-105,-398,0,0,0,0,0,0,0,0,0,-1,1119,1422,0,0
-98,-398,0,0,0,0,0,0,0,0,0,-1,1126,1422,0,0
-91,-398,0,0,0,0,0,0,0,0,0,-1,1133,1422,0,0
-84,-398,0,0,0,0,0,0,0,0,0,-1,1140,1422,0,0
-77,-398,0,0,0,0,0,0,0,0,0,-1,1147,1422,0,0
-70,-398,0,0,0,0,0,0,0,0,0,-1,1154,1422,0,0
-63,-398,0,0,0,0,0,0,0,0,0,-1,1161,1422,0,0
-56,-398,0,0,0,0,0,0,0,0,0,-1,1168,1422,0,0
-49,-398,0,0,0,0,0,0,0,0,0,-1,1175,1422,0,0
-42,-398,0,0,0,0,0,0,0,0,0,-1,1182,1422,0,0
-35,-398,0,0,0,0,0,0,0,0,0,-1,1189,1422,0,0
-28,-398,0,0,0,0,0,0,0,0,0,-1,1196,1422,0,0
-21,-398,0,0,0,0,0,0,0,0,0,-1,1203,1422,0,0
-14,-398,0,0,0,0,0,0,0,0,0,-1,1210,1422,0,0
-7,-398,0,0,0,0,0,0,0,0,0,-1,1217,1422,0,0
0,-398,0,0,0,0,0,0,0,0,0,-1,1224,1422,0,0
7,-398,0,0,0,0,0,0,0,0,0,-1,1231,1422,0,0
14,-398,0,0,0,0,0,0,0,0,0,-1,1238,1422,0,0
21,-398,0,0,0,0,0,0,0,0,0,-1,1245,1422,0,0
28,-398,0,0,0,0,0,0,0,0,0,-1,1252,1422,0,0
35,-398,0,0,0,0,0,0,0,0,0,-1,1259,1422,0,0
42,-398,0,0,0,0,0,0,0,0,0,-1,1266,1422,0,0
49,-398,0,0,0,0,0,0,0,0,0,-1,1273,1422,0,0
56,-398,0,0,0,0,0,0,0,0,0,-1,1280,1422,0,0
63,-398,0,0,0,0,0,0,0,0,0,-1,1287,1422,0,0
70,-398,0,0,0,0,0,0,0,0,0,-1,1294,1422,0,0
77,-398,0,0,0,0,0,0,0,0,0,-1,1301,1422,0,0
84,-398,0,0,0,0,0,0,0,0,0,-1,1308,1422,0,0
91,-398,0,0,0,0,0,0,0,0,0,-1,1315,1422,0,0
98,-398,0,0,0,0,0,0,0,0,0,-1,1322,1422,0,0
105,-398,0,0,0,0,0,0,0,0,0,-1,1329,1422,0,0
112,-398,0,0,0,0,0,0,0,0,0,-1,1336,1422,0,0
119,-398,0,0,0,0,0,0,0,0,0,-1,1343,1422,0,0
126,-398,0,0,0,0,0,0,0,0,0,-1,1350,1422,0,0
133,-398,0,0,0,0,0,0,0,0,0,-1,1357,1422,0,0
140,-398,0,0,0,0,0,0,0,0,0,-1,1364,1422,0,0
147,-398,0,0,0,0,0,0,0,0,0,-1,1371,1422,0,0
154,-398,0,0,0,0,0,0,0,0,0,-1,1378,1422,0,0
161,-398,0,0,0,0,0,0,0,0,0,-1,1385,1422,0,0
168,-398,0,0,0,0,0,0,0,0,0,-1,1392,1422,0,0
175,-398,0,0,0,0,0,0,0,0,0,-1,1399,1422,0,0
182,-398,0,0,0,0,0,0,0,0,0,-1,1406,1422,0,0
189,-398,0,0,0,0,0,0,0,0,0,-1,1413,1422,0,0
196,-398,0,0,0,0,0,0,0,0,0,-1,1420,1422,0,0
203,-398,0,0,0,0,0,0,0,0,0,-1,1427,1422,0,0
210,-398,0,0,0,0,0,0,0,0,0,-1,1434,1422,0,0
217,-398,0,0,0,0,0,0,0,0,0,-1,1441,1422,0,0
224,-398,0,0,0,0,0,0,0,0,0,-1,1448,1422,0,0
231,-398,0,0,0,0,0,0,0,0,0,-1,1455,1422,0,0
238,-398,0,0,0,0,0,0,0,0,0,-1,1462,1422,0,0
245,-398,0,0,0,0,0,0,0,0,0,-1,1469,1422,0,0
252,-398,0,0,0,0,0,0,0,0,0,-1,1476,1422,0,0
259,-398,0,0,0,0,0,0,0,0,0,-1,1483,1422,0,0
266,-398,0,0,0,0,0,0,0,0,0,-1,1490,1422,0,0
273,-398,0,0,0,0,0,0,0,0,0,-1,1497,1422,0,0
280,-398,0,0,0,0,0,0,0,0,0,-1,1504,1422,0,0
287,-398,0,0,0,0,0,0,0,0,0,-1,1511,1422,0,0
294,-398,0,0,0,0,0,0,0,0,0,-1,1518,1422,0,0
301,-398,0,0,0,0,0,0,0,0,0,-1,1525,1422,0,0
308,-398,0,0,0,0,0,0,0,0,0,-1,1532,1422,0,0
315,-398,0,0,0,0,0,0,0,0,0,-1,1539,1422,0,0
322,-398,0,0,0,0,0,0,0,0,0,-1,1546,1422,0,0
329,-398,0,0,0,0,0,0,0,0,0,-1,1553,1422,0,0
336,-398,0,0,0,0,0,0,0,0,0,-1,1560,1422,0,0
343,-398,0,0,0,0,0,0,0,0,0,-1,1567,1422,0,0
350,-398,0,0,0,0,0,0,0,0,0,-1,1574,1422,0,0
357,-398,0,0,0,0,0,0,0,0,0,-1,1581,1422,0,0
364,-398,0,0,0,0,0,0,0,0,0,-1,1588,1422,0,0
371,-398,0,0,0,0,0,0,0,0,0,-1,1595,1422,0,0
378,-398,0,0,0,0,0,0,0,0,0,-1,1602,1422,0,0
385,-398,0,0,0,0,0,0,0,0,0,-1,1609,1422,0,0
392,-398,0,0,0,0,0,0,0,0,0,-1,1616,1422,0,0
399,-398,0,0,0,0,0,0,0,0,0,-1,1623,1422,0,0
406,-398,0,0,0,0,0,0,0,0,0,-1,1630,1422,0,0
413,-398,0,0,0,0,0,0,0,0,0,-1,1637,1422,0,0
420,-398,0,0,0,0,0,0,0,0,0,-1,1644,1422,0,0
427,-398,0,0,0,0,0,0,0,0,0,-1,1651,1422,0,0
434,-398,0,0,0,0,0,0,0,0,0,-1,1658,1422,0,0
441,-398,0,0,0,0,0,0,0,0,0,-1,1665,1422,0,0
448,-398,0,0,0,0,0,0,0,0,0,-1,1672,1422,0,0
455,-398,0,0,0,0,0,0,0,0,0,-1,1679,1422,0,0
462,-398,0,0,0,0,0,0,0,0,0,-1,1686,1422,0,0
469,-398,0,0,0,0,0,0,0,0,0,-1,1693,1422,0,0
476,-398,0,0,0,0,0,0,0,0,0,-1,1700,1422,0,0
483,-398,0,0,0,0,0,0,0,0,0,-1,1707,1422,0,0
490,-398,0,0,0,0,0,0,0,0,0,-1,1714,1422,0,0
497,-398,0,0,0,0,0,0,0,0,0,-1,1721,1422,0,0
504,-398,0,0,0,0,0,0,0,0,0,-1,1728,1422,0,0
511,-398,0,0,0,0,0,0,0,0,0,-1,1735,1422,0,0
518,-398,0,0,0,0,0,0,0,0,0,-1,1742,1422,0,0
525,-398,0,0,0,0,0,0,0,0,0,-1,1749,1422,0,0
532,-398,28.4558,3.84094,0,0,0,0,0,0,0,-1,1756,1422,28.4558,-3.8409
539,-398,27.0594,3.33887,0,0,0,0,0,0,0,-1,1763,1422,27.0595,-3.3389
546,-398,31.6873,5.58582,0,0,0,0,0,0,0,-1,1770,1422,31.6872,-5.58585
553,-398,30.4392,5.92383,0,0,0,0,0,0,0,-1,1777,1422,30.4392,-5.92386
560,-398,29.1621,6.30469,0,0,0,0,0,0,0,-1,1784,1422,29.1621,-6.30469
567,-398,27.8411,6.55029,0,0,0,0,0,0,0,-1,1791,1422,27.8411,-6.55033
574,-398,26.411,6.8916,0,0,0,0,0,0,0,-1,1798,1422,26.411,-6.8916
581,-398,24.75,7.11145,0,0,0,0,0,0,0,-1,1805,1422,24.7499,-7.11142
588,-398,23.1649,7.67969,0,0,0,0,0,0,0,-1,1812,1422,23.1649,-7.67975
595,-398,21.4253,7.86023,0,0,0,0,0,0,0,-1,1819,1422,21.4253,-7.86029
602,-398,19.6857,8.04077,0,0,0,0,0,0,0,-1,1826,1422,19.6856,-8.04083
609,-398,20.7235,12.7445,0,0,0,0,0,0,0,-1,1833,1422,20.7235,-12.7445
616,-398,20.7114,11.9879,-0.00511942,0.0108001,-0.011149,0.0165392,-0.0108585,-1.09541,0.015931,0.04999,1840,1422,20.7114,-11.988
623,-398,20.6338,11.548,-0.00258745,0.00494288,-0.00493585,0.0073857,-0.00503027,-1.11123,0.00721123,0.0219083,1847,1422,20.6338,-11.548
630,-398,20.6473,11.1558,-0.000650247,0.00219536,-0.00142514,0.00278636,-0.00124124,-1.17769,0.00238169,0.0129664,1854,1422,20.6474,-11.1557
637,-398,20.6338,10.7993,0.000195908,0.00111866,-0.000599773,0.00141399,-9.94164e-05,-1.11325,0.000977482,0.0148473,1861,1422,20.6338,-10.7994
644,-398,20.5833,10.3986,0.000477646,0.000614889,-0.00034212,0.000895202,0.000197333,-0.884373,0.000543108,0.0208968,1868,1422,20.5832,-10.3985
651,-398,20.6088,10.0616,0.000766036,0.000210947,-0.000106752,0.000785858,0.000191125,-0.183594,0.000473242,0.0285402,1875,1422,20.6087,-10.0616
658,-398,20.657,9.72046,0.00104513,-0.000125216,9.67311e-05,0.00105307,-0.000133157,0.0819107,0.000750384,0.0220259,1882,1422,20.657,-9.72042
665,-398,20.6115,9.30786,0.00127635,-0.000384044,0.000345051,0.00134521,-0.000452895,0.196951,0.0010799,0.015054,1889,1422,20.6114,-9.30784
672,-398,20.6001,8.93835,0.00150219,-0.00062079,0.000603125,0.00166157,-0.000780168,0.258349,0.00144003,0.013044,1896,1422,20.6001,-8.9384
679,-398,20.5941,8.5741,0.00180259,-0.00097244,0.000879242,0.00205771,-0.00122756,0.282409,0.00191683,0.0120076,1903,1422,20.5941,-8.5741
686,-398,20.6162,8.20129,0.00221281,-0.00157042,0.00125648,0.00259209,-0.0019497,0.29316,0.00263093,0.021139,1910,1422,20.6162,-8.20129
693,-398,20.5317,8.05872,0,0,0,0,0,0,0,-1,1917,1422,20.5317,-8.05872
700,-398,14.0787,6.53918,0,0,0,0,0,0,0,-1,1924,1422,14.0787,-6.53921
707,-398,10.9731,5.479,0,0,0,0,0,0,0,-1,1931,1422,10.9732,-5.47896
714,-398,11.7313,6.17346,0,0,0,0,0,0,0,-1,1938,1422,11.7313,-6.17348
721,-398,13.9371,8.05103,0,0,0,0,0,0,0,-1,1945,1422,13.9372,-8.05102
728,-398,14.786,7.0282,0,0,0,0,0,0,0,-1,1952,1422,14.786,-7.0282
735,-398,0,0,0,0,0,0,0,0,0,-1,1959,1422,0,0
742,-398,0,0,0,0,0,0,0,0,0,-1,1966,1422,0,0
749,-398,0,0,0,0,0,0,0,0,0,-1,1973,1422,0,0
756,-398,0,0,0,0,0,0,0,0,0,-1,1980,1422,0,0
763,-398,0,0,0,0,0,0,0,0,0,-1,1987,1422,0,0
770,-398,0,0,0,0,0,0,0,0,0,-1,1994,1422,0,0
777,-398,0,0,0,0,0,0,0,0,0,-1,2001,1422,0,0
784,-398,0,0,0,0,0,0,0,0,0,-1,2008,1422,0,0
791,-398,0,0,0,0,0,0,0,0,0,-1,2015,1422,0,0
798,-398,0,0,0,0,0,0,0,0,0,-1,2022,1422,0,0
805,-398,0,0,0,0,0,0,0,0,0,-1,2029,1422,0,0
812,-398,0,0,0,0,0,0,0,0,0,-1,2036,1422,0,0
-700,-405,0,0,0,0,0,0,0,0,0,-1,524,1429,0,0
-693,-405,0,0,0,0,0,0,0,0,0,-1,531,1429,0,0
-686,-405,0,0,0,0,0,0,0,0,0,-1,538,1429,0,0
-679,-405,0,0,0,0,0,0,0,0,0,-1,545,1429,0,0
-672,-405,0,0,0,0,0,0,0,0,0,-1,552,1429,0,0
-665,-405,0,0,0,0,0,0,0,0,0,-1,559,1429,0,0
-658,-405,0,0,0,0,0,0,0,0,0,-1,566,1429,0,0
-651,-405,0,0,0,0,0,0,0,0,0,-1,573,1429,0,0
-644,-405,0,0,0,0,0,0,0,0,0,-1,580,1429,0,0
-637,-405,0,0,0,0,0,0,0,0,0,-1,587,1429,0,0
-630,-405,0,0,0,0,0,0,0,0,0,-1,594,1429,0,0
-623,-405,0,0,0,0,0,0,0,0,0,-1,601,1429,0,0
-616,-405,0,0,0,0,0,0,0,0,0,-1,608,1429,0,0
-609,-405,0,0,0,0,0,0,0,0,0,-1,615,1429,0,0
-602,-405,-5.80988,-3.46594,0,0,0,0,0,0,0,-1,622,1429,-5.80987,3.46592
-595,-405,-9.35413,2.01477,0,0,0,0,0,0,0,-1,629,1429,-9.35411,-2.01476
-588,-405,-7.35693,0.507202,0,0,0,0,0,0,0,-1,636,1429,-7.35696,-0.507187
-581,-405,-10.1284,1.62927,0,0,0,0,0,0,0,-1,643,1429,-10.1284,-1.62922
-574,-405,-9.32074,3.05896,0,0,0,0,0,0,0,-1,650,1429,-9.32077,-3.0589
-567,-405,-6.08093,4.52332,0,0,0,0,0,0,0,-1,657,1429,-6.08094,-4.52335
-560,-405,-8.08057,5.95471,0,0,0,0,0,0,0,-1,664,1429,-8.08057,-5.95466
-553,-405,-8.41467,6.0083,0,0,0,0,0,0,0,-1,671,1429,-8.41465,-6.0083
-546,-405,-8.41211,6.46436,-0.0100735,0.00538967,-0.00103738,0.00545895,-0.0101428,-1.50411,0.00914195,0.0357538,678,1429,-8.4121,-6.46432
-539,-405,-8.39923,6.91321,-0.00740028,0.00386165,-0.000621464,0.00389584,-0.00743446,-1.51584,0.00664705,0.0119599,685,1429,-8.3992,-6.91316
-532,-405,-8.3985,7.33374,-0.00507601,0.00282139,-0.000242716,0.00282885,-0.00508346,-1.5401,0.00462958,0.0147673,692,1429,-8.39848,-7.3338
-525,-405,-8.4184,7.76331,-0.0029076,0.00217277,0.000227451,0.00218293,-0.00291776,1.52614,0.00295506,0.0150984,699,1429,-8.41837,-7.76326
-518,-405,-8.41095,8.17346,-0.000939181,0.00174928,0.000723226,0.00193148,-0.00112139,1.324,0.00178314,0.0156833,706,1429,-8.41098,-8.17341
-511,-405,-8.44379,8.56311,0.00106477,0.00150482,0.00137232,0.00267464,-0.000105046,0.864887,0.00181912,0.0148566,713,1429,-8.44379,-8.56308
-504,-405,-8.42468,8.99548,0.00300158,0.00161925,0.0021692,0.00458706,3.37665e-05,0.63117,0.00304685,0.0164062,720,1429,-8.42468,-8.99554
-497,-405,-8.42035,9.41052,0.0048699,0.00188291,0.00307436,0.00679433,-4.15258e-05,0.55929,0.00454346,0.0147542,727,1429,-8.42037,-9.41048
-490,-405,-8.44391,9.81714,0.00670582,0.00229906,0.00406377,0.00912512,-0.000120234,0.53698,0.00612388,0.0123627,734,1429,-8.44393,-9.81708
-483,-405,-8.38348,10.2808,0.00852581,0.00291139,0.0045723,0.0110839,0.000353309,0.510087,0.00727435,0.0169408,741,1429,-8.38351,-10.2808
-476,-405,-8.34296,10.7092,0.01075,0.00197576,0.00388193,0.0122209,0.00050488,0.362191,0.00798426,0.0422191,748,1429,-8.34293,-10.7093
-469,-405,-8.57733,11.1331,0,0,0,0,0,0,0,-1,755,1429,-8.57733,-11.133
-462,-405,-8.49969,10.4749,0,0,0,0,0,0,0,-1,762,1429,-8.49968,-10.4748
-455,-405,-9.021,9.51111,0,0,0,0,0,0,0,-1,769,1429,-9.021,-9.51109
-448,-405,-8.4649,6.82813,0,0,0,0,0,0,0,-1,776,1429,-8.46492,-6.82817
-441,-405,-6.6712,4.23767,0,0,0,0,0,0,0,-1,783,1429,-6.67121,-4.23764
-434,-405,-9.62549,3.94189,0,0,0,0,0,0,0,-1,790,1429,-9.62546,-3.94191
-427,-405,-10.9764,3.73926,0,0,0,0,0,0,0,-1,797,1429,-10.9764,-3.73923
-420,-405,-12.1187,3.68506,0,0,0,0,0,0,0,-1,804,1429,-12.1187,-3.68512
-413,-405,-13.5353,3.75659,0,0,0,0,0,0,0,-1,811,1429,-13.5353,-3.75655
-406,-405,-14.7374,3.99817,0,0,0,0,0,0,0,-1,818,1429,-14.7374,-3.99814
-399,-405,0,0,0,0,0,0,0,0,0,-1,825,1429,0,0
-392,-405,0,0,0,0,0,0,0,0,0,-1,832,1429,0,0
-385,-405,0,0,0,0,0,0,0,0,0,-1,839,1429,0,0
-378,-405,0,0,0,0,0,0,0,0,0,-1,846,1429,0,0
-371,-405,0,0,0,0,0,0,0,0,0,-1,853,1429,0,0
-364,-405,0,0,0,0,0,0,0,0,0,-1,860,1429,0,0
-357,-405,0,0,0,0,0,0,0,0,0,-1,867,1429,0,0
-350,-405,0,0,0,0,0,0,0,0,0,-1,874,1429,0,0
-343,-405,0,0,0,0,0,0,0,0,0,-1,881,1429,0,0
-336,-405,0,0,0,0,0,0,0,0,0,-1,888,1429,0,0
-329,-405,0,0,0,0,0,0,0,0,0,-1,895,1429,0,0
-322,-405,0,0,0,0,0,0,0,0,0,-1,902,1429,0,0
-315,-405,0,0,0,0,0,0,0,0,0,-1,909,1429,0,0
-308,-405,0,0,0,0,0,0,0,0,0,-1,916,1429,0,0
-301,-405,0,0,0,0,0,0,0,0,0,-1,923,1429,0,0
-294,-405,0,0,0,0,0,0,0,0,0,-1,930,1429,0,0
-287,-405,0,0,0,0,0,0,0,0,0,-1,937,1429,0,0
-280,-405,0,0,0,0,0,0,0,0,0,-1,944,1429,0,0
-273,-405,0,0,0,0,0,0,0,0,0,-1,951,1429,0,0
-266,-405,0,0,0,0,0,0,0,0,0,-1,958,1429,0,0
-259,-405,0,0,0,0,0,0,0,0,0,-1,965,1429,0,0
-252,-405,0,0,0,0,0,0,0,0,0,-1,972,1429,0,0
-245,-405,0,0,0,0,0,0,0,0,0,-1,979,1429,0,0
-238,-405,0,0,0,0,0,0,0,0,0,-1,986,1429,0,0
-231,-405,0,0,0,0,0,0,0,0,0,-1,993,1429,0,0
-224,-405,0,0,0,0,0,0,0,0,0,-1,1000,1429,0,0
-217,-405,0,0,0,0,0,0,0,0,0,-1,1007,1429,0,0
-210,-405,0,0,0,0,0,0,0,0,0,-1,1014,1429,0,0
-203,-405,0,0,0,0,0,0,0,0,0,-1,1021,1429,0,0
-196,-405,0,0,0,0,0,0,0,0,0,-1,1028,1429,0,0
-189,-405,0,0,0,0,0,0,0,0,0,-1,1035,1429,0,0
-182,-405,0,0,0,0,0,0,0,0,0,-1,1042,1429,0,0
-175,-405,0,0,0,0,0,0,0,0,0,-1,1049,1429,0,0
-168,-405,0,0,0,0,0,0,0,0,0,-1,1056,1429,0,0
-161,-405,0,0,0,0,0,0,0,0,0,-1,1063,1429,0,0
-154,-405,0,0,0,0,0,0,0,0,0,-1,1070,1429,0,0
-147,-405,0,0,0,0,0,0,0,0,0,-1,1077,1429,0,0
-140,-405,0,0,0,0,0,0,0,0,0,-1,1084,1429,0,0
-133,-405,0,0,0,0,0,0,0,0,0,-1,1091,1429,0,0
-126,-405,0,0,0,0,0,0,0,0,0,-1,1098,1429,0,0
-119,-405,0,0,0,0,0,0,0,0,0,-1,1105,1429,0,0
-112,-405,0,0,0,0,0,0,0,0,0,-1,1112,1429,0,0
-105,-405,0,0,0,0,0,0,0,0,0,-1,1119,1429,0,0
-98,-405,0,0,0,0,0,0,0,0,0,-1,1126,1429,0,0
-91,-405,0,0,0,0,0,0,0,0,0,-1,1133,1429,0,0
-84,-405,0,0,0,0,0,0,0,0,0,-1,1140,1429,0,0
-77,-405,0,0,0,0,0,0,0,0,0,-1,1147,1429,0,0
-70,-405,0,0,0,0,0,0,0,0,0,-1,1154,1429,0,0
-63,-405,0,0,0,0,0,0,0,0,0,-1,1161,1429,0,0
-56,-405,0,0,0,0,0,0,0,0,0,-1,1168,1429,0,0
-49,-405,0,0,0,0,0,0,0,0,0,-1,1175,1429,0,0
-42,-405,0,0,0,0,0,0,0,0,0,-1,1182,1429,0,0
-35,-405,0,0,0,0,0,0,0,0,0,-1,1189,1429,0,0
-28,-405,0,0,0,0,0,0,0,0,0,-1,1196,1429,0,0
-21,-405,0,0,0,0,0,0,0,0,0,-1,1203,1429,0,0
-14,-405,0,0,0,0,0,0,0,0,0,-1,1210,1429,0,0
-7,-405,0,0,0,0,0,0,0,0,0,-1,1217,1429,0,0
0,-405,0,0,0,0,0,0,0,0,0,-1,1224,1429,0,0
7,-405,0,0,0,0,0,0,0,0,0,-1,1231,1429,0,0
14,-405,0,0,0,0,0,0,0,0,0,-1,1238,1429,0,0
21,-405,0,0,0,0,0,0,0,0,0,-1,1245,1429,0,0
28,-405,0,0,0,0,0,0,0,0,0,-1,1252,1429,0,0
35,-405,0,0,0,0,0,0,0,0,0,-1,1259,1429,0,0
42,-405,0,0,0,0,0,0,0,0,0,-1,1266,1429,0,0
49,-405,0,0,0,0,0,0,0,0,0,-1,1273,1429,0,0
56,-405,0,0,0,0,0,0,0,0,0,-1,1280,1429,0,0
63,-405,0,0,0,0,0,0,0,0,0,-1,1287,1429,0,0
70,-405,0,0,0,0,0,0,0,0,0,-1,1294,1429,0,0
77,-405,0,0,0,0,0,0,0,0,0,-1,1301,1429,0,0
84,-405,0,0,0,0,0,0,0,0,0,-1,1308,1429,0,0
91,-405,0,0,0,0,0,0,0,0,0,-1,1315,1429,0,0
98,-405,0,0,0,0,0,0,0,0,0,-1,1322,1429,0,0
105,-405,0,0,0,0,0,0,0,0,0,-1,1329,1429,0,0
112,-405,0,0,0,0,0,0,0,0,0,-1,1336,1429,0,0
119,-405,0,0,0,0,0,0,0,0,0,-1,1343,1429,0,0
126,-405,0,0,0,0,0,0,0,0,0,-1,1350,1429,0,0
133,-405,0,0,0,0,0,0,0,0,0,-1,1357,1429,0,0
140,-405,0,0,0,0,0,0,0,0,0,-1,1364,1429,0,0
147,-405,0,0,0,0,0,0,0,0,0,-1,1371,1429,0,0
154,-405,0,0,0,0,0,0,0,0,0,-1,1378,1429,0,0
161,-405,0,0,0,0,0,0,0,0,0,-1,1385,1429,0,0
168,-405,0,0,0,0,0,0,0,0,0,-1,1392,1429,0,0
175,-405,0,0,0,0,0,0,0,0,0,-1,1399,1429,0,0
182,-405,0,0,0,0,0,0,0,0,0,-1,1406,1429,0,0
189,-405,0,0,0,0,0,0,0,0,0,-1,1413,1429,0,0
196,-405,0,0,0,0,0,0,0,0,0,-1,1420,1429,0,0
203,-405,0,0,0,0,0,0,0,0,0,-1,1427,1429,0,0
210,-405,0,0,0,0,0,0,0,0,0,-1,1434,1429,0,0
217,-405,0,0,0,0,0,0,0,0,0,-1,1441,1429,0,0
224,-405,0,0,0,0,0,0,0,0,0,-1,1448,1429,0,0
231,-405,0,0,0,0,0,0,0,0,0,-1,1455,1429,0,0
238,-405,0,0,0,0,0,0,0,0,0,-1,1462,1429,0,0
245,-405,0,0,0,0,0,0,0,0,0,-1,1469,1429,0,0
252,-405,0,0,0,0,0,0,0,0,0,-1,1476,1429,0,0
259,-405,0,0,0,0,0,0,0,0,0,-1,1483,1429,0,0
266,-405,0,0,0,0,0,0,0,0,0,-1,1490,1429,0,0
273,-405,0,0,0,0,0,0,0,0,0,-1,1497,1429,0,0
280,-405,0,0,0,0,0,0,0,0,0,-1,1504,1429,0,0
287,-405,0,0,0,0,0,0,0,0,0,-1,1511,1429,0,0
294,-405,0,0,0,0,0,0,0,0,0,-1,1518,1429,0,0
301,-405,0,0,0,0,0,0,0,0,0,-1,1525,1429,0,0
308,-405,0,0,0,0,0,0,0,0,0,-1,1532,1429,0,0
315,-405,0,0,0,0,0,0,0,0,0,-1,1539,1429,0,0
322,-405,0,0,0,0,0,0,0,0,0,-1,1546,1429,0,0
329,-405,0,0,0,0,0,0,0,0,0,-1,1553,1429,0,0
336,-405,0,0,0,0,0,0,0,0,0,-1,1560,1429,0,0
343,-405,0,0,0,0,0,0,0,0,0,-1,1567,1429,0,0
350,-405,0,0,0,0,0,0,0,0,0,-1,1574,1429,0,0
357,-405,0,0,0,0,0,0,0,0,0,-1,1581,1429,0,0
364,-405,0,0,0,0,0,0,0,0,0,-1,1588,1429,0,0
371,-405,0,0,0,0,0,0,0,0,0,-1,1595,1429,0,0
378,-405,0,0,0,0,0,0,0,0,0,-1,1602,1429,0,0
385,-405,0,0,0,0,0,0,0,0,0,-1,1609,1429,0,0
392,-405,0,0,0,0,0,0,0,0,0,-1,1616,1429,0,0
399,-405,0,0,0,0,0,0,0,0,0,-1,1623,1429,0,0
406,-405,0,0,0,0,0,0,0,0,0,-1,1630,1429,0,0
413,-405,0,0,0,0,0,0,0,0,0,-1,1637,1429,0,0
420,-405,0,0,0,0,0,0,0,0,0,-1,1644,1429,0,0
427,-405,0,0,0,0,0,0,0,0,0,-1,1651,1429,0,0
434,-405,0,0,0,0,0,0,0,0,0,-1,1658,1429,0,0
441,-405,0,0,0,0,0,0,0,0,0,-1,1665,1429,0,0
448,-405,0,0,0,0,0,0,0,0,0,-1,1672,1429,0,0
455,-405,0,0,0,0,0,0,0,0,0,-1,1679,1429,0,0
462,-405,0,0,0,0,0,0,0,0,0,-1,1686,1429,0,0
469,-405,0,0,0,0,0,0,0,0,0,-1,1693,1429,0,0
476,-405,0,0,0,0,0,0,0,0,0,-1,1700,1429,0,0
483,-405,0,0,0,0,0,0,0,0,0,-1,1707,1429,0,0
490,-405,0,0,0,0,0,0,0,0,0,-1,1714,1429,0,0
497,-405,0,0,0,0,0,0,0,0,0,-1,1721,1429,0,0
504,-405,0,0,0,0,0,0,0,0,0,-1,1728,1429,0,0
511,-405,0,0,0,0,0,0,0,0,0,-1,1735,1429,0,0
518,-405,0,0,0,0,0,0,0,0,0,-1,1742,1429,0,0
525,-405,31.1563,-1.40942,0,0,0,0,0,0,0,-1,1749,1429,31.1563,1.40937
532,-405,28.156,4.8783,0,0,0,0,0,0,0,-1,1756,1429,28.1561,-4.87833
539,-405,26.5133,3.02454,0,0,0,0,0,0,0,-1,1763,1429,26.5133,-3.0246
546,-405,29.5735,6.53052,0,0,0,0,0,0,0,-1,1770,1429,29.5735,-6.53049
553,-405,28.2911,6.70654,0,0,0,0,0,0,0,-1,1777,1429,28.2912,-6.70656
560,-405,26.9299,7.08472,0,0,0,0,0,0,0,-1,1784,1429,26.9299,-7.08469
567,-405,25.804,7.14661,0,0,0,0,0,0,0,-1,1791,1429,25.8039,-7.14665
574,-405,25.1151,8.07971,0,0,0,0,0,0,0,-1,1798,1429,25.1151,-8.07965
581,-405,23.5055,8.505,0,0,0,0,0,0,0,-1,1805,1429,23.5054,-8.50501
588,-405,21.7491,8.98254,0,0,0,0,0,0,0,-1,1812,1429,21.7491,-8.98254
595,-405,21.6327,10.7795,0,0,0,0,0,0,0,-1,1819,1429,21.6327,-10.7796
602,-405,20.5352,12.9563,0,0,0,0,0,0,0,-1,1826,1429,20.5351,-12.9563
609,-405,20.3124,12.4901,-0.00447042,0.0132439,-0.0101751,0.0178768,-0.00910333,-1.14353,0.0158492,0.0458074,1833,1429,20.3124,-12.4901
616,-405,20.2462,12.0305,-0.00242453,0.00649939,-0.00488284,0.00865191,-0.00457704,-1.15559,0.00775757,0.0190582,1840,1429,20.2462,-12.0305
623,-405,20.2573,11.5859,-0.000981678,0.0030308,-0.00198048,0.00384365,-0.00179453,-1.18133,0.0033261,0.0105528,1847,1429,20.2573,-11.586
630,-405,20.2693,11.1816,-1.68256e-05,0.00151754,-0.000642088,0.00175078,-0.000250066,-1.22236,0.00125885,0.0106904,1854,1429,20.2693,-11.1817
637,-405,20.2581,10.8083,0.000355772,0.000831357,-0.000426962,0.00108228,0.000104849,-1.03948,0.000689233,0.0115482,1861,1429,20.2581,-10.8083
644,-405,20.2059,10.4144,0.000635808,0.000355105,-0.000202078,0.000741493,0.00024942,-0.481871,0.000435675,0.0296304,1868,1429,20.2059,-10.4144
651,-405,20.1361,10.0984,0.000922061,-6.86995e-06,-7.8827e-06,0.000922128,-6.93684e-06,-0.00848496,0.000617077,0.0327035,1875,1429,20.1361,-10.0984
658,-405,20.2346,9.7323,0.00116637,-0.000269627,0.000167863,0.00118573,-0.000288988,0.114834,0.000902377,0.0237437,1882,1429,20.2346,-9.73224
665,-405,20.2343,9.30627,0.00135131,-0.000420034,0.000372725,0.00142654,-0.000495268,0.19917,0.00115216,0.0187041,1889,1429,20.2342,-9.30624
672,-405,20.2422,8.93652,0.00150336,-0.000574295,0.00060841,0.00166842,-0.000739346,0.264907,0.0014242,0.0220144,1896,1429,20.2422,-8.93649
679,-405,20.2578,8.55994,0.0017099,-0.000853729,0.000870706,0.00197766,-0.00112149,0.298341,0.00181191,0.0214386,1903,1429,20.2578,-8.55998
686,-405,20.1637,8.21582,0.00197249,-0.00142002,0.00129531,0.0024105,-0.00185804,0.326084,0.00247131,0.039528,1910,1429,20.1637,-8.21581
693,-405,20.0239,7.98596,0,0,0,0,0,0,0,-1,1917,1429,20.0239,-7.98595
700,-405,9.1958,4.02026,0,0,0,0,0,0,0,-1,1924,1429,9.19579,-4.02025
707,-405,7.40308,3.83191,0,0,0,0,0,0,0,-1,1931,1429,7.40311,-3.83194
714,-405,7.33252,3.47388,0,0,0,0,0,0,0,-1,1938,1429,7.33255,-3.47383
721,-405,9.23523,0.993896,0,0,0,0,0,0,0,-1,1945,1429,9.23523,-0.993884
728,-405,0,0,0,0,0,0,0,0,0,-1,1952,1429,0,0
735,-405,0,0,0,0,0,0,0,0,0,-1,1959,1429,0,0
742,-405,0,0,0,0,0,0,0,0,0,-1,1966,1429,0,0
749,-405,0,0,0,0,0,0,0,0,0,-1,1973,1429,0,0
756,-405,0,0,0,0,0,0,0,0,0,-1,1980,1429,0,0
763,-405,0,0,0,0,0,0,0,0,0,-1,1987,1429,0,0
770,-405,0,0,0,0,0,0,0,0,0,-1,1994,1429,0,0
777,-405,0,0,0,0,0,0,0,0,0,-1,2001,1429,0,0
784,-405,0,0,0,0,0,0,0,0,0,-1,2008,1429,0,0
791,-405,0,0,0,0,0,0,0,0,0,-1,2015,1429,0,0
798,-405,0,0,0,0,0,0,0,0,0,-1,2022,1429,0,0
805,-405,0,0,0,0,0,0,0,0,0,-1,2029,1429,0,0
812,-405,0,0,0,0,0,0,0,0,0,-1,2036,1429,0,0
-700,-412,0,0,0,0,0,0,0,0,0,-1,524,1436,0,0
-693,-412,0,0,0,0,0,0,0,0,0,-1,531,1436,0,0
-686,-412,0,0,0,0,0,0,0,0,0,-1,538,1436,0,0
-679,-412,0,0,0,0,0,0,0,0,0,-1,545,1436,0,0
-672,-412,0,0,0,0,0,0,0,0,0,-1,552,1436,0,0
-665,-412,0,0,0,0,0,0,0,0,0,-1,559,1436,0,0
-658,-412,0,0,0,0,0,0,0,0,0,-1,566,1436,0,0
-651,-412,0,0,0,0,0,0,0,0,0,-1,573,1436,0,0
-644,-412,0,0,0,0,0,0,0,0,0,-1,580,1436,0,0
-637,-412,0,0,0,0,0,0,0,0,0,-1,587,1436,0,0
-630,-412,0,0,0,0,0,0,0,0,0,-1,594,1436,0,0
-623,-412,0,0,0,0,0,0,0,0,0,-1,601,1436,0,0
-616,-412,0,0,0,0,0,0,0,0,0,-1,608,1436,0,0
-609,-412,0,0,0,0,0,0,0,0,0,-1,615,1436,0,0
-602,-412,-3.72766,-3.50012,0,0,0,0,0,0,0,-1,622,1436,-3.72764,3.50017
-595,-412,-10.3706,0.65564,0,0,0,0,0,0,0,-1,629,1436,-10.3706,-0.655672
-588,-412,-8.17957,1.94934,0,0,0,0,0,0,0,-1,636,1436,-8.17956,-1.94939
-581,-412,-6.60065,-0.0554199,0,0,0,0,0,0,0,-1,643,1436,-6.60063,0.0554733
-574,-412,-8.34131,5.25012,0,0,0,0,0,0,0,-1,650,1436,-8.34129,-5.25012
-567,-412,-7.50354,3.65454,0,0,0,0,0,0,0,-1,657,1436,-7.50356,-3.65452
-560,-412,-5.49805,5.2561,0,0,0,0,0,0,0,-1,664,1436,-5.49802,-5.25609
-553,-412,-7.36761,6.54651,0,0,0,0,0,0,0,-1,671,1436,-7.36763,-6.54654
-546,-412,-7.99915,6.50879,0,0,0,0,0,0,0,-1,678,1436,-7.99917,-6.50881
-539,-412,-7.96503,6.88342,-0.0088486,0.00517962,-0.000222089,0.00518313,-0.00885211,-1.55497,0.00819502,0.0216643,685,1436,-7.96501,-6.88339
-532,-412,-7.97205,7.35632,-0.00637147,0.00378595,-7.98326e-05,0.00378658,-0.0063721,-1.56294,0.0059281,0.0136514,692,1436,-7.97203,-7.35627
-525,-412,-7.98663,7.78394,-0.00409595,0.00287067,0.000209103,0.00287694,-0.00410222,1.54082,0.00405007,0.014315,699,1436,-7.98664,-7.7839
-518,-412,-7.99738,8.18457,-0.00209097,0.00222067,0.000545786,0.00228869,-0.00215898,1.44682,0.00256823,0.0154736,706,1436,-7.9974,-8.18457
-511,-412,-8.02625,8.59192,-0.000129231,0.00175534,0.00103623,0.00221366,-0.000587544,1.15437,0.00170569,0.0189247,713,1436,-8.02625,-8.59192
-504,-412,-8.02374,9.02222,0.00173192,0.00167948,0.0016945,0.00340041,1.09959e-05,0.777663,0.00226328,0.0187723,720,1436,-8.02372,-9.02227
-497,-412,-8.02936,9.44141,0.00348616,0.00177691,0.0024633,0.00523887,2.41904e-05,0.618424,0.00348455,0.0153849,727,1436,-8.02935,-9.44144
-490,-412,-8.03595,9.84131,0.00513934,0.00205594,0.003294,0.00723457,-3.92881e-05,0.566524,0.00483619,0.0128173,734,1436,-8.03597,-9.84133
-483,-412,-8.04218,10.2408,0.00682304,0.00246128,0.0035361,0.00879671,0.000487613,0.509076,0.00570888,0.00927291,741,1436,-8.04216,-10.2409
-476,-412,-7.93732,10.798,0.00891473,0.00111555,0.00251342,0.00965455,0.000375737,0.286262,0.00631485,0.021547,748,1436,-7.9373,-10.798
-469,-412,-7.97083,11.1072,0.0112274,-0.000225701,0.00123141,0.0113583,-0.000356602,0.105905,0.00769383,0.0393097,755,1436,-7.97083,-11.1071
-462,-412,-7.85938,11.4639,0,0,0,0,0,0,0,-1,762,1436,-7.85939,-11.4638
-455,-412,-8.25006,11.2572,0,0,0,0,0,0,0,-1,769,1436,-8.25007,-11.2572
-448,-412,-7.38086,8.78186,0,0,0,0,0,0,0,-1,776,1436,-7.38088,-8.78183
-441,-412,-8.79523,9.05286,0,0,0,0,0,0,0,-1,783,1436,-8.79521,-9.0529
-434,-412,-10.6305,8.03577,0,0,0,0,0,0,0,-1,790,1436,-10.6305,-8.0358
-427,-412,-10.0004,5.15271,0,0,0,0,0,0,0,-1,797,1436,-10.0004,-5.15266
-420,-412,-10.4468,4.9043,0,0,0,0,0,0,0,-1,804,1436,-10.4468,-4.90429
-413,-412,-11.5704,4.97766,0,0,0,0,0,0,0,-1,811,1436,-11.5704,-4.97771
-406,-412,-13.1968,5.70093,0,0,0,0,0,0,0,-1,818,1436,-13.1968,-5.70096
-399,-412,-10.5506,0.771973,0,0,0,0,0,0,0,-1,825,1436,-10.5506,-0.771954
-392,-412,0,0,0,0,0,0,0,0,0,-1,832,1436,0,0
-385,-412,0,0,0,0,0,0,0,0,0,-1,839,1436,0,0
-378,-412,0,0,0,0,0,0,0,0,0,-1,846,1436,0,0
-371,-412,0,0,0,0,0,0,0,0,0,-1,853,1436,0,0
-364,-412,0,0,0,0,0,0,0,0,0,-1,860,1436,0,0
-357,-412,0,0,0,0,0,0,0,0,0,-1,867,1436,0,0
-350,-412,0,0,0,0,0,0,0,0,0,-1,874,1436,0,0
-343,-412,0,0,0,0,0,0,0,0,0,-1,881,1436,0,0
-336,-412,0,0,0,0,0,0,0,0,0,-1,888,1436,0,0
-329,-412,0,0,0,0,0,0,0,0,0,-1,895,1436,0,0
-322,-412,0,0,0,0,0,0,0,0,0,-1,902,1436,0,0
-315,-412,0,0,0,0,0,0,0,0,0,-1,909,1436,0,0
-308,-412,0,0,0,0,0,0,0,0,0,-1,916,1436,0,0
-301,-412,0,0,0,0,0,0,0,0,0,-1,923,1436,0,0
-294,-412,0,0,0,0,0,0,0,0,0,-1,930,1436,0,0
-287,-412,0,0,0,0,0,0,0,0,0,-1,937,1436,0,0
-280,-412,0,0,0,0,0,0,0,0,0,-1,944,1436,0,0
-273,-412,0,0,0,0,0,0,0,0,0,-1,951,1436,0,0
-266,-412,0,0,0,0,0,0,0,0,0,-1,958,1436,0,0
-259,-412,0,0,0,0,0,0,0,0,0,-1,965,1436,0,0
-252,-412,0,0,0,0,0,0,0,0,0,-1,972,1436,0,0
-245,-412,0,0,0,0,0,0,0,0,0,-1,979,1436,0,0
-238,-412,0,0,0,0,0,0,0,0,0,-1,986,1436,0,0
-231,-412,0,0,0,0,0,0,0,0,0,-1,993,1436,0,0
-224,-412,0,0,0,0,0,0,0,0,0,-1,1000,1436,0,0
-217,-412,0,0,0,0,0,0,0,0,0,-1,1007,1436,0,0
-210,-412,0,0,0,0,0,0,0,0,0,-1,1014,1436,0,0
-203,-412,0,0,0,0,0,0,0,0,0,-1,1021,1436,0,0
-196,-412,0,0,0,0,0,0,0,0,0,-1,1028,1436,0,0
-189,-412,0,0,0,0,0,0,0,0,0,-1,1035,1436,0,0
-182,-412,0,0,0,0,0,0,0,0,0,-1,1042,1436,0,0
-175,-412,0,0,0,0,0,0,0,0,0,-1,1049,1436,0,0
-168,-412,0,0,0,0,0,0,0,0,0,-1,1056,1436,0,0
-161,-412,0,0,0,0,0,0,0,0,0,-1,1063,1436,0,0
-154,-412,0,0,0,0,0,0,0,0,0,-1,1070,1436,0,0
-147,-412,0,0,0,0,0,0,0,0,0,-1,1077,1436,0,0
-140,-412,0,0,0,0,0,0,0,0,0,-1,1084,1436,0,0
-133,-412,0,0,0,0,0,0,0,0,0,-1,1091,1436,0,0
-126,-412,0,0,0,0,0,0,0,0,0,-1,1098,1436,0,0
-119,-412,0,0,0,0,0,0,0,0,0,-1,1105,1436,0,0
-112,-412,0,0,0,0,0,0,0,0,0,-1,1112,1436,0,0
-105,-412,0,0,0,0,0,0,0,0,0,-1,1119,1436,0,0
-98,-412,0,0,0,0,0,0,0,0,0,-1,1126,1436,0,0
-91,-412,0,0,0,0,0,0,0,0,0,-1,1133,1436,0,0
-84,-412,0,0,0,0,0,0,0,0,0,-1,1140,1436,0,0
-77,-412,0,0,0,0,0,0,0,0,0,-1,1147,1436,0,0
-70,-412,0,0,0,0,0,0,0,0,0,-1,1154,1436,0,0
-63,-412,0,0,0,0,0,0,0,0,0,-1,1161,1436,0,0
-56,-412,0,0,0,0,0,0,0,0,0,-1,1168,1436,0,0
-49,-412,0,0,0,0,0,0,0,0,0,-1,1175,1436,0,0
-42,-412,0,0,0,0,0,0,0,0,0,-1,1182,1436,0,0
-35,-412,0,0,0,0,0,0,0,0,0,-1,1189,1436,0,0
-28,-412,0,0,0,0,0,0,0,0,0,-1,1196,1436,0,0
-21,-412,0,0,0,0,0,0,0,0,0,-1,1203,1436,0,0
-14,-412,0,0,0,0,0,0,0,0,0,-1,1210,1436,0,0
-7,-412,0,0,0,0,0,0,0,0,0,-1,1217,1436,0,0
0,-412,0,0,0,0,0,0,0,0,0,-1,1224,1436,0,0
7,-412,0,0,0,0,0,0,0,0,0,-1,1231,1436,0,0
14,-412,0,0,0,0,0,0,0,0,0,-1,1238,1436,0,0
21,-412,0,0,0,0,0,0,0,0,0,-1,1245,1436,0,0
28,-412,0,0,0,0,0,0,0,0,0,-1,1252,1436,0,0
35,-412,0,0,0,0,0,0,0,0,0,-1,1259,1436,0,0
42,-412,0,0,0,0,0,0,0,0,0,-1,1266,1436,0,0
49,-412,0,0,0,0,0,0,0,0,0,-1,1273,1436,0,0
56,-412,0,0,0,0,0,0,0,0,0,-1,1280,1436,0,0
63,-412,0,0,0,0,0,0,0,0,0,-1,1287,1436,0,0
70,-412,0,0,0,0,0,0,0,0,0,-1,1294,1436,0,0
77,-412,0,0,0,0,0,0,0,0,0,-1,1301,1436,0,0
84,-412,0,0,0,0,0,0,0,0,0,-1,1308,1436,0,0
91,-412,0,0,0,0,0,0,0,0,0,-1,1315,1436,0,0
98,-412,0,0,0,0,0,0,0,0,0,-1,1322,1436,0,0
105,-412,0,0,0,0,0,0,0,0,0,-1,1329,1436,0,0
112,-412,0,0,0,0,0,0,0,0,0,-1,1336,1436,0,0
119,-412,0,0,0,0,0,0,0,0,0,-1,1343,1436,0,0
126,-412,0,0,0,0,0,0,0,0,0,-1,1350,1436,0,0
133,-412,0,0,0,0,0,0,0,0,0,-1,1357,1436,0,0
140,-412,0,0,0,0,0,0,0,0,0,-1,1364,1436,0,0
147,-412,0,0,0,0,0,0,0,0,0,-1,1371,1436,0,0
154,-412,0,0,0,0,0,0,0,0,0,-1,1378,1436,0,0
161,-412,0,0,0,0,0,0,0,0,0,-1,1385,1436,0,0
168,-412,0,0,0,0,0,0,0,0,0,-1,1392,1436,0,0
175,-412,0,0,0,0,0,0,0,0,0,-1,1399,1436,0,0
182,-412,0,0,0,0,0,0,0,0,0,-1,1406,1436,0,0
189,-412,0,0,0,0,0,0,0,0,0,-1,1413,1436,0,0
196,-412,0,0,0,0,0,0,0,0,0,-1,1420,1436,0,0
203,-412,0,0,0,0,0,0,0,0,0,-1,1427,1436,0,0
210,-412,0,0,0,0,0,0,0,0,0,-1,1434,1436,0,0
217,-412,0,0,0,0,0,0,0,0,0,-1,1441,1436,0,0
224,-412,0,0,0,0,0,0,0,0,0,-1,1448,1436,0,0
231,-412,0,0,0,0,0,0,0,0,0,-1,1455,1436,0,0
238,-412,0,0,0,0,0,0,0,0,0,-1,1462,1436,0,0
245,-412,0,0,0,0,0,0,0,0,0,-1,1469,1436,0,0
252,-412,0,0,0,0,0,0,0,0,0,-1,1476,1436,0,0
259,-412,0,0,0,0,0,0,0,0,0,-1,1483,1436,0,0
266,-412,0,0,0,0,0,0,0,0,0,-1,1490,1436,0,0
273,-412,0,0,0,0,0,0,0,0,0,-1,1497,1436,0,0
280,-412,0,0,0,0,0,0,0,0,0,-1,1504,1436,0,0
287,-412,0,0,0,0,0,0,0,0,0,-1,1511,1436,0,0
294,-412,0,0,0,0,0,0,0,0,0,-1,1518,1436,0,0
301,-412,0,0,0,0,0,0,0,0,0,-1,1525,1436,0,0
308,-412,0,0,0,0,0,0,0,0,0,-1,1532,1436,0,0
315,-412,0,0,0,0,0,0,0,0,0,-1,1539,1436,0,0
322,-412,0,0,0,0,0,0,0,0,0,-1,1546,1436,0,0
329,-412,0,0,0,0,0,0,0,0,0,-1,1553,1436,0,0
336,-412,0,0,0,0,0,0,0,0,0,-1,1560,1436,0,0
343,-412,0,0,0,0,0,0,0,0,0,-1,1567,1436,0,0
350,-412,0,0,0,0,0,0,0,0,0,-1,1574,1436,0,0
357,-412,0,0,0,0,0,0,0,0,0,-1,1581,1436,0,0
364,-412,0,0,0,0,0,0,0,0,0,-1,1588,1436,0,0
371,-412,0,0,0,0,0,0,0,0,0,-1,1595,1436,0,0
378,-412,0,0,0,0,0,0,0,0,0,-1,1602,1436,0,0
385,-412,0,0,0,0,0,0,0,0,0,-1,1609,1436,0,0
392,-412,0,0,0,0,0,0,0,0,0,-1,1616,1436,0,0
399,-412,0,0,0,0,0,0,0,0,0,-1,1623,1436,0,0
406,-412,0,0,0,0,0,0,0,0,0,-1,1630,1436,0,0
413,-412,0,0,0,0,0,0,0,0,0,-1,1637,1436,0,0
420,-412,0,0,0,0,0,0,0,0,0,-1,1644,1436,0,0
427,-412,0,0,0,0,0,0,0,0,0,-1,1651,1436,0,0
434,-412,0,0,0,0,0,0,0,0,0,-1,1658,1436,0,0
441,-412,0,0,0,0,0,0,0,0,0,-1,1665,1436,0,0
448,-412,0,0,0,0,0,0,0,0,0,-1,1672,1436,0,0
455,-412,0,0,0,0,0,0,0,0,0,-1,1679,1436,0,0
462,-412,0,0,0,0,0,0,0,0,0,-1,1686,1436,0,0
469,-412,0,0,0,0,0,0,0,0,0,-1,1693,1436,0,0
476,-412,0,0,0,0,0,0,0,0,0,-1,1700,1436,0,0
483,-412,0,0,0,0,0,0,0,0,0,-1,1707,1436,0,0
490,-412,0,0,0,0,0,0,0,0,0,-1,1714,1436,0,0
497,-412,0,0,0,0,0,0,0,0,0,-1,1721,1436,0,0
504,-412,0,0,0,0,0,0,0,0,0,-1,1728,1436,0,0
511,-412,0,0,0,0,0,0,0,0,0,-1,1735,1436,0,0
518,-412,30.1038,-2.43384,0,0,0,0,0,0,0,-1,1742,1436,30.1038,2.43383
525,-412,29.5283,-1.42493,0,0,0,0,0,0,0,-1,1749,1436,29.5283,1.42495
532,-412,28.8533,-0.386597,0,0,0,0,0,0,0,-1,1756,1436,28.8533,0.386632
539,-412,25.8654,2.74683,0,0,0,0,0,0,0,-1,1763,1436,25.8654,-2.74685
546,-412,25.4265,2.4342,0,0,0,0,0,0,0,-1,1770,1436,25.4265,-2.4342
553,-412,26.3595,7.49255,0,0,0,0,0,0,0,-1,1777,1436,26.3595,-7.4925
560,-412,24.9116,7.94324,0,0,0,0,0,0,0,-1,1784,1436,24.9116,-7.94327
567,-412,23.668,7.94531,0,0,0,0,0,0,0,-1,1791,1436,23.6679,-7.94534
574,-412,23.0142,9.17236,0,0,0,0,0,0,0,-1,1798,1436,23.0141,-9.17235
581,-412,22.2615,10.0349,0,0,0,0,0,0,0,-1,1805,1436,22.2615,-10.0349
588,-412,21.6893,10.8069,0,0,0,0,0,0,0,-1,1812,1436,21.6893,-10.8069
595,-412,20.4216,13.3365,0,0,0,0,0,0,0,-1,1819,1436,20.4216,-13.3365
602,-412,20.1202,12.8057,-0.00456494,0.011534,-0.00640408,0.0137707,-0.00680169,-1.23477,0.0121025,0.0405882,1826,1436,20.1203,-12.8057
609,-412,19.9211,12.3425,-0.002814,0.00744697,-0.00392755,0.00877772,-0.00414475,-1.24411,0.00761895,0.0131329,1833,1436,19.9212,-12.3425
616,-412,19.9177,11.9609,-0.00145704,0.00393558,-0.00189126,0.00453274,-0.0020542,-1.26496,0.00389168,0.00804718,1840,1436,19.9177,-11.961
623,-412,19.9037,11.5773,-0.000570288,0.00214961,-0.000894075,0.00241718,-0.000837862,-1.28,0.00195164,0.00862537,1847,1436,19.9036,-11.5773
630,-412,19.9115,11.1749,8.03425e-05,0.00119209,-0.00045012,0.00135148,-7.90487e-05,-1.23047,0.000928458,0.0108881,1854,1436,19.9115,-11.1749
637,-412,19.9034,10.7867,0.000437612,0.000560665,-0.000246134,0.000752846,0.000245431,-0.907874,0.000443342,0.0121455,1861,1436,19.9034,-10.7867
644,-412,19.8655,10.4338,0.000743182,0.000126287,-5.1447e-05,0.000747443,0.000122026,-0.082636,0.000463011,0.0133081,1868,1436,19.8654,-10.4338
651,-412,19.8483,10.0853,0.00107117,-0.000187229,0.000100481,0.00107914,-0.000195201,0.0791795,0.00079255,0.0249671,1875,1436,19.8482,-10.0854
658,-412,19.8512,9.69702,0.0013475,-0.000370291,0.000233011,0.00137855,-0.000401337,0.132457,0.00107801,0.0165916,1882,1436,19.8512,-9.69707
665,-412,19.8767,9.3396,0.00156483,-0.000399786,0.00036227,0.00162951,-0.000464459,0.176659,0.00126979,0.0215028,1889,1436,19.8767,-9.33956
672,-412,19.8966,8.96899,0.00174077,-0.000466598,0.000528661,0.00186085,-0.000586679,0.223352,0.00147553,0.0266273,1896,1436,19.8966,-8.96901
679,-412,19.92,8.55994,0.0019677,-0.000671101,0.000708313,0.00214581,-0.000849207,0.246343,0.00178237,0.0382792,1903,1436,19.92,-8.55988
686,-412,19.8236,8.12207,0,0,0,0,0,0,0,-1,1910,1436,19.8236,-8.12201
693,-412,11.9346,6.02344,0,0,0,0,0,0,0,-1,1917,1436,11.9346,-6.02343
700,-412,8.82764,5.8844,0,0,0,0,0,0,0,-1,1924,1436,8.82761,-5.88444
707,-412,6.59998,1.68994,0,0,0,0,0,0,0,-1,1931,1436,6.60002,-1.68995
714,-412,4.77283,-2.39832,0,0,0,0,0,0,0,-1,1938,1436,4.77288,2.39835
721,-412,0,0,0,0,0,0,0,0,0,-1,1945,1436,0,0
728,-412,0,0,0,0,0,0,0,0,0,-1,1952,1436,0,0
735,-412,0,0,0,0,0,0,0,0,0,-1,1959,1436,0,0
742,-412,0,0,0,0,0,0,0,0,0,-1,1966,1436,0,0
749,-412,0,0,0,0,0,0,0,0,0,-1,1973,1436,0,0
756,-412,0,0,0,0,0,0,0,0,0,-1,1980,1436,0,0
763,-412,0,0,0,0,0,0,0,0,0,-1,1987,1436,0,0
770,-412,0,0,0,0,0,0,0,0,0,-1,1994,1436,0,0
777,-412,0,0,0,0,0,0,0,0,0,-1,2001,1436,0,0
784,-412,0,0,0,0,0,0,0,0,0,-1,2008,1436,0,0
791,-412,0,0,0,0,0,0,0,0,0,-1,2015,1436,0,0
798,-412,0,0,0,0,0,0,0,0,0,-1,2022,1436,0,0
805,-412,0,0,0,0,0,0,0,0,0,-1,2029,1436,0,0
812,-412,0,0,0,0,0,0,0,0,0,-1,2036,1436,0,0
-700,-419,0,0,0,0,0,0,0,0,0,-1,524,1443,0,0
-693,-419,0,0,0,0,0,0,0,0,0,-1,531,1443,0,0
-686,-419,0,0,0,0,0,0,0,0,0,-1,538,1443,0,0
-679,-419,0,0,0,0,0,0,0,0,0,-1,545,1443,0,0
-672,-419,0,0,0,0,0,0,0,0,0,-1,552,1443,0,0
-665,-419,0,0,0,0,0,0,0,0,0,-1,559,1443,0,0
-658,-419,0,0,0,0,0,0,0,0,0,-1,566,1443,0,0
-651,-419,0,0,0,0,0,0,0,0,0,-1,573,1443,0,0
-644,-419,0,0,0,0,0,0,0,0,0,-1,580,1443,0,0
-637,-419,0,0,0,0,0,0,0,0,0,-1,587,1443,0,0
-630,-419,0,0,0,0,0,0,0,0,0,-1,594,1443,0,0
-623,-419,0,0,0,0,0,0,0,0,0,-1,601,1443,0,0
-616,-419,0,0,0,0,0,0,0,0,0,-1,608,1443,0,0
-609,-419,0,0,0,0,0,0,0,0,0,-1,615,1443,0,0
-602,-419,0,0,0,0,0,0,0,0,0,-1,622,1443,0,0
-595,-419,-11.4904,-0.622681,0,0,0,0,0,0,0,-1,629,1443,-11.4903,0.622714
-588,-419,-9.09369,0.742432,0,0,0,0,0,0,0,-1,636,1443,-9.09366,-0.742482
-581,-419,-6.39172,2.14673,0,0,0,0,0,0,0,-1,643,1443,-6.39175,-2.14668
-574,-419,-4.09772,3.54773,0,0,0,0,0,0,0,-1,650,1443,-4.09772,-3.54767
-567,-419,-6.14038,3.22498,0,0,0,0,0,0,0,-1,657,1443,-6.14037,-3.22497
-560,-419,-4.52814,5.22253,0,0,0,0,0,0,0,-1,664,1443,-4.52816,-5.22251
-553,-419,-5.08331,6.11829,0,0,0,0,0,0,0,-1,671,1443,-5.08331,-6.1183
-546,-419,-7.30829,6.573,0,0,0,0,0,0,0,-1,678,1443,-7.3083,-6.57297
-539,-419,-7.37885,6.9845,-0.0108226,0.00694377,0.00052378,0.0069592,-0.010838,1.54135,0.0103563,0.0438065,685,1443,-7.37886,-6.98449
-532,-419,-7.57941,7.35925,-0.00803839,0.00511306,0.00039272,0.00512477,-0.0080501,1.54097,0.00766877,0.0193113,692,1443,-7.57939,-7.35931
-525,-419,-7.57477,7.80457,-0.00551994,0.00386703,0.000474111,0.00389091,-0.00554383,1.52046,0.00547494,0.0118682,699,1443,-7.57477,-7.80453
-518,-419,-7.57928,8.19739,-0.00334658,0.00294482,0.000631779,0.00300764,-0.00340939,1.4717,0.00370729,0.0162134,706,1443,-7.57926,-8.19734
-511,-419,-7.57446,8.61694,-0.00131917,0.00222654,0.000928257,0.00245485,-0.00154748,1.32962,0.00233046,0.0192346,713,1443,-7.57449,-8.61697
-504,-419,-7.60138,9.02502,0.000573276,0.00193192,0.00141509,0.0028223,-0.000317102,1.00918,0.00199565,0.0183302,720,1443,-7.60138,-9.02497
-497,-419,-7.62793,9.42798,0.00233136,0.00184459,0.00202442,0.00412697,4.89803e-05,0.725574,0.00273513,0.0130745,727,1443,-7.6279,-9.42801
-490,-419,-7.62378,9.8335,0.00391735,0.00196398,0.00267677,0.00579005,9.12778e-05,0.610466,0.00382997,0.0114428,734,1443,-7.62378,-9.83352
-483,-419,-7.63568,10.2478,0.00556983,0.0021577,0.0026787,0.00703962,0.000687905,0.501842,0.00448142,0.00994712,741,1443,-7.63569,-10.2478
-476,-419,-7.62219,10.6918,0.00763697,0.000564099,0.00141721,0.00791037,0.000290697,0.190574,0.0051794,0.011348,748,1443,-7.6222,-10.6918
-469,-419,-7.56171,11.2098,0.00977797,-0.000826694,2.56013e-05,0.00977803,-0.000826756,0.00241414,0.00681102,0.0211916,755,1443,-7.56171,-11.2099
-462,-419,-7.44061,11.7144,0,0,0,0,0,0,0,-1,762,1443,-7.44061,-11.7144
-455,-419,-7.35645,11.9451,0,0,0,0,0,0,0,-1,769,1443,-7.35646,-11.9451
-448,-419,-7.49109,9.92444,0,0,0,0,0,0,0,-1,776,1443,-7.49109,-9.92442
-441,-419,-7.65527,8.75574,0,0,0,0,0,0,0,-1,783,1443,-7.65525,-8.75568
-434,-419,-6.75922,7.50049,0,0,0,0,0,0,0,-1,790,1443,-6.75921,-7.50055
-427,-419,-8.23193,7.89404,0,0,0,0,0,0,0,-1,797,1443,-8.23193,-7.89404
-420,-419,-8.74091,6.36597,0,0,0,0,0,0,0,-1,804,1443,-8.74089,-6.366
-413,-419,-9.88391,6.53955,0,0,0,0,0,0,0,-1,811,1443,-9.8839,-6.53955
-406,-419,-10.3372,2.75195,0,0,0,0,0,0,0,-1,818,1443,-10.3372,-2.75201
-399,-419,-11.5999,1.40002,0,0,0,0,0,0,0,-1,825,1443,-11.5999,-1.39998
-392,-419,0,0,0,0,0,0,0,0,0,-1,832,1443,0,0
-385,-419,0,0,0,0,0,0,0,0,0,-1,839,1443,0,0
-378,-419,0,0,0,0,0,0,0,0,0,-1,846,1443,0,0
-371,-419,0,0,0,0,0,0,0,0,0,-1,853,1443,0,0
-364,-419,0,0,0,0,0,0,0,0,0,-1,860,1443,0,0
-357,-419,0,0,0,0,0,0,0,0,0,-1,867,1443,0,0
-350,-419,0,0,0,0,0,0,0,0,0,-1,874,1443,0,0
-343,-419,0,0,0,0,0,0,0,0,0,-1,881,1443,0,0
-336,-419,0,0,0,0,0,0,0,0,0,-1,888,1443,0,0
-329,-419,0,0,0,0,0,0,0,0,0,-1,895,1443,0,0
-322,-419,0,0,0,0,0,0,0,0,0,-1,902,1443,0,0
-315,-419,0,0,0,0,0,0,0,0,0,-1,909,1443,0,0
-308,-419,0,0,0,0,0,0,0,0,0,-1,916,1443,0,0
-301,-419,0,0,0,0,0,0,0,0,0,-1,923,1443,0,0
-294,-419,0,0,0,0,0,0,0,0,0,-1,930,1443,0,0
-287,-419,0,0,0,0,0,0,0,0,0,-1,937,1443,0,0
-280,-419,0,0,0,0,0,0,0,0,0,-1,944,1443,0,0
-273,-419,0,0,0,0,0,0,0,0,0,-1,951,1443,0,0
-266,-419,0,0,0,0,0,0,0,0,0,-1,958,1443,0,0
-259,-419,0,0,0,0,0,0,0,0,0,-1,965,1443,0,0
-252,-419,0,0,0,0,0,0,0,0,0,-1,972,1443,0,0
-245,-419,0,0,0,0,0,0,0,0,0,-1,979,1443,0,0
-238,-419,0,0,0,0,0,0,0,0,0,-1,986,1443,0,0
-231,-419,0,0,0,0,0,0,0,0,0,-1,993,1443,0,0
-224,-419,0,0,0,0,0,0,0,0,0,-1,1000,1443,0,0
-217,-419,0,0,0,0,0,0,0,0,0,-1,1007,1443,0,0
-210,-419,0,0,0,0,0,0,0,0,0,-1,1014,1443,0,0
-203,-419,0,0,0,0,0,0,0,0,0,-1,1021,1443,0,0
-196,-419,0,0,0,0,0,0,0,0,0,-1,1028,1443,0,0
-189,-419,0,0,0,0,0,0,0,0,0,-1,1035,1443,0,0
-182,-419,0,0,0,0,0,0,0,0,0,-1,1042,1443,0,0
-175,-419,0,0,0,0,0,0,0,0,0,-1,1049,1443,0,0
-168,-419,0,0,0,0,0,0,0,0,0,-1,1056,1443,0,0
-161,-419,0,0,0,0,0,0,0,0,0,-1,1063,1443,0,0
-154,-419,0,0,0,0,0,0,0,0,0,-1,1070,1443,0,0
-147,-419,0,0,0,0,0,0,0,0,0,-1,1077,1443,0,0
-140,-419,0,0,0,0,0,0,0,0,0,-1,1084,1443,0,0
-133,-419,0,0,0,0,0,0,0,0,0,-1,1091,1443,0,0
-126,-419,0,0,0,0,0,0,0,0,0,-1,1098,1443,0,0
-119,-419,0,0,0,0,0,0,0,0,0,-1,1105,1443,0,0
-112,-419,0,0,0,0,0,0,0,0,0,-1,1112,1443,0,0
-105,-419,0,0,0,0,0,0,0,0,0,-1,1119,1443,0,0
-98,-419,0,0,0,0,0,0,0,0,0,-1,1126,1443,0,0
-91,-419,0,0,0,0,0,0,0,0,0,-1,1133,1443,0,0
-84,-419,0,0,0,0,0,0,0,0,0,-1,1140,1443,0,0
-77,-419,0,0,0,0,0,0,0,0,0,-1,1147,1443,0,0
-70,-419,0,0,0,0,0,0,0,0,0,-1,1154,1443,0,0
-63,-419,0,0,0,0,0,0,0,0,0,-1,1161,1443,0,0
-56,-419,0,0,0,0,0,0,0,0,0,-1,1168,1443,0,0
-49,-419,0,0,0,0,0,0,0,0,0,-1,1175,1443,0,0
-42,-419,0,0,0,0,0,0,0,0,0,-1,1182,1443,0,0
-35,-419,0,0,0,0,0,0,0,0,0,-1,1189,1443,0,0
-28,-419,0,0,0,0,0,0,0,0,0,-1,1196,1443,0,0
-21,-419,0,0,0,0,0,0,0,0,0,-1,1203,1443,0,0
-14,-419,0,0,0,0,0,0,0,0,0,-1,1210,1443,0,0
-7,-419,0,0,0,0,0,0,0,0,0,-1,1217,1443,0,0
0,-419,0,0,0,0,0,0,0,0,0,-1,1224,1443,0,0
7,-419,0,0,0,0,0,0,0,0,0,-1,1231,1443,0,0
14,-419,0,0,0,0,0,0,0,0,0,-1,1238,1443,0,0
21,-419,0,0,0,0,0,0,0,0,0,-1,1245,1443,0,0
28,-419,0,0,0,0,0,0,0,0,0,-1,1252,1443,0,0
35,-419,0,0,0,0,0,0,0,0,0,-1,1259,1443,0,0
42,-419,0,0,0,0,0,0,0,0,0,-1,1266,1443,0,0
49,-419,0,0,0,0,0,0,0,0,0,-1,1273,1443,0,0
56,-419,0,0,0,0,0,0,0,0,0,-1,1280,1443,0,0
63,-419,0,0,0,0,0,0,0,0,0,-1,1287,1443,0,0
70,-419,0,0,0,0,0,0,0,0,0,-1,1294,1443,0,0
77,-419,0,0,0,0,0,0,0,0,0,-1,1301,1443,0,0
84,-419,0,0,0,0,0,0,0,0,0,-1,1308,1443,0,0
91,-419,0,0,0,0,0,0,0,0,0,-1,1315,1443,0,0
98,-419,0,0,0,0,0,0,0,0,0,-1,1322,1443,0,0
105,-419,0,0,0,0,0,0,0,0,0,-1,1329,1443,0,0
112,-419,0,0,0,0,0,0,0,0,0,-1,1336,1443,0,0
119,-419,0,0,0,0,0,0,0,0,0,-1,1343,1443,0,0
126,-419,0,0,0,0,0,0,0,0,0,-1,1350,1443,0,0
133,-419,0,0,0,0,0,0,0,0,0,-1,1357,1443,0,0
140,-419,0,0,0,0,0,0,0,0,0,-1,1364,1443,0,0
147,-419,0,0,0,0,0,0,0,0,0,-1,1371,1443,0,0
154,-419,0,0,0,0,0,0,0,0,0,-1,1378,1443,0,0
161,-419,0,0,0,0,0,0,0,0,0,-1,1385,1443,0,0
168,-419,0,0,0,0,0,0,0,0,0,-1,1392,1443,0,0
175,-419,0,0,0,0,0,0,0,0,0,-1,1399,1443,0,0
182,-419,0,0,0,0,0,0,0,0,0,-1,1406,1443,0,0
189,-419,0,0,0,0,0,0,0,0,0,-1,1413,1443,0,0
196,-419,0,0,0,0,0,0,0,0,0,-1,1420,1443,0,0
203,-419,0,0,0,0,0,0,0,0,0,-1,1427,1443,0,0
210,-419,0,0,0,0,0,0,0,0,0,-1,1434,1443,0,0
217,-419,0,0,0,0,0,0,0,0,0,-1,1441,1443,0,0
224,-419,0,0,0,0,0,0,0,0,0,-1,1448,1443,0,0
231,-419,0,0,0,0,0,0,0,0,0,-1,1455,1443,0,0
238,-419,0,0,0,0,0,0,0,0,0,-1,1462,1443,0,0
245,-419,0,0,0,0,0,0,0,0,0,-1,1469,1443,0,0
252,-419,0,0,0,0,0,0,0,0,0,-1,1476,1443,0,0
259,-419,0,0,0,0,0,0,0,0,0,-1,1483,1443,0,0
266,-419,0,0,0,0,0,0,0,0,0,-1,1490,1443,0,0
273,-419,0,0,0,0,0,0,0,0,0,-1,1497,1443,0,0
280,-419,0,0,0,0,0,0,0,0,0,-1,1504,1443,0,0
287,-419,0,0,0,0,0,0,0,0,0,-1,1511,1443,0,0
294,-419,0,0,0,0,0,0,0,0,0,-1,1518,1443,0,0
301,-419,0,0,0,0,0,0,0,0,0,-1,1525,1443,0,0
308,-419,0,0,0,0,0,0,0,0,0,-1,1532,1443,0,0
315,-419,0,0,0,0,0,0,0,0,0,-1,1539,1443,0,0
322,-419,0,0,0,0,0,0,0,0,0,-1,1546,1443,0,0
329,-419,0,0,0,0,0,0,0,0,0,-1,1553,1443,0,0
336,-419,0,0,0,0,0,0,0,0,0,-1,1560,1443,0,0
343,-419,0,0,0,0,0,0,0,0,0,-1,1567,1443,0,0
350,-419,0,0,0,0,0,0,0,0,0,-1,1574,1443,0,0
357,-419,0,0,0,0,0,0,0,0,0,-1,1581,1443,0,0
364,-419,0,0,0,0,0,0,0,0,0,-1,1588,1443,0,0
371,-419,0,0,0,0,0,0,0,0,0,-1,1595,1443,0,0
378,-419,0,0,0,0,0,0,0,0,0,-1,1602,1443,0,0
385,-419,0,0,0,0,0,0,0,0,0,-1,1609,1443,0,0
392,-419,0,0,0,0,0,0,0,0,0,-1,1616,1443,0,0
399,-419,0,0,0,0,0,0,0,0,0,-1,1623,1443,0,0
406,-419,0,0,0,0,0,0,0,0,0,-1,1630,1443,0,0
413,-419,0,0,0,0,0,0,0,0,0,-1,1637,1443,0,0
420,-419,0,0,0,0,0,0,0,0,0,-1,1644,1443,0,0
427,-419,0,0,0,0,0,0,0,0,0,-1,1651,1443,0,0
434,-419,0,0,0,0,0,0,0,0,0,-1,1658,1443,0,0
441,-419,0,0,0,0,0,0,0,0,0,-1,1665,1443,0,0
448,-419,0,0,0,0,0,0,0,0,0,-1,1672,1443,0,0
455,-419,0,0,0,0,0,0,0,0,0,-1,1679,1443,0,0
462,-419,0,0,0,0,0,0,0,0,0,-1,1686,1443,0,0
469,-419,0,0,0,0,0,0,0,0,0,-1,1693,1443,0,0
476,-419,0,0,0,0,0,0,0,0,0,-1,1700,1443,0,0
483,-419,0,0,0,0,0,0,0,0,0,-1,1707,1443,0,0
490,-419,0,0,0,0,0,0,0,0,0,-1,1714,1443,0,0
497,-419,0,0,0,0,0,0,0,0,0,-1,1721,1443,0,0
504,-419,0,0,0,0,0,0,0,0,0,-1,1728,1443,0,0
511,-419,20.3005,3.7959,0,0,0,0,0,0,0,-1,1735,1443,20.3005,-3.79584
518,-419,21.3154,2.03027,0,0,0,0,0,0,0,-1,1742,1443,21.3155,-2.03029
525,-419,28.3439,-1.24475,0,0,0,0,0,0,0,-1,1749,1443,28.3438,1.24471
532,-419,27.5902,-0.272583,0,0,0,0,0,0,0,-1,1756,1443,27.5902,0.272526
539,-419,26.5278,1.60583,0,0,0,0,0,0,0,-1,1763,1443,26.5279,-1.60579
546,-419,24.9509,2.77539,0,0,0,0,0,0,0,-1,1770,1443,24.9509,-2.77537
553,-419,24.118,3.75525,0,0,0,0,0,0,0,-1,1777,1443,24.1181,-3.75526
560,-419,11.8199,8.26343,0,0,0,0,0,0,0,-1,1784,1443,11.82,-8.26341
567,-419,21.5143,8.74719,0,0,0,0,0,0,0,-1,1791,1443,21.5143,-8.74722
574,-419,19.5886,6.46155,0,0,0,0,0,0,0,-1,1798,1443,19.5886,-6.46157
581,-419,20.7926,11.4265,0,0,0,0,0,0,0,-1,1805,1443,20.7926,-11.4265
588,-419,19.4242,12.5363,0,0,0,0,0,0,0,-1,1812,1443,19.4242,-12.5362
595,-419,19.4164,13.2738,0,0,0,0,0,0,0,-1,1819,1443,19.4164,-13.2738
602,-419,19.5388,12.7306,-0.00193506,0.00456364,-0.000725393,0.00464362,-0.00201505,-1.46098,0.00394297,0.0187923,1826,1443,19.5388,-12.7306
609,-419,19.5422,12.3248,-0.00114797,0.00348754,-0.000781367,0.0036157,-0.00127613,-1.40822,0.00292999,0.0116894,1833,1443,19.5423,-12.3248
616,-419,19.5281,11.9611,-0.000585598,0.00243716,-0.000636571,0.00256575,-0.000714185,-1.37148,0.00199171,0.0111437,1840,1443,19.5281,-11.961
623,-419,19.5353,11.5837,-0.000111521,0.00158678,-0.000468299,0.00170735,-0.000232092,-1.3188,0.00122296,0.00945244,1847,1443,19.5353,-11.5838
630,-419,19.5514,11.1914,0.000368815,0.000909556,-0.00036861,0.00109632,0.000182049,-1.10182,0.00067839,0.0114642,1854,1443,19.5514,-11.1915
637,-419,19.5424,10.8221,0.000713035,0.000340864,-0.000164483,0.000775309,0.00027859,-0.361926,0.000453492,0.011465,1861,1443,19.5424,-10.8222
644,-419,19.5096,10.4675,0.00103322,-4.69512e-05,1.83267e-05,0.00103353,-4.72621e-05,0.01696,0.0007053,0.0100143,1868,1443,19.5097,-10.4675
651,-419,19.4679,10.1122,0.00138047,-0.000316089,0.000151597,0.00139391,-0.000329528,0.0884219,0.00105639,0.0105987,1875,1443,19.4679,-10.1122
658,-419,19.4686,9.72986,0.00167585,-0.000425216,0.00027256,0.00171063,-0.000459998,0.126926,0.00132073,0.0125487,1882,1443,19.4687,-9.72987
665,-419,19.5006,9.37195,0.00190806,-0.000338535,0.000356291,0.00196321,-0.000393685,0.153573,0.00145786,0.020203,1889,1443,19.5007,-9.37191
672,-419,19.5114,8.93164,0.00208392,-0.000323967,0.000482132,0.00217687,-0.000416916,0.190452,0.00160833,0.028195,1896,1443,19.5114,-8.93167
679,-419,19.6129,8.49097,0,0,0,0,0,0,0,-1,1903,1443,19.6129,-8.49102
686,-419,17.4127,8.03076,0,0,0,0,0,0,0,-1,1910,1443,17.4127,-8.03071
693,-419,8.76086,5.60535,0,0,0,0,0,0,0,-1,1917,1443,8.76091,-5.6054
700,-419,11.0498,4.85156,0,0,0,0,0,0,0,-1,1924,1443,11.0498,-4.85153
707,-419,9.5752,1.80042,0,0,0,0,0,0,0,-1,1931,1443,9.57523,-1.80037
714,-419,5.77576,-1.25061,0,0,0,0,0,0,0,-1,1938,1443,5.7757,1.25056
721,-419,0,0,0,0,0,0,0,0,0,-1,1945,1443,0,0
728,-419,0,0,0,0,0,0,0,0,0,-1,1952,1443,0,0
735,-419,0,0,0,0,0,0,0,0,0,-1,1959,1443,0,0
742,-419,0,0,0,0,0,0,0,0,0,-1,1966,1443,0,0
749,-419,0,0,0,0,0,0,0,0,0,-1,1973,1443,0,0
756,-419,0,0,0,0,0,0,0,0,0,-1,1980,1443,0,0
763,-419,0,0,0,0,0,0,0,0,0,-1,1987,1443,0,0
770,-419,0,0,0,0,0,0,0,0,0,-1,1994,1443,0,0
777,-419,0,0,0,0,0,0,0,0,0,-1,2001,1443,0,0
784,-419,0,0,0,0,0,0,0,0,0,-1,2008,1443,0,0
791,-419,0,0,0,0,0,0,0,0,0,-1,2015,1443,0,0
798,-419,0,0,0,0,0,0,0,0,0,-1,2022,1443,0,0
805,-419,0,0,0,0,0,0,0,0,0,-1,2029,1443,0,0
812,-419,0,0,0,0,0,0,0,0,0,-1,2036,1443,0,0
-700,-426,0,0,0,0,0,0,0,0,0,-1,524,1450,0,0
-693,-426,0,0,0,0,0,0,0,0,0,-1,531,1450,0,0
-686,-426,0,0,0,0,0,0,0,0,0,-1,538,1450,0,0
-679,-426,0,0,0,0,0,0,0,0,0,-1,545,1450,0,0
-672,-426,0,0,0,0,0,0,0,0,0,-1,552,1450,0,0
-665,-426,0,0,0,0,0,0,0,0,0,-1,559,1450,0,0
-658,-426,0,0,0,0,0,0,0,0,0,-1,566,1450,0,0
-651,-426,0,0,0,0,0,0,0,0,0,-1,573,1450,0,0
-644,-426,0,0,0,0,0,0,0,0,0,-1,580,1450,0,0
-637,-426,0,0,0,0,0,0,0,0,0,-1,587,1450,0,0
-630,-426,0,0,0,0,0,0,0,0,0,-1,594,1450,0,0
-623,-426,0,0,0,0,0,0,0,0,0,-1,601,1450,0,0
-616,-426,0,0,0,0,0,0,0,0,0,-1,608,1450,0,0
-609,-426,0,0,0,0,0,0,0,0,0,-1,615,1450,0,0
-602,-426,0,0,0,0,0,0,0,0,0,-1,622,1450,0,0
-595,-426,0,0,0,0,0,0,0,0,0,-1,629,1450,0,0
-588,-426,-10.184,-0.554321,0,0,0,0,0,0,0,-1,636,1450,-10.184,0.554321
-581,-426,-7.3349,1.48157,0,0,0,0,0,0,0,-1,643,1450,-7.33491,-1.48152
-574,-426,-5.02856,2.89319,0,0,0,0,0,0,0,-1,650,1450,-5.02858,-2.89319
-567,-426,-3.04797,1.72644,0,0,0,0,0,0,0,-1,657,1450,-3.04797,-1.72639
-560,-426,-5.55682,3.44397,0,0,0,0,0,0,0,-1,664,1450,-5.55684,-3.44399
-553,-426,-4.67017,6.66614,0,0,0,0,0,0,0,-1,671,1450,-4.67015,-6.66619
-546,-426,-6.42828,6.51929,0,0,0,0,0,0,0,-1,678,1450,-6.4283,-6.51925
-539,-426,-6.67981,6.99646,-0.0120632,0.00959111,0.00240648,0.00985532,-0.0123274,1.46144,0.0128337,0.0495568,685,1450,-6.67982,-6.99646
-532,-426,-7.05756,7.38269,-0.00897628,0.00718152,0.00186052,0.00739299,-0.00918775,1.45762,0.00959157,0.0381613,692,1450,-7.05756,-7.38268
-525,-426,-7.18433,7.75671,-0.0062658,0.00548338,0.00159898,0.0056971,-0.00647953,1.43792,0.00703502,0.0163319,699,1450,-7.18435,-7.75673
-518,-426,-7.17383,8.2074,-0.00400258,0.00418558,0.00144488,0.00443306,-0.00425006,1.40116,0.00501357,0.0156255,706,1450,-7.17383,-8.20738
-511,-426,-7.1803,8.63049,-0.00203602,0.00312703,0.0014056,0.00348489,-0.00239388,1.3215,0.00341354,0.0151832,713,1450,-7.18031,-8.6305
-504,-426,-7.2038,9.03308,-0.000244317,0.00251527,0.00158138,0.00323419,-0.000963235,1.14411,0.00253886,0.0143143,720,1450,-7.20382,-9.03307
-497,-426,-7.21124,9.43677,0.0013926,0.00215778,0.00190019,0.00371352,-0.000163131,0.884741,0.00253181,0.011929,727,1450,-7.21123,-9.43682
-490,-426,-7.20709,9.87268,0.0028056,0.00203765,0.00226058,0.00471458,0.000128662,0.701273,0.00310106,0.0124482,734,1450,-7.20709,-9.87267
-483,-426,-7.21875,10.2794,0.00431238,0.00196788,0.00195297,0.00541791,0.000862357,0.5151,0.00336156,0.0128452,741,1450,-7.21877,-10.2794
-476,-426,-7.22913,10.6798,0.00623664,0.000168633,0.000456402,0.00627077,0.000134497,0.0746547,0.00413641,0.0099992,748,1450,-7.2291,-10.6798
-469,-426,-7.23706,11.0831,0.0081373,-0.00127388,-0.00103905,0.00825065,-0.00138723,-0.108662,0.00601639,0.00863859,755,1450,-7.23708,-11.0831
-462,-426,-7.0899,11.6194,0.0105963,-0.00348912,-0.00382088,0.011566,-0.00445884,-0.248546,0.00955043,0.0285426,762,1450,-7.0899,-11.6194
-455,-426,-6.9032,12.2216,0,0,0,0,0,0,0,-1,769,1450,-6.90322,-12.2215
-448,-426,-6.46545,10.1322,0,0,0,0,0,0,0,-1,776,1450,-6.46543,-10.1322
-441,-426,-6.6189,9.86353,0,0,0,0,0,0,0,-1,783,1450,-6.61889,-9.86351
-434,-426,-9.05634,10.936,0,0,0,0,0,0,0,-1,790,1450,-9.05635,-10.9361
-427,-426,-5.90222,8.90906,0,0,0,0,0,0,0,-1,797,1450,-5.9022,-8.90905
-420,-426,-5.33765,7.95044,0,0,0,0,0,0,0,-1,804,1450,-5.33766,-7.95041
-413,-426,-10.1148,5.0415,0,0,0,0,0,0,0,-1,811,1450,-10.1148,-5.04152
-406,-426,-11.4199,3.6438,0,0,0,0,0,0,0,-1,818,1450,-11.4198,-3.64382
-399,-426,-12.7595,2.29004,0,0,0,0,0,0,0,-1,825,1450,-12.7595,-2.29003
-392,-426,-12.4147,0.537354,0,0,0,0,0,0,0,-1,832,1450,-12.4147,-0.53731
-385,-426,0,0,0,0,0,0,0,0,0,-1,839,1450,0,0
-378,-426,0,0,0,0,0,0,0,0,0,-1,846,1450,0,0
-371,-426,0,0,0,0,0,0,0,0,0,-1,853,1450,0,0
-364,-426,0,0,0,0,0,0,0,0,0,-1,860,1450,0,0
-357,-426,0,0,0,0,0,0,0,0,0,-1,867,1450,0,0
-350,-426,0,0,0,0,0,0,0,0,0,-1,874,1450,0,0
-343,-426,0,0,0,0,0,0,0,0,0,-1,881,1450,0,0
-336,-426,0,0,0,0,0,0,0,0,0,-1,888,1450,0,0
-329,-426,0,0,0,0,0,0,0,0,0,-1,895,1450,0,0
-322,-426,0,0,0,0,0,0,0,0,0,-1,902,1450,0,0
-315,-426,0,0,0,0,0,0,0,0,0,-1,909,1450,0,0
-308,-426,0,0,0,0,0,0,0,0,0,-1,916,1450,0,0
-301,-426,0,0,0,0,0,0,0,0,0,-1,923,1450,0,0
-294,-426,0,0,0,0,0,0,0,0,0,-1,930,1450,0,0
-287,-426,0,0,0,0,0,0,0,0,0,-1,937,1450,0,0
-280,-426,0,0,0,0,0,0,0,0,0,-1,944,1450,0,0
-273,-426,0,0,0,0,0,0,0,0,0,-1,951,1450,0,0
-266,-426,0,0,0,0,0,0,0,0,0,-1,958,1450,0,0
-259,-426,0,0,0,0,0,0,0,0,0,-1,965,1450,0,0
-252,-426,0,0,0,0,0,0,0,0,0,-1,972,1450,0,0
-245,-426,0,0,0,0,0,0,0,0,0,-1,979,1450,0,0
-238,-426,0,0,0,0,0,0,0,0,0,-1,986,1450,0,0
-231,-426,0,0,0,0,0,0,0,0,0,-1,993,1450,0,0
-224,-426,0,0,0,0,0,0,0,0,0,-1,1000,1450,0,0
-217,-426,0,0,0,0,0,0,0,0,0,-1,1007,1450,0,0
-210,-426,0,0,0,0,0,0,0,0,0,-1,1014,1450,0,0
-203,-426,0,0,0,0,0,0,0,0,0,-1,1021,1450,0,0
-196,-426,0,0,0,0,0,0,0,0,0,-1,1028,1450,0,0
-189,-426,0,0,0,0,0,0,0,0,0,-1,1035,1450,0,0
-182,-426,0,0,0,0,0,0,0,0,0,-1,1042,1450,0,0
-175,-426,0,0,0,0,0,0,0,0,0,-1,1049,1450,0,0
-168,-426,0,0,0,0,0,0,0,0,0,-1,1056,1450,0,0
-161,-426,0,0,0,0,0,0,0,0,0,-1,1063,1450,0,0
-154,-426,0,0,0,0,0,0,0,0,0,-1,1070,1450,0,0
-147,-426,0,0,0,0,0,0,0,0,0,-1,1077,1450,0,0
-140,-426,0,0,0,0,0,0,0,0,0,-1,1084,1450,0,0
-133,-426,0,0,0,0,0,0,0,0,0,-1,1091,1450,0,0
-126,-426,0,0,0,0,0,0,0,0,0,-1,1098,1450,0,0
-119,-426,0,0,0,0,0,0,0,0,0,-1,1105,1450,0,0
-112,-426,0,0,0,0,0,0,0,0,0,-1,1112,1450,0,0
-105,-426,0,0,0,0,0,0,0,0,0,-1,1119,1450,0,0
-98,-426,0,0,0,0,0,0,0,0,0,-1,1126,1450,0,0
-91,-426,0,0,0,0,0,0,0,0,0,-1,1133,1450,0,0
-84,-426,0,0,0,0,0,0,0,0,0,-1,1140,1450,0,0
-77,-426,0,0,0,0,0,0,0,0,0,-1,1147,1450,0,0
-70,-426,0,0,0,0,0,0,0,0,0,-1,1154,1450,0,0
-63,-426,0,0,0,0,0,0,0,0,0,-1,1161,1450,0,0
-56,-426,0,0,0,0,0,0,0,0,0,-1,1168,1450,0,0
-49,-426,0,0,0,0,0,0,0,0,0,-1,1175,1450,0,0
-42,-426,0,0,0,0,0,0,0,0,0,-1,1182,1450,0,0
-35,-426,0,0,0,0,0,0,0,0,0,-1,1189,1450,0,0
-28,-426,0,0,0,0,0,0,0,0,0,-1,1196,1450,0,0
-21,-426,0,0,0,0,0,0,0,0,0,-1,1203,1450,0,0
-14,-426,0,0,0,0,0,0,0,0,0,-1,1210,1450,0,0
-7,-426,0,0,0,0,0,0,0,0,0,-1,1217,1450,0,0
0,-426,0,0,0,0,0,0,0,0,0,-1,1224,1450,0,0
7,-426,0,0,0,0,0,0,0,0,0,-1,1231,1450,0,0
14,-426,0,0,0,0,0,0,0,0,0,-1,1238,1450,0,0
21,-426,0,0,0,0,0,0,0,0,0,-1,1245,1450,0,0
28,-426,0,0,0,0,0,0,0,0,0,-1,1252,1450,0,0
35,-426,0,0,0,0,0,0,0,0,0,-1,1259,1450,0,0
42,-426,0,0,0,0,0,0,0,0,0,-1,1266,1450,0,0
49,-426,0,0,0,0,0,0,0,0,0,-1,1273,1450,0,0
56,-426,0,0,0,0,0,0,0,0,0,-1,1280,1450,0,0
63,-426,0,0,0,0,0,0,0,0,0,-1,1287,1450,0,0
70,-426,0,0,0,0,0,0,0,0,0,-1,1294,1450,0,0
77,-426,0,0,0,0,0,0,0,0,0,-1,1301,1450,0,0
84,-426,0,0,0,0,0,0,0,0,0,-1,1308,1450,0,0
91,-426,0,0,0,0,0,0,0,0,0,-1,1315,1450,0,0
98,-426,0,0,0,0,0,0,0,0,0,-1,1322,1450,0,0
105,-426,0,0,0,0,0,0,0,0,0,-1,1329,1450,0,0
112,-426,0,0,0,0,0,0,0,0,0,-1,1336,1450,0,0
119,-426,0,0,0,0,0,0,0,0,0,-1,1343,1450,0,0
126,-426,0,0,0,0,0,0,0,0,0,-1,1350,1450,0,0
133,-426,0,0,0,0,0,0,0,0,0,-1,1357,1450,0,0
140,-426,0,0,0,0,0,0,0,0,0,-1,1364,1450,0,0
147,-426,0,0,0,0,0,0,0,0,0,-1,1371,1450,0,0
154,-426,0,0,0,0,0,0,0,0,0,-1,1378,1450,0,0
161,-426,0,0,0,0,0,0,0,0,0,-1,1385,1450,0,0
168,-426,0,0,0,0,0,0,0,0,0,-1,1392,1450,0,0
175,-426,0,0,0,0,0,0,0,0,0,-1,1399,1450,0,0
182,-426,0,0,0,0,0,0,0,0,0,-1,1406,1450,0,0
189,-426,0,0,0,0,0,0,0,0,0,-1,1413,1450,0,0
196,-426,0,0,0,0,0,0,0,0,0,-1,1420,1450,0,0
203,-426,0,0,0,0,0,0,0,0,0,-1,1427,1450,0,0
210,-426,0,0,0,0,0,0,0,0,0,-1,1434,1450,0,0
217,-426,0,0,0,0,0,0,0,0,0,-1,1441,1450,0,0
224,-426,0,0,0,0,0,0,0,0,0,-1,1448,1450,0,0
231,-426,0,0,0,0,0,0,0,0,0,-1,1455,1450,0,0
238,-426,0,0,0,0,0,0,0,0,0,-1,1462,1450,0,0
245,-426,0,0,0,0,0,0,0,0,0,-1,1469,1450,0,0
252,-426,0,0,0,0,0,0,0,0,0,-1,1476,1450,0,0
259,-426,0,0,0,0,0,0,0,0,0,-1,1483,1450,0,0
266,-426,0,0,0,0,0,0,0,0,0,-1,1490,1450,0,0
273,-426,0,0,0,0,0,0,0,0,0,-1,1497,1450,0,0
280,-426,0,0,0,0,0,0,0,0,0,-1,1504,1450,0,0
287,-426,0,0,0,0,0,0,0,0,0,-1,1511,1450,0,0
294,-426,0,0,0,0,0,0,0,0,0,-1,1518,1450,0,0
301,-426,0,0,0,0,0,0,0,0,0,-1,1525,1450,0,0
308,-426,0,0,0,0,0,0,0,0,0,-1,1532,1450,0,0
315,-426,0,0,0,0,0,0,0,0,0,-1,1539,1450,0,0
322,-426,0,0,0,0,0,0,0,0,0,-1,1546,1450,0,0
329,-426,0,0,0,0,0,0,0,0,0,-1,1553,1450,0,0
336,-426,0,0,0,0,0,0,0,0,0,-1,1560,1450,0,0
343,-426,0,0,0,0,0,0,0,0,0,-1,1567,1450,0,0
350,-426,0,0,0,0,0,0,0,0,0,-1,1574,1450,0,0
357,-426,0,0,0,0,0,0,0,0,0,-1,1581,1450,0,0
364,-426,0,0,0,0,0,0,0,0,0,-1,1588,1450,0,0
371,-426,0,0,0,0,0,0,0,0,0,-1,1595,1450,0,0
378,-426,0,0,0,0,0,0,0,0,0,-1,1602,1450,0,0
385,-426,0,0,0,0,0,0,0,0,0,-1,1609,1450,0,0
392,-426,0,0,0,0,0,0,0,0,0,-1,1616,1450,0,0
399,-426,0,0,0,0,0,0,0,0,0,-1,1623,1450,0,0
406,-426,0,0,0,0,0,0,0,0,0,-1,1630,1450,0,0
413,-426,0,0,0,0,0,0,0,0,0,-1,1637,1450,0,0
420,-426,0,0,0,0,0,0,0,0,0,-1,1644,1450,0,0
427,-426,0,0,0,0,0,0,0,0,0,-1,1651,1450,0,0
434,-426,0,0,0,0,0,0,0,0,0,-1,1658,1450,0,0
441,-426,0,0,0,0,0,0,0,0,0,-1,1665,1450,0,0
448,-426,0,0,0,0,0,0,0,0,0,-1,1672,1450,0,0
455,-426,0,0,0,0,0,0,0,0,0,-1,1679,1450,0,0
462,-426,0,0,0,0,0,0,0,0,0,-1,1686,1450,0,0
469,-426,0,0,0,0,0,0,0,0,0,-1,1693,1450,0,0
476,-426,0,0,0,0,0,0,0,0,0,-1,1700,1450,0,0
483,-426,0,0,0,0,0,0,0,0,0,-1,1707,1450,0,0
490,-426,0,0,0,0,0,0,0,0,0,-1,1714,1450,0,0
497,-426,0,0,0,0,0,0,0,0,0,-1,1721,1450,0,0
504,-426,20.6873,3.38367,0,0,0,0,0,0,0,-1,1728,1450,20.6873,-3.38361
511,-426,19.6676,3.53748,0,0,0,0,0,0,0,-1,1735,1450,19.6676,-3.53749
518,-426,18.6853,3.32288,0,0,0,0,0,0,0,-1,1742,1450,18.6853,-3.3229
525,-426,18.9552,2.71033,0,0,0,0,0,0,0,-1,1749,1450,18.9552,-2.71034
532,-426,19.4333,2.70764,0,0,0,0,0,0,0,-1,1756,1450,19.4334,-2.70764
539,-426,25.1482,2.56287,0,0,0,0,0,0,0,-1,1763,1450,25.1482,-2.56286
546,-426,24.1136,3.75659,0,0,0,0,0,0,0,-1,1770,1450,24.1136,-3.7566
553,-426,23.0791,4.95032,0,0,0,0,0,0,0,-1,1777,1450,23.0791,-4.95034
560,-426,12.9688,11.8289,0,0,0,0,0,0,0,-1,1784,1450,12.9688,-11.8288
567,-426,13.6388,11.5623,0,0,0,0,0,0,0,-1,1791,1450,13.6388,-11.5623
574,-426,14.3943,11.0286,0,0,0,0,0,0,0,-1,1798,1450,14.3942,-11.0285
581,-426,16.3879,11.4653,0,0,0,0,0,0,0,-1,1805,1450,16.3879,-11.4653
588,-426,18.1212,12.5547,0,0,0,0,0,0,0,-1,1812,1450,18.1212,-12.5547
595,-426,19.1791,13.2438,0,0,0,0,0,0,0,-1,1819,1450,19.1791,-13.2438
602,-426,19.114,12.7258,-0.00131553,0.00363376,-0.000549404,0.00369401,-0.00137578,-1.46156,0.00302733,0.0207816,1826,1450,19.1141,-12.7259
609,-426,19.1622,12.3138,-0.000626826,0.00279761,-0.000634766,0.00291148,-0.000740702,-1.39329,0.00222929,0.0124306,1833,1450,19.1622,-12.3139
616,-426,19.1631,11.9502,-0.00012108,0.00194228,-0.000528273,0.00206966,-0.000248467,-1.33417,0.00146962,0.0142781,1840,1450,19.163,-11.9502
623,-426,19.1632,11.5828,0.000294419,0.00120261,-0.000377761,0.0013392,0.000157833,-1.22385,0.000845117,0.0114164,1847,1450,19.1632,-11.5827
630,-426,19.1763,11.2152,0.000747932,0.000584904,-0.000297298,0.000974689,0.000358147,-0.651595,0.00056929,0.0112171,1854,1450,19.1762,-11.2152
637,-426,19.1721,10.847,0.0010831,5.23633e-05,-0.00010478,0.00109364,4.18198e-05,-0.100289,0.000715563,0.0113744,1861,1450,19.1721,-10.8471
644,-426,19.1375,10.4822,0.00142067,-0.000310088,5.72569e-05,0.00142256,-0.00031198,0.0330338,0.00106767,0.0110622,1868,1450,19.1374,-10.4821
651,-426,19.0968,10.1128,0.00179292,-0.000543365,0.000161951,0.00180409,-0.000554538,0.0688807,0.00142403,0.0108307,1875,1450,19.0968,-10.1128
658,-426,19.1064,9.71399,0.00211996,-0.000586302,0.000268779,0.00214639,-0.000612739,0.0980413,0.00167301,0.0117987,1882,1450,19.1065,-9.71398
665,-426,19.1593,9.28906,0.00238819,-0.000376739,0.000306356,0.00242173,-0.000410276,0.109039,0.00176719,0.0208044,1889,1450,19.1594,-9.28912
672,-426,19.2279,8.86853,0,0,0,0,0,0,0,-1,1896,1450,19.2279,-8.86855
679,-426,17.1522,8.15784,0,0,0,0,0,0,0,-1,1903,1450,17.1522,-8.15784
686,-426,13.5326,8.03711,0,0,0,0,0,0,0,-1,1910,1450,13.5326,-8.03717
693,-426,11.8607,6.45215,0,0,0,0,0,0,0,-1,1917,1450,11.8607,-6.45215
700,-426,9.24304,2.95447,0,0,0,0,0,0,0,-1,1924,1450,9.24305,-2.95442
707,-426,8.44519,-1.21448,0,0,0,0,0,0,0,-1,1931,1450,8.44514,1.21454
714,-426,0,0,0,0,0,0,0,0,0,-1,1938,1450,0,0
721,-426,0,0,0,0,0,0,0,0,0,-1,1945,1450,0,0
728,-426,0,0,0,0,0,0,0,0,0,-1,1952,1450,0,0
735,-426,0,0,0,0,0,0,0,0,0,-1,1959,1450,0,0
742,-426,0,0,0,0,0,0,0,0,0,-1,1966,1450,0,0
749,-426,0,0,0,0,0,0,0,0,0,-1,1973,1450,0,0
756,-426,0,0,0,0,0,0,0,0,0,-1,1980,1450,0,0
763,-426,0,0,0,0,0,0,0,0,0,-1,1987,1450,0,0
770,-426,0,0,0,0,0,0,0,0,0,-1,1994,1450,0,0
777,-426,0,0,0,0,0,0,0,0,0,-1,2001,1450,0,0
784,-426,0,0,0,0,0,0,0,0,0,-1,2008,1450,0,0
791,-426,0,0,0,0,0,0,0,0,0,-1,2015,1450,0,0
798,-426,0,0,0,0,0,0,0,0,0,-1,2022,1450,0,0
805,-426,0,0,0,0,0,0,0,0,0,-1,2029,1450,0,0
812,-426,0,0,0,0,0,0,0,0,0,-1,2036,1450,0,0
-700,-433,0,0,0,0,0,0,0,0,0,-1,524,1457,0,0
-693,-433,0,0,0,0,0,0,0,0,0,-1,531,1457,0,0
-686,-433,0,0,0,0,0,0,0,0,0,-1,538,1457,0,0
-679,-433,0,0,0,0,0,0,0,0,0,-1,545,1457,0,0
-672,-433,0,0,0,0,0,0,0,0,0,-1,552,1457,0,0
-665,-433,0,0,0,0,0,0,0,0,0,-1,559,1457,0,0
-658,-433,0,0,0,0,0,0,0,0,0,-1,566,1457,0,0
-651,-433,0,0,0,0,0,0,0,0,0,-1,573,1457,0,0
-644,-433,0,0,0,0,0,0,0,0,0,-1,580,1457,0,0
-637,-433,0,0,0,0,0,0,0,0,0,-1,587,1457,0,0
-630,-433,0,0,0,0,0,0,0,0,0,-1,594,1457,0,0
-623,-433,0,0,0,0,0,0,0,0,0,-1,601,1457,0,0
-616,-433,0,0,0,0,0,0,0,0,0,-1,608,1457,0,0
-609,-433,0,0,0,0,0,0,0,0,0,-1,615,1457,0,0
-602,-433,0,0,0,0,0,0,0,0,0,-1,622,1457,0,0
-595,-433,0,0,0,0,0,0,0,0,0,-1,629,1457,0,0
-588,-433,-10.3756,-0.467041,0,0,0,0,0,0,0,-1,636,1457,-10.3756,0.467081
-581,-433,-8.12201,0.884033,0,0,0,0,0,0,0,-1,643,1457,-8.12204,-0.884056
-574,-433,-5.86847,2.23523,0,0,0,0,0,0,0,-1,650,1457,-5.86844,-2.23519
-567,-433,-5.42255,1.16833,0,0,0,0,0,0,0,-1,657,1457,-5.42254,-1.1683
-560,-433,-6.84027,1.86414,0,0,0,0,0,0,0,-1,664,1457,-6.84026,-1.86412
-553,-433,-5.74017,1.79163,0,0,0,0,0,0,0,-1,671,1457,-5.74015,-1.79166
-546,-433,-6.30536,6.06042,0,0,0,0,0,0,0,-1,678,1457,-6.30534,-6.06042
-539,-433,-6.39398,6.73792,-0.0131453,0.0125835,0.00453277,0.0133588,-0.0139205,1.40141,0.0157508,0.0499379,685,1457,-6.39399,-6.7379
-532,-433,-6.47949,7.38,-0.00965021,0.00962082,0.00348234,0.0102308,-0.0102602,1.3974,0.0118305,0.0436553,692,1457,-6.47948,-7.37995
-525,-433,-6.71448,7.82495,-0.00669003,0.00746407,0.00283244,0.00800984,-0.0072358,1.38044,0.00880585,0.0305412,699,1457,-6.7145,-7.825
-518,-433,-6.74683,8.22754,-0.00430141,0.00577628,0.00235897,0.00630113,-0.00482626,1.35187,0.00644319,0.0176092,706,1457,-6.74683,-8.22752
-511,-433,-6.77631,8.65442,-0.00239038,0.00438026,0.00200708,0.00493052,-0.00294064,1.30321,0.00459256,0.0167729,713,1457,-6.77628,-8.65443
-504,-433,-6.78027,9.03772,-0.000700119,0.00341686,0.00189709,0.00415771,-0.00144098,1.19849,0.00335686,0.0128686,720,1457,-6.78027,-9.03771
-497,-433,-6.76727,9.43591,0.000815941,0.00275922,0.00197609,0.00398963,-0.000414468,1.01389,0.00280813,0.0129971,727,1457,-6.76726,-9.43596
-490,-433,-6.78748,9.87793,0.00206566,0.00237501,0.0021135,0.00433948,0.000101185,0.821925,0.00285986,0.0145245,734,1457,-6.78749,-9.87794
-483,-433,-6.80609,10.3029,0.00341694,0.0020394,0.00161231,0.00448144,0.000974905,0.583533,0.0027215,0.0163736,741,1457,-6.80611,-10.3029
-476,-433,-6.80951,10.7074,0.0051749,9.40147e-05,3.50467e-05,0.00517515,9.3773e-05,0.00689731,0.00341927,0.0117548,748,1457,-6.80949,-10.7074
-469,-433,-6.82684,11.1097,0.00684821,-0.00139306,-0.00143946,0.0070924,-0.00163725,-0.168039,0.00535806,0.0107781,755,1457,-6.82683,-11.1098
-462,-433,-6.8595,11.5247,0.00893015,-0.00359852,-0.00401923,0.0101087,-0.00477704,-0.285225,0.0087761,0.0110999,762,1457,-6.85947,-11.5246
-455,-433,-6.59137,12.1488,0.0116674,-0.00701895,-0.00807941,0.0146762,-0.0100278,-0.356494,0.0143468,0.0425552,769,1457,-6.59135,-12.1488
-448,-433,-6.19763,12.7874,0,0,0,0,0,0,0,-1,776,1457,-6.19763,-12.7873
-441,-433,-7.34796,11.9916,0,0,0,0,0,0,0,-1,783,1457,-7.34794,-11.9916
-434,-433,-8.12756,11.6251,0,0,0,0,0,0,0,-1,790,1457,-8.12755,-11.6252
-427,-433,-8.48438,9.1394,0,0,0,0,0,0,0,-1,797,1457,-8.4844,-9.1394
-420,-433,-5.74658,9.49121,0,0,0,0,0,0,0,-1,804,1457,-5.7466,-9.49119
-413,-433,-3.63074,5.5813,0,0,0,0,0,0,0,-1,811,1457,-3.63072,-5.58129
-406,-433,-12.3472,4.69373,0,0,0,0,0,0,0,-1,818,1457,-12.3472,-4.69374
-399,-433,-12.055,2.83594,0,0,0,0,0,0,0,-1,825,1457,-12.055,-2.83594
-392,-433,-12.9772,1.6228,0,0,0,0,0,0,0,-1,832,1457,-12.9772,-1.62282
-385,-433,-13.7999,0.514771,0,0,0,0,0,0,0,-1,839,1457,-13.7999,-0.514788
-378,-433,0,0,0,0,0,0,0,0,0,-1,846,1457,0,0
-371,-433,0,0,0,0,0,0,0,0,0,-1,853,1457,0,0
-364,-433,0,0,0,0,0,0,0,0,0,-1,860,1457,0,0
-357,-433,0,0,0,0,0,0,0,0,0,-1,867,1457,0,0
-350,-433,0,0,0,0,0,0,0,0,0,-1,874,1457,0,0
-343,-433,0,0,0,0,0,0,0,0,0,-1,881,1457,0,0
-336,-433,0,0,0,0,0,0,0,0,0,-1,888,1457,0,0
-329,-433,0,0,0,0,0,0,0,0,0,-1,895,1457,0,0
-322,-433,0,0,0,0,0,0,0,0,0,-1,902,1457,0,0
-315,-433,0,0,0,0,0,0,0,0,0,-1,909,1457,0,0
-308,-433,0,0,0,0,0,0,0,0,0,-1,916,1457,0,0
-301,-433,0,0,0,0,0,0,0,0,0,-1,923,1457,0,0
-294,-433,0,0,0,0,0,0,0,0,0,-1,930,1457,0,0
-287,-433,0,0,0,0,0,0,0,0,0,-1,937,1457,0,0
-280,-433,0,0,0,0,0,0,0,0,0,-1,944,1457,0,0
-273,-433,0,0,0,0,0,0,0,0,0,-1,951,1457,0,0
-266,-433,0,0,0,0,0,0,0,0,0,-1,958,1457,0,0
-259,-433,0,0,0,0,0,0,0,0,0,-1,965,1457,0,0
-252,-433,0,0,0,0,0,0,0,0,0,-1,972,1457,0,0
-245,-433,0,0,0,0,0,0,0,0,0,-1,979,1457,0,0
-238,-433,0,0,0,0,0,0,0,0,0,-1,986,1457,0,0
-231,-433,0,0,0,0,0,0,0,0,0,-1,993,1457,0,0
-224,-433,0,0,0,0,0,0,0,0,0,-1,1000,1457,0,0
-217,-433,0,0,0,0,0,0,0,0,0,-1,1007,1457,0,0
-210,-433,0,0,0,0,0,0,0,0,0,-1,1014,1457,0,0
-203,-433,0,0,0,0,0,0,0,0,0,-1,1021,1457,0,0
-196,-433,0,0,0,0,0,0,0,0,0,-1,1028,1457,0,0
-189,-433,0,0,0,0,0,0,0,0,0,-1,1035,1457,0,0
-182,-433,0,0,0,0,0,0,0,0,0,-1,1042,1457,0,0
-175,-433,0,0,0,0,0,0,0,0,0,-1,1049,1457,0,0
-168,-433,0,0,0,0,0,0,0,0,0,-1,1056,1457,0,0
-161,-433,0,0,0,0,0,0,0,0,0,-1,1063,1457,0,0
-154,-433,0,0,0,0,0,0,0,0,0,-1,1070,1457,0,0
-147,-433,0,0,0,0,0,0,0,0,0,-1,1077,1457,0,0
-140,-433,0,0,0,0,0,0,0,0,0,-1,1084,1457,0,0
-133,-433,0,0,0,0,0,0,0,0,0,-1,1091,1457,0,0
-126,-433,0,0,0,0,0,0,0,0,0,-1,1098,1457,0,0
-119,-433,0,0,0,0,0,0,0,0,0,-1,1105,1457,0,0
-112,-433,0,0,0,0,0,0,0,0,0,-1,1112,1457,0,0
-105,-433,0,0,0,0,0,0,0,0,0,-1,1119,1457,0,0
-98,-433,0,0,0,0,0,0,0,0,0,-1,1126,1457,0,0
-91,-433,0,0,0,0,0,0,0,0,0,-1,1133,1457,0,0
-84,-433,0,0,0,0,0,0,0,0,0,-1,1140,1457,0,0
-77,-433,0,0,0,0,0,0,0,0,0,-1,1147,1457,0,0
-70,-433,0,0,0,0,0,0,0,0,0,-1,1154,1457,0,0
-63,-433,0,0,0,0,0,0,0,0,0,-1,1161,1457,0,0
-56,-433,0,0,0,0,0,0,0,0,0,-1,1168,1457,0,0
-49,-433,0,0,0,0,0,0,0,0,0,-1,1175,1457,0,0
-42,-433,0,0,0,0,0,0,0,0,0,-1,1182,1457,0,0
-35,-433,0,0,0,0,0,0,0,0,0,-1,1189,1457,0,0
-28,-433,0,0,0,0,0,0,0,0,0,-1,1196,1457,0,0
-21,-433,0,0,0,0,0,0,0,0,0,-1,1203,1457,0,0
-14,-433,0,0,0,0,0,0,0,0,0,-1,1210,1457,0,0
-7,-433,0,0,0,0,0,0,0,0,0,-1,1217,1457,0,0
0,-433,0,0,0,0,0,0,0,0,0,-1,1224,1457,0,0
7,-433,0,0,0,0,0,0,0,0,0,-1,1231,1457,0,0
14,-433,0,0,0,0,0,0,0,0,0,-1,1238,1457,0,0
21,-433,0,0,0,0,0,0,0,0,0,-1,1245,1457,0,0
28,-433,0,0,0,0,0,0,0,0,0,-1,1252,1457,0,0
35,-433,0,0,0,0,0,0,0,0,0,-1,1259,1457,0,0
42,-433,0,0,0,0,0,0,0,0,0,-1,1266,1457,0,0
49,-433,0,0,0,0,0,0,0,0,0,-1,1273,1457,0,0
56,-433,0,0,0,0,0,0,0,0,0,-1,1280,1457,0,0
63,-433,0,0,0,0,0,0,0,0,0,-1,1287,1457,0,0
70,-433,0,0,0,0,0,0,0,0,0,-1,1294,1457,0,0
77,-433,0,0,0,0,0,0,0,0,0,-1,1301,1457,0,0
84,-433,0,0,0,0,0,0,0,0,0,-1,1308,1457,0,0
91,-433,0,0,0,0,0,0,0,0,0,-1,1315,1457,0,0
98,-433,0,0,0,0,0,0,0,0,0,-1,1322,1457,0,0
105,-433,0,0,0,0,0,0,0,0,0,-1,1329,1457,0,0
112,-433,0,0,0,0,0,0,0,0,0,-1,1336,1457,0,0
119,-433,0,0,0,0,0,0,0,0,0,-1,1343,1457,0,0
126,-433,0,0,0,0,0,0,0,0,0,-1,1350,1457,0,0
133,-433,0,0,0,0,0,0,0,0,0,-1,1357,1457,0,0
140,-433,0,0,0,0,0,0,0,0,0,-1,1364,1457,0,0
147,-433,0,0,0,0,0,0,0,0,0,-1,1371,1457,0,0
154,-433,0,0,0,0,0,0,0,0,0,-1,1378,1457,0,0
161,-433,0,0,0,0,0,0,0,0,0,-1,1385,1457,0,0
168,-433,0,0,0,0,0,0,0,0,0,-1,1392,1457,0,0
175,-433,0,0,0,0,0,0,0,0,0,-1,1399,1457,0,0
182,-433,0,0,0,0,0,0,0,0,0,-1,1406,1457,0,0
189,-433,0,0,0,0,0,0,0,0,0,-1,1413,1457,0,0
196,-433,0,0,0,0,0,0,0,0,0,-1,1420,1457,0,0
203,-433,0,0,0,0,0,0,0,0,0,-1,1427,1457,0,0
210,-433,0,0,0,0,0,0,0,0,0,-1,1434,1457,0,0
217,-433,0,0,0,0,0,0,0,0,0,-1,1441,1457,0,0
224,-433,0,0,0,0,0,0,0,0,0,-1,1448,1457,0,0
231,-433,0,0,0,0,0,0,0,0,0,-1,1455,1457,0,0
238,-433,0,0,0,0,0,0,0,0,0,-1,1462,1457,0,0
245,-433,0,0,0,0,0,0,0,0,0,-1,1469,1457,0,0
252,-433,0,0,0,0,0,0,0,0,0,-1,1476,1457,0,0
259,-433,0,0,0,0,0,0,0,0,0,-1,1483,1457,0,0
266,-433,0,0,0,0,0,0,0,0,0,-1,1490,1457,0,0
273,-433,0,0,0,0,0,0,0,0,0,-1,1497,1457,0,0
280,-433,0,0,0,0,0,0,0,0,0,-1,1504,1457,0,0
287,-433,0,0,0,0,0,0,0,0,0,-1,1511,1457,0,0
294,-433,0,0,0,0,0,0,0,0,0,-1,1518,1457,0,0
301,-433,0,0,0,0,0,0,0,0,0,-1,1525,1457,0,0
308,-433,0,0,0,0,0,0,0,0,0,-1,1532,1457,0,0
315,-433,0,0,0,0,0,0,0,0,0,-1,1539,1457,0,0
322,-433,0,0,0,0,0,0,0,0,0,-1,1546,1457,0,0
329,-433,0,0,0,0,0,0,0,0,0,-1,1553,1457,0,0
336,-433,0,0,0,0,0,0,0,0,0,-1,1560,1457,0,0
343,-433,0,0,0,0,0,0,0,0,0,-1,1567,1457,0,0
350,-433,0,0,0,0,0,0,0,0,0,-1,1574,1457,0,0
357,-433,0,0,0,0,0,0,0,0,0,-1,1581,1457,0,0
364,-433,0,0,0,0,0,0,0,0,0,-1,1588,1457,0,0
371,-433,0,0,0,0,0,0,0,0,0,-1,1595,1457,0,0
378,-433,0,0,0,0,0,0,0,0,0,-1,1602,1457,0,0
385,-433,0,0,0,0,0,0,0,0,0,-1,1609,1457,0,0
392,-433,0,0,0,0,0,0,0,0,0,-1,1616,1457,0,0
399,-433,0,0,0,0,0,0,0,0,0,-1,1623,1457,0,0
406,-433,0,0,0,0,0,0,0,0,0,-1,1630,1457,0,0
413,-433,0,0,0,0,0,0,0,0,0,-1,1637,1457,0,0
420,-433,0,0,0,0,0,0,0,0,0,-1,1644,1457,0,0
427,-433,0,0,0,0,0,0,0,0,0,-1,1651,1457,0,0
434,-433,0,0,0,0,0,0,0,0,0,-1,1658,1457,0,0
441,-433,0,0,0,0,0,0,0,0,0,-1,1665,1457,0,0
448,-433,0,0,0,0,0,0,0,0,0,-1,1672,1457,0,0
455,-433,0,0,0,0,0,0,0,0,0,-1,1679,1457,0,0
462,-433,0,0,0,0,0,0,0,0,0,-1,1686,1457,0,0
469,-433,0,0,0,0,0,0,0,0,0,-1,1693,1457,0,0
476,-433,0,0,0,0,0,0,0,0,0,-1,1700,1457,0,0
483,-433,0,0,0,0,0,0,0,0,0,-1,1707,1457,0,0
490,-433,0,0,0,0,0,0,0,0,0,-1,1714,1457,0,0
497,-433,0,0,0,0,0,0,0,0,0,-1,1721,1457,0,0
504,-433,19.9058,3.03662,0,0,0,0,0,0,0,-1,1728,1457,19.9058,-3.03656
511,-433,19.0145,3.07837,0,0,0,0,0,0,0,-1,1735,1457,19.0146,-3.07834
518,-433,18.071,3.06433,0,0,0,0,0,0,0,-1,1742,1457,18.071,-3.06432
525,-433,17.2048,3.37085,0,0,0,0,0,0,0,-1,1749,1457,17.2049,-3.37083
532,-433,16.5637,3.36646,0,0,0,0,0,0,0,-1,1756,1457,16.5637,-3.36643
539,-433,15.9193,3.30396,0,0,0,0,0,0,0,-1,1763,1457,15.9193,-3.30394
546,-433,23.1903,4.81775,0,0,0,0,0,0,0,-1,1770,1457,23.1903,-4.81775
553,-433,13.9674,11.5781,0,0,0,0,0,0,0,-1,1777,1457,13.9674,-11.5781
560,-433,13.9855,11.7341,0,0,0,0,0,0,0,-1,1784,1457,13.9855,-11.7341
567,-433,13.9264,11.3364,0,0,0,0,0,0,0,-1,1791,1457,13.9263,-11.3364
574,-433,15.5305,12.3673,0,0,0,0,0,0,0,-1,1798,1457,15.5305,-12.3673
581,-433,16.6405,12.1898,0,0,0,0,0,0,0,-1,1805,1457,16.6405,-12.1898
588,-433,18.4529,13.5883,0,0,0,0,0,0,0,-1,1812,1457,18.4529,-13.5882
595,-433,18.7621,13.1676,-0.00151561,0.00333071,-0.000258158,0.00334442,-0.00152932,-1.51773,0.00287817,0.0308804,1819,1457,18.762,-13.1676
602,-433,18.7816,12.7186,-0.000828082,0.00280036,-0.000416862,0.00284764,-0.000875358,-1.45787,0.00224776,0.0208626,1826,1457,18.7816,-12.7187
609,-433,18.7863,12.3046,-0.000195753,0.00212956,-0.000493596,0.00223,-0.00029619,-1.37006,0.00159459,0.0162553,1833,1457,18.7862,-12.3045
616,-433,18.8077,11.9656,0.000285019,0.00141733,-0.000403027,0.00154613,0.000156218,-1.26147,0.000982825,0.0140988,1840,1457,18.8078,-11.9656
623,-433,18.7786,11.5962,0.000694763,0.000764562,-0.000259673,0.00099167,0.000467655,-0.852196,0.000572849,0.0105776,1847,1457,18.7786,-11.5962
630,-433,18.7673,11.2212,0.00116551,0.00018345,-0.00017728,0.00119654,0.000152428,-0.173236,0.000752048,0.0126048,1854,1457,18.7673,-11.2212
637,-433,18.7596,10.8567,0.00154097,-0.000325718,9.02524e-06,0.00154102,-0.000325762,0.00483473,0.0011514,0.0131543,1861,1457,18.7597,-10.8567
644,-433,18.7527,10.5004,0.00195501,-0.000677306,0.000146196,0.00196311,-0.000685401,0.055312,0.00158732,0.0138288,1868,1457,18.7527,-10.5004
651,-433,18.7367,10.1108,0.0024308,-0.000874131,0.000205983,0.00244359,-0.000886919,0.0620063,0.00199165,0.0112923,1875,1457,18.7368,-10.1108
658,-433,18.7034,9.70935,0.00288647,-0.000852094,0.000275947,0.00290673,-0.000872353,0.0732816,0.00228481,0.0199972,1882,1457,18.7033,-9.7093
665,-433,18.8901,9.22473,0,0,0,0,0,0,0,-1,1889,1457,18.8901,-9.2247
672,-433,18.115,8.7207,0,0,0,0,0,0,0,-1,1896,1457,18.115,-8.72074
679,-433,17.2969,9.6355,0,0,0,0,0,0,0,-1,1903,1457,17.2968,-9.63548
686,-433,13.6356,8.61694,0,0,0,0,0,0,0,-1,1910,1457,13.6356,-8.61694
693,-433,13.4081,8.39624,0,0,0,0,0,0,0,-1,1917,1457,13.4081,-8.39624
700,-433,7.16809,-1.5166,0,0,0,0,0,0,0,-1,1924,1457,7.16806,1.51656
707,-433,8.68359,-2.82202,0,0,0,0,0,0,0,-1,1931,1457,8.68359,2.82197
714,-433,0,0,0,0,0,0,0,0,0,-1,1938,1457,0,0
721,-433,0,0,0,0,0,0,0,0,0,-1,1945,1457,0,0
728,-433,0,0,0,0,0,0,0,0,0,-1,1952,1457,0,0
735,-433,0,0,0,0,0,0,0,0,0,-1,1959,1457,0,0
742,-433,0,0,0,0,0,0,0,0,0,-1,1966,1457,0,0
749,-433,0,0,0,0,0,0,0,0,0,-1,1973,1457,0,0
756,-433,0,0,0,0,0,0,0,0,0,-1,1980,1457,0,0
763,-433,0,0,0,0,0,0,0,0,0,-1,1987,1457,0,0
770,-433,0,0,0,0,0,0,0,0,0,-1,1994,1457,0,0
777,-433,0,0,0,0,0,0,0,0,0,-1,2001,1457,0,0
784,-433,0,0,0,0,0,0,0,0,0,-1,2008,1457,0,0
791,-433,0,0,0,0,0,0,0,0,0,-1,2015,1457,0,0
798,-433,0,0,0,0,0,0,0,0,0,-1,2022,1457,0,0
805,-433,0,0,0,0,0,0,0,0,0,-1,2029,1457,0,0
812,-433,0,0,0,0,0,0,0,0,0,-1,2036,1457,0,0
-700,-440,0,0,0,0,0,0,0,0,0,-1,524,1464,0,0
-693,-440,0,0,0,0,0,0,0,0,0,-1,531,1464,0,0
-686,-440,0,0,0,0,0,0,0,0,0,-1,538,1464,0,0
-679,-440,0,0,0,0,0,0,0,0,0,-1,545,1464,0,0
-672,-440,0,0,0,0,0,0,0,0,0,-1,552,1464,0,0
-665,-440,0,0,0,0,0,0,0,0,0,-1,559,1464,0,0
-658,-440,0,0,0,0,0,0,0,0,0,-1,566,1464,0,0
-651,-440,0,0,0,0,0,0,0,0,0,-1,573,1464,0,0
-644,-440,0,0,0,0,0,0,0,0,0,-1,580,1464,0,0
-637,-440,0,0,0,0,0,0,0,0,0,-1,587,1464,0,0
-630,-440,0,0,0,0,0,0,0,0,0,-1,594,1464,0,0
-623,-440,0,0,0,0,0,0,0,0,0,-1,601,1464,0,0
-616,-440,0,0,0,0,0,0,0,0,0,-1,608,1464,0,0
-609,-440,0,0,0,0,0,0,0,0,0,-1,615,1464,0,0
-602,-440,0,0,0,0,0,0,0,0,0,-1,622,1464,0,0
-595,-440,0,0,0,0,0,0,0,0,0,-1,629,1464,0,0
-588,-440,0,0,0,0,0,0,0,0,0,-1,636,1464,0,0
-581,-440,-8.97278,0.254517,0,0,0,0,0,0,0,-1,643,1464,-8.97276,-0.254526
-574,-440,-7.00818,-0.918579,0,0,0,0,0,0,0,-1,650,1464,-7.00817,0.918538
-567,-440,-6.12152,-0.0766602,0,0,0,0,0,0,0,-1,657,1464,-6.12151,0.0767097
-560,-440,-5.46747,0.82251,0,0,0,0,0,0,0,-1,664,1464,-5.46748,-0.822551
-553,-440,-6.84729,0.0831299,0,0,0,0,0,0,0,-1,671,1464,-6.84732,-0.083136
-546,-440,-5.63446,-0.153198,0,0,0,0,0,0,0,-1,678,1464,-5.63447,0.153147
-539,-440,-5.948,6.39624,0,0,0,0,0,0,0,-1,685,1464,-5.94798,-6.39628
-532,-440,-6.10767,7.21252,-0.0102389,0.0124401,0.00537953,0.0136514,-0.0114502,1.34931,0.014511,0.0484053,692,1464,-6.10769,-7.21251
-525,-440,-6.36469,7.85437,-0.00709016,0.00976245,0.00428361,0.0107888,-0.00811647,1.33564,0.0109512,0.0337986,699,1464,-6.36467,-7.85443
-518,-440,-6.38391,8.18774,-0.00463955,0.00761572,0.00344338,0.00851694,-0.00554077,1.31481,0.00817663,0.0185976,706,1464,-6.38389,-8.18778
-511,-440,-6.34576,8.63403,-0.00280909,0.00584329,0.00276396,0.00665085,-0.00361665,1.28653,0.0060136,0.0156565,713,1464,-6.34575,-8.63406
-504,-440,-6.31079,9.0293,-0.0012533,0.00447663,0.00234291,0.00531264,-0.00208932,1.22805,0.00440652,0.0181137,720,1464,-6.31081,-9.02935
-497,-440,-6.32306,9.4231,0.000150786,0.00348563,0.00217518,0.00455896,-0.00092254,1.11241,0.00338894,0.0211588,727,1464,-6.32309,-9.42305
-490,-440,-6.36389,9.82007,0.0013039,0.00282646,0.00210803,0.00430646,-0.000176096,0.958678,0.00293143,0.0203383,734,1464,-6.36389,-9.82008
-483,-440,-6.40491,10.248,0.00256828,0.00225305,0.0014847,0.00390371,0.000917626,0.732517,0.00235691,0.0185231,741,1464,-6.40492,-10.248
-476,-440,-6.39941,10.682,0.00422244,0.000259997,-7.37971e-05,0.00422382,0.000258623,-0.0186155,0.00273375,0.0136909,748,1464,-6.39942,-10.682
-469,-440,-6.41125,11.114,0.00576269,-0.0012144,-0.00147249,0.00606072,-0.00151243,-0.199703,0.00462775,0.012547,755,1464,-6.41126,-11.114
-462,-440,-6.44891,11.5289,0.00760194,-0.00334706,-0.00380507,0.00879443,-0.00453954,-0.303699,0.00782793,0.0145719,762,1464,-6.44891,-11.5289
-455,-440,-6.32861,12.0438,0.00997343,-0.00641496,-0.0073,0.0127535,-0.00919504,-0.363875,0.0127274,0.0269879,769,1464,-6.32864,-12.0439
-448,-440,-5.8783,12.6602,0,0,0,0,0,0,0,-1,776,1464,-5.87828,-12.6602
-441,-440,-6.75269,12.3129,0,0,0,0,0,0,0,-1,783,1464,-6.75267,-12.3129
-434,-440,-7.76862,12.2057,0,0,0,0,0,0,0,-1,790,1464,-7.76861,-12.2057
-427,-440,-7.31732,10.1489,0,0,0,0,0,0,0,-1,797,1464,-7.31731,-10.149
-420,-440,-6.86603,8.09216,0,0,0,0,0,0,0,-1,804,1464,-6.86602,-8.09222
-413,-440,-3.46796,5.72278,0,0,0,0,0,0,0,-1,811,1464,-3.46797,-5.72276
-406,-440,-5.2887,5.20264,0,0,0,0,0,0,0,-1,818,1464,-5.2887,-5.20261
-399,-440,-12.7318,3.94421,0,0,0,0,0,0,0,-1,825,1464,-12.7318,-3.94419
-392,-440,-13.5565,2.51855,0,0,0,0,0,0,0,-1,832,1464,-13.5565,-2.51861
-385,-440,-14.6741,1.39795,0,0,0,0,0,0,0,-1,839,1464,-14.6741,-1.39801
-378,-440,-15.8063,0.293457,0,0,0,0,0,0,0,-1,846,1464,-15.8063,-0.293412
-371,-440,0,0,0,0,0,0,0,0,0,-1,853,1464,0,0
-364,-440,0,0,0,0,0,0,0,0,0,-1,860,1464,0,0
-357,-440,0,0,0,0,0,0,0,0,0,-1,867,1464,0,0
-350,-440,0,0,0,0,0,0,0,0,0,-1,874,1464,0,0
-343,-440,0,0,0,0,0,0,0,0,0,-1,881,1464,0,0
-336,-440,0,0,0,0,0,0,0,0,0,-1,888,1464,0,0
-329,-440,0,0,0,0,0,0,0,0,0,-1,895,1464,0,0
-322,-440,0,0,0,0,0,0,0,0,0,-1,902,1464,0,0
-315,-440,0,0,0,0,0,0,0,0,0,-1,909,1464,0,0
-308,-440,0,0,0,0,0,0,0,0,0,-1,916,1464,0,0
-301,-440,0,0,0,0,0,0,0,0,0,-1,923,1464,0,0
-294,-440,0,0,0,0,0,0,0,0,0,-1,930,1464,0,0
-287,-440,0,0,0,0,0,0,0,0,0,-1,937,1464,0,0
-280,-440,0,0,0,0,0,0,0,0,0,-1,944,1464,0,0
-273,-440,0,0,0,0,0,0,0,0,0,-1,951,1464,0,0
-266,-440,0,0,0,0,0,0,0,0,0,-1,958,1464,0,0
-259,-440,0,0,0,0,0,0,0,0,0,-1,965,1464,0,0
-252,-440,0,0,0,0,0,0,0,0,0,-1,972,1464,0,0
-245,-440,0,0,0,0,0,0,0,0,0,-1,979,1464,0,0
-238,-440,0,0,0,0,0,0,0,0,0,-1,986,1464,0,0
-231,-440,0,0,0,0,0,0,0,0,0,-1,993,1464,0,0
-224,-440,0,0,0,0,0,0,0,0,0,-1,1000,1464,0,0
-217,-440,0,0,0,0,0,0,0,0,0,-1,1007,1464,0,0
-210,-440,0,0,0,0,0,0,0,0,0,-1,1014,1464,0,0
-203,-440,0,0,0,0,0,0,0,0,0,-1,1021,1464,0,0
-196,-440,0,0,0,0,0,0,0,0,0,-1,1028,1464,0,0
-189,-440,0,0,0,0,0,0,0,0,0,-1,1035,1464,0,0
-182,-440,0,0,0,0,0,0,0,0,0,-1,1042,1464,0,0
-175,-440,0,0,0,0,0,0,0,0,0,-1,1049,1464,0,0
-168,-440,0,0,0,0,0,0,0,0,0,-1,1056,1464,0,0
-161,-440,0,0,0,0,0,0,0,0,0,-1,1063,1464,0,0
-154,-440,0,0,0,0,0,0,0,0,0,-1,1070,1464,0,0
-147,-440,0,0,0,0,0,0,0,0,0,-1,1077,1464,0,0
-140,-440,0,0,0,0,0,0,0,0,0,-1,1084,1464,0,0
-133,-440,0,0,0,0,0,0,0,0,0,-1,1091,1464,0,0
-126,-440,0,0,0,0,0,0,0,0,0,-1,1098,1464,0,0
-119,-440,0,0,0,0,0,0,0,0,0,-1,1105,1464,0,0
-112,-440,0,0,0,0,0,0,0,0,0,-1,1112,1464,0,0
-105,-440,0,0,0,0,0,0,0,0,0,-1,1119,1464,0,0
-98,-440,0,0,0,0,0,0,0,0,0,-1,1126,1464,0,0
-91,-440,0,0,0,0,0,0,0,0,0,-1,1133,1464,0,0
-84,-440,0,0,0,0,0,0,0,0,0,-1,1140,1464,0,0
-77,-440,0,0,0,0,0,0,0,0,0,-1,1147,1464,0,0
-70,-440,0,0,0,0,0,0,0,0,0,-1,1154,1464,0,0
-63,-440,0,0,0,0,0,0,0,0,0,-1,1161,1464,0,0
-56,-440,0,0,0,0,0,0,0,0,0,-1,1168,1464,0,0
-49,-440,0,0,0,0,0,0,0,0,0,-1,1175,1464,0,0
-42,-440,0,0,0,0,0,0,0,0,0,-1,1182,1464,0,0
-35,-440,0,0,0,0,0,0,0,0,0,-1,1189,1464,0,0
-28,-440,0,0,0,0,0,0,0,0,0,-1,1196,1464,0,0
-21,-440,0,0,0,0,0,0,0,0,0,-1,1203,1464,0,0
-14,-440,0,0,0,0,0,0,0,0,0,-1,1210,1464,0,0
-7,-440,0,0,0,0,0,0,0,0,0,-1,1217,1464,0,0
0,-440,0,0,0,0,0,0,0,0,0,-1,1224,1464,0,0
7,-440,0,0,0,0,0,0,0,0,0,-1,1231,1464,0,0
14,-440,0,0,0,0,0,0,0,0,0,-1,1238,1464,0,0
21,-440,0,0,0,0,0,0,0,0,0,-1,1245,1464,0,0
28,-440,0,0,0,0,0,0,0,0,0,-1,1252,1464,0,0
35,-440,0,0,0,0,0,0,0,0,0,-1,1259,1464,0,0
42,-440,0,0,0,0,0,0,0,0,0,-1,1266,1464,0,0
49,-440,0,0,0,0,0,0,0,0,0,-1,1273,1464,0,0
56,-440,0,0,0,0,0,0,0,0,0,-1,1280,1464,0,0
63,-440,0,0,0,0,0,0,0,0,0,-1,1287,1464,0,0
70,-440,0,0,0,0,0,0,0,0,0,-1,1294,1464,0,0
77,-440,0,0,0,0,0,0,0,0,0,-1,1301,1464,0,0
84,-440,0,0,0,0,0,0,0,0,0,-1,1308,1464,0,0
91,-440,0,0,0,0,0,0,0,0,0,-1,1315,1464,0,0
98,-440,0,0,0,0,0,0,0,0,0,-1,1322,1464,0,0
105,-440,0,0,0,0,0,0,0,0,0,-1,1329,1464,0,0
112,-440,0,0,0,0,0,0,0,0,0,-1,1336,1464,0,0
119,-440,0,0,0,0,0,0,0,0,0,-1,1343,1464,0,0
126,-440,0,0,0,0,0,0,0,0,0,-1,1350,1464,0,0
133,-440,0,0,0,0,0,0,0,0,0,-1,1357,1464,0,0
140,-440,0,0,0,0,0,0,0,0,0,-1,1364,1464,0,0
147,-440,0,0,0,0,0,0,0,0,0,-1,1371,1464,0,0
154,-440,0,0,0,0,0,0,0,0,0,-1,1378,1464,0,0
161,-440,0,0,0,0,0,0,0,0,0,-1,1385,1464,0,0
168,-440,0,0,0,0,0,0,0,0,0,-1,1392,1464,0,0
175,-440,0,0,0,0,0,0,0,0,0,-1,1399,1464,0,0
182,-440,0,0,0,0,0,0,0,0,0,-1,1406,1464,0,0
189,-440,0,0,0,0,0,0,0,0,0,-1,1413,1464,0,0
196,-440,0,0,0,0,0,0,0,0,0,-1,1420,1464,0,0
203,-440,0,0,0,0,0,0,0,0,0,-1,1427,1464,0,0
210,-440,0,0,0,0,0,0,0,0,0,-1,1434,1464,0,0
217,-440,0,0,0,0,0,0,0,0,0,-1,1441,1464,0,0
224,-440,0,0,0,0,0,0,0,0,0,-1,1448,1464,0,0
231,-440,0,0,0,0,0,0,0,0,0,-1,1455,1464,0,0
238,-440,0,0,0,0,0,0,0,0,0,-1,1462,1464,0,0
245,-440,0,0,0,0,0,0,0,0,0,-1,1469,1464,0,0
252,-440,0,0,0,0,0,0,0,0,0,-1,1476,1464,0,0
259,-440,0,0,0,0,0,0,0,0,0,-1,1483,1464,0,0
266,-440,0,0,0,0,0,0,0,0,0,-1,1490,1464,0,0
273,-440,0,0,0,0,0,0,0,0,0,-1,1497,1464,0,0
280,-440,0,0,0,0,0,0,0,0,0,-1,1504,1464,0,0
287,-440,0,0,0,0,0,0,0,0,0,-1,1511,1464,0,0
294,-440,0,0,0,0,0,0,0,0,0,-1,1518,1464,0,0
301,-440,0,0,0,0,0,0,0,0,0,-1,1525,1464,0,0
308,-440,0,0,0,0,0,0,0,0,0,-1,1532,1464,0,0
315,-440,0,0,0,0,0,0,0,0,0,-1,1539,1464,0,0
322,-440,0,0,0,0,0,0,0,0,0,-1,1546,1464,0,0
329,-440,0,0,0,0,0,0,0,0,0,-1,1553,1464,0,0
336,-440,0,0,0,0,0,0,0,0,0,-1,1560,1464,0,0
343,-440,0,0,0,0,0,0,0,0,0,-1,1567,1464,0,0
350,-440,0,0,0,0,0,0,0,0,0,-1,1574,1464,0,0
357,-440,0,0,0,0,0,0,0,0,0,-1,1581,1464,0,0
364,-440,0,0,0,0,0,0,0,0,0,-1,1588,1464,0,0
371,-440,0,0,0,0,0,0,0,0,0,-1,1595,1464,0,0
378,-440,0,0,0,0,0,0,0,0,0,-1,1602,1464,0,0
385,-440,0,0,0,0,0,0,0,0,0,-1,1609,1464,0,0
392,-440,0,0,0,0,0,0,0,0,0,-1,1616,1464,0,0
399,-440,0,0,0,0,0,0,0,0,0,-1,1623,1464,0,0
406,-440,0,0,0,0,0,0,0,0,0,-1,1630,1464,0,0
413,-440,0,0,0,0,0,0,0,0,0,-1,1637,1464,0,0
420,-440,0,0,0,0,0,0,0,0,0,-1,1644,1464,0,0
427,-440,0,0,0,0,0,0,0,0,0,-1,1651,1464,0,0
434,-440,0,0,0,0,0,0,0,0,0,-1,1658,1464,0,0
441,-440,0,0,0,0,0,0,0,0,0,-1,1665,1464,0,0
448,-440,0,0,0,0,0,0,0,0,0,-1,1672,1464,0,0
455,-440,0,0,0,0,0,0,0,0,0,-1,1679,1464,0,0
462,-440,0,0,0,0,0,0,0,0,0,-1,1686,1464,0,0
469,-440,0,0,0,0,0,0,0,0,0,-1,1693,1464,0,0
476,-440,0,0,0,0,0,0,0,0,0,-1,1700,1464,0,0
483,-440,0,0,0,0,0,0,0,0,0,-1,1707,1464,0,0
490,-440,0,0,0,0,0,0,0,0,0,-1,1714,1464,0,0
497,-440,16.965,-0.528442,0,0,0,0,0,0,0,-1,1721,1464,16.965,0.528492
504,-440,15.8052,0.670166,0,0,0,0,0,0,0,-1,1728,1464,15.8052,-0.670145
511,-440,17.5754,2.77832,0,0,0,0,0,0,0,-1,1735,1464,17.5754,-2.77826
518,-440,16.9017,3.07861,0,0,0,0,0,0,0,-1,1742,1464,16.9018,-3.07859
525,-440,18.4495,12.0867,0,0,0,0,0,0,0,-1,1749,1464,18.4495,-12.0867
532,-440,15.4319,3.64392,0,0,0,0,0,0,0,-1,1756,1464,15.4318,-3.64391
539,-440,14.8214,3.41321,0,0,0,0,0,0,0,-1,1763,1464,14.8214,-3.4132
546,-440,14.8651,10.7683,0,0,0,0,0,0,0,-1,1770,1464,14.8651,-10.7683
553,-440,15.1213,11.4121,0,0,0,0,0,0,0,-1,1777,1464,15.1213,-11.4121
560,-440,17.4325,12.5394,0,0,0,0,0,0,0,-1,1784,1464,17.4325,-12.5394
567,-440,16.9025,12.4249,0,0,0,0,0,0,0,-1,1791,1464,16.9025,-12.425
574,-440,18.7064,14.3203,0,0,0,0,0,0,0,-1,1798,1464,18.7064,-14.3204
581,-440,18.3251,14.2759,0,0,0,0,0,0,0,-1,1805,1464,18.3251,-14.2759
588,-440,18.3302,13.5555,-0.00155563,0.00206711,0.00038245,0.00210705,-0.00159557,1.46676,0.0021445,0.0449968,1812,1464,18.3302,-13.5556
595,-440,18.3843,13.1489,-0.000874037,0.00238119,-0.00011272,0.00238509,-0.000877935,-1.53622,0.00194975,0.0198651,1819,1464,18.3843,-13.1489
602,-440,18.4238,12.7036,-0.000297402,0.00204085,-0.000311339,0.00208159,-0.000338146,-1.44067,0.00151309,0.0182189,1826,1464,18.4238,-12.7036
609,-440,18.4216,12.3295,0.000276927,0.00150882,-0.000389192,0.00162148,0.000164271,-1.28904,0.0010306,0.0168353,1833,1464,18.4216,-12.3295
616,-440,18.4192,12.0142,0.000731856,0.000923411,-0.00032229,0.00116385,0.000491413,-0.929831,0.000674656,0.018008,1840,1464,18.4192,-12.0142
623,-440,18.4194,11.6206,0.00113259,0.000352495,-0.000191456,0.00117705,0.00030804,-0.228151,0.000704825,0.0131811,1847,1464,18.4195,-11.6206
630,-440,18.3856,11.2142,0.00160074,-0.000187929,-9.57095e-05,0.00160584,-0.000193036,-0.053306,0.00114037,0.010695,1854,1464,18.3856,-11.2142
637,-440,18.3743,10.8713,0.00200101,-0.000654297,8.8779e-05,0.00200397,-0.000657262,0.0333849,0.0016007,0.0147557,1861,1464,18.3743,-10.8713
644,-440,18.382,10.5215,0.00247506,-0.000978666,0.000209301,0.0024877,-0.000991303,0.0603074,0.00206961,0.0135803,1868,1464,18.3819,-10.5215
651,-440,18.3948,10.1112,0.00303979,-0.00116047,0.000257262,0.00305549,-0.00117617,0.0609455,0.00252218,0.0155404,1875,1464,18.3947,-10.1111
658,-440,18.2617,9.80591,0.00361928,-0.00109878,0.000326373,0.00364175,-0.00112125,0.0687388,0.0028754,0.0344384,1882,1464,18.2617,-9.80591
665,-440,18.41,9.66223,0,0,0,0,0,0,0,-1,1889,1464,18.41,-9.66222
672,-440,18.8252,9.44751,0,0,0,0,0,0,0,-1,1896,1464,18.8252,-9.44756
679,-440,16.9508,10.2336,0,0,0,0,0,0,0,-1,1903,1464,16.9508,-10.2337
686,-440,15.2556,8.44177,0,0,0,0,0,0,0,-1,1910,1464,15.2556,-8.44177
693,-440,9.88635,2.89795,0,0,0,0,0,0,0,-1,1917,1464,9.88638,-2.89798
700,-440,7.07825,-2.62061,0,0,0,0,0,0,0,-1,1924,1464,7.07829,2.62057
707,-440,0,0,0,0,0,0,0,0,0,-1,1931,1464,0,0
714,-440,0,0,0,0,0,0,0,0,0,-1,1938,1464,0,0
721,-440,0,0,0,0,0,0,0,0,0,-1,1945,1464,0,0
728,-440,0,0,0,0,0,0,0,0,0,-1,1952,1464,0,0
735,-440,0,0,0,0,0,0,0,0,0,-1,1959,1464,0,0
742,-440,0,0,0,0,0,0,0,0,0,-1,1966,1464,0,0
749,-440,0,0,0,0,0,0,0,0,0,-1,1973,1464,0,0
756,-440,0,0,0,0,0,0,0,0,0,-1,1980,1464,0,0
763,-440,0,0,0,0,0,0,0,0,0,-1,1987,1464,0,0
770,-440,0,0,0,0,0,0,0,0,0,-1,1994,1464,0,0
777,-440,0,0,0,0,0,0,0,0,0,-1,2001,1464,0,0
784,-440,0,0,0,0,0,0,0,0,0,-1,2008,1464,0,0
791,-440,0,0,0,0,0,0,0,0,0,-1,2015,1464,0,0
798,-440,0,0,0,0,0,0,0,0,0,-1,2022,1464,0,0
805,-440,0,0,0,0,0,0,0,0,0,-1,2029,1464,0,0
812,-440,0,0,0,0,0,0,0,0,0,-1,2036,1464,0,0
-700,-447,0,0,0,0,0,0,0,0,0,-1,524,1471,0,0
-693,-447,0,0,0,0,0,0,0,0,0,-1,531,1471,0,0
-686,-447,0,0,0,0,0,0,0,0,0,-1,538,1471,0,0
-679,-447,0,0,0,0,0,0,0,0,0,-1,545,1471,0,0
-672,-447,0,0,0,0,0,0,0,0,0,-1,552,1471,0,0
-665,-447,0,0,0,0,0,0,0,0,0,-1,559,1471,0,0
-658,-447,0,0,0,0,0,0,0,0,0,-1,566,1471,0,0
-651,-447,0,0,0,0,0,0,0,0,0,-1,573,1471,0,0
-644,-447,0,0,0,0,0,0,0,0,0,-1,580,1471,0,0
-637,-447,0,0,0,0,0,0,0,0,0,-1,587,1471,0,0
-630,-447,0,0,0,0,0,0,0,0,0,-1,594,1471,0,0
-623,-447,0,0,0,0,0,0,0,0,0,-1,601,1471,0,0
-616,-447,0,0,0,0,0,0,0,0,0,-1,608,1471,0,0
-609,-447,0,0,0,0,0,0,0,0,0,-1,615,1471,0,0
-602,-447,0,0,0,0,0,0,0,0,0,-1,622,1471,0,0
-595,-447,0,0,0,0,0,0,0,0,0,-1,629,1471,0,0
-588,-447,0,0,0,0,0,0,0,0,0,-1,636,1471,0,0
-581,-447,-7.06482,-1.50476,0,0,0,0,0,0,0,-1,643,1471,-7.0648,1.50474
-574,-447,-6.88092,-0.00585938,0,0,0,0,0,0,0,-1,650,1471,-6.88095,0.00589852
-567,-447,-6.8205,-1.32178,0,0,0,0,0,0,0,-1,657,1471,-6.82047,1.32172
-560,-447,-8.85748,2.80774,0,0,0,0,0,0,0,-1,664,1471,-8.85748,-2.80775
-553,-447,-7.60486,3.26794,0,0,0,0,0,0,0,-1,671,1471,-7.60487,-3.26799
-546,-447,-3.94501,1.8656,0,0,0,0,0,0,0,-1,678,1471,-3.945,-1.86554
-539,-447,-5.35492,4.50024,0,0,0,0,0,0,0,-1,685,1471,-5.35492,-4.50018
-532,-447,-5.85193,7.15332,0,0,0,0,0,0,0,-1,692,1471,-5.85193,-7.15338
-525,-447,-5.76276,7.97241,0,0,0,0,0,0,0,-1,699,1471,-5.76277,-7.97241
-518,-447,-5.99335,8.08826,0,0,0,0,0,0,0,-1,706,1471,-5.99338,-8.08823
-511,-447,-5.94476,8.59692,-0.00282966,0.00751374,0.0038286,0.00877669,-0.0040926,1.25216,0.00759237,0.0183749,713,1471,-5.94474,-8.59696
-504,-447,-5.88928,9.07019,-0.00147549,0.00561617,0.00301311,0.00672348,-0.00258281,1.21862,0.00554744,0.0197991,720,1471,-5.88927,-9.07023
-497,-447,-5.9256,9.49243,-0.00025309,0.00421508,0.00252472,0.00535225,-0.00139026,1.1476,0.00411071,0.0244488,727,1471,-5.92559,-9.49239
-490,-447,-5.92816,9.86792,0.00075535,0.00323912,0.00221078,0.00453294,-0.000538475,1.0413,0.00321651,0.0232213,734,1471,-5.92814,-9.86791
-483,-447,-5.99567,10.248,0.00187492,0.00243877,0.00148542,0.00366879,0.000644903,0.87918,0.00226175,0.0206495,741,1471,-5.99568,-10.2481
-476,-447,-5.98877,10.6666,0.00335351,0.00049374,-2.75032e-06,0.00335351,0.000493737,-0.000961724,0.00209062,0.0145365,748,1471,-5.98879,-10.6666
-469,-447,-5.98694,11.12,0.00473035,-0.000926636,-0.00131237,0.00501998,-0.00121626,-0.21721,0.00381722,0.0134065,755,1471,-5.98694,-11.12
-462,-447,-6.00793,11.5504,0.00633093,-0.00290144,-0.00335993,0.00742424,-0.00399475,-0.31459,0.00669114,0.0131715,762,1471,-6.00791,-11.5504
-455,-447,-6.05029,11.9414,0.00836955,-0.00558202,-0.00630275,0.0107952,-0.00800764,-0.367378,0.0108955,0.0172625,769,1471,-6.05028,-11.9414
-448,-447,-5.89081,12.4517,0.0109708,-0.00962993,-0.0105641,0.015425,-0.0140841,-0.399018,0.017043,0.032152,776,1471,-5.89084,-12.4516
-441,-447,-6.01233,12.8831,0.0140304,-0.0156491,-0.0169324,0.0217056,-0.0233243,-0.425583,0.0260036,0.0415021,783,1471,-6.01232,-12.883
-434,-447,-6.45477,12.9788,0.0175484,-0.024339,-0.0257351,0.0297851,-0.0365756,-0.443843,0.0383802,0.0425112,790,1471,-6.45477,-12.9787
-427,-447,-6.18829,11.3601,0.0217512,-0.0367399,-0.0377538,0.0402618,-0.0552505,-0.455856,0.05537,0.0459089,797,1471,-6.1883,-11.3601
-420,-447,-6.21008,10.5012,0,0,0,0,0,0,0,-1,804,1471,-6.21007,-10.5012
-413,-447,-4.27393,6.59705,0,0,0,0,0,0,0,-1,811,1471,-4.27392,-6.59707
-406,-447,-1.04279,6.18591,0,0,0,0,0,0,0,-1,818,1471,-1.04276,-6.18586
-399,-447,0.0134888,0.687622,0,0,0,0,0,0,0,-1,825,1471,0.0134841,-0.68767
-392,-447,-14.0646,3.76147,0,0,0,0,0,0,0,-1,832,1471,-14.0646,-3.7615
-385,-447,-15.1695,2.61865,0,0,0,0,0,0,0,-1,839,1471,-15.1695,-2.61871
-378,-447,-15.9424,1.49316,0,0,0,0,0,0,0,-1,846,1471,-15.9424,-1.49313
-371,-447,-17.3655,0.73291,0,0,0,0,0,0,0,-1,853,1471,-17.3655,-0.732946
-364,-447,0,0,0,0,0,0,0,0,0,-1,860,1471,0,0
-357,-447,0,0,0,0,0,0,0,0,0,-1,867,1471,0,0
-350,-447,0,0,0,0,0,0,0,0,0,-1,874,1471,0,0
-343,-447,0,0,0,0,0,0,0,0,0,-1,881,1471,0,0
-336,-447,0,0,0,0,0,0,0,0,0,-1,888,1471,0,0
-329,-447,0,0,0,0,0,0,0,0,0,-1,895,1471,0,0
-322,-447,0,0,0,0,0,0,0,0,0,-1,902,1471,0,0
-315,-447,0,0,0,0,0,0,0,0,0,-1,909,1471,0,0
-308,-447,0,0,0,0,0,0,0,0,0,-1,916,1471,0,0
-301,-447,0,0,0,0,0,0,0,0,0,-1,923,1471,0,0
-294,-447,0,0,0,0,0,0,0,0,0,-1,930,1471,0,0
-287,-447,0,0,0,0,0,0,0,0,0,-1,937,1471,0,0
-280,-447,0,0,0,0,0,0,0,0,0,-1,944,1471,0,0
-273,-447,0,0,0,0,0,0,0,0,0,-1,951,1471,0,0
-266,-447,0,0,0,0,0,0,0,0,0,-1,958,1471,0,0
-259,-447,0,0,0,0,0,0,0,0,0,-1,965,1471,0,0
-252,-447,0,0,0,0,0,0,0,0,0,-1,972,1471,0,0
-245,-447,0,0,0,0,0,0,0,0,0,-1,979,1471,0,0
-238,-447,0,0,0,0,0,0,0,0,0,-1,986,1471,0,0
-231,-447,0,0,0,0,0,0,0,0,0,-1,993,1471,0,0
-224,-447,0,0,0,0,0,0,0,0,0,-1,1000,1471,0,0
-217,-447,0,0,0,0,0,0,0,0,0,-1,1007,1471,0,0
-210,-447,0,0,0,0,0,0,0,0,0,-1,1014,1471,0,0
-203,-447,0,0,0,0,0,0,0,0,0,-1,1021,1471,0,0
-196,-447,0,0,0,0,0,0,0,0,0,-1,1028,1471,0,0
-189,-447,0,0,0,0,0,0,0,0,0,-1,1035,1471,0,0
-182,-447,0,0,0,0,0,0,0,0,0,-1,1042,1471,0,0
-175,-447,0,0,0,0,0,0,0,0,0,-1,1049,1471,0,0
-168,-447,0,0,0,0,0,0,0,0,0,-1,1056,1471,0,0
-161,-447,0,0,0,0,0,0,0,0,0,-1,1063,1471,0,0
-154,-447,0,0,0,0,0,0,0,0,0,-1,1070,1471,0,0
-147,-447,0,0,0,0,0,0,0,0,0,-1,1077,1471,0,0
-140,-447,0,0,0,0,0,0,0,0,0,-1,1084,1471,0,0
-133,-447,0,0,0,0,0,0,0,0,0,-1,1091,1471,0,0
-126,-447,0,0,0,0,0,0,0,0,0,-1,1098,1471,0,0
-119,-447,0,0,0,0,0,0,0,0,0,-1,1105,1471,0,0
-112,-447,0,0,0,0,0,0,0,0,0,-1,1112,1471,0,0
-105,-447,0,0,0,0,0,0,0,0,0,-1,1119,1471,0,0
-98,-447,0,0,0,0,0,0,0,0,0,-1,1126,1471,0,0
-91,-447,0,0,0,0,0,0,0,0,0,-1,1133,1471,0,0
-84,-447,0,0,0,0,0,0,0,0,0,-1,1140,1471,0,0
-77,-447,0,0,0,0,0,0,0,0,0,-1,1147,1471,0,0
-70,-447,0,0,0,0,0,0,0,0,0,-1,1154,1471,0,0
-63,-447,0,0,0,0,0,0,0,0,0,-1,1161,1471,0,0
-56,-447,0,0,0,0,0,0,0,0,0,-1,1168,1471,0,0
-49,-447,0,0,0,0,0,0,0,0,0,-1,1175,1471,0,0
-42,-447,0,0,0,0,0,0,0,0,0,-1,1182,1471,0,0
-35,-447,0,0,0,0,0,0,0,0,0,-1,1189,1471,0,0
-28,-447,0,0,0,0,0,0,0,0,0,-1,1196,1471,0,0
-21,-447,0,0,0,0,0,0,0,0,0,-1,1203,1471,0,0
-14,-447,0,0,0,0,0,0,0,0,0,-1,1210,1471,0,0
-7,-447,0,0,0,0,0,0,0,0,0,-1,1217,1471,0,0
0,-447,0,0,0,0,0,0,0,0,0,-1,1224,1471,0,0
7,-447,0,0,0,0,0,0,0,0,0,-1,1231,1471,0,0
14,-447,0,0,0,0,0,0,0,0,0,-1,1238,1471,0,0
21,-447,0,0,0,0,0,0,0,0,0,-1,1245,1471,0,0
28,-447,0,0,0,0,0,0,0,0,0,-1,1252,1471,0,0
35,-447,0,0,0,0,0,0,0,0,0,-1,1259,1471,0,0
42,-447,0,0,0,0,0,0,0,0,0,-1,1266,1471,0,0
49,-447,0,0,0,0,0,0,0,0,0,-1,1273,1471,0,0
56,-447,0,0,0,0,0,0,0,0,0,-1,1280,1471,0,0
63,-447,0,0,0,0,0,0,0,0,0,-1,1287,1471,0,0
70,-447,0,0,0,0,0,0,0,0,0,-1,1294,1471,0,0
77,-447,0,0,0,0,0,0,0,0,0,-1,1301,1471,0,0
84,-447,0,0,0,0,0,0,0,0,0,-1,1308,1471,0,0
91,-447,0,0,0,0,0,0,0,0,0,-1,1315,1471,0,0
98,-447,0,0,0,0,0,0,0,0,0,-1,1322,1471,0,0
105,-447,0,0,0,0,0,0,0,0,0,-1,1329,1471,0,0
112,-447,0,0,0,0,0,0,0,0,0,-1,1336,1471,0,0
119,-447,0,0,0,0,0,0,0,0,0,-1,1343,1471,0,0
126,-447,0,0,0,0,0,0,0,0,0,-1,1350,1471,0,0
133,-447,0,0,0,0,0,0,0,0,0,-1,1357,1471,0,0
140,-447,0,0,0,0,0,0,0,0,0,-1,1364,1471,0,0
147,-447,0,0,0,0,0,0,0,0,0,-1,1371,1471,0,0
154,-447,0,0,0,0,0,0,0,0,0,-1,1378,1471,0,0
161,-447,0,0,0,0,0,0,0,0,0,-1,1385,1471,0,0
168,-447,0,0,0,0,0,0,0,0,0,-1,1392,1471,0,0
175,-447,0,0,0,0,0,0,0,0,0,-1,1399,1471,0,0
182,-447,0,0,0,0,0,0,0,0,0,-1,1406,1471,0,0
189,-447,0,0,0,0,0,0,0,0,0,-1,1413,1471,0,0
196,-447,0,0,0,0,0,0,0,0,0,-1,1420,1471,0,0
203,-447,0,0,0,0,0,0,0,0,0,-1,1427,1471,0,0
210,-447,0,0,0,0,0,0,0,0,0,-1,1434,1471,0,0
217,-447,0,0,0,0,0,0,0,0,0,-1,1441,1471,0,0
224,-447,0,0,0,0,0,0,0,0,0,-1,1448,1471,0,0
231,-447,0,0,0,0,0,0,0,0,0,-1,1455,1471,0,0
238,-447,0,0,0,0,0,0,0,0,0,-1,1462,1471,0,0
245,-447,0,0,0,0,0,0,0,0,0,-1,1469,1471,0,0
252,-447,0,0,0,0,0,0,0,0,0,-1,1476,1471,0,0
259,-447,0,0,0,0,0,0,0,0,0,-1,1483,1471,0,0
266,-447,0,0,0,0,0,0,0,0,0,-1,1490,1471,0,0
273,-447,0,0,0,0,0,0,0,0,0,-1,1497,1471,0,0
280,-447,0,0,0,0,0,0,0,0,0,-1,1504,1471,0,0
287,-447,0,0,0,0,0,0,0,0,0,-1,1511,1471,0,0
294,-447,0,0,0,0,0,0,0,0,0,-1,1518,1471,0,0
301,-447,0,0,0,0,0,0,0,0,0,-1,1525,1471,0,0
308,-447,0,0,0,0,0,0,0,0,0,-1,1532,1471,0,0
315,-447,0,0,0,0,0,0,0,0,0,-1,1539,1471,0,0
322,-447,0,0,0,0,0,0,0,0,0,-1,1546,1471,0,0
329,-447,0,0,0,0,0,0,0,0,0,-1,1553,1471,0,0
336,-447,0,0,0,0,0,0,0,0,0,-1,1560,1471,0,0
343,-447,0,0,0,0,0,0,0,0,0,-1,1567,1471,0,0
350,-447,0,0,0,0,0,0,0,0,0,-1,1574,1471,0,0
357,-447,0,0,0,0,0,0,0,0,0,-1,1581,1471,0,0
364,-447,0,0,0,0,0,0,0,0,0,-1,1588,1471,0,0
371,-447,0,0,0,0,0,0,0,0,0,-1,1595,1471,0,0
378,-447,0,0,0,0,0,0,0,0,0,-1,1602,1471,0,0
385,-447,0,0,0,0,0,0,0,0,0,-1,1609,1471,0,0
392,-447,0,0,0,0,0,0,0,0,0,-1,1616,1471,0,0
399,-447,0,0,0,0,0,0,0,0,0,-1,1623,1471,0,0
406,-447,0,0,0,0,0,0,0,0,0,-1,1630,1471,0,0
413,-447,0,0,0,0,0,0,0,0,0,-1,1637,1471,0,0
420,-447,0,0,0,0,0,0,0,0,0,-1,1644,1471,0,0
427,-447,0,0,0,0,0,0,0,0,0,-1,1651,1471,0,0
434,-447,0,0,0,0,0,0,0,0,0,-1,1658,1471,0,0
441,-447,0,0,0,0,0,0,0,0,0,-1,1665,1471,0,0
448,-447,0,0,0,0,0,0,0,0,0,-1,1672,1471,0,0
455,-447,0,0,0,0,0,0,0,0,0,-1,1679,1471,0,0
462,-447,0,0,0,0,0,0,0,0,0,-1,1686,1471,0,0
469,-447,0,0,0,0,0,0,0,0,0,-1,1693,1471,0,0
476,-447,0,0,0,0,0,0,0,0,0,-1,1700,1471,0,0
483,-447,0,0,0,0,0,0,0,0,0,-1,1707,1471,0,0
490,-447,18.2214,-0.810303,0,0,0,0,0,0,0,-1,1714,1471,18.2215,0.810307
497,-447,17.0237,0.352417,0,0,0,0,0,0,0,-1,1721,1471,17.0237,-0.352442
504,-447,15.8998,1.53479,0,0,0,0,0,0,0,-1,1728,1471,15.8997,-1.53478
511,-447,14.7201,2.76111,0,0,0,0,0,0,0,-1,1735,1471,14.7201,-2.76107
518,-447,17.7618,13.2864,0,0,0,0,0,0,0,-1,1742,1471,17.7619,-13.2863
525,-447,17.1191,11.9014,0,0,0,0,0,0,0,-1,1749,1471,17.1191,-11.9013
532,-447,16.3959,10.0455,0,0,0,0,0,0,0,-1,1756,1471,16.3959,-10.0456
539,-447,14.1699,10.0204,0,0,0,0,0,0,0,-1,1763,1471,14.1699,-10.0204
546,-447,16.3715,11.8046,0,0,0,0,0,0,0,-1,1770,1471,16.3714,-11.8046
553,-447,17.5106,13.4012,0,0,0,0,0,0,0,-1,1777,1471,17.5107,-13.4012
560,-447,17.0187,13.168,0,0,0,0,0,0,0,-1,1784,1471,17.0187,-13.168
567,-447,18.377,14.5983,0,0,0,0,0,0,0,-1,1791,1471,18.377,-14.5983
574,-447,18.2208,14.2224,-0.00306166,-0.000654378,0.00251622,0.000931271,-0.00464731,1.00849,0.00345077,0.0470426,1798,1471,18.2208,-14.2225
581,-447,18.0016,14.0387,-0.00188563,0.000566655,0.00134898,0.00116347,-0.00248245,1.15427,0.00215039,0.0283738,1805,1471,18.0016,-14.0387
588,-447,18.0645,13.5192,-0.000977545,0.00126745,0.000464815,0.00135988,-0.00106998,1.3745,0.0014062,0.0175947,1812,1471,18.0645,-13.5192
595,-447,18.0536,13.1256,-0.000356338,0.00167856,-2.22e-05,0.0016788,-0.00035658,-1.55989,0.00125506,0.0126158,1819,1471,18.0535,-13.1256
602,-447,18.0466,12.7268,0.000138062,0.00144398,-0.000252491,0.0014911,9.09449e-05,-1.38631,0.000965182,0.0116049,1826,1471,18.0466,-12.7268
609,-447,18.048,12.3579,0.000668665,0.000993488,-0.000341541,0.00120927,0.000452886,-1.00734,0.000705462,0.0132846,1833,1471,18.048,-12.3579
616,-447,18.0679,11.9967,0.00111401,0.000480098,-0.0003009,0.00123409,0.000360016,-0.37971,0.000732817,0.0145269,1840,1471,18.0679,-11.9967
623,-447,18.0574,11.6323,0.00152453,-5.53027e-05,-0.000184623,0.00154582,-7.65913e-05,-0.114801,0.001057,0.0155658,1847,1471,18.0574,-11.6323
630,-447,18.0266,11.252,0.00200044,-0.000591518,-6.73401e-05,0.00200219,-0.000593266,-0.025957,0.00157036,0.0091682,1854,1471,18.0267,-11.252
637,-447,18.0269,10.8779,0.00244796,-0.00104056,0.000118215,0.00245196,-0.00104456,0.033835,0.00207251,0.00980838,1861,1471,18.0269,-10.8779
644,-447,18.0394,10.5128,0.00302343,-0.00136714,0.000223023,0.00303473,-0.00137844,0.0506222,0.00260707,0.0105237,1868,1471,18.0395,-10.5128
651,-447,18.0842,10.1388,0.00372412,-0.00157053,0.000268889,0.00373774,-0.00158415,0.0506115,0.00315534,0.0386704,1875,1471,18.0843,-10.1389
658,-447,18.2311,9.70435,0,0,0,0,0,0,0,-1,1882,1471,18.2311,-9.7044
665,-447,18.3679,9.63318,0,0,0,0,0,0,0,-1,1889,1471,18.3679,-9.63315
672,-447,18.9784,9.66077,0,0,0,0,0,0,0,-1,1896,1471,18.9784,-9.66081
679,-447,14.844,7.4248,0,0,0,0,0,0,0,-1,1903,1471,14.844,-7.42477
686,-447,9.81079,4.30859,0,0,0,0,0,0,0,-1,1910,1471,9.8108,-4.30864
693,-447,10.48,2.08643,0,0,0,0,0,0,0,-1,1917,1471,10.48,-2.08642
700,-447,0,0,0,0,0,0,0,0,0,-1,1924,1471,0,0
707,-447,0,0,0,0,0,0,0,0,0,-1,1931,1471,0,0
714,-447,0,0,0,0,0,0,0,0,0,-1,1938,1471,0,0
721,-447,0,0,0,0,0,0,0,0,0,-1,1945,1471,0,0
728,-447,0,0,0,0,0,0,0,0,0,-1,1952,1471,0,0
735,-447,0,0,0,0,0,0,0,0,0,-1,1959,1471,0,0
742,-447,0,0,0,0,0,0,0,0,0,-1,1966,1471,0,0
749,-447,0,0,0,0,0,0,0,0,0,-1,1973,1471,0,0
756,-447,0,0,0,0,0,0,0,0,0,-1,1980,1471,0,0
763,-447,0,0,0,0,0,0,0,0,0,-1,1987,1471,0,0
770,-447,0,0,0,0,0,0,0,0,0,-1,1994,1471,0,0
777,-447,0,0,0,0,0,0,0,0,0,-1,2001,1471,0,0
784,-447,0,0,0,0,0,0,0,0,0,-1,2008,1471,0,0
791,-447,0,0,0,0,0,0,0,0,0,-1,2015,1471,0,0
798,-447,0,0,0,0,0,0,0,0,0,-1,2022,1471,0,0
805,-447,0,0,0,0,0,0,0,0,0,-1,2029,1471,0,0
812,-447,0,0,0,0,0,0,0,0,0,-1,2036,1471,0,0
-700,-454,0,0,0,0,0,0,0,0,0,-1,524,1478,0,0
-693,-454,0,0,0,0,0,0,0,0,0,-1,531,1478,0,0
-686,-454,0,0,0,0,0,0,0,0,0,-1,538,1478,0,0
-679,-454,0,0,0,0,0,0,0,0,0,-1,545,1478,0,0
-672,-454,0,0,0,0,0,0,0,0,0,-1,552,1478,0,0
-665,-454,0,0,0,0,0,0,0,0,0,-1,559,1478,0,0
-658,-454,0,0,0,0,0,0,0,0,0,-1,566,1478,0,0
-651,-454,0,0,0,0,0,0,0,0,0,-1,573,1478,0,0
-644,-454,0,0,0,0,0,0,0,0,0,-1,580,1478,0,0
-637,-454,0,0,0,0,0,0,0,0,0,-1,587,1478,0,0
-630,-454,0,0,0,0,0,0,0,0,0,-1,594,1478,0,0
-623,-454,0,0,0,0,0,0,0,0,0,-1,601,1478,0,0
-616,-454,0,0,0,0,0,0,0,0,0,-1,608,1478,0,0
-609,-454,0,0,0,0,0,0,0,0,0,-1,615,1478,0,0
-602,-454,0,0,0,0,0,0,0,0,0,-1,622,1478,0,0
-595,-454,0,0,0,0,0,0,0,0,0,-1,629,1478,0,0
-588,-454,0,0,0,0,0,0,0,0,0,-1,636,1478,0,0
-581,-454,0,0,0,0,0,0,0,0,0,-1,643,1478,0,0
-574,-454,-8.4881,-0.465942,0,0,0,0,0,0,0,-1,650,1478,-8.4881,0.465885
-567,-454,-8.10046,0.922974,0,0,0,0,0,0,0,-1,657,1478,-8.10047,-0.923034
-560,-454,-10.656,3.51172,0,0,0,0,0,0,0,-1,664,1478,-10.656,-3.51176
-553,-454,-9.01129,3.95251,0,0,0,0,0,0,0,-1,671,1478,-9.0113,-3.95256
-546,-454,-9.61896,6.05237,0,0,0,0,0,0,0,-1,678,1478,-9.61897,-6.05239
-539,-454,-7.72589,4.96533,0,0,0,0,0,0,0,-1,685,1478,-7.72592,-4.96532
-532,-454,-6.25616,6.68396,0,0,0,0,0,0,0,-1,692,1478,-6.25617,-6.68392
-525,-454,-5.84613,7.61621,0,0,0,0,0,0,0,-1,699,1478,-5.84616,-7.61627
-518,-454,-5.44946,8.50623,-0.00399701,0.0126678,0.00682763,0.0151079,-0.00643704,1.22757,0.0127703,0.0451878,706,1478,-5.44949,-8.50626
-511,-454,-5.59521,8.58472,-0.00255257,0.0094762,0.00511007,0.0113539,-0.00443031,1.21865,0.00940073,0.0299214,713,1478,-5.59521,-8.58468
-504,-454,-5.5321,9.06799,-0.00151125,0.00693702,0.00378716,0.00838614,-0.00296038,1.20534,0.00679599,0.0160917,720,1478,-5.53213,-9.06802
-497,-454,-5.54083,9.53174,-0.000546717,0.00505941,0.00290414,0.00629258,-0.00177988,1.16924,0.00489738,0.0186506,727,1478,-5.54086,-9.53174
-490,-454,-5.53967,9.92505,0.000277208,0.0037182,0.00230676,0.00487542,-0.000880013,1.10582,0.00357986,0.0177636,734,1478,-5.53967,-9.92507
-483,-454,-5.56122,10.3162,0.00120574,0.00267992,0.00150458,0.00361826,0.000267404,1.01317,0.00232816,0.0161675,741,1478,-5.56121,-10.3161
-476,-454,-5.59088,10.6968,0.00246775,0.000832771,0.000135194,0.00247886,0.000821668,0.0819465,0.00145801,0.0131942,748,1478,-5.59085,-10.6968
-469,-454,-5.58441,11.1263,0.00368268,-0.000542575,-0.00105216,0.00393018,-0.00079008,-0.231036,0.00291934,0.00992768,755,1478,-5.58441,-11.1263
-462,-454,-5.62805,11.5424,0.00506859,-0.00235844,-0.00278407,0.00599633,-0.00328618,-0.321659,0.00543487,0.0103126,762,1478,-5.62804,-11.5424
-455,-454,-5.65143,11.9352,0.00682321,-0.00466997,-0.00515169,0.00879434,-0.0066411,-0.365433,0.00894051,0.0114215,769,1478,-5.65143,-11.9351
-448,-454,-5.63116,12.3539,0.00907189,-0.00784392,-0.00834567,0.0124962,-0.0112682,-0.38936,0.0137265,0.01561,776,1478,-5.63114,-12.3539
-441,-454,-5.40338,12.9208,0.0117082,-0.0124334,-0.0129576,0.0173463,-0.0180715,-0.410408,0.0204499,0.0318591,783,1478,-5.40336,-12.9208
-434,-454,-5.48663,13.2417,0.0147391,-0.0188607,-0.0191075,0.023382,-0.0275036,-0.424787,0.0294109,0.0413904,790,1478,-5.48664,-13.2418
-427,-454,-5.23132,12.6985,0.0183676,-0.027955,-0.0274079,0.03109,-0.0406774,-0.434588,0.041558,0.0488377,797,1478,-5.2313,-12.6985
-420,-454,-5.0387,12.4916,0,0,0,0,0,0,0,-1,804,1478,-5.03868,-12.4916
-413,-454,-4.54706,11.8824,0,0,0,0,0,0,0,-1,811,1478,-4.54707,-11.8825
-406,-454,-2.38208,10.0308,0,0,0,0,0,0,0,-1,818,1478,-2.38209,-10.0308
-399,-454,-1.21033,6.95447,0,0,0,0,0,0,0,-1,825,1478,-1.21035,-6.95452
-392,-454,0.0967407,0.985474,0,0,0,0,0,0,0,-1,832,1478,0.0967364,-0.985529
-385,-454,2.38629,3.297,0,0,0,0,0,0,0,-1,839,1478,2.38629,-3.29702
-378,-454,-15.9756,2.83997,0,0,0,0,0,0,0,-1,846,1478,-15.9756,-2.83994
-371,-454,-17.2753,2.01453,0,0,0,0,0,0,0,-1,853,1478,-17.2753,-2.01455
-364,-454,1.08124,0.819458,0,0,0,0,0,0,0,-1,860,1478,1.08124,-0.819513
-357,-454,0,0,0,0,0,0,0,0,0,-1,867,1478,0,0
-350,-454,0,0,0,0,0,0,0,0,0,-1,874,1478,0,0
-343,-454,0,0,0,0,0,0,0,0,0,-1,881,1478,0,0
-336,-454,0,0,0,0,0,0,0,0,0,-1,888,1478,0,0
-329,-454,0,0,0,0,0,0,0,0,0,-1,895,1478,0,0
-322,-454,0,0,0,0,0,0,0,0,0,-1,902,1478,0,0
-315,-454,0,0,0,0,0,0,0,0,0,-1,909,1478,0,0
-308,-454,0,0,0,0,0,0,0,0,0,-1,916,1478,0,0
-301,-454,0,0,0,0,0,0,0,0,0,-1,923,1478,0,0
-294,-454,0,0,0,0,0,0,0,0,0,-1,930,1478,0,0
-287,-454,0,0,0,0,0,0,0,0,0,-1,937,1478,0,0
-280,-454,0,0,0,0,0,0,0,0,0,-1,944,1478,0,0
-273,-454,0,0,0,0,0,0,0,0,0,-1,951,1478,0,0
-266,-454,0,0,0,0,0,0,0,0,0,-1,958,1478,0,0
-259,-454,0,0,0,0,0,0,0,0,0,-1,965,1478,0,0
-252,-454,0,0,0,0,0,0,0,0,0,-1,972,1478,0,0
-245,-454,0,0,0,0,0,0,0,0,0,-1,979,1478,0,0
-238,-454,0,0,0,0,0,0,0,0,0,-1,986,1478,0,0
-231,-454,0,0,0,0,0,0,0,0,0,-1,993,1478,0,0
-224,-454,0,0,0,0,0,0,0,0,0,-1,1000,1478,0,0
-217,-454,0,0,0,0,0,0,0,0,0,-1,1007,1478,0,0
-210,-454,0,0,0,0,0,0,0,0,0,-1,1014,1478,0,0
-203,-454,0,0,0,0,0,0,0,0,0,-1,1021,1478,0,0
-196,-454,0,0,0,0,0,0,0,0,0,-1,1028,1478,0,0
-189,-454,0,0,0,0,0,0,0,0,0,-1,1035,1478,0,0
-182,-454,0,0,0,0,0,0,0,0,0,-1,1042,1478,0,0
-175,-454,0,0,0,0,0,0,0,0,0,-1,1049,1478,0,0
-168,-454,0,0,0,0,0,0,0,0,0,-1,1056,1478,0,0
-161,-454,0,0,0,0,0,0,0,0,0,-1,1063,1478,0,0
-154,-454,0,0,0,0,0,0,0,0,0,-1,1070,1478,0,0
-147,-454,0,0,0,0,0,0,0,0,0,-1,1077,1478,0,0
-140,-454,0,0,0,0,0,0,0,0,0,-1,1084,1478,0,0
-133,-454,0,0,0,0,0,0,0,0,0,-1,1091,1478,0,0
-126,-454,0,0,0,0,0,0,0,0,0,-1,1098,1478,0,0
-119,-454,0,0,0,0,0,0,0,0,0,-1,1105,1478,0,0
-112,-454,0,0,0,0,0,0,0,0,0,-1,1112,1478,0,0
-105,-454,0,0,0,0,0,0,0,0,0,-1,1119,1478,0,0
-98,-454,0,0,0,0,0,0,0,0,0,-1,1126,1478,0,0
-91,-454,0,0,0,0,0,0,0,0,0,-1,1133,1478,0,0
-84,-454,0,0,0,0,0,0,0,0,0,-1,1140,1478,0,0
-77,-454,0,0,0,0,0,0,0,0,0,-1,1147,1478,0,0
-70,-454,0,0,0,0,0,0,0,0,0,-1,1154,1478,0,0
-63,-454,0,0,0,0,0,0,0,0,0,-1,1161,1478,0,0
-56,-454,0,0,0,0,0,0,0,0,0,-1,1168,1478,0,0
-49,-454,0,0,0,0,0,0,0,0,0,-1,1175,1478,0,0
-42,-454,0,0,0,0,0,0,0,0,0,-1,1182,1478,0,0
-35,-454,0,0,0,0,0,0,0,0,0,-1,1189,1478,0,0
-28,-454,0,0,0,0,0,0,0,0,0,-1,1196,1478,0,0
-21,-454,0,0,0,0,0,0,0,0,0,-1,1203,1478,0,0
-14,-454,0,0,0,0,0,0,0,0,0,-1,1210,1478,0,0
-7,-454,0,0,0,0,0,0,0,0,0,-1,1217,1478,0,0
0,-454,0,0,0,0,0,0,0,0,0,-1,1224,1478,0,0
7,-454,0,0,0,0,0,0,0,0,0,-1,1231,1478,0,0
14,-454,0,0,0,0,0,0,0,0,0,-1,1238,1478,0,0
21,-454,0,0,0,0,0,0,0,0,0,-1,1245,1478,0,0
28,-454,0,0,0,0,0,0,0,0,0,-1,1252,1478,0,0
35,-454,0,0,0,0,0,0,0,0,0,-1,1259,1478,0,0
42,-454,0,0,0,0,0,0,0,0,0,-1,1266,1478,0,0
49,-454,0,0,0,0,0,0,0,0,0,-1,1273,1478,0,0
56,-454,0,0,0,0,0,0,0,0,0,-1,1280,1478,0,0
63,-454,0,0,0,0,0,0,0,0,0,-1,1287,1478,0,0
70,-454,0,0,0,0,0,0,0,0,0,-1,1294,1478,0,0
77,-454,0,0,0,0,0,0,0,0,0,-1,1301,1478,0,0
84,-454,0,0,0,0,0,0,0,0,0,-1,1308,1478,0,0
91,-454,0,0,0,0,0,0,0,0,0,-1,1315,1478,0,0
98,-454,0,0,0,0,0,0,0,0,0,-1,1322,1478,0,0
105,-454,0,0,0,0,0,0,0,0,0,-1,1329,1478,0,0
112,-454,0,0,0,0,0,0,0,0,0,-1,1336,1478,0,0
119,-454,0,0,0,0,0,0,0,0,0,-1,1343,1478,0,0
126,-454,0,0,0,0,0,0,0,0,0,-1,1350,1478,0,0
133,-454,0,0,0,0,0,0,0,0,0,-1,1357,1478,0,0
140,-454,0,0,0,0,0,0,0,0,0,-1,1364,1478,0,0
147,-454,0,0,0,0,0,0,0,0,0,-1,1371,1478,0,0
154,-454,0,0,0,0,0,0,0,0,0,-1,1378,1478,0,0
161,-454,0,0,0,0,0,0,0,0,0,-1,1385,1478,0,0
168,-454,0,0,0,0,0,0,0,0,0,-1,1392,1478,0,0
175,-454,0,0,0,0,0,0,0,0,0,-1,1399,1478,0,0
182,-454,0,0,0,0,0,0,0,0,0,-1,1406,1478,0,0
189,-454,0,0,0,0,0,0,0,0,0,-1,1413,1478,0,0
196,-454,0,0,0,0,0,0,0,0,0,-1,1420,1478,0,0
203,-454,0,0,0,0,0,0,0,0,0,-1,1427,1478,0,0
210,-454,0,0,0,0,0,0,0,0,0,-1,1434,1478,0,0
217,-454,0,0,0,0,0,0,0,0,0,-1,1441,1478,0,0
224,-454,0,0,0,0,0,0,0,0,0,-1,1448,1478,0,0
231,-454,0,0,0,0,0,0,0,0,0,-1,1455,1478,0,0
238,-454,0,0,0,0,0,0,0,0,0,-1,1462,1478,0,0
245,-454,0,0,0,0,0,0,0,0,0,-1,1469,1478,0,0
252,-454,0,0,0,0,0,0,0,0,0,-1,1476,1478,0,0
259,-454,0,0,0,0,0,0,0,0,0,-1,1483,1478,0,0
266,-454,0,0,0,0,0,0,0,0,0,-1,1490,1478,0,0
273,-454,0,0,0,0,0,0,0,0,0,-1,1497,1478,0,0
280,-454,0,0,0,0,0,0,0,0,0,-1,1504,1478,0,0
287,-454,0,0,0,0,0,0,0,0,0,-1,1511,1478,0,0
294,-454,0,0,0,0,0,0,0,0,0,-1,1518,1478,0,0
301,-454,0,0,0,0,0,0,0,0,0,-1,1525,1478,0,0
308,-454,0,0,0,0,0,0,0,0,0,-1,1532,1478,0,0
315,-454,0,0,0,0,0,0,0,0,0,-1,1539,1478,0,0
322,-454,0,0,0,0,0,0,0,0,0,-1,1546,1478,0,0
329,-454,0,0,0,0,0,0,0,0,0,-1,1553,1478,0,0
336,-454,0,0,0,0,0,0,0,0,0,-1,1560,1478,0,0
343,-454,0,0,0,0,0,0,0,0,0,-1,1567,1478,0,0
350,-454,0,0,0,0,0,0,0,0,0,-1,1574,1478,0,0
357,-454,0,0,0,0,0,0,0,0,0,-1,1581,1478,0,0
364,-454,0,0,0,0,0,0,0,0,0,-1,1588,1478,0,0
371,-454,0,0,0,0,0,0,0,0,0,-1,1595,1478,0,0
378,-454,0,0,0,0,0,0,0,0,0,-1,1602,1478,0,0
385,-454,0,0,0,0,0,0,0,0,0,-1,1609,1478,0,0
392,-454,0,0,0,0,0,0,0,0,0,-1,1616,1478,0,0
399,-454,0,0,0,0,0,0,0,0,0,-1,1623,1478,0,0
406,-454,0,0,0,0,0,0,0,0,0,-1,1630,1478,0,0
413,-454,0,0,0,0,0,0,0,0,0,-1,1637,1478,0,0
420,-454,0,0,0,0,0,0,0,0,0,-1,1644,1478,0,0
427,-454,0,0,0,0,0,0,0,0,0,-1,1651,1478,0,0
434,-454,0,0,0,0,0,0,0,0,0,-1,1658,1478,0,0
441,-454,0,0,0,0,0,0,0,0,0,-1,1665,1478,0,0
448,-454,0,0,0,0,0,0,0,0,0,-1,1672,1478,0,0
455,-454,0,0,0,0,0,0,0,0,0,-1,1679,1478,0,0
462,-454,0,0,0,0,0,0,0,0,0,-1,1686,1478,0,0
469,-454,0,0,0,0,0,0,0,0,0,-1,1693,1478,0,0
476,-454,0,0,0,0,0,0,0,0,0,-1,1700,1478,0,0
483,-454,14.2399,3.97498,0,0,0,0,0,0,0,-1,1707,1478,14.2399,-3.97502
490,-454,18.1821,-0.175781,0,0,0,0,0,0,0,-1,1714,1478,18.1821,0.175822
497,-454,16.8854,1.01208,0,0,0,0,0,0,0,-1,1721,1478,16.8854,-1.01209
504,-454,15.587,2.05994,0,0,0,0,0,0,0,-1,1728,1478,15.5871,-2.05998
511,-454,17.0273,14.5258,0,0,0,0,0,0,0,-1,1735,1478,17.0273,-14.5258
518,-454,16.4158,13.1039,0,0,0,0,0,0,0,-1,1742,1478,16.4157,-13.1038
525,-454,15.7842,11.6628,0,0,0,0,0,0,0,-1,1749,1478,15.7841,-11.6629
532,-454,15.1094,10.2476,0,0,0,0,0,0,0,-1,1756,1478,15.1094,-10.2475
539,-454,13.7905,10.9373,0,0,0,0,0,0,0,-1,1763,1478,13.7906,-10.9372
546,-454,16.2002,13.2458,0,0,0,0,0,0,0,-1,1770,1478,16.2002,-13.2459
553,-454,15.6747,12.1868,0,0,0,0,0,0,0,-1,1777,1478,15.6747,-12.1868
560,-454,16.3895,14.0527,0,0,0,0,0,0,0,-1,1784,1478,16.3895,-14.0528
567,-454,17.7545,14.7489,0,0,0,0,0,0,0,-1,1791,1478,17.7546,-14.7489
574,-454,17.6895,14.2756,-0.00251876,-0.00117262,0.00239064,0.000637892,-0.00432927,0.922618,0.00312062,0.0241615,1798,1478,17.6894,-14.2756
581,-454,17.676,13.8802,-0.00150624,-1.00093e-05,0.00134925,0.000784652,-0.0023009,1.03853,0.00185176,0.0158389,1805,1478,17.676,-13.8802
588,-454,17.6904,13.4985,-0.000630234,0.000679469,0.000521456,0.000861724,-0.000812488,1.23456,0.000966746,0.0125826,1812,1478,17.6905,-13.4986
595,-454,17.6565,13.134,3.91024e-05,0.00110821,4.68297e-05,0.00111026,3.70551e-05,1.52711,0.000728134,0.0120908,1819,1478,17.6565,-13.1341
602,-454,17.6547,12.751,0.00057333,0.000925722,-0.00022734,0.00103715,0.0004619,-1.11506,0.000599991,0.00903615,1826,1478,17.6546,-12.751
609,-454,17.674,12.3892,0.00117463,0.000508481,-0.00035488,0.00132826,0.000354854,-0.40854,0.000794106,0.0109612,1833,1478,17.6739,-12.3891
616,-454,17.6841,12.0186,0.00172575,1.32357e-05,-0.000365267,0.0018004,-6.1419e-05,-0.201607,0.00122126,0.014095,1840,1478,17.684,-12.0186
623,-454,17.6919,11.6328,0.00225991,-0.000535739,-0.000295637,0.00229083,-0.00056666,-0.104213,0.00174701,0.0126794,1847,1478,17.6919,-11.6328
630,-454,17.6895,11.2668,0.00284051,-0.00111457,-0.000185779,0.00284922,-0.00112328,-0.0468348,0.00236458,0.0115685,1854,1478,17.6894,-11.2669
637,-454,17.6514,10.9072,0.00341503,-0.00158886,-3.07457e-05,0.00341522,-0.00158905,-0.00614406,0.00295264,0.010297,1861,1478,17.6514,-10.9073
644,-454,17.7292,10.5273,0.00415205,-0.00199763,4.9696e-05,0.00415245,-0.00199803,0.00808037,0.00362287,0.0210728,1868,1478,17.7292,-10.5273
651,-454,17.8549,10.1101,0,0,0,0,0,0,0,-1,1875,1478,17.8549,-10.1102
658,-454,17.2583,10.0765,0,0,0,0,0,0,0,-1,1882,1478,17.2583,-10.0765
665,-454,17.683,9.67566,0,0,0,0,0,0,0,-1,1889,1478,17.683,-9.67572
672,-454,16.5476,6.41931,0,0,0,0,0,0,0,-1,1896,1478,16.5476,-6.41929
679,-454,14.2161,5.45007,0,0,0,0,0,0,0,-1,1903,1478,14.2161,-5.45013
686,-454,10.3767,2.12842,0,0,0,0,0,0,0,-1,1910,1478,10.3767,-2.12839
693,-454,11.1857,1.48486,0,0,0,0,0,0,0,-1,1917,1478,11.1857,-1.48487
700,-454,0,0,0,0,0,0,0,0,0,-1,1924,1478,0,0
707,-454,0,0,0,0,0,0,0,0,0,-1,1931,1478,0,0
714,-454,0,0,0,0,0,0,0,0,0,-1,1938,1478,0,0
721,-454,0,0,0,0,0,0,0,0,0,-1,1945,1478,0,0
728,-454,0,0,0,0,0,0,0,0,0,-1,1952,1478,0,0
735,-454,0,0,0,0,0,0,0,0,0,-1,1959,1478,0,0
742,-454,0,0,0,0,0,0,0,0,0,-1,1966,1478,0,0
749,-454,0,0,0,0,0,0,0,0,0,-1,1973,1478,0,0
756,-454,0,0,0,0,0,0,0,0,0,-1,1980,1478,0,0
763,-454,0,0,0,0,0,0,0,0,0,-1,1987,1478,0,0
770,-454,0,0,0,0,0,0,0,0,0,-1,1994,1478,0,0
777,-454,0,0,0,0,0,0,0,0,0,-1,2001,1478,0,0
784,-454,0,0,0,0,0,0,0,0,0,-1,2008,1478,0,0
791,-454,0,0,0,0,0,0,0,0,0,-1,2015,1478,0,0
798,-454,0,0,0,0,0,0,0,0,0,-1,2022,1478,0,0
805,-454,0,0,0,0,0,0,0,0,0,-1,2029,1478,0,0
812,-454,0,0,0,0,0,0,0,0,0,-1,2036,1478,0,0
-700,-461,0,0,0,0,0,0,0,0,0,-1,524,1485,0,0
-693,-461,0,0,0,0,0,0,0,0,0,-1,531,1485,0,0
-686,-461,0,0,0,0,0,0,0,0,0,-1,538,1485,0,0
-679,-461,0,0,0,0,0,0,0,0,0,-1,545,1485,0,0
-672,-461,0,0,0,0,0,0,0,0,0,-1,552,1485,0,0
-665,-461,0,0,0,0,0,0,0,0,0,-1,559,1485,0,0
-658,-461,0,0,0,0,0,0,0,0,0,-1,566,1485,0,0
-651,-461,0,0,0,0,0,0,0,0,0,-1,573,1485,0,0
-644,-461,0,0,0,0,0,0,0,0,0,-1,580,1485,0,0
-637,-461,0,0,0,0,0,0,0,0,0,-1,587,1485,0,0
-630,-461,0,0,0,0,0,0,0,0,0,-1,594,1485,0,0
-623,-461,0,0,0,0,0,0,0,0,0,-1,601,1485,0,0
-616,-461,0,0,0,0,0,0,0,0,0,-1,608,1485,0,0
-609,-461,0,0,0,0,0,0,0,0,0,-1,615,1485,0,0
-602,-461,0,0,0,0,0,0,0,0,0,-1,622,1485,0,0
-595,-461,0,0,0,0,0,0,0,0,0,-1,629,1485,0,0
-588,-461,0,0,0,0,0,0,0,0,0,-1,636,1485,0,0
-581,-461,0,0,0,0,0,0,0,0,0,-1,643,1485,0,0
-574,-461,0,0,0,0,0,0,0,0,0,-1,650,1485,0,0
-567,-461,-9.69031,0.513306,0,0,0,0,0,0,0,-1,657,1485,-9.69032,-0.513305
-560,-461,-7.28815,1.54004,0,0,0,0,0,0,0,-1,664,1485,-7.28817,-1.54005
-553,-461,-11.9607,5.27783,0,0,0,0,0,0,0,-1,671,1485,-11.9607,-5.27778
-546,-461,-11.4215,4.44666,0,0,0,0,0,0,0,-1,678,1485,-11.4215,-4.4467
-539,-461,-9.36493,5.23438,0,0,0,0,0,0,0,-1,685,1485,-9.3649,-5.23432
-532,-461,-6.83673,5.70691,0,0,0,0,0,0,0,-1,692,1485,-6.83675,-5.70696
-525,-461,-5.58459,7.31763,0,0,0,0,0,0,0,-1,699,1485,-5.58459,-7.31765
-518,-461,-5.23407,8.29614,-0.00307805,0.0156976,0.00913975,0.0194119,-0.00679238,1.18479,0.015703,0.0462357,706,1485,-5.23404,-8.29615
-511,-461,-5.03821,8.74756,-0.00198618,0.0116134,0.00667747,0.0143439,-0.00471664,1.18264,0.0114629,0.0330312,713,1485,-5.03822,-8.74754
-504,-461,-5.1792,9.05029,-0.00131005,0.00838337,0.00475863,0.0103289,-0.00325563,1.18268,0.00818979,0.0179625,720,1485,-5.17918,-9.05024
-497,-461,-5.13208,9.52808,-0.000633735,0.00601337,0.0034312,0.00746676,-0.00208712,1.17013,0.0058001,0.0105771,727,1485,-5.13208,-9.52806
-490,-461,-5.13965,9.9386,-1.0929e-05,0.00430016,0.00252661,0.00546578,-0.00117655,1.13855,0.0040928,0.0121967,734,1485,-5.13968,-9.93858
-483,-461,-5.15814,10.342,0.000710893,0.00303399,0.00165239,0.00389224,-0.000147356,1.09175,0.00264532,0.0124342,741,1485,-5.15812,-10.3421
-476,-461,-5.19238,10.7412,0.0017389,0.00130849,0.000403874,0.00198132,0.00106606,0.540607,0.00114502,0.0104719,748,1485,-5.19239,-10.7412
-469,-461,-5.19409,11.1383,0.00279395,-3.61139e-05,-0.000667701,0.00294357,-0.000185735,-0.220443,0.00202713,0.0115737,755,1485,-5.19407,-11.1382
-462,-461,-5.22937,11.5342,0.00398159,-0.00170297,-0.0021023,0.0046746,-0.00239597,-0.318424,0.00415225,0.0174163,762,1485,-5.2294,-11.5341
-455,-461,-5.23901,11.9587,0.0054704,-0.00370024,-0.00397089,0.00695082,-0.00518065,-0.356855,0.00702892,0.0222028,769,1485,-5.23903,-11.9587
-448,-461,-5.20197,12.3584,0.0073906,-0.00614341,-0.0062705,0.00984918,-0.008602,-0.373667,0.0106609,0.0190937,776,1485,-5.20195,-12.3584
-441,-461,-5.16064,12.7898,0.00966997,-0.00946735,-0.00936961,0.0134934,-0.0132908,-0.387444,0.015464,0.0182426,783,1485,-5.16062,-12.7898
-434,-461,-4.9176,13.1964,0.0123238,-0.0140649,-0.0134078,0.0179406,-0.0196817,-0.39671,0.021729,0.0264245,790,1485,-4.9176,-13.1964
-427,-461,-4.88043,13.427,0.0154548,-0.0202968,-0.0187996,0.0235207,-0.0283626,-0.40529,0.0299983,0.0383095,797,1485,-4.88042,-13.427
-420,-461,-4.57562,13.7134,0,0,0,0,0,0,0,-1,804,1485,-4.57562,-13.7133
-413,-461,-5.38361,12.7788,0,0,0,0,0,0,0,-1,811,1485,-5.38361,-12.7788
-406,-461,-4.95618,12.4502,0,0,0,0,0,0,0,-1,818,1485,-4.95617,-12.4502
-399,-461,-1.93439,9.82849,0,0,0,0,0,0,0,-1,825,1485,-1.9344,-9.82846
-392,-461,-0.357544,5.55225,0,0,0,0,0,0,0,-1,832,1485,-0.357536,-5.55228
-385,-461,1.71509,3.35254,0,0,0,0,0,0,0,-1,839,1485,1.71511,-3.35255
-378,-461,1.95996,3.01111,0,0,0,0,0,0,0,-1,846,1485,1.95993,-3.01111
-371,-461,0.702881,2.33459,0,0,0,0,0,0,0,-1,853,1485,0.702859,-2.33459
-364,-461,-1.93097,2.56458,0,0,0,0,0,0,0,-1,860,1485,-1.93095,-2.56456
-357,-461,-2.41516,3.49487,0,0,0,0,0,0,0,-1,867,1485,-2.41517,-3.49487
-350,-461,0,0,0,0,0,0,0,0,0,-1,874,1485,0,0
-343,-461,0,0,0,0,0,0,0,0,0,-1,881,1485,0,0
-336,-461,0,0,0,0,0,0,0,0,0,-1,888,1485,0,0
-329,-461,0,0,0,0,0,0,0,0,0,-1,895,1485,0,0
-322,-461,0,0,0,0,0,0,0,0,0,-1,902,1485,0,0
-315,-461,0,0,0,0,0,0,0,0,0,-1,909,1485,0,0
-308,-461,0,0,0,0,0,0,0,0,0,-1,916,1485,0,0
-301,-461,0,0,0,0,0,0,0,0,0,-1,923,1485,0,0
-294,-461,0,0,0,0,0,0,0,0,0,-1,930,1485,0,0
-287,-461,0,0,0,0,0,0,0,0,0,-1,937,1485,0,0
-280,-461,0,0,0,0,0,0,0,0,0,-1,944,1485,0,0
-273,-461,0,0,0,0,0,0,0,0,0,-1,951,1485,0,0
-266,-461,0,0,0,0,0,0,0,0,0,-1,958,1485,0,0
-259,-461,0,0,0,0,0,0,0,0,0,-1,965,1485,0,0
-252,-461,0,0,0,0,0,0,0,0,0,-1,972,1485,0,0
-245,-461,0,0,0,0,0,0,0,0,0,-1,979,1485,0,0
-238,-461,0,0,0,0,0,0,0,0,0,-1,986,1485,0,0
-231,-461,0,0,0,0,0,0,0,0,0,-1,993,1485,0,0
-224,-461,0,0,0,0,0,0,0,0,0,-1,1000,1485,0,0
-217,-461,0,0,0,0,0,0,0,0,0,-1,1007,1485,0,0
-210,-461,0,0,0,0,0,0,0,0,0,-1,1014,1485,0,0
-203,-461,0,0,0,0,0,0,0,0,0,-1,1021,1485,0,0
-196,-461,0,0,0,0,0,0,0,0,0,-1,1028,1485,0,0
-189,-461,0,0,0,0,0,0,0,0,0,-1,1035,1485,0,0
-182,-461,0,0,0,0,0,0,0,0,0,-1,1042,1485,0,0
-175,-461,0,0,0,0,0,0,0,0,0,-1,1049,1485,0,0
-168,-461,0,0,0,0,0,0,0,0,0,-1,1056,1485,0,0
-161,-461,0,0,0,0,0,0,0,0,0,-1,1063,1485,0,0
-154,-461,0,0,0,0,0,0,0,0,0,-1,1070,1485,0,0
-147,-461,0,0,0,0,0,0,0,0,0,-1,1077,1485,0,0
-140,-461,0,0,0,0,0,0,0,0,0,-1,1084,1485,0,0
-133,-461,0,0,0,0,0,0,0,0,0,-1,1091,1485,0,0
-126,-461,0,0,0,0,0,0,0,0,0,-1,1098,1485,0,0
-119,-461,0,0,0,0,0,0,0,0,0,-1,1105,1485,0,0
-112,-461,0,0,0,0,0,0,0,0,0,-1,1112,1485,0,0
-105,-461,0,0,0,0,0,0,0,0,0,-1,1119,1485,0,0
-98,-461,0,0,0,0,0,0,0,0,0,-1,1126,1485,0,0
-91,-461,0,0,0,0,0,0,0,0,0,-1,1133,1485,0,0
-84,-461,0,0,0,0,0,0,0,0,0,-1,1140,1485,0,0
-77,-461,0,0,0,0,0,0,0,0,0,-1,1147,1485,0,0
-70,-461,0,0,0,0,0,0,0,0,0,-1,1154,1485,0,0
-63,-461,0,0,0,0,0,0,0,0,0,-1,1161,1485,0,0
-56,-461,0,0,0,0,0,0,0,0,0,-1,1168,1485,0,0
-49,-461,0,0,0,0,0,0,0,0,0,-1,1175,1485,0,0
-42,-461,0,0,0,0,0,0,0,0,0,-1,1182,1485,0,0
-35,-461,0,0,0,0,0,0,0,0,0,-1,1189,1485,0,0
-28,-461,0,0,0,0,0,0,0,0,0,-1,1196,1485,0,0
-21,-461,0,0,0,0,0,0,0,0,0,-1,1203,1485,0,0
-14,-461,0,0,0,0,0,0,0,0,0,-1,1210,1485,0,0
-7,-461,0,0,0,0,0,0,0,0,0,-1,1217,1485,0,0
0,-461,0,0,0,0,0,0,0,0,0,-1,1224,1485,0,0
7,-461,0,0,0,0,0,0,0,0,0,-1,1231,1485,0,0
14,-461,0,0,0,0,0,0,0,0,0,-1,1238,1485,0,0
21,-461,0,0,0,0,0,0,0,0,0,-1,1245,1485,0,0
28,-461,0,0,0,0,0,0,0,0,0,-1,1252,1485,0,0
35,-461,0,0,0,0,0,0,0,0,0,-1,1259,1485,0,0
42,-461,0,0,0,0,0,0,0,0,0,-1,1266,1485,0,0
49,-461,0,0,0,0,0,0,0,0,0,-1,1273,1485,0,0
56,-461,0,0,0,0,0,0,0,0,0,-1,1280,1485,0,0
63,-461,0,0,0,0,0,0,0,0,0,-1,1287,1485,0,0
70,-461,0,0,0,0,0,0,0,0,0,-1,1294,1485,0,0
77,-461,0,0,0,0,0,0,0,0,0,-1,1301,1485,0,0
84,-461,0,0,0,0,0,0,0,0,0,-1,1308,1485,0,0
91,-461,0,0,0,0,0,0,0,0,0,-1,1315,1485,0,0
98,-461,0,0,0,0,0,0,0,0,0,-1,1322,1485,0,0
105,-461,0,0,0,0,0,0,0,0,0,-1,1329,1485,0,0
112,-461,0,0,0,0,0,0,0,0,0,-1,1336,1485,0,0
119,-461,0,0,0,0,0,0,0,0,0,-1,1343,1485,0,0
126,-461,0,0,0,0,0,0,0,0,0,-1,1350,1485,0,0
133,-461,0,0,0,0,0,0,0,0,0,-1,1357,1485,0,0
140,-461,0,0,0,0,0,0,0,0,0,-1,1364,1485,0,0
147,-461,0,0,0,0,0,0,0,0,0,-1,1371,1485,0,0
154,-461,0,0,0,0,0,0,0,0,0,-1,1378,1485,0,0
161,-461,0,0,0,0,0,0,0,0,0,-1,1385,1485,0,0
168,-461,0,0,0,0,0,0,0,0,0,-1,1392,1485,0,0
175,-461,0,0,0,0,0,0,0,0,0,-1,1399,1485,0,0
182,-461,0,0,0,0,0,0,0,0,0,-1,1406,1485,0,0
189,-461,0,0,0,0,0,0,0,0,0,-1,1413,1485,0,0
196,-461,0,0,0,0,0,0,0,0,0,-1,1420,1485,0,0
203,-461,0,0,0,0,0,0,0,0,0,-1,1427,1485,0,0
210,-461,0,0,0,0,0,0,0,0,0,-1,1434,1485,0,0
217,-461,0,0,0,0,0,0,0,0,0,-1,1441,1485,0,0
224,-461,0,0,0,0,0,0,0,0,0,-1,1448,1485,0,0
231,-461,0,0,0,0,0,0,0,0,0,-1,1455,1485,0,0
238,-461,0,0,0,0,0,0,0,0,0,-1,1462,1485,0,0
245,-461,0,0,0,0,0,0,0,0,0,-1,1469,1485,0,0
252,-461,0,0,0,0,0,0,0,0,0,-1,1476,1485,0,0
259,-461,0,0,0,0,0,0,0,0,0,-1,1483,1485,0,0
266,-461,0,0,0,0,0,0,0,0,0,-1,1490,1485,0,0
273,-461,0,0,0,0,0,0,0,0,0,-1,1497,1485,0,0
280,-461,0,0,0,0,0,0,0,0,0,-1,1504,1485,0,0
287,-461,0,0,0,0,0,0,0,0,0,-1,1511,1485,0,0
294,-461,0,0,0,0,0,0,0,0,0,-1,1518,1485,0,0
301,-461,0,0,0,0,0,0,0,0,0,-1,1525,1485,0,0
308,-461,0,0,0,0,0,0,0,0,0,-1,1532,1485,0,0
315,-461,0,0,0,0,0,0,0,0,0,-1,1539,1485,0,0
322,-461,0,0,0,0,0,0,0,0,0,-1,1546,1485,0,0
329,-461,0,0,0,0,0,0,0,0,0,-1,1553,1485,0,0
336,-461,0,0,0,0,0,0,0,0,0,-1,1560,1485,0,0
343,-461,0,0,0,0,0,0,0,0,0,-1,1567,1485,0,0
350,-461,0,0,0,0,0,0,0,0,0,-1,1574,1485,0,0
357,-461,0,0,0,0,0,0,0,0,0,-1,1581,1485,0,0
364,-461,0,0,0,0,0,0,0,0,0,-1,1588,1485,0,0
371,-461,0,0,0,0,0,0,0,0,0,-1,1595,1485,0,0
378,-461,0,0,0,0,0,0,0,0,0,-1,1602,1485,0,0
385,-461,0,0,0,0,0,0,0,0,0,-1,1609,1485,0,0
392,-461,0,0,0,0,0,0,0,0,0,-1,1616,1485,0,0
399,-461,0,0,0,0,0,0,0,0,0,-1,1623,1485,0,0
406,-461,0,0,0,0,0,0,0,0,0,-1,1630,1485,0,0
413,-461,0,0,0,0,0,0,0,0,0,-1,1637,1485,0,0
420,-461,0,0,0,0,0,0,0,0,0,-1,1644,1485,0,0
427,-461,0,0,0,0,0,0,0,0,0,-1,1651,1485,0,0
434,-461,0,0,0,0,0,0,0,0,0,-1,1658,1485,0,0
441,-461,0,0,0,0,0,0,0,0,0,-1,1665,1485,0,0
448,-461,0,0,0,0,0,0,0,0,0,-1,1672,1485,0,0
455,-461,0,0,0,0,0,0,0,0,0,-1,1679,1485,0,0
462,-461,0,0,0,0,0,0,0,0,0,-1,1686,1485,0,0
469,-461,0,0,0,0,0,0,0,0,0,-1,1693,1485,0,0
476,-461,14.1906,0.690552,0,0,0,0,0,0,0,-1,1700,1485,14.1906,-0.690525
483,-461,10.6361,3.09106,0,0,0,0,0,0,0,-1,1707,1485,10.6361,-3.091
490,-461,17.9972,0.665894,0,0,0,0,0,0,0,-1,1714,1485,17.9972,-0.665876
497,-461,16.6829,1.87732,0,0,0,0,0,0,0,-1,1721,1485,16.6828,-1.87736
504,-461,15.3884,3.09216,0,0,0,0,0,0,0,-1,1728,1485,15.3885,-3.09212
511,-461,15.4292,14.3512,0,0,0,0,0,0,0,-1,1735,1485,15.4292,-14.3512
518,-461,14.8081,10.0085,0,0,0,0,0,0,0,-1,1742,1485,14.8081,-10.0086
525,-461,14.0022,10.8033,0,0,0,0,0,0,0,-1,1749,1485,14.0022,-10.8033
532,-461,17.1704,14.077,0,0,0,0,0,0,0,-1,1756,1485,17.1704,-14.077
539,-461,17.0229,14.7386,0,0,0,0,0,0,0,-1,1763,1485,17.0229,-14.7387
546,-461,16.2106,14.1372,0,0,0,0,0,0,0,-1,1770,1485,16.2106,-14.1372
553,-461,17.2616,15.2465,0,0,0,0,0,0,0,-1,1777,1485,17.2615,-15.2464
560,-461,17.3241,14.9906,0,0,0,0,0,0,0,-1,1784,1485,17.3241,-14.9906
567,-461,17.3372,14.5486,-0.00299231,-0.00333959,0.0033774,0.000215906,-0.00654781,0.759715,0.00443892,0.0238784,1791,1485,17.3371,-14.5486
574,-461,17.3374,14.22,-0.00196975,-0.00162307,0.00220272,0.000413127,-0.00400594,0.824664,0.00281845,0.019731,1798,1485,17.3374,-14.22
581,-461,17.3376,13.8467,-0.00107506,-0.00059362,0.00127875,0.000466865,-0.00213555,0.878433,0.00160216,0.0152302,1805,1485,17.3377,-13.8467
588,-461,17.3115,13.5149,-0.000220791,5.00928e-05,0.000504864,0.000437367,-0.000608066,0.916449,0.000606257,0.0112687,1812,1485,17.3115,-13.5149
595,-461,17.2848,13.1548,0.000485769,0.00047172,5.23473e-05,0.000531561,0.000425928,0.718701,0.000324938,0.00898277,1819,1485,17.2848,-13.1548
602,-461,17.29,12.7678,0.00104818,0.000327145,-0.000240365,0.00112096,0.000254363,-0.294021,0.0006786,0.0091374,1826,1485,17.2901,-12.7678
609,-461,17.2996,12.3884,0.00168213,-5.58702e-05,-0.000387762,0.00176472,-0.000138459,-0.209851,0.00122524,0.0106422,1833,1485,17.2996,-12.3884
616,-461,17.3077,12.0181,0.00229874,-0.000520881,-0.000427494,0.00236213,-0.00058427,-0.147208,0.00180138,0.0131668,1840,1485,17.3077,-12.018
623,-461,17.3107,11.6542,0.00293098,-0.00106035,-0.00038983,0.0029687,-0.00109807,-0.0964544,0.00242934,0.0143677,1847,1485,17.3107,-11.6542
630,-461,17.2977,11.2942,0.00360853,-0.00165305,-0.000273702,0.00362273,-0.00166725,-0.0518326,0.00312295,0.0128764,1854,1485,17.2977,-11.2942
637,-461,17.2769,10.9303,0.00434742,-0.00211604,-0.000151875,0.00435098,-0.00211961,-0.0234803,0.00380912,0.0121606,1861,1485,17.2769,-10.9303
644,-461,17.3389,10.6444,0.00530378,-0.00257703,-0.000102685,0.00530512,-0.00257837,-0.0130269,0.0046414,0.0292247,1868,1485,17.3388,-10.6444
651,-461,17.453,10.3014,0,0,0,0,0,0,0,-1,1875,1485,17.453,-10.3013
658,-461,16.8987,10.1084,0,0,0,0,0,0,0,-1,1882,1485,16.8986,-10.1084
665,-461,17.2638,9.81384,0,0,0,0,0,0,0,-1,1889,1485,17.2638,-9.81385
672,-461,14.4877,6.89429,0,0,0,0,0,0,0,-1,1896,1485,14.4876,-6.89431
679,-461,10.0535,2.16321,0,0,0,0,0,0,0,-1,1903,1485,10.0535,-2.16317
686,-461,10.8195,1.84192,0,0,0,0,0,0,0,-1,1910,1485,10.8194,-1.84195
693,-461,0,0,0,0,0,0,0,0,0,-1,1917,1485,0,0
700,-461,0,0,0,0,0,0,0,0,0,-1,1924,1485,0,0
707,-461,0,0,0,0,0,0,0,0,0,-1,1931,1485,0,0
714,-461,0,0,0,0,0,0,0,0,0,-1,1938,1485,0,0
721,-461,0,0,0,0,0,0,0,0,0,-1,1945,1485,0,0
728,-461,0,0,0,0,0,0,0,0,0,-1,1952,1485,0,0
735,-461,0,0,0,0,0,0,0,0,0,-1,1959,1485,0,0
742,-461,0,0,0,0,0,0,0,0,0,-1,1966,1485,0,0
749,-461,0,0,0,0,0,0,0,0,0,-1,1973,1485,0,0
756,-461,0,0,0,0,0,0,0,0,0,-1,1980,1485,0,0
763,-461,0,0,0,0,0,0,0,0,0,-1,1987,1485,0,0
770,-461,0,0,0,0,0,0,0,0,0,-1,1994,1485,0,0
777,-461,0,0,0,0,0,0,0,0,0,-1,2001,1485,0,0
784,-461,0,0,0,0,0,0,0,0,0,-1,2008,1485,0,0
791,-461,0,0,0,0,0,0,0,0,0,-1,2015,1485,0,0
798,-461,0,0,0,0,0,0,0,0,0,-1,2022,1485,0,0
805,-461,0,0,0,0,0,0,0,0,0,-1,2029,1485,0,0
812,-461,0,0,0,0,0,0,0,0,0,-1,2036,1485,0,0
-700,-468,0,0,0,0,0,0,0,0,0,-1,524,1492,0,0
-693,-468,0,0,0,0,0,0,0,0,0,-1,531,1492,0,0
-686,-468,0,0,0,0,0,0,0,0,0,-1,538,1492,0,0
-679,-468,0,0,0,0,0,0,0,0,0,-1,545,1492,0,0
-672,-468,0,0,0,0,0,0,0,0,0,-1,552,1492,0,0
-665,-468,0,0,0,0,0,0,0,0,0,-1,559,1492,0,0
-658,-468,0,0,0,0,0,0,0,0,0,-1,566,1492,0,0
-651,-468,0,0,0,0,0,0,0,0,0,-1,573,1492,0,0
-644,-468,0,0,0,0,0,0,0,0,0,-1,580,1492,0,0
-637,-468,0,0,0,0,0,0,0,0,0,-1,587,1492,0,0
-630,-468,0,0,0,0,0,0,0,0,0,-1,594,1492,0,0
-623,-468,0,0,0,0,0,0,0,0,0,-1,601,1492,0,0
-616,-468,0,0,0,0,0,0,0,0,0,-1,608,1492,0,0
-609,-468,0,0,0,0,0,0,0,0,0,-1,615,1492,0,0
-602,-468,0,0,0,0,0,0,0,0,0,-1,622,1492,0,0
-595,-468,0,0,0,0,0,0,0,0,0,-1,629,1492,0,0
-588,-468,0,0,0,0,0,0,0,0,0,-1,636,1492,0,0
-581,-468,0,0,0,0,0,0,0,0,0,-1,643,1492,0,0
-574,-468,0,0,0,0,0,0,0,0,0,-1,650,1492,0,0
-567,-468,-11.2603,1.8042,0,0,0,0,0,0,0,-1,657,1492,-11.2603,-1.80424
-560,-468,-8.77441,2.23694,0,0,0,0,0,0,0,-1,664,1492,-8.77443,-2.23692
-553,-468,-5.94061,9.26318,0,0,0,0,0,0,0,-1,671,1492,-5.94062,-9.26322
-546,-468,-10.47,5.43237,0,0,0,0,0,0,0,-1,678,1492,-10.47,-5.4324
-539,-468,-10.2468,5.45203,0,0,0,0,0,0,0,-1,685,1492,-10.2468,-5.45197
-532,-468,-7.78821,4.96826,0,0,0,0,0,0,0,-1,692,1492,-7.78822,-4.96825
-525,-468,-6.6037,5.88245,0,0,0,0,0,0,0,-1,699,1492,-6.60369,-5.8825
-518,-468,-5.09113,8.13464,0,0,0,0,0,0,0,-1,706,1492,-5.09114,-8.13462
-511,-468,-4.51093,8.50378,-8.6398e-05,0.0139065,0.00828346,0.0177528,-0.00393274,1.13608,0.0133408,0.0461188,713,1492,-4.51091,-8.5038
-504,-468,-4.67316,9.08679,-3.44967e-06,0.00986515,0.00571415,0.0124806,-0.0026189,1.14154,0.00931688,0.0260819,720,1492,-4.67314,-9.08679
-497,-468,-4.74756,9.51184,0.000185922,0.00693254,0.00392798,0.0087369,-0.00161844,1.14019,0.00643231,0.0128593,727,1492,-4.74759,-9.51185
-490,-468,-4.74377,9.95386,0.000424352,0.00480903,0.0027303,0.00611824,-0.000884865,1.12367,0.00440352,0.00803204,734,1492,-4.74376,-9.95387
-483,-468,-4.76166,10.3551,0.000778327,0.00329285,0.00179954,0.00423082,-0.000159647,1.09031,0.00287524,0.00870013,741,1492,-4.76167,-10.3551
-476,-468,-4.77454,10.7571,0.00142722,0.00168487,0.000678429,0.0022466,0.000865496,0.879224,0.00130841,0.0090516,748,1492,-4.77456,-10.7571
-469,-468,-4.77686,11.1423,0.00219891,0.000371209,-0.000279039,0.00224056,0.000329557,-0.148176,0.00139688,0.0120779,755,1492,-4.77683,-11.1424
-462,-468,-4.74817,11.5629,0.00310539,-0.00113374,-0.00144021,0.0035484,-0.00157675,-0.298412,0.00303111,0.0216567,762,1492,-4.74814,-11.5629
-455,-468,-4.78149,11.9193,0.00427935,-0.0028339,-0.00288925,0.00530501,-0.00385956,-0.341115,0.00531306,0.0247506,769,1492,-4.78152,-11.9193
-448,-468,-4.79218,12.3328,0.00583874,-0.00465459,-0.00448137,0.00749209,-0.00630793,-0.353445,0.00797722,0.0151842,776,1492,-4.79216,-12.3328
-441,-468,-4.80103,12.7585,0.00774578,-0.00694829,-0.00643075,0.0101626,-0.00936514,-0.359496,0.0112775,0.0135942,783,1492,-4.80105,-12.7585
-434,-468,-4.77484,13.2012,0.0100927,-0.00997015,-0.00886701,0.0134498,-0.0133273,-0.361931,0.0154598,0.0160521,790,1492,-4.77483,-13.2012
-427,-468,-4.68854,13.615,0.0128391,-0.0138748,-0.0121225,0.01752,-0.0185557,-0.368494,0.0208312,0.0267996,797,1492,-4.68854,-13.615
-420,-468,-4.61365,13.9452,0.0159231,-0.0186304,-0.0158293,0.0220782,-0.0247855,-0.370853,0.0270718,0.0423683,804,1492,-4.61362,-13.9452
-413,-468,-4.3833,14.3138,0,0,0,0,0,0,0,-1,811,1492,-4.38331,-14.3139
-406,-468,-2.2356,9.396,0,0,0,0,0,0,0,-1,818,1492,-2.2356,-9.396
-399,-468,-0.940369,8.1936,0,0,0,0,0,0,0,-1,825,1492,-0.940365,-8.19357
-392,-468,-0.35144,8.14673,0,0,0,0,0,0,0,-1,832,1492,-0.351449,-8.14674
-385,-468,0.465759,5.35864,0,0,0,0,0,0,0,-1,839,1492,0.465732,-5.35864
-378,-468,1.99835,3.25391,0,0,0,0,0,0,0,-1,846,1492,1.99837,-3.2539
-371,-468,-0.31842,3.1532,0,0,0,0,0,0,0,-1,853,1492,-0.318441,-3.15324
-364,-468,-0.966736,2.14563,0,0,0,0,0,0,0,-1,860,1492,-0.966735,-2.14557
-357,-468,-3.06787,3.22742,0,0,0,0,0,0,0,-1,867,1492,-3.06784,-3.2274
-350,-468,-3.18658,4.12659,0,0,0,0,0,0,0,-1,874,1492,-3.18659,-4.12658
-343,-468,0,0,0,0,0,0,0,0,0,-1,881,1492,0,0
-336,-468,0,0,0,0,0,0,0,0,0,-1,888,1492,0,0
-329,-468,0,0,0,0,0,0,0,0,0,-1,895,1492,0,0
-322,-468,0,0,0,0,0,0,0,0,0,-1,902,1492,0,0
-315,-468,0,0,0,0,0,0,0,0,0,-1,909,1492,0,0
-308,-468,0,0,0,0,0,0,0,0,0,-1,916,1492,0,0
-301,-468,0,0,0,0,0,0,0,0,0,-1,923,1492,0,0
-294,-468,0,0,0,0,0,0,0,0,0,-1,930,1492,0,0
-287,-468,0,0,0,0,0,0,0,0,0,-1,937,1492,0,0
-280,-468,0,0,0,0,0,0,0,0,0,-1,944,1492,0,0
-273,-468,0,0,0,0,0,0,0,0,0,-1,951,1492,0,0
-266,-468,0,0,0,0,0,0,0,0,0,-1,958,1492,0,0
-259,-468,0,0,0,0,0,0,0,0,0,-1,965,1492,0,0
-252,-468,0,0,0,0,0,0,0,0,0,-1,972,1492,0,0
-245,-468,0,0,0,0,0,0,0,0,0,-1,979,1492,0,0
-238,-468,0,0,0,0,0,0,0,0,0,-1,986,1492,0,0
-231,-468,0,0,0,0,0,0,0,0,0,-1,993,1492,0,0
-224,-468,0,0,0,0,0,0,0,0,0,-1,1000,1492,0,0
-217,-468,0,0,0,0,0,0,0,0,0,-1,1007,1492,0,0
-210,-468,0,0,0,0,0,0,0,0,0,-1,1014,1492,0,0
-203,-468,0,0,0,0,0,0,0,0,0,-1,1021,1492,0,0
-196,-468,0,0,0,0,0,0,0,0,0,-1,1028,1492,0,0
-189,-468,0,0,0,0,0,0,0,0,0,-1,1035,1492,0,0
-182,-468,0,0,0,0,0,0,0,0,0,-1,1042,1492,0,0
-175,-468,0,0,0,0,0,0,0,0,0,-1,1049,1492,0,0
-168,-468,0,0,0,0,0,0,0,0,0,-1,1056,1492,0,0
-161,-468,0,0,0,0,0,0,0,0,0,-1,1063,1492,0,0
-154,-468,0,0,0,0,0,0,0,0,0,-1,1070,1492,0,0
-147,-468,0,0,0,0,0,0,0,0,0,-1,1077,1492,0,0
-140,-468,0,0,0,0,0,0,0,0,0,-1,1084,1492,0,0
-133,-468,0,0,0,0,0,0,0,0,0,-1,1091,1492,0,0
-126,-468,0,0,0,0,0,0,0,0,0,-1,1098,1492,0,0
-119,-468,0,0,0,0,0,0,0,0,0,-1,1105,1492,0,0
-112,-468,0,0,0,0,0,0,0,0,0,-1,1112,1492,0,0
-105,-468,0,0,0,0,0,0,0,0,0,-1,1119,1492,0,0
-98,-468,0,0,0,0,0,0,0,0,0,-1,1126,1492,0,0
-91,-468,0,0,0,0,0,0,0,0,0,-1,1133,1492,0,0
-84,-468,0,0,0,0,0,0,0,0,0,-1,1140,1492,0,0
-77,-468,0,0,0,0,0,0,0,0,0,-1,1147,1492,0,0
-70,-468,0,0,0,0,0,0,0,0,0,-1,1154,1492,0,0
-63,-468,0,0,0,0,0,0,0,0,0,-1,1161,1492,0,0
-56,-468,0,0,0,0,0,0,0,0,0,-1,1168,1492,0,0
-49,-468,0,0,0,0,0,0,0,0,0,-1,1175,1492,0,0
-42,-468,0,0,0,0,0,0,0,0,0,-1,1182,1492,0,0
-35,-468,0,0,0,0,0,0,0,0,0,-1,1189,1492,0,0
-28,-468,0,0,0,0,0,0,0,0,0,-1,1196,1492,0,0
-21,-468,0,0,0,0,0,0,0,0,0,-1,1203,1492,0,0
-14,-468,0,0,0,0,0,0,0,0,0,-1,1210,1492,0,0
-7,-468,0,0,0,0,0,0,0,0,0,-1,1217,1492,0,0
0,-468,0,0,0,0,0,0,0,0,0,-1,1224,1492,0,0
7,-468,0,0,0,0,0,0,0,0,0,-1,1231,1492,0,0
14,-468,0,0,0,0,0,0,0,0,0,-1,1238,1492,0,0
21,-468,0,0,0,0,0,0,0,0,0,-1,1245,1492,0,0
28,-468,0,0,0,0,0,0,0,0,0,-1,1252,1492,0,0
35,-468,0,0,0,0,0,0,0,0,0,-1,1259,1492,0,0
42,-468,0,0,0,0,0,0,0,0,0,-1,1266,1492,0,0
49,-468,0,0,0,0,0,0,0,0,0,-1,1273,1492,0,0
56,-468,0,0,0,0,0,0,0,0,0,-1,1280,1492,0,0
63,-468,0,0,0,0,0,0,0,0,0,-1,1287,1492,0,0
70,-468,0,0,0,0,0,0,0,0,0,-1,1294,1492,0,0
77,-468,0,0,0,0,0,0,0,0,0,-1,1301,1492,0,0
84,-468,0,0,0,0,0,0,0,0,0,-1,1308,1492,0,0
91,-468,0,0,0,0,0,0,0,0,0,-1,1315,1492,0,0
98,-468,0,0,0,0,0,0,0,0,0,-1,1322,1492,0,0
105,-468,0,0,0,0,0,0,0,0,0,-1,1329,1492,0,0
112,-468,0,0,0,0,0,0,0,0,0,-1,1336,1492,0,0
119,-468,0,0,0,0,0,0,0,0,0,-1,1343,1492,0,0
126,-468,0,0,0,0,0,0,0,0,0,-1,1350,1492,0,0
133,-468,0,0,0,0,0,0,0,0,0,-1,1357,1492,0,0
140,-468,0,0,0,0,0,0,0,0,0,-1,1364,1492,0,0
147,-468,0,0,0,0,0,0,0,0,0,-1,1371,1492,0,0
154,-468,0,0,0,0,0,0,0,0,0,-1,1378,1492,0,0
161,-468,0,0,0,0,0,0,0,0,0,-1,1385,1492,0,0
168,-468,0,0,0,0,0,0,0,0,0,-1,1392,1492,0,0
175,-468,0,0,0,0,0,0,0,0,0,-1,1399,1492,0,0
182,-468,0,0,0,0,0,0,0,0,0,-1,1406,1492,0,0
189,-468,0,0,0,0,0,0,0,0,0,-1,1413,1492,0,0
196,-468,0,0,0,0,0,0,0,0,0,-1,1420,1492,0,0
203,-468,0,0,0,0,0,0,0,0,0,-1,1427,1492,0,0
210,-468,0,0,0,0,0,0,0,0,0,-1,1434,1492,0,0
217,-468,0,0,0,0,0,0,0,0,0,-1,1441,1492,0,0
224,-468,0,0,0,0,0,0,0,0,0,-1,1448,1492,0,0
231,-468,0,0,0,0,0,0,0,0,0,-1,1455,1492,0,0
238,-468,0,0,0,0,0,0,0,0,0,-1,1462,1492,0,0
245,-468,0,0,0,0,0,0,0,0,0,-1,1469,1492,0,0
252,-468,0,0,0,0,0,0,0,0,0,-1,1476,1492,0,0
259,-468,0,0,0,0,0,0,0,0,0,-1,1483,1492,0,0
266,-468,0,0,0,0,0,0,0,0,0,-1,1490,1492,0,0
273,-468,0,0,0,0,0,0,0,0,0,-1,1497,1492,0,0
280,-468,0,0,0,0,0,0,0,0,0,-1,1504,1492,0,0
287,-468,0,0,0,0,0,0,0,0,0,-1,1511,1492,0,0
294,-468,0,0,0,0,0,0,0,0,0,-1,1518,1492,0,0
301,-468,0,0,0,0,0,0,0,0,0,-1,1525,1492,0,0
308,-468,0,0,0,0,0,0,0,0,0,-1,1532,1492,0,0
315,-468,0,0,0,0,0,0,0,0,0,-1,1539,1492,0,0
322,-468,0,0,0,0,0,0,0,0,0,-1,1546,1492,0,0
329,-468,0,0,0,0,0,0,0,0,0,-1,1553,1492,0,0
336,-468,0,0,0,0,0,0,0,0,0,-1,1560,1492,0,0
343,-468,0,0,0,0,0,0,0,0,0,-1,1567,1492,0,0
350,-468,0,0,0,0,0,0,0,0,0,-1,1574,1492,0,0
357,-468,0,0,0,0,0,0,0,0,0,-1,1581,1492,0,0
364,-468,0,0,0,0,0,0,0,0,0,-1,1588,1492,0,0
371,-468,0,0,0,0,0,0,0,0,0,-1,1595,1492,0,0
378,-468,0,0,0,0,0,0,0,0,0,-1,1602,1492,0,0
385,-468,0,0,0,0,0,0,0,0,0,-1,1609,1492,0,0
392,-468,0,0,0,0,0,0,0,0,0,-1,1616,1492,0,0
399,-468,0,0,0,0,0,0,0,0,0,-1,1623,1492,0,0
406,-468,0,0,0,0,0,0,0,0,0,-1,1630,1492,0,0
413,-468,0,0,0,0,0,0,0,0,0,-1,1637,1492,0,0
420,-468,0,0,0,0,0,0,0,0,0,-1,1644,1492,0,0
427,-468,0,0,0,0,0,0,0,0,0,-1,1651,1492,0,0
434,-468,0,0,0,0,0,0,0,0,0,-1,1658,1492,0,0
441,-468,0,0,0,0,0,0,0,0,0,-1,1665,1492,0,0
448,-468,0,0,0,0,0,0,0,0,0,-1,1672,1492,0,0
455,-468,0,0,0,0,0,0,0,0,0,-1,1679,1492,0,0
462,-468,0,0,0,0,0,0,0,0,0,-1,1686,1492,0,0
469,-468,15.6879,1.2677,0,0,0,0,0,0,0,-1,1693,1492,15.6879,-1.26772
476,-468,14.9318,1.61865,0,0,0,0,0,0,0,-1,1700,1492,14.9318,-1.61869
483,-468,11.265,4.64795,0,0,0,0,0,0,0,-1,1707,1492,11.265,-4.64798
490,-468,12.1316,3.51624,0,0,0,0,0,0,0,-1,1714,1492,12.1316,-3.51628
497,-468,16.5355,3.14587,0,0,0,0,0,0,0,-1,1721,1492,16.5356,-3.14583
504,-468,15.0642,4.10437,0,0,0,0,0,0,0,-1,1728,1492,15.0643,-4.10431
511,-468,15.6877,9.4801,0,0,0,0,0,0,0,-1,1735,1492,15.6878,-9.48007
518,-468,13.759,11.0887,0,0,0,0,0,0,0,-1,1742,1492,13.759,-11.0887
525,-468,16.6531,14.2238,0,0,0,0,0,0,0,-1,1749,1492,16.653,-14.2237
532,-468,16.5864,15.6854,0,0,0,0,0,0,0,-1,1756,1492,16.5864,-15.6854
539,-468,16.705,15.2417,0,0,0,0,0,0,0,-1,1763,1492,16.705,-15.2417
546,-468,16.8236,14.7981,0,0,0,0,0,0,0,-1,1770,1492,16.8236,-14.7981
553,-468,17.1469,15.249,-0.00494945,-0.00847723,0.00616282,-0.000303069,-0.0131236,0.646017,0.00864983,0.0433251,1777,1492,17.1469,-15.249
560,-468,16.9886,14.9519,-0.00336046,-0.00555666,0.00435635,3.40566e-05,-0.00895118,0.661936,0.00597884,0.0306887,1784,1492,16.9887,-14.9519
567,-468,16.9655,14.6322,-0.00218194,-0.00328949,0.0028845,0.000201462,-0.00567289,0.690561,0.00385084,0.0173983,1791,1492,16.9654,-14.6322
574,-468,16.9734,14.2202,-0.00129658,-0.00183551,0.00186451,0.000317842,-0.00344993,0.713634,0.00241289,0.0139167,1798,1492,16.9734,-14.2202
581,-468,16.9613,13.8547,-0.000519146,-0.00097235,0.00106182,0.000339986,-0.00183148,0.680271,0.00134868,0.0146291,1805,1492,16.9613,-13.8547
588,-468,16.942,13.5048,0.00029607,-0.000417706,0.000350625,0.000439488,-0.000561125,0.388273,0.000579126,0.0130871,1812,1492,16.9421,-13.5048
595,-468,16.9426,13.1466,0.00101641,-5.42813e-05,-6.70186e-05,0.00102059,-5.84599e-05,-0.0622697,0.000700693,0.0108092,1819,1492,16.9426,-13.1466
602,-468,16.9371,12.7579,0.00160473,-0.000204107,-0.000356716,0.00167254,-0.000271912,-0.187841,0.00121584,0.00894458,1826,1492,16.9371,-12.758
609,-468,16.9279,12.3844,0.00226718,-0.000580727,-0.000512447,0.00235658,-0.00067013,-0.172723,0.00183567,0.00937466,1833,1492,16.9279,-12.3844
616,-468,16.9286,12.0267,0.00294653,-0.00104185,-0.000574678,0.00302769,-0.001123,-0.140287,0.00247908,0.00931209,1840,1492,16.9286,-12.0268
623,-468,16.9368,11.6594,0.00368897,-0.00159541,-0.000568483,0.00374944,-0.00165587,-0.105963,0.00319783,0.0110226,1847,1492,16.9368,-11.6594
630,-468,16.9342,11.2839,0.00446555,-0.00221787,-0.000440665,0.00449448,-0.0022468,-0.0655559,0.00396353,0.0110005,1854,1492,16.9343,-11.284
637,-468,16.9125,10.9111,0.00534316,-0.00268072,-0.000331467,0.00535683,-0.00269438,-0.0412165,0.00473233,0.0144357,1861,1492,16.9125,-10.9111
644,-468,17.0022,10.6349,0.00649785,-0.00321747,-0.000284439,0.00650617,-0.00322579,-0.029244,0.00572416,0.0427428,1868,1492,17.0021,-10.6349
651,-468,17.2305,10.3179,0,0,0,0,0,0,0,-1,1875,1492,17.2304,-10.3179
658,-468,16.4969,10.0774,0,0,0,0,0,0,0,-1,1882,1492,16.497,-10.0774
665,-468,15.4673,8.59546,0,0,0,0,0,0,0,-1,1889,1492,15.4672,-8.59548
672,-468,9.96814,3.61133,0,0,0,0,0,0,0,-1,1896,1492,9.96817,-3.61139
679,-468,11.2191,1.91968,0,0,0,0,0,0,0,-1,1903,1492,11.2191,-1.91965
686,-468,11.9252,1.42285,0,0,0,0,0,0,0,-1,1910,1492,11.9252,-1.42291
693,-468,0,0,0,0,0,0,0,0,0,-1,1917,1492,0,0
700,-468,0,0,0,0,0,0,0,0,0,-1,1924,1492,0,0
707,-468,0,0,0,0,0,0,0,0,0,-1,1931,1492,0,0
714,-468,0,0,0,0,0,0,0,0,0,-1,1938,1492,0,0
721,-468,0,0,0,0,0,0,0,0,0,-1,1945,1492,0,0
728,-468,0,0,0,0,0,0,0,0,0,-1,1952,1492,0,0
735,-468,0,0,0,0,0,0,0,0,0,-1,1959,1492,0,0
742,-468,0,0,0,0,0,0,0,0,0,-1,1966,1492,0,0
749,-468,0,0,0,0,0,0,0,0,0,-1,1973,1492,0,0
756,-468,0,0,0,0,0,0,0,0,0,-1,1980,1492,0,0
763,-468,0,0,0,0,0,0,0,0,0,-1,1987,1492,0,0
770,-468,0,0,0,0,0,0,0,0,0,-1,1994,1492,0,0
777,-468,0,0,0,0,0,0,0,0,0,-1,2001,1492,0,0
784,-468,0,0,0,0,0,0,0,0,0,-1,2008,1492,0,0
791,-468,0,0,0,0,0,0,0,0,0,-1,2015,1492,0,0
798,-468,0,0,0,0,0,0,0,0,0,-1,2022,1492,0,0
805,-468,0,0,0,0,0,0,0,0,0,-1,2029,1492,0,0
812,-468,0,0,0,0,0,0,0,0,0,-1,2036,1492,0,0
-700,-475,0,0,0,0,0,0,0,0,0,-1,524,1499,0,0
-693,-475,0,0,0,0,0,0,0,0,0,-1,531,1499,0,0
-686,-475,0,0,0,0,0,0,0,0,0,-1,538,1499,0,0
-679,-475,0,0,0,0,0,0,0,0,0,-1,545,1499,0,0
-672,-475,0,0,0,0,0,0,0,0,0,-1,552,1499,0,0
-665,-475,0,0,0,0,0,0,0,0,0,-1,559,1499,0,0
-658,-475,0,0,0,0,0,0,0,0,0,-1,566,1499,0,0
-651,-475,0,0,0,0,0,0,0,0,0,-1,573,1499,0,0
-644,-475,0,0,0,0,0,0,0,0,0,-1,580,1499,0,0
-637,-475,0,0,0,0,0,0,0,0,0,-1,587,1499,0,0
-630,-475,0,0,0,0,0,0,0,0,0,-1,594,1499,0,0
-623,-475,0,0,0,0,0,0,0,0,0,-1,601,1499,0,0
-616,-475,0,0,0,0,0,0,0,0,0,-1,608,1499,0,0
-609,-475,0,0,0,0,0,0,0,0,0,-1,615,1499,0,0
-602,-475,0,0,0,0,0,0,0,0,0,-1,622,1499,0,0
-595,-475,0,0,0,0,0,0,0,0,0,-1,629,1499,0,0
-588,-475,0,0,0,0,0,0,0,0,0,-1,636,1499,0,0
-581,-475,0,0,0,0,0,0,0,0,0,-1,643,1499,0,0
-574,-475,0,0,0,0,0,0,0,0,0,-1,650,1499,0,0
-567,-475,0,0,0,0,0,0,0,0,0,-1,657,1499,0,0
-560,-475,-9.42731,9.29517,0,0,0,0,0,0,0,-1,664,1499,-9.42731,-9.29519
-553,-475,-8.15131,8.78369,0,0,0,0,0,0,0,-1,671,1499,-8.15131,-8.78367
-546,-475,-8.41254,8.20654,0,0,0,0,0,0,0,-1,678,1499,-8.41251,-8.20655
-539,-475,-4.7345,4.17419,0,0,0,0,0,0,0,-1,685,1499,-4.73449,-4.17418
-532,-475,-4.00354,6.03528,0,0,0,0,0,0,0,-1,692,1499,-4.00353,-6.03526
-525,-475,-7.23901,5.08032,0,0,0,0,0,0,0,-1,699,1499,-7.23904,-5.08036
-518,-475,-4.59357,7.05334,0,0,0,0,0,0,0,-1,706,1499,-4.59359,-7.0534
-511,-475,-4.4447,8.06738,0.00195013,0.0162519,0.0105494,0.0218456,-0.00364359,1.08325,0.0159179,0.047976,713,1499,-4.44467,-8.06738
-504,-475,-4.27533,9.21191,0.00125495,0.0111811,0.00712808,0.0149037,-0.0024677,1.08951,0.0108523,0.0348914,720,1499,-4.27536,-9.21187
-497,-475,-4.35321,9.59387,0.000871674,0.0075581,0.004753,0.0100259,-0.00159615,1.0919,0.0072746,0.0234776,727,1499,-4.3532,-9.59388
-490,-475,-4.34662,9.94312,0.00071006,0.00495432,0.00317515,0.00665122,-0.00098684,1.07998,0.00479705,0.00988406,734,1499,-4.34662,-9.9431
-483,-475,-4.34003,10.3857,0.000706838,0.0031595,0.00211001,0.00437367,-0.000507332,1.04864,0.00309876,0.00891632,741,1499,-4.34005,-10.3857
-476,-475,-4.35785,10.7742,0.00102324,0.0016765,0.00105229,0.00245169,0.000248048,0.935883,0.00155837,0.0098884,748,1499,-4.35786,-10.7741
-469,-475,-4.3548,11.1543,0.00157642,0.000422494,0.000147784,0.00159505,0.000403868,0.125375,0.000957566,0.0114023,755,1499,-4.35479,-11.1543
-462,-475,-4.32886,11.5479,0.00227912,-0.000880057,-0.00081645,0.00247765,-0.00107858,-0.238528,0.00210549,0.0160495,762,1499,-4.32884,-11.5478
-455,-475,-4.35669,11.9445,0.0032194,-0.00225795,-0.00195825,0.00384748,-0.00288604,-0.310374,0.00390079,0.0155822,769,1499,-4.35667,-11.9445
-448,-475,-4.40076,12.3617,0.00449919,-0.00350475,-0.00303631,0.00552066,-0.00452622,-0.324524,0.00581003,0.0140728,776,1499,-4.40074,-12.3617
-441,-475,-4.40472,12.8014,0.00610844,-0.00493571,-0.00417844,0.00751115,-0.00633842,-0.323881,0.0080056,0.0168859,783,1499,-4.40471,-12.8013
-434,-475,-4.39679,13.1587,0.00806953,-0.00667633,-0.00550567,0.00989837,-0.00850516,-0.320706,0.0106354,0.0108961,790,1499,-4.39681,-13.1587
-427,-475,-4.34717,13.6328,0.0103485,-0.00870395,-0.00719978,0.0127632,-0.0111187,-0.323597,0.0137991,0.020905,797,1499,-4.34716,-13.6328
-420,-475,-4.25854,14.0624,0.0128608,-0.0111957,-0.00899013,0.0158493,-0.0141842,-0.320922,0.0173487,0.0353105,804,1499,-4.25855,-14.0624
-413,-475,-4.02344,14.5631,0,0,0,0,0,0,0,-1,811,1499,-4.02344,-14.5631
-406,-475,-2.56116,12.4956,0,0,0,0,0,0,0,-1,818,1499,-2.56116,-12.4956
-399,-475,-1.39667,6.1615,0,0,0,0,0,0,0,-1,825,1499,-1.39664,-6.16155
-392,-475,0.217163,8.61389,0,0,0,0,0,0,0,-1,832,1499,0.217167,-8.6139
-385,-475,1.18372,2.73999,0,0,0,0,0,0,0,-1,839,1499,1.18372,-2.73995
-378,-475,1.31409,2.90149,0,0,0,0,0,0,0,-1,846,1499,1.31411,-2.90151
-371,-475,2.3476,3.31116,0,0,0,0,0,0,0,-1,853,1499,2.34761,-3.31121
-364,-475,1.04462,9.05823,0,0,0,0,0,0,0,-1,860,1499,1.04461,-9.05825
-357,-475,-0.262756,7.97205,0,0,0,0,0,0,0,-1,867,1499,-0.262784,-7.97205
-350,-475,-2.77173,4.35486,0,0,0,0,0,0,0,-1,874,1499,-2.77175,-4.35491
-343,-475,-6.81641,-1.95203,0,0,0,0,0,0,0,-1,881,1499,-6.81643,1.95198
-336,-475,0,0,0,0,0,0,0,0,0,-1,888,1499,0,0
-329,-475,0,0,0,0,0,0,0,0,0,-1,895,1499,0,0
-322,-475,0,0,0,0,0,0,0,0,0,-1,902,1499,0,0
-315,-475,0,0,0,0,0,0,0,0,0,-1,909,1499,0,0
-308,-475,0,0,0,0,0,0,0,0,0,-1,916,1499,0,0
-301,-475,0,0,0,0,0,0,0,0,0,-1,923,1499,0,0
-294,-475,0,0,0,0,0,0,0,0,0,-1,930,1499,0,0
-287,-475,0,0,0,0,0,0,0,0,0,-1,937,1499,0,0
-280,-475,0,0,0,0,0,0,0,0,0,-1,944,1499,0,0
-273,-475,0,0,0,0,0,0,0,0,0,-1,951,1499,0,0
-266,-475,0,0,0,0,0,0,0,0,0,-1,958,1499,0,0
-259,-475,0,0,0,0,0,0,0,0,0,-1,965,1499,0,0
-252,-475,0,0,0,0,0,0,0,0,0,-1,972,1499,0,0
-245,-475,0,0,0,0,0,0,0,0,0,-1,979,1499,0,0
-238,-475,0,0,0,0,0,0,0,0,0,-1,986,1499,0,0
-231,-475,0,0,0,0,0,0,0,0,0,-1,993,1499,0,0
-224,-475,0,0,0,0,0,0,0,0,0,-1,1000,1499,0,0
-217,-475,0,0,0,0,0,0,0,0,0,-1,1007,1499,0,0
-210,-475,0,0,0,0,0,0,0,0,0,-1,1014,1499,0,0
-203,-475,0,0,0,0,0,0,0,0,0,-1,1021,1499,0,0
-196,-475,0,0,0,0,0,0,0,0,0,-1,1028,1499,0,0
-189,-475,0,0,0,0,0,0,0,0,0,-1,1035,1499,0,0
-182,-475,0,0,0,0,0,0,0,0,0,-1,1042,1499,0,0
-175,-475,0,0,0,0,0,0,0,0,0,-1,1049,1499,0,0
-168,-475,0,0,0,0,0,0,0,0,0,-1,1056,1499,0,0
-161,-475,0,0,0,0,0,0,0,0,0,-1,1063,1499,0,0
-154,-475,0,0,0,0,0,0,0,0,0,-1,1070,1499,0,0
-147,-475,0,0,0,0,0,0,0,0,0,-1,1077,1499,0,0
-140,-475,0,0,0,0,0,0,0,0,0,-1,1084,1499,0,0
-133,-475,0,0,0,0,0,0,0,0,0,-1,1091,1499,0,0
-126,-475,0,0,0,0,0,0,0,0,0,-1,1098,1499,0,0
-119,-475,0,0,0,0,0,0,0,0,0,-1,1105,1499,0,0
-112,-475,0,0,0,0,0,0,0,0,0,-1,1112,1499,0,0
-105,-475,0,0,0,0,0,0,0,0,0,-1,1119,1499,0,0
-98,-475,0,0,0,0,0,0,0,0,0,-1,1126,1499,0,0
-91,-475,0,0,0,0,0,0,0,0,0,-1,1133,1499,0,0
-84,-475,0,0,0,0,0,0,0,0,0,-1,1140,1499,0,0
-77,-475,0,0,0,0,0,0,0,0,0,-1,1147,1499,0,0
-70,-475,0,0,0,0,0,0,0,0,0,-1,1154,1499,0,0
-63,-475,0,0,0,0,0,0,0,0,0,-1,1161,1499,0,0
-56,-475,0,0,0,0,0,0,0,0,0,-1,1168,1499,0,0
-49,-475,0,0,0,0,0,0,0,0,0,-1,1175,1499,0,0
-42,-475,0,0,0,0,0,0,0,0,0,-1,1182,1499,0,0
-35,-475,0,0,0,0,0,0,0,0,0,-1,1189,1499,0,0
-28,-475,0,0,0,0,0,0,0,0,0,-1,1196,1499,0,0
-21,-475,0,0,0,0,0,0,0,0,0,-1,1203,1499,0,0
-14,-475,0,0,0,0,0,0,0,0,0,-1,1210,1499,0,0
-7,-475,0,0,0,0,0,0,0,0,0,-1,1217,1499,0,0
0,-475,0,0,0,0,0,0,0,0,0,-1,1224,1499,0,0
7,-475,0,0,0,0,0,0,0,0,0,-1,1231,1499,0,0
14,-475,0,0,0,0,0,0,0,0,0,-1,1238,1499,0,0
21,-475,0,0,0,0,0,0,0,0,0,-1,1245,1499,0,0
28,-475,0,0,0,0,0,0,0,0,0,-1,1252,1499,0,0
35,-475,0,0,0,0,0,0,0,0,0,-1,1259,1499,0,0
42,-475,0,0,0,0,0,0,0,0,0,-1,1266,1499,0,0
49,-475,0,0,0,0,0,0,0,0,0,-1,1273,1499,0,0
56,-475,0,0,0,0,0,0,0,0,0,-1,1280,1499,0,0
63,-475,0,0,0,0,0,0,0,0,0,-1,1287,1499,0,0
70,-475,0,0,0,0,0,0,0,0,0,-1,1294,1499,0,0
77,-475,0,0,0,0,0,0,0,0,0,-1,1301,1499,0,0
84,-475,0,0,0,0,0,0,0,0,0,-1,1308,1499,0,0
91,-475,0,0,0,0,0,0,0,0,0,-1,1315,1499,0,0
98,-475,0,0,0,0,0,0,0,0,0,-1,1322,1499,0,0
105,-475,0,0,0,0,0,0,0,0,0,-1,1329,1499,0,0
112,-475,0,0,0,0,0,0,0,0,0,-1,1336,1499,0,0
119,-475,0,0,0,0,0,0,0,0,0,-1,1343,1499,0,0
126,-475,0,0,0,0,0,0,0,0,0,-1,1350,1499,0,0
133,-475,0,0,0,0,0,0,0,0,0,-1,1357,1499,0,0
140,-475,0,0,0,0,0,0,0,0,0,-1,1364,1499,0,0
147,-475,0,0,0,0,0,0,0,0,0,-1,1371,1499,0,0
154,-475,0,0,0,0,0,0,0,0,0,-1,1378,1499,0,0
161,-475,0,0,0,0,0,0,0,0,0,-1,1385,1499,0,0
168,-475,0,0,0,0,0,0,0,0,0,-1,1392,1499,0,0
175,-475,0,0,0,0,0,0,0,0,0,-1,1399,1499,0,0
182,-475,0,0,0,0,0,0,0,0,0,-1,1406,1499,0,0
189,-475,0,0,0,0,0,0,0,0,0,-1,1413,1499,0,0
196,-475,0,0,0,0,0,0,0,0,0,-1,1420,1499,0,0
203,-475,0,0,0,0,0,0,0,0,0,-1,1427,1499,0,0
210,-475,0,0,0,0,0,0,0,0,0,-1,1434,1499,0,0
217,-475,0,0,0,0,0,0,0,0,0,-1,1441,1499,0,0
224,-475,0,0,0,0,0,0,0,0,0,-1,1448,1499,0,0
231,-475,0,0,0,0,0,0,0,0,0,-1,1455,1499,0,0
238,-475,0,0,0,0,0,0,0,0,0,-1,1462,1499,0,0
245,-475,0,0,0,0,0,0,0,0,0,-1,1469,1499,0,0
252,-475,0,0,0,0,0,0,0,0,0,-1,1476,1499,0,0
259,-475,0,0,0,0,0,0,0,0,0,-1,1483,1499,0,0
266,-475,0,0,0,0,0,0,0,0,0,-1,1490,1499,0,0
273,-475,0,0,0,0,0,0,0,0,0,-1,1497,1499,0,0
280,-475,0,0,0,0,0,0,0,0,0,-1,1504,1499,0,0
287,-475,0,0,0,0,0,0,0,0,0,-1,1511,1499,0,0
294,-475,0,0,0,0,0,0,0,0,0,-1,1518,1499,0,0
301,-475,0,0,0,0,0,0,0,0,0,-1,1525,1499,0,0
308,-475,0,0,0,0,0,0,0,0,0,-1,1532,1499,0,0
315,-475,0,0,0,0,0,0,0,0,0,-1,1539,1499,0,0
322,-475,0,0,0,0,0,0,0,0,0,-1,1546,1499,0,0
329,-475,0,0,0,0,0,0,0,0,0,-1,1553,1499,0,0
336,-475,0,0,0,0,0,0,0,0,0,-1,1560,1499,0,0
343,-475,0,0,0,0,0,0,0,0,0,-1,1567,1499,0,0
350,-475,0,0,0,0,0,0,0,0,0,-1,1574,1499,0,0
357,-475,0,0,0,0,0,0,0,0,0,-1,1581,1499,0,0
364,-475,0,0,0,0,0,0,0,0,0,-1,1588,1499,0,0
371,-475,0,0,0,0,0,0,0,0,0,-1,1595,1499,0,0
378,-475,0,0,0,0,0,0,0,0,0,-1,1602,1499,0,0
385,-475,0,0,0,0,0,0,0,0,0,-1,1609,1499,0,0
392,-475,0,0,0,0,0,0,0,0,0,-1,1616,1499,0,0
399,-475,0,0,0,0,0,0,0,0,0,-1,1623,1499,0,0
406,-475,0,0,0,0,0,0,0,0,0,-1,1630,1499,0,0
413,-475,0,0,0,0,0,0,0,0,0,-1,1637,1499,0,0
420,-475,0,0,0,0,0,0,0,0,0,-1,1644,1499,0,0
427,-475,0,0,0,0,0,0,0,0,0,-1,1651,1499,0,0
434,-475,0,0,0,0,0,0,0,0,0,-1,1658,1499,0,0
441,-475,0,0,0,0,0,0,0,0,0,-1,1665,1499,0,0
448,-475,0,0,0,0,0,0,0,0,0,-1,1672,1499,0,0
455,-475,0,0,0,0,0,0,0,0,0,-1,1679,1499,0,0
462,-475,12.6372,0.275391,0,0,0,0,0,0,0,-1,1686,1499,12.6372,-0.27536
469,-475,15.6437,2.28296,0,0,0,0,0,0,0,-1,1693,1499,15.6437,-2.28293
476,-475,15.3302,2.71436,0,0,0,0,0,0,0,-1,1700,1499,15.3303,-2.7143
483,-475,10.7461,5.91479,0,0,0,0,0,0,0,-1,1707,1499,10.7461,-5.91476
490,-475,11.9305,4.4364,0,0,0,0,0,0,0,-1,1714,1499,11.9305,-4.43644
497,-475,15.3451,4.3479,0,0,0,0,0,0,0,-1,1721,1499,15.3451,-4.34789
504,-475,16.9646,7.71265,0,0,0,0,0,0,0,-1,1728,1499,16.9646,-7.71265
511,-475,18.941,12.7572,0,0,0,0,0,0,0,-1,1735,1499,18.941,-12.7572
518,-475,17.0021,13.8564,0,0,0,0,0,0,0,-1,1742,1499,17.0021,-13.8564
525,-475,17.7463,15.323,0,0,0,0,0,0,0,-1,1749,1499,17.7463,-15.3229
532,-475,16.5138,15.6658,0,0,0,0,0,0,0,-1,1756,1499,16.5139,-15.6657
539,-475,16.5227,15.588,-0.00681834,-0.0140741,0.00906699,-0.000680381,-0.0202121,0.595093,0.0132538,0.042158,1763,1499,16.5228,-15.5881
546,-475,16.5542,15.5696,-0.00528828,-0.01009,0.00687678,-0.000405294,-0.014973,0.617452,0.00984965,0.040232,1770,1499,16.5542,-15.5696
553,-475,16.7224,15.3518,-0.00386933,-0.00710134,0.00508818,-0.000146695,-0.010824,0.631636,0.00716759,0.0267554,1777,1499,16.7224,-15.3518
560,-475,16.5148,15.0741,-0.00259876,-0.00480757,0.00360634,6.84864e-05,-0.00747482,0.636812,0.0050062,0.0211388,1784,1499,16.5147,-15.0741
567,-475,16.6349,14.6047,-0.00161666,-0.0029985,0.00238356,0.000174099,-0.00478926,0.64433,0.00325243,0.0146415,1791,1499,16.6349,-14.6048
574,-475,16.6001,14.2252,-0.000819228,-0.00180645,0.00148021,0.000247503,-0.00287319,0.624459,0.00200306,0.0142696,1798,1499,16.6001,-14.2252
581,-475,16.5795,13.8801,-0.000107975,-0.00110535,0.000769387,0.000310203,-0.00152353,0.497856,0.00113333,0.0113029,1805,1499,16.5795,-13.8802
588,-475,16.5757,13.5214,0.000694179,-0.000656119,0.000106423,0.000702516,-0.000664455,0.0781716,0.000789323,0.0100456,1812,1499,16.5757,-13.5214
595,-475,16.5822,13.1582,0.00145339,-0.000391882,-0.000291681,0.00149839,-0.00043689,-0.153099,0.00117202,0.0112131,1819,1499,16.5822,-13.1582
602,-475,16.5839,12.7699,0.00211973,-0.000583928,-0.000593228,0.00224417,-0.000708364,-0.206764,0.00177986,0.0130015,1826,1499,16.5838,-12.7699
609,-475,16.5675,12.4041,0.00287057,-0.000989459,-0.000770944,0.00301885,-0.00113774,-0.190016,0.00248038,0.0124843,1833,1499,16.5675,-12.404
616,-475,16.5542,12.0619,0.00369081,-0.00150093,-0.000868381,0.00383221,-0.00164233,-0.161411,0.00324392,0.0115062,1840,1499,16.5542,-12.0618
623,-475,16.5596,11.6683,0.00464568,-0.00213476,-0.000907699,0.00476509,-0.00225417,-0.130802,0.0041381,0.0115804,1847,1499,16.5596,-11.6683
630,-475,16.5774,11.291,0.00564611,-0.00285885,-0.000790736,0.00571901,-0.00293174,-0.0919237,0.00508019,0.0135436,1854,1499,16.5774,-11.291
637,-475,16.6144,10.9121,0.00680924,-0.00342646,-0.00070127,0.00685707,-0.00347428,-0.0680881,0.00607045,0.0253536,1861,1499,16.6144,-10.9121
644,-475,16.5742,10.7217,0,0,0,0,0,0,0,-1,1868,1499,16.5742,-10.7217
651,-475,11.7965,7.57593,0,0,0,0,0,0,0,-1,1875,1499,11.7965,-7.5759
658,-475,14.6708,8.80322,0,0,0,0,0,0,0,-1,1882,1499,14.6708,-8.8032
665,-475,9.33435,5.43335,0,0,0,0,0,0,0,-1,1889,1499,9.33439,-5.43332
672,-475,9.38635,1.10474,0,0,0,0,0,0,0,-1,1896,1499,9.38629,-1.10475
679,-475,12.2594,1.31079,0,0,0,0,0,0,0,-1,1903,1499,12.2594,-1.31077
686,-475,0,0,0,0,0,0,0,0,0,-1,1910,1499,0,0
693,-475,0,0,0,0,0,0,0,0,0,-1,1917,1499,0,0
700,-475,0,0,0,0,0,0,0,0,0,-1,1924,1499,0,0
707,-475,0,0,0,0,0,0,0,0,0,-1,1931,1499,0,0
714,-475,0,0,0,0,0,0,0,0,0,-1,1938,1499,0,0
721,-475,0,0,0,0,0,0,0,0,0,-1,1945,1499,0,0
728,-475,0,0,0,0,0,0,0,0,0,-1,1952,1499,0,0
735,-475,0,0,0,0,0,0,0,0,0,-1,1959,1499,0,0
742,-475,0,0,0,0,0,0,0,0,0,-1,1966,1499,0,0
749,-475,0,0,0,0,0,0,0,0,0,-1,1973,1499,0,0
756,-475,0,0,0,0,0,0,0,0,0,-1,1980,1499,0,0
763,-475,0,0,0,0,0,0,0,0,0,-1,1987,1499,0,0
770,-475,0,0,0,0,0,0,0,0,0,-1,1994,1499,0,0
777,-475,0,0,0,0,0,0,0,0,0,-1,2001,1499,0,0
784,-475,0,0,0,0,0,0,0,0,0,-1,2008,1499,0,0
791,-475,0,0,0,0,0,0,0,0,0,-1,2015,1499,0,0
798,-475,0,0,0,0,0,0,0,0,0,-1,2022,1499,0,0
805,-475,0,0,0,0,0,0,0,0,0,-1,2029,1499,0,0
812,-475,0,0,0,0,0,0,0,0,0,-1,2036,1499,0,0
-700,-482,0,0,0,0,0,0,0,0,0,-1,524,1506,0,0
-693,-482,0,0,0,0,0,0,0,0,0,-1,531,1506,0,0
-686,-482,0,0,0,0,0,0,0,0,0,-1,538,1506,0,0
-679,-482,0,0,0,0,0,0,0,0,0,-1,545,1506,0,0
-672,-482,0,0,0,0,0,0,0,0,0,-1,552,1506,0,0
-665,-482,0,0,0,0,0,0,0,0,0,-1,559,1506,0,0
-658,-482,0,0,0,0,0,0,0,0,0,-1,566,1506,0,0
-651,-482,0,0,0,0,0,0,0,0,0,-1,573,1506,0,0
-644,-482,0,0,0,0,0,0,0,0,0,-1,580,1506,0,0
-637,-482,0,0,0,0,0,0,0,0,0,-1,587,1506,0,0
-630,-482,0,0,0,0,0,0,0,0,0,-1,594,1506,0,0
-623,-482,0,0,0,0,0,0,0,0,0,-1,601,1506,0,0
-616,-482,0,0,0,0,0,0,0,0,0,-1,608,1506,0,0
-609,-482,0,0,0,0,0,0,0,0,0,-1,615,1506,0,0
-602,-482,0,0,0,0,0,0,0,0,0,-1,622,1506,0,0
-595,-482,0,0,0,0,0,0,0,0,0,-1,629,1506,0,0
-588,-482,0,0,0,0,0,0,0,0,0,-1,636,1506,0,0
-581,-482,0,0,0,0,0,0,0,0,0,-1,643,1506,0,0
-574,-482,0,0,0,0,0,0,0,0,0,-1,650,1506,0,0
-567,-482,0,0,0,0,0,0,0,0,0,-1,657,1506,0,0
-560,-482,0,0,0,0,0,0,0,0,0,-1,664,1506,0,0
-553,-482,-9.06055,9.34314,0,0,0,0,0,0,0,-1,671,1506,-9.06056,-9.34312
-546,-482,-4.08624,8.34241,0,0,0,0,0,0,0,-1,678,1506,-4.08624,-8.3424
-539,-482,-4.29877,2.73499,0,0,0,0,0,0,0,-1,685,1506,-4.29879,-2.73494
-532,-482,-3.63611,4.23987,0,0,0,0,0,0,0,-1,692,1506,-3.63609,-4.23983
-525,-482,-3.09674,5.62305,0,0,0,0,0,0,0,-1,699,1506,-3.09676,-5.62309
-518,-482,-4.74774,5.74902,0,0,0,0,0,0,0,-1,706,1506,-4.74771,-5.74908
-511,-482,-4.33612,7.78784,0,0,0,0,0,0,0,-1,713,1506,-4.33613,-7.78787
-504,-482,-4.07501,8.87122,0.00354363,0.01251,0.00867386,0.0177908,-0.00173713,1.02392,0.0124799,0.0440305,720,1506,-4.07503,-8.8712
-497,-482,-3.85687,9.59619,0.00232287,0.00817064,0.00563551,0.0115956,-0.0011021,1.0247,0.00812274,0.035241,727,1506,-3.85687,-9.59615
-490,-482,-3.95203,9.93091,0.00159186,0.005086,0.00365266,0.0073879,-0.000710034,1.00847,0.0051782,0.0214722,734,1506,-3.95202,-9.93092
-483,-482,-3.93768,10.3744,0.00111229,0.00303022,0.00243592,0.00468914,-0.000546627,0.97292,0.00332332,0.00892539,741,1506,-3.93766,-10.3744
-476,-482,-3.94562,10.7761,0.00102856,0.00163094,0.00139504,0.00275694,-9.74347e-05,0.891716,0.00187128,0.00947202,748,1506,-3.9456,-10.7761
-469,-482,-3.95911,11.1832,0.00131176,0.000408102,0.000515128,0.00154513,0.000174724,0.425385,0.000977069,0.0106461,755,1506,-3.95909,-11.1832
-462,-482,-3.96338,11.5804,0.00177805,-0.000729279,-0.000296822,0.00181271,-0.000763938,-0.116241,0.00152816,0.0111068,762,1506,-3.96339,-11.5804
-455,-482,-3.98022,11.9562,0.00245915,-0.00184973,-0.00120585,0.00277366,-0.00216424,-0.255132,0.00285812,0.0114344,769,1506,-3.98025,-11.9562
-448,-482,-3.98346,12.3822,0.003441,-0.00267187,-0.0019134,0.00399051,-0.00322138,-0.279667,0.00417167,0.01259,776,1506,-3.98347,-12.3822
-441,-482,-3.98407,12.7975,0.00473648,-0.0034848,-0.00249359,0.00543369,-0.004182,-0.272636,0.00556728,0.0126262,783,1506,-3.98409,-12.7975
-434,-482,-4.01392,13.1884,0.00628525,-0.00433449,-0.00309445,0.00712114,-0.00517038,-0.263828,0.00712624,0.0147255,790,1506,-4.01389,-13.1883
-427,-482,-4.02692,13.6207,0.00809729,-0.00515053,-0.00380703,0.00911339,-0.00616663,-0.26082,0.00887644,0.0171298,797,1506,-4.02691,-13.6207
-420,-482,-3.92511,14.1969,0.0100609,-0.00610901,-0.00440623,0.0111836,-0.00723173,-0.249496,0.0107134,0.0371638,804,1506,-3.9251,-14.197
-413,-482,-3.69049,14.7208,0,0,0,0,0,0,0,-1,811,1506,-3.69047,-14.7208
-406,-482,-2.51373,12.7556,0,0,0,0,0,0,0,-1,818,1506,-2.51376,-12.7556
-399,-482,-1.3822,9.22595,0,0,0,0,0,0,0,-1,825,1506,-1.38221,-9.22598
-392,-482,-1.06836,9.22729,0,0,0,0,0,0,0,-1,832,1506,-1.06835,-9.2273
-385,-482,0.0647583,8.90649,0,0,0,0,0,0,0,-1,839,1506,0.0647778,-8.90644
-378,-482,0.215698,5.96948,0,0,0,0,0,0,0,-1,846,1506,0.215681,-5.9695
-371,-482,-0.10907,8.10437,0,0,0,0,0,0,0,-1,853,1506,-0.109063,-8.10433
-364,-482,-0.154968,10.5032,0,0,0,0,0,0,0,-1,860,1506,-0.154976,-10.5032
-357,-482,2.14807,4.60144,0,0,0,0,0,0,0,-1,867,1506,2.14807,-4.60144
-350,-482,-7.5813,-1.45935,0,0,0,0,0,0,0,-1,874,1506,-7.58133,1.45937
-343,-482,-7.19983,-1.26416,0,0,0,0,0,0,0,-1,881,1506,-7.19981,1.26414
-336,-482,-6.78491,-1.18127,0,0,0,0,0,0,0,-1,888,1506,-6.78488,1.18125
-329,-482,0,0,0,0,0,0,0,0,0,-1,895,1506,0,0
-322,-482,0,0,0,0,0,0,0,0,0,-1,902,1506,0,0
-315,-482,0,0,0,0,0,0,0,0,0,-1,909,1506,0,0
-308,-482,0,0,0,0,0,0,0,0,0,-1,916,1506,0,0
-301,-482,0,0,0,0,0,0,0,0,0,-1,923,1506,0,0
-294,-482,0,0,0,0,0,0,0,0,0,-1,930,1506,0,0
-287,-482,0,0,0,0,0,0,0,0,0,-1,937,1506,0,0
-280,-482,0,0,0,0,0,0,0,0,0,-1,944,1506,0,0
-273,-482,0,0,0,0,0,0,0,0,0,-1,951,1506,0,0
-266,-482,0,0,0,0,0,0,0,0,0,-1,958,1506,0,0
-259,-482,0,0,0,0,0,0,0,0,0,-1,965,1506,0,0
-252,-482,0,0,0,0,0,0,0,0,0,-1,972,1506,0,0
-245,-482,0,0,0,0,0,0,0,0,0,-1,979,1506,0,0
-238,-482,0,0,0,0,0,0,0,0,0,-1,986,1506,0,0
-231,-482,0,0,0,0,0,0,0,0,0,-1,993,1506,0,0
-224,-482,0,0,0,0,0,0,0,0,0,-1,1000,1506,0,0
-217,-482,0,0,0,0,0,0,0,0,0,-1,1007,1506,0,0
-210,-482,0,0,0,0,0,0,0,0,0,-1,1014,1506,0,0
-203,-482,0,0,0,0,0,0,0,0,0,-1,1021,1506,0,0
-196,-482,0,0,0,0,0,0,0,0,0,-1,1028,1506,0,0
-189,-482,0,0,0,0,0,0,0,0,0,-1,1035,1506,0,0
-182,-482,0,0,0,0,0,0,0,0,0,-1,1042,1506,0,0
-175,-482,0,0,0,0,0,0,0,0,0,-1,1049,1506,0,0
-168,-482,0,0,0,0,0,0,0,0,0,-1,1056,1506,0,0
-161,-482,0,0,0,0,0,0,0,0,0,-1,1063,1506,0,0
-154,-482,0,0,0,0,0,0,0,0,0,-1,1070,1506,0,0
-147,-482,0,0,0,0,0,0,0,0,0,-1,1077,1506,0,0
-140,-482,0,0,0,0,0,0,0,0,0,-1,1084,1506,0,0
-133,-482,0,0,0,0,0,0,0,0,0,-1,1091,1506,0,0
-126,-482,0,0,0,0,0,0,0,0,0,-1,1098,1506,0,0
-119,-482,0,0,0,0,0,0,0,0,0,-1,1105,1506,0,0
-112,-482,0,0,0,0,0,0,0,0,0,-1,1112,1506,0,0
-105,-482,0,0,0,0,0,0,0,0,0,-1,1119,1506,0,0
-98,-482,0,0,0,0,0,0,0,0,0,-1,1126,1506,0,0
-91,-482,0,0,0,0,0,0,0,0,0,-1,1133,1506,0,0
-84,-482,0,0,0,0,0,0,0,0,0,-1,1140,1506,0,0
-77,-482,0,0,0,0,0,0,0,0,0,-1,1147,1506,0,0
-70,-482,0,0,0,0,0,0,0,0,0,-1,1154,1506,0,0
-63,-482,0,0,0,0,0,0,0,0,0,-1,1161,1506,0,0
-56,-482,0,0,0,0,0,0,0,0,0,-1,1168,1506,0,0
-49,-482,0,0,0,0,0,0,0,0,0,-1,1175,1506,0,0
-42,-482,0,0,0,0,0,0,0,0,0,-1,1182,1506,0,0
-35,-482,0,0,0,0,0,0,0,0,0,-1,1189,1506,0,0
-28,-482,0,0,0,0,0,0,0,0,0,-1,1196,1506,0,0
-21,-482,0,0,0,0,0,0,0,0,0,-1,1203,1506,0,0
-14,-482,0,0,0,0,0,0,0,0,0,-1,1210,1506,0,0
-7,-482,0,0,0,0,0,0,0,0,0,-1,1217,1506,0,0
0,-482,0,0,0,0,0,0,0,0,0,-1,1224,1506,0,0
7,-482,0,0,0,0,0,0,0,0,0,-1,1231,1506,0,0
14,-482,0,0,0,0,0,0,0,0,0,-1,1238,1506,0,0
21,-482,0,0,0,0,0,0,0,0,0,-1,1245,1506,0,0
28,-482,0,0,0,0,0,0,0,0,0,-1,1252,1506,0,0
35,-482,0,0,0,0,0,0,0,0,0,-1,1259,1506,0,0
42,-482,0,0,0,0,0,0,0,0,0,-1,1266,1506,0,0
49,-482,0,0,0,0,0,0,0,0,0,-1,1273,1506,0,0
56,-482,0,0,0,0,0,0,0,0,0,-1,1280,1506,0,0
63,-482,0,0,0,0,0,0,0,0,0,-1,1287,1506,0,0
70,-482,0,0,0,0,0,0,0,0,0,-1,1294,1506,0,0
77,-482,0,0,0,0,0,0,0,0,0,-1,1301,1506,0,0
84,-482,0,0,0,0,0,0,0,0,0,-1,1308,1506,0,0
91,-482,0,0,0,0,0,0,0,0,0,-1,1315,1506,0,0
98,-482,0,0,0,0,0,0,0,0,0,-1,1322,1506,0,0
105,-482,0,0,0,0,0,0,0,0,0,-1,1329,1506,0,0
112,-482,0,0,0,0,0,0,0,0,0,-1,1336,1506,0,0
119,-482,0,0,0,0,0,0,0,0,0,-1,1343,1506,0,0
126,-482,0,0,0,0,0,0,0,0,0,-1,1350,1506,0,0
133,-482,0,0,0,0,0,0,0,0,0,-1,1357,1506,0,0
140,-482,0,0,0,0,0,0,0,0,0,-1,1364,1506,0,0
147,-482,0,0,0,0,0,0,0,0,0,-1,1371,1506,0,0
154,-482,0,0,0,0,0,0,0,0,0,-1,1378,1506,0,0
161,-482,0,0,0,0,0,0,0,0,0,-1,1385,1506,0,0
168,-482,0,0,0,0,0,0,0,0,0,-1,1392,1506,0,0
175,-482,0,0,0,0,0,0,0,0,0,-1,1399,1506,0,0
182,-482,0,0,0,0,0,0,0,0,0,-1,1406,1506,0,0
189,-482,0,0,0,0,0,0,0,0,0,-1,1413,1506,0,0
196,-482,0,0,0,0,0,0,0,0,0,-1,1420,1506,0,0
203,-482,0,0,0,0,0,0,0,0,0,-1,1427,1506,0,0
210,-482,0,0,0,0,0,0,0,0,0,-1,1434,1506,0,0
217,-482,0,0,0,0,0,0,0,0,0,-1,1441,1506,0,0
224,-482,0,0,0,0,0,0,0,0,0,-1,1448,1506,0,0
231,-482,0,0,0,0,0,0,0,0,0,-1,1455,1506,0,0
238,-482,0,0,0,0,0,0,0,0,0,-1,1462,1506,0,0
245,-482,0,0,0,0,0,0,0,0,0,-1,1469,1506,0,0
252,-482,0,0,0,0,0,0,0,0,0,-1,1476,1506,0,0
259,-482,0,0,0,0,0,0,0,0,0,-1,1483,1506,0,0
266,-482,0,0,0,0,0,0,0,0,0,-1,1490,1506,0,0
273,-482,0,0,0,0,0,0,0,0,0,-1,1497,1506,0,0
280,-482,0,0,0,0,0,0,0,0,0,-1,1504,1506,0,0
287,-482,0,0,0,0,0,0,0,0,0,-1,1511,1506,0,0
294,-482,0,0,0,0,0,0,0,0,0,-1,1518,1506,0,0
301,-482,0,0,0,0,0,0,0,0,0,-1,1525,1506,0,0
308,-482,0,0,0,0,0,0,0,0,0,-1,1532,1506,0,0
315,-482,0,0,0,0,0,0,0,0,0,-1,1539,1506,0,0
322,-482,0,0,0,0,0,0,0,0,0,-1,1546,1506,0,0
329,-482,0,0,0,0,0,0,0,0,0,-1,1553,1506,0,0
336,-482,0,0,0,0,0,0,0,0,0,-1,1560,1506,0,0
343,-482,0,0,0,0,0,0,0,0,0,-1,1567,1506,0,0
350,-482,0,0,0,0,0,0,0,0,0,-1,1574,1506,0,0
357,-482,0,0,0,0,0,0,0,0,0,-1,1581,1506,0,0
364,-482,0,0,0,0,0,0,0,0,0,-1,1588,1506,0,0
371,-482,0,0,0,0,0,0,0,0,0,-1,1595,1506,0,0
378,-482,0,0,0,0,0,0,0,0,0,-1,1602,1506,0,0
385,-482,0,0,0,0,0,0,0,0,0,-1,1609,1506,0,0
392,-482,0,0,0,0,0,0,0,0,0,-1,1616,1506,0,0
399,-482,0,0,0,0,0,0,0,0,0,-1,1623,1506,0,0
406,-482,0,0,0,0,0,0,0,0,0,-1,1630,1506,0,0
413,-482,0,0,0,0,0,0,0,0,0,-1,1637,1506,0,0
420,-482,0,0,0,0,0,0,0,0,0,-1,1644,1506,0,0
427,-482,0,0,0,0,0,0,0,0,0,-1,1651,1506,0,0
434,-482,0,0,0,0,0,0,0,0,0,-1,1658,1506,0,0
441,-482,0,0,0,0,0,0,0,0,0,-1,1665,1506,0,0
448,-482,4.24146,1.55383,0,0,0,0,0,0,0,-1,1672,1506,4.24149,-1.55381
455,-482,12.4122,1.09729,0,0,0,0,0,0,0,-1,1679,1506,12.4122,-1.09734
462,-482,15.0673,3.13135,0,0,0,0,0,0,0,-1,1686,1506,15.0672,-3.13134
469,-482,15.3793,3.46301,0,0,0,0,0,0,0,-1,1693,1506,15.3793,-3.46307
476,-482,8.69751,9.18738,0,0,0,0,0,0,0,-1,1700,1506,8.69753,-9.18739
483,-482,10.0902,7.17432,0,0,0,0,0,0,0,-1,1707,1506,10.0902,-7.1743
490,-482,11.6289,5.4928,0,0,0,0,0,0,0,-1,1714,1506,11.6289,-5.49283
497,-482,15.9539,7.40222,0,0,0,0,0,0,0,-1,1721,1506,15.9538,-7.40219
504,-482,20.4233,12.006,0,0,0,0,0,0,0,-1,1728,1506,20.4233,-12.006
511,-482,18.4937,12.9175,0,0,0,0,0,0,0,-1,1735,1506,18.4936,-12.9174
518,-482,16.6002,13.9679,0,0,0,0,0,0,0,-1,1742,1506,16.6003,-13.9679
525,-482,16.9209,15.1997,0,0,0,0,0,0,0,-1,1749,1506,16.9209,-15.1997
532,-482,16.3751,16.2849,0,0,0,0,0,0,0,-1,1756,1506,16.3751,-16.2849
539,-482,16.3502,16.0072,-0.00485103,-0.010255,0.00688144,-0.00016011,-0.0149459,0.598322,0.009911,0.0334336,1763,1506,16.3503,-16.0073
546,-482,16.2726,15.7476,-0.00381304,-0.00760114,0.00533517,-4.56874e-05,-0.0113685,0.614832,0.00756381,0.0200132,1770,1506,16.2726,-15.7476
553,-482,16.2104,15.3284,-0.00279688,-0.0055397,0.00401844,7.77245e-05,-0.0084143,0.620956,0.00563562,0.019332,1777,1506,16.2104,-15.3284
560,-482,16.197,15.0184,-0.00183522,-0.00386116,0.00285669,0.000182781,-0.00587916,0.615016,0.00398176,0.0136418,1784,1506,16.197,-15.0185
567,-482,16.2568,14.6313,-0.00103182,-0.00251786,0.00186943,0.000236837,-0.00378653,0.596242,0.00260688,0.0153568,1791,1506,16.2568,-14.6313
574,-482,16.2482,14.2648,-0.000293037,-0.00160433,0.00106338,0.000300579,-0.00219795,0.509142,0.00157508,0.0140328,1798,1506,16.2482,-14.2647
581,-482,16.2246,13.9066,0.000375141,-0.00109033,0.000428249,0.000491109,-0.0012063,0.264455,0.00100858,0.0095222,1805,1506,16.2246,-13.9066
588,-482,16.2026,13.548,0.0011729,-0.000783089,-0.00018995,0.00119118,-0.000801365,-0.0959176,0.00115771,0.0101761,1812,1506,16.2026,-13.548
595,-482,16.1998,13.1749,0.00198323,-0.000667312,-0.000582536,0.00210561,-0.000789691,-0.207069,0.0017282,0.0155221,1819,1506,16.1998,-13.1749
602,-482,16.2324,12.7644,0.00275627,-0.000943537,-0.000913312,0.00296944,-0.00115671,-0.229301,0.00245767,0.0201925,1826,1506,16.2325,-12.7644
609,-482,16.2001,12.4045,0.00362794,-0.00141919,-0.00113476,0.00387134,-0.00166258,-0.211288,0.00327874,0.016339,1833,1506,16.2,-12.4046
616,-482,16.1588,12.0546,0.0046316,-0.00202745,-0.00129503,0.00487459,-0.00227043,-0.185474,0.00421553,0.0119258,1840,1506,16.1588,-12.0545
623,-482,16.1531,11.6923,0.00585491,-0.00277737,-0.00142603,0.00608439,-0.00300684,-0.159552,0.00534814,0.0129623,1847,1506,16.153,-11.6923
630,-482,16.2104,11.3441,0.00715081,-0.00365154,-0.00137584,0.00732329,-0.00382402,-0.124713,0.00654075,0.0254327,1854,1506,16.2105,-11.3442
637,-482,16.3038,11.0289,0.00868864,-0.00439118,-0.001357,0.00882794,-0.00453048,-0.102296,0.00784439,0.047932,1861,1506,16.3039,-11.029
644,-482,16.381,10.8042,0,0,0,0,0,0,0,-1,1868,1506,16.381,-10.8042
651,-482,4.03845,7.05273,0,0,0,0,0,0,0,-1,1875,1506,4.03843,-7.05279
658,-482,10.0278,5.87903,0,0,0,0,0,0,0,-1,1882,1506,10.0279,-5.87902
665,-482,8.15198,3.22229,0,0,0,0,0,0,0,-1,1889,1506,8.15199,-3.22232
672,-482,9.87415,1.3147,0,0,0,0,0,0,0,-1,1896,1506,9.87416,-1.31473
679,-482,0,0,0,0,0,0,0,0,0,-1,1903,1506,0,0
686,-482,0,0,0,0,0,0,0,0,0,-1,1910,1506,0,0
693,-482,0,0,0,0,0,0,0,0,0,-1,1917,1506,0,0
700,-482,0,0,0,0,0,0,0,0,0,-1,1924,1506,0,0
707,-482,0,0,0,0,0,0,0,0,0,-1,1931,1506,0,0
714,-482,0,0,0,0,0,0,0,0,0,-1,1938,1506,0,0
721,-482,0,0,0,0,0,0,0,0,0,-1,1945,1506,0,0
728,-482,0,0,0,0,0,0,0,0,0,-1,1952,1506,0,0
735,-482,0,0,0,0,0,0,0,0,0,-1,1959,1506,0,0
742,-482,0,0,0,0,0,0,0,0,0,-1,1966,1506,0,0
749,-482,0,0,0,0,0,0,0,0,0,-1,1973,1506,0,0
756,-482,0,0,0,0,0,0,0,0,0,-1,1980,1506,0,0
763,-482,0,0,0,0,0,0,0,0,0,-1,1987,1506,0,0
770,-482,0,0,0,0,0,0,0,0,0,-1,1994,1506,0,0
777,-482,0,0,0,0,0,0,0,0,0,-1,2001,1506,0,0
784,-482,0,0,0,0,0,0,0,0,0,-1,2008,1506,0,0
791,-482,0,0,0,0,0,0,0,0,0,-1,2015,1506,0,0
798,-482,0,0,0,0,0,0,0,0,0,-1,2022,1506,0,0
805,-482,0,0,0,0,0,0,0,0,0,-1,2029,1506,0,0
812,-482,0,0,0,0,0,0,0,0,0,-1,2036,1506,0,0
-700,-489,0,0,0,0,0,0,0,0,0,-1,524,1513,0,0
-693,-489,0,0,0,0,0,0,0,0,0,-1,531,1513,0,0
-686,-489,0,0,0,0,0,0,0,0,0,-1,538,1513,0,0
-679,-489,0,0,0,0,0,0,0,0,0,-1,545,1513,0,0
-672,-489,0,0,0,0,0,0,0,0,0,-1,552,1513,0,0
-665,-489,0,0,0,0,0,0,0,0,0,-1,559,1513,0,0
-658,-489,0,0,0,0,0,0,0,0,0,-1,566,1513,0,0
-651,-489,0,0,0,0,0,0,0,0,0,-1,573,1513,0,0
-644,-489,0,0,0,0,0,0,0,0,0,-1,580,1513,0,0
-637,-489,0,0,0,0,0,0,0,0,0,-1,587,1513,0,0
-630,-489,0,0,0,0,0,0,0,0,0,-1,594,1513,0,0
-623,-489,0,0,0,0,0,0,0,0,0,-1,601,1513,0,0
-616,-489,0,0,0,0,0,0,0,0,0,-1,608,1513,0,0
-609,-489,0,0,0,0,0,0,0,0,0,-1,615,1513,0,0
-602,-489,0,0,0,0,0,0,0,0,0,-1,622,1513,0,0
-595,-489,0,0,0,0,0,0,0,0,0,-1,629,1513,0,0
-588,-489,0,0,0,0,0,0,0,0,0,-1,636,1513,0,0
-581,-489,0,0,0,0,0,0,0,0,0,-1,643,1513,0,0
-574,-489,0,0,0,0,0,0,0,0,0,-1,650,1513,0,0
-567,-489,0,0,0,0,0,0,0,0,0,-1,657,1513,0,0
-560,-489,0,0,0,0,0,0,0,0,0,-1,664,1513,0,0
-553,-489,-9.42206,8.5116,0,0,0,0,0,0,0,-1,671,1513,-9.42205,-8.51158
-546,-489,-7.80951,8.18506,0,0,0,0,0,0,0,-1,678,1513,-7.8095,-8.18503
-539,-489,-3.06879,2.82349,0,0,0,0,0,0,0,-1,685,1513,-3.06881,-2.82354
-532,-489,-3.14215,2.5835,0,0,0,0,0,0,0,-1,692,1513,-3.14213,-2.58353
-525,-489,-2.604,4.06274,0,0,0,0,0,0,0,-1,699,1513,-2.60399,-4.06274
-518,-489,-5.94751,7.97607,0,0,0,0,0,0,0,-1,706,1513,-5.94753,-7.97609
-511,-489,-4.2146,9.43323,0,0,0,0,0,0,0,-1,713,1513,-4.2146,-9.43319
-504,-489,-3.16467,8.85229,0,0,0,0,0,0,0,-1,720,1513,-3.16468,-8.85228
-497,-489,-3.24121,9.40833,0.00448911,0.00904032,0.00643643,0.0135916,-6.2143e-05,0.955316,0.00908183,0.0459061,727,1513,-3.2412,-9.40831
-490,-489,-3.41077,9.9585,0.00312397,0.00553923,0.00412247,0.00862731,3.58904e-05,0.927882,0.00573961,0.0291784,734,1513,-3.41075,-9.9585
-483,-489,-3.55725,10.3445,0.0021588,0.00328585,0.00280939,0.00558767,-0.000143022,0.884378,0.00377369,0.0128634,741,1513,-3.55728,-10.3444
-476,-489,-3.55621,10.7693,0.00162666,0.00195527,0.00177223,0.0035708,1.11335e-05,0.831621,0.00237683,0.00949431,748,1513,-3.55623,-10.7692
-469,-489,-3.56836,11.183,0.0015695,0.000740951,0.000891639,0.00213841,0.000172045,0.567925,0.00137186,0.0104729,755,1513,-3.56837,-11.183
-462,-489,-3.58051,11.598,0.00174575,-0.000285733,0.000180083,0.00176159,-0.000301573,0.0877343,0.00128675,0.0143384,762,1513,-3.58048,-11.5981
-455,-489,-3.58411,11.9834,0.00212196,-0.00124691,-0.000575754,0.00221764,-0.00134259,-0.164679,0.00207609,0.0179025,769,1513,-3.58411,-11.9834
-448,-489,-3.60242,12.3816,0.0027662,-0.00183405,-0.0010548,0.00299652,-0.00206438,-0.214984,0.00293838,0.0162565,776,1513,-3.60243,-12.3816
-441,-489,-3.58929,12.7988,0.00371207,-0.00230638,-0.00129379,0.00397841,-0.00257272,-0.203024,0.00381121,0.0145304,783,1513,-3.58928,-12.7988
-434,-489,-3.64935,13.1971,0.00482455,-0.00265157,-0.00146697,0.00510209,-0.00292912,-0.186987,0.00469305,0.016717,790,1513,-3.64934,-13.1971
-427,-489,-3.67102,13.61,0.00618072,-0.00283869,-0.00159789,0.00645544,-0.00311341,-0.17026,0.00563578,0.0188029,797,1513,-3.67102,-13.61
-420,-489,-3.65588,14.1111,0.00765214,-0.0030221,-0.00154437,0.00787109,-0.00324105,-0.140836,0.00659862,0.0212406,804,1513,-3.65589,-14.1111
-413,-489,-3.61743,14.6681,0,0,0,0,0,0,0,-1,811,1513,-3.61745,-14.6681
-406,-489,-2.61365,14.45,0,0,0,0,0,0,0,-1,818,1513,-2.61365,-14.45
-399,-489,-1.41241,9.10718,0,0,0,0,0,0,0,-1,825,1513,-1.41244,-9.10722
-392,-489,-1.0368,9.30469,0,0,0,0,0,0,0,-1,832,1513,-1.03682,-9.30466
-385,-489,-1.75165,10.6559,0,0,0,0,0,0,0,-1,839,1513,-1.75165,-10.6559
-378,-489,-0.401428,9.87048,0,0,0,0,0,0,0,-1,846,1513,-0.401415,-9.87047
-371,-489,-1.11633,10.6606,0,0,0,0,0,0,0,-1,853,1513,-1.11633,-10.6606
-364,-489,-0.503113,8.98486,0,0,0,0,0,0,0,-1,860,1513,-0.503097,-8.98482
-357,-489,-0.609924,10.9606,0,0,0,0,0,0,0,-1,867,1513,-0.609947,-10.9605
-350,-489,-7.94659,-0.358887,0,0,0,0,0,0,0,-1,874,1513,-7.94657,0.358912
-343,-489,-7.49323,-0.437866,0,0,0,0,0,0,0,-1,881,1513,-7.49322,0.437823
-336,-489,-7.02332,-0.53125,0,0,0,0,0,0,0,-1,888,1513,-7.0233,0.531295
-329,-489,-6.70221,-0.242432,0,0,0,0,0,0,0,-1,895,1513,-6.70221,0.2424
-322,-489,0,0,0,0,0,0,0,0,0,-1,902,1513,0,0
-315,-489,0,0,0,0,0,0,0,0,0,-1,909,1513,0,0
-308,-489,0,0,0,0,0,0,0,0,0,-1,916,1513,0,0
-301,-489,0,0,0,0,0,0,0,0,0,-1,923,1513,0,0
-294,-489,0,0,0,0,0,0,0,0,0,-1,930,1513,0,0
-287,-489,0,0,0,0,0,0,0,0,0,-1,937,1513,0,0
-280,-489,0,0,0,0,0,0,0,0,0,-1,944,1513,0,0
-273,-489,0,0,0,0,0,0,0,0,0,-1,951,1513,0,0
-266,-489,0,0,0,0,0,0,0,0,0,-1,958,1513,0,0
-259,-489,0,0,0,0,0,0,0,0,0,-1,965,1513,0,0
-252,-489,0,0,0,0,0,0,0,0,0,-1,972,1513,0,0
-245,-489,0,0,0,0,0,0,0,0,0,-1,979,1513,0,0
-238,-489,0,0,0,0,0,0,0,0,0,-1,986,1513,0,0
-231,-489,0,0,0,0,0,0,0,0,0,-1,993,1513,0,0
-224,-489,0,0,0,0,0,0,0,0,0,-1,1000,1513,0,0
-217,-489,0,0,0,0,0,0,0,0,0,-1,1007,1513,0,0
-210,-489,0,0,0,0,0,0,0,0,0,-1,1014,1513,0,0
-203,-489,0,0,0,0,0,0,0,0,0,-1,1021,1513,0,0
-196,-489,0,0,0,0,0,0,0,0,0,-1,1028,1513,0,0
-189,-489,0,0,0,0,0,0,0,0,0,-1,1035,1513,0,0
-182,-489,0,0,0,0,0,0,0,0,0,-1,1042,1513,0,0
-175,-489,0,0,0,0,0,0,0,0,0,-1,1049,1513,0,0
-168,-489,0,0,0,0,0,0,0,0,0,-1,1056,1513,0,0
-161,-489,0,0,0,0,0,0,0,0,0,-1,1063,1513,0,0
-154,-489,0,0,0,0,0,0,0,0,0,-1,1070,1513,0,0
-147,-489,0,0,0,0,0,0,0,0,0,-1,1077,1513,0,0
-140,-489,0,0,0,0,0,0,0,0,0,-1,1084,1513,0,0
-133,-489,0,0,0,0,0,0,0,0,0,-1,1091,1513,0,0
-126,-489,0,0,0,0,0,0,0,0,0,-1,1098,1513,0,0
-119,-489,0,0,0,0,0,0,0,0,0,-1,1105,1513,0,0
-112,-489,0,0,0,0,0,0,0,0,0,-1,1112,1513,0,0
-105,-489,0,0,0,0,0,0,0,0,0,-1,1119,1513,0,0
-98,-489,0,0,0,0,0,0,0,0,0,-1,1126,1513,0,0
-91,-489,0,0,0,0,0,0,0,0,0,-1,1133,1513,0,0
-84,-489,0,0,0,0,0,0,0,0,0,-1,1140,1513,0,0
-77,-489,0,0,0,0,0,0,0,0,0,-1,1147,1513,0,0
-70,-489,0,0,0,0,0,0,0,0,0,-1,1154,1513,0,0
-63,-489,0,0,0,0,0,0,0,0,0,-1,1161,1513,0,0
-56,-489,0,0,0,0,0,0,0,0,0,-1,1168,1513,0,0
-49,-489,0,0,0,0,0,0,0,0,0,-1,1175,1513,0,0
-42,-489,0,0,0,0,0,0,0,0,0,-1,1182,1513,0,0
-35,-489,0,0,0,0,0,0,0,0,0,-1,1189,1513,0,0
-28,-489,0,0,0,0,0,0,0,0,0,-1,1196,1513,0,0
-21,-489,0,0,0,0,0,0,0,0,0,-1,1203,1513,0,0
-14,-489,0,0,0,0,0,0,0,0,0,-1,1210,1513,0,0
-7,-489,0,0,0,0,0,0,0,0,0,-1,1217,1513,0,0
0,-489,0,0,0,0,0,0,0,0,0,-1,1224,1513,0,0
7,-489,0,0,0,0,0,0,0,0,0,-1,1231,1513,0,0
14,-489,0,0,0,0,0,0,0,0,0,-1,1238,1513,0,0
21,-489,0,0,0,0,0,0,0,0,0,-1,1245,1513,0,0
28,-489,0,0,0,0,0,0,0,0,0,-1,1252,1513,0,0
35,-489,0,0,0,0,0,0,0,0,0,-1,1259,1513,0,0
42,-489,0,0,0,0,0,0,0,0,0,-1,1266,1513,0,0
49,-489,0,0,0,0,0,0,0,0,0,-1,1273,1513,0,0
56,-489,0,0,0,0,0,0,0,0,0,-1,1280,1513,0,0
63,-489,0,0,0,0,0,0,0,0,0,-1,1287,1513,0,0
70,-489,0,0,0,0,0,0,0,0,0,-1,1294,1513,0,0
77,-489,0,0,0,0,0,0,0,0,0,-1,1301,1513,0,0
84,-489,0,0,0,0,0,0,0,0,0,-1,1308,1513,0,0
91,-489,0,0,0,0,0,0,0,0,0,-1,1315,1513,0,0
98,-489,0,0,0,0,0,0,0,0,0,-1,1322,1513,0,0
105,-489,0,0,0,0,0,0,0,0,0,-1,1329,1513,0,0
112,-489,0,0,0,0,0,0,0,0,0,-1,1336,1513,0,0
119,-489,0,0,0,0,0,0,0,0,0,-1,1343,1513,0,0
126,-489,0,0,0,0,0,0,0,0,0,-1,1350,1513,0,0
133,-489,0,0,0,0,0,0,0,0,0,-1,1357,1513,0,0
140,-489,0,0,0,0,0,0,0,0,0,-1,1364,1513,0,0
147,-489,0,0,0,0,0,0,0,0,0,-1,1371,1513,0,0
154,-489,0,0,0,0,0,0,0,0,0,-1,1378,1513,0,0
161,-489,0,0,0,0,0,0,0,0,0,-1,1385,1513,0,0
168,-489,0,0,0,0,0,0,0,0,0,-1,1392,1513,0,0
175,-489,0,0,0,0,0,0,0,0,0,-1,1399,1513,0,0
182,-489,0,0,0,0,0,0,0,0,0,-1,1406,1513,0,0
189,-489,0,0,0,0,0,0,0,0,0,-1,1413,1513,0,0
196,-489,0,0,0,0,0,0,0,0,0,-1,1420,1513,0,0
203,-489,0,0,0,0,0,0,0,0,0,-1,1427,1513,0,0
210,-489,0,0,0,0,0,0,0,0,0,-1,1434,1513,0,0
217,-489,0,0,0,0,0,0,0,0,0,-1,1441,1513,0,0
224,-489,0,0,0,0,0,0,0,0,0,-1,1448,1513,0,0
231,-489,0,0,0,0,0,0,0,0,0,-1,1455,1513,0,0
238,-489,0,0,0,0,0,0,0,0,0,-1,1462,1513,0,0
245,-489,0,0,0,0,0,0,0,0,0,-1,1469,1513,0,0
252,-489,0,0,0,0,0,0,0,0,0,-1,1476,1513,0,0
259,-489,0,0,0,0,0,0,0,0,0,-1,1483,1513,0,0
266,-489,0,0,0,0,0,0,0,0,0,-1,1490,1513,0,0
273,-489,0,0,0,0,0,0,0,0,0,-1,1497,1513,0,0
280,-489,0,0,0,0,0,0,0,0,0,-1,1504,1513,0,0
287,-489,0,0,0,0,0,0,0,0,0,-1,1511,1513,0,0
294,-489,0,0,0,0,0,0,0,0,0,-1,1518,1513,0,0
301,-489,0,0,0,0,0,0,0,0,0,-1,1525,1513,0,0
308,-489,0,0,0,0,0,0,0,0,0,-1,1532,1513,0,0
315,-489,0,0,0,0,0,0,0,0,0,-1,1539,1513,0,0
322,-489,0,0,0,0,0,0,0,0,0,-1,1546,1513,0,0
329,-489,0,0,0,0,0,0,0,0,0,-1,1553,1513,0,0
336,-489,0,0,0,0,0,0,0,0,0,-1,1560,1513,0,0
343,-489,0,0,0,0,0,0,0,0,0,-1,1567,1513,0,0
350,-489,0,0,0,0,0,0,0,0,0,-1,1574,1513,0,0
357,-489,0,0,0,0,0,0,0,0,0,-1,1581,1513,0,0
364,-489,0,0,0,0,0,0,0,0,0,-1,1588,1513,0,0
371,-489,0,0,0,0,0,0,0,0,0,-1,1595,1513,0,0
378,-489,0,0,0,0,0,0,0,0,0,-1,1602,1513,0,0
385,-489,0,0,0,0,0,0,0,0,0,-1,1609,1513,0,0
392,-489,0,0,0,0,0,0,0,0,0,-1,1616,1513,0,0
399,-489,0,0,0,0,0,0,0,0,0,-1,1623,1513,0,0
406,-489,0,0,0,0,0,0,0,0,0,-1,1630,1513,0,0
413,-489,0,0,0,0,0,0,0,0,0,-1,1637,1513,0,0
420,-489,0,0,0,0,0,0,0,0,0,-1,1644,1513,0,0
427,-489,0,0,0,0,0,0,0,0,0,-1,1651,1513,0,0
434,-489,0,0,0,0,0,0,0,0,0,-1,1658,1513,0,0
441,-489,11.4602,2.56787,0,0,0,0,0,0,0,-1,1665,1513,11.4602,-2.56786
448,-489,12.4425,1.72351,0,0,0,0,0,0,0,-1,1672,1513,12.4425,-1.72349
455,-489,12.5575,1.37463,0,0,0,0,0,0,0,-1,1679,1513,12.5575,-1.37469
462,-489,14.9784,3.84888,0,0,0,0,0,0,0,-1,1686,1513,14.9784,-3.84892
469,-489,15.1367,4.53101,0,0,0,0,0,0,0,-1,1693,1513,15.1368,-4.531
476,-489,15.5536,5.09338,0,0,0,0,0,0,0,-1,1700,1513,15.5536,-5.09339
483,-489,8.96912,8.37805,0,0,0,0,0,0,0,-1,1707,1513,8.96909,-8.37809
490,-489,10.5366,7.49561,0,0,0,0,0,0,0,-1,1714,1513,10.5367,-7.49558
497,-489,14.6051,11.8397,0,0,0,0,0,0,0,-1,1721,1513,14.6051,-11.8397
504,-489,16.7527,14.1735,0,0,0,0,0,0,0,-1,1728,1513,16.7527,-14.1735
511,-489,17.83,17.7993,0,0,0,0,0,0,0,-1,1735,1513,17.83,-17.7993
518,-489,16.4751,14.3682,0,0,0,0,0,0,0,-1,1742,1513,16.4751,-14.3682
525,-489,16.4623,16.6749,0,0,0,0,0,0,0,-1,1749,1513,16.4622,-16.675
532,-489,16.2874,16.2467,-0.00394293,-0.00913953,0.00614446,0.000130013,-0.0132125,0.585366,0.00885197,0.0449391,1756,1513,16.2874,-16.2468
539,-489,15.9329,16.0735,-0.00324897,-0.00711891,0.00498289,0.000161461,-0.0105293,0.600198,0.007074,0.0211179,1763,1513,15.9329,-16.0735
546,-489,15.8478,15.8083,-0.0025696,-0.00542458,0.00394495,0.000198184,-0.00819237,0.6118,0.00552882,0.0153269,1770,1513,15.8478,-15.8084
553,-489,15.8359,15.3896,-0.0018473,-0.00406993,0.00301819,0.000257674,-0.0061749,0.608998,0.00420512,0.0159554,1777,1513,15.836,-15.3896
560,-489,15.8591,15.0176,-0.0011122,-0.00289437,0.00213765,0.000312654,-0.00431922,0.587924,0.00298916,0.0138076,1784,1513,15.8591,-15.0176
567,-489,15.8756,14.6619,-0.00043061,-0.00196598,0.00136447,0.000367313,-0.0027639,0.529157,0.00197645,0.0150495,1791,1513,15.8756,-14.6619
574,-489,15.8475,14.3162,0.000293692,-0.00131939,0.000649668,0.000522804,-0.00154851,0.339042,0.00124379,0.0147792,1798,1513,15.8476,-14.3162
581,-489,15.8588,13.9392,0.000958023,-0.000997467,8.59935e-05,0.000961797,-0.00100124,0.0438626,0.00113344,0.0106571,1805,1513,15.8587,-13.9392
588,-489,15.8358,13.5669,0.00177341,-0.000851803,-0.000483939,0.00185978,-0.000938173,-0.176612,0.00164435,0.0126854,1812,1513,15.8358,-13.5669
595,-489,15.8384,13.1851,0.00265506,-0.000918965,-0.000880281,0.0028601,-0.00112401,-0.228855,0.00237191,0.0179295,1819,1513,15.8384,-13.185
602,-489,15.8488,12.7852,0.00356949,-0.00131209,-0.00125496,0.00387322,-0.00161582,-0.237456,0.0032572,0.0240439,1826,1513,15.8487,-12.7851
609,-489,15.8303,12.4192,0.00461105,-0.00188915,-0.00155039,0.0049619,-0.00224,-0.222551,0.00425586,0.0174072,1833,1513,15.8304,-12.4192
616,-489,15.8162,12.0376,0.00586299,-0.00261517,-0.00182558,0.00623938,-0.00299156,-0.203325,0.00543833,0.0137876,1840,1513,15.8162,-12.0376
623,-489,15.7976,11.6703,0.00744095,-0.00350219,-0.00212138,0.0078378,-0.00389904,-0.184933,0.00690229,0.02384,1847,1513,15.7976,-11.6702
630,-489,15.7933,11.2161,0,0,0,0,0,0,0,-1,1854,1513,15.7933,-11.216
637,-489,15.9994,10.9978,0,0,0,0,0,0,0,-1,1861,1513,15.9994,-10.9979
644,-489,9.67578,8.45874,0,0,0,0,0,0,0,-1,1868,1513,9.67576,-8.45879
651,-489,6.13818,6.85095,0,0,0,0,0,0,0,-1,1875,1513,6.13823,-6.85097
658,-489,5.43848,7.75513,0,0,0,0,0,0,0,-1,1882,1513,5.43844,-7.75509
665,-489,5.48438,8.59912,0,0,0,0,0,0,0,-1,1889,1513,5.48434,-8.59907
672,-489,0,0,0,0,0,0,0,0,0,-1,1896,1513,0,0
679,-489,0,0,0,0,0,0,0,0,0,-1,1903,1513,0,0
686,-489,0,0,0,0,0,0,0,0,0,-1,1910,1513,0,0
693,-489,0,0,0,0,0,0,0,0,0,-1,1917,1513,0,0
700,-489,0,0,0,0,0,0,0,0,0,-1,1924,1513,0,0
707,-489,0,0,0,0,0,0,0,0,0,-1,1931,1513,0,0
714,-489,0,0,0,0,0,0,0,0,0,-1,1938,1513,0,0
721,-489,0,0,0,0,0,0,0,0,0,-1,1945,1513,0,0
728,-489,0,0,0,0,0,0,0,0,0,-1,1952,1513,0,0
735,-489,0,0,0,0,0,0,0,0,0,-1,1959,1513,0,0
742,-489,0,0,0,0,0,0,0,0,0,-1,1966,1513,0,0
749,-489,0,0,0,0,0,0,0,0,0,-1,1973,1513,0,0
756,-489,0,0,0,0,0,0,0,0,0,-1,1980,1513,0,0
763,-489,0,0,0,0,0,0,0,0,0,-1,1987,1513,0,0
770,-489,0,0,0,0,0,0,0,0,0,-1,1994,1513,0,0
777,-489,0,0,0,0,0,0,0,0,0,-1,2001,1513,0,0
784,-489,0,0,0,0,0,0,0,0,0,-1,2008,1513,0,0
791,-489,0,0,0,0,0,0,0,0,0,-1,2015,1513,0,0
798,-489,0,0,0,0,0,0,0,0,0,-1,2022,1513,0,0
805,-489,0,0,0,0,0,0,0,0,0,-1,2029,1513,0,0
812,-489,0,0,0,0,0,0,0,0,0,-1,2036,1513,0,0
-700,-496,0,0,0,0,0,0,0,0,0,-1,524,1520,0,0
-693,-496,0,0,0,0,0,0,0,0,0,-1,531,1520,0,0
-686,-496,0,0,0,0,0,0,0,0,0,-1,538,1520,0,0
-679,-496,0,0,0,0,0,0,0,0,0,-1,545,1520,0,0
-672,-496,0,0,0,0,0,0,0,0,0,-1,552,1520,0,0
-665,-496,0,0,0,0,0,0,0,0,0,-1,559,1520,0,0
-658,-496,0,0,0,0,0,0,0,0,0,-1,566,1520,0,0
-651,-496,0,0,0,0,0,0,0,0,0,-1,573,1520,0,0
-644,-496,0,0,0,0,0,0,0,0,0,-1,580,1520,0,0
-637,-496,0,0,0,0,0,0,0,0,0,-1,587,1520,0,0
-630,-496,0,0,0,0,0,0,0,0,0,-1,594,1520,0,0
-623,-496,0,0,0,0,0,0,0,0,0,-1,601,1520,0,0
-616,-496,0,0,0,0,0,0,0,0,0,-1,608,1520,0,0
-609,-496,0,0,0,0,0,0,0,0,0,-1,615,1520,0,0
-602,-496,0,0,0,0,0,0,0,0,0,-1,622,1520,0,0
-595,-496,0,0,0,0,0,0,0,0,0,-1,629,1520,0,0
-588,-496,0,0,0,0,0,0,0,0,0,-1,636,1520,0,0
-581,-496,0,0,0,0,0,0,0,0,0,-1,643,1520,0,0
-574,-496,0,0,0,0,0,0,0,0,0,-1,650,1520,0,0
-567,-496,0,0,0,0,0,0,0,0,0,-1,657,1520,0,0
-560,-496,0,0,0,0,0,0,0,0,0,-1,664,1520,0,0
-553,-496,0,0,0,0,0,0,0,0,0,-1,671,1520,0,0
-546,-496,-8.09711,7.94836,0,0,0,0,0,0,0,-1,678,1520,-8.09712,-7.94842
-539,-496,-3.20129,1.16052,0,0,0,0,0,0,0,-1,685,1520,-3.20131,-1.16054
-532,-496,-2.98279,2.62146,0,0,0,0,0,0,0,-1,692,1520,-2.98278,-2.62151
-525,-496,-2.75201,4.08032,0,0,0,0,0,0,0,-1,699,1520,-2.75201,-4.08031
-518,-496,-2.6333,5.36072,0,0,0,0,0,0,0,-1,706,1520,-2.63328,-5.36077
-511,-496,-5.47473,8.00757,0,0,0,0,0,0,0,-1,713,1520,-5.47471,-8.00762
-504,-496,-2.61359,8.58398,0,0,0,0,0,0,0,-1,720,1520,-2.61359,-8.58399
-497,-496,-2.69495,9.19348,0,0,0,0,0,0,0,-1,727,1520,-2.69496,-9.19343
-490,-496,-2.77637,9.80286,0,0,0,0,0,0,0,-1,734,1520,-2.77634,-9.80288
-483,-496,-3.12592,10.4623,0.00384037,0.00413312,0.00349481,0.00748462,0.000488873,0.806328,0.00483503,0.0222962,741,1520,-3.12589,-10.4623
-476,-496,-3.18884,10.771,0.0028371,0.00287655,0.00247126,0.00532817,0.000385483,0.789388,0.00343084,0.0121288,748,1520,-3.18885,-10.771
-469,-496,-3.19318,11.1918,0.00242206,0.00167095,0.00157614,0.00366676,0.000426242,0.668441,0.00231554,0.0104604,755,1520,-3.19315,-11.1918
-462,-496,-3.1972,11.613,0.0022967,0.000711127,0.000913893,0.00271375,0.000294074,0.42812,0.00171955,0.014641,762,1520,-3.19721,-11.6131
-455,-496,-3.19257,12.0153,0.002354,-0.000176025,0.000230931,0.00237491,-0.00019693,0.0902822,0.00165283,0.0201756,769,1520,-3.19255,-12.0153
-448,-496,-3.20673,12.4349,0.00264157,-0.000692671,-0.000160273,0.00264926,-0.000700358,-0.0479215,0.0020401,0.0192453,776,1520,-3.20671,-12.4349
-441,-496,-3.19531,12.8234,0.00321681,-0.00105829,-0.000266386,0.00323334,-0.00107483,-0.0619913,0.0025893,0.0146382,783,1520,-3.19533,-12.8234
-434,-496,-3.23334,13.1993,0.00388378,-0.00121267,-0.000275358,0.00389861,-0.00122751,-0.0538205,0.0030906,0.0138772,790,1520,-3.23333,-13.1994
-427,-496,-3.255,13.6018,0.00480893,-0.00117468,-0.000139198,0.00481216,-0.00117791,-0.0232465,0.00366441,0.0178283,797,1520,-3.25498,-13.6018
-420,-496,-3.23303,14.0034,0.00585865,-0.00106677,0.000175551,0.0058631,-0.00107121,0.0253271,0.0043104,0.0186209,804,1520,-3.23305,-14.0034
-413,-496,-3.16541,14.4517,0.00714438,-0.000783423,0.00090509,0.0072464,-0.000885441,0.112242,0.0051515,0.0241883,811,1520,-3.16537,-14.4517
-406,-496,-3.0434,15.0405,0,0,0,0,0,0,0,-1,818,1520,-3.04338,-15.0405
-399,-496,-2.7373,15.6372,0,0,0,0,0,0,0,-1,825,1520,-2.73733,-15.6372
-392,-496,-1.49786,12.387,0,0,0,0,0,0,0,-1,832,1520,-1.49788,-12.387
-385,-496,-1.72437,11.4985,0,0,0,0,0,0,0,-1,839,1520,-1.72436,-11.4985
-378,-496,-1.45532,14.0719,0,0,0,0,0,0,0,-1,846,1520,-1.45533,-14.0719
-371,-496,0.0877075,12.5299,0,0,0,0,0,0,0,-1,853,1520,0.0876896,-12.5299
-364,-496,0.0881348,10.6422,0,0,0,0,0,0,0,-1,860,1520,0.0881368,-10.6423
-357,-496,0.323792,7.56812,0,0,0,0,0,0,0,-1,867,1520,0.323782,-7.56806
-350,-496,2.1535,7.18945,0,0,0,0,0,0,0,-1,874,1520,2.15348,-7.1894
-343,-496,-7.56244,0.335327,0,0,0,0,0,0,0,-1,881,1520,-7.56242,-0.335322
-336,-496,-3.99249,6.02222,0,0,0,0,0,0,0,-1,888,1520,-3.99246,-6.0222
-329,-496,-6.93689,-0.100342,0,0,0,0,0,0,0,-1,895,1520,-6.93686,0.1003
-322,-496,-6.17505,0.494385,0,0,0,0,0,0,0,-1,902,1520,-6.17507,-0.49437
-315,-496,-5.08313,3.47058,0,0,0,0,0,0,0,-1,909,1520,-5.0831,-3.47058
-308,-496,0,0,0,0,0,0,0,0,0,-1,916,1520,0,0
-301,-496,0,0,0,0,0,0,0,0,0,-1,923,1520,0,0
-294,-496,0,0,0,0,0,0,0,0,0,-1,930,1520,0,0
-287,-496,0,0,0,0,0,0,0,0,0,-1,937,1520,0,0
-280,-496,0,0,0,0,0,0,0,0,0,-1,944,1520,0,0
-273,-496,0,0,0,0,0,0,0,0,0,-1,951,1520,0,0
-266,-496,0,0,0,0,0,0,0,0,0,-1,958,1520,0,0
-259,-496,0,0,0,0,0,0,0,0,0,-1,965,1520,0,0
-252,-496,0,0,0,0,0,0,0,0,0,-1,972,1520,0,0
-245,-496,0,0,0,0,0,0,0,0,0,-1,979,1520,0,0
-238,-496,0,0,0,0,0,0,0,0,0,-1,986,1520,0,0
-231,-496,0,0,0,0,0,0,0,0,0,-1,993,1520,0,0
-224,-496,0,0,0,0,0,0,0,0,0,-1,1000,1520,0,0
-217,-496,0,0,0,0,0,0,0,0,0,-1,1007,1520,0,0
-210,-496,0,0,0,0,0,0,0,0,0,-1,1014,1520,0,0
-203,-496,0,0,0,0,0,0,0,0,0,-1,1021,1520,0,0
-196,-496,0,0,0,0,0,0,0,0,0,-1,1028,1520,0,0
-189,-496,0,0,0,0,0,0,0,0,0,-1,1035,1520,0,0
-182,-496,0,0,0,0,0,0,0,0,0,-1,1042,1520,0,0
-175,-496,0,0,0,0,0,0,0,0,0,-1,1049,1520,0,0
-168,-496,0,0,0,0,0,0,0,0,0,-1,1056,1520,0,0
-161,-496,0,0,0,0,0,0,0,0,0,-1,1063,1520,0,0
-154,-496,0,0,0,0,0,0,0,0,0,-1,1070,1520,0,0
-147,-496,0,0,0,0,0,0,0,0,0,-1,1077,1520,0,0
-140,-496,0,0,0,0,0,0,0,0,0,-1,1084,1520,0,0
-133,-496,0,0,0,0,0,0,0,0,0,-1,1091,1520,0,0
-126,-496,0,0,0,0,0,0,0,0,0,-1,1098,1520,0,0
-119,-496,0,0,0,0,0,0,0,0,0,-1,1105,1520,0,0
-112,-496,0,0,0,0,0,0,0,0,0,-1,1112,1520,0,0
-105,-496,0,0,0,0,0,0,0,0,0,-1,1119,1520,0,0
-98,-496,0,0,0,0,0,0,0,0,0,-1,1126,1520,0,0
-91,-496,0,0,0,0,0,0,0,0,0,-1,1133,1520,0,0
-84,-496,0,0,0,0,0,0,0,0,0,-1,1140,1520,0,0
-77,-496,0,0,0,0,0,0,0,0,0,-1,1147,1520,0,0
-70,-496,0,0,0,0,0,0,0,0,0,-1,1154,1520,0,0
-63,-496,0,0,0,0,0,0,0,0,0,-1,1161,1520,0,0
-56,-496,0,0,0,0,0,0,0,0,0,-1,1168,1520,0,0
-49,-496,0,0,0,0,0,0,0,0,0,-1,1175,1520,0,0
-42,-496,0,0,0,0,0,0,0,0,0,-1,1182,1520,0,0
-35,-496,0,0,0,0,0,0,0,0,0,-1,1189,1520,0,0
-28,-496,0,0,0,0,0,0,0,0,0,-1,1196,1520,0,0
-21,-496,0,0,0,0,0,0,0,0,0,-1,1203,1520,0,0
-14,-496,0,0,0,0,0,0,0,0,0,-1,1210,1520,0,0
-7,-496,0,0,0,0,0,0,0,0,0,-1,1217,1520,0,0
0,-496,0,0,0,0,0,0,0,0,0,-1,1224,1520,0,0
7,-496,0,0,0,0,0,0,0,0,0,-1,1231,1520,0,0
14,-496,0,0,0,0,0,0,0,0,0,-1,1238,1520,0,0
21,-496,0,0,0,0,0,0,0,0,0,-1,1245,1520,0,0
28,-496,0,0,0,0,0,0,0,0,0,-1,1252,1520,0,0
35,-496,0,0,0,0,0,0,0,0,0,-1,1259,1520,0,0
42,-496,0,0,0,0,0,0,0,0,0,-1,1266,1520,0,0
49,-496,0,0,0,0,0,0,0,0,0,-1,1273,1520,0,0
56,-496,0,0,0,0,0,0,0,0,0,-1,1280,1520,0,0
63,-496,0,0,0,0,0,0,0,0,0,-1,1287,1520,0,0
70,-496,0,0,0,0,0,0,0,0,0,-1,1294,1520,0,0
77,-496,0,0,0,0,0,0,0,0,0,-1,1301,1520,0,0
84,-496,0,0,0,0,0,0,0,0,0,-1,1308,1520,0,0
91,-496,0,0,0,0,0,0,0,0,0,-1,1315,1520,0,0
98,-496,0,0,0,0,0,0,0,0,0,-1,1322,1520,0,0
105,-496,0,0,0,0,0,0,0,0,0,-1,1329,1520,0,0
112,-496,0,0,0,0,0,0,0,0,0,-1,1336,1520,0,0
119,-496,0,0,0,0,0,0,0,0,0,-1,1343,1520,0,0
126,-496,0,0,0,0,0,0,0,0,0,-1,1350,1520,0,0
133,-496,0,0,0,0,0,0,0,0,0,-1,1357,1520,0,0
140,-496,0,0,0,0,0,0,0,0,0,-1,1364,1520,0,0
147,-496,0,0,0,0,0,0,0,0,0,-1,1371,1520,0,0
154,-496,0,0,0,0,0,0,0,0,0,-1,1378,1520,0,0
161,-496,0,0,0,0,0,0,0,0,0,-1,1385,1520,0,0
168,-496,0,0,0,0,0,0,0,0,0,-1,1392,1520,0,0
175,-496,0,0,0,0,0,0,0,0,0,-1,1399,1520,0,0
182,-496,0,0,0,0,0,0,0,0,0,-1,1406,1520,0,0
189,-496,0,0,0,0,0,0,0,0,0,-1,1413,1520,0,0
196,-496,0,0,0,0,0,0,0,0,0,-1,1420,1520,0,0
203,-496,0,0,0,0,0,0,0,0,0,-1,1427,1520,0,0
210,-496,0,0,0,0,0,0,0,0,0,-1,1434,1520,0,0
217,-496,0,0,0,0,0,0,0,0,0,-1,1441,1520,0,0
224,-496,0,0,0,0,0,0,0,0,0,-1,1448,1520,0,0
231,-496,0,0,0,0,0,0,0,0,0,-1,1455,1520,0,0
238,-496,0,0,0,0,0,0,0,0,0,-1,1462,1520,0,0
245,-496,0,0,0,0,0,0,0,0,0,-1,1469,1520,0,0
252,-496,0,0,0,0,0,0,0,0,0,-1,1476,1520,0,0
259,-496,0,0,0,0,0,0,0,0,0,-1,1483,1520,0,0
266,-496,0,0,0,0,0,0,0,0,0,-1,1490,1520,0,0
273,-496,0,0,0,0,0,0,0,0,0,-1,1497,1520,0,0
280,-496,0,0,0,0,0,0,0,0,0,-1,1504,1520,0,0
287,-496,0,0,0,0,0,0,0,0,0,-1,1511,1520,0,0
294,-496,0,0,0,0,0,0,0,0,0,-1,1518,1520,0,0
301,-496,0,0,0,0,0,0,0,0,0,-1,1525,1520,0,0
308,-496,0,0,0,0,0,0,0,0,0,-1,1532,1520,0,0
315,-496,0,0,0,0,0,0,0,0,0,-1,1539,1520,0,0
322,-496,0,0,0,0,0,0,0,0,0,-1,1546,1520,0,0
329,-496,0,0,0,0,0,0,0,0,0,-1,1553,1520,0,0
336,-496,0,0,0,0,0,0,0,0,0,-1,1560,1520,0,0
343,-496,0,0,0,0,0,0,0,0,0,-1,1567,1520,0,0
350,-496,0,0,0,0,0,0,0,0,0,-1,1574,1520,0,0
357,-496,0,0,0,0,0,0,0,0,0,-1,1581,1520,0,0
364,-496,0,0,0,0,0,0,0,0,0,-1,1588,1520,0,0
371,-496,0,0,0,0,0,0,0,0,0,-1,1595,1520,0,0
378,-496,0,0,0,0,0,0,0,0,0,-1,1602,1520,0,0
385,-496,0,0,0,0,0,0,0,0,0,-1,1609,1520,0,0
392,-496,0,0,0,0,0,0,0,0,0,-1,1616,1520,0,0
399,-496,0,0,0,0,0,0,0,0,0,-1,1623,1520,0,0
406,-496,0,0,0,0,0,0,0,0,0,-1,1630,1520,0,0
413,-496,0,0,0,0,0,0,0,0,0,-1,1637,1520,0,0
420,-496,0,0,0,0,0,0,0,0,0,-1,1644,1520,0,0
427,-496,0,0,0,0,0,0,0,0,0,-1,1651,1520,0,0
434,-496,11.0457,3.37732,0,0,0,0,0,0,0,-1,1658,1520,11.0456,-3.37736
441,-496,11.788,2.75488,0,0,0,0,0,0,0,-1,1665,1520,11.7879,-2.75485
448,-496,12.2146,2.18494,0,0,0,0,0,0,0,-1,1672,1520,12.2146,-2.18489
455,-496,12.3489,1.65173,0,0,0,0,0,0,0,-1,1679,1520,12.3489,-1.65178
462,-496,12.1912,1.32361,0,0,0,0,0,0,0,-1,1686,1520,12.1911,-1.32357
469,-496,14.8138,5.77954,0,0,0,0,0,0,0,-1,1693,1520,14.8138,-5.77958
476,-496,15.2449,6.27942,0,0,0,0,0,0,0,-1,1700,1520,15.2449,-6.27936
483,-496,9.19812,6.88367,0,0,0,0,0,0,0,-1,1707,1520,9.19812,-6.88361
490,-496,10.2123,7.97144,0,0,0,0,0,0,0,-1,1714,1520,10.2122,-7.97145
497,-496,13.9297,12.2981,0,0,0,0,0,0,0,-1,1721,1520,13.9297,-12.2982
504,-496,16.3271,16.6501,0,0,0,0,0,0,0,-1,1728,1520,16.3272,-16.6502
511,-496,16.7263,17.4911,0,0,0,0,0,0,0,-1,1735,1520,16.7263,-17.4911
518,-496,16.0439,16.2972,0,0,0,0,0,0,0,-1,1742,1520,16.044,-16.2972
525,-496,15.2622,16.7946,0,0,0,0,0,0,0,-1,1749,1520,15.2622,-16.7946
532,-496,15.5149,16.472,-0.00243409,-0.00580012,0.00423124,0.00043657,-0.00867078,0.596112,0.0059314,0.0410031,1756,1520,15.5149,-16.472
539,-496,15.5016,16.161,-0.00201114,-0.0046935,0.00352411,0.000418366,-0.00712301,0.603574,0.00489409,0.0174976,1763,1520,15.5016,-16.161
546,-496,15.4536,15.7584,-0.00154092,-0.00367431,0.00281902,0.00040647,-0.00562169,0.604527,0.00389037,0.0111499,1770,1520,15.4536,-15.7584
553,-496,15.4861,15.3636,-0.00101665,-0.00282772,0.00215023,0.000410939,-0.00425532,0.586102,0.00298331,0.0154044,1777,1520,15.486,-15.3636
560,-496,15.5155,15.0223,-0.000437492,-0.00203167,0.0014659,0.000434012,-0.00290318,0.53638,0.00209516,0.0143369,1784,1520,15.5155,-15.0223
567,-496,15.5084,14.6547,0.000168328,-0.00144418,0.000853104,0.000535885,-0.00181174,0.406813,0.00142055,0.011395,1791,1520,15.5085,-14.6546
574,-496,15.4993,14.2789,0.000909143,-0.00102822,0.000195656,0.000928705,-0.00104778,0.0996505,0.00114181,0.0119234,1798,1520,15.4992,-14.2789
581,-496,15.4941,13.9369,0.00160013,-0.000876712,-0.000322722,0.00164149,-0.000918071,-0.127461,0.00149731,0.0135099,1805,1520,15.4942,-13.9369
588,-496,15.4857,13.5765,0.00245505,-0.00089296,-0.00085462,0.00266058,-0.00109849,-0.236016,0.00223189,0.0158636,1812,1520,15.4857,-13.5765
595,-496,15.4773,13.2024,0.00343634,-0.00115763,-0.00127627,0.00376709,-0.00148838,-0.253576,0.00312788,0.0164285,1819,1520,15.4773,-13.2024
602,-496,15.4724,12.811,0.00454662,-0.001677,-0.001723,0.00499179,-0.00212217,-0.252838,0.00421716,0.0177689,1826,1520,15.4724,-12.811
609,-496,15.4727,12.4398,0.00582365,-0.00236885,-0.00214037,0.00634914,-0.00289434,-0.24075,0.00545956,0.0155061,1833,1520,15.4727,-12.4398
616,-496,15.4993,11.994,0.00741357,-0.00323528,-0.00258861,0.00800948,-0.00383119,-0.226264,0.00697665,0.0231804,1840,1520,15.4993,-11.994
623,-496,15.4623,11.6848,0.00947887,-0.00430029,-0.00314154,0.0101613,-0.00498274,-0.21391,0.00891219,0.0373233,1847,1520,15.4623,-11.6849
630,-496,15.5752,11.3485,0,0,0,0,0,0,0,-1,1854,1520,15.5753,-11.3485
637,-496,13.8105,9.92615,0,0,0,0,0,0,0,-1,1861,1520,13.8105,-9.92612
644,-496,12.4537,10.087,0,0,0,0,0,0,0,-1,1868,1520,12.4537,-10.0871
651,-496,8.18506,5.47803,0,0,0,0,0,0,0,-1,1875,1520,8.18505,-5.47806
658,-496,7.79993,4.02563,0,0,0,0,0,0,0,-1,1882,1520,7.79997,-4.02568
665,-496,5.47583,7.90625,0,0,0,0,0,0,0,-1,1889,1520,5.47581,-7.90628
672,-496,0,0,0,0,0,0,0,0,0,-1,1896,1520,0,0
679,-496,0,0,0,0,0,0,0,0,0,-1,1903,1520,0,0
686,-496,0,0,0,0,0,0,0,0,0,-1,1910,1520,0,0
693,-496,0,0,0,0,0,0,0,0,0,-1,1917,1520,0,0
700,-496,0,0,0,0,0,0,0,0,0,-1,1924,1520,0,0
707,-496,0,0,0,0,0,0,0,0,0,-1,1931,1520,0,0
714,-496,0,0,0,0,0,0,0,0,0,-1,1938,1520,0,0
721,-496,0,0,0,0,0,0,0,0,0,-1,1945,1520,0,0
728,-496,0,0,0,0,0,0,0,0,0,-1,1952,1520,0,0
735,-496,0,0,0,0,0,0,0,0,0,-1,1959,1520,0,0
742,-496,0,0,0,0,0,0,0,0,0,-1,1966,1520,0,0
749,-496,0,0,0,0,0,0,0,0,0,-1,1973,1520,0,0
756,-496,0,0,0,0,0,0,0,0,0,-1,1980,1520,0,0
763,-496,0,0,0,0,0,0,0,0,0,-1,1987,1520,0,0
770,-496,0,0,0,0,0,0,0,0,0,-1,1994,1520,0,0
777,-496,0,0,0,0,0,0,0,0,0,-1,2001,1520,0,0
784,-496,0,0,0,0,0,0,0,0,0,-1,2008,1520,0,0
791,-496,0,0,0,0,0,0,0,0,0,-1,2015,1520,0,0
798,-496,0,0,0,0,0,0,0,0,0,-1,2022,1520,0,0
805,-496,0,0,0,0,0,0,0,0,0,-1,2029,1520,0,0
812,-496,0,0,0,0,0,0,0,0,0,-1,2036,1520,0,0
-700,-503,0,0,0,0,0,0,0,0,0,-1,524,1527,0,0
-693,-503,0,0,0,0,0,0,0,0,0,-1,531,1527,0,0
-686,-503,0,0,0,0,0,0,0,0,0,-1,538,1527,0,0
-679,-503,0,0,0,0,0,0,0,0,0,-1,545,1527,0,0
-672,-503,0,0,0,0,0,0,0,0,0,-1,552,1527,0,0
-665,-503,0,0,0,0,0,0,0,0,0,-1,559,1527,0,0
-658,-503,0,0,0,0,0,0,0,0,0,-1,566,1527,0,0
-651,-503,0,0,0,0,0,0,0,0,0,-1,573,1527,0,0
-644,-503,0,0,0,0,0,0,0,0,0,-1,580,1527,0,0
-637,-503,0,0,0,0,0,0,0,0,0,-1,587,1527,0,0
-630,-503,0,0,0,0,0,0,0,0,0,-1,594,1527,0,0
-623,-503,0,0,0,0,0,0,0,0,0,-1,601,1527,0,0
-616,-503,0,0,0,0,0,0,0,0,0,-1,608,1527,0,0
-609,-503,0,0,0,0,0,0,0,0,0,-1,615,1527,0,0
-602,-503,0,0,0,0,0,0,0,0,0,-1,622,1527,0,0
-595,-503,0,0,0,0,0,0,0,0,0,-1,629,1527,0,0
-588,-503,0,0,0,0,0,0,0,0,0,-1,636,1527,0,0
-581,-503,0,0,0,0,0,0,0,0,0,-1,643,1527,0,0
-574,-503,0,0,0,0,0,0,0,0,0,-1,650,1527,0,0
-567,-503,0,0,0,0,0,0,0,0,0,-1,657,1527,0,0
-560,-503,0,0,0,0,0,0,0,0,0,-1,664,1527,0,0
-553,-503,0,0,0,0,0,0,0,0,0,-1,671,1527,0,0
-546,-503,0,0,0,0,0,0,0,0,0,-1,678,1527,0,0
-539,-503,3.50177,4.26428,0,0,0,0,0,0,0,-1,685,1527,3.50177,-4.26424
-532,-503,-3.13196,1.05298,0,0,0,0,0,0,0,-1,692,1527,-3.13194,-1.05299
-525,-503,-2.94293,2.59314,0,0,0,0,0,0,0,-1,699,1527,-2.94296,-2.59314
-518,-503,-2.7395,4.05872,0,0,0,0,0,0,0,-1,706,1527,-2.73948,-4.05871
-511,-503,-2.46967,5.46399,0,0,0,0,0,0,0,-1,713,1527,-2.46967,-5.46394
-504,-503,-2.26831,7.44678,0,0,0,0,0,0,0,-1,720,1527,-2.26831,-7.44684
-497,-503,-2.1261,8.95752,0,0,0,0,0,0,0,-1,727,1527,-2.12612,-8.95751
-490,-503,-2.409,10.3885,0,0,0,0,0,0,0,-1,734,1527,-2.40898,-10.3885
-483,-503,-2.6319,10.6622,0.00594385,0.00493987,0.00421443,0.00968608,0.00119764,0.726121,0.00609751,0.0400245,741,1527,-2.63188,-10.6623
-476,-503,-2.70685,10.8718,0.00457277,0.00365785,0.00314164,0.00729008,0.000940535,0.713101,0.00457886,0.0210883,748,1527,-2.70682,-10.8718
-469,-503,-2.78473,11.2181,0.00376725,0.00257793,0.00238639,0.00563196,0.000713221,0.663291,0.00354092,0.0108602,755,1527,-2.78471,-11.2181
-462,-503,-2.79169,11.631,0.00330765,0.00176637,0.00190665,0.00459351,0.00048051,0.593343,0.0029154,0.0116281,762,1527,-2.79169,-11.631
-455,-503,-2.78125,12.0371,0.0030245,0.0010359,0.00143031,0.00377216,0.00028824,0.481661,0.00242441,0.0178915,769,1527,-2.78127,-12.0371
-448,-503,-2.76556,12.4316,0.00293827,0.000644574,0.00122847,0.00347202,0.000110827,0.409874,0.00227863,0.0166463,776,1527,-2.76559,-12.4316
-441,-503,-2.77008,12.8146,0.00312735,0.000420023,0.00131762,0.00366274,-0.00011537,0.385954,0.00248118,0.0126738,783,1527,-2.77009,-12.8145
-434,-503,-2.8092,13.197,0.00334947,0.000460205,0.00150459,0.00399068,-0.000181007,0.402863,0.00272279,0.0111221,790,1527,-2.80923,-13.197
-427,-503,-2.86047,13.5811,0.00386096,0.000701126,0.00190008,0.00475216,-0.000190078,0.43857,0.00323333,0.0174614,797,1527,-2.86048,-13.5811
-420,-503,-2.82483,13.9852,0.00452884,0.00107418,0.0024299,0.0057828,-0.000179775,0.476408,0.0039165,0.0180254,804,1527,-2.82482,-13.9852
-413,-503,-2.81183,14.3933,0.00537967,0.00166434,0.00330082,0.00730966,-0.000265646,0.529093,0.00496402,0.0152615,811,1527,-2.81184,-14.3933
-406,-503,-2.81085,14.7858,0.0068477,0.00311673,0.00467636,0.0100169,-5.25061e-05,0.595611,0.00669553,0.0209754,818,1527,-2.81084,-14.7858
-399,-503,-2.67694,15.3372,0.0085532,0.00503253,0.00610914,0.0131506,0.000435161,0.645124,0.00862565,0.0337743,825,1527,-2.67696,-15.3372
-392,-503,-2.43054,16.0348,0,0,0,0,0,0,0,-1,832,1527,-2.43053,-16.0348
-385,-503,-2.00403,14.1218,0,0,0,0,0,0,0,-1,839,1527,-2.00403,-14.1218
-378,-503,-2.07043,13.8632,0,0,0,0,0,0,0,-1,846,1527,-2.07043,-13.8631
-371,-503,-1.67285,13.8081,0,0,0,0,0,0,0,-1,853,1527,-1.67285,-13.8081
-364,-503,0.181396,12.3768,0,0,0,0,0,0,0,-1,860,1527,0.18138,-12.3768
-357,-503,0.558533,9.25452,0,0,0,0,0,0,0,-1,867,1527,0.558542,-9.25446
-350,-503,0.219971,6.84827,0,0,0,0,0,0,0,-1,874,1527,0.21996,-6.84831
-343,-503,-3.5802,4.43274,0,0,0,0,0,0,0,-1,881,1527,-3.58018,-4.43276
-336,-503,-3.2384,6.40637,0,0,0,0,0,0,0,-1,888,1527,-3.2384,-6.40643
-329,-503,-1.70691,11.886,0,0,0,0,0,0,0,-1,895,1527,-1.70689,-11.886
-322,-503,-3.31317,8.81519,0,0,0,0,0,0,0,-1,902,1527,-3.31315,-8.81524
-315,-503,-3.90265,7.73853,0,0,0,0,0,0,0,-1,909,1527,-3.90264,-7.73854
-308,-503,-1.70264,7.35413,0,0,0,0,0,0,0,-1,916,1527,-1.70262,-7.35416
-301,-503,0,0,0,0,0,0,0,0,0,-1,923,1527,0,0
-294,-503,0,0,0,0,0,0,0,0,0,-1,930,1527,0,0
-287,-503,0,0,0,0,0,0,0,0,0,-1,937,1527,0,0
-280,-503,0,0,0,0,0,0,0,0,0,-1,944,1527,0,0
-273,-503,0,0,0,0,0,0,0,0,0,-1,951,1527,0,0
-266,-503,0,0,0,0,0,0,0,0,0,-1,958,1527,0,0
-259,-503,0,0,0,0,0,0,0,0,0,-1,965,1527,0,0
-252,-503,0,0,0,0,0,0,0,0,0,-1,972,1527,0,0
-245,-503,0,0,0,0,0,0,0,0,0,-1,979,1527,0,0
-238,-503,0,0,0,0,0,0,0,0,0,-1,986,1527,0,0
-231,-503,0,0,0,0,0,0,0,0,0,-1,993,1527,0,0
-224,-503,0,0,0,0,0,0,0,0,0,-1,1000,1527,0,0
-217,-503,0,0,0,0,0,0,0,0,0,-1,1007,1527,0,0
-210,-503,0,0,0,0,0,0,0,0,0,-1,1014,1527,0,0
-203,-503,0,0,0,0,0,0,0,0,0,-1,1021,1527,0,0
-196,-503,0,0,0,0,0,0,0,0,0,-1,1028,1527,0,0
-189,-503,0,0,0,0,0,0,0,0,0,-1,1035,1527,0,0
-182,-503,0,0,0,0,0,0,0,0,0,-1,1042,1527,0,0
-175,-503,0,0,0,0,0,0,0,0,0,-1,1049,1527,0,0
-168,-503,0,0,0,0,0,0,0,0,0,-1,1056,1527,0,0
-161,-503,0,0,0,0,0,0,0,0,0,-1,1063,1527,0,0
-154,-503,0,0,0,0,0,0,0,0,0,-1,1070,1527,0,0
-147,-503,0,0,0,0,0,0,0,0,0,-1,1077,1527,0,0
-140,-503,0,0,0,0,0,0,0,0,0,-1,1084,1527,0,0
-133,-503,0,0,0,0,0,0,0,0,0,-1,1091,1527,0,0
-126,-503,0,0,0,0,0,0,0,0,0,-1,1098,1527,0,0
-119,-503,0,0,0,0,0,0,0,0,0,-1,1105,1527,0,0
-112,-503,0,0,0,0,0,0,0,0,0,-1,1112,1527,0,0
-105,-503,0,0,0,0,0,0,0,0,0,-1,1119,1527,0,0
-98,-503,0,0,0,0,0,0,0,0,0,-1,1126,1527,0,0
-91,-503,0,0,0,0,0,0,0,0,0,-1,1133,1527,0,0
-84,-503,0,0,0,0,0,0,0,0,0,-1,1140,1527,0,0
-77,-503,0,0,0,0,0,0,0,0,0,-1,1147,1527,0,0
-70,-503,0,0,0,0,0,0,0,0,0,-1,1154,1527,0,0
-63,-503,0,0,0,0,0,0,0,0,0,-1,1161,1527,0,0
-56,-503,0,0,0,0,0,0,0,0,0,-1,1168,1527,0,0
-49,-503,0,0,0,0,0,0,0,0,0,-1,1175,1527,0,0
-42,-503,0,0,0,0,0,0,0,0,0,-1,1182,1527,0,0
-35,-503,0,0,0,0,0,0,0,0,0,-1,1189,1527,0,0
-28,-503,0,0,0,0,0,0,0,0,0,-1,1196,1527,0,0
-21,-503,0,0,0,0,0,0,0,0,0,-1,1203,1527,0,0
-14,-503,0,0,0,0,0,0,0,0,0,-1,1210,1527,0,0
-7,-503,0,0,0,0,0,0,0,0,0,-1,1217,1527,0,0
0,-503,0,0,0,0,0,0,0,0,0,-1,1224,1527,0,0
7,-503,0,0,0,0,0,0,0,0,0,-1,1231,1527,0,0
14,-503,0,0,0,0,0,0,0,0,0,-1,1238,1527,0,0
21,-503,0,0,0,0,0,0,0,0,0,-1,1245,1527,0,0
28,-503,0,0,0,0,0,0,0,0,0,-1,1252,1527,0,0
35,-503,0,0,0,0,0,0,0,0,0,-1,1259,1527,0,0
42,-503,0,0,0,0,0,0,0,0,0,-1,1266,1527,0,0
49,-503,0,0,0,0,0,0,0,0,0,-1,1273,1527,0,0
56,-503,0,0,0,0,0,0,0,0,0,-1,1280,1527,0,0
63,-503,0,0,0,0,0,0,0,0,0,-1,1287,1527,0,0
70,-503,0,0,0,0,0,0,0,0,0,-1,1294,1527,0,0
77,-503,0,0,0,0,0,0,0,0,0,-1,1301,1527,0,0
84,-503,0,0,0,0,0,0,0,0,0,-1,1308,1527,0,0
91,-503,0,0,0,0,0,0,0,0,0,-1,1315,1527,0,0
98,-503,0,0,0,0,0,0,0,0,0,-1,1322,1527,0,0
105,-503,0,0,0,0,0,0,0,0,0,-1,1329,1527,0,0
112,-503,0,0,0,0,0,0,0,0,0,-1,1336,1527,0,0
119,-503,0,0,0,0,0,0,0,0,0,-1,1343,1527,0,0
126,-503,0,0,0,0,0,0,0,0,0,-1,1350,1527,0,0
133,-503,0,0,0,0,0,0,0,0,0,-1,1357,1527,0,0
140,-503,0,0,0,0,0,0,0,0,0,-1,1364,1527,0,0
147,-503,0,0,0,0,0,0,0,0,0,-1,1371,1527,0,0
154,-503,0,0,0,0,0,0,0,0,0,-1,1378,1527,0,0
161,-503,0,0,0,0,0,0,0,0,0,-1,1385,1527,0,0
168,-503,0,0,0,0,0,0,0,0,0,-1,1392,1527,0,0
175,-503,0,0,0,0,0,0,0,0,0,-1,1399,1527,0,0
182,-503,0,0,0,0,0,0,0,0,0,-1,1406,1527,0,0
189,-503,0,0,0,0,0,0,0,0,0,-1,1413,1527,0,0
196,-503,0,0,0,0,0,0,0,0,0,-1,1420,1527,0,0
203,-503,0,0,0,0,0,0,0,0,0,-1,1427,1527,0,0
210,-503,0,0,0,0,0,0,0,0,0,-1,1434,1527,0,0
217,-503,0,0,0,0,0,0,0,0,0,-1,1441,1527,0,0
224,-503,0,0,0,0,0,0,0,0,0,-1,1448,1527,0,0
231,-503,0,0,0,0,0,0,0,0,0,-1,1455,1527,0,0
238,-503,0,0,0,0,0,0,0,0,0,-1,1462,1527,0,0
245,-503,0,0,0,0,0,0,0,0,0,-1,1469,1527,0,0
252,-503,0,0,0,0,0,0,0,0,0,-1,1476,1527,0,0
259,-503,0,0,0,0,0,0,0,0,0,-1,1483,1527,0,0
266,-503,0,0,0,0,0,0,0,0,0,-1,1490,1527,0,0
273,-503,0,0,0,0,0,0,0,0,0,-1,1497,1527,0,0
280,-503,0,0,0,0,0,0,0,0,0,-1,1504,1527,0,0
287,-503,0,0,0,0,0,0,0,0,0,-1,1511,1527,0,0
294,-503,0,0,0,0,0,0,0,0,0,-1,1518,1527,0,0
301,-503,0,0,0,0,0,0,0,0,0,-1,1525,1527,0,0
308,-503,0,0,0,0,0,0,0,0,0,-1,1532,1527,0,0
315,-503,0,0,0,0,0,0,0,0,0,-1,1539,1527,0,0
322,-503,0,0,0,0,0,0,0,0,0,-1,1546,1527,0,0
329,-503,0,0,0,0,0,0,0,0,0,-1,1553,1527,0,0
336,-503,0,0,0,0,0,0,0,0,0,-1,1560,1527,0,0
343,-503,0,0,0,0,0,0,0,0,0,-1,1567,1527,0,0
350,-503,0,0,0,0,0,0,0,0,0,-1,1574,1527,0,0
357,-503,0,0,0,0,0,0,0,0,0,-1,1581,1527,0,0
364,-503,0,0,0,0,0,0,0,0,0,-1,1588,1527,0,0
371,-503,0,0,0,0,0,0,0,0,0,-1,1595,1527,0,0
378,-503,0,0,0,0,0,0,0,0,0,-1,1602,1527,0,0
385,-503,0,0,0,0,0,0,0,0,0,-1,1609,1527,0,0
392,-503,0,0,0,0,0,0,0,0,0,-1,1616,1527,0,0
399,-503,0,0,0,0,0,0,0,0,0,-1,1623,1527,0,0
406,-503,0,0,0,0,0,0,0,0,0,-1,1630,1527,0,0
413,-503,0,0,0,0,0,0,0,0,0,-1,1637,1527,0,0
420,-503,0,0,0,0,0,0,0,0,0,-1,1644,1527,0,0
427,-503,10.5968,4.9856,0,0,0,0,0,0,0,-1,1651,1527,10.5969,-4.98563
434,-503,11.4329,3.97217,0,0,0,0,0,0,0,-1,1658,1527,11.4328,-3.97222
441,-503,12.0957,2.96509,0,0,0,0,0,0,0,-1,1665,1527,12.0957,-2.96512
448,-503,12.3259,2.53894,0,0,0,0,0,0,0,-1,1672,1527,12.326,-2.53895
455,-503,12.1669,2.18762,0,0,0,0,0,0,0,-1,1679,1527,12.1668,-2.18767
462,-503,11.59,2.60791,0,0,0,0,0,0,0,-1,1686,1527,11.5899,-2.60794
469,-503,11.1625,1.61853,0,0,0,0,0,0,0,-1,1693,1527,11.1625,-1.61856
476,-503,9.07703,5.81042,0,0,0,0,0,0,0,-1,1700,1527,9.07699,-5.81047
483,-503,9.74414,6.92432,0,0,0,0,0,0,0,-1,1707,1527,9.74417,-6.9243
490,-503,10.5033,10.1071,0,0,0,0,0,0,0,-1,1714,1527,10.5032,-10.107
497,-503,15.0057,17.9476,0,0,0,0,0,0,0,-1,1721,1527,15.0058,-17.9476
504,-503,15.8759,17.4501,0,0,0,0,0,0,0,-1,1728,1527,15.8759,-17.4501
511,-503,16.2531,15.6869,0,0,0,0,0,0,0,-1,1735,1527,16.2531,-15.6869
518,-503,15.9948,17.0463,0,0,0,0,0,0,0,-1,1742,1527,15.9947,-17.0463
525,-503,15.0164,16.8909,0,0,0,0,0,0,0,-1,1749,1527,15.0164,-16.8909
532,-503,15.082,16.5225,-0.00107387,-0.00326603,0.00269164,0.000736303,-0.0050762,0.592042,0.00365438,0.0214997,1756,1527,15.082,-16.5225
539,-503,15.1301,16.1278,-0.000886097,-0.00280492,0.0022906,0.000637898,-0.00432891,0.587074,0.00312038,0.0140081,1763,1527,15.1302,-16.1278
546,-503,15.1323,15.7303,-0.000566606,-0.00229938,0.0018194,0.000582156,-0.00344814,0.563187,0.00251537,0.0113117,1770,1527,15.1323,-15.7303
553,-503,15.1552,15.377,-0.000191569,-0.00185365,0.00134353,0.000557172,-0.00260239,0.508425,0.00194741,0.0138974,1777,1527,15.1552,-15.3769
560,-503,15.1559,15.0277,0.000265797,-0.00136803,0.000814097,0.000602184,-0.00170441,0.391836,0.00138147,0.0133597,1784,1527,15.1559,-15.0277
567,-503,15.1492,14.65,0.000812854,-0.00106324,0.000336103,0.000871249,-0.00112164,0.172025,0.00115362,0.0119861,1791,1527,15.1491,-14.65
574,-503,15.147,14.2817,0.00157232,-0.00083715,-0.000272056,0.00160266,-0.000867486,-0.111048,0.00144704,0.0122456,1798,1527,15.147,-14.2817
581,-503,15.1167,13.9453,0.00228923,-0.000819202,-0.000749882,0.00246067,-0.000990648,-0.224768,0.00205199,0.0135101,1805,1527,15.1167,-13.9454
588,-503,15.0958,13.6041,0.00317441,-0.000977367,-0.00123225,0.0035126,-0.00131555,-0.267851,0.00288213,0.0165859,1812,1527,15.0958,-13.6041
595,-503,15.105,13.2192,0.00424338,-0.00142561,-0.00167596,0.00470179,-0.00188402,-0.266989,0.00391661,0.012388,1819,1527,15.105,-13.2193
602,-503,15.1469,12.8207,0.00553724,-0.002062,-0.00219562,0.00612599,-0.00265075,-0.261988,0.00519798,0.0197953,1826,1527,15.1468,-12.8207
609,-503,15.1918,12.4001,0.00707083,-0.0028953,-0.00271936,0.00776455,-0.00358902,-0.249776,0.00670112,0.0380273,1833,1527,15.1917,-12.4002
616,-503,15.0193,12.2454,0.00906768,-0.00390709,-0.00336506,0.0098885,-0.00472791,-0.239251,0.00861233,0.0329529,1840,1527,15.0193,-12.2453
623,-503,15.4246,11.704,0.0117103,-0.00522696,-0.00420862,0.0126985,-0.00621508,-0.230608,0.0111315,0.0413218,1847,1527,15.4245,-11.704
630,-503,15.9863,11.1903,0,0,0,0,0,0,0,-1,1854,1527,15.9864,-11.1903
637,-503,14.5564,9.20496,0,0,0,0,0,0,0,-1,1861,1527,14.5564,-9.2049
644,-503,11.4802,7.57214,0,0,0,0,0,0,0,-1,1868,1527,11.4802,-7.57215
651,-503,11.5718,6.5448,0,0,0,0,0,0,0,-1,1875,1527,11.5718,-6.54476
658,-503,8.25635,3.10498,0,0,0,0,0,0,0,-1,1882,1527,8.2563,-3.10493
665,-503,0,0,0,0,0,0,0,0,0,-1,1889,1527,0,0
672,-503,0,0,0,0,0,0,0,0,0,-1,1896,1527,0,0
679,-503,0,0,0,0,0,0,0,0,0,-1,1903,1527,0,0
686,-503,0,0,0,0,0,0,0,0,0,-1,1910,1527,0,0
693,-503,0,0,0,0,0,0,0,0,0,-1,1917,1527,0,0
700,-503,0,0,0,0,0,0,0,0,0,-1,1924,1527,0,0
707,-503,0,0,0,0,0,0,0,0,0,-1,1931,1527,0,0
714,-503,0,0,0,0,0,0,0,0,0,-1,1938,1527,0,0
721,-503,0,0,0,0,0,0,0,0,0,-1,1945,1527,0,0
728,-503,0,0,0,0,0,0,0,0,0,-1,1952,1527,0,0
735,-503,0,0,0,0,0,0,0,0,0,-1,1959,1527,0,0
742,-503,0,0,0,0,0,0,0,0,0,-1,1966,1527,0,0
749,-503,0,0,0,0,0,0,0,0,0,-1,1973,1527,0,0
756,-503,0,0,0,0,0,0,0,0,0,-1,1980,1527,0,0
763,-503,0,0,0,0,0,0,0,0,0,-1,1987,1527,0,0
770,-503,0,0,0,0,0,0,0,0,0,-1,1994,1527,0,0
777,-503,0,0,0,0,0,0,0,0,0,-1,2001,1527,0,0
784,-503,0,0,0,0,0,0,0,0,0,-1,2008,1527,0,0
791,-503,0,0,0,0,0,0,0,0,0,-1,2015,1527,0,0
798,-503,0,0,0,0,0,0,0,0,0,-1,2022,1527,0,0
805,-503,0,0,0,0,0,0,0,0,0,-1,2029,1527,0,0
812,-503,0,0,0,0,0,0,0,0,0,-1,2036,1527,0,0
-700,-510,0,0,0,0,0,0,0,0,0,-1,524,1534,0,0
-693,-510,0,0,0,0,0,0,0,0,0,-1,531,1534,0,0
-686,-510,0,0,0,0,0,0,0,0,0,-1,538,1534,0,0
-679,-510,0,0,0,0,0,0,0,0,0,-1,545,1534,0,0
-672,-510,0,0,0,0,0,0,0,0,0,-1,552,1534,0,0
-665,-510,0,0,0,0,0,0,0,0,0,-1,559,1534,0,0
-658,-510,0,0,0,0,0,0,0,0,0,-1,566,1534,0,0
-651,-510,0,0,0,0,0,0,0,0,0,-1,573,1534,0,0
-644,-510,0,0,0,0,0,0,0,0,0,-1,580,1534,0,0
-637,-510,0,0,0,0,0,0,0,0,0,-1,587,1534,0,0
-630,-510,0,0,0,0,0,0,0,0,0,-1,594,1534,0,0
-623,-510,0,0,0,0,0,0,0,0,0,-1,601,1534,0,0
-616,-510,0,0,0,0,0,0,0,0,0,-1,608,1534,0,0
-609,-510,0,0,0,0,0,0,0,0,0,-1,615,1534,0,0
-602,-510,0,0,0,0,0,0,0,0,0,-1,622,1534,0,0
-595,-510,0,0,0,0,0,0,0,0,0,-1,629,1534,0,0
-588,-510,0,0,0,0,0,0,0,0,0,-1,636,1534,0,0
-581,-510,0,0,0,0,0,0,0,0,0,-1,643,1534,0,0
-574,-510,0,0,0,0,0,0,0,0,0,-1,650,1534,0,0
-567,-510,0,0,0,0,0,0,0,0,0,-1,657,1534,0,0
-560,-510,0,0,0,0,0,0,0,0,0,-1,664,1534,0,0
-553,-510,0,0,0,0,0,0,0,0,0,-1,671,1534,0,0
-546,-510,0,0,0,0,0,0,0,0,0,-1,678,1534,0,0
-539,-510,0,0,0,0,0,0,0,0,0,-1,685,1534,0,0
-532,-510,-3.95129,4.52014,0,0,0,0,0,0,0,-1,692,1534,-3.95131,-4.5202
-525,-510,-2.77411,0.316772,0,0,0,0,0,0,0,-1,699,1534,-2.77409,-0.3168
-518,-510,-2.86847,2.71423,0,0,0,0,0,0,0,-1,706,1534,-2.86849,-2.71424
-511,-510,-2.28571,4.48083,0,0,0,0,0,0,0,-1,713,1534,-2.28571,-4.48086
-504,-510,-2.35229,8.75781,0,0,0,0,0,0,0,-1,720,1534,-2.35232,-8.75782
-497,-510,-2.16376,9.61377,0,0,0,0,0,0,0,-1,727,1534,-2.16375,-9.61376
-490,-510,-2.1745,10.4352,0.0118182,0.00835729,0.00718233,0.0174756,0.0026999,0.667185,0.0108629,0.0439359,734,1534,-2.17449,-10.4352
-483,-510,-2.08905,10.6843,0.00915632,0.00600734,0.00535102,0.0131597,0.00200398,0.642316,0.00818729,0.0402168,741,1534,-2.08905,-10.6843
-476,-510,-2.20343,10.8685,0.00718081,0.00465311,0.00410957,0.0102165,0.00161744,0.636218,0.00634098,0.0335168,748,1534,-2.20344,-10.8685
-469,-510,-2.37201,11.249,0.00576923,0.00365119,0.00330623,0.0081819,0.00123851,0.630406,0.00509222,0.0142908,755,1534,-2.37202,-11.2491
-462,-510,-2.38239,11.63,0.00481079,0.00291823,0.0027968,0.00681706,0.000911971,0.622271,0.00427328,0.0118797,762,1534,-2.38238,-11.63
-455,-510,-2.40082,12.0558,0.00406542,0.00221534,0.00229514,0.00561492,0.00066583,0.593835,0.00354226,0.0149056,769,1534,-2.40081,-12.0558
-448,-510,-2.388,12.4601,0.00352546,0.00178985,0.0020349,0.00486987,0.000445439,0.583844,0.00310876,0.0131895,776,1534,-2.388,-12.46
-441,-510,-2.40704,12.8256,0.00328056,0.00152639,0.00204763,0.00463104,0.00017591,0.583049,0.00303043,0.0126437,783,1534,-2.40703,-12.8256
-434,-510,-2.43707,13.1992,0.00305587,0.00156019,0.00215695,0.00459094,2.51147e-05,0.618528,0.00305229,0.0142615,790,1534,-2.43707,-13.1992
-427,-510,-2.47162,13.5657,0.00320531,0.00177702,0.00253385,0.00512373,-0.000141392,0.64804,0.00346391,0.0221565,797,1534,-2.47163,-13.5657
-420,-510,-2.45013,13.984,0.00359307,0.00218953,0.00299218,0.00596468,-0.000182074,0.670213,0.00403851,0.0208072,804,1534,-2.45014,-13.984
-413,-510,-2.4364,14.4003,0.00414588,0.00284838,0.00372261,0.00727585,-0.000281591,0.699128,0.0049471,0.0110327,811,1534,-2.43638,-14.4002
-406,-510,-2.45416,14.7687,0.00516983,0.0042371,0.00489775,0.00962337,-0.000216438,0.737931,0.00648893,0.0103892,818,1534,-2.45418,-14.7687
-399,-510,-2.45929,15.1638,0.00641941,0.00610413,0.00612485,0.0123886,0.000134896,0.772532,0.0082145,0.012929,825,1534,-2.45931,-15.1638
-392,-510,-2.30176,15.7255,0.00773244,0.0089723,0.0072846,0.0156633,0.00104144,0.827847,0.0101129,0.034454,832,1534,-2.30174,-15.7254
-385,-510,-2.04468,16.3044,0,0,0,0,0,0,0,-1,839,1534,-2.04467,-16.3044
-378,-510,-1.78308,13.8044,0,0,0,0,0,0,0,-1,846,1534,-1.78309,-13.8044
-371,-510,-1.74982,13.8027,0,0,0,0,0,0,0,-1,853,1534,-1.74981,-13.8028
-364,-510,-1.3479,13.7771,0,0,0,0,0,0,0,-1,860,1534,-1.34791,-13.7771
-357,-510,-0.254395,8.89575,0,0,0,0,0,0,0,-1,867,1534,-0.254397,-8.89569
-350,-510,0.471191,6.06458,0,0,0,0,0,0,0,-1,874,1534,0.47118,-6.06453
-343,-510,-2.94617,5.00989,0,0,0,0,0,0,0,-1,881,1534,-2.94615,-5.00992
-336,-510,-1.92963,11.3776,0,0,0,0,0,0,0,-1,888,1534,-1.92962,-11.3775
-329,-510,-4.87781,20.6893,0,0,0,0,0,0,0,-1,895,1534,-4.87782,-20.6894
-322,-510,-0.251526,11.973,0,0,0,0,0,0,0,-1,902,1534,-0.251497,-11.9731
-315,-510,-1.73047,10.9796,0,0,0,0,0,0,0,-1,909,1534,-1.73049,-10.9796
-308,-510,-2.05328,9.72034,0,0,0,0,0,0,0,-1,916,1534,-2.05327,-9.72036
-301,-510,-1.85437,11.5869,0,0,0,0,0,0,0,-1,923,1534,-1.85437,-11.5869
-294,-510,0,0,0,0,0,0,0,0,0,-1,930,1534,0,0
-287,-510,0,0,0,0,0,0,0,0,0,-1,937,1534,0,0
-280,-510,0,0,0,0,0,0,0,0,0,-1,944,1534,0,0
-273,-510,0,0,0,0,0,0,0,0,0,-1,951,1534,0,0
-266,-510,0,0,0,0,0,0,0,0,0,-1,958,1534,0,0
-259,-510,0,0,0,0,0,0,0,0,0,-1,965,1534,0,0
-252,-510,0,0,0,0,0,0,0,0,0,-1,972,1534,0,0
-245,-510,0,0,0,0,0,0,0,0,0,-1,979,1534,0,0
-238,-510,0,0,0,0,0,0,0,0,0,-1,986,1534,0,0
-231,-510,0,0,0,0,0,0,0,0,0,-1,993,1534,0,0
-224,-510,0,0,0,0,0,0,0,0,0,-1,1000,1534,0,0
-217,-510,0,0,0,0,0,0,0,0,0,-1,1007,1534,0,0
-210,-510,0,0,0,0,0,0,0,0,0,-1,1014,1534,0,0
-203,-510,0,0,0,0,0,0,0,0,0,-1,1021,1534,0,0
-196,-510,0,0,0,0,0,0,0,0,0,-1,1028,1534,0,0
-189,-510,0,0,0,0,0,0,0,0,0,-1,1035,1534,0,0
-182,-510,0,0,0,0,0,0,0,0,0,-1,1042,1534,0,0
-175,-510,0,0,0,0,0,0,0,0,0,-1,1049,1534,0,0
-168,-510,0,0,0,0,0,0,0,0,0,-1,1056,1534,0,0
-161,-510,0,0,0,0,0,0,0,0,0,-1,1063,1534,0,0
-154,-510,0,0,0,0,0,0,0,0,0,-1,1070,1534,0,0
-147,-510,0,0,0,0,0,0,0,0,0,-1,1077,1534,0,0
-140,-510,0,0,0,0,0,0,0,0,0,-1,1084,1534,0,0
-133,-510,0,0,0,0,0,0,0,0,0,-1,1091,1534,0,0
-126,-510,0,0,0,0,0,0,0,0,0,-1,1098,1534,0,0
-119,-510,0,0,0,0,0,0,0,0,0,-1,1105,1534,0,0
-112,-510,0,0,0,0,0,0,0,0,0,-1,1112,1534,0,0
-105,-510,0,0,0,0,0,0,0,0,0,-1,1119,1534,0,0
-98,-510,0,0,0,0,0,0,0,0,0,-1,1126,1534,0,0
-91,-510,0,0,0,0,0,0,0,0,0,-1,1133,1534,0,0
-84,-510,0,0,0,0,0,0,0,0,0,-1,1140,1534,0,0
-77,-510,0,0,0,0,0,0,0,0,0,-1,1147,1534,0,0
-70,-510,0,0,0,0,0,0,0,0,0,-1,1154,1534,0,0
-63,-510,0,0,0,0,0,0,0,0,0,-1,1161,1534,0,0
-56,-510,0,0,0,0,0,0,0,0,0,-1,1168,1534,0,0
-49,-510,0,0,0,0,0,0,0,0,0,-1,1175,1534,0,0
-42,-510,0,0,0,0,0,0,0,0,0,-1,1182,1534,0,0
-35,-510,0,0,0,0,0,0,0,0,0,-1,1189,1534,0,0
-28,-510,0,0,0,0,0,0,0,0,0,-1,1196,1534,0,0
-21,-510,0,0,0,0,0,0,0,0,0,-1,1203,1534,0,0
-14,-510,0,0,0,0,0,0,0,0,0,-1,1210,1534,0,0
-7,-510,0,0,0,0,0,0,0,0,0,-1,1217,1534,0,0
0,-510,0,0,0,0,0,0,0,0,0,-1,1224,1534,0,0
7,-510,0,0,0,0,0,0,0,0,0,-1,1231,1534,0,0
14,-510,0,0,0,0,0,0,0,0,0,-1,1238,1534,0,0
21,-510,0,0,0,0,0,0,0,0,0,-1,1245,1534,0,0
28,-510,0,0,0,0,0,0,0,0,0,-1,1252,1534,0,0
35,-510,0,0,0,0,0,0,0,0,0,-1,1259,1534,0,0
42,-510,0,0,0,0,0,0,0,0,0,-1,1266,1534,0,0
49,-510,0,0,0,0,0,0,0,0,0,-1,1273,1534,0,0
56,-510,0,0,0,0,0,0,0,0,0,-1,1280,1534,0,0
63,-510,0,0,0,0,0,0,0,0,0,-1,1287,1534,0,0
70,-510,0,0,0,0,0,0,0,0,0,-1,1294,1534,0,0
77,-510,0,0,0,0,0,0,0,0,0,-1,1301,1534,0,0
84,-510,0,0,0,0,0,0,0,0,0,-1,1308,1534,0,0
91,-510,0,0,0,0,0,0,0,0,0,-1,1315,1534,0,0
98,-510,0,0,0,0,0,0,0,0,0,-1,1322,1534,0,0
105,-510,0,0,0,0,0,0,0,0,0,-1,1329,1534,0,0
112,-510,0,0,0,0,0,0,0,0,0,-1,1336,1534,0,0
119,-510,0,0,0,0,0,0,0,0,0,-1,1343,1534,0,0
126,-510,0,0,0,0,0,0,0,0,0,-1,1350,1534,0,0
133,-510,0,0,0,0,0,0,0,0,0,-1,1357,1534,0,0
140,-510,0,0,0,0,0,0,0,0,0,-1,1364,1534,0,0
147,-510,0,0,0,0,0,0,0,0,0,-1,1371,1534,0,0
154,-510,0,0,0,0,0,0,0,0,0,-1,1378,1534,0,0
161,-510,0,0,0,0,0,0,0,0,0,-1,1385,1534,0,0
168,-510,0,0,0,0,0,0,0,0,0,-1,1392,1534,0,0
175,-510,0,0,0,0,0,0,0,0,0,-1,1399,1534,0,0
182,-510,0,0,0,0,0,0,0,0,0,-1,1406,1534,0,0
189,-510,0,0,0,0,0,0,0,0,0,-1,1413,1534,0,0
196,-510,0,0,0,0,0,0,0,0,0,-1,1420,1534,0,0
203,-510,0,0,0,0,0,0,0,0,0,-1,1427,1534,0,0
210,-510,0,0,0,0,0,0,0,0,0,-1,1434,1534,0,0
217,-510,0,0,0,0,0,0,0,0,0,-1,1441,1534,0,0
224,-510,0,0,0,0,0,0,0,0,0,-1,1448,1534,0,0
231,-510,0,0,0,0,0,0,0,0,0,-1,1455,1534,0,0
238,-510,0,0,0,0,0,0,0,0,0,-1,1462,1534,0,0
245,-510,0,0,0,0,0,0,0,0,0,-1,1469,1534,0,0
252,-510,0,0,0,0,0,0,0,0,0,-1,1476,1534,0,0
259,-510,0,0,0,0,0,0,0,0,0,-1,1483,1534,0,0
266,-510,0,0,0,0,0,0,0,0,0,-1,1490,1534,0,0
273,-510,0,0,0,0,0,0,0,0,0,-1,1497,1534,0,0
280,-510,0,0,0,0,0,0,0,0,0,-1,1504,1534,0,0
287,-510,0,0,0,0,0,0,0,0,0,-1,1511,1534,0,0
294,-510,0,0,0,0,0,0,0,0,0,-1,1518,1534,0,0
301,-510,0,0,0,0,0,0,0,0,0,-1,1525,1534,0,0
308,-510,0,0,0,0,0,0,0,0,0,-1,1532,1534,0,0
315,-510,0,0,0,0,0,0,0,0,0,-1,1539,1534,0,0
322,-510,0,0,0,0,0,0,0,0,0,-1,1546,1534,0,0
329,-510,0,0,0,0,0,0,0,0,0,-1,1553,1534,0,0
336,-510,0,0,0,0,0,0,0,0,0,-1,1560,1534,0,0
343,-510,0,0,0,0,0,0,0,0,0,-1,1567,1534,0,0
350,-510,0,0,0,0,0,0,0,0,0,-1,1574,1534,0,0
357,-510,0,0,0,0,0,0,0,0,0,-1,1581,1534,0,0
364,-510,0,0,0,0,0,0,0,0,0,-1,1588,1534,0,0
371,-510,0,0,0,0,0,0,0,0,0,-1,1595,1534,0,0
378,-510,0,0,0,0,0,0,0,0,0,-1,1602,1534,0,0
385,-510,0,0,0,0,0,0,0,0,0,-1,1609,1534,0,0
392,-510,0,0,0,0,0,0,0,0,0,-1,1616,1534,0,0
399,-510,0,0,0,0,0,0,0,0,0,-1,1623,1534,0,0
406,-510,0,0,0,0,0,0,0,0,0,-1,1630,1534,0,0
413,-510,0,0,0,0,0,0,0,0,0,-1,1637,1534,0,0
420,-510,13.9399,6.59412,0,0,0,0,0,0,0,-1,1644,1534,13.94,-6.59417
427,-510,10.9799,5.12341,0,0,0,0,0,0,0,-1,1651,1534,10.9798,-5.12337
434,-510,11.8219,4.07898,0,0,0,0,0,0,0,-1,1658,1534,11.8219,-4.07895
441,-510,12.6812,3.02991,0,0,0,0,0,0,0,-1,1665,1534,12.6811,-3.0299
448,-510,13.2379,2.2804,0,0,0,0,0,0,0,-1,1672,1534,13.2379,-2.28037
455,-510,9.76892,2.20642,0,0,0,0,0,0,0,-1,1679,1534,9.76894,-2.20647
462,-510,9.84692,2.49182,0,0,0,0,0,0,0,-1,1686,1534,9.84695,-2.49185
469,-510,16.6072,7.26941,0,0,0,0,0,0,0,-1,1693,1534,16.6072,-7.26945
476,-510,15.9199,7.8645,0,0,0,0,0,0,0,-1,1700,1534,15.9199,-7.86455
483,-510,13.0833,8.10938,0,0,0,0,0,0,0,-1,1707,1534,13.0833,-8.10932
490,-510,13.0841,15.3286,0,0,0,0,0,0,0,-1,1714,1534,13.0841,-15.3286
497,-510,14.6643,18.2444,0,0,0,0,0,0,0,-1,1721,1534,14.6643,-18.2444
504,-510,15.0892,17.6357,0,0,0,0,0,0,0,-1,1728,1534,15.0893,-17.6358
511,-510,15.5143,17.0272,0,0,0,0,0,0,0,-1,1735,1534,15.5142,-17.0272
518,-510,14.8512,17.566,0,0,0,0,0,0,0,-1,1742,1534,14.8512,-17.566
525,-510,14.7335,16.9681,-2.13356e-05,-0.00121633,0.00152552,0.00101953,-0.0022572,0.598747,0.00193628,0.0366664,1749,1534,14.7335,-16.9682
532,-510,14.7842,16.4844,-0.00016508,-0.00141481,0.00150591,0.00084046,-0.00242035,0.588738,0.0019549,0.015948,1756,1534,14.7842,-16.4844
539,-510,14.8252,16.0739,-9.74782e-05,-0.00139318,0.00133632,0.000739753,-0.00223042,0.55969,0.00178537,0.0129316,1763,1534,14.8252,-16.0739
546,-510,14.7976,15.746,0.000133702,-0.00126894,0.00106101,0.000704225,-0.00183946,0.493365,0.00151657,0.0120604,1770,1534,14.7976,-15.7459
553,-510,14.7922,15.3892,0.000412741,-0.00113888,0.000752056,0.000717426,-0.00144357,0.384926,0.00127091,0.0126683,1777,1534,14.7922,-15.3891
560,-510,14.7854,15.0208,0.000796801,-0.000911642,0.000356934,0.000868374,-0.000983216,0.197898,0.0010697,0.0128876,1784,1534,14.7853,-15.0208
567,-510,14.7849,14.657,0.00132768,-0.000845902,-1.07166e-05,0.00132773,-0.000845955,-0.00493021,0.00126521,0.0124848,1791,1534,14.7849,-14.657
574,-510,14.7689,14.3085,0.00214335,-0.000787715,-0.000584188,0.00225549,-0.000899858,-0.189657,0.00187695,0.0131943,1798,1534,14.769,-14.3085
581,-510,14.7358,13.9758,0.00294724,-0.000885877,-0.00105038,0.0032162,-0.00115484,-0.250674,0.00261549,0.0120059,1805,1534,14.7359,-13.9759
588,-510,14.731,13.6234,0.00392901,-0.00118691,-0.00150707,0.00433996,-0.00159786,-0.266209,0.00354796,0.0124859,1812,1534,14.7309,-13.6234
595,-510,14.8379,13.1506,0.00515565,-0.0018129,-0.00200472,0.00569121,-0.00234846,-0.261054,0.00477357,0.0198772,1819,1534,14.8379,-13.1507
602,-510,14.8701,12.7288,0,0,0,0,0,0,0,-1,1826,1534,14.8701,-12.7288
609,-510,14.936,12.3893,0,0,0,0,0,0,0,-1,1833,1534,14.9361,-12.3892
616,-510,14.598,12.333,0,0,0,0,0,0,0,-1,1840,1534,14.598,-12.3331
623,-510,15.201,11.6697,0,0,0,0,0,0,0,-1,1847,1534,15.201,-11.6697
630,-510,13.7461,9.30334,0,0,0,0,0,0,0,-1,1854,1534,13.7461,-9.30335
637,-510,11.0155,7.38464,0,0,0,0,0,0,0,-1,1861,1534,11.0155,-7.38463
644,-510,11.5809,7.17126,0,0,0,0,0,0,0,-1,1868,1534,11.5809,-7.17123
651,-510,8.70471,3.5061,0,0,0,0,0,0,0,-1,1875,1534,8.70475,-3.50611
658,-510,0,0,0,0,0,0,0,0,0,-1,1882,1534,0,0
665,-510,0,0,0,0,0,0,0,0,0,-1,1889,1534,0,0
672,-510,0,0,0,0,0,0,0,0,0,-1,1896,1534,0,0
679,-510,0,0,0,0,0,0,0,0,0,-1,1903,1534,0,0
686,-510,0,0,0,0,0,0,0,0,0,-1,1910,1534,0,0
693,-510,0,0,0,0,0,0,0,0,0,-1,1917,1534,0,0
700,-510,0,0,0,0,0,0,0,0,0,-1,1924,1534,0,0
707,-510,0,0,0,0,0,0,0,0,0,-1,1931,1534,0,0
714,-510,0,0,0,0,0,0,0,0,0,-1,1938,1534,0,0
721,-510,0,0,0,0,0,0,0,0,0,-1,1945,1534,0,0
728,-510,0,0,0,0,0,0,0,0,0,-1,1952,1534,0,0
735,-510,0,0,0,0,0,0,0,0,0,-1,1959,1534,0,0
742,-510,0,0,0,0,0,0,0,0,0,-1,1966,1534,0,0
749,-510,0,0,0,0,0,0,0,0,0,-1,1973,1534,0,0
756,-510,0,0,0,0,0,0,0,0,0,-1,1980,1534,0,0
763,-510,0,0,0,0,0,0,0,0,0,-1,1987,1534,0,0
770,-510,0,0,0,0,0,0,0,0,0,-1,1994,1534,0,0
777,-510,0,0,0,0,0,0,0,0,0,-1,2001,1534,0,0
784,-510,0,0,0,0,0,0,0,0,0,-1,2008,1534,0,0
791,-510,0,0,0,0,0,0,0,0,0,-1,2015,1534,0,0
798,-510,0,0,0,0,0,0,0,0,0,-1,2022,1534,0,0
805,-510,0,0,0,0,0,0,0,0,0,-1,2029,1534,0,0
812,-510,0,0,0,0,0,0,0,0,0,-1,2036,1534,0,0
-700,-517,0,0,0,0,0,0,0,0,0,-1,524,1541,0,0
-693,-517,0,0,0,0,0,0,0,0,0,-1,531,1541,0,0
-686,-517,0,0,0,0,0,0,0,0,0,-1,538,1541,0,0
-679,-517,0,0,0,0,0,0,0,0,0,-1,545,1541,0,0
-672,-517,0,0,0,0,0,0,0,0,0,-1,552,1541,0,0
-665,-517,0,0,0,0,0,0,0,0,0,-1,559,1541,0,0
-658,-517,0,0,0,0,0,0,0,0,0,-1,566,1541,0,0
-651,-517,0,0,0,0,0,0,0,0,0,-1,573,1541,0,0
-644,-517,0,0,0,0,0,0,0,0,0,-1,580,1541,0,0
-637,-517,0,0,0,0,0,0,0,0,0,-1,587,1541,0,0
-630,-517,0,0,0,0,0,0,0,0,0,-1,594,1541,0,0
-623,-517,0,0,0,0,0,0,0,0,0,-1,601,1541,0,0
-616,-517,0,0,0,0,0,0,0,0,0,-1,608,1541,0,0
-609,-517,0,0,0,0,0,0,0,0,0,-1,615,1541,0,0
-602,-517,0,0,0,0,0,0,0,0,0,-1,622,1541,0,0
-595,-517,0,0,0,0,0,0,0,0,0,-1,629,1541,0,0
-588,-517,0,0,0,0,0,0,0,0,0,-1,636,1541,0,0
-581,-517,0,0,0,0,0,0,0,0,0,-1,643,1541,0,0
-574,-517,0,0,0,0,0,0,0,0,0,-1,650,1541,0,0
-567,-517,0,0,0,0,0,0,0,0,0,-1,657,1541,0,0
-560,-517,0,0,0,0,0,0,0,0,0,-1,664,1541,0,0
-553,-517,0,0,0,0,0,0,0,0,0,-1,671,1541,0,0
-546,-517,0,0,0,0,0,0,0,0,0,-1,678,1541,0,0
-539,-517,0,0,0,0,0,0,0,0,0,-1,685,1541,0,0
-532,-517,0,0,0,0,0,0,0,0,0,-1,692,1541,0,0
-525,-517,-3.62903,4.3606,0,0,0,0,0,0,0,-1,699,1541,-3.62904,-4.36056
-518,-517,-1.664,2.27209,0,0,0,0,0,0,0,-1,706,1541,-1.66399,-2.27207
-511,-517,-0.999146,5.52063,0,0,0,0,0,0,0,-1,713,1541,-0.999126,-5.52059
-504,-517,-0.883362,4.79858,0,0,0,0,0,0,0,-1,720,1541,-0.88337,-4.79854
-497,-517,-2.39447,9.85315,0,0,0,0,0,0,0,-1,727,1541,-2.39448,-9.85309
-490,-517,-2.22955,10.521,0.0167191,0.00993467,0.00896931,0.0229162,0.00373754,0.604611,0.0141966,0.0419616,734,1541,-2.22953,-10.521
-483,-517,-1.68433,10.4656,0.0134223,0.00789095,0.00717986,0.0183507,0.00296251,0.601558,0.0113756,0.0423582,741,1541,-1.68435,-10.4655
-476,-517,-1.72321,10.8525,0.0107549,0.00653179,0.0058535,0.0148661,0.00242064,0.612295,0.00921048,0.0420933,748,1541,-1.72322,-10.8525
-469,-517,-1.91284,11.2672,0.00863945,0.0055153,0.0048666,0.0121885,0.00196622,0.630103,0.00755604,0.0192325,755,1541,-1.91286,-11.2672
-462,-517,-2.0174,11.6438,0.0071256,0.00472578,0.00416461,0.0102597,0.00159167,0.645137,0.00637582,0.018495,762,1541,-2.01739,-11.6438
-455,-517,-2.01416,12.0739,0.00582767,0.00389215,0.00343182,0.00842557,0.00129424,0.647969,0.00523919,0.0143838,769,1541,-2.01418,-12.0738
-448,-517,-2.02655,12.4885,0.00474609,0.00322097,0.00288088,0.00696362,0.00100343,0.656017,0.00434671,0.0127794,776,1541,-2.02654,-12.4886
-441,-517,-2.03461,12.8628,0.00400669,0.00269841,0.00258602,0.00602003,0.000685074,0.66152,0.0038056,0.0113097,783,1541,-2.03464,-12.8628
-434,-517,-2.02216,13.2401,0.00330522,0.00249491,0.00240498,0.00533893,0.000461199,0.701949,0.00341595,0.013934,790,1541,-2.02216,-13.2401
-427,-517,-2.05121,13.6152,0.00307696,0.00245018,0.00255575,0.00533846,0.000188675,0.724392,0.00349778,0.0135187,797,1541,-2.05124,-13.6153
-420,-517,-2.10248,14.0308,0.00318405,0.00267403,0.00275956,0.00570035,0.000157726,0.739324,0.00374877,0.0190361,804,1541,-2.1025,-14.0307
-413,-517,-2.07367,14.4038,0.00345484,0.00317004,0.00319781,0.00651341,0.000111464,0.763148,0.0043056,0.0104289,811,1541,-2.07364,-14.4039
-406,-517,-2.08221,14.7811,0.0040486,0.00419934,0.00403674,0.00816141,8.65306e-05,0.794732,0.00541233,0.0104325,818,1541,-2.08224,-14.7811
-399,-517,-2.07867,15.1824,0.00489982,0.00574679,0.00497171,0.010313,0.00033359,0.827885,0.00676689,0.0105533,825,1541,-2.07865,-15.1824
-392,-517,-2.05621,15.5865,0.00585729,0.00814355,0.00579565,0.0129077,0.00109311,0.882768,0.00826492,0.0140033,832,1541,-2.05619,-15.5866
-385,-517,-1.97375,16.1764,0.00649848,0.0100474,0.00574512,0.0142858,0.00226002,0.935182,0.00886709,0.0293538,839,1541,-1.97378,-16.1763
-378,-517,-1.86951,17.0796,0,0,0,0,0,0,0,-1,846,1541,-1.86952,-17.0795
-371,-517,-1.37585,13.2646,0,0,0,0,0,0,0,-1,853,1541,-1.37586,-13.2647
-364,-517,-1.26245,12.6289,0,0,0,0,0,0,0,-1,860,1541,-1.26243,-12.6289
-357,-517,-1.23889,12.979,0,0,0,0,0,0,0,-1,867,1541,-1.23891,-12.979
-350,-517,0.722412,10.0829,0,0,0,0,0,0,0,-1,874,1541,0.722399,-10.0828
-343,-517,-4.67834,14.4569,0,0,0,0,0,0,0,-1,881,1541,-4.67837,-14.4569
-336,-517,-4.32434,16.3674,0,0,0,0,0,0,0,-1,888,1541,-4.32433,-16.3674
-329,-517,-3.86652,19.4402,0,0,0,0,0,0,0,-1,895,1541,-3.86649,-19.4402
-322,-517,-4.21246,19.5819,0,0,0,0,0,0,0,-1,902,1541,-4.21244,-19.5819
-315,-517,-0.987976,7.29749,0,0,0,0,0,0,0,-1,909,1541,-0.987993,-7.29743
-308,-517,3.27911,17.621,0,0,0,0,0,0,0,-1,916,1541,3.27913,-17.621
-301,-517,-1.69141,8.87488,0,0,0,0,0,0,0,-1,923,1541,-1.69141,-8.87485
-294,-517,-1.72583,9.92566,0,0,0,0,0,0,0,-1,930,1541,-1.72584,-9.92571
-287,-517,-3.09045,12.1472,0,0,0,0,0,0,0,-1,937,1541,-3.09043,-12.1472
-280,-517,0,0,0,0,0,0,0,0,0,-1,944,1541,0,0
-273,-517,0,0,0,0,0,0,0,0,0,-1,951,1541,0,0
-266,-517,0,0,0,0,0,0,0,0,0,-1,958,1541,0,0
-259,-517,0,0,0,0,0,0,0,0,0,-1,965,1541,0,0
-252,-517,0,0,0,0,0,0,0,0,0,-1,972,1541,0,0
-245,-517,0,0,0,0,0,0,0,0,0,-1,979,1541,0,0
-238,-517,0,0,0,0,0,0,0,0,0,-1,986,1541,0,0
-231,-517,0,0,0,0,0,0,0,0,0,-1,993,1541,0,0
-224,-517,0,0,0,0,0,0,0,0,0,-1,1000,1541,0,0
-217,-517,0,0,0,0,0,0,0,0,0,-1,1007,1541,0,0
-210,-517,0,0,0,0,0,0,0,0,0,-1,1014,1541,0,0
-203,-517,0,0,0,0,0,0,0,0,0,-1,1021,1541,0,0
-196,-517,0,0,0,0,0,0,0,0,0,-1,1028,1541,0,0
-189,-517,0,0,0,0,0,0,0,0,0,-1,1035,1541,0,0
-182,-517,0,0,0,0,0,0,0,0,0,-1,1042,1541,0,0
-175,-517,0,0,0,0,0,0,0,0,0,-1,1049,1541,0,0
-168,-517,0,0,0,0,0,0,0,0,0,-1,1056,1541,0,0
-161,-517,0,0,0,0,0,0,0,0,0,-1,1063,1541,0,0
-154,-517,0,0,0,0,0,0,0,0,0,-1,1070,1541,0,0
-147,-517,0,0,0,0,0,0,0,0,0,-1,1077,1541,0,0
-140,-517,0,0,0,0,0,0,0,0,0,-1,1084,1541,0,0
-133,-517,0,0,0,0,0,0,0,0,0,-1,1091,1541,0,0
-126,-517,0,0,0,0,0,0,0,0,0,-1,1098,1541,0,0
-119,-517,0,0,0,0,0,0,0,0,0,-1,1105,1541,0,0
-112,-517,0,0,0,0,0,0,0,0,0,-1,1112,1541,0,0
-105,-517,0,0,0,0,0,0,0,0,0,-1,1119,1541,0,0
-98,-517,0,0,0,0,0,0,0,0,0,-1,1126,1541,0,0
-91,-517,0,0,0,0,0,0,0,0,0,-1,1133,1541,0,0
-84,-517,0,0,0,0,0,0,0,0,0,-1,1140,1541,0,0
-77,-517,0,0,0,0,0,0,0,0,0,-1,1147,1541,0,0
-70,-517,0,0,0,0,0,0,0,0,0,-1,1154,1541,0,0
-63,-517,0,0,0,0,0,0,0,0,0,-1,1161,1541,0,0
-56,-517,0,0,0,0,0,0,0,0,0,-1,1168,1541,0,0
-49,-517,0,0,0,0,0,0,0,0,0,-1,1175,1541,0,0
-42,-517,0,0,0,0,0,0,0,0,0,-1,1182,1541,0,0
-35,-517,0,0,0,0,0,0,0,0,0,-1,1189,1541,0,0
-28,-517,0,0,0,0,0,0,0,0,0,-1,1196,1541,0,0
-21,-517,0,0,0,0,0,0,0,0,0,-1,1203,1541,0,0
-14,-517,0,0,0,0,0,0,0,0,0,-1,1210,1541,0,0
-7,-517,0,0,0,0,0,0,0,0,0,-1,1217,1541,0,0
0,-517,0,0,0,0,0,0,0,0,0,-1,1224,1541,0,0
7,-517,0,0,0,0,0,0,0,0,0,-1,1231,1541,0,0
14,-517,0,0,0,0,0,0,0,0,0,-1,1238,1541,0,0
21,-517,0,0,0,0,0,0,0,0,0,-1,1245,1541,0,0
28,-517,0,0,0,0,0,0,0,0,0,-1,1252,1541,0,0
35,-517,0,0,0,0,0,0,0,0,0,-1,1259,1541,0,0
42,-517,0,0,0,0,0,0,0,0,0,-1,1266,1541,0,0
49,-517,0,0,0,0,0,0,0,0,0,-1,1273,1541,0,0
56,-517,0,0,0,0,0,0,0,0,0,-1,1280,1541,0,0
63,-517,0,0,0,0,0,0,0,0,0,-1,1287,1541,0,0
70,-517,0,0,0,0,0,0,0,0,0,-1,1294,1541,0,0
77,-517,0,0,0,0,0,0,0,0,0,-1,1301,1541,0,0
84,-517,0,0,0,0,0,0,0,0,0,-1,1308,1541,0,0
91,-517,0,0,0,0,0,0,0,0,0,-1,1315,1541,0,0
98,-517,0,0,0,0,0,0,0,0,0,-1,1322,1541,0,0
105,-517,0,0,0,0,0,0,0,0,0,-1,1329,1541,0,0
112,-517,0,0,0,0,0,0,0,0,0,-1,1336,1541,0,0
119,-517,0,0,0,0,0,0,0,0,0,-1,1343,1541,0,0
126,-517,0,0,0,0,0,0,0,0,0,-1,1350,1541,0,0
133,-517,0,0,0,0,0,0,0,0,0,-1,1357,1541,0,0
140,-517,0,0,0,0,0,0,0,0,0,-1,1364,1541,0,0
147,-517,0,0,0,0,0,0,0,0,0,-1,1371,1541,0,0
154,-517,0,0,0,0,0,0,0,0,0,-1,1378,1541,0,0
161,-517,0,0,0,0,0,0,0,0,0,-1,1385,1541,0,0
168,-517,0,0,0,0,0,0,0,0,0,-1,1392,1541,0,0
175,-517,0,0,0,0,0,0,0,0,0,-1,1399,1541,0,0
182,-517,0,0,0,0,0,0,0,0,0,-1,1406,1541,0,0
189,-517,0,0,0,0,0,0,0,0,0,-1,1413,1541,0,0
196,-517,0,0,0,0,0,0,0,0,0,-1,1420,1541,0,0
203,-517,0,0,0,0,0,0,0,0,0,-1,1427,1541,0,0
210,-517,0,0,0,0,0,0,0,0,0,-1,1434,1541,0,0
217,-517,0,0,0,0,0,0,0,0,0,-1,1441,1541,0,0
224,-517,0,0,0,0,0,0,0,0,0,-1,1448,1541,0,0
231,-517,0,0,0,0,0,0,0,0,0,-1,1455,1541,0,0
238,-517,0,0,0,0,0,0,0,0,0,-1,1462,1541,0,0
245,-517,0,0,0,0,0,0,0,0,0,-1,1469,1541,0,0
252,-517,0,0,0,0,0,0,0,0,0,-1,1476,1541,0,0
259,-517,0,0,0,0,0,0,0,0,0,-1,1483,1541,0,0
266,-517,0,0,0,0,0,0,0,0,0,-1,1490,1541,0,0
273,-517,0,0,0,0,0,0,0,0,0,-1,1497,1541,0,0
280,-517,0,0,0,0,0,0,0,0,0,-1,1504,1541,0,0
287,-517,0,0,0,0,0,0,0,0,0,-1,1511,1541,0,0
294,-517,0,0,0,0,0,0,0,0,0,-1,1518,1541,0,0
301,-517,0,0,0,0,0,0,0,0,0,-1,1525,1541,0,0
308,-517,0,0,0,0,0,0,0,0,0,-1,1532,1541,0,0
315,-517,0,0,0,0,0,0,0,0,0,-1,1539,1541,0,0
322,-517,0,0,0,0,0,0,0,0,0,-1,1546,1541,0,0
329,-517,0,0,0,0,0,0,0,0,0,-1,1553,1541,0,0
336,-517,0,0,0,0,0,0,0,0,0,-1,1560,1541,0,0
343,-517,0,0,0,0,0,0,0,0,0,-1,1567,1541,0,0
350,-517,0,0,0,0,0,0,0,0,0,-1,1574,1541,0,0
357,-517,0,0,0,0,0,0,0,0,0,-1,1581,1541,0,0
364,-517,0,0,0,0,0,0,0,0,0,-1,1588,1541,0,0
371,-517,0,0,0,0,0,0,0,0,0,-1,1595,1541,0,0
378,-517,0,0,0,0,0,0,0,0,0,-1,1602,1541,0,0
385,-517,0,0,0,0,0,0,0,0,0,-1,1609,1541,0,0
392,-517,0,0,0,0,0,0,0,0,0,-1,1616,1541,0,0
399,-517,0,0,0,0,0,0,0,0,0,-1,1623,1541,0,0
406,-517,13.1395,7.01978,0,0,0,0,0,0,0,-1,1630,1541,13.1396,-7.01981
413,-517,12.8859,6.31592,0,0,0,0,0,0,0,-1,1637,1541,12.8858,-6.31588
420,-517,12.4789,6.20337,0,0,0,0,0,0,0,-1,1644,1541,12.4789,-6.20333
427,-517,11.647,4.66516,0,0,0,0,0,0,0,-1,1651,1541,11.647,-4.66519
434,-517,12.3719,3.92773,0,0,0,0,0,0,0,-1,1658,1541,12.3719,-3.92776
441,-517,13.146,3.14124,0,0,0,0,0,0,0,-1,1665,1541,13.146,-3.14121
448,-517,13.8861,2.36682,0,0,0,0,0,0,0,-1,1672,1541,13.8861,-2.36684
455,-517,13.6012,4.06335,0,0,0,0,0,0,0,-1,1679,1541,13.6012,-4.06335
462,-517,14.8956,7.0752,0,0,0,0,0,0,0,-1,1686,1541,14.8956,-7.07525
469,-517,13.6292,6.87744,0,0,0,0,0,0,0,-1,1693,1541,13.6292,-6.87739
476,-517,17.1632,14.1487,0,0,0,0,0,0,0,-1,1700,1541,17.1632,-14.1487
483,-517,16.5157,15.0776,0,0,0,0,0,0,0,-1,1707,1541,16.5157,-15.0777
490,-517,14.7307,16.3545,0,0,0,0,0,0,0,-1,1714,1541,14.7307,-16.3545
497,-517,15.0801,17.8052,0,0,0,0,0,0,0,-1,1721,1541,15.0801,-17.8052
504,-517,14.2262,17.9441,0,0,0,0,0,0,0,-1,1728,1541,14.2262,-17.9441
511,-517,14.6931,17.9031,0,0,0,0,0,0,0,-1,1735,1541,14.6931,-17.903
518,-517,14.4619,17.1498,0,0,0,0,0,0,0,-1,1742,1541,14.4619,-17.1498
525,-517,14.3368,16.844,0.000863774,0.00040028,0.00033981,0.00104334,0.000220715,0.48613,0.000634907,0.0175743,1749,1541,14.3368,-16.844
532,-517,14.4452,16.4261,0.000544409,-0.000148177,0.00058111,0.000874583,-0.000478352,0.516692,0.000792205,0.0112283,1756,1541,14.4452,-16.4261
539,-517,14.4613,16.069,0.00048379,-0.000485753,0.000647424,0.000807821,-0.000809784,0.464041,0.000933925,0.0120994,1763,1541,14.4612,-16.069
546,-517,14.4491,15.7389,0.000588282,-0.000696123,0.000599468,0.000824593,-0.000932434,0.375497,0.00101506,0.0128024,1770,1541,14.4491,-15.7389
553,-517,14.4375,15.3976,0.000741822,-0.000857825,0.00049297,0.000881539,-0.000997542,0.276177,0.00108558,0.01612,1777,1541,14.4375,-15.3976
560,-517,14.4387,15.0525,0.00103241,-0.000880038,0.000265112,0.00106848,-0.000916109,0.135228,0.00114693,0.0156717,1784,1541,14.4388,-15.0525
567,-517,14.4296,14.6956,0.00152644,-0.00104247,3.03094e-05,0.0015268,-0.00104283,0.0117963,0.00149232,0.0123241,1791,1541,14.4296,-14.6956
574,-517,14.4083,14.3225,0.00237934,-0.00115615,-0.000482477,0.002444,-0.00122081,-0.133222,0.0021548,0.0131488,1798,1541,14.4083,-14.3225
581,-517,14.389,13.9651,0.00328352,-0.00136879,-0.000934639,0.00346427,-0.00154954,-0.191027,0.00296425,0.0150728,1805,1541,14.389,-13.965
588,-517,14.3942,13.5947,0.00439471,-0.00183108,-0.0013721,0.00468369,-0.00212006,-0.20758,0.00402003,0.0158507,1812,1541,14.3942,-13.5947
595,-517,14.4377,13.2667,0.00581584,-0.00265107,-0.00194723,0.0062422,-0.00307742,-0.215553,0.00548312,0.042789,1819,1541,14.4377,-13.2667
602,-517,14.6838,12.6974,0,0,0,0,0,0,0,-1,1826,1541,14.6838,-12.6973
609,-517,12.6417,10.8751,0,0,0,0,0,0,0,-1,1833,1541,12.6417,-10.8751
616,-517,14.205,10.3193,0,0,0,0,0,0,0,-1,1840,1541,14.205,-10.3194
623,-517,12.578,10.0779,0,0,0,0,0,0,0,-1,1847,1541,12.578,-10.0779
630,-517,11.7035,7.47815,0,0,0,0,0,0,0,-1,1854,1541,11.7035,-7.47812
637,-517,11.5172,5.79822,0,0,0,0,0,0,0,-1,1861,1541,11.5173,-5.79825
644,-517,11.4232,3.30579,0,0,0,0,0,0,0,-1,1868,1541,11.4232,-3.30574
651,-517,0,0,0,0,0,0,0,0,0,-1,1875,1541,0,0
658,-517,0,0,0,0,0,0,0,0,0,-1,1882,1541,0,0
665,-517,0,0,0,0,0,0,0,0,0,-1,1889,1541,0,0
672,-517,0,0,0,0,0,0,0,0,0,-1,1896,1541,0,0
679,-517,0,0,0,0,0,0,0,0,0,-1,1903,1541,0,0
686,-517,0,0,0,0,0,0,0,0,0,-1,1910,1541,0,0
693,-517,0,0,0,0,0,0,0,0,0,-1,1917,1541,0,0
700,-517,0,0,0,0,0,0,0,0,0,-1,1924,1541,0,0
707,-517,0,0,0,0,0,0,0,0,0,-1,1931,1541,0,0
714,-517,0,0,0,0,0,0,0,0,0,-1,1938,1541,0,0
721,-517,0,0,0,0,0,0,0,0,0,-1,1945,1541,0,0
728,-517,0,0,0,0,0,0,0,0,0,-1,1952,1541,0,0
735,-517,0,0,0,0,0,0,0,0,0,-1,1959,1541,0,0
742,-517,0,0,0,0,0,0,0,0,0,-1,1966,1541,0,0
749,-517,0,0,0,0,0,0,0,0,0,-1,1973,1541,0,0
756,-517,0,0,0,0,0,0,0,0,0,-1,1980,1541,0,0
763,-517,0,0,0,0,0,0,0,0,0,-1,1987,1541,0,0
770,-517,0,0,0,0,0,0,0,0,0,-1,1994,1541,0,0
777,-517,0,0,0,0,0,0,0,0,0,-1,2001,1541,0,0
784,-517,0,0,0,0,0,0,0,0,0,-1,2008,1541,0,0
791,-517,0,0,0,0,0,0,0,0,0,-1,2015,1541,0,0
798,-517,0,0,0,0,0,0,0,0,0,-1,2022,1541,0,0
805,-517,0,0,0,0,0,0,0,0,0,-1,2029,1541,0,0
812,-517,0,0,0,0,0,0,0,0,0,-1,2036,1541,0,0
-700,-524,0,0,0,0,0,0,0,0,0,-1,524,1548,0,0
-693,-524,0,0,0,0,0,0,0,0,0,-1,531,1548,0,0
-686,-524,0,0,0,0,0,0,0,0,0,-1,538,1548,0,0
-679,-524,0,0,0,0,0,0,0,0,0,-1,545,1548,0,0
-672,-524,0,0,0,0,0,0,0,0,0,-1,552,1548,0,0
-665,-524,0,0,0,0,0,0,0,0,0,-1,559,1548,0,0
-658,-524,0,0,0,0,0,0,0,0,0,-1,566,1548,0,0
-651,-524,0,0,0,0,0,0,0,0,0,-1,573,1548,0,0
-644,-524,0,0,0,0,0,0,0,0,0,-1,580,1548,0,0
-637,-524,0,0,0,0,0,0,0,0,0,-1,587,1548,0,0
-630,-524,0,0,0,0,0,0,0,0,0,-1,594,1548,0,0
-623,-524,0,0,0,0,0,0,0,0,0,-1,601,1548,0,0
-616,-524,0,0,0,0,0,0,0,0,0,-1,608,1548,0,0
-609,-524,0,0,0,0,0,0,0,0,0,-1,615,1548,0,0
-602,-524,0,0,0,0,0,0,0,0,0,-1,622,1548,0,0
-595,-524,0,0,0,0,0,0,0,0,0,-1,629,1548,0,0
-588,-524,0,0,0,0,0,0,0,0,0,-1,636,1548,0,0
-581,-524,0,0,0,0,0,0,0,0,0,-1,643,1548,0,0
-574,-524,0,0,0,0,0,0,0,0,0,-1,650,1548,0,0
-567,-524,0,0,0,0,0,0,0,0,0,-1,657,1548,0,0
-560,-524,0,0,0,0,0,0,0,0,0,-1,664,1548,0,0
-553,-524,0,0,0,0,0,0,0,0,0,-1,671,1548,0,0
-546,-524,0,0,0,0,0,0,0,0,0,-1,678,1548,0,0
-539,-524,0,0,0,0,0,0,0,0,0,-1,685,1548,0,0
-532,-524,0,0,0,0,0,0,0,0,0,-1,692,1548,0,0
-525,-524,-0.215515,3.97131,0,0,0,0,0,0,0,-1,699,1548,-0.215501,-3.97136
-518,-524,-0.806274,4.35632,0,0,0,0,0,0,0,-1,706,1548,-0.806259,-4.35633
-511,-524,-1.08301,4.29004,0,0,0,0,0,0,0,-1,713,1548,-1.08301,-4.29006
-504,-524,-1.28821,3.98145,0,0,0,0,0,0,0,-1,720,1548,-1.28822,-3.98151
-497,-524,-0.420349,8.55383,0,0,0,0,0,0,0,-1,727,1548,-0.420322,-8.55384
-490,-524,-2.32599,10.4926,0,0,0,0,0,0,0,-1,734,1548,-2.326,-10.4926
-483,-524,-1.53162,10.5618,0,0,0,0,0,0,0,-1,741,1548,-1.53164,-10.5617
-476,-524,-1.60547,10.9974,0.0158516,0.00985107,0.00849683,0.0218623,0.00384035,0.615681,0.0134784,0.0457307,748,1548,-1.60546,-10.9974
-469,-524,-1.67242,11.4324,0.0127817,0.00865253,0.00724445,0.01825,0.00318423,0.646583,0.0112564,0.0352516,755,1548,-1.67245,-11.4324
-462,-524,-1.64337,11.8135,0.010367,0.00758824,0.00618293,0.0153148,0.00264052,0.674877,0.0094534,0.0280086,762,1548,-1.64335,-11.8135
-455,-524,-1.66205,12.0961,0.00827345,0.00643867,0.00511387,0.0125516,0.00216055,0.696646,0.00774859,0.020343,769,1548,-1.66206,-12.096
-448,-524,-1.63202,12.4969,0.00647282,0.00529192,0.00413889,0.0100632,0.00170157,0.714547,0.00621966,0.0128237,776,1548,-1.63199,-12.4969
-441,-524,-1.63629,12.8816,0.00509892,0.00430356,0.00341565,0.00813996,0.00126252,0.727444,0.00505859,0.0106139,783,1548,-1.63628,-12.8816
-434,-524,-1.61749,13.2531,0.00383866,0.00367833,0.0028568,0.00661642,0.000900569,0.771371,0.00414351,0.0127853,790,1548,-1.61749,-13.253
-427,-524,-1.63501,13.6342,0.00317585,0.00321313,0.00270008,0.00589463,0.000494341,0.78885,0.00377577,0.0129979,797,1548,-1.63501,-13.6342
-420,-524,-1.67566,14.0378,0.00297095,0.00312055,0.00260313,0.00564995,0.000441542,0.799762,0.00362842,0.010829,804,1548,-1.67565,-14.0378
-413,-524,-1.67786,14.4283,0.00297095,0.00334672,0.00273165,0.00589694,0.00042073,0.819734,0.00379882,0.0104814,811,1548,-1.67786,-14.4283
-406,-524,-1.67932,14.8096,0.0031812,0.00390414,0.00322419,0.00678706,0.000298277,0.841221,0.00442863,0.011367,818,1548,-1.67935,-14.8096
-399,-524,-1.68573,15.1973,0.00372492,0.00505387,0.00387394,0.00831991,0.000458884,0.870333,0.00540015,0.0095501,825,1548,-1.68572,-15.1973
-392,-524,-1.69287,15.5751,0.00444251,0.00690063,0.00437536,0.0102163,0.00112687,0.922322,0.00646804,0.0102091,832,1548,-1.69289,-15.5751
-385,-524,-1.70551,15.9774,0.00496443,0.0084097,0.0041735,0.0112021,0.00217202,0.981125,0.00685966,0.0137664,839,1548,-1.70549,-15.9774
-378,-524,-1.63745,16.5842,0.00529034,0.00983357,0.00388896,0.0120658,0.00305816,1.04973,0.00724295,0.0386002,846,1548,-1.63747,-16.5843
-371,-524,-1.54663,17.146,0,0,0,0,0,0,0,-1,853,1548,-1.54661,-17.146
-364,-524,-0.712097,14.9871,0,0,0,0,0,0,0,-1,860,1548,-0.712116,-14.9871
-357,-524,-1.34052,14.7448,0,0,0,0,0,0,0,-1,867,1548,-1.34054,-14.7447
-350,-524,-2.63245,12.7522,0,0,0,0,0,0,0,-1,874,1548,-2.63245,-12.7522
-343,-524,-3.11719,14.8851,0,0,0,0,0,0,0,-1,881,1548,-3.11718,-14.8851
-336,-524,-1.9267,17.5439,0,0,0,0,0,0,0,-1,888,1548,-1.92668,-17.544
-329,-524,-0.442932,18.7251,0,0,0,0,0,0,0,-1,895,1548,-0.442949,-18.7251
-322,-524,-2.88702,18.4606,0,0,0,0,0,0,0,-1,902,1548,-2.88699,-18.4606
-315,-524,-1.90839,19.4824,0,0,0,0,0,0,0,-1,909,1548,-1.90838,-19.4824
-308,-524,-2.36938,19.3059,0,0,0,0,0,0,0,-1,916,1548,-2.3694,-19.3058
-301,-524,2.72394,17.7618,0,0,0,0,0,0,0,-1,923,1548,2.72396,-17.7619
-294,-524,-1.52515,9.05408,0,0,0,0,0,0,0,-1,930,1548,-1.52512,-9.05411
-287,-524,-0.962219,10.3199,0,0,0,0,0,0,0,-1,937,1548,-0.962241,-10.32
-280,-524,-1.36255,10.3859,0,0,0,0,0,0,0,-1,944,1548,-1.36253,-10.3859
-273,-524,0,0,0,0,0,0,0,0,0,-1,951,1548,0,0
-266,-524,0,0,0,0,0,0,0,0,0,-1,958,1548,0,0
-259,-524,0,0,0,0,0,0,0,0,0,-1,965,1548,0,0
-252,-524,0,0,0,0,0,0,0,0,0,-1,972,1548,0,0
-245,-524,0,0,0,0,0,0,0,0,0,-1,979,1548,0,0
-238,-524,0,0,0,0,0,0,0,0,0,-1,986,1548,0,0
-231,-524,0,0,0,0,0,0,0,0,0,-1,993,1548,0,0
-224,-524,0,0,0,0,0,0,0,0,0,-1,1000,1548,0,0
-217,-524,0,0,0,0,0,0,0,0,0,-1,1007,1548,0,0
-210,-524,0,0,0,0,0,0,0,0,0,-1,1014,1548,0,0
-203,-524,0,0,0,0,0,0,0,0,0,-1,1021,1548,0,0
-196,-524,0,0,0,0,0,0,0,0,0,-1,1028,1548,0,0
-189,-524,0,0,0,0,0,0,0,0,0,-1,1035,1548,0,0
-182,-524,0,0,0,0,0,0,0,0,0,-1,1042,1548,0,0
-175,-524,0,0,0,0,0,0,0,0,0,-1,1049,1548,0,0
-168,-524,0,0,0,0,0,0,0,0,0,-1,1056,1548,0,0
-161,-524,0,0,0,0,0,0,0,0,0,-1,1063,1548,0,0
-154,-524,0,0,0,0,0,0,0,0,0,-1,1070,1548,0,0
-147,-524,0,0,0,0,0,0,0,0,0,-1,1077,1548,0,0
-140,-524,0,0,0,0,0,0,0,0,0,-1,1084,1548,0,0
-133,-524,0,0,0,0,0,0,0,0,0,-1,1091,1548,0,0
-126,-524,0,0,0,0,0,0,0,0,0,-1,1098,1548,0,0
-119,-524,0,0,0,0,0,0,0,0,0,-1,1105,1548,0,0
-112,-524,0,0,0,0,0,0,0,0,0,-1,1112,1548,0,0
-105,-524,0,0,0,0,0,0,0,0,0,-1,1119,1548,0,0
-98,-524,0,0,0,0,0,0,0,0,0,-1,1126,1548,0,0
-91,-524,0,0,0,0,0,0,0,0,0,-1,1133,1548,0,0
-84,-524,0,0,0,0,0,0,0,0,0,-1,1140,1548,0,0
-77,-524,0,0,0,0,0,0,0,0,0,-1,1147,1548,0,0
-70,-524,0,0,0,0,0,0,0,0,0,-1,1154,1548,0,0
-63,-524,0,0,0,0,0,0,0,0,0,-1,1161,1548,0,0
-56,-524,0,0,0,0,0,0,0,0,0,-1,1168,1548,0,0
-49,-524,0,0,0,0,0,0,0,0,0,-1,1175,1548,0,0
-42,-524,0,0,0,0,0,0,0,0,0,-1,1182,1548,0,0
-35,-524,0,0,0,0,0,0,0,0,0,-1,1189,1548,0,0
-28,-524,0,0,0,0,0,0,0,0,0,-1,1196,1548,0,0
-21,-524,0,0,0,0,0,0,0,0,0,-1,1203,1548,0,0
-14,-524,0,0,0,0,0,0,0,0,0,-1,1210,1548,0,0
-7,-524,0,0,0,0,0,0,0,0,0,-1,1217,1548,0,0
0,-524,0,0,0,0,0,0,0,0,0,-1,1224,1548,0,0
7,-524,0,0,0,0,0,0,0,0,0,-1,1231,1548,0,0
14,-524,0,0,0,0,0,0,0,0,0,-1,1238,1548,0,0
21,-524,0,0,0,0,0,0,0,0,0,-1,1245,1548,0,0
28,-524,0,0,0,0,0,0,0,0,0,-1,1252,1548,0,0
35,-524,0,0,0,0,0,0,0,0,0,-1,1259,1548,0,0
42,-524,0,0,0,0,0,0,0,0,0,-1,1266,1548,0,0
49,-524,0,0,0,0,0,0,0,0,0,-1,1273,1548,0,0
56,-524,0,0,0,0,0,0,0,0,0,-1,1280,1548,0,0
63,-524,0,0,0,0,0,0,0,0,0,-1,1287,1548,0,0
70,-524,0,0,0,0,0,0,0,0,0,-1,1294,1548,0,0
77,-524,0,0,0,0,0,0,0,0,0,-1,1301,1548,0,0
84,-524,0,0,0,0,0,0,0,0,0,-1,1308,1548,0,0
91,-524,0,0,0,0,0,0,0,0,0,-1,1315,1548,0,0
98,-524,0,0,0,0,0,0,0,0,0,-1,1322,1548,0,0
105,-524,0,0,0,0,0,0,0,0,0,-1,1329,1548,0,0
112,-524,0,0,0,0,0,0,0,0,0,-1,1336,1548,0,0
119,-524,0,0,0,0,0,0,0,0,0,-1,1343,1548,0,0
126,-524,0,0,0,0,0,0,0,0,0,-1,1350,1548,0,0
133,-524,0,0,0,0,0,0,0,0,0,-1,1357,1548,0,0
140,-524,0,0,0,0,0,0,0,0,0,-1,1364,1548,0,0
147,-524,0,0,0,0,0,0,0,0,0,-1,1371,1548,0,0
154,-524,0,0,0,0,0,0,0,0,0,-1,1378,1548,0,0
161,-524,0,0,0,0,0,0,0,0,0,-1,1385,1548,0,0
168,-524,0,0,0,0,0,0,0,0,0,-1,1392,1548,0,0
175,-524,0,0,0,0,0,0,0,0,0,-1,1399,1548,0,0
182,-524,0,0,0,0,0,0,0,0,0,-1,1406,1548,0,0
189,-524,0,0,0,0,0,0,0,0,0,-1,1413,1548,0,0
196,-524,0,0,0,0,0,0,0,0,0,-1,1420,1548,0,0
203,-524,0,0,0,0,0,0,0,0,0,-1,1427,1548,0,0
210,-524,0,0,0,0,0,0,0,0,0,-1,1434,1548,0,0
217,-524,0,0,0,0,0,0,0,0,0,-1,1441,1548,0,0
224,-524,0,0,0,0,0,0,0,0,0,-1,1448,1548,0,0
231,-524,0,0,0,0,0,0,0,0,0,-1,1455,1548,0,0
238,-524,0,0,0,0,0,0,0,0,0,-1,1462,1548,0,0
245,-524,0,0,0,0,0,0,0,0,0,-1,1469,1548,0,0
252,-524,0,0,0,0,0,0,0,0,0,-1,1476,1548,0,0
259,-524,0,0,0,0,0,0,0,0,0,-1,1483,1548,0,0
266,-524,0,0,0,0,0,0,0,0,0,-1,1490,1548,0,0
273,-524,0,0,0,0,0,0,0,0,0,-1,1497,1548,0,0
280,-524,0,0,0,0,0,0,0,0,0,-1,1504,1548,0,0
287,-524,0,0,0,0,0,0,0,0,0,-1,1511,1548,0,0
294,-524,0,0,0,0,0,0,0,0,0,-1,1518,1548,0,0
301,-524,0,0,0,0,0,0,0,0,0,-1,1525,1548,0,0
308,-524,0,0,0,0,0,0,0,0,0,-1,1532,1548,0,0
315,-524,0,0,0,0,0,0,0,0,0,-1,1539,1548,0,0
322,-524,0,0,0,0,0,0,0,0,0,-1,1546,1548,0,0
329,-524,0,0,0,0,0,0,0,0,0,-1,1553,1548,0,0
336,-524,0,0,0,0,0,0,0,0,0,-1,1560,1548,0,0
343,-524,0,0,0,0,0,0,0,0,0,-1,1567,1548,0,0
350,-524,0,0,0,0,0,0,0,0,0,-1,1574,1548,0,0
357,-524,0,0,0,0,0,0,0,0,0,-1,1581,1548,0,0
364,-524,0,0,0,0,0,0,0,0,0,-1,1588,1548,0,0
371,-524,0,0,0,0,0,0,0,0,0,-1,1595,1548,0,0
378,-524,0,0,0,0,0,0,0,0,0,-1,1602,1548,0,0
385,-524,0,0,0,0,0,0,0,0,0,-1,1609,1548,0,0
392,-524,0,0,0,0,0,0,0,0,0,-1,1616,1548,0,0
399,-524,8.81848,5.05774,0,0,0,0,0,0,0,-1,1623,1548,8.81843,-5.05769
406,-524,8.64294,6.06799,0,0,0,0,0,0,0,-1,1630,1548,8.6429,-6.06805
413,-524,11.677,6.41858,0,0,0,0,0,0,0,-1,1637,1548,11.677,-6.41864
420,-524,11.4913,6.36401,0,0,0,0,0,0,0,-1,1644,1548,11.4913,-6.36402
427,-524,7.68335,6.17249,0,0,0,0,0,0,0,-1,1651,1548,7.68341,-6.17245
434,-524,10.432,11.6801,0,0,0,0,0,0,0,-1,1658,1548,10.432,-11.68
441,-524,8.78552,4.12305,0,0,0,0,0,0,0,-1,1665,1548,8.78553,-4.12301
448,-524,14.1854,4.78674,0,0,0,0,0,0,0,-1,1672,1548,14.1854,-4.78674
455,-524,12.4784,3.65576,0,0,0,0,0,0,0,-1,1679,1548,12.4784,-3.65572
462,-524,14.7551,9.29395,0,0,0,0,0,0,0,-1,1686,1548,14.7552,-9.29397
469,-524,16.3314,14.3779,0,0,0,0,0,0,0,-1,1693,1548,16.3314,-14.3779
476,-524,15.9106,15.1875,0,0,0,0,0,0,0,-1,1700,1548,15.9107,-15.1876
483,-524,15.2776,16.2268,0,0,0,0,0,0,0,-1,1707,1548,15.2776,-16.2269
490,-524,14.4736,17.0702,0,0,0,0,0,0,0,-1,1714,1548,14.4736,-17.0702
497,-524,13.9281,18.3926,0,0,0,0,0,0,0,-1,1721,1548,13.9282,-18.3925
504,-524,14.0227,17.8236,0,0,0,0,0,0,0,-1,1728,1548,14.0227,-17.8236
511,-524,13.7695,17.6045,0,0,0,0,0,0,0,-1,1735,1548,13.7695,-17.6045
518,-524,14.1118,17.1504,0.00199087,0.00223527,-0.000819563,0.0029417,0.00128445,-0.859405,0.00170293,0.0202278,1742,1548,14.1118,-17.1504
525,-524,14.0902,16.8203,0.0014371,0.00123356,-0.000323923,0.00167486,0.000995795,-0.633193,0.000972729,0.0143012,1749,1548,14.0902,-16.8204
532,-524,14.0862,16.4569,0.000988628,0.000482163,6.88344e-05,0.000997817,0.000472974,0.132705,0.000576349,0.00970121,1756,1548,14.0862,-16.457
539,-524,14.084,16.0791,0.000818126,-9.58015e-05,0.000289802,0.000902274,-0.000179949,0.28259,0.000669608,0.0101814,1763,1548,14.084,-16.0791
546,-524,14.0852,15.7274,0.000793164,-0.000555981,0.00041961,0.000913023,-0.000675839,0.278234,0.000920731,0.0136333,1770,1548,14.0852,-15.7274
553,-524,14.0929,15.4027,0.000822552,-0.000946199,0.000479965,0.0009444,-0.00106805,0.248617,0.00116262,0.0229319,1777,1548,14.0929,-15.4027
560,-524,14.0807,15.0505,0.00101527,-0.00118161,0.000402984,0.00108686,-0.00125319,0.175812,0.00135217,0.0308372,1784,1548,14.0807,-15.0505
567,-524,14.0566,14.7107,0.00145494,-0.00154785,0.000298348,0.0014843,-0.00157721,0.098079,0.00176783,0.0170008,1791,1548,14.0567,-14.7107
574,-524,14.0675,14.3328,0.00231599,-0.00184123,-0.000133859,0.00232029,-0.00184554,-0.0321548,0.00241034,0.0125431,1798,1548,14.0674,-14.3327
581,-524,14.0555,13.963,0.00331917,-0.0021768,-0.000561439,0.00337594,-0.00223357,-0.100768,0.00326096,0.0141079,1805,1548,14.0555,-13.963
588,-524,14.1,13.5693,0.00457519,-0.00284751,-0.000962711,0.00469802,-0.00297034,-0.126901,0.00446462,0.022667,1812,1548,14.1,-13.5693
595,-524,14.1664,13.0413,0,0,0,0,0,0,0,-1,1819,1548,14.1664,-13.0413
602,-524,13.837,12.0682,0,0,0,0,0,0,0,-1,1826,1548,13.837,-12.0683
609,-524,13.0056,10.5138,0,0,0,0,0,0,0,-1,1833,1548,13.0056,-10.5138
616,-524,11.6941,8.65515,0,0,0,0,0,0,0,-1,1840,1548,11.6941,-8.65514
623,-524,9.38452,5.15356,0,0,0,0,0,0,0,-1,1847,1548,9.38456,-5.15359
630,-524,11.0541,3.57434,0,0,0,0,0,0,0,-1,1854,1548,11.0541,-3.57438
637,-524,11.6067,3.20728,0,0,0,0,0,0,0,-1,1861,1548,11.6067,-3.20724
644,-524,12.2134,0.727173,0,0,0,0,0,0,0,-1,1868,1548,12.2134,-0.727222
651,-524,0,0,0,0,0,0,0,0,0,-1,1875,1548,0,0
658,-524,0,0,0,0,0,0,0,0,0,-1,1882,1548,0,0
665,-524,0,0,0,0,0,0,0,0,0,-1,1889,1548,0,0
672,-524,0,0,0,0,0,0,0,0,0,-1,1896,1548,0,0
679,-524,0,0,0,0,0,0,0,0,0,-1,1903,1548,0,0
686,-524,0,0,0,0,0,0,0,0,0,-1,1910,1548,0,0
693,-524,0,0,0,0,0,0,0,0,0,-1,1917,1548,0,0
700,-524,0,0,0,0,0,0,0,0,0,-1,1924,1548,0,0
707,-524,0,0,0,0,0,0,0,0,0,-1,1931,1548,0,0
714,-524,0,0,0,0,0,0,0,0,0,-1,1938,1548,0,0
721,-524,0,0,0,0,0,0,0,0,0,-1,1945,1548,0,0
728,-524,0,0,0,0,0,0,0,0,0,-1,1952,1548,0,0
735,-524,0,0,0,0,0,0,0,0,0,-1,1959,1548,0,0
742,-524,0,0,0,0,0,0,0,0,0,-1,1966,1548,0,0
749,-524,0,0,0,0,0,0,0,0,0,-1,1973,1548,0,0
756,-524,0,0,0,0,0,0,0,0,0,-1,1980,1548,0,0
763,-524,0,0,0,0,0,0,0,0,0,-1,1987,1548,0,0
770,-524,0,0,0,0,0,0,0,0,0,-1,1994,1548,0,0
777,-524,0,0,0,0,0,0,0,0,0,-1,2001,1548,0,0
784,-524,0,0,0,0,0,0,0,0,0,-1,2008,1548,0,0
791,-524,0,0,0,0,0,0,0,0,0,-1,2015,1548,0,0
798,-524,0,0,0,0,0,0,0,0,0,-1,2022,1548,0,0
805,-524,0,0,0,0,0,0,0,0,0,-1,2029,1548,0,0
812,-524,0,0,0,0,0,0,0,0,0,-1,2036,1548,0,0
-700,-531,0,0,0,0,0,0,0,0,0,-1,524,1555,0,0
-693,-531,0,0,0,0,0,0,0,0,0,-1,531,1555,0,0
-686,-531,0,0,0,0,0,0,0,0,0,-1,538,1555,0,0
-679,-531,0,0,0,0,0,0,0,0,0,-1,545,1555,0,0
-672,-531,0,0,0,0,0,0,0,0,0,-1,552,1555,0,0
-665,-531,0,0,0,0,0,0,0,0,0,-1,559,1555,0,0
-658,-531,0,0,0,0,0,0,0,0,0,-1,566,1555,0,0
-651,-531,0,0,0,0,0,0,0,0,0,-1,573,1555,0,0
-644,-531,0,0,0,0,0,0,0,0,0,-1,580,1555,0,0
-637,-531,0,0,0,0,0,0,0,0,0,-1,587,1555,0,0
-630,-531,0,0,0,0,0,0,0,0,0,-1,594,1555,0,0
-623,-531,0,0,0,0,0,0,0,0,0,-1,601,1555,0,0
-616,-531,0,0,0,0,0,0,0,0,0,-1,608,1555,0,0
-609,-531,0,0,0,0,0,0,0,0,0,-1,615,1555,0,0
-602,-531,0,0,0,0,0,0,0,0,0,-1,622,1555,0,0
-595,-531,0,0,0,0,0,0,0,0,0,-1,629,1555,0,0
-588,-531,0,0,0,0,0,0,0,0,0,-1,636,1555,0,0
-581,-531,0,0,0,0,0,0,0,0,0,-1,643,1555,0,0
-574,-531,0,0,0,0,0,0,0,0,0,-1,650,1555,0,0
-567,-531,0,0,0,0,0,0,0,0,0,-1,657,1555,0,0
-560,-531,0,0,0,0,0,0,0,0,0,-1,664,1555,0,0
-553,-531,0,0,0,0,0,0,0,0,0,-1,671,1555,0,0
-546,-531,0,0,0,0,0,0,0,0,0,-1,678,1555,0,0
-539,-531,0,0,0,0,0,0,0,0,0,-1,685,1555,0,0
-532,-531,0,0,0,0,0,0,0,0,0,-1,692,1555,0,0
-525,-531,0,0,0,0,0,0,0,0,0,-1,699,1555,0,0
-518,-531,-1.63983,4.03821,0,0,0,0,0,0,0,-1,706,1555,-1.63982,-4.03821
-511,-531,-2.9682,8.07483,0,0,0,0,0,0,0,-1,713,1555,-2.9682,-8.07479
-504,-531,-2.95978,0.557861,0,0,0,0,0,0,0,-1,720,1555,-2.95978,-0.557917
-497,-531,-2.46039,8.07422,0,0,0,0,0,0,0,-1,727,1555,-2.46039,-8.07423
-490,-531,-0.423462,7.92065,0,0,0,0,0,0,0,-1,734,1555,-0.42344,-7.92066
-483,-531,-0.657166,8.91162,0,0,0,0,0,0,0,-1,741,1555,-0.65716,-8.9116
-476,-531,-1.53418,11.24,0,0,0,0,0,0,0,-1,748,1555,-1.53418,-11.24
-469,-531,-1.61908,11.594,0.0181227,0.0134618,0.0105683,0.0266145,0.00497006,0.676878,0.0163402,0.0439728,755,1555,-1.61907,-11.594
-462,-531,-1.51331,12.1146,0.0146177,0.0118506,0.00902372,0.0223633,0.00410498,0.709329,0.0137464,0.0416159,762,1555,-1.51333,-12.1146
-455,-531,-1.26831,12.2706,0.0115502,0.0100515,0.00749132,0.0183295,0.00327213,0.735549,0.0112882,0.0333995,769,1555,-1.26829,-12.2707
-448,-531,-1.19153,12.4882,0.00884271,0.00814163,0.00593881,0.0144413,0.00254302,0.75592,0.00890179,0.0160025,776,1555,-1.19156,-12.4882
-441,-531,-1.25146,12.8649,0.00668202,0.00643904,0.00464459,0.0112067,0.00191435,0.772323,0.00692183,0.0112498,783,1555,-1.25149,-12.8648
-434,-531,-1.26007,13.2697,0.00477146,0.00518526,0.00361136,0.00859565,0.00136108,0.814013,0.00533493,0.0113778,790,1555,-1.26004,-13.2696
-427,-531,-1.25244,13.6561,0.00359277,0.00413979,0.00306015,0.00693863,0.000793927,0.829969,0.00438513,0.0132253,797,1555,-1.25241,-13.6561
-420,-531,-1.28094,14.0537,0.00299918,0.00361588,0.00261052,0.0059362,0.000678862,0.844185,0.00375171,0.0120466,804,1555,-1.28094,-14.0537
-413,-531,-1.28961,14.4485,0.00266906,0.00349129,0.00240444,0.00551951,0.000640842,0.87007,0.00348575,0.010554,811,1555,-1.28961,-14.4485
-406,-531,-1.28967,14.8152,0.00245191,0.00352091,0.00254518,0.00558711,0.000385707,0.888896,0.00360306,0.0121481,818,1555,-1.28965,-14.8152
-399,-531,-1.29749,15.1941,0.00266911,0.0042646,0.00292871,0.00650227,0.000431434,0.918366,0.00419843,0.0136142,825,1555,-1.29747,-15.194
-392,-531,-1.29376,15.5948,0.00312464,0.00558159,0.00314147,0.00772625,0.000979987,0.971782,0.00485724,0.0166782,832,1555,-1.29376,-15.5949
-385,-531,-1.323,15.9741,0.00352011,0.00676816,0.00285333,0.00842727,0.001861,1.04412,0.00511204,0.0143184,839,1555,-1.32299,-15.9741
-378,-531,-1.34509,16.2751,0.00378071,0.007859,0.00252926,0.00906874,0.00257097,1.12466,0.00539697,0.0153295,846,1555,-1.34508,-16.2751
-371,-531,-1.26465,16.7795,0.00382038,0.00913373,0.00176771,0.0096681,0.00328601,1.27724,0.00567648,0.0275344,853,1555,-1.26463,-16.7795
-364,-531,-1.05847,17.5236,0,0,0,0,0,0,0,-1,860,1555,-1.05849,-17.5235
-357,-531,-1.23657,17.6698,0,0,0,0,0,0,0,-1,867,1555,-1.23655,-17.6698
-350,-531,-1.68976,18.3793,0,0,0,0,0,0,0,-1,874,1555,-1.68979,-18.3792
-343,-531,-1.78625,18.7415,0,0,0,0,0,0,0,-1,881,1555,-1.78625,-18.7415
-336,-531,-1.5166,18.0347,0,0,0,0,0,0,0,-1,888,1555,-1.51661,-18.0347
-329,-531,-1.53229,18.6011,0,0,0,0,0,0,0,-1,895,1555,-1.5323,-18.6011
-322,-531,-0.542908,18.327,0,0,0,0,0,0,0,-1,902,1555,-0.542884,-18.327
-315,-531,-1.26715,19.2592,0,0,0,0,0,0,0,-1,909,1555,-1.26717,-19.2592
-308,-531,-1.66455,19.0624,0,0,0,0,0,0,0,-1,916,1555,-1.66455,-19.0623
-301,-531,-2.02405,18.8912,0,0,0,0,0,0,0,-1,923,1555,-2.02407,-18.8913
-294,-531,-1.3244,8.1825,0,0,0,0,0,0,0,-1,930,1555,-1.3244,-8.18251
-287,-531,-1.78192,10.1661,0,0,0,0,0,0,0,-1,937,1555,-1.78192,-10.1661
-280,-531,-2.14508,10.3945,0,0,0,0,0,0,0,-1,944,1555,-2.14506,-10.3945
-273,-531,-2.50818,10.6229,0,0,0,0,0,0,0,-1,951,1555,-2.5082,-10.6229
-266,-531,-4.97742,17.9215,0,0,0,0,0,0,0,-1,958,1555,-4.97744,-17.9215
-259,-531,0,0,0,0,0,0,0,0,0,-1,965,1555,0,0
-252,-531,0,0,0,0,0,0,0,0,0,-1,972,1555,0,0
-245,-531,0,0,0,0,0,0,0,0,0,-1,979,1555,0,0
-238,-531,0,0,0,0,0,0,0,0,0,-1,986,1555,0,0
-231,-531,0,0,0,0,0,0,0,0,0,-1,993,1555,0,0
-224,-531,0,0,0,0,0,0,0,0,0,-1,1000,1555,0,0
-217,-531,0,0,0,0,0,0,0,0,0,-1,1007,1555,0,0
-210,-531,0,0,0,0,0,0,0,0,0,-1,1014,1555,0,0
-203,-531,0,0,0,0,0,0,0,0,0,-1,1021,1555,0,0
-196,-531,0,0,0,0,0,0,0,0,0,-1,1028,1555,0,0
-189,-531,0,0,0,0,0,0,0,0,0,-1,1035,1555,0,0
-182,-531,0,0,0,0,0,0,0,0,0,-1,1042,1555,0,0
-175,-531,0,0,0,0,0,0,0,0,0,-1,1049,1555,0,0
-168,-531,0,0,0,0,0,0,0,0,0,-1,1056,1555,0,0
-161,-531,0,0,0,0,0,0,0,0,0,-1,1063,1555,0,0
-154,-531,0,0,0,0,0,0,0,0,0,-1,1070,1555,0,0
-147,-531,0,0,0,0,0,0,0,0,0,-1,1077,1555,0,0
-140,-531,0,0,0,0,0,0,0,0,0,-1,1084,1555,0,0
-133,-531,0,0,0,0,0,0,0,0,0,-1,1091,1555,0,0
-126,-531,0,0,0,0,0,0,0,0,0,-1,1098,1555,0,0
-119,-531,0,0,0,0,0,0,0,0,0,-1,1105,1555,0,0
-112,-531,0,0,0,0,0,0,0,0,0,-1,1112,1555,0,0
-105,-531,0,0,0,0,0,0,0,0,0,-1,1119,1555,0,0
-98,-531,0,0,0,0,0,0,0,0,0,-1,1126,1555,0,0
-91,-531,0,0,0,0,0,0,0,0,0,-1,1133,1555,0,0
-84,-531,0,0,0,0,0,0,0,0,0,-1,1140,1555,0,0
-77,-531,0,0,0,0,0,0,0,0,0,-1,1147,1555,0,0
-70,-531,0,0,0,0,0,0,0,0,0,-1,1154,1555,0,0
-63,-531,0,0,0,0,0,0,0,0,0,-1,1161,1555,0,0
-56,-531,0,0,0,0,0,0,0,0,0,-1,1168,1555,0,0
-49,-531,0,0,0,0,0,0,0,0,0,-1,1175,1555,0,0
-42,-531,0,0,0,0,0,0,0,0,0,-1,1182,1555,0,0
-35,-531,0,0,0,0,0,0,0,0,0,-1,1189,1555,0,0
-28,-531,0,0,0,0,0,0,0,0,0,-1,1196,1555,0,0
-21,-531,0,0,0,0,0,0,0,0,0,-1,1203,1555,0,0
-14,-531,0,0,0,0,0,0,0,0,0,-1,1210,1555,0,0
-7,-531,0,0,0,0,0,0,0,0,0,-1,1217,1555,0,0
0,-531,0,0,0,0,0,0,0,0,0,-1,1224,1555,0,0
7,-531,0,0,0,0,0,0,0,0,0,-1,1231,1555,0,0
14,-531,0,0,0,0,0,0,0,0,0,-1,1238,1555,0,0
21,-531,0,0,0,0,0,0,0,0,0,-1,1245,1555,0,0
28,-531,0,0,0,0,0,0,0,0,0,-1,1252,1555,0,0
35,-531,0,0,0,0,0,0,0,0,0,-1,1259,1555,0,0
42,-531,0,0,0,0,0,0,0,0,0,-1,1266,1555,0,0
49,-531,0,0,0,0,0,0,0,0,0,-1,1273,1555,0,0
56,-531,0,0,0,0,0,0,0,0,0,-1,1280,1555,0,0
63,-531,0,0,0,0,0,0,0,0,0,-1,1287,1555,0,0
70,-531,0,0,0,0,0,0,0,0,0,-1,1294,1555,0,0
77,-531,0,0,0,0,0,0,0,0,0,-1,1301,1555,0,0
84,-531,0,0,0,0,0,0,0,0,0,-1,1308,1555,0,0
91,-531,0,0,0,0,0,0,0,0,0,-1,1315,1555,0,0
98,-531,0,0,0,0,0,0,0,0,0,-1,1322,1555,0,0
105,-531,0,0,0,0,0,0,0,0,0,-1,1329,1555,0,0
112,-531,0,0,0,0,0,0,0,0,0,-1,1336,1555,0,0
119,-531,0,0,0,0,0,0,0,0,0,-1,1343,1555,0,0
126,-531,0,0,0,0,0,0,0,0,0,-1,1350,1555,0,0
133,-531,0,0,0,0,0,0,0,0,0,-1,1357,1555,0,0
140,-531,0,0,0,0,0,0,0,0,0,-1,1364,1555,0,0
147,-531,0,0,0,0,0,0,0,0,0,-1,1371,1555,0,0
154,-531,0,0,0,0,0,0,0,0,0,-1,1378,1555,0,0
161,-531,0,0,0,0,0,0,0,0,0,-1,1385,1555,0,0
168,-531,0,0,0,0,0,0,0,0,0,-1,1392,1555,0,0
175,-531,0,0,0,0,0,0,0,0,0,-1,1399,1555,0,0
182,-531,0,0,0,0,0,0,0,0,0,-1,1406,1555,0,0
189,-531,0,0,0,0,0,0,0,0,0,-1,1413,1555,0,0
196,-531,0,0,0,0,0,0,0,0,0,-1,1420,1555,0,0
203,-531,0,0,0,0,0,0,0,0,0,-1,1427,1555,0,0
210,-531,0,0,0,0,0,0,0,0,0,-1,1434,1555,0,0
217,-531,0,0,0,0,0,0,0,0,0,-1,1441,1555,0,0
224,-531,0,0,0,0,0,0,0,0,0,-1,1448,1555,0,0
231,-531,0,0,0,0,0,0,0,0,0,-1,1455,1555,0,0
238,-531,0,0,0,0,0,0,0,0,0,-1,1462,1555,0,0
245,-531,0,0,0,0,0,0,0,0,0,-1,1469,1555,0,0
252,-531,0,0,0,0,0,0,0,0,0,-1,1476,1555,0,0
259,-531,0,0,0,0,0,0,0,0,0,-1,1483,1555,0,0
266,-531,0,0,0,0,0,0,0,0,0,-1,1490,1555,0,0
273,-531,0,0,0,0,0,0,0,0,0,-1,1497,1555,0,0
280,-531,0,0,0,0,0,0,0,0,0,-1,1504,1555,0,0
287,-531,0,0,0,0,0,0,0,0,0,-1,1511,1555,0,0
294,-531,0,0,0,0,0,0,0,0,0,-1,1518,1555,0,0
301,-531,0,0,0,0,0,0,0,0,0,-1,1525,1555,0,0
308,-531,0,0,0,0,0,0,0,0,0,-1,1532,1555,0,0
315,-531,0,0,0,0,0,0,0,0,0,-1,1539,1555,0,0
322,-531,0,0,0,0,0,0,0,0,0,-1,1546,1555,0,0
329,-531,0,0,0,0,0,0,0,0,0,-1,1553,1555,0,0
336,-531,0,0,0,0,0,0,0,0,0,-1,1560,1555,0,0
343,-531,0,0,0,0,0,0,0,0,0,-1,1567,1555,0,0
350,-531,0,0,0,0,0,0,0,0,0,-1,1574,1555,0,0
357,-531,0,0,0,0,0,0,0,0,0,-1,1581,1555,0,0
364,-531,0,0,0,0,0,0,0,0,0,-1,1588,1555,0,0
371,-531,0,0,0,0,0,0,0,0,0,-1,1595,1555,0,0
378,-531,0,0,0,0,0,0,0,0,0,-1,1602,1555,0,0
385,-531,3.48169,1.78625,0,0,0,0,0,0,0,-1,1609,1555,3.48165,-1.78624
392,-531,10.8781,9.09204,0,0,0,0,0,0,0,-1,1616,1555,10.8781,-9.09205
399,-531,8.26306,5.29602,0,0,0,0,0,0,0,-1,1623,1555,8.26302,-5.29607
406,-531,8.26147,5.42712,0,0,0,0,0,0,0,-1,1630,1555,8.26145,-5.42716
413,-531,8.20618,5.75012,0,0,0,0,0,0,0,-1,1637,1555,8.20619,-5.75017
420,-531,7.64868,7.09558,0,0,0,0,0,0,0,-1,1644,1555,7.64867,-7.09564
427,-531,9.93054,11.8412,0,0,0,0,0,0,0,-1,1651,1555,9.93059,-11.8412
434,-531,10.244,11.7072,0,0,0,0,0,0,0,-1,1658,1555,10.244,-11.7071
441,-531,11.4528,12.9397,0,0,0,0,0,0,0,-1,1665,1555,11.4528,-12.9397
448,-531,11.928,18.8029,0,0,0,0,0,0,0,-1,1672,1555,11.928,-18.8028
455,-531,14.4877,9.67065,0,0,0,0,0,0,0,-1,1679,1555,14.4876,-9.67066
462,-531,13.5253,12.2002,0,0,0,0,0,0,0,-1,1686,1555,13.5252,-12.2002
469,-531,15.5087,15.7894,0,0,0,0,0,0,0,-1,1693,1555,15.5086,-15.7895
476,-531,14.6582,16.2264,0,0,0,0,0,0,0,-1,1700,1555,14.6582,-16.2264
483,-531,13.7484,18.1968,0,0,0,0,0,0,0,-1,1707,1555,13.7484,-18.1967
490,-531,13.2706,18.7715,0,0,0,0,0,0,0,-1,1714,1555,13.2706,-18.7715
497,-531,13.632,18.3254,0.00292757,0.00637456,-0.00240094,0.00760656,0.00169557,-1.0967,0.00461096,0.0388985,1721,1555,13.6319,-18.3255
504,-531,13.6844,17.9119,0.00288327,0.00536908,-0.00229308,0.00673444,0.00151791,-1.03375,0.00407892,0.0201156,1728,1555,13.6844,-17.9119
511,-531,13.7306,17.5376,0.00253644,0.00413571,-0.00182048,0.00532443,0.00134772,-0.992335,0.00319653,0.0139502,1735,1555,13.7305,-17.5376
518,-531,13.7445,17.1793,0.00197548,0.00280891,-0.00117338,0.00363737,0.00114702,-0.956023,0.00214724,0.0140976,1742,1555,13.7444,-17.1793
525,-531,13.7426,16.8428,0.00141518,0.00169963,-0.000620415,0.00219391,0.000920898,-0.898072,0.00127208,0.0136363,1749,1555,13.7426,-16.8428
532,-531,13.7649,16.4811,0.000955178,0.000794394,-0.000146175,0.00104161,0.000707962,-0.533988,0.000614181,0.0104736,1756,1555,13.7649,-16.4811
539,-531,13.7463,16.1055,0.000773662,2.38741e-06,0.000176932,0.000812314,-3.62644e-05,0.215076,0.000554026,0.0118536,1763,1555,13.7464,-16.1055
546,-531,13.7043,15.7264,0.000701423,-0.00071725,0.000455268,0.000834955,-0.000850782,0.285302,0.000973275,0.0157457,1770,1555,13.7043,-15.7265
553,-531,13.7394,15.4253,0.000691138,-0.00136767,0.000670867,0.000890447,-0.00156698,0.288786,0.00143661,0.0314513,1777,1555,13.7394,-15.4252
560,-531,13.7091,15.0704,0.000863847,-0.00187544,0.000753333,0.00105735,-0.00206894,0.25143,0.00183619,0.0348816,1784,1555,13.7091,-15.0704
567,-531,13.6715,14.7224,0.00131136,-0.00250906,0.000800647,0.00147237,-0.00267006,0.198449,0.00242472,0.0191637,1791,1555,13.6715,-14.7224
574,-531,13.7101,14.3429,0.00222684,-0.00305906,0.000491201,0.0022721,-0.00310432,0.0918782,0.00311645,0.0126482,1798,1555,13.7101,-14.3429
581,-531,13.7219,13.9604,0.0033966,-0.00357962,0.000117854,0.00339859,-0.00358161,0.0168873,0.00403048,0.0139002,1805,1555,13.7219,-13.9604
588,-531,13.7573,13.5448,0.00488816,-0.00454114,-0.000204571,0.00489259,-0.00454558,-0.0216816,0.00545036,0.0260876,1812,1555,13.7574,-13.5448
595,-531,13.7808,13.0991,0,0,0,0,0,0,0,-1,1819,1555,13.7807,-13.0991
602,-531,13.701,11.8346,0,0,0,0,0,0,0,-1,1826,1555,13.701,-11.8347
609,-531,10.9072,8.50903,0,0,0,0,0,0,0,-1,1833,1555,10.9073,-8.50902
616,-531,10.5723,7.17859,0,0,0,0,0,0,0,-1,1840,1555,10.5723,-7.17855
623,-531,10.0674,5.08984,0,0,0,0,0,0,0,-1,1847,1555,10.0674,-5.08981
630,-531,11.672,3.18909,0,0,0,0,0,0,0,-1,1854,1555,11.672,-3.18904
637,-531,13.2546,1.38965,0,0,0,0,0,0,0,-1,1861,1555,13.2547,-1.3896
644,-531,0,0,0,0,0,0,0,0,0,-1,1868,1555,0,0
651,-531,0,0,0,0,0,0,0,0,0,-1,1875,1555,0,0
658,-531,0,0,0,0,0,0,0,0,0,-1,1882,1555,0,0
665,-531,0,0,0,0,0,0,0,0,0,-1,1889,1555,0,0
672,-531,0,0,0,0,0,0,0,0,0,-1,1896,1555,0,0
679,-531,0,0,0,0,0,0,0,0,0,-1,1903,1555,0,0
686,-531,0,0,0,0,0,0,0,0,0,-1,1910,1555,0,0
693,-531,0,0,0,0,0,0,0,0,0,-1,1917,1555,0,0
700,-531,0,0,0,0,0,0,0,0,0,-1,1924,1555,0,0
707,-531,0,0,0,0,0,0,0,0,0,-1,1931,1555,0,0
714,-531,0,0,0,0,0,0,0,0,0,-1,1938,1555,0,0
721,-531,0,0,0,0,0,0,0,0,0,-1,1945,1555,0,0
728,-531,0,0,0,0,0,0,0,0,0,-1,1952,1555,0,0
735,-531,0,0,0,0,0,0,0,0,0,-1,1959,1555,0,0
742,-531,0,0,0,0,0,0,0,0,0,-1,1966,1555,0,0
749,-531,0,0,0,0,0,0,0,0,0,-1,1973,1555,0,0
756,-531,0,0,0,0,0,0,0,0,0,-1,1980,1555,0,0
763,-531,0,0,0,0,0,0,0,0,0,-1,1987,1555,0,0
770,-531,0,0,0,0,0,0,0,0,0,-1,1994,1555,0,0
777,-531,0,0,0,0,0,0,0,0,0,-1,2001,1555,0,0
784,-531,0,0,0,0,0,0,0,0,0,-1,2008,1555,0,0
791,-531,0,0,0,0,0,0,0,0,0,-1,2015,1555,0,0
798,-531,0,0,0,0,0,0,0,0,0,-1,2022,1555,0,0
805,-531,0,0,0,0,0,0,0,0,0,-1,2029,1555,0,0
812,-531,0,0,0,0,0,0,0,0,0,-1,2036,1555,0,0
-700,-538,0,0,0,0,0,0,0,0,0,-1,524,1562,0,0
-693,-538,0,0,0,0,0,0,0,0,0,-1,531,1562,0,0
-686,-538,0,0,0,0,0,0,0,0,0,-1,538,1562,0,0
-679,-538,0,0,0,0,0,0,0,0,0,-1,545,1562,0,0
-672,-538,0,0,0,0,0,0,0,0,0,-1,552,1562,0,0
-665,-538,0,0,0,0,0,0,0,0,0,-1,559,1562,0,0
-658,-538,0,0,0,0,0,0,0,0,0,-1,566,1562,0,0
-651,-538,0,0,0,0,0,0,0,0,0,-1,573,1562,0,0
-644,-538,0,0,0,0,0,0,0,0,0,-1,580,1562,0,0
-637,-538,0,0,0,0,0,0,0,0,0,-1,587,1562,0,0
-630,-538,0,0,0,0,0,0,0,0,0,-1,594,1562,0,0
-623,-538,0,0,0,0,0,0,0,0,0,-1,601,1562,0,0
-616,-538,0,0,0,0,0,0,0,0,0,-1,608,1562,0,0
-609,-538,0,0,0,0,0,0,0,0,0,-1,615,1562,0,0
-602,-538,0,0,0,0,0,0,0,0,0,-1,622,1562,0,0
-595,-538,0,0,0,0,0,0,0,0,0,-1,629,1562,0,0
-588,-538,0,0,0,0,0,0,0,0,0,-1,636,1562,0,0
-581,-538,0,0,0,0,0,0,0,0,0,-1,643,1562,0,0
-574,-538,0,0,0,0,0,0,0,0,0,-1,650,1562,0,0
-567,-538,0,0,0,0,0,0,0,0,0,-1,657,1562,0,0
-560,-538,0,0,0,0,0,0,0,0,0,-1,664,1562,0,0
-553,-538,0,0,0,0,0,0,0,0,0,-1,671,1562,0,0
-546,-538,0,0,0,0,0,0,0,0,0,-1,678,1562,0,0
-539,-538,0,0,0,0,0,0,0,0,0,-1,685,1562,0,0
-532,-538,0,0,0,0,0,0,0,0,0,-1,692,1562,0,0
-525,-538,0,0,0,0,0,0,0,0,0,-1,699,1562,0,0
-518,-538,0,0,0,0,0,0,0,0,0,-1,706,1562,0,0
-511,-538,-2.6582,-1.54321,0,0,0,0,0,0,0,-1,713,1562,-2.65821,1.54327
-504,-538,-2.66455,-0.71167,0,0,0,0,0,0,0,-1,720,1562,-2.66456,0.711667
-497,-538,-0.763855,6.77747,0,0,0,0,0,0,0,-1,727,1562,-0.76385,-6.77743
-490,-538,-2.70453,8.01465,0,0,0,0,0,0,0,-1,734,1562,-2.70451,-8.0147
-483,-538,-0.933533,7.84644,0,0,0,0,0,0,0,-1,741,1562,-0.933548,-7.84638
-476,-538,-0.43866,8.38074,0,0,0,0,0,0,0,-1,748,1562,-0.438631,-8.38068
-469,-538,-1.6308,11.7726,0,0,0,0,0,0,0,-1,755,1562,-1.63078,-11.7726
-462,-538,-1.33954,11.6003,0.0201044,0.0181041,0.0132081,0.0323502,0.00585832,0.747611,0.0199035,0.0458668,762,1562,-1.33954,-11.6003
-455,-538,-0.864014,12.2573,0.0156639,0.0150822,0.0107813,0.0261583,0.0045878,0.771912,0.0161286,0.0397939,769,1562,-0.864034,-12.2573
-448,-538,-0.771606,12.5713,0.0117892,0.0119847,0.00836123,0.0202488,0.00352517,0.791244,0.012491,0.0175325,776,1562,-0.771626,-12.5713
-441,-538,-0.838989,12.9569,0.00865097,0.00925629,0.00628897,0.0152499,0.00265738,0.809442,0.00940675,0.0178198,783,1562,-0.838963,-12.9569
-434,-538,-0.896851,13.282,0.00596952,0.0071253,0.00463757,0.0112208,0.00187397,0.847384,0.00694075,0.0118302,790,1562,-0.896877,-13.282
-427,-538,-0.903015,13.6853,0.00419621,0.00532703,0.00358479,0.00839073,0.00113251,0.863616,0.00525714,0.0136043,797,1562,-0.903029,-13.6853
-420,-538,-0.924133,14.0647,0.00315628,0.00425039,0.00272512,0.00648282,0.000923846,0.884454,0.00404922,0.0172665,804,1562,-0.924137,-14.0647
-413,-538,-0.935181,14.4489,0.0024701,0.00368748,0.00216625,0.00532893,0.000828648,0.92236,0.00331115,0.0170376,811,1562,-0.935161,-14.4488
-406,-538,-0.911011,14.8165,0.00184102,0.0031382,0.0019646,0.0045585,0.000420718,0.944835,0.00290892,0.0138904,818,1562,-0.91103,-14.8165
-399,-538,-0.917542,15.2069,0.00178338,0.00345861,0.00211996,0.00490043,0.000341556,0.973539,0.00315926,0.0125889,825,1562,-0.917533,-15.2069
-392,-538,-0.913635,15.593,0.00202919,0.00426198,0.00211281,0.00553522,0.000755961,1.02845,0.00346575,0.0134487,832,1562,-0.91361,-15.5931
-385,-538,-0.935242,15.9548,0.00234829,0.00517173,0.00182253,0.00606534,0.00145468,1.11493,0.00365643,0.0117052,839,1562,-0.935251,-15.9548
-378,-538,-0.942688,16.3196,0.00259942,0.0060014,0.00153722,0.0065931,0.00200773,1.20336,0.00390229,0.00970082,846,1562,-0.942664,-16.3196
-371,-538,-0.969727,16.6812,0.00266408,0.00693015,0.000902657,0.00711328,0.00248095,1.37063,0.00416899,0.0115709,853,1562,-0.969709,-16.6811
-364,-538,-0.921753,17.1282,0.00246482,0.00783704,0.000145274,0.00784096,0.0024609,1.54378,0.00463038,0.0144021,860,1562,-0.921738,-17.1281
-357,-538,-0.893616,17.5656,0.00210189,0.00900553,-0.00104487,0.00916021,0.00194721,-1.42383,0.00557232,0.0310908,867,1562,-0.893622,-17.5655
-350,-538,-1.0943,17.9502,0.00150398,0.00987133,-0.00254322,0.0105837,0.000791626,-1.29769,0.00680728,0.0418973,874,1562,-1.09428,-17.9502
-343,-538,-1.17358,18.3938,0.000487406,0.0106864,-0.00443023,0.0123421,-0.00116823,-1.21315,0.0086438,0.0482856,881,1562,-1.17359,-18.3937
-336,-538,-1.17157,18.3767,-0.000772556,0.0116119,-0.0064443,0.0143568,-0.00351747,-1.16813,0.010934,0.0413782,888,1562,-1.17158,-18.3767
-329,-538,-1.34454,18.6311,0,0,0,0,0,0,0,-1,895,1562,-1.34452,-18.6311
-322,-538,-0.452515,18.0629,0,0,0,0,0,0,0,-1,902,1562,-0.452539,-18.0628
-315,-538,1.88379,19.6062,0,0,0,0,0,0,0,-1,909,1562,1.88378,-19.6062
-308,-538,-0.564453,18.6516,0,0,0,0,0,0,0,-1,916,1562,-0.564434,-18.6517
-301,-538,-0.452393,18.5101,0,0,0,0,0,0,0,-1,923,1562,-0.452367,-18.5102
-294,-538,1.23138,14.0757,0,0,0,0,0,0,0,-1,930,1562,1.23137,-14.0757
-287,-538,-2.60419,10.2361,0,0,0,0,0,0,0,-1,937,1562,-2.6042,-10.2361
-280,-538,-2.93475,10.5106,0,0,0,0,0,0,0,-1,944,1562,-2.93475,-10.5106
-273,-538,-3.26532,10.785,0,0,0,0,0,0,0,-1,951,1562,-3.26531,-10.785
-266,-538,-5.03412,15.9951,0,0,0,0,0,0,0,-1,958,1562,-5.03409,-15.9951
-259,-538,-5.89642,16.5184,0,0,0,0,0,0,0,-1,965,1562,-5.89644,-16.5184
-252,-538,0,0,0,0,0,0,0,0,0,-1,972,1562,0,0
-245,-538,0,0,0,0,0,0,0,0,0,-1,979,1562,0,0
-238,-538,0,0,0,0,0,0,0,0,0,-1,986,1562,0,0
-231,-538,0,0,0,0,0,0,0,0,0,-1,993,1562,0,0
-224,-538,0,0,0,0,0,0,0,0,0,-1,1000,1562,0,0
-217,-538,0,0,0,0,0,0,0,0,0,-1,1007,1562,0,0
-210,-538,0,0,0,0,0,0,0,0,0,-1,1014,1562,0,0
-203,-538,0,0,0,0,0,0,0,0,0,-1,1021,1562,0,0
-196,-538,0,0,0,0,0,0,0,0,0,-1,1028,1562,0,0
-189,-538,0,0,0,0,0,0,0,0,0,-1,1035,1562,0,0
-182,-538,0,0,0,0,0,0,0,0,0,-1,1042,1562,0,0
-175,-538,0,0,0,0,0,0,0,0,0,-1,1049,1562,0,0
-168,-538,0,0,0,0,0,0,0,0,0,-1,1056,1562,0,0
-161,-538,0,0,0,0,0,0,0,0,0,-1,1063,1562,0,0
-154,-538,0,0,0,0,0,0,0,0,0,-1,1070,1562,0,0
-147,-538,0,0,0,0,0,0,0,0,0,-1,1077,1562,0,0
-140,-538,0,0,0,0,0,0,0,0,0,-1,1084,1562,0,0
-133,-538,0,0,0,0,0,0,0,0,0,-1,1091,1562,0,0
-126,-538,0,0,0,0,0,0,0,0,0,-1,1098,1562,0,0
-119,-538,0,0,0,0,0,0,0,0,0,-1,1105,1562,0,0
-112,-538,0,0,0,0,0,0,0,0,0,-1,1112,1562,0,0
-105,-538,0,0,0,0,0,0,0,0,0,-1,1119,1562,0,0
-98,-538,0,0,0,0,0,0,0,0,0,-1,1126,1562,0,0
-91,-538,0,0,0,0,0,0,0,0,0,-1,1133,1562,0,0
-84,-538,0,0,0,0,0,0,0,0,0,-1,1140,1562,0,0
-77,-538,0,0,0,0,0,0,0,0,0,-1,1147,1562,0,0
-70,-538,0,0,0,0,0,0,0,0,0,-1,1154,1562,0,0
-63,-538,0,0,0,0,0,0,0,0,0,-1,1161,1562,0,0
-56,-538,0,0,0,0,0,0,0,0,0,-1,1168,1562,0,0
-49,-538,0,0,0,0,0,0,0,0,0,-1,1175,1562,0,0
-42,-538,0,0,0,0,0,0,0,0,0,-1,1182,1562,0,0
-35,-538,0,0,0,0,0,0,0,0,0,-1,1189,1562,0,0
-28,-538,0,0,0,0,0,0,0,0,0,-1,1196,1562,0,0
-21,-538,0,0,0,0,0,0,0,0,0,-1,1203,1562,0,0
-14,-538,0,0,0,0,0,0,0,0,0,-1,1210,1562,0,0
-7,-538,0,0,0,0,0,0,0,0,0,-1,1217,1562,0,0
0,-538,0,0,0,0,0,0,0,0,0,-1,1224,1562,0,0
7,-538,0,0,0,0,0,0,0,0,0,-1,1231,1562,0,0
14,-538,0,0,0,0,0,0,0,0,0,-1,1238,1562,0,0
21,-538,0,0,0,0,0,0,0,0,0,-1,1245,1562,0,0
28,-538,0,0,0,0,0,0,0,0,0,-1,1252,1562,0,0
35,-538,0,0,0,0,0,0,0,0,0,-1,1259,1562,0,0
42,-538,0,0,0,0,0,0,0,0,0,-1,1266,1562,0,0
49,-538,0,0,0,0,0,0,0,0,0,-1,1273,1562,0,0
56,-538,0,0,0,0,0,0,0,0,0,-1,1280,1562,0,0
63,-538,0,0,0,0,0,0,0,0,0,-1,1287,1562,0,0
70,-538,0,0,0,0,0,0,0,0,0,-1,1294,1562,0,0
77,-538,0,0,0,0,0,0,0,0,0,-1,1301,1562,0,0
84,-538,0,0,0,0,0,0,0,0,0,-1,1308,1562,0,0
91,-538,0,0,0,0,0,0,0,0,0,-1,1315,1562,0,0
98,-538,0,0,0,0,0,0,0,0,0,-1,1322,1562,0,0
105,-538,0,0,0,0,0,0,0,0,0,-1,1329,1562,0,0
112,-538,0,0,0,0,0,0,0,0,0,-1,1336,1562,0,0
119,-538,0,0,0,0,0,0,0,0,0,-1,1343,1562,0,0
126,-538,0,0,0,0,0,0,0,0,0,-1,1350,1562,0,0
133,-538,0,0,0,0,0,0,0,0,0,-1,1357,1562,0,0
140,-538,0,0,0,0,0,0,0,0,0,-1,1364,1562,0,0
147,-538,0,0,0,0,0,0,0,0,0,-1,1371,1562,0,0
154,-538,0,0,0,0,0,0,0,0,0,-1,1378,1562,0,0
161,-538,0,0,0,0,0,0,0,0,0,-1,1385,1562,0,0
168,-538,0,0,0,0,0,0,0,0,0,-1,1392,1562,0,0
175,-538,0,0,0,0,0,0,0,0,0,-1,1399,1562,0,0
182,-538,0,0,0,0,0,0,0,0,0,-1,1406,1562,0,0
189,-538,0,0,0,0,0,0,0,0,0,-1,1413,1562,0,0
196,-538,0,0,0,0,0,0,0,0,0,-1,1420,1562,0,0
203,-538,0,0,0,0,0,0,0,0,0,-1,1427,1562,0,0
210,-538,0,0,0,0,0,0,0,0,0,-1,1434,1562,0,0
217,-538,0,0,0,0,0,0,0,0,0,-1,1441,1562,0,0
224,-538,0,0,0,0,0,0,0,0,0,-1,1448,1562,0,0
231,-538,0,0,0,0,0,0,0,0,0,-1,1455,1562,0,0
238,-538,0,0,0,0,0,0,0,0,0,-1,1462,1562,0,0
245,-538,0,0,0,0,0,0,0,0,0,-1,1469,1562,0,0
252,-538,0,0,0,0,0,0,0,0,0,-1,1476,1562,0,0
259,-538,0,0,0,0,0,0,0,0,0,-1,1483,1562,0,0
266,-538,0,0,0,0,0,0,0,0,0,-1,1490,1562,0,0
273,-538,0,0,0,0,0,0,0,0,0,-1,1497,1562,0,0
280,-538,0,0,0,0,0,0,0,0,0,-1,1504,1562,0,0
287,-538,0,0,0,0,0,0,0,0,0,-1,1511,1562,0,0
294,-538,0,0,0,0,0,0,0,0,0,-1,1518,1562,0,0
301,-538,0,0,0,0,0,0,0,0,0,-1,1525,1562,0,0
308,-538,0,0,0,0,0,0,0,0,0,-1,1532,1562,0,0
315,-538,0,0,0,0,0,0,0,0,0,-1,1539,1562,0,0
322,-538,0,0,0,0,0,0,0,0,0,-1,1546,1562,0,0
329,-538,0,0,0,0,0,0,0,0,0,-1,1553,1562,0,0
336,-538,0,0,0,0,0,0,0,0,0,-1,1560,1562,0,0
343,-538,0,0,0,0,0,0,0,0,0,-1,1567,1562,0,0
350,-538,0,0,0,0,0,0,0,0,0,-1,1574,1562,0,0
357,-538,0,0,0,0,0,0,0,0,0,-1,1581,1562,0,0
364,-538,0,0,0,0,0,0,0,0,0,-1,1588,1562,0,0
371,-538,0,0,0,0,0,0,0,0,0,-1,1595,1562,0,0
378,-538,9.65479,5.82434,0,0,0,0,0,0,0,-1,1602,1562,9.6548,-5.82439
385,-538,10.5449,7.9502,0,0,0,0,0,0,0,-1,1609,1562,10.5449,-7.95014
392,-538,8.20361,7.07214,0,0,0,0,0,0,0,-1,1616,1562,8.20362,-7.07211
399,-538,7.85425,4.70508,0,0,0,0,0,0,0,-1,1623,1562,7.85425,-4.70512
406,-538,7.77734,4.96094,0,0,0,0,0,0,0,-1,1630,1562,7.77729,-4.96097
413,-538,13.0446,13.1765,0,0,0,0,0,0,0,-1,1637,1562,13.0446,-13.1765
420,-538,9.96216,12.7653,0,0,0,0,0,0,0,-1,1644,1562,9.96221,-12.7653
427,-538,10.1732,14.5863,0,0,0,0,0,0,0,-1,1651,1562,10.1732,-14.5863
434,-538,9.64331,14.7745,0,0,0,0,0,0,0,-1,1658,1562,9.64326,-14.7746
441,-538,11.5039,20.5195,0,0,0,0,0,0,0,-1,1665,1562,11.5039,-20.5195
448,-538,12.0366,18.9662,0,0,0,0,0,0,0,-1,1672,1562,12.0366,-18.9662
455,-538,12.5693,17.4128,0,0,0,0,0,0,0,-1,1679,1562,12.5694,-17.4128
462,-538,12.1389,17.017,0,0,0,0,0,0,0,-1,1686,1562,12.1389,-17.017
469,-538,14.3802,16.6945,0,0,0,0,0,0,0,-1,1693,1562,14.3803,-16.6945
476,-538,13.724,19.0608,0,0,0,0,0,0,0,-1,1700,1562,13.724,-19.0608
483,-538,13.5333,18.5842,0,0,0,0,0,0,0,-1,1707,1562,13.5333,-18.5842
490,-538,13.2711,18.6444,0,0,0,0,0,0,0,-1,1714,1562,13.2712,-18.6444
497,-538,13.3453,18.2555,0.00275337,0.00570931,-0.00224695,0.00692079,0.00154189,-1.07631,0.00419543,0.0201915,1721,1562,13.3453,-18.2555
504,-538,13.4041,17.8419,0.00276638,0.00488793,-0.00216834,0.00624106,0.00141325,-1.01289,0.00377877,0.0111163,1728,1562,13.404,-17.8419
511,-538,13.3896,17.507,0.00242842,0.00371471,-0.00169537,0.00488482,0.0012583,-0.96669,0.00292865,0.0102206,1735,1562,13.3896,-17.507
518,-538,13.3926,17.1744,0.00189102,0.00247823,-0.00106641,0.00329072,0.00107853,-0.919731,0.00193711,0.0108029,1742,1562,13.3926,-17.1745
525,-538,13.3827,16.8284,0.00134058,0.00141306,-0.000502037,0.00188017,0.000873478,-0.821432,0.00108642,0.0118188,1749,1562,13.3827,-16.8283
532,-538,13.3964,16.4852,0.000872407,0.000490814,1.29213e-05,0.000872844,0.000490377,0.03381,0.000505219,0.0138472,1756,1562,13.3963,-16.4853
539,-538,13.3878,16.129,0.000653652,-0.000399289,0.000411699,0.000795513,-0.00054115,0.331833,0.000776367,0.0162385,1763,1562,13.3878,-16.1291
546,-538,13.3376,15.7393,0.000486591,-0.00128772,0.000818883,0.000806752,-0.00160788,0.3727,0.00141944,0.0170551,1770,1562,13.3376,-15.7393
553,-538,13.3792,15.3969,0.000387428,-0.00213957,0.00117711,0.000850784,-0.00260292,0.375009,0.00207777,0.0275457,1777,1562,13.3792,-15.3969
560,-538,13.3715,15.0743,0.000480274,-0.00289555,0.00142047,0.000998442,-0.00341372,0.349786,0.00267156,0.0298383,1784,1562,13.3714,-15.0744
567,-538,13.3165,14.7258,0.000860039,-0.00379787,0.00163258,0.00137526,-0.00431309,0.305696,0.00342706,0.0212618,1791,1562,13.3166,-14.7258
574,-538,13.3185,14.3374,0.00174158,-0.00464944,0.00147867,0.00206712,-0.00497497,0.216696,0.0041797,0.0168745,1798,1562,13.3185,-14.3374
581,-538,13.3737,13.958,0.00300286,-0.00542502,0.00118278,0.00316571,-0.00558787,0.136821,0.00511796,0.0217225,1805,1562,13.3736,-13.9579
588,-538,13.4482,13.6658,0.00465709,-0.00684578,0.000968356,0.00473804,-0.00692673,0.0834016,0.00677406,0.0414909,1812,1562,13.4483,-13.6658
595,-538,13.5544,13.2659,0,0,0,0,0,0,0,-1,1819,1562,13.5544,-13.2659
602,-538,10.314,8.94238,0,0,0,0,0,0,0,-1,1826,1562,10.314,-8.94238
609,-538,10.1046,7.05713,0,0,0,0,0,0,0,-1,1833,1562,10.1046,-7.05719
616,-538,9.92249,5.43506,0,0,0,0,0,0,0,-1,1840,1562,9.92254,-5.43507
623,-538,11.1711,4.31604,0,0,0,0,0,0,0,-1,1847,1562,11.1711,-4.316
630,-538,12.6112,2.61633,0,0,0,0,0,0,0,-1,1854,1562,12.6112,-2.61637
637,-538,0,0,0,0,0,0,0,0,0,-1,1861,1562,0,0
644,-538,0,0,0,0,0,0,0,0,0,-1,1868,1562,0,0
651,-538,0,0,0,0,0,0,0,0,0,-1,1875,1562,0,0
658,-538,0,0,0,0,0,0,0,0,0,-1,1882,1562,0,0
665,-538,0,0,0,0,0,0,0,0,0,-1,1889,1562,0,0
672,-538,0,0,0,0,0,0,0,0,0,-1,1896,1562,0,0
679,-538,0,0,0,0,0,0,0,0,0,-1,1903,1562,0,0
686,-538,0,0,0,0,0,0,0,0,0,-1,1910,1562,0,0
693,-538,0,0,0,0,0,0,0,0,0,-1,1917,1562,0,0
700,-538,0,0,0,0,0,0,0,0,0,-1,1924,1562,0,0
707,-538,0,0,0,0,0,0,0,0,0,-1,1931,1562,0,0
714,-538,0,0,0,0,0,0,0,0,0,-1,1938,1562,0,0
721,-538,0,0,0,0,0,0,0,0,0,-1,1945,1562,0,0
728,-538,0,0,0,0,0,0,0,0,0,-1,1952,1562,0,0
735,-538,0,0,0,0,0,0,0,0,0,-1,1959,1562,0,0
742,-538,0,0,0,0,0,0,0,0,0,-1,1966,1562,0,0
749,-538,0,0,0,0,0,0,0,0,0,-1,1973,1562,0,0
756,-538,0,0,0,0,0,0,0,0,0,-1,1980,1562,0,0
763,-538,0,0,0,0,0,0,0,0,0,-1,1987,1562,0,0
770,-538,0,0,0,0,0,0,0,0,0,-1,1994,1562,0,0
777,-538,0,0,0,0,0,0,0,0,0,-1,2001,1562,0,0
784,-538,0,0,0,0,0,0,0,0,0,-1,2008,1562,0,0
791,-538,0,0,0,0,0,0,0,0,0,-1,2015,1562,0,0
798,-538,0,0,0,0,0,0,0,0,0,-1,2022,1562,0,0
805,-538,0,0,0,0,0,0,0,0,0,-1,2029,1562,0,0
812,-538,0,0,0,0,0,0,0,0,0,-1,2036,1562,0,0
-700,-545,0,0,0,0,0,0,0,0,0,-1,524,1569,0,0
-693,-545,0,0,0,0,0,0,0,0,0,-1,531,1569,0,0
-686,-545,0,0,0,0,0,0,0,0,0,-1,538,1569,0,0
-679,-545,0,0,0,0,0,0,0,0,0,-1,545,1569,0,0
-672,-545,0,0,0,0,0,0,0,0,0,-1,552,1569,0,0
-665,-545,0,0,0,0,0,0,0,0,0,-1,559,1569,0,0
-658,-545,0,0,0,0,0,0,0,0,0,-1,566,1569,0,0
-651,-545,0,0,0,0,0,0,0,0,0,-1,573,1569,0,0
-644,-545,0,0,0,0,0,0,0,0,0,-1,580,1569,0,0
-637,-545,0,0,0,0,0,0,0,0,0,-1,587,1569,0,0
-630,-545,0,0,0,0,0,0,0,0,0,-1,594,1569,0,0
-623,-545,0,0,0,0,0,0,0,0,0,-1,601,1569,0,0
-616,-545,0,0,0,0,0,0,0,0,0,-1,608,1569,0,0
-609,-545,0,0,0,0,0,0,0,0,0,-1,615,1569,0,0
-602,-545,0,0,0,0,0,0,0,0,0,-1,622,1569,0,0
-595,-545,0,0,0,0,0,0,0,0,0,-1,629,1569,0,0
-588,-545,0,0,0,0,0,0,0,0,0,-1,636,1569,0,0
-581,-545,0,0,0,0,0,0,0,0,0,-1,643,1569,0,0
-574,-545,0,0,0,0,0,0,0,0,0,-1,650,1569,0,0
-567,-545,0,0,0,0,0,0,0,0,0,-1,657,1569,0,0
-560,-545,0,0,0,0,0,0,0,0,0,-1,664,1569,0,0
-553,-545,0,0,0,0,0,0,0,0,0,-1,671,1569,0,0
-546,-545,0,0,0,0,0,0,0,0,0,-1,678,1569,0,0
-539,-545,0,0,0,0,0,0,0,0,0,-1,685,1569,0,0
-532,-545,0,0,0,0,0,0,0,0,0,-1,692,1569,0,0
-525,-545,0,0,0,0,0,0,0,0,0,-1,699,1569,0,0
-518,-545,0,0,0,0,0,0,0,0,0,-1,706,1569,0,0
-511,-545,0,0,0,0,0,0,0,0,0,-1,713,1569,0,0
-504,-545,-3.55237,-2.5354,0,0,0,0,0,0,0,-1,720,1569,-3.55236,2.53545
-497,-545,2.26575,5.69214,0,0,0,0,0,0,0,-1,727,1569,2.26573,-5.6922
-490,-545,-2.17334,7.81396,0,0,0,0,0,0,0,-1,734,1569,-2.17334,-7.81399
-483,-545,-1.88336,5.8446,0,0,0,0,0,0,0,-1,741,1569,-1.88334,-5.84466
-476,-545,-1.13147,6.5741,0,0,0,0,0,0,0,-1,748,1569,-1.13149,-6.57405
-469,-545,-1.37408,10.151,0,0,0,0,0,0,0,-1,755,1569,-1.37411,-10.151
-462,-545,-0.932983,10.98,0.0269089,0.0269894,0.0187952,0.0457444,0.00815389,0.786469,0.0281744,0.0474188,762,1569,-0.932961,-10.9799
-455,-545,-0.567505,11.8268,0.0205342,0.0218929,0.0150207,0.0362497,0.00617749,0.807997,0.0223931,0.0443664,769,1569,-0.567506,-11.8268
-448,-545,-0.387329,12.4386,0.0151403,0.0169707,0.0113955,0.0274877,0.00462337,0.82547,0.0169949,0.0305684,776,1569,-0.387305,-12.4386
-441,-545,-0.347412,12.993,0.0107872,0.0127881,0.00833762,0.0201851,0.00339023,0.845107,0.0124811,0.0217441,783,1569,-0.347402,-12.993
-434,-545,-0.527283,13.3162,0.00721665,0.00950084,0.00593996,0.0144075,0.00230998,0.880376,0.0089351,0.0183996,790,1569,-0.527281,-13.3162
-427,-545,-0.518372,13.6841,0.0047823,0.00676053,0.00431039,0.0101938,0.00134899,0.898182,0.00639384,0.0180777,797,1569,-0.518357,-13.684
-420,-545,-0.49115,14.0399,0.00327558,0.00502135,0.00301603,0.00728827,0.00100866,0.926257,0.00455996,0.023001,804,1569,-0.491177,-14.0399
-413,-545,-0.506897,14.4153,0.0022424,0.00395591,0.00211098,0.00537737,0.000820945,0.978171,0.00334501,0.0225829,811,1569,-0.506922,-14.4153
-406,-545,-0.507019,14.8009,0.00125366,0.00282109,0.00158981,0.00380985,0.000264889,1.0144,0.00245637,0.0159928,818,1569,-0.506992,-14.8009
-399,-545,-0.529907,15.2004,0.000994261,0.00273348,0.00154523,0.00363699,9.07468e-05,1.04169,0.00239498,0.0103908,825,1569,-0.529901,-15.2004
-392,-545,-0.552856,15.5779,0.00109974,0.00307417,0.00136573,0.00377213,0.000401784,1.09835,0.0023921,0.0102819,832,1569,-0.552877,-15.5779
-385,-545,-0.55072,15.9531,0.0014034,0.00376354,0.00111144,0.00420454,0.000962399,1.19307,0.00254366,0.00902253,839,1569,-0.550743,-15.9531
-378,-545,-0.558533,16.3442,0.00170375,0.00440594,0.000885857,0.00467046,0.00143923,1.28063,0.00276186,0.0108096,846,1569,-0.55855,-16.3443
-371,-545,-0.583069,16.7356,0.00184058,0.00508397,0.000381251,0.00512819,0.00179637,1.45535,0.00300467,0.0139194,853,1569,-0.583094,-16.7356
-364,-545,-0.582947,17.0791,0.00177111,0.00578198,-0.000158521,0.00578824,0.00176485,-1.53136,0.00342559,0.00948903,860,1569,-0.582946,-17.0791
-357,-545,-0.5271,17.5129,0.00166823,0.00667053,-0.000975778,0.00685413,0.00148463,-1.38481,0.00416373,0.0141688,867,1569,-0.52708,-17.5129
-350,-545,-0.516724,17.9031,0.00140839,0.00731802,-0.00194817,0.00790246,0.000823957,-1.27935,0.00501626,0.0204301,874,1569,-0.516744,-17.903
-343,-545,-0.533447,18.2244,0.000854947,0.00800351,-0.00299183,0.0090904,-0.000231947,-1.22233,0.00613905,0.0278561,881,1569,-0.533449,-18.2244
-336,-545,-0.563293,18.3538,0.000147939,0.00892038,-0.00395311,0.0104389,-0.00137058,-1.20404,0.00745823,0.0369408,888,1569,-0.563265,-18.3538
-329,-545,-0.527283,18.4791,0,0,0,0,0,0,0,-1,895,1569,-0.527309,-18.4791
-322,-545,-0.457581,17.886,0,0,0,0,0,0,0,-1,902,1569,-0.457581,-17.886
-315,-545,1.57739,18.9076,0,0,0,0,0,0,0,-1,909,1569,1.57737,-18.9076
-308,-545,1.64972,19.1172,0,0,0,0,0,0,0,-1,916,1569,1.64975,-19.1172
-301,-545,1.52191,17.5009,0,0,0,0,0,0,0,-1,923,1569,1.52192,-17.5008
-294,-545,-2.69287,8.42102,0,0,0,0,0,0,0,-1,930,1569,-2.69287,-8.42097
-287,-545,-3.47784,9.96021,0,0,0,0,0,0,0,-1,937,1569,-3.47785,-9.96021
-280,-545,-3.7879,10.5448,0,0,0,0,0,0,0,-1,944,1569,-3.78793,-10.5448
-273,-545,-5.10333,12.864,0,0,0,0,0,0,0,-1,951,1569,-5.10331,-12.864
-266,-545,-5.78955,13.3704,0,0,0,0,0,0,0,-1,958,1569,-5.78952,-13.3703
-259,-545,-6.32184,13.8101,0,0,0,0,0,0,0,-1,965,1569,-6.32182,-13.81
-252,-545,0.369263,7.54053,0,0,0,0,0,0,0,-1,972,1569,0.369276,-7.54056
-245,-545,-0.236633,6.65564,0,0,0,0,0,0,0,-1,979,1569,-0.236605,-6.65566
-238,-545,0,0,0,0,0,0,0,0,0,-1,986,1569,0,0
-231,-545,0,0,0,0,0,0,0,0,0,-1,993,1569,0,0
-224,-545,0,0,0,0,0,0,0,0,0,-1,1000,1569,0,0
-217,-545,0,0,0,0,0,0,0,0,0,-1,1007,1569,0,0
-210,-545,0,0,0,0,0,0,0,0,0,-1,1014,1569,0,0
-203,-545,0,0,0,0,0,0,0,0,0,-1,1021,1569,0,0
-196,-545,0,0,0,0,0,0,0,0,0,-1,1028,1569,0,0
-189,-545,0,0,0,0,0,0,0,0,0,-1,1035,1569,0,0
-182,-545,0,0,0,0,0,0,0,0,0,-1,1042,1569,0,0
-175,-545,0,0,0,0,0,0,0,0,0,-1,1049,1569,0,0
-168,-545,0,0,0,0,0,0,0,0,0,-1,1056,1569,0,0
-161,-545,0,0,0,0,0,0,0,0,0,-1,1063,1569,0,0
-154,-545,0,0,0,0,0,0,0,0,0,-1,1070,1569,0,0
-147,-545,0,0,0,0,0,0,0,0,0,-1,1077,1569,0,0
-140,-545,0,0,0,0,0,0,0,0,0,-1,1084,1569,0,0
-133,-545,0,0,0,0,0,0,0,0,0,-1,1091,1569,0,0
-126,-545,0,0,0,0,0,0,0,0,0,-1,1098,1569,0,0
-119,-545,0,0,0,0,0,0,0,0,0,-1,1105,1569,0,0
-112,-545,0,0,0,0,0,0,0,0,0,-1,1112,1569,0,0
-105,-545,0,0,0,0,0,0,0,0,0,-1,1119,1569,0,0
-98,-545,0,0,0,0,0,0,0,0,0,-1,1126,1569,0,0
-91,-545,0,0,0,0,0,0,0,0,0,-1,1133,1569,0,0
-84,-545,0,0,0,0,0,0,0,0,0,-1,1140,1569,0,0
-77,-545,0,0,0,0,0,0,0,0,0,-1,1147,1569,0,0
-70,-545,0,0,0,0,0,0,0,0,0,-1,1154,1569,0,0
-63,-545,0,0,0,0,0,0,0,0,0,-1,1161,1569,0,0
-56,-545,0,0,0,0,0,0,0,0,0,-1,1168,1569,0,0
-49,-545,0,0,0,0,0,0,0,0,0,-1,1175,1569,0,0
-42,-545,0,0,0,0,0,0,0,0,0,-1,1182,1569,0,0
-35,-545,0,0,0,0,0,0,0,0,0,-1,1189,1569,0,0
-28,-545,0,0,0,0,0,0,0,0,0,-1,1196,1569,0,0
-21,-545,0,0,0,0,0,0,0,0,0,-1,1203,1569,0,0
-14,-545,0,0,0,0,0,0,0,0,0,-1,1210,1569,0,0
-7,-545,0,0,0,0,0,0,0,0,0,-1,1217,1569,0,0
0,-545,0,0,0,0,0,0,0,0,0,-1,1224,1569,0,0
7,-545,0,0,0,0,0,0,0,0,0,-1,1231,1569,0,0
14,-545,0,0,0,0,0,0,0,0,0,-1,1238,1569,0,0
21,-545,0,0,0,0,0,0,0,0,0,-1,1245,1569,0,0
28,-545,0,0,0,0,0,0,0,0,0,-1,1252,1569,0,0
35,-545,0,0,0,0,0,0,0,0,0,-1,1259,1569,0,0
42,-545,0,0,0,0,0,0,0,0,0,-1,1266,1569,0,0
49,-545,0,0,0,0,0,0,0,0,0,-1,1273,1569,0,0
56,-545,0,0,0,0,0,0,0,0,0,-1,1280,1569,0,0
63,-545,0,0,0,0,0,0,0,0,0,-1,1287,1569,0,0
70,-545,0,0,0,0,0,0,0,0,0,-1,1294,1569,0,0
77,-545,0,0,0,0,0,0,0,0,0,-1,1301,1569,0,0
84,-545,0,0,0,0,0,0,0,0,0,-1,1308,1569,0,0
91,-545,0,0,0,0,0,0,0,0,0,-1,1315,1569,0,0
98,-545,0,0,0,0,0,0,0,0,0,-1,1322,1569,0,0
105,-545,0,0,0,0,0,0,0,0,0,-1,1329,1569,0,0
112,-545,0,0,0,0,0,0,0,0,0,-1,1336,1569,0,0
119,-545,0,0,0,0,0,0,0,0,0,-1,1343,1569,0,0
126,-545,0,0,0,0,0,0,0,0,0,-1,1350,1569,0,0
133,-545,0,0,0,0,0,0,0,0,0,-1,1357,1569,0,0
140,-545,0,0,0,0,0,0,0,0,0,-1,1364,1569,0,0
147,-545,0,0,0,0,0,0,0,0,0,-1,1371,1569,0,0
154,-545,0,0,0,0,0,0,0,0,0,-1,1378,1569,0,0
161,-545,0,0,0,0,0,0,0,0,0,-1,1385,1569,0,0
168,-545,0,0,0,0,0,0,0,0,0,-1,1392,1569,0,0
175,-545,0,0,0,0,0,0,0,0,0,-1,1399,1569,0,0
182,-545,0,0,0,0,0,0,0,0,0,-1,1406,1569,0,0
189,-545,0,0,0,0,0,0,0,0,0,-1,1413,1569,0,0
196,-545,0,0,0,0,0,0,0,0,0,-1,1420,1569,0,0
203,-545,0,0,0,0,0,0,0,0,0,-1,1427,1569,0,0
210,-545,0,0,0,0,0,0,0,0,0,-1,1434,1569,0,0
217,-545,0,0,0,0,0,0,0,0,0,-1,1441,1569,0,0
224,-545,0,0,0,0,0,0,0,0,0,-1,1448,1569,0,0
231,-545,0,0,0,0,0,0,0,0,0,-1,1455,1569,0,0
238,-545,0,0,0,0,0,0,0,0,0,-1,1462,1569,0,0
245,-545,0,0,0,0,0,0,0,0,0,-1,1469,1569,0,0
252,-545,0,0,0,0,0,0,0,0,0,-1,1476,1569,0,0
259,-545,0,0,0,0,0,0,0,0,0,-1,1483,1569,0,0
266,-545,0,0,0,0,0,0,0,0,0,-1,1490,1569,0,0
273,-545,0,0,0,0,0,0,0,0,0,-1,1497,1569,0,0
280,-545,0,0,0,0,0,0,0,0,0,-1,1504,1569,0,0
287,-545,0,0,0,0,0,0,0,0,0,-1,1511,1569,0,0
294,-545,0,0,0,0,0,0,0,0,0,-1,1518,1569,0,0
301,-545,0,0,0,0,0,0,0,0,0,-1,1525,1569,0,0
308,-545,0,0,0,0,0,0,0,0,0,-1,1532,1569,0,0
315,-545,0,0,0,0,0,0,0,0,0,-1,1539,1569,0,0
322,-545,0,0,0,0,0,0,0,0,0,-1,1546,1569,0,0
329,-545,0,0,0,0,0,0,0,0,0,-1,1553,1569,0,0
336,-545,0,0,0,0,0,0,0,0,0,-1,1560,1569,0,0
343,-545,0,0,0,0,0,0,0,0,0,-1,1567,1569,0,0
350,-545,0,0,0,0,0,0,0,0,0,-1,1574,1569,0,0
357,-545,0,0,0,0,0,0,0,0,0,-1,1581,1569,0,0
364,-545,7.19495,4.88098,0,0,0,0,0,0,0,-1,1588,1569,7.19497,-4.88095
371,-545,7.82324,3.84302,0,0,0,0,0,0,0,-1,1595,1569,7.82324,-3.84307
378,-545,7.65674,5.52673,0,0,0,0,0,0,0,-1,1602,1569,7.6567,-5.52667
385,-545,8.58447,1.16125,0,0,0,0,0,0,0,-1,1609,1569,8.5845,-1.1612
392,-545,12.5654,3.89526,0,0,0,0,0,0,0,-1,1616,1569,12.5655,-3.89532
399,-545,11.5869,5.6333,0,0,0,0,0,0,0,-1,1623,1569,11.5869,-5.63326
406,-545,11.234,6.36414,0,0,0,0,0,0,0,-1,1630,1569,11.234,-6.3641
413,-545,12.1521,13.4817,0,0,0,0,0,0,0,-1,1637,1569,12.1521,-13.4817
420,-545,11.1954,13.6047,0,0,0,0,0,0,0,-1,1644,1569,11.1954,-13.6047
427,-545,9.61072,14.9135,0,0,0,0,0,0,0,-1,1651,1569,9.61076,-14.9134
434,-545,13.1598,23.9921,0,0,0,0,0,0,0,-1,1658,1569,13.1598,-23.992
441,-545,11.4506,19.9683,0,0,0,0,0,0,0,-1,1665,1569,11.4506,-19.9683
448,-545,11.3901,19.0835,0,0,0,0,0,0,0,-1,1672,1569,11.3901,-19.0835
455,-545,11.2894,18.7405,0,0,0,0,0,0,0,-1,1679,1569,11.2894,-18.7405
462,-545,11.9757,17.9946,0,0,0,0,0,0,0,-1,1686,1569,11.9757,-17.9946
469,-545,12.7837,17.7919,0,0,0,0,0,0,0,-1,1693,1569,12.7837,-17.7919
476,-545,12.8995,19.6246,0,0,0,0,0,0,0,-1,1700,1569,12.8995,-19.6246
483,-545,13.1069,18.9233,0.00208418,0.00687438,-0.00219171,0.00772583,0.00123273,-1.20025,0.00479278,0.0315376,1707,1569,13.1069,-18.9233
490,-545,13.0165,18.5658,0.00249014,0.0058395,-0.00208265,0.00683727,0.00149237,-1.12402,0.00415113,0.017248,1714,1569,13.0165,-18.5658
497,-545,13.0269,18.2091,0.00256609,0.00475106,-0.00197329,0.0059141,0.00140305,-1.03821,0.00356822,0.018101,1721,1569,13.0269,-18.2091
504,-545,13.1215,17.8591,0.00263608,0.00410299,-0.00196715,0.00546897,0.00127009,-0.963841,0.00330499,0.0157602,1728,1569,13.1214,-17.8591
511,-545,13.0879,17.5122,0.00234292,0.00302447,-0.00155859,0.00427911,0.00108829,-0.893026,0.00256803,0.0120386,1735,1569,13.0879,-17.5122
518,-545,13.0724,17.1714,0.00186475,0.00192301,-0.00100956,0.00290386,0.000883897,-0.799822,0.00171878,0.0131152,1742,1569,13.0724,-17.1714
525,-545,13.0502,16.8341,0.00134059,0.000946526,-0.000473405,0.00165633,0.000630788,-0.5882,0.000965293,0.0136039,1749,1569,13.0501,-16.8341
532,-545,13.0326,16.4897,0.000854276,4.66288e-05,7.21012e-05,0.000860662,4.02426e-05,0.0883422,0.000560842,0.0142773,1756,1569,13.0326,-16.4898
539,-545,13.0258,16.115,0.000546719,-0.000908857,0.000576617,0.000747459,-0.0011096,0.33501,0.00107895,0.0163239,1763,1569,13.0258,-16.115
546,-545,12.9772,15.7426,0.000211369,-0.00194362,0.0011715,0.000725544,-0.0024578,0.413587,0.00192647,0.0172779,1770,1569,12.9772,-15.7425
553,-545,13.0048,15.4006,-6.91336e-05,-0.0030041,0.00176692,0.00076023,-0.00383347,0.438856,0.00284314,0.0255034,1777,1569,13.0048,-15.4007
560,-545,13.0533,14.9751,-0.000178112,-0.00404703,0.00230227,0.00089452,-0.00511966,0.435999,0.00374704,0.0284357,1784,1569,13.0533,-14.9751
567,-545,13.045,14.469,0,0,0,0,0,0,0,-1,1791,1569,13.045,-14.469
574,-545,13.059,14.2189,0,0,0,0,0,0,0,-1,1798,1569,13.059,-14.2188
581,-545,13.1033,13.8792,0,0,0,0,0,0,0,-1,1805,1569,13.1033,-13.8791
588,-545,13.2032,13.7136,0,0,0,0,0,0,0,-1,1812,1569,13.2032,-13.7137
595,-545,10.2859,9.11218,0,0,0,0,0,0,0,-1,1819,1569,10.2858,-9.11215
602,-545,8.82117,6.32214,0,0,0,0,0,0,0,-1,1826,1569,8.82121,-6.32217
609,-545,10.2406,5.22351,0,0,0,0,0,0,0,-1,1833,1569,10.2406,-5.22353
616,-545,11.701,3.93188,0,0,0,0,0,0,0,-1,1840,1569,11.701,-3.93191
623,-545,13.2139,2.32043,0,0,0,0,0,0,0,-1,1847,1569,13.2139,-2.32042
630,-545,0,0,0,0,0,0,0,0,0,-1,1854,1569,0,0
637,-545,0,0,0,0,0,0,0,0,0,-1,1861,1569,0,0
644,-545,0,0,0,0,0,0,0,0,0,-1,1868,1569,0,0
651,-545,0,0,0,0,0,0,0,0,0,-1,1875,1569,0,0
658,-545,0,0,0,0,0,0,0,0,0,-1,1882,1569,0,0
665,-545,0,0,0,0,0,0,0,0,0,-1,1889,1569,0,0
672,-545,0,0,0,0,0,0,0,0,0,-1,1896,1569,0,0
679,-545,0,0,0,0,0,0,0,0,0,-1,1903,1569,0,0
686,-545,0,0,0,0,0,0,0,0,0,-1,1910,1569,0,0
693,-545,0,0,0,0,0,0,0,0,0,-1,1917,1569,0,0
700,-545,0,0,0,0,0,0,0,0,0,-1,1924,1569,0,0
707,-545,0,0,0,0,0,0,0,0,0,-1,1931,1569,0,0
714,-545,0,0,0,0,0,0,0,0,0,-1,1938,1569,0,0
721,-545,0,0,0,0,0,0,0,0,0,-1,1945,1569,0,0
728,-545,0,0,0,0,0,0,0,0,0,-1,1952,1569,0,0
735,-545,0,0,0,0,0,0,0,0,0,-1,1959,1569,0,0
742,-545,0,0,0,0,0,0,0,0,0,-1,1966,1569,0,0
749,-545,0,0,0,0,0,0,0,0,0,-1,1973,1569,0,0
756,-545,0,0,0,0,0,0,0,0,0,-1,1980,1569,0,0
763,-545,0,0,0,0,0,0,0,0,0,-1,1987,1569,0,0
770,-545,0,0,0,0,0,0,0,0,0,-1,1994,1569,0,0
777,-545,0,0,0,0,0,0,0,0,0,-1,2001,1569,0,0
784,-545,0,0,0,0,0,0,0,0,0,-1,2008,1569,0,0
791,-545,0,0,0,0,0,0,0,0,0,-1,2015,1569,0,0
798,-545,0,0,0,0,0,0,0,0,0,-1,2022,1569,0,0
805,-545,0,0,0,0,0,0,0,0,0,-1,2029,1569,0,0
812,-545,0,0,0,0,0,0,0,0,0,-1,2036,1569,0,0
-700,-552,0,0,0,0,0,0,0,0,0,-1,524,1576,0,0
-693,-552,0,0,0,0,0,0,0,0,0,-1,531,1576,0,0
-686,-552,0,0,0,0,0,0,0,0,0,-1,538,1576,0,0
-679,-552,0,0,0,0,0,0,0,0,0,-1,545,1576,0,0
-672,-552,0,0,0,0,0,0,0,0,0,-1,552,1576,0,0
-665,-552,0,0,0,0,0,0,0,0,0,-1,559,1576,0,0
-658,-552,0,0,0,0,0,0,0,0,0,-1,566,1576,0,0
-651,-552,0,0,0,0,0,0,0,0,0,-1,573,1576,0,0
-644,-552,0,0,0,0,0,0,0,0,0,-1,580,1576,0,0
-637,-552,0,0,0,0,0,0,0,0,0,-1,587,1576,0,0
-630,-552,0,0,0,0,0,0,0,0,0,-1,594,1576,0,0
-623,-552,0,0,0,0,0,0,0,0,0,-1,601,1576,0,0
-616,-552,0,0,0,0,0,0,0,0,0,-1,608,1576,0,0
-609,-552,0,0,0,0,0,0,0,0,0,-1,615,1576,0,0
-602,-552,0,0,0,0,0,0,0,0,0,-1,622,1576,0,0
-595,-552,0,0,0,0,0,0,0,0,0,-1,629,1576,0,0
-588,-552,0,0,0,0,0,0,0,0,0,-1,636,1576,0,0
-581,-552,0,0,0,0,0,0,0,0,0,-1,643,1576,0,0
-574,-552,0,0,0,0,0,0,0,0,0,-1,650,1576,0,0
-567,-552,0,0,0,0,0,0,0,0,0,-1,657,1576,0,0
-560,-552,0,0,0,0,0,0,0,0,0,-1,664,1576,0,0
-553,-552,0,0,0,0,0,0,0,0,0,-1,671,1576,0,0
-546,-552,0,0,0,0,0,0,0,0,0,-1,678,1576,0,0
-539,-552,0,0,0,0,0,0,0,0,0,-1,685,1576,0,0
-532,-552,0,0,0,0,0,0,0,0,0,-1,692,1576,0,0
-525,-552,0,0,0,0,0,0,0,0,0,-1,699,1576,0,0
-518,-552,0,0,0,0,0,0,0,0,0,-1,706,1576,0,0
-511,-552,0,0,0,0,0,0,0,0,0,-1,713,1576,0,0
-504,-552,0,0,0,0,0,0,0,0,0,-1,720,1576,0,0
-497,-552,1.51282,3.96924,0,0,0,0,0,0,0,-1,727,1576,1.5128,-3.96924
-490,-552,-3.82312,6.32104,0,0,0,0,0,0,0,-1,734,1576,-3.82314,-6.3211
-483,-552,-3.50586,6.47986,0,0,0,0,0,0,0,-1,741,1576,-3.50587,-6.47983
-476,-552,-1.95129,4.43054,0,0,0,0,0,0,0,-1,748,1576,-1.95128,-4.43054
-469,-552,-1.40491,7.9895,0,0,0,0,0,0,0,-1,755,1576,-1.40491,-7.98947
-462,-552,-0.732483,10.0731,0,0,0,0,0,0,0,-1,762,1576,-0.732495,-10.0731
-455,-552,-0.184998,11.5931,0,0,0,0,0,0,0,-1,769,1576,-0.185025,-11.5931
-448,-552,-0.337402,11.8572,0.018909,0.0232495,0.014969,0.0362048,0.00595374,0.857387,0.022417,0.0453498,776,1576,-0.337426,-11.8572
-441,-552,-0.0222168,12.8884,0.0131316,0.0170873,0.0106942,0.025985,0.00423393,0.876839,0.0160987,0.0397359,783,1576,-0.0222414,-12.8884
-434,-552,-0.0205688,13.3687,0.00844769,0.0123363,0.00743367,0.0180757,0.00270827,0.91331,0.0112569,0.0275531,790,1576,-0.0205637,-13.3687
-427,-552,-0.149658,13.6246,0.00523027,0.00843877,0.00516219,0.0122402,0.0014288,0.936052,0.00772805,0.0226447,797,1576,-0.14963,-13.6246
-420,-552,-0.0997925,14.0553,0.00320398,0.00594056,0.00341396,0.00825022,0.000894313,0.975993,0.00522761,0.0194386,804,1576,-0.0997808,-14.0553
-413,-552,-0.0964355,14.4296,0.00181245,0.00433899,0.00217978,0.0055951,0.000556335,1.04802,0.00355914,0.0165849,811,1576,-0.0964645,-14.4296
-406,-552,-0.13678,14.8187,0.000506152,0.00264654,0.00137553,0.00331916,-0.000166471,1.116,0.0022703,0.0127883,818,1576,-0.136802,-14.8187
-399,-552,-0.154907,15.2074,0.000103957,0.00218886,0.00116757,0.00271163,-0.000418815,1.14982,0.00196231,0.0127742,825,1576,-0.154906,-15.2074
-392,-552,-0.17865,15.5801,0.000125216,0.00213163,0.000863268,0.00245192,-0.000195079,1.21551,0.00170337,0.0147564,832,1576,-0.178653,-15.5801
-385,-552,-0.189758,15.9656,0.000462012,0.00264745,0.00066658,0.00283472,0.000274745,1.29692,0.00180521,0.0141631,839,1576,-0.189758,-15.9656
-378,-552,-0.193481,16.3422,0.000855116,0.00314758,0.000505306,0.00325402,0.000748678,1.36319,0.00196785,0.0154533,846,1576,-0.193478,-16.3422
-371,-552,-0.211365,16.7164,0.00110659,0.00362973,0.000120277,0.00363545,0.00110087,1.52327,0.00215265,0.018842,853,1576,-0.211345,-16.7164
-364,-552,-0.197144,17.0691,0.00119788,0.00415329,-0.000252114,0.00417464,0.00117652,-1.4863,0.00248554,0.0142443,860,1576,-0.197156,-17.069
-357,-552,-0.17926,17.4335,0.0013449,0.00480867,-0.000775299,0.00497428,0.00117928,-1.36034,0.00300134,0.0100607,867,1576,-0.179248,-17.4335
-350,-552,-0.179138,17.8131,0.00136731,0.00528314,-0.00136948,0.00571456,0.000935894,-1.26562,0.00353923,0.0108982,874,1576,-0.179155,-17.8132
-343,-552,-0.200684,18.1578,0.00114248,0.00583831,-0.00186481,0.00648876,0.000492024,-1.23519,0.00417151,0.0115951,881,1576,-0.200697,-18.1578
-336,-552,-0.137939,18.443,0.000831285,0.00666214,-0.00217472,0.0073839,0.000109527,-1.25035,0.0048865,0.0206662,888,1576,-0.13793,-18.443
-329,-552,-0.24823,18.7588,0.000221384,0.00837055,-0.00215369,0.00890472,-0.000312784,-1.32768,0.00604344,0.0423364,895,1576,-0.248245,-18.7588
-322,-552,-0.20813,19.3645,0,0,0,0,0,0,0,-1,902,1576,-0.208127,-19.3645
-315,-552,0.573364,20.0154,0,0,0,0,0,0,0,-1,909,1576,0.573339,-20.0154
-308,-552,0.411194,20.5737,0,0,0,0,0,0,0,-1,916,1576,0.411186,-20.5737
-301,-552,1.39453,18.4995,0,0,0,0,0,0,0,-1,923,1576,1.3945,-18.4995
-294,-552,0.842163,13.7863,0,0,0,0,0,0,0,-1,930,1576,0.842149,-13.7863
-287,-552,-0.663757,13.3474,0,0,0,0,0,0,0,-1,937,1576,-0.663744,-13.3474
-280,-552,-5.47241,8.96765,0,0,0,0,0,0,0,-1,944,1576,-5.47239,-8.96766
-273,-552,1.64587,10.6685,0,0,0,0,0,0,0,-1,951,1576,1.6459,-10.6685
-266,-552,-1.32678,8.05688,0,0,0,0,0,0,0,-1,958,1576,-1.32677,-8.05683
-259,-552,-5.54321,8.31213,0,0,0,0,0,0,0,-1,965,1576,-5.54324,-8.31214
-252,-552,-1.93445,7.81543,0,0,0,0,0,0,0,-1,972,1576,-1.93445,-7.81546
-245,-552,-2.53613,6.92212,0,0,0,0,0,0,0,-1,979,1576,-2.53614,-6.92216
-238,-552,-6.5365,2.81885,0,0,0,0,0,0,0,-1,986,1576,-6.53649,-2.8188
-231,-552,-4.32239,4.34583,0,0,0,0,0,0,0,-1,993,1576,-4.32239,-4.34587
-224,-552,0,0,0,0,0,0,0,0,0,-1,1000,1576,0,0
-217,-552,0,0,0,0,0,0,0,0,0,-1,1007,1576,0,0
-210,-552,0,0,0,0,0,0,0,0,0,-1,1014,1576,0,0
-203,-552,0,0,0,0,0,0,0,0,0,-1,1021,1576,0,0
-196,-552,0,0,0,0,0,0,0,0,0,-1,1028,1576,0,0
-189,-552,0,0,0,0,0,0,0,0,0,-1,1035,1576,0,0
-182,-552,0,0,0,0,0,0,0,0,0,-1,1042,1576,0,0
-175,-552,0,0,0,0,0,0,0,0,0,-1,1049,1576,0,0
-168,-552,0,0,0,0,0,0,0,0,0,-1,1056,1576,0,0
-161,-552,0,0,0,0,0,0,0,0,0,-1,1063,1576,0,0
-154,-552,0,0,0,0,0,0,0,0,0,-1,1070,1576,0,0
-147,-552,0,0,0,0,0,0,0,0,0,-1,1077,1576,0,0
-140,-552,0,0,0,0,0,0,0,0,0,-1,1084,1576,0,0
-133,-552,0,0,0,0,0,0,0,0,0,-1,1091,1576,0,0
-126,-552,0,0,0,0,0,0,0,0,0,-1,1098,1576,0,0
-119,-552,0,0,0,0,0,0,0,0,0,-1,1105,1576,0,0
-112,-552,0,0,0,0,0,0,0,0,0,-1,1112,1576,0,0
-105,-552,0,0,0,0,0,0,0,0,0,-1,1119,1576,0,0
-98,-552,0,0,0,0,0,0,0,0,0,-1,1126,1576,0,0
-91,-552,0,0,0,0,0,0,0,0,0,-1,1133,1576,0,0
-84,-552,0,0,0,0,0,0,0,0,0,-1,1140,1576,0,0
-77,-552,0,0,0,0,0,0,0,0,0,-1,1147,1576,0,0
-70,-552,0,0,0,0,0,0,0,0,0,-1,1154,1576,0,0
-63,-552,0,0,0,0,0,0,0,0,0,-1,1161,1576,0,0
-56,-552,0,0,0,0,0,0,0,0,0,-1,1168,1576,0,0
-49,-552,0,0,0,0,0,0,0,0,0,-1,1175,1576,0,0
-42,-552,0,0,0,0,0,0,0,0,0,-1,1182,1576,0,0
-35,-552,0,0,0,0,0,0,0,0,0,-1,1189,1576,0,0
-28,-552,0,0,0,0,0,0,0,0,0,-1,1196,1576,0,0
-21,-552,0,0,0,0,0,0,0,0,0,-1,1203,1576,0,0
-14,-552,0,0,0,0,0,0,0,0,0,-1,1210,1576,0,0
-7,-552,0,0,0,0,0,0,0,0,0,-1,1217,1576,0,0
0,-552,0,0,0,0,0,0,0,0,0,-1,1224,1576,0,0
7,-552,0,0,0,0,0,0,0,0,0,-1,1231,1576,0,0
14,-552,0,0,0,0,0,0,0,0,0,-1,1238,1576,0,0
21,-552,0,0,0,0,0,0,0,0,0,-1,1245,1576,0,0
28,-552,0,0,0,0,0,0,0,0,0,-1,1252,1576,0,0
35,-552,0,0,0,0,0,0,0,0,0,-1,1259,1576,0,0
42,-552,0,0,0,0,0,0,0,0,0,-1,1266,1576,0,0
49,-552,0,0,0,0,0,0,0,0,0,-1,1273,1576,0,0
56,-552,0,0,0,0,0,0,0,0,0,-1,1280,1576,0,0
63,-552,0,0,0,0,0,0,0,0,0,-1,1287,1576,0,0
70,-552,0,0,0,0,0,0,0,0,0,-1,1294,1576,0,0
77,-552,0,0,0,0,0,0,0,0,0,-1,1301,1576,0,0
84,-552,0,0,0,0,0,0,0,0,0,-1,1308,1576,0,0
91,-552,0,0,0,0,0,0,0,0,0,-1,1315,1576,0,0
98,-552,0,0,0,0,0,0,0,0,0,-1,1322,1576,0,0
105,-552,0,0,0,0,0,0,0,0,0,-1,1329,1576,0,0
112,-552,0,0,0,0,0,0,0,0,0,-1,1336,1576,0,0
119,-552,0,0,0,0,0,0,0,0,0,-1,1343,1576,0,0
126,-552,0,0,0,0,0,0,0,0,0,-1,1350,1576,0,0
133,-552,0,0,0,0,0,0,0,0,0,-1,1357,1576,0,0
140,-552,0,0,0,0,0,0,0,0,0,-1,1364,1576,0,0
147,-552,0,0,0,0,0,0,0,0,0,-1,1371,1576,0,0
154,-552,0,0,0,0,0,0,0,0,0,-1,1378,1576,0,0
161,-552,0,0,0,0,0,0,0,0,0,-1,1385,1576,0,0
168,-552,0,0,0,0,0,0,0,0,0,-1,1392,1576,0,0
175,-552,0,0,0,0,0,0,0,0,0,-1,1399,1576,0,0
182,-552,0,0,0,0,0,0,0,0,0,-1,1406,1576,0,0
189,-552,0,0,0,0,0,0,0,0,0,-1,1413,1576,0,0
196,-552,0,0,0,0,0,0,0,0,0,-1,1420,1576,0,0
203,-552,0,0,0,0,0,0,0,0,0,-1,1427,1576,0,0
210,-552,0,0,0,0,0,0,0,0,0,-1,1434,1576,0,0
217,-552,0,0,0,0,0,0,0,0,0,-1,1441,1576,0,0
224,-552,0,0,0,0,0,0,0,0,0,-1,1448,1576,0,0
231,-552,0,0,0,0,0,0,0,0,0,-1,1455,1576,0,0
238,-552,0,0,0,0,0,0,0,0,0,-1,1462,1576,0,0
245,-552,0,0,0,0,0,0,0,0,0,-1,1469,1576,0,0
252,-552,0,0,0,0,0,0,0,0,0,-1,1476,1576,0,0
259,-552,0,0,0,0,0,0,0,0,0,-1,1483,1576,0,0
266,-552,0,0,0,0,0,0,0,0,0,-1,1490,1576,0,0
273,-552,0,0,0,0,0,0,0,0,0,-1,1497,1576,0,0
280,-552,0,0,0,0,0,0,0,0,0,-1,1504,1576,0,0
287,-552,0,0,0,0,0,0,0,0,0,-1,1511,1576,0,0
294,-552,0,0,0,0,0,0,0,0,0,-1,1518,1576,0,0
301,-552,0,0,0,0,0,0,0,0,0,-1,1525,1576,0,0
308,-552,0,0,0,0,0,0,0,0,0,-1,1532,1576,0,0
315,-552,0,0,0,0,0,0,0,0,0,-1,1539,1576,0,0
322,-552,0,0,0,0,0,0,0,0,0,-1,1546,1576,0,0
329,-552,0,0,0,0,0,0,0,0,0,-1,1553,1576,0,0
336,-552,0,0,0,0,0,0,0,0,0,-1,1560,1576,0,0
343,-552,0,0,0,0,0,0,0,0,0,-1,1567,1576,0,0
350,-552,4.97876,4.09888,0,0,0,0,0,0,0,-1,1574,1576,4.97875,-4.09883
357,-552,5.18469,4.10706,0,0,0,0,0,0,0,-1,1581,1576,5.1847,-4.10702
364,-552,5.80872,5.07031,0,0,0,0,0,0,0,-1,1588,1576,5.80874,-5.07037
371,-552,7.10657,5.64783,0,0,0,0,0,0,0,-1,1595,1576,7.10651,-5.64786
378,-552,6.44446,4.91492,0,0,0,0,0,0,0,-1,1602,1576,6.44448,-4.91496
385,-552,12.8276,3.16504,0,0,0,0,0,0,0,-1,1609,1576,12.8276,-3.16503
392,-552,12.1301,4.3363,0,0,0,0,0,0,0,-1,1616,1576,12.1302,-4.33631
399,-552,11.3486,5.6012,0,0,0,0,0,0,0,-1,1623,1576,11.3486,-5.60115
406,-552,10.7863,6.42542,0,0,0,0,0,0,0,-1,1630,1576,10.7863,-6.42536
413,-552,8.39307,10.365,0,0,0,0,0,0,0,-1,1637,1576,8.3931,-10.365
420,-552,10.2306,12.7225,0,0,0,0,0,0,0,-1,1644,1576,10.2305,-12.7226
427,-552,9.73267,14.783,0,0,0,0,0,0,0,-1,1651,1576,9.73269,-14.783
434,-552,12.0377,20.1364,0,0,0,0,0,0,0,-1,1658,1576,12.0377,-20.1364
441,-552,11.4086,19.4784,0,0,0,0,0,0,0,-1,1665,1576,11.4085,-19.4783
448,-552,11.5298,19.1862,0,0,0,0,0,0,0,-1,1672,1576,11.5298,-19.1862
455,-552,11.5428,18.8829,0,0,0,0,0,0,0,-1,1679,1576,11.5428,-18.883
462,-552,11.7712,18.6907,0,0,0,0,0,0,0,-1,1686,1576,11.7713,-18.6907
469,-552,12.4055,19.7716,0,0,0,0,0,0,0,-1,1693,1576,12.4055,-19.7716
476,-552,12.6592,19.2889,0.000320216,0.00701484,-0.00115372,0.00720809,0.000126966,-1.40484,0.00476364,0.0322332,1700,1576,12.6592,-19.2889
483,-552,12.7496,18.8406,0.00149361,0.0057638,-0.00160324,0.00629872,0.000958681,-1.24876,0.00391887,0.0216328,1707,1576,12.7496,-18.8406
490,-552,12.7096,18.5187,0.00193618,0.00487275,-0.00162303,0.00559309,0.00121584,-1.15309,0.00339677,0.0147834,1714,1576,12.7096,-18.5187
497,-552,12.7361,18.1698,0.00207661,0.00391263,-0.00162564,0.00486156,0.00112768,-1.04243,0.00293819,0.0227202,1721,1576,12.7361,-18.1698
504,-552,12.757,17.8501,0.00213992,0.0033186,-0.00162438,0.00445724,0.00100128,-0.95942,0.00270034,0.0242953,1728,1576,12.757,-17.8501
511,-552,12.7532,17.5154,0.00185534,0.00224904,-0.00122454,0.00329245,0.000811924,-0.865093,0.0019806,0.0172684,1735,1576,12.7532,-17.5153
518,-552,12.7223,17.1667,0.00141961,0.00120535,-0.000715334,0.00203579,0.000589171,-0.71107,0.00120962,0.0141522,1742,1576,12.7223,-17.1668
525,-552,12.7081,16.8361,0.00092273,0.000246852,-0.000178147,0.000966811,0.000202771,-0.242568,0.000588708,0.0137404,1749,1576,12.7081,-16.836
532,-552,12.7092,16.4863,0.000439919,-0.000690333,0.000417274,0.000577277,-0.000827692,0.318009,0.000815443,0.0148235,1756,1576,12.7093,-16.4864
539,-552,12.6836,16.1256,6.95957e-05,-0.0017505,0.00104499,0.00054526,-0.00222616,0.427157,0.00169535,0.0176878,1763,1576,12.6836,-16.1256
546,-552,12.663,15.8007,-0.000387566,-0.00295707,0.00183718,0.000569513,-0.00391415,0.480268,0.00281852,0.0205793,1770,1576,12.6629,-15.8006
553,-552,12.7041,15.428,-0.000794985,-0.0042563,0.00269733,0.000679165,-0.00573045,0.500168,0.00406564,0.025016,1777,1576,12.7041,-15.4279
560,-552,12.6708,15.1244,-0.00106132,-0.00563179,0.00357673,0.000897886,-0.00759099,0.501126,0.00538497,0.0492738,1784,1576,12.6708,-15.1244
567,-552,12.7104,14.4536,0,0,0,0,0,0,0,-1,1791,1576,12.7105,-14.4536
574,-552,11.9689,13.4098,0,0,0,0,0,0,0,-1,1798,1576,11.9689,-13.4097
581,-552,9.74841,9.98645,0,0,0,0,0,0,0,-1,1805,1576,9.74847,-9.9864
588,-552,10.5619,9.34924,0,0,0,0,0,0,0,-1,1812,1576,10.5619,-9.34921
595,-552,5.36194,6.62744,0,0,0,0,0,0,0,-1,1819,1576,5.36193,-6.62742
602,-552,10.6863,4.31616,0,0,0,0,0,0,0,-1,1826,1576,10.6862,-4.31619
609,-552,12.146,3.18286,0,0,0,0,0,0,0,-1,1833,1576,12.1459,-3.18281
616,-552,13.8762,2.08167,0,0,0,0,0,0,0,-1,1840,1576,13.8763,-2.08167
623,-552,0,0,0,0,0,0,0,0,0,-1,1847,1576,0,0
630,-552,0,0,0,0,0,0,0,0,0,-1,1854,1576,0,0
637,-552,0,0,0,0,0,0,0,0,0,-1,1861,1576,0,0
644,-552,0,0,0,0,0,0,0,0,0,-1,1868,1576,0,0
651,-552,0,0,0,0,0,0,0,0,0,-1,1875,1576,0,0
658,-552,0,0,0,0,0,0,0,0,0,-1,1882,1576,0,0
665,-552,0,0,0,0,0,0,0,0,0,-1,1889,1576,0,0
672,-552,0,0,0,0,0,0,0,0,0,-1,1896,1576,0,0
679,-552,0,0,0,0,0,0,0,0,0,-1,1903,1576,0,0
686,-552,0,0,0,0,0,0,0,0,0,-1,1910,1576,0,0
693,-552,0,0,0,0,0,0,0,0,0,-1,1917,1576,0,0
700,-552,0,0,0,0,0,0,0,0,0,-1,1924,1576,0,0
707,-552,0,0,0,0,0,0,0,0,0,-1,1931,1576,0,0
714,-552,0,0,0,0,0,0,0,0,0,-1,1938,1576,0,0
721,-552,0,0,0,0,0,0,0,0,0,-1,1945,1576,0,0
728,-552,0,0,0,0,0,0,0,0,0,-1,1952,1576,0,0
735,-552,0,0,0,0,0,0,0,0,0,-1,1959,1576,0,0
742,-552,0,0,0,0,0,0,0,0,0,-1,1966,1576,0,0
749,-552,0,0,0,0,0,0,0,0,0,-1,1973,1576,0,0
756,-552,0,0,0,0,0,0,0,0,0,-1,1980,1576,0,0
763,-552,0,0,0,0,0,0,0,0,0,-1,1987,1576,0,0
770,-552,0,0,0,0,0,0,0,0,0,-1,1994,1576,0,0
777,-552,0,0,0,0,0,0,0,0,0,-1,2001,1576,0,0
784,-552,0,0,0,0,0,0,0,0,0,-1,2008,1576,0,0
791,-552,0,0,0,0,0,0,0,0,0,-1,2015,1576,0,0
798,-552,0,0,0,0,0,0,0,0,0,-1,2022,1576,0,0
805,-552,0,0,0,0,0,0,0,0,0,-1,2029,1576,0,0
812,-552,0,0,0,0,0,0,0,0,0,-1,2036,1576,0,0
-700,-559,0,0,0,0,0,0,0,0,0,-1,524,1583,0,0
-693,-559,0,0,0,0,0,0,0,0,0,-1,531,1583,0,0
-686,-559,0,0,0,0,0,0,0,0,0,-1,538,1583,0,0
-679,-559,0,0,0,0,0,0,0,0,0,-1,545,1583,0,0
-672,-559,0,0,0,0,0,0,0,0,0,-1,552,1583,0,0
-665,-559,0,0,0,0,0,0,0,0,0,-1,559,1583,0,0
-658,-559,0,0,0,0,0,0,0,0,0,-1,566,1583,0,0
-651,-559,0,0,0,0,0,0,0,0,0,-1,573,1583,0,0
-644,-559,0,0,0,0,0,0,0,0,0,-1,580,1583,0,0
-637,-559,0,0,0,0,0,0,0,0,0,-1,587,1583,0,0
-630,-559,0,0,0,0,0,0,0,0,0,-1,594,1583,0,0
-623,-559,0,0,0,0,0,0,0,0,0,-1,601,1583,0,0
-616,-559,0,0,0,0,0,0,0,0,0,-1,608,1583,0,0
-609,-559,0,0,0,0,0,0,0,0,0,-1,615,1583,0,0
-602,-559,0,0,0,0,0,0,0,0,0,-1,622,1583,0,0
-595,-559,0,0,0,0,0,0,0,0,0,-1,629,1583,0,0
-588,-559,0,0,0,0,0,0,0,0,0,-1,636,1583,0,0
-581,-559,0,0,0,0,0,0,0,0,0,-1,643,1583,0,0
-574,-559,0,0,0,0,0,0,0,0,0,-1,650,1583,0,0
-567,-559,0,0,0,0,0,0,0,0,0,-1,657,1583,0,0
-560,-559,0,0,0,0,0,0,0,0,0,-1,664,1583,0,0
-553,-559,0,0,0,0,0,0,0,0,0,-1,671,1583,0,0
-546,-559,0,0,0,0,0,0,0,0,0,-1,678,1583,0,0
-539,-559,0,0,0,0,0,0,0,0,0,-1,685,1583,0,0
-532,-559,0,0,0,0,0,0,0,0,0,-1,692,1583,0,0
-525,-559,0,0,0,0,0,0,0,0,0,-1,699,1583,0,0
-518,-559,0,0,0,0,0,0,0,0,0,-1,706,1583,0,0
-511,-559,0,0,0,0,0,0,0,0,0,-1,713,1583,0,0
-504,-559,0,0,0,0,0,0,0,0,0,-1,720,1583,0,0
-497,-559,0,0,0,0,0,0,0,0,0,-1,727,1583,0,0
-490,-559,-5.49835,4.47424,0,0,0,0,0,0,0,-1,734,1583,-5.49833,-4.4743
-483,-559,-5.24078,4.74561,0,0,0,0,0,0,0,-1,741,1583,-5.24079,-4.74563
-476,-559,-4.98022,4.99316,0,0,0,0,0,0,0,-1,748,1583,-4.98024,-4.99321
-469,-559,-4.6424,5.38062,0,0,0,0,0,0,0,-1,755,1583,-4.64237,-5.38058
-462,-559,-0.161865,6.49438,0,0,0,0,0,0,0,-1,762,1583,-0.161835,-6.49444
-455,-559,1.08826,7.02527,0,0,0,0,0,0,0,-1,769,1583,1.08823,-7.02529
-448,-559,-0.397949,11.5375,0,0,0,0,0,0,0,-1,776,1583,-0.397953,-11.5375
-441,-559,0.466248,13.1722,0,0,0,0,0,0,0,-1,783,1583,0.466257,-13.1723
-434,-559,0.315918,13.4467,0,0,0,0,0,0,0,-1,790,1583,0.315936,-13.4466
-427,-559,0.268372,13.5341,0,0,0,0,0,0,0,-1,797,1583,0.26835,-13.5341
-420,-559,0.208679,14.0872,0.0031261,0.00704851,0.00392985,0.00947935,0.000695262,1.01684,0.00610104,0.0339155,804,1583,0.208683,-14.0871
-413,-559,0.241333,14.4591,0.00135144,0.00483536,0.00233869,0.00600954,0.000177259,1.10549,0.0039486,0.0150674,811,1583,0.241324,-14.4591
-406,-559,0.22644,14.8684,-0.000240144,0.00256901,0.00124745,0.00304299,-0.000714125,1.20769,0.0023039,0.00990273,818,1583,0.226429,-14.8685
-399,-559,0.221924,15.2394,-0.000751472,0.00174356,0.000887472,0.00202702,-0.00103494,1.26163,0.00179849,0.0123692,825,1583,0.221934,-15.2393
-392,-559,0.195374,15.5894,-0.00079634,0.00132744,0.000493462,0.0014365,-0.000905396,1.35329,0.00136363,0.0164845,832,1583,0.195352,-15.5893
-385,-559,0.173828,15.9641,-0.000431561,0.00169675,0.000371742,0.00175981,-0.000494623,1.40276,0.00136821,0.0173795,839,1583,0.173837,-15.9641
-378,-559,0.17926,16.3398,3.32306e-05,0.00209505,0.000285165,0.00213377,-5.48305e-06,1.43586,0.00142434,0.0147828,846,1583,0.179268,-16.3398
-371,-559,0.180603,16.707,0.000379668,0.00244449,1.76776e-05,0.00244464,0.000379517,1.56224,0.00151914,0.0201011,853,1583,0.180598,-16.7071
-364,-559,0.185486,17.0627,0.000603709,0.00285596,-0.000221171,0.00287747,0.000582195,-1.47383,0.0017567,0.0183617,860,1583,0.185468,-17.0628
-357,-559,0.167725,17.4381,0.00093555,0.00336456,-0.000533865,0.00347672,0.000823392,-1.36372,0.00209792,0.012017,867,1583,0.167754,-17.4381
-350,-559,0.167419,17.786,0.00117472,0.00375489,-0.000873157,0.0040226,0.000907008,-1.2733,0.00243634,0.0103619,874,1583,0.167439,-17.786
-343,-559,0.158813,18.1499,0.00119052,0.00426274,-0.00102236,0.00457186,0.000881404,-1.27718,0.00280072,0.0105009,881,1583,0.158803,-18.1499
-336,-559,0.123474,18.4717,0.00113559,0.00504298,-0.000986828,0.00527806,0.000900505,-1.33693,0.00326026,0.0153143,888,1583,0.123448,-18.4716
-329,-559,0.205444,18.9865,0.00082958,0.00673336,-0.000677729,0.00681016,0.000752778,-1.45796,0.00431114,0.026582,895,1583,0.205467,-18.9865
-322,-559,0.442139,19.6028,0,0,0,0,0,0,0,-1,902,1583,0.442129,-19.6028
-315,-559,0.456543,19.6569,-0.000292838,0.010885,0.000765026,0.0109371,-0.000344955,1.50278,0.00740906,0.0434036,909,1583,0.456572,-19.6569
-308,-559,0.307922,20.1559,-0.00122993,0.0142011,0.00203423,0.0144648,-0.0014936,1.4419,0.0101777,0.0491063,916,1583,0.307933,-20.1558
-301,-559,0.149231,20.6791,0,0,0,0,0,0,0,-1,923,1583,0.149254,-20.679
-294,-559,0.945129,18.5165,0,0,0,0,0,0,0,-1,930,1583,0.945117,-18.5165
-287,-559,-0.11792,15.4912,0,0,0,0,0,0,0,-1,937,1583,-0.117939,-15.4912
-280,-559,0.191467,13.5093,0,0,0,0,0,0,0,-1,944,1583,0.191441,-13.5093
-273,-559,2.12836,10.3059,0,0,0,0,0,0,0,-1,951,1583,2.12839,-10.3059
-266,-559,-0.597046,6.68933,0,0,0,0,0,0,0,-1,958,1583,-0.597031,-6.68937
-259,-559,-7.00311,8.62756,0,0,0,0,0,0,0,-1,965,1583,-7.00312,-8.6275
-252,-559,-9.4483,2.87805,0,0,0,0,0,0,0,-1,972,1583,-9.44829,-2.87805
-245,-559,-4.80804,7.1803,0,0,0,0,0,0,0,-1,979,1583,-4.80804,-7.18027
-238,-559,-8.45764,2.54858,0,0,0,0,0,0,0,-1,986,1583,-8.45763,-2.54862
-231,-559,-5.86914,4.34021,0,0,0,0,0,0,0,-1,993,1583,-5.86914,-4.34019
-224,-559,-3.30505,6.22864,0,0,0,0,0,0,0,-1,1000,1583,-3.30505,-6.22859
-217,-559,0,0,0,0,0,0,0,0,0,-1,1007,1583,0,0
-210,-559,0,0,0,0,0,0,0,0,0,-1,1014,1583,0,0
-203,-559,0,0,0,0,0,0,0,0,0,-1,1021,1583,0,0
-196,-559,0,0,0,0,0,0,0,0,0,-1,1028,1583,0,0
-189,-559,0,0,0,0,0,0,0,0,0,-1,1035,1583,0,0
-182,-559,0,0,0,0,0,0,0,0,0,-1,1042,1583,0,0
-175,-559,0,0,0,0,0,0,0,0,0,-1,1049,1583,0,0
-168,-559,0,0,0,0,0,0,0,0,0,-1,1056,1583,0,0
-161,-559,0,0,0,0,0,0,0,0,0,-1,1063,1583,0,0
-154,-559,0,0,0,0,0,0,0,0,0,-1,1070,1583,0,0
-147,-559,0,0,0,0,0,0,0,0,0,-1,1077,1583,0,0
-140,-559,0,0,0,0,0,0,0,0,0,-1,1084,1583,0,0
-133,-559,0,0,0,0,0,0,0,0,0,-1,1091,1583,0,0
-126,-559,0,0,0,0,0,0,0,0,0,-1,1098,1583,0,0
-119,-559,0,0,0,0,0,0,0,0,0,-1,1105,1583,0,0
-112,-559,0,0,0,0,0,0,0,0,0,-1,1112,1583,0,0
-105,-559,0,0,0,0,0,0,0,0,0,-1,1119,1583,0,0
-98,-559,0,0,0,0,0,0,0,0,0,-1,1126,1583,0,0
-91,-559,0,0,0,0,0,0,0,0,0,-1,1133,1583,0,0
-84,-559,0,0,0,0,0,0,0,0,0,-1,1140,1583,0,0
-77,-559,0,0,0,0,0,0,0,0,0,-1,1147,1583,0,0
-70,-559,0,0,0,0,0,0,0,0,0,-1,1154,1583,0,0
-63,-559,0,0,0,0,0,0,0,0,0,-1,1161,1583,0,0
-56,-559,0,0,0,0,0,0,0,0,0,-1,1168,1583,0,0
-49,-559,0,0,0,0,0,0,0,0,0,-1,1175,1583,0,0
-42,-559,0,0,0,0,0,0,0,0,0,-1,1182,1583,0,0
-35,-559,0,0,0,0,0,0,0,0,0,-1,1189,1583,0,0
-28,-559,0,0,0,0,0,0,0,0,0,-1,1196,1583,0,0
-21,-559,0,0,0,0,0,0,0,0,0,-1,1203,1583,0,0
-14,-559,0,0,0,0,0,0,0,0,0,-1,1210,1583,0,0
-7,-559,0,0,0,0,0,0,0,0,0,-1,1217,1583,0,0
0,-559,0,0,0,0,0,0,0,0,0,-1,1224,1583,0,0
7,-559,0,0,0,0,0,0,0,0,0,-1,1231,1583,0,0
14,-559,0,0,0,0,0,0,0,0,0,-1,1238,1583,0,0
21,-559,0,0,0,0,0,0,0,0,0,-1,1245,1583,0,0
28,-559,0,0,0,0,0,0,0,0,0,-1,1252,1583,0,0
35,-559,0,0,0,0,0,0,0,0,0,-1,1259,1583,0,0
42,-559,0,0,0,0,0,0,0,0,0,-1,1266,1583,0,0
49,-559,0,0,0,0,0,0,0,0,0,-1,1273,1583,0,0
56,-559,0,0,0,0,0,0,0,0,0,-1,1280,1583,0,0
63,-559,0,0,0,0,0,0,0,0,0,-1,1287,1583,0,0
70,-559,0,0,0,0,0,0,0,0,0,-1,1294,1583,0,0
77,-559,0,0,0,0,0,0,0,0,0,-1,1301,1583,0,0
84,-559,0,0,0,0,0,0,0,0,0,-1,1308,1583,0,0
91,-559,0,0,0,0,0,0,0,0,0,-1,1315,1583,0,0
98,-559,0,0,0,0,0,0,0,0,0,-1,1322,1583,0,0
105,-559,0,0,0,0,0,0,0,0,0,-1,1329,1583,0,0
112,-559,0,0,0,0,0,0,0,0,0,-1,1336,1583,0,0
119,-559,0,0,0,0,0,0,0,0,0,-1,1343,1583,0,0
126,-559,0,0,0,0,0,0,0,0,0,-1,1350,1583,0,0
133,-559,0,0,0,0,0,0,0,0,0,-1,1357,1583,0,0
140,-559,0,0,0,0,0,0,0,0,0,-1,1364,1583,0,0
147,-559,0,0,0,0,0,0,0,0,0,-1,1371,1583,0,0
154,-559,0,0,0,0,0,0,0,0,0,-1,1378,1583,0,0
161,-559,0,0,0,0,0,0,0,0,0,-1,1385,1583,0,0
168,-559,0,0,0,0,0,0,0,0,0,-1,1392,1583,0,0
175,-559,0,0,0,0,0,0,0,0,0,-1,1399,1583,0,0
182,-559,0,0,0,0,0,0,0,0,0,-1,1406,1583,0,0
189,-559,0,0,0,0,0,0,0,0,0,-1,1413,1583,0,0
196,-559,0,0,0,0,0,0,0,0,0,-1,1420,1583,0,0
203,-559,0,0,0,0,0,0,0,0,0,-1,1427,1583,0,0
210,-559,0,0,0,0,0,0,0,0,0,-1,1434,1583,0,0
217,-559,0,0,0,0,0,0,0,0,0,-1,1441,1583,0,0
224,-559,0,0,0,0,0,0,0,0,0,-1,1448,1583,0,0
231,-559,0,0,0,0,0,0,0,0,0,-1,1455,1583,0,0
238,-559,0,0,0,0,0,0,0,0,0,-1,1462,1583,0,0
245,-559,0,0,0,0,0,0,0,0,0,-1,1469,1583,0,0
252,-559,0,0,0,0,0,0,0,0,0,-1,1476,1583,0,0
259,-559,0,0,0,0,0,0,0,0,0,-1,1483,1583,0,0
266,-559,0,0,0,0,0,0,0,0,0,-1,1490,1583,0,0
273,-559,0,0,0,0,0,0,0,0,0,-1,1497,1583,0,0
280,-559,0,0,0,0,0,0,0,0,0,-1,1504,1583,0,0
287,-559,0,0,0,0,0,0,0,0,0,-1,1511,1583,0,0
294,-559,0,0,0,0,0,0,0,0,0,-1,1518,1583,0,0
301,-559,0,0,0,0,0,0,0,0,0,-1,1525,1583,0,0
308,-559,0,0,0,0,0,0,0,0,0,-1,1532,1583,0,0
315,-559,0,0,0,0,0,0,0,0,0,-1,1539,1583,0,0
322,-559,0,0,0,0,0,0,0,0,0,-1,1546,1583,0,0
329,-559,0,0,0,0,0,0,0,0,0,-1,1553,1583,0,0
336,-559,5.97668,3.09827,0,0,0,0,0,0,0,-1,1560,1583,5.97667,-3.09824
343,-559,5.44824,2.88696,0,0,0,0,0,0,0,-1,1567,1583,5.44819,-2.88693
350,-559,4.69775,3.27051,0,0,0,0,0,0,0,-1,1574,1583,4.69771,-3.27048
357,-559,3.88025,3.60999,0,0,0,0,0,0,0,-1,1581,1583,3.88027,-3.60998
364,-559,5.00928,5.32605,0,0,0,0,0,0,0,-1,1588,1583,5.00928,-5.32607
371,-559,1.84436,2.52441,0,0,0,0,0,0,0,-1,1595,1583,1.84441,-2.52447
378,-559,6.34753,1.53137,0,0,0,0,0,0,0,-1,1602,1583,6.34752,-1.53139
385,-559,6.95911,1.48181,0,0,0,0,0,0,0,-1,1609,1583,6.95916,-1.48175
392,-559,11.6949,4.77734,0,0,0,0,0,0,0,-1,1616,1583,11.6949,-4.77731
399,-559,11.1104,5.56909,0,0,0,0,0,0,0,-1,1623,1583,11.1103,-5.56905
406,-559,10.3385,6.48657,0,0,0,0,0,0,0,-1,1630,1583,10.3385,-6.48661
413,-559,9.76147,6.97571,0,0,0,0,0,0,0,-1,1637,1583,9.76143,-6.97574
420,-559,7.77124,10.5851,0,0,0,0,0,0,0,-1,1644,1583,7.77128,-10.585
427,-559,10.1022,12.5565,0,0,0,0,0,0,0,-1,1651,1583,10.1021,-12.5565
434,-559,9.62769,14.6309,0,0,0,0,0,0,0,-1,1658,1583,9.62771,-14.6309
441,-559,11.4775,19.4996,0,0,0,0,0,0,0,-1,1665,1583,11.4776,-19.4996
448,-559,12.4896,20.0718,0,0,0,0,0,0,0,-1,1672,1583,12.4896,-20.0718
455,-559,12.3995,20.314,0,0,0,0,0,0,0,-1,1679,1583,12.3995,-20.3139
462,-559,12.2462,20.2137,0,0,0,0,0,0,0,-1,1686,1583,12.2462,-20.2138
469,-559,12.29,19.6583,-0.00117882,0.00645413,4.29789e-06,0.00645413,-0.00117882,1.57023,0.00474476,0.0310307,1693,1583,12.2901,-19.6584
476,-559,12.3591,19.236,3.17616e-05,0.00567164,-0.000699868,0.00575719,-5.3789e-05,-1.44916,0.00385618,0.0139728,1700,1583,12.3591,-19.236
483,-559,12.3943,18.8499,0.00108928,0.00468152,-0.00118673,0.00503817,0.000732635,-1.27886,0.00314316,0.0123008,1707,1583,12.3943,-18.8498
490,-559,12.3785,18.5061,0.00152606,0.00388657,-0.00125079,0.00442605,0.000986589,-1.16359,0.002683,0.0156967,1714,1583,12.3786,-18.5061
497,-559,12.3492,18.1772,0.00169079,0.00304182,-0.00130664,0.00383723,0.000895378,-1.02397,0.00231807,0.0189613,1721,1583,12.3492,-18.1773
504,-559,12.3605,17.8584,0.00171987,0.00248023,-0.00126778,0.00342361,0.000776491,-0.931072,0.00207264,0.0232126,1728,1583,12.3605,-17.8583
511,-559,12.369,17.5173,0.00143247,0.0014328,-0.000852871,0.00228551,0.000579764,-0.785498,0.00137188,0.0200343,1735,1583,12.369,-17.5173
518,-559,12.3726,17.1794,0.00103149,0.000461382,-0.000370167,0.00121364,0.000279231,-0.457289,0.000733938,0.012762,1742,1583,12.3726,-17.1795
525,-559,12.3658,16.832,0.000555375,-0.000462635,0.000171566,0.000583512,-0.000490771,0.162551,0.000621007,0.0116519,1749,1583,12.3659,-16.8321
532,-559,12.3665,16.4778,6.62163e-05,-0.00142332,0.000815544,0.00042589,-0.00178299,0.415364,0.00135315,0.0142054,1756,1583,12.3665,-16.4778
539,-559,12.3496,16.1464,-0.000396119,-0.00257456,0.00156991,0.000425419,-0.0033961,0.482117,0.00241838,0.0183387,1763,1583,12.3496,-16.1464
546,-559,12.3102,15.8138,-0.00101578,-0.00395246,0.00256841,0.000474384,-0.00544262,0.525726,0.00379643,0.0160464,1770,1583,12.3102,-15.8138
553,-559,12.4104,15.3964,-0.00160489,-0.00551004,0.00372843,0.000651305,-0.00776623,0.544185,0.00540768,0.0225168,1777,1583,12.4104,-15.3963
560,-559,12.4025,15.2305,-0.002087,-0.00729463,0.00501589,0.000960642,-0.0103423,0.545988,0.00723635,0.0452895,1784,1583,12.4024,-15.2305
567,-559,12.3147,14.8529,0,0,0,0,0,0,0,-1,1791,1583,12.3148,-14.8529
574,-559,10.5109,10.7317,0,0,0,0,0,0,0,-1,1798,1583,10.5108,-10.7317
581,-559,5.97095,5.96179,0,0,0,0,0,0,0,-1,1805,1583,5.97093,-5.96181
588,-559,5.79102,5.89954,0,0,0,0,0,0,0,-1,1812,1583,5.79098,-5.89949
595,-559,5.79089,6.24231,0,0,0,0,0,0,0,-1,1819,1583,5.7909,-6.24227
602,-559,12.478,2.35669,0,0,0,0,0,0,0,-1,1826,1583,12.4781,-2.35675
609,-559,14.0479,1.22681,0,0,0,0,0,0,0,-1,1833,1583,14.0479,-1.22681
616,-559,0,0,0,0,0,0,0,0,0,-1,1840,1583,0,0
623,-559,0,0,0,0,0,0,0,0,0,-1,1847,1583,0,0
630,-559,0,0,0,0,0,0,0,0,0,-1,1854,1583,0,0
637,-559,0,0,0,0,0,0,0,0,0,-1,1861,1583,0,0
644,-559,0,0,0,0,0,0,0,0,0,-1,1868,1583,0,0
651,-559,0,0,0,0,0,0,0,0,0,-1,1875,1583,0,0
658,-559,0,0,0,0,0,0,0,0,0,-1,1882,1583,0,0
665,-559,0,0,0,0,0,0,0,0,0,-1,1889,1583,0,0
672,-559,0,0,0,0,0,0,0,0,0,-1,1896,1583,0,0
679,-559,0,0,0,0,0,0,0,0,0,-1,1903,1583,0,0
686,-559,0,0,0,0,0,0,0,0,0,-1,1910,1583,0,0
693,-559,0,0,0,0,0,0,0,0,0,-1,1917,1583,0,0
700,-559,0,0,0,0,0,0,0,0,0,-1,1924,1583,0,0
707,-559,0,0,0,0,0,0,0,0,0,-1,1931,1583,0,0
714,-559,0,0,0,0,0,0,0,0,0,-1,1938,1583,0,0
721,-559,0,0,0,0,0,0,0,0,0,-1,1945,1583,0,0
728,-559,0,0,0,0,0,0,0,0,0,-1,1952,1583,0,0
735,-559,0,0,0,0,0,0,0,0,0,-1,1959,1583,0,0
742,-559,0,0,0,0,0,0,0,0,0,-1,1966,1583,0,0
749,-559,0,0,0,0,0,0,0,0,0,-1,1973,1583,0,0
756,-559,0,0,0,0,0,0,0,0,0,-1,1980,1583,0,0
763,-559,0,0,0,0,0,0,0,0,0,-1,1987,1583,0,0
770,-559,0,0,0,0,0,0,0,0,0,-1,1994,1583,0,0
777,-559,0,0,0,0,0,0,0,0,0,-1,2001,1583,0,0
784,-559,0,0,0,0,0,0,0,0,0,-1,2008,1583,0,0
791,-559,0,0,0,0,0,0,0,0,0,-1,2015,1583,0,0
798,-559,0,0,0,0,0,0,0,0,0,-1,2022,1583,0,0
805,-559,0,0,0,0,0,0,0,0,0,-1,2029,1583,0,0
812,-559,0,0,0,0,0,0,0,0,0,-1,2036,1583,0,0
-700,-566,0,0,0,0,0,0,0,0,0,-1,524,1590,0,0
-693,-566,0,0,0,0,0,0,0,0,0,-1,531,1590,0,0
-686,-566,0,0,0,0,0,0,0,0,0,-1,538,1590,0,0
-679,-566,0,0,0,0,0,0,0,0,0,-1,545,1590,0,0
-672,-566,0,0,0,0,0,0,0,0,0,-1,552,1590,0,0
-665,-566,0,0,0,0,0,0,0,0,0,-1,559,1590,0,0
-658,-566,0,0,0,0,0,0,0,0,0,-1,566,1590,0,0
-651,-566,0,0,0,0,0,0,0,0,0,-1,573,1590,0,0
-644,-566,0,0,0,0,0,0,0,0,0,-1,580,1590,0,0
-637,-566,0,0,0,0,0,0,0,0,0,-1,587,1590,0,0
-630,-566,0,0,0,0,0,0,0,0,0,-1,594,1590,0,0
-623,-566,0,0,0,0,0,0,0,0,0,-1,601,1590,0,0
-616,-566,0,0,0,0,0,0,0,0,0,-1,608,1590,0,0
-609,-566,0,0,0,0,0,0,0,0,0,-1,615,1590,0,0
-602,-566,0,0,0,0,0,0,0,0,0,-1,622,1590,0,0
-595,-566,0,0,0,0,0,0,0,0,0,-1,629,1590,0,0
-588,-566,0,0,0,0,0,0,0,0,0,-1,636,1590,0,0
-581,-566,0,0,0,0,0,0,0,0,0,-1,643,1590,0,0
-574,-566,0,0,0,0,0,0,0,0,0,-1,650,1590,0,0
-567,-566,0,0,0,0,0,0,0,0,0,-1,657,1590,0,0
-560,-566,0,0,0,0,0,0,0,0,0,-1,664,1590,0,0
-553,-566,0,0,0,0,0,0,0,0,0,-1,671,1590,0,0
-546,-566,0,0,0,0,0,0,0,0,0,-1,678,1590,0,0
-539,-566,0,0,0,0,0,0,0,0,0,-1,685,1590,0,0
-532,-566,0,0,0,0,0,0,0,0,0,-1,692,1590,0,0
-525,-566,0,0,0,0,0,0,0,0,0,-1,699,1590,0,0
-518,-566,0,0,0,0,0,0,0,0,0,-1,706,1590,0,0
-511,-566,0,0,0,0,0,0,0,0,0,-1,713,1590,0,0
-504,-566,0,0,0,0,0,0,0,0,0,-1,720,1590,0,0
-497,-566,0,0,0,0,0,0,0,0,0,-1,727,1590,0,0
-490,-566,0,0,0,0,0,0,0,0,0,-1,734,1590,0,0
-483,-566,-7.17084,2.78613,0,0,0,0,0,0,0,-1,741,1590,-7.17083,-2.78618
-476,-566,-7.13971,2.87183,0,0,0,0,0,0,0,-1,748,1590,-7.13971,-2.87184
-469,-566,-6.43829,3.2998,0,0,0,0,0,0,0,-1,755,1590,-6.43829,-3.2998
-462,-566,-0.459106,3.89343,0,0,0,0,0,0,0,-1,762,1590,-0.459095,-3.89341
-455,-566,0.280212,4.74023,0,0,0,0,0,0,0,-1,769,1590,0.280207,-4.74023
-448,-566,0.436951,5.51306,0,0,0,0,0,0,0,-1,776,1590,0.436971,-5.51301
-441,-566,-0.141785,12.2795,0,0,0,0,0,0,0,-1,783,1590,-0.141772,-12.2796
-434,-566,0.506042,13.5905,0,0,0,0,0,0,0,-1,790,1590,0.506041,-13.5905
-427,-566,0.641968,13.6671,0,0,0,0,0,0,0,-1,797,1590,0.641939,-13.6672
-420,-566,0.326172,14.3945,0,0,0,0,0,0,0,-1,804,1590,0.326166,-14.3945
-413,-566,0.588379,14.4818,0.000805398,0.00544009,0.00267349,0.00666077,-0.000415282,1.14248,0.00458521,0.0233058,811,1590,0.588392,-14.4818
-406,-566,0.59021,14.8724,-0.000989032,0.00259369,0.00132351,0.00302958,-0.00142492,1.25264,0.00262684,0.0105967,818,1590,0.590233,-14.8725
-399,-566,0.585876,15.2487,-0.00155453,0.00140763,0.000836171,0.00162737,-0.00177426,1.31382,0.00196454,0.0096589,825,1590,0.585857,-15.2487
-392,-566,0.572693,15.5988,-0.00161199,0.000666175,0.000390822,0.000731356,-0.00167717,1.40554,0.00142586,0.0130431,832,1590,0.572668,-15.5988
-385,-566,0.578857,15.986,-0.00119512,0.000892232,0.000344916,0.000947749,-0.00125064,1.41121,0.00127325,0.0161011,839,1590,0.578828,-15.986
-378,-566,0.553284,16.3687,-0.000660979,0.00119461,0.000316244,0.00124703,-0.000713395,1.40654,0.00114574,0.014716,846,1590,0.553276,-16.3687
-371,-566,0.535461,16.7408,-0.000229817,0.00143205,0.000134519,0.00144286,-0.000240636,1.49055,0.00105134,0.0185698,853,1590,0.535468,-16.7408
-364,-566,0.537842,17.0927,0.000101537,0.00175595,-2.33652e-05,0.00175628,0.000101207,-1.55668,0.00113862,0.0198534,860,1590,0.537829,-17.0927
-357,-566,0.513855,17.4473,0.000561939,0.00215732,-0.000205177,0.00218329,0.000535974,-1.44492,0.00131383,0.0173764,867,1590,0.513872,-17.4473
-350,-566,0.529663,17.8068,0.00093365,0.00251568,-0.000405027,0.00261334,0.000835985,-1.33418,0.0015411,0.0201598,874,1590,0.529681,-17.8067
-343,-566,0.558167,18.156,0.00108381,0.00299484,-0.000390763,0.00307166,0.001007,-1.3767,0.00180813,0.0239981,881,1590,0.558141,-18.156
-336,-566,0.456116,18.4523,0.00120312,0.00376314,-0.000177501,0.00377539,0.00119088,-1.5019,0.00222867,0.0245039,888,1590,0.456123,-18.4523
-329,-566,0.533264,18.7784,0.00109779,0.00539616,0.000219171,0.0054073,0.00108665,1.51998,0.00330279,0.0184747,895,1590,0.533273,-18.7785
-322,-566,0.609985,19.2213,0.000773166,0.00710163,0.000734764,0.00718582,0.000688977,1.45671,0.0045782,0.0243267,902,1590,0.609973,-19.2214
-315,-566,0.487,19.5125,0.000412799,0.00917792,0.00150392,0.00942878,0.000161936,1.40551,0.00623258,0.0409271,909,1590,0.486984,-19.5124
-308,-566,0.711365,19.9456,-0.000196916,0.0120044,0.00257745,0.0125265,-0.000719044,1.37093,0.00860073,0.0430891,916,1590,0.711385,-19.9455
-301,-566,0.944885,20.7605,0,0,0,0,0,0,0,-1,923,1590,0.944873,-20.7605
-294,-566,0.946045,20.9781,0,0,0,0,0,0,0,-1,930,1590,0.946054,-20.9781
-287,-566,1.84833,21.4893,0,0,0,0,0,0,0,-1,937,1590,1.84833,-21.4893
-280,-566,1.59406,17.8762,0,0,0,0,0,0,0,-1,944,1590,1.59405,-17.8762
-273,-566,0.49762,11.2427,0,0,0,0,0,0,0,-1,951,1590,0.497591,-11.2426
-266,-566,0.392151,6.90295,0,0,0,0,0,0,0,-1,958,1590,0.392151,-6.90294
-259,-566,0.343628,6.47437,0,0,0,0,0,0,0,-1,965,1590,0.34363,-6.47438
-252,-566,-7.68311,1.01343,0,0,0,0,0,0,0,-1,972,1590,-7.68308,-1.01348
-245,-566,-11.1835,1.97522,0,0,0,0,0,0,0,-1,979,1590,-11.1835,-1.97527
-238,-566,-10.4883,2.40491,0,0,0,0,0,0,0,-1,986,1590,-10.4883,-2.40487
-231,-566,-7.41827,4.22803,0,0,0,0,0,0,0,-1,993,1590,-7.41827,-4.22803
-224,-566,-4.67188,6.30859,0,0,0,0,0,0,0,-1,1000,1590,-4.67185,-6.30853
-217,-566,-2.82867,7.52527,0,0,0,0,0,0,0,-1,1007,1590,-2.82869,-7.52531
-210,-566,-1.03436,8.67737,0,0,0,0,0,0,0,-1,1014,1590,-1.03439,-8.67733
-203,-566,0,0,0,0,0,0,0,0,0,-1,1021,1590,0,0
-196,-566,0,0,0,0,0,0,0,0,0,-1,1028,1590,0,0
-189,-566,0,0,0,0,0,0,0,0,0,-1,1035,1590,0,0
-182,-566,0,0,0,0,0,0,0,0,0,-1,1042,1590,0,0
-175,-566,0,0,0,0,0,0,0,0,0,-1,1049,1590,0,0
-168,-566,0,0,0,0,0,0,0,0,0,-1,1056,1590,0,0
-161,-566,0,0,0,0,0,0,0,0,0,-1,1063,1590,0,0
-154,-566,0,0,0,0,0,0,0,0,0,-1,1070,1590,0,0
-147,-566,0,0,0,0,0,0,0,0,0,-1,1077,1590,0,0
-140,-566,0,0,0,0,0,0,0,0,0,-1,1084,1590,0,0
-133,-566,0,0,0,0,0,0,0,0,0,-1,1091,1590,0,0
-126,-566,0,0,0,0,0,0,0,0,0,-1,1098,1590,0,0
-119,-566,0,0,0,0,0,0,0,0,0,-1,1105,1590,0,0
-112,-566,0,0,0,0,0,0,0,0,0,-1,1112,1590,0,0
-105,-566,0,0,0,0,0,0,0,0,0,-1,1119,1590,0,0
-98,-566,0,0,0,0,0,0,0,0,0,-1,1126,1590,0,0
-91,-566,0,0,0,0,0,0,0,0,0,-1,1133,1590,0,0
-84,-566,0,0,0,0,0,0,0,0,0,-1,1140,1590,0,0
-77,-566,0,0,0,0,0,0,0,0,0,-1,1147,1590,0,0
-70,-566,0,0,0,0,0,0,0,0,0,-1,1154,1590,0,0
-63,-566,0,0,0,0,0,0,0,0,0,-1,1161,1590,0,0
-56,-566,0,0,0,0,0,0,0,0,0,-1,1168,1590,0,0
-49,-566,0,0,0,0,0,0,0,0,0,-1,1175,1590,0,0
-42,-566,0,0,0,0,0,0,0,0,0,-1,1182,1590,0,0
-35,-566,0,0,0,0,0,0,0,0,0,-1,1189,1590,0,0
-28,-566,0,0,0,0,0,0,0,0,0,-1,1196,1590,0,0
-21,-566,0,0,0,0,0,0,0,0,0,-1,1203,1590,0,0
-14,-566,0,0,0,0,0,0,0,0,0,-1,1210,1590,0,0
-7,-566,0,0,0,0,0,0,0,0,0,-1,1217,1590,0,0
0,-566,0,0,0,0,0,0,0,0,0,-1,1224,1590,0,0
7,-566,0,0,0,0,0,0,0,0,0,-1,1231,1590,0,0
14,-566,0,0,0,0,0,0,0,0,0,-1,1238,1590,0,0
21,-566,0,0,0,0,0,0,0,0,0,-1,1245,1590,0,0
28,-566,0,0,0,0,0,0,0,0,0,-1,1252,1590,0,0
35,-566,0,0,0,0,0,0,0,0,0,-1,1259,1590,0,0
42,-566,0,0,0,0,0,0,0,0,0,-1,1266,1590,0,0
49,-566,0,0,0,0,0,0,0,0,0,-1,1273,1590,0,0
56,-566,0,0,0,0,0,0,0,0,0,-1,1280,1590,0,0
63,-566,0,0,0,0,0,0,0,0,0,-1,1287,1590,0,0
70,-566,0,0,0,0,0,0,0,0,0,-1,1294,1590,0,0
77,-566,0,0,0,0,0,0,0,0,0,-1,1301,1590,0,0
84,-566,0,0,0,0,0,0,0,0,0,-1,1308,1590,0,0
91,-566,0,0,0,0,0,0,0,0,0,-1,1315,1590,0,0
98,-566,0,0,0,0,0,0,0,0,0,-1,1322,1590,0,0
105,-566,0,0,0,0,0,0,0,0,0,-1,1329,1590,0,0
112,-566,0,0,0,0,0,0,0,0,0,-1,1336,1590,0,0
119,-566,0,0,0,0,0,0,0,0,0,-1,1343,1590,0,0
126,-566,0,0,0,0,0,0,0,0,0,-1,1350,1590,0,0
133,-566,0,0,0,0,0,0,0,0,0,-1,1357,1590,0,0
140,-566,0,0,0,0,0,0,0,0,0,-1,1364,1590,0,0
147,-566,0,0,0,0,0,0,0,0,0,-1,1371,1590,0,0
154,-566,0,0,0,0,0,0,0,0,0,-1,1378,1590,0,0
161,-566,0,0,0,0,0,0,0,0,0,-1,1385,1590,0,0
168,-566,0,0,0,0,0,0,0,0,0,-1,1392,1590,0,0
175,-566,0,0,0,0,0,0,0,0,0,-1,1399,1590,0,0
182,-566,0,0,0,0,0,0,0,0,0,-1,1406,1590,0,0
189,-566,0,0,0,0,0,0,0,0,0,-1,1413,1590,0,0
196,-566,0,0,0,0,0,0,0,0,0,-1,1420,1590,0,0
203,-566,0,0,0,0,0,0,0,0,0,-1,1427,1590,0,0
210,-566,0,0,0,0,0,0,0,0,0,-1,1434,1590,0,0
217,-566,0,0,0,0,0,0,0,0,0,-1,1441,1590,0,0
224,-566,0,0,0,0,0,0,0,0,0,-1,1448,1590,0,0
231,-566,0,0,0,0,0,0,0,0,0,-1,1455,1590,0,0
238,-566,0,0,0,0,0,0,0,0,0,-1,1462,1590,0,0
245,-566,0,0,0,0,0,0,0,0,0,-1,1469,1590,0,0
252,-566,0,0,0,0,0,0,0,0,0,-1,1476,1590,0,0
259,-566,0,0,0,0,0,0,0,0,0,-1,1483,1590,0,0
266,-566,0,0,0,0,0,0,0,0,0,-1,1490,1590,0,0
273,-566,0,0,0,0,0,0,0,0,0,-1,1497,1590,0,0
280,-566,0,0,0,0,0,0,0,0,0,-1,1504,1590,0,0
287,-566,0,0,0,0,0,0,0,0,0,-1,1511,1590,0,0
294,-566,0,0,0,0,0,0,0,0,0,-1,1518,1590,0,0
301,-566,0,0,0,0,0,0,0,0,0,-1,1525,1590,0,0
308,-566,0,0,0,0,0,0,0,0,0,-1,1532,1590,0,0
315,-566,0,0,0,0,0,0,0,0,0,-1,1539,1590,0,0
322,-566,6.07983,4.44873,0,0,0,0,0,0,0,-1,1546,1590,6.07983,-4.44873
329,-566,5.77026,3.47534,0,0,0,0,0,0,0,-1,1553,1590,5.77026,-3.47535
336,-566,5.41138,2.62915,0,0,0,0,0,0,0,-1,1560,1590,5.41138,-2.62909
343,-566,4.81873,1.79089,0,0,0,0,0,0,0,-1,1567,1590,4.81878,-1.79095
350,-566,4.41663,2.44214,0,0,0,0,0,0,0,-1,1574,1590,4.41666,-2.44214
357,-566,6.34058,5.18579,0,0,0,0,0,0,0,-1,1581,1590,6.34059,-5.1858
364,-566,6.06262,4.20251,0,0,0,0,0,0,0,-1,1588,1590,6.06259,-4.20246
371,-566,5.78455,3.21912,0,0,0,0,0,0,0,-1,1595,1590,5.7846,-3.21912
378,-566,5.7439,0.695557,0,0,0,0,0,0,0,-1,1602,1590,5.74392,-0.695531
385,-566,5.67615,-0.573975,0,0,0,0,0,0,0,-1,1609,1590,5.67612,0.573956
392,-566,5.78638,1.82434,0,0,0,0,0,0,0,-1,1616,1590,5.78637,-1.82439
399,-566,5.36621,1.7373,0,0,0,0,0,0,0,-1,1623,1590,5.36627,-1.7373
406,-566,4.30359,5.26868,0,0,0,0,0,0,0,-1,1630,1590,4.30364,-5.26867
413,-566,4.27124,5.79492,0,0,0,0,0,0,0,-1,1637,1590,4.27123,-5.7949
420,-566,7.19812,8.25146,0,0,0,0,0,0,0,-1,1644,1590,7.19817,-8.25149
427,-566,10.455,10.6842,0,0,0,0,0,0,0,-1,1651,1590,10.455,-10.6842
434,-566,9.18567,14.3304,0,0,0,0,0,0,0,-1,1658,1590,9.18571,-14.3305
441,-566,12.2626,20.3348,0,0,0,0,0,0,0,-1,1665,1590,12.2626,-20.3348
448,-566,12.1731,20.2814,-0.00644015,0.00447926,0.00476881,0.00626869,-0.00822958,1.21182,0.00839606,0.0467484,1672,1590,12.1731,-20.2813
455,-566,11.9552,20.327,-0.00426705,0.00490304,0.00287057,0.0057275,-0.00509151,1.29111,0.00624996,0.0431937,1679,1590,11.9552,-20.3271
462,-566,11.9365,20.0095,-0.00252354,0.0052848,0.00130571,0.00549736,-0.0027361,1.40942,0.00484187,0.0256105,1686,1590,11.9365,-20.0095
469,-566,12.0016,19.5115,-0.00111241,0.00501259,0.000255402,0.00502322,-0.00112304,1.52919,0.0037792,0.0138077,1693,1590,12.0016,-19.5115
476,-566,12.0607,19.158,-0.000103852,0.00434955,-0.000387099,0.00438294,-0.000137249,-1.48473,0.00296877,0.00930106,1700,1590,12.0606,-19.158
483,-566,12.0472,18.8457,0.000831418,0.00361408,-0.000891194,0.00387503,0.000570469,-1.28595,0.00241575,0.00950749,1707,1590,12.0473,-18.8457
490,-566,12.0249,18.5154,0.00124683,0.00295123,-0.000996714,0.0034104,0.000787662,-1.1391,0.00206182,0.0110775,1714,1590,12.0249,-18.5154
497,-566,12.0331,18.1895,0.00142064,0.00225436,-0.00110305,0.00301669,0.000658307,-0.966061,0.00183156,0.0143924,1721,1590,12.0331,-18.1895
504,-566,12.026,17.8665,0.00140912,0.00174994,-0.00103618,0.00262963,0.000529432,-0.866901,0.00160597,0.0185484,1728,1590,12.0261,-17.8665
511,-566,12.0209,17.5378,0.00112293,0.000779428,-0.000626542,0.00160084,0.000301522,-0.651622,0.000982266,0.0185736,1735,1590,12.0209,-17.5379
518,-566,12.036,17.1982,0.000763874,-7.54041e-05,-0.000185796,0.000803166,-0.000114696,-0.208405,0.000577485,0.0116056,1742,1590,12.036,-17.1983
525,-566,12.0217,16.8376,0.000315515,-0.000928673,0.00035014,0.000407283,-0.00102044,0.256324,0.000849258,0.0108419,1749,1590,12.0217,-16.8376
532,-566,12.0118,16.4905,-0.000186557,-0.00188688,0.00104512,0.000310522,-0.00238396,0.443952,0.00170228,0.0138329,1756,1590,12.0119,-16.4905
539,-566,12.0099,16.1377,-0.000783255,-0.00311244,0.00195026,0.000323666,-0.00421936,0.516238,0.00292677,0.0193368,1763,1590,12.0099,-16.1377
546,-566,12.0615,15.7318,-0.00163952,-0.00466123,0.00320349,0.000391526,-0.00669228,0.565052,0.00459759,0.0228949,1770,1590,12.0615,-15.7318
553,-566,12.0979,15.5503,-0.0024977,-0.00652541,0.00474689,0.000644862,-0.00966797,0.584782,0.00667067,0.0356759,1777,1590,12.0979,-15.5503
560,-566,11.8278,15.563,-0.00338688,-0.00875344,0.00657907,0.00103507,-0.0131754,0.59177,0.00914815,0.043682,1784,1590,11.8278,-15.563
567,-566,11.7091,15.4651,0,0,0,0,0,0,0,-1,1791,1590,11.7091,-15.4651
574,-566,7.99548,3.14514,0,0,0,0,0,0,0,-1,1798,1590,7.99543,-3.14511
581,-566,2.54102,5.1311,0,0,0,0,0,0,0,-1,1805,1590,2.54099,-5.13111
588,-566,-1.91321,8.39197,0,0,0,0,0,0,0,-1,1812,1590,-1.91316,-8.39199
595,-566,9.0271,4.66467,0,0,0,0,0,0,0,-1,1819,1590,9.02705,-4.66468
602,-566,9.953,3.54895,0,0,0,0,0,0,0,-1,1826,1590,9.953,-3.54898
609,-566,0,0,0,0,0,0,0,0,0,-1,1833,1590,0,0
616,-566,0,0,0,0,0,0,0,0,0,-1,1840,1590,0,0
623,-566,0,0,0,0,0,0,0,0,0,-1,1847,1590,0,0
630,-566,0,0,0,0,0,0,0,0,0,-1,1854,1590,0,0
637,-566,0,0,0,0,0,0,0,0,0,-1,1861,1590,0,0
644,-566,0,0,0,0,0,0,0,0,0,-1,1868,1590,0,0
651,-566,0,0,0,0,0,0,0,0,0,-1,1875,1590,0,0
658,-566,0,0,0,0,0,0,0,0,0,-1,1882,1590,0,0
665,-566,0,0,0,0,0,0,0,0,0,-1,1889,1590,0,0
672,-566,0,0,0,0,0,0,0,0,0,-1,1896,1590,0,0
679,-566,0,0,0,0,0,0,0,0,0,-1,1903,1590,0,0
686,-566,0,0,0,0,0,0,0,0,0,-1,1910,1590,0,0
693,-566,0,0,0,0,0,0,0,0,0,-1,1917,1590,0,0
700,-566,0,0,0,0,0,0,0,0,0,-1,1924,1590,0,0
707,-566,0,0,0,0,0,0,0,0,0,-1,1931,1590,0,0
714,-566,0,0,0,0,0,0,0,0,0,-1,1938,1590,0,0
721,-566,0,0,0,0,0,0,0,0,0,-1,1945,1590,0,0
728,-566,0,0,0,0,0,0,0,0,0,-1,1952,1590,0,0
735,-566,0,0,0,0,0,0,0,0,0,-1,1959,1590,0,0
742,-566,0,0,0,0,0,0,0,0,0,-1,1966,1590,0,0
749,-566,0,0,0,0,0,0,0,0,0,-1,1973,1590,0,0
756,-566,0,0,0,0,0,0,0,0,0,-1,1980,1590,0,0
763,-566,0,0,0,0,0,0,0,0,0,-1,1987,1590,0,0
770,-566,0,0,0,0,0,0,0,0,0,-1,1994,1590,0,0
777,-566,0,0,0,0,0,0,0,0,0,-1,2001,1590,0,0
784,-566,0,0,0,0,0,0,0,0,0,-1,2008,1590,0,0
791,-566,0,0,0,0,0,0,0,0,0,-1,2015,1590,0,0
798,-566,0,0,0,0,0,0,0,0,0,-1,2022,1590,0,0
805,-566,0,0,0,0,0,0,0,0,0,-1,2029,1590,0,0
812,-566,0,0,0,0,0,0,0,0,0,-1,2036,1590,0,0
-700,-573,0,0,0,0,0,0,0,0,0,-1,524,1597,0,0
-693,-573,0,0,0,0,0,0,0,0,0,-1,531,1597,0,0
-686,-573,0,0,0,0,0,0,0,0,0,-1,538,1597,0,0
-679,-573,0,0,0,0,0,0,0,0,0,-1,545,1597,0,0
-672,-573,0,0,0,0,0,0,0,0,0,-1,552,1597,0,0
-665,-573,0,0,0,0,0,0,0,0,0,-1,559,1597,0,0
-658,-573,0,0,0,0,0,0,0,0,0,-1,566,1597,0,0
-651,-573,0,0,0,0,0,0,0,0,0,-1,573,1597,0,0
-644,-573,0,0,0,0,0,0,0,0,0,-1,580,1597,0,0
-637,-573,0,0,0,0,0,0,0,0,0,-1,587,1597,0,0
-630,-573,0,0,0,0,0,0,0,0,0,-1,594,1597,0,0
-623,-573,0,0,0,0,0,0,0,0,0,-1,601,1597,0,0
-616,-573,0,0,0,0,0,0,0,0,0,-1,608,1597,0,0
-609,-573,0,0,0,0,0,0,0,0,0,-1,615,1597,0,0
-602,-573,0,0,0,0,0,0,0,0,0,-1,622,1597,0,0
-595,-573,0,0,0,0,0,0,0,0,0,-1,629,1597,0,0
-588,-573,0,0,0,0,0,0,0,0,0,-1,636,1597,0,0
-581,-573,0,0,0,0,0,0,0,0,0,-1,643,1597,0,0
-574,-573,0,0,0,0,0,0,0,0,0,-1,650,1597,0,0
-567,-573,0,0,0,0,0,0,0,0,0,-1,657,1597,0,0
-560,-573,0,0,0,0,0,0,0,0,0,-1,664,1597,0,0
-553,-573,0,0,0,0,0,0,0,0,0,-1,671,1597,0,0
-546,-573,0,0,0,0,0,0,0,0,0,-1,678,1597,0,0
-539,-573,0,0,0,0,0,0,0,0,0,-1,685,1597,0,0
-532,-573,0,0,0,0,0,0,0,0,0,-1,692,1597,0,0
-525,-573,0,0,0,0,0,0,0,0,0,-1,699,1597,0,0
-518,-573,0,0,0,0,0,0,0,0,0,-1,706,1597,0,0
-511,-573,0,0,0,0,0,0,0,0,0,-1,713,1597,0,0
-504,-573,0,0,0,0,0,0,0,0,0,-1,720,1597,0,0
-497,-573,0,0,0,0,0,0,0,0,0,-1,727,1597,0,0
-490,-573,0,0,0,0,0,0,0,0,0,-1,734,1597,0,0
-483,-573,0,0,0,0,0,0,0,0,0,-1,741,1597,0,0
-476,-573,-9.3327,0.972778,0,0,0,0,0,0,0,-1,748,1597,-9.33268,-0.972776
-469,-573,-1.41681,1.13379,0,0,0,0,0,0,0,-1,755,1597,-1.41681,-1.13382
-462,-573,-0.748535,2.02588,0,0,0,0,0,0,0,-1,762,1597,-0.748533,-2.02584
-455,-573,-0.112976,2.70703,0,0,0,0,0,0,0,-1,769,1597,-0.112988,-2.70697
-448,-573,-1.26172,3.33252,0,0,0,0,0,0,0,-1,776,1597,-1.26173,-3.33248
-441,-573,0.108582,5.06726,0,0,0,0,0,0,0,-1,783,1597,0.108584,-5.06721
-434,-573,1.61768,7.05444,0,0,0,0,0,0,0,-1,790,1597,1.61767,-7.05446
-427,-573,0.817383,13.5431,0,0,0,0,0,0,0,-1,797,1597,0.817368,-13.543
-420,-573,1.25745,13.9738,0,0,0,0,0,0,0,-1,804,1597,1.25745,-13.9737
-413,-573,1.2074,14.3661,-5.83787e-05,0.00613263,0.00305014,0.00738287,-0.00130862,1.18179,0.00541113,0.0489384,811,1597,1.20742,-14.3661
-406,-573,0.960449,14.8086,-0.00197279,0.00273723,0.00147458,0.00316079,-0.00239635,1.29108,0.00321852,0.023795,818,1597,0.96044,-14.8085
-399,-573,0.930115,15.2462,-0.00250605,0.00122555,0.00088958,0.00142677,-0.00270727,1.34835,0.00242465,0.0121252,825,1597,0.930105,-15.2462
-392,-573,0.952148,15.6205,-0.00248159,0.000198866,0.000426676,0.000265146,-0.00254787,1.41669,0.0017935,0.0119653,832,1597,0.952145,-15.6205
-385,-573,0.956116,15.9926,-0.00195925,0.000282954,0.000451315,0.000370387,-0.00204668,1.37944,0.0015032,0.0138089,839,1597,0.95614,-15.9926
-378,-573,0.920288,16.3645,-0.00132982,0.000485951,0.000466816,0.000598934,-0.0014428,1.33333,0.00121189,0.0149496,846,1597,0.92027,-16.3645
-371,-573,0.897095,16.7498,-0.000793985,0.000619757,0.000352136,0.000702612,-0.00087684,1.33971,0.000913744,0.0149118,853,1597,0.897109,-16.7497
-364,-573,0.892578,17.1136,-0.00034532,0.00086051,0.00024189,0.000907223,-0.000392034,1.38003,0.000769533,0.0172307,860,1597,0.89255,-17.1136
-357,-573,0.88855,17.4569,0.000228114,0.00116181,0.000143928,0.00118349,0.000206431,1.42127,0.000729979,0.0208282,867,1597,0.888559,-17.4569
-350,-573,0.894043,17.8142,0.000705472,0.00149198,2.22415e-05,0.00149261,0.000704844,1.54255,0.000862199,0.0164914,874,1597,0.894058,-17.8142
-343,-573,0.912231,18.1506,0.000945442,0.00192764,0.000102288,0.00193818,0.000934902,1.46812,0.00111924,0.0196279,881,1597,0.912241,-18.1506
-336,-573,0.896973,18.4958,0.00116198,0.00264812,0.000366676,0.00273367,0.00107643,1.34159,0.00159011,0.0166761,888,1597,0.896991,-18.4959
-329,-573,0.904968,18.8403,0.00120841,0.00417967,0.000775464,0.00436988,0.0010182,1.33026,0.00264013,0.0163411,895,1597,0.904983,-18.8404
-322,-573,0.905334,19.2085,0.00101675,0.00576986,0.00120765,0.00605909,0.000727517,1.33572,0.00382005,0.0133527,902,1597,0.905356,-19.2084
-315,-573,1.03394,19.6696,0.000784178,0.00756549,0.00181023,0.00801846,0.000331207,1.3256,0.00523873,0.0294259,909,1597,1.03392,-19.6695
-308,-573,1.07172,19.9163,0.000352881,0.00990183,0.0025911,0.0105596,-0.0003049,1.32219,0.00714355,0.0449283,916,1597,1.07172,-19.9163
-301,-573,1.21582,20.1974,-0.000301868,0.0120745,0.00321201,0.0128584,-0.00108582,1.33141,0.00895618,0.0362662,923,1597,1.21583,-20.1973
-294,-573,1.11426,20.6011,-0.00120171,0.0149712,0.00397746,0.0158964,-0.00212697,1.34224,0.0113731,0.0407636,930,1597,1.11426,-20.6011
-287,-573,1.09125,21.0475,0,0,0,0,0,0,0,-1,937,1597,1.09124,-21.0474
-280,-573,0.64856,22.5139,0,0,0,0,0,0,0,-1,944,1597,0.648551,-22.5139
-273,-573,1.13562,22.0223,0,0,0,0,0,0,0,-1,951,1597,1.13562,-22.0224
-266,-573,1.31116,7.1814,0,0,0,0,0,0,0,-1,958,1597,1.31118,-7.18142
-259,-573,1.2514,6.70959,0,0,0,0,0,0,0,-1,965,1597,1.25137,-6.70965
-252,-573,2.07874,5.27161,0,0,0,0,0,0,0,-1,972,1597,2.07875,-5.27157
-245,-573,-10.2592,1.09827,0,0,0,0,0,0,0,-1,979,1597,-10.2592,-1.09823
-238,-573,-11.5463,4.44141,0,0,0,0,0,0,0,-1,986,1597,-11.5463,-4.44146
-231,-573,-9.23431,4.14539,0,0,0,0,0,0,0,-1,993,1597,-9.23431,-4.14534
-224,-573,-6.70044,7.40857,0,0,0,0,0,0,0,-1,1000,1597,-6.70045,-7.40851
-217,-573,-4.25824,8.59119,0,0,0,0,0,0,0,-1,1007,1597,-4.25824,-8.59122
-210,-573,-2.39661,9.73914,0,0,0,0,0,0,0,-1,1014,1597,-2.39658,-9.73915
-203,-573,-0.557373,10.9005,0,0,0,0,0,0,0,-1,1021,1597,-0.557387,-10.9006
-196,-573,-1.65344,9.02246,0,0,0,0,0,0,0,-1,1028,1597,-1.65349,-9.02241
-189,-573,-6.12915,6.66882,0,0,0,0,0,0,0,-1,1035,1597,-6.12913,-6.66884
-182,-573,0,0,0,0,0,0,0,0,0,-1,1042,1597,0,0
-175,-573,0,0,0,0,0,0,0,0,0,-1,1049,1597,0,0
-168,-573,0,0,0,0,0,0,0,0,0,-1,1056,1597,0,0
-161,-573,0,0,0,0,0,0,0,0,0,-1,1063,1597,0,0
-154,-573,0,0,0,0,0,0,0,0,0,-1,1070,1597,0,0
-147,-573,0,0,0,0,0,0,0,0,0,-1,1077,1597,0,0
-140,-573,0,0,0,0,0,0,0,0,0,-1,1084,1597,0,0
-133,-573,0,0,0,0,0,0,0,0,0,-1,1091,1597,0,0
-126,-573,0,0,0,0,0,0,0,0,0,-1,1098,1597,0,0
-119,-573,0,0,0,0,0,0,0,0,0,-1,1105,1597,0,0
-112,-573,0,0,0,0,0,0,0,0,0,-1,1112,1597,0,0
-105,-573,0,0,0,0,0,0,0,0,0,-1,1119,1597,0,0
-98,-573,0,0,0,0,0,0,0,0,0,-1,1126,1597,0,0
-91,-573,0,0,0,0,0,0,0,0,0,-1,1133,1597,0,0
-84,-573,0,0,0,0,0,0,0,0,0,-1,1140,1597,0,0
-77,-573,0,0,0,0,0,0,0,0,0,-1,1147,1597,0,0
-70,-573,0,0,0,0,0,0,0,0,0,-1,1154,1597,0,0
-63,-573,0,0,0,0,0,0,0,0,0,-1,1161,1597,0,0
-56,-573,0,0,0,0,0,0,0,0,0,-1,1168,1597,0,0
-49,-573,0,0,0,0,0,0,0,0,0,-1,1175,1597,0,0
-42,-573,0,0,0,0,0,0,0,0,0,-1,1182,1597,0,0
-35,-573,0,0,0,0,0,0,0,0,0,-1,1189,1597,0,0
-28,-573,0,0,0,0,0,0,0,0,0,-1,1196,1597,0,0
-21,-573,0,0,0,0,0,0,0,0,0,-1,1203,1597,0,0
-14,-573,0,0,0,0,0,0,0,0,0,-1,1210,1597,0,0
-7,-573,0,0,0,0,0,0,0,0,0,-1,1217,1597,0,0
0,-573,0,0,0,0,0,0,0,0,0,-1,1224,1597,0,0
7,-573,0,0,0,0,0,0,0,0,0,-1,1231,1597,0,0
14,-573,0,0,0,0,0,0,0,0,0,-1,1238,1597,0,0
21,-573,0,0,0,0,0,0,0,0,0,-1,1245,1597,0,0
28,-573,0,0,0,0,0,0,0,0,0,-1,1252,1597,0,0
35,-573,0,0,0,0,0,0,0,0,0,-1,1259,1597,0,0
42,-573,0,0,0,0,0,0,0,0,0,-1,1266,1597,0,0
49,-573,0,0,0,0,0,0,0,0,0,-1,1273,1597,0,0
56,-573,0,0,0,0,0,0,0,0,0,-1,1280,1597,0,0
63,-573,0,0,0,0,0,0,0,0,0,-1,1287,1597,0,0
70,-573,0,0,0,0,0,0,0,0,0,-1,1294,1597,0,0
77,-573,0,0,0,0,0,0,0,0,0,-1,1301,1597,0,0
84,-573,0,0,0,0,0,0,0,0,0,-1,1308,1597,0,0
91,-573,0,0,0,0,0,0,0,0,0,-1,1315,1597,0,0
98,-573,0,0,0,0,0,0,0,0,0,-1,1322,1597,0,0
105,-573,0,0,0,0,0,0,0,0,0,-1,1329,1597,0,0
112,-573,0,0,0,0,0,0,0,0,0,-1,1336,1597,0,0
119,-573,0,0,0,0,0,0,0,0,0,-1,1343,1597,0,0
126,-573,0,0,0,0,0,0,0,0,0,-1,1350,1597,0,0
133,-573,0,0,0,0,0,0,0,0,0,-1,1357,1597,0,0
140,-573,0,0,0,0,0,0,0,0,0,-1,1364,1597,0,0
147,-573,0,0,0,0,0,0,0,0,0,-1,1371,1597,0,0
154,-573,0,0,0,0,0,0,0,0,0,-1,1378,1597,0,0
161,-573,0,0,0,0,0,0,0,0,0,-1,1385,1597,0,0
168,-573,0,0,0,0,0,0,0,0,0,-1,1392,1597,0,0
175,-573,0,0,0,0,0,0,0,0,0,-1,1399,1597,0,0
182,-573,0,0,0,0,0,0,0,0,0,-1,1406,1597,0,0
189,-573,0,0,0,0,0,0,0,0,0,-1,1413,1597,0,0
196,-573,0,0,0,0,0,0,0,0,0,-1,1420,1597,0,0
203,-573,0,0,0,0,0,0,0,0,0,-1,1427,1597,0,0
210,-573,0,0,0,0,0,0,0,0,0,-1,1434,1597,0,0
217,-573,0,0,0,0,0,0,0,0,0,-1,1441,1597,0,0
224,-573,0,0,0,0,0,0,0,0,0,-1,1448,1597,0,0
231,-573,0,0,0,0,0,0,0,0,0,-1,1455,1597,0,0
238,-573,0,0,0,0,0,0,0,0,0,-1,1462,1597,0,0
245,-573,0,0,0,0,0,0,0,0,0,-1,1469,1597,0,0
252,-573,0,0,0,0,0,0,0,0,0,-1,1476,1597,0,0
259,-573,0,0,0,0,0,0,0,0,0,-1,1483,1597,0,0
266,-573,0,0,0,0,0,0,0,0,0,-1,1490,1597,0,0
273,-573,0,0,0,0,0,0,0,0,0,-1,1497,1597,0,0
280,-573,0,0,0,0,0,0,0,0,0,-1,1504,1597,0,0
287,-573,0,0,0,0,0,0,0,0,0,-1,1511,1597,0,0
294,-573,0,0,0,0,0,0,0,0,0,-1,1518,1597,0,0
301,-573,0,0,0,0,0,0,0,0,0,-1,1525,1597,0,0
308,-573,5.93042,9.71143,0,0,0,0,0,0,0,-1,1532,1597,5.93046,-9.71144
315,-573,4.34204,11.719,0,0,0,0,0,0,0,-1,1539,1597,4.34205,-11.719
322,-573,10.3269,7.77563,0,0,0,0,0,0,0,-1,1546,1597,10.327,-7.77565
329,-573,4.99573,3.80273,0,0,0,0,0,0,0,-1,1553,1597,4.9957,-3.80273
336,-573,4.85693,2.53455,0,0,0,0,0,0,0,-1,1560,1597,4.8569,-2.53459
343,-573,5.5946,2.15894,0,0,0,0,0,0,0,-1,1567,1597,5.59456,-2.1589
350,-573,2.53748,1.56433,0,0,0,0,0,0,0,-1,1574,1597,2.53753,-1.5643
357,-573,7.40247,4.03613,0,0,0,0,0,0,0,-1,1581,1597,7.40244,-4.03614
364,-573,7.14551,3.02087,0,0,0,0,0,0,0,-1,1588,1597,7.14556,-3.02084
371,-573,6.88867,2.00549,0,0,0,0,0,0,0,-1,1595,1597,6.88868,-2.00553
378,-573,8.62012,6.09106,0,0,0,0,0,0,0,-1,1602,1597,8.62012,-6.09103
385,-573,6.54346,-0.951904,0,0,0,0,0,0,0,-1,1609,1597,6.54349,0.951901
392,-573,6.41833,-2.18225,0,0,0,0,0,0,0,-1,1616,1597,6.41831,2.18228
399,-573,4.26282,4.73657,0,0,0,0,0,0,0,-1,1623,1597,4.26285,-4.73652
406,-573,6.82715,10.823,0,0,0,0,0,0,0,-1,1630,1597,6.82719,-10.823
413,-573,8.90552,13.1737,0,0,0,0,0,0,0,-1,1637,1597,8.90553,-13.1737
420,-573,12.4368,20.7463,0,0,0,0,0,0,0,-1,1644,1597,12.4368,-20.7463
427,-573,12.9611,21.3348,0,0,0,0,0,0,0,-1,1651,1597,12.9611,-21.3348
434,-573,11.7026,21.1458,0,0,0,0,0,0,0,-1,1658,1597,11.7026,-21.1457
441,-573,11.8397,20.8501,-0.00714565,0.00259432,0.00579238,0.00529192,-0.00984325,1.13495,0.00886902,0.0413929,1665,1597,11.8398,-20.8501
448,-573,11.6699,20.6488,-0.00518793,0.00312662,0.00408567,0.00479821,-0.00685952,1.18244,0.00676558,0.0302769,1672,1597,11.67,-20.6488
455,-573,11.6541,20.2325,-0.00361473,0.00346513,0.00261611,0.00432692,-0.00447651,1.25258,0.00508291,0.0226811,1679,1597,11.654,-20.2326
462,-573,11.7092,19.777,-0.00225593,0.00382511,0.00131838,0.00409864,-0.00252946,1.36623,0.00386231,0.0199591,1686,1597,11.7092,-19.777
469,-573,11.7262,19.4683,-0.00106418,0.00370503,0.000381273,0.00373532,-0.00109447,1.49152,0.00292413,0.0147727,1693,1597,11.7262,-19.4683
476,-573,11.7487,19.1631,-0.000172391,0.00325073,-0.000234618,0.00326673,-0.000188397,-1.50268,0.00224326,0.0129283,1700,1597,11.7486,-19.1631
483,-573,11.7322,18.8488,0.000709287,0.00283683,-0.000790737,0.00309853,0.000447587,-1.25119,0.00193383,0.0112027,1707,1597,11.7322,-18.8488
490,-573,11.7018,18.524,0.00116486,0.00238663,-0.000977432,0.00292838,0.000623115,-1.0647,0.00178125,0.0111293,1714,1597,11.7018,-18.5241
497,-573,11.7074,18.1671,0.00140154,0.00190429,-0.00116491,0.00284463,0.00046119,-0.891664,0.00176292,0.0171458,1721,1597,11.7074,-18.1672
504,-573,11.7107,17.8617,0.00140025,0.00150243,-0.0011095,0.00256202,0.000340665,-0.808405,0.00160654,0.0175578,1728,1597,11.7107,-17.8618
511,-573,11.7164,17.5198,0.00115511,0.000664754,-0.000746844,0.00169599,0.000123874,-0.626797,0.00109172,0.0182326,1735,1597,11.7164,-17.5198
518,-573,11.7079,17.2059,0.000859935,-4.7409e-05,-0.000371656,0.000992732,-0.000180206,-0.343174,0.000729349,0.0141682,1742,1597,11.7079,-17.2059
525,-573,11.7057,16.8607,0.000449615,-0.000828143,0.000152825,0.000467639,-0.000846167,0.117398,0.000768949,0.0157027,1749,1597,11.7057,-16.8607
532,-573,11.6953,16.5275,-6.9838e-05,-0.00179807,0.000915397,0.000324875,-0.00219278,0.407104,0.00158131,0.0149927,1756,1597,11.6953,-16.5274
539,-573,11.6534,16.1937,-0.00082452,-0.0031437,0.0020061,0.000333019,-0.00430124,0.523343,0.0029847,0.0258407,1763,1597,11.6535,-16.1937
546,-573,11.7162,15.8492,-0.00198403,-0.00496573,0.00356855,0.000392572,-0.00734233,0.587531,0.00503085,0.0432163,1770,1597,11.7161,-15.8493
553,-573,11.4454,15.7035,-0.00324277,-0.00728301,0.00568737,0.000772596,-0.0112984,0.614751,0.00780254,0.0477451,1777,1597,11.4454,-15.7035
560,-573,11.1937,15.5085,0,0,0,0,0,0,0,-1,1784,1597,11.1937,-15.5086
567,-573,4.99597,2.77759,0,0,0,0,0,0,0,-1,1791,1597,4.99596,-2.7776
574,-573,0.83374,5.7041,0,0,0,0,0,0,0,-1,1798,1597,0.833718,-5.70405
581,-573,-0.224854,7.41602,0,0,0,0,0,0,0,-1,1805,1597,-0.224904,-7.41596
588,-573,-0.134033,7.67065,0,0,0,0,0,0,0,-1,1812,1597,-0.134037,-7.67063
595,-573,-0.0825195,8.35083,0,0,0,0,0,0,0,-1,1819,1597,-0.0824684,-8.35088
602,-573,0,0,0,0,0,0,0,0,0,-1,1826,1597,0,0
609,-573,0,0,0,0,0,0,0,0,0,-1,1833,1597,0,0
616,-573,0,0,0,0,0,0,0,0,0,-1,1840,1597,0,0
623,-573,0,0,0,0,0,0,0,0,0,-1,1847,1597,0,0
630,-573,0,0,0,0,0,0,0,0,0,-1,1854,1597,0,0
637,-573,0,0,0,0,0,0,0,0,0,-1,1861,1597,0,0
644,-573,0,0,0,0,0,0,0,0,0,-1,1868,1597,0,0
651,-573,0,0,0,0,0,0,0,0,0,-1,1875,1597,0,0
658,-573,0,0,0,0,0,0,0,0,0,-1,1882,1597,0,0
665,-573,0,0,0,0,0,0,0,0,0,-1,1889,1597,0,0
672,-573,0,0,0,0,0,0,0,0,0,-1,1896,1597,0,0
679,-573,0,0,0,0,0,0,0,0,0,-1,1903,1597,0,0
686,-573,0,0,0,0,0,0,0,0,0,-1,1910,1597,0,0
693,-573,0,0,0,0,0,0,0,0,0,-1,1917,1597,0,0
700,-573,0,0,0,0,0,0,0,0,0,-1,1924,1597,0,0
707,-573,0,0,0,0,0,0,0,0,0,-1,1931,1597,0,0
714,-573,0,0,0,0,0,0,0,0,0,-1,1938,1597,0,0
721,-573,0,0,0,0,0,0,0,0,0,-1,1945,1597,0,0
728,-573,0,0,0,0,0,0,0,0,0,-1,1952,1597,0,0
735,-573,0,0,0,0,0,0,0,0,0,-1,1959,1597,0,0
742,-573,0,0,0,0,0,0,0,0,0,-1,1966,1597,0,0
749,-573,0,0,0,0,0,0,0,0,0,-1,1973,1597,0,0
756,-573,0,0,0,0,0,0,0,0,0,-1,1980,1597,0,0
763,-573,0,0,0,0,0,0,0,0,0,-1,1987,1597,0,0
770,-573,0,0,0,0,0,0,0,0,0,-1,1994,1597,0,0
777,-573,0,0,0,0,0,0,0,0,0,-1,2001,1597,0,0
784,-573,0,0,0,0,0,0,0,0,0,-1,2008,1597,0,0
791,-573,0,0,0,0,0,0,0,0,0,-1,2015,1597,0,0
798,-573,0,0,0,0,0,0,0,0,0,-1,2022,1597,0,0
805,-573,0,0,0,0,0,0,0,0,0,-1,2029,1597,0,0
812,-573,0,0,0,0,0,0,0,0,0,-1,2036,1597,0,0
-700,-580,0,0,0,0,0,0,0,0,0,-1,524,1604,0,0
-693,-580,0,0,0,0,0,0,0,0,0,-1,531,1604,0,0
-686,-580,0,0,0,0,0,0,0,0,0,-1,538,1604,0,0
-679,-580,0,0,0,0,0,0,0,0,0,-1,545,1604,0,0
-672,-580,0,0,0,0,0,0,0,0,0,-1,552,1604,0,0
-665,-580,0,0,0,0,0,0,0,0,0,-1,559,1604,0,0
-658,-580,0,0,0,0,0,0,0,0,0,-1,566,1604,0,0
-651,-580,0,0,0,0,0,0,0,0,0,-1,573,1604,0,0
-644,-580,0,0,0,0,0,0,0,0,0,-1,580,1604,0,0
-637,-580,0,0,0,0,0,0,0,0,0,-1,587,1604,0,0
-630,-580,0,0,0,0,0,0,0,0,0,-1,594,1604,0,0
-623,-580,0,0,0,0,0,0,0,0,0,-1,601,1604,0,0
-616,-580,0,0,0,0,0,0,0,0,0,-1,608,1604,0,0
-609,-580,0,0,0,0,0,0,0,0,0,-1,615,1604,0,0
-602,-580,0,0,0,0,0,0,0,0,0,-1,622,1604,0,0
-595,-580,0,0,0,0,0,0,0,0,0,-1,629,1604,0,0
-588,-580,0,0,0,0,0,0,0,0,0,-1,636,1604,0,0
-581,-580,0,0,0,0,0,0,0,0,0,-1,643,1604,0,0
-574,-580,0,0,0,0,0,0,0,0,0,-1,650,1604,0,0
-567,-580,0,0,0,0,0,0,0,0,0,-1,657,1604,0,0
-560,-580,0,0,0,0,0,0,0,0,0,-1,664,1604,0,0
-553,-580,0,0,0,0,0,0,0,0,0,-1,671,1604,0,0
-546,-580,0,0,0,0,0,0,0,0,0,-1,678,1604,0,0
-539,-580,0,0,0,0,0,0,0,0,0,-1,685,1604,0,0
-532,-580,0,0,0,0,0,0,0,0,0,-1,692,1604,0,0
-525,-580,0,0,0,0,0,0,0,0,0,-1,699,1604,0,0
-518,-580,0,0,0,0,0,0,0,0,0,-1,706,1604,0,0
-511,-580,0,0,0,0,0,0,0,0,0,-1,713,1604,0,0
-504,-580,0,0,0,0,0,0,0,0,0,-1,720,1604,0,0
-497,-580,0,0,0,0,0,0,0,0,0,-1,727,1604,0,0
-490,-580,0,0,0,0,0,0,0,0,0,-1,734,1604,0,0
-483,-580,0,0,0,0,0,0,0,0,0,-1,741,1604,0,0
-476,-580,0,0,0,0,0,0,0,0,0,-1,748,1604,0,0
-469,-580,-1.69189,-0.38916,0,0,0,0,0,0,0,-1,755,1604,-1.69192,0.389188
-462,-580,-0.859863,0.675293,0,0,0,0,0,0,0,-1,762,1604,-0.859834,-0.675245
-455,-580,-0.730164,0.651978,0,0,0,0,0,0,0,-1,769,1604,-0.730153,-0.651957
-448,-580,-3.31891,2.07544,0,0,0,0,0,0,0,-1,776,1604,-3.3189,-2.07539
-441,-580,-1.63843,3.9469,0,0,0,0,0,0,0,-1,783,1604,-1.63842,-3.94695
-434,-580,0.23291,5.97876,0,0,0,0,0,0,0,-1,790,1604,0.232901,-5.97878
-427,-580,1.62756,8.05493,0,0,0,0,0,0,0,-1,797,1604,1.62758,-8.05488
-420,-580,0.986572,11.2383,0,0,0,0,0,0,0,-1,804,1604,0.986544,-11.2382
-413,-580,1.20874,14.4379,0,0,0,0,0,0,0,-1,811,1604,1.20872,-14.4379
-406,-580,1.34454,14.8855,-0.00325475,0.00309436,0.00174618,0.00354292,-0.00370331,1.31935,0.00418396,0.0492984,818,1604,1.34453,-14.8855
-399,-580,1.28992,15.2692,-0.0036448,0.00121723,0.00109583,0.0014528,-0.00388037,1.35905,0.00318366,0.0222645,825,1604,1.28992,-15.2692
-392,-580,1.29041,15.6465,-0.00341513,-9.41038e-05,0.000644577,2.66136e-05,-0.00353585,1.38566,0.00236616,0.01309,832,1604,1.29039,-15.6465
-385,-580,1.31653,16.0076,-0.00271702,-0.000171015,0.000730907,2.38928e-05,-0.00291193,1.3102,0.0019493,0.0108731,839,1604,1.31652,-16.0076
-378,-580,1.2959,16.375,-0.00196001,-8.40543e-05,0.000763111,0.000187158,-0.00223122,1.22932,0.00155363,0.0138528,846,1604,1.29592,-16.375
-371,-580,1.25934,16.7777,-0.00130126,-5.48278e-05,0.00067345,0.000239526,-0.00159561,1.15874,0.00115191,0.0132944,853,1604,1.25934,-16.7777
-364,-580,1.24445,17.1179,-0.000733269,0.000100329,0.000557899,0.00037993,-0.00101287,1.10622,0.00083135,0.0191009,860,1604,1.24444,-17.1179
-357,-580,1.26471,17.4476,-7.16132e-05,0.000306169,0.00048403,0.00063686,-0.000402304,0.971433,0.000605035,0.0134579,867,1604,1.2647,-17.4477
-350,-580,1.26575,17.8247,0.000483175,0.000616461,0.000377921,0.00093357,0.000166066,0.872671,0.000575073,0.0104662,874,1604,1.26573,-17.8247
-343,-580,1.25067,18.1514,0.00078831,0.00101714,0.000453676,0.00137061,0.000434845,0.908921,0.000808744,0.010364,881,1604,1.25065,-18.1514
-336,-580,1.24768,18.4629,0.00106358,0.00167771,0.000687425,0.00212354,0.000617759,0.995446,0.00126125,0.0182168,888,1604,1.24768,-18.4629
-329,-580,1.2619,18.8635,0.00121585,0.00305696,0.00103248,0.00351968,0.000753133,1.14947,0.00214005,0.0165401,895,1604,1.2619,-18.8636
-322,-580,1.24493,19.2043,0.00112484,0.00454171,0.00137313,0.00502513,0.000641419,1.23229,0.00315807,0.0178241,902,1604,1.24495,-19.2043
-315,-580,1.25079,19.5591,0.000969875,0.00608425,0.00181009,0.00666006,0.00039407,1.26281,0.00431468,0.0179319,909,1604,1.25079,-19.5591
-308,-580,1.31274,20.0211,0.000660366,0.00799454,0.00232904,0.00867163,-1.67312e-05,1.28787,0.00578667,0.026339,916,1604,1.31277,-20.0211
-301,-580,1.39313,20.2258,0.000195232,0.00967577,0.00268346,0.0103826,-0.000511617,1.31324,0.00709843,0.0247188,923,1604,1.39313,-20.2258
-294,-580,1.315,20.4575,-0.000439186,0.0119008,0.00309831,0.0126351,-0.00117342,1.33811,0.0088405,0.0299813,930,1604,1.31498,-20.4576
-287,-580,1.13611,21.2098,-0.00117591,0.0142871,0.00341511,0.0150078,-0.00189657,1.36283,0.0106936,0.0445299,937,1604,1.13612,-21.2098
-280,-580,0.986877,22.0587,-0.00197237,0.0169044,0.00355704,0.0175524,-0.0026204,1.39059,0.0126658,0.0446615,944,1604,0.98686,-22.0587
-273,-580,1.01337,22.834,0,0,0,0,0,0,0,-1,951,1604,1.01336,-22.834
-266,-580,1.10474,22.2063,0,0,0,0,0,0,0,-1,958,1604,1.10475,-22.2063
-259,-580,1.31091,9.11536,0,0,0,0,0,0,0,-1,965,1604,1.31092,-9.11539
-252,-580,1.07629,7.74097,0,0,0,0,0,0,0,-1,972,1604,1.07627,-7.74101
-245,-580,3.80304,9.16028,0,0,0,0,0,0,0,-1,979,1604,3.80306,-9.16034
-238,-580,-10.3588,1.57556,0,0,0,0,0,0,0,-1,986,1604,-10.3588,-1.5755
-231,-580,-10.576,6.43787,0,0,0,0,0,0,0,-1,993,1604,-10.576,-6.43783
-224,-580,-8.27435,7.58972,0,0,0,0,0,0,0,-1,1000,1604,-8.27435,-7.5897
-217,-580,-5.85632,9.51221,0,0,0,0,0,0,0,-1,1007,1604,-5.85632,-9.5122
-210,-580,-3.6684,11.1569,0,0,0,0,0,0,0,-1,1014,1604,-3.66839,-11.1569
-203,-580,-1.92474,12.7845,0,0,0,0,0,0,0,-1,1021,1604,-1.92477,-12.7845
-196,-580,-2.28552,10.3289,0,0,0,0,0,0,0,-1,1028,1604,-2.28552,-10.3288
-189,-580,-4.58252,7.59058,0,0,0,0,0,0,0,-1,1035,1604,-4.58256,-7.59057
-182,-580,-5.45874,7.65942,0,0,0,0,0,0,0,-1,1042,1604,-5.45876,-7.65939
-175,-580,-6.38977,7.55005,0,0,0,0,0,0,0,-1,1049,1604,-6.38981,-7.5501
-168,-580,0,0,0,0,0,0,0,0,0,-1,1056,1604,0,0
-161,-580,0,0,0,0,0,0,0,0,0,-1,1063,1604,0,0
-154,-580,0,0,0,0,0,0,0,0,0,-1,1070,1604,0,0
-147,-580,0,0,0,0,0,0,0,0,0,-1,1077,1604,0,0
-140,-580,0,0,0,0,0,0,0,0,0,-1,1084,1604,0,0
-133,-580,0,0,0,0,0,0,0,0,0,-1,1091,1604,0,0
-126,-580,0,0,0,0,0,0,0,0,0,-1,1098,1604,0,0
-119,-580,0,0,0,0,0,0,0,0,0,-1,1105,1604,0,0
-112,-580,0,0,0,0,0,0,0,0,0,-1,1112,1604,0,0
-105,-580,0,0,0,0,0,0,0,0,0,-1,1119,1604,0,0
-98,-580,0,0,0,0,0,0,0,0,0,-1,1126,1604,0,0
-91,-580,0,0,0,0,0,0,0,0,0,-1,1133,1604,0,0
-84,-580,0,0,0,0,0,0,0,0,0,-1,1140,1604,0,0
-77,-580,0,0,0,0,0,0,0,0,0,-1,1147,1604,0,0
-70,-580,0,0,0,0,0,0,0,0,0,-1,1154,1604,0,0
-63,-580,0,0,0,0,0,0,0,0,0,-1,1161,1604,0,0
-56,-580,0,0,0,0,0,0,0,0,0,-1,1168,1604,0,0
-49,-580,0,0,0,0,0,0,0,0,0,-1,1175,1604,0,0
-42,-580,0,0,0,0,0,0,0,0,0,-1,1182,1604,0,0
-35,-580,0,0,0,0,0,0,0,0,0,-1,1189,1604,0,0
-28,-580,0,0,0,0,0,0,0,0,0,-1,1196,1604,0,0
-21,-580,0,0,0,0,0,0,0,0,0,-1,1203,1604,0,0
-14,-580,0,0,0,0,0,0,0,0,0,-1,1210,1604,0,0
-7,-580,0,0,0,0,0,0,0,0,0,-1,1217,1604,0,0
0,-580,0,0,0,0,0,0,0,0,0,-1,1224,1604,0,0
7,-580,0,0,0,0,0,0,0,0,0,-1,1231,1604,0,0
14,-580,0,0,0,0,0,0,0,0,0,-1,1238,1604,0,0
21,-580,0,0,0,0,0,0,0,0,0,-1,1245,1604,0,0
28,-580,0,0,0,0,0,0,0,0,0,-1,1252,1604,0,0
35,-580,0,0,0,0,0,0,0,0,0,-1,1259,1604,0,0
42,-580,0,0,0,0,0,0,0,0,0,-1,1266,1604,0,0
49,-580,0,0,0,0,0,0,0,0,0,-1,1273,1604,0,0
56,-580,0,0,0,0,0,0,0,0,0,-1,1280,1604,0,0
63,-580,0,0,0,0,0,0,0,0,0,-1,1287,1604,0,0
70,-580,0,0,0,0,0,0,0,0,0,-1,1294,1604,0,0
77,-580,0,0,0,0,0,0,0,0,0,-1,1301,1604,0,0
84,-580,0,0,0,0,0,0,0,0,0,-1,1308,1604,0,0
91,-580,0,0,0,0,0,0,0,0,0,-1,1315,1604,0,0
98,-580,0,0,0,0,0,0,0,0,0,-1,1322,1604,0,0
105,-580,0,0,0,0,0,0,0,0,0,-1,1329,1604,0,0
112,-580,0,0,0,0,0,0,0,0,0,-1,1336,1604,0,0
119,-580,0,0,0,0,0,0,0,0,0,-1,1343,1604,0,0
126,-580,0,0,0,0,0,0,0,0,0,-1,1350,1604,0,0
133,-580,0,0,0,0,0,0,0,0,0,-1,1357,1604,0,0
140,-580,0,0,0,0,0,0,0,0,0,-1,1364,1604,0,0
147,-580,0,0,0,0,0,0,0,0,0,-1,1371,1604,0,0
154,-580,0,0,0,0,0,0,0,0,0,-1,1378,1604,0,0
161,-580,0,0,0,0,0,0,0,0,0,-1,1385,1604,0,0
168,-580,0,0,0,0,0,0,0,0,0,-1,1392,1604,0,0
175,-580,0,0,0,0,0,0,0,0,0,-1,1399,1604,0,0
182,-580,0,0,0,0,0,0,0,0,0,-1,1406,1604,0,0
189,-580,0,0,0,0,0,0,0,0,0,-1,1413,1604,0,0
196,-580,0,0,0,0,0,0,0,0,0,-1,1420,1604,0,0
203,-580,0,0,0,0,0,0,0,0,0,-1,1427,1604,0,0
210,-580,0,0,0,0,0,0,0,0,0,-1,1434,1604,0,0
217,-580,0,0,0,0,0,0,0,0,0,-1,1441,1604,0,0
224,-580,0,0,0,0,0,0,0,0,0,-1,1448,1604,0,0
231,-580,0,0,0,0,0,0,0,0,0,-1,1455,1604,0,0
238,-580,0,0,0,0,0,0,0,0,0,-1,1462,1604,0,0
245,-580,0,0,0,0,0,0,0,0,0,-1,1469,1604,0,0
252,-580,0,0,0,0,0,0,0,0,0,-1,1476,1604,0,0
259,-580,0,0,0,0,0,0,0,0,0,-1,1483,1604,0,0
266,-580,0,0,0,0,0,0,0,0,0,-1,1490,1604,0,0
273,-580,0,0,0,0,0,0,0,0,0,-1,1497,1604,0,0
280,-580,0,0,0,0,0,0,0,0,0,-1,1504,1604,0,0
287,-580,0,0,0,0,0,0,0,0,0,-1,1511,1604,0,0
294,-580,4.0437,0.177368,0,0,0,0,0,0,0,-1,1518,1604,4.04369,-0.177371
301,-580,7.55164,8.05798,0,0,0,0,0,0,0,-1,1525,1604,7.55158,-8.05802
308,-580,5.9126,9.99341,0,0,0,0,0,0,0,-1,1532,1604,5.91255,-9.99337
315,-580,4.27356,11.9287,0,0,0,0,0,0,0,-1,1539,1604,4.27352,-11.9287
322,-580,10.2366,7.50281,0,0,0,0,0,0,0,-1,1546,1604,10.2366,-7.50282
329,-580,10.5962,8.69641,0,0,0,0,0,0,0,-1,1553,1604,10.5962,-8.69642
336,-580,3.66431,1.58862,0,0,0,0,0,0,0,-1,1560,1604,3.6643,-1.58864
343,-580,3.32227,1.39636,0,0,0,0,0,0,0,-1,1567,1604,3.32222,-1.39633
350,-580,8.71277,4.0564,0,0,0,0,0,0,0,-1,1574,1604,8.71271,-4.05638
357,-580,8.52332,3.08154,0,0,0,0,0,0,0,-1,1581,1604,8.52332,-3.08157
364,-580,8.25818,2.07605,0,0,0,0,0,0,0,-1,1588,1604,8.25812,-2.07608
371,-580,7.42114,7.14282,0,0,0,0,0,0,0,-1,1595,1604,7.42119,-7.14281
378,-580,7.9718,6.6731,0,0,0,0,0,0,0,-1,1602,1604,7.9718,-6.67307
385,-580,8.52246,6.20337,0,0,0,0,0,0,0,-1,1609,1604,8.52241,-6.20334
392,-580,6.5498,-2.15625,0,0,0,0,0,0,0,-1,1616,1604,6.54984,2.15626
399,-580,6.52625,10.7247,0,0,0,0,0,0,0,-1,1623,1604,6.52628,-10.7248
406,-580,11.7314,21.7361,0,0,0,0,0,0,0,-1,1630,1604,11.7314,-21.7361
413,-580,11.738,21.4823,0,0,0,0,0,0,0,-1,1637,1604,11.7381,-21.4824
420,-580,11.5208,21.6616,0,0,0,0,0,0,0,-1,1644,1604,11.5208,-21.6617
427,-580,11.9894,21.3846,-0.00757778,0.000664442,0.00781676,0.00537991,-0.0122933,1.02799,0.0104606,0.0394492,1651,1604,11.9894,-21.3847
434,-580,11.4425,21.069,-0.00633088,0.00165989,0.00624684,0.00507977,-0.00975076,1.06991,0.00870282,0.0293817,1658,1604,11.4425,-21.0689
441,-580,11.3481,20.7605,-0.0051394,0.00196975,0.00478458,0.00437565,-0.0075453,1.10488,0.00696319,0.0134262,1665,1604,11.3481,-20.7605
448,-580,11.3738,20.4293,-0.00383424,0.0023567,0.00346231,0.00390554,-0.00538307,1.15016,0.00538535,0.0129313,1672,1604,11.3738,-20.4293
455,-580,11.4244,20.127,-0.00273789,0.00260614,0.00226199,0.00343502,-0.00356677,1.21955,0.00404272,0.0184611,1679,1604,11.4245,-20.1269
462,-580,11.3802,19.7892,-0.00172724,0.00290728,0.00112425,0.0031656,-0.00198557,1.34494,0.00299993,0.0220199,1686,1604,11.3802,-19.7891
469,-580,11.394,19.4757,-0.000777643,0.00287619,0.000226796,0.00289021,-0.000791667,1.50904,0.00223787,0.0184287,1693,1604,11.3941,-19.4757
476,-580,11.4248,19.1617,-3.36788e-05,0.00258317,-0.000418378,0.00264844,-9.89409e-05,-1.41606,0.00179951,0.0137821,1700,1604,11.4249,-19.1617
483,-580,11.3893,18.849,0.000732239,0.00243378,-0.00104663,0.0029318,0.000234212,-1.12667,0.00188133,0.0124709,1707,1604,11.3892,-18.849
490,-580,11.3506,18.5408,0.00115866,0.00217556,-0.00132893,0.00308998,0.000244233,-0.968106,0.0019836,0.0156086,1714,1604,11.3506,-18.5408
497,-580,11.3519,18.2012,0.00140845,0.00190213,-0.00159516,0.00326944,4.11387e-05,-0.86216,0.00216604,0.0122563,1721,1604,11.3519,-18.2012
504,-580,11.3613,17.8763,0.00140028,0.00160997,-0.00155413,0.00306279,-5.25361e-05,-0.819078,0.00205959,0.0164025,1728,1604,11.3613,-17.8764
511,-580,11.3745,17.5486,0.00119405,0.000941073,-0.00124616,0.00232012,-0.000185002,-0.73482,0.00161196,0.0177288,1735,1604,11.3745,-17.5486
518,-580,11.377,17.2148,0.000967968,0.000398933,-0.000933423,0.00165927,-0.000292372,-0.637466,0.00121542,0.016091,1742,1604,11.377,-17.2148
525,-580,11.3821,16.8932,0.000607098,-0.000281656,-0.000415984,0.000771419,-0.000445977,-0.376204,0.000711187,0.0167438,1749,1604,11.382,-16.8932
532,-580,11.368,16.5684,8.04838e-05,-0.00121202,0.000440216,0.000216173,-0.00134771,0.298993,0.000978522,0.0181881,1756,1604,11.3681,-16.5684
539,-580,11.3666,16.3171,-0.000842323,-0.0026754,0.00180081,0.000261768,-0.0037795,0.550003,0.0026113,0.0331325,1763,1604,11.3666,-16.3172
546,-580,11.6968,15.8317,0,0,0,0,0,0,0,-1,1770,1604,11.6968,-15.8316
553,-580,10.7689,15.7463,0,0,0,0,0,0,0,-1,1777,1604,10.7689,-15.7463
560,-580,7.09021,6.49438,0,0,0,0,0,0,0,-1,1784,1604,7.09016,-6.4944
567,-580,3.87708,4.0647,0,0,0,0,0,0,0,-1,1791,1604,3.87711,-4.06471
574,-580,2.31653,5.62952,0,0,0,0,0,0,0,-1,1798,1604,2.31654,-5.62947
581,-580,1.60876,6.67664,0,0,0,0,0,0,0,-1,1805,1604,1.60873,-6.67667
588,-580,1.38684,7.14441,0,0,0,0,0,0,0,-1,1812,1604,1.38689,-7.14443
595,-580,0,0,0,0,0,0,0,0,0,-1,1819,1604,0,0
602,-580,0,0,0,0,0,0,0,0,0,-1,1826,1604,0,0
609,-580,0,0,0,0,0,0,0,0,0,-1,1833,1604,0,0
616,-580,0,0,0,0,0,0,0,0,0,-1,1840,1604,0,0
623,-580,0,0,0,0,0,0,0,0,0,-1,1847,1604,0,0
630,-580,0,0,0,0,0,0,0,0,0,-1,1854,1604,0,0
637,-580,0,0,0,0,0,0,0,0,0,-1,1861,1604,0,0
644,-580,0,0,0,0,0,0,0,0,0,-1,1868,1604,0,0
651,-580,0,0,0,0,0,0,0,0,0,-1,1875,1604,0,0
658,-580,0,0,0,0,0,0,0,0,0,-1,1882,1604,0,0
665,-580,0,0,0,0,0,0,0,0,0,-1,1889,1604,0,0
672,-580,0,0,0,0,0,0,0,0,0,-1,1896,1604,0,0
679,-580,0,0,0,0,0,0,0,0,0,-1,1903,1604,0,0
686,-580,0,0,0,0,0,0,0,0,0,-1,1910,1604,0,0
693,-580,0,0,0,0,0,0,0,0,0,-1,1917,1604,0,0
700,-580,0,0,0,0,0,0,0,0,0,-1,1924,1604,0,0
707,-580,0,0,0,0,0,0,0,0,0,-1,1931,1604,0,0
714,-580,0,0,0,0,0,0,0,0,0,-1,1938,1604,0,0
721,-580,0,0,0,0,0,0,0,0,0,-1,1945,1604,0,0
728,-580,0,0,0,0,0,0,0,0,0,-1,1952,1604,0,0
735,-580,0,0,0,0,0,0,0,0,0,-1,1959,1604,0,0
742,-580,0,0,0,0,0,0,0,0,0,-1,1966,1604,0,0
749,-580,0,0,0,0,0,0,0,0,0,-1,1973,1604,0,0
756,-580,0,0,0,0,0,0,0,0,0,-1,1980,1604,0,0
763,-580,0,0,0,0,0,0,0,0,0,-1,1987,1604,0,0
770,-580,0,0,0,0,0,0,0,0,0,-1,1994,1604,0,0
777,-580,0,0,0,0,0,0,0,0,0,-1,2001,1604,0,0
784,-580,0,0,0,0,0,0,0,0,0,-1,2008,1604,0,0
791,-580,0,0,0,0,0,0,0,0,0,-1,2015,1604,0,0
798,-580,0,0,0,0,0,0,0,0,0,-1,2022,1604,0,0
805,-580,0,0,0,0,0,0,0,0,0,-1,2029,1604,0,0
812,-580,0,0,0,0,0,0,0,0,0,-1,2036,1604,0,0
-700,-587,0,0,0,0,0,0,0,0,0,-1,524,1611,0,0
-693,-587,0,0,0,0,0,0,0,0,0,-1,531,1611,0,0
-686,-587,0,0,0,0,0,0,0,0,0,-1,538,1611,0,0
-679,-587,0,0,0,0,0,0,0,0,0,-1,545,1611,0,0
-672,-587,0,0,0,0,0,0,0,0,0,-1,552,1611,0,0
-665,-587,0,0,0,0,0,0,0,0,0,-1,559,1611,0,0
-658,-587,0,0,0,0,0,0,0,0,0,-1,566,1611,0,0
-651,-587,0,0,0,0,0,0,0,0,0,-1,573,1611,0,0
-644,-587,0,0,0,0,0,0,0,0,0,-1,580,1611,0,0
-637,-587,0,0,0,0,0,0,0,0,0,-1,587,1611,0,0
-630,-587,0,0,0,0,0,0,0,0,0,-1,594,1611,0,0
-623,-587,0,0,0,0,0,0,0,0,0,-1,601,1611,0,0
-616,-587,0,0,0,0,0,0,0,0,0,-1,608,1611,0,0
-609,-587,0,0,0,0,0,0,0,0,0,-1,615,1611,0,0
-602,-587,0,0,0,0,0,0,0,0,0,-1,622,1611,0,0
-595,-587,0,0,0,0,0,0,0,0,0,-1,629,1611,0,0
-588,-587,0,0,0,0,0,0,0,0,0,-1,636,1611,0,0
-581,-587,0,0,0,0,0,0,0,0,0,-1,643,1611,0,0
-574,-587,0,0,0,0,0,0,0,0,0,-1,650,1611,0,0
-567,-587,0,0,0,0,0,0,0,0,0,-1,657,1611,0,0
-560,-587,0,0,0,0,0,0,0,0,0,-1,664,1611,0,0
-553,-587,0,0,0,0,0,0,0,0,0,-1,671,1611,0,0
-546,-587,0,0,0,0,0,0,0,0,0,-1,678,1611,0,0
-539,-587,0,0,0,0,0,0,0,0,0,-1,685,1611,0,0
-532,-587,0,0,0,0,0,0,0,0,0,-1,692,1611,0,0
-525,-587,0,0,0,0,0,0,0,0,0,-1,699,1611,0,0
-518,-587,0,0,0,0,0,0,0,0,0,-1,706,1611,0,0
-511,-587,0,0,0,0,0,0,0,0,0,-1,713,1611,0,0
-504,-587,0,0,0,0,0,0,0,0,0,-1,720,1611,0,0
-497,-587,0,0,0,0,0,0,0,0,0,-1,727,1611,0,0
-490,-587,0,0,0,0,0,0,0,0,0,-1,734,1611,0,0
-483,-587,0,0,0,0,0,0,0,0,0,-1,741,1611,0,0
-476,-587,0,0,0,0,0,0,0,0,0,-1,748,1611,0,0
-469,-587,0,0,0,0,0,0,0,0,0,-1,755,1611,0,0
-462,-587,-0.714355,-0.418457,0,0,0,0,0,0,0,-1,762,1611,-0.714359,0.418483
-455,-587,-0.619812,-0.522461,0,0,0,0,0,0,0,-1,769,1611,-0.619802,0.522515
-448,-587,-0.461731,-0.686523,0,0,0,0,0,0,0,-1,776,1611,-0.461739,0.686559
-441,-587,-3.56555,2.72253,0,0,0,0,0,0,0,-1,783,1611,-3.56555,-2.72259
-434,-587,-1.77319,4.76318,0,0,0,0,0,0,0,-1,790,1611,-1.77318,-4.76323
-427,-587,0.0346069,6.92944,0,0,0,0,0,0,0,-1,797,1611,0.034587,-6.92941
-420,-587,-0.647156,10.1157,0,0,0,0,0,0,0,-1,804,1611,-0.647128,-10.1158
-413,-587,2.13971,10.3901,0,0,0,0,0,0,0,-1,811,1611,2.13971,-10.3902
-406,-587,1.71356,14.8214,0,0,0,0,0,0,0,-1,818,1611,1.71356,-14.8214
-399,-587,1.70068,15.2852,-0.00501318,0.00123945,0.00135603,0.00152087,-0.0052946,1.36617,0.00413109,0.0415265,825,1611,1.70067,-15.2852
-392,-587,1.74097,15.5985,-0.00446538,-0.000298486,0.000985657,-7.70965e-05,-0.00468677,1.34985,0.00309914,0.0305259,832,1611,1.74099,-15.5986
-385,-587,1.62561,15.9944,-0.00348906,-0.000500557,0.00116624,-9.93154e-05,-0.0038903,1.23943,0.00256107,0.0160052,839,1611,1.6256,-15.9944
-378,-587,1.6228,16.3916,-0.00255283,-0.000490019,0.0012123,7.02621e-05,-0.00311311,1.13787,0.00209922,0.0122825,846,1611,1.62281,-16.3916
-371,-587,1.58923,16.7915,-0.0017459,-0.000541331,0.00112521,0.000132645,-0.00241988,1.03113,0.00165924,0.0134393,853,1611,1.58924,-16.7915
-364,-587,1.60022,17.1465,-0.00105065,-0.00046315,0.00096965,0.000256268,-0.00177007,0.932477,0.00127409,0.0175058,860,1611,1.6002,-17.1465
-357,-587,1.60632,17.4561,-0.000314693,-0.000342583,0.0008739,0.000545373,-0.00120265,0.77742,0.00103273,0.0154573,867,1611,1.60634,-17.456
-350,-587,1.58832,17.8292,0.000298772,-4.92142e-05,0.000733878,0.000879001,-0.000629443,0.669004,0.000874864,0.00906919,874,1611,1.58832,-17.8292
-343,-587,1.5675,18.1896,0.000657745,0.00031305,0.000749933,0.00125488,-0.000284085,0.672451,0.000945615,0.0117035,881,1611,1.56748,-18.1895
-336,-587,1.55054,18.4999,0.000973386,0.000897511,0.00089751,0.00183376,3.71368e-05,0.764276,0.00121032,0.0121498,888,1611,1.55052,-18.4999
-329,-587,1.55804,18.8541,0.0011995,0.00208072,0.00112801,0.00285111,0.000429101,0.971591,0.00177508,0.0147101,895,1611,1.55807,-18.8541
-322,-587,1.57855,19.1995,0.00116653,0.00341102,0.00134283,0.00403881,0.000538737,1.13347,0.00253214,0.0178661,902,1611,1.57857,-19.1995
-315,-587,1.55811,19.5414,0.00105586,0.00473357,0.00163518,0.00535545,0.000433979,1.20738,0.00343479,0.0145667,909,1611,1.55808,-19.5414
-308,-587,1.54321,19.8892,0.000819206,0.00627736,0.00192964,0.00689064,0.000205922,1.26307,0.00452668,0.0142304,916,1611,1.5432,-19.8892
-301,-587,1.61841,20.2266,0.000484293,0.00757097,0.00208457,0.00813868,-8.34134e-05,1.30491,0.0054538,0.0140232,923,1611,1.61839,-20.2266
-294,-587,1.67334,20.5868,4.18781e-05,0.00925922,0.00226132,0.00978411,-0.000483009,1.34272,0.00668955,0.0214724,930,1611,1.67336,-20.5867
-287,-587,1.6228,21.0267,-0.000424583,0.0109898,0.00231058,0.0114398,-0.000874568,1.37845,0.00793414,0.0362665,937,1611,1.6228,-21.0267
-280,-587,1.65015,21.5389,-0.000823668,0.0127301,0.00218313,0.013073,-0.00116663,1.41497,0.00912912,0.0464171,944,1611,1.65017,-21.5389
-273,-587,1.48987,21.7314,-0.00126017,0.0140494,0.00149458,0.0141939,-0.00140472,1.47438,0.0099639,0.0438017,951,1611,1.48986,-21.7315
-266,-587,1.6134,21.7767,0,0,0,0,0,0,0,-1,958,1611,1.61339,-21.7767
-259,-587,1.65869,20.3835,0,0,0,0,0,0,0,-1,965,1611,1.65868,-20.3835
-252,-587,1.30188,10.3103,0,0,0,0,0,0,0,-1,972,1611,1.30188,-10.3104
-245,-587,2.30078,21.8326,0,0,0,0,0,0,0,-1,979,1611,2.30077,-21.8326
-238,-587,2.87799,9.53821,0,0,0,0,0,0,0,-1,986,1611,2.87797,-9.53823
-231,-587,2.49548,9.14465,0,0,0,0,0,0,0,-1,993,1611,2.49551,-9.14468
-224,-587,-9.72528,9.21069,0,0,0,0,0,0,0,-1,1000,1611,-9.72529,-9.21072
-217,-587,-7.07495,10.7847,0,0,0,0,0,0,0,-1,1007,1611,-7.07495,-10.7847
-210,-587,-4.72308,12.5889,0,0,0,0,0,0,0,-1,1014,1611,-4.72307,-12.5888
-203,-587,-3.2583,13.7289,0,0,0,0,0,0,0,-1,1021,1611,-3.25828,-13.7289
-196,-587,-1.953,14.8145,0,0,0,0,0,0,0,-1,1028,1611,-1.95302,-14.8144
-189,-587,-3.04138,8.66638,0,0,0,0,0,0,0,-1,1035,1611,-3.04136,-8.66635
-182,-587,-3.97095,9.7146,0,0,0,0,0,0,0,-1,1042,1611,-3.97093,-9.71461
-175,-587,-4.80969,8.37878,0,0,0,0,0,0,0,-1,1049,1611,-4.80964,-8.37883
-168,-587,-5.91394,8.72546,0,0,0,0,0,0,0,-1,1056,1611,-5.91398,-8.72542
-161,-587,-7.06946,8.88501,0,0,0,0,0,0,0,-1,1063,1611,-7.06947,-8.885
-154,-587,-2.24731,6.56519,0,0,0,0,0,0,0,-1,1070,1611,-2.24728,-6.56517
-147,-587,0,0,0,0,0,0,0,0,0,-1,1077,1611,0,0
-140,-587,0,0,0,0,0,0,0,0,0,-1,1084,1611,0,0
-133,-587,0,0,0,0,0,0,0,0,0,-1,1091,1611,0,0
-126,-587,0,0,0,0,0,0,0,0,0,-1,1098,1611,0,0
-119,-587,0,0,0,0,0,0,0,0,0,-1,1105,1611,0,0
-112,-587,0,0,0,0,0,0,0,0,0,-1,1112,1611,0,0
-105,-587,0,0,0,0,0,0,0,0,0,-1,1119,1611,0,0
-98,-587,0,0,0,0,0,0,0,0,0,-1,1126,1611,0,0
-91,-587,0,0,0,0,0,0,0,0,0,-1,1133,1611,0,0
-84,-587,0,0,0,0,0,0,0,0,0,-1,1140,1611,0,0
-77,-587,0,0,0,0,0,0,0,0,0,-1,1147,1611,0,0
-70,-587,0,0,0,0,0,0,0,0,0,-1,1154,1611,0,0
-63,-587,0,0,0,0,0,0,0,0,0,-1,1161,1611,0,0
-56,-587,0,0,0,0,0,0,0,0,0,-1,1168,1611,0,0
-49,-587,0,0,0,0,0,0,0,0,0,-1,1175,1611,0,0
-42,-587,0,0,0,0,0,0,0,0,0,-1,1182,1611,0,0
-35,-587,0,0,0,0,0,0,0,0,0,-1,1189,1611,0,0
-28,-587,0,0,0,0,0,0,0,0,0,-1,1196,1611,0,0
-21,-587,0,0,0,0,0,0,0,0,0,-1,1203,1611,0,0
-14,-587,0,0,0,0,0,0,0,0,0,-1,1210,1611,0,0
-7,-587,0,0,0,0,0,0,0,0,0,-1,1217,1611,0,0
0,-587,0,0,0,0,0,0,0,0,0,-1,1224,1611,0,0
7,-587,0,0,0,0,0,0,0,0,0,-1,1231,1611,0,0
14,-587,0,0,0,0,0,0,0,0,0,-1,1238,1611,0,0
21,-587,0,0,0,0,0,0,0,0,0,-1,1245,1611,0,0
28,-587,0,0,0,0,0,0,0,0,0,-1,1252,1611,0,0
35,-587,0,0,0,0,0,0,0,0,0,-1,1259,1611,0,0
42,-587,0,0,0,0,0,0,0,0,0,-1,1266,1611,0,0
49,-587,0,0,0,0,0,0,0,0,0,-1,1273,1611,0,0
56,-587,0,0,0,0,0,0,0,0,0,-1,1280,1611,0,0
63,-587,0,0,0,0,0,0,0,0,0,-1,1287,1611,0,0
70,-587,0,0,0,0,0,0,0,0,0,-1,1294,1611,0,0
77,-587,0,0,0,0,0,0,0,0,0,-1,1301,1611,0,0
84,-587,0,0,0,0,0,0,0,0,0,-1,1308,1611,0,0
91,-587,0,0,0,0,0,0,0,0,0,-1,1315,1611,0,0
98,-587,0,0,0,0,0,0,0,0,0,-1,1322,1611,0,0
105,-587,0,0,0,0,0,0,0,0,0,-1,1329,1611,0,0
112,-587,0,0,0,0,0,0,0,0,0,-1,1336,1611,0,0
119,-587,0,0,0,0,0,0,0,0,0,-1,1343,1611,0,0
126,-587,0,0,0,0,0,0,0,0,0,-1,1350,1611,0,0
133,-587,0,0,0,0,0,0,0,0,0,-1,1357,1611,0,0
140,-587,0,0,0,0,0,0,0,0,0,-1,1364,1611,0,0
147,-587,0,0,0,0,0,0,0,0,0,-1,1371,1611,0,0
154,-587,0,0,0,0,0,0,0,0,0,-1,1378,1611,0,0
161,-587,0,0,0,0,0,0,0,0,0,-1,1385,1611,0,0
168,-587,0,0,0,0,0,0,0,0,0,-1,1392,1611,0,0
175,-587,0,0,0,0,0,0,0,0,0,-1,1399,1611,0,0
182,-587,0,0,0,0,0,0,0,0,0,-1,1406,1611,0,0
189,-587,0,0,0,0,0,0,0,0,0,-1,1413,1611,0,0
196,-587,0,0,0,0,0,0,0,0,0,-1,1420,1611,0,0
203,-587,0,0,0,0,0,0,0,0,0,-1,1427,1611,0,0
210,-587,0,0,0,0,0,0,0,0,0,-1,1434,1611,0,0
217,-587,0,0,0,0,0,0,0,0,0,-1,1441,1611,0,0
224,-587,0,0,0,0,0,0,0,0,0,-1,1448,1611,0,0
231,-587,0,0,0,0,0,0,0,0,0,-1,1455,1611,0,0
238,-587,0,0,0,0,0,0,0,0,0,-1,1462,1611,0,0
245,-587,0,0,0,0,0,0,0,0,0,-1,1469,1611,0,0
252,-587,0,0,0,0,0,0,0,0,0,-1,1476,1611,0,0
259,-587,0,0,0,0,0,0,0,0,0,-1,1483,1611,0,0
266,-587,0,0,0,0,0,0,0,0,0,-1,1490,1611,0,0
273,-587,10.2936,6.35083,0,0,0,0,0,0,0,-1,1497,1611,10.2936,-6.35087
280,-587,2.09204,1.1217,0,0,0,0,0,0,0,-1,1504,1611,2.092,-1.12176
287,-587,3.2865,0.671509,0,0,0,0,0,0,0,-1,1511,1611,3.28656,-0.671538
294,-587,4.24646,1.58765,0,0,0,0,0,0,0,-1,1518,1611,4.24648,-1.58761
301,-587,7.60474,8.37085,0,0,0,0,0,0,0,-1,1525,1611,7.60478,-8.37084
308,-587,5.99316,10.2291,0,0,0,0,0,0,0,-1,1532,1611,5.99315,-10.2291
315,-587,4.34558,12.3289,0,0,0,0,0,0,0,-1,1539,1611,4.34556,-12.3288
322,-587,10.4526,6.38245,0,0,0,0,0,0,0,-1,1546,1611,10.4526,-6.38245
329,-587,10.7738,8.42444,0,0,0,0,0,0,0,-1,1553,1611,10.7738,-8.42438
336,-587,7.5531,5.96619,0,0,0,0,0,0,0,-1,1560,1611,7.55311,-5.96617
343,-587,9.57495,4.38391,0,0,0,0,0,0,0,-1,1567,1611,9.57494,-4.38397
350,-587,9.50378,3.45093,0,0,0,0,0,0,0,-1,1574,1611,9.50376,-3.4509
357,-587,9.40027,2.50806,0,0,0,0,0,0,0,-1,1581,1611,9.40022,-2.50803
364,-587,9.26477,1.34131,0,0,0,0,0,0,0,-1,1588,1611,9.26479,-1.34126
371,-587,6.98926,7.87561,0,0,0,0,0,0,0,-1,1595,1611,6.98928,-7.87564
378,-587,9.25146,13.8358,0,0,0,0,0,0,0,-1,1602,1611,9.2515,-13.8359
385,-587,7.17224,7.03772,0,0,0,0,0,0,0,-1,1609,1611,7.1722,-7.03778
392,-587,5.3916,8.21436,0,0,0,0,0,0,0,-1,1616,1611,5.39157,-8.21437
399,-587,11.2399,22.1918,0,0,0,0,0,0,0,-1,1623,1611,11.2399,-22.1917
406,-587,11.2739,21.9324,-0.00547406,-0.00212577,0.00877246,0.00513086,-0.0127307,0.879685,0.010619,0.0461477,1630,1611,11.274,-21.9323
413,-587,11.2477,21.7489,-0.00581945,-0.00104264,0.00797717,0.004896,-0.0117581,0.930854,0.00988357,0.0368716,1637,1611,11.2477,-21.7489
420,-587,11.1392,21.6801,-0.00571037,-7.42716e-05,0.00696399,0.00462023,-0.0104049,0.977657,0.00888647,0.0315294,1644,1611,11.1392,-21.68
427,-587,11.1689,21.425,-0.00518925,0.000984027,0.00586661,0.00452645,-0.00873167,1.02757,0.00778187,0.02456,1651,1611,11.1689,-21.4251
434,-587,11.0918,21.0574,-0.00451278,0.00162118,0.00484416,0.00428763,-0.00717924,1.06761,0.0066902,0.0160165,1658,1611,11.0918,-21.0574
441,-587,11.0697,20.724,-0.00375311,0.0017523,0.00374591,0.00364817,-0.00564897,1.10227,0.00540898,0.0178732,1665,1611,11.0698,-20.724
448,-587,11.0854,20.4623,-0.00285379,0.00196926,0.00268615,0.00316757,-0.0040521,1.15119,0.00417869,0.0153361,1672,1611,11.0854,-20.4623
455,-587,11.1099,20.1512,-0.00204401,0.00206156,0.00167107,0.00265573,-0.00263818,1.22917,0.00305645,0.0140251,1679,1611,11.1099,-20.1513
462,-587,11.0817,19.8092,-0.00122089,0.00219941,0.00064163,0.00231582,-0.00133729,1.39133,0.0021342,0.016921,1686,1611,11.0816,-19.8092
469,-587,11.0726,19.5018,-0.000381549,0.00210611,-0.000240487,0.00212915,-0.000404584,-1.4753,0.00157175,0.0148721,1693,1611,11.0727,-19.5019
476,-587,11.0884,19.193,0.000324785,0.00183251,-0.000940204,0.00228375,-0.000126464,-1.12332,0.00156636,0.00989658,1700,1611,11.0884,-19.193
483,-587,11.0483,18.8607,0.00105348,0.00181464,-0.00165159,0.00312894,-0.000260812,-0.898638,0.00217811,0.0125578,1707,1611,11.0484,-18.8608
490,-587,11.019,18.5398,0.00150634,0.00167056,-0.00205409,0.00364418,-0.000467276,-0.805374,0.00259925,0.0152137,1714,1611,11.0191,-18.5398
497,-587,11.0305,18.2181,0.00181153,0.00157953,-0.00242451,0.00412281,-0.000731753,-0.761494,0.00302214,0.0113393,1721,1611,11.0305,-18.2181
504,-587,11.0266,17.9082,0.00184183,0.00143003,-0.002446,0.00409058,-0.000818725,-0.743408,0.00303698,0.0114717,1728,1611,11.0266,-17.9083
511,-587,11.0251,17.5657,0.00171372,0.00102455,-0.0022477,0.0036431,-0.000904831,-0.709338,0.00277987,0.0146884,1735,1611,11.0252,-17.5657
518,-587,11.0408,17.2211,0.00158095,0.000802621,-0.00204346,0.00327197,-0.000888399,-0.691303,0.00252998,0.0143116,1742,1611,11.0408,-17.221
525,-587,11.0514,16.9121,0.00127587,0.000445149,-0.00159442,0.00250815,-0.000787128,-0.657976,0.00198714,0.0166368,1749,1611,11.0514,-16.9122
532,-587,11.0723,16.5884,0.000720915,-0.000152303,-0.00066442,0.00107934,-0.00051073,-0.494714,0.00093739,0.0286859,1756,1611,11.0722,-16.5884
539,-587,11.1899,16.3296,0,0,0,0,0,0,0,-1,1763,1611,11.1899,-16.3296
546,-587,9.57629,12.9152,0,0,0,0,0,0,0,-1,1770,1611,9.57624,-12.9152
553,-587,7.5813,8.45068,0,0,0,0,0,0,0,-1,1777,1611,7.58125,-8.45068
560,-587,4.21179,5.23547,0,0,0,0,0,0,0,-1,1784,1611,4.21185,-5.23553
567,-587,4.03711,5.46387,0,0,0,0,0,0,0,-1,1791,1611,4.03715,-5.46382
574,-587,3.83142,5.68884,0,0,0,0,0,0,0,-1,1798,1611,3.83141,-5.68881
581,-587,3.47168,6.00977,0,0,0,0,0,0,0,-1,1805,1611,3.47167,-6.00983
588,-587,0,0,0,0,0,0,0,0,0,-1,1812,1611,0,0
595,-587,0,0,0,0,0,0,0,0,0,-1,1819,1611,0,0
602,-587,0,0,0,0,0,0,0,0,0,-1,1826,1611,0,0
609,-587,0,0,0,0,0,0,0,0,0,-1,1833,1611,0,0
616,-587,0,0,0,0,0,0,0,0,0,-1,1840,1611,0,0
623,-587,0,0,0,0,0,0,0,0,0,-1,1847,1611,0,0
630,-587,0,0,0,0,0,0,0,0,0,-1,1854,1611,0,0
637,-587,0,0,0,0,0,0,0,0,0,-1,1861,1611,0,0
644,-587,0,0,0,0,0,0,0,0,0,-1,1868,1611,0,0
651,-587,0,0,0,0,0,0,0,0,0,-1,1875,1611,0,0
658,-587,0,0,0,0,0,0,0,0,0,-1,1882,1611,0,0
665,-587,0,0,0,0,0,0,0,0,0,-1,1889,1611,0,0
672,-587,0,0,0,0,0,0,0,0,0,-1,1896,1611,0,0
679,-587,0,0,0,0,0,0,0,0,0,-1,1903,1611,0,0
686,-587,0,0,0,0,0,0,0,0,0,-1,1910,1611,0,0
693,-587,0,0,0,0,0,0,0,0,0,-1,1917,1611,0,0
700,-587,0,0,0,0,0,0,0,0,0,-1,1924,1611,0,0
707,-587,0,0,0,0,0,0,0,0,0,-1,1931,1611,0,0
714,-587,0,0,0,0,0,0,0,0,0,-1,1938,1611,0,0
721,-587,0,0,0,0,0,0,0,0,0,-1,1945,1611,0,0
728,-587,0,0,0,0,0,0,0,0,0,-1,1952,1611,0,0
735,-587,0,0,0,0,0,0,0,0,0,-1,1959,1611,0,0
742,-587,0,0,0,0,0,0,0,0,0,-1,1966,1611,0,0
749,-587,0,0,0,0,0,0,0,0,0,-1,1973,1611,0,0
756,-587,0,0,0,0,0,0,0,0,0,-1,1980,1611,0,0
763,-587,0,0,0,0,0,0,0,0,0,-1,1987,1611,0,0
770,-587,0,0,0,0,0,0,0,0,0,-1,1994,1611,0,0
777,-587,0,0,0,0,0,0,0,0,0,-1,2001,1611,0,0
784,-587,0,0,0,0,0,0,0,0,0,-1,2008,1611,0,0
791,-587,0,0,0,0,0,0,0,0,0,-1,2015,1611,0,0
798,-587,0,0,0,0,0,0,0,0,0,-1,2022,1611,0,0
805,-587,0,0,0,0,0,0,0,0,0,-1,2029,1611,0,0
812,-587,0,0,0,0,0,0,0,0,0,-1,2036,1611,0,0
-700,-594,0,0,0,0,0,0,0,0,0,-1,524,1618,0,0
-693,-594,0,0,0,0,0,0,0,0,0,-1,531,1618,0,0
-686,-594,0,0,0,0,0,0,0,0,0,-1,538,1618,0,0
-679,-594,0,0,0,0,0,0,0,0,0,-1,545,1618,0,0
-672,-594,0,0,0,0,0,0,0,0,0,-1,552,1618,0,0
-665,-594,0,0,0,0,0,0,0,0,0,-1,559,1618,0,0
-658,-594,0,0,0,0,0,0,0,0,0,-1,566,1618,0,0
-651,-594,0,0,0,0,0,0,0,0,0,-1,573,1618,0,0
-644,-594,0,0,0,0,0,0,0,0,0,-1,580,1618,0,0
-637,-594,0,0,0,0,0,0,0,0,0,-1,587,1618,0,0
-630,-594,0,0,0,0,0,0,0,0,0,-1,594,1618,0,0
-623,-594,0,0,0,0,0,0,0,0,0,-1,601,1618,0,0
-616,-594,0,0,0,0,0,0,0,0,0,-1,608,1618,0,0
-609,-594,0,0,0,0,0,0,0,0,0,-1,615,1618,0,0
-602,-594,0,0,0,0,0,0,0,0,0,-1,622,1618,0,0
-595,-594,0,0,0,0,0,0,0,0,0,-1,629,1618,0,0
-588,-594,0,0,0,0,0,0,0,0,0,-1,636,1618,0,0
-581,-594,0,0,0,0,0,0,0,0,0,-1,643,1618,0,0
-574,-594,0,0,0,0,0,0,0,0,0,-1,650,1618,0,0
-567,-594,0,0,0,0,0,0,0,0,0,-1,657,1618,0,0
-560,-594,0,0,0,0,0,0,0,0,0,-1,664,1618,0,0
-553,-594,0,0,0,0,0,0,0,0,0,-1,671,1618,0,0
-546,-594,0,0,0,0,0,0,0,0,0,-1,678,1618,0,0
-539,-594,0,0,0,0,0,0,0,0,0,-1,685,1618,0,0
-532,-594,0,0,0,0,0,0,0,0,0,-1,692,1618,0,0
-525,-594,0,0,0,0,0,0,0,0,0,-1,699,1618,0,0
-518,-594,0,0,0,0,0,0,0,0,0,-1,706,1618,0,0
-511,-594,0,0,0,0,0,0,0,0,0,-1,713,1618,0,0
-504,-594,0,0,0,0,0,0,0,0,0,-1,720,1618,0,0
-497,-594,0,0,0,0,0,0,0,0,0,-1,727,1618,0,0
-490,-594,0,0,0,0,0,0,0,0,0,-1,734,1618,0,0
-483,-594,0,0,0,0,0,0,0,0,0,-1,741,1618,0,0
-476,-594,0,0,0,0,0,0,0,0,0,-1,748,1618,0,0
-469,-594,0,0,0,0,0,0,0,0,0,-1,755,1618,0,0
-462,-594,0,0,0,0,0,0,0,0,0,-1,762,1618,0,0
-455,-594,-0.509216,-1.58411,0,0,0,0,0,0,0,-1,769,1618,-0.509245,1.58415
-448,-594,-7.71887,-0.0559082,0,0,0,0,0,0,0,-1,776,1618,-7.71885,0.055939
-441,-594,-5.78473,1.18298,0,0,0,0,0,0,0,-1,783,1618,-5.78474,-1.18295
-434,-594,-3.93628,3.06213,0,0,0,0,0,0,0,-1,790,1618,-3.93631,-3.06208
-427,-594,-3.97693,6.77759,0,0,0,0,0,0,0,-1,797,1618,-3.97695,-6.77764
-420,-594,-2.53046,7.71606,0,0,0,0,0,0,0,-1,804,1618,-2.53047,-7.71609
-413,-594,-0.860413,8.00391,0,0,0,0,0,0,0,-1,811,1618,-0.860423,-8.00389
-406,-594,2.51178,12.3219,0,0,0,0,0,0,0,-1,818,1618,2.5118,-12.3219
-399,-594,2.14691,15.2246,0,0,0,0,0,0,0,-1,825,1618,2.14691,-15.2246
-392,-594,2.16919,15.6074,-0.00592534,-0.000400183,0.0013605,-8.33469e-05,-0.00624218,1.34199,0.00413395,0.0456247,832,1618,2.16916,-15.6074
-385,-594,2.10394,16.0463,-0.0045262,-0.000708356,0.00154842,-0.000159311,-0.00507524,1.23004,0.00333166,0.0299605,839,1618,2.10397,-16.0463
-378,-594,1.94904,16.3959,-0.00330217,-0.000734122,0.00163194,5.83758e-05,-0.00409467,1.11872,0.00274945,0.0135529,846,1618,1.94903,-16.3958
-371,-594,1.94952,16.7827,-0.00227683,-0.000777174,0.00163179,0.000268822,-0.00332283,1.00077,0.00231005,0.0116854,853,1618,1.94952,-16.7827
-364,-594,1.96136,17.1409,-0.00140772,-0.000767156,0.00146504,0.000412198,-0.00258708,0.893014,0.00187726,0.0103845,860,1618,1.96139,-17.1408
-357,-594,1.95404,17.4958,-0.000574808,-0.000719454,0.00138064,0.000735399,-0.00202966,0.75923,0.00165367,0.0100544,867,1618,1.95403,-17.4958
-350,-594,1.91315,17.8733,0.000109827,-0.00044287,0.00124366,0.00110747,-0.00144052,0.676072,0.00147527,0.0138199,874,1618,1.91313,-17.8732
-343,-594,1.89825,18.2461,0.000535092,-0.000123665,0.00122761,0.00147674,-0.00106531,0.65433,0.00147405,0.0164324,881,1618,1.89823,-18.2461
-336,-594,1.87811,18.5385,0.000894745,0.000369151,0.00130758,0.00196568,-0.000701782,0.68623,0.00159664,0.0144269,888,1618,1.87813,-18.5385
-329,-594,1.88641,18.8612,0.00119051,0.00133082,0.00143609,0.00269847,-0.000177135,0.809805,0.00186084,0.0141026,895,1618,1.88639,-18.8612
-322,-594,1.91132,19.204,0.00120385,0.00247244,0.00152578,0.00349052,0.000185772,0.982388,0.00226763,0.0167,902,1618,1.9113,-19.204
-315,-594,1.92157,19.5549,0.00111542,0.00357097,0.0016603,0.00440815,0.000278238,1.10377,0.00285055,0.0171093,909,1618,1.92157,-19.5549
-308,-594,1.91711,19.8832,0.000935059,0.00478568,0.00173818,0.00545423,0.00026651,1.20361,0.00355065,0.0145149,916,1618,1.91714,-19.8831
-301,-594,1.91675,20.1965,0.000692904,0.0057606,0.00170358,0.00628003,0.000173464,1.27484,0.00413008,0.0113637,923,1618,1.91677,-20.1966
-294,-594,1.95062,20.5085,0.000387763,0.00699974,0.00165878,0.00739255,-5.04684e-06,1.33827,0.00493005,0.0123147,930,1618,1.95061,-20.5085
-287,-594,1.92175,20.8073,0.000106267,0.00822205,0.00147946,0.00848334,-0.00015502,1.39599,0.00570793,0.0192889,937,1618,1.92178,-20.8072
-280,-594,2.00348,21.163,-4.70999e-05,0.00929286,0.00113503,0.00942882,-0.000183054,1.45158,0.00634778,0.0239276,944,1618,2.00346,-21.163
-273,-594,1.88171,21.4562,-0.000172602,0.0100245,0.000527187,0.0100517,-0.000199786,1.51928,0.00676869,0.0318774,951,1618,1.88172,-21.4562
-266,-594,1.89191,21.6881,-6.58041e-05,0.00993005,-0.000135674,0.00993189,-6.76457e-05,-1.55723,0.00664392,0.041746,958,1618,1.89192,-21.6881
-259,-594,1.9201,21.9301,0,0,0,0,0,0,0,-1,965,1618,1.92012,-21.93
-252,-594,2.01471,21.6396,0,0,0,0,0,0,0,-1,972,1618,2.01473,-21.6396
-245,-594,1.83862,21.6442,0,0,0,0,0,0,0,-1,979,1618,1.83862,-21.6442
-238,-594,2.0072,21.9227,0,0,0,0,0,0,0,-1,986,1618,2.00718,-21.9227
-231,-594,1.93774,9.35388,0,0,0,0,0,0,0,-1,993,1618,1.93776,-9.35393
-224,-594,1.81824,8.62744,0,0,0,0,0,0,0,-1,1000,1618,1.81822,-8.62745
-217,-594,-8.24066,12.0752,0,0,0,0,0,0,0,-1,1007,1618,-8.24068,-12.0751
-210,-594,-5.61438,14.2119,0,0,0,0,0,0,0,-1,1014,1618,-5.6144,-14.212
-203,-594,-3.94507,15.5768,0,0,0,0,0,0,0,-1,1021,1618,-3.94506,-15.5768
-196,-594,2.78613,10.5815,0,0,0,0,0,0,0,-1,1028,1618,2.78612,-10.5815
-189,-594,2.60913,9.48865,0,0,0,0,0,0,0,-1,1035,1618,2.6091,-9.48871
-182,-594,1.2395,9.38806,0,0,0,0,0,0,0,-1,1042,1618,1.23951,-9.38804
-175,-594,0.234863,8.73792,0,0,0,0,0,0,0,-1,1049,1618,0.234812,-8.73786
-168,-594,-0.495483,8.46289,0,0,0,0,0,0,0,-1,1056,1618,-0.495513,-8.46285
-161,-594,-1.39734,8.28699,0,0,0,0,0,0,0,-1,1063,1618,-1.39729,-8.28699
-154,-594,-0.000854492,7.68445,0,0,0,0,0,0,0,-1,1070,1618,-0.000805755,-7.6845
-147,-594,0.348267,9.3385,0,0,0,0,0,0,0,-1,1077,1618,0.348237,-9.33849
-140,-594,0.675171,11.5884,0,0,0,0,0,0,0,-1,1084,1618,0.675204,-11.5884
-133,-594,0,0,0,0,0,0,0,0,0,-1,1091,1618,0,0
-126,-594,0,0,0,0,0,0,0,0,0,-1,1098,1618,0,0
-119,-594,0,0,0,0,0,0,0,0,0,-1,1105,1618,0,0
-112,-594,0,0,0,0,0,0,0,0,0,-1,1112,1618,0,0
-105,-594,0,0,0,0,0,0,0,0,0,-1,1119,1618,0,0
-98,-594,0,0,0,0,0,0,0,0,0,-1,1126,1618,0,0
-91,-594,0,0,0,0,0,0,0,0,0,-1,1133,1618,0,0
-84,-594,0,0,0,0,0,0,0,0,0,-1,1140,1618,0,0
-77,-594,0,0,0,0,0,0,0,0,0,-1,1147,1618,0,0
-70,-594,0,0,0,0,0,0,0,0,0,-1,1154,1618,0,0
-63,-594,0,0,0,0,0,0,0,0,0,-1,1161,1618,0,0
-56,-594,0,0,0,0,0,0,0,0,0,-1,1168,1618,0,0
-49,-594,0,0,0,0,0,0,0,0,0,-1,1175,1618,0,0
-42,-594,0,0,0,0,0,0,0,0,0,-1,1182,1618,0,0
-35,-594,0,0,0,0,0,0,0,0,0,-1,1189,1618,0,0
-28,-594,0,0,0,0,0,0,0,0,0,-1,1196,1618,0,0
-21,-594,0,0,0,0,0,0,0,0,0,-1,1203,1618,0,0
-14,-594,0,0,0,0,0,0,0,0,0,-1,1210,1618,0,0
-7,-594,0,0,0,0,0,0,0,0,0,-1,1217,1618,0,0
0,-594,0,0,0,0,0,0,0,0,0,-1,1224,1618,0,0
7,-594,0,0,0,0,0,0,0,0,0,-1,1231,1618,0,0
14,-594,0,0,0,0,0,0,0,0,0,-1,1238,1618,0,0
21,-594,0,0,0,0,0,0,0,0,0,-1,1245,1618,0,0
28,-594,0,0,0,0,0,0,0,0,0,-1,1252,1618,0,0
35,-594,0,0,0,0,0,0,0,0,0,-1,1259,1618,0,0
42,-594,0,0,0,0,0,0,0,0,0,-1,1266,1618,0,0
49,-594,0,0,0,0,0,0,0,0,0,-1,1273,1618,0,0
56,-594,0,0,0,0,0,0,0,0,0,-1,1280,1618,0,0
63,-594,0,0,0,0,0,0,0,0,0,-1,1287,1618,0,0
70,-594,0,0,0,0,0,0,0,0,0,-1,1294,1618,0,0
77,-594,0,0,0,0,0,0,0,0,0,-1,1301,1618,0,0
84,-594,0,0,0,0,0,0,0,0,0,-1,1308,1618,0,0
91,-594,0,0,0,0,0,0,0,0,0,-1,1315,1618,0,0
98,-594,0,0,0,0,0,0,0,0,0,-1,1322,1618,0,0
105,-594,0,0,0,0,0,0,0,0,0,-1,1329,1618,0,0
112,-594,0,0,0,0,0,0,0,0,0,-1,1336,1618,0,0
119,-594,0,0,0,0,0,0,0,0,0,-1,1343,1618,0,0
126,-594,0,0,0,0,0,0,0,0,0,-1,1350,1618,0,0
133,-594,0,0,0,0,0,0,0,0,0,-1,1357,1618,0,0
140,-594,0,0,0,0,0,0,0,0,0,-1,1364,1618,0,0
147,-594,0,0,0,0,0,0,0,0,0,-1,1371,1618,0,0
154,-594,0,0,0,0,0,0,0,0,0,-1,1378,1618,0,0
161,-594,0,0,0,0,0,0,0,0,0,-1,1385,1618,0,0
168,-594,0,0,0,0,0,0,0,0,0,-1,1392,1618,0,0
175,-594,0,0,0,0,0,0,0,0,0,-1,1399,1618,0,0
182,-594,0,0,0,0,0,0,0,0,0,-1,1406,1618,0,0
189,-594,0,0,0,0,0,0,0,0,0,-1,1413,1618,0,0
196,-594,0,0,0,0,0,0,0,0,0,-1,1420,1618,0,0
203,-594,0,0,0,0,0,0,0,0,0,-1,1427,1618,0,0
210,-594,0,0,0,0,0,0,0,0,0,-1,1434,1618,0,0
217,-594,0,0,0,0,0,0,0,0,0,-1,1441,1618,0,0
224,-594,0,0,0,0,0,0,0,0,0,-1,1448,1618,0,0
231,-594,0,0,0,0,0,0,0,0,0,-1,1455,1618,0,0
238,-594,0,0,0,0,0,0,0,0,0,-1,1462,1618,0,0
245,-594,0,0,0,0,0,0,0,0,0,-1,1469,1618,0,0
252,-594,3.03674,1.20996,0,0,0,0,0,0,0,-1,1476,1618,3.0368,-1.20999
259,-594,4.79834,1.53113,0,0,0,0,0,0,0,-1,1483,1618,4.79837,-1.53118
266,-594,3.71606,2.68152,0,0,0,0,0,0,0,-1,1490,1618,3.71609,-2.68149
273,-594,9.7655,6.33557,0,0,0,0,0,0,0,-1,1497,1618,9.76555,-6.33554
280,-594,3.13281,0.911255,0,0,0,0,0,0,0,-1,1504,1618,3.13277,-0.911207
287,-594,4.42749,1.51563,0,0,0,0,0,0,0,-1,1511,1618,4.42747,-1.51564
294,-594,5.36475,3.34937,0,0,0,0,0,0,0,-1,1518,1618,5.36475,-3.3494
301,-594,7.97144,9.04333,0,0,0,0,0,0,0,-1,1525,1618,7.9714,-9.04328
308,-594,6.30347,10.4633,0,0,0,0,0,0,0,-1,1532,1618,6.30351,-10.4633
315,-594,4.62012,11.934,0,0,0,0,0,0,0,-1,1539,1618,4.62006,-11.934
322,-594,2.91528,13.3134,0,0,0,0,0,0,0,-1,1546,1618,2.91523,-13.3133
329,-594,4.19861,9.77258,0,0,0,0,0,0,0,-1,1553,1618,4.19865,-9.77264
336,-594,10.1353,4.66528,0,0,0,0,0,0,0,-1,1560,1618,10.1353,-4.66533
343,-594,10.5729,3.71228,0,0,0,0,0,0,0,-1,1567,1618,10.5729,-3.71232
350,-594,10.219,2.98792,0,0,0,0,0,0,0,-1,1574,1618,10.219,-2.98797
357,-594,9.83154,1.96326,0,0,0,0,0,0,0,-1,1581,1618,9.8315,-1.96321
364,-594,9.74939,0.700562,0,0,0,0,0,0,0,-1,1588,1618,9.74939,-0.700615
371,-594,8.54297,14.3988,0,0,0,0,0,0,0,-1,1595,1618,8.54296,-14.3989
378,-594,8.9137,16.3073,0,0,0,0,0,0,0,-1,1602,1618,8.91369,-16.3072
385,-594,9.58142,21.5156,0,0,0,0,0,0,0,-1,1609,1618,9.58145,-21.5157
392,-594,10.6636,22.7828,0,0,0,0,0,0,0,-1,1616,1618,10.6636,-22.7829
399,-594,10.7111,22.4766,-0.00219315,-0.000707759,0.00618657,0.00478054,-0.00768144,0.845137,0.00725961,0.0426315,1623,1618,10.711,-22.4765
406,-594,10.8103,22.1615,-0.00296696,-0.000530875,0.00594149,0.00431614,-0.00781398,0.8865,0.00709972,0.026602,1630,1618,10.8104,-22.1615
413,-594,10.7927,21.9203,-0.00342763,3.90507e-06,0.00546611,0.00401721,-0.00744093,0.937474,0.00671308,0.0195783,1637,1618,10.7927,-21.9203
420,-594,10.7903,21.6261,-0.00359157,0.000503624,0.00487709,0.00374551,-0.00683346,0.984144,0.0061939,0.0164294,1644,1618,10.7903,-21.6261
427,-594,10.7845,21.3828,-0.00343268,0.00112237,0.00417407,0.00359984,-0.00591015,1.03514,0.00554434,0.0121367,1651,1618,10.7845,-21.3828
434,-594,10.7616,21.0757,-0.00303255,0.00135502,0.00344292,0.00324368,-0.00492122,1.06906,0.00474706,0.0165868,1658,1618,10.7617,-21.0757
441,-594,10.7424,20.7603,-0.00248469,0.00131126,0.00267634,0.00269431,-0.00386774,1.09382,0.00380874,0.0164172,1665,1618,10.7425,-20.7603
448,-594,10.7577,20.4612,-0.00180235,0.00132515,0.00179672,0.00214331,-0.00262051,1.14349,0.00275499,0.0160671,1672,1618,10.7577,-20.4612
455,-594,10.7664,20.1351,-0.00115015,0.00121488,0.000902622,0.00152001,-0.00145527,1.24481,0.00171791,0.0119517,1679,1618,10.7664,-20.1351
462,-594,10.7725,19.8046,-0.000438471,0.00114113,-7.1722e-05,0.00114438,-0.000441721,-1.52552,0.000945217,0.0127688,1686,1618,10.7725,-19.8046
469,-594,10.7677,19.5188,0.000323794,0.000925601,-0.000999828,0.00166882,-0.000419428,-0.931565,0.00127556,0.0109,1693,1618,10.7677,-19.5188
476,-594,10.7506,19.2133,0.000994161,0.000622213,-0.00183563,0.00265321,-0.00103684,-0.734914,0.00219753,0.0112049,1700,1618,10.7506,-19.2133
483,-594,10.7509,18.8872,0.00166146,0.000684963,-0.00272384,0.00394046,-0.00159404,-0.696715,0.00328968,0.0149122,1707,1618,10.7509,-18.8872
490,-594,10.7362,18.5504,0.00209635,0.000636867,-0.0033729,0.00481755,-0.00208433,-0.678863,0.00408763,0.0131983,1714,1618,10.7362,-18.5505
497,-594,10.7207,18.2194,0.00241401,0.000734318,-0.00398283,0.00564458,-0.00249625,-0.681487,0.00481584,0.00929523,1721,1618,10.7207,-18.2194
504,-594,10.7219,17.8997,0.00245656,0.000762934,-0.0042288,0.0059225,-0.00270301,-0.686581,0.00509426,0.00952173,1728,1618,10.7219,-17.8997
511,-594,10.7314,17.5524,0.00236737,0.000686315,-0.00430662,0.00591472,-0.00286104,-0.689024,0.00516792,0.013187,1735,1618,10.7314,-17.5523
518,-594,10.7041,17.2087,0.00228441,0.000901748,-0.00434764,0.00599534,-0.00280919,-0.706552,0.00519306,0.016882,1742,1618,10.7041,-17.2088
525,-594,10.7258,16.8641,0.00199524,0.00111436,-0.0040913,0.00566973,-0.00256014,-0.731778,0.00486327,0.0296417,1749,1618,10.7258,-16.8641
532,-594,10.8751,16.2129,0.00132051,0.00128262,-0.00321077,0.00451239,-0.00190926,-0.782448,0.00380773,0.0460974,1756,1618,10.8751,-16.2128
539,-594,10.8969,15.7466,0,0,0,0,0,0,0,-1,1763,1618,10.8968,-15.7466
546,-594,7.48645,8.54785,0,0,0,0,0,0,0,-1,1770,1618,7.48639,-8.54789
553,-594,3.69714,5.68762,0,0,0,0,0,0,0,-1,1777,1618,3.69715,-5.68764
560,-594,6.06616,4.44482,0,0,0,0,0,0,0,-1,1784,1618,6.06621,-4.44477
567,-594,5.97266,4.73303,0,0,0,0,0,0,0,-1,1791,1618,5.97271,-4.73309
574,-594,5.9906,4.96326,0,0,0,0,0,0,0,-1,1798,1618,5.99065,-4.96326
581,-594,0,0,0,0,0,0,0,0,0,-1,1805,1618,0,0
588,-594,0,0,0,0,0,0,0,0,0,-1,1812,1618,0,0
595,-594,0,0,0,0,0,0,0,0,0,-1,1819,1618,0,0
602,-594,0,0,0,0,0,0,0,0,0,-1,1826,1618,0,0
609,-594,0,0,0,0,0,0,0,0,0,-1,1833,1618,0,0
616,-594,0,0,0,0,0,0,0,0,0,-1,1840,1618,0,0
623,-594,0,0,0,0,0,0,0,0,0,-1,1847,1618,0,0
630,-594,0,0,0,0,0,0,0,0,0,-1,1854,1618,0,0
637,-594,0,0,0,0,0,0,0,0,0,-1,1861,1618,0,0
644,-594,0,0,0,0,0,0,0,0,0,-1,1868,1618,0,0
651,-594,0,0,0,0,0,0,0,0,0,-1,1875,1618,0,0
658,-594,0,0,0,0,0,0,0,0,0,-1,1882,1618,0,0
665,-594,0,0,0,0,0,0,0,0,0,-1,1889,1618,0,0
672,-594,0,0,0,0,0,0,0,0,0,-1,1896,1618,0,0
679,-594,0,0,0,0,0,0,0,0,0,-1,1903,1618,0,0
686,-594,0,0,0,0,0,0,0,0,0,-1,1910,1618,0,0
693,-594,0,0,0,0,0,0,0,0,0,-1,1917,1618,0,0
700,-594,0,0,0,0,0,0,0,0,0,-1,1924,1618,0,0
707,-594,0,0,0,0,0,0,0,0,0,-1,1931,1618,0,0
714,-594,0,0,0,0,0,0,0,0,0,-1,1938,1618,0,0
721,-594,0,0,0,0,0,0,0,0,0,-1,1945,1618,0,0
728,-594,0,0,0,0,0,0,0,0,0,-1,1952,1618,0,0
735,-594,0,0,0,0,0,0,0,0,0,-1,1959,1618,0,0
742,-594,0,0,0,0,0,0,0,0,0,-1,1966,1618,0,0
749,-594,0,0,0,0,0,0,0,0,0,-1,1973,1618,0,0
756,-594,0,0,0,0,0,0,0,0,0,-1,1980,1618,0,0
763,-594,0,0,0,0,0,0,0,0,0,-1,1987,1618,0,0
770,-594,0,0,0,0,0,0,0,0,0,-1,1994,1618,0,0
777,-594,0,0,0,0,0,0,0,0,0,-1,2001,1618,0,0
784,-594,0,0,0,0,0,0,0,0,0,-1,2008,1618,0,0
791,-594,0,0,0,0,0,0,0,0,0,-1,2015,1618,0,0
798,-594,0,0,0,0,0,0,0,0,0,-1,2022,1618,0,0
805,-594,0,0,0,0,0,0,0,0,0,-1,2029,1618,0,0
812,-594,0,0,0,0,0,0,0,0,0,-1,2036,1618,0,0
-700,-601,0,0,0,0,0,0,0,0,0,-1,524,1625,0,0
-693,-601,0,0,0,0,0,0,0,0,0,-1,531,1625,0,0
-686,-601,0,0,0,0,0,0,0,0,0,-1,538,1625,0,0
-679,-601,0,0,0,0,0,0,0,0,0,-1,545,1625,0,0
-672,-601,0,0,0,0,0,0,0,0,0,-1,552,1625,0,0
-665,-601,0,0,0,0,0,0,0,0,0,-1,559,1625,0,0
-658,-601,0,0,0,0,0,0,0,0,0,-1,566,1625,0,0
-651,-601,0,0,0,0,0,0,0,0,0,-1,573,1625,0,0
-644,-601,0,0,0,0,0,0,0,0,0,-1,580,1625,0,0
-637,-601,0,0,0,0,0,0,0,0,0,-1,587,1625,0,0
-630,-601,0,0,0,0,0,0,0,0,0,-1,594,1625,0,0
-623,-601,0,0,0,0,0,0,0,0,0,-1,601,1625,0,0
-616,-601,0,0,0,0,0,0,0,0,0,-1,608,1625,0,0
-609,-601,0,0,0,0,0,0,0,0,0,-1,615,1625,0,0
-602,-601,0,0,0,0,0,0,0,0,0,-1,622,1625,0,0
-595,-601,0,0,0,0,0,0,0,0,0,-1,629,1625,0,0
-588,-601,0,0,0,0,0,0,0,0,0,-1,636,1625,0,0
-581,-601,0,0,0,0,0,0,0,0,0,-1,643,1625,0,0
-574,-601,0,0,0,0,0,0,0,0,0,-1,650,1625,0,0
-567,-601,0,0,0,0,0,0,0,0,0,-1,657,1625,0,0
-560,-601,0,0,0,0,0,0,0,0,0,-1,664,1625,0,0
-553,-601,0,0,0,0,0,0,0,0,0,-1,671,1625,0,0
-546,-601,0,0,0,0,0,0,0,0,0,-1,678,1625,0,0
-539,-601,0,0,0,0,0,0,0,0,0,-1,685,1625,0,0
-532,-601,0,0,0,0,0,0,0,0,0,-1,692,1625,0,0
-525,-601,0,0,0,0,0,0,0,0,0,-1,699,1625,0,0
-518,-601,0,0,0,0,0,0,0,0,0,-1,706,1625,0,0
-511,-601,0,0,0,0,0,0,0,0,0,-1,713,1625,0,0
-504,-601,0,0,0,0,0,0,0,0,0,-1,720,1625,0,0
-497,-601,0,0,0,0,0,0,0,0,0,-1,727,1625,0,0
-490,-601,0,0,0,0,0,0,0,0,0,-1,734,1625,0,0
-483,-601,0,0,0,0,0,0,0,0,0,-1,741,1625,0,0
-476,-601,0,0,0,0,0,0,0,0,0,-1,748,1625,0,0
-469,-601,0,0,0,0,0,0,0,0,0,-1,755,1625,0,0
-462,-601,0,0,0,0,0,0,0,0,0,-1,762,1625,0,0
-455,-601,0,0,0,0,0,0,0,0,0,-1,769,1625,0,0
-448,-601,-7.07623,2.7616,0,0,0,0,0,0,0,-1,776,1625,-7.07626,-2.76161
-441,-601,-6.06689,3.33447,0,0,0,0,0,0,0,-1,783,1625,-6.06691,-3.33448
-434,-601,-5.02655,3.8468,0,0,0,0,0,0,0,-1,790,1625,-5.02657,-3.84674
-427,-601,-5.78601,4.2406,0,0,0,0,0,0,0,-1,797,1625,-5.786,-4.24058
-420,-601,-5.5191,5.60364,0,0,0,0,0,0,0,-1,804,1625,-5.51907,-5.60368
-413,-601,-4.30756,5.86047,0,0,0,0,0,0,0,-1,811,1625,-4.30757,-5.86046
-406,-601,-1.67493,7.20422,0,0,0,0,0,0,0,-1,818,1625,-1.67493,-7.20428
-399,-601,2.79584,13.8005,0,0,0,0,0,0,0,-1,825,1625,2.79582,-13.8006
-392,-601,2.55585,15.6116,0,0,0,0,0,0,0,-1,832,1625,2.55586,-15.6115
-385,-601,2.56342,15.9961,-0.0054662,-0.000894488,0.00210264,-7.45063e-05,-0.00628618,1.19896,0.00416617,0.0450496,839,1625,2.56344,-15.9961
-378,-601,2.30908,16.49,-0.00392971,-0.000944948,0.00215494,0.000183925,-0.00505858,1.08825,0.00343534,0.0357378,846,1625,2.30907,-16.4899
-371,-601,2.29395,16.7761,-0.00228426,-0.000753962,0.00241419,0.00101343,-0.00405165,0.938859,0.00309473,0.0181639,853,1625,2.29393,-16.7761
-364,-601,2.30042,17.1284,-0.00105411,-0.000705426,0.00227984,0.00140672,-0.00316626,0.82356,0.00270457,0.0113374,860,1625,2.30042,-17.1284
-357,-601,2.27673,17.4896,-8.72088e-05,-0.000658827,0.00220878,0.00185418,-0.00260021,0.721057,0.00258374,0.0100545,867,1625,2.27676,-17.4896
-350,-601,2.27283,17.9003,0.000690356,-0.000353816,0.00206648,0.00229968,-0.00196314,0.661665,0.0024637,0.0196046,874,1625,2.27284,-17.9003
-343,-601,2.24811,18.2749,0.00119252,-4.58711e-05,0.00199771,0.00266479,-0.00151814,0.635117,0.00244508,0.0237081,881,1625,2.24813,-18.275
-336,-601,2.21002,18.5807,0.00157426,0.00036558,0.00198438,0.00304429,-0.00110445,0.637586,0.00248102,0.0206374,888,1625,2.21001,-18.5807
-329,-601,2.22162,18.8955,0.00187815,0.00109736,0.00198958,0.00351528,-0.000539768,0.688519,0.00254261,0.0161012,895,1625,2.22163,-18.8955
-322,-601,2.22943,19.2119,0.00183252,0.00203893,0.00193478,0.00387326,-1.80211e-06,0.812043,0.00258277,0.012711,902,1625,2.22944,-19.212
-315,-601,2.25085,19.5349,0.00161763,0.00289985,0.00188371,0.00424855,0.000268922,0.949422,0.00274712,0.0130035,909,1625,2.25087,-19.5349
-308,-601,2.24445,19.8687,0.00131772,0.00378618,0.00172842,0.0046758,0.000428098,1.09546,0.00298475,0.0118134,916,1625,2.24443,-19.8686
-301,-601,2.26202,20.1943,0.000984418,0.00446145,0.00149786,0.00501772,0.000428153,1.21521,0.00321195,0.0102274,923,1625,2.26199,-20.1943
-294,-601,2.25464,20.5115,0.000618776,0.00528573,0.00124611,0.0055976,0.000306898,1.32555,0.00363376,0.0100472,930,1625,2.25466,-20.5115
-287,-601,2.22467,20.8246,0.000297124,0.00606642,0.000896245,0.00620244,0.000161102,1.42018,0.00408232,0.0101887,937,1625,2.22466,-20.8246
-280,-601,2.24048,21.1556,0.00015896,0.00665598,0.000437982,0.00668537,0.000129567,1.50379,0.00441436,0.012309,944,1625,2.24046,-21.1556
-273,-601,2.23853,21.4993,0.000139141,0.00696123,-0.000145906,0.00696435,0.000136021,-1.54942,0.00459823,0.0138121,951,1625,2.23851,-21.4993
-266,-601,2.26617,21.8041,0.000565458,0.00678896,-0.000561301,0.00683918,0.000515239,-1.48157,0.00439778,0.017306,958,1625,2.26618,-21.8041
-259,-601,2.32336,21.9747,0.00110714,0.00634905,-0.00127381,0.0066422,0.000813991,-1.3446,0.00418328,0.0272428,965,1625,2.32336,-21.9747
-252,-601,2.27582,21.9438,0.0016868,0.00553153,-0.0019784,0.00636771,0.000850621,-1.17092,0.00399192,0.0428143,972,1625,2.27582,-21.9438
-245,-601,2.24664,22.1755,0,0,0,0,0,0,0,-1,979,1625,2.24664,-22.1755
-238,-601,2.33313,22.6254,0,0,0,0,0,0,0,-1,986,1625,2.33316,-22.6254
-231,-601,2.66772,13.7051,0,0,0,0,0,0,0,-1,993,1625,2.6677,-13.7051
-224,-601,-0.0305176,9.13684,0,0,0,0,0,0,0,-1,1000,1625,-0.030498,-9.13681
-217,-601,3.39429,10.3898,0,0,0,0,0,0,0,-1,1007,1625,3.39431,-10.3898
-210,-601,-6.53699,15.7931,0,0,0,0,0,0,0,-1,1014,1625,-6.53697,-15.7931
-203,-601,2.69348,15.9099,0,0,0,0,0,0,0,-1,1021,1625,2.69351,-15.91
-196,-601,2.66992,16.1815,0,0,0,0,0,0,0,-1,1028,1625,2.66995,-16.1815
-189,-601,2.849,16.6105,0,0,0,0,0,0,0,-1,1035,1625,2.84902,-16.6104
-182,-601,1.82153,13.9752,0,0,0,0,0,0,0,-1,1042,1625,1.82155,-13.9752
-175,-601,0.544922,9.28687,0,0,0,0,0,0,0,-1,1049,1625,0.544879,-9.28685
-168,-601,-0.247559,8.97461,0,0,0,0,0,0,0,-1,1056,1625,-0.247598,-8.97466
-161,-601,-1.16833,8.80078,0,0,0,0,0,0,0,-1,1063,1625,-1.16837,-8.80081
-154,-601,1.12756,7.94861,0,0,0,0,0,0,0,-1,1070,1625,1.12762,-7.94855
-147,-601,1.35352,9.55432,0,0,0,0,0,0,0,-1,1077,1625,1.35351,-9.55429
-140,-601,1.72437,11.1498,0,0,0,0,0,0,0,-1,1084,1625,1.72432,-11.1498
-133,-601,2.13281,12.8347,0,0,0,0,0,0,0,-1,1091,1625,2.13287,-12.8348
-126,-601,3.09534,15.427,0,0,0,0,0,0,0,-1,1098,1625,3.0953,-15.4271
-119,-601,1.22485,9.43457,0,0,0,0,0,0,0,-1,1105,1625,1.22489,-9.43456
-112,-601,0,0,0,0,0,0,0,0,0,-1,1112,1625,0,0
-105,-601,0,0,0,0,0,0,0,0,0,-1,1119,1625,0,0
-98,-601,0,0,0,0,0,0,0,0,0,-1,1126,1625,0,0
-91,-601,0,0,0,0,0,0,0,0,0,-1,1133,1625,0,0
-84,-601,0,0,0,0,0,0,0,0,0,-1,1140,1625,0,0
-77,-601,0,0,0,0,0,0,0,0,0,-1,1147,1625,0,0
-70,-601,0,0,0,0,0,0,0,0,0,-1,1154,1625,0,0
-63,-601,0,0,0,0,0,0,0,0,0,-1,1161,1625,0,0
-56,-601,0,0,0,0,0,0,0,0,0,-1,1168,1625,0,0
-49,-601,0,0,0,0,0,0,0,0,0,-1,1175,1625,0,0
-42,-601,0,0,0,0,0,0,0,0,0,-1,1182,1625,0,0
-35,-601,0,0,0,0,0,0,0,0,0,-1,1189,1625,0,0
-28,-601,0,0,0,0,0,0,0,0,0,-1,1196,1625,0,0
-21,-601,0,0,0,0,0,0,0,0,0,-1,1203,1625,0,0
-14,-601,0,0,0,0,0,0,0,0,0,-1,1210,1625,0,0
-7,-601,0,0,0,0,0,0,0,0,0,-1,1217,1625,0,0
0,-601,0,0,0,0,0,0,0,0,0,-1,1224,1625,0,0
7,-601,0,0,0,0,0,0,0,0,0,-1,1231,1625,0,0
14,-601,0,0,0,0,0,0,0,0,0,-1,1238,1625,0,0
21,-601,0,0,0,0,0,0,0,0,0,-1,1245,1625,0,0
28,-601,0,0,0,0,0,0,0,0,0,-1,1252,1625,0,0
35,-601,0,0,0,0,0,0,0,0,0,-1,1259,1625,0,0
42,-601,0,0,0,0,0,0,0,0,0,-1,1266,1625,0,0
49,-601,0,0,0,0,0,0,0,0,0,-1,1273,1625,0,0
56,-601,0,0,0,0,0,0,0,0,0,-1,1280,1625,0,0
63,-601,0,0,0,0,0,0,0,0,0,-1,1287,1625,0,0
70,-601,0,0,0,0,0,0,0,0,0,-1,1294,1625,0,0
77,-601,0,0,0,0,0,0,0,0,0,-1,1301,1625,0,0
84,-601,0,0,0,0,0,0,0,0,0,-1,1308,1625,0,0
91,-601,0,0,0,0,0,0,0,0,0,-1,1315,1625,0,0
98,-601,0,0,0,0,0,0,0,0,0,-1,1322,1625,0,0
105,-601,0,0,0,0,0,0,0,0,0,-1,1329,1625,0,0
112,-601,0,0,0,0,0,0,0,0,0,-1,1336,1625,0,0
119,-601,0,0,0,0,0,0,0,0,0,-1,1343,1625,0,0
126,-601,0,0,0,0,0,0,0,0,0,-1,1350,1625,0,0
133,-601,0,0,0,0,0,0,0,0,0,-1,1357,1625,0,0
140,-601,0,0,0,0,0,0,0,0,0,-1,1364,1625,0,0
147,-601,0,0,0,0,0,0,0,0,0,-1,1371,1625,0,0
154,-601,0,0,0,0,0,0,0,0,0,-1,1378,1625,0,0
161,-601,0,0,0,0,0,0,0,0,0,-1,1385,1625,0,0
168,-601,0,0,0,0,0,0,0,0,0,-1,1392,1625,0,0
175,-601,0,0,0,0,0,0,0,0,0,-1,1399,1625,0,0
182,-601,0,0,0,0,0,0,0,0,0,-1,1406,1625,0,0
189,-601,0,0,0,0,0,0,0,0,0,-1,1413,1625,0,0
196,-601,0,0,0,0,0,0,0,0,0,-1,1420,1625,0,0
203,-601,0,0,0,0,0,0,0,0,0,-1,1427,1625,0,0
210,-601,0,0,0,0,0,0,0,0,0,-1,1434,1625,0,0
217,-601,0,0,0,0,0,0,0,0,0,-1,1441,1625,0,0
224,-601,0,0,0,0,0,0,0,0,0,-1,1448,1625,0,0
231,-601,-0.0371094,0.525879,0,0,0,0,0,0,0,-1,1455,1625,-0.0371518,-0.525824
238,-601,2.03369,-1.32861,0,0,0,0,0,0,0,-1,1462,1625,2.03364,1.32858
245,-601,2.71375,2.44983,0,0,0,0,0,0,0,-1,1469,1625,2.71371,-2.44979
252,-601,4.66943,2.28381,0,0,0,0,0,0,0,-1,1476,1625,4.66947,-2.28376
259,-601,6.42712,2.61987,0,0,0,0,0,0,0,-1,1483,1625,6.42711,-2.61985
266,-601,6.75317,1.68701,0,0,0,0,0,0,0,-1,1490,1625,6.75323,-1.687
273,-601,5.4314,2.92053,0,0,0,0,0,0,0,-1,1497,1625,5.43144,-2.92051
280,-601,4.64722,1.17786,0,0,0,0,0,0,0,-1,1504,1625,4.64722,-1.1779
287,-601,5.32532,2.6217,0,0,0,0,0,0,0,-1,1511,1625,5.32535,-2.62171
294,-601,5.97693,4.22693,0,0,0,0,0,0,0,-1,1518,1625,5.97697,-4.22694
301,-601,7.28162,9.50024,0,0,0,0,0,0,0,-1,1525,1625,7.28162,-9.50025
308,-601,6.53528,10.3927,0,0,0,0,0,0,0,-1,1532,1625,6.53529,-10.3927
315,-601,4.88013,11.7184,0,0,0,0,0,0,0,-1,1539,1625,4.88015,-11.7184
322,-601,3.38098,12.7864,0,0,0,0,0,0,0,-1,1546,1625,3.38104,-12.7864
329,-601,1.8772,13.8768,0,0,0,0,0,0,0,-1,1553,1625,1.87716,-13.8768
336,-601,4.67847,9.53308,0,0,0,0,0,0,0,-1,1560,1625,4.67848,-9.53309
343,-601,11.1404,3.14575,0,0,0,0,0,0,0,-1,1567,1625,11.1404,-3.1458
350,-601,10.9462,2.37769,0,0,0,0,0,0,0,-1,1574,1625,10.9461,-2.37764
357,-601,10.7518,1.6095,0,0,0,0,0,0,0,-1,1581,1625,10.7518,-1.60948
364,-601,5.33643,9.74426,0,0,0,0,0,0,0,-1,1588,1625,5.33637,-9.74429
371,-601,8.46387,16.2725,0,0,0,0,0,0,0,-1,1595,1625,8.46385,-16.2725
378,-601,10.0146,23.8622,0,0,0,0,0,0,0,-1,1602,1625,10.0147,-23.8621
385,-601,10.2832,23.3749,0,0,0,0,0,0,0,-1,1609,1625,10.2833,-23.3748
392,-601,10.4034,22.7877,5.61261e-05,0.000986074,0.00381978,0.00436908,-0.00332688,0.845964,0.00445682,0.0410596,1616,1625,10.4035,-22.7877
399,-601,10.3716,22.4648,-0.000572028,0.000438597,0.00407427,0.00403877,-0.0041722,0.847096,0.00474082,0.0216666,1623,1625,10.3716,-22.4648
406,-601,10.4476,22.2034,-0.00119755,0.000376397,0.00391438,0.00358213,-0.00440328,0.884599,0.00461849,0.0127604,1630,1625,10.4477,-22.2034
413,-601,10.4637,21.9167,-0.00166841,0.000519471,0.00368142,0.00326604,-0.00441498,0.929819,0.00445115,0.0112771,1637,1625,10.4637,-21.9168
420,-601,10.4513,21.6383,-0.0019337,0.000580278,0.00339526,0.00294376,-0.00429718,0.962684,0.00420483,0.0100741,1644,1625,10.4513,-21.6383
427,-601,10.46,21.3638,-0.00194964,0.000788099,0.00296017,0.00268058,-0.00384213,1.00197,0.00378574,0.0138522,1651,1625,10.46,-21.3638
434,-601,10.4835,21.0461,-0.00174167,0.000680827,0.00240369,0.00216121,-0.00322205,1.01878,0.00312808,0.0156686,1658,1625,10.4835,-21.0461
441,-601,10.4865,20.7233,-0.00139775,0.000460178,0.00176106,0.00152227,-0.00245984,1.0281,0.00232022,0.0171434,1665,1625,10.4864,-20.7232
448,-601,10.4551,20.4463,-0.000875541,0.000297718,0.000965015,0.000840419,-0.00141824,1.0585,0.00131819,0.0141429,1672,1625,10.455,-20.4462
455,-601,10.4645,20.1201,-0.000344356,1.29525e-06,0.000115758,3.64806e-05,-0.000379541,1.27571,0.000266023,0.0126526,1679,1625,10.4645,-20.1202
462,-601,10.4579,19.808,0.000284632,-0.000263666,-0.000856867,0.000910138,-0.000889171,-0.630572,0.00103886,0.0108708,1686,1625,10.4578,-19.808
469,-601,10.4498,19.5393,0.000997382,-0.00058501,-0.00186682,0.00223375,-0.00182138,-0.584963,0.00234526,0.0102722,1693,1625,10.4498,-19.5393
476,-601,10.4355,19.2234,0.00166723,-0.000897191,-0.00286198,0.0035211,-0.00275106,-0.574797,0.00363032,0.0126404,1700,1625,10.4355,-19.2234
483,-601,10.4299,18.8873,0.0023182,-0.000742897,-0.00394436,0.00501856,-0.00344325,-0.600323,0.00491357,0.0162207,1707,1625,10.43,-18.8874
490,-601,10.4236,18.5638,0.00278049,-0.00065375,-0.00486993,0.00622715,-0.00410042,-0.615905,0.00600462,0.0120146,1714,1625,10.4236,-18.5638
497,-601,10.4172,18.229,0.00317844,-0.000303543,-0.00576658,0.00746112,-0.00458621,-0.638794,0.00702123,0.0102013,1721,1625,10.4172,-18.229
504,-601,10.4519,17.8865,0.00331583,-9.11974e-06,-0.00633098,0.00819898,-0.00489227,-0.657,0.00763818,0.0172125,1728,1625,10.4519,-17.8864
511,-601,10.4087,17.615,0.003317,0.000381151,-0.00681513,0.0088205,-0.00512235,-0.679323,0.00814374,0.0282202,1735,1625,10.4086,-17.615
518,-601,10.4473,17.2162,0.0032946,0.00115439,-0.00719971,0.00950329,-0.0050543,-0.711622,0.00853466,0.0408656,1742,1625,10.4473,-17.2162
525,-601,10.5072,16.8588,0,0,0,0,0,0,0,-1,1749,1625,10.5072,-16.8588
532,-601,10.74,15.9502,0,0,0,0,0,0,0,-1,1756,1625,10.7399,-15.9502
539,-601,7.77112,11.4299,0,0,0,0,0,0,0,-1,1763,1625,7.77116,-11.4299
546,-601,6.56873,3.62354,0,0,0,0,0,0,0,-1,1770,1625,6.56867,-3.62352
553,-601,7.03015,4.25049,0,0,0,0,0,0,0,-1,1777,1625,7.03011,-4.25048
560,-601,7.50745,4.83374,0,0,0,0,0,0,0,-1,1784,1625,7.50744,-4.83376
567,-601,7.82043,3.83301,0,0,0,0,0,0,0,-1,1791,1625,7.82041,-3.83303
574,-601,0,0,0,0,0,0,0,0,0,-1,1798,1625,0,0
581,-601,0,0,0,0,0,0,0,0,0,-1,1805,1625,0,0
588,-601,0,0,0,0,0,0,0,0,0,-1,1812,1625,0,0
595,-601,0,0,0,0,0,0,0,0,0,-1,1819,1625,0,0
602,-601,0,0,0,0,0,0,0,0,0,-1,1826,1625,0,0
609,-601,0,0,0,0,0,0,0,0,0,-1,1833,1625,0,0
616,-601,0,0,0,0,0,0,0,0,0,-1,1840,1625,0,0
623,-601,0,0,0,0,0,0,0,0,0,-1,1847,1625,0,0
630,-601,0,0,0,0,0,0,0,0,0,-1,1854,1625,0,0
637,-601,0,0,0,0,0,0,0,0,0,-1,1861,1625,0,0
644,-601,0,0,0,0,0,0,0,0,0,-1,1868,1625,0,0
651,-601,0,0,0,0,0,0,0,0,0,-1,1875,1625,0,0
658,-601,0,0,0,0,0,0,0,0,0,-1,1882,1625,0,0
665,-601,0,0,0,0,0,0,0,0,0,-1,1889,1625,0,0
672,-601,0,0,0,0,0,0,0,0,0,-1,1896,1625,0,0
679,-601,0,0,0,0,0,0,0,0,0,-1,1903,1625,0,0
686,-601,0,0,0,0,0,0,0,0,0,-1,1910,1625,0,0
693,-601,0,0,0,0,0,0,0,0,0,-1,1917,1625,0,0
700,-601,0,0,0,0,0,0,0,0,0,-1,1924,1625,0,0
707,-601,0,0,0,0,0,0,0,0,0,-1,1931,1625,0,0
714,-601,0,0,0,0,0,0,0,0,0,-1,1938,1625,0,0
721,-601,0,0,0,0,0,0,0,0,0,-1,1945,1625,0,0
728,-601,0,0,0,0,0,0,0,0,0,-1,1952,1625,0,0
735,-601,0,0,0,0,0,0,0,0,0,-1,1959,1625,0,0
742,-601,0,0,0,0,0,0,0,0,0,-1,1966,1625,0,0
749,-601,0,0,0,0,0,0,0,0,0,-1,1973,1625,0,0
756,-601,0,0,0,0,0,0,0,0,0,-1,1980,1625,0,0
763,-601,0,0,0,0,0,0,0,0,0,-1,1987,1625,0,0
770,-601,0,0,0,0,0,0,0,0,0,-1,1994,1625,0,0
777,-601,0,0,0,0,0,0,0,0,0,-1,2001,1625,0,0
784,-601,0,0,0,0,0,0,0,0,0,-1,2008,1625,0,0
791,-601,0,0,0,0,0,0,0,0,0,-1,2015,1625,0,0
798,-601,0,0,0,0,0,0,0,0,0,-1,2022,1625,0,0
805,-601,0,0,0,0,0,0,0,0,0,-1,2029,1625,0,0
812,-601,0,0,0,0,0,0,0,0,0,-1,2036,1625,0,0
-700,-608,0,0,0,0,0,0,0,0,0,-1,524,1632,0,0
-693,-608,0,0,0,0,0,0,0,0,0,-1,531,1632,0,0
-686,-608,0,0,0,0,0,0,0,0,0,-1,538,1632,0,0
-679,-608,0,0,0,0,0,0,0,0,0,-1,545,1632,0,0
-672,-608,0,0,0,0,0,0,0,0,0,-1,552,1632,0,0
-665,-608,0,0,0,0,0,0,0,0,0,-1,559,1632,0,0
-658,-608,0,0,0,0,0,0,0,0,0,-1,566,1632,0,0
-651,-608,0,0,0,0,0,0,0,0,0,-1,573,1632,0,0
-644,-608,0,0,0,0,0,0,0,0,0,-1,580,1632,0,0
-637,-608,0,0,0,0,0,0,0,0,0,-1,587,1632,0,0
-630,-608,0,0,0,0,0,0,0,0,0,-1,594,1632,0,0
-623,-608,0,0,0,0,0,0,0,0,0,-1,601,1632,0,0
-616,-608,0,0,0,0,0,0,0,0,0,-1,608,1632,0,0
-609,-608,0,0,0,0,0,0,0,0,0,-1,615,1632,0,0
-602,-608,0,0,0,0,0,0,0,0,0,-1,622,1632,0,0
-595,-608,0,0,0,0,0,0,0,0,0,-1,629,1632,0,0
-588,-608,0,0,0,0,0,0,0,0,0,-1,636,1632,0,0
-581,-608,0,0,0,0,0,0,0,0,0,-1,643,1632,0,0
-574,-608,0,0,0,0,0,0,0,0,0,-1,650,1632,0,0
-567,-608,0,0,0,0,0,0,0,0,0,-1,657,1632,0,0
-560,-608,0,0,0,0,0,0,0,0,0,-1,664,1632,0,0
-553,-608,0,0,0,0,0,0,0,0,0,-1,671,1632,0,0
-546,-608,0,0,0,0,0,0,0,0,0,-1,678,1632,0,0
-539,-608,0,0,0,0,0,0,0,0,0,-1,685,1632,0,0
-532,-608,0,0,0,0,0,0,0,0,0,-1,692,1632,0,0
-525,-608,0,0,0,0,0,0,0,0,0,-1,699,1632,0,0
-518,-608,0,0,0,0,0,0,0,0,0,-1,706,1632,0,0
-511,-608,0,0,0,0,0,0,0,0,0,-1,713,1632,0,0
-504,-608,0,0,0,0,0,0,0,0,0,-1,720,1632,0,0
-497,-608,0,0,0,0,0,0,0,0,0,-1,727,1632,0,0
-490,-608,0,0,0,0,0,0,0,0,0,-1,734,1632,0,0
-483,-608,0,0,0,0,0,0,0,0,0,-1,741,1632,0,0
-476,-608,0,0,0,0,0,0,0,0,0,-1,748,1632,0,0
-469,-608,0,0,0,0,0,0,0,0,0,-1,755,1632,0,0
-462,-608,0,0,0,0,0,0,0,0,0,-1,762,1632,0,0
-455,-608,0,0,0,0,0,0,0,0,0,-1,769,1632,0,0
-448,-608,0,0,0,0,0,0,0,0,0,-1,776,1632,0,0
-441,-608,-7.34601,2.78052,0,0,0,0,0,0,0,-1,783,1632,-7.346,-2.78056
-434,-608,-6.34558,3.27405,0,0,0,0,0,0,0,-1,790,1632,-6.34555,-3.27406
-427,-608,-7.74335,4.17688,0,0,0,0,0,0,0,-1,797,1632,-7.74334,-4.17693
-420,-608,-6.82794,4.34839,0,0,0,0,0,0,0,-1,804,1632,-6.82794,-4.34838
-413,-608,-5.41919,5.66138,0,0,0,0,0,0,0,-1,811,1632,-5.41917,-5.66133
-406,-608,-4.79681,4.98999,0,0,0,0,0,0,0,-1,818,1632,-4.79684,-4.98997
-399,-608,-2.60645,6.34167,0,0,0,0,0,0,0,-1,825,1632,-2.60643,-6.34169
-392,-608,2.57404,14.4753,0,0,0,0,0,0,0,-1,832,1632,2.57402,-14.4753
-385,-608,2.93256,15.9919,0,0,0,0,0,0,0,-1,839,1632,2.93254,-15.9919
-378,-608,2.64923,16.5524,0,0,0,0,0,0,0,-1,846,1632,2.64923,-16.5524
-371,-608,2.76831,16.6512,0,0,0,0,0,0,0,-1,853,1632,2.76832,-16.6513
-364,-608,2.68115,17.0321,2.02168e-05,-0.000262441,0.00363902,0.00352065,-0.00376288,0.765989,0.00420592,0.0254456,860,1632,2.68112,-17.0321
-357,-608,2.60223,17.4384,0.00116608,-0.000110707,0.00358698,0.00417103,-0.00311566,0.697333,0.00422165,0.0187115,867,1632,2.60226,-17.4383
-350,-608,2.60815,17.8483,0.00205249,0.000279769,0.00341159,0.00469098,-0.00235872,0.658304,0.00414373,0.0189332,874,1632,2.60817,-17.8483
-343,-608,2.61035,18.23,0.00261932,0.000627058,0.00324312,0.00501584,-0.00176947,0.636396,0.00406421,0.0255374,881,1632,2.61032,-18.23
-336,-608,2.59937,18.5775,0.00299473,0.000983712,0.0031019,0.00525002,-0.00127158,0.628662,0.00399196,0.01782,888,1632,2.59936,-18.5775
-329,-608,2.56451,18.9243,0.0032615,0.00150314,0.00296753,0.00547735,-0.0007127,0.641384,0.00391084,0.0149408,895,1632,2.56448,-18.9244
-322,-608,2.54022,19.2363,0.00310892,0.00224822,0.00276158,0.00547348,-0.000116341,0.708103,0.00368838,0.0141939,902,1632,2.54022,-19.2364
-315,-608,2.57867,19.5515,0.00271385,0.00287401,0.00252289,0.00531809,0.00026977,0.801264,0.00345898,0.013446,909,1632,2.57867,-19.5515
-308,-608,2.58167,19.886,0.00223188,0.00344206,0.00214475,0.00506544,0.000608501,0.922887,0.00319351,0.0143514,916,1632,2.58169,-19.886
-301,-608,2.58057,20.2029,0.00172796,0.0038272,0.00172545,0.0047972,0.000757954,1.05865,0.00297781,0.0113204,923,1632,2.58057,-20.2028
-294,-608,2.58331,20.5049,0.00121017,0.00425514,0.00128331,0.00472385,0.000741466,1.22062,0.00293348,0.0108695,930,1632,2.58334,-20.5049
-287,-608,2.54547,20.8147,0.000756361,0.0046426,0.000792208,0.00479788,0.000601075,1.37723,0.00301825,0.00981509,937,1632,2.54547,-20.8147
-280,-608,2.55646,21.1215,0.000521092,0.00486317,0.000255567,0.00487816,0.000506102,1.51221,0.00309722,0.00790001,944,1632,2.55647,-21.1214
-273,-608,2.55884,21.4387,0.000462894,0.00483938,-0.000335444,0.00486494,0.000437332,-1.49474,0.00310779,0.00897402,951,1632,2.55881,-21.4387
-266,-608,2.57996,21.7765,0.0008782,0.00455989,-0.000693346,0.00468613,0.000751956,-1.39069,0.00290605,0.00954453,958,1632,2.57993,-21.7765
-259,-608,2.62964,22.0583,0.00146525,0.00421964,-0.00114354,0.00463251,0.00105238,-1.22431,0.00280416,0.0119435,965,1632,2.62963,-22.0583
-252,-608,2.66754,22.3062,0.00216361,0.00366266,-0.00155311,0.00463764,0.00118863,-1.01021,0.00278154,0.0236749,972,1632,2.66751,-22.3061
-245,-608,2.65466,22.7069,0,0,0,0,0,0,0,-1,979,1632,2.65466,-22.7069
-238,-608,2.59772,23.0922,0,0,0,0,0,0,0,-1,986,1632,2.5977,-23.0922
-231,-608,2.72369,23.3044,0,0,0,0,0,0,0,-1,993,1632,2.72368,-23.3045
-224,-608,2.51642,15.3452,0,0,0,0,0,0,0,-1,1000,1632,2.5164,-15.3452
-217,-608,1.04419,12.8451,0,0,0,0,0,0,0,-1,1007,1632,1.04418,-12.8451
-210,-608,2.75903,15.9414,0,0,0,0,0,0,0,-1,1014,1632,2.75903,-15.9414
-203,-608,2.76776,16.217,0,0,0,0,0,0,0,-1,1021,1632,2.76773,-16.217
-196,-608,1.53955,18.6058,0,0,0,0,0,0,0,-1,1028,1632,1.53959,-18.6058
-189,-608,1.37634,19.119,0,0,0,0,0,0,0,-1,1035,1632,1.37634,-19.1191
-182,-608,2.89221,16.7092,0,0,0,0,0,0,0,-1,1042,1632,2.89224,-16.7093
-175,-608,0.219116,15.1643,0,0,0,0,0,0,0,-1,1049,1632,0.219173,-15.1644
-168,-608,0.000366211,9.48645,0,0,0,0,0,0,0,-1,1056,1632,0.000317105,-9.48648
-161,-608,2.27832,15.4423,0,0,0,0,0,0,0,-1,1063,1632,2.27826,-15.4423
-154,-608,1.3999,16.4037,0,0,0,0,0,0,0,-1,1070,1632,1.39987,-16.4037
-147,-608,2.4386,9.50317,0,0,0,0,0,0,0,-1,1077,1632,2.43858,-9.50313
-140,-608,2.60132,10.8401,0,0,0,0,0,0,0,-1,1084,1632,2.60134,-10.8401
-133,-608,3.2312,12.4738,0,0,0,0,0,0,0,-1,1091,1632,3.23116,-12.4738
-126,-608,3.76465,13.9644,0,0,0,0,0,0,0,-1,1098,1632,3.76466,-13.9644
-119,-608,4.28906,15.4196,0,0,0,0,0,0,0,-1,1105,1632,4.28911,-15.4195
-112,-608,0.745117,10.5587,0,0,0,0,0,0,0,-1,1112,1632,0.745145,-10.5587
-105,-608,-0.252319,1.42419,0,0,0,0,0,0,0,-1,1119,1632,-0.252331,-1.42418
-98,-608,-2.8595,3.0863,0,0,0,0,0,0,0,-1,1126,1632,-2.85948,-3.08625
-91,-608,-3.71948,1.73608,0,0,0,0,0,0,0,-1,1133,1632,-3.7195,-1.73607
-84,-608,0,0,0,0,0,0,0,0,0,-1,1140,1632,0,0
-77,-608,0,0,0,0,0,0,0,0,0,-1,1147,1632,0,0
-70,-608,0,0,0,0,0,0,0,0,0,-1,1154,1632,0,0
-63,-608,0,0,0,0,0,0,0,0,0,-1,1161,1632,0,0
-56,-608,0,0,0,0,0,0,0,0,0,-1,1168,1632,0,0
-49,-608,0,0,0,0,0,0,0,0,0,-1,1175,1632,0,0
-42,-608,0,0,0,0,0,0,0,0,0,-1,1182,1632,0,0
-35,-608,0,0,0,0,0,0,0,0,0,-1,1189,1632,0,0
-28,-608,0,0,0,0,0,0,0,0,0,-1,1196,1632,0,0
-21,-608,0,0,0,0,0,0,0,0,0,-1,1203,1632,0,0
-14,-608,0,0,0,0,0,0,0,0,0,-1,1210,1632,0,0
-7,-608,0,0,0,0,0,0,0,0,0,-1,1217,1632,0,0
0,-608,0,0,0,0,0,0,0,0,0,-1,1224,1632,0,0
7,-608,0,0,0,0,0,0,0,0,0,-1,1231,1632,0,0
14,-608,0,0,0,0,0,0,0,0,0,-1,1238,1632,0,0
21,-608,0,0,0,0,0,0,0,0,0,-1,1245,1632,0,0
28,-608,0,0,0,0,0,0,0,0,0,-1,1252,1632,0,0
35,-608,0,0,0,0,0,0,0,0,0,-1,1259,1632,0,0
42,-608,0,0,0,0,0,0,0,0,0,-1,1266,1632,0,0
49,-608,0,0,0,0,0,0,0,0,0,-1,1273,1632,0,0
56,-608,0,0,0,0,0,0,0,0,0,-1,1280,1632,0,0
63,-608,0,0,0,0,0,0,0,0,0,-1,1287,1632,0,0
70,-608,0,0,0,0,0,0,0,0,0,-1,1294,1632,0,0
77,-608,0,0,0,0,0,0,0,0,0,-1,1301,1632,0,0
84,-608,0,0,0,0,0,0,0,0,0,-1,1308,1632,0,0
91,-608,0,0,0,0,0,0,0,0,0,-1,1315,1632,0,0
98,-608,0,0,0,0,0,0,0,0,0,-1,1322,1632,0,0
105,-608,0,0,0,0,0,0,0,0,0,-1,1329,1632,0,0
112,-608,0,0,0,0,0,0,0,0,0,-1,1336,1632,0,0
119,-608,0,0,0,0,0,0,0,0,0,-1,1343,1632,0,0
126,-608,0,0,0,0,0,0,0,0,0,-1,1350,1632,0,0
133,-608,0,0,0,0,0,0,0,0,0,-1,1357,1632,0,0
140,-608,0,0,0,0,0,0,0,0,0,-1,1364,1632,0,0
147,-608,0,0,0,0,0,0,0,0,0,-1,1371,1632,0,0
154,-608,0,0,0,0,0,0,0,0,0,-1,1378,1632,0,0
161,-608,0,0,0,0,0,0,0,0,0,-1,1385,1632,0,0
168,-608,0,0,0,0,0,0,0,0,0,-1,1392,1632,0,0
175,-608,0,0,0,0,0,0,0,0,0,-1,1399,1632,0,0
182,-608,0,0,0,0,0,0,0,0,0,-1,1406,1632,0,0
189,-608,0,0,0,0,0,0,0,0,0,-1,1413,1632,0,0
196,-608,0,0,0,0,0,0,0,0,0,-1,1420,1632,0,0
203,-608,0,0,0,0,0,0,0,0,0,-1,1427,1632,0,0
210,-608,5.7157,-0.333008,0,0,0,0,0,0,0,-1,1434,1632,5.71566,0.333004
217,-608,4.49402,-0.831787,0,0,0,0,0,0,0,-1,1441,1632,4.49396,0.831738
224,-608,4.18018,-1.11792,0,0,0,0,0,0,0,-1,1448,1632,4.1802,1.11796
231,-608,0.361816,0.825195,0,0,0,0,0,0,0,-1,1455,1632,0.36185,-0.825226
238,-608,2.85388,-0.28833,0,0,0,0,0,0,0,-1,1462,1632,2.85391,0.288282
245,-608,3.87537,4.02173,0,0,0,0,0,0,0,-1,1469,1632,3.87538,-4.02168
252,-608,5.66956,3.5282,0,0,0,0,0,0,0,-1,1476,1632,5.6696,-3.52815
259,-608,7.47437,3.07178,0,0,0,0,0,0,0,-1,1483,1632,7.4744,-3.07172
266,-608,9.46936,2.34766,0,0,0,0,0,0,0,-1,1490,1632,9.46932,-2.34764
273,-608,6.03003,3.34241,0,0,0,0,0,0,0,-1,1497,1632,6.02997,-3.34245
280,-608,5.72461,2.0769,0,0,0,0,0,0,0,-1,1504,1632,5.72457,-2.07688
287,-608,6.20581,3.59338,0,0,0,0,0,0,0,-1,1511,1632,6.20585,-3.59341
294,-608,6.94922,5.17151,0,0,0,0,0,0,0,-1,1518,1632,6.94925,-5.17151
301,-608,7.60083,6.68018,0,0,0,0,0,0,0,-1,1525,1632,7.60086,-6.68013
308,-608,7.64746,9.93848,0,0,0,0,0,0,0,-1,1532,1632,7.64745,-9.93842
315,-608,5.30688,11.2054,0,0,0,0,0,0,0,-1,1539,1632,5.30694,-11.2054
322,-608,5.32617,13.7581,0,0,0,0,0,0,0,-1,1546,1632,5.32613,-13.758
329,-608,7.12231,13.9607,0,0,0,0,0,0,0,-1,1553,1632,7.12231,-13.9607
336,-608,5.48633,7.82446,0,0,0,0,0,0,0,-1,1560,1632,5.48634,-7.82446
343,-608,5.47192,5.61047,0,0,0,0,0,0,0,-1,1567,1632,5.47192,-5.61045
350,-608,11.6957,1.71387,0,0,0,0,0,0,0,-1,1574,1632,11.6957,-1.71388
357,-608,3.77002,5.10046,0,0,0,0,0,0,0,-1,1581,1632,3.77002,-5.10043
364,-608,5.6925,11.2163,0,0,0,0,0,0,0,-1,1588,1632,5.69255,-11.2163
371,-608,9.55713,24.6576,0,0,0,0,0,0,0,-1,1595,1632,9.55712,-24.6575
378,-608,9.9165,23.5687,0,0,0,0,0,0,0,-1,1602,1632,9.91655,-23.5687
385,-608,10.0742,23.1744,0.00125553,0.00224244,0.00218686,0.00399083,-0.000492856,0.896362,0.00283913,0.035194,1609,1632,10.0742,-23.1745
392,-608,10.098,22.8307,0.000595924,0.00134126,0.00252732,0.00352325,-0.00158606,0.858599,0.00301971,0.0240083,1616,1632,10.098,-22.8307
399,-608,10.1256,22.4796,0.000132392,0.000864867,0.00270066,0.00322401,-0.00222676,0.852792,0.00316451,0.0113467,1623,1632,10.1257,-22.4796
406,-608,10.1714,22.2015,-0.00035461,0.000688078,0.00261487,0.00283307,-0.0024996,0.883796,0.00308082,0.00910329,1630,1632,10.1714,-22.2016
413,-608,10.1595,21.9252,-0.000741824,0.000643818,0.00249123,0.00253677,-0.00263478,0.921023,0.00298597,0.0097076,1637,1632,10.1596,-21.9251
420,-608,10.151,21.621,-0.00095884,0.000448051,0.0023604,0.0022076,-0.00271839,0.930218,0.00284911,0.0165921,1644,1632,10.151,-21.621
427,-608,10.155,21.3312,-0.000957917,0.00025156,0.00206233,0.00179599,-0.00250234,0.928016,0.00249279,0.0181994,1651,1632,10.1551,-21.3312
434,-608,10.1545,21.0331,-0.00078509,-0.000112393,0.00156492,0.00115192,-0.0020494,0.891253,0.00187234,0.0156193,1658,1632,10.1545,-21.0331
441,-608,10.1548,20.7449,-0.000507903,-0.000469444,0.000922446,0.000433972,-0.00141132,0.79582,0.00111408,0.0133463,1665,1632,10.1548,-20.7449
448,-608,10.1687,20.4473,-1.77139e-05,-0.000791815,0.00011375,-1.34498e-06,-0.000808184,0.142921,0.000538341,0.01419,1672,1632,10.1687,-20.4473
455,-608,10.1808,20.1395,0.000495308,-0.0012756,-0.00078419,0.000792639,-0.00157294,-0.362411,0.00139031,0.0111335,1679,1632,10.1808,-20.1396
462,-608,10.1631,19.8458,0.00111603,-0.00173664,-0.00184911,0.002025,-0.00264561,-0.456882,0.0027045,0.0106566,1686,1632,10.1631,-19.8458
469,-608,10.1355,19.5544,0.00183211,-0.00217451,-0.00303973,0.0034693,-0.0038117,-0.494046,0.00420524,0.00808228,1693,1632,10.1356,-19.5544
476,-608,10.1185,19.2323,0.00253847,-0.00250514,-0.00430246,0.00500372,-0.00497039,-0.520319,0.00575857,0.00805266,1700,1632,10.1185,-19.2323
483,-608,10.1118,18.8972,0.00320585,-0.00228778,-0.00569772,0.00678431,-0.00586624,-0.560789,0.0073102,0.00802878,1707,1632,10.1118,-18.8972
490,-608,10.1226,18.5797,0.00372103,-0.00206467,-0.00703932,0.00843874,-0.00678238,-0.590441,0.00880525,0.00860796,1714,1632,10.1226,-18.5797
497,-608,10.153,18.2407,0.00422552,-0.00143052,-0.00837209,0.0102343,-0.00743933,-0.622519,0.0102463,0.0174506,1721,1632,10.153,-18.2407
504,-608,10.1117,17.9473,0.00450913,-0.000816849,-0.00942517,0.0116403,-0.00794801,-0.647717,0.0113761,0.0404175,1728,1632,10.1117,-17.9473
511,-608,10.1249,17.6925,0.00467211,0.000126928,-0.0104983,0.0131409,-0.00834191,-0.678806,0.0125059,0.0484054,1735,1632,10.1249,-17.6926
518,-608,10.1068,17.4066,0,0,0,0,0,0,0,-1,1742,1632,10.1068,-17.4066
525,-608,10.4341,15.9818,0,0,0,0,0,0,0,-1,1749,1632,10.434,-15.9818
532,-608,8.27917,11.6693,0,0,0,0,0,0,0,-1,1756,1632,8.27919,-11.6694
539,-608,9.40796,1.43457,0,0,0,0,0,0,0,-1,1763,1632,9.40801,-1.43463
546,-608,9.94031,2.1134,0,0,0,0,0,0,0,-1,1770,1632,9.94031,-2.11346
553,-608,10.363,2.81335,0,0,0,0,0,0,0,-1,1777,1632,10.3631,-2.81333
560,-608,9.23999,4.5636,0,0,0,0,0,0,0,-1,1784,1632,9.24,-4.56354
567,-608,0,0,0,0,0,0,0,0,0,-1,1791,1632,0,0
574,-608,0,0,0,0,0,0,0,0,0,-1,1798,1632,0,0
581,-608,0,0,0,0,0,0,0,0,0,-1,1805,1632,0,0
588,-608,0,0,0,0,0,0,0,0,0,-1,1812,1632,0,0
595,-608,0,0,0,0,0,0,0,0,0,-1,1819,1632,0,0
602,-608,0,0,0,0,0,0,0,0,0,-1,1826,1632,0,0
609,-608,0,0,0,0,0,0,0,0,0,-1,1833,1632,0,0
616,-608,0,0,0,0,0,0,0,0,0,-1,1840,1632,0,0
623,-608,0,0,0,0,0,0,0,0,0,-1,1847,1632,0,0
630,-608,0,0,0,0,0,0,0,0,0,-1,1854,1632,0,0
637,-608,0,0,0,0,0,0,0,0,0,-1,1861,1632,0,0
644,-608,0,0,0,0,0,0,0,0,0,-1,1868,1632,0,0
651,-608,0,0,0,0,0,0,0,0,0,-1,1875,1632,0,0
658,-608,0,0,0,0,0,0,0,0,0,-1,1882,1632,0,0
665,-608,0,0,0,0,0,0,0,0,0,-1,1889,1632,0,0
672,-608,0,0,0,0,0,0,0,0,0,-1,1896,1632,0,0
679,-608,0,0,0,0,0,0,0,0,0,-1,1903,1632,0,0
686,-608,0,0,0,0,0,0,0,0,0,-1,1910,1632,0,0
693,-608,0,0,0,0,0,0,0,0,0,-1,1917,1632,0,0
700,-608,0,0,0,0,0,0,0,0,0,-1,1924,1632,0,0
707,-608,0,0,0,0,0,0,0,0,0,-1,1931,1632,0,0
714,-608,0,0,0,0,0,0,0,0,0,-1,1938,1632,0,0
721,-608,0,0,0,0,0,0,0,0,0,-1,1945,1632,0,0
728,-608,0,0,0,0,0,0,0,0,0,-1,1952,1632,0,0
735,-608,0,0,0,0,0,0,0,0,0,-1,1959,1632,0,0
742,-608,0,0,0,0,0,0,0,0,0,-1,1966,1632,0,0
749,-608,0,0,0,0,0,0,0,0,0,-1,1973,1632,0,0
756,-608,0,0,0,0,0,0,0,0,0,-1,1980,1632,0,0
763,-608,0,0,0,0,0,0,0,0,0,-1,1987,1632,0,0
770,-608,0,0,0,0,0,0,0,0,0,-1,1994,1632,0,0
777,-608,0,0,0,0,0,0,0,0,0,-1,2001,1632,0,0
784,-608,0,0,0,0,0,0,0,0,0,-1,2008,1632,0,0
791,-608,0,0,0,0,0,0,0,0,0,-1,2015,1632,0,0
798,-608,0,0,0,0,0,0,0,0,0,-1,2022,1632,0,0
805,-608,0,0,0,0,0,0,0,0,0,-1,2029,1632,0,0
812,-608,0,0,0,0,0,0,0,0,0,-1,2036,1632,0,0
-700,-615,0,0,0,0,0,0,0,0,0,-1,524,1639,0,0
-693,-615,0,0,0,0,0,0,0,0,0,-1,531,1639,0,0
-686,-615,0,0,0,0,0,0,0,0,0,-1,538,1639,0,0
-679,-615,0,0,0,0,0,0,0,0,0,-1,545,1639,0,0
-672,-615,0,0,0,0,0,0,0,0,0,-1,552,1639,0,0
-665,-615,0,0,0,0,0,0,0,0,0,-1,559,1639,0,0
-658,-615,0,0,0,0,0,0,0,0,0,-1,566,1639,0,0
-651,-615,0,0,0,0,0,0,0,0,0,-1,573,1639,0,0
-644,-615,0,0,0,0,0,0,0,0,0,-1,580,1639,0,0
-637,-615,0,0,0,0,0,0,0,0,0,-1,587,1639,0,0
-630,-615,0,0,0,0,0,0,0,0,0,-1,594,1639,0,0
-623,-615,0,0,0,0,0,0,0,0,0,-1,601,1639,0,0
-616,-615,0,0,0,0,0,0,0,0,0,-1,608,1639,0,0
-609,-615,0,0,0,0,0,0,0,0,0,-1,615,1639,0,0
-602,-615,0,0,0,0,0,0,0,0,0,-1,622,1639,0,0
-595,-615,0,0,0,0,0,0,0,0,0,-1,629,1639,0,0
-588,-615,0,0,0,0,0,0,0,0,0,-1,636,1639,0,0
-581,-615,0,0,0,0,0,0,0,0,0,-1,643,1639,0,0
-574,-615,0,0,0,0,0,0,0,0,0,-1,650,1639,0,0
-567,-615,0,0,0,0,0,0,0,0,0,-1,657,1639,0,0
-560,-615,0,0,0,0,0,0,0,0,0,-1,664,1639,0,0
-553,-615,0,0,0,0,0,0,0,0,0,-1,671,1639,0,0
-546,-615,0,0,0,0,0,0,0,0,0,-1,678,1639,0,0
-539,-615,0,0,0,0,0,0,0,0,0,-1,685,1639,0,0
-532,-615,0,0,0,0,0,0,0,0,0,-1,692,1639,0,0
-525,-615,0,0,0,0,0,0,0,0,0,-1,699,1639,0,0
-518,-615,0,0,0,0,0,0,0,0,0,-1,706,1639,0,0
-511,-615,0,0,0,0,0,0,0,0,0,-1,713,1639,0,0
-504,-615,0,0,0,0,0,0,0,0,0,-1,720,1639,0,0
-497,-615,0,0,0,0,0,0,0,0,0,-1,727,1639,0,0
-490,-615,0,0,0,0,0,0,0,0,0,-1,734,1639,0,0
-483,-615,0,0,0,0,0,0,0,0,0,-1,741,1639,0,0
-476,-615,0,0,0,0,0,0,0,0,0,-1,748,1639,0,0
-469,-615,0,0,0,0,0,0,0,0,0,-1,755,1639,0,0
-462,-615,0,0,0,0,0,0,0,0,0,-1,762,1639,0,0
-455,-615,0,0,0,0,0,0,0,0,0,-1,769,1639,0,0
-448,-615,0,0,0,0,0,0,0,0,0,-1,776,1639,0,0
-441,-615,0,0,0,0,0,0,0,0,0,-1,783,1639,0,0
-434,-615,-7.64508,2.98596,0,0,0,0,0,0,0,-1,790,1639,-7.64505,-2.98594
-427,-615,-9.0011,2.89404,0,0,0,0,0,0,0,-1,797,1639,-9.00107,-2.89399
-420,-615,-8.07568,3.0752,0,0,0,0,0,0,0,-1,804,1639,-8.07569,-3.07514
-413,-615,-7.09149,3.396,0,0,0,0,0,0,0,-1,811,1639,-7.09147,-3.39599
-406,-615,-6.21368,3.7312,0,0,0,0,0,0,0,-1,818,1639,-6.21366,-3.73114
-399,-615,-4.84875,3.91907,0,0,0,0,0,0,0,-1,825,1639,-4.84877,-3.91901
-392,-615,1.7395,13.3127,0,0,0,0,0,0,0,-1,832,1639,1.73953,-13.3128
-385,-615,3.42297,14.9401,0,0,0,0,0,0,0,-1,839,1639,3.42296,-14.94
-378,-615,2.86652,16.5808,0,0,0,0,0,0,0,-1,846,1639,2.8665,-16.5808
-371,-615,3.07758,16.4625,0,0,0,0,0,0,0,-1,853,1639,3.07759,-16.4625
-364,-615,2.90698,17.1229,0.00179331,0.000730922,0.00586447,0.0071506,-0.00462636,0.740232,0.00685129,0.0381439,860,1639,2.90696,-17.1229
-357,-615,3.00983,17.6718,0.00301678,0.00108965,0.0058415,0.00797365,-0.00386722,0.703659,0.00697202,0.03626,867,1639,3.00985,-17.6717
-350,-615,2.92194,17.9684,0.00392181,0.0015148,0.00552399,0.00837188,-0.00293527,0.67814,0.00677505,0.0335181,874,1639,2.92193,-17.9684
-343,-615,2.89374,18.2092,0.00443512,0.00183073,0.00511481,0.0084109,-0.00214505,0.66075,0.00644244,0.0195188,881,1639,2.89371,-18.2093
-336,-615,2.95013,18.5603,0.0046949,0.00204652,0.00472391,0.00827671,-0.00153529,0.648747,0.00609437,0.0105887,888,1639,2.95013,-18.5603
-329,-615,2.90582,18.9125,0.00483248,0.00227142,0.00434083,0.00807772,-0.00097382,0.641969,0.00573737,0.0103682,895,1639,2.90584,-18.9125
-322,-615,2.8833,19.26,0.00451733,0.0027553,0.00389783,0.00763248,-0.000359843,0.674253,0.00521241,0.010906,902,1639,2.88332,-19.26
-315,-615,2.90643,19.5973,0.00391067,0.00310899,0.00341123,0.00694453,7.51272e-05,0.726914,0.00460485,0.013313,909,1639,2.90645,-19.5973
-308,-615,2.88971,19.9224,0.0032354,0.00336535,0.00278545,0.00608659,0.000514165,0.79706,0.00389766,0.020117,916,1639,2.8897,-19.9223
-301,-615,2.89563,20.2172,0.00256104,0.00348857,0.00216924,0.00524307,0.000806545,0.890709,0.00325996,0.0126157,923,1639,2.89563,-20.2171
-294,-615,2.89771,20.5109,0.00190308,0.00358162,0.00154557,0.00450109,0.000983612,1.03413,0.00273252,0.010572,930,1639,2.89771,-20.5109
-287,-615,2.87469,20.8195,0.00133347,0.00366927,0.000935723,0.00399788,0.00100485,1.23306,0.00240144,0.00758072,937,1639,2.87469,-20.8194
-280,-615,2.87689,21.1207,0.00101517,0.00364208,0.000348754,0.0036876,0.000969659,1.44103,0.00220735,0.00838955,944,1639,2.8769,-21.1207
-273,-615,2.87646,21.4368,0.00093312,0.00344442,-0.00021795,0.0034632,0.000914345,-1.48486,0.00207238,0.00971348,951,1639,2.87649,-21.4368
-266,-615,2.8656,21.748,0.00118854,0.00304691,-0.000594606,0.00322088,0.00101457,-1.28617,0.00190153,0.0101175,958,1639,2.86561,-21.748
-259,-615,2.89648,22.0398,0.00169254,0.00278551,-0.000856808,0.00325528,0.00122278,-1.06928,0.00189872,0.0110765,965,1639,2.89647,-22.0399
-252,-615,2.92029,22.3384,0.00239432,0.00247103,-0.00103977,0.00347315,0.0013922,-0.803833,0.00201832,0.0123107,972,1639,2.92031,-22.3384
-245,-615,2.95117,22.6735,0.00332585,0.00193894,-0.00120021,0.00401853,0.00124625,-0.523438,0.00237521,0.0183192,979,1639,2.95115,-22.6735
-238,-615,2.9303,23.0511,0.0044755,0.00120637,-0.00149964,0.0050592,0.000622666,-0.371189,0.0031856,0.0303039,986,1639,2.93032,-23.0512
-231,-615,3.00995,23.2561,0.00581852,-0.000309122,-0.00171176,0.00626428,-0.000754878,-0.25475,0.00444921,0.0488276,993,1639,3.00996,-23.2561
-224,-615,3.08429,23.7275,0,0,0,0,0,0,0,-1,1000,1639,3.08426,-23.7276
-217,-615,3.60046,23.324,0,0,0,0,0,0,0,-1,1007,1639,3.60046,-23.324
-210,-615,2.48901,18.9324,0,0,0,0,0,0,0,-1,1014,1639,2.48902,-18.9323
-203,-615,2.13684,18.6173,0,0,0,0,0,0,0,-1,1021,1639,2.13683,-18.6173
-196,-615,4.27161,21.3264,0,0,0,0,0,0,0,-1,1028,1639,4.27165,-21.3264
-189,-615,1.8269,19.6761,0,0,0,0,0,0,0,-1,1035,1639,1.82691,-19.6761
-182,-615,1.63489,20.2278,0,0,0,0,0,0,0,-1,1042,1639,1.63492,-20.2277
-175,-615,-0.609985,13.8434,0,0,0,0,0,0,0,-1,1049,1639,-0.610016,-13.8434
-168,-615,3.85754,15.472,0,0,0,0,0,0,0,-1,1056,1639,3.85757,-15.472
-161,-615,2.15601,20.8517,0,0,0,0,0,0,0,-1,1063,1639,2.15602,-20.8516
-154,-615,2.42737,24.3593,0,0,0,0,0,0,0,-1,1070,1639,2.42742,-24.3593
-147,-615,1.52502,17.3442,0,0,0,0,0,0,0,-1,1077,1639,1.52501,-17.3442
-140,-615,3.73401,10.2349,0,0,0,0,0,0,0,-1,1084,1639,3.73402,-10.2348
-133,-615,2.6178,17.45,0,0,0,0,0,0,0,-1,1091,1639,2.61776,-17.4499
-126,-615,4.43408,12.5017,0,0,0,0,0,0,0,-1,1098,1639,4.43403,-12.5018
-119,-615,4.82983,13.9279,0,0,0,0,0,0,0,-1,1105,1639,4.82986,-13.9278
-112,-615,3.65698,14.4874,0,0,0,0,0,0,0,-1,1112,1639,3.65695,-14.4875
-105,-615,0.958496,2.45398,0,0,0,0,0,0,0,-1,1119,1639,0.958452,-2.45398
-98,-615,-0.647705,2.12109,0,0,0,0,0,0,0,-1,1126,1639,-0.647756,-2.12105
-91,-615,-3.07983,2.97375,0,0,0,0,0,0,0,-1,1133,1639,-3.07989,-2.97376
-84,-615,-2.46509,0.703247,0,0,0,0,0,0,0,-1,1140,1639,-2.46505,-0.703273
-77,-615,-3.17859,1.23755,0,0,0,0,0,0,0,-1,1147,1639,-3.17865,-1.23752
-70,-615,-4.03943,1.43335,0,0,0,0,0,0,0,-1,1154,1639,-4.03942,-1.43339
-63,-615,-4.8877,1.45544,0,0,0,0,0,0,0,-1,1161,1639,-4.88766,-1.45549
-56,-615,0,0,0,0,0,0,0,0,0,-1,1168,1639,0,0
-49,-615,0,0,0,0,0,0,0,0,0,-1,1175,1639,0,0
-42,-615,0,0,0,0,0,0,0,0,0,-1,1182,1639,0,0
-35,-615,0,0,0,0,0,0,0,0,0,-1,1189,1639,0,0
-28,-615,0,0,0,0,0,0,0,0,0,-1,1196,1639,0,0
-21,-615,0,0,0,0,0,0,0,0,0,-1,1203,1639,0,0
-14,-615,0,0,0,0,0,0,0,0,0,-1,1210,1639,0,0
-7,-615,0,0,0,0,0,0,0,0,0,-1,1217,1639,0,0
0,-615,0,0,0,0,0,0,0,0,0,-1,1224,1639,0,0
7,-615,0,0,0,0,0,0,0,0,0,-1,1231,1639,0,0
14,-615,0,0,0,0,0,0,0,0,0,-1,1238,1639,0,0
21,-615,0,0,0,0,0,0,0,0,0,-1,1245,1639,0,0
28,-615,0,0,0,0,0,0,0,0,0,-1,1252,1639,0,0
35,-615,0,0,0,0,0,0,0,0,0,-1,1259,1639,0,0
42,-615,0,0,0,0,0,0,0,0,0,-1,1266,1639,0,0
49,-615,0,0,0,0,0,0,0,0,0,-1,1273,1639,0,0
56,-615,0,0,0,0,0,0,0,0,0,-1,1280,1639,0,0
63,-615,0,0,0,0,0,0,0,0,0,-1,1287,1639,0,0
70,-615,0,0,0,0,0,0,0,0,0,-1,1294,1639,0,0
77,-615,0,0,0,0,0,0,0,0,0,-1,1301,1639,0,0
84,-615,0,0,0,0,0,0,0,0,0,-1,1308,1639,0,0
91,-615,0,0,0,0,0,0,0,0,0,-1,1315,1639,0,0
98,-615,0,0,0,0,0,0,0,0,0,-1,1322,1639,0,0
105,-615,0,0,0,0,0,0,0,0,0,-1,1329,1639,0,0
112,-615,0,0,0,0,0,0,0,0,0,-1,1336,1639,0,0
119,-615,0,0,0,0,0,0,0,0,0,-1,1343,1639,0,0
126,-615,0,0,0,0,0,0,0,0,0,-1,1350,1639,0,0
133,-615,0,0,0,0,0,0,0,0,0,-1,1357,1639,0,0
140,-615,0,0,0,0,0,0,0,0,0,-1,1364,1639,0,0
147,-615,0,0,0,0,0,0,0,0,0,-1,1371,1639,0,0
154,-615,0,0,0,0,0,0,0,0,0,-1,1378,1639,0,0
161,-615,0,0,0,0,0,0,0,0,0,-1,1385,1639,0,0
168,-615,0,0,0,0,0,0,0,0,0,-1,1392,1639,0,0
175,-615,5.39648,-2.00879,0,0,0,0,0,0,0,-1,1399,1639,5.3965,2.00881
182,-615,5.65393,-1.51025,0,0,0,0,0,0,0,-1,1406,1639,5.65388,1.51028
189,-615,5.58972,-1.35608,0,0,0,0,0,0,0,-1,1413,1639,5.58967,1.35607
196,-615,5.49915,-0.693604,0,0,0,0,0,0,0,-1,1420,1639,5.4991,0.693602
203,-615,5.33411,-0.226685,0,0,0,0,0,0,0,-1,1427,1639,5.33414,0.226689
210,-615,5.60278,0.108276,0,0,0,0,0,0,0,-1,1434,1639,5.60284,-0.10831
217,-615,6.26331,-0.307373,0,0,0,0,0,0,0,-1,1441,1639,6.26331,0.307372
224,-615,5.45422,-0.333984,0,0,0,0,0,0,0,-1,1448,1639,5.45422,0.333992
231,-615,4.92542,1.80298,0,0,0,0,0,0,0,-1,1455,1639,4.92537,-1.80297
238,-615,4.76355,1.96729,0,0,0,0,0,0,0,-1,1462,1639,4.76357,-1.96734
245,-615,4.08643,3.15906,0,0,0,0,0,0,0,-1,1469,1639,4.08638,-3.159
252,-615,6.37805,3.73889,0,0,0,0,0,0,0,-1,1476,1639,6.37806,-3.73891
259,-615,8.35974,3.16443,0,0,0,0,0,0,0,-1,1483,1639,8.35975,-3.16444
266,-615,10.3414,2.58997,0,0,0,0,0,0,0,-1,1490,1639,10.3414,-2.58996
273,-615,6.57043,1.84766,0,0,0,0,0,0,0,-1,1497,1639,6.5704,-1.84771
280,-615,7.10449,3.23438,0,0,0,0,0,0,0,-1,1504,1639,7.10447,-3.23435
287,-615,7.35779,4.68542,0,0,0,0,0,0,0,-1,1511,1639,7.35776,-4.68546
294,-615,7.63733,6.29114,0,0,0,0,0,0,0,-1,1518,1639,7.63735,-6.29109
301,-615,8.47925,11.452,0,0,0,0,0,0,0,-1,1525,1639,8.47922,-11.452
308,-615,6.8114,10.9059,0,0,0,0,0,0,0,-1,1532,1639,6.81137,-10.9058
315,-615,5.1427,14.7251,0,0,0,0,0,0,0,-1,1539,1639,5.14269,-14.7251
322,-615,7.17981,17.6864,0,0,0,0,0,0,0,-1,1546,1639,7.17985,-17.6864
329,-615,7.62134,20.4354,0,0,0,0,0,0,0,-1,1553,1639,7.62139,-20.4354
336,-615,6.45007,14.1138,0,0,0,0,0,0,0,-1,1560,1639,6.45011,-14.1138
343,-615,2.40491,6.50134,0,0,0,0,0,0,0,-1,1567,1639,2.40489,-6.50137
350,-615,6.4458,15.4594,0,0,0,0,0,0,0,-1,1574,1639,6.44578,-15.4593
357,-615,9.16479,24.2725,0,0,0,0,0,0,0,-1,1581,1639,9.1648,-24.2724
364,-615,9.77625,24.3539,0,0,0,0,0,0,0,-1,1588,1639,9.7763,-24.3539
371,-615,9.56836,24.0986,0,0,0,0,0,0,0,-1,1595,1639,9.56836,-24.0987
378,-615,9.84924,23.6721,0,0,0,0,0,0,0,-1,1602,1639,9.84922,-23.6722
385,-615,9.81873,23.0547,0.00135187,0.00243192,0.001347,0.00334312,0.000440677,0.976042,0.00209734,0.0120216,1609,1639,9.81867,-23.0546
392,-615,9.82935,22.7546,0.000852041,0.00157431,0.00156179,0.00281618,-0.000389826,0.899017,0.00201997,0.0105907,1616,1639,9.82932,-22.7547
399,-615,9.85278,22.459,0.000500524,0.00113835,0.00167199,0.00252157,-0.000882691,0.879636,0.00203996,0.0110514,1623,1639,9.85276,-22.459
406,-615,9.87549,22.2058,0.000126133,0.000873529,0.00163849,0.0021804,-0.00118074,0.897518,0.00196896,0.0109447,1630,1639,9.87549,-22.2057
413,-615,9.8739,21.9417,-0.00017428,0.000677459,0.00158424,0.00189207,-0.00138889,0.916702,0.00190168,0.0119015,1637,1639,9.87388,-21.9416
420,-615,9.86072,21.6412,-0.000318517,0.000236173,0.00156815,0.00155132,-0.00163366,0.872924,0.00183905,0.0126709,1644,1639,9.86076,-21.6413
427,-615,9.87012,21.343,-0.0002185,-0.000400258,0.00134885,0.00104253,-0.00166129,0.751762,0.00157462,0.0146525,1651,1639,9.87012,-21.343
434,-615,9.87549,21.0514,-7.98021e-06,-0.001059,0.00086408,0.000477844,-0.00154482,0.512195,0.00122074,0.0142202,1658,1639,9.87544,-21.0514
441,-615,9.87305,20.7491,0.000265984,-0.00161345,0.000154801,0.000278649,-0.00162611,0.0816327,0.0011879,0.0139178,1665,1639,9.8731,-20.7491
448,-615,9.87354,20.454,0.00079855,-0.00217327,-0.000716293,0.000962187,-0.00233691,-0.224595,0.00195908,0.0137809,1672,1639,9.8735,-20.454
455,-615,9.87244,20.1635,0.00136833,-0.0029326,-0.00172612,0.00197539,-0.00353966,-0.338184,0.00322653,0.0126416,1679,1639,9.87238,-20.1635
462,-615,9.85144,19.8743,0.00205243,-0.00367631,-0.00296595,0.00331135,-0.00493522,-0.40141,0.00479183,0.013607,1686,1639,9.8515,-19.8743
469,-615,9.8302,19.5627,0.00283745,-0.00430925,-0.00444519,0.00496748,-0.00643928,-0.446851,0.00660394,0.0117948,1693,1639,9.83019,-19.5628
476,-615,9.81799,19.2343,0.00363798,-0.00474189,-0.00611045,0.00685703,-0.00796095,-0.484866,0.00856308,0.0100827,1700,1639,9.818,-19.2343
483,-615,9.82996,18.8759,0.00437301,-0.00452589,-0.00798264,0.00906249,-0.00921538,-0.531148,0.0105529,0.0149696,1707,1639,9.82998,-18.8758
490,-615,9.84326,18.5699,0.00497785,-0.00418974,-0.0099405,0.0113405,-0.0105524,-0.569365,0.0126426,0.020354,1714,1639,9.84323,-18.5699
497,-615,9.79724,18.3235,0.00561057,-0.00328372,-0.0119456,0.01391,-0.0115831,-0.607205,0.0147389,0.0315536,1721,1639,9.79727,-18.3235
504,-615,9.55481,18.0049,0,0,0,0,0,0,0,-1,1728,1639,9.55478,-18.0049
511,-615,9.87256,17.7085,0,0,0,0,0,0,0,-1,1735,1639,9.87258,-17.7085
518,-615,13.2416,9.81812,0,0,0,0,0,0,0,-1,1742,1639,13.2416,-9.81813
525,-615,4.37524,3.90491,0,0,0,0,0,0,0,-1,1749,1639,4.37518,-3.90495
532,-615,7.3645,0.848145,0,0,0,0,0,0,0,-1,1756,1639,7.36451,-0.848093
539,-615,12.8112,-0.0476074,0,0,0,0,0,0,0,-1,1763,1639,12.8111,0.0475553
546,-615,8.33813,2.94556,0,0,0,0,0,0,0,-1,1770,1639,8.33813,-2.9455
553,-615,5.82532,-2.04199,0,0,0,0,0,0,0,-1,1777,1639,5.82534,2.04195
560,-615,0,0,0,0,0,0,0,0,0,-1,1784,1639,0,0
567,-615,0,0,0,0,0,0,0,0,0,-1,1791,1639,0,0
574,-615,0,0,0,0,0,0,0,0,0,-1,1798,1639,0,0
581,-615,0,0,0,0,0,0,0,0,0,-1,1805,1639,0,0
588,-615,0,0,0,0,0,0,0,0,0,-1,1812,1639,0,0
595,-615,0,0,0,0,0,0,0,0,0,-1,1819,1639,0,0
602,-615,0,0,0,0,0,0,0,0,0,-1,1826,1639,0,0
609,-615,0,0,0,0,0,0,0,0,0,-1,1833,1639,0,0
616,-615,0,0,0,0,0,0,0,0,0,-1,1840,1639,0,0
623,-615,0,0,0,0,0,0,0,0,0,-1,1847,1639,0,0
630,-615,0,0,0,0,0,0,0,0,0,-1,1854,1639,0,0
637,-615,0,0,0,0,0,0,0,0,0,-1,1861,1639,0,0
644,-615,0,0,0,0,0,0,0,0,0,-1,1868,1639,0,0
651,-615,0,0,0,0,0,0,0,0,0,-1,1875,1639,0,0
658,-615,0,0,0,0,0,0,0,0,0,-1,1882,1639,0,0
665,-615,0,0,0,0,0,0,0,0,0,-1,1889,1639,0,0
672,-615,0,0,0,0,0,0,0,0,0,-1,1896,1639,0,0
679,-615,0,0,0,0,0,0,0,0,0,-1,1903,1639,0,0
686,-615,0,0,0,0,0,0,0,0,0,-1,1910,1639,0,0
693,-615,0,0,0,0,0,0,0,0,0,-1,1917,1639,0,0
700,-615,0,0,0,0,0,0,0,0,0,-1,1924,1639,0,0
707,-615,0,0,0,0,0,0,0,0,0,-1,1931,1639,0,0
714,-615,0,0,0,0,0,0,0,0,0,-1,1938,1639,0,0
721,-615,0,0,0,0,0,0,0,0,0,-1,1945,1639,0,0
728,-615,0,0,0,0,0,0,0,0,0,-1,1952,1639,0,0
735,-615,0,0,0,0,0,0,0,0,0,-1,1959,1639,0,0
742,-615,0,0,0,0,0,0,0,0,0,-1,1966,1639,0,0
749,-615,0,0,0,0,0,0,0,0,0,-1,1973,1639,0,0
756,-615,0,0,0,0,0,0,0,0,0,-1,1980,1639,0,0
763,-615,0,0,0,0,0,0,0,0,0,-1,1987,1639,0,0
770,-615,0,0,0,0,0,0,0,0,0,-1,1994,1639,0,0
777,-615,0,0,0,0,0,0,0,0,0,-1,2001,1639,0,0
784,-615,0,0,0,0,0,0,0,0,0,-1,2008,1639,0,0
791,-615,0,0,0,0,0,0,0,0,0,-1,2015,1639,0,0
798,-615,0,0,0,0,0,0,0,0,0,-1,2022,1639,0,0
805,-615,0,0,0,0,0,0,0,0,0,-1,2029,1639,0,0
812,-615,0,0,0,0,0,0,0,0,0,-1,2036,1639,0,0
-700,-622,0,0,0,0,0,0,0,0,0,-1,524,1646,0,0
-693,-622,0,0,0,0,0,0,0,0,0,-1,531,1646,0,0
-686,-622,0,0,0,0,0,0,0,0,0,-1,538,1646,0,0
-679,-622,0,0,0,0,0,0,0,0,0,-1,545,1646,0,0
-672,-622,0,0,0,0,0,0,0,0,0,-1,552,1646,0,0
-665,-622,0,0,0,0,0,0,0,0,0,-1,559,1646,0,0
-658,-622,0,0,0,0,0,0,0,0,0,-1,566,1646,0,0
-651,-622,0,0,0,0,0,0,0,0,0,-1,573,1646,0,0
-644,-622,0,0,0,0,0,0,0,0,0,-1,580,1646,0,0
-637,-622,0,0,0,0,0,0,0,0,0,-1,587,1646,0,0
-630,-622,0,0,0,0,0,0,0,0,0,-1,594,1646,0,0
-623,-622,0,0,0,0,0,0,0,0,0,-1,601,1646,0,0
-616,-622,0,0,0,0,0,0,0,0,0,-1,608,1646,0,0
-609,-622,0,0,0,0,0,0,0,0,0,-1,615,1646,0,0
-602,-622,0,0,0,0,0,0,0,0,0,-1,622,1646,0,0
-595,-622,0,0,0,0,0,0,0,0,0,-1,629,1646,0,0
-588,-622,0,0,0,0,0,0,0,0,0,-1,636,1646,0,0
-581,-622,0,0,0,0,0,0,0,0,0,-1,643,1646,0,0
-574,-622,0,0,0,0,0,0,0,0,0,-1,650,1646,0,0
-567,-622,0,0,0,0,0,0,0,0,0,-1,657,1646,0,0
-560,-622,0,0,0,0,0,0,0,0,0,-1,664,1646,0,0
-553,-622,0,0,0,0,0,0,0,0,0,-1,671,1646,0,0
-546,-622,0,0,0,0,0,0,0,0,0,-1,678,1646,0,0
-539,-622,0,0,0,0,0,0,0,0,0,-1,685,1646,0,0
-532,-622,0,0,0,0,0,0,0,0,0,-1,692,1646,0,0
-525,-622,0,0,0,0,0,0,0,0,0,-1,699,1646,0,0
-518,-622,0,0,0,0,0,0,0,0,0,-1,706,1646,0,0
-511,-622,0,0,0,0,0,0,0,0,0,-1,713,1646,0,0
-504,-622,0,0,0,0,0,0,0,0,0,-1,720,1646,0,0
-497,-622,0,0,0,0,0,0,0,0,0,-1,727,1646,0,0
-490,-622,0,0,0,0,0,0,0,0,0,-1,734,1646,0,0
-483,-622,0,0,0,0,0,0,0,0,0,-1,741,1646,0,0
-476,-622,0,0,0,0,0,0,0,0,0,-1,748,1646,0,0
-469,-622,0,0,0,0,0,0,0,0,0,-1,755,1646,0,0
-462,-622,0,0,0,0,0,0,0,0,0,-1,762,1646,0,0
-455,-622,0,0,0,0,0,0,0,0,0,-1,769,1646,0,0
-448,-622,0,0,0,0,0,0,0,0,0,-1,776,1646,0,0
-441,-622,0,0,0,0,0,0,0,0,0,-1,783,1646,0,0
-434,-622,0,0,0,0,0,0,0,0,0,-1,790,1646,0,0
-427,-622,-7.62891,3.48096,0,0,0,0,0,0,0,-1,797,1646,-7.62892,-3.48092
-420,-622,-9.35791,1.77185,0,0,0,0,0,0,0,-1,804,1646,-9.35789,-1.77183
-413,-622,-8.46075,1.96777,0,0,0,0,0,0,0,-1,811,1646,-8.46074,-1.96774
-406,-622,-4.44318,2.16858,0,0,0,0,0,0,0,-1,818,1646,-4.44315,-2.16859
-399,-622,-7.06976,1.51001,0,0,0,0,0,0,0,-1,825,1646,-7.06976,-1.51005
-392,-622,3.89551,5.85376,0,0,0,0,0,0,0,-1,832,1646,3.8955,-5.85379
-385,-622,2.00543,14.0448,0,0,0,0,0,0,0,-1,839,1646,2.00544,-14.0448
-378,-622,1.49036,15.3436,0,0,0,0,0,0,0,-1,846,1646,1.49033,-15.3436
-371,-622,2.88879,16.1753,0,0,0,0,0,0,0,-1,853,1646,2.8888,-16.1753
-364,-622,2.85187,16.9607,0,0,0,0,0,0,0,-1,860,1646,2.85188,-16.9607
-357,-622,3.16479,17.501,0,0,0,0,0,0,0,-1,867,1646,3.16477,-17.501
-350,-622,3.11908,18.002,0,0,0,0,0,0,0,-1,874,1646,3.11908,-18.0019
-343,-622,3.18256,18.2655,0.00742079,0.00366982,0.00762512,0.0133977,-0.00230707,0.664811,0.00979183,0.0259325,881,1646,3.18259,-18.2655
-336,-622,3.25922,18.5656,0.00732554,0.00358476,0.00693528,0.0126382,-0.00172792,0.653686,0.00905657,0.00857787,888,1646,3.25921,-18.5655
-329,-622,3.22546,18.9045,0.00709405,0.00343093,0.00624432,0.0117699,-0.0012449,0.642741,0.00829276,0.00837674,895,1646,3.22547,-18.9046
-322,-622,3.21149,19.2583,0.00639929,0.00357476,0.00551281,0.0106779,-0.000703801,0.660005,0.00736439,0.0101407,902,1646,3.21146,-19.2583
-315,-622,3.20984,19.5791,0.00538937,0.00359528,0.00473397,0.00931054,-0.000325889,0.691763,0.00631846,0.0136881,909,1646,3.20981,-19.5791
-308,-622,3.19257,19.8872,0.00435908,0.00350315,0.0038277,0.00778267,7.95638e-05,0.729726,0.00516213,0.0143526,916,1646,3.19257,-19.8872
-301,-622,3.20374,20.1991,0.00338188,0.00335339,0.00298065,0.00634831,0.000386954,0.783009,0.0041093,0.0130642,923,1646,3.20372,-20.1991
-294,-622,3.1955,20.5201,0.00248127,0.00313905,0.00214696,0.00498217,0.000638155,0.861401,0.00313048,0.00956109,930,1646,3.1955,-20.5201
-287,-622,3.18152,20.828,0.00172146,0.00298384,0.00139102,0.00388018,0.000825116,0.998386,0.00236032,0.00749965,937,1646,3.18149,-20.828
-280,-622,3.17365,21.1302,0.00125757,0.00278741,0.000711912,0.00306744,0.000977536,1.19604,0.00180939,0.00834044,944,1646,3.17364,-21.1303
-273,-622,3.18713,21.4352,0.00109928,0.00251363,0.000122796,0.00252422,0.0010887,1.48483,0.00146193,0.0124602,951,1646,3.18711,-21.4352
-266,-622,3.17206,21.7443,0.00116322,0.00206556,-0.000332267,0.00217471,0.00105408,-1.25341,0.00125577,0.0122896,958,1646,3.17207,-21.7443
-259,-622,3.17584,22.0511,0.00157036,0.00187246,-0.000575741,0.00231664,0.00112619,-0.913686,0.00133768,0.011194,965,1646,3.17582,-22.0511
-252,-622,3.18951,22.3242,0.0022605,0.00174883,-0.000691369,0.00274185,0.00126748,-0.608191,0.00158451,0.0118749,972,1646,3.18949,-22.3242
-245,-622,3.22693,22.6099,0.00310356,0.00148301,-0.000739962,0.0033906,0.00119597,-0.370035,0.00198567,0.00934963,979,1646,3.22694,-22.6098
-238,-622,3.23157,22.891,0.00410078,0.00108274,-0.000871083,0.00433415,0.000849366,-0.261762,0.00265205,0.0115005,986,1646,3.23158,-22.8909
-231,-622,3.27441,23.2174,0.0052023,5.96646e-06,-0.000928848,0.00536334,-0.000155075,-0.171671,0.00362836,0.0180539,993,1646,3.27441,-23.2174
-224,-622,3.35431,23.4003,0.00646759,-0.0011533,-0.000823598,0.00655558,-0.00124129,-0.106434,0.00483753,0.0292376,1000,1646,3.35431,-23.4002
-217,-622,3.50189,23.4889,0.00839346,-0.00116571,0.000210207,0.00839808,-0.00117033,0.0219759,0.00602683,0.0434368,1007,1646,3.50187,-23.4889
-210,-622,3.55957,24.0204,0,0,0,0,0,0,0,-1,1014,1646,3.55956,-24.0203
-203,-622,4.21375,20.9574,0,0,0,0,0,0,0,-1,1021,1646,4.21375,-20.9574
-196,-622,4.18518,21.2491,0,0,0,0,0,0,0,-1,1028,1646,4.18521,-21.2491
-189,-622,3.92017,24.4541,0,0,0,0,0,0,0,-1,1035,1646,3.92011,-24.4541
-182,-622,2.21411,20.6752,0,0,0,0,0,0,0,-1,1042,1646,2.21416,-20.6751
-175,-622,2.56091,11.0195,0,0,0,0,0,0,0,-1,1049,1646,2.56095,-11.0195
-168,-622,4.42639,22.1844,0,0,0,0,0,0,0,-1,1056,1646,4.42636,-22.1845
-161,-622,3.62451,25.1862,0,0,0,0,0,0,0,-1,1063,1646,3.62454,-25.1861
-154,-622,3.6897,24.9437,0,0,0,0,0,0,0,-1,1070,1646,3.68975,-24.9437
-147,-622,3.7146,25.5477,0,0,0,0,0,0,0,-1,1077,1646,3.71464,-25.5478
-140,-622,3.27515,16.0353,0,0,0,0,0,0,0,-1,1084,1646,3.27519,-16.0353
-133,-622,3.09644,17.677,0,0,0,0,0,0,0,-1,1091,1646,3.09638,-17.677
-126,-622,3.5061,19.5251,0,0,0,0,0,0,0,-1,1098,1646,3.50616,-19.5252
-119,-622,4.06384,13.1715,0,0,0,0,0,0,0,-1,1105,1646,4.06379,-13.1716
-112,-622,4.33276,14.6605,0,0,0,0,0,0,0,-1,1112,1646,4.33281,-14.6605
-105,-622,0.306519,4.38159,0,0,0,0,0,0,0,-1,1119,1646,0.306536,-4.38159
-98,-622,-0.510376,3.5033,0,0,0,0,0,0,0,-1,1126,1646,-0.510393,-3.50324
-91,-622,-1.146,0.975952,0,0,0,0,0,0,0,-1,1133,1646,-1.14599,-0.97597
-84,-622,-2.04895,1.31787,0,0,0,0,0,0,0,-1,1140,1646,-2.0489,-1.31781
-77,-622,-1.80627,0.332275,0,0,0,0,0,0,0,-1,1147,1646,-1.80622,-0.33223
-70,-622,-3.65588,2.28149,0,0,0,0,0,0,0,-1,1154,1646,-3.65589,-2.28155
-63,-622,-2.49683,1.27087,0,0,0,0,0,0,0,-1,1161,1646,-2.49679,-1.27093
-56,-622,-2.44238,-0.575562,0,0,0,0,0,0,0,-1,1168,1646,-2.44242,0.575508
-49,-622,-2.41089,1.38818,0,0,0,0,0,0,0,-1,1175,1646,-2.41088,-1.38815
-42,-622,-2.71497,2.85242,0,0,0,0,0,0,0,-1,1182,1646,-2.71491,-2.85247
-35,-622,-3.0177,4.25842,0,0,0,0,0,0,0,-1,1189,1646,-3.01773,-4.25838
-28,-622,-0.896606,0.678833,0,0,0,0,0,0,0,-1,1196,1646,-0.89661,-0.678835
-21,-622,3.69312,26.7708,0,0,0,0,0,0,0,-1,1203,1646,3.69309,-26.7708
-14,-622,6.38818,28.0786,0,0,0,0,0,0,0,-1,1210,1646,6.38816,-28.0786
-7,-622,7.1405,28.2963,0,0,0,0,0,0,0,-1,1217,1646,7.14049,-28.2963
0,-622,0,0,0,0,0,0,0,0,0,-1,1224,1646,0,0
7,-622,0,0,0,0,0,0,0,0,0,-1,1231,1646,0,0
14,-622,0,0,0,0,0,0,0,0,0,-1,1238,1646,0,0
21,-622,0,0,0,0,0,0,0,0,0,-1,1245,1646,0,0
28,-622,0,0,0,0,0,0,0,0,0,-1,1252,1646,0,0
35,-622,0,0,0,0,0,0,0,0,0,-1,1259,1646,0,0
42,-622,0,0,0,0,0,0,0,0,0,-1,1266,1646,0,0
49,-622,0,0,0,0,0,0,0,0,0,-1,1273,1646,0,0
56,-622,0,0,0,0,0,0,0,0,0,-1,1280,1646,0,0
63,-622,0,0,0,0,0,0,0,0,0,-1,1287,1646,0,0
70,-622,0,0,0,0,0,0,0,0,0,-1,1294,1646,0,0
77,-622,0,0,0,0,0,0,0,0,0,-1,1301,1646,0,0
84,-622,0,0,0,0,0,0,0,0,0,-1,1308,1646,0,0
91,-622,0,0,0,0,0,0,0,0,0,-1,1315,1646,0,0
98,-622,0,0,0,0,0,0,0,0,0,-1,1322,1646,0,0
105,-622,0,0,0,0,0,0,0,0,0,-1,1329,1646,0,0
112,-622,0,0,0,0,0,0,0,0,0,-1,1336,1646,0,0
119,-622,0,0,0,0,0,0,0,0,0,-1,1343,1646,0,0
126,-622,-4.13599,14.8296,0,0,0,0,0,0,0,-1,1350,1646,-4.13601,-14.8296
133,-622,-4.74988,13.6554,0,0,0,0,0,0,0,-1,1357,1646,-4.74993,-13.6554
140,-622,5.42188,-3.64551,0,0,0,0,0,0,0,-1,1364,1646,5.42186,3.64546
147,-622,-11.9849,27.2885,0,0,0,0,0,0,0,-1,1371,1646,-11.9849,-27.2885
154,-622,15.0535,51.2202,0,0,0,0,0,0,0,-1,1378,1646,15.0535,-51.2202
161,-622,10.6884,6.46448,0,0,0,0,0,0,0,-1,1385,1646,10.6883,-6.46442
168,-622,12.2402,5.18091,0,0,0,0,0,0,0,-1,1392,1646,12.2403,-5.1809
175,-622,5.64355,-1.77075,0,0,0,0,0,0,0,-1,1399,1646,5.64351,1.77077
182,-622,5.88586,-1.32251,0,0,0,0,0,0,0,-1,1406,1646,5.88587,1.32256
189,-622,5.97986,-1.18005,0,0,0,0,0,0,0,-1,1413,1646,5.97986,1.18003
196,-622,5.85022,-0.244507,0,0,0,0,0,0,0,-1,1420,1646,5.85026,0.244478
203,-622,5.25159,0.138794,0,0,0,0,0,0,0,-1,1427,1646,5.25162,-0.138822
210,-622,6.66833,0.0397949,0,0,0,0,0,0,0,-1,1434,1646,6.6684,-0.0398278
217,-622,6.12061,0.0506592,0,0,0,0,0,0,0,-1,1441,1646,6.12058,-0.0507181
224,-622,5.57275,0.0616455,0,0,0,0,0,0,0,-1,1448,1646,5.57276,-0.0616084
231,-622,5.31348,1.3949,0,0,0,0,0,0,0,-1,1455,1646,5.31342,-1.39495
238,-622,3.76477,2.90686,0,0,0,0,0,0,0,-1,1462,1646,3.7648,-2.90686
245,-622,5.13794,2.67993,0,0,0,0,0,0,0,-1,1469,1646,5.13796,-2.67992
252,-622,6.66528,2.53992,0,0,0,0,0,0,0,-1,1476,1646,6.66522,-2.53991
259,-622,8.93787,3.31458,0,0,0,0,0,0,0,-1,1483,1646,8.93791,-3.31454
266,-622,5.72644,3.11926,0,0,0,0,0,0,0,-1,1490,1646,5.72647,-3.1192
273,-622,7.28076,3.61218,0,0,0,0,0,0,0,-1,1497,1646,7.28071,-3.61212
280,-622,8.43127,4.4447,0,0,0,0,0,0,0,-1,1504,1646,8.43123,-4.44467
287,-622,8.60315,5.94617,0,0,0,0,0,0,0,-1,1511,1646,8.60319,-5.94622
294,-622,7.62756,11.5143,0,0,0,0,0,0,0,-1,1518,1646,7.62762,-11.5143
301,-622,7.36548,11.6569,0,0,0,0,0,0,0,-1,1525,1646,7.36549,-11.6569
308,-622,7.10339,11.7994,0,0,0,0,0,0,0,-1,1532,1646,7.10335,-11.7995
315,-622,8.28687,16.5842,0,0,0,0,0,0,0,-1,1539,1646,8.28689,-16.5843
322,-622,7.43689,20.5786,0,0,0,0,0,0,0,-1,1546,1646,7.43685,-20.5786
329,-622,9.22156,25.6045,0,0,0,0,0,0,0,-1,1553,1646,9.22159,-25.6045
336,-622,9.4729,25.2197,0,0,0,0,0,0,0,-1,1560,1646,9.47286,-25.2197
343,-622,9.54041,24.4561,0,0,0,0,0,0,0,-1,1567,1646,9.54044,-24.4561
350,-622,9.66809,24.2367,0,0,0,0,0,0,0,-1,1574,1646,9.66805,-24.2366
357,-622,9.70361,23.9515,0,0,0,0,0,0,0,-1,1581,1646,9.70356,-23.9515
364,-622,9.55127,23.9966,0.00376413,0.00682607,-0.000671397,0.00696682,0.00362338,-1.36415,0.00402338,0.0376964,1588,1646,9.55126,-23.9966
371,-622,9.59644,23.5626,0.00296801,0.00521662,-0.000128157,0.0052239,0.00296073,-1.51405,0.00302497,0.020303,1595,1646,9.59642,-23.5626
378,-622,9.5592,23.2815,0.00211539,0.00395815,0.000361144,0.0040264,0.00204714,1.38402,0.00232475,0.0103481,1602,1646,9.55915,-23.2815
385,-622,9.54724,23.0107,0.00133822,0.00246796,0.000678462,0.00278592,0.00102026,1.13254,0.00162753,0.0097871,1609,1646,9.54728,-23.0107
392,-622,9.55017,22.7493,0.000940236,0.00159268,0.000820107,0.00214907,0.000383849,0.974693,0.00132345,0.0109041,1616,1646,9.55014,-22.7493
399,-622,9.5592,22.4783,0.000663789,0.00114657,0.000891235,0.00182853,-1.81671e-05,0.91765,0.00122512,0.0106269,1623,1646,9.55919,-22.4783
406,-622,9.57556,22.1982,0.000374278,0.000763263,0.000923745,0.00151277,-0.000375228,0.889157,0.0011541,0.0134246,1630,1646,9.57561,-22.1982
413,-622,9.57288,21.908,0.000145114,0.000408101,0.000945719,0.00123142,-0.000678209,0.854476,0.00111784,0.014824,1637,1646,9.57283,-21.908
420,-622,9.56409,21.6448,9.69914e-05,-0.000236708,0.0010145,0.000958267,-0.00109798,0.703895,0.00118809,0.0146404,1644,1646,9.56406,-21.6447
427,-622,9.5802,21.3475,0.000345517,-0.00131126,0.000834323,0.000692851,-0.00165859,0.394484,0.00139525,0.0117939,1651,1646,9.5802,-21.3475
434,-622,9.60168,21.0463,0.00064211,-0.0022624,0.000326291,0.000678314,-0.00229861,0.110504,0.00180159,0.0126428,1658,1646,9.60175,-21.0463
441,-622,9.58301,20.7539,0.000957771,-0.00304299,-0.000511469,0.00102212,-0.00310734,-0.125161,0.0024834,0.0143913,1665,1646,9.58299,-20.7539
448,-622,9.55591,20.4619,0.00158891,-0.00390166,-0.00148576,0.00196518,-0.00427793,-0.248032,0.00368598,0.0130111,1672,1646,9.55592,-20.4619
455,-622,9.53149,20.1534,0.00227539,-0.0050244,-0.00266456,0.00314452,-0.00589354,-0.315301,0.00529797,0.0142192,1679,1646,9.53145,-20.1534
462,-622,9.54333,19.8623,0.00308751,-0.00616562,-0.00417259,0.00469116,-0.00776927,-0.366925,0.00726683,0.0166444,1686,1646,9.5434,-19.8623
469,-622,9.52686,19.564,0.00401043,-0.00715783,-0.00607173,0.00667545,-0.00982285,-0.413603,0.0095829,0.017508,1693,1646,9.5268,-19.564
476,-622,9.56555,19.2408,0.0049524,-0.00787253,-0.00829755,0.00902655,-0.0119467,-0.456427,0.012148,0.0182854,1700,1646,9.56557,-19.2409
483,-622,9.52527,18.9178,0.00579465,-0.00783443,-0.0108674,0.0118073,-0.0138471,-0.505357,0.0148272,0.0258412,1707,1646,9.52533,-18.9178
490,-622,9.578,18.5459,0.00650336,-0.00749605,-0.013738,0.0149221,-0.0159148,-0.549784,0.0178068,0.0314502,1714,1646,9.57804,-18.5458
497,-622,9.80347,17.9948,0.00725897,-0.00633521,-0.0168074,0.0185916,-0.0176679,-0.593247,0.0209367,0.0470635,1721,1646,9.8035,-17.9947
504,-622,9.94214,17.4506,0,0,0,0,0,0,0,-1,1728,1646,9.94217,-17.4505
511,-622,5.29004,4.14587,0,0,0,0,0,0,0,-1,1735,1646,5.29008,-4.14589
518,-622,5.6001,1.55359,0,0,0,0,0,0,0,-1,1742,1646,5.60015,-1.5536
525,-622,5.83093,2.01807,0,0,0,0,0,0,0,-1,1749,1646,5.83097,-2.01802
532,-622,5.44202,0.57373,0,0,0,0,0,0,0,-1,1756,1646,5.44196,-0.573705
539,-622,9.32129,1.06116,0,0,0,0,0,0,0,-1,1763,1646,9.32131,-1.0612
546,-622,6.50977,-3.45618,0,0,0,0,0,0,0,-1,1770,1646,6.50981,3.4562
553,-622,0,0,0,0,0,0,0,0,0,-1,1777,1646,0,0
560,-622,0,0,0,0,0,0,0,0,0,-1,1784,1646,0,0
567,-622,0,0,0,0,0,0,0,0,0,-1,1791,1646,0,0
574,-622,0,0,0,0,0,0,0,0,0,-1,1798,1646,0,0
581,-622,0,0,0,0,0,0,0,0,0,-1,1805,1646,0,0
588,-622,0,0,0,0,0,0,0,0,0,-1,1812,1646,0,0
595,-622,0,0,0,0,0,0,0,0,0,-1,1819,1646,0,0
602,-622,0,0,0,0,0,0,0,0,0,-1,1826,1646,0,0
609,-622,0,0,0,0,0,0,0,0,0,-1,1833,1646,0,0
616,-622,0,0,0,0,0,0,0,0,0,-1,1840,1646,0,0
623,-622,0,0,0,0,0,0,0,0,0,-1,1847,1646,0,0
630,-622,0,0,0,0,0,0,0,0,0,-1,1854,1646,0,0
637,-622,0,0,0,0,0,0,0,0,0,-1,1861,1646,0,0
644,-622,0,0,0,0,0,0,0,0,0,-1,1868,1646,0,0
651,-622,0,0,0,0,0,0,0,0,0,-1,1875,1646,0,0
658,-622,0,0,0,0,0,0,0,0,0,-1,1882,1646,0,0
665,-622,0,0,0,0,0,0,0,0,0,-1,1889,1646,0,0
672,-622,0,0,0,0,0,0,0,0,0,-1,1896,1646,0,0
679,-622,0,0,0,0,0,0,0,0,0,-1,1903,1646,0,0
686,-622,0,0,0,0,0,0,0,0,0,-1,1910,1646,0,0
693,-622,0,0,0,0,0,0,0,0,0,-1,1917,1646,0,0
700,-622,0,0,0,0,0,0,0,0,0,-1,1924,1646,0,0
707,-622,0,0,0,0,0,0,0,0,0,-1,1931,1646,0,0
714,-622,0,0,0,0,0,0,0,0,0,-1,1938,1646,0,0
721,-622,0,0,0,0,0,0,0,0,0,-1,1945,1646,0,0
728,-622,0,0,0,0,0,0,0,0,0,-1,1952,1646,0,0
735,-622,0,0,0,0,0,0,0,0,0,-1,1959,1646,0,0
742,-622,0,0,0,0,0,0,0,0,0,-1,1966,1646,0,0
749,-622,0,0,0,0,0,0,0,0,0,-1,1973,1646,0,0
756,-622,0,0,0,0,0,0,0,0,0,-1,1980,1646,0,0
763,-622,0,0,0,0,0,0,0,0,0,-1,1987,1646,0,0
770,-622,0,0,0,0,0,0,0,0,0,-1,1994,1646,0,0
777,-622,0,0,0,0,0,0,0,0,0,-1,2001,1646,0,0
784,-622,0,0,0,0,0,0,0,0,0,-1,2008,1646,0,0
791,-622,0,0,0,0,0,0,0,0,0,-1,2015,1646,0,0
798,-622,0,0,0,0,0,0,0,0,0,-1,2022,1646,0,0
805,-622,0,0,0,0,0,0,0,0,0,-1,2029,1646,0,0
812,-622,0,0,0,0,0,0,0,0,0,-1,2036,1646,0,0
-700,-629,0,0,0,0,0,0,0,0,0,-1,524,1653,0,0
-693,-629,0,0,0,0,0,0,0,0,0,-1,531,1653,0,0
-686,-629,0,0,0,0,0,0,0,0,0,-1,538,1653,0,0
-679,-629,0,0,0,0,0,0,0,0,0,-1,545,1653,0,0
-672,-629,0,0,0,0,0,0,0,0,0,-1,552,1653,0,0
-665,-629,0,0,0,0,0,0,0,0,0,-1,559,1653,0,0
-658,-629,0,0,0,0,0,0,0,0,0,-1,566,1653,0,0
-651,-629,0,0,0,0,0,0,0,0,0,-1,573,1653,0,0
-644,-629,0,0,0,0,0,0,0,0,0,-1,580,1653,0,0
-637,-629,0,0,0,0,0,0,0,0,0,-1,587,1653,0,0
-630,-629,0,0,0,0,0,0,0,0,0,-1,594,1653,0,0
-623,-629,0,0,0,0,0,0,0,0,0,-1,601,1653,0,0
-616,-629,0,0,0,0,0,0,0,0,0,-1,608,1653,0,0
-609,-629,0,0,0,0,0,0,0,0,0,-1,615,1653,0,0
-602,-629,0,0,0,0,0,0,0,0,0,-1,622,1653,0,0
-595,-629,0,0,0,0,0,0,0,0,0,-1,629,1653,0,0
-588,-629,0,0,0,0,0,0,0,0,0,-1,636,1653,0,0
-581,-629,0,0,0,0,0,0,0,0,0,-1,643,1653,0,0
-574,-629,0,0,0,0,0,0,0,0,0,-1,650,1653,0,0
-567,-629,0,0,0,0,0,0,0,0,0,-1,657,1653,0,0
-560,-629,0,0,0,0,0,0,0,0,0,-1,664,1653,0,0
-553,-629,0,0,0,0,0,0,0,0,0,-1,671,1653,0,0
-546,-629,0,0,0,0,0,0,0,0,0,-1,678,1653,0,0
-539,-629,0,0,0,0,0,0,0,0,0,-1,685,1653,0,0
-532,-629,0,0,0,0,0,0,0,0,0,-1,692,1653,0,0
-525,-629,0,0,0,0,0,0,0,0,0,-1,699,1653,0,0
-518,-629,0,0,0,0,0,0,0,0,0,-1,706,1653,0,0
-511,-629,0,0,0,0,0,0,0,0,0,-1,713,1653,0,0
-504,-629,0,0,0,0,0,0,0,0,0,-1,720,1653,0,0
-497,-629,0,0,0,0,0,0,0,0,0,-1,727,1653,0,0
-490,-629,0,0,0,0,0,0,0,0,0,-1,734,1653,0,0
-483,-629,0,0,0,0,0,0,0,0,0,-1,741,1653,0,0
-476,-629,0,0,0,0,0,0,0,0,0,-1,748,1653,0,0
-469,-629,0,0,0,0,0,0,0,0,0,-1,755,1653,0,0
-462,-629,0,0,0,0,0,0,0,0,0,-1,762,1653,0,0
-455,-629,0,0,0,0,0,0,0,0,0,-1,769,1653,0,0
-448,-629,0,0,0,0,0,0,0,0,0,-1,776,1653,0,0
-441,-629,0,0,0,0,0,0,0,0,0,-1,783,1653,0,0
-434,-629,0,0,0,0,0,0,0,0,0,-1,790,1653,0,0
-427,-629,0,0,0,0,0,0,0,0,0,-1,797,1653,0,0
-420,-629,-3.87103,3.37634,0,0,0,0,0,0,0,-1,804,1653,-3.87101,-3.37633
-413,-629,-5.69751,1.33582,0,0,0,0,0,0,0,-1,811,1653,-5.69754,-1.3358
-406,-629,2.85406,6.01501,0,0,0,0,0,0,0,-1,818,1653,2.85405,-6.01507
-399,-629,-0.455627,10.8687,0,0,0,0,0,0,0,-1,825,1653,-0.455625,-10.8687
-392,-629,1.15369,11.1295,0,0,0,0,0,0,0,-1,832,1653,1.1537,-11.1295
-385,-629,1.81976,11.6935,0,0,0,0,0,0,0,-1,839,1653,1.81975,-11.6935
-378,-629,2.19452,14.7941,0,0,0,0,0,0,0,-1,846,1653,2.19451,-14.7941
-371,-629,3.60114,14.7299,0,0,0,0,0,0,0,-1,853,1653,3.60113,-14.7299
-364,-629,2.78955,16.873,0,0,0,0,0,0,0,-1,860,1653,2.78953,-16.873
-357,-629,4.38782,16.3444,0,0,0,0,0,0,0,-1,867,1653,4.38783,-16.3443
-350,-629,3.33197,18.0504,0,0,0,0,0,0,0,-1,874,1653,3.33196,-18.0504
-343,-629,3.46216,18.3405,0.0120088,0.00649691,0.0113455,0.0209283,-0.00242254,0.666249,0.0148258,0.0443121,881,1653,3.46219,-18.3405
-336,-629,3.51947,18.574,0.0112728,0.0057578,0.0100585,0.0189449,-0.00191432,0.651612,0.013314,0.0178739,888,1653,3.51946,-18.5739
-329,-629,3.55688,18.9175,0.0103887,0.00518546,0.00883221,0.0169945,-0.00142032,0.642168,0.0118316,0.0119006,895,1653,3.55689,-18.9175
-322,-629,3.54871,19.241,0.00905773,0.00487642,0.00762113,0.0148698,-0.000935612,0.65153,0.0102393,0.0120895,902,1653,3.54873,-19.241
-315,-629,3.53241,19.5511,0.00742634,0.0044556,0.00638594,0.0124974,-0.000615443,0.67113,0.00854412,0.0152542,909,1653,3.53244,-19.5511
-308,-629,3.51636,19.874,0.0058634,0.00393062,0.00507111,0.0100594,-0.00026536,0.691243,0.00679643,0.013228,916,1653,3.51636,-19.8741
-301,-629,3.52393,20.2195,0.00443551,0.00343608,0.00388333,0.00785114,2.04486e-05,0.721409,0.00522729,0.0110702,923,1653,3.52392,-20.2195
-294,-629,3.51074,20.5459,0.00317265,0.00288235,0.00276793,0.00579923,0.000255767,0.759202,0.00378378,0.0109921,930,1653,3.51075,-20.5459
-287,-629,3.47894,20.8478,0.00213254,0.00247195,0.00182438,0.00413451,0.000469988,0.831775,0.0026138,0.00893833,937,1653,3.47892,-20.8478
-280,-629,3.48224,21.1561,0.0014443,0.0021031,0.00103198,0.00285697,0.00069042,0.939884,0.0017213,0.00929958,944,1653,3.48222,-21.1561
-273,-629,3.48376,21.4338,0.00113535,0.00174345,0.000404743,0.00194563,0.000933174,1.10754,0.00112362,0.0124642,951,1653,3.48375,-21.4339
-266,-629,3.47107,21.7327,0.00095774,0.00123484,-0.000143889,0.00129604,0.00089654,-1.16865,0.000766393,0.0129064,958,1653,3.47104,-21.7327
-259,-629,3.46527,22.0587,0.00122404,0.00107661,-0.000395719,0.00155285,0.000747799,-0.693317,0.000896742,0.0137636,965,1653,3.4653,-22.0587
-252,-629,3.47839,22.3263,0.00183532,0.00107409,-0.000476299,0.0020644,0.00084501,-0.448299,0.0011984,0.0111186,972,1653,3.4784,-22.3263
-245,-629,3.51868,22.6135,0.00259742,0.00101609,-0.000439102,0.00271117,0.000902342,-0.253473,0.00159419,0.00847523,979,1653,3.51868,-22.6136
-238,-629,3.52301,22.8921,0.00346026,0.000884987,-0.000449592,0.00353649,0.000808754,-0.167964,0.00213965,0.0107281,986,1653,3.52302,-22.8921
-231,-629,3.4967,23.163,0.00440491,0.000138286,-0.000470686,0.00445621,8.69778e-05,-0.108579,0.00294225,0.0124421,993,1653,3.49673,-23.163
-224,-629,3.57526,23.5029,0.00539276,-0.000329819,-0.00036534,0.00541599,-0.000353049,-0.0634983,0.00373391,0.0140919,1000,1653,3.57525,-23.503
-217,-629,3.53833,23.7015,0.00683649,-9.63021e-05,0.000454004,0.0068661,-0.000125907,0.0651158,0.00461994,0.0249189,1007,1653,3.53832,-23.7016
-210,-629,3.64716,24.0535,0,0,0,0,0,0,0,-1,1014,1653,3.64718,-24.0535
-203,-629,3.65015,24.8287,0,0,0,0,0,0,0,-1,1021,1653,3.6502,-24.8288
-196,-629,4.01318,24.6273,0,0,0,0,0,0,0,-1,1028,1653,4.01313,-24.6273
-189,-629,3.89307,24.5426,0,0,0,0,0,0,0,-1,1035,1653,3.8931,-24.5425
-182,-629,4.0802,24.8821,0,0,0,0,0,0,0,-1,1042,1653,4.08022,-24.8821
-175,-629,3.29102,19.1411,0,0,0,0,0,0,0,-1,1049,1653,3.29096,-19.1411
-168,-629,4.4718,25.9102,0,0,0,0,0,0,0,-1,1056,1653,4.47182,-25.9102
-161,-629,4.11182,25.6318,0.0108442,-0.021406,-0.00598738,0.0119199,-0.0224817,-0.177765,0.0201714,0.0471114,1063,1653,4.11183,-25.6318
-154,-629,4.03113,25.5375,0.0113483,-0.0261864,-0.00821439,0.0130673,-0.0279054,-0.206287,0.0241671,0.0461649,1070,1653,4.03109,-25.5375
-147,-629,3.98853,25.4623,0,0,0,0,0,0,0,-1,1077,1653,3.98853,-25.4623
-140,-629,2.34851,19.2911,0,0,0,0,0,0,0,-1,1084,1653,2.34853,-19.2911
-133,-629,3.41248,17.6686,0,0,0,0,0,0,0,-1,1091,1653,3.41243,-17.6686
-126,-629,4.01025,19.5328,0,0,0,0,0,0,0,-1,1098,1653,4.01022,-19.5328
-119,-629,4.94177,13.5525,0,0,0,0,0,0,0,-1,1105,1653,4.94172,-13.5525
-112,-629,5.63123,15.9187,0,0,0,0,0,0,0,-1,1112,1653,5.63118,-15.9187
-105,-629,2.15881,4.38342,0,0,0,0,0,0,0,-1,1119,1653,2.15878,-4.38347
-98,-629,0.825806,4.19385,0,0,0,0,0,0,0,-1,1126,1653,0.825779,-4.1939
-91,-629,-0.452271,3.64465,0,0,0,0,0,0,0,-1,1133,1653,-0.452278,-3.6446
-84,-629,-2.6084,0.466797,0,0,0,0,0,0,0,-1,1140,1653,-2.6084,-0.466786
-77,-629,-3.50903,2.10706,0,0,0,0,0,0,0,-1,1147,1653,-3.509,-2.10707
-70,-629,-1.20886,2.52502,0,0,0,0,0,0,0,-1,1154,1653,-1.20886,-2.525
-63,-629,-0.960693,4.30212,0,0,0,0,0,0,0,-1,1161,1653,-0.960691,-4.30215
-56,-629,-1.31934,5.64343,0,0,0,0,0,0,0,-1,1168,1653,-1.31928,-5.6434
-49,-629,-2.15662,2.57458,0,0,0,0,0,0,0,-1,1175,1653,-2.15656,-2.57459
-42,-629,-2.46326,3.91467,0,0,0,0,0,0,0,-1,1182,1653,-2.4633,-3.91466
-35,-629,-2.67261,5.24292,0,0,0,0,0,0,0,-1,1189,1653,-2.67257,-5.24298
-28,-629,-0.402954,-0.866577,0,0,0,0,0,0,0,-1,1196,1653,-0.402943,0.866612
-21,-629,3.45508,27.0596,0,0,0,0,0,0,0,-1,1203,1653,3.45508,-27.0596
-14,-629,5.41602,28.2192,0,0,0,0,0,0,0,-1,1210,1653,5.41603,-28.2192
-7,-629,-2.09583,45.4052,0,0,0,0,0,0,0,-1,1217,1653,-2.09585,-45.4051
0,-629,-0.91394,43.6194,0.162222,0.229835,-0.270848,0.468978,-0.0769213,-0.847485,0.341195,0.0483136,1224,1653,-0.913966,-43.6194
7,-629,0.060791,41.7419,0.147491,0.215171,-0.261529,0.44504,-0.0823786,-0.849737,0.327623,0.0448717,1231,1653,0.060842,-41.742
14,-629,1.4917,39.3656,0.129788,0.1983,-0.253557,0.419904,-0.0918168,-0.852542,0.315034,0.0439414,1238,1653,1.49175,-39.3656
21,-629,3.00745,36.7428,0,0,0,0,0,0,0,-1,1245,1653,3.00746,-36.7428
28,-629,2.65356,35.6815,0,0,0,0,0,0,0,-1,1252,1653,2.65361,-35.6815
35,-629,2.20667,34.6907,0.0625617,0.149114,-0.228487,0.338387,-0.126711,-0.878991,0.27764,0.0438777,1259,1653,2.20661,-34.6906
42,-629,1.99915,33.2836,0.0405595,0.134695,-0.220442,0.313038,-0.137784,-0.890576,0.266757,0.047103,1266,1653,1.99911,-33.2835
49,-629,1.73645,31.6284,0.0197533,0.124752,-0.21285,0.291482,-0.146977,-0.906309,0.257686,0.0474608,1273,1653,1.7365,-31.6284
56,-629,2.30591,28.0952,0,0,0,0,0,0,0,-1,1280,1653,2.30596,-28.0952
63,-629,1.6134,26.3757,-0.0302701,0.11343,-0.201538,0.255542,-0.172382,-0.956629,0.248612,0.0467589,1287,1653,1.61335,-26.3757
70,-629,0.989136,24.5745,-0.0638496,0.115767,-0.193262,0.239068,-0.187151,-1.0029,0.246685,0.0447211,1294,1653,0.989171,-24.5744
77,-629,-0.129272,23.3562,0,0,0,0,0,0,0,-1,1301,1653,-0.129281,-23.3562
84,-629,-0.542358,21.6194,0,0,0,0,0,0,0,-1,1308,1653,-0.542311,-21.6194
91,-629,-0.660278,19.9451,-0.0880874,0.163526,-0.181056,0.258193,-0.182754,-1.08903,0.25582,0.0470312,1315,1653,-0.660279,-19.9451
98,-629,-1.28613,18.8562,-0.0906681,0.185079,-0.17796,0.272325,-0.177915,-1.11497,0.261844,0.0445213,1322,1653,-1.28618,-18.8562
105,-629,-1.81689,17.4429,-0.0853203,0.211045,-0.175612,0.29264,-0.166915,-1.13584,0.268614,0.0496623,1329,1653,-1.81687,-17.4428
112,-629,-2.3042,15.9727,0,0,0,0,0,0,0,-1,1336,1653,-2.30418,-15.9726
119,-629,-2.80713,14.4281,-0.0661737,0.272606,-0.178086,0.348996,-0.142564,-1.16559,0.292025,0.0430856,1343,1653,-2.80716,-14.4281
126,-629,-3.3645,13.1821,-0.0611719,0.299144,-0.181683,0.374849,-0.136877,-1.17599,0.305908,0.0423454,1350,1653,-3.36447,-13.1822
133,-629,-4.02283,12.1938,-0.0958078,0.319409,-0.189206,0.392692,-0.169091,-1.20127,0.3328,0.0489653,1357,1653,-4.02281,-12.1938
140,-629,-4.68506,10.9103,0,0,0,0,0,0,0,-1,1364,1653,-4.68509,-10.9103
147,-629,6.20081,-7.66833,0,0,0,0,0,0,0,-1,1371,1653,6.20075,7.66834
154,-629,10.8354,22.9854,0,0,0,0,0,0,0,-1,1378,1653,10.8355,-22.9854
161,-629,10.5461,6.83752,0,0,0,0,0,0,0,-1,1385,1653,10.5461,-6.83758
168,-629,12.0059,5.56348,0,0,0,0,0,0,0,-1,1392,1653,12.0059,-5.56352
175,-629,5.84485,-1.78845,0,0,0,0,0,0,0,-1,1399,1653,5.84479,1.7884
182,-629,5.99036,-1.27783,0,0,0,0,0,0,0,-1,1406,1653,5.99041,1.27778
189,-629,5.97668,-0.748535,0,0,0,0,0,0,0,-1,1413,1653,5.97671,0.748544
196,-629,4.52869,9.24695,0,0,0,0,0,0,0,-1,1420,1653,4.52869,-9.2469
203,-629,3.75085,6.88037,0,0,0,0,0,0,0,-1,1427,1653,3.75087,-6.88032
210,-629,3.5907,6.52637,0,0,0,0,0,0,0,-1,1434,1653,3.59067,-6.52642
217,-629,2.4585,4.84448,0,0,0,0,0,0,0,-1,1441,1653,2.45855,-4.84448
224,-629,1.31982,3.68481,0,0,0,0,0,0,0,-1,1448,1653,1.31986,-3.68487
231,-629,3.63025,1.73499,0,0,0,0,0,0,0,-1,1455,1653,3.6303,-1.735
238,-629,4.26428,2.11255,0,0,0,0,0,0,0,-1,1462,1653,4.26429,-2.11253
245,-629,5.61816,1.95361,0,0,0,0,0,0,0,-1,1469,1653,5.61815,-1.95359
252,-629,7.27136,2.18982,0,0,0,0,0,0,0,-1,1476,1653,7.27131,-2.18985
259,-629,8.67334,2.18628,0,0,0,0,0,0,0,-1,1483,1653,8.6733,-2.18633
266,-629,6.86475,3.72058,0,0,0,0,0,0,0,-1,1490,1653,6.86479,-3.72063
273,-629,7.9021,3.8717,0,0,0,0,0,0,0,-1,1497,1653,7.90205,-3.87171
280,-629,9.70837,4.39087,0,0,0,0,0,0,0,-1,1504,1653,9.7084,-4.39082
287,-629,9.82947,7.19348,0,0,0,0,0,0,0,-1,1511,1653,9.8295,-7.19347
294,-629,6.56555,11.6359,0,0,0,0,0,0,0,-1,1518,1653,6.5656,-11.6358
301,-629,6.93835,15.6102,0,0,0,0,0,0,0,-1,1525,1653,6.93835,-15.6103
308,-629,6.08264,12.1423,0,0,0,0,0,0,0,-1,1532,1653,6.08263,-12.1423
315,-629,6.82043,18.2764,0,0,0,0,0,0,0,-1,1539,1653,6.82049,-18.2764
322,-629,8.85645,25.6107,0,0,0,0,0,0,0,-1,1546,1653,8.85648,-25.6108
329,-629,9.05566,25.3114,0.00828128,0.0138045,-0.0032742,0.0153262,0.00675955,-1.13573,0.00886905,0.0476618,1553,1653,9.05567,-25.3114
336,-629,9.25989,24.994,0.00690146,0.0122083,-0.00257496,0.0132523,0.00585744,-1.1856,0.00766839,0.0432616,1560,1653,9.25986,-24.994
343,-629,9.2655,24.5353,0.00556656,0.0103728,-0.00199536,0.0110932,0.00484615,-1.22432,0.00642167,0.0449037,1567,1653,9.26553,-24.5353
350,-629,9.30579,24.2916,0.00455121,0.00856789,-0.00139605,0.00900544,0.00411366,-1.26707,0.00520576,0.02836,1574,1653,9.30579,-24.2917
357,-629,9.35083,23.9982,0.00379461,0.00710244,-0.000969347,0.00736557,0.00353148,-1.30573,0.00425371,0.0153807,1581,1653,9.35079,-23.9982
364,-629,9.31311,23.7443,0.00307331,0.00568305,-0.000607579,0.00581757,0.00293879,-1.35291,0.00335883,0.0130523,1588,1653,9.31314,-23.7443
371,-629,9.28235,23.5116,0.00243,0.004403,-0.000254376,0.00443527,0.00239774,-1.44462,0.00256351,0.0105357,1595,1653,9.28231,-23.5116
378,-629,9.28015,23.259,0.00179883,0.00333915,5.81116e-05,0.00334134,0.00179664,1.53314,0.00193095,0.00988439,1602,1653,9.28013,-23.2591
385,-629,9.28088,22.9978,0.00121225,0.00203221,0.000284069,0.002121,0.00112345,1.26783,0.00122528,0.0122897,1609,1653,9.28092,-22.9978
392,-629,9.27161,22.7446,0.000876361,0.00111699,0.000368202,0.00138404,0.000609316,0.943312,0.000800974,0.0109412,1616,1653,9.27164,-22.7446
399,-629,9.27881,22.4729,0.000593215,0.000580057,0.000454068,0.00104075,0.00013252,0.778154,0.000654151,0.0105859,1623,1653,9.27886,-22.4729
406,-629,9.29102,22.1805,0.000324104,8.48906e-05,0.000571453,0.000788333,-0.000379338,0.682236,0.000687802,0.0129037,1630,1653,9.29105,-22.1805
413,-629,9.29224,21.8702,0.000137049,-0.000384187,0.00065605,0.000582351,-0.000829489,0.59633,0.000819278,0.0202613,1637,1653,9.29218,-21.8702
420,-629,9.27124,21.6351,0.000181749,-0.00117875,0.000785372,0.000540512,-0.00153752,0.4285,0.00124493,0.0189171,1644,1653,9.27121,-21.6352
427,-629,9.27588,21.3767,0.000603925,-0.00267411,0.000619788,0.000717197,-0.00278738,0.180763,0.00213781,0.0121841,1651,1653,9.27593,-21.3768
434,-629,9.29907,21.0675,0.00101848,-0.00389632,6.096e-05,0.00101923,-0.00389708,0.0124008,0.00299615,0.0103163,1658,1653,9.29905,-21.0675
441,-629,9.30261,20.772,0.00141551,-0.00491731,-0.000974984,0.00156221,-0.00506401,-0.149351,0.00399977,0.0140574,1665,1653,9.3026,-20.7719
448,-629,9.2605,20.4492,0.00221423,-0.00612409,-0.00210883,0.00271723,-0.00662709,-0.234145,0.00555014,0.0131463,1672,1653,9.26047,-20.4492
455,-629,9.22656,20.1443,0.00312025,-0.00770785,-0.00354232,0.00417613,-0.00876373,-0.28969,0.00762573,0.0132452,1679,1653,9.22656,-20.1443
462,-629,9.24695,19.8892,0.00418316,-0.00935103,-0.00546608,0.006115,-0.0112829,-0.339722,0.0101913,0.0177994,1686,1653,9.24699,-19.8892
469,-629,9.23865,19.566,0.00533809,-0.0109384,-0.00794721,0.00857478,-0.0141751,-0.386761,0.0132667,0.0196977,1693,1653,9.2386,-19.5661
476,-629,9.3252,19.2937,0.00651749,-0.0121974,-0.010969,0.0115781,-0.017258,-0.432257,0.0167559,0.0273622,1700,1653,9.3252,-19.2937
483,-629,9.15955,18.7329,0.00756129,-0.0126051,-0.0145639,0.0151919,-0.0202357,-0.482615,0.0205231,0.0387602,1707,1653,9.1596,-18.7329
490,-629,9.04382,17.9761,0.00844874,-0.0124733,-0.0187806,0.0194853,-0.0235098,-0.531293,0.0248595,0.0415757,1714,1653,9.04385,-17.9761
497,-629,9.77246,17.6674,0,0,0,0,0,0,0,-1,1721,1653,9.77242,-17.6674
504,-629,7.89453,15.5316,0,0,0,0,0,0,0,-1,1728,1653,7.89447,-15.5316
511,-629,6.29138,3.40295,0,0,0,0,0,0,0,-1,1735,1653,6.29137,-3.403
518,-629,5.84387,1.41858,0,0,0,0,0,0,0,-1,1742,1653,5.84391,-1.4186
525,-629,6.4729,1.02319,0,0,0,0,0,0,0,-1,1749,1653,6.47284,-1.02316
532,-629,6.86511,0.903687,0,0,0,0,0,0,0,-1,1756,1653,6.86514,-0.903691
539,-629,6.60803,0.746704,0,0,0,0,0,0,0,-1,1763,1653,6.60809,-0.746691
546,-629,0,0,0,0,0,0,0,0,0,-1,1770,1653,0,0
553,-629,0,0,0,0,0,0,0,0,0,-1,1777,1653,0,0
560,-629,0,0,0,0,0,0,0,0,0,-1,1784,1653,0,0
567,-629,0,0,0,0,0,0,0,0,0,-1,1791,1653,0,0
574,-629,0,0,0,0,0,0,0,0,0,-1,1798,1653,0,0
581,-629,0,0,0,0,0,0,0,0,0,-1,1805,1653,0,0
588,-629,0,0,0,0,0,0,0,0,0,-1,1812,1653,0,0
595,-629,0,0,0,0,0,0,0,0,0,-1,1819,1653,0,0
602,-629,0,0,0,0,0,0,0,0,0,-1,1826,1653,0,0
609,-629,0,0,0,0,0,0,0,0,0,-1,1833,1653,0,0
616,-629,0,0,0,0,0,0,0,0,0,-1,1840,1653,0,0
623,-629,0,0,0,0,0,0,0,0,0,-1,1847,1653,0,0
630,-629,0,0,0,0,0,0,0,0,0,-1,1854,1653,0,0
637,-629,0,0,0,0,0,0,0,0,0,-1,1861,1653,0,0
644,-629,0,0,0,0,0,0,0,0,0,-1,1868,1653,0,0
651,-629,0,0,0,0,0,0,0,0,0,-1,1875,1653,0,0
658,-629,0,0,0,0,0,0,0,0,0,-1,1882,1653,0,0
665,-629,0,0,0,0,0,0,0,0,0,-1,1889,1653,0,0
672,-629,0,0,0,0,0,0,0,0,0,-1,1896,1653,0,0
679,-629,0,0,0,0,0,0,0,0,0,-1,1903,1653,0,0
686,-629,0,0,0,0,0,0,0,0,0,-1,1910,1653,0,0
693,-629,0,0,0,0,0,0,0,0,0,-1,1917,1653,0,0
700,-629,0,0,0,0,0,0,0,0,0,-1,1924,1653,0,0
707,-629,0,0,0,0,0,0,0,0,0,-1,1931,1653,0,0
714,-629,0,0,0,0,0,0,0,0,0,-1,1938,1653,0,0
721,-629,0,0,0,0,0,0,0,0,0,-1,1945,1653,0,0
728,-629,0,0,0,0,0,0,0,0,0,-1,1952,1653,0,0
735,-629,0,0,0,0,0,0,0,0,0,-1,1959,1653,0,0
742,-629,0,0,0,0,0,0,0,0,0,-1,1966,1653,0,0
749,-629,0,0,0,0,0,0,0,0,0,-1,1973,1653,0,0
756,-629,0,0,0,0,0,0,0,0,0,-1,1980,1653,0,0
763,-629,0,0,0,0,0,0,0,0,0,-1,1987,1653,0,0
770,-629,0,0,0,0,0,0,0,0,0,-1,1994,1653,0,0
777,-629,0,0,0,0,0,0,0,0,0,-1,2001,1653,0,0
784,-629,0,0,0,0,0,0,0,0,0,-1,2008,1653,0,0
791,-629,0,0,0,0,0,0,0,0,0,-1,2015,1653,0,0
798,-629,0,0,0,0,0,0,0,0,0,-1,2022,1653,0,0
805,-629,0,0,0,0,0,0,0,0,0,-1,2029,1653,0,0
812,-629,0,0,0,0,0,0,0,0,0,-1,2036,1653,0,0
-700,-636,0,0,0,0,0,0,0,0,0,-1,524,1660,0,0
-693,-636,0,0,0,0,0,0,0,0,0,-1,531,1660,0,0
-686,-636,0,0,0,0,0,0,0,0,0,-1,538,1660,0,0
-679,-636,0,0,0,0,0,0,0,0,0,-1,545,1660,0,0
-672,-636,0,0,0,0,0,0,0,0,0,-1,552,1660,0,0
-665,-636,0,0,0,0,0,0,0,0,0,-1,559,1660,0,0
-658,-636,0,0,0,0,0,0,0,0,0,-1,566,1660,0,0
-651,-636,0,0,0,0,0,0,0,0,0,-1,573,1660,0,0
-644,-636,0,0,0,0,0,0,0,0,0,-1,580,1660,0,0
-637,-636,0,0,0,0,0,0,0,0,0,-1,587,1660,0,0
-630,-636,0,0,0,0,0,0,0,0,0,-1,594,1660,0,0
-623,-636,0,0,0,0,0,0,0,0,0,-1,601,1660,0,0
-616,-636,0,0,0,0,0,0,0,0,0,-1,608,1660,0,0
-609,-636,0,0,0,0,0,0,0,0,0,-1,615,1660,0,0
-602,-636,0,0,0,0,0,0,0,0,0,-1,622,1660,0,0
-595,-636,0,0,0,0,0,0,0,0,0,-1,629,1660,0,0
-588,-636,0,0,0,0,0,0,0,0,0,-1,636,1660,0,0
-581,-636,0,0,0,0,0,0,0,0,0,-1,643,1660,0,0
-574,-636,0,0,0,0,0,0,0,0,0,-1,650,1660,0,0
-567,-636,0,0,0,0,0,0,0,0,0,-1,657,1660,0,0
-560,-636,0,0,0,0,0,0,0,0,0,-1,664,1660,0,0
-553,-636,0,0,0,0,0,0,0,0,0,-1,671,1660,0,0
-546,-636,0,0,0,0,0,0,0,0,0,-1,678,1660,0,0
-539,-636,0,0,0,0,0,0,0,0,0,-1,685,1660,0,0
-532,-636,0,0,0,0,0,0,0,0,0,-1,692,1660,0,0
-525,-636,0,0,0,0,0,0,0,0,0,-1,699,1660,0,0
-518,-636,0,0,0,0,0,0,0,0,0,-1,706,1660,0,0
-511,-636,0,0,0,0,0,0,0,0,0,-1,713,1660,0,0
-504,-636,0,0,0,0,0,0,0,0,0,-1,720,1660,0,0
-497,-636,0,0,0,0,0,0,0,0,0,-1,727,1660,0,0
-490,-636,0,0,0,0,0,0,0,0,0,-1,734,1660,0,0
-483,-636,0,0,0,0,0,0,0,0,0,-1,741,1660,0,0
-476,-636,0,0,0,0,0,0,0,0,0,-1,748,1660,0,0
-469,-636,0,0,0,0,0,0,0,0,0,-1,755,1660,0,0
-462,-636,0,0,0,0,0,0,0,0,0,-1,762,1660,0,0
-455,-636,0,0,0,0,0,0,0,0,0,-1,769,1660,0,0
-448,-636,0,0,0,0,0,0,0,0,0,-1,776,1660,0,0
-441,-636,0,0,0,0,0,0,0,0,0,-1,783,1660,0,0
-434,-636,0,0,0,0,0,0,0,0,0,-1,790,1660,0,0
-427,-636,0,0,0,0,0,0,0,0,0,-1,797,1660,0,0
-420,-636,0,0,0,0,0,0,0,0,0,-1,804,1660,0,0
-413,-636,0,0,0,0,0,0,0,0,0,-1,811,1660,0,0
-406,-636,-0.591125,10.6943,0,0,0,0,0,0,0,-1,818,1660,-0.59115,-10.6943
-399,-636,0.0766602,11.2408,0,0,0,0,0,0,0,-1,825,1660,0.076685,-11.2409
-392,-636,0.75946,11.9233,0,0,0,0,0,0,0,-1,832,1660,0.759481,-11.9233
-385,-636,1.68878,12.517,0,0,0,0,0,0,0,-1,839,1660,1.6888,-12.5169
-378,-636,2.22107,13.0013,0,0,0,0,0,0,0,-1,846,1660,2.22107,-13.0014
-371,-636,2.52185,11.9684,0,0,0,0,0,0,0,-1,853,1660,2.52184,-11.9684
-364,-636,4.51947,14.8503,0,0,0,0,0,0,0,-1,860,1660,4.51949,-14.8504
-357,-636,4.55682,15.8809,0,0,0,0,0,0,0,-1,867,1660,4.55681,-15.8808
-350,-636,2.63104,14.4946,0,0,0,0,0,0,0,-1,874,1660,2.63102,-14.4946
-343,-636,3.66376,18.254,0,0,0,0,0,0,0,-1,881,1660,3.66377,-18.254
-336,-636,3.76715,18.5724,0.0168455,0.00931131,0.0147157,0.0282686,-0.00211182,0.660094,0.0195877,0.0330263,888,1660,3.76715,-18.5724
-329,-636,3.87695,18.9075,0.014969,0.00847832,0.0128661,0.0249927,-0.0015454,0.661855,0.0172001,0.0194137,895,1660,3.87693,-18.9074
-322,-636,3.87903,19.2562,0.0126942,0.0074664,0.0109692,0.0213566,-0.00119608,0.668433,0.0146527,0.0120942,902,1660,3.87906,-19.2563
-315,-636,3.83551,19.5662,0.0101734,0.0063896,0.00909683,0.017573,-0.00100999,0.682874,0.0120661,0.0121128,909,1660,3.83553,-19.5662
-308,-636,3.83423,19.8931,0.00786902,0.00524935,0.00722895,0.0139058,-0.00078747,0.695774,0.00954388,0.0112173,916,1660,3.83423,-19.8931
-301,-636,3.84479,20.2271,0.00583528,0.00423755,0.00557411,0.0106675,-0.000594647,0.714224,0.00731793,0.0109024,923,1660,3.84476,-20.227
-294,-636,3.8136,20.5641,0.00410173,0.00320788,0.00406681,0.0077461,-0.000436493,0.73067,0.00531554,0.0135155,930,1660,3.81359,-20.5641
-287,-636,3.80103,20.8649,0.00270402,0.00241989,0.00282184,0.00538737,-0.000263456,0.760247,0.00368254,0.011866,937,1660,3.80101,-20.8649
-280,-636,3.8067,21.1631,0.00172894,0.00175635,0.00180148,0.00354418,-5.88865e-05,0.789202,0.00238266,0.0108946,944,1660,3.80668,-21.163
-273,-636,3.78961,21.4318,0.00121264,0.00119481,0.00100768,0.00221145,0.000196001,0.780974,0.0014135,0.0111759,951,1660,3.78964,-21.4318
-266,-636,3.77515,21.7347,0.000739337,0.000515473,0.000233308,0.000886174,0.000368636,0.561736,0.000514035,0.012774,958,1660,3.77518,-21.7347
-259,-636,3.78217,22.0635,0.000817841,0.000278318,-0.000163045,0.000863286,0.000232873,-0.271826,0.000515733,0.0141974,965,1660,3.78219,-22.0635
-252,-636,3.77979,22.3313,0.00130452,0.000292815,-0.000336574,0.00140626,0.000191075,-0.293548,0.000880753,0.0113345,972,1660,3.77978,-22.3313
-245,-636,3.80084,22.6228,0.00195503,0.000353107,-0.000336044,0.00202267,0.00028547,-0.198623,0.00126408,0.0106608,979,1660,3.80084,-22.6228
-238,-636,3.80872,22.8956,0.00268621,0.000383457,-0.000320214,0.00272991,0.000339758,-0.13563,0.00171792,0.0119618,986,1660,3.80869,-22.8957
-231,-636,3.79968,23.1635,0.00346209,5.50827e-05,-0.000265158,0.00348261,3.45698e-05,-0.0772077,0.0023103,0.0114013,993,1660,3.79971,-23.1635
-224,-636,3.81995,23.4368,0.00423563,9.03961e-05,-7.5011e-05,0.00423699,8.90391e-05,-0.0180878,0.00279545,0.00935753,1000,1660,3.81992,-23.4368
-217,-636,3.80725,23.7499,0.00536312,0.000423575,0.000605737,0.00543632,0.000350378,0.120256,0.00351325,0.0146775,1007,1660,3.80727,-23.7498
-210,-636,3.79919,24.0011,0.00633501,0.000258888,0.000987404,0.00649144,0.000102456,0.157121,0.00429388,0.0233549,1014,1660,3.79919,-24.0011
-203,-636,3.82666,24.3391,0.00679365,-0.0014121,0.000720494,0.00685644,-0.00147489,0.0869172,0.0051337,0.0300522,1021,1660,3.82672,-24.3391
-196,-636,4.01147,24.4849,0.0076432,-0.0022196,0.000813263,0.00770981,-0.00228621,0.0817221,0.00604774,0.0322851,1028,1660,4.01145,-24.4849
-189,-636,4.03162,24.6981,0.00815135,-0.00377922,0.000568322,0.00817836,-0.00380623,0.0474925,0.00707112,0.0308364,1035,1660,4.03157,-24.6982
-182,-636,4.16577,24.7803,0.00874662,-0.00577137,-1.40231e-05,0.00874663,-0.00577139,-0.000965913,0.00844045,0.0457113,1042,1660,4.16577,-24.7803
-175,-636,4.20361,25.5637,0,0,0,0,0,0,0,-1,1049,1660,4.20364,-25.5637
-168,-636,4.46631,25.7301,0.0100508,-0.0105091,-0.00139097,0.0101444,-0.0106028,-0.0672461,0.0119794,0.0493571,1056,1660,4.46635,-25.73
-161,-636,4.61182,26.017,0.0106734,-0.0129096,-0.00259055,0.0109546,-0.0131908,-0.108131,0.0139602,0.0441129,1063,1660,4.61177,-26.017
-154,-636,4.47205,26.1194,0.0115899,-0.0159478,-0.00397991,0.0121536,-0.0165115,-0.140691,0.0166134,0.046041,1070,1660,4.47203,-26.1194
-147,-636,4.39319,26.026,0,0,0,0,0,0,0,-1,1077,1660,4.39316,-26.0261
-140,-636,3.4729,27.1271,0,0,0,0,0,0,0,-1,1084,1660,3.47287,-27.1271
-133,-636,4.68311,18.0922,0,0,0,0,0,0,0,-1,1091,1660,4.68316,-18.0921
-126,-636,3.79028,18.2225,0,0,0,0,0,0,0,-1,1098,1660,3.79025,-18.2226
-119,-636,1.8667,13.8916,0,0,0,0,0,0,0,-1,1105,1660,1.86668,-13.8916
-112,-636,-1.24963,9.7998,0,0,0,0,0,0,0,-1,1112,1660,-1.24968,-9.79978
-105,-636,3.51624,4.72791,0,0,0,0,0,0,0,-1,1119,1660,3.51618,-4.7279
-98,-636,1.54504,5.11914,0,0,0,0,0,0,0,-1,1126,1660,1.54503,-5.11912
-91,-636,-1.87964,-2.25012,0,0,0,0,0,0,0,-1,1133,1660,-1.87966,2.25016
-84,-636,-2.84143,0.133667,0,0,0,0,0,0,0,-1,1140,1660,-2.84144,-0.133701
-77,-636,-3.57349,2.45935,0,0,0,0,0,0,0,-1,1147,1660,-3.57345,-2.45939
-70,-636,-4.23682,4.82312,0,0,0,0,0,0,0,-1,1154,1660,-4.23681,-4.82307
-63,-636,-2.21033,6.97168,0,0,0,0,0,0,0,-1,1161,1660,-2.21034,-6.97165
-56,-636,-2.51917,8.80359,0,0,0,0,0,0,0,-1,1168,1660,-2.51916,-8.80361
-49,-636,-3.13,10.4113,0,0,0,0,0,0,0,-1,1175,1660,-3.12996,-10.4112
-42,-636,-2.27771,4.90173,0,0,0,0,0,0,0,-1,1182,1660,-2.27775,-4.90173
-35,-636,-2.27698,5.89685,0,0,0,0,0,0,0,-1,1189,1660,-2.27695,-5.89686
-28,-636,-1.70654,4.83936,0,0,0,0,0,0,0,-1,1196,1660,-1.70656,-4.8393
-21,-636,4.24683,27.7834,0,0,0,0,0,0,0,-1,1203,1660,4.24687,-27.7835
-14,-636,1.18604,43.9104,0,0,0,0,0,0,0,-1,1210,1660,1.18599,-43.9104
-7,-636,1.10986,42.8822,0,0,0,0,0,0,0,-1,1217,1660,1.10989,-42.8822
0,-636,0.718262,41.9886,0.13529,0.223122,-0.25295,0.43594,-0.0775283,-0.871349,0.31962,0.0459912,1224,1660,0.718253,-41.9886
7,-636,1.03345,40.6469,0.124971,0.209056,-0.244814,0.415411,-0.081384,-0.870435,0.307678,0.043412,1231,1660,1.03347,-40.6468
14,-636,2.33459,37.9697,0.111741,0.192235,-0.237368,0.392744,-0.0887684,-0.869377,0.295891,0.0421279,1238,1660,2.33462,-37.9697
21,-636,3.46948,35.1907,0,0,0,0,0,0,0,-1,1245,1660,3.46951,-35.1907
28,-636,3.1521,35.4564,0,0,0,0,0,0,0,-1,1252,1660,3.15213,-35.4564
35,-636,3.0155,33.908,0.0569057,0.140867,-0.213454,0.31643,-0.118657,-0.882495,0.259704,0.044941,1259,1660,3.0155,-33.9079
42,-636,2.84387,32.2955,0.0384007,0.125377,-0.20538,0.291822,-0.128044,-0.88973,0.248481,0.0475614,1266,1660,2.8439,-32.2955
49,-636,2.80859,30.4517,0.0203663,0.114042,-0.197795,0.270469,-0.136061,-0.901657,0.238948,0.0455676,1273,1660,2.8086,-30.4516
56,-636,2.81702,27.9546,0.00555405,0.104832,-0.189148,0.250746,-0.140361,-0.913721,0.228784,0.0482629,1280,1660,2.81701,-27.9546
63,-636,2.13562,26.1938,-0.0033296,0.100511,-0.180397,0.23631,-0.139129,-0.925517,0.219167,0.0456091,1287,1660,2.13565,-26.1939
70,-636,1.52039,24.2126,-0.0020461,0.107448,-0.174743,0.235819,-0.130417,-0.937205,0.214346,0.0443047,1294,1660,1.52042,-24.2127
77,-636,0.69519,22.7833,0.006052,0.120496,-0.169543,0.242213,-0.115665,-0.94815,0.210883,0.0466337,1301,1660,0.695218,-22.7833
84,-636,0.251831,21.1033,0.0177779,0.135709,-0.164122,0.251137,-0.0976502,-0.957856,0.20777,0.0464604,1308,1660,0.251782,-21.1032
91,-636,-0.140625,19.3279,0.0350115,0.153991,-0.160434,0.26561,-0.0766075,-0.962942,0.207381,0.0422961,1315,1660,-0.140655,-19.3279
98,-636,-0.764404,17.7573,0.0575478,0.176477,-0.1573,0.285176,-0.051152,-0.966111,0.209263,0.0468348,1322,1660,-0.764425,-17.7574
105,-636,-1.32458,15.9905,0.083806,0.202886,-0.155689,0.310032,-0.0233393,-0.968033,0.21489,0.0485219,1329,1660,-1.32457,-15.9905
112,-636,-1.77502,14.3032,0,0,0,0,0,0,0,-1,1336,1660,-1.77507,-14.3033
119,-636,-1.7428,12.7297,0.124469,0.260979,-0.160571,0.3672,0.0182478,-0.986366,0.23895,0.0457249,1343,1660,-1.74278,-12.7298
126,-636,-2.41345,11.7332,0.123016,0.283144,-0.165128,0.386594,0.019566,-1.01113,0.251461,0.0436073,1350,1660,-2.41339,-11.7331
133,-636,-3.36658,10.8796,0.0822695,0.297991,-0.172348,0.393447,-0.0131869,-1.065,0.266802,0.0492218,1357,1660,-3.36657,-10.8796
140,-636,-4.05774,9.66614,0,0,0,0,0,0,0,-1,1364,1660,-4.05775,-9.66611
147,-636,6.48218,-8.49463,0,0,0,0,0,0,0,-1,1371,1660,6.48218,8.49459
154,-636,7.16003,-11.835,0,0,0,0,0,0,0,-1,1378,1660,7.15999,11.835
161,-636,10.2961,7.13025,0,0,0,0,0,0,0,-1,1385,1660,10.2961,-7.13021
168,-636,11.7659,5.83899,0,0,0,0,0,0,0,-1,1392,1660,11.7658,-5.83899
175,-636,5.94592,-1.72888,0,0,0,0,0,0,0,-1,1399,1660,5.94598,1.72886
182,-636,5.93994,-1.11938,0,0,0,0,0,0,0,-1,1406,1660,5.93998,1.11936
189,-636,5.32544,11.9595,0,0,0,0,0,0,0,-1,1413,1660,5.32542,-11.9595
196,-636,5.3623,9.38025,0,0,0,0,0,0,0,-1,1420,1660,5.36225,-9.38027
203,-636,5.18542,9.02429,0,0,0,0,0,0,0,-1,1427,1660,5.18547,-9.0243
210,-636,4.09167,7.17041,0,0,0,0,0,0,0,-1,1434,1660,4.09173,-7.17041
217,-636,2.94897,5.28992,0,0,0,0,0,0,0,-1,1441,1660,2.94899,-5.28991
224,-636,1.49194,3.63916,0,0,0,0,0,0,0,-1,1448,1660,1.49197,-3.63918
231,-636,0.17749,2.24854,0,0,0,0,0,0,0,-1,1455,1660,0.177501,-2.24855
238,-636,-0.764648,1.00598,0,0,0,0,0,0,0,-1,1462,1660,-0.764704,-1.00595
245,-636,6.21204,1.18005,0,0,0,0,0,0,0,-1,1469,1660,6.21206,-1.18001
252,-636,7.70251,0.865723,0,0,0,0,0,0,0,-1,1476,1660,7.7025,-0.865692
259,-636,9.03601,0.787231,0,0,0,0,0,0,0,-1,1483,1660,9.03598,-0.787243
266,-636,10.1071,3.24109,0,0,0,0,0,0,0,-1,1490,1660,10.1071,-3.24103
273,-636,8.48535,5.02466,0,0,0,0,0,0,0,-1,1497,1660,8.48533,-5.02472
280,-636,8.81384,5.66992,0,0,0,0,0,0,0,-1,1504,1660,8.81381,-5.66998
287,-636,6.08606,11.49,0,0,0,0,0,0,0,-1,1511,1660,6.08606,-11.49
294,-636,6.69592,15.9669,0,0,0,0,0,0,0,-1,1518,1660,6.69595,-15.9669
301,-636,8.25903,23.0582,0,0,0,0,0,0,0,-1,1525,1660,8.25903,-23.0583
308,-636,8.39233,26.0168,0,0,0,0,0,0,0,-1,1532,1660,8.39228,-26.0169
315,-636,8.91418,25.7706,0,0,0,0,0,0,0,-1,1539,1660,8.91415,-25.7706
322,-636,8.78467,25.0687,0,0,0,0,0,0,0,-1,1546,1660,8.78471,-25.0687
329,-636,8.98059,24.9478,0.00639488,0.00968066,-0.00194791,0.010586,0.00548955,-1.13573,0.00611323,0.029955,1553,1660,8.98059,-24.9478
336,-636,9.02808,24.7427,0.00533038,0.00866614,-0.00153196,0.00926293,0.00473359,-1.19932,0.00534839,0.0230235,1560,1660,9.02802,-24.7427
343,-636,9.00049,24.5741,0.00427633,0.00751129,-0.00117385,0.00789235,0.00389527,-1.2569,0.00455678,0.0213185,1567,1660,9.00044,-24.5741
350,-636,8.98511,24.3032,0.00344018,0.00625217,-0.000785252,0.0064566,0.00323576,-1.31612,0.00372772,0.0116869,1574,1660,8.98516,-24.3032
357,-636,9.01917,24.021,0.00287171,0.00527415,-0.000593228,0.00541265,0.00273321,-1.34144,0.00312505,0.00981066,1581,1660,9.01921,-24.0209
364,-636,9.03052,23.7723,0.00233564,0.00421044,-0.000407868,0.00429533,0.00225075,-1.3656,0.00248086,0.0103169,1588,1660,9.03053,-23.7723
371,-636,9.01746,23.5282,0.00183105,0.00316278,-0.000194836,0.0031907,0.00180313,-1.42847,0.00184735,0.0089918,1595,1660,9.01744,-23.5282
378,-636,9.0343,23.2634,0.00145351,0.00225585,-4.54244e-05,0.00225841,0.00145094,-1.51442,0.00132142,0.00936834,1602,1660,9.0343,-23.2635
385,-636,9.0387,22.993,0.00110209,0.00113532,7.90542e-05,0.00119949,0.00103793,0.888976,0.000751615,0.0147506,1609,1660,9.03868,-22.993
392,-636,9.02283,22.7289,0.000853258,0.000248642,0.000102891,0.000870288,0.000231612,0.164027,0.00052046,0.0158712,1616,1660,9.0228,-22.7289
399,-636,9.01733,22.4718,0.000590156,-0.000327773,0.00017901,0.00062383,-0.000361448,0.185941,0.000575535,0.0117431,1623,1660,9.01737,-22.4718
406,-636,9.026,22.1919,0.000354925,-0.000861372,0.00034467,0.000445806,-0.000952253,0.257807,0.000824634,0.01293,1630,1660,9.02604,-22.1919
413,-636,9.04297,21.8755,0.000198826,-0.00137603,0.000468002,0.000327405,-0.00150461,0.268125,0.00112816,0.0208971,1637,1660,9.04298,-21.8755
420,-636,9.01501,21.6051,0.000295277,-0.00226905,0.000647453,0.000449476,-0.00242325,0.233808,0.0017843,0.0214801,1644,1660,9.01498,-21.6051
427,-636,8.97937,21.3679,0.000852889,-0.00418866,0.000496626,0.000901345,-0.00423712,0.097261,0.00316822,0.0132238,1651,1660,8.97943,-21.368
434,-636,8.98938,21.0725,0.00134118,-0.0057016,-0.00010812,0.00134284,-0.00570325,-0.0153471,0.00431992,0.0113793,1658,1660,8.98943,-21.0725
441,-636,9.01318,20.7664,0.00175566,-0.00703895,-0.00138007,0.00196714,-0.00725043,-0.152055,0.0056056,0.0110053,1665,1660,9.01314,-20.7663
448,-636,9.00745,20.472,0.00268047,-0.00872594,-0.00267314,0.00327585,-0.00932132,-0.219151,0.00754699,0.0127504,1672,1660,9.00747,-20.4721
455,-636,8.96851,20.1875,0.00382096,-0.0110153,-0.00437444,0.0050147,-0.0122091,-0.266404,0.0102292,0.0148689,1679,1660,8.96848,-20.1875
462,-636,8.97827,19.895,0.00518879,-0.0134757,-0.00681106,0.00740996,-0.0156969,-0.315237,0.0136237,0.0197069,1686,1660,8.97826,-19.895
469,-636,8.98828,19.6292,0.00666108,-0.0160496,-0.0100493,0.0104693,-0.0198578,-0.362229,0.0177868,0.0284513,1693,1660,8.98832,-19.6292
476,-636,9.32629,19.6663,0.00816581,-0.0183154,-0.0141253,0.0142859,-0.0244355,-0.408858,0.0226104,0.0413709,1700,1660,9.32628,-19.6662
483,-636,9.4906,18.9479,0.00964449,-0.0195768,-0.0191532,0.0191236,-0.0290559,-0.459567,0.0280128,0.049664,1707,1660,9.49066,-18.9478
490,-636,9.42297,18.3536,0,0,0,0,0,0,0,-1,1714,1660,9.42294,-18.3537
497,-636,6.72241,20.0531,0,0,0,0,0,0,0,-1,1721,1660,6.72237,-20.0531
504,-636,6.26428,19.4268,0,0,0,0,0,0,0,-1,1728,1660,6.26433,-19.4268
511,-636,5.65466,9.23218,0,0,0,0,0,0,0,-1,1735,1660,5.65461,-9.23216
518,-636,6.72791,1.07605,0,0,0,0,0,0,0,-1,1742,1660,6.7279,-1.0761
525,-636,7.04309,0.93335,0,0,0,0,0,0,0,-1,1749,1660,7.04308,-0.933298
532,-636,0,0,0,0,0,0,0,0,0,-1,1756,1660,0,0
539,-636,0,0,0,0,0,0,0,0,0,-1,1763,1660,0,0
546,-636,0,0,0,0,0,0,0,0,0,-1,1770,1660,0,0
553,-636,0,0,0,0,0,0,0,0,0,-1,1777,1660,0,0
560,-636,0,0,0,0,0,0,0,0,0,-1,1784,1660,0,0
567,-636,0,0,0,0,0,0,0,0,0,-1,1791,1660,0,0
574,-636,0,0,0,0,0,0,0,0,0,-1,1798,1660,0,0
581,-636,0,0,0,0,0,0,0,0,0,-1,1805,1660,0,0
588,-636,0,0,0,0,0,0,0,0,0,-1,1812,1660,0,0
595,-636,0,0,0,0,0,0,0,0,0,-1,1819,1660,0,0
602,-636,0,0,0,0,0,0,0,0,0,-1,1826,1660,0,0
609,-636,0,0,0,0,0,0,0,0,0,-1,1833,1660,0,0
616,-636,0,0,0,0,0,0,0,0,0,-1,1840,1660,0,0
623,-636,0,0,0,0,0,0,0,0,0,-1,1847,1660,0,0
630,-636,0,0,0,0,0,0,0,0,0,-1,1854,1660,0,0
637,-636,0,0,0,0,0,0,0,0,0,-1,1861,1660,0,0
644,-636,0,0,0,0,0,0,0,0,0,-1,1868,1660,0,0
651,-636,0,0,0,0,0,0,0,0,0,-1,1875,1660,0,0
658,-636,0,0,0,0,0,0,0,0,0,-1,1882,1660,0,0
665,-636,0,0,0,0,0,0,0,0,0,-1,1889,1660,0,0
672,-636,0,0,0,0,0,0,0,0,0,-1,1896,1660,0,0
679,-636,0,0,0,0,0,0,0,0,0,-1,1903,1660,0,0
686,-636,0,0,0,0,0,0,0,0,0,-1,1910,1660,0,0
693,-636,0,0,0,0,0,0,0,0,0,-1,1917,1660,0,0
700,-636,0,0,0,0,0,0,0,0,0,-1,1924,1660,0,0
707,-636,0,0,0,0,0,0,0,0,0,-1,1931,1660,0,0
714,-636,0,0,0,0,0,0,0,0,0,-1,1938,1660,0,0
721,-636,0,0,0,0,0,0,0,0,0,-1,1945,1660,0,0
728,-636,0,0,0,0,0,0,0,0,0,-1,1952,1660,0,0
735,-636,0,0,0,0,0,0,0,0,0,-1,1959,1660,0,0
742,-636,0,0,0,0,0,0,0,0,0,-1,1966,1660,0,0
749,-636,0,0,0,0,0,0,0,0,0,-1,1973,1660,0,0
756,-636,0,0,0,0,0,0,0,0,0,-1,1980,1660,0,0
763,-636,0,0,0,0,0,0,0,0,0,-1,1987,1660,0,0
770,-636,0,0,0,0,0,0,0,0,0,-1,1994,1660,0,0
777,-636,0,0,0,0,0,0,0,0,0,-1,2001,1660,0,0
784,-636,0,0,0,0,0,0,0,0,0,-1,2008,1660,0,0
791,-636,0,0,0,0,0,0,0,0,0,-1,2015,1660,0,0
798,-636,0,0,0,0,0,0,0,0,0,-1,2022,1660,0,0
805,-636,0,0,0,0,0,0,0,0,0,-1,2029,1660,0,0
812,-636,0,0,0,0,0,0,0,0,0,-1,2036,1660,0,0
-700,-643,0,0,0,0,0,0,0,0,0,-1,524,1667,0,0
-693,-643,0,0,0,0,0,0,0,0,0,-1,531,1667,0,0
-686,-643,0,0,0,0,0,0,0,0,0,-1,538,1667,0,0
-679,-643,0,0,0,0,0,0,0,0,0,-1,545,1667,0,0
-672,-643,0,0,0,0,0,0,0,0,0,-1,552,1667,0,0
-665,-643,0,0,0,0,0,0,0,0,0,-1,559,1667,0,0
-658,-643,0,0,0,0,0,0,0,0,0,-1,566,1667,0,0
-651,-643,0,0,0,0,0,0,0,0,0,-1,573,1667,0,0
-644,-643,0,0,0,0,0,0,0,0,0,-1,580,1667,0,0
-637,-643,0,0,0,0,0,0,0,0,0,-1,587,1667,0,0
-630,-643,0,0,0,0,0,0,0,0,0,-1,594,1667,0,0
-623,-643,0,0,0,0,0,0,0,0,0,-1,601,1667,0,0
-616,-643,0,0,0,0,0,0,0,0,0,-1,608,1667,0,0
-609,-643,0,0,0,0,0,0,0,0,0,-1,615,1667,0,0
-602,-643,0,0,0,0,0,0,0,0,0,-1,622,1667,0,0
-595,-643,0,0,0,0,0,0,0,0,0,-1,629,1667,0,0
-588,-643,0,0,0,0,0,0,0,0,0,-1,636,1667,0,0
-581,-643,0,0,0,0,0,0,0,0,0,-1,643,1667,0,0
-574,-643,0,0,0,0,0,0,0,0,0,-1,650,1667,0,0
-567,-643,0,0,0,0,0,0,0,0,0,-1,657,1667,0,0
-560,-643,0,0,0,0,0,0,0,0,0,-1,664,1667,0,0
-553,-643,0,0,0,0,0,0,0,0,0,-1,671,1667,0,0
-546,-643,0,0,0,0,0,0,0,0,0,-1,678,1667,0,0
-539,-643,0,0,0,0,0,0,0,0,0,-1,685,1667,0,0
-532,-643,0,0,0,0,0,0,0,0,0,-1,692,1667,0,0
-525,-643,0,0,0,0,0,0,0,0,0,-1,699,1667,0,0
-518,-643,0,0,0,0,0,0,0,0,0,-1,706,1667,0,0
-511,-643,0,0,0,0,0,0,0,0,0,-1,713,1667,0,0
-504,-643,0,0,0,0,0,0,0,0,0,-1,720,1667,0,0
-497,-643,0,0,0,0,0,0,0,0,0,-1,727,1667,0,0
-490,-643,0,0,0,0,0,0,0,0,0,-1,734,1667,0,0
-483,-643,0,0,0,0,0,0,0,0,0,-1,741,1667,0,0
-476,-643,0,0,0,0,0,0,0,0,0,-1,748,1667,0,0
-469,-643,0,0,0,0,0,0,0,0,0,-1,755,1667,0,0
-462,-643,0,0,0,0,0,0,0,0,0,-1,762,1667,0,0
-455,-643,0,0,0,0,0,0,0,0,0,-1,769,1667,0,0
-448,-643,0,0,0,0,0,0,0,0,0,-1,776,1667,0,0
-441,-643,0,0,0,0,0,0,0,0,0,-1,783,1667,0,0
-434,-643,0,0,0,0,0,0,0,0,0,-1,790,1667,0,0
-427,-643,0,0,0,0,0,0,0,0,0,-1,797,1667,0,0
-420,-643,0,0,0,0,0,0,0,0,0,-1,804,1667,0,0
-413,-643,0,0,0,0,0,0,0,0,0,-1,811,1667,0,0
-406,-643,0,0,0,0,0,0,0,0,0,-1,818,1667,0,0
-399,-643,0.589417,11.6465,0,0,0,0,0,0,0,-1,825,1667,0.58939,-11.6465
-392,-643,0.865295,12.6523,0,0,0,0,0,0,0,-1,832,1667,0.865315,-12.6523
-385,-643,1.72968,13.2692,0,0,0,0,0,0,0,-1,839,1667,1.72967,-13.2692
-378,-643,2.66522,13.8193,0,0,0,0,0,0,0,-1,846,1667,2.66524,-13.8193
-371,-643,0.466125,3.35095,0,0,0,0,0,0,0,-1,853,1667,0.466148,-3.351
-364,-643,1.69513,9.922,0,0,0,0,0,0,0,-1,860,1667,1.69511,-9.92205
-357,-643,1.14227,10.8429,0,0,0,0,0,0,0,-1,867,1667,1.14228,-10.8429
-350,-643,2.50061,9.96948,0,0,0,0,0,0,0,-1,874,1667,2.50059,-9.96954
-343,-643,2.61505,6.17407,0,0,0,0,0,0,0,-1,881,1667,2.61504,-6.17412
-336,-643,4.04779,18.5863,0,0,0,0,0,0,0,-1,888,1667,4.04777,-18.5863
-329,-643,4.22406,18.8268,0.0212801,0.0129762,0.0180548,0.0356542,-0.0013979,0.672382,0.0242488,0.0401032,895,1667,4.22406,-18.8268
-322,-643,4.20959,19.303,0.0175949,0.0110539,0.0151873,0.0298598,-0.00121108,0.679345,0.0203223,0.0263649,902,1667,4.20962,-19.303
-315,-643,4.13538,19.6151,0.0137798,0.00902823,0.0124192,0.0240484,-0.00124044,0.690891,0.0164614,0.0162037,909,1667,4.13535,-19.6151
-308,-643,4.13831,19.8928,0.0104027,0.00704009,0.00980548,0.01867,-0.0012272,0.700492,0.0128752,0.0118443,916,1667,4.13831,-19.8929
-301,-643,4.15344,20.2238,0.00754874,0.00529976,0.00751875,0.0140266,-0.00117813,0.711169,0.0097675,0.0133254,923,1667,4.15341,-20.2238
-294,-643,4.12561,20.5509,0.0052168,0.00367908,0.00550313,0.0100045,-0.00110864,0.715991,0.00706827,0.012686,930,1667,4.12562,-20.5509
-287,-643,4.12018,20.8529,0.00337402,0.00245814,0.00387842,0.00682144,-0.000989283,0.726633,0.00491072,0.0100572,937,1667,4.12018,-20.8529
-280,-643,4.11188,21.1593,0.0020478,0.00147207,0.00259732,0.00437316,-0.000853291,0.730207,0.00323757,0.0132043,944,1667,4.1119,-21.1593
-273,-643,4.0874,21.438,0.00129508,0.000715759,0.001627,0.002658,-0.000647166,0.697305,0.00202254,0.0124364,951,1667,4.08739,-21.438
-266,-643,4.06421,21.7386,0.000517182,-0.000113908,0.000635404,0.000911078,-0.000507804,0.554934,0.000830148,0.0122378,958,1667,4.0642,-21.7386
-259,-643,4.0694,22.0431,0.000410549,-0.000417294,0.000111256,0.00042524,-0.000431985,0.131289,0.000494924,0.0113568,965,1667,4.06941,-22.0431
-252,-643,4.06372,22.3348,0.000778203,-0.000369075,-0.000118256,0.000790265,-0.000381138,-0.101651,0.000689923,0.0124084,972,1667,4.06371,-22.3348
-245,-643,4.07471,22.6226,0.00133368,-0.000195057,-0.000114201,0.00134217,-0.000203541,-0.074154,0.000969772,0.0117798,979,1667,4.07471,-22.6225
-238,-643,4.09851,22.8872,0.00195838,-4.70467e-05,-6.97216e-05,0.0019608,-4.94678e-05,-0.0347105,0.001324,0.0156164,986,1667,4.09853,-22.8872
-231,-643,4.07452,23.1774,0.00260219,-6.35431e-05,2.84254e-05,0.00260249,-6.38462e-05,0.0106616,0.00175667,0.0117591,993,1667,4.07451,-23.1774
-224,-643,4.07977,23.427,0.0032051,9.44793e-05,0.000179645,0.00321544,8.41388e-05,0.0574976,0.00211614,0.00943501,1000,1667,4.07978,-23.4271
-217,-643,4.08374,23.6626,0.0040619,0.000503021,0.000689663,0.00419088,0.000374048,0.184874,0.00267796,0.00844468,1007,1667,4.08374,-23.6626
-210,-643,4.07574,23.9432,0.00491718,0.000527484,0.00102989,0.0051468,0.000297868,0.219365,0.00333635,0.0109494,1014,1667,4.07575,-23.9432
-203,-643,4.09167,24.2543,0.00538616,-0.000503293,0.000897727,0.00551996,-0.000637093,0.147955,0.00390968,0.0147746,1021,1667,4.09162,-24.2543
-196,-643,4.1239,24.5178,0.0061332,-0.00101594,0.0010307,0.00627882,-0.00116157,0.140363,0.00462198,0.0152117,1028,1667,4.1239,-24.5179
-189,-643,4.22009,24.7466,0.0066289,-0.0019194,0.000971856,0.006738,-0.0020285,0.111789,0.0052992,0.0157253,1035,1667,4.22006,-24.7466
-182,-643,4.27283,24.9689,0.00724234,-0.00304134,0.000624798,0.00728016,-0.00307916,0.0604599,0.0061427,0.0232174,1042,1667,4.27287,-24.9689
-175,-643,4.33521,25.3063,0.00823721,-0.00457439,0.00043899,0.00825223,-0.00458941,0.0342116,0.00751399,0.0336514,1049,1667,4.33515,-25.3063
-168,-643,4.46265,25.5448,0.00887601,-0.00593798,-3.00111e-05,0.00887607,-0.00593804,-0.00202585,0.00860882,0.0378146,1056,1667,4.46265,-25.5448
-161,-643,4.82837,26.0325,0.00971539,-0.00735907,-0.000700395,0.00974408,-0.00738775,-0.0409284,0.0099222,0.0414933,1063,1667,4.82838,-26.0325
-154,-643,4.40283,25.8535,0,0,0,0,0,0,0,-1,1070,1667,4.40281,-25.8535
-147,-643,4.43359,25.7329,0,0,0,0,0,0,0,-1,1077,1667,4.43354,-25.7329
-140,-643,4.30322,22.9166,0,0,0,0,0,0,0,-1,1084,1667,4.30327,-22.9167
-133,-643,3.66748,21.6034,0,0,0,0,0,0,0,-1,1091,1667,3.66743,-21.6034
-126,-643,3.13904,17.689,0,0,0,0,0,0,0,-1,1098,1667,3.13909,-17.689
-119,-643,3.76282,14.1458,0,0,0,0,0,0,0,-1,1105,1667,3.76283,-14.1458
-112,-643,3.81458,16.2069,0,0,0,0,0,0,0,-1,1112,1667,3.81463,-16.2069
-105,-643,-2.23413,10.0996,0,0,0,0,0,0,0,-1,1119,1667,-2.23415,-10.0996
-98,-643,3.11035,4.68066,0,0,0,0,0,0,0,-1,1126,1667,3.11041,-4.68071
-91,-643,-1.74146,-2.5885,0,0,0,0,0,0,0,-1,1133,1667,-1.74146,2.58856
-84,-643,-3.07446,-0.199341,0,0,0,0,0,0,0,-1,1140,1667,-3.07449,0.199383
-77,-643,-3.63794,2.81165,0,0,0,0,0,0,0,-1,1147,1667,-3.63791,-2.8117
-70,-643,-3.36938,4.45203,0,0,0,0,0,0,0,-1,1154,1667,-3.36941,-4.452
-63,-643,-3.67822,6.26855,0,0,0,0,0,0,0,-1,1161,1667,-3.67823,-6.26856
-56,-643,-3.95142,8.1073,0,0,0,0,0,0,0,-1,1168,1667,-3.95139,-8.10732
-49,-643,-4.23535,9.90552,0,0,0,0,0,0,0,-1,1175,1667,-4.23537,-9.90557
-42,-643,-4.25195,10.7059,0,0,0,0,0,0,0,-1,1182,1667,-4.25192,-10.706
-35,-643,-4.10986,11.6588,0,0,0,0,0,0,0,-1,1189,1667,-4.10982,-11.6589
-28,-643,-1.38513,5.604,0,0,0,0,0,0,0,-1,1196,1667,-1.3851,-5.60403
-21,-643,1.61011,23.1276,0,0,0,0,0,0,0,-1,1203,1667,1.61011,-23.1275
-14,-643,1.75586,45.4583,0,0,0,0,0,0,0,-1,1210,1667,1.75587,-45.4582
-7,-643,1.62061,42.3243,0,0,0,0,0,0,0,-1,1217,1667,1.62064,-42.3244
0,-643,1.71289,41.0358,0.111556,0.203481,-0.224859,0.387027,-0.0719901,-0.886212,0.285061,0.0459144,1224,1667,1.71293,-41.0357
7,-643,2.06885,39.6035,0.103895,0.191806,-0.218022,0.370259,-0.0745582,-0.884871,0.275081,0.0431173,1231,1667,2.06886,-39.6035
14,-643,2.43689,38.182,0,0,0,0,0,0,0,-1,1238,1667,2.43688,-38.182
21,-643,5.71082,26.9604,0,0,0,0,0,0,0,-1,1245,1667,5.7108,-26.9604
28,-643,3.82458,34.6866,0,0,0,0,0,0,0,-1,1252,1667,3.8246,-34.6867
35,-643,3.70605,33.1866,0.0484312,0.127174,-0.19008,0.281917,-0.106312,-0.887519,0.231661,0.0430752,1259,1667,3.70607,-33.1866
42,-643,3.49622,31.6636,0.0335049,0.112709,-0.182875,0.26022,-0.114007,-0.892027,0.221489,0.0456712,1266,1667,3.49625,-31.6636
49,-643,3.4447,29.8945,0.0187603,0.101997,-0.176145,0.241374,-0.120617,-0.901407,0.212836,0.0460123,1273,1667,3.44464,-29.8946
56,-643,3.31921,27.6598,0.0102138,0.0923276,-0.166844,0.223092,-0.120551,-0.906041,0.201325,0.0470591,1280,1667,3.31923,-27.6598
63,-643,2.6908,25.8857,0.0141133,0.088873,-0.156966,0.212849,-0.109863,-0.90229,0.189454,0.0469357,1287,1667,2.69079,-25.8857
70,-643,2.04089,23.8286,0.0351105,0.0976551,-0.153883,0.223411,-0.0906454,-0.885644,0.186643,0.0463561,1294,1667,2.04085,-23.8287
77,-643,1.51794,22.168,0.050263,0.10828,-0.148956,0.231025,-0.0724828,-0.881567,0.183026,0.044144,1301,1667,1.51797,-22.1679
84,-643,1.09558,20.5092,0.0700898,0.121212,-0.143897,0.241801,-0.0504992,-0.873298,0.180405,0.045931,1308,1667,1.09553,-20.5092
91,-643,0.520386,18.7416,0.0942505,0.135922,-0.140187,0.256814,-0.0266406,-0.859173,0.180745,0.0478616,1315,1667,0.520352,-18.7415
98,-643,-0.323975,17.118,0.12437,0.155537,-0.13714,0.277975,0.00193128,-0.841971,0.184677,0.0487693,1322,1667,-0.32392,-17.1181
105,-643,-1.22461,15.723,0,0,0,0,0,0,0,-1,1329,1667,-1.2246,-15.723
112,-643,-0.0855713,12.5022,0.186599,0.205256,-0.137217,0.333461,0.0583935,-0.819339,0.205626,0.0486119,1336,1667,-0.085551,-12.5022
119,-643,-0.598389,11.2788,0.20208,0.229044,-0.140655,0.356861,0.0742627,-0.833179,0.217423,0.0439679,1343,1667,-0.598449,-11.2788
126,-643,-1.15063,10.5835,0.19638,0.24709,-0.144966,0.368902,0.0745686,-0.871973,0.225231,0.0430487,1350,1667,-1.15064,-10.5835
133,-643,-2.69629,9.45984,0,0,0,0,0,0,0,-1,1357,1667,-2.69629,-9.45989
140,-643,6.15649,-6.02161,0,0,0,0,0,0,0,-1,1364,1667,6.15644,6.02155
147,-643,6.74341,-9.25061,0,0,0,0,0,0,0,-1,1371,1667,6.74336,9.25056
154,-643,-4.57739,22.3903,0,0,0,0,0,0,0,-1,1378,1667,-4.57743,-22.3902
161,-643,5.57935,26.2754,0,0,0,0,0,0,0,-1,1385,1667,5.57931,-26.2754
168,-643,10.5563,10.9818,0,0,0,0,0,0,0,-1,1392,1667,10.5562,-10.9819
175,-643,5.88525,-1.1698,0,0,0,0,0,0,0,-1,1399,1667,5.88526,1.16977
182,-643,5.80945,-0.418701,0,0,0,0,0,0,0,-1,1406,1667,5.80949,0.418712
189,-643,5.42297,12.9208,0,0,0,0,0,0,0,-1,1413,1667,5.42298,-12.9208
196,-643,5.51953,11.2415,0,0,0,0,0,0,0,-1,1420,1667,5.51948,-11.2414
203,-643,5.60828,9.82153,0,0,0,0,0,0,0,-1,1427,1667,5.60833,-9.82148
210,-643,4.73218,7.58728,0,0,0,0,0,0,0,-1,1434,1667,4.73222,-7.58728
217,-643,3.8031,5.28955,0,0,0,0,0,0,0,-1,1441,1667,3.80305,-5.28955
224,-643,2.96436,2.97095,0,0,0,0,0,0,0,-1,1448,1667,2.96432,-2.97095
231,-643,2.13403,1.08472,0,0,0,0,0,0,0,-1,1455,1667,2.13403,-1.08467
238,-643,1.18152,-0.261963,0,0,0,0,0,0,0,-1,1462,1667,1.18152,0.26192
245,-643,-0.157471,-1.79016,0,0,0,0,0,0,0,-1,1469,1667,-0.157517,1.7901
252,-643,8.08789,0.0202637,0,0,0,0,0,0,0,-1,1476,1667,8.08791,-0.0203056
259,-643,9.02979,-0.46936,0,0,0,0,0,0,0,-1,1483,1667,9.02974,0.46933
266,-643,4.55066,5.17554,0,0,0,0,0,0,0,-1,1490,1667,4.55063,-5.17556
273,-643,4.34363,6.56836,0,0,0,0,0,0,0,-1,1497,1667,4.34363,-6.5684
280,-643,5.75854,14.5217,0,0,0,0,0,0,0,-1,1504,1667,5.75854,-14.5218
287,-643,6.81299,21.0212,0,0,0,0,0,0,0,-1,1511,1667,6.81297,-21.0212
294,-643,8.35315,26.5878,0,0,0,0,0,0,0,-1,1518,1667,8.3531,-26.5878
301,-643,8.72009,25.8595,0,0,0,0,0,0,0,-1,1525,1667,8.72005,-25.8595
308,-643,8.66553,25.6199,0,0,0,0,0,0,0,-1,1532,1667,8.6655,-25.6198
315,-643,8.64783,25.449,0.00669815,0.00825013,-0.00194954,0.00957244,0.00537584,-0.974804,0.00554061,0.0436687,1539,1667,8.64785,-25.449
322,-643,8.69006,25.1173,0.0057099,0.00756227,-0.00146833,0.00837212,0.00490005,-1.06677,0.00485703,0.0249759,1546,1667,8.69001,-25.1173
329,-643,8.74158,24.9038,0.00485615,0.0067825,-0.00111051,0.00728933,0.00434931,-1.14263,0.00423463,0.0142455,1553,1667,8.74161,-24.9039
336,-643,8.6908,24.7589,0.00406544,0.0060914,-0.000845483,0.00639787,0.00375896,-1.22304,0.00371263,0.0116866,1560,1667,8.69079,-24.7589
343,-643,8.7146,24.5394,0.00326296,0.00528146,-0.000631127,0.00546255,0.00308187,-1.29137,0.00316245,0.0129344,1567,1667,8.71459,-24.5394
350,-643,8.75256,24.2733,0.00259076,0.00433299,-0.000398635,0.00441987,0.00250388,-1.35621,0.00255932,0.0124152,1574,1667,8.75258,-24.2733
357,-643,8.75256,24.0381,0.00216659,0.00362944,-0.000351072,0.00370933,0.00208669,-1.34704,0.00214716,0.010722,1581,1667,8.75258,-24.0381
364,-643,8.76196,23.7908,0.00177631,0.0027862,-0.000288576,0.00286284,0.00169967,-1.3112,0.00166251,0.00952958,1588,1667,8.76202,-23.7908
371,-643,8.76147,23.5468,0.0013872,0.00188449,-0.000185586,0.00194612,0.00132558,-1.25021,0.00114791,0.00778816,1595,1667,8.76146,-23.5467
378,-643,8.7655,23.2949,0.00110506,0.00107336,-0.000128827,0.00121901,0.000959409,-0.72418,0.000741445,0.00957391,1602,1667,8.76546,-23.2949
385,-643,8.78284,23.0194,0.000870737,0.00010311,-7.81723e-05,0.000878617,9.52304e-05,-0.100462,0.000556723,0.0153129,1609,1667,8.78289,-23.0194
392,-643,8.77295,22.7341,0.000640638,-0.000760926,-8.66199e-05,0.000645971,-0.000766259,-0.0614904,0.000816337,0.0160934,1616,1667,8.77301,-22.7342
399,-643,8.74854,22.4989,0.000342353,-0.001382,4.11594e-06,0.000342363,-0.00138201,0.00238693,0.00105416,0.0138366,1623,1667,8.74848,-22.4989
406,-643,8.75403,22.2075,9.09657e-05,-0.00197765,0.000248551,0.000120411,-0.00200709,0.117918,0.00137995,0.0127331,1630,1667,8.75404,-22.2075
413,-643,8.77454,21.8995,-6.66615e-05,-0.00257218,0.000450043,1.17234e-05,-0.00265057,0.172442,0.00177096,0.0184788,1637,1667,8.7745,-21.8996
420,-643,8.73877,21.6407,6.68318e-05,-0.0035977,0.000718714,0.00020275,-0.00373362,0.186905,0.00255934,0.017816,1644,1667,8.73872,-21.6407
427,-643,8.7113,21.3726,0.000781313,-0.00603025,0.000621441,0.000837544,-0.00608648,0.0902406,0.00436371,0.0148541,1651,1667,8.71127,-21.3725
434,-643,8.7074,21.0765,0.00140757,-0.00794037,1.31192e-05,0.00140759,-0.00794039,0.00140343,0.00581981,0.0148301,1658,1667,8.70734,-21.0765
441,-643,8.72937,20.7839,0.00191296,-0.00976521,-0.00152304,0.00210832,-0.00996058,-0.127576,0.00744336,0.0149527,1665,1667,8.72938,-20.7839
448,-643,8.65869,20.4825,0.00307288,-0.0121662,-0.00300048,0.00364237,-0.0127357,-0.18757,0.00992981,0.0214294,1672,1667,8.65863,-20.4826
455,-643,8.64966,20.1381,0.00459029,-0.0154751,-0.00503573,0.00578317,-0.016668,-0.232596,0.0134604,0.0297244,1679,1667,8.64964,-20.1381
462,-643,8.82336,20.0623,0.0064288,-0.0190361,-0.00814863,0.00881307,-0.0214204,-0.284653,0.0179541,0.0428579,1686,1667,8.82338,-20.0623
469,-643,8.96167,20.1431,0.00837318,-0.0230551,-0.0123562,0.0126493,-0.0273313,-0.333169,0.0235959,0.0451311,1693,1667,8.96173,-20.143
476,-643,9.34998,20.2025,0.0103188,-0.0269641,-0.0177392,0.0174103,-0.0340556,-0.380302,0.0302274,0.0460594,1700,1667,9.34993,-20.2025
483,-643,9.86133,20.0964,0,0,0,0,0,0,0,-1,1707,1667,9.86138,-20.0965
490,-643,8.86548,20.1777,0.0136812,-0.0313766,-0.0329628,0.0310785,-0.0487738,-0.485628,0.0464786,0.0497801,1714,1667,8.86548,-20.1778
497,-643,8.58728,19.715,0,0,0,0,0,0,0,-1,1721,1667,8.58726,-19.7149
504,-643,8.05591,19.0656,0,0,0,0,0,0,0,-1,1728,1667,8.0559,-19.0655
511,-643,7.74719,18.1564,0,0,0,0,0,0,0,-1,1735,1667,7.74724,-18.1563
518,-643,7.40564,0.922607,0,0,0,0,0,0,0,-1,1742,1667,7.4057,-0.922598
525,-643,0,0,0,0,0,0,0,0,0,-1,1749,1667,0,0
532,-643,0,0,0,0,0,0,0,0,0,-1,1756,1667,0,0
539,-643,0,0,0,0,0,0,0,0,0,-1,1763,1667,0,0
546,-643,0,0,0,0,0,0,0,0,0,-1,1770,1667,0,0
553,-643,0,0,0,0,0,0,0,0,0,-1,1777,1667,0,0
560,-643,0,0,0,0,0,0,0,0,0,-1,1784,1667,0,0
567,-643,0,0,0,0,0,0,0,0,0,-1,1791,1667,0,0
574,-643,0,0,0,0,0,0,0,0,0,-1,1798,1667,0,0
581,-643,0,0,0,0,0,0,0,0,0,-1,1805,1667,0,0
588,-643,0,0,0,0,0,0,0,0,0,-1,1812,1667,0,0
595,-643,0,0,0,0,0,0,0,0,0,-1,1819,1667,0,0
602,-643,0,0,0,0,0,0,0,0,0,-1,1826,1667,0,0
609,-643,0,0,0,0,0,0,0,0,0,-1,1833,1667,0,0
616,-643,0,0,0,0,0,0,0,0,0,-1,1840,1667,0,0
623,-643,0,0,0,0,0,0,0,0,0,-1,1847,1667,0,0
630,-643,0,0,0,0,0,0,0,0,0,-1,1854,1667,0,0
637,-643,0,0,0,0,0,0,0,0,0,-1,1861,1667,0,0
644,-643,0,0,0,0,0,0,0,0,0,-1,1868,1667,0,0
651,-643,0,0,0,0,0,0,0,0,0,-1,1875,1667,0,0
658,-643,0,0,0,0,0,0,0,0,0,-1,1882,1667,0,0
665,-643,0,0,0,0,0,0,0,0,0,-1,1889,1667,0,0
672,-643,0,0,0,0,0,0,0,0,0,-1,1896,1667,0,0
679,-643,0,0,0,0,0,0,0,0,0,-1,1903,1667,0,0
686,-643,0,0,0,0,0,0,0,0,0,-1,1910,1667,0,0
693,-643,0,0,0,0,0,0,0,0,0,-1,1917,1667,0,0
700,-643,0,0,0,0,0,0,0,0,0,-1,1924,1667,0,0
707,-643,0,0,0,0,0,0,0,0,0,-1,1931,1667,0,0
714,-643,0,0,0,0,0,0,0,0,0,-1,1938,1667,0,0
721,-643,0,0,0,0,0,0,0,0,0,-1,1945,1667,0,0
728,-643,0,0,0,0,0,0,0,0,0,-1,1952,1667,0,0
735,-643,0,0,0,0,0,0,0,0,0,-1,1959,1667,0,0
742,-643,0,0,0,0,0,0,0,0,0,-1,1966,1667,0,0
749,-643,0,0,0,0,0,0,0,0,0,-1,1973,1667,0,0
756,-643,0,0,0,0,0,0,0,0,0,-1,1980,1667,0,0
763,-643,0,0,0,0,0,0,0,0,0,-1,1987,1667,0,0
770,-643,0,0,0,0,0,0,0,0,0,-1,1994,1667,0,0
777,-643,0,0,0,0,0,0,0,0,0,-1,2001,1667,0,0
784,-643,0,0,0,0,0,0,0,0,0,-1,2008,1667,0,0
791,-643,0,0,0,0,0,0,0,0,0,-1,2015,1667,0,0
798,-643,0,0,0,0,0,0,0,0,0,-1,2022,1667,0,0
805,-643,0,0,0,0,0,0,0,0,0,-1,2029,1667,0,0
812,-643,0,0,0,0,0,0,0,0,0,-1,2036,1667,0,0
-700,-650,0,0,0,0,0,0,0,0,0,-1,524,1674,0,0
-693,-650,0,0,0,0,0,0,0,0,0,-1,531,1674,0,0
-686,-650,0,0,0,0,0,0,0,0,0,-1,538,1674,0,0
-679,-650,0,0,0,0,0,0,0,0,0,-1,545,1674,0,0
-672,-650,0,0,0,0,0,0,0,0,0,-1,552,1674,0,0
-665,-650,0,0,0,0,0,0,0,0,0,-1,559,1674,0,0
-658,-650,0,0,0,0,0,0,0,0,0,-1,566,1674,0,0
-651,-650,0,0,0,0,0,0,0,0,0,-1,573,1674,0,0
-644,-650,0,0,0,0,0,0,0,0,0,-1,580,1674,0,0
-637,-650,0,0,0,0,0,0,0,0,0,-1,587,1674,0,0
-630,-650,0,0,0,0,0,0,0,0,0,-1,594,1674,0,0
-623,-650,0,0,0,0,0,0,0,0,0,-1,601,1674,0,0
-616,-650,0,0,0,0,0,0,0,0,0,-1,608,1674,0,0
-609,-650,0,0,0,0,0,0,0,0,0,-1,615,1674,0,0
-602,-650,0,0,0,0,0,0,0,0,0,-1,622,1674,0,0
-595,-650,0,0,0,0,0,0,0,0,0,-1,629,1674,0,0
-588,-650,0,0,0,0,0,0,0,0,0,-1,636,1674,0,0
-581,-650,0,0,0,0,0,0,0,0,0,-1,643,1674,0,0
-574,-650,0,0,0,0,0,0,0,0,0,-1,650,1674,0,0
-567,-650,0,0,0,0,0,0,0,0,0,-1,657,1674,0,0
-560,-650,0,0,0,0,0,0,0,0,0,-1,664,1674,0,0
-553,-650,0,0,0,0,0,0,0,0,0,-1,671,1674,0,0
-546,-650,0,0,0,0,0,0,0,0,0,-1,678,1674,0,0
-539,-650,0,0,0,0,0,0,0,0,0,-1,685,1674,0,0
-532,-650,0,0,0,0,0,0,0,0,0,-1,692,1674,0,0
-525,-650,0,0,0,0,0,0,0,0,0,-1,699,1674,0,0
-518,-650,0,0,0,0,0,0,0,0,0,-1,706,1674,0,0
-511,-650,0,0,0,0,0,0,0,0,0,-1,713,1674,0,0
-504,-650,0,0,0,0,0,0,0,0,0,-1,720,1674,0,0
-497,-650,0,0,0,0,0,0,0,0,0,-1,727,1674,0,0
-490,-650,0,0,0,0,0,0,0,0,0,-1,734,1674,0,0
-483,-650,0,0,0,0,0,0,0,0,0,-1,741,1674,0,0
-476,-650,0,0,0,0,0,0,0,0,0,-1,748,1674,0,0
-469,-650,0,0,0,0,0,0,0,0,0,-1,755,1674,0,0
-462,-650,0,0,0,0,0,0,0,0,0,-1,762,1674,0,0
-455,-650,0,0,0,0,0,0,0,0,0,-1,769,1674,0,0
-448,-650,0,0,0,0,0,0,0,0,0,-1,776,1674,0,0
-441,-650,0,0,0,0,0,0,0,0,0,-1,783,1674,0,0
-434,-650,0,0,0,0,0,0,0,0,0,-1,790,1674,0,0
-427,-650,0,0,0,0,0,0,0,0,0,-1,797,1674,0,0
-420,-650,0,0,0,0,0,0,0,0,0,-1,804,1674,0,0
-413,-650,0,0,0,0,0,0,0,0,0,-1,811,1674,0,0
-406,-650,0,0,0,0,0,0,0,0,0,-1,818,1674,0,0
-399,-650,0,0,0,0,0,0,0,0,0,-1,825,1674,0,0
-392,-650,5.44415,6.85669,0,0,0,0,0,0,0,-1,832,1674,5.44414,-6.85674
-385,-650,1.74451,14.0183,0,0,0,0,0,0,0,-1,839,1674,1.74453,-14.0183
-378,-650,0.997986,4.11108,0,0,0,0,0,0,0,-1,846,1674,0.998006,-4.11113
-371,-650,-1.80096,3.78625,0,0,0,0,0,0,0,-1,853,1674,-1.80094,-3.78625
-364,-650,-2.95679,2.57507,0,0,0,0,0,0,0,-1,860,1674,-2.95681,-2.57506
-357,-650,1.97833,10.8362,0,0,0,0,0,0,0,-1,867,1674,1.97835,-10.8362
-350,-650,-5.30243,0.159912,0,0,0,0,0,0,0,-1,874,1674,-5.30244,-0.159866
-343,-650,-6.21338,-1.4425,0,0,0,0,0,0,0,-1,881,1674,-6.21341,1.44248
-336,-650,4.20111,17.2285,0,0,0,0,0,0,0,-1,888,1674,4.20113,-17.2285
-329,-650,4.55121,18.7474,0,0,0,0,0,0,0,-1,895,1674,4.55121,-18.7475
-322,-650,3.534,18.7576,0.023861,0.0155861,0.0205143,0.0406509,-0.00120383,0.68589,0.0275106,0.0432378,902,1674,3.53402,-18.7575
-315,-650,4.39429,19.6082,0.0183012,0.0123341,0.0165532,0.0321376,-0.00150223,0.696235,0.021943,0.036385,909,1674,4.3943,-19.6082
-308,-650,4.41974,19.864,0.0134447,0.00929491,0.0129399,0.0244751,-0.00173541,0.7059,0.0169249,0.0220266,916,1674,4.41976,-19.864
-301,-650,4.44531,20.229,0.00947543,0.00670538,0.00983376,0.0180212,-0.00184041,0.715437,0.0126722,0.0132686,923,1674,4.44529,-20.229
-294,-650,4.42206,20.5549,0.00634085,0.00444568,0.00718329,0.0126388,-0.00185225,0.719819,0.00910628,0.011023,930,1674,4.42204,-20.5549
-287,-650,4.41394,20.8529,0.00392244,0.00276995,0.00509104,0.00846974,-0.00177735,0.729044,0.00632277,0.01297,937,1674,4.41393,-20.8529
-280,-650,4.39606,21.1444,0.002165,0.00145569,0.00349001,0.00531833,-0.00169764,0.734761,0.00422664,0.0136946,944,1674,4.39607,-21.1444
-273,-650,4.38239,21.4535,0.00113764,0.000502203,0.00230206,0.0031438,-0.00150396,0.716824,0.00273849,0.0133866,951,1674,4.38238,-21.4535
-266,-650,4.33582,21.7593,6.54807e-05,-0.000476069,0.00107615,0.000904394,-0.00131498,0.662149,0.00128865,0.0113412,958,1674,4.33579,-21.7593
-259,-650,4.33765,22.0419,-0.00019761,-0.000870445,0.000397642,-1.31664e-05,-0.00105489,0.434306,0.000698911,0.0137692,965,1674,4.33766,-22.0419
-252,-650,4.34399,22.3239,9.24607e-05,-0.000837335,8.60852e-05,0.000100364,-0.000845238,0.0915482,0.000599752,0.0125069,972,1674,4.34397,-22.3238
-245,-650,4.35126,22.6013,0.000613337,-0.000597609,6.51963e-05,0.000616837,-0.000601109,0.0536325,0.000703201,0.011296,979,1674,4.35123,-22.6013
-238,-650,4.349,22.8894,0.00120514,-0.00038113,0.000107253,0.00121235,-0.000388349,0.0672056,0.000964119,0.013118,986,1674,4.349,-22.8895
-231,-650,4.32745,23.1908,0.00179653,-0.000162852,0.000218311,0.00182055,-0.000186881,0.109628,0.00128055,0.018272,993,1674,4.32746,-23.1908
-224,-650,4.33502,23.4586,0.00231935,-3.67339e-05,0.000312756,0.00236016,-7.75437e-05,0.129751,0.00159991,0.0145655,1000,1674,4.33501,-23.4586
-217,-650,4.35144,23.6818,0.00301482,0.000372806,0.000671299,0.0031756,0.000212022,0.235082,0.00205005,0.00991451,1007,1674,4.35145,-23.6818
-210,-650,4.35864,23.9325,0.00375168,0.000519662,0.000941472,0.00400593,0.000265415,0.26376,0.00258669,0.00944643,1014,1674,4.35867,-23.9325
-203,-650,4.39673,24.1777,0.00418474,-5.45981e-05,0.000886599,0.00436269,-0.000232548,0.198079,0.002989,0.0145626,1021,1674,4.39675,-24.1777
-196,-650,4.41614,24.4373,0.00476832,-0.000333059,0.00102734,0.00496744,-0.000532179,0.191447,0.00350252,0.013924,1028,1674,4.41608,-24.4373
-189,-650,4.40234,24.694,0.0051767,-0.000823135,0.00107004,0.00536182,-0.00100826,0.171311,0.00395372,0.0109813,1035,1674,4.40236,-24.6939
-182,-650,4.43518,24.9495,0.00576209,-0.00142468,0.000862935,0.00586426,-0.00152684,0.117841,0.00450553,0.0100746,1042,1674,4.43519,-24.9494
-175,-650,4.46814,25.1559,0.00678315,-0.00234577,0.000834048,0.00685872,-0.00242134,0.0903663,0.00555827,0.0143024,1049,1674,4.46814,-25.1559
-168,-650,4.45129,25.375,0.00749684,-0.00309835,0.000588186,0.00752939,-0.0031309,0.055288,0.00632695,0.0190906,1056,1674,4.45126,-25.375
-161,-650,4.44287,25.6572,0.00838645,-0.00385947,0.000234902,0.00839096,-0.00386397,0.0191727,0.00723451,0.0283974,1063,1674,4.44286,-25.6572
-154,-650,4.55383,25.8616,0.00945505,-0.00479909,-0.000234519,0.00945891,-0.00480295,-0.0164468,0.00837907,0.0329782,1070,1674,4.55387,-25.8615
-147,-650,4.62561,25.8805,0.01075,-0.00570127,-0.00076672,0.0107856,-0.00573692,-0.0464714,0.00968661,0.0468436,1077,1674,4.62566,-25.8805
-140,-650,4.79602,26.0616,0,0,0,0,0,0,0,-1,1084,1674,4.796,-26.0616
-133,-650,3.85864,26.5585,0,0,0,0,0,0,0,-1,1091,1674,3.8587,-26.5585
-126,-650,5.25488,26.2078,0,0,0,0,0,0,0,-1,1098,1674,5.25489,-26.2078
-119,-650,5.16663,20.6232,0,0,0,0,0,0,0,-1,1105,1674,5.16665,-20.6232
-112,-650,3.86292,14.4513,0,0,0,0,0,0,0,-1,1112,1674,3.8629,-14.4513
-105,-650,4.9259,12.0626,0,0,0,0,0,0,0,-1,1119,1674,4.92591,-12.0626
-98,-650,3.3761,6.78003,0,0,0,0,0,0,0,-1,1126,1674,3.37611,-6.78009
-91,-650,3.66809,7.04443,0,0,0,0,0,0,0,-1,1133,1674,3.66806,-7.04439
-84,-650,-3.82666,-1.59521,0,0,0,0,0,0,0,-1,1140,1674,-3.82661,1.59517
-77,-650,-4.70557,1.90198,0,0,0,0,0,0,0,-1,1147,1674,-4.7056,-1.90194
-70,-650,-4.88171,3.81653,0,0,0,0,0,0,0,-1,1154,1674,-4.88176,-3.81651
-63,-650,-5.14612,5.56543,0,0,0,0,0,0,0,-1,1161,1674,-5.14612,-5.56547
-56,-650,-5.38367,7.41101,0,0,0,0,0,0,0,-1,1168,1674,-5.38361,-7.41102
-49,-650,-5.11316,8.23706,0,0,0,0,0,0,0,-1,1175,1674,-5.11317,-8.23708
-42,-650,-4.99487,9.6792,0,0,0,0,0,0,0,-1,1182,1674,-4.99484,-9.67921
-35,-650,-4.77771,11.3369,0,0,0,0,0,0,0,-1,1189,1674,-4.77769,-11.3369
-28,-650,-4.1936,13.1501,0,0,0,0,0,0,0,-1,1196,1674,-4.19358,-13.1501
-21,-650,2.09595,44.9662,0,0,0,0,0,0,0,-1,1203,1674,2.09592,-44.9661
-14,-650,2.3479,43.689,0.0952764,0.185754,-0.202735,0.348236,-0.0672056,-0.895171,0.257499,0.0495939,1210,1674,2.3479,-43.689
-7,-650,2.6571,42.0073,0,0,0,0,0,0,0,-1,1217,1674,2.65706,-42.0073
0,-650,2.75647,40.4067,0.0906611,0.17857,-0.19428,0.333806,-0.0645749,-0.896646,0.246893,0.0435002,1224,1674,2.75651,-40.4068
7,-650,2.88513,38.812,0.0850562,0.169544,-0.188478,0.320455,-0.065854,-0.895642,0.238636,0.0438652,1231,1674,2.88515,-38.812
14,-650,2.96399,37.1111,0.0771549,0.156763,-0.182631,0.303878,-0.0699597,-0.892694,0.229487,0.0429674,1238,1674,2.96402,-37.111
21,-650,2.69592,35.4731,0,0,0,0,0,0,0,-1,1245,1674,2.69588,-35.4731
28,-650,3.31226,34.0887,0.05361,0.126861,-0.170025,0.26416,-0.0836898,-0.891483,0.209648,0.045806,1252,1674,3.31223,-34.0888
35,-650,4.00769,32.6782,0.0410364,0.112285,-0.164158,0.24464,-0.0913185,-0.892248,0.200586,0.0429167,1259,1674,4.00769,-32.6782
42,-650,4.27722,31.1583,0.0290746,0.0994898,-0.158033,0.226189,-0.0976248,-0.895002,0.191803,0.0419609,1266,1674,4.27724,-31.1584
49,-650,4.09839,29.3901,0.0171585,0.0899997,-0.152383,0.210254,-0.103096,-0.902701,0.184405,0.0439051,1273,1674,4.09844,-29.3902
56,-650,3.78674,27.6406,0.0122714,0.0808353,-0.143519,0.194109,-0.101003,-0.902635,0.173187,0.0488839,1280,1674,3.78673,-27.6407
63,-650,3.5686,25.8375,0,0,0,0,0,0,0,-1,1287,1674,3.56864,-25.8375
70,-650,2.1228,23.6942,0,0,0,0,0,0,0,-1,1294,1674,2.12279,-23.6942
77,-650,1.45117,21.8228,0,0,0,0,0,0,0,-1,1301,1674,1.45116,-21.8227
84,-650,1.10266,19.924,0.0895733,0.105651,-0.123747,0.22162,-0.0263958,-0.817833,0.157285,0.0469023,1308,1674,1.10267,-19.924
91,-650,1.69177,18.4969,0.115411,0.117174,-0.120314,0.23661,-0.004025,-0.789062,0.159098,0.0481851,1315,1674,1.69182,-18.497
98,-650,0.53479,16.6029,0,0,0,0,0,0,0,-1,1322,1674,0.534785,-16.6029
105,-650,1.93005,11.587,0.181772,0.153177,-0.116028,0.28438,0.0505691,-0.724096,0.17518,0.0481962,1329,1674,1.93005,-11.587
112,-650,0.849731,10.9905,0.211697,0.174778,-0.117291,0.311972,0.0745031,-0.707346,0.188131,0.0448841,1336,1674,0.849764,-10.9905
119,-650,0.395996,9.81995,0.228125,0.193885,-0.120464,0.332679,0.089331,-0.714813,0.198815,0.0427399,1343,1674,0.395965,-9.81995
126,-650,-0.00317383,8.62158,0.223368,0.208145,-0.124213,0.340202,0.0913102,-0.754798,0.203318,0.045654,1350,1674,-0.00321096,-8.62158
133,-650,-0.35083,7.47107,0,0,0,0,0,0,0,-1,1357,1674,-0.350867,-7.47109
140,-650,6.42334,-7.04102,0,0,0,0,0,0,0,-1,1364,1674,6.42328,7.04099
147,-650,6.89063,27.6573,0,0,0,0,0,0,0,-1,1371,1674,6.89058,-27.6573
154,-650,7.36658,27.2474,0,0,0,0,0,0,0,-1,1378,1674,7.36662,-27.2474
161,-650,1.92163,18.5155,0,0,0,0,0,0,0,-1,1385,1674,1.92164,-18.5155
168,-650,11.2113,7.87231,0,0,0,0,0,0,0,-1,1392,1674,11.2113,-7.87236
175,-650,5.62537,-0.230713,0,0,0,0,0,0,0,-1,1399,1674,5.62538,0.230745
182,-650,5.56006,0.421631,0,0,0,0,0,0,0,-1,1406,1674,5.56,-0.421652
189,-650,4.81543,11.0654,0,0,0,0,0,0,0,-1,1413,1674,4.81542,-11.0654
196,-650,5.39575,11.9077,0,0,0,0,0,0,0,-1,1420,1674,5.39575,-11.9078
203,-650,3.93628,11.8215,0,0,0,0,0,0,0,-1,1427,1674,3.93624,-11.8216
210,-650,5.40955,8.08594,0,0,0,0,0,0,0,-1,1434,1674,5.40958,-8.086
217,-650,5.12451,4.69739,0,0,0,0,0,0,0,-1,1441,1674,5.12451,-4.69738
224,-650,4.79041,1.45813,0,0,0,0,0,0,0,-1,1448,1674,4.79046,-1.45816
231,-650,4.04102,-0.642212,0,0,0,0,0,0,0,-1,1455,1674,4.04101,0.642209
238,-650,3.23022,-1.43396,0,0,0,0,0,0,0,-1,1462,1674,3.23023,1.43394
245,-650,1.65894,-2.55042,0,0,0,0,0,0,0,-1,1469,1674,1.65889,2.55036
252,-650,8.75342,0.355103,0,0,0,0,0,0,0,-1,1476,1674,8.75337,-0.355147
259,-650,5.61255,3.17566,0,0,0,0,0,0,0,-1,1483,1674,5.61257,-3.17572
266,-650,4.00403,6.10229,0,0,0,0,0,0,0,-1,1490,1674,4.00401,-6.10225
273,-650,5.4093,14.3718,0,0,0,0,0,0,0,-1,1497,1674,5.40929,-14.3718
280,-650,8.15393,26.325,0,0,0,0,0,0,0,-1,1504,1674,8.15389,-26.3249
287,-650,8.31384,26.3618,0,0,0,0,0,0,0,-1,1511,1674,8.31381,-26.3619
294,-650,8.34509,26.2316,0.00732458,0.00667695,-0.00220042,0.00922488,0.00477665,-0.712343,0.00532711,0.0427803,1518,1674,8.34508,-26.2316
301,-650,8.49329,25.7744,0.00658935,0.00627137,-0.00176621,0.00820372,0.00465701,-0.74051,0.00475086,0.0331779,1525,1674,8.49334,-25.7744
308,-650,8.45251,25.5834,0.00588389,0.00582538,-0.00139212,0.00724706,0.00446221,-0.774894,0.00422128,0.0245078,1532,1674,8.45252,-25.5834
315,-650,8.42273,25.3871,0.00512962,0.00556072,-0.00112804,0.00649362,0.00419672,-0.879802,0.0038022,0.017607,1539,1674,8.42277,-25.3871
322,-650,8.45142,25.1841,0.00436913,0.0051647,-0.000848652,0.00570417,0.00382966,-1.00456,0.00335717,0.0128644,1546,1674,8.4514,-25.1841
329,-650,8.4823,24.9419,0.00370429,0.00465178,-0.000640112,0.00497439,0.00338168,-1.10397,0.00293322,0.0157804,1553,1674,8.48234,-24.9419
336,-650,8.46765,24.7494,0.00309738,0.00415609,-0.000459702,0.00432784,0.00292563,-1.21325,0.00254976,0.0133979,1560,1674,8.46769,-24.7494
343,-650,8.49048,24.5315,0.00246489,0.0035327,-0.000324555,0.0036236,0.00237398,-1.2977,0.00212539,0.0130913,1567,1674,8.49052,-24.5315
350,-650,8.50256,24.2954,0.00189576,0.00275954,-0.000187079,0.00279832,0.00185699,-1.36641,0.00164419,0.0152088,1574,1674,8.50257,-24.2954
357,-650,8.49902,24.0497,0.00153706,0.00210964,-0.000170252,0.00215644,0.00149026,-1.30254,0.00127496,0.0126997,1581,1674,8.49902,-24.0497
364,-650,8.50793,23.8053,0.00121431,0.00131133,-0.00012769,0.00139941,0.00112622,-0.966934,0.000856526,0.00906449,1588,1674,8.50797,-23.8053
371,-650,8.50574,23.5364,0.000889708,0.000444116,-6.15071e-05,0.000898042,0.000435782,-0.13468,0.00051856,0.0108153,1595,1674,8.50576,-23.5363
378,-650,8.49426,23.2889,0.000668274,-0.000375722,-2.45138e-05,0.000668849,-0.000376297,-0.0234635,0.000611245,0.0119603,1602,1674,8.4943,-23.2889
385,-650,8.49573,23.0291,0.000518628,-0.00129261,1.54705e-06,0.000518629,-0.00129262,0.000854139,0.00107708,0.0128462,1609,1674,8.49577,-23.0291
392,-650,8.49707,22.7616,0.000301187,-0.00220764,-3.20443e-06,0.000301191,-0.00220764,-0.00127726,0.00158174,0.0165597,1616,1674,8.49711,-22.7616
399,-650,8.47803,22.4951,-1.85044e-05,-0.00293246,0.000120812,-1.35042e-05,-0.00293746,0.0413652,0.00195382,0.0163225,1623,1674,8.47798,-22.4951
406,-650,8.4624,22.2052,-0.000266921,-0.00363102,0.000446781,-0.000208595,-0.00368934,0.129811,0.00239306,0.0141824,1630,1674,8.46237,-22.2052
413,-650,8.47205,21.9258,-0.000406864,-0.00432041,0.000716164,-0.000279926,-0.00444734,0.175425,0.00287613,0.0146569,1637,1674,8.47202,-21.9258
420,-650,8.46143,21.6802,-0.000220789,-0.00547283,0.00105649,-1.62353e-05,-0.00567738,0.19125,0.00377952,0.0154667,1644,1674,8.46137,-21.6802
427,-650,8.4469,21.4065,0.000681969,-0.00847469,0.00100346,0.000790648,-0.00858337,0.107883,0.00600318,0.0146378,1651,1674,8.44696,-21.4064
434,-650,8.44507,21.1278,0.00148208,-0.0108491,0.000379282,0.00149374,-0.0108608,0.0307192,0.00778633,0.0169097,1658,1674,8.44507,-21.1278
441,-650,8.46179,20.9089,0.00209206,-0.0132929,-0.00150915,0.0022387,-0.0134395,-0.0968624,0.00979159,0.0294306,1665,1674,8.46175,-20.9089
448,-650,8.10168,20.5709,0.0035228,-0.0166015,-0.00322154,0.00402593,-0.0171047,-0.154926,0.0129553,0.0469184,1672,1674,8.10168,-20.571
455,-650,7.99768,20.3293,0.00544903,-0.0211979,-0.00562381,0.00658731,-0.0223362,-0.199705,0.0175047,0.0486836,1679,1674,7.99772,-20.3293
462,-650,7.97998,20.0876,0,0,0,0,0,0,0,-1,1686,1674,7.97993,-20.0876
469,-650,8.84839,20.5497,0,0,0,0,0,0,0,-1,1693,1674,8.84841,-20.5497
476,-650,9.50195,21.0677,0.0127867,-0.0386062,-0.0217654,0.0207658,-0.0465852,-0.35138,0.0398262,0.0471826,1700,1674,9.50191,-21.0677
483,-650,9.67371,21.1484,0,0,0,0,0,0,0,-1,1707,1674,9.67369,-21.1485
490,-650,10.2314,20.6633,0,0,0,0,0,0,0,-1,1714,1674,10.2315,-20.6634
497,-650,10.4985,20.1362,0,0,0,0,0,0,0,-1,1721,1674,10.4986,-20.1362
504,-650,9.69458,18.7721,0,0,0,0,0,0,0,-1,1728,1674,9.6946,-18.772
511,-650,9.37158,17.7506,0,0,0,0,0,0,0,-1,1735,1674,9.37159,-17.7506
518,-650,0,0,0,0,0,0,0,0,0,-1,1742,1674,0,0
525,-650,0,0,0,0,0,0,0,0,0,-1,1749,1674,0,0
532,-650,0,0,0,0,0,0,0,0,0,-1,1756,1674,0,0
539,-650,0,0,0,0,0,0,0,0,0,-1,1763,1674,0,0
546,-650,0,0,0,0,0,0,0,0,0,-1,1770,1674,0,0
553,-650,0,0,0,0,0,0,0,0,0,-1,1777,1674,0,0
560,-650,0,0,0,0,0,0,0,0,0,-1,1784,1674,0,0
567,-650,0,0,0,0,0,0,0,0,0,-1,1791,1674,0,0
574,-650,0,0,0,0,0,0,0,0,0,-1,1798,1674,0,0
581,-650,0,0,0,0,0,0,0,0,0,-1,1805,1674,0,0
588,-650,0,0,0,0,0,0,0,0,0,-1,1812,1674,0,0
595,-650,0,0,0,0,0,0,0,0,0,-1,1819,1674,0,0
602,-650,0,0,0,0,0,0,0,0,0,-1,1826,1674,0,0
609,-650,0,0,0,0,0,0,0,0,0,-1,1833,1674,0,0
616,-650,0,0,0,0,0,0,0,0,0,-1,1840,1674,0,0
623,-650,0,0,0,0,0,0,0,0,0,-1,1847,1674,0,0
630,-650,0,0,0,0,0,0,0,0,0,-1,1854,1674,0,0
637,-650,0,0,0,0,0,0,0,0,0,-1,1861,1674,0,0
644,-650,0,0,0,0,0,0,0,0,0,-1,1868,1674,0,0
651,-650,0,0,0,0,0,0,0,0,0,-1,1875,1674,0,0
658,-650,0,0,0,0,0,0,0,0,0,-1,1882,1674,0,0
665,-650,0,0,0,0,0,0,0,0,0,-1,1889,1674,0,0
672,-650,0,0,0,0,0,0,0,0,0,-1,1896,1674,0,0
679,-650,0,0,0,0,0,0,0,0,0,-1,1903,1674,0,0
686,-650,0,0,0,0,0,0,0,0,0,-1,1910,1674,0,0
693,-650,0,0,0,0,0,0,0,0,0,-1,1917,1674,0,0
700,-650,0,0,0,0,0,0,0,0,0,-1,1924,1674,0,0
707,-650,0,0,0,0,0,0,0,0,0,-1,1931,1674,0,0
714,-650,0,0,0,0,0,0,0,0,0,-1,1938,1674,0,0
721,-650,0,0,0,0,0,0,0,0,0,-1,1945,1674,0,0
728,-650,0,0,0,0,0,0,0,0,0,-1,1952,1674,0,0
735,-650,0,0,0,0,0,0,0,0,0,-1,1959,1674,0,0
742,-650,0,0,0,0,0,0,0,0,0,-1,1966,1674,0,0
749,-650,0,0,0,0,0,0,0,0,0,-1,1973,1674,0,0
756,-650,0,0,0,0,0,0,0,0,0,-1,1980,1674,0,0
763,-650,0,0,0,0,0,0,0,0,0,-1,1987,1674,0,0
770,-650,0,0,0,0,0,0,0,0,0,-1,1994,1674,0,0
777,-650,0,0,0,0,0,0,0,0,0,-1,2001,1674,0,0
784,-650,0,0,0,0,0,0,0,0,0,-1,2008,1674,0,0
791,-650,0,0,0,0,0,0,0,0,0,-1,2015,1674,0,0
798,-650,0,0,0,0,0,0,0,0,0,-1,2022,1674,0,0
805,-650,0,0,0,0,0,0,0,0,0,-1,2029,1674,0,0
812,-650,0,0,0,0,0,0,0,0,0,-1,2036,1674,0,0
-700,-657,0,0,0,0,0,0,0,0,0,-1,524,1681,0,0
-693,-657,0,0,0,0,0,0,0,0,0,-1,531,1681,0,0
-686,-657,0,0,0,0,0,0,0,0,0,-1,538,1681,0,0
-679,-657,0,0,0,0,0,0,0,0,0,-1,545,1681,0,0
-672,-657,0,0,0,0,0,0,0,0,0,-1,552,1681,0,0
-665,-657,0,0,0,0,0,0,0,0,0,-1,559,1681,0,0
-658,-657,0,0,0,0,0,0,0,0,0,-1,566,1681,0,0
-651,-657,0,0,0,0,0,0,0,0,0,-1,573,1681,0,0
-644,-657,0,0,0,0,0,0,0,0,0,-1,580,1681,0,0
-637,-657,0,0,0,0,0,0,0,0,0,-1,587,1681,0,0
-630,-657,0,0,0,0,0,0,0,0,0,-1,594,1681,0,0
-623,-657,0,0,0,0,0,0,0,0,0,-1,601,1681,0,0
-616,-657,0,0,0,0,0,0,0,0,0,-1,608,1681,0,0
-609,-657,0,0,0,0,0,0,0,0,0,-1,615,1681,0,0
-602,-657,0,0,0,0,0,0,0,0,0,-1,622,1681,0,0
-595,-657,0,0,0,0,0,0,0,0,0,-1,629,1681,0,0
-588,-657,0,0,0,0,0,0,0,0,0,-1,636,1681,0,0
-581,-657,0,0,0,0,0,0,0,0,0,-1,643,1681,0,0
-574,-657,0,0,0,0,0,0,0,0,0,-1,650,1681,0,0
-567,-657,0,0,0,0,0,0,0,0,0,-1,657,1681,0,0
-560,-657,0,0,0,0,0,0,0,0,0,-1,664,1681,0,0
-553,-657,0,0,0,0,0,0,0,0,0,-1,671,1681,0,0
-546,-657,0,0,0,0,0,0,0,0,0,-1,678,1681,0,0
-539,-657,0,0,0,0,0,0,0,0,0,-1,685,1681,0,0
-532,-657,0,0,0,0,0,0,0,0,0,-1,692,1681,0,0
-525,-657,0,0,0,0,0,0,0,0,0,-1,699,1681,0,0
-518,-657,0,0,0,0,0,0,0,0,0,-1,706,1681,0,0
-511,-657,0,0,0,0,0,0,0,0,0,-1,713,1681,0,0
-504,-657,0,0,0,0,0,0,0,0,0,-1,720,1681,0,0
-497,-657,0,0,0,0,0,0,0,0,0,-1,727,1681,0,0
-490,-657,0,0,0,0,0,0,0,0,0,-1,734,1681,0,0
-483,-657,0,0,0,0,0,0,0,0,0,-1,741,1681,0,0
-476,-657,0,0,0,0,0,0,0,0,0,-1,748,1681,0,0
-469,-657,0,0,0,0,0,0,0,0,0,-1,755,1681,0,0
-462,-657,0,0,0,0,0,0,0,0,0,-1,762,1681,0,0
-455,-657,0,0,0,0,0,0,0,0,0,-1,769,1681,0,0
-448,-657,0,0,0,0,0,0,0,0,0,-1,776,1681,0,0
-441,-657,0,0,0,0,0,0,0,0,0,-1,783,1681,0,0
-434,-657,0,0,0,0,0,0,0,0,0,-1,790,1681,0,0
-427,-657,0,0,0,0,0,0,0,0,0,-1,797,1681,0,0
-420,-657,0,0,0,0,0,0,0,0,0,-1,804,1681,0,0
-413,-657,0,0,0,0,0,0,0,0,0,-1,811,1681,0,0
-406,-657,0,0,0,0,0,0,0,0,0,-1,818,1681,0,0
-399,-657,0,0,0,0,0,0,0,0,0,-1,825,1681,0,0
-392,-657,0,0,0,0,0,0,0,0,0,-1,832,1681,0,0
-385,-657,1.09814,6.18896,0,0,0,0,0,0,0,-1,839,1681,1.09814,-6.18894
-378,-657,0.31488,4.46753,0,0,0,0,0,0,0,-1,846,1681,0.31487,-4.46755
-371,-657,-0.519043,2.69421,0,0,0,0,0,0,0,-1,853,1681,-0.519064,-2.69422
-364,-657,-3.42017,4.18323,0,0,0,0,0,0,0,-1,860,1681,-3.42019,-4.18319
-357,-657,-4.41913,2.97168,0,0,0,0,0,0,0,-1,867,1681,-4.41913,-2.97165
-350,-657,-5.42291,1.70276,0,0,0,0,0,0,0,-1,874,1681,-5.42291,-1.70277
-343,-657,-6.51294,0.397339,0,0,0,0,0,0,0,-1,881,1681,-6.51295,-0.397335
-336,-657,3.07172,15.946,0,0,0,0,0,0,0,-1,888,1681,3.07169,-15.946
-329,-657,2.95044,17.4891,0,0,0,0,0,0,0,-1,895,1681,2.95042,-17.4892
-322,-657,3.62891,18.3639,0.0315806,0.020861,0.0271164,0.0538618,-0.00142019,0.687826,0.0363905,0.042954,902,1681,3.62889,-18.3638
-315,-657,4.27966,19.1896,0.0237181,0.016095,0.021566,0.0418068,-0.00199372,0.697931,0.028559,0.0399636,909,1681,4.27964,-19.1896
-308,-657,4.42114,19.6813,0.0169871,0.011794,0.0166548,0.0312465,-0.00246537,0.708068,0.0216995,0.0375268,916,1681,4.42116,-19.6812
-301,-657,4.69794,20.2245,0.01165,0.00815336,0.0124979,0.0225213,-0.00271796,0.715905,0.0159973,0.0335399,923,1681,4.69792,-20.2245
-294,-657,4.70575,20.5981,0.00754009,0.00519383,0.00905189,0.0154946,-0.00276063,0.720957,0.0113623,0.01903,930,1681,4.70575,-20.5981
-287,-657,4.68884,20.8885,0.00444357,0.00305216,0.00638826,0.0101739,-0.00267817,0.73116,0.00782952,0.0133275,937,1681,4.68882,-20.8886
-280,-657,4.66193,21.1431,0.00221215,0.0014214,0.00441592,0.00625036,-0.00261681,0.74075,0.00526079,0.0137205,944,1681,4.66194,-21.1431
-273,-657,4.6546,21.4633,0.000922971,0.000292007,0.00297015,0.00359435,-0.00237937,0.732488,0.00347262,0.00982778,951,1681,4.65459,-21.4633
-266,-657,4.61871,21.7687,-0.000390113,-0.000788118,0.001509,0.000932948,-0.00211118,0.719838,0.00180088,0.0140296,958,1681,4.61874,-21.7687
-259,-657,4.61041,22.0402,-0.000773229,-0.0012493,0.000676565,-0.000294049,-0.00172848,0.616245,0.00106789,0.0187949,965,1681,4.6104,-22.0401
-252,-657,4.6106,22.3087,-0.00053336,-0.00126093,0.000288812,-0.000432654,-0.00136164,0.335507,0.000803362,0.0131521,972,1681,4.61059,-22.3087
-245,-657,4.60828,22.61,-2.06638e-05,-0.000982068,0.000235863,3.40832e-05,-0.00103682,0.228075,0.000702847,0.0143716,979,1681,4.60829,-22.61
-238,-657,4.61279,22.8993,0.000551458,-0.000732851,0.000259555,0.00060193,-0.000783322,0.192058,0.000802058,0.0197343,986,1681,4.61279,-22.8993
-231,-657,4.60455,23.1709,0.00109999,-0.000324254,0.00038161,0.0011958,-0.000420057,0.245967,0.000968087,0.021682,993,1681,4.60457,-23.1709
-224,-657,4.61566,23.4617,0.00156031,-0.00030862,0.000408156,0.00164556,-0.000393869,0.205903,0.0012492,0.016872,1000,1681,4.61565,-23.4617
-217,-657,4.62256,23.7267,0.00212768,8.28016e-05,0.000632461,0.00230749,-9.70019e-05,0.276984,0.00157166,0.0105805,1007,1681,4.62254,-23.7267
-210,-657,4.6438,23.9669,0.00275233,0.000323487,0.000827453,0.00300743,6.83849e-05,0.299052,0.00198255,0.0107475,1014,1681,4.64381,-23.967
-203,-657,4.66992,24.2097,0.00312501,7.65994e-05,0.000802972,0.00332358,-0.000121974,0.242434,0.00225748,0.0135305,1021,1681,4.66996,-24.2098
-196,-657,4.66479,24.4498,0.00354593,-4.89676e-05,0.000921333,0.0037683,-0.00027134,0.23683,0.00260736,0.0144498,1028,1681,4.66484,-24.4498
-189,-657,4.66541,24.6903,0.00387057,-0.000264296,0.00101314,0.00410547,-0.000499193,0.227827,0.00291765,0.00988828,1035,1681,4.66535,-24.6904
-182,-657,4.66174,24.9136,0.00440833,-0.000539048,0.00088705,0.00456257,-0.000693285,0.172155,0.00329719,0.0077228,1042,1681,4.66179,-24.9135
-175,-657,4.66846,25.1498,0.00538378,-0.0010376,0.000924904,0.00551434,-0.00116817,0.140238,0.00412118,0.0100539,1049,1681,4.6685,-25.1497
-168,-657,4.65283,25.3851,0.00608582,-0.00137763,0.000801993,0.00617103,-0.00146284,0.105846,0.0046785,0.0125333,1056,1681,4.65284,-25.3851
-161,-657,4.66492,25.6208,0.00691873,-0.00171074,0.000632027,0.00696477,-0.00175678,0.0727234,0.00532624,0.0121059,1063,1681,4.66496,-25.6209
-154,-657,4.70007,25.8353,0.00788595,-0.00210798,0.000381274,0.00790047,-0.0021225,0.0380768,0.00609886,0.0123144,1070,1681,4.70004,-25.8353
-147,-657,4.73718,26.0123,0.00901705,-0.00254312,8.83463e-05,0.00901773,-0.0025438,0.00764171,0.00701521,0.0196454,1077,1681,4.73715,-26.0124
-140,-657,4.71533,26.2422,0.0103766,-0.00266533,-0.000180025,0.0103791,-0.00266782,-0.0138001,0.00795911,0.0337256,1084,1681,4.71537,-26.2422
-133,-657,4.39307,26.5178,0.011916,-0.00266367,-0.000382543,0.0119261,-0.0026737,-0.026214,0.00897567,0.0429824,1091,1681,4.39312,-26.5179
-126,-657,5.13965,26.5913,0.0136103,-0.00226343,-0.000473745,0.0136244,-0.00227755,-0.0298093,0.00992957,0.0486504,1098,1681,5.13969,-26.5913
-119,-657,4.9574,27.3153,0,0,0,0,0,0,0,-1,1105,1681,4.95741,-27.3153
-112,-657,4.6051,21.3439,0,0,0,0,0,0,0,-1,1112,1681,4.60512,-21.3438
-105,-657,3.82434,14.4906,0,0,0,0,0,0,0,-1,1119,1681,3.8244,-14.4906
-98,-657,3.78662,8.16785,0,0,0,0,0,0,0,-1,1126,1681,3.78663,-8.16786
-91,-657,3.6521,16.6017,0,0,0,0,0,0,0,-1,1133,1681,3.65215,-16.6017
-84,-657,4.08008,10.4579,0,0,0,0,0,0,0,-1,1140,1681,4.08006,-10.4579
-77,-657,-5.29846,0.396606,0,0,0,0,0,0,0,-1,1147,1681,-5.29842,-0.396573
-70,-657,-4.14893,2.14575,0,0,0,0,0,0,0,-1,1154,1681,-4.14893,-2.1458
-63,-657,-4.1239,3.177,0,0,0,0,0,0,0,-1,1161,1681,-4.12391,-3.17698
-56,-657,-6.40576,5.73987,0,0,0,0,0,0,0,-1,1168,1681,-6.40577,-5.7399
-49,-657,-5.98462,7.54053,0,0,0,0,0,0,0,-1,1175,1681,-5.98466,-7.5405
-42,-657,-5.71948,9.28955,0,0,0,0,0,0,0,-1,1182,1681,-5.71951,-9.2895
-35,-657,-5.44556,11.015,0,0,0,0,0,0,0,-1,1189,1681,-5.44555,-11.015
-28,-657,-1.3446,8.92847,0,0,0,0,0,0,0,-1,1196,1681,-1.34459,-8.92848
-21,-657,2.70081,42.9371,0,0,0,0,0,0,0,-1,1203,1681,2.70077,-42.9371
-14,-657,3.21545,41.6862,0,0,0,0,0,0,0,-1,1210,1681,3.2155,-41.6861
-7,-657,3.53967,41.5442,0,0,0,0,0,0,0,-1,1217,1681,3.53961,-41.5442
0,-657,3.6571,39.6548,0,0,0,0,0,0,0,-1,1224,1681,3.6571,-39.6547
7,-657,3.48364,37.5496,0,0,0,0,0,0,0,-1,1231,1681,3.48362,-37.5496
14,-657,3.46729,35.9154,0.0627836,0.135481,-0.153877,0.257244,-0.0589796,-0.901381,0.194165,0.0428255,1238,1681,3.4673,-35.9154
21,-657,3.59314,34.4269,0.0542803,0.122828,-0.148325,0.240787,-0.0636788,-0.898942,0.185432,0.0437113,1245,1681,3.59312,-34.4269
28,-657,4.06873,33.1368,0.0445974,0.10996,-0.143395,0.224351,-0.0697932,-0.89744,0.177467,0.0433545,1252,1681,4.06868,-33.1368
35,-657,4.63232,31.8273,0.0345955,0.0972701,-0.138616,0.208047,-0.076181,-0.896566,0.169884,0.0392852,1259,1681,4.63228,-31.8272
42,-657,5.04724,30.4894,0.0251112,0.0863464,-0.133667,0.192858,-0.0814003,-0.897985,0.162643,0.0403246,1266,1681,5.0472,-30.4894
49,-657,5.30176,29.5431,0.0156106,0.0782536,-0.129176,0.179851,-0.0859865,-0.904339,0.156638,0.0434695,1273,1681,5.3018,-29.5431
56,-657,5.56458,28.707,0.0129589,0.0699427,-0.12122,0.165974,-0.0830722,-0.900825,0.146418,0.0458628,1280,1681,5.56456,-28.707
63,-657,5.87061,27.7278,0,0,0,0,0,0,0,-1,1287,1681,5.87065,-27.7277
70,-657,1.94165,23.4331,0,0,0,0,0,0,0,-1,1294,1681,1.9416,-23.4332
77,-657,1.28613,21.5428,0.071986,0.0817946,-0.108446,0.185447,-0.0316667,-0.807994,0.135427,0.0452906,1301,1681,1.28612,-21.5429
84,-657,0.692261,19.6611,0.0939449,0.0902114,-0.104721,0.196815,-0.0126591,-0.776486,0.135627,0.046791,1308,1681,0.692222,-19.6612
91,-657,-0.135864,17.8662,0.119048,0.0990115,-0.101605,0.211127,0.00693218,-0.736258,0.138498,0.0475263,1315,1681,-0.135921,-17.8662
98,-657,-0.925293,16.1512,0,0,0,0,0,0,0,-1,1322,1681,-0.925319,-16.1513
105,-657,-1.72095,14.4354,0.183518,0.127895,-0.0975167,0.257111,0.0543013,-0.646487,0.15648,0.0460879,1329,1681,-1.72094,-14.4354
112,-657,2.07471,9.30261,0.212271,0.14497,-0.0982752,0.282497,0.0747435,-0.620449,0.169018,0.0452123,1336,1681,2.07472,-9.30259
119,-657,7.41931,29.9335,0.229561,0.159656,-0.100872,0.301365,0.0878522,-0.618619,0.178964,0.0461484,1343,1681,7.41935,-29.9335
126,-657,0.876465,6.91846,0,0,0,0,0,0,0,-1,1350,1681,0.876499,-6.9185
133,-657,7.02771,28.157,0,0,0,0,0,0,0,-1,1357,1681,7.02772,-28.157
140,-657,7.30713,26.4202,0,0,0,0,0,0,0,-1,1364,1681,7.30708,-26.4202
147,-657,7.53699,28.0359,0,0,0,0,0,0,0,-1,1371,1681,7.53703,-28.0359
154,-657,7.94946,27.609,0,0,0,0,0,0,0,-1,1378,1681,7.94943,-27.609
161,-657,4.2926,24.9226,0,0,0,0,0,0,0,-1,1385,1681,4.29264,-24.9226
168,-657,5.21643,0.70105,0,0,0,0,0,0,0,-1,1392,1681,5.21648,-0.7011
175,-657,5.52771,0.649048,0,0,0,0,0,0,0,-1,1399,1681,5.52774,-0.649019
182,-657,5.73999,1.02612,0,0,0,0,0,0,0,-1,1406,1681,5.73995,-1.02611
189,-657,5.92126,1.44116,0,0,0,0,0,0,0,-1,1413,1681,5.92126,-1.44115
196,-657,4.92834,9.59021,0,0,0,0,0,0,0,-1,1420,1681,4.9284,-9.59018
203,-657,6.26343,5.16492,0,0,0,0,0,0,0,-1,1427,1681,6.26345,-5.16488
210,-657,3.9856,5.28088,0,0,0,0,0,0,0,-1,1434,1681,3.98555,-5.28084
217,-657,3.95178,5.2843,0,0,0,0,0,0,0,-1,1441,1681,3.95174,-5.28431
224,-657,6.66736,-0.250244,0,0,0,0,0,0,0,-1,1448,1681,6.66737,0.250229
231,-657,6.85498,-1.70752,0,0,0,0,0,0,0,-1,1455,1681,6.855,1.70758
238,-657,5.34143,-2.89819,0,0,0,0,0,0,0,-1,1462,1681,5.34143,2.89813
245,-657,8.66003,-0.102783,0,0,0,0,0,0,0,-1,1469,1681,8.66,0.102824
252,-657,4.78955,0.623779,0,0,0,0,0,0,0,-1,1476,1681,4.7895,-0.623826
259,-657,2.61523,4.31909,0,0,0,0,0,0,0,-1,1483,1681,2.61523,-4.31908
266,-657,5.35437,11.4742,0,0,0,0,0,0,0,-1,1490,1681,5.35441,-11.4742
273,-657,8.15552,26.3517,0,0,0,0,0,0,0,-1,1497,1681,8.15554,-26.3517
280,-657,7.98218,26.4047,0.00652668,0.00409737,-0.00158826,0.00731152,0.00331254,-0.458955,0.0042275,0.0471929,1504,1681,7.98216,-26.4047
287,-657,8.0365,26.2577,0.00607683,0.00450745,-0.00141271,0.00690815,0.00367613,-0.531889,0.00399117,0.0346591,1511,1681,8.03647,-26.2577
294,-657,8.21545,26.0282,0.00548198,0.00432796,-0.0012239,0.00625806,0.00355188,-0.565124,0.00362407,0.0238834,1518,1681,8.21546,-26.0282
301,-657,8.19116,25.8516,0.00496077,0.00410899,-0.00101137,0.00563226,0.0034375,-0.586115,0.00327807,0.017216,1525,1681,8.1912,-25.8516
308,-657,8.18823,25.6234,0.00444854,0.00386901,-0.000838063,0.00504552,0.00327203,-0.618955,0.00295555,0.0133671,1532,1681,8.18817,-25.6234
315,-657,8.21252,25.3859,0.00386499,0.00369075,-0.000686275,0.00446965,0.00308609,-0.722261,0.00264222,0.0119139,1539,1681,8.21254,-25.3859
322,-657,8.25171,25.1499,0.00326305,0.00344044,-0.000525927,0.0038851,0.00281839,-0.868933,0.00231781,0.0136602,1546,1681,8.25167,-25.1499
329,-657,8.24927,24.9373,0.00272029,0.00306972,-0.000397037,0.00332879,0.00246123,-0.992673,0.00199394,0.0198883,1553,1681,8.2493,-24.9372
336,-657,8.25659,24.7463,0.00223425,0.00266551,-0.000250103,0.0027801,0.00211966,-1.14116,0.00167717,0.0172149,1560,1681,8.25656,-24.7463
343,-657,8.27759,24.5219,0.00172501,0.00212821,-0.000145378,0.00217516,0.00167806,-1.25842,0.00131608,0.0127235,1567,1681,8.27762,-24.5219
350,-657,8.27112,24.2855,0.00124715,0.00143067,-5.31638e-05,0.00144496,0.00123286,-1.30823,0.000900968,0.0136785,1574,1681,8.27116,-24.2855
357,-657,8.26147,24.0317,0.000933528,0.000712181,-7.47075e-06,0.00093378,0.000711929,-0.0337002,0.000563324,0.0128859,1581,1681,8.26151,-24.0317
364,-657,8.2677,23.8003,0.000660103,-0.000145278,6.34953e-05,0.000665078,-0.000150253,0.0781951,0.000501037,0.00996222,1588,1681,8.26765,-23.8003
371,-657,8.26306,23.5431,0.000396285,-0.00106628,0.000128612,0.000407509,-0.0010775,0.0870458,0.000885982,0.0139522,1595,1681,8.26309,-23.5431
378,-657,8.24109,23.2931,0.000228591,-0.00199473,0.000180868,0.000243208,-0.00200935,0.0806439,0.00142756,0.0144533,1602,1681,8.24113,-23.293
385,-657,8.22351,23.0326,0.000150943,-0.00295997,0.000219954,0.000166418,-0.00297544,0.0702385,0.00204136,0.0122235,1609,1681,8.22353,-23.0326
392,-657,8.22681,22.781,-4.87334e-05,-0.00399274,0.000234014,-3.48969e-05,-0.00400657,0.059058,0.00265949,0.012615,1616,1681,8.22681,-22.781
399,-657,8.23425,22.5039,-0.000379875,-0.00492152,0.000400418,-0.000344842,-0.00495655,0.0872689,0.00319563,0.0130699,1623,1681,8.23419,-22.5039
406,-657,8.22107,22.2111,-0.000616571,-0.00580189,0.000807815,-0.000493637,-0.00592483,0.151022,0.00379605,0.0135503,1630,1681,8.22105,-22.2111
413,-657,8.20996,21.9276,-0.000724928,-0.00663915,0.00114067,-0.000512553,-0.00685152,0.184076,0.00440678,0.0134674,1637,1681,8.21,-21.9277
420,-657,8.22852,21.6362,-0.00051853,-0.00795783,0.00156528,-0.000202602,-0.00827376,0.19916,0.00544956,0.0162656,1644,1681,8.22856,-21.6363
427,-657,8.22925,21.3093,0.000565044,-0.0116216,0.00157175,0.000764493,-0.011821,0.126222,0.00814746,0.021159,1651,1681,8.22922,-21.3093
434,-657,8.29395,21.0886,0.00155834,-0.0145714,0.000943959,0.00161339,-0.0146265,0.0582577,0.0103309,0.0288439,1658,1681,8.29396,-21.0887
441,-657,8.18713,21.0626,0,0,0,0,0,0,0,-1,1665,1681,8.18707,-21.0626
448,-657,7.54602,20.6808,0,0,0,0,0,0,0,-1,1672,1681,7.54607,-20.6808
455,-657,7.37744,20.4987,0,0,0,0,0,0,0,-1,1679,1681,7.37743,-20.4987
462,-657,6.51733,15.4801,0,0,0,0,0,0,0,-1,1686,1681,6.51737,-15.4801
469,-657,9.70483,21.9269,0,0,0,0,0,0,0,-1,1693,1681,9.70488,-21.9269
476,-657,9.88562,21.8949,0,0,0,0,0,0,0,-1,1700,1681,9.88558,-21.8948
483,-657,10.0663,21.8628,0,0,0,0,0,0,0,-1,1707,1681,10.0663,-21.8628
490,-657,11.6039,21.2185,0,0,0,0,0,0,0,-1,1714,1681,11.6038,-21.2185
497,-657,9.20862,17.8127,0,0,0,0,0,0,0,-1,1721,1681,9.2086,-17.8127
504,-657,0,0,0,0,0,0,0,0,0,-1,1728,1681,0,0
511,-657,0,0,0,0,0,0,0,0,0,-1,1735,1681,0,0
518,-657,0,0,0,0,0,0,0,0,0,-1,1742,1681,0,0
525,-657,0,0,0,0,0,0,0,0,0,-1,1749,1681,0,0
532,-657,0,0,0,0,0,0,0,0,0,-1,1756,1681,0,0
539,-657,0,0,0,0,0,0,0,0,0,-1,1763,1681,0,0
546,-657,0,0,0,0,0,0,0,0,0,-1,1770,1681,0,0
553,-657,0,0,0,0,0,0,0,0,0,-1,1777,1681,0,0
560,-657,0,0,0,0,0,0,0,0,0,-1,1784,1681,0,0
567,-657,0,0,0,0,0,0,0,0,0,-1,1791,1681,0,0
574,-657,0,0,0,0,0,0,0,0,0,-1,1798,1681,0,0
581,-657,0,0,0,0,0,0,0,0,0,-1,1805,1681,0,0
588,-657,0,0,0,0,0,0,0,0,0,-1,1812,1681,0,0
595,-657,0,0,0,0,0,0,0,0,0,-1,1819,1681,0,0
602,-657,0,0,0,0,0,0,0,0,0,-1,1826,1681,0,0
609,-657,0,0,0,0,0,0,0,0,0,-1,1833,1681,0,0
616,-657,0,0,0,0,0,0,0,0,0,-1,1840,1681,0,0
623,-657,0,0,0,0,0,0,0,0,0,-1,1847,1681,0,0
630,-657,0,0,0,0,0,0,0,0,0,-1,1854,1681,0,0
637,-657,0,0,0,0,0,0,0,0,0,-1,1861,1681,0,0
644,-657,0,0,0,0,0,0,0,0,0,-1,1868,1681,0,0
651,-657,0,0,0,0,0,0,0,0,0,-1,1875,1681,0,0
658,-657,0,0,0,0,0,0,0,0,0,-1,1882,1681,0,0
665,-657,0,0,0,0,0,0,0,0,0,-1,1889,1681,0,0
672,-657,0,0,0,0,0,0,0,0,0,-1,1896,1681,0,0
679,-657,0,0,0,0,0,0,0,0,0,-1,1903,1681,0,0
686,-657,0,0,0,0,0,0,0,0,0,-1,1910,1681,0,0
693,-657,0,0,0,0,0,0,0,0,0,-1,1917,1681,0,0
700,-657,0,0,0,0,0,0,0,0,0,-1,1924,1681,0,0
707,-657,0,0,0,0,0,0,0,0,0,-1,1931,1681,0,0
714,-657,0,0,0,0,0,0,0,0,0,-1,1938,1681,0,0
721,-657,0,0,0,0,0,0,0,0,0,-1,1945,1681,0,0
728,-657,0,0,0,0,0,0,0,0,0,-1,1952,1681,0,0
735,-657,0,0,0,0,0,0,0,0,0,-1,1959,1681,0,0
742,-657,0,0,0,0,0,0,0,0,0,-1,1966,1681,0,0
749,-657,0,0,0,0,0,0,0,0,0,-1,1973,1681,0,0
756,-657,0,0,0,0,0,0,0,0,0,-1,1980,1681,0,0
763,-657,0,0,0,0,0,0,0,0,0,-1,1987,1681,0,0
770,-657,0,0,0,0,0,0,0,0,0,-1,1994,1681,0,0
777,-657,0,0,0,0,0,0,0,0,0,-1,2001,1681,0,0
784,-657,0,0,0,0,0,0,0,0,0,-1,2008,1681,0,0
791,-657,0,0,0,0,0,0,0,0,0,-1,2015,1681,0,0
798,-657,0,0,0,0,0,0,0,0,0,-1,2022,1681,0,0
805,-657,0,0,0,0,0,0,0,0,0,-1,2029,1681,0,0
812,-657,0,0,0,0,0,0,0,0,0,-1,2036,1681,0,0
-700,-664,0,0,0,0,0,0,0,0,0,-1,524,1688,0,0
-693,-664,0,0,0,0,0,0,0,0,0,-1,531,1688,0,0
-686,-664,0,0,0,0,0,0,0,0,0,-1,538,1688,0,0
-679,-664,0,0,0,0,0,0,0,0,0,-1,545,1688,0,0
-672,-664,0,0,0,0,0,0,0,0,0,-1,552,1688,0,0
-665,-664,0,0,0,0,0,0,0,0,0,-1,559,1688,0,0
-658,-664,0,0,0,0,0,0,0,0,0,-1,566,1688,0,0
-651,-664,0,0,0,0,0,0,0,0,0,-1,573,1688,0,0
-644,-664,0,0,0,0,0,0,0,0,0,-1,580,1688,0,0
-637,-664,0,0,0,0,0,0,0,0,0,-1,587,1688,0,0
-630,-664,0,0,0,0,0,0,0,0,0,-1,594,1688,0,0
-623,-664,0,0,0,0,0,0,0,0,0,-1,601,1688,0,0
-616,-664,0,0,0,0,0,0,0,0,0,-1,608,1688,0,0
-609,-664,0,0,0,0,0,0,0,0,0,-1,615,1688,0,0
-602,-664,0,0,0,0,0,0,0,0,0,-1,622,1688,0,0
-595,-664,0,0,0,0,0,0,0,0,0,-1,629,1688,0,0
-588,-664,0,0,0,0,0,0,0,0,0,-1,636,1688,0,0
-581,-664,0,0,0,0,0,0,0,0,0,-1,643,1688,0,0
-574,-664,0,0,0,0,0,0,0,0,0,-1,650,1688,0,0
-567,-664,0,0,0,0,0,0,0,0,0,-1,657,1688,0,0
-560,-664,0,0,0,0,0,0,0,0,0,-1,664,1688,0,0
-553,-664,0,0,0,0,0,0,0,0,0,-1,671,1688,0,0
-546,-664,0,0,0,0,0,0,0,0,0,-1,678,1688,0,0
-539,-664,0,0,0,0,0,0,0,0,0,-1,685,1688,0,0
-532,-664,0,0,0,0,0,0,0,0,0,-1,692,1688,0,0
-525,-664,0,0,0,0,0,0,0,0,0,-1,699,1688,0,0
-518,-664,0,0,0,0,0,0,0,0,0,-1,706,1688,0,0
-511,-664,0,0,0,0,0,0,0,0,0,-1,713,1688,0,0
-504,-664,0,0,0,0,0,0,0,0,0,-1,720,1688,0,0
-497,-664,0,0,0,0,0,0,0,0,0,-1,727,1688,0,0
-490,-664,0,0,0,0,0,0,0,0,0,-1,734,1688,0,0
-483,-664,0,0,0,0,0,0,0,0,0,-1,741,1688,0,0
-476,-664,0,0,0,0,0,0,0,0,0,-1,748,1688,0,0
-469,-664,0,0,0,0,0,0,0,0,0,-1,755,1688,0,0
-462,-664,0,0,0,0,0,0,0,0,0,-1,762,1688,0,0
-455,-664,0,0,0,0,0,0,0,0,0,-1,769,1688,0,0
-448,-664,0,0,0,0,0,0,0,0,0,-1,776,1688,0,0
-441,-664,0,0,0,0,0,0,0,0,0,-1,783,1688,0,0
-434,-664,0,0,0,0,0,0,0,0,0,-1,790,1688,0,0
-427,-664,0,0,0,0,0,0,0,0,0,-1,797,1688,0,0
-420,-664,0,0,0,0,0,0,0,0,0,-1,804,1688,0,0
-413,-664,0,0,0,0,0,0,0,0,0,-1,811,1688,0,0
-406,-664,0,0,0,0,0,0,0,0,0,-1,818,1688,0,0
-399,-664,0,0,0,0,0,0,0,0,0,-1,825,1688,0,0
-392,-664,0,0,0,0,0,0,0,0,0,-1,832,1688,0,0
-385,-664,0,0,0,0,0,0,0,0,0,-1,839,1688,0,0
-378,-664,0,0,0,0,0,0,0,0,0,-1,846,1688,0,0
-371,-664,-1.61676,5.92737,0,0,0,0,0,0,0,-1,853,1688,-1.61675,-5.92735
-364,-664,-3.901,5.87024,0,0,0,0,0,0,0,-1,860,1688,-3.90097,-5.87027
-357,-664,-4.81012,4.53479,0,0,0,0,0,0,0,-1,867,1688,-4.81012,-4.5348
-350,-664,-5.7193,3.19934,0,0,0,0,0,0,0,-1,874,1688,-5.71927,-3.19932
-343,-664,2.96515,14.8083,0,0,0,0,0,0,0,-1,881,1688,2.96517,-14.8083
-336,-664,2.79852,15.5814,0,0,0,0,0,0,0,-1,888,1688,2.79853,-15.5814
-329,-664,3.0072,16.3878,0,0,0,0,0,0,0,-1,895,1688,3.00721,-16.3878
-322,-664,3.91711,18.1521,0,0,0,0,0,0,0,-1,902,1688,3.91714,-18.1521
-315,-664,4.23248,18.8882,0.0299271,0.020536,0.0274575,0.0530876,-0.00262452,0.700711,0.0362982,0.0451603,909,1688,4.23248,-18.8881
-308,-664,4.43774,19.5192,0.0208728,0.0146587,0.0209893,0.0389837,-0.00345225,0.711917,0.027213,0.0474406,916,1688,4.43773,-19.5192
-301,-664,4.74469,19.933,0,0,0,0,0,0,0,-1,923,1688,4.74469,-19.9329
-294,-664,5.22113,20.5608,0.00876303,0.00594336,0.0111844,0.0186261,-0.00391968,0.722702,0.0139093,0.0454304,930,1688,5.22113,-20.5608
-287,-664,5.09564,20.9308,0.00492622,0.00325992,0.00783807,0.0119753,-0.00378915,0.732449,0.00950185,0.0334022,937,1688,5.09562,-20.9308
-280,-664,4.90466,21.1851,0.00220233,0.00125566,0.00542692,0.00717652,-0.00371853,0.741898,0.006395,0.0243239,944,1688,4.90468,-21.1851
-273,-664,4.94983,21.4474,0.00065954,-8.55968e-05,0.00367084,0.00397667,-0.00340273,0.734824,0.00426479,0.0170429,951,1688,4.9498,-21.4474
-266,-664,4.92493,21.7469,-0.000844224,-0.00127428,0.00195616,0.000908691,-0.00302719,0.730657,0.00237958,0.0215979,958,1688,4.92495,-21.7469
-259,-664,4.89624,22.0332,-0.00131209,-0.00182171,0.000939322,-0.000593626,-0.00254017,0.65295,0.00153434,0.0199823,965,1688,4.89623,-22.0333
-252,-664,4.93561,22.3364,-0.00110704,-0.00188481,0.00044579,-0.00090435,-0.0020875,0.426735,0.00120879,0.016383,972,1688,4.93563,-22.3364
-245,-664,4.87573,22.6775,-0.000598473,-0.00157566,0.000333611,-0.000495441,-0.00167869,0.299544,0.000995942,0.0189116,979,1688,4.87571,-22.6775
-238,-664,4.8913,22.9253,-0.000104136,-0.00129601,0.000300323,-3.27392e-05,-0.00136741,0.233401,0.000900891,0.0232522,986,1688,4.89132,-22.9253
-231,-664,4.87872,23.1632,0.000367265,-0.000689705,0.000424238,0.000516478,-0.000838918,0.338206,0.000789885,0.0210841,993,1688,4.87873,-23.1633
-224,-664,4.88275,23.4606,0.00076483,-0.000816367,0.000363637,0.000844448,-0.000895986,0.215549,0.00100499,0.0146082,1000,1688,4.88276,-23.4605
-217,-664,4.8855,23.7314,0.00121211,-0.000420453,0.000467534,0.00133652,-0.000544864,0.260074,0.00111782,0.0105595,1007,1688,4.88551,-23.7314
-210,-664,4.8891,23.972,0.0017207,-9.33472e-05,0.000605666,0.00190433,-0.000276977,0.294377,0.00137123,0.0107833,1014,1688,4.88911,-23.972
-203,-664,4.88086,24.2263,0.00203442,-7.80366e-05,0.00062124,0.00220357,-0.000247189,0.265837,0.00155799,0.0127766,1021,1688,4.88085,-24.2263
-196,-664,4.87231,24.4679,0.00232992,-5.59812e-05,0.000742132,0.00254192,-0.000267983,0.278255,0.00179064,0.0139102,1028,1688,4.87232,-24.4679
-189,-664,4.87622,24.7024,0.00260265,-0.000103804,0.000864441,0.00285518,-0.000356342,0.284231,0.00203268,0.00940009,1035,1688,4.87626,-24.7024
-182,-664,4.88684,24.9309,0.00311659,-0.000186154,0.000798638,0.00329957,-0.000369135,0.225229,0.00233252,0.00851803,1042,1688,4.88678,-24.931
-175,-664,4.89258,25.1479,0.00403889,-0.000401795,0.000858192,0.00419897,-0.000561875,0.184413,0.00300417,0.0128813,1049,1688,4.89256,-25.148
-168,-664,4.89722,25.3671,0.00471258,-0.000468582,0.000810708,0.00483647,-0.000592473,0.151645,0.00343886,0.0151463,1056,1688,4.89727,-25.3671
-161,-664,4.90967,25.5867,0.00547499,-0.000531239,0.00074398,0.00556578,-0.000622022,0.121423,0.00393428,0.0107526,1063,1688,4.90965,-25.5867
-154,-664,4.93274,25.8051,0.00634907,-0.000581348,0.000605919,0.00640165,-0.000633924,0.0865539,0.004494,0.00974343,1070,1688,4.93271,-25.805
-147,-664,4.93762,26.009,0.00732687,-0.000649455,0.000422057,0.00734914,-0.000671725,0.0527176,0.00513799,0.0120305,1077,1688,4.9376,-26.009
-140,-664,4.96606,26.2191,0.00841667,-0.000490386,0.000261687,0.00842435,-0.000498068,0.029346,0.0057894,0.013411,1084,1688,4.96602,-26.2191
-133,-664,4.93762,26.448,0.00952047,-0.000260523,0.000109995,0.00952171,-0.000261759,0.0112439,0.00643683,0.0147065,1091,1688,4.93767,-26.448
-126,-664,5.01404,26.8223,0.0107345,0.000280224,6.97297e-05,0.0107349,0.000279759,0.0066696,0.00706521,0.0262683,1098,1688,5.01407,-26.8222
-119,-664,5.09314,27.027,0.0120684,0.000720359,3.45937e-05,0.0120685,0.000720253,0.00304838,0.00781668,0.0414864,1105,1688,5.09312,-27.0269
-112,-664,5.07556,27.3209,0,0,0,0,0,0,0,-1,1112,1688,5.07558,-27.321
-105,-664,4.48108,21.4276,0,0,0,0,0,0,0,-1,1119,1688,4.48104,-21.4276
-98,-664,4.98584,19.8645,0,0,0,0,0,0,0,-1,1126,1688,4.98586,-19.8645
-91,-664,5.41931,25.6302,0,0,0,0,0,0,0,-1,1133,1688,5.41932,-25.6302
-84,-664,3.48389,16.6913,0,0,0,0,0,0,0,-1,1140,1688,3.4839,-16.6913
-77,-664,4.52014,11.2122,0,0,0,0,0,0,0,-1,1147,1688,4.5202,-11.2122
-70,-664,4.20374,8.24524,0,0,0,0,0,0,0,-1,1154,1688,4.20379,-8.24519
-63,-664,-4.677,2.40503,0,0,0,0,0,0,0,-1,1161,1688,-4.67702,-2.40498
-56,-664,-4.66504,3.32727,0,0,0,0,0,0,0,-1,1168,1688,-4.6651,-3.32724
-49,-664,-2.54297,3.31848,0,0,0,0,0,0,0,-1,1175,1688,-2.54297,-3.31852
-42,-664,-0.359253,4.38684,0,0,0,0,0,0,0,-1,1182,1688,-0.359261,-4.38685
-35,-664,-0.705566,3.55017,0,0,0,0,0,0,0,-1,1189,1688,-0.705567,-3.55023
-28,-664,-1.54236,10.2538,0,0,0,0,0,0,0,-1,1196,1688,-1.54236,-10.2538
-21,-664,4.89539,28.8873,0,0,0,0,0,0,0,-1,1203,1688,4.8954,-28.8874
-14,-664,4.45825,39.9001,0,0,0,0,0,0,0,-1,1210,1688,4.4583,-39.9001
-7,-664,4.37964,40.0634,0,0,0,0,0,0,0,-1,1217,1688,4.3796,-40.0634
0,-664,4.47437,38.1781,0.0579779,0.129035,-0.13497,0.233074,-0.0460614,-0.914095,0.172795,0.0475652,1224,1688,4.47431,-38.1781
7,-664,4.64197,36.3116,0.054943,0.122741,-0.130653,0.223821,-0.0461371,-0.912328,0.166734,0.0470166,1231,1688,4.64198,-36.3117
14,-664,4.49243,34.5063,0.0503676,0.114159,-0.126254,0.212484,-0.0479577,-0.909124,0.160055,0.0445826,1238,1688,4.49242,-34.5063
21,-664,4.53796,33.205,0.0440415,0.103859,-0.121771,0.199341,-0.05144,-0.905822,0.152952,0.044086,1245,1688,4.53796,-33.205
28,-664,7.0957,30.4313,0,0,0,0,0,0,0,-1,1252,1688,7.09565,-30.4313
35,-664,5.14282,30.9429,0.0289621,0.0827437,-0.11442,0.173391,-0.0616848,-0.900813,0.140736,0.0427966,1259,1688,5.14283,-30.9428
42,-664,5.91431,29.7589,0.0215574,0.073719,-0.110652,0.161322,-0.0660454,-0.901137,0.135058,0.0423001,1266,1688,5.91433,-29.759
49,-664,6.09875,28.7847,0.0141088,0.0670487,-0.107276,0.151072,-0.0699146,-0.906355,0.130423,0.0413479,1273,1688,6.09878,-28.7846
56,-664,6.02112,27.637,0.0128121,0.0597372,-0.10043,0.139409,-0.0668598,-0.90015,0.12152,0.045444,1280,1688,6.02111,-27.6369
63,-664,6.2229,26.4865,0,0,0,0,0,0,0,-1,1287,1688,6.2229,-26.4865
70,-664,1.8114,23.1481,0,0,0,0,0,0,0,-1,1294,1688,1.81139,-23.148
77,-664,1.22888,21.0697,0,0,0,0,0,0,0,-1,1301,1688,1.22884,-21.0697
84,-664,4.94299,29.4459,0,0,0,0,0,0,0,-1,1308,1688,4.94301,-29.4459
91,-664,-0.534058,17.7789,0,0,0,0,0,0,0,-1,1315,1688,-0.534064,-17.7789
98,-664,-1.26721,16.1704,0,0,0,0,0,0,0,-1,1322,1688,-1.26725,-16.1704
105,-664,6.23962,30.7927,0,0,0,0,0,0,0,-1,1329,1688,6.2396,-30.7927
112,-664,6.91833,30.6034,0,0,0,0,0,0,0,-1,1336,1688,6.91835,-30.6034
119,-664,7.54041,30.1116,0,0,0,0,0,0,0,-1,1343,1688,7.54039,-30.1116
126,-664,7.7074,29.6338,0,0,0,0,0,0,0,-1,1350,1688,7.70738,-29.6337
133,-664,6.74158,27.0822,0,0,0,0,0,0,0,-1,1357,1688,6.74153,-27.0822
140,-664,7.08826,26.9691,0,0,0,0,0,0,0,-1,1364,1688,7.08826,-26.9691
147,-664,7.43494,26.856,0,0,0,0,0,0,0,-1,1371,1688,7.43499,-26.8559
154,-664,4.76721,26.2594,0,0,0,0,0,0,0,-1,1378,1688,4.76723,-26.2594
161,-664,4.60132,1.56238,0,0,0,0,0,0,0,-1,1385,1688,4.60134,-1.56233
168,-664,5.172,1.25488,0,0,0,0,0,0,0,-1,1392,1688,5.17203,-1.25484
175,-664,5.58313,1.16467,0,0,0,0,0,0,0,-1,1399,1688,5.58317,-1.16466
182,-664,5.74268,1.41113,0,0,0,0,0,0,0,-1,1406,1688,5.74263,-1.41115
189,-664,5.87744,1.87061,0,0,0,0,0,0,0,-1,1413,1688,5.87745,-1.87065
196,-664,6.7594,5.97473,0,0,0,0,0,0,0,-1,1420,1688,6.75943,-5.97478
203,-664,5.38452,5.22034,0,0,0,0,0,0,0,-1,1427,1688,5.38453,-5.2203
210,-664,5.25549,6.45715,0,0,0,0,0,0,0,-1,1434,1688,5.25549,-6.45721
217,-664,5.72009,6.73975,0,0,0,0,0,0,0,-1,1441,1688,5.72014,-6.73972
224,-664,5.05725,7.42908,0,0,0,0,0,0,0,-1,1448,1688,5.05723,-7.42912
231,-664,5.13318,7.60864,0,0,0,0,0,0,0,-1,1455,1688,5.13313,-7.60862
238,-664,4.23193,6.45471,0,0,0,0,0,0,0,-1,1462,1688,4.23197,-6.45476
245,-664,4.42004,6.80896,0,0,0,0,0,0,0,-1,1469,1688,4.4201,-6.80901
252,-664,3.67346,6.85461,0,0,0,0,0,0,0,-1,1476,1688,3.6734,-6.85462
259,-664,4.55823,11.7435,0,0,0,0,0,0,0,-1,1483,1688,4.55826,-11.7435
266,-664,7.71973,26.2286,0,0,0,0,0,0,0,-1,1490,1688,7.71967,-26.2287
273,-664,7.95874,26.4387,0,0,0,0,0,0,0,-1,1497,1688,7.95879,-26.4387
280,-664,7.91919,26.3322,0.0048255,0.0021832,-0.000708323,0.00500341,0.0020053,-0.24607,0.00290761,0.0284532,1504,1688,7.91918,-26.3322
287,-664,7.89905,26.1666,0.00451236,0.00256742,-0.000655881,0.00471287,0.00236691,-0.296685,0.00272099,0.0206873,1511,1688,7.89908,-26.1666
294,-664,7.96753,25.9895,0.00408263,0.00257877,-0.000609592,0.00429869,0.00236271,-0.340616,0.00248592,0.0148843,1518,1688,7.96751,-25.9895
301,-664,7.99023,25.7994,0.00367283,0.00253056,-0.000554414,0.00389766,0.00230573,-0.385273,0.00226286,0.0107226,1525,1688,7.99019,-25.7994
308,-664,7.99548,25.5824,0.00324937,0.00243846,-0.000513885,0.00349849,0.00218934,-0.4514,0.00204105,0.0110339,1532,1688,7.99552,-25.5824
315,-664,8.01013,25.3682,0.00277344,0.00233442,-0.000450762,0.0030553,0.00205256,-0.558811,0.00179835,0.012261,1539,1688,8.01013,-25.3681
322,-664,8.03833,25.1713,0.00228046,0.00218555,-0.000381977,0.00261791,0.00184809,-0.723599,0.0015536,0.0157002,1546,1688,8.03836,-25.1713
329,-664,8.02478,24.9772,0.00182055,0.00190801,-0.000310519,0.00217786,0.0015507,-0.855357,0.00129453,0.0179961,1553,1688,8.02482,-24.9772
336,-664,8.02319,24.7371,0.00142487,0.00154026,-0.000179171,0.0016708,0.00129434,-0.94116,0.001012,0.0148067,1560,1688,8.02317,-24.7371
343,-664,8.03516,24.5084,0.00101252,0.00100409,-8.6864e-05,0.00109527,0.000921338,-0.761171,0.000679662,0.0114702,1567,1688,8.03514,-24.5085
350,-664,8.03259,24.2775,0.000617606,0.000299997,-1.43283e-05,0.000618251,0.000299352,-0.0449911,0.000357007,0.012754,1574,1688,8.03257,-24.2774
357,-664,8.02148,24.026,0.000349342,-0.000574539,9.6437e-05,0.000359301,-0.000584498,0.102905,0.000550049,0.0119723,1581,1688,8.02148,-24.026
364,-664,8.0199,23.7876,0.000130056,-0.00156903,0.000225749,0.000159539,-0.00159851,0.129864,0.00112264,0.0100891,1588,1688,8.01993,-23.7876
371,-664,8.02161,23.5366,-6.58178e-05,-0.00263321,0.000324274,-2.54938e-05,-0.00267354,0.123716,0.00177392,0.0131399,1595,1688,8.02162,-23.5366
378,-664,8.00171,23.2778,-0.000174503,-0.00378244,0.000428066,-0.00012441,-0.00383254,0.116491,0.00251458,0.0133923,1602,1688,8.00165,-23.2779
385,-664,7.98669,23.0377,-0.000181316,-0.00489172,0.000502624,-0.00012828,-0.00494476,0.105128,0.00325459,0.0136272,1609,1688,7.98672,-23.0377
392,-664,7.98145,22.7772,-0.000355063,-0.00613228,0.000555582,-0.000302119,-0.00618522,0.0950076,0.00402655,0.016217,1616,1688,7.98142,-22.7773
399,-664,7.98633,22.4976,-0.000682578,-0.00734904,0.000772901,-0.000594142,-0.00743748,0.113925,0.00477261,0.013729,1623,1688,7.9863,-22.4975
406,-664,7.99878,22.2174,-0.000903027,-0.00850458,0.00126184,-0.000699038,-0.00870857,0.160273,0.00558729,0.0150162,1630,1688,7.9988,-22.2174
413,-664,8.00708,21.9045,-0.000985907,-0.00958682,0.00166717,-0.000674058,-0.00989867,0.184917,0.00638629,0.0180514,1637,1688,8.00704,-21.9046
420,-664,8.03381,21.6182,-0.000783291,-0.011162,0.00219061,-0.00033987,-0.0116054,0.199721,0.00762618,0.0376218,1644,1688,8.03382,-21.6181
427,-664,8.10632,21.311,0,0,0,0,0,0,0,-1,1651,1688,8.10634,-21.311
434,-664,8.15918,20.8348,0,0,0,0,0,0,0,-1,1658,1688,8.15912,-20.8349
441,-664,8.30566,20.2916,0,0,0,0,0,0,0,-1,1665,1688,8.30567,-20.2916
448,-664,7.27502,19.7417,0,0,0,0,0,0,0,-1,1672,1688,7.27505,-19.7417
455,-664,7.53198,11.3838,0,0,0,0,0,0,0,-1,1679,1688,7.53195,-11.3838
462,-664,4.3147,4.25439,0,0,0,0,0,0,0,-1,1686,1688,4.31467,-4.25435
469,-664,6.05469,7.49341,0,0,0,0,0,0,0,-1,1693,1688,6.05474,-7.49339
476,-664,10.2377,22.7128,0,0,0,0,0,0,0,-1,1700,1688,10.2377,-22.7128
483,-664,8.41895,10.9768,0,0,0,0,0,0,0,-1,1707,1688,8.41897,-10.9769
490,-664,3.90771,13.2842,0,0,0,0,0,0,0,-1,1714,1688,3.90776,-13.2841
497,-664,0,0,0,0,0,0,0,0,0,-1,1721,1688,0,0
504,-664,0,0,0,0,0,0,0,0,0,-1,1728,1688,0,0
511,-664,0,0,0,0,0,0,0,0,0,-1,1735,1688,0,0
518,-664,0,0,0,0,0,0,0,0,0,-1,1742,1688,0,0
525,-664,0,0,0,0,0,0,0,0,0,-1,1749,1688,0,0
532,-664,0,0,0,0,0,0,0,0,0,-1,1756,1688,0,0
539,-664,0,0,0,0,0,0,0,0,0,-1,1763,1688,0,0
546,-664,0,0,0,0,0,0,0,0,0,-1,1770,1688,0,0
553,-664,0,0,0,0,0,0,0,0,0,-1,1777,1688,0,0
560,-664,0,0,0,0,0,0,0,0,0,-1,1784,1688,0,0
567,-664,0,0,0,0,0,0,0,0,0,-1,1791,1688,0,0
574,-664,0,0,0,0,0,0,0,0,0,-1,1798,1688,0,0
581,-664,0,0,0,0,0,0,0,0,0,-1,1805,1688,0,0
588,-664,0,0,0,0,0,0,0,0,0,-1,1812,1688,0,0
595,-664,0,0,0,0,0,0,0,0,0,-1,1819,1688,0,0
602,-664,0,0,0,0,0,0,0,0,0,-1,1826,1688,0,0
609,-664,0,0,0,0,0,0,0,0,0,-1,1833,1688,0,0
616,-664,0,0,0,0,0,0,0,0,0,-1,1840,1688,0,0
623,-664,0,0,0,0,0,0,0,0,0,-1,1847,1688,0,0
630,-664,0,0,0,0,0,0,0,0,0,-1,1854,1688,0,0
637,-664,0,0,0,0,0,0,0,0,0,-1,1861,1688,0,0
644,-664,0,0,0,0,0,0,0,0,0,-1,1868,1688,0,0
651,-664,0,0,0,0,0,0,0,0,0,-1,1875,1688,0,0
658,-664,0,0,0,0,0,0,0,0,0,-1,1882,1688,0,0
665,-664,0,0,0,0,0,0,0,0,0,-1,1889,1688,0,0
672,-664,0,0,0,0,0,0,0,0,0,-1,1896,1688,0,0
679,-664,0,0,0,0,0,0,0,0,0,-1,1903,1688,0,0
686,-664,0,0,0,0,0,0,0,0,0,-1,1910,1688,0,0
693,-664,0,0,0,0,0,0,0,0,0,-1,1917,1688,0,0
700,-664,0,0,0,0,0,0,0,0,0,-1,1924,1688,0,0
707,-664,0,0,0,0,0,0,0,0,0,-1,1931,1688,0,0
714,-664,0,0,0,0,0,0,0,0,0,-1,1938,1688,0,0
721,-664,0,0,0,0,0,0,0,0,0,-1,1945,1688,0,0
728,-664,0,0,0,0,0,0,0,0,0,-1,1952,1688,0,0
735,-664,0,0,0,0,0,0,0,0,0,-1,1959,1688,0,0
742,-664,0,0,0,0,0,0,0,0,0,-1,1966,1688,0,0
749,-664,0,0,0,0,0,0,0,0,0,-1,1973,1688,0,0
756,-664,0,0,0,0,0,0,0,0,0,-1,1980,1688,0,0
763,-664,0,0,0,0,0,0,0,0,0,-1,1987,1688,0,0
770,-664,0,0,0,0,0,0,0,0,0,-1,1994,1688,0,0
777,-664,0,0,0,0,0,0,0,0,0,-1,2001,1688,0,0
784,-664,0,0,0,0,0,0,0,0,0,-1,2008,1688,0,0
791,-664,0,0,0,0,0,0,0,0,0,-1,2015,1688,0,0
798,-664,0,0,0,0,0,0,0,0,0,-1,2022,1688,0,0
805,-664,0,0,0,0,0,0,0,0,0,-1,2029,1688,0,0
812,-664,0,0,0,0,0,0,0,0,0,-1,2036,1688,0,0
-700,-671,0,0,0,0,0,0,0,0,0,-1,524,1695,0,0
-693,-671,0,0,0,0,0,0,0,0,0,-1,531,1695,0,0
-686,-671,0,0,0,0,0,0,0,0,0,-1,538,1695,0,0
-679,-671,0,0,0,0,0,0,0,0,0,-1,545,1695,0,0
-672,-671,0,0,0,0,0,0,0,0,0,-1,552,1695,0,0
-665,-671,0,0,0,0,0,0,0,0,0,-1,559,1695,0,0
-658,-671,0,0,0,0,0,0,0,0,0,-1,566,1695,0,0
-651,-671,0,0,0,0,0,0,0,0,0,-1,573,1695,0,0
-644,-671,0,0,0,0,0,0,0,0,0,-1,580,1695,0,0
-637,-671,0,0,0,0,0,0,0,0,0,-1,587,1695,0,0
-630,-671,0,0,0,0,0,0,0,0,0,-1,594,1695,0,0
-623,-671,0,0,0,0,0,0,0,0,0,-1,601,1695,0,0
-616,-671,0,0,0,0,0,0,0,0,0,-1,608,1695,0,0
-609,-671,0,0,0,0,0,0,0,0,0,-1,615,1695,0,0
-602,-671,0,0,0,0,0,0,0,0,0,-1,622,1695,0,0
-595,-671,0,0,0,0,0,0,0,0,0,-1,629,1695,0,0
-588,-671,0,0,0,0,0,0,0,0,0,-1,636,1695,0,0
-581,-671,0,0,0,0,0,0,0,0,0,-1,643,1695,0,0
-574,-671,0,0,0,0,0,0,0,0,0,-1,650,1695,0,0
-567,-671,0,0,0,0,0,0,0,0,0,-1,657,1695,0,0
-560,-671,0,0,0,0,0,0,0,0,0,-1,664,1695,0,0
-553,-671,0,0,0,0,0,0,0,0,0,-1,671,1695,0,0
-546,-671,0,0,0,0,0,0,0,0,0,-1,678,1695,0,0
-539,-671,0,0,0,0,0,0,0,0,0,-1,685,1695,0,0
-532,-671,0,0,0,0,0,0,0,0,0,-1,692,1695,0,0
-525,-671,0,0,0,0,0,0,0,0,0,-1,699,1695,0,0
-518,-671,0,0,0,0,0,0,0,0,0,-1,706,1695,0,0
-511,-671,0,0,0,0,0,0,0,0,0,-1,713,1695,0,0
-504,-671,0,0,0,0,0,0,0,0,0,-1,720,1695,0,0
-497,-671,0,0,0,0,0,0,0,0,0,-1,727,1695,0,0
-490,-671,0,0,0,0,0,0,0,0,0,-1,734,1695,0,0
-483,-671,0,0,0,0,0,0,0,0,0,-1,741,1695,0,0
-476,-671,0,0,0,0,0,0,0,0,0,-1,748,1695,0,0
-469,-671,0,0,0,0,0,0,0,0,0,-1,755,1695,0,0
-462,-671,0,0,0,0,0,0,0,0,0,-1,762,1695,0,0
-455,-671,0,0,0,0,0,0,0,0,0,-1,769,1695,0,0
-448,-671,0,0,0,0,0,0,0,0,0,-1,776,1695,0,0
-441,-671,0,0,0,0,0,0,0,0,0,-1,783,1695,0,0
-434,-671,0,0,0,0,0,0,0,0,0,-1,790,1695,0,0
-427,-671,0,0,0,0,0,0,0,0,0,-1,797,1695,0,0
-420,-671,0,0,0,0,0,0,0,0,0,-1,804,1695,0,0
-413,-671,0,0,0,0,0,0,0,0,0,-1,811,1695,0,0
-406,-671,0,0,0,0,0,0,0,0,0,-1,818,1695,0,0
-399,-671,0,0,0,0,0,0,0,0,0,-1,825,1695,0,0
-392,-671,0,0,0,0,0,0,0,0,0,-1,832,1695,0,0
-385,-671,0,0,0,0,0,0,0,0,0,-1,839,1695,0,0
-378,-671,0,0,0,0,0,0,0,0,0,-1,846,1695,0,0
-371,-671,0,0,0,0,0,0,0,0,0,-1,853,1695,0,0
-364,-671,-4.18738,7.51416,0,0,0,0,0,0,0,-1,860,1695,-4.18739,-7.51419
-357,-671,-5.02393,6.07129,0,0,0,0,0,0,0,-1,867,1695,-5.0239,-6.07135
-350,-671,-5.72333,4.58386,0,0,0,0,0,0,0,-1,874,1695,-5.72333,-4.58386
-343,-671,-6.4884,3.11353,0,0,0,0,0,0,0,-1,881,1695,-6.48839,-3.11349
-336,-671,2.55884,15.6338,0,0,0,0,0,0,0,-1,888,1695,2.55886,-15.6338
-329,-671,2.71729,16.1058,0,0,0,0,0,0,0,-1,895,1695,2.71729,-16.1058
-322,-671,5.32996,18.7546,0,0,0,0,0,0,0,-1,902,1695,5.32993,-18.7547
-315,-671,4.2912,18.8179,0,0,0,0,0,0,0,-1,909,1695,4.2912,-18.8179
-308,-671,4.53802,19.5359,0,0,0,0,0,0,0,-1,916,1695,4.53804,-19.5358
-301,-671,4.95648,19.6602,0,0,0,0,0,0,0,-1,923,1695,4.95649,-19.6602
-294,-671,5.69049,20.4847,0,0,0,0,0,0,0,-1,930,1695,5.69047,-20.4847
-287,-671,5.57306,20.9182,0.00534238,0.00359068,0.00959229,0.0140987,-0.00516566,0.739871,0.011514,0.0460519,937,1695,5.57306,-20.9182
-280,-671,5.42633,21.3213,0.00216762,0.00117187,0.00667685,0.00836513,-0.00502564,0.748183,0.00781089,0.0412898,944,1695,5.42635,-21.3213
-273,-671,5.40143,21.4712,0.000417619,-0.000431589,0.00452963,0.0045425,-0.00455648,0.738665,0.0052533,0.0369659,951,1695,5.4014,-21.4712
-266,-671,5.33777,21.8171,-0.00119472,-0.00173568,0.0025248,0.00107405,-0.00400445,0.732038,0.0030905,0.0261348,958,1695,5.33778,-21.8172
-259,-671,5.19043,22.068,-0.00170264,-0.00238944,0.00128709,-0.000713924,-0.00337816,0.655035,0.00205587,0.0234417,965,1695,5.19041,-22.0679
-252,-671,5.18768,22.3699,-0.00151665,-0.00255293,0.000656369,-0.00119855,-0.00287103,0.451274,0.0016651,0.017612,972,1695,5.1877,-22.3699
-245,-671,5.164,22.6726,-0.0010136,-0.00225596,0.000448236,-0.000868765,-0.00240079,0.312534,0.00140362,0.0194056,979,1695,5.16398,-22.6726
-238,-671,5.16705,22.9365,-0.000601089,-0.00197667,0.000331079,-0.000525551,-0.0020522,0.224315,0.00123094,0.0201591,986,1695,5.16705,-22.9365
-231,-671,5.16791,23.1798,-0.000184051,-0.00120741,0.000443808,-1.83965e-05,-0.00137307,0.357241,0.000909307,0.0161199,993,1695,5.16792,-23.1798
-224,-671,5.13391,23.4471,0.000178805,-0.00153397,0.000285168,0.000225036,-0.0015802,0.160721,0.00113593,0.0118965,1000,1695,5.13391,-23.4472
-217,-671,5.13141,23.7175,0.000519693,-0.00113585,0.000278042,0.000565141,-0.0011813,0.162026,0.00102901,0.0112184,1007,1695,5.13144,-23.7175
-210,-671,5.12469,23.9684,0.000915217,-0.000738609,0.000376602,0.000996937,-0.000820329,0.213681,0.00105085,0.0107439,1014,1695,5.12472,-23.9684
-203,-671,5.0918,24.2103,0.00116989,-0.000520087,0.000433241,0.00127448,-0.00062468,0.236886,0.00111767,0.0178127,1021,1695,5.09183,-24.2103
-196,-671,5.10059,24.4603,0.00133907,-0.000350401,0.000572151,0.0015146,-0.000525928,0.297668,0.00122332,0.0160697,1028,1695,5.10058,-24.4603
-189,-671,5.12939,24.7417,0.00155565,-0.000268397,0.000726102,0.00180939,-0.00052214,0.336193,0.00141284,0.0123514,1035,1695,5.12936,-24.7416
-182,-671,5.0957,24.951,0.00202591,-0.000208306,0.000714414,0.00223482,-0.000417213,0.284486,0.00164667,0.0101041,1042,1695,5.09565,-24.951
-175,-671,5.10352,25.1686,0.00284924,-0.000206552,0.000771623,0.00303303,-0.000390342,0.233829,0.0021639,0.0133877,1049,1695,5.10347,-25.1686
-168,-671,5.10925,25.3793,0.00343864,-8.46854e-05,0.000770099,0.00359961,-0.000245653,0.206055,0.00248567,0.0150967,1056,1695,5.10928,-25.3793
-161,-671,5.12329,25.5911,0.00407325,2.80243e-05,0.000754862,0.00420952,-0.000108247,0.178601,0.00284311,0.0101454,1063,1695,5.12324,-25.5911
-154,-671,5.13953,25.7916,0.00480344,0.000190382,0.000667148,0.00489799,9.58357e-05,0.14078,0.00323385,0.00890416,1070,1695,5.13957,-25.7917
-147,-671,5.14697,26.0077,0.0055938,0.000342135,0.000525322,0.00564583,0.000290103,0.0987263,0.00367101,0.0103585,1077,1695,5.14702,-26.0077
-140,-671,5.18884,26.2155,0.00642145,0.000615061,0.000407223,0.00644987,0.00058664,0.0696789,0.00411832,0.0116399,1084,1695,5.18883,-26.2155
-133,-671,5.19189,26.4078,0.00723309,0.000906781,0.000289367,0.0072463,0.000893573,0.0456133,0.00456227,0.0146459,1091,1695,5.19193,-26.4079
-126,-671,5.22058,26.6188,0.00812513,0.00139736,0.000238193,0.00813355,0.00138894,0.0353454,0.0050238,0.0199447,1098,1695,5.22063,-26.6187
-119,-671,5.30359,26.9398,0.00907931,0.00176511,0.000201721,0.00908487,0.00175955,0.0275514,0.0055636,0.0358117,1105,1695,5.30365,-26.9398
-112,-671,5.39648,27.1722,0.00971442,0.00215032,3.724e-06,0.00971442,0.00215031,0.000492325,0.00589179,0.0487595,1112,1695,5.39643,-27.1723
-105,-671,5.38782,27.222,0,0,0,0,0,0,0,-1,1119,1695,5.38779,-27.222
-98,-671,5.25195,27.3164,0,0,0,0,0,0,0,-1,1126,1695,5.25194,-27.3165
-91,-671,5.39136,27.4602,0,0,0,0,0,0,0,-1,1133,1695,5.39132,-27.4603
-84,-671,5.4209,26.2415,0,0,0,0,0,0,0,-1,1140,1695,5.42096,-26.2414
-77,-671,4.31763,16.489,0,0,0,0,0,0,0,-1,1147,1695,4.31757,-16.489
-70,-671,3.06067,10.7737,0,0,0,0,0,0,0,-1,1154,1695,3.0607,-10.7737
-63,-671,2.94592,6.90198,0,0,0,0,0,0,0,-1,1161,1695,2.94594,-6.90198
-56,-671,-3.07678,2.87976,0,0,0,0,0,0,0,-1,1168,1695,-3.07675,-2.87979
-49,-671,-1.05957,4.76917,0,0,0,0,0,0,0,-1,1175,1695,-1.05958,-4.76921
-42,-671,0.539307,3.7865,0,0,0,0,0,0,0,-1,1182,1695,0.539266,-3.78648
-35,-671,-0.272461,0.347534,0,0,0,0,0,0,0,-1,1189,1695,-0.272434,-0.347569
-28,-671,-10.4878,17.2009,0,0,0,0,0,0,0,-1,1196,1695,-10.4878,-17.2009
-21,-671,5.1123,28.6414,0,0,0,0,0,0,0,-1,1203,1695,5.11226,-28.6414
-14,-671,6.05322,28.7144,0,0,0,0,0,0,0,-1,1210,1695,6.05319,-28.7144
-7,-671,5.2218,38.5635,0,0,0,0,0,0,0,-1,1217,1695,5.22183,-38.5635
0,-671,5.27441,36.6786,0.0452827,0.105433,-0.107126,0.186626,-0.0359098,-0.922248,0.137954,0.0478664,1224,1695,5.27435,-36.6786
7,-671,5.23389,35.3387,0.0431835,0.100322,-0.103841,0.179452,-0.0359472,-0.919638,0.133243,0.0431747,1231,1695,5.23391,-35.3388
14,-671,5.48523,30.097,0,0,0,0,0,0,0,-1,1238,1695,5.48522,-30.0971
21,-671,6.89404,30.1239,0,0,0,0,0,0,0,-1,1245,1695,6.89405,-30.1239
28,-671,6.92175,30.0227,0,0,0,0,0,0,0,-1,1252,1695,6.92178,-30.0227
35,-671,6.94946,29.9215,0,0,0,0,0,0,0,-1,1259,1695,6.94951,-29.9215
42,-671,6.58704,29.493,0,0,0,0,0,0,0,-1,1266,1695,6.58708,-29.4931
49,-671,7.18616,29.3103,0,0,0,0,0,0,0,-1,1273,1695,7.18612,-29.3103
56,-671,7.06482,29.2883,0,0,0,0,0,0,0,-1,1280,1695,7.06479,-29.2883
63,-671,6.8678,29.1794,0,0,0,0,0,0,0,-1,1287,1695,6.86783,-29.1795
70,-671,4.74963,28.7358,0,0,0,0,0,0,0,-1,1294,1695,4.74967,-28.7358
77,-671,4.92432,29.1925,0,0,0,0,0,0,0,-1,1301,1695,4.92435,-29.1925
84,-671,5.16077,29.4603,0,0,0,0,0,0,0,-1,1308,1695,5.16077,-29.4603
91,-671,5.6405,30.3521,0,0,0,0,0,0,0,-1,1315,1695,5.64047,-30.352
98,-671,6.03625,30.4473,0,0,0,0,0,0,0,-1,1322,1695,6.03622,-30.4473
105,-671,6.48804,30.3923,0.1545,0.0828328,-0.0643375,0.19231,0.045023,-0.531311,0.116145,0.0473243,1329,1695,6.48805,-30.3923
112,-671,7.12695,30.1929,0,0,0,0,0,0,0,-1,1336,1695,7.12698,-30.1929
119,-671,7.71289,30.0356,0,0,0,0,0,0,0,-1,1343,1695,7.71293,-30.0357
126,-671,6.4823,27.5873,0,0,0,0,0,0,0,-1,1350,1695,6.48232,-27.5873
133,-671,6.30566,28.1263,0,0,0,0,0,0,0,-1,1357,1695,6.30562,-28.1263
140,-671,6.7998,27.6129,0.181531,0.11091,-0.068126,0.222954,0.0694871,-0.546301,0.131731,0.0458258,1364,1695,6.79979,-27.6129
147,-671,7.08777,27.3845,0,0,0,0,0,0,0,-1,1371,1695,7.08779,-27.3846
154,-671,7.37891,27.2311,0,0,0,0,0,0,0,-1,1378,1695,7.37894,-27.2311
161,-671,4.49292,4.91272,0,0,0,0,0,0,0,-1,1385,1695,4.49297,-4.91273
168,-671,5.17639,6.1416,0,0,0,0,0,0,0,-1,1392,1695,5.1764,-6.14164
175,-671,5.6731,1.64685,0,0,0,0,0,0,0,-1,1399,1695,5.67313,-1.64691
182,-671,5.56812,1.71692,0,0,0,0,0,0,0,-1,1406,1695,5.56809,-1.71686
189,-671,6.98315,6.36169,0,0,0,0,0,0,0,-1,1413,1695,6.98312,-6.36175
196,-671,5.38123,5.69775,0,0,0,0,0,0,0,-1,1420,1695,5.38125,-5.69769
203,-671,5.95117,8.11658,0,0,0,0,0,0,0,-1,1427,1695,5.9512,-8.11662
210,-671,4.73596,8.39624,0,0,0,0,0,0,0,-1,1434,1695,4.736,-8.39618
217,-671,5.37097,11.863,0,0,0,0,0,0,0,-1,1441,1695,5.37094,-11.863
224,-671,5.08167,13.6694,0,0,0,0,0,0,0,-1,1448,1695,5.08165,-13.6695
231,-671,5.66663,15.3348,0,0,0,0,0,0,0,-1,1455,1695,5.66667,-15.3349
238,-671,6.32959,16.2036,0,0,0,0,0,0,0,-1,1462,1695,6.32961,-16.2037
245,-671,7.90234,26.2939,0,0,0,0,0,0,0,-1,1469,1695,7.90234,-26.2939
252,-671,7.67798,26.7295,0,0,0,0,0,0,0,-1,1476,1695,7.67794,-26.7295
259,-671,7.59619,26.5175,0,0,0,0,0,0,0,-1,1483,1695,7.59616,-26.5174
266,-671,7.69409,26.6602,0.00337366,0.000619139,1.49183e-05,0.00337374,0.000619058,0.00541571,0.00207384,0.0371888,1490,1695,7.69409,-26.6602
273,-671,7.75415,26.5524,0.00344051,0.000671398,-0.000119305,0.00344564,0.000666267,-0.0429781,0.00211036,0.0126195,1497,1695,7.75415,-26.5523
280,-671,7.74219,26.3942,0.00350163,0.000976549,-0.00027884,0.00353205,0.000946124,-0.108684,0.00211122,0.00905193,1504,1695,7.74222,-26.3941
287,-671,7.74011,26.1606,0.00327776,0.00134195,-0.000312503,0.00332696,0.00129275,-0.15615,0.00193666,0.0105051,1511,1695,7.74016,-26.1606
294,-671,7.74158,25.9493,0.00295651,0.00148658,-0.000362904,0.00304122,0.00140187,-0.229326,0.00175763,0.0105753,1518,1695,7.74159,-25.9494
301,-671,7.76074,25.7787,0.00261131,0.00155629,-0.000410092,0.00275196,0.00141564,-0.330408,0.00158907,0.0103185,1525,1695,7.7607,-25.7787
308,-671,7.77454,25.5905,0.00222919,0.00154735,-0.000446345,0.00244992,0.00132662,-0.459258,0.00141608,0.0119626,1532,1695,7.77449,-25.5904
315,-671,7.80188,25.3817,0.00181635,0.001471,-0.000432514,0.00210938,0.00117796,-0.595477,0.00122062,0.0138573,1539,1695,7.80186,-25.3817
322,-671,7.80396,25.2004,0.00139331,0.00136002,-0.000414417,0.00179142,0.000961917,-0.765328,0.00103522,0.0154884,1546,1695,7.80393,-25.2005
329,-671,7.77441,25.0128,0.000982084,0.00111425,-0.000361119,0.00141529,0.000681053,-0.875897,0.000817308,0.0140937,1553,1695,7.77444,-25.0128
336,-671,7.77625,24.7662,0.000649747,0.000729225,-0.000225292,0.000918256,0.000460716,-0.872695,0.000530156,0.0108022,1560,1695,7.77626,-24.7662
343,-671,7.78345,24.522,0.00030725,0.000125658,-0.000126245,0.000371959,6.09487e-05,-0.473648,0.00023036,0.0106966,1567,1695,7.78339,-24.522
350,-671,7.79187,24.2924,-3.0828e-05,-0.000656678,-5.20959e-05,-2.65212e-05,-0.000660985,-0.0824838,0.000432087,0.0105117,1574,1695,7.79182,-24.2924
357,-671,7.78247,24.0276,-0.000256742,-0.00174906,0.000147396,-0.000242323,-0.00176348,0.0975143,0.00110378,0.00993147,1581,1695,7.78248,-24.0276
364,-671,7.75818,23.7767,-0.000411708,-0.00293626,0.000354144,-0.00036297,-0.002985,0.136764,0.00188072,0.0120444,1588,1695,7.75819,-23.7767
371,-671,7.74268,23.5428,-0.000532665,-0.00422108,0.000514683,-0.000462193,-0.00429156,0.136078,0.0027201,0.014294,1595,1695,7.74273,-23.5428
378,-671,7.75732,23.2911,-0.000582188,-0.00566968,0.000693248,-0.000489415,-0.00576246,0.133034,0.00368934,0.0128597,1602,1695,7.7573,-23.2912
385,-671,7.75183,23.0306,-0.000525522,-0.00703547,0.000843911,-0.000417902,-0.00714309,0.126841,0.00462905,0.0152587,1609,1695,7.75187,-23.0306
392,-671,7.71619,22.8007,-0.000666249,-0.00859349,0.000972361,-0.000548722,-0.00871102,0.120285,0.00563336,0.0211646,1616,1695,7.71614,-22.8006
399,-671,7.68896,22.5039,-0.0009731,-0.0102411,0.00127777,-0.000800162,-0.0104141,0.134526,0.00669196,0.0209562,1623,1695,7.68899,-22.5039
406,-671,7.75281,22.1965,-0.00116078,-0.0118287,0.00188126,-0.000838742,-0.0121507,0.169537,0.00783589,0.0353419,1630,1695,7.75276,-22.1965
413,-671,7.70142,22.115,-0.00120563,-0.0133164,0.00239636,-0.000748705,-0.0137734,0.188414,0.00894313,0.0482141,1637,1695,7.7014,-22.115
420,-671,7.71521,22.0416,0,0,0,0,0,0,0,-1,1644,1695,7.71526,-22.0417
427,-671,9.31738,21.7188,0,0,0,0,0,0,0,-1,1651,1695,9.31735,-21.7187
434,-671,8.91455,21.1495,0,0,0,0,0,0,0,-1,1658,1695,8.91457,-21.1496
441,-671,8.34961,20.6522,0,0,0,0,0,0,0,-1,1665,1695,8.34964,-20.6522
448,-671,7.44873,20.2306,0,0,0,0,0,0,0,-1,1672,1695,7.44872,-20.2306
455,-671,6.62805,19.8612,0,0,0,0,0,0,0,-1,1679,1695,6.62811,-19.8612
462,-671,5.86255,4.47961,0,0,0,0,0,0,0,-1,1686,1695,5.8625,-4.4796
469,-671,3.71301,3.76978,0,0,0,0,0,0,0,-1,1693,1695,3.71297,-3.76974
476,-671,3.75574,3.18848,0,0,0,0,0,0,0,-1,1700,1695,3.7558,-3.18847
483,-671,7.81824,12.1041,0,0,0,0,0,0,0,-1,1707,1695,7.81826,-12.1041
490,-671,0,0,0,0,0,0,0,0,0,-1,1714,1695,0,0
497,-671,0,0,0,0,0,0,0,0,0,-1,1721,1695,0,0
504,-671,0,0,0,0,0,0,0,0,0,-1,1728,1695,0,0
511,-671,0,0,0,0,0,0,0,0,0,-1,1735,1695,0,0
518,-671,0,0,0,0,0,0,0,0,0,-1,1742,1695,0,0
525,-671,0,0,0,0,0,0,0,0,0,-1,1749,1695,0,0
532,-671,0,0,0,0,0,0,0,0,0,-1,1756,1695,0,0
539,-671,0,0,0,0,0,0,0,0,0,-1,1763,1695,0,0
546,-671,0,0,0,0,0,0,0,0,0,-1,1770,1695,0,0
553,-671,0,0,0,0,0,0,0,0,0,-1,1777,1695,0,0
560,-671,0,0,0,0,0,0,0,0,0,-1,1784,1695,0,0
567,-671,0,0,0,0,0,0,0,0,0,-1,1791,1695,0,0
574,-671,0,0,0,0,0,0,0,0,0,-1,1798,1695,0,0
581,-671,0,0,0,0,0,0,0,0,0,-1,1805,1695,0,0
588,-671,0,0,0,0,0,0,0,0,0,-1,1812,1695,0,0
595,-671,0,0,0,0,0,0,0,0,0,-1,1819,1695,0,0
602,-671,0,0,0,0,0,0,0,0,0,-1,1826,1695,0,0
609,-671,0,0,0,0,0,0,0,0,0,-1,1833,1695,0,0
616,-671,0,0,0,0,0,0,0,0,0,-1,1840,1695,0,0
623,-671,0,0,0,0,0,0,0,0,0,-1,1847,1695,0,0
630,-671,0,0,0,0,0,0,0,0,0,-1,1854,1695,0,0
637,-671,0,0,0,0,0,0,0,0,0,-1,1861,1695,0,0
644,-671,0,0,0,0,0,0,0,0,0,-1,1868,1695,0,0
651,-671,0,0,0,0,0,0,0,0,0,-1,1875,1695,0,0
658,-671,0,0,0,0,0,0,0,0,0,-1,1882,1695,0,0
665,-671,0,0,0,0,0,0,0,0,0,-1,1889,1695,0,0
672,-671,0,0,0,0,0,0,0,0,0,-1,1896,1695,0,0
679,-671,0,0,0,0,0,0,0,0,0,-1,1903,1695,0,0
686,-671,0,0,0,0,0,0,0,0,0,-1,1910,1695,0,0
693,-671,0,0,0,0,0,0,0,0,0,-1,1917,1695,0,0
700,-671,0,0,0,0,0,0,0,0,0,-1,1924,1695,0,0
707,-671,0,0,0,0,0,0,0,0,0,-1,1931,1695,0,0
714,-671,0,0,0,0,0,0,0,0,0,-1,1938,1695,0,0
721,-671,0,0,0,0,0,0,0,0,0,-1,1945,1695,0,0
728,-671,0,0,0,0,0,0,0,0,0,-1,1952,1695,0,0
735,-671,0,0,0,0,0,0,0,0,0,-1,1959,1695,0,0
742,-671,0,0,0,0,0,0,0,0,0,-1,1966,1695,0,0
749,-671,0,0,0,0,0,0,0,0,0,-1,1973,1695,0,0
756,-671,0,0,0,0,0,0,0,0,0,-1,1980,1695,0,0
763,-671,0,0,0,0,0,0,0,0,0,-1,1987,1695,0,0
770,-671,0,0,0,0,0,0,0,0,0,-1,1994,1695,0,0
777,-671,0,0,0,0,0,0,0,0,0,-1,2001,1695,0,0
784,-671,0,0,0,0,0,0,0,0,0,-1,2008,1695,0,0
791,-671,0,0,0,0,0,0,0,0,0,-1,2015,1695,0,0
798,-671,0,0,0,0,0,0,0,0,0,-1,2022,1695,0,0
805,-671,0,0,0,0,0,0,0,0,0,-1,2029,1695,0,0
812,-671,0,0,0,0,0,0,0,0,0,-1,2036,1695,0,0
-700,-678,0,0,0,0,0,0,0,0,0,-1,524,1702,0,0
-693,-678,0,0,0,0,0,0,0,0,0,-1,531,1702,0,0
-686,-678,0,0,0,0,0,0,0,0,0,-1,538,1702,0,0
-679,-678,0,0,0,0,0,0,0,0,0,-1,545,1702,0,0
-672,-678,0,0,0,0,0,0,0,0,0,-1,552,1702,0,0
-665,-678,0,0,0,0,0,0,0,0,0,-1,559,1702,0,0
-658,-678,0,0,0,0,0,0,0,0,0,-1,566,1702,0,0
-651,-678,0,0,0,0,0,0,0,0,0,-1,573,1702,0,0
-644,-678,0,0,0,0,0,0,0,0,0,-1,580,1702,0,0
-637,-678,0,0,0,0,0,0,0,0,0,-1,587,1702,0,0
-630,-678,0,0,0,0,0,0,0,0,0,-1,594,1702,0,0
-623,-678,0,0,0,0,0,0,0,0,0,-1,601,1702,0,0
-616,-678,0,0,0,0,0,0,0,0,0,-1,608,1702,0,0
-609,-678,0,0,0,0,0,0,0,0,0,-1,615,1702,0,0
-602,-678,0,0,0,0,0,0,0,0,0,-1,622,1702,0,0
-595,-678,0,0,0,0,0,0,0,0,0,-1,629,1702,0,0
-588,-678,0,0,0,0,0,0,0,0,0,-1,636,1702,0,0
-581,-678,0,0,0,0,0,0,0,0,0,-1,643,1702,0,0
-574,-678,0,0,0,0,0,0,0,0,0,-1,650,1702,0,0
-567,-678,0,0,0,0,0,0,0,0,0,-1,657,1702,0,0
-560,-678,0,0,0,0,0,0,0,0,0,-1,664,1702,0,0
-553,-678,0,0,0,0,0,0,0,0,0,-1,671,1702,0,0
-546,-678,0,0,0,0,0,0,0,0,0,-1,678,1702,0,0
-539,-678,0,0,0,0,0,0,0,0,0,-1,685,1702,0,0
-532,-678,0,0,0,0,0,0,0,0,0,-1,692,1702,0,0
-525,-678,0,0,0,0,0,0,0,0,0,-1,699,1702,0,0
-518,-678,0,0,0,0,0,0,0,0,0,-1,706,1702,0,0
-511,-678,0,0,0,0,0,0,0,0,0,-1,713,1702,0,0
-504,-678,0,0,0,0,0,0,0,0,0,-1,720,1702,0,0
-497,-678,0,0,0,0,0,0,0,0,0,-1,727,1702,0,0
-490,-678,0,0,0,0,0,0,0,0,0,-1,734,1702,0,0
-483,-678,0,0,0,0,0,0,0,0,0,-1,741,1702,0,0
-476,-678,0,0,0,0,0,0,0,0,0,-1,748,1702,0,0
-469,-678,0,0,0,0,0,0,0,0,0,-1,755,1702,0,0
-462,-678,0,0,0,0,0,0,0,0,0,-1,762,1702,0,0
-455,-678,0,0,0,0,0,0,0,0,0,-1,769,1702,0,0
-448,-678,0,0,0,0,0,0,0,0,0,-1,776,1702,0,0
-441,-678,0,0,0,0,0,0,0,0,0,-1,783,1702,0,0
-434,-678,0,0,0,0,0,0,0,0,0,-1,790,1702,0,0
-427,-678,0,0,0,0,0,0,0,0,0,-1,797,1702,0,0
-420,-678,0,0,0,0,0,0,0,0,0,-1,804,1702,0,0
-413,-678,0,0,0,0,0,0,0,0,0,-1,811,1702,0,0
-406,-678,0,0,0,0,0,0,0,0,0,-1,818,1702,0,0
-399,-678,0,0,0,0,0,0,0,0,0,-1,825,1702,0,0
-392,-678,0,0,0,0,0,0,0,0,0,-1,832,1702,0,0
-385,-678,0,0,0,0,0,0,0,0,0,-1,839,1702,0,0
-378,-678,0,0,0,0,0,0,0,0,0,-1,846,1702,0,0
-371,-678,0,0,0,0,0,0,0,0,0,-1,853,1702,0,0
-364,-678,0,0,0,0,0,0,0,0,0,-1,860,1702,0,0
-357,-678,0,0,0,0,0,0,0,0,0,-1,867,1702,0,0
-350,-678,-5.79944,6.11865,0,0,0,0,0,0,0,-1,874,1702,-5.79942,-6.11864
-343,-678,-6.44891,4.52759,0,0,0,0,0,0,0,-1,881,1702,-6.4489,-4.52758
-336,-678,-6.91888,2.99438,0,0,0,0,0,0,0,-1,888,1702,-6.9189,-2.99435
-329,-678,-7.14575,1.29761,0,0,0,0,0,0,0,-1,895,1702,-7.14577,-1.29755
-322,-678,3.78455,20.3917,0,0,0,0,0,0,0,-1,902,1702,3.78457,-20.3917
-315,-678,5.64337,19.1178,0,0,0,0,0,0,0,-1,909,1702,5.64339,-19.1178
-308,-678,5.09766,19.599,0,0,0,0,0,0,0,-1,916,1702,5.09766,-19.5991
-301,-678,5.29895,22.3046,0,0,0,0,0,0,0,-1,923,1702,5.29895,-22.3045
-294,-678,5.73743,22.0919,0,0,0,0,0,0,0,-1,930,1702,5.73743,-22.0919
-287,-678,5.92102,21.8577,0.00561977,0.00400586,0.0116621,0.0165028,-0.00687713,0.750856,0.0138745,0.0467447,937,1702,5.92103,-21.8577
-280,-678,5.90594,21.4594,0.00209205,0.00116951,0.0082114,0.00985512,-0.00659356,0.75734,0.00955868,0.0492936,944,1702,5.90594,-21.4594
-273,-678,5.70221,21.5267,0.0002751,-0.000742626,0.00559906,0.00538837,-0.0058559,0.740081,0.00649375,0.0464264,951,1702,5.70219,-21.5267
-266,-678,5.53925,21.8027,-0.00131134,-0.00218732,0.00327352,0.00155336,-0.00505202,0.718895,0.00398795,0.037429,958,1702,5.53923,-21.8027
-259,-678,5.35944,22.1777,-0.00182267,-0.00294372,0.00176537,-0.000530975,-0.00423542,0.631676,0.00266432,0.0242698,965,1702,5.35942,-22.1777
-252,-678,5.39728,22.3768,-0.00165757,-0.00323656,0.000957779,-0.00120584,-0.00368829,0.440707,0.00217154,0.0192734,972,1702,5.39727,-22.3768
-245,-678,5.44171,22.6389,-0.00118383,-0.00295927,0.000608304,-0.000995407,-0.00314769,0.300376,0.00185779,0.0186301,979,1702,5.44169,-22.6389
-238,-678,5.4339,22.9121,-0.000923544,-0.00267722,0.000360122,-0.000852473,-0.00274829,0.194851,0.00162439,0.0153276,986,1702,5.43391,-22.9122
-231,-678,5.39661,23.1986,-0.000622001,-0.00174572,0.000446093,-0.000466445,-0.00190128,0.335522,0.00114418,0.0135956,993,1702,5.39663,-23.1986
-224,-678,5.36517,23.4604,-0.000336024,-0.00227485,0.000170595,-0.000321128,-0.00228974,0.087097,0.00143151,0.01298,1000,1702,5.36515,-23.4605
-217,-678,5.37152,23.7273,-0.000126315,-0.00183913,6.24736e-05,-0.000124039,-0.0018414,0.0364099,0.00118841,0.0132171,1007,1702,5.37154,-23.7273
-210,-678,5.36896,24.0011,0.000132706,-0.00137118,0.000128042,0.000143529,-0.001382,0.0843316,0.000972715,0.0138641,1014,1702,5.36895,-24.001
-203,-678,5.34131,24.1989,0.000305946,-0.000991185,0.000219781,0.000342173,-0.00102741,0.163364,0.00082306,0.0185313,1021,1702,5.34131,-24.1988
-196,-678,5.3363,24.442,0.000342662,-0.000660903,0.000390933,0.000476972,-0.000795214,0.33093,0.000742117,0.0181235,1028,1702,5.33626,-24.442
-189,-678,5.34766,24.7117,0.000520767,-0.00045354,0.000588964,0.000797941,-0.000730714,0.439863,0.000882854,0.0108122,1035,1702,5.34764,-24.7117
-182,-678,5.33459,24.951,0.000970746,-0.000278427,0.000646221,0.00124489,-0.000552567,0.40121,0.00106311,0.0103361,1042,1702,5.3346,-24.9511
-175,-678,5.33386,25.192,0.00170694,-8.31117e-05,0.0007166,0.00195846,-0.000334641,0.337568,0.0014303,0.0110685,1049,1702,5.33385,-25.192
-168,-678,5.3385,25.4165,0.00223433,0.000181346,0.000766201,0.00248876,-7.30787e-05,0.320605,0.00168406,0.0108459,1056,1702,5.33855,-25.4165
-161,-678,5.33813,25.614,0.00277573,0.000392666,0.000797546,0.00301801,0.000150383,0.294927,0.0019638,0.00922547,1063,1702,5.33815,-25.614
-154,-678,5.34241,25.8029,0.00340387,0.000664896,0.000748437,0.00359504,0.000473725,0.250079,0.00225543,0.0084653,1070,1702,5.34244,-25.8028
-147,-678,5.35535,26.0115,0.00406553,0.000920041,0.000630884,0.00418735,0.000798224,0.190743,0.00256719,0.0104854,1077,1702,5.35529,-26.0115
-140,-678,5.38293,26.2305,0.0047123,0.00117622,0.000528734,0.00478967,0.00109885,0.145293,0.00289715,0.011297,1084,1702,5.38295,-26.2305
-133,-678,5.39453,26.4255,0.00533926,0.00139088,0.000414743,0.00538235,0.00134778,0.103536,0.00323398,0.0118732,1091,1702,5.39451,-26.4256
-126,-678,5.41272,26.6134,0.00597213,0.00171223,0.000316777,0.00599555,0.00168881,0.0738215,0.00356984,0.0104227,1098,1702,5.41275,-26.6134
-119,-678,5.47595,26.9204,0.00661009,0.00192829,0.000235534,0.00662191,0.00191647,0.0501398,0.00393457,0.024724,1105,1702,5.47593,-26.9204
-112,-678,5.48608,27.1451,0.00701918,0.00215279,6.83017e-05,0.00702014,0.00215183,0.0140317,0.004153,0.0376374,1112,1702,5.48613,-27.1452
-105,-678,5.5155,27.2903,0.00725788,0.00248263,1.03068e-05,0.00725791,0.00248261,0.00215836,0.00425947,0.0387188,1119,1702,5.5155,-27.2903
-98,-678,5.48328,27.297,0.00766323,0.0032118,0.000236268,0.00767574,0.0031993,0.0528789,0.00445199,0.0228009,1126,1702,5.48332,-27.297
-91,-678,5.53516,27.4221,0.00771209,0.00364461,0.000257272,0.0077283,0.0036284,0.0629168,0.0044647,0.0249308,1133,1702,5.53511,-27.4221
-84,-678,5.56775,27.6812,0,0,0,0,0,0,0,-1,1140,1702,5.56778,-27.6812
-77,-678,5.87341,28.2317,0,0,0,0,0,0,0,-1,1147,1702,5.87344,-28.2316
-70,-678,4.75891,19.6552,0,0,0,0,0,0,0,-1,1154,1702,4.75895,-19.6551
-63,-678,3.41687,11.0365,0,0,0,0,0,0,0,-1,1161,1702,3.41682,-11.0365
-56,-678,1.72388,6.13159,0,0,0,0,0,0,0,-1,1168,1702,1.72388,-6.13157
-49,-678,-0.241699,5.29895,0,0,0,0,0,0,0,-1,1175,1702,-0.241682,-5.29897
-42,-678,0.297119,3.90649,0,0,0,0,0,0,0,-1,1182,1702,0.297139,-3.90655
-35,-678,0.498413,3.64038,0,0,0,0,0,0,0,-1,1189,1702,0.498471,-3.64038
-28,-678,0.132446,3.55994,0,0,0,0,0,0,0,-1,1196,1702,0.132432,-3.55993
-21,-678,6.06628,28.5101,0,0,0,0,0,0,0,-1,1203,1702,6.06622,-28.5102
-14,-678,6.09875,28.684,0,0,0,0,0,0,0,-1,1210,1702,6.09875,-28.684
-7,-678,6.13123,28.8578,0,0,0,0,0,0,0,-1,1217,1702,6.13127,-28.8578
0,-678,6.44092,29.0941,0,0,0,0,0,0,0,-1,1224,1702,6.44089,-29.0942
7,-678,6.29468,29.6101,0,0,0,0,0,0,0,-1,1231,1702,6.29467,-29.6101
14,-678,6.06006,29.5873,0.0307352,0.0745305,-0.0768334,0.132526,-0.02726,-0.924218,0.0987001,0.0467634,1238,1702,6.06009,-29.5873
21,-678,6.77502,29.8378,0.0276249,0.0687148,-0.0745992,0.125546,-0.0292067,-0.919769,0.0949426,0.0440077,1245,1702,6.77499,-29.8377
28,-678,6.66516,29.5984,0.0238264,0.0625496,-0.0730171,0.118728,-0.0323525,-0.914998,0.0918557,0.0449071,1252,1702,6.66517,-29.5984
35,-678,6.69653,29.481,0.0195361,0.0561431,-0.0714918,0.111637,-0.035958,-0.910717,0.0888697,0.0442795,1259,1702,6.69657,-29.481
42,-678,6.77209,29.1697,0.0153302,0.050595,-0.0697515,0.104908,-0.038983,-0.909199,0.0859329,0.0449337,1266,1702,6.77206,-29.1696
49,-678,6.91736,28.8207,0,0,0,0,0,0,0,-1,1273,1702,6.91733,-28.8207
56,-678,7.0769,28.4915,0,0,0,0,0,0,0,-1,1280,1702,7.07692,-28.4915
63,-678,7.32751,28.6594,0.0208829,0.0394489,-0.0587789,0.0896733,-0.0293416,-0.863717,0.0715958,0.0459465,1287,1702,7.32754,-28.6594
70,-678,4.88733,28.8575,0,0,0,0,0,0,0,-1,1294,1702,4.88738,-28.8575
77,-678,5.12976,29.1997,0.0558197,0.0458335,-0.0574914,0.108534,-0.00688116,-0.742082,0.0747556,0.0428112,1301,1702,5.12977,-29.1997
84,-678,5.36963,29.5314,0,0,0,0,0,0,0,-1,1308,1702,5.36964,-29.5314
91,-678,5.94446,29.9659,0.0887904,0.0523237,-0.053303,0.126892,0.0142218,-0.620602,0.0802754,0.0432498,1315,1702,5.94446,-29.966
98,-678,6.3739,30.064,0.109701,0.0578162,-0.0514377,0.141368,0.0261491,-0.55184,0.0868511,0.0436055,1322,1702,6.37395,-30.0639
105,-678,6.76636,30.0115,0.131721,0.0634965,-0.0497891,0.157963,0.0372548,-0.485058,0.0953479,0.0437123,1329,1702,6.76639,-30.0115
112,-678,7.36597,29.9146,0,0,0,0,0,0,0,-1,1336,1702,7.36591,-29.9146
119,-678,6.6106,28.338,0,0,0,0,0,0,0,-1,1343,1702,6.61057,-28.3381
126,-678,6.60352,28.0248,0.168325,0.0764486,-0.0500012,0.190287,0.0544865,-0.413862,0.113156,0.0458589,1350,1702,6.60352,-28.0248
133,-678,6.495,28.4196,0.166716,0.0781016,-0.050003,0.189218,0.0556,-0.422858,0.112298,0.0480477,1357,1702,6.49494,-28.4195
140,-678,6.48828,28.4578,0.160335,0.0793725,-0.0498413,0.184064,0.0556441,-0.444328,0.109003,0.0457809,1364,1702,6.4883,-28.4578
147,-678,7.02563,29.3772,0,0,0,0,0,0,0,-1,1371,1702,7.02559,-29.3772
154,-678,8.50293,28.7904,0,0,0,0,0,0,0,-1,1378,1702,8.50289,-28.7904
161,-678,7.77563,27.5094,0,0,0,0,0,0,0,-1,1385,1702,7.77565,-27.5094
168,-678,4.21863,5.25781,0,0,0,0,0,0,0,-1,1392,1702,4.21865,-5.25781
175,-678,5.21899,5.9635,0,0,0,0,0,0,0,-1,1399,1702,5.21894,-5.96346
182,-678,7.31262,6.75122,0,0,0,0,0,0,0,-1,1406,1702,7.3126,-6.75123
189,-678,5.96021,6.36853,0,0,0,0,0,0,0,-1,1413,1702,5.96018,-6.36851
196,-678,5.01599,8.15771,0,0,0,0,0,0,0,-1,1420,1702,5.01596,-8.15767
203,-678,4.64771,13.0559,0,0,0,0,0,0,0,-1,1427,1702,4.64766,-13.0559
210,-678,5.6532,18.5957,0,0,0,0,0,0,0,-1,1434,1702,5.65318,-18.5958
217,-678,6.88049,23.4835,0,0,0,0,0,0,0,-1,1441,1702,6.88047,-23.4835
224,-678,7.55127,27.8888,0,0,0,0,0,0,0,-1,1448,1702,7.55123,-27.8888
231,-678,7.35938,27.5409,0,0,0,0,0,0,0,-1,1455,1702,7.35936,-27.5409
238,-678,7.46484,27.3738,0,0,0,0,0,0,0,-1,1462,1702,7.46485,-27.3737
245,-678,7.48926,27.2291,0,0,0,0,0,0,0,-1,1469,1702,7.48925,-27.2292
252,-678,7.51184,27.0472,0.00184875,-0.000107262,0.00061079,0.00202381,-0.000282322,0.279129,0.00145249,0.0302216,1476,1702,7.51186,-27.0473
259,-678,7.50781,26.9263,0.00208771,-7.08342e-06,0.000412705,0.00216608,-8.54601e-05,0.187675,0.00147337,0.0161124,1483,1702,7.50783,-26.9263
266,-678,7.53687,26.7499,0.00230046,0.000172811,0.000166125,0.00231335,0.000159918,0.0774538,0.00149179,0.0108815,1490,1702,7.53681,-26.7499
273,-678,7.5542,26.5852,0.00239661,0.000248846,3.33092e-07,0.00239661,0.000248846,0.000155088,0.00152159,0.0108119,1497,1702,7.55423,-26.5852
280,-678,7.54163,26.4167,0.00245948,0.0004399,-0.000189317,0.00247707,0.000422306,-0.092665,0.00153016,0.0113458,1504,1702,7.5416,-26.4167
287,-678,7.55457,26.1914,0.00230397,0.000713726,-0.000272545,0.00234938,0.000668312,-0.165111,0.00139779,0.0110204,1511,1702,7.55462,-26.1914
294,-678,7.56787,25.9731,0.0020531,0.000880838,-0.000378866,0.00216489,0.000769052,-0.286915,0.00126724,0.0113922,1518,1702,7.56792,-25.9732
301,-678,7.54956,25.7952,0.00173623,0.000975277,-0.000483884,0.00197131,0.000740201,-0.452232,0.00114984,0.0116552,1525,1702,7.54961,-25.7952
308,-678,7.53442,25.6085,0.00135657,0.000968549,-0.000552427,0.00174806,0.000577055,-0.616527,0.00102848,0.0137756,1532,1702,7.53438,-25.6086
315,-678,7.55566,25.3953,0.00096881,0.000856594,-0.000549453,0.00146501,0.000360392,-0.734516,0.000881454,0.0154645,1539,1702,7.55571,-25.3953
322,-678,7.55164,25.2128,0.000581399,0.000737302,-0.00055122,0.00121605,0.000102647,-0.85564,0.000778746,0.0179142,1546,1702,7.55159,-25.2127
329,-678,7.51685,25.0022,0.000184858,0.000492141,-0.000483693,0.000846008,-0.000169008,-0.93918,0.000627969,0.0152833,1553,1702,7.51682,-25.0022
336,-678,7.52905,24.7662,-0.000104184,6.24006e-05,-0.000326663,0.000316223,-0.000358006,-0.910228,0.000389515,0.0125541,1560,1702,7.52903,-24.7663
343,-678,7.53418,24.5319,-0.000390483,-0.000630485,-0.000205945,-0.000272128,-0.00074884,-0.521602,0.000437688,0.0119263,1567,1702,7.53417,-24.5318
350,-678,7.54993,24.2881,-0.000682844,-0.00151019,-0.000114427,-0.000667309,-0.00152572,-0.134933,0.000883175,0.0110699,1574,1702,7.54989,-24.2881
357,-678,7.54773,24.0382,-0.000881878,-0.00283488,0.000186669,-0.000864197,-0.00285256,0.0944411,0.00168902,0.00852683,1581,1702,7.54776,-24.0383
364,-678,7.50916,23.8068,-0.000985547,-0.00423602,0.000480185,-0.000916094,-0.00430547,0.143641,0.00261891,0.0112289,1588,1702,7.5091,-23.8067
371,-678,7.47961,23.5642,-0.00103746,-0.00578336,0.000715926,-0.000931816,-0.005889,0.146509,0.0036552,0.012711,1595,1702,7.4796,-23.5643
378,-678,7.50061,23.2766,-0.00103208,-0.00761697,0.000992482,-0.000885748,-0.00776331,0.14639,0.00490701,0.0142613,1602,1702,7.50061,-23.2766
385,-678,7.5177,23.0466,-0.000917851,-0.00935262,0.00125172,-0.000736015,-0.00953446,0.144259,0.00612572,0.0179474,1609,1702,7.51766,-23.0466
392,-678,7.51611,22.9095,-0.00101433,-0.0113592,0.00148376,-0.000805721,-0.0115678,0.139679,0.00745784,0.0337792,1616,1702,7.5161,-22.9096
399,-678,7.43604,22.8422,-0.00128011,-0.0136482,0.0019174,-0.000989675,-0.0139386,0.150329,0.0089807,0.0445745,1623,1702,7.43608,-22.8421
406,-678,7.30139,22.7574,-0.00141136,-0.0159158,0.00268568,-0.000930041,-0.0163971,0.177333,0.0106349,0.0480225,1630,1702,7.30134,-22.7575
413,-678,7.26599,22.4391,0,0,0,0,0,0,0,-1,1637,1702,7.26605,-22.4391
420,-678,6.60071,17.4585,0,0,0,0,0,0,0,-1,1644,1702,6.60066,-17.4585
427,-678,4.57483,10.1555,0,0,0,0,0,0,0,-1,1651,1702,4.57485,-10.1555
434,-678,9.48169,21.6665,0,0,0,0,0,0,0,-1,1658,1702,9.48169,-21.6665
441,-678,8.64539,21.1864,0,0,0,0,0,0,0,-1,1665,1702,8.64536,-21.1865
448,-678,7.62244,20.7195,0,0,0,0,0,0,0,-1,1672,1702,7.6224,-20.7195
455,-678,5.44678,5.54297,0,0,0,0,0,0,0,-1,1679,1702,5.44676,-5.54294
462,-678,3.86792,2.87402,0,0,0,0,0,0,0,-1,1686,1702,3.86796,-2.87406
469,-678,2.26587,1.98755,0,0,0,0,0,0,0,-1,1693,1702,2.26592,-1.98755
476,-678,0,0,0,0,0,0,0,0,0,-1,1700,1702,0,0
483,-678,0,0,0,0,0,0,0,0,0,-1,1707,1702,0,0
490,-678,0,0,0,0,0,0,0,0,0,-1,1714,1702,0,0
497,-678,0,0,0,0,0,0,0,0,0,-1,1721,1702,0,0
504,-678,0,0,0,0,0,0,0,0,0,-1,1728,1702,0,0
511,-678,0,0,0,0,0,0,0,0,0,-1,1735,1702,0,0
518,-678,0,0,0,0,0,0,0,0,0,-1,1742,1702,0,0
525,-678,0,0,0,0,0,0,0,0,0,-1,1749,1702,0,0
532,-678,0,0,0,0,0,0,0,0,0,-1,1756,1702,0,0
539,-678,0,0,0,0,0,0,0,0,0,-1,1763,1702,0,0
546,-678,0,0,0,0,0,0,0,0,0,-1,1770,1702,0,0
553,-678,0,0,0,0,0,0,0,0,0,-1,1777,1702,0,0
560,-678,0,0,0,0,0,0,0,0,0,-1,1784,1702,0,0
567,-678,0,0,0,0,0,0,0,0,0,-1,1791,1702,0,0
574,-678,0,0,0,0,0,0,0,0,0,-1,1798,1702,0,0
581,-678,0,0,0,0,0,0,0,0,0,-1,1805,1702,0,0
588,-678,0,0,0,0,0,0,0,0,0,-1,1812,1702,0,0
595,-678,0,0,0,0,0,0,0,0,0,-1,1819,1702,0,0
602,-678,0,0,0,0,0,0,0,0,0,-1,1826,1702,0,0
609,-678,0,0,0,0,0,0,0,0,0,-1,1833,1702,0,0
616,-678,0,0,0,0,0,0,0,0,0,-1,1840,1702,0,0
623,-678,0,0,0,0,0,0,0,0,0,-1,1847,1702,0,0
630,-678,0,0,0,0,0,0,0,0,0,-1,1854,1702,0,0
637,-678,0,0,0,0,0,0,0,0,0,-1,1861,1702,0,0
644,-678,0,0,0,0,0,0,0,0,0,-1,1868,1702,0,0
651,-678,0,0,0,0,0,0,0,0,0,-1,1875,1702,0,0
658,-678,0,0,0,0,0,0,0,0,0,-1,1882,1702,0,0
665,-678,0,0,0,0,0,0,0,0,0,-1,1889,1702,0,0
672,-678,0,0,0,0,0,0,0,0,0,-1,1896,1702,0,0
679,-678,0,0,0,0,0,0,0,0,0,-1,1903,1702,0,0
686,-678,0,0,0,0,0,0,0,0,0,-1,1910,1702,0,0
693,-678,0,0,0,0,0,0,0,0,0,-1,1917,1702,0,0
700,-678,0,0,0,0,0,0,0,0,0,-1,1924,1702,0,0
707,-678,0,0,0,0,0,0,0,0,0,-1,1931,1702,0,0
714,-678,0,0,0,0,0,0,0,0,0,-1,1938,1702,0,0
721,-678,0,0,0,0,0,0,0,0,0,-1,1945,1702,0,0
728,-678,0,0,0,0,0,0,0,0,0,-1,1952,1702,0,0
735,-678,0,0,0,0,0,0,0,0,0,-1,1959,1702,0,0
742,-678,0,0,0,0,0,0,0,0,0,-1,1966,1702,0,0
749,-678,0,0,0,0,0,0,0,0,0,-1,1973,1702,0,0
756,-678,0,0,0,0,0,0,0,0,0,-1,1980,1702,0,0
763,-678,0,0,0,0,0,0,0,0,0,-1,1987,1702,0,0
770,-678,0,0,0,0,0,0,0,0,0,-1,1994,1702,0,0
777,-678,0,0,0,0,0,0,0,0,0,-1,2001,1702,0,0
784,-678,0,0,0,0,0,0,0,0,0,-1,2008,1702,0,0
791,-678,0,0,0,0,0,0,0,0,0,-1,2015,1702,0,0
798,-678,0,0,0,0,0,0,0,0,0,-1,2022,1702,0,0
805,-678,0,0,0,0,0,0,0,0,0,-1,2029,1702,0,0
812,-678,0,0,0,0,0,0,0,0,0,-1,2036,1702,0,0
-700,-685,0,0,0,0,0,0,0,0,0,-1,524,1709,0,0
-693,-685,0,0,0,0,0,0,0,0,0,-1,531,1709,0,0
-686,-685,0,0,0,0,0,0,0,0,0,-1,538,1709,0,0
-679,-685,0,0,0,0,0,0,0,0,0,-1,545,1709,0,0
-672,-685,0,0,0,0,0,0,0,0,0,-1,552,1709,0,0
-665,-685,0,0,0,0,0,0,0,0,0,-1,559,1709,0,0
-658,-685,0,0,0,0,0,0,0,0,0,-1,566,1709,0,0
-651,-685,0,0,0,0,0,0,0,0,0,-1,573,1709,0,0
-644,-685,0,0,0,0,0,0,0,0,0,-1,580,1709,0,0
-637,-685,0,0,0,0,0,0,0,0,0,-1,587,1709,0,0
-630,-685,0,0,0,0,0,0,0,0,0,-1,594,1709,0,0
-623,-685,0,0,0,0,0,0,0,0,0,-1,601,1709,0,0
-616,-685,0,0,0,0,0,0,0,0,0,-1,608,1709,0,0
-609,-685,0,0,0,0,0,0,0,0,0,-1,615,1709,0,0
-602,-685,0,0,0,0,0,0,0,0,0,-1,622,1709,0,0
-595,-685,0,0,0,0,0,0,0,0,0,-1,629,1709,0,0
-588,-685,0,0,0,0,0,0,0,0,0,-1,636,1709,0,0
-581,-685,0,0,0,0,0,0,0,0,0,-1,643,1709,0,0
-574,-685,0,0,0,0,0,0,0,0,0,-1,650,1709,0,0
-567,-685,0,0,0,0,0,0,0,0,0,-1,657,1709,0,0
-560,-685,0,0,0,0,0,0,0,0,0,-1,664,1709,0,0
-553,-685,0,0,0,0,0,0,0,0,0,-1,671,1709,0,0
-546,-685,0,0,0,0,0,0,0,0,0,-1,678,1709,0,0
-539,-685,0,0,0,0,0,0,0,0,0,-1,685,1709,0,0
-532,-685,0,0,0,0,0,0,0,0,0,-1,692,1709,0,0
-525,-685,0,0,0,0,0,0,0,0,0,-1,699,1709,0,0
-518,-685,0,0,0,0,0,0,0,0,0,-1,706,1709,0,0
-511,-685,0,0,0,0,0,0,0,0,0,-1,713,1709,0,0
-504,-685,0,0,0,0,0,0,0,0,0,-1,720,1709,0,0
-497,-685,0,0,0,0,0,0,0,0,0,-1,727,1709,0,0
-490,-685,0,0,0,0,0,0,0,0,0,-1,734,1709,0,0
-483,-685,0,0,0,0,0,0,0,0,0,-1,741,1709,0,0
-476,-685,0,0,0,0,0,0,0,0,0,-1,748,1709,0,0
-469,-685,0,0,0,0,0,0,0,0,0,-1,755,1709,0,0
-462,-685,0,0,0,0,0,0,0,0,0,-1,762,1709,0,0
-455,-685,0,0,0,0,0,0,0,0,0,-1,769,1709,0,0
-448,-685,0,0,0,0,0,0,0,0,0,-1,776,1709,0,0
-441,-685,0,0,0,0,0,0,0,0,0,-1,783,1709,0,0
-434,-685,0,0,0,0,0,0,0,0,0,-1,790,1709,0,0
-427,-685,0,0,0,0,0,0,0,0,0,-1,797,1709,0,0
-420,-685,0,0,0,0,0,0,0,0,0,-1,804,1709,0,0
-413,-685,0,0,0,0,0,0,0,0,0,-1,811,1709,0,0
-406,-685,0,0,0,0,0,0,0,0,0,-1,818,1709,0,0
-399,-685,0,0,0,0,0,0,0,0,0,-1,825,1709,0,0
-392,-685,0,0,0,0,0,0,0,0,0,-1,832,1709,0,0
-385,-685,0,0,0,0,0,0,0,0,0,-1,839,1709,0,0
-378,-685,0,0,0,0,0,0,0,0,0,-1,846,1709,0,0
-371,-685,0,0,0,0,0,0,0,0,0,-1,853,1709,0,0
-364,-685,0,0,0,0,0,0,0,0,0,-1,860,1709,0,0
-357,-685,0,0,0,0,0,0,0,0,0,-1,867,1709,0,0
-350,-685,0,0,0,0,0,0,0,0,0,-1,874,1709,0,0
-343,-685,-5.98505,6.56335,0,0,0,0,0,0,0,-1,881,1709,-5.98505,-6.56329
-336,-685,-6.51312,5.10571,0,0,0,0,0,0,0,-1,888,1709,-6.51311,-5.10575
-329,-685,-6.81384,3.34106,0,0,0,0,0,0,0,-1,895,1709,-6.81385,-3.341
-322,-685,3.83191,16.7219,0,0,0,0,0,0,0,-1,902,1709,3.8319,-16.7219
-315,-685,5.15784,21.4388,0,0,0,0,0,0,0,-1,909,1709,5.15783,-21.4389
-308,-685,6.36969,21.0303,0,0,0,0,0,0,0,-1,916,1709,6.36968,-21.0302
-301,-685,7.71271,20.1454,0,0,0,0,0,0,0,-1,923,1709,7.71272,-20.1454
-294,-685,5.5744,23.4772,0,0,0,0,0,0,0,-1,930,1709,5.57441,-23.4771
-287,-685,5.58563,19.9738,0,0,0,0,0,0,0,-1,937,1709,5.58566,-19.9737
-280,-685,5.78125,20.649,0.00196844,0.00128603,0.010119,0.011752,-0.00849754,0.768545,0.0117413,0.0499934,944,1709,5.78123,-20.649
-273,-685,5.75397,21.4333,0.000237743,-0.00096141,0.00696719,0.00663111,-0.00735478,0.742475,0.00807836,0.0497552,951,1709,5.75399,-21.4334
-266,-685,5.64545,21.8807,-0.00121768,-0.00255762,0.00426788,0.00243249,-0.0062078,0.707544,0.00514476,0.0459794,958,1709,5.64543,-21.8807
-259,-685,5.50165,22.3158,-0.00169615,-0.00344103,0.00241621,3.02214e-07,-0.00513749,0.612143,0.00342509,0.0441451,965,1709,5.50164,-22.3157
-252,-685,5.56366,22.5138,-0.00155746,-0.00394548,0.00137085,-0.000933538,-0.00456941,0.427119,0.00278769,0.0381282,972,1709,5.56367,-22.5138
-245,-685,5.69788,22.6982,-0.00113122,-0.00374005,0.000812995,-0.000898602,-0.00397266,0.278675,0.00240552,0.0337246,979,1709,5.69786,-22.6983
-238,-685,5.73486,22.9281,-0.00109618,-0.00349053,0.000368261,-0.00104082,-0.00354589,0.149211,0.0021046,0.0255968,986,1709,5.73484,-22.9281
-231,-685,5.66498,23.2366,-0.000933116,-0.00243776,0.000406484,-0.000830326,-0.00254055,0.247685,0.00149583,0.0170983,993,1709,5.66501,-23.2366
-224,-685,5.63116,23.4637,-0.000714568,-0.00320893,-5.79723e-06,-0.000714554,-0.00320894,-0.00232412,0.00194535,0.0151536,1000,1709,5.63116,-23.4638
-217,-685,5.61707,23.7219,-0.000634301,-0.00272446,-0.000206589,-0.000614078,-0.00274468,-0.097581,0.00166332,0.0115189,1007,1709,5.61704,-23.722
-210,-685,5.61188,24.0077,-0.000518688,-0.00219714,-0.00015758,-0.000504022,-0.0022118,-0.092804,0.00133854,0.0150643,1014,1709,5.61187,-24.0076
-203,-685,5.59839,24.2344,-0.000426606,-0.00168448,-1.65746e-05,-0.000426388,-0.0016847,-0.0131736,0.00101142,0.0153036,1021,1709,5.59842,-24.2343
-196,-685,5.59131,24.4484,-0.000468301,-0.00111604,0.000265737,-0.000373235,-0.00121111,0.34356,0.000716179,0.0122578,1028,1709,5.59135,-24.4484
-189,-685,5.57385,24.6859,-0.000265994,-0.000707087,0.000577438,0.000131582,-0.00110466,0.602978,0.000783992,0.00849389,1035,1709,5.57383,-24.6859
-182,-685,5.56995,24.9478,0.000198233,-0.000356316,0.000759926,0.00072989,-0.000887972,0.610468,0.000935558,0.0129426,1042,1709,5.57,-24.9478
-175,-685,5.56958,25.1792,0.000884157,0.000106317,0.000911842,0.00148656,-0.000496082,0.583819,0.00119134,0.0129592,1049,1709,5.56959,-25.1791
-168,-685,5.5741,25.416,0.00138221,0.000588082,0.00108057,0.00213636,-0.000166069,0.609327,0.0014827,0.0109238,1056,1709,5.57412,-25.416
-161,-685,5.56812,25.6323,0.00186269,0.000956084,0.001198,0.00269028,0.000128493,0.604532,0.00175226,0.0119168,1063,1709,5.56815,-25.6323
-154,-685,5.57336,25.8275,0.00242819,0.00135462,0.0012051,0.00321065,0.000572165,0.575875,0.0019775,0.0104135,1070,1709,5.57342,-25.8275
-147,-685,5.56836,26.0244,0.00298649,0.00172829,0.00110798,0.00363151,0.00108326,0.527199,0.00215277,0.00953785,1077,1709,5.56837,-26.0244
-140,-685,5.5741,26.2201,0.00346763,0.00197205,0.000999742,0.0039683,0.00147137,0.464293,0.00231647,0.0115844,1084,1709,5.57415,-26.2201
-133,-685,5.60181,26.4114,0.00392738,0.0021106,0.000856779,0.00426769,0.0017703,0.378085,0.00247584,0.0104751,1091,1709,5.6018,-26.4114
-126,-685,5.61206,26.5973,0.00431116,0.00227088,0.000664292,0.00450838,0.00207366,0.288601,0.0026057,0.00950533,1098,1709,5.61202,-26.5973
-119,-685,5.63599,26.7708,0.00465362,0.0023287,0.000485904,0.00475108,0.00223124,0.197962,0.00274473,0.0131045,1105,1709,5.63595,-26.7708
-112,-685,5.64392,26.9525,0.00486243,0.00236321,0.000273041,0.00489191,0.00233373,0.10756,0.00282534,0.0125519,1112,1709,5.64396,-26.9526
-105,-685,5.61218,27.1217,0.00489756,0.00233091,4.92293e-05,0.00489851,0.00232996,0.0191709,0.00282927,0.0117811,1119,1709,5.61221,-27.1217
-98,-685,5.68896,27.256,0.00500319,0.00241218,1.98439e-05,0.00500334,0.00241203,0.00765814,0.0028893,0.0148548,1126,1709,5.68893,-27.256
-91,-685,5.67993,27.3864,0.00507117,0.00261216,5.86019e-05,0.00507256,0.00261076,0.0238135,0.00292907,0.0210524,1133,1709,5.67997,-27.3864
-84,-685,5.66333,27.5099,0.00534203,0.00265969,6.86703e-05,0.00534379,0.00265794,0.0255786,0.00308525,0.0301195,1140,1709,5.66331,-27.5098
-77,-685,5.71716,27.7587,0,0,0,0,0,0,0,-1,1147,1709,5.7171,-27.7587
-70,-685,5.8363,28.1266,0,0,0,0,0,0,0,-1,1154,1709,5.83624,-28.1266
-63,-685,5.91711,28.4135,0,0,0,0,0,0,0,-1,1161,1709,5.91716,-28.4134
-56,-685,3.93909,15.8704,0,0,0,0,0,0,0,-1,1168,1709,3.93905,-15.8704
-49,-685,3.07471,9.86011,0,0,0,0,0,0,0,-1,1175,1709,3.07467,-9.86009
-42,-685,2.70618,7.54504,0,0,0,0,0,0,0,-1,1182,1709,2.7062,-7.54504
-35,-685,2.95264,7.91516,0,0,0,0,0,0,0,-1,1189,1709,2.95262,-7.91517
-28,-685,5.89905,28.7432,0,0,0,0,0,0,0,-1,1196,1709,5.89909,-28.7432
-21,-685,6.0885,28.5443,0,0,0,0,0,0,0,-1,1203,1709,6.08852,-28.5443
-14,-685,6.11975,28.6365,0.0228665,0.0632663,-0.0570746,0.10361,-0.0174773,-0.95548,0.0755759,0.0287693,1210,1709,6.11979,-28.6365
-7,-685,6.10986,28.8007,0.0233838,0.0634656,-0.0577819,0.104583,-0.017734,-0.952325,0.0763234,0.0410816,1217,1709,6.10983,-28.8007
0,-685,6.29993,29.0034,0.0234946,0.062579,-0.057353,0.103628,-0.0175542,-0.949597,0.0756188,0.0450558,1224,1709,6.29995,-29.0035
7,-685,6.28284,29.2767,0.0232047,0.0601117,-0.0565911,0.101182,-0.0178656,-0.943005,0.074131,0.0408593,1231,1709,6.28287,-29.2768
14,-685,6.34412,29.2616,0.0217919,0.0568905,-0.0553081,0.0973668,-0.0186844,-0.939024,0.0719526,0.0438615,1238,1709,6.34411,-29.2616
21,-685,6.50134,29.3446,0.0202282,0.0529972,-0.0541874,0.093223,-0.0199976,-0.932212,0.0697764,0.0381659,1245,1709,6.50131,-29.3446
28,-685,6.48767,29.2584,0.0179937,0.0486224,-0.0535424,0.0889975,-0.0223815,-0.92469,0.0680307,0.0392733,1252,1709,6.48771,-29.2585
35,-685,6.60059,29.2025,0.0152765,0.0439736,-0.0528747,0.084412,-0.0251619,-0.917892,0.0662738,0.0419805,1259,1709,6.60055,-29.2025
42,-685,6.67712,29.291,0.0125576,0.0398523,-0.0519814,0.079948,-0.0275381,-0.913772,0.0644693,0.0477958,1266,1709,6.67717,-29.291
49,-685,6.58789,29.4761,0,0,0,0,0,0,0,-1,1273,1709,6.58794,-29.4761
56,-685,6.8689,27.9359,0,0,0,0,0,0,0,-1,1280,1709,6.86889,-27.9359
63,-685,6.57239,29.2993,0,0,0,0,0,0,0,-1,1287,1709,6.57239,-29.2993
70,-685,5.02502,28.9792,0,0,0,0,0,0,0,-1,1294,1709,5.02508,-28.9792
77,-685,6.91602,29.4294,0,0,0,0,0,0,0,-1,1301,1709,6.91608,-29.4294
84,-685,6.2926,29.5033,0,0,0,0,0,0,0,-1,1308,1709,6.29262,-29.5033
91,-685,6.4574,29.547,0.0801669,0.0390254,-0.0395112,0.104142,0.0150507,-0.54539,0.0649943,0.0409106,1315,1709,6.45735,-29.547
98,-685,6.59607,29.6689,0.0983035,0.0427096,-0.0378437,0.117462,0.0235511,-0.468638,0.0717577,0.039012,1322,1709,6.59607,-29.669
105,-685,6.42578,29.8461,0.116772,0.0460609,-0.0362503,0.132053,0.0307795,-0.398947,0.0797799,0.0414102,1329,1709,6.42582,-29.846
112,-685,6.02869,28.8113,0.132425,0.0495542,-0.0352324,0.145379,0.0366001,-0.352334,0.0873147,0.0419811,1336,1709,6.0287,-28.8113
119,-685,6.66821,28.561,0.143407,0.0514169,-0.035329,0.15541,0.0394147,-0.327493,0.0932862,0.041014,1343,1709,6.6682,-28.561
126,-685,6.81091,28.4948,0.147706,0.0518976,-0.035017,0.15914,0.0404638,-0.315609,0.0955065,0.0442837,1350,1709,6.81088,-28.4948
133,-685,6.71924,28.6112,0.148018,0.0518103,-0.0341437,0.158904,0.0409245,-0.308634,0.0952707,0.0456904,1357,1709,6.71929,-28.6112
140,-685,6.6792,29.043,0.144232,0.0512216,-0.0331072,0.154813,0.0406407,-0.309336,0.0926808,0.0455749,1364,1709,6.67916,-29.043
147,-685,6.92688,29.1222,0.137556,0.0495019,-0.0313446,0.147574,0.039484,-0.309346,0.0882177,0.0462961,1371,1709,6.92684,-29.1222
154,-685,6.99622,28.9437,0,0,0,0,0,0,0,-1,1378,1709,6.99627,-28.9437
161,-685,7.27747,28.8042,0,0,0,0,0,0,0,-1,1385,1709,7.27742,-28.8042
168,-685,4.37524,10.8778,0,0,0,0,0,0,0,-1,1392,1709,4.37525,-10.8778
175,-685,3.97522,8.94324,0,0,0,0,0,0,0,-1,1399,1709,3.97519,-8.94328
182,-685,3.98218,9.19739,0,0,0,0,0,0,0,-1,1406,1709,3.98221,-9.1974
189,-685,4.53479,15.2343,0,0,0,0,0,0,0,-1,1413,1709,4.53474,-15.2343
196,-685,7.20422,28.4255,0,0,0,0,0,0,0,-1,1420,1709,7.20418,-28.4256
203,-685,7.19092,28.2104,0,0,0,0,0,0,0,-1,1427,1709,7.19096,-28.2104
210,-685,7.31348,27.9768,0,0,0,0,0,0,0,-1,1434,1709,7.31349,-27.9768
217,-685,7.23364,27.7798,0,0,0,0,0,0,0,-1,1441,1709,7.23362,-27.7798
224,-685,7.39355,27.7676,0.000341217,-0.000523246,0.00178314,0.00174377,-0.00192579,0.666492,0.00211949,0.0343973,1448,1709,7.39354,-27.7675
231,-685,7.27051,27.5464,0.000395268,-0.000511104,0.0014332,0.00144523,-0.00156106,0.63227,0.00173611,0.0211066,1455,1709,7.27046,-27.5464
238,-685,7.28796,27.3492,0.000655067,-0.000465889,0.00107645,0.00130821,-0.00111903,0.545373,0.00140278,0.0183983,1462,1709,7.288,-27.3492
245,-685,7.28931,27.209,0.00100602,-0.000256372,0.000702081,0.00131892,-0.000569276,0.419257,0.00111843,0.0193538,1469,1709,7.28927,-27.209
252,-685,7.31885,27.0883,0.00123157,-0.000270755,0.000493759,0.00137932,-0.000418504,0.290754,0.00108626,0.0143907,1476,1709,7.31889,-27.0882
259,-685,7.3335,26.9329,0.00142786,-0.000213514,0.000292296,0.00147835,-0.000264012,0.171077,0.00108434,0.0101751,1483,1709,7.33347,-26.9328
266,-685,7.33484,26.7507,0.00160273,-8.81232e-05,6.41561e-05,0.00160516,-9.05541e-05,0.0378704,0.00110153,0.0117159,1490,1709,7.33488,-26.7507
273,-685,7.3512,26.5724,0.00166648,2.15707e-05,-0.000109516,0.00167374,1.43113e-05,-0.0661896,0.00111109,0.014539,1497,1709,7.35114,-26.5724
280,-685,7.35339,26.379,0.00165761,0.000117884,-0.000295209,0.00171227,6.32243e-05,-0.183082,0.00112103,0.0159627,1504,1709,7.35333,-26.3791
287,-685,7.35901,26.2021,0.00150325,0.0002961,-0.000390741,0.00161868,0.000180661,-0.287265,0.00102423,0.0116579,1511,1709,7.359,-26.2021
294,-685,7.3656,26.0154,0.00127054,0.00048367,-0.000525515,0.00153358,0.000220632,-0.464074,0.000957355,0.0104847,1518,1709,7.36557,-26.0153
301,-685,7.36499,25.8225,0.000937851,0.000594822,-0.00066573,0.00145381,7.88674e-05,-0.659323,0.000944014,0.0135668,1525,1709,7.36502,-25.8225
308,-685,7.3418,25.6268,0.000524351,0.000574921,-0.000747071,0.00129713,-0.000197862,-0.802314,0.000937695,0.0143824,1532,1709,7.34181,-25.6268
315,-685,7.3562,25.4127,0.000141497,0.000449092,-0.000757151,0.00106791,-0.000477319,-0.885598,0.000913599,0.0127799,1539,1709,7.35621,-25.4127
322,-685,7.34998,25.1968,-0.0002191,0.00032836,-0.000779136,0.000880452,-0.000771191,-0.954326,0.000954272,0.021083,1546,1709,7.34992,-25.1968
329,-685,7.3103,24.9822,-0.000608946,9.42663e-05,-0.000700148,0.000526136,-0.00104082,-1.0181,0.000920803,0.0194609,1553,1709,7.3103,-24.9821
336,-685,7.32202,24.7563,-0.000865096,-0.000366688,-0.000527381,-3.25968e-05,-0.00119919,-1.00611,0.000788817,0.0135731,1560,1709,7.32202,-24.7564
343,-685,7.31738,24.528,-0.00110598,-0.00114192,-0.000385474,-0.000738056,-0.00150984,-0.762103,0.00087178,0.0125861,1567,1709,7.31737,-24.5279
350,-685,7.31396,24.286,-0.00136625,-0.00213081,-0.000263071,-0.00128448,-0.00221258,-0.301371,0.00128295,0.0130558,1574,1709,7.31398,-24.286
357,-685,7.31323,24.0414,-0.00154276,-0.00371125,0.000163552,-0.0015305,-0.00372352,0.0748575,0.00216109,0.00980286,1581,1709,7.31318,-24.0414
364,-685,7.28345,23.8054,-0.00159076,-0.00538157,0.000577965,-0.0015046,-0.00546773,0.147987,0.00326143,0.00968824,1588,1709,7.28349,-23.8054
371,-685,7.3053,23.5507,-0.0015712,-0.0073092,0.000945022,-0.00141956,-0.00746084,0.159099,0.00457472,0.0157561,1595,1709,7.3053,-23.5506
378,-685,7.23694,23.3317,-0.0015204,-0.00971748,0.00139064,-0.0012909,-0.00994697,0.163556,0.00624564,0.0235615,1602,1709,7.23695,-23.3317
385,-685,7.21326,23.1969,-0.00140854,-0.0120984,0.001868,-0.00109151,-0.0124154,0.16811,0.00793814,0.0417919,1609,1709,7.2133,-23.1969
392,-685,7.40698,23.1271,-0.00149007,-0.0148278,0.0022957,-0.001106,-0.0152119,0.165767,0.00979345,0.0456032,1616,1709,7.40694,-23.127
399,-685,7.41638,22.9049,-0.00170658,-0.0180001,0.00294225,-0.00119155,-0.0185151,0.17329,0.011966,0.0443904,1623,1709,7.41638,-22.9049
406,-685,6.99829,23.3607,0,0,0,0,0,0,0,-1,1630,1709,6.99829,-23.3607
413,-685,6.13098,16.2029,0,0,0,0,0,0,0,-1,1637,1709,6.13099,-16.2029
420,-685,4.84631,10.3781,0,0,0,0,0,0,0,-1,1644,1709,4.84634,-10.378
427,-685,6.05151,9.21155,0,0,0,0,0,0,0,-1,1651,1709,6.05156,-9.21156
434,-685,4.87769,8.91418,0,0,0,0,0,0,0,-1,1658,1709,4.87768,-8.91413
441,-685,5.62,8.75549,0,0,0,0,0,0,0,-1,1665,1709,5.61996,-8.75545
448,-685,6.4043,8.58972,0,0,0,0,0,0,0,-1,1672,1709,6.40435,-8.58971
455,-685,2.31958,4.09802,0,0,0,0,0,0,0,-1,1679,1709,2.31957,-4.09803
462,-685,0,0,0,0,0,0,0,0,0,-1,1686,1709,0,0
469,-685,0,0,0,0,0,0,0,0,0,-1,1693,1709,0,0
476,-685,0,0,0,0,0,0,0,0,0,-1,1700,1709,0,0
483,-685,0,0,0,0,0,0,0,0,0,-1,1707,1709,0,0
490,-685,0,0,0,0,0,0,0,0,0,-1,1714,1709,0,0
497,-685,0,0,0,0,0,0,0,0,0,-1,1721,1709,0,0
504,-685,0,0,0,0,0,0,0,0,0,-1,1728,1709,0,0
511,-685,0,0,0,0,0,0,0,0,0,-1,1735,1709,0,0
518,-685,0,0,0,0,0,0,0,0,0,-1,1742,1709,0,0
525,-685,0,0,0,0,0,0,0,0,0,-1,1749,1709,0,0
532,-685,0,0,0,0,0,0,0,0,0,-1,1756,1709,0,0
539,-685,0,0,0,0,0,0,0,0,0,-1,1763,1709,0,0
546,-685,0,0,0,0,0,0,0,0,0,-1,1770,1709,0,0
553,-685,0,0,0,0,0,0,0,0,0,-1,1777,1709,0,0
560,-685,0,0,0,0,0,0,0,0,0,-1,1784,1709,0,0
567,-685,0,0,0,0,0,0,0,0,0,-1,1791,1709,0,0
574,-685,0,0,0,0,0,0,0,0,0,-1,1798,1709,0,0
581,-685,0,0,0,0,0,0,0,0,0,-1,1805,1709,0,0
588,-685,0,0,0,0,0,0,0,0,0,-1,1812,1709,0,0
595,-685,0,0,0,0,0,0,0,0,0,-1,1819,1709,0,0
602,-685,0,0,0,0,0,0,0,0,0,-1,1826,1709,0,0
609,-685,0,0,0,0,0,0,0,0,0,-1,1833,1709,0,0
616,-685,0,0,0,0,0,0,0,0,0,-1,1840,1709,0,0
623,-685,0,0,0,0,0,0,0,0,0,-1,1847,1709,0,0
630,-685,0,0,0,0,0,0,0,0,0,-1,1854,1709,0,0
637,-685,0,0,0,0,0,0,0,0,0,-1,1861,1709,0,0
644,-685,0,0,0,0,0,0,0,0,0,-1,1868,1709,0,0
651,-685,0,0,0,0,0,0,0,0,0,-1,1875,1709,0,0
658,-685,0,0,0,0,0,0,0,0,0,-1,1882,1709,0,0
665,-685,0,0,0,0,0,0,0,0,0,-1,1889,1709,0,0
672,-685,0,0,0,0,0,0,0,0,0,-1,1896,1709,0,0
679,-685,0,0,0,0,0,0,0,0,0,-1,1903,1709,0,0
686,-685,0,0,0,0,0,0,0,0,0,-1,1910,1709,0,0
693,-685,0,0,0,0,0,0,0,0,0,-1,1917,1709,0,0
700,-685,0,0,0,0,0,0,0,0,0,-1,1924,1709,0,0
707,-685,0,0,0,0,0,0,0,0,0,-1,1931,1709,0,0
714,-685,0,0,0,0,0,0,0,0,0,-1,1938,1709,0,0
721,-685,0,0,0,0,0,0,0,0,0,-1,1945,1709,0,0
728,-685,0,0,0,0,0,0,0,0,0,-1,1952,1709,0,0
735,-685,0,0,0,0,0,0,0,0,0,-1,1959,1709,0,0
742,-685,0,0,0,0,0,0,0,0,0,-1,1966,1709,0,0
749,-685,0,0,0,0,0,0,0,0,0,-1,1973,1709,0,0
756,-685,0,0,0,0,0,0,0,0,0,-1,1980,1709,0,0
763,-685,0,0,0,0,0,0,0,0,0,-1,1987,1709,0,0
770,-685,0,0,0,0,0,0,0,0,0,-1,1994,1709,0,0
777,-685,0,0,0,0,0,0,0,0,0,-1,2001,1709,0,0
784,-685,0,0,0,0,0,0,0,0,0,-1,2008,1709,0,0
791,-685,0,0,0,0,0,0,0,0,0,-1,2015,1709,0,0
798,-685,0,0,0,0,0,0,0,0,0,-1,2022,1709,0,0
805,-685,0,0,0,0,0,0,0,0,0,-1,2029,1709,0,0
812,-685,0,0,0,0,0,0,0,0,0,-1,2036,1709,0,0
-700,-692,0,0,0,0,0,0,0,0,0,-1,524,1716,0,0
-693,-692,0,0,0,0,0,0,0,0,0,-1,531,1716,0,0
-686,-692,0,0,0,0,0,0,0,0,0,-1,538,1716,0,0
-679,-692,0,0,0,0,0,0,0,0,0,-1,545,1716,0,0
-672,-692,0,0,0,0,0,0,0,0,0,-1,552,1716,0,0
-665,-692,0,0,0,0,0,0,0,0,0,-1,559,1716,0,0
-658,-692,0,0,0,0,0,0,0,0,0,-1,566,1716,0,0
-651,-692,0,0,0,0,0,0,0,0,0,-1,573,1716,0,0
-644,-692,0,0,0,0,0,0,0,0,0,-1,580,1716,0,0
-637,-692,0,0,0,0,0,0,0,0,0,-1,587,1716,0,0
-630,-692,0,0,0,0,0,0,0,0,0,-1,594,1716,0,0
-623,-692,0,0,0,0,0,0,0,0,0,-1,601,1716,0,0
-616,-692,0,0,0,0,0,0,0,0,0,-1,608,1716,0,0
-609,-692,0,0,0,0,0,0,0,0,0,-1,615,1716,0,0
-602,-692,0,0,0,0,0,0,0,0,0,-1,622,1716,0,0
-595,-692,0,0,0,0,0,0,0,0,0,-1,629,1716,0,0
-588,-692,0,0,0,0,0,0,0,0,0,-1,636,1716,0,0
-581,-692,0,0,0,0,0,0,0,0,0,-1,643,1716,0,0
-574,-692,0,0,0,0,0,0,0,0,0,-1,650,1716,0,0
-567,-692,0,0,0,0,0,0,0,0,0,-1,657,1716,0,0
-560,-692,0,0,0,0,0,0,0,0,0,-1,664,1716,0,0
-553,-692,0,0,0,0,0,0,0,0,0,-1,671,1716,0,0
-546,-692,0,0,0,0,0,0,0,0,0,-1,678,1716,0,0
-539,-692,0,0,0,0,0,0,0,0,0,-1,685,1716,0,0
-532,-692,0,0,0,0,0,0,0,0,0,-1,692,1716,0,0
-525,-692,0,0,0,0,0,0,0,0,0,-1,699,1716,0,0
-518,-692,0,0,0,0,0,0,0,0,0,-1,706,1716,0,0
-511,-692,0,0,0,0,0,0,0,0,0,-1,713,1716,0,0
-504,-692,0,0,0,0,0,0,0,0,0,-1,720,1716,0,0
-497,-692,0,0,0,0,0,0,0,0,0,-1,727,1716,0,0
-490,-692,0,0,0,0,0,0,0,0,0,-1,734,1716,0,0
-483,-692,0,0,0,0,0,0,0,0,0,-1,741,1716,0,0
-476,-692,0,0,0,0,0,0,0,0,0,-1,748,1716,0,0
-469,-692,0,0,0,0,0,0,0,0,0,-1,755,1716,0,0
-462,-692,0,0,0,0,0,0,0,0,0,-1,762,1716,0,0
-455,-692,0,0,0,0,0,0,0,0,0,-1,769,1716,0,0
-448,-692,0,0,0,0,0,0,0,0,0,-1,776,1716,0,0
-441,-692,0,0,0,0,0,0,0,0,0,-1,783,1716,0,0
-434,-692,0,0,0,0,0,0,0,0,0,-1,790,1716,0,0
-427,-692,0,0,0,0,0,0,0,0,0,-1,797,1716,0,0
-420,-692,0,0,0,0,0,0,0,0,0,-1,804,1716,0,0
-413,-692,0,0,0,0,0,0,0,0,0,-1,811,1716,0,0
-406,-692,0,0,0,0,0,0,0,0,0,-1,818,1716,0,0
-399,-692,0,0,0,0,0,0,0,0,0,-1,825,1716,0,0
-392,-692,0,0,0,0,0,0,0,0,0,-1,832,1716,0,0
-385,-692,0,0,0,0,0,0,0,0,0,-1,839,1716,0,0
-378,-692,0,0,0,0,0,0,0,0,0,-1,846,1716,0,0
-371,-692,0,0,0,0,0,0,0,0,0,-1,853,1716,0,0
-364,-692,0,0,0,0,0,0,0,0,0,-1,860,1716,0,0
-357,-692,0,0,0,0,0,0,0,0,0,-1,867,1716,0,0
-350,-692,0,0,0,0,0,0,0,0,0,-1,874,1716,0,0
-343,-692,0,0,0,0,0,0,0,0,0,-1,881,1716,0,0
-336,-692,0,0,0,0,0,0,0,0,0,-1,888,1716,0,0
-329,-692,3.03107,4.10266,0,0,0,0,0,0,0,-1,895,1716,3.03105,-4.10267
-322,-692,4.43713,18.5242,0,0,0,0,0,0,0,-1,902,1716,4.43711,-18.5241
-315,-692,5.38965,17.975,0,0,0,0,0,0,0,-1,909,1716,5.38963,-17.975
-308,-692,5.86938,17.4392,0,0,0,0,0,0,0,-1,916,1716,5.86937,-17.4392
-301,-692,8.65558,20.7662,0,0,0,0,0,0,0,-1,923,1716,8.65556,-20.7663
-294,-692,6.66138,19.0796,0,0,0,0,0,0,0,-1,930,1716,6.66141,-19.0796
-287,-692,5.45862,21.7904,0,0,0,0,0,0,0,-1,937,1716,5.45862,-21.7904
-280,-692,5.98358,20.8917,0,0,0,0,0,0,0,-1,944,1716,5.98357,-20.8917
-273,-692,5.93616,21.6898,0,0,0,0,0,0,0,-1,951,1716,5.93614,-21.6899
-266,-692,5.79498,21.8842,0,0,0,0,0,0,0,-1,958,1716,5.79497,-21.8842
-259,-692,5.67767,22.4003,0,0,0,0,0,0,0,-1,965,1716,5.6777,-22.4003
-252,-692,5.68701,22.6465,-0.00104093,-0.00444787,0.00188222,-0.000205786,-0.00528302,0.417605,0.00345546,0.0499607,972,1716,5.68703,-22.6465
-245,-692,5.98529,22.7064,-0.000700807,-0.00443467,0.00104166,-0.00042987,-0.00470561,0.254463,0.00300405,0.0484193,979,1716,5.98532,-22.7065
-238,-692,6.22961,22.8347,-0.00102346,-0.00431228,0.000314961,-0.000993571,-0.00434217,0.0946214,0.00262698,0.0432818,986,1716,6.22961,-22.8347
-231,-692,5.9837,23.3116,-0.00103959,-0.00324585,0.00028947,-0.00100225,-0.0032832,0.128311,0.00194289,0.0352727,993,1716,5.98373,-23.3116
-224,-692,5.86804,23.5182,-0.000911436,-0.00434435,-0.000277613,-0.000889131,-0.00436665,-0.0801738,0.00266464,0.0181572,1000,1716,5.86805,-23.5182
-217,-692,5.85321,23.736,-0.000988666,-0.00379263,-0.000536153,-0.000889644,-0.00389166,-0.182632,0.00235459,0.0128883,1007,1716,5.8532,-23.736
-210,-692,5.84814,23.9849,-0.00106014,-0.00322458,-0.000470147,-0.000962427,-0.00332229,-0.204915,0.00197388,0.0133172,1014,1716,5.84812,-23.9848
-203,-692,5.83423,24.2269,-0.0010887,-0.00265711,-0.00027939,-0.00104042,-0.0027054,-0.171125,0.00157577,0.0149743,1021,1716,5.83426,-24.2269
-196,-692,5.82373,24.5051,-0.00123817,-0.00185642,0.000118999,-0.00121606,-0.00187853,0.183735,0.00110016,0.0163631,1028,1716,5.82374,-24.5052
-189,-692,5.80176,24.7056,-0.00103817,-0.00125746,0.000530391,-0.000606208,-0.00168942,0.68347,0.000988261,0.00850594,1035,1716,5.80179,-24.7055
-182,-692,5.79163,24.9604,-0.0005813,-0.000745989,0.000810984,0.000151509,-0.0014788,0.734803,0.00104005,0.0127935,1042,1716,5.79159,-24.9605
-175,-692,5.78015,25.2068,3.2199e-05,-5.06724e-05,0.0010076,0.000999215,-0.00101769,0.764848,0.00116448,0.0140712,1049,1716,5.7802,-25.2068
-168,-692,5.79736,25.4246,0.000481668,0.000613531,0.00125749,0.00180682,-0.000711621,0.81159,0.00149915,0.0121116,1056,1716,5.79731,-25.4246
-161,-692,5.81262,25.6564,0.000901607,0.0011149,0.00142387,0.00243611,-0.000419604,0.822778,0.0017805,0.0147251,1063,1716,5.8126,-25.6564
-154,-692,5.80151,25.8573,0.00141514,0.00161702,0.00146498,0.00298453,4.76299e-05,0.819796,0.001974,0.0149963,1070,1716,5.80155,-25.8573
-147,-692,5.78796,26.031,0.00190608,0.00211767,0.00138955,0.00340544,0.000618304,0.823391,0.00209484,0.0141739,1077,1716,5.78791,-26.031
-140,-692,5.79028,26.2064,0.00228547,0.00237582,0.00130415,0.00363557,0.00102571,0.80271,0.0021644,0.0104784,1084,1716,5.79022,-26.2064
-133,-692,5.80444,26.4014,0.00267702,0.00249436,0.00118592,0.00377511,0.00139626,0.746968,0.00220404,0.00960122,1091,1716,5.80449,-26.4013
-126,-692,5.79822,26.5919,0.00292819,0.00257063,0.000968886,0.00373465,0.00176417,0.694165,0.0021573,0.00812493,1098,1716,5.79821,-26.5919
-119,-692,5.78467,26.7755,0.00311078,0.00257211,0.000772846,0.00365988,0.00202301,0.617728,0.00211695,0.0118636,1105,1716,5.78471,-26.7755
-112,-692,5.79224,26.9584,0.0032697,0.00252995,0.000584209,0.00359128,0.00220837,0.503189,0.0020916,0.0112862,1112,1716,5.79218,-26.9584
-105,-692,5.81152,27.1302,0.0032933,0.00236654,0.000324112,0.00339541,0.00226444,0.305179,0.00199642,0.0151032,1119,1716,5.81157,-27.1303
-98,-692,5.86243,27.2527,0.00331247,0.0022025,0.000199448,0.00334722,0.00216775,0.172502,0.00196039,0.0160229,1126,1716,5.86248,-27.2527
-91,-692,5.84094,27.4078,0.00339007,0.00222959,0.000175517,0.00341604,0.00220362,0.14687,0.00199974,0.0186478,1133,1716,5.84097,-27.4078
-84,-692,5.8678,27.5692,0.00361267,0.00220222,0.000157907,0.00363013,0.00218476,0.110139,0.0021103,0.0212795,1140,1716,5.86777,-27.5692
-77,-692,5.86816,27.7482,0.00373528,0.00228353,-3.49289e-05,0.00373612,0.00228269,-0.0240414,0.00217469,0.0168911,1147,1716,5.86816,-27.7481
-70,-692,5.91858,27.9167,0.00330507,0.00226545,-0.000512246,0.00351506,0.00205547,-0.389034,0.00203912,0.0308575,1154,1716,5.91858,-27.9167
-63,-692,5.94727,28.0791,0.0040612,0.00537891,-0.00286005,0.00765502,0.00178509,-0.898606,0.00462462,0.049379,1161,1716,5.94731,-28.0791
-56,-692,5.89294,28.0879,0,0,0,0,0,0,0,-1,1168,1716,5.8929,-28.0879
-49,-692,5.94873,28.1969,0,0,0,0,0,0,0,-1,1175,1716,5.94877,-28.1969
-42,-692,6.0033,28.4237,0,0,0,0,0,0,0,-1,1182,1716,6.0033,-28.4237
-35,-692,6.05408,28.6123,0,0,0,0,0,0,0,-1,1189,1716,6.05412,-28.6123
-28,-692,5.99377,28.6938,0.011912,0.036999,-0.0299349,0.0569122,-0.00800121,-0.983799,0.0408704,0.0469918,1196,1716,5.99384,-28.6939
-21,-692,6.12122,28.5768,0.0131951,0.0404923,-0.0328418,0.0624087,-0.00872129,-0.982333,0.0447968,0.0332264,1203,1716,6.12125,-28.5768
-14,-692,6.13879,28.6615,0.0144478,0.0428142,-0.0349502,0.0663494,-0.00908742,-0.978152,0.0475524,0.0167922,1210,1716,6.13879,-28.6615
-7,-692,6.12952,28.809,0.01525,0.0438631,-0.0362422,0.0685204,-0.00940724,-0.973384,0.0491172,0.0154498,1217,1716,6.12949,-28.809
0,-692,6.17908,28.8956,0.0157325,0.0441841,-0.0367503,0.0693659,-0.00944928,-0.970064,0.0496941,0.0178899,1224,1716,6.17912,-28.8956
7,-692,6.23413,28.968,0.0159515,0.0431542,-0.0369404,0.0689177,-0.009812,-0.961794,0.0495408,0.0216982,1231,1716,6.23418,-28.968
14,-692,6.30127,29.1223,0.015117,0.0413723,-0.036433,0.0669706,-0.0104813,-0.958319,0.0485197,0.0237172,1238,1716,6.30132,-29.1223
21,-692,6.37805,29.1416,0.0144203,0.0390602,-0.035958,0.0647503,-0.0112697,-0.950441,0.0473724,0.0243833,1245,1716,6.37808,-29.1416
28,-692,6.35132,29.0586,0.0132353,0.0361993,-0.0358153,0.0623281,-0.0128935,-0.940517,0.0464502,0.0252734,1252,1716,6.35132,-29.0586
35,-692,6.38086,29.1143,0.0116503,0.0330345,-0.0355657,0.0594805,-0.0147957,-0.931415,0.0453965,0.0238946,1259,1716,6.38082,-29.1142
42,-692,6.46301,29.2957,0.010032,0.0301129,-0.0350811,0.0565621,-0.0164172,-0.924776,0.0442085,0.0220627,1266,1716,6.46306,-29.2957
49,-692,6.49939,29.3147,0.00829278,0.0278166,-0.0344757,0.0538858,-0.0177764,-0.923364,0.0430894,0.0268002,1273,1716,6.49934,-29.3147
56,-692,6.50183,29.2318,0.00918568,0.0241956,-0.0316367,0.0492054,-0.0158241,-0.901857,0.0391589,0.031569,1280,1716,6.50184,-29.2319
63,-692,6.52368,29.2454,0.0171805,0.0227048,-0.0286314,0.048707,-0.00882171,-0.833486,0.0357763,0.0300045,1287,1716,6.52368,-29.2454
70,-692,6.60291,29.3282,0.034922,0.0247887,-0.0293711,0.0596602,5.04795e-05,-0.699986,0.0397567,0.0275971,1294,1716,6.6029,-29.3282
77,-692,6.69055,29.3311,0.044825,0.0252111,-0.0282155,0.0648893,0.00514683,-0.618143,0.04165,0.0315826,1301,1716,6.6905,-29.3311
84,-692,6.71936,29.2959,0.0571729,0.0263653,-0.0269222,0.0727865,0.0107517,-0.525549,0.0453672,0.0394719,1308,1716,6.71939,-29.2959
91,-692,6.72388,29.2368,0.0701152,0.0269718,-0.0253463,0.0818267,0.0152602,-0.432838,0.0502429,0.0375898,1315,1716,6.72383,-29.2368
98,-692,6.78613,29.1647,0.0847305,0.0290676,-0.0240249,0.0936656,0.0201324,-0.356062,0.0569321,0.0295384,1322,1716,6.78613,-29.1647
105,-692,6.73413,29.1013,0.0986773,0.030484,-0.0227806,0.105587,0.0235741,-0.294504,0.0639975,0.0380072,1329,1716,6.73417,-29.1013
112,-692,6.6106,29.0707,0.109857,0.0318303,-0.0218587,0.115564,0.026124,-0.255353,0.0699791,0.0399726,1336,1716,6.61058,-29.0707
119,-692,6.74878,28.9906,0.117162,0.0319288,-0.0218905,0.122456,0.0266354,-0.237257,0.0743661,0.0325901,1343,1716,6.74882,-28.9906
126,-692,6.82056,28.9424,0.118743,0.0308052,-0.0213692,0.123661,0.0258874,-0.226195,0.0753096,0.0320569,1350,1716,6.8206,-28.9424
133,-692,6.89648,28.9376,0.117491,0.0293251,-0.0201863,0.121893,0.0249231,-0.214708,0.0743601,0.0246689,1357,1716,6.89654,-28.9376
140,-692,6.84863,28.9612,0.112605,0.0274209,-0.0189072,0.116613,0.0234129,-0.208891,0.071232,0.0287439,1364,1716,6.8486,-28.9611
147,-692,6.86438,28.9196,0.105129,0.0247891,-0.0171309,0.108629,0.0212887,-0.201554,0.0664693,0.0334092,1371,1716,6.86435,-28.9195
154,-692,6.87036,28.819,0.0937279,0.0215783,-0.0151606,0.0967841,0.0185221,-0.198922,0.0593205,0.0286894,1378,1716,6.87039,-28.819
161,-692,7.04736,28.7513,0.0794682,0.0198575,-0.0148057,0.082943,0.0163828,-0.23052,0.0507241,0.0367622,1385,1716,7.04738,-28.7514
168,-692,7.21851,28.7341,0,0,0,0,0,0,0,-1,1392,1716,7.21855,-28.7342
175,-692,7.04175,28.506,0,0,0,0,0,0,0,-1,1399,1716,7.04175,-28.506
182,-692,7.03174,28.3934,0,0,0,0,0,0,0,-1,1406,1716,7.03172,-28.3934
189,-692,7.05762,28.345,0,0,0,0,0,0,0,-1,1413,1716,7.05763,-28.345
196,-692,7.07056,28.2144,0.00297466,0.00189518,0.00176819,0.00428365,0.000586188,0.637265,0.00268181,0.0359565,1420,1716,7.07052,-28.2144
203,-692,7.06482,28.109,0.00183204,0.000701333,0.00162125,0.00298368,-0.00045031,0.617634,0.00215497,0.0227434,1427,1716,7.06482,-28.109
210,-692,7.11914,27.9777,0.00119711,0.00040858,0.00152939,0.00238224,-0.000776544,0.659248,0.00190064,0.0178255,1434,1716,7.11912,-27.9776
217,-692,7.1062,27.8179,0.000684536,-1.71766e-05,0.0012444,0.00162659,-0.000959232,0.64799,0.00150941,0.0169716,1441,1716,7.10623,-27.8178
224,-692,7.11475,27.6903,0.000537343,-0.00014516,0.00117086,0.00141567,-0.00102348,0.643599,0.0014143,0.0135118,1448,1716,7.11469,-27.6903
231,-692,7.11792,27.5487,0.00047502,-0.000200573,0.000905255,0.00110345,-0.000829003,0.606824,0.00111945,0.011147,1455,1716,7.11787,-27.5487
238,-692,7.12927,27.3734,0.000570039,-0.000241462,0.000644132,0.000925563,-0.000596986,0.504334,0.000885841,0.0169,1462,1716,7.1293,-27.3734
245,-692,7.13953,27.2316,0.000756314,-0.000189175,0.000382493,0.000891672,-0.000324532,0.34013,0.000727179,0.0203322,1469,1716,7.13957,-27.2316
252,-692,7.16797,27.0895,0.000872104,-0.00023893,0.000194954,0.00090532,-0.000272146,0.168756,0.00071182,0.0172706,1476,1716,7.16802,-27.0895
259,-692,7.17151,26.9294,0.000973059,-0.000246173,1.29141e-05,0.000973196,-0.00024631,0.0105904,0.000744606,0.0089975,1483,1716,7.17152,-26.9295
266,-692,7.15942,26.7709,0.00106624,-0.000175834,-0.000189549,0.00109453,-0.000204117,-0.148116,0.000806381,0.00937988,1490,1716,7.15938,-26.7708
273,-692,7.15479,26.5715,0.00107636,-3.66102e-05,-0.000366485,0.0011862,-0.000146448,-0.291188,0.000843861,0.0144369,1497,1716,7.15481,-26.5715
280,-692,7.17578,26.3661,0.00102236,5.5893e-05,-0.000573191,0.00128883,-0.000210582,-0.435173,0.000937335,0.0143774,1504,1716,7.17582,-26.366
287,-692,7.17212,26.2018,0.000893343,0.000200487,-0.000698324,0.00132645,-0.000232616,-0.555143,0.000971168,0.0106642,1511,1716,7.17216,-26.2018
294,-692,7.16492,26.0414,0.000683273,0.000435571,-0.00087825,0.00144636,-0.000327518,-0.71535,0.00108994,0.00999539,1518,1716,7.16496,-26.0414
301,-692,7.17834,25.8613,0.000328271,0.000592364,-0.00105456,0.00152311,-0.000602474,-0.847682,0.00126499,0.013425,1525,1716,7.17828,-25.8613
308,-692,7.15271,25.6561,-0.000136185,0.00057385,-0.00114383,0.00141649,-0.000978829,-0.935872,0.00139061,0.0165223,1532,1716,7.15277,-25.6561
315,-692,7.16211,25.4396,-0.000543668,0.000445144,-0.00115857,0.00121039,-0.00130892,-0.987069,0.00145489,0.015323,1539,1716,7.16207,-25.4395
322,-692,7.14258,25.2078,-0.000918043,0.000312485,-0.00118015,0.00102813,-0.00163369,-1.02569,0.00155,0.0203614,1546,1716,7.14264,-25.2077
329,-692,7.09766,24.9626,-0.00135071,6.65634e-05,-0.00105566,0.000629374,-0.00191353,-1.08099,0.00152927,0.0180314,1553,1716,7.09767,-24.9626
336,-692,7.11145,24.7461,-0.00162626,-0.000468854,-0.000834623,-3.19338e-05,-0.00206318,-1.08853,0.00136494,0.0124364,1560,1716,7.11145,-24.7461
343,-692,7.12354,24.5421,-0.00188379,-0.00138737,-0.000626271,-0.000961918,-0.00230924,-0.974065,0.00133942,0.0133974,1567,1716,7.12355,-24.5422
350,-692,7.11072,24.3149,-0.00217767,-0.00256947,-0.000413614,-0.0019159,-0.00283123,-0.564233,0.00166829,0.0148847,1574,1716,7.11067,-24.315
357,-692,7.07288,24.0283,-0.00237784,-0.00449519,0.000200451,-0.00235903,-0.004514,0.0935631,0.00260705,0.0186383,1581,1716,7.07286,-24.0283
364,-692,7.05615,23.7813,-0.00239091,-0.00654458,0.000791203,-0.0022453,-0.00669019,0.181995,0.00393155,0.0249819,1588,1716,7.05621,-23.7813
371,-692,7.13611,23.5895,-0.00231393,-0.00902284,0.00135691,-0.00204988,-0.00928689,0.192193,0.00563368,0.0391069,1595,1716,7.13605,-23.5895
378,-692,7.19543,23.3136,0,0,0,0,0,0,0,-1,1602,1716,7.19544,-23.3136
385,-692,6.91467,23.3481,0,0,0,0,0,0,0,-1,1609,1716,6.91473,-23.3482
392,-692,7.06641,23.1383,0,0,0,0,0,0,0,-1,1616,1716,7.06645,-23.1383
399,-692,7.43616,22.9393,0,0,0,0,0,0,0,-1,1623,1716,7.4362,-22.9394
406,-692,4.73633,10.6808,0,0,0,0,0,0,0,-1,1630,1716,4.73637,-10.6808
413,-692,4.25085,10.5685,0,0,0,0,0,0,0,-1,1637,1716,4.2508,-10.5685
420,-692,5.48901,10.4845,0,0,0,0,0,0,0,-1,1644,1716,5.48906,-10.4845
427,-692,3.79578,8.60339,0,0,0,0,0,0,0,-1,1651,1716,3.79577,-8.6034
434,-692,4.78516,8.64636,0,0,0,0,0,0,0,-1,1658,1716,4.78512,-8.64634
441,-692,5.8208,8.74036,0,0,0,0,0,0,0,-1,1665,1716,5.82084,-8.7404
448,-692,6.73792,8.51013,0,0,0,0,0,0,0,-1,1672,1716,6.73793,-8.5101
455,-692,0,0,0,0,0,0,0,0,0,-1,1679,1716,0,0
462,-692,0,0,0,0,0,0,0,0,0,-1,1686,1716,0,0
469,-692,0,0,0,0,0,0,0,0,0,-1,1693,1716,0,0
476,-692,0,0,0,0,0,0,0,0,0,-1,1700,1716,0,0
483,-692,0,0,0,0,0,0,0,0,0,-1,1707,1716,0,0
490,-692,0,0,0,0,0,0,0,0,0,-1,1714,1716,0,0
497,-692,0,0,0,0,0,0,0,0,0,-1,1721,1716,0,0
504,-692,0,0,0,0,0,0,0,0,0,-1,1728,1716,0,0
511,-692,0,0,0,0,0,0,0,0,0,-1,1735,1716,0,0
518,-692,0,0,0,0,0,0,0,0,0,-1,1742,1716,0,0
525,-692,0,0,0,0,0,0,0,0,0,-1,1749,1716,0,0
532,-692,0,0,0,0,0,0,0,0,0,-1,1756,1716,0,0
539,-692,0,0,0,0,0,0,0,0,0,-1,1763,1716,0,0
546,-692,0,0,0,0,0,0,0,0,0,-1,1770,1716,0,0
553,-692,0,0,0,0,0,0,0,0,0,-1,1777,1716,0,0
560,-692,0,0,0,0,0,0,0,0,0,-1,1784,1716,0,0
567,-692,0,0,0,0,0,0,0,0,0,-1,1791,1716,0,0
574,-692,0,0,0,0,0,0,0,0,0,-1,1798,1716,0,0
581,-692,0,0,0,0,0,0,0,0,0,-1,1805,1716,0,0
588,-692,0,0,0,0,0,0,0,0,0,-1,1812,1716,0,0
595,-692,0,0,0,0,0,0,0,0,0,-1,1819,1716,0,0
602,-692,0,0,0,0,0,0,0,0,0,-1,1826,1716,0,0
609,-692,0,0,0,0,0,0,0,0,0,-1,1833,1716,0,0
616,-692,0,0,0,0,0,0,0,0,0,-1,1840,1716,0,0
623,-692,0,0,0,0,0,0,0,0,0,-1,1847,1716,0,0
630,-692,0,0,0,0,0,0,0,0,0,-1,1854,1716,0,0
637,-692,0,0,0,0,0,0,0,0,0,-1,1861,1716,0,0
644,-692,0,0,0,0,0,0,0,0,0,-1,1868,1716,0,0
651,-692,0,0,0,0,0,0,0,0,0,-1,1875,1716,0,0
658,-692,0,0,0,0,0,0,0,0,0,-1,1882,1716,0,0
665,-692,0,0,0,0,0,0,0,0,0,-1,1889,1716,0,0
672,-692,0,0,0,0,0,0,0,0,0,-1,1896,1716,0,0
679,-692,0,0,0,0,0,0,0,0,0,-1,1903,1716,0,0
686,-692,0,0,0,0,0,0,0,0,0,-1,1910,1716,0,0
693,-692,0,0,0,0,0,0,0,0,0,-1,1917,1716,0,0
700,-692,0,0,0,0,0,0,0,0,0,-1,1924,1716,0,0
707,-692,0,0,0,0,0,0,0,0,0,-1,1931,1716,0,0
714,-692,0,0,0,0,0,0,0,0,0,-1,1938,1716,0,0
721,-692,0,0,0,0,0,0,0,0,0,-1,1945,1716,0,0
728,-692,0,0,0,0,0,0,0,0,0,-1,1952,1716,0,0
735,-692,0,0,0,0,0,0,0,0,0,-1,1959,1716,0,0
742,-692,0,0,0,0,0,0,0,0,0,-1,1966,1716,0,0
749,-692,0,0,0,0,0,0,0,0,0,-1,1973,1716,0,0
756,-692,0,0,0,0,0,0,0,0,0,-1,1980,1716,0,0
763,-692,0,0,0,0,0,0,0,0,0,-1,1987,1716,0,0
770,-692,0,0,0,0,0,0,0,0,0,-1,1994,1716,0,0
777,-692,0,0,0,0,0,0,0,0,0,-1,2001,1716,0,0
784,-692,0,0,0,0,0,0,0,0,0,-1,2008,1716,0,0
791,-692,0,0,0,0,0,0,0,0,0,-1,2015,1716,0,0
798,-692,0,0,0,0,0,0,0,0,0,-1,2022,1716,0,0
805,-692,0,0,0,0,0,0,0,0,0,-1,2029,1716,0,0
812,-692,0,0,0,0,0,0,0,0,0,-1,2036,1716,0,0
-700,-699,0,0,0,0,0,0,0,0,0,-1,524,1723,0,0
-693,-699,0,0,0,0,0,0,0,0,0,-1,531,1723,0,0
-686,-699,0,0,0,0,0,0,0,0,0,-1,538,1723,0,0
-679,-699,0,0,0,0,0,0,0,0,0,-1,545,1723,0,0
-672,-699,0,0,0,0,0,0,0,0,0,-1,552,1723,0,0
-665,-699,0,0,0,0,0,0,0,0,0,-1,559,1723,0,0
-658,-699,0,0,0,0,0,0,0,0,0,-1,566,1723,0,0
-651,-699,0,0,0,0,0,0,0,0,0,-1,573,1723,0,0
-644,-699,0,0,0,0,0,0,0,0,0,-1,580,1723,0,0
-637,-699,0,0,0,0,0,0,0,0,0,-1,587,1723,0,0
-630,-699,0,0,0,0,0,0,0,0,0,-1,594,1723,0,0
-623,-699,0,0,0,0,0,0,0,0,0,-1,601,1723,0,0
-616,-699,0,0,0,0,0,0,0,0,0,-1,608,1723,0,0
-609,-699,0,0,0,0,0,0,0,0,0,-1,615,1723,0,0
-602,-699,0,0,0,0,0,0,0,0,0,-1,622,1723,0,0
-595,-699,0,0,0,0,0,0,0,0,0,-1,629,1723,0,0
-588,-699,0,0,0,0,0,0,0,0,0,-1,636,1723,0,0
-581,-699,0,0,0,0,0,0,0,0,0,-1,643,1723,0,0
-574,-699,0,0,0,0,0,0,0,0,0,-1,650,1723,0,0
-567,-699,0,0,0,0,0,0,0,0,0,-1,657,1723,0,0
-560,-699,0,0,0,0,0,0,0,0,0,-1,664,1723,0,0
-553,-699,0,0,0,0,0,0,0,0,0,-1,671,1723,0,0
-546,-699,0,0,0,0,0,0,0,0,0,-1,678,1723,0,0
-539,-699,0,0,0,0,0,0,0,0,0,-1,685,1723,0,0
-532,-699,0,0,0,0,0,0,0,0,0,-1,692,1723,0,0
-525,-699,0,0,0,0,0,0,0,0,0,-1,699,1723,0,0
-518,-699,0,0,0,0,0,0,0,0,0,-1,706,1723,0,0
-511,-699,0,0,0,0,0,0,0,0,0,-1,713,1723,0,0
-504,-699,0,0,0,0,0,0,0,0,0,-1,720,1723,0,0
-497,-699,0,0,0,0,0,0,0,0,0,-1,727,1723,0,0
-490,-699,0,0,0,0,0,0,0,0,0,-1,734,1723,0,0
-483,-699,0,0,0,0,0,0,0,0,0,-1,741,1723,0,0
-476,-699,0,0,0,0,0,0,0,0,0,-1,748,1723,0,0
-469,-699,0,0,0,0,0,0,0,0,0,-1,755,1723,0,0
-462,-699,0,0,0,0,0,0,0,0,0,-1,762,1723,0,0
-455,-699,0,0,0,0,0,0,0,0,0,-1,769,1723,0,0
-448,-699,0,0,0,0,0,0,0,0,0,-1,776,1723,0,0
-441,-699,0,0,0,0,0,0,0,0,0,-1,783,1723,0,0
-434,-699,0,0,0,0,0,0,0,0,0,-1,790,1723,0,0
-427,-699,0,0,0,0,0,0,0,0,0,-1,797,1723,0,0
-420,-699,0,0,0,0,0,0,0,0,0,-1,804,1723,0,0
-413,-699,0,0,0,0,0,0,0,0,0,-1,811,1723,0,0
-406,-699,0,0,0,0,0,0,0,0,0,-1,818,1723,0,0
-399,-699,0,0,0,0,0,0,0,0,0,-1,825,1723,0,0
-392,-699,0,0,0,0,0,0,0,0,0,-1,832,1723,0,0
-385,-699,0,0,0,0,0,0,0,0,0,-1,839,1723,0,0
-378,-699,0,0,0,0,0,0,0,0,0,-1,846,1723,0,0
-371,-699,0,0,0,0,0,0,0,0,0,-1,853,1723,0,0
-364,-699,0,0,0,0,0,0,0,0,0,-1,860,1723,0,0
-357,-699,0,0,0,0,0,0,0,0,0,-1,867,1723,0,0
-350,-699,0,0,0,0,0,0,0,0,0,-1,874,1723,0,0
-343,-699,0,0,0,0,0,0,0,0,0,-1,881,1723,0,0
-336,-699,0,0,0,0,0,0,0,0,0,-1,888,1723,0,0
-329,-699,0,0,0,0,0,0,0,0,0,-1,895,1723,0,0
-322,-699,0,0,0,0,0,0,0,0,0,-1,902,1723,0,0
-315,-699,6.20001,19.5193,0,0,0,0,0,0,0,-1,909,1723,6.20001,-19.5193
-308,-699,6.98151,18.9218,0,0,0,0,0,0,0,-1,916,1723,6.98151,-18.9217
-301,-699,4.72729,12.8752,0,0,0,0,0,0,0,-1,923,1723,4.72732,-12.8752
-294,-699,6.90332,19.8601,0,0,0,0,0,0,0,-1,930,1723,6.90332,-19.8601
-287,-699,7.09802,22.7235,0,0,0,0,0,0,0,-1,937,1723,7.09805,-22.7235
-280,-699,6.72089,21.9105,0,0,0,0,0,0,0,-1,944,1723,6.72088,-21.9105
-273,-699,6.46362,21.892,0,0,0,0,0,0,0,-1,951,1723,6.46361,-21.8919
-266,-699,6.81915,20.8951,0,0,0,0,0,0,0,-1,958,1723,6.81914,-20.8952
-259,-699,5.39758,14.5466,0,0,0,0,0,0,0,-1,965,1723,5.39759,-14.5466
-252,-699,5.95953,22.7152,0,0,0,0,0,0,0,-1,972,1723,5.95951,-22.7152
-245,-699,6.35193,22.7489,0,0,0,0,0,0,0,-1,979,1723,6.35193,-22.7489
-238,-699,6.25159,23.3026,0,0,0,0,0,0,0,-1,986,1723,6.25161,-23.3026
-231,-699,6.15533,23.3718,-0.000996967,-0.00412913,9.6861e-05,-0.000993975,-0.00413212,0.0308853,0.00249044,0.0408381,993,1723,6.15536,-23.3719
-224,-699,6.0661,23.5646,-0.000933776,-0.00559947,-0.000616453,-0.000853702,-0.00567954,-0.129172,0.00353631,0.0372929,1000,1723,6.06611,-23.5645
-217,-699,6.09589,23.7319,-0.00114538,-0.00494978,-0.000876508,-0.000953152,-0.00514201,-0.215894,0.0031586,0.0273886,1007,1723,6.09586,-23.7319
-210,-699,6.10468,24.0004,-0.0013443,-0.00428851,-0.000670598,-0.00119876,-0.00443405,-0.213725,0.00264848,0.0176474,1014,1723,6.10469,-24.0004
-203,-699,6.06702,24.225,-0.00147524,-0.00366713,-0.00038066,-0.00141101,-0.00373136,-0.167149,0.00217552,0.020026,1021,1723,6.06702,-24.225
-196,-699,6.04883,24.4497,-0.00170406,-0.0025716,0.000199021,-0.00166058,-0.00261508,0.215081,0.00152805,0.0174108,1028,1723,6.04883,-24.4497
-189,-699,6.03735,24.7228,-0.00148326,-0.00175511,0.000734553,-0.000872161,-0.00236621,0.69391,0.00138177,0.00914472,1035,1723,6.03733,-24.7227
-182,-699,6.02539,24.9597,-0.00104786,-0.00108872,0.00110706,3.8957e-05,-0.00217555,0.776172,0.00146352,0.0120496,1042,1723,6.02542,-24.9597
-175,-699,6.01868,25.2009,-0.000540706,-0.000184781,0.0013388,0.000987833,-0.00171332,0.851474,0.00157815,0.0140193,1049,1723,6.01867,-25.2009
-168,-699,6.03784,25.421,-0.000174789,0.00062105,0.00165035,0.00192077,-0.00147451,0.903696,0.00196591,0.0152372,1056,1723,6.03787,-25.421
-161,-699,6.03528,25.6404,0.000154406,0.0012095,0.00183587,0.00259211,-0.00122821,0.925306,0.00225203,0.014153,1063,1723,6.03523,-25.6404
-154,-699,6.00757,25.8539,0.000588409,0.00176949,0.00188154,0.00315098,-0.000793086,0.93746,0.00240893,0.0140936,1070,1723,6.00762,-25.8538
-147,-699,5.99048,26.0348,0.000989259,0.00237049,0.00180479,0.00361228,-0.000252538,0.968131,0.00249663,0.0156664,1077,1723,5.9905,-26.0347
-140,-699,5.97607,26.208,0.00126397,0.00263846,0.00172179,0.0038051,9.73328e-05,0.975284,0.00250492,0.0103427,1084,1723,5.97611,-26.208
-133,-699,5.97998,26.417,0.00160751,0.00274875,0.00162063,0.00389628,0.000459975,0.954669,0.00245858,0.00908245,1091,1723,5.97997,-26.417
-126,-699,5.98657,26.6005,0.00174369,0.00277875,0.00137499,0.00373039,0.000792058,0.965391,0.00226945,0.0114148,1098,1723,5.98656,-26.6005
-119,-699,5.9967,26.7777,0.00179876,0.00275018,0.00115344,0.00352216,0.00102678,0.980986,0.00209161,0.016924,1105,1723,5.99666,-26.7777
-112,-699,5.9574,26.9663,0.00193868,0.00263284,0.000956203,0.00330301,0.00126852,0.959492,0.00192401,0.0121497,1112,1723,5.95744,-26.9663
-105,-699,5.95935,27.1283,0.0020013,0.00241486,0.000671244,0.00291045,0.00150571,0.934812,0.00168069,0.0123814,1119,1723,5.95939,-27.1283
-98,-699,6.00537,27.2755,0.00199967,0.00219063,0.000488103,0.00259251,0.0015978,0.881987,0.00151022,0.0143495,1126,1723,6.00537,-27.2755
-91,-699,6.021,27.4225,0.00206601,0.00204305,0.0003738,0.0024285,0.00168055,0.770048,0.00143615,0.0206325,1133,1723,6.02097,-27.4225
-84,-699,6.02661,27.6018,0.00223198,0.00193225,0.000309068,0.0024256,0.00173863,0.559656,0.00144363,0.0234822,1140,1723,6.02666,-27.6018
-77,-699,6.01721,27.7456,0.00241396,0.00194442,0.000129034,0.00244708,0.0019113,0.251274,0.00148536,0.0163539,1147,1723,6.0172,-27.7456
-70,-699,6.01965,27.8738,0.00232343,0.00183548,-0.00019922,0.00239443,0.00176447,-0.342377,0.00143322,0.0173884,1154,1723,6.0196,-27.8738
-63,-699,6.03247,28.02,0.00278244,0.00313011,-0.00130124,0.00426907,0.00164348,-0.8518,0.00248639,0.0144946,1161,1723,6.03241,-28.0201
-56,-699,6.0199,28.1383,0.00326804,0.00367726,-0.0017484,0.00523299,0.00171232,-0.843647,0.00308081,0.0103372,1168,1723,6.01984,-28.1383
-49,-699,6.04993,28.2411,0.00430501,0.00867301,-0.00568924,0.012583,0.000394968,-0.968666,0.00826019,0.0218539,1175,1723,6.04994,-28.2411
-42,-699,6.09229,28.3767,0.00511327,0.0132061,-0.00949865,0.0194843,-0.00116493,-0.986756,0.0133947,0.0268589,1182,1723,6.0923,-28.3768
-35,-699,6.11328,28.495,0.00659501,0.0180828,-0.0132111,0.0267447,-0.00206681,-0.990461,0.0185571,0.0253534,1189,1723,6.11331,-28.495
-28,-699,6.15344,28.5884,0.00767541,0.0222087,-0.0159059,0.0324292,-0.00254514,-0.999667,0.0225159,0.0200165,1196,1723,6.15348,-28.5884
-21,-699,6.1781,28.6075,0.00859562,0.025087,-0.0180429,0.036679,-0.00299644,-0.99973,0.0255102,0.0137809,1203,1723,6.17813,-28.6075
-14,-699,6.18152,28.7023,0.00966994,0.0273673,-0.019792,0.0401986,-0.00316134,-0.995611,0.0279126,0.0119194,1210,1723,6.18153,-28.7023
-7,-699,6.19104,28.8065,0.0104623,0.0287595,-0.0210656,0.0425773,-0.00335553,-0.990254,0.0295669,0.00870751,1217,1723,6.19098,-28.8065
0,-699,6.21973,28.8724,0.0110349,0.0297678,-0.0218727,0.0441951,-0.00339244,-0.987698,0.0306569,0.00981895,1224,1723,6.21971,-28.8725
7,-699,6.25281,28.9297,0.0114432,0.0297414,-0.0224218,0.0448089,-0.00362433,-0.979109,0.0311511,0.0143874,1231,1723,6.25282,-28.9297
14,-699,6.29041,29.0104,0.010927,0.0289526,-0.0222424,0.0439388,-0.00405923,-0.977893,0.0307351,0.0162569,1238,1723,6.29035,-29.0104
21,-699,6.30847,29.0233,0.0106562,0.0277444,-0.0219743,0.0427772,-0.0043766,-0.970816,0.0300833,0.0173804,1245,1723,6.3085,-29.0233
28,-699,6.3313,29.0211,0.0100388,0.0259627,-0.0218544,0.0412603,-0.00525883,-0.960083,0.0294169,0.0157627,1252,1723,6.33134,-29.0211
35,-699,6.36072,29.0933,0.00912818,0.0238856,-0.0215632,0.0392976,-0.00628386,-0.950248,0.0285247,0.0122846,1259,1723,6.36069,-29.0933
42,-699,6.40198,29.1624,0.00822502,0.0218889,-0.0210535,0.0371912,-0.00707735,-0.942289,0.027459,0.0113183,1266,1723,6.40202,-29.1623
49,-699,6.44336,29.1949,0.00725918,0.0202289,-0.0203564,0.0351084,-0.00762028,-0.9396,0.0263161,0.0139844,1273,1723,6.44342,-29.195
56,-699,6.48596,29.205,0.00814458,0.0174965,-0.0181129,0.0315272,-0.00588617,-0.911718,0.0232301,0.0145857,1280,1723,6.48597,-29.205
63,-699,6.50952,29.2019,0.0145201,0.0160073,-0.0157149,0.0309961,-0.000468781,-0.809039,0.0208221,0.0126444,1287,1723,6.50954,-29.2019
70,-699,6.52661,29.1987,0.0284845,0.0170046,-0.0160979,0.0398351,0.00565397,-0.614142,0.0248871,0.0111021,1294,1723,6.52659,-29.1987
77,-699,6.55444,29.1973,0.036618,0.016598,-0.0151642,0.0447781,0.00843794,-0.493675,0.0274747,0.0109942,1301,1723,6.55441,-29.1973
84,-699,6.5885,29.1819,0.0461512,0.0168717,-0.0142424,0.0519361,0.0110868,-0.38582,0.0315839,0.01371,1308,1723,6.58853,-29.1818
91,-699,6.59082,29.1732,0.0556646,0.0166027,-0.0132241,0.0597204,0.0125469,-0.29759,0.0363602,0.0140598,1315,1723,6.5908,-29.1733
98,-699,6.61475,29.1664,0.0658538,0.0174042,-0.0124582,0.0688696,0.0143884,-0.237501,0.0419477,0.0120224,1322,1723,6.61474,-29.1663
105,-699,6.64563,29.1469,0.0746871,0.0174672,-0.0118075,0.0770279,0.0151264,-0.195706,0.0471261,0.0157539,1329,1723,6.64567,-29.1468
112,-699,6.67102,29.123,0.0810075,0.0174363,-0.0113026,0.0829572,0.0154865,-0.170822,0.0509336,0.0215029,1336,1723,6.67098,-29.1231
119,-699,6.67273,29.0691,0.0844388,0.0166694,-0.0115257,0.0863454,0.0147628,-0.163934,0.0533282,0.0161996,1343,1723,6.67273,-29.0691
126,-699,6.71802,29.0071,0.0833159,0.0150286,-0.0111974,0.0851051,0.0132394,-0.158448,0.052879,0.0173614,1350,1723,6.71803,-29.007
133,-699,6.78906,28.9572,0.0802258,0.013304,-0.0102619,0.0817641,0.0117658,-0.148789,0.0510415,0.0156811,1357,1723,6.78902,-28.9571
140,-699,6.78381,28.9073,0.074446,0.0114732,-0.00930611,0.0757924,0.0101268,-0.143689,0.0475138,0.0166314,1364,1723,6.78379,-28.9073
147,-699,6.80493,28.8405,0.0671489,0.00938396,-0.00809448,0.0682617,0.00827114,-0.136623,0.0430167,0.0142464,1371,1723,6.80492,-28.8405
154,-699,6.79309,28.7716,0.0578003,0.00747234,-0.00694688,0.0587416,0.00653105,-0.134678,0.0371758,0.0147615,1378,1723,6.79311,-28.7716
161,-699,6.83325,28.6898,0.0475405,0.00645463,-0.00650108,0.0485447,0.0054505,-0.153246,0.030708,0.010782,1385,1723,6.83322,-28.6899
168,-699,6.87073,28.6168,0.0294034,0.00378091,-0.00590774,0.0306999,0.00248438,-0.216038,0.0196908,0.0118864,1392,1723,6.87078,-28.6168
175,-699,6.91125,28.5273,0.00348005,-0.00250106,0.000612793,0.00354219,-0.0025632,0.101056,0.00354002,0.0140256,1399,1723,6.91128,-28.5274
182,-699,6.93542,28.4254,0.00328535,-0.00189918,0.00132901,0.00360617,-0.00222,0.236871,0.00339533,0.0154029,1406,1723,6.93546,-28.4254
189,-699,6.92505,28.3317,0.00293674,-0.000615598,0.00125694,0.0033365,-0.00101536,0.307926,0.00262898,0.0172653,1413,1723,6.92511,-28.3317
196,-699,6.92676,28.2123,0.00208556,0.00152637,0.00114373,0.00298337,0.000628553,0.665521,0.00181603,0.0170257,1420,1723,6.92674,-28.2123
203,-699,6.93738,28.101,0.00128709,0.000723841,0.00102368,0.00206718,-5.62458e-05,0.651164,0.00139724,0.0136551,1427,1723,6.93735,-28.1009
210,-699,6.95728,27.9771,0.000817431,0.000522913,0.000930245,0.001612,-0.000271656,0.706899,0.00117573,0.0128943,1434,1723,6.95733,-27.9771
217,-699,6.9646,27.8448,0.000421009,0.000231195,0.000691807,0.00102439,-0.000372185,0.71723,0.000835106,0.0143442,1441,1723,6.96455,-27.8448
224,-699,6.96313,27.7072,0.000295515,0.000108756,0.00057529,0.000784955,-0.000380684,0.704941,0.000686341,0.0157636,1448,1723,6.96315,-27.7072
231,-699,6.98804,27.5679,0.00021409,8.24017e-06,0.000364159,0.00048959,-0.00026726,0.647672,0.000443208,0.0114051,1455,1723,6.98802,-27.5679
238,-699,6.9812,27.4063,0.000271359,-8.45137e-05,0.000170969,0.000340185,-0.00015334,0.382716,0.000291664,0.00996099,1462,1723,6.98116,-27.4063
245,-699,6.9845,27.2473,0.000433511,-0.000106644,-2.0582e-05,0.000434295,-0.000107427,-0.0380303,0.000331198,0.011843,1469,1723,6.98447,-27.2474
252,-699,6.99268,27.0944,0.000537055,-0.000164613,-0.000196046,0.000588115,-0.000215673,-0.254787,0.000480386,0.009995,1476,1723,6.99273,-27.0944
259,-699,6.98572,26.9398,0.000604294,-0.000206344,-0.000363105,0.000743152,-0.000345202,-0.365259,0.000642211,0.00974343,1483,1723,6.98569,-26.9398
266,-699,6.97986,26.7854,0.00065218,-0.000160274,-0.000545453,0.000926055,-0.000434149,-0.465331,0.00080225,0.01152,1490,1723,6.97985,-26.7854
273,-699,6.97632,26.5917,0.000630407,3.61091e-05,-0.000731981,0.00112325,-0.000456738,-0.592585,0.000938874,0.0115752,1497,1723,6.97631,-26.5917
280,-699,6.99683,26.3799,0.000541105,0.000182806,-0.000968752,0.00134713,-0.000623222,-0.693967,0.0011629,0.0125967,1504,1723,6.99685,-26.3799
287,-699,6.97705,26.1948,0.000424006,0.000334082,-0.00112336,0.00150331,-0.000745217,-0.765396,0.00132255,0.0105518,1511,1723,6.9771,-26.1948
294,-699,6.96716,26.0187,0.000213763,0.00063879,-0.00134715,0.00179009,-0.000937533,-0.863629,0.00160023,0.00999031,1518,1723,6.96711,-26.0187
301,-699,6.97668,25.8447,-0.000186451,0.000855331,-0.00155699,0.00197625,-0.00130737,-0.94682,0.00190887,0.0121261,1525,1723,6.97668,-25.8447
308,-699,6.97888,25.6409,-0.000729143,0.000839625,-0.00164755,0.00187998,-0.0017695,-1.00757,0.00210735,0.0168678,1532,1723,6.97886,-25.6409
315,-699,6.99805,25.4214,-0.00119546,0.000703654,-0.0016618,0.00166806,-0.00215986,-1.04496,0.00221612,0.0184847,1539,1723,6.99802,-25.4214
322,-699,6.97595,25.2239,-0.00162027,0.000542027,-0.00167454,0.00145411,-0.00253235,-1.07205,0.00232948,0.0192155,1546,1723,6.97599,-25.2238
329,-699,6.92395,24.9918,-0.00213427,0.000255742,-0.00148556,0.000967289,-0.00284582,-1.12411,0.00228882,0.0161506,1553,1723,6.92399,-24.9919
336,-699,6.91443,24.7678,-0.00246495,-0.00041133,-0.00120429,0.000144467,-0.00302075,-1.13841,0.00206368,0.0170588,1560,1723,6.91446,-24.7679
343,-699,6.95313,24.5588,-0.00278559,-0.00155074,-0.000903638,-0.00107373,-0.00326259,-1.0851,0.00191998,0.0224654,1567,1723,6.95311,-24.5589
350,-699,6.8905,24.2894,-0.00316606,-0.00303355,-0.000552581,-0.00254326,-0.00365634,-0.845065,0.00216415,0.0312723,1574,1723,6.89046,-24.2895
357,-699,6.79883,24.0886,-0.00341811,-0.00541327,0.000307325,-0.00337184,-0.00545953,0.149422,0.003181,0.0394889,1581,1723,6.79879,-24.0887
364,-699,6.76941,23.9197,-0.0033952,-0.00796385,0.00113214,-0.00313004,-0.00822901,0.230065,0.00479614,0.0432269,1588,1723,6.76941,-23.9197
371,-699,6.96692,23.6122,0,0,0,0,0,0,0,-1,1595,1723,6.96693,-23.6122
378,-699,6.86218,22.624,0,0,0,0,0,0,0,-1,1602,1723,6.86222,-22.624
385,-699,5.18677,23.5579,0,0,0,0,0,0,0,-1,1609,1723,5.1868,-23.5579
392,-699,5.6571,23.7054,0,0,0,0,0,0,0,-1,1616,1723,5.65712,-23.7055
399,-699,3.91516,9.81726,0,0,0,0,0,0,0,-1,1623,1723,3.9152,-9.81721
406,-699,5.50757,21.6672,0,0,0,0,0,0,0,-1,1630,1723,5.50755,-21.6672
413,-699,9.31396,23.2781,0,0,0,0,0,0,0,-1,1637,1723,9.31396,-23.278
420,-699,2.15076,7.65527,0,0,0,0,0,0,0,-1,1644,1723,2.15079,-7.65522
427,-699,3.36328,8.2428,0,0,0,0,0,0,0,-1,1651,1723,3.36332,-8.24283
434,-699,4.66455,8.90222,0,0,0,0,0,0,0,-1,1658,1723,4.66456,-8.90223
441,-699,0,0,0,0,0,0,0,0,0,-1,1665,1723,0,0
448,-699,0,0,0,0,0,0,0,0,0,-1,1672,1723,0,0
455,-699,0,0,0,0,0,0,0,0,0,-1,1679,1723,0,0
462,-699,0,0,0,0,0,0,0,0,0,-1,1686,1723,0,0
469,-699,0,0,0,0,0,0,0,0,0,-1,1693,1723,0,0
476,-699,0,0,0,0,0,0,0,0,0,-1,1700,1723,0,0
483,-699,0,0,0,0,0,0,0,0,0,-1,1707,1723,0,0
490,-699,0,0,0,0,0,0,0,0,0,-1,1714,1723,0,0
497,-699,0,0,0,0,0,0,0,0,0,-1,1721,1723,0,0
504,-699,0,0,0,0,0,0,0,0,0,-1,1728,1723,0,0
511,-699,0,0,0,0,0,0,0,0,0,-1,1735,1723,0,0
518,-699,0,0,0,0,0,0,0,0,0,-1,1742,1723,0,0
525,-699,0,0,0,0,0,0,0,0,0,-1,1749,1723,0,0
532,-699,0,0,0,0,0,0,0,0,0,-1,1756,1723,0,0
539,-699,0,0,0,0,0,0,0,0,0,-1,1763,1723,0,0
546,-699,0,0,0,0,0,0,0,0,0,-1,1770,1723,0,0
553,-699,0,0,0,0,0,0,0,0,0,-1,1777,1723,0,0
560,-699,0,0,0,0,0,0,0,0,0,-1,1784,1723,0,0
567,-699,0,0,0,0,0,0,0,0,0,-1,1791,1723,0,0
574,-699,0,0,0,0,0,0,0,0,0,-1,1798,1723,0,0
581,-699,0,0,0,0,0,0,0,0,0,-1,1805,1723,0,0
588,-699,0,0,0,0,0,0,0,0,0,-1,1812,1723,0,0
595,-699,0,0,0,0,0,0,0,0,0,-1,1819,1723,0,0
602,-699,0,0,0,0,0,0,0,0,0,-1,1826,1723,0,0
609,-699,0,0,0,0,0,0,0,0,0,-1,1833,1723,0,0
616,-699,0,0,0,0,0,0,0,0,0,-1,1840,1723,0,0
623,-699,0,0,0,0,0,0,0,0,0,-1,1847,1723,0,0
630,-699,0,0,0,0,0,0,0,0,0,-1,1854,1723,0,0
637,-699,0,0,0,0,0,0,0,0,0,-1,1861,1723,0,0
644,-699,0,0,0,0,0,0,0,0,0,-1,1868,1723,0,0
651,-699,0,0,0,0,0,0,0,0,0,-1,1875,1723,0,0
658,-699,0,0,0,0,0,0,0,0,0,-1,1882,1723,0,0
665,-699,0,0,0,0,0,0,0,0,0,-1,1889,1723,0,0
672,-699,0,0,0,0,0,0,0,0,0,-1,1896,1723,0,0
679,-699,0,0,0,0,0,0,0,0,0,-1,1903,1723,0,0
686,-699,0,0,0,0,0,0,0,0,0,-1,1910,1723,0,0
693,-699,0,0,0,0,0,0,0,0,0,-1,1917,1723,0,0
700,-699,0,0,0,0,0,0,0,0,0,-1,1924,1723,0,0
707,-699,0,0,0,0,0,0,0,0,0,-1,1931,1723,0,0
714,-699,0,0,0,0,0,0,0,0,0,-1,1938,1723,0,0
721,-699,0,0,0,0,0,0,0,0,0,-1,1945,1723,0,0
728,-699,0,0,0,0,0,0,0,0,0,-1,1952,1723,0,0
735,-699,0,0,0,0,0,0,0,0,0,-1,1959,1723,0,0
742,-699,0,0,0,0,0,0,0,0,0,-1,1966,1723,0,0
749,-699,0,0,0,0,0,0,0,0,0,-1,1973,1723,0,0
756,-699,0,0,0,0,0,0,0,0,0,-1,1980,1723,0,0
763,-699,0,0,0,0,0,0,0,0,0,-1,1987,1723,0,0
770,-699,0,0,0,0,0,0,0,0,0,-1,1994,1723,0,0
777,-699,0,0,0,0,0,0,0,0,0,-1,2001,1723,0,0
784,-699,0,0,0,0,0,0,0,0,0,-1,2008,1723,0,0
791,-699,0,0,0,0,0,0,0,0,0,-1,2015,1723,0,0
798,-699,0,0,0,0,0,0,0,0,0,-1,2022,1723,0,0
805,-699,0,0,0,0,0,0,0,0,0,-1,2029,1723,0,0
812,-699,0,0,0,0,0,0,0,0,0,-1,2036,1723,0,0
-700,-706,0,0,0,0,0,0,0,0,0,-1,524,1730,0,0
-693,-706,0,0,0,0,0,0,0,0,0,-1,531,1730,0,0
-686,-706,0,0,0,0,0,0,0,0,0,-1,538,1730,0,0
-679,-706,0,0,0,0,0,0,0,0,0,-1,545,1730,0,0
-672,-706,0,0,0,0,0,0,0,0,0,-1,552,1730,0,0
-665,-706,0,0,0,0,0,0,0,0,0,-1,559,1730,0,0
-658,-706,0,0,0,0,0,0,0,0,0,-1,566,1730,0,0
-651,-706,0,0,0,0,0,0,0,0,0,-1,573,1730,0,0
-644,-706,0,0,0,0,0,0,0,0,0,-1,580,1730,0,0
-637,-706,0,0,0,0,0,0,0,0,0,-1,587,1730,0,0
-630,-706,0,0,0,0,0,0,0,0,0,-1,594,1730,0,0
-623,-706,0,0,0,0,0,0,0,0,0,-1,601,1730,0,0
-616,-706,0,0,0,0,0,0,0,0,0,-1,608,1730,0,0
-609,-706,0,0,0,0,0,0,0,0,0,-1,615,1730,0,0
-602,-706,0,0,0,0,0,0,0,0,0,-1,622,1730,0,0
-595,-706,0,0,0,0,0,0,0,0,0,-1,629,1730,0,0
-588,-706,0,0,0,0,0,0,0,0,0,-1,636,1730,0,0
-581,-706,0,0,0,0,0,0,0,0,0,-1,643,1730,0,0
-574,-706,0,0,0,0,0,0,0,0,0,-1,650,1730,0,0
-567,-706,0,0,0,0,0,0,0,0,0,-1,657,1730,0,0
-560,-706,0,0,0,0,0,0,0,0,0,-1,664,1730,0,0
-553,-706,0,0,0,0,0,0,0,0,0,-1,671,1730,0,0
-546,-706,0,0,0,0,0,0,0,0,0,-1,678,1730,0,0
-539,-706,0,0,0,0,0,0,0,0,0,-1,685,1730,0,0
-532,-706,0,0,0,0,0,0,0,0,0,-1,692,1730,0,0
-525,-706,0,0,0,0,0,0,0,0,0,-1,699,1730,0,0
-518,-706,0,0,0,0,0,0,0,0,0,-1,706,1730,0,0
-511,-706,0,0,0,0,0,0,0,0,0,-1,713,1730,0,0
-504,-706,0,0,0,0,0,0,0,0,0,-1,720,1730,0,0
-497,-706,0,0,0,0,0,0,0,0,0,-1,727,1730,0,0
-490,-706,0,0,0,0,0,0,0,0,0,-1,734,1730,0,0
-483,-706,0,0,0,0,0,0,0,0,0,-1,741,1730,0,0
-476,-706,0,0,0,0,0,0,0,0,0,-1,748,1730,0,0
-469,-706,0,0,0,0,0,0,0,0,0,-1,755,1730,0,0
-462,-706,0,0,0,0,0,0,0,0,0,-1,762,1730,0,0
-455,-706,0,0,0,0,0,0,0,0,0,-1,769,1730,0,0
-448,-706,0,0,0,0,0,0,0,0,0,-1,776,1730,0,0
-441,-706,0,0,0,0,0,0,0,0,0,-1,783,1730,0,0
-434,-706,0,0,0,0,0,0,0,0,0,-1,790,1730,0,0
-427,-706,0,0,0,0,0,0,0,0,0,-1,797,1730,0,0
-420,-706,0,0,0,0,0,0,0,0,0,-1,804,1730,0,0
-413,-706,0,0,0,0,0,0,0,0,0,-1,811,1730,0,0
-406,-706,0,0,0,0,0,0,0,0,0,-1,818,1730,0,0
-399,-706,0,0,0,0,0,0,0,0,0,-1,825,1730,0,0
-392,-706,0,0,0,0,0,0,0,0,0,-1,832,1730,0,0
-385,-706,0,0,0,0,0,0,0,0,0,-1,839,1730,0,0
-378,-706,0,0,0,0,0,0,0,0,0,-1,846,1730,0,0
-371,-706,0,0,0,0,0,0,0,0,0,-1,853,1730,0,0
-364,-706,0,0,0,0,0,0,0,0,0,-1,860,1730,0,0
-357,-706,0,0,0,0,0,0,0,0,0,-1,867,1730,0,0
-350,-706,0,0,0,0,0,0,0,0,0,-1,874,1730,0,0
-343,-706,0,0,0,0,0,0,0,0,0,-1,881,1730,0,0
-336,-706,0,0,0,0,0,0,0,0,0,-1,888,1730,0,0
-329,-706,0,0,0,0,0,0,0,0,0,-1,895,1730,0,0
-322,-706,0,0,0,0,0,0,0,0,0,-1,902,1730,0,0
-315,-706,0,0,0,0,0,0,0,0,0,-1,909,1730,0,0
-308,-706,5.08191,14.6245,0,0,0,0,0,0,0,-1,916,1730,5.08188,-14.6245
-301,-706,7.45007,21.1975,0,0,0,0,0,0,0,-1,923,1730,7.45005,-21.1976
-294,-706,11.8603,21.026,0,0,0,0,0,0,0,-1,930,1730,11.8603,-21.026
-287,-706,10.3292,20.8425,0,0,0,0,0,0,0,-1,937,1730,10.3292,-20.8425
-280,-706,7.9162,21.8951,0,0,0,0,0,0,0,-1,944,1730,7.9162,-21.8952
-273,-706,7.38953,20.6355,0,0,0,0,0,0,0,-1,951,1730,7.38955,-20.6355
-266,-706,9.66724,22.8231,0,0,0,0,0,0,0,-1,958,1730,9.66722,-22.8231
-259,-706,3.47852,20.7363,0,0,0,0,0,0,0,-1,965,1730,3.47851,-20.7364
-252,-706,3.84259,20.1979,0,0,0,0,0,0,0,-1,972,1730,3.84256,-20.1979
-245,-706,4.698,19.2992,0,0,0,0,0,0,0,-1,979,1730,4.69799,-19.2991
-238,-706,6.4928,21.2333,0,0,0,0,0,0,0,-1,986,1730,6.49278,-21.2332
-231,-706,6.43646,23.392,0,0,0,0,0,0,0,-1,993,1730,6.43643,-23.392
-224,-706,6.29803,23.6527,-0.000807468,-0.00717135,-0.001237,-0.000575479,-0.00740333,-0.185388,0.00475535,0.0482542,1000,1730,6.29805,-23.6527
-217,-706,6.34753,23.7094,-0.00127347,-0.00638447,-0.00145216,-0.000889692,-0.00676824,-0.258373,0.00424678,0.0472407,1007,1730,6.34751,-23.7094
-210,-706,6.35406,23.9873,-0.00167298,-0.00551759,-0.000972208,-0.00144112,-0.00574945,-0.234119,0.0034543,0.0422735,1014,1730,6.35408,-23.9873
-203,-706,6.1864,24.3522,-0.00186464,-0.00479691,-0.000493373,-0.00178386,-0.0048777,-0.162305,0.0028498,0.0297073,1021,1730,6.18635,-24.3521
-196,-706,6.25513,24.5009,-0.00208307,-0.00324967,0.000413807,-0.0019512,-0.00338155,0.308511,0.00196004,0.0233314,1028,1730,6.25515,-24.5009
-189,-706,6.26611,24.7089,-0.00173789,-0.00206688,0.00118964,-0.000701431,-0.00310335,0.716698,0.00187924,0.0179695,1035,1730,6.26615,-24.7088
-182,-706,6.23792,24.9691,-0.00124665,-0.00113749,0.00173508,0.000543876,-0.00292801,0.801121,0.00215628,0.0131373,1042,1730,6.2379,-24.9691
-175,-706,6.23962,25.2,-0.000781774,5.552e-05,0.00207783,0.00175646,-0.00248271,0.884809,0.00245943,0.0148974,1049,1730,6.23961,-25.1999
-168,-706,6.24084,25.4055,-0.000438156,0.00105494,0.0025037,0.00292102,-0.00230424,0.930291,0.0030238,0.0158127,1056,1730,6.24084,-25.4055
-161,-706,6.22107,25.6277,-0.000144511,0.00175798,0.00273234,0.00369993,-0.00208646,0.952907,0.00338379,0.0134602,1063,1730,6.22111,-25.6277
-154,-706,6.21204,25.8583,0.000243847,0.00238698,0.00278625,0.00430062,-0.00166979,0.968974,0.00355682,0.0129524,1070,1730,6.212,-25.8582
-147,-706,6.18372,26.0283,0.000568145,0.00308246,0.00269191,0.0047963,-0.00114569,1.00385,0.00364004,0.0131953,1077,1730,6.18369,-26.0283
-140,-706,6.1748,26.231,0.000735443,0.00334481,0.00257679,0.00492839,-0.000848137,1.01974,0.00360175,0.0117966,1084,1730,6.17485,-26.2309
-133,-706,6.17786,26.4163,0.00102058,0.00342528,0.00244987,0.00495194,-0.000506079,1.01352,0.00348226,0.0084314,1091,1730,6.17781,-26.4163
-126,-706,6.17493,26.5918,0.00102389,0.00338989,0.00212611,0.00463996,-0.000226177,1.03928,0.00317139,0.012769,1098,1730,6.17489,-26.5918
-119,-706,6.16138,26.7289,0.000928832,0.00328776,0.00182296,0.00427954,-6.29502e-05,1.07253,0.00287424,0.0174954,1105,1730,6.16132,-26.7289
-112,-706,6.13953,26.9556,0.00100761,0.00305138,0.00154832,0.00388464,0.00017436,1.07708,0.00253364,0.0123723,1112,1730,6.13949,-26.9555
-105,-706,6.13245,27.1414,0.00104131,0.00273448,0.00116037,0.00332427,0.000451521,1.10055,0.00208205,0.00893444,1119,1730,6.13244,-27.1413
-98,-706,6.15942,27.2897,0.000997928,0.00243639,0.000894705,0.00286511,0.000569208,1.12395,0.00175144,0.0108402,1126,1730,6.15937,-27.2897
-91,-706,6.17419,27.4485,0.00102551,0.00209168,0.000654661,0.00240284,0.000714339,1.1271,0.00142478,0.0146009,1133,1730,6.1742,-27.4485
-84,-706,6.15039,27.5995,0.00111783,0.00188327,0.000520883,0.00214692,0.000854183,1.10223,0.00124812,0.0171225,1140,1730,6.15044,-27.5995
-77,-706,6.14282,27.7445,0.00131714,0.00182009,0.000353969,0.00200282,0.00113441,1.09425,0.00115972,0.0161711,1147,1730,6.14277,-27.7446
-70,-706,6.13525,27.8906,0.00141114,0.00163942,0.00010358,0.00167941,0.00137115,1.20233,0.00103231,0.0177392,1154,1730,6.1352,-27.8906
-63,-706,6.14124,28.0161,0.00156855,0.0013415,3.00859e-05,0.00157247,0.00133758,0.12953,0.000979452,0.0131833,1161,1730,6.14122,-28.0161
-56,-706,6.16528,28.1511,0.0018538,0.00116156,2.7051e-05,0.00185486,0.00116051,0.0389981,0.00108212,0.0125439,1168,1730,6.16532,-28.1511
-49,-706,6.14758,28.2594,0.00236815,0.00319893,-0.00134388,0.00419015,0.00137693,-0.93529,0.0024661,0.0121596,1175,1730,6.14755,-28.2594
-42,-706,6.17407,28.3486,0.00280355,0.00533453,-0.00282388,0.00716352,0.000974569,-0.99605,0.00448625,0.0171372,1182,1730,6.1741,-28.3486
-35,-706,6.20032,28.4329,0.00375052,0.00787136,-0.00450307,0.010763,0.000858875,-0.999959,0.00690687,0.0168852,1189,1730,6.20034,-28.4328
-28,-706,6.21936,28.5525,0.00449671,0.0105231,-0.00599752,0.0142218,0.00079801,-1.01818,0.00922672,0.0102633,1196,1730,6.21937,-28.5525
-21,-706,6.24719,28.6355,0.00501249,0.0125619,-0.0072095,0.0169251,0.000649308,-1.02656,0.0110733,0.0101744,1203,1730,6.24718,-28.6355
-14,-706,6.26746,28.7018,0.00571513,0.0144554,-0.00839145,0.0195465,0.000624048,-1.02547,0.012828,0.0103451,1210,1730,6.26742,-28.7017
-7,-706,6.27795,28.7909,0.00631676,0.0158809,-0.00937394,0.0216221,0.000575557,-1.02126,0.0142267,0.00892663,1217,1730,6.27792,-28.7909
0,-706,6.29639,28.8719,0.0068265,0.0172433,-0.0101382,0.0234327,0.000637082,-1.02269,0.0154138,0.0118335,1224,1730,6.29641,-28.8719
7,-706,6.31824,28.9421,0.00724274,0.017941,-0.0107341,0.024585,0.000598765,-1.01655,0.0161941,0.0132066,1231,1730,6.31822,-28.9421
14,-706,6.3374,28.9973,0.00685639,0.0178927,-0.010789,0.0244928,0.000256293,-1.02179,0.0162438,0.0135603,1238,1730,6.33737,-28.9973
21,-706,6.35168,29.0336,0.00671722,0.0174883,-0.0107079,0.0240887,0.000116798,-1.0184,0.0160203,0.0126742,1245,1730,6.35168,-29.0336
28,-706,6.37671,29.0762,0.00634377,0.016601,-0.0107235,0.0233592,-0.000414395,-1.00845,0.0157128,0.0122865,1252,1730,6.37668,-29.0762
35,-706,6.39612,29.124,0.0056807,0.0154672,-0.0105448,0.0221987,-0.00105086,-1.00263,0.0151616,0.012467,1259,1730,6.39617,-29.1241
42,-706,6.42419,29.1578,0.00502689,0.0144297,-0.0103519,0.0210977,-0.00164118,-0.998551,0.0146429,0.0107053,1266,1730,6.4242,-29.1578
49,-706,6.44775,29.1785,0.00431952,0.0134158,-0.0099468,0.0198049,-0.00206964,-0.99983,0.0139445,0.0131406,1273,1730,6.44779,-29.1785
56,-706,6.47827,29.1886,0.00495714,0.0118803,-0.00890893,0.0179766,-0.00113907,-0.970698,0.0123815,0.0131439,1280,1730,6.4783,-29.1886
63,-706,6.49927,29.1995,0.00921032,0.0107437,-0.00764798,0.0176633,0.00229068,-0.835354,0.0110911,0.0115587,1287,1730,6.49928,-29.1995
70,-706,6.5105,29.196,0.0185222,0.0104522,-0.00809474,0.0235319,0.00544253,-0.554186,0.0142251,0.0121845,1294,1730,6.51048,-29.1961
77,-706,6.52087,29.2024,0.0242468,0.00933061,-0.00764412,0.0274684,0.00610901,-0.398858,0.0166537,0.0104029,1301,1730,6.52088,-29.2024
84,-706,6.53577,29.2067,0.0307564,0.00884591,-0.00738862,0.0330151,0.00658718,-0.296681,0.020176,0.00926154,1308,1730,6.53576,-29.2067
91,-706,6.56299,29.2164,0.0370995,0.00780703,-0.00698549,0.0386801,0.00622646,-0.222518,0.0239822,0.0109987,1315,1730,6.56299,-29.2164
98,-706,6.55798,29.2106,0.0435962,0.00741701,-0.00667266,0.0447876,0.00622558,-0.176692,0.0280147,0.0141509,1322,1730,6.55799,-29.2105
105,-706,6.57983,29.1848,0.0489029,0.00643519,-0.00634252,0.0498299,0.00550817,-0.145131,0.0315446,0.0153155,1329,1730,6.57982,-29.1848
112,-706,6.6145,29.1385,0.0523551,0.00545272,-0.0059739,0.053104,0.00470379,-0.124716,0.0339436,0.0153464,1336,1730,6.61446,-29.1386
119,-706,6.62671,29.0931,0.054128,0.00430089,-0.00594359,0.0548272,0.00360172,-0.117096,0.035412,0.0132449,1343,1730,6.62668,-29.0932
126,-706,6.66553,29.0464,0.0525048,0.00277834,-0.00553263,0.0531129,0.00217021,-0.109477,0.0347078,0.013977,1350,1730,6.66555,-29.0464
133,-706,6.71716,28.9906,0.049389,0.00140692,-0.00469408,0.0498439,0.000952011,-0.0966093,0.0329165,0.0119462,1357,1730,6.71712,-28.9906
140,-706,6.72705,28.8966,0.0443735,0.00033997,-0.00399296,0.0447326,-1.91815e-05,-0.089705,0.0298281,0.0119531,1364,1730,6.7271,-28.8966
147,-706,6.7533,28.8276,0.038628,-0.000620509,-0.00316905,0.0388822,-0.000874743,-0.0800521,0.0262179,0.0212006,1371,1730,6.75331,-28.8276
154,-706,6.7843,28.7845,0.0322194,-0.0011623,-0.00247835,0.0324024,-0.0013453,-0.0737043,0.0220637,0.0214696,1378,1730,6.78433,-28.7846
161,-706,6.75916,28.7064,0.0252264,-0.00136746,-0.00192798,0.0253654,-0.00150651,-0.0719954,0.0174341,0.0114345,1385,1730,6.7591,-28.7064
168,-706,6.76416,28.6205,0.0151143,-0.00138932,-0.00175519,0.0152989,-0.00157392,-0.10479,0.0107623,0.0107076,1392,1730,6.76412,-28.6204
175,-706,6.7926,28.53,0.00237793,-0.00201337,0.000858791,0.00253991,-0.00217534,0.18642,0.00272506,0.0111924,1399,1730,6.79259,-28.53
182,-706,6.81116,28.4158,0.00200157,-0.000664294,0.000750638,0.0021984,-0.000861121,0.256441,0.00182179,0.0118072,1406,1730,6.81119,-28.4158
189,-706,6.79736,28.3062,0.00170243,0.000109345,0.000659739,0.00194017,-0.000128392,0.345866,0.0013383,0.0144156,1413,1730,6.79733,-28.3061
196,-706,6.8103,28.1863,0.00115775,0.00122396,0.000555078,0.00174692,0.00063479,0.815183,0.00102106,0.0125033,1420,1730,6.81027,-28.1862
203,-706,6.82776,28.0823,0.000639451,0.000759946,0.000440522,0.00114432,0.000255076,0.853359,0.000693668,0.0137569,1427,1730,6.82771,-28.0823
210,-706,6.82349,27.9636,0.000320394,0.000657704,0.000334053,0.000863262,0.000114835,1.01917,0.000541305,0.013011,1434,1730,6.82349,-27.9636
217,-706,6.80298,27.86,3.9949e-05,0.00047329,0.000128955,0.000508761,4.47762e-06,1.30237,0.000337691,0.0137465,1441,1730,6.80299,-27.86
224,-706,6.776,27.7356,-4.62232e-05,0.000342712,-2.35961e-05,0.000344139,-4.76495e-05,-1.51042,0.000246847,0.0185662,1448,1730,6.77598,-27.7356
231,-706,6.81873,27.5706,-0.000123547,0.00020221,-0.000197969,0.000295693,-0.00021703,-1.12963,0.00029718,0.0134873,1455,1730,6.81874,-27.5705
238,-706,6.83655,27.4097,-6.30204e-05,6.54359e-05,-0.000340197,0.000347415,-0.000344999,-0.878698,0.000399766,0.0085746,1462,1730,6.83656,-27.4097
245,-706,6.83643,27.2383,0.00011573,-1.64837e-05,-0.000470665,0.000524908,-0.000425662,-0.715628,0.000549808,0.0110364,1469,1730,6.83642,-27.2383
252,-706,6.83423,27.0847,0.000239503,-7.51107e-05,-0.000637604,0.000738918,-0.000574526,-0.664456,0.000760295,0.0112816,1476,1730,6.83425,-27.0847
259,-706,6.83618,26.9288,0.000300071,-0.000137932,-0.000795312,0.000905984,-0.000743845,-0.651045,0.000954061,0.0122493,1483,1730,6.83612,-26.9288
266,-706,6.82629,26.7681,0.000328899,-8.20845e-05,-0.000980787,0.00112549,-0.000878675,-0.682133,0.00116003,0.0125381,1490,1730,6.8263,-26.7681
273,-706,6.81055,26.5806,0.00030222,0.000190561,-0.0011973,0.00144499,-0.00095221,-0.7621,0.00139374,0.0128973,1497,1730,6.8106,-26.5806
280,-706,6.80457,26.3942,0.000194758,0.000424013,-0.00147829,0.00179211,-0.00117334,-0.824091,0.00172449,0.0109749,1504,1730,6.80454,-26.3942
287,-706,6.78052,26.2084,0.000103835,0.000612645,-0.00167788,0.0020553,-0.00133882,-0.860636,0.0019741,0.0113931,1511,1730,6.78053,-26.2084
294,-706,6.79187,26.0321,-0.000101172,0.00102384,-0.00196719,0.00250736,-0.0015847,-0.924654,0.00238249,0.0104933,1518,1730,6.79188,-26.0321
301,-706,6.79456,25.8325,-0.000556722,0.00133534,-0.00222704,0.00280895,-0.00203033,-0.986246,0.00280599,0.0104397,1525,1730,6.79454,-25.8325
308,-706,6.79565,25.6146,-0.00120333,0.00135018,-0.00233134,0.00273148,-0.00258463,-1.03592,0.00306964,0.0124821,1532,1730,6.79563,-25.6146
315,-706,6.78442,25.4226,-0.00177289,0.0012245,-0.00235015,0.00251316,-0.00306154,-1.06924,0.00322374,0.0181618,1539,1730,6.78447,-25.4226
322,-706,6.75745,25.2714,-0.00230231,0.00103765,-0.00234954,0.00225023,-0.00351489,-1.09436,0.00335508,0.0251098,1546,1730,6.75747,-25.2714
329,-706,6.79175,24.9954,-0.00296157,0.000707467,-0.00207012,0.00163897,-0.00389307,-1.14796,0.00328111,0.0243651,1553,1730,6.79178,-24.9953
336,-706,6.75403,24.6458,-0.00340848,-0.000134749,-0.00170916,0.000594938,-0.00413816,-1.1673,0.00297697,0.0326171,1560,1730,6.75398,-24.6458
343,-706,6.76978,24.4674,-0.0038742,-0.0015664,-0.00127592,-0.000999995,-0.0044406,-1.15301,0.00268976,0.0386419,1567,1730,6.76978,-24.4674
350,-706,6.71997,24.3079,-0.00448489,-0.00351125,-0.000665578,-0.00317346,-0.00482269,-1.10115,0.00283035,0.0414413,1574,1730,6.71998,-24.3078
357,-706,6.54773,24.217,-0.00486823,-0.00636677,0.000502399,-0.00471538,-0.00651961,0.295332,0.00388717,0.0481636,1581,1730,6.5477,-24.2171
364,-706,6.73083,24.0857,0,0,0,0,0,0,0,-1,1588,1730,6.73079,-24.0856
371,-706,6.27881,24.0759,0,0,0,0,0,0,0,-1,1595,1730,6.27883,-24.0759
378,-706,5.92419,23.6315,0,0,0,0,0,0,0,-1,1602,1730,5.92421,-23.6315
385,-706,5.51501,23.2277,0,0,0,0,0,0,0,-1,1609,1730,5.51507,-23.2277
392,-706,5.10022,22.8113,0,0,0,0,0,0,0,-1,1616,1730,5.10016,-22.8113
399,-706,6.0332,16.6144,0,0,0,0,0,0,0,-1,1623,1730,6.03321,-16.6143
406,-706,6.04211,18.8085,0,0,0,0,0,0,0,-1,1630,1730,6.04216,-18.8085
413,-706,6.23413,20.7725,0,0,0,0,0,0,0,-1,1637,1730,6.23413,-20.7725
420,-706,6.51294,21.9171,0,0,0,0,0,0,0,-1,1644,1730,6.51292,-21.9171
427,-706,0,0,0,0,0,0,0,0,0,-1,1651,1730,0,0
434,-706,0,0,0,0,0,0,0,0,0,-1,1658,1730,0,0
441,-706,0,0,0,0,0,0,0,0,0,-1,1665,1730,0,0
448,-706,0,0,0,0,0,0,0,0,0,-1,1672,1730,0,0
455,-706,0,0,0,0,0,0,0,0,0,-1,1679,1730,0,0
462,-706,0,0,0,0,0,0,0,0,0,-1,1686,1730,0,0
469,-706,0,0,0,0,0,0,0,0,0,-1,1693,1730,0,0
476,-706,0,0,0,0,0,0,0,0,0,-1,1700,1730,0,0
483,-706,0,0,0,0,0,0,0,0,0,-1,1707,1730,0,0
490,-706,0,0,0,0,0,0,0,0,0,-1,1714,1730,0,0
497,-706,0,0,0,0,0,0,0,0,0,-1,1721,1730,0,0
504,-706,0,0,0,0,0,0,0,0,0,-1,1728,1730,0,0
511,-706,0,0,0,0,0,0,0,0,0,-1,1735,1730,0,0
518,-706,0,0,0,0,0,0,0,0,0,-1,1742,1730,0,0
525,-706,0,0,0,0,0,0,0,0,0,-1,1749,1730,0,0
532,-706,0,0,0,0,0,0,0,0,0,-1,1756,1730,0,0
539,-706,0,0,0,0,0,0,0,0,0,-1,1763,1730,0,0
546,-706,0,0,0,0,0,0,0,0,0,-1,1770,1730,0,0
553,-706,0,0,0,0,0,0,0,0,0,-1,1777,1730,0,0
560,-706,0,0,0,0,0,0,0,0,0,-1,1784,1730,0,0
567,-706,0,0,0,0,0,0,0,0,0,-1,1791,1730,0,0
574,-706,0,0,0,0,0,0,0,0,0,-1,1798,1730,0,0
581,-706,0,0,0,0,0,0,0,0,0,-1,1805,1730,0,0
588,-706,0,0,0,0,0,0,0,0,0,-1,1812,1730,0,0
595,-706,0,0,0,0,0,0,0,0,0,-1,1819,1730,0,0
602,-706,0,0,0,0,0,0,0,0,0,-1,1826,1730,0,0
609,-706,0,0,0,0,0,0,0,0,0,-1,1833,1730,0,0
616,-706,0,0,0,0,0,0,0,0,0,-1,1840,1730,0,0
623,-706,0,0,0,0,0,0,0,0,0,-1,1847,1730,0,0
630,-706,0,0,0,0,0,0,0,0,0,-1,1854,1730,0,0
637,-706,0,0,0,0,0,0,0,0,0,-1,1861,1730,0,0
644,-706,0,0,0,0,0,0,0,0,0,-1,1868,1730,0,0
651,-706,0,0,0,0,0,0,0,0,0,-1,1875,1730,0,0
658,-706,0,0,0,0,0,0,0,0,0,-1,1882,1730,0,0
665,-706,0,0,0,0,0,0,0,0,0,-1,1889,1730,0,0
672,-706,0,0,0,0,0,0,0,0,0,-1,1896,1730,0,0
679,-706,0,0,0,0,0,0,0,0,0,-1,1903,1730,0,0
686,-706,0,0,0,0,0,0,0,0,0,-1,1910,1730,0,0
693,-706,0,0,0,0,0,0,0,0,0,-1,1917,1730,0,0
700,-706,0,0,0,0,0,0,0,0,0,-1,1924,1730,0,0
707,-706,0,0,0,0,0,0,0,0,0,-1,1931,1730,0,0
714,-706,0,0,0,0,0,0,0,0,0,-1,1938,1730,0,0
721,-706,0,0,0,0,0,0,0,0,0,-1,1945,1730,0,0
728,-706,0,0,0,0,0,0,0,0,0,-1,1952,1730,0,0
735,-706,0,0,0,0,0,0,0,0,0,-1,1959,1730,0,0
742,-706,0,0,0,0,0,0,0,0,0,-1,1966,1730,0,0
749,-706,0,0,0,0,0,0,0,0,0,-1,1973,1730,0,0
756,-706,0,0,0,0,0,0,0,0,0,-1,1980,1730,0,0
763,-706,0,0,0,0,0,0,0,0,0,-1,1987,1730,0,0
770,-706,0,0,0,0,0,0,0,0,0,-1,1994,1730,0,0
777,-706,0,0,0,0,0,0,0,0,0,-1,2001,1730,0,0
784,-706,0,0,0,0,0,0,0,0,0,-1,2008,1730,0,0
791,-706,0,0,0,0,0,0,0,0,0,-1,2015,1730,0,0
798,-706,0,0,0,0,0,0,0,0,0,-1,2022,1730,0,0
805,-706,0,0,0,0,0,0,0,0,0,-1,2029,1730,0,0
812,-706,0,0,0,0,0,0,0,0,0,-1,2036,1730,0,0
-700,-713,0,0,0,0,0,0,0,0,0,-1,524,1737,0,0
-693,-713,0,0,0,0,0,0,0,0,0,-1,531,1737,0,0
-686,-713,0,0,0,0,0,0,0,0,0,-1,538,1737,0,0
-679,-713,0,0,0,0,0,0,0,0,0,-1,545,1737,0,0
-672,-713,0,0,0,0,0,0,0,0,0,-1,552,1737,0,0
-665,-713,0,0,0,0,0,0,0,0,0,-1,559,1737,0,0
-658,-713,0,0,0,0,0,0,0,0,0,-1,566,1737,0,0
-651,-713,0,0,0,0,0,0,0,0,0,-1,573,1737,0,0
-644,-713,0,0,0,0,0,0,0,0,0,-1,580,1737,0,0
-637,-713,0,0,0,0,0,0,0,0,0,-1,587,1737,0,0
-630,-713,0,0,0,0,0,0,0,0,0,-1,594,1737,0,0
-623,-713,0,0,0,0,0,0,0,0,0,-1,601,1737,0,0
-616,-713,0,0,0,0,0,0,0,0,0,-1,608,1737,0,0
-609,-713,0,0,0,0,0,0,0,0,0,-1,615,1737,0,0
-602,-713,0,0,0,0,0,0,0,0,0,-1,622,1737,0,0
-595,-713,0,0,0,0,0,0,0,0,0,-1,629,1737,0,0
-588,-713,0,0,0,0,0,0,0,0,0,-1,636,1737,0,0
-581,-713,0,0,0,0,0,0,0,0,0,-1,643,1737,0,0
-574,-713,0,0,0,0,0,0,0,0,0,-1,650,1737,0,0
-567,-713,0,0,0,0,0,0,0,0,0,-1,657,1737,0,0
-560,-713,0,0,0,0,0,0,0,0,0,-1,664,1737,0,0
-553,-713,0,0,0,0,0,0,0,0,0,-1,671,1737,0,0
-546,-713,0,0,0,0,0,0,0,0,0,-1,678,1737,0,0
-539,-713,0,0,0,0,0,0,0,0,0,-1,685,1737,0,0
-532,-713,0,0,0,0,0,0,0,0,0,-1,692,1737,0,0
-525,-713,0,0,0,0,0,0,0,0,0,-1,699,1737,0,0
-518,-713,0,0,0,0,0,0,0,0,0,-1,706,1737,0,0
-511,-713,0,0,0,0,0,0,0,0,0,-1,713,1737,0,0
-504,-713,0,0,0,0,0,0,0,0,0,-1,720,1737,0,0
-497,-713,0,0,0,0,0,0,0,0,0,-1,727,1737,0,0
-490,-713,0,0,0,0,0,0,0,0,0,-1,734,1737,0,0
-483,-713,0,0,0,0,0,0,0,0,0,-1,741,1737,0,0
-476,-713,0,0,0,0,0,0,0,0,0,-1,748,1737,0,0
-469,-713,0,0,0,0,0,0,0,0,0,-1,755,1737,0,0
-462,-713,0,0,0,0,0,0,0,0,0,-1,762,1737,0,0
-455,-713,0,0,0,0,0,0,0,0,0,-1,769,1737,0,0
-448,-713,0,0,0,0,0,0,0,0,0,-1,776,1737,0,0
-441,-713,0,0,0,0,0,0,0,0,0,-1,783,1737,0,0
-434,-713,0,0,0,0,0,0,0,0,0,-1,790,1737,0,0
-427,-713,0,0,0,0,0,0,0,0,0,-1,797,1737,0,0
-420,-713,0,0,0,0,0,0,0,0,0,-1,804,1737,0,0
-413,-713,0,0,0,0,0,0,0,0,0,-1,811,1737,0,0
-406,-713,0,0,0,0,0,0,0,0,0,-1,818,1737,0,0
-399,-713,0,0,0,0,0,0,0,0,0,-1,825,1737,0,0
-392,-713,0,0,0,0,0,0,0,0,0,-1,832,1737,0,0
-385,-713,0,0,0,0,0,0,0,0,0,-1,839,1737,0,0
-378,-713,0,0,0,0,0,0,0,0,0,-1,846,1737,0,0
-371,-713,0,0,0,0,0,0,0,0,0,-1,853,1737,0,0
-364,-713,0,0,0,0,0,0,0,0,0,-1,860,1737,0,0
-357,-713,0,0,0,0,0,0,0,0,0,-1,867,1737,0,0
-350,-713,0,0,0,0,0,0,0,0,0,-1,874,1737,0,0
-343,-713,0,0,0,0,0,0,0,0,0,-1,881,1737,0,0
-336,-713,0,0,0,0,0,0,0,0,0,-1,888,1737,0,0
-329,-713,0,0,0,0,0,0,0,0,0,-1,895,1737,0,0
-322,-713,0,0,0,0,0,0,0,0,0,-1,902,1737,0,0
-315,-713,0,0,0,0,0,0,0,0,0,-1,909,1737,0,0
-308,-713,0,0,0,0,0,0,0,0,0,-1,916,1737,0,0
-301,-713,0,0,0,0,0,0,0,0,0,-1,923,1737,0,0
-294,-713,7.17883,22.0453,0,0,0,0,0,0,0,-1,930,1737,7.17881,-22.0453
-287,-713,11.8916,21.5834,0,0,0,0,0,0,0,-1,937,1737,11.8916,-21.5833
-280,-713,10.2786,21.3551,0,0,0,0,0,0,0,-1,944,1737,10.2787,-21.3551
-273,-713,11.1981,23.8683,0,0,0,0,0,0,0,-1,951,1737,11.198,-23.8683
-266,-713,3.17981,19.8851,0,0,0,0,0,0,0,-1,958,1737,3.17983,-19.8851
-259,-713,3.5921,19.6868,0,0,0,0,0,0,0,-1,965,1737,3.59207,-19.6868
-252,-713,4.55469,20.5758,0,0,0,0,0,0,0,-1,972,1737,4.55466,-20.5758
-245,-713,3.89014,25.9825,0,0,0,0,0,0,0,-1,979,1737,3.89013,-25.9826
-238,-713,5.06873,23.7134,0,0,0,0,0,0,0,-1,986,1737,5.06872,-23.7133
-231,-713,7.57281,19.7676,0,0,0,0,0,0,0,-1,993,1737,7.5728,-19.7676
-224,-713,6.49646,23.7599,0,0,0,0,0,0,0,-1,1000,1737,6.49645,-23.7598
-217,-713,6.60828,23.6388,0,0,0,0,0,0,0,-1,1007,1737,6.60829,-23.6388
-210,-713,6.57538,23.9418,0,0,0,0,0,0,0,-1,1014,1737,6.57538,-23.9418
-203,-713,6.24548,24.8999,0,0,0,0,0,0,0,-1,1021,1737,6.24544,-24.9
-196,-713,5.8147,24.892,0,0,0,0,0,0,0,-1,1028,1737,5.81475,-24.892
-189,-713,6.73865,24.7742,-0.00185929,-0.00240826,0.00184899,-0.000264517,-0.00400303,0.711711,0.00258503,0.0423818,1035,1737,6.73859,-24.7741
-182,-713,6.3175,24.9659,-0.00122057,-0.00100597,0.00259438,0.00148333,-0.00370987,0.806065,0.00308879,0.027911,1042,1737,6.31746,-24.966
-175,-713,6.44543,25.0995,-0.0005981,0.000574996,0.00315189,0.00319445,-0.00321756,0.877393,0.00370198,0.0261503,1049,1737,6.44539,-25.0994
-168,-713,6.56482,25.264,-0.000227632,0.0018743,0.00374915,0.004717,-0.00307033,0.922052,0.0045294,0.033923,1056,1737,6.56482,-25.2641
-161,-713,6.44434,25.5917,6.70639e-05,0.00275912,0.00404626,0.00567737,-0.00285118,0.94597,0.00501327,0.0176369,1063,1737,6.4444,-25.5917
-154,-713,6.3988,25.8347,0.000416999,0.00348956,0.00411524,0.00634593,-0.00243937,0.964045,0.00523668,0.0120267,1070,1737,6.39878,-25.8347
-147,-713,6.36145,26.0508,0.00064792,0.00428124,0.00398813,0.00684698,-0.00191782,0.999115,0.00532042,0.0185864,1077,1737,6.36145,-26.0508
-140,-713,6.37488,26.2551,0.000677935,0.00451532,0.0038059,0.00685882,-0.00166557,1.01887,0.00521712,0.0183427,1084,1737,6.37482,-26.2551
-133,-713,6.35901,26.4218,0.000866418,0.00453288,0.00360799,0.00674667,-0.00134736,1.02045,0.00500769,0.0112556,1091,1737,6.35905,-26.4217
-126,-713,6.33484,26.5851,0.000697776,0.00439543,0.00316382,0.00621101,-0.00111781,1.04982,0.00455919,0.0173364,1098,1737,6.33481,-26.5851
-119,-713,6.31079,26.7284,0.00041964,0.00418232,0.00273058,0.00561692,-0.00101497,1.08705,0.00412478,0.0252442,1105,1737,6.31074,-26.7284
-112,-713,6.30945,26.9692,0.000406236,0.00379734,0.00232789,0.00498171,-0.000778137,1.10015,0.0036086,0.0124408,1112,1737,6.3094,-26.9693
-105,-713,6.31531,27.1412,0.000369794,0.00334363,0.00178996,0.00418371,-0.00047028,1.13199,0.00295838,0.00987007,1119,1737,6.31537,-27.1413
-98,-713,6.31873,27.2886,0.000241204,0.00295519,0.00141591,0.00355938,-0.000362986,1.16747,0.0025027,0.0099598,1126,1737,6.31872,-27.2886
-91,-713,6.30017,27.4425,0.000188877,0.00240911,0.00101891,0.00280583,-0.000207837,1.1995,0.00194354,0.0103202,1133,1737,6.30012,-27.4425
-84,-713,6.27917,27.5969,0.000175547,0.00208512,0.000792767,0.00237134,-0.000110673,1.22432,0.00161905,0.0096869,1140,1737,6.27917,-27.5969
-77,-713,6.27649,27.7411,0.000357428,0.00193624,0.000626228,0.00215447,0.000139202,1.23548,0.00139223,0.0123553,1147,1737,6.27647,-27.7411
-70,-713,6.26489,27.8698,0.000565571,0.00167062,0.000402684,0.00180179,0.000434402,1.2559,0.00108576,0.013784,1154,1737,6.26491,-27.8698
-63,-713,6.28442,28.0137,0.000690003,0.00141113,0.000239812,0.0014836,0.000617536,1.27734,0.000860554,0.0125888,1161,1737,6.28445,-28.0137
-56,-713,6.32202,28.1411,0.00088753,0.00122883,0.000166673,0.00129672,0.000819639,1.18399,0.000757319,0.0128819,1168,1737,6.32199,-28.1411
-49,-713,6.28662,28.2506,0.00118177,0.00186955,-0.000338773,0.00200839,0.00104293,-1.18185,0.00115983,0.0144367,1175,1737,6.28667,-28.2506
-42,-713,6.28918,28.3429,0.00147923,0.00271403,-0.00095688,0.00323541,0.000957862,-1.0719,0.00191906,0.0165763,1182,1737,6.2892,-28.3429
-35,-713,6.31165,28.4423,0.00204516,0.00373247,-0.00162552,0.00472023,0.0010574,-1.02477,0.00286026,0.0139308,1189,1737,6.31161,-28.4422
-28,-713,6.32642,28.5563,0.00249152,0.00499227,-0.00226503,0.00632913,0.00115466,-1.0376,0.00389205,0.0129232,1196,1737,6.32644,-28.5563
-21,-713,6.32397,28.6503,0.0027767,0.0061161,-0.00281298,0.0077176,0.0011752,-1.05324,0.00480152,0.00912852,1203,1737,6.32397,-28.6503
-14,-713,6.34521,28.703,0.00315724,0.00719179,-0.00334986,0.00908488,0.00126415,-1.05641,0.00568227,0.0101725,1210,1737,6.34516,-28.7029
-7,-713,6.36633,28.7863,0.00349852,0.00806858,-0.00377958,0.0102002,0.00136693,-1.05729,0.00639337,0.00922249,1217,1737,6.36633,-28.7862
0,-713,6.37549,28.8625,0.00380615,0.0089983,-0.00405867,0.0112201,0.0015843,-1.06993,0.00701192,0.0143685,1224,1737,6.37552,-28.8626
7,-713,6.39026,28.9279,0.00405715,0.00955367,-0.00422087,0.0118421,0.00176867,-1.07398,0.00737623,0.01768,1231,1737,6.39022,-28.9279
14,-713,6.40405,28.9961,0.00372123,0.00957185,-0.00407502,0.0116628,0.00163024,-1.09671,0.00729281,0.0125445,1238,1737,6.40403,-28.9961
21,-713,6.40442,29.0415,0.00358022,0.00936012,-0.00384099,0.0112769,0.0016634,-1.10792,0.0070294,0.0103538,1245,1737,6.40443,-29.0415
28,-713,6.40186,29.0839,0.00334827,0.00884213,-0.00365402,0.0106666,0.00152382,-1.10771,0.00666147,0.0108062,1252,1737,6.40187,-29.0838
35,-713,6.41809,29.1385,0.00296933,0.00822226,-0.00334615,0.00984962,0.00134197,-1.11814,0.00616795,0.0109024,1259,1737,6.41808,-29.1386
42,-713,6.44775,29.1796,0.00269235,0.00770344,-0.00316997,0.00923849,0.00115729,-1.11983,0.00581177,0.0104859,1266,1737,6.44781,-29.1795
49,-713,6.46143,29.1819,0.00235879,0.00725202,-0.00294851,0.00863681,0.000973998,-1.13172,0.00546223,0.0109904,1273,1737,6.46144,-29.1819
56,-713,6.47839,29.1814,0.00210675,0.00663453,-0.0025872,0.00780849,0.000932792,-1.14482,0.00492427,0.0116496,1280,1737,6.47836,-29.1814
63,-713,6.48364,29.2076,0.00196357,0.00592353,-0.0025619,0.00718139,0.000705699,-1.11438,0.00457056,0.0117822,1287,1737,6.48366,-29.2076
70,-713,6.50256,29.2164,0.00197058,0.00527448,-0.00259516,0.00669886,0.000546208,-1.06883,0.00429543,0.0116598,1294,1737,6.50251,-29.2164
77,-713,6.52307,29.2284,0.00214703,0.00442567,-0.00269197,0.00620949,0.000363215,-0.985583,0.00402406,0.0114836,1301,1737,6.52306,-29.2284
84,-713,6.53821,29.2488,0.0024331,0.00389657,-0.00287867,0.00613505,0.000194626,-0.909858,0.00402673,0.0118066,1308,1737,6.53822,-29.2488
91,-713,6.53564,29.2297,0.00264451,0.00294334,-0.002902,0.00569977,-0.000111916,-0.811119,0.0038377,0.0123216,1315,1737,6.53561,-29.2297
98,-713,6.52563,29.2041,0.0029506,0.00234503,-0.00287535,0.00553907,-0.000243435,-0.73294,0.00377647,0.0116051,1322,1737,6.52565,-29.2041
105,-713,6.55286,29.1725,0.00327483,0.00134927,-0.00277801,0.00525217,-0.000628065,-0.618589,0.00372847,0.0131402,1329,1737,6.5529,-29.1725
112,-713,6.59521,29.1378,0.00350713,0.000409318,-0.00255573,0.00494668,-0.00103023,-0.512969,0.00368946,0.0136568,1336,1737,6.59525,-29.1378
119,-713,6.6123,29.0969,0.00394732,-0.000528003,-0.00243971,0.00502015,-0.00160083,-0.414285,0.00398892,0.0145409,1343,1737,6.61227,-29.0969
126,-713,6.61768,29.0795,0.00375385,-0.00151685,-0.00210798,0.0044932,-0.0022562,-0.337336,0.00396747,0.0135544,1350,1737,6.61766,-29.0795
133,-713,6.63208,29.0334,0.003495,-0.00221697,-0.0015831,0.00390442,-0.00262639,-0.253073,0.00379455,0.0124443,1357,1737,6.63212,-29.0335
140,-713,6.64978,28.9391,0.00324342,-0.00254038,-0.00119787,0.00348169,-0.00277865,-0.196351,0.003622,0.013391,1364,1737,6.6498,-28.9391
147,-713,6.67468,28.85,0.00287777,-0.00267591,-0.000748708,0.00297693,-0.00277508,-0.131681,0.00332161,0.0147295,1371,1737,6.67472,-28.8499
154,-713,6.68298,28.8016,0.00253343,-0.00249216,-0.000434385,0.0025707,-0.00252943,-0.0855887,0.00294459,0.0148637,1378,1737,6.68293,-28.8016
161,-713,6.67529,28.7115,0.00213757,-0.00220153,-0.000103456,0.00214004,-0.002204,-0.0238246,0.00250812,0.0106077,1385,1737,6.67531,-28.7115
168,-713,6.67236,28.616,0.00176096,-0.00140069,0.00020343,0.00177399,-0.00141373,0.0639913,0.00184434,0.0100934,1392,1737,6.67231,-28.6159
175,-713,6.67554,28.5134,0.00125251,-0.000542406,0.000241479,0.00128443,-0.000574326,0.131423,0.00109895,0.0140024,1399,1737,6.67551,-28.5134
182,-713,6.68884,28.4226,0.000898775,0.000224401,0.000134517,0.000924617,0.000198559,0.189796,0.00056204,0.0126769,1406,1737,6.68887,-28.4226
189,-713,6.69153,28.3038,0.000625367,0.000608954,4.04605e-05,0.000658445,0.000575876,0.685342,0.000414193,0.0114859,1413,1737,6.6915,-28.3038
196,-713,6.70471,28.197,0.00027483,0.0010423,-7.36907e-05,0.00104931,0.000267818,-1.47593,0.000629552,0.0127101,1420,1737,6.70466,-28.1971
203,-713,6.71277,28.0991,-5.81691e-05,0.00086072,-0.000189429,0.000898238,-9.56878e-05,-1.37526,0.000633136,0.017407,1427,1737,6.71272,-28.0991
210,-713,6.69299,27.9674,-0.000289236,0.000805096,-0.000265179,0.000865968,-0.000350109,-1.34515,0.000722852,0.0142893,1434,1737,6.69305,-27.9674
217,-713,6.68152,27.8495,-0.000462329,0.000703942,-0.00044686,0.00085547,-0.000613857,-1.24387,0.000852131,0.0114119,1441,1737,6.68157,-27.8495
224,-713,6.66492,27.722,-0.000496578,0.000555743,-0.000629214,0.000849799,-0.000790634,-1.13362,0.000947309,0.0123234,1448,1737,6.66492,-27.7221
231,-713,6.68042,27.5731,-0.000551197,0.000370715,-0.000776142,0.000812465,-0.000992947,-1.05336,0.00104409,0.0113207,1455,1737,6.68045,-27.5731
238,-713,6.67969,27.408,-0.000457719,0.000184398,-0.000878898,0.000799043,-0.00107236,-0.960516,0.00108429,0.0083026,1462,1737,6.67972,-27.408
245,-713,6.70105,27.2383,-0.000198751,9.06588e-05,-0.000996225,0.000952634,-0.00106073,-0.85752,0.00116297,0.0113323,1469,1737,6.70105,-27.2383
252,-713,6.70654,27.0782,-5.03323e-06,3.39308e-05,-0.00117193,0.00118654,-0.00115765,-0.793709,0.00135345,0.0119493,1476,1737,6.70656,-27.0783
259,-713,6.70679,26.9235,8.3261e-05,-3.37139e-05,-0.00133159,0.00135764,-0.0013081,-0.763451,0.00153915,0.0120226,1483,1737,6.70685,-26.9235
266,-713,6.68079,26.7581,0.000128006,6.75733e-05,-0.00153706,0.00163515,-0.00143957,-0.77557,0.00177639,0.0107766,1490,1737,6.6808,-26.758
273,-713,6.64233,26.5953,0.000133987,0.000456227,-0.00180072,0.00210302,-0.00151281,-0.830017,0.00209685,0.00941781,1497,1737,6.64238,-26.5953
280,-713,6.62122,26.4153,3.8808e-05,0.000832151,-0.00213759,0.00260957,-0.00173861,-0.877139,0.00252715,0.0105736,1504,1737,6.6212,-26.4153
287,-713,6.6012,26.2429,6.57346e-06,0.00111966,-0.00239467,0.00302161,-0.00189537,-0.899576,0.00286354,0.0116282,1511,1737,6.60118,-26.243
294,-713,6.62476,26.0814,-0.000179967,0.00170842,-0.00276634,0.00368727,-0.00215881,-0.949857,0.00341347,0.017979,1518,1737,6.62478,-26.0815
301,-713,6.65784,25.8917,-0.000703119,0.0021885,-0.00308595,0.00415054,-0.00266516,-1.00447,0.00396607,0.0204606,1525,1737,6.65785,-25.8917
308,-713,6.63416,25.6733,-0.00148777,0.00230175,-0.0032146,0.00413844,-0.00332446,-1.0517,0.00431724,0.0209941,1532,1737,6.63421,-25.6734
315,-713,6.56604,25.4401,-0.002226,0.00223433,-0.00323814,0.00393598,-0.00392765,-1.08695,0.00454007,0.0263859,1539,1737,6.56598,-25.4401
322,-713,6.56628,25.0765,-0.00293918,0.00204733,-0.00321564,0.00362306,-0.00451492,-1.11516,0.00470786,0.0393358,1546,1737,6.56631,-25.0765
329,-713,6.76306,25.4539,0,0,0,0,0,0,0,-1,1553,1737,6.76311,-25.4539
336,-713,6.22998,25.1779,0,0,0,0,0,0,0,-1,1560,1737,6.22995,-25.1778
343,-713,5.69678,24.9017,0,0,0,0,0,0,0,-1,1567,1737,5.69678,-24.9018
350,-713,6.40222,24.3246,0,0,0,0,0,0,0,-1,1574,1737,6.40224,-24.3246
357,-713,6.30457,24.2897,0,0,0,0,0,0,0,-1,1581,1737,6.30457,-24.2897
364,-713,7.35474,20.9537,0,0,0,0,0,0,0,-1,1588,1737,7.35472,-20.9537
371,-713,5.89465,23.9154,0,0,0,0,0,0,0,-1,1595,1737,5.89463,-23.9155
378,-713,5.39514,23.4774,0,0,0,0,0,0,0,-1,1602,1737,5.39513,-23.4774
385,-713,4.89343,23.2245,0,0,0,0,0,0,0,-1,1609,1737,4.89341,-23.2245
392,-713,4.23035,23.1071,0,0,0,0,0,0,0,-1,1616,1737,4.23034,-23.107
399,-713,3.36182,16.5532,0,0,0,0,0,0,0,-1,1623,1737,3.36185,-16.5532
406,-713,2.97656,16.4902,0,0,0,0,0,0,0,-1,1630,1737,2.97656,-16.4902
413,-713,3.24731,18.2787,0,0,0,0,0,0,0,-1,1637,1737,3.24726,-18.2787
420,-713,0,0,0,0,0,0,0,0,0,-1,1644,1737,0,0
427,-713,0,0,0,0,0,0,0,0,0,-1,1651,1737,0,0
434,-713,0,0,0,0,0,0,0,0,0,-1,1658,1737,0,0
441,-713,0,0,0,0,0,0,0,0,0,-1,1665,1737,0,0
448,-713,0,0,0,0,0,0,0,0,0,-1,1672,1737,0,0
455,-713,0,0,0,0,0,0,0,0,0,-1,1679,1737,0,0
462,-713,0,0,0,0,0,0,0,0,0,-1,1686,1737,0,0
469,-713,0,0,0,0,0,0,0,0,0,-1,1693,1737,0,0
476,-713,0,0,0,0,0,0,0,0,0,-1,1700,1737,0,0
483,-713,0,0,0,0,0,0,0,0,0,-1,1707,1737,0,0
490,-713,0,0,0,0,0,0,0,0,0,-1,1714,1737,0,0
497,-713,0,0,0,0,0,0,0,0,0,-1,1721,1737,0,0
504,-713,0,0,0,0,0,0,0,0,0,-1,1728,1737,0,0
511,-713,0,0,0,0,0,0,0,0,0,-1,1735,1737,0,0
518,-713,0,0,0,0,0,0,0,0,0,-1,1742,1737,0,0
525,-713,0,0,0,0,0,0,0,0,0,-1,1749,1737,0,0
532,-713,0,0,0,0,0,0,0,0,0,-1,1756,1737,0,0
539,-713,0,0,0,0,0,0,0,0,0,-1,1763,1737,0,0
546,-713,0,0,0,0,0,0,0,0,0,-1,1770,1737,0,0
553,-713,0,0,0,0,0,0,0,0,0,-1,1777,1737,0,0
560,-713,0,0,0,0,0,0,0,0,0,-1,1784,1737,0,0
567,-713,0,0,0,0,0,0,0,0,0,-1,1791,1737,0,0
574,-713,0,0,0,0,0,0,0,0,0,-1,1798,1737,0,0
581,-713,0,0,0,0,0,0,0,0,0,-1,1805,1737,0,0
588,-713,0,0,0,0,0,0,0,0,0,-1,1812,1737,0,0
595,-713,0,0,0,0,0,0,0,0,0,-1,1819,1737,0,0
602,-713,0,0,0,0,0,0,0,0,0,-1,1826,1737,0,0
609,-713,0,0,0,0,0,0,0,0,0,-1,1833,1737,0,0
616,-713,0,0,0,0,0,0,0,0,0,-1,1840,1737,0,0
623,-713,0,0,0,0,0,0,0,0,0,-1,1847,1737,0,0
630,-713,0,0,0,0,0,0,0,0,0,-1,1854,1737,0,0
637,-713,0,0,0,0,0,0,0,0,0,-1,1861,1737,0,0
644,-713,0,0,0,0,0,0,0,0,0,-1,1868,1737,0,0
651,-713,0,0,0,0,0,0,0,0,0,-1,1875,1737,0,0
658,-713,0,0,0,0,0,0,0,0,0,-1,1882,1737,0,0
665,-713,0,0,0,0,0,0,0,0,0,-1,1889,1737,0,0
672,-713,0,0,0,0,0,0,0,0,0,-1,1896,1737,0,0
679,-713,0,0,0,0,0,0,0,0,0,-1,1903,1737,0,0
686,-713,0,0,0,0,0,0,0,0,0,-1,1910,1737,0,0
693,-713,0,0,0,0,0,0,0,0,0,-1,1917,1737,0,0
700,-713,0,0,0,0,0,0,0,0,0,-1,1924,1737,0,0
707,-713,0,0,0,0,0,0,0,0,0,-1,1931,1737,0,0
714,-713,0,0,0,0,0,0,0,0,0,-1,1938,1737,0,0
721,-713,0,0,0,0,0,0,0,0,0,-1,1945,1737,0,0
728,-713,0,0,0,0,0,0,0,0,0,-1,1952,1737,0,0
735,-713,0,0,0,0,0,0,0,0,0,-1,1959,1737,0,0
742,-713,0,0,0,0,0,0,0,0,0,-1,1966,1737,0,0
749,-713,0,0,0,0,0,0,0,0,0,-1,1973,1737,0,0
756,-713,0,0,0,0,0,0,0,0,0,-1,1980,1737,0,0
763,-713,0,0,0,0,0,0,0,0,0,-1,1987,1737,0,0
770,-713,0,0,0,0,0,0,0,0,0,-1,1994,1737,0,0
777,-713,0,0,0,0,0,0,0,0,0,-1,2001,1737,0,0
784,-713,0,0,0,0,0,0,0,0,0,-1,2008,1737,0,0
791,-713,0,0,0,0,0,0,0,0,0,-1,2015,1737,0,0
798,-713,0,0,0,0,0,0,0,0,0,-1,2022,1737,0,0
805,-713,0,0,0,0,0,0,0,0,0,-1,2029,1737,0,0
812,-713,0,0,0,0,0,0,0,0,0,-1,2036,1737,0,0
-700,-720,0,0,0,0,0,0,0,0,0,-1,524,1744,0,0
-693,-720,0,0,0,0,0,0,0,0,0,-1,531,1744,0,0
-686,-720,0,0,0,0,0,0,0,0,0,-1,538,1744,0,0
-679,-720,0,0,0,0,0,0,0,0,0,-1,545,1744,0,0
-672,-720,0,0,0,0,0,0,0,0,0,-1,552,1744,0,0
-665,-720,0,0,0,0,0,0,0,0,0,-1,559,1744,0,0
-658,-720,0,0,0,0,0,0,0,0,0,-1,566,1744,0,0
-651,-720,0,0,0,0,0,0,0,0,0,-1,573,1744,0,0
-644,-720,0,0,0,0,0,0,0,0,0,-1,580,1744,0,0
-637,-720,0,0,0,0,0,0,0,0,0,-1,587,1744,0,0
-630,-720,0,0,0,0,0,0,0,0,0,-1,594,1744,0,0
-623,-720,0,0,0,0,0,0,0,0,0,-1,601,1744,0,0
-616,-720,0,0,0,0,0,0,0,0,0,-1,608,1744,0,0
-609,-720,0,0,0,0,0,0,0,0,0,-1,615,1744,0,0
-602,-720,0,0,0,0,0,0,0,0,0,-1,622,1744,0,0
-595,-720,0,0,0,0,0,0,0,0,0,-1,629,1744,0,0
-588,-720,0,0,0,0,0,0,0,0,0,-1,636,1744,0,0
-581,-720,0,0,0,0,0,0,0,0,0,-1,643,1744,0,0
-574,-720,0,0,0,0,0,0,0,0,0,-1,650,1744,0,0
-567,-720,0,0,0,0,0,0,0,0,0,-1,657,1744,0,0
-560,-720,0,0,0,0,0,0,0,0,0,-1,664,1744,0,0
-553,-720,0,0,0,0,0,0,0,0,0,-1,671,1744,0,0
-546,-720,0,0,0,0,0,0,0,0,0,-1,678,1744,0,0
-539,-720,0,0,0,0,0,0,0,0,0,-1,685,1744,0,0
-532,-720,0,0,0,0,0,0,0,0,0,-1,692,1744,0,0
-525,-720,0,0,0,0,0,0,0,0,0,-1,699,1744,0,0
-518,-720,0,0,0,0,0,0,0,0,0,-1,706,1744,0,0
-511,-720,0,0,0,0,0,0,0,0,0,-1,713,1744,0,0
-504,-720,0,0,0,0,0,0,0,0,0,-1,720,1744,0,0
-497,-720,0,0,0,0,0,0,0,0,0,-1,727,1744,0,0
-490,-720,0,0,0,0,0,0,0,0,0,-1,734,1744,0,0
-483,-720,0,0,0,0,0,0,0,0,0,-1,741,1744,0,0
-476,-720,0,0,0,0,0,0,0,0,0,-1,748,1744,0,0
-469,-720,0,0,0,0,0,0,0,0,0,-1,755,1744,0,0
-462,-720,0,0,0,0,0,0,0,0,0,-1,762,1744,0,0
-455,-720,0,0,0,0,0,0,0,0,0,-1,769,1744,0,0
-448,-720,0,0,0,0,0,0,0,0,0,-1,776,1744,0,0
-441,-720,0,0,0,0,0,0,0,0,0,-1,783,1744,0,0
-434,-720,0,0,0,0,0,0,0,0,0,-1,790,1744,0,0
-427,-720,0,0,0,0,0,0,0,0,0,-1,797,1744,0,0
-420,-720,0,0,0,0,0,0,0,0,0,-1,804,1744,0,0
-413,-720,0,0,0,0,0,0,0,0,0,-1,811,1744,0,0
-406,-720,0,0,0,0,0,0,0,0,0,-1,818,1744,0,0
-399,-720,0,0,0,0,0,0,0,0,0,-1,825,1744,0,0
-392,-720,0,0,0,0,0,0,0,0,0,-1,832,1744,0,0
-385,-720,0,0,0,0,0,0,0,0,0,-1,839,1744,0,0
-378,-720,0,0,0,0,0,0,0,0,0,-1,846,1744,0,0
-371,-720,0,0,0,0,0,0,0,0,0,-1,853,1744,0,0
-364,-720,0,0,0,0,0,0,0,0,0,-1,860,1744,0,0
-357,-720,0,0,0,0,0,0,0,0,0,-1,867,1744,0,0
-350,-720,0,0,0,0,0,0,0,0,0,-1,874,1744,0,0
-343,-720,0,0,0,0,0,0,0,0,0,-1,881,1744,0,0
-336,-720,0,0,0,0,0,0,0,0,0,-1,888,1744,0,0
-329,-720,0,0,0,0,0,0,0,0,0,-1,895,1744,0,0
-322,-720,0,0,0,0,0,0,0,0,0,-1,902,1744,0,0
-315,-720,0,0,0,0,0,0,0,0,0,-1,909,1744,0,0
-308,-720,0,0,0,0,0,0,0,0,0,-1,916,1744,0,0
-301,-720,0,0,0,0,0,0,0,0,0,-1,923,1744,0,0
-294,-720,0,0,0,0,0,0,0,0,0,-1,930,1744,0,0
-287,-720,0,0,0,0,0,0,0,0,0,-1,937,1744,0,0
-280,-720,6.46796,22.6417,0,0,0,0,0,0,0,-1,944,1744,6.46793,-22.6417
-273,-720,8.54633,13.262,0,0,0,0,0,0,0,-1,951,1744,8.54636,-13.2619
-266,-720,7.28027,13.3165,0,0,0,0,0,0,0,-1,958,1744,7.28026,-13.3166
-259,-720,3.70563,18.6372,0,0,0,0,0,0,0,-1,965,1744,3.70564,-18.6372
-252,-720,4.00989,18.5059,0,0,0,0,0,0,0,-1,972,1744,4.00988,-18.5058
-245,-720,4.63318,20.3199,0,0,0,0,0,0,0,-1,979,1744,4.6332,-20.32
-238,-720,5.02216,24.1455,0,0,0,0,0,0,0,-1,986,1744,5.02217,-24.1455
-231,-720,6.34106,21.7759,0,0,0,0,0,0,0,-1,993,1744,6.34103,-21.7758
-224,-720,7.65991,19.4061,0,0,0,0,0,0,0,-1,1000,1744,7.6599,-19.4061
-217,-720,7.33716,20.2433,0,0,0,0,0,0,0,-1,1007,1744,7.33715,-20.2432
-210,-720,7.36743,23.2506,0,0,0,0,0,0,0,-1,1014,1744,7.3674,-23.2506
-203,-720,6.31091,25.2855,0,0,0,0,0,0,0,-1,1021,1744,6.31093,-25.2855
-196,-720,6.45947,24.0579,0,0,0,0,0,0,0,-1,1028,1744,6.45949,-24.0578
-189,-720,7.23486,24.8834,0,0,0,0,0,0,0,-1,1035,1744,7.23488,-24.8834
-182,-720,6.39417,25.0575,-0.000737546,-0.00051732,0.00389011,0.00326423,-0.0045191,0.799547,0.00451313,0.0482276,1042,1744,6.39415,-25.0575
-175,-720,6.56384,25.2955,-4.36311e-05,0.00163388,0.00477573,0.00564395,-0.00405371,0.872326,0.00562398,0.0449839,1049,1744,6.56388,-25.2956
-168,-720,6.74109,25.3297,0.000380366,0.00336854,0.005593,0.00766358,-0.00391467,0.915918,0.0068005,0.0426323,1056,1744,6.7411,-25.3297
-161,-720,6.40039,25.5419,0.00069087,0.00449954,0.00596344,0.00885532,-0.00366491,0.939948,0.00743273,0.0380817,1063,1744,6.40038,-25.5419
-154,-720,6.57788,25.8894,0.00101207,0.00535237,0.00603332,0.00959397,-0.00322952,0.95804,0.0077016,0.0309572,1070,1744,6.57783,-25.8894
-147,-720,6.52246,26.171,0.00116259,0.00621852,0.00583355,0.0100483,-0.00266719,0.989859,0.00774261,0.028033,1077,1744,6.52245,-26.171
-140,-720,6.55432,26.3511,0.00107247,0.00636973,0.0055227,0.00984609,-0.00240388,1.00899,0.00749498,0.0216539,1084,1744,6.55429,-26.351
-133,-720,6.53503,26.4476,0.0011715,0.00625453,0.00518368,0.00948621,-0.00206019,1.01332,0.00711105,0.0143371,1091,1744,6.53508,-26.4476
-126,-720,6.50439,26.606,0.000834765,0.00594105,0.00455761,0.00861192,-0.00183611,1.04072,0.00644115,0.0131371,1098,1744,6.50438,-26.606
-119,-720,6.47925,26.7765,0.000378536,0.00554374,0.00392564,0.00766012,-0.00173785,1.07635,0.00577388,0.0145382,1105,1744,6.47919,-26.7765
-112,-720,6.46973,26.9644,0.000259143,0.0049527,0.00333234,0.00668168,-0.00146984,1.09218,0.0050167,0.0130596,1112,1744,6.46969,-26.9643
-105,-720,6.46716,27.1396,0.000120099,0.00431441,0.002603,0.00555996,-0.00112545,1.12449,0.00413318,0.0125224,1119,1744,6.46721,-27.1396
-98,-720,6.46326,27.2729,-0.000134007,0.00379063,0.00207928,0.00468735,-0.00103073,1.16363,0.00351916,0.0101195,1126,1744,6.4633,-27.2729
-91,-720,6.43909,27.4261,-0.000316675,0.00300065,0.00147666,0.00356273,-0.000878755,1.20709,0.00271588,0.00945952,1133,1744,6.43914,-27.4262
-84,-720,6.41785,27.6017,-0.000462926,0.00253005,0.00112965,0.00290855,-0.000841427,1.24749,0.00227205,0.0102403,1140,1744,6.41787,-27.6017
-77,-720,6.41333,27.7493,-0.000366838,0.00226047,0.000964491,0.00257652,-0.000682886,1.25414,0.00198486,0.0126283,1147,1744,6.41328,-27.7493
-70,-720,6.40808,27.8678,-0.000221279,0.00191494,0.00070198,0.00212497,-0.000431307,1.28008,0.00158016,0.0108819,1154,1744,6.40806,-27.8679
-63,-720,6.41064,28.0144,-0.000175266,0.00162947,0.000432633,0.00172782,-0.000273617,1.34726,0.00125308,0.0103404,1161,1744,6.41068,-28.0144
-56,-720,6.43945,28.141,-8.25742e-05,0.00140151,0.00029115,0.00145658,-0.000137649,1.38384,0.00102004,0.0124202,1168,1744,6.4394,-28.141
-49,-720,6.39844,28.2439,6.16852e-05,0.00116919,0.000236403,0.00121754,1.33346e-05,1.36905,0.000807288,0.0179698,1175,1744,6.39842,-28.2438
-42,-720,6.39709,28.368,0.000197361,0.000961291,0.000105651,0.000975634,0.000183019,1.43587,0.000598813,0.0200013,1182,1744,6.39712,-28.368
-35,-720,6.42236,28.4528,0.000456893,0.000969582,-6.258e-05,0.00097711,0.000449365,-1.45108,0.000564739,0.0178359,1189,1744,6.42236,-28.4527
-28,-720,6.42517,28.5575,0.00070096,0.00122129,-0.000224947,0.00130505,0.000617196,-1.21433,0.000753839,0.0112513,1196,1744,6.42516,-28.5575
-21,-720,6.43005,28.6609,0.0008684,0.00164155,-0.000312866,0.00175229,0.000757657,-1.23059,0.00101477,0.00935692,1203,1744,6.42999,-28.6609
-14,-720,6.43274,28.723,0.00103972,0.00199815,-0.00034261,0.00210802,0.000929843,-1.26046,0.00121988,0.0107641,1210,1744,6.4328,-28.7231
-7,-720,6.42908,28.804,0.00119407,0.00233892,-0.000309206,0.00241709,0.0011159,-1.32316,0.00139688,0.0111231,1217,1744,6.42907,-28.8039
0,-720,6.42847,28.8865,0.00137088,0.00277663,-0.000151367,0.00279275,0.00135477,-1.46474,0.00161263,0.0123946,1224,1744,6.42844,-28.8865
7,-720,6.44019,28.9395,0.00154454,0.00311169,7.8367e-05,0.0031156,0.00154063,1.52096,0.00179883,0.0156008,1231,1744,6.44014,-28.9394
14,-720,6.45886,28.9976,0.00133601,0.00316276,0.000383932,0.00324017,0.0012586,1.37184,0.00188617,0.0139782,1238,1744,6.45892,-28.9975
21,-720,6.4519,29.0571,0.00128487,0.0031189,0.000687112,0.00334777,0.00105601,1.24927,0.00197624,0.0106034,1245,1744,6.45195,-29.0571
28,-720,6.44446,29.1003,0.00119778,0.00296348,0.000861736,0.00331433,0.000846934,1.18415,0.00198831,0.0110177,1252,1744,6.44452,-29.1004
35,-720,6.44824,29.1531,0.00105841,0.00286433,0.00102974,0.00333094,0.000591808,1.14534,0.002052,0.0111724,1259,1744,6.44828,-29.153
42,-720,6.45996,29.1804,0.00102535,0.00291642,0.00097449,0.0033287,0.000613066,1.17056,0.00204563,0.0112286,1266,1744,6.45999,-29.1805
49,-720,6.4729,29.1808,0.000947898,0.0030711,0.000839295,0.00336279,0.000656202,1.23631,0.0020583,0.0119475,1273,1744,6.47293,-29.1808
56,-720,6.48682,29.2025,0.000930068,0.00318469,0.000626213,0.00334694,0.000767816,1.31727,0.00202448,0.0105986,1280,1744,6.4868,-29.2025
63,-720,6.49255,29.2107,0.000995921,0.00319433,0.000208097,0.00321385,0.000976397,1.47725,0.00190254,0.0121971,1287,1744,6.49254,-29.2107
70,-720,6.5166,29.2212,0.00116194,0.00324394,-0.000269297,0.00327821,0.00112767,-1.44423,0.00192314,0.0133614,1294,1744,6.51659,-29.2212
77,-720,6.52734,29.2355,0.00141082,0.00307652,-0.000785165,0.00338828,0.00109906,-1.19283,0.00199604,0.0149825,1301,1744,6.52735,-29.2354
84,-720,6.5387,29.2152,0.00166415,0.00294323,-0.0012646,0.00372081,0.000886565,-1.01951,0.00224417,0.0144336,1308,1744,6.53865,-29.2153
91,-720,6.53345,29.2101,0.00189416,0.00262728,-0.0016623,0.00396296,0.000558481,-0.893918,0.00247689,0.0135182,1315,1744,6.53339,-29.21
98,-720,6.51526,29.1954,0.00212153,0.00237711,-0.00192348,0.00417704,0.000321602,-0.818568,0.00268392,0.0120685,1322,1744,6.51525,-29.1955
105,-720,6.52478,29.1681,0.00230332,0.00185476,-0.00210346,0.00419442,-3.63463e-05,-0.732287,0.00280848,0.0115648,1329,1744,6.52482,-29.1681
112,-720,6.56006,29.1259,0.00238457,0.00122679,-0.00210483,0.00398866,-0.0003773,-0.651202,0.00279338,0.0105638,1336,1744,6.56004,-29.1259
119,-720,6.56311,29.0891,0.00257354,0.000550031,-0.00204279,0.0038414,-0.000717832,-0.555466,0.00283071,0.0109114,1343,1744,6.56316,-29.0891
126,-720,6.57251,29.0524,0.00239147,-0.000122699,-0.00184342,0.00336563,-0.00109686,-0.48615,0.00268512,0.0115699,1350,1744,6.57255,-29.0524
133,-720,6.5708,29.0063,0.00217375,-0.000601515,-0.00151004,0.00283691,-0.00126468,-0.413809,0.00242535,0.0130474,1357,1744,6.57077,-29.0064
140,-720,6.59741,28.9716,0.00194037,-0.000837081,-0.00125092,0.0024207,-0.00131741,-0.36662,0.00218931,0.0188235,1364,1744,6.59744,-28.9715
147,-720,6.60181,28.8895,0.00164521,-0.000892995,-0.000945448,0.00195866,-0.00120645,-0.320139,0.0018445,0.0197817,1371,1744,6.6018,-28.8895
154,-720,6.58972,28.7878,0.00136497,-0.000702083,-0.00073263,0.0015983,-0.000935413,-0.308325,0.00147943,0.0135139,1378,1744,6.58968,-28.7879
161,-720,6.59692,28.7046,0.0010616,-0.000345341,-0.000555085,0.00125423,-0.000537967,-0.334019,0.00106191,0.00957778,1385,1744,6.59688,-28.7046
168,-720,6.59863,28.6124,0.00073917,0.000163328,-0.000443236,0.000979792,-7.7293e-05,-0.497355,0.000680424,0.0096501,1392,1744,6.59858,-28.6125
175,-720,6.58655,28.494,0.000357754,0.000624673,-0.00047632,0.000985877,-3.45003e-06,-0.92199,0.000658404,0.0158687,1399,1744,6.58661,-28.4941
182,-720,6.59644,28.4061,-8.18418e-06,0.000950666,-0.000567607,0.00121423,-0.000271744,-1.13609,0.000913637,0.0162204,1406,1744,6.59646,-28.4061
189,-720,6.60608,28.3124,-0.000281268,0.00101786,-0.000632854,0.00127518,-0.000538588,-1.18461,0.00107558,0.0131402,1413,1744,6.60612,-28.3123
196,-720,6.60315,28.1943,-0.000537296,0.000974976,-0.000759984,0.0012909,-0.000853222,-1.17683,0.00124648,0.0141493,1420,1744,6.60312,-28.1944
203,-720,6.57288,28.0781,-0.000796386,0.00101426,-0.000868166,0.00136325,-0.00114538,-1.18857,0.00145018,0.0166264,1427,1744,6.57285,-28.0781
210,-720,6.55273,27.9847,-0.00101373,0.000952795,-0.000868011,0.00128111,-0.00134205,-1.20918,0.00151462,0.013705,1434,1744,6.55277,-27.9848
217,-720,6.56665,27.8511,-0.00109275,0.000917095,-0.00103788,0.00135684,-0.00153249,-1.17003,0.00166918,0.0124098,1441,1744,6.56666,-27.8511
224,-720,6.55286,27.6958,-0.00106789,0.00074574,-0.00124426,0.00137857,-0.00170072,-1.10029,0.00178107,0.00962046,1448,1744,6.55289,-27.6958
231,-720,6.55469,27.5427,-0.00108005,0.00052523,-0.00138123,0.00132009,-0.00187492,-1.0486,0.00185389,0.00932524,1455,1744,6.55475,-27.5427
238,-720,6.54236,27.3914,-0.000914712,0.00029885,-0.00146338,0.00127626,-0.00189212,-0.981932,0.00184075,0.00798406,1462,1744,6.54231,-27.3913
245,-720,6.54163,27.2506,-0.000538018,0.000203419,-0.00157702,0.00145271,-0.00178731,-0.90084,0.00187395,0.0108465,1469,1744,6.5416,-27.2506
252,-720,6.53735,27.0823,-0.00023898,0.000151677,-0.0017648,0.00173192,-0.00181923,-0.840514,0.00205046,0.0110825,1476,1744,6.53738,-27.0823
259,-720,6.52661,26.918,-8.80589e-05,8.91676e-05,-0.00193243,0.00193502,-0.00193391,-0.80831,0.00223373,0.0102534,1483,1744,6.52661,-26.918
266,-720,6.50732,26.7817,1.02135e-06,0.000251737,-0.00216755,0.00229755,-0.00204479,-0.814283,0.00250847,0.00881716,1490,1744,6.50731,-26.7817
273,-720,6.48303,26.6166,6.01524e-05,0.000774136,-0.0024875,0.00293013,-0.00209584,-0.856669,0.00291504,0.0159258,1497,1744,6.48305,-26.6166
280,-720,6.39758,26.4277,-1.09532e-05,0.00132482,-0.00288574,0.00361896,-0.00230509,-0.899118,0.00344818,0.0242526,1504,1744,6.3976,-26.4277
287,-720,6.31152,26.182,3.85589e-05,0.0017494,-0.00320818,0.00421425,-0.00242629,-0.915685,0.00387996,0.0402354,1511,1744,6.31149,-26.182
294,-720,6.50378,25.9089,-0.000125697,0.00257048,-0.0036793,0.00514088,-0.0026961,-0.961002,0.00459748,0.0413522,1518,1744,6.50378,-25.909
301,-720,6.651,25.8033,-0.000736053,0.00329272,-0.00407076,0.00582023,-0.00326356,-1.01515,0.00531332,0.0401719,1525,1744,6.65099,-25.8033
308,-720,6.45325,25.6843,-0.00169606,0.00359317,-0.00424599,0.0059508,-0.00405369,-1.06392,0.0058106,0.0418463,1532,1744,6.45331,-25.6843
315,-720,6.37891,25.3842,-0.00268911,0.00365395,-0.00427715,0.00580714,-0.00484229,-1.10442,0.00615686,0.0453742,1539,1744,6.3789,-25.3842
322,-720,6.26953,25.1556,0,0,0,0,0,0,0,-1,1546,1744,6.26959,-25.1557
329,-720,6.38,24.8297,0,0,0,0,0,0,0,-1,1553,1744,6.37995,-24.8297
336,-720,6.00378,25.748,0,0,0,0,0,0,0,-1,1560,1744,6.00377,-25.748
343,-720,6.78552,21.3625,0,0,0,0,0,0,0,-1,1567,1744,6.78551,-21.3625
350,-720,4.0741,11.1836,0,0,0,0,0,0,0,-1,1574,1744,4.07412,-11.1836
357,-720,6.90833,21.4504,0,0,0,0,0,0,0,-1,1581,1744,6.90827,-21.4505
364,-720,5.83777,24.1599,0,0,0,0,0,0,0,-1,1588,1744,5.83773,-24.1599
371,-720,5.46997,23.6176,0,0,0,0,0,0,0,-1,1595,1744,5.47001,-23.6176
378,-720,4.97656,23.3204,0,0,0,0,0,0,0,-1,1602,1744,4.97659,-23.3205
385,-720,4.23535,22.9569,0,0,0,0,0,0,0,-1,1609,1744,4.23534,-22.9569
392,-720,3.19006,23.2148,0,0,0,0,0,0,0,-1,1616,1744,3.1901,-23.2149
399,-720,0.197021,14.5314,0,0,0,0,0,0,0,-1,1623,1744,0.197043,-14.5313
406,-720,0,0,0,0,0,0,0,0,0,-1,1630,1744,0,0
413,-720,0,0,0,0,0,0,0,0,0,-1,1637,1744,0,0
420,-720,0,0,0,0,0,0,0,0,0,-1,1644,1744,0,0
427,-720,0,0,0,0,0,0,0,0,0,-1,1651,1744,0,0
434,-720,0,0,0,0,0,0,0,0,0,-1,1658,1744,0,0
441,-720,0,0,0,0,0,0,0,0,0,-1,1665,1744,0,0
448,-720,0,0,0,0,0,0,0,0,0,-1,1672,1744,0,0
455,-720,0,0,0,0,0,0,0,0,0,-1,1679,1744,0,0
462,-720,0,0,0,0,0,0,0,0,0,-1,1686,1744,0,0
469,-720,0,0,0,0,0,0,0,0,0,-1,1693,1744,0,0
476,-720,0,0,0,0,0,0,0,0,0,-1,1700,1744,0,0
483,-720,0,0,0,0,0,0,0,0,0,-1,1707,1744,0,0
490,-720,0,0,0,0,0,0,0,0,0,-1,1714,1744,0,0
497,-720,0,0,0,0,0,0,0,0,0,-1,1721,1744,0,0
504,-720,0,0,0,0,0,0,0,0,0,-1,1728,1744,0,0
511,-720,0,0,0,0,0,0,0,0,0,-1,1735,1744,0,0
518,-720,0,0,0,0,0,0,0,0,0,-1,1742,1744,0,0
525,-720,0,0,0,0,0,0,0,0,0,-1,1749,1744,0,0
532,-720,0,0,0,0,0,0,0,0,0,-1,1756,1744,0,0
539,-720,0,0,0,0,0,0,0,0,0,-1,1763,1744,0,0
546,-720,0,0,0,0,0,0,0,0,0,-1,1770,1744,0,0
553,-720,0,0,0,0,0,0,0,0,0,-1,1777,1744,0,0
560,-720,0,0,0,0,0,0,0,0,0,-1,1784,1744,0,0
567,-720,0,0,0,0,0,0,0,0,0,-1,1791,1744,0,0
574,-720,0,0,0,0,0,0,0,0,0,-1,1798,1744,0,0
581,-720,0,0,0,0,0,0,0,0,0,-1,1805,1744,0,0
588,-720,0,0,0,0,0,0,0,0,0,-1,1812,1744,0,0
595,-720,0,0,0,0,0,0,0,0,0,-1,1819,1744,0,0
602,-720,0,0,0,0,0,0,0,0,0,-1,1826,1744,0,0
609,-720,0,0,0,0,0,0,0,0,0,-1,1833,1744,0,0
616,-720,0,0,0,0,0,0,0,0,0,-1,1840,1744,0,0
623,-720,0,0,0,0,0,0,0,0,0,-1,1847,1744,0,0
630,-720,0,0,0,0,0,0,0,0,0,-1,1854,1744,0,0
637,-720,0,0,0,0,0,0,0,0,0,-1,1861,1744,0,0
644,-720,0,0,0,0,0,0,0,0,0,-1,1868,1744,0,0
651,-720,0,0,0,0,0,0,0,0,0,-1,1875,1744,0,0
658,-720,0,0,0,0,0,0,0,0,0,-1,1882,1744,0,0
665,-720,0,0,0,0,0,0,0,0,0,-1,1889,1744,0,0
672,-720,0,0,0,0,0,0,0,0,0,-1,1896,1744,0,0
679,-720,0,0,0,0,0,0,0,0,0,-1,1903,1744,0,0
686,-720,0,0,0,0,0,0,0,0,0,-1,1910,1744,0,0
693,-720,0,0,0,0,0,0,0,0,0,-1,1917,1744,0,0
700,-720,0,0,0,0,0,0,0,0,0,-1,1924,1744,0,0
707,-720,0,0,0,0,0,0,0,0,0,-1,1931,1744,0,0
714,-720,0,0,0,0,0,0,0,0,0,-1,1938,1744,0,0
721,-720,0,0,0,0,0,0,0,0,0,-1,1945,1744,0,0
728,-720,0,0,0,0,0,0,0,0,0,-1,1952,1744,0,0
735,-720,0,0,0,0,0,0,0,0,0,-1,1959,1744,0,0
742,-720,0,0,0,0,0,0,0,0,0,-1,1966,1744,0,0
749,-720,0,0,0,0,0,0,0,0,0,-1,1973,1744,0,0
756,-720,0,0,0,0,0,0,0,0,0,-1,1980,1744,0,0
763,-720,0,0,0,0,0,0,0,0,0,-1,1987,1744,0,0
770,-720,0,0,0,0,0,0,0,0,0,-1,1994,1744,0,0
777,-720,0,0,0,0,0,0,0,0,0,-1,2001,1744,0,0
784,-720,0,0,0,0,0,0,0,0,0,-1,2008,1744,0,0
791,-720,0,0,0,0,0,0,0,0,0,-1,2015,1744,0,0
798,-720,0,0,0,0,0,0,0,0,0,-1,2022,1744,0,0
805,-720,0,0,0,0,0,0,0,0,0,-1,2029,1744,0,0
812,-720,0,0,0,0,0,0,0,0,0,-1,2036,1744,0,0
-700,-727,0,0,0,0,0,0,0,0,0,-1,524,1751,0,0
-693,-727,0,0,0,0,0,0,0,0,0,-1,531,1751,0,0
-686,-727,0,0,0,0,0,0,0,0,0,-1,538,1751,0,0
-679,-727,0,0,0,0,0,0,0,0,0,-1,545,1751,0,0
-672,-727,0,0,0,0,0,0,0,0,0,-1,552,1751,0,0
-665,-727,0,0,0,0,0,0,0,0,0,-1,559,1751,0,0
-658,-727,0,0,0,0,0,0,0,0,0,-1,566,1751,0,0
-651,-727,0,0,0,0,0,0,0,0,0,-1,573,1751,0,0
-644,-727,0,0,0,0,0,0,0,0,0,-1,580,1751,0,0
-637,-727,0,0,0,0,0,0,0,0,0,-1,587,1751,0,0
-630,-727,0,0,0,0,0,0,0,0,0,-1,594,1751,0,0
-623,-727,0,0,0,0,0,0,0,0,0,-1,601,1751,0,0
-616,-727,0,0,0,0,0,0,0,0,0,-1,608,1751,0,0
-609,-727,0,0,0,0,0,0,0,0,0,-1,615,1751,0,0
-602,-727,0,0,0,0,0,0,0,0,0,-1,622,1751,0,0
-595,-727,0,0,0,0,0,0,0,0,0,-1,629,1751,0,0
-588,-727,0,0,0,0,0,0,0,0,0,-1,636,1751,0,0
-581,-727,0,0,0,0,0,0,0,0,0,-1,643,1751,0,0
-574,-727,0,0,0,0,0,0,0,0,0,-1,650,1751,0,0
-567,-727,0,0,0,0,0,0,0,0,0,-1,657,1751,0,0
-560,-727,0,0,0,0,0,0,0,0,0,-1,664,1751,0,0
-553,-727,0,0,0,0,0,0,0,0,0,-1,671,1751,0,0
-546,-727,0,0,0,0,0,0,0,0,0,-1,678,1751,0,0
-539,-727,0,0,0,0,0,0,0,0,0,-1,685,1751,0,0
-532,-727,0,0,0,0,0,0,0,0,0,-1,692,1751,0,0
-525,-727,0,0,0,0,0,0,0,0,0,-1,699,1751,0,0
-518,-727,0,0,0,0,0,0,0,0,0,-1,706,1751,0,0
-511,-727,0,0,0,0,0,0,0,0,0,-1,713,1751,0,0
-504,-727,0,0,0,0,0,0,0,0,0,-1,720,1751,0,0
-497,-727,0,0,0,0,0,0,0,0,0,-1,727,1751,0,0
-490,-727,0,0,0,0,0,0,0,0,0,-1,734,1751,0,0
-483,-727,0,0,0,0,0,0,0,0,0,-1,741,1751,0,0
-476,-727,0,0,0,0,0,0,0,0,0,-1,748,1751,0,0
-469,-727,0,0,0,0,0,0,0,0,0,-1,755,1751,0,0
-462,-727,0,0,0,0,0,0,0,0,0,-1,762,1751,0,0
-455,-727,0,0,0,0,0,0,0,0,0,-1,769,1751,0,0
-448,-727,0,0,0,0,0,0,0,0,0,-1,776,1751,0,0
-441,-727,0,0,0,0,0,0,0,0,0,-1,783,1751,0,0
-434,-727,0,0,0,0,0,0,0,0,0,-1,790,1751,0,0
-427,-727,0,0,0,0,0,0,0,0,0,-1,797,1751,0,0
-420,-727,0,0,0,0,0,0,0,0,0,-1,804,1751,0,0
-413,-727,0,0,0,0,0,0,0,0,0,-1,811,1751,0,0
-406,-727,0,0,0,0,0,0,0,0,0,-1,818,1751,0,0
-399,-727,0,0,0,0,0,0,0,0,0,-1,825,1751,0,0
-392,-727,0,0,0,0,0,0,0,0,0,-1,832,1751,0,0
-385,-727,0,0,0,0,0,0,0,0,0,-1,839,1751,0,0
-378,-727,0,0,0,0,0,0,0,0,0,-1,846,1751,0,0
-371,-727,0,0,0,0,0,0,0,0,0,-1,853,1751,0,0
-364,-727,0,0,0,0,0,0,0,0,0,-1,860,1751,0,0
-357,-727,0,0,0,0,0,0,0,0,0,-1,867,1751,0,0
-350,-727,0,0,0,0,0,0,0,0,0,-1,874,1751,0,0
-343,-727,0,0,0,0,0,0,0,0,0,-1,881,1751,0,0
-336,-727,0,0,0,0,0,0,0,0,0,-1,888,1751,0,0
-329,-727,0,0,0,0,0,0,0,0,0,-1,895,1751,0,0
-322,-727,0,0,0,0,0,0,0,0,0,-1,902,1751,0,0
-315,-727,0,0,0,0,0,0,0,0,0,-1,909,1751,0,0
-308,-727,0,0,0,0,0,0,0,0,0,-1,916,1751,0,0
-301,-727,0,0,0,0,0,0,0,0,0,-1,923,1751,0,0
-294,-727,0,0,0,0,0,0,0,0,0,-1,930,1751,0,0
-287,-727,0,0,0,0,0,0,0,0,0,-1,937,1751,0,0
-280,-727,0,0,0,0,0,0,0,0,0,-1,944,1751,0,0
-273,-727,0,0,0,0,0,0,0,0,0,-1,951,1751,0,0
-266,-727,4.24805,7.61145,0,0,0,0,0,0,0,-1,958,1751,4.24802,-7.6115
-259,-727,3.65228,5.4082,0,0,0,0,0,0,0,-1,965,1751,3.65229,-5.40818
-252,-727,6.35193,19.5046,0,0,0,0,0,0,0,-1,972,1751,6.35193,-19.5046
-245,-727,6.6543,20.9005,0,0,0,0,0,0,0,-1,979,1751,6.65433,-20.9005
-238,-727,4.31769,18.0181,0,0,0,0,0,0,0,-1,986,1751,4.31766,-18.018
-231,-727,6.50403,21.7985,0,0,0,0,0,0,0,-1,993,1751,6.50403,-21.7985
-224,-727,5.36774,18.8488,0,0,0,0,0,0,0,-1,1000,1751,5.36772,-18.8487
-217,-727,5.94122,16.1447,0,0,0,0,0,0,0,-1,1007,1751,5.9412,-16.1446
-210,-727,6.63403,19.8335,0,0,0,0,0,0,0,-1,1014,1751,6.63405,-19.8335
-203,-727,6.70361,20.4543,0,0,0,0,0,0,0,-1,1021,1751,6.70363,-20.4544
-196,-727,6.89233,21.6814,0,0,0,0,0,0,0,-1,1028,1751,6.8923,-21.6814
-189,-727,6.92151,23.5182,0,0,0,0,0,0,0,-1,1035,1751,6.92148,-23.5182
-182,-727,6.79968,25.125,0,0,0,0,0,0,0,-1,1042,1751,6.79967,-25.125
-175,-727,6.69214,25.5598,0,0,0,0,0,0,0,-1,1049,1751,6.69219,-25.5599
-168,-727,6.81506,25.5122,0,0,0,0,0,0,0,-1,1056,1751,6.81512,-25.5122
-161,-727,6.25244,25.741,0,0,0,0,0,0,0,-1,1063,1751,6.25245,-25.7409
-154,-727,7.20337,25.6643,0,0,0,0,0,0,0,-1,1070,1751,7.20333,-25.6643
-147,-727,6.66846,25.959,0.00239939,0.0091628,0.00847091,0.0149021,-0.00333988,0.975313,0.011215,0.0486972,1077,1751,6.66851,-25.959
-140,-727,6.59973,26.0889,0.00211337,0.00916561,0.00794021,0.0143274,-0.00304846,0.99436,0.0107133,0.0345237,1084,1751,6.59975,-26.0889
-133,-727,6.73584,26.3228,0.00203618,0.00883027,0.00735734,0.0135369,-0.0026705,1.00168,0.010034,0.0255842,1091,1751,6.73584,-26.3228
-126,-727,6.65112,26.5743,0.00145941,0.00824617,0.00646223,0.0121518,-0.00244621,1.02716,0.00902776,0.0154488,1098,1751,6.6511,-26.5743
-119,-727,6.64612,26.8091,0.000766644,0.00756847,0.00553544,0.0106643,-0.00232916,1.06086,0.00799973,0.0117534,1105,1751,6.64608,-26.8091
-112,-727,6.64673,26.9512,0.000474826,0.00669612,0.00466428,0.00919186,-0.00202092,1.07948,0.0069009,0.0125206,1112,1751,6.64669,-26.9512
-105,-727,6.60498,27.1302,0.000166346,0.00581066,0.00368763,0.00763212,-0.00165511,1.11201,0.00572016,0.0127938,1119,1751,6.60499,-27.1303
-98,-727,6.59937,27.299,-0.000267322,0.00508456,0.00295689,0.00639658,-0.00157934,1.15318,0.00487684,0.0107411,1126,1751,6.59936,-27.2989
-91,-727,6.5979,27.4332,-0.000636774,0.00397977,0.00208813,0.00478412,-0.00144112,1.20311,0.00376293,0.0103885,1133,1751,6.5979,-27.4332
-84,-727,6.56836,27.5864,-0.000958987,0.00331232,0.00157999,0.00383324,-0.00147991,1.25232,0.00316626,0.0111433,1140,1751,6.56832,-27.5864
-77,-727,6.55225,27.7477,-0.000979208,0.00286534,0.00137879,0.00330869,-0.00142256,1.25968,0.00280301,0.0125619,1147,1751,6.55224,-27.7477
-70,-727,6.54407,27.8878,-0.000935303,0.0023653,0.00102503,0.00265772,-0.00122773,1.2929,0.00229335,0.0124137,1154,1751,6.54408,-27.8878
-63,-727,6.5448,28.0322,-0.00102851,0.00198075,0.00061319,0.0021009,-0.00114866,1.3773,0.0019028,0.0100972,1161,1751,6.54482,-28.0322
-56,-727,6.52734,28.1588,-0.00106549,0.00167039,0.000396472,0.00172669,-0.00112179,1.42975,0.00165688,0.0105891,1168,1751,6.52733,-28.1589
-49,-727,6.49121,28.2598,-0.000992568,0.00126315,0.000251561,0.00129087,-0.00102028,1.46107,0.00133739,0.0135069,1175,1751,6.49117,-28.2598
-42,-727,6.49866,28.3593,-0.000976299,0.000495975,2.67649e-05,0.000496461,-0.000976785,1.55263,0.000865517,0.0165506,1182,1751,6.49861,-28.3592
-35,-727,6.51013,28.4548,-0.000942053,-7.56202e-05,-0.000102366,-6.36902e-05,-0.000953983,-1.45478,0.000615857,0.0147379,1189,1751,6.51015,-28.4548
-28,-727,6.50342,28.5393,-0.000821692,-0.000410001,-0.00021966,-0.00031481,-0.000916883,-1.16187,0.000537953,0.00873294,1196,1751,6.50344,-28.5393
-21,-727,6.50696,28.6454,-0.000716269,-0.000429083,-0.000112235,-0.000390424,-0.000754928,-1.23908,0.000435943,0.00982751,1203,1751,6.50693,-28.6454
-14,-727,6.50757,28.7236,-0.000592627,-0.000505951,3.90826e-05,-0.000490932,-0.000607647,1.20389,0.000372341,0.0111772,1210,1751,6.50756,-28.7236
-7,-727,6.49707,28.8031,-0.000491033,-0.000510696,0.000222246,-0.000278402,-0.000723328,0.763294,0.000421286,0.0145751,1217,1751,6.49702,-28.8031
0,-727,6.49634,28.8882,-0.000353173,-0.000356113,0.000509305,0.000154664,-0.00086395,0.783955,0.000633842,0.0146986,1224,1751,6.49634,-28.8882
7,-727,6.50122,28.9551,-0.00020155,-0.000212713,0.000827172,0.00062006,-0.00103432,0.782024,0.000965088,0.014321,1231,1751,6.50122,-28.9551
14,-727,6.51184,29.0117,-0.000241801,-0.000128096,0.00111602,0.000932523,-0.00130242,0.810847,0.00129622,0.0137036,1238,1751,6.51182,-29.0117
21,-727,6.50085,29.077,-0.000161236,-6.24651e-05,0.00135014,0.00123919,-0.00146289,0.803679,0.00156183,0.0116906,1245,1751,6.50089,-29.077
28,-727,6.50525,29.1154,-8.21769e-05,7.36363e-06,0.00145784,0.00142112,-0.00149594,0.800748,0.00168435,0.0113565,1252,1751,6.50526,-29.1153
35,-727,6.51733,29.1544,-9.94733e-06,0.000215808,0.00151348,0.00162062,-0.00141476,0.82262,0.00175382,0.0118729,1259,1751,6.51731,-29.1544
42,-727,6.48755,29.1665,0.00013775,0.000623288,0.00137896,0.00178068,-0.00101965,0.872532,0.00163655,0.0123037,1266,1751,6.48757,-29.1665
49,-727,6.47668,29.1691,0.000216526,0.00112596,0.00113232,0.00189146,-0.000548973,0.976331,0.00147834,0.0115624,1273,1751,6.47666,-29.1691
56,-727,6.48315,29.2131,0.000241299,0.00161645,0.000742665,0.00194096,-8.32076e-05,1.15885,0.00132258,0.00992861,1280,1751,6.48314,-29.2131
63,-727,6.49878,29.2252,0.000345437,0.00213224,0.000234464,0.00216249,0.000315183,1.44247,0.00134893,0.0119574,1287,1751,6.49879,-29.2252
70,-727,6.52026,29.2294,0.000522901,0.00252961,-0.000233258,0.00255637,0.000496144,-1.45659,0.0015653,0.014258,1294,1751,6.52022,-29.2294
77,-727,6.53137,29.2264,0.000693355,0.00274863,-0.000763279,0.00300109,0.000440901,-1.25137,0.00187115,0.0160441,1301,1751,6.53132,-29.2265
84,-727,6.52734,29.1949,0.000802599,0.00293238,-0.00130349,0.00355066,0.000184314,-1.12789,0.00230812,0.0167979,1308,1751,6.52736,-29.195
91,-727,6.52783,29.1754,0.000855611,0.0030774,-0.00175087,0.00404006,-0.000107047,-1.06809,0.00272975,0.0172226,1315,1751,6.52782,-29.1754
98,-727,6.51294,29.1925,0.000946383,0.00311043,-0.00204472,0.00434177,-0.00028496,-1.02876,0.00299402,0.0141983,1322,1751,6.51289,-29.1925
105,-727,6.52148,29.1582,0.00102968,0.00294264,-0.00231362,0.0044897,-0.000517368,-0.981406,0.00317965,0.0131838,1329,1751,6.52147,-29.1582
112,-727,6.5332,29.1198,0.00103003,0.00264342,-0.00239597,0.00436485,-0.000691397,-0.947782,0.00316564,0.010998,1336,1751,6.53316,-29.1197
119,-727,6.53931,29.0983,0.00107027,0.00215124,-0.00236532,0.00403704,-0.000815527,-0.897722,0.00300038,0.00875034,1343,1751,6.53927,-29.0983
126,-727,6.55225,29.0409,0.000924369,0.00169035,-0.00223479,0.00357473,-0.000960009,-0.870262,0.00275939,0.0107105,1350,1751,6.5522,-29.0409
133,-727,6.53467,28.986,0.000791921,0.00132697,-0.00199926,0.00307653,-0.000957637,-0.851909,0.00243386,0.0153234,1357,1751,6.53469,-28.986
140,-727,6.54321,28.965,0.000651375,0.00106537,-0.00179257,0.00266285,-0.000946105,-0.842882,0.00216079,0.0217299,1364,1751,6.54323,-28.9649
147,-727,6.5293,28.8951,0.00048813,0.000922138,-0.00155179,0.00227202,-0.000861754,-0.854868,0.00186936,0.0185821,1371,1751,6.52924,-28.8952
154,-727,6.50964,28.7831,0.000348008,0.000994824,-0.0013727,0.0020817,-0.000738864,-0.901089,0.00168885,0.0119927,1378,1751,6.50959,-28.7831
161,-727,6.5094,28.7039,0.000184946,0.001302,-0.00123678,0.00210052,-0.000613576,-0.997488,0.0016435,0.00950702,1385,1751,6.50936,-28.7038
168,-727,6.51697,28.6191,-2.49493e-05,0.00140405,-0.00119091,0.00207836,-0.000699256,-1.05559,0.00166824,0.011657,1392,1751,6.51697,-28.6192
175,-727,6.5354,28.515,-0.000311161,0.0015233,-0.0012853,0.00218509,-0.000972949,-1.09531,0.00186753,0.0175032,1399,1751,6.53537,-28.5151
182,-727,6.53833,28.4148,-0.000717759,0.00151424,-0.00135254,0.00215176,-0.00135528,-1.13033,0.00204212,0.0199944,1406,1751,6.5383,-28.4147
189,-727,6.49158,28.3074,-0.00101428,0.0013248,-0.00136421,0.00195217,-0.00164165,-1.13976,0.00207748,0.0120804,1413,1751,6.49157,-28.3073
196,-727,6.48462,28.1898,-0.00127722,0.00100635,-0.00151224,0.00175944,-0.00203031,-1.10875,0.00218987,0.0138562,1420,1751,6.48463,-28.1899
203,-727,6.44775,28.067,-0.00156124,0.00122339,-0.00161265,0.0019616,-0.00229946,-1.1415,0.0024627,0.0171857,1427,1751,6.4477,-28.067
210,-727,6.4259,27.972,-0.00185842,0.00108848,-0.00147413,0.00169928,-0.00246922,-1.17798,0.00242033,0.0153935,1434,1751,6.42589,-27.972
217,-727,6.42993,27.8502,-0.00185703,0.00109551,-0.00164452,0.00182917,-0.00259069,-1.15117,0.0025644,0.0110957,1441,1751,6.42999,-27.8503
224,-727,6.42261,27.6704,-0.00177065,0.000894519,-0.00186624,0.00185511,-0.00273124,-1.09544,0.00266398,0.0114668,1448,1751,6.4226,-27.6704
231,-727,6.41455,27.5244,-0.00173045,0.000624534,-0.00199856,0.00176668,-0.0028726,-1.05161,0.00270374,0.00918556,1455,1751,6.41452,-27.5244
238,-727,6.40491,27.3888,-0.0014751,0.000338422,-0.00207109,0.00169255,-0.00282923,-0.991737,0.002638,0.00923468,1462,1751,6.40493,-27.3888
245,-727,6.39319,27.2539,-0.000957516,0.000211548,-0.00218177,0.00188573,-0.0026317,-0.916283,0.00261996,0.00926223,1469,1751,6.3932,-27.254
252,-727,6.37085,27.0919,-0.000512585,0.000136762,-0.00237761,0.00221177,-0.00258759,-0.853256,0.00277374,0.0106349,1476,1751,6.3709,-27.0919
259,-727,6.37939,26.9164,-0.000248697,5.17053e-05,-0.00255106,0.00245698,-0.00265397,-0.814803,0.00295154,0.0145105,1483,1751,6.37941,-26.9164
266,-727,6.42578,26.8269,-6.4043e-05,0.000246103,-0.00281667,0.00291197,-0.00272991,-0.812898,0.0032579,0.0221253,1490,1751,6.42572,-26.8269
273,-727,6.54895,26.7158,9.66559e-05,0.000871429,-0.00319471,0.00370215,-0.00273407,-0.845733,0.00372994,0.0435408,1497,1751,6.54892,-26.7158
280,-727,6.38123,26.5901,0,0,0,0,0,0,0,-1,1504,1751,6.38121,-26.59
287,-727,6.00305,26.1489,0,0,0,0,0,0,0,-1,1511,1751,6.00309,-26.1489
294,-727,6.22107,25.735,0,0,0,0,0,0,0,-1,1518,1751,6.22102,-25.735
301,-727,6.55762,25.8761,0,0,0,0,0,0,0,-1,1525,1751,6.55765,-25.8762
308,-727,6.27917,25.8578,0,0,0,0,0,0,0,-1,1532,1751,6.27913,-25.8578
315,-727,6.21692,25.3232,0,0,0,0,0,0,0,-1,1539,1751,6.21695,-25.3233
322,-727,5.75818,18.2477,0,0,0,0,0,0,0,-1,1546,1751,5.75815,-18.2477
329,-727,6.61853,11.6267,0,0,0,0,0,0,0,-1,1553,1751,6.61859,-11.6267
336,-727,5.55823,20.2439,0,0,0,0,0,0,0,-1,1560,1751,5.55829,-20.2438
343,-727,2.41699,8.72095,0,0,0,0,0,0,0,-1,1567,1751,2.41702,-8.72098
350,-727,3.89783,7.50195,0,0,0,0,0,0,0,-1,1574,1751,3.89782,-7.50193
357,-727,4.48462,10.2948,0,0,0,0,0,0,0,-1,1581,1751,4.48464,-10.2948
364,-727,6.96729,17.2365,0,0,0,0,0,0,0,-1,1588,1751,6.96732,-17.2365
371,-727,5.04565,23.2227,0,0,0,0,0,0,0,-1,1595,1751,5.04564,-23.2227
378,-727,4.56726,23.0574,0,0,0,0,0,0,0,-1,1602,1751,4.56727,-23.0574
385,-727,3.52307,22.6431,0,0,0,0,0,0,0,-1,1609,1751,3.52303,-22.643
392,-727,0,0,0,0,0,0,0,0,0,-1,1616,1751,0,0
399,-727,0,0,0,0,0,0,0,0,0,-1,1623,1751,0,0
406,-727,0,0,0,0,0,0,0,0,0,-1,1630,1751,0,0
413,-727,0,0,0,0,0,0,0,0,0,-1,1637,1751,0,0
420,-727,0,0,0,0,0,0,0,0,0,-1,1644,1751,0,0
427,-727,0,0,0,0,0,0,0,0,0,-1,1651,1751,0,0
434,-727,0,0,0,0,0,0,0,0,0,-1,1658,1751,0,0
441,-727,0,0,0,0,0,0,0,0,0,-1,1665,1751,0,0
448,-727,0,0,0,0,0,0,0,0,0,-1,1672,1751,0,0
455,-727,0,0,0,0,0,0,0,0,0,-1,1679,1751,0,0
462,-727,0,0,0,0,0,0,0,0,0,-1,1686,1751,0,0
469,-727,0,0,0,0,0,0,0,0,0,-1,1693,1751,0,0
476,-727,0,0,0,0,0,0,0,0,0,-1,1700,1751,0,0
483,-727,0,0,0,0,0,0,0,0,0,-1,1707,1751,0,0
490,-727,0,0,0,0,0,0,0,0,0,-1,1714,1751,0,0
497,-727,0,0,0,0,0,0,0,0,0,-1,1721,1751,0,0
504,-727,0,0,0,0,0,0,0,0,0,-1,1728,1751,0,0
511,-727,0,0,0,0,0,0,0,0,0,-1,1735,1751,0,0
518,-727,0,0,0,0,0,0,0,0,0,-1,1742,1751,0,0
525,-727,0,0,0,0,0,0,0,0,0,-1,1749,1751,0,0
532,-727,0,0,0,0,0,0,0,0,0,-1,1756,1751,0,0
539,-727,0,0,0,0,0,0,0,0,0,-1,1763,1751,0,0
546,-727,0,0,0,0,0,0,0,0,0,-1,1770,1751,0,0
553,-727,0,0,0,0,0,0,0,0,0,-1,1777,1751,0,0
560,-727,0,0,0,0,0,0,0,0,0,-1,1784,1751,0,0
567,-727,0,0,0,0,0,0,0,0,0,-1,1791,1751,0,0
574,-727,0,0,0,0,0,0,0,0,0,-1,1798,1751,0,0
581,-727,0,0,0,0,0,0,0,0,0,-1,1805,1751,0,0
588,-727,0,0,0,0,0,0,0,0,0,-1,1812,1751,0,0
595,-727,0,0,0,0,0,0,0,0,0,-1,1819,1751,0,0
602,-727,0,0,0,0,0,0,0,0,0,-1,1826,1751,0,0
609,-727,0,0,0,0,0,0,0,0,0,-1,1833,1751,0,0
616,-727,0,0,0,0,0,0,0,0,0,-1,1840,1751,0,0
623,-727,0,0,0,0,0,0,0,0,0,-1,1847,1751,0,0
630,-727,0,0,0,0,0,0,0,0,0,-1,1854,1751,0,0
637,-727,0,0,0,0,0,0,0,0,0,-1,1861,1751,0,0
644,-727,0,0,0,0,0,0,0,0,0,-1,1868,1751,0,0
651,-727,0,0,0,0,0,0,0,0,0,-1,1875,1751,0,0
658,-727,0,0,0,0,0,0,0,0,0,-1,1882,1751,0,0
665,-727,0,0,0,0,0,0,0,0,0,-1,1889,1751,0,0
672,-727,0,0,0,0,0,0,0,0,0,-1,1896,1751,0,0
679,-727,0,0,0,0,0,0,0,0,0,-1,1903,1751,0,0
686,-727,0,0,0,0,0,0,0,0,0,-1,1910,1751,0,0
693,-727,0,0,0,0,0,0,0,0,0,-1,1917,1751,0,0
700,-727,0,0,0,0,0,0,0,0,0,-1,1924,1751,0,0
707,-727,0,0,0,0,0,0,0,0,0,-1,1931,1751,0,0
714,-727,0,0,0,0,0,0,0,0,0,-1,1938,1751,0,0
721,-727,0,0,0,0,0,0,0,0,0,-1,1945,1751,0,0
728,-727,0,0,0,0,0,0,0,0,0,-1,1952,1751,0,0
735,-727,0,0,0,0,0,0,0,0,0,-1,1959,1751,0,0
742,-727,0,0,0,0,0,0,0,0,0,-1,1966,1751,0,0
749,-727,0,0,0,0,0,0,0,0,0,-1,1973,1751,0,0
756,-727,0,0,0,0,0,0,0,0,0,-1,1980,1751,0,0
763,-727,0,0,0,0,0,0,0,0,0,-1,1987,1751,0,0
770,-727,0,0,0,0,0,0,0,0,0,-1,1994,1751,0,0
777,-727,0,0,0,0,0,0,0,0,0,-1,2001,1751,0,0
784,-727,0,0,0,0,0,0,0,0,0,-1,2008,1751,0,0
791,-727,0,0,0,0,0,0,0,0,0,-1,2015,1751,0,0
798,-727,0,0,0,0,0,0,0,0,0,-1,2022,1751,0,0
805,-727,0,0,0,0,0,0,0,0,0,-1,2029,1751,0,0
812,-727,0,0,0,0,0,0,0,0,0,-1,2036,1751,0,0
-700,-734,0,0,0,0,0,0,0,0,0,-1,524,1758,0,0
-693,-734,0,0,0,0,0,0,0,0,0,-1,531,1758,0,0
-686,-734,0,0,0,0,0,0,0,0,0,-1,538,1758,0,0
-679,-734,0,0,0,0,0,0,0,0,0,-1,545,1758,0,0
-672,-734,0,0,0,0,0,0,0,0,0,-1,552,1758,0,0
-665,-734,0,0,0,0,0,0,0,0,0,-1,559,1758,0,0
-658,-734,0,0,0,0,0,0,0,0,0,-1,566,1758,0,0
-651,-734,0,0,0,0,0,0,0,0,0,-1,573,1758,0,0
-644,-734,0,0,0,0,0,0,0,0,0,-1,580,1758,0,0
-637,-734,0,0,0,0,0,0,0,0,0,-1,587,1758,0,0
-630,-734,0,0,0,0,0,0,0,0,0,-1,594,1758,0,0
-623,-734,0,0,0,0,0,0,0,0,0,-1,601,1758,0,0
-616,-734,0,0,0,0,0,0,0,0,0,-1,608,1758,0,0
-609,-734,0,0,0,0,0,0,0,0,0,-1,615,1758,0,0
-602,-734,0,0,0,0,0,0,0,0,0,-1,622,1758,0,0
-595,-734,0,0,0,0,0,0,0,0,0,-1,629,1758,0,0
-588,-734,0,0,0,0,0,0,0,0,0,-1,636,1758,0,0
-581,-734,0,0,0,0,0,0,0,0,0,-1,643,1758,0,0
-574,-734,0,0,0,0,0,0,0,0,0,-1,650,1758,0,0
-567,-734,0,0,0,0,0,0,0,0,0,-1,657,1758,0,0
-560,-734,0,0,0,0,0,0,0,0,0,-1,664,1758,0,0
-553,-734,0,0,0,0,0,0,0,0,0,-1,671,1758,0,0
-546,-734,0,0,0,0,0,0,0,0,0,-1,678,1758,0,0
-539,-734,0,0,0,0,0,0,0,0,0,-1,685,1758,0,0
-532,-734,0,0,0,0,0,0,0,0,0,-1,692,1758,0,0
-525,-734,0,0,0,0,0,0,0,0,0,-1,699,1758,0,0
-518,-734,0,0,0,0,0,0,0,0,0,-1,706,1758,0,0
-511,-734,0,0,0,0,0,0,0,0,0,-1,713,1758,0,0
-504,-734,0,0,0,0,0,0,0,0,0,-1,720,1758,0,0
-497,-734,0,0,0,0,0,0,0,0,0,-1,727,1758,0,0
-490,-734,0,0,0,0,0,0,0,0,0,-1,734,1758,0,0
-483,-734,0,0,0,0,0,0,0,0,0,-1,741,1758,0,0
-476,-734,0,0,0,0,0,0,0,0,0,-1,748,1758,0,0
-469,-734,0,0,0,0,0,0,0,0,0,-1,755,1758,0,0
-462,-734,0,0,0,0,0,0,0,0,0,-1,762,1758,0,0
-455,-734,0,0,0,0,0,0,0,0,0,-1,769,1758,0,0
-448,-734,0,0,0,0,0,0,0,0,0,-1,776,1758,0,0
-441,-734,0,0,0,0,0,0,0,0,0,-1,783,1758,0,0
-434,-734,0,0,0,0,0,0,0,0,0,-1,790,1758,0,0
-427,-734,0,0,0,0,0,0,0,0,0,-1,797,1758,0,0
-420,-734,0,0,0,0,0,0,0,0,0,-1,804,1758,0,0
-413,-734,0,0,0,0,0,0,0,0,0,-1,811,1758,0,0
-406,-734,0,0,0,0,0,0,0,0,0,-1,818,1758,0,0
-399,-734,0,0,0,0,0,0,0,0,0,-1,825,1758,0,0
-392,-734,0,0,0,0,0,0,0,0,0,-1,832,1758,0,0
-385,-734,0,0,0,0,0,0,0,0,0,-1,839,1758,0,0
-378,-734,0,0,0,0,0,0,0,0,0,-1,846,1758,0,0
-371,-734,0,0,0,0,0,0,0,0,0,-1,853,1758,0,0
-364,-734,0,0,0,0,0,0,0,0,0,-1,860,1758,0,0
-357,-734,0,0,0,0,0,0,0,0,0,-1,867,1758,0,0
-350,-734,0,0,0,0,0,0,0,0,0,-1,874,1758,0,0
-343,-734,0,0,0,0,0,0,0,0,0,-1,881,1758,0,0
-336,-734,0,0,0,0,0,0,0,0,0,-1,888,1758,0,0
-329,-734,0,0,0,0,0,0,0,0,0,-1,895,1758,0,0
-322,-734,0,0,0,0,0,0,0,0,0,-1,902,1758,0,0
-315,-734,0,0,0,0,0,0,0,0,0,-1,909,1758,0,0
-308,-734,0,0,0,0,0,0,0,0,0,-1,916,1758,0,0
-301,-734,0,0,0,0,0,0,0,0,0,-1,923,1758,0,0
-294,-734,0,0,0,0,0,0,0,0,0,-1,930,1758,0,0
-287,-734,0,0,0,0,0,0,0,0,0,-1,937,1758,0,0
-280,-734,0,0,0,0,0,0,0,0,0,-1,944,1758,0,0
-273,-734,0,0,0,0,0,0,0,0,0,-1,951,1758,0,0
-266,-734,0,0,0,0,0,0,0,0,0,-1,958,1758,0,0
-259,-734,0,0,0,0,0,0,0,0,0,-1,965,1758,0,0
-252,-734,6.93439,18.351,0,0,0,0,0,0,0,-1,972,1758,6.93438,-18.3509
-245,-734,6.95746,19.5341,0,0,0,0,0,0,0,-1,979,1758,6.95746,-19.5341
-238,-734,6.69128,15.3165,0,0,0,0,0,0,0,-1,986,1758,6.69128,-15.3166
-231,-734,7.35022,15.5492,0,0,0,0,0,0,0,-1,993,1758,7.3502,-15.5492
-224,-734,7.4632,15.9962,0,0,0,0,0,0,0,-1,1000,1758,7.46319,-15.9962
-217,-734,7.54193,16.1692,0,0,0,0,0,0,0,-1,1007,1758,7.54194,-16.1691
-210,-734,7.62262,16.1628,0,0,0,0,0,0,0,-1,1014,1758,7.6226,-16.1628
-203,-734,5.32764,21.4656,0,0,0,0,0,0,0,-1,1021,1758,5.32762,-21.4655
-196,-734,6.00171,20.7645,0,0,0,0,0,0,0,-1,1028,1758,6.00166,-20.7645
-189,-734,7.73816,23.541,0,0,0,0,0,0,0,-1,1035,1758,7.73821,-23.541
-182,-734,7.47278,25.0702,0,0,0,0,0,0,0,-1,1042,1758,7.47275,-25.0702
-175,-734,3.95435,22.882,0,0,0,0,0,0,0,-1,1049,1758,3.95434,-22.8819
-168,-734,4.50208,15.4194,0,0,0,0,0,0,0,-1,1056,1758,4.50212,-15.4194
-161,-734,6.17456,21.793,0,0,0,0,0,0,0,-1,1063,1758,6.1746,-21.7929
-154,-734,6.29016,25.2996,0,0,0,0,0,0,0,-1,1070,1758,6.29019,-25.2995
-147,-734,6.38391,25.6158,0.00454943,0.0137639,0.012176,0.0221752,-0.00386187,0.966267,0.0162247,0.0438851,1077,1758,6.38387,-25.6158
-140,-734,6.58142,25.8887,0.0039829,0.0135709,0.0113118,0.0210627,-0.00350889,0.985826,0.0153457,0.0459625,1084,1758,6.58144,-25.8887
-133,-734,6.8562,26.3995,0,0,0,0,0,0,0,-1,1091,1758,6.85622,-26.3995
-126,-734,6.6792,26.4597,0.00266215,0.0119131,0.00901373,0.0174189,-0.00284364,1.02246,0.0126673,0.0401471,1098,1758,6.67915,-26.4597
-119,-734,6.67114,26.7324,0.00163714,0.0108188,0.00763533,0.0151372,-0.00268123,1.05607,0.0110937,0.0374031,1105,1758,6.67111,-26.7324
-112,-734,6.76099,26.9568,0.00106978,0.00955324,0.00634341,0.0129424,-0.00231942,1.0801,0.00949633,0.0313411,1112,1758,6.761,-26.9568
-105,-734,6.74683,27.1139,0.000496154,0.00833047,0.00502731,0.0107865,-0.00195991,1.11636,0.00792552,0.0252139,1119,1758,6.74677,-27.114
-98,-734,6.8053,27.2048,-0.000192719,0.00729896,0.00399965,0.00903294,-0.00192671,1.16172,0.0067564,0.0263189,1126,1758,6.8053,-27.2048
-91,-734,6.771,27.3719,-0.000824339,0.00575904,0.0027729,0.00677132,-0.00183662,1.22077,0.00523494,0.0292343,1133,1758,6.77104,-27.372
-84,-734,6.7207,27.5475,-0.00136573,0.00477926,0.0020531,0.00540209,-0.00198857,1.27626,0.0044161,0.0237836,1140,1758,6.72074,-27.5475
-77,-734,6.68774,27.7563,0,0,0,0,0,0,0,-1,1147,1758,6.6878,-27.7564
-70,-734,6.62793,27.7952,-0.00161395,0.00318429,0.00131772,0.00352236,-0.00195201,1.31966,0.00320368,0.0210982,1154,1758,6.62792,-27.7952
-63,-734,6.62292,27.9247,-0.00189267,0.00254661,0.000734215,0.00266489,-0.00201095,1.41107,0.00270839,0.0191778,1161,1758,6.62289,-27.9247
-56,-734,6.63989,28.1171,-0.00207728,0.00206561,0.00045331,0.00211463,-0.0021263,1.46308,0.00244851,0.0155265,1168,1758,6.63993,-28.1171
-49,-734,6.61475,28.2803,-0.00205853,0.00144476,0.000251336,0.0014627,-0.00207647,1.49954,0.00205356,0.0128868,1175,1758,6.6148,-28.2802
-42,-734,6.58984,28.376,-0.0022029,0.000131863,-0.000164992,0.000143465,-0.0022145,-1.50059,0.00152641,0.0136105,1182,1758,6.58984,-28.376
-35,-734,6.61316,28.4535,-0.00226398,-0.000837052,-0.000397634,-0.000733727,-0.00236731,-1.31657,0.00139929,0.0135965,1189,1758,6.6132,-28.4535
-28,-734,6.59753,28.5491,-0.00221592,-0.00148229,-0.000619374,-0.00112926,-0.00256895,-1.05274,0.00148679,0.00937763,1196,1758,6.59754,-28.5491
-21,-734,6.61841,28.6556,-0.00220803,-0.00166813,-0.000494366,-0.00137481,-0.00250134,-1.0353,0.00144652,0.0137974,1203,1758,6.61842,-28.6557
-14,-734,6.59106,28.7454,-0.00216331,-0.00197818,-0.000327847,-0.00173008,-0.00241141,-0.922988,0.00143545,0.014873,1210,1758,6.59105,-28.7453
-7,-734,6.57959,28.8081,-0.0021479,-0.0022222,-0.000127466,-0.00205228,-0.00231782,-0.643603,0.00146475,0.0176014,1217,1758,6.57959,-28.8081
0,-734,6.5708,28.8823,-0.00208327,-0.00229001,0.000225398,-0.00193867,-0.00243461,0.570395,0.00148561,0.0174759,1224,1758,6.57074,-28.8823
7,-734,6.56274,28.9513,-0.00197776,-0.00235077,0.000639971,-0.00149767,-0.00283086,0.643611,0.00163532,0.0135029,1231,1758,6.56277,-28.9513
14,-734,6.56482,29.0228,-0.00187193,-0.00232797,0.000998122,-0.00107611,-0.00312378,0.673101,0.00183236,0.0134546,1238,1758,6.56485,-29.0229
21,-734,6.53003,29.0703,-0.00161567,-0.00224103,0.00128426,-0.000606575,-0.00325013,0.665987,0.00199553,0.0115712,1245,1758,6.53004,-29.0703
28,-734,6.5238,29.1117,-0.00131214,-0.00207512,0.00147456,-0.000170516,-0.00321674,0.658816,0.00208998,0.0114539,1252,1758,6.5238,-29.1116
35,-734,6.54395,29.1628,-0.000955492,-0.00167175,0.00157541,0.000301986,-0.00292923,0.673636,0.00206087,0.0141616,1259,1758,6.54391,-29.1629
42,-734,6.52991,29.1715,-0.000549183,-0.00101706,0.00149951,0.000734521,-0.00230077,0.708016,0.00182854,0.0121897,1266,1758,6.5299,-29.1715
49,-734,6.5033,29.1904,-0.000262111,-0.000249271,0.00123541,0.000979734,-0.00149111,0.787996,0.00143669,0.0105819,1273,1758,6.50332,-29.1904
56,-734,6.50366,29.2197,-9.30544e-05,0.000436916,0.000772319,0.000988444,-0.000644582,0.950657,0.00094977,0.00965625,1280,1758,6.50361,-29.2197
63,-734,6.51697,29.2172,0.000104879,0.00129639,0.000171672,0.00132063,8.06381e-05,1.43052,0.000854812,0.0125637,1287,1758,6.51696,-29.2172
70,-734,6.49707,29.2267,0.00035259,0.00203009,-0.000401265,0.00212113,0.000261546,-1.34768,0.00133547,0.0130539,1294,1758,6.49705,-29.2267
77,-734,6.51843,29.2502,0.000462964,0.00260505,-0.00107911,0.0030544,1.36059e-05,-1.17622,0.00203175,0.0166258,1301,1758,6.51847,-29.2502
84,-734,6.50818,29.2191,0.00042336,0.00305099,-0.00182944,0.0039895,-0.000515151,-1.0968,0.00284696,0.0164026,1308,1758,6.50817,-29.2191
91,-734,6.49402,29.2002,0.000316484,0.00351715,-0.00246129,0.00485264,-0.001019,-1.07366,0.00362285,0.0181429,1315,1758,6.49401,-29.2002
98,-734,6.49512,29.2029,0.000272615,0.00373301,-0.0029131,0.00539098,-0.00138536,-1.05337,0.00413389,0.014044,1322,1758,6.49506,-29.2029
105,-734,6.50769,29.1589,0.000264223,0.00380626,-0.00335643,0.00583025,-0.00175977,-1.02816,0.00458735,0.014893,1329,1758,6.50772,-29.159
112,-734,6.5188,29.1113,0.000186804,0.00373026,-0.00358057,0.00595347,-0.00203641,-1.01514,0.00479418,0.0122699,1336,1758,6.51878,-29.1114
119,-734,6.51953,29.0826,8.17936e-05,0.00336424,-0.00360142,0.00568078,-0.00223474,-0.999196,0.00471218,0.0128993,1343,1758,6.51948,-29.0827
126,-734,6.5105,29.0144,-2.53563e-05,0.00306539,-0.00354298,0.00538536,-0.00234532,-0.991049,0.0045769,0.0157402,1350,1758,6.51045,-29.0144
133,-734,6.48401,28.9623,-9.296e-05,0.00280894,-0.00335316,0.00501161,-0.00229563,-0.98959,0.00431488,0.0144255,1357,1758,6.484,-28.9623
140,-734,6.45764,28.9169,-0.00017667,0.00249494,-0.00310887,0.00454284,-0.00222457,-0.98831,0.00398285,0.0194746,1364,1758,6.4576,-28.9168
147,-734,6.44775,28.8348,-0.000272938,0.00221642,-0.00282489,0.00405869,-0.00211521,-0.992908,0.00362289,0.0144878,1371,1758,6.44775,-28.8348
154,-734,6.43384,28.787,-0.000327205,0.00213402,-0.00255827,0.00374227,-0.00193545,-1.00958,0.0033329,0.0103519,1378,1758,6.43388,-28.787
161,-734,6.43005,28.7089,-0.000423745,0.00238112,-0.00229231,0.00366597,-0.0017086,-1.05992,0.00317086,0.00908556,1385,1758,6.43005,-28.7088
168,-734,6.40771,28.6141,-0.00054301,0.00220746,-0.00209366,0.00333716,-0.00167271,-1.07599,0.00294518,0.0139085,1392,1758,6.40769,-28.6142
175,-734,6.4071,28.5195,-0.000791646,0.00207605,-0.00224526,0.00330624,-0.00202184,-1.06956,0.00310582,0.0167666,1399,1758,6.40712,-28.5195
182,-734,6.42749,28.4064,-0.00126656,0.0019318,-0.00228272,0.00311976,-0.00245453,-1.09095,0.00322595,0.0148867,1406,1758,6.42751,-28.4064
189,-734,6.40027,28.3003,-0.00159205,0.00158459,-0.00219685,0.00270715,-0.00271462,-1.0984,0.00313026,0.0109824,1413,1758,6.40032,-28.3003
196,-734,6.38049,28.1914,-0.00190362,0.00114436,-0.00236683,0.00243541,-0.00319467,-1.07143,0.00326036,0.0130837,1420,1758,6.38044,-28.1915
203,-734,6.37866,28.0532,-0.00232475,0.0014999,-0.00245493,0.00269944,-0.00352429,-1.11629,0.00360378,0.0162945,1427,1758,6.37868,-28.0532
210,-734,6.36414,27.9308,-0.0028429,0.00118455,-0.00207337,0.00206114,-0.00371949,-1.1708,0.00338292,0.0190599,1434,1758,6.36419,-27.9308
217,-734,6.32349,27.8068,-0.00279363,0.00122237,-0.00226091,0.00223823,-0.0038095,-1.14851,0.00353072,0.01337,1441,1758,6.32345,-27.8068
224,-734,6.32983,27.6624,-0.00266372,0.000996045,-0.00248915,0.00225555,-0.00392323,-1.10236,0.00361037,0.0135116,1448,1758,6.32984,-27.6623
231,-734,6.29858,27.535,-0.00256606,0.000671286,-0.00261858,0.0021311,-0.00402587,-1.06223,0.0036104,0.0137473,1455,1758,6.29859,-27.5351
238,-734,6.25879,27.3993,-0.00220808,0.000298404,-0.00268948,0.0020123,-0.00392198,-1.00343,0.00348479,0.0169694,1462,1758,6.25875,-27.3993
245,-734,6.26282,27.2017,-0.0015377,9.3756e-05,-0.0027975,0.00219204,-0.00363598,-0.92726,0.00339905,0.0236426,1469,1758,6.26282,-27.2017
252,-734,6.28687,27.019,-0.000912496,-4.22631e-05,-0.00299552,0.00254957,-0.00350433,-0.857522,0.00350968,0.0284212,1476,1758,6.28683,-27.019
259,-734,6.34204,26.9121,-0.000486615,-0.000175078,-0.00317421,0.00284719,-0.00350888,-0.809915,0.0036763,0.0361785,1483,1758,6.342,-26.9121
266,-734,6.31531,26.8652,0,0,0,0,0,0,0,-1,1490,1758,6.3153,-26.8652
273,-734,6.62488,26.9391,0,0,0,0,0,0,0,-1,1497,1758,6.62493,-26.9391
280,-734,16.6191,7.38013,0,0,0,0,0,0,0,-1,1504,1758,16.6192,-7.38011
287,-734,5.45947,25.5913,0,0,0,0,0,0,0,-1,1511,1758,5.4595,-25.5913
294,-734,12.0439,5.7876,0,0,0,0,0,0,0,-1,1518,1758,12.044,-5.78759
301,-734,10.1803,10.5541,0,0,0,0,0,0,0,-1,1525,1758,10.1803,-10.5541
308,-734,9.00854,5.43774,0,0,0,0,0,0,0,-1,1532,1758,9.00857,-5.4377
315,-734,5.3158,17.4298,0,0,0,0,0,0,0,-1,1539,1758,5.31581,-17.4299
322,-734,9.85913,7.48096,0,0,0,0,0,0,0,-1,1546,1758,9.85916,-7.48098
329,-734,5.45972,12.4125,0,0,0,0,0,0,0,-1,1553,1758,5.45969,-12.4125
336,-734,5.92188,13.8751,0,0,0,0,0,0,0,-1,1560,1758,5.92183,-13.8751
343,-734,5.54968,5.14221,0,0,0,0,0,0,0,-1,1567,1758,5.54973,-5.14225
350,-734,5.07397,6.73242,0,0,0,0,0,0,0,-1,1574,1758,5.07402,-6.73243
357,-734,5.05542,7.19189,0,0,0,0,0,0,0,-1,1581,1758,5.05541,-7.19184
364,-734,4.43896,10.4904,0,0,0,0,0,0,0,-1,1588,1758,4.43893,-10.4904
371,-734,7.36975,17.4751,0,0,0,0,0,0,0,-1,1595,1758,7.36972,-17.4752
378,-734,0,0,0,0,0,0,0,0,0,-1,1602,1758,0,0
385,-734,0,0,0,0,0,0,0,0,0,-1,1609,1758,0,0
392,-734,0,0,0,0,0,0,0,0,0,-1,1616,1758,0,0
399,-734,0,0,0,0,0,0,0,0,0,-1,1623,1758,0,0
406,-734,0,0,0,0,0,0,0,0,0,-1,1630,1758,0,0
413,-734,0,0,0,0,0,0,0,0,0,-1,1637,1758,0,0
420,-734,0,0,0,0,0,0,0,0,0,-1,1644,1758,0,0
427,-734,0,0,0,0,0,0,0,0,0,-1,1651,1758,0,0
434,-734,0,0,0,0,0,0,0,0,0,-1,1658,1758,0,0
441,-734,0,0,0,0,0,0,0,0,0,-1,1665,1758,0,0
448,-734,0,0,0,0,0,0,0,0,0,-1,1672,1758,0,0
455,-734,0,0,0,0,0,0,0,0,0,-1,1679,1758,0,0
462,-734,0,0,0,0,0,0,0,0,0,-1,1686,1758,0,0
469,-734,0,0,0,0,0,0,0,0,0,-1,1693,1758,0,0
476,-734,0,0,0,0,0,0,0,0,0,-1,1700,1758,0,0
483,-734,0,0,0,0,0,0,0,0,0,-1,1707,1758,0,0
490,-734,0,0,0,0,0,0,0,0,0,-1,1714,1758,0,0
497,-734,0,0,0,0,0,0,0,0,0,-1,1721,1758,0,0
504,-734,0,0,0,0,0,0,0,0,0,-1,1728,1758,0,0
511,-734,0,0,0,0,0,0,0,0,0,-1,1735,1758,0,0
518,-734,0,0,0,0,0,0,0,0,0,-1,1742,1758,0,0
525,-734,0,0,0,0,0,0,0,0,0,-1,1749,1758,0,0
532,-734,0,0,0,0,0,0,0,0,0,-1,1756,1758,0,0
539,-734,0,0,0,0,0,0,0,0,0,-1,1763,1758,0,0
546,-734,0,0,0,0,0,0,0,0,0,-1,1770,1758,0,0
553,-734,0,0,0,0,0,0,0,0,0,-1,1777,1758,0,0
560,-734,0,0,0,0,0,0,0,0,0,-1,1784,1758,0,0
567,-734,0,0,0,0,0,0,0,0,0,-1,1791,1758,0,0
574,-734,0,0,0,0,0,0,0,0,0,-1,1798,1758,0,0
581,-734,0,0,0,0,0,0,0,0,0,-1,1805,1758,0,0
588,-734,0,0,0,0,0,0,0,0,0,-1,1812,1758,0,0
595,-734,0,0,0,0,0,0,0,0,0,-1,1819,1758,0,0
602,-734,0,0,0,0,0,0,0,0,0,-1,1826,1758,0,0
609,-734,0,0,0,0,0,0,0,0,0,-1,1833,1758,0,0
616,-734,0,0,0,0,0,0,0,0,0,-1,1840,1758,0,0
623,-734,0,0,0,0,0,0,0,0,0,-1,1847,1758,0,0
630,-734,0,0,0,0,0,0,0,0,0,-1,1854,1758,0,0
637,-734,0,0,0,0,0,0,0,0,0,-1,1861,1758,0,0
644,-734,0,0,0,0,0,0,0,0,0,-1,1868,1758,0,0
651,-734,0,0,0,0,0,0,0,0,0,-1,1875,1758,0,0
658,-734,0,0,0,0,0,0,0,0,0,-1,1882,1758,0,0
665,-734,0,0,0,0,0,0,0,0,0,-1,1889,1758,0,0
672,-734,0,0,0,0,0,0,0,0,0,-1,1896,1758,0,0
679,-734,0,0,0,0,0,0,0,0,0,-1,1903,1758,0,0
686,-734,0,0,0,0,0,0,0,0,0,-1,1910,1758,0,0
693,-734,0,0,0,0,0,0,0,0,0,-1,1917,1758,0,0
700,-734,0,0,0,0,0,0,0,0,0,-1,1924,1758,0,0
707,-734,0,0,0,0,0,0,0,0,0,-1,1931,1758,0,0
714,-734,0,0,0,0,0,0,0,0,0,-1,1938,1758,0,0
721,-734,0,0,0,0,0,0,0,0,0,-1,1945,1758,0,0
728,-734,0,0,0,0,0,0,0,0,0,-1,1952,1758,0,0
735,-734,0,0,0,0,0,0,0,0,0,-1,1959,1758,0,0
742,-734,0,0,0,0,0,0,0,0,0,-1,1966,1758,0,0
749,-734,0,0,0,0,0,0,0,0,0,-1,1973,1758,0,0
756,-734,0,0,0,0,0,0,0,0,0,-1,1980,1758,0,0
763,-734,0,0,0,0,0,0,0,0,0,-1,1987,1758,0,0
770,-734,0,0,0,0,0,0,0,0,0,-1,1994,1758,0,0
777,-734,0,0,0,0,0,0,0,0,0,-1,2001,1758,0,0
784,-734,0,0,0,0,0,0,0,0,0,-1,2008,1758,0,0
791,-734,0,0,0,0,0,0,0,0,0,-1,2015,1758,0,0
798,-734,0,0,0,0,0,0,0,0,0,-1,2022,1758,0,0
805,-734,0,0,0,0,0,0,0,0,0,-1,2029,1758,0,0
812,-734,0,0,0,0,0,0,0,0,0,-1,2036,1758,0,0
-700,-741,0,0,0,0,0,0,0,0,0,-1,524,1765,0,0
-693,-741,0,0,0,0,0,0,0,0,0,-1,531,1765,0,0
-686,-741,0,0,0,0,0,0,0,0,0,-1,538,1765,0,0
-679,-741,0,0,0,0,0,0,0,0,0,-1,545,1765,0,0
-672,-741,0,0,0,0,0,0,0,0,0,-1,552,1765,0,0
-665,-741,0,0,0,0,0,0,0,0,0,-1,559,1765,0,0
-658,-741,0,0,0,0,0,0,0,0,0,-1,566,1765,0,0
-651,-741,0,0,0,0,0,0,0,0,0,-1,573,1765,0,0
-644,-741,0,0,0,0,0,0,0,0,0,-1,580,1765,0,0
-637,-741,0,0,0,0,0,0,0,0,0,-1,587,1765,0,0
-630,-741,0,0,0,0,0,0,0,0,0,-1,594,1765,0,0
-623,-741,0,0,0,0,0,0,0,0,0,-1,601,1765,0,0
-616,-741,0,0,0,0,0,0,0,0,0,-1,608,1765,0,0
-609,-741,0,0,0,0,0,0,0,0,0,-1,615,1765,0,0
-602,-741,0,0,0,0,0,0,0,0,0,-1,622,1765,0,0
-595,-741,0,0,0,0,0,0,0,0,0,-1,629,1765,0,0
-588,-741,0,0,0,0,0,0,0,0,0,-1,636,1765,0,0
-581,-741,0,0,0,0,0,0,0,0,0,-1,643,1765,0,0
-574,-741,0,0,0,0,0,0,0,0,0,-1,650,1765,0,0
-567,-741,0,0,0,0,0,0,0,0,0,-1,657,1765,0,0
-560,-741,0,0,0,0,0,0,0,0,0,-1,664,1765,0,0
-553,-741,0,0,0,0,0,0,0,0,0,-1,671,1765,0,0
-546,-741,0,0,0,0,0,0,0,0,0,-1,678,1765,0,0
-539,-741,0,0,0,0,0,0,0,0,0,-1,685,1765,0,0
-532,-741,0,0,0,0,0,0,0,0,0,-1,692,1765,0,0
-525,-741,0,0,0,0,0,0,0,0,0,-1,699,1765,0,0
-518,-741,0,0,0,0,0,0,0,0,0,-1,706,1765,0,0
-511,-741,0,0,0,0,0,0,0,0,0,-1,713,1765,0,0
-504,-741,0,0,0,0,0,0,0,0,0,-1,720,1765,0,0
-497,-741,0,0,0,0,0,0,0,0,0,-1,727,1765,0,0
-490,-741,0,0,0,0,0,0,0,0,0,-1,734,1765,0,0
-483,-741,0,0,0,0,0,0,0,0,0,-1,741,1765,0,0
-476,-741,0,0,0,0,0,0,0,0,0,-1,748,1765,0,0
-469,-741,0,0,0,0,0,0,0,0,0,-1,755,1765,0,0
-462,-741,0,0,0,0,0,0,0,0,0,-1,762,1765,0,0
-455,-741,0,0,0,0,0,0,0,0,0,-1,769,1765,0,0
-448,-741,0,0,0,0,0,0,0,0,0,-1,776,1765,0,0
-441,-741,0,0,0,0,0,0,0,0,0,-1,783,1765,0,0
-434,-741,0,0,0,0,0,0,0,0,0,-1,790,1765,0,0
-427,-741,0,0,0,0,0,0,0,0,0,-1,797,1765,0,0
-420,-741,0,0,0,0,0,0,0,0,0,-1,804,1765,0,0
-413,-741,0,0,0,0,0,0,0,0,0,-1,811,1765,0,0
-406,-741,0,0,0,0,0,0,0,0,0,-1,818,1765,0,0
-399,-741,0,0,0,0,0,0,0,0,0,-1,825,1765,0,0
-392,-741,0,0,0,0,0,0,0,0,0,-1,832,1765,0,0
-385,-741,0,0,0,0,0,0,0,0,0,-1,839,1765,0,0
-378,-741,0,0,0,0,0,0,0,0,0,-1,846,1765,0,0
-371,-741,0,0,0,0,0,0,0,0,0,-1,853,1765,0,0
-364,-741,0,0,0,0,0,0,0,0,0,-1,860,1765,0,0
-357,-741,0,0,0,0,0,0,0,0,0,-1,867,1765,0,0
-350,-741,0,0,0,0,0,0,0,0,0,-1,874,1765,0,0
-343,-741,0,0,0,0,0,0,0,0,0,-1,881,1765,0,0
-336,-741,0,0,0,0,0,0,0,0,0,-1,888,1765,0,0
-329,-741,0,0,0,0,0,0,0,0,0,-1,895,1765,0,0
-322,-741,0,0,0,0,0,0,0,0,0,-1,902,1765,0,0
-315,-741,0,0,0,0,0,0,0,0,0,-1,909,1765,0,0
-308,-741,0,0,0,0,0,0,0,0,0,-1,916,1765,0,0
-301,-741,0,0,0,0,0,0,0,0,0,-1,923,1765,0,0
-294,-741,0,0,0,0,0,0,0,0,0,-1,930,1765,0,0
-287,-741,0,0,0,0,0,0,0,0,0,-1,937,1765,0,0
-280,-741,0,0,0,0,0,0,0,0,0,-1,944,1765,0,0
-273,-741,0,0,0,0,0,0,0,0,0,-1,951,1765,0,0
-266,-741,0,0,0,0,0,0,0,0,0,-1,958,1765,0,0
-259,-741,0,0,0,0,0,0,0,0,0,-1,965,1765,0,0
-252,-741,0,0,0,0,0,0,0,0,0,-1,972,1765,0,0
-245,-741,0,0,0,0,0,0,0,0,0,-1,979,1765,0,0
-238,-741,5.63202,14.9113,0,0,0,0,0,0,0,-1,986,1765,5.632,-14.9112
-231,-741,6.10602,15.245,0,0,0,0,0,0,0,-1,993,1765,6.10605,-15.245
-224,-741,6.60541,15.9323,0,0,0,0,0,0,0,-1,1000,1765,6.60538,-15.9323
-217,-741,6.99121,16.5245,0,0,0,0,0,0,0,-1,1007,1765,6.99118,-16.5245
-210,-741,5.80957,23.4917,0,0,0,0,0,0,0,-1,1014,1765,5.8096,-23.4917
-203,-741,5.50122,22.6226,0,0,0,0,0,0,0,-1,1021,1765,5.50125,-22.6225
-196,-741,5.14233,21.7794,0,0,0,0,0,0,0,-1,1028,1765,5.1423,-21.7795
-189,-741,4.28918,20.7313,0,0,0,0,0,0,0,-1,1035,1765,4.28921,-20.7314
-182,-741,3.81775,21.2374,0,0,0,0,0,0,0,-1,1042,1765,3.81779,-21.2375
-175,-741,3.34644,21.7435,0,0,0,0,0,0,0,-1,1049,1765,3.34638,-21.7435
-168,-741,5.4801,16.3933,0,0,0,0,0,0,0,-1,1056,1765,5.4801,-16.3933
-161,-741,3.73047,14.4974,0,0,0,0,0,0,0,-1,1063,1765,3.73043,-14.4974
-154,-741,2.46143,9.75415,0,0,0,0,0,0,0,-1,1070,1765,2.46145,-9.75416
-147,-741,6.08899,25.5752,0,0,0,0,0,0,0,-1,1077,1765,6.08901,-25.5752
-140,-741,6.49072,25.8256,0,0,0,0,0,0,0,-1,1084,1765,6.49068,-25.8256
-133,-741,7.19556,26.5186,0,0,0,0,0,0,0,-1,1091,1765,7.19555,-26.5185
-126,-741,6.70569,26.4332,0,0,0,0,0,0,0,-1,1098,1765,6.70564,-26.4332
-119,-741,6.68176,26.6586,0,0,0,0,0,0,0,-1,1105,1765,6.68178,-26.6585
-112,-741,6.85632,26.9833,0,0,0,0,0,0,0,-1,1112,1765,6.85632,-26.9833
-105,-741,6.92773,27.0493,0,0,0,0,0,0,0,-1,1119,1765,6.92779,-27.0493
-98,-741,7.01819,27.152,0,0,0,0,0,0,0,-1,1126,1765,7.01819,-27.152
-91,-741,6.87646,27.3297,0,0,0,0,0,0,0,-1,1133,1765,6.87649,-27.3298
-84,-741,6.83142,27.3438,0,0,0,0,0,0,0,-1,1140,1765,6.83146,-27.3437
-77,-741,6.70703,27.0203,0,0,0,0,0,0,0,-1,1147,1765,6.70701,-27.0203
-70,-741,6.6759,27.4395,0,0,0,0,0,0,0,-1,1154,1765,6.6759,-27.4394
-63,-741,6.6178,27.7305,0,0,0,0,0,0,0,-1,1161,1765,6.61777,-27.7305
-56,-741,6.79639,28.0061,0,0,0,0,0,0,0,-1,1168,1765,6.79641,-28.0061
-49,-741,6.77124,28.2992,0,0,0,0,0,0,0,-1,1175,1765,6.77124,-28.2993
-42,-741,6.69702,28.4187,0,0,0,0,0,0,0,-1,1182,1765,6.697,-28.4187
-35,-741,6.70923,28.4344,-0.00321413,-0.00116876,-0.000428828,-0.0010825,-0.00330039,-1.37227,0.00194271,0.0237288,1189,1765,6.70922,-28.4344
-28,-741,6.71423,28.5565,-0.00270414,-0.00181344,-0.000597129,-0.00151387,-0.0030037,-1.10581,0.00173421,0.0144282,1196,1765,6.71418,-28.5566
-21,-741,6.71021,28.6545,-0.00260024,-0.0020066,-0.000425369,-0.00178473,-0.00282211,-1.09002,0.00164828,0.016851,1203,1765,6.71015,-28.6545
-14,-741,6.67261,28.7411,-0.00244742,-0.0024258,-0.000219462,-0.00221688,-0.00265634,-0.810002,0.0016441,0.0170102,1210,1765,6.67257,-28.7411
-7,-741,6.66223,28.7982,-0.00237004,-0.00285236,1.08204e-05,-0.0023698,-0.0028526,0.0224191,0.00176298,0.0144692,1217,1765,6.66219,-28.7982
0,-741,6.63574,28.8702,-0.00227866,-0.00309912,0.000428187,-0.00209591,-0.00328187,0.403409,0.00191891,0.0146315,1224,1765,6.63574,-28.8703
7,-741,6.60254,28.9277,-0.00239066,-0.00343846,0.000923248,-0.00185302,-0.00397609,0.527326,0.00229736,0.01696,1231,1765,6.60251,-28.9278
14,-741,6.60852,28.9941,-0.00257316,-0.00360706,0.00134449,-0.00164966,-0.00453056,0.601863,0.00264772,0.0160386,1238,1765,6.60852,-28.9941
21,-741,6.59033,29.053,-0.00249042,-0.00366013,0.00165403,-0.00132089,-0.00482967,0.615462,0.0028822,0.0122234,1245,1765,6.59032,-29.053
28,-741,6.54333,29.1056,-0.00248397,-0.00360199,0.00181253,-0.0011462,-0.00493976,0.63582,0.00298538,0.0127056,1252,1765,6.54333,-29.1057
35,-741,6.55859,29.1332,-0.00246115,-0.00323551,0.00186387,-0.000944672,-0.00475199,0.682991,0.00290477,0.0148552,1259,1765,6.55863,-29.1332
42,-741,6.57947,29.1686,-0.00213428,-0.00250404,0.00165741,-0.000651476,-0.00398685,0.729854,0.00246955,0.0146929,1266,1765,6.57945,-29.1686
49,-741,6.54651,29.2034,-0.00180053,-0.00164293,0.00120305,-0.000516102,-0.00292735,0.818101,0.00180431,0.0101329,1273,1765,6.54655,-29.2034
56,-741,6.5304,29.214,-0.00164627,-0.000894563,0.000535846,-0.000615897,-0.00192494,1.09124,0.00113513,0.0102447,1280,1765,6.53043,-29.2139
63,-741,6.52197,29.2172,-0.00138332,8.90357e-05,-0.000261732,0.000134178,-0.00142846,-1.4,0.00100004,0.0146932,1287,1765,6.52193,-29.2171
70,-741,6.50513,29.2183,-0.00107588,0.000988532,-0.00106119,0.00143672,-0.00152407,-1.17117,0.00170966,0.0163172,1294,1765,6.50513,-29.2183
77,-741,6.50476,29.2343,-0.000824855,0.00178094,-0.00197554,0.00284454,-0.00188846,-1.07692,0.00275112,0.0132195,1301,1765,6.50476,-29.2342
84,-741,6.4585,29.2384,-0.000631013,0.00242383,-0.00294611,0.00421493,-0.00242211,-1.02455,0.00387822,0.0152671,1308,1765,6.45851,-29.2384
91,-741,6.44409,29.2355,-0.000538616,0.0030953,-0.00372965,0.00542703,-0.00287035,-1.01206,0.00486571,0.0132714,1315,1765,6.44414,-29.2355
98,-741,6.45544,29.2035,-0.00042266,0.00341951,-0.00429073,0.00619959,-0.00320273,-0.99588,0.00551958,0.0103607,1322,1765,6.45544,-29.2035
105,-741,6.47156,29.1448,-0.000293904,0.00364029,-0.00485989,0.00691609,-0.00356971,-0.9777,0.00615588,0.0104216,1329,1765,6.47153,-29.1448
112,-741,6.48364,29.1052,-0.000207382,0.00373459,-0.00519969,0.00732432,-0.00379711,-0.96656,0.00652772,0.0103973,1336,1765,6.48363,-29.1052
119,-741,6.46753,29.0554,-0.000229456,0.0034689,-0.00527969,0.00721387,-0.00397443,-0.953844,0.0065492,0.0133385,1343,1765,6.46757,-29.0554
126,-741,6.45081,28.9795,-0.0003969,0.00322918,-0.00529603,0.00701391,-0.00418163,-0.950315,0.00653233,0.018142,1350,1765,6.4508,-28.9795
133,-741,6.41858,28.9384,-0.00041375,0.00305453,-0.0051677,0.00677129,-0.00413052,-0.94728,0.00635542,0.0140313,1357,1765,6.41863,-28.9383
140,-741,6.39673,28.8854,-0.000435672,0.00276533,-0.00493924,0.00635691,-0.00402725,-0.942079,0.00604538,0.0112009,1364,1765,6.39674,-28.8854
147,-741,6.38611,28.8254,-0.000706368,0.00240293,-0.00458126,0.00568615,-0.00398958,-0.948976,0.00561483,0.0106596,1371,1765,6.38606,-28.8254
154,-741,6.37585,28.7871,-0.000883002,0.00230081,-0.0042388,0.00523678,-0.00381897,-0.965027,0.00524965,0.00920021,1378,1765,6.37587,-28.7871
161,-741,6.36487,28.7117,-0.000675934,0.00268177,-0.00382339,0.00517866,-0.00317282,-0.992275,0.00486787,0.0108779,1385,1765,6.36486,-28.7117
168,-741,6.33386,28.6281,-0.000573547,0.0029096,-0.00328298,0.00488435,-0.0025483,-1.02927,0.00436132,0.0250746,1392,1765,6.33381,-28.628
175,-741,6.29517,28.5659,0,0,0,0,0,0,0,-1,1399,1765,6.29514,-28.5659
182,-741,6.30933,28.4176,0,0,0,0,0,0,0,-1,1406,1765,6.30936,-28.4176
189,-741,6.30469,28.3276,0,0,0,0,0,0,0,-1,1413,1765,6.30474,-28.3276
196,-741,6.27246,28.1859,0,0,0,0,0,0,0,-1,1420,1765,6.27249,-28.186
203,-741,6.26489,27.9999,0,0,0,0,0,0,0,-1,1427,1765,6.26493,-27.9999
210,-741,6.25708,27.8109,0,0,0,0,0,0,0,-1,1434,1765,6.25708,-27.811
217,-741,6.29797,27.698,0,0,0,0,0,0,0,-1,1441,1765,6.29793,-27.698
224,-741,6.29675,27.6036,0,0,0,0,0,0,0,-1,1448,1765,6.29674,-27.6036
231,-741,6.32874,27.4932,-0.00394111,0.000782531,-0.00333678,0.00250878,-0.00566736,-1.09337,0.00483648,0.0435075,1455,1765,6.32877,-27.4932
238,-741,6.14417,27.4119,-0.00344484,0.00028246,-0.00341275,0.00230726,-0.00546964,-1.03531,0.00461208,0.0404748,1462,1765,6.14419,-27.4119
245,-741,6.13159,27.2537,-0.00257717,-6.89705e-05,-0.00351544,0.00240936,-0.0050555,-0.956732,0.00439918,0.0450803,1469,1765,6.13158,-27.2537
252,-741,6.10681,27.0748,-0.00168836,-0.000322022,-0.00371268,0.00276983,-0.00478021,-0.876385,0.00441022,0.0472039,1476,1765,6.1068,-27.0749
259,-741,6.25,26.9658,0,0,0,0,0,0,0,-1,1483,1765,6.24995,-26.9659
266,-741,6.37451,25.1742,0,0,0,0,0,0,0,-1,1490,1765,6.37449,-25.1742
273,-741,17.0328,7.54468,0,0,0,0,0,0,0,-1,1497,1765,17.0328,-7.54474
280,-741,16.2363,9.84546,0,0,0,0,0,0,0,-1,1504,1765,16.2363,-9.84547
287,-741,14.5045,8.71423,0,0,0,0,0,0,0,-1,1511,1765,14.5045,-8.71429
294,-741,12.1156,8.16724,0,0,0,0,0,0,0,-1,1518,1765,12.1156,-8.16724
301,-741,11.036,7.02612,0,0,0,0,0,0,0,-1,1525,1765,11.036,-7.02617
308,-741,10.4718,6.09814,0,0,0,0,0,0,0,-1,1532,1765,10.4718,-6.0981
315,-741,9.70715,6.86963,0,0,0,0,0,0,0,-1,1539,1765,9.70712,-6.86963
322,-741,9.21252,8.54858,0,0,0,0,0,0,0,-1,1546,1765,9.21251,-8.54858
329,-741,8.5603,10.1146,0,0,0,0,0,0,0,-1,1553,1765,8.56033,-10.1146
336,-741,4.74475,14.6453,0,0,0,0,0,0,0,-1,1560,1765,4.7447,-14.6452
343,-741,5.42297,5.93701,0,0,0,0,0,0,0,-1,1567,1765,5.42296,-5.937
350,-741,4.90369,5.44666,0,0,0,0,0,0,0,-1,1574,1765,4.90368,-5.44664
357,-741,4.02063,5.16626,0,0,0,0,0,0,0,-1,1581,1765,4.02058,-5.1662
364,-741,0,0,0,0,0,0,0,0,0,-1,1588,1765,0,0
371,-741,0,0,0,0,0,0,0,0,0,-1,1595,1765,0,0
378,-741,0,0,0,0,0,0,0,0,0,-1,1602,1765,0,0
385,-741,0,0,0,0,0,0,0,0,0,-1,1609,1765,0,0
392,-741,0,0,0,0,0,0,0,0,0,-1,1616,1765,0,0
399,-741,0,0,0,0,0,0,0,0,0,-1,1623,1765,0,0
406,-741,0,0,0,0,0,0,0,0,0,-1,1630,1765,0,0
413,-741,0,0,0,0,0,0,0,0,0,-1,1637,1765,0,0
420,-741,0,0,0,0,0,0,0,0,0,-1,1644,1765,0,0
427,-741,0,0,0,0,0,0,0,0,0,-1,1651,1765,0,0
434,-741,0,0,0,0,0,0,0,0,0,-1,1658,1765,0,0
441,-741,0,0,0,0,0,0,0,0,0,-1,1665,1765,0,0
448,-741,0,0,0,0,0,0,0,0,0,-1,1672,1765,0,0
455,-741,0,0,0,0,0,0,0,0,0,-1,1679,1765,0,0
462,-741,0,0,0,0,0,0,0,0,0,-1,1686,1765,0,0
469,-741,0,0,0,0,0,0,0,0,0,-1,1693,1765,0,0
476,-741,0,0,0,0,0,0,0,0,0,-1,1700,1765,0,0
483,-741,0,0,0,0,0,0,0,0,0,-1,1707,1765,0,0
490,-741,0,0,0,0,0,0,0,0,0,-1,1714,1765,0,0
497,-741,0,0,0,0,0,0,0,0,0,-1,1721,1765,0,0
504,-741,0,0,0,0,0,0,0,0,0,-1,1728,1765,0,0
511,-741,0,0,0,0,0,0,0,0,0,-1,1735,1765,0,0
518,-741,0,0,0,0,0,0,0,0,0,-1,1742,1765,0,0
525,-741,0,0,0,0,0,0,0,0,0,-1,1749,1765,0,0
532,-741,0,0,0,0,0,0,0,0,0,-1,1756,1765,0,0
539,-741,0,0,0,0,0,0,0,0,0,-1,1763,1765,0,0
546,-741,0,0,0,0,0,0,0,0,0,-1,1770,1765,0,0
553,-741,0,0,0,0,0,0,0,0,0,-1,1777,1765,0,0
560,-741,0,0,0,0,0,0,0,0,0,-1,1784,1765,0,0
567,-741,0,0,0,0,0,0,0,0,0,-1,1791,1765,0,0
574,-741,0,0,0,0,0,0,0,0,0,-1,1798,1765,0,0
581,-741,0,0,0,0,0,0,0,0,0,-1,1805,1765,0,0
588,-741,0,0,0,0,0,0,0,0,0,-1,1812,1765,0,0
595,-741,0,0,0,0,0,0,0,0,0,-1,1819,1765,0,0
602,-741,0,0,0,0,0,0,0,0,0,-1,1826,1765,0,0
609,-741,0,0,0,0,0,0,0,0,0,-1,1833,1765,0,0
616,-741,0,0,0,0,0,0,0,0,0,-1,1840,1765,0,0
623,-741,0,0,0,0,0,0,0,0,0,-1,1847,1765,0,0
630,-741,0,0,0,0,0,0,0,0,0,-1,1854,1765,0,0
637,-741,0,0,0,0,0,0,0,0,0,-1,1861,1765,0,0
644,-741,0,0,0,0,0,0,0,0,0,-1,1868,1765,0,0
651,-741,0,0,0,0,0,0,0,0,0,-1,1875,1765,0,0
658,-741,0,0,0,0,0,0,0,0,0,-1,1882,1765,0,0
665,-741,0,0,0,0,0,0,0,0,0,-1,1889,1765,0,0
672,-741,0,0,0,0,0,0,0,0,0,-1,1896,1765,0,0
679,-741,0,0,0,0,0,0,0,0,0,-1,1903,1765,0,0
686,-741,0,0,0,0,0,0,0,0,0,-1,1910,1765,0,0
693,-741,0,0,0,0,0,0,0,0,0,-1,1917,1765,0,0
700,-741,0,0,0,0,0,0,0,0,0,-1,1924,1765,0,0
707,-741,0,0,0,0,0,0,0,0,0,-1,1931,1765,0,0
714,-741,0,0,0,0,0,0,0,0,0,-1,1938,1765,0,0
721,-741,0,0,0,0,0,0,0,0,0,-1,1945,1765,0,0
728,-741,0,0,0,0,0,0,0,0,0,-1,1952,1765,0,0
735,-741,0,0,0,0,0,0,0,0,0,-1,1959,1765,0,0
742,-741,0,0,0,0,0,0,0,0,0,-1,1966,1765,0,0
749,-741,0,0,0,0,0,0,0,0,0,-1,1973,1765,0,0
756,-741,0,0,0,0,0,0,0,0,0,-1,1980,1765,0,0
763,-741,0,0,0,0,0,0,0,0,0,-1,1987,1765,0,0
770,-741,0,0,0,0,0,0,0,0,0,-1,1994,1765,0,0
777,-741,0,0,0,0,0,0,0,0,0,-1,2001,1765,0,0
784,-741,0,0,0,0,0,0,0,0,0,-1,2008,1765,0,0
791,-741,0,0,0,0,0,0,0,0,0,-1,2015,1765,0,0
798,-741,0,0,0,0,0,0,0,0,0,-1,2022,1765,0,0
805,-741,0,0,0,0,0,0,0,0,0,-1,2029,1765,0,0
812,-741,0,0,0,0,0,0,0,0,0,-1,2036,1765,0,0
-700,-748,0,0,0,0,0,0,0,0,0,-1,524,1772,0,0
-693,-748,0,0,0,0,0,0,0,0,0,-1,531,1772,0,0
-686,-748,0,0,0,0,0,0,0,0,0,-1,538,1772,0,0
-679,-748,0,0,0,0,0,0,0,0,0,-1,545,1772,0,0
-672,-748,0,0,0,0,0,0,0,0,0,-1,552,1772,0,0
-665,-748,0,0,0,0,0,0,0,0,0,-1,559,1772,0,0
-658,-748,0,0,0,0,0,0,0,0,0,-1,566,1772,0,0
-651,-748,0,0,0,0,0,0,0,0,0,-1,573,1772,0,0
-644,-748,0,0,0,0,0,0,0,0,0,-1,580,1772,0,0
-637,-748,0,0,0,0,0,0,0,0,0,-1,587,1772,0,0
-630,-748,0,0,0,0,0,0,0,0,0,-1,594,1772,0,0
-623,-748,0,0,0,0,0,0,0,0,0,-1,601,1772,0,0
-616,-748,0,0,0,0,0,0,0,0,0,-1,608,1772,0,0
-609,-748,0,0,0,0,0,0,0,0,0,-1,615,1772,0,0
-602,-748,0,0,0,0,0,0,0,0,0,-1,622,1772,0,0
-595,-748,0,0,0,0,0,0,0,0,0,-1,629,1772,0,0
-588,-748,0,0,0,0,0,0,0,0,0,-1,636,1772,0,0
-581,-748,0,0,0,0,0,0,0,0,0,-1,643,1772,0,0
-574,-748,0,0,0,0,0,0,0,0,0,-1,650,1772,0,0
-567,-748,0,0,0,0,0,0,0,0,0,-1,657,1772,0,0
-560,-748,0,0,0,0,0,0,0,0,0,-1,664,1772,0,0
-553,-748,0,0,0,0,0,0,0,0,0,-1,671,1772,0,0
-546,-748,0,0,0,0,0,0,0,0,0,-1,678,1772,0,0
-539,-748,0,0,0,0,0,0,0,0,0,-1,685,1772,0,0
-532,-748,0,0,0,0,0,0,0,0,0,-1,692,1772,0,0
-525,-748,0,0,0,0,0,0,0,0,0,-1,699,1772,0,0
-518,-748,0,0,0,0,0,0,0,0,0,-1,706,1772,0,0
-511,-748,0,0,0,0,0,0,0,0,0,-1,713,1772,0,0
-504,-748,0,0,0,0,0,0,0,0,0,-1,720,1772,0,0
-497,-748,0,0,0,0,0,0,0,0,0,-1,727,1772,0,0
-490,-748,0,0,0,0,0,0,0,0,0,-1,734,1772,0,0
-483,-748,0,0,0,0,0,0,0,0,0,-1,741,1772,0,0
-476,-748,0,0,0,0,0,0,0,0,0,-1,748,1772,0,0
-469,-748,0,0,0,0,0,0,0,0,0,-1,755,1772,0,0
-462,-748,0,0,0,0,0,0,0,0,0,-1,762,1772,0,0
-455,-748,0,0,0,0,0,0,0,0,0,-1,769,1772,0,0
-448,-748,0,0,0,0,0,0,0,0,0,-1,776,1772,0,0
-441,-748,0,0,0,0,0,0,0,0,0,-1,783,1772,0,0
-434,-748,0,0,0,0,0,0,0,0,0,-1,790,1772,0,0
-427,-748,0,0,0,0,0,0,0,0,0,-1,797,1772,0,0
-420,-748,0,0,0,0,0,0,0,0,0,-1,804,1772,0,0
-413,-748,0,0,0,0,0,0,0,0,0,-1,811,1772,0,0
-406,-748,0,0,0,0,0,0,0,0,0,-1,818,1772,0,0
-399,-748,0,0,0,0,0,0,0,0,0,-1,825,1772,0,0
-392,-748,0,0,0,0,0,0,0,0,0,-1,832,1772,0,0
-385,-748,0,0,0,0,0,0,0,0,0,-1,839,1772,0,0
-378,-748,0,0,0,0,0,0,0,0,0,-1,846,1772,0,0
-371,-748,0,0,0,0,0,0,0,0,0,-1,853,1772,0,0
-364,-748,0,0,0,0,0,0,0,0,0,-1,860,1772,0,0
-357,-748,0,0,0,0,0,0,0,0,0,-1,867,1772,0,0
-350,-748,0,0,0,0,0,0,0,0,0,-1,874,1772,0,0
-343,-748,0,0,0,0,0,0,0,0,0,-1,881,1772,0,0
-336,-748,0,0,0,0,0,0,0,0,0,-1,888,1772,0,0
-329,-748,0,0,0,0,0,0,0,0,0,-1,895,1772,0,0
-322,-748,0,0,0,0,0,0,0,0,0,-1,902,1772,0,0
-315,-748,0,0,0,0,0,0,0,0,0,-1,909,1772,0,0
-308,-748,0,0,0,0,0,0,0,0,0,-1,916,1772,0,0
-301,-748,0,0,0,0,0,0,0,0,0,-1,923,1772,0,0
-294,-748,0,0,0,0,0,0,0,0,0,-1,930,1772,0,0
-287,-748,0,0,0,0,0,0,0,0,0,-1,937,1772,0,0
-280,-748,0,0,0,0,0,0,0,0,0,-1,944,1772,0,0
-273,-748,0,0,0,0,0,0,0,0,0,-1,951,1772,0,0
-266,-748,0,0,0,0,0,0,0,0,0,-1,958,1772,0,0
-259,-748,0,0,0,0,0,0,0,0,0,-1,965,1772,0,0
-252,-748,0,0,0,0,0,0,0,0,0,-1,972,1772,0,0
-245,-748,0,0,0,0,0,0,0,0,0,-1,979,1772,0,0
-238,-748,0,0,0,0,0,0,0,0,0,-1,986,1772,0,0
-231,-748,0,0,0,0,0,0,0,0,0,-1,993,1772,0,0
-224,-748,0,0,0,0,0,0,0,0,0,-1,1000,1772,0,0
-217,-748,6.45807,16.5496,0,0,0,0,0,0,0,-1,1007,1772,6.45805,-16.5495
-210,-748,5.46893,25.1432,0,0,0,0,0,0,0,-1,1014,1772,5.4689,-25.1432
-203,-748,5.40662,24.1573,0,0,0,0,0,0,0,-1,1021,1772,5.40657,-24.1574
-196,-748,5.15344,22.8755,0,0,0,0,0,0,0,-1,1028,1772,5.15342,-22.8754
-189,-748,4.52478,21.7634,0,0,0,0,0,0,0,-1,1035,1772,4.52475,-21.7634
-182,-748,3.94958,20.8662,0,0,0,0,0,0,0,-1,1042,1772,3.94959,-20.8662
-175,-748,3.56726,19.4518,0,0,0,0,0,0,0,-1,1049,1772,3.5673,-19.4518
-168,-748,3.04858,18.0109,0,0,0,0,0,0,0,-1,1056,1772,3.04853,-18.0108
-161,-748,3.50562,13.2729,0,0,0,0,0,0,0,-1,1063,1772,3.5056,-13.2729
-154,-748,-3.38562,10.6989,0,0,0,0,0,0,0,-1,1070,1772,-3.38564,-10.6989
-147,-748,-6.38733,11.0702,0,0,0,0,0,0,0,-1,1077,1772,-6.38731,-11.0702
-140,-748,7.42126,23.8113,0,0,0,0,0,0,0,-1,1084,1772,7.42133,-23.8113
-133,-748,7.44727,22.0308,0,0,0,0,0,0,0,-1,1091,1772,7.44728,-22.0308
-126,-748,5.98035,22.6067,0,0,0,0,0,0,0,-1,1098,1772,5.9803,-22.6067
-119,-748,6.63342,26.309,0,0,0,0,0,0,0,-1,1105,1772,6.6334,-26.3089
-112,-748,6.91333,24.923,0,0,0,0,0,0,0,-1,1112,1772,6.91339,-24.923
-105,-748,6.83313,25.0537,0,0,0,0,0,0,0,-1,1119,1772,6.83311,-25.0537
-98,-748,6.99341,13.5935,0,0,0,0,0,0,0,-1,1126,1772,6.99343,-13.5935
-91,-748,4.85352,15.3033,0,0,0,0,0,0,0,-1,1133,1772,4.85351,-15.3033
-84,-748,-0.192017,7.26196,0,0,0,0,0,0,0,-1,1140,1772,-0.192047,-7.26201
-77,-748,4.42615,13.5537,0,0,0,0,0,0,0,-1,1147,1772,4.4261,-13.5538
-70,-748,4.46191,13.7446,0,0,0,0,0,0,0,-1,1154,1772,4.4619,-13.7446
-63,-748,4.49768,13.9355,0,0,0,0,0,0,0,-1,1161,1772,4.49769,-13.9355
-56,-748,3.05762,7.87817,0,0,0,0,0,0,0,-1,1168,1772,3.05768,-7.87822
-49,-748,3.04102,7.82471,0,0,0,0,0,0,0,-1,1175,1772,3.04096,-7.82468
-42,-748,0.793457,14.9474,0,0,0,0,0,0,0,-1,1182,1772,0.793413,-14.9474
-35,-748,6.79138,28.4825,0,0,0,0,0,0,0,-1,1189,1772,6.79132,-28.4825
-28,-748,6.83716,28.5844,-0.00203297,-0.00129533,-6.44558e-05,-0.00128974,-0.00203856,-1.48429,0.00119069,0.0493402,1196,1772,6.83719,-28.5844
-21,-748,6.7821,28.6945,-0.00178333,-0.00140216,0.000307542,-0.00123094,-0.00195455,1.06279,0.00114106,0.0227402,1203,1772,6.78217,-28.6945
-14,-748,6.76013,28.7257,-0.00114238,-0.00177991,0.000822083,-0.000579427,-0.00234287,0.600447,0.00140906,0.0167738,1210,1772,6.7601,-28.7257
-7,-748,6.75073,28.7832,-0.00068605,-0.00221669,0.000202417,-0.000659734,-0.00224301,0.129283,0.00133109,0.015086,1217,1772,6.7507,-28.7832
0,-748,6.70264,28.8423,-0.000486659,-0.00257019,0.000498341,-0.0003736,-0.00268325,0.223094,0.00167822,0.014413,1224,1772,6.70268,-28.8423
7,-748,6.67371,28.9023,-0.000950569,-0.00321506,0.0008033,-0.000694553,-0.00347108,0.308529,0.00212079,0.0140562,1231,1772,6.67367,-28.9023
14,-748,6.65466,28.9749,-0.00136867,-0.00321815,0.000737021,-0.0011109,-0.00347593,0.336455,0.00204991,0.0155716,1238,1772,6.6547,-28.9748
21,-748,6.65149,29.0388,-0.00150437,-0.00337862,0.000580931,-0.00133892,-0.00354408,0.277465,0.00206645,0.011531,1245,1772,6.65146,-29.0389
28,-748,6.58667,29.0919,-0.00196053,-0.00344863,0.000374836,-0.00187144,-0.00353771,0.233332,0.00204364,0.0115306,1252,1772,6.58672,-29.0919
35,-748,6.59607,29.1168,-0.00246901,-0.00317137,6.41158e-05,-0.0024632,-0.00317717,0.0902922,0.00192478,0.0130148,1259,1772,6.59605,-29.1168
42,-748,6.60767,29.1498,-0.00237846,-0.00242311,-0.000509169,-0.00189113,-0.00291045,-0.763488,0.00170529,0.0132351,1266,1772,6.60762,-29.1498
49,-748,6.58508,29.1626,-0.00219036,-0.00159995,-0.00122369,-0.000636358,-0.00315395,-0.903757,0.00192589,0.0102588,1273,1772,6.58509,-29.1626
56,-748,6.54688,29.2037,-0.00230932,-0.000912357,-0.00208515,0.000588191,-0.00380987,-0.947014,0.00275697,0.010923,1280,1772,6.54693,-29.2038
63,-748,6.52271,29.2028,-0.00216998,8.30074e-05,-0.00301135,0.00217167,-0.00425864,-0.964381,0.00377715,0.0122389,1287,1772,6.52268,-29.2028
70,-748,6.52075,29.1987,-0.00195513,0.00092756,-0.00393904,0.00368068,-0.00470825,-0.960788,0.00485545,0.0130709,1294,1772,6.5208,-29.1987
77,-748,6.51709,29.1953,-0.00171856,0.00174391,-0.00492607,0.0052341,-0.00520875,-0.954378,0.00602919,0.0121358,1301,1772,6.51708,-29.1954
84,-748,6.45569,29.2163,-0.00136069,0.00244422,-0.00589742,0.00673845,-0.00565491,-0.941424,0.00716442,0.0137888,1308,1772,6.45567,-29.2163
91,-748,6.44214,29.2213,-0.00116796,0.00316842,-0.00668505,0.0080281,-0.00602764,-0.942213,0.00814243,0.0120755,1315,1772,6.44214,-29.2213
98,-748,6.42639,29.1915,-0.000929064,0.00350147,-0.0069716,0.0086013,-0.00602889,-0.939231,0.00849016,0.0102193,1322,1772,6.42637,-29.1915
105,-748,6.42859,29.1312,-0.000615336,0.00376806,-0.00761366,0.0094992,-0.00634647,-0.925541,0.00920866,0.0110253,1329,1772,6.42863,-29.1312
112,-748,6.42285,29.1078,-0.000285786,0.00393114,-0.00802074,0.0101159,-0.00647057,-0.913928,0.009653,0.0140638,1336,1772,6.42282,-29.1078
119,-748,6.41821,29.0707,-0.000237942,0.00348279,-0.00800549,0.00984123,-0.00659639,-0.899565,0.0095517,0.0127565,1343,1772,6.41823,-29.0707
126,-748,6.40222,29.0448,-0.000422725,0.00330566,-0.00801525,0.00967065,-0.00678772,-0.899657,0.00955071,0.0136825,1350,1772,6.40226,-29.0448
133,-748,6.35999,28.9827,-0.000289491,0.00322415,-0.00797329,0.00963187,-0.00669721,-0.893835,0.00947822,0.00844884,1357,1772,6.36004,-28.9827
140,-748,6.35828,28.9095,-0.000162493,0.00301026,-0.00774086,0.00932562,-0.00647785,-0.886466,0.00917338,0.0117496,1364,1772,6.35823,-28.9096
147,-748,6.34131,28.8392,-0.000708844,0.00262888,-0.00723286,0.00838291,-0.00646288,-0.898781,0.00859508,0.0135009,1371,1772,6.34133,-28.8393
154,-748,6.31091,28.7826,-0.00115872,0.00270123,-0.00679089,0.00783108,-0.00628856,-0.923848,0.00816817,0.0124081,1378,1772,6.31091,-28.7826
161,-748,6.27905,28.7235,-0.000405821,0.00338331,-0.0061704,0.00794345,-0.00496596,-0.93435,0.00751905,0.0195895,1385,1772,6.27906,-28.7235
168,-748,6.26086,28.6858,0,0,0,0,0,0,0,-1,1392,1772,6.26083,-28.6858
175,-748,11.6235,16.8242,0,0,0,0,0,0,0,-1,1399,1772,11.6236,-16.8242
182,-748,7.62476,10.3058,0,0,0,0,0,0,0,-1,1406,1772,7.62476,-10.3058
189,-748,6.15857,6.95898,0,0,0,0,0,0,0,-1,1413,1772,6.15862,-6.95896
196,-748,3.9425,8.46021,0,0,0,0,0,0,0,-1,1420,1772,3.9425,-8.46026
203,-748,3.9668,12.9835,0,0,0,0,0,0,0,-1,1427,1772,3.96678,-12.9836
210,-748,4.71472,16.8318,0,0,0,0,0,0,0,-1,1434,1772,4.71471,-16.8317
217,-748,5.38452,21.5551,0,0,0,0,0,0,0,-1,1441,1772,5.38455,-21.555
224,-748,6.14258,25.2345,0,0,0,0,0,0,0,-1,1448,1772,6.14263,-25.2345
231,-748,6.38025,27.3292,0,0,0,0,0,0,0,-1,1455,1772,6.38022,-27.3292
238,-748,6.04932,27.4229,0,0,0,0,0,0,0,-1,1462,1772,6.04926,-27.4228
245,-748,6.00134,27.2914,0,0,0,0,0,0,0,-1,1469,1772,6.00139,-27.2913
252,-748,5.97791,27.0726,0,0,0,0,0,0,0,-1,1476,1772,5.97795,-27.0726
259,-748,3.5614,20.4832,0,0,0,0,0,0,0,-1,1483,1772,3.56142,-20.4832
266,-748,17.9011,7.59448,0,0,0,0,0,0,0,-1,1490,1772,17.9011,-7.59452
273,-748,16.4131,7.57129,0,0,0,0,0,0,0,-1,1497,1772,16.413,-7.57125
280,-748,15.2177,7.24829,0,0,0,0,0,0,0,-1,1504,1772,15.2176,-7.24833
287,-748,14.161,8.32813,0,0,0,0,0,0,0,-1,1511,1772,14.161,-8.32808
294,-748,12.2117,7.453,0,0,0,0,0,0,0,-1,1518,1772,12.2116,-7.45297
301,-748,11.7134,7.3595,0,0,0,0,0,0,0,-1,1525,1772,11.7133,-7.35949
308,-748,9.92456,7.80225,0,0,0,0,0,0,0,-1,1532,1772,9.92453,-7.80224
315,-748,8.91541,8.29773,0,0,0,0,0,0,0,-1,1539,1772,8.91544,-8.29773
322,-748,7.83618,8.87122,0,0,0,0,0,0,0,-1,1546,1772,7.83613,-8.87124
329,-748,3.48315,14.6533,0,0,0,0,0,0,0,-1,1553,1772,3.48316,-14.6534
336,-748,3.76001,15.8163,0,0,0,0,0,0,0,-1,1560,1772,3.75995,-15.8163
343,-748,0,0,0,0,0,0,0,0,0,-1,1567,1772,0,0
350,-748,0,0,0,0,0,0,0,0,0,-1,1574,1772,0,0
357,-748,0,0,0,0,0,0,0,0,0,-1,1581,1772,0,0
364,-748,0,0,0,0,0,0,0,0,0,-1,1588,1772,0,0
371,-748,0,0,0,0,0,0,0,0,0,-1,1595,1772,0,0
378,-748,0,0,0,0,0,0,0,0,0,-1,1602,1772,0,0
385,-748,0,0,0,0,0,0,0,0,0,-1,1609,1772,0,0
392,-748,0,0,0,0,0,0,0,0,0,-1,1616,1772,0,0
399,-748,0,0,0,0,0,0,0,0,0,-1,1623,1772,0,0
406,-748,0,0,0,0,0,0,0,0,0,-1,1630,1772,0,0
413,-748,0,0,0,0,0,0,0,0,0,-1,1637,1772,0,0
420,-748,0,0,0,0,0,0,0,0,0,-1,1644,1772,0,0
427,-748,0,0,0,0,0,0,0,0,0,-1,1651,1772,0,0
434,-748,0,0,0,0,0,0,0,0,0,-1,1658,1772,0,0
441,-748,0,0,0,0,0,0,0,0,0,-1,1665,1772,0,0
448,-748,0,0,0,0,0,0,0,0,0,-1,1672,1772,0,0
455,-748,0,0,0,0,0,0,0,0,0,-1,1679,1772,0,0
462,-748,0,0,0,0,0,0,0,0,0,-1,1686,1772,0,0
469,-748,0,0,0,0,0,0,0,0,0,-1,1693,1772,0,0
476,-748,0,0,0,0,0,0,0,0,0,-1,1700,1772,0,0
483,-748,0,0,0,0,0,0,0,0,0,-1,1707,1772,0,0
490,-748,0,0,0,0,0,0,0,0,0,-1,1714,1772,0,0
497,-748,0,0,0,0,0,0,0,0,0,-1,1721,1772,0,0
504,-748,0,0,0,0,0,0,0,0,0,-1,1728,1772,0,0
511,-748,0,0,0,0,0,0,0,0,0,-1,1735,1772,0,0
518,-748,0,0,0,0,0,0,0,0,0,-1,1742,1772,0,0
525,-748,0,0,0,0,0,0,0,0,0,-1,1749,1772,0,0
532,-748,0,0,0,0,0,0,0,0,0,-1,1756,1772,0,0
539,-748,0,0,0,0,0,0,0,0,0,-1,1763,1772,0,0
546,-748,0,0,0,0,0,0,0,0,0,-1,1770,1772,0,0
553,-748,0,0,0,0,0,0,0,0,0,-1,1777,1772,0,0
560,-748,0,0,0,0,0,0,0,0,0,-1,1784,1772,0,0
567,-748,0,0,0,0,0,0,0,0,0,-1,1791,1772,0,0
574,-748,0,0,0,0,0,0,0,0,0,-1,1798,1772,0,0
581,-748,0,0,0,0,0,0,0,0,0,-1,1805,1772,0,0
588,-748,0,0,0,0,0,0,0,0,0,-1,1812,1772,0,0
595,-748,0,0,0,0,0,0,0,0,0,-1,1819,1772,0,0
602,-748,0,0,0,0,0,0,0,0,0,-1,1826,1772,0,0
609,-748,0,0,0,0,0,0,0,0,0,-1,1833,1772,0,0
616,-748,0,0,0,0,0,0,0,0,0,-1,1840,1772,0,0
623,-748,0,0,0,0,0,0,0,0,0,-1,1847,1772,0,0
630,-748,0,0,0,0,0,0,0,0,0,-1,1854,1772,0,0
637,-748,0,0,0,0,0,0,0,0,0,-1,1861,1772,0,0
644,-748,0,0,0,0,0,0,0,0,0,-1,1868,1772,0,0
651,-748,0,0,0,0,0,0,0,0,0,-1,1875,1772,0,0
658,-748,0,0,0,0,0,0,0,0,0,-1,1882,1772,0,0
665,-748,0,0,0,0,0,0,0,0,0,-1,1889,1772,0,0
672,-748,0,0,0,0,0,0,0,0,0,-1,1896,1772,0,0
679,-748,0,0,0,0,0,0,0,0,0,-1,1903,1772,0,0
686,-748,0,0,0,0,0,0,0,0,0,-1,1910,1772,0,0
693,-748,0,0,0,0,0,0,0,0,0,-1,1917,1772,0,0
700,-748,0,0,0,0,0,0,0,0,0,-1,1924,1772,0,0
707,-748,0,0,0,0,0,0,0,0,0,-1,1931,1772,0,0
714,-748,0,0,0,0,0,0,0,0,0,-1,1938,1772,0,0
721,-748,0,0,0,0,0,0,0,0,0,-1,1945,1772,0,0
728,-748,0,0,0,0,0,0,0,0,0,-1,1952,1772,0,0
735,-748,0,0,0,0,0,0,0,0,0,-1,1959,1772,0,0
742,-748,0,0,0,0,0,0,0,0,0,-1,1966,1772,0,0
749,-748,0,0,0,0,0,0,0,0,0,-1,1973,1772,0,0
756,-748,0,0,0,0,0,0,0,0,0,-1,1980,1772,0,0
763,-748,0,0,0,0,0,0,0,0,0,-1,1987,1772,0,0
770,-748,0,0,0,0,0,0,0,0,0,-1,1994,1772,0,0
777,-748,0,0,0,0,0,0,0,0,0,-1,2001,1772,0,0
784,-748,0,0,0,0,0,0,0,0,0,-1,2008,1772,0,0
791,-748,0,0,0,0,0,0,0,0,0,-1,2015,1772,0,0
798,-748,0,0,0,0,0,0,0,0,0,-1,2022,1772,0,0
805,-748,0,0,0,0,0,0,0,0,0,-1,2029,1772,0,0
812,-748,0,0,0,0,0,0,0,0,0,-1,2036,1772,0,0
-700,-755,0,0,0,0,0,0,0,0,0,-1,524,1779,0,0
-693,-755,0,0,0,0,0,0,0,0,0,-1,531,1779,0,0
-686,-755,0,0,0,0,0,0,0,0,0,-1,538,1779,0,0
-679,-755,0,0,0,0,0,0,0,0,0,-1,545,1779,0,0
-672,-755,0,0,0,0,0,0,0,0,0,-1,552,1779,0,0
-665,-755,0,0,0,0,0,0,0,0,0,-1,559,1779,0,0
-658,-755,0,0,0,0,0,0,0,0,0,-1,566,1779,0,0
-651,-755,0,0,0,0,0,0,0,0,0,-1,573,1779,0,0
-644,-755,0,0,0,0,0,0,0,0,0,-1,580,1779,0,0
-637,-755,0,0,0,0,0,0,0,0,0,-1,587,1779,0,0
-630,-755,0,0,0,0,0,0,0,0,0,-1,594,1779,0,0
-623,-755,0,0,0,0,0,0,0,0,0,-1,601,1779,0,0
-616,-755,0,0,0,0,0,0,0,0,0,-1,608,1779,0,0
-609,-755,0,0,0,0,0,0,0,0,0,-1,615,1779,0,0
-602,-755,0,0,0,0,0,0,0,0,0,-1,622,1779,0,0
-595,-755,0,0,0,0,0,0,0,0,0,-1,629,1779,0,0
-588,-755,0,0,0,0,0,0,0,0,0,-1,636,1779,0,0
-581,-755,0,0,0,0,0,0,0,0,0,-1,643,1779,0,0
-574,-755,0,0,0,0,0,0,0,0,0,-1,650,1779,0,0
-567,-755,0,0,0,0,0,0,0,0,0,-1,657,1779,0,0
-560,-755,0,0,0,0,0,0,0,0,0,-1,664,1779,0,0
-553,-755,0,0,0,0,0,0,0,0,0,-1,671,1779,0,0
-546,-755,0,0,0,0,0,0,0,0,0,-1,678,1779,0,0
-539,-755,0,0,0,0,0,0,0,0,0,-1,685,1779,0,0
-532,-755,0,0,0,0,0,0,0,0,0,-1,692,1779,0,0
-525,-755,0,0,0,0,0,0,0,0,0,-1,699,1779,0,0
-518,-755,0,0,0,0,0,0,0,0,0,-1,706,1779,0,0
-511,-755,0,0,0,0,0,0,0,0,0,-1,713,1779,0,0
-504,-755,0,0,0,0,0,0,0,0,0,-1,720,1779,0,0
-497,-755,0,0,0,0,0,0,0,0,0,-1,727,1779,0,0
-490,-755,0,0,0,0,0,0,0,0,0,-1,734,1779,0,0
-483,-755,0,0,0,0,0,0,0,0,0,-1,741,1779,0,0
-476,-755,0,0,0,0,0,0,0,0,0,-1,748,1779,0,0
-469,-755,0,0,0,0,0,0,0,0,0,-1,755,1779,0,0
-462,-755,0,0,0,0,0,0,0,0,0,-1,762,1779,0,0
-455,-755,0,0,0,0,0,0,0,0,0,-1,769,1779,0,0
-448,-755,0,0,0,0,0,0,0,0,0,-1,776,1779,0,0
-441,-755,0,0,0,0,0,0,0,0,0,-1,783,1779,0,0
-434,-755,0,0,0,0,0,0,0,0,0,-1,790,1779,0,0
-427,-755,0,0,0,0,0,0,0,0,0,-1,797,1779,0,0
-420,-755,0,0,0,0,0,0,0,0,0,-1,804,1779,0,0
-413,-755,0,0,0,0,0,0,0,0,0,-1,811,1779,0,0
-406,-755,0,0,0,0,0,0,0,0,0,-1,818,1779,0,0
-399,-755,0,0,0,0,0,0,0,0,0,-1,825,1779,0,0
-392,-755,0,0,0,0,0,0,0,0,0,-1,832,1779,0,0
-385,-755,0,0,0,0,0,0,0,0,0,-1,839,1779,0,0
-378,-755,0,0,0,0,0,0,0,0,0,-1,846,1779,0,0
-371,-755,0,0,0,0,0,0,0,0,0,-1,853,1779,0,0
-364,-755,0,0,0,0,0,0,0,0,0,-1,860,1779,0,0
-357,-755,0,0,0,0,0,0,0,0,0,-1,867,1779,0,0
-350,-755,0,0,0,0,0,0,0,0,0,-1,874,1779,0,0
-343,-755,0,0,0,0,0,0,0,0,0,-1,881,1779,0,0
-336,-755,0,0,0,0,0,0,0,0,0,-1,888,1779,0,0
-329,-755,0,0,0,0,0,0,0,0,0,-1,895,1779,0,0
-322,-755,0,0,0,0,0,0,0,0,0,-1,902,1779,0,0
-315,-755,0,0,0,0,0,0,0,0,0,-1,909,1779,0,0
-308,-755,0,0,0,0,0,0,0,0,0,-1,916,1779,0,0
-301,-755,0,0,0,0,0,0,0,0,0,-1,923,1779,0,0
-294,-755,0,0,0,0,0,0,0,0,0,-1,930,1779,0,0
-287,-755,0,0,0,0,0,0,0,0,0,-1,937,1779,0,0
-280,-755,0,0,0,0,0,0,0,0,0,-1,944,1779,0,0
-273,-755,0,0,0,0,0,0,0,0,0,-1,951,1779,0,0
-266,-755,0,0,0,0,0,0,0,0,0,-1,958,1779,0,0
-259,-755,0,0,0,0,0,0,0,0,0,-1,965,1779,0,0
-252,-755,0,0,0,0,0,0,0,0,0,-1,972,1779,0,0
-245,-755,0,0,0,0,0,0,0,0,0,-1,979,1779,0,0
-238,-755,0,0,0,0,0,0,0,0,0,-1,986,1779,0,0
-231,-755,0,0,0,0,0,0,0,0,0,-1,993,1779,0,0
-224,-755,0,0,0,0,0,0,0,0,0,-1,1000,1779,0,0
-217,-755,0,0,0,0,0,0,0,0,0,-1,1007,1779,0,0
-210,-755,0,0,0,0,0,0,0,0,0,-1,1014,1779,0,0
-203,-755,5.47998,25.527,0,0,0,0,0,0,0,-1,1021,1779,5.47993,-25.527
-196,-755,5.18445,23.9307,0,0,0,0,0,0,0,-1,1028,1779,5.1844,-23.9306
-189,-755,4.8175,22.4788,0,0,0,0,0,0,0,-1,1035,1779,4.81745,-22.4788
-182,-755,4.021,20.8032,0,0,0,0,0,0,0,-1,1042,1779,4.02094,-20.8032
-175,-755,3.79993,18.8242,0,0,0,0,0,0,0,-1,1049,1779,3.79995,-18.8242
-168,-755,3.14294,16.9865,0,0,0,0,0,0,0,-1,1056,1779,3.14291,-16.9864
-161,-755,-2.85889,11.5868,0,0,0,0,0,0,0,-1,1063,1779,-2.85887,-11.5868
-154,-755,-5.39026,8.51416,0,0,0,0,0,0,0,-1,1070,1779,-5.3903,-8.51417
-147,-755,-6.45593,10.2422,0,0,0,0,0,0,0,-1,1077,1779,-6.45594,-10.2422
-140,-755,1.33521,21.3856,0,0,0,0,0,0,0,-1,1084,1779,1.33522,-21.3857
-133,-755,2.89417,21.0964,0,0,0,0,0,0,0,-1,1091,1779,2.89422,-21.0964
-126,-755,3.26404,20.9304,0,0,0,0,0,0,0,-1,1098,1779,3.26399,-20.9305
-119,-755,5.17761,21.9325,0,0,0,0,0,0,0,-1,1105,1779,5.17761,-21.9325
-112,-755,5.40247,24.5646,0,0,0,0,0,0,0,-1,1112,1779,5.40244,-24.5646
-105,-755,6.6344,19.6062,0,0,0,0,0,0,0,-1,1119,1779,6.63439,-19.6062
-98,-755,6.32544,15.6812,0,0,0,0,0,0,0,-1,1126,1779,6.32543,-15.6812
-91,-755,5.51025,12.0438,0,0,0,0,0,0,0,-1,1133,1779,5.51022,-12.0439
-84,-755,0.169312,8.66443,0,0,0,0,0,0,0,-1,1140,1779,0.16932,-8.66446
-77,-755,-0.0491943,6.87439,0,0,0,0,0,0,0,-1,1147,1779,-0.0491385,-6.87443
-70,-755,4.5686,13.2169,0,0,0,0,0,0,0,-1,1154,1779,4.56865,-13.2169
-63,-755,-1.36316,7.3147,0,0,0,0,0,0,0,-1,1161,1779,-1.36312,-7.31473
-56,-755,0.0483398,5.06079,0,0,0,0,0,0,0,-1,1168,1779,0.0483138,-5.06084
-49,-755,-1.32263,5.33716,0,0,0,0,0,0,0,-1,1175,1779,-1.32264,-5.33718
-42,-755,-2.03613,4.01672,0,0,0,0,0,0,0,-1,1182,1779,-2.0361,-4.01671
-35,-755,-2.72498,2.37476,0,0,0,0,0,0,0,-1,1189,1779,-2.72502,-2.37473
-28,-755,6.83826,28.6586,0,0,0,0,0,0,0,-1,1196,1779,6.83821,-28.6586
-21,-755,6.80115,28.8231,0,0,0,0,0,0,0,-1,1203,1779,6.8011,-28.8232
-14,-755,6.90173,28.7454,0.00730794,-0.000936817,0.00294171,0.00824992,-0.00187879,0.309896,0.0062215,0.0360571,1210,1779,6.90178,-28.7453
-7,-755,6.8053,28.7683,0.0108575,-0.00128299,0.00024098,0.0108622,-0.00128778,0.0198389,0.0077067,0.0256778,1217,1779,6.80527,-28.7683
0,-755,6.76526,28.8322,0.0123766,-0.00171291,0.000350407,0.0123853,-0.00172161,0.0248496,0.0088865,0.0145459,1224,1779,6.76521,-28.8322
7,-755,6.73547,28.892,0.0120579,-0.00269667,-0.000127133,0.012059,-0.00269776,-0.0086157,0.00907327,0.0126376,1231,1779,6.73543,-28.892
14,-755,6.73206,28.9761,0.0117253,-0.0017094,-0.00115305,0.0118236,-0.00180764,-0.0849976,0.00854888,0.0113571,1238,1779,6.73209,-28.9761
21,-755,6.68066,29.053,0.011145,-0.00178322,-0.00194166,0.0114303,-0.00206854,-0.1459,0.00839512,0.0158002,1245,1779,6.68067,-29.053
28,-755,6.64722,29.0791,0.00955226,-0.00185023,-0.00265376,0.0101396,-0.0024376,-0.217822,0.00770196,0.0184159,1252,1779,6.64726,-29.0791
35,-755,6.63818,29.1416,0.00752143,-0.00153596,-0.00346313,0.00869382,-0.00270835,-0.326424,0.00687875,0.0180855,1259,1779,6.63823,-29.1416
42,-755,6.61938,29.1616,0.00605847,-0.000681788,-0.00442638,0.00825167,-0.00287498,-0.460028,0.0066693,0.0133827,1266,1779,6.61941,-29.1617
49,-755,6.61304,29.1475,0.00450945,0.000163876,-0.00534797,0.00810916,-0.00343584,-0.592443,0.00684512,0.00943246,1273,1779,6.61302,-29.1475
56,-755,6.5636,29.1912,0.0025694,0.000829035,-0.0063075,0.00806646,-0.00466802,-0.716851,0.00743901,0.00937048,1280,1779,6.56363,-29.1912
63,-755,6.54578,29.1968,0.00111662,0.00176741,-0.00725415,0.00870346,-0.00581943,-0.807811,0.00843972,0.00965334,1287,1779,6.54578,-29.1968
70,-755,6.54187,29.1858,-5.63044e-05,0.00247399,-0.00816033,0.00946667,-0.00704898,-0.862304,0.0095693,0.0123054,1294,1779,6.54182,-29.1858
77,-755,6.51147,29.183,-0.000956577,0.0031437,-0.00906617,0.0103886,-0.00820152,-0.896593,0.0107578,0.0110672,1301,1779,6.51143,-29.183
84,-755,6.49463,29.1824,-0.0013159,0.00366812,-0.00989913,0.0113841,-0.00903187,-0.908706,0.0118132,0.0116052,1308,1779,6.49467,-29.1824
91,-755,6.45874,29.1681,-0.00243373,0.00418872,-0.0107288,0.0121056,-0.0103506,-0.935076,0.0129783,0.0119692,1315,1779,6.4588,-29.1681
98,-755,6.40796,29.1504,-0.00246978,0.00425599,-0.0104866,0.0119057,-0.0101195,-0.94056,0.0127302,0.0125138,1322,1779,6.40802,-29.1504
105,-755,6.42212,29.1539,-0.00180136,0.00429934,-0.011157,0.0128155,-0.0103175,-0.918838,0.0133818,0.0155821,1329,1779,6.42214,-29.154
112,-755,6.39502,29.1189,-0.00103139,0.00428756,-0.0114414,0.0133745,-0.0101184,-0.899592,0.013607,0.0205551,1336,1779,6.39505,-29.1189
119,-755,6.37366,29.0629,-0.000660057,0.00306825,-0.0112879,0.0126449,-0.0102367,-0.867233,0.013235,0.0205941,1343,1779,6.3736,-29.0629
126,-755,6.32446,29.0692,-0.000639728,0.00289801,-0.0113924,0.012658,-0.0103997,-0.862417,0.0133337,0.0221704,1350,1779,6.32446,-29.0693
133,-755,6.23657,29.0032,-0.000169338,0.00294027,-0.0114835,0.0129738,-0.0102028,-0.852686,0.0134129,0.0227034,1357,1779,6.23657,-29.0031
140,-755,6.2417,28.9318,0.000307011,0.00288583,-0.0112478,0.0129178,-0.009725,-0.842468,0.0131161,0.0300302,1364,1779,6.24174,-28.9317
147,-755,6.31958,28.9263,-0.000486938,0.00257127,-0.0106095,0.0117613,-0.00967699,-0.856968,0.0123969,0.031932,1371,1779,6.3196,-28.9263
154,-755,6.29785,28.8832,-0.00126899,0.00300334,-0.0101336,0.0112234,-0.00948908,-0.889278,0.0119723,0.0345193,1378,1779,6.29789,-28.8832
161,-755,6.21057,28.8464,0,0,0,0,0,0,0,-1,1385,1779,6.21056,-28.8465
168,-755,3.98181,7.35901,0,0,0,0,0,0,0,-1,1392,1779,3.98184,-7.35904
175,-755,8.17065,1.34363,0,0,0,0,0,0,0,-1,1399,1779,8.1706,-1.34368
182,-755,8.09216,2.96924,0,0,0,0,0,0,0,-1,1406,1779,8.09213,-2.9693
189,-755,8.04419,4.68042,0,0,0,0,0,0,0,-1,1413,1779,8.04419,-4.68046
196,-755,7.74841,7.4541,0,0,0,0,0,0,0,-1,1420,1779,7.74842,-7.45405
203,-755,4.80554,6.88696,0,0,0,0,0,0,0,-1,1427,1779,4.80554,-6.88697
210,-755,25.1694,7.35693,0,0,0,0,0,0,0,-1,1434,1779,25.1694,-7.35688
217,-755,5.01648,16.411,0,0,0,0,0,0,0,-1,1441,1779,5.01646,-16.411
224,-755,5.18103,22.6283,0,0,0,0,0,0,0,-1,1448,1779,5.18101,-22.6283
231,-755,6.65674,25.4557,0,0,0,0,0,0,0,-1,1455,1779,6.65679,-25.4557
238,-755,5.7207,26.6676,0,0,0,0,0,0,0,-1,1462,1779,5.72071,-26.6676
245,-755,6.09351,21.4081,0,0,0,0,0,0,0,-1,1469,1779,6.09355,-21.408
252,-755,6.65991,23.8298,0,0,0,0,0,0,0,-1,1476,1779,6.65986,-23.8298
259,-755,7.58691,23.2006,0,0,0,0,0,0,0,-1,1483,1779,7.58687,-23.2005
266,-755,17.255,7.86096,0,0,0,0,0,0,0,-1,1490,1779,17.255,-7.86092
273,-755,15.7932,7.59778,0,0,0,0,0,0,0,-1,1497,1779,15.7932,-7.59777
280,-755,14.6255,7.34802,0,0,0,0,0,0,0,-1,1504,1779,14.6254,-7.34806
287,-755,13.8279,7.83105,0,0,0,0,0,0,0,-1,1511,1779,13.8279,-7.83104
294,-755,12.5695,7.96814,0,0,0,0,0,0,0,-1,1518,1779,12.5694,-7.9682
301,-755,11.2659,8.27087,0,0,0,0,0,0,0,-1,1525,1779,11.2658,-8.27087
308,-755,9.94434,8.55811,0,0,0,0,0,0,0,-1,1532,1779,9.94428,-8.55806
315,-755,8.64502,9.04492,0,0,0,0,0,0,0,-1,1539,1779,8.64497,-9.04488
322,-755,0,0,0,0,0,0,0,0,0,-1,1546,1779,0,0
329,-755,0,0,0,0,0,0,0,0,0,-1,1553,1779,0,0
336,-755,0,0,0,0,0,0,0,0,0,-1,1560,1779,0,0
343,-755,0,0,0,0,0,0,0,0,0,-1,1567,1779,0,0
350,-755,0,0,0,0,0,0,0,0,0,-1,1574,1779,0,0
357,-755,0,0,0,0,0,0,0,0,0,-1,1581,1779,0,0
364,-755,0,0,0,0,0,0,0,0,0,-1,1588,1779,0,0
371,-755,0,0,0,0,0,0,0,0,0,-1,1595,1779,0,0
378,-755,0,0,0,0,0,0,0,0,0,-1,1602,1779,0,0
385,-755,0,0,0,0,0,0,0,0,0,-1,1609,1779,0,0
392,-755,0,0,0,0,0,0,0,0,0,-1,1616,1779,0,0
399,-755,0,0,0,0,0,0,0,0,0,-1,1623,1779,0,0
406,-755,0,0,0,0,0,0,0,0,0,-1,1630,1779,0,0
413,-755,0,0,0,0,0,0,0,0,0,-1,1637,1779,0,0
420,-755,0,0,0,0,0,0,0,0,0,-1,1644,1779,0,0
427,-755,0,0,0,0,0,0,0,0,0,-1,1651,1779,0,0
434,-755,0,0,0,0,0,0,0,0,0,-1,1658,1779,0,0
441,-755,0,0,0,0,0,0,0,0,0,-1,1665,1779,0,0
448,-755,0,0,0,0,0,0,0,0,0,-1,1672,1779,0,0
455,-755,0,0,0,0,0,0,0,0,0,-1,1679,1779,0,0
462,-755,0,0,0,0,0,0,0,0,0,-1,1686,1779,0,0
469,-755,0,0,0,0,0,0,0,0,0,-1,1693,1779,0,0
476,-755,0,0,0,0,0,0,0,0,0,-1,1700,1779,0,0
483,-755,0,0,0,0,0,0,0,0,0,-1,1707,1779,0,0
490,-755,0,0,0,0,0,0,0,0,0,-1,1714,1779,0,0
497,-755,0,0,0,0,0,0,0,0,0,-1,1721,1779,0,0
504,-755,0,0,0,0,0,0,0,0,0,-1,1728,1779,0,0
511,-755,0,0,0,0,0,0,0,0,0,-1,1735,1779,0,0
518,-755,0,0,0,0,0,0,0,0,0,-1,1742,1779,0,0
525,-755,0,0,0,0,0,0,0,0,0,-1,1749,1779,0,0
532,-755,0,0,0,0,0,0,0,0,0,-1,1756,1779,0,0
539,-755,0,0,0,0,0,0,0,0,0,-1,1763,1779,0,0
546,-755,0,0,0,0,0,0,0,0,0,-1,1770,1779,0,0
553,-755,0,0,0,0,0,0,0,0,0,-1,1777,1779,0,0
560,-755,0,0,0,0,0,0,0,0,0,-1,1784,1779,0,0
567,-755,0,0,0,0,0,0,0,0,0,-1,1791,1779,0,0
574,-755,0,0,0,0,0,0,0,0,0,-1,1798,1779,0,0
581,-755,0,0,0,0,0,0,0,0,0,-1,1805,1779,0,0
588,-755,0,0,0,0,0,0,0,0,0,-1,1812,1779,0,0
595,-755,0,0,0,0,0,0,0,0,0,-1,1819,1779,0,0
602,-755,0,0,0,0,0,0,0,0,0,-1,1826,1779,0,0
609,-755,0,0,0,0,0,0,0,0,0,-1,1833,1779,0,0
616,-755,0,0,0,0,0,0,0,0,0,-1,1840,1779,0,0
623,-755,0,0,0,0,0,0,0,0,0,-1,1847,1779,0,0
630,-755,0,0,0,0,0,0,0,0,0,-1,1854,1779,0,0
637,-755,0,0,0,0,0,0,0,0,0,-1,1861,1779,0,0
644,-755,0,0,0,0,0,0,0,0,0,-1,1868,1779,0,0
651,-755,0,0,0,0,0,0,0,0,0,-1,1875,1779,0,0
658,-755,0,0,0,0,0,0,0,0,0,-1,1882,1779,0,0
665,-755,0,0,0,0,0,0,0,0,0,-1,1889,1779,0,0
672,-755,0,0,0,0,0,0,0,0,0,-1,1896,1779,0,0
679,-755,0,0,0,0,0,0,0,0,0,-1,1903,1779,0,0
686,-755,0,0,0,0,0,0,0,0,0,-1,1910,1779,0,0
693,-755,0,0,0,0,0,0,0,0,0,-1,1917,1779,0,0
700,-755,0,0,0,0,0,0,0,0,0,-1,1924,1779,0,0
707,-755,0,0,0,0,0,0,0,0,0,-1,1931,1779,0,0
714,-755,0,0,0,0,0,0,0,0,0,-1,1938,1779,0,0
721,-755,0,0,0,0,0,0,0,0,0,-1,1945,1779,0,0
728,-755,0,0,0,0,0,0,0,0,0,-1,1952,1779,0,0
735,-755,0,0,0,0,0,0,0,0,0,-1,1959,1779,0,0
742,-755,0,0,0,0,0,0,0,0,0,-1,1966,1779,0,0
749,-755,0,0,0,0,0,0,0,0,0,-1,1973,1779,0,0
756,-755,0,0,0,0,0,0,0,0,0,-1,1980,1779,0,0
763,-755,0,0,0,0,0,0,0,0,0,-1,1987,1779,0,0
770,-755,0,0,0,0,0,0,0,0,0,-1,1994,1779,0,0
777,-755,0,0,0,0,0,0,0,0,0,-1,2001,1779,0,0
784,-755,0,0,0,0,0,0,0,0,0,-1,2008,1779,0,0
791,-755,0,0,0,0,0,0,0,0,0,-1,2015,1779,0,0
798,-755,0,0,0,0,0,0,0,0,0,-1,2022,1779,0,0
805,-755,0,0,0,0,0,0,0,0,0,-1,2029,1779,0,0
812,-755,0,0,0,0,0,0,0,0,0,-1,2036,1779,0,0
-700,-762,0,0,0,0,0,0,0,0,0,-1,524,1786,0,0
-693,-762,0,0,0,0,0,0,0,0,0,-1,531,1786,0,0
-686,-762,0,0,0,0,0,0,0,0,0,-1,538,1786,0,0
-679,-762,0,0,0,0,0,0,0,0,0,-1,545,1786,0,0
-672,-762,0,0,0,0,0,0,0,0,0,-1,552,1786,0,0
-665,-762,0,0,0,0,0,0,0,0,0,-1,559,1786,0,0
-658,-762,0,0,0,0,0,0,0,0,0,-1,566,1786,0,0
-651,-762,0,0,0,0,0,0,0,0,0,-1,573,1786,0,0
-644,-762,0,0,0,0,0,0,0,0,0,-1,580,1786,0,0
-637,-762,0,0,0,0,0,0,0,0,0,-1,587,1786,0,0
-630,-762,0,0,0,0,0,0,0,0,0,-1,594,1786,0,0
-623,-762,0,0,0,0,0,0,0,0,0,-1,601,1786,0,0
-616,-762,0,0,0,0,0,0,0,0,0,-1,608,1786,0,0
-609,-762,0,0,0,0,0,0,0,0,0,-1,615,1786,0,0
-602,-762,0,0,0,0,0,0,0,0,0,-1,622,1786,0,0
-595,-762,0,0,0,0,0,0,0,0,0,-1,629,1786,0,0
-588,-762,0,0,0,0,0,0,0,0,0,-1,636,1786,0,0
-581,-762,0,0,0,0,0,0,0,0,0,-1,643,1786,0,0
-574,-762,0,0,0,0,0,0,0,0,0,-1,650,1786,0,0
-567,-762,0,0,0,0,0,0,0,0,0,-1,657,1786,0,0
-560,-762,0,0,0,0,0,0,0,0,0,-1,664,1786,0,0
-553,-762,0,0,0,0,0,0,0,0,0,-1,671,1786,0,0
-546,-762,0,0,0,0,0,0,0,0,0,-1,678,1786,0,0
-539,-762,0,0,0,0,0,0,0,0,0,-1,685,1786,0,0
-532,-762,0,0,0,0,0,0,0,0,0,-1,692,1786,0,0
-525,-762,0,0,0,0,0,0,0,0,0,-1,699,1786,0,0
-518,-762,0,0,0,0,0,0,0,0,0,-1,706,1786,0,0
-511,-762,0,0,0,0,0,0,0,0,0,-1,713,1786,0,0
-504,-762,0,0,0,0,0,0,0,0,0,-1,720,1786,0,0
-497,-762,0,0,0,0,0,0,0,0,0,-1,727,1786,0,0
-490,-762,0,0,0,0,0,0,0,0,0,-1,734,1786,0,0
-483,-762,0,0,0,0,0,0,0,0,0,-1,741,1786,0,0
-476,-762,0,0,0,0,0,0,0,0,0,-1,748,1786,0,0
-469,-762,0,0,0,0,0,0,0,0,0,-1,755,1786,0,0
-462,-762,0,0,0,0,0,0,0,0,0,-1,762,1786,0,0
-455,-762,0,0,0,0,0,0,0,0,0,-1,769,1786,0,0
-448,-762,0,0,0,0,0,0,0,0,0,-1,776,1786,0,0
-441,-762,0,0,0,0,0,0,0,0,0,-1,783,1786,0,0
-434,-762,0,0,0,0,0,0,0,0,0,-1,790,1786,0,0
-427,-762,0,0,0,0,0,0,0,0,0,-1,797,1786,0,0
-420,-762,0,0,0,0,0,0,0,0,0,-1,804,1786,0,0
-413,-762,0,0,0,0,0,0,0,0,0,-1,811,1786,0,0
-406,-762,0,0,0,0,0,0,0,0,0,-1,818,1786,0,0
-399,-762,0,0,0,0,0,0,0,0,0,-1,825,1786,0,0
-392,-762,0,0,0,0,0,0,0,0,0,-1,832,1786,0,0
-385,-762,0,0,0,0,0,0,0,0,0,-1,839,1786,0,0
-378,-762,0,0,0,0,0,0,0,0,0,-1,846,1786,0,0
-371,-762,0,0,0,0,0,0,0,0,0,-1,853,1786,0,0
-364,-762,0,0,0,0,0,0,0,0,0,-1,860,1786,0,0
-357,-762,0,0,0,0,0,0,0,0,0,-1,867,1786,0,0
-350,-762,0,0,0,0,0,0,0,0,0,-1,874,1786,0,0
-343,-762,0,0,0,0,0,0,0,0,0,-1,881,1786,0,0
-336,-762,0,0,0,0,0,0,0,0,0,-1,888,1786,0,0
-329,-762,0,0,0,0,0,0,0,0,0,-1,895,1786,0,0
-322,-762,0,0,0,0,0,0,0,0,0,-1,902,1786,0,0
-315,-762,0,0,0,0,0,0,0,0,0,-1,909,1786,0,0
-308,-762,0,0,0,0,0,0,0,0,0,-1,916,1786,0,0
-301,-762,0,0,0,0,0,0,0,0,0,-1,923,1786,0,0
-294,-762,0,0,0,0,0,0,0,0,0,-1,930,1786,0,0
-287,-762,0,0,0,0,0,0,0,0,0,-1,937,1786,0,0
-280,-762,0,0,0,0,0,0,0,0,0,-1,944,1786,0,0
-273,-762,0,0,0,0,0,0,0,0,0,-1,951,1786,0,0
-266,-762,0,0,0,0,0,0,0,0,0,-1,958,1786,0,0
-259,-762,0,0,0,0,0,0,0,0,0,-1,965,1786,0,0
-252,-762,0,0,0,0,0,0,0,0,0,-1,972,1786,0,0
-245,-762,0,0,0,0,0,0,0,0,0,-1,979,1786,0,0
-238,-762,0,0,0,0,0,0,0,0,0,-1,986,1786,0,0
-231,-762,0,0,0,0,0,0,0,0,0,-1,993,1786,0,0
-224,-762,0,0,0,0,0,0,0,0,0,-1,1000,1786,0,0
-217,-762,0,0,0,0,0,0,0,0,0,-1,1007,1786,0,0
-210,-762,0,0,0,0,0,0,0,0,0,-1,1014,1786,0,0
-203,-762,0,0,0,0,0,0,0,0,0,-1,1021,1786,0,0
-196,-762,0,0,0,0,0,0,0,0,0,-1,1028,1786,0,0
-189,-762,0,0,0,0,0,0,0,0,0,-1,1035,1786,0,0
-182,-762,4.44226,13.2462,0,0,0,0,0,0,0,-1,1042,1786,4.44227,-13.2462
-175,-762,4.3219,18.3975,0,0,0,0,0,0,0,-1,1049,1786,4.32192,-18.3974
-168,-762,-2.08618,13.0768,0,0,0,0,0,0,0,-1,1056,1786,-2.08623,-13.0768
-161,-762,-3.29077,11.9508,0,0,0,0,0,0,0,-1,1063,1786,-3.29076,-11.9508
-154,-762,-4.55823,11.1176,0,0,0,0,0,0,0,-1,1070,1786,-4.55828,-11.1175
-147,-762,-6.52454,9.41418,0,0,0,0,0,0,0,-1,1077,1786,-6.52458,-9.41419
-140,-762,4.99792,5.28589,0,0,0,0,0,0,0,-1,1084,1786,4.99793,-5.28587
-133,-762,0.689819,19.2172,0,0,0,0,0,0,0,-1,1091,1786,0.689867,-19.2171
-126,-762,1.48743,19.9288,0,0,0,0,0,0,0,-1,1098,1786,1.48738,-19.9289
-119,-762,2.65637,20.208,0,0,0,0,0,0,0,-1,1105,1786,2.65632,-20.208
-112,-762,3.09082,20.488,0,0,0,0,0,0,0,-1,1112,1786,3.09077,-20.488
-105,-762,6.20923,21.3702,0,0,0,0,0,0,0,-1,1119,1786,6.20928,-21.3703
-98,-762,5.58447,17.7201,0,0,0,0,0,0,0,-1,1126,1786,5.58445,-17.7201
-91,-762,4.74573,14.093,0,0,0,0,0,0,0,-1,1133,1786,4.74571,-14.0931
-84,-762,3.96375,10.4547,0,0,0,0,0,0,0,-1,1140,1786,3.96371,-10.4548
-77,-762,0.305054,8.49365,0,0,0,0,0,0,0,-1,1147,1786,0.305008,-8.49362
-70,-762,0.183716,6.74622,0,0,0,0,0,0,0,-1,1154,1786,0.183696,-6.74621
-63,-762,-0.883057,9.08813,0,0,0,0,0,0,0,-1,1161,1786,-0.88311,-9.08808
-56,-762,-0.578979,5.10254,0,0,0,0,0,0,0,-1,1168,1786,-0.578951,-5.10249
-49,-762,-2.04541,3.66321,0,0,0,0,0,0,0,-1,1175,1786,-2.0454,-3.66319
-42,-762,-2.23462,3.474,0,0,0,0,0,0,0,-1,1182,1786,-2.23459,-3.47399
-35,-762,-3.28992,1.68164,0,0,0,0,0,0,0,-1,1189,1786,-3.28998,-1.68164
-28,-762,-3.75378,1.37769,0,0,0,0,0,0,0,-1,1196,1786,-3.75373,-1.37767
-21,-762,6.9585,27.4912,0,0,0,0,0,0,0,-1,1203,1786,6.95846,-27.4912
-14,-762,7.05493,28.7531,0,0,0,0,0,0,0,-1,1210,1786,7.05497,-28.753
-7,-762,6.80359,28.809,0,0,0,0,0,0,0,-1,1217,1786,6.8036,-28.8089
0,-762,6.80554,28.8662,0.0262013,0.000399169,0.00043121,0.0262085,0.000391964,0.0167059,0.0173432,0.0359885,1224,1786,6.80556,-28.8662
7,-762,6.84619,28.9525,0.0251595,-0.00110789,-0.000795519,0.0251836,-0.00113196,-0.0302485,0.0171788,0.0210287,1231,1786,6.84614,-28.9525
14,-762,6.82837,29.161,0.0240589,0.000514094,-0.00277012,0.0243804,0.000192571,-0.115551,0.0161898,0.0346288,1238,1786,6.82841,-29.161
21,-762,6.74487,29.2271,0.0224722,0.000287951,-0.00423906,0.0232547,-0.000494469,-0.18252,0.0156705,0.0420499,1245,1786,6.74493,-29.2271
28,-762,6.64063,29.1105,0.019274,-1.10309e-05,-0.00545109,0.0207081,-0.00144518,-0.257264,0.0143115,0.0397828,1252,1786,6.64065,-29.1104
35,-762,6.52466,29.3014,0.0153636,0.000104883,-0.00674622,0.0179184,-0.00245,-0.362022,0.0128404,0.0398676,1259,1786,6.52466,-29.3014
42,-762,6.55334,29.2837,0.0122853,0.000883701,-0.00813133,0.0165152,-0.00334613,-0.479668,0.0122784,0.040921,1266,1786,6.55337,-29.2836
49,-762,6.57715,29.2086,0.00917947,0.00160098,-0.00929728,0.01543,-0.00464958,-0.591893,0.0121371,0.0338306,1273,1786,6.57711,-29.2086
56,-762,6.63757,29.1608,0.00564091,0.00213689,-0.0103934,0.014429,-0.00665115,-0.701898,0.0124437,0.024066,1280,1786,6.63753,-29.1608
63,-762,6.50061,29.2954,0,0,0,0,0,0,0,-1,1287,1786,6.50062,-29.2954
70,-762,6.52771,29.2445,0.000677172,0.00340037,-0.0124246,0.0145377,-0.0104602,-0.839975,0.0144964,0.0223956,1294,1786,6.52766,-29.2444
77,-762,6.49292,29.2184,-0.00101466,0.00389083,-0.0133681,0.0150293,-0.0121532,-0.876128,0.0157231,0.0274614,1301,1786,6.49292,-29.2184
84,-762,6.50366,29.1814,-0.00172492,0.00423212,-0.014145,0.0157088,-0.0132016,-0.889167,0.0167123,0.0345625,1308,1786,6.50371,-29.1814
91,-762,6.61707,29.1477,-0.00353882,0.00452037,-0.0150724,0.0160925,-0.0151109,-0.916018,0.0180183,0.0449115,1315,1786,6.61711,-29.1477
98,-762,6.63135,29.2098,-0.00359291,0.00427058,-0.0144758,0.0153391,-0.0146614,-0.918004,0.0173222,0.0454427,1322,1786,6.63133,-29.2098
105,-762,6.4668,29.2233,-0.00254284,0.00401953,-0.0152701,0.0163569,-0.0148803,-0.891227,0.0180415,0.0412725,1329,1786,6.46683,-29.2233
112,-762,6.27222,29.1029,-0.00132768,0.00372902,-0.0155846,0.016989,-0.0145877,-0.865814,0.0182484,0.0426951,1336,1786,6.2722,-29.103
119,-762,6.32178,29.0276,-0.000668435,0.00178587,-0.0154031,0.0160106,-0.0148931,-0.825149,0.0178462,0.0449119,1343,1786,6.32177,-29.0276
126,-762,6.62732,29.0179,-0.000470717,0.00150527,-0.0156229,0.0161714,-0.0151368,-0.816976,0.0180791,0.0456289,1350,1786,6.62728,-29.0179
133,-762,6.47949,28.8301,0.000383349,0.00159177,-0.0159199,0.0169189,-0.0149438,-0.804366,0.0184077,0.0443304,1357,1786,6.47952,-28.8301
140,-762,6.36035,28.6394,0.00131909,0.00174196,-0.0157676,0.0172995,-0.0142385,-0.792102,0.018237,0.0423761,1364,1786,6.36032,-28.6394
147,-762,6.28711,28.9917,0.000198329,0.00161426,-0.0150533,0.0159762,-0.0141637,-0.808896,0.0174118,0.0410684,1371,1786,6.28708,-28.9917
154,-762,6.55432,28.6394,-0.00118217,0.00261739,-0.0146903,0.0155302,-0.014095,-0.849703,0.0171108,0.0482296,1378,1786,6.55429,-28.6394
161,-762,6.72839,28.5291,0,0,0,0,0,0,0,-1,1385,1786,6.72834,-28.529
168,-762,8.19287,0.880615,0,0,0,0,0,0,0,-1,1392,1786,8.19291,-0.880603
175,-762,8.33997,1.95947,0,0,0,0,0,0,0,-1,1399,1786,8.33997,-1.95942
182,-762,8.28418,3.56482,0,0,0,0,0,0,0,-1,1406,1786,8.28415,-3.56485
189,-762,8.21179,5.23389,0,0,0,0,0,0,0,-1,1413,1786,8.21183,-5.23383
196,-762,8.05969,6.95483,0,0,0,0,0,0,0,-1,1420,1786,8.05972,-6.9548
203,-762,24.0077,7.10425,0,0,0,0,0,0,0,-1,1427,1786,24.0077,-7.10426
210,-762,23.8073,7.6499,0,0,0,0,0,0,0,-1,1434,1786,23.8073,-7.64987
217,-762,23.3193,8.24426,0,0,0,0,0,0,0,-1,1441,1786,23.3194,-8.2442
224,-762,2.65149,20.6106,0,0,0,0,0,0,0,-1,1448,1786,2.65153,-20.6106
231,-762,5.46655,23.521,0,0,0,0,0,0,0,-1,1455,1786,5.46653,-23.521
238,-762,3.96863,24.0858,0,0,0,0,0,0,0,-1,1462,1786,3.96865,-24.0858
245,-762,5.97974,21.9014,0,0,0,0,0,0,0,-1,1469,1786,5.97972,-21.9014
252,-762,7.99072,19.7169,0,0,0,0,0,0,0,-1,1476,1786,7.99078,-19.717
259,-762,17.4619,7.89832,0,0,0,0,0,0,0,-1,1483,1786,17.462,-7.89836
266,-762,16.451,7.67773,0,0,0,0,0,0,0,-1,1490,1786,16.4511,-7.67773
273,-762,15.287,7.5304,0,0,0,0,0,0,0,-1,1497,1786,15.2869,-7.53044
280,-762,14.1501,7.38379,0,0,0,0,0,0,0,-1,1504,1786,14.1502,-7.38376
287,-762,12.6891,7.99133,0,0,0,0,0,0,0,-1,1511,1786,12.6891,-7.99135
294,-762,12.6959,8.30371,0,0,0,0,0,0,0,-1,1518,1786,12.6959,-8.30368
301,-762,11.4222,8.84143,0,0,0,0,0,0,0,-1,1525,1786,11.4223,-8.84149
308,-762,0,0,0,0,0,0,0,0,0,-1,1532,1786,0,0
315,-762,0,0,0,0,0,0,0,0,0,-1,1539,1786,0,0
322,-762,0,0,0,0,0,0,0,0,0,-1,1546,1786,0,0
329,-762,0,0,0,0,0,0,0,0,0,-1,1553,1786,0,0
336,-762,0,0,0,0,0,0,0,0,0,-1,1560,1786,0,0
343,-762,0,0,0,0,0,0,0,0,0,-1,1567,1786,0,0
350,-762,0,0,0,0,0,0,0,0,0,-1,1574,1786,0,0
357,-762,0,0,0,0,0,0,0,0,0,-1,1581,1786,0,0
364,-762,0,0,0,0,0,0,0,0,0,-1,1588,1786,0,0
371,-762,0,0,0,0,0,0,0,0,0,-1,1595,1786,0,0
378,-762,0,0,0,0,0,0,0,0,0,-1,1602,1786,0,0
385,-762,0,0,0,0,0,0,0,0,0,-1,1609,1786,0,0
392,-762,0,0,0,0,0,0,0,0,0,-1,1616,1786,0,0
399,-762,0,0,0,0,0,0,0,0,0,-1,1623,1786,0,0
406,-762,0,0,0,0,0,0,0,0,0,-1,1630,1786,0,0
413,-762,0,0,0,0,0,0,0,0,0,-1,1637,1786,0,0
420,-762,0,0,0,0,0,0,0,0,0,-1,1644,1786,0,0
427,-762,0,0,0,0,0,0,0,0,0,-1,1651,1786,0,0
434,-762,0,0,0,0,0,0,0,0,0,-1,1658,1786,0,0
441,-762,0,0,0,0,0,0,0,0,0,-1,1665,1786,0,0
448,-762,0,0,0,0,0,0,0,0,0,-1,1672,1786,0,0
455,-762,0,0,0,0,0,0,0,0,0,-1,1679,1786,0,0
462,-762,0,0,0,0,0,0,0,0,0,-1,1686,1786,0,0
469,-762,0,0,0,0,0,0,0,0,0,-1,1693,1786,0,0
476,-762,0,0,0,0,0,0,0,0,0,-1,1700,1786,0,0
483,-762,0,0,0,0,0,0,0,0,0,-1,1707,1786,0,0
490,-762,0,0,0,0,0,0,0,0,0,-1,1714,1786,0,0
497,-762,0,0,0,0,0,0,0,0,0,-1,1721,1786,0,0
504,-762,0,0,0,0,0,0,0,0,0,-1,1728,1786,0,0
511,-762,0,0,0,0,0,0,0,0,0,-1,1735,1786,0,0
518,-762,0,0,0,0,0,0,0,0,0,-1,1742,1786,0,0
525,-762,0,0,0,0,0,0,0,0,0,-1,1749,1786,0,0
532,-762,0,0,0,0,0,0,0,0,0,-1,1756,1786,0,0
539,-762,0,0,0,0,0,0,0,0,0,-1,1763,1786,0,0
546,-762,0,0,0,0,0,0,0,0,0,-1,1770,1786,0,0
553,-762,0,0,0,0,0,0,0,0,0,-1,1777,1786,0,0
560,-762,0,0,0,0,0,0,0,0,0,-1,1784,1786,0,0
567,-762,0,0,0,0,0,0,0,0,0,-1,1791,1786,0,0
574,-762,0,0,0,0,0,0,0,0,0,-1,1798,1786,0,0
581,-762,0,0,0,0,0,0,0,0,0,-1,1805,1786,0,0
588,-762,0,0,0,0,0,0,0,0,0,-1,1812,1786,0,0
595,-762,0,0,0,0,0,0,0,0,0,-1,1819,1786,0,0
602,-762,0,0,0,0,0,0,0,0,0,-1,1826,1786,0,0
609,-762,0,0,0,0,0,0,0,0,0,-1,1833,1786,0,0
616,-762,0,0,0,0,0,0,0,0,0,-1,1840,1786,0,0
623,-762,0,0,0,0,0,0,0,0,0,-1,1847,1786,0,0
630,-762,0,0,0,0,0,0,0,0,0,-1,1854,1786,0,0
637,-762,0,0,0,0,0,0,0,0,0,-1,1861,1786,0,0
644,-762,0,0,0,0,0,0,0,0,0,-1,1868,1786,0,0
651,-762,0,0,0,0,0,0,0,0,0,-1,1875,1786,0,0
658,-762,0,0,0,0,0,0,0,0,0,-1,1882,1786,0,0
665,-762,0,0,0,0,0,0,0,0,0,-1,1889,1786,0,0
672,-762,0,0,0,0,0,0,0,0,0,-1,1896,1786,0,0
679,-762,0,0,0,0,0,0,0,0,0,-1,1903,1786,0,0
686,-762,0,0,0,0,0,0,0,0,0,-1,1910,1786,0,0
693,-762,0,0,0,0,0,0,0,0,0,-1,1917,1786,0,0
700,-762,0,0,0,0,0,0,0,0,0,-1,1924,1786,0,0
707,-762,0,0,0,0,0,0,0,0,0,-1,1931,1786,0,0
714,-762,0,0,0,0,0,0,0,0,0,-1,1938,1786,0,0
721,-762,0,0,0,0,0,0,0,0,0,-1,1945,1786,0,0
728,-762,0,0,0,0,0,0,0,0,0,-1,1952,1786,0,0
735,-762,0,0,0,0,0,0,0,0,0,-1,1959,1786,0,0
742,-762,0,0,0,0,0,0,0,0,0,-1,1966,1786,0,0
749,-762,0,0,0,0,0,0,0,0,0,-1,1973,1786,0,0
756,-762,0,0,0,0,0,0,0,0,0,-1,1980,1786,0,0
763,-762,0,0,0,0,0,0,0,0,0,-1,1987,1786,0,0
770,-762,0,0,0,0,0,0,0,0,0,-1,1994,1786,0,0
777,-762,0,0,0,0,0,0,0,0,0,-1,2001,1786,0,0
784,-762,0,0,0,0,0,0,0,0,0,-1,2008,1786,0,0
791,-762,0,0,0,0,0,0,0,0,0,-1,2015,1786,0,0
798,-762,0,0,0,0,0,0,0,0,0,-1,2022,1786,0,0
805,-762,0,0,0,0,0,0,0,0,0,-1,2029,1786,0,0
812,-762,0,0,0,0,0,0,0,0,0,-1,2036,1786,0,0
-700,-769,0,0,0,0,0,0,0,0,0,-1,524,1793,0,0
-693,-769,0,0,0,0,0,0,0,0,0,-1,531,1793,0,0
-686,-769,0,0,0,0,0,0,0,0,0,-1,538,1793,0,0
-679,-769,0,0,0,0,0,0,0,0,0,-1,545,1793,0,0
-672,-769,0,0,0,0,0,0,0,0,0,-1,552,1793,0,0
-665,-769,0,0,0,0,0,0,0,0,0,-1,559,1793,0,0
-658,-769,0,0,0,0,0,0,0,0,0,-1,566,1793,0,0
-651,-769,0,0,0,0,0,0,0,0,0,-1,573,1793,0,0
-644,-769,0,0,0,0,0,0,0,0,0,-1,580,1793,0,0
-637,-769,0,0,0,0,0,0,0,0,0,-1,587,1793,0,0
-630,-769,0,0,0,0,0,0,0,0,0,-1,594,1793,0,0
-623,-769,0,0,0,0,0,0,0,0,0,-1,601,1793,0,0
-616,-769,0,0,0,0,0,0,0,0,0,-1,608,1793,0,0
-609,-769,0,0,0,0,0,0,0,0,0,-1,615,1793,0,0
-602,-769,0,0,0,0,0,0,0,0,0,-1,622,1793,0,0
-595,-769,0,0,0,0,0,0,0,0,0,-1,629,1793,0,0
-588,-769,0,0,0,0,0,0,0,0,0,-1,636,1793,0,0
-581,-769,0,0,0,0,0,0,0,0,0,-1,643,1793,0,0
-574,-769,0,0,0,0,0,0,0,0,0,-1,650,1793,0,0
-567,-769,0,0,0,0,0,0,0,0,0,-1,657,1793,0,0
-560,-769,0,0,0,0,0,0,0,0,0,-1,664,1793,0,0
-553,-769,0,0,0,0,0,0,0,0,0,-1,671,1793,0,0
-546,-769,0,0,0,0,0,0,0,0,0,-1,678,1793,0,0
-539,-769,0,0,0,0,0,0,0,0,0,-1,685,1793,0,0
-532,-769,0,0,0,0,0,0,0,0,0,-1,692,1793,0,0
-525,-769,0,0,0,0,0,0,0,0,0,-1,699,1793,0,0
-518,-769,0,0,0,0,0,0,0,0,0,-1,706,1793,0,0
-511,-769,0,0,0,0,0,0,0,0,0,-1,713,1793,0,0
-504,-769,0,0,0,0,0,0,0,0,0,-1,720,1793,0,0
-497,-769,0,0,0,0,0,0,0,0,0,-1,727,1793,0,0
-490,-769,0,0,0,0,0,0,0,0,0,-1,734,1793,0,0
-483,-769,0,0,0,0,0,0,0,0,0,-1,741,1793,0,0
-476,-769,0,0,0,0,0,0,0,0,0,-1,748,1793,0,0
-469,-769,0,0,0,0,0,0,0,0,0,-1,755,1793,0,0
-462,-769,0,0,0,0,0,0,0,0,0,-1,762,1793,0,0
-455,-769,0,0,0,0,0,0,0,0,0,-1,769,1793,0,0
-448,-769,0,0,0,0,0,0,0,0,0,-1,776,1793,0,0
-441,-769,0,0,0,0,0,0,0,0,0,-1,783,1793,0,0
-434,-769,0,0,0,0,0,0,0,0,0,-1,790,1793,0,0
-427,-769,0,0,0,0,0,0,0,0,0,-1,797,1793,0,0
-420,-769,0,0,0,0,0,0,0,0,0,-1,804,1793,0,0
-413,-769,0,0,0,0,0,0,0,0,0,-1,811,1793,0,0
-406,-769,0,0,0,0,0,0,0,0,0,-1,818,1793,0,0
-399,-769,0,0,0,0,0,0,0,0,0,-1,825,1793,0,0
-392,-769,0,0,0,0,0,0,0,0,0,-1,832,1793,0,0
-385,-769,0,0,0,0,0,0,0,0,0,-1,839,1793,0,0
-378,-769,0,0,0,0,0,0,0,0,0,-1,846,1793,0,0
-371,-769,0,0,0,0,0,0,0,0,0,-1,853,1793,0,0
-364,-769,0,0,0,0,0,0,0,0,0,-1,860,1793,0,0
-357,-769,0,0,0,0,0,0,0,0,0,-1,867,1793,0,0
-350,-769,0,0,0,0,0,0,0,0,0,-1,874,1793,0,0
-343,-769,0,0,0,0,0,0,0,0,0,-1,881,1793,0,0
-336,-769,0,0,0,0,0,0,0,0,0,-1,888,1793,0,0
-329,-769,0,0,0,0,0,0,0,0,0,-1,895,1793,0,0
-322,-769,0,0,0,0,0,0,0,0,0,-1,902,1793,0,0
-315,-769,0,0,0,0,0,0,0,0,0,-1,909,1793,0,0
-308,-769,0,0,0,0,0,0,0,0,0,-1,916,1793,0,0
-301,-769,0,0,0,0,0,0,0,0,0,-1,923,1793,0,0
-294,-769,0,0,0,0,0,0,0,0,0,-1,930,1793,0,0
-287,-769,0,0,0,0,0,0,0,0,0,-1,937,1793,0,0
-280,-769,0,0,0,0,0,0,0,0,0,-1,944,1793,0,0
-273,-769,0,0,0,0,0,0,0,0,0,-1,951,1793,0,0
-266,-769,0,0,0,0,0,0,0,0,0,-1,958,1793,0,0
-259,-769,0,0,0,0,0,0,0,0,0,-1,965,1793,0,0
-252,-769,0,0,0,0,0,0,0,0,0,-1,972,1793,0,0
-245,-769,0,0,0,0,0,0,0,0,0,-1,979,1793,0,0
-238,-769,0,0,0,0,0,0,0,0,0,-1,986,1793,0,0
-231,-769,0,0,0,0,0,0,0,0,0,-1,993,1793,0,0
-224,-769,0,0,0,0,0,0,0,0,0,-1,1000,1793,0,0
-217,-769,0,0,0,0,0,0,0,0,0,-1,1007,1793,0,0
-210,-769,0,0,0,0,0,0,0,0,0,-1,1014,1793,0,0
-203,-769,0,0,0,0,0,0,0,0,0,-1,1021,1793,0,0
-196,-769,0,0,0,0,0,0,0,0,0,-1,1028,1793,0,0
-189,-769,0,0,0,0,0,0,0,0,0,-1,1035,1793,0,0
-182,-769,0,0,0,0,0,0,0,0,0,-1,1042,1793,0,0
-175,-769,0,0,0,0,0,0,0,0,0,-1,1049,1793,0,0
-168,-769,0,0,0,0,0,0,0,0,0,-1,1056,1793,0,0
-161,-769,-3.61145,12.4761,0,0,0,0,0,0,0,-1,1063,1793,-3.6114,-12.476
-154,-769,-0.813232,5.32874,0,0,0,0,0,0,0,-1,1070,1793,-0.813269,-5.32872
-147,-769,4.26587,4.7002,0,0,0,0,0,0,0,-1,1077,1793,4.26593,-4.70022
-140,-769,4.10376,5.28589,0,0,0,0,0,0,0,-1,1084,1793,4.10371,-5.28584
-133,-769,6.422,8.21777,0,0,0,0,0,0,0,-1,1091,1793,6.42198,-8.21773
-126,-769,-0.352295,19.326,0,0,0,0,0,0,0,-1,1098,1793,-0.352235,-19.326
-119,-769,6.01685,16.2577,0,0,0,0,0,0,0,-1,1105,1793,6.01689,-16.2576
-112,-769,2.77722,20.0741,0,0,0,0,0,0,0,-1,1112,1793,2.77727,-20.0741
-105,-769,4.55212,21.8363,0,0,0,0,0,0,0,-1,1119,1793,4.55214,-21.8363
-98,-769,4.71545,19.8396,0,0,0,0,0,0,0,-1,1126,1793,4.71539,-19.8396
-91,-769,3.96802,16.1481,0,0,0,0,0,0,0,-1,1133,1793,3.96803,-16.1481
-84,-769,3.2207,12.4565,0,0,0,0,0,0,0,-1,1140,1793,3.22066,-12.4565
-77,-769,2.48816,8.98486,0,0,0,0,0,0,0,-1,1147,1793,2.48815,-8.98489
-70,-769,1.04944,11.9852,0,0,0,0,0,0,0,-1,1154,1793,1.04947,-11.9852
-63,-769,-2.39709,9.60339,0,0,0,0,0,0,0,-1,1161,1793,-2.39706,-9.6034
-56,-769,-5.84363,7.22156,0,0,0,0,0,0,0,-1,1168,1793,-5.84359,-7.22157
-49,-769,-2.41443,3.95471,0,0,0,0,0,0,0,-1,1175,1793,-2.41446,-3.95471
-42,-769,-3.1991,2.64941,0,0,0,0,0,0,0,-1,1182,1793,-3.19914,-2.64944
-35,-769,-3.50183,1.73389,0,0,0,0,0,0,0,-1,1189,1793,-3.50189,-1.7339
-28,-769,-3.96985,1.14075,0,0,0,0,0,0,0,-1,1196,1793,-3.96985,-1.14078
-21,-769,7.18909,27.4938,0,0,0,0,0,0,0,-1,1203,1793,7.18905,-27.4938
-14,-769,7.85962,29.5334,0,0,0,0,0,0,0,-1,1210,1793,7.85963,-29.5335
-7,-769,6.64404,28.6688,0,0,0,0,0,0,0,-1,1217,1793,6.64404,-28.6688
0,-769,6.85767,28.9077,0,0,0,0,0,0,0,-1,1224,1793,6.85766,-28.9077
7,-769,7.32422,29.4343,0.046318,0.00243351,-0.00186217,0.0463969,0.00235463,-0.0423321,0.030177,0.042936,1231,1793,7.32427,-29.4344
14,-769,6.95276,29.4432,0.0438173,0.00475202,-0.0052238,0.0445037,0.00406555,-0.130662,0.0284111,0.0426024,1238,1793,6.9528,-29.4432
21,-769,6.84851,29.6331,0,0,0,0,0,0,0,-1,1245,1793,6.84854,-29.633
28,-769,6.31079,29.0879,0.034882,0.00347687,-0.00966296,0.037617,0.00074188,-0.275824,0.0248344,0.0411948,1252,1793,6.31084,-29.0879
35,-769,6.28394,29.3523,0.0280807,0.00318619,-0.0116331,0.0326706,-0.00140368,-0.3758,0.022263,0.0454455,1259,1793,6.28394,-29.3523
42,-769,6.37842,29.5062,0.0224024,0.00368023,-0.0135573,0.0295164,-0.00343386,-0.483244,0.0209164,0.0482173,1266,1793,6.3784,-29.5063
49,-769,6.27698,29.4281,0.0168164,0.00405997,-0.0149911,0.0267298,-0.00585336,-0.584265,0.0200577,0.047199,1273,1793,6.27699,-29.4281
56,-769,6.30505,29.3273,0.0108246,0.00428342,-0.0161546,0.0240363,-0.00892832,-0.68552,0.0196872,0.0476716,1280,1793,6.30508,-29.3273
63,-769,6.22742,29.292,0,0,0,0,0,0,0,-1,1287,1793,6.2274,-29.2919
70,-769,6.26025,29.2729,0.00220733,0.00467868,-0.0181488,0.0216338,-0.0147478,-0.819389,0.02113,0.042174,1294,1793,6.26029,-29.2729
77,-769,6.37195,29.1688,-0.000734051,0.00474888,-0.0189838,0.0211882,-0.0171733,-0.857108,0.0221884,0.0435473,1301,1793,6.37194,-29.1688
84,-769,6.37781,28.7134,-0.00204742,0.00466829,-0.0194998,0.0210972,-0.0184763,-0.870662,0.0228645,0.0444025,1308,1793,6.37776,-28.7134
91,-769,6.95178,28.6028,-0.00487245,0.00446131,-0.0204289,0.0207497,-0.0211608,-0.897694,0.0241974,0.047381,1315,1793,6.95177,-28.6027
98,-769,7.03967,28.5217,-0.00492907,0.00363572,-0.0192758,0.0190991,-0.0203924,-0.894705,0.0228045,0.0472555,1322,1793,7.03964,-28.5217
105,-769,6.46472,29.1932,0,0,0,0,0,0,0,-1,1329,1793,6.46471,-29.1932
112,-769,6.19409,29.0176,0,0,0,0,0,0,0,-1,1336,1793,6.1941,-29.0175
119,-769,6.32251,28.9536,0,0,0,0,0,0,0,-1,1343,1793,6.32249,-28.9537
126,-769,6.88074,28.9246,0,0,0,0,0,0,0,-1,1350,1793,6.88078,-28.9246
133,-769,6.71423,28.6589,0,0,0,0,0,0,0,-1,1357,1793,6.71424,-28.6589
140,-769,6.42151,28.432,0,0,0,0,0,0,0,-1,1364,1793,6.42154,-28.4321
147,-769,6.25806,29.0126,0,0,0,0,0,0,0,-1,1371,1793,6.25803,-29.0126
154,-769,6.61523,28.5587,0,0,0,0,0,0,0,-1,1378,1793,6.61519,-28.5587
161,-769,6.57019,1.53223,0,0,0,0,0,0,0,-1,1385,1793,6.57019,-1.53226
168,-769,8.27637,0.756958,0,0,0,0,0,0,0,-1,1392,1793,8.27639,-0.756944
175,-769,8.47144,2.41174,0,0,0,0,0,0,0,-1,1399,1793,8.47147,-2.4118
182,-769,8.41479,4.05994,0,0,0,0,0,0,0,-1,1406,1793,8.41479,-4.05997
189,-769,8.25049,5.68433,0,0,0,0,0,0,0,-1,1413,1793,8.25054,-5.68428
196,-769,7.97729,7.42847,0,0,0,0,0,0,0,-1,1420,1793,7.9773,-7.42848
203,-769,22.0977,6.73889,0,0,0,0,0,0,0,-1,1427,1793,22.0977,-6.7389
210,-769,22.1115,7.77246,0,0,0,0,0,0,0,-1,1434,1793,22.1115,-7.77248
217,-769,22.4723,8.79102,0,0,0,0,0,0,0,-1,1441,1793,22.4723,-8.79099
224,-769,22.1348,9.35278,0,0,0,0,0,0,0,-1,1448,1793,22.1348,-9.35283
231,-769,3.13318,19.7184,0,0,0,0,0,0,0,-1,1455,1793,3.13323,-19.7184
238,-769,5.74512,18.6597,0,0,0,0,0,0,0,-1,1462,1793,5.74512,-18.6596
245,-769,5.86584,22.3948,0,0,0,0,0,0,0,-1,1469,1793,5.86589,-22.3947
252,-769,4.34961,12.5251,0,0,0,0,0,0,0,-1,1476,1793,4.34959,-12.5252
259,-769,16.4871,7.42102,0,0,0,0,0,0,0,-1,1483,1793,16.4871,-7.42104
266,-769,15.8488,7.3905,0,0,0,0,0,0,0,-1,1490,1793,15.8488,-7.39046
273,-769,14.8075,7.56152,0,0,0,0,0,0,0,-1,1497,1793,14.8075,-7.56152
280,-769,13.6519,7.43054,0,0,0,0,0,0,0,-1,1504,1793,13.6518,-7.43058
287,-769,0,0,0,0,0,0,0,0,0,-1,1511,1793,0,0
294,-769,0,0,0,0,0,0,0,0,0,-1,1518,1793,0,0
301,-769,0,0,0,0,0,0,0,0,0,-1,1525,1793,0,0
308,-769,0,0,0,0,0,0,0,0,0,-1,1532,1793,0,0
315,-769,0,0,0,0,0,0,0,0,0,-1,1539,1793,0,0
322,-769,0,0,0,0,0,0,0,0,0,-1,1546,1793,0,0
329,-769,0,0,0,0,0,0,0,0,0,-1,1553,1793,0,0
336,-769,0,0,0,0,0,0,0,0,0,-1,1560,1793,0,0
343,-769,0,0,0,0,0,0,0,0,0,-1,1567,1793,0,0
350,-769,0,0,0,0,0,0,0,0,0,-1,1574,1793,0,0
357,-769,0,0,0,0,0,0,0,0,0,-1,1581,1793,0,0
364,-769,0,0,0,0,0,0,0,0,0,-1,1588,1793,0,0
371,-769,0,0,0,0,0,0,0,0,0,-1,1595,1793,0,0
378,-769,0,0,0,0,0,0,0,0,0,-1,1602,1793,0,0
385,-769,0,0,0,0,0,0,0,0,0,-1,1609,1793,0,0
392,-769,0,0,0,0,0,0,0,0,0,-1,1616,1793,0,0
399,-769,0,0,0,0,0,0,0,0,0,-1,1623,1793,0,0
406,-769,0,0,0,0,0,0,0,0,0,-1,1630,1793,0,0
413,-769,0,0,0,0,0,0,0,0,0,-1,1637,1793,0,0
420,-769,0,0,0,0,0,0,0,0,0,-1,1644,1793,0,0
427,-769,0,0,0,0,0,0,0,0,0,-1,1651,1793,0,0
434,-769,0,0,0,0,0,0,0,0,0,-1,1658,1793,0,0
441,-769,0,0,0,0,0,0,0,0,0,-1,1665,1793,0,0
448,-769,0,0,0,0,0,0,0,0,0,-1,1672,1793,0,0
455,-769,0,0,0,0,0,0,0,0,0,-1,1679,1793,0,0
462,-769,0,0,0,0,0,0,0,0,0,-1,1686,1793,0,0
469,-769,0,0,0,0,0,0,0,0,0,-1,1693,1793,0,0
476,-769,0,0,0,0,0,0,0,0,0,-1,1700,1793,0,0
483,-769,0,0,0,0,0,0,0,0,0,-1,1707,1793,0,0
490,-769,0,0,0,0,0,0,0,0,0,-1,1714,1793,0,0
497,-769,0,0,0,0,0,0,0,0,0,-1,1721,1793,0,0
504,-769,0,0,0,0,0,0,0,0,0,-1,1728,1793,0,0
511,-769,0,0,0,0,0,0,0,0,0,-1,1735,1793,0,0
518,-769,0,0,0,0,0,0,0,0,0,-1,1742,1793,0,0
525,-769,0,0,0,0,0,0,0,0,0,-1,1749,1793,0,0
532,-769,0,0,0,0,0,0,0,0,0,-1,1756,1793,0,0
539,-769,0,0,0,0,0,0,0,0,0,-1,1763,1793,0,0
546,-769,0,0,0,0,0,0,0,0,0,-1,1770,1793,0,0
553,-769,0,0,0,0,0,0,0,0,0,-1,1777,1793,0,0
560,-769,0,0,0,0,0,0,0,0,0,-1,1784,1793,0,0
567,-769,0,0,0,0,0,0,0,0,0,-1,1791,1793,0,0
574,-769,0,0,0,0,0,0,0,0,0,-1,1798,1793,0,0
581,-769,0,0,0,0,0,0,0,0,0,-1,1805,1793,0,0
588,-769,0,0,0,0,0,0,0,0,0,-1,1812,1793,0,0
595,-769,0,0,0,0,0,0,0,0,0,-1,1819,1793,0,0
602,-769,0,0,0,0,0,0,0,0,0,-1,1826,1793,0,0
609,-769,0,0,0,0,0,0,0,0,0,-1,1833,1793,0,0
616,-769,0,0,0,0,0,0,0,0,0,-1,1840,1793,0,0
623,-769,0,0,0,0,0,0,0,0,0,-1,1847,1793,0,0
630,-769,0,0,0,0,0,0,0,0,0,-1,1854,1793,0,0
637,-769,0,0,0,0,0,0,0,0,0,-1,1861,1793,0,0
644,-769,0,0,0,0,0,0,0,0,0,-1,1868,1793,0,0
651,-769,0,0,0,0,0,0,0,0,0,-1,1875,1793,0,0
658,-769,0,0,0,0,0,0,0,0,0,-1,1882,1793,0,0
665,-769,0,0,0,0,0,0,0,0,0,-1,1889,1793,0,0
672,-769,0,0,0,0,0,0,0,0,0,-1,1896,1793,0,0
679,-769,0,0,0,0,0,0,0,0,0,-1,1903,1793,0,0
686,-769,0,0,0,0,0,0,0,0,0,-1,1910,1793,0,0
693,-769,0,0,0,0,0,0,0,0,0,-1,1917,1793,0,0
700,-769,0,0,0,0,0,0,0,0,0,-1,1924,1793,0,0
707,-769,0,0,0,0,0,0,0,0,0,-1,1931,1793,0,0
714,-769,0,0,0,0,0,0,0,0,0,-1,1938,1793,0,0
721,-769,0,0,0,0,0,0,0,0,0,-1,1945,1793,0,0
728,-769,0,0,0,0,0,0,0,0,0,-1,1952,1793,0,0
735,-769,0,0,0,0,0,0,0,0,0,-1,1959,1793,0,0
742,-769,0,0,0,0,0,0,0,0,0,-1,1966,1793,0,0
749,-769,0,0,0,0,0,0,0,0,0,-1,1973,1793,0,0
756,-769,0,0,0,0,0,0,0,0,0,-1,1980,1793,0,0
763,-769,0,0,0,0,0,0,0,0,0,-1,1987,1793,0,0
770,-769,0,0,0,0,0,0,0,0,0,-1,1994,1793,0,0
777,-769,0,0,0,0,0,0,0,0,0,-1,2001,1793,0,0
784,-769,0,0,0,0,0,0,0,0,0,-1,2008,1793,0,0
791,-769,0,0,0,0,0,0,0,0,0,-1,2015,1793,0,0
798,-769,0,0,0,0,0,0,0,0,0,-1,2022,1793,0,0
805,-769,0,0,0,0,0,0,0,0,0,-1,2029,1793,0,0
812,-769,0,0,0,0,0,0,0,0,0,-1,2036,1793,0,0
-700,-776,0,0,0,0,0,0,0,0,0,-1,524,1800,0,0
-693,-776,0,0,0,0,0,0,0,0,0,-1,531,1800,0,0
-686,-776,0,0,0,0,0,0,0,0,0,-1,538,1800,0,0
-679,-776,0,0,0,0,0,0,0,0,0,-1,545,1800,0,0
-672,-776,0,0,0,0,0,0,0,0,0,-1,552,1800,0,0
-665,-776,0,0,0,0,0,0,0,0,0,-1,559,1800,0,0
-658,-776,0,0,0,0,0,0,0,0,0,-1,566,1800,0,0
-651,-776,0,0,0,0,0,0,0,0,0,-1,573,1800,0,0
-644,-776,0,0,0,0,0,0,0,0,0,-1,580,1800,0,0
-637,-776,0,0,0,0,0,0,0,0,0,-1,587,1800,0,0
-630,-776,0,0,0,0,0,0,0,0,0,-1,594,1800,0,0
-623,-776,0,0,0,0,0,0,0,0,0,-1,601,1800,0,0
-616,-776,0,0,0,0,0,0,0,0,0,-1,608,1800,0,0
-609,-776,0,0,0,0,0,0,0,0,0,-1,615,1800,0,0
-602,-776,0,0,0,0,0,0,0,0,0,-1,622,1800,0,0
-595,-776,0,0,0,0,0,0,0,0,0,-1,629,1800,0,0
-588,-776,0,0,0,0,0,0,0,0,0,-1,636,1800,0,0
-581,-776,0,0,0,0,0,0,0,0,0,-1,643,1800,0,0
-574,-776,0,0,0,0,0,0,0,0,0,-1,650,1800,0,0
-567,-776,0,0,0,0,0,0,0,0,0,-1,657,1800,0,0
-560,-776,0,0,0,0,0,0,0,0,0,-1,664,1800,0,0
-553,-776,0,0,0,0,0,0,0,0,0,-1,671,1800,0,0
-546,-776,0,0,0,0,0,0,0,0,0,-1,678,1800,0,0
-539,-776,0,0,0,0,0,0,0,0,0,-1,685,1800,0,0
-532,-776,0,0,0,0,0,0,0,0,0,-1,692,1800,0,0
-525,-776,0,0,0,0,0,0,0,0,0,-1,699,1800,0,0
-518,-776,0,0,0,0,0,0,0,0,0,-1,706,1800,0,0
-511,-776,0,0,0,0,0,0,0,0,0,-1,713,1800,0,0
-504,-776,0,0,0,0,0,0,0,0,0,-1,720,1800,0,0
-497,-776,0,0,0,0,0,0,0,0,0,-1,727,1800,0,0
-490,-776,0,0,0,0,0,0,0,0,0,-1,734,1800,0,0
-483,-776,0,0,0,0,0,0,0,0,0,-1,741,1800,0,0
-476,-776,0,0,0,0,0,0,0,0,0,-1,748,1800,0,0
-469,-776,0,0,0,0,0,0,0,0,0,-1,755,1800,0,0
-462,-776,0,0,0,0,0,0,0,0,0,-1,762,1800,0,0
-455,-776,0,0,0,0,0,0,0,0,0,-1,769,1800,0,0
-448,-776,0,0,0,0,0,0,0,0,0,-1,776,1800,0,0
-441,-776,0,0,0,0,0,0,0,0,0,-1,783,1800,0,0
-434,-776,0,0,0,0,0,0,0,0,0,-1,790,1800,0,0
-427,-776,0,0,0,0,0,0,0,0,0,-1,797,1800,0,0
-420,-776,0,0,0,0,0,0,0,0,0,-1,804,1800,0,0
-413,-776,0,0,0,0,0,0,0,0,0,-1,811,1800,0,0
-406,-776,0,0,0,0,0,0,0,0,0,-1,818,1800,0,0
-399,-776,0,0,0,0,0,0,0,0,0,-1,825,1800,0,0
-392,-776,0,0,0,0,0,0,0,0,0,-1,832,1800,0,0
-385,-776,0,0,0,0,0,0,0,0,0,-1,839,1800,0,0
-378,-776,0,0,0,0,0,0,0,0,0,-1,846,1800,0,0
-371,-776,0,0,0,0,0,0,0,0,0,-1,853,1800,0,0
-364,-776,0,0,0,0,0,0,0,0,0,-1,860,1800,0,0
-357,-776,0,0,0,0,0,0,0,0,0,-1,867,1800,0,0
-350,-776,0,0,0,0,0,0,0,0,0,-1,874,1800,0,0
-343,-776,0,0,0,0,0,0,0,0,0,-1,881,1800,0,0
-336,-776,0,0,0,0,0,0,0,0,0,-1,888,1800,0,0
-329,-776,0,0,0,0,0,0,0,0,0,-1,895,1800,0,0
-322,-776,0,0,0,0,0,0,0,0,0,-1,902,1800,0,0
-315,-776,0,0,0,0,0,0,0,0,0,-1,909,1800,0,0
-308,-776,0,0,0,0,0,0,0,0,0,-1,916,1800,0,0
-301,-776,0,0,0,0,0,0,0,0,0,-1,923,1800,0,0
-294,-776,0,0,0,0,0,0,0,0,0,-1,930,1800,0,0
-287,-776,0,0,0,0,0,0,0,0,0,-1,937,1800,0,0
-280,-776,0,0,0,0,0,0,0,0,0,-1,944,1800,0,0
-273,-776,0,0,0,0,0,0,0,0,0,-1,951,1800,0,0
-266,-776,0,0,0,0,0,0,0,0,0,-1,958,1800,0,0
-259,-776,0,0,0,0,0,0,0,0,0,-1,965,1800,0,0
-252,-776,0,0,0,0,0,0,0,0,0,-1,972,1800,0,0
-245,-776,0,0,0,0,0,0,0,0,0,-1,979,1800,0,0
-238,-776,0,0,0,0,0,0,0,0,0,-1,986,1800,0,0
-231,-776,0,0,0,0,0,0,0,0,0,-1,993,1800,0,0
-224,-776,0,0,0,0,0,0,0,0,0,-1,1000,1800,0,0
-217,-776,0,0,0,0,0,0,0,0,0,-1,1007,1800,0,0
-210,-776,0,0,0,0,0,0,0,0,0,-1,1014,1800,0,0
-203,-776,0,0,0,0,0,0,0,0,0,-1,1021,1800,0,0
-196,-776,0,0,0,0,0,0,0,0,0,-1,1028,1800,0,0
-189,-776,0,0,0,0,0,0,0,0,0,-1,1035,1800,0,0
-182,-776,0,0,0,0,0,0,0,0,0,-1,1042,1800,0,0
-175,-776,0,0,0,0,0,0,0,0,0,-1,1049,1800,0,0
-168,-776,0,0,0,0,0,0,0,0,0,-1,1056,1800,0,0
-161,-776,0,0,0,0,0,0,0,0,0,-1,1063,1800,0,0
-154,-776,0,0,0,0,0,0,0,0,0,-1,1070,1800,0,0
-147,-776,0,0,0,0,0,0,0,0,0,-1,1077,1800,0,0
-140,-776,2.98499,5.20911,0,0,0,0,0,0,0,-1,1084,1800,2.98493,-5.2091
-133,-776,6.72363,9.35828,0,0,0,0,0,0,0,-1,1091,1800,6.72358,-9.35824
-126,-776,6.55029,13.7832,0,0,0,0,0,0,0,-1,1098,1800,6.55029,-13.7832
-119,-776,5.72107,13.7787,0,0,0,0,0,0,0,-1,1105,1800,5.72106,-13.7787
-112,-776,6.84998,20.4421,0,0,0,0,0,0,0,-1,1112,1800,6.84993,-20.4421
-105,-776,2.15039,19.7095,0,0,0,0,0,0,0,-1,1119,1800,2.1504,-19.7095
-98,-776,3.92517,21.9519,0,0,0,0,0,0,0,-1,1126,1800,3.92517,-21.9519
-91,-776,3.30225,18.134,0,0,0,0,0,0,0,-1,1133,1800,3.30222,-18.134
-84,-776,2.67932,14.3162,0,0,0,0,0,0,0,-1,1140,1800,2.67926,-14.3161
-77,-776,0.580078,11.1272,0,0,0,0,0,0,0,-1,1147,1800,0.58002,-11.1272
-70,-776,-0.562866,12.3163,0,0,0,0,0,0,0,-1,1154,1800,-0.562897,-12.3163
-63,-776,-3.96106,9.97656,0,0,0,0,0,0,0,-1,1161,1800,-3.961,-9.97654
-56,-776,-7.35913,7.63672,0,0,0,0,0,0,0,-1,1168,1800,-7.3591,-7.63676
-49,-776,-7.62952,3.1908,0,0,0,0,0,0,0,-1,1175,1800,-7.62955,-3.19076
-42,-776,-3.41272,3.0249,0,0,0,0,0,0,0,-1,1182,1800,-3.41269,-3.02488
-35,-776,-3.71753,1.63635,0,0,0,0,0,0,0,-1,1189,1800,-3.71755,-1.63631
-28,-776,-4.03979,0.716064,0,0,0,0,0,0,0,-1,1196,1800,-4.03977,-0.716055
-21,-776,7.60083,30.3594,0,0,0,0,0,0,0,-1,1203,1800,7.60079,-30.3594
-14,-776,3.97144,32.172,0,0,0,0,0,0,0,-1,1210,1800,3.97142,-32.172
-7,-776,4.67456,31.8582,0,0,0,0,0,0,0,-1,1217,1800,4.67459,-31.8582
0,-776,5.6311,30.9851,0,0,0,0,0,0,0,-1,1224,1800,5.63111,-30.9851
7,-776,7.68213,29.8384,0,0,0,0,0,0,0,-1,1231,1800,7.68214,-29.8384
14,-776,7.09656,29.684,0,0,0,0,0,0,0,-1,1238,1800,7.0966,-29.684
21,-776,5.86023,28.309,0,0,0,0,0,0,0,-1,1245,1800,5.86025,-28.3089
28,-776,5.79346,28.7018,0,0,0,0,0,0,0,-1,1252,1800,5.7935,-28.7017
35,-776,6.53137,29.7426,0,0,0,0,0,0,0,-1,1259,1800,6.53135,-29.7426
42,-776,6.28979,29.6692,0.0376388,0.00805717,-0.0209767,0.0485149,-0.00281893,-0.478326,0.0333227,0.0482053,1266,1800,6.28974,-29.6692
49,-776,6.06848,29.6233,0.028379,0.00787436,-0.0227421,0.0430729,-0.00681956,-0.573636,0.0312376,0.0470478,1273,1800,6.06852,-29.6233
56,-776,5.76074,29.7722,0.0188419,0.0075772,-0.0239072,0.0377713,-0.0113522,-0.669712,0.0296972,0.0469613,1280,1800,5.76072,-29.7722
63,-776,5.33398,29.9978,0,0,0,0,0,0,0,-1,1287,1800,5.33401,-29.9978
70,-776,6.2948,29.3058,0.00485478,0.00651765,-0.025589,0.0312887,-0.0199163,-0.801638,0.0298053,0.0451348,1294,1800,6.29477,-29.3057
77,-776,6.47229,28.9977,5.04892e-05,0.00585765,-0.026107,0.029222,-0.0233139,-0.84078,0.0303955,0.0464274,1301,1800,6.47231,-28.9977
84,-776,6.33105,28.6328,0,0,0,0,0,0,0,-1,1308,1800,6.33103,-28.6328
91,-776,7.05847,28.1238,-0.00648342,0.00396815,-0.0268329,0.0260794,-0.0285947,-0.881571,0.0315772,0.0494407,1315,1800,7.05845,-28.1238
98,-776,6.92444,28.2136,-0.00650271,0.00220969,-0.0248533,0.0230857,-0.0273787,-0.872155,0.0291708,0.0444009,1322,1800,6.92447,-28.2136
105,-776,6.54077,27.8341,-0.00415926,0.000524527,-0.0257218,0.0240109,-0.0276456,-0.830796,0.0298485,0.0414208,1329,1800,6.54077,-27.8341
112,-776,6.328,27.1172,-0.00170197,-0.001213,-0.0258967,0.0244404,-0.0273554,-0.790118,0.0299201,0.0425619,1336,1800,6.32796,-27.1172
119,-776,5.92053,26.2333,0,0,0,0,0,0,0,-1,1343,1800,5.92053,-26.2333
126,-776,5.38232,25.3475,0,0,0,0,0,0,0,-1,1350,1800,5.38235,-25.3476
133,-776,6.22192,30.9,0,0,0,0,0,0,0,-1,1357,1800,6.22189,-30.9
140,-776,6.37354,28.4972,0,0,0,0,0,0,0,-1,1364,1800,6.37354,-28.4972
147,-776,4.8064,28.348,0,0,0,0,0,0,0,-1,1371,1800,4.80635,-28.3481
154,-776,6.43774,0.344116,0,0,0,0,0,0,0,-1,1378,1800,6.43776,-0.344162
161,-776,6.50293,1.1731,0,0,0,0,0,0,0,-1,1385,1800,6.5029,-1.17313
168,-776,8.44971,1.22913,0,0,0,0,0,0,0,-1,1392,1800,8.44974,-1.22915
175,-776,8.61523,2.87061,0,0,0,0,0,0,0,-1,1399,1800,8.6152,-2.87063
182,-776,8.54065,4.60645,0,0,0,0,0,0,0,-1,1406,1800,8.5407,-4.60643
189,-776,8.35303,6.28223,0,0,0,0,0,0,0,-1,1413,1800,8.35297,-6.28225
196,-776,8.0387,8.21704,0,0,0,0,0,0,0,-1,1420,1800,8.03865,-8.217
203,-776,7.91736,9.79919,0,0,0,0,0,0,0,-1,1427,1800,7.91735,-9.79922
210,-776,20.2479,7.85718,0,0,0,0,0,0,0,-1,1434,1800,20.248,-7.85719
217,-776,21.5171,9.3418,0,0,0,0,0,0,0,-1,1441,1800,21.5171,-9.34182
224,-776,3.09253,14.9313,0,0,0,0,0,0,0,-1,1448,1800,3.09254,-14.9313
231,-776,20.8671,9.21057,0,0,0,0,0,0,0,-1,1455,1800,20.867,-9.21054
238,-776,20.7511,9.05847,0,0,0,0,0,0,0,-1,1462,1800,20.7511,-9.05848
245,-776,3.80823,15.4108,0,0,0,0,0,0,0,-1,1469,1800,3.80826,-15.4108
252,-776,16.6313,6.47168,0,0,0,0,0,0,0,-1,1476,1800,16.6313,-6.47165
259,-776,14.1882,7.69055,0,0,0,0,0,0,0,-1,1483,1800,14.1882,-7.69061
266,-776,0,0,0,0,0,0,0,0,0,-1,1490,1800,0,0
273,-776,0,0,0,0,0,0,0,0,0,-1,1497,1800,0,0
280,-776,0,0,0,0,0,0,0,0,0,-1,1504,1800,0,0
287,-776,0,0,0,0,0,0,0,0,0,-1,1511,1800,0,0
294,-776,0,0,0,0,0,0,0,0,0,-1,1518,1800,0,0
301,-776,0,0,0,0,0,0,0,0,0,-1,1525,1800,0,0
308,-776,0,0,0,0,0,0,0,0,0,-1,1532,1800,0,0
315,-776,0,0,0,0,0,0,0,0,0,-1,1539,1800,0,0
322,-776,0,0,0,0,0,0,0,0,0,-1,1546,1800,0,0
329,-776,0,0,0,0,0,0,0,0,0,-1,1553,1800,0,0
336,-776,0,0,0,0,0,0,0,0,0,-1,1560,1800,0,0
343,-776,0,0,0,0,0,0,0,0,0,-1,1567,1800,0,0
350,-776,0,0,0,0,0,0,0,0,0,-1,1574,1800,0,0
357,-776,0,0,0,0,0,0,0,0,0,-1,1581,1800,0,0
364,-776,0,0,0,0,0,0,0,0,0,-1,1588,1800,0,0
371,-776,0,0,0,0,0,0,0,0,0,-1,1595,1800,0,0
378,-776,0,0,0,0,0,0,0,0,0,-1,1602,1800,0,0
385,-776,0,0,0,0,0,0,0,0,0,-1,1609,1800,0,0
392,-776,0,0,0,0,0,0,0,0,0,-1,1616,1800,0,0
399,-776,0,0,0,0,0,0,0,0,0,-1,1623,1800,0,0
406,-776,0,0,0,0,0,0,0,0,0,-1,1630,1800,0,0
413,-776,0,0,0,0,0,0,0,0,0,-1,1637,1800,0,0
420,-776,0,0,0,0,0,0,0,0,0,-1,1644,1800,0,0
427,-776,0,0,0,0,0,0,0,0,0,-1,1651,1800,0,0
434,-776,0,0,0,0,0,0,0,0,0,-1,1658,1800,0,0
441,-776,0,0,0,0,0,0,0,0,0,-1,1665,1800,0,0
448,-776,0,0,0,0,0,0,0,0,0,-1,1672,1800,0,0
455,-776,0,0,0,0,0,0,0,0,0,-1,1679,1800,0,0
462,-776,0,0,0,0,0,0,0,0,0,-1,1686,1800,0,0
469,-776,0,0,0,0,0,0,0,0,0,-1,1693,1800,0,0
476,-776,0,0,0,0,0,0,0,0,0,-1,1700,1800,0,0
483,-776,0,0,0,0,0,0,0,0,0,-1,1707,1800,0,0
490,-776,0,0,0,0,0,0,0,0,0,-1,1714,1800,0,0
497,-776,0,0,0,0,0,0,0,0,0,-1,1721,1800,0,0
504,-776,0,0,0,0,0,0,0,0,0,-1,1728,1800,0,0
511,-776,0,0,0,0,0,0,0,0,0,-1,1735,1800,0,0
518,-776,0,0,0,0,0,0,0,0,0,-1,1742,1800,0,0
525,-776,0,0,0,0,0,0,0,0,0,-1,1749,1800,0,0
532,-776,0,0,0,0,0,0,0,0,0,-1,1756,1800,0,0
539,-776,0,0,0,0,0,0,0,0,0,-1,1763,1800,0,0
546,-776,0,0,0,0,0,0,0,0,0,-1,1770,1800,0,0
553,-776,0,0,0,0,0,0,0,0,0,-1,1777,1800,0,0
560,-776,0,0,0,0,0,0,0,0,0,-1,1784,1800,0,0
567,-776,0,0,0,0,0,0,0,0,0,-1,1791,1800,0,0
574,-776,0,0,0,0,0,0,0,0,0,-1,1798,1800,0,0
581,-776,0,0,0,0,0,0,0,0,0,-1,1805,1800,0,0
588,-776,0,0,0,0,0,0,0,0,0,-1,1812,1800,0,0
595,-776,0,0,0,0,0,0,0,0,0,-1,1819,1800,0,0
602,-776,0,0,0,0,0,0,0,0,0,-1,1826,1800,0,0
609,-776,0,0,0,0,0,0,0,0,0,-1,1833,1800,0,0
616,-776,0,0,0,0,0,0,0,0,0,-1,1840,1800,0,0
623,-776,0,0,0,0,0,0,0,0,0,-1,1847,1800,0,0
630,-776,0,0,0,0,0,0,0,0,0,-1,1854,1800,0,0
637,-776,0,0,0,0,0,0,0,0,0,-1,1861,1800,0,0
644,-776,0,0,0,0,0,0,0,0,0,-1,1868,1800,0,0
651,-776,0,0,0,0,0,0,0,0,0,-1,1875,1800,0,0
658,-776,0,0,0,0,0,0,0,0,0,-1,1882,1800,0,0
665,-776,0,0,0,0,0,0,0,0,0,-1,1889,1800,0,0
672,-776,0,0,0,0,0,0,0,0,0,-1,1896,1800,0,0
679,-776,0,0,0,0,0,0,0,0,0,-1,1903,1800,0,0
686,-776,0,0,0,0,0,0,0,0,0,-1,1910,1800,0,0
693,-776,0,0,0,0,0,0,0,0,0,-1,1917,1800,0,0
700,-776,0,0,0,0,0,0,0,0,0,-1,1924,1800,0,0
707,-776,0,0,0,0,0,0,0,0,0,-1,1931,1800,0,0
714,-776,0,0,0,0,0,0,0,0,0,-1,1938,1800,0,0
721,-776,0,0,0,0,0,0,0,0,0,-1,1945,1800,0,0
728,-776,0,0,0,0,0,0,0,0,0,-1,1952,1800,0,0
735,-776,0,0,0,0,0,0,0,0,0,-1,1959,1800,0,0
742,-776,0,0,0,0,0,0,0,0,0,-1,1966,1800,0,0
749,-776,0,0,0,0,0,0,0,0,0,-1,1973,1800,0,0
756,-776,0,0,0,0,0,0,0,0,0,-1,1980,1800,0,0
763,-776,0,0,0,0,0,0,0,0,0,-1,1987,1800,0,0
770,-776,0,0,0,0,0,0,0,0,0,-1,1994,1800,0,0
777,-776,0,0,0,0,0,0,0,0,0,-1,2001,1800,0,0
784,-776,0,0,0,0,0,0,0,0,0,-1,2008,1800,0,0
791,-776,0,0,0,0,0,0,0,0,0,-1,2015,1800,0,0
798,-776,0,0,0,0,0,0,0,0,0,-1,2022,1800,0,0
805,-776,0,0,0,0,0,0,0,0,0,-1,2029,1800,0,0
812,-776,0,0,0,0,0,0,0,0,0,-1,2036,1800,0,0
-700,-783,0,0,0,0,0,0,0,0,0,-1,524,1807,0,0
-693,-783,0,0,0,0,0,0,0,0,0,-1,531,1807,0,0
-686,-783,0,0,0,0,0,0,0,0,0,-1,538,1807,0,0
-679,-783,0,0,0,0,0,0,0,0,0,-1,545,1807,0,0
-672,-783,0,0,0,0,0,0,0,0,0,-1,552,1807,0,0
-665,-783,0,0,0,0,0,0,0,0,0,-1,559,1807,0,0
-658,-783,0,0,0,0,0,0,0,0,0,-1,566,1807,0,0
-651,-783,0,0,0,0,0,0,0,0,0,-1,573,1807,0,0
-644,-783,0,0,0,0,0,0,0,0,0,-1,580,1807,0,0
-637,-783,0,0,0,0,0,0,0,0,0,-1,587,1807,0,0
-630,-783,0,0,0,0,0,0,0,0,0,-1,594,1807,0,0
-623,-783,0,0,0,0,0,0,0,0,0,-1,601,1807,0,0
-616,-783,0,0,0,0,0,0,0,0,0,-1,608,1807,0,0
-609,-783,0,0,0,0,0,0,0,0,0,-1,615,1807,0,0
-602,-783,0,0,0,0,0,0,0,0,0,-1,622,1807,0,0
-595,-783,0,0,0,0,0,0,0,0,0,-1,629,1807,0,0
-588,-783,0,0,0,0,0,0,0,0,0,-1,636,1807,0,0
-581,-783,0,0,0,0,0,0,0,0,0,-1,643,1807,0,0
-574,-783,0,0,0,0,0,0,0,0,0,-1,650,1807,0,0
-567,-783,0,0,0,0,0,0,0,0,0,-1,657,1807,0,0
-560,-783,0,0,0,0,0,0,0,0,0,-1,664,1807,0,0
-553,-783,0,0,0,0,0,0,0,0,0,-1,671,1807,0,0
-546,-783,0,0,0,0,0,0,0,0,0,-1,678,1807,0,0
-539,-783,0,0,0,0,0,0,0,0,0,-1,685,1807,0,0
-532,-783,0,0,0,0,0,0,0,0,0,-1,692,1807,0,0
-525,-783,0,0,0,0,0,0,0,0,0,-1,699,1807,0,0
-518,-783,0,0,0,0,0,0,0,0,0,-1,706,1807,0,0
-511,-783,0,0,0,0,0,0,0,0,0,-1,713,1807,0,0
-504,-783,0,0,0,0,0,0,0,0,0,-1,720,1807,0,0
-497,-783,0,0,0,0,0,0,0,0,0,-1,727,1807,0,0
-490,-783,0,0,0,0,0,0,0,0,0,-1,734,1807,0,0
-483,-783,0,0,0,0,0,0,0,0,0,-1,741,1807,0,0
-476,-783,0,0,0,0,0,0,0,0,0,-1,748,1807,0,0
-469,-783,0,0,0,0,0,0,0,0,0,-1,755,1807,0,0
-462,-783,0,0,0,0,0,0,0,0,0,-1,762,1807,0,0
-455,-783,0,0,0,0,0,0,0,0,0,-1,769,1807,0,0
-448,-783,0,0,0,0,0,0,0,0,0,-1,776,1807,0,0
-441,-783,0,0,0,0,0,0,0,0,0,-1,783,1807,0,0
-434,-783,0,0,0,0,0,0,0,0,0,-1,790,1807,0,0
-427,-783,0,0,0,0,0,0,0,0,0,-1,797,1807,0,0
-420,-783,0,0,0,0,0,0,0,0,0,-1,804,1807,0,0
-413,-783,0,0,0,0,0,0,0,0,0,-1,811,1807,0,0
-406,-783,0,0,0,0,0,0,0,0,0,-1,818,1807,0,0
-399,-783,0,0,0,0,0,0,0,0,0,-1,825,1807,0,0
-392,-783,0,0,0,0,0,0,0,0,0,-1,832,1807,0,0
-385,-783,0,0,0,0,0,0,0,0,0,-1,839,1807,0,0
-378,-783,0,0,0,0,0,0,0,0,0,-1,846,1807,0,0
-371,-783,0,0,0,0,0,0,0,0,0,-1,853,1807,0,0
-364,-783,0,0,0,0,0,0,0,0,0,-1,860,1807,0,0
-357,-783,0,0,0,0,0,0,0,0,0,-1,867,1807,0,0
-350,-783,0,0,0,0,0,0,0,0,0,-1,874,1807,0,0
-343,-783,0,0,0,0,0,0,0,0,0,-1,881,1807,0,0
-336,-783,0,0,0,0,0,0,0,0,0,-1,888,1807,0,0
-329,-783,0,0,0,0,0,0,0,0,0,-1,895,1807,0,0
-322,-783,0,0,0,0,0,0,0,0,0,-1,902,1807,0,0
-315,-783,0,0,0,0,0,0,0,0,0,-1,909,1807,0,0
-308,-783,0,0,0,0,0,0,0,0,0,-1,916,1807,0,0
-301,-783,0,0,0,0,0,0,0,0,0,-1,923,1807,0,0
-294,-783,0,0,0,0,0,0,0,0,0,-1,930,1807,0,0
-287,-783,0,0,0,0,0,0,0,0,0,-1,937,1807,0,0
-280,-783,0,0,0,0,0,0,0,0,0,-1,944,1807,0,0
-273,-783,0,0,0,0,0,0,0,0,0,-1,951,1807,0,0
-266,-783,0,0,0,0,0,0,0,0,0,-1,958,1807,0,0
-259,-783,0,0,0,0,0,0,0,0,0,-1,965,1807,0,0
-252,-783,0,0,0,0,0,0,0,0,0,-1,972,1807,0,0
-245,-783,0,0,0,0,0,0,0,0,0,-1,979,1807,0,0
-238,-783,0,0,0,0,0,0,0,0,0,-1,986,1807,0,0
-231,-783,0,0,0,0,0,0,0,0,0,-1,993,1807,0,0
-224,-783,0,0,0,0,0,0,0,0,0,-1,1000,1807,0,0
-217,-783,0,0,0,0,0,0,0,0,0,-1,1007,1807,0,0
-210,-783,0,0,0,0,0,0,0,0,0,-1,1014,1807,0,0
-203,-783,0,0,0,0,0,0,0,0,0,-1,1021,1807,0,0
-196,-783,0,0,0,0,0,0,0,0,0,-1,1028,1807,0,0
-189,-783,0,0,0,0,0,0,0,0,0,-1,1035,1807,0,0
-182,-783,0,0,0,0,0,0,0,0,0,-1,1042,1807,0,0
-175,-783,0,0,0,0,0,0,0,0,0,-1,1049,1807,0,0
-168,-783,0,0,0,0,0,0,0,0,0,-1,1056,1807,0,0
-161,-783,0,0,0,0,0,0,0,0,0,-1,1063,1807,0,0
-154,-783,0,0,0,0,0,0,0,0,0,-1,1070,1807,0,0
-147,-783,0,0,0,0,0,0,0,0,0,-1,1077,1807,0,0
-140,-783,0,0,0,0,0,0,0,0,0,-1,1084,1807,0,0
-133,-783,0,0,0,0,0,0,0,0,0,-1,1091,1807,0,0
-126,-783,0,0,0,0,0,0,0,0,0,-1,1098,1807,0,0
-119,-783,0,0,0,0,0,0,0,0,0,-1,1105,1807,0,0
-112,-783,5.33936,14.7699,0,0,0,0,0,0,0,-1,1112,1807,5.33931,-14.7699
-105,-783,6.44263,21.2224,0,0,0,0,0,0,0,-1,1119,1807,6.44263,-21.2224
-98,-783,5.54773,20.5695,0,0,0,0,0,0,0,-1,1126,1807,5.54772,-20.5695
-91,-783,2.6106,20.2491,0,0,0,0,0,0,0,-1,1133,1807,2.61056,-20.2492
-84,-783,-0.0491943,14.5743,0,0,0,0,0,0,0,-1,1140,1807,-0.0491562,-14.5743
-77,-783,0.332764,12.7788,0,0,0,0,0,0,0,-1,1147,1807,0.332743,-12.7788
-70,-783,-1.93176,5.12817,0,0,0,0,0,0,0,-1,1154,1807,-1.93171,-5.12813
-63,-783,-5.31702,10.54,0,0,0,0,0,0,0,-1,1161,1807,-5.31703,-10.54
-56,-783,-6.26135,6.9679,0,0,0,0,0,0,0,-1,1168,1807,-6.26136,-6.96785
-49,-783,-3.17688,4.59705,0,0,0,0,0,0,0,-1,1175,1807,-3.17685,-4.5971
-42,-783,-3.72876,3.1405,0,0,0,0,0,0,0,-1,1182,1807,-3.72874,-3.14055
-35,-783,-3.97046,1.59399,0,0,0,0,0,0,0,-1,1189,1807,-3.97041,-1.59401
-28,-783,-4.12195,0.270386,0,0,0,0,0,0,0,-1,1196,1807,-4.12197,-0.270408
-21,-783,3.90479,33.3453,0,0,0,0,0,0,0,-1,1203,1807,3.90481,-33.3454
-14,-783,4.43677,32.4908,0,0,0,0,0,0,0,-1,1210,1807,4.43674,-32.4908
-7,-783,4.93726,31.7953,0,0,0,0,0,0,0,-1,1217,1807,4.93721,-31.7953
0,-783,3.25391,29.6963,0,0,0,0,0,0,0,-1,1224,1807,3.25393,-29.6963
7,-783,3.93054,29.5638,0,0,0,0,0,0,0,-1,1231,1807,3.93049,-29.5638
14,-783,4.35828,29.1511,0,0,0,0,0,0,0,-1,1238,1807,4.35826,-29.1512
21,-783,5.40149,28.053,0,0,0,0,0,0,0,-1,1245,1807,5.40149,-28.053
28,-783,5.80481,28.7064,0,0,0,0,0,0,0,-1,1252,1807,5.80483,-28.7064
35,-783,5.97607,29.063,0,0,0,0,0,0,0,-1,1259,1807,5.97603,-29.063
42,-783,6.17651,29.7397,0,0,0,0,0,0,0,-1,1266,1807,6.17656,-29.7398
49,-783,6.02734,29.6857,0,0,0,0,0,0,0,-1,1273,1807,6.02733,-29.6856
56,-783,6.39307,30.5122,0,0,0,0,0,0,0,-1,1280,1807,6.39307,-30.5121
63,-783,5.60608,31.2753,0,0,0,0,0,0,0,-1,1287,1807,5.60613,-31.2752
70,-783,6.23169,29.1646,0.00900336,0.00917672,-0.0350021,0.0440923,-0.0259122,-0.786636,0.0408689,0.0461066,1294,1807,6.23173,-29.1645
77,-783,6.27832,29.099,0.00155249,0.00740671,-0.034927,0.039529,-0.0305698,-0.827204,0.0405816,0.049654,1301,1807,6.27838,-29.099
84,-783,6.01428,28.8207,0,0,0,0,0,0,0,-1,1308,1807,6.01426,-28.8206
91,-783,7.177,27.6807,0,0,0,0,0,0,0,-1,1315,1807,7.17704,-27.6806
98,-783,6.91687,28.2284,-0.00833442,-0.000175802,-0.0311234,0.0271344,-0.0356447,-0.850561,0.0363564,0.0432448,1322,1807,6.91681,-28.2284
105,-783,6.79919,27.7737,-0.00494888,-0.00324247,-0.0318139,0.0277297,-0.035921,-0.798804,0.03685,0.0451629,1329,1807,6.79919,-27.7737
112,-783,6.63171,26.3434,-0.00169965,-0.0064319,-0.0317013,0.0277237,-0.0358553,-0.748148,0.0368073,0.0431418,1336,1807,6.63173,-26.3434
119,-783,6.1908,25.2144,0,0,0,0,0,0,0,-1,1343,1807,6.19076,-25.2143
126,-783,6.33691,31.0674,0,0,0,0,0,0,0,-1,1350,1807,6.33692,-31.0674
133,-783,6.3999,31.2976,0,0,0,0,0,0,0,-1,1357,1807,6.3999,-31.2977
140,-783,6.79797,31.8633,0,0,0,0,0,0,0,-1,1364,1807,6.798,-31.8633
147,-783,-0.309937,27.2825,0,0,0,0,0,0,0,-1,1371,1807,-0.309948,-27.2825
154,-783,22.8251,14.2119,0,0,0,0,0,0,0,-1,1378,1807,22.8251,-14.2119
161,-783,6.57568,1.16174,0,0,0,0,0,0,0,-1,1385,1807,6.57562,-1.1617
168,-783,8.62561,1.79944,0,0,0,0,0,0,0,-1,1392,1807,8.62561,-1.79946
175,-783,8.78699,3.40857,0,0,0,0,0,0,0,-1,1399,1807,8.78697,-3.40854
182,-783,8.70984,5.14661,0,0,0,0,0,0,0,-1,1406,1807,8.70989,-5.14666
189,-783,8.55762,6.79871,0,0,0,0,0,0,0,-1,1413,1807,8.55766,-6.79872
196,-783,8.25488,8.66626,0,0,0,0,0,0,0,-1,1420,1807,8.25492,-8.66628
203,-783,7.86755,10.5735,0,0,0,0,0,0,0,-1,1427,1807,7.8676,-10.5734
210,-783,5.6969,8.99231,0,0,0,0,0,0,0,-1,1434,1807,5.69693,-8.99234
217,-783,5.28503,3.80872,0,0,0,0,0,0,0,-1,1441,1807,5.285,-3.80868
224,-783,3.22571,6.62903,0,0,0,0,0,0,0,-1,1448,1807,3.2257,-6.62907
231,-783,4.27942,4.56262,0,0,0,0,0,0,0,-1,1455,1807,4.27948,-4.56267
238,-783,0,0,0,0,0,0,0,0,0,-1,1462,1807,0,0
245,-783,0,0,0,0,0,0,0,0,0,-1,1469,1807,0,0
252,-783,0,0,0,0,0,0,0,0,0,-1,1476,1807,0,0
259,-783,0,0,0,0,0,0,0,0,0,-1,1483,1807,0,0
266,-783,0,0,0,0,0,0,0,0,0,-1,1490,1807,0,0
273,-783,0,0,0,0,0,0,0,0,0,-1,1497,1807,0,0
280,-783,0,0,0,0,0,0,0,0,0,-1,1504,1807,0,0
287,-783,0,0,0,0,0,0,0,0,0,-1,1511,1807,0,0
294,-783,0,0,0,0,0,0,0,0,0,-1,1518,1807,0,0
301,-783,0,0,0,0,0,0,0,0,0,-1,1525,1807,0,0
308,-783,0,0,0,0,0,0,0,0,0,-1,1532,1807,0,0
315,-783,0,0,0,0,0,0,0,0,0,-1,1539,1807,0,0
322,-783,0,0,0,0,0,0,0,0,0,-1,1546,1807,0,0
329,-783,0,0,0,0,0,0,0,0,0,-1,1553,1807,0,0
336,-783,0,0,0,0,0,0,0,0,0,-1,1560,1807,0,0
343,-783,0,0,0,0,0,0,0,0,0,-1,1567,1807,0,0
350,-783,0,0,0,0,0,0,0,0,0,-1,1574,1807,0,0
357,-783,0,0,0,0,0,0,0,0,0,-1,1581,1807,0,0
364,-783,0,0,0,0,0,0,0,0,0,-1,1588,1807,0,0
371,-783,0,0,0,0,0,0,0,0,0,-1,1595,1807,0,0
378,-783,0,0,0,0,0,0,0,0,0,-1,1602,1807,0,0
385,-783,0,0,0,0,0,0,0,0,0,-1,1609,1807,0,0
392,-783,0,0,0,0,0,0,0,0,0,-1,1616,1807,0,0
399,-783,0,0,0,0,0,0,0,0,0,-1,1623,1807,0,0
406,-783,0,0,0,0,0,0,0,0,0,-1,1630,1807,0,0
413,-783,0,0,0,0,0,0,0,0,0,-1,1637,1807,0,0
420,-783,0,0,0,0,0,0,0,0,0,-1,1644,1807,0,0
427,-783,0,0,0,0,0,0,0,0,0,-1,1651,1807,0,0
434,-783,0,0,0,0,0,0,0,0,0,-1,1658,1807,0,0
441,-783,0,0,0,0,0,0,0,0,0,-1,1665,1807,0,0
448,-783,0,0,0,0,0,0,0,0,0,-1,1672,1807,0,0
455,-783,0,0,0,0,0,0,0,0,0,-1,1679,1807,0,0
462,-783,0,0,0,0,0,0,0,0,0,-1,1686,1807,0,0
469,-783,0,0,0,0,0,0,0,0,0,-1,1693,1807,0,0
476,-783,0,0,0,0,0,0,0,0,0,-1,1700,1807,0,0
483,-783,0,0,0,0,0,0,0,0,0,-1,1707,1807,0,0
490,-783,0,0,0,0,0,0,0,0,0,-1,1714,1807,0,0
497,-783,0,0,0,0,0,0,0,0,0,-1,1721,1807,0,0
504,-783,0,0,0,0,0,0,0,0,0,-1,1728,1807,0,0
511,-783,0,0,0,0,0,0,0,0,0,-1,1735,1807,0,0
518,-783,0,0,0,0,0,0,0,0,0,-1,1742,1807,0,0
525,-783,0,0,0,0,0,0,0,0,0,-1,1749,1807,0,0
532,-783,0,0,0,0,0,0,0,0,0,-1,1756,1807,0,0
539,-783,0,0,0,0,0,0,0,0,0,-1,1763,1807,0,0
546,-783,0,0,0,0,0,0,0,0,0,-1,1770,1807,0,0
553,-783,0,0,0,0,0,0,0,0,0,-1,1777,1807,0,0
560,-783,0,0,0,0,0,0,0,0,0,-1,1784,1807,0,0
567,-783,0,0,0,0,0,0,0,0,0,-1,1791,1807,0,0
574,-783,0,0,0,0,0,0,0,0,0,-1,1798,1807,0,0
581,-783,0,0,0,0,0,0,0,0,0,-1,1805,1807,0,0
588,-783,0,0,0,0,0,0,0,0,0,-1,1812,1807,0,0
595,-783,0,0,0,0,0,0,0,0,0,-1,1819,1807,0,0
602,-783,0,0,0,0,0,0,0,0,0,-1,1826,1807,0,0
609,-783,0,0,0,0,0,0,0,0,0,-1,1833,1807,0,0
616,-783,0,0,0,0,0,0,0,0,0,-1,1840,1807,0,0
623,-783,0,0,0,0,0,0,0,0,0,-1,1847,1807,0,0
630,-783,0,0,0,0,0,0,0,0,0,-1,1854,1807,0,0
637,-783,0,0,0,0,0,0,0,0,0,-1,1861,1807,0,0
644,-783,0,0,0,0,0,0,0,0,0,-1,1868,1807,0,0
651,-783,0,0,0,0,0,0,0,0,0,-1,1875,1807,0,0
658,-783,0,0,0,0,0,0,0,0,0,-1,1882,1807,0,0
665,-783,0,0,0,0,0,0,0,0,0,-1,1889,1807,0,0
672,-783,0,0,0,0,0,0,0,0,0,-1,1896,1807,0,0
679,-783,0,0,0,0,0,0,0,0,0,-1,1903,1807,0,0
686,-783,0,0,0,0,0,0,0,0,0,-1,1910,1807,0,0
693,-783,0,0,0,0,0,0,0,0,0,-1,1917,1807,0,0
700,-783,0,0,0,0,0,0,0,0,0,-1,1924,1807,0,0
707,-783,0,0,0,0,0,0,0,0,0,-1,1931,1807,0,0
714,-783,0,0,0,0,0,0,0,0,0,-1,1938,1807,0,0
721,-783,0,0,0,0,0,0,0,0,0,-1,1945,1807,0,0
728,-783,0,0,0,0,0,0,0,0,0,-1,1952,1807,0,0
735,-783,0,0,0,0,0,0,0,0,0,-1,1959,1807,0,0
742,-783,0,0,0,0,0,0,0,0,0,-1,1966,1807,0,0
749,-783,0,0,0,0,0,0,0,0,0,-1,1973,1807,0,0
756,-783,0,0,0,0,0,0,0,0,0,-1,1980,1807,0,0
763,-783,0,0,0,0,0,0,0,0,0,-1,1987,1807,0,0
770,-783,0,0,0,0,0,0,0,0,0,-1,1994,1807,0,0
777,-783,0,0,0,0,0,0,0,0,0,-1,2001,1807,0,0
784,-783,0,0,0,0,0,0,0,0,0,-1,2008,1807,0,0
791,-783,0,0,0,0,0,0,0,0,0,-1,2015,1807,0,0
798,-783,0,0,0,0,0,0,0,0,0,-1,2022,1807,0,0
805,-783,0,0,0,0,0,0,0,0,0,-1,2029,1807,0,0
812,-783,0,0,0,0,0,0,0,0,0,-1,2036,1807,0,0
-700,-790,0,0,0,0,0,0,0,0,0,-1,524,1814,0,0
-693,-790,0,0,0,0,0,0,0,0,0,-1,531,1814,0,0
-686,-790,0,0,0,0,0,0,0,0,0,-1,538,1814,0,0
-679,-790,0,0,0,0,0,0,0,0,0,-1,545,1814,0,0
-672,-790,0,0,0,0,0,0,0,0,0,-1,552,1814,0,0
-665,-790,0,0,0,0,0,0,0,0,0,-1,559,1814,0,0
-658,-790,0,0,0,0,0,0,0,0,0,-1,566,1814,0,0
-651,-790,0,0,0,0,0,0,0,0,0,-1,573,1814,0,0
-644,-790,0,0,0,0,0,0,0,0,0,-1,580,1814,0,0
-637,-790,0,0,0,0,0,0,0,0,0,-1,587,1814,0,0
-630,-790,0,0,0,0,0,0,0,0,0,-1,594,1814,0,0
-623,-790,0,0,0,0,0,0,0,0,0,-1,601,1814,0,0
-616,-790,0,0,0,0,0,0,0,0,0,-1,608,1814,0,0
-609,-790,0,0,0,0,0,0,0,0,0,-1,615,1814,0,0
-602,-790,0,0,0,0,0,0,0,0,0,-1,622,1814,0,0
-595,-790,0,0,0,0,0,0,0,0,0,-1,629,1814,0,0
-588,-790,0,0,0,0,0,0,0,0,0,-1,636,1814,0,0
-581,-790,0,0,0,0,0,0,0,0,0,-1,643,1814,0,0
-574,-790,0,0,0,0,0,0,0,0,0,-1,650,1814,0,0
-567,-790,0,0,0,0,0,0,0,0,0,-1,657,1814,0,0
-560,-790,0,0,0,0,0,0,0,0,0,-1,664,1814,0,0
-553,-790,0,0,0,0,0,0,0,0,0,-1,671,1814,0,0
-546,-790,0,0,0,0,0,0,0,0,0,-1,678,1814,0,0
-539,-790,0,0,0,0,0,0,0,0,0,-1,685,1814,0,0
-532,-790,0,0,0,0,0,0,0,0,0,-1,692,1814,0,0
-525,-790,0,0,0,0,0,0,0,0,0,-1,699,1814,0,0
-518,-790,0,0,0,0,0,0,0,0,0,-1,706,1814,0,0
-511,-790,0,0,0,0,0,0,0,0,0,-1,713,1814,0,0
-504,-790,0,0,0,0,0,0,0,0,0,-1,720,1814,0,0
-497,-790,0,0,0,0,0,0,0,0,0,-1,727,1814,0,0
-490,-790,0,0,0,0,0,0,0,0,0,-1,734,1814,0,0
-483,-790,0,0,0,0,0,0,0,0,0,-1,741,1814,0,0
-476,-790,0,0,0,0,0,0,0,0,0,-1,748,1814,0,0
-469,-790,0,0,0,0,0,0,0,0,0,-1,755,1814,0,0
-462,-790,0,0,0,0,0,0,0,0,0,-1,762,1814,0,0
-455,-790,0,0,0,0,0,0,0,0,0,-1,769,1814,0,0
-448,-790,0,0,0,0,0,0,0,0,0,-1,776,1814,0,0
-441,-790,0,0,0,0,0,0,0,0,0,-1,783,1814,0,0
-434,-790,0,0,0,0,0,0,0,0,0,-1,790,1814,0,0
-427,-790,0,0,0,0,0,0,0,0,0,-1,797,1814,0,0
-420,-790,0,0,0,0,0,0,0,0,0,-1,804,1814,0,0
-413,-790,0,0,0,0,0,0,0,0,0,-1,811,1814,0,0
-406,-790,0,0,0,0,0,0,0,0,0,-1,818,1814,0,0
-399,-790,0,0,0,0,0,0,0,0,0,-1,825,1814,0,0
-392,-790,0,0,0,0,0,0,0,0,0,-1,832,1814,0,0
-385,-790,0,0,0,0,0,0,0,0,0,-1,839,1814,0,0
-378,-790,0,0,0,0,0,0,0,0,0,-1,846,1814,0,0
-371,-790,0,0,0,0,0,0,0,0,0,-1,853,1814,0,0
-364,-790,0,0,0,0,0,0,0,0,0,-1,860,1814,0,0
-357,-790,0,0,0,0,0,0,0,0,0,-1,867,1814,0,0
-350,-790,0,0,0,0,0,0,0,0,0,-1,874,1814,0,0
-343,-790,0,0,0,0,0,0,0,0,0,-1,881,1814,0,0
-336,-790,0,0,0,0,0,0,0,0,0,-1,888,1814,0,0
-329,-790,0,0,0,0,0,0,0,0,0,-1,895,1814,0,0
-322,-790,0,0,0,0,0,0,0,0,0,-1,902,1814,0,0
-315,-790,0,0,0,0,0,0,0,0,0,-1,909,1814,0,0
-308,-790,0,0,0,0,0,0,0,0,0,-1,916,1814,0,0
-301,-790,0,0,0,0,0,0,0,0,0,-1,923,1814,0,0
-294,-790,0,0,0,0,0,0,0,0,0,-1,930,1814,0,0
-287,-790,0,0,0,0,0,0,0,0,0,-1,937,1814,0,0
-280,-790,0,0,0,0,0,0,0,0,0,-1,944,1814,0,0
-273,-790,0,0,0,0,0,0,0,0,0,-1,951,1814,0,0
-266,-790,0,0,0,0,0,0,0,0,0,-1,958,1814,0,0
-259,-790,0,0,0,0,0,0,0,0,0,-1,965,1814,0,0
-252,-790,0,0,0,0,0,0,0,0,0,-1,972,1814,0,0
-245,-790,0,0,0,0,0,0,0,0,0,-1,979,1814,0,0
-238,-790,0,0,0,0,0,0,0,0,0,-1,986,1814,0,0
-231,-790,0,0,0,0,0,0,0,0,0,-1,993,1814,0,0
-224,-790,0,0,0,0,0,0,0,0,0,-1,1000,1814,0,0
-217,-790,0,0,0,0,0,0,0,0,0,-1,1007,1814,0,0
-210,-790,0,0,0,0,0,0,0,0,0,-1,1014,1814,0,0
-203,-790,0,0,0,0,0,0,0,0,0,-1,1021,1814,0,0
-196,-790,0,0,0,0,0,0,0,0,0,-1,1028,1814,0,0
-189,-790,0,0,0,0,0,0,0,0,0,-1,1035,1814,0,0
-182,-790,0,0,0,0,0,0,0,0,0,-1,1042,1814,0,0
-175,-790,0,0,0,0,0,0,0,0,0,-1,1049,1814,0,0
-168,-790,0,0,0,0,0,0,0,0,0,-1,1056,1814,0,0
-161,-790,0,0,0,0,0,0,0,0,0,-1,1063,1814,0,0
-154,-790,0,0,0,0,0,0,0,0,0,-1,1070,1814,0,0
-147,-790,0,0,0,0,0,0,0,0,0,-1,1077,1814,0,0
-140,-790,0,0,0,0,0,0,0,0,0,-1,1084,1814,0,0
-133,-790,0,0,0,0,0,0,0,0,0,-1,1091,1814,0,0
-126,-790,0,0,0,0,0,0,0,0,0,-1,1098,1814,0,0
-119,-790,0,0,0,0,0,0,0,0,0,-1,1105,1814,0,0
-112,-790,0,0,0,0,0,0,0,0,0,-1,1112,1814,0,0
-105,-790,0,0,0,0,0,0,0,0,0,-1,1119,1814,0,0
-98,-790,0,0,0,0,0,0,0,0,0,-1,1126,1814,0,0
-91,-790,0,0,0,0,0,0,0,0,0,-1,1133,1814,0,0
-84,-790,0,0,0,0,0,0,0,0,0,-1,1140,1814,0,0
-77,-790,-0.969238,5.30847,0,0,0,0,0,0,0,-1,1147,1814,-0.969277,-5.3085
-70,-790,-1.23169,4.98914,0,0,0,0,0,0,0,-1,1154,1814,-1.23163,-4.98916
-63,-790,-1.69128,4.32263,0,0,0,0,0,0,0,-1,1161,1814,-1.69128,-4.32258
-56,-790,-2.24756,3.75305,0,0,0,0,0,0,0,-1,1168,1814,-2.24758,-3.75302
-49,-790,-3.11011,3.35779,0,0,0,0,0,0,0,-1,1175,1814,-3.11006,-3.35781
-42,-790,0.593262,1.19165,0,0,0,0,0,0,0,-1,1182,1814,0.593225,-1.19165
-35,-790,0.307129,-0.20105,0,0,0,0,0,0,0,-1,1189,1814,0.307178,0.201006
-28,-790,-2.78467,0.785156,0,0,0,0,0,0,0,-1,1196,1814,-2.78471,-0.785183
-21,-790,4.22046,33.5687,0,0,0,0,0,0,0,-1,1203,1814,4.22043,-33.5688
-14,-790,4.7793,32.5431,0,0,0,0,0,0,0,-1,1210,1814,4.77931,-32.5431
-7,-790,2.14307,29.6989,0,0,0,0,0,0,0,-1,1217,1814,2.14309,-29.6989
0,-790,2.74878,29.3635,0,0,0,0,0,0,0,-1,1224,1814,2.74876,-29.3635
7,-790,3.33032,29.0313,0,0,0,0,0,0,0,-1,1231,1814,3.33037,-29.0312
14,-790,3.71606,28.8273,0.163684,0.0322832,-0.0148111,0.165333,0.0306344,-0.110864,0.101562,0.046594,1238,1814,3.71602,-28.8273
21,-790,4.39099,28.7091,0.151912,0.0297754,-0.0241937,0.15653,0.0251575,-0.188602,0.0970603,0.0467021,1245,1814,4.39099,-28.7091
28,-790,5.62024,28.7516,0,0,0,0,0,0,0,-1,1252,1814,5.62021,-28.7515
35,-790,5.93018,28.7533,0,0,0,0,0,0,0,-1,1259,1814,5.93022,-28.7533
42,-790,6.52417,28.8285,0,0,0,0,0,0,0,-1,1266,1814,6.5242,-28.8284
49,-790,8.29675,30.3585,0,0,0,0,0,0,0,-1,1273,1814,8.29672,-30.3585
56,-790,7.28186,31.125,0.0467925,0.0189536,-0.0466689,0.0815735,-0.0158274,-0.640469,0.0603539,0.0461952,1280,1814,7.28185,-31.1251
63,-790,6.0603,31.928,0.0292007,0.0164247,-0.0467573,0.0700044,-0.024379,-0.717508,0.0565747,0.0433295,1287,1814,6.06025,-31.928
70,-790,4.93604,32.5507,0,0,0,0,0,0,0,-1,1294,1814,4.93604,-32.5507
77,-790,6.34094,29.2235,0.00403893,0.00961904,-0.0456417,0.0525559,-0.0388979,-0.815925,0.0529968,0.0433754,1301,1814,6.34092,-29.2235
84,-790,5.52502,29.2373,-0.00199332,0.00585068,-0.0431985,0.0453048,-0.0414475,-0.830669,0.050103,0.045267,1308,1814,5.52503,-29.2372
91,-790,4.66724,29.2849,-0.0107907,0.00153566,-0.0427683,0.0385826,-0.0478376,-0.856958,0.04999,0.0466458,1315,1814,4.66728,-29.2849
98,-790,7.01794,28.3733,-0.010485,-0.00370467,-0.0379504,0.0310066,-0.0451963,-0.829946,0.0442493,0.0445058,1322,1814,7.0179,-28.3733
105,-790,6.77124,28.1222,-0.0056664,-0.0088011,-0.0381806,0.030979,-0.0454465,-0.764884,0.044387,0.048219,1329,1814,6.77121,-28.1222
112,-790,6.63293,27.8522,-0.00148542,-0.0141675,-0.0375058,0.0302116,-0.0458645,-0.701656,0.0442314,0.0457155,1336,1814,6.63297,-27.8522
119,-790,6.47583,27.6362,0.000886486,-0.0218205,-0.0371222,0.0283526,-0.0492866,-0.636994,0.0453649,0.0440599,1343,1814,6.47586,-27.6362
126,-790,6.27722,27.3982,0,0,0,0,0,0,0,-1,1350,1814,6.2772,-27.3981
133,-790,6.13464,31.9248,0,0,0,0,0,0,0,-1,1357,1814,6.1346,-31.9248
140,-790,6.46509,32.3086,0,0,0,0,0,0,0,-1,1364,1814,6.46505,-32.3086
147,-790,5.91211,33.0096,0,0,0,0,0,0,0,-1,1371,1814,5.91206,-33.0096
154,-790,31.2002,12.8408,0,0,0,0,0,0,0,-1,1378,1814,31.2001,-12.8408
161,-790,26.6003,11.7516,0,0,0,0,0,0,0,-1,1385,1814,26.6004,-11.7516
168,-790,7.04077,2.23279,0,0,0,0,0,0,0,-1,1392,1814,7.04082,-2.23275
175,-790,9.03918,3.98535,0,0,0,0,0,0,0,-1,1399,1814,9.0392,-3.98535
182,-790,8.96997,5.67896,0,0,0,0,0,0,0,-1,1406,1814,8.97001,-5.6789
189,-790,8.59729,6.86975,0,0,0,0,0,0,0,-1,1413,1814,8.59728,-6.86972
196,-790,8.21924,9.29053,0,0,0,0,0,0,0,-1,1420,1814,8.21924,-9.29048
203,-790,0,0,0,0,0,0,0,0,0,-1,1427,1814,0,0
210,-790,0,0,0,0,0,0,0,0,0,-1,1434,1814,0,0
217,-790,0,0,0,0,0,0,0,0,0,-1,1441,1814,0,0
224,-790,0,0,0,0,0,0,0,0,0,-1,1448,1814,0,0
231,-790,0,0,0,0,0,0,0,0,0,-1,1455,1814,0,0
238,-790,0,0,0,0,0,0,0,0,0,-1,1462,1814,0,0
245,-790,0,0,0,0,0,0,0,0,0,-1,1469,1814,0,0
252,-790,0,0,0,0,0,0,0,0,0,-1,1476,1814,0,0
259,-790,0,0,0,0,0,0,0,0,0,-1,1483,1814,0,0
266,-790,0,0,0,0,0,0,0,0,0,-1,1490,1814,0,0
273,-790,0,0,0,0,0,0,0,0,0,-1,1497,1814,0,0
280,-790,0,0,0,0,0,0,0,0,0,-1,1504,1814,0,0
287,-790,0,0,0,0,0,0,0,0,0,-1,1511,1814,0,0
294,-790,0,0,0,0,0,0,0,0,0,-1,1518,1814,0,0
301,-790,0,0,0,0,0,0,0,0,0,-1,1525,1814,0,0
308,-790,0,0,0,0,0,0,0,0,0,-1,1532,1814,0,0
315,-790,0,0,0,0,0,0,0,0,0,-1,1539,1814,0,0
322,-790,0,0,0,0,0,0,0,0,0,-1,1546,1814,0,0
329,-790,0,0,0,0,0,0,0,0,0,-1,1553,1814,0,0
336,-790,0,0,0,0,0,0,0,0,0,-1,1560,1814,0,0
343,-790,0,0,0,0,0,0,0,0,0,-1,1567,1814,0,0
350,-790,0,0,0,0,0,0,0,0,0,-1,1574,1814,0,0
357,-790,0,0,0,0,0,0,0,0,0,-1,1581,1814,0,0
364,-790,0,0,0,0,0,0,0,0,0,-1,1588,1814,0,0
371,-790,0,0,0,0,0,0,0,0,0,-1,1595,1814,0,0
378,-790,0,0,0,0,0,0,0,0,0,-1,1602,1814,0,0
385,-790,0,0,0,0,0,0,0,0,0,-1,1609,1814,0,0
392,-790,0,0,0,0,0,0,0,0,0,-1,1616,1814,0,0
399,-790,0,0,0,0,0,0,0,0,0,-1,1623,1814,0,0
406,-790,0,0,0,0,0,0,0,0,0,-1,1630,1814,0,0
413,-790,0,0,0,0,0,0,0,0,0,-1,1637,1814,0,0
420,-790,0,0,0,0,0,0,0,0,0,-1,1644,1814,0,0
427,-790,0,0,0,0,0,0,0,0,0,-1,1651,1814,0,0
434,-790,0,0,0,0,0,0,0,0,0,-1,1658,1814,0,0
441,-790,0,0,0,0,0,0,0,0,0,-1,1665,1814,0,0
448,-790,0,0,0,0,0,0,0,0,0,-1,1672,1814,0,0
455,-790,0,0,0,0,0,0,0,0,0,-1,1679,1814,0,0
462,-790,0,0,0,0,0,0,0,0,0,-1,1686,1814,0,0
469,-790,0,0,0,0,0,0,0,0,0,-1,1693,1814,0,0
476,-790,0,0,0,0,0,0,0,0,0,-1,1700,1814,0,0
483,-790,0,0,0,0,0,0,0,0,0,-1,1707,1814,0,0
490,-790,0,0,0,0,0,0,0,0,0,-1,1714,1814,0,0
497,-790,0,0,0,0,0,0,0,0,0,-1,1721,1814,0,0
504,-790,0,0,0,0,0,0,0,0,0,-1,1728,1814,0,0
511,-790,0,0,0,0,0,0,0,0,0,-1,1735,1814,0,0
518,-790,0,0,0,0,0,0,0,0,0,-1,1742,1814,0,0
525,-790,0,0,0,0,0,0,0,0,0,-1,1749,1814,0,0
532,-790,0,0,0,0,0,0,0,0,0,-1,1756,1814,0,0
539,-790,0,0,0,0,0,0,0,0,0,-1,1763,1814,0,0
546,-790,0,0,0,0,0,0,0,0,0,-1,1770,1814,0,0
553,-790,0,0,0,0,0,0,0,0,0,-1,1777,1814,0,0
560,-790,0,0,0,0,0,0,0,0,0,-1,1784,1814,0,0
567,-790,0,0,0,0,0,0,0,0,0,-1,1791,1814,0,0
574,-790,0,0,0,0,0,0,0,0,0,-1,1798,1814,0,0
581,-790,0,0,0,0,0,0,0,0,0,-1,1805,1814,0,0
588,-790,0,0,0,0,0,0,0,0,0,-1,1812,1814,0,0
595,-790,0,0,0,0,0,0,0,0,0,-1,1819,1814,0,0
602,-790,0,0,0,0,0,0,0,0,0,-1,1826,1814,0,0
609,-790,0,0,0,0,0,0,0,0,0,-1,1833,1814,0,0
616,-790,0,0,0,0,0,0,0,0,0,-1,1840,1814,0,0
623,-790,0,0,0,0,0,0,0,0,0,-1,1847,1814,0,0
630,-790,0,0,0,0,0,0,0,0,0,-1,1854,1814,0,0
637,-790,0,0,0,0,0,0,0,0,0,-1,1861,1814,0,0
644,-790,0,0,0,0,0,0,0,0,0,-1,1868,1814,0,0
651,-790,0,0,0,0,0,0,0,0,0,-1,1875,1814,0,0
658,-790,0,0,0,0,0,0,0,0,0,-1,1882,1814,0,0
665,-790,0,0,0,0,0,0,0,0,0,-1,1889,1814,0,0
672,-790,0,0,0,0,0,0,0,0,0,-1,1896,1814,0,0
679,-790,0,0,0,0,0,0,0,0,0,-1,1903,1814,0,0
686,-790,0,0,0,0,0,0,0,0,0,-1,1910,1814,0,0
693,-790,0,0,0,0,0,0,0,0,0,-1,1917,1814,0,0
700,-790,0,0,0,0,0,0,0,0,0,-1,1924,1814,0,0
707,-790,0,0,0,0,0,0,0,0,0,-1,1931,1814,0,0
714,-790,0,0,0,0,0,0,0,0,0,-1,1938,1814,0,0
721,-790,0,0,0,0,0,0,0,0,0,-1,1945,1814,0,0
728,-790,0,0,0,0,0,0,0,0,0,-1,1952,1814,0,0
735,-790,0,0,0,0,0,0,0,0,0,-1,1959,1814,0,0
742,-790,0,0,0,0,0,0,0,0,0,-1,1966,1814,0,0
749,-790,0,0,0,0,0,0,0,0,0,-1,1973,1814,0,0
756,-790,0,0,0,0,0,0,0,0,0,-1,1980,1814,0,0
763,-790,0,0,0,0,0,0,0,0,0,-1,1987,1814,0,0
770,-790,0,0,0,0,0,0,0,0,0,-1,1994,1814,0,0
777,-790,0,0,0,0,0,0,0,0,0,-1,2001,1814,0,0
784,-790,0,0,0,0,0,0,0,0,0,-1,2008,1814,0,0
791,-790,0,0,0,0,0,0,0,0,0,-1,2015,1814,0,0
798,-790,0,0,0,0,0,0,0,0,0,-1,2022,1814,0,0
805,-790,0,0,0,0,0,0,0,0,0,-1,2029,1814,0,0
812,-790,0,0,0,0,0,0,0,0,0,-1,2036,1814,0,0
-700,-797,0,0,0,0,0,0,0,0,0,-1,524,1821,0,0
-693,-797,0,0,0,0,0,0,0,0,0,-1,531,1821,0,0
-686,-797,0,0,0,0,0,0,0,0,0,-1,538,1821,0,0
-679,-797,0,0,0,0,0,0,0,0,0,-1,545,1821,0,0
-672,-797,0,0,0,0,0,0,0,0,0,-1,552,1821,0,0
-665,-797,0,0,0,0,0,0,0,0,0,-1,559,1821,0,0
-658,-797,0,0,0,0,0,0,0,0,0,-1,566,1821,0,0
-651,-797,0,0,0,0,0,0,0,0,0,-1,573,1821,0,0
-644,-797,0,0,0,0,0,0,0,0,0,-1,580,1821,0,0
-637,-797,0,0,0,0,0,0,0,0,0,-1,587,1821,0,0
-630,-797,0,0,0,0,0,0,0,0,0,-1,594,1821,0,0
-623,-797,0,0,0,0,0,0,0,0,0,-1,601,1821,0,0
-616,-797,0,0,0,0,0,0,0,0,0,-1,608,1821,0,0
-609,-797,0,0,0,0,0,0,0,0,0,-1,615,1821,0,0
-602,-797,0,0,0,0,0,0,0,0,0,-1,622,1821,0,0
-595,-797,0,0,0,0,0,0,0,0,0,-1,629,1821,0,0
-588,-797,0,0,0,0,0,0,0,0,0,-1,636,1821,0,0
-581,-797,0,0,0,0,0,0,0,0,0,-1,643,1821,0,0
-574,-797,0,0,0,0,0,0,0,0,0,-1,650,1821,0,0
-567,-797,0,0,0,0,0,0,0,0,0,-1,657,1821,0,0
-560,-797,0,0,0,0,0,0,0,0,0,-1,664,1821,0,0
-553,-797,0,0,0,0,0,0,0,0,0,-1,671,1821,0,0
-546,-797,0,0,0,0,0,0,0,0,0,-1,678,1821,0,0
-539,-797,0,0,0,0,0,0,0,0,0,-1,685,1821,0,0
-532,-797,0,0,0,0,0,0,0,0,0,-1,692,1821,0,0
-525,-797,0,0,0,0,0,0,0,0,0,-1,699,1821,0,0
-518,-797,0,0,0,0,0,0,0,0,0,-1,706,1821,0,0
-511,-797,0,0,0,0,0,0,0,0,0,-1,713,1821,0,0
-504,-797,0,0,0,0,0,0,0,0,0,-1,720,1821,0,0
-497,-797,0,0,0,0,0,0,0,0,0,-1,727,1821,0,0
-490,-797,0,0,0,0,0,0,0,0,0,-1,734,1821,0,0
-483,-797,0,0,0,0,0,0,0,0,0,-1,741,1821,0,0
-476,-797,0,0,0,0,0,0,0,0,0,-1,748,1821,0,0
-469,-797,0,0,0,0,0,0,0,0,0,-1,755,1821,0,0
-462,-797,0,0,0,0,0,0,0,0,0,-1,762,1821,0,0
-455,-797,0,0,0,0,0,0,0,0,0,-1,769,1821,0,0
-448,-797,0,0,0,0,0,0,0,0,0,-1,776,1821,0,0
-441,-797,0,0,0,0,0,0,0,0,0,-1,783,1821,0,0
-434,-797,0,0,0,0,0,0,0,0,0,-1,790,1821,0,0
-427,-797,0,0,0,0,0,0,0,0,0,-1,797,1821,0,0
-420,-797,0,0,0,0,0,0,0,0,0,-1,804,1821,0,0
-413,-797,0,0,0,0,0,0,0,0,0,-1,811,1821,0,0
-406,-797,0,0,0,0,0,0,0,0,0,-1,818,1821,0,0
-399,-797,0,0,0,0,0,0,0,0,0,-1,825,1821,0,0
-392,-797,0,0,0,0,0,0,0,0,0,-1,832,1821,0,0
-385,-797,0,0,0,0,0,0,0,0,0,-1,839,1821,0,0
-378,-797,0,0,0,0,0,0,0,0,0,-1,846,1821,0,0
-371,-797,0,0,0,0,0,0,0,0,0,-1,853,1821,0,0
-364,-797,0,0,0,0,0,0,0,0,0,-1,860,1821,0,0
-357,-797,0,0,0,0,0,0,0,0,0,-1,867,1821,0,0
-350,-797,0,0,0,0,0,0,0,0,0,-1,874,1821,0,0
-343,-797,0,0,0,0,0,0,0,0,0,-1,881,1821,0,0
-336,-797,0,0,0,0,0,0,0,0,0,-1,888,1821,0,0
-329,-797,0,0,0,0,0,0,0,0,0,-1,895,1821,0,0
-322,-797,0,0,0,0,0,0,0,0,0,-1,902,1821,0,0
-315,-797,0,0,0,0,0,0,0,0,0,-1,909,1821,0,0
-308,-797,0,0,0,0,0,0,0,0,0,-1,916,1821,0,0
-301,-797,0,0,0,0,0,0,0,0,0,-1,923,1821,0,0
-294,-797,0,0,0,0,0,0,0,0,0,-1,930,1821,0,0
-287,-797,0,0,0,0,0,0,0,0,0,-1,937,1821,0,0
-280,-797,0,0,0,0,0,0,0,0,0,-1,944,1821,0,0
-273,-797,0,0,0,0,0,0,0,0,0,-1,951,1821,0,0
-266,-797,0,0,0,0,0,0,0,0,0,-1,958,1821,0,0
-259,-797,0,0,0,0,0,0,0,0,0,-1,965,1821,0,0
-252,-797,0,0,0,0,0,0,0,0,0,-1,972,1821,0,0
-245,-797,0,0,0,0,0,0,0,0,0,-1,979,1821,0,0
-238,-797,0,0,0,0,0,0,0,0,0,-1,986,1821,0,0
-231,-797,0,0,0,0,0,0,0,0,0,-1,993,1821,0,0
-224,-797,0,0,0,0,0,0,0,0,0,-1,1000,1821,0,0
-217,-797,0,0,0,0,0,0,0,0,0,-1,1007,1821,0,0
-210,-797,0,0,0,0,0,0,0,0,0,-1,1014,1821,0,0
-203,-797,0,0,0,0,0,0,0,0,0,-1,1021,1821,0,0
-196,-797,0,0,0,0,0,0,0,0,0,-1,1028,1821,0,0
-189,-797,0,0,0,0,0,0,0,0,0,-1,1035,1821,0,0
-182,-797,0,0,0,0,0,0,0,0,0,-1,1042,1821,0,0
-175,-797,0,0,0,0,0,0,0,0,0,-1,1049,1821,0,0
-168,-797,0,0,0,0,0,0,0,0,0,-1,1056,1821,0,0
-161,-797,0,0,0,0,0,0,0,0,0,-1,1063,1821,0,0
-154,-797,0,0,0,0,0,0,0,0,0,-1,1070,1821,0,0
-147,-797,0,0,0,0,0,0,0,0,0,-1,1077,1821,0,0
-140,-797,0,0,0,0,0,0,0,0,0,-1,1084,1821,0,0
-133,-797,0,0,0,0,0,0,0,0,0,-1,1091,1821,0,0
-126,-797,0,0,0,0,0,0,0,0,0,-1,1098,1821,0,0
-119,-797,0,0,0,0,0,0,0,0,0,-1,1105,1821,0,0
-112,-797,0,0,0,0,0,0,0,0,0,-1,1112,1821,0,0
-105,-797,0,0,0,0,0,0,0,0,0,-1,1119,1821,0,0
-98,-797,0,0,0,0,0,0,0,0,0,-1,1126,1821,0,0
-91,-797,0,0,0,0,0,0,0,0,0,-1,1133,1821,0,0
-84,-797,0,0,0,0,0,0,0,0,0,-1,1140,1821,0,0
-77,-797,0,0,0,0,0,0,0,0,0,-1,1147,1821,0,0
-70,-797,0,0,0,0,0,0,0,0,0,-1,1154,1821,0,0
-63,-797,0,0,0,0,0,0,0,0,0,-1,1161,1821,0,0
-56,-797,0,0,0,0,0,0,0,0,0,-1,1168,1821,0,0
-49,-797,0,0,0,0,0,0,0,0,0,-1,1175,1821,0,0
-42,-797,0.579834,0.692871,0,0,0,0,0,0,0,-1,1182,1821,0.579856,-0.692816
-35,-797,-0.185425,5.55396,0,0,0,0,0,0,0,-1,1189,1821,-0.18542,-5.55396
-28,-797,-0.310181,4.71509,0,0,0,0,0,0,0,-1,1196,1821,-0.310228,-4.71503
-21,-797,6.50159,30.3633,0,0,0,0,0,0,0,-1,1203,1821,6.50164,-30.3632
-14,-797,5.00146,32.4198,0,0,0,0,0,0,0,-1,1210,1821,5.00142,-32.4198
-7,-797,5.36816,31.235,0,0,0,0,0,0,0,-1,1217,1821,5.36817,-31.2349
0,-797,2.24365,29.0308,0,0,0,0,0,0,0,-1,1224,1821,2.2436,-29.0308
7,-797,2.67212,28.3585,0,0,0,0,0,0,0,-1,1231,1821,2.6721,-28.3586
14,-797,3.33008,28.2882,0.229433,0.0463775,-0.0159693,0.230816,0.0449948,-0.0863682,0.141288,0.0475252,1238,1821,3.33011,-28.2882
21,-797,3.78088,28.4576,0.214643,0.0433687,-0.0305785,0.219939,0.0380731,-0.17148,0.135727,0.0468464,1245,1821,3.78088,-28.4576
28,-797,4.48682,28.3994,0,0,0,0,0,0,0,-1,1252,1821,4.48684,-28.3994
35,-797,5.51196,28.4751,0.160231,0.0367364,-0.0509144,0.178515,0.0184524,-0.344769,0.113361,0.0494933,1259,1821,5.512,-28.4751
42,-797,6.19946,28.6257,0.128894,0.0340064,-0.0577291,0.156173,0.00672694,-0.441442,0.101947,0.0472662,1266,1821,6.19951,-28.6257
49,-797,9.13513,30.9741,0,0,0,0,0,0,0,-1,1273,1821,9.13517,-30.9741
56,-797,8.12976,31.598,0.068852,0.0280126,-0.0625637,0.114244,-0.0173795,-0.627657,0.0825678,0.0449835,1280,1821,8.12976,-31.5981
63,-797,7.09998,32.2175,0.0435866,0.0237756,-0.0619503,0.0964183,-0.0290562,-0.706122,0.0758428,0.0419782,1287,1821,7.10003,-32.2176
70,-797,7.28394,29.1818,0.0236646,0.0183526,-0.0609762,0.0820427,-0.0400254,-0.763633,0.0718543,0.0407958,1294,1821,7.28396,-29.1817
77,-797,6.45935,29.3031,0.00782366,0.012896,-0.0585143,0.068929,-0.0482093,-0.807056,0.0679816,0.0416701,1301,1821,6.45932,-29.3031
84,-797,5.80884,29.3998,-0.00138742,0.00666437,-0.053978,0.0567664,-0.0514895,-0.822621,0.0625263,0.0468271,1308,1821,5.80886,-29.3998
91,-797,5.17639,29.2997,-0.0137424,-0.0003394,-0.0522854,0.0456722,-0.059754,-0.849136,0.0610486,0.0460602,1315,1821,5.17633,-29.2996
98,-797,6.91919,28.6934,-0.0131519,-0.00847392,-0.0451605,0.0344081,-0.0560339,-0.811271,0.052712,0.0438593,1322,1821,6.91922,-28.6933
105,-797,6.50623,28.2983,-0.00637964,-0.0164719,-0.0444807,0.0333402,-0.0561917,-0.728917,0.0522495,0.0454486,1329,1821,6.50627,-28.2984
112,-797,6.55078,27.9946,0,0,0,0,0,0,0,-1,1336,1821,6.55077,-27.9947
119,-797,6.43713,27.6288,0.0018015,-0.0344207,-0.0423119,0.0297155,-0.0623347,-0.583178,0.0542461,0.0429312,1343,1821,6.43714,-27.6288
126,-797,6.53345,26.9675,0,0,0,0,0,0,0,-1,1350,1821,6.53343,-26.9675
133,-797,6.69678,26.3771,0,0,0,0,0,0,0,-1,1357,1821,6.69677,-26.3771
140,-797,6.11084,32.8335,0,0,0,0,0,0,0,-1,1364,1821,6.11088,-32.8334
147,-797,5.82178,33.3655,0,0,0,0,0,0,0,-1,1371,1821,5.82176,-33.3655
154,-797,31.4951,9.60852,0,0,0,0,0,0,0,-1,1378,1821,31.4951,-9.6085
161,-797,34.0564,8.97107,0,0,0,0,0,0,0,-1,1385,1821,34.0564,-8.97107
168,-797,0,0,0,0,0,0,0,0,0,-1,1392,1821,0,0
175,-797,0,0,0,0,0,0,0,0,0,-1,1399,1821,0,0
182,-797,0,0,0,0,0,0,0,0,0,-1,1406,1821,0,0
189,-797,0,0,0,0,0,0,0,0,0,-1,1413,1821,0,0
196,-797,0,0,0,0,0,0,0,0,0,-1,1420,1821,0,0
203,-797,0,0,0,0,0,0,0,0,0,-1,1427,1821,0,0
210,-797,0,0,0,0,0,0,0,0,0,-1,1434,1821,0,0
217,-797,0,0,0,0,0,0,0,0,0,-1,1441,1821,0,0
224,-797,0,0,0,0,0,0,0,0,0,-1,1448,1821,0,0
231,-797,0,0,0,0,0,0,0,0,0,-1,1455,1821,0,0
238,-797,0,0,0,0,0,0,0,0,0,-1,1462,1821,0,0
245,-797,0,0,0,0,0,0,0,0,0,-1,1469,1821,0,0
252,-797,0,0,0,0,0,0,0,0,0,-1,1476,1821,0,0
259,-797,0,0,0,0,0,0,0,0,0,-1,1483,1821,0,0
266,-797,0,0,0,0,0,0,0,0,0,-1,1490,1821,0,0
273,-797,0,0,0,0,0,0,0,0,0,-1,1497,1821,0,0
280,-797,0,0,0,0,0,0,0,0,0,-1,1504,1821,0,0
287,-797,0,0,0,0,0,0,0,0,0,-1,1511,1821,0,0
294,-797,0,0,0,0,0,0,0,0,0,-1,1518,1821,0,0
301,-797,0,0,0,0,0,0,0,0,0,-1,1525,1821,0,0
308,-797,0,0,0,0,0,0,0,0,0,-1,1532,1821,0,0
315,-797,0,0,0,0,0,0,0,0,0,-1,1539,1821,0,0
322,-797,0,0,0,0,0,0,0,0,0,-1,1546,1821,0,0
329,-797,0,0,0,0,0,0,0,0,0,-1,1553,1821,0,0
336,-797,0,0,0,0,0,0,0,0,0,-1,1560,1821,0,0
343,-797,0,0,0,0,0,0,0,0,0,-1,1567,1821,0,0
350,-797,0,0,0,0,0,0,0,0,0,-1,1574,1821,0,0
357,-797,0,0,0,0,0,0,0,0,0,-1,1581,1821,0,0
364,-797,0,0,0,0,0,0,0,0,0,-1,1588,1821,0,0
371,-797,0,0,0,0,0,0,0,0,0,-1,1595,1821,0,0
378,-797,0,0,0,0,0,0,0,0,0,-1,1602,1821,0,0
385,-797,0,0,0,0,0,0,0,0,0,-1,1609,1821,0,0
392,-797,0,0,0,0,0,0,0,0,0,-1,1616,1821,0,0
399,-797,0,0,0,0,0,0,0,0,0,-1,1623,1821,0,0
406,-797,0,0,0,0,0,0,0,0,0,-1,1630,1821,0,0
413,-797,0,0,0,0,0,0,0,0,0,-1,1637,1821,0,0
420,-797,0,0,0,0,0,0,0,0,0,-1,1644,1821,0,0
427,-797,0,0,0,0,0,0,0,0,0,-1,1651,1821,0,0
434,-797,0,0,0,0,0,0,0,0,0,-1,1658,1821,0,0
441,-797,0,0,0,0,0,0,0,0,0,-1,1665,1821,0,0
448,-797,0,0,0,0,0,0,0,0,0,-1,1672,1821,0,0
455,-797,0,0,0,0,0,0,0,0,0,-1,1679,1821,0,0
462,-797,0,0,0,0,0,0,0,0,0,-1,1686,1821,0,0
469,-797,0,0,0,0,0,0,0,0,0,-1,1693,1821,0,0
476,-797,0,0,0,0,0,0,0,0,0,-1,1700,1821,0,0
483,-797,0,0,0,0,0,0,0,0,0,-1,1707,1821,0,0
490,-797,0,0,0,0,0,0,0,0,0,-1,1714,1821,0,0
497,-797,0,0,0,0,0,0,0,0,0,-1,1721,1821,0,0
504,-797,0,0,0,0,0,0,0,0,0,-1,1728,1821,0,0
511,-797,0,0,0,0,0,0,0,0,0,-1,1735,1821,0,0
518,-797,0,0,0,0,0,0,0,0,0,-1,1742,1821,0,0
525,-797,0,0,0,0,0,0,0,0,0,-1,1749,1821,0,0
532,-797,0,0,0,0,0,0,0,0,0,-1,1756,1821,0,0
539,-797,0,0,0,0,0,0,0,0,0,-1,1763,1821,0,0
546,-797,0,0,0,0,0,0,0,0,0,-1,1770,1821,0,0
553,-797,0,0,0,0,0,0,0,0,0,-1,1777,1821,0,0
560,-797,0,0,0,0,0,0,0,0,0,-1,1784,1821,0,0
567,-797,0,0,0,0,0,0,0,0,0,-1,1791,1821,0,0
574,-797,0,0,0,0,0,0,0,0,0,-1,1798,1821,0,0
581,-797,0,0,0,0,0,0,0,0,0,-1,1805,1821,0,0
588,-797,0,0,0,0,0,0,0,0,0,-1,1812,1821,0,0
595,-797,0,0,0,0,0,0,0,0,0,-1,1819,1821,0,0
602,-797,0,0,0,0,0,0,0,0,0,-1,1826,1821,0,0
609,-797,0,0,0,0,0,0,0,0,0,-1,1833,1821,0,0
616,-797,0,0,0,0,0,0,0,0,0,-1,1840,1821,0,0
623,-797,0,0,0,0,0,0,0,0,0,-1,1847,1821,0,0
630,-797,0,0,0,0,0,0,0,0,0,-1,1854,1821,0,0
637,-797,0,0,0,0,0,0,0,0,0,-1,1861,1821,0,0
644,-797,0,0,0,0,0,0,0,0,0,-1,1868,1821,0,0
651,-797,0,0,0,0,0,0,0,0,0,-1,1875,1821,0,0
658,-797,0,0,0,0,0,0,0,0,0,-1,1882,1821,0,0
665,-797,0,0,0,0,0,0,0,0,0,-1,1889,1821,0,0
672,-797,0,0,0,0,0,0,0,0,0,-1,1896,1821,0,0
679,-797,0,0,0,0,0,0,0,0,0,-1,1903,1821,0,0
686,-797,0,0,0,0,0,0,0,0,0,-1,1910,1821,0,0
693,-797,0,0,0,0,0,0,0,0,0,-1,1917,1821,0,0
700,-797,0,0,0,0,0,0,0,0,0,-1,1924,1821,0,0
707,-797,0,0,0,0,0,0,0,0,0,-1,1931,1821,0,0
714,-797,0,0,0,0,0,0,0,0,0,-1,1938,1821,0,0
721,-797,0,0,0,0,0,0,0,0,0,-1,1945,1821,0,0
728,-797,0,0,0,0,0,0,0,0,0,-1,1952,1821,0,0
735,-797,0,0,0,0,0,0,0,0,0,-1,1959,1821,0,0
742,-797,0,0,0,0,0,0,0,0,0,-1,1966,1821,0,0
749,-797,0,0,0,0,0,0,0,0,0,-1,1973,1821,0,0
756,-797,0,0,0,0,0,0,0,0,0,-1,1980,1821,0,0
763,-797,0,0,0,0,0,0,0,0,0,-1,1987,1821,0,0
770,-797,0,0,0,0,0,0,0,0,0,-1,1994,1821,0,0
777,-797,0,0,0,0,0,0,0,0,0,-1,2001,1821,0,0
784,-797,0,0,0,0,0,0,0,0,0,-1,2008,1821,0,0
791,-797,0,0,0,0,0,0,0,0,0,-1,2015,1821,0,0
798,-797,0,0,0,0,0,0,0,0,0,-1,2022,1821,0,0
805,-797,0,0,0,0,0,0,0,0,0,-1,2029,1821,0,0
812,-797,0,0,0,0,0,0,0,0,0,-1,2036,1821,0,0
-700,-804,0,0,0,0,0,0,0,0,0,-1,524,1828,0,0
-693,-804,0,0,0,0,0,0,0,0,0,-1,531,1828,0,0
-686,-804,0,0,0,0,0,0,0,0,0,-1,538,1828,0,0
-679,-804,0,0,0,0,0,0,0,0,0,-1,545,1828,0,0
-672,-804,0,0,0,0,0,0,0,0,0,-1,552,1828,0,0
-665,-804,0,0,0,0,0,0,0,0,0,-1,559,1828,0,0
-658,-804,0,0,0,0,0,0,0,0,0,-1,566,1828,0,0
-651,-804,0,0,0,0,0,0,0,0,0,-1,573,1828,0,0
-644,-804,0,0,0,0,0,0,0,0,0,-1,580,1828,0,0
-637,-804,0,0,0,0,0,0,0,0,0,-1,587,1828,0,0
-630,-804,0,0,0,0,0,0,0,0,0,-1,594,1828,0,0
-623,-804,0,0,0,0,0,0,0,0,0,-1,601,1828,0,0
-616,-804,0,0,0,0,0,0,0,0,0,-1,608,1828,0,0
-609,-804,0,0,0,0,0,0,0,0,0,-1,615,1828,0,0
-602,-804,0,0,0,0,0,0,0,0,0,-1,622,1828,0,0
-595,-804,0,0,0,0,0,0,0,0,0,-1,629,1828,0,0
-588,-804,0,0,0,0,0,0,0,0,0,-1,636,1828,0,0
-581,-804,0,0,0,0,0,0,0,0,0,-1,643,1828,0,0
-574,-804,0,0,0,0,0,0,0,0,0,-1,650,1828,0,0
-567,-804,0,0,0,0,0,0,0,0,0,-1,657,1828,0,0
-560,-804,0,0,0,0,0,0,0,0,0,-1,664,1828,0,0
-553,-804,0,0,0,0,0,0,0,0,0,-1,671,1828,0,0
-546,-804,0,0,0,0,0,0,0,0,0,-1,678,1828,0,0
-539,-804,0,0,0,0,0,0,0,0,0,-1,685,1828,0,0
-532,-804,0,0,0,0,0,0,0,0,0,-1,692,1828,0,0
-525,-804,0,0,0,0,0,0,0,0,0,-1,699,1828,0,0
-518,-804,0,0,0,0,0,0,0,0,0,-1,706,1828,0,0
-511,-804,0,0,0,0,0,0,0,0,0,-1,713,1828,0,0
-504,-804,0,0,0,0,0,0,0,0,0,-1,720,1828,0,0
-497,-804,0,0,0,0,0,0,0,0,0,-1,727,1828,0,0
-490,-804,0,0,0,0,0,0,0,0,0,-1,734,1828,0,0
-483,-804,0,0,0,0,0,0,0,0,0,-1,741,1828,0,0
-476,-804,0,0,0,0,0,0,0,0,0,-1,748,1828,0,0
-469,-804,0,0,0,0,0,0,0,0,0,-1,755,1828,0,0
-462,-804,0,0,0,0,0,0,0,0,0,-1,762,1828,0,0
-455,-804,0,0,0,0,0,0,0,0,0,-1,769,1828,0,0
-448,-804,0,0,0,0,0,0,0,0,0,-1,776,1828,0,0
-441,-804,0,0,0,0,0,0,0,0,0,-1,783,1828,0,0
-434,-804,0,0,0,0,0,0,0,0,0,-1,790,1828,0,0
-427,-804,0,0,0,0,0,0,0,0,0,-1,797,1828,0,0
-420,-804,0,0,0,0,0,0,0,0,0,-1,804,1828,0,0
-413,-804,0,0,0,0,0,0,0,0,0,-1,811,1828,0,0
-406,-804,0,0,0,0,0,0,0,0,0,-1,818,1828,0,0
-399,-804,0,0,0,0,0,0,0,0,0,-1,825,1828,0,0
-392,-804,0,0,0,0,0,0,0,0,0,-1,832,1828,0,0
-385,-804,0,0,0,0,0,0,0,0,0,-1,839,1828,0,0
-378,-804,0,0,0,0,0,0,0,0,0,-1,846,1828,0,0
-371,-804,0,0,0,0,0,0,0,0,0,-1,853,1828,0,0
-364,-804,0,0,0,0,0,0,0,0,0,-1,860,1828,0,0
-357,-804,0,0,0,0,0,0,0,0,0,-1,867,1828,0,0
-350,-804,0,0,0,0,0,0,0,0,0,-1,874,1828,0,0
-343,-804,0,0,0,0,0,0,0,0,0,-1,881,1828,0,0
-336,-804,0,0,0,0,0,0,0,0,0,-1,888,1828,0,0
-329,-804,0,0,0,0,0,0,0,0,0,-1,895,1828,0,0
-322,-804,0,0,0,0,0,0,0,0,0,-1,902,1828,0,0
-315,-804,0,0,0,0,0,0,0,0,0,-1,909,1828,0,0
-308,-804,0,0,0,0,0,0,0,0,0,-1,916,1828,0,0
-301,-804,0,0,0,0,0,0,0,0,0,-1,923,1828,0,0
-294,-804,0,0,0,0,0,0,0,0,0,-1,930,1828,0,0
-287,-804,0,0,0,0,0,0,0,0,0,-1,937,1828,0,0
-280,-804,0,0,0,0,0,0,0,0,0,-1,944,1828,0,0
-273,-804,0,0,0,0,0,0,0,0,0,-1,951,1828,0,0
-266,-804,0,0,0,0,0,0,0,0,0,-1,958,1828,0,0
-259,-804,0,0,0,0,0,0,0,0,0,-1,965,1828,0,0
-252,-804,0,0,0,0,0,0,0,0,0,-1,972,1828,0,0
-245,-804,0,0,0,0,0,0,0,0,0,-1,979,1828,0,0
-238,-804,0,0,0,0,0,0,0,0,0,-1,986,1828,0,0
-231,-804,0,0,0,0,0,0,0,0,0,-1,993,1828,0,0
-224,-804,0,0,0,0,0,0,0,0,0,-1,1000,1828,0,0
-217,-804,0,0,0,0,0,0,0,0,0,-1,1007,1828,0,0
-210,-804,0,0,0,0,0,0,0,0,0,-1,1014,1828,0,0
-203,-804,0,0,0,0,0,0,0,0,0,-1,1021,1828,0,0
-196,-804,0,0,0,0,0,0,0,0,0,-1,1028,1828,0,0
-189,-804,0,0,0,0,0,0,0,0,0,-1,1035,1828,0,0
-182,-804,0,0,0,0,0,0,0,0,0,-1,1042,1828,0,0
-175,-804,0,0,0,0,0,0,0,0,0,-1,1049,1828,0,0
-168,-804,0,0,0,0,0,0,0,0,0,-1,1056,1828,0,0
-161,-804,0,0,0,0,0,0,0,0,0,-1,1063,1828,0,0
-154,-804,0,0,0,0,0,0,0,0,0,-1,1070,1828,0,0
-147,-804,0,0,0,0,0,0,0,0,0,-1,1077,1828,0,0
-140,-804,0,0,0,0,0,0,0,0,0,-1,1084,1828,0,0
-133,-804,0,0,0,0,0,0,0,0,0,-1,1091,1828,0,0
-126,-804,0,0,0,0,0,0,0,0,0,-1,1098,1828,0,0
-119,-804,0,0,0,0,0,0,0,0,0,-1,1105,1828,0,0
-112,-804,0,0,0,0,0,0,0,0,0,-1,1112,1828,0,0
-105,-804,0,0,0,0,0,0,0,0,0,-1,1119,1828,0,0
-98,-804,0,0,0,0,0,0,0,0,0,-1,1126,1828,0,0
-91,-804,0,0,0,0,0,0,0,0,0,-1,1133,1828,0,0
-84,-804,0,0,0,0,0,0,0,0,0,-1,1140,1828,0,0
-77,-804,0,0,0,0,0,0,0,0,0,-1,1147,1828,0,0
-70,-804,0,0,0,0,0,0,0,0,0,-1,1154,1828,0,0
-63,-804,0,0,0,0,0,0,0,0,0,-1,1161,1828,0,0
-56,-804,0,0,0,0,0,0,0,0,0,-1,1168,1828,0,0
-49,-804,0,0,0,0,0,0,0,0,0,-1,1175,1828,0,0
-42,-804,0,0,0,0,0,0,0,0,0,-1,1182,1828,0,0
-35,-804,0,0,0,0,0,0,0,0,0,-1,1189,1828,0,0
-28,-804,0,0,0,0,0,0,0,0,0,-1,1196,1828,0,0
-21,-804,0,0,0,0,0,0,0,0,0,-1,1203,1828,0,0
-14,-804,0,0,0,0,0,0,0,0,0,-1,1210,1828,0,0
-7,-804,0,0,0,0,0,0,0,0,0,-1,1217,1828,0,0
0,-804,0,0,0,0,0,0,0,0,0,-1,1224,1828,0,0
7,-804,0,0,0,0,0,0,0,0,0,-1,1231,1828,0,0
14,-804,0,0,0,0,0,0,0,0,0,-1,1238,1828,0,0
21,-804,0,0,0,0,0,0,0,0,0,-1,1245,1828,0,0
28,-804,0,0,0,0,0,0,0,0,0,-1,1252,1828,0,0
35,-804,5.06213,28.3734,0.225455,0.0527594,-0.0674599,0.248683,0.0295317,-0.331604,0.156874,0.0480424,1259,1828,5.06211,-28.3734
42,-804,11.1384,30.3918,0.181918,0.0489458,-0.0767265,0.216957,0.0139067,-0.428391,0.140232,0.0456705,1266,1828,11.1384,-30.3918
49,-804,9.9353,31.3335,0,0,0,0,0,0,0,-1,1273,1828,9.93535,-31.3335
56,-804,9.203,31.8379,0.0984195,0.0404602,-0.0826109,0.156986,-0.0181065,-0.616706,0.111186,0.0441489,1280,1828,9.20296,-31.8379
63,-804,8.06909,29.3743,0.062875,0.03403,-0.0809385,0.130666,-0.0337609,-0.697228,0.100277,0.0476163,1287,1828,8.06906,-29.3743
70,-804,7.3501,29.3645,0.0353704,0.0261378,-0.0785464,0.109436,-0.0479278,-0.756046,0.0931387,0.0469324,1294,1828,7.35013,-29.3645
77,-804,6.60632,29.6608,0.013305,0.0178625,-0.0739397,0.0895586,-0.0583911,-0.800803,0.0860483,0.0461091,1301,1828,6.60632,-29.6608
84,-804,6.19336,29.6176,-0.000323952,0.00824571,-0.0664725,0.0705713,-0.0626496,-0.817584,0.0769604,0.0467181,1308,1828,6.19332,-29.6176
91,-804,0,0,0,0,0,0,0,0,0,-1,1315,1828,0,0
98,-804,0,0,0,0,0,0,0,0,0,-1,1322,1828,0,0
105,-804,0,0,0,0,0,0,0,0,0,-1,1329,1828,0,0
112,-804,0,0,0,0,0,0,0,0,0,-1,1336,1828,0,0
119,-804,0,0,0,0,0,0,0,0,0,-1,1343,1828,0,0
126,-804,0,0,0,0,0,0,0,0,0,-1,1350,1828,0,0
133,-804,0,0,0,0,0,0,0,0,0,-1,1357,1828,0,0
140,-804,0,0,0,0,0,0,0,0,0,-1,1364,1828,0,0
147,-804,0,0,0,0,0,0,0,0,0,-1,1371,1828,0,0
154,-804,0,0,0,0,0,0,0,0,0,-1,1378,1828,0,0
161,-804,0,0,0,0,0,0,0,0,0,-1,1385,1828,0,0
168,-804,0,0,0,0,0,0,0,0,0,-1,1392,1828,0,0
175,-804,0,0,0,0,0,0,0,0,0,-1,1399,1828,0,0
182,-804,0,0,0,0,0,0,0,0,0,-1,1406,1828,0,0
189,-804,0,0,0,0,0,0,0,0,0,-1,1413,1828,0,0
196,-804,0,0,0,0,0,0,0,0,0,-1,1420,1828,0,0
203,-804,0,0,0,0,0,0,0,0,0,-1,1427,1828,0,0
210,-804,0,0,0,0,0,0,0,0,0,-1,1434,1828,0,0
217,-804,0,0,0,0,0,0,0,0,0,-1,1441,1828,0,0
224,-804,0,0,0,0,0,0,0,0,0,-1,1448,1828,0,0
231,-804,0,0,0,0,0,0,0,0,0,-1,1455,1828,0,0
238,-804,0,0,0,0,0,0,0,0,0,-1,1462,1828,0,0
245,-804,0,0,0,0,0,0,0,0,0,-1,1469,1828,0,0
252,-804,0,0,0,0,0,0,0,0,0,-1,1476,1828,0,0
259,-804,0,0,0,0,0,0,0,0,0,-1,1483,1828,0,0
266,-804,0,0,0,0,0,0,0,0,0,-1,1490,1828,0,0
273,-804,0,0,0,0,0,0,0,0,0,-1,1497,1828,0,0
280,-804,0,0,0,0,0,0,0,0,0,-1,1504,1828,0,0
287,-804,0,0,0,0,0,0,0,0,0,-1,1511,1828,0,0
294,-804,0,0,0,0,0,0,0,0,0,-1,1518,1828,0,0
301,-804,0,0,0,0,0,0,0,0,0,-1,1525,1828,0,0
308,-804,0,0,0,0,0,0,0,0,0,-1,1532,1828,0,0
315,-804,0,0,0,0,0,0,0,0,0,-1,1539,1828,0,0
322,-804,0,0,0,0,0,0,0,0,0,-1,1546,1828,0,0
329,-804,0,0,0,0,0,0,0,0,0,-1,1553,1828,0,0
336,-804,0,0,0,0,0,0,0,0,0,-1,1560,1828,0,0
343,-804,0,0,0,0,0,0,0,0,0,-1,1567,1828,0,0
350,-804,0,0,0,0,0,0,0,0,0,-1,1574,1828,0,0
357,-804,0,0,0,0,0,0,0,0,0,-1,1581,1828,0,0
364,-804,0,0,0,0,0,0,0,0,0,-1,1588,1828,0,0
371,-804,0,0,0,0,0,0,0,0,0,-1,1595,1828,0,0
378,-804,0,0,0,0,0,0,0,0,0,-1,1602,1828,0,0
385,-804,0,0,0,0,0,0,0,0,0,-1,1609,1828,0,0
392,-804,0,0,0,0,0,0,0,0,0,-1,1616,1828,0,0
399,-804,0,0,0,0,0,0,0,0,0,-1,1623,1828,0,0
406,-804,0,0,0,0,0,0,0,0,0,-1,1630,1828,0,0
413,-804,0,0,0,0,0,0,0,0,0,-1,1637,1828,0,0
420,-804,0,0,0,0,0,0,0,0,0,-1,1644,1828,0,0
427,-804,0,0,0,0,0,0,0,0,0,-1,1651,1828,0,0
434,-804,0,0,0,0,0,0,0,0,0,-1,1658,1828,0,0
441,-804,0,0,0,0,0,0,0,0,0,-1,1665,1828,0,0
448,-804,0,0,0,0,0,0,0,0,0,-1,1672,1828,0,0
455,-804,0,0,0,0,0,0,0,0,0,-1,1679,1828,0,0
462,-804,0,0,0,0,0,0,0,0,0,-1,1686,1828,0,0
469,-804,0,0,0,0,0,0,0,0,0,-1,1693,1828,0,0
476,-804,0,0,0,0,0,0,0,0,0,-1,1700,1828,0,0
483,-804,0,0,0,0,0,0,0,0,0,-1,1707,1828,0,0
490,-804,0,0,0,0,0,0,0,0,0,-1,1714,1828,0,0
497,-804,0,0,0,0,0,0,0,0,0,-1,1721,1828,0,0
504,-804,0,0,0,0,0,0,0,0,0,-1,1728,1828,0,0
511,-804,0,0,0,0,0,0,0,0,0,-1,1735,1828,0,0
518,-804,0,0,0,0,0,0,0,0,0,-1,1742,1828,0,0
525,-804,0,0,0,0,0,0,0,0,0,-1,1749,1828,0,0
532,-804,0,0,0,0,0,0,0,0,0,-1,1756,1828,0,0
539,-804,0,0,0,0,0,0,0,0,0,-1,1763,1828,0,0
546,-804,0,0,0,0,0,0,0,0,0,-1,1770,1828,0,0
553,-804,0,0,0,0,0,0,0,0,0,-1,1777,1828,0,0
560,-804,0,0,0,0,0,0,0,0,0,-1,1784,1828,0,0
567,-804,0,0,0,0,0,0,0,0,0,-1,1791,1828,0,0
574,-804,0,0,0,0,0,0,0,0,0,-1,1798,1828,0,0
581,-804,0,0,0,0,0,0,0,0,0,-1,1805,1828,0,0
588,-804,0,0,0,0,0,0,0,0,0,-1,1812,1828,0,0
595,-804,0,0,0,0,0,0,0,0,0,-1,1819,1828,0,0
602,-804,0,0,0,0,0,0,0,0,0,-1,1826,1828,0,0
609,-804,0,0,0,0,0,0,0,0,0,-1,1833,1828,0,0
616,-804,0,0,0,0,0,0,0,0,0,-1,1840,1828,0,0
623,-804,0,0,0,0,0,0,0,0,0,-1,1847,1828,0,0
630,-804,0,0,0,0,0,0,0,0,0,-1,1854,1828,0,0
637,-804,0,0,0,0,0,0,0,0,0,-1,1861,1828,0,0
644,-804,0,0,0,0,0,0,0,0,0,-1,1868,1828,0,0
651,-804,0,0,0,0,0,0,0,0,0,-1,1875,1828,0,0
658,-804,0,0,0,0,0,0,0,0,0,-1,1882,1828,0,0
665,-804,0,0,0,0,0,0,0,0,0,-1,1889,1828,0,0
672,-804,0,0,0,0,0,0,0,0,0,-1,1896,1828,0,0
679,-804,0,0,0,0,0,0,0,0,0,-1,1903,1828,0,0
686,-804,0,0,0,0,0,0,0,0,0,-1,1910,1828,0,0
693,-804,0,0,0,0,0,0,0,0,0,-1,1917,1828,0,0
700,-804,0,0,0,0,0,0,0,0,0,-1,1924,1828,0,0
707,-804,0,0,0,0,0,0,0,0,0,-1,1931,1828,0,0
714,-804,0,0,0,0,0,0,0,0,0,-1,1938,1828,0,0
721,-804,0,0,0,0,0,0,0,0,0,-1,1945,1828,0,0
728,-804,0,0,0,0,0,0,0,0,0,-1,1952,1828,0,0
735,-804,0,0,0,0,0,0,0,0,0,-1,1959,1828,0,0
742,-804,0,0,0,0,0,0,0,0,0,-1,1966,1828,0,0
749,-804,0,0,0,0,0,0,0,0,0,-1,1973,1828,0,0
756,-804,0,0,0,0,0,0,0,0,0,-1,1980,1828,0,0
763,-804,0,0,0,0,0,0,0,0,0,-1,1987,1828,0,0
770,-804,0,0,0,0,0,0,0,0,0,-1,1994,1828,0,0
777,-804,0,0,0,0,0,0,0,0,0,-1,2001,1828,0,0
784,-804,0,0,0,0,0,0,0,0,0,-1,2008,1828,0,0
791,-804,0,0,0,0,0,0,0,0,0,-1,2015,1828,0,0
798,-804,0,0,0,0,0,0,0,0,0,-1,2022,1828,0,0
805,-804,0,0,0,0,0,0,0,0,0,-1,2029,1828,0,0
812,-804,0,0,0,0,0,0,0,0,0,-1,2036,1828,0,0

