 "x_c",  "y_c",  "u_c",  "v_c",  "exx",  "eyy",  "exy",  "e1",  "e2",  "gamma",  "e_vonmises",  "sigma",  "x",  "y",  "u",  "v"
-700,715,0,0,0,0,0,0,0,0,0,-1,524,309,0,0
-693,715,0,0,0,0,0,0,0,0,0,-1,531,309,0,0
-686,715,0,0,0,0,0,0,0,0,0,-1,538,309,0,0
-679,715,0,0,0,0,0,0,0,0,0,-1,545,309,0,0
-672,715,0,0,0,0,0,0,0,0,0,-1,552,309,0,0
-665,715,0,0,0,0,0,0,0,0,0,-1,559,309,0,0
-658,715,0,0,0,0,0,0,0,0,0,-1,566,309,0,0
-651,715,0,0,0,0,0,0,0,0,0,-1,573,309,0,0
-644,715,0,0,0,0,0,0,0,0,0,-1,580,309,0,0
-637,715,0,0,0,0,0,0,0,0,0,-1,587,309,0,0
-630,715,0,0,0,0,0,0,0,0,0,-1,594,309,0,0
-623,715,0,0,0,0,0,0,0,0,0,-1,601,309,0,0
-616,715,0,0,0,0,0,0,0,0,0,-1,608,309,0,0
-609,715,0,0,0,0,0,0,0,0,0,-1,615,309,0,0
-602,715,0,0,0,0,0,0,0,0,0,-1,622,309,0,0
-595,715,0,0,0,0,0,0,0,0,0,-1,629,309,0,0
-588,715,0,0,0,0,0,0,0,0,0,-1,636,309,0,0
-581,715,0,0,0,0,0,0,0,0,0,-1,643,309,0,0
-574,715,0,0,0,0,0,0,0,0,0,-1,650,309,0,0
-567,715,0,0,0,0,0,0,0,0,0,-1,657,309,0,0
-560,715,0,0,0,0,0,0,0,0,0,-1,664,309,0,0
-553,715,0,0,0,0,0,0,0,0,0,-1,671,309,0,0
-546,715,0,0,0,0,0,0,0,0,0,-1,678,309,0,0
-539,715,0,0,0,0,0,0,0,0,0,-1,685,309,0,0
-532,715,0,0,0,0,0,0,0,0,0,-1,692,309,0,0
-525,715,0,0,0,0,0,0,0,0,0,-1,699,309,0,0
-518,715,0,0,0,0,0,0,0,0,0,-1,706,309,0,0
-511,715,0,0,0,0,0,0,0,0,0,-1,713,309,0,0
-504,715,0,0,0,0,0,0,0,0,0,-1,720,309,0,0
-497,715,0,0,0,0,0,0,0,0,0,-1,727,309,0,0
-490,715,0,0,0,0,0,0,0,0,0,-1,734,309,0,0
-483,715,0,0,0,0,0,0,0,0,0,-1,741,309,0,0
-476,715,0,0,0,0,0,0,0,0,0,-1,748,309,0,0
-469,715,0,0,0,0,0,0,0,0,0,-1,755,309,0,0
-462,715,0,0,0,0,0,0,0,0,0,-1,762,309,0,0
-455,715,0,0,0,0,0,0,0,0,0,-1,769,309,0,0
-448,715,0,0,0,0,0,0,0,0,0,-1,776,309,0,0
-441,715,0,0,0,0,0,0,0,0,0,-1,783,309,0,0
-434,715,0,0,0,0,0,0,0,0,0,-1,790,309,0,0
-427,715,0,0,0,0,0,0,0,0,0,-1,797,309,0,0
-420,715,0,0,0,0,0,0,0,0,0,-1,804,309,0,0
-413,715,0,0,0,0,0,0,0,0,0,-1,811,309,0,0
-406,715,0,0,0,0,0,0,0,0,0,-1,818,309,0,0
-399,715,0,0,0,0,0,0,0,0,0,-1,825,309,0,0
-392,715,0,0,0,0,0,0,0,0,0,-1,832,309,0,0
-385,715,0,0,0,0,0,0,0,0,0,-1,839,309,0,0
-378,715,0,0,0,0,0,0,0,0,0,-1,846,309,0,0
-371,715,0,0,0,0,0,0,0,0,0,-1,853,309,0,0
-364,715,0,0,0,0,0,0,0,0,0,-1,860,309,0,0
-357,715,0,0,0,0,0,0,0,0,0,-1,867,309,0,0
-350,715,0,0,0,0,0,0,0,0,0,-1,874,309,0,0
-343,715,0,0,0,0,0,0,0,0,0,-1,881,309,0,0
-336,715,0,0,0,0,0,0,0,0,0,-1,888,309,0,0
-329,715,0,0,0,0,0,0,0,0,0,-1,895,309,0,0
-322,715,0,0,0,0,0,0,0,0,0,-1,902,309,0,0
-315,715,0,0,0,0,0,0,0,0,0,-1,909,309,0,0
-308,715,0,0,0,0,0,0,0,0,0,-1,916,309,0,0
-301,715,0,0,0,0,0,0,0,0,0,-1,923,309,0,0
-294,715,0,0,0,0,0,0,0,0,0,-1,930,309,0,0
-287,715,0,0,0,0,0,0,0,0,0,-1,937,309,0,0
-280,715,0,0,0,0,0,0,0,0,0,-1,944,309,0,0
-273,715,0,0,0,0,0,0,0,0,0,-1,951,309,0,0
-266,715,0,0,0,0,0,0,0,0,0,-1,958,309,0,0
-259,715,0,0,0,0,0,0,0,0,0,-1,965,309,0,0
-252,715,0,0,0,0,0,0,0,0,0,-1,972,309,0,0
-245,715,0,0,0,0,0,0,0,0,0,-1,979,309,0,0
-238,715,0,0,0,0,0,0,0,0,0,-1,986,309,0,0
-231,715,0,0,0,0,0,0,0,0,0,-1,993,309,0,0
-224,715,0,0,0,0,0,0,0,0,0,-1,1000,309,0,0
-217,715,0,0,0,0,0,0,0,0,0,-1,1007,309,0,0
-210,715,0,0,0,0,0,0,0,0,0,-1,1014,309,0,0
-203,715,0,0,0,0,0,0,0,0,0,-1,1021,309,0,0
-196,715,0,0,0,0,0,0,0,0,0,-1,1028,309,0,0
-189,715,0,0,0,0,0,0,0,0,0,-1,1035,309,0,0
-182,715,0,0,0,0,0,0,0,0,0,-1,1042,309,0,0
-175,715,0,0,0,0,0,0,0,0,0,-1,1049,309,0,0
-168,715,0,0,0,0,0,0,0,0,0,-1,1056,309,0,0
-161,715,0,0,0,0,0,0,0,0,0,-1,1063,309,0,0
-154,715,0,0,0,0,0,0,0,0,0,-1,1070,309,0,0
-147,715,0,0,0,0,0,0,0,0,0,-1,1077,309,0,0
-140,715,0,0,0,0,0,0,0,0,0,-1,1084,309,0,0
-133,715,0,0,0,0,0,0,0,0,0,-1,1091,309,0,0
-126,715,0,0,0,0,0,0,0,0,0,-1,1098,309,0,0
-119,715,0,0,0,0,0,0,0,0,0,-1,1105,309,0,0
-112,715,0,0,0,0,0,0,0,0,0,-1,1112,309,0,0
-105,715,0,0,0,0,0,0,0,0,0,-1,1119,309,0,0
-98,715,0,0,0,0,0,0,0,0,0,-1,1126,309,0,0
-91,715,0,0,0,0,0,0,0,0,0,-1,1133,309,0,0
-84,715,0,0,0,0,0,0,0,0,0,-1,1140,309,0,0
-77,715,0,0,0,0,0,0,0,0,0,-1,1147,309,0,0
-70,715,0,0,0,0,0,0,0,0,0,-1,1154,309,0,0
-63,715,0,0,0,0,0,0,0,0,0,-1,1161,309,0,0
-56,715,0,0,0,0,0,0,0,0,0,-1,1168,309,0,0
-49,715,0,0,0,0,0,0,0,0,0,-1,1175,309,0,0
-42,715,0,0,0,0,0,0,0,0,0,-1,1182,309,0,0
-35,715,0,0,0,0,0,0,0,0,0,-1,1189,309,0,0
-28,715,0,0,0,0,0,0,0,0,0,-1,1196,309,0,0
-21,715,0,0,0,0,0,0,0,0,0,-1,1203,309,0,0
-14,715,0,0,0,0,0,0,0,0,0,-1,1210,309,0,0
-7,715,0,0,0,0,0,0,0,0,0,-1,1217,309,0,0
0,715,0,0,0,0,0,0,0,0,0,-1,1224,309,0,0
7,715,0,0,0,0,0,0,0,0,0,-1,1231,309,0,0
14,715,0,0,0,0,0,0,0,0,0,-1,1238,309,0,0
21,715,0,0,0,0,0,0,0,0,0,-1,1245,309,0,0
28,715,0,0,0,0,0,0,0,0,0,-1,1252,309,0,0
35,715,0,0,0,0,0,0,0,0,0,-1,1259,309,0,0
42,715,0,0,0,0,0,0,0,0,0,-1,1266,309,0,0
49,715,0,0,0,0,0,0,0,0,0,-1,1273,309,0,0
56,715,0,0,0,0,0,0,0,0,0,-1,1280,309,0,0
63,715,5.43701,-44.4869,0,0,0,0,0,0,0,-1,1287,309,5.43699,44.4869
70,715,5.03796,-48.9697,0,0,0,0,0,0,0,-1,1294,309,5.03799,48.9697
77,715,0,0,0,0,0,0,0,0,0,-1,1301,309,0,0
84,715,0,0,0,0,0,0,0,0,0,-1,1308,309,0,0
91,715,0,0,0,0,0,0,0,0,0,-1,1315,309,0,0
98,715,0,0,0,0,0,0,0,0,0,-1,1322,309,0,0
105,715,0,0,0,0,0,0,0,0,0,-1,1329,309,0,0
112,715,0,0,0,0,0,0,0,0,0,-1,1336,309,0,0
119,715,0,0,0,0,0,0,0,0,0,-1,1343,309,0,0
126,715,0,0,0,0,0,0,0,0,0,-1,1350,309,0,0
133,715,0,0,0,0,0,0,0,0,0,-1,1357,309,0,0
140,715,0,0,0,0,0,0,0,0,0,-1,1364,309,0,0
147,715,0,0,0,0,0,0,0,0,0,-1,1371,309,0,0
154,715,0,0,0,0,0,0,0,0,0,-1,1378,309,0,0
161,715,0,0,0,0,0,0,0,0,0,-1,1385,309,0,0
168,715,0,0,0,0,0,0,0,0,0,-1,1392,309,0,0
175,715,0,0,0,0,0,0,0,0,0,-1,1399,309,0,0
182,715,0,0,0,0,0,0,0,0,0,-1,1406,309,0,0
189,715,0,0,0,0,0,0,0,0,0,-1,1413,309,0,0
196,715,0,0,0,0,0,0,0,0,0,-1,1420,309,0,0
203,715,0,0,0,0,0,0,0,0,0,-1,1427,309,0,0
210,715,0,0,0,0,0,0,0,0,0,-1,1434,309,0,0
217,715,0,0,0,0,0,0,0,0,0,-1,1441,309,0,0
224,715,0,0,0,0,0,0,0,0,0,-1,1448,309,0,0
231,715,0,0,0,0,0,0,0,0,0,-1,1455,309,0,0
238,715,0,0,0,0,0,0,0,0,0,-1,1462,309,0,0
245,715,0,0,0,0,0,0,0,0,0,-1,1469,309,0,0
252,715,0,0,0,0,0,0,0,0,0,-1,1476,309,0,0
259,715,0,0,0,0,0,0,0,0,0,-1,1483,309,0,0
266,715,0,0,0,0,0,0,0,0,0,-1,1490,309,0,0
273,715,0,0,0,0,0,0,0,0,0,-1,1497,309,0,0
280,715,0,0,0,0,0,0,0,0,0,-1,1504,309,0,0
287,715,0,0,0,0,0,0,0,0,0,-1,1511,309,0,0
294,715,0,0,0,0,0,0,0,0,0,-1,1518,309,0,0
301,715,0,0,0,0,0,0,0,0,0,-1,1525,309,0,0
308,715,0,0,0,0,0,0,0,0,0,-1,1532,309,0,0
315,715,0,0,0,0,0,0,0,0,0,-1,1539,309,0,0
322,715,0,0,0,0,0,0,0,0,0,-1,1546,309,0,0
329,715,0,0,0,0,0,0,0,0,0,-1,1553,309,0,0
336,715,0,0,0,0,0,0,0,0,0,-1,1560,309,0,0
343,715,0,0,0,0,0,0,0,0,0,-1,1567,309,0,0
350,715,0,0,0,0,0,0,0,0,0,-1,1574,309,0,0
357,715,0,0,0,0,0,0,0,0,0,-1,1581,309,0,0
364,715,0,0,0,0,0,0,0,0,0,-1,1588,309,0,0
371,715,0,0,0,0,0,0,0,0,0,-1,1595,309,0,0
378,715,0,0,0,0,0,0,0,0,0,-1,1602,309,0,0
385,715,0,0,0,0,0,0,0,0,0,-1,1609,309,0,0
392,715,0,0,0,0,0,0,0,0,0,-1,1616,309,0,0
399,715,0,0,0,0,0,0,0,0,0,-1,1623,309,0,0
406,715,0,0,0,0,0,0,0,0,0,-1,1630,309,0,0
413,715,0,0,0,0,0,0,0,0,0,-1,1637,309,0,0
420,715,0,0,0,0,0,0,0,0,0,-1,1644,309,0,0
427,715,0,0,0,0,0,0,0,0,0,-1,1651,309,0,0
434,715,0,0,0,0,0,0,0,0,0,-1,1658,309,0,0
441,715,0,0,0,0,0,0,0,0,0,-1,1665,309,0,0
448,715,0,0,0,0,0,0,0,0,0,-1,1672,309,0,0
455,715,0,0,0,0,0,0,0,0,0,-1,1679,309,0,0
462,715,0,0,0,0,0,0,0,0,0,-1,1686,309,0,0
469,715,0,0,0,0,0,0,0,0,0,-1,1693,309,0,0
476,715,0,0,0,0,0,0,0,0,0,-1,1700,309,0,0
483,715,0,0,0,0,0,0,0,0,0,-1,1707,309,0,0
490,715,0,0,0,0,0,0,0,0,0,-1,1714,309,0,0
497,715,0,0,0,0,0,0,0,0,0,-1,1721,309,0,0
504,715,0,0,0,0,0,0,0,0,0,-1,1728,309,0,0
511,715,0,0,0,0,0,0,0,0,0,-1,1735,309,0,0
518,715,0,0,0,0,0,0,0,0,0,-1,1742,309,0,0
525,715,0,0,0,0,0,0,0,0,0,-1,1749,309,0,0
532,715,0,0,0,0,0,0,0,0,0,-1,1756,309,0,0
539,715,0,0,0,0,0,0,0,0,0,-1,1763,309,0,0
546,715,0,0,0,0,0,0,0,0,0,-1,1770,309,0,0
553,715,0,0,0,0,0,0,0,0,0,-1,1777,309,0,0
560,715,0,0,0,0,0,0,0,0,0,-1,1784,309,0,0
567,715,0,0,0,0,0,0,0,0,0,-1,1791,309,0,0
574,715,0,0,0,0,0,0,0,0,0,-1,1798,309,0,0
581,715,0,0,0,0,0,0,0,0,0,-1,1805,309,0,0
588,715,0,0,0,0,0,0,0,0,0,-1,1812,309,0,0
595,715,0,0,0,0,0,0,0,0,0,-1,1819,309,0,0
602,715,0,0,0,0,0,0,0,0,0,-1,1826,309,0,0
609,715,0,0,0,0,0,0,0,0,0,-1,1833,309,0,0
616,715,0,0,0,0,0,0,0,0,0,-1,1840,309,0,0
623,715,0,0,0,0,0,0,0,0,0,-1,1847,309,0,0
630,715,0,0,0,0,0,0,0,0,0,-1,1854,309,0,0
637,715,0,0,0,0,0,0,0,0,0,-1,1861,309,0,0
644,715,0,0,0,0,0,0,0,0,0,-1,1868,309,0,0
651,715,0,0,0,0,0,0,0,0,0,-1,1875,309,0,0
658,715,0,0,0,0,0,0,0,0,0,-1,1882,309,0,0
665,715,0,0,0,0,0,0,0,0,0,-1,1889,309,0,0
672,715,0,0,0,0,0,0,0,0,0,-1,1896,309,0,0
679,715,0,0,0,0,0,0,0,0,0,-1,1903,309,0,0
686,715,0,0,0,0,0,0,0,0,0,-1,1910,309,0,0
693,715,0,0,0,0,0,0,0,0,0,-1,1917,309,0,0
700,715,0,0,0,0,0,0,0,0,0,-1,1924,309,0,0
707,715,0,0,0,0,0,0,0,0,0,-1,1931,309,0,0
714,715,0,0,0,0,0,0,0,0,0,-1,1938,309,0,0
721,715,0,0,0,0,0,0,0,0,0,-1,1945,309,0,0
728,715,0,0,0,0,0,0,0,0,0,-1,1952,309,0,0
735,715,0,0,0,0,0,0,0,0,0,-1,1959,309,0,0
742,715,0,0,0,0,0,0,0,0,0,-1,1966,309,0,0
749,715,0,0,0,0,0,0,0,0,0,-1,1973,309,0,0
756,715,0,0,0,0,0,0,0,0,0,-1,1980,309,0,0
763,715,0,0,0,0,0,0,0,0,0,-1,1987,309,0,0
770,715,0,0,0,0,0,0,0,0,0,-1,1994,309,0,0
777,715,0,0,0,0,0,0,0,0,0,-1,2001,309,0,0
784,715,0,0,0,0,0,0,0,0,0,-1,2008,309,0,0
791,715,0,0,0,0,0,0,0,0,0,-1,2015,309,0,0
798,715,0,0,0,0,0,0,0,0,0,-1,2022,309,0,0
805,715,0,0,0,0,0,0,0,0,0,-1,2029,309,0,0
812,715,0,0,0,0,0,0,0,0,0,-1,2036,309,0,0
-700,708,0,0,0,0,0,0,0,0,0,-1,524,316,0,0
-693,708,0,0,0,0,0,0,0,0,0,-1,531,316,0,0
-686,708,0,0,0,0,0,0,0,0,0,-1,538,316,0,0
-679,708,0,0,0,0,0,0,0,0,0,-1,545,316,0,0
-672,708,0,0,0,0,0,0,0,0,0,-1,552,316,0,0
-665,708,0,0,0,0,0,0,0,0,0,-1,559,316,0,0
-658,708,0,0,0,0,0,0,0,0,0,-1,566,316,0,0
-651,708,0,0,0,0,0,0,0,0,0,-1,573,316,0,0
-644,708,0,0,0,0,0,0,0,0,0,-1,580,316,0,0
-637,708,0,0,0,0,0,0,0,0,0,-1,587,316,0,0
-630,708,0,0,0,0,0,0,0,0,0,-1,594,316,0,0
-623,708,0,0,0,0,0,0,0,0,0,-1,601,316,0,0
-616,708,0,0,0,0,0,0,0,0,0,-1,608,316,0,0
-609,708,0,0,0,0,0,0,0,0,0,-1,615,316,0,0
-602,708,0,0,0,0,0,0,0,0,0,-1,622,316,0,0
-595,708,0,0,0,0,0,0,0,0,0,-1,629,316,0,0
-588,708,0,0,0,0,0,0,0,0,0,-1,636,316,0,0
-581,708,0,0,0,0,0,0,0,0,0,-1,643,316,0,0
-574,708,0,0,0,0,0,0,0,0,0,-1,650,316,0,0
-567,708,0,0,0,0,0,0,0,0,0,-1,657,316,0,0
-560,708,0,0,0,0,0,0,0,0,0,-1,664,316,0,0
-553,708,0,0,0,0,0,0,0,0,0,-1,671,316,0,0
-546,708,0,0,0,0,0,0,0,0,0,-1,678,316,0,0
-539,708,0,0,0,0,0,0,0,0,0,-1,685,316,0,0
-532,708,0,0,0,0,0,0,0,0,0,-1,692,316,0,0
-525,708,0,0,0,0,0,0,0,0,0,-1,699,316,0,0
-518,708,0,0,0,0,0,0,0,0,0,-1,706,316,0,0
-511,708,0,0,0,0,0,0,0,0,0,-1,713,316,0,0
-504,708,0,0,0,0,0,0,0,0,0,-1,720,316,0,0
-497,708,0,0,0,0,0,0,0,0,0,-1,727,316,0,0
-490,708,0,0,0,0,0,0,0,0,0,-1,734,316,0,0
-483,708,0,0,0,0,0,0,0,0,0,-1,741,316,0,0
-476,708,0,0,0,0,0,0,0,0,0,-1,748,316,0,0
-469,708,0,0,0,0,0,0,0,0,0,-1,755,316,0,0
-462,708,0,0,0,0,0,0,0,0,0,-1,762,316,0,0
-455,708,0,0,0,0,0,0,0,0,0,-1,769,316,0,0
-448,708,0,0,0,0,0,0,0,0,0,-1,776,316,0,0
-441,708,0,0,0,0,0,0,0,0,0,-1,783,316,0,0
-434,708,0,0,0,0,0,0,0,0,0,-1,790,316,0,0
-427,708,0,0,0,0,0,0,0,0,0,-1,797,316,0,0
-420,708,0,0,0,0,0,0,0,0,0,-1,804,316,0,0
-413,708,0,0,0,0,0,0,0,0,0,-1,811,316,0,0
-406,708,0,0,0,0,0,0,0,0,0,-1,818,316,0,0
-399,708,0,0,0,0,0,0,0,0,0,-1,825,316,0,0
-392,708,0,0,0,0,0,0,0,0,0,-1,832,316,0,0
-385,708,0,0,0,0,0,0,0,0,0,-1,839,316,0,0
-378,708,0,0,0,0,0,0,0,0,0,-1,846,316,0,0
-371,708,0,0,0,0,0,0,0,0,0,-1,853,316,0,0
-364,708,0,0,0,0,0,0,0,0,0,-1,860,316,0,0
-357,708,0,0,0,0,0,0,0,0,0,-1,867,316,0,0
-350,708,0,0,0,0,0,0,0,0,0,-1,874,316,0,0
-343,708,0,0,0,0,0,0,0,0,0,-1,881,316,0,0
-336,708,0,0,0,0,0,0,0,0,0,-1,888,316,0,0
-329,708,0,0,0,0,0,0,0,0,0,-1,895,316,0,0
-322,708,0,0,0,0,0,0,0,0,0,-1,902,316,0,0
-315,708,0,0,0,0,0,0,0,0,0,-1,909,316,0,0
-308,708,0,0,0,0,0,0,0,0,0,-1,916,316,0,0
-301,708,0,0,0,0,0,0,0,0,0,-1,923,316,0,0
-294,708,0,0,0,0,0,0,0,0,0,-1,930,316,0,0
-287,708,0,0,0,0,0,0,0,0,0,-1,937,316,0,0
-280,708,0,0,0,0,0,0,0,0,0,-1,944,316,0,0
-273,708,0,0,0,0,0,0,0,0,0,-1,951,316,0,0
-266,708,0,0,0,0,0,0,0,0,0,-1,958,316,0,0
-259,708,0,0,0,0,0,0,0,0,0,-1,965,316,0,0
-252,708,0,0,0,0,0,0,0,0,0,-1,972,316,0,0
-245,708,0,0,0,0,0,0,0,0,0,-1,979,316,0,0
-238,708,0,0,0,0,0,0,0,0,0,-1,986,316,0,0
-231,708,0,0,0,0,0,0,0,0,0,-1,993,316,0,0
-224,708,0,0,0,0,0,0,0,0,0,-1,1000,316,0,0
-217,708,0,0,0,0,0,0,0,0,0,-1,1007,316,0,0
-210,708,0,0,0,0,0,0,0,0,0,-1,1014,316,0,0
-203,708,0,0,0,0,0,0,0,0,0,-1,1021,316,0,0
-196,708,0,0,0,0,0,0,0,0,0,-1,1028,316,0,0
-189,708,0,0,0,0,0,0,0,0,0,-1,1035,316,0,0
-182,708,0,0,0,0,0,0,0,0,0,-1,1042,316,0,0
-175,708,0,0,0,0,0,0,0,0,0,-1,1049,316,0,0
-168,708,0,0,0,0,0,0,0,0,0,-1,1056,316,0,0
-161,708,0,0,0,0,0,0,0,0,0,-1,1063,316,0,0
-154,708,0,0,0,0,0,0,0,0,0,-1,1070,316,0,0
-147,708,0,0,0,0,0,0,0,0,0,-1,1077,316,0,0
-140,708,0,0,0,0,0,0,0,0,0,-1,1084,316,0,0
-133,708,0,0,0,0,0,0,0,0,0,-1,1091,316,0,0
-126,708,0,0,0,0,0,0,0,0,0,-1,1098,316,0,0
-119,708,0,0,0,0,0,0,0,0,0,-1,1105,316,0,0
-112,708,0,0,0,0,0,0,0,0,0,-1,1112,316,0,0
-105,708,0,0,0,0,0,0,0,0,0,-1,1119,316,0,0
-98,708,0,0,0,0,0,0,0,0,0,-1,1126,316,0,0
-91,708,0,0,0,0,0,0,0,0,0,-1,1133,316,0,0
-84,708,0,0,0,0,0,0,0,0,0,-1,1140,316,0,0
-77,708,0,0,0,0,0,0,0,0,0,-1,1147,316,0,0
-70,708,0,0,0,0,0,0,0,0,0,-1,1154,316,0,0
-63,708,0,0,0,0,0,0,0,0,0,-1,1161,316,0,0
-56,708,0,0,0,0,0,0,0,0,0,-1,1168,316,0,0
-49,708,0,0,0,0,0,0,0,0,0,-1,1175,316,0,0
-42,708,0,0,0,0,0,0,0,0,0,-1,1182,316,0,0
-35,708,-2.71204,-6.31558,0,0,0,0,0,0,0,-1,1189,316,-2.712,6.3156
-28,708,-2.92371,-5.53253,0,0,0,0,0,0,0,-1,1196,316,-2.92375,5.53254
-21,708,-0.417969,-24.5911,0,0,0,0,0,0,0,-1,1203,316,-0.418022,24.5911
-14,708,7.1925,-46.7122,0,0,0,0,0,0,0,-1,1210,316,7.19254,46.7122
-7,708,7.17175,-46.4096,0,0,0,0,0,0,0,-1,1217,316,7.17173,46.4096
0,708,6.62622,-46.5164,0,0,0,0,0,0,0,-1,1224,316,6.62625,46.5164
7,708,10.6725,-47.7117,0,0,0,0,0,0,0,-1,1231,316,10.6724,47.7117
14,708,10.9558,-47.8059,0.0788474,0.109893,0.0581766,0.154582,0.0341584,0.915774,0.0937662,0.0431059,1238,316,10.9559,47.8059
21,708,11.2725,-47.9453,0.0792011,0.127601,0.0574958,0.165782,0.04102,0.984595,0.0997018,0.0408648,1245,316,11.2725,47.9454
28,708,11.531,-48.2169,0,0,0,0,0,0,0,-1,1252,316,11.5311,48.2169
35,708,11.951,-48.5159,0.0812095,0.163373,0.0538811,0.190047,0.0545351,1.11111,0.112995,0.0415383,1259,316,11.951,48.5159
42,708,12.4288,-49.0184,0.0837092,0.184796,0.0471237,0.203356,0.0651493,1.1956,0.119907,0.0431526,1266,316,12.4288,49.0184
49,708,13.1624,-49.8707,0.0851882,0.201596,0.0399283,0.213975,0.0728091,1.27016,0.125622,0.0483199,1273,316,13.1624,49.8707
56,708,13.6122,-50.4906,0,0,0,0,0,0,0,-1,1280,316,13.6121,50.4906
63,708,13.9286,-51.0107,0,0,0,0,0,0,0,-1,1287,316,13.9286,51.0107
70,708,6.0481,-45.5564,0,0,0,0,0,0,0,-1,1294,316,6.04816,45.5564
77,708,7.23645,-46.4413,0,0,0,0,0,0,0,-1,1301,316,7.23646,46.4413
84,708,7.97974,-47.0377,0,0,0,0,0,0,0,-1,1308,316,7.97975,47.0377
91,708,2.2677,-43.182,0,0,0,0,0,0,0,-1,1315,316,2.26766,43.182
98,708,6.23926,-44.8189,0,0,0,0,0,0,0,-1,1322,316,6.23922,44.8189
105,708,6.21545,-45.63,0,0,0,0,0,0,0,-1,1329,316,6.21545,45.63
112,708,6.01013,-45.4764,-0.0407087,0.0570448,-0.0127617,0.0586834,-0.0423472,-1.4431,0.0585837,0.0493396,1336,316,6.01008,45.4764
119,708,5.64014,-46.7661,-0.0478202,0.0363778,-0.0106864,0.0377129,-0.0491554,-1.4465,0.0502982,0.0447834,1343,316,5.64014,46.7661
126,708,5.1283,-46.5064,-0.052835,0.0183588,-0.00773372,0.0191892,-0.0536654,-1.46383,0.0436043,0.0448305,1350,316,5.12836,46.5064
133,708,4.60596,-46.3076,0,0,0,0,0,0,0,-1,1357,316,4.6059,46.3075
140,708,4.39917,-47.0056,0,0,0,0,0,0,0,-1,1364,316,4.39922,47.0056
147,708,4.31897,-47.1138,0,0,0,0,0,0,0,-1,1371,316,4.31893,47.1138
154,708,0,0,0,0,0,0,0,0,0,-1,1378,316,0,0
161,708,0,0,0,0,0,0,0,0,0,-1,1385,316,0,0
168,708,0,0,0,0,0,0,0,0,0,-1,1392,316,0,0
175,708,0,0,0,0,0,0,0,0,0,-1,1399,316,0,0
182,708,0,0,0,0,0,0,0,0,0,-1,1406,316,0,0
189,708,0,0,0,0,0,0,0,0,0,-1,1413,316,0,0
196,708,0,0,0,0,0,0,0,0,0,-1,1420,316,0,0
203,708,0,0,0,0,0,0,0,0,0,-1,1427,316,0,0
210,708,0,0,0,0,0,0,0,0,0,-1,1434,316,0,0
217,708,0,0,0,0,0,0,0,0,0,-1,1441,316,0,0
224,708,0,0,0,0,0,0,0,0,0,-1,1448,316,0,0
231,708,0,0,0,0,0,0,0,0,0,-1,1455,316,0,0
238,708,0,0,0,0,0,0,0,0,0,-1,1462,316,0,0
245,708,0,0,0,0,0,0,0,0,0,-1,1469,316,0,0
252,708,0,0,0,0,0,0,0,0,0,-1,1476,316,0,0
259,708,0,0,0,0,0,0,0,0,0,-1,1483,316,0,0
266,708,0,0,0,0,0,0,0,0,0,-1,1490,316,0,0
273,708,0,0,0,0,0,0,0,0,0,-1,1497,316,0,0
280,708,0,0,0,0,0,0,0,0,0,-1,1504,316,0,0
287,708,0,0,0,0,0,0,0,0,0,-1,1511,316,0,0
294,708,0,0,0,0,0,0,0,0,0,-1,1518,316,0,0
301,708,0,0,0,0,0,0,0,0,0,-1,1525,316,0,0
308,708,0,0,0,0,0,0,0,0,0,-1,1532,316,0,0
315,708,0,0,0,0,0,0,0,0,0,-1,1539,316,0,0
322,708,0,0,0,0,0,0,0,0,0,-1,1546,316,0,0
329,708,0,0,0,0,0,0,0,0,0,-1,1553,316,0,0
336,708,0,0,0,0,0,0,0,0,0,-1,1560,316,0,0
343,708,0,0,0,0,0,0,0,0,0,-1,1567,316,0,0
350,708,0,0,0,0,0,0,0,0,0,-1,1574,316,0,0
357,708,0,0,0,0,0,0,0,0,0,-1,1581,316,0,0
364,708,0,0,0,0,0,0,0,0,0,-1,1588,316,0,0
371,708,0,0,0,0,0,0,0,0,0,-1,1595,316,0,0
378,708,0,0,0,0,0,0,0,0,0,-1,1602,316,0,0
385,708,0,0,0,0,0,0,0,0,0,-1,1609,316,0,0
392,708,0,0,0,0,0,0,0,0,0,-1,1616,316,0,0
399,708,0,0,0,0,0,0,0,0,0,-1,1623,316,0,0
406,708,0,0,0,0,0,0,0,0,0,-1,1630,316,0,0
413,708,0,0,0,0,0,0,0,0,0,-1,1637,316,0,0
420,708,0,0,0,0,0,0,0,0,0,-1,1644,316,0,0
427,708,0,0,0,0,0,0,0,0,0,-1,1651,316,0,0
434,708,0,0,0,0,0,0,0,0,0,-1,1658,316,0,0
441,708,0,0,0,0,0,0,0,0,0,-1,1665,316,0,0
448,708,0,0,0,0,0,0,0,0,0,-1,1672,316,0,0
455,708,0,0,0,0,0,0,0,0,0,-1,1679,316,0,0
462,708,0,0,0,0,0,0,0,0,0,-1,1686,316,0,0
469,708,0,0,0,0,0,0,0,0,0,-1,1693,316,0,0
476,708,0,0,0,0,0,0,0,0,0,-1,1700,316,0,0
483,708,0,0,0,0,0,0,0,0,0,-1,1707,316,0,0
490,708,0,0,0,0,0,0,0,0,0,-1,1714,316,0,0
497,708,0,0,0,0,0,0,0,0,0,-1,1721,316,0,0
504,708,0,0,0,0,0,0,0,0,0,-1,1728,316,0,0
511,708,0,0,0,0,0,0,0,0,0,-1,1735,316,0,0
518,708,0,0,0,0,0,0,0,0,0,-1,1742,316,0,0
525,708,0,0,0,0,0,0,0,0,0,-1,1749,316,0,0
532,708,0,0,0,0,0,0,0,0,0,-1,1756,316,0,0
539,708,0,0,0,0,0,0,0,0,0,-1,1763,316,0,0
546,708,0,0,0,0,0,0,0,0,0,-1,1770,316,0,0
553,708,0,0,0,0,0,0,0,0,0,-1,1777,316,0,0
560,708,0,0,0,0,0,0,0,0,0,-1,1784,316,0,0
567,708,0,0,0,0,0,0,0,0,0,-1,1791,316,0,0
574,708,0,0,0,0,0,0,0,0,0,-1,1798,316,0,0
581,708,0,0,0,0,0,0,0,0,0,-1,1805,316,0,0
588,708,0,0,0,0,0,0,0,0,0,-1,1812,316,0,0
595,708,0,0,0,0,0,0,0,0,0,-1,1819,316,0,0
602,708,0,0,0,0,0,0,0,0,0,-1,1826,316,0,0
609,708,0,0,0,0,0,0,0,0,0,-1,1833,316,0,0
616,708,0,0,0,0,0,0,0,0,0,-1,1840,316,0,0
623,708,0,0,0,0,0,0,0,0,0,-1,1847,316,0,0
630,708,0,0,0,0,0,0,0,0,0,-1,1854,316,0,0
637,708,0,0,0,0,0,0,0,0,0,-1,1861,316,0,0
644,708,0,0,0,0,0,0,0,0,0,-1,1868,316,0,0
651,708,0,0,0,0,0,0,0,0,0,-1,1875,316,0,0
658,708,0,0,0,0,0,0,0,0,0,-1,1882,316,0,0
665,708,0,0,0,0,0,0,0,0,0,-1,1889,316,0,0
672,708,0,0,0,0,0,0,0,0,0,-1,1896,316,0,0
679,708,0,0,0,0,0,0,0,0,0,-1,1903,316,0,0
686,708,0,0,0,0,0,0,0,0,0,-1,1910,316,0,0
693,708,0,0,0,0,0,0,0,0,0,-1,1917,316,0,0
700,708,0,0,0,0,0,0,0,0,0,-1,1924,316,0,0
707,708,0,0,0,0,0,0,0,0,0,-1,1931,316,0,0
714,708,0,0,0,0,0,0,0,0,0,-1,1938,316,0,0
721,708,0,0,0,0,0,0,0,0,0,-1,1945,316,0,0
728,708,0,0,0,0,0,0,0,0,0,-1,1952,316,0,0
735,708,0,0,0,0,0,0,0,0,0,-1,1959,316,0,0
742,708,0,0,0,0,0,0,0,0,0,-1,1966,316,0,0
749,708,0,0,0,0,0,0,0,0,0,-1,1973,316,0,0
756,708,0,0,0,0,0,0,0,0,0,-1,1980,316,0,0
763,708,0,0,0,0,0,0,0,0,0,-1,1987,316,0,0
770,708,0,0,0,0,0,0,0,0,0,-1,1994,316,0,0
777,708,0,0,0,0,0,0,0,0,0,-1,2001,316,0,0
784,708,0,0,0,0,0,0,0,0,0,-1,2008,316,0,0
791,708,0,0,0,0,0,0,0,0,0,-1,2015,316,0,0
798,708,0,0,0,0,0,0,0,0,0,-1,2022,316,0,0
805,708,0,0,0,0,0,0,0,0,0,-1,2029,316,0,0
812,708,0,0,0,0,0,0,0,0,0,-1,2036,316,0,0
-700,701,0,0,0,0,0,0,0,0,0,-1,524,323,0,0
-693,701,0,0,0,0,0,0,0,0,0,-1,531,323,0,0
-686,701,0,0,0,0,0,0,0,0,0,-1,538,323,0,0
-679,701,0,0,0,0,0,0,0,0,0,-1,545,323,0,0
-672,701,0,0,0,0,0,0,0,0,0,-1,552,323,0,0
-665,701,0,0,0,0,0,0,0,0,0,-1,559,323,0,0
-658,701,0,0,0,0,0,0,0,0,0,-1,566,323,0,0
-651,701,0,0,0,0,0,0,0,0,0,-1,573,323,0,0
-644,701,0,0,0,0,0,0,0,0,0,-1,580,323,0,0
-637,701,0,0,0,0,0,0,0,0,0,-1,587,323,0,0
-630,701,0,0,0,0,0,0,0,0,0,-1,594,323,0,0
-623,701,0,0,0,0,0,0,0,0,0,-1,601,323,0,0
-616,701,0,0,0,0,0,0,0,0,0,-1,608,323,0,0
-609,701,0,0,0,0,0,0,0,0,0,-1,615,323,0,0
-602,701,0,0,0,0,0,0,0,0,0,-1,622,323,0,0
-595,701,0,0,0,0,0,0,0,0,0,-1,629,323,0,0
-588,701,0,0,0,0,0,0,0,0,0,-1,636,323,0,0
-581,701,0,0,0,0,0,0,0,0,0,-1,643,323,0,0
-574,701,0,0,0,0,0,0,0,0,0,-1,650,323,0,0
-567,701,0,0,0,0,0,0,0,0,0,-1,657,323,0,0
-560,701,0,0,0,0,0,0,0,0,0,-1,664,323,0,0
-553,701,0,0,0,0,0,0,0,0,0,-1,671,323,0,0
-546,701,0,0,0,0,0,0,0,0,0,-1,678,323,0,0
-539,701,0,0,0,0,0,0,0,0,0,-1,685,323,0,0
-532,701,0,0,0,0,0,0,0,0,0,-1,692,323,0,0
-525,701,0,0,0,0,0,0,0,0,0,-1,699,323,0,0
-518,701,0,0,0,0,0,0,0,0,0,-1,706,323,0,0
-511,701,0,0,0,0,0,0,0,0,0,-1,713,323,0,0
-504,701,0,0,0,0,0,0,0,0,0,-1,720,323,0,0
-497,701,0,0,0,0,0,0,0,0,0,-1,727,323,0,0
-490,701,0,0,0,0,0,0,0,0,0,-1,734,323,0,0
-483,701,0,0,0,0,0,0,0,0,0,-1,741,323,0,0
-476,701,0,0,0,0,0,0,0,0,0,-1,748,323,0,0
-469,701,0,0,0,0,0,0,0,0,0,-1,755,323,0,0
-462,701,0,0,0,0,0,0,0,0,0,-1,762,323,0,0
-455,701,0,0,0,0,0,0,0,0,0,-1,769,323,0,0
-448,701,0,0,0,0,0,0,0,0,0,-1,776,323,0,0
-441,701,0,0,0,0,0,0,0,0,0,-1,783,323,0,0
-434,701,0,0,0,0,0,0,0,0,0,-1,790,323,0,0
-427,701,0,0,0,0,0,0,0,0,0,-1,797,323,0,0
-420,701,0,0,0,0,0,0,0,0,0,-1,804,323,0,0
-413,701,0,0,0,0,0,0,0,0,0,-1,811,323,0,0
-406,701,0,0,0,0,0,0,0,0,0,-1,818,323,0,0
-399,701,0,0,0,0,0,0,0,0,0,-1,825,323,0,0
-392,701,0,0,0,0,0,0,0,0,0,-1,832,323,0,0
-385,701,0,0,0,0,0,0,0,0,0,-1,839,323,0,0
-378,701,0,0,0,0,0,0,0,0,0,-1,846,323,0,0
-371,701,0,0,0,0,0,0,0,0,0,-1,853,323,0,0
-364,701,0,0,0,0,0,0,0,0,0,-1,860,323,0,0
-357,701,0,0,0,0,0,0,0,0,0,-1,867,323,0,0
-350,701,0,0,0,0,0,0,0,0,0,-1,874,323,0,0
-343,701,0,0,0,0,0,0,0,0,0,-1,881,323,0,0
-336,701,0,0,0,0,0,0,0,0,0,-1,888,323,0,0
-329,701,0,0,0,0,0,0,0,0,0,-1,895,323,0,0
-322,701,0,0,0,0,0,0,0,0,0,-1,902,323,0,0
-315,701,0,0,0,0,0,0,0,0,0,-1,909,323,0,0
-308,701,0,0,0,0,0,0,0,0,0,-1,916,323,0,0
-301,701,0,0,0,0,0,0,0,0,0,-1,923,323,0,0
-294,701,0,0,0,0,0,0,0,0,0,-1,930,323,0,0
-287,701,0,0,0,0,0,0,0,0,0,-1,937,323,0,0
-280,701,0,0,0,0,0,0,0,0,0,-1,944,323,0,0
-273,701,0,0,0,0,0,0,0,0,0,-1,951,323,0,0
-266,701,0,0,0,0,0,0,0,0,0,-1,958,323,0,0
-259,701,0,0,0,0,0,0,0,0,0,-1,965,323,0,0
-252,701,0,0,0,0,0,0,0,0,0,-1,972,323,0,0
-245,701,0,0,0,0,0,0,0,0,0,-1,979,323,0,0
-238,701,0,0,0,0,0,0,0,0,0,-1,986,323,0,0
-231,701,0,0,0,0,0,0,0,0,0,-1,993,323,0,0
-224,701,0,0,0,0,0,0,0,0,0,-1,1000,323,0,0
-217,701,0,0,0,0,0,0,0,0,0,-1,1007,323,0,0
-210,701,0,0,0,0,0,0,0,0,0,-1,1014,323,0,0
-203,701,0,0,0,0,0,0,0,0,0,-1,1021,323,0,0
-196,701,0,0,0,0,0,0,0,0,0,-1,1028,323,0,0
-189,701,0,0,0,0,0,0,0,0,0,-1,1035,323,0,0
-182,701,0,0,0,0,0,0,0,0,0,-1,1042,323,0,0
-175,701,0,0,0,0,0,0,0,0,0,-1,1049,323,0,0
-168,701,0,0,0,0,0,0,0,0,0,-1,1056,323,0,0
-161,701,0,0,0,0,0,0,0,0,0,-1,1063,323,0,0
-154,701,0,0,0,0,0,0,0,0,0,-1,1070,323,0,0
-147,701,0,0,0,0,0,0,0,0,0,-1,1077,323,0,0
-140,701,0,0,0,0,0,0,0,0,0,-1,1084,323,0,0
-133,701,0,0,0,0,0,0,0,0,0,-1,1091,323,0,0
-126,701,0,0,0,0,0,0,0,0,0,-1,1098,323,0,0
-119,701,0,0,0,0,0,0,0,0,0,-1,1105,323,0,0
-112,701,0,0,0,0,0,0,0,0,0,-1,1112,323,0,0
-105,701,0,0,0,0,0,0,0,0,0,-1,1119,323,0,0
-98,701,0,0,0,0,0,0,0,0,0,-1,1126,323,0,0
-91,701,0,0,0,0,0,0,0,0,0,-1,1133,323,0,0
-84,701,0,0,0,0,0,0,0,0,0,-1,1140,323,0,0
-77,701,0,0,0,0,0,0,0,0,0,-1,1147,323,0,0
-70,701,-12.7566,-30.413,0,0,0,0,0,0,0,-1,1154,323,-12.7566,30.413
-63,701,-18.3169,-21.2322,0,0,0,0,0,0,0,-1,1161,323,-18.3169,21.2322
-56,701,-0.420166,-0.101776,0,0,0,0,0,0,0,-1,1168,323,-0.420119,0.101777
-49,701,-1.09021,-0.155762,0,0,0,0,0,0,0,-1,1175,323,-1.09024,0.155768
-42,701,-0.210327,-0.299133,0,0,0,0,0,0,0,-1,1182,323,-0.210379,0.29914
-35,701,-2.9635,-7.98676,0,0,0,0,0,0,0,-1,1189,323,-2.9635,7.98676
-28,701,-6.64417,-5.4917,0,0,0,0,0,0,0,-1,1196,323,-6.64411,5.4917
-21,701,7.48828,-47.0165,0,0,0,0,0,0,0,-1,1203,323,7.48826,47.0165
-14,701,7.28528,-46.7724,0,0,0,0,0,0,0,-1,1210,323,7.28531,46.7724
-7,701,7.00378,-46.5109,0,0,0,0,0,0,0,-1,1217,323,7.00379,46.5109
0,701,8.64453,-47.5683,0,0,0,0,0,0,0,-1,1224,323,8.64449,47.5683
7,701,9.37634,-47.8524,0.0605349,0.0859714,0.0500304,0.124875,0.0216315,0.909867,0.0770581,0.0439532,1231,323,9.37635,47.8524
14,701,10.1632,-48.0284,0.0605733,0.098547,0.0495284,0.132603,0.0265171,0.968435,0.0810227,0.0435552,1238,323,10.1632,48.0284
21,701,10.5417,-48.181,0.0607179,0.112228,0.0493308,0.142123,0.0308236,1.02598,0.086328,0.0442585,1245,323,10.5418,48.181
28,701,10.9316,-48.2534,0,0,0,0,0,0,0,-1,1252,323,10.9317,48.2534
35,701,10.8724,-49.9715,0.0621397,0.140183,0.0462903,0.161704,0.0406181,1.1356,0.0971367,0.0436648,1259,323,10.8725,49.9715
42,701,11.4617,-50.3731,0.0639004,0.157419,0.0406964,0.172648,0.0486707,1.2127,0.102791,0.0468846,1266,323,11.4617,50.3731
49,701,12.0297,-50.8305,0.0644206,0.170667,0.0349293,0.181122,0.0539661,1.27998,0.107379,0.0475108,1273,323,12.0297,50.8305
56,701,12.5629,-51.1726,0,0,0,0,0,0,0,-1,1280,323,12.5628,51.1726
63,701,6.9043,-45.2866,0,0,0,0,0,0,0,-1,1287,323,6.90424,45.2866
70,701,6.17139,-46.328,0,0,0,0,0,0,0,-1,1294,323,6.17133,46.328
77,701,7.00439,-47.0912,0,0,0,0,0,0,0,-1,1301,323,7.0044,47.0912
84,701,5.46472,-45.5354,0,0,0,0,0,0,0,-1,1308,323,5.46472,45.5354
91,701,5.90015,-45.6186,0,0,0,0,0,0,0,-1,1315,323,5.90014,45.6186
98,701,6.38025,-45.5169,0,0,0,0,0,0,0,-1,1322,323,6.38026,45.5169
105,701,6.80042,-45.5317,0,0,0,0,0,0,0,-1,1329,323,6.80036,45.5317
112,701,5.69958,-45.9531,-0.0337896,0.0692176,-0.00964407,0.0701128,-0.0346847,-1.47824,0.0616466,0.0476504,1336,323,5.69955,45.9531
119,701,5.42261,-45.748,-0.0393654,0.0534775,-0.00823565,0.0542024,-0.0400903,-1.483,0.0546428,0.04454,1343,323,5.42257,45.748
126,701,5.06836,-46.3236,-0.043147,0.0401657,-0.00615238,0.0406176,-0.0435989,-1.49748,0.0486326,0.0440876,1350,323,5.06839,46.3237
133,701,4.69507,-46.3933,-0.0451227,0.029305,-0.00456103,0.0295835,-0.0454011,-1.50982,0.0436123,0.0460481,1357,323,4.69502,46.3933
140,701,4.5741,-46.6952,0,0,0,0,0,0,0,-1,1364,323,4.57406,46.6952
147,701,4.47595,-47.2756,0,0,0,0,0,0,0,-1,1371,323,4.47589,47.2756
154,701,4.38757,-47.7892,0,0,0,0,0,0,0,-1,1378,323,4.38753,47.7892
161,701,-0.704102,-37.5125,0,0,0,0,0,0,0,-1,1385,323,-0.704147,37.5126
168,701,30.7272,1.76184,0,0,0,0,0,0,0,-1,1392,323,30.7272,-1.76184
175,701,31.5035,2.25711,0,0,0,0,0,0,0,-1,1399,323,31.5036,-2.25712
182,701,8.80652,5.42807,0,0,0,0,0,0,0,-1,1406,323,8.8065,-5.42808
189,701,8.58081,4.24493,0,0,0,0,0,0,0,-1,1413,323,8.58082,-4.24494
196,701,0,0,0,0,0,0,0,0,0,-1,1420,323,0,0
203,701,0,0,0,0,0,0,0,0,0,-1,1427,323,0,0
210,701,0,0,0,0,0,0,0,0,0,-1,1434,323,0,0
217,701,0,0,0,0,0,0,0,0,0,-1,1441,323,0,0
224,701,0,0,0,0,0,0,0,0,0,-1,1448,323,0,0
231,701,0,0,0,0,0,0,0,0,0,-1,1455,323,0,0
238,701,0,0,0,0,0,0,0,0,0,-1,1462,323,0,0
245,701,0,0,0,0,0,0,0,0,0,-1,1469,323,0,0
252,701,0,0,0,0,0,0,0,0,0,-1,1476,323,0,0
259,701,0,0,0,0,0,0,0,0,0,-1,1483,323,0,0
266,701,0,0,0,0,0,0,0,0,0,-1,1490,323,0,0
273,701,0,0,0,0,0,0,0,0,0,-1,1497,323,0,0
280,701,0,0,0,0,0,0,0,0,0,-1,1504,323,0,0
287,701,0,0,0,0,0,0,0,0,0,-1,1511,323,0,0
294,701,0,0,0,0,0,0,0,0,0,-1,1518,323,0,0
301,701,0,0,0,0,0,0,0,0,0,-1,1525,323,0,0
308,701,0,0,0,0,0,0,0,0,0,-1,1532,323,0,0
315,701,0,0,0,0,0,0,0,0,0,-1,1539,323,0,0
322,701,0,0,0,0,0,0,0,0,0,-1,1546,323,0,0
329,701,0,0,0,0,0,0,0,0,0,-1,1553,323,0,0
336,701,0,0,0,0,0,0,0,0,0,-1,1560,323,0,0
343,701,0,0,0,0,0,0,0,0,0,-1,1567,323,0,0
350,701,0,0,0,0,0,0,0,0,0,-1,1574,323,0,0
357,701,0,0,0,0,0,0,0,0,0,-1,1581,323,0,0
364,701,0,0,0,0,0,0,0,0,0,-1,1588,323,0,0
371,701,0,0,0,0,0,0,0,0,0,-1,1595,323,0,0
378,701,0,0,0,0,0,0,0,0,0,-1,1602,323,0,0
385,701,0,0,0,0,0,0,0,0,0,-1,1609,323,0,0
392,701,0,0,0,0,0,0,0,0,0,-1,1616,323,0,0
399,701,0,0,0,0,0,0,0,0,0,-1,1623,323,0,0
406,701,0,0,0,0,0,0,0,0,0,-1,1630,323,0,0
413,701,0,0,0,0,0,0,0,0,0,-1,1637,323,0,0
420,701,0,0,0,0,0,0,0,0,0,-1,1644,323,0,0
427,701,0,0,0,0,0,0,0,0,0,-1,1651,323,0,0
434,701,0,0,0,0,0,0,0,0,0,-1,1658,323,0,0
441,701,0,0,0,0,0,0,0,0,0,-1,1665,323,0,0
448,701,0,0,0,0,0,0,0,0,0,-1,1672,323,0,0
455,701,0,0,0,0,0,0,0,0,0,-1,1679,323,0,0
462,701,0,0,0,0,0,0,0,0,0,-1,1686,323,0,0
469,701,0,0,0,0,0,0,0,0,0,-1,1693,323,0,0
476,701,0,0,0,0,0,0,0,0,0,-1,1700,323,0,0
483,701,0,0,0,0,0,0,0,0,0,-1,1707,323,0,0
490,701,0,0,0,0,0,0,0,0,0,-1,1714,323,0,0
497,701,0,0,0,0,0,0,0,0,0,-1,1721,323,0,0
504,701,0,0,0,0,0,0,0,0,0,-1,1728,323,0,0
511,701,0,0,0,0,0,0,0,0,0,-1,1735,323,0,0
518,701,0,0,0,0,0,0,0,0,0,-1,1742,323,0,0
525,701,0,0,0,0,0,0,0,0,0,-1,1749,323,0,0
532,701,0,0,0,0,0,0,0,0,0,-1,1756,323,0,0
539,701,0,0,0,0,0,0,0,0,0,-1,1763,323,0,0
546,701,0,0,0,0,0,0,0,0,0,-1,1770,323,0,0
553,701,0,0,0,0,0,0,0,0,0,-1,1777,323,0,0
560,701,0,0,0,0,0,0,0,0,0,-1,1784,323,0,0
567,701,0,0,0,0,0,0,0,0,0,-1,1791,323,0,0
574,701,0,0,0,0,0,0,0,0,0,-1,1798,323,0,0
581,701,0,0,0,0,0,0,0,0,0,-1,1805,323,0,0
588,701,0,0,0,0,0,0,0,0,0,-1,1812,323,0,0
595,701,0,0,0,0,0,0,0,0,0,-1,1819,323,0,0
602,701,0,0,0,0,0,0,0,0,0,-1,1826,323,0,0
609,701,0,0,0,0,0,0,0,0,0,-1,1833,323,0,0
616,701,0,0,0,0,0,0,0,0,0,-1,1840,323,0,0
623,701,0,0,0,0,0,0,0,0,0,-1,1847,323,0,0
630,701,0,0,0,0,0,0,0,0,0,-1,1854,323,0,0
637,701,0,0,0,0,0,0,0,0,0,-1,1861,323,0,0
644,701,0,0,0,0,0,0,0,0,0,-1,1868,323,0,0
651,701,0,0,0,0,0,0,0,0,0,-1,1875,323,0,0
658,701,0,0,0,0,0,0,0,0,0,-1,1882,323,0,0
665,701,0,0,0,0,0,0,0,0,0,-1,1889,323,0,0
672,701,0,0,0,0,0,0,0,0,0,-1,1896,323,0,0
679,701,0,0,0,0,0,0,0,0,0,-1,1903,323,0,0
686,701,0,0,0,0,0,0,0,0,0,-1,1910,323,0,0
693,701,0,0,0,0,0,0,0,0,0,-1,1917,323,0,0
700,701,0,0,0,0,0,0,0,0,0,-1,1924,323,0,0
707,701,0,0,0,0,0,0,0,0,0,-1,1931,323,0,0
714,701,0,0,0,0,0,0,0,0,0,-1,1938,323,0,0
721,701,0,0,0,0,0,0,0,0,0,-1,1945,323,0,0
728,701,0,0,0,0,0,0,0,0,0,-1,1952,323,0,0
735,701,0,0,0,0,0,0,0,0,0,-1,1959,323,0,0
742,701,0,0,0,0,0,0,0,0,0,-1,1966,323,0,0
749,701,0,0,0,0,0,0,0,0,0,-1,1973,323,0,0
756,701,0,0,0,0,0,0,0,0,0,-1,1980,323,0,0
763,701,0,0,0,0,0,0,0,0,0,-1,1987,323,0,0
770,701,0,0,0,0,0,0,0,0,0,-1,1994,323,0,0
777,701,0,0,0,0,0,0,0,0,0,-1,2001,323,0,0
784,701,0,0,0,0,0,0,0,0,0,-1,2008,323,0,0
791,701,0,0,0,0,0,0,0,0,0,-1,2015,323,0,0
798,701,0,0,0,0,0,0,0,0,0,-1,2022,323,0,0
805,701,0,0,0,0,0,0,0,0,0,-1,2029,323,0,0
812,701,0,0,0,0,0,0,0,0,0,-1,2036,323,0,0
-700,694,0,0,0,0,0,0,0,0,0,-1,524,330,0,0
-693,694,0,0,0,0,0,0,0,0,0,-1,531,330,0,0
-686,694,0,0,0,0,0,0,0,0,0,-1,538,330,0,0
-679,694,0,0,0,0,0,0,0,0,0,-1,545,330,0,0
-672,694,0,0,0,0,0,0,0,0,0,-1,552,330,0,0
-665,694,0,0,0,0,0,0,0,0,0,-1,559,330,0,0
-658,694,0,0,0,0,0,0,0,0,0,-1,566,330,0,0
-651,694,0,0,0,0,0,0,0,0,0,-1,573,330,0,0
-644,694,0,0,0,0,0,0,0,0,0,-1,580,330,0,0
-637,694,0,0,0,0,0,0,0,0,0,-1,587,330,0,0
-630,694,0,0,0,0,0,0,0,0,0,-1,594,330,0,0
-623,694,0,0,0,0,0,0,0,0,0,-1,601,330,0,0
-616,694,0,0,0,0,0,0,0,0,0,-1,608,330,0,0
-609,694,0,0,0,0,0,0,0,0,0,-1,615,330,0,0
-602,694,0,0,0,0,0,0,0,0,0,-1,622,330,0,0
-595,694,0,0,0,0,0,0,0,0,0,-1,629,330,0,0
-588,694,0,0,0,0,0,0,0,0,0,-1,636,330,0,0
-581,694,0,0,0,0,0,0,0,0,0,-1,643,330,0,0
-574,694,0,0,0,0,0,0,0,0,0,-1,650,330,0,0
-567,694,0,0,0,0,0,0,0,0,0,-1,657,330,0,0
-560,694,0,0,0,0,0,0,0,0,0,-1,664,330,0,0
-553,694,0,0,0,0,0,0,0,0,0,-1,671,330,0,0
-546,694,0,0,0,0,0,0,0,0,0,-1,678,330,0,0
-539,694,0,0,0,0,0,0,0,0,0,-1,685,330,0,0
-532,694,0,0,0,0,0,0,0,0,0,-1,692,330,0,0
-525,694,0,0,0,0,0,0,0,0,0,-1,699,330,0,0
-518,694,0,0,0,0,0,0,0,0,0,-1,706,330,0,0
-511,694,0,0,0,0,0,0,0,0,0,-1,713,330,0,0
-504,694,0,0,0,0,0,0,0,0,0,-1,720,330,0,0
-497,694,0,0,0,0,0,0,0,0,0,-1,727,330,0,0
-490,694,0,0,0,0,0,0,0,0,0,-1,734,330,0,0
-483,694,0,0,0,0,0,0,0,0,0,-1,741,330,0,0
-476,694,0,0,0,0,0,0,0,0,0,-1,748,330,0,0
-469,694,0,0,0,0,0,0,0,0,0,-1,755,330,0,0
-462,694,0,0,0,0,0,0,0,0,0,-1,762,330,0,0
-455,694,0,0,0,0,0,0,0,0,0,-1,769,330,0,0
-448,694,0,0,0,0,0,0,0,0,0,-1,776,330,0,0
-441,694,0,0,0,0,0,0,0,0,0,-1,783,330,0,0
-434,694,0,0,0,0,0,0,0,0,0,-1,790,330,0,0
-427,694,0,0,0,0,0,0,0,0,0,-1,797,330,0,0
-420,694,0,0,0,0,0,0,0,0,0,-1,804,330,0,0
-413,694,0,0,0,0,0,0,0,0,0,-1,811,330,0,0
-406,694,0,0,0,0,0,0,0,0,0,-1,818,330,0,0
-399,694,0,0,0,0,0,0,0,0,0,-1,825,330,0,0
-392,694,0,0,0,0,0,0,0,0,0,-1,832,330,0,0
-385,694,0,0,0,0,0,0,0,0,0,-1,839,330,0,0
-378,694,0,0,0,0,0,0,0,0,0,-1,846,330,0,0
-371,694,0,0,0,0,0,0,0,0,0,-1,853,330,0,0
-364,694,0,0,0,0,0,0,0,0,0,-1,860,330,0,0
-357,694,0,0,0,0,0,0,0,0,0,-1,867,330,0,0
-350,694,0,0,0,0,0,0,0,0,0,-1,874,330,0,0
-343,694,0,0,0,0,0,0,0,0,0,-1,881,330,0,0
-336,694,0,0,0,0,0,0,0,0,0,-1,888,330,0,0
-329,694,0,0,0,0,0,0,0,0,0,-1,895,330,0,0
-322,694,0,0,0,0,0,0,0,0,0,-1,902,330,0,0
-315,694,0,0,0,0,0,0,0,0,0,-1,909,330,0,0
-308,694,0,0,0,0,0,0,0,0,0,-1,916,330,0,0
-301,694,0,0,0,0,0,0,0,0,0,-1,923,330,0,0
-294,694,0,0,0,0,0,0,0,0,0,-1,930,330,0,0
-287,694,0,0,0,0,0,0,0,0,0,-1,937,330,0,0
-280,694,0,0,0,0,0,0,0,0,0,-1,944,330,0,0
-273,694,0,0,0,0,0,0,0,0,0,-1,951,330,0,0
-266,694,0,0,0,0,0,0,0,0,0,-1,958,330,0,0
-259,694,0,0,0,0,0,0,0,0,0,-1,965,330,0,0
-252,694,0,0,0,0,0,0,0,0,0,-1,972,330,0,0
-245,694,0,0,0,0,0,0,0,0,0,-1,979,330,0,0
-238,694,0,0,0,0,0,0,0,0,0,-1,986,330,0,0
-231,694,0,0,0,0,0,0,0,0,0,-1,993,330,0,0
-224,694,0,0,0,0,0,0,0,0,0,-1,1000,330,0,0
-217,694,0,0,0,0,0,0,0,0,0,-1,1007,330,0,0
-210,694,0,0,0,0,0,0,0,0,0,-1,1014,330,0,0
-203,694,0,0,0,0,0,0,0,0,0,-1,1021,330,0,0
-196,694,0,0,0,0,0,0,0,0,0,-1,1028,330,0,0
-189,694,0,0,0,0,0,0,0,0,0,-1,1035,330,0,0
-182,694,0,0,0,0,0,0,0,0,0,-1,1042,330,0,0
-175,694,0,0,0,0,0,0,0,0,0,-1,1049,330,0,0
-168,694,0,0,0,0,0,0,0,0,0,-1,1056,330,0,0
-161,694,0,0,0,0,0,0,0,0,0,-1,1063,330,0,0
-154,694,0,0,0,0,0,0,0,0,0,-1,1070,330,0,0
-147,694,0,0,0,0,0,0,0,0,0,-1,1077,330,0,0
-140,694,0,0,0,0,0,0,0,0,0,-1,1084,330,0,0
-133,694,0,0,0,0,0,0,0,0,0,-1,1091,330,0,0
-126,694,0,0,0,0,0,0,0,0,0,-1,1098,330,0,0
-119,694,0,0,0,0,0,0,0,0,0,-1,1105,330,0,0
-112,694,0,0,0,0,0,0,0,0,0,-1,1112,330,0,0
-105,694,2.5188,-19.3963,0,0,0,0,0,0,0,-1,1119,330,2.51882,19.3963
-98,694,1.34875,-10.1051,0,0,0,0,0,0,0,-1,1126,330,1.34874,10.1051
-91,694,6.62366,-46.8039,0,0,0,0,0,0,0,-1,1133,330,6.62363,46.8039
-84,694,0.0577393,-40.8823,0,0,0,0,0,0,0,-1,1140,330,0.0577026,40.8823
-77,694,-5.51379,-31.2714,0,0,0,0,0,0,0,-1,1147,330,-5.51383,31.2714
-70,694,-11.9945,-25.5143,0,0,0,0,0,0,0,-1,1154,330,-11.9945,25.5143
-63,694,-18.4752,-19.7572,0,0,0,0,0,0,0,-1,1161,330,-18.4752,19.7572
-56,694,-6.50623,-0.649139,0,0,0,0,0,0,0,-1,1168,330,-6.5062,0.649126
-49,694,-1.11426,0.0341797,0,0,0,0,0,0,0,-1,1175,330,-1.11424,-0.0341846
-42,694,-0.346313,-0.709595,0,0,0,0,0,0,0,-1,1182,330,-0.346298,0.709581
-35,694,-0.459106,-1.24713,0,0,0,0,0,0,0,-1,1189,330,-0.459142,1.24714
-28,694,-6.48413,-3.95972,0,0,0,0,0,0,0,-1,1196,330,-6.48414,3.9597
-21,694,6.61938,-46.884,0,0,0,0,0,0,0,-1,1203,330,6.61943,46.884
-14,694,7.03833,-46.7727,0,0,0,0,0,0,0,-1,1210,330,7.03831,46.7727
-7,694,7.12927,-46.6309,0,0,0,0,0,0,0,-1,1217,330,7.12925,46.6309
0,694,7.92651,-48.3804,0,0,0,0,0,0,0,-1,1224,330,7.92647,48.3804
7,694,8.69897,-48.4696,0.0445503,0.0765113,0.0407451,0.104298,0.0167639,0.972283,0.0646721,0.0464343,1231,330,8.69899,48.4696
14,694,9.22803,-48.2892,0.0447897,0.0860271,0.0407703,0.111096,0.0197209,1.01951,0.068444,0.0442216,1238,330,9.228,48.2892
21,694,9.56555,-48.3745,0.0448956,0.0967492,0.0409058,0.119253,0.0223922,1.06786,0.0731885,0.0463125,1245,330,9.56553,48.3745
28,694,8.86145,-48.956,0,0,0,0,0,0,0,-1,1252,330,8.86146,48.956
35,694,9.58716,-51.3726,0,0,0,0,0,0,0,-1,1259,330,9.5872,51.3726
42,694,10.2158,-51.6497,0.0472865,0.132145,0.0337576,0.143936,0.0354956,1.23476,0.0865855,0.0493277,1266,330,10.2158,51.6497
49,694,10.5894,-52.2322,0.0472176,0.142361,0.0291738,0.150594,0.0389845,1.29574,0.0902528,0.0473103,1273,330,10.5894,52.2322
56,694,11.0903,-52.6738,0,0,0,0,0,0,0,-1,1280,330,11.0903,52.6738
63,694,6.75366,-46.1526,0,0,0,0,0,0,0,-1,1287,330,6.75372,46.1526
70,694,6.73193,-45.6831,0,0,0,0,0,0,0,-1,1294,330,6.7319,45.6831
77,694,5.12878,-46.1635,0,0,0,0,0,0,0,-1,1301,330,5.1288,46.1635
84,694,5.56921,-46.2606,0.00816794,0.126831,0.00316714,0.126915,0.00808347,1.54413,0.0820484,0.0468974,1308,330,5.56916,46.2606
91,694,5.99438,-46.341,-0.00238799,0.1125,-0.00127697,0.112515,-0.00240219,-1.55968,0.0758232,0.0466785,1315,330,5.99441,46.341
98,694,6.47693,-46.3293,0,0,0,0,0,0,0,-1,1322,330,6.47697,46.3293
105,694,6.89404,-46.3335,-0.0222901,0.0841906,-0.00721018,0.0846766,-0.0227761,-1.50349,0.0653792,0.047769,1329,330,6.89407,46.3335
112,694,5.52356,-46.4093,-0.0279801,0.0720858,-0.00718364,0.0725989,-0.0284932,-1.49949,0.0601887,0.0452899,1336,330,5.52356,46.4093
119,694,5.38159,-46.0504,-0.0322798,0.0604266,-0.0062523,0.0608464,-0.0326996,-1.50376,0.0548177,0.0444886,1343,330,5.38162,46.0505
126,694,5.06311,-46.1895,-0.035097,0.0507664,-0.00478642,0.0510324,-0.035363,-1.51528,0.0501531,0.0447362,1350,330,5.06308,46.1895
133,694,4.71448,-46.3323,-0.036469,0.0436411,-0.00345063,0.0437895,-0.0366174,-1.52783,0.0464844,0.0453396,1357,330,4.71453,46.3323
140,694,4.40039,-46.5133,0,0,0,0,0,0,0,-1,1364,330,4.40043,46.5133
147,694,4.65381,-47.5423,0,0,0,0,0,0,0,-1,1371,330,4.6538,47.5423
154,694,4.81091,-48.2785,0,0,0,0,0,0,0,-1,1378,330,4.8109,48.2785
161,694,0.0187988,-38.6779,0,0,0,0,0,0,0,-1,1385,330,0.0187579,38.6779
168,694,30.451,0.196686,0,0,0,0,0,0,0,-1,1392,330,30.4511,-0.196674
175,694,31.0701,0.869873,0,0,0,0,0,0,0,-1,1399,330,31.07,-0.869874
182,694,8.29028,5.75238,0,0,0,0,0,0,0,-1,1406,330,8.29034,-5.75237
189,694,7.9801,4.46118,0,0,0,0,0,0,0,-1,1413,330,7.9801,-4.46118
196,694,7.39331,3.32632,0,0,0,0,0,0,0,-1,1420,330,7.39329,-3.32633
203,694,7.04492,2.20529,0,0,0,0,0,0,0,-1,1427,330,7.04496,-2.20529
210,694,6.44714,0.646912,0,0,0,0,0,0,0,-1,1434,330,6.44717,-0.646903
217,694,7.12061,-0.644958,0,0,0,0,0,0,0,-1,1441,330,7.12059,0.644961
224,694,6.74011,-1.70544,0,0,0,0,0,0,0,-1,1448,330,6.74013,1.70546
231,694,0,0,0,0,0,0,0,0,0,-1,1455,330,0,0
238,694,0,0,0,0,0,0,0,0,0,-1,1462,330,0,0
245,694,0,0,0,0,0,0,0,0,0,-1,1469,330,0,0
252,694,0,0,0,0,0,0,0,0,0,-1,1476,330,0,0
259,694,0,0,0,0,0,0,0,0,0,-1,1483,330,0,0
266,694,0,0,0,0,0,0,0,0,0,-1,1490,330,0,0
273,694,0,0,0,0,0,0,0,0,0,-1,1497,330,0,0
280,694,0,0,0,0,0,0,0,0,0,-1,1504,330,0,0
287,694,0,0,0,0,0,0,0,0,0,-1,1511,330,0,0
294,694,0,0,0,0,0,0,0,0,0,-1,1518,330,0,0
301,694,0,0,0,0,0,0,0,0,0,-1,1525,330,0,0
308,694,0,0,0,0,0,0,0,0,0,-1,1532,330,0,0
315,694,0,0,0,0,0,0,0,0,0,-1,1539,330,0,0
322,694,0,0,0,0,0,0,0,0,0,-1,1546,330,0,0
329,694,0,0,0,0,0,0,0,0,0,-1,1553,330,0,0
336,694,0,0,0,0,0,0,0,0,0,-1,1560,330,0,0
343,694,0,0,0,0,0,0,0,0,0,-1,1567,330,0,0
350,694,0,0,0,0,0,0,0,0,0,-1,1574,330,0,0
357,694,0,0,0,0,0,0,0,0,0,-1,1581,330,0,0
364,694,0,0,0,0,0,0,0,0,0,-1,1588,330,0,0
371,694,0,0,0,0,0,0,0,0,0,-1,1595,330,0,0
378,694,0,0,0,0,0,0,0,0,0,-1,1602,330,0,0
385,694,0,0,0,0,0,0,0,0,0,-1,1609,330,0,0
392,694,0,0,0,0,0,0,0,0,0,-1,1616,330,0,0
399,694,0,0,0,0,0,0,0,0,0,-1,1623,330,0,0
406,694,0,0,0,0,0,0,0,0,0,-1,1630,330,0,0
413,694,0,0,0,0,0,0,0,0,0,-1,1637,330,0,0
420,694,0,0,0,0,0,0,0,0,0,-1,1644,330,0,0
427,694,0,0,0,0,0,0,0,0,0,-1,1651,330,0,0
434,694,0,0,0,0,0,0,0,0,0,-1,1658,330,0,0
441,694,0,0,0,0,0,0,0,0,0,-1,1665,330,0,0
448,694,0,0,0,0,0,0,0,0,0,-1,1672,330,0,0
455,694,0,0,0,0,0,0,0,0,0,-1,1679,330,0,0
462,694,0,0,0,0,0,0,0,0,0,-1,1686,330,0,0
469,694,0,0,0,0,0,0,0,0,0,-1,1693,330,0,0
476,694,0,0,0,0,0,0,0,0,0,-1,1700,330,0,0
483,694,0,0,0,0,0,0,0,0,0,-1,1707,330,0,0
490,694,0,0,0,0,0,0,0,0,0,-1,1714,330,0,0
497,694,0,0,0,0,0,0,0,0,0,-1,1721,330,0,0
504,694,0,0,0,0,0,0,0,0,0,-1,1728,330,0,0
511,694,0,0,0,0,0,0,0,0,0,-1,1735,330,0,0
518,694,0,0,0,0,0,0,0,0,0,-1,1742,330,0,0
525,694,0,0,0,0,0,0,0,0,0,-1,1749,330,0,0
532,694,0,0,0,0,0,0,0,0,0,-1,1756,330,0,0
539,694,0,0,0,0,0,0,0,0,0,-1,1763,330,0,0
546,694,0,0,0,0,0,0,0,0,0,-1,1770,330,0,0
553,694,0,0,0,0,0,0,0,0,0,-1,1777,330,0,0
560,694,0,0,0,0,0,0,0,0,0,-1,1784,330,0,0
567,694,0,0,0,0,0,0,0,0,0,-1,1791,330,0,0
574,694,0,0,0,0,0,0,0,0,0,-1,1798,330,0,0
581,694,0,0,0,0,0,0,0,0,0,-1,1805,330,0,0
588,694,0,0,0,0,0,0,0,0,0,-1,1812,330,0,0
595,694,0,0,0,0,0,0,0,0,0,-1,1819,330,0,0
602,694,0,0,0,0,0,0,0,0,0,-1,1826,330,0,0
609,694,0,0,0,0,0,0,0,0,0,-1,1833,330,0,0
616,694,0,0,0,0,0,0,0,0,0,-1,1840,330,0,0
623,694,0,0,0,0,0,0,0,0,0,-1,1847,330,0,0
630,694,0,0,0,0,0,0,0,0,0,-1,1854,330,0,0
637,694,0,0,0,0,0,0,0,0,0,-1,1861,330,0,0
644,694,0,0,0,0,0,0,0,0,0,-1,1868,330,0,0
651,694,0,0,0,0,0,0,0,0,0,-1,1875,330,0,0
658,694,0,0,0,0,0,0,0,0,0,-1,1882,330,0,0
665,694,0,0,0,0,0,0,0,0,0,-1,1889,330,0,0
672,694,0,0,0,0,0,0,0,0,0,-1,1896,330,0,0
679,694,0,0,0,0,0,0,0,0,0,-1,1903,330,0,0
686,694,0,0,0,0,0,0,0,0,0,-1,1910,330,0,0
693,694,0,0,0,0,0,0,0,0,0,-1,1917,330,0,0
700,694,0,0,0,0,0,0,0,0,0,-1,1924,330,0,0
707,694,0,0,0,0,0,0,0,0,0,-1,1931,330,0,0
714,694,0,0,0,0,0,0,0,0,0,-1,1938,330,0,0
721,694,0,0,0,0,0,0,0,0,0,-1,1945,330,0,0
728,694,0,0,0,0,0,0,0,0,0,-1,1952,330,0,0
735,694,0,0,0,0,0,0,0,0,0,-1,1959,330,0,0
742,694,0,0,0,0,0,0,0,0,0,-1,1966,330,0,0
749,694,0,0,0,0,0,0,0,0,0,-1,1973,330,0,0
756,694,0,0,0,0,0,0,0,0,0,-1,1980,330,0,0
763,694,0,0,0,0,0,0,0,0,0,-1,1987,330,0,0
770,694,0,0,0,0,0,0,0,0,0,-1,1994,330,0,0
777,694,0,0,0,0,0,0,0,0,0,-1,2001,330,0,0
784,694,0,0,0,0,0,0,0,0,0,-1,2008,330,0,0
791,694,0,0,0,0,0,0,0,0,0,-1,2015,330,0,0
798,694,0,0,0,0,0,0,0,0,0,-1,2022,330,0,0
805,694,0,0,0,0,0,0,0,0,0,-1,2029,330,0,0
812,694,0,0,0,0,0,0,0,0,0,-1,2036,330,0,0
-700,687,0,0,0,0,0,0,0,0,0,-1,524,337,0,0
-693,687,0,0,0,0,0,0,0,0,0,-1,531,337,0,0
-686,687,0,0,0,0,0,0,0,0,0,-1,538,337,0,0
-679,687,0,0,0,0,0,0,0,0,0,-1,545,337,0,0
-672,687,0,0,0,0,0,0,0,0,0,-1,552,337,0,0
-665,687,0,0,0,0,0,0,0,0,0,-1,559,337,0,0
-658,687,0,0,0,0,0,0,0,0,0,-1,566,337,0,0
-651,687,0,0,0,0,0,0,0,0,0,-1,573,337,0,0
-644,687,0,0,0,0,0,0,0,0,0,-1,580,337,0,0
-637,687,0,0,0,0,0,0,0,0,0,-1,587,337,0,0
-630,687,0,0,0,0,0,0,0,0,0,-1,594,337,0,0
-623,687,0,0,0,0,0,0,0,0,0,-1,601,337,0,0
-616,687,0,0,0,0,0,0,0,0,0,-1,608,337,0,0
-609,687,0,0,0,0,0,0,0,0,0,-1,615,337,0,0
-602,687,0,0,0,0,0,0,0,0,0,-1,622,337,0,0
-595,687,0,0,0,0,0,0,0,0,0,-1,629,337,0,0
-588,687,0,0,0,0,0,0,0,0,0,-1,636,337,0,0
-581,687,0,0,0,0,0,0,0,0,0,-1,643,337,0,0
-574,687,0,0,0,0,0,0,0,0,0,-1,650,337,0,0
-567,687,0,0,0,0,0,0,0,0,0,-1,657,337,0,0
-560,687,0,0,0,0,0,0,0,0,0,-1,664,337,0,0
-553,687,0,0,0,0,0,0,0,0,0,-1,671,337,0,0
-546,687,0,0,0,0,0,0,0,0,0,-1,678,337,0,0
-539,687,0,0,0,0,0,0,0,0,0,-1,685,337,0,0
-532,687,0,0,0,0,0,0,0,0,0,-1,692,337,0,0
-525,687,0,0,0,0,0,0,0,0,0,-1,699,337,0,0
-518,687,0,0,0,0,0,0,0,0,0,-1,706,337,0,0
-511,687,0,0,0,0,0,0,0,0,0,-1,713,337,0,0
-504,687,0,0,0,0,0,0,0,0,0,-1,720,337,0,0
-497,687,0,0,0,0,0,0,0,0,0,-1,727,337,0,0
-490,687,0,0,0,0,0,0,0,0,0,-1,734,337,0,0
-483,687,0,0,0,0,0,0,0,0,0,-1,741,337,0,0
-476,687,0,0,0,0,0,0,0,0,0,-1,748,337,0,0
-469,687,0,0,0,0,0,0,0,0,0,-1,755,337,0,0
-462,687,0,0,0,0,0,0,0,0,0,-1,762,337,0,0
-455,687,0,0,0,0,0,0,0,0,0,-1,769,337,0,0
-448,687,0,0,0,0,0,0,0,0,0,-1,776,337,0,0
-441,687,0,0,0,0,0,0,0,0,0,-1,783,337,0,0
-434,687,0,0,0,0,0,0,0,0,0,-1,790,337,0,0
-427,687,0,0,0,0,0,0,0,0,0,-1,797,337,0,0
-420,687,0,0,0,0,0,0,0,0,0,-1,804,337,0,0
-413,687,0,0,0,0,0,0,0,0,0,-1,811,337,0,0
-406,687,0,0,0,0,0,0,0,0,0,-1,818,337,0,0
-399,687,0,0,0,0,0,0,0,0,0,-1,825,337,0,0
-392,687,0,0,0,0,0,0,0,0,0,-1,832,337,0,0
-385,687,0,0,0,0,0,0,0,0,0,-1,839,337,0,0
-378,687,0,0,0,0,0,0,0,0,0,-1,846,337,0,0
-371,687,0,0,0,0,0,0,0,0,0,-1,853,337,0,0
-364,687,0,0,0,0,0,0,0,0,0,-1,860,337,0,0
-357,687,0,0,0,0,0,0,0,0,0,-1,867,337,0,0
-350,687,0,0,0,0,0,0,0,0,0,-1,874,337,0,0
-343,687,0,0,0,0,0,0,0,0,0,-1,881,337,0,0
-336,687,0,0,0,0,0,0,0,0,0,-1,888,337,0,0
-329,687,0,0,0,0,0,0,0,0,0,-1,895,337,0,0
-322,687,0,0,0,0,0,0,0,0,0,-1,902,337,0,0
-315,687,0,0,0,0,0,0,0,0,0,-1,909,337,0,0
-308,687,0,0,0,0,0,0,0,0,0,-1,916,337,0,0
-301,687,0,0,0,0,0,0,0,0,0,-1,923,337,0,0
-294,687,0,0,0,0,0,0,0,0,0,-1,930,337,0,0
-287,687,0,0,0,0,0,0,0,0,0,-1,937,337,0,0
-280,687,0,0,0,0,0,0,0,0,0,-1,944,337,0,0
-273,687,0,0,0,0,0,0,0,0,0,-1,951,337,0,0
-266,687,0,0,0,0,0,0,0,0,0,-1,958,337,0,0
-259,687,0,0,0,0,0,0,0,0,0,-1,965,337,0,0
-252,687,0,0,0,0,0,0,0,0,0,-1,972,337,0,0
-245,687,0,0,0,0,0,0,0,0,0,-1,979,337,0,0
-238,687,0,0,0,0,0,0,0,0,0,-1,986,337,0,0
-231,687,0,0,0,0,0,0,0,0,0,-1,993,337,0,0
-224,687,0,0,0,0,0,0,0,0,0,-1,1000,337,0,0
-217,687,0,0,0,0,0,0,0,0,0,-1,1007,337,0,0
-210,687,0,0,0,0,0,0,0,0,0,-1,1014,337,0,0
-203,687,0,0,0,0,0,0,0,0,0,-1,1021,337,0,0
-196,687,0,0,0,0,0,0,0,0,0,-1,1028,337,0,0
-189,687,0,0,0,0,0,0,0,0,0,-1,1035,337,0,0
-182,687,0,0,0,0,0,0,0,0,0,-1,1042,337,0,0
-175,687,0,0,0,0,0,0,0,0,0,-1,1049,337,0,0
-168,687,0,0,0,0,0,0,0,0,0,-1,1056,337,0,0
-161,687,0,0,0,0,0,0,0,0,0,-1,1063,337,0,0
-154,687,0,0,0,0,0,0,0,0,0,-1,1070,337,0,0
-147,687,0,0,0,0,0,0,0,0,0,-1,1077,337,0,0
-140,687,0,0,0,0,0,0,0,0,0,-1,1084,337,0,0
-133,687,7.93958,-37.548,0,0,0,0,0,0,0,-1,1091,337,7.93957,37.548
-126,687,0.688477,-38.7298,0,0,0,0,0,0,0,-1,1098,337,0.688509,38.7298
-119,687,7.70825,-33.9236,0,0,0,0,0,0,0,-1,1105,337,7.70826,33.9236
-112,687,7.99866,-32.2983,0,0,0,0,0,0,0,-1,1112,337,7.99866,32.2983
-105,687,1.3208,-29.8313,0,0,0,0,0,0,0,-1,1119,337,1.3208,29.8313
-98,687,13.7111,-47.5645,0,0,0,0,0,0,0,-1,1126,337,13.711,47.5645
-91,687,7.22083,-41.1667,0,0,0,0,0,0,0,-1,1133,337,7.22079,41.1666
-84,687,0.745117,-35.0345,0,0,0,0,0,0,0,-1,1140,337,0.745155,35.0345
-77,687,-5.74353,-28.9553,0,0,0,0,0,0,0,-1,1147,337,-5.74357,28.9553
-70,687,-11.6842,-19.8473,0,0,0,0,0,0,0,-1,1154,337,-11.6842,19.8473
-63,687,-17.6757,-14.8966,0,0,0,0,0,0,0,-1,1161,337,-17.6756,14.8966
-56,687,-18.104,7.81931,0,0,0,0,0,0,0,-1,1168,337,-18.104,-7.81931
-49,687,-15.6449,-9.94391,0,0,0,0,0,0,0,-1,1175,337,-15.6449,9.94392
-42,687,-4.2019,-0.405609,0,0,0,0,0,0,0,-1,1182,337,-4.20192,0.405614
-35,687,-4.42273,-0.688171,0,0,0,0,0,0,0,-1,1189,337,-4.42276,0.688178
-28,687,-1.14038,-1.39072,0,0,0,0,0,0,0,-1,1196,337,-1.14035,1.3907
-21,687,7.19775,-45.6529,0,0,0,0,0,0,0,-1,1203,337,7.19774,45.6529
-14,687,6.89917,-46.7308,0,0,0,0,0,0,0,-1,1210,337,6.89915,46.7308
-7,687,6.89856,-46.7694,0,0,0,0,0,0,0,-1,1217,337,6.89852,46.7694
0,687,6.8999,-46.6422,0,0,0,0,0,0,0,-1,1224,337,6.89987,46.6422
7,687,8.58032,-48.2312,0,0,0,0,0,0,0,-1,1231,337,8.58028,48.2312
14,687,8.31042,-48.5112,0.0313953,0.0730569,0.0324001,0.0907448,0.0137074,1.07109,0.0564845,0.0461597,1238,337,8.31039,48.5112
21,687,8.12903,-48.8021,0.0315584,0.0815686,0.0327747,0.0977877,0.0153393,1.11126,0.060728,0.0473884,1245,337,8.129,48.8021
28,687,7.89417,-49.206,0,0,0,0,0,0,0,-1,1252,337,7.89416,49.206
35,687,7.59058,-49.622,0,0,0,0,0,0,0,-1,1259,337,7.59057,49.6221
42,687,6.26428,-48.5226,0,0,0,0,0,0,0,-1,1266,337,6.26429,48.5226
49,687,6.31018,-48.4179,0,0,0,0,0,0,0,-1,1273,337,6.31015,48.4179
56,687,6.44702,-47.9701,0.0299045,0.122984,0.02014,0.127155,0.0257336,1.36659,0.077627,0.0456585,1280,337,6.44697,47.9701
63,687,6.5813,-47.0324,0.0238231,0.124716,0.0154348,0.127024,0.0215147,1.42234,0.0785004,0.0447442,1287,337,6.58135,47.0324
70,687,6.49548,-46.42,0.0178049,0.122733,0.0106127,0.123796,0.0167423,1.471,0.0775543,0.0408003,1294,337,6.4955,46.42
77,687,5.21753,-46.8457,0,0,0,0,0,0,0,-1,1301,337,5.21747,46.8457
84,687,5.67566,-46.9873,0.00379543,0.10841,0.00214051,0.108454,0.00375164,1.55035,0.071085,0.0463293,1308,337,5.67565,46.9873
91,687,6.13184,-49.0934,-0.00416391,0.0980088,-0.00119356,0.0980227,-0.00417786,-1.55912,0.0667847,0.0442594,1315,337,6.13184,49.0934
98,687,5.60144,-48.8271,0,0,0,0,0,0,0,-1,1322,337,5.60147,48.8271
105,687,5.81506,-47.0718,-0.0187341,0.0778515,-0.00518021,0.0781285,-0.0190112,-1.51737,0.0594448,0.0457365,1329,337,5.81512,47.0718
112,687,5.53223,-46.7817,-0.0230589,0.0692634,-0.00523257,0.069559,-0.0233545,-1.51436,0.0558108,0.0455273,1336,337,5.53227,46.7817
119,687,5.35071,-46.5251,-0.0263053,0.0608642,-0.00463879,0.0611103,-0.0265515,-1.51778,0.051906,0.0445399,1343,337,5.35073,46.5251
126,687,5.16223,-46.5269,-0.0283607,0.0539472,-0.00361853,0.054106,-0.0285194,-1.52695,0.0484602,0.0458333,1350,337,5.16217,46.5269
133,687,5.15796,-46.6643,-0.0292795,0.0494038,-0.00250318,0.0494834,-0.029359,-1.53903,0.0460113,0.0472125,1357,337,5.15793,46.6643
140,687,5.15393,-47.0401,0,0,0,0,0,0,0,-1,1364,337,5.15393,47.0401
147,687,4.82324,-47.7482,0,0,0,0,0,0,0,-1,1371,337,4.82321,47.7482
154,687,0.390259,-40.2087,0,0,0,0,0,0,0,-1,1378,337,0.390266,40.2087
161,687,29.3895,-1.90628,0,0,0,0,0,0,0,-1,1385,337,29.3895,1.90628
168,687,29.8564,-1.19434,0,0,0,0,0,0,0,-1,1392,337,29.8564,1.19434
175,687,30.3419,-0.453583,0,0,0,0,0,0,0,-1,1399,337,30.3419,0.45357
182,687,6.67249,0.289917,0,0,0,0,0,0,0,-1,1406,337,6.67247,-0.289916
189,687,7.76062,4.53635,0,0,0,0,0,0,0,-1,1413,337,7.76064,-4.53636
196,687,6.99048,3.2966,0,0,0,0,0,0,0,-1,1420,337,6.99046,-3.2966
203,687,6.36499,2.1445,0,0,0,0,0,0,0,-1,1427,337,6.36499,-2.14451
210,687,6.68066,0.674652,0,0,0,0,0,0,0,-1,1434,337,6.68062,-0.674655
217,687,5.99683,-0.630493,0,0,0,0,0,0,0,-1,1441,337,5.99684,0.630497
224,687,5.52917,0.524902,0,0,0,0,0,0,0,-1,1448,337,5.5292,-0.524915
231,687,5.85583,-1.73651,0,0,0,0,0,0,0,-1,1455,337,5.85577,1.73651
238,687,5.96582,-2.96774,0,0,0,0,0,0,0,-1,1462,337,5.96577,2.96773
245,687,1.28259,2.32211,0,0,0,0,0,0,0,-1,1469,337,1.28258,-2.32211
252,687,1.97278,3.88422,0,0,0,0,0,0,0,-1,1476,337,1.97281,-3.88421
259,687,0,0,0,0,0,0,0,0,0,-1,1483,337,0,0
266,687,0,0,0,0,0,0,0,0,0,-1,1490,337,0,0
273,687,0,0,0,0,0,0,0,0,0,-1,1497,337,0,0
280,687,0,0,0,0,0,0,0,0,0,-1,1504,337,0,0
287,687,0,0,0,0,0,0,0,0,0,-1,1511,337,0,0
294,687,0,0,0,0,0,0,0,0,0,-1,1518,337,0,0
301,687,0,0,0,0,0,0,0,0,0,-1,1525,337,0,0
308,687,0,0,0,0,0,0,0,0,0,-1,1532,337,0,0
315,687,0,0,0,0,0,0,0,0,0,-1,1539,337,0,0
322,687,0,0,0,0,0,0,0,0,0,-1,1546,337,0,0
329,687,0,0,0,0,0,0,0,0,0,-1,1553,337,0,0
336,687,0,0,0,0,0,0,0,0,0,-1,1560,337,0,0
343,687,0,0,0,0,0,0,0,0,0,-1,1567,337,0,0
350,687,0,0,0,0,0,0,0,0,0,-1,1574,337,0,0
357,687,0,0,0,0,0,0,0,0,0,-1,1581,337,0,0
364,687,0,0,0,0,0,0,0,0,0,-1,1588,337,0,0
371,687,0,0,0,0,0,0,0,0,0,-1,1595,337,0,0
378,687,0,0,0,0,0,0,0,0,0,-1,1602,337,0,0
385,687,0,0,0,0,0,0,0,0,0,-1,1609,337,0,0
392,687,0,0,0,0,0,0,0,0,0,-1,1616,337,0,0
399,687,0,0,0,0,0,0,0,0,0,-1,1623,337,0,0
406,687,0,0,0,0,0,0,0,0,0,-1,1630,337,0,0
413,687,0,0,0,0,0,0,0,0,0,-1,1637,337,0,0
420,687,0,0,0,0,0,0,0,0,0,-1,1644,337,0,0
427,687,0,0,0,0,0,0,0,0,0,-1,1651,337,0,0
434,687,0,0,0,0,0,0,0,0,0,-1,1658,337,0,0
441,687,0,0,0,0,0,0,0,0,0,-1,1665,337,0,0
448,687,0,0,0,0,0,0,0,0,0,-1,1672,337,0,0
455,687,0,0,0,0,0,0,0,0,0,-1,1679,337,0,0
462,687,0,0,0,0,0,0,0,0,0,-1,1686,337,0,0
469,687,0,0,0,0,0,0,0,0,0,-1,1693,337,0,0
476,687,0,0,0,0,0,0,0,0,0,-1,1700,337,0,0
483,687,0,0,0,0,0,0,0,0,0,-1,1707,337,0,0
490,687,0,0,0,0,0,0,0,0,0,-1,1714,337,0,0
497,687,0,0,0,0,0,0,0,0,0,-1,1721,337,0,0
504,687,0,0,0,0,0,0,0,0,0,-1,1728,337,0,0
511,687,0,0,0,0,0,0,0,0,0,-1,1735,337,0,0
518,687,0,0,0,0,0,0,0,0,0,-1,1742,337,0,0
525,687,0,0,0,0,0,0,0,0,0,-1,1749,337,0,0
532,687,0,0,0,0,0,0,0,0,0,-1,1756,337,0,0
539,687,0,0,0,0,0,0,0,0,0,-1,1763,337,0,0
546,687,0,0,0,0,0,0,0,0,0,-1,1770,337,0,0
553,687,0,0,0,0,0,0,0,0,0,-1,1777,337,0,0
560,687,0,0,0,0,0,0,0,0,0,-1,1784,337,0,0
567,687,0,0,0,0,0,0,0,0,0,-1,1791,337,0,0
574,687,0,0,0,0,0,0,0,0,0,-1,1798,337,0,0
581,687,0,0,0,0,0,0,0,0,0,-1,1805,337,0,0
588,687,0,0,0,0,0,0,0,0,0,-1,1812,337,0,0
595,687,0,0,0,0,0,0,0,0,0,-1,1819,337,0,0
602,687,0,0,0,0,0,0,0,0,0,-1,1826,337,0,0
609,687,0,0,0,0,0,0,0,0,0,-1,1833,337,0,0
616,687,0,0,0,0,0,0,0,0,0,-1,1840,337,0,0
623,687,0,0,0,0,0,0,0,0,0,-1,1847,337,0,0
630,687,0,0,0,0,0,0,0,0,0,-1,1854,337,0,0
637,687,0,0,0,0,0,0,0,0,0,-1,1861,337,0,0
644,687,0,0,0,0,0,0,0,0,0,-1,1868,337,0,0
651,687,0,0,0,0,0,0,0,0,0,-1,1875,337,0,0
658,687,0,0,0,0,0,0,0,0,0,-1,1882,337,0,0
665,687,0,0,0,0,0,0,0,0,0,-1,1889,337,0,0
672,687,0,0,0,0,0,0,0,0,0,-1,1896,337,0,0
679,687,0,0,0,0,0,0,0,0,0,-1,1903,337,0,0
686,687,0,0,0,0,0,0,0,0,0,-1,1910,337,0,0
693,687,0,0,0,0,0,0,0,0,0,-1,1917,337,0,0
700,687,0,0,0,0,0,0,0,0,0,-1,1924,337,0,0
707,687,0,0,0,0,0,0,0,0,0,-1,1931,337,0,0
714,687,0,0,0,0,0,0,0,0,0,-1,1938,337,0,0
721,687,0,0,0,0,0,0,0,0,0,-1,1945,337,0,0
728,687,0,0,0,0,0,0,0,0,0,-1,1952,337,0,0
735,687,0,0,0,0,0,0,0,0,0,-1,1959,337,0,0
742,687,0,0,0,0,0,0,0,0,0,-1,1966,337,0,0
749,687,0,0,0,0,0,0,0,0,0,-1,1973,337,0,0
756,687,0,0,0,0,0,0,0,0,0,-1,1980,337,0,0
763,687,0,0,0,0,0,0,0,0,0,-1,1987,337,0,0
770,687,0,0,0,0,0,0,0,0,0,-1,1994,337,0,0
777,687,0,0,0,0,0,0,0,0,0,-1,2001,337,0,0
784,687,0,0,0,0,0,0,0,0,0,-1,2008,337,0,0
791,687,0,0,0,0,0,0,0,0,0,-1,2015,337,0,0
798,687,0,0,0,0,0,0,0,0,0,-1,2022,337,0,0
805,687,0,0,0,0,0,0,0,0,0,-1,2029,337,0,0
812,687,0,0,0,0,0,0,0,0,0,-1,2036,337,0,0
-700,680,0,0,0,0,0,0,0,0,0,-1,524,344,0,0
-693,680,0,0,0,0,0,0,0,0,0,-1,531,344,0,0
-686,680,0,0,0,0,0,0,0,0,0,-1,538,344,0,0
-679,680,0,0,0,0,0,0,0,0,0,-1,545,344,0,0
-672,680,0,0,0,0,0,0,0,0,0,-1,552,344,0,0
-665,680,0,0,0,0,0,0,0,0,0,-1,559,344,0,0
-658,680,0,0,0,0,0,0,0,0,0,-1,566,344,0,0
-651,680,0,0,0,0,0,0,0,0,0,-1,573,344,0,0
-644,680,0,0,0,0,0,0,0,0,0,-1,580,344,0,0
-637,680,0,0,0,0,0,0,0,0,0,-1,587,344,0,0
-630,680,0,0,0,0,0,0,0,0,0,-1,594,344,0,0
-623,680,0,0,0,0,0,0,0,0,0,-1,601,344,0,0
-616,680,0,0,0,0,0,0,0,0,0,-1,608,344,0,0
-609,680,0,0,0,0,0,0,0,0,0,-1,615,344,0,0
-602,680,0,0,0,0,0,0,0,0,0,-1,622,344,0,0
-595,680,0,0,0,0,0,0,0,0,0,-1,629,344,0,0
-588,680,0,0,0,0,0,0,0,0,0,-1,636,344,0,0
-581,680,0,0,0,0,0,0,0,0,0,-1,643,344,0,0
-574,680,0,0,0,0,0,0,0,0,0,-1,650,344,0,0
-567,680,0,0,0,0,0,0,0,0,0,-1,657,344,0,0
-560,680,0,0,0,0,0,0,0,0,0,-1,664,344,0,0
-553,680,0,0,0,0,0,0,0,0,0,-1,671,344,0,0
-546,680,0,0,0,0,0,0,0,0,0,-1,678,344,0,0
-539,680,0,0,0,0,0,0,0,0,0,-1,685,344,0,0
-532,680,0,0,0,0,0,0,0,0,0,-1,692,344,0,0
-525,680,0,0,0,0,0,0,0,0,0,-1,699,344,0,0
-518,680,0,0,0,0,0,0,0,0,0,-1,706,344,0,0
-511,680,0,0,0,0,0,0,0,0,0,-1,713,344,0,0
-504,680,0,0,0,0,0,0,0,0,0,-1,720,344,0,0
-497,680,0,0,0,0,0,0,0,0,0,-1,727,344,0,0
-490,680,0,0,0,0,0,0,0,0,0,-1,734,344,0,0
-483,680,0,0,0,0,0,0,0,0,0,-1,741,344,0,0
-476,680,0,0,0,0,0,0,0,0,0,-1,748,344,0,0
-469,680,0,0,0,0,0,0,0,0,0,-1,755,344,0,0
-462,680,0,0,0,0,0,0,0,0,0,-1,762,344,0,0
-455,680,0,0,0,0,0,0,0,0,0,-1,769,344,0,0
-448,680,0,0,0,0,0,0,0,0,0,-1,776,344,0,0
-441,680,0,0,0,0,0,0,0,0,0,-1,783,344,0,0
-434,680,0,0,0,0,0,0,0,0,0,-1,790,344,0,0
-427,680,0,0,0,0,0,0,0,0,0,-1,797,344,0,0
-420,680,0,0,0,0,0,0,0,0,0,-1,804,344,0,0
-413,680,0,0,0,0,0,0,0,0,0,-1,811,344,0,0
-406,680,0,0,0,0,0,0,0,0,0,-1,818,344,0,0
-399,680,0,0,0,0,0,0,0,0,0,-1,825,344,0,0
-392,680,0,0,0,0,0,0,0,0,0,-1,832,344,0,0
-385,680,0,0,0,0,0,0,0,0,0,-1,839,344,0,0
-378,680,0,0,0,0,0,0,0,0,0,-1,846,344,0,0
-371,680,0,0,0,0,0,0,0,0,0,-1,853,344,0,0
-364,680,0,0,0,0,0,0,0,0,0,-1,860,344,0,0
-357,680,0,0,0,0,0,0,0,0,0,-1,867,344,0,0
-350,680,0,0,0,0,0,0,0,0,0,-1,874,344,0,0
-343,680,0,0,0,0,0,0,0,0,0,-1,881,344,0,0
-336,680,0,0,0,0,0,0,0,0,0,-1,888,344,0,0
-329,680,0,0,0,0,0,0,0,0,0,-1,895,344,0,0
-322,680,0,0,0,0,0,0,0,0,0,-1,902,344,0,0
-315,680,0,0,0,0,0,0,0,0,0,-1,909,344,0,0
-308,680,0,0,0,0,0,0,0,0,0,-1,916,344,0,0
-301,680,0,0,0,0,0,0,0,0,0,-1,923,344,0,0
-294,680,0,0,0,0,0,0,0,0,0,-1,930,344,0,0
-287,680,0,0,0,0,0,0,0,0,0,-1,937,344,0,0
-280,680,0,0,0,0,0,0,0,0,0,-1,944,344,0,0
-273,680,0,0,0,0,0,0,0,0,0,-1,951,344,0,0
-266,680,0,0,0,0,0,0,0,0,0,-1,958,344,0,0
-259,680,0,0,0,0,0,0,0,0,0,-1,965,344,0,0
-252,680,0,0,0,0,0,0,0,0,0,-1,972,344,0,0
-245,680,0,0,0,0,0,0,0,0,0,-1,979,344,0,0
-238,680,0,0,0,0,0,0,0,0,0,-1,986,344,0,0
-231,680,0,0,0,0,0,0,0,0,0,-1,993,344,0,0
-224,680,0,0,0,0,0,0,0,0,0,-1,1000,344,0,0
-217,680,0,0,0,0,0,0,0,0,0,-1,1007,344,0,0
-210,680,0,0,0,0,0,0,0,0,0,-1,1014,344,0,0
-203,680,0,0,0,0,0,0,0,0,0,-1,1021,344,0,0
-196,680,0,0,0,0,0,0,0,0,0,-1,1028,344,0,0
-189,680,0,0,0,0,0,0,0,0,0,-1,1035,344,0,0
-182,680,0,0,0,0,0,0,0,0,0,-1,1042,344,0,0
-175,680,0,0,0,0,0,0,0,0,0,-1,1049,344,0,0
-168,680,0,0,0,0,0,0,0,0,0,-1,1056,344,0,0
-161,680,0,0,0,0,0,0,0,0,0,-1,1063,344,0,0
-154,680,2.25244,-29.1442,0,0,0,0,0,0,0,-1,1070,344,2.25241,29.1442
-147,680,9.29614,-33.0369,0,0,0,0,0,0,0,-1,1077,344,9.29612,33.0369
-140,680,6.98022,-36.6899,0,0,0,0,0,0,0,-1,1084,344,6.98023,36.6899
-133,680,1.85693,-39.7233,0,0,0,0,0,0,0,-1,1091,344,1.85699,39.7233
-126,680,2.30017,-38.3751,0,0,0,0,0,0,0,-1,1098,344,2.30011,38.3751
-119,680,2.74329,-37.0269,0,0,0,0,0,0,0,-1,1105,344,2.74323,37.0269
-112,680,7.7467,-32.4407,0,0,0,0,0,0,0,-1,1112,344,7.74668,32.4407
-105,680,20.6371,-48.461,0,0,0,0,0,0,0,-1,1119,344,20.6371,48.461
-98,680,14.2684,-41.9997,0,0,0,0,0,0,0,-1,1126,344,14.2685,41.9997
-91,680,7.89648,-35.5147,0,0,0,0,0,0,0,-1,1133,344,7.8965,35.5147
-84,680,1.47168,-29.471,0,0,0,0,0,0,0,-1,1140,344,1.47163,29.471
-77,680,-4.95337,-23.3355,0,0,0,0,0,0,0,-1,1147,344,-4.9534,23.3356
-70,680,-11.5099,-17.4337,0,0,0,0,0,0,0,-1,1154,344,-11.5098,17.4338
-63,680,-17.2391,-1.43134,0,0,0,0,0,0,0,-1,1161,344,-17.2392,1.43133
-56,680,-6.96912,-8.83356,0,0,0,0,0,0,0,-1,1168,344,-6.96907,8.83354
-49,680,-6.7677,-2.24063,0,0,0,0,0,0,0,-1,1175,344,-6.76772,2.24063
-42,680,-1.02368,0.618805,0,0,0,0,0,0,0,-1,1182,344,-1.0237,-0.618797
-35,680,-0.947876,-0.942719,0,0,0,0,0,0,0,-1,1189,344,-0.947842,0.942731
-28,680,-1.46118,-1.10574,0,0,0,0,0,0,0,-1,1196,344,-1.4612,1.10575
-21,680,7.36926,-46.4307,0,0,0,0,0,0,0,-1,1203,344,7.36924,46.4307
-14,680,7.25098,-48.1966,0,0,0,0,0,0,0,-1,1210,344,7.25093,48.1965
-7,680,7.21631,-48.4852,0,0,0,0,0,0,0,-1,1217,344,7.21629,48.4852
0,680,6.88647,-48.5264,0,0,0,0,0,0,0,-1,1224,344,6.8865,48.5264
7,680,8.12598,-48.2042,0,0,0,0,0,0,0,-1,1231,344,8.12596,48.2042
14,680,7.77026,-48.4907,0,0,0,0,0,0,0,-1,1238,344,7.77025,48.4907
21,680,7.41516,-48.7643,0,0,0,0,0,0,0,-1,1245,344,7.41514,48.7644
28,680,6.92688,-49.456,0,0,0,0,0,0,0,-1,1252,344,6.92687,49.456
35,680,6.40942,-48.688,0,0,0,0,0,0,0,-1,1259,344,6.40946,48.688
42,680,6.29321,-48.7964,0.0225562,0.0882511,0.020791,0.0942781,0.0165292,1.28865,0.058131,0.0460903,1266,344,6.29325,48.7964
49,680,6.26904,-48.7559,0.0221013,0.0939569,0.0180954,0.0982566,0.0178016,1.33751,0.0604506,0.0412052,1273,344,6.26903,48.7559
56,680,6.34094,-48.5498,0.0196026,0.0986213,0.0155399,0.101568,0.0166564,1.38343,0.0628991,0.0402776,1280,344,6.3409,48.5499
63,680,6.37183,-47.9779,0.0152672,0.100536,0.011862,0.102156,0.0136478,1.43511,0.0640411,0.0380887,1287,344,6.37177,47.9779
70,680,6.36377,-47.7721,0.0109778,0.0998204,0.00802527,0.10054,0.0102587,1.48143,0.0638819,0.0383503,1294,344,6.36377,47.7721
77,680,6.24487,-47.8093,0,0,0,0,0,0,0,-1,1301,344,6.24482,47.8093
84,680,5.74084,-47.7876,0.000665427,0.0899921,0.00151919,0.0900179,0.000639599,1.5538,0.0597999,0.0437229,1308,344,5.74089,47.7876
91,680,6.13232,-49.1172,-0.00515422,0.082713,-0.000922613,0.0827227,-0.00516391,-1.5603,0.0569479,0.0451641,1315,344,6.13237,49.1172
98,680,5.67224,-48.9394,-0.0106618,0.0756626,-0.00252216,0.0757363,-0.0107354,-1.54161,0.0544234,0.0436726,1322,344,5.6723,48.9394
105,680,5.19482,-48.5711,0,0,0,0,0,0,0,-1,1329,344,5.19484,48.5711
112,680,5.40796,-47.6972,-0.0188314,0.0630141,-0.00365078,0.0631766,-0.018994,-1.52631,0.0496746,0.0477566,1336,344,5.40794,47.6972
119,680,5.48584,-47.376,-0.0212232,0.0571272,-0.00328952,0.057265,-0.0213611,-1.52891,0.0469459,0.042656,1343,344,5.48587,47.376
126,680,5.33252,-47.1866,-0.022686,0.0522387,-0.00258944,0.0523281,-0.0227754,-1.53629,0.0444659,0.0439849,1350,344,5.33254,47.1866
133,680,5.22522,-47.0058,-0.0232774,0.0494002,-0.00167998,0.049439,-0.0233162,-1.5477,0.0428983,0.0451448,1357,344,5.2252,47.0058
140,680,4.3114,-47.1145,0,0,0,0,0,0,0,-1,1364,344,4.31143,47.1145
147,680,4.27356,-46.8083,0,0,0,0,0,0,0,-1,1371,344,4.2736,46.8083
154,680,4.2146,-45.8307,0,0,0,0,0,0,0,-1,1378,344,4.21456,45.8307
161,680,5.01746,-44.5562,0,0,0,0,0,0,0,-1,1385,344,5.01747,44.5562
168,680,29.4142,-2.51651,0,0,0,0,0,0,0,-1,1392,344,29.4142,2.51652
175,680,6.66541,0.942078,0,0,0,0,0,0,0,-1,1399,344,6.66538,-0.942088
182,680,6.52917,0.532379,0,0,0,0,0,0,0,-1,1406,344,6.52922,-0.532385
189,680,7.55884,4.77695,0,0,0,0,0,0,0,-1,1413,344,7.55886,-4.77694
196,680,6.55627,3.35254,0,0,0,0,0,0,0,-1,1420,344,6.55622,-3.35255
203,680,5.7334,1.90753,0,0,0,0,0,0,0,-1,1427,344,5.73341,-1.90754
210,680,5.27515,0.493622,0,0,0,0,0,0,0,-1,1434,344,5.27514,-0.493632
217,680,6.56384,-0.374176,0,0,0,0,0,0,0,-1,1441,344,6.56379,0.374176
224,680,3.9491,-0.640228,0,0,0,0,0,0,0,-1,1448,344,3.94908,0.64024
231,680,4.24866,-1.96881,0,0,0,0,0,0,0,-1,1455,344,4.2486,1.96882
238,680,4.29333,-3.23984,0,0,0,0,0,0,0,-1,1462,344,4.29332,3.23984
245,680,2.44397,0.985382,0,0,0,0,0,0,0,-1,1469,344,2.44402,-0.985394
252,680,3.07349,2.18951,0,0,0,0,0,0,0,-1,1476,344,3.0735,-2.18952
259,680,2.82971,1.30682,0,0,0,0,0,0,0,-1,1483,344,2.82972,-1.30684
266,680,2.67554,1.44067,0,0,0,0,0,0,0,-1,1490,344,2.67551,-1.44066
273,680,2.46411,1.54666,0,0,0,0,0,0,0,-1,1497,344,2.46407,-1.54666
280,680,0,0,0,0,0,0,0,0,0,-1,1504,344,0,0
287,680,0,0,0,0,0,0,0,0,0,-1,1511,344,0,0
294,680,0,0,0,0,0,0,0,0,0,-1,1518,344,0,0
301,680,0,0,0,0,0,0,0,0,0,-1,1525,344,0,0
308,680,0,0,0,0,0,0,0,0,0,-1,1532,344,0,0
315,680,0,0,0,0,0,0,0,0,0,-1,1539,344,0,0
322,680,0,0,0,0,0,0,0,0,0,-1,1546,344,0,0
329,680,0,0,0,0,0,0,0,0,0,-1,1553,344,0,0
336,680,0,0,0,0,0,0,0,0,0,-1,1560,344,0,0
343,680,0,0,0,0,0,0,0,0,0,-1,1567,344,0,0
350,680,0,0,0,0,0,0,0,0,0,-1,1574,344,0,0
357,680,0,0,0,0,0,0,0,0,0,-1,1581,344,0,0
364,680,0,0,0,0,0,0,0,0,0,-1,1588,344,0,0
371,680,0,0,0,0,0,0,0,0,0,-1,1595,344,0,0
378,680,0,0,0,0,0,0,0,0,0,-1,1602,344,0,0
385,680,0,0,0,0,0,0,0,0,0,-1,1609,344,0,0
392,680,0,0,0,0,0,0,0,0,0,-1,1616,344,0,0
399,680,0,0,0,0,0,0,0,0,0,-1,1623,344,0,0
406,680,0,0,0,0,0,0,0,0,0,-1,1630,344,0,0
413,680,0,0,0,0,0,0,0,0,0,-1,1637,344,0,0
420,680,0,0,0,0,0,0,0,0,0,-1,1644,344,0,0
427,680,0,0,0,0,0,0,0,0,0,-1,1651,344,0,0
434,680,0,0,0,0,0,0,0,0,0,-1,1658,344,0,0
441,680,0,0,0,0,0,0,0,0,0,-1,1665,344,0,0
448,680,0,0,0,0,0,0,0,0,0,-1,1672,344,0,0
455,680,0,0,0,0,0,0,0,0,0,-1,1679,344,0,0
462,680,0,0,0,0,0,0,0,0,0,-1,1686,344,0,0
469,680,0,0,0,0,0,0,0,0,0,-1,1693,344,0,0
476,680,0,0,0,0,0,0,0,0,0,-1,1700,344,0,0
483,680,0,0,0,0,0,0,0,0,0,-1,1707,344,0,0
490,680,0,0,0,0,0,0,0,0,0,-1,1714,344,0,0
497,680,0,0,0,0,0,0,0,0,0,-1,1721,344,0,0
504,680,0,0,0,0,0,0,0,0,0,-1,1728,344,0,0
511,680,0,0,0,0,0,0,0,0,0,-1,1735,344,0,0
518,680,0,0,0,0,0,0,0,0,0,-1,1742,344,0,0
525,680,0,0,0,0,0,0,0,0,0,-1,1749,344,0,0
532,680,0,0,0,0,0,0,0,0,0,-1,1756,344,0,0
539,680,0,0,0,0,0,0,0,0,0,-1,1763,344,0,0
546,680,0,0,0,0,0,0,0,0,0,-1,1770,344,0,0
553,680,0,0,0,0,0,0,0,0,0,-1,1777,344,0,0
560,680,0,0,0,0,0,0,0,0,0,-1,1784,344,0,0
567,680,0,0,0,0,0,0,0,0,0,-1,1791,344,0,0
574,680,0,0,0,0,0,0,0,0,0,-1,1798,344,0,0
581,680,0,0,0,0,0,0,0,0,0,-1,1805,344,0,0
588,680,0,0,0,0,0,0,0,0,0,-1,1812,344,0,0
595,680,0,0,0,0,0,0,0,0,0,-1,1819,344,0,0
602,680,0,0,0,0,0,0,0,0,0,-1,1826,344,0,0
609,680,0,0,0,0,0,0,0,0,0,-1,1833,344,0,0
616,680,0,0,0,0,0,0,0,0,0,-1,1840,344,0,0
623,680,0,0,0,0,0,0,0,0,0,-1,1847,344,0,0
630,680,0,0,0,0,0,0,0,0,0,-1,1854,344,0,0
637,680,0,0,0,0,0,0,0,0,0,-1,1861,344,0,0
644,680,0,0,0,0,0,0,0,0,0,-1,1868,344,0,0
651,680,0,0,0,0,0,0,0,0,0,-1,1875,344,0,0
658,680,0,0,0,0,0,0,0,0,0,-1,1882,344,0,0
665,680,0,0,0,0,0,0,0,0,0,-1,1889,344,0,0
672,680,0,0,0,0,0,0,0,0,0,-1,1896,344,0,0
679,680,0,0,0,0,0,0,0,0,0,-1,1903,344,0,0
686,680,0,0,0,0,0,0,0,0,0,-1,1910,344,0,0
693,680,0,0,0,0,0,0,0,0,0,-1,1917,344,0,0
700,680,0,0,0,0,0,0,0,0,0,-1,1924,344,0,0
707,680,0,0,0,0,0,0,0,0,0,-1,1931,344,0,0
714,680,0,0,0,0,0,0,0,0,0,-1,1938,344,0,0
721,680,0,0,0,0,0,0,0,0,0,-1,1945,344,0,0
728,680,0,0,0,0,0,0,0,0,0,-1,1952,344,0,0
735,680,0,0,0,0,0,0,0,0,0,-1,1959,344,0,0
742,680,0,0,0,0,0,0,0,0,0,-1,1966,344,0,0
749,680,0,0,0,0,0,0,0,0,0,-1,1973,344,0,0
756,680,0,0,0,0,0,0,0,0,0,-1,1980,344,0,0
763,680,0,0,0,0,0,0,0,0,0,-1,1987,344,0,0
770,680,0,0,0,0,0,0,0,0,0,-1,1994,344,0,0
777,680,0,0,0,0,0,0,0,0,0,-1,2001,344,0,0
784,680,0,0,0,0,0,0,0,0,0,-1,2008,344,0,0
791,680,0,0,0,0,0,0,0,0,0,-1,2015,344,0,0
798,680,0,0,0,0,0,0,0,0,0,-1,2022,344,0,0
805,680,0,0,0,0,0,0,0,0,0,-1,2029,344,0,0
812,680,0,0,0,0,0,0,0,0,0,-1,2036,344,0,0
-700,673,0,0,0,0,0,0,0,0,0,-1,524,351,0,0
-693,673,0,0,0,0,0,0,0,0,0,-1,531,351,0,0
-686,673,0,0,0,0,0,0,0,0,0,-1,538,351,0,0
-679,673,0,0,0,0,0,0,0,0,0,-1,545,351,0,0
-672,673,0,0,0,0,0,0,0,0,0,-1,552,351,0,0
-665,673,0,0,0,0,0,0,0,0,0,-1,559,351,0,0
-658,673,0,0,0,0,0,0,0,0,0,-1,566,351,0,0
-651,673,0,0,0,0,0,0,0,0,0,-1,573,351,0,0
-644,673,0,0,0,0,0,0,0,0,0,-1,580,351,0,0
-637,673,0,0,0,0,0,0,0,0,0,-1,587,351,0,0
-630,673,0,0,0,0,0,0,0,0,0,-1,594,351,0,0
-623,673,0,0,0,0,0,0,0,0,0,-1,601,351,0,0
-616,673,0,0,0,0,0,0,0,0,0,-1,608,351,0,0
-609,673,0,0,0,0,0,0,0,0,0,-1,615,351,0,0
-602,673,0,0,0,0,0,0,0,0,0,-1,622,351,0,0
-595,673,0,0,0,0,0,0,0,0,0,-1,629,351,0,0
-588,673,0,0,0,0,0,0,0,0,0,-1,636,351,0,0
-581,673,0,0,0,0,0,0,0,0,0,-1,643,351,0,0
-574,673,0,0,0,0,0,0,0,0,0,-1,650,351,0,0
-567,673,0,0,0,0,0,0,0,0,0,-1,657,351,0,0
-560,673,0,0,0,0,0,0,0,0,0,-1,664,351,0,0
-553,673,0,0,0,0,0,0,0,0,0,-1,671,351,0,0
-546,673,0,0,0,0,0,0,0,0,0,-1,678,351,0,0
-539,673,0,0,0,0,0,0,0,0,0,-1,685,351,0,0
-532,673,0,0,0,0,0,0,0,0,0,-1,692,351,0,0
-525,673,0,0,0,0,0,0,0,0,0,-1,699,351,0,0
-518,673,0,0,0,0,0,0,0,0,0,-1,706,351,0,0
-511,673,0,0,0,0,0,0,0,0,0,-1,713,351,0,0
-504,673,0,0,0,0,0,0,0,0,0,-1,720,351,0,0
-497,673,0,0,0,0,0,0,0,0,0,-1,727,351,0,0
-490,673,0,0,0,0,0,0,0,0,0,-1,734,351,0,0
-483,673,0,0,0,0,0,0,0,0,0,-1,741,351,0,0
-476,673,0,0,0,0,0,0,0,0,0,-1,748,351,0,0
-469,673,0,0,0,0,0,0,0,0,0,-1,755,351,0,0
-462,673,0,0,0,0,0,0,0,0,0,-1,762,351,0,0
-455,673,0,0,0,0,0,0,0,0,0,-1,769,351,0,0
-448,673,0,0,0,0,0,0,0,0,0,-1,776,351,0,0
-441,673,0,0,0,0,0,0,0,0,0,-1,783,351,0,0
-434,673,0,0,0,0,0,0,0,0,0,-1,790,351,0,0
-427,673,0,0,0,0,0,0,0,0,0,-1,797,351,0,0
-420,673,0,0,0,0,0,0,0,0,0,-1,804,351,0,0
-413,673,0,0,0,0,0,0,0,0,0,-1,811,351,0,0
-406,673,0,0,0,0,0,0,0,0,0,-1,818,351,0,0
-399,673,0,0,0,0,0,0,0,0,0,-1,825,351,0,0
-392,673,0,0,0,0,0,0,0,0,0,-1,832,351,0,0
-385,673,0,0,0,0,0,0,0,0,0,-1,839,351,0,0
-378,673,0,0,0,0,0,0,0,0,0,-1,846,351,0,0
-371,673,0,0,0,0,0,0,0,0,0,-1,853,351,0,0
-364,673,0,0,0,0,0,0,0,0,0,-1,860,351,0,0
-357,673,0,0,0,0,0,0,0,0,0,-1,867,351,0,0
-350,673,0,0,0,0,0,0,0,0,0,-1,874,351,0,0
-343,673,0,0,0,0,0,0,0,0,0,-1,881,351,0,0
-336,673,0,0,0,0,0,0,0,0,0,-1,888,351,0,0
-329,673,0,0,0,0,0,0,0,0,0,-1,895,351,0,0
-322,673,0,0,0,0,0,0,0,0,0,-1,902,351,0,0
-315,673,0,0,0,0,0,0,0,0,0,-1,909,351,0,0
-308,673,0,0,0,0,0,0,0,0,0,-1,916,351,0,0
-301,673,0,0,0,0,0,0,0,0,0,-1,923,351,0,0
-294,673,0,0,0,0,0,0,0,0,0,-1,930,351,0,0
-287,673,0,0,0,0,0,0,0,0,0,-1,937,351,0,0
-280,673,0,0,0,0,0,0,0,0,0,-1,944,351,0,0
-273,673,0,0,0,0,0,0,0,0,0,-1,951,351,0,0
-266,673,0,0,0,0,0,0,0,0,0,-1,958,351,0,0
-259,673,0,0,0,0,0,0,0,0,0,-1,965,351,0,0
-252,673,0,0,0,0,0,0,0,0,0,-1,972,351,0,0
-245,673,0,0,0,0,0,0,0,0,0,-1,979,351,0,0
-238,673,0,0,0,0,0,0,0,0,0,-1,986,351,0,0
-231,673,0,0,0,0,0,0,0,0,0,-1,993,351,0,0
-224,673,0,0,0,0,0,0,0,0,0,-1,1000,351,0,0
-217,673,0,0,0,0,0,0,0,0,0,-1,1007,351,0,0
-210,673,0,0,0,0,0,0,0,0,0,-1,1014,351,0,0
-203,673,0,0,0,0,0,0,0,0,0,-1,1021,351,0,0
-196,673,0,0,0,0,0,0,0,0,0,-1,1028,351,0,0
-189,673,0,0,0,0,0,0,0,0,0,-1,1035,351,0,0
-182,673,0,0,0,0,0,0,0,0,0,-1,1042,351,0,0
-175,673,7.10449,-31.8279,0,0,0,0,0,0,0,-1,1049,351,7.10448,31.8279
-168,673,7.33081,-32.7122,0,0,0,0,0,0,0,-1,1056,351,7.33085,32.7122
-161,673,7.8938,-33.5352,0,0,0,0,0,0,0,-1,1063,351,7.89385,33.5352
-154,673,8.80566,-35.3518,0,0,0,0,0,0,0,-1,1070,351,8.80563,35.3518
-147,673,2.89221,-37.7351,0,0,0,0,0,0,0,-1,1077,351,2.89224,37.7351
-140,673,3.35046,-37.7151,0,0,0,0,0,0,0,-1,1084,351,3.35046,37.715
-133,673,3.35339,-39.0288,0,0,0,0,0,0,0,-1,1091,351,3.35342,39.0288
-126,673,3.7533,-38.0453,0,0,0,0,0,0,0,-1,1098,351,3.7533,38.0453
-119,673,4.1532,-37.0618,0,0,0,0,0,0,0,-1,1105,351,4.15318,37.0618
-112,673,7.27234,-32.5801,0,0,0,0,0,0,0,-1,1112,351,7.27231,32.5801
-105,673,21.1144,-43.3143,0,0,0,0,0,0,0,-1,1119,351,21.1143,43.3143
-98,673,14.8014,-36.7519,0,0,0,0,0,0,0,-1,1126,351,14.8014,36.7519
-91,673,8.54944,-29.9639,0,0,0,0,0,0,0,-1,1133,351,8.54949,29.9639
-84,673,2.17102,-24.3204,0,0,0,0,0,0,0,-1,1140,351,2.17107,24.3204
-77,673,-4.25378,-18.8346,0,0,0,0,0,0,0,-1,1147,351,-4.25381,18.8346
-70,673,-10.7933,-13.6681,0,0,0,0,0,0,0,-1,1154,351,-10.7934,13.6681
-63,673,-17.3896,-8.24469,0,0,0,0,0,0,0,-1,1161,351,-17.3896,8.2447
-56,673,-18.0282,2.79053,0,0,0,0,0,0,0,-1,1168,351,-18.0283,-2.79052
-49,673,-0.926758,-0.115448,0,0,0,0,0,0,0,-1,1175,351,-0.926732,0.115444
-42,673,-1.15015,0.289917,0,0,0,0,0,0,0,-1,1182,351,-1.15017,-0.289932
-35,673,-0.919556,-1.00711,0,0,0,0,0,0,0,-1,1189,351,-0.919514,1.00711
-28,673,5.28918,-39.2331,0,0,0,0,0,0,0,-1,1196,351,5.28924,39.2331
-21,673,7.35925,-47.5308,0,0,0,0,0,0,0,-1,1203,351,7.35922,47.5308
-14,673,7.06396,-48.2339,0.00645467,0.0297269,0.0148601,0.0369646,-0.000783043,1.11756,0.0249082,0.0451211,1210,351,7.06394,48.2339
-7,673,7.01807,-48.4916,0.00835619,0.0346448,0.0157231,0.0419941,0.00100684,1.13355,0.0276666,0.0427059,1217,351,7.01801,48.4916
0,673,6.80432,-48.6053,0.0100314,0.0395009,0.0165728,0.0469421,0.00259027,1.14878,0.030468,0.0470247,1224,351,6.80435,48.6052
7,673,6.76367,-48.6555,0,0,0,0,0,0,0,-1,1231,351,6.7637,48.6555
14,673,7.00171,-48.3909,0.0119212,0.0481964,0.0180421,0.0556418,0.00447574,1.17942,0.0356963,0.0456165,1238,351,7.00171,48.3909
21,673,6.70251,-48.6674,0.0122809,0.0536048,0.0186622,0.0607852,0.00510052,1.2035,0.0389348,0.0322766,1245,351,6.70249,48.6674
28,673,6.66699,-48.7704,0.0125573,0.0586311,0.0190696,0.0654999,0.00568853,1.22507,0.0418993,0.0341302,1252,351,6.66696,48.7705
35,673,6.54358,-48.7342,0,0,0,0,0,0,0,-1,1259,351,6.54355,48.7342
42,673,6.31458,-48.8401,0.0141424,0.0697792,0.0153864,0.0737508,0.0101708,1.31819,0.046152,0.0399715,1266,351,6.31459,48.8402
49,673,6.2417,-48.9804,0.0137291,0.0739378,0.013436,0.0768001,0.0108669,1.3609,0.0479897,0.0234573,1273,351,6.24176,48.9804
56,673,6.21423,-48.9692,0.011929,0.0773705,0.0115422,0.0793465,0.00995295,1.40124,0.0499119,0.01762,1280,351,6.21419,48.9692
63,673,6.24963,-48.7441,0.0089476,0.0791109,0.00881293,0.0802009,0.00785758,1.44774,0.0510501,0.0219793,1287,351,6.24966,48.7441
70,673,6.15381,-48.6451,0.00601202,0.0790528,0.00593929,0.0795326,0.00553222,1.49019,0.0512773,0.0359123,1294,351,6.15386,48.6451
77,673,6.14148,-48.4967,0.00242796,0.0770129,0.00315311,0.077146,0.0022949,1.52862,0.050683,0.0432666,1301,351,6.14149,48.4967
84,673,6.05029,-48.4525,-0.00131422,0.0726978,0.00117508,0.0727165,-0.00133288,1.55492,0.048928,0.0476601,1308,351,6.05033,48.4525
91,673,6.04675,-49.0973,0,0,0,0,0,0,0,-1,1315,351,6.0468,49.0973
98,673,5.77246,-49.0175,-0.00934521,0.0631009,-0.00164064,0.063138,-0.00938235,-1.54817,0.0455428,0.0497608,1322,351,5.77246,49.0175
105,673,5.39246,-48.8882,-0.0128217,0.0586851,-0.00228102,0.0587578,-0.0128944,-1.53894,0.0441029,0.0490806,1329,351,5.39251,48.8882
112,673,5.26587,-48.7616,0,0,0,0,0,0,0,-1,1336,351,5.26582,48.7616
119,673,5.39502,-47.7507,0,0,0,0,0,0,0,-1,1343,351,5.39504,47.7507
126,673,5.24683,-47.6528,-0.0178696,0.0474498,-0.00168941,0.0474935,-0.0179132,-1.54496,0.0390286,0.0476042,1350,351,5.24688,47.6528
133,673,5.07214,-47.5823,-0.0182373,0.0457165,-0.000962455,0.045731,-0.0182517,-1.55575,0.0380591,0.0463092,1357,351,5.07214,47.5823
140,673,4.78101,-47.6299,-0.0186216,0.0442075,0.000100893,0.0442077,-0.0186218,1.56919,0.0372637,0.0461253,1364,351,4.78098,47.6299
147,673,4.72522,-47.381,-0.0182445,0.0422392,0.000617936,0.0422455,-0.0182508,1.56058,0.0358317,0.0470917,1371,351,4.72528,47.381
154,673,4.67542,-46.6556,-0.0169725,0.0420467,0.000625208,0.0420533,-0.0169791,1.5602,0.0350923,0.0431219,1378,351,4.67539,46.6556
161,673,4.55615,-46.206,0,0,0,0,0,0,0,-1,1385,351,4.55616,46.206
168,673,6.87061,1.83954,0,0,0,0,0,0,0,-1,1392,351,6.87063,-1.83953
175,673,6.6228,1.1459,0,0,0,0,0,0,0,-1,1399,351,6.62276,-1.14591
182,673,6.37244,0.796112,0,0,0,0,0,0,0,-1,1406,351,6.3724,-0.796102
189,673,6.12097,0.265472,0,0,0,0,0,0,0,-1,1413,351,6.121,-0.265482
196,673,6.02173,3.12717,0,0,0,0,0,0,0,-1,1420,351,6.02176,-3.12717
203,673,5.04456,1.6351,0,0,0,0,0,0,0,-1,1427,351,5.04455,-1.63509
210,673,4.79224,0.447479,0,0,0,0,0,0,0,-1,1434,351,4.79229,-0.447469
217,673,2.01648,0.972687,0,0,0,0,0,0,0,-1,1441,351,2.01644,-0.972691
224,673,2.3689,-1.80539,0,0,0,0,0,0,0,-1,1448,351,2.36896,1.80539
231,673,2.65857,-2.18497,0,0,0,0,0,0,0,-1,1455,351,2.65852,2.18496
238,673,3.77844,-2.06088,0,0,0,0,0,0,0,-1,1462,351,3.77839,2.06088
245,673,3.5376,-0.190399,0,0,0,0,0,0,0,-1,1469,351,3.53759,0.1904
252,673,3.80518,0.55603,0,0,0,0,0,0,0,-1,1476,351,3.80519,-0.556022
259,673,3.88562,1.29617,0,0,0,0,0,0,0,-1,1483,351,3.88562,-1.29618
266,673,4.22424,2.04834,0,0,0,0,0,0,0,-1,1490,351,4.22429,-2.04834
273,673,6.07886,0.385895,0,0,0,0,0,0,0,-1,1497,351,6.0789,-0.385906
280,673,6.97534,-0.0820007,0,0,0,0,0,0,0,-1,1504,351,6.97536,0.0820122
287,673,7.66968,-0.348541,0,0,0,0,0,0,0,-1,1511,351,7.66969,0.348534
294,673,8.20996,0.28537,0,0,0,0,0,0,0,-1,1518,351,8.20993,-0.28536
301,673,0,0,0,0,0,0,0,0,0,-1,1525,351,0,0
308,673,0,0,0,0,0,0,0,0,0,-1,1532,351,0,0
315,673,0,0,0,0,0,0,0,0,0,-1,1539,351,0,0
322,673,0,0,0,0,0,0,0,0,0,-1,1546,351,0,0
329,673,0,0,0,0,0,0,0,0,0,-1,1553,351,0,0
336,673,0,0,0,0,0,0,0,0,0,-1,1560,351,0,0
343,673,0,0,0,0,0,0,0,0,0,-1,1567,351,0,0
350,673,0,0,0,0,0,0,0,0,0,-1,1574,351,0,0
357,673,0,0,0,0,0,0,0,0,0,-1,1581,351,0,0
364,673,0,0,0,0,0,0,0,0,0,-1,1588,351,0,0
371,673,0,0,0,0,0,0,0,0,0,-1,1595,351,0,0
378,673,0,0,0,0,0,0,0,0,0,-1,1602,351,0,0
385,673,0,0,0,0,0,0,0,0,0,-1,1609,351,0,0
392,673,0,0,0,0,0,0,0,0,0,-1,1616,351,0,0
399,673,0,0,0,0,0,0,0,0,0,-1,1623,351,0,0
406,673,0,0,0,0,0,0,0,0,0,-1,1630,351,0,0
413,673,0,0,0,0,0,0,0,0,0,-1,1637,351,0,0
420,673,0,0,0,0,0,0,0,0,0,-1,1644,351,0,0
427,673,0,0,0,0,0,0,0,0,0,-1,1651,351,0,0
434,673,0,0,0,0,0,0,0,0,0,-1,1658,351,0,0
441,673,0,0,0,0,0,0,0,0,0,-1,1665,351,0,0
448,673,0,0,0,0,0,0,0,0,0,-1,1672,351,0,0
455,673,0,0,0,0,0,0,0,0,0,-1,1679,351,0,0
462,673,0,0,0,0,0,0,0,0,0,-1,1686,351,0,0
469,673,0,0,0,0,0,0,0,0,0,-1,1693,351,0,0
476,673,0,0,0,0,0,0,0,0,0,-1,1700,351,0,0
483,673,0,0,0,0,0,0,0,0,0,-1,1707,351,0,0
490,673,0,0,0,0,0,0,0,0,0,-1,1714,351,0,0
497,673,0,0,0,0,0,0,0,0,0,-1,1721,351,0,0
504,673,0,0,0,0,0,0,0,0,0,-1,1728,351,0,0
511,673,0,0,0,0,0,0,0,0,0,-1,1735,351,0,0
518,673,0,0,0,0,0,0,0,0,0,-1,1742,351,0,0
525,673,0,0,0,0,0,0,0,0,0,-1,1749,351,0,0
532,673,0,0,0,0,0,0,0,0,0,-1,1756,351,0,0
539,673,0,0,0,0,0,0,0,0,0,-1,1763,351,0,0
546,673,0,0,0,0,0,0,0,0,0,-1,1770,351,0,0
553,673,0,0,0,0,0,0,0,0,0,-1,1777,351,0,0
560,673,0,0,0,0,0,0,0,0,0,-1,1784,351,0,0
567,673,0,0,0,0,0,0,0,0,0,-1,1791,351,0,0
574,673,0,0,0,0,0,0,0,0,0,-1,1798,351,0,0
581,673,0,0,0,0,0,0,0,0,0,-1,1805,351,0,0
588,673,0,0,0,0,0,0,0,0,0,-1,1812,351,0,0
595,673,0,0,0,0,0,0,0,0,0,-1,1819,351,0,0
602,673,0,0,0,0,0,0,0,0,0,-1,1826,351,0,0
609,673,0,0,0,0,0,0,0,0,0,-1,1833,351,0,0
616,673,0,0,0,0,0,0,0,0,0,-1,1840,351,0,0
623,673,0,0,0,0,0,0,0,0,0,-1,1847,351,0,0
630,673,0,0,0,0,0,0,0,0,0,-1,1854,351,0,0
637,673,0,0,0,0,0,0,0,0,0,-1,1861,351,0,0
644,673,0,0,0,0,0,0,0,0,0,-1,1868,351,0,0
651,673,0,0,0,0,0,0,0,0,0,-1,1875,351,0,0
658,673,0,0,0,0,0,0,0,0,0,-1,1882,351,0,0
665,673,0,0,0,0,0,0,0,0,0,-1,1889,351,0,0
672,673,0,0,0,0,0,0,0,0,0,-1,1896,351,0,0
679,673,0,0,0,0,0,0,0,0,0,-1,1903,351,0,0
686,673,0,0,0,0,0,0,0,0,0,-1,1910,351,0,0
693,673,0,0,0,0,0,0,0,0,0,-1,1917,351,0,0
700,673,0,0,0,0,0,0,0,0,0,-1,1924,351,0,0
707,673,0,0,0,0,0,0,0,0,0,-1,1931,351,0,0
714,673,0,0,0,0,0,0,0,0,0,-1,1938,351,0,0
721,673,0,0,0,0,0,0,0,0,0,-1,1945,351,0,0
728,673,0,0,0,0,0,0,0,0,0,-1,1952,351,0,0
735,673,0,0,0,0,0,0,0,0,0,-1,1959,351,0,0
742,673,0,0,0,0,0,0,0,0,0,-1,1966,351,0,0
749,673,0,0,0,0,0,0,0,0,0,-1,1973,351,0,0
756,673,0,0,0,0,0,0,0,0,0,-1,1980,351,0,0
763,673,0,0,0,0,0,0,0,0,0,-1,1987,351,0,0
770,673,0,0,0,0,0,0,0,0,0,-1,1994,351,0,0
777,673,0,0,0,0,0,0,0,0,0,-1,2001,351,0,0
784,673,0,0,0,0,0,0,0,0,0,-1,2008,351,0,0
791,673,0,0,0,0,0,0,0,0,0,-1,2015,351,0,0
798,673,0,0,0,0,0,0,0,0,0,-1,2022,351,0,0
805,673,0,0,0,0,0,0,0,0,0,-1,2029,351,0,0
812,673,0,0,0,0,0,0,0,0,0,-1,2036,351,0,0
-700,666,0,0,0,0,0,0,0,0,0,-1,524,358,0,0
-693,666,0,0,0,0,0,0,0,0,0,-1,531,358,0,0
-686,666,0,0,0,0,0,0,0,0,0,-1,538,358,0,0
-679,666,0,0,0,0,0,0,0,0,0,-1,545,358,0,0
-672,666,0,0,0,0,0,0,0,0,0,-1,552,358,0,0
-665,666,0,0,0,0,0,0,0,0,0,-1,559,358,0,0
-658,666,0,0,0,0,0,0,0,0,0,-1,566,358,0,0
-651,666,0,0,0,0,0,0,0,0,0,-1,573,358,0,0
-644,666,0,0,0,0,0,0,0,0,0,-1,580,358,0,0
-637,666,0,0,0,0,0,0,0,0,0,-1,587,358,0,0
-630,666,0,0,0,0,0,0,0,0,0,-1,594,358,0,0
-623,666,0,0,0,0,0,0,0,0,0,-1,601,358,0,0
-616,666,0,0,0,0,0,0,0,0,0,-1,608,358,0,0
-609,666,0,0,0,0,0,0,0,0,0,-1,615,358,0,0
-602,666,0,0,0,0,0,0,0,0,0,-1,622,358,0,0
-595,666,0,0,0,0,0,0,0,0,0,-1,629,358,0,0
-588,666,0,0,0,0,0,0,0,0,0,-1,636,358,0,0
-581,666,0,0,0,0,0,0,0,0,0,-1,643,358,0,0
-574,666,0,0,0,0,0,0,0,0,0,-1,650,358,0,0
-567,666,0,0,0,0,0,0,0,0,0,-1,657,358,0,0
-560,666,0,0,0,0,0,0,0,0,0,-1,664,358,0,0
-553,666,0,0,0,0,0,0,0,0,0,-1,671,358,0,0
-546,666,0,0,0,0,0,0,0,0,0,-1,678,358,0,0
-539,666,0,0,0,0,0,0,0,0,0,-1,685,358,0,0
-532,666,0,0,0,0,0,0,0,0,0,-1,692,358,0,0
-525,666,0,0,0,0,0,0,0,0,0,-1,699,358,0,0
-518,666,0,0,0,0,0,0,0,0,0,-1,706,358,0,0
-511,666,0,0,0,0,0,0,0,0,0,-1,713,358,0,0
-504,666,0,0,0,0,0,0,0,0,0,-1,720,358,0,0
-497,666,0,0,0,0,0,0,0,0,0,-1,727,358,0,0
-490,666,0,0,0,0,0,0,0,0,0,-1,734,358,0,0
-483,666,0,0,0,0,0,0,0,0,0,-1,741,358,0,0
-476,666,0,0,0,0,0,0,0,0,0,-1,748,358,0,0
-469,666,0,0,0,0,0,0,0,0,0,-1,755,358,0,0
-462,666,0,0,0,0,0,0,0,0,0,-1,762,358,0,0
-455,666,0,0,0,0,0,0,0,0,0,-1,769,358,0,0
-448,666,0,0,0,0,0,0,0,0,0,-1,776,358,0,0
-441,666,0,0,0,0,0,0,0,0,0,-1,783,358,0,0
-434,666,0,0,0,0,0,0,0,0,0,-1,790,358,0,0
-427,666,0,0,0,0,0,0,0,0,0,-1,797,358,0,0
-420,666,0,0,0,0,0,0,0,0,0,-1,804,358,0,0
-413,666,0,0,0,0,0,0,0,0,0,-1,811,358,0,0
-406,666,0,0,0,0,0,0,0,0,0,-1,818,358,0,0
-399,666,0,0,0,0,0,0,0,0,0,-1,825,358,0,0
-392,666,0,0,0,0,0,0,0,0,0,-1,832,358,0,0
-385,666,0,0,0,0,0,0,0,0,0,-1,839,358,0,0
-378,666,0,0,0,0,0,0,0,0,0,-1,846,358,0,0
-371,666,0,0,0,0,0,0,0,0,0,-1,853,358,0,0
-364,666,0,0,0,0,0,0,0,0,0,-1,860,358,0,0
-357,666,0,0,0,0,0,0,0,0,0,-1,867,358,0,0
-350,666,0,0,0,0,0,0,0,0,0,-1,874,358,0,0
-343,666,0,0,0,0,0,0,0,0,0,-1,881,358,0,0
-336,666,0,0,0,0,0,0,0,0,0,-1,888,358,0,0
-329,666,0,0,0,0,0,0,0,0,0,-1,895,358,0,0
-322,666,0,0,0,0,0,0,0,0,0,-1,902,358,0,0
-315,666,0,0,0,0,0,0,0,0,0,-1,909,358,0,0
-308,666,0,0,0,0,0,0,0,0,0,-1,916,358,0,0
-301,666,0,0,0,0,0,0,0,0,0,-1,923,358,0,0
-294,666,0,0,0,0,0,0,0,0,0,-1,930,358,0,0
-287,666,0,0,0,0,0,0,0,0,0,-1,937,358,0,0
-280,666,0,0,0,0,0,0,0,0,0,-1,944,358,0,0
-273,666,0,0,0,0,0,0,0,0,0,-1,951,358,0,0
-266,666,0,0,0,0,0,0,0,0,0,-1,958,358,0,0
-259,666,0,0,0,0,0,0,0,0,0,-1,965,358,0,0
-252,666,0,0,0,0,0,0,0,0,0,-1,972,358,0,0
-245,666,0,0,0,0,0,0,0,0,0,-1,979,358,0,0
-238,666,0,0,0,0,0,0,0,0,0,-1,986,358,0,0
-231,666,0,0,0,0,0,0,0,0,0,-1,993,358,0,0
-224,666,0,0,0,0,0,0,0,0,0,-1,1000,358,0,0
-217,666,0,0,0,0,0,0,0,0,0,-1,1007,358,0,0
-210,666,0,0,0,0,0,0,0,0,0,-1,1014,358,0,0
-203,666,0,0,0,0,0,0,0,0,0,-1,1021,358,0,0
-196,666,4.03418,-28.8724,0,0,0,0,0,0,0,-1,1028,358,4.03422,28.8724
-189,666,5.00366,-29.597,0,0,0,0,0,0,0,-1,1035,358,5.00363,29.597
-182,666,6.83252,-30.9843,0,0,0,0,0,0,0,-1,1042,358,6.83247,30.9844
-175,666,7.01611,-31.8763,0,0,0,0,0,0,0,-1,1049,358,7.01617,31.8762
-168,666,7.21545,-32.7414,0,0,0,0,0,0,0,-1,1056,358,7.2154,32.7414
-161,666,7.69116,-33.6269,0,0,0,0,0,0,0,-1,1063,358,7.69121,33.6269
-154,666,3.79041,-37.9204,0,0,0,0,0,0,0,-1,1070,358,3.79034,37.9204
-147,666,4.17908,-37.7466,0,0,0,0,0,0,0,-1,1077,358,4.17912,37.7466
-140,666,4.54309,-37.735,0,0,0,0,0,0,0,-1,1084,358,4.54304,37.735
-133,666,4.65723,-39.0643,0,0,0,0,0,0,0,-1,1091,358,4.65727,39.0643
-126,666,5.02368,-38.0699,0,0,0,0,0,0,0,-1,1098,358,5.02363,38.0698
-119,666,5.39001,-37.0754,0,0,0,0,0,0,0,-1,1105,358,5.38999,37.0754
-112,666,6.77014,-32.8165,0,0,0,0,0,0,0,-1,1112,358,6.77013,32.8165
-105,666,6.30908,-29.0855,0,0,0,0,0,0,0,-1,1119,358,6.30905,29.0855
-98,666,15.4427,-31.5168,0,0,0,0,0,0,0,-1,1126,358,15.4428,31.5168
-91,666,9.5127,-25.1347,0,0,0,0,0,0,0,-1,1133,358,9.51269,25.1347
-84,666,2.91589,-19.4071,0,0,0,0,0,0,0,-1,1140,358,2.91592,19.4071
-77,666,-3.48083,-14.0782,0,0,0,0,0,0,0,-1,1147,358,-3.48081,14.0782
-70,666,-9.99438,-8.90146,0,0,0,0,0,0,0,-1,1154,358,-9.99433,8.90146
-63,666,-11.7778,-0.975189,0,0,0,0,0,0,0,-1,1161,358,-11.7778,0.97519
-56,666,0.424683,-2.04132,0,0,0,0,0,0,0,-1,1168,358,0.424665,2.04132
-49,666,0.754395,-2.23169,0,0,0,0,0,0,0,-1,1175,358,0.754383,2.23169
-42,666,1.34473,-3.53897,0,0,0,0,0,0,0,-1,1182,358,1.34476,3.53896
-35,666,6.86401,-47.8912,0,0,0,0,0,0,0,-1,1189,358,6.86407,47.8912
-28,666,7.11975,-47.6512,0,0,0,0,0,0,0,-1,1196,358,7.11979,47.6512
-21,666,7.04138,-47.9372,-0.00104307,0.0198099,0.00843807,0.0227966,-0.00402973,1.23061,0.0167038,0.0374677,1203,358,7.04142,47.9372
-14,666,6.8772,-48.1984,0.000729815,0.023152,0.00946721,0.0266146,-0.00273277,1.22016,0.0187206,0.0336335,1210,358,6.87719,48.1984
-7,666,6.76953,-48.42,0.00243048,0.0268587,0.0102677,0.030601,-0.00131189,1.22128,0.0208517,0.0214769,1217,358,6.76947,48.42
0,666,6.74512,-48.6479,0.00400096,0.0305758,0.0110602,0.0345766,1.24797e-07,1.22371,0.0230511,0.0137806,1224,358,6.74515,48.6479
7,666,6.64917,-48.7499,0.00513321,0.0337417,0.0117595,0.0379549,0.000919988,1.22676,0.0250022,0.0199614,1231,358,6.64919,48.7499
14,666,6.58569,-48.7973,0.00592292,0.0373353,0.0125006,0.0417027,0.00155553,1.23468,0.027298,0.0203956,1238,358,6.58569,48.7973
21,666,6.49878,-48.9997,0.00634247,0.0415721,0.0131318,0.0459283,0.00198628,1.25049,0.0299787,0.0153754,1245,358,6.49874,48.9997
28,666,6.43958,-49.1314,0.00668395,0.0453439,0.013541,0.0496149,0.00241294,1.26526,0.0323024,0.0225458,1252,358,6.43961,49.1315
35,666,6.42773,-49.1195,0.00752008,0.04907,0.0123866,0.0524824,0.0041077,1.30198,0.0337026,0.0217499,1259,358,6.42775,49.1195
42,666,6.31775,-49.2148,0.0081713,0.053748,0.0109068,0.0562236,0.00569572,1.3476,0.0357355,0.0168731,1266,358,6.31775,49.2148
49,666,6.22437,-49.2773,0.00786243,0.0567433,0.00956895,0.0585498,0.00605597,1.38421,0.0371793,0.0155723,1273,358,6.22438,49.2773
56,666,6.18762,-49.3057,0.00664241,0.0592319,0.0082408,0.060493,0.00538131,1.41894,0.0386599,0.0163251,1280,358,6.18761,49.3057
63,666,6.13794,-49.3855,0.00468281,0.0606693,0.00632792,0.0613756,0.0039765,1.45964,0.0396581,0.018824,1287,358,6.13793,49.3855
70,666,6.0968,-49.3405,0.00275742,0.0609071,0.00430218,0.0612236,0.00244085,1.49734,0.040027,0.0192664,1294,358,6.0968,49.3405
77,666,6.05884,-49.2174,0.00030796,0.0597434,0.00235749,0.0598368,0.000214597,1.53121,0.0398198,0.0237349,1301,358,6.05888,49.2174
84,666,6.05762,-49.2592,-0.0022725,0.057086,0.000974488,0.057102,-0.00228849,1.55439,0.0388533,0.0314566,1308,358,6.05765,49.2592
91,666,5.95532,-49.2774,-0.00514851,0.0539546,-0.000246992,0.0539557,-0.00514954,-1.56662,0.0378041,0.0276923,1315,358,5.95534,49.2774
98,666,5.77185,-49.1721,-0.00784674,0.0509267,-0.00094557,0.0509419,-0.00786194,-1.55471,0.0368624,0.0236973,1322,358,5.77189,49.1722
105,666,5.63757,-49.0118,-0.0102316,0.048194,-0.00132486,0.048224,-0.0102616,-1.54814,0.0360599,0.025939,1329,358,5.63762,49.0118
112,666,5.59705,-48.8721,0,0,0,0,0,0,0,-1,1336,358,5.597,48.8721
119,666,5.61487,-48.6709,0,0,0,0,0,0,0,-1,1343,358,5.61492,48.6709
126,666,5.38086,-48.2566,-0.0137295,0.0408502,-0.000955855,0.040867,-0.0137462,-1.55329,0.0328013,0.036659,1350,358,5.38083,48.2566
133,666,5.3252,-48.1251,-0.013955,0.0398076,-0.00037912,0.0398103,-0.0139577,-1.56375,0.0322169,0.0302772,1357,358,5.32521,48.1251
140,666,5.28162,-48.1207,-0.01436,0.0387389,0.000693738,0.038748,-0.0143691,1.55773,0.0317255,0.030571,1364,358,5.28162,48.1207
147,666,5.15503,-47.9165,-0.014153,0.0372793,0.00132704,0.0373135,-0.0141872,1.54502,0.030717,0.028833,1371,358,5.15507,47.9165
154,666,5.14355,-47.4618,-0.013045,0.037261,0.00140079,0.0372999,-0.013084,1.54298,0.0301884,0.0251941,1378,358,5.14357,47.4618
161,666,5.13574,-47.1634,-0.0116877,0.0366082,0.0012453,0.0366403,-0.0117198,1.54503,0.0291302,0.0326431,1385,358,5.13572,47.1634
168,666,5.06042,-47.1683,0,0,0,0,0,0,0,-1,1392,358,5.06041,47.1683
175,666,5.1864,-47.0096,0,0,0,0,0,0,0,-1,1399,358,5.18637,47.0097
182,666,2.60876,-5.17068,0,0,0,0,0,0,0,-1,1406,358,2.6088,5.17068
189,666,2.46973,-5.49979,0,0,0,0,0,0,0,-1,1413,358,2.46975,5.49979
196,666,2.32458,-5.23651,0,0,0,0,0,0,0,-1,1420,358,2.32461,5.23653
203,666,2.28064,-3.88004,0,0,0,0,0,0,0,-1,1427,358,2.28059,3.88003
210,666,3.02576,-5.83548,0,0,0,0,0,0,0,-1,1434,358,3.02581,5.83547
217,666,2.30444,-5.36011,0,0,0,0,0,0,0,-1,1441,358,2.30447,5.3601
224,666,1.82324,-6.03101,0,0,0,0,0,0,0,-1,1448,358,1.82322,6.031
231,666,2.29797,-10.1093,0,0,0,0,0,0,0,-1,1455,358,2.29801,10.1093
238,666,2.52429,-6.10568,0,0,0,0,0,0,0,-1,1462,358,2.52423,6.10567
245,666,4.53345,-1.38205,0,0,0,0,0,0,0,-1,1469,358,4.53349,1.38204
252,666,4.77405,-0.246979,0,0,0,0,0,0,0,-1,1476,358,4.77405,0.246993
259,666,4.83655,1.14087,0,0,0,0,0,0,0,-1,1483,358,4.83652,-1.14087
266,666,6.14148,0.749512,0,0,0,0,0,0,0,-1,1490,358,6.14144,-0.749519
273,666,3.17737,-33.7881,0,0,0,0,0,0,0,-1,1497,358,3.17735,33.7881
280,666,3.37268,-35.2123,0,0,0,0,0,0,0,-1,1504,358,3.37266,35.2123
287,666,-7.06934,-20.3464,0,0,0,0,0,0,0,-1,1511,358,-7.06933,20.3464
294,666,-4.08215,-22.6734,0,0,0,0,0,0,0,-1,1518,358,-4.08212,22.6734
301,666,-5.9176,-23.2736,0,0,0,0,0,0,0,-1,1525,358,-5.91758,23.2736
308,666,-7.45471,-24.766,0,0,0,0,0,0,0,-1,1532,358,-7.45475,24.766
315,666,1.76294,-0.284027,0,0,0,0,0,0,0,-1,1539,358,1.76291,0.284016
322,666,0,0,0,0,0,0,0,0,0,-1,1546,358,0,0
329,666,0,0,0,0,0,0,0,0,0,-1,1553,358,0,0
336,666,0,0,0,0,0,0,0,0,0,-1,1560,358,0,0
343,666,0,0,0,0,0,0,0,0,0,-1,1567,358,0,0
350,666,0,0,0,0,0,0,0,0,0,-1,1574,358,0,0
357,666,0,0,0,0,0,0,0,0,0,-1,1581,358,0,0
364,666,0,0,0,0,0,0,0,0,0,-1,1588,358,0,0
371,666,0,0,0,0,0,0,0,0,0,-1,1595,358,0,0
378,666,0,0,0,0,0,0,0,0,0,-1,1602,358,0,0
385,666,0,0,0,0,0,0,0,0,0,-1,1609,358,0,0
392,666,0,0,0,0,0,0,0,0,0,-1,1616,358,0,0
399,666,0,0,0,0,0,0,0,0,0,-1,1623,358,0,0
406,666,0,0,0,0,0,0,0,0,0,-1,1630,358,0,0
413,666,0,0,0,0,0,0,0,0,0,-1,1637,358,0,0
420,666,0,0,0,0,0,0,0,0,0,-1,1644,358,0,0
427,666,0,0,0,0,0,0,0,0,0,-1,1651,358,0,0
434,666,0,0,0,0,0,0,0,0,0,-1,1658,358,0,0
441,666,0,0,0,0,0,0,0,0,0,-1,1665,358,0,0
448,666,0,0,0,0,0,0,0,0,0,-1,1672,358,0,0
455,666,0,0,0,0,0,0,0,0,0,-1,1679,358,0,0
462,666,0,0,0,0,0,0,0,0,0,-1,1686,358,0,0
469,666,0,0,0,0,0,0,0,0,0,-1,1693,358,0,0
476,666,0,0,0,0,0,0,0,0,0,-1,1700,358,0,0
483,666,0,0,0,0,0,0,0,0,0,-1,1707,358,0,0
490,666,0,0,0,0,0,0,0,0,0,-1,1714,358,0,0
497,666,0,0,0,0,0,0,0,0,0,-1,1721,358,0,0
504,666,0,0,0,0,0,0,0,0,0,-1,1728,358,0,0
511,666,0,0,0,0,0,0,0,0,0,-1,1735,358,0,0
518,666,0,0,0,0,0,0,0,0,0,-1,1742,358,0,0
525,666,0,0,0,0,0,0,0,0,0,-1,1749,358,0,0
532,666,0,0,0,0,0,0,0,0,0,-1,1756,358,0,0
539,666,0,0,0,0,0,0,0,0,0,-1,1763,358,0,0
546,666,0,0,0,0,0,0,0,0,0,-1,1770,358,0,0
553,666,0,0,0,0,0,0,0,0,0,-1,1777,358,0,0
560,666,0,0,0,0,0,0,0,0,0,-1,1784,358,0,0
567,666,0,0,0,0,0,0,0,0,0,-1,1791,358,0,0
574,666,0,0,0,0,0,0,0,0,0,-1,1798,358,0,0
581,666,0,0,0,0,0,0,0,0,0,-1,1805,358,0,0
588,666,0,0,0,0,0,0,0,0,0,-1,1812,358,0,0
595,666,0,0,0,0,0,0,0,0,0,-1,1819,358,0,0
602,666,0,0,0,0,0,0,0,0,0,-1,1826,358,0,0
609,666,0,0,0,0,0,0,0,0,0,-1,1833,358,0,0
616,666,0,0,0,0,0,0,0,0,0,-1,1840,358,0,0
623,666,0,0,0,0,0,0,0,0,0,-1,1847,358,0,0
630,666,0,0,0,0,0,0,0,0,0,-1,1854,358,0,0
637,666,0,0,0,0,0,0,0,0,0,-1,1861,358,0,0
644,666,0,0,0,0,0,0,0,0,0,-1,1868,358,0,0
651,666,0,0,0,0,0,0,0,0,0,-1,1875,358,0,0
658,666,0,0,0,0,0,0,0,0,0,-1,1882,358,0,0
665,666,0,0,0,0,0,0,0,0,0,-1,1889,358,0,0
672,666,0,0,0,0,0,0,0,0,0,-1,1896,358,0,0
679,666,0,0,0,0,0,0,0,0,0,-1,1903,358,0,0
686,666,0,0,0,0,0,0,0,0,0,-1,1910,358,0,0
693,666,0,0,0,0,0,0,0,0,0,-1,1917,358,0,0
700,666,0,0,0,0,0,0,0,0,0,-1,1924,358,0,0
707,666,0,0,0,0,0,0,0,0,0,-1,1931,358,0,0
714,666,0,0,0,0,0,0,0,0,0,-1,1938,358,0,0
721,666,0,0,0,0,0,0,0,0,0,-1,1945,358,0,0
728,666,0,0,0,0,0,0,0,0,0,-1,1952,358,0,0
735,666,0,0,0,0,0,0,0,0,0,-1,1959,358,0,0
742,666,0,0,0,0,0,0,0,0,0,-1,1966,358,0,0
749,666,0,0,0,0,0,0,0,0,0,-1,1973,358,0,0
756,666,0,0,0,0,0,0,0,0,0,-1,1980,358,0,0
763,666,0,0,0,0,0,0,0,0,0,-1,1987,358,0,0
770,666,0,0,0,0,0,0,0,0,0,-1,1994,358,0,0
777,666,0,0,0,0,0,0,0,0,0,-1,2001,358,0,0
784,666,0,0,0,0,0,0,0,0,0,-1,2008,358,0,0
791,666,0,0,0,0,0,0,0,0,0,-1,2015,358,0,0
798,666,0,0,0,0,0,0,0,0,0,-1,2022,358,0,0
805,666,0,0,0,0,0,0,0,0,0,-1,2029,358,0,0
812,666,0,0,0,0,0,0,0,0,0,-1,2036,358,0,0
-700,659,0,0,0,0,0,0,0,0,0,-1,524,365,0,0
-693,659,0,0,0,0,0,0,0,0,0,-1,531,365,0,0
-686,659,0,0,0,0,0,0,0,0,0,-1,538,365,0,0
-679,659,0,0,0,0,0,0,0,0,0,-1,545,365,0,0
-672,659,0,0,0,0,0,0,0,0,0,-1,552,365,0,0
-665,659,0,0,0,0,0,0,0,0,0,-1,559,365,0,0
-658,659,0,0,0,0,0,0,0,0,0,-1,566,365,0,0
-651,659,0,0,0,0,0,0,0,0,0,-1,573,365,0,0
-644,659,0,0,0,0,0,0,0,0,0,-1,580,365,0,0
-637,659,0,0,0,0,0,0,0,0,0,-1,587,365,0,0
-630,659,0,0,0,0,0,0,0,0,0,-1,594,365,0,0
-623,659,0,0,0,0,0,0,0,0,0,-1,601,365,0,0
-616,659,0,0,0,0,0,0,0,0,0,-1,608,365,0,0
-609,659,0,0,0,0,0,0,0,0,0,-1,615,365,0,0
-602,659,0,0,0,0,0,0,0,0,0,-1,622,365,0,0
-595,659,0,0,0,0,0,0,0,0,0,-1,629,365,0,0
-588,659,0,0,0,0,0,0,0,0,0,-1,636,365,0,0
-581,659,0,0,0,0,0,0,0,0,0,-1,643,365,0,0
-574,659,0,0,0,0,0,0,0,0,0,-1,650,365,0,0
-567,659,0,0,0,0,0,0,0,0,0,-1,657,365,0,0
-560,659,0,0,0,0,0,0,0,0,0,-1,664,365,0,0
-553,659,0,0,0,0,0,0,0,0,0,-1,671,365,0,0
-546,659,0,0,0,0,0,0,0,0,0,-1,678,365,0,0
-539,659,0,0,0,0,0,0,0,0,0,-1,685,365,0,0
-532,659,0,0,0,0,0,0,0,0,0,-1,692,365,0,0
-525,659,0,0,0,0,0,0,0,0,0,-1,699,365,0,0
-518,659,0,0,0,0,0,0,0,0,0,-1,706,365,0,0
-511,659,0,0,0,0,0,0,0,0,0,-1,713,365,0,0
-504,659,0,0,0,0,0,0,0,0,0,-1,720,365,0,0
-497,659,0,0,0,0,0,0,0,0,0,-1,727,365,0,0
-490,659,0,0,0,0,0,0,0,0,0,-1,734,365,0,0
-483,659,0,0,0,0,0,0,0,0,0,-1,741,365,0,0
-476,659,0,0,0,0,0,0,0,0,0,-1,748,365,0,0
-469,659,0,0,0,0,0,0,0,0,0,-1,755,365,0,0
-462,659,0,0,0,0,0,0,0,0,0,-1,762,365,0,0
-455,659,0,0,0,0,0,0,0,0,0,-1,769,365,0,0
-448,659,0,0,0,0,0,0,0,0,0,-1,776,365,0,0
-441,659,0,0,0,0,0,0,0,0,0,-1,783,365,0,0
-434,659,0,0,0,0,0,0,0,0,0,-1,790,365,0,0
-427,659,0,0,0,0,0,0,0,0,0,-1,797,365,0,0
-420,659,0,0,0,0,0,0,0,0,0,-1,804,365,0,0
-413,659,0,0,0,0,0,0,0,0,0,-1,811,365,0,0
-406,659,0,0,0,0,0,0,0,0,0,-1,818,365,0,0
-399,659,0,0,0,0,0,0,0,0,0,-1,825,365,0,0
-392,659,0,0,0,0,0,0,0,0,0,-1,832,365,0,0
-385,659,0,0,0,0,0,0,0,0,0,-1,839,365,0,0
-378,659,0,0,0,0,0,0,0,0,0,-1,846,365,0,0
-371,659,0,0,0,0,0,0,0,0,0,-1,853,365,0,0
-364,659,0,0,0,0,0,0,0,0,0,-1,860,365,0,0
-357,659,0,0,0,0,0,0,0,0,0,-1,867,365,0,0
-350,659,0,0,0,0,0,0,0,0,0,-1,874,365,0,0
-343,659,0,0,0,0,0,0,0,0,0,-1,881,365,0,0
-336,659,0,0,0,0,0,0,0,0,0,-1,888,365,0,0
-329,659,0,0,0,0,0,0,0,0,0,-1,895,365,0,0
-322,659,0,0,0,0,0,0,0,0,0,-1,902,365,0,0
-315,659,0,0,0,0,0,0,0,0,0,-1,909,365,0,0
-308,659,0,0,0,0,0,0,0,0,0,-1,916,365,0,0
-301,659,0,0,0,0,0,0,0,0,0,-1,923,365,0,0
-294,659,0,0,0,0,0,0,0,0,0,-1,930,365,0,0
-287,659,0,0,0,0,0,0,0,0,0,-1,937,365,0,0
-280,659,0,0,0,0,0,0,0,0,0,-1,944,365,0,0
-273,659,0,0,0,0,0,0,0,0,0,-1,951,365,0,0
-266,659,0,0,0,0,0,0,0,0,0,-1,958,365,0,0
-259,659,0,0,0,0,0,0,0,0,0,-1,965,365,0,0
-252,659,0,0,0,0,0,0,0,0,0,-1,972,365,0,0
-245,659,0,0,0,0,0,0,0,0,0,-1,979,365,0,0
-238,659,0,0,0,0,0,0,0,0,0,-1,986,365,0,0
-231,659,0,0,0,0,0,0,0,0,0,-1,993,365,0,0
-224,659,0,0,0,0,0,0,0,0,0,-1,1000,365,0,0
-217,659,10.1305,-25.2622,0,0,0,0,0,0,0,-1,1007,365,10.1305,25.2622
-210,659,9.65643,-25.515,0,0,0,0,0,0,0,-1,1014,365,9.65642,25.515
-203,659,8.58911,-25.7432,0,0,0,0,0,0,0,-1,1021,365,8.58916,25.7432
-196,659,2.68323,-27.8121,0,0,0,0,0,0,0,-1,1028,365,2.6832,27.8121
-189,659,6.88049,-28.9412,0,0,0,0,0,0,0,-1,1035,365,6.88045,28.9412
-182,659,6.94189,-30.6316,0,0,0,0,0,0,0,-1,1042,365,6.94189,30.6316
-175,659,6.948,-32.0092,0,0,0,0,0,0,0,-1,1049,365,6.94798,32.0093
-168,659,7.1416,-32.7405,0,0,0,0,0,0,0,-1,1056,365,7.14157,32.7405
-161,659,7.57361,-33.7099,0,0,0,0,0,0,0,-1,1063,365,7.57355,33.7099
-154,659,7.71448,-34.8995,0,0,0,0,0,0,0,-1,1070,365,7.7145,34.8995
-147,659,5.46606,-37.758,0,0,0,0,0,0,0,-1,1077,365,5.46601,37.758
-140,659,5.7356,-37.755,0,0,0,0,0,0,0,-1,1084,365,5.73562,37.755
-133,659,5.91455,-37.9017,0,0,0,0,0,0,0,-1,1091,365,5.9146,37.9017
-126,659,6.31226,-37.9904,0,0,0,0,0,0,0,-1,1098,365,6.3122,37.9904
-119,659,6.26941,-35.0837,0,0,0,0,0,0,0,-1,1105,365,6.26943,35.0837
-112,659,6.24353,-35.0562,0,0,0,0,0,0,0,-1,1112,365,6.24349,35.0562
-105,659,5.38696,-30.5854,0,0,0,0,0,0,0,-1,1119,365,5.387,30.5854
-98,659,4.68042,-26.2438,0,0,0,0,0,0,0,-1,1126,365,4.68041,26.2438
-91,659,4.20776,-20.8654,0,0,0,0,0,0,0,-1,1133,365,4.20777,20.8654
-84,659,2.8584,-17.8303,0,0,0,0,0,0,0,-1,1140,365,2.85836,17.8303
-77,659,2.80139,-15.3457,0,0,0,0,0,0,0,-1,1147,365,2.80139,15.3457
-70,659,2.9353,-12.7028,0,0,0,0,0,0,0,-1,1154,365,2.93533,12.7028
-63,659,2.11267,-9.7796,0,0,0,0,0,0,0,-1,1161,365,2.11266,9.7796
-56,659,2.11182,-9.91541,0,0,0,0,0,0,0,-1,1168,365,2.11178,9.91541
-49,659,7.04578,-47.4141,0,0,0,0,0,0,0,-1,1175,365,7.04577,47.4141
-42,659,6.93127,-47.5642,0,0,0,0,0,0,0,-1,1182,365,6.9313,47.5642
-35,659,6.8501,-47.8355,-0.00621988,0.0125191,0.0025376,0.0128567,-0.00655744,1.43855,0.0114037,0.0422138,1189,365,6.85006,47.8355
-28,659,6.83484,-47.9863,-0.0045916,0.0142936,0.00416254,0.0151704,-0.00546837,1.3632,0.0123469,0.0162317,1196,365,6.83483,47.9863
-21,659,6.76685,-48.2462,-0.00351508,0.0154855,0.004797,0.0166279,-0.00465748,1.337,0.0129207,0.0136049,1203,365,6.76689,48.2461
-14,659,6.68799,-48.4896,-0.00215698,0.0177039,0.00563228,0.0191899,-0.00364302,1.31283,0.0141647,0.0115293,1210,365,6.68805,48.4896
-7,659,6.62476,-48.6721,-0.00079249,0.0202514,0.00630169,0.0219941,-0.00253524,1.30099,0.0155768,0.0112516,1217,365,6.62478,48.6721
0,659,6.59863,-48.8227,0.000514544,0.0228488,0.006963,0.0248418,-0.00147842,1.29203,0.0170754,0.00926058,1224,365,6.59869,48.8227
7,659,6.56104,-48.9326,0.00152512,0.0251481,0.00755301,0.0273566,-0.000683349,1.28633,0.0184697,0.00911127,1231,365,6.56099,48.9326
14,659,6.48926,-49.0299,0.00224566,0.0277803,0.00820324,0.0301885,-0.000162581,1.28525,0.0201801,0.0122238,1238,365,6.4892,49.0299
21,659,6.43213,-49.1596,0.00266535,0.0309461,0.00877563,0.0334479,0.000163551,1.29308,0.0222443,0.0130275,1245,365,6.43209,49.1596
28,659,6.36011,-49.2763,0.00303111,0.0336855,0.00913952,0.0362036,0.000513036,1.30195,0.0239665,0.012263,1252,365,6.36006,49.2763
35,659,6.34631,-49.3658,0.00380037,0.0364736,0.0083426,0.0384805,0.00179349,1.33472,0.0250772,0.0131409,1259,365,6.34629,49.3657
42,659,6.29419,-49.4391,0.00437015,0.0398719,0.00736905,0.0413407,0.00290134,1.37405,0.0266461,0.0138462,1266,365,6.29419,49.4391
49,659,6.20569,-49.4784,0.00418188,0.0420342,0.00650542,0.043121,0.00309504,1.40526,0.0277732,0.0146459,1273,365,6.20563,49.4784
56,659,6.13867,-49.5011,0.00341997,0.0438534,0.0056249,0.0446214,0.00265205,1.43511,0.0289041,0.0181419,1280,365,6.13873,49.5011
63,659,6.1272,-49.5336,0.00220269,0.0450108,0.00435655,0.0454497,0.00176383,1.4704,0.0297293,0.0181004,1287,365,6.12724,49.5336
70,659,6.05872,-49.5076,0.000995433,0.0453757,0.00300768,0.0455786,0.000792526,1.50344,0.030125,0.0186054,1294,365,6.05875,49.5076
77,659,5.95862,-49.4574,-0.000612905,0.0448362,0.00171993,0.0449012,-0.000677899,1.53303,0.0301627,0.0187926,1301,365,5.95858,49.4574
84,659,5.95251,-49.4614,-0.00234691,0.043326,0.000777529,0.0433392,-0.00236015,1.55378,0.0297108,0.0138934,1308,365,5.9525,49.4614
91,659,5.88403,-49.4031,-0.00430932,0.0414113,-6.40436e-05,0.0414114,-0.0043094,-1.5694,0.0291504,0.0119183,1315,365,5.88406,49.4031
98,659,5.82373,-49.2972,-0.00615649,0.0395536,-0.000510268,0.0395593,-0.00616219,-1.55964,0.0286487,0.00860738,1322,365,5.8237,49.2972
105,659,5.7843,-49.1524,-0.00775842,0.0379543,-0.000721389,0.0379656,-0.0077698,-1.55502,0.0282587,0.00991878,1329,365,5.78425,49.1524
112,659,5.74304,-49.0146,-0.00887484,0.0365281,-0.000771254,0.0365412,-0.00888793,-1.55382,0.0278011,0.0151825,1336,365,5.74306,49.0145
119,659,5.6814,-48.8541,-0.00967818,0.0348436,-0.000693112,0.0348544,-0.00968897,-1.55523,0.0270506,0.017702,1343,365,5.68137,48.8541
126,659,5.60156,-48.6346,-0.0101194,0.0333127,-0.000459604,0.0333175,-0.0101242,-1.56022,0.0262456,0.0152744,1350,365,5.60153,48.6346
133,659,5.53491,-48.4445,-0.0102581,0.0327186,-2.39611e-06,0.0327186,-0.0102581,-1.57074,0.0259175,0.0133291,1357,365,5.53493,48.4445
140,659,5.47034,-48.3261,-0.0106053,0.0319891,0.000957721,0.0320106,-0.0106268,1.54833,0.0256279,0.0112169,1364,365,5.47035,48.3261
147,659,5.40784,-48.1409,-0.0104688,0.0310162,0.00156756,0.0310753,-0.010528,1.53308,0.0249771,0.0104483,1371,365,5.40789,48.1409
154,659,5.33655,-47.8761,-0.00957737,0.0310849,0.00169021,0.0311551,-0.00964751,1.52932,0.0246241,0.011801,1378,365,5.33655,47.8761
161,659,5.29431,-47.5888,-0.00854536,0.0305955,0.0016692,0.0306666,-0.00861641,1.52825,0.0238413,0.0129521,1385,365,5.29426,47.5888
168,659,5.27466,-47.28,-0.00801539,0.0296182,0.00197512,0.0297216,-0.00811877,1.5185,0.0230033,0.0191667,1392,365,5.27468,47.28
175,659,5.25452,-47.0112,-0.00767058,0.0295051,0.00254119,0.029678,-0.00784348,1.50286,0.022853,0.0425654,1399,365,5.25449,47.0112
182,659,5.1156,-46.7123,0,0,0,0,0,0,0,-1,1406,365,5.11563,46.7123
189,659,5.1709,-46.1996,0,0,0,0,0,0,0,-1,1413,365,5.17092,46.1997
196,659,2.41248,-13.4371,0,0,0,0,0,0,0,-1,1420,365,2.41243,13.4371
203,659,2.38623,-12.2163,0,0,0,0,0,0,0,-1,1427,365,2.38617,12.2163
210,659,2.20789,-13.9792,0,0,0,0,0,0,0,-1,1434,365,2.20794,13.9792
217,659,2.24121,-13.487,0,0,0,0,0,0,0,-1,1441,365,2.24116,13.487
224,659,2.3479,-15.2926,0,0,0,0,0,0,0,-1,1448,365,2.34793,15.2926
231,659,2.47974,-17.8629,0,0,0,0,0,0,0,-1,1455,365,2.47976,17.8628
238,659,3.57886,-21.1258,0,0,0,0,0,0,0,-1,1462,365,3.57889,21.1258
245,659,3.29883,-25.0283,0,0,0,0,0,0,0,-1,1469,365,3.29889,25.0283
252,659,2.81909,-24.1604,0,0,0,0,0,0,0,-1,1476,365,2.81905,24.1604
259,659,2.33069,-3.36703,0,0,0,0,0,0,0,-1,1483,365,2.33073,3.36702
266,659,3.40918,-35.2544,0,0,0,0,0,0,0,-1,1490,365,3.40913,35.2544
273,659,3.66003,-40.9905,0,0,0,0,0,0,0,-1,1497,365,3.66009,40.9905
280,659,4.32593,-41.0266,0,0,0,0,0,0,0,-1,1504,365,4.32588,41.0266
287,659,-0.123291,-21.662,0,0,0,0,0,0,0,-1,1511,365,-0.123336,21.662
294,659,-1.84058,-22.1522,0,0,0,0,0,0,0,-1,1518,365,-1.84063,22.1522
301,659,-3.62915,-22.5979,0,0,0,0,0,0,0,-1,1525,365,-3.62915,22.5979
308,659,-5.88599,-22.6992,0,0,0,0,0,0,0,-1,1532,365,-5.88602,22.6992
315,659,-7.94531,-22.8289,0,0,0,0,0,0,0,-1,1539,365,-7.94528,22.829
322,659,-9.72119,-22.57,0,0,0,0,0,0,0,-1,1546,365,-9.7212,22.57
329,659,-7.67749,-23.0449,0,0,0,0,0,0,0,-1,1553,365,-7.67745,23.0449
336,659,-7.71436,-22.4188,0,0,0,0,0,0,0,-1,1560,365,-7.71432,22.4188
343,659,0,0,0,0,0,0,0,0,0,-1,1567,365,0,0
350,659,0,0,0,0,0,0,0,0,0,-1,1574,365,0,0
357,659,0,0,0,0,0,0,0,0,0,-1,1581,365,0,0
364,659,0,0,0,0,0,0,0,0,0,-1,1588,365,0,0
371,659,0,0,0,0,0,0,0,0,0,-1,1595,365,0,0
378,659,0,0,0,0,0,0,0,0,0,-1,1602,365,0,0
385,659,0,0,0,0,0,0,0,0,0,-1,1609,365,0,0
392,659,0,0,0,0,0,0,0,0,0,-1,1616,365,0,0
399,659,0,0,0,0,0,0,0,0,0,-1,1623,365,0,0
406,659,0,0,0,0,0,0,0,0,0,-1,1630,365,0,0
413,659,0,0,0,0,0,0,0,0,0,-1,1637,365,0,0
420,659,0,0,0,0,0,0,0,0,0,-1,1644,365,0,0
427,659,0,0,0,0,0,0,0,0,0,-1,1651,365,0,0
434,659,0,0,0,0,0,0,0,0,0,-1,1658,365,0,0
441,659,0,0,0,0,0,0,0,0,0,-1,1665,365,0,0
448,659,0,0,0,0,0,0,0,0,0,-1,1672,365,0,0
455,659,0,0,0,0,0,0,0,0,0,-1,1679,365,0,0
462,659,0,0,0,0,0,0,0,0,0,-1,1686,365,0,0
469,659,0,0,0,0,0,0,0,0,0,-1,1693,365,0,0
476,659,0,0,0,0,0,0,0,0,0,-1,1700,365,0,0
483,659,0,0,0,0,0,0,0,0,0,-1,1707,365,0,0
490,659,0,0,0,0,0,0,0,0,0,-1,1714,365,0,0
497,659,0,0,0,0,0,0,0,0,0,-1,1721,365,0,0
504,659,0,0,0,0,0,0,0,0,0,-1,1728,365,0,0
511,659,0,0,0,0,0,0,0,0,0,-1,1735,365,0,0
518,659,0,0,0,0,0,0,0,0,0,-1,1742,365,0,0
525,659,0,0,0,0,0,0,0,0,0,-1,1749,365,0,0
532,659,0,0,0,0,0,0,0,0,0,-1,1756,365,0,0
539,659,0,0,0,0,0,0,0,0,0,-1,1763,365,0,0
546,659,0,0,0,0,0,0,0,0,0,-1,1770,365,0,0
553,659,0,0,0,0,0,0,0,0,0,-1,1777,365,0,0
560,659,0,0,0,0,0,0,0,0,0,-1,1784,365,0,0
567,659,0,0,0,0,0,0,0,0,0,-1,1791,365,0,0
574,659,0,0,0,0,0,0,0,0,0,-1,1798,365,0,0
581,659,0,0,0,0,0,0,0,0,0,-1,1805,365,0,0
588,659,0,0,0,0,0,0,0,0,0,-1,1812,365,0,0
595,659,0,0,0,0,0,0,0,0,0,-1,1819,365,0,0
602,659,0,0,0,0,0,0,0,0,0,-1,1826,365,0,0
609,659,0,0,0,0,0,0,0,0,0,-1,1833,365,0,0
616,659,0,0,0,0,0,0,0,0,0,-1,1840,365,0,0
623,659,0,0,0,0,0,0,0,0,0,-1,1847,365,0,0
630,659,0,0,0,0,0,0,0,0,0,-1,1854,365,0,0
637,659,0,0,0,0,0,0,0,0,0,-1,1861,365,0,0
644,659,0,0,0,0,0,0,0,0,0,-1,1868,365,0,0
651,659,0,0,0,0,0,0,0,0,0,-1,1875,365,0,0
658,659,0,0,0,0,0,0,0,0,0,-1,1882,365,0,0
665,659,0,0,0,0,0,0,0,0,0,-1,1889,365,0,0
672,659,0,0,0,0,0,0,0,0,0,-1,1896,365,0,0
679,659,0,0,0,0,0,0,0,0,0,-1,1903,365,0,0
686,659,0,0,0,0,0,0,0,0,0,-1,1910,365,0,0
693,659,0,0,0,0,0,0,0,0,0,-1,1917,365,0,0
700,659,0,0,0,0,0,0,0,0,0,-1,1924,365,0,0
707,659,0,0,0,0,0,0,0,0,0,-1,1931,365,0,0
714,659,0,0,0,0,0,0,0,0,0,-1,1938,365,0,0
721,659,0,0,0,0,0,0,0,0,0,-1,1945,365,0,0
728,659,0,0,0,0,0,0,0,0,0,-1,1952,365,0,0
735,659,0,0,0,0,0,0,0,0,0,-1,1959,365,0,0
742,659,0,0,0,0,0,0,0,0,0,-1,1966,365,0,0
749,659,0,0,0,0,0,0,0,0,0,-1,1973,365,0,0
756,659,0,0,0,0,0,0,0,0,0,-1,1980,365,0,0
763,659,0,0,0,0,0,0,0,0,0,-1,1987,365,0,0
770,659,0,0,0,0,0,0,0,0,0,-1,1994,365,0,0
777,659,0,0,0,0,0,0,0,0,0,-1,2001,365,0,0
784,659,0,0,0,0,0,0,0,0,0,-1,2008,365,0,0
791,659,0,0,0,0,0,0,0,0,0,-1,2015,365,0,0
798,659,0,0,0,0,0,0,0,0,0,-1,2022,365,0,0
805,659,0,0,0,0,0,0,0,0,0,-1,2029,365,0,0
812,659,0,0,0,0,0,0,0,0,0,-1,2036,365,0,0
-700,652,0,0,0,0,0,0,0,0,0,-1,524,372,0,0
-693,652,0,0,0,0,0,0,0,0,0,-1,531,372,0,0
-686,652,0,0,0,0,0,0,0,0,0,-1,538,372,0,0
-679,652,0,0,0,0,0,0,0,0,0,-1,545,372,0,0
-672,652,0,0,0,0,0,0,0,0,0,-1,552,372,0,0
-665,652,0,0,0,0,0,0,0,0,0,-1,559,372,0,0
-658,652,0,0,0,0,0,0,0,0,0,-1,566,372,0,0
-651,652,0,0,0,0,0,0,0,0,0,-1,573,372,0,0
-644,652,0,0,0,0,0,0,0,0,0,-1,580,372,0,0
-637,652,0,0,0,0,0,0,0,0,0,-1,587,372,0,0
-630,652,0,0,0,0,0,0,0,0,0,-1,594,372,0,0
-623,652,0,0,0,0,0,0,0,0,0,-1,601,372,0,0
-616,652,0,0,0,0,0,0,0,0,0,-1,608,372,0,0
-609,652,0,0,0,0,0,0,0,0,0,-1,615,372,0,0
-602,652,0,0,0,0,0,0,0,0,0,-1,622,372,0,0
-595,652,0,0,0,0,0,0,0,0,0,-1,629,372,0,0
-588,652,0,0,0,0,0,0,0,0,0,-1,636,372,0,0
-581,652,0,0,0,0,0,0,0,0,0,-1,643,372,0,0
-574,652,0,0,0,0,0,0,0,0,0,-1,650,372,0,0
-567,652,0,0,0,0,0,0,0,0,0,-1,657,372,0,0
-560,652,0,0,0,0,0,0,0,0,0,-1,664,372,0,0
-553,652,0,0,0,0,0,0,0,0,0,-1,671,372,0,0
-546,652,0,0,0,0,0,0,0,0,0,-1,678,372,0,0
-539,652,0,0,0,0,0,0,0,0,0,-1,685,372,0,0
-532,652,0,0,0,0,0,0,0,0,0,-1,692,372,0,0
-525,652,0,0,0,0,0,0,0,0,0,-1,699,372,0,0
-518,652,0,0,0,0,0,0,0,0,0,-1,706,372,0,0
-511,652,0,0,0,0,0,0,0,0,0,-1,713,372,0,0
-504,652,0,0,0,0,0,0,0,0,0,-1,720,372,0,0
-497,652,0,0,0,0,0,0,0,0,0,-1,727,372,0,0
-490,652,0,0,0,0,0,0,0,0,0,-1,734,372,0,0
-483,652,0,0,0,0,0,0,0,0,0,-1,741,372,0,0
-476,652,0,0,0,0,0,0,0,0,0,-1,748,372,0,0
-469,652,0,0,0,0,0,0,0,0,0,-1,755,372,0,0
-462,652,0,0,0,0,0,0,0,0,0,-1,762,372,0,0
-455,652,0,0,0,0,0,0,0,0,0,-1,769,372,0,0
-448,652,0,0,0,0,0,0,0,0,0,-1,776,372,0,0
-441,652,0,0,0,0,0,0,0,0,0,-1,783,372,0,0
-434,652,0,0,0,0,0,0,0,0,0,-1,790,372,0,0
-427,652,0,0,0,0,0,0,0,0,0,-1,797,372,0,0
-420,652,0,0,0,0,0,0,0,0,0,-1,804,372,0,0
-413,652,0,0,0,0,0,0,0,0,0,-1,811,372,0,0
-406,652,0,0,0,0,0,0,0,0,0,-1,818,372,0,0
-399,652,0,0,0,0,0,0,0,0,0,-1,825,372,0,0
-392,652,0,0,0,0,0,0,0,0,0,-1,832,372,0,0
-385,652,0,0,0,0,0,0,0,0,0,-1,839,372,0,0
-378,652,0,0,0,0,0,0,0,0,0,-1,846,372,0,0
-371,652,0,0,0,0,0,0,0,0,0,-1,853,372,0,0
-364,652,0,0,0,0,0,0,0,0,0,-1,860,372,0,0
-357,652,0,0,0,0,0,0,0,0,0,-1,867,372,0,0
-350,652,0,0,0,0,0,0,0,0,0,-1,874,372,0,0
-343,652,0,0,0,0,0,0,0,0,0,-1,881,372,0,0
-336,652,0,0,0,0,0,0,0,0,0,-1,888,372,0,0
-329,652,0,0,0,0,0,0,0,0,0,-1,895,372,0,0
-322,652,0,0,0,0,0,0,0,0,0,-1,902,372,0,0
-315,652,0,0,0,0,0,0,0,0,0,-1,909,372,0,0
-308,652,0,0,0,0,0,0,0,0,0,-1,916,372,0,0
-301,652,0,0,0,0,0,0,0,0,0,-1,923,372,0,0
-294,652,0,0,0,0,0,0,0,0,0,-1,930,372,0,0
-287,652,0,0,0,0,0,0,0,0,0,-1,937,372,0,0
-280,652,0,0,0,0,0,0,0,0,0,-1,944,372,0,0
-273,652,0,0,0,0,0,0,0,0,0,-1,951,372,0,0
-266,652,0,0,0,0,0,0,0,0,0,-1,958,372,0,0
-259,652,0,0,0,0,0,0,0,0,0,-1,965,372,0,0
-252,652,0,0,0,0,0,0,0,0,0,-1,972,372,0,0
-245,652,0,0,0,0,0,0,0,0,0,-1,979,372,0,0
-238,652,0,0,0,0,0,0,0,0,0,-1,986,372,0,0
-231,652,8.79358,-27.1656,0,0,0,0,0,0,0,-1,993,372,8.79357,27.1656
-224,652,8.84552,-27.675,0,0,0,0,0,0,0,-1,1000,372,8.84555,27.675
-217,652,9.03113,-27.7474,0,0,0,0,0,0,0,-1,1007,372,9.0311,27.7474
-210,652,9.72803,-30.4624,0,0,0,0,0,0,0,-1,1014,372,9.72805,30.4624
-203,652,7.2677,-26.0732,0,0,0,0,0,0,0,-1,1021,372,7.26775,26.0732
-196,652,5.90686,-26.957,0,0,0,0,0,0,0,-1,1028,372,5.9068,26.957
-189,652,6.21326,-28.3035,0,0,0,0,0,0,0,-1,1035,372,6.21331,28.3035
-182,652,6.45068,-29.9377,0,0,0,0,0,0,0,-1,1042,372,6.45074,29.9377
-175,652,6.72559,-31.6948,0,0,0,0,0,0,0,-1,1049,372,6.72563,31.6948
-168,652,7.08533,-32.8669,0,0,0,0,0,0,0,-1,1056,372,7.08532,32.8669
-161,652,7.85291,-37.3545,0,0,0,0,0,0,0,-1,1063,372,7.85294,37.3545
-154,652,7.54639,-37.9586,0,0,0,0,0,0,0,-1,1070,372,7.54642,37.9586
-147,652,8.1582,-41.1453,0,0,0,0,0,0,0,-1,1077,372,8.15823,41.1453
-140,652,5.6842,-33.9781,0,0,0,0,0,0,0,-1,1084,372,5.68421,33.9781
-133,652,6.3009,-35.2887,0,0,0,0,0,0,0,-1,1091,372,6.30093,35.2887
-126,652,5.86841,-37.0981,0,0,0,0,0,0,0,-1,1098,372,5.86845,37.0981
-119,652,7.36938,-43.2435,0,0,0,0,0,0,0,-1,1105,372,7.36939,43.2435
-112,652,7.20178,-43.6877,0,0,0,0,0,0,0,-1,1112,372,7.20177,43.6877
-105,652,6.63855,-39.9965,0,0,0,0,0,0,0,-1,1119,372,6.63852,39.9965
-98,652,5.84302,-35.2455,0,0,0,0,0,0,0,-1,1126,372,5.84307,35.2455
-91,652,5.66296,-32.9003,0,0,0,0,0,0,0,-1,1133,372,5.66297,32.9003
-84,652,5.46057,-34.9186,0,0,0,0,0,0,0,-1,1140,372,5.46057,34.9186
-77,652,6.99255,-45.8469,0,0,0,0,0,0,0,-1,1147,372,6.99257,45.8469
-70,652,6.9458,-46.305,0,0,0,0,0,0,0,-1,1154,372,6.94582,46.305
-63,652,6.92529,-46.6683,0,0,0,0,0,0,0,-1,1161,372,6.92529,46.6683
-56,652,6.8053,-46.9989,0,0,0,0,0,0,0,-1,1168,372,6.80531,46.9989
-49,652,6.86633,-47.429,-0.00854636,0.00719311,-0.00059472,0.00721555,-0.0085688,-1.53308,0.00912426,0.0360372,1175,372,6.86629,47.429
-42,652,6.69556,-47.5429,-0.00694694,0.00847637,-2.28295e-05,0.0084764,-0.00694698,-1.56932,0.00891927,0.0128878,1182,372,6.69557,47.5429
-35,652,6.67456,-47.8065,-0.00594582,0.00965362,0.00086743,0.00970171,-0.0059939,1.51542,0.00914576,0.0103304,1189,372,6.67452,47.8065
-28,652,6.62341,-48.0487,-0.0050253,0.0108256,0.00185496,0.0110398,-0.00523949,1.45584,0.00959565,0.00831925,1196,372,6.62341,48.0487
-21,652,6.55872,-48.2935,-0.00425906,0.011587,0.00231539,0.0119183,-0.00459045,1.42864,0.00983937,0.00837346,1203,372,6.55866,48.2935
-14,652,6.52197,-48.4904,-0.00340888,0.0126585,0.00290613,0.0131679,-0.00391836,1.39725,0.0103354,0.0101404,1210,372,6.52198,48.4904
-7,652,6.47998,-48.711,-0.00251613,0.0140267,0.00343531,0.0147117,-0.00320115,1.37397,0.0110308,0.0131449,1217,372,6.48,48.711
0,652,6.43677,-48.8843,-0.00162139,0.0155254,0.00395334,0.016393,-0.00248897,1.35477,0.0118458,0.0131149,1224,372,6.43676,48.8843
7,652,6.40979,-48.9621,-0.000838436,0.0169912,0.00442508,0.018029,-0.00187627,1.34042,0.0126911,0.0139988,1231,372,6.40981,48.9621
14,652,6.37646,-49.094,-0.00027461,0.0187488,0.00496884,0.0199685,-0.00149425,1.3301,0.0138373,0.012152,1238,372,6.37644,49.094
21,652,6.30945,-49.2527,6.28253e-05,0.0209734,0.00544806,0.0223077,-0.00127148,1.33061,0.0153133,0.0118088,1245,372,6.30951,49.2528
28,652,6.29272,-49.3812,0.000370729,0.0228543,0.0057295,0.0242301,-0.00100513,1.33512,0.0164987,0.0108717,1252,372,6.29278,49.3812
35,652,6.26294,-49.4527,0.00103622,0.0248705,0.00516,0.0259397,-3.29306e-05,1.36649,0.0173041,0.0102423,1259,372,6.26298,49.4527
42,652,6.20642,-49.5051,0.0015168,0.0272868,0.0045163,0.0280553,0.00074822,1.40223,0.0184592,0.0115781,1266,372,6.20639,49.5051
49,652,6.1936,-49.5372,0.00143889,0.028834,0.00397067,0.0293979,0.000874986,1.42972,0.0193135,0.0146132,1273,372,6.19358,49.5372
56,652,6.16443,-49.5554,0.00104394,0.0301681,0.00341028,0.0305621,0.000649948,1.45577,0.0201616,0.0165674,1280,372,6.16448,49.5554
63,652,6.12805,-49.578,0.00042416,0.031138,0.00267406,0.0313691,0.000193085,1.4846,0.0208487,0.0209406,1287,372,6.128,49.578
70,652,6.08118,-49.5323,-0.000149466,0.0317278,0.00190365,0.0318411,-0.000262745,1.51136,0.0213155,0.0181798,1294,372,6.08115,49.5323
77,652,5.98901,-49.5159,-0.00098768,0.0317948,0.00116103,0.0318358,-0.00102875,1.53544,0.021575,0.0167237,1301,372,5.98904,49.5159
84,652,6.01355,-49.4875,-0.0019797,0.0312093,0.000594406,0.03122,-0.00199034,1.55289,0.0215075,0.0144619,1308,372,6.0135,49.4875
91,652,5.95178,-49.4923,-0.00312379,0.0303566,8.49458e-05,0.0303568,-0.00312401,1.56826,0.0213555,0.0171439,1315,372,5.95184,49.4923
98,652,5.91626,-49.403,-0.0042289,0.0295095,-0.000147059,0.0295102,-0.00422954,-1.56644,0.0212242,0.0129301,1322,372,5.91632,49.403
105,652,5.88623,-49.2534,-0.00515731,0.028798,-0.000216363,0.0287993,-0.00515869,-1.56442,0.0211301,0.0112091,1329,372,5.88628,49.2534
112,652,5.8396,-49.1068,-0.00584399,0.0281281,-0.000245946,0.0281299,-0.00584577,-1.56356,0.0209752,0.00994522,1336,372,5.83958,49.1068
119,652,5.79785,-48.9412,-0.0063444,0.0272034,-0.000203227,0.0272047,-0.00634563,-1.56474,0.0205804,0.0110269,1343,372,5.79788,48.9412
126,652,5.74731,-48.7551,-0.00661202,0.0263048,-5.75655e-05,0.0263049,-0.00661212,-1.56905,0.0201064,0.012901,1350,372,5.74737,48.7551
133,652,5.70667,-48.5671,-0.00670645,0.0260595,0.000272562,0.0260618,-0.00670872,1.56248,0.0199896,0.0127412,1357,372,5.70666,48.5671
140,652,5.65271,-48.39,-0.00701183,0.0256407,0.00105771,0.0256749,-0.00704606,1.53845,0.0198858,0.00978691,1364,372,5.65268,48.39
147,652,5.6062,-48.1841,-0.00696366,0.0250736,0.00156973,0.0251503,-0.00704039,1.52196,0.0195411,0.00999083,1371,372,5.60625,48.1841
154,652,5.5686,-47.9481,-0.00634182,0.0251955,0.00169682,0.0252866,-0.00643285,1.5172,0.0193616,0.00997055,1378,372,5.56863,47.9481
161,652,5.52454,-47.6763,-0.00568387,0.0248491,0.0017665,0.024951,-0.00578573,1.5132,0.0188607,0.011124,1385,372,5.52454,47.6763
168,652,5.49585,-47.3813,-0.00548164,0.0239475,0.00197895,0.02408,-0.00561411,1.50395,0.0182154,0.0124924,1392,372,5.49584,47.3813
175,652,5.45276,-47.0697,-0.0054774,0.023074,0.00247986,0.0232878,-0.00569119,1.4848,0.0177294,0.0125212,1399,372,5.45271,47.0697
182,652,5.39539,-46.7846,-0.00535756,0.0221017,0.00324366,0.0224797,-0.00573552,1.4548,0.0172197,0.0181604,1406,372,5.39535,46.7846
189,652,5.39001,-46.4668,-0.00519267,0.0208016,0.00425883,0.0214815,-0.00587264,1.41247,0.0166279,0.03133,1413,372,5.38997,46.4668
196,652,5.28723,-46.1169,0,0,0,0,0,0,0,-1,1420,372,5.28726,46.117
203,652,5.24756,-45.7246,0,0,0,0,0,0,0,-1,1427,372,5.24754,45.7246
210,652,5.26636,-45.2505,0,0,0,0,0,0,0,-1,1434,372,5.26641,45.2504
217,652,5.15894,-44.9776,0,0,0,0,0,0,0,-1,1441,372,5.15895,44.9776
224,652,3.63794,-31.2791,0,0,0,0,0,0,0,-1,1448,372,3.63799,31.2791
231,652,3.83936,-30.4812,0,0,0,0,0,0,0,-1,1455,372,3.8393,30.4812
238,652,4.42358,-36.4103,0,0,0,0,0,0,0,-1,1462,372,4.4236,36.4103
245,652,4.53296,-41.8512,0,0,0,0,0,0,0,-1,1469,372,4.5329,41.8512
252,652,4.8634,-42.6024,0,0,0,0,0,0,0,-1,1476,372,4.86341,42.6024
259,652,3.44922,-31.2655,0,0,0,0,0,0,0,-1,1483,372,3.44921,31.2655
266,652,4.26526,-41.2912,0,0,0,0,0,0,0,-1,1490,372,4.2653,41.2912
273,652,4.46448,-41.0367,0,0,0,0,0,0,0,-1,1497,372,4.46442,41.0367
280,652,4.85339,-40.8535,0,0,0,0,0,0,0,-1,1504,372,4.85334,40.8535
287,652,5.20093,-40.5679,0,0,0,0,0,0,0,-1,1511,372,5.20089,40.5679
294,652,0.452026,-21.6323,0,0,0,0,0,0,0,-1,1518,372,0.451972,21.6323
301,652,-1.37097,-22.0708,-0.108532,0.0152776,-0.0710569,0.0476133,-0.140868,-1.14374,0.113172,0.0443914,1525,372,-1.37093,22.0708
308,652,-3.19727,-22.3352,-0.127392,0.0124828,-0.0834042,0.0513916,-0.166301,-1.1343,0.131392,0.0454499,1532,372,-3.19727,22.3352
315,652,-4.93787,-22.4496,0,0,0,0,0,0,0,-1,1539,372,-4.93789,22.4496
322,652,-6.69434,-22.3427,0,0,0,0,0,0,0,-1,1546,372,-6.69429,22.3427
329,652,-8.43518,-22.1992,0,0,0,0,0,0,0,-1,1553,372,-8.43514,22.1992
336,652,-3.56519,-22.3688,0,0,0,0,0,0,0,-1,1560,372,-3.56517,22.3688
343,652,-3.58069,-21.9185,0,0,0,0,0,0,0,-1,1567,372,-3.58069,21.9185
350,652,5.28394,-25.6715,0,0,0,0,0,0,0,-1,1574,372,5.28393,25.6715
357,652,0,0,0,0,0,0,0,0,0,-1,1581,372,0,0
364,652,0,0,0,0,0,0,0,0,0,-1,1588,372,0,0
371,652,0,0,0,0,0,0,0,0,0,-1,1595,372,0,0
378,652,0,0,0,0,0,0,0,0,0,-1,1602,372,0,0
385,652,0,0,0,0,0,0,0,0,0,-1,1609,372,0,0
392,652,0,0,0,0,0,0,0,0,0,-1,1616,372,0,0
399,652,0,0,0,0,0,0,0,0,0,-1,1623,372,0,0
406,652,0,0,0,0,0,0,0,0,0,-1,1630,372,0,0
413,652,0,0,0,0,0,0,0,0,0,-1,1637,372,0,0
420,652,0,0,0,0,0,0,0,0,0,-1,1644,372,0,0
427,652,0,0,0,0,0,0,0,0,0,-1,1651,372,0,0
434,652,0,0,0,0,0,0,0,0,0,-1,1658,372,0,0
441,652,0,0,0,0,0,0,0,0,0,-1,1665,372,0,0
448,652,0,0,0,0,0,0,0,0,0,-1,1672,372,0,0
455,652,0,0,0,0,0,0,0,0,0,-1,1679,372,0,0
462,652,0,0,0,0,0,0,0,0,0,-1,1686,372,0,0
469,652,0,0,0,0,0,0,0,0,0,-1,1693,372,0,0
476,652,0,0,0,0,0,0,0,0,0,-1,1700,372,0,0
483,652,0,0,0,0,0,0,0,0,0,-1,1707,372,0,0
490,652,0,0,0,0,0,0,0,0,0,-1,1714,372,0,0
497,652,0,0,0,0,0,0,0,0,0,-1,1721,372,0,0
504,652,0,0,0,0,0,0,0,0,0,-1,1728,372,0,0
511,652,0,0,0,0,0,0,0,0,0,-1,1735,372,0,0
518,652,0,0,0,0,0,0,0,0,0,-1,1742,372,0,0
525,652,0,0,0,0,0,0,0,0,0,-1,1749,372,0,0
532,652,0,0,0,0,0,0,0,0,0,-1,1756,372,0,0
539,652,0,0,0,0,0,0,0,0,0,-1,1763,372,0,0
546,652,0,0,0,0,0,0,0,0,0,-1,1770,372,0,0
553,652,0,0,0,0,0,0,0,0,0,-1,1777,372,0,0
560,652,0,0,0,0,0,0,0,0,0,-1,1784,372,0,0
567,652,0,0,0,0,0,0,0,0,0,-1,1791,372,0,0
574,652,0,0,0,0,0,0,0,0,0,-1,1798,372,0,0
581,652,0,0,0,0,0,0,0,0,0,-1,1805,372,0,0
588,652,0,0,0,0,0,0,0,0,0,-1,1812,372,0,0
595,652,0,0,0,0,0,0,0,0,0,-1,1819,372,0,0
602,652,0,0,0,0,0,0,0,0,0,-1,1826,372,0,0
609,652,0,0,0,0,0,0,0,0,0,-1,1833,372,0,0
616,652,0,0,0,0,0,0,0,0,0,-1,1840,372,0,0
623,652,0,0,0,0,0,0,0,0,0,-1,1847,372,0,0
630,652,0,0,0,0,0,0,0,0,0,-1,1854,372,0,0
637,652,0,0,0,0,0,0,0,0,0,-1,1861,372,0,0
644,652,0,0,0,0,0,0,0,0,0,-1,1868,372,0,0
651,652,0,0,0,0,0,0,0,0,0,-1,1875,372,0,0
658,652,0,0,0,0,0,0,0,0,0,-1,1882,372,0,0
665,652,0,0,0,0,0,0,0,0,0,-1,1889,372,0,0
672,652,0,0,0,0,0,0,0,0,0,-1,1896,372,0,0
679,652,0,0,0,0,0,0,0,0,0,-1,1903,372,0,0
686,652,0,0,0,0,0,0,0,0,0,-1,1910,372,0,0
693,652,0,0,0,0,0,0,0,0,0,-1,1917,372,0,0
700,652,0,0,0,0,0,0,0,0,0,-1,1924,372,0,0
707,652,0,0,0,0,0,0,0,0,0,-1,1931,372,0,0
714,652,0,0,0,0,0,0,0,0,0,-1,1938,372,0,0
721,652,0,0,0,0,0,0,0,0,0,-1,1945,372,0,0
728,652,0,0,0,0,0,0,0,0,0,-1,1952,372,0,0
735,652,0,0,0,0,0,0,0,0,0,-1,1959,372,0,0
742,652,0,0,0,0,0,0,0,0,0,-1,1966,372,0,0
749,652,0,0,0,0,0,0,0,0,0,-1,1973,372,0,0
756,652,0,0,0,0,0,0,0,0,0,-1,1980,372,0,0
763,652,0,0,0,0,0,0,0,0,0,-1,1987,372,0,0
770,652,0,0,0,0,0,0,0,0,0,-1,1994,372,0,0
777,652,0,0,0,0,0,0,0,0,0,-1,2001,372,0,0
784,652,0,0,0,0,0,0,0,0,0,-1,2008,372,0,0
791,652,0,0,0,0,0,0,0,0,0,-1,2015,372,0,0
798,652,0,0,0,0,0,0,0,0,0,-1,2022,372,0,0
805,652,0,0,0,0,0,0,0,0,0,-1,2029,372,0,0
812,652,0,0,0,0,0,0,0,0,0,-1,2036,372,0,0
-700,645,0,0,0,0,0,0,0,0,0,-1,524,379,0,0
-693,645,0,0,0,0,0,0,0,0,0,-1,531,379,0,0
-686,645,0,0,0,0,0,0,0,0,0,-1,538,379,0,0
-679,645,0,0,0,0,0,0,0,0,0,-1,545,379,0,0
-672,645,0,0,0,0,0,0,0,0,0,-1,552,379,0,0
-665,645,0,0,0,0,0,0,0,0,0,-1,559,379,0,0
-658,645,0,0,0,0,0,0,0,0,0,-1,566,379,0,0
-651,645,0,0,0,0,0,0,0,0,0,-1,573,379,0,0
-644,645,0,0,0,0,0,0,0,0,0,-1,580,379,0,0
-637,645,0,0,0,0,0,0,0,0,0,-1,587,379,0,0
-630,645,0,0,0,0,0,0,0,0,0,-1,594,379,0,0
-623,645,0,0,0,0,0,0,0,0,0,-1,601,379,0,0
-616,645,0,0,0,0,0,0,0,0,0,-1,608,379,0,0
-609,645,0,0,0,0,0,0,0,0,0,-1,615,379,0,0
-602,645,0,0,0,0,0,0,0,0,0,-1,622,379,0,0
-595,645,0,0,0,0,0,0,0,0,0,-1,629,379,0,0
-588,645,0,0,0,0,0,0,0,0,0,-1,636,379,0,0
-581,645,0,0,0,0,0,0,0,0,0,-1,643,379,0,0
-574,645,0,0,0,0,0,0,0,0,0,-1,650,379,0,0
-567,645,0,0,0,0,0,0,0,0,0,-1,657,379,0,0
-560,645,0,0,0,0,0,0,0,0,0,-1,664,379,0,0
-553,645,0,0,0,0,0,0,0,0,0,-1,671,379,0,0
-546,645,0,0,0,0,0,0,0,0,0,-1,678,379,0,0
-539,645,0,0,0,0,0,0,0,0,0,-1,685,379,0,0
-532,645,0,0,0,0,0,0,0,0,0,-1,692,379,0,0
-525,645,0,0,0,0,0,0,0,0,0,-1,699,379,0,0
-518,645,0,0,0,0,0,0,0,0,0,-1,706,379,0,0
-511,645,0,0,0,0,0,0,0,0,0,-1,713,379,0,0
-504,645,0,0,0,0,0,0,0,0,0,-1,720,379,0,0
-497,645,0,0,0,0,0,0,0,0,0,-1,727,379,0,0
-490,645,0,0,0,0,0,0,0,0,0,-1,734,379,0,0
-483,645,0,0,0,0,0,0,0,0,0,-1,741,379,0,0
-476,645,0,0,0,0,0,0,0,0,0,-1,748,379,0,0
-469,645,0,0,0,0,0,0,0,0,0,-1,755,379,0,0
-462,645,0,0,0,0,0,0,0,0,0,-1,762,379,0,0
-455,645,0,0,0,0,0,0,0,0,0,-1,769,379,0,0
-448,645,0,0,0,0,0,0,0,0,0,-1,776,379,0,0
-441,645,0,0,0,0,0,0,0,0,0,-1,783,379,0,0
-434,645,0,0,0,0,0,0,0,0,0,-1,790,379,0,0
-427,645,0,0,0,0,0,0,0,0,0,-1,797,379,0,0
-420,645,0,0,0,0,0,0,0,0,0,-1,804,379,0,0
-413,645,0,0,0,0,0,0,0,0,0,-1,811,379,0,0
-406,645,0,0,0,0,0,0,0,0,0,-1,818,379,0,0
-399,645,0,0,0,0,0,0,0,0,0,-1,825,379,0,0
-392,645,0,0,0,0,0,0,0,0,0,-1,832,379,0,0
-385,645,0,0,0,0,0,0,0,0,0,-1,839,379,0,0
-378,645,0,0,0,0,0,0,0,0,0,-1,846,379,0,0
-371,645,0,0,0,0,0,0,0,0,0,-1,853,379,0,0
-364,645,0,0,0,0,0,0,0,0,0,-1,860,379,0,0
-357,645,0,0,0,0,0,0,0,0,0,-1,867,379,0,0
-350,645,0,0,0,0,0,0,0,0,0,-1,874,379,0,0
-343,645,0,0,0,0,0,0,0,0,0,-1,881,379,0,0
-336,645,0,0,0,0,0,0,0,0,0,-1,888,379,0,0
-329,645,0,0,0,0,0,0,0,0,0,-1,895,379,0,0
-322,645,0,0,0,0,0,0,0,0,0,-1,902,379,0,0
-315,645,0,0,0,0,0,0,0,0,0,-1,909,379,0,0
-308,645,0,0,0,0,0,0,0,0,0,-1,916,379,0,0
-301,645,0,0,0,0,0,0,0,0,0,-1,923,379,0,0
-294,645,0,0,0,0,0,0,0,0,0,-1,930,379,0,0
-287,645,0,0,0,0,0,0,0,0,0,-1,937,379,0,0
-280,645,0,0,0,0,0,0,0,0,0,-1,944,379,0,0
-273,645,0,0,0,0,0,0,0,0,0,-1,951,379,0,0
-266,645,0,0,0,0,0,0,0,0,0,-1,958,379,0,0
-259,645,0,0,0,0,0,0,0,0,0,-1,965,379,0,0
-252,645,2.95691,-26.9133,0,0,0,0,0,0,0,-1,972,379,2.9569,26.9133
-245,645,2.73169,-27.0215,0,0,0,0,0,0,0,-1,979,379,2.73172,27.0215
-238,645,2.6665,-26.9464,0,0,0,0,0,0,0,-1,986,379,2.66649,26.9464
-231,645,7.26807,-29.1054,0,0,0,0,0,0,0,-1,993,379,7.26806,29.1054
-224,645,7.69073,-29.5737,0,0,0,0,0,0,0,-1,1000,379,7.69071,29.5737
-217,645,8.65485,-33.4136,0,0,0,0,0,0,0,-1,1007,379,8.65487,33.4136
-210,645,9.21594,-32.5157,0,0,0,0,0,0,0,-1,1014,379,9.21591,32.5156
-203,645,9.77698,-31.6176,0,0,0,0,0,0,0,-1,1021,379,9.77696,31.6177
-196,645,10.2664,-29.7741,0,0,0,0,0,0,0,-1,1028,379,10.2664,29.7741
-189,645,5.88062,-28.2191,0,0,0,0,0,0,0,-1,1035,379,5.88062,28.2191
-182,645,6.34167,-29.2525,0,0,0,0,0,0,0,-1,1042,379,6.3417,29.2525
-175,645,6.36462,-35.5586,0,0,0,0,0,0,0,-1,1049,379,6.3646,35.5586
-168,645,7.19116,-39.5785,0,0,0,0,0,0,0,-1,1056,379,7.19115,39.5785
-161,645,7.22083,-37.6093,0,0,0,0,0,0,0,-1,1063,379,7.22085,37.6094
-154,645,7.50317,-40.5536,0,0,0,0,0,0,0,-1,1070,379,7.50312,40.5536
-147,645,7.52661,-40.9916,0,0,0,0,0,0,0,-1,1077,379,7.52656,40.9916
-140,645,7.07068,-41.8341,0,0,0,0,0,0,0,-1,1084,379,7.07064,41.8341
-133,645,7.0155,-42.2342,0,0,0,0,0,0,0,-1,1091,379,7.01552,42.2342
-126,645,7.10657,-43.0984,0,0,0,0,0,0,0,-1,1098,379,7.10657,43.0984
-119,645,6.96606,-43.4955,-0.00787622,0.0137477,-0.0034602,0.0142879,-0.00841642,-1.41593,0.0132536,0.0305537,1105,379,6.96608,43.4955
-112,645,6.88684,-43.8688,-0.00757675,0.0128969,-0.00295255,0.0133142,-0.00799404,-1.43039,0.0124295,0.028875,1112,379,6.88686,43.8688
-105,645,6.84827,-44.482,0,0,0,0,0,0,0,-1,1119,379,6.84827,44.482
-98,645,6.7666,-44.9201,0,0,0,0,0,0,0,-1,1126,379,6.76656,44.9201
-91,645,6.68896,-45.3413,0,0,0,0,0,0,0,-1,1133,379,6.689,45.3413
-84,645,6.6449,-45.7025,0,0,0,0,0,0,0,-1,1140,379,6.64492,45.7025
-77,645,6.71899,-46.065,-0.0069134,0.00645573,-0.000864569,0.00651141,-0.00696908,-1.50648,0.00778446,0.0431228,1147,379,6.71904,46.065
-70,645,6.63037,-46.3881,-0.00682084,0.00633612,-0.000669668,0.00637012,-0.00685484,-1.52007,0.00763714,0.0157037,1154,379,6.63042,46.3881
-63,645,6.58765,-46.6873,-0.00651701,0.00571449,-0.000677202,0.00575187,-0.00655439,-1.51566,0.00711006,0.0118901,1161,379,6.5876,46.6873
-56,645,6.54028,-46.9826,-0.00622071,0.00522867,-0.000586262,0.00525861,-0.00625065,-1.51977,0.0066531,0.013798,1168,379,6.5403,46.9826
-49,645,6.51074,-47.2788,-0.00592514,0.00539177,-0.000518147,0.00541545,-0.00594882,-1.52514,0.00656357,0.0122416,1175,379,6.51079,47.2788
-42,645,6.46399,-47.545,-0.00528704,0.00583328,-0.00024792,0.00583881,-0.00529257,-1.54852,0.00642928,0.0117869,1182,379,6.46398,47.545
-35,645,6.43042,-47.8302,-0.00489077,0.00642715,0.000204887,0.00643086,-0.00489448,1.5527,0.00655871,0.0110461,1189,379,6.43038,47.8302
-28,645,6.38586,-48.1248,-0.00443725,0.00699491,0.000724123,0.00704059,-0.00448294,1.50779,0.00670752,0.00893193,1196,379,6.38586,48.1248
-21,645,6.34265,-48.3269,-0.00395027,0.00736209,0.000984631,0.00744716,-0.00403533,1.48462,0.00672626,0.0104979,1203,379,6.3427,48.3269
-14,645,6.33032,-48.5379,-0.00351875,0.0076998,0.00128138,0.00784429,-0.00366325,1.4585,0.00678848,0.010325,1210,379,6.33027,48.5379
-7,645,6.33044,-48.7701,-0.00300526,0.00821461,0.00153556,0.00842097,-0.00321162,1.43721,0.00693693,0.0139488,1217,379,6.3305,48.7701
0,645,6.30103,-48.9395,-0.0024914,0.00885909,0.00175547,0.00912439,-0.0027567,1.4208,0.00718044,0.0262706,1224,379,6.30104,48.9395
7,645,6.25635,-49.0236,-0.0019886,0.00967391,0.0019903,0.0100042,-0.00231891,1.40634,0.00756191,0.0176816,1231,379,6.2563,49.0236
14,645,6.24048,-49.1317,-0.00161995,0.0107757,0.00231367,0.0111934,-0.00203772,1.39215,0.00822609,0.0165887,1238,379,6.24043,49.1317
21,645,6.18323,-49.2782,-0.00136653,0.0122604,0.00261479,0.0127449,-0.00185103,1.38758,0.00917607,0.0116463,1245,379,6.18318,49.2782
28,645,6.19275,-49.4069,-0.00110316,0.0135491,0.0027663,0.0140539,-0.00160803,1.39027,0.00994871,0.0100308,1252,379,6.19275,49.4069
35,645,6.1781,-49.4892,-0.00056128,0.0150259,0.0023887,0.0153837,-0.000919129,1.42209,0.0105755,0.00899436,1259,379,6.17808,49.4892
42,645,6.15417,-49.5602,-0.000170788,0.0167599,0.00201527,0.0169964,-0.000407361,1.45394,0.0114691,0.00953577,1266,379,6.15423,49.5602
49,645,6.17126,-49.5894,-0.000133872,0.0179711,0.00172222,0.0181334,-0.000296242,1.4768,0.0121889,0.013565,1273,379,6.1713,49.5894
56,645,6.16614,-49.5938,-0.000235377,0.0190404,0.00142179,0.0191447,-0.000339685,1.49756,0.0128779,0.0132984,1280,379,6.16618,49.5938
63,645,6.14551,-49.6236,-0.00039404,0.0198536,0.0010256,0.0199055,-0.000445857,1.52032,0.0134214,0.0128554,1287,379,6.14554,49.6236
70,645,6.08582,-49.6037,-0.0005528,0.0204186,0.000656309,0.0204392,-0.000573319,1.53954,0.0138212,0.0168691,1294,379,6.08583,49.6037
77,645,6.04688,-49.5769,-0.000878242,0.0207275,0.000335957,0.0207327,-0.000883466,1.55525,0.0141255,0.0188816,1301,379,6.0469,49.5769
84,645,6.08447,-49.528,-0.00133026,0.0205906,5.75387e-05,0.0205908,-0.00133041,1.56817,0.0141915,0.0139503,1308,379,6.08451,49.528
91,645,6.03674,-49.5056,-0.00188436,0.020237,-0.000206296,0.020239,-0.00188628,-1.56147,0.0141633,0.015887,1315,379,6.03678,49.5056
98,645,5.99756,-49.4125,-0.00245149,0.0199026,-0.000274012,0.019906,-0.00245485,-1.55854,0.0141601,0.0132717,1322,379,5.99757,49.4125
105,645,5.9823,-49.2766,-0.00283878,0.0196272,-0.000218728,0.0196293,-0.00284091,-1.56106,0.0141287,0.0100575,1329,379,5.98225,49.2766
112,645,5.95557,-49.1368,-0.003132,0.0193512,-0.000211727,0.0193532,-0.003134,-1.56138,0.0140637,0.00847715,1336,379,5.95558,49.1368
119,645,5.94067,-48.9715,-0.00336659,0.0188758,-0.000160187,0.0188769,-0.00336774,-1.56359,0.0138444,0.00904534,1343,379,5.94062,48.9715
126,645,5.91003,-48.788,-0.00351684,0.0184754,-5.4697e-05,0.0184755,-0.00351698,-1.56831,0.0136413,0.0120681,1350,379,5.90999,48.788
133,645,5.89355,-48.6122,-0.00358991,0.0184971,0.000197715,0.0184989,-0.00359168,1.56185,0.0136878,0.0132382,1357,379,5.89356,48.6122
140,645,5.85083,-48.4232,-0.0038273,0.0183555,0.000795241,0.018384,-0.00385577,1.53501,0.013723,0.0127039,1364,379,5.85082,48.4232
147,645,5.80188,-48.2175,-0.00383016,0.0181489,0.00119869,0.0182141,-0.00389534,1.51647,0.013628,0.0139887,1371,379,5.80185,48.2175
154,645,5.79688,-47.9824,-0.00344962,0.0183335,0.00133787,0.0184154,-0.00353148,1.50968,0.0136077,0.0131556,1378,379,5.79688,47.9824
161,645,5.77612,-47.7155,-0.0030995,0.0181937,0.00146536,0.0182941,-0.00319987,1.50241,0.0133907,0.0149057,1385,379,5.77608,47.7156
168,645,5.74695,-47.4271,-0.00312335,0.0175938,0.00170624,0.0177334,-0.00326293,1.48917,0.0130466,0.017498,1392,379,5.74695,47.4271
175,645,5.74463,-47.1321,-0.00330272,0.0168653,0.00208369,0.0170784,-0.00351575,1.46891,0.0127205,0.0143654,1399,379,5.74469,47.1321
182,645,5.69385,-46.8428,-0.0034582,0.0160417,0.00259264,0.0163805,-0.00379702,1.44085,0.0123816,0.0103017,1406,379,5.69386,46.8428
189,645,5.66663,-46.4968,-0.00356486,0.0150421,0.00324977,0.0155933,-0.00411611,1.40277,0.0120051,0.011536,1413,379,5.66662,46.4968
196,645,5.60339,-46.1716,-0.00370688,0.0142115,0.00381913,0.0149916,-0.00448693,1.36932,0.0117784,0.0121098,1420,379,5.60336,46.1716
203,645,5.54358,-45.7825,-0.0040333,0.0135713,0.00408711,0.0144739,-0.0049359,1.35345,0.0116485,0.0120943,1427,379,5.54364,45.7825
210,645,5.54004,-45.3177,-0.00444315,0.0120026,0.00410858,0.0129719,-0.00541245,1.33911,0.0109092,0.0216026,1434,379,5.54009,45.3177
217,645,5.50867,-45.0181,-0.00428317,0.0126231,0.00368659,0.013392,-0.0050521,1.36517,0.0110056,0.0487338,1441,379,5.5087,45.0181
224,645,5.28821,-44.8714,0,0,0,0,0,0,0,-1,1448,379,5.28816,44.8714
231,645,5.33582,-44.1374,0,0,0,0,0,0,0,-1,1455,379,5.33588,44.1374
238,645,5.26477,-43.7076,0,0,0,0,0,0,0,-1,1462,379,5.26476,43.7076
245,645,5.24792,-43.1995,0,0,0,0,0,0,0,-1,1469,379,5.24796,43.1995
252,645,5.25439,-42.662,0,0,0,0,0,0,0,-1,1476,379,5.25442,42.662
259,645,5.34692,-42.2081,0,0,0,0,0,0,0,-1,1483,379,5.34696,42.2081
266,645,4.87378,-41.6087,-0.0193192,0.0205566,-0.00991566,0.0228862,-0.0216488,-1.34004,0.0257156,0.0411886,1490,379,4.87374,41.6087
273,645,4.97034,-41.2235,-0.0269259,0.0207548,-0.0150898,0.0251291,-0.0313001,-1.28865,0.0326443,0.0298859,1497,379,4.97034,41.2235
280,645,5.22156,-40.7438,-0.0365,0.0203645,-0.0213975,0.0275165,-0.0436521,-1.24822,0.0414398,0.0490775,1504,379,5.22152,40.7438
287,645,5.82336,-39.4769,0,0,0,0,0,0,0,-1,1511,379,5.82342,39.4769
294,645,2.72571,-21.0874,0,0,0,0,0,0,0,-1,1518,379,2.72572,21.0874
301,645,0.901733,-21.5352,-0.0732644,0.017125,-0.0450199,0.0357218,-0.0918612,-1.17907,0.076,0.0470832,1525,379,0.901753,21.5352
308,645,-0.670898,-21.8232,-0.0862603,0.0155688,-0.0533718,0.0384163,-0.109108,-1.16632,0.0883726,0.0439413,1532,379,-0.670957,21.8232
315,645,5.28955,-38.382,0,0,0,0,0,0,0,-1,1539,379,5.28955,38.3821
322,645,-3.66736,-22.1155,0,0,0,0,0,0,0,-1,1546,379,-3.66739,22.1155
329,645,2.39136,-36.649,0,0,0,0,0,0,0,-1,1553,379,2.39135,36.649
336,645,5.76514,-36.1147,0,0,0,0,0,0,0,-1,1560,379,5.76516,36.1147
343,645,4.77185,-23.7191,0,0,0,0,0,0,0,-1,1567,379,4.77184,23.7191
350,645,4.76404,-22.1987,0,0,0,0,0,0,0,-1,1574,379,4.76399,22.1987
357,645,4.61316,-21.967,0,0,0,0,0,0,0,-1,1581,379,4.61316,21.967
364,645,-0.0794678,-3.22021,0,0,0,0,0,0,0,-1,1588,379,-0.0794987,3.22021
371,645,0,0,0,0,0,0,0,0,0,-1,1595,379,0,0
378,645,0,0,0,0,0,0,0,0,0,-1,1602,379,0,0
385,645,0,0,0,0,0,0,0,0,0,-1,1609,379,0,0
392,645,0,0,0,0,0,0,0,0,0,-1,1616,379,0,0
399,645,0,0,0,0,0,0,0,0,0,-1,1623,379,0,0
406,645,0,0,0,0,0,0,0,0,0,-1,1630,379,0,0
413,645,0,0,0,0,0,0,0,0,0,-1,1637,379,0,0
420,645,0,0,0,0,0,0,0,0,0,-1,1644,379,0,0
427,645,0,0,0,0,0,0,0,0,0,-1,1651,379,0,0
434,645,0,0,0,0,0,0,0,0,0,-1,1658,379,0,0
441,645,0,0,0,0,0,0,0,0,0,-1,1665,379,0,0
448,645,0,0,0,0,0,0,0,0,0,-1,1672,379,0,0
455,645,0,0,0,0,0,0,0,0,0,-1,1679,379,0,0
462,645,0,0,0,0,0,0,0,0,0,-1,1686,379,0,0
469,645,0,0,0,0,0,0,0,0,0,-1,1693,379,0,0
476,645,0,0,0,0,0,0,0,0,0,-1,1700,379,0,0
483,645,0,0,0,0,0,0,0,0,0,-1,1707,379,0,0
490,645,0,0,0,0,0,0,0,0,0,-1,1714,379,0,0
497,645,0,0,0,0,0,0,0,0,0,-1,1721,379,0,0
504,645,0,0,0,0,0,0,0,0,0,-1,1728,379,0,0
511,645,0,0,0,0,0,0,0,0,0,-1,1735,379,0,0
518,645,0,0,0,0,0,0,0,0,0,-1,1742,379,0,0
525,645,0,0,0,0,0,0,0,0,0,-1,1749,379,0,0
532,645,0,0,0,0,0,0,0,0,0,-1,1756,379,0,0
539,645,0,0,0,0,0,0,0,0,0,-1,1763,379,0,0
546,645,0,0,0,0,0,0,0,0,0,-1,1770,379,0,0
553,645,0,0,0,0,0,0,0,0,0,-1,1777,379,0,0
560,645,0,0,0,0,0,0,0,0,0,-1,1784,379,0,0
567,645,0,0,0,0,0,0,0,0,0,-1,1791,379,0,0
574,645,0,0,0,0,0,0,0,0,0,-1,1798,379,0,0
581,645,0,0,0,0,0,0,0,0,0,-1,1805,379,0,0
588,645,0,0,0,0,0,0,0,0,0,-1,1812,379,0,0
595,645,0,0,0,0,0,0,0,0,0,-1,1819,379,0,0
602,645,0,0,0,0,0,0,0,0,0,-1,1826,379,0,0
609,645,0,0,0,0,0,0,0,0,0,-1,1833,379,0,0
616,645,0,0,0,0,0,0,0,0,0,-1,1840,379,0,0
623,645,0,0,0,0,0,0,0,0,0,-1,1847,379,0,0
630,645,0,0,0,0,0,0,0,0,0,-1,1854,379,0,0
637,645,0,0,0,0,0,0,0,0,0,-1,1861,379,0,0
644,645,0,0,0,0,0,0,0,0,0,-1,1868,379,0,0
651,645,0,0,0,0,0,0,0,0,0,-1,1875,379,0,0
658,645,0,0,0,0,0,0,0,0,0,-1,1882,379,0,0
665,645,0,0,0,0,0,0,0,0,0,-1,1889,379,0,0
672,645,0,0,0,0,0,0,0,0,0,-1,1896,379,0,0
679,645,0,0,0,0,0,0,0,0,0,-1,1903,379,0,0
686,645,0,0,0,0,0,0,0,0,0,-1,1910,379,0,0
693,645,0,0,0,0,0,0,0,0,0,-1,1917,379,0,0
700,645,0,0,0,0,0,0,0,0,0,-1,1924,379,0,0
707,645,0,0,0,0,0,0,0,0,0,-1,1931,379,0,0
714,645,0,0,0,0,0,0,0,0,0,-1,1938,379,0,0
721,645,0,0,0,0,0,0,0,0,0,-1,1945,379,0,0
728,645,0,0,0,0,0,0,0,0,0,-1,1952,379,0,0
735,645,0,0,0,0,0,0,0,0,0,-1,1959,379,0,0
742,645,0,0,0,0,0,0,0,0,0,-1,1966,379,0,0
749,645,0,0,0,0,0,0,0,0,0,-1,1973,379,0,0
756,645,0,0,0,0,0,0,0,0,0,-1,1980,379,0,0
763,645,0,0,0,0,0,0,0,0,0,-1,1987,379,0,0
770,645,0,0,0,0,0,0,0,0,0,-1,1994,379,0,0
777,645,0,0,0,0,0,0,0,0,0,-1,2001,379,0,0
784,645,0,0,0,0,0,0,0,0,0,-1,2008,379,0,0
791,645,0,0,0,0,0,0,0,0,0,-1,2015,379,0,0
798,645,0,0,0,0,0,0,0,0,0,-1,2022,379,0,0
805,645,0,0,0,0,0,0,0,0,0,-1,2029,379,0,0
812,645,0,0,0,0,0,0,0,0,0,-1,2036,379,0,0
-700,638,0,0,0,0,0,0,0,0,0,-1,524,386,0,0
-693,638,0,0,0,0,0,0,0,0,0,-1,531,386,0,0
-686,638,0,0,0,0,0,0,0,0,0,-1,538,386,0,0
-679,638,0,0,0,0,0,0,0,0,0,-1,545,386,0,0
-672,638,0,0,0,0,0,0,0,0,0,-1,552,386,0,0
-665,638,0,0,0,0,0,0,0,0,0,-1,559,386,0,0
-658,638,0,0,0,0,0,0,0,0,0,-1,566,386,0,0
-651,638,0,0,0,0,0,0,0,0,0,-1,573,386,0,0
-644,638,0,0,0,0,0,0,0,0,0,-1,580,386,0,0
-637,638,0,0,0,0,0,0,0,0,0,-1,587,386,0,0
-630,638,0,0,0,0,0,0,0,0,0,-1,594,386,0,0
-623,638,0,0,0,0,0,0,0,0,0,-1,601,386,0,0
-616,638,0,0,0,0,0,0,0,0,0,-1,608,386,0,0
-609,638,0,0,0,0,0,0,0,0,0,-1,615,386,0,0
-602,638,0,0,0,0,0,0,0,0,0,-1,622,386,0,0
-595,638,0,0,0,0,0,0,0,0,0,-1,629,386,0,0
-588,638,0,0,0,0,0,0,0,0,0,-1,636,386,0,0
-581,638,0,0,0,0,0,0,0,0,0,-1,643,386,0,0
-574,638,0,0,0,0,0,0,0,0,0,-1,650,386,0,0
-567,638,0,0,0,0,0,0,0,0,0,-1,657,386,0,0
-560,638,0,0,0,0,0,0,0,0,0,-1,664,386,0,0
-553,638,0,0,0,0,0,0,0,0,0,-1,671,386,0,0
-546,638,0,0,0,0,0,0,0,0,0,-1,678,386,0,0
-539,638,0,0,0,0,0,0,0,0,0,-1,685,386,0,0
-532,638,0,0,0,0,0,0,0,0,0,-1,692,386,0,0
-525,638,0,0,0,0,0,0,0,0,0,-1,699,386,0,0
-518,638,0,0,0,0,0,0,0,0,0,-1,706,386,0,0
-511,638,0,0,0,0,0,0,0,0,0,-1,713,386,0,0
-504,638,0,0,0,0,0,0,0,0,0,-1,720,386,0,0
-497,638,0,0,0,0,0,0,0,0,0,-1,727,386,0,0
-490,638,0,0,0,0,0,0,0,0,0,-1,734,386,0,0
-483,638,0,0,0,0,0,0,0,0,0,-1,741,386,0,0
-476,638,0,0,0,0,0,0,0,0,0,-1,748,386,0,0
-469,638,0,0,0,0,0,0,0,0,0,-1,755,386,0,0
-462,638,0,0,0,0,0,0,0,0,0,-1,762,386,0,0
-455,638,0,0,0,0,0,0,0,0,0,-1,769,386,0,0
-448,638,0,0,0,0,0,0,0,0,0,-1,776,386,0,0
-441,638,0,0,0,0,0,0,0,0,0,-1,783,386,0,0
-434,638,0,0,0,0,0,0,0,0,0,-1,790,386,0,0
-427,638,0,0,0,0,0,0,0,0,0,-1,797,386,0,0
-420,638,0,0,0,0,0,0,0,0,0,-1,804,386,0,0
-413,638,0,0,0,0,0,0,0,0,0,-1,811,386,0,0
-406,638,0,0,0,0,0,0,0,0,0,-1,818,386,0,0
-399,638,0,0,0,0,0,0,0,0,0,-1,825,386,0,0
-392,638,0,0,0,0,0,0,0,0,0,-1,832,386,0,0
-385,638,0,0,0,0,0,0,0,0,0,-1,839,386,0,0
-378,638,0,0,0,0,0,0,0,0,0,-1,846,386,0,0
-371,638,0,0,0,0,0,0,0,0,0,-1,853,386,0,0
-364,638,0,0,0,0,0,0,0,0,0,-1,860,386,0,0
-357,638,0,0,0,0,0,0,0,0,0,-1,867,386,0,0
-350,638,0,0,0,0,0,0,0,0,0,-1,874,386,0,0
-343,638,0,0,0,0,0,0,0,0,0,-1,881,386,0,0
-336,638,0,0,0,0,0,0,0,0,0,-1,888,386,0,0
-329,638,0,0,0,0,0,0,0,0,0,-1,895,386,0,0
-322,638,0,0,0,0,0,0,0,0,0,-1,902,386,0,0
-315,638,0,0,0,0,0,0,0,0,0,-1,909,386,0,0
-308,638,0,0,0,0,0,0,0,0,0,-1,916,386,0,0
-301,638,0,0,0,0,0,0,0,0,0,-1,923,386,0,0
-294,638,0,0,0,0,0,0,0,0,0,-1,930,386,0,0
-287,638,0,0,0,0,0,0,0,0,0,-1,937,386,0,0
-280,638,0,0,0,0,0,0,0,0,0,-1,944,386,0,0
-273,638,0,0,0,0,0,0,0,0,0,-1,951,386,0,0
-266,638,10.1613,-36.3326,0,0,0,0,0,0,0,-1,958,386,10.1612,36.3326
-259,638,9.95282,-34.6103,0,0,0,0,0,0,0,-1,965,386,9.9528,34.6103
-252,638,9.95746,-33.6964,0,0,0,0,0,0,0,-1,972,386,9.95744,33.6965
-245,638,9.84143,-32.9009,0,0,0,0,0,0,0,-1,979,386,9.84145,32.9009
-238,638,2.93518,-26.3649,0,0,0,0,0,0,0,-1,986,386,2.93516,26.3649
-231,638,2.36829,-26.0088,0,0,0,0,0,0,0,-1,993,386,2.3683,26.0088
-224,638,6.3465,-30.9124,0,0,0,0,0,0,0,-1,1000,386,6.34648,30.9124
-217,638,7.41205,-32.7263,0,0,0,0,0,0,0,-1,1007,386,7.41204,32.7262
-210,638,8.7038,-34.5688,0,0,0,0,0,0,0,-1,1014,386,8.70378,34.5689
-203,638,4.32593,-27.5803,0,0,0,0,0,0,0,-1,1021,386,4.32594,27.5803
-196,638,6.0614,-28.4651,0,0,0,0,0,0,0,-1,1028,386,6.06143,28.4651
-189,638,11.4561,-30.1556,0,0,0,0,0,0,0,-1,1035,386,11.456,30.1556
-182,638,6.45471,-33.4271,0,0,0,0,0,0,0,-1,1042,386,6.45473,33.427
-175,638,6.49841,-38.5815,0,0,0,0,0,0,0,-1,1049,386,6.49845,38.5815
-168,638,6.94287,-40.447,0,0,0,0,0,0,0,-1,1056,386,6.94287,40.447
-161,638,6.89478,-41.0381,0,0,0,0,0,0,0,-1,1063,386,6.8948,41.0381
-154,638,6.78906,-41.4569,0,0,0,0,0,0,0,-1,1070,386,6.789,41.457
-147,638,6.77954,-41.9125,0,0,0,0,0,0,0,-1,1077,386,6.7796,41.9125
-140,638,6.75647,-42.0456,0,0,0,0,0,0,0,-1,1084,386,6.75652,42.0456
-133,638,6.62158,-42.6783,0,0,0,0,0,0,0,-1,1091,386,6.62164,42.6783
-126,638,6.64001,-43.2314,-0.00594495,0.0109289,-0.00341283,0.0115931,-0.00660908,-1.3786,0.0106395,0.02269,1098,386,6.64006,43.2314
-119,638,6.57581,-43.6911,-0.0057524,0.0102117,-0.0029655,0.0107448,-0.00628547,-1.39294,0.00994417,0.0189922,1105,386,6.57579,43.6911
-112,638,6.53186,-44.1238,-0.00541329,0.00955773,-0.00255274,0.00998103,-0.00583659,-1.40647,0.00923621,0.0166044,1112,386,6.53186,44.1238
-105,638,6.47729,-44.5369,-0.00512658,0.00892316,-0.00229329,0.00928801,-0.00549143,-1.41302,0.00862625,0.0168605,1119,386,6.47728,44.5369
-98,638,6.4281,-44.9375,-0.00512144,0.00778196,-0.00181194,0.00803157,-0.00537105,-1.4339,0.00778866,0.0158447,1126,386,6.42815,44.9375
-91,638,6.37134,-45.3204,-0.00504108,0.00678149,-0.00145436,0.00695777,-0.00521736,-1.45018,0.00705322,0.0129484,1133,386,6.37131,45.3204
-84,638,6.32861,-45.6994,-0.00474417,0.00569901,-0.00117828,0.0058303,-0.00487546,-1.45983,0.00618917,0.0151963,1140,386,6.32856,45.6994
-77,638,6.31006,-46.0719,-0.00448599,0.00492472,-0.0009367,0.00501704,-0.00457832,-1.47255,0.00554182,0.0124156,1147,386,6.31005,46.0719
-70,638,6.28284,-46.4161,-0.00431701,0.00465434,-0.000726864,0.00471285,-0.00437552,-1.49047,0.00524838,0.0120751,1154,386,6.28285,46.4161
-63,638,6.25549,-46.7316,-0.00400024,0.00408902,-0.000640507,0.00413942,-0.00405064,-1.49227,0.00472863,0.0117625,1161,386,6.25554,46.7316
-56,638,6.2605,-47.0305,-0.003688,0.00359034,-0.000494578,0.0036238,-0.00372146,-1.50326,0.00424091,0.0153222,1168,386,6.2605,47.0305
-49,638,6.24158,-47.3198,-0.00338113,0.00350696,-0.000343813,0.00352408,-0.00339825,-1.52105,0.00399683,0.0140339,1175,386,6.24163,47.3198
-42,638,6.21313,-47.58,-0.00302194,0.00342873,-0.00018386,0.00343396,-0.00302718,-1.54232,0.00373281,0.0132776,1182,386,6.21312,47.58
-35,638,6.18872,-47.8658,-0.00278632,0.00347951,5.21201e-05,0.00347995,-0.00278675,1.56248,0.00362545,0.0116101,1189,386,6.18871,47.8659
-28,638,6.17334,-48.1413,-0.00250974,0.00344203,0.000281698,0.00345534,-0.00252305,1.52361,0.00346558,0.011096,1196,386,6.17333,48.1413
-21,638,6.13232,-48.342,-0.00216777,0.00342059,0.000378444,0.0034461,-0.00219328,1.50349,0.00328257,0.0125005,1203,386,6.13232,48.342
-14,638,6.11292,-48.5666,-0.00187494,0.0034034,0.000455949,0.0034425,-0.00191403,1.48526,0.00313428,0.012594,1210,386,6.11287,48.5666
-7,638,6.14502,-48.8461,-0.00160267,0.00339829,0.000433491,0.00343558,-0.00163997,1.48497,0.00299087,0.0187926,1217,386,6.14507,48.8461
0,638,6.16284,-48.8885,-0.00144991,0.0035636,0.000318738,0.00358378,-0.00147009,1.50756,0.00300172,0.034708,1224,386,6.16282,48.8885
7,638,6.10254,-49.0146,-0.00129678,0.00399792,0.000265157,0.00401117,-0.00131002,1.52088,0.00320142,0.0253833,1231,386,6.10255,49.0146
14,638,6.08167,-49.174,-0.0012526,0.00477368,0.000263573,0.00478519,-0.00126411,1.52717,0.0036845,0.013628,1238,386,6.08167,49.174
21,638,6.08813,-49.302,-0.00125077,0.00577314,0.000283041,0.00578453,-0.00126216,1.53059,0.00433871,0.0114829,1245,386,6.08818,49.302
28,638,6.09827,-49.4272,-0.00116268,0.00666043,0.000241873,0.0066679,-0.00117016,1.53992,0.00488229,0.00936512,1252,386,6.0983,49.4271
35,638,6.1012,-49.5015,-0.000895115,0.00772521,2.89272e-05,0.0077253,-0.000895212,1.56744,0.00547306,0.011121,1259,386,6.10125,49.5015
42,638,6.12061,-49.5718,-0.000760573,0.00875227,-9.37155e-05,0.0087532,-0.000761497,-1.56095,0.00610515,0.0105136,1266,386,6.12066,49.5718
49,638,6.14868,-49.6058,-0.000743898,0.00959894,-0.000162492,0.00960149,-0.000746451,-1.55509,0.00666376,0.00938712,1273,386,6.1487,49.6058
56,638,6.12561,-49.6258,-0.000656109,0.0102753,-0.000216084,0.0102796,-0.000660379,-1.55104,0.00708345,0.0124219,1280,386,6.12567,49.6258
63,638,6.10632,-49.6397,-0.000541933,0.010711,-0.00026665,0.0107173,-0.000548248,-1.54712,0.00733443,0.0145124,1287,386,6.10638,49.6397
70,638,6.09692,-49.6373,-0.000423353,0.0109066,-0.000268382,0.010913,-0.000429706,-1.54713,0.00742269,0.0196582,1294,386,6.09692,49.6373
77,638,6.0802,-49.6136,-0.000344029,0.0110226,-0.000190128,0.0110258,-0.000347208,-1.55408,0.00746893,0.0190131,1301,386,6.08022,49.6136
84,638,6.12952,-49.5618,-0.000325981,0.0107301,-0.000175515,0.0107329,-0.000328766,-1.55493,0.00726736,0.0133901,1308,386,6.12955,49.5618
91,638,6.13904,-49.4819,-0.000493791,0.0104586,-0.00021217,0.0104627,-0.000497899,-1.55143,0.0071469,0.0151842,1315,386,6.13904,49.4819
98,638,6.11707,-49.3662,-0.000648462,0.010394,-5.17287e-05,0.0103943,-0.000648703,-1.56611,0.00715555,0.0136865,1322,386,6.11709,49.3662
105,638,6.08411,-49.2721,-0.000635643,0.0105191,0.000204998,0.0105229,-0.000639409,1.55243,0.00723782,0.0100646,1329,386,6.08415,49.2721
112,638,6.08728,-49.1548,-0.000643956,0.0106124,0.000278087,0.0106193,-0.000650822,1.54611,0.00730612,0.00930686,1336,386,6.08729,49.1548
119,638,6.09607,-49.0014,-0.000671382,0.0105464,0.000405855,0.010561,-0.000686047,1.53468,0.00728015,0.0122484,1343,386,6.0961,49.0014
126,638,6.09326,-48.8009,-0.000733012,0.0107328,0.000500895,0.0107547,-0.000754853,1.52722,0.00743419,0.0167874,1350,386,6.09324,48.8009
133,638,6.07605,-48.6317,-0.000841798,0.0111994,0.000666094,0.0112362,-0.000878533,1.5157,0.00780014,0.0179115,1357,386,6.07608,48.6317
140,638,6.02478,-48.4575,-0.00102054,0.0114211,0.000986447,0.0114989,-0.00109827,1.49217,0.00805698,0.0181213,1364,386,6.02482,48.4575
147,638,6.00818,-48.2382,-0.00101256,0.0116805,0.00118317,0.0117898,-0.00112191,1.47864,0.00825928,0.0189873,1371,386,6.00814,48.2382
154,638,6.02185,-47.9968,-0.000838191,0.0118241,0.00122043,0.0119407,-0.000954747,1.47558,0.00829702,0.01737,1378,386,6.0219,47.9968
161,638,6.02295,-47.725,-0.000786895,0.011751,0.0012495,0.0118743,-0.000910204,1.47243,0.0082364,0.0200219,1385,386,6.02289,47.725
168,638,6.04907,-47.4032,-0.000948046,0.011318,0.00129952,0.0114542,-0.00108421,1.4664,0.00802197,0.0246995,1392,386,6.04908,47.4032
175,638,6.05115,-47.1198,-0.00117922,0.0108092,0.00140467,0.0109716,-0.00134161,1.4557,0.00780017,0.0194323,1399,386,6.0512,47.1198
182,638,5.9884,-46.875,-0.00146351,0.010216,0.00159112,0.0104289,-0.0016764,1.43779,0.00757349,0.0132167,1406,386,5.98844,46.875
189,638,5.97375,-46.5512,-0.00174472,0.00967047,0.00192266,0.0099856,-0.00205986,1.40834,0.00743936,0.0123201,1413,386,5.97371,46.5512
196,638,5.93311,-46.2006,-0.0019979,0.00945407,0.00239993,0.00993668,-0.00248051,1.37235,0.00758766,0.0149112,1420,386,5.93307,46.2006
203,638,5.89673,-45.8451,-0.00239355,0.00949572,0.00278823,0.0101171,-0.00301496,1.35151,0.00794282,0.0195784,1427,386,5.89677,45.8451
210,638,5.86743,-45.493,-0.00287254,0.00910174,0.00307488,0.00984519,-0.00361598,1.33357,0.0080444,0.0157154,1434,386,5.86748,45.493
217,638,5.82825,-45.0868,-0.00288807,0.00977945,0.00288314,0.0104048,-0.00351341,1.35721,0.00835756,0.0126357,1441,386,5.82829,45.0868
224,638,5.78674,-44.6508,-0.0024623,0.0109186,0.00283013,0.0114925,-0.00303627,1.3707,0.00884915,0.0117836,1448,386,5.78678,44.6508
231,638,5.71338,-44.2107,-0.00119975,0.0119102,0.00330251,0.0126951,-0.00198468,1.33745,0.00919665,0.0127828,1455,386,5.71336,44.2107
238,638,5.65674,-43.795,0.000282522,0.0139588,0.00452328,0.0153195,-0.00107813,1.2786,0.0105907,0.0140342,1462,386,5.65674,43.795
245,638,5.62427,-43.3127,0.00137518,0.0156729,0.00520438,0.0173667,-0.000318568,1.25616,0.0116854,0.016989,1469,386,5.62432,43.3127
252,638,5.64612,-42.8209,-0.00292417,0.0161635,0.00201459,0.0163738,-0.00313448,1.46678,0.0120968,0.0231958,1476,386,5.6461,42.8209
259,638,5.57593,-42.4224,-0.00880297,0.0166293,-0.00228746,0.0168334,-0.00900707,-1.4818,0.0151453,0.0222773,1483,386,5.57596,42.4224
266,638,5.46167,-41.9286,-0.0125636,0.0171725,-0.00467734,0.0178908,-0.013282,-1.4184,0.0180631,0.0134822,1490,386,5.46165,41.9286
273,638,5.43396,-41.4474,-0.0175805,0.0177069,-0.00790506,0.0193968,-0.0192704,-1.36019,0.0223246,0.0126695,1497,386,5.43398,41.4474
280,638,5.49536,-40.8236,-0.0239291,0.0178363,-0.0119184,0.020998,-0.0270908,-1.31149,0.0278383,0.0266354,1504,386,5.49532,40.8236
287,638,5.88318,-39.8552,-0.0313429,0.0177918,-0.0164878,0.0228117,-0.0363628,-1.27525,0.0344617,0.0478621,1511,386,5.88315,39.8552
294,638,6.05017,-39.0693,0,0,0,0,0,0,0,-1,1518,386,6.05018,39.0693
301,638,5.0863,-39.0496,0,0,0,0,0,0,0,-1,1525,386,5.08628,39.0496
308,638,5.53943,-38.1653,0,0,0,0,0,0,0,-1,1532,386,5.53942,38.1653
315,638,5.7439,-38.2853,0,0,0,0,0,0,0,-1,1539,386,5.74395,38.2853
322,638,5.94849,-38.4054,0,0,0,0,0,0,0,-1,1546,386,5.94848,38.4054
329,638,5.84534,-36.1208,0,0,0,0,0,0,0,-1,1553,386,5.84534,36.1207
336,638,5.03577,-35.1734,0,0,0,0,0,0,0,-1,1560,386,5.03583,35.1734
343,638,6.02783,-35.9932,0,0,0,0,0,0,0,-1,1567,386,6.02782,35.9932
350,638,5.91162,-19.0222,0,0,0,0,0,0,0,-1,1574,386,5.91165,19.0222
357,638,0.387329,-3.01077,0,0,0,0,0,0,0,-1,1581,386,0.387332,3.01077
364,638,3.78149,-6.45215,0,0,0,0,0,0,0,-1,1588,386,3.78155,6.45216
371,638,4.18604,-6.71164,0,0,0,0,0,0,0,-1,1595,386,4.18598,6.71164
378,638,4.59045,-6.97113,0,0,0,0,0,0,0,-1,1602,386,4.5904,6.97112
385,638,0,0,0,0,0,0,0,0,0,-1,1609,386,0,0
392,638,0,0,0,0,0,0,0,0,0,-1,1616,386,0,0
399,638,0,0,0,0,0,0,0,0,0,-1,1623,386,0,0
406,638,0,0,0,0,0,0,0,0,0,-1,1630,386,0,0
413,638,0,0,0,0,0,0,0,0,0,-1,1637,386,0,0
420,638,0,0,0,0,0,0,0,0,0,-1,1644,386,0,0
427,638,0,0,0,0,0,0,0,0,0,-1,1651,386,0,0
434,638,0,0,0,0,0,0,0,0,0,-1,1658,386,0,0
441,638,0,0,0,0,0,0,0,0,0,-1,1665,386,0,0
448,638,0,0,0,0,0,0,0,0,0,-1,1672,386,0,0
455,638,0,0,0,0,0,0,0,0,0,-1,1679,386,0,0
462,638,0,0,0,0,0,0,0,0,0,-1,1686,386,0,0
469,638,0,0,0,0,0,0,0,0,0,-1,1693,386,0,0
476,638,0,0,0,0,0,0,0,0,0,-1,1700,386,0,0
483,638,0,0,0,0,0,0,0,0,0,-1,1707,386,0,0
490,638,0,0,0,0,0,0,0,0,0,-1,1714,386,0,0
497,638,0,0,0,0,0,0,0,0,0,-1,1721,386,0,0
504,638,0,0,0,0,0,0,0,0,0,-1,1728,386,0,0
511,638,0,0,0,0,0,0,0,0,0,-1,1735,386,0,0
518,638,0,0,0,0,0,0,0,0,0,-1,1742,386,0,0
525,638,0,0,0,0,0,0,0,0,0,-1,1749,386,0,0
532,638,0,0,0,0,0,0,0,0,0,-1,1756,386,0,0
539,638,0,0,0,0,0,0,0,0,0,-1,1763,386,0,0
546,638,0,0,0,0,0,0,0,0,0,-1,1770,386,0,0
553,638,0,0,0,0,0,0,0,0,0,-1,1777,386,0,0
560,638,0,0,0,0,0,0,0,0,0,-1,1784,386,0,0
567,638,0,0,0,0,0,0,0,0,0,-1,1791,386,0,0
574,638,0,0,0,0,0,0,0,0,0,-1,1798,386,0,0
581,638,0,0,0,0,0,0,0,0,0,-1,1805,386,0,0
588,638,0,0,0,0,0,0,0,0,0,-1,1812,386,0,0
595,638,0,0,0,0,0,0,0,0,0,-1,1819,386,0,0
602,638,0,0,0,0,0,0,0,0,0,-1,1826,386,0,0
609,638,0,0,0,0,0,0,0,0,0,-1,1833,386,0,0
616,638,0,0,0,0,0,0,0,0,0,-1,1840,386,0,0
623,638,0,0,0,0,0,0,0,0,0,-1,1847,386,0,0
630,638,0,0,0,0,0,0,0,0,0,-1,1854,386,0,0
637,638,0,0,0,0,0,0,0,0,0,-1,1861,386,0,0
644,638,0,0,0,0,0,0,0,0,0,-1,1868,386,0,0
651,638,0,0,0,0,0,0,0,0,0,-1,1875,386,0,0
658,638,0,0,0,0,0,0,0,0,0,-1,1882,386,0,0
665,638,0,0,0,0,0,0,0,0,0,-1,1889,386,0,0
672,638,0,0,0,0,0,0,0,0,0,-1,1896,386,0,0
679,638,0,0,0,0,0,0,0,0,0,-1,1903,386,0,0
686,638,0,0,0,0,0,0,0,0,0,-1,1910,386,0,0
693,638,0,0,0,0,0,0,0,0,0,-1,1917,386,0,0
700,638,0,0,0,0,0,0,0,0,0,-1,1924,386,0,0
707,638,0,0,0,0,0,0,0,0,0,-1,1931,386,0,0
714,638,0,0,0,0,0,0,0,0,0,-1,1938,386,0,0
721,638,0,0,0,0,0,0,0,0,0,-1,1945,386,0,0
728,638,0,0,0,0,0,0,0,0,0,-1,1952,386,0,0
735,638,0,0,0,0,0,0,0,0,0,-1,1959,386,0,0
742,638,0,0,0,0,0,0,0,0,0,-1,1966,386,0,0
749,638,0,0,0,0,0,0,0,0,0,-1,1973,386,0,0
756,638,0,0,0,0,0,0,0,0,0,-1,1980,386,0,0
763,638,0,0,0,0,0,0,0,0,0,-1,1987,386,0,0
770,638,0,0,0,0,0,0,0,0,0,-1,1994,386,0,0
777,638,0,0,0,0,0,0,0,0,0,-1,2001,386,0,0
784,638,0,0,0,0,0,0,0,0,0,-1,2008,386,0,0
791,638,0,0,0,0,0,0,0,0,0,-1,2015,386,0,0
798,638,0,0,0,0,0,0,0,0,0,-1,2022,386,0,0
805,638,0,0,0,0,0,0,0,0,0,-1,2029,386,0,0
812,638,0,0,0,0,0,0,0,0,0,-1,2036,386,0,0
-700,631,0,0,0,0,0,0,0,0,0,-1,524,393,0,0
-693,631,0,0,0,0,0,0,0,0,0,-1,531,393,0,0
-686,631,0,0,0,0,0,0,0,0,0,-1,538,393,0,0
-679,631,0,0,0,0,0,0,0,0,0,-1,545,393,0,0
-672,631,0,0,0,0,0,0,0,0,0,-1,552,393,0,0
-665,631,0,0,0,0,0,0,0,0,0,-1,559,393,0,0
-658,631,0,0,0,0,0,0,0,0,0,-1,566,393,0,0
-651,631,0,0,0,0,0,0,0,0,0,-1,573,393,0,0
-644,631,0,0,0,0,0,0,0,0,0,-1,580,393,0,0
-637,631,0,0,0,0,0,0,0,0,0,-1,587,393,0,0
-630,631,0,0,0,0,0,0,0,0,0,-1,594,393,0,0
-623,631,0,0,0,0,0,0,0,0,0,-1,601,393,0,0
-616,631,0,0,0,0,0,0,0,0,0,-1,608,393,0,0
-609,631,0,0,0,0,0,0,0,0,0,-1,615,393,0,0
-602,631,0,0,0,0,0,0,0,0,0,-1,622,393,0,0
-595,631,0,0,0,0,0,0,0,0,0,-1,629,393,0,0
-588,631,0,0,0,0,0,0,0,0,0,-1,636,393,0,0
-581,631,0,0,0,0,0,0,0,0,0,-1,643,393,0,0
-574,631,0,0,0,0,0,0,0,0,0,-1,650,393,0,0
-567,631,0,0,0,0,0,0,0,0,0,-1,657,393,0,0
-560,631,0,0,0,0,0,0,0,0,0,-1,664,393,0,0
-553,631,0,0,0,0,0,0,0,0,0,-1,671,393,0,0
-546,631,0,0,0,0,0,0,0,0,0,-1,678,393,0,0
-539,631,0,0,0,0,0,0,0,0,0,-1,685,393,0,0
-532,631,0,0,0,0,0,0,0,0,0,-1,692,393,0,0
-525,631,0,0,0,0,0,0,0,0,0,-1,699,393,0,0
-518,631,0,0,0,0,0,0,0,0,0,-1,706,393,0,0
-511,631,0,0,0,0,0,0,0,0,0,-1,713,393,0,0
-504,631,0,0,0,0,0,0,0,0,0,-1,720,393,0,0
-497,631,0,0,0,0,0,0,0,0,0,-1,727,393,0,0
-490,631,0,0,0,0,0,0,0,0,0,-1,734,393,0,0
-483,631,0,0,0,0,0,0,0,0,0,-1,741,393,0,0
-476,631,0,0,0,0,0,0,0,0,0,-1,748,393,0,0
-469,631,0,0,0,0,0,0,0,0,0,-1,755,393,0,0
-462,631,0,0,0,0,0,0,0,0,0,-1,762,393,0,0
-455,631,0,0,0,0,0,0,0,0,0,-1,769,393,0,0
-448,631,0,0,0,0,0,0,0,0,0,-1,776,393,0,0
-441,631,0,0,0,0,0,0,0,0,0,-1,783,393,0,0
-434,631,0,0,0,0,0,0,0,0,0,-1,790,393,0,0
-427,631,0,0,0,0,0,0,0,0,0,-1,797,393,0,0
-420,631,0,0,0,0,0,0,0,0,0,-1,804,393,0,0
-413,631,0,0,0,0,0,0,0,0,0,-1,811,393,0,0
-406,631,0,0,0,0,0,0,0,0,0,-1,818,393,0,0
-399,631,0,0,0,0,0,0,0,0,0,-1,825,393,0,0
-392,631,0,0,0,0,0,0,0,0,0,-1,832,393,0,0
-385,631,0,0,0,0,0,0,0,0,0,-1,839,393,0,0
-378,631,0,0,0,0,0,0,0,0,0,-1,846,393,0,0
-371,631,0,0,0,0,0,0,0,0,0,-1,853,393,0,0
-364,631,0,0,0,0,0,0,0,0,0,-1,860,393,0,0
-357,631,0,0,0,0,0,0,0,0,0,-1,867,393,0,0
-350,631,0,0,0,0,0,0,0,0,0,-1,874,393,0,0
-343,631,0,0,0,0,0,0,0,0,0,-1,881,393,0,0
-336,631,0,0,0,0,0,0,0,0,0,-1,888,393,0,0
-329,631,0,0,0,0,0,0,0,0,0,-1,895,393,0,0
-322,631,0,0,0,0,0,0,0,0,0,-1,902,393,0,0
-315,631,0,0,0,0,0,0,0,0,0,-1,909,393,0,0
-308,631,0,0,0,0,0,0,0,0,0,-1,916,393,0,0
-301,631,0,0,0,0,0,0,0,0,0,-1,923,393,0,0
-294,631,0,0,0,0,0,0,0,0,0,-1,930,393,0,0
-287,631,0,0,0,0,0,0,0,0,0,-1,937,393,0,0
-280,631,7.71283,-34.969,0,0,0,0,0,0,0,-1,944,393,7.71282,34.969
-273,631,8.04437,-34.934,0,0,0,0,0,0,0,-1,951,393,8.04436,34.9339
-266,631,8.40277,-34.7584,0,0,0,0,0,0,0,-1,958,393,8.40275,34.7584
-259,631,8.56659,-34.037,0,0,0,0,0,0,0,-1,965,393,8.56662,34.037
-252,631,8.44446,-33.2643,0,0,0,0,0,0,0,-1,972,393,8.44445,33.2644
-245,631,8.34705,-32.527,0,0,0,0,0,0,0,-1,979,393,8.34704,32.527
-238,631,8.41888,-31.8855,0,0,0,0,0,0,0,-1,986,393,8.41887,31.8855
-231,631,2.14966,-25.2306,0,0,0,0,0,0,0,-1,993,393,2.14968,25.2306
-224,631,6.83575,-19.7909,0,0,0,0,0,0,0,-1,1000,393,6.83575,19.7909
-217,631,5.05188,-18.3867,0,0,0,0,0,0,0,-1,1007,393,5.0519,18.3866
-210,631,3.37842,-26.3769,0,0,0,0,0,0,0,-1,1014,393,3.37839,26.3769
-203,631,5.05298,-26.4169,0,0,0,0,0,0,0,-1,1021,393,5.05302,26.4169
-196,631,6.37903,-32.8375,0,0,0,0,0,0,0,-1,1028,393,6.37901,32.8375
-189,631,6.61633,-37.8982,0,0,0,0,0,0,0,-1,1035,393,6.61633,37.8982
-182,631,6.62866,-38.5416,0,0,0,0,0,0,0,-1,1042,393,6.62865,38.5416
-175,631,6.70764,-39.5728,0,0,0,0,0,0,0,-1,1049,393,6.7076,39.5728
-168,631,6.49951,-40.3162,-0.00448929,0.0189496,-0.0073119,0.0210435,-0.00658322,-1.29189,0.0166627,0.0294066,1056,393,6.49951,40.3162
-161,631,6.42151,-40.9122,-0.00456168,0.0167949,-0.0063186,0.0185243,-0.00629107,-1.30364,0.0148962,0.0166722,1063,393,6.42148,40.9122
-154,631,6.36902,-41.4423,-0.00444473,0.0145728,-0.00553608,0.0160669,-0.00593891,-1.30718,0.013146,0.0156359,1070,393,6.36904,41.4423
-147,631,6.3429,-41.9109,-0.00437275,0.0127452,-0.00477613,0.0139876,-0.00561518,-1.3163,0.0116567,0.0147202,1077,393,6.34288,41.9109
-140,631,6.31348,-42.4021,-0.00423496,0.0112698,-0.00412005,0.0122966,-0.00526178,-1.32655,0.010405,0.0112253,1084,393,6.3135,42.4021
-133,631,6.24634,-42.8618,-0.00417087,0.00966781,-0.0035719,0.0105354,-0.00503843,-1.33253,0.00917633,0.00825932,1091,393,6.24638,42.8618
-126,631,6.21106,-43.2911,-0.00409195,0.00845645,-0.00299982,0.00913671,-0.00477221,-1.3478,0.00816104,0.0120423,1098,393,6.21108,43.2911
-119,631,6.16443,-43.7256,-0.00382259,0.00776967,-0.0026043,0.00832787,-0.00438079,-1.35965,0.00745438,0.0162177,1105,393,6.16448,43.7256
-112,631,6.13782,-44.1608,-0.00345109,0.00715899,-0.00224179,0.00761321,-0.00390531,-1.37089,0.0067641,0.0161708,1112,393,6.13783,44.1608
-105,631,6.16577,-44.5591,-0.00313696,0.00657913,-0.00200225,0.00697557,-0.0035334,-1.37533,0.00617489,0.0208776,1119,393,6.16576,44.5591
-98,631,6.10315,-44.9493,-0.00299991,0.0056833,-0.00164035,0.00598284,-0.00329945,-1.39018,0.00543327,0.0173874,1126,393,6.10315,44.9493
-91,631,6.04272,-45.3418,-0.00281312,0.00489465,-0.00135699,0.00512658,-0.00304504,-1.40152,0.00476863,0.0190533,1133,393,6.04266,45.3418
-84,631,6.02112,-45.7333,-0.002495,0.00405125,-0.00111009,0.00423437,-0.00267813,-1.40731,0.0040245,0.018191,1140,393,6.0211,45.7333
-77,631,5.98132,-46.103,-0.00219727,0.00339009,-0.000876515,0.00352437,-0.00233155,-1.41879,0.00340421,0.0120448,1147,393,5.98128,46.103
-70,631,5.96301,-46.4319,-0.00193308,0.00300197,-0.000652314,0.00308673,-0.00201785,-1.44157,0.00296859,0.0136252,1154,393,5.96298,46.4319
-63,631,5.9635,-46.7642,-0.00156562,0.00246313,-0.000495436,0.00252317,-0.00162565,-1.45021,0.00241393,0.0134339,1161,393,5.96346,46.7642
-56,631,5.96228,-47.0866,-0.00122216,0.00187851,-0.000287117,0.00190487,-0.00124852,-1.47924,0.00183371,0.0139409,1168,393,5.9623,47.0866
-49,631,5.95825,-47.3545,-0.000904058,0.00154041,-6.75776e-05,0.00154227,-0.000905925,-1.54318,0.00142929,0.0115248,1175,393,5.95826,47.3545
-42,631,5.95227,-47.6083,-0.000515738,0.00114842,0.000181971,0.00116808,-0.000535404,1.46314,0.00100587,0.00975794,1182,393,5.95233,47.6083
-35,631,5.94214,-47.8755,-0.000193175,0.000712768,0.000419209,0.000876983,-0.00035739,1.19744,0.00073341,0.0106591,1189,393,5.94215,47.8755
-28,631,5.95496,-48.1248,4.61291e-05,0.000150606,0.000464179,0.000565477,-0.000368742,0.841432,0.000543344,0.0141873,1196,393,5.95494,48.1248
-21,631,5.92957,-48.3471,0.000275558,-0.000123613,0.000337093,0.00046772,-0.000315775,0.518112,0.000455178,0.0126788,1203,393,5.92952,48.3471
-14,631,5.91162,-48.5656,0.000527869,-0.000429739,0.000203022,0.000569133,-0.000471003,0.200519,0.000601413,0.0152362,1210,393,5.91167,48.5656
-7,631,5.96619,-48.8064,0.000584256,-0.000642119,-9.33912e-05,0.000591328,-0.000649191,-0.0755714,0.000716473,0.0234889,1217,393,5.96619,48.8064
0,631,5.94592,-48.9622,0.000381544,-0.000541072,-0.000550866,0.000638748,-0.000798275,-0.436825,0.000831368,0.0250755,1224,393,5.94588,48.9622
7,631,5.93469,-49.0692,0.000152715,-0.000270722,-0.000940794,0.000905319,-0.00102333,-0.674721,0.0011142,0.0196035,1231,393,5.93464,49.0692
14,631,5.96558,-49.2131,-0.000260454,0.000429568,-0.0013746,0.0015018,-0.00133268,-0.908353,0.00163746,0.0110621,1238,393,5.96553,49.2131
21,631,5.98792,-49.3162,-0.000664902,0.00108989,-0.00171469,0.00213863,-0.00171364,-1.02188,0.00222862,0.014046,1245,393,5.98786,49.3162
28,631,5.98462,-49.4024,-0.00092213,0.00170105,-0.00197656,0.00276161,-0.00198269,-1.07833,0.0027514,0.0158594,1252,393,5.9846,49.4024
35,631,6.0332,-49.486,-0.00107842,0.00245086,-0.00202088,0.00336911,-0.00199667,-1.1443,0.00313153,0.0148497,1259,393,6.03319,49.486
42,631,6.08777,-49.5554,-0.00133482,0.00307246,-0.00182192,0.00372809,-0.00199045,-1.22537,0.00335203,0.0123743,1266,393,6.0878,49.5554
49,631,6.10339,-49.6122,-0.00151184,0.00362235,-0.001623,0.00409237,-0.00198186,-1.28891,0.00357683,0.011498,1273,393,6.10338,49.6121
56,631,6.10876,-49.6663,-0.00151735,0.00394695,-0.00133951,0.00425765,-0.00182805,-1.34288,0.00360571,0.0141804,1280,393,6.10881,49.6663
63,631,6.08801,-49.6904,-0.00127272,0.00390482,-0.000875975,0.00404901,-0.0014169,-1.40766,0.00327544,0.0168489,1287,393,6.08797,49.6904
70,631,6.11255,-49.6448,-0.000849008,0.00368085,-0.000286933,0.00369895,-0.000867111,-1.50779,0.00280012,0.0170082,1294,393,6.11256,49.6448
77,631,6.12061,-49.6039,-0.000383702,0.00348444,0.00038602,0.00352259,-0.000421848,1.4723,0.0025009,0.0159779,1301,393,6.12058,49.6039
84,631,6.16614,-49.5764,0.000167106,0.00279478,0.000895867,0.00307114,-0.00010926,1.27157,0.0020848,0.013341,1308,393,6.16608,49.5764
91,631,6.19397,-49.4778,0.000441697,0.00246745,0.00119808,0.00302343,-0.000114283,1.13631,0.00205477,0.0161752,1315,393,6.19391,49.4778
98,631,6.21313,-49.3786,0.000786161,0.0025434,0.00166911,0.00355102,-0.000221456,1.02767,0.00244451,0.0139805,1322,393,6.21312,49.3786
105,631,6.19849,-49.292,0.00126311,0.00297538,0.00220463,0.00448428,-0.00024579,0.970603,0.00307472,0.0113823,1329,393,6.19848,49.292
112,631,6.2135,-49.1842,0.0015754,0.00341258,0.00236324,0.00502948,-4.15042e-05,0.970761,0.00336691,0.0116846,1336,393,6.21353,49.1842
119,631,6.23169,-49.0439,0.00180511,0.00372978,0.00256493,0.00550696,2.79252e-05,0.964867,0.00366203,0.012895,1343,393,6.23167,49.0439
126,631,6.24548,-48.8317,0.00180845,0.00458342,0.00254346,0.00609322,0.000298645,1.03509,0.00396635,0.0180132,1350,393,6.24544,48.8317
133,631,6.24133,-48.6604,0.00160626,0.00558368,0.00245521,0.00675456,0.00043538,1.1258,0.00436516,0.0198724,1357,393,6.24129,48.6604
140,631,6.2218,-48.4927,0.00136303,0.00626763,0.002285,0.00716719,0.000463464,1.19575,0.00463138,0.0208181,1364,393,6.22177,48.4927
147,631,6.18774,-48.247,0.00127932,0.00688957,0.00207746,0.00757508,0.000593806,1.25207,0.00486422,0.0232528,1371,393,6.18777,48.247
154,631,6.19373,-47.9828,0.00119488,0.00716092,0.00192402,0.00772759,0.000628215,1.28437,0.00495561,0.0225522,1378,393,6.19373,47.9828
161,631,6.27649,-47.7111,0.0010617,0.0072369,0.00175812,0.00770237,0.000596239,1.31198,0.00494815,0.0248195,1385,393,6.27654,47.7111
168,631,6.31616,-47.4026,0.000778653,0.00708406,0.00153758,0.00743902,0.000423693,1.34392,0.00482432,0.0285511,1392,393,6.31611,47.4026
175,631,6.30103,-47.1439,0.000496463,0.00676038,0.00133864,0.00703447,0.00022238,1.36884,0.0046173,0.0216216,1399,393,6.30106,47.1439
182,631,6.27161,-46.8896,0.000213991,0.00629914,0.00122494,0.00653647,-2.33331e-05,1.37942,0.00436544,0.0116104,1406,393,6.27159,46.8896
189,631,6.25244,-46.5594,-9.20573e-05,0.00603044,0.00126157,0.0062802,-0.00034182,1.37535,0.00430526,0.0112848,1413,393,6.2525,46.5594
196,631,6.21741,-46.2045,-0.000357528,0.00602074,0.00147039,0.00634339,-0.000680176,1.35479,0.00447292,0.0126371,1420,393,6.21747,46.2045
203,631,6.22278,-45.8492,-0.000757908,0.00623983,0.00171371,0.00663697,-0.00115505,1.34307,0.00485567,0.0141281,1427,393,6.22278,45.8492
210,631,6.22314,-45.4992,-0.00126,0.00634612,0.0019944,0.00683735,-0.00175123,1.3293,0.00524043,0.0157184,1434,393,6.22314,45.4992
217,631,6.19995,-45.129,-0.00144543,0.007052,0.00198814,0.00749415,-0.00188759,1.35196,0.00572989,0.0171735,1441,393,6.19999,45.129
224,631,6.15076,-44.7182,-0.00129589,0.00797497,0.00206989,0.00841612,-0.00173704,1.36081,0.00627048,0.0144846,1448,393,6.15074,44.7182
231,631,6.09424,-44.2924,-0.000565672,0.00879981,0.00252391,0.00943667,-0.00120253,1.32362,0.00672788,0.0120485,1455,393,6.09429,44.2924
238,631,6.06689,-43.8449,0.00037044,0.0103863,0.00350983,0.0114938,-0.000737042,1.26515,0.00791964,0.0171969,1462,393,6.06691,43.8449
245,631,6.03406,-43.3897,0.00105619,0.0117397,0.00410771,0.0131364,-0.000340576,1.24303,0.00887332,0.0182326,1469,393,6.03411,43.3897
252,631,6.00854,-42.9498,-0.00152254,0.0124501,0.00232565,0.012827,-0.00189945,1.41012,0.00924975,0.0172958,1476,393,6.00856,42.9498
259,631,5.96875,-42.4788,-0.00523432,0.0131547,-0.000186989,0.0131566,-0.00523622,-1.56063,0.0109424,0.0128362,1483,393,5.96876,42.4788
266,631,5.96277,-41.9846,-0.00768435,0.0138445,-0.00151859,0.0139511,-0.00779094,-1.50072,0.0127196,0.0121443,1490,393,5.96278,41.9846
273,631,5.93396,-41.4907,-0.0109524,0.0145485,-0.00343703,0.0150036,-0.0114075,-1.43914,0.0152955,0.0152525,1497,393,5.93401,41.4907
280,631,5.87671,-40.9487,-0.0150914,0.0149708,-0.00587183,0.016077,-0.0161976,-1.38459,0.0186338,0.014592,1504,393,5.87676,40.9487
287,631,5.83716,-40.3979,-0.0198612,0.0153307,-0.00860976,0.0173242,-0.0218547,-1.34327,0.0226703,0.0173594,1511,393,5.83719,40.3979
294,631,5.7561,-39.7896,-0.0252268,0.0154322,-0.0117411,0.0185791,-0.0283737,-1.30892,0.0273041,0.0223801,1518,393,5.75605,39.7895
301,631,5.63989,-39.1514,-0.0306682,0.015323,-0.0149167,0.0197374,-0.0350826,-1.28307,0.032061,0.0325638,1525,393,5.63993,39.1514
308,631,6.00745,-38.5208,-0.0360888,0.0152323,-0.0180462,0.0209426,-0.0417991,-1.26434,0.036885,0.0368623,1532,393,6.00739,38.5208
315,631,5.97156,-38.114,-0.0409078,0.0152351,-0.0207049,0.0220449,-0.0477175,-1.25305,0.0411764,0.042722,1539,393,5.9716,38.114
322,631,5.59644,-37.6806,0,0,0,0,0,0,0,-1,1546,393,5.59643,37.6806
329,631,5.71887,-35.7751,0,0,0,0,0,0,0,-1,1553,393,5.71886,35.7751
336,631,5.44824,-35.55,0,0,0,0,0,0,0,-1,1560,393,5.44822,35.55
343,631,5.17761,-35.3249,0,0,0,0,0,0,0,-1,1567,393,5.17758,35.3249
350,631,2.1344,-9.23401,0,0,0,0,0,0,0,-1,1574,393,2.13439,9.23401
357,631,2.6449,-9.60303,0,0,0,0,0,0,0,-1,1581,393,2.64491,9.60304
364,631,3.39136,-5.7594,0,0,0,0,0,0,0,-1,1588,393,3.39137,5.75939
371,631,3.72839,-6.0574,0,0,0,0,0,0,0,-1,1595,393,3.72845,6.05742
378,631,4.06555,-6.35544,0,0,0,0,0,0,0,-1,1602,393,4.06553,6.35544
385,631,3.90442,-3.58298,0,0,0,0,0,0,0,-1,1609,393,3.90437,3.58299
392,631,0.352295,-2.21301,0,0,0,0,0,0,0,-1,1616,393,0.352345,2.213
399,631,0,0,0,0,0,0,0,0,0,-1,1623,393,0,0
406,631,0,0,0,0,0,0,0,0,0,-1,1630,393,0,0
413,631,0,0,0,0,0,0,0,0,0,-1,1637,393,0,0
420,631,0,0,0,0,0,0,0,0,0,-1,1644,393,0,0
427,631,0,0,0,0,0,0,0,0,0,-1,1651,393,0,0
434,631,0,0,0,0,0,0,0,0,0,-1,1658,393,0,0
441,631,0,0,0,0,0,0,0,0,0,-1,1665,393,0,0
448,631,0,0,0,0,0,0,0,0,0,-1,1672,393,0,0
455,631,0,0,0,0,0,0,0,0,0,-1,1679,393,0,0
462,631,0,0,0,0,0,0,0,0,0,-1,1686,393,0,0
469,631,0,0,0,0,0,0,0,0,0,-1,1693,393,0,0
476,631,0,0,0,0,0,0,0,0,0,-1,1700,393,0,0
483,631,0,0,0,0,0,0,0,0,0,-1,1707,393,0,0
490,631,0,0,0,0,0,0,0,0,0,-1,1714,393,0,0
497,631,0,0,0,0,0,0,0,0,0,-1,1721,393,0,0
504,631,0,0,0,0,0,0,0,0,0,-1,1728,393,0,0
511,631,0,0,0,0,0,0,0,0,0,-1,1735,393,0,0
518,631,0,0,0,0,0,0,0,0,0,-1,1742,393,0,0
525,631,0,0,0,0,0,0,0,0,0,-1,1749,393,0,0
532,631,0,0,0,0,0,0,0,0,0,-1,1756,393,0,0
539,631,0,0,0,0,0,0,0,0,0,-1,1763,393,0,0
546,631,0,0,0,0,0,0,0,0,0,-1,1770,393,0,0
553,631,0,0,0,0,0,0,0,0,0,-1,1777,393,0,0
560,631,0,0,0,0,0,0,0,0,0,-1,1784,393,0,0
567,631,0,0,0,0,0,0,0,0,0,-1,1791,393,0,0
574,631,0,0,0,0,0,0,0,0,0,-1,1798,393,0,0
581,631,0,0,0,0,0,0,0,0,0,-1,1805,393,0,0
588,631,0,0,0,0,0,0,0,0,0,-1,1812,393,0,0
595,631,0,0,0,0,0,0,0,0,0,-1,1819,393,0,0
602,631,0,0,0,0,0,0,0,0,0,-1,1826,393,0,0
609,631,0,0,0,0,0,0,0,0,0,-1,1833,393,0,0
616,631,0,0,0,0,0,0,0,0,0,-1,1840,393,0,0
623,631,0,0,0,0,0,0,0,0,0,-1,1847,393,0,0
630,631,0,0,0,0,0,0,0,0,0,-1,1854,393,0,0
637,631,0,0,0,0,0,0,0,0,0,-1,1861,393,0,0
644,631,0,0,0,0,0,0,0,0,0,-1,1868,393,0,0
651,631,0,0,0,0,0,0,0,0,0,-1,1875,393,0,0
658,631,0,0,0,0,0,0,0,0,0,-1,1882,393,0,0
665,631,0,0,0,0,0,0,0,0,0,-1,1889,393,0,0
672,631,0,0,0,0,0,0,0,0,0,-1,1896,393,0,0
679,631,0,0,0,0,0,0,0,0,0,-1,1903,393,0,0
686,631,0,0,0,0,0,0,0,0,0,-1,1910,393,0,0
693,631,0,0,0,0,0,0,0,0,0,-1,1917,393,0,0
700,631,0,0,0,0,0,0,0,0,0,-1,1924,393,0,0
707,631,0,0,0,0,0,0,0,0,0,-1,1931,393,0,0
714,631,0,0,0,0,0,0,0,0,0,-1,1938,393,0,0
721,631,0,0,0,0,0,0,0,0,0,-1,1945,393,0,0
728,631,0,0,0,0,0,0,0,0,0,-1,1952,393,0,0
735,631,0,0,0,0,0,0,0,0,0,-1,1959,393,0,0
742,631,0,0,0,0,0,0,0,0,0,-1,1966,393,0,0
749,631,0,0,0,0,0,0,0,0,0,-1,1973,393,0,0
756,631,0,0,0,0,0,0,0,0,0,-1,1980,393,0,0
763,631,0,0,0,0,0,0,0,0,0,-1,1987,393,0,0
770,631,0,0,0,0,0,0,0,0,0,-1,1994,393,0,0
777,631,0,0,0,0,0,0,0,0,0,-1,2001,393,0,0
784,631,0,0,0,0,0,0,0,0,0,-1,2008,393,0,0
791,631,0,0,0,0,0,0,0,0,0,-1,2015,393,0,0
798,631,0,0,0,0,0,0,0,0,0,-1,2022,393,0,0
805,631,0,0,0,0,0,0,0,0,0,-1,2029,393,0,0
812,631,0,0,0,0,0,0,0,0,0,-1,2036,393,0,0
-700,624,0,0,0,0,0,0,0,0,0,-1,524,400,0,0
-693,624,0,0,0,0,0,0,0,0,0,-1,531,400,0,0
-686,624,0,0,0,0,0,0,0,0,0,-1,538,400,0,0
-679,624,0,0,0,0,0,0,0,0,0,-1,545,400,0,0
-672,624,0,0,0,0,0,0,0,0,0,-1,552,400,0,0
-665,624,0,0,0,0,0,0,0,0,0,-1,559,400,0,0
-658,624,0,0,0,0,0,0,0,0,0,-1,566,400,0,0
-651,624,0,0,0,0,0,0,0,0,0,-1,573,400,0,0
-644,624,0,0,0,0,0,0,0,0,0,-1,580,400,0,0
-637,624,0,0,0,0,0,0,0,0,0,-1,587,400,0,0
-630,624,0,0,0,0,0,0,0,0,0,-1,594,400,0,0
-623,624,0,0,0,0,0,0,0,0,0,-1,601,400,0,0
-616,624,0,0,0,0,0,0,0,0,0,-1,608,400,0,0
-609,624,0,0,0,0,0,0,0,0,0,-1,615,400,0,0
-602,624,0,0,0,0,0,0,0,0,0,-1,622,400,0,0
-595,624,0,0,0,0,0,0,0,0,0,-1,629,400,0,0
-588,624,0,0,0,0,0,0,0,0,0,-1,636,400,0,0
-581,624,0,0,0,0,0,0,0,0,0,-1,643,400,0,0
-574,624,0,0,0,0,0,0,0,0,0,-1,650,400,0,0
-567,624,0,0,0,0,0,0,0,0,0,-1,657,400,0,0
-560,624,0,0,0,0,0,0,0,0,0,-1,664,400,0,0
-553,624,0,0,0,0,0,0,0,0,0,-1,671,400,0,0
-546,624,0,0,0,0,0,0,0,0,0,-1,678,400,0,0
-539,624,0,0,0,0,0,0,0,0,0,-1,685,400,0,0
-532,624,0,0,0,0,0,0,0,0,0,-1,692,400,0,0
-525,624,0,0,0,0,0,0,0,0,0,-1,699,400,0,0
-518,624,0,0,0,0,0,0,0,0,0,-1,706,400,0,0
-511,624,0,0,0,0,0,0,0,0,0,-1,713,400,0,0
-504,624,0,0,0,0,0,0,0,0,0,-1,720,400,0,0
-497,624,0,0,0,0,0,0,0,0,0,-1,727,400,0,0
-490,624,0,0,0,0,0,0,0,0,0,-1,734,400,0,0
-483,624,0,0,0,0,0,0,0,0,0,-1,741,400,0,0
-476,624,0,0,0,0,0,0,0,0,0,-1,748,400,0,0
-469,624,0,0,0,0,0,0,0,0,0,-1,755,400,0,0
-462,624,0,0,0,0,0,0,0,0,0,-1,762,400,0,0
-455,624,0,0,0,0,0,0,0,0,0,-1,769,400,0,0
-448,624,0,0,0,0,0,0,0,0,0,-1,776,400,0,0
-441,624,0,0,0,0,0,0,0,0,0,-1,783,400,0,0
-434,624,0,0,0,0,0,0,0,0,0,-1,790,400,0,0
-427,624,0,0,0,0,0,0,0,0,0,-1,797,400,0,0
-420,624,0,0,0,0,0,0,0,0,0,-1,804,400,0,0
-413,624,0,0,0,0,0,0,0,0,0,-1,811,400,0,0
-406,624,0,0,0,0,0,0,0,0,0,-1,818,400,0,0
-399,624,0,0,0,0,0,0,0,0,0,-1,825,400,0,0
-392,624,0,0,0,0,0,0,0,0,0,-1,832,400,0,0
-385,624,0,0,0,0,0,0,0,0,0,-1,839,400,0,0
-378,624,0,0,0,0,0,0,0,0,0,-1,846,400,0,0
-371,624,0,0,0,0,0,0,0,0,0,-1,853,400,0,0
-364,624,0,0,0,0,0,0,0,0,0,-1,860,400,0,0
-357,624,0,0,0,0,0,0,0,0,0,-1,867,400,0,0
-350,624,0,0,0,0,0,0,0,0,0,-1,874,400,0,0
-343,624,0,0,0,0,0,0,0,0,0,-1,881,400,0,0
-336,624,0,0,0,0,0,0,0,0,0,-1,888,400,0,0
-329,624,0,0,0,0,0,0,0,0,0,-1,895,400,0,0
-322,624,0,0,0,0,0,0,0,0,0,-1,902,400,0,0
-315,624,0,0,0,0,0,0,0,0,0,-1,909,400,0,0
-308,624,0,0,0,0,0,0,0,0,0,-1,916,400,0,0
-301,624,0,0,0,0,0,0,0,0,0,-1,923,400,0,0
-294,624,5.08527,-28.5311,0,0,0,0,0,0,0,-1,930,400,5.08525,28.5311
-287,624,6.70825,-33.8,0,0,0,0,0,0,0,-1,937,400,6.70827,33.8
-280,624,6.92474,-33.8738,0,0,0,0,0,0,0,-1,944,400,6.92477,33.8739
-273,624,7.09149,-33.6875,0,0,0,0,0,0,0,-1,951,400,7.09148,33.6875
-266,624,7.17694,-33.4507,0,0,0,0,0,0,0,-1,958,400,7.17693,33.4507
-259,624,7.33569,-33.1199,0,0,0,0,0,0,0,-1,965,400,7.33567,33.1199
-252,624,7.5528,-32.8158,0,0,0,0,0,0,0,-1,972,400,7.5528,32.8158
-245,624,6.8396,-32.02,0,0,0,0,0,0,0,-1,979,400,6.83963,32.02
-238,624,6.99402,-31.5278,0,0,0,0,0,0,0,-1,986,400,6.99404,31.5278
-231,624,3.86121,-29.6032,0,0,0,0,0,0,0,-1,993,400,3.86122,29.6032
-224,624,4.59351,-27.4048,0,0,0,0,0,0,0,-1,1000,400,4.59353,27.4048
-217,624,5.90167,-32.048,0,0,0,0,0,0,0,-1,1007,400,5.90167,32.048
-210,624,6.52252,-36.8114,0,0,0,0,0,0,0,-1,1014,400,6.52252,36.8114
-203,624,6.31335,-37.3979,0,0,0,0,0,0,0,-1,1021,400,6.31331,37.3979
-196,624,6.1886,-38.0164,0,0,0,0,0,0,0,-1,1028,400,6.18864,38.0163
-189,624,6.11072,-38.3955,-0.00261287,0.023867,-0.00923673,0.0267706,-0.00551645,-1.26623,0.0199418,0.0489936,1035,400,6.11069,38.3955
-182,624,6.14026,-38.9992,-0.00282574,0.0206465,-0.00822572,0.0232421,-0.00542137,-1.26514,0.0175827,0.0414963,1042,400,6.14021,38.9992
-175,624,6.15723,-39.77,-0.00315221,0.0174142,-0.00699688,0.0195689,-0.00530687,-1.27207,0.0151284,0.0254508,1049,400,6.15721,39.77
-168,624,6.05762,-40.4043,-0.00335478,0.0151557,-0.00604223,0.0169534,-0.0051525,-1.28161,0.0133553,0.0152884,1056,400,6.05765,40.4043
-161,624,5.9624,-40.9561,-0.00331194,0.0133288,-0.00526221,0.0148532,-0.00483633,-1.28883,0.011848,0.0104699,1063,400,5.96242,40.9562
-154,624,5.94031,-41.4411,-0.00312933,0.0114552,-0.00460331,0.0127866,-0.00446073,-1.28925,0.0103373,0.0099655,1070,400,5.94033,41.4411
-147,624,5.91577,-41.932,-0.00298145,0.00985743,-0.00394522,0.0109728,-0.00409686,-1.29526,0.00899732,0.0112751,1077,400,5.91578,41.932
-140,624,5.87671,-42.4166,-0.00276633,0.00847056,-0.00335589,0.00939649,-0.00369226,-1.30158,0.00779234,0.0101013,1084,400,5.87674,42.4166
-133,624,5.83069,-42.8669,-0.00261576,0.00697764,-0.00285632,0.00776367,-0.00340179,-1.30225,0.00660832,0.0104032,1091,400,5.83064,42.8668
-126,624,5.80212,-43.2927,-0.00245395,0.00582503,-0.00235608,0.00644858,-0.00307749,-1.31208,0.0056135,0.0123291,1098,400,5.80208,43.2927
-119,624,5.75354,-43.7319,-0.00212576,0.00511266,-0.00198854,0.00562297,-0.00263607,-1.31959,0.0048712,0.0151848,1105,400,5.75354,43.7319
-112,624,5.72205,-44.1611,-0.00172988,0.00450422,-0.00166429,0.0049207,-0.00214636,-1.32559,0.00418366,0.0184317,1112,400,5.72202,44.1611
-105,624,5.77112,-44.5546,-0.00138227,0.00395171,-0.00144658,0.00431876,-0.00174933,-1.3223,0.00360659,0.0140918,1119,400,5.7711,44.5546
-98,624,5.71997,-44.9337,-0.00112498,0.00322996,-0.00117525,0.00352688,-0.0014219,-1.32333,0.00294207,0.0150777,1126,400,5.71993,44.9337
-91,624,5.70728,-45.3414,-0.000821492,0.00263161,-0.000970631,0.00288574,-0.00107562,-1.31472,0.00236534,0.0214847,1133,400,5.70724,45.3414
-84,624,5.74109,-45.7526,-0.000443284,0.00201906,-0.000781145,0.00224596,-0.000670184,-1.2881,0.00176367,0.0194998,1140,400,5.74105,45.7526
-77,624,5.69812,-46.11,-6.73752e-05,0.00153335,-0.000602186,0.00173459,-0.000268616,-1.24828,0.00125555,0.0140954,1147,400,5.69812,46.1101
-70,624,5.67603,-46.4214,0.000326501,0.00122559,-0.00041963,0.00139101,0.000161082,-1.1953,0.000878579,0.0158196,1154,400,5.67599,46.4213
-63,624,5.69067,-46.7586,0.000795335,0.000820713,-0.000243489,0.00105184,0.000564205,-0.811431,0.000607818,0.0166401,1161,400,5.6907,46.7586
-56,624,5.66492,-47.0818,0.00118254,9.39501e-05,3.4292e-05,0.00118362,9.2871e-05,0.0314596,0.000760019,0.0134671,1168,400,5.66493,47.0818
-49,624,5.68372,-47.3634,0.00151543,-0.000505795,0.000313221,0.00156285,-0.000553221,0.150272,0.00126722,0.0109075,1175,400,5.68376,47.3634
-42,624,5.68335,-47.6169,0.00194685,-0.00123498,0.000658344,0.00207769,-0.00136582,0.196179,0.00200222,0.0098681,1182,400,5.6834,47.6169
-35,624,5.68555,-47.8708,0.00208844,-0.00204073,0.00108148,0.00235454,-0.00230683,0.241261,0.00269129,0.0149031,1189,400,5.68556,47.8707
-28,624,5.69495,-48.1366,0.00188287,-0.00285059,0.00108739,0.00212072,-0.00308844,0.215342,0.00302476,0.0202786,1196,400,5.695,48.1366
-21,624,5.70203,-48.3454,0.00171865,-0.00316496,0.000809781,0.00184942,-0.00329573,0.160109,0.00300942,0.0147984,1203,400,5.70197,48.3454
-14,624,5.7345,-48.5422,0.00158522,-0.00350095,0.000562148,0.00164661,-0.00356234,0.108776,0.00307444,0.0157242,1210,400,5.73444,48.5422
-7,624,5.77136,-48.7143,0.00108907,-0.00366343,8.8717e-05,0.00109073,-0.00366508,0.0186588,0.00287674,0.0209659,1217,400,5.7714,48.7143
0,624,5.79675,-48.8872,0.000285636,-0.00336417,-0.000653482,0.000399111,-0.00347764,-0.171933,0.00246227,0.0207377,1224,400,5.79681,48.8872
7,624,5.77417,-49.0625,-0.000430464,-0.00303196,-0.00126242,8.14252e-05,-0.00354385,-0.385223,0.00239017,0.0152662,1231,400,5.77412,49.0625
14,624,5.86121,-49.2243,-0.00128711,-0.002181,-0.00204149,0.000355785,-0.0038239,-0.677633,0.00267576,0.0125468,1238,400,5.86118,49.2243
21,624,5.88037,-49.3358,-0.00207409,-0.00169083,-0.00268005,0.000804428,-0.00456935,-0.821089,0.00334676,0.0145484,1245,400,5.88036,49.3359
28,624,5.89514,-49.4275,-0.0025801,-0.00129626,-0.00312975,0.00125672,-0.00513309,-0.886547,0.0039089,0.0137612,1252,400,5.8951,49.4275
35,624,5.93433,-49.4918,-0.00292853,-0.000805847,-0.00306833,0.00137952,-0.0051139,-0.951908,0.00395023,0.0159998,1259,400,5.93431,49.4918
42,624,6.00793,-49.5627,-0.00329941,-0.000475713,-0.00266464,0.001128,-0.00490312,-1.02902,0.00370247,0.0173402,1266,400,6.00791,49.5627
49,624,6.06055,-49.5953,-0.00346351,-0.000192416,-0.00219219,0.000907126,-0.00456305,-1.10589,0.00338517,0.0201342,1273,400,6.06055,49.5953
56,624,6.11499,-49.6501,-0.00336325,-0.00013033,-0.00144821,0.00042352,-0.0039171,-1.20552,0.00276341,0.0218305,1280,400,6.11504,49.6501
63,624,6.12756,-49.6632,-0.00279206,-0.000653687,-0.00042243,-0.000573262,-0.00287249,-1.38266,0.00175539,0.0173559,1287,400,6.12755,49.6632
70,624,6.12573,-49.6643,-0.0017878,-0.00130749,0.000761693,-0.000748987,-0.0023463,0.93811,0.00138384,0.0148244,1294,400,6.12578,49.6643
77,624,6.16748,-49.6054,-0.000803385,-0.00184848,0.00208131,0.000819978,-0.00347184,0.662408,0.00263083,0.0143406,1301,400,6.1675,49.6054
84,624,6.2146,-49.5741,0.000185526,-0.00248157,0.00324083,0.00235645,-0.0046525,0.590215,0.00411836,0.0132648,1308,400,6.21463,49.5741
91,624,6.24939,-49.4877,0.000848061,-0.0026464,0.0040066,0.00347183,-0.00527017,0.579786,0.00508267,0.0137987,1315,400,6.24942,49.4877
98,624,6.28931,-49.4027,0.00161831,-0.00215114,0.00488609,0.00497058,-0.0055034,0.601325,0.00604977,0.013246,1322,400,6.28929,49.4027
105,624,6.31836,-49.3251,0.00252152,-0.00112189,0.00576837,0.006749,-0.00534937,0.63245,0.00700056,0.0142234,1329,400,6.31842,49.3251
112,624,6.34204,-49.215,0.00310218,-8.27951e-05,0.00595053,0.00766963,-0.00465024,0.654651,0.00718373,0.0150875,1336,400,6.34202,49.215
119,624,6.36682,-49.0958,0.00354385,0.000857044,0.00613694,0.0084827,-0.00408182,0.677646,0.00740097,0.0154788,1343,400,6.36681,49.0958
126,624,6.3728,-48.8762,0.00369427,0.00254295,0.00592506,0.00907157,-0.00283435,0.736972,0.00718143,0.0178916,1350,400,6.37283,48.8762
133,624,6.42334,-48.6607,0.00348594,0.00420781,0.00549358,0.0093523,-0.00165855,0.818202,0.00685493,0.0186171,1357,400,6.4234,48.6607
140,624,6.4375,-48.4798,0.0031919,0.00537008,0.00477955,0.00918305,-0.000621073,0.897418,0.00633921,0.0181398,1364,400,6.43749,48.4798
147,624,6.38733,-48.2288,0.00304163,0.00621576,0.00411795,0.00904189,0.000215497,0.969328,0.00595739,0.0223768,1371,400,6.38728,48.2288
154,624,6.44617,-47.9997,0.00279998,0.00645591,0.0035993,0.00866483,0.000591066,1.02036,0.00558996,0.0266201,1378,400,6.44611,47.9997
161,624,6.54358,-47.7629,0.00253986,0.00638828,0.00303633,0.00805877,0.000869367,1.06782,0.00510745,0.0253664,1385,400,6.54359,47.7629
168,624,6.59509,-47.481,0.00209994,0.00631751,0.0024521,0.00744288,0.000974569,1.14053,0.00467108,0.0235845,1392,400,6.59505,47.4811
175,624,6.6012,-47.2207,0.00169662,0.00582382,0.00184997,0.00653165,0.000988788,1.20536,0.00406512,0.0177635,1399,400,6.60126,47.2207
182,624,6.58362,-46.9185,0.00151801,0.00497825,0.00142757,0.00549118,0.00100508,1.22586,0.00337601,0.0108573,1406,400,6.58357,46.9185
189,624,6.5564,-46.5726,0.00132701,0.00431015,0.00114853,0.00470111,0.000936053,1.2427,0.00287333,0.0106158,1413,400,6.55643,46.5726
196,624,6.53333,-46.2249,0.00122165,0.0040146,0.000968929,0.00431782,0.000918433,1.26751,0.00262649,0.012626,1420,400,6.53335,46.2249
203,624,6.56616,-45.851,0.000884134,0.00383043,0.000840375,0.00405328,0.000661288,1.31159,0.00251095,0.0154971,1427,400,6.56615,45.851
210,624,6.61121,-45.494,0.000345016,0.00374249,0.0008824,0.00395799,0.000129507,1.33125,0.00259657,0.0190911,1434,400,6.61118,45.494
217,624,6.57251,-45.1074,-4.29836e-05,0.00452128,0.00104426,0.00474885,-0.000270555,1.35623,0.00325983,0.0211103,1441,400,6.57255,45.1074
224,624,6.53296,-44.7015,-0.000170323,0.00537244,0.0012614,0.005646,-0.000443885,1.35723,0.00392035,0.0168646,1448,400,6.53291,44.7015
231,624,6.52734,-44.3214,8.45139e-05,0.00615341,0.00171505,0.00660454,-0.000366617,1.31358,0.00453018,0.0125347,1455,400,6.52739,44.3214
238,624,6.50305,-43.9105,0.000560905,0.00741809,0.00249467,0.00822962,-0.000250623,1.25629,0.00557183,0.0168414,1462,400,6.50308,43.9105
245,624,6.48291,-43.4678,0.000948284,0.00854839,0.0030209,0.00960284,-0.000106171,1.23497,0.00643758,0.0177733,1469,400,6.48287,43.4678
252,624,6.44702,-42.9846,-0.000466961,0.00938029,0.00219868,0.00984891,-0.000935579,1.3608,0.00689898,0.0132446,1476,400,6.44702,42.9845
259,624,6.41077,-42.5198,-0.00269969,0.0101852,0.000893922,0.0102469,-0.00276142,1.50186,0.00791398,0.00961293,1483,400,6.41075,42.5198
266,624,6.42444,-42.0113,-0.00428998,0.010915,0.000224545,0.0109183,-0.00429329,1.55603,0.00905581,0.0135916,1490,400,6.42438,42.0113
273,624,6.40625,-41.5087,-0.00640424,0.0116692,-0.000848783,0.0117089,-0.00644402,-1.52397,0.0106265,0.0171264,1497,400,6.40623,41.5087
280,624,6.33289,-40.9967,-0.00907594,0.0122266,-0.00224611,0.0124608,-0.00931019,-1.46688,0.0126133,0.0157796,1504,400,6.33285,40.9967
287,624,6.27649,-40.5029,-0.0121032,0.0127853,-0.00379085,0.0133499,-0.0126678,-1.42295,0.015023,0.0121649,1511,400,6.2765,40.5029
294,624,6.24097,-39.9825,-0.0155327,0.0131231,-0.00560287,0.0141797,-0.0165892,-1.38441,0.0177826,0.0101699,1518,400,6.24097,39.9825
301,624,6.19336,-39.3972,-0.0189653,0.0132824,-0.00740343,0.0149009,-0.0205837,-1.35557,0.0205744,0.0119592,1525,400,6.19341,39.3972
308,624,6.18079,-38.7804,-0.0222447,0.0134698,-0.00906931,0.0156409,-0.0244158,-1.33583,0.0233109,0.0163835,1532,400,6.18079,38.7804
315,624,6.14453,-38.2242,-0.0250257,0.013768,-0.0103422,0.0163529,-0.0276106,-1.32587,0.0256582,0.0210291,1539,400,6.1445,38.2243
322,624,6.10083,-37.6969,-0.027431,0.0140177,-0.0112213,0.0168606,-0.0302739,-1.32267,0.027578,0.040511,1546,400,6.10087,37.6969
329,624,6.0542,-37.1688,0,0,0,0,0,0,0,-1,1553,400,6.05414,37.1688
336,624,5.98792,-36.0067,0,0,0,0,0,0,0,-1,1560,400,5.9879,36.0068
343,624,6.04382,-35.555,0,0,0,0,0,0,0,-1,1567,400,6.04385,35.555
350,624,1.99194,-7.29742,0,0,0,0,0,0,0,-1,1574,400,1.99198,7.29741
357,624,2.64075,-3.13092,0,0,0,0,0,0,0,-1,1581,400,2.64076,3.13091
364,624,3.16565,-4.9458,0,0,0,0,0,0,0,-1,1588,400,3.16564,4.94579
371,624,3.37561,-5.23529,0,0,0,0,0,0,0,-1,1595,400,3.37563,5.23529
378,624,1.50439,-5.22165,0,0,0,0,0,0,0,-1,1602,400,1.50438,5.22164
385,624,1.2301,-10.5866,0,0,0,0,0,0,0,-1,1609,400,1.2301,10.5866
392,624,4.26819,-5.14236,0,0,0,0,0,0,0,-1,1616,400,4.26818,5.14236
399,624,2.22168,-9.19293,0,0,0,0,0,0,0,-1,1623,400,2.22173,9.19294
406,624,2.68213,-9.91171,0,0,0,0,0,0,0,-1,1630,400,2.68213,9.91171
413,624,0,0,0,0,0,0,0,0,0,-1,1637,400,0,0
420,624,0,0,0,0,0,0,0,0,0,-1,1644,400,0,0
427,624,0,0,0,0,0,0,0,0,0,-1,1651,400,0,0
434,624,0,0,0,0,0,0,0,0,0,-1,1658,400,0,0
441,624,0,0,0,0,0,0,0,0,0,-1,1665,400,0,0
448,624,0,0,0,0,0,0,0,0,0,-1,1672,400,0,0
455,624,0,0,0,0,0,0,0,0,0,-1,1679,400,0,0
462,624,0,0,0,0,0,0,0,0,0,-1,1686,400,0,0
469,624,0,0,0,0,0,0,0,0,0,-1,1693,400,0,0
476,624,0,0,0,0,0,0,0,0,0,-1,1700,400,0,0
483,624,0,0,0,0,0,0,0,0,0,-1,1707,400,0,0
490,624,0,0,0,0,0,0,0,0,0,-1,1714,400,0,0
497,624,0,0,0,0,0,0,0,0,0,-1,1721,400,0,0
504,624,0,0,0,0,0,0,0,0,0,-1,1728,400,0,0
511,624,0,0,0,0,0,0,0,0,0,-1,1735,400,0,0
518,624,0,0,0,0,0,0,0,0,0,-1,1742,400,0,0
525,624,0,0,0,0,0,0,0,0,0,-1,1749,400,0,0
532,624,0,0,0,0,0,0,0,0,0,-1,1756,400,0,0
539,624,0,0,0,0,0,0,0,0,0,-1,1763,400,0,0
546,624,0,0,0,0,0,0,0,0,0,-1,1770,400,0,0
553,624,0,0,0,0,0,0,0,0,0,-1,1777,400,0,0
560,624,0,0,0,0,0,0,0,0,0,-1,1784,400,0,0
567,624,0,0,0,0,0,0,0,0,0,-1,1791,400,0,0
574,624,0,0,0,0,0,0,0,0,0,-1,1798,400,0,0
581,624,0,0,0,0,0,0,0,0,0,-1,1805,400,0,0
588,624,0,0,0,0,0,0,0,0,0,-1,1812,400,0,0
595,624,0,0,0,0,0,0,0,0,0,-1,1819,400,0,0
602,624,0,0,0,0,0,0,0,0,0,-1,1826,400,0,0
609,624,0,0,0,0,0,0,0,0,0,-1,1833,400,0,0
616,624,0,0,0,0,0,0,0,0,0,-1,1840,400,0,0
623,624,0,0,0,0,0,0,0,0,0,-1,1847,400,0,0
630,624,0,0,0,0,0,0,0,0,0,-1,1854,400,0,0
637,624,0,0,0,0,0,0,0,0,0,-1,1861,400,0,0
644,624,0,0,0,0,0,0,0,0,0,-1,1868,400,0,0
651,624,0,0,0,0,0,0,0,0,0,-1,1875,400,0,0
658,624,0,0,0,0,0,0,0,0,0,-1,1882,400,0,0
665,624,0,0,0,0,0,0,0,0,0,-1,1889,400,0,0
672,624,0,0,0,0,0,0,0,0,0,-1,1896,400,0,0
679,624,0,0,0,0,0,0,0,0,0,-1,1903,400,0,0
686,624,0,0,0,0,0,0,0,0,0,-1,1910,400,0,0
693,624,0,0,0,0,0,0,0,0,0,-1,1917,400,0,0
700,624,0,0,0,0,0,0,0,0,0,-1,1924,400,0,0
707,624,0,0,0,0,0,0,0,0,0,-1,1931,400,0,0
714,624,0,0,0,0,0,0,0,0,0,-1,1938,400,0,0
721,624,0,0,0,0,0,0,0,0,0,-1,1945,400,0,0
728,624,0,0,0,0,0,0,0,0,0,-1,1952,400,0,0
735,624,0,0,0,0,0,0,0,0,0,-1,1959,400,0,0
742,624,0,0,0,0,0,0,0,0,0,-1,1966,400,0,0
749,624,0,0,0,0,0,0,0,0,0,-1,1973,400,0,0
756,624,0,0,0,0,0,0,0,0,0,-1,1980,400,0,0
763,624,0,0,0,0,0,0,0,0,0,-1,1987,400,0,0
770,624,0,0,0,0,0,0,0,0,0,-1,1994,400,0,0
777,624,0,0,0,0,0,0,0,0,0,-1,2001,400,0,0
784,624,0,0,0,0,0,0,0,0,0,-1,2008,400,0,0
791,624,0,0,0,0,0,0,0,0,0,-1,2015,400,0,0
798,624,0,0,0,0,0,0,0,0,0,-1,2022,400,0,0
805,624,0,0,0,0,0,0,0,0,0,-1,2029,400,0,0
812,624,0,0,0,0,0,0,0,0,0,-1,2036,400,0,0
-700,617,0,0,0,0,0,0,0,0,0,-1,524,407,0,0
-693,617,0,0,0,0,0,0,0,0,0,-1,531,407,0,0
-686,617,0,0,0,0,0,0,0,0,0,-1,538,407,0,0
-679,617,0,0,0,0,0,0,0,0,0,-1,545,407,0,0
-672,617,0,0,0,0,0,0,0,0,0,-1,552,407,0,0
-665,617,0,0,0,0,0,0,0,0,0,-1,559,407,0,0
-658,617,0,0,0,0,0,0,0,0,0,-1,566,407,0,0
-651,617,0,0,0,0,0,0,0,0,0,-1,573,407,0,0
-644,617,0,0,0,0,0,0,0,0,0,-1,580,407,0,0
-637,617,0,0,0,0,0,0,0,0,0,-1,587,407,0,0
-630,617,0,0,0,0,0,0,0,0,0,-1,594,407,0,0
-623,617,0,0,0,0,0,0,0,0,0,-1,601,407,0,0
-616,617,0,0,0,0,0,0,0,0,0,-1,608,407,0,0
-609,617,0,0,0,0,0,0,0,0,0,-1,615,407,0,0
-602,617,0,0,0,0,0,0,0,0,0,-1,622,407,0,0
-595,617,0,0,0,0,0,0,0,0,0,-1,629,407,0,0
-588,617,0,0,0,0,0,0,0,0,0,-1,636,407,0,0
-581,617,0,0,0,0,0,0,0,0,0,-1,643,407,0,0
-574,617,0,0,0,0,0,0,0,0,0,-1,650,407,0,0
-567,617,0,0,0,0,0,0,0,0,0,-1,657,407,0,0
-560,617,0,0,0,0,0,0,0,0,0,-1,664,407,0,0
-553,617,0,0,0,0,0,0,0,0,0,-1,671,407,0,0
-546,617,0,0,0,0,0,0,0,0,0,-1,678,407,0,0
-539,617,0,0,0,0,0,0,0,0,0,-1,685,407,0,0
-532,617,0,0,0,0,0,0,0,0,0,-1,692,407,0,0
-525,617,0,0,0,0,0,0,0,0,0,-1,699,407,0,0
-518,617,0,0,0,0,0,0,0,0,0,-1,706,407,0,0
-511,617,0,0,0,0,0,0,0,0,0,-1,713,407,0,0
-504,617,0,0,0,0,0,0,0,0,0,-1,720,407,0,0
-497,617,0,0,0,0,0,0,0,0,0,-1,727,407,0,0
-490,617,0,0,0,0,0,0,0,0,0,-1,734,407,0,0
-483,617,0,0,0,0,0,0,0,0,0,-1,741,407,0,0
-476,617,0,0,0,0,0,0,0,0,0,-1,748,407,0,0
-469,617,0,0,0,0,0,0,0,0,0,-1,755,407,0,0
-462,617,0,0,0,0,0,0,0,0,0,-1,762,407,0,0
-455,617,0,0,0,0,0,0,0,0,0,-1,769,407,0,0
-448,617,0,0,0,0,0,0,0,0,0,-1,776,407,0,0
-441,617,0,0,0,0,0,0,0,0,0,-1,783,407,0,0
-434,617,0,0,0,0,0,0,0,0,0,-1,790,407,0,0
-427,617,0,0,0,0,0,0,0,0,0,-1,797,407,0,0
-420,617,0,0,0,0,0,0,0,0,0,-1,804,407,0,0
-413,617,0,0,0,0,0,0,0,0,0,-1,811,407,0,0
-406,617,0,0,0,0,0,0,0,0,0,-1,818,407,0,0
-399,617,0,0,0,0,0,0,0,0,0,-1,825,407,0,0
-392,617,0,0,0,0,0,0,0,0,0,-1,832,407,0,0
-385,617,0,0,0,0,0,0,0,0,0,-1,839,407,0,0
-378,617,0,0,0,0,0,0,0,0,0,-1,846,407,0,0
-371,617,0,0,0,0,0,0,0,0,0,-1,853,407,0,0
-364,617,0,0,0,0,0,0,0,0,0,-1,860,407,0,0
-357,617,0,0,0,0,0,0,0,0,0,-1,867,407,0,0
-350,617,0,0,0,0,0,0,0,0,0,-1,874,407,0,0
-343,617,0,0,0,0,0,0,0,0,0,-1,881,407,0,0
-336,617,0,0,0,0,0,0,0,0,0,-1,888,407,0,0
-329,617,0,0,0,0,0,0,0,0,0,-1,895,407,0,0
-322,617,0,0,0,0,0,0,0,0,0,-1,902,407,0,0
-315,617,0,0,0,0,0,0,0,0,0,-1,909,407,0,0
-308,617,0,0,0,0,0,0,0,0,0,-1,916,407,0,0
-301,617,6.81897,-24.525,0,0,0,0,0,0,0,-1,923,407,6.81899,24.525
-294,617,6.19263,-26.917,0,0,0,0,0,0,0,-1,930,407,6.19261,26.917
-287,617,7.00409,-31.9773,0,0,0,0,0,0,0,-1,937,407,7.00406,31.9773
-280,617,6.16754,-32.5725,0,0,0,0,0,0,0,-1,944,407,6.16755,32.5725
-273,617,6.38348,-32.4419,0,0,0,0,0,0,0,-1,951,407,6.38345,32.4419
-266,617,6.39923,-32.2529,0,0,0,0,0,0,0,-1,958,407,6.39925,32.2529
-259,617,7.28217,-33.4631,0,0,0,0,0,0,0,-1,965,407,7.28215,33.4631
-252,617,7.41333,-33.5027,0,0,0,0,0,0,0,-1,972,407,7.41333,33.5026
-245,617,6.72626,-34.4465,0,0,0,0,0,0,0,-1,979,407,6.72627,34.4465
-238,617,5.6474,-34.6842,0,0,0,0,0,0,0,-1,986,407,5.64741,34.6842
-231,617,5.54559,-34.4413,0,0,0,0,0,0,0,-1,993,407,5.54561,34.4413
-224,617,5.62952,-35.4289,0,0,0,0,0,0,0,-1,1000,407,5.62949,35.4289
-217,617,6.03711,-36.331,0,0,0,0,0,0,0,-1,1007,407,6.03708,36.331
-210,617,5.88904,-37.0736,0.000610278,0.0254364,-0.00991824,0.0289122,-0.00286551,-1.23373,0.0202975,0.0362635,1014,407,5.88905,37.0736
-203,617,5.79163,-37.7219,-0.000427922,0.0226217,-0.00868051,0.0255251,-0.00333129,-1.24802,0.0182289,0.0243673,1021,407,5.79161,37.7219
-196,617,5.67456,-38.2751,-0.00152432,0.0210983,-0.00786669,0.0235649,-0.00399091,-1.26696,0.0171953,0.0226593,1028,407,5.67457,38.2751
-189,617,5.62695,-38.7773,-0.00197123,0.018446,-0.00722666,0.020745,-0.00427023,-1.26279,0.0154513,0.0209431,1035,407,5.62697,38.7773
-182,617,5.64502,-39.3642,-0.00204599,0.0158791,-0.00638514,0.017921,-0.00408787,-1.26129,0.0135176,0.0210218,1042,407,5.64507,39.3642
-175,617,5.62268,-39.8916,-0.00221941,0.0131797,-0.00533352,0.0148466,-0.00388626,-1.26789,0.0114158,0.0160002,1049,407,5.62264,39.8916
-168,617,5.56433,-40.4561,-0.00230451,0.0111605,-0.00451914,0.0125366,-0.0036806,-1.27521,0.00981732,0.011341,1056,407,5.56438,40.4561
-161,617,5.4895,-40.9958,-0.00219659,0.00949935,-0.00385219,0.0106541,-0.00335134,-1.27956,0.00844451,0.0104892,1063,407,5.48955,40.9958
-154,617,5.45557,-41.4763,-0.00198013,0.0078009,-0.0032526,0.00878376,-0.00296299,-1.27734,0.00705408,0.0113819,1070,407,5.45558,41.4762
-147,617,5.4259,-41.9476,-0.00178122,0.00632168,-0.00265448,0.00711383,-0.00257338,-1.28079,0.00579408,0.015918,1077,407,5.42595,41.9476
-140,617,5.39392,-42.4543,-0.00151501,0.00498357,-0.00211086,0.00560902,-0.00214045,-1.28274,0.00462113,0.0126287,1084,407,5.3939,42.4543
-133,617,5.39063,-42.8886,-0.0012961,0.00359887,-0.00165808,0.00410764,-0.00180487,-1.27308,0.00349882,0.0143859,1091,407,5.39063,42.8886
-126,617,5.38062,-43.2848,-0.00106062,0.0025436,-0.00124289,0.00293064,-0.00144766,-1.26891,0.00257569,0.0134649,1098,407,5.3806,43.2848
-119,617,5.33472,-43.7224,-0.000676972,0.00186145,-0.000936992,0.00216985,-0.000985371,-1.25283,0.00186396,0.0136419,1105,407,5.33466,43.7224
-112,617,5.32288,-44.133,-0.000248969,0.00131778,-0.000690687,0.00157878,-0.000509972,-1.2095,0.00125747,0.0159246,1112,407,5.32293,44.133
-105,617,5.30872,-44.5573,0.00014716,0.000862431,-0.000540408,0.00115283,-0.000143236,-1.07771,0.000820474,0.016801,1119,407,5.30869,44.5572
-98,617,5.29456,-44.9355,0.000523754,0.000339804,-0.000384632,0.000827255,3.63035e-05,-0.668039,0.000539809,0.0139403,1126,407,5.29459,44.9354
-91,617,5.31873,-45.328,0.000962694,-2.33183e-05,-0.000304067,0.00104892,-0.000109546,-0.276326,0.00073851,0.0195693,1133,407,5.31868,45.328
-84,617,5.36487,-45.7322,0.00144712,-0.000362316,-0.00023029,0.00147597,-0.000391166,-0.124625,0.00113702,0.0193944,1140,407,5.36485,45.7322
-77,617,5.35181,-46.0874,0.00192722,-0.000588123,-0.000152419,0.00193642,-0.000597325,-0.0603016,0.00152945,0.0151291,1147,407,5.35176,46.0874
-70,617,5.37463,-46.4286,0.00247508,-0.000654383,-5.06872e-05,0.0024759,-0.000655204,-0.0161911,0.0019069,0.0166637,1154,407,5.37466,46.4286
-63,617,5.40417,-46.7676,0.00308818,-0.00084882,0.000108858,0.00309119,-0.000851828,0.0276218,0.00239576,0.0186723,1161,407,5.40416,46.7676
-56,617,5.35938,-47.0582,0.00353555,-0.00178847,0.000466405,0.0035761,-0.00182902,0.0867237,0.00317452,0.0140316,1168,407,5.35941,47.0582
-49,617,5.38733,-47.3412,0.00388043,-0.0026769,0.000799207,0.00397644,-0.0027729,0.119548,0.00391733,0.0111667,1175,407,5.38733,47.3412
-42,617,5.43176,-47.6434,0.00436532,-0.00379486,0.00125455,0.00455384,-0.00398338,0.149152,0.00493263,0.0119736,1182,407,5.43177,47.6434
-35,617,5.46362,-47.8903,0.00370029,-0.00467148,0.00200255,0.00415465,-0.00512583,0.223112,0.00536786,0.0165297,1189,407,5.46359,47.8903
-28,617,5.47754,-48.1153,0.00248906,-0.00506416,0.00192981,0.00295356,-0.00552865,0.2362,0.00497186,0.0192304,1196,407,5.47753,48.1153
-21,617,5.51233,-48.3224,0.00150008,-0.00536492,0.00145723,0.0017966,-0.00566144,0.20074,0.00449449,0.0142935,1203,407,5.5123,48.3224
-14,617,5.55847,-48.5259,0.000628665,-0.00549405,0.00101626,0.000792939,-0.00565832,0.160259,0.0040624,0.0153465,1210,407,5.55852,48.5259
-7,617,5.56262,-48.6835,-0.00063951,-0.00539852,0.000257437,-0.000625624,-0.00541241,0.0538851,0.00341886,0.0183999,1217,407,5.56263,48.6835
0,617,5.59277,-48.8362,-0.00204483,-0.00486699,-0.000779571,-0.00184381,-0.00506801,-0.252367,0.00296198,0.0168863,1224,407,5.59274,48.8361
7,617,5.65405,-49.0627,-0.00328831,-0.00440525,-0.00178976,-0.00197191,-0.00572165,-0.634167,0.00335613,0.0125195,1231,407,5.65411,49.0627
14,617,5.73083,-49.2085,-0.00454586,-0.00340601,-0.00311866,-0.00080562,-0.00714625,-0.875774,0.00451962,0.0144187,1238,407,5.73087,49.2085
21,617,5.77563,-49.3405,-0.00557174,-0.0030481,-0.00415838,3.56869e-05,-0.00865553,-0.932703,0.00578229,0.0134772,1245,407,5.77558,49.3405
28,617,5.83984,-49.4727,-0.00628314,-0.00293841,-0.00488563,0.000553155,-0.0097747,-0.950298,0.00670846,0.012359,1252,407,5.83986,49.4726
35,617,5.85864,-49.5501,-0.00669182,-0.00275332,-0.0048968,0.000555364,-0.0100005,-0.976578,0.00685962,0.0144165,1259,407,5.85864,49.5502
42,617,5.99231,-49.5665,-0.00705054,-0.002761,-0.00439058,-1.93305e-05,-0.00979221,-1.0126,0.00652171,0.0210122,1266,407,5.99235,49.5665
49,617,6.03687,-49.5898,-0.00716396,-0.00278907,-0.00367416,-0.00070049,-0.00925253,-1.0539,0.00594862,0.0219687,1273,407,6.03686,49.5898
56,617,6.03687,-49.621,-0.00694503,-0.00300572,-0.00243291,-0.0018451,-0.00810565,-1.12568,0.00490579,0.0164357,1280,407,6.03692,49.621
63,617,6.08777,-49.6474,-0.00605506,-0.00391361,-0.000800044,-0.00364773,-0.00632094,-1.24994,0.00366383,0.0120844,1287,407,6.08783,49.6474
70,617,6.12854,-49.6599,-0.0045117,-0.00491889,0.00107569,-0.0036205,-0.00581008,0.691871,0.00338819,0.0168394,1294,407,6.12848,49.6598
77,617,6.22766,-49.6155,-0.00309743,-0.00582027,0.00323006,-0.0009536,-0.00796409,0.585954,0.0050218,0.0141345,1301,407,6.22767,49.6155
84,617,6.27356,-49.567,-0.00159133,-0.00597469,0.00538759,0.0020333,-0.00959933,0.59222,0.00717402,0.0116217,1308,407,6.27351,49.567
91,617,6.32092,-49.4881,-0.000420083,-0.00569978,0.00696853,0.00439186,-0.0105117,0.604339,0.0088431,0.0114842,1315,407,6.32091,49.4881
98,617,6.37402,-49.3937,0.000868185,-0.00451255,0.0085782,0.00716801,-0.0108124,0.633442,0.0104518,0.0122033,1322,407,6.37405,49.3937
105,617,6.44141,-49.2996,0.00228184,-0.00255851,0.0100395,0.0101888,-0.0104654,0.667122,0.0119251,0.0134982,1329,407,6.44135,49.2996
112,617,6.51208,-49.1903,0.00337973,-0.000659494,0.0106549,0.0122047,-0.00948447,0.691735,0.012555,0.0171458,1336,407,6.51211,49.1903
119,617,6.53113,-49.0548,0.0042912,0.0011839,0.0111892,0.0140341,-0.00855902,0.716413,0.0131712,0.0203777,1343,407,6.53116,49.0548
126,617,6.54797,-48.881,0.00473874,0.00398559,0.0109004,0.0152691,-0.00654475,0.768131,0.0129256,0.0213009,1350,407,6.54799,48.881
133,617,6.59656,-48.6649,0.00482577,0.00666275,0.0102485,0.0160339,-0.00454536,0.83009,0.0124833,0.0180304,1357,407,6.59658,48.6649
140,617,6.67981,-48.4568,0.00462887,0.0085243,0.00910025,0.0158829,-0.00272977,0.890822,0.011606,0.0156224,1364,407,6.67976,48.4568
147,617,6.67651,-48.2154,0.00452114,0.00975073,0.0079497,0.0155046,-0.00123275,0.944283,0.0107709,0.019223,1371,407,6.67651,48.2154
154,617,6.7428,-48.0267,0.00423935,0.00998741,0.00694609,0.0146306,-0.000403811,0.981555,0.00989107,0.0235886,1378,407,6.74279,48.0267
161,617,6.8324,-47.825,0.0039112,0.00970882,0.00584478,0.0133342,0.00028586,1.01561,0.00879571,0.0252639,1385,407,6.83244,47.825
168,617,6.85339,-47.5544,0.00326004,0.0094961,0.00479005,0.0120935,0.000662586,1.07392,0.00785083,0.0220567,1392,407,6.85339,47.5544
175,617,6.8717,-47.2806,0.00267081,0.00855415,0.00365243,0.0103022,0.00092274,1.12441,0.00658216,0.0180198,1399,407,6.87166,47.2806
182,617,6.91138,-46.9477,0.00258554,0.00685774,0.00274413,0.00819917,0.00124411,1.11612,0.00510222,0.0121888,1406,407,6.91137,46.9477
189,617,6.88562,-46.5769,0.00255563,0.00483738,0.00182567,0.00584933,0.00154368,1.06467,0.00350036,0.0117843,1413,407,6.88557,46.5769
196,617,6.87659,-46.24,0.00272694,0.00360703,0.00104963,0.00430512,0.00202884,0.983888,0.00248693,0.0159203,1420,407,6.87662,46.24
203,617,6.88684,-45.9021,0.00252171,0.00233968,0.000269836,0.00271547,0.00214592,0.622743,0.00165349,0.0166594,1427,407,6.8868,45.9021
210,617,6.93359,-45.5048,0.00193796,0.00124444,-0.000273046,0.00203256,0.00114985,-0.333513,0.00117687,0.0162065,1434,407,6.93363,45.5048
217,617,6.94092,-45.1005,0.00133374,0.0021247,3.67509e-05,0.0021264,0.00133203,1.52447,0.00124069,0.0201756,1441,407,6.94087,45.1005
224,617,6.94043,-44.7295,0.000946539,0.00299386,0.000381907,0.00306278,0.000877618,1.39225,0.00182122,0.0190463,1448,407,6.94049,44.7295
231,617,6.94324,-44.3415,0.000787227,0.00378598,0.000843329,0.00400688,0.000566332,1.31462,0.00250391,0.0145495,1455,407,6.9433,44.3415
238,617,6.93384,-43.9441,0.000870811,0.00479099,0.00142723,0.00525555,0.00040625,1.25611,0.00337644,0.0153362,1462,407,6.9339,43.9441
245,617,6.93652,-43.5069,0.00103607,0.0057533,0.00188249,0.00641244,0.000376931,1.234,0.00415502,0.0133678,1469,407,6.93648,43.5069
252,617,6.91516,-43.0089,0.000411209,0.00663296,0.00172201,0.00707777,-3.35989e-05,1.31802,0.00472975,0.0144901,1476,407,6.91518,43.0089
259,617,6.86597,-42.5249,-0.000804987,0.00744996,0.00124264,0.00763296,-0.000987989,1.42458,0.00544791,0.0122006,1483,407,6.86595,42.5249
266,617,6.84827,-42.0357,-0.00182709,0.00816013,0.000988353,0.008257,-0.00192396,1.4731,0.00624556,0.0144224,1490,407,6.84827,42.0357
273,617,6.85242,-41.5137,-0.00318149,0.00890662,0.000459934,0.00892409,-0.00319896,1.53282,0.00725475,0.0154648,1497,407,6.85246,41.5137
280,617,6.80481,-41.0135,-0.00489388,0.00951831,-0.00026717,0.00952326,-0.00489884,-1.55227,0.00846808,0.0140766,1504,407,6.80477,41.0135
287,617,6.76001,-40.5058,-0.00680572,0.0101609,-0.0010639,0.0102273,-0.00687218,-1.50842,0.00993555,0.0135642,1511,407,6.76007,40.5058
294,617,6.7428,-39.9915,-0.00900497,0.0106264,-0.00204784,0.0108378,-0.00921631,-1.46796,0.0115908,0.0102268,1518,407,6.74278,39.9915
301,617,6.69482,-39.4648,-0.011196,0.0109448,-0.00300869,0.0113464,-0.0115976,-1.43811,0.013247,0.00778982,1525,407,6.69478,39.4648
308,617,6.64709,-38.9021,-0.0131977,0.011286,-0.00381873,0.0118678,-0.0137795,-1.41961,0.0148212,0.00830304,1532,407,6.64714,38.9021
315,617,6.61487,-38.3577,-0.0148248,0.0117462,-0.00432984,0.012434,-0.0155126,-1.41327,0.0161676,0.0103585,1539,407,6.61485,38.3577
322,617,6.57947,-37.8057,-0.0161551,0.0121737,-0.00452812,0.0128799,-0.0168613,-1.41609,0.0172223,0.0160649,1546,407,6.57949,37.8057
329,617,6.54651,-37.1938,-0.0170154,0.012698,-0.00442155,0.013342,-0.0176594,-1.42616,0.0179564,0.021074,1553,407,6.54652,37.1938
336,617,6.59143,-36.4062,-0.017513,0.0135401,-0.00401046,0.0140497,-0.0180226,-1.44441,0.0185643,0.038401,1560,407,6.59139,36.4062
343,617,6.60718,-35.827,0,0,0,0,0,0,0,-1,1567,407,6.60721,35.827
350,617,6.32788,-35.4347,0,0,0,0,0,0,0,-1,1574,407,6.32794,35.4347
357,617,2.1748,-7.16504,0,0,0,0,0,0,0,-1,1581,407,2.1748,7.16505
364,617,2.30127,-7.60257,0,0,0,0,0,0,0,-1,1588,407,2.30125,7.60258
371,617,2.60266,-6.20667,0,0,0,0,0,0,0,-1,1595,407,2.60261,6.20668
378,617,1.56921,-10.3601,0,0,0,0,0,0,0,-1,1602,407,1.56918,10.3601
385,617,1.74146,-10.3561,0,0,0,0,0,0,0,-1,1609,407,1.7414,10.3561
392,617,1.96936,-5.10449,0,0,0,0,0,0,0,-1,1616,407,1.96931,5.10451
399,617,2.48889,-5.81256,0,0,0,0,0,0,0,-1,1623,407,2.48888,5.81255
406,617,3.01465,-6.51642,0,0,0,0,0,0,0,-1,1630,407,3.01461,6.51643
413,617,3.6427,-7.2074,0,0,0,0,0,0,0,-1,1637,407,3.64274,7.20739
420,617,3.42737,-4.47391,0,0,0,0,0,0,0,-1,1644,407,3.42737,4.47391
427,617,0,0,0,0,0,0,0,0,0,-1,1651,407,0,0
434,617,0,0,0,0,0,0,0,0,0,-1,1658,407,0,0
441,617,0,0,0,0,0,0,0,0,0,-1,1665,407,0,0
448,617,0,0,0,0,0,0,0,0,0,-1,1672,407,0,0
455,617,0,0,0,0,0,0,0,0,0,-1,1679,407,0,0
462,617,0,0,0,0,0,0,0,0,0,-1,1686,407,0,0
469,617,0,0,0,0,0,0,0,0,0,-1,1693,407,0,0
476,617,0,0,0,0,0,0,0,0,0,-1,1700,407,0,0
483,617,0,0,0,0,0,0,0,0,0,-1,1707,407,0,0
490,617,0,0,0,0,0,0,0,0,0,-1,1714,407,0,0
497,617,0,0,0,0,0,0,0,0,0,-1,1721,407,0,0
504,617,0,0,0,0,0,0,0,0,0,-1,1728,407,0,0
511,617,0,0,0,0,0,0,0,0,0,-1,1735,407,0,0
518,617,0,0,0,0,0,0,0,0,0,-1,1742,407,0,0
525,617,0,0,0,0,0,0,0,0,0,-1,1749,407,0,0
532,617,0,0,0,0,0,0,0,0,0,-1,1756,407,0,0
539,617,0,0,0,0,0,0,0,0,0,-1,1763,407,0,0
546,617,0,0,0,0,0,0,0,0,0,-1,1770,407,0,0
553,617,0,0,0,0,0,0,0,0,0,-1,1777,407,0,0
560,617,0,0,0,0,0,0,0,0,0,-1,1784,407,0,0
567,617,0,0,0,0,0,0,0,0,0,-1,1791,407,0,0
574,617,0,0,0,0,0,0,0,0,0,-1,1798,407,0,0
581,617,0,0,0,0,0,0,0,0,0,-1,1805,407,0,0
588,617,0,0,0,0,0,0,0,0,0,-1,1812,407,0,0
595,617,0,0,0,0,0,0,0,0,0,-1,1819,407,0,0
602,617,0,0,0,0,0,0,0,0,0,-1,1826,407,0,0
609,617,0,0,0,0,0,0,0,0,0,-1,1833,407,0,0
616,617,0,0,0,0,0,0,0,0,0,-1,1840,407,0,0
623,617,0,0,0,0,0,0,0,0,0,-1,1847,407,0,0
630,617,0,0,0,0,0,0,0,0,0,-1,1854,407,0,0
637,617,0,0,0,0,0,0,0,0,0,-1,1861,407,0,0
644,617,0,0,0,0,0,0,0,0,0,-1,1868,407,0,0
651,617,0,0,0,0,0,0,0,0,0,-1,1875,407,0,0
658,617,0,0,0,0,0,0,0,0,0,-1,1882,407,0,0
665,617,0,0,0,0,0,0,0,0,0,-1,1889,407,0,0
672,617,0,0,0,0,0,0,0,0,0,-1,1896,407,0,0
679,617,0,0,0,0,0,0,0,0,0,-1,1903,407,0,0
686,617,0,0,0,0,0,0,0,0,0,-1,1910,407,0,0
693,617,0,0,0,0,0,0,0,0,0,-1,1917,407,0,0
700,617,0,0,0,0,0,0,0,0,0,-1,1924,407,0,0
707,617,0,0,0,0,0,0,0,0,0,-1,1931,407,0,0
714,617,0,0,0,0,0,0,0,0,0,-1,1938,407,0,0
721,617,0,0,0,0,0,0,0,0,0,-1,1945,407,0,0
728,617,0,0,0,0,0,0,0,0,0,-1,1952,407,0,0
735,617,0,0,0,0,0,0,0,0,0,-1,1959,407,0,0
742,617,0,0,0,0,0,0,0,0,0,-1,1966,407,0,0
749,617,0,0,0,0,0,0,0,0,0,-1,1973,407,0,0
756,617,0,0,0,0,0,0,0,0,0,-1,1980,407,0,0
763,617,0,0,0,0,0,0,0,0,0,-1,1987,407,0,0
770,617,0,0,0,0,0,0,0,0,0,-1,1994,407,0,0
777,617,0,0,0,0,0,0,0,0,0,-1,2001,407,0,0
784,617,0,0,0,0,0,0,0,0,0,-1,2008,407,0,0
791,617,0,0,0,0,0,0,0,0,0,-1,2015,407,0,0
798,617,0,0,0,0,0,0,0,0,0,-1,2022,407,0,0
805,617,0,0,0,0,0,0,0,0,0,-1,2029,407,0,0
812,617,0,0,0,0,0,0,0,0,0,-1,2036,407,0,0
-700,610,0,0,0,0,0,0,0,0,0,-1,524,414,0,0
-693,610,0,0,0,0,0,0,0,0,0,-1,531,414,0,0
-686,610,0,0,0,0,0,0,0,0,0,-1,538,414,0,0
-679,610,0,0,0,0,0,0,0,0,0,-1,545,414,0,0
-672,610,0,0,0,0,0,0,0,0,0,-1,552,414,0,0
-665,610,0,0,0,0,0,0,0,0,0,-1,559,414,0,0
-658,610,0,0,0,0,0,0,0,0,0,-1,566,414,0,0
-651,610,0,0,0,0,0,0,0,0,0,-1,573,414,0,0
-644,610,0,0,0,0,0,0,0,0,0,-1,580,414,0,0
-637,610,0,0,0,0,0,0,0,0,0,-1,587,414,0,0
-630,610,0,0,0,0,0,0,0,0,0,-1,594,414,0,0
-623,610,0,0,0,0,0,0,0,0,0,-1,601,414,0,0
-616,610,0,0,0,0,0,0,0,0,0,-1,608,414,0,0
-609,610,0,0,0,0,0,0,0,0,0,-1,615,414,0,0
-602,610,0,0,0,0,0,0,0,0,0,-1,622,414,0,0
-595,610,0,0,0,0,0,0,0,0,0,-1,629,414,0,0
-588,610,0,0,0,0,0,0,0,0,0,-1,636,414,0,0
-581,610,0,0,0,0,0,0,0,0,0,-1,643,414,0,0
-574,610,0,0,0,0,0,0,0,0,0,-1,650,414,0,0
-567,610,0,0,0,0,0,0,0,0,0,-1,657,414,0,0
-560,610,0,0,0,0,0,0,0,0,0,-1,664,414,0,0
-553,610,0,0,0,0,0,0,0,0,0,-1,671,414,0,0
-546,610,0,0,0,0,0,0,0,0,0,-1,678,414,0,0
-539,610,0,0,0,0,0,0,0,0,0,-1,685,414,0,0
-532,610,0,0,0,0,0,0,0,0,0,-1,692,414,0,0
-525,610,0,0,0,0,0,0,0,0,0,-1,699,414,0,0
-518,610,0,0,0,0,0,0,0,0,0,-1,706,414,0,0
-511,610,0,0,0,0,0,0,0,0,0,-1,713,414,0,0
-504,610,0,0,0,0,0,0,0,0,0,-1,720,414,0,0
-497,610,0,0,0,0,0,0,0,0,0,-1,727,414,0,0
-490,610,0,0,0,0,0,0,0,0,0,-1,734,414,0,0
-483,610,0,0,0,0,0,0,0,0,0,-1,741,414,0,0
-476,610,0,0,0,0,0,0,0,0,0,-1,748,414,0,0
-469,610,0,0,0,0,0,0,0,0,0,-1,755,414,0,0
-462,610,0,0,0,0,0,0,0,0,0,-1,762,414,0,0
-455,610,0,0,0,0,0,0,0,0,0,-1,769,414,0,0
-448,610,0,0,0,0,0,0,0,0,0,-1,776,414,0,0
-441,610,0,0,0,0,0,0,0,0,0,-1,783,414,0,0
-434,610,0,0,0,0,0,0,0,0,0,-1,790,414,0,0
-427,610,0,0,0,0,0,0,0,0,0,-1,797,414,0,0
-420,610,0,0,0,0,0,0,0,0,0,-1,804,414,0,0
-413,610,0,0,0,0,0,0,0,0,0,-1,811,414,0,0
-406,610,0,0,0,0,0,0,0,0,0,-1,818,414,0,0
-399,610,0,0,0,0,0,0,0,0,0,-1,825,414,0,0
-392,610,0,0,0,0,0,0,0,0,0,-1,832,414,0,0
-385,610,0,0,0,0,0,0,0,0,0,-1,839,414,0,0
-378,610,0,0,0,0,0,0,0,0,0,-1,846,414,0,0
-371,610,0,0,0,0,0,0,0,0,0,-1,853,414,0,0
-364,610,0,0,0,0,0,0,0,0,0,-1,860,414,0,0
-357,610,0,0,0,0,0,0,0,0,0,-1,867,414,0,0
-350,610,0,0,0,0,0,0,0,0,0,-1,874,414,0,0
-343,610,0,0,0,0,0,0,0,0,0,-1,881,414,0,0
-336,610,0,0,0,0,0,0,0,0,0,-1,888,414,0,0
-329,610,0,0,0,0,0,0,0,0,0,-1,895,414,0,0
-322,610,0,0,0,0,0,0,0,0,0,-1,902,414,0,0
-315,610,7.68475,-21.5402,0,0,0,0,0,0,0,-1,909,414,7.68475,21.5402
-308,610,3.97211,-23.4133,0,0,0,0,0,0,0,-1,916,414,3.9721,23.4133
-301,610,7.38513,-22.4166,0,0,0,0,0,0,0,-1,923,414,7.38516,22.4166
-294,610,6.77832,-24.1945,0,0,0,0,0,0,0,-1,930,414,6.77829,24.1946
-287,610,3.39276,-28.5804,0,0,0,0,0,0,0,-1,937,414,3.39276,28.5803
-280,610,5.99969,-30.7691,0,0,0,0,0,0,0,-1,944,414,5.99967,30.7691
-273,610,5.56598,-30.9048,0,0,0,0,0,0,0,-1,951,414,5.56596,30.9047
-266,610,5.46808,-33.2672,0,0,0,0,0,0,0,-1,958,414,5.46807,33.2672
-259,610,5.49097,-33.3532,0,0,0,0,0,0,0,-1,965,414,5.49097,33.3532
-252,610,4.86414,-34.6707,0,0,0,0,0,0,0,-1,972,414,4.86414,34.6707
-245,610,5.87378,-34.2884,0,0,0,0,0,0,0,-1,979,414,5.8738,34.2884
-238,610,5.18738,-34.1971,0,0,0,0,0,0,0,-1,986,414,5.18735,34.1971
-231,610,5.18365,-34.9144,0.00367125,0.0235086,-0.0101997,0.0278171,-0.000637307,-1.17111,0.0187608,0.0454749,993,414,5.18363,34.9144
-224,610,5.25885,-35.7737,0.00259919,0.0225867,-0.0094497,0.0263469,-0.00116103,-1.19208,0.0179642,0.0300361,1000,414,5.25884,35.7737
-217,610,5.33167,-36.567,0.00144649,0.0211338,-0.00859507,0.0243582,-0.00177785,-1.2119,0.0168627,0.0195047,1007,414,5.33165,36.567
-210,610,5.28717,-37.2348,0.000490556,0.0194259,-0.00769564,0.022159,-0.00224258,-1.22954,0.0155741,0.0140426,1014,414,5.28717,37.2348
-203,610,5.25439,-37.8084,-0.000216575,0.0171553,-0.00666556,0.0194181,-0.00247939,-1.24353,0.0138461,0.0163935,1021,414,5.25446,37.8084
-196,610,5.22205,-38.3611,-0.00100027,0.0159805,-0.00597635,0.017873,-0.00289272,-1.26413,0.0129874,0.0150904,1028,414,5.22203,38.3611
-189,610,5.18237,-38.9028,-0.00128767,0.013824,-0.00544265,0.0155801,-0.00304383,-1.25868,0.011536,0.0122183,1035,414,5.18237,38.9028
-182,610,5.14966,-39.4268,-0.00126618,0.011663,-0.00470522,0.013194,-0.00279722,-1.25621,0.00986157,0.0131414,1042,414,5.14968,39.4268
-175,610,5.12073,-39.9396,-0.00132313,0.00929998,-0.00377368,0.010504,-0.0025272,-1.26194,0.00797962,0.0142181,1049,414,5.1207,39.9396
-168,610,5.05884,-40.4694,-0.0013204,0.0074062,-0.00304015,0.00836088,-0.00227508,-1.26652,0.00646708,0.0124212,1056,414,5.0588,40.4694
-161,610,5.00464,-41.0231,-0.00116914,0.00583667,-0.00243336,0.00659893,-0.00193139,-1.26723,0.00516489,0.0109674,1063,414,5.00467,41.0231
-154,610,4.97375,-41.492,-0.000931951,0.00423147,-0.00185544,0.00482906,-0.00152953,-1.25922,0.00383235,0.0142701,1070,414,4.97374,41.492
-147,610,4.96997,-41.9264,-0.000694174,0.00280332,-0.00128317,0.00322359,-0.00111445,-1.25428,0.00260137,0.0157582,1077,414,4.96993,41.9264
-140,610,4.96045,-42.4219,-0.000391806,0.00146639,-0.000755867,0.00173502,-0.000660439,-1.22932,0.00142865,0.0125911,1084,414,4.96046,42.4219
-133,610,4.95349,-42.8599,-0.000120581,0.000150735,-0.000320814,0.000363394,-0.00033324,-0.985424,0.000402327,0.0144694,1091,414,4.95349,42.8599
-126,610,4.95093,-43.2712,0.000180079,-0.000843056,3.88665e-05,0.000181553,-0.00084453,0.0379148,0.000632287,0.0124666,1098,414,4.95098,43.2712
-119,610,4.93518,-43.7019,0.000614346,-0.00153764,0.000296347,0.00065441,-0.0015777,0.134377,0.00132495,0.0103445,1105,414,4.93513,43.7019
-112,610,4.95276,-44.1313,0.001073,-0.00206535,0.000476102,0.00114364,-0.00213599,0.147291,0.00192217,0.0188598,1112,414,4.95278,44.1313
-105,610,4.93347,-44.5528,0.00152449,-0.00246317,0.000567764,0.00160375,-0.00254244,0.138709,0.00241417,0.019775,1119,414,4.93343,44.5528
-98,610,4.91516,-44.9337,0.00200956,-0.00283695,0.000619136,0.0020874,-0.00291479,0.125073,0.00290116,0.0134335,1126,414,4.91516,44.9337
-91,610,4.92822,-45.3162,0.0025851,-0.00299801,0.000573815,0.00264347,-0.00305637,0.101365,0.00329368,0.0143224,1133,414,4.92822,45.3162
-84,610,4.96655,-45.6974,0.00318797,-0.00309906,0.000522918,0.00323117,-0.00314225,0.0824193,0.00367982,0.0153972,1140,414,4.96652,45.6973
-77,610,4.97314,-46.0769,0.00378188,-0.00303609,0.000476535,0.00381503,-0.00306924,0.0694439,0.0039824,0.0126837,1147,414,4.97318,46.0769
-70,610,5.04102,-46.4385,0.00449241,-0.00267176,0.00046106,0.00452196,-0.00270131,0.0640045,0.00421428,0.0151157,1154,414,5.04106,46.4385
-63,610,5.06763,-46.7563,0.00527841,-0.00245112,0.000553219,0.0053178,-0.00249051,0.0710893,0.00460559,0.0141755,1161,414,5.06759,46.7563
-56,610,5.06189,-47.0366,0.00579091,-0.00360052,0.000999146,0.00589603,-0.00370564,0.104826,0.0055914,0.0124225,1168,414,5.06183,47.0366
-49,610,5.08704,-47.3143,0.00614947,-0.0047373,0.00138094,0.0063219,-0.00490973,0.124225,0.00650165,0.0125905,1175,414,5.08701,47.3143
-42,610,5.15186,-47.6104,0.00669216,-0.00623145,0.00197134,0.00698617,-0.00652547,0.148054,0.00780246,0.0163119,1182,414,5.1519,47.6104
-35,610,5.21313,-47.8663,0.00479806,-0.00694746,0.00324454,0.00563472,-0.00778413,0.25237,0.00778043,0.0157742,1189,414,5.21313,47.8663
-28,610,5.2478,-48.0959,0.00220146,-0.00666461,0.00300497,0.00312395,-0.0075871,0.297855,0.00636046,0.0131018,1196,414,5.24776,48.0959
-21,610,5.29688,-48.3036,0.000461666,-0.00676829,0.00192058,0.000940182,-0.00724681,0.24418,0.00517316,0.0113762,1203,414,5.29684,48.3036
-14,610,5.34985,-48.4884,-0.000997584,-0.00651792,0.000894602,-0.000856229,-0.00665928,0.156714,0.00418342,0.0129706,1210,414,5.34981,48.4884
-7,610,5.41724,-48.6482,-0.00282282,-0.00610324,-0.000427888,-0.00276793,-0.00615813,-0.127593,0.00356145,0.0155444,1217,414,5.41727,48.6482
0,610,5.45654,-48.8325,-0.00449805,-0.00541836,-0.0020764,-0.00283142,-0.00708499,-0.676354,0.0041179,0.0125138,1224,414,5.45652,48.8325
7,610,5.51868,-49.0265,-0.00590766,-0.00484764,-0.00380195,-0.00153894,-0.00921637,-0.854654,0.00570093,0.013877,1231,414,5.51866,49.0265
14,610,5.65466,-49.1277,-0.0073631,-0.00378619,-0.00571866,0.000417151,-0.0115664,-0.93695,0.00785371,0.0190222,1238,414,5.65463,49.1277
21,610,5.71252,-49.2156,-0.00845172,-0.00356734,-0.00720385,0.00159703,-0.0136161,-0.948824,0.00965387,0.0189953,1245,414,5.71247,49.2156
28,610,5.74219,-49.5464,0,0,0,0,0,0,0,-1,1252,414,5.74213,49.5464
35,610,5.8739,-49.4156,-0.00966542,-0.00386389,-0.00817274,0.00190761,-0.0154369,-0.955929,0.0109825,0.0214113,1259,414,5.87392,49.4156
42,610,5.95154,-49.4842,-0.0100505,-0.00420646,-0.00750353,0.000923925,-0.0151809,-0.971074,0.0104422,0.0193142,1266,414,5.95158,49.4842
49,610,5.99573,-49.5935,-0.0101927,-0.00458576,-0.00644964,-0.000356637,-0.0144218,-0.990415,0.00949789,0.0181468,1273,414,5.99574,49.5935
56,610,6.02185,-49.5831,-0.00997116,-0.00516567,-0.0046045,-0.00237471,-0.0127621,-1.02588,0.00783737,0.0167666,1280,414,6.02191,49.5831
63,610,6.02893,-49.5815,-0.00891123,-0.00655485,-0.00218222,-0.00525307,-0.010213,-1.03293,0.00589729,0.0252882,1287,414,6.02891,49.5815
70,610,6.20203,-49.5869,-0.00707134,-0.00788262,0.000746847,-0.00662708,-0.00832688,0.536618,0.00508034,0.036869,1294,414,6.20197,49.5869
77,610,6.39148,-49.5042,-0.00549882,-0.00896337,0.0041521,-0.00273213,-0.0117301,0.587773,0.00708711,0.039635,1301,414,6.39152,49.5043
84,610,6.39929,-49.4899,-0.00379387,-0.00883525,0.00764549,0.00173574,-0.0143649,0.626161,0.0102045,0.036483,1308,414,6.39929,49.4899
91,610,6.47083,-49.4723,-0.00236228,-0.00817631,0.010374,0.00550431,-0.0160429,0.648791,0.0129268,0.031195,1315,414,6.4708,49.4723
98,610,6.52417,-49.3802,-0.000754686,-0.00630228,0.0130217,0.00978538,-0.0168424,0.68046,0.0155525,0.0272542,1322,414,6.52415,49.3803
105,610,6.57483,-49.268,0.000998435,-0.00338705,0.0154253,0.014386,-0.0167747,0.714795,0.0180082,0.0214051,1329,414,6.57487,49.268
112,610,6.66101,-49.1453,0.00244177,-0.000555085,0.016812,0.017822,-0.0159353,0.740951,0.0194999,0.014832,1336,414,6.66106,49.1453
119,610,6.69751,-49.0081,0.00377558,0.00232174,0.0178958,0.0209592,-0.0148619,0.765099,0.0207809,0.0214866,1343,414,6.69748,49.0081
126,610,6.77075,-48.8665,0.00444289,0.00643313,0.0176664,0.0231324,-0.0122564,0.813533,0.0207508,0.0296106,1350,414,6.77074,48.8665
133,610,6.86475,-48.6465,0.00477617,0.0104312,0.0169115,0.0247499,-0.00954259,0.868229,0.0204374,0.0219595,1357,414,6.8648,48.6465
140,610,6.95752,-48.4424,0.00472363,0.0133396,0.0153781,0.0250017,-0.00693848,0.921967,0.0193988,0.0186825,1364,414,6.95748,48.4424
147,610,6.93628,-48.2101,0.00470409,0.0152584,0.0136616,0.0246267,-0.00466418,0.969708,0.0181731,0.0199698,1371,414,6.93624,48.2101
154,610,6.92712,-47.981,0.00449129,0.0157748,0.0120404,0.0234297,-0.00316354,1.00449,0.016774,0.0241469,1378,414,6.92716,47.981
161,610,7.04041,-47.7515,0.00423085,0.015529,0.0102533,0.0215864,-0.00182659,1.03718,0.0150368,0.0285496,1385,414,7.04038,47.7515
168,610,7.07104,-47.4822,0.00347876,0.0153555,0.00853145,0.0198119,-0.000977568,1.08944,0.0135455,0.0275825,1392,414,7.07101,47.4822
175,610,7.104,-47.2066,0.00294136,0.0140333,0.00644736,0.0169918,-1.71512e-05,1.14059,0.0113336,0.0215987,1399,414,7.10399,47.2066
182,610,7.20923,-46.9112,0.00327072,0.0111937,0.00470386,0.0133819,0.00108243,1.13536,0.00858327,0.0162986,1406,414,7.20919,46.9112
189,610,7.22388,-46.5507,0.00352954,0.00739317,0.0031075,0.00912038,0.00180233,1.0635,0.0055774,0.0150322,1413,414,7.22393,46.5507
196,610,7.24329,-46.2193,0.0041389,0.00483812,0.00166605,0.00619084,0.00278618,0.88882,0.00358022,0.0136851,1420,414,7.24332,46.2193
203,610,7.24756,-45.8881,0.00413464,0.00189151,4.20081e-06,0.00413465,0.00189151,0.00187274,0.00239002,0.0141048,1427,414,7.2475,45.8881
210,610,7.25769,-45.5211,0.00349449,-0.0011073,-0.00146912,0.00392351,-0.00153632,-0.284123,0.00325112,0.0112584,1434,414,7.2577,45.5211
217,610,7.32312,-45.1112,0.00265595,-0.000114736,-0.00103185,0.002998,-0.000456784,-0.320092,0.00216704,0.0168436,1441,414,7.32312,45.1112
224,610,7.36621,-44.7381,0.0020263,0.000854322,-0.000561938,0.0022522,0.000628427,-0.382224,0.00134197,0.0191908,1448,414,7.36623,44.7381
231,610,7.35645,-44.3423,0.00151325,0.00170013,-7.76579e-05,0.00172819,0.00148519,-1.22409,0.00108028,0.0153498,1455,414,7.35643,44.3423
238,610,7.34058,-43.9001,0.00126997,0.00249576,0.000336395,0.00258201,0.00118372,1.31981,0.00149244,0.0116251,1462,414,7.34059,43.9001
245,610,7.36621,-43.4612,0.00127181,0.00332119,0.000732042,0.00355582,0.00103719,1.26063,0.00211151,0.0127951,1469,414,7.36627,43.4612
252,610,7.37573,-42.9942,0.00116953,0.00418709,0.00102282,0.0045011,0.000855518,1.27292,0.00276012,0.0143868,1476,414,7.37569,42.9942
259,610,7.35339,-42.5048,0.000645208,0.00494924,0.00109064,0.00520983,0.00038462,1.33626,0.00335237,0.0125292,1483,414,7.35343,42.5048
266,610,7.31567,-42.0187,3.42977e-06,0.00559131,0.00109046,0.00579657,-0.000201831,1.38474,0.00393338,0.0125676,1490,414,7.31569,42.0187
273,610,7.2926,-41.5314,-0.000843626,0.00628286,0.000914338,0.0063983,-0.000959066,1.4452,0.00461853,0.0105372,1497,414,7.2926,41.5314
280,610,7.26477,-41.0077,-0.00192063,0.00689022,0.000619907,0.00693362,-0.00196403,1.5009,0.00539754,0.0100446,1504,414,7.26475,41.0077
287,610,7.2428,-40.4926,-0.00311501,0.00753577,0.000287478,0.00754352,-0.00312276,1.54383,0.00633203,0.0133787,1511,414,7.24285,40.4926
294,610,7.23682,-39.9888,-0.00453782,0.00805346,-0.000179983,0.00805604,-0.0045404,-1.55651,0.00736636,0.0112418,1518,414,7.23687,39.9888
301,610,7.2334,-39.4902,-0.0059832,0.00845086,-0.000636377,0.00847887,-0.0060112,-1.52682,0.00840619,0.0101925,1525,414,7.23339,39.4902
308,610,7.19165,-38.9307,-0.00726253,0.0088504,-0.000964831,0.00890797,-0.0073201,-1.5112,0.00938422,0.0118692,1532,414,7.19165,38.9307
315,610,7.12,-38.4061,-0.00829719,0.00937667,-0.00108641,0.0094432,-0.00836372,-1.50963,0.0102871,0.0128923,1539,414,7.12005,38.4061
322,610,7.08716,-37.8175,-0.00912728,0.00988775,-0.000976931,0.00993781,-0.00917734,-1.5196,0.011039,0.0132981,1546,414,7.08718,37.8175
329,610,7.04968,-37.2293,-0.00962805,0.0104182,-0.000662443,0.0104401,-0.00964992,-1.5378,0.011602,0.0120766,1553,414,7.04972,37.2293
336,610,7.04492,-36.6433,-0.00986044,0.0111747,-0.000125167,0.0111755,-0.00986119,-1.56485,0.0121534,0.0126387,1560,414,7.04491,36.6433
343,610,6.98596,-36.0578,-0.00973667,0.0118446,0.000449856,0.011854,-0.00974604,1.54996,0.0124906,0.0176416,1567,414,6.98599,36.0578
350,610,6.90674,-35.4828,-0.00880688,0.0135052,0.00189706,0.0136653,-0.00896703,1.48658,0.0131603,0.0349657,1574,414,6.9067,35.4828
357,610,6.96741,-34.6492,0,0,0,0,0,0,0,-1,1581,414,6.96738,34.6492
364,610,7.08203,-33.9774,0,0,0,0,0,0,0,-1,1588,414,7.08209,33.9774
371,610,6.87585,-33.2508,0,0,0,0,0,0,0,-1,1595,414,6.8759,33.2508
378,610,3.5752,-12.1958,0,0,0,0,0,0,0,-1,1602,414,3.57517,12.1958
385,610,2.57104,-10.3878,0,0,0,0,0,0,0,-1,1609,414,2.57109,10.3878
392,610,1.99744,-1.83582,0,0,0,0,0,0,0,-1,1616,414,1.99741,1.8358
399,610,2.77136,-2.60333,0,0,0,0,0,0,0,-1,1623,414,2.77133,2.60332
406,610,3.54529,-3.37085,0,0,0,0,0,0,0,-1,1630,414,3.54525,3.37084
413,610,3.01929,-3.20306,0,0,0,0,0,0,0,-1,1637,414,3.01929,3.20306
420,610,4.78149,-3.64041,0,0,0,0,0,0,0,-1,1644,414,4.78152,3.64042
427,610,8.85168,-23.3853,0,0,0,0,0,0,0,-1,1651,414,8.85174,23.3853
434,610,8.73706,-22.6227,0,0,0,0,0,0,0,-1,1658,414,8.73703,22.6227
441,610,0,0,0,0,0,0,0,0,0,-1,1665,414,0,0
448,610,0,0,0,0,0,0,0,0,0,-1,1672,414,0,0
455,610,0,0,0,0,0,0,0,0,0,-1,1679,414,0,0
462,610,0,0,0,0,0,0,0,0,0,-1,1686,414,0,0
469,610,0,0,0,0,0,0,0,0,0,-1,1693,414,0,0
476,610,0,0,0,0,0,0,0,0,0,-1,1700,414,0,0
483,610,0,0,0,0,0,0,0,0,0,-1,1707,414,0,0
490,610,0,0,0,0,0,0,0,0,0,-1,1714,414,0,0
497,610,0,0,0,0,0,0,0,0,0,-1,1721,414,0,0
504,610,0,0,0,0,0,0,0,0,0,-1,1728,414,0,0
511,610,0,0,0,0,0,0,0,0,0,-1,1735,414,0,0
518,610,0,0,0,0,0,0,0,0,0,-1,1742,414,0,0
525,610,0,0,0,0,0,0,0,0,0,-1,1749,414,0,0
532,610,0,0,0,0,0,0,0,0,0,-1,1756,414,0,0
539,610,0,0,0,0,0,0,0,0,0,-1,1763,414,0,0
546,610,0,0,0,0,0,0,0,0,0,-1,1770,414,0,0
553,610,0,0,0,0,0,0,0,0,0,-1,1777,414,0,0
560,610,0,0,0,0,0,0,0,0,0,-1,1784,414,0,0
567,610,0,0,0,0,0,0,0,0,0,-1,1791,414,0,0
574,610,0,0,0,0,0,0,0,0,0,-1,1798,414,0,0
581,610,0,0,0,0,0,0,0,0,0,-1,1805,414,0,0
588,610,0,0,0,0,0,0,0,0,0,-1,1812,414,0,0
595,610,0,0,0,0,0,0,0,0,0,-1,1819,414,0,0
602,610,0,0,0,0,0,0,0,0,0,-1,1826,414,0,0
609,610,0,0,0,0,0,0,0,0,0,-1,1833,414,0,0
616,610,0,0,0,0,0,0,0,0,0,-1,1840,414,0,0
623,610,0,0,0,0,0,0,0,0,0,-1,1847,414,0,0
630,610,0,0,0,0,0,0,0,0,0,-1,1854,414,0,0
637,610,0,0,0,0,0,0,0,0,0,-1,1861,414,0,0
644,610,0,0,0,0,0,0,0,0,0,-1,1868,414,0,0
651,610,0,0,0,0,0,0,0,0,0,-1,1875,414,0,0
658,610,0,0,0,0,0,0,0,0,0,-1,1882,414,0,0
665,610,0,0,0,0,0,0,0,0,0,-1,1889,414,0,0
672,610,0,0,0,0,0,0,0,0,0,-1,1896,414,0,0
679,610,0,0,0,0,0,0,0,0,0,-1,1903,414,0,0
686,610,0,0,0,0,0,0,0,0,0,-1,1910,414,0,0
693,610,0,0,0,0,0,0,0,0,0,-1,1917,414,0,0
700,610,0,0,0,0,0,0,0,0,0,-1,1924,414,0,0
707,610,0,0,0,0,0,0,0,0,0,-1,1931,414,0,0
714,610,0,0,0,0,0,0,0,0,0,-1,1938,414,0,0
721,610,0,0,0,0,0,0,0,0,0,-1,1945,414,0,0
728,610,0,0,0,0,0,0,0,0,0,-1,1952,414,0,0
735,610,0,0,0,0,0,0,0,0,0,-1,1959,414,0,0
742,610,0,0,0,0,0,0,0,0,0,-1,1966,414,0,0
749,610,0,0,0,0,0,0,0,0,0,-1,1973,414,0,0
756,610,0,0,0,0,0,0,0,0,0,-1,1980,414,0,0
763,610,0,0,0,0,0,0,0,0,0,-1,1987,414,0,0
770,610,0,0,0,0,0,0,0,0,0,-1,1994,414,0,0
777,610,0,0,0,0,0,0,0,0,0,-1,2001,414,0,0
784,610,0,0,0,0,0,0,0,0,0,-1,2008,414,0,0
791,610,0,0,0,0,0,0,0,0,0,-1,2015,414,0,0
798,610,0,0,0,0,0,0,0,0,0,-1,2022,414,0,0
805,610,0,0,0,0,0,0,0,0,0,-1,2029,414,0,0
812,610,0,0,0,0,0,0,0,0,0,-1,2036,414,0,0
-700,603,0,0,0,0,0,0,0,0,0,-1,524,421,0,0
-693,603,0,0,0,0,0,0,0,0,0,-1,531,421,0,0
-686,603,0,0,0,0,0,0,0,0,0,-1,538,421,0,0
-679,603,0,0,0,0,0,0,0,0,0,-1,545,421,0,0
-672,603,0,0,0,0,0,0,0,0,0,-1,552,421,0,0
-665,603,0,0,0,0,0,0,0,0,0,-1,559,421,0,0
-658,603,0,0,0,0,0,0,0,0,0,-1,566,421,0,0
-651,603,0,0,0,0,0,0,0,0,0,-1,573,421,0,0
-644,603,0,0,0,0,0,0,0,0,0,-1,580,421,0,0
-637,603,0,0,0,0,0,0,0,0,0,-1,587,421,0,0
-630,603,0,0,0,0,0,0,0,0,0,-1,594,421,0,0
-623,603,0,0,0,0,0,0,0,0,0,-1,601,421,0,0
-616,603,0,0,0,0,0,0,0,0,0,-1,608,421,0,0
-609,603,0,0,0,0,0,0,0,0,0,-1,615,421,0,0
-602,603,0,0,0,0,0,0,0,0,0,-1,622,421,0,0
-595,603,0,0,0,0,0,0,0,0,0,-1,629,421,0,0
-588,603,0,0,0,0,0,0,0,0,0,-1,636,421,0,0
-581,603,0,0,0,0,0,0,0,0,0,-1,643,421,0,0
-574,603,0,0,0,0,0,0,0,0,0,-1,650,421,0,0
-567,603,0,0,0,0,0,0,0,0,0,-1,657,421,0,0
-560,603,0,0,0,0,0,0,0,0,0,-1,664,421,0,0
-553,603,0,0,0,0,0,0,0,0,0,-1,671,421,0,0
-546,603,0,0,0,0,0,0,0,0,0,-1,678,421,0,0
-539,603,0,0,0,0,0,0,0,0,0,-1,685,421,0,0
-532,603,0,0,0,0,0,0,0,0,0,-1,692,421,0,0
-525,603,0,0,0,0,0,0,0,0,0,-1,699,421,0,0
-518,603,0,0,0,0,0,0,0,0,0,-1,706,421,0,0
-511,603,0,0,0,0,0,0,0,0,0,-1,713,421,0,0
-504,603,0,0,0,0,0,0,0,0,0,-1,720,421,0,0
-497,603,0,0,0,0,0,0,0,0,0,-1,727,421,0,0
-490,603,0,0,0,0,0,0,0,0,0,-1,734,421,0,0
-483,603,0,0,0,0,0,0,0,0,0,-1,741,421,0,0
-476,603,0,0,0,0,0,0,0,0,0,-1,748,421,0,0
-469,603,0,0,0,0,0,0,0,0,0,-1,755,421,0,0
-462,603,0,0,0,0,0,0,0,0,0,-1,762,421,0,0
-455,603,0,0,0,0,0,0,0,0,0,-1,769,421,0,0
-448,603,0,0,0,0,0,0,0,0,0,-1,776,421,0,0
-441,603,0,0,0,0,0,0,0,0,0,-1,783,421,0,0
-434,603,0,0,0,0,0,0,0,0,0,-1,790,421,0,0
-427,603,0,0,0,0,0,0,0,0,0,-1,797,421,0,0
-420,603,0,0,0,0,0,0,0,0,0,-1,804,421,0,0
-413,603,0,0,0,0,0,0,0,0,0,-1,811,421,0,0
-406,603,0,0,0,0,0,0,0,0,0,-1,818,421,0,0
-399,603,0,0,0,0,0,0,0,0,0,-1,825,421,0,0
-392,603,0,0,0,0,0,0,0,0,0,-1,832,421,0,0
-385,603,0,0,0,0,0,0,0,0,0,-1,839,421,0,0
-378,603,0,0,0,0,0,0,0,0,0,-1,846,421,0,0
-371,603,0,0,0,0,0,0,0,0,0,-1,853,421,0,0
-364,603,0,0,0,0,0,0,0,0,0,-1,860,421,0,0
-357,603,0,0,0,0,0,0,0,0,0,-1,867,421,0,0
-350,603,0,0,0,0,0,0,0,0,0,-1,874,421,0,0
-343,603,0,0,0,0,0,0,0,0,0,-1,881,421,0,0
-336,603,0,0,0,0,0,0,0,0,0,-1,888,421,0,0
-329,603,4.09686,-17.9702,0,0,0,0,0,0,0,-1,895,421,4.09687,17.9702
-322,603,8.83179,-28.7376,0,0,0,0,0,0,0,-1,902,421,8.83179,28.7376
-315,603,5.99744,-20.4501,0,0,0,0,0,0,0,-1,909,421,5.99745,20.4501
-308,603,5.92249,-20.778,0,0,0,0,0,0,0,-1,916,421,5.92248,20.778
-301,603,2.72424,-20.9059,0,0,0,0,0,0,0,-1,923,421,2.72424,20.9059
-294,603,2.41553,-20.6767,0,0,0,0,0,0,0,-1,930,421,2.41554,20.6767
-287,603,1.91766,-21.2242,0,0,0,0,0,0,0,-1,937,421,1.91767,21.2242
-280,603,2.36121,-27.3314,0,0,0,0,0,0,0,-1,944,421,2.36119,27.3314
-273,603,4.85809,-31.9352,0,0,0,0,0,0,0,-1,951,421,4.85811,31.9351
-266,603,5.22821,-31.1862,0,0,0,0,0,0,0,-1,958,421,5.22824,31.1862
-259,603,5.01678,-32.1529,0,0,0,0,0,0,0,-1,965,421,5.01679,32.1529
-252,603,4.67841,-34.0903,0.00488146,0.019052,-0.0100087,0.0242295,-0.000296019,-1.09341,0.0162526,0.0471373,972,421,4.67843,34.0903
-245,603,5.04559,-34.2185,0.00397412,0.0186677,-0.00929976,0.0231725,-0.000530713,-1.1197,0.0156282,0.0364001,979,421,5.04556,34.2185
-238,603,4.95294,-34.7564,0.00319109,0.0185528,-0.00865689,0.0224451,-0.000701174,-1.14826,0.0152025,0.0249563,986,421,4.95295,34.7564
-231,603,4.84381,-35.4253,0.00247545,0.018176,-0.00796248,0.0215073,-0.000855856,-1.17455,0.0146318,0.0144367,993,421,4.84379,35.4253
-224,603,4.82336,-36.0724,0.00183917,0.0172802,-0.00731329,0.0201941,-0.00107471,-1.19164,0.0138349,0.0136104,1000,421,4.82337,36.0724
-217,603,4.80109,-36.6533,0.0011196,0.015975,-0.00659529,0.0184805,-0.00138591,-1.20774,0.0128073,0.0123835,1007,421,4.80109,36.6533
-210,603,4.7572,-37.2342,0.000508275,0.0144316,-0.00584763,0.0165616,-0.0016218,-1.22147,0.0116195,0.0117839,1014,421,4.75721,37.2342
-203,603,4.72742,-37.8202,7.09651e-05,0.0124085,-0.00496689,0.0141596,-0.00168009,-1.23185,0.0100467,0.0186506,1021,421,4.72739,37.8202
-196,603,4.73328,-38.4123,-0.000444843,0.0113134,-0.00435464,0.0127505,-0.00188193,-1.25204,0.0091921,0.0199733,1028,421,4.73333,38.4123
-189,603,4.6936,-38.9136,-0.000589572,0.00940971,-0.00386972,0.0107323,-0.00191221,-1.24145,0.00787012,0.0166131,1035,421,4.69364,38.9136
-182,603,4.65015,-39.4278,-0.000483403,0.00747003,-0.00318675,0.00858936,-0.00160273,-1.23301,0.0063285,0.0113952,1042,421,4.65013,39.4278
-175,603,4.61572,-39.9368,-0.000435337,0.00531579,-0.00233024,0.00614143,-0.00126097,-1.23028,0.00457293,0.0121528,1049,421,4.61575,39.9368
-168,603,4.55615,-40.4407,-0.000355502,0.00348478,-0.00162676,0.00408124,-0.000951961,-1.21936,0.00308746,0.0153697,1056,421,4.5561,40.4407
-161,603,4.53064,-40.9917,-0.000169552,0.00198175,-0.00102936,0.00239493,-0.000582731,-1.18909,0.00182219,0.0143651,1063,421,4.5306,40.9917
-154,603,4.51257,-41.4807,7.9141e-05,0.000445926,-0.000430956,0.000730888,-0.000205821,-0.986565,0.000568426,0.0133146,1070,421,4.51262,41.4808
-147,603,4.50879,-41.9242,0.000341579,-0.00094009,0.000157982,0.000360765,-0.000959276,0.120853,0.000787806,0.0145939,1077,421,4.50878,41.9242
-140,603,4.54688,-42.3671,0.000657622,-0.00227664,0.000714806,0.00082249,-0.00244151,0.226683,0.00196022,0.012642,1084,421,4.54688,42.3671
-133,603,4.52356,-42.813,0.000953674,-0.00354225,0.00117345,0.00124152,-0.0038301,0.240548,0.00305259,0.0125758,1091,421,4.52361,42.8129
-126,603,4.52161,-43.2432,0.00129541,-0.0044915,0.00151213,0.00166671,-0.0048628,0.240784,0.00391746,0.0110201,1098,421,4.52167,43.2432
-119,603,4.55103,-43.6838,0.0017656,-0.00525039,0.00174461,0.00217548,-0.00566026,0.230752,0.00467071,0.0112359,1105,421,4.55105,43.6839
-112,603,4.547,-44.1323,0.00224518,-0.0058084,0.00187316,0.00265954,-0.00622275,0.2177,0.00526394,0.0164721,1112,421,4.54698,44.1323
-105,603,4.54004,-44.5442,0.00274665,-0.00618181,0.00191361,0.0031395,-0.00657466,0.202481,0.00572417,0.0168017,1119,421,4.54009,44.5442
-98,603,4.53589,-44.9092,0.00332695,-0.00645071,0.00187268,0.00367335,-0.00679711,0.182906,0.00613414,0.0139839,1126,421,4.53585,44.9092
-91,603,4.55334,-45.2902,0.00403878,-0.00644495,0.00170095,0.00430785,-0.00671402,0.156886,0.00641383,0.0105562,1133,421,4.55329,45.2901
-84,603,4.60046,-45.6844,0.00477397,-0.00636058,0.00151745,0.00497706,-0.00656368,0.133051,0.00668401,0.0120743,1140,421,4.60043,45.6844
-77,603,4.66199,-46.0914,0.00549131,-0.0059848,0.00132358,0.00564198,-0.00613547,0.113351,0.00680171,0.0188878,1147,421,4.66197,46.0914
-70,603,4.70459,-46.487,0,0,0,0,0,0,0,-1,1154,421,4.70464,46.487
-63,603,4.6814,-46.6814,0,0,0,0,0,0,0,-1,1161,421,4.68145,46.6814
-56,603,4.74048,-47.0027,0,0,0,0,0,0,0,-1,1168,421,4.74046,47.0026
-49,603,4.79688,-47.2857,0,0,0,0,0,0,0,-1,1175,421,4.79693,47.2857
-42,603,4.87097,-47.5395,0,0,0,0,0,0,0,-1,1182,421,4.87099,47.5395
-35,603,4.89099,-47.7404,0.00484753,-0.008692,0.00508239,0.00654301,-0.0103875,0.32199,0.00985847,0.0430487,1189,421,4.89094,47.7404
-28,603,4.90112,-47.9449,-8.06605e-05,-0.00680678,0.00458749,0.00224445,-0.00913188,0.469102,0.0069578,0.0281205,1196,421,4.90117,47.9449
-21,603,4.98096,-48.1757,-0.00237579,-0.00573983,0.00240726,-0.00112113,-0.00699449,0.480462,0.00433785,0.0236914,1203,421,4.98093,48.1757
-14,603,5.104,-48.3679,-0.00398214,-0.00458407,0.000445924,-0.00374512,-0.00482109,0.488549,0.0029222,0.0231772,1210,421,5.10402,48.3679
-7,603,5.16968,-48.5285,-0.00611948,-0.0037932,-0.00140705,-0.00313078,-0.00678191,-1.13079,0.00391938,0.0280527,1217,421,5.16967,48.5285
0,603,5.23804,-48.7275,-0.00739872,-0.00311808,-0.00382704,-0.000873518,-0.00964328,-1.04036,0.00615837,0.0345945,1224,421,5.23801,48.7275
7,603,5.26892,-48.7579,-0.00832518,-0.00251919,-0.00650865,0.00170452,-0.0125489,-0.995168,0.00898814,0.0446999,1231,421,5.26895,48.7579
14,603,5.54785,-48.5933,-0.00957756,-0.00164543,-0.00901418,0.0042366,-0.0154596,-0.992644,0.0119712,0.0480134,1238,421,5.5479,48.5933
21,603,5.61304,-48.685,-0.0104609,-0.00167259,-0.0110081,0.00578599,-0.0179195,-0.975296,0.0142715,0.0392725,1245,421,5.61302,48.685
28,603,5.65845,-48.7526,0,0,0,0,0,0,0,-1,1252,421,5.65848,48.7526
35,603,5.81543,-48.7857,0,0,0,0,0,0,0,-1,1259,421,5.81539,48.7857
42,603,5.86206,-49.097,-0.0119408,-0.003845,-0.0114533,0.00425467,-0.0200404,-0.95526,0.0149813,0.0463438,1266,421,5.86205,49.097
49,603,6.00696,-49.3654,-0.0121632,-0.00482092,-0.00998767,0.00214894,-0.019133,-0.961517,0.0135287,0.0224705,1273,421,6.00692,49.3654
56,603,5.9491,-49.2854,-0.0121376,-0.0058806,-0.00721865,-0.00114168,-0.0168765,-0.989877,0.0108904,0.0442885,1280,421,5.9491,49.2854
63,603,5.93872,-49.4374,0,0,0,0,0,0,0,-1,1287,421,5.93878,49.4374
70,603,6.22498,-49.4501,0,0,0,0,0,0,0,-1,1294,421,6.22494,49.4501
77,603,6.57483,-49.3507,0,0,0,0,0,0,0,-1,1301,421,6.57483,49.3507
84,603,6.52258,-49.4111,0,0,0,0,0,0,0,-1,1308,421,6.52261,49.4111
91,603,6.6095,-49.4674,0,0,0,0,0,0,0,-1,1315,421,6.60954,49.4674
98,603,6.70068,-49.4289,0,0,0,0,0,0,0,-1,1322,421,6.70067,49.4289
105,603,6.73425,-49.2635,0,0,0,0,0,0,0,-1,1329,421,6.73421,49.2635
112,603,6.95386,-48.8385,-0.000755055,0.00268074,0.025043,0.0260647,-0.024139,0.819643,0.0289922,0.0465331,1336,421,6.95384,48.8385
119,603,7.03503,-48.6899,0.000814524,0.00686744,0.0267,0.030712,-0.02303,0.841832,0.0311334,0.0493443,1343,421,7.03508,48.6899
126,603,7.14185,-48.485,0,0,0,0,0,0,0,-1,1350,421,7.14188,48.485
133,603,7.19031,-48.2529,0.00240492,0.017906,0.0260075,0.0372933,-0.0169824,0.930214,0.0320591,0.0471409,1357,421,7.19028,48.2529
140,603,7.33032,-48.0309,0.00266474,0.0220927,0.0243271,0.0385735,-0.0138161,0.975353,0.0313528,0.0368143,1364,421,7.33029,48.0309
147,603,7.25037,-48.108,0,0,0,0,0,0,0,-1,1371,421,7.25031,48.108
154,603,7.15857,-47.8968,0,0,0,0,0,0,0,-1,1378,421,7.15859,47.8968
161,603,7.30164,-47.6246,0.00313276,0.0256658,0.0173875,0.0351179,-0.00631929,1.07287,0.0257778,0.0342313,1385,421,7.3016,47.6246
168,603,7.42969,-47.3601,0.0026576,0.0253964,0.014848,0.0327279,-0.00467394,1.11214,0.0235318,0.0367631,1392,421,7.42974,47.3601
175,603,7.62134,-47.0908,0.00241824,0.0237243,0.0116367,0.0288478,-0.00270526,1.15605,0.0201941,0.0408294,1399,421,7.62132,47.0908
182,603,7.72498,-46.819,0.00342738,0.0194667,0.00868062,0.0232652,-0.000371093,1.15832,0.0156353,0.0460505,1406,421,7.72493,46.819
189,603,7.72498,-46.4661,0.00407555,0.0131746,0.00615475,0.0162788,0.00097138,1.10367,0.0105437,0.0389895,1413,421,7.72496,46.4661
196,603,7.61975,-46.0813,0.00527257,0.00877388,0.00382943,0.0112338,0.00281261,0.999793,0.00674993,0.0288274,1420,421,7.61979,46.0813
203,603,7.62476,-45.8211,0.00568649,0.00272471,0.000230508,0.00570432,0.00270688,0.0772079,0.00329481,0.0170873,1427,421,7.62474,45.8211
210,603,7.67114,-45.556,0.00499045,-0.00328996,-0.002701,0.0057936,-0.00409311,-0.289024,0.00573616,0.0135534,1434,421,7.67114,45.556
217,603,7.69739,-45.1226,0.00389652,-0.00216457,-0.00215951,0.00458722,-0.00285527,-0.30956,0.00433553,0.0137757,1441,421,7.69737,45.1226
224,603,7.77417,-44.7188,0.00303832,-0.00102419,-0.00157079,0.00357483,-0.0015607,-0.329127,0.00304006,0.0166628,1448,421,7.77417,44.7188
231,603,7.78345,-44.3109,0.00222804,-9.27735e-05,-0.00105008,0.00263263,-0.000497365,-0.367765,0.00194222,0.0149212,1455,421,7.78349,44.3109
238,603,7.76233,-43.877,0.00172109,0.000533277,-0.000777876,0.00210587,0.000148503,-0.459356,0.00135712,0.0115398,1462,421,7.76232,43.877
245,603,7.78101,-43.4477,0.00161229,0.00124336,-0.000426643,0.00189264,0.00096301,-0.581354,0.00109277,0.0117576,1469,421,7.78095,43.4477
252,603,7.80261,-42.9792,0.001836,0.00204984,0.000157774,0.00213351,0.00175233,1.0832,0.00131384,0.0102797,1476,421,7.80265,42.9793
259,603,7.7937,-42.507,0.0017606,0.00270162,0.000568909,0.00296938,0.00149285,1.1309,0.00171438,0.0103931,1483,421,7.79375,42.507
266,603,7.77307,-42.0277,0.00137091,0.00323534,0.000717206,0.00347931,0.00112694,1.24291,0.00204989,0.0118919,1490,421,7.77311,42.0277
273,603,7.77185,-41.5541,0.000869865,0.00382361,0.000767523,0.00401114,0.000682333,1.33116,0.00247816,0.0110921,1497,421,7.77188,41.5541
280,603,7.76709,-41.037,0.000215682,0.00437261,0.000746468,0.00450259,8.57012e-05,1.3984,0.00297357,0.0121772,1504,421,7.76713,41.0369
287,603,7.75586,-40.4952,-0.000517184,0.00496852,0.000691025,0.00505423,-0.000602893,1.4474,0.00358737,0.0118009,1511,421,7.75586,40.4952
294,603,7.73181,-39.9915,-0.00144247,0.0054976,0.000542583,0.00553977,-0.00148464,1.49324,0.00427487,0.0101781,1518,421,7.73184,39.9915
301,603,7.74573,-39.4756,-0.00242961,0.00594015,0.000387699,0.00595807,-0.00244753,1.52461,0.00499206,0.0115359,1525,421,7.74574,39.4756
308,603,7.71936,-38.9339,-0.00329464,0.00636342,0.000321721,0.00637413,-0.00330535,1.53753,0.0056813,0.0162278,1532,421,7.71934,38.9339
315,603,7.65991,-38.3911,-0.0040337,0.00693128,0.000382457,0.0069446,-0.00404703,1.53597,0.0064191,0.014994,1539,421,7.65987,38.3911
322,603,7.61658,-37.8191,-0.00465981,0.0075022,0.000607447,0.00753246,-0.00469007,1.52102,0.00712001,0.015078,1546,421,7.61657,37.8191
329,603,7.58826,-37.2324,-0.00507268,0.00804057,0.000964399,0.00811111,-0.00514323,1.49778,0.00771608,0.0109971,1553,421,7.58825,37.2324
336,603,7.57129,-36.671,-0.00529104,0.00874418,0.00149101,0.00890083,-0.00544769,1.46612,0.00836371,0.00934286,1560,421,7.57124,36.671
343,603,7.54932,-36.0898,-0.00530383,0.00943621,0.00203003,0.00971068,-0.0055783,1.43641,0.00893393,0.0113176,1567,421,7.54928,36.0898
350,603,7.50134,-35.4976,-0.00482075,0.010856,0.00313325,0.011459,-0.00542378,1.38066,0.00995272,0.0167867,1574,421,7.50131,35.4976
357,603,7.46741,-34.8065,-0.00316521,0.0124348,0.00523269,0.0140274,-0.00475781,1.27535,0.0112772,0.0226035,1581,421,7.4674,34.8065
364,603,7.44629,-34.1158,-0.00132176,0.0140994,0.0074002,0.017076,-0.00429837,1.18837,0.0130548,0.0282089,1588,421,7.44629,34.1158
371,603,7.3689,-33.4882,-0.00124562,0.0160515,0.00813406,0.0192756,-0.00446974,1.19342,0.0145706,0.0381404,1595,421,7.36888,33.4882
378,603,7.349,-33.0524,0,0,0,0,0,0,0,-1,1602,421,7.34898,33.0524
385,603,7.31897,-32.2972,0,0,0,0,0,0,0,-1,1609,421,7.31893,32.2972
392,603,4.90527,-19.605,0,0,0,0,0,0,0,-1,1616,421,4.90526,19.605
399,603,2.94299,0.638214,0,0,0,0,0,0,0,-1,1623,421,2.94293,-0.638215
406,603,3.01917,-2.37219,0,0,0,0,0,0,0,-1,1630,421,3.01915,2.37219
413,603,2.38928,-2.41275,0,0,0,0,0,0,0,-1,1637,421,2.38926,2.41274
420,603,8.22217,-23.7068,0,0,0,0,0,0,0,-1,1644,421,8.22215,23.7068
427,603,8.20386,-23.1278,0,0,0,0,0,0,0,-1,1651,421,8.2039,23.1278
434,603,8.01489,-22.5655,0,0,0,0,0,0,0,-1,1658,421,8.01493,22.5655
441,603,8.00122,-22.3072,0,0,0,0,0,0,0,-1,1665,421,8.00116,22.3071
448,603,1.14355,-4.59842,0,0,0,0,0,0,0,-1,1672,421,1.14355,4.59841
455,603,0,0,0,0,0,0,0,0,0,-1,1679,421,0,0
462,603,0,0,0,0,0,0,0,0,0,-1,1686,421,0,0
469,603,0,0,0,0,0,0,0,0,0,-1,1693,421,0,0
476,603,0,0,0,0,0,0,0,0,0,-1,1700,421,0,0
483,603,0,0,0,0,0,0,0,0,0,-1,1707,421,0,0
490,603,0,0,0,0,0,0,0,0,0,-1,1714,421,0,0
497,603,0,0,0,0,0,0,0,0,0,-1,1721,421,0,0
504,603,0,0,0,0,0,0,0,0,0,-1,1728,421,0,0
511,603,0,0,0,0,0,0,0,0,0,-1,1735,421,0,0
518,603,0,0,0,0,0,0,0,0,0,-1,1742,421,0,0
525,603,0,0,0,0,0,0,0,0,0,-1,1749,421,0,0
532,603,0,0,0,0,0,0,0,0,0,-1,1756,421,0,0
539,603,0,0,0,0,0,0,0,0,0,-1,1763,421,0,0
546,603,0,0,0,0,0,0,0,0,0,-1,1770,421,0,0
553,603,0,0,0,0,0,0,0,0,0,-1,1777,421,0,0
560,603,0,0,0,0,0,0,0,0,0,-1,1784,421,0,0
567,603,0,0,0,0,0,0,0,0,0,-1,1791,421,0,0
574,603,0,0,0,0,0,0,0,0,0,-1,1798,421,0,0
581,603,0,0,0,0,0,0,0,0,0,-1,1805,421,0,0
588,603,0,0,0,0,0,0,0,0,0,-1,1812,421,0,0
595,603,0,0,0,0,0,0,0,0,0,-1,1819,421,0,0
602,603,0,0,0,0,0,0,0,0,0,-1,1826,421,0,0
609,603,0,0,0,0,0,0,0,0,0,-1,1833,421,0,0
616,603,0,0,0,0,0,0,0,0,0,-1,1840,421,0,0
623,603,0,0,0,0,0,0,0,0,0,-1,1847,421,0,0
630,603,0,0,0,0,0,0,0,0,0,-1,1854,421,0,0
637,603,0,0,0,0,0,0,0,0,0,-1,1861,421,0,0
644,603,0,0,0,0,0,0,0,0,0,-1,1868,421,0,0
651,603,0,0,0,0,0,0,0,0,0,-1,1875,421,0,0
658,603,0,0,0,0,0,0,0,0,0,-1,1882,421,0,0
665,603,0,0,0,0,0,0,0,0,0,-1,1889,421,0,0
672,603,0,0,0,0,0,0,0,0,0,-1,1896,421,0,0
679,603,0,0,0,0,0,0,0,0,0,-1,1903,421,0,0
686,603,0,0,0,0,0,0,0,0,0,-1,1910,421,0,0
693,603,0,0,0,0,0,0,0,0,0,-1,1917,421,0,0
700,603,0,0,0,0,0,0,0,0,0,-1,1924,421,0,0
707,603,0,0,0,0,0,0,0,0,0,-1,1931,421,0,0
714,603,0,0,0,0,0,0,0,0,0,-1,1938,421,0,0
721,603,0,0,0,0,0,0,0,0,0,-1,1945,421,0,0
728,603,0,0,0,0,0,0,0,0,0,-1,1952,421,0,0
735,603,0,0,0,0,0,0,0,0,0,-1,1959,421,0,0
742,603,0,0,0,0,0,0,0,0,0,-1,1966,421,0,0
749,603,0,0,0,0,0,0,0,0,0,-1,1973,421,0,0
756,603,0,0,0,0,0,0,0,0,0,-1,1980,421,0,0
763,603,0,0,0,0,0,0,0,0,0,-1,1987,421,0,0
770,603,0,0,0,0,0,0,0,0,0,-1,1994,421,0,0
777,603,0,0,0,0,0,0,0,0,0,-1,2001,421,0,0
784,603,0,0,0,0,0,0,0,0,0,-1,2008,421,0,0
791,603,0,0,0,0,0,0,0,0,0,-1,2015,421,0,0
798,603,0,0,0,0,0,0,0,0,0,-1,2022,421,0,0
805,603,0,0,0,0,0,0,0,0,0,-1,2029,421,0,0
812,603,0,0,0,0,0,0,0,0,0,-1,2036,421,0,0
-700,596,0,0,0,0,0,0,0,0,0,-1,524,428,0,0
-693,596,0,0,0,0,0,0,0,0,0,-1,531,428,0,0
-686,596,0,0,0,0,0,0,0,0,0,-1,538,428,0,0
-679,596,0,0,0,0,0,0,0,0,0,-1,545,428,0,0
-672,596,0,0,0,0,0,0,0,0,0,-1,552,428,0,0
-665,596,0,0,0,0,0,0,0,0,0,-1,559,428,0,0
-658,596,0,0,0,0,0,0,0,0,0,-1,566,428,0,0
-651,596,0,0,0,0,0,0,0,0,0,-1,573,428,0,0
-644,596,0,0,0,0,0,0,0,0,0,-1,580,428,0,0
-637,596,0,0,0,0,0,0,0,0,0,-1,587,428,0,0
-630,596,0,0,0,0,0,0,0,0,0,-1,594,428,0,0
-623,596,0,0,0,0,0,0,0,0,0,-1,601,428,0,0
-616,596,0,0,0,0,0,0,0,0,0,-1,608,428,0,0
-609,596,0,0,0,0,0,0,0,0,0,-1,615,428,0,0
-602,596,0,0,0,0,0,0,0,0,0,-1,622,428,0,0
-595,596,0,0,0,0,0,0,0,0,0,-1,629,428,0,0
-588,596,0,0,0,0,0,0,0,0,0,-1,636,428,0,0
-581,596,0,0,0,0,0,0,0,0,0,-1,643,428,0,0
-574,596,0,0,0,0,0,0,0,0,0,-1,650,428,0,0
-567,596,0,0,0,0,0,0,0,0,0,-1,657,428,0,0
-560,596,0,0,0,0,0,0,0,0,0,-1,664,428,0,0
-553,596,0,0,0,0,0,0,0,0,0,-1,671,428,0,0
-546,596,0,0,0,0,0,0,0,0,0,-1,678,428,0,0
-539,596,0,0,0,0,0,0,0,0,0,-1,685,428,0,0
-532,596,0,0,0,0,0,0,0,0,0,-1,692,428,0,0
-525,596,0,0,0,0,0,0,0,0,0,-1,699,428,0,0
-518,596,0,0,0,0,0,0,0,0,0,-1,706,428,0,0
-511,596,0,0,0,0,0,0,0,0,0,-1,713,428,0,0
-504,596,0,0,0,0,0,0,0,0,0,-1,720,428,0,0
-497,596,0,0,0,0,0,0,0,0,0,-1,727,428,0,0
-490,596,0,0,0,0,0,0,0,0,0,-1,734,428,0,0
-483,596,0,0,0,0,0,0,0,0,0,-1,741,428,0,0
-476,596,0,0,0,0,0,0,0,0,0,-1,748,428,0,0
-469,596,0,0,0,0,0,0,0,0,0,-1,755,428,0,0
-462,596,0,0,0,0,0,0,0,0,0,-1,762,428,0,0
-455,596,0,0,0,0,0,0,0,0,0,-1,769,428,0,0
-448,596,0,0,0,0,0,0,0,0,0,-1,776,428,0,0
-441,596,0,0,0,0,0,0,0,0,0,-1,783,428,0,0
-434,596,0,0,0,0,0,0,0,0,0,-1,790,428,0,0
-427,596,0,0,0,0,0,0,0,0,0,-1,797,428,0,0
-420,596,0,0,0,0,0,0,0,0,0,-1,804,428,0,0
-413,596,0,0,0,0,0,0,0,0,0,-1,811,428,0,0
-406,596,0,0,0,0,0,0,0,0,0,-1,818,428,0,0
-399,596,0,0,0,0,0,0,0,0,0,-1,825,428,0,0
-392,596,0,0,0,0,0,0,0,0,0,-1,832,428,0,0
-385,596,0,0,0,0,0,0,0,0,0,-1,839,428,0,0
-378,596,0,0,0,0,0,0,0,0,0,-1,846,428,0,0
-371,596,0,0,0,0,0,0,0,0,0,-1,853,428,0,0
-364,596,0,0,0,0,0,0,0,0,0,-1,860,428,0,0
-357,596,0,0,0,0,0,0,0,0,0,-1,867,428,0,0
-350,596,0,0,0,0,0,0,0,0,0,-1,874,428,0,0
-343,596,0,0,0,0,0,0,0,0,0,-1,881,428,0,0
-336,596,6.81445,-30.5258,0,0,0,0,0,0,0,-1,888,428,6.81446,30.5258
-329,596,6.84772,-28.9253,0,0,0,0,0,0,0,-1,895,428,6.84773,28.9253
-322,596,6.97449,-27.9047,0,0,0,0,0,0,0,-1,902,428,6.97451,27.9047
-315,596,7.10132,-26.8841,0,0,0,0,0,0,0,-1,909,428,7.10129,26.8841
-308,596,0.254761,-20.841,0,0,0,0,0,0,0,-1,916,428,0.254731,20.841
-301,596,3.43213,-26.756,0,0,0,0,0,0,0,-1,923,428,3.43214,26.756
-294,596,4.1767,-27.6454,0,0,0,0,0,0,0,-1,930,428,4.17667,27.6454
-287,596,4.36041,-27.6119,0,0,0,0,0,0,0,-1,937,428,4.3604,27.6119
-280,596,4.7962,-31.2414,0,0,0,0,0,0,0,-1,944,428,4.7962,31.2414
-273,596,4.53528,-31.8019,0,0,0,0,0,0,0,-1,951,428,4.5353,31.8019
-266,596,4.37476,-32.3065,0,0,0,0,0,0,0,-1,958,428,4.37474,32.3065
-259,596,4.40607,-32.5796,0.00339593,0.0151807,-0.00871186,0.0198058,-0.00122912,-1.08274,0.0136321,0.047569,965,428,4.40605,32.5796
-252,596,4.34094,-33.5948,0.00297634,0.0147645,-0.0080408,0.0188401,-0.00109926,-1.10167,0.0129421,0.0239495,972,428,4.34091,33.5948
-245,596,4.3728,-34.3064,0.0024374,0.0144103,-0.00734535,0.0178997,-0.001052,-1.12731,0.0122988,0.016636,979,428,4.3728,34.3064
-238,596,4.37109,-34.9177,0.00207309,0.0140673,-0.00671386,0.0170724,-0.000932097,-1.14993,0.0117047,0.013402,986,428,4.37111,34.9177
-231,596,4.29816,-35.5282,0.00174995,0.0134175,-0.00606556,0.0159995,-0.000831965,-1.16836,0.0109542,0.0131793,993,428,4.29818,35.5282
-224,596,4.27332,-36.1124,0.00144552,0.0124111,-0.00546855,0.014672,-0.000815466,-1.17875,0.0100642,0.0134588,1000,428,4.27334,36.1124
-217,596,4.25299,-36.6909,0.00106674,0.0110761,-0.00483266,0.0130285,-0.000885698,-1.18684,0.00899546,0.013439,1007,428,4.25301,36.6909
-210,596,4.23682,-37.2539,0.00074024,0.00953304,-0.00419005,0.0112099,-0.000936652,-1.19011,0.00780426,0.01314,1014,428,4.23681,37.2539
-203,596,4.22021,-37.8134,0.000537198,0.0076171,-0.00343181,0.00900752,-0.000853225,-1.18585,0.00630869,0.0185708,1021,428,4.22023,37.8134
-196,596,4.20813,-38.3769,0.000260615,0.00648083,-0.00288092,0.00761012,-0.000868674,-1.19722,0.00538637,0.0187415,1028,428,4.20811,38.3769
-189,596,4.15332,-38.8957,0.000237738,0.00474162,-0.00242608,0.00579983,-0.000820474,-1.15949,0.00416706,0.0149358,1035,428,4.15332,38.8957
-182,596,4.13599,-39.3905,0.000403909,0.0029687,-0.00178536,0.00388449,-0.000511888,-1.09684,0.00277607,0.012757,1042,428,4.13593,39.3905
-175,596,4.1106,-39.9074,0.000526655,0.000998547,-0.000990662,0.00178097,-0.000255771,-0.902305,0.00128111,0.0153682,1049,428,4.11065,39.9074
-168,596,4.06653,-40.455,0.000651153,-0.000762825,-0.000295695,0.000710499,-0.000822171,-0.198068,0.00088567,0.0181325,1056,428,4.06652,40.455
-161,596,4.06934,-40.9823,0.000844327,-0.00217449,0.000319972,0.000877869,-0.00220803,0.104447,0.00183599,0.0163707,1063,428,4.06929,40.9823
-154,596,4.05212,-41.474,0.00107219,-0.00362684,0.000966804,0.00126333,-0.00381798,0.195187,0.00305478,0.013645,1070,428,4.05215,41.474
-147,596,4.07971,-41.9006,0.00131277,-0.00496921,0.00161955,0.00170572,-0.00536217,0.238031,0.00425878,0.014458,1077,428,4.07977,41.9006
-140,596,4.11072,-42.3423,0.00160942,-0.00627214,0.00227689,0.0022199,-0.00688262,0.261959,0.00548035,0.0156734,1084,428,4.11077,42.3423
-133,596,4.09949,-42.8005,0.00191664,-0.00751501,0.00283711,0.00270429,-0.00830266,0.270803,0.0066232,0.0153803,1091,428,4.09953,42.8005
-126,596,4.09448,-43.2243,0.00228001,-0.00849287,0.00319918,0.00315843,-0.0093713,0.267973,0.00752464,0.0119187,1098,428,4.09452,43.2243
-119,596,4.1228,-43.6743,0.00277003,-0.00938766,0.00343571,0.00367377,-0.0102914,0.257216,0.0083591,0.0151369,1105,428,4.12285,43.6743
-112,596,4.11462,-44.11,0.00325964,-0.0100458,0.00353474,0.00414039,-0.0109265,0.244195,0.00898818,0.0169072,1112,428,4.1146,44.11
-105,596,4.10901,-44.5336,0.00380657,-0.0104508,0.0035403,0.00463727,-0.0112815,0.230473,0.00945379,0.0205874,1119,428,4.10897,44.5336
-98,596,4.15442,-44.9372,0.00446836,-0.0106667,0.0034197,0.00520516,-0.0114035,0.212213,0.00980906,0.0255555,1126,428,4.15442,44.9372
-91,596,4.11389,-45.4083,0,0,0,0,0,0,0,-1,1133,428,4.11393,45.4083
-84,596,4.23499,-45.6848,0,0,0,0,0,0,0,-1,1140,428,4.23504,45.6847
-77,596,4.37476,-46.17,0,0,0,0,0,0,0,-1,1147,428,4.3748,46.17
-70,596,3.50696,-32.137,0,0,0,0,0,0,0,-1,1154,428,3.50696,32.137
-63,596,1.95569,-12.2758,0,0,0,0,0,0,0,-1,1161,428,1.95563,12.2759
-56,596,1.60107,-10.5827,0,0,0,0,0,0,0,-1,1168,428,1.60108,10.5827
-49,596,1.59473,-10.0393,0,0,0,0,0,0,0,-1,1175,428,1.59472,10.0393
-42,596,1.99585,-6.6246,0,0,0,0,0,0,0,-1,1182,428,1.99586,6.62459
-35,596,4.42334,-47.4669,0,0,0,0,0,0,0,-1,1189,428,4.42336,47.467
-28,596,4.56799,-47.7522,0,0,0,0,0,0,0,-1,1196,428,4.56794,47.7522
-21,596,4.66284,-47.996,0,0,0,0,0,0,0,-1,1203,428,4.66278,47.996
-14,596,4.85291,-48.1944,0,0,0,0,0,0,0,-1,1210,428,4.8529,48.1944
-7,596,4.88904,-48.3109,0,0,0,0,0,0,0,-1,1217,428,4.88906,48.3109
0,596,4.99951,-48.5804,0,0,0,0,0,0,0,-1,1224,428,4.99951,48.5804
7,596,5.00378,-48.4814,0,0,0,0,0,0,0,-1,1231,428,5.00378,48.4813
14,596,5.47681,-47.9238,0,0,0,0,0,0,0,-1,1238,428,5.47687,47.9238
21,596,5.58008,-47.8771,0,0,0,0,0,0,0,-1,1245,428,5.58007,47.8771
28,596,5.57483,-47.9588,0,0,0,0,0,0,0,-1,1252,428,5.57483,47.9588
35,596,7.00305,-49.0296,0,0,0,0,0,0,0,-1,1259,428,7.00306,49.0296
42,596,5.73572,-48.7447,0,0,0,0,0,0,0,-1,1266,428,5.73574,48.7447
49,596,6.44116,-49.3856,-0.0159085,-0.00478971,-0.0133415,0.00410435,-0.0248025,-0.982808,0.0180593,0.0455105,1273,428,6.4412,49.3856
56,596,6.11047,-49.3554,-0.0160056,-0.0062911,-0.0094082,-0.000560285,-0.0217364,-1.02369,0.0143078,0.0437568,1280,428,6.11052,49.3554
63,596,5.82483,-49.3279,-0.0150993,-0.00847097,-0.00430265,-0.00635407,-0.0172162,-1.11357,0.0100527,0.0445444,1287,428,5.8248,49.3279
70,596,5.4458,-49.3263,0,0,0,0,0,0,0,-1,1294,428,5.44581,49.3263
77,596,4.75366,-50.7135,0,0,0,0,0,0,0,-1,1301,428,4.75365,50.7135
84,596,6.6355,-48.7656,0,0,0,0,0,0,0,-1,1308,428,6.63553,48.7656
91,596,6.29028,-47.979,0,0,0,0,0,0,0,-1,1315,428,6.29027,47.979
98,596,6.06616,-47.1584,0,0,0,0,0,0,0,-1,1322,428,6.06613,47.1584
105,596,4.96558,-48.0919,0,0,0,0,0,0,0,-1,1329,428,4.96559,48.0919
112,596,7.25586,-48.4949,0,0,0,0,0,0,0,-1,1336,428,7.2559,48.4949
119,596,7.42529,-48.181,0,0,0,0,0,0,0,-1,1343,428,7.42534,48.181
126,596,1.24048,-47.2512,0,0,0,0,0,0,0,-1,1350,428,1.24046,47.2512
133,596,7.52478,-47.7299,0,0,0,0,0,0,0,-1,1357,428,7.52473,47.7299
140,596,7.75659,-47.3614,0,0,0,0,0,0,0,-1,1364,428,7.75659,47.3614
147,596,7.65369,-46.9142,0,0,0,0,0,0,0,-1,1371,428,7.65366,46.9142
154,596,7.54797,-46.5214,0,0,0,0,0,0,0,-1,1378,428,7.54797,46.5214
161,596,7.63086,-47.2766,0,0,0,0,0,0,0,-1,1385,428,7.63082,47.2767
168,596,7.90442,-46.9608,0,0,0,0,0,0,0,-1,1392,428,7.90437,46.9608
175,596,8.11011,-46.7267,0,0,0,0,0,0,0,-1,1399,428,8.11013,46.7267
182,596,8.2179,-46.6699,0,0,0,0,0,0,0,-1,1406,428,8.21795,46.6698
189,596,8.17041,-46.3746,0,0,0,0,0,0,0,-1,1413,428,8.1704,46.3746
196,596,8.04175,-45.8538,0,0,0,0,0,0,0,-1,1420,428,8.04174,45.8538
203,596,7.98352,-45.7689,0,0,0,0,0,0,0,-1,1427,428,7.98357,45.7689
210,596,8.03625,-45.5817,0,0,0,0,0,0,0,-1,1434,428,8.03622,45.5817
217,596,8.0658,-45.109,0,0,0,0,0,0,0,-1,1441,428,8.06577,45.109
224,596,8.13452,-44.6786,0,0,0,0,0,0,0,-1,1448,428,8.13449,44.6785
231,596,8.22607,-44.3091,0.00289854,-0.00158307,-0.00207987,0.00371503,-0.00239956,-0.374084,0.00355739,0.0267181,1455,428,8.22603,44.309
238,596,8.2157,-43.855,0.00218651,-0.00109953,-0.00191914,0.00306987,-0.00198289,-0.431379,0.00293963,0.0177798,1462,428,8.21567,43.855
245,596,8.23535,-43.4279,0.00201231,-0.000494325,-0.00159528,0.00278771,-0.00126973,-0.452436,0.00239659,0.013835,1469,428,8.23535,43.4279
252,596,8.25122,-42.9684,0.00214321,0.000164156,-0.00101585,0.00257182,-0.000264453,-0.399262,0.00180915,0.00982639,1476,428,8.25117,42.9685
259,596,8.24097,-42.4916,0.00216936,0.000640748,-0.000541692,0.00234186,0.000468254,-0.308283,0.00143092,0.00859805,1483,428,8.24096,42.4916
266,596,8.23926,-42.0232,0.00202025,0.0010441,-0.000269002,0.00208947,0.000974876,-0.251862,0.00120726,0.0103579,1490,428,8.23922,42.0232
273,596,8.25342,-41.5518,0.00188702,0.0015204,1.61478e-05,0.00188773,0.00151969,0.0439308,0.00115551,0.0128121,1497,428,8.25343,41.5518
280,596,8.27173,-41.0561,0.001702,0.00200884,0.000297012,0.00218972,0.00152112,1.0238,0.00129578,0.0134628,1504,428,8.27167,41.056
287,596,8.26624,-40.5209,0.00147314,0.00257571,0.000546714,0.00280083,0.00124802,1.18018,0.00162025,0.0120275,1511,428,8.26626,40.5209
294,596,8.23926,-39.998,0.00110203,0.00314977,0.000765643,0.00340438,0.000847417,1.24975,0.00204646,0.00911201,1518,428,8.23929,39.998
301,596,8.24219,-39.4671,0.000631145,0.00367107,0.000964367,0.00395119,0.000351027,1.28811,0.00252526,0.00983478,1525,428,8.2422,39.4671
308,596,8.2522,-38.9267,0.000208857,0.00412546,0.00118712,0.00445719,-0.000122865,1.29831,0.00301325,0.0153615,1532,428,8.25216,38.9267
315,596,8.17993,-38.3558,-0.000223503,0.00473948,0.00144614,0.00513011,-0.000614138,1.30697,0.00364209,0.0162755,1539,428,8.17998,38.3558
322,596,8.1731,-37.7878,-0.000677714,0.00535518,0.00177714,0.00583976,-0.00116229,1.3046,0.00433288,0.0136245,1546,428,8.17308,37.7878
329,596,8.14502,-37.2461,-0.00106608,0.00589106,0.00213856,0.00649586,-0.00167088,1.29519,0.00498183,0.0106126,1553,428,8.14501,37.2461
336,596,8.10413,-36.689,-0.00137632,0.00654258,0.00257986,0.0073089,-0.00214264,1.28206,0.00572213,0.0091858,1560,428,8.10414,36.689
343,596,8.09717,-36.1041,-0.00161308,0.00721355,0.00298883,0.00813038,-0.00252991,1.27316,0.00643161,0.0117741,1567,428,8.09719,36.1041
350,596,8.07312,-35.4863,-0.00157083,0.00842193,0.00374007,0.0096667,-0.0028156,1.24951,0.00755984,0.0128551,1574,428,8.07308,35.4863
357,596,8.02271,-34.8824,-0.00121151,0.00962618,0.00480903,0.0114524,-0.0030377,1.20787,0.00882355,0.00989453,1581,428,8.02274,34.8824
364,596,7.97864,-34.2495,-0.000811848,0.0109243,0.00580941,0.0133135,-0.00320111,1.18061,0.010113,0.0103461,1588,428,7.9786,34.2495
371,596,7.94702,-33.634,-0.000792543,0.0125204,0.00648722,0.0151587,-0.00343084,1.18453,0.0114224,0.0118941,1595,428,7.94696,33.634
378,596,7.8916,-33.0245,-0.000592457,0.0143417,0.0070686,0.0171567,-0.00340752,1.1918,0.0127266,0.015589,1602,428,7.89161,33.0245
385,596,7.87683,-32.2643,0.000111283,0.0163082,0.00723762,0.019071,-0.00265157,1.20613,0.0136838,0.0409857,1609,428,7.87685,32.2643
392,596,7.82385,-31.6561,0,0,0,0,0,0,0,-1,1616,428,7.8238,31.6561
399,596,7.81372,-30.4477,0,0,0,0,0,0,0,-1,1623,428,7.81372,30.4477
406,596,3.60034,-10.1525,0,0,0,0,0,0,0,-1,1630,428,3.60028,10.1525
413,596,3.39124,-2.63528,0,0,0,0,0,0,0,-1,1637,428,3.39122,2.6353
420,596,2.6344,-3.06308,0,0,0,0,0,0,0,-1,1644,428,2.63439,3.06308
427,596,7.61975,-22.7222,0,0,0,0,0,0,0,-1,1651,428,7.61974,22.7222
434,596,5.09753,-22.5213,0,0,0,0,0,0,0,-1,1658,428,5.09755,22.5213
441,596,7.19043,-22.087,0,0,0,0,0,0,0,-1,1665,428,7.19046,22.087
448,596,1.0769,0.0083313,0,0,0,0,0,0,0,-1,1672,428,1.07684,-0.00832231
455,596,2.00769,-1.43329,0,0,0,0,0,0,0,-1,1679,428,2.00765,1.4333
462,596,0,0,0,0,0,0,0,0,0,-1,1686,428,0,0
469,596,0,0,0,0,0,0,0,0,0,-1,1693,428,0,0
476,596,0,0,0,0,0,0,0,0,0,-1,1700,428,0,0
483,596,0,0,0,0,0,0,0,0,0,-1,1707,428,0,0
490,596,0,0,0,0,0,0,0,0,0,-1,1714,428,0,0
497,596,0,0,0,0,0,0,0,0,0,-1,1721,428,0,0
504,596,0,0,0,0,0,0,0,0,0,-1,1728,428,0,0
511,596,0,0,0,0,0,0,0,0,0,-1,1735,428,0,0
518,596,0,0,0,0,0,0,0,0,0,-1,1742,428,0,0
525,596,0,0,0,0,0,0,0,0,0,-1,1749,428,0,0
532,596,0,0,0,0,0,0,0,0,0,-1,1756,428,0,0
539,596,0,0,0,0,0,0,0,0,0,-1,1763,428,0,0
546,596,0,0,0,0,0,0,0,0,0,-1,1770,428,0,0
553,596,0,0,0,0,0,0,0,0,0,-1,1777,428,0,0
560,596,0,0,0,0,0,0,0,0,0,-1,1784,428,0,0
567,596,0,0,0,0,0,0,0,0,0,-1,1791,428,0,0
574,596,0,0,0,0,0,0,0,0,0,-1,1798,428,0,0
581,596,0,0,0,0,0,0,0,0,0,-1,1805,428,0,0
588,596,0,0,0,0,0,0,0,0,0,-1,1812,428,0,0
595,596,0,0,0,0,0,0,0,0,0,-1,1819,428,0,0
602,596,0,0,0,0,0,0,0,0,0,-1,1826,428,0,0
609,596,0,0,0,0,0,0,0,0,0,-1,1833,428,0,0
616,596,0,0,0,0,0,0,0,0,0,-1,1840,428,0,0
623,596,0,0,0,0,0,0,0,0,0,-1,1847,428,0,0
630,596,0,0,0,0,0,0,0,0,0,-1,1854,428,0,0
637,596,0,0,0,0,0,0,0,0,0,-1,1861,428,0,0
644,596,0,0,0,0,0,0,0,0,0,-1,1868,428,0,0
651,596,0,0,0,0,0,0,0,0,0,-1,1875,428,0,0
658,596,0,0,0,0,0,0,0,0,0,-1,1882,428,0,0
665,596,0,0,0,0,0,0,0,0,0,-1,1889,428,0,0
672,596,0,0,0,0,0,0,0,0,0,-1,1896,428,0,0
679,596,0,0,0,0,0,0,0,0,0,-1,1903,428,0,0
686,596,0,0,0,0,0,0,0,0,0,-1,1910,428,0,0
693,596,0,0,0,0,0,0,0,0,0,-1,1917,428,0,0
700,596,0,0,0,0,0,0,0,0,0,-1,1924,428,0,0
707,596,0,0,0,0,0,0,0,0,0,-1,1931,428,0,0
714,596,0,0,0,0,0,0,0,0,0,-1,1938,428,0,0
721,596,0,0,0,0,0,0,0,0,0,-1,1945,428,0,0
728,596,0,0,0,0,0,0,0,0,0,-1,1952,428,0,0
735,596,0,0,0,0,0,0,0,0,0,-1,1959,428,0,0
742,596,0,0,0,0,0,0,0,0,0,-1,1966,428,0,0
749,596,0,0,0,0,0,0,0,0,0,-1,1973,428,0,0
756,596,0,0,0,0,0,0,0,0,0,-1,1980,428,0,0
763,596,0,0,0,0,0,0,0,0,0,-1,1987,428,0,0
770,596,0,0,0,0,0,0,0,0,0,-1,1994,428,0,0
777,596,0,0,0,0,0,0,0,0,0,-1,2001,428,0,0
784,596,0,0,0,0,0,0,0,0,0,-1,2008,428,0,0
791,596,0,0,0,0,0,0,0,0,0,-1,2015,428,0,0
798,596,0,0,0,0,0,0,0,0,0,-1,2022,428,0,0
805,596,0,0,0,0,0,0,0,0,0,-1,2029,428,0,0
812,596,0,0,0,0,0,0,0,0,0,-1,2036,428,0,0
-700,589,0,0,0,0,0,0,0,0,0,-1,524,435,0,0
-693,589,0,0,0,0,0,0,0,0,0,-1,531,435,0,0
-686,589,0,0,0,0,0,0,0,0,0,-1,538,435,0,0
-679,589,0,0,0,0,0,0,0,0,0,-1,545,435,0,0
-672,589,0,0,0,0,0,0,0,0,0,-1,552,435,0,0
-665,589,0,0,0,0,0,0,0,0,0,-1,559,435,0,0
-658,589,0,0,0,0,0,0,0,0,0,-1,566,435,0,0
-651,589,0,0,0,0,0,0,0,0,0,-1,573,435,0,0
-644,589,0,0,0,0,0,0,0,0,0,-1,580,435,0,0
-637,589,0,0,0,0,0,0,0,0,0,-1,587,435,0,0
-630,589,0,0,0,0,0,0,0,0,0,-1,594,435,0,0
-623,589,0,0,0,0,0,0,0,0,0,-1,601,435,0,0
-616,589,0,0,0,0,0,0,0,0,0,-1,608,435,0,0
-609,589,0,0,0,0,0,0,0,0,0,-1,615,435,0,0
-602,589,0,0,0,0,0,0,0,0,0,-1,622,435,0,0
-595,589,0,0,0,0,0,0,0,0,0,-1,629,435,0,0
-588,589,0,0,0,0,0,0,0,0,0,-1,636,435,0,0
-581,589,0,0,0,0,0,0,0,0,0,-1,643,435,0,0
-574,589,0,0,0,0,0,0,0,0,0,-1,650,435,0,0
-567,589,0,0,0,0,0,0,0,0,0,-1,657,435,0,0
-560,589,0,0,0,0,0,0,0,0,0,-1,664,435,0,0
-553,589,0,0,0,0,0,0,0,0,0,-1,671,435,0,0
-546,589,0,0,0,0,0,0,0,0,0,-1,678,435,0,0
-539,589,0,0,0,0,0,0,0,0,0,-1,685,435,0,0
-532,589,0,0,0,0,0,0,0,0,0,-1,692,435,0,0
-525,589,0,0,0,0,0,0,0,0,0,-1,699,435,0,0
-518,589,0,0,0,0,0,0,0,0,0,-1,706,435,0,0
-511,589,0,0,0,0,0,0,0,0,0,-1,713,435,0,0
-504,589,0,0,0,0,0,0,0,0,0,-1,720,435,0,0
-497,589,0,0,0,0,0,0,0,0,0,-1,727,435,0,0
-490,589,0,0,0,0,0,0,0,0,0,-1,734,435,0,0
-483,589,0,0,0,0,0,0,0,0,0,-1,741,435,0,0
-476,589,0,0,0,0,0,0,0,0,0,-1,748,435,0,0
-469,589,0,0,0,0,0,0,0,0,0,-1,755,435,0,0
-462,589,0,0,0,0,0,0,0,0,0,-1,762,435,0,0
-455,589,0,0,0,0,0,0,0,0,0,-1,769,435,0,0
-448,589,0,0,0,0,0,0,0,0,0,-1,776,435,0,0
-441,589,0,0,0,0,0,0,0,0,0,-1,783,435,0,0
-434,589,0,0,0,0,0,0,0,0,0,-1,790,435,0,0
-427,589,0,0,0,0,0,0,0,0,0,-1,797,435,0,0
-420,589,0,0,0,0,0,0,0,0,0,-1,804,435,0,0
-413,589,0,0,0,0,0,0,0,0,0,-1,811,435,0,0
-406,589,0,0,0,0,0,0,0,0,0,-1,818,435,0,0
-399,589,0,0,0,0,0,0,0,0,0,-1,825,435,0,0
-392,589,0,0,0,0,0,0,0,0,0,-1,832,435,0,0
-385,589,0,0,0,0,0,0,0,0,0,-1,839,435,0,0
-378,589,0,0,0,0,0,0,0,0,0,-1,846,435,0,0
-371,589,0,0,0,0,0,0,0,0,0,-1,853,435,0,0
-364,589,0,0,0,0,0,0,0,0,0,-1,860,435,0,0
-357,589,0,0,0,0,0,0,0,0,0,-1,867,435,0,0
-350,589,-0.799927,-20.664,0,0,0,0,0,0,0,-1,874,435,-0.799952,20.664
-343,589,5.15289,-30.4847,0,0,0,0,0,0,0,-1,881,435,5.15291,30.4847
-336,589,5.07684,-29.2368,0,0,0,0,0,0,0,-1,888,435,5.07687,29.2368
-329,589,4.9624,-28.1366,0,0,0,0,0,0,0,-1,895,435,4.96242,28.1366
-322,589,5.10156,-27.065,0,0,0,0,0,0,0,-1,902,435,5.10155,27.065
-315,589,4.22705,-27.9655,0,0,0,0,0,0,0,-1,909,435,4.22705,27.9655
-308,589,4.46698,-29.037,0,0,0,0,0,0,0,-1,916,435,4.46696,29.037
-301,589,3.89423,-29.2328,0,0,0,0,0,0,0,-1,923,435,3.8942,29.2328
-294,589,4.13232,-29.7456,0,0,0,0,0,0,0,-1,930,435,4.13232,29.7456
-287,589,4.1701,-30.3542,0,0,0,0,0,0,0,-1,937,435,4.17008,30.3542
-280,589,4.10474,-31.0963,0.00156538,0.00949831,-0.00753619,0.0140481,-0.00298443,-1.02764,0.0105025,0.0404314,944,435,4.10472,31.0963
-273,589,3.96674,-31.7484,0.0021028,0.0116909,-0.0076569,0.0159307,-0.00213704,-1.0651,0.0113998,0.0235578,951,435,3.96676,31.7484
-266,589,3.90051,-32.3992,0.00223619,0.0124663,-0.00743614,0.0163768,-0.00167428,-1.08667,0.0115166,0.023773,958,435,3.90052,32.3992
-259,589,3.85974,-33.0747,0.00200471,0.011747,-0.0069215,0.0153396,-0.0015879,-1.09202,0.0107947,0.0212214,965,435,3.85975,33.0747
-252,589,3.84973,-33.7657,0.00174239,0.0111569,-0.00623809,0.0142645,-0.00136522,-1.10862,0.00999585,0.0114902,972,435,3.84971,33.7657
-245,589,3.8418,-34.3716,0.00150405,0.0105671,-0.00559879,0.0132385,-0.00116728,-1.12562,0.00923935,0.0106112,979,435,3.84177,34.3716
-238,589,3.79425,-34.9547,0.00144898,0.00989798,-0.0050281,0.0122407,-0.000893725,-1.13478,0.00847409,0.0142832,986,435,3.79423,34.9548
-231,589,3.76392,-35.5247,0.00144058,0.008952,-0.00441901,0.0109957,-0.000603109,-1.13762,0.00753954,0.0149214,993,435,3.76389,35.5248
-224,589,3.72473,-36.0966,0.00142419,0.00777113,-0.00386083,0.00959535,-0.000400029,-1.12939,0.00653433,0.0147134,1000,435,3.72475,36.0965
-217,589,3.69818,-36.673,0.00135246,0.00633922,-0.00328824,0.00797252,-0.000280835,-1.10979,0.00541105,0.0153037,1007,435,3.69817,36.673
-210,589,3.6875,-37.2444,0.00129976,0.00474539,-0.00272856,0.00624952,-0.000204366,-1.06699,0.00423611,0.0154206,1014,435,3.68752,37.2444
-203,589,3.66992,-37.7928,0.00133287,0.0028953,-0.00207603,0.00433224,-0.000104063,-0.965355,0.00292346,0.0125393,1021,435,3.66992,37.7928
-196,589,3.62842,-38.338,0.00129188,0.00168124,-0.00157187,0.00307044,-9.73218e-05,-0.847011,0.00208016,0.0153182,1028,435,3.62844,38.338
-189,589,3.59937,-38.9105,0.00138457,7.29713e-05,-0.00112269,0.00202897,-0.000571424,-0.521063,0.00157799,0.0184224,1035,435,3.59939,38.9104
-182,589,3.61938,-39.3755,0.00159049,-0.00155985,-0.000496407,0.00166686,-0.00163622,-0.152646,0.00190706,0.0136931,1042,435,3.61932,39.3755
-175,589,3.61743,-39.8768,0.00174975,-0.00336598,0.000267509,0.0017637,-0.00337993,0.0521019,0.00301815,0.0178241,1049,435,3.6174,39.8768
-168,589,3.59448,-40.4386,0.00187629,-0.00509529,0.000981044,0.00201172,-0.00523072,0.137172,0.0043169,0.0148892,1056,435,3.59447,40.4386
-161,589,3.59338,-40.9385,0.00202893,-0.00644617,0.00164125,0.00233566,-0.00675291,0.18476,0.00544996,0.0137641,1063,435,3.59341,40.9385
-154,589,3.57849,-41.4088,0.0021429,-0.00786287,0.00237662,0.00267872,-0.00839869,0.221745,0.0066737,0.0135193,1070,435,3.5785,41.4088
-147,589,3.61316,-41.8791,0.00223214,-0.00923884,0.00316719,0.00304851,-0.0100552,0.252269,0.00791775,0.0135452,1077,435,3.6132,41.8791
-140,589,3.64172,-42.3336,0.00248251,-0.0105507,0.00397348,0.00359838,-0.0116666,0.273777,0.00921445,0.0155958,1084,435,3.64176,42.3337
-133,589,3.64026,-42.778,0.0027632,-0.0118309,0.00469249,0.00414177,-0.0132094,0.285743,0.0104638,0.0153421,1091,435,3.64029,42.7779
-126,589,3.64783,-43.223,0.00311373,-0.0128851,0.00514122,0.00462341,-0.0143947,0.285614,0.011453,0.0122368,1098,435,3.64778,43.223
-119,589,3.65881,-43.658,0.00359086,-0.0139743,0.00543902,0.00513866,-0.015522,0.277244,0.0124205,0.019198,1105,435,3.65887,43.658
-112,589,3.67065,-44.1263,0.00405154,-0.0147823,0.00556839,0.0055747,-0.0163055,0.267006,0.0131292,0.0251074,1112,435,3.67068,44.1262
-105,589,3.64307,-44.6067,0,0,0,0,0,0,0,-1,1119,435,3.64305,44.6067
-98,589,3.72192,-45.1169,0,0,0,0,0,0,0,-1,1126,435,3.72191,45.1169
-91,589,3.39563,-37.8231,0,0,0,0,0,0,0,-1,1133,435,3.39565,37.8231
-84,589,2.76538,-22.6013,0,0,0,0,0,0,0,-1,1140,435,2.76539,22.6014
-77,589,2.18152,-14.8023,0,0,0,0,0,0,0,-1,1147,435,2.18155,14.8023
-70,589,1.48267,-9.90961,0,0,0,0,0,0,0,-1,1154,435,1.48264,9.9096
-63,589,0.880127,-5.50586,0,0,0,0,0,0,0,-1,1161,435,0.880186,5.50587
-56,589,-2.78052,-7.28082,0,0,0,0,0,0,0,-1,1168,435,-2.78053,7.28082
-49,589,-0.525757,-2.76703,0,0,0,0,0,0,0,-1,1175,435,-0.525771,2.76702
-42,589,-2.7738,-2.87921,0,0,0,0,0,0,0,-1,1182,435,-2.77383,2.87922
-35,589,-2.55225,-3.27551,0,0,0,0,0,0,0,-1,1189,435,-2.55223,3.27552
-28,589,-0.0632324,-3.42938,0,0,0,0,0,0,0,-1,1196,435,-0.063241,3.42938
-21,589,8.30554,-45.0632,0,0,0,0,0,0,0,-1,1203,435,8.30554,45.0632
-14,589,8.29773,-45.8314,0,0,0,0,0,0,0,-1,1210,435,8.29771,45.8314
-7,589,7.33936,-47.1159,0,0,0,0,0,0,0,-1,1217,435,7.33931,47.1159
0,589,8.47156,-47.4201,0,0,0,0,0,0,0,-1,1224,435,8.47156,47.4201
7,589,8.45801,-47.6518,0,0,0,0,0,0,0,-1,1231,435,8.45804,47.6518
14,589,8.47034,-48.1633,0,0,0,0,0,0,0,-1,1238,435,8.47031,48.1633
21,589,8.50867,-48.9375,-0.0184891,0.00442321,-0.0181222,0.0144067,-0.0284726,-1.06726,0.0251964,0.0451592,1245,435,8.50872,48.9375
28,589,8.25854,-49.201,-0.0188629,0.00270352,-0.0202707,0.0148807,-0.0310401,-1.02984,0.027054,0.0461188,1252,435,8.25857,49.201
35,589,7.7594,-49.3558,0,0,0,0,0,0,0,-1,1259,435,7.75942,49.3558
42,589,7.40222,-49.5575,-0.0193569,-0.00158833,-0.0199255,0.0113438,-0.032289,-0.995108,0.026141,0.0490245,1266,435,7.40218,49.5575
49,589,6.93103,-49.4839,-0.0196542,-0.00412413,-0.0174475,0.0072083,-0.0309866,-0.994763,0.023433,0.0457511,1273,435,6.93098,49.4838
56,589,6.48303,-49.6766,0,0,0,0,0,0,0,-1,1280,435,6.48297,49.6766
63,589,6.13147,-49.9169,-0.0191936,-0.00896284,-0.00558245,-0.0065065,-0.0216499,-1.15628,0.0128268,0.044503,1287,435,6.13153,49.9169
70,589,5.97815,-50.2437,-0.0171642,-0.0111285,0.00208618,-0.0104776,-0.0178151,1.26837,0.0103387,0.0448272,1294,435,5.97812,50.2437
77,589,5.62073,-49.928,-0.0160196,-0.012117,0.0109716,-0.00292458,-0.0252121,0.873404,0.015923,0.044775,1301,435,5.62078,49.928
84,589,6.42517,-48.4282,-0.0149708,-0.00982508,0.0199762,0.00774323,-0.0325392,0.849444,0.0246821,0.0392249,1308,435,6.42522,48.4282
91,589,6.15588,-47.5677,-0.0138898,-0.0066823,0.0272042,0.0171558,-0.037728,0.85125,0.0324207,0.0449918,1315,435,6.15591,47.5678
98,589,5.93457,-46.7152,0,0,0,0,0,0,0,-1,1322,435,5.93459,46.7152
105,589,4.90039,-47.5382,0,0,0,0,0,0,0,-1,1329,435,4.90045,47.5382
112,589,5.53455,-45.8406,0,0,0,0,0,0,0,-1,1336,435,5.53454,45.8406
119,589,6.12915,-44.0669,0,0,0,0,0,0,0,-1,1343,435,6.12911,44.0669
126,589,7.72656,-42.7369,0,0,0,0,0,0,0,-1,1350,435,7.72654,42.7369
133,589,7.37378,-47.5049,0,0,0,0,0,0,0,-1,1357,435,7.37382,47.5049
140,589,7.1217,-47.4758,-0.00281623,0.0455554,0.0440571,0.0716288,-0.0288896,1.03642,0.0597573,0.0451947,1364,435,7.12168,47.4758
147,589,7.00049,-47.3314,-0.00233205,0.050566,0.0411192,0.0730081,-0.0247741,1.0712,0.0586994,0.0450588,1371,435,7.00044,47.3313
154,589,6.91089,-46.8997,-0.00192785,0.0531967,0.0380735,0.0726372,-0.0213684,1.0987,0.0569012,0.0443499,1378,435,6.91086,46.8997
161,589,6.97449,-46.3929,0,0,0,0,0,0,0,-1,1385,435,6.97446,46.3929
168,589,16.8457,-45.9775,0,0,0,0,0,0,0,-1,1392,435,16.8457,45.9775
175,589,8.66992,-7.65527,0,0,0,0,0,0,0,-1,1399,435,8.66994,7.65528
182,589,3.8136,-2.45389,0,0,0,0,0,0,0,-1,1406,435,3.81363,2.4539
189,589,3.69983,-3.68149,0,0,0,0,0,0,0,-1,1413,435,3.69987,3.68147
196,589,3.31055,-5.31677,0,0,0,0,0,0,0,-1,1420,435,3.31059,5.31678
203,589,2.72559,-8.84338,0,0,0,0,0,0,0,-1,1427,435,2.72558,8.84338
210,589,3.62378,-14.4032,0,0,0,0,0,0,0,-1,1434,435,3.62378,14.4032
217,589,4.65601,-22.3745,0,0,0,0,0,0,0,-1,1441,435,4.65607,22.3745
224,589,6.79028,-33.9412,0,0,0,0,0,0,0,-1,1448,435,6.79028,33.9412
231,589,8.6925,-44.3734,0,0,0,0,0,0,0,-1,1455,435,8.6925,44.3735
238,589,8.66907,-43.8515,0,0,0,0,0,0,0,-1,1462,435,8.66907,43.8515
245,589,8.69446,-43.3906,0,0,0,0,0,0,0,-1,1469,435,8.6944,43.3906
252,589,8.7207,-42.9064,0.00254645,-0.00120967,-0.00261471,0.00388768,-0.0025509,-0.473958,0.00374393,0.0186064,1476,435,8.72067,42.9064
259,589,8.72583,-42.4754,0.0022336,-0.00105996,-0.00237517,0.00347703,-0.00230339,-0.48228,0.00336018,0.00968718,1483,435,8.72582,42.4754
266,589,8.72852,-41.9916,0.00208251,-0.000904241,-0.00205984,0.00313336,-0.00195509,-0.471745,0.00296396,0.0101541,1490,435,8.7285,41.9916
273,589,8.74719,-41.5303,0.00205171,-0.000650063,-0.00162909,0.00281715,-0.0014155,-0.439244,0.00248798,0.0130905,1497,435,8.7472,41.5303
280,589,8.77075,-41.0435,0.00205169,-0.000315489,-0.00115726,0.00252344,-0.000787235,-0.387075,0.00199711,0.0136607,1504,435,8.7707,41.0435
287,589,8.77515,-40.5313,0.00205339,0.000146118,-0.00071053,0.00228899,-8.94789e-05,-0.320171,0.00155667,0.0117586,1511,435,8.77511,40.5313
294,589,8.77625,-39.9879,0.00198434,0.000712585,-0.000228696,0.00202421,0.00067271,-0.172625,0.00119038,0.00956513,1518,435,8.7763,39.988
301,589,8.76587,-39.4394,0.0018292,0.00127666,0.000238564,0.00191795,0.00118792,0.356148,0.0011178,0.00983238,1525,435,8.76588,39.4394
308,589,8.75439,-38.8905,0.00166511,0.00171492,0.00066305,0.00235353,0.0010265,0.804169,0.0013625,0.0100343,1532,435,8.75441,38.8905
315,589,8.73572,-38.3465,0.00142799,0.00236562,0.0010768,0.00307124,0.000722377,0.990712,0.00185421,0.0109048,1539,435,8.73575,38.3465
322,589,8.74646,-37.8078,0.00110619,0.00305052,0.0015003,0.00386609,0.000290622,1.07288,0.00248619,0.0120015,1546,435,8.74652,37.8078
329,589,8.7179,-37.247,0.00076021,0.00363509,0.00188446,0.00456776,-0.000172459,1.11122,0.00310425,0.0111547,1553,435,8.71791,37.247
336,589,8.69006,-36.685,0.000428072,0.00430584,0.00229495,0.0053713,-0.000637386,1.13615,0.00381114,0.0101607,1560,435,8.69005,36.685
343,589,8.6759,-36.1049,8.22161e-05,0.00502151,0.00265471,0.00617769,-0.00107397,1.16005,0.00451919,0.0110807,1567,435,8.67592,36.1049
350,589,8.6344,-35.5029,-0.000100756,0.00612587,0.00321386,0.00748711,-0.001462,1.17015,0.00554338,0.017186,1574,435,8.63435,35.5029
357,589,8.60889,-34.8933,-0.000253411,0.00718343,0.00381756,0.00879421,-0.00186419,1.17152,0.00657292,0.0135019,1581,435,8.6089,34.8933
364,589,8.58484,-34.2861,-0.000348093,0.00832476,0.00438382,0.0101546,-0.0021779,1.17538,0.00760042,0.010667,1588,435,8.5848,34.2861
371,589,8.54688,-33.6565,-0.000347759,0.00969883,0.0050461,0.0117957,-0.00244462,1.17697,0.00879268,0.0108887,1595,435,8.54686,33.6565
378,589,8.50269,-33.0203,-0.000214978,0.0112207,0.00556602,0.0134825,-0.00247675,1.18483,0.00991755,0.0121426,1602,435,8.50268,33.0203
385,589,8.44641,-32.3434,0.000335476,0.0127906,0.00575319,0.0150414,-0.00191527,1.19788,0.0107232,0.0209877,1609,435,8.44642,32.3434
392,589,8.40906,-31.5465,0.00155972,0.0142603,0.00568498,0.0164333,-0.000613199,1.20571,0.0111655,0.0287035,1616,435,8.40906,31.5465
399,589,8.44336,-30.7704,0.00382273,0.0161756,0.00650586,0.0189699,0.0010284,1.16511,0.0123181,0.0393884,1623,435,8.4434,30.7704
406,589,8.49194,-30.1046,0,0,0,0,0,0,0,-1,1630,435,8.49189,30.1046
413,589,5.61377,-19.0606,0,0,0,0,0,0,0,-1,1637,435,5.61372,19.0606
420,589,2.79724,-5.79956,0,0,0,0,0,0,0,-1,1644,435,2.7973,5.79955
427,589,7.78235,-28.2946,0,0,0,0,0,0,0,-1,1651,435,7.78236,28.2945
434,589,7.96643,-27.4913,0,0,0,0,0,0,0,-1,1658,435,7.96649,27.4913
441,589,8.43579,-26.9279,0,0,0,0,0,0,0,-1,1665,435,8.43582,26.9279
448,589,0.453735,-3.2868,0,0,0,0,0,0,0,-1,1672,435,0.453701,3.28681
455,589,0.664307,-3.46848,0,0,0,0,0,0,0,-1,1679,435,0.66425,3.46846
462,589,3.46716,-4.41891,0,0,0,0,0,0,0,-1,1686,435,3.4672,4.41891
469,589,0.0238037,-3.81497,0,0,0,0,0,0,0,-1,1693,435,0.0237965,3.81498
476,589,0,0,0,0,0,0,0,0,0,-1,1700,435,0,0
483,589,0,0,0,0,0,0,0,0,0,-1,1707,435,0,0
490,589,0,0,0,0,0,0,0,0,0,-1,1714,435,0,0
497,589,0,0,0,0,0,0,0,0,0,-1,1721,435,0,0
504,589,0,0,0,0,0,0,0,0,0,-1,1728,435,0,0
511,589,0,0,0,0,0,0,0,0,0,-1,1735,435,0,0
518,589,0,0,0,0,0,0,0,0,0,-1,1742,435,0,0
525,589,0,0,0,0,0,0,0,0,0,-1,1749,435,0,0
532,589,0,0,0,0,0,0,0,0,0,-1,1756,435,0,0
539,589,0,0,0,0,0,0,0,0,0,-1,1763,435,0,0
546,589,0,0,0,0,0,0,0,0,0,-1,1770,435,0,0
553,589,0,0,0,0,0,0,0,0,0,-1,1777,435,0,0
560,589,0,0,0,0,0,0,0,0,0,-1,1784,435,0,0
567,589,0,0,0,0,0,0,0,0,0,-1,1791,435,0,0
574,589,0,0,0,0,0,0,0,0,0,-1,1798,435,0,0
581,589,0,0,0,0,0,0,0,0,0,-1,1805,435,0,0
588,589,0,0,0,0,0,0,0,0,0,-1,1812,435,0,0
595,589,0,0,0,0,0,0,0,0,0,-1,1819,435,0,0
602,589,0,0,0,0,0,0,0,0,0,-1,1826,435,0,0
609,589,0,0,0,0,0,0,0,0,0,-1,1833,435,0,0
616,589,0,0,0,0,0,0,0,0,0,-1,1840,435,0,0
623,589,0,0,0,0,0,0,0,0,0,-1,1847,435,0,0
630,589,0,0,0,0,0,0,0,0,0,-1,1854,435,0,0
637,589,0,0,0,0,0,0,0,0,0,-1,1861,435,0,0
644,589,0,0,0,0,0,0,0,0,0,-1,1868,435,0,0
651,589,0,0,0,0,0,0,0,0,0,-1,1875,435,0,0
658,589,0,0,0,0,0,0,0,0,0,-1,1882,435,0,0
665,589,0,0,0,0,0,0,0,0,0,-1,1889,435,0,0
672,589,0,0,0,0,0,0,0,0,0,-1,1896,435,0,0
679,589,0,0,0,0,0,0,0,0,0,-1,1903,435,0,0
686,589,0,0,0,0,0,0,0,0,0,-1,1910,435,0,0
693,589,0,0,0,0,0,0,0,0,0,-1,1917,435,0,0
700,589,0,0,0,0,0,0,0,0,0,-1,1924,435,0,0
707,589,0,0,0,0,0,0,0,0,0,-1,1931,435,0,0
714,589,0,0,0,0,0,0,0,0,0,-1,1938,435,0,0
721,589,0,0,0,0,0,0,0,0,0,-1,1945,435,0,0
728,589,0,0,0,0,0,0,0,0,0,-1,1952,435,0,0
735,589,0,0,0,0,0,0,0,0,0,-1,1959,435,0,0
742,589,0,0,0,0,0,0,0,0,0,-1,1966,435,0,0
749,589,0,0,0,0,0,0,0,0,0,-1,1973,435,0,0
756,589,0,0,0,0,0,0,0,0,0,-1,1980,435,0,0
763,589,0,0,0,0,0,0,0,0,0,-1,1987,435,0,0
770,589,0,0,0,0,0,0,0,0,0,-1,1994,435,0,0
777,589,0,0,0,0,0,0,0,0,0,-1,2001,435,0,0
784,589,0,0,0,0,0,0,0,0,0,-1,2008,435,0,0
791,589,0,0,0,0,0,0,0,0,0,-1,2015,435,0,0
798,589,0,0,0,0,0,0,0,0,0,-1,2022,435,0,0
805,589,0,0,0,0,0,0,0,0,0,-1,2029,435,0,0
812,589,0,0,0,0,0,0,0,0,0,-1,2036,435,0,0
-700,582,0,0,0,0,0,0,0,0,0,-1,524,442,0,0
-693,582,0,0,0,0,0,0,0,0,0,-1,531,442,0,0
-686,582,0,0,0,0,0,0,0,0,0,-1,538,442,0,0
-679,582,0,0,0,0,0,0,0,0,0,-1,545,442,0,0
-672,582,0,0,0,0,0,0,0,0,0,-1,552,442,0,0
-665,582,0,0,0,0,0,0,0,0,0,-1,559,442,0,0
-658,582,0,0,0,0,0,0,0,0,0,-1,566,442,0,0
-651,582,0,0,0,0,0,0,0,0,0,-1,573,442,0,0
-644,582,0,0,0,0,0,0,0,0,0,-1,580,442,0,0
-637,582,0,0,0,0,0,0,0,0,0,-1,587,442,0,0
-630,582,0,0,0,0,0,0,0,0,0,-1,594,442,0,0
-623,582,0,0,0,0,0,0,0,0,0,-1,601,442,0,0
-616,582,0,0,0,0,0,0,0,0,0,-1,608,442,0,0
-609,582,0,0,0,0,0,0,0,0,0,-1,615,442,0,0
-602,582,0,0,0,0,0,0,0,0,0,-1,622,442,0,0
-595,582,0,0,0,0,0,0,0,0,0,-1,629,442,0,0
-588,582,0,0,0,0,0,0,0,0,0,-1,636,442,0,0
-581,582,0,0,0,0,0,0,0,0,0,-1,643,442,0,0
-574,582,0,0,0,0,0,0,0,0,0,-1,650,442,0,0
-567,582,0,0,0,0,0,0,0,0,0,-1,657,442,0,0
-560,582,0,0,0,0,0,0,0,0,0,-1,664,442,0,0
-553,582,0,0,0,0,0,0,0,0,0,-1,671,442,0,0
-546,582,0,0,0,0,0,0,0,0,0,-1,678,442,0,0
-539,582,0,0,0,0,0,0,0,0,0,-1,685,442,0,0
-532,582,0,0,0,0,0,0,0,0,0,-1,692,442,0,0
-525,582,0,0,0,0,0,0,0,0,0,-1,699,442,0,0
-518,582,0,0,0,0,0,0,0,0,0,-1,706,442,0,0
-511,582,0,0,0,0,0,0,0,0,0,-1,713,442,0,0
-504,582,0,0,0,0,0,0,0,0,0,-1,720,442,0,0
-497,582,0,0,0,0,0,0,0,0,0,-1,727,442,0,0
-490,582,0,0,0,0,0,0,0,0,0,-1,734,442,0,0
-483,582,0,0,0,0,0,0,0,0,0,-1,741,442,0,0
-476,582,0,0,0,0,0,0,0,0,0,-1,748,442,0,0
-469,582,0,0,0,0,0,0,0,0,0,-1,755,442,0,0
-462,582,0,0,0,0,0,0,0,0,0,-1,762,442,0,0
-455,582,0,0,0,0,0,0,0,0,0,-1,769,442,0,0
-448,582,0,0,0,0,0,0,0,0,0,-1,776,442,0,0
-441,582,0,0,0,0,0,0,0,0,0,-1,783,442,0,0
-434,582,0,0,0,0,0,0,0,0,0,-1,790,442,0,0
-427,582,0,0,0,0,0,0,0,0,0,-1,797,442,0,0
-420,582,0,0,0,0,0,0,0,0,0,-1,804,442,0,0
-413,582,0,0,0,0,0,0,0,0,0,-1,811,442,0,0
-406,582,0,0,0,0,0,0,0,0,0,-1,818,442,0,0
-399,582,0,0,0,0,0,0,0,0,0,-1,825,442,0,0
-392,582,0,0,0,0,0,0,0,0,0,-1,832,442,0,0
-385,582,0,0,0,0,0,0,0,0,0,-1,839,442,0,0
-378,582,0,0,0,0,0,0,0,0,0,-1,846,442,0,0
-371,582,0,0,0,0,0,0,0,0,0,-1,853,442,0,0
-364,582,0,0,0,0,0,0,0,0,0,-1,860,442,0,0
-357,582,-1.4903,-21.5295,0,0,0,0,0,0,0,-1,867,442,-1.49031,21.5295
-350,582,-0.880859,-19.7966,0,0,0,0,0,0,0,-1,874,442,-0.880885,19.7966
-343,582,0.939941,-19.1705,0,0,0,0,0,0,0,-1,881,442,0.939935,19.1705
-336,582,3.33929,-27.9479,0,0,0,0,0,0,0,-1,888,442,3.33928,27.9479
-329,582,3.63544,-26.4736,0,0,0,0,0,0,0,-1,895,442,3.63546,26.4736
-322,582,3.67145,-27.1796,0,0,0,0,0,0,0,-1,902,442,3.67143,27.1796
-315,582,3.90686,-27.6446,0,0,0,0,0,0,0,-1,909,442,3.90689,27.6446
-308,582,3.18213,-28.6458,0,0,0,0,0,0,0,-1,916,442,3.1821,28.6458
-301,582,3.39856,-29.2162,-0.000916947,-0.000428844,-0.00613672,0.00546867,-0.00681446,-0.805272,0.00710585,0.0457811,923,442,3.39856,29.2163
-294,582,3.51245,-29.8204,-0.000144238,0.00298729,-0.00609829,0.00771762,-0.00487456,-0.911061,0.00733161,0.0479394,930,442,3.51246,29.8204
-287,582,3.42352,-30.4384,9.94064e-05,0.00528425,-0.00594279,0.00917546,-0.0037918,-0.99107,0.00769872,0.0424611,937,442,3.42351,30.4384
-280,582,3.44299,-31.1102,0.000522001,0.00736945,-0.00608077,0.0109241,-0.00303264,-1.0418,0.00847642,0.0203605,944,442,3.44298,31.1102
-273,582,3.40955,-31.8168,0.00105317,0.00907916,-0.00611675,0.0123818,-0.00224949,-1.07571,0.00909755,0.0119466,951,442,3.40957,31.8168
-266,582,3.35785,-32.4924,0.00125453,0.00962301,-0.0058652,0.0126435,-0.00176598,-1.09523,0.00907513,0.0109237,958,442,3.35785,32.4924
-259,582,3.31525,-33.1298,0.00122917,0.00874313,-0.00534497,0.0115194,-0.00154712,-1.09173,0.00824385,0.00889469,965,442,3.31523,33.1298
-252,582,3.28839,-33.7589,0.00123877,0.0080144,-0.0046687,0.0103949,-0.00114178,-1.09926,0.00734022,0.00823383,972,442,3.28837,33.7589
-245,582,3.27661,-34.3462,0.00124151,0.0071793,-0.00405122,0.00923303,-0.000812219,-1.10161,0.00644318,0.0123351,979,442,3.27661,34.3462
-238,582,3.23517,-34.8864,0.0014197,0.00618873,-0.00350687,0.00804498,-0.000436544,-1.08397,0.0055146,0.0176266,986,442,3.23517,34.8864
-231,582,3.20764,-35.4722,0.00164806,0.0049201,-0.00291241,0.00662455,-5.63851e-05,-1.0413,0.00443528,0.0136035,993,442,3.20762,35.4722
-224,582,3.17163,-36.0763,0.00184865,0.00348638,-0.00237062,0.00517558,0.000159456,-0.951694,0.00339848,0.0112834,1000,442,3.17162,36.0763
-217,582,3.13678,-36.6536,0.00200035,0.00184885,-0.00184316,0.00376932,7.98799e-05,-0.76486,0.00248668,0.0137361,1007,442,3.13675,36.6536
-210,582,3.13507,-37.2132,0.00214387,8.83302e-05,-0.00135325,0.00281539,-0.000583195,-0.460628,0.00209852,0.0140775,1014,442,3.13509,37.2132
-203,582,3.13281,-37.7674,0.00235055,-0.00180838,-0.000799932,0.0024991,-0.00195694,-0.183616,0.00257903,0.0106804,1021,442,3.13283,37.7674
-196,582,3.09106,-38.3405,0.00249097,-0.00320405,-0.000343293,0.00251159,-0.00322466,-0.0599901,0.00332035,0.0166673,1028,442,3.09101,38.3405
-189,582,3.07043,-38.8877,0.00265029,-0.00477383,9.94344e-05,0.00265162,-0.00477516,0.0133902,0.00434589,0.0230034,1035,442,3.07043,38.8877
-182,582,3.10193,-39.4193,0.00285093,-0.00633009,0.000712849,0.00290595,-0.00638511,0.0770286,0.00548813,0.0161852,1042,442,3.10187,39.4193
-175,582,3.09192,-39.8759,0.00300992,-0.00799105,0.00145162,0.00319824,-0.00817937,0.129013,0.00677546,0.0150626,1049,442,3.09194,39.8759
-168,582,3.08911,-40.4012,0.00310606,-0.00971039,0.00221036,0.00347655,-0.0100809,0.166073,0.00813108,0.0129628,1056,442,3.08914,40.4013
-161,582,3.09326,-40.9023,0.00319407,-0.0110043,0.00294667,0.00378132,-0.0115915,0.196716,0.00924945,0.0143918,1063,442,3.0932,40.9023
-154,582,3.10791,-41.3587,0.00317583,-0.0123954,0.00380321,0.00405509,-0.0132747,0.227199,0.0104667,0.0130901,1070,442,3.1079,41.3587
-147,582,3.13147,-41.8431,0.00308468,-0.0138209,0.00477674,0.00434101,-0.0150772,0.257185,0.0117684,0.0124537,1077,442,3.13151,41.8431
-140,582,3.12292,-42.2857,0.00325042,-0.0151484,0.00580395,0.00492828,-0.0168263,0.281417,0.0131713,0.0138575,1084,442,3.12292,42.2857
-133,582,3.16992,-42.7223,0.00346828,-0.0165457,0.00676849,0.00554236,-0.0186197,0.297348,0.0146152,0.0171856,1091,442,3.16992,42.7223
-126,582,3.18738,-43.0833,0.0037579,-0.0178209,0.00738122,0.00604113,-0.0201042,0.299993,0.0158061,0.0160958,1098,442,3.18737,43.0833
-119,582,3.16895,-43.3969,0.00417805,-0.0193367,0.00780965,0.00653544,-0.0216941,0.293159,0.0170636,0.0214673,1105,442,3.16893,43.3969
-112,582,3.21423,-44.169,0,0,0,0,0,0,0,-1,1112,442,3.2142,44.169
-105,582,2.87219,-43.073,0,0,0,0,0,0,0,-1,1119,442,2.87217,43.073
-98,582,2.61938,-32.8673,0,0,0,0,0,0,0,-1,1126,442,2.61944,32.8673
-91,582,2.16492,-24.1119,0,0,0,0,0,0,0,-1,1133,442,2.16496,24.1119
-84,582,2.10278,-16.7533,0,0,0,0,0,0,0,-1,1140,442,2.10279,16.7533
-77,582,2.30212,-11.4907,0,0,0,0,0,0,0,-1,1147,442,2.30207,11.4907
-70,582,1.49255,-6.36548,0,0,0,0,0,0,0,-1,1154,442,1.49251,6.36549
-63,582,-4.62915,-4.0347,0,0,0,0,0,0,0,-1,1161,442,-4.6292,4.03471
-56,582,-5.81714,-5.24149,0,0,0,0,0,0,0,-1,1168,442,-5.81718,5.24149
-49,582,-3.88672,-10.1064,0,0,0,0,0,0,0,-1,1175,442,-3.88678,10.1064
-42,582,-0.948975,1.13968,0,0,0,0,0,0,0,-1,1182,442,-0.949003,-1.13969
-35,582,-2.58435,-3.86911,0,0,0,0,0,0,0,-1,1189,442,-2.58437,3.86912
-28,582,-0.825317,-3.45941,0,0,0,0,0,0,0,-1,1196,442,-0.825377,3.45942
-21,582,8.35901,-44.5225,0,0,0,0,0,0,0,-1,1203,442,8.35898,44.5225
-14,582,8.30896,-45.2775,0,0,0,0,0,0,0,-1,1210,442,8.309,45.2775
-7,582,8.33044,-45.9802,0,0,0,0,0,0,0,-1,1217,442,8.3305,45.9802
0,582,12.5631,-51.0351,0,0,0,0,0,0,0,-1,1224,442,12.5631,51.0351
7,582,8.91235,-48.187,0,0,0,0,0,0,0,-1,1231,442,8.91238,48.187
14,582,9.24475,-48.7063,0,0,0,0,0,0,0,-1,1238,442,9.24475,48.7063
21,582,9.00476,-48.8553,-0.0220058,0.00959774,-0.0218359,0.0207497,-0.0331578,-1.09861,0.0313971,0.0448143,1245,442,9.00477,48.8553
28,582,8.90662,-49.4488,-0.0221027,0.00719744,-0.0249543,0.0214843,-0.0363895,-1.05083,0.0337808,0.048389,1252,442,8.90657,49.4488
35,582,8.4646,-49.6165,0,0,0,0,0,0,0,-1,1259,442,8.46454,49.6165
42,582,8.05811,-49.8127,-0.0224497,0.000853313,-0.0254604,0.0172016,-0.038798,-0.99999,0.0331231,0.0495452,1266,442,8.05808,49.8128
49,582,7.39404,-49.6002,-0.0229099,-0.0027999,-0.0224638,0.0117566,-0.0374664,-0.99583,0.029683,0.0468699,1273,442,7.39403,49.6002
56,582,7.18799,-49.7063,0,0,0,0,0,0,0,-1,1280,442,7.18802,49.7063
63,582,6.96143,-49.8743,-0.0233073,-0.00878484,-0.00738893,-0.00568644,-0.0264057,-1.17374,0.0160477,0.0447124,1287,442,6.96141,49.8743
70,582,6.52429,-49.7938,-0.021548,-0.011143,0.00225531,-0.0106752,-0.0220158,1.36627,0.0127128,0.0432273,1294,442,6.52426,49.7938
77,582,6.33984,-49.0515,-0.020867,-0.0119467,0.0134271,-0.00225842,-0.0305553,0.945752,0.0196607,0.0419754,1301,442,6.33989,49.0515
84,582,6.271,-48.1212,-0.0203607,-0.00857843,0.0247148,0.0109377,-0.0398768,0.902397,0.030883,0.0449337,1308,442,6.27099,48.1212
91,582,6.00952,-47.0581,-0.0196072,-0.00429831,0.0339202,0.0228204,-0.0467259,0.896369,0.0409357,0.0496433,1315,442,6.00954,47.0581
98,582,5.75732,-46.0609,0,0,0,0,0,0,0,-1,1322,442,5.75727,46.0609
105,582,5.29321,-45.3214,0,0,0,0,0,0,0,-1,1329,442,5.29326,45.3214
112,582,5.49951,-45.1623,-0.0139405,0.0196513,0.0544827,0.0598682,-0.0541574,0.934916,0.0658603,0.0415427,1336,442,5.49956,45.1623
119,582,6.19385,-43.6266,-0.0114068,0.0292297,0.0578509,0.0702267,-0.0524038,0.954278,0.0710496,0.0433567,1343,442,6.19382,43.6267
126,582,7.10608,-42.3202,0,0,0,0,0,0,0,-1,1350,442,7.10614,42.3202
133,582,7.86145,-40.9957,0,0,0,0,0,0,0,-1,1357,442,7.8614,40.9957
140,582,6.50867,-47.7107,-0.00722433,0.0612486,0.055648,0.0923484,-0.0383242,1.06117,0.0775633,0.0459381,1364,442,6.50867,47.7107
147,582,6.21851,-47.9068,-0.00663217,0.0676847,0.0522969,0.0946801,-0.0336276,1.09428,0.076823,0.045429,1371,442,6.21852,47.9068
154,582,6.24316,-47.8036,-0.00605356,0.0714544,0.0488946,0.0950907,-0.0296899,1.1205,0.0752683,0.0468535,1378,442,6.24313,47.8036
161,582,6.37866,-47.6839,0,0,0,0,0,0,0,-1,1385,442,6.37862,47.6839
168,582,0.081665,-40.4535,0,0,0,0,0,0,0,-1,1392,442,0.0816215,40.4535
175,582,6.50549,-2.00424,0,0,0,0,0,0,0,-1,1399,442,6.50546,2.00425
182,582,5.18958,-2.18652,0,0,0,0,0,0,0,-1,1406,442,5.1896,2.18652
189,582,6.19751,-0.880951,0,0,0,0,0,0,0,-1,1413,442,6.19754,0.88096
196,582,4.87354,-2.22327,0,0,0,0,0,0,0,-1,1420,442,4.87348,2.22325
203,582,3.11401,-4.48257,0,0,0,0,0,0,0,-1,1427,442,3.11404,4.48259
210,582,2.93115,-11.0731,0,0,0,0,0,0,0,-1,1434,442,2.93113,11.0731
217,582,4.94092,-16.5476,0,0,0,0,0,0,0,-1,1441,442,4.94087,16.5476
224,582,5.21008,-20.9908,0,0,0,0,0,0,0,-1,1448,442,5.21006,20.9908
231,582,5.70032,-25.622,0,0,0,0,0,0,0,-1,1455,442,5.70026,25.6221
238,582,6.44189,-30.7028,0,0,0,0,0,0,0,-1,1462,442,6.44195,30.7028
245,582,9.46899,-43.7,0,0,0,0,0,0,0,-1,1469,442,9.46902,43.7001
252,582,9.31506,-43.0615,0.00353721,-0.00158907,-0.00336356,0.00520293,-0.00325479,-0.45982,0.00492605,0.0464986,1476,442,9.31505,43.0615
259,582,9.23254,-42.4792,0.00320345,-0.00187281,-0.00326338,0.00479954,-0.0034689,-0.454882,0.00479435,0.0229184,1483,442,9.2326,42.4792
266,582,9.24377,-41.9702,0.00300013,-0.00210634,-0.00307839,0.00444633,-0.00355254,-0.43919,0.00462775,0.0132145,1490,442,9.24382,41.9701
273,582,9.2627,-41.4963,0.00290476,-0.00222466,-0.00273861,0.00409208,-0.00341198,-0.409089,0.0043384,0.0119727,1497,442,9.26267,41.4963
280,582,9.2804,-41.0157,0.0028163,-0.00219146,-0.002377,0.00376489,-0.00314005,-0.379704,0.00399201,0.0117802,1504,442,9.28037,41.0157
287,582,9.29578,-40.5051,0.00269372,-0.00195546,-0.00207088,0.00348237,-0.00274411,-0.363871,0.00360327,0.0109888,1511,442,9.29579,40.5051
294,582,9.31909,-39.971,0.00253606,-0.00150362,-0.00166668,0.00313492,-0.00210248,-0.344946,0.00304334,0.00903492,1518,442,9.31909,39.971
301,582,9.31262,-39.4242,0.00232345,-0.000988416,-0.00123778,0.00273493,-0.0013999,-0.320945,0.00242837,0.00961555,1525,442,9.31266,39.4242
308,582,9.30359,-38.8823,0.00209662,-0.000643336,-0.00086416,0.0023464,-0.000893115,-0.281374,0.00193205,0.0120372,1532,442,9.30358,38.8823
315,582,9.29126,-38.3482,0.00180891,-9.28915e-06,-0.000470607,0.0019235,-0.000123875,-0.238839,0.00132556,0.0136506,1539,442,9.29121,38.3482
322,582,9.29236,-37.7946,0.00147103,0.000700431,-2.1029e-05,0.0014716,0.000699857,-0.0272622,0.000849967,0.0110109,1546,442,9.2924,37.7946
329,582,9.271,-37.2402,0.00111279,0.00132896,0.000392307,0.0016278,0.000813954,0.919818,0.000939812,0.0108955,1553,442,9.271,37.2402
336,582,9.25732,-36.6715,0.000791499,0.00205336,0.000849953,0.00248096,0.000363896,1.10468,0.00154701,0.0113631,1560,442,9.25736,36.6715
343,582,9.24365,-36.0504,0.000487575,0.00285267,0.0013024,0.00342929,-8.90431e-05,1.154,0.00231644,0.0130503,1567,442,9.24365,36.0504
350,582,9.20581,-35.4597,0.000257946,0.00387298,0.00183615,0.004642,-0.000511074,1.17417,0.00327833,0.0158363,1574,442,9.20579,35.4597
357,582,9.18127,-34.863,9.30641e-05,0.00486215,0.00241347,0.00587038,-0.000915165,1.17508,0.0042516,0.01324,1581,442,9.18128,34.863
364,582,9.14832,-34.2611,-1.45411e-05,0.00589816,0.00299665,0.00715131,-0.0012677,1.17471,0.00524146,0.0108508,1588,442,9.14838,34.2611
371,582,9.12402,-33.6579,-5.85959e-05,0.00708537,0.00363967,0.00861302,-0.00158624,1.1734,0.00633728,0.0153989,1595,442,9.12403,33.6579
378,582,9.10022,-33.044,-1.3685e-06,0.00838355,0.00413202,0.0100775,-0.00169536,1.18173,0.00734896,0.0157755,1602,442,9.10027,33.044
385,582,9.06042,-32.399,0.000411406,0.00968228,0.00436282,0.0114125,-0.0013188,1.19324,0.00808387,0.0113053,1609,442,9.06048,32.399
392,582,9.0083,-31.7497,0.00135912,0.0109054,0.00441314,0.0126329,-0.000368407,1.19768,0.00854739,0.0105136,1616,442,9.0083,31.7497
399,582,8.95911,-31.1277,0.00319935,0.0124225,0.00521505,0.0147725,0.000849356,1.14743,0.00957775,0.0197444,1623,442,8.95913,31.1277
406,582,8.95618,-30.3722,0.00583044,0.0150901,0.00699711,0.0188505,0.00207012,1.07767,0.0119369,0.0378582,1630,442,8.95622,30.3721
413,582,8.95972,-29.5969,0,0,0,0,0,0,0,-1,1637,442,8.95968,29.5969
420,582,8.76318,-29.0612,0,0,0,0,0,0,0,-1,1644,442,8.76315,29.0612
427,582,8.6167,-28.2687,0.0151191,0.0199761,0.0107507,0.0285692,0.00652598,0.89648,0.0172864,0.0490554,1651,442,8.61674,28.2687
434,582,8.64026,-27.6348,0.0195432,0.0221705,0.012966,0.0338892,0.0078245,0.835885,0.0204889,0.0419942,1658,442,8.64029,27.6348
441,582,8.93738,-27.1436,0.0244828,0.0242334,0.0157081,0.0400667,0.00864953,0.781429,0.0243456,0.0457781,1665,442,8.93734,27.1436
448,582,9.1333,-26.7643,0,0,0,0,0,0,0,-1,1672,442,9.13334,26.7643
455,582,6.4585,-19.4734,0,0,0,0,0,0,0,-1,1679,442,6.45854,19.4734
462,582,5.35022,-19.2616,0,0,0,0,0,0,0,-1,1686,442,5.35025,19.2616
469,582,6.28601,-21.5695,0,0,0,0,0,0,0,-1,1693,442,6.28597,21.5695
476,582,1.93579,-8.53891,0,0,0,0,0,0,0,-1,1700,442,1.93579,8.53892
483,582,0,0,0,0,0,0,0,0,0,-1,1707,442,0,0
490,582,0,0,0,0,0,0,0,0,0,-1,1714,442,0,0
497,582,0,0,0,0,0,0,0,0,0,-1,1721,442,0,0
504,582,0,0,0,0,0,0,0,0,0,-1,1728,442,0,0
511,582,0,0,0,0,0,0,0,0,0,-1,1735,442,0,0
518,582,0,0,0,0,0,0,0,0,0,-1,1742,442,0,0
525,582,0,0,0,0,0,0,0,0,0,-1,1749,442,0,0
532,582,0,0,0,0,0,0,0,0,0,-1,1756,442,0,0
539,582,0,0,0,0,0,0,0,0,0,-1,1763,442,0,0
546,582,0,0,0,0,0,0,0,0,0,-1,1770,442,0,0
553,582,0,0,0,0,0,0,0,0,0,-1,1777,442,0,0
560,582,0,0,0,0,0,0,0,0,0,-1,1784,442,0,0
567,582,0,0,0,0,0,0,0,0,0,-1,1791,442,0,0
574,582,0,0,0,0,0,0,0,0,0,-1,1798,442,0,0
581,582,0,0,0,0,0,0,0,0,0,-1,1805,442,0,0
588,582,0,0,0,0,0,0,0,0,0,-1,1812,442,0,0
595,582,0,0,0,0,0,0,0,0,0,-1,1819,442,0,0
602,582,0,0,0,0,0,0,0,0,0,-1,1826,442,0,0
609,582,0,0,0,0,0,0,0,0,0,-1,1833,442,0,0
616,582,0,0,0,0,0,0,0,0,0,-1,1840,442,0,0
623,582,0,0,0,0,0,0,0,0,0,-1,1847,442,0,0
630,582,0,0,0,0,0,0,0,0,0,-1,1854,442,0,0
637,582,0,0,0,0,0,0,0,0,0,-1,1861,442,0,0
644,582,0,0,0,0,0,0,0,0,0,-1,1868,442,0,0
651,582,0,0,0,0,0,0,0,0,0,-1,1875,442,0,0
658,582,0,0,0,0,0,0,0,0,0,-1,1882,442,0,0
665,582,0,0,0,0,0,0,0,0,0,-1,1889,442,0,0
672,582,0,0,0,0,0,0,0,0,0,-1,1896,442,0,0
679,582,0,0,0,0,0,0,0,0,0,-1,1903,442,0,0
686,582,0,0,0,0,0,0,0,0,0,-1,1910,442,0,0
693,582,0,0,0,0,0,0,0,0,0,-1,1917,442,0,0
700,582,0,0,0,0,0,0,0,0,0,-1,1924,442,0,0
707,582,0,0,0,0,0,0,0,0,0,-1,1931,442,0,0
714,582,0,0,0,0,0,0,0,0,0,-1,1938,442,0,0
721,582,0,0,0,0,0,0,0,0,0,-1,1945,442,0,0
728,582,0,0,0,0,0,0,0,0,0,-1,1952,442,0,0
735,582,0,0,0,0,0,0,0,0,0,-1,1959,442,0,0
742,582,0,0,0,0,0,0,0,0,0,-1,1966,442,0,0
749,582,0,0,0,0,0,0,0,0,0,-1,1973,442,0,0
756,582,0,0,0,0,0,0,0,0,0,-1,1980,442,0,0
763,582,0,0,0,0,0,0,0,0,0,-1,1987,442,0,0
770,582,0,0,0,0,0,0,0,0,0,-1,1994,442,0,0
777,582,0,0,0,0,0,0,0,0,0,-1,2001,442,0,0
784,582,0,0,0,0,0,0,0,0,0,-1,2008,442,0,0
791,582,0,0,0,0,0,0,0,0,0,-1,2015,442,0,0
798,582,0,0,0,0,0,0,0,0,0,-1,2022,442,0,0
805,582,0,0,0,0,0,0,0,0,0,-1,2029,442,0,0
812,582,0,0,0,0,0,0,0,0,0,-1,2036,442,0,0
-700,575,0,0,0,0,0,0,0,0,0,-1,524,449,0,0
-693,575,0,0,0,0,0,0,0,0,0,-1,531,449,0,0
-686,575,0,0,0,0,0,0,0,0,0,-1,538,449,0,0
-679,575,0,0,0,0,0,0,0,0,0,-1,545,449,0,0
-672,575,0,0,0,0,0,0,0,0,0,-1,552,449,0,0
-665,575,0,0,0,0,0,0,0,0,0,-1,559,449,0,0
-658,575,0,0,0,0,0,0,0,0,0,-1,566,449,0,0
-651,575,0,0,0,0,0,0,0,0,0,-1,573,449,0,0
-644,575,0,0,0,0,0,0,0,0,0,-1,580,449,0,0
-637,575,0,0,0,0,0,0,0,0,0,-1,587,449,0,0
-630,575,0,0,0,0,0,0,0,0,0,-1,594,449,0,0
-623,575,0,0,0,0,0,0,0,0,0,-1,601,449,0,0
-616,575,0,0,0,0,0,0,0,0,0,-1,608,449,0,0
-609,575,0,0,0,0,0,0,0,0,0,-1,615,449,0,0
-602,575,0,0,0,0,0,0,0,0,0,-1,622,449,0,0
-595,575,0,0,0,0,0,0,0,0,0,-1,629,449,0,0
-588,575,0,0,0,0,0,0,0,0,0,-1,636,449,0,0
-581,575,0,0,0,0,0,0,0,0,0,-1,643,449,0,0
-574,575,0,0,0,0,0,0,0,0,0,-1,650,449,0,0
-567,575,0,0,0,0,0,0,0,0,0,-1,657,449,0,0
-560,575,0,0,0,0,0,0,0,0,0,-1,664,449,0,0
-553,575,0,0,0,0,0,0,0,0,0,-1,671,449,0,0
-546,575,0,0,0,0,0,0,0,0,0,-1,678,449,0,0
-539,575,0,0,0,0,0,0,0,0,0,-1,685,449,0,0
-532,575,0,0,0,0,0,0,0,0,0,-1,692,449,0,0
-525,575,0,0,0,0,0,0,0,0,0,-1,699,449,0,0
-518,575,0,0,0,0,0,0,0,0,0,-1,706,449,0,0
-511,575,0,0,0,0,0,0,0,0,0,-1,713,449,0,0
-504,575,0,0,0,0,0,0,0,0,0,-1,720,449,0,0
-497,575,0,0,0,0,0,0,0,0,0,-1,727,449,0,0
-490,575,0,0,0,0,0,0,0,0,0,-1,734,449,0,0
-483,575,0,0,0,0,0,0,0,0,0,-1,741,449,0,0
-476,575,0,0,0,0,0,0,0,0,0,-1,748,449,0,0
-469,575,0,0,0,0,0,0,0,0,0,-1,755,449,0,0
-462,575,0,0,0,0,0,0,0,0,0,-1,762,449,0,0
-455,575,0,0,0,0,0,0,0,0,0,-1,769,449,0,0
-448,575,0,0,0,0,0,0,0,0,0,-1,776,449,0,0
-441,575,0,0,0,0,0,0,0,0,0,-1,783,449,0,0
-434,575,0,0,0,0,0,0,0,0,0,-1,790,449,0,0
-427,575,0,0,0,0,0,0,0,0,0,-1,797,449,0,0
-420,575,0,0,0,0,0,0,0,0,0,-1,804,449,0,0
-413,575,0,0,0,0,0,0,0,0,0,-1,811,449,0,0
-406,575,0,0,0,0,0,0,0,0,0,-1,818,449,0,0
-399,575,0,0,0,0,0,0,0,0,0,-1,825,449,0,0
-392,575,0,0,0,0,0,0,0,0,0,-1,832,449,0,0
-385,575,0,0,0,0,0,0,0,0,0,-1,839,449,0,0
-378,575,0,0,0,0,0,0,0,0,0,-1,846,449,0,0
-371,575,0.56897,-3.52304,0,0,0,0,0,0,0,-1,853,449,0.568955,3.52306
-364,575,1.49805,-4.67191,0,0,0,0,0,0,0,-1,860,449,1.49803,4.6719
-357,575,3.15521,-8.29892,0,0,0,0,0,0,0,-1,867,449,3.15521,8.29891
-350,575,-0.825928,-18.5347,0,0,0,0,0,0,0,-1,874,449,-0.825948,18.5347
-343,575,0.465393,-16.3569,0,0,0,0,0,0,0,-1,881,449,0.465397,16.3569
-336,575,3.1994,-17.5725,0,0,0,0,0,0,0,-1,888,449,3.19941,17.5725
-329,575,3.09766,-28.1884,0,0,0,0,0,0,0,-1,895,449,3.09765,28.1884
-322,575,2.59265,-28.7666,0,0,0,0,0,0,0,-1,902,449,2.59266,28.7666
-315,575,3.32281,-27.5567,0,0,0,0,0,0,0,-1,909,449,3.32284,27.5567
-308,575,2.83582,-28.7101,0,0,0,0,0,0,0,-1,916,449,2.83579,28.7101
-301,575,2.9505,-29.2363,-0.00135996,-1.06015e-05,-0.00493706,0.00429766,-0.00566822,-0.853305,0.00577191,0.0338721,923,449,2.95047,29.2363
-294,575,2.92944,-29.8573,-0.000701812,0.0023344,-0.00487042,0.00591783,-0.00428524,-0.936475,0.00591583,0.0263205,930,449,2.92941,29.8573
-287,575,2.89215,-30.5447,-0.000392098,0.0039701,-0.00467933,0.00695169,-0.00337369,-1.00348,0.00607949,0.0202923,937,449,2.89217,30.5447
-280,575,2.86121,-31.1853,4.88067e-05,0.00541574,-0.00470839,0.00815168,-0.00268713,-1.04441,0.00651751,0.0152717,944,449,2.86118,31.1853
-273,575,2.8277,-31.8494,0.00056901,0.00671849,-0.00467367,0.00923815,-0.00195064,-1.07635,0.00690149,0.0118024,951,449,2.82769,31.8494
-266,575,2.79706,-32.4907,0.000808245,0.00703407,-0.00438614,0.00929967,-0.00145736,-1.09401,0.00673831,0.0129141,958,449,2.79705,32.4907
-259,575,2.75543,-33.113,0.000925579,0.00602615,-0.00385148,0.00809516,-0.00114343,-1.07784,0.00581551,0.0129897,965,449,2.75542,33.113
-252,575,2.68939,-33.7089,0.00115234,0.00515806,-0.00318598,0.00691842,-0.000608034,-1.06601,0.00482774,0.0119141,972,449,2.68942,33.7089
-245,575,2.63611,-34.2921,0.00134742,0.0040619,-0.00259195,0.00563046,-0.000221137,-1.02659,0.00382948,0.015989,979,449,2.63613,34.2921
-238,575,2.625,-34.8705,0.00171134,0.00274955,-0.00207752,0.00437184,8.90493e-05,-0.907824,0.00288533,0.0163884,986,449,2.62503,34.8705
-231,575,2.62067,-35.4493,0.00214428,0.00113914,-0.00150349,0.00322697,5.64402e-05,-0.624102,0.00213275,0.0132595,993,449,2.62069,35.4493
-224,575,2.59192,-36.0408,0.00254555,-0.000600289,-0.000981185,0.00282649,-0.000881231,-0.278867,0.00223671,0.0129903,1000,449,2.5919,36.0408
-217,575,2.59119,-36.6278,0.00290989,-0.00251492,-0.000497057,0.00295506,-0.00256009,-0.0906211,0.00318689,0.0114012,1007,449,2.59121,36.6278
-210,575,2.61017,-37.1967,0.00324146,-0.00451729,-7.72066e-05,0.00324223,-0.00451806,-0.0099496,0.00450054,0.00956801,1014,449,2.61014,37.1967
-203,575,2.59399,-37.7493,0.00361508,-0.00654064,0.000377022,0.00362906,-0.00655462,0.0370561,0.00595987,0.0126348,1021,449,2.59397,37.7493
-196,575,2.55847,-38.298,0.00392159,-0.00817427,0.000778247,0.00397146,-0.00822414,0.0639883,0.00718241,0.0178505,1028,449,2.55843,38.298
-189,575,2.52734,-38.8488,0.00413561,-0.00977232,0.00121324,0.00424065,-0.00987737,0.0863645,0.00836479,0.018666,1035,449,2.5274,38.8489
-182,575,2.53857,-39.3595,0.00431759,-0.0113172,0.00181722,0.00452603,-0.0115256,0.114201,0.00955663,0.0153682,1042,449,2.53862,39.3595
-175,575,2.56982,-39.8518,0.00444973,-0.0129153,0.00254137,0.00481402,-0.0132796,0.142373,0.0108208,0.0128768,1049,449,2.56979,39.8518
-168,575,2.55615,-40.3624,0.00448603,-0.0147004,0.0033524,0.00505492,-0.0152693,0.168095,0.0122182,0.0123856,1056,449,2.55618,40.3624
-161,575,2.56897,-40.8683,0.00447825,-0.0160132,0.00417651,0.00529679,-0.0168317,0.193535,0.013342,0.0168912,1063,449,2.56895,40.8683
-154,575,2.59729,-41.3405,0.00425636,-0.0174789,0.00518184,0.00542854,-0.018651,0.222464,0.0145843,0.0170869,1070,449,2.59728,41.3405
-147,575,2.63184,-41.7734,0.00385147,-0.019102,0.00642521,0.00552763,-0.0207782,0.255185,0.0160159,0.0146846,1077,449,2.63181,41.7734
-140,575,2.60632,-42.1301,0.00386751,-0.0205452,0.00780202,0.00614793,-0.0228256,0.284364,0.0176275,0.0210947,1084,449,2.60631,42.1301
-133,575,2.5686,-42.3955,0.00396989,-0.0222805,0.00919335,0.00686932,-0.0251799,0.305509,0.0194843,0.0332155,1091,449,2.56863,42.3955
-126,575,2.62341,-42.5182,0.00414608,-0.024108,0.0101357,0.00740598,-0.0273679,0.311177,0.0211507,0.0387865,1098,449,2.6234,42.5182
-119,575,2.62524,-42.8607,0.00446665,-0.0265484,0.010857,0.00788949,-0.0299713,0.305401,0.0230649,0.0492495,1105,449,2.6253,42.8607
-112,575,2.70337,-43.3701,0,0,0,0,0,0,0,-1,1112,449,2.70333,43.3701
-105,575,2.18347,-36.5414,0,0,0,0,0,0,0,-1,1119,449,2.18351,36.5414
-98,575,1.521,-25.6961,0,0,0,0,0,0,0,-1,1126,449,1.52105,25.6961
-91,575,1.60803,-16.4247,0,0,0,0,0,0,0,-1,1133,449,1.60802,16.4247
-84,575,1.16553,-11.9056,0,0,0,0,0,0,0,-1,1140,449,1.16558,11.9056
-77,575,0.205078,-11.2584,0,0,0,0,0,0,0,-1,1147,449,0.205117,11.2584
-70,575,-4.2467,-1.78738,0,0,0,0,0,0,0,-1,1154,449,-4.24674,1.78739
-63,575,-4.52209,-3.48798,0,0,0,0,0,0,0,-1,1161,449,-4.5221,3.48796
-56,575,-5.5968,-5.4928,0,0,0,0,0,0,0,-1,1168,449,-5.59683,5.49281
-49,575,-5.96863,-7.17612,0,0,0,0,0,0,0,-1,1175,449,-5.96868,7.1761
-42,575,-0.830322,0.773499,0,0,0,0,0,0,0,-1,1182,449,-0.83038,-0.77351
-35,575,-0.62085,0.205139,0,0,0,0,0,0,0,-1,1189,449,-0.620855,-0.205126
-28,575,0.49292,-3.87988,0,0,0,0,0,0,0,-1,1196,449,0.492941,3.87989
-21,575,6.64917,-45.0462,0,0,0,0,0,0,0,-1,1203,449,6.64919,45.0462
-14,575,8.49097,-44.6641,0,0,0,0,0,0,0,-1,1210,449,8.49095,44.6641
-7,575,13.1418,-52.3472,0,0,0,0,0,0,0,-1,1217,449,13.1418,52.3472
0,575,12.3873,-51.4562,0,0,0,0,0,0,0,-1,1224,449,12.3873,51.4562
7,575,11.402,-50.3635,0,0,0,0,0,0,0,-1,1231,449,11.402,50.3635
14,575,10.5946,-49.4905,-0.0254345,0.018423,-0.0194698,0.025819,-0.0328306,-1.20776,0.0339419,0.0479643,1238,449,10.5946,49.4906
21,575,9.59509,-48.6089,-0.0242896,0.0165192,-0.0254259,0.0287156,-0.0364861,-1.12353,0.0377332,0.0433331,1245,449,9.59506,48.6089
28,575,9.56445,-49.7202,0,0,0,0,0,0,0,-1,1252,449,9.56445,49.7202
35,575,8.14429,-49.4391,-0.0239361,0.00896708,-0.0325546,0.0289909,-0.04396,-1.01936,0.0424128,0.0437501,1259,449,8.14431,49.4391
42,575,7.96167,-49.6329,-0.0241742,0.00425831,-0.0321124,0.0251606,-0.0450765,-0.993783,0.0410912,0.0454812,1266,449,7.96162,49.6329
49,575,7.77222,-49.7654,-0.0249345,-0.00075325,-0.0286453,0.0182485,-0.0439363,-0.985096,0.0369094,0.046072,1273,449,7.77224,49.7654
56,575,7.56604,-49.8965,0,0,0,0,0,0,0,-1,1280,449,7.56606,49.8965
63,575,7.40271,-49.9053,0,0,0,0,0,0,0,-1,1287,449,7.40266,49.9053
70,575,6.82739,-49.1671,-0.0259849,-0.00999688,0.00180971,-0.0097946,-0.0261872,1.45948,0.0152783,0.0418247,1294,449,6.82734,49.1671
77,575,6.42212,-48.785,-0.0262578,-0.010371,0.0154738,-0.000920868,-0.0357079,1.02253,0.0235044,0.0444896,1301,449,6.42209,48.785
84,575,5.98914,-47.9503,-0.0267985,-0.00578615,0.0292712,0.0148072,-0.0473919,0.9577,0.0375173,0.0463772,1308,449,5.98913,47.9503
91,575,5.63049,-46.946,-0.0267568,-0.000215094,0.040885,0.0294989,-0.0564709,0.942329,0.0504424,0.046773,1315,449,5.63049,46.946
98,575,5.21838,-46.1757,-0.0249414,0.00818742,0.0504607,0.0447329,-0.0614868,0.943989,0.0615797,0.0430254,1322,449,5.21843,46.1757
105,575,5.04065,-45.1775,-0.0233232,0.0181562,0.0590294,0.0599833,-0.0651503,0.954334,0.0722665,0.0425261,1329,449,5.04068,45.1775
112,575,5.40796,-44.257,-0.0215191,0.0290897,0.0666634,0.0750898,-0.0675191,0.96679,0.0823739,0.0451512,1336,449,5.40795,44.257
119,575,6.13879,-43.186,-0.0186041,0.041113,0.0706734,0.0879764,-0.0654676,0.985268,0.0889081,0.0449466,1343,449,6.13885,43.186
126,575,6.74146,-42.1404,0,0,0,0,0,0,0,-1,1350,449,6.74151,42.1404
133,575,6.36438,-47.344,-0.0146251,0.0684699,0.0706133,0.108852,-0.055007,1.05131,0.0962915,0.0447418,1357,449,6.36437,47.344
140,575,5.73438,-48.0461,-0.0133014,0.0801734,0.0683991,0.116278,-0.0494062,1.08511,0.0982207,0.0454016,1364,449,5.73438,48.0461
147,575,5.44897,-48.5187,-0.0125226,0.0882699,0.0645185,0.119742,-0.0439947,1.11696,0.0978473,0.0461103,1371,449,5.44893,48.5187
154,575,5.67981,-48.6322,-0.0116769,0.0933117,0.0607109,0.121076,-0.0394413,1.14187,0.0965872,0.0447591,1378,449,5.67977,48.6322
161,575,5.82617,-48.8577,0,0,0,0,0,0,0,-1,1385,449,5.82616,48.8577
168,575,7.5509,-35.3165,0,0,0,0,0,0,0,-1,1392,449,7.5509,35.3165
175,575,4.32617,1.93634,0,0,0,0,0,0,0,-1,1399,449,4.32612,-1.93634
182,575,6.3147,-2.88345,0,0,0,0,0,0,0,-1,1406,449,6.31466,2.88346
189,575,6.10449,-1.30817,0,0,0,0,0,0,0,-1,1413,449,6.10455,1.30817
196,575,5.79895,0.818359,0,0,0,0,0,0,0,-1,1420,449,5.79895,-0.81837
203,575,3.29724,-1.46378,0,0,0,0,0,0,0,-1,1427,449,3.29722,1.46377
210,575,2.32739,-7.74503,0,0,0,0,0,0,0,-1,1434,449,2.32741,7.74502
217,575,3.33618,-11.5521,0,0,0,0,0,0,0,-1,1441,449,3.3362,11.5521
224,575,5.51709,-16.3903,0,0,0,0,0,0,0,-1,1448,449,5.51713,16.3903
231,575,5.48572,-20.4595,0,0,0,0,0,0,0,-1,1455,449,5.48571,20.4595
238,575,5.33484,-22.3575,0,0,0,0,0,0,0,-1,1462,449,5.33478,22.3575
245,575,5.59741,-23.513,0,0,0,0,0,0,0,-1,1469,449,5.5974,23.513
252,575,9.90417,-43.4436,0,0,0,0,0,0,0,-1,1476,449,9.90415,43.4436
259,575,9.81238,-42.2998,0,0,0,0,0,0,0,-1,1483,449,9.81242,42.2998
266,575,9.79822,-41.903,0.00364791,-0.00258575,-0.00412852,0.00570402,-0.00464186,-0.462067,0.00598368,0.0388026,1490,449,9.79821,41.903
273,575,9.79492,-41.5067,0.00368345,-0.0031694,-0.00378294,0.00536105,-0.00484699,-0.417404,0.0058961,0.0279128,1497,449,9.79491,41.5067
280,575,9.84424,-40.93,0.00366357,-0.00351423,-0.00345899,0.00505913,-0.00490979,-0.383484,0.00575577,0.0229771,1504,449,9.84422,40.93
287,575,9.78894,-40.5172,0.00350983,-0.00354149,-0.00325622,0.00478346,-0.00481512,-0.372845,0.00554176,0.0186133,1511,449,9.78896,40.5172
294,575,9.83069,-39.9889,0.00332645,-0.00322993,-0.00289539,0.00442202,-0.0043255,-0.361736,0.00505049,0.0119842,1518,449,9.83064,39.9889
301,575,9.85657,-39.428,0.00308448,-0.00280002,-0.00248861,0.0039958,-0.00371134,-0.351031,0.00445073,0.010095,1525,449,9.85655,39.428
308,575,9.86487,-38.8723,0.00277623,-0.00261694,-0.00218159,0.00354821,-0.00338891,-0.340108,0.0040055,0.0108513,1532,449,9.86488,38.8722
315,575,9.84875,-38.3323,0.00240395,-0.00205176,-0.00182599,0.00305664,-0.00270446,-0.343294,0.00332825,0.0114976,1539,449,9.8488,38.3323
322,575,9.85535,-37.7728,0.00200919,-0.00137315,-0.00137232,0.00249594,-0.0018599,-0.340847,0.00252376,0.0103061,1546,449,9.85537,37.7728
329,575,9.84399,-37.2302,0.00158651,-0.000738109,-0.000961946,0.00193294,-0.00108454,-0.345678,0.00176495,0.010578,1553,449,9.84399,37.2302
336,575,9.83362,-36.6463,0.001203,1.03343e-05,-0.000505635,0.00138851,-0.000175176,-0.351638,0.000989251,0.0124124,1560,449,9.83359,36.6463
343,575,9.82703,-36.023,0.000837643,0.000835893,-3.56415e-05,0.00087242,0.000801116,-0.773126,0.000559362,0.0130442,1567,449,9.82703,36.023
350,575,9.79321,-35.4138,0.000544146,0.00177389,0.000477151,0.00193731,0.000380724,1.24082,0.00118519,0.0115685,1574,449,9.79323,35.4138
357,575,9.75842,-34.8274,0.000362024,0.00271191,0.00103826,0.00310492,-3.09865e-05,1.20894,0.00208035,0.0107739,1581,449,9.75846,34.8274
364,575,9.71997,-34.2383,0.000240104,0.003675,0.00164889,0.00433841,-0.000423303,1.18828,0.0030432,0.0107232,1588,449,9.72,34.2383
371,575,9.7179,-33.6659,0.000161641,0.00472359,0.0022879,0.0056733,-0.00078807,1.17734,0.0040704,0.0195483,1595,449,9.71785,33.6659
378,575,9.67908,-33.0413,0.000164199,0.00586483,0.00278233,0.00699768,-0.000968655,1.18413,0.00501926,0.0182662,1602,449,9.67905,33.0413
385,575,9.67078,-32.3974,0.000466291,0.00698143,0.00308438,0.00820997,-0.000762247,1.19175,0.00574428,0.0117071,1609,449,9.6708,32.3974
392,575,9.62952,-31.7762,0.00119076,0.0080221,0.00326357,0.00933059,-0.000117732,1.18948,0.00626001,0.00989659,1616,449,9.62957,31.7762
399,575,9.5708,-31.1672,0.00267235,0.00926293,0.00404968,0.0111886,0.000746637,1.12692,0.00722309,0.0103971,1623,449,9.57085,31.1672
406,575,9.54272,-30.4753,0.00475518,0.0115102,0.00569119,0.0147506,0.00151474,1.0532,0.00936973,0.0127273,1630,449,9.54275,30.4753
413,575,9.51538,-29.7937,0.00652178,0.0129607,0.00660051,0.017085,0.00239741,1.0123,0.0106809,0.0160882,1637,449,9.5154,29.7937
420,575,9.44373,-29.084,0.0087977,0.014428,0.00779448,0.0199001,0.00332556,0.958694,0.0123089,0.0163961,1644,449,9.4437,29.084
427,575,9.37878,-28.3315,0.0116199,0.0156695,0.00940452,0.0232647,0.00402465,0.891429,0.0143575,0.0189221,1651,449,9.37881,28.3315
434,575,9.31934,-27.7546,0.014817,0.0174682,0.0114349,0.0276541,0.0046311,0.843102,0.0171026,0.0263875,1658,449,9.31939,27.7546
441,575,9.48132,-27.2311,0.0182877,0.0191633,0.0138825,0.0326148,0.00483607,0.801161,0.0203239,0.0441244,1665,449,9.48138,27.2311
448,575,10.2445,-26.0229,0,0,0,0,0,0,0,-1,1672,449,10.2445,26.0229
455,575,10.8846,-24.7893,0,0,0,0,0,0,0,-1,1679,449,10.8846,24.7893
462,575,7.12781,-21.7179,0,0,0,0,0,0,0,-1,1686,449,7.12778,21.7178
469,575,8.80627,-23.9187,0,0,0,0,0,0,0,-1,1693,449,8.80622,23.9187
476,575,8.80371,-24.2045,0,0,0,0,0,0,0,-1,1700,449,8.80366,24.2045
483,575,7.98132,-24.4117,0,0,0,0,0,0,0,-1,1707,449,7.98133,24.4117
490,575,7.62415,-24.9823,0,0,0,0,0,0,0,-1,1714,449,7.62419,24.9823
497,575,0,0,0,0,0,0,0,0,0,-1,1721,449,0,0
504,575,0,0,0,0,0,0,0,0,0,-1,1728,449,0,0
511,575,0,0,0,0,0,0,0,0,0,-1,1735,449,0,0
518,575,0,0,0,0,0,0,0,0,0,-1,1742,449,0,0
525,575,0,0,0,0,0,0,0,0,0,-1,1749,449,0,0
532,575,0,0,0,0,0,0,0,0,0,-1,1756,449,0,0
539,575,0,0,0,0,0,0,0,0,0,-1,1763,449,0,0
546,575,0,0,0,0,0,0,0,0,0,-1,1770,449,0,0
553,575,0,0,0,0,0,0,0,0,0,-1,1777,449,0,0
560,575,0,0,0,0,0,0,0,0,0,-1,1784,449,0,0
567,575,0,0,0,0,0,0,0,0,0,-1,1791,449,0,0
574,575,0,0,0,0,0,0,0,0,0,-1,1798,449,0,0
581,575,0,0,0,0,0,0,0,0,0,-1,1805,449,0,0
588,575,0,0,0,0,0,0,0,0,0,-1,1812,449,0,0
595,575,0,0,0,0,0,0,0,0,0,-1,1819,449,0,0
602,575,0,0,0,0,0,0,0,0,0,-1,1826,449,0,0
609,575,0,0,0,0,0,0,0,0,0,-1,1833,449,0,0
616,575,0,0,0,0,0,0,0,0,0,-1,1840,449,0,0
623,575,0,0,0,0,0,0,0,0,0,-1,1847,449,0,0
630,575,0,0,0,0,0,0,0,0,0,-1,1854,449,0,0
637,575,0,0,0,0,0,0,0,0,0,-1,1861,449,0,0
644,575,0,0,0,0,0,0,0,0,0,-1,1868,449,0,0
651,575,0,0,0,0,0,0,0,0,0,-1,1875,449,0,0
658,575,0,0,0,0,0,0,0,0,0,-1,1882,449,0,0
665,575,0,0,0,0,0,0,0,0,0,-1,1889,449,0,0
672,575,0,0,0,0,0,0,0,0,0,-1,1896,449,0,0
679,575,0,0,0,0,0,0,0,0,0,-1,1903,449,0,0
686,575,0,0,0,0,0,0,0,0,0,-1,1910,449,0,0
693,575,0,0,0,0,0,0,0,0,0,-1,1917,449,0,0
700,575,0,0,0,0,0,0,0,0,0,-1,1924,449,0,0
707,575,0,0,0,0,0,0,0,0,0,-1,1931,449,0,0
714,575,0,0,0,0,0,0,0,0,0,-1,1938,449,0,0
721,575,0,0,0,0,0,0,0,0,0,-1,1945,449,0,0
728,575,0,0,0,0,0,0,0,0,0,-1,1952,449,0,0
735,575,0,0,0,0,0,0,0,0,0,-1,1959,449,0,0
742,575,0,0,0,0,0,0,0,0,0,-1,1966,449,0,0
749,575,0,0,0,0,0,0,0,0,0,-1,1973,449,0,0
756,575,0,0,0,0,0,0,0,0,0,-1,1980,449,0,0
763,575,0,0,0,0,0,0,0,0,0,-1,1987,449,0,0
770,575,0,0,0,0,0,0,0,0,0,-1,1994,449,0,0
777,575,0,0,0,0,0,0,0,0,0,-1,2001,449,0,0
784,575,0,0,0,0,0,0,0,0,0,-1,2008,449,0,0
791,575,0,0,0,0,0,0,0,0,0,-1,2015,449,0,0
798,575,0,0,0,0,0,0,0,0,0,-1,2022,449,0,0
805,575,0,0,0,0,0,0,0,0,0,-1,2029,449,0,0
812,575,0,0,0,0,0,0,0,0,0,-1,2036,449,0,0
-700,568,0,0,0,0,0,0,0,0,0,-1,524,456,0,0
-693,568,0,0,0,0,0,0,0,0,0,-1,531,456,0,0
-686,568,0,0,0,0,0,0,0,0,0,-1,538,456,0,0
-679,568,0,0,0,0,0,0,0,0,0,-1,545,456,0,0
-672,568,0,0,0,0,0,0,0,0,0,-1,552,456,0,0
-665,568,0,0,0,0,0,0,0,0,0,-1,559,456,0,0
-658,568,0,0,0,0,0,0,0,0,0,-1,566,456,0,0
-651,568,0,0,0,0,0,0,0,0,0,-1,573,456,0,0
-644,568,0,0,0,0,0,0,0,0,0,-1,580,456,0,0
-637,568,0,0,0,0,0,0,0,0,0,-1,587,456,0,0
-630,568,0,0,0,0,0,0,0,0,0,-1,594,456,0,0
-623,568,0,0,0,0,0,0,0,0,0,-1,601,456,0,0
-616,568,0,0,0,0,0,0,0,0,0,-1,608,456,0,0
-609,568,0,0,0,0,0,0,0,0,0,-1,615,456,0,0
-602,568,0,0,0,0,0,0,0,0,0,-1,622,456,0,0
-595,568,0,0,0,0,0,0,0,0,0,-1,629,456,0,0
-588,568,0,0,0,0,0,0,0,0,0,-1,636,456,0,0
-581,568,0,0,0,0,0,0,0,0,0,-1,643,456,0,0
-574,568,0,0,0,0,0,0,0,0,0,-1,650,456,0,0
-567,568,0,0,0,0,0,0,0,0,0,-1,657,456,0,0
-560,568,0,0,0,0,0,0,0,0,0,-1,664,456,0,0
-553,568,0,0,0,0,0,0,0,0,0,-1,671,456,0,0
-546,568,0,0,0,0,0,0,0,0,0,-1,678,456,0,0
-539,568,0,0,0,0,0,0,0,0,0,-1,685,456,0,0
-532,568,0,0,0,0,0,0,0,0,0,-1,692,456,0,0
-525,568,0,0,0,0,0,0,0,0,0,-1,699,456,0,0
-518,568,0,0,0,0,0,0,0,0,0,-1,706,456,0,0
-511,568,0,0,0,0,0,0,0,0,0,-1,713,456,0,0
-504,568,0,0,0,0,0,0,0,0,0,-1,720,456,0,0
-497,568,0,0,0,0,0,0,0,0,0,-1,727,456,0,0
-490,568,0,0,0,0,0,0,0,0,0,-1,734,456,0,0
-483,568,0,0,0,0,0,0,0,0,0,-1,741,456,0,0
-476,568,0,0,0,0,0,0,0,0,0,-1,748,456,0,0
-469,568,0,0,0,0,0,0,0,0,0,-1,755,456,0,0
-462,568,0,0,0,0,0,0,0,0,0,-1,762,456,0,0
-455,568,0,0,0,0,0,0,0,0,0,-1,769,456,0,0
-448,568,0,0,0,0,0,0,0,0,0,-1,776,456,0,0
-441,568,0,0,0,0,0,0,0,0,0,-1,783,456,0,0
-434,568,0,0,0,0,0,0,0,0,0,-1,790,456,0,0
-427,568,0,0,0,0,0,0,0,0,0,-1,797,456,0,0
-420,568,0,0,0,0,0,0,0,0,0,-1,804,456,0,0
-413,568,0,0,0,0,0,0,0,0,0,-1,811,456,0,0
-406,568,0,0,0,0,0,0,0,0,0,-1,818,456,0,0
-399,568,0,0,0,0,0,0,0,0,0,-1,825,456,0,0
-392,568,0,0,0,0,0,0,0,0,0,-1,832,456,0,0
-385,568,0,0,0,0,0,0,0,0,0,-1,839,456,0,0
-378,568,0.321777,-7.29929,0,0,0,0,0,0,0,-1,846,456,0.321806,7.29927
-371,568,1.09595,-7.46707,0,0,0,0,0,0,0,-1,853,456,1.09597,7.46707
-364,568,1.87787,-7.61115,0,0,0,0,0,0,0,-1,860,456,1.87784,7.61116
-357,568,2.14166,-7.67645,0,0,0,0,0,0,0,-1,867,456,2.14167,7.67646
-350,568,2.7467,-11.2507,0,0,0,0,0,0,0,-1,874,456,2.7467,11.2507
-343,568,2.16516,-11.3762,0,0,0,0,0,0,0,-1,881,456,2.16514,11.3762
-336,568,2.21796,-27.1852,0,0,0,0,0,0,0,-1,888,456,2.21795,27.1852
-329,568,2.50641,-27.4717,-0.00392595,-0.00852305,-0.00364301,-0.00191696,-0.010532,-0.503966,0.00647762,0.0498517,895,456,2.50643,27.4717
-322,568,2.37793,-27.9905,-0.00334321,-0.00629807,-0.00352565,-0.000997945,-0.00864334,-0.586987,0.00546006,0.0460425,902,456,2.37792,27.9905
-315,568,2.37128,-27.4962,0,0,0,0,0,0,0,-1,909,456,2.3713,27.4962
-308,568,2.39569,-28.5221,-0.00217289,-0.00129654,-0.0038595,0.00214958,-0.00561901,-0.841922,0.00463189,0.037395,916,456,2.39571,28.5221
-301,568,2.4032,-29.2699,-0.00139836,0.000292819,-0.00392817,0.00346538,-0.00457092,-0.891412,0.00465437,0.0209031,923,456,2.40317,29.2699
-294,568,2.34454,-29.9052,-0.000829743,0.00180782,-0.00379998,0.00451136,-0.00353328,-0.95242,0.004656,0.0136576,930,456,2.34453,29.9052
-287,568,2.29486,-30.571,-0.00048578,0.00289894,-0.0035604,0.00514872,-0.00273557,-1.00726,0.00462252,0.011405,937,456,2.29486,30.5711
-280,568,2.27258,-31.2367,-4.51108e-05,0.00381265,-0.00349918,0.00587937,-0.00211183,-1.03729,0.00478159,0.0118062,944,456,2.2726,31.2367
-273,568,2.23822,-31.8762,0.000442751,0.00470982,-0.00338919,0.0065811,-0.00142853,-1.06632,0.00493301,0.0128262,951,456,2.23825,31.8762
-266,568,2.19855,-32.4837,0.000694425,0.00475689,-0.00304587,0.0063867,-0.000935381,-1.07947,0.00460139,0.0122641,958,456,2.19853,32.4837
-259,568,2.16132,-33.0874,0.000925282,0.00362115,-0.00247421,0.00509078,-0.000544346,-1.03482,0.00358909,0.0133047,965,456,2.1613,33.0874
-252,568,2.0976,-33.6756,0.00135628,0.00258681,-0.00181043,0.00388367,5.94239e-05,-0.949197,0.00256953,0.0133317,972,456,2.09757,33.6756
-245,568,2.06689,-34.2454,0.00173022,0.00118651,-0.00122879,0.00271687,0.000199865,-0.676534,0.00174844,0.0155072,979,456,2.06691,34.2454
-238,568,2.06409,-34.8465,0.00226462,-0.000499608,-0.000731749,0.00244638,-0.000681366,-0.243461,0.00189923,0.014268,986,456,2.0641,34.8465
-231,568,2.04547,-35.4518,0.00289595,-0.00250937,-0.000165769,0.00290103,-0.00251445,-0.0306293,0.00312928,0.0122671,993,456,2.04545,35.4518
-224,568,2.01001,-36.0276,0.00350145,-0.00462865,0.000348232,0.00351634,-0.00464354,0.0427281,0.00472606,0.0139718,1000,456,2.00999,36.0276
-217,568,2.0257,-36.5891,0.00407923,-0.00690521,0.000795833,0.00413659,-0.00696257,0.0719502,0.00647697,0.0121843,1007,456,2.02568,36.5891
-210,568,2.04065,-37.1669,0.00460663,-0.00921703,0.00114,0.00470001,-0.00931041,0.0817316,0.00823362,0.0119196,1014,456,2.04063,37.1669
-203,568,2.02795,-37.7065,0.00516257,-0.0114496,0.0014844,0.00529416,-0.0115812,0.0884223,0.00996585,0.0110956,1021,456,2.02795,37.7064
-196,568,2.0304,-38.2155,0.00564823,-0.0133915,0.00180837,0.00581846,-0.0135617,0.0938604,0.011483,0.01561,1028,456,2.0304,38.2155
-189,568,1.99011,-38.7423,0.0059353,-0.0150919,0.00220726,0.00616451,-0.0153211,0.103469,0.0127747,0.0153449,1035,456,1.99007,38.7423
-182,568,2.01538,-39.306,0.00611271,-0.0166753,0.00277281,0.00644525,-0.0170078,0.119359,0.0139909,0.015595,1042,456,2.0154,39.306
-175,568,2.04993,-39.8036,0.00622179,-0.0182177,0.00345692,0.00670135,-0.0186972,0.137846,0.0151993,0.0153098,1049,456,2.04989,39.8036
-168,568,2.06152,-40.1954,0.00618974,-0.0200935,0.00430844,0.00687797,-0.0207817,0.158402,0.0166282,0.0215744,1056,456,2.06155,40.1954
-161,568,1.99573,-40.6786,0.00606746,-0.0214481,0.00522214,0.00702523,-0.0224059,0.181389,0.0177486,0.03112,1063,456,1.99576,40.6786
-154,568,2.02441,-41.2941,0.00554505,-0.0230303,0.00640981,0.00691698,-0.0244022,0.210855,0.0189983,0.034842,1070,456,2.02441,41.2941
-147,568,2.10107,-41.719,0.00460377,-0.0249697,0.00805332,0.0066546,-0.0270205,0.249356,0.0205935,0.0355591,1077,456,2.10109,41.719
-140,568,2.08154,-42.0492,0.00436932,-0.0265418,0.0099683,0.0073051,-0.0294776,0.286414,0.0224858,0.0384981,1084,456,2.08153,42.0492
-133,568,1.96289,-42.3806,0,0,0,0,0,0,0,-1,1091,456,1.96286,42.3807
-126,568,2.02661,-41.8262,0,0,0,0,0,0,0,-1,1098,456,2.02658,41.8262
-119,568,2.00952,-42.1276,0,0,0,0,0,0,0,-1,1105,456,2.00951,42.1276
-112,568,1.98242,-35.0942,0,0,0,0,0,0,0,-1,1112,456,1.98247,35.0942
-105,568,2.02454,-25.038,0,0,0,0,0,0,0,-1,1119,456,2.02459,25.038
-98,568,1.58618,-14.7874,0,0,0,0,0,0,0,-1,1126,456,1.58617,14.7874
-91,568,1.11621,-11.1853,0,0,0,0,0,0,0,-1,1133,456,1.11626,11.1853
-84,568,0.461792,-9.7959,0,0,0,0,0,0,0,-1,1140,456,0.461793,9.7959
-77,568,-1.13806,-8.57822,0,0,0,0,0,0,0,-1,1147,456,-1.13807,8.57821
-70,568,-4.09766,-1.42911,0,0,0,0,0,0,0,-1,1154,456,-4.09767,1.4291
-63,568,-5.92273,-3.70752,0,0,0,0,0,0,0,-1,1161,456,-5.92272,3.70751
-56,568,-5.24158,-6.01385,0,0,0,0,0,0,0,-1,1168,456,-5.24161,6.01386
-49,568,-5.24365,-8.33557,0,0,0,0,0,0,0,-1,1175,456,-5.24371,8.33557
-42,568,-0.664795,0.521973,0,0,0,0,0,0,0,-1,1182,456,-0.664829,-0.521984
-35,568,-0.153076,-1.67731,0,0,0,0,0,0,0,-1,1189,456,-0.153068,1.67731
-28,568,1.25439,-4.48798,0,0,0,0,0,0,0,-1,1196,456,1.2544,4.48797
-21,568,8.60168,-43.2733,0,0,0,0,0,0,0,-1,1203,456,8.60162,43.2733
-14,568,8.60205,-44.1437,0,0,0,0,0,0,0,-1,1210,456,8.60209,44.1437
-7,568,8.60828,-45.0063,0,0,0,0,0,0,0,-1,1217,456,8.60833,45.0063
0,568,12.2115,-51.8774,0,0,0,0,0,0,0,-1,1224,456,12.2115,51.8774
7,568,11.2115,-50.2913,0,0,0,0,0,0,0,-1,1231,456,11.2115,50.2913
14,568,10.3295,-49.8114,-0.0264009,0.0284973,-0.0204157,0.0352572,-0.0331608,-1.25105,0.0395073,0.0459733,1238,456,10.3295,49.8114
21,568,9.31213,-49.6246,-0.0241527,0.0256818,-0.0287829,0.0388345,-0.0373054,-1.14217,0.0439624,0.0455187,1245,456,9.31219,49.6246
28,568,8.88477,-49.6083,-0.0231267,0.0213316,-0.0359296,0.0413525,-0.0431476,-1.06242,0.0487898,0.0450118,1252,456,8.88477,49.6083
35,568,8.51343,-49.5409,-0.022909,0.0152001,-0.040043,0.040491,-0.0481999,-1.00747,0.0512701,0.0422541,1259,456,8.51343,49.5409
42,568,8.27063,-49.7481,-0.0231832,0.00876999,-0.0402541,0.0361021,-0.0505153,-0.974311,0.0502389,0.0435135,1266,456,8.27065,49.7481
49,568,8.17163,-49.9583,0,0,0,0,0,0,0,-1,1273,456,8.17168,49.9583
56,568,7.75928,-50.5291,-0.0270881,-0.00197089,-0.0266433,0.0149253,-0.0439842,-1.00564,0.0353638,0.0448096,1280,456,7.75924,50.5291
63,568,7.25769,-51.0235,-0.0292701,-0.00506752,-0.0139032,0.00126321,-0.0356008,-1.14351,0.024166,0.0434745,1287,456,7.25764,51.0235
70,568,7.05005,-48.5863,0,0,0,0,0,0,0,-1,1294,456,7.05004,48.5863
77,568,6.54956,-48.4439,-0.0319139,-0.00653696,0.0165024,0.00159107,-0.040042,1.11314,0.0272405,0.0443975,1301,456,6.54951,48.4439
84,568,5.56079,-47.9977,-0.03433,-0.000662664,0.0329602,0.0195137,-0.0545064,1.02149,0.0442988,0.0454674,1308,456,5.5608,47.9976
91,568,5.43103,-47.0447,-0.0356842,0.00631699,0.0475804,0.0373252,-0.0666924,0.993225,0.0608472,0.042464,1315,456,5.43099,47.0447
98,568,4.95044,-46.2016,-0.0344487,0.0164446,0.0596121,0.0558141,-0.0738181,0.987125,0.0750834,0.0445755,1322,456,4.95042,46.2016
105,568,4.55847,-45.2059,-0.0335218,0.0283659,0.0704577,0.0743753,-0.0795313,0.992309,0.0888746,0.0482606,1329,456,4.55851,45.2059
112,568,4.24072,-44.2281,0,0,0,0,0,0,0,-1,1336,456,4.24069,44.2281
119,568,5.09521,-43.4553,0,0,0,0,0,0,0,-1,1343,456,5.09526,43.4553
126,568,4.24817,-42.7246,0,0,0,0,0,0,0,-1,1350,456,4.24822,42.7246
133,568,4.77002,-48.9528,-0.0236347,0.0888025,0.0849738,0.134471,-0.0693037,1.07764,0.119638,0.0499695,1357,456,4.77006,48.9528
140,568,4.90759,-48.9474,-0.0216742,0.103052,0.0823858,0.144017,-0.0626386,1.10937,0.122357,0.048464,1364,456,4.90758,48.9474
147,568,4.96753,-49.0417,-0.0204845,0.113162,0.077724,0.148839,-0.0561619,1.14046,0.122322,0.0469513,1371,456,4.96747,49.0418
154,568,5.07239,-49.091,-0.0191127,0.119561,0.0732671,0.151098,-0.0506504,1.16432,0.121197,0.0421348,1378,456,5.07244,49.091
161,568,5.01831,-49.1765,0,0,0,0,0,0,0,-1,1385,456,5.01836,49.1765
168,568,-1.74231,-39.2641,0,0,0,0,0,0,0,-1,1392,456,-1.74226,39.2641
175,568,10.5151,0.747498,0,0,0,0,0,0,0,-1,1399,456,10.5152,-0.747501
182,568,6.35095,-3.63361,0,0,0,0,0,0,0,-1,1406,456,6.35093,3.63359
189,568,6.17493,-1.70911,0,0,0,0,0,0,0,-1,1413,456,6.17497,1.70911
196,568,6.04724,0.200836,0,0,0,0,0,0,0,-1,1420,456,6.04724,-0.200835
203,568,5.9281,2.08649,0,0,0,0,0,0,0,-1,1427,456,5.92812,-2.08648
210,568,1.46216,-2.50446,0,0,0,0,0,0,0,-1,1434,456,1.46219,2.50446
217,568,2.62366,-7.86703,0,0,0,0,0,0,0,-1,1441,456,2.62365,7.86704
224,568,3.43494,-12.1555,0,0,0,0,0,0,0,-1,1448,456,3.43492,12.1555
231,568,4.38245,-9.3205,0,0,0,0,0,0,0,-1,1455,456,4.38244,9.32048
238,568,5.88879,-20.7448,0,0,0,0,0,0,0,-1,1462,456,5.88876,20.7449
245,568,3.34387,-10.6774,0,0,0,0,0,0,0,-1,1469,456,3.34389,10.6774
252,568,3.56946,-9.28928,0,0,0,0,0,0,0,-1,1476,456,3.56948,9.28928
259,568,3.38843,-8.73068,0,0,0,0,0,0,0,-1,1483,456,3.38842,8.73068
266,568,10.3383,-41.8539,0,0,0,0,0,0,0,-1,1490,456,10.3383,41.8539
273,568,10.2418,-41.5885,0,0,0,0,0,0,0,-1,1497,456,10.2418,41.5885
280,568,10.3396,-40.8569,0,0,0,0,0,0,0,-1,1504,456,10.3396,40.8569
287,568,10.4102,-40.378,0.00413783,-0.00502536,-0.00452203,0.0059936,-0.00688114,-0.389428,0.00743912,0.0441783,1511,456,10.4102,40.378
294,568,10.3838,-39.8762,0.00399146,-0.00475666,-0.00415253,0.00564865,-0.00641384,-0.379712,0.00696895,0.0345853,1518,456,10.3838,39.8762
301,568,10.3654,-39.3631,0.00378502,-0.00433925,-0.00372154,0.00523204,-0.00578627,-0.370834,0.00636411,0.0208694,1525,456,10.3654,39.3631
308,568,10.4001,-38.8262,0.00341798,-0.00430781,-0.00347053,0.00474802,-0.00563785,-0.365973,0.00600362,0.0142403,1532,456,10.4002,38.8262
315,568,10.4063,-38.2961,0.00298173,-0.00379979,-0.00313479,0.00420878,-0.00502684,-0.373097,0.00533915,0.00901785,1539,456,10.4062,38.2961
322,568,10.4048,-37.7431,0.00255048,-0.00315387,-0.00266542,0.00360207,-0.00420546,-0.375782,0.00451216,0.0096531,1546,456,10.4048,37.7431
329,568,10.4125,-37.18,0.00207326,-0.00252128,-0.00225605,0.0029958,-0.00344382,-0.388173,0.00372092,0.00997281,1553,456,10.4125,37.18
336,568,10.4172,-36.6012,0.00162433,-0.00177351,-0.00180494,0.00240414,-0.00255333,-0.407823,0.00286263,0.0111689,1560,456,10.4172,36.6012
343,568,10.4188,-36.0062,0.00119261,-0.000968082,-0.00133301,0.00182809,-0.00160357,-0.444857,0.00198268,0.0123613,1567,456,10.4189,36.0062
350,568,10.3982,-35.4329,0.000814208,-0.000162187,-0.000864116,0.0013185,-0.000666478,-0.528267,0.00116645,0.0106823,1574,456,10.3982,35.4329
357,568,10.3693,-34.8227,0.000574101,0.000706127,-0.00032431,0.000971074,0.000309154,-0.885801,0.000572848,0.00927715,1581,456,10.3692,34.8227
364,568,10.3536,-34.2311,0.000399792,0.00160275,0.000297098,0.00167213,0.000330418,1.3414,0.00102256,0.0115127,1588,456,10.3537,34.2311
371,568,10.3248,-33.6244,0.000285959,0.00256289,0.000933259,0.00289652,-4.76745e-05,1.22746,0.0019471,0.0197827,1595,456,10.3249,33.6244
378,568,10.276,-32.9996,0.000231364,0.00361208,0.00145201,0.0041501,-0.000306651,1.21595,0.0028744,0.0179601,1602,456,10.276,32.9996
385,568,10.2634,-32.3884,0.000425654,0.00462492,0.00185096,0.0053243,-0.000273732,1.20953,0.00364421,0.00933717,1609,456,10.2634,32.3884
392,568,10.2235,-31.7672,0.000951933,0.00554623,0.00217361,0.00641159,8.65727e-05,1.19191,0.00424583,0.0109433,1616,456,10.2235,31.7672
399,568,10.1737,-31.1668,0.00210251,0.00660883,0.00295035,0.00806799,0.000643347,1.1115,0.00517755,0.0178948,1623,456,10.1737,31.1668
406,568,10.1798,-30.4955,0.00370933,0.00850972,0.00443525,0.0111526,0.00106647,1.03341,0.00710629,0.0157519,1630,456,10.1798,30.4954
413,568,10.1614,-29.7875,0.0050362,0.00979342,0.00536441,0.0132829,0.00154671,0.994076,0.00838738,0.011574,1637,456,10.1614,29.7875
420,568,10.1034,-29.1018,0.00672005,0.0110475,0.00651352,0.0157473,0.00202026,0.945758,0.00989374,0.0106009,1644,456,10.1033,29.1018
427,568,10.045,-28.4031,0.00878173,0.0121056,0.00800058,0.0186151,0.00227232,0.887806,0.0117262,0.0135511,1651,456,10.0451,28.4031
434,568,10.048,-27.7115,0.0110988,0.0135656,0.00980303,0.0222125,0.00245192,0.847979,0.0140625,0.0194833,1658,456,10.048,27.7115
441,568,10.2085,-27.0871,0,0,0,0,0,0,0,-1,1665,456,10.2086,27.0871
448,568,10.472,-26.1384,0.0159305,0.0160845,0.0143554,0.0303631,0.00165192,0.78808,0.0197145,0.0452444,1672,456,10.472,26.1384
455,568,11.1731,-24.832,0.0181442,0.0166854,0.0168857,0.0343163,0.000513341,0.763813,0.0227083,0.0499194,1679,456,11.173,24.832
462,568,12.0842,-23.4523,0,0,0,0,0,0,0,-1,1686,456,12.0842,23.4523
469,568,9.54883,-24.3636,0,0,0,0,0,0,0,-1,1693,456,9.5488,24.3636
476,568,9.46753,-23.7796,0,0,0,0,0,0,0,-1,1700,456,9.4675,23.7796
483,568,9.18091,-22.6512,0,0,0,0,0,0,0,-1,1707,456,9.18088,22.6512
490,568,9.28479,-23.2989,0,0,0,0,0,0,0,-1,1714,456,9.28475,23.2989
497,568,8.05774,-23.8365,0,0,0,0,0,0,0,-1,1721,456,8.05774,23.8365
504,568,0,0,0,0,0,0,0,0,0,-1,1728,456,0,0
511,568,0,0,0,0,0,0,0,0,0,-1,1735,456,0,0
518,568,0,0,0,0,0,0,0,0,0,-1,1742,456,0,0
525,568,0,0,0,0,0,0,0,0,0,-1,1749,456,0,0
532,568,0,0,0,0,0,0,0,0,0,-1,1756,456,0,0
539,568,0,0,0,0,0,0,0,0,0,-1,1763,456,0,0
546,568,0,0,0,0,0,0,0,0,0,-1,1770,456,0,0
553,568,0,0,0,0,0,0,0,0,0,-1,1777,456,0,0
560,568,0,0,0,0,0,0,0,0,0,-1,1784,456,0,0
567,568,0,0,0,0,0,0,0,0,0,-1,1791,456,0,0
574,568,0,0,0,0,0,0,0,0,0,-1,1798,456,0,0
581,568,0,0,0,0,0,0,0,0,0,-1,1805,456,0,0
588,568,0,0,0,0,0,0,0,0,0,-1,1812,456,0,0
595,568,0,0,0,0,0,0,0,0,0,-1,1819,456,0,0
602,568,0,0,0,0,0,0,0,0,0,-1,1826,456,0,0
609,568,0,0,0,0,0,0,0,0,0,-1,1833,456,0,0
616,568,0,0,0,0,0,0,0,0,0,-1,1840,456,0,0
623,568,0,0,0,0,0,0,0,0,0,-1,1847,456,0,0
630,568,0,0,0,0,0,0,0,0,0,-1,1854,456,0,0
637,568,0,0,0,0,0,0,0,0,0,-1,1861,456,0,0
644,568,0,0,0,0,0,0,0,0,0,-1,1868,456,0,0
651,568,0,0,0,0,0,0,0,0,0,-1,1875,456,0,0
658,568,0,0,0,0,0,0,0,0,0,-1,1882,456,0,0
665,568,0,0,0,0,0,0,0,0,0,-1,1889,456,0,0
672,568,0,0,0,0,0,0,0,0,0,-1,1896,456,0,0
679,568,0,0,0,0,0,0,0,0,0,-1,1903,456,0,0
686,568,0,0,0,0,0,0,0,0,0,-1,1910,456,0,0
693,568,0,0,0,0,0,0,0,0,0,-1,1917,456,0,0
700,568,0,0,0,0,0,0,0,0,0,-1,1924,456,0,0
707,568,0,0,0,0,0,0,0,0,0,-1,1931,456,0,0
714,568,0,0,0,0,0,0,0,0,0,-1,1938,456,0,0
721,568,0,0,0,0,0,0,0,0,0,-1,1945,456,0,0
728,568,0,0,0,0,0,0,0,0,0,-1,1952,456,0,0
735,568,0,0,0,0,0,0,0,0,0,-1,1959,456,0,0
742,568,0,0,0,0,0,0,0,0,0,-1,1966,456,0,0
749,568,0,0,0,0,0,0,0,0,0,-1,1973,456,0,0
756,568,0,0,0,0,0,0,0,0,0,-1,1980,456,0,0
763,568,0,0,0,0,0,0,0,0,0,-1,1987,456,0,0
770,568,0,0,0,0,0,0,0,0,0,-1,1994,456,0,0
777,568,0,0,0,0,0,0,0,0,0,-1,2001,456,0,0
784,568,0,0,0,0,0,0,0,0,0,-1,2008,456,0,0
791,568,0,0,0,0,0,0,0,0,0,-1,2015,456,0,0
798,568,0,0,0,0,0,0,0,0,0,-1,2022,456,0,0
805,568,0,0,0,0,0,0,0,0,0,-1,2029,456,0,0
812,568,0,0,0,0,0,0,0,0,0,-1,2036,456,0,0
-700,561,0,0,0,0,0,0,0,0,0,-1,524,463,0,0
-693,561,0,0,0,0,0,0,0,0,0,-1,531,463,0,0
-686,561,0,0,0,0,0,0,0,0,0,-1,538,463,0,0
-679,561,0,0,0,0,0,0,0,0,0,-1,545,463,0,0
-672,561,0,0,0,0,0,0,0,0,0,-1,552,463,0,0
-665,561,0,0,0,0,0,0,0,0,0,-1,559,463,0,0
-658,561,0,0,0,0,0,0,0,0,0,-1,566,463,0,0
-651,561,0,0,0,0,0,0,0,0,0,-1,573,463,0,0
-644,561,0,0,0,0,0,0,0,0,0,-1,580,463,0,0
-637,561,0,0,0,0,0,0,0,0,0,-1,587,463,0,0
-630,561,0,0,0,0,0,0,0,0,0,-1,594,463,0,0
-623,561,0,0,0,0,0,0,0,0,0,-1,601,463,0,0
-616,561,0,0,0,0,0,0,0,0,0,-1,608,463,0,0
-609,561,0,0,0,0,0,0,0,0,0,-1,615,463,0,0
-602,561,0,0,0,0,0,0,0,0,0,-1,622,463,0,0
-595,561,0,0,0,0,0,0,0,0,0,-1,629,463,0,0
-588,561,0,0,0,0,0,0,0,0,0,-1,636,463,0,0
-581,561,0,0,0,0,0,0,0,0,0,-1,643,463,0,0
-574,561,0,0,0,0,0,0,0,0,0,-1,650,463,0,0
-567,561,0,0,0,0,0,0,0,0,0,-1,657,463,0,0
-560,561,0,0,0,0,0,0,0,0,0,-1,664,463,0,0
-553,561,0,0,0,0,0,0,0,0,0,-1,671,463,0,0
-546,561,0,0,0,0,0,0,0,0,0,-1,678,463,0,0
-539,561,0,0,0,0,0,0,0,0,0,-1,685,463,0,0
-532,561,0,0,0,0,0,0,0,0,0,-1,692,463,0,0
-525,561,0,0,0,0,0,0,0,0,0,-1,699,463,0,0
-518,561,0,0,0,0,0,0,0,0,0,-1,706,463,0,0
-511,561,0,0,0,0,0,0,0,0,0,-1,713,463,0,0
-504,561,0,0,0,0,0,0,0,0,0,-1,720,463,0,0
-497,561,0,0,0,0,0,0,0,0,0,-1,727,463,0,0
-490,561,0,0,0,0,0,0,0,0,0,-1,734,463,0,0
-483,561,0,0,0,0,0,0,0,0,0,-1,741,463,0,0
-476,561,0,0,0,0,0,0,0,0,0,-1,748,463,0,0
-469,561,0,0,0,0,0,0,0,0,0,-1,755,463,0,0
-462,561,0,0,0,0,0,0,0,0,0,-1,762,463,0,0
-455,561,0,0,0,0,0,0,0,0,0,-1,769,463,0,0
-448,561,0,0,0,0,0,0,0,0,0,-1,776,463,0,0
-441,561,0,0,0,0,0,0,0,0,0,-1,783,463,0,0
-434,561,0,0,0,0,0,0,0,0,0,-1,790,463,0,0
-427,561,0,0,0,0,0,0,0,0,0,-1,797,463,0,0
-420,561,0,0,0,0,0,0,0,0,0,-1,804,463,0,0
-413,561,0,0,0,0,0,0,0,0,0,-1,811,463,0,0
-406,561,0,0,0,0,0,0,0,0,0,-1,818,463,0,0
-399,561,0,0,0,0,0,0,0,0,0,-1,825,463,0,0
-392,561,4.92407,-2.54578,0,0,0,0,0,0,0,-1,832,463,4.92408,2.54576
-385,561,5.55634,-1.02338,0,0,0,0,0,0,0,-1,839,463,5.55634,1.02338
-378,561,0.160522,-4.51785,0,0,0,0,0,0,0,-1,846,463,0.160542,4.51785
-371,561,1.06299,-7.56818,0,0,0,0,0,0,0,-1,853,463,1.06297,7.56817
-364,561,1.45264,-7.57684,0,0,0,0,0,0,0,-1,860,463,1.45264,7.57684
-357,561,0.948242,-12.2803,0,0,0,0,0,0,0,-1,867,463,0.948262,12.2803
-350,561,1.33124,-11.9406,0,0,0,0,0,0,0,-1,874,463,1.33127,11.9406
-343,561,1.13214,-14.1837,0,0,0,0,0,0,0,-1,881,463,1.13217,14.1837
-336,561,2.01855,-26.1691,0,0,0,0,0,0,0,-1,888,463,2.01854,26.1691
-329,561,1.91785,-26.7856,-0.00264712,-0.00281713,-0.00417999,0.00144873,-0.00691298,-0.775231,0.00515981,0.0450849,895,463,1.91786,26.7856
-322,561,1.73975,-27.1586,-0.00245742,-0.00238715,-0.00360394,0.00118182,-0.00602639,-0.790273,0.00446399,0.0386872,902,463,1.73973,27.1586
-315,561,1.95258,-27.6045,-0.00213886,-0.00148,-0.00325715,0.00146434,-0.0050832,-0.835797,0.00396803,0.027126,909,463,1.95255,27.6045
-308,561,1.867,-28.4286,-0.00173117,-0.000290214,-0.00322679,0.00229555,-0.00431694,-0.895237,0.00387672,0.0231989,916,463,1.86703,28.4286
-301,561,1.79791,-29.2952,-0.00117762,0.000562197,-0.00309775,0.00290986,-0.00352529,-0.922282,0.003721,0.0155713,923,463,1.79794,29.2952
-294,561,1.73132,-29.9592,-0.000706656,0.00142281,-0.00287838,0.00342708,-0.00271092,-0.962547,0.00355181,0.0119885,930,463,1.73134,29.9592
-287,561,1.68146,-30.5878,-0.000365198,0.00204683,-0.0025693,0.00367909,-0.00199746,-1.00483,0.00332495,0.0104436,937,463,1.68145,30.5878
-280,561,1.63208,-31.2181,5.10961e-05,0.00247956,-0.00241032,0.00396422,-0.00143356,-1.01873,0.00322856,0.013384,944,463,1.63209,31.2181
-273,561,1.57495,-31.8241,0.00048995,0.00295242,-0.0022072,0.00424857,-0.000806203,-1.03981,0.00313585,0.0160035,951,463,1.57495,31.8241
-266,561,1.57379,-32.4297,0.000747995,0.00268697,-0.0017844,0.00374824,-0.000313278,-1.03425,0.00260953,0.0101741,958,463,1.5738,32.4297
-259,561,1.56726,-33.0549,0.00110023,0.00141045,-0.00115657,0.00242227,8.84181e-05,-0.852057,0.00158619,0.010889,965,463,1.56724,33.0549
-252,561,1.53882,-33.656,0.00176369,0.000185713,-0.000491399,0.0019042,4.51982e-05,-0.278516,0.00125467,0.0152619,972,463,1.53879,33.656
-245,561,1.52466,-34.2455,0.00233731,-0.00155579,8.45461e-05,0.00233915,-0.00155762,0.0217033,0.00226483,0.0171637,979,463,1.52465,34.2455
-238,561,1.5163,-34.8421,0.00306685,-0.00361427,0.000566326,0.00311452,-0.00366194,0.0839668,0.00391664,0.0139719,986,463,1.51628,34.8421
-231,561,1.46771,-35.4551,0.00393567,-0.00600946,0.0011155,0.00405925,-0.00613304,0.110339,0.00592498,0.0120965,993,463,1.46774,35.4551
-224,561,1.43933,-36.0279,0.00477025,-0.00852821,0.00161575,0.00496375,-0.00872171,0.119189,0.00799998,0.0120656,1000,463,1.43935,36.0279
-217,561,1.45422,-36.5706,0.00558498,-0.0112073,0.0020214,0.00582488,-0.0114472,0.118129,0.0101466,0.0122346,1007,463,1.45422,36.5705
-210,561,1.46106,-37.138,0.0063357,-0.0138989,0.00228349,0.00659019,-0.0141534,0.110991,0.0122388,0.0133515,1014,463,1.46107,37.138
-203,561,1.46326,-37.667,0.00710475,-0.0164495,0.00250782,0.0073688,-0.0167136,0.104903,0.0142486,0.0151231,1021,463,1.46324,37.667
-196,561,1.39905,-38.1259,0.00779323,-0.018822,0.00273179,0.00807073,-0.0190995,0.101234,0.0161118,0.0167614,1028,463,1.3991,38.1259
-189,561,1.4563,-38.6173,0.00816904,-0.0207705,0.00307212,0.00849156,-0.021093,0.104603,0.0175896,0.0220032,1035,463,1.45633,38.6173
-182,561,1.57544,-39.1096,0.0083355,-0.022528,0.00358431,0.0087463,-0.0229388,0.114111,0.0188952,0.0258572,1042,463,1.57538,39.1097
-175,561,1.48816,-39.5659,0.00839679,-0.0241041,0.0042244,0.00893689,-0.0246442,0.127163,0.0200826,0.0381735,1049,463,1.48811,39.5659
-168,561,1.53223,-40.0863,0.00825615,-0.026197,0.00514037,0.00900674,-0.0269476,0.144993,0.0216025,0.0478701,1056,463,1.53221,40.0863
-161,561,1.51941,-40.5814,0.00797069,-0.0277186,0.00618197,0.00901117,-0.0287591,0.166747,0.0227785,0.0496744,1063,463,1.51941,40.5813
-154,561,1.46094,-41.3069,0,0,0,0,0,0,0,-1,1070,463,1.46098,41.3068
-147,561,1.5426,-41.6785,0,0,0,0,0,0,0,-1,1077,463,1.5426,41.6785
-140,561,1.59412,-41.961,0,0,0,0,0,0,0,-1,1084,463,1.59415,41.961
-133,561,2.04895,-42.0837,0,0,0,0,0,0,0,-1,1091,463,2.0489,42.0837
-126,561,1.42444,-41.0588,0,0,0,0,0,0,0,-1,1098,463,1.42448,41.0588
-119,561,-0.336304,-35.422,0,0,0,0,0,0,0,-1,1105,463,-0.336245,35.422
-112,561,1.24365,-29.1982,0,0,0,0,0,0,0,-1,1112,463,1.2437,29.1981
-105,561,0.530518,-13.5379,0,0,0,0,0,0,0,-1,1119,463,0.530477,13.5379
-98,561,1.5387,-7.54352,0,0,0,0,0,0,0,-1,1126,463,1.53871,7.54351
-91,561,1.29553,-6.57968,0,0,0,0,0,0,0,-1,1133,463,1.29549,6.5797
-84,561,1.23364,-5.84555,0,0,0,0,0,0,0,-1,1140,463,1.23363,5.84556
-77,561,-2.36023,1.00204,0,0,0,0,0,0,0,-1,1147,463,-2.3602,-1.00205
-70,561,-3.90015,-1.41541,0,0,0,0,0,0,0,-1,1154,463,-3.90009,1.4154
-63,561,-6.95691,-4.02756,0,0,0,0,0,0,0,-1,1161,463,-6.95696,4.02756
-56,561,-5.37988,-6.66855,0,0,0,0,0,0,0,-1,1168,463,-5.37988,6.66854
-49,561,-5.7439,-9.11029,0,0,0,0,0,0,0,-1,1175,463,-5.74387,9.1103
-42,561,-1.72644,-5.63065,0,0,0,0,0,0,0,-1,1182,463,-1.72648,5.63064
-35,561,-1.65674,-4.87994,0,0,0,0,0,0,0,-1,1189,463,-1.6567,4.87993
-28,561,-1.91418,-3.86896,0,0,0,0,0,0,0,-1,1196,463,-1.91414,3.86895
-21,561,8.0686,-49.5935,0,0,0,0,0,0,0,-1,1203,463,8.06858,49.5935
-14,561,8.72217,-43.7465,0,0,0,0,0,0,0,-1,1210,463,8.72213,43.7465
-7,561,8.95825,-45.0449,0,0,0,0,0,0,0,-1,1217,463,8.9582,45.0448
0,561,10.032,-45.9805,0,0,0,0,0,0,0,-1,1224,463,10.032,45.9805
7,561,9.48877,-45.955,0,0,0,0,0,0,0,-1,1231,463,9.48874,45.9551
14,561,10.4094,-49.9625,0,0,0,0,0,0,0,-1,1238,463,10.4094,49.9625
21,561,8.40991,-47.7755,0,0,0,0,0,0,0,-1,1245,463,8.40993,47.7755
28,561,8.6012,-48.4741,-0.0168358,0.0316444,-0.0429525,0.0567247,-0.0419161,-1.04229,0.0571638,0.0428791,1252,463,8.60123,48.4741
35,561,8.84326,-49.4194,-0.0163602,0.0230686,-0.0493898,0.0565332,-0.0498248,-0.975289,0.0614465,0.0408653,1259,463,8.84326,49.4194
42,561,8.72754,-49.7431,-0.0167508,0.0145062,-0.050649,0.0518831,-0.0541277,-0.935046,0.06121,0.0432778,1266,463,8.7275,49.7431
49,561,8.91406,-50.0265,-0.0186955,0.006114,-0.0467256,0.0420534,-0.0546349,-0.915146,0.0559804,0.0425692,1273,463,8.91407,50.0265
56,561,9.03833,-50.4503,-0.0233351,0.00187405,-0.0350464,0.0265136,-0.0479746,-0.958023,0.0435967,0.0432956,1280,463,9.03829,50.4503
63,561,8.70532,-50.8989,-0.0283823,-0.000110143,-0.0199782,0.0102274,-0.0387198,-1.09329,0.0298129,0.0436476,1287,463,8.70537,50.8989
70,561,7.05164,-48.658,0,0,0,0,0,0,0,-1,1294,463,7.05167,48.658
77,561,6.7124,-48.1548,-0.0370752,0.0010317,0.0152973,0.00641268,-0.0424562,1.23255,0.030666,0.049506,1301,463,6.71236,48.1548
84,561,6.38623,-47.625,-0.0428007,0.00813563,0.0343378,0.0254192,-0.0600843,1.10448,0.0506998,0.046353,1308,463,6.38623,47.625
91,561,6.0072,-47.1129,0,0,0,0,0,0,0,-1,1315,463,6.00725,47.1129
98,561,4.37134,-46.2695,0,0,0,0,0,0,0,-1,1322,463,4.37137,46.2695
105,561,4.03223,-45.3181,0,0,0,0,0,0,0,-1,1329,463,4.03225,45.3181
112,561,3.87842,-44.5033,0,0,0,0,0,0,0,-1,1336,463,3.8784,44.5033
119,561,3.38501,-43.9336,-0.0430755,0.076399,0.10076,0.133799,-0.100476,1.05298,0.135714,0.0465163,1343,463,3.38503,43.9336
126,561,2.69934,-43.0568,-0.0399838,0.0953361,0.101528,0.149684,-0.0943315,1.07931,0.142085,0.0478173,1350,463,2.69931,43.0568
133,561,1.65576,-42.1375,0,0,0,0,0,0,0,-1,1357,463,1.65575,42.1375
140,561,4.55249,-49.5899,0,0,0,0,0,0,0,-1,1364,463,4.55247,49.5899
147,561,4.49817,-49.6315,0,0,0,0,0,0,0,-1,1371,463,4.49816,49.6315
154,561,4.2948,-49.5081,0,0,0,0,0,0,0,-1,1378,463,4.29478,49.5081
161,561,4.35486,-49.1234,0,0,0,0,0,0,0,-1,1385,463,4.35486,49.1234
168,561,11.7057,-58.3809,0,0,0,0,0,0,0,-1,1392,463,11.7057,58.3809
175,561,10.4185,0.276398,0,0,0,0,0,0,0,-1,1399,463,10.4185,-0.276394
182,561,6.45703,-4.02127,0,0,0,0,0,0,0,-1,1406,463,6.45704,4.02127
189,561,6.50854,-2.08685,0,0,0,0,0,0,0,-1,1413,463,6.50851,2.08686
196,561,6.44775,-0.27182,0,0,0,0,0,0,0,-1,1420,463,6.44773,0.271814
203,561,6.18591,1.1301,0,0,0,0,0,0,0,-1,1427,463,6.18592,-1.13009
210,561,5.68713,2.68427,0,0,0,0,0,0,0,-1,1434,463,5.6871,-2.68425
217,561,3.61743,-7.33582,0,0,0,0,0,0,0,-1,1441,463,3.61738,7.33581
224,561,4.27466,-8.59171,0,0,0,0,0,0,0,-1,1448,463,4.27466,8.59171
231,561,4.93188,-9.8476,0,0,0,0,0,0,0,-1,1455,463,4.93193,9.84761
238,561,2.18018,-5.18359,0,0,0,0,0,0,0,-1,1462,463,2.18023,5.18359
245,561,3.07568,-3.50238,0,0,0,0,0,0,0,-1,1469,463,3.0757,3.50238
252,561,3.47412,-3.71109,0,0,0,0,0,0,0,-1,1476,463,3.47413,3.71109
259,561,3.42212,-3.2334,0,0,0,0,0,0,0,-1,1483,463,3.42214,3.2334
266,561,4.44373,-5.90027,0,0,0,0,0,0,0,-1,1490,463,4.44372,5.90026
273,561,2.59485,-3.65268,0,0,0,0,0,0,0,-1,1497,463,2.5948,3.65268
280,561,3.10767,-6.38235,0,0,0,0,0,0,0,-1,1504,463,3.10766,6.38235
287,561,10.9895,-40.3161,0,0,0,0,0,0,0,-1,1511,463,10.9895,40.3161
294,561,10.8788,-39.6848,0,0,0,0,0,0,0,-1,1518,463,10.8788,39.6848
301,561,10.9457,-39.1687,0,0,0,0,0,0,0,-1,1525,463,10.9456,39.1687
308,561,10.9603,-38.7019,0.00409054,-0.00588586,-0.00479137,0.00601894,-0.00781426,-0.382637,0.00800899,0.032079,1532,463,10.9603,38.7019
315,561,10.9928,-38.2309,0.00355897,-0.00538076,-0.00444496,0.00539286,-0.00721466,-0.391302,0.00730424,0.0189631,1539,463,10.9928,38.2309
322,561,10.9657,-37.7003,0.00307021,-0.00473589,-0.0039426,0.00471494,-0.00638062,-0.39522,0.00643004,0.0155886,1546,463,10.9657,37.7003
329,561,10.9829,-37.1387,0.00251607,-0.0040927,-0.00353168,0.00404818,-0.00562481,-0.409317,0.00560938,0.0116538,1553,463,10.9829,37.1387
336,561,11.0002,-36.5578,0.00197818,-0.00335696,-0.00308777,0.00339108,-0.00476986,-0.429139,0.00473408,0.0109935,1560,463,11.0002,36.5578
343,561,11.0034,-36.0068,0.00145307,-0.00258151,-0.00262089,0.00274312,-0.00387156,-0.457404,0.00383747,0.0106745,1567,463,11.0034,36.0068
350,561,10.9861,-35.4167,0.000981366,-0.00192957,-0.00219769,0.00216184,-0.00311004,-0.492921,0.00306009,0.010204,1574,463,10.9861,35.4167
357,561,10.9764,-34.7933,0.000680459,-0.00114502,-0.00167798,0.00167788,-0.00214244,-0.536305,0.00221109,0.0103942,1581,463,10.9764,34.7933
364,561,10.9598,-34.2051,0.000454919,-0.000315542,-0.0010509,0.00118897,-0.00104959,-0.609717,0.00129327,0.0096586,1588,463,10.9598,34.2051
371,561,10.9261,-33.5937,0.000311352,0.000598379,-0.000407923,0.000887298,2.24333e-05,-0.954543,0.000584198,0.0156322,1595,463,10.9261,33.5937
378,561,10.9014,-32.9863,0.000207657,0.00160972,0.000157355,0.00162716,0.000190214,1.4604,0.00102726,0.0118351,1602,463,10.9014,32.9863
385,561,10.8871,-32.3595,0.000307415,0.00257771,0.000665998,0.00275866,0.000126464,1.3055,0.00179844,0.0103239,1609,463,10.887,32.3595
392,561,10.8623,-31.6977,0.000669144,0.00343805,0.00113087,0.00384121,0.000265982,1.22834,0.00247691,0.014015,1616,463,10.8623,31.6977
399,561,10.8409,-31.0983,0.00151047,0.00438877,0.00186982,0.00530915,0.000590091,1.11338,0.00336006,0.0203146,1623,463,10.8409,31.0983
406,561,10.8213,-30.4613,0.00270048,0.00599228,0.00315243,0.00790262,0.000790149,1.02599,0.00502578,0.0178277,1630,463,10.8213,30.4613
413,561,10.8105,-29.7887,0.00370144,0.00716733,0.00406214,0.00985072,0.00101804,0.987014,0.00625548,0.0155076,1637,463,10.8106,29.7887
420,561,10.7506,-29.0943,0.00495402,0.0082615,0.00512635,0.0119942,0.00122127,0.941426,0.00762176,0.0130373,1644,463,10.7506,29.0943
427,561,10.7156,-28.39,0.00647719,0.00918848,0.00646413,0.0144376,0.00122808,0.888759,0.00924293,0.0115746,1651,463,10.7156,28.39
434,561,10.703,-27.7133,0.00818264,0.0103822,0.00803611,0.0173934,0.00117139,0.853402,0.0112255,0.0135698,1658,463,10.703,27.7133
441,561,10.6857,-27.0334,0.00995936,0.0115123,0.00983166,0.0205981,0.000873574,0.824806,0.0134504,0.0154769,1665,463,10.6856,27.0334
448,561,10.6664,-26.3136,0.0116424,0.0124208,0.0118178,0.0238558,0.000207413,0.801858,0.0158352,0.0248325,1672,463,10.6663,26.3136
455,561,10.7245,-25.5798,0.0131596,0.0129002,0.0138121,0.0268426,-0.000782806,0.780702,0.0181616,0.0454436,1679,463,10.7245,25.5798
462,561,10.4742,-25.0371,0.0144516,0.0132428,0.0158065,0.0296652,-0.00197085,0.766289,0.0204654,0.0458185,1686,463,10.4742,25.0371
469,561,10.3217,-24.376,0.0154719,0.0129508,0.0175281,0.0317848,-0.00336201,0.749502,0.0223948,0.0276928,1693,463,10.3217,24.376
476,561,10.338,-23.6196,0.0165329,0.0120987,0.0191213,0.0335651,-0.00493359,0.727681,0.0241896,0.0439361,1700,463,10.338,23.6196
483,561,10.3358,-22.8391,0,0,0,0,0,0,0,-1,1707,463,10.3358,22.839
490,561,10.1665,-22.4817,0,0,0,0,0,0,0,-1,1714,463,10.1665,22.4817
497,561,10.2692,-21.7018,0,0,0,0,0,0,0,-1,1721,463,10.2691,21.7018
504,561,10.0769,-0.811401,0,0,0,0,0,0,0,-1,1728,463,10.0769,0.8114
511,561,0,0,0,0,0,0,0,0,0,-1,1735,463,0,0
518,561,0,0,0,0,0,0,0,0,0,-1,1742,463,0,0
525,561,0,0,0,0,0,0,0,0,0,-1,1749,463,0,0
532,561,0,0,0,0,0,0,0,0,0,-1,1756,463,0,0
539,561,0,0,0,0,0,0,0,0,0,-1,1763,463,0,0
546,561,0,0,0,0,0,0,0,0,0,-1,1770,463,0,0
553,561,0,0,0,0,0,0,0,0,0,-1,1777,463,0,0
560,561,0,0,0,0,0,0,0,0,0,-1,1784,463,0,0
567,561,0,0,0,0,0,0,0,0,0,-1,1791,463,0,0
574,561,0,0,0,0,0,0,0,0,0,-1,1798,463,0,0
581,561,0,0,0,0,0,0,0,0,0,-1,1805,463,0,0
588,561,0,0,0,0,0,0,0,0,0,-1,1812,463,0,0
595,561,0,0,0,0,0,0,0,0,0,-1,1819,463,0,0
602,561,0,0,0,0,0,0,0,0,0,-1,1826,463,0,0
609,561,0,0,0,0,0,0,0,0,0,-1,1833,463,0,0
616,561,0,0,0,0,0,0,0,0,0,-1,1840,463,0,0
623,561,0,0,0,0,0,0,0,0,0,-1,1847,463,0,0
630,561,0,0,0,0,0,0,0,0,0,-1,1854,463,0,0
637,561,0,0,0,0,0,0,0,0,0,-1,1861,463,0,0
644,561,0,0,0,0,0,0,0,0,0,-1,1868,463,0,0
651,561,0,0,0,0,0,0,0,0,0,-1,1875,463,0,0
658,561,0,0,0,0,0,0,0,0,0,-1,1882,463,0,0
665,561,0,0,0,0,0,0,0,0,0,-1,1889,463,0,0
672,561,0,0,0,0,0,0,0,0,0,-1,1896,463,0,0
679,561,0,0,0,0,0,0,0,0,0,-1,1903,463,0,0
686,561,0,0,0,0,0,0,0,0,0,-1,1910,463,0,0
693,561,0,0,0,0,0,0,0,0,0,-1,1917,463,0,0
700,561,0,0,0,0,0,0,0,0,0,-1,1924,463,0,0
707,561,0,0,0,0,0,0,0,0,0,-1,1931,463,0,0
714,561,0,0,0,0,0,0,0,0,0,-1,1938,463,0,0
721,561,0,0,0,0,0,0,0,0,0,-1,1945,463,0,0
728,561,0,0,0,0,0,0,0,0,0,-1,1952,463,0,0
735,561,0,0,0,0,0,0,0,0,0,-1,1959,463,0,0
742,561,0,0,0,0,0,0,0,0,0,-1,1966,463,0,0
749,561,0,0,0,0,0,0,0,0,0,-1,1973,463,0,0
756,561,0,0,0,0,0,0,0,0,0,-1,1980,463,0,0
763,561,0,0,0,0,0,0,0,0,0,-1,1987,463,0,0
770,561,0,0,0,0,0,0,0,0,0,-1,1994,463,0,0
777,561,0,0,0,0,0,0,0,0,0,-1,2001,463,0,0
784,561,0,0,0,0,0,0,0,0,0,-1,2008,463,0,0
791,561,0,0,0,0,0,0,0,0,0,-1,2015,463,0,0
798,561,0,0,0,0,0,0,0,0,0,-1,2022,463,0,0
805,561,0,0,0,0,0,0,0,0,0,-1,2029,463,0,0
812,561,0,0,0,0,0,0,0,0,0,-1,2036,463,0,0
-700,554,0,0,0,0,0,0,0,0,0,-1,524,470,0,0
-693,554,0,0,0,0,0,0,0,0,0,-1,531,470,0,0
-686,554,0,0,0,0,0,0,0,0,0,-1,538,470,0,0
-679,554,0,0,0,0,0,0,0,0,0,-1,545,470,0,0
-672,554,0,0,0,0,0,0,0,0,0,-1,552,470,0,0
-665,554,0,0,0,0,0,0,0,0,0,-1,559,470,0,0
-658,554,0,0,0,0,0,0,0,0,0,-1,566,470,0,0
-651,554,0,0,0,0,0,0,0,0,0,-1,573,470,0,0
-644,554,0,0,0,0,0,0,0,0,0,-1,580,470,0,0
-637,554,0,0,0,0,0,0,0,0,0,-1,587,470,0,0
-630,554,0,0,0,0,0,0,0,0,0,-1,594,470,0,0
-623,554,0,0,0,0,0,0,0,0,0,-1,601,470,0,0
-616,554,0,0,0,0,0,0,0,0,0,-1,608,470,0,0
-609,554,0,0,0,0,0,0,0,0,0,-1,615,470,0,0
-602,554,0,0,0,0,0,0,0,0,0,-1,622,470,0,0
-595,554,0,0,0,0,0,0,0,0,0,-1,629,470,0,0
-588,554,0,0,0,0,0,0,0,0,0,-1,636,470,0,0
-581,554,0,0,0,0,0,0,0,0,0,-1,643,470,0,0
-574,554,0,0,0,0,0,0,0,0,0,-1,650,470,0,0
-567,554,0,0,0,0,0,0,0,0,0,-1,657,470,0,0
-560,554,0,0,0,0,0,0,0,0,0,-1,664,470,0,0
-553,554,0,0,0,0,0,0,0,0,0,-1,671,470,0,0
-546,554,0,0,0,0,0,0,0,0,0,-1,678,470,0,0
-539,554,0,0,0,0,0,0,0,0,0,-1,685,470,0,0
-532,554,0,0,0,0,0,0,0,0,0,-1,692,470,0,0
-525,554,0,0,0,0,0,0,0,0,0,-1,699,470,0,0
-518,554,0,0,0,0,0,0,0,0,0,-1,706,470,0,0
-511,554,0,0,0,0,0,0,0,0,0,-1,713,470,0,0
-504,554,0,0,0,0,0,0,0,0,0,-1,720,470,0,0
-497,554,0,0,0,0,0,0,0,0,0,-1,727,470,0,0
-490,554,0,0,0,0,0,0,0,0,0,-1,734,470,0,0
-483,554,0,0,0,0,0,0,0,0,0,-1,741,470,0,0
-476,554,0,0,0,0,0,0,0,0,0,-1,748,470,0,0
-469,554,0,0,0,0,0,0,0,0,0,-1,755,470,0,0
-462,554,0,0,0,0,0,0,0,0,0,-1,762,470,0,0
-455,554,0,0,0,0,0,0,0,0,0,-1,769,470,0,0
-448,554,0,0,0,0,0,0,0,0,0,-1,776,470,0,0
-441,554,0,0,0,0,0,0,0,0,0,-1,783,470,0,0
-434,554,0,0,0,0,0,0,0,0,0,-1,790,470,0,0
-427,554,0,0,0,0,0,0,0,0,0,-1,797,470,0,0
-420,554,0,0,0,0,0,0,0,0,0,-1,804,470,0,0
-413,554,0,0,0,0,0,0,0,0,0,-1,811,470,0,0
-406,554,0,0,0,0,0,0,0,0,0,-1,818,470,0,0
-399,554,-1.32275,-3.95142,0,0,0,0,0,0,0,-1,825,470,-1.32275,3.95141
-392,554,-1.35632,-3.7406,0,0,0,0,0,0,0,-1,832,470,-1.35632,3.7406
-385,554,-0.849243,-4.14447,0,0,0,0,0,0,0,-1,839,470,-0.849262,4.14446
-378,554,-0.982666,-4.55084,0,0,0,0,0,0,0,-1,846,470,-0.982671,4.55084
-371,554,-1.74542,-4.63467,0,0,0,0,0,0,0,-1,853,470,-1.74541,4.63468
-364,554,1.04883,-7.68756,0,0,0,0,0,0,0,-1,860,470,1.0488,7.68757
-357,554,1.35712,-23.1769,0,0,0,0,0,0,0,-1,867,470,1.35711,23.1769
-350,554,1.17157,-18.1341,0,0,0,0,0,0,0,-1,874,470,1.17156,18.1341
-343,554,1.36401,-24.7715,0,0,0,0,0,0,0,-1,881,470,1.36402,24.7715
-336,554,1.51147,-25.9101,-0.00157028,0.00206469,-0.00530143,0.00585152,-0.00535711,-0.950534,0.00647341,0.0442023,888,470,1.51149,25.9101
-329,554,1.29431,-26.5877,-0.00169681,0.000750166,-0.00425273,0.0039519,-0.00489855,-0.925463,0.00511954,0.0217725,895,470,1.29434,26.5877
-322,554,1.22076,-27.2637,-0.00176984,0.00014471,-0.00341518,0.00273424,-0.00435937,-0.922042,0.00413117,0.0139567,902,470,1.22074,27.2637
-315,554,1.23151,-27.9211,-0.00163985,0.000127813,-0.00284218,0.00222041,-0.00373245,-0.936143,0.00347364,0.0140134,909,470,1.2315,27.9211
-308,554,1.18854,-28.5996,-0.00134467,0.00040612,-0.0025918,0.00226637,-0.00320492,-0.948261,0.00317431,0.0144714,916,470,1.18853,28.5996
-301,554,1.16425,-29.289,-0.000922115,0.000724429,-0.00232973,0.00237207,-0.00256976,-0.955238,0.00285393,0.0148534,923,470,1.16422,29.289
-294,554,1.12231,-29.9218,-0.000497778,0.00110196,-0.00203742,0.0024909,-0.00188671,-0.972449,0.00253543,0.0135658,930,470,1.12231,29.9218
-287,554,1.05719,-30.5594,-0.000133401,0.00135043,-0.00167398,0.00243954,-0.00122251,-0.993993,0.00215285,0.0130121,937,470,1.05721,30.5594
-280,554,1.00531,-31.1919,0.000271203,0.00131589,-0.00140748,0.00229482,-0.00070773,-0.963081,0.00181245,0.01284,944,470,1.00532,31.1919
-273,554,0.949036,-31.8139,0.000668458,0.00134199,-0.00109223,0.00214819,-0.000137743,-0.934939,0.00148018,0.0158482,951,470,0.94904,31.8139
-266,554,0.938538,-32.4255,0.000945853,0.000729548,-0.000567439,0.00141535,0.000260047,-0.691229,0.000869941,0.012496,958,470,0.938509,32.4255
-259,554,0.95343,-32.9902,0.00142902,-0.000677484,0.000134398,0.00143756,-0.000686025,0.0634584,0.00125138,0.0129852,965,470,0.953414,32.9902
-252,554,0.929016,-33.5867,0.00234242,-0.0020949,0.000800215,0.00248232,-0.0022348,0.173076,0.00272468,0.0154076,972,470,0.929012,33.5867
-245,554,0.89325,-34.1954,0.00312808,-0.00418486,0.00137479,0.00337799,-0.00443478,0.179818,0.00452444,0.0166248,979,470,0.893223,34.1954
-238,554,0.89386,-34.821,0.00407573,-0.00658864,0.00183162,0.00438154,-0.00689446,0.165438,0.00656387,0.0126063,986,470,0.89383,34.821
-231,554,0.883423,-35.4226,0.0052263,-0.00934416,0.00234854,0.0055955,-0.00971336,0.155925,0.00894452,0.0113118,993,470,0.883409,35.4226
-224,554,0.883789,-35.9724,0.00636245,-0.0122791,0.00281187,0.00677735,-0.012694,0.146498,0.0114135,0.0107109,1000,470,0.883789,35.9724
-217,554,0.894714,-36.5197,0.00750872,-0.0154196,0.00314675,0.00793275,-0.0158436,0.133944,0.0139783,0.0107047,1007,470,0.894734,36.5197
-210,554,0.892334,-37.0693,0.00859411,-0.0185849,0.00328388,0.00898525,-0.018976,0.118551,0.0164834,0.0151224,1014,470,0.892332,37.0693
-203,554,0.892151,-37.5348,0.00969993,-0.0216005,0.0033333,0.010051,-0.0219515,0.104926,0.0188977,0.023439,1021,470,0.892171,37.5348
-196,554,0.922241,-37.9339,0.0107106,-0.0245989,0.00338652,0.0110325,-0.0249208,0.0947584,0.0212676,0.0297653,1028,470,0.922195,37.9339
-189,554,1.00134,-38.3138,0.0112681,-0.0270257,0.00360307,0.0116042,-0.0273618,0.0930025,0.0231021,0.0356295,1035,470,1.00136,38.3138
-182,554,1.10535,-38.6327,0.0114702,-0.0291953,0.00400868,0.0118616,-0.0295867,0.0973284,0.0246488,0.0477943,1042,470,1.1054,38.6327
-175,554,1.0907,-38.8865,0,0,0,0,0,0,0,-1,1049,470,1.0907,38.8865
-168,554,0.991089,-39.8675,0,0,0,0,0,0,0,-1,1056,470,0.991041,39.8675
-161,554,1.00342,-40.2861,0,0,0,0,0,0,0,-1,1063,470,1.00346,40.2861
-154,554,1.2998,-40.5999,0,0,0,0,0,0,0,-1,1070,470,1.29977,40.5999
-147,554,1.4552,-41.5187,0,0,0,0,0,0,0,-1,1077,470,1.45525,41.5187
-140,554,0.428101,-38.9893,0,0,0,0,0,0,0,-1,1084,470,0.428152,38.9893
-133,554,2.67163,-32.8187,0,0,0,0,0,0,0,-1,1091,470,2.67161,32.8187
-126,554,0.851929,-33.5393,0,0,0,0,0,0,0,-1,1098,470,0.851942,33.5393
-119,554,-1.03479,-32.1628,0,0,0,0,0,0,0,-1,1105,470,-1.03476,32.1628
-112,554,1.03162,-24.5784,0,0,0,0,0,0,0,-1,1112,470,1.03156,24.5784
-105,554,0.608765,-21.0475,0,0,0,0,0,0,0,-1,1119,470,0.608728,21.0475
-98,554,1.51929,-7.3624,0,0,0,0,0,0,0,-1,1126,470,1.51928,7.36241
-91,554,1.41089,-6.5864,0,0,0,0,0,0,0,-1,1133,470,1.41093,6.58638
-84,554,1.62305,-5.87186,0,0,0,0,0,0,0,-1,1140,470,1.62299,5.87186
-77,554,-2.56958,1.33258,0,0,0,0,0,0,0,-1,1147,470,-2.56959,-1.33257
-70,554,-3.68164,-1.18332,0,0,0,0,0,0,0,-1,1154,470,-3.68158,1.18331
-63,554,-4.86853,-3.88708,0,0,0,0,0,0,0,-1,1161,470,-4.86853,3.88708
-56,554,-5.69958,-6.45422,0,0,0,0,0,0,0,-1,1168,470,-5.69955,6.45422
-49,554,-6.23645,-8.8569,0,0,0,0,0,0,0,-1,1175,470,-6.23643,8.85689
-42,554,-6.62524,-11.5382,0,0,0,0,0,0,0,-1,1182,470,-6.62522,11.5382
-35,554,-2.40173,-4.59482,0,0,0,0,0,0,0,-1,1189,470,-2.40169,4.59481
-28,554,-0.760132,-1.65555,0,0,0,0,0,0,0,-1,1196,470,-0.760095,1.65556
-21,554,7.92444,-43.2634,0,0,0,0,0,0,0,-1,1203,470,7.92438,43.2634
-14,554,8.76135,-44.3329,0,0,0,0,0,0,0,-1,1210,470,8.76137,44.3329
-7,554,9.30151,-45.2542,0,0,0,0,0,0,0,-1,1217,470,9.30148,45.2542
0,554,9.74341,-44.9688,0,0,0,0,0,0,0,-1,1224,470,9.7434,44.9688
7,554,8.15247,-47.6782,0,0,0,0,0,0,0,-1,1231,470,8.15241,47.6782
14,554,8.4812,-48.2827,0,0,0,0,0,0,0,-1,1238,470,8.48118,48.2827
21,554,8.7179,-48.7563,0,0,0,0,0,0,0,-1,1245,470,8.71791,48.7564
28,554,8.88281,-49.4216,0.00105715,0.0422528,-0.0521924,0.0777648,-0.0344549,-0.973342,0.066379,0.0421894,1252,470,8.8828,49.4216
35,554,9.32446,-49.7953,0.00177629,0.0306868,-0.0616805,0.0795832,-0.0471201,-0.900499,0.0739482,0.0394795,1259,470,9.32443,49.7953
42,554,9.25708,-49.7881,0,0,0,0,0,0,0,-1,1266,470,9.25704,49.7881
49,554,9.81885,-49.6971,-0.00192541,0.00966051,-0.0613024,0.0654431,-0.057708,-0.832507,0.071148,0.0433273,1273,470,9.81887,49.6972
56,554,10.4851,-50.4908,-0.00983872,0.00667809,-0.0477107,0.0468399,-0.0500005,-0.871096,0.0559207,0.0421641,1280,470,10.4851,50.4908
63,554,11.1252,-51.2233,0,0,0,0,0,0,0,-1,1287,470,11.1252,51.2232
70,554,7.19641,-48.2411,0,0,0,0,0,0,0,-1,1294,470,7.19645,48.2412
77,554,6.94214,-47.6946,-0.0394157,0.0147354,0.00839652,0.0160074,-0.0406877,1.42044,0.033751,0.0481451,1301,470,6.94217,47.6946
84,554,6.54761,-47.2437,-0.0512516,0.0229938,0.0294066,0.0332297,-0.0614876,1.23583,0.0554903,0.0463614,1308,470,6.54758,47.2437
91,554,6.11963,-46.8275,0,0,0,0,0,0,0,-1,1315,470,6.11968,46.8275
98,554,3.9707,-46.4166,0,0,0,0,0,0,0,-1,1322,470,3.97065,46.4166
105,554,3.54358,-45.8846,-0.0690834,0.0640994,0.0936704,0.112437,-0.117421,1.0944,0.132718,0.0441581,1329,470,3.54356,45.8846
112,554,2.75122,-45.0222,-0.0700147,0.0816869,0.110616,0.13996,-0.128288,1.08593,0.154922,0.0427708,1336,470,2.75128,45.0222
119,554,1.88965,-44.2407,-0.0661851,0.103162,0.117038,0.162944,-0.125967,1.09855,0.167258,0.0435596,1343,470,1.8897,44.2407
126,554,1.27478,-43.63,-0.0626564,0.124041,0.118245,0.181344,-0.119959,1.11954,0.175157,0.0475546,1350,470,1.2748,43.63
133,554,0.480591,-42.834,0,0,0,0,0,0,0,-1,1357,470,0.48064,42.834
140,554,3.21582,-51.451,0,0,0,0,0,0,0,-1,1364,470,3.2158,51.451
147,554,3.34387,-51.0417,-0.0501428,0.179259,0.105455,0.220369,-0.0912531,1.19908,0.184991,0.0470817,1371,470,3.34382,51.0418
154,554,3.28638,-50.2847,0,0,0,0,0,0,0,-1,1378,470,3.28637,50.2847
161,554,3.40002,-49.7937,0,0,0,0,0,0,0,-1,1385,470,3.40008,49.7937
168,554,7.63,-45.2673,0,0,0,0,0,0,0,-1,1392,470,7.63001,45.2673
175,554,10.663,0.286957,0,0,0,0,0,0,0,-1,1399,470,10.663,-0.286966
182,554,6.71106,-4.50217,0,0,0,0,0,0,0,-1,1406,470,6.71107,4.50215
189,554,6.90479,-2.50348,0,0,0,0,0,0,0,-1,1413,470,6.90477,2.50348
196,554,6.96216,-0.740906,0,0,0,0,0,0,0,-1,1420,470,6.96214,0.740912
203,554,6.43518,0.414154,0,0,0,0,0,0,0,-1,1427,470,6.43523,-0.414141
210,554,6.21167,1.96707,0,0,0,0,0,0,0,-1,1434,470,6.21165,-1.96706
217,554,5.64551,3.4989,0,0,0,0,0,0,0,-1,1441,470,5.64555,-3.49891
224,554,4.85144,-8.85172,0,0,0,0,0,0,0,-1,1448,470,4.85146,8.85173
231,554,3.25073,-5.29642,0,0,0,0,0,0,0,-1,1455,470,3.25078,5.29642
238,554,4.28625,-3.25253,0,0,0,0,0,0,0,-1,1462,470,4.28622,3.25252
245,554,4.0752,-2.90033,0,0,0,0,0,0,0,-1,1469,470,4.07515,2.90032
252,554,3.52112,-0.934998,0,0,0,0,0,0,0,-1,1476,470,3.52113,0.934996
259,554,3.96448,-2.16425,0,0,0,0,0,0,0,-1,1483,470,3.96446,2.16424
266,554,3.0592,-2.71716,0,0,0,0,0,0,0,-1,1490,470,3.05923,2.71718
273,554,2.58521,-3.06876,0,0,0,0,0,0,0,-1,1497,470,2.58524,3.06874
280,554,2.83301,-0.991699,0,0,0,0,0,0,0,-1,1504,470,2.83303,0.991704
287,554,3.54126,-4.12277,0,0,0,0,0,0,0,-1,1511,470,3.54123,4.12277
294,554,3.62036,-8.50146,0,0,0,0,0,0,0,-1,1518,470,3.62031,8.50145
301,554,11.4816,-38.9247,0,0,0,0,0,0,0,-1,1525,470,11.4816,38.9246
308,554,11.7385,-38.7635,0,0,0,0,0,0,0,-1,1532,470,11.7385,38.7635
315,554,11.6095,-38.1531,0,0,0,0,0,0,0,-1,1539,470,11.6095,38.1531
322,554,11.5181,-37.5423,0.00326897,-0.0064058,-0.00555506,0.00579765,-0.00893449,-0.427173,0.00856963,0.0425202,1546,470,11.5181,37.5423
329,554,11.6017,-36.9903,0.00266958,-0.00568485,-0.0050721,0.00506316,-0.00807843,-0.440925,0.00765358,0.0250101,1553,470,11.6017,36.9903
336,554,11.5782,-36.4983,0.00207763,-0.00491465,-0.00456288,0.00432979,-0.0071668,-0.4585,0.00670459,0.0148353,1560,470,11.5783,36.4983
343,554,11.5826,-35.9831,0.00148397,-0.00411822,-0.00403985,0.00359883,-0.00623307,-0.482268,0.00574396,0.0118929,1567,470,11.5827,35.9831
350,554,11.5829,-35.3764,0.000951761,-0.00361254,-0.00361896,0.00294806,-0.00560883,-0.504087,0.00501931,0.0105574,1574,470,11.5829,35.3764
357,554,11.5913,-34.7807,0.000627511,-0.00287773,-0.00307478,0.0024141,-0.00466431,-0.526365,0.00415498,0.0114494,1581,470,11.5913,34.7807
364,554,11.5712,-34.1851,0.000381024,-0.00207535,-0.0024098,0.00185757,-0.0035519,-0.549723,0.00317381,0.00939286,1588,470,11.5712,34.1851
371,554,11.5455,-33.5711,0.000235003,-0.00117225,-0.00173495,0.00140358,-0.00234083,-0.592753,0.00218429,0.00883597,1595,470,11.5455,33.5711
378,554,11.54,-32.9496,0.000107319,-0.000120255,-0.00108256,0.00108205,-0.00109499,-0.733036,0.00125693,0.0110249,1602,470,11.54,32.9496
385,554,11.5253,-32.3246,0.00013799,0.00085975,-0.00043685,0.0010655,-6.7762e-05,-1.13062,0.000733966,0.0109348,1609,470,11.5253,32.3246
392,554,11.5215,-31.6734,0.000368388,0.00168908,0.000167641,0.00171002,0.000347441,1.44649,0.00104366,0.0140066,1616,470,11.5215,31.6734
399,554,11.4922,-31.0317,0.000930762,0.00258056,0.000867504,0.00295275,0.000558572,1.16551,0.00181125,0.0179289,1623,470,11.4922,31.0317
406,554,11.4381,-30.403,0.00175774,0.00392201,0.00193696,0.00505862,0.00062113,1.04014,0.00318562,0.0159934,1630,470,11.4382,30.403
413,554,11.446,-29.7431,0.00252266,0.00503349,0.00282337,0.00686798,0.000688174,0.994596,0.00436737,0.0149014,1637,470,11.4461,29.7431
420,554,11.4077,-29.0941,0.00345409,0.00600868,0.00379263,0.00873332,0.000729443,0.947824,0.00559494,0.016485,1644,470,11.4077,29.0941
427,554,11.3817,-28.4042,0.00457765,0.00684288,0.00497219,0.0108098,0.000610711,0.897383,0.00701185,0.0125262,1651,470,11.3817,28.4042
434,554,11.3436,-27.7291,0.00584008,0.00782633,0.00631923,0.01323,0.000436415,0.86334,0.00867818,0.0106663,1658,470,11.3436,27.7291
441,554,11.3077,-27.0589,0.00714211,0.00876093,0.0078206,0.0158139,8.91481e-05,0.836963,0.010513,0.0116712,1665,470,11.3078,27.0589
448,554,11.2689,-26.3289,0.0083595,0.00948476,0.00942153,0.0183604,-0.000516176,0.815221,0.0124159,0.0190959,1672,470,11.269,26.329
455,554,11.2014,-25.6659,0.00942884,0.00988204,0.0109884,0.0206461,-0.00133527,0.795708,0.0142301,0.021289,1679,470,11.2014,25.6659
462,554,11.1179,-25.0128,0.0103448,0.0101327,0.0125009,0.0227401,-0.00226257,0.781157,0.0159678,0.023199,1686,470,11.1179,25.0128
469,554,11.0593,-24.3415,0.0111287,0.00991614,0.0137717,0.0243074,-0.00326257,0.7634,0.0173948,0.025165,1693,470,11.0594,24.3415
476,554,11.0599,-23.3741,0.0120026,0.00941034,0.0150527,0.0258149,-0.00440195,0.742451,0.0188494,0.0441365,1700,470,11.0599,23.3741
483,554,11.0757,-22.4018,0,0,0,0,0,0,0,-1,1707,470,11.0757,22.4018
490,554,11.0483,-21.6645,0,0,0,0,0,0,0,-1,1714,470,11.0483,21.6645
497,554,11.4208,1.03592,0,0,0,0,0,0,0,-1,1721,470,11.4208,-1.03593
504,554,2.13257,-3.81628,0,0,0,0,0,0,0,-1,1728,470,2.1326,3.8163
511,554,1.31396,-4.02713,0,0,0,0,0,0,0,-1,1735,470,1.31398,4.02712
518,554,5.04236,-5.9472,0,0,0,0,0,0,0,-1,1742,470,5.04231,5.94721
525,554,0,0,0,0,0,0,0,0,0,-1,1749,470,0,0
532,554,0,0,0,0,0,0,0,0,0,-1,1756,470,0,0
539,554,0,0,0,0,0,0,0,0,0,-1,1763,470,0,0
546,554,0,0,0,0,0,0,0,0,0,-1,1770,470,0,0
553,554,0,0,0,0,0,0,0,0,0,-1,1777,470,0,0
560,554,0,0,0,0,0,0,0,0,0,-1,1784,470,0,0
567,554,0,0,0,0,0,0,0,0,0,-1,1791,470,0,0
574,554,0,0,0,0,0,0,0,0,0,-1,1798,470,0,0
581,554,0,0,0,0,0,0,0,0,0,-1,1805,470,0,0
588,554,0,0,0,0,0,0,0,0,0,-1,1812,470,0,0
595,554,0,0,0,0,0,0,0,0,0,-1,1819,470,0,0
602,554,0,0,0,0,0,0,0,0,0,-1,1826,470,0,0
609,554,0,0,0,0,0,0,0,0,0,-1,1833,470,0,0
616,554,0,0,0,0,0,0,0,0,0,-1,1840,470,0,0
623,554,0,0,0,0,0,0,0,0,0,-1,1847,470,0,0
630,554,0,0,0,0,0,0,0,0,0,-1,1854,470,0,0
637,554,0,0,0,0,0,0,0,0,0,-1,1861,470,0,0
644,554,0,0,0,0,0,0,0,0,0,-1,1868,470,0,0
651,554,0,0,0,0,0,0,0,0,0,-1,1875,470,0,0
658,554,0,0,0,0,0,0,0,0,0,-1,1882,470,0,0
665,554,0,0,0,0,0,0,0,0,0,-1,1889,470,0,0
672,554,0,0,0,0,0,0,0,0,0,-1,1896,470,0,0
679,554,0,0,0,0,0,0,0,0,0,-1,1903,470,0,0
686,554,0,0,0,0,0,0,0,0,0,-1,1910,470,0,0
693,554,0,0,0,0,0,0,0,0,0,-1,1917,470,0,0
700,554,0,0,0,0,0,0,0,0,0,-1,1924,470,0,0
707,554,0,0,0,0,0,0,0,0,0,-1,1931,470,0,0
714,554,0,0,0,0,0,0,0,0,0,-1,1938,470,0,0
721,554,0,0,0,0,0,0,0,0,0,-1,1945,470,0,0
728,554,0,0,0,0,0,0,0,0,0,-1,1952,470,0,0
735,554,0,0,0,0,0,0,0,0,0,-1,1959,470,0,0
742,554,0,0,0,0,0,0,0,0,0,-1,1966,470,0,0
749,554,0,0,0,0,0,0,0,0,0,-1,1973,470,0,0
756,554,0,0,0,0,0,0,0,0,0,-1,1980,470,0,0
763,554,0,0,0,0,0,0,0,0,0,-1,1987,470,0,0
770,554,0,0,0,0,0,0,0,0,0,-1,1994,470,0,0
777,554,0,0,0,0,0,0,0,0,0,-1,2001,470,0,0
784,554,0,0,0,0,0,0,0,0,0,-1,2008,470,0,0
791,554,0,0,0,0,0,0,0,0,0,-1,2015,470,0,0
798,554,0,0,0,0,0,0,0,0,0,-1,2022,470,0,0
805,554,0,0,0,0,0,0,0,0,0,-1,2029,470,0,0
812,554,0,0,0,0,0,0,0,0,0,-1,2036,470,0,0
-700,547,0,0,0,0,0,0,0,0,0,-1,524,477,0,0
-693,547,0,0,0,0,0,0,0,0,0,-1,531,477,0,0
-686,547,0,0,0,0,0,0,0,0,0,-1,538,477,0,0
-679,547,0,0,0,0,0,0,0,0,0,-1,545,477,0,0
-672,547,0,0,0,0,0,0,0,0,0,-1,552,477,0,0
-665,547,0,0,0,0,0,0,0,0,0,-1,559,477,0,0
-658,547,0,0,0,0,0,0,0,0,0,-1,566,477,0,0
-651,547,0,0,0,0,0,0,0,0,0,-1,573,477,0,0
-644,547,0,0,0,0,0,0,0,0,0,-1,580,477,0,0
-637,547,0,0,0,0,0,0,0,0,0,-1,587,477,0,0
-630,547,0,0,0,0,0,0,0,0,0,-1,594,477,0,0
-623,547,0,0,0,0,0,0,0,0,0,-1,601,477,0,0
-616,547,0,0,0,0,0,0,0,0,0,-1,608,477,0,0
-609,547,0,0,0,0,0,0,0,0,0,-1,615,477,0,0
-602,547,0,0,0,0,0,0,0,0,0,-1,622,477,0,0
-595,547,0,0,0,0,0,0,0,0,0,-1,629,477,0,0
-588,547,0,0,0,0,0,0,0,0,0,-1,636,477,0,0
-581,547,0,0,0,0,0,0,0,0,0,-1,643,477,0,0
-574,547,0,0,0,0,0,0,0,0,0,-1,650,477,0,0
-567,547,0,0,0,0,0,0,0,0,0,-1,657,477,0,0
-560,547,0,0,0,0,0,0,0,0,0,-1,664,477,0,0
-553,547,0,0,0,0,0,0,0,0,0,-1,671,477,0,0
-546,547,0,0,0,0,0,0,0,0,0,-1,678,477,0,0
-539,547,0,0,0,0,0,0,0,0,0,-1,685,477,0,0
-532,547,0,0,0,0,0,0,0,0,0,-1,692,477,0,0
-525,547,0,0,0,0,0,0,0,0,0,-1,699,477,0,0
-518,547,0,0,0,0,0,0,0,0,0,-1,706,477,0,0
-511,547,0,0,0,0,0,0,0,0,0,-1,713,477,0,0
-504,547,0,0,0,0,0,0,0,0,0,-1,720,477,0,0
-497,547,0,0,0,0,0,0,0,0,0,-1,727,477,0,0
-490,547,0,0,0,0,0,0,0,0,0,-1,734,477,0,0
-483,547,0,0,0,0,0,0,0,0,0,-1,741,477,0,0
-476,547,0,0,0,0,0,0,0,0,0,-1,748,477,0,0
-469,547,0,0,0,0,0,0,0,0,0,-1,755,477,0,0
-462,547,0,0,0,0,0,0,0,0,0,-1,762,477,0,0
-455,547,0,0,0,0,0,0,0,0,0,-1,769,477,0,0
-448,547,0,0,0,0,0,0,0,0,0,-1,776,477,0,0
-441,547,0,0,0,0,0,0,0,0,0,-1,783,477,0,0
-434,547,0,0,0,0,0,0,0,0,0,-1,790,477,0,0
-427,547,0,0,0,0,0,0,0,0,0,-1,797,477,0,0
-420,547,0,0,0,0,0,0,0,0,0,-1,804,477,0,0
-413,547,0,0,0,0,0,0,0,0,0,-1,811,477,0,0
-406,547,0.144592,-11.0292,0,0,0,0,0,0,0,-1,818,477,0.144583,11.0292
-399,547,0.775513,-10.0294,0,0,0,0,0,0,0,-1,825,477,0.775482,10.0295
-392,547,-1.52271,-4.41675,0,0,0,0,0,0,0,-1,832,477,-1.52273,4.41674
-385,547,-1.73743,-4.6431,0,0,0,0,0,0,0,-1,839,477,-1.73743,4.64308
-378,547,-2.41339,-4.60071,0,0,0,0,0,0,0,-1,846,477,-2.41337,4.60071
-371,547,1.64569,-11.1445,0,0,0,0,0,0,0,-1,853,477,1.64569,11.1445
-364,547,0.79718,-22.4899,0,0,0,0,0,0,0,-1,860,477,0.797176,22.4899
-357,547,0.746704,-23.3049,0,0,0,0,0,0,0,-1,867,477,0.746732,23.3049
-350,547,0.824219,-23.9945,0,0,0,0,0,0,0,-1,874,477,0.82419,23.9945
-343,547,0.724365,-24.9117,-7.4312e-05,0.0073122,-0.00669475,0.0112648,-0.00402696,-1.03746,0.00915244,0.049209,881,477,0.724337,24.9117
-336,547,0.722534,-25.8763,-0.000605139,0.0046974,-0.00523301,0.00791244,-0.00382018,-1.01987,0.00690982,0.0207839,888,477,0.722516,25.8763
-329,547,0.628418,-26.5824,-0.000919136,0.00289034,-0.00407641,0.00548507,-0.00351386,-1.00395,0.00523692,0.0116715,895,477,0.628415,26.5824
-322,547,0.607178,-27.2576,-0.00114873,0.00171214,-0.00309944,0.0036953,-0.00313189,-1.00159,0.00394615,0.0116575,902,477,0.607167,27.2576
-315,547,0.575317,-27.9434,-0.00113637,0.00113098,-0.00239242,0.00264473,-0.00265013,-1.00666,0.00305699,0.0106992,909,477,0.575314,27.9433
-308,547,0.528748,-28.5981,-0.000908879,0.000841913,-0.00200396,0.00215333,-0.0022203,-0.991324,0.00252522,0.011631,916,477,0.528724,28.5981
-301,547,0.514526,-29.2527,-0.000599448,0.000839382,-0.00167222,0.00194037,-0.00170043,-0.988539,0.00210354,0.0121332,923,477,0.514552,29.2527
-294,547,0.472229,-29.8728,-0.000217015,0.000886771,-0.0013443,0.00178806,-0.0011183,-0.980179,0.00169278,0.0112274,930,477,0.472248,29.8728
-287,547,0.416199,-30.5101,0.000173074,0.000848575,-0.000946749,0.00151602,-0.000494366,-0.956735,0.00120962,0.0125837,937,477,0.416229,30.5101
-280,547,0.390015,-31.1489,0.0005854,0.000442649,-0.000606718,0.00112493,-9.68773e-05,-0.726846,0.00078424,0.0145764,944,477,0.390004,31.1489
-273,547,0.374146,-31.7763,0.00097183,6.27847e-05,-0.000194712,0.00101178,2.28343e-05,-0.202368,0.000667039,0.0139304,951,477,0.374141,31.7763
-266,547,0.345398,-32.3867,0.00131211,-0.000904321,0.000442427,0.00139716,-0.000989371,0.189919,0.00138456,0.0129767,958,477,0.345414,32.3867
-259,547,0.320251,-32.9759,0.00197668,-0.00244237,0.00125031,0.00230591,-0.0027716,0.257474,0.00293561,0.0117483,965,477,0.320262,32.9759
-252,547,0.326172,-33.5915,0.00319803,-0.00408756,0.0019535,0.00368877,-0.0045783,0.246119,0.0047822,0.0117169,972,477,0.326182,33.5915
-245,547,0.321899,-34.2023,0.00424749,-0.0065924,0.00259074,0.00483485,-0.00717976,0.222947,0.00698054,0.0128684,979,477,0.32191,34.2023
-238,547,0.302368,-34.7982,0.00548573,-0.00940798,0.00307397,0.00609523,-0.0100175,0.195741,0.00939411,0.00918842,986,477,0.302338,34.7982
-231,547,0.289001,-35.3804,0.00700874,-0.0126099,0.00361076,0.00765218,-0.0132533,0.176352,0.0122134,0.00847117,993,477,0.288984,35.3804
-224,547,0.293091,-35.9063,0.00853825,-0.0161073,0.00409163,0.00919978,-0.0167688,0.160292,0.0152038,0.0104488,1000,477,0.293117,35.9062
-217,547,0.303528,-36.4218,0.0101165,-0.0199079,0.00440319,0.0107489,-0.0205403,0.142653,0.0183573,0.0168764,1007,477,0.303554,36.4218
-210,547,0.27063,-36.8591,0.0116419,-0.0237638,0.00442722,0.0121871,-0.024309,0.122529,0.021455,0.0290259,1014,477,0.270603,36.859
-203,547,0.459534,-37.0344,0.0131945,-0.0275032,0.00429047,0.0136419,-0.0279506,0.103901,0.0244825,0.0410771,1021,477,0.459545,37.0344
-196,547,0.751099,-37.2559,0.0144959,-0.0312149,0.00407992,0.0148572,-0.0315762,0.0883247,0.0273815,0.0485175,1028,477,0.751074,37.2559
-189,547,0.702515,-37.8774,0.0152482,-0.0344005,0.00402499,0.0155724,-0.0347246,0.0803701,0.0297325,0.0486491,1035,477,0.702476,37.8774
-182,547,0.731934,-38.0685,0,0,0,0,0,0,0,-1,1042,477,0.731994,38.0685
-175,547,0.609131,-38.4625,0,0,0,0,0,0,0,-1,1049,477,0.609102,38.4625
-168,547,0.761719,-32.9387,0,0,0,0,0,0,0,-1,1056,477,0.761738,32.9387
-161,547,0.0430908,-34.6016,0,0,0,0,0,0,0,-1,1063,477,0.0431231,34.6016
-154,547,-0.284424,-31.1176,0,0,0,0,0,0,0,-1,1070,477,-0.284395,31.1176
-147,547,3.69434,-26.413,0,0,0,0,0,0,0,-1,1077,477,3.69437,26.413
-140,547,1.55676,-22.5229,0,0,0,0,0,0,0,-1,1084,477,1.5568,22.5229
-133,547,2.31665,-17.9421,0,0,0,0,0,0,0,-1,1091,477,2.31667,17.9421
-126,547,-1.15271,-30.6984,0,0,0,0,0,0,0,-1,1098,477,-1.15267,30.6984
-119,547,0.967651,-24.9351,0,0,0,0,0,0,0,-1,1105,477,0.967657,24.9351
-112,547,1.15674,-22.2276,0,0,0,0,0,0,0,-1,1112,477,1.15677,22.2276
-105,547,0.966797,-20.5777,0,0,0,0,0,0,0,-1,1119,477,0.966804,20.5777
-98,547,0.70166,-18.9755,0,0,0,0,0,0,0,-1,1126,477,0.701713,18.9755
-91,547,1.37805,-7.12024,0,0,0,0,0,0,0,-1,1133,477,1.37804,7.12025
-84,547,1.94202,-6.66241,0,0,0,0,0,0,0,-1,1140,477,1.94201,6.66241
-77,547,-2.28357,1.8588,0,0,0,0,0,0,0,-1,1147,477,-2.28356,-1.85879
-70,547,-3.70178,-0.874908,0,0,0,0,0,0,0,-1,1154,477,-3.70182,0.874918
-63,547,-5.12012,-3.60861,0,0,0,0,0,0,0,-1,1161,477,-5.12009,3.60862
-56,547,-6.01917,-6.2399,0,0,0,0,0,0,0,-1,1168,477,-6.01921,6.23991
-49,547,-6.729,-8.60349,0,0,0,0,0,0,0,-1,1175,477,-6.72899,8.60348
-42,547,-2.41736,-5.53012,0,0,0,0,0,0,0,-1,1182,477,-2.41734,5.53011
-35,547,-2.96838,-4.45734,0,0,0,0,0,0,0,-1,1189,477,-2.96839,4.45734
-28,547,-0.869141,-1.29901,0,0,0,0,0,0,0,-1,1196,477,-0.869135,1.29901
-21,547,-7.68262,-30.8089,0,0,0,0,0,0,0,-1,1203,477,-7.68256,30.8089
-14,547,9.56482,-44.7078,0,0,0,0,0,0,0,-1,1210,477,9.56486,44.7078
-7,547,9.69824,-45.5137,0,0,0,0,0,0,0,-1,1217,477,9.69819,45.5137
0,547,9.78687,-46.166,0,0,0,0,0,0,0,-1,1224,477,9.78691,46.166
7,547,9.12305,-44.3668,0,0,0,0,0,0,0,-1,1231,477,9.12307,44.3668
14,547,0,0,0,0,0,0,0,0,0,-1,1238,477,0,0
21,547,0,0,0,0,0,0,0,0,0,-1,1245,477,0,0
28,547,0,0,0,0,0,0,0,0,0,-1,1252,477,0,0
35,547,0,0,0,0,0,0,0,0,0,-1,1259,477,0,0
42,547,0,0,0,0,0,0,0,0,0,-1,1266,477,0,0
49,547,0,0,0,0,0,0,0,0,0,-1,1273,477,0,0
56,547,0,0,0,0,0,0,0,0,0,-1,1280,477,0,0
63,547,0,0,0,0,0,0,0,0,0,-1,1287,477,0,0
70,547,0,0,0,0,0,0,0,0,0,-1,1294,477,0,0
77,547,0,0,0,0,0,0,0,0,0,-1,1301,477,0,0
84,547,0,0,0,0,0,0,0,0,0,-1,1308,477,0,0
91,547,0,0,0,0,0,0,0,0,0,-1,1315,477,0,0
98,547,0,0,0,0,0,0,0,0,0,-1,1322,477,0,0
105,547,2.38171,-46.4075,-0.0926322,0.0814398,0.101302,0.12796,-0.139153,1.1403,0.154263,0.0441529,1329,477,2.38169,46.4075
112,547,1.68225,-45.7412,-0.096774,0.098819,0.122903,0.158087,-0.156042,1.12146,0.181364,0.0434647,1336,477,1.68225,45.7412
119,547,0.990234,-44.9885,0,0,0,0,0,0,0,-1,1343,477,0.990241,44.9885
126,547,0.11438,-44.1447,0,0,0,0,0,0,0,-1,1350,477,0.114329,44.1447
133,547,1.52161,-52.3094,0,0,0,0,0,0,0,-1,1357,477,1.52165,52.3094
140,547,1.93408,-52.1425,0,0,0,0,0,0,0,-1,1364,477,1.93407,52.1425
147,547,2.3175,-51.9788,0,0,0,0,0,0,0,-1,1371,477,2.31756,51.9788
154,547,2.41858,-51.2178,0,0,0,0,0,0,0,-1,1378,477,2.41856,51.2178
161,547,5.91479,-45.2469,0,0,0,0,0,0,0,-1,1385,477,5.91475,45.2469
168,547,-0.28186,-46.5668,0,0,0,0,0,0,0,-1,1392,477,-0.281851,46.5668
175,547,3.35034,-0.26532,0,0,0,0,0,0,0,-1,1399,477,3.3503,0.265306
182,547,4.26038,3.72672,0,0,0,0,0,0,0,-1,1406,477,4.26039,-3.7267
189,547,3.40454,1.28671,0,0,0,0,0,0,0,-1,1413,477,3.40457,-1.28673
196,547,3.53931,1.87793,0,0,0,0,0,0,0,-1,1420,477,3.53928,-1.87794
203,547,6.49414,-0.425842,0,0,0,0,0,0,0,-1,1427,477,6.4941,0.425844
210,547,4.82092,0.53595,0,0,0,0,0,0,0,-1,1434,477,4.82096,-0.535942
217,547,4.68579,0.480072,0,0,0,0,0,0,0,-1,1441,477,4.68577,-0.480069
224,547,4.55615,0.739807,0,0,0,0,0,0,0,-1,1448,477,4.55613,-0.73981
231,547,5.90869,-3.57721,0,0,0,0,0,0,0,-1,1455,477,5.90871,3.57722
238,547,5.50049,-3.15356,0,0,0,0,0,0,0,-1,1462,477,5.50045,3.15356
245,547,5.13708,-2.65213,0,0,0,0,0,0,0,-1,1469,477,5.13708,2.65212
252,547,3.73511,-0.645233,0,0,0,0,0,0,0,-1,1476,477,3.73515,0.645237
259,547,5.86816,-3.20816,0,0,0,0,0,0,0,-1,1483,477,5.86815,3.20816
266,547,5.40222,-2.45731,0,0,0,0,0,0,0,-1,1490,477,5.40221,2.45732
273,547,3.05737,0.495789,0,0,0,0,0,0,0,-1,1497,477,3.05742,-0.49578
280,547,2.0885,1.47797,0,0,0,0,0,0,0,-1,1504,477,2.08848,-1.47795
287,547,2.31177,-2.21716,0,0,0,0,0,0,0,-1,1511,477,2.31174,2.21717
294,547,2.4823,-3.03659,0,0,0,0,0,0,0,-1,1518,477,2.48229,3.0366
301,547,4.72119,-3.93454,0,0,0,0,0,0,0,-1,1525,477,4.72119,3.93453
308,547,12.5959,-38.7772,0,0,0,0,0,0,0,-1,1532,477,12.5959,38.7772
315,547,3.58496,-6.62112,0,0,0,0,0,0,0,-1,1539,477,3.58497,6.62113
322,547,12.0417,-37.3793,0,0,0,0,0,0,0,-1,1546,477,12.0418,37.3793
329,547,12.2053,-36.8934,0,0,0,0,0,0,0,-1,1553,477,12.2053,36.8933
336,547,12.3225,-36.519,0.00189393,-0.00636211,-0.00620678,0.00522008,-0.00968826,-0.491946,0.00873525,0.0393341,1560,477,12.3226,36.519
343,547,12.2644,-35.9895,0.00121417,-0.00548743,-0.00558911,0.00437997,-0.00865323,-0.515364,0.00765835,0.0343108,1567,477,12.2643,35.9895
350,547,12.2213,-35.3657,0.00062269,-0.00516111,-0.00516181,0.00364749,-0.00818591,-0.530059,0.00699751,0.024828,1574,477,12.2213,35.3657
357,547,12.207,-34.7718,0.000300136,-0.00445533,-0.00456654,0.00307088,-0.00722608,-0.545368,0.00610417,0.0156586,1581,477,12.207,34.7718
364,547,12.1796,-34.1544,6.4901e-05,-0.00365306,-0.00384306,0.00247498,-0.00606315,-0.560127,0.00507252,0.0105652,1588,477,12.1796,34.1544
371,547,12.1758,-33.5326,-4.73842e-05,-0.00272892,-0.00311191,0.0020003,-0.00477661,-0.58199,0.0040206,0.0100606,1595,477,12.1757,33.5326
378,547,12.1658,-32.9092,-0.00015803,-0.00161975,-0.00235354,0.00157551,-0.00335329,-0.634851,0.0029067,0.0116084,1602,477,12.1657,32.9092
385,547,12.1512,-32.2869,-0.000114641,-0.000604309,-0.00153105,0.00119103,-0.00190998,-0.706113,0.00180634,0.0118993,1609,477,12.1513,32.2869
392,547,12.1326,-31.6523,6.84033e-05,0.000187818,-0.000774475,0.000904883,-0.000648662,-0.823869,0.000900997,0.0119993,1616,477,12.1326,31.6522
399,547,12.0842,-31.008,0.000418859,0.00105065,-0.000101957,0.0010667,0.000402813,-1.4147,0.000621975,0.0134649,1623,477,12.0842,31.008
406,547,12.0693,-30.372,0.000969292,0.00216004,0.000772699,0.00254014,0.000589201,1.11365,0.00153519,0.0132905,1630,477,12.0693,30.372
413,547,12.0829,-29.7396,0.00159116,0.00324986,0.00165438,0.00427113,0.000569889,1.01774,0.00267775,0.0135858,1637,477,12.0829,29.7396
420,547,12.0634,-29.0997,0.00229752,0.00415563,0.00254996,0.00594051,0.000512648,0.960095,0.003801,0.0161221,1644,477,12.0633,29.0997
427,547,12.0299,-28.4051,0.00312293,0.00494303,0.00359278,0.00773923,0.000326735,0.909439,0.0050541,0.0154361,1651,477,12.0299,28.4051
434,547,11.9635,-27.738,0.00406263,0.00577586,0.00475225,0.00974808,9.04114e-05,0.874568,0.00646879,0.0103341,1658,477,11.9635,27.738
441,547,11.9332,-27.0894,0.00502546,0.00657552,0.00601316,0.0118634,-0.00026241,0.84949,0.00799783,0.010958,1665,477,11.9332,27.0894
448,547,11.8923,-26.3862,0.00591429,0.00717553,0.00731686,0.0138889,-0.000799079,0.828386,0.00953679,0.0121936,1672,477,11.8924,26.3862
455,547,11.8735,-25.7137,0.00666984,0.00754267,0.0085701,0.0156875,-0.00147496,0.810838,0.010983,0.0117958,1679,477,11.8735,25.7137
462,547,11.8328,-25.0313,0.00731931,0.00776055,0.00974609,0.0172885,-0.00220866,0.796714,0.012328,0.0117514,1686,477,11.8327,25.0313
469,547,11.7533,-24.3059,0.00791847,0.00761883,0.0107238,0.0184935,-0.0029562,0.778413,0.0134233,0.0201996,1693,477,11.7533,24.3059
476,547,11.7555,-23.3209,0.00861904,0.00734628,0.0117784,0.0197783,-0.00381294,0.75841,0.0146231,0.0374766,1700,477,11.7554,23.3209
483,547,11.7844,-22.2754,0,0,0,0,0,0,0,-1,1707,477,11.7844,22.2754
490,547,3.65271,-3.71707,0,0,0,0,0,0,0,-1,1714,477,3.65277,3.71708
497,547,2.55481,-3.81421,0,0,0,0,0,0,0,-1,1721,477,2.55476,3.8142
504,547,4.01953,-2.22714,0,0,0,0,0,0,0,-1,1728,477,4.0195,2.22713
511,547,5.2146,-6.9552,0,0,0,0,0,0,0,-1,1735,477,5.21464,6.95521
518,547,5.24243,-6.56122,0,0,0,0,0,0,0,-1,1742,477,5.24241,6.56121
525,547,5.89368,-5.49866,0,0,0,0,0,0,0,-1,1749,477,5.89372,5.49866
532,547,0,0,0,0,0,0,0,0,0,-1,1756,477,0,0
539,547,0,0,0,0,0,0,0,0,0,-1,1763,477,0,0
546,547,0,0,0,0,0,0,0,0,0,-1,1770,477,0,0
553,547,0,0,0,0,0,0,0,0,0,-1,1777,477,0,0
560,547,0,0,0,0,0,0,0,0,0,-1,1784,477,0,0
567,547,0,0,0,0,0,0,0,0,0,-1,1791,477,0,0
574,547,0,0,0,0,0,0,0,0,0,-1,1798,477,0,0
581,547,0,0,0,0,0,0,0,0,0,-1,1805,477,0,0
588,547,0,0,0,0,0,0,0,0,0,-1,1812,477,0,0
595,547,0,0,0,0,0,0,0,0,0,-1,1819,477,0,0
602,547,0,0,0,0,0,0,0,0,0,-1,1826,477,0,0
609,547,0,0,0,0,0,0,0,0,0,-1,1833,477,0,0
616,547,0,0,0,0,0,0,0,0,0,-1,1840,477,0,0
623,547,0,0,0,0,0,0,0,0,0,-1,1847,477,0,0
630,547,0,0,0,0,0,0,0,0,0,-1,1854,477,0,0
637,547,0,0,0,0,0,0,0,0,0,-1,1861,477,0,0
644,547,0,0,0,0,0,0,0,0,0,-1,1868,477,0,0
651,547,0,0,0,0,0,0,0,0,0,-1,1875,477,0,0
658,547,0,0,0,0,0,0,0,0,0,-1,1882,477,0,0
665,547,0,0,0,0,0,0,0,0,0,-1,1889,477,0,0
672,547,0,0,0,0,0,0,0,0,0,-1,1896,477,0,0
679,547,0,0,0,0,0,0,0,0,0,-1,1903,477,0,0
686,547,0,0,0,0,0,0,0,0,0,-1,1910,477,0,0
693,547,0,0,0,0,0,0,0,0,0,-1,1917,477,0,0
700,547,0,0,0,0,0,0,0,0,0,-1,1924,477,0,0
707,547,0,0,0,0,0,0,0,0,0,-1,1931,477,0,0
714,547,0,0,0,0,0,0,0,0,0,-1,1938,477,0,0
721,547,0,0,0,0,0,0,0,0,0,-1,1945,477,0,0
728,547,0,0,0,0,0,0,0,0,0,-1,1952,477,0,0
735,547,0,0,0,0,0,0,0,0,0,-1,1959,477,0,0
742,547,0,0,0,0,0,0,0,0,0,-1,1966,477,0,0
749,547,0,0,0,0,0,0,0,0,0,-1,1973,477,0,0
756,547,0,0,0,0,0,0,0,0,0,-1,1980,477,0,0
763,547,0,0,0,0,0,0,0,0,0,-1,1987,477,0,0
770,547,0,0,0,0,0,0,0,0,0,-1,1994,477,0,0
777,547,0,0,0,0,0,0,0,0,0,-1,2001,477,0,0
784,547,0,0,0,0,0,0,0,0,0,-1,2008,477,0,0
791,547,0,0,0,0,0,0,0,0,0,-1,2015,477,0,0
798,547,0,0,0,0,0,0,0,0,0,-1,2022,477,0,0
805,547,0,0,0,0,0,0,0,0,0,-1,2029,477,0,0
812,547,0,0,0,0,0,0,0,0,0,-1,2036,477,0,0
-700,540,0,0,0,0,0,0,0,0,0,-1,524,484,0,0
-693,540,0,0,0,0,0,0,0,0,0,-1,531,484,0,0
-686,540,0,0,0,0,0,0,0,0,0,-1,538,484,0,0
-679,540,0,0,0,0,0,0,0,0,0,-1,545,484,0,0
-672,540,0,0,0,0,0,0,0,0,0,-1,552,484,0,0
-665,540,0,0,0,0,0,0,0,0,0,-1,559,484,0,0
-658,540,0,0,0,0,0,0,0,0,0,-1,566,484,0,0
-651,540,0,0,0,0,0,0,0,0,0,-1,573,484,0,0
-644,540,0,0,0,0,0,0,0,0,0,-1,580,484,0,0
-637,540,0,0,0,0,0,0,0,0,0,-1,587,484,0,0
-630,540,0,0,0,0,0,0,0,0,0,-1,594,484,0,0
-623,540,0,0,0,0,0,0,0,0,0,-1,601,484,0,0
-616,540,0,0,0,0,0,0,0,0,0,-1,608,484,0,0
-609,540,0,0,0,0,0,0,0,0,0,-1,615,484,0,0
-602,540,0,0,0,0,0,0,0,0,0,-1,622,484,0,0
-595,540,0,0,0,0,0,0,0,0,0,-1,629,484,0,0
-588,540,0,0,0,0,0,0,0,0,0,-1,636,484,0,0
-581,540,0,0,0,0,0,0,0,0,0,-1,643,484,0,0
-574,540,0,0,0,0,0,0,0,0,0,-1,650,484,0,0
-567,540,0,0,0,0,0,0,0,0,0,-1,657,484,0,0
-560,540,0,0,0,0,0,0,0,0,0,-1,664,484,0,0
-553,540,0,0,0,0,0,0,0,0,0,-1,671,484,0,0
-546,540,0,0,0,0,0,0,0,0,0,-1,678,484,0,0
-539,540,0,0,0,0,0,0,0,0,0,-1,685,484,0,0
-532,540,0,0,0,0,0,0,0,0,0,-1,692,484,0,0
-525,540,0,0,0,0,0,0,0,0,0,-1,699,484,0,0
-518,540,0,0,0,0,0,0,0,0,0,-1,706,484,0,0
-511,540,0,0,0,0,0,0,0,0,0,-1,713,484,0,0
-504,540,0,0,0,0,0,0,0,0,0,-1,720,484,0,0
-497,540,0,0,0,0,0,0,0,0,0,-1,727,484,0,0
-490,540,0,0,0,0,0,0,0,0,0,-1,734,484,0,0
-483,540,0,0,0,0,0,0,0,0,0,-1,741,484,0,0
-476,540,0,0,0,0,0,0,0,0,0,-1,748,484,0,0
-469,540,0,0,0,0,0,0,0,0,0,-1,755,484,0,0
-462,540,0,0,0,0,0,0,0,0,0,-1,762,484,0,0
-455,540,0,0,0,0,0,0,0,0,0,-1,769,484,0,0
-448,540,0,0,0,0,0,0,0,0,0,-1,776,484,0,0
-441,540,0,0,0,0,0,0,0,0,0,-1,783,484,0,0
-434,540,0,0,0,0,0,0,0,0,0,-1,790,484,0,0
-427,540,0,0,0,0,0,0,0,0,0,-1,797,484,0,0
-420,540,0.227051,-10.0402,0,0,0,0,0,0,0,-1,804,484,0.227063,10.0402
-413,540,-0.0393677,-10.3862,0,0,0,0,0,0,0,-1,811,484,-0.0393683,10.3862
-406,540,-0.518372,-11.5288,0,0,0,0,0,0,0,-1,818,484,-0.518402,11.5288
-399,540,0.0863037,-11.3801,0,0,0,0,0,0,0,-1,825,484,0.0863201,11.3801
-392,540,-0.517395,-10.6735,0,0,0,0,0,0,0,-1,832,484,-0.517377,10.6735
-385,540,-2.29407,-5.03418,0,0,0,0,0,0,0,-1,839,484,-2.29408,5.03418
-378,540,1.06445,-10.5824,0,0,0,0,0,0,0,-1,846,484,1.06446,10.5824
-371,540,0.426575,-21.524,0,0,0,0,0,0,0,-1,853,484,0.426597,21.524
-364,540,0.339294,-22.5097,0.00543584,0.0220033,-0.0131822,0.0292884,-0.00184932,-1.06592,0.0201703,0.0488795,860,484,0.339306,22.5097
-357,540,0.14679,-23.4033,0.00339766,0.0166156,-0.0105399,0.0224472,-0.0024339,-1.06543,0.0158386,0.0469134,867,484,0.146765,23.4033
-350,540,0.174866,-24.0985,0.00188093,0.0120789,-0.0082735,0.0166985,-0.00273865,-1.06156,0.0121485,0.036519,874,484,0.174877,24.0985
-343,540,0.0771484,-25.106,0.00086467,0.00846756,-0.00639895,0.0121091,-0.00277684,-1.05342,0.00914003,0.0206458,881,484,0.0771284,25.106
-336,540,0.00592041,-25.9644,0.00021253,0.0058426,-0.0049189,0.00869502,-0.00263988,-1.0453,0.00684839,0.0147707,888,484,0.0059183,25.9644
-329,540,-0.0543823,-26.6077,-0.000221228,0.0038684,-0.00372454,0.00607252,-0.00242535,-1.03644,0.00505463,0.0105664,895,484,-0.0543699,26.6077
-322,540,-0.0692139,-27.2523,-0.000559426,0.00242785,-0.00268047,0.00400274,-0.00213432,-1.03959,0.00359756,0.0142382,902,484,-0.0691935,27.2523
-315,540,-0.0922241,-27.918,-0.00063798,0.00154584,-0.00189818,0.00264376,-0.0017359,-1.04641,0.00254665,0.0132932,909,484,-0.092237,27.918
-308,540,-0.115906,-28.5643,-0.000470386,0.000906752,-0.00140083,0.0017791,-0.00134273,-1.01383,0.00180825,0.0126513,916,484,-0.115932,28.5642
-301,540,-0.151855,-29.1915,-0.000203502,0.00065676,-0.000987327,0.00130358,-0.000850323,-0.990827,0.0012527,0.0130504,923,484,-0.151855,29.1915
-294,540,-0.170166,-29.8226,0.000170361,0.000482185,-0.000592273,0.000938724,-0.000286178,-0.9141,0.000739893,0.0116619,930,484,-0.170162,29.8226
-287,540,-0.194946,-30.4763,0.000595587,0.000238269,-0.000153661,0.000652577,0.000181278,-0.355159,0.000388971,0.00881958,937,484,-0.19493,30.4762
-280,540,-0.229309,-31.1166,0.00102612,-0.000465946,0.000255613,0.0010687,-0.000508522,0.165047,0.000929554,0.0105277,944,484,-0.229337,31.1166
-273,540,-0.224854,-31.7375,0.00141642,-0.00118944,0.000747446,0.00161559,-0.00138861,0.260415,0.00173613,0.0130981,951,484,-0.224827,31.7375
-266,540,-0.237671,-32.3597,0.00183871,-0.00246158,0.0014741,0.0022955,-0.00291837,0.300492,0.00301738,0.0140961,958,484,-0.237663,32.3597
-259,540,-0.279785,-32.9782,0.00270571,-0.00405371,0.00234195,0.00343783,-0.00478583,0.302987,0.00476915,0.0126542,965,484,-0.279788,32.9782
-252,540,-0.281433,-33.5676,0.00426444,-0.00587914,0.00302053,0.00509575,-0.00671045,0.268572,0.00683753,0.0121238,972,484,-0.281426,33.5677
-245,540,-0.279968,-34.1709,0.00561011,-0.00879007,0.00367384,0.00649324,-0.0096732,0.235907,0.0093937,0.0124648,979,484,-0.279952,34.1709
-238,540,-0.299988,-34.7355,0.00718989,-0.0120612,0.00415797,0.00804957,-0.0129208,0.203881,0.0122157,0.0102472,986,484,-0.300018,34.7355
-231,540,-0.290894,-35.2816,0.00918364,-0.0157841,0.00469521,0.0100374,-0.0166379,0.179868,0.0155573,0.0144296,993,484,-0.290875,35.2816
-224,540,-0.313171,-35.7984,0.0112217,-0.0200097,0.0051978,0.0120641,-0.0208521,0.160661,0.0192286,0.0235168,1000,484,-0.313192,35.7984
-217,540,-0.391174,-36.1848,0.0133929,-0.0247131,0.00550628,0.0141726,-0.0254928,0.140666,0.0232096,0.0354834,1007,484,-0.391168,36.1848
-210,540,-0.359375,-36.5906,0.015561,-0.0295328,0.00541542,0.0162023,-0.0301741,0.11786,0.0271774,0.0452119,1014,484,-0.359365,36.5906
-203,540,0.248535,-37.0677,0.0177395,-0.034439,0.00517568,0.0182479,-0.0349474,0.0979206,0.0312127,0.0476868,1021,484,0.248514,37.0677
-196,540,0.672363,-37.274,0,0,0,0,0,0,0,-1,1028,484,0.672343,37.274
-189,540,0.349976,-37.5828,0,0,0,0,0,0,0,-1,1035,484,0.349993,37.5828
-182,540,0.109375,-15.2948,0,0,0,0,0,0,0,-1,1042,484,0.109331,15.2948
-175,540,1.73413,-10.728,0,0,0,0,0,0,0,-1,1049,484,1.73414,10.728
-168,540,1.18164,-7.65347,0,0,0,0,0,0,0,-1,1056,484,1.18163,7.65347
-161,540,-0.405884,-9.86481,0,0,0,0,0,0,0,-1,1063,484,-0.405886,9.8648
-154,540,1.96863,-22.0727,0,0,0,0,0,0,0,-1,1070,484,1.96859,22.0727
-147,540,1.32764,-21.9952,0,0,0,0,0,0,0,-1,1077,484,1.32762,21.9952
-140,540,1.40735,-15.6289,0,0,0,0,0,0,0,-1,1084,484,1.4073,15.6289
-133,540,2.28345,-17.6413,0,0,0,0,0,0,0,-1,1091,484,2.2835,17.6413
-126,540,1.25293,-23.9108,0,0,0,0,0,0,0,-1,1098,484,1.25288,23.9108
-119,540,1.55969,-23.0125,0,0,0,0,0,0,0,-1,1105,484,1.55968,23.0125
-112,540,1.4801,-21.6515,0,0,0,0,0,0,0,-1,1112,484,1.4801,21.6515
-105,540,1.30078,-19.8938,0,0,0,0,0,0,0,-1,1119,484,1.30077,19.8938
-98,540,1.08105,-18.1304,0,0,0,0,0,0,0,-1,1126,484,1.08101,18.1304
-91,540,1.56519,-7.48666,0,0,0,0,0,0,0,-1,1133,484,1.56514,7.48667
-84,540,-0.945923,4.43073,0,0,0,0,0,0,0,-1,1140,484,-0.945891,-4.43074
-77,540,-2.28894,2.14368,0,0,0,0,0,0,0,-1,1147,484,-2.28894,-2.14368
-70,540,-3.75244,-0.452576,0,0,0,0,0,0,0,-1,1154,484,-3.75244,0.452576
-63,540,-5.26257,-3.04767,0,0,0,0,0,0,0,-1,1161,484,-5.26262,3.04766
-56,540,-5.19055,-6.12595,0,0,0,0,0,0,0,-1,1168,484,-5.19057,6.12595
-49,540,-5.63867,-8.52298,0,0,0,0,0,0,0,-1,1175,484,-5.63871,8.52298
-42,540,0,0,0,0,0,0,0,0,0,-1,1182,484,0,0
-35,540,0,0,0,0,0,0,0,0,0,-1,1189,484,0,0
-28,540,0,0,0,0,0,0,0,0,0,-1,1196,484,0,0
-21,540,0,0,0,0,0,0,0,0,0,-1,1203,484,0,0
-14,540,0,0,0,0,0,0,0,0,0,-1,1210,484,0,0
-7,540,0,0,0,0,0,0,0,0,0,-1,1217,484,0,0
0,540,0,0,0,0,0,0,0,0,0,-1,1224,484,0,0
7,540,0,0,0,0,0,0,0,0,0,-1,1231,484,0,0
14,540,0,0,0,0,0,0,0,0,0,-1,1238,484,0,0
21,540,0,0,0,0,0,0,0,0,0,-1,1245,484,0,0
28,540,0,0,0,0,0,0,0,0,0,-1,1252,484,0,0
35,540,0,0,0,0,0,0,0,0,0,-1,1259,484,0,0
42,540,0,0,0,0,0,0,0,0,0,-1,1266,484,0,0
49,540,0,0,0,0,0,0,0,0,0,-1,1273,484,0,0
56,540,0,0,0,0,0,0,0,0,0,-1,1280,484,0,0
63,540,0,0,0,0,0,0,0,0,0,-1,1287,484,0,0
70,540,0,0,0,0,0,0,0,0,0,-1,1294,484,0,0
77,540,0,0,0,0,0,0,0,0,0,-1,1301,484,0,0
84,540,0,0,0,0,0,0,0,0,0,-1,1308,484,0,0
91,540,0,0,0,0,0,0,0,0,0,-1,1315,484,0,0
98,540,0,0,0,0,0,0,0,0,0,-1,1322,484,0,0
105,540,0,0,0,0,0,0,0,0,0,-1,1329,484,0,0
112,540,0,0,0,0,0,0,0,0,0,-1,1336,484,0,0
119,540,0,0,0,0,0,0,0,0,0,-1,1343,484,0,0
126,540,0,0,0,0,0,0,0,0,0,-1,1350,484,0,0
133,540,0,0,0,0,0,0,0,0,0,-1,1357,484,0,0
140,540,0,0,0,0,0,0,0,0,0,-1,1364,484,0,0
147,540,0,0,0,0,0,0,0,0,0,-1,1371,484,0,0
154,540,0,0,0,0,0,0,0,0,0,-1,1378,484,0,0
161,540,0,0,0,0,0,0,0,0,0,-1,1385,484,0,0
168,540,3.05078,-0.0010376,0,0,0,0,0,0,0,-1,1392,484,3.05084,0.00102554
175,540,3.37708,0.617035,0,0,0,0,0,0,0,-1,1399,484,3.37707,-0.617046
182,540,3.32678,1.23267,0,0,0,0,0,0,0,-1,1406,484,3.32678,-1.23266
189,540,3.5813,2.15619,0,0,0,0,0,0,0,-1,1413,484,3.58129,-2.1562
196,540,1.84448,-0.801483,0,0,0,0,0,0,0,-1,1420,484,1.84446,0.80148
203,540,4.14648,0.702087,0,0,0,0,0,0,0,-1,1427,484,4.14645,-0.702089
210,540,4.50671,-0.56076,0,0,0,0,0,0,0,-1,1434,484,4.50667,0.560771
217,540,5.00452,-0.278717,0,0,0,0,0,0,0,-1,1441,484,5.00452,0.278709
224,540,6.44458,-2.83527,0,0,0,0,0,0,0,-1,1448,484,6.44457,2.83525
231,540,6.9231,-3.10504,0,0,0,0,0,0,0,-1,1455,484,6.92307,3.10505
238,540,6.4823,-2.58365,0,0,0,0,0,0,0,-1,1462,484,6.48225,2.58363
245,540,6.02087,-1.97916,0,0,0,0,0,0,0,-1,1469,484,6.02088,1.97915
252,540,6.50647,-3.56006,0,0,0,0,0,0,0,-1,1476,484,6.50649,3.56006
259,540,6.01941,-2.798,0,0,0,0,0,0,0,-1,1483,484,6.01941,2.79801
266,540,5.5332,-2.02853,0,0,0,0,0,0,0,-1,1490,484,5.53323,2.02855
273,540,5.06787,-1.28137,0,0,0,0,0,0,0,-1,1497,484,5.06786,1.28136
280,540,1.62903,-2.14609,0,0,0,0,0,0,0,-1,1504,484,1.62906,2.1461
287,540,1.97156,-2.45053,0,0,0,0,0,0,0,-1,1511,484,1.97159,2.45053
294,540,2.44165,-2.6185,0,0,0,0,0,0,0,-1,1518,484,2.44167,2.6185
301,540,4.36169,-2.54272,0,0,0,0,0,0,0,-1,1525,484,4.36165,2.54272
308,540,4.2019,-4.30469,0,0,0,0,0,0,0,-1,1532,484,4.20193,4.3047
315,540,4.45923,-5.32101,0,0,0,0,0,0,0,-1,1539,484,4.45923,5.32103
322,540,4.71655,-6.33737,0,0,0,0,0,0,0,-1,1546,484,4.71653,6.33736
329,540,5.8949,-12.9383,0,0,0,0,0,0,0,-1,1553,484,5.89492,12.9383
336,540,13.0979,-36.6837,0,0,0,0,0,0,0,-1,1560,484,13.0979,36.6837
343,540,12.951,-36.0762,0,0,0,0,0,0,0,-1,1567,484,12.9511,36.0762
350,540,12.817,-35.388,0,0,0,0,0,0,0,-1,1574,484,12.8171,35.388
357,540,12.9414,-34.5024,-0.000362866,-0.00600738,-0.00626166,0.00368317,-0.0100534,-0.573672,0.00821017,0.044235,1581,484,12.9414,34.5024
364,540,12.7799,-34.0614,-0.000537515,-0.00513586,-0.0054203,0.00305108,-0.00872446,-0.584811,0.00705673,0.025756,1588,484,12.7799,34.0614
371,540,12.7726,-33.4952,-0.000568065,-0.00410888,-0.00457394,0.00256615,-0.00724309,-0.600746,0.00587402,0.0174182,1595,484,12.7725,33.4953
378,540,12.7972,-32.876,-0.000611479,-0.00285569,-0.00364687,0.00208201,-0.00554918,-0.63615,0.00455493,0.0138585,1602,484,12.7973,32.8761
385,540,12.7793,-32.2542,-0.000507981,-0.00176622,-0.00261406,0.0015516,-0.0038258,-0.66731,0.00319585,0.0138908,1609,484,12.7794,32.2542
392,540,12.7386,-31.6211,-0.000318471,-0.00104366,-0.00173798,0.00109434,-0.00245647,-0.682558,0.00209974,0.0120504,1616,484,12.7386,31.6211
399,540,12.7186,-31.0056,-0.00012469,-0.000190223,-0.00110906,0.000952087,-0.001267,-0.77063,0.00128548,0.0161746,1623,484,12.7187,31.0055
406,540,12.7438,-30.364,0.000234153,0.000701082,-0.000420308,0.000948413,-1.31787e-05,-1.03891,0.000636714,0.0178865,1630,484,12.7438,30.364
413,540,12.7247,-29.7136,0.000801902,0.00177883,0.000461635,0.00196246,0.000618277,1.19221,0.00115857,0.015174,1637,484,12.7247,29.7136
420,540,12.7137,-29.0301,0.00138118,0.00262595,0.00129902,0.00344398,0.000563143,1.0088,0.0021332,0.0139876,1644,484,12.7138,29.0301
427,540,12.6564,-28.3701,0.00201841,0.00337004,0.00223535,0.0050295,0.000358948,0.932195,0.00323998,0.0141093,1651,484,12.6563,28.3701
434,540,12.5907,-27.7185,0.0027453,0.00408604,0.00325829,0.00674221,8.91269e-05,0.886854,0.00446539,0.0164956,1658,484,12.5907,27.7185
441,540,12.5878,-27.0347,0.0034915,0.00478792,0.0043498,0.00853755,-0.000258125,0.859364,0.00577966,0.0195795,1665,484,12.5878,27.0347
448,540,12.5752,-26.3634,0.00418072,0.00530378,0.00545484,0.0102259,-0.000741411,0.836688,0.00707737,0.0118385,1672,484,12.5752,26.3634
455,540,12.5443,-25.6924,0.00474996,0.00567257,0.0065149,0.0117425,-0.00131995,0.820743,0.00830334,0.0102955,1679,484,12.5443,25.6924
462,540,12.4937,-25.0039,0.00523798,0.00589101,0.00748913,0.0130607,-0.00193175,0.807184,0.00941736,0.0106881,1686,484,12.4936,25.0039
469,540,12.4276,-24.2889,0.00572663,0.00582635,0.00830559,0.0140822,-0.00252925,0.7884,0.0103349,0.0147669,1693,484,12.4277,24.2889
476,540,12.3842,-23.6089,0.00632371,0.00572195,0.00923523,0.015263,-0.0032173,0.769114,0.0114001,0.0221476,1700,484,12.3842,23.6089
483,540,12.4327,-22.8103,0.00682301,0.00545207,0.0100736,0.0162344,-0.00395934,0.751427,0.012356,0.0364102,1707,484,12.4327,22.8103
490,540,12.6035,-21.9341,0,0,0,0,0,0,0,-1,1714,484,12.6036,21.9341
497,540,10.3452,-16.9359,0,0,0,0,0,0,0,-1,1721,484,10.3453,16.9359
504,540,12.519,-18.0764,0,0,0,0,0,0,0,-1,1728,484,12.519,18.0765
511,540,5.82471,-6.83521,0,0,0,0,0,0,0,-1,1735,484,5.82465,6.83522
518,540,9.98181,-12.4608,0,0,0,0,0,0,0,-1,1742,484,9.98187,12.4608
525,540,12.4843,-16.3481,0,0,0,0,0,0,0,-1,1749,484,12.4842,16.3481
532,540,2.84265,-1.07925,0,0,0,0,0,0,0,-1,1756,484,2.84269,1.07927
539,540,0,0,0,0,0,0,0,0,0,-1,1763,484,0,0
546,540,0,0,0,0,0,0,0,0,0,-1,1770,484,0,0
553,540,0,0,0,0,0,0,0,0,0,-1,1777,484,0,0
560,540,0,0,0,0,0,0,0,0,0,-1,1784,484,0,0
567,540,0,0,0,0,0,0,0,0,0,-1,1791,484,0,0
574,540,0,0,0,0,0,0,0,0,0,-1,1798,484,0,0
581,540,0,0,0,0,0,0,0,0,0,-1,1805,484,0,0
588,540,0,0,0,0,0,0,0,0,0,-1,1812,484,0,0
595,540,0,0,0,0,0,0,0,0,0,-1,1819,484,0,0
602,540,0,0,0,0,0,0,0,0,0,-1,1826,484,0,0
609,540,0,0,0,0,0,0,0,0,0,-1,1833,484,0,0
616,540,0,0,0,0,0,0,0,0,0,-1,1840,484,0,0
623,540,0,0,0,0,0,0,0,0,0,-1,1847,484,0,0
630,540,0,0,0,0,0,0,0,0,0,-1,1854,484,0,0
637,540,0,0,0,0,0,0,0,0,0,-1,1861,484,0,0
644,540,0,0,0,0,0,0,0,0,0,-1,1868,484,0,0
651,540,0,0,0,0,0,0,0,0,0,-1,1875,484,0,0
658,540,0,0,0,0,0,0,0,0,0,-1,1882,484,0,0
665,540,0,0,0,0,0,0,0,0,0,-1,1889,484,0,0
672,540,0,0,0,0,0,0,0,0,0,-1,1896,484,0,0
679,540,0,0,0,0,0,0,0,0,0,-1,1903,484,0,0
686,540,0,0,0,0,0,0,0,0,0,-1,1910,484,0,0
693,540,0,0,0,0,0,0,0,0,0,-1,1917,484,0,0
700,540,0,0,0,0,0,0,0,0,0,-1,1924,484,0,0
707,540,0,0,0,0,0,0,0,0,0,-1,1931,484,0,0
714,540,0,0,0,0,0,0,0,0,0,-1,1938,484,0,0
721,540,0,0,0,0,0,0,0,0,0,-1,1945,484,0,0
728,540,0,0,0,0,0,0,0,0,0,-1,1952,484,0,0
735,540,0,0,0,0,0,0,0,0,0,-1,1959,484,0,0
742,540,0,0,0,0,0,0,0,0,0,-1,1966,484,0,0
749,540,0,0,0,0,0,0,0,0,0,-1,1973,484,0,0
756,540,0,0,0,0,0,0,0,0,0,-1,1980,484,0,0
763,540,0,0,0,0,0,0,0,0,0,-1,1987,484,0,0
770,540,0,0,0,0,0,0,0,0,0,-1,1994,484,0,0
777,540,0,0,0,0,0,0,0,0,0,-1,2001,484,0,0
784,540,0,0,0,0,0,0,0,0,0,-1,2008,484,0,0
791,540,0,0,0,0,0,0,0,0,0,-1,2015,484,0,0
798,540,0,0,0,0,0,0,0,0,0,-1,2022,484,0,0
805,540,0,0,0,0,0,0,0,0,0,-1,2029,484,0,0
812,540,0,0,0,0,0,0,0,0,0,-1,2036,484,0,0
-700,533,0,0,0,0,0,0,0,0,0,-1,524,491,0,0
-693,533,0,0,0,0,0,0,0,0,0,-1,531,491,0,0
-686,533,0,0,0,0,0,0,0,0,0,-1,538,491,0,0
-679,533,0,0,0,0,0,0,0,0,0,-1,545,491,0,0
-672,533,0,0,0,0,0,0,0,0,0,-1,552,491,0,0
-665,533,0,0,0,0,0,0,0,0,0,-1,559,491,0,0
-658,533,0,0,0,0,0,0,0,0,0,-1,566,491,0,0
-651,533,0,0,0,0,0,0,0,0,0,-1,573,491,0,0
-644,533,0,0,0,0,0,0,0,0,0,-1,580,491,0,0
-637,533,0,0,0,0,0,0,0,0,0,-1,587,491,0,0
-630,533,0,0,0,0,0,0,0,0,0,-1,594,491,0,0
-623,533,0,0,0,0,0,0,0,0,0,-1,601,491,0,0
-616,533,0,0,0,0,0,0,0,0,0,-1,608,491,0,0
-609,533,0,0,0,0,0,0,0,0,0,-1,615,491,0,0
-602,533,0,0,0,0,0,0,0,0,0,-1,622,491,0,0
-595,533,0,0,0,0,0,0,0,0,0,-1,629,491,0,0
-588,533,0,0,0,0,0,0,0,0,0,-1,636,491,0,0
-581,533,0,0,0,0,0,0,0,0,0,-1,643,491,0,0
-574,533,0,0,0,0,0,0,0,0,0,-1,650,491,0,0
-567,533,0,0,0,0,0,0,0,0,0,-1,657,491,0,0
-560,533,0,0,0,0,0,0,0,0,0,-1,664,491,0,0
-553,533,0,0,0,0,0,0,0,0,0,-1,671,491,0,0
-546,533,0,0,0,0,0,0,0,0,0,-1,678,491,0,0
-539,533,0,0,0,0,0,0,0,0,0,-1,685,491,0,0
-532,533,0,0,0,0,0,0,0,0,0,-1,692,491,0,0
-525,533,0,0,0,0,0,0,0,0,0,-1,699,491,0,0
-518,533,0,0,0,0,0,0,0,0,0,-1,706,491,0,0
-511,533,0,0,0,0,0,0,0,0,0,-1,713,491,0,0
-504,533,0,0,0,0,0,0,0,0,0,-1,720,491,0,0
-497,533,0,0,0,0,0,0,0,0,0,-1,727,491,0,0
-490,533,0,0,0,0,0,0,0,0,0,-1,734,491,0,0
-483,533,0,0,0,0,0,0,0,0,0,-1,741,491,0,0
-476,533,0,0,0,0,0,0,0,0,0,-1,748,491,0,0
-469,533,0,0,0,0,0,0,0,0,0,-1,755,491,0,0
-462,533,0,0,0,0,0,0,0,0,0,-1,762,491,0,0
-455,533,0,0,0,0,0,0,0,0,0,-1,769,491,0,0
-448,533,0,0,0,0,0,0,0,0,0,-1,776,491,0,0
-441,533,0,0,0,0,0,0,0,0,0,-1,783,491,0,0
-434,533,0,0,0,0,0,0,0,0,0,-1,790,491,0,0
-427,533,0.559814,-4.40222,0,0,0,0,0,0,0,-1,797,491,0.559816,4.40222
-420,533,-1.11127,-10.9054,0,0,0,0,0,0,0,-1,804,491,-1.11124,10.9054
-413,533,-0.704773,-11.0942,0,0,0,0,0,0,0,-1,811,491,-0.704742,11.0942
-406,533,-0.670898,-12.0899,0,0,0,0,0,0,0,-1,818,491,-0.670908,12.0899
-399,533,-0.455017,-12.4423,0,0,0,0,0,0,0,-1,825,491,-0.455032,12.4423
-392,533,-1.89661,-10.3905,0,0,0,0,0,0,0,-1,832,491,-1.89661,10.3905
-385,533,0.797729,-17.0485,0,0,0,0,0,0,0,-1,839,491,0.797746,17.0485
-378,533,-0.92981,-19.994,0,0,0,0,0,0,0,-1,846,491,-0.929825,19.994
-371,533,-0.736938,-22.0106,0,0,0,0,0,0,0,-1,853,491,-0.736967,22.0106
-364,533,-0.616638,-22.817,0.00519492,0.0193816,-0.0118172,0.0260709,-0.00149438,-1.0557,0.0178996,0.0429103,860,491,-0.616642,22.817
-357,533,-0.50293,-23.6602,0.00358358,0.0151577,-0.00951372,0.0205062,-0.00176493,-1.05864,0.0142955,0.0266539,867,491,-0.502952,23.6601
-350,533,-0.50708,-24.4723,0.0022859,0.0114027,-0.00746861,0.0155941,-0.0019055,-1.05939,0.011086,0.0148661,874,491,-0.507063,24.4723
-343,533,-0.555237,-25.2256,0.00137966,0.00823964,-0.00574999,0.011505,-0.00188566,-1.05433,0.00836964,0.0126675,881,491,-0.555231,25.2256
-336,533,-0.626648,-25.9404,0.000751326,0.00583012,-0.00434202,0.0083208,-0.00173935,-1.05,0.00620873,0.0168106,888,491,-0.626632,25.9404
-329,533,-0.662537,-26.592,0.000328143,0.00391957,-0.00319212,0.0057864,-0.00153868,-1.04161,0.00445986,0.0139373,895,491,-0.66252,26.5921
-322,533,-0.713623,-27.2231,-3.18714e-06,0.00244096,-0.00216349,0.00370367,-0.0012659,-1.04249,0.00298203,0.011291,902,491,-0.713648,27.2231
-315,533,-0.74762,-27.8788,-8.57172e-05,0.00145395,-0.00137489,0.00225986,-0.000891627,-1.04061,0.0018758,0.0129039,909,491,-0.747623,27.8788
-308,533,-0.768372,-28.5327,7.89009e-05,0.00072202,-0.00085538,0.00131429,-0.000513365,-0.965189,0.00108844,0.0127065,916,491,-0.768401,28.5327
-301,533,-0.807739,-29.1563,0.00033416,0.000360974,-0.000429695,0.00077747,-8.23369e-05,-0.800994,0.000547826,0.0138887,923,491,-0.807759,29.1563
-294,533,-0.813721,-29.7959,0.000704212,0.000104499,-5.55909e-06,0.000704263,0.000104447,-0.00926852,0.000438856,0.0121398,930,491,-0.813698,29.7959
-287,533,-0.814636,-30.4529,0.00114837,-0.000233181,0.000447973,0.00128091,-0.000365722,0.287662,0.000998433,0.0096429,937,491,-0.814661,30.4529
-280,533,-0.835388,-31.1014,0.00156833,-0.00116307,0.000925272,0.00185226,-0.001447,0.297735,0.00190961,0.00945508,944,491,-0.835382,31.1014
-273,533,-0.855957,-31.7194,0.00191816,-0.00217728,0.00150504,0.00241176,-0.00267088,0.316911,0.00293574,0.0132482,951,491,-0.855968,31.7194
-266,533,-0.863647,-32.3353,0.00237622,-0.00374854,0.00237734,0.00319068,-0.004563,0.330062,0.0044999,0.0127074,958,491,-0.863654,32.3353
-259,533,-0.876038,-32.9479,0.00345712,-0.00538547,0.00335263,0.00458452,-0.00651287,0.324394,0.00643924,0.0128736,965,491,-0.876009,32.9479
-252,533,-0.89502,-33.5313,0.00540114,-0.00742769,0.00405043,0.00657295,-0.0085995,0.281615,0.00878582,0.0191455,972,491,-0.895045,33.5312
-245,533,-0.979675,-34.1108,0.00710167,-0.0108568,0.00480227,0.00830519,-0.0120603,0.245557,0.0118244,0.0321374,979,491,-0.979649,34.1108
-238,533,-0.834534,-34.593,0.00914753,-0.0147282,0.00534739,0.0102905,-0.0158711,0.210568,0.0152185,0.0353879,986,491,-0.834519,34.593
-231,533,-0.750916,-34.839,0.0118161,-0.0191203,0.00592721,0.0129128,-0.0202171,0.182964,0.0192819,0.0450711,993,491,-0.750943,34.839
-224,533,-0.88739,-35.7259,0,0,0,0,0,0,0,-1,1000,491,-0.887414,35.7259
-217,533,-0.69873,-36.1354,0,0,0,0,0,0,0,-1,1007,491,-0.698733,36.1354
-210,533,-0.847717,-36.512,0,0,0,0,0,0,0,-1,1014,491,-0.847693,36.5119
-203,533,-0.0770874,-37.1757,0,0,0,0,0,0,0,-1,1021,491,-0.0770809,37.1757
-196,533,0.688354,-19.5743,0,0,0,0,0,0,0,-1,1028,491,0.688406,19.5743
-189,533,-0.169189,-15.0303,0,0,0,0,0,0,0,-1,1035,491,-0.169241,15.0303
-182,533,1.26123,-11.4969,0,0,0,0,0,0,0,-1,1042,491,1.26128,11.4969
-175,533,0.937744,-7.36966,0,0,0,0,0,0,0,-1,1049,491,0.937769,7.36965
-168,533,2.64807,-2.7543,0,0,0,0,0,0,0,-1,1056,491,2.64812,2.7543
-161,533,1.91833,-1.76553,0,0,0,0,0,0,0,-1,1063,491,1.91836,1.76554
-154,533,0.376709,-11.0633,0,0,0,0,0,0,0,-1,1070,491,0.376715,11.0632
-147,533,0.383789,-12.1586,0,0,0,0,0,0,0,-1,1077,491,0.383829,12.1586
-140,533,1.14001,-15.4608,0,0,0,0,0,0,0,-1,1084,491,1.14005,15.4608
-133,533,0.189941,-16.0795,0,0,0,0,0,0,0,-1,1091,491,0.18994,16.0795
-126,533,2.89612,-2.59003,0,0,0,0,0,0,0,-1,1098,491,2.89608,2.59003
-119,533,1.78284,-22.5394,0,0,0,0,0,0,0,-1,1105,491,1.78279,22.5394
-112,533,1.83862,-21.2401,0,0,0,0,0,0,0,-1,1112,491,1.83859,21.24
-105,533,1.67554,-19.4018,0,0,0,0,0,0,0,-1,1119,491,1.6755,19.4018
-98,533,-1.39392,-5.16367,0,0,0,0,0,0,0,-1,1126,491,-1.39394,5.16367
-91,533,0.367432,4.49753,0,0,0,0,0,0,0,-1,1133,491,0.367468,-4.49754
-84,533,-0.88623,3.03604,0,0,0,0,0,0,0,-1,1140,491,-0.886288,-3.03605
-77,533,0,0,0,0,0,0,0,0,0,-1,1147,491,0,0
-70,533,0,0,0,0,0,0,0,0,0,-1,1154,491,0,0
-63,533,0,0,0,0,0,0,0,0,0,-1,1161,491,0,0
-56,533,0,0,0,0,0,0,0,0,0,-1,1168,491,0,0
-49,533,0,0,0,0,0,0,0,0,0,-1,1175,491,0,0
-42,533,0,0,0,0,0,0,0,0,0,-1,1182,491,0,0
-35,533,0,0,0,0,0,0,0,0,0,-1,1189,491,0,0
-28,533,0,0,0,0,0,0,0,0,0,-1,1196,491,0,0
-21,533,0,0,0,0,0,0,0,0,0,-1,1203,491,0,0
-14,533,0,0,0,0,0,0,0,0,0,-1,1210,491,0,0
-7,533,0,0,0,0,0,0,0,0,0,-1,1217,491,0,0
0,533,0,0,0,0,0,0,0,0,0,-1,1224,491,0,0
7,533,0,0,0,0,0,0,0,0,0,-1,1231,491,0,0
14,533,0,0,0,0,0,0,0,0,0,-1,1238,491,0,0
21,533,0,0,0,0,0,0,0,0,0,-1,1245,491,0,0
28,533,0,0,0,0,0,0,0,0,0,-1,1252,491,0,0
35,533,0,0,0,0,0,0,0,0,0,-1,1259,491,0,0
42,533,0,0,0,0,0,0,0,0,0,-1,1266,491,0,0
49,533,0,0,0,0,0,0,0,0,0,-1,1273,491,0,0
56,533,0,0,0,0,0,0,0,0,0,-1,1280,491,0,0
63,533,0,0,0,0,0,0,0,0,0,-1,1287,491,0,0
70,533,0,0,0,0,0,0,0,0,0,-1,1294,491,0,0
77,533,0,0,0,0,0,0,0,0,0,-1,1301,491,0,0
84,533,0,0,0,0,0,0,0,0,0,-1,1308,491,0,0
91,533,0,0,0,0,0,0,0,0,0,-1,1315,491,0,0
98,533,0,0,0,0,0,0,0,0,0,-1,1322,491,0,0
105,533,0,0,0,0,0,0,0,0,0,-1,1329,491,0,0
112,533,0,0,0,0,0,0,0,0,0,-1,1336,491,0,0
119,533,0,0,0,0,0,0,0,0,0,-1,1343,491,0,0
126,533,0,0,0,0,0,0,0,0,0,-1,1350,491,0,0
133,533,0,0,0,0,0,0,0,0,0,-1,1357,491,0,0
140,533,0,0,0,0,0,0,0,0,0,-1,1364,491,0,0
147,533,0,0,0,0,0,0,0,0,0,-1,1371,491,0,0
154,533,0,0,0,0,0,0,0,0,0,-1,1378,491,0,0
161,533,0,0,0,0,0,0,0,0,0,-1,1385,491,0,0
168,533,0,0,0,0,0,0,0,0,0,-1,1392,491,0,0
175,533,0,0,0,0,0,0,0,0,0,-1,1399,491,0,0
182,533,0,0,0,0,0,0,0,0,0,-1,1406,491,0,0
189,533,0,0,0,0,0,0,0,0,0,-1,1413,491,0,0
196,533,0,0,0,0,0,0,0,0,0,-1,1420,491,0,0
203,533,3.7887,1.16193,0,0,0,0,0,0,0,-1,1427,491,3.78872,-1.16193
210,533,5.09558,-0.216034,0,0,0,0,0,0,0,-1,1434,491,5.09559,0.216028
217,533,6.91614,-2.46814,0,0,0,0,0,0,0,-1,1441,491,6.91618,2.46814
224,533,7.23621,-2.1857,0,0,0,0,0,0,0,-1,1448,491,7.23621,2.1857
231,533,7.23474,-1.92282,0,0,0,0,0,0,0,-1,1455,491,7.2347,1.92282
238,533,7.23535,-1.67258,0,0,0,0,0,0,0,-1,1462,491,7.23539,1.67258
245,533,6.86682,-1.2301,0,0,0,0,0,0,0,-1,1469,491,6.86686,1.23011
252,533,6.63354,-3.07825,0,0,0,0,0,0,0,-1,1476,491,6.6335,3.07824
259,533,6.16431,-2.35037,0,0,0,0,0,0,0,-1,1483,491,6.1643,2.35037
266,533,5.68884,-1.6214,0,0,0,0,0,0,0,-1,1490,491,5.68885,1.6214
273,533,5.21399,-0.864227,0,0,0,0,0,0,0,-1,1497,491,5.21403,0.864227
280,533,1.41089,-1.97946,0,0,0,0,0,0,0,-1,1504,491,1.41087,1.97946
287,533,1.6814,-2.44443,0,0,0,0,0,0,0,-1,1511,491,1.6814,2.44444
294,533,2.2384,-2.57626,0,0,0,0,0,0,0,-1,1518,491,2.23839,2.57625
301,533,3.39941,-4.0817,0,0,0,0,0,0,0,-1,1525,491,3.3994,4.08171
308,533,4.13733,-4.14752,0,0,0,0,0,0,0,-1,1532,491,4.13727,4.14752
315,533,4.80762,-5.29349,0,0,0,0,0,0,0,-1,1539,491,4.80762,5.29347
322,533,5.47803,-6.43942,0,0,0,0,0,0,0,-1,1546,491,5.47798,6.43943
329,533,3.88477,-3.86301,0,0,0,0,0,0,0,-1,1553,491,3.88475,3.86299
336,533,6.70923,-13.2003,0,0,0,0,0,0,0,-1,1560,491,6.70926,13.2004
343,533,7.06677,-17.1133,0,0,0,0,0,0,0,-1,1567,491,7.06673,17.1133
350,533,10.0876,-23.7254,0,0,0,0,0,0,0,-1,1574,491,10.0877,23.7254
357,533,13.578,-34.3049,0,0,0,0,0,0,0,-1,1581,491,13.578,34.3049
364,533,13.3163,-34.0845,0,0,0,0,0,0,0,-1,1588,491,13.3162,34.0845
371,533,13.361,-33.4828,0,0,0,0,0,0,0,-1,1595,491,13.361,33.4828
378,533,13.4315,-32.8283,0,0,0,0,0,0,0,-1,1602,491,13.4316,32.8283
385,533,13.4309,-32.2148,-0.000997948,-0.00230382,-0.00356915,0.0019775,-0.00527927,-0.694929,0.00433184,0.0267813,1609,491,13.4309,32.2148
392,533,13.3916,-31.6031,-0.000736513,-0.00174649,-0.00259139,0.00139864,-0.00388164,-0.689169,0.00315893,0.0138386,1616,491,13.3916,31.6031
399,533,13.3826,-31.0022,-0.000649541,-0.000993342,-0.0020259,0.00121174,-0.00285462,-0.743074,0.00241074,0.0123913,1623,491,13.3826,31.0022
406,533,13.3966,-30.3596,-0.000411631,-0.000389305,-0.00151815,0.00111772,-0.00191866,-0.789074,0.00177327,0.0152851,1630,491,13.3967,30.3596
413,533,13.37,-29.6713,0.000171179,0.000627405,-0.000633011,0.00107215,-0.000273567,-0.958336,0.000821287,0.0144357,1637,491,13.37,29.6713
420,533,13.327,-29.0059,0.000687129,0.00138755,0.000155238,0.00142041,0.000654265,1.36217,0.000820923,0.0137035,1644,491,13.327,29.0059
427,533,13.3096,-28.3255,0.00119828,0.00206975,0.000999095,0.00272399,0.000544036,0.991027,0.00166455,0.014569,1651,491,13.3096,28.3255
434,533,13.269,-27.6743,0.00178055,0.00268997,0.0019058,0.00419456,0.00027596,0.902505,0.00270907,0.0135574,1658,491,13.269,27.6743
441,533,13.2661,-26.9954,0.00238093,0.00331098,0.00285355,0.00573715,-4.52388e-05,0.86617,0.00383993,0.0137251,1665,491,13.2661,26.9954
448,533,13.2609,-26.3448,0.00294361,0.00377206,0.00380825,0.00718855,-0.000472882,0.83957,0.00495752,0.0154201,1672,491,13.2609,26.3448
455,533,13.2067,-25.6624,0.0034007,0.00416931,0.00473121,0.0085318,-0.000961789,0.825923,0.00603407,0.0158517,1679,491,13.2067,25.6624
462,533,13.1586,-24.9462,0.00378891,0.00438979,0.00555424,0.00965171,-0.00147301,0.812418,0.0069775,0.0149427,1686,491,13.1586,24.9462
469,533,13.131,-24.2786,0.00420202,0.00438243,0.00625395,0.0105468,-0.00196237,0.792609,0.0077684,0.00980679,1693,491,13.131,24.2786
476,533,13.1173,-23.5497,0.00471471,0.00438282,0.00708928,0.01164,-0.00254245,0.773696,0.00873174,0.0128818,1700,491,13.1173,23.5498
483,533,13.1245,-22.7957,0.00512622,0.00426257,0.00781602,0.0125223,-0.00313354,0.757802,0.00956538,0.0216063,1707,491,13.1245,22.7957
490,533,13.197,-21.9129,0,0,0,0,0,0,0,-1,1714,491,13.197,21.9129
497,533,13.1881,-21.1318,0,0,0,0,0,0,0,-1,1721,491,13.1882,21.1318
504,533,12.9669,-18.957,0,0,0,0,0,0,0,-1,1728,491,12.9669,18.957
511,533,13.6221,-19.2798,0,0,0,0,0,0,0,-1,1735,491,13.6221,19.2798
518,533,13.2317,-20.1885,0,0,0,0,0,0,0,-1,1742,491,13.2317,20.1885
525,533,12.665,-19.3749,0,0,0,0,0,0,0,-1,1749,491,12.665,19.3749
532,533,12.5974,-18.4897,0,0,0,0,0,0,0,-1,1756,491,12.5974,18.4897
539,533,12.8733,-18.2556,0,0,0,0,0,0,0,-1,1763,491,12.8733,18.2556
546,533,3.59607,1.65799,0,0,0,0,0,0,0,-1,1770,491,3.59605,-1.658
553,533,0,0,0,0,0,0,0,0,0,-1,1777,491,0,0
560,533,0,0,0,0,0,0,0,0,0,-1,1784,491,0,0
567,533,0,0,0,0,0,0,0,0,0,-1,1791,491,0,0
574,533,0,0,0,0,0,0,0,0,0,-1,1798,491,0,0
581,533,0,0,0,0,0,0,0,0,0,-1,1805,491,0,0
588,533,0,0,0,0,0,0,0,0,0,-1,1812,491,0,0
595,533,0,0,0,0,0,0,0,0,0,-1,1819,491,0,0
602,533,0,0,0,0,0,0,0,0,0,-1,1826,491,0,0
609,533,0,0,0,0,0,0,0,0,0,-1,1833,491,0,0
616,533,0,0,0,0,0,0,0,0,0,-1,1840,491,0,0
623,533,0,0,0,0,0,0,0,0,0,-1,1847,491,0,0
630,533,0,0,0,0,0,0,0,0,0,-1,1854,491,0,0
637,533,0,0,0,0,0,0,0,0,0,-1,1861,491,0,0
644,533,0,0,0,0,0,0,0,0,0,-1,1868,491,0,0
651,533,0,0,0,0,0,0,0,0,0,-1,1875,491,0,0
658,533,0,0,0,0,0,0,0,0,0,-1,1882,491,0,0
665,533,0,0,0,0,0,0,0,0,0,-1,1889,491,0,0
672,533,0,0,0,0,0,0,0,0,0,-1,1896,491,0,0
679,533,0,0,0,0,0,0,0,0,0,-1,1903,491,0,0
686,533,0,0,0,0,0,0,0,0,0,-1,1910,491,0,0
693,533,0,0,0,0,0,0,0,0,0,-1,1917,491,0,0
700,533,0,0,0,0,0,0,0,0,0,-1,1924,491,0,0
707,533,0,0,0,0,0,0,0,0,0,-1,1931,491,0,0
714,533,0,0,0,0,0,0,0,0,0,-1,1938,491,0,0
721,533,0,0,0,0,0,0,0,0,0,-1,1945,491,0,0
728,533,0,0,0,0,0,0,0,0,0,-1,1952,491,0,0
735,533,0,0,0,0,0,0,0,0,0,-1,1959,491,0,0
742,533,0,0,0,0,0,0,0,0,0,-1,1966,491,0,0
749,533,0,0,0,0,0,0,0,0,0,-1,1973,491,0,0
756,533,0,0,0,0,0,0,0,0,0,-1,1980,491,0,0
763,533,0,0,0,0,0,0,0,0,0,-1,1987,491,0,0
770,533,0,0,0,0,0,0,0,0,0,-1,1994,491,0,0
777,533,0,0,0,0,0,0,0,0,0,-1,2001,491,0,0
784,533,0,0,0,0,0,0,0,0,0,-1,2008,491,0,0
791,533,0,0,0,0,0,0,0,0,0,-1,2015,491,0,0
798,533,0,0,0,0,0,0,0,0,0,-1,2022,491,0,0
805,533,0,0,0,0,0,0,0,0,0,-1,2029,491,0,0
812,533,0,0,0,0,0,0,0,0,0,-1,2036,491,0,0
-700,526,0,0,0,0,0,0,0,0,0,-1,524,498,0,0
-693,526,0,0,0,0,0,0,0,0,0,-1,531,498,0,0
-686,526,0,0,0,0,0,0,0,0,0,-1,538,498,0,0
-679,526,0,0,0,0,0,0,0,0,0,-1,545,498,0,0
-672,526,0,0,0,0,0,0,0,0,0,-1,552,498,0,0
-665,526,0,0,0,0,0,0,0,0,0,-1,559,498,0,0
-658,526,0,0,0,0,0,0,0,0,0,-1,566,498,0,0
-651,526,0,0,0,0,0,0,0,0,0,-1,573,498,0,0
-644,526,0,0,0,0,0,0,0,0,0,-1,580,498,0,0
-637,526,0,0,0,0,0,0,0,0,0,-1,587,498,0,0
-630,526,0,0,0,0,0,0,0,0,0,-1,594,498,0,0
-623,526,0,0,0,0,0,0,0,0,0,-1,601,498,0,0
-616,526,0,0,0,0,0,0,0,0,0,-1,608,498,0,0
-609,526,0,0,0,0,0,0,0,0,0,-1,615,498,0,0
-602,526,0,0,0,0,0,0,0,0,0,-1,622,498,0,0
-595,526,0,0,0,0,0,0,0,0,0,-1,629,498,0,0
-588,526,0,0,0,0,0,0,0,0,0,-1,636,498,0,0
-581,526,0,0,0,0,0,0,0,0,0,-1,643,498,0,0
-574,526,0,0,0,0,0,0,0,0,0,-1,650,498,0,0
-567,526,0,0,0,0,0,0,0,0,0,-1,657,498,0,0
-560,526,0,0,0,0,0,0,0,0,0,-1,664,498,0,0
-553,526,0,0,0,0,0,0,0,0,0,-1,671,498,0,0
-546,526,0,0,0,0,0,0,0,0,0,-1,678,498,0,0
-539,526,0,0,0,0,0,0,0,0,0,-1,685,498,0,0
-532,526,0,0,0,0,0,0,0,0,0,-1,692,498,0,0
-525,526,0,0,0,0,0,0,0,0,0,-1,699,498,0,0
-518,526,0,0,0,0,0,0,0,0,0,-1,706,498,0,0
-511,526,0,0,0,0,0,0,0,0,0,-1,713,498,0,0
-504,526,0,0,0,0,0,0,0,0,0,-1,720,498,0,0
-497,526,0,0,0,0,0,0,0,0,0,-1,727,498,0,0
-490,526,0,0,0,0,0,0,0,0,0,-1,734,498,0,0
-483,526,0,0,0,0,0,0,0,0,0,-1,741,498,0,0
-476,526,0,0,0,0,0,0,0,0,0,-1,748,498,0,0
-469,526,0,0,0,0,0,0,0,0,0,-1,755,498,0,0
-462,526,0,0,0,0,0,0,0,0,0,-1,762,498,0,0
-455,526,0,0,0,0,0,0,0,0,0,-1,769,498,0,0
-448,526,0,0,0,0,0,0,0,0,0,-1,776,498,0,0
-441,526,0,0,0,0,0,0,0,0,0,-1,783,498,0,0
-434,526,-0.153564,-5.96649,0,0,0,0,0,0,0,-1,790,498,-0.153589,5.9665
-427,526,1.23206,-4.59808,0,0,0,0,0,0,0,-1,797,498,1.23208,4.59809
-420,526,-1.76373,-11.6241,0,0,0,0,0,0,0,-1,804,498,-1.76373,11.6241
-413,526,-1.38965,-11.7916,0,0,0,0,0,0,0,-1,811,498,-1.38963,11.7916
-406,526,-1.35187,-12.5182,0,0,0,0,0,0,0,-1,818,498,-1.35185,12.5181
-399,526,-1.32715,-13.2116,0,0,0,0,0,0,0,-1,825,498,-1.32713,13.2116
-392,526,0.197571,-15.303,0,0,0,0,0,0,0,-1,832,498,0.197598,15.303
-385,526,-1.66248,-18.2971,0,0,0,0,0,0,0,-1,839,498,-1.6625,18.2971
-378,526,-1.50055,-21.0305,0,0,0,0,0,0,0,-1,846,498,-1.50056,21.0305
-371,526,-1.37042,-21.992,0.00599257,0.0196631,-0.0124624,0.0270416,-0.00138599,-1.03623,0.0185071,0.0408147,853,498,-1.37044,21.992
-364,526,-1.22345,-22.9531,0.00473763,0.0162431,-0.0102051,0.0222053,-0.00122452,-1.04205,0.0152281,0.0218493,860,498,-1.22345,22.9531
-357,526,-1.14398,-23.7635,0.00351085,0.0129243,-0.00823187,0.0177,-0.00126487,-1.0451,0.0122434,0.0133927,867,498,-1.14398,23.7635
-350,526,-1.17731,-24.4659,0.00245211,0.00989292,-0.00644881,0.0136176,-0.00127252,-1.04703,0.0095309,0.0123042,874,498,-1.1773,24.4659
-343,526,-1.237,-25.1877,0.00168775,0.00719827,-0.0049229,0.0100845,-0.00119848,-1.04052,0.00715603,0.0163021,881,498,-1.23697,25.1878
-336,526,-1.2713,-25.8592,0.00112105,0.00506783,-0.00362422,0.00722109,-0.00103221,-1.0347,0.00519244,0.0161042,888,498,-1.27132,25.8592
-329,526,-1.29047,-26.5308,0.000727105,0.00333442,-0.0025544,0.00489859,-0.000837069,-1.02135,0.00357755,0.0161608,895,498,-1.29045,26.5308
-322,526,-1.3327,-27.1713,0.000434838,0.0019585,-0.00158981,0.00295959,-0.000566254,-1.00883,0.00218639,0.0104597,902,498,-1.33268,27.1713
-315,526,-1.38025,-27.8492,0.000381152,0.0010053,-0.000838816,0.00158822,-0.00020176,-0.963486,0.00113207,0.00913322,909,498,-1.38026,27.8493
-308,526,-1.40936,-28.5292,0.000572248,0.000338123,-0.000330664,0.00080596,0.000104412,-0.615271,0.000506105,0.00900303,916,498,-1.40939,28.5292
-301,526,-1.44696,-29.1458,0.000847783,-2.61063e-06,7.58487e-05,0.000854495,-9.32277e-06,0.088264,0.000572796,0.0105327,923,498,-1.44693,29.1457
-294,526,-1.44775,-29.7778,0.00124302,-0.000219258,0.000501077,0.00139825,-0.000374483,0.300408,0.00107888,0.010179,930,498,-1.44777,29.7779
-287,526,-1.45959,-30.4208,0.001739,-0.000552574,0.000945673,0.00207885,-0.000892427,0.345004,0.00176046,0.0103936,937,498,-1.45959,30.4209
-280,526,-1.48792,-31.0416,0.00218521,-0.00166373,0.00149351,0.00269675,-0.00217527,0.329987,0.00281823,0.0139241,944,498,-1.48794,31.0416
-273,526,-1.50378,-31.6793,0.0025528,-0.00297544,0.00215675,0.00329467,-0.00371731,0.331296,0.00405082,0.0115021,951,498,-1.50379,31.6792
-266,526,-1.50671,-32.3101,0.00311588,-0.004931,0.00320019,0.00423338,-0.0060485,0.335961,0.005967,0.0147458,958,498,-1.50672,32.3101
-259,526,-1.44165,-32.8873,0.00449647,-0.00668623,0.00432776,0.00597567,-0.00816543,0.329346,0.00819693,0.039316,965,498,-1.44167,32.8874
-252,526,-1.49359,-33.5335,0,0,0,0,0,0,0,-1,972,498,-1.49358,33.5335
-245,526,-1.56964,-34.2152,0,0,0,0,0,0,0,-1,979,498,-1.56966,34.2152
-238,526,-1.40796,-34.569,0,0,0,0,0,0,0,-1,986,498,-1.40795,34.5689
-231,526,-1.16553,-34.4068,0,0,0,0,0,0,0,-1,993,498,-1.16551,34.4068
-224,526,-1.61725,-34.7932,0,0,0,0,0,0,0,-1,1000,498,-1.61726,34.7931
-217,526,-1.38043,-35.6716,0,0,0,0,0,0,0,-1,1007,498,-1.38045,35.6716
-210,526,-1.32043,-36.4245,0,0,0,0,0,0,0,-1,1014,498,-1.32044,36.4245
-203,526,-0.659302,-18.8818,0,0,0,0,0,0,0,-1,1021,498,-0.659273,18.8818
-196,526,-0.328247,-12.179,0,0,0,0,0,0,0,-1,1028,498,-0.328238,12.179
-189,526,0.401245,-5.96826,0,0,0,0,0,0,0,-1,1035,498,0.401197,5.96826
-182,526,1.7323,-2.99405,0,0,0,0,0,0,0,-1,1042,498,1.73226,2.99404
-175,526,2.27637,-2.07983,0,0,0,0,0,0,0,-1,1049,498,2.27639,2.07984
-168,526,2.12036,-1.66049,0,0,0,0,0,0,0,-1,1056,498,2.12035,1.66048
-161,526,2.09082,-1.20572,0,0,0,0,0,0,0,-1,1063,498,2.09086,1.2057
-154,526,-1.3446,-5.37799,0,0,0,0,0,0,0,-1,1070,498,-1.34457,5.37799
-147,526,-0.472656,-6.64996,0,0,0,0,0,0,0,-1,1077,498,-0.472659,6.64997
-140,526,0.422852,-8.03339,0,0,0,0,0,0,0,-1,1084,498,0.422844,8.0334
-133,526,1.09583,-9.2215,0,0,0,0,0,0,0,-1,1091,498,1.09581,9.2215
-126,526,3.42529,-2.36053,0,0,0,0,0,0,0,-1,1098,498,3.42523,2.36052
-119,526,2.7771,-0.764099,0,0,0,0,0,0,0,-1,1105,498,2.7771,0.764107
-112,526,2.57715,-1.1893,0,0,0,0,0,0,0,-1,1112,498,2.57718,1.1893
-105,526,0,0,0,0,0,0,0,0,0,-1,1119,498,0,0
-98,526,0,0,0,0,0,0,0,0,0,-1,1126,498,0,0
-91,526,0,0,0,0,0,0,0,0,0,-1,1133,498,0,0
-84,526,0,0,0,0,0,0,0,0,0,-1,1140,498,0,0
-77,526,0,0,0,0,0,0,0,0,0,-1,1147,498,0,0
-70,526,0,0,0,0,0,0,0,0,0,-1,1154,498,0,0
-63,526,0,0,0,0,0,0,0,0,0,-1,1161,498,0,0
-56,526,0,0,0,0,0,0,0,0,0,-1,1168,498,0,0
-49,526,0,0,0,0,0,0,0,0,0,-1,1175,498,0,0
-42,526,0,0,0,0,0,0,0,0,0,-1,1182,498,0,0
-35,526,0,0,0,0,0,0,0,0,0,-1,1189,498,0,0
-28,526,0,0,0,0,0,0,0,0,0,-1,1196,498,0,0
-21,526,0,0,0,0,0,0,0,0,0,-1,1203,498,0,0
-14,526,0,0,0,0,0,0,0,0,0,-1,1210,498,0,0
-7,526,0,0,0,0,0,0,0,0,0,-1,1217,498,0,0
0,526,0,0,0,0,0,0,0,0,0,-1,1224,498,0,0
7,526,0,0,0,0,0,0,0,0,0,-1,1231,498,0,0
14,526,0,0,0,0,0,0,0,0,0,-1,1238,498,0,0
21,526,0,0,0,0,0,0,0,0,0,-1,1245,498,0,0
28,526,0,0,0,0,0,0,0,0,0,-1,1252,498,0,0
35,526,0,0,0,0,0,0,0,0,0,-1,1259,498,0,0
42,526,0,0,0,0,0,0,0,0,0,-1,1266,498,0,0
49,526,0,0,0,0,0,0,0,0,0,-1,1273,498,0,0
56,526,0,0,0,0,0,0,0,0,0,-1,1280,498,0,0
63,526,0,0,0,0,0,0,0,0,0,-1,1287,498,0,0
70,526,0,0,0,0,0,0,0,0,0,-1,1294,498,0,0
77,526,0,0,0,0,0,0,0,0,0,-1,1301,498,0,0
84,526,0,0,0,0,0,0,0,0,0,-1,1308,498,0,0
91,526,0,0,0,0,0,0,0,0,0,-1,1315,498,0,0
98,526,0,0,0,0,0,0,0,0,0,-1,1322,498,0,0
105,526,0,0,0,0,0,0,0,0,0,-1,1329,498,0,0
112,526,0,0,0,0,0,0,0,0,0,-1,1336,498,0,0
119,526,0,0,0,0,0,0,0,0,0,-1,1343,498,0,0
126,526,0,0,0,0,0,0,0,0,0,-1,1350,498,0,0
133,526,0,0,0,0,0,0,0,0,0,-1,1357,498,0,0
140,526,0,0,0,0,0,0,0,0,0,-1,1364,498,0,0
147,526,0,0,0,0,0,0,0,0,0,-1,1371,498,0,0
154,526,0,0,0,0,0,0,0,0,0,-1,1378,498,0,0
161,526,0,0,0,0,0,0,0,0,0,-1,1385,498,0,0
168,526,0,0,0,0,0,0,0,0,0,-1,1392,498,0,0
175,526,0,0,0,0,0,0,0,0,0,-1,1399,498,0,0
182,526,0,0,0,0,0,0,0,0,0,-1,1406,498,0,0
189,526,0,0,0,0,0,0,0,0,0,-1,1413,498,0,0
196,526,0,0,0,0,0,0,0,0,0,-1,1420,498,0,0
203,526,0,0,0,0,0,0,0,0,0,-1,1427,498,0,0
210,526,0,0,0,0,0,0,0,0,0,-1,1434,498,0,0
217,526,0,0,0,0,0,0,0,0,0,-1,1441,498,0,0
224,526,0,0,0,0,0,0,0,0,0,-1,1448,498,0,0
231,526,7.93237,-1.30618,0,0,0,0,0,0,0,-1,1455,498,7.93238,1.30618
238,526,7.97717,-1.08197,0,0,0,0,0,0,0,-1,1462,498,7.97723,1.08196
245,526,7.2793,-0.792938,0,0,0,0,0,0,0,-1,1469,498,7.27931,0.792926
252,526,6.73523,-2.23608,0,0,0,0,0,0,0,-1,1476,498,6.73525,2.23608
259,526,6.22949,-1.84967,0,0,0,0,0,0,0,-1,1483,498,6.22953,1.84968
266,526,5.72375,-1.46329,0,0,0,0,0,0,0,-1,1490,498,5.72381,1.46328
273,526,4.33984,0.49173,0,0,0,0,0,0,0,-1,1497,498,4.33979,-0.491727
280,526,1.4585,-1.59897,0,0,0,0,0,0,0,-1,1504,498,1.45846,1.59895
287,526,1.46411,-2.40134,0,0,0,0,0,0,0,-1,1511,498,1.46406,2.40133
294,526,5.57471,-4.59085,0,0,0,0,0,0,0,-1,1518,498,5.57466,4.59084
301,526,4.42786,-3.99677,0,0,0,0,0,0,0,-1,1525,498,4.42788,3.99676
308,526,5.79529,-4.19366,0,0,0,0,0,0,0,-1,1532,498,5.79528,4.19368
315,526,5.09851,-5.20068,0,0,0,0,0,0,0,-1,1539,498,5.09851,5.20068
322,526,5.50708,-4.72348,0,0,0,0,0,0,0,-1,1546,498,5.50713,4.72347
329,526,3.88672,-4.345,0,0,0,0,0,0,0,-1,1553,498,3.88674,4.34501
336,526,4.97876,-2.23828,0,0,0,0,0,0,0,-1,1560,498,4.97877,2.23828
343,526,3.31665,-2.69696,0,0,0,0,0,0,0,-1,1567,498,3.31667,2.69696
350,526,6.06287,-6.12015,0,0,0,0,0,0,0,-1,1574,498,6.06286,6.12014
357,526,12.9944,-29.1665,0,0,0,0,0,0,0,-1,1581,498,12.9943,29.1665
364,526,13.2582,-29.5416,0,0,0,0,0,0,0,-1,1588,498,13.2581,29.5416
371,526,12.4481,-29.0131,0,0,0,0,0,0,0,-1,1595,498,12.4481,29.0131
378,526,13.6134,-32.6213,0,0,0,0,0,0,0,-1,1602,498,13.6134,32.6213
385,526,14.0466,-32.2991,0,0,0,0,0,0,0,-1,1609,498,14.0466,32.2991
392,526,14.1604,-31.598,-0.00103614,-0.001974,-0.0036191,0.00214429,-0.00515443,-0.720971,0.00433173,0.0374778,1616,498,14.1604,31.598
399,526,14.0199,-30.9695,-0.00098313,-0.00132483,-0.00306918,0.00191995,-0.00422792,-0.757594,0.00363189,0.0195431,1623,498,14.0199,30.9696
406,526,14.0426,-30.299,-0.000797619,-0.00103674,-0.00267597,0.00176146,-0.00359582,-0.763073,0.00315289,0.0128646,1630,498,14.0426,30.299
413,526,14.0024,-29.6462,-0.000156703,-0.000101032,-0.00171218,0.00158354,-0.00184127,-0.793526,0.00197918,0.0129523,1637,498,14.0024,29.6463
420,526,13.9626,-28.9856,0.000306814,0.00054364,-0.000901668,0.00133464,-0.000484183,-0.850688,0.00108769,0.0129803,1644,498,13.9627,28.9856
427,526,13.9691,-28.3111,0.000693568,0.00112643,-8.8898e-05,0.00114398,0.000676022,-1.37593,0.000664106,0.0137775,1651,498,13.9691,28.3111
434,526,13.9512,-27.6343,0.00112985,0.00163149,0.000758093,0.00217918,0.000582162,0.945156,0.00130283,0.012393,1658,498,13.9512,27.6343
441,526,13.9203,-26.9458,0.00158399,0.00214955,0.00161349,0.00350485,0.00022869,0.872147,0.00226419,0.0107123,1665,498,13.9203,26.9458
448,526,13.9038,-26.2949,0.00202525,0.00253986,0.00246992,0.00476584,-0.000200722,0.837299,0.0032462,0.0105451,1672,498,13.9038,26.2949
455,526,13.8531,-25.6573,0.00238291,0.00294888,0.00330023,0.00597824,-0.000646452,0.828167,0.00421752,0.0139728,1679,498,13.8532,25.6573
462,526,13.828,-24.9414,0.00268648,0.00318398,0.00401373,0.00695666,-0.0010862,0.816346,0.00503901,0.0103873,1686,498,13.828,24.9414
469,526,13.8198,-24.2601,0.00302833,0.00323344,0.00462772,0.00775974,-0.00149797,0.796476,0.00573803,0.00772355,1693,498,13.8199,24.26
476,526,13.7803,-23.545,0.00345267,0.00330832,0.00537457,0.00875555,-0.00199456,0.778684,0.00660308,0.00978566,1700,498,13.7803,23.545
483,526,13.7557,-22.7725,0.00378442,0.00328872,0.00598645,0.00952815,-0.002455,0.764709,0.00730918,0.0139461,1707,498,13.7557,22.7725
490,526,13.8,-21.9648,0.00423219,0.00310432,0.0066902,0.0103822,-0.00304567,0.743351,0.00812914,0.0321866,1714,498,13.8001,21.9649
497,526,13.8867,-21.2565,0,0,0,0,0,0,0,-1,1721,498,13.8868,21.2565
504,526,13.9365,-20.6709,0,0,0,0,0,0,0,-1,1728,498,13.9365,20.6709
511,526,13.9181,-19.9606,0,0,0,0,0,0,0,-1,1735,498,13.9181,19.9606
518,526,13.6759,-19.7085,0,0,0,0,0,0,0,-1,1742,498,13.676,19.7085
525,526,13.6495,-18.35,0,0,0,0,0,0,0,-1,1749,498,13.6496,18.3501
532,526,12.9329,-18.0245,0,0,0,0,0,0,0,-1,1756,498,12.9329,18.0245
539,526,12.8099,-17.6317,0,0,0,0,0,0,0,-1,1763,498,12.8099,17.6317
546,526,12.4675,-17.1617,0,0,0,0,0,0,0,-1,1770,498,12.4675,17.1617
553,526,3.40796,1.37137,0,0,0,0,0,0,0,-1,1777,498,3.40792,-1.37138
560,526,0,0,0,0,0,0,0,0,0,-1,1784,498,0,0
567,526,0,0,0,0,0,0,0,0,0,-1,1791,498,0,0
574,526,0,0,0,0,0,0,0,0,0,-1,1798,498,0,0
581,526,0,0,0,0,0,0,0,0,0,-1,1805,498,0,0
588,526,0,0,0,0,0,0,0,0,0,-1,1812,498,0,0
595,526,0,0,0,0,0,0,0,0,0,-1,1819,498,0,0
602,526,0,0,0,0,0,0,0,0,0,-1,1826,498,0,0
609,526,0,0,0,0,0,0,0,0,0,-1,1833,498,0,0
616,526,0,0,0,0,0,0,0,0,0,-1,1840,498,0,0
623,526,0,0,0,0,0,0,0,0,0,-1,1847,498,0,0
630,526,0,0,0,0,0,0,0,0,0,-1,1854,498,0,0
637,526,0,0,0,0,0,0,0,0,0,-1,1861,498,0,0
644,526,0,0,0,0,0,0,0,0,0,-1,1868,498,0,0
651,526,0,0,0,0,0,0,0,0,0,-1,1875,498,0,0
658,526,0,0,0,0,0,0,0,0,0,-1,1882,498,0,0
665,526,0,0,0,0,0,0,0,0,0,-1,1889,498,0,0
672,526,0,0,0,0,0,0,0,0,0,-1,1896,498,0,0
679,526,0,0,0,0,0,0,0,0,0,-1,1903,498,0,0
686,526,0,0,0,0,0,0,0,0,0,-1,1910,498,0,0
693,526,0,0,0,0,0,0,0,0,0,-1,1917,498,0,0
700,526,0,0,0,0,0,0,0,0,0,-1,1924,498,0,0
707,526,0,0,0,0,0,0,0,0,0,-1,1931,498,0,0
714,526,0,0,0,0,0,0,0,0,0,-1,1938,498,0,0
721,526,0,0,0,0,0,0,0,0,0,-1,1945,498,0,0
728,526,0,0,0,0,0,0,0,0,0,-1,1952,498,0,0
735,526,0,0,0,0,0,0,0,0,0,-1,1959,498,0,0
742,526,0,0,0,0,0,0,0,0,0,-1,1966,498,0,0
749,526,0,0,0,0,0,0,0,0,0,-1,1973,498,0,0
756,526,0,0,0,0,0,0,0,0,0,-1,1980,498,0,0
763,526,0,0,0,0,0,0,0,0,0,-1,1987,498,0,0
770,526,0,0,0,0,0,0,0,0,0,-1,1994,498,0,0
777,526,0,0,0,0,0,0,0,0,0,-1,2001,498,0,0
784,526,0,0,0,0,0,0,0,0,0,-1,2008,498,0,0
791,526,0,0,0,0,0,0,0,0,0,-1,2015,498,0,0
798,526,0,0,0,0,0,0,0,0,0,-1,2022,498,0,0
805,526,0,0,0,0,0,0,0,0,0,-1,2029,498,0,0
812,526,0,0,0,0,0,0,0,0,0,-1,2036,498,0,0
-700,519,0,0,0,0,0,0,0,0,0,-1,524,505,0,0
-693,519,0,0,0,0,0,0,0,0,0,-1,531,505,0,0
-686,519,0,0,0,0,0,0,0,0,0,-1,538,505,0,0
-679,519,0,0,0,0,0,0,0,0,0,-1,545,505,0,0
-672,519,0,0,0,0,0,0,0,0,0,-1,552,505,0,0
-665,519,0,0,0,0,0,0,0,0,0,-1,559,505,0,0
-658,519,0,0,0,0,0,0,0,0,0,-1,566,505,0,0
-651,519,0,0,0,0,0,0,0,0,0,-1,573,505,0,0
-644,519,0,0,0,0,0,0,0,0,0,-1,580,505,0,0
-637,519,0,0,0,0,0,0,0,0,0,-1,587,505,0,0
-630,519,0,0,0,0,0,0,0,0,0,-1,594,505,0,0
-623,519,0,0,0,0,0,0,0,0,0,-1,601,505,0,0
-616,519,0,0,0,0,0,0,0,0,0,-1,608,505,0,0
-609,519,0,0,0,0,0,0,0,0,0,-1,615,505,0,0
-602,519,0,0,0,0,0,0,0,0,0,-1,622,505,0,0
-595,519,0,0,0,0,0,0,0,0,0,-1,629,505,0,0
-588,519,0,0,0,0,0,0,0,0,0,-1,636,505,0,0
-581,519,0,0,0,0,0,0,0,0,0,-1,643,505,0,0
-574,519,0,0,0,0,0,0,0,0,0,-1,650,505,0,0
-567,519,0,0,0,0,0,0,0,0,0,-1,657,505,0,0
-560,519,0,0,0,0,0,0,0,0,0,-1,664,505,0,0
-553,519,0,0,0,0,0,0,0,0,0,-1,671,505,0,0
-546,519,0,0,0,0,0,0,0,0,0,-1,678,505,0,0
-539,519,0,0,0,0,0,0,0,0,0,-1,685,505,0,0
-532,519,0,0,0,0,0,0,0,0,0,-1,692,505,0,0
-525,519,0,0,0,0,0,0,0,0,0,-1,699,505,0,0
-518,519,0,0,0,0,0,0,0,0,0,-1,706,505,0,0
-511,519,0,0,0,0,0,0,0,0,0,-1,713,505,0,0
-504,519,0,0,0,0,0,0,0,0,0,-1,720,505,0,0
-497,519,0,0,0,0,0,0,0,0,0,-1,727,505,0,0
-490,519,0,0,0,0,0,0,0,0,0,-1,734,505,0,0
-483,519,0,0,0,0,0,0,0,0,0,-1,741,505,0,0
-476,519,0,0,0,0,0,0,0,0,0,-1,748,505,0,0
-469,519,0,0,0,0,0,0,0,0,0,-1,755,505,0,0
-462,519,0,0,0,0,0,0,0,0,0,-1,762,505,0,0
-455,519,0,0,0,0,0,0,0,0,0,-1,769,505,0,0
-448,519,0,0,0,0,0,0,0,0,0,-1,776,505,0,0
-441,519,1.34839,-5.29346,0,0,0,0,0,0,0,-1,783,505,1.3484,5.29347
-434,519,0.949585,-5.77313,0,0,0,0,0,0,0,-1,790,505,0.949598,5.77315
-427,519,-0.0523682,-9.31567,0,0,0,0,0,0,0,-1,797,505,-0.0523854,9.31568
-420,519,-2.38867,-12.1938,0,0,0,0,0,0,0,-1,804,505,-2.38867,12.1938
-413,519,-2.2298,-12.4998,0,0,0,0,0,0,0,-1,811,505,-2.22979,12.4998
-406,519,-1.44373,-12.3475,0,0,0,0,0,0,0,-1,818,505,-1.44376,12.3475
-399,519,-1.60516,-15.0849,0,0,0,0,0,0,0,-1,825,505,-1.60518,15.0849
-392,519,-1.46088,-20.0684,0,0,0,0,0,0,0,-1,832,505,-1.46085,20.0684
-385,519,-1.69708,-20.8269,0,0,0,0,0,0,0,-1,839,505,-1.69711,20.8269
-378,519,-2.17889,-21.3098,0.00602912,0.0192403,-0.0124281,0.0267092,-0.00143979,-1.02966,0.018305,0.0349983,846,505,-2.17887,21.3097
-371,519,-1.83405,-22.1658,0.00506947,0.0158326,-0.0104121,0.0221717,-0.00126961,-1.02392,0.015222,0.0193884,853,505,-1.83405,22.1658
-364,519,-1.79578,-23.0295,0.0041687,0.0130502,-0.00854766,0.0182419,-0.00102292,-1.02497,0.0125161,0.0116227,860,505,-1.7958,23.0295
-357,519,-1.79749,-23.7656,0.00327059,0.0104062,-0.00686399,0.0145742,-0.000897487,-1.02507,0.0100287,0.0102582,867,505,-1.79748,23.7655
-350,519,-1.83649,-24.4579,0.00248362,0.00797135,-0.00533485,0.0112266,-0.000771633,-1.02292,0.00775442,0.012501,874,505,-1.83647,24.4579
-343,519,-1.90894,-25.1297,0.00189405,0.00570742,-0.003998,0.00823012,-0.000628646,-1.0079,0.00570785,0.0166039,881,505,-1.90895,25.1297
-336,519,-1.96564,-25.7988,0.00142925,0.00387484,-0.00282491,0.00573025,-0.000426158,-0.989654,0.00396985,0.0169765,888,505,-1.96564,25.7988
-329,519,-1.97546,-26.4609,0.00111173,0.00236009,-0.0018534,0.00369159,-0.000219772,-0.947821,0.00253749,0.0145568,895,505,-1.97546,26.4609
-322,519,-1.98206,-27.1357,0.000906132,0.0011581,-0.000988944,0.00202905,3.5177e-05,-0.848752,0.00134113,0.0114631,902,505,-1.98205,27.1357
-315,519,-2.01239,-27.8204,0.00091958,0.000318478,-0.000312226,0.00105241,0.000185651,-0.402224,0.000648638,0.00912801,909,505,-2.0124,27.8205
-308,519,-2.04895,-28.509,0.00116158,-0.000201988,0.000156803,0.00117938,-0.000219787,0.113029,0.000868833,0.0082591,916,505,-2.04895,28.509
-301,519,-2.0683,-29.1317,0.00146363,-0.000444189,0.00052005,0.00159618,-0.00057674,0.249567,0.00129974,0.0131305,923,505,-2.06831,29.1317
-294,519,-2.09265,-29.7238,0.00186196,-0.000547392,0.000931022,0.00217979,-0.00086523,0.32898,0.00181183,0.016235,930,505,-2.09267,29.7237
-287,519,-2.1344,-30.3792,0.0023827,-0.000808466,0.0013411,0.00287144,-0.00129721,0.349478,0.00246331,0.0118859,937,505,-2.13438,30.3792
-280,519,-2.16998,-31.0242,0.00282679,-0.0020582,0.00194742,0.00350811,-0.00273952,0.336548,0.00361616,0.020981,944,505,-2.16997,31.0242
-273,519,-2.13562,-31.6972,0.0031761,-0.00364782,0.00269153,0.00410992,-0.00458164,0.333953,0.00502054,0.0433641,951,505,-2.13559,31.6972
-266,519,-2.14282,-32.3075,0,0,0,0,0,0,0,-1,958,505,-2.14285,32.3075
-259,519,-1.9549,-32.9961,0,0,0,0,0,0,0,-1,965,505,-1.95489,32.9961
-252,519,-1.84009,-26.8372,0,0,0,0,0,0,0,-1,972,505,-1.8401,26.8372
-245,519,-1.23254,-23.2696,0,0,0,0,0,0,0,-1,979,505,-1.23256,23.2696
-238,519,-1.5415,-31.0349,0,0,0,0,0,0,0,-1,986,505,-1.5415,31.0348
-231,519,-0.726379,-33.2872,0,0,0,0,0,0,0,-1,993,505,-0.726352,33.2871
-224,519,-2.20178,-34.5695,0,0,0,0,0,0,0,-1,1000,505,-2.20179,34.5695
-217,519,-0.797974,-34.3293,0,0,0,0,0,0,0,-1,1007,505,-0.79796,34.3293
-210,519,-0.883362,-34.799,0,0,0,0,0,0,0,-1,1014,505,-0.883379,34.799
-203,519,-0.513611,-5.39017,0,0,0,0,0,0,0,-1,1021,505,-0.513585,5.39017
-196,519,-0.374023,-5.41635,0,0,0,0,0,0,0,-1,1028,505,-0.374047,5.41635
-189,519,-0.234497,-5.44254,0,0,0,0,0,0,0,-1,1035,505,-0.234508,5.44253
-182,519,2.76697,-1.19659,0,0,0,0,0,0,0,-1,1042,505,2.76696,1.19661
-175,519,2.31323,-0.960938,0,0,0,0,0,0,0,-1,1049,505,2.31319,0.960941
-168,519,2.01074,-0.721405,0,0,0,0,0,0,0,-1,1056,505,2.01072,0.721407
-161,519,2.32056,-0.522339,0,0,0,0,0,0,0,-1,1063,505,2.32057,0.522328
-154,519,2.55566,0.116669,0,0,0,0,0,0,0,-1,1070,505,2.55563,-0.116661
-147,519,-0.55127,-6.14001,0,0,0,0,0,0,0,-1,1077,505,-0.551252,6.14001
-140,519,0.240601,-7.53503,0,0,0,0,0,0,0,-1,1084,505,0.240653,7.53501
-133,519,2.70911,-4.4516,0,0,0,0,0,0,0,-1,1091,505,2.70915,4.45161
-126,519,0,0,0,0,0,0,0,0,0,-1,1098,505,0,0
-119,519,0,0,0,0,0,0,0,0,0,-1,1105,505,0,0
-112,519,0,0,0,0,0,0,0,0,0,-1,1112,505,0,0
-105,519,0,0,0,0,0,0,0,0,0,-1,1119,505,0,0
-98,519,0,0,0,0,0,0,0,0,0,-1,1126,505,0,0
-91,519,0,0,0,0,0,0,0,0,0,-1,1133,505,0,0
-84,519,0,0,0,0,0,0,0,0,0,-1,1140,505,0,0
-77,519,0,0,0,0,0,0,0,0,0,-1,1147,505,0,0
-70,519,0,0,0,0,0,0,0,0,0,-1,1154,505,0,0
-63,519,0,0,0,0,0,0,0,0,0,-1,1161,505,0,0
-56,519,0,0,0,0,0,0,0,0,0,-1,1168,505,0,0
-49,519,0,0,0,0,0,0,0,0,0,-1,1175,505,0,0
-42,519,0,0,0,0,0,0,0,0,0,-1,1182,505,0,0
-35,519,0,0,0,0,0,0,0,0,0,-1,1189,505,0,0
-28,519,0,0,0,0,0,0,0,0,0,-1,1196,505,0,0
-21,519,0,0,0,0,0,0,0,0,0,-1,1203,505,0,0
-14,519,0,0,0,0,0,0,0,0,0,-1,1210,505,0,0
-7,519,0,0,0,0,0,0,0,0,0,-1,1217,505,0,0
0,519,0,0,0,0,0,0,0,0,0,-1,1224,505,0,0
7,519,0,0,0,0,0,0,0,0,0,-1,1231,505,0,0
14,519,0,0,0,0,0,0,0,0,0,-1,1238,505,0,0
21,519,0,0,0,0,0,0,0,0,0,-1,1245,505,0,0
28,519,0,0,0,0,0,0,0,0,0,-1,1252,505,0,0
35,519,0,0,0,0,0,0,0,0,0,-1,1259,505,0,0
42,519,0,0,0,0,0,0,0,0,0,-1,1266,505,0,0
49,519,0,0,0,0,0,0,0,0,0,-1,1273,505,0,0
56,519,0,0,0,0,0,0,0,0,0,-1,1280,505,0,0
63,519,0,0,0,0,0,0,0,0,0,-1,1287,505,0,0
70,519,0,0,0,0,0,0,0,0,0,-1,1294,505,0,0
77,519,0,0,0,0,0,0,0,0,0,-1,1301,505,0,0
84,519,0,0,0,0,0,0,0,0,0,-1,1308,505,0,0
91,519,0,0,0,0,0,0,0,0,0,-1,1315,505,0,0
98,519,0,0,0,0,0,0,0,0,0,-1,1322,505,0,0
105,519,0,0,0,0,0,0,0,0,0,-1,1329,505,0,0
112,519,0,0,0,0,0,0,0,0,0,-1,1336,505,0,0
119,519,0,0,0,0,0,0,0,0,0,-1,1343,505,0,0
126,519,0,0,0,0,0,0,0,0,0,-1,1350,505,0,0
133,519,0,0,0,0,0,0,0,0,0,-1,1357,505,0,0
140,519,0,0,0,0,0,0,0,0,0,-1,1364,505,0,0
147,519,0,0,0,0,0,0,0,0,0,-1,1371,505,0,0
154,519,0,0,0,0,0,0,0,0,0,-1,1378,505,0,0
161,519,0,0,0,0,0,0,0,0,0,-1,1385,505,0,0
168,519,0,0,0,0,0,0,0,0,0,-1,1392,505,0,0
175,519,0,0,0,0,0,0,0,0,0,-1,1399,505,0,0
182,519,0,0,0,0,0,0,0,0,0,-1,1406,505,0,0
189,519,0,0,0,0,0,0,0,0,0,-1,1413,505,0,0
196,519,0,0,0,0,0,0,0,0,0,-1,1420,505,0,0
203,519,0,0,0,0,0,0,0,0,0,-1,1427,505,0,0
210,519,0,0,0,0,0,0,0,0,0,-1,1434,505,0,0
217,519,0,0,0,0,0,0,0,0,0,-1,1441,505,0,0
224,519,0,0,0,0,0,0,0,0,0,-1,1448,505,0,0
231,519,0,0,0,0,0,0,0,0,0,-1,1455,505,0,0
238,519,0,0,0,0,0,0,0,0,0,-1,1462,505,0,0
245,519,0,0,0,0,0,0,0,0,0,-1,1469,505,0,0
252,519,5.26208,0.0938416,0,0,0,0,0,0,0,-1,1476,505,5.26207,-0.0938493
259,519,6.14246,-1.36441,0,0,0,0,0,0,0,-1,1483,505,6.14241,1.36441
266,519,5.31909,-0.400787,0,0,0,0,0,0,0,-1,1490,505,5.31912,0.400773
273,519,4.02393,0.325531,0,0,0,0,0,0,0,-1,1497,505,4.0239,-0.325522
280,519,4.68848,0.53006,0,0,0,0,0,0,0,-1,1504,505,4.68842,-0.530073
287,519,7.9519,-3.80801,0,0,0,0,0,0,0,-1,1511,505,7.95193,3.808
294,519,6.92273,-3.38889,0,0,0,0,0,0,0,-1,1518,505,6.92268,3.38888
301,519,5.35669,-2.92661,0,0,0,0,0,0,0,-1,1525,505,5.35675,2.9266
308,519,7.37549,-5.64529,0,0,0,0,0,0,0,-1,1532,505,7.3755,5.64529
315,519,6.30029,-4.53754,0,0,0,0,0,0,0,-1,1539,505,6.30024,4.53753
322,519,5.84302,-5.45117,0,0,0,0,0,0,0,-1,1546,505,5.84303,5.45116
329,519,4.92407,0.62384,0,0,0,0,0,0,0,-1,1553,505,4.92403,-0.623832
336,519,3.10095,-0.329285,0,0,0,0,0,0,0,-1,1560,505,3.1009,0.329283
343,519,2.49146,-2.31119,0,0,0,0,0,0,0,-1,1567,505,2.49145,2.31119
350,519,3.47729,-2.22516,0,0,0,0,0,0,0,-1,1574,505,3.47726,2.22515
357,519,13.271,-29.6344,0,0,0,0,0,0,0,-1,1581,505,13.271,29.6344
364,519,12.8292,-28.3627,0,0,0,0,0,0,0,-1,1588,505,12.8292,28.3627
371,519,12.3875,-27.0911,0,0,0,0,0,0,0,-1,1595,505,12.3874,27.091
378,519,6.36597,-10.0967,0,0,0,0,0,0,0,-1,1602,505,6.36597,10.0967
385,519,6.24756,-9.72186,0,0,0,0,0,0,0,-1,1609,505,6.24752,9.72183
392,519,14.9144,-31.1628,0,0,0,0,0,0,0,-1,1616,505,14.9144,31.1629
399,519,14.7974,-30.7458,-0.00151722,-0.0015043,-0.00426542,0.00275466,-0.00577618,-0.786155,0.00502721,0.0464645,1623,505,14.7973,30.7459
406,519,14.6965,-30.2836,-0.00121841,-0.00146425,-0.00391354,0.00257414,-0.0052568,-0.769699,0.00460878,0.0320165,1630,505,14.6965,30.2836
413,519,14.7283,-29.6674,-0.000377583,-0.000549758,-0.00281246,0.0023501,-0.00327744,-0.770098,0.00326374,0.0157658,1637,505,14.7283,29.6674
420,519,14.6537,-28.9741,0.000147689,1.41863e-05,-0.00194083,0.00202292,-0.00186104,-0.768208,0.00224305,0.0150121,1644,505,14.6536,28.9741
427,519,14.6331,-28.3058,0.000497269,0.0004936,-0.00113683,0.00163226,-0.000641394,-0.784591,0.00135361,0.0132381,1651,505,14.6331,28.3058
434,519,14.6086,-27.6284,0.000850643,0.000887588,-0.000333219,0.00120285,0.000535385,-0.813088,0.000695857,0.0124964,1658,505,14.6086,27.6284
441,519,14.5696,-26.9139,0.00120981,0.00130245,0.000447358,0.00170588,0.000806381,0.836987,0.000985379,0.0125689,1665,505,14.5696,26.914
448,519,14.5579,-26.2447,0.00157056,0.00161918,0.00123065,0.00282576,0.000363982,0.795275,0.001775,0.0103196,1672,505,14.5579,26.2447
455,519,14.5181,-25.6113,0.00185179,0.00202903,0.00199045,0.00393282,-5.20103e-05,0.807645,0.00263939,0.0113728,1679,505,14.518,25.6113
462,519,14.4993,-24.9161,0.00207424,0.0022703,0.00261985,0.00479395,-0.000449413,0.804098,0.00335581,0.0102342,1686,505,14.4993,24.916
469,519,14.4943,-24.214,0.00233088,0.00236727,0.00317905,0.00552818,-0.000830028,0.78826,0.003991,0.0107932,1693,505,14.4943,24.214
476,519,14.4547,-23.4926,0.00264556,0.00249757,0.00385783,0.0064301,-0.00128697,0.775809,0.0047739,0.0134341,1700,505,14.4547,23.4925
483,519,14.4294,-22.778,0.00288039,0.00255051,0.00439993,0.00711847,-0.00168757,0.766664,0.00539685,0.0149703,1707,505,14.4295,22.778
490,519,14.4011,-22.0201,0.00320128,0.00251143,0.00501522,0.00788342,-0.00217071,0.751064,0.00610911,0.0127155,1714,505,14.4011,22.0201
497,519,14.3768,-21.3898,0.00358631,0.00220769,0.00552085,0.00846072,-0.00266671,0.723291,0.00670845,0.0231976,1721,505,14.3768,21.3898
504,519,14.2887,-20.6538,0.00386538,0.00182647,0.00586653,0.00880037,-0.00310852,0.69937,0.00713257,0.0244914,1728,505,14.2887,20.6538
511,519,14.3263,-19.8621,0.0042561,0.000948047,0.00599528,0.00882133,-0.00361719,0.650802,0.00738793,0.0314588,1735,505,14.3263,19.8621
518,519,14.2245,-19.2491,0.00521875,0.000557036,0.00665127,0.00993575,-0.00415996,0.616866,0.0083628,0.0476241,1742,505,14.2245,19.2492
525,519,14.3879,-18.3211,0.0061183,0.00013989,0.00720016,0.0109251,-0.00466691,0.588646,0.0092406,0.0490861,1749,505,14.3879,18.3211
532,519,14.759,-17.2789,0,0,0,0,0,0,0,-1,1756,505,14.7591,17.2789
539,519,12.7399,-17.0198,0,0,0,0,0,0,0,-1,1763,505,12.7399,17.0198
546,519,12.4001,-16.5616,0,0,0,0,0,0,0,-1,1770,505,12.4002,16.5616
553,519,4.14136,0.0667419,0,0,0,0,0,0,0,-1,1777,505,4.14141,-0.0667503
560,519,3.77856,0.279724,0,0,0,0,0,0,0,-1,1784,505,3.77861,-0.279731
567,519,0,0,0,0,0,0,0,0,0,-1,1791,505,0,0
574,519,0,0,0,0,0,0,0,0,0,-1,1798,505,0,0
581,519,0,0,0,0,0,0,0,0,0,-1,1805,505,0,0
588,519,0,0,0,0,0,0,0,0,0,-1,1812,505,0,0
595,519,0,0,0,0,0,0,0,0,0,-1,1819,505,0,0
602,519,0,0,0,0,0,0,0,0,0,-1,1826,505,0,0
609,519,0,0,0,0,0,0,0,0,0,-1,1833,505,0,0
616,519,0,0,0,0,0,0,0,0,0,-1,1840,505,0,0
623,519,0,0,0,0,0,0,0,0,0,-1,1847,505,0,0
630,519,0,0,0,0,0,0,0,0,0,-1,1854,505,0,0
637,519,0,0,0,0,0,0,0,0,0,-1,1861,505,0,0
644,519,0,0,0,0,0,0,0,0,0,-1,1868,505,0,0
651,519,0,0,0,0,0,0,0,0,0,-1,1875,505,0,0
658,519,0,0,0,0,0,0,0,0,0,-1,1882,505,0,0
665,519,0,0,0,0,0,0,0,0,0,-1,1889,505,0,0
672,519,0,0,0,0,0,0,0,0,0,-1,1896,505,0,0
679,519,0,0,0,0,0,0,0,0,0,-1,1903,505,0,0
686,519,0,0,0,0,0,0,0,0,0,-1,1910,505,0,0
693,519,0,0,0,0,0,0,0,0,0,-1,1917,505,0,0
700,519,0,0,0,0,0,0,0,0,0,-1,1924,505,0,0
707,519,0,0,0,0,0,0,0,0,0,-1,1931,505,0,0
714,519,0,0,0,0,0,0,0,0,0,-1,1938,505,0,0
721,519,0,0,0,0,0,0,0,0,0,-1,1945,505,0,0
728,519,0,0,0,0,0,0,0,0,0,-1,1952,505,0,0
735,519,0,0,0,0,0,0,0,0,0,-1,1959,505,0,0
742,519,0,0,0,0,0,0,0,0,0,-1,1966,505,0,0
749,519,0,0,0,0,0,0,0,0,0,-1,1973,505,0,0
756,519,0,0,0,0,0,0,0,0,0,-1,1980,505,0,0
763,519,0,0,0,0,0,0,0,0,0,-1,1987,505,0,0
770,519,0,0,0,0,0,0,0,0,0,-1,1994,505,0,0
777,519,0,0,0,0,0,0,0,0,0,-1,2001,505,0,0
784,519,0,0,0,0,0,0,0,0,0,-1,2008,505,0,0
791,519,0,0,0,0,0,0,0,0,0,-1,2015,505,0,0
798,519,0,0,0,0,0,0,0,0,0,-1,2022,505,0,0
805,519,0,0,0,0,0,0,0,0,0,-1,2029,505,0,0
812,519,0,0,0,0,0,0,0,0,0,-1,2036,505,0,0
-700,512,0,0,0,0,0,0,0,0,0,-1,524,512,0,0
-693,512,0,0,0,0,0,0,0,0,0,-1,531,512,0,0
-686,512,0,0,0,0,0,0,0,0,0,-1,538,512,0,0
-679,512,0,0,0,0,0,0,0,0,0,-1,545,512,0,0
-672,512,0,0,0,0,0,0,0,0,0,-1,552,512,0,0
-665,512,0,0,0,0,0,0,0,0,0,-1,559,512,0,0
-658,512,0,0,0,0,0,0,0,0,0,-1,566,512,0,0
-651,512,0,0,0,0,0,0,0,0,0,-1,573,512,0,0
-644,512,0,0,0,0,0,0,0,0,0,-1,580,512,0,0
-637,512,0,0,0,0,0,0,0,0,0,-1,587,512,0,0
-630,512,0,0,0,0,0,0,0,0,0,-1,594,512,0,0
-623,512,0,0,0,0,0,0,0,0,0,-1,601,512,0,0
-616,512,0,0,0,0,0,0,0,0,0,-1,608,512,0,0
-609,512,0,0,0,0,0,0,0,0,0,-1,615,512,0,0
-602,512,0,0,0,0,0,0,0,0,0,-1,622,512,0,0
-595,512,0,0,0,0,0,0,0,0,0,-1,629,512,0,0
-588,512,0,0,0,0,0,0,0,0,0,-1,636,512,0,0
-581,512,0,0,0,0,0,0,0,0,0,-1,643,512,0,0
-574,512,0,0,0,0,0,0,0,0,0,-1,650,512,0,0
-567,512,0,0,0,0,0,0,0,0,0,-1,657,512,0,0
-560,512,0,0,0,0,0,0,0,0,0,-1,664,512,0,0
-553,512,0,0,0,0,0,0,0,0,0,-1,671,512,0,0
-546,512,0,0,0,0,0,0,0,0,0,-1,678,512,0,0
-539,512,0,0,0,0,0,0,0,0,0,-1,685,512,0,0
-532,512,0,0,0,0,0,0,0,0,0,-1,692,512,0,0
-525,512,0,0,0,0,0,0,0,0,0,-1,699,512,0,0
-518,512,0,0,0,0,0,0,0,0,0,-1,706,512,0,0
-511,512,0,0,0,0,0,0,0,0,0,-1,713,512,0,0
-504,512,0,0,0,0,0,0,0,0,0,-1,720,512,0,0
-497,512,0,0,0,0,0,0,0,0,0,-1,727,512,0,0
-490,512,0,0,0,0,0,0,0,0,0,-1,734,512,0,0
-483,512,0,0,0,0,0,0,0,0,0,-1,741,512,0,0
-476,512,0,0,0,0,0,0,0,0,0,-1,748,512,0,0
-469,512,0,0,0,0,0,0,0,0,0,-1,755,512,0,0
-462,512,0,0,0,0,0,0,0,0,0,-1,762,512,0,0
-455,512,0,0,0,0,0,0,0,0,0,-1,769,512,0,0
-448,512,1.96283,-4.15674,0,0,0,0,0,0,0,-1,776,512,1.96285,4.15677
-441,512,1.78198,-4.88824,0,0,0,0,0,0,0,-1,783,512,1.78201,4.88826
-434,512,0.0726929,-9.85822,0,0,0,0,0,0,0,-1,790,512,0.0727008,9.85819
-427,512,-0.384583,-9.94824,0,0,0,0,0,0,0,-1,797,512,-0.384552,9.94823
-420,512,-2.93219,-12.4855,0,0,0,0,0,0,0,-1,804,512,-2.93219,12.4855
-413,512,-2.22711,-11.4485,0,0,0,0,0,0,0,-1,811,512,-2.22712,11.4485
-406,512,-2.38037,-13.5743,0,0,0,0,0,0,0,-1,818,512,-2.38034,13.5743
-399,512,-2.51556,-19.2383,0,0,0,0,0,0,0,-1,825,512,-2.51559,19.2383
-392,512,-2.35864,-20.0722,0.00548221,0.0200407,-0.013044,0.0276991,-0.00217619,-1.0399,0.0192326,0.0486387,832,512,-2.35866,20.0722
-385,512,-2.39532,-20.8612,0.00510949,0.0175427,-0.0114967,0.0243959,-0.00174374,-1.03325,0.0168753,0.0231082,839,512,-2.39534,20.8612
-378,512,-2.44427,-21.5502,0.0046097,0.0150515,-0.00997291,0.0210875,-0.00142624,-1.02654,0.014557,0.0167924,846,512,-2.44428,21.5502
-371,512,-2.45142,-22.2949,0.00411092,0.0126174,-0.00845377,0.0178276,-0.00109926,-1.01847,0.0122679,0.0128089,853,512,-2.4514,22.2949
-364,512,-2.46246,-23.0771,0.0035665,0.0103876,-0.00694595,0.0147151,-0.000761047,-1.01361,0.0100734,0.0103224,860,512,-2.46244,23.0772
-357,512,-2.47186,-23.7763,0.00300301,0.00832003,-0.00553611,0.0118029,-0.000479829,-1.00924,0.0080333,0.0108934,867,512,-2.47188,23.7763
-350,512,-2.50671,-24.4584,0.00250249,0.00637287,-0.00425755,0.0091144,-0.00023904,-0.998706,0.00615749,0.0110033,874,512,-2.50671,24.4584
-343,512,-2.58606,-25.1298,0.00210533,0.00444941,-0.00310767,0.0065987,-4.39661e-05,-0.965723,0.00441386,0.0134728,881,512,-2.58604,25.1298
-336,512,-2.64587,-25.8087,0.00175925,0.00280974,-0.00206141,0.00441177,0.000157218,-0.910144,0.0028902,0.0152197,888,512,-2.64584,25.8087
-329,512,-2.62927,-26.4674,0.00152996,0.00138651,-0.00118403,0.00264443,0.000272034,-0.755146,0.00167963,0.0170636,895,512,-2.62927,26.4674
-322,512,-2.64343,-27.1213,0.0014308,0.000217389,-0.000429438,0.0015674,8.07849e-05,-0.307978,0.00101907,0.0138408,902,512,-2.64344,27.1213
-315,512,-2.67267,-27.7944,0.00152892,-0.000669613,0.000160803,0.00154062,-0.000681312,0.0726259,0.00131442,0.0110941,909,512,-2.67266,27.7944
-308,512,-2.7027,-28.4423,0.00183363,-0.00121724,0.000584882,0.00194191,-0.00132553,0.183066,0.00189761,0.0110442,916,512,-2.70267,28.4423
-301,512,-2.72992,-29.0788,0.00215359,-0.00152608,0.000907258,0.00236512,-0.00173761,0.229064,0.00237793,0.0158567,923,512,-2.72994,29.0788
-294,512,-2.7395,-29.6905,0.00250488,-0.00165059,0.00132388,0.0028908,-0.00203652,0.283653,0.00285901,0.0163169,930,512,-2.73948,29.6905
-287,512,-2.87384,-30.2503,0.00303758,-0.00191031,0.00168738,0.00355824,-0.00243097,0.299293,0.00347823,0.0291071,937,512,-2.87382,30.2503
-280,512,-2.82623,-31.0189,0,0,0,0,0,0,0,-1,944,512,-2.82624,31.0189
-273,512,-2.57739,-31.8061,0,0,0,0,0,0,0,-1,951,512,-2.57741,31.8061
-266,512,-2.33594,-25.9839,0,0,0,0,0,0,0,-1,958,512,-2.33592,25.9839
-259,512,-0.525452,-14.0815,0,0,0,0,0,0,0,-1,965,512,-0.525475,14.0815
-252,512,1.45941,-3.43475,0,0,0,0,0,0,0,-1,972,512,1.45938,3.43475
-245,512,-1.6731,-22.8959,0,0,0,0,0,0,0,-1,979,512,-1.67312,22.8959
-238,512,0.227051,-8.92969,0,0,0,0,0,0,0,-1,986,512,0.227073,8.92968
-231,512,-0.907349,-32.3113,0,0,0,0,0,0,0,-1,993,512,-0.907339,32.3113
-224,512,-1.29974,-33.6304,0,0,0,0,0,0,0,-1,1000,512,-1.29974,33.6304
-217,512,-0.963196,-34.1697,0,0,0,0,0,0,0,-1,1007,512,-0.963226,34.1697
-210,512,-3.76642,-1.94702,0,0,0,0,0,0,0,-1,1014,512,-3.76641,1.94702
-203,512,-2.48328,-5.19061,0,0,0,0,0,0,0,-1,1021,512,-2.48328,5.19059
-196,512,-1.14929,-4.63202,0,0,0,0,0,0,0,-1,1028,512,-1.14934,4.632
-189,512,0.197998,4.55505,0,0,0,0,0,0,0,-1,1035,512,0.197996,-4.55506
-182,512,2.73938,0.0778503,0,0,0,0,0,0,0,-1,1042,512,2.73944,-0.077852
-175,512,2.29565,0.209808,0,0,0,0,0,0,0,-1,1049,512,2.29565,-0.209813
-168,512,2.09399,-0.302856,0,0,0,0,0,0,0,-1,1056,512,2.09403,0.302826
-161,512,2.76636,0.0921021,0,0,0,0,0,0,0,-1,1063,512,2.76633,-0.0921104
-154,512,3.41382,0.466187,0,0,0,0,0,0,0,-1,1070,512,3.41382,-0.466178
-147,512,0,0,0,0,0,0,0,0,0,-1,1077,512,0,0
-140,512,0,0,0,0,0,0,0,0,0,-1,1084,512,0,0
-133,512,0,0,0,0,0,0,0,0,0,-1,1091,512,0,0
-126,512,0,0,0,0,0,0,0,0,0,-1,1098,512,0,0
-119,512,0,0,0,0,0,0,0,0,0,-1,1105,512,0,0
-112,512,0,0,0,0,0,0,0,0,0,-1,1112,512,0,0
-105,512,0,0,0,0,0,0,0,0,0,-1,1119,512,0,0
-98,512,0,0,0,0,0,0,0,0,0,-1,1126,512,0,0
-91,512,0,0,0,0,0,0,0,0,0,-1,1133,512,0,0
-84,512,0,0,0,0,0,0,0,0,0,-1,1140,512,0,0
-77,512,0,0,0,0,0,0,0,0,0,-1,1147,512,0,0
-70,512,0,0,0,0,0,0,0,0,0,-1,1154,512,0,0
-63,512,0,0,0,0,0,0,0,0,0,-1,1161,512,0,0
-56,512,0,0,0,0,0,0,0,0,0,-1,1168,512,0,0
-49,512,0,0,0,0,0,0,0,0,0,-1,1175,512,0,0
-42,512,0,0,0,0,0,0,0,0,0,-1,1182,512,0,0
-35,512,0,0,0,0,0,0,0,0,0,-1,1189,512,0,0
-28,512,0,0,0,0,0,0,0,0,0,-1,1196,512,0,0
-21,512,0,0,0,0,0,0,0,0,0,-1,1203,512,0,0
-14,512,0,0,0,0,0,0,0,0,0,-1,1210,512,0,0
-7,512,0,0,0,0,0,0,0,0,0,-1,1217,512,0,0
0,512,0,0,0,0,0,0,0,0,0,-1,1224,512,0,0
7,512,0,0,0,0,0,0,0,0,0,-1,1231,512,0,0
14,512,0,0,0,0,0,0,0,0,0,-1,1238,512,0,0
21,512,0,0,0,0,0,0,0,0,0,-1,1245,512,0,0
28,512,0,0,0,0,0,0,0,0,0,-1,1252,512,0,0
35,512,0,0,0,0,0,0,0,0,0,-1,1259,512,0,0
42,512,0,0,0,0,0,0,0,0,0,-1,1266,512,0,0
49,512,0,0,0,0,0,0,0,0,0,-1,1273,512,0,0
56,512,0,0,0,0,0,0,0,0,0,-1,1280,512,0,0
63,512,0,0,0,0,0,0,0,0,0,-1,1287,512,0,0
70,512,0,0,0,0,0,0,0,0,0,-1,1294,512,0,0
77,512,0,0,0,0,0,0,0,0,0,-1,1301,512,0,0
84,512,0,0,0,0,0,0,0,0,0,-1,1308,512,0,0
91,512,0,0,0,0,0,0,0,0,0,-1,1315,512,0,0
98,512,0,0,0,0,0,0,0,0,0,-1,1322,512,0,0
105,512,0,0,0,0,0,0,0,0,0,-1,1329,512,0,0
112,512,0,0,0,0,0,0,0,0,0,-1,1336,512,0,0
119,512,0,0,0,0,0,0,0,0,0,-1,1343,512,0,0
126,512,0,0,0,0,0,0,0,0,0,-1,1350,512,0,0
133,512,0,0,0,0,0,0,0,0,0,-1,1357,512,0,0
140,512,0,0,0,0,0,0,0,0,0,-1,1364,512,0,0
147,512,0,0,0,0,0,0,0,0,0,-1,1371,512,0,0
154,512,0,0,0,0,0,0,0,0,0,-1,1378,512,0,0
161,512,0,0,0,0,0,0,0,0,0,-1,1385,512,0,0
168,512,0,0,0,0,0,0,0,0,0,-1,1392,512,0,0
175,512,0,0,0,0,0,0,0,0,0,-1,1399,512,0,0
182,512,0,0,0,0,0,0,0,0,0,-1,1406,512,0,0
189,512,0,0,0,0,0,0,0,0,0,-1,1413,512,0,0
196,512,0,0,0,0,0,0,0,0,0,-1,1420,512,0,0
203,512,0,0,0,0,0,0,0,0,0,-1,1427,512,0,0
210,512,0,0,0,0,0,0,0,0,0,-1,1434,512,0,0
217,512,0,0,0,0,0,0,0,0,0,-1,1441,512,0,0
224,512,0,0,0,0,0,0,0,0,0,-1,1448,512,0,0
231,512,0,0,0,0,0,0,0,0,0,-1,1455,512,0,0
238,512,0,0,0,0,0,0,0,0,0,-1,1462,512,0,0
245,512,0,0,0,0,0,0,0,0,0,-1,1469,512,0,0
252,512,0,0,0,0,0,0,0,0,0,-1,1476,512,0,0
259,512,0,0,0,0,0,0,0,0,0,-1,1483,512,0,0
266,512,0,0,0,0,0,0,0,0,0,-1,1490,512,0,0
273,512,4.00745,0.618622,0,0,0,0,0,0,0,-1,1497,512,4.00747,-0.618611
280,512,4.49609,0.649841,0,0,0,0,0,0,0,-1,1504,512,4.49612,-0.649834
287,512,4.77234,0.458069,0,0,0,0,0,0,0,-1,1511,512,4.77233,-0.458083
294,512,8.54956,-2.36273,0,0,0,0,0,0,0,-1,1518,512,8.54952,2.36274
301,512,6.302,-1.69092,0,0,0,0,0,0,0,-1,1525,512,6.30196,1.69093
308,512,8.2439,-6.22754,0,0,0,0,0,0,0,-1,1532,512,8.24394,6.22757
315,512,7.53687,-6.04211,0,0,0,0,0,0,0,-1,1539,512,7.53691,6.04211
322,512,6.82983,-5.85663,0,0,0,0,0,0,0,-1,1546,512,6.82988,5.85666
329,512,4.38147,-0.329651,0,0,0,0,0,0,0,-1,1553,512,4.38144,0.329662
336,512,4.41467,-0.741455,0,0,0,0,0,0,0,-1,1560,512,4.41467,0.741442
343,512,4.44727,-1.21667,0,0,0,0,0,0,0,-1,1567,512,4.44732,1.21666
350,512,4.55469,-1.65082,0,0,0,0,0,0,0,-1,1574,512,4.5547,1.65083
357,512,5.79993,-2.67456,0,0,0,0,0,0,0,-1,1581,512,5.79991,2.67454
364,512,13.118,-28.5485,0,0,0,0,0,0,0,-1,1588,512,13.1181,28.5485
371,512,5.28467,-7.69269,0,0,0,0,0,0,0,-1,1595,512,5.28464,7.69269
378,512,6.29407,-9.88055,0,0,0,0,0,0,0,-1,1602,512,6.29412,9.88057
385,512,6.45569,-9.32233,0,0,0,0,0,0,0,-1,1609,512,6.45565,9.3223
392,512,6.35522,-8.98425,0,0,0,0,0,0,0,-1,1616,512,6.35526,8.98422
399,512,15.5786,-30.3475,0,0,0,0,0,0,0,-1,1623,512,15.5786,30.3474
406,512,15.4348,-30.3551,0,0,0,0,0,0,0,-1,1630,512,15.4348,30.3551
413,512,15.4867,-29.7392,0,0,0,0,0,0,0,-1,1637,512,15.4867,29.7392
420,512,15.3823,-29.0201,0.00113912,9.04544e-05,-0.00202133,0.00270302,-0.00147344,-0.658495,0.00244586,0.0268273,1644,512,15.3823,29.0201
427,512,15.3191,-28.2885,0.00124524,0.000395048,-0.00142371,0.00230596,-0.000665671,-0.640319,0.00180069,0.0148129,1651,512,15.319,28.2884
434,512,15.2838,-27.6183,0.00130079,0.000597539,-0.000872553,0.0018899,8.42538e-06,-0.59386,0.00125714,0.0121987,1658,512,15.2838,27.6183
441,512,15.2427,-26.9195,0.00134465,0.000828416,-0.000356581,0.00152673,0.000646335,-0.472114,0.000884906,0.0142236,1665,512,15.2427,26.9195
448,512,15.2296,-26.256,0.00142897,0.000984697,0.000184959,0.00149589,0.000917776,0.347166,0.000871041,0.0101158,1672,512,15.2297,26.256
455,512,15.197,-25.5684,0.00146837,0.00130288,0.000731407,0.0021217,0.000649551,0.729074,0.00125528,0.00944268,1679,512,15.197,25.5684
462,512,15.1788,-24.8674,0.00147458,0.00145988,0.00117311,0.00264036,0.000294098,0.782264,0.00167086,0.00969968,1686,512,15.1788,24.8674
469,512,15.1541,-24.1609,0.00154935,0.00154176,0.00162,0.00316556,-7.44462e-05,0.784226,0.00213562,0.0116829,1693,512,15.154,24.1609
476,512,15.1246,-23.4697,0.00170997,0.00167494,0.00220067,0.00389319,-0.000508283,0.781419,0.00278042,0.0145192,1700,512,15.1246,23.4696
483,512,15.1132,-22.754,0.00184944,0.00175573,0.00268719,0.00449019,-0.000885013,0.776681,0.00332792,0.013533,1707,512,15.1131,22.754
490,512,15.0886,-22.0332,0.00206262,0.00182568,0.00325636,0.00520266,-0.00131436,0.767215,0.00397958,0.0107464,1714,512,15.0886,22.0332
497,512,15.049,-21.318,0.00234225,0.0017449,0.00379618,0.00585148,-0.00176434,0.74614,0.00460322,0.0112494,1721,512,15.0489,21.318
504,512,14.9822,-20.5732,0.00271218,0.00160299,0.00431729,0.00651035,-0.00219519,0.721519,0.00522792,0.0136925,1728,512,14.9822,20.5732
511,512,14.9568,-19.7925,0.00312047,0.00134161,0.00479043,0.00710333,-0.00264126,0.693609,0.00581933,0.0186062,1735,512,14.9568,19.7925
518,512,14.998,-19.0709,0.00357006,0.00121226,0.00529843,0.00781916,-0.00303684,0.675932,0.00646725,0.0240928,1742,512,14.9981,19.0709
525,512,15.0773,-18.2984,0.00394767,0.00109507,0.00572953,0.00842576,-0.00338303,0.663409,0.00702196,0.0444675,1749,512,15.0772,18.2984
532,512,15.4156,-17.2745,0,0,0,0,0,0,0,-1,1756,512,15.4156,17.2745
539,512,12.6367,-16.4022,0,0,0,0,0,0,0,-1,1763,512,12.6367,16.4021
546,512,2.77551,-0.66449,0,0,0,0,0,0,0,-1,1770,512,2.77548,0.664503
553,512,3.927,-0.448853,0,0,0,0,0,0,0,-1,1777,512,3.92704,0.448843
560,512,3.55762,-0.201233,0,0,0,0,0,0,0,-1,1784,512,3.55768,0.201259
567,512,3.09045,0.191193,0,0,0,0,0,0,0,-1,1791,512,3.09045,-0.191203
574,512,0,0,0,0,0,0,0,0,0,-1,1798,512,0,0
581,512,0,0,0,0,0,0,0,0,0,-1,1805,512,0,0
588,512,0,0,0,0,0,0,0,0,0,-1,1812,512,0,0
595,512,0,0,0,0,0,0,0,0,0,-1,1819,512,0,0
602,512,0,0,0,0,0,0,0,0,0,-1,1826,512,0,0
609,512,0,0,0,0,0,0,0,0,0,-1,1833,512,0,0
616,512,0,0,0,0,0,0,0,0,0,-1,1840,512,0,0
623,512,0,0,0,0,0,0,0,0,0,-1,1847,512,0,0
630,512,0,0,0,0,0,0,0,0,0,-1,1854,512,0,0
637,512,0,0,0,0,0,0,0,0,0,-1,1861,512,0,0
644,512,0,0,0,0,0,0,0,0,0,-1,1868,512,0,0
651,512,0,0,0,0,0,0,0,0,0,-1,1875,512,0,0
658,512,0,0,0,0,0,0,0,0,0,-1,1882,512,0,0
665,512,0,0,0,0,0,0,0,0,0,-1,1889,512,0,0
672,512,0,0,0,0,0,0,0,0,0,-1,1896,512,0,0
679,512,0,0,0,0,0,0,0,0,0,-1,1903,512,0,0
686,512,0,0,0,0,0,0,0,0,0,-1,1910,512,0,0
693,512,0,0,0,0,0,0,0,0,0,-1,1917,512,0,0
700,512,0,0,0,0,0,0,0,0,0,-1,1924,512,0,0
707,512,0,0,0,0,0,0,0,0,0,-1,1931,512,0,0
714,512,0,0,0,0,0,0,0,0,0,-1,1938,512,0,0
721,512,0,0,0,0,0,0,0,0,0,-1,1945,512,0,0
728,512,0,0,0,0,0,0,0,0,0,-1,1952,512,0,0
735,512,0,0,0,0,0,0,0,0,0,-1,1959,512,0,0
742,512,0,0,0,0,0,0,0,0,0,-1,1966,512,0,0
749,512,0,0,0,0,0,0,0,0,0,-1,1973,512,0,0
756,512,0,0,0,0,0,0,0,0,0,-1,1980,512,0,0
763,512,0,0,0,0,0,0,0,0,0,-1,1987,512,0,0
770,512,0,0,0,0,0,0,0,0,0,-1,1994,512,0,0
777,512,0,0,0,0,0,0,0,0,0,-1,2001,512,0,0
784,512,0,0,0,0,0,0,0,0,0,-1,2008,512,0,0
791,512,0,0,0,0,0,0,0,0,0,-1,2015,512,0,0
798,512,0,0,0,0,0,0,0,0,0,-1,2022,512,0,0
805,512,0,0,0,0,0,0,0,0,0,-1,2029,512,0,0
812,512,0,0,0,0,0,0,0,0,0,-1,2036,512,0,0
-700,505,0,0,0,0,0,0,0,0,0,-1,524,519,0,0
-693,505,0,0,0,0,0,0,0,0,0,-1,531,519,0,0
-686,505,0,0,0,0,0,0,0,0,0,-1,538,519,0,0
-679,505,0,0,0,0,0,0,0,0,0,-1,545,519,0,0
-672,505,0,0,0,0,0,0,0,0,0,-1,552,519,0,0
-665,505,0,0,0,0,0,0,0,0,0,-1,559,519,0,0
-658,505,0,0,0,0,0,0,0,0,0,-1,566,519,0,0
-651,505,0,0,0,0,0,0,0,0,0,-1,573,519,0,0
-644,505,0,0,0,0,0,0,0,0,0,-1,580,519,0,0
-637,505,0,0,0,0,0,0,0,0,0,-1,587,519,0,0
-630,505,0,0,0,0,0,0,0,0,0,-1,594,519,0,0
-623,505,0,0,0,0,0,0,0,0,0,-1,601,519,0,0
-616,505,0,0,0,0,0,0,0,0,0,-1,608,519,0,0
-609,505,0,0,0,0,0,0,0,0,0,-1,615,519,0,0
-602,505,0,0,0,0,0,0,0,0,0,-1,622,519,0,0
-595,505,0,0,0,0,0,0,0,0,0,-1,629,519,0,0
-588,505,0,0,0,0,0,0,0,0,0,-1,636,519,0,0
-581,505,0,0,0,0,0,0,0,0,0,-1,643,519,0,0
-574,505,0,0,0,0,0,0,0,0,0,-1,650,519,0,0
-567,505,0,0,0,0,0,0,0,0,0,-1,657,519,0,0
-560,505,0,0,0,0,0,0,0,0,0,-1,664,519,0,0
-553,505,0,0,0,0,0,0,0,0,0,-1,671,519,0,0
-546,505,0,0,0,0,0,0,0,0,0,-1,678,519,0,0
-539,505,0,0,0,0,0,0,0,0,0,-1,685,519,0,0
-532,505,0,0,0,0,0,0,0,0,0,-1,692,519,0,0
-525,505,0,0,0,0,0,0,0,0,0,-1,699,519,0,0
-518,505,0,0,0,0,0,0,0,0,0,-1,706,519,0,0
-511,505,0,0,0,0,0,0,0,0,0,-1,713,519,0,0
-504,505,0,0,0,0,0,0,0,0,0,-1,720,519,0,0
-497,505,0,0,0,0,0,0,0,0,0,-1,727,519,0,0
-490,505,0,0,0,0,0,0,0,0,0,-1,734,519,0,0
-483,505,0,0,0,0,0,0,0,0,0,-1,741,519,0,0
-476,505,0,0,0,0,0,0,0,0,0,-1,748,519,0,0
-469,505,0,0,0,0,0,0,0,0,0,-1,755,519,0,0
-462,505,0,0,0,0,0,0,0,0,0,-1,762,519,0,0
-455,505,2.72137,-3.26379,0,0,0,0,0,0,0,-1,769,519,2.72135,3.26377
-448,505,2.51111,-3.94989,0,0,0,0,0,0,0,-1,776,519,2.51112,3.94986
-441,505,2.80212,-6.8902,0,0,0,0,0,0,0,-1,783,519,2.80209,6.89019
-434,505,-0.155212,-10.6374,0,0,0,0,0,0,0,-1,790,519,-0.155194,10.6374
-427,505,-0.474426,-10.4702,0,0,0,0,0,0,0,-1,797,519,-0.474433,10.4702
-420,505,-0.922546,-10.1928,0,0,0,0,0,0,0,-1,804,519,-0.92257,10.1928
-413,505,-3.33948,-13.6183,0,0,0,0,0,0,0,-1,811,519,-3.33949,13.6184
-406,505,-2.86981,-15.8972,0,0,0,0,0,0,0,-1,818,519,-2.86981,15.8972
-399,505,-2.83386,-18.9354,0,0,0,0,0,0,0,-1,825,519,-2.83384,18.9354
-392,505,-2.99036,-20.0678,0.00371823,0.0155066,-0.0102263,0.0214158,-0.0021909,-1.04683,0.0150607,0.026387,832,519,-2.99034,20.0678
-385,505,-3.06018,-20.8699,0.00364325,0.0133682,-0.00900767,0.018742,-0.00173057,-1.03289,0.0131097,0.0112109,839,519,-3.06017,20.8699
-378,505,-3.11353,-21.5965,0.00350666,0.0113887,-0.00782351,0.0162078,-0.00131238,-1.01872,0.0112682,0.0119445,846,519,-3.11353,21.5965
-371,505,-3.12152,-22.3463,0.00328576,0.00943348,-0.00664607,0.0136821,-0.000962866,-1.002,0.00945871,0.0146248,853,519,-3.12153,22.3463
-364,505,-3.14337,-23.076,0.00298547,0.0075064,-0.00541124,0.0111103,-0.00061847,-0.983249,0.00762141,0.016229,860,519,-3.14338,23.076
-357,505,-3.14398,-23.7695,0.00268703,0.00578578,-0.0042202,0.00873203,-0.000259219,-0.961327,0.00590966,0.0124085,867,519,-3.14399,23.7696
-350,505,-3.19659,-24.4335,0.00243024,0.00417154,-0.0031533,0.00657218,2.95986e-05,-0.920095,0.00437162,0.0109063,874,519,-3.19657,24.4334
-343,505,-3.25861,-25.1164,0.00220656,0.00252088,-0.00217136,0.00454076,0.000186676,-0.821524,0.00296691,0.010544,881,519,-3.25863,25.1164
-336,505,-3.29181,-25.7939,0.0019859,0.00105948,-0.00124675,0.00285271,0.000192672,-0.607535,0.00184095,0.0137591,888,519,-3.29182,25.7939
-329,505,-3.28137,-26.4357,0.00187223,-0.000221902,-0.000461193,0.0019693,-0.000318971,-0.207447,0.00143109,0.0197342,895,519,-3.28136,26.4357
-322,505,-3.29236,-27.1105,0.00192929,-0.00124579,0.000170386,0.00193841,-0.0012549,0.0534588,0.00185768,0.0223419,902,519,-3.29233,27.1105
-315,505,-3.34778,-27.7781,0.00216834,-0.00202642,0.00065839,0.00226925,-0.00212733,0.152085,0.00253881,0.015874,909,519,-3.34778,27.7781
-308,505,-3.37878,-28.3928,0.00258588,-0.00242067,0.00102824,0.00278883,-0.00262362,0.194873,0.00312537,0.0121814,916,519,-3.37876,28.3928
-301,505,-3.37579,-29.0317,0.0029639,-0.00259288,0.00131214,0.00325815,-0.00288713,0.220607,0.00355014,0.0183198,923,519,-3.37577,29.0317
-294,505,-3.38953,-29.6535,0,0,0,0,0,0,0,-1,930,519,-3.38954,29.6535
-287,505,-3.52905,-30.3561,0,0,0,0,0,0,0,-1,937,519,-3.52907,30.3562
-280,505,-2.79846,-27.7252,0,0,0,0,0,0,0,-1,944,519,-2.79845,27.7252
-273,505,-0.0680542,-9.44867,0,0,0,0,0,0,0,-1,951,519,-0.0680462,9.44866
-266,505,-0.036377,-9.07922,0,0,0,0,0,0,0,-1,958,519,-0.0364055,9.0792
-259,505,0.10321,-6.69824,0,0,0,0,0,0,0,-1,965,519,0.103235,6.69826
-252,505,6.82312,-15.6972,0,0,0,0,0,0,0,-1,972,519,6.82314,15.6972
-245,505,4.26727,-12.9861,0,0,0,0,0,0,0,-1,979,519,4.2673,12.9861
-238,505,1.67432,-11.2307,0,0,0,0,0,0,0,-1,986,519,1.67429,11.2307
-231,505,-0.958435,-8.3075,0,0,0,0,0,0,0,-1,993,519,-0.958421,8.30751
-224,505,-1.46399,-33.4399,0,0,0,0,0,0,0,-1,1000,519,-1.46397,33.4399
-217,505,-6.34302,-1.65533,0,0,0,0,0,0,0,-1,1007,519,-6.34299,1.65535
-210,505,-3.06128,-0.396301,0,0,0,0,0,0,0,-1,1014,519,-3.06129,0.396294
-203,505,-4.26465,2.03607,0,0,0,0,0,0,0,-1,1021,519,-4.26462,-2.03606
-196,505,-5.47595,4.27295,0,0,0,0,0,0,0,-1,1028,519,-5.47597,-4.27292
-189,505,1.51526,5.56207,0,0,0,0,0,0,0,-1,1035,519,1.51523,-5.56209
-182,505,2.97815,7.5097,0,0,0,0,0,0,0,-1,1042,519,2.97812,-7.5097
-175,505,-2.38416,-2.17548,0,0,0,0,0,0,0,-1,1049,519,-2.38411,2.1755
-168,505,0,0,0,0,0,0,0,0,0,-1,1056,519,0,0
-161,505,0,0,0,0,0,0,0,0,0,-1,1063,519,0,0
-154,505,0,0,0,0,0,0,0,0,0,-1,1070,519,0,0
-147,505,0,0,0,0,0,0,0,0,0,-1,1077,519,0,0
-140,505,0,0,0,0,0,0,0,0,0,-1,1084,519,0,0
-133,505,0,0,0,0,0,0,0,0,0,-1,1091,519,0,0
-126,505,0,0,0,0,0,0,0,0,0,-1,1098,519,0,0
-119,505,0,0,0,0,0,0,0,0,0,-1,1105,519,0,0
-112,505,0,0,0,0,0,0,0,0,0,-1,1112,519,0,0
-105,505,0,0,0,0,0,0,0,0,0,-1,1119,519,0,0
-98,505,0,0,0,0,0,0,0,0,0,-1,1126,519,0,0
-91,505,0,0,0,0,0,0,0,0,0,-1,1133,519,0,0
-84,505,0,0,0,0,0,0,0,0,0,-1,1140,519,0,0
-77,505,0,0,0,0,0,0,0,0,0,-1,1147,519,0,0
-70,505,0,0,0,0,0,0,0,0,0,-1,1154,519,0,0
-63,505,0,0,0,0,0,0,0,0,0,-1,1161,519,0,0
-56,505,0,0,0,0,0,0,0,0,0,-1,1168,519,0,0
-49,505,0,0,0,0,0,0,0,0,0,-1,1175,519,0,0
-42,505,0,0,0,0,0,0,0,0,0,-1,1182,519,0,0
-35,505,0,0,0,0,0,0,0,0,0,-1,1189,519,0,0
-28,505,0,0,0,0,0,0,0,0,0,-1,1196,519,0,0
-21,505,0,0,0,0,0,0,0,0,0,-1,1203,519,0,0
-14,505,0,0,0,0,0,0,0,0,0,-1,1210,519,0,0
-7,505,0,0,0,0,0,0,0,0,0,-1,1217,519,0,0
0,505,0,0,0,0,0,0,0,0,0,-1,1224,519,0,0
7,505,0,0,0,0,0,0,0,0,0,-1,1231,519,0,0
14,505,0,0,0,0,0,0,0,0,0,-1,1238,519,0,0
21,505,0,0,0,0,0,0,0,0,0,-1,1245,519,0,0
28,505,0,0,0,0,0,0,0,0,0,-1,1252,519,0,0
35,505,0,0,0,0,0,0,0,0,0,-1,1259,519,0,0
42,505,0,0,0,0,0,0,0,0,0,-1,1266,519,0,0
49,505,0,0,0,0,0,0,0,0,0,-1,1273,519,0,0
56,505,0,0,0,0,0,0,0,0,0,-1,1280,519,0,0
63,505,0,0,0,0,0,0,0,0,0,-1,1287,519,0,0
70,505,0,0,0,0,0,0,0,0,0,-1,1294,519,0,0
77,505,0,0,0,0,0,0,0,0,0,-1,1301,519,0,0
84,505,0,0,0,0,0,0,0,0,0,-1,1308,519,0,0
91,505,0,0,0,0,0,0,0,0,0,-1,1315,519,0,0
98,505,0,0,0,0,0,0,0,0,0,-1,1322,519,0,0
105,505,0,0,0,0,0,0,0,0,0,-1,1329,519,0,0
112,505,0,0,0,0,0,0,0,0,0,-1,1336,519,0,0
119,505,0,0,0,0,0,0,0,0,0,-1,1343,519,0,0
126,505,0,0,0,0,0,0,0,0,0,-1,1350,519,0,0
133,505,0,0,0,0,0,0,0,0,0,-1,1357,519,0,0
140,505,0,0,0,0,0,0,0,0,0,-1,1364,519,0,0
147,505,0,0,0,0,0,0,0,0,0,-1,1371,519,0,0
154,505,0,0,0,0,0,0,0,0,0,-1,1378,519,0,0
161,505,0,0,0,0,0,0,0,0,0,-1,1385,519,0,0
168,505,0,0,0,0,0,0,0,0,0,-1,1392,519,0,0
175,505,0,0,0,0,0,0,0,0,0,-1,1399,519,0,0
182,505,0,0,0,0,0,0,0,0,0,-1,1406,519,0,0
189,505,0,0,0,0,0,0,0,0,0,-1,1413,519,0,0
196,505,0,0,0,0,0,0,0,0,0,-1,1420,519,0,0
203,505,0,0,0,0,0,0,0,0,0,-1,1427,519,0,0
210,505,0,0,0,0,0,0,0,0,0,-1,1434,519,0,0
217,505,0,0,0,0,0,0,0,0,0,-1,1441,519,0,0
224,505,0,0,0,0,0,0,0,0,0,-1,1448,519,0,0
231,505,0,0,0,0,0,0,0,0,0,-1,1455,519,0,0
238,505,0,0,0,0,0,0,0,0,0,-1,1462,519,0,0
245,505,0,0,0,0,0,0,0,0,0,-1,1469,519,0,0
252,505,0,0,0,0,0,0,0,0,0,-1,1476,519,0,0
259,505,0,0,0,0,0,0,0,0,0,-1,1483,519,0,0
266,505,0,0,0,0,0,0,0,0,0,-1,1490,519,0,0
273,505,0,0,0,0,0,0,0,0,0,-1,1497,519,0,0
280,505,0,0,0,0,0,0,0,0,0,-1,1504,519,0,0
287,505,4.39478,0.499512,0,0,0,0,0,0,0,-1,1511,519,4.39476,-0.499506
294,505,4.88867,0.0822754,0,0,0,0,0,0,0,-1,1518,519,4.88871,-0.0822748
301,505,4.82153,-0.0704346,0,0,0,0,0,0,0,-1,1525,519,4.82156,0.0704312
308,505,4.67761,-0.29187,0,0,0,0,0,0,0,-1,1532,519,4.67762,0.291845
315,505,8.44055,-6.54352,0,0,0,0,0,0,0,-1,1539,519,8.44059,6.54349
322,505,4.78955,-0.594116,0,0,0,0,0,0,0,-1,1546,519,4.78957,0.594096
329,505,5.16321,0.434631,0,0,0,0,0,0,0,-1,1553,519,5.16316,-0.434614
336,505,4.94495,-0.920471,0,0,0,0,0,0,0,-1,1560,519,4.945,0.920495
343,505,5.01855,-1.4823,0,0,0,0,0,0,0,-1,1567,519,5.01851,1.48227
350,505,5.33154,-1.77838,0,0,0,0,0,0,0,-1,1574,519,5.33152,1.77838
357,505,5.56567,-1.9425,0,0,0,0,0,0,0,-1,1581,519,5.56562,1.94248
364,505,5.85205,-2.6579,0,0,0,0,0,0,0,-1,1588,519,5.85211,2.65788
371,505,5.88477,-7.00922,0,0,0,0,0,0,0,-1,1595,519,5.88473,7.00924
378,505,5.44104,-7.10162,0,0,0,0,0,0,0,-1,1602,519,5.44099,7.10162
385,505,6.64661,-8.65015,0,0,0,0,0,0,0,-1,1609,519,6.64662,8.65014
392,505,6.34558,-8.3429,0,0,0,0,0,0,0,-1,1616,519,6.34554,8.34288
399,505,7.45898,-9.70386,0,0,0,0,0,0,0,-1,1623,519,7.45899,9.70388
406,505,7.08679,-9.4928,0,0,0,0,0,0,0,-1,1630,519,7.08678,9.49278
413,505,8.4032,-14.0308,0,0,0,0,0,0,0,-1,1637,519,8.4032,14.0308
420,505,16.0389,-29.1925,0,0,0,0,0,0,0,-1,1644,519,16.0389,29.1925
427,505,16.0016,-28.4189,0.00151547,0.000339066,-0.00183333,0.00285265,-0.000998114,-0.630167,0.00230758,0.0318114,1651,519,16.0015,28.4189
434,505,15.959,-27.614,0.00151947,0.000413095,-0.00139975,0.00247138,-0.000538817,-0.597216,0.00185348,0.0136645,1658,519,15.959,27.614
441,505,15.9552,-26.8721,0.00150872,0.0005186,-0.00100009,0.00212957,-0.000102251,-0.555572,0.00145499,0.0117123,1665,519,15.9552,26.872
448,505,15.9252,-26.1995,0.00158177,0.00059889,-0.000542298,0.00182218,0.000358483,-0.417278,0.00111468,0.0110072,1672,519,15.9252,26.1995
455,505,15.8807,-25.5151,0.00161745,0.000902149,-6.08456e-05,0.00162259,0.000897011,-0.084256,0.000938545,0.0112188,1679,519,15.8807,25.5151
462,505,15.839,-24.8153,0.0015872,0.00104093,0.000317738,0.00173307,0.000895067,0.43037,0.00100077,0.0113402,1686,519,15.8389,24.8153
469,505,15.8383,-24.1193,0.00159375,0.00116436,0.000743621,0.00215305,0.000605062,0.644864,0.00128218,0.0115714,1693,519,15.8383,24.1193
476,505,15.8116,-23.4443,0.00165972,0.00132594,0.00127256,0.00277628,0.000209374,0.720197,0.00178516,0.0117582,1700,519,15.8117,23.4443
483,505,15.8014,-22.7532,0.001721,0.00144296,0.00173691,0.00332445,-0.000160485,0.745463,0.00227168,0.0123203,1707,519,15.8014,22.7532
490,505,15.7719,-22.0233,0.00179488,0.00160884,0.00226202,0.00396579,-0.000562073,0.764849,0.00284976,0.0119968,1714,519,15.7719,22.0233
497,505,15.7302,-21.3192,0.00191288,0.00169904,0.00280313,0.00461113,-0.000999212,0.766335,0.00345565,0.0117221,1721,519,15.7303,21.3191
504,505,15.6887,-20.5763,0.00211273,0.0016776,0.00333056,0.00523282,-0.00144249,0.752782,0.0040558,0.0123209,1728,519,15.6887,20.5763
511,505,15.652,-19.8288,0.00227455,0.00166593,0.00382046,0.0058028,-0.00186232,0.745656,0.00461627,0.0151859,1735,519,15.652,19.8288
518,505,15.7079,-19.105,0.00237137,0.00169499,0.00422461,0.00627131,-0.00220495,0.745457,0.00507802,0.0281514,1742,519,15.7079,19.105
525,505,15.5256,-18.317,0.00242652,0.00174317,0.00456107,0.0066587,-0.00248901,0.748013,0.00546125,0.0367882,1749,519,15.5256,18.317
532,505,15.6514,-17.2418,0,0,0,0,0,0,0,-1,1756,519,15.6513,17.2418
539,505,13.9879,-13.9018,0,0,0,0,0,0,0,-1,1763,519,13.988,13.9018
546,505,7.94946,-6.64539,0,0,0,0,0,0,0,-1,1770,519,7.94947,6.64539
553,505,2.82837,0.162659,0,0,0,0,0,0,0,-1,1777,519,2.82841,-0.162672
560,505,3.66223,-0.479797,0,0,0,0,0,0,0,-1,1784,519,3.66219,0.47982
567,505,4.65271,-0.950256,0,0,0,0,0,0,0,-1,1791,519,4.65274,0.95028
574,505,5.54443,-1.19977,0,0,0,0,0,0,0,-1,1798,519,5.54443,1.19974
581,505,0,0,0,0,0,0,0,0,0,-1,1805,519,0,0
588,505,0,0,0,0,0,0,0,0,0,-1,1812,519,0,0
595,505,0,0,0,0,0,0,0,0,0,-1,1819,519,0,0
602,505,0,0,0,0,0,0,0,0,0,-1,1826,519,0,0
609,505,0,0,0,0,0,0,0,0,0,-1,1833,519,0,0
616,505,0,0,0,0,0,0,0,0,0,-1,1840,519,0,0
623,505,0,0,0,0,0,0,0,0,0,-1,1847,519,0,0
630,505,0,0,0,0,0,0,0,0,0,-1,1854,519,0,0
637,505,0,0,0,0,0,0,0,0,0,-1,1861,519,0,0
644,505,0,0,0,0,0,0,0,0,0,-1,1868,519,0,0
651,505,0,0,0,0,0,0,0,0,0,-1,1875,519,0,0
658,505,0,0,0,0,0,0,0,0,0,-1,1882,519,0,0
665,505,0,0,0,0,0,0,0,0,0,-1,1889,519,0,0
672,505,0,0,0,0,0,0,0,0,0,-1,1896,519,0,0
679,505,0,0,0,0,0,0,0,0,0,-1,1903,519,0,0
686,505,0,0,0,0,0,0,0,0,0,-1,1910,519,0,0
693,505,0,0,0,0,0,0,0,0,0,-1,1917,519,0,0
700,505,0,0,0,0,0,0,0,0,0,-1,1924,519,0,0
707,505,0,0,0,0,0,0,0,0,0,-1,1931,519,0,0
714,505,0,0,0,0,0,0,0,0,0,-1,1938,519,0,0
721,505,0,0,0,0,0,0,0,0,0,-1,1945,519,0,0
728,505,0,0,0,0,0,0,0,0,0,-1,1952,519,0,0
735,505,0,0,0,0,0,0,0,0,0,-1,1959,519,0,0
742,505,0,0,0,0,0,0,0,0,0,-1,1966,519,0,0
749,505,0,0,0,0,0,0,0,0,0,-1,1973,519,0,0
756,505,0,0,0,0,0,0,0,0,0,-1,1980,519,0,0
763,505,0,0,0,0,0,0,0,0,0,-1,1987,519,0,0
770,505,0,0,0,0,0,0,0,0,0,-1,1994,519,0,0
777,505,0,0,0,0,0,0,0,0,0,-1,2001,519,0,0
784,505,0,0,0,0,0,0,0,0,0,-1,2008,519,0,0
791,505,0,0,0,0,0,0,0,0,0,-1,2015,519,0,0
798,505,0,0,0,0,0,0,0,0,0,-1,2022,519,0,0
805,505,0,0,0,0,0,0,0,0,0,-1,2029,519,0,0
812,505,0,0,0,0,0,0,0,0,0,-1,2036,519,0,0
-700,498,0,0,0,0,0,0,0,0,0,-1,524,526,0,0
-693,498,0,0,0,0,0,0,0,0,0,-1,531,526,0,0
-686,498,0,0,0,0,0,0,0,0,0,-1,538,526,0,0
-679,498,0,0,0,0,0,0,0,0,0,-1,545,526,0,0
-672,498,0,0,0,0,0,0,0,0,0,-1,552,526,0,0
-665,498,0,0,0,0,0,0,0,0,0,-1,559,526,0,0
-658,498,0,0,0,0,0,0,0,0,0,-1,566,526,0,0
-651,498,0,0,0,0,0,0,0,0,0,-1,573,526,0,0
-644,498,0,0,0,0,0,0,0,0,0,-1,580,526,0,0
-637,498,0,0,0,0,0,0,0,0,0,-1,587,526,0,0
-630,498,0,0,0,0,0,0,0,0,0,-1,594,526,0,0
-623,498,0,0,0,0,0,0,0,0,0,-1,601,526,0,0
-616,498,0,0,0,0,0,0,0,0,0,-1,608,526,0,0
-609,498,0,0,0,0,0,0,0,0,0,-1,615,526,0,0
-602,498,0,0,0,0,0,0,0,0,0,-1,622,526,0,0
-595,498,0,0,0,0,0,0,0,0,0,-1,629,526,0,0
-588,498,0,0,0,0,0,0,0,0,0,-1,636,526,0,0
-581,498,0,0,0,0,0,0,0,0,0,-1,643,526,0,0
-574,498,0,0,0,0,0,0,0,0,0,-1,650,526,0,0
-567,498,0,0,0,0,0,0,0,0,0,-1,657,526,0,0
-560,498,0,0,0,0,0,0,0,0,0,-1,664,526,0,0
-553,498,0,0,0,0,0,0,0,0,0,-1,671,526,0,0
-546,498,0,0,0,0,0,0,0,0,0,-1,678,526,0,0
-539,498,0,0,0,0,0,0,0,0,0,-1,685,526,0,0
-532,498,0,0,0,0,0,0,0,0,0,-1,692,526,0,0
-525,498,0,0,0,0,0,0,0,0,0,-1,699,526,0,0
-518,498,0,0,0,0,0,0,0,0,0,-1,706,526,0,0
-511,498,0,0,0,0,0,0,0,0,0,-1,713,526,0,0
-504,498,0,0,0,0,0,0,0,0,0,-1,720,526,0,0
-497,498,0,0,0,0,0,0,0,0,0,-1,727,526,0,0
-490,498,0,0,0,0,0,0,0,0,0,-1,734,526,0,0
-483,498,0,0,0,0,0,0,0,0,0,-1,741,526,0,0
-476,498,0,0,0,0,0,0,0,0,0,-1,748,526,0,0
-469,498,0,0,0,0,0,0,0,0,0,-1,755,526,0,0
-462,498,6.81024,1.15515,0,0,0,0,0,0,0,-1,762,526,6.81026,-1.15514
-455,498,3.25757,-3.0592,0,0,0,0,0,0,0,-1,769,526,3.25754,3.05921
-448,498,3.05939,-3.74298,0,0,0,0,0,0,0,-1,776,526,3.05939,3.74296
-441,498,2.77191,-6.08209,0,0,0,0,0,0,0,-1,783,526,2.77189,6.08207
-434,498,2.10681,-6.95929,0,0,0,0,0,0,0,-1,790,526,2.10682,6.9593
-427,498,-0.368042,-10.7726,0,0,0,0,0,0,0,-1,797,526,-0.36807,10.7726
-420,498,-1.05035,-10.5142,0,0,0,0,0,0,0,-1,804,526,-1.05034,10.5142
-413,498,-3.41736,-14.6664,0,0,0,0,0,0,0,-1,811,526,-3.41735,14.6664
-406,498,-3.67474,-18.6034,0,0,0,0,0,0,0,-1,818,526,-3.67475,18.6034
-399,498,-3.56,-19.2368,0.00215321,0.0136781,-0.00856685,0.0182402,-0.00240891,-1.08146,0.0130375,0.0281433,825,526,-3.55998,19.2368
-392,498,-3.70355,-20.1215,0.00241205,0.0117851,-0.00778001,0.0161811,-0.00198393,-1.05648,0.0115059,0.0148481,832,526,-3.70352,20.1215
-385,498,-3.75092,-20.8572,0.00258678,0.00996741,-0.00686533,0.0140714,-0.00151721,-1.03201,0.00992539,0.00966716,839,526,-3.75092,20.8572
-378,498,-3.77026,-21.5809,0.00268639,0.00826667,-0.00591349,0.0120152,-0.00106214,-1.00583,0.00838663,0.0110814,846,526,-3.77024,21.5809
-371,498,-3.7951,-22.2971,0.00267444,0.00657691,-0.00498157,0.00997576,-0.00072441,-0.97206,0.00690465,0.0171468,853,526,-3.79513,22.2971
-364,498,-3.81537,-23.0291,0.00257426,0.0048663,-0.00395582,0.00783876,-0.000398202,-0.926391,0.0053635,0.0169532,860,526,-3.81536,23.0291
-357,498,-3.82465,-23.7259,0.0024926,0.00337747,-0.0029548,0.00592278,-5.2711e-05,-0.859714,0.00396621,0.0110647,867,526,-3.82467,23.7259
-350,498,-3.87421,-24.3862,0.00244215,0.00200052,-0.00207529,0.00430834,0.000134329,-0.732397,0.00282851,0.0105975,874,526,-3.87421,24.3862
-343,498,-3.91846,-25.123,0.00236391,0.000579976,-0.00125167,0.00300891,-6.50304e-05,-0.475825,0.00202797,0.0138871,881,526,-3.91846,25.123
-336,498,-3.91998,-25.8259,0.00224781,-0.000718387,-0.000455785,0.00231627,-0.000786843,-0.149079,0.00186271,0.0179578,888,526,-3.92001,25.8259
-329,498,-3.90479,-26.4122,0.00223466,-0.00184114,0.00022493,0.00224704,-0.00185352,0.0549642,0.00237109,0.0237197,895,526,-3.90477,26.4123
-322,498,-3.9541,-27.0723,0.00244561,-0.00266098,0.000703703,0.0025408,-0.00275618,0.134465,0.00305906,0.025664,902,526,-3.9541,27.0723
-315,498,-4.02576,-27.7383,0.00282664,-0.0032513,0.00105384,0.00300418,-0.00342884,0.166899,0.0037168,0.0191098,909,526,-4.02577,27.7383
-308,498,-4.03711,-28.371,0.0033619,-0.00338076,0.00132859,0.00361425,-0.0036331,0.187698,0.00418426,0.0202596,916,526,-4.03712,28.371
-301,498,-3.95343,-29.0528,0.0037895,-0.00329394,0.00155416,0.00411549,-0.00361993,0.206757,0.00446911,0.0416699,923,526,-3.95344,29.0528
-294,498,-3.87354,-29.7432,0,0,0,0,0,0,0,-1,930,526,-3.87356,29.7431
-287,498,-0.91394,-13.4327,0,0,0,0,0,0,0,-1,937,526,-0.913935,13.4327
-280,498,-0.341614,-8.66608,0,0,0,0,0,0,0,-1,944,526,-0.341589,8.66606
-273,498,-0.988892,-8.62921,0,0,0,0,0,0,0,-1,951,526,-0.988906,8.62922
-266,498,0.362488,-6.33545,0,0,0,0,0,0,0,-1,958,526,0.362478,6.33547
-259,498,10.9454,-17.3615,0,0,0,0,0,0,0,-1,965,526,10.9454,17.3614
-252,498,8.56586,-14.6886,0,0,0,0,0,0,0,-1,972,526,8.56584,14.6886
-245,498,5.97382,-11.928,0,0,0,0,0,0,0,-1,979,526,5.97381,11.928
-238,498,2.24841,-13.8145,0,0,0,0,0,0,0,-1,986,526,2.24838,13.8145
-231,498,0.665894,-10.4898,0,0,0,0,0,0,0,-1,993,526,0.665863,10.4898
-224,498,-2.11243,-4.76312,0,0,0,0,0,0,0,-1,1000,526,-2.11245,4.76314
-217,498,-3.82239,-1.42841,0,0,0,0,0,0,0,-1,1007,526,-3.82241,1.42843
-210,498,-1.80591,-0.358215,0,0,0,0,0,0,0,-1,1014,526,-1.8059,0.3582
-203,498,-3.17316,1.06641,0,0,0,0,0,0,0,-1,1021,526,-3.17313,-1.0664
-196,498,-0.103271,5.40527,0,0,0,0,0,0,0,-1,1028,526,-0.103285,-5.40528
-189,498,3.00256,6.47137,0,0,0,0,0,0,0,-1,1035,526,3.00256,-6.47139
-182,498,0,0,0,0,0,0,0,0,0,-1,1042,526,0,0
-175,498,0,0,0,0,0,0,0,0,0,-1,1049,526,0,0
-168,498,0,0,0,0,0,0,0,0,0,-1,1056,526,0,0
-161,498,0,0,0,0,0,0,0,0,0,-1,1063,526,0,0
-154,498,0,0,0,0,0,0,0,0,0,-1,1070,526,0,0
-147,498,0,0,0,0,0,0,0,0,0,-1,1077,526,0,0
-140,498,0,0,0,0,0,0,0,0,0,-1,1084,526,0,0
-133,498,0,0,0,0,0,0,0,0,0,-1,1091,526,0,0
-126,498,0,0,0,0,0,0,0,0,0,-1,1098,526,0,0
-119,498,0,0,0,0,0,0,0,0,0,-1,1105,526,0,0
-112,498,0,0,0,0,0,0,0,0,0,-1,1112,526,0,0
-105,498,0,0,0,0,0,0,0,0,0,-1,1119,526,0,0
-98,498,0,0,0,0,0,0,0,0,0,-1,1126,526,0,0
-91,498,0,0,0,0,0,0,0,0,0,-1,1133,526,0,0
-84,498,0,0,0,0,0,0,0,0,0,-1,1140,526,0,0
-77,498,0,0,0,0,0,0,0,0,0,-1,1147,526,0,0
-70,498,0,0,0,0,0,0,0,0,0,-1,1154,526,0,0
-63,498,0,0,0,0,0,0,0,0,0,-1,1161,526,0,0
-56,498,0,0,0,0,0,0,0,0,0,-1,1168,526,0,0
-49,498,0,0,0,0,0,0,0,0,0,-1,1175,526,0,0
-42,498,0,0,0,0,0,0,0,0,0,-1,1182,526,0,0
-35,498,0,0,0,0,0,0,0,0,0,-1,1189,526,0,0
-28,498,0,0,0,0,0,0,0,0,0,-1,1196,526,0,0
-21,498,0,0,0,0,0,0,0,0,0,-1,1203,526,0,0
-14,498,0,0,0,0,0,0,0,0,0,-1,1210,526,0,0
-7,498,0,0,0,0,0,0,0,0,0,-1,1217,526,0,0
0,498,0,0,0,0,0,0,0,0,0,-1,1224,526,0,0
7,498,0,0,0,0,0,0,0,0,0,-1,1231,526,0,0
14,498,0,0,0,0,0,0,0,0,0,-1,1238,526,0,0
21,498,0,0,0,0,0,0,0,0,0,-1,1245,526,0,0
28,498,0,0,0,0,0,0,0,0,0,-1,1252,526,0,0
35,498,0,0,0,0,0,0,0,0,0,-1,1259,526,0,0
42,498,0,0,0,0,0,0,0,0,0,-1,1266,526,0,0
49,498,0,0,0,0,0,0,0,0,0,-1,1273,526,0,0
56,498,0,0,0,0,0,0,0,0,0,-1,1280,526,0,0
63,498,0,0,0,0,0,0,0,0,0,-1,1287,526,0,0
70,498,0,0,0,0,0,0,0,0,0,-1,1294,526,0,0
77,498,0,0,0,0,0,0,0,0,0,-1,1301,526,0,0
84,498,0,0,0,0,0,0,0,0,0,-1,1308,526,0,0
91,498,0,0,0,0,0,0,0,0,0,-1,1315,526,0,0
98,498,0,0,0,0,0,0,0,0,0,-1,1322,526,0,0
105,498,0,0,0,0,0,0,0,0,0,-1,1329,526,0,0
112,498,0,0,0,0,0,0,0,0,0,-1,1336,526,0,0
119,498,0,0,0,0,0,0,0,0,0,-1,1343,526,0,0
126,498,0,0,0,0,0,0,0,0,0,-1,1350,526,0,0
133,498,0,0,0,0,0,0,0,0,0,-1,1357,526,0,0
140,498,0,0,0,0,0,0,0,0,0,-1,1364,526,0,0
147,498,0,0,0,0,0,0,0,0,0,-1,1371,526,0,0
154,498,0,0,0,0,0,0,0,0,0,-1,1378,526,0,0
161,498,0,0,0,0,0,0,0,0,0,-1,1385,526,0,0
168,498,0,0,0,0,0,0,0,0,0,-1,1392,526,0,0
175,498,0,0,0,0,0,0,0,0,0,-1,1399,526,0,0
182,498,0,0,0,0,0,0,0,0,0,-1,1406,526,0,0
189,498,0,0,0,0,0,0,0,0,0,-1,1413,526,0,0
196,498,0,0,0,0,0,0,0,0,0,-1,1420,526,0,0
203,498,0,0,0,0,0,0,0,0,0,-1,1427,526,0,0
210,498,0,0,0,0,0,0,0,0,0,-1,1434,526,0,0
217,498,0,0,0,0,0,0,0,0,0,-1,1441,526,0,0
224,498,0,0,0,0,0,0,0,0,0,-1,1448,526,0,0
231,498,0,0,0,0,0,0,0,0,0,-1,1455,526,0,0
238,498,0,0,0,0,0,0,0,0,0,-1,1462,526,0,0
245,498,0,0,0,0,0,0,0,0,0,-1,1469,526,0,0
252,498,0,0,0,0,0,0,0,0,0,-1,1476,526,0,0
259,498,0,0,0,0,0,0,0,0,0,-1,1483,526,0,0
266,498,0,0,0,0,0,0,0,0,0,-1,1490,526,0,0
273,498,0,0,0,0,0,0,0,0,0,-1,1497,526,0,0
280,498,0,0,0,0,0,0,0,0,0,-1,1504,526,0,0
287,498,0,0,0,0,0,0,0,0,0,-1,1511,526,0,0
294,498,0,0,0,0,0,0,0,0,0,-1,1518,526,0,0
301,498,0,0,0,0,0,0,0,0,0,-1,1525,526,0,0
308,498,4.77942,-0.293884,0,0,0,0,0,0,0,-1,1532,526,4.77939,0.293899
315,498,4.56091,-0.564148,0,0,0,0,0,0,0,-1,1539,526,4.56097,0.564142
322,498,4.52344,-0.447266,0,0,0,0,0,0,0,-1,1546,526,4.52341,0.447295
329,498,4.63232,-0.156982,0,0,0,0,0,0,0,-1,1553,526,4.63238,0.156991
336,498,5.22644,0.0925903,0,0,0,0,0,0,0,-1,1560,526,5.22648,-0.0926188
343,498,6.22607,-1.67615,0,0,0,0,0,0,0,-1,1567,526,6.22605,1.67617
350,498,6.19373,-1.59906,0,0,0,0,0,0,0,-1,1574,526,6.19367,1.59906
357,498,6.21472,-1.58929,0,0,0,0,0,0,0,-1,1581,526,6.21476,1.58927
364,498,5.73547,-1.2019,0,0,0,0,0,0,0,-1,1588,526,5.73547,1.20192
371,498,3.27087,-4.55334,0,0,0,0,0,0,0,-1,1595,526,3.27089,4.55332
378,498,8.42944,-4.70624,0,0,0,0,0,0,0,-1,1602,526,8.42942,4.70624
385,498,4.7793,-5.15314,0,0,0,0,0,0,0,-1,1609,526,4.77935,5.15311
392,498,9.12439,-8.57953,0,0,0,0,0,0,0,-1,1616,526,9.12443,8.57955
399,498,7.98938,-9.46021,0,0,0,0,0,0,0,-1,1623,526,7.98936,9.4602
406,498,7.58081,-9.26819,0,0,0,0,0,0,0,-1,1630,526,7.58085,9.26817
413,498,7.17236,-9.07611,0,0,0,0,0,0,0,-1,1637,526,7.17234,9.07614
420,498,11.4314,-16.1147,0,0,0,0,0,0,0,-1,1644,526,11.4313,16.1147
427,498,16.4054,-28.3111,0,0,0,0,0,0,0,-1,1651,526,16.4054,28.3111
434,498,16.532,-27.5957,0.0018117,0.000117189,-0.00199755,0.00313425,-0.00120536,-0.584824,0.00258666,0.0377336,1658,526,16.532,27.5957
441,498,16.6249,-26.8543,0.00170324,0.000158157,-0.00166229,0.00276373,-0.000902338,-0.567874,0.00220567,0.0126973,1665,526,16.6249,26.8543
448,498,16.6271,-26.1578,0.00174183,0.000230562,-0.0012344,0.00243351,-0.000461118,-0.510746,0.00179589,0.0100411,1672,526,16.627,26.1578
455,498,16.5808,-25.4719,0.00175331,0.000567667,-0.000783751,0.00214319,0.000177786,-0.46161,0.00137337,0.0143386,1679,526,16.5808,25.4719
462,498,16.5527,-24.7848,0.00166525,0.000715379,-0.000436606,0.00183544,0.000545188,-0.371687,0.00108841,0.0166405,1686,526,16.5527,24.7848
469,498,16.546,-24.1069,0.00158314,0.000890033,-1.69911e-05,0.00158356,0.000889616,-0.0244949,0.00091659,0.0140427,1693,526,16.546,24.1069
476,498,16.5256,-23.4269,0.00154605,0.00106507,0.000453944,0.00181927,0.000791846,0.541801,0.00105329,0.010721,1700,526,16.5256,23.4269
483,498,16.4907,-22.7307,0.00153421,0.00119432,0.000900336,0.0022805,0.000448031,0.692118,0.00139518,0.00876991,1707,526,16.4907,22.7307
490,498,16.4479,-22.0213,0.00149111,0.00141377,0.00137875,0.00283174,7.31465e-05,0.771378,0.00186392,0.0107183,1714,526,16.4478,22.0213
497,498,16.4257,-21.2936,0.00149478,0.00161958,0.00191828,0.00347648,-0.000362115,0.801657,0.00244731,0.0124124,1721,526,16.4257,21.2936
504,498,16.3873,-20.5643,0.00157985,0.00164753,0.0024292,0.00404313,-0.000815751,0.792364,0.00300448,0.0144667,1728,526,16.3873,20.5643
511,498,16.3522,-19.8283,0.00160103,0.00172833,0.002893,0.00455838,-0.00122902,0.796397,0.00352084,0.0165959,1735,526,16.3521,19.8283
518,498,16.3867,-19.0873,0.00152688,0.00186263,0.0032646,0.00496366,-0.00157415,0.811087,0.00394008,0.0191556,1742,526,16.3867,19.0873
525,498,16.2343,-18.3514,0.00144465,0.00202756,0.00359839,0.00534627,-0.00187407,0.825808,0.00432635,0.0302034,1749,526,16.2343,18.3515
532,498,16.0872,-17.6281,0.00130963,0.00228107,0.00388284,0.00570845,-0.00211776,0.847622,0.0046743,0.046615,1756,526,16.0872,17.628
539,498,16.1229,-16.9025,0,0,0,0,0,0,0,-1,1763,526,16.123,16.9025
546,498,10.2014,-8.47589,0,0,0,0,0,0,0,-1,1770,526,10.2014,8.47589
553,498,5.93958,-1.71448,0,0,0,0,0,0,0,-1,1777,526,5.93956,1.71447
560,498,3.69385,-0.615112,0,0,0,0,0,0,0,-1,1784,526,3.69381,0.615118
567,498,5.12695,-0.581604,0,0,0,0,0,0,0,-1,1791,526,5.12699,0.58159
574,498,3.88,0.0286255,0,0,0,0,0,0,0,-1,1798,526,3.87999,-0.0286535
581,498,10.8722,2.58551,0,0,0,0,0,0,0,-1,1805,526,10.8723,-2.58551
588,498,0,0,0,0,0,0,0,0,0,-1,1812,526,0,0
595,498,0,0,0,0,0,0,0,0,0,-1,1819,526,0,0
602,498,0,0,0,0,0,0,0,0,0,-1,1826,526,0,0
609,498,0,0,0,0,0,0,0,0,0,-1,1833,526,0,0
616,498,0,0,0,0,0,0,0,0,0,-1,1840,526,0,0
623,498,0,0,0,0,0,0,0,0,0,-1,1847,526,0,0
630,498,0,0,0,0,0,0,0,0,0,-1,1854,526,0,0
637,498,0,0,0,0,0,0,0,0,0,-1,1861,526,0,0
644,498,0,0,0,0,0,0,0,0,0,-1,1868,526,0,0
651,498,0,0,0,0,0,0,0,0,0,-1,1875,526,0,0
658,498,0,0,0,0,0,0,0,0,0,-1,1882,526,0,0
665,498,0,0,0,0,0,0,0,0,0,-1,1889,526,0,0
672,498,0,0,0,0,0,0,0,0,0,-1,1896,526,0,0
679,498,0,0,0,0,0,0,0,0,0,-1,1903,526,0,0
686,498,0,0,0,0,0,0,0,0,0,-1,1910,526,0,0
693,498,0,0,0,0,0,0,0,0,0,-1,1917,526,0,0
700,498,0,0,0,0,0,0,0,0,0,-1,1924,526,0,0
707,498,0,0,0,0,0,0,0,0,0,-1,1931,526,0,0
714,498,0,0,0,0,0,0,0,0,0,-1,1938,526,0,0
721,498,0,0,0,0,0,0,0,0,0,-1,1945,526,0,0
728,498,0,0,0,0,0,0,0,0,0,-1,1952,526,0,0
735,498,0,0,0,0,0,0,0,0,0,-1,1959,526,0,0
742,498,0,0,0,0,0,0,0,0,0,-1,1966,526,0,0
749,498,0,0,0,0,0,0,0,0,0,-1,1973,526,0,0
756,498,0,0,0,0,0,0,0,0,0,-1,1980,526,0,0
763,498,0,0,0,0,0,0,0,0,0,-1,1987,526,0,0
770,498,0,0,0,0,0,0,0,0,0,-1,1994,526,0,0
777,498,0,0,0,0,0,0,0,0,0,-1,2001,526,0,0
784,498,0,0,0,0,0,0,0,0,0,-1,2008,526,0,0
791,498,0,0,0,0,0,0,0,0,0,-1,2015,526,0,0
798,498,0,0,0,0,0,0,0,0,0,-1,2022,526,0,0
805,498,0,0,0,0,0,0,0,0,0,-1,2029,526,0,0
812,498,0,0,0,0,0,0,0,0,0,-1,2036,526,0,0
-700,491,0,0,0,0,0,0,0,0,0,-1,524,533,0,0
-693,491,0,0,0,0,0,0,0,0,0,-1,531,533,0,0
-686,491,0,0,0,0,0,0,0,0,0,-1,538,533,0,0
-679,491,0,0,0,0,0,0,0,0,0,-1,545,533,0,0
-672,491,0,0,0,0,0,0,0,0,0,-1,552,533,0,0
-665,491,0,0,0,0,0,0,0,0,0,-1,559,533,0,0
-658,491,0,0,0,0,0,0,0,0,0,-1,566,533,0,0
-651,491,0,0,0,0,0,0,0,0,0,-1,573,533,0,0
-644,491,0,0,0,0,0,0,0,0,0,-1,580,533,0,0
-637,491,0,0,0,0,0,0,0,0,0,-1,587,533,0,0
-630,491,0,0,0,0,0,0,0,0,0,-1,594,533,0,0
-623,491,0,0,0,0,0,0,0,0,0,-1,601,533,0,0
-616,491,0,0,0,0,0,0,0,0,0,-1,608,533,0,0
-609,491,0,0,0,0,0,0,0,0,0,-1,615,533,0,0
-602,491,0,0,0,0,0,0,0,0,0,-1,622,533,0,0
-595,491,0,0,0,0,0,0,0,0,0,-1,629,533,0,0
-588,491,0,0,0,0,0,0,0,0,0,-1,636,533,0,0
-581,491,0,0,0,0,0,0,0,0,0,-1,643,533,0,0
-574,491,0,0,0,0,0,0,0,0,0,-1,650,533,0,0
-567,491,0,0,0,0,0,0,0,0,0,-1,657,533,0,0
-560,491,0,0,0,0,0,0,0,0,0,-1,664,533,0,0
-553,491,0,0,0,0,0,0,0,0,0,-1,671,533,0,0
-546,491,0,0,0,0,0,0,0,0,0,-1,678,533,0,0
-539,491,0,0,0,0,0,0,0,0,0,-1,685,533,0,0
-532,491,0,0,0,0,0,0,0,0,0,-1,692,533,0,0
-525,491,0,0,0,0,0,0,0,0,0,-1,699,533,0,0
-518,491,0,0,0,0,0,0,0,0,0,-1,706,533,0,0
-511,491,0,0,0,0,0,0,0,0,0,-1,713,533,0,0
-504,491,0,0,0,0,0,0,0,0,0,-1,720,533,0,0
-497,491,0,0,0,0,0,0,0,0,0,-1,727,533,0,0
-490,491,0,0,0,0,0,0,0,0,0,-1,734,533,0,0
-483,491,0,0,0,0,0,0,0,0,0,-1,741,533,0,0
-476,491,0,0,0,0,0,0,0,0,0,-1,748,533,0,0
-469,491,-5.85913,4.55011,0,0,0,0,0,0,0,-1,755,533,-5.8591,-4.55009
-462,491,-9.93713,4.90381,0,0,0,0,0,0,0,-1,762,533,-9.93716,-4.9038
-455,491,1.9494,-0.27887,0,0,0,0,0,0,0,-1,769,533,1.94941,0.27885
-448,491,2.68909,-1.8999,0,0,0,0,0,0,0,-1,776,533,2.6891,1.89988
-441,491,3.46069,-3.51855,0,0,0,0,0,0,0,-1,783,533,3.46071,3.51854
-434,491,2.67145,-7.44061,0,0,0,0,0,0,0,-1,790,533,2.67146,7.44061
-427,491,2.27136,-8.34546,0,0,0,0,0,0,0,-1,797,533,2.27136,8.34546
-420,491,-4.54822,-16.5343,0,0,0,0,0,0,0,-1,804,533,-4.54819,16.5343
-413,491,-4.32928,-17.7944,0,0,0,0,0,0,0,-1,811,533,-4.3293,17.7943
-406,491,-4.28943,-18.6859,0.0010835,0.0123596,-0.00701461,0.0157211,-0.00227802,-1.12391,0.0113168,0.0257459,818,533,-4.28945,18.6859
-399,491,-4.30634,-19.4738,0.00129648,0.0104439,-0.0064042,0.0137399,-0.00199955,-1.09548,0.00989403,0.0127309,825,533,-4.30633,19.4738
-392,491,-4.39966,-20.2001,0.00157319,0.00874283,-0.00576063,0.011943,-0.00162696,-1.06372,0.00855603,0.0105731,832,533,-4.39969,20.2001
-385,491,-4.43921,-20.8774,0.0018461,0.00715693,-0.00502917,0.0101887,-0.00118565,-1.0283,0.00722019,0.0088826,839,533,-4.43923,20.8774
-378,491,-4.45764,-21.5594,0.00207143,0.00564638,-0.00423501,0.00845569,-0.000737878,-0.985092,0.00589849,0.0134192,846,533,-4.45766,21.5594
-371,491,-4.48108,-22.259,0.0021982,0.00415474,-0.00348651,0.00679762,-0.000444682,-0.922175,0.00468701,0.015161,853,533,-4.4811,22.259
-364,491,-4.49713,-22.9786,0.00224402,0.00262856,-0.00262884,0.00507215,-0.000199577,-0.821903,0.00344989,0.0141813,860,533,-4.49712,22.9786
-357,491,-4.51917,-23.6573,0.00233784,0.00132731,-0.00179717,0.00369942,-3.4267e-05,-0.648363,0.00247778,0.0120047,867,533,-4.51917,23.6573
-350,491,-4.55261,-24.3152,0.00247777,0.000141761,-0.00109554,0.00291115,-0.000291619,-0.376697,0.00204491,0.0139822,874,533,-4.55263,24.3152
-343,491,-4.57507,-25.0415,0.00255619,-0.00106266,-0.000441082,0.00260917,-0.00111565,-0.119553,0.0022074,0.0237322,881,533,-4.5751,25.0415
-336,491,-4.60315,-25.7586,0.00258324,-0.00221208,0.000193703,0.00259105,-0.00221989,0.0403066,0.00278035,0.0248342,888,533,-4.60314,25.7586
-329,491,-4.57458,-26.3572,0.00273535,-0.00319566,0.000735023,0.00282508,-0.00328539,0.121481,0.00353122,0.025316,895,533,-4.57458,26.3573
-322,491,-4.65527,-27.0049,0.00320315,-0.0038263,0.0010096,0.00334528,-0.00396843,0.139859,0.00422767,0.0223237,902,533,-4.65525,27.005
-315,491,-4.70862,-27.6148,0.00385566,-0.00423801,0.00115462,0.00401715,-0.0043995,0.138965,0.00486103,0.0206725,909,533,-4.7086,27.6148
-308,491,-4.67047,-28.4419,0,0,0,0,0,0,0,-1,916,533,-4.67048,28.4419
-301,491,-4.62512,-29.4182,0,0,0,0,0,0,0,-1,923,533,-4.62513,29.4182
-294,491,-0.777283,-8.60913,0,0,0,0,0,0,0,-1,930,533,-0.777288,8.6091
-287,491,-0.26123,-8.69055,0,0,0,0,0,0,0,-1,937,533,-0.261204,8.69053
-280,491,0.2948,-5.99219,0,0,0,0,0,0,0,-1,944,533,0.294811,5.99221
-273,491,0.369995,-5.33691,0,0,0,0,0,0,0,-1,951,533,0.369985,5.33693
-266,491,1.1167,-5.0321,0,0,0,0,0,0,0,-1,958,533,1.11668,5.0321
-259,491,12.0862,-16.9615,0,0,0,0,0,0,0,-1,965,533,12.0862,16.9615
-252,491,9.72443,-13.8417,0,0,0,0,0,0,0,-1,972,533,9.72444,13.8418
-245,491,5.27258,-14.3619,0,0,0,0,0,0,0,-1,979,533,5.27255,14.3619
-238,491,3.65381,-11.1472,0,0,0,0,0,0,0,-1,986,533,3.6538,11.1472
-231,491,2.17719,-7.86835,0,0,0,0,0,0,0,-1,993,533,2.17719,7.86832
-224,491,0.554626,-4.61725,0,0,0,0,0,0,0,-1,1000,533,0.554608,4.61727
-217,491,-2.92743,-1.0766,0,0,0,0,0,0,0,-1,1007,533,-2.92743,1.07659
-210,491,-0.92395,0.374512,0,0,0,0,0,0,0,-1,1014,533,-0.923959,-0.374531
-203,491,0.417419,4.77161,0,0,0,0,0,0,0,-1,1021,533,0.417446,-4.77162
-196,491,0,0,0,0,0,0,0,0,0,-1,1028,533,0,0
-189,491,0,0,0,0,0,0,0,0,0,-1,1035,533,0,0
-182,491,0,0,0,0,0,0,0,0,0,-1,1042,533,0,0
-175,491,0,0,0,0,0,0,0,0,0,-1,1049,533,0,0
-168,491,0,0,0,0,0,0,0,0,0,-1,1056,533,0,0
-161,491,0,0,0,0,0,0,0,0,0,-1,1063,533,0,0
-154,491,0,0,0,0,0,0,0,0,0,-1,1070,533,0,0
-147,491,0,0,0,0,0,0,0,0,0,-1,1077,533,0,0
-140,491,0,0,0,0,0,0,0,0,0,-1,1084,533,0,0
-133,491,0,0,0,0,0,0,0,0,0,-1,1091,533,0,0
-126,491,0,0,0,0,0,0,0,0,0,-1,1098,533,0,0
-119,491,0,0,0,0,0,0,0,0,0,-1,1105,533,0,0
-112,491,0,0,0,0,0,0,0,0,0,-1,1112,533,0,0
-105,491,0,0,0,0,0,0,0,0,0,-1,1119,533,0,0
-98,491,0,0,0,0,0,0,0,0,0,-1,1126,533,0,0
-91,491,0,0,0,0,0,0,0,0,0,-1,1133,533,0,0
-84,491,0,0,0,0,0,0,0,0,0,-1,1140,533,0,0
-77,491,0,0,0,0,0,0,0,0,0,-1,1147,533,0,0
-70,491,0,0,0,0,0,0,0,0,0,-1,1154,533,0,0
-63,491,0,0,0,0,0,0,0,0,0,-1,1161,533,0,0
-56,491,0,0,0,0,0,0,0,0,0,-1,1168,533,0,0
-49,491,0,0,0,0,0,0,0,0,0,-1,1175,533,0,0
-42,491,0,0,0,0,0,0,0,0,0,-1,1182,533,0,0
-35,491,0,0,0,0,0,0,0,0,0,-1,1189,533,0,0
-28,491,0,0,0,0,0,0,0,0,0,-1,1196,533,0,0
-21,491,0,0,0,0,0,0,0,0,0,-1,1203,533,0,0
-14,491,0,0,0,0,0,0,0,0,0,-1,1210,533,0,0
-7,491,0,0,0,0,0,0,0,0,0,-1,1217,533,0,0
0,491,0,0,0,0,0,0,0,0,0,-1,1224,533,0,0
7,491,0,0,0,0,0,0,0,0,0,-1,1231,533,0,0
14,491,0,0,0,0,0,0,0,0,0,-1,1238,533,0,0
21,491,0,0,0,0,0,0,0,0,0,-1,1245,533,0,0
28,491,0,0,0,0,0,0,0,0,0,-1,1252,533,0,0
35,491,0,0,0,0,0,0,0,0,0,-1,1259,533,0,0
42,491,0,0,0,0,0,0,0,0,0,-1,1266,533,0,0
49,491,0,0,0,0,0,0,0,0,0,-1,1273,533,0,0
56,491,0,0,0,0,0,0,0,0,0,-1,1280,533,0,0
63,491,0,0,0,0,0,0,0,0,0,-1,1287,533,0,0
70,491,0,0,0,0,0,0,0,0,0,-1,1294,533,0,0
77,491,0,0,0,0,0,0,0,0,0,-1,1301,533,0,0
84,491,0,0,0,0,0,0,0,0,0,-1,1308,533,0,0
91,491,0,0,0,0,0,0,0,0,0,-1,1315,533,0,0
98,491,0,0,0,0,0,0,0,0,0,-1,1322,533,0,0
105,491,0,0,0,0,0,0,0,0,0,-1,1329,533,0,0
112,491,0,0,0,0,0,0,0,0,0,-1,1336,533,0,0
119,491,0,0,0,0,0,0,0,0,0,-1,1343,533,0,0
126,491,0,0,0,0,0,0,0,0,0,-1,1350,533,0,0
133,491,0,0,0,0,0,0,0,0,0,-1,1357,533,0,0
140,491,0,0,0,0,0,0,0,0,0,-1,1364,533,0,0
147,491,0,0,0,0,0,0,0,0,0,-1,1371,533,0,0
154,491,0,0,0,0,0,0,0,0,0,-1,1378,533,0,0
161,491,0,0,0,0,0,0,0,0,0,-1,1385,533,0,0
168,491,0,0,0,0,0,0,0,0,0,-1,1392,533,0,0
175,491,0,0,0,0,0,0,0,0,0,-1,1399,533,0,0
182,491,0,0,0,0,0,0,0,0,0,-1,1406,533,0,0
189,491,0,0,0,0,0,0,0,0,0,-1,1413,533,0,0
196,491,0,0,0,0,0,0,0,0,0,-1,1420,533,0,0
203,491,0,0,0,0,0,0,0,0,0,-1,1427,533,0,0
210,491,0,0,0,0,0,0,0,0,0,-1,1434,533,0,0
217,491,0,0,0,0,0,0,0,0,0,-1,1441,533,0,0
224,491,0,0,0,0,0,0,0,0,0,-1,1448,533,0,0
231,491,0,0,0,0,0,0,0,0,0,-1,1455,533,0,0
238,491,0,0,0,0,0,0,0,0,0,-1,1462,533,0,0
245,491,0,0,0,0,0,0,0,0,0,-1,1469,533,0,0
252,491,0,0,0,0,0,0,0,0,0,-1,1476,533,0,0
259,491,0,0,0,0,0,0,0,0,0,-1,1483,533,0,0
266,491,0,0,0,0,0,0,0,0,0,-1,1490,533,0,0
273,491,0,0,0,0,0,0,0,0,0,-1,1497,533,0,0
280,491,0,0,0,0,0,0,0,0,0,-1,1504,533,0,0
287,491,0,0,0,0,0,0,0,0,0,-1,1511,533,0,0
294,491,0,0,0,0,0,0,0,0,0,-1,1518,533,0,0
301,491,0,0,0,0,0,0,0,0,0,-1,1525,533,0,0
308,491,0,0,0,0,0,0,0,0,0,-1,1532,533,0,0
315,491,0,0,0,0,0,0,0,0,0,-1,1539,533,0,0
322,491,4.26331,-0.734314,0,0,0,0,0,0,0,-1,1546,533,4.26326,0.734324
329,491,4.25354,-0.783752,0,0,0,0,0,0,0,-1,1553,533,4.25359,0.783734
336,491,4.81604,-0.722107,0,0,0,0,0,0,0,-1,1560,533,4.81605,0.722115
343,491,6.14478,-1.44281,0,0,0,0,0,0,0,-1,1567,533,6.14474,1.44281
350,491,6.36353,-1.30792,0,0,0,0,0,0,0,-1,1574,533,6.36352,1.3079
357,491,6.69482,-1.06018,0,0,0,0,0,0,0,-1,1581,533,6.69489,1.06018
364,491,8.01086,-1.69604,0,0,0,0,0,0,0,-1,1588,533,8.01087,1.69607
371,491,8.2135,-0.539307,0,0,0,0,0,0,0,-1,1595,533,8.21348,0.53929
378,491,13.3589,2.17267,0,0,0,0,0,0,0,-1,1602,533,13.3589,-2.17264
385,491,8.08228,-4.95471,0,0,0,0,0,0,0,-1,1609,533,8.08227,4.95474
392,491,2.88721,-4.30988,0,0,0,0,0,0,0,-1,1616,533,2.88716,4.30986
399,491,8.95862,-8.55518,0,0,0,0,0,0,0,-1,1623,533,8.95864,8.55516
406,491,8.16541,-9.00806,0,0,0,0,0,0,0,-1,1630,533,8.16535,9.00807
413,491,5.31848,-3.7124,0,0,0,0,0,0,0,-1,1637,533,5.31849,3.7124
420,491,4.86389,-3.95892,0,0,0,0,0,0,0,-1,1644,533,4.86387,3.95893
427,491,11.5096,-15.2742,0,0,0,0,0,0,0,-1,1651,533,11.5096,15.2742
434,491,17.1681,-27.5712,0,0,0,0,0,0,0,-1,1658,533,17.1681,27.5712
441,491,17.3148,-26.596,0.00197101,-8.0249e-05,-0.00228152,0.00344683,-0.00155607,-0.574164,0.00295639,0.0396039,1665,533,17.3149,26.596
448,491,17.3083,-26.174,0.00194276,2.51355e-05,-0.00186123,0.00307763,-0.00110974,-0.547552,0.00250499,0.0283499,1672,533,17.3083,26.174
455,491,17.2836,-25.4575,0.00192351,0.000402224,-0.00142872,0.00278145,-0.000455714,-0.540784,0.00202339,0.0175489,1679,533,17.2836,25.4575
462,491,17.2897,-24.762,0.00176566,0.000532661,-0.0011011,0.0024111,-0.000112782,-0.530195,0.00164628,0.0161082,1686,533,17.2897,24.7619
469,491,17.2467,-24.1078,0.00157825,0.000716652,-0.000679632,0.00195212,0.000342786,-0.502921,0.00120353,0.0149416,1693,533,17.2467,24.1078
476,491,17.2295,-23.4075,0.0014488,0.000847574,-0.000269187,0.00155171,0.000744665,-0.365151,0.00089612,0.0107659,1700,533,17.2295,23.4075
483,491,17.1927,-22.6755,0.0013862,0.000937023,0.000171915,0.00144445,0.000878778,0.326661,0.000840459,0.0123859,1707,533,17.1927,22.6755
490,491,17.1509,-22.0034,0.00125911,0.00115311,0.000609838,0.00181825,0.000593974,0.742055,0.00107058,0.0108282,1714,533,17.1509,22.0034
497,491,17.1311,-21.2801,0.0011914,0.00142125,0.00115443,0.00246646,0.000146194,0.835011,0.00159781,0.0118929,1721,533,17.1311,21.2801
504,491,17.1125,-20.5351,0.00120776,0.00145403,0.00165352,0.00298899,-0.000327199,0.822564,0.0021102,0.0139503,1728,533,17.1125,20.5351
511,491,17.0546,-19.8192,0.00115221,0.00157815,0.00210356,0.0034795,-0.000749134,0.835848,0.00260552,0.0137669,1735,533,17.0545,19.8192
518,491,17.024,-19.1137,0.000989463,0.00177549,0.00247144,0.00388497,-0.00112002,0.864249,0.00303306,0.0108666,1742,533,17.024,19.1137
525,491,17.0146,-18.3654,0.000851182,0.00201659,0.00282495,0.00431831,-0.00145053,0.887107,0.0034651,0.0110735,1749,533,17.0146,18.3654
532,491,16.9902,-17.6191,0.000715754,0.00243084,0.00317621,0.00486323,-0.00171664,0.917249,0.00394103,0.0236197,1756,533,16.9903,17.6191
539,491,16.9945,-16.7738,0,0,0,0,0,0,0,-1,1763,533,16.9945,16.7738
546,491,16.02,-15.575,0,0,0,0,0,0,0,-1,1770,533,16.02,15.575
553,491,10.5021,-7.77869,0,0,0,0,0,0,0,-1,1777,533,10.502,7.77871
560,491,6.28455,-1.43585,0,0,0,0,0,0,0,-1,1784,533,6.28458,1.43586
567,491,5.67651,-1.3562,0,0,0,0,0,0,0,-1,1791,533,5.67649,1.3562
574,491,8.0719,1.58325,0,0,0,0,0,0,0,-1,1798,533,8.07195,-1.58326
581,491,9.44812,1.60931,0,0,0,0,0,0,0,-1,1805,533,9.44808,-1.60933
588,491,11.0497,1.54962,0,0,0,0,0,0,0,-1,1812,533,11.0496,-1.54963
595,491,0,0,0,0,0,0,0,0,0,-1,1819,533,0,0
602,491,0,0,0,0,0,0,0,0,0,-1,1826,533,0,0
609,491,0,0,0,0,0,0,0,0,0,-1,1833,533,0,0
616,491,0,0,0,0,0,0,0,0,0,-1,1840,533,0,0
623,491,0,0,0,0,0,0,0,0,0,-1,1847,533,0,0
630,491,0,0,0,0,0,0,0,0,0,-1,1854,533,0,0
637,491,0,0,0,0,0,0,0,0,0,-1,1861,533,0,0
644,491,0,0,0,0,0,0,0,0,0,-1,1868,533,0,0
651,491,0,0,0,0,0,0,0,0,0,-1,1875,533,0,0
658,491,0,0,0,0,0,0,0,0,0,-1,1882,533,0,0
665,491,0,0,0,0,0,0,0,0,0,-1,1889,533,0,0
672,491,0,0,0,0,0,0,0,0,0,-1,1896,533,0,0
679,491,0,0,0,0,0,0,0,0,0,-1,1903,533,0,0
686,491,0,0,0,0,0,0,0,0,0,-1,1910,533,0,0
693,491,0,0,0,0,0,0,0,0,0,-1,1917,533,0,0
700,491,0,0,0,0,0,0,0,0,0,-1,1924,533,0,0
707,491,0,0,0,0,0,0,0,0,0,-1,1931,533,0,0
714,491,0,0,0,0,0,0,0,0,0,-1,1938,533,0,0
721,491,0,0,0,0,0,0,0,0,0,-1,1945,533,0,0
728,491,0,0,0,0,0,0,0,0,0,-1,1952,533,0,0
735,491,0,0,0,0,0,0,0,0,0,-1,1959,533,0,0
742,491,0,0,0,0,0,0,0,0,0,-1,1966,533,0,0
749,491,0,0,0,0,0,0,0,0,0,-1,1973,533,0,0
756,491,0,0,0,0,0,0,0,0,0,-1,1980,533,0,0
763,491,0,0,0,0,0,0,0,0,0,-1,1987,533,0,0
770,491,0,0,0,0,0,0,0,0,0,-1,1994,533,0,0
777,491,0,0,0,0,0,0,0,0,0,-1,2001,533,0,0
784,491,0,0,0,0,0,0,0,0,0,-1,2008,533,0,0
791,491,0,0,0,0,0,0,0,0,0,-1,2015,533,0,0
798,491,0,0,0,0,0,0,0,0,0,-1,2022,533,0,0
805,491,0,0,0,0,0,0,0,0,0,-1,2029,533,0,0
812,491,0,0,0,0,0,0,0,0,0,-1,2036,533,0,0
-700,484,0,0,0,0,0,0,0,0,0,-1,524,540,0,0
-693,484,0,0,0,0,0,0,0,0,0,-1,531,540,0,0
-686,484,0,0,0,0,0,0,0,0,0,-1,538,540,0,0
-679,484,0,0,0,0,0,0,0,0,0,-1,545,540,0,0
-672,484,0,0,0,0,0,0,0,0,0,-1,552,540,0,0
-665,484,0,0,0,0,0,0,0,0,0,-1,559,540,0,0
-658,484,0,0,0,0,0,0,0,0,0,-1,566,540,0,0
-651,484,0,0,0,0,0,0,0,0,0,-1,573,540,0,0
-644,484,0,0,0,0,0,0,0,0,0,-1,580,540,0,0
-637,484,0,0,0,0,0,0,0,0,0,-1,587,540,0,0
-630,484,0,0,0,0,0,0,0,0,0,-1,594,540,0,0
-623,484,0,0,0,0,0,0,0,0,0,-1,601,540,0,0
-616,484,0,0,0,0,0,0,0,0,0,-1,608,540,0,0
-609,484,0,0,0,0,0,0,0,0,0,-1,615,540,0,0
-602,484,0,0,0,0,0,0,0,0,0,-1,622,540,0,0
-595,484,0,0,0,0,0,0,0,0,0,-1,629,540,0,0
-588,484,0,0,0,0,0,0,0,0,0,-1,636,540,0,0
-581,484,0,0,0,0,0,0,0,0,0,-1,643,540,0,0
-574,484,0,0,0,0,0,0,0,0,0,-1,650,540,0,0
-567,484,0,0,0,0,0,0,0,0,0,-1,657,540,0,0
-560,484,0,0,0,0,0,0,0,0,0,-1,664,540,0,0
-553,484,0,0,0,0,0,0,0,0,0,-1,671,540,0,0
-546,484,0,0,0,0,0,0,0,0,0,-1,678,540,0,0
-539,484,0,0,0,0,0,0,0,0,0,-1,685,540,0,0
-532,484,0,0,0,0,0,0,0,0,0,-1,692,540,0,0
-525,484,0,0,0,0,0,0,0,0,0,-1,699,540,0,0
-518,484,0,0,0,0,0,0,0,0,0,-1,706,540,0,0
-511,484,0,0,0,0,0,0,0,0,0,-1,713,540,0,0
-504,484,0,0,0,0,0,0,0,0,0,-1,720,540,0,0
-497,484,0,0,0,0,0,0,0,0,0,-1,727,540,0,0
-490,484,0,0,0,0,0,0,0,0,0,-1,734,540,0,0
-483,484,0,0,0,0,0,0,0,0,0,-1,741,540,0,0
-476,484,-8.46552,1.44702,0,0,0,0,0,0,0,-1,748,540,-8.46554,-1.44702
-469,484,-7.82343,1.70355,0,0,0,0,0,0,0,-1,755,540,-7.82345,-1.70355
-462,484,-8.36987,3.08612,0,0,0,0,0,0,0,-1,762,540,-8.36988,-3.0861
-455,484,-6.77197,2.07092,0,0,0,0,0,0,0,-1,769,540,-6.77197,-2.07094
-448,484,3.54895,-1.40106,0,0,0,0,0,0,0,-1,776,540,3.54897,1.40106
-441,484,4.28906,-3.05884,0,0,0,0,0,0,0,-1,783,540,4.28905,3.05883
-434,484,-2.17548,-5.07245,0,0,0,0,0,0,0,-1,790,540,-2.17546,5.07243
-427,484,-4.86554,-15.9112,0,0,0,0,0,0,0,-1,797,540,-4.86553,15.9112
-420,484,-4.74408,-16.9171,0,0,0,0,0,0,0,-1,804,540,-4.74409,16.9171
-413,484,-4.83673,-17.8257,0.000372064,0.0110364,-0.0054757,0.0133472,-0.00193876,-1.17146,0.00960982,0.0300857,811,540,-4.83676,17.8257
-406,484,-4.94415,-18.6831,0.000664311,0.00931488,-0.00518849,0.0117445,-0.00176529,-1.13286,0.00847956,0.0166392,818,540,-4.94416,18.6831
-399,484,-5.02338,-19.4279,0.000895611,0.0076007,-0.00468909,0.0100125,-0.00151614,-1.09575,0.00723351,0.0171061,825,540,-5.02336,19.4278
-392,484,-5.08691,-20.1353,0.00118646,0.00606695,-0.00415131,0.00844212,-0.0011887,-1.05111,0.00606328,0.0186975,832,540,-5.08692,20.1353
-385,484,-5.12384,-20.8512,0.00152495,0.00466702,-0.00355235,0.00698023,-0.000788262,-0.993594,0.00493726,0.0127877,839,540,-5.12383,20.8512
-378,484,-5.15125,-21.5429,0.00183199,0.0033286,-0.00287084,0.00554706,-0.000386463,-0.91289,0.00383336,0.0141622,846,540,-5.15126,21.5429
-371,484,-5.17963,-22.2258,0.00205434,0.00204044,-0.00225617,0.00430356,-0.00020879,-0.783858,0.00294111,0.0161122,853,540,-5.17964,22.2258
-364,484,-5.20825,-22.9164,0.00219495,0.00074787,-0.00153662,0.00316986,-0.000227035,-0.565364,0.00219284,0.0121537,860,540,-5.20823,22.9164
-357,484,-5.23523,-23.5925,0.00240298,-0.000309906,-0.000856642,0.00265084,-0.000557761,-0.281643,0.00197951,0.012883,867,540,-5.23522,23.5925
-350,484,-5.27423,-24.261,0.00267514,-0.00123345,-0.000322118,0.0027015,-0.00125981,-0.0816786,0.00233701,0.0141374,874,540,-5.27426,24.261
-343,484,-5.28644,-24.9711,0.00285861,-0.00210844,0.000160789,0.00286381,-0.00211364,0.0323261,0.00288459,0.0210138,881,540,-5.28646,24.9711
-336,484,-5.31116,-25.6639,0.00298974,-0.00299514,0.000611229,0.00305153,-0.00305692,0.100743,0.00352672,0.0248531,888,540,-5.31116,25.6639
-329,484,-5.29999,-26.2798,0.0032962,-0.00374252,0.00098158,0.00343052,-0.00387684,0.135998,0.00422153,0.0363719,895,540,-5.30002,26.2799
-322,484,-5.20532,-26.972,0.00406009,-0.00404432,0.000982642,0.00417753,-0.00416176,0.118952,0.00481469,0.0492891,902,540,-5.20531,26.972
-315,484,-5.32532,-27.6389,0,0,0,0,0,0,0,-1,909,540,-5.32534,27.6389
-308,484,-1.32623,-8.9317,0,0,0,0,0,0,0,-1,916,540,-1.32626,8.93173
-301,484,-1.33453,-6.52667,0,0,0,0,0,0,0,-1,923,540,-1.33454,6.5267
-294,484,-1.61224,-8.17059,0,0,0,0,0,0,0,-1,930,540,-1.61227,8.17058
-287,484,-0.715759,-5.62103,0,0,0,0,0,0,0,-1,937,540,-0.715772,5.62105
-280,484,2.66742,-1.6795,0,0,0,0,0,0,0,-1,944,540,2.6674,1.67949
-273,484,2.53125,-2.22296,0,0,0,0,0,0,0,-1,951,540,2.53128,2.22295
-266,484,2.6778,-2.72058,0,0,0,0,0,0,0,-1,958,540,2.6778,2.72061
-259,484,2.41718,-2.59894,0,0,0,0,0,0,0,-1,965,540,2.41717,2.59892
-252,484,10.6069,-11.696,0,0,0,0,0,0,0,-1,972,540,10.6069,11.696
-245,484,6.34106,-11.6107,0,0,0,0,0,0,0,-1,979,540,6.34104,11.6107
-238,484,4.89319,-8.54059,0,0,0,0,0,0,0,-1,986,540,4.89321,8.5406
-231,484,3.47675,-5.22064,0,0,0,0,0,0,0,-1,993,540,3.47676,5.22067
-224,484,1.71344,-2.03473,0,0,0,0,0,0,0,-1,1000,540,1.71342,2.03472
-217,484,-0.745056,1.17358,0,0,0,0,0,0,0,-1,1007,540,-0.745043,-1.17359
-210,484,0,0,0,0,0,0,0,0,0,-1,1014,540,0,0
-203,484,0,0,0,0,0,0,0,0,0,-1,1021,540,0,0
-196,484,0,0,0,0,0,0,0,0,0,-1,1028,540,0,0
-189,484,0,0,0,0,0,0,0,0,0,-1,1035,540,0,0
-182,484,0,0,0,0,0,0,0,0,0,-1,1042,540,0,0
-175,484,0,0,0,0,0,0,0,0,0,-1,1049,540,0,0
-168,484,0,0,0,0,0,0,0,0,0,-1,1056,540,0,0
-161,484,0,0,0,0,0,0,0,0,0,-1,1063,540,0,0
-154,484,0,0,0,0,0,0,0,0,0,-1,1070,540,0,0
-147,484,0,0,0,0,0,0,0,0,0,-1,1077,540,0,0
-140,484,0,0,0,0,0,0,0,0,0,-1,1084,540,0,0
-133,484,0,0,0,0,0,0,0,0,0,-1,1091,540,0,0
-126,484,0,0,0,0,0,0,0,0,0,-1,1098,540,0,0
-119,484,0,0,0,0,0,0,0,0,0,-1,1105,540,0,0
-112,484,0,0,0,0,0,0,0,0,0,-1,1112,540,0,0
-105,484,0,0,0,0,0,0,0,0,0,-1,1119,540,0,0
-98,484,0,0,0,0,0,0,0,0,0,-1,1126,540,0,0
-91,484,0,0,0,0,0,0,0,0,0,-1,1133,540,0,0
-84,484,0,0,0,0,0,0,0,0,0,-1,1140,540,0,0
-77,484,0,0,0,0,0,0,0,0,0,-1,1147,540,0,0
-70,484,0,0,0,0,0,0,0,0,0,-1,1154,540,0,0
-63,484,0,0,0,0,0,0,0,0,0,-1,1161,540,0,0
-56,484,0,0,0,0,0,0,0,0,0,-1,1168,540,0,0
-49,484,0,0,0,0,0,0,0,0,0,-1,1175,540,0,0
-42,484,0,0,0,0,0,0,0,0,0,-1,1182,540,0,0
-35,484,0,0,0,0,0,0,0,0,0,-1,1189,540,0,0
-28,484,0,0,0,0,0,0,0,0,0,-1,1196,540,0,0
-21,484,0,0,0,0,0,0,0,0,0,-1,1203,540,0,0
-14,484,0,0,0,0,0,0,0,0,0,-1,1210,540,0,0
-7,484,0,0,0,0,0,0,0,0,0,-1,1217,540,0,0
0,484,0,0,0,0,0,0,0,0,0,-1,1224,540,0,0
7,484,0,0,0,0,0,0,0,0,0,-1,1231,540,0,0
14,484,0,0,0,0,0,0,0,0,0,-1,1238,540,0,0
21,484,0,0,0,0,0,0,0,0,0,-1,1245,540,0,0
28,484,0,0,0,0,0,0,0,0,0,-1,1252,540,0,0
35,484,0,0,0,0,0,0,0,0,0,-1,1259,540,0,0
42,484,0,0,0,0,0,0,0,0,0,-1,1266,540,0,0
49,484,0,0,0,0,0,0,0,0,0,-1,1273,540,0,0
56,484,0,0,0,0,0,0,0,0,0,-1,1280,540,0,0
63,484,0,0,0,0,0,0,0,0,0,-1,1287,540,0,0
70,484,0,0,0,0,0,0,0,0,0,-1,1294,540,0,0
77,484,0,0,0,0,0,0,0,0,0,-1,1301,540,0,0
84,484,0,0,0,0,0,0,0,0,0,-1,1308,540,0,0
91,484,0,0,0,0,0,0,0,0,0,-1,1315,540,0,0
98,484,0,0,0,0,0,0,0,0,0,-1,1322,540,0,0
105,484,0,0,0,0,0,0,0,0,0,-1,1329,540,0,0
112,484,0,0,0,0,0,0,0,0,0,-1,1336,540,0,0
119,484,0,0,0,0,0,0,0,0,0,-1,1343,540,0,0
126,484,0,0,0,0,0,0,0,0,0,-1,1350,540,0,0
133,484,0,0,0,0,0,0,0,0,0,-1,1357,540,0,0
140,484,0,0,0,0,0,0,0,0,0,-1,1364,540,0,0
147,484,0,0,0,0,0,0,0,0,0,-1,1371,540,0,0
154,484,0,0,0,0,0,0,0,0,0,-1,1378,540,0,0
161,484,0,0,0,0,0,0,0,0,0,-1,1385,540,0,0
168,484,0,0,0,0,0,0,0,0,0,-1,1392,540,0,0
175,484,0,0,0,0,0,0,0,0,0,-1,1399,540,0,0
182,484,0,0,0,0,0,0,0,0,0,-1,1406,540,0,0
189,484,0,0,0,0,0,0,0,0,0,-1,1413,540,0,0
196,484,0,0,0,0,0,0,0,0,0,-1,1420,540,0,0
203,484,0,0,0,0,0,0,0,0,0,-1,1427,540,0,0
210,484,0,0,0,0,0,0,0,0,0,-1,1434,540,0,0
217,484,0,0,0,0,0,0,0,0,0,-1,1441,540,0,0
224,484,0,0,0,0,0,0,0,0,0,-1,1448,540,0,0
231,484,0,0,0,0,0,0,0,0,0,-1,1455,540,0,0
238,484,0,0,0,0,0,0,0,0,0,-1,1462,540,0,0
245,484,0,0,0,0,0,0,0,0,0,-1,1469,540,0,0
252,484,0,0,0,0,0,0,0,0,0,-1,1476,540,0,0
259,484,0,0,0,0,0,0,0,0,0,-1,1483,540,0,0
266,484,0,0,0,0,0,0,0,0,0,-1,1490,540,0,0
273,484,0,0,0,0,0,0,0,0,0,-1,1497,540,0,0
280,484,0,0,0,0,0,0,0,0,0,-1,1504,540,0,0
287,484,0,0,0,0,0,0,0,0,0,-1,1511,540,0,0
294,484,0,0,0,0,0,0,0,0,0,-1,1518,540,0,0
301,484,0,0,0,0,0,0,0,0,0,-1,1525,540,0,0
308,484,0,0,0,0,0,0,0,0,0,-1,1532,540,0,0
315,484,0,0,0,0,0,0,0,0,0,-1,1539,540,0,0
322,484,0,0,0,0,0,0,0,0,0,-1,1546,540,0,0
329,484,0,0,0,0,0,0,0,0,0,-1,1553,540,0,0
336,484,4.38708,-1.64136,0,0,0,0,0,0,0,-1,1560,540,4.38704,1.64138
343,484,7.57996,-1.05457,0,0,0,0,0,0,0,-1,1567,540,7.57995,1.05454
350,484,8.10425,-1.18878,0,0,0,0,0,0,0,-1,1574,540,8.1043,1.18877
357,484,7.74902,-3.80286,0,0,0,0,0,0,0,-1,1581,540,7.74901,3.80287
364,484,6.31262,-3.87213,0,0,0,0,0,0,0,-1,1588,540,6.31263,3.87215
371,484,7.21008,0.973511,0,0,0,0,0,0,0,-1,1595,540,7.21014,-0.973541
378,484,11.0563,1.5014,0,0,0,0,0,0,0,-1,1602,540,11.0563,-1.5014
385,484,14.3469,2.5545,0,0,0,0,0,0,0,-1,1609,540,14.3469,-2.55453
392,484,7.39453,-4.95026,0,0,0,0,0,0,0,-1,1616,540,7.39448,4.95023
399,484,7.14417,-2.5639,0,0,0,0,0,0,0,-1,1623,540,7.14417,2.56391
406,484,7.88953,-2.47321,0,0,0,0,0,0,0,-1,1630,540,7.88954,2.47323
413,484,4.4895,-1.08673,0,0,0,0,0,0,0,-1,1637,540,4.48952,1.08674
420,484,4.50012,-2.11255,0,0,0,0,0,0,0,-1,1644,540,4.50012,2.11256
427,484,5.28601,-3.54053,0,0,0,0,0,0,0,-1,1651,540,5.28599,3.54051
434,484,11.1488,-13.5359,0,0,0,0,0,0,0,-1,1658,540,11.1489,13.5359
441,484,17.9243,-26.2752,0,0,0,0,0,0,0,-1,1665,540,17.9244,26.2752
448,484,17.9429,-26.3134,0,0,0,0,0,0,0,-1,1672,540,17.9429,26.3134
455,484,17.9789,-25.4839,0,0,0,0,0,0,0,-1,1679,540,17.9789,25.4839
462,484,17.9972,-24.7294,0.00192984,0.000406019,-0.00182454,0.00314516,-0.000809306,-0.58761,0.00241223,0.0310532,1686,540,17.9971,24.7293
469,484,17.9794,-24.0666,0.00162252,0.000627447,-0.00130794,0.00252436,-0.000274394,-0.603651,0.00178143,0.0179736,1693,540,17.9794,24.0666
476,484,17.9323,-23.3469,0.00142235,0.000724213,-0.000886079,0.00202564,0.000120925,-0.597759,0.00131198,0.0162733,1700,540,17.9322,23.347
483,484,17.9064,-22.6333,0.00133437,0.000766648,-0.000389735,0.00153266,0.000568358,-0.470648,0.000894672,0.0139359,1707,540,17.9063,22.6333
490,484,17.8743,-21.9762,0.00114869,0.000961856,4.23902e-05,0.00115786,0.000952688,0.212992,0.000713419,0.0133459,1714,540,17.8742,21.9762
497,484,17.8347,-21.2513,0.00103515,0.0012672,0.000609724,0.00177184,0.000530512,0.879417,0.00105005,0.0137865,1721,540,17.8347,21.2513
504,484,17.819,-20.4963,0.000998901,0.00127573,0.00109444,0.00224047,3.41582e-05,0.848299,0.00148239,0.0163411,1728,540,17.819,20.4963
511,484,17.7982,-19.7702,0.000891775,0.00139965,0.0015213,0.00268806,-0.000396633,0.868097,0.00193783,0.0194726,1735,540,17.7982,19.7702
518,484,17.7534,-19.0823,0.000680865,0.00160988,0.00187156,0.00307372,-0.000782975,0.907036,0.00235395,0.016336,1742,540,17.7535,19.0823
525,484,17.7095,-18.3564,0.000505314,0.00187526,0.00220128,0.00349568,-0.0011151,0.936235,0.00277779,0.0139869,1749,540,17.7095,18.3564
532,484,17.7069,-17.5766,0.000351649,0.0023438,0.00252918,0.00406599,-0.00137054,0.972988,0.00326484,0.016625,1756,540,17.707,17.5766
539,484,17.6382,-16.7936,0.000162815,0.00296511,0.00277816,0.00467546,-0.00154753,1.01896,0.00374107,0.0387824,1763,540,17.6382,16.7936
546,484,17.6587,-16.0494,0,0,0,0,0,0,0,-1,1770,540,17.6587,16.0494
553,484,12.4246,-8.96423,0,0,0,0,0,0,0,-1,1777,540,12.4246,8.96422
560,484,10.0549,-5.47931,0,0,0,0,0,0,0,-1,1784,540,10.055,5.47928
567,484,7.78223,-1.38312,0,0,0,0,0,0,0,-1,1791,540,7.78224,1.38311
574,484,5.74463,1.50922,0,0,0,0,0,0,0,-1,1798,540,5.74463,-1.50924
581,484,10.34,2.9491,0,0,0,0,0,0,0,-1,1805,540,10.34,-2.94912
588,484,10.6669,2.88568,0,0,0,0,0,0,0,-1,1812,540,10.6669,-2.88567
595,484,10.7233,1.04767,0,0,0,0,0,0,0,-1,1819,540,10.7233,-1.04766
602,484,0,0,0,0,0,0,0,0,0,-1,1826,540,0,0
609,484,0,0,0,0,0,0,0,0,0,-1,1833,540,0,0
616,484,0,0,0,0,0,0,0,0,0,-1,1840,540,0,0
623,484,0,0,0,0,0,0,0,0,0,-1,1847,540,0,0
630,484,0,0,0,0,0,0,0,0,0,-1,1854,540,0,0
637,484,0,0,0,0,0,0,0,0,0,-1,1861,540,0,0
644,484,0,0,0,0,0,0,0,0,0,-1,1868,540,0,0
651,484,0,0,0,0,0,0,0,0,0,-1,1875,540,0,0
658,484,0,0,0,0,0,0,0,0,0,-1,1882,540,0,0
665,484,0,0,0,0,0,0,0,0,0,-1,1889,540,0,0
672,484,0,0,0,0,0,0,0,0,0,-1,1896,540,0,0
679,484,0,0,0,0,0,0,0,0,0,-1,1903,540,0,0
686,484,0,0,0,0,0,0,0,0,0,-1,1910,540,0,0
693,484,0,0,0,0,0,0,0,0,0,-1,1917,540,0,0
700,484,0,0,0,0,0,0,0,0,0,-1,1924,540,0,0
707,484,0,0,0,0,0,0,0,0,0,-1,1931,540,0,0
714,484,0,0,0,0,0,0,0,0,0,-1,1938,540,0,0
721,484,0,0,0,0,0,0,0,0,0,-1,1945,540,0,0
728,484,0,0,0,0,0,0,0,0,0,-1,1952,540,0,0
735,484,0,0,0,0,0,0,0,0,0,-1,1959,540,0,0
742,484,0,0,0,0,0,0,0,0,0,-1,1966,540,0,0
749,484,0,0,0,0,0,0,0,0,0,-1,1973,540,0,0
756,484,0,0,0,0,0,0,0,0,0,-1,1980,540,0,0
763,484,0,0,0,0,0,0,0,0,0,-1,1987,540,0,0
770,484,0,0,0,0,0,0,0,0,0,-1,1994,540,0,0
777,484,0,0,0,0,0,0,0,0,0,-1,2001,540,0,0
784,484,0,0,0,0,0,0,0,0,0,-1,2008,540,0,0
791,484,0,0,0,0,0,0,0,0,0,-1,2015,540,0,0
798,484,0,0,0,0,0,0,0,0,0,-1,2022,540,0,0
805,484,0,0,0,0,0,0,0,0,0,-1,2029,540,0,0
812,484,0,0,0,0,0,0,0,0,0,-1,2036,540,0,0
-700,477,0,0,0,0,0,0,0,0,0,-1,524,547,0,0
-693,477,0,0,0,0,0,0,0,0,0,-1,531,547,0,0
-686,477,0,0,0,0,0,0,0,0,0,-1,538,547,0,0
-679,477,0,0,0,0,0,0,0,0,0,-1,545,547,0,0
-672,477,0,0,0,0,0,0,0,0,0,-1,552,547,0,0
-665,477,0,0,0,0,0,0,0,0,0,-1,559,547,0,0
-658,477,0,0,0,0,0,0,0,0,0,-1,566,547,0,0
-651,477,0,0,0,0,0,0,0,0,0,-1,573,547,0,0
-644,477,0,0,0,0,0,0,0,0,0,-1,580,547,0,0
-637,477,0,0,0,0,0,0,0,0,0,-1,587,547,0,0
-630,477,0,0,0,0,0,0,0,0,0,-1,594,547,0,0
-623,477,0,0,0,0,0,0,0,0,0,-1,601,547,0,0
-616,477,0,0,0,0,0,0,0,0,0,-1,608,547,0,0
-609,477,0,0,0,0,0,0,0,0,0,-1,615,547,0,0
-602,477,0,0,0,0,0,0,0,0,0,-1,622,547,0,0
-595,477,0,0,0,0,0,0,0,0,0,-1,629,547,0,0
-588,477,0,0,0,0,0,0,0,0,0,-1,636,547,0,0
-581,477,0,0,0,0,0,0,0,0,0,-1,643,547,0,0
-574,477,0,0,0,0,0,0,0,0,0,-1,650,547,0,0
-567,477,0,0,0,0,0,0,0,0,0,-1,657,547,0,0
-560,477,0,0,0,0,0,0,0,0,0,-1,664,547,0,0
-553,477,0,0,0,0,0,0,0,0,0,-1,671,547,0,0
-546,477,0,0,0,0,0,0,0,0,0,-1,678,547,0,0
-539,477,0,0,0,0,0,0,0,0,0,-1,685,547,0,0
-532,477,0,0,0,0,0,0,0,0,0,-1,692,547,0,0
-525,477,0,0,0,0,0,0,0,0,0,-1,699,547,0,0
-518,477,0,0,0,0,0,0,0,0,0,-1,706,547,0,0
-511,477,0,0,0,0,0,0,0,0,0,-1,713,547,0,0
-504,477,0,0,0,0,0,0,0,0,0,-1,720,547,0,0
-497,477,0,0,0,0,0,0,0,0,0,-1,727,547,0,0
-490,477,0,0,0,0,0,0,0,0,0,-1,734,547,0,0
-483,477,-7.73151,-0.224182,0,0,0,0,0,0,0,-1,741,547,-7.73152,0.224176
-476,477,-6.25806,-0.310547,0,0,0,0,0,0,0,-1,748,547,-6.25804,0.310549
-469,477,-7.26617,0.525085,0,0,0,0,0,0,0,-1,755,547,-7.2662,-0.525111
-462,477,-6.65143,1.06042,0,0,0,0,0,0,0,-1,762,547,-6.65143,-1.06043
-455,477,-5.31757,0.429016,0,0,0,0,0,0,0,-1,769,547,-5.31756,-0.42902
-448,477,-4.0697,0.273376,0,0,0,0,0,0,0,-1,776,547,-4.06971,-0.273363
-441,477,-2.47504,-4.76971,0,0,0,0,0,0,0,-1,783,547,-2.47505,4.76973
-434,477,-5.34399,-15.8475,0,0,0,0,0,0,0,-1,790,547,-5.34401,15.8475
-427,477,-5.55231,-16.2377,-0.000238865,0.0120154,-0.00442239,0.0134447,-0.00166813,-1.2582,0.00956778,0.0442815,797,547,-5.55232,16.2377
-420,477,-5.58234,-16.8154,-7.12962e-05,0.0101891,-0.00429092,0.011747,-0.00162921,-1.22252,0.00842709,0.0347174,804,547,-5.58233,16.8154
-413,477,-5.59009,-17.8143,9.69893e-05,0.00836623,-0.00396099,0.00995739,-0.00149417,-1.18882,0.00718826,0.020189,811,547,-5.5901,17.8143
-406,477,-5.67584,-18.6533,0.000346733,0.0069278,-0.0036906,0.00858177,-0.00130724,-1.14948,0.00620301,0.011492,818,547,-5.67586,18.6532
-399,477,-5.69733,-19.3625,0.000590431,0.00545973,-0.00328373,0.00711291,-0.00106275,-1.10439,0.005133,0.0193142,825,547,-5.69732,19.3625
-392,477,-5.76752,-20.0872,0.000892692,0.00411912,-0.00285186,0.00578243,-0.000770615,-1.0428,0.00413582,0.018369,832,547,-5.7675,20.0872
-385,477,-5.78461,-20.7908,0.00128559,0.00290527,-0.00237403,0.00460379,-0.000412925,-0.949772,0.00321568,0.014915,839,547,-5.78462,20.7908
-378,477,-5.81604,-21.4949,0.00168023,0.0017286,-0.00179718,0.00350176,-9.29267e-05,-0.792126,0.00236609,0.0136917,846,547,-5.81602,21.4949
-371,477,-5.86566,-22.1791,0.00203296,0.00062486,-0.00129784,0.00280541,-0.000147594,-0.536873,0.00192136,0.013997,853,547,-5.86568,22.1792
-364,477,-5.89789,-22.8636,0.00232305,-0.000453576,-0.000712573,0.00249524,-0.000625767,-0.237102,0.00190663,0.0139013,860,547,-5.8979,22.8636
-357,477,-5.94537,-23.5524,0.00270765,-0.00133064,-0.000182489,0.00271588,-0.00133887,-0.0450673,0.00238558,0.0114334,867,547,-5.94535,23.5524
-350,477,-5.96808,-24.2211,0.00318686,-0.00208428,0.000194507,0.00319403,-0.00209145,0.0368336,0.00307363,0.0102215,874,547,-5.96805,24.2211
-343,477,-5.93378,-24.9327,0.0035546,-0.00272682,0.000523421,0.00359792,-0.00277013,0.0825696,0.00368694,0.0191499,881,547,-5.93377,24.9327
-336,477,-5.89038,-25.6462,0.00387759,-0.00346063,0.000797401,0.00396324,-0.00354628,0.107,0.00433785,0.0458093,888,547,-5.89036,25.6462
-329,477,-5.91357,-26.3249,0,0,0,0,0,0,0,-1,895,547,-5.91358,26.3249
-322,477,-5.88336,-27.0745,0,0,0,0,0,0,0,-1,902,547,-5.88335,27.0745
-315,477,-1.67358,-9.15253,0,0,0,0,0,0,0,-1,909,547,-1.67356,9.15253
-308,477,-1.30127,-6.55188,0,0,0,0,0,0,0,-1,916,547,-1.30128,6.55185
-301,477,-1.21185,-6.28351,0,0,0,0,0,0,0,-1,923,547,-1.21184,6.28352
-294,477,-0.352905,3.27142,0,0,0,0,0,0,0,-1,930,547,-0.35292,-3.27144
-287,477,3.54364,2.15399,0,0,0,0,0,0,0,-1,937,547,3.54362,-2.15396
-280,477,1.97308,-0.954163,0,0,0,0,0,0,0,-1,944,547,1.9731,0.954178
-273,477,2.11621,-3.76709,0,0,0,0,0,0,0,-1,951,547,2.11619,3.76706
-266,477,2.04669,-3.42389,0,0,0,0,0,0,0,-1,958,547,2.04671,3.42391
-259,477,-1.33478,-3.41205,0,0,0,0,0,0,0,-1,965,547,-1.3348,3.41206
-252,477,0.597168,-5.32922,0,0,0,0,0,0,0,-1,972,547,0.597144,5.32924
-245,477,8.2309,-8.48492,0,0,0,0,0,0,0,-1,979,547,8.23091,8.48494
-238,477,6.60938,-5.64063,0,0,0,0,0,0,0,-1,986,547,6.60938,5.64063
-231,477,4.71716,-2.52484,0,0,0,0,0,0,0,-1,993,547,4.71716,2.52483
-224,477,0,0,0,0,0,0,0,0,0,-1,1000,547,0,0
-217,477,0,0,0,0,0,0,0,0,0,-1,1007,547,0,0
-210,477,0,0,0,0,0,0,0,0,0,-1,1014,547,0,0
-203,477,0,0,0,0,0,0,0,0,0,-1,1021,547,0,0
-196,477,0,0,0,0,0,0,0,0,0,-1,1028,547,0,0
-189,477,0,0,0,0,0,0,0,0,0,-1,1035,547,0,0
-182,477,0,0,0,0,0,0,0,0,0,-1,1042,547,0,0
-175,477,0,0,0,0,0,0,0,0,0,-1,1049,547,0,0
-168,477,0,0,0,0,0,0,0,0,0,-1,1056,547,0,0
-161,477,0,0,0,0,0,0,0,0,0,-1,1063,547,0,0
-154,477,0,0,0,0,0,0,0,0,0,-1,1070,547,0,0
-147,477,0,0,0,0,0,0,0,0,0,-1,1077,547,0,0
-140,477,0,0,0,0,0,0,0,0,0,-1,1084,547,0,0
-133,477,0,0,0,0,0,0,0,0,0,-1,1091,547,0,0
-126,477,0,0,0,0,0,0,0,0,0,-1,1098,547,0,0
-119,477,0,0,0,0,0,0,0,0,0,-1,1105,547,0,0
-112,477,0,0,0,0,0,0,0,0,0,-1,1112,547,0,0
-105,477,0,0,0,0,0,0,0,0,0,-1,1119,547,0,0
-98,477,0,0,0,0,0,0,0,0,0,-1,1126,547,0,0
-91,477,0,0,0,0,0,0,0,0,0,-1,1133,547,0,0
-84,477,0,0,0,0,0,0,0,0,0,-1,1140,547,0,0
-77,477,0,0,0,0,0,0,0,0,0,-1,1147,547,0,0
-70,477,0,0,0,0,0,0,0,0,0,-1,1154,547,0,0
-63,477,0,0,0,0,0,0,0,0,0,-1,1161,547,0,0
-56,477,0,0,0,0,0,0,0,0,0,-1,1168,547,0,0
-49,477,0,0,0,0,0,0,0,0,0,-1,1175,547,0,0
-42,477,0,0,0,0,0,0,0,0,0,-1,1182,547,0,0
-35,477,0,0,0,0,0,0,0,0,0,-1,1189,547,0,0
-28,477,0,0,0,0,0,0,0,0,0,-1,1196,547,0,0
-21,477,0,0,0,0,0,0,0,0,0,-1,1203,547,0,0
-14,477,0,0,0,0,0,0,0,0,0,-1,1210,547,0,0
-7,477,0,0,0,0,0,0,0,0,0,-1,1217,547,0,0
0,477,0,0,0,0,0,0,0,0,0,-1,1224,547,0,0
7,477,0,0,0,0,0,0,0,0,0,-1,1231,547,0,0
14,477,0,0,0,0,0,0,0,0,0,-1,1238,547,0,0
21,477,0,0,0,0,0,0,0,0,0,-1,1245,547,0,0
28,477,0,0,0,0,0,0,0,0,0,-1,1252,547,0,0
35,477,0,0,0,0,0,0,0,0,0,-1,1259,547,0,0
42,477,0,0,0,0,0,0,0,0,0,-1,1266,547,0,0
49,477,0,0,0,0,0,0,0,0,0,-1,1273,547,0,0
56,477,0,0,0,0,0,0,0,0,0,-1,1280,547,0,0
63,477,0,0,0,0,0,0,0,0,0,-1,1287,547,0,0
70,477,0,0,0,0,0,0,0,0,0,-1,1294,547,0,0
77,477,0,0,0,0,0,0,0,0,0,-1,1301,547,0,0
84,477,0,0,0,0,0,0,0,0,0,-1,1308,547,0,0
91,477,0,0,0,0,0,0,0,0,0,-1,1315,547,0,0
98,477,0,0,0,0,0,0,0,0,0,-1,1322,547,0,0
105,477,0,0,0,0,0,0,0,0,0,-1,1329,547,0,0
112,477,0,0,0,0,0,0,0,0,0,-1,1336,547,0,0
119,477,0,0,0,0,0,0,0,0,0,-1,1343,547,0,0
126,477,0,0,0,0,0,0,0,0,0,-1,1350,547,0,0
133,477,0,0,0,0,0,0,0,0,0,-1,1357,547,0,0
140,477,0,0,0,0,0,0,0,0,0,-1,1364,547,0,0
147,477,0,0,0,0,0,0,0,0,0,-1,1371,547,0,0
154,477,0,0,0,0,0,0,0,0,0,-1,1378,547,0,0
161,477,0,0,0,0,0,0,0,0,0,-1,1385,547,0,0
168,477,0,0,0,0,0,0,0,0,0,-1,1392,547,0,0
175,477,0,0,0,0,0,0,0,0,0,-1,1399,547,0,0
182,477,0,0,0,0,0,0,0,0,0,-1,1406,547,0,0
189,477,0,0,0,0,0,0,0,0,0,-1,1413,547,0,0
196,477,0,0,0,0,0,0,0,0,0,-1,1420,547,0,0
203,477,0,0,0,0,0,0,0,0,0,-1,1427,547,0,0
210,477,0,0,0,0,0,0,0,0,0,-1,1434,547,0,0
217,477,0,0,0,0,0,0,0,0,0,-1,1441,547,0,0
224,477,0,0,0,0,0,0,0,0,0,-1,1448,547,0,0
231,477,0,0,0,0,0,0,0,0,0,-1,1455,547,0,0
238,477,0,0,0,0,0,0,0,0,0,-1,1462,547,0,0
245,477,0,0,0,0,0,0,0,0,0,-1,1469,547,0,0
252,477,0,0,0,0,0,0,0,0,0,-1,1476,547,0,0
259,477,0,0,0,0,0,0,0,0,0,-1,1483,547,0,0
266,477,0,0,0,0,0,0,0,0,0,-1,1490,547,0,0
273,477,0,0,0,0,0,0,0,0,0,-1,1497,547,0,0
280,477,0,0,0,0,0,0,0,0,0,-1,1504,547,0,0
287,477,0,0,0,0,0,0,0,0,0,-1,1511,547,0,0
294,477,0,0,0,0,0,0,0,0,0,-1,1518,547,0,0
301,477,0,0,0,0,0,0,0,0,0,-1,1525,547,0,0
308,477,0,0,0,0,0,0,0,0,0,-1,1532,547,0,0
315,477,0,0,0,0,0,0,0,0,0,-1,1539,547,0,0
322,477,0,0,0,0,0,0,0,0,0,-1,1546,547,0,0
329,477,0,0,0,0,0,0,0,0,0,-1,1553,547,0,0
336,477,0,0,0,0,0,0,0,0,0,-1,1560,547,0,0
343,477,0,0,0,0,0,0,0,0,0,-1,1567,547,0,0
350,477,1.7699,-3.32275,0,0,0,0,0,0,0,-1,1574,547,1.7699,3.32272
357,477,3.073,-4.83313,0,0,0,0,0,0,0,-1,1581,547,3.07303,4.83316
364,477,4.30127,-4.22864,0,0,0,0,0,0,0,-1,1588,547,4.30125,4.22865
371,477,4.57703,0.283264,0,0,0,0,0,0,0,-1,1595,547,4.57706,-0.283262
378,477,8.57947,1.05969,0,0,0,0,0,0,0,-1,1602,547,8.5795,-1.05972
385,477,12.3726,2.02356,0,0,0,0,0,0,0,-1,1609,547,12.3725,-2.02355
392,477,16.4678,2.76843,0,0,0,0,0,0,0,-1,1616,547,16.4678,-2.76845
399,477,8.00037,-2.29523,0,0,0,0,0,0,0,-1,1623,547,8.00031,2.2952
406,477,4.82495,2.7475,0,0,0,0,0,0,0,-1,1630,547,4.825,-2.74752
413,477,4.88171,-0.336426,0,0,0,0,0,0,0,-1,1637,547,4.88169,0.336398
420,477,3.34875,0.102722,0,0,0,0,0,0,0,-1,1644,547,3.34871,-0.1027
427,477,1.66772,-0.373108,0,0,0,0,0,0,0,-1,1651,547,1.66768,0.373104
434,477,3.76978,-2.30798,0,0,0,0,0,0,0,-1,1658,547,3.76974,2.30801
441,477,4.05444,-2.80402,0,0,0,0,0,0,0,-1,1665,547,4.05444,2.804
448,477,10.4247,-11.7421,0,0,0,0,0,0,0,-1,1672,547,10.4247,11.7421
455,477,13.3054,-16.8109,0,0,0,0,0,0,0,-1,1679,547,13.3054,16.8109
462,477,18.6611,-24.8632,0,0,0,0,0,0,0,-1,1686,547,18.6612,24.8632
469,477,18.6196,-24.1735,0,0,0,0,0,0,0,-1,1693,547,18.6197,24.1735
476,477,18.6483,-23.3425,0.00152291,0.000574376,-0.00135405,0.00248335,-0.000386066,-0.616946,0.00179812,0.0259362,1700,547,18.6483,23.3426
483,477,18.6423,-22.6201,0.00146696,0.000617528,-0.000755532,0.00190897,0.000175518,-0.52934,0.00121836,0.0136686,1707,547,18.6424,22.6201
490,477,18.5975,-21.9446,0.00126348,0.000820625,-0.000317904,0.00142947,0.000654634,-0.481204,0.000826278,0.0135525,1714,547,18.5975,21.9446
497,477,18.5568,-21.2081,0.00113071,0.0011792,0.000280232,0.00143623,0.000873675,0.828553,0.000835669,0.0138511,1721,547,18.5568,21.2081
504,477,18.531,-20.4542,0.00105207,0.00116398,0.00074752,0.00185764,0.000358414,0.822758,0.00113793,0.0176858,1728,547,18.531,20.4542
511,477,18.5466,-19.7693,0.000904961,0.00126486,0.00114162,0.00224063,-7.08054e-05,0.863568,0.0015179,0.0227366,1735,547,18.5467,19.7693
518,477,18.5039,-19.0612,0.000655755,0.00145356,0.00146111,0.00256924,-0.000459925,0.918657,0.00188493,0.0203266,1742,547,18.5039,19.0612
525,477,18.422,-18.3134,0.000431477,0.0017013,0.00174179,0.00292029,-0.000787508,0.960173,0.00225566,0.0171479,1749,547,18.4221,18.3134
532,477,18.3553,-17.5656,0.000222265,0.00213164,0.00200761,0.00339999,-0.00104609,1.00734,0.00268419,0.0193843,1756,547,18.3554,17.5655
539,477,18.3558,-16.7591,-1.19499e-05,0.0026774,0.00221027,0.0039199,-0.00125445,1.05868,0.00311673,0.0175914,1763,547,18.3558,16.7591
546,477,18.2627,-16.0974,-0.000263391,0.00357552,0.00242879,0.00475176,-0.00143963,1.11979,0.00374121,0.0440654,1770,547,18.2627,16.0974
553,477,18.3423,-15.1923,0,0,0,0,0,0,0,-1,1777,547,18.3422,15.1923
560,477,18.036,-13.6885,0,0,0,0,0,0,0,-1,1784,547,18.036,13.6885
567,477,13.9529,-8.70972,0,0,0,0,0,0,0,-1,1791,547,13.9529,8.7097
574,477,6.82593,-0.916992,0,0,0,0,0,0,0,-1,1798,547,6.82598,0.916977
581,477,9.29321,-0.557007,0,0,0,0,0,0,0,-1,1805,547,9.29324,0.55703
588,477,9.75195,0.422729,0,0,0,0,0,0,0,-1,1812,547,9.75198,-0.42273
595,477,9.89172,1.21326,0,0,0,0,0,0,0,-1,1819,547,9.89174,-1.21328
602,477,6.5271,-0.964417,0,0,0,0,0,0,0,-1,1826,547,6.52706,0.964427
609,477,0,0,0,0,0,0,0,0,0,-1,1833,547,0,0
616,477,0,0,0,0,0,0,0,0,0,-1,1840,547,0,0
623,477,0,0,0,0,0,0,0,0,0,-1,1847,547,0,0
630,477,0,0,0,0,0,0,0,0,0,-1,1854,547,0,0
637,477,0,0,0,0,0,0,0,0,0,-1,1861,547,0,0
644,477,0,0,0,0,0,0,0,0,0,-1,1868,547,0,0
651,477,0,0,0,0,0,0,0,0,0,-1,1875,547,0,0
658,477,0,0,0,0,0,0,0,0,0,-1,1882,547,0,0
665,477,0,0,0,0,0,0,0,0,0,-1,1889,547,0,0
672,477,0,0,0,0,0,0,0,0,0,-1,1896,547,0,0
679,477,0,0,0,0,0,0,0,0,0,-1,1903,547,0,0
686,477,0,0,0,0,0,0,0,0,0,-1,1910,547,0,0
693,477,0,0,0,0,0,0,0,0,0,-1,1917,547,0,0
700,477,0,0,0,0,0,0,0,0,0,-1,1924,547,0,0
707,477,0,0,0,0,0,0,0,0,0,-1,1931,547,0,0
714,477,0,0,0,0,0,0,0,0,0,-1,1938,547,0,0
721,477,0,0,0,0,0,0,0,0,0,-1,1945,547,0,0
728,477,0,0,0,0,0,0,0,0,0,-1,1952,547,0,0
735,477,0,0,0,0,0,0,0,0,0,-1,1959,547,0,0
742,477,0,0,0,0,0,0,0,0,0,-1,1966,547,0,0
749,477,0,0,0,0,0,0,0,0,0,-1,1973,547,0,0
756,477,0,0,0,0,0,0,0,0,0,-1,1980,547,0,0
763,477,0,0,0,0,0,0,0,0,0,-1,1987,547,0,0
770,477,0,0,0,0,0,0,0,0,0,-1,1994,547,0,0
777,477,0,0,0,0,0,0,0,0,0,-1,2001,547,0,0
784,477,0,0,0,0,0,0,0,0,0,-1,2008,547,0,0
791,477,0,0,0,0,0,0,0,0,0,-1,2015,547,0,0
798,477,0,0,0,0,0,0,0,0,0,-1,2022,547,0,0
805,477,0,0,0,0,0,0,0,0,0,-1,2029,547,0,0
812,477,0,0,0,0,0,0,0,0,0,-1,2036,547,0,0
-700,470,0,0,0,0,0,0,0,0,0,-1,524,554,0,0
-693,470,0,0,0,0,0,0,0,0,0,-1,531,554,0,0
-686,470,0,0,0,0,0,0,0,0,0,-1,538,554,0,0
-679,470,0,0,0,0,0,0,0,0,0,-1,545,554,0,0
-672,470,0,0,0,0,0,0,0,0,0,-1,552,554,0,0
-665,470,0,0,0,0,0,0,0,0,0,-1,559,554,0,0
-658,470,0,0,0,0,0,0,0,0,0,-1,566,554,0,0
-651,470,0,0,0,0,0,0,0,0,0,-1,573,554,0,0
-644,470,0,0,0,0,0,0,0,0,0,-1,580,554,0,0
-637,470,0,0,0,0,0,0,0,0,0,-1,587,554,0,0
-630,470,0,0,0,0,0,0,0,0,0,-1,594,554,0,0
-623,470,0,0,0,0,0,0,0,0,0,-1,601,554,0,0
-616,470,0,0,0,0,0,0,0,0,0,-1,608,554,0,0
-609,470,0,0,0,0,0,0,0,0,0,-1,615,554,0,0
-602,470,0,0,0,0,0,0,0,0,0,-1,622,554,0,0
-595,470,0,0,0,0,0,0,0,0,0,-1,629,554,0,0
-588,470,0,0,0,0,0,0,0,0,0,-1,636,554,0,0
-581,470,0,0,0,0,0,0,0,0,0,-1,643,554,0,0
-574,470,0,0,0,0,0,0,0,0,0,-1,650,554,0,0
-567,470,0,0,0,0,0,0,0,0,0,-1,657,554,0,0
-560,470,0,0,0,0,0,0,0,0,0,-1,664,554,0,0
-553,470,0,0,0,0,0,0,0,0,0,-1,671,554,0,0
-546,470,0,0,0,0,0,0,0,0,0,-1,678,554,0,0
-539,470,0,0,0,0,0,0,0,0,0,-1,685,554,0,0
-532,470,0,0,0,0,0,0,0,0,0,-1,692,554,0,0
-525,470,0,0,0,0,0,0,0,0,0,-1,699,554,0,0
-518,470,0,0,0,0,0,0,0,0,0,-1,706,554,0,0
-511,470,0,0,0,0,0,0,0,0,0,-1,713,554,0,0
-504,470,0,0,0,0,0,0,0,0,0,-1,720,554,0,0
-497,470,0,0,0,0,0,0,0,0,0,-1,727,554,0,0
-490,470,-9.13263,-1.03125,0,0,0,0,0,0,0,-1,734,554,-9.1326,1.03127
-483,470,-7.68677,-1.03955,0,0,0,0,0,0,0,-1,741,554,-7.68678,1.03958
-476,470,-6.17969,-1.03394,0,0,0,0,0,0,0,-1,748,554,-6.17971,1.03395
-469,470,-6.23016,-0.651855,0,0,0,0,0,0,0,-1,755,554,-6.23014,0.651829
-462,470,-4.87915,-1.03705,0,0,0,0,0,0,0,-1,762,554,-4.87914,1.03702
-455,470,-4.14777,-1.37079,0,0,0,0,0,0,0,-1,769,554,-4.14779,1.37078
-448,470,-2.9314,-5.74518,0,0,0,0,0,0,0,-1,776,554,-2.93137,5.74518
-441,470,-5.77087,-14.2335,0,0,0,0,0,0,0,-1,783,554,-5.7709,14.2335
-434,470,-6.25323,-15.5751,0,0,0,0,0,0,0,-1,790,554,-6.25323,15.5752
-427,470,-6.32861,-16.3367,-0.000431406,0.00915809,-0.00328356,0.0101747,-0.00144797,-1.27056,0.0073137,0.0237492,797,554,-6.32861,16.3367
-420,470,-6.30212,-17.1074,-0.000184202,0.00770488,-0.00309913,0.00877672,-0.00125604,-1.23782,0.00631162,0.0157653,804,554,-6.30215,17.1074
-413,470,-6.33954,-17.8845,-1.40836e-05,0.00617181,-0.00272528,0.00720118,-0.00104345,-1.20965,0.00518373,0.0140559,811,554,-6.33953,17.8845
-406,470,-6.37646,-18.6259,0.000240032,0.00501648,-0.00246691,0.00606181,-0.000805294,-1.16999,0.00433464,0.0121449,818,554,-6.37646,18.6258
-399,470,-6.39154,-19.3395,0.000535832,0.00382395,-0.00214252,0.00488051,-0.000520727,-1.11265,0.00344041,0.0151282,825,554,-6.39151,19.3394
-392,470,-6.42133,-20.0475,0.000878339,0.00269786,-0.00180374,0.00380829,-0.000232085,-1.01897,0.00261965,0.0142622,832,554,-6.42134,20.0475
-385,470,-6.48419,-20.7493,0.0013399,0.00167176,-0.00144045,0.00295581,5.58577e-05,-0.842743,0.00195218,0.0111649,839,554,-6.48421,20.7493
-378,470,-6.50916,-21.4604,0.00183895,0.000657017,-0.000980576,0.00239287,0.000103095,-0.514206,0.00156202,0.0161599,846,554,-6.50913,21.4605
-371,470,-6.55048,-22.1469,0.00235539,-0.000270439,-0.000611986,0.00249102,-0.000406066,-0.218092,0.00181127,0.0145441,853,554,-6.55046,22.1469
-364,470,-6.58508,-22.8304,0.00284154,-0.00114361,-0.000202733,0.00285183,-0.0011539,-0.0506976,0.00238095,0.0150914,860,554,-6.58507,22.8304
-357,470,-6.64667,-23.5201,0.00344959,-0.00190226,0.000120129,0.00345228,-0.00190496,0.0224313,0.00313571,0.014904,867,554,-6.64665,23.5201
-350,470,-6.63275,-24.2113,0.00418389,-0.00260087,0.000289109,0.00419618,-0.00261316,0.0425089,0.00396663,0.0120678,874,554,-6.63273,24.2113
-343,470,-6.56476,-24.8951,0,0,0,0,0,0,0,-1,881,554,-6.56473,24.8951
-336,470,-6.35699,-25.6299,0,0,0,0,0,0,0,-1,888,554,-6.35697,25.63
-329,470,-2.78516,-12.3594,0,0,0,0,0,0,0,-1,895,554,-2.78517,12.3594
-322,470,-2.30829,-11.4527,0,0,0,0,0,0,0,-1,902,554,-2.30827,11.4527
-315,470,-1.04797,-8.29529,0,0,0,0,0,0,0,-1,909,554,-1.04797,8.29526
-308,470,-1.39368,-6.68152,0,0,0,0,0,0,0,-1,916,554,-1.39369,6.68149
-301,470,-0.0340576,3.34888,0,0,0,0,0,0,0,-1,923,554,-0.0340496,-3.3489
-294,470,-1.18378,3.22266,0,0,0,0,0,0,0,-1,930,554,-1.18376,-3.22268
-287,470,-2.15454,3.2204,0,0,0,0,0,0,0,-1,937,554,-2.15452,-3.22037
-280,470,-3.00537,3.099,0,0,0,0,0,0,0,-1,944,554,-3.00536,-3.09898
-273,470,-12.3932,3.65009,0,0,0,0,0,0,0,-1,951,554,-12.3932,-3.65011
-266,470,-11.5706,1.16028,0,0,0,0,0,0,0,-1,958,554,-11.5706,-1.16031
-259,470,-7.50415,-2.77167,0,0,0,0,0,0,0,-1,965,554,-7.50413,2.7717
-252,470,-0.371155,-5.87823,0,0,0,0,0,0,0,-1,972,554,-0.37114,5.87821
-245,470,1.33221,-6.81122,0,0,0,0,0,0,0,-1,979,554,1.33223,6.8112
-238,470,0,0,0,0,0,0,0,0,0,-1,986,554,0,0
-231,470,0,0,0,0,0,0,0,0,0,-1,993,554,0,0
-224,470,0,0,0,0,0,0,0,0,0,-1,1000,554,0,0
-217,470,0,0,0,0,0,0,0,0,0,-1,1007,554,0,0
-210,470,0,0,0,0,0,0,0,0,0,-1,1014,554,0,0
-203,470,0,0,0,0,0,0,0,0,0,-1,1021,554,0,0
-196,470,0,0,0,0,0,0,0,0,0,-1,1028,554,0,0
-189,470,0,0,0,0,0,0,0,0,0,-1,1035,554,0,0
-182,470,0,0,0,0,0,0,0,0,0,-1,1042,554,0,0
-175,470,0,0,0,0,0,0,0,0,0,-1,1049,554,0,0
-168,470,0,0,0,0,0,0,0,0,0,-1,1056,554,0,0
-161,470,0,0,0,0,0,0,0,0,0,-1,1063,554,0,0
-154,470,0,0,0,0,0,0,0,0,0,-1,1070,554,0,0
-147,470,0,0,0,0,0,0,0,0,0,-1,1077,554,0,0
-140,470,0,0,0,0,0,0,0,0,0,-1,1084,554,0,0
-133,470,0,0,0,0,0,0,0,0,0,-1,1091,554,0,0
-126,470,0,0,0,0,0,0,0,0,0,-1,1098,554,0,0
-119,470,0,0,0,0,0,0,0,0,0,-1,1105,554,0,0
-112,470,0,0,0,0,0,0,0,0,0,-1,1112,554,0,0
-105,470,0,0,0,0,0,0,0,0,0,-1,1119,554,0,0
-98,470,0,0,0,0,0,0,0,0,0,-1,1126,554,0,0
-91,470,0,0,0,0,0,0,0,0,0,-1,1133,554,0,0
-84,470,0,0,0,0,0,0,0,0,0,-1,1140,554,0,0
-77,470,0,0,0,0,0,0,0,0,0,-1,1147,554,0,0
-70,470,0,0,0,0,0,0,0,0,0,-1,1154,554,0,0
-63,470,0,0,0,0,0,0,0,0,0,-1,1161,554,0,0
-56,470,0,0,0,0,0,0,0,0,0,-1,1168,554,0,0
-49,470,0,0,0,0,0,0,0,0,0,-1,1175,554,0,0
-42,470,0,0,0,0,0,0,0,0,0,-1,1182,554,0,0
-35,470,0,0,0,0,0,0,0,0,0,-1,1189,554,0,0
-28,470,0,0,0,0,0,0,0,0,0,-1,1196,554,0,0
-21,470,0,0,0,0,0,0,0,0,0,-1,1203,554,0,0
-14,470,0,0,0,0,0,0,0,0,0,-1,1210,554,0,0
-7,470,0,0,0,0,0,0,0,0,0,-1,1217,554,0,0
0,470,0,0,0,0,0,0,0,0,0,-1,1224,554,0,0
7,470,0,0,0,0,0,0,0,0,0,-1,1231,554,0,0
14,470,0,0,0,0,0,0,0,0,0,-1,1238,554,0,0
21,470,0,0,0,0,0,0,0,0,0,-1,1245,554,0,0
28,470,0,0,0,0,0,0,0,0,0,-1,1252,554,0,0
35,470,0,0,0,0,0,0,0,0,0,-1,1259,554,0,0
42,470,0,0,0,0,0,0,0,0,0,-1,1266,554,0,0
49,470,0,0,0,0,0,0,0,0,0,-1,1273,554,0,0
56,470,0,0,0,0,0,0,0,0,0,-1,1280,554,0,0
63,470,0,0,0,0,0,0,0,0,0,-1,1287,554,0,0
70,470,0,0,0,0,0,0,0,0,0,-1,1294,554,0,0
77,470,0,0,0,0,0,0,0,0,0,-1,1301,554,0,0
84,470,0,0,0,0,0,0,0,0,0,-1,1308,554,0,0
91,470,0,0,0,0,0,0,0,0,0,-1,1315,554,0,0
98,470,0,0,0,0,0,0,0,0,0,-1,1322,554,0,0
105,470,0,0,0,0,0,0,0,0,0,-1,1329,554,0,0
112,470,0,0,0,0,0,0,0,0,0,-1,1336,554,0,0
119,470,0,0,0,0,0,0,0,0,0,-1,1343,554,0,0
126,470,0,0,0,0,0,0,0,0,0,-1,1350,554,0,0
133,470,0,0,0,0,0,0,0,0,0,-1,1357,554,0,0
140,470,0,0,0,0,0,0,0,0,0,-1,1364,554,0,0
147,470,0,0,0,0,0,0,0,0,0,-1,1371,554,0,0
154,470,0,0,0,0,0,0,0,0,0,-1,1378,554,0,0
161,470,0,0,0,0,0,0,0,0,0,-1,1385,554,0,0
168,470,0,0,0,0,0,0,0,0,0,-1,1392,554,0,0
175,470,0,0,0,0,0,0,0,0,0,-1,1399,554,0,0
182,470,0,0,0,0,0,0,0,0,0,-1,1406,554,0,0
189,470,0,0,0,0,0,0,0,0,0,-1,1413,554,0,0
196,470,0,0,0,0,0,0,0,0,0,-1,1420,554,0,0
203,470,0,0,0,0,0,0,0,0,0,-1,1427,554,0,0
210,470,0,0,0,0,0,0,0,0,0,-1,1434,554,0,0
217,470,0,0,0,0,0,0,0,0,0,-1,1441,554,0,0
224,470,0,0,0,0,0,0,0,0,0,-1,1448,554,0,0
231,470,0,0,0,0,0,0,0,0,0,-1,1455,554,0,0
238,470,0,0,0,0,0,0,0,0,0,-1,1462,554,0,0
245,470,0,0,0,0,0,0,0,0,0,-1,1469,554,0,0
252,470,0,0,0,0,0,0,0,0,0,-1,1476,554,0,0
259,470,0,0,0,0,0,0,0,0,0,-1,1483,554,0,0
266,470,0,0,0,0,0,0,0,0,0,-1,1490,554,0,0
273,470,0,0,0,0,0,0,0,0,0,-1,1497,554,0,0
280,470,0,0,0,0,0,0,0,0,0,-1,1504,554,0,0
287,470,0,0,0,0,0,0,0,0,0,-1,1511,554,0,0
294,470,0,0,0,0,0,0,0,0,0,-1,1518,554,0,0
301,470,0,0,0,0,0,0,0,0,0,-1,1525,554,0,0
308,470,0,0,0,0,0,0,0,0,0,-1,1532,554,0,0
315,470,0,0,0,0,0,0,0,0,0,-1,1539,554,0,0
322,470,0,0,0,0,0,0,0,0,0,-1,1546,554,0,0
329,470,0,0,0,0,0,0,0,0,0,-1,1553,554,0,0
336,470,0,0,0,0,0,0,0,0,0,-1,1560,554,0,0
343,470,0,0,0,0,0,0,0,0,0,-1,1567,554,0,0
350,470,0,0,0,0,0,0,0,0,0,-1,1574,554,0,0
357,470,0,0,0,0,0,0,0,0,0,-1,1581,554,0,0
364,470,1.33423,0.293335,0,0,0,0,0,0,0,-1,1588,554,1.33422,-0.293348
371,470,2.22498,-0.0305176,0,0,0,0,0,0,0,-1,1595,554,2.22494,0.0305046
378,470,6.27051,0.710083,0,0,0,0,0,0,0,-1,1602,554,6.27054,-0.710093
385,470,10.3657,1.47296,0,0,0,0,0,0,0,-1,1609,554,10.3657,-1.47299
392,470,15.3881,3.01935,0,0,0,0,0,0,0,-1,1616,554,15.388,-3.01937
399,470,18.4479,2.93793,0,0,0,0,0,0,0,-1,1623,554,18.4479,-2.93792
406,470,15.1896,1.36676,0,0,0,0,0,0,0,-1,1630,554,15.1896,-1.36679
413,470,6.55383,1.99207,0,0,0,0,0,0,0,-1,1637,554,6.5538,-1.99208
420,470,4.47095,0.845703,0,0,0,0,0,0,0,-1,1644,554,4.47098,-0.845718
427,470,3.51038,1.19684,0,0,0,0,0,0,0,-1,1651,554,3.51039,-1.19684
434,470,3.31775,-1.37427,0,0,0,0,0,0,0,-1,1658,554,3.31781,1.37426
441,470,2.55457,-2.05902,0,0,0,0,0,0,0,-1,1665,554,2.55461,2.05904
448,470,3.27258,-2.64032,0,0,0,0,0,0,0,-1,1672,554,3.27257,2.64029
455,470,10.3658,-9.82233,0,0,0,0,0,0,0,-1,1679,554,10.3659,9.82233
462,470,11.0651,-11.9958,0,0,0,0,0,0,0,-1,1686,554,11.0651,11.9958
469,470,15.4242,-19.0521,0,0,0,0,0,0,0,-1,1693,554,15.4242,19.0521
476,470,19.3124,-23.3965,0,0,0,0,0,0,0,-1,1700,554,19.3124,23.3966
483,470,19.3668,-22.5883,0.00182458,0.000526347,-0.000880003,0.00226897,8.19573e-05,-0.467629,0.00148608,0.0184874,1707,554,19.3668,22.5883
490,470,19.3153,-21.8973,0.00162627,0.000731016,-0.00048369,0.00183768,0.000519609,-0.41205,0.00109386,0.0133316,1714,554,19.3153,21.8973
497,470,19.2877,-21.1633,0.0014708,0.00112822,0.000114174,0.00150537,0.00109365,0.293959,0.000898359,0.0133577,1721,554,19.2878,21.1634
504,470,19.2935,-20.4684,0.00134014,0.00107648,0.000536521,0.00176079,0.000655829,0.664925,0.00102756,0.0184159,1728,554,19.2934,20.4684
511,470,19.2981,-19.806,0.00115898,0.00113061,0.00088394,0.00202885,0.000260739,0.777375,0.00127457,0.0261629,1735,554,19.298,19.806
518,470,19.269,-19.044,0.000885164,0.00127751,0.00117788,0.00227544,-0.000112769,0.867914,0.00155591,0.0261694,1742,554,19.2691,19.044
525,470,19.193,-18.2596,0.000614227,0.00149623,0.00142175,0.0025438,-0.000433344,0.935784,0.00185724,0.0159621,1749,554,19.193,18.2597
532,470,19.0962,-17.4864,0.000346909,0.00188139,0.00164339,0.00292782,-0.000699522,1.00379,0.00222206,0.0138299,1756,554,19.0962,17.4864
539,470,19.0532,-16.744,6.87637e-05,0.00235946,0.0018132,0.00335876,-0.000930538,1.06709,0.00260535,0.0165171,1763,554,19.0532,16.744
546,470,19.0133,-16.0184,-0.00020384,0.00312923,0.00199451,0.00406181,-0.00113642,1.13342,0.00315564,0.0155929,1770,554,19.0134,16.0184
553,470,19.0424,-15.2258,-0.000402171,0.00408082,0.00223609,0.00500546,-0.00132681,1.1787,0.0038561,0.0262559,1777,554,19.0424,15.2258
560,470,19.137,-14.239,0,0,0,0,0,0,0,-1,1784,554,19.137,14.2389
567,470,19.0031,-13.4059,0,0,0,0,0,0,0,-1,1791,554,19.003,13.4059
574,470,14.2793,-8.07147,0,0,0,0,0,0,0,-1,1798,554,14.2793,8.07147
581,470,8.24646,-4.06317,0,0,0,0,0,0,0,-1,1805,554,8.24648,4.06318
588,470,11.1803,1.74927,0,0,0,0,0,0,0,-1,1812,554,11.1803,-1.74926
595,470,4.72192,3.44116,0,0,0,0,0,0,0,-1,1819,554,4.72191,-3.44116
602,470,14.4307,2.76141,0,0,0,0,0,0,0,-1,1826,554,14.4306,-2.76139
609,470,20.9181,4.41058,0,0,0,0,0,0,0,-1,1833,554,20.9181,-4.4106
616,470,0,0,0,0,0,0,0,0,0,-1,1840,554,0,0
623,470,0,0,0,0,0,0,0,0,0,-1,1847,554,0,0
630,470,0,0,0,0,0,0,0,0,0,-1,1854,554,0,0
637,470,0,0,0,0,0,0,0,0,0,-1,1861,554,0,0
644,470,0,0,0,0,0,0,0,0,0,-1,1868,554,0,0
651,470,0,0,0,0,0,0,0,0,0,-1,1875,554,0,0
658,470,0,0,0,0,0,0,0,0,0,-1,1882,554,0,0
665,470,0,0,0,0,0,0,0,0,0,-1,1889,554,0,0
672,470,0,0,0,0,0,0,0,0,0,-1,1896,554,0,0
679,470,0,0,0,0,0,0,0,0,0,-1,1903,554,0,0
686,470,0,0,0,0,0,0,0,0,0,-1,1910,554,0,0
693,470,0,0,0,0,0,0,0,0,0,-1,1917,554,0,0
700,470,0,0,0,0,0,0,0,0,0,-1,1924,554,0,0
707,470,0,0,0,0,0,0,0,0,0,-1,1931,554,0,0
714,470,0,0,0,0,0,0,0,0,0,-1,1938,554,0,0
721,470,0,0,0,0,0,0,0,0,0,-1,1945,554,0,0
728,470,0,0,0,0,0,0,0,0,0,-1,1952,554,0,0
735,470,0,0,0,0,0,0,0,0,0,-1,1959,554,0,0
742,470,0,0,0,0,0,0,0,0,0,-1,1966,554,0,0
749,470,0,0,0,0,0,0,0,0,0,-1,1973,554,0,0
756,470,0,0,0,0,0,0,0,0,0,-1,1980,554,0,0
763,470,0,0,0,0,0,0,0,0,0,-1,1987,554,0,0
770,470,0,0,0,0,0,0,0,0,0,-1,1994,554,0,0
777,470,0,0,0,0,0,0,0,0,0,-1,2001,554,0,0
784,470,0,0,0,0,0,0,0,0,0,-1,2008,554,0,0
791,470,0,0,0,0,0,0,0,0,0,-1,2015,554,0,0
798,470,0,0,0,0,0,0,0,0,0,-1,2022,554,0,0
805,470,0,0,0,0,0,0,0,0,0,-1,2029,554,0,0
812,470,0,0,0,0,0,0,0,0,0,-1,2036,554,0,0
-700,463,0,0,0,0,0,0,0,0,0,-1,524,561,0,0
-693,463,0,0,0,0,0,0,0,0,0,-1,531,561,0,0
-686,463,0,0,0,0,0,0,0,0,0,-1,538,561,0,0
-679,463,0,0,0,0,0,0,0,0,0,-1,545,561,0,0
-672,463,0,0,0,0,0,0,0,0,0,-1,552,561,0,0
-665,463,0,0,0,0,0,0,0,0,0,-1,559,561,0,0
-658,463,0,0,0,0,0,0,0,0,0,-1,566,561,0,0
-651,463,0,0,0,0,0,0,0,0,0,-1,573,561,0,0
-644,463,0,0,0,0,0,0,0,0,0,-1,580,561,0,0
-637,463,0,0,0,0,0,0,0,0,0,-1,587,561,0,0
-630,463,0,0,0,0,0,0,0,0,0,-1,594,561,0,0
-623,463,0,0,0,0,0,0,0,0,0,-1,601,561,0,0
-616,463,0,0,0,0,0,0,0,0,0,-1,608,561,0,0
-609,463,0,0,0,0,0,0,0,0,0,-1,615,561,0,0
-602,463,0,0,0,0,0,0,0,0,0,-1,622,561,0,0
-595,463,0,0,0,0,0,0,0,0,0,-1,629,561,0,0
-588,463,0,0,0,0,0,0,0,0,0,-1,636,561,0,0
-581,463,0,0,0,0,0,0,0,0,0,-1,643,561,0,0
-574,463,0,0,0,0,0,0,0,0,0,-1,650,561,0,0
-567,463,0,0,0,0,0,0,0,0,0,-1,657,561,0,0
-560,463,0,0,0,0,0,0,0,0,0,-1,664,561,0,0
-553,463,0,0,0,0,0,0,0,0,0,-1,671,561,0,0
-546,463,0,0,0,0,0,0,0,0,0,-1,678,561,0,0
-539,463,0,0,0,0,0,0,0,0,0,-1,685,561,0,0
-532,463,0,0,0,0,0,0,0,0,0,-1,692,561,0,0
-525,463,0,0,0,0,0,0,0,0,0,-1,699,561,0,0
-518,463,0,0,0,0,0,0,0,0,0,-1,706,561,0,0
-511,463,0,0,0,0,0,0,0,0,0,-1,713,561,0,0
-504,463,0,0,0,0,0,0,0,0,0,-1,720,561,0,0
-497,463,-9.81451,-1.67126,0,0,0,0,0,0,0,-1,727,561,-9.81452,1.67127
-490,463,-8.57043,-1.58942,0,0,0,0,0,0,0,-1,734,561,-8.57045,1.58944
-483,463,-7.29224,-1.7226,0,0,0,0,0,0,0,-1,741,561,-7.29226,1.72261
-476,463,-5.77704,-1.7312,0,0,0,0,0,0,0,-1,748,561,-5.77703,1.73121
-469,463,-5.14545,-2.138,0,0,0,0,0,0,0,-1,755,561,-5.14546,2.13799
-462,463,-3.13672,-3.07977,0,0,0,0,0,0,0,-1,762,561,-3.13672,3.07974
-455,463,-2.91406,-5.61798,0,0,0,0,0,0,0,-1,769,561,-2.91406,5.61801
-448,463,-4.00177,-8.54681,0,0,0,0,0,0,0,-1,776,561,-4.00175,8.54683
-441,463,-7.05383,-14.6744,0,0,0,0,0,0,0,-1,783,561,-7.05384,14.6744
-434,463,-6.96191,-15.6479,-0.000677471,0.00833869,-0.00274151,0.00910685,-0.00144563,-1.29761,0.00660605,0.0319365,790,561,-6.96194,15.6479
-427,463,-7.00189,-16.3906,-0.000455232,0.00697245,-0.00240026,0.00768058,-0.00116337,-1.28391,0.00554898,0.0106498,797,561,-7.00188,16.3906
-420,463,-7.00598,-17.1169,-0.000190382,0.00574281,-0.00219897,0.00646893,-0.000916503,-1.25186,0.00464834,0.00946532,804,561,-7.006,17.1169
-413,463,-7.052,-17.8592,-1.35945e-05,0.00438642,-0.0018083,0.00503422,-0.000661392,-1.2268,0.00359694,0.0103429,811,561,-7.05202,17.8592
-406,463,-7.1062,-18.5844,0.000259599,0.00342521,-0.00157306,0.00407395,-0.000389137,-1.17964,0.00285453,0.0106446,818,561,-7.10618,18.5844
-399,463,-7.11646,-19.2891,0.000623866,0.00243407,-0.0013259,0.00313434,-7.64048e-05,-1.08489,0.00211549,0.011115,825,561,-7.11648,19.2891
-392,463,-7.16498,-19.9955,0.00103787,0.00148204,-0.00107624,0.00235887,0.000161042,-0.887148,0.00152174,0.0107631,832,561,-7.165,19.9955
-385,463,-7.21045,-20.728,0.0016098,0.000622095,-0.000829097,0.00208098,0.000150913,-0.51679,0.00133985,0.0115074,839,561,-7.21047,20.728
-378,463,-7.24304,-21.4294,0.00227375,-0.000222639,-0.00050233,0.00237104,-0.000319928,-0.191306,0.00169742,0.0126074,846,561,-7.24304,21.4294
-371,463,-7.26556,-22.1263,0.00304363,-0.000932184,-0.000282928,0.00306366,-0.000952216,-0.0706875,0.00242304,0.0123637,853,561,-7.26556,22.1264
-364,463,-7.27197,-22.7876,0.00383804,-0.00151563,-8.73664e-05,0.00383946,-0.00151706,-0.0163132,0.00318801,0.0149238,860,561,-7.27195,22.7876
-357,463,-7.33026,-23.4559,0.00477936,-0.00207708,-1.84777e-05,0.00477941,-0.00207713,-0.00269491,0.00405981,0.021416,867,561,-7.33024,23.4559
-350,463,-7.21967,-24.2089,0.00589356,-0.00258474,-0.000107026,0.00589491,-0.00258609,-0.0126209,0.00501919,0.0440355,874,561,-7.21969,24.2089
-343,463,-6.85876,-24.936,0,0,0,0,0,0,0,-1,881,561,-6.85874,24.936
-336,463,-2.94928,-12.2127,0,0,0,0,0,0,0,-1,888,561,-2.94925,12.2127
-329,463,-2.64307,-12.7037,0,0,0,0,0,0,0,-1,895,561,-2.64307,12.7038
-322,463,-1.82898,-9.11957,0,0,0,0,0,0,0,-1,902,561,-1.829,9.11957
-315,463,-0.944763,-5.96234,0,0,0,0,0,0,0,-1,909,561,-0.94479,5.96237
-308,463,-1.1535,-3.17889,0,0,0,0,0,0,0,-1,916,561,-1.15352,3.17889
-301,463,-1.50366,-3.15338,0,0,0,0,0,0,0,-1,923,561,-1.50364,3.15341
-294,463,-2.35889,-3.93463,0,0,0,0,0,0,0,-1,930,561,-2.35886,3.93465
-287,463,-2.80322,2.73999,0,0,0,0,0,0,0,-1,937,561,-2.80322,-2.74
-280,463,-12.864,5.25146,0,0,0,0,0,0,0,-1,944,561,-12.864,-5.25149
-273,463,-12.4598,3.39178,0,0,0,0,0,0,0,-1,951,561,-12.4598,-3.3918
-266,463,-8.78101,-3.7356,0,0,0,0,0,0,0,-1,958,561,-8.78098,3.73562
-259,463,-6.23285,-5.68842,0,0,0,0,0,0,0,-1,965,561,-6.23288,5.68843
-252,463,0,0,0,0,0,0,0,0,0,-1,972,561,0,0
-245,463,0,0,0,0,0,0,0,0,0,-1,979,561,0,0
-238,463,0,0,0,0,0,0,0,0,0,-1,986,561,0,0
-231,463,0,0,0,0,0,0,0,0,0,-1,993,561,0,0
-224,463,0,0,0,0,0,0,0,0,0,-1,1000,561,0,0
-217,463,0,0,0,0,0,0,0,0,0,-1,1007,561,0,0
-210,463,0,0,0,0,0,0,0,0,0,-1,1014,561,0,0
-203,463,0,0,0,0,0,0,0,0,0,-1,1021,561,0,0
-196,463,0,0,0,0,0,0,0,0,0,-1,1028,561,0,0
-189,463,0,0,0,0,0,0,0,0,0,-1,1035,561,0,0
-182,463,0,0,0,0,0,0,0,0,0,-1,1042,561,0,0
-175,463,0,0,0,0,0,0,0,0,0,-1,1049,561,0,0
-168,463,0,0,0,0,0,0,0,0,0,-1,1056,561,0,0
-161,463,0,0,0,0,0,0,0,0,0,-1,1063,561,0,0
-154,463,0,0,0,0,0,0,0,0,0,-1,1070,561,0,0
-147,463,0,0,0,0,0,0,0,0,0,-1,1077,561,0,0
-140,463,0,0,0,0,0,0,0,0,0,-1,1084,561,0,0
-133,463,0,0,0,0,0,0,0,0,0,-1,1091,561,0,0
-126,463,0,0,0,0,0,0,0,0,0,-1,1098,561,0,0
-119,463,0,0,0,0,0,0,0,0,0,-1,1105,561,0,0
-112,463,0,0,0,0,0,0,0,0,0,-1,1112,561,0,0
-105,463,0,0,0,0,0,0,0,0,0,-1,1119,561,0,0
-98,463,0,0,0,0,0,0,0,0,0,-1,1126,561,0,0
-91,463,0,0,0,0,0,0,0,0,0,-1,1133,561,0,0
-84,463,0,0,0,0,0,0,0,0,0,-1,1140,561,0,0
-77,463,0,0,0,0,0,0,0,0,0,-1,1147,561,0,0
-70,463,0,0,0,0,0,0,0,0,0,-1,1154,561,0,0
-63,463,0,0,0,0,0,0,0,0,0,-1,1161,561,0,0
-56,463,0,0,0,0,0,0,0,0,0,-1,1168,561,0,0
-49,463,0,0,0,0,0,0,0,0,0,-1,1175,561,0,0
-42,463,0,0,0,0,0,0,0,0,0,-1,1182,561,0,0
-35,463,0,0,0,0,0,0,0,0,0,-1,1189,561,0,0
-28,463,0,0,0,0,0,0,0,0,0,-1,1196,561,0,0
-21,463,0,0,0,0,0,0,0,0,0,-1,1203,561,0,0
-14,463,0,0,0,0,0,0,0,0,0,-1,1210,561,0,0
-7,463,0,0,0,0,0,0,0,0,0,-1,1217,561,0,0
0,463,0,0,0,0,0,0,0,0,0,-1,1224,561,0,0
7,463,0,0,0,0,0,0,0,0,0,-1,1231,561,0,0
14,463,0,0,0,0,0,0,0,0,0,-1,1238,561,0,0
21,463,0,0,0,0,0,0,0,0,0,-1,1245,561,0,0
28,463,0,0,0,0,0,0,0,0,0,-1,1252,561,0,0
35,463,0,0,0,0,0,0,0,0,0,-1,1259,561,0,0
42,463,0,0,0,0,0,0,0,0,0,-1,1266,561,0,0
49,463,0,0,0,0,0,0,0,0,0,-1,1273,561,0,0
56,463,0,0,0,0,0,0,0,0,0,-1,1280,561,0,0
63,463,0,0,0,0,0,0,0,0,0,-1,1287,561,0,0
70,463,0,0,0,0,0,0,0,0,0,-1,1294,561,0,0
77,463,0,0,0,0,0,0,0,0,0,-1,1301,561,0,0
84,463,0,0,0,0,0,0,0,0,0,-1,1308,561,0,0
91,463,0,0,0,0,0,0,0,0,0,-1,1315,561,0,0
98,463,0,0,0,0,0,0,0,0,0,-1,1322,561,0,0
105,463,0,0,0,0,0,0,0,0,0,-1,1329,561,0,0
112,463,0,0,0,0,0,0,0,0,0,-1,1336,561,0,0
119,463,0,0,0,0,0,0,0,0,0,-1,1343,561,0,0
126,463,0,0,0,0,0,0,0,0,0,-1,1350,561,0,0
133,463,0,0,0,0,0,0,0,0,0,-1,1357,561,0,0
140,463,0,0,0,0,0,0,0,0,0,-1,1364,561,0,0
147,463,0,0,0,0,0,0,0,0,0,-1,1371,561,0,0
154,463,0,0,0,0,0,0,0,0,0,-1,1378,561,0,0
161,463,0,0,0,0,0,0,0,0,0,-1,1385,561,0,0
168,463,0,0,0,0,0,0,0,0,0,-1,1392,561,0,0
175,463,0,0,0,0,0,0,0,0,0,-1,1399,561,0,0
182,463,0,0,0,0,0,0,0,0,0,-1,1406,561,0,0
189,463,0,0,0,0,0,0,0,0,0,-1,1413,561,0,0
196,463,0,0,0,0,0,0,0,0,0,-1,1420,561,0,0
203,463,0,0,0,0,0,0,0,0,0,-1,1427,561,0,0
210,463,0,0,0,0,0,0,0,0,0,-1,1434,561,0,0
217,463,0,0,0,0,0,0,0,0,0,-1,1441,561,0,0
224,463,0,0,0,0,0,0,0,0,0,-1,1448,561,0,0
231,463,0,0,0,0,0,0,0,0,0,-1,1455,561,0,0
238,463,0,0,0,0,0,0,0,0,0,-1,1462,561,0,0
245,463,0,0,0,0,0,0,0,0,0,-1,1469,561,0,0
252,463,0,0,0,0,0,0,0,0,0,-1,1476,561,0,0
259,463,0,0,0,0,0,0,0,0,0,-1,1483,561,0,0
266,463,0,0,0,0,0,0,0,0,0,-1,1490,561,0,0
273,463,0,0,0,0,0,0,0,0,0,-1,1497,561,0,0
280,463,0,0,0,0,0,0,0,0,0,-1,1504,561,0,0
287,463,0,0,0,0,0,0,0,0,0,-1,1511,561,0,0
294,463,0,0,0,0,0,0,0,0,0,-1,1518,561,0,0
301,463,0,0,0,0,0,0,0,0,0,-1,1525,561,0,0
308,463,0,0,0,0,0,0,0,0,0,-1,1532,561,0,0
315,463,0,0,0,0,0,0,0,0,0,-1,1539,561,0,0
322,463,0,0,0,0,0,0,0,0,0,-1,1546,561,0,0
329,463,0,0,0,0,0,0,0,0,0,-1,1553,561,0,0
336,463,0,0,0,0,0,0,0,0,0,-1,1560,561,0,0
343,463,0,0,0,0,0,0,0,0,0,-1,1567,561,0,0
350,463,0,0,0,0,0,0,0,0,0,-1,1574,561,0,0
357,463,0,0,0,0,0,0,0,0,0,-1,1581,561,0,0
364,463,0,0,0,0,0,0,0,0,0,-1,1588,561,0,0
371,463,1.75842,0.152588,0,0,0,0,0,0,0,-1,1595,561,1.75844,-0.152558
378,463,4.58813,-0.0444336,0,0,0,0,0,0,0,-1,1602,561,4.58809,0.0444505
385,463,8.88574,1.65057,0,0,0,0,0,0,0,-1,1609,561,8.88575,-1.65055
392,463,14.0912,2.50513,0,0,0,0,0,0,0,-1,1616,561,14.0912,-2.5051
399,463,21.4769,2.7002,0,0,0,0,0,0,0,-1,1623,561,21.477,-2.70017
406,463,26.2987,4.32318,0,0,0,0,0,0,0,-1,1630,561,26.2987,-4.3232
413,463,26.5011,2.65222,0,0,0,0,0,0,0,-1,1637,561,26.5011,-2.65224
420,463,8.849,2.26611,0,0,0,0,0,0,0,-1,1644,561,8.84899,-2.26613
427,463,5.12207,1.69183,0,0,0,0,0,0,0,-1,1651,561,5.12206,-1.69184
434,463,4.59814,1.81995,0,0,0,0,0,0,0,-1,1658,561,4.59812,-1.81994
441,463,1.76392,-5.99225,0,0,0,0,0,0,0,-1,1665,561,1.7639,5.99225
448,463,2.49939,-4.30536,0,0,0,0,0,0,0,-1,1672,561,2.49941,4.30536
455,463,4.40295,-3.02557,0,0,0,0,0,0,0,-1,1679,561,4.40299,3.02558
462,463,5.38293,-4.06445,0,0,0,0,0,0,0,-1,1686,561,5.38289,4.06444
469,463,5.94373,-4.50647,0,0,0,0,0,0,0,-1,1693,561,5.94368,4.50646
476,463,15.2559,-17.3189,0,0,0,0,0,0,0,-1,1700,561,15.2558,17.3189
483,463,20.067,-22.6333,0,0,0,0,0,0,0,-1,1707,561,20.067,22.6333
490,463,20.0649,-21.9235,0.00232313,0.00038771,-0.000441016,0.00241888,0.000291954,-0.213805,0.00152462,0.030068,1714,561,20.0649,21.9235
497,463,19.9999,-21.1295,0.00213067,0.000929359,0.000163227,0.00215245,0.000907575,0.13267,0.00124779,0.0149116,1721,561,19.9999,21.1295
504,463,20.0121,-20.4248,0.00188465,0.000922489,0.00051755,0.00211018,0.000696959,0.410951,0.00124148,0.0156846,1728,561,20.0121,20.4248
511,463,20.0132,-19.7386,0.00160554,0.000975258,0.000789026,0.00214003,0.000440767,0.595401,0.00130482,0.0225555,1735,561,20.0132,19.7387
518,463,19.99,-18.9775,0.00124662,0.00112109,0.00103506,0.00222081,0.000146894,0.755116,0.00143408,0.023809,1742,561,19.99,18.9775
525,463,19.9073,-18.2386,0.000868176,0.00135602,0.00121621,0.00235253,-0.000128332,0.884364,0.00161283,0.0188407,1749,561,19.9074,18.2387
532,463,19.8846,-17.4747,0.000507827,0.00173207,0.00137537,0.00262538,-0.000385484,0.994767,0.00189188,0.0167776,1756,561,19.8846,17.4748
539,463,19.8097,-16.6981,0.000168138,0.00217233,0.00150863,0.00298135,-0.000640886,1.07856,0.00223208,0.0187822,1763,561,19.8097,16.6981
546,463,19.7517,-15.9986,-0.000143113,0.00284213,0.00165807,0.00358046,-0.000881438,1.15187,0.00272866,0.0147864,1770,561,19.7517,15.9986
553,463,19.755,-15.2257,-0.000402098,0.0036548,0.00185115,0.0043725,-0.0011198,1.20093,0.00335122,0.0111896,1777,561,19.755,15.2257
560,463,19.7688,-14.3288,-0.000516262,0.00464318,0.00212421,0.0054052,-0.00127828,1.22636,0.00409659,0.0235296,1784,561,19.7688,14.3288
567,463,19.5996,-13.5935,-0.000573269,0.0057403,0.00250896,0.00661591,-0.00144888,1.23502,0.00496455,0.0356712,1791,561,19.5996,13.5935
574,463,19.7107,-12.8676,0,0,0,0,0,0,0,-1,1798,561,19.7107,12.8676
581,463,9.4939,-3.88245,0,0,0,0,0,0,0,-1,1805,561,9.49392,3.88245
588,463,1.97424,2.16016,0,0,0,0,0,0,0,-1,1812,561,1.97422,-2.16013
595,463,9.98657,2.99854,0,0,0,0,0,0,0,-1,1819,561,9.98662,-2.99856
602,463,17.2202,4.91302,0,0,0,0,0,0,0,-1,1826,561,17.2202,-4.91305
609,463,17.96,4.03131,0,0,0,0,0,0,0,-1,1833,561,17.96,-4.03132
616,463,20.8352,3.15131,0,0,0,0,0,0,0,-1,1840,561,20.8352,-3.1513
623,463,0,0,0,0,0,0,0,0,0,-1,1847,561,0,0
630,463,0,0,0,0,0,0,0,0,0,-1,1854,561,0,0
637,463,0,0,0,0,0,0,0,0,0,-1,1861,561,0,0
644,463,0,0,0,0,0,0,0,0,0,-1,1868,561,0,0
651,463,0,0,0,0,0,0,0,0,0,-1,1875,561,0,0
658,463,0,0,0,0,0,0,0,0,0,-1,1882,561,0,0
665,463,0,0,0,0,0,0,0,0,0,-1,1889,561,0,0
672,463,0,0,0,0,0,0,0,0,0,-1,1896,561,0,0
679,463,0,0,0,0,0,0,0,0,0,-1,1903,561,0,0
686,463,0,0,0,0,0,0,0,0,0,-1,1910,561,0,0
693,463,0,0,0,0,0,0,0,0,0,-1,1917,561,0,0
700,463,0,0,0,0,0,0,0,0,0,-1,1924,561,0,0
707,463,0,0,0,0,0,0,0,0,0,-1,1931,561,0,0
714,463,0,0,0,0,0,0,0,0,0,-1,1938,561,0,0
721,463,0,0,0,0,0,0,0,0,0,-1,1945,561,0,0
728,463,0,0,0,0,0,0,0,0,0,-1,1952,561,0,0
735,463,0,0,0,0,0,0,0,0,0,-1,1959,561,0,0
742,463,0,0,0,0,0,0,0,0,0,-1,1966,561,0,0
749,463,0,0,0,0,0,0,0,0,0,-1,1973,561,0,0
756,463,0,0,0,0,0,0,0,0,0,-1,1980,561,0,0
763,463,0,0,0,0,0,0,0,0,0,-1,1987,561,0,0
770,463,0,0,0,0,0,0,0,0,0,-1,1994,561,0,0
777,463,0,0,0,0,0,0,0,0,0,-1,2001,561,0,0
784,463,0,0,0,0,0,0,0,0,0,-1,2008,561,0,0
791,463,0,0,0,0,0,0,0,0,0,-1,2015,561,0,0
798,463,0,0,0,0,0,0,0,0,0,-1,2022,561,0,0
805,463,0,0,0,0,0,0,0,0,0,-1,2029,561,0,0
812,463,0,0,0,0,0,0,0,0,0,-1,2036,561,0,0
-700,456,0,0,0,0,0,0,0,0,0,-1,524,568,0,0
-693,456,0,0,0,0,0,0,0,0,0,-1,531,568,0,0
-686,456,0,0,0,0,0,0,0,0,0,-1,538,568,0,0
-679,456,0,0,0,0,0,0,0,0,0,-1,545,568,0,0
-672,456,0,0,0,0,0,0,0,0,0,-1,552,568,0,0
-665,456,0,0,0,0,0,0,0,0,0,-1,559,568,0,0
-658,456,0,0,0,0,0,0,0,0,0,-1,566,568,0,0
-651,456,0,0,0,0,0,0,0,0,0,-1,573,568,0,0
-644,456,0,0,0,0,0,0,0,0,0,-1,580,568,0,0
-637,456,0,0,0,0,0,0,0,0,0,-1,587,568,0,0
-630,456,0,0,0,0,0,0,0,0,0,-1,594,568,0,0
-623,456,0,0,0,0,0,0,0,0,0,-1,601,568,0,0
-616,456,0,0,0,0,0,0,0,0,0,-1,608,568,0,0
-609,456,0,0,0,0,0,0,0,0,0,-1,615,568,0,0
-602,456,0,0,0,0,0,0,0,0,0,-1,622,568,0,0
-595,456,0,0,0,0,0,0,0,0,0,-1,629,568,0,0
-588,456,0,0,0,0,0,0,0,0,0,-1,636,568,0,0
-581,456,0,0,0,0,0,0,0,0,0,-1,643,568,0,0
-574,456,0,0,0,0,0,0,0,0,0,-1,650,568,0,0
-567,456,0,0,0,0,0,0,0,0,0,-1,657,568,0,0
-560,456,0,0,0,0,0,0,0,0,0,-1,664,568,0,0
-553,456,0,0,0,0,0,0,0,0,0,-1,671,568,0,0
-546,456,0,0,0,0,0,0,0,0,0,-1,678,568,0,0
-539,456,0,0,0,0,0,0,0,0,0,-1,685,568,0,0
-532,456,0,0,0,0,0,0,0,0,0,-1,692,568,0,0
-525,456,0,0,0,0,0,0,0,0,0,-1,699,568,0,0
-518,456,0,0,0,0,0,0,0,0,0,-1,706,568,0,0
-511,456,0,0,0,0,0,0,0,0,0,-1,713,568,0,0
-504,456,-10.3994,-2.34839,0,0,0,0,0,0,0,-1,720,568,-10.3994,2.3484
-497,456,-9.21375,-2.38068,0,0,0,0,0,0,0,-1,727,568,-9.21372,2.38069
-490,456,-8.09058,-2.31824,0,0,0,0,0,0,0,-1,734,568,-8.09057,2.31821
-483,456,-6.66119,-2.24329,0,0,0,0,0,0,0,-1,741,568,-6.66121,2.24331
-476,456,-5.1499,-2.21185,0,0,0,0,0,0,0,-1,748,568,-5.14992,2.21184
-469,456,-2.81238,-3.51501,0,0,0,0,0,0,0,-1,755,568,-2.81237,3.51501
-462,456,-4.2431,-5.27478,0,0,0,0,0,0,0,-1,762,568,-4.24312,5.27476
-455,456,-5.98364,-8.72119,0,0,0,0,0,0,0,-1,769,568,-5.98364,8.72122
-448,456,-7.19971,-13.4815,0,0,0,0,0,0,0,-1,776,568,-7.19972,13.4815
-441,456,-7.77197,-14.7977,0,0,0,0,0,0,0,-1,783,568,-7.772,14.7977
-434,456,-7.69562,-15.6393,-0.000486316,0.00658133,-0.00233029,0.00728049,-0.00118548,-1.27931,0.00529326,0.0194861,790,568,-7.69563,15.6393
-427,456,-7.71301,-16.3657,-0.000222743,0.00531569,-0.00189644,0.00590282,-0.000809871,-1.27056,0.00423109,0.00891982,797,568,-7.71303,16.3657
-420,456,-7.73083,-17.0838,8.49477e-05,0.00419735,-0.00163231,0.00476648,-0.000484188,-1.23531,0.00335073,0.00876772,804,568,-7.73082,17.0838
-413,456,-7.77295,-17.8047,0.000278012,0.00293346,-0.00119578,0.00339256,-0.000181091,-1.20422,0.00232442,0.00915929,811,568,-7.77297,17.8047
-406,456,-7.84668,-18.5157,0.000569106,0.00206888,-0.000945975,0.00252614,0.000111848,-1.12054,0.00164807,0.00972473,818,568,-7.84668,18.5157
-399,456,-7.87152,-19.2349,0.000980781,0.0012023,-0.000737767,0.00183757,0.000345506,-0.859906,0.00112766,0.0112721,825,568,-7.8715,19.2349
-392,456,-7.88684,-19.956,0.00143685,0.000366393,-0.000543627,0.00166451,0.000138732,-0.396591,0.00106644,0.0109834,832,568,-7.88684,19.956
-385,456,-7.91309,-20.6709,0.00206375,-0.00037902,-0.000375562,0.00212019,-0.000435456,-0.149156,0.00157876,0.0109137,839,568,-7.9131,20.6709
-378,456,-7.95276,-21.3917,0.00281862,-0.00108529,-0.000151539,0.0028245,-0.00109116,-0.0387395,0.00233337,0.0115112,846,568,-7.95278,21.3917
-371,456,-7.97253,-22.0747,0.00375889,-0.0015758,-4.61707e-05,0.00375929,-0.0015762,-0.00865393,0.00316523,0.0123166,853,568,-7.97254,22.0747
-364,456,-7.96857,-22.7286,0.00477102,-0.00182148,-3.98838e-05,0.00477127,-0.00182172,-0.00604958,0.00393139,0.0271851,860,568,-7.96858,22.7287
-357,456,-7.92499,-23.4797,0,0,0,0,0,0,0,-1,867,568,-7.92498,23.4796
-350,456,-7.71368,-24.4394,0,0,0,0,0,0,0,-1,874,568,-7.71369,24.4394
-343,456,-3.39081,-12.0217,0,0,0,0,0,0,0,-1,881,568,-3.39078,12.0217
-336,456,-3.04517,-12.4623,0,0,0,0,0,0,0,-1,888,568,-3.04519,12.4624
-329,456,-1.06183,-10.7184,0,0,0,0,0,0,0,-1,895,568,-1.06184,10.7184
-322,456,-0.662537,-7.66632,0,0,0,0,0,0,0,-1,902,568,-0.662564,7.66633
-315,456,-0.675476,-3.38397,0,0,0,0,0,0,0,-1,909,568,-0.675473,3.38399
-308,456,-1.1618,-3.15314,0,0,0,0,0,0,0,-1,916,568,-1.16178,3.15314
-301,456,-1.83551,-3.26447,0,0,0,0,0,0,0,-1,923,568,-1.8355,3.26449
-294,456,-2.93414,-3.35449,0,0,0,0,0,0,0,-1,930,568,-2.93413,3.35451
-287,456,-3.7569,-3.53101,0,0,0,0,0,0,0,-1,937,568,-3.75692,3.53101
-280,456,-13.072,4.52856,0,0,0,0,0,0,0,-1,944,568,-13.072,-4.52855
-273,456,-8.26538,-6.66748,0,0,0,0,0,0,0,-1,951,568,-8.26536,6.66745
-266,456,-5.71527,-9.36884,0,0,0,0,0,0,0,-1,958,568,-5.71529,9.36885
-259,456,0,0,0,0,0,0,0,0,0,-1,965,568,0,0
-252,456,0,0,0,0,0,0,0,0,0,-1,972,568,0,0
-245,456,0,0,0,0,0,0,0,0,0,-1,979,568,0,0
-238,456,0,0,0,0,0,0,0,0,0,-1,986,568,0,0
-231,456,0,0,0,0,0,0,0,0,0,-1,993,568,0,0
-224,456,0,0,0,0,0,0,0,0,0,-1,1000,568,0,0
-217,456,0,0,0,0,0,0,0,0,0,-1,1007,568,0,0
-210,456,0,0,0,0,0,0,0,0,0,-1,1014,568,0,0
-203,456,0,0,0,0,0,0,0,0,0,-1,1021,568,0,0
-196,456,0,0,0,0,0,0,0,0,0,-1,1028,568,0,0
-189,456,0,0,0,0,0,0,0,0,0,-1,1035,568,0,0
-182,456,0,0,0,0,0,0,0,0,0,-1,1042,568,0,0
-175,456,0,0,0,0,0,0,0,0,0,-1,1049,568,0,0
-168,456,0,0,0,0,0,0,0,0,0,-1,1056,568,0,0
-161,456,0,0,0,0,0,0,0,0,0,-1,1063,568,0,0
-154,456,0,0,0,0,0,0,0,0,0,-1,1070,568,0,0
-147,456,0,0,0,0,0,0,0,0,0,-1,1077,568,0,0
-140,456,0,0,0,0,0,0,0,0,0,-1,1084,568,0,0
-133,456,0,0,0,0,0,0,0,0,0,-1,1091,568,0,0
-126,456,0,0,0,0,0,0,0,0,0,-1,1098,568,0,0
-119,456,0,0,0,0,0,0,0,0,0,-1,1105,568,0,0
-112,456,0,0,0,0,0,0,0,0,0,-1,1112,568,0,0
-105,456,0,0,0,0,0,0,0,0,0,-1,1119,568,0,0
-98,456,0,0,0,0,0,0,0,0,0,-1,1126,568,0,0
-91,456,0,0,0,0,0,0,0,0,0,-1,1133,568,0,0
-84,456,0,0,0,0,0,0,0,0,0,-1,1140,568,0,0
-77,456,0,0,0,0,0,0,0,0,0,-1,1147,568,0,0
-70,456,0,0,0,0,0,0,0,0,0,-1,1154,568,0,0
-63,456,0,0,0,0,0,0,0,0,0,-1,1161,568,0,0
-56,456,0,0,0,0,0,0,0,0,0,-1,1168,568,0,0
-49,456,0,0,0,0,0,0,0,0,0,-1,1175,568,0,0
-42,456,0,0,0,0,0,0,0,0,0,-1,1182,568,0,0
-35,456,0,0,0,0,0,0,0,0,0,-1,1189,568,0,0
-28,456,0,0,0,0,0,0,0,0,0,-1,1196,568,0,0
-21,456,0,0,0,0,0,0,0,0,0,-1,1203,568,0,0
-14,456,0,0,0,0,0,0,0,0,0,-1,1210,568,0,0
-7,456,0,0,0,0,0,0,0,0,0,-1,1217,568,0,0
0,456,0,0,0,0,0,0,0,0,0,-1,1224,568,0,0
7,456,0,0,0,0,0,0,0,0,0,-1,1231,568,0,0
14,456,0,0,0,0,0,0,0,0,0,-1,1238,568,0,0
21,456,0,0,0,0,0,0,0,0,0,-1,1245,568,0,0
28,456,0,0,0,0,0,0,0,0,0,-1,1252,568,0,0
35,456,0,0,0,0,0,0,0,0,0,-1,1259,568,0,0
42,456,0,0,0,0,0,0,0,0,0,-1,1266,568,0,0
49,456,0,0,0,0,0,0,0,0,0,-1,1273,568,0,0
56,456,0,0,0,0,0,0,0,0,0,-1,1280,568,0,0
63,456,0,0,0,0,0,0,0,0,0,-1,1287,568,0,0
70,456,0,0,0,0,0,0,0,0,0,-1,1294,568,0,0
77,456,0,0,0,0,0,0,0,0,0,-1,1301,568,0,0
84,456,0,0,0,0,0,0,0,0,0,-1,1308,568,0,0
91,456,0,0,0,0,0,0,0,0,0,-1,1315,568,0,0
98,456,0,0,0,0,0,0,0,0,0,-1,1322,568,0,0
105,456,0,0,0,0,0,0,0,0,0,-1,1329,568,0,0
112,456,0,0,0,0,0,0,0,0,0,-1,1336,568,0,0
119,456,0,0,0,0,0,0,0,0,0,-1,1343,568,0,0
126,456,0,0,0,0,0,0,0,0,0,-1,1350,568,0,0
133,456,0,0,0,0,0,0,0,0,0,-1,1357,568,0,0
140,456,0,0,0,0,0,0,0,0,0,-1,1364,568,0,0
147,456,0,0,0,0,0,0,0,0,0,-1,1371,568,0,0
154,456,0,0,0,0,0,0,0,0,0,-1,1378,568,0,0
161,456,0,0,0,0,0,0,0,0,0,-1,1385,568,0,0
168,456,0,0,0,0,0,0,0,0,0,-1,1392,568,0,0
175,456,0,0,0,0,0,0,0,0,0,-1,1399,568,0,0
182,456,0,0,0,0,0,0,0,0,0,-1,1406,568,0,0
189,456,0,0,0,0,0,0,0,0,0,-1,1413,568,0,0
196,456,0,0,0,0,0,0,0,0,0,-1,1420,568,0,0
203,456,0,0,0,0,0,0,0,0,0,-1,1427,568,0,0
210,456,0,0,0,0,0,0,0,0,0,-1,1434,568,0,0
217,456,0,0,0,0,0,0,0,0,0,-1,1441,568,0,0
224,456,0,0,0,0,0,0,0,0,0,-1,1448,568,0,0
231,456,0,0,0,0,0,0,0,0,0,-1,1455,568,0,0
238,456,0,0,0,0,0,0,0,0,0,-1,1462,568,0,0
245,456,0,0,0,0,0,0,0,0,0,-1,1469,568,0,0
252,456,0,0,0,0,0,0,0,0,0,-1,1476,568,0,0
259,456,0,0,0,0,0,0,0,0,0,-1,1483,568,0,0
266,456,0,0,0,0,0,0,0,0,0,-1,1490,568,0,0
273,456,0,0,0,0,0,0,0,0,0,-1,1497,568,0,0
280,456,0,0,0,0,0,0,0,0,0,-1,1504,568,0,0
287,456,0,0,0,0,0,0,0,0,0,-1,1511,568,0,0
294,456,0,0,0,0,0,0,0,0,0,-1,1518,568,0,0
301,456,0,0,0,0,0,0,0,0,0,-1,1525,568,0,0
308,456,0,0,0,0,0,0,0,0,0,-1,1532,568,0,0
315,456,0,0,0,0,0,0,0,0,0,-1,1539,568,0,0
322,456,0,0,0,0,0,0,0,0,0,-1,1546,568,0,0
329,456,0,0,0,0,0,0,0,0,0,-1,1553,568,0,0
336,456,0,0,0,0,0,0,0,0,0,-1,1560,568,0,0
343,456,0,0,0,0,0,0,0,0,0,-1,1567,568,0,0
350,456,0,0,0,0,0,0,0,0,0,-1,1574,568,0,0
357,456,0,0,0,0,0,0,0,0,0,-1,1581,568,0,0
364,456,0,0,0,0,0,0,0,0,0,-1,1588,568,0,0
371,456,0,0,0,0,0,0,0,0,0,-1,1595,568,0,0
378,456,0,0,0,0,0,0,0,0,0,-1,1602,568,0,0
385,456,5.66284,0.660645,0,0,0,0,0,0,0,-1,1609,568,5.66285,-0.660615
392,456,17.5027,4.32971,0,0,0,0,0,0,0,-1,1616,568,17.5026,-4.32971
399,456,24.1917,5.99652,0,0,0,0,0,0,0,-1,1623,568,24.1916,-5.99651
406,456,24.446,4.53003,0,0,0,0,0,0,0,-1,1630,568,24.446,-4.53005
413,456,24.9418,2.90521,0,0,0,0,0,0,0,-1,1637,568,24.9418,-2.90524
420,456,25.3048,1.04712,0,0,0,0,0,0,0,-1,1644,568,25.3048,-1.04713
427,456,6.21375,2.02905,0,0,0,0,0,0,0,-1,1651,568,6.21372,-2.02904
434,456,3.0719,-4.86285,0,0,0,0,0,0,0,-1,1658,568,3.07184,4.86287
441,456,2.90344,-4.70459,0,0,0,0,0,0,0,-1,1665,568,2.90346,4.7046
448,456,3.06995,-4.93689,0,0,0,0,0,0,0,-1,1672,568,3.06991,4.93687
455,456,3.46582,-3.43701,0,0,0,0,0,0,0,-1,1679,568,3.46585,3.43698
462,456,4.68445,-4.45831,0,0,0,0,0,0,0,-1,1686,568,4.68439,4.45833
469,456,4.93201,-2.289,0,0,0,0,0,0,0,-1,1693,568,4.93197,2.28903
476,456,4.8363,-2.79364,0,0,0,0,0,0,0,-1,1700,568,4.83636,2.79363
483,456,12.8522,-13.692,0,0,0,0,0,0,0,-1,1707,568,12.8522,13.6919
490,456,20.656,-22.1537,0,0,0,0,0,0,0,-1,1714,568,20.656,22.1537
497,456,20.6951,-21.0985,0,0,0,0,0,0,0,-1,1721,568,20.6951,21.0985
504,456,20.681,-20.3905,0.00266114,0.000913191,0.000715887,0.00291691,0.000657419,0.343145,0.00176672,0.0151728,1728,568,20.681,20.3905
511,456,20.6986,-19.6695,0.00226955,0.000862028,0.000874079,0.00268797,0.000443606,0.446463,0.00166394,0.014285,1735,568,20.6987,19.6695
518,456,20.6743,-18.9263,0.00182964,0.000922081,0.00104666,0.00251666,0.000235062,0.580853,0.00160517,0.017061,1742,568,20.6743,18.9262
525,456,20.6306,-18.1856,0.00135349,0.00111347,0.00114161,0.00238138,8.55838e-05,0.73303,0.00155984,0.0167941,1749,568,20.6307,18.1856
532,456,20.6267,-17.4111,0.000919742,0.00142993,0.00122266,0.00242382,-7.41462e-05,0.888243,0.00164115,0.0168826,1756,568,20.6267,17.4111
539,456,20.557,-16.6229,0.000548712,0.0018021,0.00130861,0.00262634,-0.000275529,1.00871,0.00184959,0.0222738,1763,568,20.557,16.6229
546,456,20.4878,-15.908,0.000234287,0.00236402,0.0014133,0.00306872,-0.000470413,1.10825,0.0022193,0.0248425,1770,568,20.4878,15.908
553,456,20.4532,-15.1479,-3.92339e-05,0.00305943,0.00156142,0.00370975,-0.000689551,1.17615,0.00273218,0.0144648,1777,568,20.4533,15.1479
560,456,20.4348,-14.4305,-0.000169781,0.00388685,0.00181545,0.00458065,-0.000863582,1.20576,0.00337862,0.0105303,1784,568,20.4348,14.4305
567,456,20.4143,-13.6592,-0.000153358,0.00486002,0.0022298,0.00570826,-0.00100159,1.20729,0.00417957,0.0201988,1791,568,20.4143,13.6593
574,456,20.4055,-12.9139,0,0,0,0,0,0,0,-1,1798,568,20.4055,12.9139
581,456,16.2228,-9.08563,0,0,0,0,0,0,0,-1,1805,568,16.2228,9.08562
588,456,5.23901,-0.0901489,0,0,0,0,0,0,0,-1,1812,568,5.23906,0.0901656
595,456,6.90063,3.14886,0,0,0,0,0,0,0,-1,1819,568,6.90066,-3.14887
602,456,16.894,4.10938,0,0,0,0,0,0,0,-1,1826,568,16.8941,-4.1094
609,456,14.9966,3.5708,0,0,0,0,0,0,0,-1,1833,568,14.9966,-3.57083
616,456,17.7407,2.6579,0,0,0,0,0,0,0,-1,1840,568,17.7408,-2.6579
623,456,20.6838,1.7121,0,0,0,0,0,0,0,-1,1847,568,20.6838,-1.71208
630,456,0,0,0,0,0,0,0,0,0,-1,1854,568,0,0
637,456,0,0,0,0,0,0,0,0,0,-1,1861,568,0,0
644,456,0,0,0,0,0,0,0,0,0,-1,1868,568,0,0
651,456,0,0,0,0,0,0,0,0,0,-1,1875,568,0,0
658,456,0,0,0,0,0,0,0,0,0,-1,1882,568,0,0
665,456,0,0,0,0,0,0,0,0,0,-1,1889,568,0,0
672,456,0,0,0,0,0,0,0,0,0,-1,1896,568,0,0
679,456,0,0,0,0,0,0,0,0,0,-1,1903,568,0,0
686,456,0,0,0,0,0,0,0,0,0,-1,1910,568,0,0
693,456,0,0,0,0,0,0,0,0,0,-1,1917,568,0,0
700,456,0,0,0,0,0,0,0,0,0,-1,1924,568,0,0
707,456,0,0,0,0,0,0,0,0,0,-1,1931,568,0,0
714,456,0,0,0,0,0,0,0,0,0,-1,1938,568,0,0
721,456,0,0,0,0,0,0,0,0,0,-1,1945,568,0,0
728,456,0,0,0,0,0,0,0,0,0,-1,1952,568,0,0
735,456,0,0,0,0,0,0,0,0,0,-1,1959,568,0,0
742,456,0,0,0,0,0,0,0,0,0,-1,1966,568,0,0
749,456,0,0,0,0,0,0,0,0,0,-1,1973,568,0,0
756,456,0,0,0,0,0,0,0,0,0,-1,1980,568,0,0
763,456,0,0,0,0,0,0,0,0,0,-1,1987,568,0,0
770,456,0,0,0,0,0,0,0,0,0,-1,1994,568,0,0
777,456,0,0,0,0,0,0,0,0,0,-1,2001,568,0,0
784,456,0,0,0,0,0,0,0,0,0,-1,2008,568,0,0
791,456,0,0,0,0,0,0,0,0,0,-1,2015,568,0,0
798,456,0,0,0,0,0,0,0,0,0,-1,2022,568,0,0
805,456,0,0,0,0,0,0,0,0,0,-1,2029,568,0,0
812,456,0,0,0,0,0,0,0,0,0,-1,2036,568,0,0
-700,449,0,0,0,0,0,0,0,0,0,-1,524,575,0,0
-693,449,0,0,0,0,0,0,0,0,0,-1,531,575,0,0
-686,449,0,0,0,0,0,0,0,0,0,-1,538,575,0,0
-679,449,0,0,0,0,0,0,0,0,0,-1,545,575,0,0
-672,449,0,0,0,0,0,0,0,0,0,-1,552,575,0,0
-665,449,0,0,0,0,0,0,0,0,0,-1,559,575,0,0
-658,449,0,0,0,0,0,0,0,0,0,-1,566,575,0,0
-651,449,0,0,0,0,0,0,0,0,0,-1,573,575,0,0
-644,449,0,0,0,0,0,0,0,0,0,-1,580,575,0,0
-637,449,0,0,0,0,0,0,0,0,0,-1,587,575,0,0
-630,449,0,0,0,0,0,0,0,0,0,-1,594,575,0,0
-623,449,0,0,0,0,0,0,0,0,0,-1,601,575,0,0
-616,449,0,0,0,0,0,0,0,0,0,-1,608,575,0,0
-609,449,0,0,0,0,0,0,0,0,0,-1,615,575,0,0
-602,449,0,0,0,0,0,0,0,0,0,-1,622,575,0,0
-595,449,0,0,0,0,0,0,0,0,0,-1,629,575,0,0
-588,449,0,0,0,0,0,0,0,0,0,-1,636,575,0,0
-581,449,0,0,0,0,0,0,0,0,0,-1,643,575,0,0
-574,449,0,0,0,0,0,0,0,0,0,-1,650,575,0,0
-567,449,0,0,0,0,0,0,0,0,0,-1,657,575,0,0
-560,449,0,0,0,0,0,0,0,0,0,-1,664,575,0,0
-553,449,0,0,0,0,0,0,0,0,0,-1,671,575,0,0
-546,449,0,0,0,0,0,0,0,0,0,-1,678,575,0,0
-539,449,0,0,0,0,0,0,0,0,0,-1,685,575,0,0
-532,449,0,0,0,0,0,0,0,0,0,-1,692,575,0,0
-525,449,0,0,0,0,0,0,0,0,0,-1,699,575,0,0
-518,449,0,0,0,0,0,0,0,0,0,-1,706,575,0,0
-511,449,-0.941345,-4.4519,0,0,0,0,0,0,0,-1,713,575,-0.941356,4.45191
-504,449,-14.1078,0.318237,0,0,0,0,0,0,0,-1,720,575,-14.1078,-0.318231
-497,449,-8.61292,-3.09009,0,0,0,0,0,0,0,-1,727,575,-8.61291,3.09011
-490,449,-7.50995,-2.96252,0,0,0,0,0,0,0,-1,734,575,-7.50995,2.96251
-483,449,-5.77789,-2.50061,0,0,0,0,0,0,0,-1,741,575,-5.77792,2.50059
-476,449,-4.1723,-2.07739,0,0,0,0,0,0,0,-1,748,575,-4.17228,2.0774
-469,449,-5.0976,-5.78448,0,0,0,0,0,0,0,-1,755,575,-5.09758,5.78451
-462,449,-6.54181,-9.54535,0,0,0,0,0,0,0,-1,762,575,-6.54178,9.54536
-455,449,-8.60126,-12.9476,0,0,0,0,0,0,0,-1,769,575,-8.60126,12.9476
-448,449,-8.28497,-14.1014,0,0,0,0,0,0,0,-1,776,575,-8.28498,14.1014
-441,449,-8.31158,-14.9368,-0.000622834,0.00619587,-0.0024689,0.00699593,-0.00142289,-1.25742,0.00520351,0.0228075,783,575,-8.31159,14.9368
-434,449,-8.41498,-15.611,-0.000293325,0.00488897,-0.00188469,0.0055019,-0.000906256,-1.25637,0.00400435,0.0144125,790,575,-8.41497,15.611
-427,449,-8.44318,-16.3169,-1.04305e-05,0.00379082,-0.00143767,0.00427332,-0.000492929,-1.247,0.0030266,0.0129857,797,575,-8.44316,16.3169
-420,449,-8.45099,-17.0342,0.000327061,0.00282533,-0.00115948,0.00328052,-0.000128128,-1.1967,0.00223095,0.0119917,804,575,-8.45101,17.0342
-413,449,-8.47162,-17.7549,0.000543863,0.00171222,-0.000728554,0.00206188,0.000194203,-1.12333,0.00131465,0.0105956,811,575,-8.4716,17.7549
-406,449,-8.54779,-18.4932,0.000855365,0.000966396,-0.000491172,0.00140518,0.000416581,-0.841673,0.000833386,0.0104368,818,575,-8.5478,18.4931
-399,449,-8.60059,-19.2139,0.00131118,0.00023635,-0.000332006,0.00140546,0.000142067,-0.276697,0.000893393,0.00973286,825,575,-8.60056,19.2139
-392,449,-8.59949,-19.9222,0.00181297,-0.0004798,-0.000193827,0.00182924,-0.000496071,-0.0837464,0.00141416,0.0105706,832,575,-8.5995,19.9222
-385,449,-8.61407,-20.6124,0.00248878,-0.00113484,-9.18985e-05,0.00249111,-0.00113717,-0.0253392,0.00214285,0.0113881,839,575,-8.61407,20.6124
-378,449,-8.65955,-21.3126,0.00333601,-0.00173034,4.18324e-05,0.00333636,-0.00173069,0.00825615,0.00297402,0.0105019,846,575,-8.65954,21.3126
-371,449,-8.64795,-22.0461,0.00445892,-0.0020379,5.92791e-05,0.00445946,-0.00203844,0.00912331,0.00383738,0.0200747,853,575,-8.64795,22.0461
-364,449,-8.64124,-22.7385,0,0,0,0,0,0,0,-1,860,575,-8.64122,22.7385
-357,449,-5.88049,-15.8704,0,0,0,0,0,0,0,-1,867,575,-5.88051,15.8704
-350,449,-2.8764,-9.90204,0,0,0,0,0,0,0,-1,874,575,-2.87638,9.90203
-343,449,-2.98492,-9.2254,0,0,0,0,0,0,0,-1,881,575,-2.98491,9.22541
-336,449,-1.29523,-9.54626,0,0,0,0,0,0,0,-1,888,575,-1.29525,9.54626
-329,449,-0.733398,-7.78937,0,0,0,0,0,0,0,-1,895,575,-0.733398,7.78937
-322,449,-0.628845,-3.16669,0,0,0,0,0,0,0,-1,902,575,-0.628861,3.16667
-315,449,-0.540344,-3.21918,0,0,0,0,0,0,0,-1,909,575,-0.540336,3.21917
-308,449,-1.04413,-2.99341,0,0,0,0,0,0,0,-1,916,575,-1.04415,2.99338
-301,449,-1.58691,-2.80725,0,0,0,0,0,0,0,-1,923,575,-1.58692,2.80728
-294,449,-3.71118,-2.76086,0,0,0,0,0,0,0,-1,930,575,-3.71119,2.76087
-287,449,-4.4082,-2.69525,0,0,0,0,0,0,0,-1,937,575,-4.40822,2.69526
-280,449,0.723999,-14.2697,0,0,0,0,0,0,0,-1,944,575,0.723977,14.2696
-273,449,0,0,0,0,0,0,0,0,0,-1,951,575,0,0
-266,449,0,0,0,0,0,0,0,0,0,-1,958,575,0,0
-259,449,0,0,0,0,0,0,0,0,0,-1,965,575,0,0
-252,449,0,0,0,0,0,0,0,0,0,-1,972,575,0,0
-245,449,0,0,0,0,0,0,0,0,0,-1,979,575,0,0
-238,449,0,0,0,0,0,0,0,0,0,-1,986,575,0,0
-231,449,0,0,0,0,0,0,0,0,0,-1,993,575,0,0
-224,449,0,0,0,0,0,0,0,0,0,-1,1000,575,0,0
-217,449,0,0,0,0,0,0,0,0,0,-1,1007,575,0,0
-210,449,0,0,0,0,0,0,0,0,0,-1,1014,575,0,0
-203,449,0,0,0,0,0,0,0,0,0,-1,1021,575,0,0
-196,449,0,0,0,0,0,0,0,0,0,-1,1028,575,0,0
-189,449,0,0,0,0,0,0,0,0,0,-1,1035,575,0,0
-182,449,0,0,0,0,0,0,0,0,0,-1,1042,575,0,0
-175,449,0,0,0,0,0,0,0,0,0,-1,1049,575,0,0
-168,449,0,0,0,0,0,0,0,0,0,-1,1056,575,0,0
-161,449,0,0,0,0,0,0,0,0,0,-1,1063,575,0,0
-154,449,0,0,0,0,0,0,0,0,0,-1,1070,575,0,0
-147,449,0,0,0,0,0,0,0,0,0,-1,1077,575,0,0
-140,449,0,0,0,0,0,0,0,0,0,-1,1084,575,0,0
-133,449,0,0,0,0,0,0,0,0,0,-1,1091,575,0,0
-126,449,0,0,0,0,0,0,0,0,0,-1,1098,575,0,0
-119,449,0,0,0,0,0,0,0,0,0,-1,1105,575,0,0
-112,449,0,0,0,0,0,0,0,0,0,-1,1112,575,0,0
-105,449,0,0,0,0,0,0,0,0,0,-1,1119,575,0,0
-98,449,0,0,0,0,0,0,0,0,0,-1,1126,575,0,0
-91,449,0,0,0,0,0,0,0,0,0,-1,1133,575,0,0
-84,449,0,0,0,0,0,0,0,0,0,-1,1140,575,0,0
-77,449,0,0,0,0,0,0,0,0,0,-1,1147,575,0,0
-70,449,0,0,0,0,0,0,0,0,0,-1,1154,575,0,0
-63,449,0,0,0,0,0,0,0,0,0,-1,1161,575,0,0
-56,449,0,0,0,0,0,0,0,0,0,-1,1168,575,0,0
-49,449,0,0,0,0,0,0,0,0,0,-1,1175,575,0,0
-42,449,0,0,0,0,0,0,0,0,0,-1,1182,575,0,0
-35,449,0,0,0,0,0,0,0,0,0,-1,1189,575,0,0
-28,449,0,0,0,0,0,0,0,0,0,-1,1196,575,0,0
-21,449,0,0,0,0,0,0,0,0,0,-1,1203,575,0,0
-14,449,0,0,0,0,0,0,0,0,0,-1,1210,575,0,0
-7,449,0,0,0,0,0,0,0,0,0,-1,1217,575,0,0
0,449,0,0,0,0,0,0,0,0,0,-1,1224,575,0,0
7,449,0,0,0,0,0,0,0,0,0,-1,1231,575,0,0
14,449,0,0,0,0,0,0,0,0,0,-1,1238,575,0,0
21,449,0,0,0,0,0,0,0,0,0,-1,1245,575,0,0
28,449,0,0,0,0,0,0,0,0,0,-1,1252,575,0,0
35,449,0,0,0,0,0,0,0,0,0,-1,1259,575,0,0
42,449,0,0,0,0,0,0,0,0,0,-1,1266,575,0,0
49,449,0,0,0,0,0,0,0,0,0,-1,1273,575,0,0
56,449,0,0,0,0,0,0,0,0,0,-1,1280,575,0,0
63,449,0,0,0,0,0,0,0,0,0,-1,1287,575,0,0
70,449,0,0,0,0,0,0,0,0,0,-1,1294,575,0,0
77,449,0,0,0,0,0,0,0,0,0,-1,1301,575,0,0
84,449,0,0,0,0,0,0,0,0,0,-1,1308,575,0,0
91,449,0,0,0,0,0,0,0,0,0,-1,1315,575,0,0
98,449,0,0,0,0,0,0,0,0,0,-1,1322,575,0,0
105,449,0,0,0,0,0,0,0,0,0,-1,1329,575,0,0
112,449,0,0,0,0,0,0,0,0,0,-1,1336,575,0,0
119,449,0,0,0,0,0,0,0,0,0,-1,1343,575,0,0
126,449,0,0,0,0,0,0,0,0,0,-1,1350,575,0,0
133,449,0,0,0,0,0,0,0,0,0,-1,1357,575,0,0
140,449,0,0,0,0,0,0,0,0,0,-1,1364,575,0,0
147,449,0,0,0,0,0,0,0,0,0,-1,1371,575,0,0
154,449,0,0,0,0,0,0,0,0,0,-1,1378,575,0,0
161,449,0,0,0,0,0,0,0,0,0,-1,1385,575,0,0
168,449,0,0,0,0,0,0,0,0,0,-1,1392,575,0,0
175,449,0,0,0,0,0,0,0,0,0,-1,1399,575,0,0
182,449,0,0,0,0,0,0,0,0,0,-1,1406,575,0,0
189,449,0,0,0,0,0,0,0,0,0,-1,1413,575,0,0
196,449,0,0,0,0,0,0,0,0,0,-1,1420,575,0,0
203,449,0,0,0,0,0,0,0,0,0,-1,1427,575,0,0
210,449,0,0,0,0,0,0,0,0,0,-1,1434,575,0,0
217,449,0,0,0,0,0,0,0,0,0,-1,1441,575,0,0
224,449,0,0,0,0,0,0,0,0,0,-1,1448,575,0,0
231,449,0,0,0,0,0,0,0,0,0,-1,1455,575,0,0
238,449,0,0,0,0,0,0,0,0,0,-1,1462,575,0,0
245,449,0,0,0,0,0,0,0,0,0,-1,1469,575,0,0
252,449,0,0,0,0,0,0,0,0,0,-1,1476,575,0,0
259,449,0,0,0,0,0,0,0,0,0,-1,1483,575,0,0
266,449,0,0,0,0,0,0,0,0,0,-1,1490,575,0,0
273,449,0,0,0,0,0,0,0,0,0,-1,1497,575,0,0
280,449,0,0,0,0,0,0,0,0,0,-1,1504,575,0,0
287,449,0,0,0,0,0,0,0,0,0,-1,1511,575,0,0
294,449,0,0,0,0,0,0,0,0,0,-1,1518,575,0,0
301,449,0,0,0,0,0,0,0,0,0,-1,1525,575,0,0
308,449,0,0,0,0,0,0,0,0,0,-1,1532,575,0,0
315,449,0,0,0,0,0,0,0,0,0,-1,1539,575,0,0
322,449,0,0,0,0,0,0,0,0,0,-1,1546,575,0,0
329,449,0,0,0,0,0,0,0,0,0,-1,1553,575,0,0
336,449,0,0,0,0,0,0,0,0,0,-1,1560,575,0,0
343,449,0,0,0,0,0,0,0,0,0,-1,1567,575,0,0
350,449,0,0,0,0,0,0,0,0,0,-1,1574,575,0,0
357,449,0,0,0,0,0,0,0,0,0,-1,1581,575,0,0
364,449,0,0,0,0,0,0,0,0,0,-1,1588,575,0,0
371,449,0,0,0,0,0,0,0,0,0,-1,1595,575,0,0
378,449,0,0,0,0,0,0,0,0,0,-1,1602,575,0,0
385,449,0,0,0,0,0,0,0,0,0,-1,1609,575,0,0
392,449,7.95471,3.66217,0,0,0,0,0,0,0,-1,1616,575,7.95471,-3.66218
399,449,19.9791,5.565,0,0,0,0,0,0,0,-1,1623,575,19.9791,-5.56499
406,449,24.9847,4.55969,0,0,0,0,0,0,0,-1,1630,575,24.9848,-4.55968
413,449,30.4159,3.15027,0,0,0,0,0,0,0,-1,1637,575,30.4159,-3.15028
420,449,23.9675,1.29718,0,0,0,0,0,0,0,-1,1644,575,23.9675,-1.29721
427,449,24.4276,-0.596558,0,0,0,0,0,0,0,-1,1651,575,24.4277,0.596569
434,449,25.61,-2.96594,0,0,0,0,0,0,0,-1,1658,575,25.61,2.96595
441,449,3.89856,-6.06458,0,0,0,0,0,0,0,-1,1665,575,3.89855,6.06459
448,449,4.03198,-5.18207,0,0,0,0,0,0,0,-1,1672,575,4.03197,5.18207
455,449,4.21948,-4.09467,0,0,0,0,0,0,0,-1,1679,575,4.21952,4.09465
462,449,4.23181,-2.96924,0,0,0,0,0,0,0,-1,1686,575,4.23185,2.96926
469,449,4.51672,-2.95135,0,0,0,0,0,0,0,-1,1693,575,4.51672,2.95135
476,449,4.71838,-1.86688,0,0,0,0,0,0,0,-1,1700,575,4.71842,1.86689
483,449,4.87878,-1.73126,0,0,0,0,0,0,0,-1,1707,575,4.87875,1.73128
490,449,5.73279,-2.74573,0,0,0,0,0,0,0,-1,1714,575,5.73282,2.74575
497,449,17.2095,-16.4381,0,0,0,0,0,0,0,-1,1721,575,17.2094,16.4381
504,449,21.321,-20.3936,0,0,0,0,0,0,0,-1,1728,575,21.321,20.3935
511,449,21.4055,-19.6215,0.00298495,0.000974011,0.00121538,0.00355686,0.000402101,0.439819,0.00224922,0.0146782,1735,575,21.4055,19.6215
518,449,21.4028,-18.8798,0.00256866,0.000860965,0.00127229,0.00324706,0.000182565,0.489862,0.00210649,0.0135442,1742,575,21.4028,18.8798
525,449,21.3529,-18.141,0.00206904,0.000953123,0.00124154,0.00287223,0.00014993,0.574217,0.00186685,0.013922,1749,575,21.3528,18.141
532,449,21.3018,-17.4081,0.00160591,0.0011634,0.00120976,0.00261448,0.000154829,0.694952,0.00169374,0.0117503,1756,575,21.3017,17.4081
539,449,21.2394,-16.6455,0.00121698,0.00144601,0.00121788,0.00255475,0.000108243,0.832274,0.00166825,0.0154645,1763,575,21.2394,16.6455
546,449,21.2307,-15.8638,0.000878429,0.00188217,0.00124613,0.0027237,3.69027e-05,0.976833,0.00180362,0.0269347,1770,575,21.2307,15.8638
553,449,21.1843,-15.1534,0.000543503,0.00245157,0.00131767,0.00312432,-0.00012925,1.09873,0.00212728,0.0183883,1777,575,21.1843,15.1534
560,449,21.1752,-14.4413,0.000309952,0.00312436,0.00150051,0.00377428,-0.00033997,1.16206,0.00263682,0.0139421,1784,575,21.1752,14.4413
567,449,21.135,-13.6915,0.000229073,0.00396229,0.00184608,0.00472099,-0.000529628,1.18086,0.00333791,0.0100312,1791,575,21.135,13.6915
574,449,21.1228,-12.8844,0.000136666,0.00490609,0.00223489,0.00578965,-0.000746893,1.19431,0.0041313,0.0242004,1798,575,21.1228,12.8844
581,449,21.1226,-12.0126,0,0,0,0,0,0,0,-1,1805,575,21.1226,12.0126
588,449,12.3274,-4.5672,0,0,0,0,0,0,0,-1,1812,575,12.3274,4.5672
595,449,15.9352,-5.65479,0,0,0,0,0,0,0,-1,1819,575,15.9352,5.65478
602,449,9.46167,4.17444,0,0,0,0,0,0,0,-1,1826,575,9.46164,-4.17442
609,449,12.2028,3.18652,0,0,0,0,0,0,0,-1,1833,575,12.2027,-3.18655
616,449,14.9438,2.19867,0,0,0,0,0,0,0,-1,1840,575,14.9438,-2.19867
623,449,9.83789,-0.0820313,0,0,0,0,0,0,0,-1,1847,575,9.83794,0.0820443
630,449,8.90686,4.99329,0,0,0,0,0,0,0,-1,1854,575,8.90685,-4.99327
637,449,0,0,0,0,0,0,0,0,0,-1,1861,575,0,0
644,449,0,0,0,0,0,0,0,0,0,-1,1868,575,0,0
651,449,0,0,0,0,0,0,0,0,0,-1,1875,575,0,0
658,449,0,0,0,0,0,0,0,0,0,-1,1882,575,0,0
665,449,0,0,0,0,0,0,0,0,0,-1,1889,575,0,0
672,449,0,0,0,0,0,0,0,0,0,-1,1896,575,0,0
679,449,0,0,0,0,0,0,0,0,0,-1,1903,575,0,0
686,449,0,0,0,0,0,0,0,0,0,-1,1910,575,0,0
693,449,0,0,0,0,0,0,0,0,0,-1,1917,575,0,0
700,449,0,0,0,0,0,0,0,0,0,-1,1924,575,0,0
707,449,0,0,0,0,0,0,0,0,0,-1,1931,575,0,0
714,449,0,0,0,0,0,0,0,0,0,-1,1938,575,0,0
721,449,0,0,0,0,0,0,0,0,0,-1,1945,575,0,0
728,449,0,0,0,0,0,0,0,0,0,-1,1952,575,0,0
735,449,0,0,0,0,0,0,0,0,0,-1,1959,575,0,0
742,449,0,0,0,0,0,0,0,0,0,-1,1966,575,0,0
749,449,0,0,0,0,0,0,0,0,0,-1,1973,575,0,0
756,449,0,0,0,0,0,0,0,0,0,-1,1980,575,0,0
763,449,0,0,0,0,0,0,0,0,0,-1,1987,575,0,0
770,449,0,0,0,0,0,0,0,0,0,-1,1994,575,0,0
777,449,0,0,0,0,0,0,0,0,0,-1,2001,575,0,0
784,449,0,0,0,0,0,0,0,0,0,-1,2008,575,0,0
791,449,0,0,0,0,0,0,0,0,0,-1,2015,575,0,0
798,449,0,0,0,0,0,0,0,0,0,-1,2022,575,0,0
805,449,0,0,0,0,0,0,0,0,0,-1,2029,575,0,0
812,449,0,0,0,0,0,0,0,0,0,-1,2036,575,0,0
-700,442,0,0,0,0,0,0,0,0,0,-1,524,582,0,0
-693,442,0,0,0,0,0,0,0,0,0,-1,531,582,0,0
-686,442,0,0,0,0,0,0,0,0,0,-1,538,582,0,0
-679,442,0,0,0,0,0,0,0,0,0,-1,545,582,0,0
-672,442,0,0,0,0,0,0,0,0,0,-1,552,582,0,0
-665,442,0,0,0,0,0,0,0,0,0,-1,559,582,0,0
-658,442,0,0,0,0,0,0,0,0,0,-1,566,582,0,0
-651,442,0,0,0,0,0,0,0,0,0,-1,573,582,0,0
-644,442,0,0,0,0,0,0,0,0,0,-1,580,582,0,0
-637,442,0,0,0,0,0,0,0,0,0,-1,587,582,0,0
-630,442,0,0,0,0,0,0,0,0,0,-1,594,582,0,0
-623,442,0,0,0,0,0,0,0,0,0,-1,601,582,0,0
-616,442,0,0,0,0,0,0,0,0,0,-1,608,582,0,0
-609,442,0,0,0,0,0,0,0,0,0,-1,615,582,0,0
-602,442,0,0,0,0,0,0,0,0,0,-1,622,582,0,0
-595,442,0,0,0,0,0,0,0,0,0,-1,629,582,0,0
-588,442,0,0,0,0,0,0,0,0,0,-1,636,582,0,0
-581,442,0,0,0,0,0,0,0,0,0,-1,643,582,0,0
-574,442,0,0,0,0,0,0,0,0,0,-1,650,582,0,0
-567,442,0,0,0,0,0,0,0,0,0,-1,657,582,0,0
-560,442,0,0,0,0,0,0,0,0,0,-1,664,582,0,0
-553,442,0,0,0,0,0,0,0,0,0,-1,671,582,0,0
-546,442,0,0,0,0,0,0,0,0,0,-1,678,582,0,0
-539,442,0,0,0,0,0,0,0,0,0,-1,685,582,0,0
-532,442,0,0,0,0,0,0,0,0,0,-1,692,582,0,0
-525,442,0,0,0,0,0,0,0,0,0,-1,699,582,0,0
-518,442,-0.493774,-5.72943,0,0,0,0,0,0,0,-1,706,582,-0.493791,5.72946
-511,442,-1.33008,-6.18512,0,0,0,0,0,0,0,-1,713,582,-1.33006,6.18511
-504,442,-3.20807,-6.34082,0,0,0,0,0,0,0,-1,720,582,-3.2081,6.34083
-497,442,-13.6886,-0.250122,0,0,0,0,0,0,0,-1,727,582,-13.6886,0.250143
-490,442,-9.09039,-3.64862,0,0,0,0,0,0,0,-1,734,582,-9.09037,3.64861
-483,442,-7.36499,-1.01892,0,0,0,0,0,0,0,-1,741,582,-7.365,1.01895
-476,442,-4.84784,-4.44141,0,0,0,0,0,0,0,-1,748,582,-4.84787,4.44138
-469,442,-9.04028,-10.9091,0,0,0,0,0,0,0,-1,755,582,-9.04029,10.9091
-462,442,-8.83655,-12.3534,0,0,0,0,0,0,0,-1,762,582,-8.83658,12.3534
-455,442,-9.04218,-13.3088,0,0,0,0,0,0,0,-1,769,582,-9.04219,13.3088
-448,442,-9.02429,-14.105,-0.000900206,0.0059656,-0.00270253,0.00690174,-0.00183634,-1.23734,0.00531999,0.0202274,776,582,-9.02431,14.105
-441,442,-9.07703,-14.8401,-0.000497145,0.00456129,-0.00198006,0.00524417,-0.00118002,-1.23869,0.00394867,0.0147583,783,582,-9.07701,14.8402
-434,442,-9.12152,-15.5745,-0.000128897,0.00339579,-0.00142896,0.00390232,-0.000635426,-1.23014,0.00283717,0.014238,790,582,-9.12153,15.5745
-427,442,-9.17529,-16.2974,0.000194642,0.00242129,-0.00100368,0.00280692,-0.000190985,-1.20397,0.00193808,0.0137569,797,582,-9.17527,16.2974
-420,442,-9.19409,-17.0093,0.000574463,0.00157762,-0.000739078,0.00196925,0.000182836,-1.08353,0.00125633,0.0135797,804,582,-9.19411,17.0093
-413,442,-9.1936,-17.7267,0.00083445,0.00062627,-0.000353457,0.00109883,0.000361895,-0.642201,0.000646607,0.0113883,811,582,-9.19363,17.7267
-406,442,-9.24792,-18.4695,0.00117115,-6.03178e-06,-0.000150551,0.0011901,-2.49809e-05,-0.125206,0.000801858,0.00996181,818,582,-9.24795,18.4696
-399,442,-9.3114,-19.193,0.0016602,-0.00058831,-5.35745e-05,0.00166148,-0.000589585,-0.0238087,0.00134787,0.00857092,825,582,-9.31143,19.193
-392,442,-9.31964,-19.8711,0.00220091,-0.00115069,1.92056e-05,0.00220102,-0.0011508,0.00573003,0.00196658,0.0105989,832,582,-9.31963,19.8711
-385,442,-9.34131,-20.5535,0.00290282,-0.00167557,4.27019e-05,0.00290322,-0.00167597,0.00932576,0.00267526,0.0127022,839,582,-9.3413,20.5535
-378,442,-9.3562,-21.2866,0.00382015,-0.00210408,6.06524e-05,0.00382077,-0.0021047,0.0102366,0.00346856,0.0179927,846,582,-9.3562,21.2866
-371,442,-9.29999,-22.1196,0,0,0,0,0,0,0,-1,853,582,-9.3,22.1196
-364,442,-6.89764,-17.5333,0,0,0,0,0,0,0,-1,860,582,-6.89765,17.5333
-357,442,-4.9115,-11.2649,0,0,0,0,0,0,0,-1,867,582,-4.91147,11.2649
-350,442,-1.75372,-6.27618,0,0,0,0,0,0,0,-1,874,582,-1.75371,6.27618
-343,442,-1.4599,-4.63605,0,0,0,0,0,0,0,-1,881,582,-1.4599,4.63607
-336,442,-1.4054,-2.64313,0,0,0,0,0,0,0,-1,888,582,-1.40539,2.64315
-329,442,-0.952576,-2.76923,0,0,0,0,0,0,0,-1,895,582,-0.952571,2.7692
-322,442,-0.972534,-2.63208,0,0,0,0,0,0,0,-1,902,582,-0.972512,2.6321
-315,442,-0.445557,-2.89764,0,0,0,0,0,0,0,-1,909,582,-0.445582,2.89765
-308,442,-0.654175,-3.07831,0,0,0,0,0,0,0,-1,916,582,-0.654145,3.07832
-301,442,-1.37427,-2.41455,0,0,0,0,0,0,0,-1,923,582,-1.37425,2.41453
-294,442,-2.99963,-2.07855,0,0,0,0,0,0,0,-1,930,582,-2.99964,2.07857
-287,442,3.91034,-10.1913,0,0,0,0,0,0,0,-1,937,582,3.91034,10.1913
-280,442,0,0,0,0,0,0,0,0,0,-1,944,582,0,0
-273,442,0,0,0,0,0,0,0,0,0,-1,951,582,0,0
-266,442,0,0,0,0,0,0,0,0,0,-1,958,582,0,0
-259,442,0,0,0,0,0,0,0,0,0,-1,965,582,0,0
-252,442,0,0,0,0,0,0,0,0,0,-1,972,582,0,0
-245,442,0,0,0,0,0,0,0,0,0,-1,979,582,0,0
-238,442,0,0,0,0,0,0,0,0,0,-1,986,582,0,0
-231,442,0,0,0,0,0,0,0,0,0,-1,993,582,0,0
-224,442,0,0,0,0,0,0,0,0,0,-1,1000,582,0,0
-217,442,0,0,0,0,0,0,0,0,0,-1,1007,582,0,0
-210,442,0,0,0,0,0,0,0,0,0,-1,1014,582,0,0
-203,442,0,0,0,0,0,0,0,0,0,-1,1021,582,0,0
-196,442,0,0,0,0,0,0,0,0,0,-1,1028,582,0,0
-189,442,0,0,0,0,0,0,0,0,0,-1,1035,582,0,0
-182,442,0,0,0,0,0,0,0,0,0,-1,1042,582,0,0
-175,442,0,0,0,0,0,0,0,0,0,-1,1049,582,0,0
-168,442,0,0,0,0,0,0,0,0,0,-1,1056,582,0,0
-161,442,0,0,0,0,0,0,0,0,0,-1,1063,582,0,0
-154,442,0,0,0,0,0,0,0,0,0,-1,1070,582,0,0
-147,442,0,0,0,0,0,0,0,0,0,-1,1077,582,0,0
-140,442,0,0,0,0,0,0,0,0,0,-1,1084,582,0,0
-133,442,0,0,0,0,0,0,0,0,0,-1,1091,582,0,0
-126,442,0,0,0,0,0,0,0,0,0,-1,1098,582,0,0
-119,442,0,0,0,0,0,0,0,0,0,-1,1105,582,0,0
-112,442,0,0,0,0,0,0,0,0,0,-1,1112,582,0,0
-105,442,0,0,0,0,0,0,0,0,0,-1,1119,582,0,0
-98,442,0,0,0,0,0,0,0,0,0,-1,1126,582,0,0
-91,442,0,0,0,0,0,0,0,0,0,-1,1133,582,0,0
-84,442,0,0,0,0,0,0,0,0,0,-1,1140,582,0,0
-77,442,0,0,0,0,0,0,0,0,0,-1,1147,582,0,0
-70,442,0,0,0,0,0,0,0,0,0,-1,1154,582,0,0
-63,442,0,0,0,0,0,0,0,0,0,-1,1161,582,0,0
-56,442,0,0,0,0,0,0,0,0,0,-1,1168,582,0,0
-49,442,0,0,0,0,0,0,0,0,0,-1,1175,582,0,0
-42,442,0,0,0,0,0,0,0,0,0,-1,1182,582,0,0
-35,442,0,0,0,0,0,0,0,0,0,-1,1189,582,0,0
-28,442,0,0,0,0,0,0,0,0,0,-1,1196,582,0,0
-21,442,0,0,0,0,0,0,0,0,0,-1,1203,582,0,0
-14,442,0,0,0,0,0,0,0,0,0,-1,1210,582,0,0
-7,442,0,0,0,0,0,0,0,0,0,-1,1217,582,0,0
0,442,0,0,0,0,0,0,0,0,0,-1,1224,582,0,0
7,442,0,0,0,0,0,0,0,0,0,-1,1231,582,0,0
14,442,0,0,0,0,0,0,0,0,0,-1,1238,582,0,0
21,442,0,0,0,0,0,0,0,0,0,-1,1245,582,0,0
28,442,0,0,0,0,0,0,0,0,0,-1,1252,582,0,0
35,442,0,0,0,0,0,0,0,0,0,-1,1259,582,0,0
42,442,0,0,0,0,0,0,0,0,0,-1,1266,582,0,0
49,442,0,0,0,0,0,0,0,0,0,-1,1273,582,0,0
56,442,0,0,0,0,0,0,0,0,0,-1,1280,582,0,0
63,442,0,0,0,0,0,0,0,0,0,-1,1287,582,0,0
70,442,0,0,0,0,0,0,0,0,0,-1,1294,582,0,0
77,442,0,0,0,0,0,0,0,0,0,-1,1301,582,0,0
84,442,0,0,0,0,0,0,0,0,0,-1,1308,582,0,0
91,442,0,0,0,0,0,0,0,0,0,-1,1315,582,0,0
98,442,0,0,0,0,0,0,0,0,0,-1,1322,582,0,0
105,442,0,0,0,0,0,0,0,0,0,-1,1329,582,0,0
112,442,0,0,0,0,0,0,0,0,0,-1,1336,582,0,0
119,442,0,0,0,0,0,0,0,0,0,-1,1343,582,0,0
126,442,0,0,0,0,0,0,0,0,0,-1,1350,582,0,0
133,442,0,0,0,0,0,0,0,0,0,-1,1357,582,0,0
140,442,0,0,0,0,0,0,0,0,0,-1,1364,582,0,0
147,442,0,0,0,0,0,0,0,0,0,-1,1371,582,0,0
154,442,0,0,0,0,0,0,0,0,0,-1,1378,582,0,0
161,442,0,0,0,0,0,0,0,0,0,-1,1385,582,0,0
168,442,0,0,0,0,0,0,0,0,0,-1,1392,582,0,0
175,442,0,0,0,0,0,0,0,0,0,-1,1399,582,0,0
182,442,0,0,0,0,0,0,0,0,0,-1,1406,582,0,0
189,442,0,0,0,0,0,0,0,0,0,-1,1413,582,0,0
196,442,0,0,0,0,0,0,0,0,0,-1,1420,582,0,0
203,442,0,0,0,0,0,0,0,0,0,-1,1427,582,0,0
210,442,0,0,0,0,0,0,0,0,0,-1,1434,582,0,0
217,442,0,0,0,0,0,0,0,0,0,-1,1441,582,0,0
224,442,0,0,0,0,0,0,0,0,0,-1,1448,582,0,0
231,442,0,0,0,0,0,0,0,0,0,-1,1455,582,0,0
238,442,0,0,0,0,0,0,0,0,0,-1,1462,582,0,0
245,442,0,0,0,0,0,0,0,0,0,-1,1469,582,0,0
252,442,0,0,0,0,0,0,0,0,0,-1,1476,582,0,0
259,442,0,0,0,0,0,0,0,0,0,-1,1483,582,0,0
266,442,0,0,0,0,0,0,0,0,0,-1,1490,582,0,0
273,442,0,0,0,0,0,0,0,0,0,-1,1497,582,0,0
280,442,0,0,0,0,0,0,0,0,0,-1,1504,582,0,0
287,442,0,0,0,0,0,0,0,0,0,-1,1511,582,0,0
294,442,0,0,0,0,0,0,0,0,0,-1,1518,582,0,0
301,442,0,0,0,0,0,0,0,0,0,-1,1525,582,0,0
308,442,0,0,0,0,0,0,0,0,0,-1,1532,582,0,0
315,442,0,0,0,0,0,0,0,0,0,-1,1539,582,0,0
322,442,0,0,0,0,0,0,0,0,0,-1,1546,582,0,0
329,442,0,0,0,0,0,0,0,0,0,-1,1553,582,0,0
336,442,0,0,0,0,0,0,0,0,0,-1,1560,582,0,0
343,442,0,0,0,0,0,0,0,0,0,-1,1567,582,0,0
350,442,0,0,0,0,0,0,0,0,0,-1,1574,582,0,0
357,442,0,0,0,0,0,0,0,0,0,-1,1581,582,0,0
364,442,0,0,0,0,0,0,0,0,0,-1,1588,582,0,0
371,442,0,0,0,0,0,0,0,0,0,-1,1595,582,0,0
378,442,0,0,0,0,0,0,0,0,0,-1,1602,582,0,0
385,442,0,0,0,0,0,0,0,0,0,-1,1609,582,0,0
392,442,0,0,0,0,0,0,0,0,0,-1,1616,582,0,0
399,442,0,0,0,0,0,0,0,0,0,-1,1623,582,0,0
406,442,17.6321,4.08295,0,0,0,0,0,0,0,-1,1630,582,17.6321,-4.08293
413,442,25.4768,2.74445,0,0,0,0,0,0,0,-1,1637,582,25.4768,-2.74444
420,442,22.7478,1.55011,0,0,0,0,0,0,0,-1,1644,582,22.7478,-1.55009
427,442,23.2969,-0.456787,0,0,0,0,0,0,0,-1,1651,582,23.2968,0.456769
434,442,23.9512,-2.49365,0,0,0,0,0,0,0,-1,1658,582,23.9512,2.49366
441,442,24.8251,-4.43958,0,0,0,0,0,0,0,-1,1665,582,24.8251,4.43956
448,442,4.7749,-5.88562,0,0,0,0,0,0,0,-1,1672,582,4.7749,5.8856
455,442,4.87024,-4.60687,0,0,0,0,0,0,0,-1,1679,582,4.87019,4.60686
462,442,5.02307,-3.72821,0,0,0,0,0,0,0,-1,1686,582,5.02311,3.7282
469,442,5.12976,-2.98834,0,0,0,0,0,0,0,-1,1693,582,5.12971,2.98834
476,442,5.4624,1.76947,0,0,0,0,0,0,0,-1,1700,582,5.46234,-1.76944
483,442,5.98486,1.87042,0,0,0,0,0,0,0,-1,1707,582,5.98492,-1.87045
490,442,5.04407,-2.35834,0,0,0,0,0,0,0,-1,1714,582,5.04411,2.35837
497,442,6.20984,-3.07831,0,0,0,0,0,0,0,-1,1721,582,6.2098,3.07833
504,442,20.9276,-19.7709,0,0,0,0,0,0,0,-1,1728,582,20.9276,19.771
511,442,22.1252,-19.5889,0,0,0,0,0,0,0,-1,1735,582,22.1252,19.5889
518,442,22.1306,-18.8074,0.00330682,0.0010234,0.00154077,0.00408278,0.00024744,0.46654,0.00264324,0.0131664,1742,582,22.1306,18.8074
525,442,22.0713,-18.0963,0.00277275,0.000985648,0.00141846,0.00355565,0.000202754,0.504325,0.00230582,0.0108912,1749,582,22.0713,18.0963
532,442,22.0409,-17.3669,0.00226586,0.00105905,0.00130505,0.00310026,0.000224661,0.568855,0.00199617,0.0118803,1756,582,22.0409,17.3669
539,442,22.0022,-16.6055,0.00185065,0.00124518,0.00125906,0.00284286,0.000252975,0.667416,0.0018168,0.0134844,1763,582,22.0022,16.6055
546,442,21.9962,-15.8539,0.0014848,0.00154353,0.00122785,0.00274236,0.000285967,0.797353,0.00174077,0.0178493,1770,582,21.9962,15.8539
553,442,21.9349,-15.1411,0.00110105,0.00197367,0.00123583,0.00284796,0.000226772,0.955092,0.00182774,0.0183156,1777,582,21.935,15.1411
560,442,21.9136,-14.4082,0.000791122,0.00248661,0.00134542,0.00322909,4.86415e-05,1.06653,0.0021367,0.0153322,1784,582,21.9136,14.4082
567,442,21.8715,-13.6533,0.000644144,0.00316464,0.00161306,0.00395139,-0.0001426,1.11701,0.00268305,0.0104306,1791,582,21.8715,13.6533
574,442,21.8473,-12.8987,0.00053568,0.00394347,0.00193889,0.00482077,-0.000341617,1.14589,0.00333356,0.0127336,1798,582,21.8473,12.8987
581,442,21.885,-12.0504,0.000576297,0.00494981,0.00250071,0.00608501,-0.000558909,1.14466,0.00425523,0.0282275,1805,582,21.885,12.0503
588,442,21.9832,-11.1725,0,0,0,0,0,0,0,-1,1812,582,21.9831,11.1725
595,442,16.27,-6.47083,0,0,0,0,0,0,0,-1,1819,582,16.27,6.47082
602,442,16.2213,-4.49225,0,0,0,0,0,0,0,-1,1826,582,16.2213,4.49223
609,442,12.761,2.97223,0,0,0,0,0,0,0,-1,1833,582,12.761,-2.97221
616,442,9.78345,-0.103394,0,0,0,0,0,0,0,-1,1840,582,9.78341,0.103424
623,442,9.23828,0.326721,0,0,0,0,0,0,0,-1,1847,582,9.23829,-0.326727
630,442,7.74304,2.3924,0,0,0,0,0,0,0,-1,1854,582,7.7431,-2.39238
637,442,5.87805,1.84027,0,0,0,0,0,0,0,-1,1861,582,5.87807,-1.84025
644,442,0,0,0,0,0,0,0,0,0,-1,1868,582,0,0
651,442,0,0,0,0,0,0,0,0,0,-1,1875,582,0,0
658,442,0,0,0,0,0,0,0,0,0,-1,1882,582,0,0
665,442,0,0,0,0,0,0,0,0,0,-1,1889,582,0,0
672,442,0,0,0,0,0,0,0,0,0,-1,1896,582,0,0
679,442,0,0,0,0,0,0,0,0,0,-1,1903,582,0,0
686,442,0,0,0,0,0,0,0,0,0,-1,1910,582,0,0
693,442,0,0,0,0,0,0,0,0,0,-1,1917,582,0,0
700,442,0,0,0,0,0,0,0,0,0,-1,1924,582,0,0
707,442,0,0,0,0,0,0,0,0,0,-1,1931,582,0,0
714,442,0,0,0,0,0,0,0,0,0,-1,1938,582,0,0
721,442,0,0,0,0,0,0,0,0,0,-1,1945,582,0,0
728,442,0,0,0,0,0,0,0,0,0,-1,1952,582,0,0
735,442,0,0,0,0,0,0,0,0,0,-1,1959,582,0,0
742,442,0,0,0,0,0,0,0,0,0,-1,1966,582,0,0
749,442,0,0,0,0,0,0,0,0,0,-1,1973,582,0,0
756,442,0,0,0,0,0,0,0,0,0,-1,1980,582,0,0
763,442,0,0,0,0,0,0,0,0,0,-1,1987,582,0,0
770,442,0,0,0,0,0,0,0,0,0,-1,1994,582,0,0
777,442,0,0,0,0,0,0,0,0,0,-1,2001,582,0,0
784,442,0,0,0,0,0,0,0,0,0,-1,2008,582,0,0
791,442,0,0,0,0,0,0,0,0,0,-1,2015,582,0,0
798,442,0,0,0,0,0,0,0,0,0,-1,2022,582,0,0
805,442,0,0,0,0,0,0,0,0,0,-1,2029,582,0,0
812,442,0,0,0,0,0,0,0,0,0,-1,2036,582,0,0
-700,435,0,0,0,0,0,0,0,0,0,-1,524,589,0,0
-693,435,0,0,0,0,0,0,0,0,0,-1,531,589,0,0
-686,435,0,0,0,0,0,0,0,0,0,-1,538,589,0,0
-679,435,0,0,0,0,0,0,0,0,0,-1,545,589,0,0
-672,435,0,0,0,0,0,0,0,0,0,-1,552,589,0,0
-665,435,0,0,0,0,0,0,0,0,0,-1,559,589,0,0
-658,435,0,0,0,0,0,0,0,0,0,-1,566,589,0,0
-651,435,0,0,0,0,0,0,0,0,0,-1,573,589,0,0
-644,435,0,0,0,0,0,0,0,0,0,-1,580,589,0,0
-637,435,0,0,0,0,0,0,0,0,0,-1,587,589,0,0
-630,435,0,0,0,0,0,0,0,0,0,-1,594,589,0,0
-623,435,0,0,0,0,0,0,0,0,0,-1,601,589,0,0
-616,435,0,0,0,0,0,0,0,0,0,-1,608,589,0,0
-609,435,0,0,0,0,0,0,0,0,0,-1,615,589,0,0
-602,435,0,0,0,0,0,0,0,0,0,-1,622,589,0,0
-595,435,0,0,0,0,0,0,0,0,0,-1,629,589,0,0
-588,435,0,0,0,0,0,0,0,0,0,-1,636,589,0,0
-581,435,0,0,0,0,0,0,0,0,0,-1,643,589,0,0
-574,435,0,0,0,0,0,0,0,0,0,-1,650,589,0,0
-567,435,0,0,0,0,0,0,0,0,0,-1,657,589,0,0
-560,435,0,0,0,0,0,0,0,0,0,-1,664,589,0,0
-553,435,0,0,0,0,0,0,0,0,0,-1,671,589,0,0
-546,435,0,0,0,0,0,0,0,0,0,-1,678,589,0,0
-539,435,0,0,0,0,0,0,0,0,0,-1,685,589,0,0
-532,435,0,0,0,0,0,0,0,0,0,-1,692,589,0,0
-525,435,-10.0776,10.0547,0,0,0,0,0,0,0,-1,699,589,-10.0776,-10.0547
-518,435,-1.83093,-5.82367,0,0,0,0,0,0,0,-1,706,589,-1.83093,5.8237
-511,435,-2.45154,-5.33118,0,0,0,0,0,0,0,-1,713,589,-2.45151,5.33115
-504,435,-3.07208,-4.83862,0,0,0,0,0,0,0,-1,720,589,-3.0721,4.8386
-497,435,-6.31012,-5.84698,0,0,0,0,0,0,0,-1,727,589,-6.31012,5.84697
-490,435,-5.81903,-0.458679,0,0,0,0,0,0,0,-1,734,589,-5.81902,0.458684
-483,435,-6.96503,-3.01624,0,0,0,0,0,0,0,-1,741,589,-6.96505,3.01623
-476,435,-9.91272,-10.343,0,0,0,0,0,0,0,-1,748,589,-9.9127,10.343
-469,435,-9.65179,-11.3465,-0.00277353,0.00972018,-0.00461658,0.0112409,-0.00429431,-1.25258,0.00926336,0.0436315,755,589,-9.65178,11.3465
-462,435,-9.56146,-12.5306,-0.00186198,0.00763756,-0.00377889,0.00895741,-0.00318183,-1.23477,0.0072682,0.028095,762,589,-9.56146,12.5306
-455,435,-9.77643,-13.2653,-0.00123216,0.00612326,-0.00294732,0.00715853,-0.00226744,-1.233,0.00568105,0.0251796,769,589,-9.77641,13.2653
-448,435,-9.76239,-14.0812,-0.000790262,0.00455137,-0.00214594,0.00530668,-0.00154557,-1.23237,0.00415004,0.0141783,776,589,-9.76241,14.0812
-441,435,-9.78253,-14.7922,-0.00037602,0.00329807,-0.00152162,0.00384641,-0.00092436,-1.22492,0.00292155,0.0116218,783,589,-9.78254,14.7922
-434,435,-9.82727,-15.5213,7.62922e-06,0.0022359,-0.00102578,0.0026362,-0.000392676,-1.19873,0.00190192,0.012583,790,589,-9.82727,15.5213
-427,435,-9.89575,-16.2783,0.000358964,0.00134096,-0.000640777,0.00165723,4.26996e-05,-1.11231,0.00109086,0.0107901,797,589,-9.89577,16.2782
-420,435,-9.91443,-16.9783,0.000763698,0.000569258,-0.000394911,0.00107318,0.000259776,-0.664707,0.000646499,0.0108818,804,589,-9.91442,16.9783
-413,435,-9.9278,-17.7052,0.00106807,-0.000244956,-7.36734e-05,0.00107219,-0.000249077,-0.055876,0.000810674,0.0112302,811,589,-9.92779,17.7052
-406,435,-9.96436,-18.4402,0.00143295,-0.000826892,9.51272e-05,0.00143695,-0.000830889,0.0419955,0.00132483,0.0113821,818,589,-9.96436,18.4402
-399,435,-10.0181,-19.1521,0.00195925,-0.00133137,0.000140416,0.00196524,-0.00133735,0.0425683,0.0019182,0.00942668,825,589,-10.0181,19.1521
-392,435,-10.0461,-19.8545,0.00257173,-0.00180868,0.000168431,0.0025782,-0.00181515,0.0383754,0.00254922,0.0107047,832,589,-10.0461,19.8545
-385,435,-10.0502,-20.5549,0.00332631,-0.00227768,0.00014844,0.00333024,-0.00228161,0.0264636,0.0032588,0.0215364,839,589,-10.0502,20.5548
-378,435,-10.0113,-21.3452,0,0,0,0,0,0,0,-1,846,589,-10.0113,21.3452
-371,435,-10.247,-21.7153,0,0,0,0,0,0,0,-1,853,589,-10.247,21.7153
-364,435,-5.62848,-11.5937,0,0,0,0,0,0,0,-1,860,589,-5.62847,11.5937
-357,435,-5.57343,-10.9666,0,0,0,0,0,0,0,-1,867,589,-5.57342,10.9666
-350,435,-0.86676,-3.69836,0,0,0,0,0,0,0,-1,874,589,-0.866784,3.69834
-343,435,-1.60706,-2.36835,0,0,0,0,0,0,0,-1,881,589,-1.60706,2.36838
-336,435,-2.07263,-1.94012,0,0,0,0,0,0,0,-1,888,589,-2.07265,1.94014
-329,435,-2.55963,-1.5517,0,0,0,0,0,0,0,-1,895,589,-2.5596,1.55168
-322,435,-3.08545,-1.55255,0,0,0,0,0,0,0,-1,902,589,-3.08544,1.55254
-315,435,-0.404297,-2.63763,0,0,0,0,0,0,0,-1,909,589,-0.404276,2.63761
-308,435,-1.70056,-1.90369,0,0,0,0,0,0,0,-1,916,589,-1.70056,1.90367
-301,435,-1.19391,-2.41632,0,0,0,0,0,0,0,-1,923,589,-1.1939,2.41635
-294,435,2.9505,-8.78894,0,0,0,0,0,0,0,-1,930,589,2.95052,8.78892
-287,435,0,0,0,0,0,0,0,0,0,-1,937,589,0,0
-280,435,0,0,0,0,0,0,0,0,0,-1,944,589,0,0
-273,435,0,0,0,0,0,0,0,0,0,-1,951,589,0,0
-266,435,0,0,0,0,0,0,0,0,0,-1,958,589,0,0
-259,435,0,0,0,0,0,0,0,0,0,-1,965,589,0,0
-252,435,0,0,0,0,0,0,0,0,0,-1,972,589,0,0
-245,435,0,0,0,0,0,0,0,0,0,-1,979,589,0,0
-238,435,0,0,0,0,0,0,0,0,0,-1,986,589,0,0
-231,435,0,0,0,0,0,0,0,0,0,-1,993,589,0,0
-224,435,0,0,0,0,0,0,0,0,0,-1,1000,589,0,0
-217,435,0,0,0,0,0,0,0,0,0,-1,1007,589,0,0
-210,435,0,0,0,0,0,0,0,0,0,-1,1014,589,0,0
-203,435,0,0,0,0,0,0,0,0,0,-1,1021,589,0,0
-196,435,0,0,0,0,0,0,0,0,0,-1,1028,589,0,0
-189,435,0,0,0,0,0,0,0,0,0,-1,1035,589,0,0
-182,435,0,0,0,0,0,0,0,0,0,-1,1042,589,0,0
-175,435,0,0,0,0,0,0,0,0,0,-1,1049,589,0,0
-168,435,0,0,0,0,0,0,0,0,0,-1,1056,589,0,0
-161,435,0,0,0,0,0,0,0,0,0,-1,1063,589,0,0
-154,435,0,0,0,0,0,0,0,0,0,-1,1070,589,0,0
-147,435,0,0,0,0,0,0,0,0,0,-1,1077,589,0,0
-140,435,0,0,0,0,0,0,0,0,0,-1,1084,589,0,0
-133,435,0,0,0,0,0,0,0,0,0,-1,1091,589,0,0
-126,435,0,0,0,0,0,0,0,0,0,-1,1098,589,0,0
-119,435,0,0,0,0,0,0,0,0,0,-1,1105,589,0,0
-112,435,0,0,0,0,0,0,0,0,0,-1,1112,589,0,0
-105,435,0,0,0,0,0,0,0,0,0,-1,1119,589,0,0
-98,435,0,0,0,0,0,0,0,0,0,-1,1126,589,0,0
-91,435,0,0,0,0,0,0,0,0,0,-1,1133,589,0,0
-84,435,0,0,0,0,0,0,0,0,0,-1,1140,589,0,0
-77,435,0,0,0,0,0,0,0,0,0,-1,1147,589,0,0
-70,435,0,0,0,0,0,0,0,0,0,-1,1154,589,0,0
-63,435,0,0,0,0,0,0,0,0,0,-1,1161,589,0,0
-56,435,0,0,0,0,0,0,0,0,0,-1,1168,589,0,0
-49,435,0,0,0,0,0,0,0,0,0,-1,1175,589,0,0
-42,435,0,0,0,0,0,0,0,0,0,-1,1182,589,0,0
-35,435,0,0,0,0,0,0,0,0,0,-1,1189,589,0,0
-28,435,0,0,0,0,0,0,0,0,0,-1,1196,589,0,0
-21,435,0,0,0,0,0,0,0,0,0,-1,1203,589,0,0
-14,435,0,0,0,0,0,0,0,0,0,-1,1210,589,0,0
-7,435,0,0,0,0,0,0,0,0,0,-1,1217,589,0,0
0,435,0,0,0,0,0,0,0,0,0,-1,1224,589,0,0
7,435,0,0,0,0,0,0,0,0,0,-1,1231,589,0,0
14,435,0,0,0,0,0,0,0,0,0,-1,1238,589,0,0
21,435,0,0,0,0,0,0,0,0,0,-1,1245,589,0,0
28,435,0,0,0,0,0,0,0,0,0,-1,1252,589,0,0
35,435,0,0,0,0,0,0,0,0,0,-1,1259,589,0,0
42,435,0,0,0,0,0,0,0,0,0,-1,1266,589,0,0
49,435,0,0,0,0,0,0,0,0,0,-1,1273,589,0,0
56,435,0,0,0,0,0,0,0,0,0,-1,1280,589,0,0
63,435,0,0,0,0,0,0,0,0,0,-1,1287,589,0,0
70,435,0,0,0,0,0,0,0,0,0,-1,1294,589,0,0
77,435,0,0,0,0,0,0,0,0,0,-1,1301,589,0,0
84,435,0,0,0,0,0,0,0,0,0,-1,1308,589,0,0
91,435,0,0,0,0,0,0,0,0,0,-1,1315,589,0,0
98,435,0,0,0,0,0,0,0,0,0,-1,1322,589,0,0
105,435,0,0,0,0,0,0,0,0,0,-1,1329,589,0,0
112,435,0,0,0,0,0,0,0,0,0,-1,1336,589,0,0
119,435,0,0,0,0,0,0,0,0,0,-1,1343,589,0,0
126,435,0,0,0,0,0,0,0,0,0,-1,1350,589,0,0
133,435,0,0,0,0,0,0,0,0,0,-1,1357,589,0,0
140,435,0,0,0,0,0,0,0,0,0,-1,1364,589,0,0
147,435,0,0,0,0,0,0,0,0,0,-1,1371,589,0,0
154,435,0,0,0,0,0,0,0,0,0,-1,1378,589,0,0
161,435,0,0,0,0,0,0,0,0,0,-1,1385,589,0,0
168,435,0,0,0,0,0,0,0,0,0,-1,1392,589,0,0
175,435,0,0,0,0,0,0,0,0,0,-1,1399,589,0,0
182,435,0,0,0,0,0,0,0,0,0,-1,1406,589,0,0
189,435,0,0,0,0,0,0,0,0,0,-1,1413,589,0,0
196,435,0,0,0,0,0,0,0,0,0,-1,1420,589,0,0
203,435,0,0,0,0,0,0,0,0,0,-1,1427,589,0,0
210,435,0,0,0,0,0,0,0,0,0,-1,1434,589,0,0
217,435,0,0,0,0,0,0,0,0,0,-1,1441,589,0,0
224,435,0,0,0,0,0,0,0,0,0,-1,1448,589,0,0
231,435,0,0,0,0,0,0,0,0,0,-1,1455,589,0,0
238,435,0,0,0,0,0,0,0,0,0,-1,1462,589,0,0
245,435,0,0,0,0,0,0,0,0,0,-1,1469,589,0,0
252,435,0,0,0,0,0,0,0,0,0,-1,1476,589,0,0
259,435,0,0,0,0,0,0,0,0,0,-1,1483,589,0,0
266,435,0,0,0,0,0,0,0,0,0,-1,1490,589,0,0
273,435,0,0,0,0,0,0,0,0,0,-1,1497,589,0,0
280,435,0,0,0,0,0,0,0,0,0,-1,1504,589,0,0
287,435,0,0,0,0,0,0,0,0,0,-1,1511,589,0,0
294,435,0,0,0,0,0,0,0,0,0,-1,1518,589,0,0
301,435,0,0,0,0,0,0,0,0,0,-1,1525,589,0,0
308,435,0,0,0,0,0,0,0,0,0,-1,1532,589,0,0
315,435,0,0,0,0,0,0,0,0,0,-1,1539,589,0,0
322,435,0,0,0,0,0,0,0,0,0,-1,1546,589,0,0
329,435,0,0,0,0,0,0,0,0,0,-1,1553,589,0,0
336,435,0,0,0,0,0,0,0,0,0,-1,1560,589,0,0
343,435,0,0,0,0,0,0,0,0,0,-1,1567,589,0,0
350,435,0,0,0,0,0,0,0,0,0,-1,1574,589,0,0
357,435,0,0,0,0,0,0,0,0,0,-1,1581,589,0,0
364,435,0,0,0,0,0,0,0,0,0,-1,1588,589,0,0
371,435,0,0,0,0,0,0,0,0,0,-1,1595,589,0,0
378,435,0,0,0,0,0,0,0,0,0,-1,1602,589,0,0
385,435,0,0,0,0,0,0,0,0,0,-1,1609,589,0,0
392,435,0,0,0,0,0,0,0,0,0,-1,1616,589,0,0
399,435,0,0,0,0,0,0,0,0,0,-1,1623,589,0,0
406,435,0,0,0,0,0,0,0,0,0,-1,1630,589,0,0
413,435,20.4565,3.49835,0,0,0,0,0,0,0,-1,1637,589,20.4565,-3.49836
420,435,21.4015,1.49609,0,0,0,0,0,0,0,-1,1644,589,21.4015,-1.49609
427,435,22.0464,-0.373962,0,0,0,0,0,0,0,-1,1651,589,22.0464,0.373972
434,435,22.1863,-1.54407,0,0,0,0,0,0,0,-1,1658,589,22.1862,1.54405
441,435,22.3992,-2.38287,0,0,0,0,0,0,0,-1,1665,589,22.3992,2.38289
448,435,7.4585,-0.00292969,0,0,0,0,0,0,0,-1,1672,589,7.45848,0.00294131
455,435,5.49915,-5.047,0,0,0,0,0,0,0,-1,1679,589,5.49914,5.04703
462,435,5.60669,-4.71466,0,0,0,0,0,0,0,-1,1686,589,5.60675,4.71469
469,435,5.87708,1.22351,0,0,0,0,0,0,0,-1,1693,589,5.87703,-1.22351
476,435,6.14136,1.37714,0,0,0,0,0,0,0,-1,1700,589,6.14138,-1.37712
483,435,6.49243,1.36169,0,0,0,0,0,0,0,-1,1707,589,6.49242,-1.36171
490,435,4.38391,-1.36218,0,0,0,0,0,0,0,-1,1714,589,4.38389,1.3622
497,435,7.23499,-3.64551,0,0,0,0,0,0,0,-1,1721,589,7.23495,3.64551
504,435,7.31189,-3.75909,0,0,0,0,0,0,0,-1,1728,589,7.31184,3.75911
511,435,22.7346,-19.5959,0,0,0,0,0,0,0,-1,1735,589,22.7346,19.5959
518,435,22.8741,-18.7924,0.00436937,0.00131221,0.00193995,0.00531061,0.00037098,0.451724,0.00342345,0.0304124,1742,589,22.8741,18.7924
525,435,22.8104,-18.0541,0.00364117,0.00112251,0.00167746,0.00447941,0.000284271,0.463412,0.00289617,0.0131297,1749,589,22.8104,18.0541
532,435,22.8052,-17.2968,0.00297383,0.00104439,0.00144071,0.00374299,0.00027523,0.490379,0.00240883,0.0148953,1756,589,22.8052,17.2968
539,435,22.7769,-16.5271,0.00244493,0.00114533,0.00130924,0.00325676,0.000333502,0.555048,0.00206898,0.0157696,1763,589,22.7769,16.5271
546,435,22.7256,-15.8079,0.00198483,0.00130607,0.00119815,0.00289074,0.000400161,0.647385,0.00180859,0.0155155,1770,589,22.7256,15.8079
553,435,22.6879,-15.1038,0.00152007,0.00160597,0.00113778,0.00270161,0.000424435,0.804265,0.00167759,0.0115509,1777,589,22.6879,15.1037
560,435,22.6493,-14.3646,0.00112934,0.00198301,0.00118056,0.00281152,0.000300825,0.958863,0.00178256,0.00957274,1784,589,22.6493,14.3645
567,435,22.6201,-13.5979,0.000913351,0.00253619,0.00138516,0.00333009,0.000119446,1.05035,0.00218134,0.00859249,1791,589,22.6201,13.5979
574,435,22.5798,-12.8605,0.000801094,0.00319663,0.00166612,0.00405083,-5.31122e-05,1.09705,0.00271843,0.00984405,1798,589,22.5798,12.8605
581,435,22.5282,-12.1298,0.000858987,0.00405021,0.00215813,0.00513854,-0.000229335,1.10372,0.00350464,0.0175707,1805,589,22.5282,12.1297
588,435,22.5004,-11.4138,0.0012341,0.00514681,0.00288226,0.00667395,-0.000293048,1.08356,0.00455013,0.0462765,1812,589,22.5004,11.4138
595,435,22.2898,-10.2294,0,0,0,0,0,0,0,-1,1819,589,22.2898,10.2294
602,435,16.8671,-6.39026,0,0,0,0,0,0,0,-1,1826,589,16.867,6.39024
609,435,15.2611,-3.42242,0,0,0,0,0,0,0,-1,1833,589,15.2611,3.42242
616,435,5.05151,-2.75269,0,0,0,0,0,0,0,-1,1840,589,5.05157,2.7527
623,435,11.7588,3.9704,0,0,0,0,0,0,0,-1,1847,589,11.7587,-3.97043
630,435,4.72742,-0.87561,0,0,0,0,0,0,0,-1,1854,589,4.7274,0.875636
637,435,5.05286,1.48792,0,0,0,0,0,0,0,-1,1861,589,5.05291,-1.48792
644,435,0,0,0,0,0,0,0,0,0,-1,1868,589,0,0
651,435,0,0,0,0,0,0,0,0,0,-1,1875,589,0,0
658,435,0,0,0,0,0,0,0,0,0,-1,1882,589,0,0
665,435,0,0,0,0,0,0,0,0,0,-1,1889,589,0,0
672,435,0,0,0,0,0,0,0,0,0,-1,1896,589,0,0
679,435,0,0,0,0,0,0,0,0,0,-1,1903,589,0,0
686,435,0,0,0,0,0,0,0,0,0,-1,1910,589,0,0
693,435,0,0,0,0,0,0,0,0,0,-1,1917,589,0,0
700,435,0,0,0,0,0,0,0,0,0,-1,1924,589,0,0
707,435,0,0,0,0,0,0,0,0,0,-1,1931,589,0,0
714,435,0,0,0,0,0,0,0,0,0,-1,1938,589,0,0
721,435,0,0,0,0,0,0,0,0,0,-1,1945,589,0,0
728,435,0,0,0,0,0,0,0,0,0,-1,1952,589,0,0
735,435,0,0,0,0,0,0,0,0,0,-1,1959,589,0,0
742,435,0,0,0,0,0,0,0,0,0,-1,1966,589,0,0
749,435,0,0,0,0,0,0,0,0,0,-1,1973,589,0,0
756,435,0,0,0,0,0,0,0,0,0,-1,1980,589,0,0
763,435,0,0,0,0,0,0,0,0,0,-1,1987,589,0,0
770,435,0,0,0,0,0,0,0,0,0,-1,1994,589,0,0
777,435,0,0,0,0,0,0,0,0,0,-1,2001,589,0,0
784,435,0,0,0,0,0,0,0,0,0,-1,2008,589,0,0
791,435,0,0,0,0,0,0,0,0,0,-1,2015,589,0,0
798,435,0,0,0,0,0,0,0,0,0,-1,2022,589,0,0
805,435,0,0,0,0,0,0,0,0,0,-1,2029,589,0,0
812,435,0,0,0,0,0,0,0,0,0,-1,2036,589,0,0
-700,428,0,0,0,0,0,0,0,0,0,-1,524,596,0,0
-693,428,0,0,0,0,0,0,0,0,0,-1,531,596,0,0
-686,428,0,0,0,0,0,0,0,0,0,-1,538,596,0,0
-679,428,0,0,0,0,0,0,0,0,0,-1,545,596,0,0
-672,428,0,0,0,0,0,0,0,0,0,-1,552,596,0,0
-665,428,0,0,0,0,0,0,0,0,0,-1,559,596,0,0
-658,428,0,0,0,0,0,0,0,0,0,-1,566,596,0,0
-651,428,0,0,0,0,0,0,0,0,0,-1,573,596,0,0
-644,428,0,0,0,0,0,0,0,0,0,-1,580,596,0,0
-637,428,0,0,0,0,0,0,0,0,0,-1,587,596,0,0
-630,428,0,0,0,0,0,0,0,0,0,-1,594,596,0,0
-623,428,0,0,0,0,0,0,0,0,0,-1,601,596,0,0
-616,428,0,0,0,0,0,0,0,0,0,-1,608,596,0,0
-609,428,0,0,0,0,0,0,0,0,0,-1,615,596,0,0
-602,428,0,0,0,0,0,0,0,0,0,-1,622,596,0,0
-595,428,0,0,0,0,0,0,0,0,0,-1,629,596,0,0
-588,428,0,0,0,0,0,0,0,0,0,-1,636,596,0,0
-581,428,0,0,0,0,0,0,0,0,0,-1,643,596,0,0
-574,428,0,0,0,0,0,0,0,0,0,-1,650,596,0,0
-567,428,0,0,0,0,0,0,0,0,0,-1,657,596,0,0
-560,428,0,0,0,0,0,0,0,0,0,-1,664,596,0,0
-553,428,0,0,0,0,0,0,0,0,0,-1,671,596,0,0
-546,428,0,0,0,0,0,0,0,0,0,-1,678,596,0,0
-539,428,0,0,0,0,0,0,0,0,0,-1,685,596,0,0
-532,428,0,0,0,0,0,0,0,0,0,-1,692,596,0,0
-525,428,-9.59918,7.58618,0,0,0,0,0,0,0,-1,699,596,-9.59918,-7.5862
-518,428,-2.92285,-4.81854,0,0,0,0,0,0,0,-1,706,596,-2.92285,4.81856
-511,428,-3.68811,-4.79474,0,0,0,0,0,0,0,-1,713,596,-3.68811,4.79474
-504,428,-4.45337,-4.77094,0,0,0,0,0,0,0,-1,720,596,-4.45337,4.77092
-497,428,-2.98108,-3.77502,0,0,0,0,0,0,0,-1,727,596,-2.98106,3.77505
-490,428,-6.39044,-2.80481,0,0,0,0,0,0,0,-1,734,596,-6.39047,2.80483
-483,428,-10.8474,-9.11322,0,0,0,0,0,0,0,-1,741,596,-10.8473,9.11321
-476,428,-10.2523,-10.8206,0,0,0,0,0,0,0,-1,748,596,-10.2523,10.8206
-469,428,-10.2232,-11.6656,-0.00247995,0.00774833,-0.00349017,0.00882577,-0.0035574,-1.27137,0.00736195,0.0303454,755,596,-10.2232,11.6656
-462,428,-10.3896,-12.379,-0.00165568,0.00603174,-0.00289063,0.00699738,-0.00262133,-1.24839,0.00574174,0.0313075,762,596,-10.3896,12.379
-455,428,-10.4837,-13.2327,-0.00105961,0.00469929,-0.00224709,0.00547233,-0.00183265,-1.23946,0.00438856,0.0160783,769,596,-10.4837,13.2327
-448,428,-10.4966,-14.0139,-0.00058255,0.0033532,-0.00161794,0.00393293,-0.00116227,-1.22674,0.00308328,0.011184,776,596,-10.4967,14.0139
-441,428,-10.5114,-14.7393,-0.000158134,0.00222426,-0.00108371,0.00264345,-0.000577332,-1.2017,0.00198296,0.013384,783,596,-10.5114,14.7393
-434,428,-10.5445,-15.5054,0.000227544,0.0012453,-0.000637468,0.00155209,-7.92515e-05,-1.12224,0.00106213,0.0106637,790,596,-10.5445,15.5054
-427,428,-10.5939,-16.2603,0.000586332,0.000402617,-0.000288519,0.000797263,0.000191686,-0.631283,0.000480531,0.0114806,797,596,-10.5939,16.2603
-420,428,-10.6199,-16.9503,0.000980505,-0.000339686,-4.98801e-05,0.000982387,-0.000341568,-0.0377109,0.00079367,0.0114737,804,596,-10.6199,16.9503
-413,428,-10.644,-17.6509,0.00130015,-0.00104502,0.000197958,0.00131675,-0.00106161,0.0836223,0.00137578,0.0138412,811,596,-10.6441,17.6509
-406,428,-10.6945,-18.3765,0.00165394,-0.00165074,0.000329665,0.0016865,-0.0016833,0.0984643,0.00194556,0.0165986,818,596,-10.6945,18.3765
-399,428,-10.715,-19.0958,0.00216325,-0.00217206,0.000315131,0.00218604,-0.00219485,0.0721836,0.00252931,0.0156298,825,596,-10.715,19.0958
-392,428,-10.7005,-19.8458,0.00280368,-0.00268791,0.000290427,0.002819,-0.00270323,0.0526899,0.00318849,0.0317851,832,596,-10.7005,19.8458
-385,428,-10.7297,-20.5814,0,0,0,0,0,0,0,-1,839,596,-10.7297,20.5814
-378,428,-10.8172,-20.952,0,0,0,0,0,0,0,-1,846,596,-10.8172,20.952
-371,428,-5.96155,-11.0703,0,0,0,0,0,0,0,-1,853,596,-5.96154,11.0702
-364,428,-6.33643,-10.7223,0,0,0,0,0,0,0,-1,860,596,-6.33645,10.7223
-357,428,-3.20996,-4.70966,0,0,0,0,0,0,0,-1,867,596,-3.20997,4.70965
-350,428,-1.62793,-3.94055,0,0,0,0,0,0,0,-1,874,596,-1.62794,3.94055
-343,428,-0.0567017,-4.80994,0,0,0,0,0,0,0,-1,881,596,-0.0567096,4.80996
-336,428,-3.29175,-1.39569,0,0,0,0,0,0,0,-1,888,596,-3.29172,1.39568
-329,428,-3.71564,-0.791321,0,0,0,0,0,0,0,-1,895,596,-3.71564,0.791299
-322,428,-5.52863,-3.59827,0,0,0,0,0,0,0,-1,902,596,-5.52865,3.59829
-315,428,-4.57172,-1.22052,0,0,0,0,0,0,0,-1,909,596,-4.57171,1.22052
-308,428,-5.60742,-3.40961,0,0,0,0,0,0,0,-1,916,596,-5.60744,3.40959
-301,428,0,0,0,0,0,0,0,0,0,-1,923,596,0,0
-294,428,0,0,0,0,0,0,0,0,0,-1,930,596,0,0
-287,428,0,0,0,0,0,0,0,0,0,-1,937,596,0,0
-280,428,0,0,0,0,0,0,0,0,0,-1,944,596,0,0
-273,428,0,0,0,0,0,0,0,0,0,-1,951,596,0,0
-266,428,0,0,0,0,0,0,0,0,0,-1,958,596,0,0
-259,428,0,0,0,0,0,0,0,0,0,-1,965,596,0,0
-252,428,0,0,0,0,0,0,0,0,0,-1,972,596,0,0
-245,428,0,0,0,0,0,0,0,0,0,-1,979,596,0,0
-238,428,0,0,0,0,0,0,0,0,0,-1,986,596,0,0
-231,428,0,0,0,0,0,0,0,0,0,-1,993,596,0,0
-224,428,0,0,0,0,0,0,0,0,0,-1,1000,596,0,0
-217,428,0,0,0,0,0,0,0,0,0,-1,1007,596,0,0
-210,428,0,0,0,0,0,0,0,0,0,-1,1014,596,0,0
-203,428,0,0,0,0,0,0,0,0,0,-1,1021,596,0,0
-196,428,0,0,0,0,0,0,0,0,0,-1,1028,596,0,0
-189,428,0,0,0,0,0,0,0,0,0,-1,1035,596,0,0
-182,428,0,0,0,0,0,0,0,0,0,-1,1042,596,0,0
-175,428,0,0,0,0,0,0,0,0,0,-1,1049,596,0,0
-168,428,0,0,0,0,0,0,0,0,0,-1,1056,596,0,0
-161,428,0,0,0,0,0,0,0,0,0,-1,1063,596,0,0
-154,428,0,0,0,0,0,0,0,0,0,-1,1070,596,0,0
-147,428,0,0,0,0,0,0,0,0,0,-1,1077,596,0,0
-140,428,0,0,0,0,0,0,0,0,0,-1,1084,596,0,0
-133,428,0,0,0,0,0,0,0,0,0,-1,1091,596,0,0
-126,428,0,0,0,0,0,0,0,0,0,-1,1098,596,0,0
-119,428,0,0,0,0,0,0,0,0,0,-1,1105,596,0,0
-112,428,0,0,0,0,0,0,0,0,0,-1,1112,596,0,0
-105,428,0,0,0,0,0,0,0,0,0,-1,1119,596,0,0
-98,428,0,0,0,0,0,0,0,0,0,-1,1126,596,0,0
-91,428,0,0,0,0,0,0,0,0,0,-1,1133,596,0,0
-84,428,0,0,0,0,0,0,0,0,0,-1,1140,596,0,0
-77,428,0,0,0,0,0,0,0,0,0,-1,1147,596,0,0
-70,428,0,0,0,0,0,0,0,0,0,-1,1154,596,0,0
-63,428,0,0,0,0,0,0,0,0,0,-1,1161,596,0,0
-56,428,0,0,0,0,0,0,0,0,0,-1,1168,596,0,0
-49,428,0,0,0,0,0,0,0,0,0,-1,1175,596,0,0
-42,428,0,0,0,0,0,0,0,0,0,-1,1182,596,0,0
-35,428,0,0,0,0,0,0,0,0,0,-1,1189,596,0,0
-28,428,0,0,0,0,0,0,0,0,0,-1,1196,596,0,0
-21,428,0,0,0,0,0,0,0,0,0,-1,1203,596,0,0
-14,428,0,0,0,0,0,0,0,0,0,-1,1210,596,0,0
-7,428,0,0,0,0,0,0,0,0,0,-1,1217,596,0,0
0,428,0,0,0,0,0,0,0,0,0,-1,1224,596,0,0
7,428,0,0,0,0,0,0,0,0,0,-1,1231,596,0,0
14,428,0,0,0,0,0,0,0,0,0,-1,1238,596,0,0
21,428,0,0,0,0,0,0,0,0,0,-1,1245,596,0,0
28,428,0,0,0,0,0,0,0,0,0,-1,1252,596,0,0
35,428,0,0,0,0,0,0,0,0,0,-1,1259,596,0,0
42,428,0,0,0,0,0,0,0,0,0,-1,1266,596,0,0
49,428,0,0,0,0,0,0,0,0,0,-1,1273,596,0,0
56,428,0,0,0,0,0,0,0,0,0,-1,1280,596,0,0
63,428,0,0,0,0,0,0,0,0,0,-1,1287,596,0,0
70,428,0,0,0,0,0,0,0,0,0,-1,1294,596,0,0
77,428,0,0,0,0,0,0,0,0,0,-1,1301,596,0,0
84,428,0,0,0,0,0,0,0,0,0,-1,1308,596,0,0
91,428,0,0,0,0,0,0,0,0,0,-1,1315,596,0,0
98,428,0,0,0,0,0,0,0,0,0,-1,1322,596,0,0
105,428,0,0,0,0,0,0,0,0,0,-1,1329,596,0,0
112,428,0,0,0,0,0,0,0,0,0,-1,1336,596,0,0
119,428,0,0,0,0,0,0,0,0,0,-1,1343,596,0,0
126,428,0,0,0,0,0,0,0,0,0,-1,1350,596,0,0
133,428,0,0,0,0,0,0,0,0,0,-1,1357,596,0,0
140,428,0,0,0,0,0,0,0,0,0,-1,1364,596,0,0
147,428,0,0,0,0,0,0,0,0,0,-1,1371,596,0,0
154,428,0,0,0,0,0,0,0,0,0,-1,1378,596,0,0
161,428,0,0,0,0,0,0,0,0,0,-1,1385,596,0,0
168,428,0,0,0,0,0,0,0,0,0,-1,1392,596,0,0
175,428,0,0,0,0,0,0,0,0,0,-1,1399,596,0,0
182,428,0,0,0,0,0,0,0,0,0,-1,1406,596,0,0
189,428,0,0,0,0,0,0,0,0,0,-1,1413,596,0,0
196,428,0,0,0,0,0,0,0,0,0,-1,1420,596,0,0
203,428,0,0,0,0,0,0,0,0,0,-1,1427,596,0,0
210,428,0,0,0,0,0,0,0,0,0,-1,1434,596,0,0
217,428,0,0,0,0,0,0,0,0,0,-1,1441,596,0,0
224,428,0,0,0,0,0,0,0,0,0,-1,1448,596,0,0
231,428,0,0,0,0,0,0,0,0,0,-1,1455,596,0,0
238,428,0,0,0,0,0,0,0,0,0,-1,1462,596,0,0
245,428,0,0,0,0,0,0,0,0,0,-1,1469,596,0,0
252,428,0,0,0,0,0,0,0,0,0,-1,1476,596,0,0
259,428,0,0,0,0,0,0,0,0,0,-1,1483,596,0,0
266,428,0,0,0,0,0,0,0,0,0,-1,1490,596,0,0
273,428,0,0,0,0,0,0,0,0,0,-1,1497,596,0,0
280,428,0,0,0,0,0,0,0,0,0,-1,1504,596,0,0
287,428,0,0,0,0,0,0,0,0,0,-1,1511,596,0,0
294,428,0,0,0,0,0,0,0,0,0,-1,1518,596,0,0
301,428,0,0,0,0,0,0,0,0,0,-1,1525,596,0,0
308,428,0,0,0,0,0,0,0,0,0,-1,1532,596,0,0
315,428,0,0,0,0,0,0,0,0,0,-1,1539,596,0,0
322,428,0,0,0,0,0,0,0,0,0,-1,1546,596,0,0
329,428,0,0,0,0,0,0,0,0,0,-1,1553,596,0,0
336,428,0,0,0,0,0,0,0,0,0,-1,1560,596,0,0
343,428,0,0,0,0,0,0,0,0,0,-1,1567,596,0,0
350,428,0,0,0,0,0,0,0,0,0,-1,1574,596,0,0
357,428,0,0,0,0,0,0,0,0,0,-1,1581,596,0,0
364,428,0,0,0,0,0,0,0,0,0,-1,1588,596,0,0
371,428,0,0,0,0,0,0,0,0,0,-1,1595,596,0,0
378,428,0,0,0,0,0,0,0,0,0,-1,1602,596,0,0
385,428,0,0,0,0,0,0,0,0,0,-1,1609,596,0,0
392,428,0,0,0,0,0,0,0,0,0,-1,1616,596,0,0
399,428,0,0,0,0,0,0,0,0,0,-1,1623,596,0,0
406,428,0,0,0,0,0,0,0,0,0,-1,1630,596,0,0
413,428,0,0,0,0,0,0,0,0,0,-1,1637,596,0,0
420,428,19.8469,1.3399,0,0,0,0,0,0,0,-1,1644,596,19.8469,-1.33992
427,428,20.7299,-0.225281,0,0,0,0,0,0,0,-1,1651,596,20.7299,0.225262
434,428,19.8915,-0.583069,0,0,0,0,0,0,0,-1,1658,596,19.8915,0.583075
441,428,8.17993,0.607483,0,0,0,0,0,0,0,-1,1665,596,8.17997,-0.607513
448,428,7.84338,-0.385986,0,0,0,0,0,0,0,-1,1672,596,7.84336,0.385978
455,428,6.64038,2.1123,0,0,0,0,0,0,0,-1,1679,596,6.64037,-2.11229
462,428,4.84106,4.12341,0,0,0,0,0,0,0,-1,1686,596,4.84107,-4.12339
469,428,7.83789,3.10083,0,0,0,0,0,0,0,-1,1693,596,7.83785,-3.10086
476,428,7.61255,1.73956,0,0,0,0,0,0,0,-1,1700,596,7.61252,-1.73958
483,428,7.22766,1.05121,0,0,0,0,0,0,0,-1,1707,596,7.2277,-1.05121
490,428,5.4071,-3.2793,0,0,0,0,0,0,0,-1,1714,596,5.40707,3.27929
497,428,7.84106,-3.65491,0,0,0,0,0,0,0,-1,1721,596,7.84107,3.65491
504,428,6.92139,-2.83356,0,0,0,0,0,0,0,-1,1728,596,6.92137,2.83353
511,428,7.88501,-3.78723,0,0,0,0,0,0,0,-1,1735,596,7.88502,3.78722
518,428,23.5514,-18.8478,0,0,0,0,0,0,0,-1,1742,596,23.5514,18.8478
525,428,23.462,-18.0988,0.00463284,0.00132165,0.00212797,0.0056734,0.000281091,0.454802,0.00369214,0.0452963,1749,596,23.462,18.0988
532,428,23.5051,-17.2352,0.00376596,0.00108631,0.00168611,0.00457976,0.000272515,0.44967,0.00296651,0.0211126,1756,596,23.5051,17.2352
539,428,23.5288,-16.4934,0.00309825,0.00112008,0.00141796,0.003838,0.000380321,0.480861,0.00244179,0.0220837,1763,596,23.5289,16.4934
546,428,23.4733,-15.8,0.0025204,0.00114055,0.00119564,0.0032109,0.000450057,0.523717,0.00200747,0.0169141,1770,596,23.4733,15.8
553,428,23.4369,-15.0777,0.00196242,0.00131656,0.00105111,0.00273909,0.000539892,0.636361,0.00167535,0.0115088,1777,596,23.4369,15.0777
560,428,23.4227,-14.3303,0.00148063,0.00157054,0.00101976,0.00254634,0.000504829,0.807426,0.00155681,0.011841,1784,596,23.4227,14.3303
567,428,23.3828,-13.5654,0.00118273,0.00200764,0.00115989,0.00282623,0.000364145,0.956225,0.00177527,0.0109039,1791,596,23.3828,13.5654
574,428,23.3422,-12.8192,0.00102884,0.00255744,0.00139978,0.00338799,0.000198288,1.03529,0.00219555,0.0134129,1798,596,23.3422,12.8191
581,428,23.2823,-12.0843,0.00103464,0.00327244,0.00183614,0.00430374,3.33879e-06,1.05904,0.00286805,0.0119938,1805,596,23.2824,12.0843
588,428,23.2338,-11.3056,0.00131239,0.00427397,0.00250375,0.00570205,-0.000115683,1.05244,0.00384051,0.01823,1812,596,23.2337,11.3056
595,428,23.1665,-10.467,0.00174542,0.00551626,0.00328311,0.00741682,-0.000155137,1.04604,0.00499706,0.0318044,1819,596,23.1665,10.467
602,428,23.2802,-9.58423,0,0,0,0,0,0,0,-1,1826,596,23.2802,9.58425
609,428,17.2073,-4.82446,0,0,0,0,0,0,0,-1,1833,596,17.2073,4.82447
616,428,15.7817,-3.09558,0,0,0,0,0,0,0,-1,1840,596,15.7817,3.09556
623,428,9.53577,1.12518,0,0,0,0,0,0,0,-1,1847,596,9.5358,-1.1252
630,428,7.07996,6.88562,0,0,0,0,0,0,0,-1,1854,596,7.0799,-6.88565
637,428,3.95435,1.90857,0,0,0,0,0,0,0,-1,1861,596,3.95439,-1.90858
644,428,5.75476,0.888977,0,0,0,0,0,0,0,-1,1868,596,5.75472,-0.888955
651,428,0,0,0,0,0,0,0,0,0,-1,1875,596,0,0
658,428,0,0,0,0,0,0,0,0,0,-1,1882,596,0,0
665,428,0,0,0,0,0,0,0,0,0,-1,1889,596,0,0
672,428,0,0,0,0,0,0,0,0,0,-1,1896,596,0,0
679,428,0,0,0,0,0,0,0,0,0,-1,1903,596,0,0
686,428,0,0,0,0,0,0,0,0,0,-1,1910,596,0,0
693,428,0,0,0,0,0,0,0,0,0,-1,1917,596,0,0
700,428,0,0,0,0,0,0,0,0,0,-1,1924,596,0,0
707,428,0,0,0,0,0,0,0,0,0,-1,1931,596,0,0
714,428,0,0,0,0,0,0,0,0,0,-1,1938,596,0,0
721,428,0,0,0,0,0,0,0,0,0,-1,1945,596,0,0
728,428,0,0,0,0,0,0,0,0,0,-1,1952,596,0,0
735,428,0,0,0,0,0,0,0,0,0,-1,1959,596,0,0
742,428,0,0,0,0,0,0,0,0,0,-1,1966,596,0,0
749,428,0,0,0,0,0,0,0,0,0,-1,1973,596,0,0
756,428,0,0,0,0,0,0,0,0,0,-1,1980,596,0,0
763,428,0,0,0,0,0,0,0,0,0,-1,1987,596,0,0
770,428,0,0,0,0,0,0,0,0,0,-1,1994,596,0,0
777,428,0,0,0,0,0,0,0,0,0,-1,2001,596,0,0
784,428,0,0,0,0,0,0,0,0,0,-1,2008,596,0,0
791,428,0,0,0,0,0,0,0,0,0,-1,2015,596,0,0
798,428,0,0,0,0,0,0,0,0,0,-1,2022,596,0,0
805,428,0,0,0,0,0,0,0,0,0,-1,2029,596,0,0
812,428,0,0,0,0,0,0,0,0,0,-1,2036,596,0,0
-700,421,0,0,0,0,0,0,0,0,0,-1,524,603,0,0
-693,421,0,0,0,0,0,0,0,0,0,-1,531,603,0,0
-686,421,0,0,0,0,0,0,0,0,0,-1,538,603,0,0
-679,421,0,0,0,0,0,0,0,0,0,-1,545,603,0,0
-672,421,0,0,0,0,0,0,0,0,0,-1,552,603,0,0
-665,421,0,0,0,0,0,0,0,0,0,-1,559,603,0,0
-658,421,0,0,0,0,0,0,0,0,0,-1,566,603,0,0
-651,421,0,0,0,0,0,0,0,0,0,-1,573,603,0,0
-644,421,0,0,0,0,0,0,0,0,0,-1,580,603,0,0
-637,421,0,0,0,0,0,0,0,0,0,-1,587,603,0,0
-630,421,0,0,0,0,0,0,0,0,0,-1,594,603,0,0
-623,421,0,0,0,0,0,0,0,0,0,-1,601,603,0,0
-616,421,0,0,0,0,0,0,0,0,0,-1,608,603,0,0
-609,421,0,0,0,0,0,0,0,0,0,-1,615,603,0,0
-602,421,0,0,0,0,0,0,0,0,0,-1,622,603,0,0
-595,421,0,0,0,0,0,0,0,0,0,-1,629,603,0,0
-588,421,0,0,0,0,0,0,0,0,0,-1,636,603,0,0
-581,421,0,0,0,0,0,0,0,0,0,-1,643,603,0,0
-574,421,0,0,0,0,0,0,0,0,0,-1,650,603,0,0
-567,421,0,0,0,0,0,0,0,0,0,-1,657,603,0,0
-560,421,0,0,0,0,0,0,0,0,0,-1,664,603,0,0
-553,421,0,0,0,0,0,0,0,0,0,-1,671,603,0,0
-546,421,0,0,0,0,0,0,0,0,0,-1,678,603,0,0
-539,421,0,0,0,0,0,0,0,0,0,-1,685,603,0,0
-532,421,-8.97382,6.95636,0,0,0,0,0,0,0,-1,692,603,-8.97384,-6.95634
-525,421,-2.11481,-8.04272,0,0,0,0,0,0,0,-1,699,603,-2.11483,8.0427
-518,421,-3.05908,-5.07233,0,0,0,0,0,0,0,-1,706,603,-3.0591,5.07235
-511,421,-4.63525,-4.08447,0,0,0,0,0,0,0,-1,713,603,-4.63524,4.08449
-504,421,-5.17029,-4.94458,0,0,0,0,0,0,0,-1,720,603,-5.17029,4.9446
-497,421,-6.63141,-2.32501,0,0,0,0,0,0,0,-1,727,603,-6.6314,2.32498
-490,421,-6.7616,-4.14783,0,0,0,0,0,0,0,-1,734,603,-6.76159,4.1478
-483,421,-10.7593,-10.3442,0,0,0,0,0,0,0,-1,741,603,-10.7593,10.3442
-476,421,-10.9177,-11.0408,-0.00261411,0.00746927,-0.00307839,0.00833479,-0.00347963,-1.29671,0.00701042,0.034877,748,603,-10.9177,11.0409
-469,421,-11.1109,-11.6566,-0.0020131,0.00582089,-0.00261123,0.00661148,-0.00280369,-1.2768,0.00558207,0.0298939,755,603,-11.1109,11.6566
-462,421,-11.1648,-12.5021,-0.00134093,0.00443606,-0.00218753,0.00517092,-0.00207579,-1.24671,0.00430922,0.0226602,762,603,-11.1648,12.5021
-455,421,-11.2068,-13.2578,-0.000824751,0.0032824,-0.00170053,0.0038951,-0.00143744,-1.22498,0.00318587,0.0210011,769,603,-11.2068,13.2578
-448,421,-11.2408,-13.9709,-0.000365739,0.00213371,-0.00119821,0.00261532,-0.000847347,-1.18862,0.00208422,0.0189544,776,603,-11.2408,13.971
-441,421,-11.2623,-14.7033,3.74141e-05,0.00112604,-0.000727752,0.00149052,-0.000327063,-1.10649,0.00111875,0.0146483,783,603,-11.2623,14.7033
-434,421,-11.2975,-15.4662,0.00040977,0.000240419,-0.000311783,0.000648172,2.01777e-06,-0.652804,0.000431443,0.0113421,790,603,-11.2975,15.4662
-427,421,-11.3193,-16.2124,0.000766669,-0.000527944,2.60383e-05,0.000767192,-0.000528468,0.0201019,0.00075227,0.0110751,797,603,-11.3193,16.2124
-420,421,-11.3486,-16.9113,0.0011377,-0.00121664,0.000297367,0.00117468,-0.00125362,0.123718,0.00140222,0.0118364,804,603,-11.3485,16.9112
-413,421,-11.3843,-17.6061,0.00147874,-0.00175085,0.000495264,0.00155299,-0.00182509,0.148798,0.00195244,0.013926,811,603,-11.3843,17.6061
-406,421,-11.4502,-18.3585,0.00183882,-0.00233189,0.000615351,0.00192772,-0.00242079,0.143469,0.00251598,0.0199467,818,603,-11.4502,18.3584
-399,421,-11.3752,-19.1591,0.00234713,-0.0028168,0.000562321,0.00240766,-0.00287732,0.10722,0.0030553,0.0371969,825,603,-11.3753,19.1591
-392,421,-11.3216,-19.9621,0,0,0,0,0,0,0,-1,832,603,-11.3216,19.9621
-385,421,-11.5825,-18.8583,0,0,0,0,0,0,0,-1,839,603,-11.5825,18.8583
-378,421,-4.94733,-8.87909,0,0,0,0,0,0,0,-1,846,603,-4.94731,8.87906
-371,421,-5.65082,-7.01849,0,0,0,0,0,0,0,-1,853,603,-5.65082,7.0185
-364,421,-5.94189,-7.09875,0,0,0,0,0,0,0,-1,860,603,-5.94192,7.09878
-357,421,-7.62531,-8.26337,0,0,0,0,0,0,0,-1,867,603,-7.62532,8.26337
-350,421,-5.38019,-3.75024,0,0,0,0,0,0,0,-1,874,603,-5.38017,3.75026
-343,421,-6.22797,-2.57123,0,0,0,0,0,0,0,-1,881,603,-6.22798,2.57121
-336,421,-6.22882,-2.59369,0,0,0,0,0,0,0,-1,888,603,-6.22883,2.5937
-329,421,-4.50134,-1.49469,0,0,0,0,0,0,0,-1,895,603,-4.50137,1.49468
-322,421,-7.55817,1.13263,0,0,0,0,0,0,0,-1,902,603,-7.55818,-1.13263
-315,421,-4.16144,-1.96649,0,0,0,0,0,0,0,-1,909,603,-4.16146,1.9665
-308,421,0,0,0,0,0,0,0,0,0,-1,916,603,0,0
-301,421,0,0,0,0,0,0,0,0,0,-1,923,603,0,0
-294,421,0,0,0,0,0,0,0,0,0,-1,930,603,0,0
-287,421,0,0,0,0,0,0,0,0,0,-1,937,603,0,0
-280,421,0,0,0,0,0,0,0,0,0,-1,944,603,0,0
-273,421,0,0,0,0,0,0,0,0,0,-1,951,603,0,0
-266,421,0,0,0,0,0,0,0,0,0,-1,958,603,0,0
-259,421,0,0,0,0,0,0,0,0,0,-1,965,603,0,0
-252,421,0,0,0,0,0,0,0,0,0,-1,972,603,0,0
-245,421,0,0,0,0,0,0,0,0,0,-1,979,603,0,0
-238,421,0,0,0,0,0,0,0,0,0,-1,986,603,0,0
-231,421,0,0,0,0,0,0,0,0,0,-1,993,603,0,0
-224,421,0,0,0,0,0,0,0,0,0,-1,1000,603,0,0
-217,421,0,0,0,0,0,0,0,0,0,-1,1007,603,0,0
-210,421,0,0,0,0,0,0,0,0,0,-1,1014,603,0,0
-203,421,0,0,0,0,0,0,0,0,0,-1,1021,603,0,0
-196,421,0,0,0,0,0,0,0,0,0,-1,1028,603,0,0
-189,421,0,0,0,0,0,0,0,0,0,-1,1035,603,0,0
-182,421,0,0,0,0,0,0,0,0,0,-1,1042,603,0,0
-175,421,0,0,0,0,0,0,0,0,0,-1,1049,603,0,0
-168,421,0,0,0,0,0,0,0,0,0,-1,1056,603,0,0
-161,421,0,0,0,0,0,0,0,0,0,-1,1063,603,0,0
-154,421,0,0,0,0,0,0,0,0,0,-1,1070,603,0,0
-147,421,0,0,0,0,0,0,0,0,0,-1,1077,603,0,0
-140,421,0,0,0,0,0,0,0,0,0,-1,1084,603,0,0
-133,421,0,0,0,0,0,0,0,0,0,-1,1091,603,0,0
-126,421,0,0,0,0,0,0,0,0,0,-1,1098,603,0,0
-119,421,0,0,0,0,0,0,0,0,0,-1,1105,603,0,0
-112,421,0,0,0,0,0,0,0,0,0,-1,1112,603,0,0
-105,421,0,0,0,0,0,0,0,0,0,-1,1119,603,0,0
-98,421,0,0,0,0,0,0,0,0,0,-1,1126,603,0,0
-91,421,0,0,0,0,0,0,0,0,0,-1,1133,603,0,0
-84,421,0,0,0,0,0,0,0,0,0,-1,1140,603,0,0
-77,421,0,0,0,0,0,0,0,0,0,-1,1147,603,0,0
-70,421,0,0,0,0,0,0,0,0,0,-1,1154,603,0,0
-63,421,0,0,0,0,0,0,0,0,0,-1,1161,603,0,0
-56,421,0,0,0,0,0,0,0,0,0,-1,1168,603,0,0
-49,421,0,0,0,0,0,0,0,0,0,-1,1175,603,0,0
-42,421,0,0,0,0,0,0,0,0,0,-1,1182,603,0,0
-35,421,0,0,0,0,0,0,0,0,0,-1,1189,603,0,0
-28,421,0,0,0,0,0,0,0,0,0,-1,1196,603,0,0
-21,421,0,0,0,0,0,0,0,0,0,-1,1203,603,0,0
-14,421,0,0,0,0,0,0,0,0,0,-1,1210,603,0,0
-7,421,0,0,0,0,0,0,0,0,0,-1,1217,603,0,0
0,421,0,0,0,0,0,0,0,0,0,-1,1224,603,0,0
7,421,0,0,0,0,0,0,0,0,0,-1,1231,603,0,0
14,421,0,0,0,0,0,0,0,0,0,-1,1238,603,0,0
21,421,0,0,0,0,0,0,0,0,0,-1,1245,603,0,0
28,421,0,0,0,0,0,0,0,0,0,-1,1252,603,0,0
35,421,0,0,0,0,0,0,0,0,0,-1,1259,603,0,0
42,421,0,0,0,0,0,0,0,0,0,-1,1266,603,0,0
49,421,0,0,0,0,0,0,0,0,0,-1,1273,603,0,0
56,421,0,0,0,0,0,0,0,0,0,-1,1280,603,0,0
63,421,0,0,0,0,0,0,0,0,0,-1,1287,603,0,0
70,421,0,0,0,0,0,0,0,0,0,-1,1294,603,0,0
77,421,0,0,0,0,0,0,0,0,0,-1,1301,603,0,0
84,421,0,0,0,0,0,0,0,0,0,-1,1308,603,0,0
91,421,0,0,0,0,0,0,0,0,0,-1,1315,603,0,0
98,421,0,0,0,0,0,0,0,0,0,-1,1322,603,0,0
105,421,0,0,0,0,0,0,0,0,0,-1,1329,603,0,0
112,421,0,0,0,0,0,0,0,0,0,-1,1336,603,0,0
119,421,0,0,0,0,0,0,0,0,0,-1,1343,603,0,0
126,421,0,0,0,0,0,0,0,0,0,-1,1350,603,0,0
133,421,0,0,0,0,0,0,0,0,0,-1,1357,603,0,0
140,421,0,0,0,0,0,0,0,0,0,-1,1364,603,0,0
147,421,0,0,0,0,0,0,0,0,0,-1,1371,603,0,0
154,421,0,0,0,0,0,0,0,0,0,-1,1378,603,0,0
161,421,0,0,0,0,0,0,0,0,0,-1,1385,603,0,0
168,421,0,0,0,0,0,0,0,0,0,-1,1392,603,0,0
175,421,0,0,0,0,0,0,0,0,0,-1,1399,603,0,0
182,421,0,0,0,0,0,0,0,0,0,-1,1406,603,0,0
189,421,0,0,0,0,0,0,0,0,0,-1,1413,603,0,0
196,421,0,0,0,0,0,0,0,0,0,-1,1420,603,0,0
203,421,0,0,0,0,0,0,0,0,0,-1,1427,603,0,0
210,421,0,0,0,0,0,0,0,0,0,-1,1434,603,0,0
217,421,0,0,0,0,0,0,0,0,0,-1,1441,603,0,0
224,421,0,0,0,0,0,0,0,0,0,-1,1448,603,0,0
231,421,0,0,0,0,0,0,0,0,0,-1,1455,603,0,0
238,421,0,0,0,0,0,0,0,0,0,-1,1462,603,0,0
245,421,0,0,0,0,0,0,0,0,0,-1,1469,603,0,0
252,421,0,0,0,0,0,0,0,0,0,-1,1476,603,0,0
259,421,0,0,0,0,0,0,0,0,0,-1,1483,603,0,0
266,421,0,0,0,0,0,0,0,0,0,-1,1490,603,0,0
273,421,0,0,0,0,0,0,0,0,0,-1,1497,603,0,0
280,421,0,0,0,0,0,0,0,0,0,-1,1504,603,0,0
287,421,0,0,0,0,0,0,0,0,0,-1,1511,603,0,0
294,421,0,0,0,0,0,0,0,0,0,-1,1518,603,0,0
301,421,0,0,0,0,0,0,0,0,0,-1,1525,603,0,0
308,421,0,0,0,0,0,0,0,0,0,-1,1532,603,0,0
315,421,0,0,0,0,0,0,0,0,0,-1,1539,603,0,0
322,421,0,0,0,0,0,0,0,0,0,-1,1546,603,0,0
329,421,0,0,0,0,0,0,0,0,0,-1,1553,603,0,0
336,421,0,0,0,0,0,0,0,0,0,-1,1560,603,0,0
343,421,0,0,0,0,0,0,0,0,0,-1,1567,603,0,0
350,421,0,0,0,0,0,0,0,0,0,-1,1574,603,0,0
357,421,0,0,0,0,0,0,0,0,0,-1,1581,603,0,0
364,421,0,0,0,0,0,0,0,0,0,-1,1588,603,0,0
371,421,0,0,0,0,0,0,0,0,0,-1,1595,603,0,0
378,421,0,0,0,0,0,0,0,0,0,-1,1602,603,0,0
385,421,0,0,0,0,0,0,0,0,0,-1,1609,603,0,0
392,421,0,0,0,0,0,0,0,0,0,-1,1616,603,0,0
399,421,0,0,0,0,0,0,0,0,0,-1,1623,603,0,0
406,421,0,0,0,0,0,0,0,0,0,-1,1630,603,0,0
413,421,0,0,0,0,0,0,0,0,0,-1,1637,603,0,0
420,421,0,0,0,0,0,0,0,0,0,-1,1644,603,0,0
427,421,0,0,0,0,0,0,0,0,0,-1,1651,603,0,0
434,421,3.68176,-0.0327759,0,0,0,0,0,0,0,-1,1658,603,3.6818,0.0328037
441,421,8.06689,0.527832,0,0,0,0,0,0,0,-1,1665,603,8.06693,-0.527851
448,421,6.93921,0.802246,0,0,0,0,0,0,0,-1,1672,603,6.93923,-0.802251
455,421,7.29456,2.14825,0,0,0,0,0,0,0,-1,1679,603,7.29461,-2.14827
462,421,7.86902,3.53174,0,0,0,0,0,0,0,-1,1686,603,7.869,-3.53173
469,421,8.06604,2.81213,0,0,0,0,0,0,0,-1,1693,603,8.06606,-2.81212
476,421,8.26306,2.09253,0,0,0,0,0,0,0,-1,1700,603,8.26312,-2.09251
483,421,8.05322,0.798096,0,0,0,0,0,0,0,-1,1707,603,8.05323,-0.7981
490,421,7.51233,0.213074,0,0,0,0,0,0,0,-1,1714,603,7.51235,-0.213043
497,421,7.49634,-2.86688,0,0,0,0,0,0,0,-1,1721,603,7.4963,2.86688
504,421,6.90491,-2.18671,0,0,0,0,0,0,0,-1,1728,603,6.90491,2.18669
511,421,6.31348,-1.50653,0,0,0,0,0,0,0,-1,1735,603,6.31353,1.5065
518,421,6.27588,-2.49878,0,0,0,0,0,0,0,-1,1742,603,6.2759,2.4988
525,421,24.049,-18.171,0,0,0,0,0,0,0,-1,1749,603,24.0489,18.171
532,421,24.1489,-17.2783,0.00452736,0.0010846,0.00189734,0.00536782,0.000244135,0.416992,0.00350001,0.043257,1756,603,24.1489,17.2783
539,421,24.2701,-16.4897,0.00369717,0.00112061,0.00150086,0.00438683,0.000430949,0.430734,0.00279201,0.0246046,1763,603,24.2701,16.4898
546,421,24.2247,-15.7796,0.00299057,0.00102216,0.00118094,0.00354366,0.000469069,0.438007,0.00222264,0.0144375,1770,603,24.2247,15.7796
553,421,24.1975,-15.0313,0.00234534,0.00110244,0.000971216,0.00287692,0.000570872,0.500788,0.00175881,0.0124067,1777,603,24.1976,15.0313
560,421,24.1832,-14.2809,0.00177901,0.00125857,0.00087988,0.00243634,0.000601238,0.641625,0.00146552,0.0143133,1784,603,24.1833,14.2809
567,421,24.1398,-13.5221,0.00140618,0.0015823,0.000965082,0.00246333,0.000525146,0.830894,0.00149817,0.0166454,1791,603,24.1398,13.5221
574,421,24.0916,-12.7732,0.00121704,0.00202788,0.001181,0.00287111,0.000373809,0.950739,0.00180244,0.0204361,1798,603,24.0915,12.7732
581,421,24.0599,-11.9988,0.00118459,0.00260594,0.00157091,0.00361945,0.000171078,0.997821,0.00235801,0.0213354,1805,603,24.0599,11.9988
588,421,24.0117,-11.326,0.001398,0.00347221,0.0021759,0.00484552,2.46831e-05,1.00779,0.00322215,0.0143727,1812,603,24.0117,11.3261
595,421,24.027,-10.5369,0.00181445,0.00455579,0.00294324,0.00643187,-6.16307e-05,1.00332,0.00430861,0.0210132,1819,603,24.0269,10.5369
602,421,24.0341,-9.69977,0,0,0,0,0,0,0,-1,1826,603,24.034,9.69974
609,421,22.8762,-8.37524,0,0,0,0,0,0,0,-1,1833,603,22.8762,8.37525
616,421,17.7633,-4.72491,0,0,0,0,0,0,0,-1,1840,603,17.7633,4.7249
623,421,6.19885,0.376648,0,0,0,0,0,0,0,-1,1847,603,6.19881,-0.376624
630,421,6.54993,0.778748,0,0,0,0,0,0,0,-1,1854,603,6.54991,-0.778744
637,421,3.74512,1.65405,0,0,0,0,0,0,0,-1,1861,603,3.74517,-1.65407
644,421,3.58081,0.354675,0,0,0,0,0,0,0,-1,1868,603,3.58082,-0.354704
651,421,3.28687,3.66351,0,0,0,0,0,0,0,-1,1875,603,3.28688,-3.66353
658,421,0,0,0,0,0,0,0,0,0,-1,1882,603,0,0
665,421,0,0,0,0,0,0,0,0,0,-1,1889,603,0,0
672,421,0,0,0,0,0,0,0,0,0,-1,1896,603,0,0
679,421,0,0,0,0,0,0,0,0,0,-1,1903,603,0,0
686,421,0,0,0,0,0,0,0,0,0,-1,1910,603,0,0
693,421,0,0,0,0,0,0,0,0,0,-1,1917,603,0,0
700,421,0,0,0,0,0,0,0,0,0,-1,1924,603,0,0
707,421,0,0,0,0,0,0,0,0,0,-1,1931,603,0,0
714,421,0,0,0,0,0,0,0,0,0,-1,1938,603,0,0
721,421,0,0,0,0,0,0,0,0,0,-1,1945,603,0,0
728,421,0,0,0,0,0,0,0,0,0,-1,1952,603,0,0
735,421,0,0,0,0,0,0,0,0,0,-1,1959,603,0,0
742,421,0,0,0,0,0,0,0,0,0,-1,1966,603,0,0
749,421,0,0,0,0,0,0,0,0,0,-1,1973,603,0,0
756,421,0,0,0,0,0,0,0,0,0,-1,1980,603,0,0
763,421,0,0,0,0,0,0,0,0,0,-1,1987,603,0,0
770,421,0,0,0,0,0,0,0,0,0,-1,1994,603,0,0
777,421,0,0,0,0,0,0,0,0,0,-1,2001,603,0,0
784,421,0,0,0,0,0,0,0,0,0,-1,2008,603,0,0
791,421,0,0,0,0,0,0,0,0,0,-1,2015,603,0,0
798,421,0,0,0,0,0,0,0,0,0,-1,2022,603,0,0
805,421,0,0,0,0,0,0,0,0,0,-1,2029,603,0,0
812,421,0,0,0,0,0,0,0,0,0,-1,2036,603,0,0
-700,414,0,0,0,0,0,0,0,0,0,-1,524,610,0,0
-693,414,0,0,0,0,0,0,0,0,0,-1,531,610,0,0
-686,414,0,0,0,0,0,0,0,0,0,-1,538,610,0,0
-679,414,0,0,0,0,0,0,0,0,0,-1,545,610,0,0
-672,414,0,0,0,0,0,0,0,0,0,-1,552,610,0,0
-665,414,0,0,0,0,0,0,0,0,0,-1,559,610,0,0
-658,414,0,0,0,0,0,0,0,0,0,-1,566,610,0,0
-651,414,0,0,0,0,0,0,0,0,0,-1,573,610,0,0
-644,414,0,0,0,0,0,0,0,0,0,-1,580,610,0,0
-637,414,0,0,0,0,0,0,0,0,0,-1,587,610,0,0
-630,414,0,0,0,0,0,0,0,0,0,-1,594,610,0,0
-623,414,0,0,0,0,0,0,0,0,0,-1,601,610,0,0
-616,414,0,0,0,0,0,0,0,0,0,-1,608,610,0,0
-609,414,0,0,0,0,0,0,0,0,0,-1,615,610,0,0
-602,414,0,0,0,0,0,0,0,0,0,-1,622,610,0,0
-595,414,0,0,0,0,0,0,0,0,0,-1,629,610,0,0
-588,414,0,0,0,0,0,0,0,0,0,-1,636,610,0,0
-581,414,0,0,0,0,0,0,0,0,0,-1,643,610,0,0
-574,414,0,0,0,0,0,0,0,0,0,-1,650,610,0,0
-567,414,0,0,0,0,0,0,0,0,0,-1,657,610,0,0
-560,414,0,0,0,0,0,0,0,0,0,-1,664,610,0,0
-553,414,0,0,0,0,0,0,0,0,0,-1,671,610,0,0
-546,414,0,0,0,0,0,0,0,0,0,-1,678,610,0,0
-539,414,-7.50146,5.65619,0,0,0,0,0,0,0,-1,685,610,-7.50149,-5.65617
-532,414,-8.15204,4.01605,0,0,0,0,0,0,0,-1,692,610,-8.15206,-4.01606
-525,414,-3.47137,-3.27924,0,0,0,0,0,0,0,-1,699,610,-3.47136,3.27922
-518,414,-4.12909,-4.36908,0,0,0,0,0,0,0,-1,706,610,-4.12909,4.36909
-511,414,-3.92542,-4.97021,0,0,0,0,0,0,0,-1,713,610,-3.92542,4.97023
-504,414,-9.35394,-5.49896,0,0,0,0,0,0,0,-1,720,610,-9.35394,5.49898
-497,414,-9.67627,-6.54761,0,0,0,0,0,0,0,-1,727,610,-9.6763,6.5476
-490,414,-10.9006,-8.3277,0,0,0,0,0,0,0,-1,734,610,-10.9006,8.3277
-483,414,-11.5938,-10.3367,0,0,0,0,0,0,0,-1,741,610,-11.5938,10.3368
-476,414,-11.7977,-11.0247,-0.00202868,0.00547779,-0.0021168,0.00603357,-0.00258446,-1.31403,0.00510672,0.0226883,748,610,-11.7977,11.0246
-469,414,-11.8786,-11.7174,-0.00153541,0.00425918,-0.00183763,0.0047928,-0.00206903,-1.28818,0.00406438,0.0151871,755,610,-11.8786,11.7174
-462,414,-11.8714,-12.4819,-0.000975119,0.00319327,-0.00156098,0.00371302,-0.00149487,-1.24938,0.00309635,0.0252323,762,610,-11.8714,12.4819
-455,414,-11.9345,-13.2229,-0.00051876,0.00221692,-0.00120952,0.00267498,-0.000976821,-1.20877,0.00218304,0.0268698,769,610,-11.9345,13.2229
-448,414,-11.9684,-13.9572,-6.04972e-05,0.00125954,-0.000835974,0.00166464,-0.000465596,-1.11956,0.00129321,0.0254017,776,610,-11.9684,13.9572
-441,414,-11.9839,-14.6957,0.000343303,0.000366195,-0.000447776,0.000802671,-9.3173e-05,-0.798176,0.000568722,0.018709,783,610,-11.984,14.6957
-434,414,-12.0362,-15.4137,0.000722182,-0.000449624,-8.30121e-05,0.000728033,-0.000455475,-0.0703728,0.000689312,0.0107959,790,610,-12.0362,15.4137
-427,414,-12.0667,-16.1502,0.00108561,-0.00118954,0.000228945,0.00110842,-0.00121235,0.0993025,0.00134034,0.0117464,797,610,-12.0667,16.1502
-420,414,-12.0895,-16.8752,0.00142344,-0.00189651,0.000543353,0.00151011,-0.00198318,0.158167,0.002023,0.0115722,804,610,-12.0895,16.8752
-413,414,-12.1314,-17.5966,0.00178866,-0.00233054,0.000699256,0.00190413,-0.002446,0.16365,0.00251803,0.0107367,811,610,-12.1314,17.5966
-406,414,-12.1348,-18.4406,0.00215727,-0.00299577,0.00083034,0.00228776,-0.00312626,0.155881,0.00313826,0.0299926,818,610,-12.1348,18.4405
-399,414,-12.0458,-19.2791,0,0,0,0,0,0,0,-1,825,610,-12.0458,19.2791
-392,414,-9.43781,-14.5624,0,0,0,0,0,0,0,-1,832,610,-9.43779,14.5624
-385,414,-8.14691,-13.0653,0,0,0,0,0,0,0,-1,839,610,-8.14692,13.0653
-378,414,-8.04907,-11.3331,0,0,0,0,0,0,0,-1,846,610,-8.04905,11.3331
-371,414,-5.20886,-8.05151,0,0,0,0,0,0,0,-1,853,610,-5.20887,8.05153
-364,414,-6.76282,-6.58759,0,0,0,0,0,0,0,-1,860,610,-6.7628,6.58756
-357,414,-9.08685,-8.86188,0,0,0,0,0,0,0,-1,867,610,-9.08688,8.86187
-350,414,-6.4502,-2.41821,0,0,0,0,0,0,0,-1,874,610,-6.45021,2.41822
-343,414,-6.80249,-2.32117,0,0,0,0,0,0,0,-1,881,610,-6.80252,2.32116
-336,414,-7.11017,-2.52026,0,0,0,0,0,0,0,-1,888,610,-7.11016,2.52026
-329,414,-7.59747,-2.70313,0,0,0,0,0,0,0,-1,895,610,-7.59747,2.70315
-322,414,-4.42236,-1.29163,0,0,0,0,0,0,0,-1,902,610,-4.42238,1.2916
-315,414,0,0,0,0,0,0,0,0,0,-1,909,610,0,0
-308,414,0,0,0,0,0,0,0,0,0,-1,916,610,0,0
-301,414,0,0,0,0,0,0,0,0,0,-1,923,610,0,0
-294,414,0,0,0,0,0,0,0,0,0,-1,930,610,0,0
-287,414,0,0,0,0,0,0,0,0,0,-1,937,610,0,0
-280,414,0,0,0,0,0,0,0,0,0,-1,944,610,0,0
-273,414,0,0,0,0,0,0,0,0,0,-1,951,610,0,0
-266,414,0,0,0,0,0,0,0,0,0,-1,958,610,0,0
-259,414,0,0,0,0,0,0,0,0,0,-1,965,610,0,0
-252,414,0,0,0,0,0,0,0,0,0,-1,972,610,0,0
-245,414,0,0,0,0,0,0,0,0,0,-1,979,610,0,0
-238,414,0,0,0,0,0,0,0,0,0,-1,986,610,0,0
-231,414,0,0,0,0,0,0,0,0,0,-1,993,610,0,0
-224,414,0,0,0,0,0,0,0,0,0,-1,1000,610,0,0
-217,414,0,0,0,0,0,0,0,0,0,-1,1007,610,0,0
-210,414,0,0,0,0,0,0,0,0,0,-1,1014,610,0,0
-203,414,0,0,0,0,0,0,0,0,0,-1,1021,610,0,0
-196,414,0,0,0,0,0,0,0,0,0,-1,1028,610,0,0
-189,414,0,0,0,0,0,0,0,0,0,-1,1035,610,0,0
-182,414,0,0,0,0,0,0,0,0,0,-1,1042,610,0,0
-175,414,0,0,0,0,0,0,0,0,0,-1,1049,610,0,0
-168,414,0,0,0,0,0,0,0,0,0,-1,1056,610,0,0
-161,414,0,0,0,0,0,0,0,0,0,-1,1063,610,0,0
-154,414,0,0,0,0,0,0,0,0,0,-1,1070,610,0,0
-147,414,0,0,0,0,0,0,0,0,0,-1,1077,610,0,0
-140,414,0,0,0,0,0,0,0,0,0,-1,1084,610,0,0
-133,414,0,0,0,0,0,0,0,0,0,-1,1091,610,0,0
-126,414,0,0,0,0,0,0,0,0,0,-1,1098,610,0,0
-119,414,0,0,0,0,0,0,0,0,0,-1,1105,610,0,0
-112,414,0,0,0,0,0,0,0,0,0,-1,1112,610,0,0
-105,414,0,0,0,0,0,0,0,0,0,-1,1119,610,0,0
-98,414,0,0,0,0,0,0,0,0,0,-1,1126,610,0,0
-91,414,0,0,0,0,0,0,0,0,0,-1,1133,610,0,0
-84,414,0,0,0,0,0,0,0,0,0,-1,1140,610,0,0
-77,414,0,0,0,0,0,0,0,0,0,-1,1147,610,0,0
-70,414,0,0,0,0,0,0,0,0,0,-1,1154,610,0,0
-63,414,0,0,0,0,0,0,0,0,0,-1,1161,610,0,0
-56,414,0,0,0,0,0,0,0,0,0,-1,1168,610,0,0
-49,414,0,0,0,0,0,0,0,0,0,-1,1175,610,0,0
-42,414,0,0,0,0,0,0,0,0,0,-1,1182,610,0,0
-35,414,0,0,0,0,0,0,0,0,0,-1,1189,610,0,0
-28,414,0,0,0,0,0,0,0,0,0,-1,1196,610,0,0
-21,414,0,0,0,0,0,0,0,0,0,-1,1203,610,0,0
-14,414,0,0,0,0,0,0,0,0,0,-1,1210,610,0,0
-7,414,0,0,0,0,0,0,0,0,0,-1,1217,610,0,0
0,414,0,0,0,0,0,0,0,0,0,-1,1224,610,0,0
7,414,0,0,0,0,0,0,0,0,0,-1,1231,610,0,0
14,414,0,0,0,0,0,0,0,0,0,-1,1238,610,0,0
21,414,0,0,0,0,0,0,0,0,0,-1,1245,610,0,0
28,414,0,0,0,0,0,0,0,0,0,-1,1252,610,0,0
35,414,0,0,0,0,0,0,0,0,0,-1,1259,610,0,0
42,414,0,0,0,0,0,0,0,0,0,-1,1266,610,0,0
49,414,0,0,0,0,0,0,0,0,0,-1,1273,610,0,0
56,414,0,0,0,0,0,0,0,0,0,-1,1280,610,0,0
63,414,0,0,0,0,0,0,0,0,0,-1,1287,610,0,0
70,414,0,0,0,0,0,0,0,0,0,-1,1294,610,0,0
77,414,0,0,0,0,0,0,0,0,0,-1,1301,610,0,0
84,414,0,0,0,0,0,0,0,0,0,-1,1308,610,0,0
91,414,0,0,0,0,0,0,0,0,0,-1,1315,610,0,0
98,414,0,0,0,0,0,0,0,0,0,-1,1322,610,0,0
105,414,0,0,0,0,0,0,0,0,0,-1,1329,610,0,0
112,414,0,0,0,0,0,0,0,0,0,-1,1336,610,0,0
119,414,0,0,0,0,0,0,0,0,0,-1,1343,610,0,0
126,414,0,0,0,0,0,0,0,0,0,-1,1350,610,0,0
133,414,0,0,0,0,0,0,0,0,0,-1,1357,610,0,0
140,414,0,0,0,0,0,0,0,0,0,-1,1364,610,0,0
147,414,0,0,0,0,0,0,0,0,0,-1,1371,610,0,0
154,414,0,0,0,0,0,0,0,0,0,-1,1378,610,0,0
161,414,0,0,0,0,0,0,0,0,0,-1,1385,610,0,0
168,414,0,0,0,0,0,0,0,0,0,-1,1392,610,0,0
175,414,0,0,0,0,0,0,0,0,0,-1,1399,610,0,0
182,414,0,0,0,0,0,0,0,0,0,-1,1406,610,0,0
189,414,0,0,0,0,0,0,0,0,0,-1,1413,610,0,0
196,414,0,0,0,0,0,0,0,0,0,-1,1420,610,0,0
203,414,0,0,0,0,0,0,0,0,0,-1,1427,610,0,0
210,414,0,0,0,0,0,0,0,0,0,-1,1434,610,0,0
217,414,0,0,0,0,0,0,0,0,0,-1,1441,610,0,0
224,414,0,0,0,0,0,0,0,0,0,-1,1448,610,0,0
231,414,0,0,0,0,0,0,0,0,0,-1,1455,610,0,0
238,414,0,0,0,0,0,0,0,0,0,-1,1462,610,0,0
245,414,0,0,0,0,0,0,0,0,0,-1,1469,610,0,0
252,414,0,0,0,0,0,0,0,0,0,-1,1476,610,0,0
259,414,0,0,0,0,0,0,0,0,0,-1,1483,610,0,0
266,414,0,0,0,0,0,0,0,0,0,-1,1490,610,0,0
273,414,0,0,0,0,0,0,0,0,0,-1,1497,610,0,0
280,414,0,0,0,0,0,0,0,0,0,-1,1504,610,0,0
287,414,0,0,0,0,0,0,0,0,0,-1,1511,610,0,0
294,414,0,0,0,0,0,0,0,0,0,-1,1518,610,0,0
301,414,0,0,0,0,0,0,0,0,0,-1,1525,610,0,0
308,414,0,0,0,0,0,0,0,0,0,-1,1532,610,0,0
315,414,0,0,0,0,0,0,0,0,0,-1,1539,610,0,0
322,414,0,0,0,0,0,0,0,0,0,-1,1546,610,0,0
329,414,0,0,0,0,0,0,0,0,0,-1,1553,610,0,0
336,414,0,0,0,0,0,0,0,0,0,-1,1560,610,0,0
343,414,0,0,0,0,0,0,0,0,0,-1,1567,610,0,0
350,414,0,0,0,0,0,0,0,0,0,-1,1574,610,0,0
357,414,0,0,0,0,0,0,0,0,0,-1,1581,610,0,0
364,414,0,0,0,0,0,0,0,0,0,-1,1588,610,0,0
371,414,0,0,0,0,0,0,0,0,0,-1,1595,610,0,0
378,414,0,0,0,0,0,0,0,0,0,-1,1602,610,0,0
385,414,0,0,0,0,0,0,0,0,0,-1,1609,610,0,0
392,414,0,0,0,0,0,0,0,0,0,-1,1616,610,0,0
399,414,0,0,0,0,0,0,0,0,0,-1,1623,610,0,0
406,414,0,0,0,0,0,0,0,0,0,-1,1630,610,0,0
413,414,0,0,0,0,0,0,0,0,0,-1,1637,610,0,0
420,414,0,0,0,0,0,0,0,0,0,-1,1644,610,0,0
427,414,0,0,0,0,0,0,0,0,0,-1,1651,610,0,0
434,414,0,0,0,0,0,0,0,0,0,-1,1658,610,0,0
441,414,7.84375,0.584412,0,0,0,0,0,0,0,-1,1665,610,7.84379,-0.584394
448,414,7.40808,1.25446,0,0,0,0,0,0,0,-1,1672,610,7.40807,-1.25446
455,414,6.3512,1.73846,0,0,0,0,0,0,0,-1,1679,610,6.3512,-1.73847
462,414,8.18103,3.22113,0,0,0,0,0,0,0,-1,1686,610,8.18108,-3.22112
469,414,8.38513,2.49579,0,0,0,0,0,0,0,-1,1693,610,8.38516,-2.49576
476,414,8.64099,1.71161,0,0,0,0,0,0,0,-1,1700,610,8.64097,-1.71164
483,414,8.62744,0.687622,0,0,0,0,0,0,0,-1,1707,610,8.62749,-0.687615
490,414,8.38831,-0.0302734,0,0,0,0,0,0,0,-1,1714,610,8.38835,0.0302913
497,414,4.71094,-0.110046,0,0,0,0,0,0,0,-1,1721,610,4.71089,0.110024
504,414,7.19568,-1.43835,0,0,0,0,0,0,0,-1,1728,610,7.19563,1.43836
511,414,5.94153,-1.28772,0,0,0,0,0,0,0,-1,1735,610,5.94151,1.28769
518,414,4.53381,-0.0996704,0,0,0,0,0,0,0,-1,1742,610,4.53378,0.0996819
525,414,6.18811,-1.64056,0,0,0,0,0,0,0,-1,1749,610,6.18814,1.64055
532,414,24.895,-17.4753,0,0,0,0,0,0,0,-1,1756,610,24.8951,17.4753
539,414,25.0271,-16.4949,0,0,0,0,0,0,0,-1,1763,610,25.0271,16.4949
546,414,24.9636,-15.7306,0.00355167,0.00110567,0.00134326,0.00414528,0.000512058,0.416112,0.00260963,0.0169688,1770,610,24.9636,15.7306
553,414,24.9513,-14.9969,0.00277005,0.00107299,0.00105911,0.00327862,0.000564417,0.447672,0.00202401,0.013066,1777,610,24.9513,14.9969
560,414,24.9259,-14.2619,0.00208113,0.00111616,0.000889728,0.00261078,0.000586516,0.536949,0.00158169,0.0151529,1784,610,24.9259,14.2619
567,414,24.8859,-13.4922,0.00159523,0.00129728,0.000887284,0.00234596,0.000546552,0.702223,0.00141736,0.0239194,1791,610,24.8859,13.4922
574,414,24.8132,-12.7529,0.00133421,0.00162251,0.0010391,0.00252742,0.00042931,0.854321,0.00156164,0.0230195,1798,610,24.8133,12.7529
581,414,24.7904,-11.9972,0.00123082,0.00206368,0.00133583,0.00304649,0.000248015,0.936493,0.00195357,0.0201229,1805,610,24.7904,11.9972
588,414,24.7959,-11.2698,0.00135381,0.00277628,0.00181817,0.00401737,0.000112716,0.971839,0.00264148,0.0189213,1812,610,24.7958,11.2698
595,414,24.7141,-10.4305,0.00172817,0.00369436,0.00248178,0.00538066,4.18618e-05,0.973979,0.00357324,0.0213451,1819,610,24.7142,10.4305
602,414,24.6355,-9.67908,0.00230605,0.00489848,0.00330941,0.00715647,4.80646e-05,0.972053,0.00475504,0.026965,1826,610,24.6355,9.67907
609,414,24.6326,-8.90216,0,0,0,0,0,0,0,-1,1833,610,24.6326,8.90214
616,414,24.9271,-7.84332,0,0,0,0,0,0,0,-1,1840,610,24.9272,7.84335
623,414,9.6969,0.0378418,0,0,0,0,0,0,0,-1,1847,610,9.69685,-0.0378644
630,414,5.47144,0.499329,0,0,0,0,0,0,0,-1,1854,610,5.47142,-0.499303
637,414,8.36707,4.16278,0,0,0,0,0,0,0,-1,1861,610,8.36709,-4.16278
644,414,5.87073,1.51422,0,0,0,0,0,0,0,-1,1868,610,5.87076,-1.51424
651,414,3.6377,0.820557,0,0,0,0,0,0,0,-1,1875,610,3.6377,-0.820543
658,414,2.29761,3.87323,0,0,0,0,0,0,0,-1,1882,610,2.29758,-3.87325
665,414,0,0,0,0,0,0,0,0,0,-1,1889,610,0,0
672,414,0,0,0,0,0,0,0,0,0,-1,1896,610,0,0
679,414,0,0,0,0,0,0,0,0,0,-1,1903,610,0,0
686,414,0,0,0,0,0,0,0,0,0,-1,1910,610,0,0
693,414,0,0,0,0,0,0,0,0,0,-1,1917,610,0,0
700,414,0,0,0,0,0,0,0,0,0,-1,1924,610,0,0
707,414,0,0,0,0,0,0,0,0,0,-1,1931,610,0,0
714,414,0,0,0,0,0,0,0,0,0,-1,1938,610,0,0
721,414,0,0,0,0,0,0,0,0,0,-1,1945,610,0,0
728,414,0,0,0,0,0,0,0,0,0,-1,1952,610,0,0
735,414,0,0,0,0,0,0,0,0,0,-1,1959,610,0,0
742,414,0,0,0,0,0,0,0,0,0,-1,1966,610,0,0
749,414,0,0,0,0,0,0,0,0,0,-1,1973,610,0,0
756,414,0,0,0,0,0,0,0,0,0,-1,1980,610,0,0
763,414,0,0,0,0,0,0,0,0,0,-1,1987,610,0,0
770,414,0,0,0,0,0,0,0,0,0,-1,1994,610,0,0
777,414,0,0,0,0,0,0,0,0,0,-1,2001,610,0,0
784,414,0,0,0,0,0,0,0,0,0,-1,2008,610,0,0
791,414,0,0,0,0,0,0,0,0,0,-1,2015,610,0,0
798,414,0,0,0,0,0,0,0,0,0,-1,2022,610,0,0
805,414,0,0,0,0,0,0,0,0,0,-1,2029,610,0,0
812,414,0,0,0,0,0,0,0,0,0,-1,2036,610,0,0
-700,407,0,0,0,0,0,0,0,0,0,-1,524,617,0,0
-693,407,0,0,0,0,0,0,0,0,0,-1,531,617,0,0
-686,407,0,0,0,0,0,0,0,0,0,-1,538,617,0,0
-679,407,0,0,0,0,0,0,0,0,0,-1,545,617,0,0
-672,407,0,0,0,0,0,0,0,0,0,-1,552,617,0,0
-665,407,0,0,0,0,0,0,0,0,0,-1,559,617,0,0
-658,407,0,0,0,0,0,0,0,0,0,-1,566,617,0,0
-651,407,0,0,0,0,0,0,0,0,0,-1,573,617,0,0
-644,407,0,0,0,0,0,0,0,0,0,-1,580,617,0,0
-637,407,0,0,0,0,0,0,0,0,0,-1,587,617,0,0
-630,407,0,0,0,0,0,0,0,0,0,-1,594,617,0,0
-623,407,0,0,0,0,0,0,0,0,0,-1,601,617,0,0
-616,407,0,0,0,0,0,0,0,0,0,-1,608,617,0,0
-609,407,0,0,0,0,0,0,0,0,0,-1,615,617,0,0
-602,407,0,0,0,0,0,0,0,0,0,-1,622,617,0,0
-595,407,0,0,0,0,0,0,0,0,0,-1,629,617,0,0
-588,407,0,0,0,0,0,0,0,0,0,-1,636,617,0,0
-581,407,0,0,0,0,0,0,0,0,0,-1,643,617,0,0
-574,407,0,0,0,0,0,0,0,0,0,-1,650,617,0,0
-567,407,0,0,0,0,0,0,0,0,0,-1,657,617,0,0
-560,407,0,0,0,0,0,0,0,0,0,-1,664,617,0,0
-553,407,0,0,0,0,0,0,0,0,0,-1,671,617,0,0
-546,407,-8.54517,-0.658142,0,0,0,0,0,0,0,-1,678,617,-8.54515,0.658112
-539,407,-6.09442,-1.01154,0,0,0,0,0,0,0,-1,685,617,-6.09441,1.01155
-532,407,-7.75665,1.62152,0,0,0,0,0,0,0,-1,692,617,-7.75667,-1.62154
-525,407,-3.78247,-2.67639,0,0,0,0,0,0,0,-1,699,617,-3.78246,2.67638
-518,407,-5.013,-5.87323,0,0,0,0,0,0,0,-1,706,617,-5.013,5.87324
-511,407,-9.42743,-4.94189,0,0,0,0,0,0,0,-1,713,617,-9.42745,4.94191
-504,407,-10.8291,-8.05927,0,0,0,0,0,0,0,-1,720,617,-10.8291,8.05927
-497,407,-9.84467,-6.81641,0,0,0,0,0,0,0,-1,727,617,-9.84468,6.8164
-490,407,-12.5112,-9.11462,0,0,0,0,0,0,0,-1,734,617,-12.5113,9.11465
-483,407,-12.4764,-10.1669,0,0,0,0,0,0,0,-1,741,617,-12.4764,10.1669
-476,407,-12.5338,-10.9283,-0.00128639,0.00401295,-0.00155256,0.0044343,-0.00170775,-1.30579,0.00366073,0.0157277,748,617,-12.5337,10.9284
-469,407,-12.5959,-11.6578,-0.000921512,0.00308824,-0.00135656,0.00350406,-0.00133733,-1.27336,0.00288698,0.0140008,755,617,-12.5959,11.6579
-462,407,-12.6354,-12.4125,-0.000495907,0.00224102,-0.00113999,0.00265365,-0.00090853,-1.22351,0.00213731,0.0218786,762,617,-12.6355,12.4126
-455,407,-12.6927,-13.1793,-0.00012047,0.00137901,-0.000855256,0.00176663,-0.000508083,-1.14527,0.00137868,0.023127,769,617,-12.6928,13.1793
-448,407,-12.6843,-13.9258,0.000302802,0.000563508,-0.000561277,0.00100937,-0.00014306,-0.899497,0.000725318,0.0202425,776,617,-12.6842,13.9258
-441,407,-12.7017,-14.6372,0.000679394,-0.000251647,-0.000224017,0.00073049,-0.000302744,-0.224254,0.000613341,0.0161039,783,617,-12.7017,14.6372
-434,407,-12.7736,-15.3471,0.0010427,-0.001034,0.000112431,0.00104877,-0.00104007,0.053929,0.001206,0.0114576,790,617,-12.7736,15.3471
-427,407,-12.8057,-16.0848,0.00138656,-0.00180257,0.000422246,0.00144152,-0.00185753,0.129431,0.00190974,0.0121454,797,617,-12.8057,16.0848
-420,407,-12.8142,-16.8167,0.00164364,-0.00261809,0.00081752,0.00179508,-0.00276953,0.183169,0.00265532,0.0123024,804,617,-12.8142,16.8166
-413,407,-12.833,-17.5313,0.00198731,-0.00306182,0.000970542,0.00216744,-0.00324195,0.18351,0.00314359,0.0153953,811,617,-12.833,17.5313
-406,407,-12.9265,-18.04,0.00229939,-0.0039857,0.00117479,0.0025118,-0.00419811,0.178874,0.00391454,0.0490237,818,617,-12.9265,18.04
-399,407,-12.7393,-18.566,0,0,0,0,0,0,0,-1,825,617,-12.7392,18.566
-392,407,-8.33612,-12.195,0,0,0,0,0,0,0,-1,832,617,-8.33611,12.195
-385,407,-7.65765,-10.7744,0,0,0,0,0,0,0,-1,839,617,-7.65767,10.7744
-378,407,-6.08655,-7.42291,0,0,0,0,0,0,0,-1,846,617,-6.08652,7.42292
-371,407,-7.4007,-5.79449,0,0,0,0,0,0,0,-1,853,617,-7.40072,5.79447
-364,407,-10.0638,-6.6228,0,0,0,0,0,0,0,-1,860,617,-10.0639,6.62279
-357,407,-6.64447,-1.83337,0,0,0,0,0,0,0,-1,867,617,-6.64446,1.8334
-350,407,-7.03351,-1.77551,0,0,0,0,0,0,0,-1,874,617,-7.03349,1.77551
-343,407,-7.40967,-1.95026,0,0,0,0,0,0,0,-1,881,617,-7.40969,1.95026
-336,407,-8.10229,-2.40662,0,0,0,0,0,0,0,-1,888,617,-8.10229,2.40664
-329,407,-8.81232,-2.76331,0,0,0,0,0,0,0,-1,895,617,-8.81235,2.76331
-322,407,0,0,0,0,0,0,0,0,0,-1,902,617,0,0
-315,407,0,0,0,0,0,0,0,0,0,-1,909,617,0,0
-308,407,0,0,0,0,0,0,0,0,0,-1,916,617,0,0
-301,407,0,0,0,0,0,0,0,0,0,-1,923,617,0,0
-294,407,0,0,0,0,0,0,0,0,0,-1,930,617,0,0
-287,407,0,0,0,0,0,0,0,0,0,-1,937,617,0,0
-280,407,0,0,0,0,0,0,0,0,0,-1,944,617,0,0
-273,407,0,0,0,0,0,0,0,0,0,-1,951,617,0,0
-266,407,0,0,0,0,0,0,0,0,0,-1,958,617,0,0
-259,407,0,0,0,0,0,0,0,0,0,-1,965,617,0,0
-252,407,0,0,0,0,0,0,0,0,0,-1,972,617,0,0
-245,407,0,0,0,0,0,0,0,0,0,-1,979,617,0,0
-238,407,0,0,0,0,0,0,0,0,0,-1,986,617,0,0
-231,407,0,0,0,0,0,0,0,0,0,-1,993,617,0,0
-224,407,0,0,0,0,0,0,0,0,0,-1,1000,617,0,0
-217,407,0,0,0,0,0,0,0,0,0,-1,1007,617,0,0
-210,407,0,0,0,0,0,0,0,0,0,-1,1014,617,0,0
-203,407,0,0,0,0,0,0,0,0,0,-1,1021,617,0,0
-196,407,0,0,0,0,0,0,0,0,0,-1,1028,617,0,0
-189,407,0,0,0,0,0,0,0,0,0,-1,1035,617,0,0
-182,407,0,0,0,0,0,0,0,0,0,-1,1042,617,0,0
-175,407,0,0,0,0,0,0,0,0,0,-1,1049,617,0,0
-168,407,0,0,0,0,0,0,0,0,0,-1,1056,617,0,0
-161,407,0,0,0,0,0,0,0,0,0,-1,1063,617,0,0
-154,407,0,0,0,0,0,0,0,0,0,-1,1070,617,0,0
-147,407,0,0,0,0,0,0,0,0,0,-1,1077,617,0,0
-140,407,0,0,0,0,0,0,0,0,0,-1,1084,617,0,0
-133,407,0,0,0,0,0,0,0,0,0,-1,1091,617,0,0
-126,407,0,0,0,0,0,0,0,0,0,-1,1098,617,0,0
-119,407,0,0,0,0,0,0,0,0,0,-1,1105,617,0,0
-112,407,0,0,0,0,0,0,0,0,0,-1,1112,617,0,0
-105,407,0,0,0,0,0,0,0,0,0,-1,1119,617,0,0
-98,407,0,0,0,0,0,0,0,0,0,-1,1126,617,0,0
-91,407,0,0,0,0,0,0,0,0,0,-1,1133,617,0,0
-84,407,0,0,0,0,0,0,0,0,0,-1,1140,617,0,0
-77,407,0,0,0,0,0,0,0,0,0,-1,1147,617,0,0
-70,407,0,0,0,0,0,0,0,0,0,-1,1154,617,0,0
-63,407,0,0,0,0,0,0,0,0,0,-1,1161,617,0,0
-56,407,0,0,0,0,0,0,0,0,0,-1,1168,617,0,0
-49,407,0,0,0,0,0,0,0,0,0,-1,1175,617,0,0
-42,407,0,0,0,0,0,0,0,0,0,-1,1182,617,0,0
-35,407,0,0,0,0,0,0,0,0,0,-1,1189,617,0,0
-28,407,0,0,0,0,0,0,0,0,0,-1,1196,617,0,0
-21,407,0,0,0,0,0,0,0,0,0,-1,1203,617,0,0
-14,407,0,0,0,0,0,0,0,0,0,-1,1210,617,0,0
-7,407,0,0,0,0,0,0,0,0,0,-1,1217,617,0,0
0,407,0,0,0,0,0,0,0,0,0,-1,1224,617,0,0
7,407,0,0,0,0,0,0,0,0,0,-1,1231,617,0,0
14,407,0,0,0,0,0,0,0,0,0,-1,1238,617,0,0
21,407,0,0,0,0,0,0,0,0,0,-1,1245,617,0,0
28,407,0,0,0,0,0,0,0,0,0,-1,1252,617,0,0
35,407,0,0,0,0,0,0,0,0,0,-1,1259,617,0,0
42,407,0,0,0,0,0,0,0,0,0,-1,1266,617,0,0
49,407,0,0,0,0,0,0,0,0,0,-1,1273,617,0,0
56,407,0,0,0,0,0,0,0,0,0,-1,1280,617,0,0
63,407,0,0,0,0,0,0,0,0,0,-1,1287,617,0,0
70,407,0,0,0,0,0,0,0,0,0,-1,1294,617,0,0
77,407,0,0,0,0,0,0,0,0,0,-1,1301,617,0,0
84,407,0,0,0,0,0,0,0,0,0,-1,1308,617,0,0
91,407,0,0,0,0,0,0,0,0,0,-1,1315,617,0,0
98,407,0,0,0,0,0,0,0,0,0,-1,1322,617,0,0
105,407,0,0,0,0,0,0,0,0,0,-1,1329,617,0,0
112,407,0,0,0,0,0,0,0,0,0,-1,1336,617,0,0
119,407,0,0,0,0,0,0,0,0,0,-1,1343,617,0,0
126,407,0,0,0,0,0,0,0,0,0,-1,1350,617,0,0
133,407,0,0,0,0,0,0,0,0,0,-1,1357,617,0,0
140,407,0,0,0,0,0,0,0,0,0,-1,1364,617,0,0
147,407,0,0,0,0,0,0,0,0,0,-1,1371,617,0,0
154,407,0,0,0,0,0,0,0,0,0,-1,1378,617,0,0
161,407,0,0,0,0,0,0,0,0,0,-1,1385,617,0,0
168,407,0,0,0,0,0,0,0,0,0,-1,1392,617,0,0
175,407,0,0,0,0,0,0,0,0,0,-1,1399,617,0,0
182,407,0,0,0,0,0,0,0,0,0,-1,1406,617,0,0
189,407,0,0,0,0,0,0,0,0,0,-1,1413,617,0,0
196,407,0,0,0,0,0,0,0,0,0,-1,1420,617,0,0
203,407,0,0,0,0,0,0,0,0,0,-1,1427,617,0,0
210,407,0,0,0,0,0,0,0,0,0,-1,1434,617,0,0
217,407,0,0,0,0,0,0,0,0,0,-1,1441,617,0,0
224,407,0,0,0,0,0,0,0,0,0,-1,1448,617,0,0
231,407,0,0,0,0,0,0,0,0,0,-1,1455,617,0,0
238,407,0,0,0,0,0,0,0,0,0,-1,1462,617,0,0
245,407,0,0,0,0,0,0,0,0,0,-1,1469,617,0,0
252,407,0,0,0,0,0,0,0,0,0,-1,1476,617,0,0
259,407,0,0,0,0,0,0,0,0,0,-1,1483,617,0,0
266,407,0,0,0,0,0,0,0,0,0,-1,1490,617,0,0
273,407,0,0,0,0,0,0,0,0,0,-1,1497,617,0,0
280,407,0,0,0,0,0,0,0,0,0,-1,1504,617,0,0
287,407,0,0,0,0,0,0,0,0,0,-1,1511,617,0,0
294,407,0,0,0,0,0,0,0,0,0,-1,1518,617,0,0
301,407,0,0,0,0,0,0,0,0,0,-1,1525,617,0,0
308,407,0,0,0,0,0,0,0,0,0,-1,1532,617,0,0
315,407,0,0,0,0,0,0,0,0,0,-1,1539,617,0,0
322,407,0,0,0,0,0,0,0,0,0,-1,1546,617,0,0
329,407,0,0,0,0,0,0,0,0,0,-1,1553,617,0,0
336,407,0,0,0,0,0,0,0,0,0,-1,1560,617,0,0
343,407,0,0,0,0,0,0,0,0,0,-1,1567,617,0,0
350,407,0,0,0,0,0,0,0,0,0,-1,1574,617,0,0
357,407,0,0,0,0,0,0,0,0,0,-1,1581,617,0,0
364,407,0,0,0,0,0,0,0,0,0,-1,1588,617,0,0
371,407,0,0,0,0,0,0,0,0,0,-1,1595,617,0,0
378,407,0,0,0,0,0,0,0,0,0,-1,1602,617,0,0
385,407,0,0,0,0,0,0,0,0,0,-1,1609,617,0,0
392,407,0,0,0,0,0,0,0,0,0,-1,1616,617,0,0
399,407,0,0,0,0,0,0,0,0,0,-1,1623,617,0,0
406,407,0,0,0,0,0,0,0,0,0,-1,1630,617,0,0
413,407,0,0,0,0,0,0,0,0,0,-1,1637,617,0,0
420,407,0,0,0,0,0,0,0,0,0,-1,1644,617,0,0
427,407,0,0,0,0,0,0,0,0,0,-1,1651,617,0,0
434,407,0,0,0,0,0,0,0,0,0,-1,1658,617,0,0
441,407,0,0,0,0,0,0,0,0,0,-1,1665,617,0,0
448,407,7.02893,2.13843,0,0,0,0,0,0,0,-1,1672,617,7.02899,-2.13844
455,407,7.55237,2.29242,0,0,0,0,0,0,0,-1,1679,617,7.55236,-2.29244
462,407,8.2926,2.46173,0,0,0,0,0,0,0,-1,1686,617,8.29261,-2.46174
469,407,8.71509,2.22681,0,0,0,0,0,0,0,-1,1693,617,8.71511,-2.22681
476,407,8.89917,1.47766,0,0,0,0,0,0,0,-1,1700,617,8.89914,-1.47768
483,407,9.02612,0.682983,0,0,0,0,0,0,0,-1,1707,617,9.02608,-0.683004
490,407,9.12659,0.000671387,0,0,0,0,0,0,0,-1,1714,617,9.12653,-0.000675931
497,407,7.76819,0.855835,0,0,0,0,0,0,0,-1,1721,617,7.7682,-0.855865
504,407,4.69336,0.160706,0,0,0,0,0,0,0,-1,1728,617,4.69337,-0.1607
511,407,4.07104,-0.00140381,0,0,0,0,0,0,0,-1,1735,617,4.07109,0.00141425
518,407,6.09534,1.9411,0,0,0,0,0,0,0,-1,1742,617,6.09532,-1.94113
525,407,5.72534,-1.35986,0,0,0,0,0,0,0,-1,1749,617,5.72529,1.35988
532,407,18.5767,-10.6388,0,0,0,0,0,0,0,-1,1756,617,18.5766,10.6388
539,407,25.6456,-16.5266,0,0,0,0,0,0,0,-1,1763,617,25.6456,16.5266
546,407,25.723,-15.687,0.00390658,0.00142955,0.00153732,0.00464222,0.000693909,0.446316,0.0028914,0.0261694,1770,617,25.7231,15.687
553,407,25.6705,-14.9666,0.00303188,0.00121058,0.00116081,0.00359662,0.000645844,0.452792,0.00221409,0.0169964,1777,617,25.6706,14.9666
560,407,25.658,-14.2107,0.0022741,0.00108643,0.000891404,0.00275136,0.000609169,0.491564,0.00166867,0.0177863,1784,617,25.6579,14.2107
567,407,25.6182,-13.4641,0.00171904,0.00108096,0.000783694,0.00224614,0.000553853,0.592095,0.00135119,0.0308851,1791,617,25.6181,13.4641
574,407,25.5735,-12.7543,0.0014247,0.00127683,0.000874565,0.00222845,0.000473078,0.743227,0.00135574,0.0266693,1798,617,25.5735,12.7543
581,407,25.5199,-11.9566,0.00129089,0.00160745,0.001104,0.00256446,0.000333888,0.856599,0.00160992,0.0179857,1805,617,25.5199,11.9566
588,407,25.4939,-11.1907,0.00137235,0.0022072,0.00151372,0.00336,0.000219554,0.919935,0.00217052,0.0136866,1812,617,25.4939,11.1907
595,407,25.5005,-10.4258,0.00175524,0.00300946,0.00213239,0.00460505,0.000159659,0.92841,0.00301822,0.0267407,1819,617,25.5005,10.4258
602,407,25.4398,-9.64099,0.00241621,0.00407427,0.00294473,0.00630444,0.000186041,0.922612,0.00414234,0.0215074,1826,617,25.4398,9.64099
609,407,25.3591,-8.84918,0.00342662,0.00545697,0.00401872,0.00858676,0.000296838,0.909115,0.00562817,0.0201284,1833,617,25.3591,8.84915
616,407,25.41,-7.94019,0.00484445,0.00727298,0.00538193,0.0115759,0.000541504,0.89635,0.00754326,0.0350397,1840,617,25.41,7.94017
623,407,25.6725,-6.91223,0,0,0,0,0,0,0,-1,1847,617,25.6725,6.9122
630,407,7.06177,0.814575,0,0,0,0,0,0,0,-1,1854,617,7.06178,-0.814579
637,407,10.6217,0.479431,0,0,0,0,0,0,0,-1,1861,617,10.6217,-0.479432
644,407,5.09766,2.27747,0,0,0,0,0,0,0,-1,1868,617,5.09764,-2.27746
651,407,7.37524,0.0513916,0,0,0,0,0,0,0,-1,1875,617,7.3752,-0.0513923
658,407,3.76685,0.594177,0,0,0,0,0,0,0,-1,1882,617,3.76683,-0.594184
665,407,5.76123,0.375061,0,0,0,0,0,0,0,-1,1889,617,5.76118,-0.37509
672,407,0,0,0,0,0,0,0,0,0,-1,1896,617,0,0
679,407,0,0,0,0,0,0,0,0,0,-1,1903,617,0,0
686,407,0,0,0,0,0,0,0,0,0,-1,1910,617,0,0
693,407,0,0,0,0,0,0,0,0,0,-1,1917,617,0,0
700,407,0,0,0,0,0,0,0,0,0,-1,1924,617,0,0
707,407,0,0,0,0,0,0,0,0,0,-1,1931,617,0,0
714,407,0,0,0,0,0,0,0,0,0,-1,1938,617,0,0
721,407,0,0,0,0,0,0,0,0,0,-1,1945,617,0,0
728,407,0,0,0,0,0,0,0,0,0,-1,1952,617,0,0
735,407,0,0,0,0,0,0,0,0,0,-1,1959,617,0,0
742,407,0,0,0,0,0,0,0,0,0,-1,1966,617,0,0
749,407,0,0,0,0,0,0,0,0,0,-1,1973,617,0,0
756,407,0,0,0,0,0,0,0,0,0,-1,1980,617,0,0
763,407,0,0,0,0,0,0,0,0,0,-1,1987,617,0,0
770,407,0,0,0,0,0,0,0,0,0,-1,1994,617,0,0
777,407,0,0,0,0,0,0,0,0,0,-1,2001,617,0,0
784,407,0,0,0,0,0,0,0,0,0,-1,2008,617,0,0
791,407,0,0,0,0,0,0,0,0,0,-1,2015,617,0,0
798,407,0,0,0,0,0,0,0,0,0,-1,2022,617,0,0
805,407,0,0,0,0,0,0,0,0,0,-1,2029,617,0,0
812,407,0,0,0,0,0,0,0,0,0,-1,2036,617,0,0
-700,400,0,0,0,0,0,0,0,0,0,-1,524,624,0,0
-693,400,0,0,0,0,0,0,0,0,0,-1,531,624,0,0
-686,400,0,0,0,0,0,0,0,0,0,-1,538,624,0,0
-679,400,0,0,0,0,0,0,0,0,0,-1,545,624,0,0
-672,400,0,0,0,0,0,0,0,0,0,-1,552,624,0,0
-665,400,0,0,0,0,0,0,0,0,0,-1,559,624,0,0
-658,400,0,0,0,0,0,0,0,0,0,-1,566,624,0,0
-651,400,0,0,0,0,0,0,0,0,0,-1,573,624,0,0
-644,400,0,0,0,0,0,0,0,0,0,-1,580,624,0,0
-637,400,0,0,0,0,0,0,0,0,0,-1,587,624,0,0
-630,400,0,0,0,0,0,0,0,0,0,-1,594,624,0,0
-623,400,0,0,0,0,0,0,0,0,0,-1,601,624,0,0
-616,400,0,0,0,0,0,0,0,0,0,-1,608,624,0,0
-609,400,0,0,0,0,0,0,0,0,0,-1,615,624,0,0
-602,400,0,0,0,0,0,0,0,0,0,-1,622,624,0,0
-595,400,0,0,0,0,0,0,0,0,0,-1,629,624,0,0
-588,400,0,0,0,0,0,0,0,0,0,-1,636,624,0,0
-581,400,0,0,0,0,0,0,0,0,0,-1,643,624,0,0
-574,400,0,0,0,0,0,0,0,0,0,-1,650,624,0,0
-567,400,0,0,0,0,0,0,0,0,0,-1,657,624,0,0
-560,400,0,0,0,0,0,0,0,0,0,-1,664,624,0,0
-553,400,0,0,0,0,0,0,0,0,0,-1,671,624,0,0
-546,400,-8.41174,-1.4599,0,0,0,0,0,0,0,-1,678,624,-8.41173,1.45989
-539,400,-5.69104,-1.7337,0,0,0,0,0,0,0,-1,685,624,-5.69103,1.7337
-532,400,-3.03632,-2.03912,0,0,0,0,0,0,0,-1,692,624,-3.03632,2.03909
-525,400,-6.20813,-7.04071,0,0,0,0,0,0,0,-1,699,624,-6.20814,7.04071
-518,400,-5.26544,-1.58661,0,0,0,0,0,0,0,-1,706,624,-5.26544,1.58658
-511,400,-10.6307,-6.7121,0,0,0,0,0,0,0,-1,713,624,-10.6307,6.71209
-504,400,-10.2663,-6.55109,0,0,0,0,0,0,0,-1,720,624,-10.2663,6.55106
-497,400,-13.2248,-8.34595,0,0,0,0,0,0,0,-1,727,624,-13.2248,8.34595
-490,400,-13.2766,-9.25189,0,0,0,0,0,0,0,-1,734,624,-13.2766,9.25187
-483,400,-13.2501,-10.1417,-0.000755337,0.00353613,-0.00128001,0.00388892,-0.00110812,-1.30186,0.00303029,0.0177577,741,624,-13.2501,10.1416
-476,400,-13.2723,-10.8804,-0.000637102,0.00283211,-0.00114597,0.00317647,-0.000981465,-1.27888,0.00250961,0.0144436,748,624,-13.2724,10.8804
-469,400,-13.3226,-11.6465,-0.000348755,0.00213741,-0.00102319,0.00250435,-0.000715696,-1.22646,0.00195236,0.0157385,755,624,-13.3226,11.6465
-462,400,-13.3435,-12.4088,-1.5911e-05,0.00146022,-0.00085738,0.00185345,-0.000409146,-1.14077,0.0013922,0.0210867,762,624,-13.3435,12.4088
-455,400,-13.3809,-13.134,0.000315591,0.000691369,-0.000629931,0.00116084,-0.000153875,-0.930332,0.00082995,0.0216637,769,624,-13.3809,13.134
-448,400,-13.4166,-13.8659,0.000723288,-9.05555e-06,-0.000402158,0.000901003,-0.000186771,-0.416101,0.000671638,0.0162067,776,624,-13.4166,13.8659
-441,400,-13.4413,-14.5679,0.00109231,-0.00075925,-0.000111834,0.00109904,-0.000765981,-0.0601085,0.00108248,0.015269,783,624,-13.4413,14.5679
-434,400,-13.5034,-15.2797,0.00145506,-0.00151674,0.000200884,0.00146858,-0.00153026,0.0671891,0.0017315,0.0121087,790,624,-13.5034,15.2797
-427,400,-13.5565,-16.005,0.0017877,-0.00233411,0.000525695,0.00185369,-0.0024001,0.124877,0.00246267,0.0104407,797,624,-13.5565,16.005
-420,400,-13.5195,-16.786,0.00194837,-0.00330791,0.00103743,0.00214571,-0.00350526,0.187981,0.00329391,0.0182208,804,624,-13.5196,16.786
-413,400,-13.6282,-17.3901,0.0022231,-0.0038471,0.00124002,0.00246664,-0.00409064,0.193931,0.00382435,0.045806,811,624,-13.6282,17.3901
-406,400,-13.6141,-17.5056,0,0,0,0,0,0,0,-1,818,624,-13.6142,17.5056
-399,400,-11.0176,-13.2944,0,0,0,0,0,0,0,-1,825,624,-11.0176,13.2944
-392,400,-4.92285,-6.63354,0,0,0,0,0,0,0,-1,832,624,-4.92285,6.63354
-385,400,-3.68738,-5.04205,0,0,0,0,0,0,0,-1,839,624,-3.68736,5.04207
-378,400,-6.84064,-1.28662,0,0,0,0,0,0,0,-1,846,624,-6.84062,1.28662
-371,400,-6.98865,-1.2572,0,0,0,0,0,0,0,-1,853,624,-6.98865,1.25721
-364,400,-6.97247,-1.24133,0,0,0,0,0,0,0,-1,860,624,-6.97249,1.24135
-357,400,-7.18329,-1.23218,0,0,0,0,0,0,0,-1,867,624,-7.18327,1.2322
-350,400,-7.40186,-1.19409,0,0,0,0,0,0,0,-1,874,624,-7.40187,1.19407
-343,400,-8.09357,-1.51147,0,0,0,0,0,0,0,-1,881,624,-8.09355,1.51148
-336,400,0,0,0,0,0,0,0,0,0,-1,888,624,0,0
-329,400,0,0,0,0,0,0,0,0,0,-1,895,624,0,0
-322,400,0,0,0,0,0,0,0,0,0,-1,902,624,0,0
-315,400,0,0,0,0,0,0,0,0,0,-1,909,624,0,0
-308,400,0,0,0,0,0,0,0,0,0,-1,916,624,0,0
-301,400,0,0,0,0,0,0,0,0,0,-1,923,624,0,0
-294,400,0,0,0,0,0,0,0,0,0,-1,930,624,0,0
-287,400,0,0,0,0,0,0,0,0,0,-1,937,624,0,0
-280,400,0,0,0,0,0,0,0,0,0,-1,944,624,0,0
-273,400,0,0,0,0,0,0,0,0,0,-1,951,624,0,0
-266,400,0,0,0,0,0,0,0,0,0,-1,958,624,0,0
-259,400,0,0,0,0,0,0,0,0,0,-1,965,624,0,0
-252,400,0,0,0,0,0,0,0,0,0,-1,972,624,0,0
-245,400,0,0,0,0,0,0,0,0,0,-1,979,624,0,0
-238,400,0,0,0,0,0,0,0,0,0,-1,986,624,0,0
-231,400,0,0,0,0,0,0,0,0,0,-1,993,624,0,0
-224,400,0,0,0,0,0,0,0,0,0,-1,1000,624,0,0
-217,400,0,0,0,0,0,0,0,0,0,-1,1007,624,0,0
-210,400,0,0,0,0,0,0,0,0,0,-1,1014,624,0,0
-203,400,0,0,0,0,0,0,0,0,0,-1,1021,624,0,0
-196,400,0,0,0,0,0,0,0,0,0,-1,1028,624,0,0
-189,400,0,0,0,0,0,0,0,0,0,-1,1035,624,0,0
-182,400,0,0,0,0,0,0,0,0,0,-1,1042,624,0,0
-175,400,0,0,0,0,0,0,0,0,0,-1,1049,624,0,0
-168,400,0,0,0,0,0,0,0,0,0,-1,1056,624,0,0
-161,400,0,0,0,0,0,0,0,0,0,-1,1063,624,0,0
-154,400,0,0,0,0,0,0,0,0,0,-1,1070,624,0,0
-147,400,0,0,0,0,0,0,0,0,0,-1,1077,624,0,0
-140,400,0,0,0,0,0,0,0,0,0,-1,1084,624,0,0
-133,400,0,0,0,0,0,0,0,0,0,-1,1091,624,0,0
-126,400,0,0,0,0,0,0,0,0,0,-1,1098,624,0,0
-119,400,0,0,0,0,0,0,0,0,0,-1,1105,624,0,0
-112,400,0,0,0,0,0,0,0,0,0,-1,1112,624,0,0
-105,400,0,0,0,0,0,0,0,0,0,-1,1119,624,0,0
-98,400,0,0,0,0,0,0,0,0,0,-1,1126,624,0,0
-91,400,0,0,0,0,0,0,0,0,0,-1,1133,624,0,0
-84,400,0,0,0,0,0,0,0,0,0,-1,1140,624,0,0
-77,400,0,0,0,0,0,0,0,0,0,-1,1147,624,0,0
-70,400,0,0,0,0,0,0,0,0,0,-1,1154,624,0,0
-63,400,0,0,0,0,0,0,0,0,0,-1,1161,624,0,0
-56,400,0,0,0,0,0,0,0,0,0,-1,1168,624,0,0
-49,400,0,0,0,0,0,0,0,0,0,-1,1175,624,0,0
-42,400,0,0,0,0,0,0,0,0,0,-1,1182,624,0,0
-35,400,0,0,0,0,0,0,0,0,0,-1,1189,624,0,0
-28,400,0,0,0,0,0,0,0,0,0,-1,1196,624,0,0
-21,400,0,0,0,0,0,0,0,0,0,-1,1203,624,0,0
-14,400,0,0,0,0,0,0,0,0,0,-1,1210,624,0,0
-7,400,0,0,0,0,0,0,0,0,0,-1,1217,624,0,0
0,400,0,0,0,0,0,0,0,0,0,-1,1224,624,0,0
7,400,0,0,0,0,0,0,0,0,0,-1,1231,624,0,0
14,400,0,0,0,0,0,0,0,0,0,-1,1238,624,0,0
21,400,0,0,0,0,0,0,0,0,0,-1,1245,624,0,0
28,400,0,0,0,0,0,0,0,0,0,-1,1252,624,0,0
35,400,0,0,0,0,0,0,0,0,0,-1,1259,624,0,0
42,400,0,0,0,0,0,0,0,0,0,-1,1266,624,0,0
49,400,0,0,0,0,0,0,0,0,0,-1,1273,624,0,0
56,400,0,0,0,0,0,0,0,0,0,-1,1280,624,0,0
63,400,0,0,0,0,0,0,0,0,0,-1,1287,624,0,0
70,400,0,0,0,0,0,0,0,0,0,-1,1294,624,0,0
77,400,0,0,0,0,0,0,0,0,0,-1,1301,624,0,0
84,400,0,0,0,0,0,0,0,0,0,-1,1308,624,0,0
91,400,0,0,0,0,0,0,0,0,0,-1,1315,624,0,0
98,400,0,0,0,0,0,0,0,0,0,-1,1322,624,0,0
105,400,0,0,0,0,0,0,0,0,0,-1,1329,624,0,0
112,400,0,0,0,0,0,0,0,0,0,-1,1336,624,0,0
119,400,0,0,0,0,0,0,0,0,0,-1,1343,624,0,0
126,400,0,0,0,0,0,0,0,0,0,-1,1350,624,0,0
133,400,0,0,0,0,0,0,0,0,0,-1,1357,624,0,0
140,400,0,0,0,0,0,0,0,0,0,-1,1364,624,0,0
147,400,0,0,0,0,0,0,0,0,0,-1,1371,624,0,0
154,400,0,0,0,0,0,0,0,0,0,-1,1378,624,0,0
161,400,0,0,0,0,0,0,0,0,0,-1,1385,624,0,0
168,400,0,0,0,0,0,0,0,0,0,-1,1392,624,0,0
175,400,0,0,0,0,0,0,0,0,0,-1,1399,624,0,0
182,400,0,0,0,0,0,0,0,0,0,-1,1406,624,0,0
189,400,0,0,0,0,0,0,0,0,0,-1,1413,624,0,0
196,400,0,0,0,0,0,0,0,0,0,-1,1420,624,0,0
203,400,0,0,0,0,0,0,0,0,0,-1,1427,624,0,0
210,400,0,0,0,0,0,0,0,0,0,-1,1434,624,0,0
217,400,0,0,0,0,0,0,0,0,0,-1,1441,624,0,0
224,400,0,0,0,0,0,0,0,0,0,-1,1448,624,0,0
231,400,0,0,0,0,0,0,0,0,0,-1,1455,624,0,0
238,400,0,0,0,0,0,0,0,0,0,-1,1462,624,0,0
245,400,0,0,0,0,0,0,0,0,0,-1,1469,624,0,0
252,400,0,0,0,0,0,0,0,0,0,-1,1476,624,0,0
259,400,0,0,0,0,0,0,0,0,0,-1,1483,624,0,0
266,400,0,0,0,0,0,0,0,0,0,-1,1490,624,0,0
273,400,0,0,0,0,0,0,0,0,0,-1,1497,624,0,0
280,400,0,0,0,0,0,0,0,0,0,-1,1504,624,0,0
287,400,0,0,0,0,0,0,0,0,0,-1,1511,624,0,0
294,400,0,0,0,0,0,0,0,0,0,-1,1518,624,0,0
301,400,0,0,0,0,0,0,0,0,0,-1,1525,624,0,0
308,400,0,0,0,0,0,0,0,0,0,-1,1532,624,0,0
315,400,0,0,0,0,0,0,0,0,0,-1,1539,624,0,0
322,400,0,0,0,0,0,0,0,0,0,-1,1546,624,0,0
329,400,0,0,0,0,0,0,0,0,0,-1,1553,624,0,0
336,400,0,0,0,0,0,0,0,0,0,-1,1560,624,0,0
343,400,0,0,0,0,0,0,0,0,0,-1,1567,624,0,0
350,400,0,0,0,0,0,0,0,0,0,-1,1574,624,0,0
357,400,0,0,0,0,0,0,0,0,0,-1,1581,624,0,0
364,400,0,0,0,0,0,0,0,0,0,-1,1588,624,0,0
371,400,0,0,0,0,0,0,0,0,0,-1,1595,624,0,0
378,400,0,0,0,0,0,0,0,0,0,-1,1602,624,0,0
385,400,0,0,0,0,0,0,0,0,0,-1,1609,624,0,0
392,400,0,0,0,0,0,0,0,0,0,-1,1616,624,0,0
399,400,0,0,0,0,0,0,0,0,0,-1,1623,624,0,0
406,400,0,0,0,0,0,0,0,0,0,-1,1630,624,0,0
413,400,0,0,0,0,0,0,0,0,0,-1,1637,624,0,0
420,400,0,0,0,0,0,0,0,0,0,-1,1644,624,0,0
427,400,0,0,0,0,0,0,0,0,0,-1,1651,624,0,0
434,400,0,0,0,0,0,0,0,0,0,-1,1658,624,0,0
441,400,0,0,0,0,0,0,0,0,0,-1,1665,624,0,0
448,400,0,0,0,0,0,0,0,0,0,-1,1672,624,0,0
455,400,8.91309,2.75885,0,0,0,0,0,0,0,-1,1679,624,8.91312,-2.75885
462,400,8.90356,2.37878,0,0,0,0,0,0,0,-1,1686,624,8.90353,-2.37878
469,400,9.14429,1.76849,0,0,0,0,0,0,0,-1,1693,624,9.14432,-1.76847
476,400,9.23254,1.25995,0,0,0,0,0,0,0,-1,1700,624,9.23252,-1.25994
483,400,9.59766,0.562439,0,0,0,0,0,0,0,-1,1707,624,9.59771,-0.56242
490,400,9.92578,-0.213745,0,0,0,0,0,0,0,-1,1714,624,9.92579,0.21376
497,400,9.19141,0.175232,0,0,0,0,0,0,0,-1,1721,624,9.19138,-0.175209
504,400,9.23438,0.00823975,0,0,0,0,0,0,0,-1,1728,624,9.23436,-0.00823766
511,400,6.16687,3.3501,0,0,0,0,0,0,0,-1,1735,624,6.16682,-3.35007
518,400,6.55237,1.74994,0,0,0,0,0,0,0,-1,1742,624,6.55236,-1.74993
525,400,6.99731,1.08783,0,0,0,0,0,0,0,-1,1749,624,6.99736,-1.08785
532,400,6.96582,-1.74982,0,0,0,0,0,0,0,-1,1756,624,6.96585,1.74983
539,400,21.2305,-10.5841,0,0,0,0,0,0,0,-1,1763,624,21.2304,10.5841
546,400,26.278,-15.7693,0,0,0,0,0,0,0,-1,1770,624,26.278,15.7693
553,400,26.3419,-14.9529,0.00335162,0.00147077,0.00122222,0.00395334,0.000869048,0.457484,0.00239894,0.0428072,1777,624,26.3419,14.9529
560,400,26.3978,-14.1512,0.00248929,0.00119406,0.000860697,0.0029188,0.000764545,0.46287,0.00174768,0.0172563,1784,624,26.3979,14.1512
567,400,26.3851,-13.4005,0.00180918,0.00100261,0.000642699,0.00216464,0.000647145,0.505207,0.00128299,0.0192407,1791,624,26.3851,13.4005
574,400,26.3411,-12.6786,0.00143262,0.00107629,0.000674714,0.0019523,0.000556614,0.656314,0.00116134,0.020892,1798,624,26.3411,12.6786
581,400,26.2791,-11.9131,0.0012295,0.00130914,0.000846522,0.00211678,0.00042186,0.8089,0.0012937,0.0210316,1805,624,26.279,11.9131
588,400,26.2183,-11.0972,0.00124619,0.00179737,0.00120406,0.00275697,0.000286585,0.897903,0.00175029,0.0184452,1812,624,26.2182,11.0972
595,400,26.2382,-10.3796,0.00159291,0.00248443,0.001783,0.00387655,0.000200794,0.90789,0.0025201,0.0173799,1819,624,26.2382,10.3796
602,400,26.2178,-9.6394,0.00222439,0.00340831,0.00256895,0.00545261,0.000180078,0.898636,0.00357656,0.0156868,1826,624,26.2178,9.6394
609,400,26.1018,-8.8515,0.00310199,0.00457719,0.00354705,0.00746252,0.000216661,0.887911,0.00490439,0.0157877,1833,624,26.1018,8.85147
616,400,26.0571,-8.06232,0.0043441,0.00610391,0.00479456,0.0100986,0.000349375,0.876149,0.00661904,0.0197359,1840,624,26.0571,8.06231
623,400,26.1921,-6.90186,0,0,0,0,0,0,0,-1,1847,624,26.1921,6.90187
630,400,11.9432,0.09021,0,0,0,0,0,0,0,-1,1854,624,11.9432,-0.0902007
637,400,6.92896,1.01917,0,0,0,0,0,0,0,-1,1861,624,6.92899,-1.01918
644,400,8.65381,1.4599,0,0,0,0,0,0,0,-1,1868,624,8.65379,-1.45991
651,400,7.90601,0.424072,0,0,0,0,0,0,0,-1,1875,624,7.90598,-0.424097
658,400,8.69031,1.0484,0,0,0,0,0,0,0,-1,1882,624,8.6903,-1.0484
665,400,5.98438,0.522522,0,0,0,0,0,0,0,-1,1889,624,5.98442,-0.522552
672,400,0,0,0,0,0,0,0,0,0,-1,1896,624,0,0
679,400,0,0,0,0,0,0,0,0,0,-1,1903,624,0,0
686,400,0,0,0,0,0,0,0,0,0,-1,1910,624,0,0
693,400,0,0,0,0,0,0,0,0,0,-1,1917,624,0,0
700,400,0,0,0,0,0,0,0,0,0,-1,1924,624,0,0
707,400,0,0,0,0,0,0,0,0,0,-1,1931,624,0,0
714,400,0,0,0,0,0,0,0,0,0,-1,1938,624,0,0
721,400,0,0,0,0,0,0,0,0,0,-1,1945,624,0,0
728,400,0,0,0,0,0,0,0,0,0,-1,1952,624,0,0
735,400,0,0,0,0,0,0,0,0,0,-1,1959,624,0,0
742,400,0,0,0,0,0,0,0,0,0,-1,1966,624,0,0
749,400,0,0,0,0,0,0,0,0,0,-1,1973,624,0,0
756,400,0,0,0,0,0,0,0,0,0,-1,1980,624,0,0
763,400,0,0,0,0,0,0,0,0,0,-1,1987,624,0,0
770,400,0,0,0,0,0,0,0,0,0,-1,1994,624,0,0
777,400,0,0,0,0,0,0,0,0,0,-1,2001,624,0,0
784,400,0,0,0,0,0,0,0,0,0,-1,2008,624,0,0
791,400,0,0,0,0,0,0,0,0,0,-1,2015,624,0,0
798,400,0,0,0,0,0,0,0,0,0,-1,2022,624,0,0
805,400,0,0,0,0,0,0,0,0,0,-1,2029,624,0,0
812,400,0,0,0,0,0,0,0,0,0,-1,2036,624,0,0
-700,393,0,0,0,0,0,0,0,0,0,-1,524,631,0,0
-693,393,0,0,0,0,0,0,0,0,0,-1,531,631,0,0
-686,393,0,0,0,0,0,0,0,0,0,-1,538,631,0,0
-679,393,0,0,0,0,0,0,0,0,0,-1,545,631,0,0
-672,393,0,0,0,0,0,0,0,0,0,-1,552,631,0,0
-665,393,0,0,0,0,0,0,0,0,0,-1,559,631,0,0
-658,393,0,0,0,0,0,0,0,0,0,-1,566,631,0,0
-651,393,0,0,0,0,0,0,0,0,0,-1,573,631,0,0
-644,393,0,0,0,0,0,0,0,0,0,-1,580,631,0,0
-637,393,0,0,0,0,0,0,0,0,0,-1,587,631,0,0
-630,393,0,0,0,0,0,0,0,0,0,-1,594,631,0,0
-623,393,0,0,0,0,0,0,0,0,0,-1,601,631,0,0
-616,393,0,0,0,0,0,0,0,0,0,-1,608,631,0,0
-609,393,0,0,0,0,0,0,0,0,0,-1,615,631,0,0
-602,393,0,0,0,0,0,0,0,0,0,-1,622,631,0,0
-595,393,0,0,0,0,0,0,0,0,0,-1,629,631,0,0
-588,393,0,0,0,0,0,0,0,0,0,-1,636,631,0,0
-581,393,0,0,0,0,0,0,0,0,0,-1,643,631,0,0
-574,393,0,0,0,0,0,0,0,0,0,-1,650,631,0,0
-567,393,0,0,0,0,0,0,0,0,0,-1,657,631,0,0
-560,393,0,0,0,0,0,0,0,0,0,-1,664,631,0,0
-553,393,-2.35107,3.92633,0,0,0,0,0,0,0,-1,671,631,-2.35108,-3.92634
-546,393,-1.78778,2.4856,0,0,0,0,0,0,0,-1,678,631,-1.78778,-2.48557
-539,393,-5.2113,-2.20245,0,0,0,0,0,0,0,-1,685,631,-5.21128,2.20247
-532,393,-2.83643,-2.01624,0,0,0,0,0,0,0,-1,692,631,-2.83642,2.01626
-525,393,-5.9505,-0.952698,0,0,0,0,0,0,0,-1,699,631,-5.95053,0.95268
-518,393,-5.80219,-1.57739,0,0,0,0,0,0,0,-1,706,631,-5.80219,1.57738
-511,393,-6.15527,-2.09906,0,0,0,0,0,0,0,-1,713,631,-6.15526,2.09903
-504,393,-13.6063,-6.95947,0,0,0,0,0,0,0,-1,720,631,-13.6063,6.95946
-497,393,-14.0444,-8.14587,0,0,0,0,0,0,0,-1,727,631,-14.0444,8.14585
-490,393,-13.951,-9.3064,-9.82883e-05,0.00298145,-0.00101257,0.00328454,-0.000401378,-1.27996,0.00233501,0.0244956,734,631,-13.951,9.3064
-483,393,-13.9702,-10.0896,-0.00013136,0.00244954,-0.000949034,0.00276094,-0.000442762,-1.25374,0.00200458,0.020879,741,631,-13.9702,10.0896
-476,393,-13.9959,-10.826,-3.37766e-05,0.00195245,-0.000889905,0.00229283,-0.000374156,-1.20548,0.00166733,0.0169497,748,631,-13.9959,10.8261
-469,393,-14.0456,-11.5931,0.000212372,0.00145414,-0.000838186,0.00187635,-0.000209842,-1.10417,0.00132639,0.0130305,755,631,-14.0456,11.5932
-462,393,-14.0675,-12.3732,0.000486114,0.000918562,-0.000720556,0.00145464,-4.99608e-05,-0.931163,0.000986833,0.0157678,762,631,-14.0675,12.3732
-455,393,-14.1088,-13.1262,0.000789988,0.000226599,-0.000541586,0.00111876,-0.000102172,-0.545588,0.000782124,0.0151078,769,631,-14.1088,13.1262
-448,393,-14.1694,-13.854,0.00118153,-0.000387627,-0.000364275,0.00126197,-0.000468069,-0.217338,0.0010333,0.0142129,776,631,-14.1694,13.854
-441,393,-14.2071,-14.5623,0.00154725,-0.00108796,-0.000115261,0.00155228,-0.00109299,-0.0436278,0.0015349,0.0131314,783,631,-14.2071,14.5623
-434,393,-14.2464,-15.2451,0.00190597,-0.00183467,0.000178533,0.00191447,-0.00184317,0.0475837,0.00216961,0.0121276,790,631,-14.2464,15.2451
-427,393,-14.238,-15.9907,0.00220905,-0.00273356,0.000537655,0.00226686,-0.00279137,0.10711,0.0029256,0.0210734,797,631,-14.238,15.9907
-420,393,-14.1677,-16.8189,0,0,0,0,0,0,0,-1,804,631,-14.1677,16.8189
-413,393,-14.4404,-17.42,0,0,0,0,0,0,0,-1,811,631,-14.4404,17.42
-406,393,-11.826,-12.7987,0,0,0,0,0,0,0,-1,818,631,-11.8261,12.7987
-399,393,-5.07343,-5.92365,0,0,0,0,0,0,0,-1,825,631,-5.07344,5.92364
-392,393,-2.08063,-3.02386,0,0,0,0,0,0,0,-1,832,631,-2.08063,3.02384
-385,393,-3.16931,-0.624756,0,0,0,0,0,0,0,-1,839,631,-3.16928,0.624764
-378,393,-7.33081,-0.872314,0,0,0,0,0,0,0,-1,846,631,-7.33081,0.872325
-371,393,-7.47858,-0.811096,0,0,0,0,0,0,0,-1,853,631,-7.47859,0.811075
-364,393,-7.64917,-0.662415,0,0,0,0,0,0,0,-1,860,631,-7.64917,0.662406
-357,393,-8.09686,-0.726013,0,0,0,0,0,0,0,-1,867,631,-8.09689,0.726029
-350,393,-8.38788,-0.511841,0,0,0,0,0,0,0,-1,874,631,-8.38785,0.511811
-343,393,0,0,0,0,0,0,0,0,0,-1,881,631,0,0
-336,393,0,0,0,0,0,0,0,0,0,-1,888,631,0,0
-329,393,0,0,0,0,0,0,0,0,0,-1,895,631,0,0
-322,393,0,0,0,0,0,0,0,0,0,-1,902,631,0,0
-315,393,0,0,0,0,0,0,0,0,0,-1,909,631,0,0
-308,393,0,0,0,0,0,0,0,0,0,-1,916,631,0,0
-301,393,0,0,0,0,0,0,0,0,0,-1,923,631,0,0
-294,393,0,0,0,0,0,0,0,0,0,-1,930,631,0,0
-287,393,0,0,0,0,0,0,0,0,0,-1,937,631,0,0
-280,393,0,0,0,0,0,0,0,0,0,-1,944,631,0,0
-273,393,0,0,0,0,0,0,0,0,0,-1,951,631,0,0
-266,393,0,0,0,0,0,0,0,0,0,-1,958,631,0,0
-259,393,0,0,0,0,0,0,0,0,0,-1,965,631,0,0
-252,393,0,0,0,0,0,0,0,0,0,-1,972,631,0,0
-245,393,0,0,0,0,0,0,0,0,0,-1,979,631,0,0
-238,393,0,0,0,0,0,0,0,0,0,-1,986,631,0,0
-231,393,0,0,0,0,0,0,0,0,0,-1,993,631,0,0
-224,393,0,0,0,0,0,0,0,0,0,-1,1000,631,0,0
-217,393,0,0,0,0,0,0,0,0,0,-1,1007,631,0,0
-210,393,0,0,0,0,0,0,0,0,0,-1,1014,631,0,0
-203,393,0,0,0,0,0,0,0,0,0,-1,1021,631,0,0
-196,393,0,0,0,0,0,0,0,0,0,-1,1028,631,0,0
-189,393,0,0,0,0,0,0,0,0,0,-1,1035,631,0,0
-182,393,0,0,0,0,0,0,0,0,0,-1,1042,631,0,0
-175,393,0,0,0,0,0,0,0,0,0,-1,1049,631,0,0
-168,393,0,0,0,0,0,0,0,0,0,-1,1056,631,0,0
-161,393,0,0,0,0,0,0,0,0,0,-1,1063,631,0,0
-154,393,0,0,0,0,0,0,0,0,0,-1,1070,631,0,0
-147,393,0,0,0,0,0,0,0,0,0,-1,1077,631,0,0
-140,393,0,0,0,0,0,0,0,0,0,-1,1084,631,0,0
-133,393,0,0,0,0,0,0,0,0,0,-1,1091,631,0,0
-126,393,0,0,0,0,0,0,0,0,0,-1,1098,631,0,0
-119,393,0,0,0,0,0,0,0,0,0,-1,1105,631,0,0
-112,393,0,0,0,0,0,0,0,0,0,-1,1112,631,0,0
-105,393,0,0,0,0,0,0,0,0,0,-1,1119,631,0,0
-98,393,0,0,0,0,0,0,0,0,0,-1,1126,631,0,0
-91,393,0,0,0,0,0,0,0,0,0,-1,1133,631,0,0
-84,393,0,0,0,0,0,0,0,0,0,-1,1140,631,0,0
-77,393,0,0,0,0,0,0,0,0,0,-1,1147,631,0,0
-70,393,0,0,0,0,0,0,0,0,0,-1,1154,631,0,0
-63,393,0,0,0,0,0,0,0,0,0,-1,1161,631,0,0
-56,393,0,0,0,0,0,0,0,0,0,-1,1168,631,0,0
-49,393,0,0,0,0,0,0,0,0,0,-1,1175,631,0,0
-42,393,0,0,0,0,0,0,0,0,0,-1,1182,631,0,0
-35,393,0,0,0,0,0,0,0,0,0,-1,1189,631,0,0
-28,393,0,0,0,0,0,0,0,0,0,-1,1196,631,0,0
-21,393,0,0,0,0,0,0,0,0,0,-1,1203,631,0,0
-14,393,0,0,0,0,0,0,0,0,0,-1,1210,631,0,0
-7,393,0,0,0,0,0,0,0,0,0,-1,1217,631,0,0
0,393,0,0,0,0,0,0,0,0,0,-1,1224,631,0,0
7,393,0,0,0,0,0,0,0,0,0,-1,1231,631,0,0
14,393,0,0,0,0,0,0,0,0,0,-1,1238,631,0,0
21,393,0,0,0,0,0,0,0,0,0,-1,1245,631,0,0
28,393,0,0,0,0,0,0,0,0,0,-1,1252,631,0,0
35,393,0,0,0,0,0,0,0,0,0,-1,1259,631,0,0
42,393,0,0,0,0,0,0,0,0,0,-1,1266,631,0,0
49,393,0,0,0,0,0,0,0,0,0,-1,1273,631,0,0
56,393,0,0,0,0,0,0,0,0,0,-1,1280,631,0,0
63,393,0,0,0,0,0,0,0,0,0,-1,1287,631,0,0
70,393,0,0,0,0,0,0,0,0,0,-1,1294,631,0,0
77,393,0,0,0,0,0,0,0,0,0,-1,1301,631,0,0
84,393,0,0,0,0,0,0,0,0,0,-1,1308,631,0,0
91,393,0,0,0,0,0,0,0,0,0,-1,1315,631,0,0
98,393,0,0,0,0,0,0,0,0,0,-1,1322,631,0,0
105,393,0,0,0,0,0,0,0,0,0,-1,1329,631,0,0
112,393,0,0,0,0,0,0,0,0,0,-1,1336,631,0,0
119,393,0,0,0,0,0,0,0,0,0,-1,1343,631,0,0
126,393,0,0,0,0,0,0,0,0,0,-1,1350,631,0,0
133,393,0,0,0,0,0,0,0,0,0,-1,1357,631,0,0
140,393,0,0,0,0,0,0,0,0,0,-1,1364,631,0,0
147,393,0,0,0,0,0,0,0,0,0,-1,1371,631,0,0
154,393,0,0,0,0,0,0,0,0,0,-1,1378,631,0,0
161,393,0,0,0,0,0,0,0,0,0,-1,1385,631,0,0
168,393,0,0,0,0,0,0,0,0,0,-1,1392,631,0,0
175,393,0,0,0,0,0,0,0,0,0,-1,1399,631,0,0
182,393,0,0,0,0,0,0,0,0,0,-1,1406,631,0,0
189,393,0,0,0,0,0,0,0,0,0,-1,1413,631,0,0
196,393,0,0,0,0,0,0,0,0,0,-1,1420,631,0,0
203,393,0,0,0,0,0,0,0,0,0,-1,1427,631,0,0
210,393,0,0,0,0,0,0,0,0,0,-1,1434,631,0,0
217,393,0,0,0,0,0,0,0,0,0,-1,1441,631,0,0
224,393,0,0,0,0,0,0,0,0,0,-1,1448,631,0,0
231,393,0,0,0,0,0,0,0,0,0,-1,1455,631,0,0
238,393,0,0,0,0,0,0,0,0,0,-1,1462,631,0,0
245,393,0,0,0,0,0,0,0,0,0,-1,1469,631,0,0
252,393,0,0,0,0,0,0,0,0,0,-1,1476,631,0,0
259,393,0,0,0,0,0,0,0,0,0,-1,1483,631,0,0
266,393,0,0,0,0,0,0,0,0,0,-1,1490,631,0,0
273,393,0,0,0,0,0,0,0,0,0,-1,1497,631,0,0
280,393,0,0,0,0,0,0,0,0,0,-1,1504,631,0,0
287,393,0,0,0,0,0,0,0,0,0,-1,1511,631,0,0
294,393,0,0,0,0,0,0,0,0,0,-1,1518,631,0,0
301,393,0,0,0,0,0,0,0,0,0,-1,1525,631,0,0
308,393,0,0,0,0,0,0,0,0,0,-1,1532,631,0,0
315,393,0,0,0,0,0,0,0,0,0,-1,1539,631,0,0
322,393,0,0,0,0,0,0,0,0,0,-1,1546,631,0,0
329,393,0,0,0,0,0,0,0,0,0,-1,1553,631,0,0
336,393,0,0,0,0,0,0,0,0,0,-1,1560,631,0,0
343,393,0,0,0,0,0,0,0,0,0,-1,1567,631,0,0
350,393,0,0,0,0,0,0,0,0,0,-1,1574,631,0,0
357,393,0,0,0,0,0,0,0,0,0,-1,1581,631,0,0
364,393,0,0,0,0,0,0,0,0,0,-1,1588,631,0,0
371,393,0,0,0,0,0,0,0,0,0,-1,1595,631,0,0
378,393,0,0,0,0,0,0,0,0,0,-1,1602,631,0,0
385,393,0,0,0,0,0,0,0,0,0,-1,1609,631,0,0
392,393,0,0,0,0,0,0,0,0,0,-1,1616,631,0,0
399,393,0,0,0,0,0,0,0,0,0,-1,1623,631,0,0
406,393,0,0,0,0,0,0,0,0,0,-1,1630,631,0,0
413,393,0,0,0,0,0,0,0,0,0,-1,1637,631,0,0
420,393,0,0,0,0,0,0,0,0,0,-1,1644,631,0,0
427,393,0,0,0,0,0,0,0,0,0,-1,1651,631,0,0
434,393,0,0,0,0,0,0,0,0,0,-1,1658,631,0,0
441,393,0,0,0,0,0,0,0,0,0,-1,1665,631,0,0
448,393,0,0,0,0,0,0,0,0,0,-1,1672,631,0,0
455,393,0,0,0,0,0,0,0,0,0,-1,1679,631,0,0
462,393,8.51099,1.89502,0,0,0,0,0,0,0,-1,1686,631,8.51103,-1.89504
469,393,9.39465,1.51703,0,0,0,0,0,0,0,-1,1693,631,9.39465,-1.51703
476,393,9.95569,1.185,0,0,0,0,0,0,0,-1,1700,631,9.95575,-1.18497
483,393,10.5267,0.887329,0,0,0,0,0,0,0,-1,1707,631,10.5267,-0.887321
490,393,10.9303,0.761414,0,0,0,0,0,0,0,-1,1714,631,10.9303,-0.761386
497,393,8.32153,1.88104,0,0,0,0,0,0,0,-1,1721,631,8.32148,-1.88103
504,393,9.46985,1.78711,0,0,0,0,0,0,0,-1,1728,631,9.46986,-1.78713
511,393,9.66565,-0.375977,0,0,0,0,0,0,0,-1,1735,631,9.66571,0.375949
518,393,7.01599,1.62482,0,0,0,0,0,0,0,-1,1742,631,7.01597,-1.62483
525,393,7.88245,-1.13422,0,0,0,0,0,0,0,-1,1749,631,7.88246,1.13423
532,393,7.06335,-1.18103,0,0,0,0,0,0,0,-1,1756,631,7.06332,1.18101
539,393,9.91626,-2.46301,0,0,0,0,0,0,0,-1,1763,631,9.91625,2.46302
546,393,16.4094,-8.04651,0,0,0,0,0,0,0,-1,1770,631,16.4094,8.04649
553,393,26.9458,-14.9854,0,0,0,0,0,0,0,-1,1777,631,26.9458,14.9854
560,393,27.1306,-14.1829,0.00261465,0.00134934,0.000801344,0.00300298,0.000961016,0.451249,0.00177081,0.047035,1784,631,27.1306,14.1828
567,393,27.1144,-13.382,0.00177537,0.000946355,0.000446114,0.00196983,0.000751901,0.411052,0.00114784,0.0166275,1791,631,27.1144,13.3819
574,393,27.1077,-12.6499,0.00129719,0.000888332,0.000405642,0.00154701,0.000638519,0.55199,0.000897686,0.0156063,1798,631,27.1077,12.6499
581,393,27.0393,-11.8547,0.00102022,0.00103093,0.00051484,0.00154044,0.000510703,0.7906,0.000906045,0.0168887,1805,631,27.0393,11.8548
588,393,26.9791,-11.0326,0.000996285,0.00141363,0.000824176,0.00205514,0.000354777,0.909388,0.00126848,0.0204129,1812,631,26.9791,11.0326
595,393,26.9877,-10.3307,0.00133671,0.00200238,0.00136,0.00306967,0.000269412,0.905405,0.00196282,0.0173366,1819,631,26.9876,10.3308
602,393,26.9688,-9.59424,0.00197466,0.00281119,0.00210874,0.00454275,0.000243105,0.883301,0.0029508,0.0180541,1826,631,26.9687,9.59426
609,393,26.8944,-8.8252,0.00278636,0.0038294,0.00299503,0.00634797,0.000267785,0.871599,0.0041456,0.0172372,1833,631,26.8944,8.82516
616,393,26.8363,-8.04645,0.00387155,0.00514549,0.00407485,0.00863285,0.000384184,0.862929,0.00563155,0.0168264,1840,631,26.8363,8.04645
623,393,26.8499,-7.15643,0.00520997,0.00666914,0.00535948,0.0113485,0.000530644,0.853047,0.00739511,0.0337264,1847,631,26.8499,7.15645
630,393,26.9174,-6.16669,0,0,0,0,0,0,0,-1,1854,631,26.9173,6.16671
637,393,11.4626,0.608887,0,0,0,0,0,0,0,-1,1861,631,11.4627,-0.608904
644,393,8.97583,1.30585,0,0,0,0,0,0,0,-1,1868,631,8.97586,-1.30584
651,393,11.348,0.53302,0,0,0,0,0,0,0,-1,1875,631,11.348,-0.53305
658,393,9.21338,1.50836,0,0,0,0,0,0,0,-1,1882,631,9.21338,-1.50834
665,393,6.1001,2.32129,0,0,0,0,0,0,0,-1,1889,631,6.10012,-2.3213
672,393,7.14575,2.43225,0,0,0,0,0,0,0,-1,1896,631,7.14572,-2.43222
679,393,0,0,0,0,0,0,0,0,0,-1,1903,631,0,0
686,393,0,0,0,0,0,0,0,0,0,-1,1910,631,0,0
693,393,0,0,0,0,0,0,0,0,0,-1,1917,631,0,0
700,393,0,0,0,0,0,0,0,0,0,-1,1924,631,0,0
707,393,0,0,0,0,0,0,0,0,0,-1,1931,631,0,0
714,393,0,0,0,0,0,0,0,0,0,-1,1938,631,0,0
721,393,0,0,0,0,0,0,0,0,0,-1,1945,631,0,0
728,393,0,0,0,0,0,0,0,0,0,-1,1952,631,0,0
735,393,0,0,0,0,0,0,0,0,0,-1,1959,631,0,0
742,393,0,0,0,0,0,0,0,0,0,-1,1966,631,0,0
749,393,0,0,0,0,0,0,0,0,0,-1,1973,631,0,0
756,393,0,0,0,0,0,0,0,0,0,-1,1980,631,0,0
763,393,0,0,0,0,0,0,0,0,0,-1,1987,631,0,0
770,393,0,0,0,0,0,0,0,0,0,-1,1994,631,0,0
777,393,0,0,0,0,0,0,0,0,0,-1,2001,631,0,0
784,393,0,0,0,0,0,0,0,0,0,-1,2008,631,0,0
791,393,0,0,0,0,0,0,0,0,0,-1,2015,631,0,0
798,393,0,0,0,0,0,0,0,0,0,-1,2022,631,0,0
805,393,0,0,0,0,0,0,0,0,0,-1,2029,631,0,0
812,393,0,0,0,0,0,0,0,0,0,-1,2036,631,0,0
-700,386,0,0,0,0,0,0,0,0,0,-1,524,638,0,0
-693,386,0,0,0,0,0,0,0,0,0,-1,531,638,0,0
-686,386,0,0,0,0,0,0,0,0,0,-1,538,638,0,0
-679,386,0,0,0,0,0,0,0,0,0,-1,545,638,0,0
-672,386,0,0,0,0,0,0,0,0,0,-1,552,638,0,0
-665,386,0,0,0,0,0,0,0,0,0,-1,559,638,0,0
-658,386,0,0,0,0,0,0,0,0,0,-1,566,638,0,0
-651,386,0,0,0,0,0,0,0,0,0,-1,573,638,0,0
-644,386,0,0,0,0,0,0,0,0,0,-1,580,638,0,0
-637,386,0,0,0,0,0,0,0,0,0,-1,587,638,0,0
-630,386,0,0,0,0,0,0,0,0,0,-1,594,638,0,0
-623,386,0,0,0,0,0,0,0,0,0,-1,601,638,0,0
-616,386,0,0,0,0,0,0,0,0,0,-1,608,638,0,0
-609,386,0,0,0,0,0,0,0,0,0,-1,615,638,0,0
-602,386,0,0,0,0,0,0,0,0,0,-1,622,638,0,0
-595,386,0,0,0,0,0,0,0,0,0,-1,629,638,0,0
-588,386,0,0,0,0,0,0,0,0,0,-1,636,638,0,0
-581,386,0,0,0,0,0,0,0,0,0,-1,643,638,0,0
-574,386,0,0,0,0,0,0,0,0,0,-1,650,638,0,0
-567,386,0,0,0,0,0,0,0,0,0,-1,657,638,0,0
-560,386,-3.97229,-5.13898,0,0,0,0,0,0,0,-1,664,638,-3.97232,5.13897
-553,386,-4.94244,-5.54309,0,0,0,0,0,0,0,-1,671,638,-4.94242,5.5431
-546,386,-1.78668,1.72827,0,0,0,0,0,0,0,-1,678,638,-1.78668,-1.72829
-539,386,-0.879456,-2.90009,0,0,0,0,0,0,0,-1,685,638,-0.879442,2.90008
-532,386,-5.4884,1.73328,0,0,0,0,0,0,0,-1,692,638,-5.4884,-1.73325
-525,386,-6.64148,-1.50604,0,0,0,0,0,0,0,-1,699,638,-6.64149,1.50603
-518,386,-11.1217,-4.10382,0,0,0,0,0,0,0,-1,706,638,-11.1217,4.1038
-511,386,-13.0612,-5.05151,0,0,0,0,0,0,0,-1,713,638,-13.0612,5.05149
-504,386,-14.7579,-7.39954,0,0,0,0,0,0,0,-1,720,638,-14.758,7.39956
-497,386,-14.703,-8.54291,0.00056874,0.00229733,-0.000850251,0.00264544,0.000220627,-1.18219,0.00169488,0.0239494,727,638,-14.703,8.54292
-490,386,-14.6581,-9.35754,0.000426899,0.00202074,-0.000788981,0.00234524,0.000102403,-1.1806,0.0015305,0.0139655,734,638,-14.6582,9.35756
-483,386,-14.687,-10.1234,0.000384506,0.00165833,-0.00074655,0.00200274,4.00953e-05,-1.13856,0.001322,0.0167425,741,638,-14.6869,10.1234
-476,386,-14.7308,-10.8589,0.000479219,0.00130522,-0.000731825,0.00173254,5.1899e-05,-1.04229,0.00113812,0.0148805,748,638,-14.7309,10.859
-469,386,-14.7808,-11.5599,0.000700293,0.000949633,-0.000729076,0.00156462,8.53047e-05,-0.870078,0.00101584,0.0110343,755,638,-14.7808,11.5599
-462,386,-14.8073,-12.3231,0.000943646,0.000531042,-0.000657843,0.00142678,4.79106e-05,-0.633453,0.000935624,0.0107793,762,638,-14.8073,12.3231
-455,386,-14.8461,-13.0652,0.00124749,-8.87643e-05,-0.000532239,0.00143357,-0.000274846,-0.336336,0.00105928,0.0131599,769,638,-14.8461,13.0652
-448,386,-14.9018,-13.7936,0.00164502,-0.000624865,-0.000414818,0.00171845,-0.000698297,-0.175207,0.00143615,0.0133694,776,638,-14.9018,13.7936
-441,386,-14.9515,-14.5121,0.00205043,-0.00125863,-0.000242058,0.00206805,-0.00127624,-0.0726348,0.00194878,0.0136108,783,638,-14.9515,14.5121
-434,386,-14.9402,-15.2714,0.00245436,-0.00197222,-5.83919e-06,0.00245437,-0.00197223,-0.00131911,0.00256075,0.031665,790,638,-14.9402,15.2714
-427,386,-14.8707,-16.1158,0,0,0,0,0,0,0,-1,797,638,-14.8708,16.1158
-420,386,-14.5338,-16.0451,0,0,0,0,0,0,0,-1,804,638,-14.5338,16.0451
-413,386,-5.45691,-5.35785,0,0,0,0,0,0,0,-1,811,638,-5.45691,5.35783
-406,386,-4.51135,-4.10999,0,0,0,0,0,0,0,-1,818,638,-4.51135,4.10996
-399,386,-3.57117,-3.42126,0,0,0,0,0,0,0,-1,825,638,-3.57116,3.42129
-392,386,-4.00977,0.403625,0,0,0,0,0,0,0,-1,832,638,-4.0098,-0.403616
-385,386,-3.2406,-0.118469,0,0,0,0,0,0,0,-1,839,638,-3.24058,0.118485
-378,386,-2.55243,-1.22748,0,0,0,0,0,0,0,-1,846,638,-2.55243,1.22748
-371,386,-7.95807,-0.330261,0,0,0,0,0,0,0,-1,853,638,-7.95806,0.330284
-364,386,-8.90637,-0.665955,0,0,0,0,0,0,0,-1,860,638,-8.90635,0.665951
-357,386,-9.10364,-0.388733,0,0,0,0,0,0,0,-1,867,638,-9.10364,0.388744
-350,386,0,0,0,0,0,0,0,0,0,-1,874,638,0,0
-343,386,0,0,0,0,0,0,0,0,0,-1,881,638,0,0
-336,386,0,0,0,0,0,0,0,0,0,-1,888,638,0,0
-329,386,0,0,0,0,0,0,0,0,0,-1,895,638,0,0
-322,386,0,0,0,0,0,0,0,0,0,-1,902,638,0,0
-315,386,0,0,0,0,0,0,0,0,0,-1,909,638,0,0
-308,386,0,0,0,0,0,0,0,0,0,-1,916,638,0,0
-301,386,0,0,0,0,0,0,0,0,0,-1,923,638,0,0
-294,386,0,0,0,0,0,0,0,0,0,-1,930,638,0,0
-287,386,0,0,0,0,0,0,0,0,0,-1,937,638,0,0
-280,386,0,0,0,0,0,0,0,0,0,-1,944,638,0,0
-273,386,0,0,0,0,0,0,0,0,0,-1,951,638,0,0
-266,386,0,0,0,0,0,0,0,0,0,-1,958,638,0,0
-259,386,0,0,0,0,0,0,0,0,0,-1,965,638,0,0
-252,386,0,0,0,0,0,0,0,0,0,-1,972,638,0,0
-245,386,0,0,0,0,0,0,0,0,0,-1,979,638,0,0
-238,386,0,0,0,0,0,0,0,0,0,-1,986,638,0,0
-231,386,0,0,0,0,0,0,0,0,0,-1,993,638,0,0
-224,386,0,0,0,0,0,0,0,0,0,-1,1000,638,0,0
-217,386,0,0,0,0,0,0,0,0,0,-1,1007,638,0,0
-210,386,0,0,0,0,0,0,0,0,0,-1,1014,638,0,0
-203,386,0,0,0,0,0,0,0,0,0,-1,1021,638,0,0
-196,386,0,0,0,0,0,0,0,0,0,-1,1028,638,0,0
-189,386,0,0,0,0,0,0,0,0,0,-1,1035,638,0,0
-182,386,0,0,0,0,0,0,0,0,0,-1,1042,638,0,0
-175,386,0,0,0,0,0,0,0,0,0,-1,1049,638,0,0
-168,386,0,0,0,0,0,0,0,0,0,-1,1056,638,0,0
-161,386,0,0,0,0,0,0,0,0,0,-1,1063,638,0,0
-154,386,0,0,0,0,0,0,0,0,0,-1,1070,638,0,0
-147,386,0,0,0,0,0,0,0,0,0,-1,1077,638,0,0
-140,386,0,0,0,0,0,0,0,0,0,-1,1084,638,0,0
-133,386,0,0,0,0,0,0,0,0,0,-1,1091,638,0,0
-126,386,0,0,0,0,0,0,0,0,0,-1,1098,638,0,0
-119,386,0,0,0,0,0,0,0,0,0,-1,1105,638,0,0
-112,386,0,0,0,0,0,0,0,0,0,-1,1112,638,0,0
-105,386,0,0,0,0,0,0,0,0,0,-1,1119,638,0,0
-98,386,0,0,0,0,0,0,0,0,0,-1,1126,638,0,0
-91,386,0,0,0,0,0,0,0,0,0,-1,1133,638,0,0
-84,386,0,0,0,0,0,0,0,0,0,-1,1140,638,0,0
-77,386,0,0,0,0,0,0,0,0,0,-1,1147,638,0,0
-70,386,0,0,0,0,0,0,0,0,0,-1,1154,638,0,0
-63,386,0,0,0,0,0,0,0,0,0,-1,1161,638,0,0
-56,386,0,0,0,0,0,0,0,0,0,-1,1168,638,0,0
-49,386,0,0,0,0,0,0,0,0,0,-1,1175,638,0,0
-42,386,0,0,0,0,0,0,0,0,0,-1,1182,638,0,0
-35,386,0,0,0,0,0,0,0,0,0,-1,1189,638,0,0
-28,386,0,0,0,0,0,0,0,0,0,-1,1196,638,0,0
-21,386,0,0,0,0,0,0,0,0,0,-1,1203,638,0,0
-14,386,0,0,0,0,0,0,0,0,0,-1,1210,638,0,0
-7,386,0,0,0,0,0,0,0,0,0,-1,1217,638,0,0
0,386,0,0,0,0,0,0,0,0,0,-1,1224,638,0,0
7,386,0,0,0,0,0,0,0,0,0,-1,1231,638,0,0
14,386,0,0,0,0,0,0,0,0,0,-1,1238,638,0,0
21,386,0,0,0,0,0,0,0,0,0,-1,1245,638,0,0
28,386,0,0,0,0,0,0,0,0,0,-1,1252,638,0,0
35,386,0,0,0,0,0,0,0,0,0,-1,1259,638,0,0
42,386,0,0,0,0,0,0,0,0,0,-1,1266,638,0,0
49,386,0,0,0,0,0,0,0,0,0,-1,1273,638,0,0
56,386,0,0,0,0,0,0,0,0,0,-1,1280,638,0,0
63,386,0,0,0,0,0,0,0,0,0,-1,1287,638,0,0
70,386,0,0,0,0,0,0,0,0,0,-1,1294,638,0,0
77,386,0,0,0,0,0,0,0,0,0,-1,1301,638,0,0
84,386,0,0,0,0,0,0,0,0,0,-1,1308,638,0,0
91,386,0,0,0,0,0,0,0,0,0,-1,1315,638,0,0
98,386,0,0,0,0,0,0,0,0,0,-1,1322,638,0,0
105,386,0,0,0,0,0,0,0,0,0,-1,1329,638,0,0
112,386,0,0,0,0,0,0,0,0,0,-1,1336,638,0,0
119,386,0,0,0,0,0,0,0,0,0,-1,1343,638,0,0
126,386,0,0,0,0,0,0,0,0,0,-1,1350,638,0,0
133,386,0,0,0,0,0,0,0,0,0,-1,1357,638,0,0
140,386,0,0,0,0,0,0,0,0,0,-1,1364,638,0,0
147,386,0,0,0,0,0,0,0,0,0,-1,1371,638,0,0
154,386,0,0,0,0,0,0,0,0,0,-1,1378,638,0,0
161,386,0,0,0,0,0,0,0,0,0,-1,1385,638,0,0
168,386,0,0,0,0,0,0,0,0,0,-1,1392,638,0,0
175,386,0,0,0,0,0,0,0,0,0,-1,1399,638,0,0
182,386,0,0,0,0,0,0,0,0,0,-1,1406,638,0,0
189,386,0,0,0,0,0,0,0,0,0,-1,1413,638,0,0
196,386,0,0,0,0,0,0,0,0,0,-1,1420,638,0,0
203,386,0,0,0,0,0,0,0,0,0,-1,1427,638,0,0
210,386,0,0,0,0,0,0,0,0,0,-1,1434,638,0,0
217,386,0,0,0,0,0,0,0,0,0,-1,1441,638,0,0
224,386,0,0,0,0,0,0,0,0,0,-1,1448,638,0,0
231,386,0,0,0,0,0,0,0,0,0,-1,1455,638,0,0
238,386,0,0,0,0,0,0,0,0,0,-1,1462,638,0,0
245,386,0,0,0,0,0,0,0,0,0,-1,1469,638,0,0
252,386,0,0,0,0,0,0,0,0,0,-1,1476,638,0,0
259,386,0,0,0,0,0,0,0,0,0,-1,1483,638,0,0
266,386,0,0,0,0,0,0,0,0,0,-1,1490,638,0,0
273,386,0,0,0,0,0,0,0,0,0,-1,1497,638,0,0
280,386,0,0,0,0,0,0,0,0,0,-1,1504,638,0,0
287,386,0,0,0,0,0,0,0,0,0,-1,1511,638,0,0
294,386,0,0,0,0,0,0,0,0,0,-1,1518,638,0,0
301,386,0,0,0,0,0,0,0,0,0,-1,1525,638,0,0
308,386,0,0,0,0,0,0,0,0,0,-1,1532,638,0,0
315,386,0,0,0,0,0,0,0,0,0,-1,1539,638,0,0
322,386,0,0,0,0,0,0,0,0,0,-1,1546,638,0,0
329,386,0,0,0,0,0,0,0,0,0,-1,1553,638,0,0
336,386,0,0,0,0,0,0,0,0,0,-1,1560,638,0,0
343,386,0,0,0,0,0,0,0,0,0,-1,1567,638,0,0
350,386,0,0,0,0,0,0,0,0,0,-1,1574,638,0,0
357,386,0,0,0,0,0,0,0,0,0,-1,1581,638,0,0
364,386,0,0,0,0,0,0,0,0,0,-1,1588,638,0,0
371,386,0,0,0,0,0,0,0,0,0,-1,1595,638,0,0
378,386,0,0,0,0,0,0,0,0,0,-1,1602,638,0,0
385,386,0,0,0,0,0,0,0,0,0,-1,1609,638,0,0
392,386,0,0,0,0,0,0,0,0,0,-1,1616,638,0,0
399,386,0,0,0,0,0,0,0,0,0,-1,1623,638,0,0
406,386,0,0,0,0,0,0,0,0,0,-1,1630,638,0,0
413,386,0,0,0,0,0,0,0,0,0,-1,1637,638,0,0
420,386,0,0,0,0,0,0,0,0,0,-1,1644,638,0,0
427,386,0,0,0,0,0,0,0,0,0,-1,1651,638,0,0
434,386,0,0,0,0,0,0,0,0,0,-1,1658,638,0,0
441,386,0,0,0,0,0,0,0,0,0,-1,1665,638,0,0
448,386,0,0,0,0,0,0,0,0,0,-1,1672,638,0,0
455,386,0,0,0,0,0,0,0,0,0,-1,1679,638,0,0
462,386,0,0,0,0,0,0,0,0,0,-1,1686,638,0,0
469,386,9.84692,1.55804,0,0,0,0,0,0,0,-1,1693,638,9.84691,-1.55807
476,386,10.6145,0.986511,0,0,0,0,0,0,0,-1,1700,638,10.6145,-0.986529
483,386,11.4113,0.732971,0,0,0,0,0,0,0,-1,1707,638,11.4112,-0.732958
490,386,7.79785,1.79572,0,0,0,0,0,0,0,-1,1714,638,7.79788,-1.7957
497,386,8.96362,1.77081,0,0,0,0,0,0,0,-1,1721,638,8.96357,-1.77081
504,386,10.0555,1.69427,0,0,0,0,0,0,0,-1,1728,638,10.0555,-1.69426
511,386,11.2172,1.534,0,0,0,0,0,0,0,-1,1735,638,11.2172,-1.53398
518,386,7.41553,1.75238,0,0,0,0,0,0,0,-1,1742,638,7.41547,-1.75238
525,386,8.82422,-1.1449,0,0,0,0,0,0,0,-1,1749,638,8.82426,1.14492
532,386,10.6432,0.617371,0,0,0,0,0,0,0,-1,1756,638,10.6432,-0.617359
539,386,9.62061,-0.393616,0,0,0,0,0,0,0,-1,1763,638,9.62059,0.393634
546,386,10.7963,-2.854,0,0,0,0,0,0,0,-1,1770,638,10.7962,2.854
553,386,16.9939,-7.27942,0,0,0,0,0,0,0,-1,1777,638,16.9939,7.27944
560,386,27.8043,-14.3237,0,0,0,0,0,0,0,-1,1784,638,27.8043,14.3237
567,386,27.8282,-13.3685,0,0,0,0,0,0,0,-1,1791,638,27.8283,13.3685
574,386,27.8503,-12.5641,0.0011518,0.000824745,0.000181339,0.00123246,0.00074409,0.4185,0.000716646,0.0146524,1798,638,27.8504,12.5641
581,386,27.7827,-11.8268,0.000777451,0.000855053,0.000196814,0.00101685,0.00061565,0.882723,0.000591416,0.0152869,1805,638,27.7827,11.8268
588,386,27.7668,-11.0588,0.000702023,0.00109813,0.000434484,0.00137757,0.00042258,0.999245,0.0008149,0.0142852,1812,638,27.7669,11.0588
595,386,27.7313,-10.3038,0.00101006,0.00156402,0.000898109,0.00222689,0.000347193,0.934971,0.00138346,0.0154029,1819,638,27.7313,10.3038
602,386,27.6866,-9.55927,0.00161761,0.00223842,0.00157382,0.00353216,0.000323875,0.882763,0.00225458,0.0165732,1826,638,27.6867,9.55924
609,386,27.6655,-8.79834,0.00236215,0.00309725,0.00235175,0.00511001,0.0003494,0.862915,0.00329638,0.0159173,1833,638,27.6656,8.79835
616,386,27.6296,-8.0058,0.00334106,0.00419937,0.00327556,0.00707377,0.000466665,0.850536,0.00456824,0.0132478,1840,638,27.6297,8.00581
623,386,27.5828,-7.24274,0.00455974,0.00549871,0.00439726,0.00945147,0.000606968,0.83858,0.00610872,0.0115972,1847,638,27.5828,7.24276
630,386,27.665,-6.41595,0.00592508,0.00688036,0.00560976,0.0120328,0.000772662,0.827868,0.0077771,0.0393761,1854,638,27.665,6.41594
637,386,27.8145,-5.56116,0,0,0,0,0,0,0,-1,1861,638,27.8145,5.56115
644,386,11.6521,0.723328,0,0,0,0,0,0,0,-1,1868,638,11.6521,-0.723355
651,386,9.3866,1.31097,0,0,0,0,0,0,0,-1,1875,638,9.3866,-1.31095
658,386,12.0731,-0.00415039,0,0,0,0,0,0,0,-1,1882,638,12.0731,0.00412803
665,386,6.33167,1.78601,0,0,0,0,0,0,0,-1,1889,638,6.33171,-1.78601
672,386,7.23352,2.14435,0,0,0,0,0,0,0,-1,1896,638,7.23353,-2.14433
679,386,8.07764,2.57104,0,0,0,0,0,0,0,-1,1903,638,8.07758,-2.57103
686,386,0,0,0,0,0,0,0,0,0,-1,1910,638,0,0
693,386,0,0,0,0,0,0,0,0,0,-1,1917,638,0,0
700,386,0,0,0,0,0,0,0,0,0,-1,1924,638,0,0
707,386,0,0,0,0,0,0,0,0,0,-1,1931,638,0,0
714,386,0,0,0,0,0,0,0,0,0,-1,1938,638,0,0
721,386,0,0,0,0,0,0,0,0,0,-1,1945,638,0,0
728,386,0,0,0,0,0,0,0,0,0,-1,1952,638,0,0
735,386,0,0,0,0,0,0,0,0,0,-1,1959,638,0,0
742,386,0,0,0,0,0,0,0,0,0,-1,1966,638,0,0
749,386,0,0,0,0,0,0,0,0,0,-1,1973,638,0,0
756,386,0,0,0,0,0,0,0,0,0,-1,1980,638,0,0
763,386,0,0,0,0,0,0,0,0,0,-1,1987,638,0,0
770,386,0,0,0,0,0,0,0,0,0,-1,1994,638,0,0
777,386,0,0,0,0,0,0,0,0,0,-1,2001,638,0,0
784,386,0,0,0,0,0,0,0,0,0,-1,2008,638,0,0
791,386,0,0,0,0,0,0,0,0,0,-1,2015,638,0,0
798,386,0,0,0,0,0,0,0,0,0,-1,2022,638,0,0
805,386,0,0,0,0,0,0,0,0,0,-1,2029,638,0,0
812,386,0,0,0,0,0,0,0,0,0,-1,2036,638,0,0
-700,379,0,0,0,0,0,0,0,0,0,-1,524,645,0,0
-693,379,0,0,0,0,0,0,0,0,0,-1,531,645,0,0
-686,379,0,0,0,0,0,0,0,0,0,-1,538,645,0,0
-679,379,0,0,0,0,0,0,0,0,0,-1,545,645,0,0
-672,379,0,0,0,0,0,0,0,0,0,-1,552,645,0,0
-665,379,0,0,0,0,0,0,0,0,0,-1,559,645,0,0
-658,379,0,0,0,0,0,0,0,0,0,-1,566,645,0,0
-651,379,0,0,0,0,0,0,0,0,0,-1,573,645,0,0
-644,379,0,0,0,0,0,0,0,0,0,-1,580,645,0,0
-637,379,0,0,0,0,0,0,0,0,0,-1,587,645,0,0
-630,379,0,0,0,0,0,0,0,0,0,-1,594,645,0,0
-623,379,0,0,0,0,0,0,0,0,0,-1,601,645,0,0
-616,379,0,0,0,0,0,0,0,0,0,-1,608,645,0,0
-609,379,0,0,0,0,0,0,0,0,0,-1,615,645,0,0
-602,379,0,0,0,0,0,0,0,0,0,-1,622,645,0,0
-595,379,0,0,0,0,0,0,0,0,0,-1,629,645,0,0
-588,379,0,0,0,0,0,0,0,0,0,-1,636,645,0,0
-581,379,0,0,0,0,0,0,0,0,0,-1,643,645,0,0
-574,379,0,0,0,0,0,0,0,0,0,-1,650,645,0,0
-567,379,-8.78058,0.59668,0,0,0,0,0,0,0,-1,657,645,-8.7806,-0.596692
-560,379,-9.53485,-0.211304,0,0,0,0,0,0,0,-1,664,645,-9.53487,0.211282
-553,379,-5.17108,-4.53119,0,0,0,0,0,0,0,-1,671,645,-5.17106,4.53117
-546,379,-6.23053,-4.92102,0,0,0,0,0,0,0,-1,678,645,-6.23054,4.92105
-539,379,-0.71698,-2.19427,0,0,0,0,0,0,0,-1,685,645,-0.716959,2.19427
-532,379,-7.69611,0.217224,0,0,0,0,0,0,0,-1,692,645,-7.69614,-0.217204
-525,379,-7.09833,-1.13043,0,0,0,0,0,0,0,-1,699,645,-7.0983,1.13041
-518,379,-13.126,-5.33893,0,0,0,0,0,0,0,-1,706,645,-13.126,5.33895
-511,379,-15.2979,-6.98047,0,0,0,0,0,0,0,-1,713,645,-15.2978,6.98047
-504,379,-15.3124,-7.84039,0.00129179,0.00176649,-0.000736651,0.00230309,0.000755198,-0.941247,0.00135569,0.0322416,720,645,-15.3124,7.84042
-497,379,-15.4072,-8.55402,0.000843215,0.00136739,-0.000449275,0.00162543,0.000585169,-1.04944,0.000950627,0.014646,727,645,-15.4072,8.55405
-490,379,-15.3997,-9.33728,0.000706582,0.00116394,-0.00038475,0.00138284,0.000487684,-1.05353,0.000809856,0.0115509,734,645,-15.3997,9.33729
-483,379,-15.4412,-10.1058,0.000686525,0.000932899,-0.000388928,0.00121768,0.000401742,-0.938767,0.000716459,0.0126052,741,645,-15.4412,10.1058
-476,379,-15.4739,-10.8077,0.000813344,0.000716643,-0.000457406,0.00122495,0.000305039,-0.73274,0.000736324,0.0125829,748,645,-15.4739,10.8077
-469,379,-15.5235,-11.5113,0.00107252,0.000520599,-0.000581161,0.00143991,0.000153207,-0.563738,0.000913166,0.0115198,755,645,-15.5235,11.5113
-462,379,-15.5717,-12.2615,0.0013675,0.000262238,-0.000658241,0.00167433,-4.45975e-05,-0.436198,0.00113138,0.00895419,762,645,-15.5717,12.2615
-455,379,-15.6061,-12.9988,0.0017533,-0.000222568,-0.000700477,0.00197643,-0.000445701,-0.308381,0.0014886,0.00994836,769,645,-15.6061,12.9988
-448,379,-15.6213,-13.7069,0.00223964,-0.000619591,-0.000768209,0.00243297,-0.000812919,-0.246541,0.00195027,0.0116818,776,645,-15.6213,13.7069
-441,379,-15.6329,-14.4739,0.00279131,-0.00110849,-0.000821809,0.00295741,-0.0012746,-0.199435,0.00250691,0.0223386,783,645,-15.6329,14.4739
-434,379,-15.5554,-15.3171,0,0,0,0,0,0,0,-1,790,645,-15.5553,15.3171
-427,379,-4.16113,-4.13452,0,0,0,0,0,0,0,-1,797,645,-4.16116,4.1345
-420,379,-4.63953,-3.46869,0,0,0,0,0,0,0,-1,804,645,-4.63953,3.46872
-413,379,-4.62543,-3.7912,0,0,0,0,0,0,0,-1,811,645,-4.62541,3.79123
-406,379,-4.64063,-4.38489,0,0,0,0,0,0,0,-1,818,645,-4.64065,4.3849
-399,379,-2.93536,-1.40118,0,0,0,0,0,0,0,-1,825,645,-2.93534,1.40119
-392,379,-4.16711,-0.466003,0,0,0,0,0,0,0,-1,832,645,-4.16714,0.465992
-385,379,-3.51862,0.441101,0,0,0,0,0,0,0,-1,839,645,-3.51859,-0.441072
-378,379,-5.3504,0.212219,0,0,0,0,0,0,0,-1,846,645,-5.35038,-0.212241
-371,379,-4.32092,-0.186707,0,0,0,0,0,0,0,-1,853,645,-4.3209,0.186707
-364,379,-3.40887,-0.549805,0,0,0,0,0,0,0,-1,860,645,-3.4089,0.549802
-357,379,0,0,0,0,0,0,0,0,0,-1,867,645,0,0
-350,379,0,0,0,0,0,0,0,0,0,-1,874,645,0,0
-343,379,0,0,0,0,0,0,0,0,0,-1,881,645,0,0
-336,379,0,0,0,0,0,0,0,0,0,-1,888,645,0,0
-329,379,0,0,0,0,0,0,0,0,0,-1,895,645,0,0
-322,379,0,0,0,0,0,0,0,0,0,-1,902,645,0,0
-315,379,0,0,0,0,0,0,0,0,0,-1,909,645,0,0
-308,379,0,0,0,0,0,0,0,0,0,-1,916,645,0,0
-301,379,0,0,0,0,0,0,0,0,0,-1,923,645,0,0
-294,379,0,0,0,0,0,0,0,0,0,-1,930,645,0,0
-287,379,0,0,0,0,0,0,0,0,0,-1,937,645,0,0
-280,379,0,0,0,0,0,0,0,0,0,-1,944,645,0,0
-273,379,0,0,0,0,0,0,0,0,0,-1,951,645,0,0
-266,379,0,0,0,0,0,0,0,0,0,-1,958,645,0,0
-259,379,0,0,0,0,0,0,0,0,0,-1,965,645,0,0
-252,379,0,0,0,0,0,0,0,0,0,-1,972,645,0,0
-245,379,0,0,0,0,0,0,0,0,0,-1,979,645,0,0
-238,379,0,0,0,0,0,0,0,0,0,-1,986,645,0,0
-231,379,0,0,0,0,0,0,0,0,0,-1,993,645,0,0
-224,379,0,0,0,0,0,0,0,0,0,-1,1000,645,0,0
-217,379,0,0,0,0,0,0,0,0,0,-1,1007,645,0,0
-210,379,0,0,0,0,0,0,0,0,0,-1,1014,645,0,0
-203,379,0,0,0,0,0,0,0,0,0,-1,1021,645,0,0
-196,379,0,0,0,0,0,0,0,0,0,-1,1028,645,0,0
-189,379,0,0,0,0,0,0,0,0,0,-1,1035,645,0,0
-182,379,0,0,0,0,0,0,0,0,0,-1,1042,645,0,0
-175,379,0,0,0,0,0,0,0,0,0,-1,1049,645,0,0
-168,379,0,0,0,0,0,0,0,0,0,-1,1056,645,0,0
-161,379,0,0,0,0,0,0,0,0,0,-1,1063,645,0,0
-154,379,0,0,0,0,0,0,0,0,0,-1,1070,645,0,0
-147,379,0,0,0,0,0,0,0,0,0,-1,1077,645,0,0
-140,379,0,0,0,0,0,0,0,0,0,-1,1084,645,0,0
-133,379,0,0,0,0,0,0,0,0,0,-1,1091,645,0,0
-126,379,0,0,0,0,0,0,0,0,0,-1,1098,645,0,0
-119,379,0,0,0,0,0,0,0,0,0,-1,1105,645,0,0
-112,379,0,0,0,0,0,0,0,0,0,-1,1112,645,0,0
-105,379,0,0,0,0,0,0,0,0,0,-1,1119,645,0,0
-98,379,0,0,0,0,0,0,0,0,0,-1,1126,645,0,0
-91,379,0,0,0,0,0,0,0,0,0,-1,1133,645,0,0
-84,379,0,0,0,0,0,0,0,0,0,-1,1140,645,0,0
-77,379,0,0,0,0,0,0,0,0,0,-1,1147,645,0,0
-70,379,0,0,0,0,0,0,0,0,0,-1,1154,645,0,0
-63,379,0,0,0,0,0,0,0,0,0,-1,1161,645,0,0
-56,379,0,0,0,0,0,0,0,0,0,-1,1168,645,0,0
-49,379,0,0,0,0,0,0,0,0,0,-1,1175,645,0,0
-42,379,0,0,0,0,0,0,0,0,0,-1,1182,645,0,0
-35,379,0,0,0,0,0,0,0,0,0,-1,1189,645,0,0
-28,379,0,0,0,0,0,0,0,0,0,-1,1196,645,0,0
-21,379,0,0,0,0,0,0,0,0,0,-1,1203,645,0,0
-14,379,0,0,0,0,0,0,0,0,0,-1,1210,645,0,0
-7,379,0,0,0,0,0,0,0,0,0,-1,1217,645,0,0
0,379,0,0,0,0,0,0,0,0,0,-1,1224,645,0,0
7,379,0,0,0,0,0,0,0,0,0,-1,1231,645,0,0
14,379,0,0,0,0,0,0,0,0,0,-1,1238,645,0,0
21,379,0,0,0,0,0,0,0,0,0,-1,1245,645,0,0
28,379,0,0,0,0,0,0,0,0,0,-1,1252,645,0,0
35,379,0,0,0,0,0,0,0,0,0,-1,1259,645,0,0
42,379,0,0,0,0,0,0,0,0,0,-1,1266,645,0,0
49,379,0,0,0,0,0,0,0,0,0,-1,1273,645,0,0
56,379,0,0,0,0,0,0,0,0,0,-1,1280,645,0,0
63,379,0,0,0,0,0,0,0,0,0,-1,1287,645,0,0
70,379,0,0,0,0,0,0,0,0,0,-1,1294,645,0,0
77,379,0,0,0,0,0,0,0,0,0,-1,1301,645,0,0
84,379,0,0,0,0,0,0,0,0,0,-1,1308,645,0,0
91,379,0,0,0,0,0,0,0,0,0,-1,1315,645,0,0
98,379,0,0,0,0,0,0,0,0,0,-1,1322,645,0,0
105,379,0,0,0,0,0,0,0,0,0,-1,1329,645,0,0
112,379,0,0,0,0,0,0,0,0,0,-1,1336,645,0,0
119,379,0,0,0,0,0,0,0,0,0,-1,1343,645,0,0
126,379,0,0,0,0,0,0,0,0,0,-1,1350,645,0,0
133,379,0,0,0,0,0,0,0,0,0,-1,1357,645,0,0
140,379,0,0,0,0,0,0,0,0,0,-1,1364,645,0,0
147,379,0,0,0,0,0,0,0,0,0,-1,1371,645,0,0
154,379,0,0,0,0,0,0,0,0,0,-1,1378,645,0,0
161,379,0,0,0,0,0,0,0,0,0,-1,1385,645,0,0
168,379,0,0,0,0,0,0,0,0,0,-1,1392,645,0,0
175,379,0,0,0,0,0,0,0,0,0,-1,1399,645,0,0
182,379,0,0,0,0,0,0,0,0,0,-1,1406,645,0,0
189,379,0,0,0,0,0,0,0,0,0,-1,1413,645,0,0
196,379,0,0,0,0,0,0,0,0,0,-1,1420,645,0,0
203,379,0,0,0,0,0,0,0,0,0,-1,1427,645,0,0
210,379,0,0,0,0,0,0,0,0,0,-1,1434,645,0,0
217,379,0,0,0,0,0,0,0,0,0,-1,1441,645,0,0
224,379,0,0,0,0,0,0,0,0,0,-1,1448,645,0,0
231,379,0,0,0,0,0,0,0,0,0,-1,1455,645,0,0
238,379,0,0,0,0,0,0,0,0,0,-1,1462,645,0,0
245,379,0,0,0,0,0,0,0,0,0,-1,1469,645,0,0
252,379,0,0,0,0,0,0,0,0,0,-1,1476,645,0,0
259,379,0,0,0,0,0,0,0,0,0,-1,1483,645,0,0
266,379,0,0,0,0,0,0,0,0,0,-1,1490,645,0,0
273,379,0,0,0,0,0,0,0,0,0,-1,1497,645,0,0
280,379,0,0,0,0,0,0,0,0,0,-1,1504,645,0,0
287,379,0,0,0,0,0,0,0,0,0,-1,1511,645,0,0
294,379,0,0,0,0,0,0,0,0,0,-1,1518,645,0,0
301,379,0,0,0,0,0,0,0,0,0,-1,1525,645,0,0
308,379,0,0,0,0,0,0,0,0,0,-1,1532,645,0,0
315,379,0,0,0,0,0,0,0,0,0,-1,1539,645,0,0
322,379,0,0,0,0,0,0,0,0,0,-1,1546,645,0,0
329,379,0,0,0,0,0,0,0,0,0,-1,1553,645,0,0
336,379,0,0,0,0,0,0,0,0,0,-1,1560,645,0,0
343,379,0,0,0,0,0,0,0,0,0,-1,1567,645,0,0
350,379,0,0,0,0,0,0,0,0,0,-1,1574,645,0,0
357,379,0,0,0,0,0,0,0,0,0,-1,1581,645,0,0
364,379,0,0,0,0,0,0,0,0,0,-1,1588,645,0,0
371,379,0,0,0,0,0,0,0,0,0,-1,1595,645,0,0
378,379,0,0,0,0,0,0,0,0,0,-1,1602,645,0,0
385,379,0,0,0,0,0,0,0,0,0,-1,1609,645,0,0
392,379,0,0,0,0,0,0,0,0,0,-1,1616,645,0,0
399,379,0,0,0,0,0,0,0,0,0,-1,1623,645,0,0
406,379,0,0,0,0,0,0,0,0,0,-1,1630,645,0,0
413,379,0,0,0,0,0,0,0,0,0,-1,1637,645,0,0
420,379,0,0,0,0,0,0,0,0,0,-1,1644,645,0,0
427,379,0,0,0,0,0,0,0,0,0,-1,1651,645,0,0
434,379,0,0,0,0,0,0,0,0,0,-1,1658,645,0,0
441,379,0,0,0,0,0,0,0,0,0,-1,1665,645,0,0
448,379,0,0,0,0,0,0,0,0,0,-1,1672,645,0,0
455,379,0,0,0,0,0,0,0,0,0,-1,1679,645,0,0
462,379,0,0,0,0,0,0,0,0,0,-1,1686,645,0,0
469,379,0,0,0,0,0,0,0,0,0,-1,1693,645,0,0
476,379,11.1787,0.830383,0,0,0,0,0,0,0,-1,1700,645,11.1787,-0.830365
483,379,7.4231,1.54321,0,0,0,0,0,0,0,-1,1707,645,7.42314,-1.54324
490,379,8.52881,1.56677,0,0,0,0,0,0,0,-1,1714,645,8.52878,-1.56677
497,379,9.63599,1.49573,0,0,0,0,0,0,0,-1,1721,645,9.63604,-1.4957
504,379,10.0833,1.35229,0,0,0,0,0,0,0,-1,1728,645,10.0832,-1.35227
511,379,8.14343,1.59912,0,0,0,0,0,0,0,-1,1735,645,8.14347,-1.59912
518,379,12.7955,-0.324097,0,0,0,0,0,0,0,-1,1742,645,12.7955,0.324101
525,379,6.03711,1.10352,0,0,0,0,0,0,0,-1,1749,645,6.03711,-1.10351
532,379,8.70947,0.887817,0,0,0,0,0,0,0,-1,1756,645,8.70953,-0.887808
539,379,9.87097,0.111389,0,0,0,0,0,0,0,-1,1763,645,9.87095,-0.111395
546,379,8.42383,-0.730652,0,0,0,0,0,0,0,-1,1770,645,8.42378,0.730638
553,379,19.2905,-7.67834,0,0,0,0,0,0,0,-1,1777,645,19.2905,7.67837
560,379,22.5734,-10.4749,0,0,0,0,0,0,0,-1,1784,645,22.5734,10.4749
567,379,28.6279,-13.342,0,0,0,0,0,0,0,-1,1791,645,28.6279,13.342
574,379,28.6029,-12.5148,0.000935174,0.000693026,-0.000153102,0.00100929,0.00061891,-0.450842,0.000587672,0.0170106,1798,645,28.6029,12.5148
581,379,28.5671,-11.7704,0.000526009,0.000672509,-0.000156781,0.000772308,0.000426211,-1.00394,0.000446691,0.0160113,1805,645,28.5671,11.7704
588,379,28.5417,-11.0049,0.000443144,0.000808534,6.45447e-05,0.000819601,0.000432078,1.40099,0.00047343,0.0178735,1812,645,28.5418,11.0049
595,379,28.5027,-10.2486,0.000728336,0.00119132,0.000483563,0.00149594,0.000423709,1.00864,0.000890326,0.0147893,1819,645,28.5027,10.2486
602,379,28.4474,-9.51257,0.00129587,0.00175945,0.00109021,0.00264224,0.000413082,0.890145,0.00164122,0.0163501,1826,645,28.4474,9.51256
609,379,28.3856,-8.78174,0.00196686,0.00248042,0.00177472,0.00401684,0.000430437,0.857244,0.00254657,0.0182097,1833,645,28.3856,8.78176
616,379,28.3491,-8.0152,0.00282378,0.00338878,0.00256775,0.00568952,0.000523041,0.840187,0.00363125,0.0140622,1840,645,28.3491,8.01521
623,379,28.3462,-7.20581,0.00390269,0.00445459,0.00354172,0.0077311,0.000626184,0.824276,0.00495854,0.0124849,1847,645,28.3462,7.20581
630,379,28.295,-6.44452,0.00506458,0.0056028,0.00457735,0.00991895,0.000748435,0.81476,0.00637781,0.0150036,1854,645,28.295,6.44454
637,379,28.2948,-5.56165,0.00627026,0.00699296,0.00572046,0.0123635,0.000899752,0.81694,0.00795936,0.0478478,1861,645,28.2948,5.56166
644,379,28.5304,-4.52985,0,0,0,0,0,0,0,-1,1868,645,28.5304,4.52983
651,379,12.9515,0.220825,0,0,0,0,0,0,0,-1,1875,645,12.9515,-0.220814
658,379,13.7498,0.37439,0,0,0,0,0,0,0,-1,1882,645,13.7498,-0.374371
665,379,11.9719,0.353333,0,0,0,0,0,0,0,-1,1889,645,11.9719,-0.353321
672,379,7.57605,2.15326,0,0,0,0,0,0,0,-1,1896,645,7.57599,-2.15326
679,379,8.55078,2.50409,0,0,0,0,0,0,0,-1,1903,645,8.55073,-2.50406
686,379,0,0,0,0,0,0,0,0,0,-1,1910,645,0,0
693,379,0,0,0,0,0,0,0,0,0,-1,1917,645,0,0
700,379,0,0,0,0,0,0,0,0,0,-1,1924,645,0,0
707,379,0,0,0,0,0,0,0,0,0,-1,1931,645,0,0
714,379,0,0,0,0,0,0,0,0,0,-1,1938,645,0,0
721,379,0,0,0,0,0,0,0,0,0,-1,1945,645,0,0
728,379,0,0,0,0,0,0,0,0,0,-1,1952,645,0,0
735,379,0,0,0,0,0,0,0,0,0,-1,1959,645,0,0
742,379,0,0,0,0,0,0,0,0,0,-1,1966,645,0,0
749,379,0,0,0,0,0,0,0,0,0,-1,1973,645,0,0
756,379,0,0,0,0,0,0,0,0,0,-1,1980,645,0,0
763,379,0,0,0,0,0,0,0,0,0,-1,1987,645,0,0
770,379,0,0,0,0,0,0,0,0,0,-1,1994,645,0,0
777,379,0,0,0,0,0,0,0,0,0,-1,2001,645,0,0
784,379,0,0,0,0,0,0,0,0,0,-1,2008,645,0,0
791,379,0,0,0,0,0,0,0,0,0,-1,2015,645,0,0
798,379,0,0,0,0,0,0,0,0,0,-1,2022,645,0,0
805,379,0,0,0,0,0,0,0,0,0,-1,2029,645,0,0
812,379,0,0,0,0,0,0,0,0,0,-1,2036,645,0,0
-700,372,0,0,0,0,0,0,0,0,0,-1,524,652,0,0
-693,372,0,0,0,0,0,0,0,0,0,-1,531,652,0,0
-686,372,0,0,0,0,0,0,0,0,0,-1,538,652,0,0
-679,372,0,0,0,0,0,0,0,0,0,-1,545,652,0,0
-672,372,0,0,0,0,0,0,0,0,0,-1,552,652,0,0
-665,372,0,0,0,0,0,0,0,0,0,-1,559,652,0,0
-658,372,0,0,0,0,0,0,0,0,0,-1,566,652,0,0
-651,372,0,0,0,0,0,0,0,0,0,-1,573,652,0,0
-644,372,0,0,0,0,0,0,0,0,0,-1,580,652,0,0
-637,372,0,0,0,0,0,0,0,0,0,-1,587,652,0,0
-630,372,0,0,0,0,0,0,0,0,0,-1,594,652,0,0
-623,372,0,0,0,0,0,0,0,0,0,-1,601,652,0,0
-616,372,0,0,0,0,0,0,0,0,0,-1,608,652,0,0
-609,372,0,0,0,0,0,0,0,0,0,-1,615,652,0,0
-602,372,0,0,0,0,0,0,0,0,0,-1,622,652,0,0
-595,372,0,0,0,0,0,0,0,0,0,-1,629,652,0,0
-588,372,0,0,0,0,0,0,0,0,0,-1,636,652,0,0
-581,372,0,0,0,0,0,0,0,0,0,-1,643,652,0,0
-574,372,0,0,0,0,0,0,0,0,0,-1,650,652,0,0
-567,372,-7.93744,0.73407,0,0,0,0,0,0,0,-1,657,652,-7.93741,-0.734076
-560,372,-8.78552,-0.158203,0,0,0,0,0,0,0,-1,664,652,-8.78552,0.158216
-553,372,-7.95551,1.61694,0,0,0,0,0,0,0,-1,671,652,-7.95552,-1.61697
-546,372,-4.2403,-3.75372,0,0,0,0,0,0,0,-1,678,652,-4.24028,3.75369
-539,372,-7.92285,-0.0650024,0,0,0,0,0,0,0,-1,685,652,-7.92287,0.0649772
-532,372,-8.59589,-0.419556,0,0,0,0,0,0,0,-1,692,652,-8.59591,0.419539
-525,372,-8.03674,-1.36804,0,0,0,0,0,0,0,-1,699,652,-8.03676,1.36806
-518,372,-16.0629,-6.16528,0,0,0,0,0,0,0,-1,706,652,-16.0629,6.16531
-511,372,-16.0401,-7.07037,0.00198316,0.00139651,-0.000843507,0.00258289,0.000796782,-0.618068,0.00152726,0.0394881,713,652,-16.0401,7.07036
-504,372,-16.1038,-7.77209,0.00161487,0.00120043,-0.00067023,0.00210918,0.000706119,-0.635472,0.0012397,0.0182516,720,652,-16.1038,7.77212
-497,372,-16.1158,-8.55646,0.00128125,0.000833552,-0.000442209,0.00155304,0.000561763,-0.551098,0.000908006,0.011663,727,652,-16.1159,8.55646
-490,372,-16.1425,-9.29456,0.00117022,0.00065393,-0.00040726,0.00139426,0.000429894,-0.502925,0.000824455,0.0129069,734,652,-16.1425,9.29455
-483,372,-16.1788,-10.018,0.00116353,0.00047133,-0.000413637,0.00135676,0.000278096,-0.43703,0.000827535,0.0132328,741,652,-16.1788,10.018
-476,372,-16.1994,-10.7344,0.00128469,0.000343779,-0.000496132,0.00149796,0.000130513,-0.405978,0.000958101,0.0142156,748,652,-16.1994,10.7344
-469,372,-16.2502,-11.4541,0.00151857,0.000271228,-0.000662032,0.00180443,-1.46357e-05,-0.407613,0.00120786,0.0112009,755,652,-16.2502,11.4541
-462,372,-16.2884,-12.2034,0.00179311,0.000162565,-0.000801946,0.00212143,-0.000165747,-0.388578,0.00147264,0.00961088,762,652,-16.2884,12.2034
-455,372,-16.3377,-12.9491,0.00218093,-0.000173433,-0.000926438,0.00250176,-0.000494265,-0.33338,0.00185468,0.0102152,769,652,-16.3377,12.9491
-448,372,-16.3482,-13.677,0.00266207,-0.000413117,-0.00109512,0.0030122,-0.000763243,-0.309444,0.00230506,0.0136029,776,652,-16.3482,13.677
-441,372,-16.1772,-14.5522,0,0,0,0,0,0,0,-1,783,652,-16.1772,14.5522
-434,372,-9.86865,-9.68494,0,0,0,0,0,0,0,-1,790,652,-9.86863,9.68492
-427,372,-4.54248,-3.56268,0,0,0,0,0,0,0,-1,797,652,-4.54247,3.56266
-420,372,-4.66168,-2.93597,0,0,0,0,0,0,0,-1,804,652,-4.66166,2.93599
-413,372,-4.74762,-3.29541,0,0,0,0,0,0,0,-1,811,652,-4.74763,3.29542
-406,372,-0.885437,-0.583923,0,0,0,0,0,0,0,-1,818,652,-0.885437,0.5839
-399,372,-3.97357,-0.825012,0,0,0,0,0,0,0,-1,825,652,-3.97359,0.825037
-392,372,-7.64337,0.173035,0,0,0,0,0,0,0,-1,832,652,-7.64337,-0.173019
-385,372,-6.48871,-0.0271606,0,0,0,0,0,0,0,-1,839,652,-6.48874,0.0271353
-378,372,-5.33044,-0.242432,0,0,0,0,0,0,0,-1,846,652,-5.33042,0.242457
-371,372,-4.40802,-0.495667,0,0,0,0,0,0,0,-1,853,652,-4.40802,0.495661
-364,372,0,0,0,0,0,0,0,0,0,-1,860,652,0,0
-357,372,0,0,0,0,0,0,0,0,0,-1,867,652,0,0
-350,372,0,0,0,0,0,0,0,0,0,-1,874,652,0,0
-343,372,0,0,0,0,0,0,0,0,0,-1,881,652,0,0
-336,372,0,0,0,0,0,0,0,0,0,-1,888,652,0,0
-329,372,0,0,0,0,0,0,0,0,0,-1,895,652,0,0
-322,372,0,0,0,0,0,0,0,0,0,-1,902,652,0,0
-315,372,0,0,0,0,0,0,0,0,0,-1,909,652,0,0
-308,372,0,0,0,0,0,0,0,0,0,-1,916,652,0,0
-301,372,0,0,0,0,0,0,0,0,0,-1,923,652,0,0
-294,372,0,0,0,0,0,0,0,0,0,-1,930,652,0,0
-287,372,0,0,0,0,0,0,0,0,0,-1,937,652,0,0
-280,372,0,0,0,0,0,0,0,0,0,-1,944,652,0,0
-273,372,0,0,0,0,0,0,0,0,0,-1,951,652,0,0
-266,372,0,0,0,0,0,0,0,0,0,-1,958,652,0,0
-259,372,0,0,0,0,0,0,0,0,0,-1,965,652,0,0
-252,372,0,0,0,0,0,0,0,0,0,-1,972,652,0,0
-245,372,0,0,0,0,0,0,0,0,0,-1,979,652,0,0
-238,372,0,0,0,0,0,0,0,0,0,-1,986,652,0,0
-231,372,0,0,0,0,0,0,0,0,0,-1,993,652,0,0
-224,372,0,0,0,0,0,0,0,0,0,-1,1000,652,0,0
-217,372,0,0,0,0,0,0,0,0,0,-1,1007,652,0,0
-210,372,0,0,0,0,0,0,0,0,0,-1,1014,652,0,0
-203,372,0,0,0,0,0,0,0,0,0,-1,1021,652,0,0
-196,372,0,0,0,0,0,0,0,0,0,-1,1028,652,0,0
-189,372,0,0,0,0,0,0,0,0,0,-1,1035,652,0,0
-182,372,0,0,0,0,0,0,0,0,0,-1,1042,652,0,0
-175,372,0,0,0,0,0,0,0,0,0,-1,1049,652,0,0
-168,372,0,0,0,0,0,0,0,0,0,-1,1056,652,0,0
-161,372,0,0,0,0,0,0,0,0,0,-1,1063,652,0,0
-154,372,0,0,0,0,0,0,0,0,0,-1,1070,652,0,0
-147,372,0,0,0,0,0,0,0,0,0,-1,1077,652,0,0
-140,372,0,0,0,0,0,0,0,0,0,-1,1084,652,0,0
-133,372,0,0,0,0,0,0,0,0,0,-1,1091,652,0,0
-126,372,0,0,0,0,0,0,0,0,0,-1,1098,652,0,0
-119,372,0,0,0,0,0,0,0,0,0,-1,1105,652,0,0
-112,372,0,0,0,0,0,0,0,0,0,-1,1112,652,0,0
-105,372,0,0,0,0,0,0,0,0,0,-1,1119,652,0,0
-98,372,0,0,0,0,0,0,0,0,0,-1,1126,652,0,0
-91,372,0,0,0,0,0,0,0,0,0,-1,1133,652,0,0
-84,372,0,0,0,0,0,0,0,0,0,-1,1140,652,0,0
-77,372,0,0,0,0,0,0,0,0,0,-1,1147,652,0,0
-70,372,0,0,0,0,0,0,0,0,0,-1,1154,652,0,0
-63,372,0,0,0,0,0,0,0,0,0,-1,1161,652,0,0
-56,372,0,0,0,0,0,0,0,0,0,-1,1168,652,0,0
-49,372,0,0,0,0,0,0,0,0,0,-1,1175,652,0,0
-42,372,0,0,0,0,0,0,0,0,0,-1,1182,652,0,0
-35,372,0,0,0,0,0,0,0,0,0,-1,1189,652,0,0
-28,372,0,0,0,0,0,0,0,0,0,-1,1196,652,0,0
-21,372,0,0,0,0,0,0,0,0,0,-1,1203,652,0,0
-14,372,0,0,0,0,0,0,0,0,0,-1,1210,652,0,0
-7,372,0,0,0,0,0,0,0,0,0,-1,1217,652,0,0
0,372,0,0,0,0,0,0,0,0,0,-1,1224,652,0,0
7,372,0,0,0,0,0,0,0,0,0,-1,1231,652,0,0
14,372,0,0,0,0,0,0,0,0,0,-1,1238,652,0,0
21,372,0,0,0,0,0,0,0,0,0,-1,1245,652,0,0
28,372,0,0,0,0,0,0,0,0,0,-1,1252,652,0,0
35,372,0,0,0,0,0,0,0,0,0,-1,1259,652,0,0
42,372,0,0,0,0,0,0,0,0,0,-1,1266,652,0,0
49,372,0,0,0,0,0,0,0,0,0,-1,1273,652,0,0
56,372,0,0,0,0,0,0,0,0,0,-1,1280,652,0,0
63,372,0,0,0,0,0,0,0,0,0,-1,1287,652,0,0
70,372,0,0,0,0,0,0,0,0,0,-1,1294,652,0,0
77,372,0,0,0,0,0,0,0,0,0,-1,1301,652,0,0
84,372,0,0,0,0,0,0,0,0,0,-1,1308,652,0,0
91,372,0,0,0,0,0,0,0,0,0,-1,1315,652,0,0
98,372,0,0,0,0,0,0,0,0,0,-1,1322,652,0,0
105,372,0,0,0,0,0,0,0,0,0,-1,1329,652,0,0
112,372,0,0,0,0,0,0,0,0,0,-1,1336,652,0,0
119,372,0,0,0,0,0,0,0,0,0,-1,1343,652,0,0
126,372,0,0,0,0,0,0,0,0,0,-1,1350,652,0,0
133,372,0,0,0,0,0,0,0,0,0,-1,1357,652,0,0
140,372,0,0,0,0,0,0,0,0,0,-1,1364,652,0,0
147,372,0,0,0,0,0,0,0,0,0,-1,1371,652,0,0
154,372,0,0,0,0,0,0,0,0,0,-1,1378,652,0,0
161,372,0,0,0,0,0,0,0,0,0,-1,1385,652,0,0
168,372,0,0,0,0,0,0,0,0,0,-1,1392,652,0,0
175,372,0,0,0,0,0,0,0,0,0,-1,1399,652,0,0
182,372,0,0,0,0,0,0,0,0,0,-1,1406,652,0,0
189,372,0,0,0,0,0,0,0,0,0,-1,1413,652,0,0
196,372,0,0,0,0,0,0,0,0,0,-1,1420,652,0,0
203,372,0,0,0,0,0,0,0,0,0,-1,1427,652,0,0
210,372,0,0,0,0,0,0,0,0,0,-1,1434,652,0,0
217,372,0,0,0,0,0,0,0,0,0,-1,1441,652,0,0
224,372,0,0,0,0,0,0,0,0,0,-1,1448,652,0,0
231,372,0,0,0,0,0,0,0,0,0,-1,1455,652,0,0
238,372,0,0,0,0,0,0,0,0,0,-1,1462,652,0,0
245,372,0,0,0,0,0,0,0,0,0,-1,1469,652,0,0
252,372,0,0,0,0,0,0,0,0,0,-1,1476,652,0,0
259,372,0,0,0,0,0,0,0,0,0,-1,1483,652,0,0
266,372,0,0,0,0,0,0,0,0,0,-1,1490,652,0,0
273,372,0,0,0,0,0,0,0,0,0,-1,1497,652,0,0
280,372,0,0,0,0,0,0,0,0,0,-1,1504,652,0,0
287,372,0,0,0,0,0,0,0,0,0,-1,1511,652,0,0
294,372,0,0,0,0,0,0,0,0,0,-1,1518,652,0,0
301,372,0,0,0,0,0,0,0,0,0,-1,1525,652,0,0
308,372,0,0,0,0,0,0,0,0,0,-1,1532,652,0,0
315,372,0,0,0,0,0,0,0,0,0,-1,1539,652,0,0
322,372,0,0,0,0,0,0,0,0,0,-1,1546,652,0,0
329,372,0,0,0,0,0,0,0,0,0,-1,1553,652,0,0
336,372,0,0,0,0,0,0,0,0,0,-1,1560,652,0,0
343,372,0,0,0,0,0,0,0,0,0,-1,1567,652,0,0
350,372,0,0,0,0,0,0,0,0,0,-1,1574,652,0,0
357,372,0,0,0,0,0,0,0,0,0,-1,1581,652,0,0
364,372,0,0,0,0,0,0,0,0,0,-1,1588,652,0,0
371,372,0,0,0,0,0,0,0,0,0,-1,1595,652,0,0
378,372,0,0,0,0,0,0,0,0,0,-1,1602,652,0,0
385,372,0,0,0,0,0,0,0,0,0,-1,1609,652,0,0
392,372,0,0,0,0,0,0,0,0,0,-1,1616,652,0,0
399,372,0,0,0,0,0,0,0,0,0,-1,1623,652,0,0
406,372,0,0,0,0,0,0,0,0,0,-1,1630,652,0,0
413,372,0,0,0,0,0,0,0,0,0,-1,1637,652,0,0
420,372,0,0,0,0,0,0,0,0,0,-1,1644,652,0,0
427,372,0,0,0,0,0,0,0,0,0,-1,1651,652,0,0
434,372,0,0,0,0,0,0,0,0,0,-1,1658,652,0,0
441,372,0,0,0,0,0,0,0,0,0,-1,1665,652,0,0
448,372,0,0,0,0,0,0,0,0,0,-1,1672,652,0,0
455,372,0,0,0,0,0,0,0,0,0,-1,1679,652,0,0
462,372,0,0,0,0,0,0,0,0,0,-1,1686,652,0,0
469,372,0,0,0,0,0,0,0,0,0,-1,1693,652,0,0
476,372,0,0,0,0,0,0,0,0,0,-1,1700,652,0,0
483,372,8.74182,1.53125,0,0,0,0,0,0,0,-1,1707,652,8.74186,-1.53126
490,372,9.78455,1.67096,0,0,0,0,0,0,0,-1,1714,652,9.7846,-1.67093
497,372,9.97644,1.46069,0,0,0,0,0,0,0,-1,1721,652,9.97647,-1.46071
504,372,10.1216,1.28375,0,0,0,0,0,0,0,-1,1728,652,10.1216,-1.28376
511,372,11.7367,-0.0272217,0,0,0,0,0,0,0,-1,1735,652,11.7367,0.0272326
518,372,12.0657,-0.0995483,0,0,0,0,0,0,0,-1,1742,652,12.0657,0.0995285
525,372,12.3947,-0.171814,0,0,0,0,0,0,0,-1,1749,652,12.3946,0.171824
532,372,9.36597,1.72034,0,0,0,0,0,0,0,-1,1756,652,9.36597,-1.72036
539,372,7.82886,-0.0865479,0,0,0,0,0,0,0,-1,1763,652,7.82882,0.0865771
546,372,10.953,-0.187195,0,0,0,0,0,0,0,-1,1770,652,10.953,0.187181
553,372,14.1201,-4.83234,0,0,0,0,0,0,0,-1,1777,652,14.1201,4.83235
560,372,20.1057,-8.06934,0,0,0,0,0,0,0,-1,1784,652,20.1058,8.06936
567,372,29.4437,-13.3503,0,0,0,0,0,0,0,-1,1791,652,29.4438,13.3503
574,372,29.3986,-12.3936,0.000750859,0.000552421,-0.000532221,0.00119303,0.00011025,-0.693244,0.000761269,0.0440475,1798,652,29.3985,12.3936
581,372,29.3414,-11.7412,0.000402403,0.000484241,-0.000496279,0.000941285,-5.46411e-05,-0.826531,0.000646507,0.022137,1805,652,29.3414,11.7412
588,372,29.2971,-10.9948,0.00034586,0.000493799,-0.000271878,0.00070159,0.000138068,-0.918217,0.000429172,0.0169515,1812,652,29.2972,10.9948
595,372,29.2526,-10.2212,0.000596902,0.000783823,9.40599e-05,0.00082296,0.000557764,1.1765,0.000485041,0.0145531,1819,652,29.2526,10.2212
602,372,29.2325,-9.48724,0.00109034,0.00123625,0.000613726,0.00178134,0.000545248,0.844557,0.00105392,0.0167673,1826,652,29.2326,9.48726
609,372,29.1135,-8.74738,0.00166683,0.00182732,0.00121339,0.00296311,0.000531036,0.818416,0.00182434,0.0183394,1833,652,29.1136,8.74738
616,372,29.0848,-7.9671,0.00236705,0.00257191,0.00189129,0.00436354,0.00057542,0.812451,0.00273745,0.0169686,1840,652,29.0848,7.9671
623,372,29.0994,-7.16205,0.00324603,0.00345518,0.00273031,0.00608292,0.000618297,0.804539,0.0038657,0.0128765,1847,652,29.0993,7.16205
630,372,29.0649,-6.40021,0.00415233,0.00443255,0.00361558,0.00791073,0.000674146,0.804764,0.00506409,0.0170573,1854,652,29.065,6.40023
637,372,29.0754,-5.66119,0.00505676,0.00555451,0.00455789,0.00987031,0.00074096,0.812673,0.00634765,0.0292283,1861,652,29.0755,5.66118
644,372,29.2606,-4.85468,0,0,0,0,0,0,0,-1,1868,652,29.2606,4.85469
651,372,21.3998,-0.888,0,0,0,0,0,0,0,-1,1875,652,21.3998,0.887992
658,372,14.157,0.280273,0,0,0,0,0,0,0,-1,1882,652,14.157,-0.280264
665,372,15.2286,0.463867,0,0,0,0,0,0,0,-1,1889,652,15.2287,-0.463854
672,372,9.34106,1.48444,0,0,0,0,0,0,0,-1,1896,652,9.34109,-1.48444
679,372,10.7308,2.32391,0,0,0,0,0,0,0,-1,1903,652,10.7309,-2.3239
686,372,11.6295,2.52997,0,0,0,0,0,0,0,-1,1910,652,11.6296,-2.52996
693,372,0,0,0,0,0,0,0,0,0,-1,1917,652,0,0
700,372,0,0,0,0,0,0,0,0,0,-1,1924,652,0,0
707,372,0,0,0,0,0,0,0,0,0,-1,1931,652,0,0
714,372,0,0,0,0,0,0,0,0,0,-1,1938,652,0,0
721,372,0,0,0,0,0,0,0,0,0,-1,1945,652,0,0
728,372,0,0,0,0,0,0,0,0,0,-1,1952,652,0,0
735,372,0,0,0,0,0,0,0,0,0,-1,1959,652,0,0
742,372,0,0,0,0,0,0,0,0,0,-1,1966,652,0,0
749,372,0,0,0,0,0,0,0,0,0,-1,1973,652,0,0
756,372,0,0,0,0,0,0,0,0,0,-1,1980,652,0,0
763,372,0,0,0,0,0,0,0,0,0,-1,1987,652,0,0
770,372,0,0,0,0,0,0,0,0,0,-1,1994,652,0,0
777,372,0,0,0,0,0,0,0,0,0,-1,2001,652,0,0
784,372,0,0,0,0,0,0,0,0,0,-1,2008,652,0,0
791,372,0,0,0,0,0,0,0,0,0,-1,2015,652,0,0
798,372,0,0,0,0,0,0,0,0,0,-1,2022,652,0,0
805,372,0,0,0,0,0,0,0,0,0,-1,2029,652,0,0
812,372,0,0,0,0,0,0,0,0,0,-1,2036,652,0,0
-700,365,0,0,0,0,0,0,0,0,0,-1,524,659,0,0
-693,365,0,0,0,0,0,0,0,0,0,-1,531,659,0,0
-686,365,0,0,0,0,0,0,0,0,0,-1,538,659,0,0
-679,365,0,0,0,0,0,0,0,0,0,-1,545,659,0,0
-672,365,0,0,0,0,0,0,0,0,0,-1,552,659,0,0
-665,365,0,0,0,0,0,0,0,0,0,-1,559,659,0,0
-658,365,0,0,0,0,0,0,0,0,0,-1,566,659,0,0
-651,365,0,0,0,0,0,0,0,0,0,-1,573,659,0,0
-644,365,0,0,0,0,0,0,0,0,0,-1,580,659,0,0
-637,365,0,0,0,0,0,0,0,0,0,-1,587,659,0,0
-630,365,0,0,0,0,0,0,0,0,0,-1,594,659,0,0
-623,365,0,0,0,0,0,0,0,0,0,-1,601,659,0,0
-616,365,0,0,0,0,0,0,0,0,0,-1,608,659,0,0
-609,365,0,0,0,0,0,0,0,0,0,-1,615,659,0,0
-602,365,0,0,0,0,0,0,0,0,0,-1,622,659,0,0
-595,365,0,0,0,0,0,0,0,0,0,-1,629,659,0,0
-588,365,0,0,0,0,0,0,0,0,0,-1,636,659,0,0
-581,365,0,0,0,0,0,0,0,0,0,-1,643,659,0,0
-574,365,-7.69281,1.59015,0,0,0,0,0,0,0,-1,650,659,-7.69282,-1.59018
-567,365,-8.2583,1.72638,0,0,0,0,0,0,0,-1,657,659,-8.25827,-1.72637
-560,365,-7.17767,0.275757,0,0,0,0,0,0,0,-1,664,659,-7.17768,-0.27577
-553,365,-10.0349,-0.169617,0,0,0,0,0,0,0,-1,671,659,-10.0349,0.169593
-546,365,-10.6303,-1.51642,0,0,0,0,0,0,0,-1,678,659,-10.6303,1.5164
-539,365,-8.38599,1.52936,0,0,0,0,0,0,0,-1,685,659,-8.38598,-1.52935
-532,365,-8.52863,0.166504,0,0,0,0,0,0,0,-1,692,659,-8.52863,-0.166501
-525,365,-9.28229,-2.62726,0,0,0,0,0,0,0,-1,699,659,-9.28227,2.62724
-518,365,-16.7896,-6.11694,0,0,0,0,0,0,0,-1,706,659,-16.7896,6.11694
-511,365,-16.8246,-6.97894,0.00240968,0.00112605,-0.000893469,0.00286796,0.000667771,-0.473934,0.00173282,0.0379267,713,659,-16.8247,6.97897
-504,365,-16.8115,-7.73761,0.00199425,0.000849204,-0.000718076,0.00234011,0.000503352,-0.448851,0.00142229,0.0122923,720,659,-16.8115,7.73759
-497,365,-16.8477,-8.50885,0.00167876,0.000514648,-0.000529165,0.00188335,0.000310063,-0.368918,0.00116603,0.0123573,727,659,-16.8476,8.50883
-490,365,-16.8911,-9.25787,0.00152489,0.000344674,-0.000493252,0.00170389,0.000165676,-0.348115,0.00108493,0.0142455,734,659,-16.8911,9.25785
-483,365,-16.9282,-9.96808,0.00150648,0.00020249,-0.000493881,0.00167242,3.6551e-05,-0.32414,0.00110296,0.0139095,741,659,-16.9282,9.96809
-476,365,-16.8994,-10.7039,0.00161444,0.000150838,-0.000578762,0.00181565,-5.03658e-05,-0.334575,0.00122756,0.0180137,748,659,-16.8994,10.7039
-469,365,-16.9484,-11.4448,0.00182587,0.000188961,-0.000763195,0.00212649,-0.000111662,-0.375238,0.00145631,0.0177976,755,659,-16.9483,11.4447
-462,365,-17.0313,-12.1678,0.0020951,0.00023362,-0.000942242,0.00248878,-0.000160063,-0.39577,0.00171503,0.0150604,762,659,-17.0312,12.1678
-455,365,-17.0768,-12.9059,0.00249282,5.23186e-05,-0.00111152,0.00292317,-0.000378034,-0.369401,0.00208624,0.0175689,769,659,-17.0768,12.906
-448,365,-16.9832,-13.7746,0.00294692,-2.66064e-05,-0.00133023,0.00345515,-0.000534834,-0.364945,0.00250085,0.0478555,776,659,-16.9832,13.7746
-441,365,-16.6764,-14.7623,0,0,0,0,0,0,0,-1,783,659,-16.6764,14.7623
-434,365,-5.45056,-3.98041,0,0,0,0,0,0,0,-1,790,659,-5.45055,3.98042
-427,365,-5.05377,-4.74689,0,0,0,0,0,0,0,-1,797,659,-5.05376,4.7469
-420,365,-4.58813,-3.16376,0,0,0,0,0,0,0,-1,804,659,-4.58816,3.16374
-413,365,0.141357,0.672729,0,0,0,0,0,0,0,-1,811,659,0.141365,-0.672714
-406,365,-1.75067,-0.934448,0,0,0,0,0,0,0,-1,818,659,-1.7507,0.934424
-399,365,-4.10242,-1.25439,0,0,0,0,0,0,0,-1,825,659,-4.10244,1.25438
-392,365,-7.46545,-0.779724,0,0,0,0,0,0,0,-1,832,659,-7.46543,0.779744
-385,365,-6.27875,-0.887573,0,0,0,0,0,0,0,-1,839,659,-6.27874,0.887545
-378,365,-5.34503,-0.263306,0,0,0,0,0,0,0,-1,846,659,-5.34504,0.263275
-371,365,0,0,0,0,0,0,0,0,0,-1,853,659,0,0
-364,365,0,0,0,0,0,0,0,0,0,-1,860,659,0,0
-357,365,0,0,0,0,0,0,0,0,0,-1,867,659,0,0
-350,365,0,0,0,0,0,0,0,0,0,-1,874,659,0,0
-343,365,0,0,0,0,0,0,0,0,0,-1,881,659,0,0
-336,365,0,0,0,0,0,0,0,0,0,-1,888,659,0,0
-329,365,0,0,0,0,0,0,0,0,0,-1,895,659,0,0
-322,365,0,0,0,0,0,0,0,0,0,-1,902,659,0,0
-315,365,0,0,0,0,0,0,0,0,0,-1,909,659,0,0
-308,365,0,0,0,0,0,0,0,0,0,-1,916,659,0,0
-301,365,0,0,0,0,0,0,0,0,0,-1,923,659,0,0
-294,365,0,0,0,0,0,0,0,0,0,-1,930,659,0,0
-287,365,0,0,0,0,0,0,0,0,0,-1,937,659,0,0
-280,365,0,0,0,0,0,0,0,0,0,-1,944,659,0,0
-273,365,0,0,0,0,0,0,0,0,0,-1,951,659,0,0
-266,365,0,0,0,0,0,0,0,0,0,-1,958,659,0,0
-259,365,0,0,0,0,0,0,0,0,0,-1,965,659,0,0
-252,365,0,0,0,0,0,0,0,0,0,-1,972,659,0,0
-245,365,0,0,0,0,0,0,0,0,0,-1,979,659,0,0
-238,365,0,0,0,0,0,0,0,0,0,-1,986,659,0,0
-231,365,0,0,0,0,0,0,0,0,0,-1,993,659,0,0
-224,365,0,0,0,0,0,0,0,0,0,-1,1000,659,0,0
-217,365,0,0,0,0,0,0,0,0,0,-1,1007,659,0,0
-210,365,0,0,0,0,0,0,0,0,0,-1,1014,659,0,0
-203,365,0,0,0,0,0,0,0,0,0,-1,1021,659,0,0
-196,365,0,0,0,0,0,0,0,0,0,-1,1028,659,0,0
-189,365,0,0,0,0,0,0,0,0,0,-1,1035,659,0,0
-182,365,0,0,0,0,0,0,0,0,0,-1,1042,659,0,0
-175,365,0,0,0,0,0,0,0,0,0,-1,1049,659,0,0
-168,365,0,0,0,0,0,0,0,0,0,-1,1056,659,0,0
-161,365,0,0,0,0,0,0,0,0,0,-1,1063,659,0,0
-154,365,0,0,0,0,0,0,0,0,0,-1,1070,659,0,0
-147,365,0,0,0,0,0,0,0,0,0,-1,1077,659,0,0
-140,365,0,0,0,0,0,0,0,0,0,-1,1084,659,0,0
-133,365,0,0,0,0,0,0,0,0,0,-1,1091,659,0,0
-126,365,0,0,0,0,0,0,0,0,0,-1,1098,659,0,0
-119,365,0,0,0,0,0,0,0,0,0,-1,1105,659,0,0
-112,365,0,0,0,0,0,0,0,0,0,-1,1112,659,0,0
-105,365,0,0,0,0,0,0,0,0,0,-1,1119,659,0,0
-98,365,0,0,0,0,0,0,0,0,0,-1,1126,659,0,0
-91,365,0,0,0,0,0,0,0,0,0,-1,1133,659,0,0
-84,365,0,0,0,0,0,0,0,0,0,-1,1140,659,0,0
-77,365,0,0,0,0,0,0,0,0,0,-1,1147,659,0,0
-70,365,0,0,0,0,0,0,0,0,0,-1,1154,659,0,0
-63,365,0,0,0,0,0,0,0,0,0,-1,1161,659,0,0
-56,365,0,0,0,0,0,0,0,0,0,-1,1168,659,0,0
-49,365,0,0,0,0,0,0,0,0,0,-1,1175,659,0,0
-42,365,0,0,0,0,0,0,0,0,0,-1,1182,659,0,0
-35,365,0,0,0,0,0,0,0,0,0,-1,1189,659,0,0
-28,365,0,0,0,0,0,0,0,0,0,-1,1196,659,0,0
-21,365,0,0,0,0,0,0,0,0,0,-1,1203,659,0,0
-14,365,0,0,0,0,0,0,0,0,0,-1,1210,659,0,0
-7,365,0,0,0,0,0,0,0,0,0,-1,1217,659,0,0
0,365,0,0,0,0,0,0,0,0,0,-1,1224,659,0,0
7,365,0,0,0,0,0,0,0,0,0,-1,1231,659,0,0
14,365,0,0,0,0,0,0,0,0,0,-1,1238,659,0,0
21,365,0,0,0,0,0,0,0,0,0,-1,1245,659,0,0
28,365,0,0,0,0,0,0,0,0,0,-1,1252,659,0,0
35,365,0,0,0,0,0,0,0,0,0,-1,1259,659,0,0
42,365,0,0,0,0,0,0,0,0,0,-1,1266,659,0,0
49,365,0,0,0,0,0,0,0,0,0,-1,1273,659,0,0
56,365,0,0,0,0,0,0,0,0,0,-1,1280,659,0,0
63,365,0,0,0,0,0,0,0,0,0,-1,1287,659,0,0
70,365,0,0,0,0,0,0,0,0,0,-1,1294,659,0,0
77,365,0,0,0,0,0,0,0,0,0,-1,1301,659,0,0
84,365,0,0,0,0,0,0,0,0,0,-1,1308,659,0,0
91,365,0,0,0,0,0,0,0,0,0,-1,1315,659,0,0
98,365,0,0,0,0,0,0,0,0,0,-1,1322,659,0,0
105,365,0,0,0,0,0,0,0,0,0,-1,1329,659,0,0
112,365,0,0,0,0,0,0,0,0,0,-1,1336,659,0,0
119,365,0,0,0,0,0,0,0,0,0,-1,1343,659,0,0
126,365,0,0,0,0,0,0,0,0,0,-1,1350,659,0,0
133,365,0,0,0,0,0,0,0,0,0,-1,1357,659,0,0
140,365,0,0,0,0,0,0,0,0,0,-1,1364,659,0,0
147,365,0,0,0,0,0,0,0,0,0,-1,1371,659,0,0
154,365,0,0,0,0,0,0,0,0,0,-1,1378,659,0,0
161,365,0,0,0,0,0,0,0,0,0,-1,1385,659,0,0
168,365,0,0,0,0,0,0,0,0,0,-1,1392,659,0,0
175,365,0,0,0,0,0,0,0,0,0,-1,1399,659,0,0
182,365,0,0,0,0,0,0,0,0,0,-1,1406,659,0,0
189,365,0,0,0,0,0,0,0,0,0,-1,1413,659,0,0
196,365,0,0,0,0,0,0,0,0,0,-1,1420,659,0,0
203,365,0,0,0,0,0,0,0,0,0,-1,1427,659,0,0
210,365,0,0,0,0,0,0,0,0,0,-1,1434,659,0,0
217,365,0,0,0,0,0,0,0,0,0,-1,1441,659,0,0
224,365,0,0,0,0,0,0,0,0,0,-1,1448,659,0,0
231,365,0,0,0,0,0,0,0,0,0,-1,1455,659,0,0
238,365,0,0,0,0,0,0,0,0,0,-1,1462,659,0,0
245,365,0,0,0,0,0,0,0,0,0,-1,1469,659,0,0
252,365,0,0,0,0,0,0,0,0,0,-1,1476,659,0,0
259,365,0,0,0,0,0,0,0,0,0,-1,1483,659,0,0
266,365,0,0,0,0,0,0,0,0,0,-1,1490,659,0,0
273,365,0,0,0,0,0,0,0,0,0,-1,1497,659,0,0
280,365,0,0,0,0,0,0,0,0,0,-1,1504,659,0,0
287,365,0,0,0,0,0,0,0,0,0,-1,1511,659,0,0
294,365,0,0,0,0,0,0,0,0,0,-1,1518,659,0,0
301,365,0,0,0,0,0,0,0,0,0,-1,1525,659,0,0
308,365,0,0,0,0,0,0,0,0,0,-1,1532,659,0,0
315,365,0,0,0,0,0,0,0,0,0,-1,1539,659,0,0
322,365,0,0,0,0,0,0,0,0,0,-1,1546,659,0,0
329,365,0,0,0,0,0,0,0,0,0,-1,1553,659,0,0
336,365,0,0,0,0,0,0,0,0,0,-1,1560,659,0,0
343,365,0,0,0,0,0,0,0,0,0,-1,1567,659,0,0
350,365,0,0,0,0,0,0,0,0,0,-1,1574,659,0,0
357,365,0,0,0,0,0,0,0,0,0,-1,1581,659,0,0
364,365,0,0,0,0,0,0,0,0,0,-1,1588,659,0,0
371,365,0,0,0,0,0,0,0,0,0,-1,1595,659,0,0
378,365,0,0,0,0,0,0,0,0,0,-1,1602,659,0,0
385,365,0,0,0,0,0,0,0,0,0,-1,1609,659,0,0
392,365,0,0,0,0,0,0,0,0,0,-1,1616,659,0,0
399,365,0,0,0,0,0,0,0,0,0,-1,1623,659,0,0
406,365,0,0,0,0,0,0,0,0,0,-1,1630,659,0,0
413,365,0,0,0,0,0,0,0,0,0,-1,1637,659,0,0
420,365,0,0,0,0,0,0,0,0,0,-1,1644,659,0,0
427,365,0,0,0,0,0,0,0,0,0,-1,1651,659,0,0
434,365,0,0,0,0,0,0,0,0,0,-1,1658,659,0,0
441,365,0,0,0,0,0,0,0,0,0,-1,1665,659,0,0
448,365,0,0,0,0,0,0,0,0,0,-1,1672,659,0,0
455,365,0,0,0,0,0,0,0,0,0,-1,1679,659,0,0
462,365,0,0,0,0,0,0,0,0,0,-1,1686,659,0,0
469,365,0,0,0,0,0,0,0,0,0,-1,1693,659,0,0
476,365,0,0,0,0,0,0,0,0,0,-1,1700,659,0,0
483,365,0,0,0,0,0,0,0,0,0,-1,1707,659,0,0
490,365,8.39551,0.471252,0,0,0,0,0,0,0,-1,1714,659,8.39551,-0.471241
497,365,9.89233,1.35394,0,0,0,0,0,0,0,-1,1721,659,9.89237,-1.35396
504,365,10.1414,1.18005,0,0,0,0,0,0,0,-1,1728,659,10.1413,-1.18004
511,365,10.5151,0.993896,0,0,0,0,0,0,0,-1,1735,659,10.5152,-0.993894
518,365,11.2029,0.398132,0,0,0,0,0,0,0,-1,1742,659,11.2029,-0.398136
525,365,15.5748,3.85303,0,0,0,0,0,0,0,-1,1749,659,15.5748,-3.85303
532,365,11.2446,1.00629,0,0,0,0,0,0,0,-1,1756,659,11.2446,-1.00631
539,365,12.6301,1.03204,0,0,0,0,0,0,0,-1,1763,659,12.6302,-1.03204
546,365,11.647,0.84198,0,0,0,0,0,0,0,-1,1770,659,11.6469,-0.841955
553,365,12.028,-0.558899,0,0,0,0,0,0,0,-1,1777,659,12.028,0.558873
560,365,14.5372,-4.55548,0,0,0,0,0,0,0,-1,1784,659,14.5373,4.55547
567,365,20.5676,-7.53888,0,0,0,0,0,0,0,-1,1791,659,20.5676,7.53887
574,365,30.4103,-12.3063,0,0,0,0,0,0,0,-1,1798,659,30.4103,12.3063
581,365,30.1012,-11.6369,0,0,0,0,0,0,0,-1,1805,659,30.1012,11.6369
588,365,30.0294,-11.1569,0.000202474,0.00019133,-0.000658699,0.000855625,-0.000461821,-0.781169,0.000771871,0.0279235,1812,659,30.0294,11.1569
595,365,30.0026,-10.1979,0.000408128,0.000419694,-0.000321475,0.000735439,9.23837e-05,-0.794391,0.000462583,0.0138893,1819,659,30.0025,10.1979
602,365,29.9552,-9.41833,0.00081614,0.000768944,0.000119192,0.000914048,0.000671037,0.687671,0.000546672,0.0168914,1826,659,29.9552,9.41833
609,365,29.8632,-8.64862,0.00133535,0.00125157,0.000669428,0.0019642,0.000622723,0.75415,0.00115906,0.0183053,1833,659,29.8631,8.64859
616,365,29.8716,-7.85284,0.00193211,0.00186139,0.00127555,0.00317279,0.000620707,0.771542,0.00194165,0.0190595,1840,659,29.8716,7.85287
623,365,29.8853,-7.11206,0.00266828,0.00259447,0.00201213,0.00464385,0.000618903,0.776229,0.00291161,0.0121881,1847,659,29.8853,7.11205
630,365,29.8284,-6.36865,0.0034067,0.00342785,0.00278881,0.0062061,0.000628445,0.787294,0.00394464,0.0160365,1854,659,29.8284,6.36866
637,365,29.8026,-5.61761,0.00411962,0.004339,0.00358158,0.00781256,0.000646051,0.800706,0.00500694,0.0214596,1861,659,29.8026,5.6176
644,365,29.8096,-4.83057,0.00482469,0.00556373,0.0045051,0.00971444,0.000673974,0.826318,0.00626373,0.0272894,1868,659,29.8096,4.83056
651,365,29.8652,-4.00055,0,0,0,0,0,0,0,-1,1875,659,29.8652,4.00054
658,365,24.745,-2.13275,0,0,0,0,0,0,0,-1,1882,659,24.745,2.13277
665,365,14.0961,0.769043,0,0,0,0,0,0,0,-1,1889,659,14.0961,-0.769063
672,365,10.0579,2.15088,0,0,0,0,0,0,0,-1,1896,659,10.0579,-2.15088
679,365,10.9718,2.19208,0,0,0,0,0,0,0,-1,1903,659,10.9718,-2.19211
686,365,12.2134,2.17108,0,0,0,0,0,0,0,-1,1910,659,12.2134,-2.17109
693,365,13.7141,1.98279,0,0,0,0,0,0,0,-1,1917,659,13.7141,-1.98278
700,365,0,0,0,0,0,0,0,0,0,-1,1924,659,0,0
707,365,0,0,0,0,0,0,0,0,0,-1,1931,659,0,0
714,365,0,0,0,0,0,0,0,0,0,-1,1938,659,0,0
721,365,0,0,0,0,0,0,0,0,0,-1,1945,659,0,0
728,365,0,0,0,0,0,0,0,0,0,-1,1952,659,0,0
735,365,0,0,0,0,0,0,0,0,0,-1,1959,659,0,0
742,365,0,0,0,0,0,0,0,0,0,-1,1966,659,0,0
749,365,0,0,0,0,0,0,0,0,0,-1,1973,659,0,0
756,365,0,0,0,0,0,0,0,0,0,-1,1980,659,0,0
763,365,0,0,0,0,0,0,0,0,0,-1,1987,659,0,0
770,365,0,0,0,0,0,0,0,0,0,-1,1994,659,0,0
777,365,0,0,0,0,0,0,0,0,0,-1,2001,659,0,0
784,365,0,0,0,0,0,0,0,0,0,-1,2008,659,0,0
791,365,0,0,0,0,0,0,0,0,0,-1,2015,659,0,0
798,365,0,0,0,0,0,0,0,0,0,-1,2022,659,0,0
805,365,0,0,0,0,0,0,0,0,0,-1,2029,659,0,0
812,365,0,0,0,0,0,0,0,0,0,-1,2036,659,0,0
-700,358,0,0,0,0,0,0,0,0,0,-1,524,666,0,0
-693,358,0,0,0,0,0,0,0,0,0,-1,531,666,0,0
-686,358,0,0,0,0,0,0,0,0,0,-1,538,666,0,0
-679,358,0,0,0,0,0,0,0,0,0,-1,545,666,0,0
-672,358,0,0,0,0,0,0,0,0,0,-1,552,666,0,0
-665,358,0,0,0,0,0,0,0,0,0,-1,559,666,0,0
-658,358,0,0,0,0,0,0,0,0,0,-1,566,666,0,0
-651,358,0,0,0,0,0,0,0,0,0,-1,573,666,0,0
-644,358,0,0,0,0,0,0,0,0,0,-1,580,666,0,0
-637,358,0,0,0,0,0,0,0,0,0,-1,587,666,0,0
-630,358,0,0,0,0,0,0,0,0,0,-1,594,666,0,0
-623,358,0,0,0,0,0,0,0,0,0,-1,601,666,0,0
-616,358,0,0,0,0,0,0,0,0,0,-1,608,666,0,0
-609,358,0,0,0,0,0,0,0,0,0,-1,615,666,0,0
-602,358,0,0,0,0,0,0,0,0,0,-1,622,666,0,0
-595,358,0,0,0,0,0,0,0,0,0,-1,629,666,0,0
-588,358,0,0,0,0,0,0,0,0,0,-1,636,666,0,0
-581,358,-8.31616,1.61993,0,0,0,0,0,0,0,-1,643,666,-8.31614,-1.61993
-574,358,-8.22406,1.75385,0,0,0,0,0,0,0,-1,650,666,-8.22408,-1.75383
-567,358,-8.14215,1.91577,0,0,0,0,0,0,0,-1,657,666,-8.14214,-1.91579
-560,358,-10.6086,2.18872,0,0,0,0,0,0,0,-1,664,666,-10.6086,-2.18873
-553,358,-13.4767,1.09552,0,0,0,0,0,0,0,-1,671,666,-13.4767,-1.09551
-546,358,-13.3743,-0.185059,0,0,0,0,0,0,0,-1,678,666,-13.3743,0.185037
-539,358,-9.43884,-2.04785,0,0,0,0,0,0,0,-1,685,666,-9.43884,2.04785
-532,358,-12.4141,-2.36572,0,0,0,0,0,0,0,-1,692,666,-12.4141,2.3657
-525,358,-12.731,-3.88031,0,0,0,0,0,0,0,-1,699,666,-12.731,3.88029
-518,358,-17.474,-6.07898,0,0,0,0,0,0,0,-1,706,666,-17.474,6.07897
-511,358,-17.5386,-6.92645,0.0025637,0.000978791,-0.00084968,0.00293311,0.000609376,-0.410116,0.00178725,0.0170988,713,666,-17.5386,6.92647
-504,358,-17.5698,-7.68152,0.00211097,0.000661351,-0.000654377,0.00236266,0.000409657,-0.367187,0.00145787,0.0118369,720,666,-17.5697,7.68149
-497,358,-17.584,-8.46234,0.00182006,0.000365994,-0.000492735,0.0019713,0.000214753,-0.297812,0.00124879,0.0114414,727,666,-17.584,8.46233
-490,358,-17.6177,-9.2066,0.00165659,0.000199886,-0.000455952,0.00178753,6.89424e-05,-0.279661,0.00116938,0.0113232,734,666,-17.6177,9.2066
-483,358,-17.6761,-9.92438,0.00166768,9.2798e-05,-0.000471555,0.00179808,-3.7599e-05,-0.269784,0.00121145,0.0106873,741,666,-17.6762,9.9244
-476,358,-17.6472,-10.6359,0.00181852,9.39265e-05,-0.000588205,0.00200003,-8.75877e-05,-0.299319,0.00136349,0.0141452,748,666,-17.6472,10.6359
-469,358,-17.7111,-11.3745,0.00208222,0.000204857,-0.000824448,0.00239287,-0.000105796,-0.360349,0.00163166,0.018452,755,666,-17.7111,11.3745
-462,358,-17.7984,-12.1241,0.0024266,0.000369924,-0.0010791,0.00288888,-9.23547e-05,-0.40474,0.00195743,0.0199155,762,666,-17.7984,12.1241
-455,358,-17.8127,-12.8839,0,0,0,0,0,0,0,-1,769,666,-17.8128,12.8838
-448,358,-17.5464,-14.0613,0,0,0,0,0,0,0,-1,776,666,-17.5464,14.0614
-441,358,-5.56293,-3.98041,0,0,0,0,0,0,0,-1,783,666,-5.56291,3.98043
-434,358,-5.21558,-4.43127,0,0,0,0,0,0,0,-1,790,666,-5.21559,4.43125
-427,358,-3.56189,-3.15729,0,0,0,0,0,0,0,-1,797,666,-3.56192,3.15729
-420,358,0.200195,1.08234,0,0,0,0,0,0,0,-1,804,666,0.200174,-1.08231
-413,358,0.0325317,0.161072,0,0,0,0,0,0,0,-1,811,666,0.0325501,-0.161098
-406,358,-3.85846,0.753113,0,0,0,0,0,0,0,-1,818,666,-3.85846,-0.753129
-399,358,-1.31213,0.190735,0,0,0,0,0,0,0,-1,825,666,-1.31215,-0.190763
-392,358,-3.73914,-0.832214,0,0,0,0,0,0,0,-1,832,666,-3.73915,0.832202
-385,358,-5.95178,-1.69141,0,0,0,0,0,0,0,-1,839,666,-5.9518,1.69143
-378,358,0,0,0,0,0,0,0,0,0,-1,846,666,0,0
-371,358,0,0,0,0,0,0,0,0,0,-1,853,666,0,0
-364,358,0,0,0,0,0,0,0,0,0,-1,860,666,0,0
-357,358,0,0,0,0,0,0,0,0,0,-1,867,666,0,0
-350,358,0,0,0,0,0,0,0,0,0,-1,874,666,0,0
-343,358,0,0,0,0,0,0,0,0,0,-1,881,666,0,0
-336,358,0,0,0,0,0,0,0,0,0,-1,888,666,0,0
-329,358,0,0,0,0,0,0,0,0,0,-1,895,666,0,0
-322,358,0,0,0,0,0,0,0,0,0,-1,902,666,0,0
-315,358,0,0,0,0,0,0,0,0,0,-1,909,666,0,0
-308,358,0,0,0,0,0,0,0,0,0,-1,916,666,0,0
-301,358,0,0,0,0,0,0,0,0,0,-1,923,666,0,0
-294,358,0,0,0,0,0,0,0,0,0,-1,930,666,0,0
-287,358,0,0,0,0,0,0,0,0,0,-1,937,666,0,0
-280,358,0,0,0,0,0,0,0,0,0,-1,944,666,0,0
-273,358,0,0,0,0,0,0,0,0,0,-1,951,666,0,0
-266,358,0,0,0,0,0,0,0,0,0,-1,958,666,0,0
-259,358,0,0,0,0,0,0,0,0,0,-1,965,666,0,0
-252,358,0,0,0,0,0,0,0,0,0,-1,972,666,0,0
-245,358,0,0,0,0,0,0,0,0,0,-1,979,666,0,0
-238,358,0,0,0,0,0,0,0,0,0,-1,986,666,0,0
-231,358,0,0,0,0,0,0,0,0,0,-1,993,666,0,0
-224,358,0,0,0,0,0,0,0,0,0,-1,1000,666,0,0
-217,358,0,0,0,0,0,0,0,0,0,-1,1007,666,0,0
-210,358,0,0,0,0,0,0,0,0,0,-1,1014,666,0,0
-203,358,0,0,0,0,0,0,0,0,0,-1,1021,666,0,0
-196,358,0,0,0,0,0,0,0,0,0,-1,1028,666,0,0
-189,358,0,0,0,0,0,0,0,0,0,-1,1035,666,0,0
-182,358,0,0,0,0,0,0,0,0,0,-1,1042,666,0,0
-175,358,0,0,0,0,0,0,0,0,0,-1,1049,666,0,0
-168,358,0,0,0,0,0,0,0,0,0,-1,1056,666,0,0
-161,358,0,0,0,0,0,0,0,0,0,-1,1063,666,0,0
-154,358,0,0,0,0,0,0,0,0,0,-1,1070,666,0,0
-147,358,0,0,0,0,0,0,0,0,0,-1,1077,666,0,0
-140,358,0,0,0,0,0,0,0,0,0,-1,1084,666,0,0
-133,358,0,0,0,0,0,0,0,0,0,-1,1091,666,0,0
-126,358,0,0,0,0,0,0,0,0,0,-1,1098,666,0,0
-119,358,0,0,0,0,0,0,0,0,0,-1,1105,666,0,0
-112,358,0,0,0,0,0,0,0,0,0,-1,1112,666,0,0
-105,358,0,0,0,0,0,0,0,0,0,-1,1119,666,0,0
-98,358,0,0,0,0,0,0,0,0,0,-1,1126,666,0,0
-91,358,0,0,0,0,0,0,0,0,0,-1,1133,666,0,0
-84,358,0,0,0,0,0,0,0,0,0,-1,1140,666,0,0
-77,358,0,0,0,0,0,0,0,0,0,-1,1147,666,0,0
-70,358,0,0,0,0,0,0,0,0,0,-1,1154,666,0,0
-63,358,0,0,0,0,0,0,0,0,0,-1,1161,666,0,0
-56,358,0,0,0,0,0,0,0,0,0,-1,1168,666,0,0
-49,358,0,0,0,0,0,0,0,0,0,-1,1175,666,0,0
-42,358,0,0,0,0,0,0,0,0,0,-1,1182,666,0,0
-35,358,0,0,0,0,0,0,0,0,0,-1,1189,666,0,0
-28,358,0,0,0,0,0,0,0,0,0,-1,1196,666,0,0
-21,358,0,0,0,0,0,0,0,0,0,-1,1203,666,0,0
-14,358,0,0,0,0,0,0,0,0,0,-1,1210,666,0,0
-7,358,0,0,0,0,0,0,0,0,0,-1,1217,666,0,0
0,358,0,0,0,0,0,0,0,0,0,-1,1224,666,0,0
7,358,0,0,0,0,0,0,0,0,0,-1,1231,666,0,0
14,358,0,0,0,0,0,0,0,0,0,-1,1238,666,0,0
21,358,0,0,0,0,0,0,0,0,0,-1,1245,666,0,0
28,358,0,0,0,0,0,0,0,0,0,-1,1252,666,0,0
35,358,0,0,0,0,0,0,0,0,0,-1,1259,666,0,0
42,358,0,0,0,0,0,0,0,0,0,-1,1266,666,0,0
49,358,0,0,0,0,0,0,0,0,0,-1,1273,666,0,0
56,358,0,0,0,0,0,0,0,0,0,-1,1280,666,0,0
63,358,0,0,0,0,0,0,0,0,0,-1,1287,666,0,0
70,358,0,0,0,0,0,0,0,0,0,-1,1294,666,0,0
77,358,0,0,0,0,0,0,0,0,0,-1,1301,666,0,0
84,358,0,0,0,0,0,0,0,0,0,-1,1308,666,0,0
91,358,0,0,0,0,0,0,0,0,0,-1,1315,666,0,0
98,358,0,0,0,0,0,0,0,0,0,-1,1322,666,0,0
105,358,0,0,0,0,0,0,0,0,0,-1,1329,666,0,0
112,358,0,0,0,0,0,0,0,0,0,-1,1336,666,0,0
119,358,0,0,0,0,0,0,0,0,0,-1,1343,666,0,0
126,358,0,0,0,0,0,0,0,0,0,-1,1350,666,0,0
133,358,0,0,0,0,0,0,0,0,0,-1,1357,666,0,0
140,358,0,0,0,0,0,0,0,0,0,-1,1364,666,0,0
147,358,0,0,0,0,0,0,0,0,0,-1,1371,666,0,0
154,358,0,0,0,0,0,0,0,0,0,-1,1378,666,0,0
161,358,0,0,0,0,0,0,0,0,0,-1,1385,666,0,0
168,358,0,0,0,0,0,0,0,0,0,-1,1392,666,0,0
175,358,0,0,0,0,0,0,0,0,0,-1,1399,666,0,0
182,358,0,0,0,0,0,0,0,0,0,-1,1406,666,0,0
189,358,0,0,0,0,0,0,0,0,0,-1,1413,666,0,0
196,358,0,0,0,0,0,0,0,0,0,-1,1420,666,0,0
203,358,0,0,0,0,0,0,0,0,0,-1,1427,666,0,0
210,358,0,0,0,0,0,0,0,0,0,-1,1434,666,0,0
217,358,0,0,0,0,0,0,0,0,0,-1,1441,666,0,0
224,358,0,0,0,0,0,0,0,0,0,-1,1448,666,0,0
231,358,0,0,0,0,0,0,0,0,0,-1,1455,666,0,0
238,358,0,0,0,0,0,0,0,0,0,-1,1462,666,0,0
245,358,0,0,0,0,0,0,0,0,0,-1,1469,666,0,0
252,358,0,0,0,0,0,0,0,0,0,-1,1476,666,0,0
259,358,0,0,0,0,0,0,0,0,0,-1,1483,666,0,0
266,358,0,0,0,0,0,0,0,0,0,-1,1490,666,0,0
273,358,0,0,0,0,0,0,0,0,0,-1,1497,666,0,0
280,358,0,0,0,0,0,0,0,0,0,-1,1504,666,0,0
287,358,0,0,0,0,0,0,0,0,0,-1,1511,666,0,0
294,358,0,0,0,0,0,0,0,0,0,-1,1518,666,0,0
301,358,0,0,0,0,0,0,0,0,0,-1,1525,666,0,0
308,358,0,0,0,0,0,0,0,0,0,-1,1532,666,0,0
315,358,0,0,0,0,0,0,0,0,0,-1,1539,666,0,0
322,358,0,0,0,0,0,0,0,0,0,-1,1546,666,0,0
329,358,0,0,0,0,0,0,0,0,0,-1,1553,666,0,0
336,358,0,0,0,0,0,0,0,0,0,-1,1560,666,0,0
343,358,0,0,0,0,0,0,0,0,0,-1,1567,666,0,0
350,358,0,0,0,0,0,0,0,0,0,-1,1574,666,0,0
357,358,0,0,0,0,0,0,0,0,0,-1,1581,666,0,0
364,358,0,0,0,0,0,0,0,0,0,-1,1588,666,0,0
371,358,0,0,0,0,0,0,0,0,0,-1,1595,666,0,0
378,358,0,0,0,0,0,0,0,0,0,-1,1602,666,0,0
385,358,0,0,0,0,0,0,0,0,0,-1,1609,666,0,0
392,358,0,0,0,0,0,0,0,0,0,-1,1616,666,0,0
399,358,0,0,0,0,0,0,0,0,0,-1,1623,666,0,0
406,358,0,0,0,0,0,0,0,0,0,-1,1630,666,0,0
413,358,0,0,0,0,0,0,0,0,0,-1,1637,666,0,0
420,358,0,0,0,0,0,0,0,0,0,-1,1644,666,0,0
427,358,0,0,0,0,0,0,0,0,0,-1,1651,666,0,0
434,358,0,0,0,0,0,0,0,0,0,-1,1658,666,0,0
441,358,0,0,0,0,0,0,0,0,0,-1,1665,666,0,0
448,358,0,0,0,0,0,0,0,0,0,-1,1672,666,0,0
455,358,0,0,0,0,0,0,0,0,0,-1,1679,666,0,0
462,358,0,0,0,0,0,0,0,0,0,-1,1686,666,0,0
469,358,0,0,0,0,0,0,0,0,0,-1,1693,666,0,0
476,358,0,0,0,0,0,0,0,0,0,-1,1700,666,0,0
483,358,0,0,0,0,0,0,0,0,0,-1,1707,666,0,0
490,358,0,0,0,0,0,0,0,0,0,-1,1714,666,0,0
497,358,8.57239,1.1322,0,0,0,0,0,0,0,-1,1721,666,8.57234,-1.13219
504,358,10.5972,0.832947,0,0,0,0,0,0,0,-1,1728,666,10.5972,-0.832968
511,358,10.6873,0.868469,0,0,0,0,0,0,0,-1,1735,666,10.6872,-0.868484
518,358,16.5884,2.34894,0,0,0,0,0,0,0,-1,1742,666,16.5884,-2.34894
525,358,15.7626,3.65344,0,0,0,0,0,0,0,-1,1749,666,15.7626,-3.65342
532,358,14.9368,4.95789,0,0,0,0,0,0,0,-1,1756,666,14.9367,-4.9579
539,358,15.1597,3.42694,0,0,0,0,0,0,0,-1,1763,666,15.1597,-3.42692
546,358,12.3792,1.53558,0,0,0,0,0,0,0,-1,1770,666,12.3792,-1.5356
553,358,11.6584,1.26172,0,0,0,0,0,0,0,-1,1777,666,11.6585,-1.26175
560,358,10.8234,1.43042,0,0,0,0,0,0,0,-1,1784,666,10.8233,-1.43041
567,358,10.1333,-0.955139,0,0,0,0,0,0,0,-1,1791,666,10.1333,0.955132
574,358,14.7886,-2.69293,0,0,0,0,0,0,0,-1,1798,666,14.7885,2.6929
581,358,20.1738,-6.76135,0,0,0,0,0,0,0,-1,1805,666,20.1738,6.76137
588,358,30.8226,-10.9417,0,0,0,0,0,0,0,-1,1812,666,30.8227,10.9417
595,358,30.7629,-10.1472,0.000202679,9.3304e-05,-0.000690484,0.000840638,-0.000544655,-0.74588,0.000805861,0.0173532,1819,666,30.7629,10.1472
602,358,30.6771,-9.35938,0.000568866,0.000359534,-0.000344444,0.000824196,0.000104205,-0.637896,0.000518233,0.0141219,1826,666,30.6771,9.35936
609,358,30.5953,-8.61255,0.00108974,0.000759362,0.000170605,0.00116202,0.000687077,0.400764,0.00067461,0.0184299,1833,666,30.5953,8.61257
616,358,30.6008,-7.83881,0.00162718,0.00126237,0.000731576,0.00219875,0.0006908,0.663224,0.00129834,0.0169227,1840,666,30.6008,7.8388
623,358,30.6377,-7.09955,0.00224672,0.00187451,0.00138468,0.00345774,0.000663483,0.718598,0.00211891,0.0146195,1847,666,30.6377,7.09958
630,358,30.5828,-6.36884,0.00285896,0.00259776,0.00208125,0.0048137,0.000643017,0.754064,0.00301772,0.0179873,1854,666,30.5828,6.36882
637,358,30.5198,-5.6153,0.00343399,0.00334996,0.00276721,0.0061595,0.000624451,0.777808,0.00391482,0.0258226,1861,666,30.5198,5.61528
644,358,30.5226,-4.84796,0.00397941,0.00428258,0.00351405,0.00764831,0.000613679,0.806953,0.00490712,0.0227454,1868,666,30.5226,4.84798
651,358,30.6729,-3.92346,0.00445006,0.0052067,0.00426154,0.00910668,0.000550085,0.82967,0.00589631,0.0490066,1875,666,30.6728,3.92348
658,358,30.345,-2.94464,0,0,0,0,0,0,0,-1,1882,666,30.345,2.94465
665,358,28.0272,-2.07764,0,0,0,0,0,0,0,-1,1889,666,28.0272,2.07764
672,358,12.4299,1.47272,0,0,0,0,0,0,0,-1,1896,666,12.4299,-1.4727
679,358,12.1294,2.19702,0,0,0,0,0,0,0,-1,1903,666,12.1294,-2.19703
686,358,11.9557,2.2002,0,0,0,0,0,0,0,-1,1910,666,11.9557,-2.20021
693,358,13.188,2.52203,0,0,0,0,0,0,0,-1,1917,666,13.188,-2.52202
700,358,0,0,0,0,0,0,0,0,0,-1,1924,666,0,0
707,358,0,0,0,0,0,0,0,0,0,-1,1931,666,0,0
714,358,0,0,0,0,0,0,0,0,0,-1,1938,666,0,0
721,358,0,0,0,0,0,0,0,0,0,-1,1945,666,0,0
728,358,0,0,0,0,0,0,0,0,0,-1,1952,666,0,0
735,358,0,0,0,0,0,0,0,0,0,-1,1959,666,0,0
742,358,0,0,0,0,0,0,0,0,0,-1,1966,666,0,0
749,358,0,0,0,0,0,0,0,0,0,-1,1973,666,0,0
756,358,0,0,0,0,0,0,0,0,0,-1,1980,666,0,0
763,358,0,0,0,0,0,0,0,0,0,-1,1987,666,0,0
770,358,0,0,0,0,0,0,0,0,0,-1,1994,666,0,0
777,358,0,0,0,0,0,0,0,0,0,-1,2001,666,0,0
784,358,0,0,0,0,0,0,0,0,0,-1,2008,666,0,0
791,358,0,0,0,0,0,0,0,0,0,-1,2015,666,0,0
798,358,0,0,0,0,0,0,0,0,0,-1,2022,666,0,0
805,358,0,0,0,0,0,0,0,0,0,-1,2029,666,0,0
812,358,0,0,0,0,0,0,0,0,0,-1,2036,666,0,0
-700,351,0,0,0,0,0,0,0,0,0,-1,524,673,0,0
-693,351,0,0,0,0,0,0,0,0,0,-1,531,673,0,0
-686,351,0,0,0,0,0,0,0,0,0,-1,538,673,0,0
-679,351,0,0,0,0,0,0,0,0,0,-1,545,673,0,0
-672,351,0,0,0,0,0,0,0,0,0,-1,552,673,0,0
-665,351,0,0,0,0,0,0,0,0,0,-1,559,673,0,0
-658,351,0,0,0,0,0,0,0,0,0,-1,566,673,0,0
-651,351,0,0,0,0,0,0,0,0,0,-1,573,673,0,0
-644,351,0,0,0,0,0,0,0,0,0,-1,580,673,0,0
-637,351,0,0,0,0,0,0,0,0,0,-1,587,673,0,0
-630,351,0,0,0,0,0,0,0,0,0,-1,594,673,0,0
-623,351,0,0,0,0,0,0,0,0,0,-1,601,673,0,0
-616,351,0,0,0,0,0,0,0,0,0,-1,608,673,0,0
-609,351,0,0,0,0,0,0,0,0,0,-1,615,673,0,0
-602,351,0,0,0,0,0,0,0,0,0,-1,622,673,0,0
-595,351,0,0,0,0,0,0,0,0,0,-1,629,673,0,0
-588,351,0,0,0,0,0,0,0,0,0,-1,636,673,0,0
-581,351,-9.0647,1.71906,0,0,0,0,0,0,0,-1,643,673,-9.06472,-1.71908
-574,351,-8.23584,2.64764,0,0,0,0,0,0,0,-1,650,673,-8.23584,-2.64764
-567,351,-10.8027,4.56836,0,0,0,0,0,0,0,-1,657,673,-10.8027,-4.56839
-560,351,-14.2001,2.17084,0,0,0,0,0,0,0,-1,664,673,-14.2002,-2.17086
-553,351,-13.4979,0.779541,0,0,0,0,0,0,0,-1,671,673,-13.4978,-0.779519
-546,351,-14.0065,0.73645,0,0,0,0,0,0,0,-1,678,673,-14.0065,-0.736473
-539,351,-12.8123,-1.46393,0,0,0,0,0,0,0,-1,685,673,-12.8123,1.46395
-532,351,-16.0198,-4.03937,0,0,0,0,0,0,0,-1,692,673,-16.0198,4.03936
-525,351,-18.3303,-5.427,0,0,0,0,0,0,0,-1,699,673,-18.3303,5.427
-518,351,-18.2618,-6.10913,0.0032607,0.00130888,-0.00105393,0.00372116,0.000848412,-0.411908,0.00225189,0.0229704,706,673,-18.2618,6.10914
-511,351,-18.2593,-6.87933,0.00262399,0.000894281,-0.000769094,0.0029165,0.000601777,-0.363428,0.00177802,0.0127595,713,673,-18.2593,6.87932
-504,351,-18.3111,-7.63318,0.00214617,0.000509385,-0.000545667,0.0023114,0.000344151,-0.294033,0.00143999,0.0115568,720,673,-18.3111,7.6332
-497,351,-18.3353,-8.39215,0.00186933,0.000208923,-0.000391714,0.0019571,0.000121152,-0.220429,0.00126628,0.0114447,727,673,-18.3353,8.39215
-490,351,-18.3714,-9.13275,0.00171069,3.38242e-05,-0.000361999,0.0017855,-4.09857e-05,-0.203789,0.00120423,0.0109987,734,673,-18.3714,9.13277
-483,351,-18.4096,-9.85693,0.00175291,-4.83618e-05,-0.000405526,0.00184,-0.000135449,-0.211538,0.00127421,0.0126935,741,673,-18.4096,9.85695
-476,351,-18.4491,-10.582,0.0019449,-3.62338e-06,-0.000577634,0.00210326,-0.00016199,-0.267589,0.00145917,0.0114026,748,673,-18.4491,10.582
-469,351,-18.4774,-11.2964,0.0022645,0.000173081,-0.00089574,0.00259569,-0.000158111,-0.354152,0.0017855,0.0134525,755,673,-18.4774,11.2964
-462,351,-18.4877,-12.0568,0.00271599,0.000486443,-0.00130784,0.0033197,-0.000117261,-0.432461,0.00225324,0.0348623,762,673,-18.4877,12.0568
-455,351,-18.468,-12.84,0,0,0,0,0,0,0,-1,769,673,-18.4679,12.84
-448,351,-6.61456,-4.38654,0,0,0,0,0,0,0,-1,776,673,-6.61456,4.38654
-441,351,-4.31567,-2.3009,0,0,0,0,0,0,0,-1,783,673,-4.31565,2.30089
-434,351,-3.81708,-2.28003,0,0,0,0,0,0,0,-1,790,673,-3.81706,2.28006
-427,351,-2.05157,-2.7785,0,0,0,0,0,0,0,-1,797,673,-2.05157,2.77848
-420,351,-1.06989,-2.43665,0,0,0,0,0,0,0,-1,804,673,-1.06991,2.43663
-413,351,-0.392334,-2.06671,0,0,0,0,0,0,0,-1,811,673,-0.392363,2.06672
-406,351,-1.86316,-2.58105,0,0,0,0,0,0,0,-1,818,673,-1.86313,2.58106
-399,351,1.00952,-1.53455,0,0,0,0,0,0,0,-1,825,673,1.00954,1.53457
-392,351,-1.02197,0.877136,0,0,0,0,0,0,0,-1,832,673,-1.02195,-0.877143
-385,351,-1.47205,1.04437,0,0,0,0,0,0,0,-1,839,673,-1.47207,-1.04435
-378,351,0,0,0,0,0,0,0,0,0,-1,846,673,0,0
-371,351,0,0,0,0,0,0,0,0,0,-1,853,673,0,0
-364,351,0,0,0,0,0,0,0,0,0,-1,860,673,0,0
-357,351,0,0,0,0,0,0,0,0,0,-1,867,673,0,0
-350,351,0,0,0,0,0,0,0,0,0,-1,874,673,0,0
-343,351,0,0,0,0,0,0,0,0,0,-1,881,673,0,0
-336,351,0,0,0,0,0,0,0,0,0,-1,888,673,0,0
-329,351,0,0,0,0,0,0,0,0,0,-1,895,673,0,0
-322,351,0,0,0,0,0,0,0,0,0,-1,902,673,0,0
-315,351,0,0,0,0,0,0,0,0,0,-1,909,673,0,0
-308,351,0,0,0,0,0,0,0,0,0,-1,916,673,0,0
-301,351,0,0,0,0,0,0,0,0,0,-1,923,673,0,0
-294,351,0,0,0,0,0,0,0,0,0,-1,930,673,0,0
-287,351,0,0,0,0,0,0,0,0,0,-1,937,673,0,0
-280,351,0,0,0,0,0,0,0,0,0,-1,944,673,0,0
-273,351,0,0,0,0,0,0,0,0,0,-1,951,673,0,0
-266,351,0,0,0,0,0,0,0,0,0,-1,958,673,0,0
-259,351,0,0,0,0,0,0,0,0,0,-1,965,673,0,0
-252,351,0,0,0,0,0,0,0,0,0,-1,972,673,0,0
-245,351,0,0,0,0,0,0,0,0,0,-1,979,673,0,0
-238,351,0,0,0,0,0,0,0,0,0,-1,986,673,0,0
-231,351,0,0,0,0,0,0,0,0,0,-1,993,673,0,0
-224,351,0,0,0,0,0,0,0,0,0,-1,1000,673,0,0
-217,351,0,0,0,0,0,0,0,0,0,-1,1007,673,0,0
-210,351,0,0,0,0,0,0,0,0,0,-1,1014,673,0,0
-203,351,0,0,0,0,0,0,0,0,0,-1,1021,673,0,0
-196,351,0,0,0,0,0,0,0,0,0,-1,1028,673,0,0
-189,351,0,0,0,0,0,0,0,0,0,-1,1035,673,0,0
-182,351,0,0,0,0,0,0,0,0,0,-1,1042,673,0,0
-175,351,0,0,0,0,0,0,0,0,0,-1,1049,673,0,0
-168,351,0,0,0,0,0,0,0,0,0,-1,1056,673,0,0
-161,351,0,0,0,0,0,0,0,0,0,-1,1063,673,0,0
-154,351,0,0,0,0,0,0,0,0,0,-1,1070,673,0,0
-147,351,0,0,0,0,0,0,0,0,0,-1,1077,673,0,0
-140,351,0,0,0,0,0,0,0,0,0,-1,1084,673,0,0
-133,351,0,0,0,0,0,0,0,0,0,-1,1091,673,0,0
-126,351,0,0,0,0,0,0,0,0,0,-1,1098,673,0,0
-119,351,0,0,0,0,0,0,0,0,0,-1,1105,673,0,0
-112,351,0,0,0,0,0,0,0,0,0,-1,1112,673,0,0
-105,351,0,0,0,0,0,0,0,0,0,-1,1119,673,0,0
-98,351,0,0,0,0,0,0,0,0,0,-1,1126,673,0,0
-91,351,0,0,0,0,0,0,0,0,0,-1,1133,673,0,0
-84,351,0,0,0,0,0,0,0,0,0,-1,1140,673,0,0
-77,351,0,0,0,0,0,0,0,0,0,-1,1147,673,0,0
-70,351,0,0,0,0,0,0,0,0,0,-1,1154,673,0,0
-63,351,0,0,0,0,0,0,0,0,0,-1,1161,673,0,0
-56,351,0,0,0,0,0,0,0,0,0,-1,1168,673,0,0
-49,351,0,0,0,0,0,0,0,0,0,-1,1175,673,0,0
-42,351,0,0,0,0,0,0,0,0,0,-1,1182,673,0,0
-35,351,0,0,0,0,0,0,0,0,0,-1,1189,673,0,0
-28,351,0,0,0,0,0,0,0,0,0,-1,1196,673,0,0
-21,351,0,0,0,0,0,0,0,0,0,-1,1203,673,0,0
-14,351,0,0,0,0,0,0,0,0,0,-1,1210,673,0,0
-7,351,0,0,0,0,0,0,0,0,0,-1,1217,673,0,0
0,351,0,0,0,0,0,0,0,0,0,-1,1224,673,0,0
7,351,0,0,0,0,0,0,0,0,0,-1,1231,673,0,0
14,351,0,0,0,0,0,0,0,0,0,-1,1238,673,0,0
21,351,0,0,0,0,0,0,0,0,0,-1,1245,673,0,0
28,351,0,0,0,0,0,0,0,0,0,-1,1252,673,0,0
35,351,0,0,0,0,0,0,0,0,0,-1,1259,673,0,0
42,351,0,0,0,0,0,0,0,0,0,-1,1266,673,0,0
49,351,0,0,0,0,0,0,0,0,0,-1,1273,673,0,0
56,351,0,0,0,0,0,0,0,0,0,-1,1280,673,0,0
63,351,0,0,0,0,0,0,0,0,0,-1,1287,673,0,0
70,351,0,0,0,0,0,0,0,0,0,-1,1294,673,0,0
77,351,0,0,0,0,0,0,0,0,0,-1,1301,673,0,0
84,351,0,0,0,0,0,0,0,0,0,-1,1308,673,0,0
91,351,0,0,0,0,0,0,0,0,0,-1,1315,673,0,0
98,351,0,0,0,0,0,0,0,0,0,-1,1322,673,0,0
105,351,0,0,0,0,0,0,0,0,0,-1,1329,673,0,0
112,351,0,0,0,0,0,0,0,0,0,-1,1336,673,0,0
119,351,0,0,0,0,0,0,0,0,0,-1,1343,673,0,0
126,351,0,0,0,0,0,0,0,0,0,-1,1350,673,0,0
133,351,0,0,0,0,0,0,0,0,0,-1,1357,673,0,0
140,351,0,0,0,0,0,0,0,0,0,-1,1364,673,0,0
147,351,0,0,0,0,0,0,0,0,0,-1,1371,673,0,0
154,351,0,0,0,0,0,0,0,0,0,-1,1378,673,0,0
161,351,0,0,0,0,0,0,0,0,0,-1,1385,673,0,0
168,351,0,0,0,0,0,0,0,0,0,-1,1392,673,0,0
175,351,0,0,0,0,0,0,0,0,0,-1,1399,673,0,0
182,351,0,0,0,0,0,0,0,0,0,-1,1406,673,0,0
189,351,0,0,0,0,0,0,0,0,0,-1,1413,673,0,0
196,351,0,0,0,0,0,0,0,0,0,-1,1420,673,0,0
203,351,0,0,0,0,0,0,0,0,0,-1,1427,673,0,0
210,351,0,0,0,0,0,0,0,0,0,-1,1434,673,0,0
217,351,0,0,0,0,0,0,0,0,0,-1,1441,673,0,0
224,351,0,0,0,0,0,0,0,0,0,-1,1448,673,0,0
231,351,0,0,0,0,0,0,0,0,0,-1,1455,673,0,0
238,351,0,0,0,0,0,0,0,0,0,-1,1462,673,0,0
245,351,0,0,0,0,0,0,0,0,0,-1,1469,673,0,0
252,351,0,0,0,0,0,0,0,0,0,-1,1476,673,0,0
259,351,0,0,0,0,0,0,0,0,0,-1,1483,673,0,0
266,351,0,0,0,0,0,0,0,0,0,-1,1490,673,0,0
273,351,0,0,0,0,0,0,0,0,0,-1,1497,673,0,0
280,351,0,0,0,0,0,0,0,0,0,-1,1504,673,0,0
287,351,0,0,0,0,0,0,0,0,0,-1,1511,673,0,0
294,351,0,0,0,0,0,0,0,0,0,-1,1518,673,0,0
301,351,0,0,0,0,0,0,0,0,0,-1,1525,673,0,0
308,351,0,0,0,0,0,0,0,0,0,-1,1532,673,0,0
315,351,0,0,0,0,0,0,0,0,0,-1,1539,673,0,0
322,351,0,0,0,0,0,0,0,0,0,-1,1546,673,0,0
329,351,0,0,0,0,0,0,0,0,0,-1,1553,673,0,0
336,351,0,0,0,0,0,0,0,0,0,-1,1560,673,0,0
343,351,0,0,0,0,0,0,0,0,0,-1,1567,673,0,0
350,351,0,0,0,0,0,0,0,0,0,-1,1574,673,0,0
357,351,0,0,0,0,0,0,0,0,0,-1,1581,673,0,0
364,351,0,0,0,0,0,0,0,0,0,-1,1588,673,0,0
371,351,0,0,0,0,0,0,0,0,0,-1,1595,673,0,0
378,351,0,0,0,0,0,0,0,0,0,-1,1602,673,0,0
385,351,0,0,0,0,0,0,0,0,0,-1,1609,673,0,0
392,351,0,0,0,0,0,0,0,0,0,-1,1616,673,0,0
399,351,0,0,0,0,0,0,0,0,0,-1,1623,673,0,0
406,351,0,0,0,0,0,0,0,0,0,-1,1630,673,0,0
413,351,0,0,0,0,0,0,0,0,0,-1,1637,673,0,0
420,351,0,0,0,0,0,0,0,0,0,-1,1644,673,0,0
427,351,0,0,0,0,0,0,0,0,0,-1,1651,673,0,0
434,351,0,0,0,0,0,0,0,0,0,-1,1658,673,0,0
441,351,0,0,0,0,0,0,0,0,0,-1,1665,673,0,0
448,351,0,0,0,0,0,0,0,0,0,-1,1672,673,0,0
455,351,0,0,0,0,0,0,0,0,0,-1,1679,673,0,0
462,351,0,0,0,0,0,0,0,0,0,-1,1686,673,0,0
469,351,0,0,0,0,0,0,0,0,0,-1,1693,673,0,0
476,351,0,0,0,0,0,0,0,0,0,-1,1700,673,0,0
483,351,0,0,0,0,0,0,0,0,0,-1,1707,673,0,0
490,351,0,0,0,0,0,0,0,0,0,-1,1714,673,0,0
497,351,0,0,0,0,0,0,0,0,0,-1,1721,673,0,0
504,351,10.8842,1.61615,0,0,0,0,0,0,0,-1,1728,673,10.8842,-1.61618
511,351,15.4548,0.0236816,0,0,0,0,0,0,0,-1,1735,673,15.4549,-0.0236664
518,351,16.7448,2.49268,0,0,0,0,0,0,0,-1,1742,673,16.7448,-2.49269
525,351,16.0701,3.43225,0,0,0,0,0,0,0,-1,1749,673,16.07,-3.43227
532,351,32.3822,3.03021,0,0,0,0,0,0,0,-1,1756,673,32.3822,-3.03019
539,351,15.3387,3.54486,0,0,0,0,0,0,0,-1,1763,673,15.3387,-3.54485
546,351,13.9387,4.59357,0,0,0,0,0,0,0,-1,1770,673,13.9388,-4.59359
553,351,12.0682,2.02832,0,0,0,0,0,0,0,-1,1777,673,12.0683,-2.02831
560,351,12.0173,0.55304,0,0,0,0,0,0,0,-1,1784,673,12.0174,-0.553028
567,351,10.7827,0.130188,0,0,0,0,0,0,0,-1,1791,673,10.7827,-0.130183
574,351,13.405,-1.09204,0,0,0,0,0,0,0,-1,1798,673,13.405,1.09207
581,351,15.2351,-3.06049,0,0,0,0,0,0,0,-1,1805,673,15.2351,3.06046
588,351,29.9419,-10.5057,0,0,0,0,0,0,0,-1,1812,673,29.9419,10.5057
595,351,31.4901,-10.1471,0,0,0,0,0,0,0,-1,1819,673,31.4902,10.1471
602,351,31.4525,-9.35608,0.000431718,5.31455e-05,-0.000694669,0.000962428,-0.000477565,-0.652385,0.000846944,0.0189227,1826,673,31.4525,9.3561
609,351,31.4534,-8.62042,0.000924673,0.00032404,-0.000249197,0.0010146,0.000234114,-0.346319,0.000613438,0.0192022,1833,673,31.4534,8.62044
616,351,31.3843,-7.86023,0.00137837,0.000699336,0.000251741,0.00146151,0.000616189,0.319011,0.000847255,0.0159474,1840,673,31.3843,7.8602
623,351,31.3915,-7.09302,0.00186061,0.00119758,0.000806958,0.0024015,0.000656693,0.590498,0.00143316,0.0152856,1847,673,31.3915,7.093
630,351,31.3444,-6.35626,0.00234543,0.00182098,0.00142107,0.00352827,0.000638145,0.694162,0.00217096,0.0243209,1854,673,31.3443,6.35629
637,351,31.2788,-5.55994,0.00280024,0.00246972,0.00202366,0.00466538,0.000604579,0.744657,0.00292959,0.0294753,1861,673,31.2788,5.55992
644,351,31.2568,-4.78815,0.00322712,0.00321956,0.00265044,0.00587378,0.0005729,0.784686,0.00373955,0.0231719,1868,673,31.2568,4.78815
651,351,31.27,-3.97272,0.00362048,0.0040426,0.00329326,0.00713156,0.00053153,0.817399,0.00458747,0.0197577,1875,673,31.27,3.97272
658,351,31.1641,-3.13354,0.00391581,0.00488048,0.00377211,0.00820097,0.000595323,0.848987,0.00528007,0.0411032,1882,673,31.164,3.13353
665,351,30.7957,-2.24988,0,0,0,0,0,0,0,-1,1889,673,30.7957,2.24986
672,351,27.876,-1.51941,0,0,0,0,0,0,0,-1,1896,673,27.8759,1.51941
679,351,14.1252,1.85681,0,0,0,0,0,0,0,-1,1903,673,14.1253,-1.85682
686,351,13.0294,2.1189,0,0,0,0,0,0,0,-1,1910,673,13.0294,-2.11892
693,351,13.5187,2.34595,0,0,0,0,0,0,0,-1,1917,673,13.5187,-2.34596
700,351,14.5629,-2.40173,0,0,0,0,0,0,0,-1,1924,673,14.5629,2.40172
707,351,0,0,0,0,0,0,0,0,0,-1,1931,673,0,0
714,351,0,0,0,0,0,0,0,0,0,-1,1938,673,0,0
721,351,0,0,0,0,0,0,0,0,0,-1,1945,673,0,0
728,351,0,0,0,0,0,0,0,0,0,-1,1952,673,0,0
735,351,0,0,0,0,0,0,0,0,0,-1,1959,673,0,0
742,351,0,0,0,0,0,0,0,0,0,-1,1966,673,0,0
749,351,0,0,0,0,0,0,0,0,0,-1,1973,673,0,0
756,351,0,0,0,0,0,0,0,0,0,-1,1980,673,0,0
763,351,0,0,0,0,0,0,0,0,0,-1,1987,673,0,0
770,351,0,0,0,0,0,0,0,0,0,-1,1994,673,0,0
777,351,0,0,0,0,0,0,0,0,0,-1,2001,673,0,0
784,351,0,0,0,0,0,0,0,0,0,-1,2008,673,0,0
791,351,0,0,0,0,0,0,0,0,0,-1,2015,673,0,0
798,351,0,0,0,0,0,0,0,0,0,-1,2022,673,0,0
805,351,0,0,0,0,0,0,0,0,0,-1,2029,673,0,0
812,351,0,0,0,0,0,0,0,0,0,-1,2036,673,0,0
-700,344,0,0,0,0,0,0,0,0,0,-1,524,680,0,0
-693,344,0,0,0,0,0,0,0,0,0,-1,531,680,0,0
-686,344,0,0,0,0,0,0,0,0,0,-1,538,680,0,0
-679,344,0,0,0,0,0,0,0,0,0,-1,545,680,0,0
-672,344,0,0,0,0,0,0,0,0,0,-1,552,680,0,0
-665,344,0,0,0,0,0,0,0,0,0,-1,559,680,0,0
-658,344,0,0,0,0,0,0,0,0,0,-1,566,680,0,0
-651,344,0,0,0,0,0,0,0,0,0,-1,573,680,0,0
-644,344,0,0,0,0,0,0,0,0,0,-1,580,680,0,0
-637,344,0,0,0,0,0,0,0,0,0,-1,587,680,0,0
-630,344,0,0,0,0,0,0,0,0,0,-1,594,680,0,0
-623,344,0,0,0,0,0,0,0,0,0,-1,601,680,0,0
-616,344,0,0,0,0,0,0,0,0,0,-1,608,680,0,0
-609,344,0,0,0,0,0,0,0,0,0,-1,615,680,0,0
-602,344,0,0,0,0,0,0,0,0,0,-1,622,680,0,0
-595,344,0,0,0,0,0,0,0,0,0,-1,629,680,0,0
-588,344,-9.27826,1.47302,0,0,0,0,0,0,0,-1,636,680,-9.27829,-1.473
-581,344,-10.0098,1.71753,0,0,0,0,0,0,0,-1,643,680,-10.0098,-1.7175
-574,344,-10.2208,3.04871,0,0,0,0,0,0,0,-1,650,680,-10.2208,-3.04869
-567,344,-14.3779,2.29016,0,0,0,0,0,0,0,-1,657,680,-14.3779,-2.29014
-560,344,-14.1238,1.8374,0,0,0,0,0,0,0,-1,664,680,-14.1238,-1.83743
-553,344,-14.7884,2.00116,0,0,0,0,0,0,0,-1,671,680,-14.7884,-2.00115
-546,344,-17.4192,0.157654,0,0,0,0,0,0,0,-1,678,680,-17.4192,-0.157635
-539,344,-17.2671,-2.75714,0,0,0,0,0,0,0,-1,685,680,-17.2671,2.75712
-532,344,-18.4417,-4.38605,0,0,0,0,0,0,0,-1,692,680,-18.4417,4.38603
-525,344,-18.9947,-5.40582,0,0,0,0,0,0,0,-1,699,680,-18.9947,5.40581
-518,344,-19.0043,-6.11853,0.00319409,0.00135094,-0.000958519,0.0036022,0.000942829,-0.402523,0.002157,0.0218678,706,680,-19.0043,6.11854
-511,344,-19.0309,-6.86041,0.00253372,0.000780551,-0.000652882,0.00275013,0.000564132,-0.320084,0.00167731,0.0182347,713,680,-19.0309,6.86038
-504,344,-19.0645,-7.60529,0.00206408,0.000268998,-0.000404451,0.002151,0.000182079,-0.211685,0.00137732,0.0177403,720,680,-19.0644,7.6053
-497,344,-19.0905,-8.37231,0.00180752,-8.44381e-05,-0.000252391,0.00184061,-0.000117529,-0.130365,0.00126806,0.0161435,727,680,-19.0905,8.3723
-490,344,-19.1229,-9.11243,0.00166482,-0.000318037,-0.000219371,0.0016888,-0.000342017,-0.10888,0.0012555,0.01495,734,680,-19.1229,9.11242
-483,344,-19.129,-9.82892,0.00174163,-0.000416694,-0.000285507,0.00177876,-0.000453823,-0.129319,0.00136254,0.014688,741,680,-19.129,9.82889
-476,344,-19.1735,-10.5569,0.0019822,-0.00036638,-0.000518751,0.00209168,-0.000475857,-0.207989,0.00157718,0.0144975,748,680,-19.1735,10.557
-469,344,-19.1881,-11.3167,0.00238923,-0.000141325,-0.000937726,0.00269884,-0.00045093,-0.318898,0.00196684,0.0206385,755,680,-19.1881,11.3166
-462,344,-19.1872,-12.082,0,0,0,0,0,0,0,-1,762,680,-19.1872,12.082
-455,344,-12.1653,-7.99176,0,0,0,0,0,0,0,-1,769,680,-12.1653,7.99174
-448,344,-5.67657,-2.72864,0,0,0,0,0,0,0,-1,776,680,-5.6766,2.72863
-441,344,-5.09229,-2.34167,0,0,0,0,0,0,0,-1,783,680,-5.09229,2.34168
-434,344,-4.28778,-2.08807,0,0,0,0,0,0,0,-1,790,680,-4.28778,2.08809
-427,344,-3.06506,-1.45404,0,0,0,0,0,0,0,-1,797,680,-3.06505,1.45402
-420,344,-1.96582,-1.57574,0,0,0,0,0,0,0,-1,804,680,-1.96579,1.57574
-413,344,-0.817993,-1.4751,0,0,0,0,0,0,0,-1,811,680,-0.818017,1.47511
-406,344,-0.00714111,-1.25189,0,0,0,0,0,0,0,-1,818,680,-0.00714956,1.25191
-399,344,0.240051,-1.75769,0,0,0,0,0,0,0,-1,825,680,0.240079,1.75767
-392,344,1.11353,-2.05615,0,0,0,0,0,0,0,-1,832,680,1.11351,2.05616
-385,344,0,0,0,0,0,0,0,0,0,-1,839,680,0,0
-378,344,0,0,0,0,0,0,0,0,0,-1,846,680,0,0
-371,344,0,0,0,0,0,0,0,0,0,-1,853,680,0,0
-364,344,0,0,0,0,0,0,0,0,0,-1,860,680,0,0
-357,344,0,0,0,0,0,0,0,0,0,-1,867,680,0,0
-350,344,0,0,0,0,0,0,0,0,0,-1,874,680,0,0
-343,344,0,0,0,0,0,0,0,0,0,-1,881,680,0,0
-336,344,0,0,0,0,0,0,0,0,0,-1,888,680,0,0
-329,344,0,0,0,0,0,0,0,0,0,-1,895,680,0,0
-322,344,0,0,0,0,0,0,0,0,0,-1,902,680,0,0
-315,344,0,0,0,0,0,0,0,0,0,-1,909,680,0,0
-308,344,0,0,0,0,0,0,0,0,0,-1,916,680,0,0
-301,344,0,0,0,0,0,0,0,0,0,-1,923,680,0,0
-294,344,0,0,0,0,0,0,0,0,0,-1,930,680,0,0
-287,344,0,0,0,0,0,0,0,0,0,-1,937,680,0,0
-280,344,0,0,0,0,0,0,0,0,0,-1,944,680,0,0
-273,344,0,0,0,0,0,0,0,0,0,-1,951,680,0,0
-266,344,0,0,0,0,0,0,0,0,0,-1,958,680,0,0
-259,344,0,0,0,0,0,0,0,0,0,-1,965,680,0,0
-252,344,0,0,0,0,0,0,0,0,0,-1,972,680,0,0
-245,344,0,0,0,0,0,0,0,0,0,-1,979,680,0,0
-238,344,0,0,0,0,0,0,0,0,0,-1,986,680,0,0
-231,344,0,0,0,0,0,0,0,0,0,-1,993,680,0,0
-224,344,0,0,0,0,0,0,0,0,0,-1,1000,680,0,0
-217,344,0,0,0,0,0,0,0,0,0,-1,1007,680,0,0
-210,344,0,0,0,0,0,0,0,0,0,-1,1014,680,0,0
-203,344,0,0,0,0,0,0,0,0,0,-1,1021,680,0,0
-196,344,0,0,0,0,0,0,0,0,0,-1,1028,680,0,0
-189,344,0,0,0,0,0,0,0,0,0,-1,1035,680,0,0
-182,344,0,0,0,0,0,0,0,0,0,-1,1042,680,0,0
-175,344,0,0,0,0,0,0,0,0,0,-1,1049,680,0,0
-168,344,0,0,0,0,0,0,0,0,0,-1,1056,680,0,0
-161,344,0,0,0,0,0,0,0,0,0,-1,1063,680,0,0
-154,344,0,0,0,0,0,0,0,0,0,-1,1070,680,0,0
-147,344,0,0,0,0,0,0,0,0,0,-1,1077,680,0,0
-140,344,0,0,0,0,0,0,0,0,0,-1,1084,680,0,0
-133,344,0,0,0,0,0,0,0,0,0,-1,1091,680,0,0
-126,344,0,0,0,0,0,0,0,0,0,-1,1098,680,0,0
-119,344,0,0,0,0,0,0,0,0,0,-1,1105,680,0,0
-112,344,0,0,0,0,0,0,0,0,0,-1,1112,680,0,0
-105,344,0,0,0,0,0,0,0,0,0,-1,1119,680,0,0
-98,344,0,0,0,0,0,0,0,0,0,-1,1126,680,0,0
-91,344,0,0,0,0,0,0,0,0,0,-1,1133,680,0,0
-84,344,0,0,0,0,0,0,0,0,0,-1,1140,680,0,0
-77,344,0,0,0,0,0,0,0,0,0,-1,1147,680,0,0
-70,344,0,0,0,0,0,0,0,0,0,-1,1154,680,0,0
-63,344,0,0,0,0,0,0,0,0,0,-1,1161,680,0,0
-56,344,0,0,0,0,0,0,0,0,0,-1,1168,680,0,0
-49,344,0,0,0,0,0,0,0,0,0,-1,1175,680,0,0
-42,344,0,0,0,0,0,0,0,0,0,-1,1182,680,0,0
-35,344,0,0,0,0,0,0,0,0,0,-1,1189,680,0,0
-28,344,0,0,0,0,0,0,0,0,0,-1,1196,680,0,0
-21,344,0,0,0,0,0,0,0,0,0,-1,1203,680,0,0
-14,344,0,0,0,0,0,0,0,0,0,-1,1210,680,0,0
-7,344,0,0,0,0,0,0,0,0,0,-1,1217,680,0,0
0,344,0,0,0,0,0,0,0,0,0,-1,1224,680,0,0
7,344,0,0,0,0,0,0,0,0,0,-1,1231,680,0,0
14,344,0,0,0,0,0,0,0,0,0,-1,1238,680,0,0
21,344,0,0,0,0,0,0,0,0,0,-1,1245,680,0,0
28,344,0,0,0,0,0,0,0,0,0,-1,1252,680,0,0
35,344,0,0,0,0,0,0,0,0,0,-1,1259,680,0,0
42,344,0,0,0,0,0,0,0,0,0,-1,1266,680,0,0
49,344,0,0,0,0,0,0,0,0,0,-1,1273,680,0,0
56,344,0,0,0,0,0,0,0,0,0,-1,1280,680,0,0
63,344,0,0,0,0,0,0,0,0,0,-1,1287,680,0,0
70,344,0,0,0,0,0,0,0,0,0,-1,1294,680,0,0
77,344,0,0,0,0,0,0,0,0,0,-1,1301,680,0,0
84,344,0,0,0,0,0,0,0,0,0,-1,1308,680,0,0
91,344,0,0,0,0,0,0,0,0,0,-1,1315,680,0,0
98,344,0,0,0,0,0,0,0,0,0,-1,1322,680,0,0
105,344,0,0,0,0,0,0,0,0,0,-1,1329,680,0,0
112,344,0,0,0,0,0,0,0,0,0,-1,1336,680,0,0
119,344,0,0,0,0,0,0,0,0,0,-1,1343,680,0,0
126,344,0,0,0,0,0,0,0,0,0,-1,1350,680,0,0
133,344,0,0,0,0,0,0,0,0,0,-1,1357,680,0,0
140,344,0,0,0,0,0,0,0,0,0,-1,1364,680,0,0
147,344,0,0,0,0,0,0,0,0,0,-1,1371,680,0,0
154,344,0,0,0,0,0,0,0,0,0,-1,1378,680,0,0
161,344,0,0,0,0,0,0,0,0,0,-1,1385,680,0,0
168,344,0,0,0,0,0,0,0,0,0,-1,1392,680,0,0
175,344,0,0,0,0,0,0,0,0,0,-1,1399,680,0,0
182,344,0,0,0,0,0,0,0,0,0,-1,1406,680,0,0
189,344,0,0,0,0,0,0,0,0,0,-1,1413,680,0,0
196,344,0,0,0,0,0,0,0,0,0,-1,1420,680,0,0
203,344,0,0,0,0,0,0,0,0,0,-1,1427,680,0,0
210,344,0,0,0,0,0,0,0,0,0,-1,1434,680,0,0
217,344,0,0,0,0,0,0,0,0,0,-1,1441,680,0,0
224,344,0,0,0,0,0,0,0,0,0,-1,1448,680,0,0
231,344,0,0,0,0,0,0,0,0,0,-1,1455,680,0,0
238,344,0,0,0,0,0,0,0,0,0,-1,1462,680,0,0
245,344,0,0,0,0,0,0,0,0,0,-1,1469,680,0,0
252,344,0,0,0,0,0,0,0,0,0,-1,1476,680,0,0
259,344,0,0,0,0,0,0,0,0,0,-1,1483,680,0,0
266,344,0,0,0,0,0,0,0,0,0,-1,1490,680,0,0
273,344,0,0,0,0,0,0,0,0,0,-1,1497,680,0,0
280,344,0,0,0,0,0,0,0,0,0,-1,1504,680,0,0
287,344,0,0,0,0,0,0,0,0,0,-1,1511,680,0,0
294,344,0,0,0,0,0,0,0,0,0,-1,1518,680,0,0
301,344,0,0,0,0,0,0,0,0,0,-1,1525,680,0,0
308,344,0,0,0,0,0,0,0,0,0,-1,1532,680,0,0
315,344,0,0,0,0,0,0,0,0,0,-1,1539,680,0,0
322,344,0,0,0,0,0,0,0,0,0,-1,1546,680,0,0
329,344,0,0,0,0,0,0,0,0,0,-1,1553,680,0,0
336,344,0,0,0,0,0,0,0,0,0,-1,1560,680,0,0
343,344,0,0,0,0,0,0,0,0,0,-1,1567,680,0,0
350,344,0,0,0,0,0,0,0,0,0,-1,1574,680,0,0
357,344,0,0,0,0,0,0,0,0,0,-1,1581,680,0,0
364,344,0,0,0,0,0,0,0,0,0,-1,1588,680,0,0
371,344,0,0,0,0,0,0,0,0,0,-1,1595,680,0,0
378,344,0,0,0,0,0,0,0,0,0,-1,1602,680,0,0
385,344,0,0,0,0,0,0,0,0,0,-1,1609,680,0,0
392,344,0,0,0,0,0,0,0,0,0,-1,1616,680,0,0
399,344,0,0,0,0,0,0,0,0,0,-1,1623,680,0,0
406,344,0,0,0,0,0,0,0,0,0,-1,1630,680,0,0
413,344,0,0,0,0,0,0,0,0,0,-1,1637,680,0,0
420,344,0,0,0,0,0,0,0,0,0,-1,1644,680,0,0
427,344,0,0,0,0,0,0,0,0,0,-1,1651,680,0,0
434,344,0,0,0,0,0,0,0,0,0,-1,1658,680,0,0
441,344,0,0,0,0,0,0,0,0,0,-1,1665,680,0,0
448,344,0,0,0,0,0,0,0,0,0,-1,1672,680,0,0
455,344,0,0,0,0,0,0,0,0,0,-1,1679,680,0,0
462,344,0,0,0,0,0,0,0,0,0,-1,1686,680,0,0
469,344,0,0,0,0,0,0,0,0,0,-1,1693,680,0,0
476,344,0,0,0,0,0,0,0,0,0,-1,1700,680,0,0
483,344,0,0,0,0,0,0,0,0,0,-1,1707,680,0,0
490,344,0,0,0,0,0,0,0,0,0,-1,1714,680,0,0
497,344,0,0,0,0,0,0,0,0,0,-1,1721,680,0,0
504,344,0,0,0,0,0,0,0,0,0,-1,1728,680,0,0
511,344,15.4819,0.452637,0,0,0,0,0,0,0,-1,1735,680,15.4819,-0.452656
518,344,17.1357,2.31207,0,0,0,0,0,0,0,-1,1742,680,17.1358,-2.31207
525,344,31.5201,2.6217,0,0,0,0,0,0,0,-1,1749,680,31.5201,-2.62168
532,344,31.9766,2.61047,0,0,0,0,0,0,0,-1,1756,680,31.9765,-2.6105
539,344,32.4379,2.65314,0,0,0,0,0,0,0,-1,1763,680,32.4378,-2.65316
546,344,14.6722,4.30243,0,0,0,0,0,0,0,-1,1770,680,14.6722,-4.30241
553,344,14.8136,4.35681,0,0,0,0,0,0,0,-1,1777,680,14.8136,-4.35679
560,344,11.9363,2.14185,0,0,0,0,0,0,0,-1,1784,680,11.9362,-2.14182
567,344,11.397,0.925842,0,0,0,0,0,0,0,-1,1791,680,11.397,-0.92583
574,344,10.0004,0.504639,0,0,0,0,0,0,0,-1,1798,680,10.0004,-0.504645
581,344,13.6709,-0.969604,0,0,0,0,0,0,0,-1,1805,680,13.6709,0.969629
588,344,16.1447,-3.15948,0,0,0,0,0,0,0,-1,1812,680,16.1447,3.15946
595,344,32.1519,-10.1651,0,0,0,0,0,0,0,-1,1819,680,32.1519,10.1651
602,344,32.3427,-9.27362,0.000374912,-0.000217791,-0.00098594,0.00110808,-0.000950955,-0.639405,0.00118994,0.0384926,1826,680,32.3426,9.27365
609,344,32.2394,-8.55817,0.000942811,-4.88268e-05,-0.000540955,0.0011808,-0.000286812,-0.414453,0.000898197,0.0159454,1833,680,32.2393,8.55816
616,344,32.1849,-7.78107,0.00134629,0.000235071,-5.37899e-05,0.00134889,0.000232474,-0.0482559,0.000832655,0.0228907,1840,680,32.1849,7.78105
623,344,32.1808,-7.0434,0.00169275,0.00065231,0.000426865,0.00184547,0.000499595,0.343572,0.00110219,0.0190142,1847,680,32.1808,7.04338
630,344,32.1204,-6.31091,0.00205121,0.0011942,0.000969523,0.0026827,0.000562708,0.577319,0.00163353,0.0242308,1854,680,32.1203,6.31088
637,344,32.0569,-5.52161,0.00238705,0.00176953,0.00149773,0.00360751,0.000549067,0.683747,0.00224449,0.0237927,1861,680,32.0569,5.52161
644,344,32.0358,-4.73737,0.00270213,0.00240282,0.00202456,0.00458256,0.000522388,0.748506,0.00289665,0.0169383,1868,680,32.0358,4.73737
651,344,32.0176,-3.95459,0.00302092,0.00315336,0.00257251,0.00566051,0.000513771,0.798266,0.0036146,0.0127059,1875,680,32.0176,3.95458
658,344,31.9845,-3.09631,0.00330369,0.00393914,0.00302077,0.00665885,0.000583978,0.837796,0.00425795,0.0258774,1882,680,31.9845,3.09633
665,344,31.8185,-2.37744,0.00385052,0.00479892,0.00357678,0.00793279,0.000716641,0.851303,0.00506657,0.0427369,1889,680,31.8185,2.37746
672,344,31.8604,-1.68823,0,0,0,0,0,0,0,-1,1896,680,31.8604,1.68826
679,344,31.3612,-1.75824,0,0,0,0,0,0,0,-1,1903,680,31.3613,1.75822
686,344,15.024,1.82709,0,0,0,0,0,0,0,-1,1910,680,15.024,-1.82706
693,344,12.4362,-1.42346,0,0,0,0,0,0,0,-1,1917,680,12.4361,1.42348
700,344,17.5396,2.61206,0,0,0,0,0,0,0,-1,1924,680,17.5396,-2.61204
707,344,18.5829,3.29352,0,0,0,0,0,0,0,-1,1931,680,18.5828,-3.2935
714,344,0,0,0,0,0,0,0,0,0,-1,1938,680,0,0
721,344,0,0,0,0,0,0,0,0,0,-1,1945,680,0,0
728,344,0,0,0,0,0,0,0,0,0,-1,1952,680,0,0
735,344,0,0,0,0,0,0,0,0,0,-1,1959,680,0,0
742,344,0,0,0,0,0,0,0,0,0,-1,1966,680,0,0
749,344,0,0,0,0,0,0,0,0,0,-1,1973,680,0,0
756,344,0,0,0,0,0,0,0,0,0,-1,1980,680,0,0
763,344,0,0,0,0,0,0,0,0,0,-1,1987,680,0,0
770,344,0,0,0,0,0,0,0,0,0,-1,1994,680,0,0
777,344,0,0,0,0,0,0,0,0,0,-1,2001,680,0,0
784,344,0,0,0,0,0,0,0,0,0,-1,2008,680,0,0
791,344,0,0,0,0,0,0,0,0,0,-1,2015,680,0,0
798,344,0,0,0,0,0,0,0,0,0,-1,2022,680,0,0
805,344,0,0,0,0,0,0,0,0,0,-1,2029,680,0,0
812,344,0,0,0,0,0,0,0,0,0,-1,2036,680,0,0
-700,337,0,0,0,0,0,0,0,0,0,-1,524,687,0,0
-693,337,0,0,0,0,0,0,0,0,0,-1,531,687,0,0
-686,337,0,0,0,0,0,0,0,0,0,-1,538,687,0,0
-679,337,0,0,0,0,0,0,0,0,0,-1,545,687,0,0
-672,337,0,0,0,0,0,0,0,0,0,-1,552,687,0,0
-665,337,0,0,0,0,0,0,0,0,0,-1,559,687,0,0
-658,337,0,0,0,0,0,0,0,0,0,-1,566,687,0,0
-651,337,0,0,0,0,0,0,0,0,0,-1,573,687,0,0
-644,337,0,0,0,0,0,0,0,0,0,-1,580,687,0,0
-637,337,0,0,0,0,0,0,0,0,0,-1,587,687,0,0
-630,337,0,0,0,0,0,0,0,0,0,-1,594,687,0,0
-623,337,0,0,0,0,0,0,0,0,0,-1,601,687,0,0
-616,337,0,0,0,0,0,0,0,0,0,-1,608,687,0,0
-609,337,0,0,0,0,0,0,0,0,0,-1,615,687,0,0
-602,337,0,0,0,0,0,0,0,0,0,-1,622,687,0,0
-595,337,0,0,0,0,0,0,0,0,0,-1,629,687,0,0
-588,337,-10.8413,1.27863,0,0,0,0,0,0,0,-1,636,687,-10.8413,-1.27861
-581,337,-11.2157,1.31567,0,0,0,0,0,0,0,-1,643,687,-11.2157,-1.3157
-574,337,-6.03339,2.0321,0,0,0,0,0,0,0,-1,650,687,-6.03337,-2.03213
-567,337,-13.8102,1.56787,0,0,0,0,0,0,0,-1,657,687,-13.8102,-1.56789
-560,337,-15.5435,2.34247,0,0,0,0,0,0,0,-1,664,687,-15.5435,-2.34247
-553,337,-18.0128,1.12927,0,0,0,0,0,0,0,-1,671,687,-18.0128,-1.12926
-546,337,-18.0244,-2.03845,0,0,0,0,0,0,0,-1,678,687,-18.0244,2.03846
-539,337,-19.2426,-3.53815,0,0,0,0,0,0,0,-1,685,687,-19.2426,3.53813
-532,337,-19.7358,-4.57507,0,0,0,0,0,0,0,-1,692,687,-19.7358,4.57509
-525,337,-19.7474,-5.33972,0.00359961,0.0017906,-0.00116823,0.00417256,0.00121765,-0.455978,0.00247766,0.0188511,699,687,-19.7474,5.33971
-518,337,-19.7492,-6.11896,0.00286652,0.0010581,-0.000805198,0.00317307,0.000751546,-0.36377,0.00191468,0.0252187,706,687,-19.7492,6.11893
-511,337,-19.7917,-6.849,0.0023349,0.000451459,-0.000476269,0.00244848,0.000337874,-0.234116,0.00153217,0.025398,713,687,-19.7917,6.84901
-504,337,-19.8326,-7.59735,0.0019146,-7.16979e-05,-0.000172592,0.00192948,-8.6583e-05,-0.086032,0.00131613,0.02419,720,687,-19.8327,7.59734
-497,337,-19.8323,-8.34772,0.00168638,-0.000405236,1.43024e-05,0.00168648,-0.000405333,0.00683755,0.00128099,0.0174734,727,687,-19.8323,8.3477
-490,337,-19.857,-9.09338,0.00159576,-0.000634812,9.04609e-05,0.00159942,-0.000638474,0.0404664,0.00133116,0.0151842,734,687,-19.857,9.09341
-483,337,-19.8701,-9.8277,0.00172576,-0.000694148,2.90702e-05,0.00172611,-0.000694497,0.0120106,0.00143922,0.0149987,741,687,-19.8701,9.82772
-476,337,-19.8823,-10.558,0.00202337,-0.000598778,-0.000265091,0.0020499,-0.000625309,-0.0997521,0.00161588,0.0168433,748,687,-19.8823,10.558
-469,337,-19.9459,-11.294,0,0,0,0,0,0,0,-1,755,687,-19.9459,11.294
-462,337,-14.186,-8.89264,0,0,0,0,0,0,0,-1,762,687,-14.186,8.89266
-455,337,-6.00574,-3.12933,0,0,0,0,0,0,0,-1,769,687,-6.00576,3.12934
-448,337,-5.30627,-2.07202,0,0,0,0,0,0,0,-1,776,687,-5.30628,2.07205
-441,337,-4.24762,-1.49597,0,0,0,0,0,0,0,-1,783,687,-4.24762,1.49598
-434,337,-6.86908,1.37531,0,0,0,0,0,0,0,-1,790,687,-6.86908,-1.3753
-427,337,-9.92004,2.487,0,0,0,0,0,0,0,-1,797,687,-9.92002,-2.48701
-420,337,-2.95996,-1.76697,0,0,0,0,0,0,0,-1,804,687,-2.95998,1.76696
-413,337,-1.29169,-1.99487,0,0,0,0,0,0,0,-1,811,687,-1.29171,1.9949
-406,337,-1.02356,-1.89563,0,0,0,0,0,0,0,-1,818,687,-1.02357,1.89564
-399,337,-0.472839,-2.21338,0,0,0,0,0,0,0,-1,825,687,-0.472837,2.2134
-392,337,0,0,0,0,0,0,0,0,0,-1,832,687,0,0
-385,337,0,0,0,0,0,0,0,0,0,-1,839,687,0,0
-378,337,0,0,0,0,0,0,0,0,0,-1,846,687,0,0
-371,337,0,0,0,0,0,0,0,0,0,-1,853,687,0,0
-364,337,0,0,0,0,0,0,0,0,0,-1,860,687,0,0
-357,337,0,0,0,0,0,0,0,0,0,-1,867,687,0,0
-350,337,0,0,0,0,0,0,0,0,0,-1,874,687,0,0
-343,337,0,0,0,0,0,0,0,0,0,-1,881,687,0,0
-336,337,0,0,0,0,0,0,0,0,0,-1,888,687,0,0
-329,337,0,0,0,0,0,0,0,0,0,-1,895,687,0,0
-322,337,0,0,0,0,0,0,0,0,0,-1,902,687,0,0
-315,337,0,0,0,0,0,0,0,0,0,-1,909,687,0,0
-308,337,0,0,0,0,0,0,0,0,0,-1,916,687,0,0
-301,337,0,0,0,0,0,0,0,0,0,-1,923,687,0,0
-294,337,0,0,0,0,0,0,0,0,0,-1,930,687,0,0
-287,337,0,0,0,0,0,0,0,0,0,-1,937,687,0,0
-280,337,0,0,0,0,0,0,0,0,0,-1,944,687,0,0
-273,337,0,0,0,0,0,0,0,0,0,-1,951,687,0,0
-266,337,0,0,0,0,0,0,0,0,0,-1,958,687,0,0
-259,337,0,0,0,0,0,0,0,0,0,-1,965,687,0,0
-252,337,0,0,0,0,0,0,0,0,0,-1,972,687,0,0
-245,337,0,0,0,0,0,0,0,0,0,-1,979,687,0,0
-238,337,0,0,0,0,0,0,0,0,0,-1,986,687,0,0
-231,337,0,0,0,0,0,0,0,0,0,-1,993,687,0,0
-224,337,0,0,0,0,0,0,0,0,0,-1,1000,687,0,0
-217,337,0,0,0,0,0,0,0,0,0,-1,1007,687,0,0
-210,337,0,0,0,0,0,0,0,0,0,-1,1014,687,0,0
-203,337,0,0,0,0,0,0,0,0,0,-1,1021,687,0,0
-196,337,0,0,0,0,0,0,0,0,0,-1,1028,687,0,0
-189,337,0,0,0,0,0,0,0,0,0,-1,1035,687,0,0
-182,337,0,0,0,0,0,0,0,0,0,-1,1042,687,0,0
-175,337,0,0,0,0,0,0,0,0,0,-1,1049,687,0,0
-168,337,0,0,0,0,0,0,0,0,0,-1,1056,687,0,0
-161,337,0,0,0,0,0,0,0,0,0,-1,1063,687,0,0
-154,337,0,0,0,0,0,0,0,0,0,-1,1070,687,0,0
-147,337,0,0,0,0,0,0,0,0,0,-1,1077,687,0,0
-140,337,0,0,0,0,0,0,0,0,0,-1,1084,687,0,0
-133,337,0,0,0,0,0,0,0,0,0,-1,1091,687,0,0
-126,337,0,0,0,0,0,0,0,0,0,-1,1098,687,0,0
-119,337,0,0,0,0,0,0,0,0,0,-1,1105,687,0,0
-112,337,0,0,0,0,0,0,0,0,0,-1,1112,687,0,0
-105,337,0,0,0,0,0,0,0,0,0,-1,1119,687,0,0
-98,337,0,0,0,0,0,0,0,0,0,-1,1126,687,0,0
-91,337,0,0,0,0,0,0,0,0,0,-1,1133,687,0,0
-84,337,0,0,0,0,0,0,0,0,0,-1,1140,687,0,0
-77,337,0,0,0,0,0,0,0,0,0,-1,1147,687,0,0
-70,337,0,0,0,0,0,0,0,0,0,-1,1154,687,0,0
-63,337,0,0,0,0,0,0,0,0,0,-1,1161,687,0,0
-56,337,0,0,0,0,0,0,0,0,0,-1,1168,687,0,0
-49,337,0,0,0,0,0,0,0,0,0,-1,1175,687,0,0
-42,337,0,0,0,0,0,0,0,0,0,-1,1182,687,0,0
-35,337,0,0,0,0,0,0,0,0,0,-1,1189,687,0,0
-28,337,0,0,0,0,0,0,0,0,0,-1,1196,687,0,0
-21,337,0,0,0,0,0,0,0,0,0,-1,1203,687,0,0
-14,337,0,0,0,0,0,0,0,0,0,-1,1210,687,0,0
-7,337,0,0,0,0,0,0,0,0,0,-1,1217,687,0,0
0,337,0,0,0,0,0,0,0,0,0,-1,1224,687,0,0
7,337,0,0,0,0,0,0,0,0,0,-1,1231,687,0,0
14,337,0,0,0,0,0,0,0,0,0,-1,1238,687,0,0
21,337,0,0,0,0,0,0,0,0,0,-1,1245,687,0,0
28,337,0,0,0,0,0,0,0,0,0,-1,1252,687,0,0
35,337,0,0,0,0,0,0,0,0,0,-1,1259,687,0,0
42,337,0,0,0,0,0,0,0,0,0,-1,1266,687,0,0
49,337,0,0,0,0,0,0,0,0,0,-1,1273,687,0,0
56,337,0,0,0,0,0,0,0,0,0,-1,1280,687,0,0
63,337,0,0,0,0,0,0,0,0,0,-1,1287,687,0,0
70,337,0,0,0,0,0,0,0,0,0,-1,1294,687,0,0
77,337,0,0,0,0,0,0,0,0,0,-1,1301,687,0,0
84,337,0,0,0,0,0,0,0,0,0,-1,1308,687,0,0
91,337,0,0,0,0,0,0,0,0,0,-1,1315,687,0,0
98,337,0,0,0,0,0,0,0,0,0,-1,1322,687,0,0
105,337,0,0,0,0,0,0,0,0,0,-1,1329,687,0,0
112,337,0,0,0,0,0,0,0,0,0,-1,1336,687,0,0
119,337,0,0,0,0,0,0,0,0,0,-1,1343,687,0,0
126,337,0,0,0,0,0,0,0,0,0,-1,1350,687,0,0
133,337,0,0,0,0,0,0,0,0,0,-1,1357,687,0,0
140,337,0,0,0,0,0,0,0,0,0,-1,1364,687,0,0
147,337,0,0,0,0,0,0,0,0,0,-1,1371,687,0,0
154,337,0,0,0,0,0,0,0,0,0,-1,1378,687,0,0
161,337,0,0,0,0,0,0,0,0,0,-1,1385,687,0,0
168,337,0,0,0,0,0,0,0,0,0,-1,1392,687,0,0
175,337,0,0,0,0,0,0,0,0,0,-1,1399,687,0,0
182,337,0,0,0,0,0,0,0,0,0,-1,1406,687,0,0
189,337,0,0,0,0,0,0,0,0,0,-1,1413,687,0,0
196,337,0,0,0,0,0,0,0,0,0,-1,1420,687,0,0
203,337,0,0,0,0,0,0,0,0,0,-1,1427,687,0,0
210,337,0,0,0,0,0,0,0,0,0,-1,1434,687,0,0
217,337,0,0,0,0,0,0,0,0,0,-1,1441,687,0,0
224,337,0,0,0,0,0,0,0,0,0,-1,1448,687,0,0
231,337,0,0,0,0,0,0,0,0,0,-1,1455,687,0,0
238,337,0,0,0,0,0,0,0,0,0,-1,1462,687,0,0
245,337,0,0,0,0,0,0,0,0,0,-1,1469,687,0,0
252,337,0,0,0,0,0,0,0,0,0,-1,1476,687,0,0
259,337,0,0,0,0,0,0,0,0,0,-1,1483,687,0,0
266,337,0,0,0,0,0,0,0,0,0,-1,1490,687,0,0
273,337,0,0,0,0,0,0,0,0,0,-1,1497,687,0,0
280,337,0,0,0,0,0,0,0,0,0,-1,1504,687,0,0
287,337,0,0,0,0,0,0,0,0,0,-1,1511,687,0,0
294,337,0,0,0,0,0,0,0,0,0,-1,1518,687,0,0
301,337,0,0,0,0,0,0,0,0,0,-1,1525,687,0,0
308,337,0,0,0,0,0,0,0,0,0,-1,1532,687,0,0
315,337,0,0,0,0,0,0,0,0,0,-1,1539,687,0,0
322,337,0,0,0,0,0,0,0,0,0,-1,1546,687,0,0
329,337,0,0,0,0,0,0,0,0,0,-1,1553,687,0,0
336,337,0,0,0,0,0,0,0,0,0,-1,1560,687,0,0
343,337,0,0,0,0,0,0,0,0,0,-1,1567,687,0,0
350,337,0,0,0,0,0,0,0,0,0,-1,1574,687,0,0
357,337,0,0,0,0,0,0,0,0,0,-1,1581,687,0,0
364,337,0,0,0,0,0,0,0,0,0,-1,1588,687,0,0
371,337,0,0,0,0,0,0,0,0,0,-1,1595,687,0,0
378,337,0,0,0,0,0,0,0,0,0,-1,1602,687,0,0
385,337,0,0,0,0,0,0,0,0,0,-1,1609,687,0,0
392,337,0,0,0,0,0,0,0,0,0,-1,1616,687,0,0
399,337,0,0,0,0,0,0,0,0,0,-1,1623,687,0,0
406,337,0,0,0,0,0,0,0,0,0,-1,1630,687,0,0
413,337,0,0,0,0,0,0,0,0,0,-1,1637,687,0,0
420,337,0,0,0,0,0,0,0,0,0,-1,1644,687,0,0
427,337,0,0,0,0,0,0,0,0,0,-1,1651,687,0,0
434,337,0,0,0,0,0,0,0,0,0,-1,1658,687,0,0
441,337,0,0,0,0,0,0,0,0,0,-1,1665,687,0,0
448,337,0,0,0,0,0,0,0,0,0,-1,1672,687,0,0
455,337,0,0,0,0,0,0,0,0,0,-1,1679,687,0,0
462,337,0,0,0,0,0,0,0,0,0,-1,1686,687,0,0
469,337,0,0,0,0,0,0,0,0,0,-1,1693,687,0,0
476,337,0,0,0,0,0,0,0,0,0,-1,1700,687,0,0
483,337,0,0,0,0,0,0,0,0,0,-1,1707,687,0,0
490,337,0,0,0,0,0,0,0,0,0,-1,1714,687,0,0
497,337,0,0,0,0,0,0,0,0,0,-1,1721,687,0,0
504,337,0,0,0,0,0,0,0,0,0,-1,1728,687,0,0
511,337,0,0,0,0,0,0,0,0,0,-1,1735,687,0,0
518,337,18.0369,1.64581,0,0,0,0,0,0,0,-1,1742,687,18.0368,-1.64581
525,337,31.0717,2.13745,0,0,0,0,0,0,0,-1,1749,687,31.0717,-2.13747
532,337,31.5126,2.13904,0,0,0,0,0,0,0,-1,1756,687,31.5125,-2.13905
539,337,31.9684,2.15594,0,0,0,0,0,0,0,-1,1763,687,31.9684,-2.15596
546,337,32.3584,1.43719,0,0,0,0,0,0,0,-1,1770,687,32.3585,-1.43722
553,337,32.1809,1.36395,0,0,0,0,0,0,0,-1,1777,687,32.181,-1.36396
560,337,18.4053,3.62793,0,0,0,0,0,0,0,-1,1784,687,18.4052,-3.6279
567,337,11.9288,1.38776,0,0,0,0,0,0,0,-1,1791,687,11.9288,-1.38777
574,337,10.704,1.19476,0,0,0,0,0,0,0,-1,1798,687,10.704,-1.19478
581,337,8.50427,0.561768,0,0,0,0,0,0,0,-1,1805,687,8.5043,-0.561754
588,337,8.5885,-0.0536499,0,0,0,0,0,0,0,-1,1812,687,8.58844,0.0536788
595,337,13.8816,-1.70703,0,0,0,0,0,0,0,-1,1819,687,13.8816,1.70702
602,337,32.9974,-9.29669,0,0,0,0,0,0,0,-1,1826,687,32.9975,9.2967
609,337,32.9918,-8.45306,0.00118486,-0.000431041,-0.000757009,0.00148409,-0.00073027,-0.376428,0.00130292,0.0231872,1833,687,32.9918,8.45304
616,337,32.9458,-7.71191,0.00147974,-0.000202608,-0.000264273,0.00152028,-0.000243145,-0.152203,0.00110353,0.0175707,1840,687,32.9458,7.71193
623,337,32.9229,-6.9953,0.00165385,0.000161634,0.000145758,0.00166795,0.00014753,0.0964639,0.0010662,0.01516,1847,687,32.9229,6.99531
630,337,32.8785,-6.23767,0.0018653,0.000640844,0.000617023,0.00212229,0.000383854,0.394649,0.00130585,0.0194183,1854,687,32.8785,6.23767
637,337,32.8541,-5.46228,0.00207007,0.00117103,0.00108026,0.00279061,0.000450492,0.588235,0.00172991,0.0172663,1861,687,32.8541,5.46229
644,337,32.8121,-4.66852,0.00228019,0.0017598,0.00154206,0.00358385,0.000456139,0.701819,0.00225263,0.0116627,1868,687,32.8121,4.66849
651,337,32.764,-3.89532,0.00252577,0.00248135,0.00203005,0.00453373,0.000473391,0.779928,0.0028777,0.0110498,1875,687,32.7641,3.89534
658,337,32.7469,-3.13342,0.00278998,0.0032638,0.00247945,0.00551764,0.000536142,0.833028,0.00351337,0.0128753,1882,687,32.747,3.13341
665,337,32.7493,-2.39172,0.00329193,0.00414631,0.00301998,0.00676917,0.000669073,0.855659,0.00430711,0.0176951,1889,687,32.7492,2.39174
672,337,32.7976,-1.61688,0,0,0,0,0,0,0,-1,1896,687,32.7976,1.6169
679,337,31.7838,-0.84668,0,0,0,0,0,0,0,-1,1903,687,31.7839,0.846682
686,337,18.5614,1.68597,0,0,0,0,0,0,0,-1,1910,687,18.5614,-1.68598
693,337,16.5415,2.21411,0,0,0,0,0,0,0,-1,1917,687,16.5415,-2.2141
700,337,17.2661,2.44379,0,0,0,0,0,0,0,-1,1924,687,17.2661,-2.44378
707,337,17.3544,5.61853,0,0,0,0,0,0,0,-1,1931,687,17.3543,-5.61851
714,337,0,0,0,0,0,0,0,0,0,-1,1938,687,0,0
721,337,0,0,0,0,0,0,0,0,0,-1,1945,687,0,0
728,337,0,0,0,0,0,0,0,0,0,-1,1952,687,0,0
735,337,0,0,0,0,0,0,0,0,0,-1,1959,687,0,0
742,337,0,0,0,0,0,0,0,0,0,-1,1966,687,0,0
749,337,0,0,0,0,0,0,0,0,0,-1,1973,687,0,0
756,337,0,0,0,0,0,0,0,0,0,-1,1980,687,0,0
763,337,0,0,0,0,0,0,0,0,0,-1,1987,687,0,0
770,337,0,0,0,0,0,0,0,0,0,-1,1994,687,0,0
777,337,0,0,0,0,0,0,0,0,0,-1,2001,687,0,0
784,337,0,0,0,0,0,0,0,0,0,-1,2008,687,0,0
791,337,0,0,0,0,0,0,0,0,0,-1,2015,687,0,0
798,337,0,0,0,0,0,0,0,0,0,-1,2022,687,0,0
805,337,0,0,0,0,0,0,0,0,0,-1,2029,687,0,0
812,337,0,0,0,0,0,0,0,0,0,-1,2036,687,0,0
-700,330,0,0,0,0,0,0,0,0,0,-1,524,694,0,0
-693,330,0,0,0,0,0,0,0,0,0,-1,531,694,0,0
-686,330,0,0,0,0,0,0,0,0,0,-1,538,694,0,0
-679,330,0,0,0,0,0,0,0,0,0,-1,545,694,0,0
-672,330,0,0,0,0,0,0,0,0,0,-1,552,694,0,0
-665,330,0,0,0,0,0,0,0,0,0,-1,559,694,0,0
-658,330,0,0,0,0,0,0,0,0,0,-1,566,694,0,0
-651,330,0,0,0,0,0,0,0,0,0,-1,573,694,0,0
-644,330,0,0,0,0,0,0,0,0,0,-1,580,694,0,0
-637,330,0,0,0,0,0,0,0,0,0,-1,587,694,0,0
-630,330,0,0,0,0,0,0,0,0,0,-1,594,694,0,0
-623,330,0,0,0,0,0,0,0,0,0,-1,601,694,0,0
-616,330,0,0,0,0,0,0,0,0,0,-1,608,694,0,0
-609,330,0,0,0,0,0,0,0,0,0,-1,615,694,0,0
-602,330,0,0,0,0,0,0,0,0,0,-1,622,694,0,0
-595,330,-4.67883,1.65515,0,0,0,0,0,0,0,-1,629,694,-4.67881,-1.65515
-588,330,-8.5047,2.67346,0,0,0,0,0,0,0,-1,636,694,-8.50469,-2.67348
-581,330,-12.4227,0.947083,0,0,0,0,0,0,0,-1,643,694,-12.4227,-0.947109
-574,330,-9.02118,1.87952,0,0,0,0,0,0,0,-1,650,694,-9.02115,-1.87953
-567,330,-8.35577,0.909973,0,0,0,0,0,0,0,-1,657,694,-8.35575,-0.909945
-560,330,-13.1036,-0.584656,0,0,0,0,0,0,0,-1,664,694,-13.1035,0.584658
-553,330,-17.5484,-1.21545,0,0,0,0,0,0,0,-1,671,694,-17.5484,1.21547
-546,330,-20.2072,-2.83514,0,0,0,0,0,0,0,-1,678,694,-20.2071,2.83516
-539,330,-20.5353,-3.72327,0,0,0,0,0,0,0,-1,685,694,-20.5353,3.72328
-532,330,-20.4826,-4.53821,0.00361108,0.00210001,-0.00115925,0.00423927,0.00147182,-0.496597,0.00248535,0.0209885,692,694,-20.4826,4.5382
-525,330,-20.4528,-5.34656,0.00299484,0.00132487,-0.000862838,0.00336056,0.000959154,-0.400901,0.00199889,0.0112818,699,694,-20.4528,5.34655
-518,330,-20.4626,-6.0658,0.00248271,0.000687082,-0.000539646,0.00263241,0.000537381,-0.270602,0.00160606,0.0158574,706,694,-20.4626,6.0658
-511,330,-20.5287,-6.80646,0.00208406,0.000164246,-0.000242958,0.00211433,0.000133976,-0.12395,0.00136708,0.0217341,713,694,-20.5287,6.80646
-504,330,-20.5552,-7.56573,0.00175773,-0.000250627,5.87166e-05,0.00175944,-0.000252343,0.0292029,0.00126549,0.0196393,720,694,-20.5552,7.56573
-497,330,-20.5948,-8.28992,0.00161882,-0.00046526,0.000240009,0.0016461,-0.000492543,0.113189,0.00129323,0.0140912,727,694,-20.5948,8.28992
-490,330,-20.5963,-9.04742,0.00167055,-0.000591786,0.000337829,0.00171992,-0.000641156,0.145111,0.0014098,0.0144379,734,694,-20.5962,9.04744
-483,330,-20.6104,-9.8092,0.00193342,-0.000513567,0.00028206,0.00196551,-0.000545658,0.113289,0.00152512,0.0148791,741,694,-20.6104,9.80918
-476,330,-20.5892,-10.5524,0,0,0,0,0,0,0,-1,748,694,-20.5892,10.5524
-469,330,-16.1478,-9.23303,0,0,0,0,0,0,0,-1,755,694,-16.1478,9.23301
-462,330,-7.26733,-3.84833,0,0,0,0,0,0,0,-1,762,694,-7.26731,3.84832
-455,330,-5.04254,-1.79303,0,0,0,0,0,0,0,-1,769,694,-5.04252,1.79305
-448,330,-4.89886,-1.66156,0,0,0,0,0,0,0,-1,776,694,-4.89886,1.66157
-441,330,-5.30676,-2.34045,0,0,0,0,0,0,0,-1,783,694,-5.30679,2.34048
-434,330,-7.20428,1.00024,0,0,0,0,0,0,0,-1,790,694,-7.20431,-1.00027
-427,330,-16.0428,2.89258,0,0,0,0,0,0,0,-1,797,694,-16.0428,-2.89259
-420,330,-29.0331,0.271606,0,0,0,0,0,0,0,-1,804,694,-29.0331,-0.27158
-413,330,-29.0896,0.56366,0,0,0,0,0,0,0,-1,811,694,-29.0896,-0.563671
-406,330,-1.65375,-1.74371,0,0,0,0,0,0,0,-1,818,694,-1.65375,1.74371
-399,330,0,0,0,0,0,0,0,0,0,-1,825,694,0,0
-392,330,0,0,0,0,0,0,0,0,0,-1,832,694,0,0
-385,330,0,0,0,0,0,0,0,0,0,-1,839,694,0,0
-378,330,0,0,0,0,0,0,0,0,0,-1,846,694,0,0
-371,330,0,0,0,0,0,0,0,0,0,-1,853,694,0,0
-364,330,0,0,0,0,0,0,0,0,0,-1,860,694,0,0
-357,330,0,0,0,0,0,0,0,0,0,-1,867,694,0,0
-350,330,0,0,0,0,0,0,0,0,0,-1,874,694,0,0
-343,330,0,0,0,0,0,0,0,0,0,-1,881,694,0,0
-336,330,0,0,0,0,0,0,0,0,0,-1,888,694,0,0
-329,330,0,0,0,0,0,0,0,0,0,-1,895,694,0,0
-322,330,0,0,0,0,0,0,0,0,0,-1,902,694,0,0
-315,330,0,0,0,0,0,0,0,0,0,-1,909,694,0,0
-308,330,0,0,0,0,0,0,0,0,0,-1,916,694,0,0
-301,330,0,0,0,0,0,0,0,0,0,-1,923,694,0,0
-294,330,0,0,0,0,0,0,0,0,0,-1,930,694,0,0
-287,330,0,0,0,0,0,0,0,0,0,-1,937,694,0,0
-280,330,0,0,0,0,0,0,0,0,0,-1,944,694,0,0
-273,330,0,0,0,0,0,0,0,0,0,-1,951,694,0,0
-266,330,0,0,0,0,0,0,0,0,0,-1,958,694,0,0
-259,330,0,0,0,0,0,0,0,0,0,-1,965,694,0,0
-252,330,0,0,0,0,0,0,0,0,0,-1,972,694,0,0
-245,330,0,0,0,0,0,0,0,0,0,-1,979,694,0,0
-238,330,0,0,0,0,0,0,0,0,0,-1,986,694,0,0
-231,330,0,0,0,0,0,0,0,0,0,-1,993,694,0,0
-224,330,0,0,0,0,0,0,0,0,0,-1,1000,694,0,0
-217,330,0,0,0,0,0,0,0,0,0,-1,1007,694,0,0
-210,330,0,0,0,0,0,0,0,0,0,-1,1014,694,0,0
-203,330,0,0,0,0,0,0,0,0,0,-1,1021,694,0,0
-196,330,0,0,0,0,0,0,0,0,0,-1,1028,694,0,0
-189,330,0,0,0,0,0,0,0,0,0,-1,1035,694,0,0
-182,330,0,0,0,0,0,0,0,0,0,-1,1042,694,0,0
-175,330,0,0,0,0,0,0,0,0,0,-1,1049,694,0,0
-168,330,0,0,0,0,0,0,0,0,0,-1,1056,694,0,0
-161,330,0,0,0,0,0,0,0,0,0,-1,1063,694,0,0
-154,330,0,0,0,0,0,0,0,0,0,-1,1070,694,0,0
-147,330,0,0,0,0,0,0,0,0,0,-1,1077,694,0,0
-140,330,0,0,0,0,0,0,0,0,0,-1,1084,694,0,0
-133,330,0,0,0,0,0,0,0,0,0,-1,1091,694,0,0
-126,330,0,0,0,0,0,0,0,0,0,-1,1098,694,0,0
-119,330,0,0,0,0,0,0,0,0,0,-1,1105,694,0,0
-112,330,0,0,0,0,0,0,0,0,0,-1,1112,694,0,0
-105,330,0,0,0,0,0,0,0,0,0,-1,1119,694,0,0
-98,330,0,0,0,0,0,0,0,0,0,-1,1126,694,0,0
-91,330,0,0,0,0,0,0,0,0,0,-1,1133,694,0,0
-84,330,0,0,0,0,0,0,0,0,0,-1,1140,694,0,0
-77,330,0,0,0,0,0,0,0,0,0,-1,1147,694,0,0
-70,330,0,0,0,0,0,0,0,0,0,-1,1154,694,0,0
-63,330,0,0,0,0,0,0,0,0,0,-1,1161,694,0,0
-56,330,0,0,0,0,0,0,0,0,0,-1,1168,694,0,0
-49,330,0,0,0,0,0,0,0,0,0,-1,1175,694,0,0
-42,330,0,0,0,0,0,0,0,0,0,-1,1182,694,0,0
-35,330,0,0,0,0,0,0,0,0,0,-1,1189,694,0,0
-28,330,0,0,0,0,0,0,0,0,0,-1,1196,694,0,0
-21,330,0,0,0,0,0,0,0,0,0,-1,1203,694,0,0
-14,330,0,0,0,0,0,0,0,0,0,-1,1210,694,0,0
-7,330,0,0,0,0,0,0,0,0,0,-1,1217,694,0,0
0,330,0,0,0,0,0,0,0,0,0,-1,1224,694,0,0
7,330,0,0,0,0,0,0,0,0,0,-1,1231,694,0,0
14,330,0,0,0,0,0,0,0,0,0,-1,1238,694,0,0
21,330,0,0,0,0,0,0,0,0,0,-1,1245,694,0,0
28,330,0,0,0,0,0,0,0,0,0,-1,1252,694,0,0
35,330,0,0,0,0,0,0,0,0,0,-1,1259,694,0,0
42,330,0,0,0,0,0,0,0,0,0,-1,1266,694,0,0
49,330,0,0,0,0,0,0,0,0,0,-1,1273,694,0,0
56,330,0,0,0,0,0,0,0,0,0,-1,1280,694,0,0
63,330,0,0,0,0,0,0,0,0,0,-1,1287,694,0,0
70,330,0,0,0,0,0,0,0,0,0,-1,1294,694,0,0
77,330,0,0,0,0,0,0,0,0,0,-1,1301,694,0,0
84,330,0,0,0,0,0,0,0,0,0,-1,1308,694,0,0
91,330,0,0,0,0,0,0,0,0,0,-1,1315,694,0,0
98,330,0,0,0,0,0,0,0,0,0,-1,1322,694,0,0
105,330,0,0,0,0,0,0,0,0,0,-1,1329,694,0,0
112,330,0,0,0,0,0,0,0,0,0,-1,1336,694,0,0
119,330,0,0,0,0,0,0,0,0,0,-1,1343,694,0,0
126,330,0,0,0,0,0,0,0,0,0,-1,1350,694,0,0
133,330,0,0,0,0,0,0,0,0,0,-1,1357,694,0,0
140,330,0,0,0,0,0,0,0,0,0,-1,1364,694,0,0
147,330,0,0,0,0,0,0,0,0,0,-1,1371,694,0,0
154,330,0,0,0,0,0,0,0,0,0,-1,1378,694,0,0
161,330,0,0,0,0,0,0,0,0,0,-1,1385,694,0,0
168,330,0,0,0,0,0,0,0,0,0,-1,1392,694,0,0
175,330,0,0,0,0,0,0,0,0,0,-1,1399,694,0,0
182,330,0,0,0,0,0,0,0,0,0,-1,1406,694,0,0
189,330,0,0,0,0,0,0,0,0,0,-1,1413,694,0,0
196,330,0,0,0,0,0,0,0,0,0,-1,1420,694,0,0
203,330,0,0,0,0,0,0,0,0,0,-1,1427,694,0,0
210,330,0,0,0,0,0,0,0,0,0,-1,1434,694,0,0
217,330,0,0,0,0,0,0,0,0,0,-1,1441,694,0,0
224,330,0,0,0,0,0,0,0,0,0,-1,1448,694,0,0
231,330,0,0,0,0,0,0,0,0,0,-1,1455,694,0,0
238,330,0,0,0,0,0,0,0,0,0,-1,1462,694,0,0
245,330,0,0,0,0,0,0,0,0,0,-1,1469,694,0,0
252,330,0,0,0,0,0,0,0,0,0,-1,1476,694,0,0
259,330,0,0,0,0,0,0,0,0,0,-1,1483,694,0,0
266,330,0,0,0,0,0,0,0,0,0,-1,1490,694,0,0
273,330,0,0,0,0,0,0,0,0,0,-1,1497,694,0,0
280,330,0,0,0,0,0,0,0,0,0,-1,1504,694,0,0
287,330,0,0,0,0,0,0,0,0,0,-1,1511,694,0,0
294,330,0,0,0,0,0,0,0,0,0,-1,1518,694,0,0
301,330,0,0,0,0,0,0,0,0,0,-1,1525,694,0,0
308,330,0,0,0,0,0,0,0,0,0,-1,1532,694,0,0
315,330,0,0,0,0,0,0,0,0,0,-1,1539,694,0,0
322,330,0,0,0,0,0,0,0,0,0,-1,1546,694,0,0
329,330,0,0,0,0,0,0,0,0,0,-1,1553,694,0,0
336,330,0,0,0,0,0,0,0,0,0,-1,1560,694,0,0
343,330,0,0,0,0,0,0,0,0,0,-1,1567,694,0,0
350,330,0,0,0,0,0,0,0,0,0,-1,1574,694,0,0
357,330,0,0,0,0,0,0,0,0,0,-1,1581,694,0,0
364,330,0,0,0,0,0,0,0,0,0,-1,1588,694,0,0
371,330,0,0,0,0,0,0,0,0,0,-1,1595,694,0,0
378,330,0,0,0,0,0,0,0,0,0,-1,1602,694,0,0
385,330,0,0,0,0,0,0,0,0,0,-1,1609,694,0,0
392,330,0,0,0,0,0,0,0,0,0,-1,1616,694,0,0
399,330,0,0,0,0,0,0,0,0,0,-1,1623,694,0,0
406,330,0,0,0,0,0,0,0,0,0,-1,1630,694,0,0
413,330,0,0,0,0,0,0,0,0,0,-1,1637,694,0,0
420,330,0,0,0,0,0,0,0,0,0,-1,1644,694,0,0
427,330,0,0,0,0,0,0,0,0,0,-1,1651,694,0,0
434,330,0,0,0,0,0,0,0,0,0,-1,1658,694,0,0
441,330,0,0,0,0,0,0,0,0,0,-1,1665,694,0,0
448,330,0,0,0,0,0,0,0,0,0,-1,1672,694,0,0
455,330,0,0,0,0,0,0,0,0,0,-1,1679,694,0,0
462,330,0,0,0,0,0,0,0,0,0,-1,1686,694,0,0
469,330,0,0,0,0,0,0,0,0,0,-1,1693,694,0,0
476,330,0,0,0,0,0,0,0,0,0,-1,1700,694,0,0
483,330,0,0,0,0,0,0,0,0,0,-1,1707,694,0,0
490,330,0,0,0,0,0,0,0,0,0,-1,1714,694,0,0
497,330,0,0,0,0,0,0,0,0,0,-1,1721,694,0,0
504,330,0,0,0,0,0,0,0,0,0,-1,1728,694,0,0
511,330,0,0,0,0,0,0,0,0,0,-1,1735,694,0,0
518,330,0,0,0,0,0,0,0,0,0,-1,1742,694,0,0
525,330,30.6694,0.69519,0,0,0,0,0,0,0,-1,1749,694,30.6694,-0.695206
532,330,30.9469,1.32501,0,0,0,0,0,0,0,-1,1756,694,30.9469,-1.32501
539,330,31.5155,1.62506,0,0,0,0,0,0,0,-1,1763,694,31.5155,-1.62507
546,330,31.4187,1.85651,0,0,0,0,0,0,0,-1,1770,694,31.4187,-1.85651
553,330,31.8452,1.81476,0,0,0,0,0,0,0,-1,1777,694,31.8452,-1.81475
560,330,32.2401,2.43225,0,0,0,0,0,0,0,-1,1784,694,32.2401,-2.43227
567,330,18.0321,3.98578,0,0,0,0,0,0,0,-1,1791,694,18.0321,-3.98576
574,330,12.0454,2.1662,0,0,0,0,0,0,0,-1,1798,694,12.0455,-2.16618
581,330,11.4215,4.50836,0,0,0,0,0,0,0,-1,1805,694,11.4215,-4.50837
588,330,6.45667,-0.0630493,0,0,0,0,0,0,0,-1,1812,694,6.45661,0.0630695
595,330,8.23193,-0.258484,0,0,0,0,0,0,0,-1,1819,694,8.23188,0.258459
602,330,33.6707,-9.31335,0,0,0,0,0,0,0,-1,1826,694,33.6707,9.31337
609,330,33.6965,-8.45593,0.00166555,-0.000670594,-0.000822089,0.00192584,-0.000930885,-0.306635,0.00168235,0.0306692,1833,694,33.6965,8.45596
616,330,33.7178,-7.69653,0.00176507,-0.000511255,-0.000358205,0.0018201,-0.000566292,-0.152454,0.00143978,0.0120403,1840,694,33.7177,7.69653
623,330,33.6733,-6.95471,0.00172336,-0.000189484,-3.21224e-05,0.0017239,-0.000190024,-0.0167867,0.00121756,0.0136331,1847,694,33.6734,6.95471
630,330,33.6379,-6.18011,0.0017717,0.000230229,0.000365117,0.00185381,0.00014812,0.221204,0.00118957,0.0146848,1854,694,33.6379,6.18012
637,330,33.6307,-5.40466,0.00184546,0.000717238,0.000762585,0.00222991,0.000332795,0.466948,0.00138903,0.0144324,1861,694,33.6307,5.40469
644,330,33.5531,-4.63696,0.00195141,0.00126334,0.00116732,0.00282434,0.000390409,0.642094,0.00176719,0.00951978,1868,694,33.5532,4.63695
651,330,33.5336,-3.86487,0.00211398,0.0019315,0.00160476,0.00363009,0.000415386,0.757001,0.00229417,0.0122578,1875,694,33.5335,3.86488
658,330,33.4913,-3.11005,0.0023349,0.00266768,0.00204389,0.00455194,0.000450643,0.826013,0.00289612,0.0125333,1882,694,33.4913,3.11004
665,330,33.439,-2.34753,0.00275322,0.00349663,0.00255847,0.00571026,0.000539595,0.857536,0.00364033,0.011955,1889,694,33.439,2.34752
672,330,33.5059,-1.55115,0.0033615,0.00449169,0.00303512,0.00701387,0.000839321,0.877437,0.00442277,0.0333595,1896,694,33.5058,1.55113
679,330,33.668,-0.698975,0,0,0,0,0,0,0,-1,1903,694,33.668,0.698956
686,330,30.6691,0.582825,0,0,0,0,0,0,0,-1,1910,694,30.6691,-0.582798
693,330,17.3999,2.5976,0,0,0,0,0,0,0,-1,1917,694,17.4,-2.59759
700,330,17.1072,4.13,0,0,0,0,0,0,0,-1,1924,694,17.1071,-4.13002
707,330,16.663,4.88672,0,0,0,0,0,0,0,-1,1931,694,16.6629,-4.88673
714,330,16.5454,5.80896,0,0,0,0,0,0,0,-1,1938,694,16.5454,-5.80899
721,330,0,0,0,0,0,0,0,0,0,-1,1945,694,0,0
728,330,0,0,0,0,0,0,0,0,0,-1,1952,694,0,0
735,330,0,0,0,0,0,0,0,0,0,-1,1959,694,0,0
742,330,0,0,0,0,0,0,0,0,0,-1,1966,694,0,0
749,330,0,0,0,0,0,0,0,0,0,-1,1973,694,0,0
756,330,0,0,0,0,0,0,0,0,0,-1,1980,694,0,0
763,330,0,0,0,0,0,0,0,0,0,-1,1987,694,0,0
770,330,0,0,0,0,0,0,0,0,0,-1,1994,694,0,0
777,330,0,0,0,0,0,0,0,0,0,-1,2001,694,0,0
784,330,0,0,0,0,0,0,0,0,0,-1,2008,694,0,0
791,330,0,0,0,0,0,0,0,0,0,-1,2015,694,0,0
798,330,0,0,0,0,0,0,0,0,0,-1,2022,694,0,0
805,330,0,0,0,0,0,0,0,0,0,-1,2029,694,0,0
812,330,0,0,0,0,0,0,0,0,0,-1,2036,694,0,0
-700,323,0,0,0,0,0,0,0,0,0,-1,524,701,0,0
-693,323,0,0,0,0,0,0,0,0,0,-1,531,701,0,0
-686,323,0,0,0,0,0,0,0,0,0,-1,538,701,0,0
-679,323,0,0,0,0,0,0,0,0,0,-1,545,701,0,0
-672,323,0,0,0,0,0,0,0,0,0,-1,552,701,0,0
-665,323,0,0,0,0,0,0,0,0,0,-1,559,701,0,0
-658,323,0,0,0,0,0,0,0,0,0,-1,566,701,0,0
-651,323,0,0,0,0,0,0,0,0,0,-1,573,701,0,0
-644,323,0,0,0,0,0,0,0,0,0,-1,580,701,0,0
-637,323,0,0,0,0,0,0,0,0,0,-1,587,701,0,0
-630,323,0,0,0,0,0,0,0,0,0,-1,594,701,0,0
-623,323,0,0,0,0,0,0,0,0,0,-1,601,701,0,0
-616,323,0,0,0,0,0,0,0,0,0,-1,608,701,0,0
-609,323,0,0,0,0,0,0,0,0,0,-1,615,701,0,0
-602,323,-4.15833,2.12256,0,0,0,0,0,0,0,-1,622,701,-4.1583,-2.12257
-595,323,-4.052,1.79156,0,0,0,0,0,0,0,-1,629,701,-4.05198,-1.79158
-588,323,-4.07019,1.94543,0,0,0,0,0,0,0,-1,636,701,-4.07019,-1.94542
-581,323,-6.63727,0.562805,0,0,0,0,0,0,0,-1,643,701,-6.63728,-0.56279
-574,323,-6.15887,0.426697,0,0,0,0,0,0,0,-1,650,701,-6.15887,-0.426727
-567,323,-10.0015,0.0371094,0,0,0,0,0,0,0,-1,657,701,-10.0015,-0.037126
-560,323,-16.3503,-1.16956,0,0,0,0,0,0,0,-1,664,701,-16.3503,1.16957
-553,323,-21.1299,-2.41553,0,0,0,0,0,0,0,-1,671,701,-21.13,2.41553
-546,323,-21.0945,-3.05115,0.0036692,0.0036383,-0.00114476,0.00479862,0.00250888,-0.77865,0.00277144,0.0344015,678,701,-21.0945,3.05112
-539,323,-21.0887,-3.71173,0.00340894,0.00269371,-0.00105497,0.00416526,0.00193739,-0.621985,0.00240676,0.025903,685,701,-21.0887,3.71174
-532,323,-21.1528,-4.52368,0.00302199,0.00184708,-0.000878558,0.0034914,0.00137766,-0.490708,0.00203064,0.011585,692,701,-21.1529,4.5237
-525,323,-21.192,-5.30566,0.00259927,0.00109605,-0.00062521,0.00282531,0.000870009,-0.346925,0.00167083,0.00820399,699,701,-21.192,5.30567
-518,323,-21.2114,-6.01044,0.00222485,0.000458678,-0.000339693,0.00228793,0.000395597,-0.183609,0.00141202,0.0101267,706,701,-21.2114,6.01047
-511,323,-21.2648,-6.74646,0.00187319,-9.03923e-05,-5.71532e-05,0.00187485,-9.20544e-05,-0.0290738,0.00128169,0.0141118,713,701,-21.2648,6.74645
-504,323,-21.3275,-7.49042,0.00154049,-0.000527223,0.000254855,0.00157144,-0.000558172,0.120846,0.00127508,0.0152093,720,701,-21.3275,7.49043
-497,323,-21.3509,-8.21521,0.00137466,-0.00076139,0.000457082,0.00146836,-0.000855088,0.202191,0.00135693,0.0124752,727,701,-21.3509,8.21518
-490,323,-21.3702,-8.97028,0.0014692,-0.000925972,0.000626867,0.00162335,-0.00108012,0.241112,0.00157131,0.0139962,734,701,-21.3702,8.97025
-483,323,-21.3676,-9.71936,0.00177185,-0.000811109,0.000631922,0.00191816,-0.000957421,0.227526,0.00169082,0.0311349,741,701,-21.3676,9.71938
-476,323,-21.367,-10.4651,0,0,0,0,0,0,0,-1,748,701,-21.367,10.4651
-469,323,-8.33301,-3.64001,0,0,0,0,0,0,0,-1,755,701,-8.33298,3.64
-462,323,-5.29431,-1.45697,0,0,0,0,0,0,0,-1,762,701,-5.29431,1.45699
-455,323,-5.0658,-1.36639,0,0,0,0,0,0,0,-1,769,701,-5.06578,1.3664
-448,323,-4.91608,-1.59601,0,0,0,0,0,0,0,-1,776,701,-4.91606,1.59604
-441,323,-14.4006,0.535217,0,0,0,0,0,0,0,-1,783,701,-14.4006,-0.535203
-434,323,-15.3158,2.479,0,0,0,0,0,0,0,-1,790,701,-15.3158,-2.47898
-427,323,-28.3923,1.16797,0,0,0,0,0,0,0,-1,797,701,-28.3923,-1.16796
-420,323,-28.7292,1.09302,0,0,0,0,0,0,0,-1,804,701,-28.7292,-1.09304
-413,323,-28.7955,1.22418,0,0,0,0,0,0,0,-1,811,701,-28.7956,-1.22419
-406,323,0,0,0,0,0,0,0,0,0,-1,818,701,0,0
-399,323,0,0,0,0,0,0,0,0,0,-1,825,701,0,0
-392,323,0,0,0,0,0,0,0,0,0,-1,832,701,0,0
-385,323,0,0,0,0,0,0,0,0,0,-1,839,701,0,0
-378,323,0,0,0,0,0,0,0,0,0,-1,846,701,0,0
-371,323,0,0,0,0,0,0,0,0,0,-1,853,701,0,0
-364,323,0,0,0,0,0,0,0,0,0,-1,860,701,0,0
-357,323,0,0,0,0,0,0,0,0,0,-1,867,701,0,0
-350,323,0,0,0,0,0,0,0,0,0,-1,874,701,0,0
-343,323,0,0,0,0,0,0,0,0,0,-1,881,701,0,0
-336,323,0,0,0,0,0,0,0,0,0,-1,888,701,0,0
-329,323,0,0,0,0,0,0,0,0,0,-1,895,701,0,0
-322,323,0,0,0,0,0,0,0,0,0,-1,902,701,0,0
-315,323,0,0,0,0,0,0,0,0,0,-1,909,701,0,0
-308,323,0,0,0,0,0,0,0,0,0,-1,916,701,0,0
-301,323,0,0,0,0,0,0,0,0,0,-1,923,701,0,0
-294,323,0,0,0,0,0,0,0,0,0,-1,930,701,0,0
-287,323,0,0,0,0,0,0,0,0,0,-1,937,701,0,0
-280,323,0,0,0,0,0,0,0,0,0,-1,944,701,0,0
-273,323,0,0,0,0,0,0,0,0,0,-1,951,701,0,0
-266,323,0,0,0,0,0,0,0,0,0,-1,958,701,0,0
-259,323,0,0,0,0,0,0,0,0,0,-1,965,701,0,0
-252,323,0,0,0,0,0,0,0,0,0,-1,972,701,0,0
-245,323,0,0,0,0,0,0,0,0,0,-1,979,701,0,0
-238,323,0,0,0,0,0,0,0,0,0,-1,986,701,0,0
-231,323,0,0,0,0,0,0,0,0,0,-1,993,701,0,0
-224,323,0,0,0,0,0,0,0,0,0,-1,1000,701,0,0
-217,323,0,0,0,0,0,0,0,0,0,-1,1007,701,0,0
-210,323,0,0,0,0,0,0,0,0,0,-1,1014,701,0,0
-203,323,0,0,0,0,0,0,0,0,0,-1,1021,701,0,0
-196,323,0,0,0,0,0,0,0,0,0,-1,1028,701,0,0
-189,323,0,0,0,0,0,0,0,0,0,-1,1035,701,0,0
-182,323,0,0,0,0,0,0,0,0,0,-1,1042,701,0,0
-175,323,0,0,0,0,0,0,0,0,0,-1,1049,701,0,0
-168,323,0,0,0,0,0,0,0,0,0,-1,1056,701,0,0
-161,323,0,0,0,0,0,0,0,0,0,-1,1063,701,0,0
-154,323,0,0,0,0,0,0,0,0,0,-1,1070,701,0,0
-147,323,0,0,0,0,0,0,0,0,0,-1,1077,701,0,0
-140,323,0,0,0,0,0,0,0,0,0,-1,1084,701,0,0
-133,323,0,0,0,0,0,0,0,0,0,-1,1091,701,0,0
-126,323,0,0,0,0,0,0,0,0,0,-1,1098,701,0,0
-119,323,0,0,0,0,0,0,0,0,0,-1,1105,701,0,0
-112,323,0,0,0,0,0,0,0,0,0,-1,1112,701,0,0
-105,323,0,0,0,0,0,0,0,0,0,-1,1119,701,0,0
-98,323,0,0,0,0,0,0,0,0,0,-1,1126,701,0,0
-91,323,0,0,0,0,0,0,0,0,0,-1,1133,701,0,0
-84,323,0,0,0,0,0,0,0,0,0,-1,1140,701,0,0
-77,323,0,0,0,0,0,0,0,0,0,-1,1147,701,0,0
-70,323,0,0,0,0,0,0,0,0,0,-1,1154,701,0,0
-63,323,0,0,0,0,0,0,0,0,0,-1,1161,701,0,0
-56,323,0,0,0,0,0,0,0,0,0,-1,1168,701,0,0
-49,323,0,0,0,0,0,0,0,0,0,-1,1175,701,0,0
-42,323,0,0,0,0,0,0,0,0,0,-1,1182,701,0,0
-35,323,0,0,0,0,0,0,0,0,0,-1,1189,701,0,0
-28,323,0,0,0,0,0,0,0,0,0,-1,1196,701,0,0
-21,323,0,0,0,0,0,0,0,0,0,-1,1203,701,0,0
-14,323,0,0,0,0,0,0,0,0,0,-1,1210,701,0,0
-7,323,0,0,0,0,0,0,0,0,0,-1,1217,701,0,0
0,323,0,0,0,0,0,0,0,0,0,-1,1224,701,0,0
7,323,0,0,0,0,0,0,0,0,0,-1,1231,701,0,0
14,323,0,0,0,0,0,0,0,0,0,-1,1238,701,0,0
21,323,0,0,0,0,0,0,0,0,0,-1,1245,701,0,0
28,323,0,0,0,0,0,0,0,0,0,-1,1252,701,0,0
35,323,0,0,0,0,0,0,0,0,0,-1,1259,701,0,0
42,323,0,0,0,0,0,0,0,0,0,-1,1266,701,0,0
49,323,0,0,0,0,0,0,0,0,0,-1,1273,701,0,0
56,323,0,0,0,0,0,0,0,0,0,-1,1280,701,0,0
63,323,0,0,0,0,0,0,0,0,0,-1,1287,701,0,0
70,323,0,0,0,0,0,0,0,0,0,-1,1294,701,0,0
77,323,0,0,0,0,0,0,0,0,0,-1,1301,701,0,0
84,323,0,0,0,0,0,0,0,0,0,-1,1308,701,0,0
91,323,0,0,0,0,0,0,0,0,0,-1,1315,701,0,0
98,323,0,0,0,0,0,0,0,0,0,-1,1322,701,0,0
105,323,0,0,0,0,0,0,0,0,0,-1,1329,701,0,0
112,323,0,0,0,0,0,0,0,0,0,-1,1336,701,0,0
119,323,0,0,0,0,0,0,0,0,0,-1,1343,701,0,0
126,323,0,0,0,0,0,0,0,0,0,-1,1350,701,0,0
133,323,0,0,0,0,0,0,0,0,0,-1,1357,701,0,0
140,323,0,0,0,0,0,0,0,0,0,-1,1364,701,0,0
147,323,0,0,0,0,0,0,0,0,0,-1,1371,701,0,0
154,323,0,0,0,0,0,0,0,0,0,-1,1378,701,0,0
161,323,0,0,0,0,0,0,0,0,0,-1,1385,701,0,0
168,323,0,0,0,0,0,0,0,0,0,-1,1392,701,0,0
175,323,0,0,0,0,0,0,0,0,0,-1,1399,701,0,0
182,323,0,0,0,0,0,0,0,0,0,-1,1406,701,0,0
189,323,0,0,0,0,0,0,0,0,0,-1,1413,701,0,0
196,323,0,0,0,0,0,0,0,0,0,-1,1420,701,0,0
203,323,0,0,0,0,0,0,0,0,0,-1,1427,701,0,0
210,323,0,0,0,0,0,0,0,0,0,-1,1434,701,0,0
217,323,0,0,0,0,0,0,0,0,0,-1,1441,701,0,0
224,323,0,0,0,0,0,0,0,0,0,-1,1448,701,0,0
231,323,0,0,0,0,0,0,0,0,0,-1,1455,701,0,0
238,323,0,0,0,0,0,0,0,0,0,-1,1462,701,0,0
245,323,0,0,0,0,0,0,0,0,0,-1,1469,701,0,0
252,323,0,0,0,0,0,0,0,0,0,-1,1476,701,0,0
259,323,0,0,0,0,0,0,0,0,0,-1,1483,701,0,0
266,323,0,0,0,0,0,0,0,0,0,-1,1490,701,0,0
273,323,0,0,0,0,0,0,0,0,0,-1,1497,701,0,0
280,323,0,0,0,0,0,0,0,0,0,-1,1504,701,0,0
287,323,0,0,0,0,0,0,0,0,0,-1,1511,701,0,0
294,323,0,0,0,0,0,0,0,0,0,-1,1518,701,0,0
301,323,0,0,0,0,0,0,0,0,0,-1,1525,701,0,0
308,323,0,0,0,0,0,0,0,0,0,-1,1532,701,0,0
315,323,0,0,0,0,0,0,0,0,0,-1,1539,701,0,0
322,323,0,0,0,0,0,0,0,0,0,-1,1546,701,0,0
329,323,0,0,0,0,0,0,0,0,0,-1,1553,701,0,0
336,323,0,0,0,0,0,0,0,0,0,-1,1560,701,0,0
343,323,0,0,0,0,0,0,0,0,0,-1,1567,701,0,0
350,323,0,0,0,0,0,0,0,0,0,-1,1574,701,0,0
357,323,0,0,0,0,0,0,0,0,0,-1,1581,701,0,0
364,323,0,0,0,0,0,0,0,0,0,-1,1588,701,0,0
371,323,0,0,0,0,0,0,0,0,0,-1,1595,701,0,0
378,323,0,0,0,0,0,0,0,0,0,-1,1602,701,0,0
385,323,0,0,0,0,0,0,0,0,0,-1,1609,701,0,0
392,323,0,0,0,0,0,0,0,0,0,-1,1616,701,0,0
399,323,0,0,0,0,0,0,0,0,0,-1,1623,701,0,0
406,323,0,0,0,0,0,0,0,0,0,-1,1630,701,0,0
413,323,0,0,0,0,0,0,0,0,0,-1,1637,701,0,0
420,323,0,0,0,0,0,0,0,0,0,-1,1644,701,0,0
427,323,0,0,0,0,0,0,0,0,0,-1,1651,701,0,0
434,323,0,0,0,0,0,0,0,0,0,-1,1658,701,0,0
441,323,0,0,0,0,0,0,0,0,0,-1,1665,701,0,0
448,323,0,0,0,0,0,0,0,0,0,-1,1672,701,0,0
455,323,0,0,0,0,0,0,0,0,0,-1,1679,701,0,0
462,323,0,0,0,0,0,0,0,0,0,-1,1686,701,0,0
469,323,0,0,0,0,0,0,0,0,0,-1,1693,701,0,0
476,323,0,0,0,0,0,0,0,0,0,-1,1700,701,0,0
483,323,0,0,0,0,0,0,0,0,0,-1,1707,701,0,0
490,323,0,0,0,0,0,0,0,0,0,-1,1714,701,0,0
497,323,0,0,0,0,0,0,0,0,0,-1,1721,701,0,0
504,323,0,0,0,0,0,0,0,0,0,-1,1728,701,0,0
511,323,0,0,0,0,0,0,0,0,0,-1,1735,701,0,0
518,323,0,0,0,0,0,0,0,0,0,-1,1742,701,0,0
525,323,0,0,0,0,0,0,0,0,0,-1,1749,701,0,0
532,323,33.6193,1.69446,0,0,0,0,0,0,0,-1,1756,701,33.6193,-1.69444
539,323,32.2698,2.44037,0,0,0,0,0,0,0,-1,1763,701,32.2697,-2.44036
546,323,31.1644,3.9444,0,0,0,0,0,0,0,-1,1770,701,31.1644,-3.94438
553,323,30.2488,5.8775,0,0,0,0,0,0,0,-1,1777,701,30.2487,-5.87752
560,323,40.6711,1.25153,0,0,0,0,0,0,0,-1,1784,701,40.6711,-1.25154
567,323,42.1637,2.01208,0,0,0,0,0,0,0,-1,1791,701,42.1637,-2.01207
574,323,12.514,5.89685,0,0,0,0,0,0,0,-1,1798,701,12.5141,-5.89683
581,323,11.821,5.3476,0,0,0,0,0,0,0,-1,1805,701,11.821,-5.34762
588,323,11.7933,7.00818,0,0,0,0,0,0,0,-1,1812,701,11.7933,-7.00819
595,323,6.67847,0.06604,0,0,0,0,0,0,0,-1,1819,701,6.67841,-0.0660418
602,323,34.1029,-9.23187,0,0,0,0,0,0,0,-1,1826,701,34.1029,9.23187
609,323,34.361,-8.40717,0.00225699,-0.000842336,-0.000747041,0.00242766,-0.001013,-0.224599,0.00204167,0.0446614,1833,701,34.361,8.40718
616,323,34.4679,-7.63312,0.00217731,-0.00075998,-0.000316354,0.002211,-0.000793666,-0.106082,0.00179793,0.0133075,1840,701,34.4679,7.63314
623,323,34.4377,-6.88507,0.00193527,-0.000482182,-7.93346e-05,0.00193787,-0.000484783,-0.0327705,0.00148021,0.0135477,1847,701,34.4378,6.88507
630,323,34.4069,-6.1142,0.00184527,-0.000125304,0.000239426,0.00187394,-0.000153977,0.11919,0.00130366,0.0152175,1854,701,34.4068,6.11421
637,323,34.3899,-5.35651,0.0018031,0.000320117,0.000568816,0.00199614,0.00012707,0.327186,0.00129049,0.0124395,1861,701,34.3899,5.35651
644,323,34.3303,-4.6123,0.00181295,0.000831051,0.000913855,0.00235938,0.000284617,0.538906,0.00148715,0.00948069,1868,701,34.3304,4.61231
651,323,34.3118,-3.84363,0.00188549,0.00145673,0.00129052,0.00297932,0.000362904,0.70309,0.00187697,0.0117617,1875,701,34.3117,3.84361
658,323,34.2341,-3.07202,0.00201395,0.00216811,0.00167349,0.00376629,0.000415761,0.808411,0.00238439,0.0177033,1882,701,34.2341,3.072
665,323,34.1558,-2.30298,0.00229289,0.00296597,0.0021135,0.00476955,0.000489307,0.864352,0.0030298,0.0149619,1889,701,34.1558,2.303
672,323,34.1824,-1.48694,0.00269998,0.00391766,0.0025457,0.00592632,0.000691321,0.902775,0.00374179,0.0193599,1896,701,34.1824,1.48691
679,323,34.2432,-0.579041,0,0,0,0,0,0,0,-1,1903,701,34.2431,0.579015
686,323,30.4916,0.378235,0,0,0,0,0,0,0,-1,1910,701,30.4916,-0.37825
693,323,23.8806,1.08844,0,0,0,0,0,0,0,-1,1917,701,23.8806,-1.08845
700,323,10.7705,0.828613,0,0,0,0,0,0,0,-1,1924,701,10.7705,-0.828591
707,323,16.9005,4.79193,0,0,0,0,0,0,0,-1,1931,701,16.9005,-4.7919
714,323,16.2346,6.25958,0,0,0,0,0,0,0,-1,1938,701,16.2346,-6.25956
721,323,0,0,0,0,0,0,0,0,0,-1,1945,701,0,0
728,323,0,0,0,0,0,0,0,0,0,-1,1952,701,0,0
735,323,0,0,0,0,0,0,0,0,0,-1,1959,701,0,0
742,323,0,0,0,0,0,0,0,0,0,-1,1966,701,0,0
749,323,0,0,0,0,0,0,0,0,0,-1,1973,701,0,0
756,323,0,0,0,0,0,0,0,0,0,-1,1980,701,0,0
763,323,0,0,0,0,0,0,0,0,0,-1,1987,701,0,0
770,323,0,0,0,0,0,0,0,0,0,-1,1994,701,0,0
777,323,0,0,0,0,0,0,0,0,0,-1,2001,701,0,0
784,323,0,0,0,0,0,0,0,0,0,-1,2008,701,0,0
791,323,0,0,0,0,0,0,0,0,0,-1,2015,701,0,0
798,323,0,0,0,0,0,0,0,0,0,-1,2022,701,0,0
805,323,0,0,0,0,0,0,0,0,0,-1,2029,701,0,0
812,323,0,0,0,0,0,0,0,0,0,-1,2036,701,0,0
-700,316,0,0,0,0,0,0,0,0,0,-1,524,708,0,0
-693,316,0,0,0,0,0,0,0,0,0,-1,531,708,0,0
-686,316,0,0,0,0,0,0,0,0,0,-1,538,708,0,0
-679,316,0,0,0,0,0,0,0,0,0,-1,545,708,0,0
-672,316,0,0,0,0,0,0,0,0,0,-1,552,708,0,0
-665,316,0,0,0,0,0,0,0,0,0,-1,559,708,0,0
-658,316,0,0,0,0,0,0,0,0,0,-1,566,708,0,0
-651,316,0,0,0,0,0,0,0,0,0,-1,573,708,0,0
-644,316,0,0,0,0,0,0,0,0,0,-1,580,708,0,0
-637,316,0,0,0,0,0,0,0,0,0,-1,587,708,0,0
-630,316,0,0,0,0,0,0,0,0,0,-1,594,708,0,0
-623,316,0,0,0,0,0,0,0,0,0,-1,601,708,0,0
-616,316,0,0,0,0,0,0,0,0,0,-1,608,708,0,0
-609,316,0,0,0,0,0,0,0,0,0,-1,615,708,0,0
-602,316,-0.451782,-0.0494995,0,0,0,0,0,0,0,-1,622,708,-0.451768,0.0495022
-595,316,-3.3761,2.17188,0,0,0,0,0,0,0,-1,629,708,-3.37609,-2.17189
-588,316,-5.00177,2.60675,0,0,0,0,0,0,0,-1,636,708,-5.00175,-2.60676
-581,316,-3.94653,0.393433,0,0,0,0,0,0,0,-1,643,708,-3.94655,-0.39342
-574,316,-9.67395,1.06067,0,0,0,0,0,0,0,-1,650,708,-9.67396,-1.06065
-567,316,-10.1962,0.448425,0,0,0,0,0,0,0,-1,657,708,-10.1962,-0.448411
-560,316,-18.9941,-1.75067,0,0,0,0,0,0,0,-1,664,708,-18.9941,1.75068
-553,316,-22.0235,-2.19727,0,0,0,0,0,0,0,-1,671,708,-22.0235,2.19727
-546,316,-21.9549,-2.93311,0.00265486,0.00363844,-0.00104976,0.00430589,0.00198741,-1.00446,0.00248846,0.0392234,678,708,-21.9549,2.93309
-539,316,-21.8385,-3.7533,0.00265383,0.00260846,-0.00093547,0.00356689,0.0016954,-0.773276,0.00206018,0.0125264,685,708,-21.8385,3.7533
-532,316,-21.875,-4.49646,0.00246042,0.00168781,-0.000724865,0.00289549,0.00125274,-0.540574,0.00167676,0.0100616,692,708,-21.875,4.49646
-525,316,-21.9169,-5.2254,0.00214996,0.000834901,-0.000428941,0.0022775,0.000707361,-0.289013,0.001346,0.0103089,699,708,-21.9168,5.22537
-518,316,-21.9381,-5.961,0.00184399,0.000121829,-8.93623e-05,0.00184862,0.000117204,-0.0517045,0.00119526,0.0106457,706,708,-21.9381,5.96097
-511,316,-21.9979,-6.70679,0.00149639,-0.000530904,0.000270639,0.0015319,-0.000566412,0.130454,0.00125348,0.0109797,713,708,-21.998,6.7068
-504,316,-22.0678,-7.45514,0.00112069,-0.00108224,0.000680766,0.00131408,-0.00127563,0.276796,0.00149523,0.014541,720,708,-22.0678,7.45512
-497,316,-22.0753,-8.15961,0.000890867,-0.00145687,0.000995301,0.00125602,-0.00182202,0.351631,0.0017871,0.0133696,727,708,-22.0752,8.15964
-490,316,-22.0904,-8.91064,0.00101701,-0.00179196,0.00132016,0.00154006,-0.00231502,0.37723,0.00224067,0.0183173,734,708,-22.0904,8.91065
-483,316,-22.1097,-9.74078,0,0,0,0,0,0,0,-1,741,708,-22.1098,9.74077
-476,316,-8.90894,-3.31207,0,0,0,0,0,0,0,-1,748,708,-8.90896,3.31206
-469,316,-6.24194,-1.42725,0,0,0,0,0,0,0,-1,755,708,-6.24192,1.42725
-462,316,-5.74237,-1.40039,0,0,0,0,0,0,0,-1,762,708,-5.74238,1.40039
-455,316,-5.44745,-1.21899,0,0,0,0,0,0,0,-1,769,708,-5.44746,1.21898
-448,316,-14.8945,0.655396,0,0,0,0,0,0,0,-1,776,708,-14.8946,-0.655396
-441,316,-14.9626,0.576111,0,0,0,0,0,0,0,-1,783,708,-14.9626,-0.576115
-434,316,-27.7723,1.15576,0,0,0,0,0,0,0,-1,790,708,-27.7723,-1.15579
-427,316,-28.0504,1.31427,0,0,0,0,0,0,0,-1,797,708,-28.0504,-1.31427
-420,316,-28.198,1.62891,0,0,0,0,0,0,0,-1,804,708,-28.198,-1.62889
-413,316,0,0,0,0,0,0,0,0,0,-1,811,708,0,0
-406,316,0,0,0,0,0,0,0,0,0,-1,818,708,0,0
-399,316,0,0,0,0,0,0,0,0,0,-1,825,708,0,0
-392,316,0,0,0,0,0,0,0,0,0,-1,832,708,0,0
-385,316,0,0,0,0,0,0,0,0,0,-1,839,708,0,0
-378,316,0,0,0,0,0,0,0,0,0,-1,846,708,0,0
-371,316,0,0,0,0,0,0,0,0,0,-1,853,708,0,0
-364,316,0,0,0,0,0,0,0,0,0,-1,860,708,0,0
-357,316,0,0,0,0,0,0,0,0,0,-1,867,708,0,0
-350,316,0,0,0,0,0,0,0,0,0,-1,874,708,0,0
-343,316,0,0,0,0,0,0,0,0,0,-1,881,708,0,0
-336,316,0,0,0,0,0,0,0,0,0,-1,888,708,0,0
-329,316,0,0,0,0,0,0,0,0,0,-1,895,708,0,0
-322,316,0,0,0,0,0,0,0,0,0,-1,902,708,0,0
-315,316,0,0,0,0,0,0,0,0,0,-1,909,708,0,0
-308,316,0,0,0,0,0,0,0,0,0,-1,916,708,0,0
-301,316,0,0,0,0,0,0,0,0,0,-1,923,708,0,0
-294,316,0,0,0,0,0,0,0,0,0,-1,930,708,0,0
-287,316,0,0,0,0,0,0,0,0,0,-1,937,708,0,0
-280,316,0,0,0,0,0,0,0,0,0,-1,944,708,0,0
-273,316,0,0,0,0,0,0,0,0,0,-1,951,708,0,0
-266,316,0,0,0,0,0,0,0,0,0,-1,958,708,0,0
-259,316,0,0,0,0,0,0,0,0,0,-1,965,708,0,0
-252,316,0,0,0,0,0,0,0,0,0,-1,972,708,0,0
-245,316,0,0,0,0,0,0,0,0,0,-1,979,708,0,0
-238,316,0,0,0,0,0,0,0,0,0,-1,986,708,0,0
-231,316,0,0,0,0,0,0,0,0,0,-1,993,708,0,0
-224,316,0,0,0,0,0,0,0,0,0,-1,1000,708,0,0
-217,316,0,0,0,0,0,0,0,0,0,-1,1007,708,0,0
-210,316,0,0,0,0,0,0,0,0,0,-1,1014,708,0,0
-203,316,0,0,0,0,0,0,0,0,0,-1,1021,708,0,0
-196,316,0,0,0,0,0,0,0,0,0,-1,1028,708,0,0
-189,316,0,0,0,0,0,0,0,0,0,-1,1035,708,0,0
-182,316,0,0,0,0,0,0,0,0,0,-1,1042,708,0,0
-175,316,0,0,0,0,0,0,0,0,0,-1,1049,708,0,0
-168,316,0,0,0,0,0,0,0,0,0,-1,1056,708,0,0
-161,316,0,0,0,0,0,0,0,0,0,-1,1063,708,0,0
-154,316,0,0,0,0,0,0,0,0,0,-1,1070,708,0,0
-147,316,0,0,0,0,0,0,0,0,0,-1,1077,708,0,0
-140,316,0,0,0,0,0,0,0,0,0,-1,1084,708,0,0
-133,316,0,0,0,0,0,0,0,0,0,-1,1091,708,0,0
-126,316,0,0,0,0,0,0,0,0,0,-1,1098,708,0,0
-119,316,0,0,0,0,0,0,0,0,0,-1,1105,708,0,0
-112,316,0,0,0,0,0,0,0,0,0,-1,1112,708,0,0
-105,316,0,0,0,0,0,0,0,0,0,-1,1119,708,0,0
-98,316,0,0,0,0,0,0,0,0,0,-1,1126,708,0,0
-91,316,0,0,0,0,0,0,0,0,0,-1,1133,708,0,0
-84,316,0,0,0,0,0,0,0,0,0,-1,1140,708,0,0
-77,316,0,0,0,0,0,0,0,0,0,-1,1147,708,0,0
-70,316,0,0,0,0,0,0,0,0,0,-1,1154,708,0,0
-63,316,0,0,0,0,0,0,0,0,0,-1,1161,708,0,0
-56,316,0,0,0,0,0,0,0,0,0,-1,1168,708,0,0
-49,316,0,0,0,0,0,0,0,0,0,-1,1175,708,0,0
-42,316,0,0,0,0,0,0,0,0,0,-1,1182,708,0,0
-35,316,0,0,0,0,0,0,0,0,0,-1,1189,708,0,0
-28,316,0,0,0,0,0,0,0,0,0,-1,1196,708,0,0
-21,316,0,0,0,0,0,0,0,0,0,-1,1203,708,0,0
-14,316,0,0,0,0,0,0,0,0,0,-1,1210,708,0,0
-7,316,0,0,0,0,0,0,0,0,0,-1,1217,708,0,0
0,316,0,0,0,0,0,0,0,0,0,-1,1224,708,0,0
7,316,0,0,0,0,0,0,0,0,0,-1,1231,708,0,0
14,316,0,0,0,0,0,0,0,0,0,-1,1238,708,0,0
21,316,0,0,0,0,0,0,0,0,0,-1,1245,708,0,0
28,316,0,0,0,0,0,0,0,0,0,-1,1252,708,0,0
35,316,0,0,0,0,0,0,0,0,0,-1,1259,708,0,0
42,316,0,0,0,0,0,0,0,0,0,-1,1266,708,0,0
49,316,0,0,0,0,0,0,0,0,0,-1,1273,708,0,0
56,316,0,0,0,0,0,0,0,0,0,-1,1280,708,0,0
63,316,0,0,0,0,0,0,0,0,0,-1,1287,708,0,0
70,316,0,0,0,0,0,0,0,0,0,-1,1294,708,0,0
77,316,0,0,0,0,0,0,0,0,0,-1,1301,708,0,0
84,316,0,0,0,0,0,0,0,0,0,-1,1308,708,0,0
91,316,0,0,0,0,0,0,0,0,0,-1,1315,708,0,0
98,316,0,0,0,0,0,0,0,0,0,-1,1322,708,0,0
105,316,0,0,0,0,0,0,0,0,0,-1,1329,708,0,0
112,316,0,0,0,0,0,0,0,0,0,-1,1336,708,0,0
119,316,0,0,0,0,0,0,0,0,0,-1,1343,708,0,0
126,316,0,0,0,0,0,0,0,0,0,-1,1350,708,0,0
133,316,0,0,0,0,0,0,0,0,0,-1,1357,708,0,0
140,316,0,0,0,0,0,0,0,0,0,-1,1364,708,0,0
147,316,0,0,0,0,0,0,0,0,0,-1,1371,708,0,0
154,316,0,0,0,0,0,0,0,0,0,-1,1378,708,0,0
161,316,0,0,0,0,0,0,0,0,0,-1,1385,708,0,0
168,316,0,0,0,0,0,0,0,0,0,-1,1392,708,0,0
175,316,0,0,0,0,0,0,0,0,0,-1,1399,708,0,0
182,316,0,0,0,0,0,0,0,0,0,-1,1406,708,0,0
189,316,0,0,0,0,0,0,0,0,0,-1,1413,708,0,0
196,316,0,0,0,0,0,0,0,0,0,-1,1420,708,0,0
203,316,0,0,0,0,0,0,0,0,0,-1,1427,708,0,0
210,316,0,0,0,0,0,0,0,0,0,-1,1434,708,0,0
217,316,0,0,0,0,0,0,0,0,0,-1,1441,708,0,0
224,316,0,0,0,0,0,0,0,0,0,-1,1448,708,0,0
231,316,0,0,0,0,0,0,0,0,0,-1,1455,708,0,0
238,316,0,0,0,0,0,0,0,0,0,-1,1462,708,0,0
245,316,0,0,0,0,0,0,0,0,0,-1,1469,708,0,0
252,316,0,0,0,0,0,0,0,0,0,-1,1476,708,0,0
259,316,0,0,0,0,0,0,0,0,0,-1,1483,708,0,0
266,316,0,0,0,0,0,0,0,0,0,-1,1490,708,0,0
273,316,0,0,0,0,0,0,0,0,0,-1,1497,708,0,0
280,316,0,0,0,0,0,0,0,0,0,-1,1504,708,0,0
287,316,0,0,0,0,0,0,0,0,0,-1,1511,708,0,0
294,316,0,0,0,0,0,0,0,0,0,-1,1518,708,0,0
301,316,0,0,0,0,0,0,0,0,0,-1,1525,708,0,0
308,316,0,0,0,0,0,0,0,0,0,-1,1532,708,0,0
315,316,0,0,0,0,0,0,0,0,0,-1,1539,708,0,0
322,316,0,0,0,0,0,0,0,0,0,-1,1546,708,0,0
329,316,0,0,0,0,0,0,0,0,0,-1,1553,708,0,0
336,316,0,0,0,0,0,0,0,0,0,-1,1560,708,0,0
343,316,0,0,0,0,0,0,0,0,0,-1,1567,708,0,0
350,316,0,0,0,0,0,0,0,0,0,-1,1574,708,0,0
357,316,0,0,0,0,0,0,0,0,0,-1,1581,708,0,0
364,316,0,0,0,0,0,0,0,0,0,-1,1588,708,0,0
371,316,0,0,0,0,0,0,0,0,0,-1,1595,708,0,0
378,316,0,0,0,0,0,0,0,0,0,-1,1602,708,0,0
385,316,0,0,0,0,0,0,0,0,0,-1,1609,708,0,0
392,316,0,0,0,0,0,0,0,0,0,-1,1616,708,0,0
399,316,0,0,0,0,0,0,0,0,0,-1,1623,708,0,0
406,316,0,0,0,0,0,0,0,0,0,-1,1630,708,0,0
413,316,0,0,0,0,0,0,0,0,0,-1,1637,708,0,0
420,316,0,0,0,0,0,0,0,0,0,-1,1644,708,0,0
427,316,0,0,0,0,0,0,0,0,0,-1,1651,708,0,0
434,316,0,0,0,0,0,0,0,0,0,-1,1658,708,0,0
441,316,0,0,0,0,0,0,0,0,0,-1,1665,708,0,0
448,316,0,0,0,0,0,0,0,0,0,-1,1672,708,0,0
455,316,0,0,0,0,0,0,0,0,0,-1,1679,708,0,0
462,316,0,0,0,0,0,0,0,0,0,-1,1686,708,0,0
469,316,0,0,0,0,0,0,0,0,0,-1,1693,708,0,0
476,316,0,0,0,0,0,0,0,0,0,-1,1700,708,0,0
483,316,0,0,0,0,0,0,0,0,0,-1,1707,708,0,0
490,316,0,0,0,0,0,0,0,0,0,-1,1714,708,0,0
497,316,0,0,0,0,0,0,0,0,0,-1,1721,708,0,0
504,316,0,0,0,0,0,0,0,0,0,-1,1728,708,0,0
511,316,0,0,0,0,0,0,0,0,0,-1,1735,708,0,0
518,316,0,0,0,0,0,0,0,0,0,-1,1742,708,0,0
525,316,0,0,0,0,0,0,0,0,0,-1,1749,708,0,0
532,316,33.8604,0.531128,0,0,0,0,0,0,0,-1,1756,708,33.8604,-0.531151
539,316,44.4543,2.73468,0,0,0,0,0,0,0,-1,1763,708,44.4543,-2.7347
546,316,44.713,3.35498,0,0,0,0,0,0,0,-1,1770,708,44.7131,-3.35501
553,316,39.9031,6.57275,0,0,0,0,0,0,0,-1,1777,708,39.9031,-6.57274
560,316,39.1196,1.10046,0,0,0,0,0,0,0,-1,1784,708,39.1197,-1.10048
567,316,47.3683,6.04919,0,0,0,0,0,0,0,-1,1791,708,47.3683,-6.04918
574,316,45.9872,6.7655,0,0,0,0,0,0,0,-1,1798,708,45.9871,-6.76552
581,316,24.6815,7.77496,0,0,0,0,0,0,0,-1,1805,708,24.6815,-7.77499
588,316,19.7659,2.90198,0,0,0,0,0,0,0,-1,1812,708,19.7659,-2.902
595,316,12.5363,1.50702,0,0,0,0,0,0,0,-1,1819,708,12.5363,-1.50701
602,316,7.79919,0.0422363,0,0,0,0,0,0,0,-1,1826,708,7.79923,-0.0422066
609,316,35.0614,-8.31207,0,0,0,0,0,0,0,-1,1833,708,35.0614,8.31207
616,316,35.2021,-7.57574,0.00254879,-0.00115879,-0.000450973,0.00260285,-0.00121285,-0.119318,0.0022512,0.014231,1840,708,35.2022,7.57572
623,316,35.1902,-6.83704,0.00208795,-0.000839371,-0.000261746,0.00211117,-0.00086259,-0.0884796,0.00176663,0.0115381,1847,708,35.1902,6.83703
630,316,35.1648,-6.11487,0.00186713,-0.000488334,1.8077e-05,0.00186727,-0.000488473,0.00767391,0.00143564,0.0137487,1854,708,35.1648,6.11488
637,316,35.1337,-5.3244,0.00173689,-3.17187e-05,0.000336263,0.00179867,-9.34941e-05,0.181686,0.00123146,0.0125627,1861,708,35.1336,5.32439
644,316,35.1024,-4.55786,0.0016889,0.000497931,0.000681721,0.00199859,0.000188238,0.426408,0.00127429,0.0126935,1868,708,35.1024,4.55789
651,316,35.0632,-3.8147,0.00171676,0.00111836,0.00105829,0.00251733,0.000317791,0.647633,0.00158296,0.0162765,1875,708,35.0632,3.81473
658,316,34.9781,-3.03882,0.00181217,0.00182843,0.0014399,0.00326022,0.000380383,0.788222,0.00205844,0.0307834,1882,708,34.9781,3.03881
665,316,34.9022,-2.26422,0.00203869,0.00262028,0.0018695,0.00422146,0.000437502,0.862554,0.0026804,0.0216658,1889,708,34.9022,2.26421
672,316,34.9125,-1.49036,0.00237636,0.00354922,0.00231984,0.00535561,0.000569971,0.909199,0.00339639,0.0127692,1896,708,34.9125,1.49036
679,316,34.9064,-0.720947,0,0,0,0,0,0,0,-1,1903,708,34.9064,0.720938
686,316,34.0828,0.223206,0,0,0,0,0,0,0,-1,1910,708,34.0828,-0.223183
693,316,26.4315,1.80652,0,0,0,0,0,0,0,-1,1917,708,26.4315,-1.80651
700,316,12.8749,2.89136,0,0,0,0,0,0,0,-1,1924,708,12.8748,-2.89137
707,316,15.7089,5.41486,0,0,0,0,0,0,0,-1,1931,708,15.7088,-5.41487
714,316,16.1727,5.52045,0,0,0,0,0,0,0,-1,1938,708,16.1728,-5.52042
721,316,16.7094,6.53351,0,0,0,0,0,0,0,-1,1945,708,16.7094,-6.5335
728,316,0,0,0,0,0,0,0,0,0,-1,1952,708,0,0
735,316,0,0,0,0,0,0,0,0,0,-1,1959,708,0,0
742,316,0,0,0,0,0,0,0,0,0,-1,1966,708,0,0
749,316,0,0,0,0,0,0,0,0,0,-1,1973,708,0,0
756,316,0,0,0,0,0,0,0,0,0,-1,1980,708,0,0
763,316,0,0,0,0,0,0,0,0,0,-1,1987,708,0,0
770,316,0,0,0,0,0,0,0,0,0,-1,1994,708,0,0
777,316,0,0,0,0,0,0,0,0,0,-1,2001,708,0,0
784,316,0,0,0,0,0,0,0,0,0,-1,2008,708,0,0
791,316,0,0,0,0,0,0,0,0,0,-1,2015,708,0,0
798,316,0,0,0,0,0,0,0,0,0,-1,2022,708,0,0
805,316,0,0,0,0,0,0,0,0,0,-1,2029,708,0,0
812,316,0,0,0,0,0,0,0,0,0,-1,2036,708,0,0
-700,309,0,0,0,0,0,0,0,0,0,-1,524,715,0,0
-693,309,0,0,0,0,0,0,0,0,0,-1,531,715,0,0
-686,309,0,0,0,0,0,0,0,0,0,-1,538,715,0,0
-679,309,0,0,0,0,0,0,0,0,0,-1,545,715,0,0
-672,309,0,0,0,0,0,0,0,0,0,-1,552,715,0,0
-665,309,0,0,0,0,0,0,0,0,0,-1,559,715,0,0
-658,309,0,0,0,0,0,0,0,0,0,-1,566,715,0,0
-651,309,0,0,0,0,0,0,0,0,0,-1,573,715,0,0
-644,309,0,0,0,0,0,0,0,0,0,-1,580,715,0,0
-637,309,0,0,0,0,0,0,0,0,0,-1,587,715,0,0
-630,309,0,0,0,0,0,0,0,0,0,-1,594,715,0,0
-623,309,0,0,0,0,0,0,0,0,0,-1,601,715,0,0
-616,309,0,0,0,0,0,0,0,0,0,-1,608,715,0,0
-609,309,-5.95392,-3.93689,0,0,0,0,0,0,0,-1,615,715,-5.95392,3.93686
-602,309,-4.99786,-3.31287,0,0,0,0,0,0,0,-1,622,715,-4.99786,3.31284
-595,309,-6.80847,2.4046,0,0,0,0,0,0,0,-1,629,715,-6.80845,-2.40458
-588,309,-6.08795,2.19324,0,0,0,0,0,0,0,-1,636,715,-6.08793,-2.19325
-581,309,-5.97552,1.3277,0,0,0,0,0,0,0,-1,643,715,-5.97552,-1.32769
-574,309,-8.73602,0.208435,0,0,0,0,0,0,0,-1,650,715,-8.73604,-0.208437
-567,309,-10.3909,0.85968,0,0,0,0,0,0,0,-1,657,715,-10.3909,-0.859696
-560,309,-18.6088,-1.73389,0,0,0,0,0,0,0,-1,664,715,-18.6088,1.73389
-553,309,-22.7753,-2.15643,0,0,0,0,0,0,0,-1,671,715,-22.7753,2.15641
-546,309,-22.6672,-2.93329,0.00172009,0.00329435,-0.000705219,0.00356406,0.00145038,-1.20551,0.00206955,0.0301406,678,715,-22.6672,2.9333
-539,309,-22.5814,-3.72412,0.00186744,0.00225929,-0.000600957,0.00269546,0.00143128,-0.942979,0.00155722,0.0146392,685,715,-22.5814,3.72409
-532,309,-22.599,-4.4613,0.00179385,0.0013337,-0.000389893,0.00201649,0.00111106,-0.518844,0.00116624,0.0116585,692,715,-22.599,4.46129
-525,309,-22.6447,-5.21124,0.0015857,0.000453306,-8.55184e-05,0.00159212,0.000446884,-0.0749533,0.000948231,0.0166493,699,715,-22.6447,5.21126
-518,309,-22.6849,-5.94177,0.00136718,-0.000275145,0.000280573,0.00141379,-0.000321755,0.164621,0.00106609,0.0171698,706,715,-22.6849,5.94178
-511,309,-22.7272,-6.6629,0.00105889,-0.00095563,0.000694547,0.00127514,-0.00117188,0.301836,0.0014132,0.012438,713,715,-22.7272,6.66288
-504,309,-22.774,-7.39148,0.000679694,-0.00154037,0.00117836,0.00118852,-0.0020492,0.407623,0.00189118,0.0101251,720,715,-22.774,7.3915
-497,309,-22.7986,-8.10919,0.000400111,-0.00200026,0.00160718,0.00120579,-0.00280593,0.464685,0.00237679,0.0148704,727,715,-22.7987,8.10916
-490,309,-22.8426,-8.85229,0,0,0,0,0,0,0,-1,734,715,-22.8426,8.85229
-483,309,-17.7261,-7.75836,0,0,0,0,0,0,0,-1,741,715,-17.7261,7.75839
-476,309,-5.29486,-1.2262,0,0,0,0,0,0,0,-1,748,715,-5.29484,1.22622
-469,309,-4.22717,-0.592896,0,0,0,0,0,0,0,-1,755,715,-4.2272,0.592905
-462,309,-10.428,2.46948,0,0,0,0,0,0,0,-1,762,715,-10.428,-2.46947
-455,309,-15.8216,0.00915527,0,0,0,0,0,0,0,-1,769,715,-15.8216,-0.00913359
-448,309,-37.3543,-1.02441,0,0,0,0,0,0,0,-1,776,715,-37.3543,1.02444
-441,309,-19.8181,1.4425,0,0,0,0,0,0,0,-1,783,715,-19.8181,-1.44249
-434,309,-28.3196,0.95105,0,0,0,0,0,0,0,-1,790,715,-28.3196,-0.951068
-427,309,-27.8553,1.40332,0,0,0,0,0,0,0,-1,797,715,-27.8553,-1.40334
-420,309,-27.3148,1.90747,0,0,0,0,0,0,0,-1,804,715,-27.3148,-1.90745
-413,309,0,0,0,0,0,0,0,0,0,-1,811,715,0,0
-406,309,0,0,0,0,0,0,0,0,0,-1,818,715,0,0
-399,309,0,0,0,0,0,0,0,0,0,-1,825,715,0,0
-392,309,0,0,0,0,0,0,0,0,0,-1,832,715,0,0
-385,309,0,0,0,0,0,0,0,0,0,-1,839,715,0,0
-378,309,0,0,0,0,0,0,0,0,0,-1,846,715,0,0
-371,309,0,0,0,0,0,0,0,0,0,-1,853,715,0,0
-364,309,0,0,0,0,0,0,0,0,0,-1,860,715,0,0
-357,309,0,0,0,0,0,0,0,0,0,-1,867,715,0,0
-350,309,0,0,0,0,0,0,0,0,0,-1,874,715,0,0
-343,309,0,0,0,0,0,0,0,0,0,-1,881,715,0,0
-336,309,0,0,0,0,0,0,0,0,0,-1,888,715,0,0
-329,309,0,0,0,0,0,0,0,0,0,-1,895,715,0,0
-322,309,0,0,0,0,0,0,0,0,0,-1,902,715,0,0
-315,309,0,0,0,0,0,0,0,0,0,-1,909,715,0,0
-308,309,0,0,0,0,0,0,0,0,0,-1,916,715,0,0
-301,309,0,0,0,0,0,0,0,0,0,-1,923,715,0,0
-294,309,0,0,0,0,0,0,0,0,0,-1,930,715,0,0
-287,309,0,0,0,0,0,0,0,0,0,-1,937,715,0,0
-280,309,0,0,0,0,0,0,0,0,0,-1,944,715,0,0
-273,309,0,0,0,0,0,0,0,0,0,-1,951,715,0,0
-266,309,0,0,0,0,0,0,0,0,0,-1,958,715,0,0
-259,309,0,0,0,0,0,0,0,0,0,-1,965,715,0,0
-252,309,0,0,0,0,0,0,0,0,0,-1,972,715,0,0
-245,309,0,0,0,0,0,0,0,0,0,-1,979,715,0,0
-238,309,0,0,0,0,0,0,0,0,0,-1,986,715,0,0
-231,309,0,0,0,0,0,0,0,0,0,-1,993,715,0,0
-224,309,0,0,0,0,0,0,0,0,0,-1,1000,715,0,0
-217,309,0,0,0,0,0,0,0,0,0,-1,1007,715,0,0
-210,309,0,0,0,0,0,0,0,0,0,-1,1014,715,0,0
-203,309,0,0,0,0,0,0,0,0,0,-1,1021,715,0,0
-196,309,0,0,0,0,0,0,0,0,0,-1,1028,715,0,0
-189,309,0,0,0,0,0,0,0,0,0,-1,1035,715,0,0
-182,309,0,0,0,0,0,0,0,0,0,-1,1042,715,0,0
-175,309,0,0,0,0,0,0,0,0,0,-1,1049,715,0,0
-168,309,0,0,0,0,0,0,0,0,0,-1,1056,715,0,0
-161,309,0,0,0,0,0,0,0,0,0,-1,1063,715,0,0
-154,309,0,0,0,0,0,0,0,0,0,-1,1070,715,0,0
-147,309,0,0,0,0,0,0,0,0,0,-1,1077,715,0,0
-140,309,0,0,0,0,0,0,0,0,0,-1,1084,715,0,0
-133,309,0,0,0,0,0,0,0,0,0,-1,1091,715,0,0
-126,309,0,0,0,0,0,0,0,0,0,-1,1098,715,0,0
-119,309,0,0,0,0,0,0,0,0,0,-1,1105,715,0,0
-112,309,0,0,0,0,0,0,0,0,0,-1,1112,715,0,0
-105,309,0,0,0,0,0,0,0,0,0,-1,1119,715,0,0
-98,309,0,0,0,0,0,0,0,0,0,-1,1126,715,0,0
-91,309,0,0,0,0,0,0,0,0,0,-1,1133,715,0,0
-84,309,0,0,0,0,0,0,0,0,0,-1,1140,715,0,0
-77,309,0,0,0,0,0,0,0,0,0,-1,1147,715,0,0
-70,309,0,0,0,0,0,0,0,0,0,-1,1154,715,0,0
-63,309,0,0,0,0,0,0,0,0,0,-1,1161,715,0,0
-56,309,0,0,0,0,0,0,0,0,0,-1,1168,715,0,0
-49,309,0,0,0,0,0,0,0,0,0,-1,1175,715,0,0
-42,309,0,0,0,0,0,0,0,0,0,-1,1182,715,0,0
-35,309,0,0,0,0,0,0,0,0,0,-1,1189,715,0,0
-28,309,0,0,0,0,0,0,0,0,0,-1,1196,715,0,0
-21,309,0,0,0,0,0,0,0,0,0,-1,1203,715,0,0
-14,309,0,0,0,0,0,0,0,0,0,-1,1210,715,0,0
-7,309,0,0,0,0,0,0,0,0,0,-1,1217,715,0,0
0,309,0,0,0,0,0,0,0,0,0,-1,1224,715,0,0
7,309,0,0,0,0,0,0,0,0,0,-1,1231,715,0,0
14,309,0,0,0,0,0,0,0,0,0,-1,1238,715,0,0
21,309,0,0,0,0,0,0,0,0,0,-1,1245,715,0,0
28,309,0,0,0,0,0,0,0,0,0,-1,1252,715,0,0
35,309,0,0,0,0,0,0,0,0,0,-1,1259,715,0,0
42,309,0,0,0,0,0,0,0,0,0,-1,1266,715,0,0
49,309,0,0,0,0,0,0,0,0,0,-1,1273,715,0,0
56,309,0,0,0,0,0,0,0,0,0,-1,1280,715,0,0
63,309,0,0,0,0,0,0,0,0,0,-1,1287,715,0,0
70,309,0,0,0,0,0,0,0,0,0,-1,1294,715,0,0
77,309,0,0,0,0,0,0,0,0,0,-1,1301,715,0,0
84,309,0,0,0,0,0,0,0,0,0,-1,1308,715,0,0
91,309,0,0,0,0,0,0,0,0,0,-1,1315,715,0,0
98,309,0,0,0,0,0,0,0,0,0,-1,1322,715,0,0
105,309,0,0,0,0,0,0,0,0,0,-1,1329,715,0,0
112,309,0,0,0,0,0,0,0,0,0,-1,1336,715,0,0
119,309,0,0,0,0,0,0,0,0,0,-1,1343,715,0,0
126,309,0,0,0,0,0,0,0,0,0,-1,1350,715,0,0
133,309,0,0,0,0,0,0,0,0,0,-1,1357,715,0,0
140,309,0,0,0,0,0,0,0,0,0,-1,1364,715,0,0
147,309,0,0,0,0,0,0,0,0,0,-1,1371,715,0,0
154,309,0,0,0,0,0,0,0,0,0,-1,1378,715,0,0
161,309,0,0,0,0,0,0,0,0,0,-1,1385,715,0,0
168,309,0,0,0,0,0,0,0,0,0,-1,1392,715,0,0
175,309,0,0,0,0,0,0,0,0,0,-1,1399,715,0,0
182,309,0,0,0,0,0,0,0,0,0,-1,1406,715,0,0
189,309,0,0,0,0,0,0,0,0,0,-1,1413,715,0,0
196,309,0,0,0,0,0,0,0,0,0,-1,1420,715,0,0
203,309,0,0,0,0,0,0,0,0,0,-1,1427,715,0,0
210,309,0,0,0,0,0,0,0,0,0,-1,1434,715,0,0
217,309,0,0,0,0,0,0,0,0,0,-1,1441,715,0,0
224,309,0,0,0,0,0,0,0,0,0,-1,1448,715,0,0
231,309,0,0,0,0,0,0,0,0,0,-1,1455,715,0,0
238,309,0,0,0,0,0,0,0,0,0,-1,1462,715,0,0
245,309,0,0,0,0,0,0,0,0,0,-1,1469,715,0,0
252,309,0,0,0,0,0,0,0,0,0,-1,1476,715,0,0
259,309,0,0,0,0,0,0,0,0,0,-1,1483,715,0,0
266,309,0,0,0,0,0,0,0,0,0,-1,1490,715,0,0
273,309,0,0,0,0,0,0,0,0,0,-1,1497,715,0,0
280,309,0,0,0,0,0,0,0,0,0,-1,1504,715,0,0
287,309,0,0,0,0,0,0,0,0,0,-1,1511,715,0,0
294,309,0,0,0,0,0,0,0,0,0,-1,1518,715,0,0
301,309,0,0,0,0,0,0,0,0,0,-1,1525,715,0,0
308,309,0,0,0,0,0,0,0,0,0,-1,1532,715,0,0
315,309,0,0,0,0,0,0,0,0,0,-1,1539,715,0,0
322,309,0,0,0,0,0,0,0,0,0,-1,1546,715,0,0
329,309,0,0,0,0,0,0,0,0,0,-1,1553,715,0,0
336,309,0,0,0,0,0,0,0,0,0,-1,1560,715,0,0
343,309,0,0,0,0,0,0,0,0,0,-1,1567,715,0,0
350,309,0,0,0,0,0,0,0,0,0,-1,1574,715,0,0
357,309,0,0,0,0,0,0,0,0,0,-1,1581,715,0,0
364,309,0,0,0,0,0,0,0,0,0,-1,1588,715,0,0
371,309,0,0,0,0,0,0,0,0,0,-1,1595,715,0,0
378,309,0,0,0,0,0,0,0,0,0,-1,1602,715,0,0
385,309,0,0,0,0,0,0,0,0,0,-1,1609,715,0,0
392,309,0,0,0,0,0,0,0,0,0,-1,1616,715,0,0
399,309,0,0,0,0,0,0,0,0,0,-1,1623,715,0,0
406,309,0,0,0,0,0,0,0,0,0,-1,1630,715,0,0
413,309,0,0,0,0,0,0,0,0,0,-1,1637,715,0,0
420,309,0,0,0,0,0,0,0,0,0,-1,1644,715,0,0
427,309,0,0,0,0,0,0,0,0,0,-1,1651,715,0,0
434,309,0,0,0,0,0,0,0,0,0,-1,1658,715,0,0
441,309,0,0,0,0,0,0,0,0,0,-1,1665,715,0,0
448,309,0,0,0,0,0,0,0,0,0,-1,1672,715,0,0
455,309,0,0,0,0,0,0,0,0,0,-1,1679,715,0,0
462,309,0,0,0,0,0,0,0,0,0,-1,1686,715,0,0
469,309,0,0,0,0,0,0,0,0,0,-1,1693,715,0,0
476,309,0,0,0,0,0,0,0,0,0,-1,1700,715,0,0
483,309,0,0,0,0,0,0,0,0,0,-1,1707,715,0,0
490,309,0,0,0,0,0,0,0,0,0,-1,1714,715,0,0
497,309,0,0,0,0,0,0,0,0,0,-1,1721,715,0,0
504,309,0,0,0,0,0,0,0,0,0,-1,1728,715,0,0
511,309,0,0,0,0,0,0,0,0,0,-1,1735,715,0,0
518,309,0,0,0,0,0,0,0,0,0,-1,1742,715,0,0
525,309,0,0,0,0,0,0,0,0,0,-1,1749,715,0,0
532,309,0,0,0,0,0,0,0,0,0,-1,1756,715,0,0
539,309,44.2073,2.66235,0,0,0,0,0,0,0,-1,1763,715,44.2073,-2.66238
546,309,44.4976,3.25531,0,0,0,0,0,0,0,-1,1770,715,44.4976,-3.25533
553,309,47.9611,4.06433,0,0,0,0,0,0,0,-1,1777,715,47.9611,-4.06434
560,309,47.9784,4.64801,0,0,0,0,0,0,0,-1,1784,715,47.9784,-4.64799
567,309,47.0073,5.43121,0,0,0,0,0,0,0,-1,1791,715,47.0073,-5.43121
574,309,45.8746,6.53271,0,0,0,0,0,0,0,-1,1798,715,45.8747,-6.53269
581,309,45.0629,7.73468,0,0,0,0,0,0,0,-1,1805,715,45.0629,-7.73471
588,309,26.2064,7.76422,0,0,0,0,0,0,0,-1,1812,715,26.2064,-7.7642
595,309,19.585,3.71558,0,0,0,0,0,0,0,-1,1819,715,19.5849,-3.71555
602,309,11.0811,3.47772,0,0,0,0,0,0,0,-1,1826,715,11.0811,-3.47772
609,309,36.0786,-8.29675,0,0,0,0,0,0,0,-1,1833,715,36.0786,8.29673
616,309,35.9996,-7.54211,0.00270979,-0.00146977,-0.000676975,0.0028167,-0.00157668,-0.156639,0.00256998,0.0251077,1840,715,35.9996,7.54212
623,309,35.9468,-6.79413,0.00207875,-0.00107035,-0.000425822,0.00213532,-0.00112691,-0.132061,0.00191321,0.0116457,1847,715,35.9468,6.79413
630,309,35.9066,-6.06238,0.00176481,-0.000714568,-0.000128648,0.00177147,-0.000721225,-0.0517021,0.00148112,0.0115557,1854,715,35.9066,6.06237
637,309,35.8564,-5.30371,0.00156879,-0.000275591,0.000186458,0.00158745,-0.000294252,0.0997502,0.0011688,0.0135523,1861,715,35.8565,5.30372
644,309,35.8008,-4.5271,0.00148473,0.000247004,0.00052158,0.00167521,5.6523e-05,0.350152,0.00109845,0.0142543,1868,715,35.8008,4.52712
651,309,35.7848,-3.76666,0.00148866,0.000823763,0.000868406,0.00208608,0.000226346,0.602591,0.00132175,0.0143118,1875,715,35.7848,3.76664
658,309,35.728,-2.98993,0.00156921,0.00148839,0.00120767,0.00273715,0.000320454,0.768673,0.00172788,0.0215106,1882,715,35.7281,2.98993
665,309,35.7474,-2.229,0.00176212,0.00222849,0.00157273,0.00358523,0.000405378,0.858997,0.00226714,0.0185786,1889,715,35.7475,2.22901
672,309,35.6863,-1.46234,0.00206291,0.00308696,0.00196974,0.00461014,0.000539738,0.912557,0.00291024,0.015488,1896,715,35.6863,1.46234
679,309,35.682,-0.627136,0.00244325,0.00409729,0.00241296,0.00582103,0.00071952,0.950495,0.00366447,0.0264431,1903,715,35.682,0.627126
686,309,35.6642,0.187744,0,0,0,0,0,0,0,-1,1910,715,35.6642,-0.187732
693,309,32.7026,1.51727,0,0,0,0,0,0,0,-1,1917,715,32.7026,-1.51727
700,309,23.0179,3.08337,0,0,0,0,0,0,0,-1,1924,715,23.018,-3.08336
707,309,15.6318,4.58655,0,0,0,0,0,0,0,-1,1931,715,15.6318,-4.58657
714,309,16.7573,6.68286,0,0,0,0,0,0,0,-1,1938,715,16.7574,-6.68284
721,309,16.8337,5.4458,0,0,0,0,0,0,0,-1,1945,715,16.8338,-5.44582
728,309,0,0,0,0,0,0,0,0,0,-1,1952,715,0,0
735,309,0,0,0,0,0,0,0,0,0,-1,1959,715,0,0
742,309,0,0,0,0,0,0,0,0,0,-1,1966,715,0,0
749,309,0,0,0,0,0,0,0,0,0,-1,1973,715,0,0
756,309,0,0,0,0,0,0,0,0,0,-1,1980,715,0,0
763,309,0,0,0,0,0,0,0,0,0,-1,1987,715,0,0
770,309,0,0,0,0,0,0,0,0,0,-1,1994,715,0,0
777,309,0,0,0,0,0,0,0,0,0,-1,2001,715,0,0
784,309,0,0,0,0,0,0,0,0,0,-1,2008,715,0,0
791,309,0,0,0,0,0,0,0,0,0,-1,2015,715,0,0
798,309,0,0,0,0,0,0,0,0,0,-1,2022,715,0,0
805,309,0,0,0,0,0,0,0,0,0,-1,2029,715,0,0
812,309,0,0,0,0,0,0,0,0,0,-1,2036,715,0,0
-700,302,0,0,0,0,0,0,0,0,0,-1,524,722,0,0
-693,302,0,0,0,0,0,0,0,0,0,-1,531,722,0,0
-686,302,0,0,0,0,0,0,0,0,0,-1,538,722,0,0
-679,302,0,0,0,0,0,0,0,0,0,-1,545,722,0,0
-672,302,0,0,0,0,0,0,0,0,0,-1,552,722,0,0
-665,302,0,0,0,0,0,0,0,0,0,-1,559,722,0,0
-658,302,0,0,0,0,0,0,0,0,0,-1,566,722,0,0
-651,302,0,0,0,0,0,0,0,0,0,-1,573,722,0,0
-644,302,0,0,0,0,0,0,0,0,0,-1,580,722,0,0
-637,302,0,0,0,0,0,0,0,0,0,-1,587,722,0,0
-630,302,0,0,0,0,0,0,0,0,0,-1,594,722,0,0
-623,302,0,0,0,0,0,0,0,0,0,-1,601,722,0,0
-616,302,0,0,0,0,0,0,0,0,0,-1,608,722,0,0
-609,302,-7.79266,-3.71649,0,0,0,0,0,0,0,-1,615,722,-7.79267,3.7165
-602,302,0.92865,-1.99158,0,0,0,0,0,0,0,-1,622,722,0.928637,1.99157
-595,302,-7.89941,2.13641,0,0,0,0,0,0,0,-1,629,722,-7.89939,-2.13639
-588,302,-7.10895,1.79163,0,0,0,0,0,0,0,-1,636,722,-7.10896,-1.79163
-581,302,-9.17566,1.09448,0,0,0,0,0,0,0,-1,643,722,-9.17569,-1.09445
-574,302,-11.5183,-0.344543,0,0,0,0,0,0,0,-1,650,722,-11.5183,0.344557
-567,302,-12.1534,-0.672241,0,0,0,0,0,0,0,-1,657,722,-12.1535,0.672246
-560,302,-23.4273,-1.3653,0,0,0,0,0,0,0,-1,664,722,-23.4273,1.36527
-553,302,-23.3224,-2.13428,0.000791995,0.00412976,-9.15583e-05,0.00413227,0.000789485,-1.54339,0.00253303,0.0328176,671,722,-23.3224,2.1343
-546,302,-23.3204,-2.95203,0.00114527,0.00283637,-0.000245737,0.00287135,0.00111029,-1.42938,0.00167191,0.0174817,678,722,-23.3204,2.952
-539,302,-23.3281,-3.65405,0.00123585,0.00180335,-0.00022747,0.00188327,0.00115593,-1.23292,0.00109665,0.0154549,685,722,-23.3281,3.65402
-532,302,-23.3568,-4.38867,0.00119918,0.00092461,-2.4694e-05,0.00120138,0.000922407,-0.088987,0.00072602,0.0147757,692,722,-23.3568,4.38865
-525,302,-23.3811,-5.18549,0.00105427,6.69188e-05,0.000271143,0.00112383,-2.641e-06,0.251127,0.000750103,0.0205221,699,722,-23.3811,5.1855
-518,302,-23.4196,-5.90515,0.000880596,-0.000647219,0.000646063,0.00111716,-0.000883788,0.351006,0.00115787,0.0218211,706,722,-23.4196,5.90517
-511,302,-23.4636,-6.617,0.00056786,-0.00132012,0.00110361,0.00107614,-0.0018284,0.431599,0.00169558,0.0109466,713,722,-23.4636,6.61701
-504,302,-23.4824,-7.35693,0.000168288,-0.00190312,0.00163852,0.001071,-0.00280583,0.503555,0.00231178,0.00962392,720,722,-23.4824,7.35693
-497,302,-23.5579,-8.08453,-0.000111782,-0.00235862,0.00211605,0.00116057,-0.00363097,0.541366,0.00288636,0.0153168,727,722,-23.5579,8.08455
-490,302,-23.6389,-8.81683,0,0,0,0,0,0,0,-1,734,722,-23.6389,8.81684
-483,302,-9.53412,-3.1673,0,0,0,0,0,0,0,-1,741,722,-9.53411,3.1673
-476,302,-4.29749,-0.203491,0,0,0,0,0,0,0,-1,748,722,-4.29751,0.203464
-469,302,-12.369,1.42859,0,0,0,0,0,0,0,-1,755,722,-12.3689,-1.42857
-462,302,-17.4766,0.310791,0,0,0,0,0,0,0,-1,762,722,-17.4766,-0.310788
-455,302,-36.7368,-2.97418,0,0,0,0,0,0,0,-1,769,722,-36.7368,2.97416
-448,302,-42.1174,-1.44232,0,0,0,0,0,0,0,-1,776,722,-42.1174,1.44229
-441,302,-42.171,-0.834961,0,0,0,0,0,0,0,-1,783,722,-42.171,0.834972
-434,302,-42.7626,-0.210876,0,0,0,0,0,0,0,-1,790,722,-42.7626,0.210888
-427,302,-27.1735,1.81506,0,0,0,0,0,0,0,-1,797,722,-27.1735,-1.81504
-420,302,0,0,0,0,0,0,0,0,0,-1,804,722,0,0
-413,302,0,0,0,0,0,0,0,0,0,-1,811,722,0,0
-406,302,0,0,0,0,0,0,0,0,0,-1,818,722,0,0
-399,302,0,0,0,0,0,0,0,0,0,-1,825,722,0,0
-392,302,0,0,0,0,0,0,0,0,0,-1,832,722,0,0
-385,302,0,0,0,0,0,0,0,0,0,-1,839,722,0,0
-378,302,0,0,0,0,0,0,0,0,0,-1,846,722,0,0
-371,302,0,0,0,0,0,0,0,0,0,-1,853,722,0,0
-364,302,0,0,0,0,0,0,0,0,0,-1,860,722,0,0
-357,302,0,0,0,0,0,0,0,0,0,-1,867,722,0,0
-350,302,0,0,0,0,0,0,0,0,0,-1,874,722,0,0
-343,302,0,0,0,0,0,0,0,0,0,-1,881,722,0,0
-336,302,0,0,0,0,0,0,0,0,0,-1,888,722,0,0
-329,302,0,0,0,0,0,0,0,0,0,-1,895,722,0,0
-322,302,0,0,0,0,0,0,0,0,0,-1,902,722,0,0
-315,302,0,0,0,0,0,0,0,0,0,-1,909,722,0,0
-308,302,0,0,0,0,0,0,0,0,0,-1,916,722,0,0
-301,302,0,0,0,0,0,0,0,0,0,-1,923,722,0,0
-294,302,0,0,0,0,0,0,0,0,0,-1,930,722,0,0
-287,302,0,0,0,0,0,0,0,0,0,-1,937,722,0,0
-280,302,0,0,0,0,0,0,0,0,0,-1,944,722,0,0
-273,302,0,0,0,0,0,0,0,0,0,-1,951,722,0,0
-266,302,0,0,0,0,0,0,0,0,0,-1,958,722,0,0
-259,302,0,0,0,0,0,0,0,0,0,-1,965,722,0,0
-252,302,0,0,0,0,0,0,0,0,0,-1,972,722,0,0
-245,302,0,0,0,0,0,0,0,0,0,-1,979,722,0,0
-238,302,0,0,0,0,0,0,0,0,0,-1,986,722,0,0
-231,302,0,0,0,0,0,0,0,0,0,-1,993,722,0,0
-224,302,0,0,0,0,0,0,0,0,0,-1,1000,722,0,0
-217,302,0,0,0,0,0,0,0,0,0,-1,1007,722,0,0
-210,302,0,0,0,0,0,0,0,0,0,-1,1014,722,0,0
-203,302,0,0,0,0,0,0,0,0,0,-1,1021,722,0,0
-196,302,0,0,0,0,0,0,0,0,0,-1,1028,722,0,0
-189,302,0,0,0,0,0,0,0,0,0,-1,1035,722,0,0
-182,302,0,0,0,0,0,0,0,0,0,-1,1042,722,0,0
-175,302,0,0,0,0,0,0,0,0,0,-1,1049,722,0,0
-168,302,0,0,0,0,0,0,0,0,0,-1,1056,722,0,0
-161,302,0,0,0,0,0,0,0,0,0,-1,1063,722,0,0
-154,302,0,0,0,0,0,0,0,0,0,-1,1070,722,0,0
-147,302,0,0,0,0,0,0,0,0,0,-1,1077,722,0,0
-140,302,0,0,0,0,0,0,0,0,0,-1,1084,722,0,0
-133,302,0,0,0,0,0,0,0,0,0,-1,1091,722,0,0
-126,302,0,0,0,0,0,0,0,0,0,-1,1098,722,0,0
-119,302,0,0,0,0,0,0,0,0,0,-1,1105,722,0,0
-112,302,0,0,0,0,0,0,0,0,0,-1,1112,722,0,0
-105,302,0,0,0,0,0,0,0,0,0,-1,1119,722,0,0
-98,302,0,0,0,0,0,0,0,0,0,-1,1126,722,0,0
-91,302,0,0,0,0,0,0,0,0,0,-1,1133,722,0,0
-84,302,0,0,0,0,0,0,0,0,0,-1,1140,722,0,0
-77,302,0,0,0,0,0,0,0,0,0,-1,1147,722,0,0
-70,302,0,0,0,0,0,0,0,0,0,-1,1154,722,0,0
-63,302,0,0,0,0,0,0,0,0,0,-1,1161,722,0,0
-56,302,0,0,0,0,0,0,0,0,0,-1,1168,722,0,0
-49,302,0,0,0,0,0,0,0,0,0,-1,1175,722,0,0
-42,302,0,0,0,0,0,0,0,0,0,-1,1182,722,0,0
-35,302,0,0,0,0,0,0,0,0,0,-1,1189,722,0,0
-28,302,0,0,0,0,0,0,0,0,0,-1,1196,722,0,0
-21,302,0,0,0,0,0,0,0,0,0,-1,1203,722,0,0
-14,302,0,0,0,0,0,0,0,0,0,-1,1210,722,0,0
-7,302,0,0,0,0,0,0,0,0,0,-1,1217,722,0,0
0,302,0,0,0,0,0,0,0,0,0,-1,1224,722,0,0
7,302,0,0,0,0,0,0,0,0,0,-1,1231,722,0,0
14,302,0,0,0,0,0,0,0,0,0,-1,1238,722,0,0
21,302,0,0,0,0,0,0,0,0,0,-1,1245,722,0,0
28,302,0,0,0,0,0,0,0,0,0,-1,1252,722,0,0
35,302,0,0,0,0,0,0,0,0,0,-1,1259,722,0,0
42,302,0,0,0,0,0,0,0,0,0,-1,1266,722,0,0
49,302,0,0,0,0,0,0,0,0,0,-1,1273,722,0,0
56,302,0,0,0,0,0,0,0,0,0,-1,1280,722,0,0
63,302,0,0,0,0,0,0,0,0,0,-1,1287,722,0,0
70,302,0,0,0,0,0,0,0,0,0,-1,1294,722,0,0
77,302,0,0,0,0,0,0,0,0,0,-1,1301,722,0,0
84,302,0,0,0,0,0,0,0,0,0,-1,1308,722,0,0
91,302,0,0,0,0,0,0,0,0,0,-1,1315,722,0,0
98,302,0,0,0,0,0,0,0,0,0,-1,1322,722,0,0
105,302,0,0,0,0,0,0,0,0,0,-1,1329,722,0,0
112,302,0,0,0,0,0,0,0,0,0,-1,1336,722,0,0
119,302,0,0,0,0,0,0,0,0,0,-1,1343,722,0,0
126,302,0,0,0,0,0,0,0,0,0,-1,1350,722,0,0
133,302,0,0,0,0,0,0,0,0,0,-1,1357,722,0,0
140,302,0,0,0,0,0,0,0,0,0,-1,1364,722,0,0
147,302,0,0,0,0,0,0,0,0,0,-1,1371,722,0,0
154,302,0,0,0,0,0,0,0,0,0,-1,1378,722,0,0
161,302,0,0,0,0,0,0,0,0,0,-1,1385,722,0,0
168,302,0,0,0,0,0,0,0,0,0,-1,1392,722,0,0
175,302,0,0,0,0,0,0,0,0,0,-1,1399,722,0,0
182,302,0,0,0,0,0,0,0,0,0,-1,1406,722,0,0
189,302,0,0,0,0,0,0,0,0,0,-1,1413,722,0,0
196,302,0,0,0,0,0,0,0,0,0,-1,1420,722,0,0
203,302,0,0,0,0,0,0,0,0,0,-1,1427,722,0,0
210,302,0,0,0,0,0,0,0,0,0,-1,1434,722,0,0
217,302,0,0,0,0,0,0,0,0,0,-1,1441,722,0,0
224,302,0,0,0,0,0,0,0,0,0,-1,1448,722,0,0
231,302,0,0,0,0,0,0,0,0,0,-1,1455,722,0,0
238,302,0,0,0,0,0,0,0,0,0,-1,1462,722,0,0
245,302,0,0,0,0,0,0,0,0,0,-1,1469,722,0,0
252,302,0,0,0,0,0,0,0,0,0,-1,1476,722,0,0
259,302,0,0,0,0,0,0,0,0,0,-1,1483,722,0,0
266,302,0,0,0,0,0,0,0,0,0,-1,1490,722,0,0
273,302,0,0,0,0,0,0,0,0,0,-1,1497,722,0,0
280,302,0,0,0,0,0,0,0,0,0,-1,1504,722,0,0
287,302,0,0,0,0,0,0,0,0,0,-1,1511,722,0,0
294,302,0,0,0,0,0,0,0,0,0,-1,1518,722,0,0
301,302,0,0,0,0,0,0,0,0,0,-1,1525,722,0,0
308,302,0,0,0,0,0,0,0,0,0,-1,1532,722,0,0
315,302,0,0,0,0,0,0,0,0,0,-1,1539,722,0,0
322,302,0,0,0,0,0,0,0,0,0,-1,1546,722,0,0
329,302,0,0,0,0,0,0,0,0,0,-1,1553,722,0,0
336,302,0,0,0,0,0,0,0,0,0,-1,1560,722,0,0
343,302,0,0,0,0,0,0,0,0,0,-1,1567,722,0,0
350,302,0,0,0,0,0,0,0,0,0,-1,1574,722,0,0
357,302,0,0,0,0,0,0,0,0,0,-1,1581,722,0,0
364,302,0,0,0,0,0,0,0,0,0,-1,1588,722,0,0
371,302,0,0,0,0,0,0,0,0,0,-1,1595,722,0,0
378,302,0,0,0,0,0,0,0,0,0,-1,1602,722,0,0
385,302,0,0,0,0,0,0,0,0,0,-1,1609,722,0,0
392,302,0,0,0,0,0,0,0,0,0,-1,1616,722,0,0
399,302,0,0,0,0,0,0,0,0,0,-1,1623,722,0,0
406,302,0,0,0,0,0,0,0,0,0,-1,1630,722,0,0
413,302,0,0,0,0,0,0,0,0,0,-1,1637,722,0,0
420,302,0,0,0,0,0,0,0,0,0,-1,1644,722,0,0
427,302,0,0,0,0,0,0,0,0,0,-1,1651,722,0,0
434,302,0,0,0,0,0,0,0,0,0,-1,1658,722,0,0
441,302,0,0,0,0,0,0,0,0,0,-1,1665,722,0,0
448,302,0,0,0,0,0,0,0,0,0,-1,1672,722,0,0
455,302,0,0,0,0,0,0,0,0,0,-1,1679,722,0,0
462,302,0,0,0,0,0,0,0,0,0,-1,1686,722,0,0
469,302,0,0,0,0,0,0,0,0,0,-1,1693,722,0,0
476,302,0,0,0,0,0,0,0,0,0,-1,1700,722,0,0
483,302,0,0,0,0,0,0,0,0,0,-1,1707,722,0,0
490,302,0,0,0,0,0,0,0,0,0,-1,1714,722,0,0
497,302,0,0,0,0,0,0,0,0,0,-1,1721,722,0,0
504,302,0,0,0,0,0,0,0,0,0,-1,1728,722,0,0
511,302,0,0,0,0,0,0,0,0,0,-1,1735,722,0,0
518,302,0,0,0,0,0,0,0,0,0,-1,1742,722,0,0
525,302,0,0,0,0,0,0,0,0,0,-1,1749,722,0,0
532,302,0,0,0,0,0,0,0,0,0,-1,1756,722,0,0
539,302,0,0,0,0,0,0,0,0,0,-1,1763,722,0,0
546,302,48.9873,1.50562,0,0,0,0,0,0,0,-1,1770,722,48.9873,-1.50562
553,302,56.7844,3.46533,0,0,0,0,0,0,0,-1,1777,722,56.7844,-3.4653
560,302,56.7115,3.84808,0,0,0,0,0,0,0,-1,1784,722,56.7116,-3.84806
567,302,55.9475,4.24542,0,0,0,0,0,0,0,-1,1791,722,55.9475,-4.24542
574,302,45.9537,6.00867,0,0,0,0,0,0,0,-1,1798,722,45.9537,-6.00864
581,302,45.137,7.38043,0,0,0,0,0,0,0,-1,1805,722,45.1369,-7.38044
588,302,26.9731,7.19983,0,0,0,0,0,0,0,-1,1812,722,26.9732,-7.19981
595,302,27.3826,8.13104,0,0,0,0,0,0,0,-1,1819,722,27.3825,-8.13102
602,302,14.7349,5.21246,0,0,0,0,0,0,0,-1,1826,722,14.7349,-5.21247
609,302,31.1039,-6.34253,0,0,0,0,0,0,0,-1,1833,722,31.1039,6.34254
616,302,36.7499,-7.49243,0,0,0,0,0,0,0,-1,1840,722,36.7499,7.49242
623,302,36.7018,-6.74561,0.0022478,-0.00133109,-0.000386291,0.00228902,-0.00137231,-0.106305,0.00213584,0.0150544,1847,722,36.7018,6.74558
630,302,36.6401,-6.0152,0.00175758,-0.00100921,-0.000165042,0.00176739,-0.00101902,-0.0593702,0.00162796,0.0122318,1854,722,36.6401,6.01519
637,302,36.5897,-5.27362,0.0014326,-0.000593521,8.57927e-05,0.00143622,-0.000597147,0.0422426,0.00120683,0.0156224,1861,722,36.5898,5.27365
644,302,36.5671,-4.50281,0.00126273,-8.61615e-05,0.000352685,0.00134938,-0.00017281,0.24091,0.000962375,0.0167014,1868,722,36.5671,4.50278
651,302,36.5532,-3.71893,0.00120269,0.000482981,0.000644004,0.00158056,0.000105113,0.530618,0.00102048,0.015434,1875,722,36.5532,3.71895
658,302,36.5486,-2.96912,0.0012368,0.00113735,0.00092341,0.00211182,0.000262327,0.758501,0.0013291,0.0159894,1882,722,36.5486,2.96909
665,302,36.5045,-2.21631,0.00137673,0.00185365,0.00121519,0.00285356,0.000376828,0.882284,0.00179003,0.0156892,1889,722,36.5045,2.2163
672,302,36.4399,-1.4527,0.00162263,0.00266328,0.00155451,0.00378223,0.000503675,0.946897,0.00237149,0.0127129,1896,722,36.4399,1.45269
679,302,36.3949,-0.662842,0.00195188,0.00360058,0.00191792,0.00486381,0.000688653,0.988368,0.00303911,0.0101413,1903,722,36.3949,0.662859
686,302,36.3965,0.1427,0.00242037,0.00464233,0.00233365,0.00611596,0.00094674,1.00756,0.00380123,0.023293,1910,722,36.3965,-0.142709
693,302,36.3635,0.94574,0,0,0,0,0,0,0,-1,1917,722,36.3635,-0.94575
700,302,25.4069,1.97308,0,0,0,0,0,0,0,-1,1924,722,25.4068,-1.97311
707,302,16.7321,4.76685,0,0,0,0,0,0,0,-1,1931,722,16.7321,-4.76687
714,302,17.2,5.77594,0,0,0,0,0,0,0,-1,1938,722,17.2,-5.77595
721,302,17.7914,6.60394,0,0,0,0,0,0,0,-1,1945,722,17.7914,-6.60395
728,302,17.2798,4.81702,0,0,0,0,0,0,0,-1,1952,722,17.2798,-4.81703
735,302,0,0,0,0,0,0,0,0,0,-1,1959,722,0,0
742,302,0,0,0,0,0,0,0,0,0,-1,1966,722,0,0
749,302,0,0,0,0,0,0,0,0,0,-1,1973,722,0,0
756,302,0,0,0,0,0,0,0,0,0,-1,1980,722,0,0
763,302,0,0,0,0,0,0,0,0,0,-1,1987,722,0,0
770,302,0,0,0,0,0,0,0,0,0,-1,1994,722,0,0
777,302,0,0,0,0,0,0,0,0,0,-1,2001,722,0,0
784,302,0,0,0,0,0,0,0,0,0,-1,2008,722,0,0
791,302,0,0,0,0,0,0,0,0,0,-1,2015,722,0,0
798,302,0,0,0,0,0,0,0,0,0,-1,2022,722,0,0
805,302,0,0,0,0,0,0,0,0,0,-1,2029,722,0,0
812,302,0,0,0,0,0,0,0,0,0,-1,2036,722,0,0
-700,295,0,0,0,0,0,0,0,0,0,-1,524,729,0,0
-693,295,0,0,0,0,0,0,0,0,0,-1,531,729,0,0
-686,295,0,0,0,0,0,0,0,0,0,-1,538,729,0,0
-679,295,0,0,0,0,0,0,0,0,0,-1,545,729,0,0
-672,295,0,0,0,0,0,0,0,0,0,-1,552,729,0,0
-665,295,0,0,0,0,0,0,0,0,0,-1,559,729,0,0
-658,295,0,0,0,0,0,0,0,0,0,-1,566,729,0,0
-651,295,0,0,0,0,0,0,0,0,0,-1,573,729,0,0
-644,295,0,0,0,0,0,0,0,0,0,-1,580,729,0,0
-637,295,0,0,0,0,0,0,0,0,0,-1,587,729,0,0
-630,295,0,0,0,0,0,0,0,0,0,-1,594,729,0,0
-623,295,0,0,0,0,0,0,0,0,0,-1,601,729,0,0
-616,295,-13.4911,1.31738,0,0,0,0,0,0,0,-1,608,729,-13.4911,-1.3174
-609,295,-10.2864,0.832031,0,0,0,0,0,0,0,-1,615,729,-10.2863,-0.832034
-602,295,-8.19006,3.01587,0,0,0,0,0,0,0,-1,622,729,-8.19005,-3.01588
-595,295,-0.615479,-1.95447,0,0,0,0,0,0,0,-1,629,729,-0.615481,1.95445
-588,295,-7.98999,1.56903,0,0,0,0,0,0,0,-1,636,729,-7.98997,-1.56905
-581,295,-12.0404,0.150574,0,0,0,0,0,0,0,-1,643,729,-12.0404,-0.150604
-574,295,-12.1605,-0.0739746,0,0,0,0,0,0,0,-1,650,729,-12.1605,0.0739856
-567,295,-23.4872,-0.629456,0,0,0,0,0,0,0,-1,657,729,-23.4872,0.629445
-560,295,-23.9227,-1.41162,0.00053827,0.00463268,0.000756269,0.0047679,0.000403047,1.39386,0.00305313,0.0366796,664,729,-23.9227,1.41161
-553,295,-23.9875,-2.19647,0.00080557,0.00353782,0.000267354,0.00356374,0.000779654,1.47417,0.00216329,0.0207578,671,729,-23.9876,2.19644
-546,295,-24.0875,-2.94171,0.000879584,0.00231783,0.000133899,0.00233019,0.000867224,1.47875,0.00135991,0.0217413,678,729,-24.0875,2.94172
-539,295,-24.0858,-3.61981,0.000724487,0.001292,0.000126117,0.00131877,0.000697722,1.36168,0.000761818,0.0197949,685,729,-24.0858,3.61981
-532,295,-24.122,-4.32715,0.000658232,0.000412803,0.000345632,0.000902288,0.000168748,0.614818,0.000553911,0.0168756,692,729,-24.122,4.32717
-525,295,-24.1555,-5.10522,0.000561516,-0.000440699,0.000649366,0.000880642,-0.000759826,0.45678,0.000947981,0.0154656,699,729,-24.1555,5.10521
-518,295,-24.1744,-5.84119,0.000399268,-0.00110119,0.000994959,0.000895147,-0.00159707,0.46236,0.00145778,0.011379,706,729,-24.1744,5.84117
-511,295,-24.2039,-6.56146,2.38162e-05,-0.00168929,0.00133611,0.000754358,-0.00241983,0.500358,0.00191486,0.00956949,713,729,-24.2039,6.56147
-504,295,-24.2208,-7.28546,-0.000458357,-0.00210102,0.00166272,0.000574826,-0.00313421,0.555992,0.00230509,0.0109207,720,729,-24.2208,7.28548
-497,295,-24.3122,-7.95343,-0.000872282,-0.00227351,0.0017405,0.000303326,-0.00344912,0.594053,0.0024069,0.0231755,727,729,-24.3122,7.95342
-490,295,-24.4185,-8.60107,0,0,0,0,0,0,0,-1,734,729,-24.4185,8.60106
-483,295,-6.84503,-0.454651,0,0,0,0,0,0,0,-1,741,729,-6.84505,0.454639
-476,295,-13.1738,-0.836243,0,0,0,0,0,0,0,-1,748,729,-13.1738,0.836223
-469,295,-26.5608,-0.466187,0,0,0,0,0,0,0,-1,755,729,-26.5608,0.466162
-462,295,-29.7701,-0.792664,0,0,0,0,0,0,0,-1,762,729,-29.7701,0.792642
-455,295,-45.11,-2.79272,0,0,0,0,0,0,0,-1,769,729,-45.11,2.79272
-448,295,-44.4651,-2.22919,0,0,0,0,0,0,0,-1,776,729,-44.4652,2.22919
-441,295,-44.3488,-1.47363,0,0,0,0,0,0,0,-1,783,729,-44.3488,1.47365
-434,295,-43.5654,0.210632,0,0,0,0,0,0,0,-1,790,729,-43.5654,-0.210646
-427,295,0,0,0,0,0,0,0,0,0,-1,797,729,0,0
-420,295,0,0,0,0,0,0,0,0,0,-1,804,729,0,0
-413,295,0,0,0,0,0,0,0,0,0,-1,811,729,0,0
-406,295,0,0,0,0,0,0,0,0,0,-1,818,729,0,0
-399,295,0,0,0,0,0,0,0,0,0,-1,825,729,0,0
-392,295,0,0,0,0,0,0,0,0,0,-1,832,729,0,0
-385,295,0,0,0,0,0,0,0,0,0,-1,839,729,0,0
-378,295,0,0,0,0,0,0,0,0,0,-1,846,729,0,0
-371,295,0,0,0,0,0,0,0,0,0,-1,853,729,0,0
-364,295,0,0,0,0,0,0,0,0,0,-1,860,729,0,0
-357,295,0,0,0,0,0,0,0,0,0,-1,867,729,0,0
-350,295,0,0,0,0,0,0,0,0,0,-1,874,729,0,0
-343,295,0,0,0,0,0,0,0,0,0,-1,881,729,0,0
-336,295,0,0,0,0,0,0,0,0,0,-1,888,729,0,0
-329,295,0,0,0,0,0,0,0,0,0,-1,895,729,0,0
-322,295,0,0,0,0,0,0,0,0,0,-1,902,729,0,0
-315,295,0,0,0,0,0,0,0,0,0,-1,909,729,0,0
-308,295,0,0,0,0,0,0,0,0,0,-1,916,729,0,0
-301,295,0,0,0,0,0,0,0,0,0,-1,923,729,0,0
-294,295,0,0,0,0,0,0,0,0,0,-1,930,729,0,0
-287,295,0,0,0,0,0,0,0,0,0,-1,937,729,0,0
-280,295,0,0,0,0,0,0,0,0,0,-1,944,729,0,0
-273,295,0,0,0,0,0,0,0,0,0,-1,951,729,0,0
-266,295,0,0,0,0,0,0,0,0,0,-1,958,729,0,0
-259,295,0,0,0,0,0,0,0,0,0,-1,965,729,0,0
-252,295,0,0,0,0,0,0,0,0,0,-1,972,729,0,0
-245,295,0,0,0,0,0,0,0,0,0,-1,979,729,0,0
-238,295,0,0,0,0,0,0,0,0,0,-1,986,729,0,0
-231,295,0,0,0,0,0,0,0,0,0,-1,993,729,0,0
-224,295,0,0,0,0,0,0,0,0,0,-1,1000,729,0,0
-217,295,0,0,0,0,0,0,0,0,0,-1,1007,729,0,0
-210,295,0,0,0,0,0,0,0,0,0,-1,1014,729,0,0
-203,295,0,0,0,0,0,0,0,0,0,-1,1021,729,0,0
-196,295,0,0,0,0,0,0,0,0,0,-1,1028,729,0,0
-189,295,0,0,0,0,0,0,0,0,0,-1,1035,729,0,0
-182,295,0,0,0,0,0,0,0,0,0,-1,1042,729,0,0
-175,295,0,0,0,0,0,0,0,0,0,-1,1049,729,0,0
-168,295,0,0,0,0,0,0,0,0,0,-1,1056,729,0,0
-161,295,0,0,0,0,0,0,0,0,0,-1,1063,729,0,0
-154,295,0,0,0,0,0,0,0,0,0,-1,1070,729,0,0
-147,295,0,0,0,0,0,0,0,0,0,-1,1077,729,0,0
-140,295,0,0,0,0,0,0,0,0,0,-1,1084,729,0,0
-133,295,0,0,0,0,0,0,0,0,0,-1,1091,729,0,0
-126,295,0,0,0,0,0,0,0,0,0,-1,1098,729,0,0
-119,295,0,0,0,0,0,0,0,0,0,-1,1105,729,0,0
-112,295,0,0,0,0,0,0,0,0,0,-1,1112,729,0,0
-105,295,0,0,0,0,0,0,0,0,0,-1,1119,729,0,0
-98,295,0,0,0,0,0,0,0,0,0,-1,1126,729,0,0
-91,295,0,0,0,0,0,0,0,0,0,-1,1133,729,0,0
-84,295,0,0,0,0,0,0,0,0,0,-1,1140,729,0,0
-77,295,0,0,0,0,0,0,0,0,0,-1,1147,729,0,0
-70,295,0,0,0,0,0,0,0,0,0,-1,1154,729,0,0
-63,295,0,0,0,0,0,0,0,0,0,-1,1161,729,0,0
-56,295,0,0,0,0,0,0,0,0,0,-1,1168,729,0,0
-49,295,0,0,0,0,0,0,0,0,0,-1,1175,729,0,0
-42,295,0,0,0,0,0,0,0,0,0,-1,1182,729,0,0
-35,295,0,0,0,0,0,0,0,0,0,-1,1189,729,0,0
-28,295,0,0,0,0,0,0,0,0,0,-1,1196,729,0,0
-21,295,0,0,0,0,0,0,0,0,0,-1,1203,729,0,0
-14,295,0,0,0,0,0,0,0,0,0,-1,1210,729,0,0
-7,295,0,0,0,0,0,0,0,0,0,-1,1217,729,0,0
0,295,0,0,0,0,0,0,0,0,0,-1,1224,729,0,0
7,295,0,0,0,0,0,0,0,0,0,-1,1231,729,0,0
14,295,0,0,0,0,0,0,0,0,0,-1,1238,729,0,0
21,295,0,0,0,0,0,0,0,0,0,-1,1245,729,0,0
28,295,0,0,0,0,0,0,0,0,0,-1,1252,729,0,0
35,295,0,0,0,0,0,0,0,0,0,-1,1259,729,0,0
42,295,0,0,0,0,0,0,0,0,0,-1,1266,729,0,0
49,295,0,0,0,0,0,0,0,0,0,-1,1273,729,0,0
56,295,0,0,0,0,0,0,0,0,0,-1,1280,729,0,0
63,295,0,0,0,0,0,0,0,0,0,-1,1287,729,0,0
70,295,0,0,0,0,0,0,0,0,0,-1,1294,729,0,0
77,295,0,0,0,0,0,0,0,0,0,-1,1301,729,0,0
84,295,0,0,0,0,0,0,0,0,0,-1,1308,729,0,0
91,295,0,0,0,0,0,0,0,0,0,-1,1315,729,0,0
98,295,0,0,0,0,0,0,0,0,0,-1,1322,729,0,0
105,295,0,0,0,0,0,0,0,0,0,-1,1329,729,0,0
112,295,0,0,0,0,0,0,0,0,0,-1,1336,729,0,0
119,295,0,0,0,0,0,0,0,0,0,-1,1343,729,0,0
126,295,0,0,0,0,0,0,0,0,0,-1,1350,729,0,0
133,295,0,0,0,0,0,0,0,0,0,-1,1357,729,0,0
140,295,0,0,0,0,0,0,0,0,0,-1,1364,729,0,0
147,295,0,0,0,0,0,0,0,0,0,-1,1371,729,0,0
154,295,0,0,0,0,0,0,0,0,0,-1,1378,729,0,0
161,295,0,0,0,0,0,0,0,0,0,-1,1385,729,0,0
168,295,0,0,0,0,0,0,0,0,0,-1,1392,729,0,0
175,295,0,0,0,0,0,0,0,0,0,-1,1399,729,0,0
182,295,0,0,0,0,0,0,0,0,0,-1,1406,729,0,0
189,295,0,0,0,0,0,0,0,0,0,-1,1413,729,0,0
196,295,0,0,0,0,0,0,0,0,0,-1,1420,729,0,0
203,295,0,0,0,0,0,0,0,0,0,-1,1427,729,0,0
210,295,0,0,0,0,0,0,0,0,0,-1,1434,729,0,0
217,295,0,0,0,0,0,0,0,0,0,-1,1441,729,0,0
224,295,0,0,0,0,0,0,0,0,0,-1,1448,729,0,0
231,295,0,0,0,0,0,0,0,0,0,-1,1455,729,0,0
238,295,0,0,0,0,0,0,0,0,0,-1,1462,729,0,0
245,295,0,0,0,0,0,0,0,0,0,-1,1469,729,0,0
252,295,0,0,0,0,0,0,0,0,0,-1,1476,729,0,0
259,295,0,0,0,0,0,0,0,0,0,-1,1483,729,0,0
266,295,0,0,0,0,0,0,0,0,0,-1,1490,729,0,0
273,295,0,0,0,0,0,0,0,0,0,-1,1497,729,0,0
280,295,0,0,0,0,0,0,0,0,0,-1,1504,729,0,0
287,295,0,0,0,0,0,0,0,0,0,-1,1511,729,0,0
294,295,0,0,0,0,0,0,0,0,0,-1,1518,729,0,0
301,295,0,0,0,0,0,0,0,0,0,-1,1525,729,0,0
308,295,0,0,0,0,0,0,0,0,0,-1,1532,729,0,0
315,295,0,0,0,0,0,0,0,0,0,-1,1539,729,0,0
322,295,0,0,0,0,0,0,0,0,0,-1,1546,729,0,0
329,295,0,0,0,0,0,0,0,0,0,-1,1553,729,0,0
336,295,0,0,0,0,0,0,0,0,0,-1,1560,729,0,0
343,295,0,0,0,0,0,0,0,0,0,-1,1567,729,0,0
350,295,0,0,0,0,0,0,0,0,0,-1,1574,729,0,0
357,295,0,0,0,0,0,0,0,0,0,-1,1581,729,0,0
364,295,0,0,0,0,0,0,0,0,0,-1,1588,729,0,0
371,295,0,0,0,0,0,0,0,0,0,-1,1595,729,0,0
378,295,0,0,0,0,0,0,0,0,0,-1,1602,729,0,0
385,295,0,0,0,0,0,0,0,0,0,-1,1609,729,0,0
392,295,0,0,0,0,0,0,0,0,0,-1,1616,729,0,0
399,295,0,0,0,0,0,0,0,0,0,-1,1623,729,0,0
406,295,0,0,0,0,0,0,0,0,0,-1,1630,729,0,0
413,295,0,0,0,0,0,0,0,0,0,-1,1637,729,0,0
420,295,0,0,0,0,0,0,0,0,0,-1,1644,729,0,0
427,295,0,0,0,0,0,0,0,0,0,-1,1651,729,0,0
434,295,0,0,0,0,0,0,0,0,0,-1,1658,729,0,0
441,295,0,0,0,0,0,0,0,0,0,-1,1665,729,0,0
448,295,0,0,0,0,0,0,0,0,0,-1,1672,729,0,0
455,295,0,0,0,0,0,0,0,0,0,-1,1679,729,0,0
462,295,0,0,0,0,0,0,0,0,0,-1,1686,729,0,0
469,295,0,0,0,0,0,0,0,0,0,-1,1693,729,0,0
476,295,0,0,0,0,0,0,0,0,0,-1,1700,729,0,0
483,295,0,0,0,0,0,0,0,0,0,-1,1707,729,0,0
490,295,0,0,0,0,0,0,0,0,0,-1,1714,729,0,0
497,295,0,0,0,0,0,0,0,0,0,-1,1721,729,0,0
504,295,0,0,0,0,0,0,0,0,0,-1,1728,729,0,0
511,295,0,0,0,0,0,0,0,0,0,-1,1735,729,0,0
518,295,0,0,0,0,0,0,0,0,0,-1,1742,729,0,0
525,295,0,0,0,0,0,0,0,0,0,-1,1749,729,0,0
532,295,0,0,0,0,0,0,0,0,0,-1,1756,729,0,0
539,295,0,0,0,0,0,0,0,0,0,-1,1763,729,0,0
546,295,57.4674,2.36884,0,0,0,0,0,0,0,-1,1770,729,57.4674,-2.36883
553,295,57.1969,2.73846,0,0,0,0,0,0,0,-1,1777,729,57.197,-2.73843
560,295,57.0291,3.27454,0,0,0,0,0,0,0,-1,1784,729,57.029,-3.27454
567,295,56.6243,3.88239,0,0,0,0,0,0,0,-1,1791,729,56.6242,-3.8824
574,295,56.5275,4.755,0,0,0,0,0,0,0,-1,1798,729,56.5274,-4.75501
581,295,37.8191,2.19592,0,0,0,0,0,0,0,-1,1805,729,37.8191,-2.19594
588,295,39.0542,2.45679,0,0,0,0,0,0,0,-1,1812,729,39.0542,-2.45676
595,295,27.2102,6.99121,0,0,0,0,0,0,0,-1,1819,729,27.2103,-6.99121
602,295,26.9065,7.82141,0,0,0,0,0,0,0,-1,1826,729,26.9064,-7.8214
609,295,11.7737,2.19989,0,0,0,0,0,0,0,-1,1833,729,11.7736,-2.19988
616,295,37.4436,-7.41071,0,0,0,0,0,0,0,-1,1840,729,37.4436,7.41069
623,295,37.4146,-6.70813,0.00304323,-0.00110287,0.000741581,0.00317188,-0.00123152,0.17177,0.00262329,0.0352219,1847,729,37.4146,6.70815
630,295,37.3918,-5.97028,0.00222296,-0.000906485,0.00054115,0.00231389,-0.000997419,0.166484,0.0019615,0.013679,1854,729,37.3918,5.97026
637,295,37.3593,-5.21271,0.00166292,-0.000646187,0.000538539,0.00178235,-0.000765611,0.218224,0.0015096,0.0149958,1861,729,37.3593,5.21268
644,295,37.3597,-4.44482,0.00133094,-0.000187126,0.000562811,0.00151683,-0.000373021,0.319015,0.0011558,0.0142742,1868,729,37.3597,4.44481
651,295,37.3281,-3.68396,0.00122454,0.000315377,0.000651705,0.00156454,-2.46256e-05,0.480866,0.00105133,0.0147124,1875,729,37.3281,3.68394
658,295,37.2767,-2.92053,0.00124352,0.000882809,0.000810553,0.00189354,0.000232789,0.675927,0.00119236,0.0138377,1882,729,37.2767,2.9205
665,295,37.238,-2.17395,0.00130457,0.00154015,0.00102019,0.00244933,0.000395392,0.842872,0.00151834,0.012299,1889,729,37.238,2.17395
672,295,37.1876,-1.43042,0.00143031,0.00226486,0.00127828,0.00319225,0.000502927,0.943164,0.00198191,0.0137926,1896,729,37.1877,1.43042
679,295,37.1375,-0.648132,0.00160114,0.00311023,0.00154899,0.00407868,0.00063269,1.01204,0.00253468,0.0106961,1903,729,37.1374,0.648119
686,295,37.1558,0.107056,0.00183364,0.00404123,0.00184746,0.00508952,0.000785356,1.05468,0.00316389,0.0118284,1910,729,37.1557,-0.107081
693,295,37.1892,0.855225,0,0,0,0,0,0,0,-1,1917,729,37.1892,-0.855221
700,295,31.3757,2.06982,0,0,0,0,0,0,0,-1,1924,729,31.3758,-2.0698
707,295,22.2661,3.05206,0,0,0,0,0,0,0,-1,1931,729,22.2662,-3.05207
714,295,17.4906,4.63068,0,0,0,0,0,0,0,-1,1938,729,17.4906,-4.63066
721,295,18.3792,5.32281,0,0,0,0,0,0,0,-1,1945,729,18.3791,-5.32283
728,295,17.379,3.74866,0,0,0,0,0,0,0,-1,1952,729,17.379,-3.74863
735,295,0,0,0,0,0,0,0,0,0,-1,1959,729,0,0
742,295,0,0,0,0,0,0,0,0,0,-1,1966,729,0,0
749,295,0,0,0,0,0,0,0,0,0,-1,1973,729,0,0
756,295,0,0,0,0,0,0,0,0,0,-1,1980,729,0,0
763,295,0,0,0,0,0,0,0,0,0,-1,1987,729,0,0
770,295,0,0,0,0,0,0,0,0,0,-1,1994,729,0,0
777,295,0,0,0,0,0,0,0,0,0,-1,2001,729,0,0
784,295,0,0,0,0,0,0,0,0,0,-1,2008,729,0,0
791,295,0,0,0,0,0,0,0,0,0,-1,2015,729,0,0
798,295,0,0,0,0,0,0,0,0,0,-1,2022,729,0,0
805,295,0,0,0,0,0,0,0,0,0,-1,2029,729,0,0
812,295,0,0,0,0,0,0,0,0,0,-1,2036,729,0,0
-700,288,0,0,0,0,0,0,0,0,0,-1,524,736,0,0
-693,288,0,0,0,0,0,0,0,0,0,-1,531,736,0,0
-686,288,0,0,0,0,0,0,0,0,0,-1,538,736,0,0
-679,288,0,0,0,0,0,0,0,0,0,-1,545,736,0,0
-672,288,0,0,0,0,0,0,0,0,0,-1,552,736,0,0
-665,288,0,0,0,0,0,0,0,0,0,-1,559,736,0,0
-658,288,0,0,0,0,0,0,0,0,0,-1,566,736,0,0
-651,288,0,0,0,0,0,0,0,0,0,-1,573,736,0,0
-644,288,0,0,0,0,0,0,0,0,0,-1,580,736,0,0
-637,288,0,0,0,0,0,0,0,0,0,-1,587,736,0,0
-630,288,0,0,0,0,0,0,0,0,0,-1,594,736,0,0
-623,288,0,0,0,0,0,0,0,0,0,-1,601,736,0,0
-616,288,-11.7584,2.4425,0,0,0,0,0,0,0,-1,608,736,-11.7584,-2.44251
-609,288,-10.3007,2.32178,0,0,0,0,0,0,0,-1,615,736,-10.3007,-2.32178
-602,288,-10.1458,-1.85559,0,0,0,0,0,0,0,-1,622,736,-10.1458,1.85556
-595,288,-7.63208,1.81769,0,0,0,0,0,0,0,-1,629,736,-7.63205,-1.81766
-588,288,-8.19269,1.50598,0,0,0,0,0,0,0,-1,636,736,-8.19268,-1.50601
-581,288,-13.1915,0.659241,0,0,0,0,0,0,0,-1,643,736,-13.1915,-0.659228
-574,288,-24.2267,0.0981445,0,0,0,0,0,0,0,-1,650,736,-24.2267,-0.0981358
-567,288,-24.4111,-0.666504,0.00152342,0.00527664,0.00111158,0.00558115,0.00121891,1.30341,0.00338835,0.0390666,657,736,-24.4111,0.66651
-560,288,-24.7064,-1.46606,0.00100193,0.00396332,0.000636027,0.00409415,0.000871112,1.36794,0.00249037,0.0182364,664,736,-24.7064,1.46607
-553,288,-24.7324,-2.14233,0.000809674,0.00287612,0.000390925,0.00294761,0.000738193,1.38994,0.00177105,0.0196168,671,736,-24.7324,2.14234
-546,288,-24.7848,-2.87494,0.000645329,0.00170348,0.000416433,0.00184771,0.000501101,1.23739,0.00110338,0.0209712,678,736,-24.7848,2.87495
-539,288,-24.8042,-3.57916,0.000280375,0.000669021,0.000533734,0.00104271,-9.33097e-05,0.95998,0.000728236,0.0184699,685,736,-24.8042,3.57919
-532,288,-24.8087,-4.31067,0.000195317,-0.000274796,0.000846175,0.000838477,-0.000917955,0.64992,0.00101442,0.0150059,692,736,-24.8087,4.31066
-525,288,-24.8581,-5.05927,0.000215399,-0.00111621,0.00120822,0.000929122,-0.00182994,0.533569,0.001621,0.012805,699,736,-24.8581,5.05925
-518,288,-24.9274,-5.79388,0.000197127,-0.00168937,0.00154893,0.00106741,-0.00255966,0.511905,0.00215235,0.011863,706,736,-24.9274,5.79387
-511,288,-24.9666,-6.51068,3.08994e-05,-0.00216844,0.00176697,0.00101244,-0.00314999,0.507053,0.00250658,0.00934588,713,736,-24.9665,6.51071
-504,288,-24.9686,-7.21313,-0.000108692,-0.00236135,0.00191244,0.000984448,-0.00345449,0.519271,0.00269183,0.0109195,720,736,-24.9686,7.21315
-497,288,-24.9844,-7.72638,-6.05715e-05,-0.00223375,0.00171426,0.000882459,-0.00317678,0.502928,0.00246523,0.0339119,727,736,-24.9844,7.72639
-490,288,-24.8929,-8.17224,0,0,0,0,0,0,0,-1,734,736,-24.8929,8.17225
-483,288,-17.3287,0.564758,0,0,0,0,0,0,0,-1,741,736,-17.3287,-0.56477
-476,288,-26.136,0.452148,0,0,0,0,0,0,0,-1,748,736,-26.136,-0.452177
-469,288,-27.7904,0.649841,0,0,0,0,0,0,0,-1,755,736,-27.7904,-0.649854
-462,288,-44.999,-2.65112,0,0,0,0,0,0,0,-1,762,736,-44.999,2.65111
-455,288,-45.2786,-1.84644,0,0,0,0,0,0,0,-1,769,736,-45.2786,1.84643
-448,288,-44.7584,-1.31757,0,0,0,0,0,0,0,-1,776,736,-44.7584,1.31759
-441,288,-44.5874,-0.442871,0,0,0,0,0,0,0,-1,783,736,-44.5874,0.442884
-434,288,-44.372,0.381348,0,0,0,0,0,0,0,-1,790,736,-44.372,-0.381349
-427,288,0,0,0,0,0,0,0,0,0,-1,797,736,0,0
-420,288,0,0,0,0,0,0,0,0,0,-1,804,736,0,0
-413,288,0,0,0,0,0,0,0,0,0,-1,811,736,0,0
-406,288,0,0,0,0,0,0,0,0,0,-1,818,736,0,0
-399,288,0,0,0,0,0,0,0,0,0,-1,825,736,0,0
-392,288,0,0,0,0,0,0,0,0,0,-1,832,736,0,0
-385,288,0,0,0,0,0,0,0,0,0,-1,839,736,0,0
-378,288,0,0,0,0,0,0,0,0,0,-1,846,736,0,0
-371,288,0,0,0,0,0,0,0,0,0,-1,853,736,0,0
-364,288,0,0,0,0,0,0,0,0,0,-1,860,736,0,0
-357,288,0,0,0,0,0,0,0,0,0,-1,867,736,0,0
-350,288,0,0,0,0,0,0,0,0,0,-1,874,736,0,0
-343,288,0,0,0,0,0,0,0,0,0,-1,881,736,0,0
-336,288,0,0,0,0,0,0,0,0,0,-1,888,736,0,0
-329,288,0,0,0,0,0,0,0,0,0,-1,895,736,0,0
-322,288,0,0,0,0,0,0,0,0,0,-1,902,736,0,0
-315,288,0,0,0,0,0,0,0,0,0,-1,909,736,0,0
-308,288,0,0,0,0,0,0,0,0,0,-1,916,736,0,0
-301,288,0,0,0,0,0,0,0,0,0,-1,923,736,0,0
-294,288,0,0,0,0,0,0,0,0,0,-1,930,736,0,0
-287,288,0,0,0,0,0,0,0,0,0,-1,937,736,0,0
-280,288,0,0,0,0,0,0,0,0,0,-1,944,736,0,0
-273,288,0,0,0,0,0,0,0,0,0,-1,951,736,0,0
-266,288,0,0,0,0,0,0,0,0,0,-1,958,736,0,0
-259,288,0,0,0,0,0,0,0,0,0,-1,965,736,0,0
-252,288,0,0,0,0,0,0,0,0,0,-1,972,736,0,0
-245,288,0,0,0,0,0,0,0,0,0,-1,979,736,0,0
-238,288,0,0,0,0,0,0,0,0,0,-1,986,736,0,0
-231,288,0,0,0,0,0,0,0,0,0,-1,993,736,0,0
-224,288,0,0,0,0,0,0,0,0,0,-1,1000,736,0,0
-217,288,0,0,0,0,0,0,0,0,0,-1,1007,736,0,0
-210,288,0,0,0,0,0,0,0,0,0,-1,1014,736,0,0
-203,288,0,0,0,0,0,0,0,0,0,-1,1021,736,0,0
-196,288,0,0,0,0,0,0,0,0,0,-1,1028,736,0,0
-189,288,0,0,0,0,0,0,0,0,0,-1,1035,736,0,0
-182,288,0,0,0,0,0,0,0,0,0,-1,1042,736,0,0
-175,288,0,0,0,0,0,0,0,0,0,-1,1049,736,0,0
-168,288,0,0,0,0,0,0,0,0,0,-1,1056,736,0,0
-161,288,0,0,0,0,0,0,0,0,0,-1,1063,736,0,0
-154,288,0,0,0,0,0,0,0,0,0,-1,1070,736,0,0
-147,288,0,0,0,0,0,0,0,0,0,-1,1077,736,0,0
-140,288,0,0,0,0,0,0,0,0,0,-1,1084,736,0,0
-133,288,0,0,0,0,0,0,0,0,0,-1,1091,736,0,0
-126,288,0,0,0,0,0,0,0,0,0,-1,1098,736,0,0
-119,288,0,0,0,0,0,0,0,0,0,-1,1105,736,0,0
-112,288,0,0,0,0,0,0,0,0,0,-1,1112,736,0,0
-105,288,0,0,0,0,0,0,0,0,0,-1,1119,736,0,0
-98,288,0,0,0,0,0,0,0,0,0,-1,1126,736,0,0
-91,288,0,0,0,0,0,0,0,0,0,-1,1133,736,0,0
-84,288,0,0,0,0,0,0,0,0,0,-1,1140,736,0,0
-77,288,0,0,0,0,0,0,0,0,0,-1,1147,736,0,0
-70,288,0,0,0,0,0,0,0,0,0,-1,1154,736,0,0
-63,288,0,0,0,0,0,0,0,0,0,-1,1161,736,0,0
-56,288,0,0,0,0,0,0,0,0,0,-1,1168,736,0,0
-49,288,0,0,0,0,0,0,0,0,0,-1,1175,736,0,0
-42,288,0,0,0,0,0,0,0,0,0,-1,1182,736,0,0
-35,288,0,0,0,0,0,0,0,0,0,-1,1189,736,0,0
-28,288,0,0,0,0,0,0,0,0,0,-1,1196,736,0,0
-21,288,0,0,0,0,0,0,0,0,0,-1,1203,736,0,0
-14,288,0,0,0,0,0,0,0,0,0,-1,1210,736,0,0
-7,288,0,0,0,0,0,0,0,0,0,-1,1217,736,0,0
0,288,0,0,0,0,0,0,0,0,0,-1,1224,736,0,0
7,288,0,0,0,0,0,0,0,0,0,-1,1231,736,0,0
14,288,0,0,0,0,0,0,0,0,0,-1,1238,736,0,0
21,288,0,0,0,0,0,0,0,0,0,-1,1245,736,0,0
28,288,0,0,0,0,0,0,0,0,0,-1,1252,736,0,0
35,288,0,0,0,0,0,0,0,0,0,-1,1259,736,0,0
42,288,0,0,0,0,0,0,0,0,0,-1,1266,736,0,0
49,288,0,0,0,0,0,0,0,0,0,-1,1273,736,0,0
56,288,0,0,0,0,0,0,0,0,0,-1,1280,736,0,0
63,288,0,0,0,0,0,0,0,0,0,-1,1287,736,0,0
70,288,0,0,0,0,0,0,0,0,0,-1,1294,736,0,0
77,288,0,0,0,0,0,0,0,0,0,-1,1301,736,0,0
84,288,0,0,0,0,0,0,0,0,0,-1,1308,736,0,0
91,288,0,0,0,0,0,0,0,0,0,-1,1315,736,0,0
98,288,0,0,0,0,0,0,0,0,0,-1,1322,736,0,0
105,288,0,0,0,0,0,0,0,0,0,-1,1329,736,0,0
112,288,0,0,0,0,0,0,0,0,0,-1,1336,736,0,0
119,288,0,0,0,0,0,0,0,0,0,-1,1343,736,0,0
126,288,0,0,0,0,0,0,0,0,0,-1,1350,736,0,0
133,288,0,0,0,0,0,0,0,0,0,-1,1357,736,0,0
140,288,0,0,0,0,0,0,0,0,0,-1,1364,736,0,0
147,288,0,0,0,0,0,0,0,0,0,-1,1371,736,0,0
154,288,0,0,0,0,0,0,0,0,0,-1,1378,736,0,0
161,288,0,0,0,0,0,0,0,0,0,-1,1385,736,0,0
168,288,0,0,0,0,0,0,0,0,0,-1,1392,736,0,0
175,288,0,0,0,0,0,0,0,0,0,-1,1399,736,0,0
182,288,0,0,0,0,0,0,0,0,0,-1,1406,736,0,0
189,288,0,0,0,0,0,0,0,0,0,-1,1413,736,0,0
196,288,0,0,0,0,0,0,0,0,0,-1,1420,736,0,0
203,288,0,0,0,0,0,0,0,0,0,-1,1427,736,0,0
210,288,0,0,0,0,0,0,0,0,0,-1,1434,736,0,0
217,288,0,0,0,0,0,0,0,0,0,-1,1441,736,0,0
224,288,0,0,0,0,0,0,0,0,0,-1,1448,736,0,0
231,288,0,0,0,0,0,0,0,0,0,-1,1455,736,0,0
238,288,0,0,0,0,0,0,0,0,0,-1,1462,736,0,0
245,288,0,0,0,0,0,0,0,0,0,-1,1469,736,0,0
252,288,0,0,0,0,0,0,0,0,0,-1,1476,736,0,0
259,288,0,0,0,0,0,0,0,0,0,-1,1483,736,0,0
266,288,0,0,0,0,0,0,0,0,0,-1,1490,736,0,0
273,288,0,0,0,0,0,0,0,0,0,-1,1497,736,0,0
280,288,0,0,0,0,0,0,0,0,0,-1,1504,736,0,0
287,288,0,0,0,0,0,0,0,0,0,-1,1511,736,0,0
294,288,0,0,0,0,0,0,0,0,0,-1,1518,736,0,0
301,288,0,0,0,0,0,0,0,0,0,-1,1525,736,0,0
308,288,0,0,0,0,0,0,0,0,0,-1,1532,736,0,0
315,288,0,0,0,0,0,0,0,0,0,-1,1539,736,0,0
322,288,0,0,0,0,0,0,0,0,0,-1,1546,736,0,0
329,288,0,0,0,0,0,0,0,0,0,-1,1553,736,0,0
336,288,0,0,0,0,0,0,0,0,0,-1,1560,736,0,0
343,288,0,0,0,0,0,0,0,0,0,-1,1567,736,0,0
350,288,0,0,0,0,0,0,0,0,0,-1,1574,736,0,0
357,288,0,0,0,0,0,0,0,0,0,-1,1581,736,0,0
364,288,0,0,0,0,0,0,0,0,0,-1,1588,736,0,0
371,288,0,0,0,0,0,0,0,0,0,-1,1595,736,0,0
378,288,0,0,0,0,0,0,0,0,0,-1,1602,736,0,0
385,288,0,0,0,0,0,0,0,0,0,-1,1609,736,0,0
392,288,0,0,0,0,0,0,0,0,0,-1,1616,736,0,0
399,288,0,0,0,0,0,0,0,0,0,-1,1623,736,0,0
406,288,0,0,0,0,0,0,0,0,0,-1,1630,736,0,0
413,288,0,0,0,0,0,0,0,0,0,-1,1637,736,0,0
420,288,0,0,0,0,0,0,0,0,0,-1,1644,736,0,0
427,288,0,0,0,0,0,0,0,0,0,-1,1651,736,0,0
434,288,0,0,0,0,0,0,0,0,0,-1,1658,736,0,0
441,288,0,0,0,0,0,0,0,0,0,-1,1665,736,0,0
448,288,0,0,0,0,0,0,0,0,0,-1,1672,736,0,0
455,288,0,0,0,0,0,0,0,0,0,-1,1679,736,0,0
462,288,0,0,0,0,0,0,0,0,0,-1,1686,736,0,0
469,288,0,0,0,0,0,0,0,0,0,-1,1693,736,0,0
476,288,0,0,0,0,0,0,0,0,0,-1,1700,736,0,0
483,288,0,0,0,0,0,0,0,0,0,-1,1707,736,0,0
490,288,0,0,0,0,0,0,0,0,0,-1,1714,736,0,0
497,288,0,0,0,0,0,0,0,0,0,-1,1721,736,0,0
504,288,0,0,0,0,0,0,0,0,0,-1,1728,736,0,0
511,288,0,0,0,0,0,0,0,0,0,-1,1735,736,0,0
518,288,0,0,0,0,0,0,0,0,0,-1,1742,736,0,0
525,288,0,0,0,0,0,0,0,0,0,-1,1749,736,0,0
532,288,0,0,0,0,0,0,0,0,0,-1,1756,736,0,0
539,288,0,0,0,0,0,0,0,0,0,-1,1763,736,0,0
546,288,0,0,0,0,0,0,0,0,0,-1,1770,736,0,0
553,288,57.4934,2.28064,0,0,0,0,0,0,0,-1,1777,736,57.4934,-2.28064
560,288,57.3807,3.02881,0,0,0,0,0,0,0,-1,1784,736,57.3808,-3.0288
567,288,57.2081,3.74274,0,0,0,0,0,0,0,-1,1791,736,57.2081,-3.74273
574,288,56.9817,4.36981,0,0,0,0,0,0,0,-1,1798,736,56.9816,-4.36984
581,288,53.4904,5.33215,0,0,0,0,0,0,0,-1,1805,736,53.4904,-5.33218
588,288,54.9313,3.29852,0,0,0,0,0,0,0,-1,1812,736,54.9313,-3.29849
595,288,47.035,3.35156,0,0,0,0,0,0,0,-1,1819,736,47.035,-3.35157
602,288,26.7634,7.61279,0,0,0,0,0,0,0,-1,1826,736,26.7635,-7.61279
609,288,17.5223,4.86414,0,0,0,0,0,0,0,-1,1833,736,17.5223,-4.86412
616,288,13.4886,0.801331,0,0,0,0,0,0,0,-1,1840,736,13.4886,-0.80132
623,288,38.1478,-6.71417,0,0,0,0,0,0,0,-1,1847,736,38.1478,6.7142
630,288,38.1036,-5.90002,0.00268814,-0.000406652,0.00105768,0.00301508,-0.000733591,0.299792,0.00229402,0.0277981,1854,736,38.1037,5.90004
637,288,38.1368,-5.1474,0.00198137,-0.000461552,0.000921171,0.00228978,-0.000769968,0.323078,0.00183775,0.0118047,1861,736,38.1368,5.14739
644,288,38.1172,-4.40375,0.00143372,-0.000178555,0.000776353,0.00174677,-0.000491605,0.383289,0.00135837,0.0105116,1868,736,38.1172,4.40377
651,288,38.0629,-3.65131,0.00120961,0.000182683,0.000684446,0.00155178,-0.00015949,0.463588,0.00109157,0.0125018,1875,736,38.0629,3.65128
658,288,38.0215,-2.83917,0.00120966,0.000594302,0.000737952,0.00170151,0.000102458,0.587886,0.00110178,0.0175928,1882,736,38.0215,2.83914
665,288,37.9935,-2.11548,0.00125077,0.00118535,0.000918416,0.00213706,0.000299059,0.767597,0.00133622,0.0174062,1889,736,37.9936,2.11551
672,288,37.9565,-1.40204,0.00133099,0.00183695,0.00113693,0.0027487,0.000419237,0.894872,0.00170994,0.0162369,1896,736,37.9566,1.40203
679,288,37.9218,-0.623596,0.00142939,0.00265242,0.00135794,0.00353019,0.000551619,0.99696,0.00219284,0.0138584,1903,736,37.9217,0.623606
686,288,37.8781,0.0963135,0.00154245,0.0035425,0.00158792,0.00441905,0.000665901,1.06641,0.00275106,0.0112233,1910,736,37.8781,-0.0962955
693,288,37.8713,0.939026,0.00166276,0.00450161,0.00177755,0.00535692,0.000807443,1.12232,0.00333488,0.0260682,1917,736,37.8713,-0.939037
700,288,37.8516,1.85168,0,0,0,0,0,0,0,-1,1924,736,37.8516,-1.85169
707,288,30.9496,3.07977,0,0,0,0,0,0,0,-1,1931,736,30.9496,-3.07975
714,288,23.0149,3.82544,0,0,0,0,0,0,0,-1,1938,736,23.0149,-3.82541
721,288,18.0732,3.69385,0,0,0,0,0,0,0,-1,1945,736,18.0732,-3.69387
728,288,19.3208,3.91455,0,0,0,0,0,0,0,-1,1952,736,19.3209,-3.91455
735,288,18.7712,3.51312,0,0,0,0,0,0,0,-1,1959,736,18.7713,-3.51309
742,288,0,0,0,0,0,0,0,0,0,-1,1966,736,0,0
749,288,0,0,0,0,0,0,0,0,0,-1,1973,736,0,0
756,288,0,0,0,0,0,0,0,0,0,-1,1980,736,0,0
763,288,0,0,0,0,0,0,0,0,0,-1,1987,736,0,0
770,288,0,0,0,0,0,0,0,0,0,-1,1994,736,0,0
777,288,0,0,0,0,0,0,0,0,0,-1,2001,736,0,0
784,288,0,0,0,0,0,0,0,0,0,-1,2008,736,0,0
791,288,0,0,0,0,0,0,0,0,0,-1,2015,736,0,0
798,288,0,0,0,0,0,0,0,0,0,-1,2022,736,0,0
805,288,0,0,0,0,0,0,0,0,0,-1,2029,736,0,0
812,288,0,0,0,0,0,0,0,0,0,-1,2036,736,0,0
-700,281,0,0,0,0,0,0,0,0,0,-1,524,743,0,0
-693,281,0,0,0,0,0,0,0,0,0,-1,531,743,0,0
-686,281,0,0,0,0,0,0,0,0,0,-1,538,743,0,0
-679,281,0,0,0,0,0,0,0,0,0,-1,545,743,0,0
-672,281,0,0,0,0,0,0,0,0,0,-1,552,743,0,0
-665,281,0,0,0,0,0,0,0,0,0,-1,559,743,0,0
-658,281,0,0,0,0,0,0,0,0,0,-1,566,743,0,0
-651,281,0,0,0,0,0,0,0,0,0,-1,573,743,0,0
-644,281,0,0,0,0,0,0,0,0,0,-1,580,743,0,0
-637,281,0,0,0,0,0,0,0,0,0,-1,587,743,0,0
-630,281,0,0,0,0,0,0,0,0,0,-1,594,743,0,0
-623,281,-19.1697,5.67017,0,0,0,0,0,0,0,-1,601,743,-19.1697,-5.67019
-616,281,-11.5906,2.6853,0,0,0,0,0,0,0,-1,608,743,-11.5906,-2.68529
-609,281,-16.1972,4.14838,0,0,0,0,0,0,0,-1,615,743,-16.1972,-4.14837
-602,281,-21.9772,6.77417,0,0,0,0,0,0,0,-1,622,743,-21.9771,-6.77415
-595,281,-10.4797,-1.07404,0,0,0,0,0,0,0,-1,629,743,-10.4798,1.07402
-588,281,-13.277,1.49817,0,0,0,0,0,0,0,-1,636,743,-13.2771,-1.49817
-581,281,-25.2947,0.809265,0,0,0,0,0,0,0,-1,643,743,-25.2947,-0.809242
-574,281,-25.2039,0.0461426,0.00450929,0.00605014,0.00154333,0.00700466,0.00355478,1.0169,0.0040443,0.0455072,650,743,-25.2038,-0.0461579
-567,281,-25.3868,-0.668823,0.00262147,0.00449934,0.0010833,0.00499398,0.00212683,1.14246,0.00289382,0.022107,657,743,-25.3868,0.668829
-560,281,-25.4653,-1.39795,0.00146961,0.00327213,0.000781259,0.00356362,0.00117813,1.2137,0.00209645,0.00914117,664,743,-25.4653,1.39795
-553,281,-25.4729,-2.11511,0.000803686,0.00216059,0.000702357,0.00245866,0.000505612,1.16944,0.00149926,0.0142934,671,743,-25.4729,2.11509
-546,281,-25.4973,-2.8103,0.000346861,0.00102062,0.000841364,0.00159004,-0.000222562,0.975821,0.00114147,0.0164827,678,743,-25.4973,2.81028
-539,281,-25.543,-3.54529,-0.00025614,-3.91112e-05,0.00105286,0.000910811,-0.00120606,0.83675,0.00122613,0.0152171,685,743,-25.543,3.5453
-532,281,-25.5719,-4.25732,-0.000404789,-0.00101862,0.00142259,0.00074362,-0.00216703,0.679155,0.00174616,0.0145318,692,743,-25.5719,4.25735
-525,281,-25.6073,-5.01001,-0.000339551,-0.00174861,0.00177533,0.000865935,-0.0029541,0.596507,0.00231273,0.0159742,699,743,-25.6073,5.01003
-518,281,-25.6435,-5.76575,-0.000271593,-0.00213703,0.00201149,0.0010129,-0.00342153,0.568305,0.00268316,0.0129921,706,743,-25.6435,5.76574
-511,281,-25.6881,-6.49921,-0.000294014,-0.00243832,0.00201174,0.000913444,-0.00364578,0.540569,0.00278538,0.0120884,713,743,-25.6881,6.49924
-504,281,-25.7428,-7.21075,-0.0001995,-0.00236954,0.00188359,0.000889231,-0.00345828,0.524091,0.00265209,0.0154195,720,743,-25.7428,7.21076
-497,281,-25.6615,-7.90961,9.34502e-05,-0.00195562,0.00136909,0.000778911,-0.00264108,0.464182,0.0020698,0.0482961,727,743,-25.6615,7.90963
-490,281,-25.5107,-8.53308,0,0,0,0,0,0,0,-1,734,743,-25.5107,8.53311
-483,281,-22.1078,-2.34973,0,0,0,0,0,0,0,-1,741,743,-22.1078,2.3497
-476,281,-28.0016,2.17786,0,0,0,0,0,0,0,-1,748,743,-28.0016,-2.17786
-469,281,-34.6448,0.171692,0,0,0,0,0,0,0,-1,755,743,-34.6448,-0.171685
-462,281,-45.5345,-1.32562,0,0,0,0,0,0,0,-1,762,743,-45.5345,1.3256
-455,281,-45.3248,-0.990417,0,0,0,0,0,0,0,-1,769,743,-45.3248,0.99044
-448,281,-45.0236,-0.466003,0,0,0,0,0,0,0,-1,776,743,-45.0236,0.46603
-441,281,-44.8033,0.402039,0,0,0,0,0,0,0,-1,783,743,-44.8033,-0.402013
-434,281,0,0,0,0,0,0,0,0,0,-1,790,743,0,0
-427,281,0,0,0,0,0,0,0,0,0,-1,797,743,0,0
-420,281,0,0,0,0,0,0,0,0,0,-1,804,743,0,0
-413,281,0,0,0,0,0,0,0,0,0,-1,811,743,0,0
-406,281,0,0,0,0,0,0,0,0,0,-1,818,743,0,0
-399,281,0,0,0,0,0,0,0,0,0,-1,825,743,0,0
-392,281,0,0,0,0,0,0,0,0,0,-1,832,743,0,0
-385,281,0,0,0,0,0,0,0,0,0,-1,839,743,0,0
-378,281,0,0,0,0,0,0,0,0,0,-1,846,743,0,0
-371,281,0,0,0,0,0,0,0,0,0,-1,853,743,0,0
-364,281,0,0,0,0,0,0,0,0,0,-1,860,743,0,0
-357,281,0,0,0,0,0,0,0,0,0,-1,867,743,0,0
-350,281,0,0,0,0,0,0,0,0,0,-1,874,743,0,0
-343,281,0,0,0,0,0,0,0,0,0,-1,881,743,0,0
-336,281,0,0,0,0,0,0,0,0,0,-1,888,743,0,0
-329,281,0,0,0,0,0,0,0,0,0,-1,895,743,0,0
-322,281,0,0,0,0,0,0,0,0,0,-1,902,743,0,0
-315,281,0,0,0,0,0,0,0,0,0,-1,909,743,0,0
-308,281,0,0,0,0,0,0,0,0,0,-1,916,743,0,0
-301,281,0,0,0,0,0,0,0,0,0,-1,923,743,0,0
-294,281,0,0,0,0,0,0,0,0,0,-1,930,743,0,0
-287,281,0,0,0,0,0,0,0,0,0,-1,937,743,0,0
-280,281,0,0,0,0,0,0,0,0,0,-1,944,743,0,0
-273,281,0,0,0,0,0,0,0,0,0,-1,951,743,0,0
-266,281,0,0,0,0,0,0,0,0,0,-1,958,743,0,0
-259,281,0,0,0,0,0,0,0,0,0,-1,965,743,0,0
-252,281,0,0,0,0,0,0,0,0,0,-1,972,743,0,0
-245,281,0,0,0,0,0,0,0,0,0,-1,979,743,0,0
-238,281,0,0,0,0,0,0,0,0,0,-1,986,743,0,0
-231,281,0,0,0,0,0,0,0,0,0,-1,993,743,0,0
-224,281,0,0,0,0,0,0,0,0,0,-1,1000,743,0,0
-217,281,0,0,0,0,0,0,0,0,0,-1,1007,743,0,0
-210,281,0,0,0,0,0,0,0,0,0,-1,1014,743,0,0
-203,281,0,0,0,0,0,0,0,0,0,-1,1021,743,0,0
-196,281,0,0,0,0,0,0,0,0,0,-1,1028,743,0,0
-189,281,0,0,0,0,0,0,0,0,0,-1,1035,743,0,0
-182,281,0,0,0,0,0,0,0,0,0,-1,1042,743,0,0
-175,281,0,0,0,0,0,0,0,0,0,-1,1049,743,0,0
-168,281,0,0,0,0,0,0,0,0,0,-1,1056,743,0,0
-161,281,0,0,0,0,0,0,0,0,0,-1,1063,743,0,0
-154,281,0,0,0,0,0,0,0,0,0,-1,1070,743,0,0
-147,281,0,0,0,0,0,0,0,0,0,-1,1077,743,0,0
-140,281,0,0,0,0,0,0,0,0,0,-1,1084,743,0,0
-133,281,0,0,0,0,0,0,0,0,0,-1,1091,743,0,0
-126,281,0,0,0,0,0,0,0,0,0,-1,1098,743,0,0
-119,281,0,0,0,0,0,0,0,0,0,-1,1105,743,0,0
-112,281,0,0,0,0,0,0,0,0,0,-1,1112,743,0,0
-105,281,0,0,0,0,0,0,0,0,0,-1,1119,743,0,0
-98,281,0,0,0,0,0,0,0,0,0,-1,1126,743,0,0
-91,281,0,0,0,0,0,0,0,0,0,-1,1133,743,0,0
-84,281,0,0,0,0,0,0,0,0,0,-1,1140,743,0,0
-77,281,0,0,0,0,0,0,0,0,0,-1,1147,743,0,0
-70,281,0,0,0,0,0,0,0,0,0,-1,1154,743,0,0
-63,281,0,0,0,0,0,0,0,0,0,-1,1161,743,0,0
-56,281,0,0,0,0,0,0,0,0,0,-1,1168,743,0,0
-49,281,0,0,0,0,0,0,0,0,0,-1,1175,743,0,0
-42,281,0,0,0,0,0,0,0,0,0,-1,1182,743,0,0
-35,281,0,0,0,0,0,0,0,0,0,-1,1189,743,0,0
-28,281,0,0,0,0,0,0,0,0,0,-1,1196,743,0,0
-21,281,0,0,0,0,0,0,0,0,0,-1,1203,743,0,0
-14,281,0,0,0,0,0,0,0,0,0,-1,1210,743,0,0
-7,281,0,0,0,0,0,0,0,0,0,-1,1217,743,0,0
0,281,0,0,0,0,0,0,0,0,0,-1,1224,743,0,0
7,281,0,0,0,0,0,0,0,0,0,-1,1231,743,0,0
14,281,0,0,0,0,0,0,0,0,0,-1,1238,743,0,0
21,281,0,0,0,0,0,0,0,0,0,-1,1245,743,0,0
28,281,0,0,0,0,0,0,0,0,0,-1,1252,743,0,0
35,281,0,0,0,0,0,0,0,0,0,-1,1259,743,0,0
42,281,0,0,0,0,0,0,0,0,0,-1,1266,743,0,0
49,281,0,0,0,0,0,0,0,0,0,-1,1273,743,0,0
56,281,0,0,0,0,0,0,0,0,0,-1,1280,743,0,0
63,281,0,0,0,0,0,0,0,0,0,-1,1287,743,0,0
70,281,0,0,0,0,0,0,0,0,0,-1,1294,743,0,0
77,281,0,0,0,0,0,0,0,0,0,-1,1301,743,0,0
84,281,0,0,0,0,0,0,0,0,0,-1,1308,743,0,0
91,281,0,0,0,0,0,0,0,0,0,-1,1315,743,0,0
98,281,0,0,0,0,0,0,0,0,0,-1,1322,743,0,0
105,281,0,0,0,0,0,0,0,0,0,-1,1329,743,0,0
112,281,0,0,0,0,0,0,0,0,0,-1,1336,743,0,0
119,281,0,0,0,0,0,0,0,0,0,-1,1343,743,0,0
126,281,0,0,0,0,0,0,0,0,0,-1,1350,743,0,0
133,281,0,0,0,0,0,0,0,0,0,-1,1357,743,0,0
140,281,0,0,0,0,0,0,0,0,0,-1,1364,743,0,0
147,281,0,0,0,0,0,0,0,0,0,-1,1371,743,0,0
154,281,0,0,0,0,0,0,0,0,0,-1,1378,743,0,0
161,281,0,0,0,0,0,0,0,0,0,-1,1385,743,0,0
168,281,0,0,0,0,0,0,0,0,0,-1,1392,743,0,0
175,281,0,0,0,0,0,0,0,0,0,-1,1399,743,0,0
182,281,0,0,0,0,0,0,0,0,0,-1,1406,743,0,0
189,281,0,0,0,0,0,0,0,0,0,-1,1413,743,0,0
196,281,0,0,0,0,0,0,0,0,0,-1,1420,743,0,0
203,281,0,0,0,0,0,0,0,0,0,-1,1427,743,0,0
210,281,0,0,0,0,0,0,0,0,0,-1,1434,743,0,0
217,281,0,0,0,0,0,0,0,0,0,-1,1441,743,0,0
224,281,0,0,0,0,0,0,0,0,0,-1,1448,743,0,0
231,281,0,0,0,0,0,0,0,0,0,-1,1455,743,0,0
238,281,0,0,0,0,0,0,0,0,0,-1,1462,743,0,0
245,281,0,0,0,0,0,0,0,0,0,-1,1469,743,0,0
252,281,0,0,0,0,0,0,0,0,0,-1,1476,743,0,0
259,281,0,0,0,0,0,0,0,0,0,-1,1483,743,0,0
266,281,0,0,0,0,0,0,0,0,0,-1,1490,743,0,0
273,281,0,0,0,0,0,0,0,0,0,-1,1497,743,0,0
280,281,0,0,0,0,0,0,0,0,0,-1,1504,743,0,0
287,281,0,0,0,0,0,0,0,0,0,-1,1511,743,0,0
294,281,0,0,0,0,0,0,0,0,0,-1,1518,743,0,0
301,281,0,0,0,0,0,0,0,0,0,-1,1525,743,0,0
308,281,0,0,0,0,0,0,0,0,0,-1,1532,743,0,0
315,281,0,0,0,0,0,0,0,0,0,-1,1539,743,0,0
322,281,0,0,0,0,0,0,0,0,0,-1,1546,743,0,0
329,281,0,0,0,0,0,0,0,0,0,-1,1553,743,0,0
336,281,0,0,0,0,0,0,0,0,0,-1,1560,743,0,0
343,281,0,0,0,0,0,0,0,0,0,-1,1567,743,0,0
350,281,0,0,0,0,0,0,0,0,0,-1,1574,743,0,0
357,281,0,0,0,0,0,0,0,0,0,-1,1581,743,0,0
364,281,0,0,0,0,0,0,0,0,0,-1,1588,743,0,0
371,281,0,0,0,0,0,0,0,0,0,-1,1595,743,0,0
378,281,0,0,0,0,0,0,0,0,0,-1,1602,743,0,0
385,281,0,0,0,0,0,0,0,0,0,-1,1609,743,0,0
392,281,0,0,0,0,0,0,0,0,0,-1,1616,743,0,0
399,281,0,0,0,0,0,0,0,0,0,-1,1623,743,0,0
406,281,0,0,0,0,0,0,0,0,0,-1,1630,743,0,0
413,281,0,0,0,0,0,0,0,0,0,-1,1637,743,0,0
420,281,0,0,0,0,0,0,0,0,0,-1,1644,743,0,0
427,281,0,0,0,0,0,0,0,0,0,-1,1651,743,0,0
434,281,0,0,0,0,0,0,0,0,0,-1,1658,743,0,0
441,281,0,0,0,0,0,0,0,0,0,-1,1665,743,0,0
448,281,0,0,0,0,0,0,0,0,0,-1,1672,743,0,0
455,281,0,0,0,0,0,0,0,0,0,-1,1679,743,0,0
462,281,0,0,0,0,0,0,0,0,0,-1,1686,743,0,0
469,281,0,0,0,0,0,0,0,0,0,-1,1693,743,0,0
476,281,0,0,0,0,0,0,0,0,0,-1,1700,743,0,0
483,281,0,0,0,0,0,0,0,0,0,-1,1707,743,0,0
490,281,0,0,0,0,0,0,0,0,0,-1,1714,743,0,0
497,281,0,0,0,0,0,0,0,0,0,-1,1721,743,0,0
504,281,0,0,0,0,0,0,0,0,0,-1,1728,743,0,0
511,281,0,0,0,0,0,0,0,0,0,-1,1735,743,0,0
518,281,0,0,0,0,0,0,0,0,0,-1,1742,743,0,0
525,281,0,0,0,0,0,0,0,0,0,-1,1749,743,0,0
532,281,0,0,0,0,0,0,0,0,0,-1,1756,743,0,0
539,281,0,0,0,0,0,0,0,0,0,-1,1763,743,0,0
546,281,0,0,0,0,0,0,0,0,0,-1,1770,743,0,0
553,281,0,0,0,0,0,0,0,0,0,-1,1777,743,0,0
560,281,57.8354,3.06482,0,0,0,0,0,0,0,-1,1784,743,57.8354,-3.06479
567,281,57.6156,3.64508,0,0,0,0,0,0,0,-1,1791,743,57.6156,-3.64511
574,281,57.3431,4.17767,0,0,0,0,0,0,0,-1,1798,743,57.3431,-4.17769
581,281,57.0648,4.53906,0,0,0,0,0,0,0,-1,1805,743,57.0648,-4.53908
588,281,53.5422,6.00092,0,0,0,0,0,0,0,-1,1812,743,53.5422,-6.00092
595,281,54.8569,3.32269,0,0,0,0,0,0,0,-1,1819,743,54.857,-3.32269
602,281,45.9985,3.98254,0,0,0,0,0,0,0,-1,1826,743,45.9985,-3.98254
609,281,32.7925,1.28723,0,0,0,0,0,0,0,-1,1833,743,32.7925,-1.28722
616,281,21.3191,-0.253906,0,0,0,0,0,0,0,-1,1840,743,21.3191,0.253931
623,281,31.8741,-4.74182,0,0,0,0,0,0,0,-1,1847,743,31.8741,4.74184
630,281,38.7737,-5.78607,0,0,0,0,0,0,0,-1,1854,743,38.7737,5.78606
637,281,38.8333,-5.10492,0.00231441,-0.000475852,0.00125636,0.00279673,-0.000958173,0.366554,0.00225286,0.0182863,1861,743,38.8333,5.10492
644,281,38.8419,-4.36823,0.00153169,-0.000350643,0.00105889,0.00200722,-0.000826175,0.422094,0.00168256,0.0107975,1868,743,38.8419,4.36823
651,281,38.8278,-3.61597,0.0011273,-8.78926e-05,0.000755916,0.00148954,-0.000450134,0.446876,0.00117224,0.0122374,1875,743,38.8278,3.61595
658,281,38.7748,-2.80029,0.00105728,0.000191745,0.000642831,0.00139945,-0.000150419,0.489134,0.000986933,0.0206828,1882,743,38.7748,2.80031
665,281,38.7314,-2.0733,0.00104245,0.000774243,0.000765523,0.00168552,0.000131165,0.69869,0.00108261,0.0217056,1889,743,38.7315,2.0733
672,281,38.7002,-1.36298,0.0010742,0.00139402,0.000924735,0.00217257,0.000295654,0.871013,0.00136058,0.0137096,1896,743,38.7002,1.36297
679,281,38.6738,-0.6297,0.00109692,0.00220739,0.00105873,0.00284765,0.000456662,1.0269,0.001766,0.0214872,1903,743,38.6739,0.629695
686,281,38.5874,0.088562,0.00111508,0.00308314,0.00119075,0.00364384,0.000554382,1.13071,0.00226714,0.0178729,1910,743,38.5874,-0.0885326
693,281,38.5524,0.870667,0.00110885,0.00404429,0.00127396,0.00452006,0.000633079,1.21337,0.00282608,0.0134676,1917,743,38.5523,-0.870688
700,281,38.4963,1.70123,0.0009933,0.00550509,0.00139102,0.00589948,0.000598911,1.29452,0.00374933,0.0393612,1924,743,38.4963,-1.70125
707,281,38.3113,2.55524,0,0,0,0,0,0,0,-1,1931,743,38.3112,-2.55522
714,281,25.0125,2.5105,0,0,0,0,0,0,0,-1,1938,743,25.0124,-2.51053
721,281,16.9656,3.22174,0,0,0,0,0,0,0,-1,1945,743,16.9656,-3.22172
728,281,19.0251,3.63934,0,0,0,0,0,0,0,-1,1952,743,19.0252,-3.63932
735,281,19.0869,2.50311,0,0,0,0,0,0,0,-1,1959,743,19.0869,-2.5031
742,281,0,0,0,0,0,0,0,0,0,-1,1966,743,0,0
749,281,0,0,0,0,0,0,0,0,0,-1,1973,743,0,0
756,281,0,0,0,0,0,0,0,0,0,-1,1980,743,0,0
763,281,0,0,0,0,0,0,0,0,0,-1,1987,743,0,0
770,281,0,0,0,0,0,0,0,0,0,-1,1994,743,0,0
777,281,0,0,0,0,0,0,0,0,0,-1,2001,743,0,0
784,281,0,0,0,0,0,0,0,0,0,-1,2008,743,0,0
791,281,0,0,0,0,0,0,0,0,0,-1,2015,743,0,0
798,281,0,0,0,0,0,0,0,0,0,-1,2022,743,0,0
805,281,0,0,0,0,0,0,0,0,0,-1,2029,743,0,0
812,281,0,0,0,0,0,0,0,0,0,-1,2036,743,0,0
-700,274,0,0,0,0,0,0,0,0,0,-1,524,750,0,0
-693,274,0,0,0,0,0,0,0,0,0,-1,531,750,0,0
-686,274,0,0,0,0,0,0,0,0,0,-1,538,750,0,0
-679,274,0,0,0,0,0,0,0,0,0,-1,545,750,0,0
-672,274,0,0,0,0,0,0,0,0,0,-1,552,750,0,0
-665,274,0,0,0,0,0,0,0,0,0,-1,559,750,0,0
-658,274,0,0,0,0,0,0,0,0,0,-1,566,750,0,0
-651,274,0,0,0,0,0,0,0,0,0,-1,573,750,0,0
-644,274,0,0,0,0,0,0,0,0,0,-1,580,750,0,0
-637,274,0,0,0,0,0,0,0,0,0,-1,587,750,0,0
-630,274,0,0,0,0,0,0,0,0,0,-1,594,750,0,0
-623,274,-19.6909,5.12701,0,0,0,0,0,0,0,-1,601,750,-19.6908,-5.12703
-616,274,-17.9133,3.9024,0,0,0,0,0,0,0,-1,608,750,-17.9133,-3.90239
-609,274,-26.0861,5.57306,0,0,0,0,0,0,0,-1,615,750,-26.0861,-5.57307
-602,274,-25.7372,3.73846,0,0,0,0,0,0,0,-1,622,750,-25.7372,-3.73849
-595,274,-25.258,2.53473,0,0,0,0,0,0,0,-1,629,750,-25.258,-2.53474
-588,274,-24.9805,2.2334,0,0,0,0,0,0,0,-1,636,750,-24.9805,-2.23341
-581,274,-26.1365,0.775391,0,0,0,0,0,0,0,-1,643,750,-26.1365,-0.775395
-574,274,-25.9554,0.0100098,0.00596646,0.0048915,0.00154891,0.0070685,0.00378946,0.618396,0.00408454,0.0291226,650,750,-25.9555,-0.0100304
-567,274,-26.1384,-0.680115,0.0034622,0.00361065,0.00121074,0.00474944,0.00232341,0.816012,0.0027423,0.0287585,657,750,-26.1384,0.680131
-560,274,-26.1744,-1.34497,0.00183695,0.00252446,0.00103227,0.0032687,0.0010927,0.946127,0.00192142,0.0145057,664,750,-26.1744,1.34499
-553,274,-26.2048,-2.08807,0.000796489,0.00144432,0.00107348,0.00224169,-8.81613e-07,0.931925,0.00149475,0.0094233,671,750,-26.2048,2.0881
-546,274,-26.2504,-2.81293,9.81694e-05,0.000367928,0.00129475,0.0015348,-0.0010687,0.837298,0.00151114,0.0117044,678,750,-26.2503,2.81295
-539,274,-26.2958,-3.53241,-0.000707105,-0.000684408,0.00157611,0.000880393,-0.00227191,0.788998,0.00187816,0.0125648,685,750,-26.2958,3.53238
-532,274,-26.3258,-4.22968,-0.000871023,-0.00163943,0.00193411,0.000716676,-0.00322712,0.687352,0.00242586,0.013174,692,750,-26.3258,4.22965
-525,274,-26.3474,-4.95184,-0.00074516,-0.00218694,0.00219731,0.00084649,-0.00377859,0.626891,0.00284354,0.0131615,699,750,-26.3474,4.95187
-518,274,-26.3712,-5.7149,-0.000607858,-0.00238847,0.00226946,0.000939679,-0.00393601,0.598473,0.00298692,0.012933,706,750,-26.3711,5.71488
-511,274,-26.3927,-6.461,-0.000517817,-0.00256212,0.00203573,0.000737967,-0.0038179,0.552733,0.00282359,0.0153728,713,750,-26.3927,6.46097
-504,274,-26.4996,-7.22253,-0.00028335,-0.00233832,0.00168154,0.000659775,-0.00328144,0.51115,0.0024375,0.0285,720,750,-26.4996,7.22254
-497,274,-26.6658,-8.01312,0,0,0,0,0,0,0,-1,727,750,-26.6658,8.01313
-490,274,-13.6545,-3.58826,0,0,0,0,0,0,0,-1,734,750,-13.6546,3.58825
-483,274,-27.8608,1.30981,0,0,0,0,0,0,0,-1,741,750,-27.8608,-1.30979
-476,274,-33.7561,-0.508606,0,0,0,0,0,0,0,-1,748,750,-33.7561,0.508636
-469,274,-41.1387,0.907715,0,0,0,0,0,0,0,-1,755,750,-41.1387,-0.907744
-462,274,-47.8044,0.814026,0,0,0,0,0,0,0,-1,762,750,-47.8044,-0.814022
-455,274,-45.4913,-0.216675,0,0,0,0,0,0,0,-1,769,750,-45.4913,0.216672
-448,274,-45.2978,-0.228699,0,0,0,0,0,0,0,-1,776,750,-45.2978,0.228706
-441,274,0,0,0,0,0,0,0,0,0,-1,783,750,0,0
-434,274,0,0,0,0,0,0,0,0,0,-1,790,750,0,0
-427,274,0,0,0,0,0,0,0,0,0,-1,797,750,0,0
-420,274,0,0,0,0,0,0,0,0,0,-1,804,750,0,0
-413,274,0,0,0,0,0,0,0,0,0,-1,811,750,0,0
-406,274,0,0,0,0,0,0,0,0,0,-1,818,750,0,0
-399,274,0,0,0,0,0,0,0,0,0,-1,825,750,0,0
-392,274,0,0,0,0,0,0,0,0,0,-1,832,750,0,0
-385,274,0,0,0,0,0,0,0,0,0,-1,839,750,0,0
-378,274,0,0,0,0,0,0,0,0,0,-1,846,750,0,0
-371,274,0,0,0,0,0,0,0,0,0,-1,853,750,0,0
-364,274,0,0,0,0,0,0,0,0,0,-1,860,750,0,0
-357,274,0,0,0,0,0,0,0,0,0,-1,867,750,0,0
-350,274,0,0,0,0,0,0,0,0,0,-1,874,750,0,0
-343,274,0,0,0,0,0,0,0,0,0,-1,881,750,0,0
-336,274,0,0,0,0,0,0,0,0,0,-1,888,750,0,0
-329,274,0,0,0,0,0,0,0,0,0,-1,895,750,0,0
-322,274,0,0,0,0,0,0,0,0,0,-1,902,750,0,0
-315,274,0,0,0,0,0,0,0,0,0,-1,909,750,0,0
-308,274,0,0,0,0,0,0,0,0,0,-1,916,750,0,0
-301,274,0,0,0,0,0,0,0,0,0,-1,923,750,0,0
-294,274,0,0,0,0,0,0,0,0,0,-1,930,750,0,0
-287,274,0,0,0,0,0,0,0,0,0,-1,937,750,0,0
-280,274,0,0,0,0,0,0,0,0,0,-1,944,750,0,0
-273,274,0,0,0,0,0,0,0,0,0,-1,951,750,0,0
-266,274,0,0,0,0,0,0,0,0,0,-1,958,750,0,0
-259,274,0,0,0,0,0,0,0,0,0,-1,965,750,0,0
-252,274,0,0,0,0,0,0,0,0,0,-1,972,750,0,0
-245,274,0,0,0,0,0,0,0,0,0,-1,979,750,0,0
-238,274,0,0,0,0,0,0,0,0,0,-1,986,750,0,0
-231,274,0,0,0,0,0,0,0,0,0,-1,993,750,0,0
-224,274,0,0,0,0,0,0,0,0,0,-1,1000,750,0,0
-217,274,0,0,0,0,0,0,0,0,0,-1,1007,750,0,0
-210,274,0,0,0,0,0,0,0,0,0,-1,1014,750,0,0
-203,274,0,0,0,0,0,0,0,0,0,-1,1021,750,0,0
-196,274,0,0,0,0,0,0,0,0,0,-1,1028,750,0,0
-189,274,0,0,0,0,0,0,0,0,0,-1,1035,750,0,0
-182,274,0,0,0,0,0,0,0,0,0,-1,1042,750,0,0
-175,274,0,0,0,0,0,0,0,0,0,-1,1049,750,0,0
-168,274,0,0,0,0,0,0,0,0,0,-1,1056,750,0,0
-161,274,0,0,0,0,0,0,0,0,0,-1,1063,750,0,0
-154,274,0,0,0,0,0,0,0,0,0,-1,1070,750,0,0
-147,274,0,0,0,0,0,0,0,0,0,-1,1077,750,0,0
-140,274,0,0,0,0,0,0,0,0,0,-1,1084,750,0,0
-133,274,0,0,0,0,0,0,0,0,0,-1,1091,750,0,0
-126,274,0,0,0,0,0,0,0,0,0,-1,1098,750,0,0
-119,274,0,0,0,0,0,0,0,0,0,-1,1105,750,0,0
-112,274,0,0,0,0,0,0,0,0,0,-1,1112,750,0,0
-105,274,0,0,0,0,0,0,0,0,0,-1,1119,750,0,0
-98,274,0,0,0,0,0,0,0,0,0,-1,1126,750,0,0
-91,274,0,0,0,0,0,0,0,0,0,-1,1133,750,0,0
-84,274,0,0,0,0,0,0,0,0,0,-1,1140,750,0,0
-77,274,0,0,0,0,0,0,0,0,0,-1,1147,750,0,0
-70,274,0,0,0,0,0,0,0,0,0,-1,1154,750,0,0
-63,274,0,0,0,0,0,0,0,0,0,-1,1161,750,0,0
-56,274,0,0,0,0,0,0,0,0,0,-1,1168,750,0,0
-49,274,0,0,0,0,0,0,0,0,0,-1,1175,750,0,0
-42,274,0,0,0,0,0,0,0,0,0,-1,1182,750,0,0
-35,274,0,0,0,0,0,0,0,0,0,-1,1189,750,0,0
-28,274,0,0,0,0,0,0,0,0,0,-1,1196,750,0,0
-21,274,0,0,0,0,0,0,0,0,0,-1,1203,750,0,0
-14,274,0,0,0,0,0,0,0,0,0,-1,1210,750,0,0
-7,274,0,0,0,0,0,0,0,0,0,-1,1217,750,0,0
0,274,0,0,0,0,0,0,0,0,0,-1,1224,750,0,0
7,274,0,0,0,0,0,0,0,0,0,-1,1231,750,0,0
14,274,0,0,0,0,0,0,0,0,0,-1,1238,750,0,0
21,274,0,0,0,0,0,0,0,0,0,-1,1245,750,0,0
28,274,0,0,0,0,0,0,0,0,0,-1,1252,750,0,0
35,274,0,0,0,0,0,0,0,0,0,-1,1259,750,0,0
42,274,0,0,0,0,0,0,0,0,0,-1,1266,750,0,0
49,274,0,0,0,0,0,0,0,0,0,-1,1273,750,0,0
56,274,0,0,0,0,0,0,0,0,0,-1,1280,750,0,0
63,274,0,0,0,0,0,0,0,0,0,-1,1287,750,0,0
70,274,0,0,0,0,0,0,0,0,0,-1,1294,750,0,0
77,274,0,0,0,0,0,0,0,0,0,-1,1301,750,0,0
84,274,0,0,0,0,0,0,0,0,0,-1,1308,750,0,0
91,274,0,0,0,0,0,0,0,0,0,-1,1315,750,0,0
98,274,0,0,0,0,0,0,0,0,0,-1,1322,750,0,0
105,274,0,0,0,0,0,0,0,0,0,-1,1329,750,0,0
112,274,0,0,0,0,0,0,0,0,0,-1,1336,750,0,0
119,274,0,0,0,0,0,0,0,0,0,-1,1343,750,0,0
126,274,0,0,0,0,0,0,0,0,0,-1,1350,750,0,0
133,274,0,0,0,0,0,0,0,0,0,-1,1357,750,0,0
140,274,0,0,0,0,0,0,0,0,0,-1,1364,750,0,0
147,274,0,0,0,0,0,0,0,0,0,-1,1371,750,0,0
154,274,0,0,0,0,0,0,0,0,0,-1,1378,750,0,0
161,274,0,0,0,0,0,0,0,0,0,-1,1385,750,0,0
168,274,0,0,0,0,0,0,0,0,0,-1,1392,750,0,0
175,274,0,0,0,0,0,0,0,0,0,-1,1399,750,0,0
182,274,0,0,0,0,0,0,0,0,0,-1,1406,750,0,0
189,274,0,0,0,0,0,0,0,0,0,-1,1413,750,0,0
196,274,0,0,0,0,0,0,0,0,0,-1,1420,750,0,0
203,274,0,0,0,0,0,0,0,0,0,-1,1427,750,0,0
210,274,0,0,0,0,0,0,0,0,0,-1,1434,750,0,0
217,274,0,0,0,0,0,0,0,0,0,-1,1441,750,0,0
224,274,0,0,0,0,0,0,0,0,0,-1,1448,750,0,0
231,274,0,0,0,0,0,0,0,0,0,-1,1455,750,0,0
238,274,0,0,0,0,0,0,0,0,0,-1,1462,750,0,0
245,274,0,0,0,0,0,0,0,0,0,-1,1469,750,0,0
252,274,0,0,0,0,0,0,0,0,0,-1,1476,750,0,0
259,274,0,0,0,0,0,0,0,0,0,-1,1483,750,0,0
266,274,0,0,0,0,0,0,0,0,0,-1,1490,750,0,0
273,274,0,0,0,0,0,0,0,0,0,-1,1497,750,0,0
280,274,0,0,0,0,0,0,0,0,0,-1,1504,750,0,0
287,274,0,0,0,0,0,0,0,0,0,-1,1511,750,0,0
294,274,0,0,0,0,0,0,0,0,0,-1,1518,750,0,0
301,274,0,0,0,0,0,0,0,0,0,-1,1525,750,0,0
308,274,0,0,0,0,0,0,0,0,0,-1,1532,750,0,0
315,274,0,0,0,0,0,0,0,0,0,-1,1539,750,0,0
322,274,0,0,0,0,0,0,0,0,0,-1,1546,750,0,0
329,274,0,0,0,0,0,0,0,0,0,-1,1553,750,0,0
336,274,0,0,0,0,0,0,0,0,0,-1,1560,750,0,0
343,274,0,0,0,0,0,0,0,0,0,-1,1567,750,0,0
350,274,0,0,0,0,0,0,0,0,0,-1,1574,750,0,0
357,274,0,0,0,0,0,0,0,0,0,-1,1581,750,0,0
364,274,0,0,0,0,0,0,0,0,0,-1,1588,750,0,0
371,274,0,0,0,0,0,0,0,0,0,-1,1595,750,0,0
378,274,0,0,0,0,0,0,0,0,0,-1,1602,750,0,0
385,274,0,0,0,0,0,0,0,0,0,-1,1609,750,0,0
392,274,0,0,0,0,0,0,0,0,0,-1,1616,750,0,0
399,274,0,0,0,0,0,0,0,0,0,-1,1623,750,0,0
406,274,0,0,0,0,0,0,0,0,0,-1,1630,750,0,0
413,274,0,0,0,0,0,0,0,0,0,-1,1637,750,0,0
420,274,0,0,0,0,0,0,0,0,0,-1,1644,750,0,0
427,274,0,0,0,0,0,0,0,0,0,-1,1651,750,0,0
434,274,0,0,0,0,0,0,0,0,0,-1,1658,750,0,0
441,274,0,0,0,0,0,0,0,0,0,-1,1665,750,0,0
448,274,0,0,0,0,0,0,0,0,0,-1,1672,750,0,0
455,274,0,0,0,0,0,0,0,0,0,-1,1679,750,0,0
462,274,0,0,0,0,0,0,0,0,0,-1,1686,750,0,0
469,274,0,0,0,0,0,0,0,0,0,-1,1693,750,0,0
476,274,0,0,0,0,0,0,0,0,0,-1,1700,750,0,0
483,274,0,0,0,0,0,0,0,0,0,-1,1707,750,0,0
490,274,0,0,0,0,0,0,0,0,0,-1,1714,750,0,0
497,274,0,0,0,0,0,0,0,0,0,-1,1721,750,0,0
504,274,0,0,0,0,0,0,0,0,0,-1,1728,750,0,0
511,274,0,0,0,0,0,0,0,0,0,-1,1735,750,0,0
518,274,0,0,0,0,0,0,0,0,0,-1,1742,750,0,0
525,274,0,0,0,0,0,0,0,0,0,-1,1749,750,0,0
532,274,0,0,0,0,0,0,0,0,0,-1,1756,750,0,0
539,274,0,0,0,0,0,0,0,0,0,-1,1763,750,0,0
546,274,0,0,0,0,0,0,0,0,0,-1,1770,750,0,0
553,274,0,0,0,0,0,0,0,0,0,-1,1777,750,0,0
560,274,57.9182,3.24518,0,0,0,0,0,0,0,-1,1784,750,57.9182,-3.24516
567,274,57.8315,3.4137,0,0,0,0,0,0,0,-1,1791,750,57.8315,-3.41368
574,274,58.2571,3.11115,0,0,0,0,0,0,0,-1,1798,750,58.2571,-3.11114
581,274,54.4941,4.68127,0,0,0,0,0,0,0,-1,1805,750,54.4941,-4.68125
588,274,53.9908,5.6676,0,0,0,0,0,0,0,-1,1812,750,53.9908,-5.66763
595,274,62.4131,2.7533,0,0,0,0,0,0,0,-1,1819,750,62.4131,-2.75329
602,274,55.6321,2.56519,0,0,0,0,0,0,0,-1,1826,750,55.6321,-2.56521
609,274,44.6676,3.10461,0,0,0,0,0,0,0,-1,1833,750,44.6676,-3.1046
616,274,32.7869,1.78436,0,0,0,0,0,0,0,-1,1840,750,32.7868,-1.78437
623,274,24.8231,-1.80353,0,0,0,0,0,0,0,-1,1847,750,24.8232,1.80351
630,274,39.7423,-5.92456,0,0,0,0,0,0,0,-1,1854,750,39.7423,5.92457
637,274,39.5737,-5.15137,0.00223571,-0.00019169,0.00169862,0.00310968,-0.00106566,0.475196,0.00250508,0.0244173,1861,750,39.5737,5.15138
644,274,39.5619,-4.33344,0.00148299,-0.000213241,0.00152829,0.00238272,-0.00111297,0.532083,0.00206214,0.0132743,1868,750,39.5618,4.33345
651,274,39.5543,-3.56421,0.00104022,-9.36097e-05,0.00100167,0.00162427,-0.000677667,0.527888,0.00136597,0.0133686,1875,750,39.5543,3.56418
658,274,39.533,-2.81256,0.000952722,-3.21442e-05,0.000627215,0.00125772,-0.000337138,0.4526,0.000970575,0.0162856,1882,750,39.533,2.81259
665,274,39.4829,-2.05804,0.000887171,0.000468428,0.000618051,0.00133035,2.52484e-05,0.622085,0.000878605,0.0168011,1889,750,39.4829,2.05806
672,274,39.4373,-1.30969,0.000876374,0.00100188,0.000673382,0.00161542,0.000262826,0.831858,0.00100091,0.0140322,1896,750,39.4373,1.30967
679,274,39.4076,-0.562012,0.000818769,0.00173676,0.000707014,0.00212071,0.000434826,1.07331,0.00129346,0.0158558,1903,750,39.4076,0.561996
686,274,39.3705,0.171509,0.000742731,0.00255274,0.000751267,0.00282393,0.00047154,1.22438,0.00174679,0.0186755,1910,750,39.3705,-0.171525
693,274,39.2946,0.943848,0.000623578,0.00344872,0.000758227,0.00363935,0.000432944,1.32448,0.00229557,0.0136364,1917,750,39.2945,-0.943871
700,274,39.2599,1.74249,0.000393175,0.0047021,0.000768282,0.00483499,0.000260288,1.39952,0.00314016,0.0173751,1924,750,39.2599,-1.74247
707,274,39.1451,2.49847,4.51725e-05,0.00587712,0.000845017,0.00599709,-7.47978e-05,1.42977,0.00402323,0.0370179,1931,750,39.1451,-2.49844
714,274,38.9824,3.28918,0,0,0,0,0,0,0,-1,1938,750,38.9824,-3.28919
721,274,25.6215,3.91144,0,0,0,0,0,0,0,-1,1945,750,25.6214,-3.91141
728,274,19.2209,3.95154,0,0,0,0,0,0,0,-1,1952,750,19.221,-3.95151
735,274,20.6608,4.10931,0,0,0,0,0,0,0,-1,1959,750,20.6607,-4.10932
742,274,11.7815,-0.740234,0,0,0,0,0,0,0,-1,1966,750,11.7815,0.740253
749,274,0,0,0,0,0,0,0,0,0,-1,1973,750,0,0
756,274,0,0,0,0,0,0,0,0,0,-1,1980,750,0,0
763,274,0,0,0,0,0,0,0,0,0,-1,1987,750,0,0
770,274,0,0,0,0,0,0,0,0,0,-1,1994,750,0,0
777,274,0,0,0,0,0,0,0,0,0,-1,2001,750,0,0
784,274,0,0,0,0,0,0,0,0,0,-1,2008,750,0,0
791,274,0,0,0,0,0,0,0,0,0,-1,2015,750,0,0
798,274,0,0,0,0,0,0,0,0,0,-1,2022,750,0,0
805,274,0,0,0,0,0,0,0,0,0,-1,2029,750,0,0
812,274,0,0,0,0,0,0,0,0,0,-1,2036,750,0,0
-700,267,0,0,0,0,0,0,0,0,0,-1,524,757,0,0
-693,267,0,0,0,0,0,0,0,0,0,-1,531,757,0,0
-686,267,0,0,0,0,0,0,0,0,0,-1,538,757,0,0
-679,267,0,0,0,0,0,0,0,0,0,-1,545,757,0,0
-672,267,0,0,0,0,0,0,0,0,0,-1,552,757,0,0
-665,267,0,0,0,0,0,0,0,0,0,-1,559,757,0,0
-658,267,0,0,0,0,0,0,0,0,0,-1,566,757,0,0
-651,267,0,0,0,0,0,0,0,0,0,-1,573,757,0,0
-644,267,0,0,0,0,0,0,0,0,0,-1,580,757,0,0
-637,267,0,0,0,0,0,0,0,0,0,-1,587,757,0,0
-630,267,-21.3979,5.17529,0,0,0,0,0,0,0,-1,594,757,-21.3979,-5.17529
-623,267,-20.043,4.43115,0,0,0,0,0,0,0,-1,601,757,-20.043,-4.43116
-616,267,-27.1628,5.9325,0,0,0,0,0,0,0,-1,608,757,-27.1629,-5.93249
-609,267,-26.9868,4.99658,0,0,0,0,0,0,0,-1,615,757,-26.9868,-4.99656
-602,267,-26.6637,3.74072,0,0,0,0,0,0,0,-1,622,757,-26.6637,-3.74075
-595,267,-26.2172,2.54993,0,0,0,0,0,0,0,-1,629,757,-26.2171,-2.54993
-588,267,-26.7848,1.65088,0,0,0,0,0,0,0,-1,636,757,-26.7848,-1.65086
-581,267,-26.7128,1.00287,0.0112242,0.00417269,0.00228523,0.0119,0.00349687,0.287537,0.00706246,0.0421091,643,757,-26.7128,-1.00284
-574,267,-26.7301,0.14032,0.00692342,0.0036413,0.00158804,0.00756598,0.00299873,0.38449,0.0043994,0.0240541,650,757,-26.7301,-0.140325
-567,267,-26.836,-0.572876,0.00404534,0.00269494,0.00131149,0.00484524,0.00189504,0.547677,0.00281942,0.0296617,657,757,-26.836,0.572888
-560,267,-26.8814,-1.27191,0.00208039,0.00179635,0.00121555,0.00316219,0.000714548,0.727244,0.00191491,0.0231837,664,757,-26.8814,1.27193
-553,267,-26.955,-2.01709,0.000731809,0.000784441,0.00134944,0.00210782,-0.000591572,0.795148,0.0016384,0.0175924,671,757,-26.955,2.01709
-546,267,-26.9737,-2.77094,-0.000186717,-0.000207493,0.00163261,0.00143554,-0.00182975,0.782217,0.00188979,0.0119046,678,757,-26.9737,2.77095
-539,267,-26.9927,-3.51733,-0.00117026,-0.00123936,0.00197183,0.000767325,-0.00317695,0.776638,0.00241473,0.011635,685,757,-26.9927,3.51731
-532,267,-27.0048,-4.22577,-0.00134091,-0.00214572,0.00229576,0.000587442,-0.00407408,0.698638,0.00293155,0.0123959,692,757,-27.0048,4.22577
-525,267,-27.0633,-4.90771,-0.00115752,-0.002479,0.00246386,0.000732652,-0.00436918,0.654394,0.00318521,0.0115638,699,757,-27.0633,4.90771
-518,267,-27.1016,-5.6496,-0.000966142,-0.00250965,0.00240014,0.00078327,-0.00425906,0.629846,0.00313327,0.0130544,706,757,-27.1016,5.6496
-511,267,-27.0846,-6.36664,-0.000773651,-0.00258119,0.00199351,0.000511388,-0.00386623,0.572578,0.00276376,0.024736,713,757,-27.0846,6.36661
-504,267,-27.2491,-6.86584,-0.00040965,-0.00222544,0.00150098,0.000436654,-0.00307174,0.513402,0.00220782,0.0427509,720,757,-27.2491,6.86587
-497,267,-27.5111,-7.40649,0,0,0,0,0,0,0,-1,727,757,-27.5111,7.40651
-490,267,-23.4949,-0.494995,0,0,0,0,0,0,0,-1,734,757,-23.4949,0.494981
-483,267,-33.2785,-0.448425,0,0,0,0,0,0,0,-1,741,757,-33.2785,0.448407
-476,267,-40.2954,0.52002,0,0,0,0,0,0,0,-1,748,757,-40.2954,-0.520037
-469,267,-46.3036,1.60095,0,0,0,0,0,0,0,-1,755,757,-46.3037,-1.60096
-462,267,-47.325,0.750977,0,0,0,0,0,0,0,-1,762,757,-47.325,-0.75097
-455,267,-47.4183,1.00275,0,0,0,0,0,0,0,-1,769,757,-47.4184,-1.00275
-448,267,-45.463,0.364624,0,0,0,0,0,0,0,-1,776,757,-45.463,-0.364611
-441,267,0,0,0,0,0,0,0,0,0,-1,783,757,0,0
-434,267,0,0,0,0,0,0,0,0,0,-1,790,757,0,0
-427,267,0,0,0,0,0,0,0,0,0,-1,797,757,0,0
-420,267,0,0,0,0,0,0,0,0,0,-1,804,757,0,0
-413,267,0,0,0,0,0,0,0,0,0,-1,811,757,0,0
-406,267,0,0,0,0,0,0,0,0,0,-1,818,757,0,0
-399,267,0,0,0,0,0,0,0,0,0,-1,825,757,0,0
-392,267,0,0,0,0,0,0,0,0,0,-1,832,757,0,0
-385,267,0,0,0,0,0,0,0,0,0,-1,839,757,0,0
-378,267,0,0,0,0,0,0,0,0,0,-1,846,757,0,0
-371,267,0,0,0,0,0,0,0,0,0,-1,853,757,0,0
-364,267,0,0,0,0,0,0,0,0,0,-1,860,757,0,0
-357,267,0,0,0,0,0,0,0,0,0,-1,867,757,0,0
-350,267,0,0,0,0,0,0,0,0,0,-1,874,757,0,0
-343,267,0,0,0,0,0,0,0,0,0,-1,881,757,0,0
-336,267,0,0,0,0,0,0,0,0,0,-1,888,757,0,0
-329,267,0,0,0,0,0,0,0,0,0,-1,895,757,0,0
-322,267,0,0,0,0,0,0,0,0,0,-1,902,757,0,0
-315,267,0,0,0,0,0,0,0,0,0,-1,909,757,0,0
-308,267,0,0,0,0,0,0,0,0,0,-1,916,757,0,0
-301,267,0,0,0,0,0,0,0,0,0,-1,923,757,0,0
-294,267,0,0,0,0,0,0,0,0,0,-1,930,757,0,0
-287,267,0,0,0,0,0,0,0,0,0,-1,937,757,0,0
-280,267,0,0,0,0,0,0,0,0,0,-1,944,757,0,0
-273,267,0,0,0,0,0,0,0,0,0,-1,951,757,0,0
-266,267,0,0,0,0,0,0,0,0,0,-1,958,757,0,0
-259,267,0,0,0,0,0,0,0,0,0,-1,965,757,0,0
-252,267,0,0,0,0,0,0,0,0,0,-1,972,757,0,0
-245,267,0,0,0,0,0,0,0,0,0,-1,979,757,0,0
-238,267,0,0,0,0,0,0,0,0,0,-1,986,757,0,0
-231,267,0,0,0,0,0,0,0,0,0,-1,993,757,0,0
-224,267,0,0,0,0,0,0,0,0,0,-1,1000,757,0,0
-217,267,0,0,0,0,0,0,0,0,0,-1,1007,757,0,0
-210,267,0,0,0,0,0,0,0,0,0,-1,1014,757,0,0
-203,267,0,0,0,0,0,0,0,0,0,-1,1021,757,0,0
-196,267,0,0,0,0,0,0,0,0,0,-1,1028,757,0,0
-189,267,0,0,0,0,0,0,0,0,0,-1,1035,757,0,0
-182,267,0,0,0,0,0,0,0,0,0,-1,1042,757,0,0
-175,267,0,0,0,0,0,0,0,0,0,-1,1049,757,0,0
-168,267,0,0,0,0,0,0,0,0,0,-1,1056,757,0,0
-161,267,0,0,0,0,0,0,0,0,0,-1,1063,757,0,0
-154,267,0,0,0,0,0,0,0,0,0,-1,1070,757,0,0
-147,267,0,0,0,0,0,0,0,0,0,-1,1077,757,0,0
-140,267,0,0,0,0,0,0,0,0,0,-1,1084,757,0,0
-133,267,0,0,0,0,0,0,0,0,0,-1,1091,757,0,0
-126,267,0,0,0,0,0,0,0,0,0,-1,1098,757,0,0
-119,267,0,0,0,0,0,0,0,0,0,-1,1105,757,0,0
-112,267,0,0,0,0,0,0,0,0,0,-1,1112,757,0,0
-105,267,0,0,0,0,0,0,0,0,0,-1,1119,757,0,0
-98,267,0,0,0,0,0,0,0,0,0,-1,1126,757,0,0
-91,267,0,0,0,0,0,0,0,0,0,-1,1133,757,0,0
-84,267,0,0,0,0,0,0,0,0,0,-1,1140,757,0,0
-77,267,0,0,0,0,0,0,0,0,0,-1,1147,757,0,0
-70,267,0,0,0,0,0,0,0,0,0,-1,1154,757,0,0
-63,267,0,0,0,0,0,0,0,0,0,-1,1161,757,0,0
-56,267,0,0,0,0,0,0,0,0,0,-1,1168,757,0,0
-49,267,0,0,0,0,0,0,0,0,0,-1,1175,757,0,0
-42,267,0,0,0,0,0,0,0,0,0,-1,1182,757,0,0
-35,267,0,0,0,0,0,0,0,0,0,-1,1189,757,0,0
-28,267,0,0,0,0,0,0,0,0,0,-1,1196,757,0,0
-21,267,0,0,0,0,0,0,0,0,0,-1,1203,757,0,0
-14,267,0,0,0,0,0,0,0,0,0,-1,1210,757,0,0
-7,267,0,0,0,0,0,0,0,0,0,-1,1217,757,0,0
0,267,0,0,0,0,0,0,0,0,0,-1,1224,757,0,0
7,267,0,0,0,0,0,0,0,0,0,-1,1231,757,0,0
14,267,0,0,0,0,0,0,0,0,0,-1,1238,757,0,0
21,267,0,0,0,0,0,0,0,0,0,-1,1245,757,0,0
28,267,0,0,0,0,0,0,0,0,0,-1,1252,757,0,0
35,267,0,0,0,0,0,0,0,0,0,-1,1259,757,0,0
42,267,0,0,0,0,0,0,0,0,0,-1,1266,757,0,0
49,267,0,0,0,0,0,0,0,0,0,-1,1273,757,0,0
56,267,0,0,0,0,0,0,0,0,0,-1,1280,757,0,0
63,267,0,0,0,0,0,0,0,0,0,-1,1287,757,0,0
70,267,0,0,0,0,0,0,0,0,0,-1,1294,757,0,0
77,267,0,0,0,0,0,0,0,0,0,-1,1301,757,0,0
84,267,0,0,0,0,0,0,0,0,0,-1,1308,757,0,0
91,267,0,0,0,0,0,0,0,0,0,-1,1315,757,0,0
98,267,0,0,0,0,0,0,0,0,0,-1,1322,757,0,0
105,267,0,0,0,0,0,0,0,0,0,-1,1329,757,0,0
112,267,0,0,0,0,0,0,0,0,0,-1,1336,757,0,0
119,267,0,0,0,0,0,0,0,0,0,-1,1343,757,0,0
126,267,0,0,0,0,0,0,0,0,0,-1,1350,757,0,0
133,267,0,0,0,0,0,0,0,0,0,-1,1357,757,0,0
140,267,0,0,0,0,0,0,0,0,0,-1,1364,757,0,0
147,267,0,0,0,0,0,0,0,0,0,-1,1371,757,0,0
154,267,0,0,0,0,0,0,0,0,0,-1,1378,757,0,0
161,267,0,0,0,0,0,0,0,0,0,-1,1385,757,0,0
168,267,0,0,0,0,0,0,0,0,0,-1,1392,757,0,0
175,267,0,0,0,0,0,0,0,0,0,-1,1399,757,0,0
182,267,0,0,0,0,0,0,0,0,0,-1,1406,757,0,0
189,267,0,0,0,0,0,0,0,0,0,-1,1413,757,0,0
196,267,0,0,0,0,0,0,0,0,0,-1,1420,757,0,0
203,267,0,0,0,0,0,0,0,0,0,-1,1427,757,0,0
210,267,0,0,0,0,0,0,0,0,0,-1,1434,757,0,0
217,267,0,0,0,0,0,0,0,0,0,-1,1441,757,0,0
224,267,0,0,0,0,0,0,0,0,0,-1,1448,757,0,0
231,267,0,0,0,0,0,0,0,0,0,-1,1455,757,0,0
238,267,0,0,0,0,0,0,0,0,0,-1,1462,757,0,0
245,267,0,0,0,0,0,0,0,0,0,-1,1469,757,0,0
252,267,0,0,0,0,0,0,0,0,0,-1,1476,757,0,0
259,267,0,0,0,0,0,0,0,0,0,-1,1483,757,0,0
266,267,0,0,0,0,0,0,0,0,0,-1,1490,757,0,0
273,267,0,0,0,0,0,0,0,0,0,-1,1497,757,0,0
280,267,0,0,0,0,0,0,0,0,0,-1,1504,757,0,0
287,267,0,0,0,0,0,0,0,0,0,-1,1511,757,0,0
294,267,0,0,0,0,0,0,0,0,0,-1,1518,757,0,0
301,267,0,0,0,0,0,0,0,0,0,-1,1525,757,0,0
308,267,0,0,0,0,0,0,0,0,0,-1,1532,757,0,0
315,267,0,0,0,0,0,0,0,0,0,-1,1539,757,0,0
322,267,0,0,0,0,0,0,0,0,0,-1,1546,757,0,0
329,267,0,0,0,0,0,0,0,0,0,-1,1553,757,0,0
336,267,0,0,0,0,0,0,0,0,0,-1,1560,757,0,0
343,267,0,0,0,0,0,0,0,0,0,-1,1567,757,0,0
350,267,0,0,0,0,0,0,0,0,0,-1,1574,757,0,0
357,267,0,0,0,0,0,0,0,0,0,-1,1581,757,0,0
364,267,0,0,0,0,0,0,0,0,0,-1,1588,757,0,0
371,267,0,0,0,0,0,0,0,0,0,-1,1595,757,0,0
378,267,0,0,0,0,0,0,0,0,0,-1,1602,757,0,0
385,267,0,0,0,0,0,0,0,0,0,-1,1609,757,0,0
392,267,0,0,0,0,0,0,0,0,0,-1,1616,757,0,0
399,267,0,0,0,0,0,0,0,0,0,-1,1623,757,0,0
406,267,0,0,0,0,0,0,0,0,0,-1,1630,757,0,0
413,267,0,0,0,0,0,0,0,0,0,-1,1637,757,0,0
420,267,0,0,0,0,0,0,0,0,0,-1,1644,757,0,0
427,267,0,0,0,0,0,0,0,0,0,-1,1651,757,0,0
434,267,0,0,0,0,0,0,0,0,0,-1,1658,757,0,0
441,267,0,0,0,0,0,0,0,0,0,-1,1665,757,0,0
448,267,0,0,0,0,0,0,0,0,0,-1,1672,757,0,0
455,267,0,0,0,0,0,0,0,0,0,-1,1679,757,0,0
462,267,0,0,0,0,0,0,0,0,0,-1,1686,757,0,0
469,267,0,0,0,0,0,0,0,0,0,-1,1693,757,0,0
476,267,0,0,0,0,0,0,0,0,0,-1,1700,757,0,0
483,267,0,0,0,0,0,0,0,0,0,-1,1707,757,0,0
490,267,0,0,0,0,0,0,0,0,0,-1,1714,757,0,0
497,267,0,0,0,0,0,0,0,0,0,-1,1721,757,0,0
504,267,0,0,0,0,0,0,0,0,0,-1,1728,757,0,0
511,267,0,0,0,0,0,0,0,0,0,-1,1735,757,0,0
518,267,0,0,0,0,0,0,0,0,0,-1,1742,757,0,0
525,267,0,0,0,0,0,0,0,0,0,-1,1749,757,0,0
532,267,0,0,0,0,0,0,0,0,0,-1,1756,757,0,0
539,267,0,0,0,0,0,0,0,0,0,-1,1763,757,0,0
546,267,0,0,0,0,0,0,0,0,0,-1,1770,757,0,0
553,267,0,0,0,0,0,0,0,0,0,-1,1777,757,0,0
560,267,0,0,0,0,0,0,0,0,0,-1,1784,757,0,0
567,267,58.0104,3.24304,0,0,0,0,0,0,0,-1,1791,757,58.0104,-3.24306
574,267,61.2297,2.84723,0,0,0,0,0,0,0,-1,1798,757,61.2297,-2.84721
581,267,58.374,2.95636,0,0,0,0,0,0,0,-1,1805,757,58.3741,-2.95639
588,267,62.4063,1.87506,0,0,0,0,0,0,0,-1,1812,757,62.4062,-1.87503
595,267,62.2819,2.37317,0,0,0,0,0,0,0,-1,1819,757,62.2819,-2.37317
602,267,62.4508,2.7738,0,0,0,0,0,0,0,-1,1826,757,62.4508,-2.77381
609,267,54.5498,3.24054,0,0,0,0,0,0,0,-1,1833,757,54.5498,-3.24052
616,267,44.2543,3.28918,0,0,0,0,0,0,0,-1,1840,757,44.2542,-3.28918
623,267,24.1475,-1.1391,0,0,0,0,0,0,0,-1,1847,757,24.1475,1.13913
630,267,40.7198,-5.42108,0,0,0,0,0,0,0,-1,1854,757,40.7198,5.4211
637,267,40.3988,-4.94818,0.00218032,0.000128505,0.00200138,0.00340341,-0.00109459,0.548561,0.00270856,0.0499001,1861,757,40.3988,4.94816
644,267,40.3004,-4.32898,0.00146319,2.82573e-05,0.0018755,0.00275377,-0.00126232,0.602712,0.00237139,0.0170887,1868,757,40.3004,4.32897
651,267,40.2668,-3.49475,0.00101583,1.41713e-05,0.00122227,0.00183589,-0.000805898,0.590956,0.0015634,0.0150244,1875,757,40.2668,3.49473
658,267,40.2629,-2.76263,0.00089395,-0.000168145,0.000632914,0.00118909,-0.000463289,0.436346,0.000984203,0.0154698,1882,757,40.2629,2.76264
665,267,40.233,-2.01532,0.000766317,0.000187442,0.000491833,0.00104756,-9.37986e-05,0.519443,0.000731645,0.0159395,1889,757,40.233,2.01531
672,267,40.2036,-1.27344,0.000731537,0.000601566,0.000447002,0.00111825,0.00021485,0.713214,0.000685207,0.0142368,1896,757,40.2036,1.27341
679,267,40.1548,-0.527771,0.000670921,0.00121785,0.000403324,0.00143168,0.000457094,1.08331,0.000844388,0.0136275,1903,757,40.1548,0.527767
686,267,40.1316,0.233459,0.00061911,0.00197632,0.000406662,0.00208884,0.00050659,1.30086,0.00125817,0.0162498,1910,757,40.1316,-0.233449
693,267,40.059,0.960266,0.000524503,0.00281358,0.000397691,0.0028807,0.000457379,1.40359,0.00178762,0.0156931,1917,757,40.059,-0.960289
700,267,40.0305,1.72443,0.000359622,0.00388404,0.000376749,0.00392387,0.000319798,1.46548,0.0025161,0.0148099,1924,757,40.0305,-1.72444
707,267,40.0104,2.47253,0.000112625,0.00496462,0.000395079,0.00499658,8.06656e-05,1.49008,0.00330449,0.017849,1931,757,40.0104,-2.47254
714,267,40.0391,3.20386,1.28654e-05,0.00660297,0.0006496,0.0066664,-5.05568e-05,1.47347,0.00446121,0.0434651,1938,757,40.039,-3.20387
721,267,40.1765,3.94885,0,0,0,0,0,0,0,-1,1945,757,40.1766,-3.94886
728,267,26.7886,3.90027,0,0,0,0,0,0,0,-1,1952,757,26.7886,-3.90028
735,267,24.6713,2.82483,0,0,0,0,0,0,0,-1,1959,757,24.6713,-2.82483
742,267,18.1177,3.56561,0,0,0,0,0,0,0,-1,1966,757,18.1176,-3.56564
749,267,0,0,0,0,0,0,0,0,0,-1,1973,757,0,0
756,267,0,0,0,0,0,0,0,0,0,-1,1980,757,0,0
763,267,0,0,0,0,0,0,0,0,0,-1,1987,757,0,0
770,267,0,0,0,0,0,0,0,0,0,-1,1994,757,0,0
777,267,0,0,0,0,0,0,0,0,0,-1,2001,757,0,0
784,267,0,0,0,0,0,0,0,0,0,-1,2008,757,0,0
791,267,0,0,0,0,0,0,0,0,0,-1,2015,757,0,0
798,267,0,0,0,0,0,0,0,0,0,-1,2022,757,0,0
805,267,0,0,0,0,0,0,0,0,0,-1,2029,757,0,0
812,267,0,0,0,0,0,0,0,0,0,-1,2036,757,0,0
-700,260,0,0,0,0,0,0,0,0,0,-1,524,764,0,0
-693,260,0,0,0,0,0,0,0,0,0,-1,531,764,0,0
-686,260,0,0,0,0,0,0,0,0,0,-1,538,764,0,0
-679,260,0,0,0,0,0,0,0,0,0,-1,545,764,0,0
-672,260,0,0,0,0,0,0,0,0,0,-1,552,764,0,0
-665,260,0,0,0,0,0,0,0,0,0,-1,559,764,0,0
-658,260,0,0,0,0,0,0,0,0,0,-1,566,764,0,0
-651,260,0,0,0,0,0,0,0,0,0,-1,573,764,0,0
-644,260,0,0,0,0,0,0,0,0,0,-1,580,764,0,0
-637,260,0,0,0,0,0,0,0,0,0,-1,587,764,0,0
-630,260,-21.8905,4.49341,0,0,0,0,0,0,0,-1,594,764,-21.8905,-4.49342
-623,260,-20.3127,3.53546,0,0,0,0,0,0,0,-1,601,764,-20.3127,-3.53544
-616,260,-23.4346,3.65009,0,0,0,0,0,0,0,-1,608,764,-23.4345,-3.65008
-609,260,-27.8874,4.42004,0,0,0,0,0,0,0,-1,615,764,-27.8874,-4.42005
-602,260,-27.5727,3.89905,0,0,0,0,0,0,0,-1,622,764,-27.5727,-3.89904
-595,260,-27.6994,2.19781,0,0,0,0,0,0,0,-1,629,764,-27.6994,-2.19781
-588,260,-27.6224,1.51343,0.0174886,0.00321423,0.00328293,0.0182074,0.0024954,0.215559,0.0113979,0.0468502,636,764,-27.6224,-1.5134
-581,260,-27.5736,0.842407,0.0114914,0.00300761,0.00211355,0.0119888,0.00251023,0.231126,0.00730107,0.0296564,643,764,-27.5736,-0.842437
-574,260,-27.5302,0.154297,0.00717905,0.00266816,0.00157078,0.00767213,0.00217509,0.304166,0.00456582,0.0196987,650,764,-27.5302,-0.154284
-567,260,-27.5679,-0.524902,0.00414847,0.00191522,0.00140172,0.00482396,0.00123973,0.449062,0.00289268,0.0186814,657,764,-27.5679,0.524921
-560,260,-27.5916,-1.25336,0.00198733,0.00110953,0.00142521,0.00303969,5.71712e-05,0.636028,0.00200767,0.0210209,664,764,-27.5916,1.25333
-553,260,-27.655,-1.98151,0.000462269,9.66481e-05,0.0016723,0.00196172,-0.00140281,0.730956,0.00195143,0.0179963,671,764,-27.655,1.98152
-546,260,-27.6921,-2.73535,-0.000560538,-0.000879296,0.00202445,0.0013108,-0.00275063,0.746116,0.00239348,0.012114,678,764,-27.6921,2.73535
-539,260,-27.7042,-3.47021,-0.00156852,-0.00192663,0.00240111,0.000660207,-0.00415536,0.748182,0.0030145,0.0136552,685,764,-27.7042,3.47021
-532,260,-27.7153,-4.14807,-0.00160118,-0.00282187,0.00262578,0.000484261,-0.00490731,0.671204,0.00344433,0.0181781,692,764,-27.7152,4.14806
-525,260,-27.7683,-4.88092,-0.0012738,-0.00296465,0.00267583,0.000686978,-0.00492543,0.632386,0.00353494,0.0156249,699,764,-27.7683,4.88093
-518,260,-27.8766,-5.58282,-0.000980454,-0.00290622,0.0024955,0.000731482,-0.00461816,0.601275,0.00334933,0.0221364,706,764,-27.8767,5.58284
-511,260,-27.8979,-6.23749,-0.000673676,-0.00295186,0.00197951,0.000471091,-0.00409662,0.524316,0.00290089,0.0417449,713,764,-27.8979,6.23749
-504,260,-27.9346,-6.5625,0,0,0,0,0,0,0,-1,720,764,-27.9346,6.5625
-497,260,-16.6542,-3.67334,0,0,0,0,0,0,0,-1,727,764,-16.6542,3.67331
-490,260,-29.4557,0.921387,0,0,0,0,0,0,0,-1,734,764,-29.4557,-0.921369
-483,260,-40.8972,1.04193,0,0,0,0,0,0,0,-1,741,764,-40.8972,-1.04193
-476,260,-46.4792,1.90405,0,0,0,0,0,0,0,-1,748,764,-46.4792,-1.90406
-469,260,-46.5152,1.49585,0,0,0,0,0,0,0,-1,755,764,-46.5152,-1.49586
-462,260,-46.5512,1.08765,0,0,0,0,0,0,0,-1,762,764,-46.5512,-1.08765
-455,260,-46.8854,0.860229,0,0,0,0,0,0,0,-1,769,764,-46.8854,-0.86025
-448,260,0,0,0,0,0,0,0,0,0,-1,776,764,0,0
-441,260,0,0,0,0,0,0,0,0,0,-1,783,764,0,0
-434,260,0,0,0,0,0,0,0,0,0,-1,790,764,0,0
-427,260,0,0,0,0,0,0,0,0,0,-1,797,764,0,0
-420,260,0,0,0,0,0,0,0,0,0,-1,804,764,0,0
-413,260,0,0,0,0,0,0,0,0,0,-1,811,764,0,0
-406,260,0,0,0,0,0,0,0,0,0,-1,818,764,0,0
-399,260,0,0,0,0,0,0,0,0,0,-1,825,764,0,0
-392,260,0,0,0,0,0,0,0,0,0,-1,832,764,0,0
-385,260,0,0,0,0,0,0,0,0,0,-1,839,764,0,0
-378,260,0,0,0,0,0,0,0,0,0,-1,846,764,0,0
-371,260,0,0,0,0,0,0,0,0,0,-1,853,764,0,0
-364,260,0,0,0,0,0,0,0,0,0,-1,860,764,0,0
-357,260,0,0,0,0,0,0,0,0,0,-1,867,764,0,0
-350,260,0,0,0,0,0,0,0,0,0,-1,874,764,0,0
-343,260,0,0,0,0,0,0,0,0,0,-1,881,764,0,0
-336,260,0,0,0,0,0,0,0,0,0,-1,888,764,0,0
-329,260,0,0,0,0,0,0,0,0,0,-1,895,764,0,0
-322,260,0,0,0,0,0,0,0,0,0,-1,902,764,0,0
-315,260,0,0,0,0,0,0,0,0,0,-1,909,764,0,0
-308,260,0,0,0,0,0,0,0,0,0,-1,916,764,0,0
-301,260,0,0,0,0,0,0,0,0,0,-1,923,764,0,0
-294,260,0,0,0,0,0,0,0,0,0,-1,930,764,0,0
-287,260,0,0,0,0,0,0,0,0,0,-1,937,764,0,0
-280,260,0,0,0,0,0,0,0,0,0,-1,944,764,0,0
-273,260,0,0,0,0,0,0,0,0,0,-1,951,764,0,0
-266,260,0,0,0,0,0,0,0,0,0,-1,958,764,0,0
-259,260,0,0,0,0,0,0,0,0,0,-1,965,764,0,0
-252,260,0,0,0,0,0,0,0,0,0,-1,972,764,0,0
-245,260,0,0,0,0,0,0,0,0,0,-1,979,764,0,0
-238,260,0,0,0,0,0,0,0,0,0,-1,986,764,0,0
-231,260,0,0,0,0,0,0,0,0,0,-1,993,764,0,0
-224,260,0,0,0,0,0,0,0,0,0,-1,1000,764,0,0
-217,260,0,0,0,0,0,0,0,0,0,-1,1007,764,0,0
-210,260,0,0,0,0,0,0,0,0,0,-1,1014,764,0,0
-203,260,0,0,0,0,0,0,0,0,0,-1,1021,764,0,0
-196,260,0,0,0,0,0,0,0,0,0,-1,1028,764,0,0
-189,260,0,0,0,0,0,0,0,0,0,-1,1035,764,0,0
-182,260,0,0,0,0,0,0,0,0,0,-1,1042,764,0,0
-175,260,0,0,0,0,0,0,0,0,0,-1,1049,764,0,0
-168,260,0,0,0,0,0,0,0,0,0,-1,1056,764,0,0
-161,260,0,0,0,0,0,0,0,0,0,-1,1063,764,0,0
-154,260,0,0,0,0,0,0,0,0,0,-1,1070,764,0,0
-147,260,0,0,0,0,0,0,0,0,0,-1,1077,764,0,0
-140,260,0,0,0,0,0,0,0,0,0,-1,1084,764,0,0
-133,260,0,0,0,0,0,0,0,0,0,-1,1091,764,0,0
-126,260,0,0,0,0,0,0,0,0,0,-1,1098,764,0,0
-119,260,0,0,0,0,0,0,0,0,0,-1,1105,764,0,0
-112,260,0,0,0,0,0,0,0,0,0,-1,1112,764,0,0
-105,260,0,0,0,0,0,0,0,0,0,-1,1119,764,0,0
-98,260,0,0,0,0,0,0,0,0,0,-1,1126,764,0,0
-91,260,0,0,0,0,0,0,0,0,0,-1,1133,764,0,0
-84,260,0,0,0,0,0,0,0,0,0,-1,1140,764,0,0
-77,260,0,0,0,0,0,0,0,0,0,-1,1147,764,0,0
-70,260,0,0,0,0,0,0,0,0,0,-1,1154,764,0,0
-63,260,0,0,0,0,0,0,0,0,0,-1,1161,764,0,0
-56,260,0,0,0,0,0,0,0,0,0,-1,1168,764,0,0
-49,260,0,0,0,0,0,0,0,0,0,-1,1175,764,0,0
-42,260,0,0,0,0,0,0,0,0,0,-1,1182,764,0,0
-35,260,0,0,0,0,0,0,0,0,0,-1,1189,764,0,0
-28,260,0,0,0,0,0,0,0,0,0,-1,1196,764,0,0
-21,260,0,0,0,0,0,0,0,0,0,-1,1203,764,0,0
-14,260,0,0,0,0,0,0,0,0,0,-1,1210,764,0,0
-7,260,0,0,0,0,0,0,0,0,0,-1,1217,764,0,0
0,260,0,0,0,0,0,0,0,0,0,-1,1224,764,0,0
7,260,0,0,0,0,0,0,0,0,0,-1,1231,764,0,0
14,260,0,0,0,0,0,0,0,0,0,-1,1238,764,0,0
21,260,0,0,0,0,0,0,0,0,0,-1,1245,764,0,0
28,260,0,0,0,0,0,0,0,0,0,-1,1252,764,0,0
35,260,0,0,0,0,0,0,0,0,0,-1,1259,764,0,0
42,260,0,0,0,0,0,0,0,0,0,-1,1266,764,0,0
49,260,0,0,0,0,0,0,0,0,0,-1,1273,764,0,0
56,260,0,0,0,0,0,0,0,0,0,-1,1280,764,0,0
63,260,0,0,0,0,0,0,0,0,0,-1,1287,764,0,0
70,260,0,0,0,0,0,0,0,0,0,-1,1294,764,0,0
77,260,0,0,0,0,0,0,0,0,0,-1,1301,764,0,0
84,260,0,0,0,0,0,0,0,0,0,-1,1308,764,0,0
91,260,0,0,0,0,0,0,0,0,0,-1,1315,764,0,0
98,260,0,0,0,0,0,0,0,0,0,-1,1322,764,0,0
105,260,0,0,0,0,0,0,0,0,0,-1,1329,764,0,0
112,260,0,0,0,0,0,0,0,0,0,-1,1336,764,0,0
119,260,0,0,0,0,0,0,0,0,0,-1,1343,764,0,0
126,260,0,0,0,0,0,0,0,0,0,-1,1350,764,0,0
133,260,0,0,0,0,0,0,0,0,0,-1,1357,764,0,0
140,260,0,0,0,0,0,0,0,0,0,-1,1364,764,0,0
147,260,0,0,0,0,0,0,0,0,0,-1,1371,764,0,0
154,260,0,0,0,0,0,0,0,0,0,-1,1378,764,0,0
161,260,0,0,0,0,0,0,0,0,0,-1,1385,764,0,0
168,260,0,0,0,0,0,0,0,0,0,-1,1392,764,0,0
175,260,0,0,0,0,0,0,0,0,0,-1,1399,764,0,0
182,260,0,0,0,0,0,0,0,0,0,-1,1406,764,0,0
189,260,0,0,0,0,0,0,0,0,0,-1,1413,764,0,0
196,260,0,0,0,0,0,0,0,0,0,-1,1420,764,0,0
203,260,0,0,0,0,0,0,0,0,0,-1,1427,764,0,0
210,260,0,0,0,0,0,0,0,0,0,-1,1434,764,0,0
217,260,0,0,0,0,0,0,0,0,0,-1,1441,764,0,0
224,260,0,0,0,0,0,0,0,0,0,-1,1448,764,0,0
231,260,0,0,0,0,0,0,0,0,0,-1,1455,764,0,0
238,260,0,0,0,0,0,0,0,0,0,-1,1462,764,0,0
245,260,0,0,0,0,0,0,0,0,0,-1,1469,764,0,0
252,260,0,0,0,0,0,0,0,0,0,-1,1476,764,0,0
259,260,0,0,0,0,0,0,0,0,0,-1,1483,764,0,0
266,260,0,0,0,0,0,0,0,0,0,-1,1490,764,0,0
273,260,0,0,0,0,0,0,0,0,0,-1,1497,764,0,0
280,260,0,0,0,0,0,0,0,0,0,-1,1504,764,0,0
287,260,0,0,0,0,0,0,0,0,0,-1,1511,764,0,0
294,260,0,0,0,0,0,0,0,0,0,-1,1518,764,0,0
301,260,0,0,0,0,0,0,0,0,0,-1,1525,764,0,0
308,260,0,0,0,0,0,0,0,0,0,-1,1532,764,0,0
315,260,0,0,0,0,0,0,0,0,0,-1,1539,764,0,0
322,260,0,0,0,0,0,0,0,0,0,-1,1546,764,0,0
329,260,0,0,0,0,0,0,0,0,0,-1,1553,764,0,0
336,260,0,0,0,0,0,0,0,0,0,-1,1560,764,0,0
343,260,0,0,0,0,0,0,0,0,0,-1,1567,764,0,0
350,260,0,0,0,0,0,0,0,0,0,-1,1574,764,0,0
357,260,0,0,0,0,0,0,0,0,0,-1,1581,764,0,0
364,260,0,0,0,0,0,0,0,0,0,-1,1588,764,0,0
371,260,0,0,0,0,0,0,0,0,0,-1,1595,764,0,0
378,260,0,0,0,0,0,0,0,0,0,-1,1602,764,0,0
385,260,0,0,0,0,0,0,0,0,0,-1,1609,764,0,0
392,260,0,0,0,0,0,0,0,0,0,-1,1616,764,0,0
399,260,0,0,0,0,0,0,0,0,0,-1,1623,764,0,0
406,260,0,0,0,0,0,0,0,0,0,-1,1630,764,0,0
413,260,0,0,0,0,0,0,0,0,0,-1,1637,764,0,0
420,260,0,0,0,0,0,0,0,0,0,-1,1644,764,0,0
427,260,0,0,0,0,0,0,0,0,0,-1,1651,764,0,0
434,260,0,0,0,0,0,0,0,0,0,-1,1658,764,0,0
441,260,0,0,0,0,0,0,0,0,0,-1,1665,764,0,0
448,260,0,0,0,0,0,0,0,0,0,-1,1672,764,0,0
455,260,0,0,0,0,0,0,0,0,0,-1,1679,764,0,0
462,260,0,0,0,0,0,0,0,0,0,-1,1686,764,0,0
469,260,0,0,0,0,0,0,0,0,0,-1,1693,764,0,0
476,260,0,0,0,0,0,0,0,0,0,-1,1700,764,0,0
483,260,0,0,0,0,0,0,0,0,0,-1,1707,764,0,0
490,260,0,0,0,0,0,0,0,0,0,-1,1714,764,0,0
497,260,0,0,0,0,0,0,0,0,0,-1,1721,764,0,0
504,260,0,0,0,0,0,0,0,0,0,-1,1728,764,0,0
511,260,0,0,0,0,0,0,0,0,0,-1,1735,764,0,0
518,260,0,0,0,0,0,0,0,0,0,-1,1742,764,0,0
525,260,0,0,0,0,0,0,0,0,0,-1,1749,764,0,0
532,260,0,0,0,0,0,0,0,0,0,-1,1756,764,0,0
539,260,0,0,0,0,0,0,0,0,0,-1,1763,764,0,0
546,260,0,0,0,0,0,0,0,0,0,-1,1770,764,0,0
553,260,0,0,0,0,0,0,0,0,0,-1,1777,764,0,0
560,260,0,0,0,0,0,0,0,0,0,-1,1784,764,0,0
567,260,0,0,0,0,0,0,0,0,0,-1,1791,764,0,0
574,260,61.1333,2.70477,0,0,0,0,0,0,0,-1,1798,764,61.1333,-2.70478
581,260,60.964,2.98224,0,0,0,0,0,0,0,-1,1805,764,60.964,-2.98226
588,260,61.5406,3.14264,0,0,0,0,0,0,0,-1,1812,764,61.5407,-3.14261
595,260,62.1793,2.25293,0,0,0,0,0,0,0,-1,1819,764,62.1794,-2.25295
602,260,62.2919,2.60699,0,0,0,0,0,0,0,-1,1826,764,62.2918,-2.60697
609,260,62.3894,2.95746,0,0,0,0,0,0,0,-1,1833,764,62.3894,-2.95748
616,260,46.0709,2.74542,0,0,0,0,0,0,0,-1,1840,764,46.0709,-2.74545
623,260,32.2268,3.25836,0,0,0,0,0,0,0,-1,1847,764,32.2268,-3.25833
630,260,24.3739,-0.536316,0,0,0,0,0,0,0,-1,1854,764,24.3739,0.536343
637,260,41.3544,-5.27704,0,0,0,0,0,0,0,-1,1861,764,41.3544,5.27702
644,260,41.2673,-4.39862,0.00127787,9.98109e-05,0.00214132,0.00290969,-0.00153202,0.651179,0.00260521,0.0484426,1868,764,41.2674,4.3986
651,260,41.1064,-3.44543,0.00080543,7.06791e-05,0.00145846,0.00194208,-0.00106597,0.662019,0.00176108,0.020242,1875,764,41.1064,3.44544
658,260,41.0336,-2.7002,0.0006145,-0.000208653,0.000732967,0.00104354,-0.000637692,0.529575,0.000980042,0.0172248,1882,764,41.0335,2.7002
665,260,40.9908,-1.97003,0.000380722,2.8856e-05,0.000456124,0.000693667,-0.000284089,0.601334,0.000580783,0.0171506,1889,764,40.9908,1.97006
672,260,40.9518,-1.2207,0.000333876,0.000297093,0.000293816,0.000609875,2.10938e-05,0.754142,0.000399738,0.0150456,1896,764,40.9518,1.22069
679,260,40.8785,-0.487732,0.000341807,0.000762023,0.000167435,0.000820578,0.000283252,1.23437,0.000481271,0.0142065,1903,764,40.8786,0.487745
686,260,40.8302,0.272461,0.000396665,0.00143822,0.000132339,0.00145478,0.000380113,1.44637,0.000871239,0.0197402,1910,764,40.8302,-0.272452
693,260,40.7788,0.98114,0.000428372,0.00220595,0.000109494,0.00221266,0.000421653,1.50951,0.00135658,0.019014,1917,764,40.7788,-0.981164
700,260,40.7437,1.73053,0.000432465,0.00311436,5.67864e-05,0.00311556,0.000431263,1.54963,0.00194925,0.0150384,1924,764,40.7436,-1.7305
707,260,40.7419,2.49506,0.000386434,0.00411193,1.89741e-05,0.00411202,0.000386338,1.5657,0.00262207,0.0150574,1931,764,40.7419,-2.49506
714,260,40.7098,3.19031,0.000473256,0.00553064,0.000157838,0.00553556,0.000468335,1.53963,0.00354459,0.0310592,1938,764,40.7098,-3.19032
721,260,40.6711,3.88965,0,0,0,0,0,0,0,-1,1945,764,40.6711,-3.88963
728,260,33.4344,5.75409,0,0,0,0,0,0,0,-1,1952,764,33.4345,-5.75408
735,260,26.9788,4.85681,0,0,0,0,0,0,0,-1,1959,764,26.9787,-4.85678
742,260,32.1443,1.73688,0,0,0,0,0,0,0,-1,1966,764,32.1442,-1.73688
749,260,33.6013,2.94733,0,0,0,0,0,0,0,-1,1973,764,33.6013,-2.9473
756,260,0,0,0,0,0,0,0,0,0,-1,1980,764,0,0
763,260,0,0,0,0,0,0,0,0,0,-1,1987,764,0,0
770,260,0,0,0,0,0,0,0,0,0,-1,1994,764,0,0
777,260,0,0,0,0,0,0,0,0,0,-1,2001,764,0,0
784,260,0,0,0,0,0,0,0,0,0,-1,2008,764,0,0
791,260,0,0,0,0,0,0,0,0,0,-1,2015,764,0,0
798,260,0,0,0,0,0,0,0,0,0,-1,2022,764,0,0
805,260,0,0,0,0,0,0,0,0,0,-1,2029,764,0,0
812,260,0,0,0,0,0,0,0,0,0,-1,2036,764,0,0
-700,253,0,0,0,0,0,0,0,0,0,-1,524,771,0,0
-693,253,0,0,0,0,0,0,0,0,0,-1,531,771,0,0
-686,253,0,0,0,0,0,0,0,0,0,-1,538,771,0,0
-679,253,0,0,0,0,0,0,0,0,0,-1,545,771,0,0
-672,253,0,0,0,0,0,0,0,0,0,-1,552,771,0,0
-665,253,0,0,0,0,0,0,0,0,0,-1,559,771,0,0
-658,253,0,0,0,0,0,0,0,0,0,-1,566,771,0,0
-651,253,0,0,0,0,0,0,0,0,0,-1,573,771,0,0
-644,253,0,0,0,0,0,0,0,0,0,-1,580,771,0,0
-637,253,-24.7979,-0.491394,0,0,0,0,0,0,0,-1,587,771,-24.7978,0.491371
-630,253,-25.156,0.540405,0,0,0,0,0,0,0,-1,594,771,-25.156,-0.540421
-623,253,-20.808,2.84314,0,0,0,0,0,0,0,-1,601,771,-20.8081,-2.84312
-616,253,-25.0877,2.96875,0,0,0,0,0,0,0,-1,608,771,-25.0877,-2.96876
-609,253,-24.28,2.08228,0,0,0,0,0,0,0,-1,615,771,-24.2801,-2.08227
-602,253,-28.8701,2.88116,0,0,0,0,0,0,0,-1,622,771,-28.8701,-2.88119
-595,253,-28.5767,2.26093,0.0234801,0.00153906,0.00428333,0.0242866,0.000732511,0.186119,0.0159525,0.0464814,629,771,-28.5767,-2.26094
-588,253,-28.3031,1.53845,0.0165507,0.00213117,0.00290693,0.0171146,0.0015672,0.191628,0.0109249,0.0389897,636,771,-28.3031,-1.53848
-581,253,-28.261,0.84198,0.0111505,0.00212729,0.00192342,0.0115434,0.00173439,0.201497,0.00718757,0.0265612,643,771,-28.261,-0.841967
-574,253,-28.2794,0.151428,0.00706103,0.00189197,0.00150468,0.00746713,0.00148587,0.26361,0.00456415,0.0221224,650,771,-28.2793,-0.151409
-567,253,-28.3168,-0.581421,0.00403856,0.00127732,0.00142025,0.00463865,0.000677226,0.399774,0.00289323,0.0173196,657,771,-28.3168,0.581432
-560,253,-28.3239,-1.23566,0.00178727,0.000533652,0.001546,0.0028287,-0.000507778,0.592806,0.00207586,0.0137639,664,771,-28.3239,1.23565
-553,253,-28.3569,-1.94696,0.000191591,-0.000499177,0.0018822,0.00175984,-0.00206742,0.694658,0.00221205,0.0125878,671,771,-28.3569,1.94695
-546,253,-28.4069,-2.66882,-0.000879282,-0.00148979,0.00227842,0.00111424,-0.00348331,0.718807,0.00276937,0.0110214,678,771,-28.4068,2.66885
-539,253,-28.4753,-3.42065,-0.00185669,-0.00256595,0.00265763,0.000469866,-0.00489251,0.719071,0.00342904,0.0133225,685,771,-28.4753,3.42065
-532,253,-28.4673,-4.146,-0.00178204,-0.00348017,0.0027508,0.00024775,-0.00550996,0.635706,0.00375861,0.0178736,692,771,-28.4673,4.14601
-525,253,-28.4808,-4.85681,-0.00140931,-0.00352947,0.00271264,0.00044303,-0.00538181,0.599125,0.0037443,0.0197979,699,771,-28.4808,4.85683
-518,253,-28.6201,-5.60803,-0.00110648,-0.00348313,0.00247162,0.00044764,-0.00503725,0.561319,0.00351689,0.0367449,706,771,-28.62,5.60804
-511,253,-28.8871,-6.26361,0,0,0,0,0,0,0,-1,713,771,-28.8872,6.26361
-504,253,-19.317,-4.1723,0,0,0,0,0,0,0,-1,720,771,-19.317,4.1723
-497,253,-21.7737,-1.76837,0,0,0,0,0,0,0,-1,727,771,-21.7738,1.7684
-490,253,-29.7674,0.438354,0,0,0,0,0,0,0,-1,734,771,-29.7674,-0.438339
-483,253,-45.4489,1.59302,0,0,0,0,0,0,0,-1,741,771,-45.4489,-1.59303
-476,253,-46.8226,1.4986,0,0,0,0,0,0,0,-1,748,771,-46.8226,-1.49862
-469,253,-46.7278,1.36206,0,0,0,0,0,0,0,-1,755,771,-46.7278,-1.36206
-462,253,-46.8425,1.17108,0,0,0,0,0,0,0,-1,762,771,-46.8425,-1.1711
-455,253,-45.5858,0.991638,0,0,0,0,0,0,0,-1,769,771,-45.5857,-0.991648
-448,253,0,0,0,0,0,0,0,0,0,-1,776,771,0,0
-441,253,0,0,0,0,0,0,0,0,0,-1,783,771,0,0
-434,253,0,0,0,0,0,0,0,0,0,-1,790,771,0,0
-427,253,0,0,0,0,0,0,0,0,0,-1,797,771,0,0
-420,253,0,0,0,0,0,0,0,0,0,-1,804,771,0,0
-413,253,0,0,0,0,0,0,0,0,0,-1,811,771,0,0
-406,253,0,0,0,0,0,0,0,0,0,-1,818,771,0,0
-399,253,0,0,0,0,0,0,0,0,0,-1,825,771,0,0
-392,253,0,0,0,0,0,0,0,0,0,-1,832,771,0,0
-385,253,0,0,0,0,0,0,0,0,0,-1,839,771,0,0
-378,253,0,0,0,0,0,0,0,0,0,-1,846,771,0,0
-371,253,0,0,0,0,0,0,0,0,0,-1,853,771,0,0
-364,253,0,0,0,0,0,0,0,0,0,-1,860,771,0,0
-357,253,0,0,0,0,0,0,0,0,0,-1,867,771,0,0
-350,253,0,0,0,0,0,0,0,0,0,-1,874,771,0,0
-343,253,0,0,0,0,0,0,0,0,0,-1,881,771,0,0
-336,253,0,0,0,0,0,0,0,0,0,-1,888,771,0,0
-329,253,0,0,0,0,0,0,0,0,0,-1,895,771,0,0
-322,253,0,0,0,0,0,0,0,0,0,-1,902,771,0,0
-315,253,0,0,0,0,0,0,0,0,0,-1,909,771,0,0
-308,253,0,0,0,0,0,0,0,0,0,-1,916,771,0,0
-301,253,0,0,0,0,0,0,0,0,0,-1,923,771,0,0
-294,253,0,0,0,0,0,0,0,0,0,-1,930,771,0,0
-287,253,0,0,0,0,0,0,0,0,0,-1,937,771,0,0
-280,253,0,0,0,0,0,0,0,0,0,-1,944,771,0,0
-273,253,0,0,0,0,0,0,0,0,0,-1,951,771,0,0
-266,253,0,0,0,0,0,0,0,0,0,-1,958,771,0,0
-259,253,0,0,0,0,0,0,0,0,0,-1,965,771,0,0
-252,253,0,0,0,0,0,0,0,0,0,-1,972,771,0,0
-245,253,0,0,0,0,0,0,0,0,0,-1,979,771,0,0
-238,253,0,0,0,0,0,0,0,0,0,-1,986,771,0,0
-231,253,0,0,0,0,0,0,0,0,0,-1,993,771,0,0
-224,253,0,0,0,0,0,0,0,0,0,-1,1000,771,0,0
-217,253,0,0,0,0,0,0,0,0,0,-1,1007,771,0,0
-210,253,0,0,0,0,0,0,0,0,0,-1,1014,771,0,0
-203,253,0,0,0,0,0,0,0,0,0,-1,1021,771,0,0
-196,253,0,0,0,0,0,0,0,0,0,-1,1028,771,0,0
-189,253,0,0,0,0,0,0,0,0,0,-1,1035,771,0,0
-182,253,0,0,0,0,0,0,0,0,0,-1,1042,771,0,0
-175,253,0,0,0,0,0,0,0,0,0,-1,1049,771,0,0
-168,253,0,0,0,0,0,0,0,0,0,-1,1056,771,0,0
-161,253,0,0,0,0,0,0,0,0,0,-1,1063,771,0,0
-154,253,0,0,0,0,0,0,0,0,0,-1,1070,771,0,0
-147,253,0,0,0,0,0,0,0,0,0,-1,1077,771,0,0
-140,253,0,0,0,0,0,0,0,0,0,-1,1084,771,0,0
-133,253,0,0,0,0,0,0,0,0,0,-1,1091,771,0,0
-126,253,0,0,0,0,0,0,0,0,0,-1,1098,771,0,0
-119,253,0,0,0,0,0,0,0,0,0,-1,1105,771,0,0
-112,253,0,0,0,0,0,0,0,0,0,-1,1112,771,0,0
-105,253,0,0,0,0,0,0,0,0,0,-1,1119,771,0,0
-98,253,0,0,0,0,0,0,0,0,0,-1,1126,771,0,0
-91,253,0,0,0,0,0,0,0,0,0,-1,1133,771,0,0
-84,253,0,0,0,0,0,0,0,0,0,-1,1140,771,0,0
-77,253,0,0,0,0,0,0,0,0,0,-1,1147,771,0,0
-70,253,0,0,0,0,0,0,0,0,0,-1,1154,771,0,0
-63,253,0,0,0,0,0,0,0,0,0,-1,1161,771,0,0
-56,253,0,0,0,0,0,0,0,0,0,-1,1168,771,0,0
-49,253,0,0,0,0,0,0,0,0,0,-1,1175,771,0,0
-42,253,0,0,0,0,0,0,0,0,0,-1,1182,771,0,0
-35,253,0,0,0,0,0,0,0,0,0,-1,1189,771,0,0
-28,253,0,0,0,0,0,0,0,0,0,-1,1196,771,0,0
-21,253,0,0,0,0,0,0,0,0,0,-1,1203,771,0,0
-14,253,0,0,0,0,0,0,0,0,0,-1,1210,771,0,0
-7,253,0,0,0,0,0,0,0,0,0,-1,1217,771,0,0
0,253,0,0,0,0,0,0,0,0,0,-1,1224,771,0,0
7,253,0,0,0,0,0,0,0,0,0,-1,1231,771,0,0
14,253,0,0,0,0,0,0,0,0,0,-1,1238,771,0,0
21,253,0,0,0,0,0,0,0,0,0,-1,1245,771,0,0
28,253,0,0,0,0,0,0,0,0,0,-1,1252,771,0,0
35,253,0,0,0,0,0,0,0,0,0,-1,1259,771,0,0
42,253,0,0,0,0,0,0,0,0,0,-1,1266,771,0,0
49,253,0,0,0,0,0,0,0,0,0,-1,1273,771,0,0
56,253,0,0,0,0,0,0,0,0,0,-1,1280,771,0,0
63,253,0,0,0,0,0,0,0,0,0,-1,1287,771,0,0
70,253,0,0,0,0,0,0,0,0,0,-1,1294,771,0,0
77,253,0,0,0,0,0,0,0,0,0,-1,1301,771,0,0
84,253,0,0,0,0,0,0,0,0,0,-1,1308,771,0,0
91,253,0,0,0,0,0,0,0,0,0,-1,1315,771,0,0
98,253,0,0,0,0,0,0,0,0,0,-1,1322,771,0,0
105,253,0,0,0,0,0,0,0,0,0,-1,1329,771,0,0
112,253,0,0,0,0,0,0,0,0,0,-1,1336,771,0,0
119,253,0,0,0,0,0,0,0,0,0,-1,1343,771,0,0
126,253,0,0,0,0,0,0,0,0,0,-1,1350,771,0,0
133,253,0,0,0,0,0,0,0,0,0,-1,1357,771,0,0
140,253,0,0,0,0,0,0,0,0,0,-1,1364,771,0,0
147,253,0,0,0,0,0,0,0,0,0,-1,1371,771,0,0
154,253,0,0,0,0,0,0,0,0,0,-1,1378,771,0,0
161,253,0,0,0,0,0,0,0,0,0,-1,1385,771,0,0
168,253,0,0,0,0,0,0,0,0,0,-1,1392,771,0,0
175,253,0,0,0,0,0,0,0,0,0,-1,1399,771,0,0
182,253,0,0,0,0,0,0,0,0,0,-1,1406,771,0,0
189,253,0,0,0,0,0,0,0,0,0,-1,1413,771,0,0
196,253,0,0,0,0,0,0,0,0,0,-1,1420,771,0,0
203,253,0,0,0,0,0,0,0,0,0,-1,1427,771,0,0
210,253,0,0,0,0,0,0,0,0,0,-1,1434,771,0,0
217,253,0,0,0,0,0,0,0,0,0,-1,1441,771,0,0
224,253,0,0,0,0,0,0,0,0,0,-1,1448,771,0,0
231,253,0,0,0,0,0,0,0,0,0,-1,1455,771,0,0
238,253,0,0,0,0,0,0,0,0,0,-1,1462,771,0,0
245,253,0,0,0,0,0,0,0,0,0,-1,1469,771,0,0
252,253,0,0,0,0,0,0,0,0,0,-1,1476,771,0,0
259,253,0,0,0,0,0,0,0,0,0,-1,1483,771,0,0
266,253,0,0,0,0,0,0,0,0,0,-1,1490,771,0,0
273,253,0,0,0,0,0,0,0,0,0,-1,1497,771,0,0
280,253,0,0,0,0,0,0,0,0,0,-1,1504,771,0,0
287,253,0,0,0,0,0,0,0,0,0,-1,1511,771,0,0
294,253,0,0,0,0,0,0,0,0,0,-1,1518,771,0,0
301,253,0,0,0,0,0,0,0,0,0,-1,1525,771,0,0
308,253,0,0,0,0,0,0,0,0,0,-1,1532,771,0,0
315,253,0,0,0,0,0,0,0,0,0,-1,1539,771,0,0
322,253,0,0,0,0,0,0,0,0,0,-1,1546,771,0,0
329,253,0,0,0,0,0,0,0,0,0,-1,1553,771,0,0
336,253,0,0,0,0,0,0,0,0,0,-1,1560,771,0,0
343,253,0,0,0,0,0,0,0,0,0,-1,1567,771,0,0
350,253,0,0,0,0,0,0,0,0,0,-1,1574,771,0,0
357,253,0,0,0,0,0,0,0,0,0,-1,1581,771,0,0
364,253,0,0,0,0,0,0,0,0,0,-1,1588,771,0,0
371,253,0,0,0,0,0,0,0,0,0,-1,1595,771,0,0
378,253,0,0,0,0,0,0,0,0,0,-1,1602,771,0,0
385,253,0,0,0,0,0,0,0,0,0,-1,1609,771,0,0
392,253,0,0,0,0,0,0,0,0,0,-1,1616,771,0,0
399,253,0,0,0,0,0,0,0,0,0,-1,1623,771,0,0
406,253,0,0,0,0,0,0,0,0,0,-1,1630,771,0,0
413,253,0,0,0,0,0,0,0,0,0,-1,1637,771,0,0
420,253,0,0,0,0,0,0,0,0,0,-1,1644,771,0,0
427,253,0,0,0,0,0,0,0,0,0,-1,1651,771,0,0
434,253,0,0,0,0,0,0,0,0,0,-1,1658,771,0,0
441,253,0,0,0,0,0,0,0,0,0,-1,1665,771,0,0
448,253,0,0,0,0,0,0,0,0,0,-1,1672,771,0,0
455,253,0,0,0,0,0,0,0,0,0,-1,1679,771,0,0
462,253,0,0,0,0,0,0,0,0,0,-1,1686,771,0,0
469,253,0,0,0,0,0,0,0,0,0,-1,1693,771,0,0
476,253,0,0,0,0,0,0,0,0,0,-1,1700,771,0,0
483,253,0,0,0,0,0,0,0,0,0,-1,1707,771,0,0
490,253,0,0,0,0,0,0,0,0,0,-1,1714,771,0,0
497,253,0,0,0,0,0,0,0,0,0,-1,1721,771,0,0
504,253,0,0,0,0,0,0,0,0,0,-1,1728,771,0,0
511,253,0,0,0,0,0,0,0,0,0,-1,1735,771,0,0
518,253,0,0,0,0,0,0,0,0,0,-1,1742,771,0,0
525,253,0,0,0,0,0,0,0,0,0,-1,1749,771,0,0
532,253,0,0,0,0,0,0,0,0,0,-1,1756,771,0,0
539,253,0,0,0,0,0,0,0,0,0,-1,1763,771,0,0
546,253,0,0,0,0,0,0,0,0,0,-1,1770,771,0,0
553,253,0,0,0,0,0,0,0,0,0,-1,1777,771,0,0
560,253,0,0,0,0,0,0,0,0,0,-1,1784,771,0,0
567,253,0,0,0,0,0,0,0,0,0,-1,1791,771,0,0
574,253,61.0405,2.50616,0,0,0,0,0,0,0,-1,1798,771,61.0405,-2.50614
581,253,61.2292,3.0293,0,0,0,0,0,0,0,-1,1805,771,61.2292,-3.0293
588,253,61.554,2.95264,0,0,0,0,0,0,0,-1,1812,771,61.554,-2.95266
595,253,62.4158,2.32202,0,0,0,0,0,0,0,-1,1819,771,62.4158,-2.32202
602,253,62.1252,2.61725,0,0,0,0,0,0,0,-1,1826,771,62.1252,-2.61725
609,253,61.8347,2.91248,0,0,0,0,0,0,0,-1,1833,771,61.8347,-2.91247
616,253,58.416,2.69031,0,0,0,0,0,0,0,-1,1840,771,58.4161,-2.69031
623,253,48.8328,3.01001,0,0,0,0,0,0,0,-1,1847,771,48.8328,-3.01002
630,253,33.561,2.96838,0,0,0,0,0,0,0,-1,1854,771,33.561,-2.96836
637,253,22.3192,-0.604004,0,0,0,0,0,0,0,-1,1861,771,22.3192,0.603986
644,253,42.2885,-4.41058,0,0,0,0,0,0,0,-1,1868,771,42.2884,4.41056
651,253,41.8024,-3.30237,0.0007589,0.000245045,0.00151326,0.00203689,-0.00103294,0.701308,0.00180368,0.0403094,1875,771,41.8024,3.3024
658,253,41.7288,-2.64624,0.000517687,-6.24297e-05,0.000808769,0.00108684,-0.000631581,0.613222,0.00100367,0.0219787,1882,771,41.7287,2.64626
665,253,41.6512,-1.95453,0.000137536,5.16331e-05,0.0005055,0.000601906,-0.000412737,0.743016,0.000589189,0.0224657,1889,771,41.6513,1.95453
672,253,41.6283,-1.20764,-1.80665e-06,0.000135818,0.000250798,0.000327072,-0.000193061,0.91929,0.000303603,0.0176621,1896,771,41.6283,1.20763
679,253,41.632,-0.418701,4.4447e-06,0.000391423,2.70737e-05,0.000393308,2.55975e-06,1.50129,0.000261356,0.0147161,1903,771,41.632,0.418695
686,253,41.5894,0.32312,9.01339e-05,0.000962278,-7.5407e-05,0.00096875,8.36621e-05,-1.48518,0.000619831,0.0227911,1910,771,41.5894,-0.323147
693,253,41.527,1.04492,0.000220439,0.00162992,-0.000170833,0.00165033,0.000200029,-1.45189,0.00103998,0.0214481,1917,771,41.5269,-1.04494
700,253,41.5153,1.75555,0.000416416,0.00231352,-0.00035266,0.00237696,0.00035298,-1.39282,0.00148107,0.0164503,1924,771,41.5152,-1.75556
707,253,41.5065,2.50708,0.000598753,0.00290979,-0.000643102,0.00307669,0.000431848,-1.31687,0.00192341,0.0157074,1931,771,41.5065,-2.50707
714,253,41.4834,3.21985,0.000867071,0.00330313,-0.00105384,0.00369574,0.000474456,-1.21417,0.00232189,0.0230283,1938,771,41.4834,-3.21987
721,253,41.443,3.97589,0.00125228,0.00334724,-0.00178181,0.00436666,0.000232868,-1.05113,0.00283667,0.0419097,1945,771,41.443,-3.9759
728,253,41.4266,4.77887,0,0,0,0,0,0,0,-1,1952,771,41.4266,-4.77884
735,253,34.5735,6.15118,0,0,0,0,0,0,0,-1,1959,771,34.5734,-6.1512
742,253,31.0571,5.7337,0,0,0,0,0,0,0,-1,1966,771,31.0571,-5.73373
749,253,33.7754,3.21533,0,0,0,0,0,0,0,-1,1973,771,33.7754,-3.21533
756,253,0,0,0,0,0,0,0,0,0,-1,1980,771,0,0
763,253,0,0,0,0,0,0,0,0,0,-1,1987,771,0,0
770,253,0,0,0,0,0,0,0,0,0,-1,1994,771,0,0
777,253,0,0,0,0,0,0,0,0,0,-1,2001,771,0,0
784,253,0,0,0,0,0,0,0,0,0,-1,2008,771,0,0
791,253,0,0,0,0,0,0,0,0,0,-1,2015,771,0,0
798,253,0,0,0,0,0,0,0,0,0,-1,2022,771,0,0
805,253,0,0,0,0,0,0,0,0,0,-1,2029,771,0,0
812,253,0,0,0,0,0,0,0,0,0,-1,2036,771,0,0
-700,246,0,0,0,0,0,0,0,0,0,-1,524,778,0,0
-693,246,0,0,0,0,0,0,0,0,0,-1,531,778,0,0
-686,246,0,0,0,0,0,0,0,0,0,-1,538,778,0,0
-679,246,0,0,0,0,0,0,0,0,0,-1,545,778,0,0
-672,246,0,0,0,0,0,0,0,0,0,-1,552,778,0,0
-665,246,0,0,0,0,0,0,0,0,0,-1,559,778,0,0
-658,246,0,0,0,0,0,0,0,0,0,-1,566,778,0,0
-651,246,0,0,0,0,0,0,0,0,0,-1,573,778,0,0
-644,246,0,0,0,0,0,0,0,0,0,-1,580,778,0,0
-637,246,-24.1234,0.130432,0,0,0,0,0,0,0,-1,587,778,-24.1234,-0.130438
-630,246,-24.0781,1.38916,0,0,0,0,0,0,0,-1,594,778,-24.0781,-1.38913
-623,246,-23.9183,2.49573,0,0,0,0,0,0,0,-1,601,778,-23.9183,-2.49575
-616,246,-26.8182,2.0705,0,0,0,0,0,0,0,-1,608,778,-26.8182,-2.07052
-609,246,-26.0615,1.16388,0,0,0,0,0,0,0,-1,615,778,-26.0615,-1.16388
-602,246,-30.2463,2.6936,0,0,0,0,0,0,0,-1,622,778,-30.2463,-2.69363
-595,246,-29.705,2.15405,0.0202158,0.000708609,0.00385852,0.0209513,-2.68724e-05,0.188353,0.0139765,0.0440653,629,778,-29.705,-2.15407
-588,246,-28.9586,1.63007,0.0147011,0.00135692,0.00261234,0.0151943,0.000863743,0.186593,0.00985424,0.0313742,636,778,-28.9585,-1.63005
-581,246,-29.0089,0.946167,0.0101255,0.00145756,0.00176918,0.0104727,0.00111036,0.193783,0.00664267,0.018921,643,778,-29.0089,-0.946143
-574,246,-28.9809,0.148376,0.00645743,0.00127558,0.0014494,0.00683529,0.000897723,0.255021,0.00428905,0.020093,650,778,-28.9809,-0.148383
-567,246,-29.0038,-0.552307,0.00359025,0.000773028,0.00143482,0.00419234,0.00017094,0.397309,0.00273969,0.0239659,657,778,-29.0039,0.552296
-560,246,-29.0819,-1.21313,0.00135549,0.000100939,0.00163344,0.00247796,-0.00102153,0.60207,0.00207794,0.018871,664,778,-29.0819,1.21312
-553,246,-29.0981,-1.88226,-0.000208951,-0.000857357,0.00203832,0.00153079,-0.0025971,0.706532,0.00240959,0.013403,671,778,-29.0981,1.88227
-546,246,-29.1345,-2.59033,-0.00122395,-0.00170344,0.00246168,0.00100963,-0.00393703,0.736856,0.00301806,0.0108768,678,778,-29.1344,2.59035
-539,246,-29.1934,-3.35583,-0.00207702,-0.00259422,0.00280482,0.000481095,-0.00515234,0.739429,0.00360597,0.0114894,685,778,-29.1934,3.35584
-532,246,-29.1904,-4.11273,-0.00186321,-0.00338252,0.00275597,0.000235888,-0.00548161,0.650918,0.00373552,0.0191317,692,778,-29.1904,4.11274
-525,246,-29.2635,-4.81799,-0.00146156,-0.00331613,0.00267569,0.000442969,-0.00522066,0.618595,0.0036371,0.0391635,699,778,-29.2635,4.81802
-518,246,-29.4028,-5.74139,0,0,0,0,0,0,0,-1,706,778,-29.4027,5.7414
-511,246,-28.5886,-5.38635,0,0,0,0,0,0,0,-1,713,778,-28.5886,5.38633
-504,246,-20.0047,-2.88214,0,0,0,0,0,0,0,-1,720,778,-20.0047,2.88216
-497,246,-29.4669,1.82684,0,0,0,0,0,0,0,-1,727,778,-29.4669,-1.82687
-490,246,-40.4299,1.04309,0,0,0,0,0,0,0,-1,734,778,-40.4299,-1.04308
-483,246,-47.1888,1.08319,0,0,0,0,0,0,0,-1,741,778,-47.1888,-1.08319
-476,246,-46.834,1.38,0.00064929,0.000887383,-0.00285935,0.00363017,-0.0020935,-0.806203,0.00334402,0.0489256,748,778,-46.834,-1.37998
-469,246,-46.8746,1.1994,-5.7078e-05,0.00130071,-0.00415935,0.0048362,-0.00359257,-0.866296,0.00488398,0.0400928,755,778,-46.8746,-1.19937
-462,246,-46.9785,1.03345,-0.00150265,0.00211219,-0.00608552,0.00665303,-0.00604348,-0.929751,0.00733315,0.0465874,762,778,-46.9785,-1.03342
-455,246,0,0,0,0,0,0,0,0,0,-1,769,778,0,0
-448,246,0,0,0,0,0,0,0,0,0,-1,776,778,0,0
-441,246,0,0,0,0,0,0,0,0,0,-1,783,778,0,0
-434,246,0,0,0,0,0,0,0,0,0,-1,790,778,0,0
-427,246,0,0,0,0,0,0,0,0,0,-1,797,778,0,0
-420,246,0,0,0,0,0,0,0,0,0,-1,804,778,0,0
-413,246,0,0,0,0,0,0,0,0,0,-1,811,778,0,0
-406,246,0,0,0,0,0,0,0,0,0,-1,818,778,0,0
-399,246,0,0,0,0,0,0,0,0,0,-1,825,778,0,0
-392,246,0,0,0,0,0,0,0,0,0,-1,832,778,0,0
-385,246,0,0,0,0,0,0,0,0,0,-1,839,778,0,0
-378,246,0,0,0,0,0,0,0,0,0,-1,846,778,0,0
-371,246,0,0,0,0,0,0,0,0,0,-1,853,778,0,0
-364,246,0,0,0,0,0,0,0,0,0,-1,860,778,0,0
-357,246,0,0,0,0,0,0,0,0,0,-1,867,778,0,0
-350,246,0,0,0,0,0,0,0,0,0,-1,874,778,0,0
-343,246,0,0,0,0,0,0,0,0,0,-1,881,778,0,0
-336,246,0,0,0,0,0,0,0,0,0,-1,888,778,0,0
-329,246,0,0,0,0,0,0,0,0,0,-1,895,778,0,0
-322,246,0,0,0,0,0,0,0,0,0,-1,902,778,0,0
-315,246,0,0,0,0,0,0,0,0,0,-1,909,778,0,0
-308,246,0,0,0,0,0,0,0,0,0,-1,916,778,0,0
-301,246,0,0,0,0,0,0,0,0,0,-1,923,778,0,0
-294,246,0,0,0,0,0,0,0,0,0,-1,930,778,0,0
-287,246,0,0,0,0,0,0,0,0,0,-1,937,778,0,0
-280,246,0,0,0,0,0,0,0,0,0,-1,944,778,0,0
-273,246,0,0,0,0,0,0,0,0,0,-1,951,778,0,0
-266,246,0,0,0,0,0,0,0,0,0,-1,958,778,0,0
-259,246,0,0,0,0,0,0,0,0,0,-1,965,778,0,0
-252,246,0,0,0,0,0,0,0,0,0,-1,972,778,0,0
-245,246,0,0,0,0,0,0,0,0,0,-1,979,778,0,0
-238,246,0,0,0,0,0,0,0,0,0,-1,986,778,0,0
-231,246,0,0,0,0,0,0,0,0,0,-1,993,778,0,0
-224,246,0,0,0,0,0,0,0,0,0,-1,1000,778,0,0
-217,246,0,0,0,0,0,0,0,0,0,-1,1007,778,0,0
-210,246,0,0,0,0,0,0,0,0,0,-1,1014,778,0,0
-203,246,0,0,0,0,0,0,0,0,0,-1,1021,778,0,0
-196,246,0,0,0,0,0,0,0,0,0,-1,1028,778,0,0
-189,246,0,0,0,0,0,0,0,0,0,-1,1035,778,0,0
-182,246,0,0,0,0,0,0,0,0,0,-1,1042,778,0,0
-175,246,0,0,0,0,0,0,0,0,0,-1,1049,778,0,0
-168,246,0,0,0,0,0,0,0,0,0,-1,1056,778,0,0
-161,246,0,0,0,0,0,0,0,0,0,-1,1063,778,0,0
-154,246,0,0,0,0,0,0,0,0,0,-1,1070,778,0,0
-147,246,0,0,0,0,0,0,0,0,0,-1,1077,778,0,0
-140,246,0,0,0,0,0,0,0,0,0,-1,1084,778,0,0
-133,246,0,0,0,0,0,0,0,0,0,-1,1091,778,0,0
-126,246,0,0,0,0,0,0,0,0,0,-1,1098,778,0,0
-119,246,0,0,0,0,0,0,0,0,0,-1,1105,778,0,0
-112,246,0,0,0,0,0,0,0,0,0,-1,1112,778,0,0
-105,246,0,0,0,0,0,0,0,0,0,-1,1119,778,0,0
-98,246,0,0,0,0,0,0,0,0,0,-1,1126,778,0,0
-91,246,0,0,0,0,0,0,0,0,0,-1,1133,778,0,0
-84,246,0,0,0,0,0,0,0,0,0,-1,1140,778,0,0
-77,246,0,0,0,0,0,0,0,0,0,-1,1147,778,0,0
-70,246,0,0,0,0,0,0,0,0,0,-1,1154,778,0,0
-63,246,0,0,0,0,0,0,0,0,0,-1,1161,778,0,0
-56,246,0,0,0,0,0,0,0,0,0,-1,1168,778,0,0
-49,246,0,0,0,0,0,0,0,0,0,-1,1175,778,0,0
-42,246,0,0,0,0,0,0,0,0,0,-1,1182,778,0,0
-35,246,0,0,0,0,0,0,0,0,0,-1,1189,778,0,0
-28,246,0,0,0,0,0,0,0,0,0,-1,1196,778,0,0
-21,246,0,0,0,0,0,0,0,0,0,-1,1203,778,0,0
-14,246,0,0,0,0,0,0,0,0,0,-1,1210,778,0,0
-7,246,0,0,0,0,0,0,0,0,0,-1,1217,778,0,0
0,246,0,0,0,0,0,0,0,0,0,-1,1224,778,0,0
7,246,0,0,0,0,0,0,0,0,0,-1,1231,778,0,0
14,246,0,0,0,0,0,0,0,0,0,-1,1238,778,0,0
21,246,0,0,0,0,0,0,0,0,0,-1,1245,778,0,0
28,246,0,0,0,0,0,0,0,0,0,-1,1252,778,0,0
35,246,0,0,0,0,0,0,0,0,0,-1,1259,778,0,0
42,246,0,0,0,0,0,0,0,0,0,-1,1266,778,0,0
49,246,0,0,0,0,0,0,0,0,0,-1,1273,778,0,0
56,246,0,0,0,0,0,0,0,0,0,-1,1280,778,0,0
63,246,0,0,0,0,0,0,0,0,0,-1,1287,778,0,0
70,246,0,0,0,0,0,0,0,0,0,-1,1294,778,0,0
77,246,0,0,0,0,0,0,0,0,0,-1,1301,778,0,0
84,246,0,0,0,0,0,0,0,0,0,-1,1308,778,0,0
91,246,0,0,0,0,0,0,0,0,0,-1,1315,778,0,0
98,246,0,0,0,0,0,0,0,0,0,-1,1322,778,0,0
105,246,0,0,0,0,0,0,0,0,0,-1,1329,778,0,0
112,246,0,0,0,0,0,0,0,0,0,-1,1336,778,0,0
119,246,0,0,0,0,0,0,0,0,0,-1,1343,778,0,0
126,246,0,0,0,0,0,0,0,0,0,-1,1350,778,0,0
133,246,0,0,0,0,0,0,0,0,0,-1,1357,778,0,0
140,246,0,0,0,0,0,0,0,0,0,-1,1364,778,0,0
147,246,0,0,0,0,0,0,0,0,0,-1,1371,778,0,0
154,246,0,0,0,0,0,0,0,0,0,-1,1378,778,0,0
161,246,0,0,0,0,0,0,0,0,0,-1,1385,778,0,0
168,246,0,0,0,0,0,0,0,0,0,-1,1392,778,0,0
175,246,0,0,0,0,0,0,0,0,0,-1,1399,778,0,0
182,246,0,0,0,0,0,0,0,0,0,-1,1406,778,0,0
189,246,0,0,0,0,0,0,0,0,0,-1,1413,778,0,0
196,246,0,0,0,0,0,0,0,0,0,-1,1420,778,0,0
203,246,0,0,0,0,0,0,0,0,0,-1,1427,778,0,0
210,246,0,0,0,0,0,0,0,0,0,-1,1434,778,0,0
217,246,0,0,0,0,0,0,0,0,0,-1,1441,778,0,0
224,246,0,0,0,0,0,0,0,0,0,-1,1448,778,0,0
231,246,0,0,0,0,0,0,0,0,0,-1,1455,778,0,0
238,246,0,0,0,0,0,0,0,0,0,-1,1462,778,0,0
245,246,0,0,0,0,0,0,0,0,0,-1,1469,778,0,0
252,246,0,0,0,0,0,0,0,0,0,-1,1476,778,0,0
259,246,0,0,0,0,0,0,0,0,0,-1,1483,778,0,0
266,246,0,0,0,0,0,0,0,0,0,-1,1490,778,0,0
273,246,0,0,0,0,0,0,0,0,0,-1,1497,778,0,0
280,246,0,0,0,0,0,0,0,0,0,-1,1504,778,0,0
287,246,0,0,0,0,0,0,0,0,0,-1,1511,778,0,0
294,246,0,0,0,0,0,0,0,0,0,-1,1518,778,0,0
301,246,0,0,0,0,0,0,0,0,0,-1,1525,778,0,0
308,246,0,0,0,0,0,0,0,0,0,-1,1532,778,0,0
315,246,0,0,0,0,0,0,0,0,0,-1,1539,778,0,0
322,246,0,0,0,0,0,0,0,0,0,-1,1546,778,0,0
329,246,0,0,0,0,0,0,0,0,0,-1,1553,778,0,0
336,246,0,0,0,0,0,0,0,0,0,-1,1560,778,0,0
343,246,0,0,0,0,0,0,0,0,0,-1,1567,778,0,0
350,246,0,0,0,0,0,0,0,0,0,-1,1574,778,0,0
357,246,0,0,0,0,0,0,0,0,0,-1,1581,778,0,0
364,246,0,0,0,0,0,0,0,0,0,-1,1588,778,0,0
371,246,0,0,0,0,0,0,0,0,0,-1,1595,778,0,0
378,246,0,0,0,0,0,0,0,0,0,-1,1602,778,0,0
385,246,0,0,0,0,0,0,0,0,0,-1,1609,778,0,0
392,246,0,0,0,0,0,0,0,0,0,-1,1616,778,0,0
399,246,0,0,0,0,0,0,0,0,0,-1,1623,778,0,0
406,246,0,0,0,0,0,0,0,0,0,-1,1630,778,0,0
413,246,0,0,0,0,0,0,0,0,0,-1,1637,778,0,0
420,246,0,0,0,0,0,0,0,0,0,-1,1644,778,0,0
427,246,0,0,0,0,0,0,0,0,0,-1,1651,778,0,0
434,246,0,0,0,0,0,0,0,0,0,-1,1658,778,0,0
441,246,0,0,0,0,0,0,0,0,0,-1,1665,778,0,0
448,246,0,0,0,0,0,0,0,0,0,-1,1672,778,0,0
455,246,0,0,0,0,0,0,0,0,0,-1,1679,778,0,0
462,246,0,0,0,0,0,0,0,0,0,-1,1686,778,0,0
469,246,0,0,0,0,0,0,0,0,0,-1,1693,778,0,0
476,246,0,0,0,0,0,0,0,0,0,-1,1700,778,0,0
483,246,0,0,0,0,0,0,0,0,0,-1,1707,778,0,0
490,246,0,0,0,0,0,0,0,0,0,-1,1714,778,0,0
497,246,0,0,0,0,0,0,0,0,0,-1,1721,778,0,0
504,246,0,0,0,0,0,0,0,0,0,-1,1728,778,0,0
511,246,0,0,0,0,0,0,0,0,0,-1,1735,778,0,0
518,246,0,0,0,0,0,0,0,0,0,-1,1742,778,0,0
525,246,0,0,0,0,0,0,0,0,0,-1,1749,778,0,0
532,246,0,0,0,0,0,0,0,0,0,-1,1756,778,0,0
539,246,0,0,0,0,0,0,0,0,0,-1,1763,778,0,0
546,246,0,0,0,0,0,0,0,0,0,-1,1770,778,0,0
553,246,0,0,0,0,0,0,0,0,0,-1,1777,778,0,0
560,246,0,0,0,0,0,0,0,0,0,-1,1784,778,0,0
567,246,0,0,0,0,0,0,0,0,0,-1,1791,778,0,0
574,246,0,0,0,0,0,0,0,0,0,-1,1798,778,0,0
581,246,61.4291,2.99951,0.00973092,0.00315745,-0.00253786,0.0105967,0.00229167,-0.328765,0.006438,0.0385493,1805,778,61.4291,-2.99954
588,246,61.5331,2.85895,0.00911585,0.00232545,0.000910957,0.00923594,0.00220536,0.131067,0.00556966,0.0438287,1812,778,61.5331,-2.85894
595,246,61.9175,2.65509,0.00781467,0.00197855,0.0020705,0.00847461,0.00131862,0.308552,0.00526553,0.0434884,1819,778,61.9174,-2.65507
602,246,61.8473,2.91656,0.00639867,0.00158034,0.00255766,0.00750315,0.000475859,0.407643,0.00485126,0.0484416,1826,778,61.8473,-2.91657
609,246,61.6919,3.15869,0,0,0,0,0,0,0,-1,1833,778,61.6918,-3.15869
616,246,60.4568,3.98492,0,0,0,0,0,0,0,-1,1840,778,60.4568,-3.98491
623,246,55.8947,3.95953,0,0,0,0,0,0,0,-1,1847,778,55.8947,-3.95952
630,246,49.5938,1.99902,0,0,0,0,0,0,0,-1,1854,778,49.5937,-1.999
637,246,29.5785,0.837585,0,0,0,0,0,0,0,-1,1861,778,29.5785,-0.837606
644,246,28.1232,-1.43188,0,0,0,0,0,0,0,-1,1868,778,28.1232,1.43188
651,246,42.4824,-3.19855,0,0,0,0,0,0,0,-1,1875,778,42.4824,3.19857
658,246,42.2693,-2.76221,0.000353464,-0.00016897,0.00072353,0.000861487,-0.000676993,0.612164,0.000890368,0.0461445,1882,778,42.2693,2.76222
665,246,42.4041,-1.92456,-0.000145581,-0.000129631,0.00045908,0.000321544,-0.000596756,0.794083,0.000538059,0.0265748,1889,778,42.4041,1.92453
672,246,42.3611,-1.14343,-0.000360797,-0.0001322,0.00015599,-5.31153e-05,-0.000439881,1.10158,0.00027725,0.0213947,1896,778,42.3611,1.14346
679,246,42.3521,-0.386902,-0.000380875,-3.64499e-06,-0.000136841,4.07661e-05,-0.000425286,-1.25698,0.000298043,0.0221869,1903,778,42.3521,0.386896
686,246,42.3802,0.359192,-0.000298833,0.000508482,-0.000279279,0.000595677,-0.000386028,-1.26817,0.000571079,0.0236743,1910,778,42.3803,-0.359167
693,246,42.343,1.05664,-9.52464e-05,0.00111045,-0.000406557,0.00123473,-0.000219526,-1.27413,0.000905244,0.0179314,1917,778,42.343,-1.05667
700,246,42.3059,1.77631,0.000277313,0.00161573,-0.000662029,0.00188786,5.18118e-06,-1.18079,0.00125685,0.0146066,1924,778,42.3059,-1.77628
707,246,42.2583,2.52618,0.000678002,0.00183828,-0.0011035,0.00250485,1.14354e-05,-1.02741,0.0016661,0.0140569,1931,778,42.2583,-2.52617
714,246,42.2067,3.2749,0.00110902,0.0013372,-0.00187608,0.00310266,-0.000656429,-0.815767,0.00231843,0.013934,1938,778,42.2066,-3.27489
721,246,42.1243,3.99597,0.00172498,0.000302924,-0.00297562,0.00407334,-0.00204544,-0.668121,0.00359677,0.019447,1945,778,42.1242,-3.99596
728,246,42.0657,4.82269,0.00243441,-0.00202905,-0.00457498,0.00529297,-0.00488762,-0.558473,0.00587932,0.0436278,1952,778,42.0657,-4.82267
735,246,42.1157,5.6994,0,0,0,0,0,0,0,-1,1959,778,42.1157,-5.69942
742,246,31.7356,6.70013,0,0,0,0,0,0,0,-1,1966,778,31.7356,-6.70011
749,246,32.3883,7.69324,0,0,0,0,0,0,0,-1,1973,778,32.3883,-7.69322
756,246,33.6919,3.45264,0,0,0,0,0,0,0,-1,1980,778,33.6919,-3.45262
763,246,0,0,0,0,0,0,0,0,0,-1,1987,778,0,0
770,246,0,0,0,0,0,0,0,0,0,-1,1994,778,0,0
777,246,0,0,0,0,0,0,0,0,0,-1,2001,778,0,0
784,246,0,0,0,0,0,0,0,0,0,-1,2008,778,0,0
791,246,0,0,0,0,0,0,0,0,0,-1,2015,778,0,0
798,246,0,0,0,0,0,0,0,0,0,-1,2022,778,0,0
805,246,0,0,0,0,0,0,0,0,0,-1,2029,778,0,0
812,246,0,0,0,0,0,0,0,0,0,-1,2036,778,0,0
-700,239,0,0,0,0,0,0,0,0,0,-1,524,785,0,0
-693,239,0,0,0,0,0,0,0,0,0,-1,531,785,0,0
-686,239,0,0,0,0,0,0,0,0,0,-1,538,785,0,0
-679,239,0,0,0,0,0,0,0,0,0,-1,545,785,0,0
-672,239,0,0,0,0,0,0,0,0,0,-1,552,785,0,0
-665,239,0,0,0,0,0,0,0,0,0,-1,559,785,0,0
-658,239,0,0,0,0,0,0,0,0,0,-1,566,785,0,0
-651,239,0,0,0,0,0,0,0,0,0,-1,573,785,0,0
-644,239,0,0,0,0,0,0,0,0,0,-1,580,785,0,0
-637,239,-23.2709,0.465088,0,0,0,0,0,0,0,-1,587,785,-23.271,-0.465116
-630,239,-23.4006,0.956299,0,0,0,0,0,0,0,-1,594,785,-23.4005,-0.956285
-623,239,-30.6328,2.52185,0,0,0,0,0,0,0,-1,601,785,-30.6328,-2.52183
-616,239,-29.1425,1.42139,0,0,0,0,0,0,0,-1,608,785,-29.1425,-1.42139
-609,239,-27.8569,0.322937,0,0,0,0,0,0,0,-1,615,785,-27.857,-0.322963
-602,239,-30.3676,3.14355,0,0,0,0,0,0,0,-1,622,785,-30.3676,-3.14357
-595,239,-29.981,2.42859,0.0165578,5.83125e-05,0.0036966,0.0173481,-0.000732029,0.210631,0.011817,0.0435526,629,785,-29.9809,-2.42859
-588,239,-29.6,1.78955,0.0124122,0.000763603,0.00244765,0.0129056,0.000270195,0.198919,0.00851511,0.0199346,636,785,-29.6,-1.78954
-581,239,-29.6994,0.972412,0.00872454,0.000967734,0.00164312,0.00905825,0.00063403,0.200367,0.00583897,0.0121917,643,785,-29.6994,-0.97239
-574,239,-29.7026,0.207703,0.00558182,0.000848722,0.00134638,0.00593801,0.000492535,0.258627,0.00380513,0.013969,650,785,-29.7027,-0.207678
-567,239,-29.7325,-0.500427,0.00296763,0.000465542,0.0013477,0.00355545,-0.000122273,0.411287,0.00241209,0.0179832,657,785,-29.7325,0.500419
-560,239,-29.8062,-1.16888,0.000814153,-7.23818e-05,0.00152709,0.00196101,-0.00121924,0.644145,0.00185269,0.0180973,664,785,-29.8062,1.16886
-553,239,-29.8298,-1.84753,-0.000593846,-0.00081707,0.00189234,0.00119017,-0.00260108,0.755942,0.00223883,0.0146392,671,785,-29.8298,1.84752
-546,239,-29.8739,-2.54309,-0.00141212,-0.00128592,0.00227563,0.000927482,-0.00362553,0.799259,0.00277827,0.0148697,678,785,-29.8739,2.54309
-539,239,-30.0155,-3.26971,-0.00207776,-0.00178272,0.00256618,0.000640173,-0.00450065,0.81411,0.00323501,0.0182464,685,785,-30.0155,3.26971
-532,239,-30.0955,-3.97784,-0.00181343,-0.00237492,0.002433,0.000354967,-0.00454332,0.727956,0.00315386,0.0254124,692,785,-30.0955,3.97782
-525,239,-30.0906,-4.44275,-0.0014507,-0.00219525,0.00237387,0.000579911,-0.00422586,0.707621,0.0030291,0.0391726,699,785,-30.0907,4.44277
-518,239,-30.3432,-4.81818,0,0,0,0,0,0,0,-1,706,785,-30.3432,4.81815
-511,239,-20.9849,-2.09235,0,0,0,0,0,0,0,-1,713,785,-20.9848,2.09234
-504,239,-25.5015,2.00421,0,0,0,0,0,0,0,-1,720,785,-25.5015,-2.00422
-497,239,-40.2453,1.4447,0,0,0,0,0,0,0,-1,727,785,-40.2453,-1.4447
-490,239,-47.6562,0.885864,0,0,0,0,0,0,0,-1,734,785,-47.6562,-0.885841
-483,239,-47.1658,1.04871,0.0012255,-0.00084527,-0.00144091,0.00196445,-0.00158421,-0.47386,0.00205274,0.0468723,741,785,-47.1658,-1.04872
-476,239,-46.8557,1.20892,0.00111387,-0.000311723,-0.0025203,0.00302023,-0.00221808,-0.647586,0.00303614,0.0422577,748,785,-46.8557,-1.20892
-469,239,-46.8784,1.14594,0.000614237,-0.000515277,-0.00361984,0.00371311,-0.00361415,-0.708014,0.00423053,0.0442171,755,785,-46.8784,-1.14593
-462,239,-46.8889,1.16174,-0.00064604,-0.000522985,-0.00511551,0.00453137,-0.00570039,-0.791412,0.00592015,0.0454183,762,785,-46.8888,-1.16174
-455,239,0,0,0,0,0,0,0,0,0,-1,769,785,0,0
-448,239,0,0,0,0,0,0,0,0,0,-1,776,785,0,0
-441,239,0,0,0,0,0,0,0,0,0,-1,783,785,0,0
-434,239,0,0,0,0,0,0,0,0,0,-1,790,785,0,0
-427,239,0,0,0,0,0,0,0,0,0,-1,797,785,0,0
-420,239,0,0,0,0,0,0,0,0,0,-1,804,785,0,0
-413,239,0,0,0,0,0,0,0,0,0,-1,811,785,0,0
-406,239,0,0,0,0,0,0,0,0,0,-1,818,785,0,0
-399,239,0,0,0,0,0,0,0,0,0,-1,825,785,0,0
-392,239,0,0,0,0,0,0,0,0,0,-1,832,785,0,0
-385,239,0,0,0,0,0,0,0,0,0,-1,839,785,0,0
-378,239,0,0,0,0,0,0,0,0,0,-1,846,785,0,0
-371,239,0,0,0,0,0,0,0,0,0,-1,853,785,0,0
-364,239,0,0,0,0,0,0,0,0,0,-1,860,785,0,0
-357,239,0,0,0,0,0,0,0,0,0,-1,867,785,0,0
-350,239,0,0,0,0,0,0,0,0,0,-1,874,785,0,0
-343,239,0,0,0,0,0,0,0,0,0,-1,881,785,0,0
-336,239,0,0,0,0,0,0,0,0,0,-1,888,785,0,0
-329,239,0,0,0,0,0,0,0,0,0,-1,895,785,0,0
-322,239,0,0,0,0,0,0,0,0,0,-1,902,785,0,0
-315,239,0,0,0,0,0,0,0,0,0,-1,909,785,0,0
-308,239,0,0,0,0,0,0,0,0,0,-1,916,785,0,0
-301,239,0,0,0,0,0,0,0,0,0,-1,923,785,0,0
-294,239,0,0,0,0,0,0,0,0,0,-1,930,785,0,0
-287,239,0,0,0,0,0,0,0,0,0,-1,937,785,0,0
-280,239,0,0,0,0,0,0,0,0,0,-1,944,785,0,0
-273,239,0,0,0,0,0,0,0,0,0,-1,951,785,0,0
-266,239,0,0,0,0,0,0,0,0,0,-1,958,785,0,0
-259,239,0,0,0,0,0,0,0,0,0,-1,965,785,0,0
-252,239,0,0,0,0,0,0,0,0,0,-1,972,785,0,0
-245,239,0,0,0,0,0,0,0,0,0,-1,979,785,0,0
-238,239,0,0,0,0,0,0,0,0,0,-1,986,785,0,0
-231,239,0,0,0,0,0,0,0,0,0,-1,993,785,0,0
-224,239,0,0,0,0,0,0,0,0,0,-1,1000,785,0,0
-217,239,0,0,0,0,0,0,0,0,0,-1,1007,785,0,0
-210,239,0,0,0,0,0,0,0,0,0,-1,1014,785,0,0
-203,239,0,0,0,0,0,0,0,0,0,-1,1021,785,0,0
-196,239,0,0,0,0,0,0,0,0,0,-1,1028,785,0,0
-189,239,0,0,0,0,0,0,0,0,0,-1,1035,785,0,0
-182,239,0,0,0,0,0,0,0,0,0,-1,1042,785,0,0
-175,239,0,0,0,0,0,0,0,0,0,-1,1049,785,0,0
-168,239,0,0,0,0,0,0,0,0,0,-1,1056,785,0,0
-161,239,0,0,0,0,0,0,0,0,0,-1,1063,785,0,0
-154,239,0,0,0,0,0,0,0,0,0,-1,1070,785,0,0
-147,239,0,0,0,0,0,0,0,0,0,-1,1077,785,0,0
-140,239,0,0,0,0,0,0,0,0,0,-1,1084,785,0,0
-133,239,0,0,0,0,0,0,0,0,0,-1,1091,785,0,0
-126,239,0,0,0,0,0,0,0,0,0,-1,1098,785,0,0
-119,239,0,0,0,0,0,0,0,0,0,-1,1105,785,0,0
-112,239,0,0,0,0,0,0,0,0,0,-1,1112,785,0,0
-105,239,0,0,0,0,0,0,0,0,0,-1,1119,785,0,0
-98,239,0,0,0,0,0,0,0,0,0,-1,1126,785,0,0
-91,239,0,0,0,0,0,0,0,0,0,-1,1133,785,0,0
-84,239,0,0,0,0,0,0,0,0,0,-1,1140,785,0,0
-77,239,0,0,0,0,0,0,0,0,0,-1,1147,785,0,0
-70,239,0,0,0,0,0,0,0,0,0,-1,1154,785,0,0
-63,239,0,0,0,0,0,0,0,0,0,-1,1161,785,0,0
-56,239,0,0,0,0,0,0,0,0,0,-1,1168,785,0,0
-49,239,0,0,0,0,0,0,0,0,0,-1,1175,785,0,0
-42,239,0,0,0,0,0,0,0,0,0,-1,1182,785,0,0
-35,239,0,0,0,0,0,0,0,0,0,-1,1189,785,0,0
-28,239,0,0,0,0,0,0,0,0,0,-1,1196,785,0,0
-21,239,0,0,0,0,0,0,0,0,0,-1,1203,785,0,0
-14,239,0,0,0,0,0,0,0,0,0,-1,1210,785,0,0
-7,239,0,0,0,0,0,0,0,0,0,-1,1217,785,0,0
0,239,0,0,0,0,0,0,0,0,0,-1,1224,785,0,0
7,239,0,0,0,0,0,0,0,0,0,-1,1231,785,0,0
14,239,0,0,0,0,0,0,0,0,0,-1,1238,785,0,0
21,239,0,0,0,0,0,0,0,0,0,-1,1245,785,0,0
28,239,0,0,0,0,0,0,0,0,0,-1,1252,785,0,0
35,239,0,0,0,0,0,0,0,0,0,-1,1259,785,0,0
42,239,0,0,0,0,0,0,0,0,0,-1,1266,785,0,0
49,239,0,0,0,0,0,0,0,0,0,-1,1273,785,0,0
56,239,0,0,0,0,0,0,0,0,0,-1,1280,785,0,0
63,239,0,0,0,0,0,0,0,0,0,-1,1287,785,0,0
70,239,0,0,0,0,0,0,0,0,0,-1,1294,785,0,0
77,239,0,0,0,0,0,0,0,0,0,-1,1301,785,0,0
84,239,0,0,0,0,0,0,0,0,0,-1,1308,785,0,0
91,239,0,0,0,0,0,0,0,0,0,-1,1315,785,0,0
98,239,0,0,0,0,0,0,0,0,0,-1,1322,785,0,0
105,239,0,0,0,0,0,0,0,0,0,-1,1329,785,0,0
112,239,0,0,0,0,0,0,0,0,0,-1,1336,785,0,0
119,239,0,0,0,0,0,0,0,0,0,-1,1343,785,0,0
126,239,0,0,0,0,0,0,0,0,0,-1,1350,785,0,0
133,239,0,0,0,0,0,0,0,0,0,-1,1357,785,0,0
140,239,0,0,0,0,0,0,0,0,0,-1,1364,785,0,0
147,239,0,0,0,0,0,0,0,0,0,-1,1371,785,0,0
154,239,0,0,0,0,0,0,0,0,0,-1,1378,785,0,0
161,239,0,0,0,0,0,0,0,0,0,-1,1385,785,0,0
168,239,0,0,0,0,0,0,0,0,0,-1,1392,785,0,0
175,239,0,0,0,0,0,0,0,0,0,-1,1399,785,0,0
182,239,0,0,0,0,0,0,0,0,0,-1,1406,785,0,0
189,239,0,0,0,0,0,0,0,0,0,-1,1413,785,0,0
196,239,0,0,0,0,0,0,0,0,0,-1,1420,785,0,0
203,239,0,0,0,0,0,0,0,0,0,-1,1427,785,0,0
210,239,0,0,0,0,0,0,0,0,0,-1,1434,785,0,0
217,239,0,0,0,0,0,0,0,0,0,-1,1441,785,0,0
224,239,0,0,0,0,0,0,0,0,0,-1,1448,785,0,0
231,239,0,0,0,0,0,0,0,0,0,-1,1455,785,0,0
238,239,0,0,0,0,0,0,0,0,0,-1,1462,785,0,0
245,239,0,0,0,0,0,0,0,0,0,-1,1469,785,0,0
252,239,0,0,0,0,0,0,0,0,0,-1,1476,785,0,0
259,239,0,0,0,0,0,0,0,0,0,-1,1483,785,0,0
266,239,0,0,0,0,0,0,0,0,0,-1,1490,785,0,0
273,239,0,0,0,0,0,0,0,0,0,-1,1497,785,0,0
280,239,0,0,0,0,0,0,0,0,0,-1,1504,785,0,0
287,239,0,0,0,0,0,0,0,0,0,-1,1511,785,0,0
294,239,0,0,0,0,0,0,0,0,0,-1,1518,785,0,0
301,239,0,0,0,0,0,0,0,0,0,-1,1525,785,0,0
308,239,0,0,0,0,0,0,0,0,0,-1,1532,785,0,0
315,239,0,0,0,0,0,0,0,0,0,-1,1539,785,0,0
322,239,0,0,0,0,0,0,0,0,0,-1,1546,785,0,0
329,239,0,0,0,0,0,0,0,0,0,-1,1553,785,0,0
336,239,0,0,0,0,0,0,0,0,0,-1,1560,785,0,0
343,239,0,0,0,0,0,0,0,0,0,-1,1567,785,0,0
350,239,0,0,0,0,0,0,0,0,0,-1,1574,785,0,0
357,239,0,0,0,0,0,0,0,0,0,-1,1581,785,0,0
364,239,0,0,0,0,0,0,0,0,0,-1,1588,785,0,0
371,239,0,0,0,0,0,0,0,0,0,-1,1595,785,0,0
378,239,0,0,0,0,0,0,0,0,0,-1,1602,785,0,0
385,239,0,0,0,0,0,0,0,0,0,-1,1609,785,0,0
392,239,0,0,0,0,0,0,0,0,0,-1,1616,785,0,0
399,239,0,0,0,0,0,0,0,0,0,-1,1623,785,0,0
406,239,0,0,0,0,0,0,0,0,0,-1,1630,785,0,0
413,239,0,0,0,0,0,0,0,0,0,-1,1637,785,0,0
420,239,0,0,0,0,0,0,0,0,0,-1,1644,785,0,0
427,239,0,0,0,0,0,0,0,0,0,-1,1651,785,0,0
434,239,0,0,0,0,0,0,0,0,0,-1,1658,785,0,0
441,239,0,0,0,0,0,0,0,0,0,-1,1665,785,0,0
448,239,0,0,0,0,0,0,0,0,0,-1,1672,785,0,0
455,239,0,0,0,0,0,0,0,0,0,-1,1679,785,0,0
462,239,0,0,0,0,0,0,0,0,0,-1,1686,785,0,0
469,239,0,0,0,0,0,0,0,0,0,-1,1693,785,0,0
476,239,0,0,0,0,0,0,0,0,0,-1,1700,785,0,0
483,239,0,0,0,0,0,0,0,0,0,-1,1707,785,0,0
490,239,0,0,0,0,0,0,0,0,0,-1,1714,785,0,0
497,239,0,0,0,0,0,0,0,0,0,-1,1721,785,0,0
504,239,0,0,0,0,0,0,0,0,0,-1,1728,785,0,0
511,239,0,0,0,0,0,0,0,0,0,-1,1735,785,0,0
518,239,0,0,0,0,0,0,0,0,0,-1,1742,785,0,0
525,239,0,0,0,0,0,0,0,0,0,-1,1749,785,0,0
532,239,0,0,0,0,0,0,0,0,0,-1,1756,785,0,0
539,239,0,0,0,0,0,0,0,0,0,-1,1763,785,0,0
546,239,0,0,0,0,0,0,0,0,0,-1,1770,785,0,0
553,239,0,0,0,0,0,0,0,0,0,-1,1777,785,0,0
560,239,0,0,0,0,0,0,0,0,0,-1,1784,785,0,0
567,239,0,0,0,0,0,0,0,0,0,-1,1791,785,0,0
574,239,0,0,0,0,0,0,0,0,0,-1,1798,785,0,0
581,239,61.5111,2.93591,0.00599572,0.0042716,-0.00545901,0.0106603,-0.000392999,-0.707087,0.00724143,0.0365811,1805,785,61.511,-2.93591
588,239,61.4338,2.97028,0.00715969,0.00304843,0.00015657,0.00716564,0.00304248,0.0380098,0.00415274,0.0387786,1812,785,61.4339,-2.9703
595,239,61.5908,2.74194,0.0066343,0.00246446,0.00196191,0.00741224,0.00168652,0.377505,0.00448626,0.033749,1819,785,61.5908,-2.74193
602,239,61.6957,2.77997,0.0055443,0.00191377,0.00260664,0.00690548,0.000552597,0.481246,0.00443095,0.0403157,1826,785,61.6957,-2.77995
609,239,61.9265,2.67273,0,0,0,0,0,0,0,-1,1833,785,61.9265,-2.67271
616,239,55.8469,3.72443,0,0,0,0,0,0,0,-1,1840,785,55.8469,-3.72445
623,239,61.0139,3.03052,0,0,0,0,0,0,0,-1,1847,785,61.0139,-3.03054
630,239,54.5767,3.64667,0,0,0,0,0,0,0,-1,1854,785,54.5766,-3.64667
637,239,39.5542,2.54114,0,0,0,0,0,0,0,-1,1861,785,39.5543,-2.54114
644,239,18.3466,0.735413,0,0,0,0,0,0,0,-1,1868,785,18.3465,-0.735414
651,239,34.2471,-2.15778,0,0,0,0,0,0,0,-1,1875,785,34.2471,2.1578
658,239,43.0796,-2.69769,0,0,0,0,0,0,0,-1,1882,785,43.0796,2.6977
665,239,43.1423,-1.85797,-0.000559426,-0.00037409,0.000392309,-6.36525e-05,-0.000869863,0.901378,0.000559899,0.0316461,1889,785,43.1423,1.85795
672,239,43.1505,-1.08459,-0.000795588,-0.000357784,1.51487e-05,-0.000357261,-0.000796111,1.53625,0.000460439,0.0204564,1896,785,43.1505,1.08462
679,239,43.0818,-0.320618,-0.000831149,-0.000289573,-0.000330702,-0.000132939,-0.000987784,-1.12846,0.000618986,0.022691,1903,785,43.0818,0.320628
686,239,43.0581,0.446838,-0.000764938,0.00018527,-0.000483519,0.000388041,-0.000967709,-1.17371,0.000806239,0.0245427,1910,785,43.0581,-0.446857
693,239,43.0774,1.08624,-0.00049284,0.000703779,-0.000606763,0.000957606,-0.000746667,-1.17459,0.000986471,0.0157736,1917,785,43.0774,-1.08627
700,239,43.0265,1.8089,2.76948e-05,0.00105048,-0.000882338,0.00155891,-0.000480738,-1.04804,0.00123121,0.0112174,1924,785,43.0264,-1.80893
707,239,42.9824,2.56586,0.00059956,0.00103035,-0.00137289,0.00220464,-0.000574728,-0.86321,0.00169415,0.0112431,1931,785,42.9824,-2.56584
714,239,42.9434,3.28748,0.00115332,4.0791e-05,-0.00229117,0.00295478,-0.00176067,-0.666309,0.00275141,0.0114245,1938,785,42.9434,-3.2875
721,239,42.874,4.03412,0.00191264,-0.00152044,-0.00350044,0.00409476,-0.00370256,-0.557438,0.00450369,0.0225164,1945,785,42.8741,-4.03411
728,239,42.8126,4.77997,0.00276681,-0.00452631,-0.00527636,0.00553409,-0.00729359,-0.48303,0.00742925,0.0455268,1952,785,42.8126,-4.77998
735,239,43.0231,5.68146,0,0,0,0,0,0,0,-1,1959,785,43.023,-5.68145
742,239,32.4141,7.6665,0,0,0,0,0,0,0,-1,1966,785,32.4141,-7.6665
749,239,32.1489,3.4411,0,0,0,0,0,0,0,-1,1973,785,32.149,-3.44109
756,239,32.9064,3.6687,0,0,0,0,0,0,0,-1,1980,785,32.9063,-3.66873
763,239,0,0,0,0,0,0,0,0,0,-1,1987,785,0,0
770,239,0,0,0,0,0,0,0,0,0,-1,1994,785,0,0
777,239,0,0,0,0,0,0,0,0,0,-1,2001,785,0,0
784,239,0,0,0,0,0,0,0,0,0,-1,2008,785,0,0
791,239,0,0,0,0,0,0,0,0,0,-1,2015,785,0,0
798,239,0,0,0,0,0,0,0,0,0,-1,2022,785,0,0
805,239,0,0,0,0,0,0,0,0,0,-1,2029,785,0,0
812,239,0,0,0,0,0,0,0,0,0,-1,2036,785,0,0
-700,232,0,0,0,0,0,0,0,0,0,-1,524,792,0,0
-693,232,0,0,0,0,0,0,0,0,0,-1,531,792,0,0
-686,232,0,0,0,0,0,0,0,0,0,-1,538,792,0,0
-679,232,0,0,0,0,0,0,0,0,0,-1,545,792,0,0
-672,232,0,0,0,0,0,0,0,0,0,-1,552,792,0,0
-665,232,0,0,0,0,0,0,0,0,0,-1,559,792,0,0
-658,232,0,0,0,0,0,0,0,0,0,-1,566,792,0,0
-651,232,0,0,0,0,0,0,0,0,0,-1,573,792,0,0
-644,232,-41.2348,4.28168,0,0,0,0,0,0,0,-1,580,792,-41.2348,-4.28166
-637,232,-42.1427,3.51453,0,0,0,0,0,0,0,-1,587,792,-42.1427,-3.51452
-630,232,-32.2345,1.80212,0,0,0,0,0,0,0,-1,594,792,-32.2345,-1.80211
-623,232,-31.5665,1.05115,0,0,0,0,0,0,0,-1,601,792,-31.5664,-1.05112
-616,232,-30.6812,0.432861,0,0,0,0,0,0,0,-1,608,792,-30.6812,-0.432881
-609,232,-29.7142,-0.478943,0,0,0,0,0,0,0,-1,615,792,-29.7142,0.478965
-602,232,-29.938,3.72534,0,0,0,0,0,0,0,-1,622,792,-29.9381,-3.72536
-595,232,-30.3896,2.513,0,0,0,0,0,0,0,-1,629,792,-30.3896,-2.51299
-588,232,-30.347,1.79346,0.0100841,0.000602153,0.00165912,0.010366,0.000320229,0.168316,0.00680646,0.0129197,636,792,-30.347,-1.79348
-581,232,-30.3748,0.992432,0.00720128,0.00070519,0.00125572,0.00743556,0.000470905,0.184454,0.00480777,0.00886926,643,792,-30.3748,-0.992451
-574,232,-30.3973,0.281189,0.00454697,0.00060915,0.00108985,0.00482848,0.000327641,0.252775,0.00311552,0.00937633,650,792,-30.3973,-0.281162
-567,232,-30.4675,-0.422485,0.00223122,0.000312666,0.00119033,0.0028007,-0.000256815,0.446237,0.00195836,0.0108665,657,792,-30.4675,0.422497
-560,232,-30.5345,-1.1283,0.00024426,-1.16322e-05,0.00131714,0.00143965,-0.00120702,0.73698,0.00153003,0.0147324,664,792,-30.5345,1.12831
-553,232,-30.5725,-1.83398,-0.000883269,-0.000486911,0.00151801,0.000845802,-0.00221598,0.850307,0.00182577,0.0148509,671,792,-30.5725,1.83398
-546,232,-30.6217,-2.52222,-0.001439,-0.000676038,0.00177939,0.000762308,-0.00287734,0.890994,0.00221647,0.0225507,678,792,-30.6217,2.5222
-539,232,-30.8723,-3.1012,-0.0019165,-0.00094913,0.00194921,0.000575512,-0.00344114,0.907013,0.00250804,0.0381591,685,792,-30.8723,3.10119
-532,232,-31.0949,-3.77893,-0.00164457,-0.00148803,0.0017293,0.000164767,-0.00329737,0.808013,0.00225517,0.0382239,692,792,-31.0949,3.77895
-525,232,-31.0478,-4.5755,0,0,0,0,0,0,0,-1,699,792,-31.0478,4.57551
-518,232,-20.8098,-3.08154,0,0,0,0,0,0,0,-1,706,792,-20.8098,3.08155
-511,232,-21.6708,-0.962708,0,0,0,0,0,0,0,-1,713,792,-21.6708,0.962731
-504,232,-34.2155,0.346985,0,0,0,0,0,0,0,-1,720,792,-34.2155,-0.346955
-497,232,-46.8356,0.965576,0,0,0,0,0,0,0,-1,727,792,-46.8356,-0.965565
-490,232,-46.8635,1.1438,0,0,0,0,0,0,0,-1,734,792,-46.8635,-1.1438
-483,232,-46.9739,1.09283,0.00137165,-0.00120715,-0.0013253,0.00193129,-0.00176679,-0.399564,0.0021358,0.0462781,741,792,-46.9739,-1.09284
-476,232,-46.9376,1.03192,0.00144255,-0.000877416,-0.00217281,0.00274562,-0.00218049,-0.540213,0.00285032,0.0371217,748,792,-46.9375,-1.03192
-469,232,-46.9253,1.06421,0.00112693,-0.00129848,-0.00279971,0.0029653,-0.00313685,-0.581019,0.00352354,0.0358732,755,792,-46.9253,-1.06418
-462,232,0,0,0,0,0,0,0,0,0,-1,762,792,0,0
-455,232,0,0,0,0,0,0,0,0,0,-1,769,792,0,0
-448,232,0,0,0,0,0,0,0,0,0,-1,776,792,0,0
-441,232,0,0,0,0,0,0,0,0,0,-1,783,792,0,0
-434,232,0,0,0,0,0,0,0,0,0,-1,790,792,0,0
-427,232,0,0,0,0,0,0,0,0,0,-1,797,792,0,0
-420,232,0,0,0,0,0,0,0,0,0,-1,804,792,0,0
-413,232,0,0,0,0,0,0,0,0,0,-1,811,792,0,0
-406,232,0,0,0,0,0,0,0,0,0,-1,818,792,0,0
-399,232,0,0,0,0,0,0,0,0,0,-1,825,792,0,0
-392,232,0,0,0,0,0,0,0,0,0,-1,832,792,0,0
-385,232,0,0,0,0,0,0,0,0,0,-1,839,792,0,0
-378,232,0,0,0,0,0,0,0,0,0,-1,846,792,0,0
-371,232,0,0,0,0,0,0,0,0,0,-1,853,792,0,0
-364,232,0,0,0,0,0,0,0,0,0,-1,860,792,0,0
-357,232,0,0,0,0,0,0,0,0,0,-1,867,792,0,0
-350,232,0,0,0,0,0,0,0,0,0,-1,874,792,0,0
-343,232,0,0,0,0,0,0,0,0,0,-1,881,792,0,0
-336,232,0,0,0,0,0,0,0,0,0,-1,888,792,0,0
-329,232,0,0,0,0,0,0,0,0,0,-1,895,792,0,0
-322,232,0,0,0,0,0,0,0,0,0,-1,902,792,0,0
-315,232,0,0,0,0,0,0,0,0,0,-1,909,792,0,0
-308,232,0,0,0,0,0,0,0,0,0,-1,916,792,0,0
-301,232,0,0,0,0,0,0,0,0,0,-1,923,792,0,0
-294,232,0,0,0,0,0,0,0,0,0,-1,930,792,0,0
-287,232,0,0,0,0,0,0,0,0,0,-1,937,792,0,0
-280,232,0,0,0,0,0,0,0,0,0,-1,944,792,0,0
-273,232,0,0,0,0,0,0,0,0,0,-1,951,792,0,0
-266,232,0,0,0,0,0,0,0,0,0,-1,958,792,0,0
-259,232,0,0,0,0,0,0,0,0,0,-1,965,792,0,0
-252,232,0,0,0,0,0,0,0,0,0,-1,972,792,0,0
-245,232,0,0,0,0,0,0,0,0,0,-1,979,792,0,0
-238,232,0,0,0,0,0,0,0,0,0,-1,986,792,0,0
-231,232,0,0,0,0,0,0,0,0,0,-1,993,792,0,0
-224,232,0,0,0,0,0,0,0,0,0,-1,1000,792,0,0
-217,232,0,0,0,0,0,0,0,0,0,-1,1007,792,0,0
-210,232,0,0,0,0,0,0,0,0,0,-1,1014,792,0,0
-203,232,0,0,0,0,0,0,0,0,0,-1,1021,792,0,0
-196,232,0,0,0,0,0,0,0,0,0,-1,1028,792,0,0
-189,232,0,0,0,0,0,0,0,0,0,-1,1035,792,0,0
-182,232,0,0,0,0,0,0,0,0,0,-1,1042,792,0,0
-175,232,0,0,0,0,0,0,0,0,0,-1,1049,792,0,0
-168,232,0,0,0,0,0,0,0,0,0,-1,1056,792,0,0
-161,232,0,0,0,0,0,0,0,0,0,-1,1063,792,0,0
-154,232,0,0,0,0,0,0,0,0,0,-1,1070,792,0,0
-147,232,0,0,0,0,0,0,0,0,0,-1,1077,792,0,0
-140,232,0,0,0,0,0,0,0,0,0,-1,1084,792,0,0
-133,232,0,0,0,0,0,0,0,0,0,-1,1091,792,0,0
-126,232,0,0,0,0,0,0,0,0,0,-1,1098,792,0,0
-119,232,0,0,0,0,0,0,0,0,0,-1,1105,792,0,0
-112,232,0,0,0,0,0,0,0,0,0,-1,1112,792,0,0
-105,232,0,0,0,0,0,0,0,0,0,-1,1119,792,0,0
-98,232,0,0,0,0,0,0,0,0,0,-1,1126,792,0,0
-91,232,0,0,0,0,0,0,0,0,0,-1,1133,792,0,0
-84,232,0,0,0,0,0,0,0,0,0,-1,1140,792,0,0
-77,232,0,0,0,0,0,0,0,0,0,-1,1147,792,0,0
-70,232,0,0,0,0,0,0,0,0,0,-1,1154,792,0,0
-63,232,0,0,0,0,0,0,0,0,0,-1,1161,792,0,0
-56,232,0,0,0,0,0,0,0,0,0,-1,1168,792,0,0
-49,232,0,0,0,0,0,0,0,0,0,-1,1175,792,0,0
-42,232,0,0,0,0,0,0,0,0,0,-1,1182,792,0,0
-35,232,0,0,0,0,0,0,0,0,0,-1,1189,792,0,0
-28,232,0,0,0,0,0,0,0,0,0,-1,1196,792,0,0
-21,232,0,0,0,0,0,0,0,0,0,-1,1203,792,0,0
-14,232,0,0,0,0,0,0,0,0,0,-1,1210,792,0,0
-7,232,0,0,0,0,0,0,0,0,0,-1,1217,792,0,0
0,232,0,0,0,0,0,0,0,0,0,-1,1224,792,0,0
7,232,0,0,0,0,0,0,0,0,0,-1,1231,792,0,0
14,232,0,0,0,0,0,0,0,0,0,-1,1238,792,0,0
21,232,0,0,0,0,0,0,0,0,0,-1,1245,792,0,0
28,232,0,0,0,0,0,0,0,0,0,-1,1252,792,0,0
35,232,0,0,0,0,0,0,0,0,0,-1,1259,792,0,0
42,232,0,0,0,0,0,0,0,0,0,-1,1266,792,0,0
49,232,0,0,0,0,0,0,0,0,0,-1,1273,792,0,0
56,232,0,0,0,0,0,0,0,0,0,-1,1280,792,0,0
63,232,0,0,0,0,0,0,0,0,0,-1,1287,792,0,0
70,232,0,0,0,0,0,0,0,0,0,-1,1294,792,0,0
77,232,0,0,0,0,0,0,0,0,0,-1,1301,792,0,0
84,232,0,0,0,0,0,0,0,0,0,-1,1308,792,0,0
91,232,0,0,0,0,0,0,0,0,0,-1,1315,792,0,0
98,232,0,0,0,0,0,0,0,0,0,-1,1322,792,0,0
105,232,0,0,0,0,0,0,0,0,0,-1,1329,792,0,0
112,232,0,0,0,0,0,0,0,0,0,-1,1336,792,0,0
119,232,0,0,0,0,0,0,0,0,0,-1,1343,792,0,0
126,232,0,0,0,0,0,0,0,0,0,-1,1350,792,0,0
133,232,0,0,0,0,0,0,0,0,0,-1,1357,792,0,0
140,232,0,0,0,0,0,0,0,0,0,-1,1364,792,0,0
147,232,0,0,0,0,0,0,0,0,0,-1,1371,792,0,0
154,232,0,0,0,0,0,0,0,0,0,-1,1378,792,0,0
161,232,0,0,0,0,0,0,0,0,0,-1,1385,792,0,0
168,232,0,0,0,0,0,0,0,0,0,-1,1392,792,0,0
175,232,0,0,0,0,0,0,0,0,0,-1,1399,792,0,0
182,232,0,0,0,0,0,0,0,0,0,-1,1406,792,0,0
189,232,0,0,0,0,0,0,0,0,0,-1,1413,792,0,0
196,232,0,0,0,0,0,0,0,0,0,-1,1420,792,0,0
203,232,0,0,0,0,0,0,0,0,0,-1,1427,792,0,0
210,232,0,0,0,0,0,0,0,0,0,-1,1434,792,0,0
217,232,0,0,0,0,0,0,0,0,0,-1,1441,792,0,0
224,232,0,0,0,0,0,0,0,0,0,-1,1448,792,0,0
231,232,0,0,0,0,0,0,0,0,0,-1,1455,792,0,0
238,232,0,0,0,0,0,0,0,0,0,-1,1462,792,0,0
245,232,0,0,0,0,0,0,0,0,0,-1,1469,792,0,0
252,232,0,0,0,0,0,0,0,0,0,-1,1476,792,0,0
259,232,0,0,0,0,0,0,0,0,0,-1,1483,792,0,0
266,232,0,0,0,0,0,0,0,0,0,-1,1490,792,0,0
273,232,0,0,0,0,0,0,0,0,0,-1,1497,792,0,0
280,232,0,0,0,0,0,0,0,0,0,-1,1504,792,0,0
287,232,0,0,0,0,0,0,0,0,0,-1,1511,792,0,0
294,232,0,0,0,0,0,0,0,0,0,-1,1518,792,0,0
301,232,0,0,0,0,0,0,0,0,0,-1,1525,792,0,0
308,232,0,0,0,0,0,0,0,0,0,-1,1532,792,0,0
315,232,0,0,0,0,0,0,0,0,0,-1,1539,792,0,0
322,232,0,0,0,0,0,0,0,0,0,-1,1546,792,0,0
329,232,0,0,0,0,0,0,0,0,0,-1,1553,792,0,0
336,232,0,0,0,0,0,0,0,0,0,-1,1560,792,0,0
343,232,0,0,0,0,0,0,0,0,0,-1,1567,792,0,0
350,232,0,0,0,0,0,0,0,0,0,-1,1574,792,0,0
357,232,0,0,0,0,0,0,0,0,0,-1,1581,792,0,0
364,232,0,0,0,0,0,0,0,0,0,-1,1588,792,0,0
371,232,0,0,0,0,0,0,0,0,0,-1,1595,792,0,0
378,232,0,0,0,0,0,0,0,0,0,-1,1602,792,0,0
385,232,0,0,0,0,0,0,0,0,0,-1,1609,792,0,0
392,232,0,0,0,0,0,0,0,0,0,-1,1616,792,0,0
399,232,0,0,0,0,0,0,0,0,0,-1,1623,792,0,0
406,232,0,0,0,0,0,0,0,0,0,-1,1630,792,0,0
413,232,0,0,0,0,0,0,0,0,0,-1,1637,792,0,0
420,232,0,0,0,0,0,0,0,0,0,-1,1644,792,0,0
427,232,0,0,0,0,0,0,0,0,0,-1,1651,792,0,0
434,232,0,0,0,0,0,0,0,0,0,-1,1658,792,0,0
441,232,0,0,0,0,0,0,0,0,0,-1,1665,792,0,0
448,232,0,0,0,0,0,0,0,0,0,-1,1672,792,0,0
455,232,0,0,0,0,0,0,0,0,0,-1,1679,792,0,0
462,232,0,0,0,0,0,0,0,0,0,-1,1686,792,0,0
469,232,0,0,0,0,0,0,0,0,0,-1,1693,792,0,0
476,232,0,0,0,0,0,0,0,0,0,-1,1700,792,0,0
483,232,0,0,0,0,0,0,0,0,0,-1,1707,792,0,0
490,232,0,0,0,0,0,0,0,0,0,-1,1714,792,0,0
497,232,0,0,0,0,0,0,0,0,0,-1,1721,792,0,0
504,232,0,0,0,0,0,0,0,0,0,-1,1728,792,0,0
511,232,0,0,0,0,0,0,0,0,0,-1,1735,792,0,0
518,232,0,0,0,0,0,0,0,0,0,-1,1742,792,0,0
525,232,0,0,0,0,0,0,0,0,0,-1,1749,792,0,0
532,232,0,0,0,0,0,0,0,0,0,-1,1756,792,0,0
539,232,0,0,0,0,0,0,0,0,0,-1,1763,792,0,0
546,232,0,0,0,0,0,0,0,0,0,-1,1770,792,0,0
553,232,0,0,0,0,0,0,0,0,0,-1,1777,792,0,0
560,232,0,0,0,0,0,0,0,0,0,-1,1784,792,0,0
567,232,0,0,0,0,0,0,0,0,0,-1,1791,792,0,0
574,232,0,0,0,0,0,0,0,0,0,-1,1798,792,0,0
581,232,0,0,0,0,0,0,0,0,0,-1,1805,792,0,0
588,232,61.47,2.85309,0.004747,0.00348995,-0.00160771,0.00584468,0.00239228,-0.599061,0.00339288,0.0373741,1812,792,61.47,-2.85311
595,232,61.5011,2.6676,0.00508421,0.00253846,0.00117101,0.00554092,0.00208175,0.371871,0.00323183,0.0335797,1819,792,61.5011,-2.66762
602,232,61.5284,2.68958,0.00446159,0.00193617,0.00227614,0.00580181,0.000595944,0.532153,0.00368533,0.0340719,1826,792,61.5285,-2.68958
609,232,61.6333,2.69159,0.0037186,0.00164807,0.00269616,0.00557143,-0.000204753,0.602089,0.00378438,0.0457302,1833,792,61.6333,-2.69156
616,232,61.6644,2.8028,0,0,0,0,0,0,0,-1,1840,792,61.6644,-2.8028
623,232,61.1719,3.05078,0,0,0,0,0,0,0,-1,1847,792,61.1719,-3.05079
630,232,60.9917,3.26428,0,0,0,0,0,0,0,-1,1854,792,60.9917,-3.26431
637,232,47.0471,4.04309,0,0,0,0,0,0,0,-1,1861,792,47.0471,-4.04309
644,232,30.7756,4.24139,0,0,0,0,0,0,0,-1,1868,792,30.7757,-4.24141
651,232,31.6797,-0.564087,0,0,0,0,0,0,0,-1,1875,792,31.6797,0.564059
658,232,44.1528,-2.60596,0,0,0,0,0,0,0,-1,1882,792,44.1529,2.60597
665,232,43.9612,-1.84271,-0.000925009,-0.000335374,0.000201938,-0.000272845,-0.000987538,1.27052,0.000588871,0.0434458,1889,792,43.9611,1.8427
672,232,43.8503,-1.03101,-0.00122919,-0.000372417,-0.000220517,-0.000318992,-0.00128262,-1.3331,0.000771065,0.0475342,1896,792,43.8504,1.031
679,232,43.8335,-0.279236,-0.00131607,-0.000446849,-0.000605289,-0.000136302,-0.00162662,-1.09676,0.00104195,0.0205672,1903,792,43.8336,0.27924
686,232,43.799,0.471313,-0.00130543,-0.000134288,-0.000751138,0.000232561,-0.00167228,-1.11648,0.00119991,0.0207556,1910,792,43.7989,-0.471314
693,232,43.7827,1.13007,-0.000989372,0.000249241,-0.000842135,0.000675273,-0.0014154,-1.10244,0.00123201,0.0116242,1917,792,43.7827,-1.13004
700,232,43.7505,1.85651,-0.000308623,0.000495913,-0.0011174,0.00128125,-0.00109396,-0.958177,0.00137275,0.0126437,1924,792,43.7505,-1.85651
707,232,43.7106,2.60992,0.000478982,0.000312179,-0.00161385,0.00201158,-0.00122042,-0.759582,0.00188454,0.0131971,1931,792,43.7106,-2.6099
714,232,43.6941,3.32648,0.00122481,-0.0010022,-0.00260791,0.00294698,-0.00272437,-0.583628,0.0032752,0.0148223,1938,792,43.6941,-3.32651
721,232,43.6547,4.02112,0.00219131,-0.00287867,-0.00385853,0.00427308,-0.00496044,-0.494764,0.0053359,0.022261,1945,792,43.6547,-4.02114
728,232,43.5413,4.45612,0.00325353,-0.00625741,-0.00571962,0.00593638,-0.00894026,-0.438591,0.0086472,0.0495767,1952,792,43.5412,-4.45611
735,232,43.6982,5.00092,0,0,0,0,0,0,0,-1,1959,792,43.6982,-5.00091
742,232,25.6461,6.00684,0,0,0,0,0,0,0,-1,1966,792,25.6461,-6.00684
749,232,31.2874,3.74713,0,0,0,0,0,0,0,-1,1973,792,31.2874,-3.74713
756,232,32.1207,3.896,0,0,0,0,0,0,0,-1,1980,792,32.1207,-3.89597
763,232,32.7255,4.05878,0,0,0,0,0,0,0,-1,1987,792,32.7255,-4.05881
770,232,0,0,0,0,0,0,0,0,0,-1,1994,792,0,0
777,232,0,0,0,0,0,0,0,0,0,-1,2001,792,0,0
784,232,0,0,0,0,0,0,0,0,0,-1,2008,792,0,0
791,232,0,0,0,0,0,0,0,0,0,-1,2015,792,0,0
798,232,0,0,0,0,0,0,0,0,0,-1,2022,792,0,0
805,232,0,0,0,0,0,0,0,0,0,-1,2029,792,0,0
812,232,0,0,0,0,0,0,0,0,0,-1,2036,792,0,0
-700,225,0,0,0,0,0,0,0,0,0,-1,524,799,0,0
-693,225,0,0,0,0,0,0,0,0,0,-1,531,799,0,0
-686,225,0,0,0,0,0,0,0,0,0,-1,538,799,0,0
-679,225,0,0,0,0,0,0,0,0,0,-1,545,799,0,0
-672,225,0,0,0,0,0,0,0,0,0,-1,552,799,0,0
-665,225,0,0,0,0,0,0,0,0,0,-1,559,799,0,0
-658,225,0,0,0,0,0,0,0,0,0,-1,566,799,0,0
-651,225,0,0,0,0,0,0,0,0,0,-1,573,799,0,0
-644,225,-40.8898,4.14661,0,0,0,0,0,0,0,-1,580,799,-40.8898,-4.14661
-637,225,-41.61,3.36749,0,0,0,0,0,0,0,-1,587,799,-41.61,-3.36751
-630,225,-30.244,4.82196,0,0,0,0,0,0,0,-1,594,799,-30.244,-4.82193
-623,225,-32.8276,-0.00836182,0,0,0,0,0,0,0,-1,601,799,-32.8276,0.00837668
-616,225,-32.0569,-0.549255,0,0,0,0,0,0,0,-1,608,799,-32.0569,0.549265
-609,225,-31.5674,3.47375,0,0,0,0,0,0,0,-1,615,799,-31.5674,-3.47378
-602,225,-31.3185,3.24768,0,0,0,0,0,0,0,-1,622,799,-31.3185,-3.24767
-595,225,-31.1797,2.48444,0.00977731,-0.000149336,0.000234645,0.00978286,-0.00015488,0.0236203,0.00657414,0.0310274,629,799,-31.1797,-2.48443
-588,225,-31.0826,1.7182,0.0076911,0.000422738,0.000784257,0.00777475,0.000339079,0.106271,0.00507392,0.0121757,636,799,-31.0826,-1.7182
-581,225,-31.0961,1.01459,0.00548569,0.000544082,0.000850953,0.00562812,0.000401651,0.16584,0.00362562,0.0105468,643,799,-31.0962,-1.01456
-574,225,-31.1286,0.315918,0.00329475,0.000526039,0.000882473,0.0035521,0.000268688,0.283755,0.00228378,0.00859792,650,799,-31.1286,-0.315901
-567,225,-31.1803,-0.383972,0.00134839,0.000339239,0.0010299,0.00199067,-0.000303044,0.55762,0.00143881,0.0113752,657,799,-31.1803,0.383996
-560,225,-31.236,-1.06763,-0.000381858,0.000306289,0.00101394,0.00103294,-0.00110851,0.948973,0.00123663,0.0131343,664,799,-31.236,1.06761
-553,225,-31.2703,-1.81152,-0.00118136,0.000115535,0.000985048,0.00064641,-0.00171224,1.07649,0.00140735,0.0123517,671,799,-31.2703,1.81151
-546,225,-31.3199,-2.46112,-0.00148193,0.000183,0.00111707,0.000743679,-0.00204261,1.10562,0.00166592,0.0232506,678,799,-31.3199,2.46113
-539,225,-31.9728,-2.87756,0,0,0,0,0,0,0,-1,685,799,-31.9728,2.87754
-532,225,-32.4364,-3.58575,0,0,0,0,0,0,0,-1,692,799,-32.4364,3.58574
-525,225,-29.1705,-3.88239,0,0,0,0,0,0,0,-1,699,799,-29.1705,3.88237
-518,225,-21.963,0.171326,0,0,0,0,0,0,0,-1,706,799,-21.9629,-0.171319
-511,225,-33.0002,0.660217,0,0,0,0,0,0,0,-1,713,799,-33.0002,-0.660239
-504,225,-46.8624,1.06097,0,0,0,0,0,0,0,-1,720,799,-46.8624,-1.061
-497,225,-46.8699,1.005,-2.93324e-05,-0.00142138,0.000163425,-1.04039e-05,-0.00144031,0.11531,0.000956757,0.0445804,727,799,-46.8699,-1.00499
-490,225,-46.9171,1.07013,0.000788558,-0.0014965,-0.000462244,0.000878523,-0.00158646,-0.192224,0.00144259,0.0396896,734,799,-46.917,-1.07011
-483,225,-46.9018,1.07568,0.00142405,-0.00113383,-0.00125188,0.00193477,-0.00164456,-0.387354,0.00206879,0.0358377,741,799,-46.9018,-1.07571
-476,225,-46.918,1.06372,0.00175187,-0.000839579,-0.00183104,0.00269927,-0.00178698,-0.477479,0.00260793,0.0337427,748,799,-46.9181,-1.0637
-469,225,-46.9398,1.13135,0.00174086,-0.00141049,-0.00190114,0.00263441,-0.00230404,-0.439368,0.00285334,0.0380227,755,799,-46.9398,-1.13133
-462,225,0,0,0,0,0,0,0,0,0,-1,762,799,0,0
-455,225,0,0,0,0,0,0,0,0,0,-1,769,799,0,0
-448,225,0,0,0,0,0,0,0,0,0,-1,776,799,0,0
-441,225,0,0,0,0,0,0,0,0,0,-1,783,799,0,0
-434,225,0,0,0,0,0,0,0,0,0,-1,790,799,0,0
-427,225,0,0,0,0,0,0,0,0,0,-1,797,799,0,0
-420,225,0,0,0,0,0,0,0,0,0,-1,804,799,0,0
-413,225,0,0,0,0,0,0,0,0,0,-1,811,799,0,0
-406,225,0,0,0,0,0,0,0,0,0,-1,818,799,0,0
-399,225,0,0,0,0,0,0,0,0,0,-1,825,799,0,0
-392,225,0,0,0,0,0,0,0,0,0,-1,832,799,0,0
-385,225,0,0,0,0,0,0,0,0,0,-1,839,799,0,0
-378,225,0,0,0,0,0,0,0,0,0,-1,846,799,0,0
-371,225,0,0,0,0,0,0,0,0,0,-1,853,799,0,0
-364,225,0,0,0,0,0,0,0,0,0,-1,860,799,0,0
-357,225,0,0,0,0,0,0,0,0,0,-1,867,799,0,0
-350,225,0,0,0,0,0,0,0,0,0,-1,874,799,0,0
-343,225,0,0,0,0,0,0,0,0,0,-1,881,799,0,0
-336,225,0,0,0,0,0,0,0,0,0,-1,888,799,0,0
-329,225,0,0,0,0,0,0,0,0,0,-1,895,799,0,0
-322,225,0,0,0,0,0,0,0,0,0,-1,902,799,0,0
-315,225,0,0,0,0,0,0,0,0,0,-1,909,799,0,0
-308,225,0,0,0,0,0,0,0,0,0,-1,916,799,0,0
-301,225,0,0,0,0,0,0,0,0,0,-1,923,799,0,0
-294,225,0,0,0,0,0,0,0,0,0,-1,930,799,0,0
-287,225,0,0,0,0,0,0,0,0,0,-1,937,799,0,0
-280,225,0,0,0,0,0,0,0,0,0,-1,944,799,0,0
-273,225,0,0,0,0,0,0,0,0,0,-1,951,799,0,0
-266,225,0,0,0,0,0,0,0,0,0,-1,958,799,0,0
-259,225,0,0,0,0,0,0,0,0,0,-1,965,799,0,0
-252,225,0,0,0,0,0,0,0,0,0,-1,972,799,0,0
-245,225,0,0,0,0,0,0,0,0,0,-1,979,799,0,0
-238,225,0,0,0,0,0,0,0,0,0,-1,986,799,0,0
-231,225,0,0,0,0,0,0,0,0,0,-1,993,799,0,0
-224,225,0,0,0,0,0,0,0,0,0,-1,1000,799,0,0
-217,225,0,0,0,0,0,0,0,0,0,-1,1007,799,0,0
-210,225,0,0,0,0,0,0,0,0,0,-1,1014,799,0,0
-203,225,0,0,0,0,0,0,0,0,0,-1,1021,799,0,0
-196,225,0,0,0,0,0,0,0,0,0,-1,1028,799,0,0
-189,225,0,0,0,0,0,0,0,0,0,-1,1035,799,0,0
-182,225,0,0,0,0,0,0,0,0,0,-1,1042,799,0,0
-175,225,0,0,0,0,0,0,0,0,0,-1,1049,799,0,0
-168,225,0,0,0,0,0,0,0,0,0,-1,1056,799,0,0
-161,225,0,0,0,0,0,0,0,0,0,-1,1063,799,0,0
-154,225,0,0,0,0,0,0,0,0,0,-1,1070,799,0,0
-147,225,0,0,0,0,0,0,0,0,0,-1,1077,799,0,0
-140,225,0,0,0,0,0,0,0,0,0,-1,1084,799,0,0
-133,225,0,0,0,0,0,0,0,0,0,-1,1091,799,0,0
-126,225,0,0,0,0,0,0,0,0,0,-1,1098,799,0,0
-119,225,0,0,0,0,0,0,0,0,0,-1,1105,799,0,0
-112,225,0,0,0,0,0,0,0,0,0,-1,1112,799,0,0
-105,225,0,0,0,0,0,0,0,0,0,-1,1119,799,0,0
-98,225,0,0,0,0,0,0,0,0,0,-1,1126,799,0,0
-91,225,0,0,0,0,0,0,0,0,0,-1,1133,799,0,0
-84,225,0,0,0,0,0,0,0,0,0,-1,1140,799,0,0
-77,225,0,0,0,0,0,0,0,0,0,-1,1147,799,0,0
-70,225,0,0,0,0,0,0,0,0,0,-1,1154,799,0,0
-63,225,0,0,0,0,0,0,0,0,0,-1,1161,799,0,0
-56,225,0,0,0,0,0,0,0,0,0,-1,1168,799,0,0
-49,225,0,0,0,0,0,0,0,0,0,-1,1175,799,0,0
-42,225,0,0,0,0,0,0,0,0,0,-1,1182,799,0,0
-35,225,0,0,0,0,0,0,0,0,0,-1,1189,799,0,0
-28,225,0,0,0,0,0,0,0,0,0,-1,1196,799,0,0
-21,225,0,0,0,0,0,0,0,0,0,-1,1203,799,0,0
-14,225,0,0,0,0,0,0,0,0,0,-1,1210,799,0,0
-7,225,0,0,0,0,0,0,0,0,0,-1,1217,799,0,0
0,225,0,0,0,0,0,0,0,0,0,-1,1224,799,0,0
7,225,0,0,0,0,0,0,0,0,0,-1,1231,799,0,0
14,225,0,0,0,0,0,0,0,0,0,-1,1238,799,0,0
21,225,0,0,0,0,0,0,0,0,0,-1,1245,799,0,0
28,225,0,0,0,0,0,0,0,0,0,-1,1252,799,0,0
35,225,0,0,0,0,0,0,0,0,0,-1,1259,799,0,0
42,225,0,0,0,0,0,0,0,0,0,-1,1266,799,0,0
49,225,0,0,0,0,0,0,0,0,0,-1,1273,799,0,0
56,225,0,0,0,0,0,0,0,0,0,-1,1280,799,0,0
63,225,0,0,0,0,0,0,0,0,0,-1,1287,799,0,0
70,225,0,0,0,0,0,0,0,0,0,-1,1294,799,0,0
77,225,0,0,0,0,0,0,0,0,0,-1,1301,799,0,0
84,225,0,0,0,0,0,0,0,0,0,-1,1308,799,0,0
91,225,0,0,0,0,0,0,0,0,0,-1,1315,799,0,0
98,225,0,0,0,0,0,0,0,0,0,-1,1322,799,0,0
105,225,0,0,0,0,0,0,0,0,0,-1,1329,799,0,0
112,225,0,0,0,0,0,0,0,0,0,-1,1336,799,0,0
119,225,0,0,0,0,0,0,0,0,0,-1,1343,799,0,0
126,225,0,0,0,0,0,0,0,0,0,-1,1350,799,0,0
133,225,0,0,0,0,0,0,0,0,0,-1,1357,799,0,0
140,225,0,0,0,0,0,0,0,0,0,-1,1364,799,0,0
147,225,0,0,0,0,0,0,0,0,0,-1,1371,799,0,0
154,225,0,0,0,0,0,0,0,0,0,-1,1378,799,0,0
161,225,0,0,0,0,0,0,0,0,0,-1,1385,799,0,0
168,225,0,0,0,0,0,0,0,0,0,-1,1392,799,0,0
175,225,0,0,0,0,0,0,0,0,0,-1,1399,799,0,0
182,225,0,0,0,0,0,0,0,0,0,-1,1406,799,0,0
189,225,0,0,0,0,0,0,0,0,0,-1,1413,799,0,0
196,225,0,0,0,0,0,0,0,0,0,-1,1420,799,0,0
203,225,0,0,0,0,0,0,0,0,0,-1,1427,799,0,0
210,225,0,0,0,0,0,0,0,0,0,-1,1434,799,0,0
217,225,0,0,0,0,0,0,0,0,0,-1,1441,799,0,0
224,225,0,0,0,0,0,0,0,0,0,-1,1448,799,0,0
231,225,0,0,0,0,0,0,0,0,0,-1,1455,799,0,0
238,225,0,0,0,0,0,0,0,0,0,-1,1462,799,0,0
245,225,0,0,0,0,0,0,0,0,0,-1,1469,799,0,0
252,225,0,0,0,0,0,0,0,0,0,-1,1476,799,0,0
259,225,0,0,0,0,0,0,0,0,0,-1,1483,799,0,0
266,225,0,0,0,0,0,0,0,0,0,-1,1490,799,0,0
273,225,0,0,0,0,0,0,0,0,0,-1,1497,799,0,0
280,225,0,0,0,0,0,0,0,0,0,-1,1504,799,0,0
287,225,0,0,0,0,0,0,0,0,0,-1,1511,799,0,0
294,225,0,0,0,0,0,0,0,0,0,-1,1518,799,0,0
301,225,0,0,0,0,0,0,0,0,0,-1,1525,799,0,0
308,225,0,0,0,0,0,0,0,0,0,-1,1532,799,0,0
315,225,0,0,0,0,0,0,0,0,0,-1,1539,799,0,0
322,225,0,0,0,0,0,0,0,0,0,-1,1546,799,0,0
329,225,0,0,0,0,0,0,0,0,0,-1,1553,799,0,0
336,225,0,0,0,0,0,0,0,0,0,-1,1560,799,0,0
343,225,0,0,0,0,0,0,0,0,0,-1,1567,799,0,0
350,225,0,0,0,0,0,0,0,0,0,-1,1574,799,0,0
357,225,0,0,0,0,0,0,0,0,0,-1,1581,799,0,0
364,225,0,0,0,0,0,0,0,0,0,-1,1588,799,0,0
371,225,0,0,0,0,0,0,0,0,0,-1,1595,799,0,0
378,225,0,0,0,0,0,0,0,0,0,-1,1602,799,0,0
385,225,0,0,0,0,0,0,0,0,0,-1,1609,799,0,0
392,225,0,0,0,0,0,0,0,0,0,-1,1616,799,0,0
399,225,0,0,0,0,0,0,0,0,0,-1,1623,799,0,0
406,225,0,0,0,0,0,0,0,0,0,-1,1630,799,0,0
413,225,0,0,0,0,0,0,0,0,0,-1,1637,799,0,0
420,225,0,0,0,0,0,0,0,0,0,-1,1644,799,0,0
427,225,0,0,0,0,0,0,0,0,0,-1,1651,799,0,0
434,225,0,0,0,0,0,0,0,0,0,-1,1658,799,0,0
441,225,0,0,0,0,0,0,0,0,0,-1,1665,799,0,0
448,225,0,0,0,0,0,0,0,0,0,-1,1672,799,0,0
455,225,0,0,0,0,0,0,0,0,0,-1,1679,799,0,0
462,225,0,0,0,0,0,0,0,0,0,-1,1686,799,0,0
469,225,0,0,0,0,0,0,0,0,0,-1,1693,799,0,0
476,225,0,0,0,0,0,0,0,0,0,-1,1700,799,0,0
483,225,0,0,0,0,0,0,0,0,0,-1,1707,799,0,0
490,225,0,0,0,0,0,0,0,0,0,-1,1714,799,0,0
497,225,0,0,0,0,0,0,0,0,0,-1,1721,799,0,0
504,225,0,0,0,0,0,0,0,0,0,-1,1728,799,0,0
511,225,0,0,0,0,0,0,0,0,0,-1,1735,799,0,0
518,225,0,0,0,0,0,0,0,0,0,-1,1742,799,0,0
525,225,0,0,0,0,0,0,0,0,0,-1,1749,799,0,0
532,225,0,0,0,0,0,0,0,0,0,-1,1756,799,0,0
539,225,0,0,0,0,0,0,0,0,0,-1,1763,799,0,0
546,225,0,0,0,0,0,0,0,0,0,-1,1770,799,0,0
553,225,0,0,0,0,0,0,0,0,0,-1,1777,799,0,0
560,225,0,0,0,0,0,0,0,0,0,-1,1784,799,0,0
567,225,0,0,0,0,0,0,0,0,0,-1,1791,799,0,0
574,225,0,0,0,0,0,0,0,0,0,-1,1798,799,0,0
581,225,0,0,0,0,0,0,0,0,0,-1,1805,799,0,0
588,225,61.5839,2.78583,0.00291704,0.00418871,-0.00335174,0.00696439,0.000141353,-0.879136,0.00459654,0.0351065,1812,799,61.5839,-2.7858
595,225,61.5382,2.70398,0.00370145,0.00277058,-9.02497e-05,0.00371012,0.00276191,-0.0957637,0.00222572,0.0327487,1819,799,61.5382,-2.70398
602,225,61.4327,2.75153,0.00351101,0.00201585,0.00153941,0.00447477,0.00105209,0.559356,0.00270165,0.0315305,1826,799,61.4327,-2.75155
609,225,61.4713,2.81647,0.00303842,0.00156342,0.00227284,0.00469042,-8.85751e-05,0.628515,0.00315688,0.0322059,1833,799,61.4713,-2.81647
616,225,61.5702,2.78271,0.00250025,0.00110999,0.00230184,0.00420963,-0.000599389,0.638759,0.00302607,0.0393369,1840,799,61.5702,-2.78268
623,225,61.511,2.94324,0.0019736,0.000730254,0.00216679,0.00360614,-0.000902286,0.645696,0.00275456,0.0437091,1847,799,61.511,-2.94321
630,225,61.6246,2.80713,0,0,0,0,0,0,0,-1,1854,799,61.6246,-2.80715
637,225,55.6359,2.8064,0,0,0,0,0,0,0,-1,1861,799,55.6359,-2.80637
644,225,42.0298,2.46411,0,0,0,0,0,0,0,-1,1868,799,42.0298,-2.4641
651,225,27.9657,0.579529,0,0,0,0,0,0,0,-1,1875,799,27.9657,-0.579541
658,225,45.9402,-1.77228,0,0,0,0,0,0,0,-1,1882,799,45.9402,1.77227
665,225,45.0712,-1.39227,0,0,0,0,0,0,0,-1,1889,799,45.0711,1.39227
672,225,44.661,-1.06775,0,0,0,0,0,0,0,-1,1896,799,44.6611,1.06774
679,225,44.5663,-0.201355,-0.00185085,-0.000638683,-0.000832835,-0.000214741,-0.00227479,-1.09995,0.00145026,0.029961,1903,799,44.5663,0.20136
686,225,44.532,0.468872,-0.00193201,-0.000455497,-0.000968854,2.43179e-05,-0.00241183,-1.11096,0.00161605,0.0123597,1910,799,44.5319,-0.468859
693,225,44.5127,1.17792,-0.00157292,-0.000194031,-0.00104724,0.000370336,-0.00213729,-1.07651,0.001563,0.0111553,1917,799,44.5126,-1.17794
700,225,44.4806,1.90448,-0.000711208,3.57153e-05,-0.00131763,0.00103179,-0.00170728,-0.923493,0.00159735,0.0116554,1924,799,44.4806,-1.9045
707,225,44.4279,2.63904,0.000322825,-0.000219613,-0.00179586,0.00186783,-0.00176461,-0.710452,0.00209747,0.0115779,1931,799,44.4278,-2.63906
714,225,44.4087,3.36969,0.00132409,-0.00171281,-0.00280184,0.00299249,-0.0033812,-0.537078,0.00368213,0.0132465,1938,799,44.4087,-3.36966
721,225,44.4131,4.08624,0.00255445,-0.00376881,-0.00403864,0.00452181,-0.00573616,-0.453302,0.00593626,0.0172018,1945,799,44.4131,-4.08627
728,225,44.2682,4.55182,0.00388165,-0.0073509,-0.00590327,0.00641345,-0.0098827,-0.405153,0.00947939,0.0358362,1952,799,44.2682,-4.55182
735,225,44.6869,5.62457,0,0,0,0,0,0,0,-1,1959,799,44.6869,-5.6246
742,225,29.0922,3.2132,0,0,0,0,0,0,0,-1,1966,799,29.0921,-3.21322
749,225,29.9529,4.45538,0,0,0,0,0,0,0,-1,1973,799,29.9529,-4.45537
756,225,31.8855,3.83466,0,0,0,0,0,0,0,-1,1980,799,31.8855,-3.83463
763,225,29.4901,5.14417,0,0,0,0,0,0,0,-1,1987,799,29.4902,-5.14415
770,225,0,0,0,0,0,0,0,0,0,-1,1994,799,0,0
777,225,0,0,0,0,0,0,0,0,0,-1,2001,799,0,0
784,225,0,0,0,0,0,0,0,0,0,-1,2008,799,0,0
791,225,0,0,0,0,0,0,0,0,0,-1,2015,799,0,0
798,225,0,0,0,0,0,0,0,0,0,-1,2022,799,0,0
805,225,0,0,0,0,0,0,0,0,0,-1,2029,799,0,0
812,225,0,0,0,0,0,0,0,0,0,-1,2036,799,0,0
-700,218,0,0,0,0,0,0,0,0,0,-1,524,806,0,0
-693,218,0,0,0,0,0,0,0,0,0,-1,531,806,0,0
-686,218,0,0,0,0,0,0,0,0,0,-1,538,806,0,0
-679,218,0,0,0,0,0,0,0,0,0,-1,545,806,0,0
-672,218,0,0,0,0,0,0,0,0,0,-1,552,806,0,0
-665,218,0,0,0,0,0,0,0,0,0,-1,559,806,0,0
-658,218,0,0,0,0,0,0,0,0,0,-1,566,806,0,0
-651,218,-40.3778,5.1792,0,0,0,0,0,0,0,-1,573,806,-40.3778,-5.1792
-644,218,-40.7704,4.19714,0,0,0,0,0,0,0,-1,580,806,-40.7704,-4.19714
-637,218,-41.541,3.36328,0,0,0,0,0,0,0,-1,587,806,-41.541,-3.36326
-630,218,-42.1423,2.85565,0,0,0,0,0,0,0,-1,594,806,-42.1423,-2.85567
-623,218,-42.7292,2.59015,0,0,0,0,0,0,0,-1,601,806,-42.7292,-2.59015
-616,218,-20.0258,1.87585,0,0,0,0,0,0,0,-1,608,806,-20.0258,-1.87585
-609,218,-31.6192,3.5415,0,0,0,0,0,0,0,-1,615,806,-31.6192,-3.54151
-602,218,-31.7364,2.92133,0.00823385,-0.000263082,-0.00289398,0.00912586,-0.0011551,-0.298992,0.00650323,0.0423432,622,806,-31.7364,-2.92135
-595,218,-31.8397,2.40283,0.00696866,-6.20215e-05,-0.0011717,0.00715879,-0.000252149,-0.160865,0.00485876,0.0190578,629,806,-31.8397,-2.40281
-588,218,-31.8033,1.74091,0.00548919,0.000498472,-8.42823e-07,0.00548919,0.000498472,-0.000168878,0.00350514,0.0119283,636,806,-31.8033,-1.74088
-581,218,-31.8232,1.05145,0.00382532,0.000671963,0.000502756,0.00390354,0.000593746,0.154339,0.00242876,0.0114894,643,806,-31.8232,-1.05145
-574,218,-31.8679,0.361511,0.00209483,0.000721049,0.000769565,0.00243947,0.000376413,0.42105,0.00151649,0.0105946,650,806,-31.8679,-0.361482
-567,218,-31.8726,-0.362976,0.000620809,0.000688294,0.000948335,0.00160349,-0.000294383,0.803181,0.00117943,0.0180063,657,806,-31.8726,0.362988
-560,218,-31.9271,-1.03333,-0.000743148,0.000982172,0.000737493,0.00125445,-0.00101542,1.21713,0.00131293,0.0182893,664,806,-31.9271,1.03334
-553,218,-31.8907,-1.86475,-0.00112274,0.00110868,0.000517238,0.00122274,-0.00123681,1.35375,0.00142003,0.0200242,671,806,-31.8908,1.86477
-546,218,-32.0746,-2.70056,-0.00110765,0.00162532,0.000661073,0.00177683,-0.00125915,1.3455,0.0017613,0.0270127,678,806,-32.0746,2.70058
-539,218,-32.1417,-3.33643,-0.00136284,0.00174431,0.0006853,0.00188874,-0.00150727,1.36308,0.00196481,0.0358275,685,806,-32.1417,3.3364
-532,218,-32.0405,-3.74951,0,0,0,0,0,0,0,-1,692,806,-32.0405,3.74949
-525,218,-29.3521,-3.64417,0,0,0,0,0,0,0,-1,699,806,-29.3521,3.64414
-518,218,-23.61,2.54181,0,0,0,0,0,0,0,-1,706,806,-23.61,-2.54183
-511,218,-41.0953,1.06879,0,0,0,0,0,0,0,-1,713,806,-41.0953,-1.06876
-504,218,-47.1749,0.800476,0,0,0,0,0,0,0,-1,720,806,-47.1749,-0.800488
-497,218,-46.7761,1.10895,0.000153865,0.000250392,4.89535e-05,0.000270873,0.000133384,1.17455,0.000156395,0.0437666,727,806,-46.776,-1.10893
-490,218,-46.8672,1.05841,0.00107884,5.52742e-05,-0.000520834,0.00129726,-0.000163141,-0.397081,0.000924032,0.0364981,734,806,-46.8672,-1.05839
-483,218,-46.8766,1.06281,0.00182961,0.00030632,-0.00118547,0.00247702,-0.000341095,-0.499862,0.001776,0.0346344,741,806,-46.8767,-1.06283
-476,218,-46.8489,1.125,0.00224251,0.00038822,-0.00132711,0.00293426,-0.000303532,-0.480499,0.0020648,0.0376172,748,806,-46.8489,-1.12498
-469,218,0,0,0,0,0,0,0,0,0,-1,755,806,0,0
-462,218,0,0,0,0,0,0,0,0,0,-1,762,806,0,0
-455,218,0,0,0,0,0,0,0,0,0,-1,769,806,0,0
-448,218,0,0,0,0,0,0,0,0,0,-1,776,806,0,0
-441,218,0,0,0,0,0,0,0,0,0,-1,783,806,0,0
-434,218,0,0,0,0,0,0,0,0,0,-1,790,806,0,0
-427,218,0,0,0,0,0,0,0,0,0,-1,797,806,0,0
-420,218,0,0,0,0,0,0,0,0,0,-1,804,806,0,0
-413,218,0,0,0,0,0,0,0,0,0,-1,811,806,0,0
-406,218,0,0,0,0,0,0,0,0,0,-1,818,806,0,0
-399,218,0,0,0,0,0,0,0,0,0,-1,825,806,0,0
-392,218,0,0,0,0,0,0,0,0,0,-1,832,806,0,0
-385,218,0,0,0,0,0,0,0,0,0,-1,839,806,0,0
-378,218,0,0,0,0,0,0,0,0,0,-1,846,806,0,0
-371,218,0,0,0,0,0,0,0,0,0,-1,853,806,0,0
-364,218,0,0,0,0,0,0,0,0,0,-1,860,806,0,0
-357,218,0,0,0,0,0,0,0,0,0,-1,867,806,0,0
-350,218,0,0,0,0,0,0,0,0,0,-1,874,806,0,0
-343,218,0,0,0,0,0,0,0,0,0,-1,881,806,0,0
-336,218,0,0,0,0,0,0,0,0,0,-1,888,806,0,0
-329,218,0,0,0,0,0,0,0,0,0,-1,895,806,0,0
-322,218,0,0,0,0,0,0,0,0,0,-1,902,806,0,0
-315,218,0,0,0,0,0,0,0,0,0,-1,909,806,0,0
-308,218,0,0,0,0,0,0,0,0,0,-1,916,806,0,0
-301,218,0,0,0,0,0,0,0,0,0,-1,923,806,0,0
-294,218,0,0,0,0,0,0,0,0,0,-1,930,806,0,0
-287,218,0,0,0,0,0,0,0,0,0,-1,937,806,0,0
-280,218,0,0,0,0,0,0,0,0,0,-1,944,806,0,0
-273,218,0,0,0,0,0,0,0,0,0,-1,951,806,0,0
-266,218,0,0,0,0,0,0,0,0,0,-1,958,806,0,0
-259,218,0,0,0,0,0,0,0,0,0,-1,965,806,0,0
-252,218,0,0,0,0,0,0,0,0,0,-1,972,806,0,0
-245,218,0,0,0,0,0,0,0,0,0,-1,979,806,0,0
-238,218,0,0,0,0,0,0,0,0,0,-1,986,806,0,0
-231,218,0,0,0,0,0,0,0,0,0,-1,993,806,0,0
-224,218,0,0,0,0,0,0,0,0,0,-1,1000,806,0,0
-217,218,0,0,0,0,0,0,0,0,0,-1,1007,806,0,0
-210,218,0,0,0,0,0,0,0,0,0,-1,1014,806,0,0
-203,218,0,0,0,0,0,0,0,0,0,-1,1021,806,0,0
-196,218,0,0,0,0,0,0,0,0,0,-1,1028,806,0,0
-189,218,0,0,0,0,0,0,0,0,0,-1,1035,806,0,0
-182,218,0,0,0,0,0,0,0,0,0,-1,1042,806,0,0
-175,218,0,0,0,0,0,0,0,0,0,-1,1049,806,0,0
-168,218,0,0,0,0,0,0,0,0,0,-1,1056,806,0,0
-161,218,0,0,0,0,0,0,0,0,0,-1,1063,806,0,0
-154,218,0,0,0,0,0,0,0,0,0,-1,1070,806,0,0
-147,218,0,0,0,0,0,0,0,0,0,-1,1077,806,0,0
-140,218,0,0,0,0,0,0,0,0,0,-1,1084,806,0,0
-133,218,0,0,0,0,0,0,0,0,0,-1,1091,806,0,0
-126,218,0,0,0,0,0,0,0,0,0,-1,1098,806,0,0
-119,218,0,0,0,0,0,0,0,0,0,-1,1105,806,0,0
-112,218,0,0,0,0,0,0,0,0,0,-1,1112,806,0,0
-105,218,0,0,0,0,0,0,0,0,0,-1,1119,806,0,0
-98,218,0,0,0,0,0,0,0,0,0,-1,1126,806,0,0
-91,218,0,0,0,0,0,0,0,0,0,-1,1133,806,0,0
-84,218,0,0,0,0,0,0,0,0,0,-1,1140,806,0,0
-77,218,0,0,0,0,0,0,0,0,0,-1,1147,806,0,0
-70,218,0,0,0,0,0,0,0,0,0,-1,1154,806,0,0
-63,218,0,0,0,0,0,0,0,0,0,-1,1161,806,0,0
-56,218,0,0,0,0,0,0,0,0,0,-1,1168,806,0,0
-49,218,0,0,0,0,0,0,0,0,0,-1,1175,806,0,0
-42,218,0,0,0,0,0,0,0,0,0,-1,1182,806,0,0
-35,218,0,0,0,0,0,0,0,0,0,-1,1189,806,0,0
-28,218,0,0,0,0,0,0,0,0,0,-1,1196,806,0,0
-21,218,0,0,0,0,0,0,0,0,0,-1,1203,806,0,0
-14,218,0,0,0,0,0,0,0,0,0,-1,1210,806,0,0
-7,218,0,0,0,0,0,0,0,0,0,-1,1217,806,0,0
0,218,0,0,0,0,0,0,0,0,0,-1,1224,806,0,0
7,218,0,0,0,0,0,0,0,0,0,-1,1231,806,0,0
14,218,0,0,0,0,0,0,0,0,0,-1,1238,806,0,0
21,218,0,0,0,0,0,0,0,0,0,-1,1245,806,0,0
28,218,0,0,0,0,0,0,0,0,0,-1,1252,806,0,0
35,218,0,0,0,0,0,0,0,0,0,-1,1259,806,0,0
42,218,0,0,0,0,0,0,0,0,0,-1,1266,806,0,0
49,218,0,0,0,0,0,0,0,0,0,-1,1273,806,0,0
56,218,0,0,0,0,0,0,0,0,0,-1,1280,806,0,0
63,218,0,0,0,0,0,0,0,0,0,-1,1287,806,0,0
70,218,0,0,0,0,0,0,0,0,0,-1,1294,806,0,0
77,218,0,0,0,0,0,0,0,0,0,-1,1301,806,0,0
84,218,0,0,0,0,0,0,0,0,0,-1,1308,806,0,0
91,218,0,0,0,0,0,0,0,0,0,-1,1315,806,0,0
98,218,0,0,0,0,0,0,0,0,0,-1,1322,806,0,0
105,218,0,0,0,0,0,0,0,0,0,-1,1329,806,0,0
112,218,0,0,0,0,0,0,0,0,0,-1,1336,806,0,0
119,218,0,0,0,0,0,0,0,0,0,-1,1343,806,0,0
126,218,0,0,0,0,0,0,0,0,0,-1,1350,806,0,0
133,218,0,0,0,0,0,0,0,0,0,-1,1357,806,0,0
140,218,0,0,0,0,0,0,0,0,0,-1,1364,806,0,0
147,218,0,0,0,0,0,0,0,0,0,-1,1371,806,0,0
154,218,0,0,0,0,0,0,0,0,0,-1,1378,806,0,0
161,218,0,0,0,0,0,0,0,0,0,-1,1385,806,0,0
168,218,0,0,0,0,0,0,0,0,0,-1,1392,806,0,0
175,218,0,0,0,0,0,0,0,0,0,-1,1399,806,0,0
182,218,0,0,0,0,0,0,0,0,0,-1,1406,806,0,0
189,218,0,0,0,0,0,0,0,0,0,-1,1413,806,0,0
196,218,0,0,0,0,0,0,0,0,0,-1,1420,806,0,0
203,218,0,0,0,0,0,0,0,0,0,-1,1427,806,0,0
210,218,0,0,0,0,0,0,0,0,0,-1,1434,806,0,0
217,218,0,0,0,0,0,0,0,0,0,-1,1441,806,0,0
224,218,0,0,0,0,0,0,0,0,0,-1,1448,806,0,0
231,218,0,0,0,0,0,0,0,0,0,-1,1455,806,0,0
238,218,0,0,0,0,0,0,0,0,0,-1,1462,806,0,0
245,218,0,0,0,0,0,0,0,0,0,-1,1469,806,0,0
252,218,0,0,0,0,0,0,0,0,0,-1,1476,806,0,0
259,218,0,0,0,0,0,0,0,0,0,-1,1483,806,0,0
266,218,0,0,0,0,0,0,0,0,0,-1,1490,806,0,0
273,218,0,0,0,0,0,0,0,0,0,-1,1497,806,0,0
280,218,0,0,0,0,0,0,0,0,0,-1,1504,806,0,0
287,218,0,0,0,0,0,0,0,0,0,-1,1511,806,0,0
294,218,0,0,0,0,0,0,0,0,0,-1,1518,806,0,0
301,218,0,0,0,0,0,0,0,0,0,-1,1525,806,0,0
308,218,0,0,0,0,0,0,0,0,0,-1,1532,806,0,0
315,218,0,0,0,0,0,0,0,0,0,-1,1539,806,0,0
322,218,0,0,0,0,0,0,0,0,0,-1,1546,806,0,0
329,218,0,0,0,0,0,0,0,0,0,-1,1553,806,0,0
336,218,0,0,0,0,0,0,0,0,0,-1,1560,806,0,0
343,218,0,0,0,0,0,0,0,0,0,-1,1567,806,0,0
350,218,0,0,0,0,0,0,0,0,0,-1,1574,806,0,0
357,218,0,0,0,0,0,0,0,0,0,-1,1581,806,0,0
364,218,0,0,0,0,0,0,0,0,0,-1,1588,806,0,0
371,218,0,0,0,0,0,0,0,0,0,-1,1595,806,0,0
378,218,0,0,0,0,0,0,0,0,0,-1,1602,806,0,0
385,218,0,0,0,0,0,0,0,0,0,-1,1609,806,0,0
392,218,0,0,0,0,0,0,0,0,0,-1,1616,806,0,0
399,218,0,0,0,0,0,0,0,0,0,-1,1623,806,0,0
406,218,0,0,0,0,0,0,0,0,0,-1,1630,806,0,0
413,218,0,0,0,0,0,0,0,0,0,-1,1637,806,0,0
420,218,0,0,0,0,0,0,0,0,0,-1,1644,806,0,0
427,218,0,0,0,0,0,0,0,0,0,-1,1651,806,0,0
434,218,0,0,0,0,0,0,0,0,0,-1,1658,806,0,0
441,218,0,0,0,0,0,0,0,0,0,-1,1665,806,0,0
448,218,0,0,0,0,0,0,0,0,0,-1,1672,806,0,0
455,218,0,0,0,0,0,0,0,0,0,-1,1679,806,0,0
462,218,0,0,0,0,0,0,0,0,0,-1,1686,806,0,0
469,218,0,0,0,0,0,0,0,0,0,-1,1693,806,0,0
476,218,0,0,0,0,0,0,0,0,0,-1,1700,806,0,0
483,218,0,0,0,0,0,0,0,0,0,-1,1707,806,0,0
490,218,0,0,0,0,0,0,0,0,0,-1,1714,806,0,0
497,218,0,0,0,0,0,0,0,0,0,-1,1721,806,0,0
504,218,0,0,0,0,0,0,0,0,0,-1,1728,806,0,0
511,218,0,0,0,0,0,0,0,0,0,-1,1735,806,0,0
518,218,0,0,0,0,0,0,0,0,0,-1,1742,806,0,0
525,218,0,0,0,0,0,0,0,0,0,-1,1749,806,0,0
532,218,0,0,0,0,0,0,0,0,0,-1,1756,806,0,0
539,218,0,0,0,0,0,0,0,0,0,-1,1763,806,0,0
546,218,0,0,0,0,0,0,0,0,0,-1,1770,806,0,0
553,218,0,0,0,0,0,0,0,0,0,-1,1777,806,0,0
560,218,0,0,0,0,0,0,0,0,0,-1,1784,806,0,0
567,218,0,0,0,0,0,0,0,0,0,-1,1791,806,0,0
574,218,0,0,0,0,0,0,0,0,0,-1,1798,806,0,0
581,218,0,0,0,0,0,0,0,0,0,-1,1805,806,0,0
588,218,0,0,0,0,0,0,0,0,0,-1,1812,806,0,0
595,218,61.5223,2.69751,0.00273943,0.00326788,-0.00111973,0.00415414,0.00185317,-0.901264,0.00240303,0.0367225,1819,806,61.5223,-2.6975
602,218,61.434,2.80249,0.00277015,0.00229031,0.000746761,0.00331459,0.00174588,0.629966,0.00191459,0.0330569,1826,806,61.4339,-2.8025
609,218,61.4572,2.79126,0.00244633,0.00157916,0.00173169,0.00379789,0.000227604,0.662728,0.00245957,0.0299165,1833,806,61.4571,-2.79127
616,218,61.5015,2.79144,0.00205537,0.00103823,0.00198877,0.00359956,-0.000505963,0.66022,0.00258492,0.0320855,1840,806,61.5015,-2.79142
623,218,61.5665,2.78949,0.00164027,0.000611339,0.00198032,0.00317186,-0.000920253,0.658313,0.00247893,0.0387988,1847,806,61.5666,-2.78948
630,218,61.5961,2.8103,0.000860515,0.000405773,0.0016289,0.00227783,-0.00101155,0.716053,0.00194547,0.0445642,1854,806,61.5961,-2.81031
637,218,61.4316,2.84979,0,0,0,0,0,0,0,-1,1861,806,61.4316,-2.8498
644,218,52.4042,2.47949,0,0,0,0,0,0,0,-1,1868,806,52.4041,-2.47949
651,218,41.7338,1.99164,0,0,0,0,0,0,0,-1,1875,806,41.7338,-1.99162
658,218,28.41,0.514954,0,0,0,0,0,0,0,-1,1882,806,28.41,-0.514983
665,218,45.9738,-1.48663,0,0,0,0,0,0,0,-1,1889,806,45.9738,1.48662
672,218,45.6722,-0.674805,0,0,0,0,0,0,0,-1,1896,806,45.6722,0.674831
679,218,45.4133,-0.128357,-0.00223624,-0.000702024,-0.00108193,-0.000142848,-0.00279542,-1.09377,0.00181787,0.0353092,1903,806,45.4133,0.128355
686,218,45.2664,0.512207,-0.00243796,-0.000590263,-0.00119859,-7.97911e-07,-0.00302742,-1.11373,0.00201802,0.0151712,1910,806,45.2663,-0.512201
693,218,45.2587,1.22498,-0.00213071,-0.000475685,-0.00125549,0.000200477,-0.00280687,-1.07678,0.00194152,0.0124442,1917,806,45.2587,-1.22496
700,218,45.2159,1.92889,-0.00121789,-0.000280785,-0.00150509,0.000826999,-0.00232567,-0.936299,0.0018875,0.0100258,1924,806,45.2159,-1.92887
707,218,45.1565,2.65381,-3.73482e-05,-0.000599764,-0.0019204,0.00162232,-0.00225944,-0.712699,0.00225118,0.00805552,1931,806,45.1566,-2.65384
714,218,45.1309,3.38977,0.00116992,-0.00220556,-0.00286954,0.00281126,-0.00384689,-0.519565,0.00385955,0.0103054,1938,806,45.1309,-3.38978
721,218,45.1273,4.11255,0.00260113,-0.00439731,-0.00405208,0.00445578,-0.00625195,-0.42924,0.00621104,0.0150496,1945,806,45.1273,-4.11256
728,218,45.1102,4.86182,0.00412223,-0.00810548,-0.00586577,0.00648107,-0.0104643,-0.382346,0.00987311,0.028667,1952,806,45.1103,-4.86181
735,218,45.2655,5.62842,0.00550694,-0.0139613,-0.00863251,0.00878333,-0.0172377,-0.362745,0.0152853,0.0487876,1959,806,45.2656,-5.62845
742,218,45.5923,6.4267,0,0,0,0,0,0,0,-1,1966,806,45.5923,-6.42667
749,218,42.0249,6.64703,0,0,0,0,0,0,0,-1,1973,806,42.0249,-6.64703
756,218,46.1798,4.51154,0,0,0,0,0,0,0,-1,1980,806,46.1798,-4.51151
763,218,40.3187,5.18854,0,0,0,0,0,0,0,-1,1987,806,40.3188,-5.18855
770,218,0,0,0,0,0,0,0,0,0,-1,1994,806,0,0
777,218,0,0,0,0,0,0,0,0,0,-1,2001,806,0,0
784,218,0,0,0,0,0,0,0,0,0,-1,2008,806,0,0
791,218,0,0,0,0,0,0,0,0,0,-1,2015,806,0,0
798,218,0,0,0,0,0,0,0,0,0,-1,2022,806,0,0
805,218,0,0,0,0,0,0,0,0,0,-1,2029,806,0,0
812,218,0,0,0,0,0,0,0,0,0,-1,2036,806,0,0
-700,211,0,0,0,0,0,0,0,0,0,-1,524,813,0,0
-693,211,0,0,0,0,0,0,0,0,0,-1,531,813,0,0
-686,211,0,0,0,0,0,0,0,0,0,-1,538,813,0,0
-679,211,0,0,0,0,0,0,0,0,0,-1,545,813,0,0
-672,211,0,0,0,0,0,0,0,0,0,-1,552,813,0,0
-665,211,0,0,0,0,0,0,0,0,0,-1,559,813,0,0
-658,211,0,0,0,0,0,0,0,0,0,-1,566,813,0,0
-651,211,-40.2495,5.20386,0,0,0,0,0,0,0,-1,573,813,-40.2494,-5.20384
-644,211,-40.6288,4.32092,0,0,0,0,0,0,0,-1,580,813,-40.6288,-4.3209
-637,211,-41.3664,3.51849,0,0,0,0,0,0,0,-1,587,813,-41.3664,-3.51847
-630,211,-41.9262,2.94977,0,0,0,0,0,0,0,-1,594,813,-41.9262,-2.94975
-623,211,-42.5012,2.62903,0,0,0,0,0,0,0,-1,601,813,-42.5011,-2.629
-616,211,-32.1454,4.59229,0,0,0,0,0,0,0,-1,608,813,-32.1454,-4.5923
-609,211,-32.222,3.85663,0.00647875,-0.000189866,-0.00755801,0.0114053,-0.00511637,-0.577658,0.0097664,0.0401205,615,813,-32.222,-3.85662
-602,211,-32.39,3.12897,0.00553565,4.1396e-06,-0.0040876,0.00770527,-0.00216548,-0.487967,0.00599059,0.0215309,622,813,-32.39,-3.12895
-595,211,-32.4853,2.45135,0.00460062,0.000195142,-0.00193622,0.00533063,-0.000534865,-0.360547,0.00374479,0.0114468,629,813,-32.4853,-2.45137
-588,211,-32.5135,1.76563,0.00345986,0.000597734,-0.000389385,0.00351189,0.000545705,-0.132832,0.00218222,0.0117255,636,813,-32.5135,-1.76564
-581,211,-32.5324,1.07715,0.0021346,0.000700635,0.000341852,0.00221193,0.000623308,0.222454,0.00131697,0.0119486,643,813,-32.5324,-1.07716
-574,211,-32.5765,0.379272,0.000765922,0.000725967,0.000653855,0.0014001,9.17844e-05,0.770126,0.000904362,0.013826,650,813,-32.5765,-0.379286
-567,211,-32.6204,-0.322388,-0.000240132,0.000759272,0.00067411,0.00109869,-0.000579553,1.10435,0.000984266,0.0211322,657,813,-32.6204,0.322412
-560,211,-32.6448,-1.03979,-0.00126356,0.00127057,0.000150972,0.00127953,-0.00127252,1.5115,0.00147343,0.0292315,664,813,-32.6448,1.03977
-553,211,-32.702,-1.88715,0,0,0,0,0,0,0,-1,671,813,-32.702,1.88714
-546,211,-32.7087,-2.90033,0,0,0,0,0,0,0,-1,678,813,-32.7088,2.90035
-539,211,-32.8404,-3.14417,0,0,0,0,0,0,0,-1,685,813,-32.8404,3.14417
-532,211,-32.6805,-3.81781,0,0,0,0,0,0,0,-1,692,813,-32.6805,3.81781
-525,211,-14.3009,2.3233,0,0,0,0,0,0,0,-1,699,813,-14.3009,-2.3233
-518,211,-34.952,1.93011,0,0,0,0,0,0,0,-1,706,813,-34.952,-1.9301
-511,211,-47.2349,0.734558,0,0,0,0,0,0,0,-1,713,813,-47.2349,-0.734538
-504,211,-47.0172,0.912354,-0.000564935,0.00245498,-0.000392916,0.00250526,-0.000615219,-1.44351,0.00190859,0.0469509,720,813,-47.0172,-0.912357
-497,211,-46.7992,1.10468,0.000361698,0.00213461,-0.000560272,0.00229683,0.000199484,-1.28897,0.00146924,0.0446428,727,813,-46.7992,-1.10467
-490,211,-46.8746,1.08557,0.00142965,0.00212279,-0.00093892,0.00277706,0.00077538,-0.9622,0.00165462,0.0353075,734,813,-46.8746,-1.08555
-483,211,-46.9318,1.04852,0.00228321,0.00240274,-0.00113272,0.00347727,0.00120868,-0.811756,0.00203845,0.0331521,741,813,-46.9318,-1.0485
-476,211,-46.9165,1.08643,0.00270884,0.00232383,-0.000142778,0.00275601,0.00227666,-0.31908,0.00170023,0.0359697,748,813,-46.9165,-1.08642
-469,211,0,0,0,0,0,0,0,0,0,-1,755,813,0,0
-462,211,0,0,0,0,0,0,0,0,0,-1,762,813,0,0
-455,211,0,0,0,0,0,0,0,0,0,-1,769,813,0,0
-448,211,0,0,0,0,0,0,0,0,0,-1,776,813,0,0
-441,211,0,0,0,0,0,0,0,0,0,-1,783,813,0,0
-434,211,0,0,0,0,0,0,0,0,0,-1,790,813,0,0
-427,211,0,0,0,0,0,0,0,0,0,-1,797,813,0,0
-420,211,0,0,0,0,0,0,0,0,0,-1,804,813,0,0
-413,211,0,0,0,0,0,0,0,0,0,-1,811,813,0,0
-406,211,0,0,0,0,0,0,0,0,0,-1,818,813,0,0
-399,211,0,0,0,0,0,0,0,0,0,-1,825,813,0,0
-392,211,0,0,0,0,0,0,0,0,0,-1,832,813,0,0
-385,211,0,0,0,0,0,0,0,0,0,-1,839,813,0,0
-378,211,0,0,0,0,0,0,0,0,0,-1,846,813,0,0
-371,211,0,0,0,0,0,0,0,0,0,-1,853,813,0,0
-364,211,0,0,0,0,0,0,0,0,0,-1,860,813,0,0
-357,211,0,0,0,0,0,0,0,0,0,-1,867,813,0,0
-350,211,0,0,0,0,0,0,0,0,0,-1,874,813,0,0
-343,211,0,0,0,0,0,0,0,0,0,-1,881,813,0,0
-336,211,0,0,0,0,0,0,0,0,0,-1,888,813,0,0
-329,211,0,0,0,0,0,0,0,0,0,-1,895,813,0,0
-322,211,0,0,0,0,0,0,0,0,0,-1,902,813,0,0
-315,211,0,0,0,0,0,0,0,0,0,-1,909,813,0,0
-308,211,0,0,0,0,0,0,0,0,0,-1,916,813,0,0
-301,211,0,0,0,0,0,0,0,0,0,-1,923,813,0,0
-294,211,0,0,0,0,0,0,0,0,0,-1,930,813,0,0
-287,211,0,0,0,0,0,0,0,0,0,-1,937,813,0,0
-280,211,0,0,0,0,0,0,0,0,0,-1,944,813,0,0
-273,211,0,0,0,0,0,0,0,0,0,-1,951,813,0,0
-266,211,0,0,0,0,0,0,0,0,0,-1,958,813,0,0
-259,211,0,0,0,0,0,0,0,0,0,-1,965,813,0,0
-252,211,0,0,0,0,0,0,0,0,0,-1,972,813,0,0
-245,211,0,0,0,0,0,0,0,0,0,-1,979,813,0,0
-238,211,0,0,0,0,0,0,0,0,0,-1,986,813,0,0
-231,211,0,0,0,0,0,0,0,0,0,-1,993,813,0,0
-224,211,0,0,0,0,0,0,0,0,0,-1,1000,813,0,0
-217,211,0,0,0,0,0,0,0,0,0,-1,1007,813,0,0
-210,211,0,0,0,0,0,0,0,0,0,-1,1014,813,0,0
-203,211,0,0,0,0,0,0,0,0,0,-1,1021,813,0,0
-196,211,0,0,0,0,0,0,0,0,0,-1,1028,813,0,0
-189,211,0,0,0,0,0,0,0,0,0,-1,1035,813,0,0
-182,211,0,0,0,0,0,0,0,0,0,-1,1042,813,0,0
-175,211,0,0,0,0,0,0,0,0,0,-1,1049,813,0,0
-168,211,0,0,0,0,0,0,0,0,0,-1,1056,813,0,0
-161,211,0,0,0,0,0,0,0,0,0,-1,1063,813,0,0
-154,211,0,0,0,0,0,0,0,0,0,-1,1070,813,0,0
-147,211,0,0,0,0,0,0,0,0,0,-1,1077,813,0,0
-140,211,0,0,0,0,0,0,0,0,0,-1,1084,813,0,0
-133,211,0,0,0,0,0,0,0,0,0,-1,1091,813,0,0
-126,211,0,0,0,0,0,0,0,0,0,-1,1098,813,0,0
-119,211,0,0,0,0,0,0,0,0,0,-1,1105,813,0,0
-112,211,0,0,0,0,0,0,0,0,0,-1,1112,813,0,0
-105,211,0,0,0,0,0,0,0,0,0,-1,1119,813,0,0
-98,211,0,0,0,0,0,0,0,0,0,-1,1126,813,0,0
-91,211,0,0,0,0,0,0,0,0,0,-1,1133,813,0,0
-84,211,0,0,0,0,0,0,0,0,0,-1,1140,813,0,0
-77,211,0,0,0,0,0,0,0,0,0,-1,1147,813,0,0
-70,211,0,0,0,0,0,0,0,0,0,-1,1154,813,0,0
-63,211,0,0,0,0,0,0,0,0,0,-1,1161,813,0,0
-56,211,0,0,0,0,0,0,0,0,0,-1,1168,813,0,0
-49,211,0,0,0,0,0,0,0,0,0,-1,1175,813,0,0
-42,211,0,0,0,0,0,0,0,0,0,-1,1182,813,0,0
-35,211,0,0,0,0,0,0,0,0,0,-1,1189,813,0,0
-28,211,0,0,0,0,0,0,0,0,0,-1,1196,813,0,0
-21,211,0,0,0,0,0,0,0,0,0,-1,1203,813,0,0
-14,211,0,0,0,0,0,0,0,0,0,-1,1210,813,0,0
-7,211,0,0,0,0,0,0,0,0,0,-1,1217,813,0,0
0,211,0,0,0,0,0,0,0,0,0,-1,1224,813,0,0
7,211,0,0,0,0,0,0,0,0,0,-1,1231,813,0,0
14,211,0,0,0,0,0,0,0,0,0,-1,1238,813,0,0
21,211,0,0,0,0,0,0,0,0,0,-1,1245,813,0,0
28,211,0,0,0,0,0,0,0,0,0,-1,1252,813,0,0
35,211,0,0,0,0,0,0,0,0,0,-1,1259,813,0,0
42,211,0,0,0,0,0,0,0,0,0,-1,1266,813,0,0
49,211,0,0,0,0,0,0,0,0,0,-1,1273,813,0,0
56,211,0,0,0,0,0,0,0,0,0,-1,1280,813,0,0
63,211,0,0,0,0,0,0,0,0,0,-1,1287,813,0,0
70,211,0,0,0,0,0,0,0,0,0,-1,1294,813,0,0
77,211,0,0,0,0,0,0,0,0,0,-1,1301,813,0,0
84,211,0,0,0,0,0,0,0,0,0,-1,1308,813,0,0
91,211,0,0,0,0,0,0,0,0,0,-1,1315,813,0,0
98,211,0,0,0,0,0,0,0,0,0,-1,1322,813,0,0
105,211,0,0,0,0,0,0,0,0,0,-1,1329,813,0,0
112,211,0,0,0,0,0,0,0,0,0,-1,1336,813,0,0
119,211,0,0,0,0,0,0,0,0,0,-1,1343,813,0,0
126,211,0,0,0,0,0,0,0,0,0,-1,1350,813,0,0
133,211,0,0,0,0,0,0,0,0,0,-1,1357,813,0,0
140,211,0,0,0,0,0,0,0,0,0,-1,1364,813,0,0
147,211,0,0,0,0,0,0,0,0,0,-1,1371,813,0,0
154,211,0,0,0,0,0,0,0,0,0,-1,1378,813,0,0
161,211,0,0,0,0,0,0,0,0,0,-1,1385,813,0,0
168,211,0,0,0,0,0,0,0,0,0,-1,1392,813,0,0
175,211,0,0,0,0,0,0,0,0,0,-1,1399,813,0,0
182,211,0,0,0,0,0,0,0,0,0,-1,1406,813,0,0
189,211,0,0,0,0,0,0,0,0,0,-1,1413,813,0,0
196,211,0,0,0,0,0,0,0,0,0,-1,1420,813,0,0
203,211,0,0,0,0,0,0,0,0,0,-1,1427,813,0,0
210,211,0,0,0,0,0,0,0,0,0,-1,1434,813,0,0
217,211,0,0,0,0,0,0,0,0,0,-1,1441,813,0,0
224,211,0,0,0,0,0,0,0,0,0,-1,1448,813,0,0
231,211,0,0,0,0,0,0,0,0,0,-1,1455,813,0,0
238,211,0,0,0,0,0,0,0,0,0,-1,1462,813,0,0
245,211,0,0,0,0,0,0,0,0,0,-1,1469,813,0,0
252,211,0,0,0,0,0,0,0,0,0,-1,1476,813,0,0
259,211,0,0,0,0,0,0,0,0,0,-1,1483,813,0,0
266,211,0,0,0,0,0,0,0,0,0,-1,1490,813,0,0
273,211,0,0,0,0,0,0,0,0,0,-1,1497,813,0,0
280,211,0,0,0,0,0,0,0,0,0,-1,1504,813,0,0
287,211,0,0,0,0,0,0,0,0,0,-1,1511,813,0,0
294,211,0,0,0,0,0,0,0,0,0,-1,1518,813,0,0
301,211,0,0,0,0,0,0,0,0,0,-1,1525,813,0,0
308,211,0,0,0,0,0,0,0,0,0,-1,1532,813,0,0
315,211,0,0,0,0,0,0,0,0,0,-1,1539,813,0,0
322,211,0,0,0,0,0,0,0,0,0,-1,1546,813,0,0
329,211,0,0,0,0,0,0,0,0,0,-1,1553,813,0,0
336,211,0,0,0,0,0,0,0,0,0,-1,1560,813,0,0
343,211,0,0,0,0,0,0,0,0,0,-1,1567,813,0,0
350,211,0,0,0,0,0,0,0,0,0,-1,1574,813,0,0
357,211,0,0,0,0,0,0,0,0,0,-1,1581,813,0,0
364,211,0,0,0,0,0,0,0,0,0,-1,1588,813,0,0
371,211,0,0,0,0,0,0,0,0,0,-1,1595,813,0,0
378,211,0,0,0,0,0,0,0,0,0,-1,1602,813,0,0
385,211,0,0,0,0,0,0,0,0,0,-1,1609,813,0,0
392,211,0,0,0,0,0,0,0,0,0,-1,1616,813,0,0
399,211,0,0,0,0,0,0,0,0,0,-1,1623,813,0,0
406,211,0,0,0,0,0,0,0,0,0,-1,1630,813,0,0
413,211,0,0,0,0,0,0,0,0,0,-1,1637,813,0,0
420,211,0,0,0,0,0,0,0,0,0,-1,1644,813,0,0
427,211,0,0,0,0,0,0,0,0,0,-1,1651,813,0,0
434,211,0,0,0,0,0,0,0,0,0,-1,1658,813,0,0
441,211,0,0,0,0,0,0,0,0,0,-1,1665,813,0,0
448,211,0,0,0,0,0,0,0,0,0,-1,1672,813,0,0
455,211,0,0,0,0,0,0,0,0,0,-1,1679,813,0,0
462,211,0,0,0,0,0,0,0,0,0,-1,1686,813,0,0
469,211,0,0,0,0,0,0,0,0,0,-1,1693,813,0,0
476,211,0,0,0,0,0,0,0,0,0,-1,1700,813,0,0
483,211,0,0,0,0,0,0,0,0,0,-1,1707,813,0,0
490,211,0,0,0,0,0,0,0,0,0,-1,1714,813,0,0
497,211,0,0,0,0,0,0,0,0,0,-1,1721,813,0,0
504,211,0,0,0,0,0,0,0,0,0,-1,1728,813,0,0
511,211,0,0,0,0,0,0,0,0,0,-1,1735,813,0,0
518,211,0,0,0,0,0,0,0,0,0,-1,1742,813,0,0
525,211,0,0,0,0,0,0,0,0,0,-1,1749,813,0,0
532,211,0,0,0,0,0,0,0,0,0,-1,1756,813,0,0
539,211,0,0,0,0,0,0,0,0,0,-1,1763,813,0,0
546,211,0,0,0,0,0,0,0,0,0,-1,1770,813,0,0
553,211,0,0,0,0,0,0,0,0,0,-1,1777,813,0,0
560,211,0,0,0,0,0,0,0,0,0,-1,1784,813,0,0
567,211,0,0,0,0,0,0,0,0,0,-1,1791,813,0,0
574,211,0,0,0,0,0,0,0,0,0,-1,1798,813,0,0
581,211,0,0,0,0,0,0,0,0,0,-1,1805,813,0,0
588,211,0,0,0,0,0,0,0,0,0,-1,1812,813,0,0
595,211,61.5417,2.67938,0.00210022,0.00407128,-0.00151873,0.00489622,0.00127528,-1.0732,0.00293298,0.0399332,1819,813,61.5418,-2.67939
602,211,61.4521,2.73273,0.0022225,0.00283439,0.000276985,0.00294114,0.00211574,1.20291,0.0017517,0.0382696,1826,813,61.4521,-2.73275
609,211,61.4272,2.68286,0.00201056,0.00183069,0.00135594,0.00327955,0.000561705,0.752282,0.00202526,0.0362449,1833,813,61.4272,-2.68285
616,211,61.5052,2.74255,0.00176075,0.00120175,0.0018474,0.00334967,-0.000387175,0.710321,0.00237272,0.0307319,1840,813,61.5053,-2.74258
623,211,61.5486,2.83899,0.00146076,0.000748236,0.00198757,0.00312375,-0.000914752,0.696717,0.00244514,0.034243,1847,813,61.5485,-2.839
630,211,61.4868,2.85565,0.000654304,0.000606828,0.0017006,0.00233133,-0.0010702,0.778419,0.00200836,0.0400249,1854,813,61.4868,-2.85566
637,211,61.4984,2.84375,-4.00867e-05,0.000353832,0.00128729,0.00145914,-0.0011454,0.861311,0.00150737,0.0453579,1861,813,61.4984,-2.84373
644,211,61.5896,2.73346,0,0,0,0,0,0,0,-1,1868,813,61.5896,-2.73349
651,211,48.5043,2.95557,0,0,0,0,0,0,0,-1,1875,813,48.5043,-2.95558
658,211,27.7909,1.52234,0,0,0,0,0,0,0,-1,1882,813,27.7909,-1.52234
665,211,42.2053,-0.745605,0,0,0,0,0,0,0,-1,1889,813,42.2054,0.745605
672,211,46.9733,-0.797607,0,0,0,0,0,0,0,-1,1896,813,46.9733,0.797621
679,211,46.3759,-0.0710449,-0.00252199,-0.000574456,-0.0012218,1.41523e-05,-0.0031106,-1.12185,0.00207847,0.0408609,1903,813,46.3759,0.0710474
686,211,46.0337,0.54364,-0.00286871,-0.000592278,-0.00135006,3.53475e-05,-0.00349633,-1.13563,0.00234276,0.0172716,1910,813,46.0337,-0.543665
693,211,45.9648,1.23669,-0.0027236,-0.00066957,-0.00145351,8.31485e-05,-0.00347632,-1.09296,0.00234575,0.0131995,1917,813,45.9649,-1.23669
700,211,45.8531,1.93152,-0.00190053,-0.000538784,-0.00172843,0.000638047,-0.00307736,-0.973028,0.00229403,0.0145572,1924,813,45.8531,-1.93152
707,211,45.8586,2.698,-0.000693693,-0.000904466,-0.00207759,0.00128118,-0.00287934,-0.760057,0.00246044,0.0213908,1931,813,45.8587,-2.69799
714,211,45.8569,3.46124,0.000653802,-0.00250671,-0.00291712,0.0023912,-0.00424411,-0.537167,0.00388037,0.0223886,1938,813,45.857,-3.46122
721,211,45.8572,4.15082,0.00222486,-0.00472465,-0.00400702,0.00405389,-0.00655368,-0.42821,0.00618071,0.0190631,1945,813,45.8572,-4.15085
728,211,45.8518,4.83936,0.00386967,-0.00839498,-0.00570686,0.00611432,-0.0106396,-0.374738,0.0097898,0.0191495,1952,813,45.8518,-4.83933
735,211,45.9203,5.59479,0.00543108,-0.0140134,-0.00823844,0.00845222,-0.0170346,-0.351485,0.0149903,0.0329137,1959,813,45.9202,-5.59478
742,211,46.1088,6.35242,0,0,0,0,0,0,0,-1,1966,813,46.1088,-6.3524
749,211,46.3629,5.98511,0,0,0,0,0,0,0,-1,1973,813,46.3629,-5.98512
756,211,46.7059,5.20349,0,0,0,0,0,0,0,-1,1980,813,46.7059,-5.2035
763,211,46.327,4.94507,0,0,0,0,0,0,0,-1,1987,813,46.327,-4.94507
770,211,39.2373,7.45868,0,0,0,0,0,0,0,-1,1994,813,39.2373,-7.45868
777,211,0,0,0,0,0,0,0,0,0,-1,2001,813,0,0
784,211,0,0,0,0,0,0,0,0,0,-1,2008,813,0,0
791,211,0,0,0,0,0,0,0,0,0,-1,2015,813,0,0
798,211,0,0,0,0,0,0,0,0,0,-1,2022,813,0,0
805,211,0,0,0,0,0,0,0,0,0,-1,2029,813,0,0
812,211,0,0,0,0,0,0,0,0,0,-1,2036,813,0,0
-700,204,0,0,0,0,0,0,0,0,0,-1,524,820,0,0
-693,204,0,0,0,0,0,0,0,0,0,-1,531,820,0,0
-686,204,0,0,0,0,0,0,0,0,0,-1,538,820,0,0
-679,204,0,0,0,0,0,0,0,0,0,-1,545,820,0,0
-672,204,0,0,0,0,0,0,0,0,0,-1,552,820,0,0
-665,204,0,0,0,0,0,0,0,0,0,-1,559,820,0,0
-658,204,0,0,0,0,0,0,0,0,0,-1,566,820,0,0
-651,204,-40.064,5.25806,0,0,0,0,0,0,0,-1,573,820,-40.064,-5.25806
-644,204,-40.4117,4.54321,0,0,0,0,0,0,0,-1,580,820,-40.4117,-4.54323
-637,204,-40.8671,3.93817,0,0,0,0,0,0,0,-1,587,820,-40.8671,-3.93819
-630,204,-41.7101,3.04382,0,0,0,0,0,0,0,-1,594,820,-41.7101,-3.04383
-623,204,-41.8597,2.11951,0,0,0,0,0,0,0,-1,601,820,-41.8597,-2.11951
-616,204,-33.1212,4.24335,0,0,0,0,0,0,0,-1,608,820,-33.1212,-4.24335
-609,204,-33.0323,3.85706,0.00392883,0.000191138,-0.00881192,0.0110679,-0.00694793,-0.680906,0.0104917,0.0359444,615,820,-33.0324,-3.85705
-602,204,-33.1293,3.18066,0.00324017,0.000281229,-0.00502438,0.00699838,-0.00347698,-0.642216,0.0061608,0.0162288,622,820,-33.1293,-3.18068
-595,204,-33.2022,2.46704,0.00255951,0.000379706,-0.00249771,0.00419476,-0.00125554,-0.579671,0.00329572,0.0145343,629,820,-33.2022,-2.46706
-588,204,-33.2275,1.76837,0.00170966,0.000550915,-0.000633947,0.0019891,0.000271474,-0.415174,0.00124548,0.0133539,636,820,-33.2275,-1.76838
-581,204,-33.2401,1.07379,0.000728789,0.000495847,0.000275621,0.000911538,0.000313098,0.58549,0.000534803,0.0131001,643,820,-33.2401,-1.07378
-574,204,-33.2521,0.405579,-0.000208116,0.000377285,0.000608209,0.00075956,-0.000590391,1.00967,0.000781432,0.0145067,650,820,-33.2522,-0.405556
-567,204,-33.2629,-0.280701,-0.000675379,0.00035463,0.000412884,0.000499703,-0.000820452,1.23291,0.000769654,0.0147361,657,820,-33.2629,0.280723
-560,204,-33.1841,-1.0506,-0.00140586,0.00103236,-0.000421965,0.00110332,-0.00147682,-1.40419,0.00149484,0.0250107,664,820,-33.1842,1.05061
-553,204,-33.3664,-1.74695,0,0,0,0,0,0,0,-1,671,820,-33.3664,1.74698
-546,204,-32.433,-2.2323,0,0,0,0,0,0,0,-1,678,820,-32.433,2.23228
-539,204,-33.4476,-2.94427,0,0,0,0,0,0,0,-1,685,820,-33.4476,2.94426
-532,204,-30.0565,-3.29065,0,0,0,0,0,0,0,-1,692,820,-30.0565,3.29063
-525,204,-25.7137,1.52496,0,0,0,0,0,0,0,-1,699,820,-25.7137,-1.52496
-518,204,-43.4591,0.383972,0,0,0,0,0,0,0,-1,706,820,-43.4591,-0.383942
-511,204,-46.6303,1.26318,0,0,0,0,0,0,0,-1,713,820,-46.6303,-1.26316
-504,204,-46.7889,1.11401,-0.000611671,0.00365521,-0.0013406,0.00404145,-0.000997907,-1.29029,0.00308128,0.0489598,720,820,-46.7889,-1.11402
-497,204,-46.7543,1.1687,0.000458525,0.00365359,-0.0013737,0.00416299,-5.08737e-05,-1.21569,0.00279244,0.0395321,727,820,-46.7543,-1.16869
-490,204,-46.8206,1.18384,0.00170064,0.00417359,-0.00145949,0.00484996,0.00102427,-1.13683,0.00295172,0.033833,734,820,-46.8205,-1.18387
-483,204,-46.8166,1.28326,0.00272151,0.00476033,-0.000968782,0.00514724,0.0023346,-1.19083,0.00297603,0.03896,741,820,-46.8166,-1.28327
-476,204,0,0,0,0,0,0,0,0,0,-1,748,820,0,0
-469,204,0,0,0,0,0,0,0,0,0,-1,755,820,0,0
-462,204,0,0,0,0,0,0,0,0,0,-1,762,820,0,0
-455,204,0,0,0,0,0,0,0,0,0,-1,769,820,0,0
-448,204,0,0,0,0,0,0,0,0,0,-1,776,820,0,0
-441,204,0,0,0,0,0,0,0,0,0,-1,783,820,0,0
-434,204,0,0,0,0,0,0,0,0,0,-1,790,820,0,0
-427,204,0,0,0,0,0,0,0,0,0,-1,797,820,0,0
-420,204,0,0,0,0,0,0,0,0,0,-1,804,820,0,0
-413,204,0,0,0,0,0,0,0,0,0,-1,811,820,0,0
-406,204,0,0,0,0,0,0,0,0,0,-1,818,820,0,0
-399,204,0,0,0,0,0,0,0,0,0,-1,825,820,0,0
-392,204,0,0,0,0,0,0,0,0,0,-1,832,820,0,0
-385,204,0,0,0,0,0,0,0,0,0,-1,839,820,0,0
-378,204,0,0,0,0,0,0,0,0,0,-1,846,820,0,0
-371,204,0,0,0,0,0,0,0,0,0,-1,853,820,0,0
-364,204,0,0,0,0,0,0,0,0,0,-1,860,820,0,0
-357,204,0,0,0,0,0,0,0,0,0,-1,867,820,0,0
-350,204,0,0,0,0,0,0,0,0,0,-1,874,820,0,0
-343,204,0,0,0,0,0,0,0,0,0,-1,881,820,0,0
-336,204,0,0,0,0,0,0,0,0,0,-1,888,820,0,0
-329,204,0,0,0,0,0,0,0,0,0,-1,895,820,0,0
-322,204,0,0,0,0,0,0,0,0,0,-1,902,820,0,0
-315,204,0,0,0,0,0,0,0,0,0,-1,909,820,0,0
-308,204,0,0,0,0,0,0,0,0,0,-1,916,820,0,0
-301,204,0,0,0,0,0,0,0,0,0,-1,923,820,0,0
-294,204,0,0,0,0,0,0,0,0,0,-1,930,820,0,0
-287,204,0,0,0,0,0,0,0,0,0,-1,937,820,0,0
-280,204,0,0,0,0,0,0,0,0,0,-1,944,820,0,0
-273,204,0,0,0,0,0,0,0,0,0,-1,951,820,0,0
-266,204,0,0,0,0,0,0,0,0,0,-1,958,820,0,0
-259,204,0,0,0,0,0,0,0,0,0,-1,965,820,0,0
-252,204,0,0,0,0,0,0,0,0,0,-1,972,820,0,0
-245,204,0,0,0,0,0,0,0,0,0,-1,979,820,0,0
-238,204,0,0,0,0,0,0,0,0,0,-1,986,820,0,0
-231,204,0,0,0,0,0,0,0,0,0,-1,993,820,0,0
-224,204,0,0,0,0,0,0,0,0,0,-1,1000,820,0,0
-217,204,0,0,0,0,0,0,0,0,0,-1,1007,820,0,0
-210,204,0,0,0,0,0,0,0,0,0,-1,1014,820,0,0
-203,204,0,0,0,0,0,0,0,0,0,-1,1021,820,0,0
-196,204,0,0,0,0,0,0,0,0,0,-1,1028,820,0,0
-189,204,0,0,0,0,0,0,0,0,0,-1,1035,820,0,0
-182,204,0,0,0,0,0,0,0,0,0,-1,1042,820,0,0
-175,204,0,0,0,0,0,0,0,0,0,-1,1049,820,0,0
-168,204,0,0,0,0,0,0,0,0,0,-1,1056,820,0,0
-161,204,0,0,0,0,0,0,0,0,0,-1,1063,820,0,0
-154,204,0,0,0,0,0,0,0,0,0,-1,1070,820,0,0
-147,204,0,0,0,0,0,0,0,0,0,-1,1077,820,0,0
-140,204,0,0,0,0,0,0,0,0,0,-1,1084,820,0,0
-133,204,0,0,0,0,0,0,0,0,0,-1,1091,820,0,0
-126,204,0,0,0,0,0,0,0,0,0,-1,1098,820,0,0
-119,204,0,0,0,0,0,0,0,0,0,-1,1105,820,0,0
-112,204,0,0,0,0,0,0,0,0,0,-1,1112,820,0,0
-105,204,0,0,0,0,0,0,0,0,0,-1,1119,820,0,0
-98,204,0,0,0,0,0,0,0,0,0,-1,1126,820,0,0
-91,204,0,0,0,0,0,0,0,0,0,-1,1133,820,0,0
-84,204,0,0,0,0,0,0,0,0,0,-1,1140,820,0,0
-77,204,0,0,0,0,0,0,0,0,0,-1,1147,820,0,0
-70,204,0,0,0,0,0,0,0,0,0,-1,1154,820,0,0
-63,204,0,0,0,0,0,0,0,0,0,-1,1161,820,0,0
-56,204,0,0,0,0,0,0,0,0,0,-1,1168,820,0,0
-49,204,0,0,0,0,0,0,0,0,0,-1,1175,820,0,0
-42,204,0,0,0,0,0,0,0,0,0,-1,1182,820,0,0
-35,204,0,0,0,0,0,0,0,0,0,-1,1189,820,0,0
-28,204,0,0,0,0,0,0,0,0,0,-1,1196,820,0,0
-21,204,0,0,0,0,0,0,0,0,0,-1,1203,820,0,0
-14,204,0,0,0,0,0,0,0,0,0,-1,1210,820,0,0
-7,204,0,0,0,0,0,0,0,0,0,-1,1217,820,0,0
0,204,0,0,0,0,0,0,0,0,0,-1,1224,820,0,0
7,204,0,0,0,0,0,0,0,0,0,-1,1231,820,0,0
14,204,0,0,0,0,0,0,0,0,0,-1,1238,820,0,0
21,204,0,0,0,0,0,0,0,0,0,-1,1245,820,0,0
28,204,0,0,0,0,0,0,0,0,0,-1,1252,820,0,0
35,204,0,0,0,0,0,0,0,0,0,-1,1259,820,0,0
42,204,0,0,0,0,0,0,0,0,0,-1,1266,820,0,0
49,204,0,0,0,0,0,0,0,0,0,-1,1273,820,0,0
56,204,0,0,0,0,0,0,0,0,0,-1,1280,820,0,0
63,204,0,0,0,0,0,0,0,0,0,-1,1287,820,0,0
70,204,0,0,0,0,0,0,0,0,0,-1,1294,820,0,0
77,204,0,0,0,0,0,0,0,0,0,-1,1301,820,0,0
84,204,0,0,0,0,0,0,0,0,0,-1,1308,820,0,0
91,204,0,0,0,0,0,0,0,0,0,-1,1315,820,0,0
98,204,0,0,0,0,0,0,0,0,0,-1,1322,820,0,0
105,204,0,0,0,0,0,0,0,0,0,-1,1329,820,0,0
112,204,0,0,0,0,0,0,0,0,0,-1,1336,820,0,0
119,204,0,0,0,0,0,0,0,0,0,-1,1343,820,0,0
126,204,0,0,0,0,0,0,0,0,0,-1,1350,820,0,0
133,204,0,0,0,0,0,0,0,0,0,-1,1357,820,0,0
140,204,0,0,0,0,0,0,0,0,0,-1,1364,820,0,0
147,204,0,0,0,0,0,0,0,0,0,-1,1371,820,0,0
154,204,0,0,0,0,0,0,0,0,0,-1,1378,820,0,0
161,204,0,0,0,0,0,0,0,0,0,-1,1385,820,0,0
168,204,0,0,0,0,0,0,0,0,0,-1,1392,820,0,0
175,204,0,0,0,0,0,0,0,0,0,-1,1399,820,0,0
182,204,0,0,0,0,0,0,0,0,0,-1,1406,820,0,0
189,204,0,0,0,0,0,0,0,0,0,-1,1413,820,0,0
196,204,0,0,0,0,0,0,0,0,0,-1,1420,820,0,0
203,204,0,0,0,0,0,0,0,0,0,-1,1427,820,0,0
210,204,0,0,0,0,0,0,0,0,0,-1,1434,820,0,0
217,204,0,0,0,0,0,0,0,0,0,-1,1441,820,0,0
224,204,0,0,0,0,0,0,0,0,0,-1,1448,820,0,0
231,204,0,0,0,0,0,0,0,0,0,-1,1455,820,0,0
238,204,0,0,0,0,0,0,0,0,0,-1,1462,820,0,0
245,204,0,0,0,0,0,0,0,0,0,-1,1469,820,0,0
252,204,0,0,0,0,0,0,0,0,0,-1,1476,820,0,0
259,204,0,0,0,0,0,0,0,0,0,-1,1483,820,0,0
266,204,0,0,0,0,0,0,0,0,0,-1,1490,820,0,0
273,204,0,0,0,0,0,0,0,0,0,-1,1497,820,0,0
280,204,0,0,0,0,0,0,0,0,0,-1,1504,820,0,0
287,204,0,0,0,0,0,0,0,0,0,-1,1511,820,0,0
294,204,0,0,0,0,0,0,0,0,0,-1,1518,820,0,0
301,204,0,0,0,0,0,0,0,0,0,-1,1525,820,0,0
308,204,0,0,0,0,0,0,0,0,0,-1,1532,820,0,0
315,204,0,0,0,0,0,0,0,0,0,-1,1539,820,0,0
322,204,0,0,0,0,0,0,0,0,0,-1,1546,820,0,0
329,204,0,0,0,0,0,0,0,0,0,-1,1553,820,0,0
336,204,0,0,0,0,0,0,0,0,0,-1,1560,820,0,0
343,204,0,0,0,0,0,0,0,0,0,-1,1567,820,0,0
350,204,0,0,0,0,0,0,0,0,0,-1,1574,820,0,0
357,204,0,0,0,0,0,0,0,0,0,-1,1581,820,0,0
364,204,0,0,0,0,0,0,0,0,0,-1,1588,820,0,0
371,204,0,0,0,0,0,0,0,0,0,-1,1595,820,0,0
378,204,0,0,0,0,0,0,0,0,0,-1,1602,820,0,0
385,204,0,0,0,0,0,0,0,0,0,-1,1609,820,0,0
392,204,0,0,0,0,0,0,0,0,0,-1,1616,820,0,0
399,204,0,0,0,0,0,0,0,0,0,-1,1623,820,0,0
406,204,0,0,0,0,0,0,0,0,0,-1,1630,820,0,0
413,204,0,0,0,0,0,0,0,0,0,-1,1637,820,0,0
420,204,0,0,0,0,0,0,0,0,0,-1,1644,820,0,0
427,204,0,0,0,0,0,0,0,0,0,-1,1651,820,0,0
434,204,0,0,0,0,0,0,0,0,0,-1,1658,820,0,0
441,204,0,0,0,0,0,0,0,0,0,-1,1665,820,0,0
448,204,0,0,0,0,0,0,0,0,0,-1,1672,820,0,0
455,204,0,0,0,0,0,0,0,0,0,-1,1679,820,0,0
462,204,0,0,0,0,0,0,0,0,0,-1,1686,820,0,0
469,204,0,0,0,0,0,0,0,0,0,-1,1693,820,0,0
476,204,0,0,0,0,0,0,0,0,0,-1,1700,820,0,0
483,204,0,0,0,0,0,0,0,0,0,-1,1707,820,0,0
490,204,0,0,0,0,0,0,0,0,0,-1,1714,820,0,0
497,204,0,0,0,0,0,0,0,0,0,-1,1721,820,0,0
504,204,0,0,0,0,0,0,0,0,0,-1,1728,820,0,0
511,204,0,0,0,0,0,0,0,0,0,-1,1735,820,0,0
518,204,0,0,0,0,0,0,0,0,0,-1,1742,820,0,0
525,204,0,0,0,0,0,0,0,0,0,-1,1749,820,0,0
532,204,0,0,0,0,0,0,0,0,0,-1,1756,820,0,0
539,204,0,0,0,0,0,0,0,0,0,-1,1763,820,0,0
546,204,0,0,0,0,0,0,0,0,0,-1,1770,820,0,0
553,204,0,0,0,0,0,0,0,0,0,-1,1777,820,0,0
560,204,0,0,0,0,0,0,0,0,0,-1,1784,820,0,0
567,204,0,0,0,0,0,0,0,0,0,-1,1791,820,0,0
574,204,0,0,0,0,0,0,0,0,0,-1,1798,820,0,0
581,204,0,0,0,0,0,0,0,0,0,-1,1805,820,0,0
588,204,0,0,0,0,0,0,0,0,0,-1,1812,820,0,0
595,204,0,0,0,0,0,0,0,0,0,-1,1819,820,0,0
602,204,61.4858,2.90607,0.00156387,0.00361589,0.000221023,0.00363942,0.00154034,1.46471,0.00210946,0.0397836,1826,820,61.4859,-2.90608
609,204,61.4335,2.79199,0.00144414,0.00228293,0.00107263,0.00301524,0.000711835,0.971758,0.00181989,0.041339,1833,820,61.4334,-2.792
616,204,61.5074,2.74463,0.00137342,0.00142026,0.00154781,0.00294483,-0.000151148,0.792963,0.00201549,0.0377727,1840,820,61.5075,-2.74462
623,204,61.4625,2.86658,0.00124576,0.000784366,0.00168977,0.0027205,-0.000690378,0.717554,0.0020823,0.030653,1847,820,61.4626,-2.86656
630,204,61.4431,2.89435,0.000505136,0.000618942,0.00147032,0.00203346,-0.000909378,0.804739,0.00173987,0.0302514,1854,820,61.4431,-2.89435
637,204,61.5184,2.82196,-0.000228977,0.000372056,0.00105812,0.00117151,-0.00102843,0.923759,0.00127103,0.035646,1861,820,61.5184,-2.82194
644,204,61.6057,2.6767,0,0,0,0,0,0,0,-1,1868,820,61.6057,-2.67672
651,204,53.7611,2.32251,0,0,0,0,0,0,0,-1,1875,820,53.7611,-2.32249
658,204,34.9631,1.64844,0,0,0,0,0,0,0,-1,1882,820,34.9631,-1.64842
665,204,21.8292,1.51099,0,0,0,0,0,0,0,-1,1889,820,21.8292,-1.51099
672,204,46.9639,-0.808655,0,0,0,0,0,0,0,-1,1896,820,46.9639,0.808656
679,204,46.884,-0.159424,-0.00262401,-0.000600359,-0.00137481,9.48273e-05,-0.0033192,-1.10263,0.00224507,0.0408523,1903,820,46.884,0.159398
686,204,46.7817,0.557312,-0.00304895,-0.000697203,-0.00148012,1.72788e-05,-0.00376343,-1.12107,0.00251473,0.0211871,1910,820,46.7818,-0.557318
693,204,46.6002,1.25549,-0.00306987,-0.000876181,-0.00160196,-3.15434e-05,-0.00391451,-1.08559,0.00259922,0.0205989,1917,820,46.6002,-1.25547
700,204,46.6334,1.98816,-0.00243183,-0.000782907,-0.00191607,0.000478551,-0.00369328,-0.988568,0.00263622,0.0182889,1924,820,46.6334,-1.98814
707,204,46.5842,2.74689,-0.0012998,-0.00112464,-0.00220423,0.000993754,-0.00341819,-0.805254,0.00267236,0.015318,1931,820,46.5843,-2.74686
714,204,46.5701,3.54041,0.000160685,-0.00255291,-0.00288089,0.00198829,-0.00438051,-0.565323,0.0037625,0.0243767,1938,820,46.5701,-3.54042
721,204,46.5394,4.21838,0.00187102,-0.00465302,-0.00382453,0.0036357,-0.00641771,-0.432304,0.00587795,0.0242536,1945,820,46.5395,-4.21836
728,204,46.5117,4.84253,0.00365157,-0.00813395,-0.00533726,0.00570934,-0.0101917,-0.367986,0.00930128,0.0149144,1952,820,46.5117,-4.84256
735,204,46.4427,5.56744,0.00539088,-0.0133671,-0.00757759,0.00806947,-0.0160457,-0.339779,0.0141745,0.0171018,1959,820,46.4428,-5.56746
742,204,46.4614,6.12695,0.00709513,-0.0213377,-0.0109824,0.0108431,-0.0250857,-0.328879,0.0212799,0.0322897,1966,820,46.4615,-6.12697
749,204,46.7819,6.20923,0.00869797,-0.03334,-0.0160432,0.014121,-0.038763,-0.32597,0.0316182,0.0450415,1973,820,46.7818,-6.20924
756,204,46.9803,6.08246,0.0100624,-0.0501989,-0.0231186,0.0179098,-0.0580462,-0.327234,0.0458486,0.0469678,1980,820,46.9804,-6.08248
763,204,46.8512,5.79688,0.0109439,-0.0728891,-0.0326706,0.0221721,-0.0841173,-0.331033,0.064747,0.0490818,1987,820,46.8512,-5.7969
770,204,47.0094,5.65417,0,0,0,0,0,0,0,-1,1994,820,47.0094,-5.6542
777,204,0,0,0,0,0,0,0,0,0,-1,2001,820,0,0
784,204,0,0,0,0,0,0,0,0,0,-1,2008,820,0,0
791,204,0,0,0,0,0,0,0,0,0,-1,2015,820,0,0
798,204,0,0,0,0,0,0,0,0,0,-1,2022,820,0,0
805,204,0,0,0,0,0,0,0,0,0,-1,2029,820,0,0
812,204,0,0,0,0,0,0,0,0,0,-1,2036,820,0,0
-700,197,0,0,0,0,0,0,0,0,0,-1,524,827,0,0
-693,197,0,0,0,0,0,0,0,0,0,-1,531,827,0,0
-686,197,0,0,0,0,0,0,0,0,0,-1,538,827,0,0
-679,197,0,0,0,0,0,0,0,0,0,-1,545,827,0,0
-672,197,0,0,0,0,0,0,0,0,0,-1,552,827,0,0
-665,197,0,0,0,0,0,0,0,0,0,-1,559,827,0,0
-658,197,-39.9774,5.66638,0,0,0,0,0,0,0,-1,566,827,-39.9774,-5.66637
-651,197,-39.9665,5.23578,0,0,0,0,0,0,0,-1,573,827,-39.9665,-5.23575
-644,197,-38.9225,4.75665,0,0,0,0,0,0,0,-1,580,827,-38.9225,-4.75665
-637,197,-34.7419,9.49805,0,0,0,0,0,0,0,-1,587,827,-34.7419,-9.49802
-630,197,-40.4908,2.45648,0,0,0,0,0,0,0,-1,594,827,-40.4908,-2.45649
-623,197,-33.6149,4.94891,0,0,0,0,0,0,0,-1,601,827,-33.6149,-4.9489
-616,197,-33.673,4.35687,0.00182332,-0.000295487,-0.0156808,0.0164805,-0.0149526,-0.751669,0.0181551,0.0496406,608,827,-33.673,-4.35685
-609,197,-33.7,3.82098,0.00155389,0.000115282,-0.0100178,0.0108782,-0.00920905,-0.749559,0.0116107,0.0346481,615,827,-33.7,-3.82096
-602,197,-33.8143,3.20557,0.00117062,0.000328816,-0.0058,0.00656497,-0.00506554,-0.749177,0.00673346,0.0179802,622,827,-33.8143,-3.20559
-595,197,-33.906,2.50793,0.000692509,0.000465069,-0.002854,0.00343506,-0.00227748,-0.765486,0.00332063,0.0181043,629,827,-33.906,-2.50796
-588,197,-33.92,1.79889,0.000102383,0.00054384,-0.000652109,0.00101156,-0.000365341,-0.948588,0.000823624,0.0201317,636,827,-33.9201,-1.79889
-581,197,-33.9518,1.1012,-0.00053297,0.000432256,0.000440016,0.000602736,-0.000703449,1.20117,0.000754873,0.0119578,643,827,-33.9518,-1.10121
-574,197,-33.956,0.440491,-0.00100667,0.000237626,0.000792322,0.000622871,-0.00139192,1.11823,0.00119115,0.0134157,650,827,-33.956,-0.440474
-567,197,-33.8876,-0.221619,-0.00097214,0.000236839,0.000363029,0.000337472,-0.00107277,1.30038,0.000850297,0.016873,657,827,-33.8876,0.221599
-560,197,-33.7945,-0.884949,0,0,0,0,0,0,0,-1,664,827,-33.7945,0.884954
-553,197,-33.1771,-1.4881,0,0,0,0,0,0,0,-1,671,827,-33.1771,1.4881
-546,197,-33.0991,-2.06989,0,0,0,0,0,0,0,-1,678,827,-33.0991,2.06991
-539,197,-32.8993,-2.61737,0,0,0,0,0,0,0,-1,685,827,-32.8993,2.61737
-532,197,-16.0519,0.0410156,0,0,0,0,0,0,0,-1,692,827,-16.0519,-0.0410415
-525,197,-35.3785,2.11829,0,0,0,0,0,0,0,-1,699,827,-35.3785,-2.11826
-518,197,-46.4273,1.539,0,0,0,0,0,0,0,-1,706,827,-46.4273,-1.53903
-511,197,-46.7167,1.16547,-0.000955371,0.0043885,-0.00243951,0.00533464,-0.00190151,-1.20082,0.00433169,0.0443963,713,827,-46.7167,-1.16548
-504,197,-46.8702,1.08105,-0.000331866,0.00456653,-0.00222365,0.00542539,-0.00119072,-1.20221,0.00407228,0.0408535,720,827,-46.8703,-1.08106
-497,197,-46.7736,1.33374,0.000930223,0.00502891,-0.00216119,0.00595792,1.21677e-06,-1.16482,0.00397154,0.0400042,727,827,-46.7736,-1.33375
-490,197,-46.7535,1.3609,0.00240294,0.00628669,-0.00192692,0.00708048,0.00160914,-1.18003,0.00428584,0.0375896,734,827,-46.7536,-1.3609
-483,197,-46.6124,1.4397,0.00367483,0.00709367,-0.000706089,0.00723375,0.00353475,-1.37494,0.00417677,0.0413592,741,827,-46.6124,-1.4397
-476,197,0,0,0,0,0,0,0,0,0,-1,748,827,0,0
-469,197,0,0,0,0,0,0,0,0,0,-1,755,827,0,0
-462,197,0,0,0,0,0,0,0,0,0,-1,762,827,0,0
-455,197,0,0,0,0,0,0,0,0,0,-1,769,827,0,0
-448,197,0,0,0,0,0,0,0,0,0,-1,776,827,0,0
-441,197,0,0,0,0,0,0,0,0,0,-1,783,827,0,0
-434,197,0,0,0,0,0,0,0,0,0,-1,790,827,0,0
-427,197,0,0,0,0,0,0,0,0,0,-1,797,827,0,0
-420,197,0,0,0,0,0,0,0,0,0,-1,804,827,0,0
-413,197,0,0,0,0,0,0,0,0,0,-1,811,827,0,0
-406,197,0,0,0,0,0,0,0,0,0,-1,818,827,0,0
-399,197,0,0,0,0,0,0,0,0,0,-1,825,827,0,0
-392,197,0,0,0,0,0,0,0,0,0,-1,832,827,0,0
-385,197,0,0,0,0,0,0,0,0,0,-1,839,827,0,0
-378,197,0,0,0,0,0,0,0,0,0,-1,846,827,0,0
-371,197,0,0,0,0,0,0,0,0,0,-1,853,827,0,0
-364,197,0,0,0,0,0,0,0,0,0,-1,860,827,0,0
-357,197,0,0,0,0,0,0,0,0,0,-1,867,827,0,0
-350,197,0,0,0,0,0,0,0,0,0,-1,874,827,0,0
-343,197,0,0,0,0,0,0,0,0,0,-1,881,827,0,0
-336,197,0,0,0,0,0,0,0,0,0,-1,888,827,0,0
-329,197,0,0,0,0,0,0,0,0,0,-1,895,827,0,0
-322,197,0,0,0,0,0,0,0,0,0,-1,902,827,0,0
-315,197,0,0,0,0,0,0,0,0,0,-1,909,827,0,0
-308,197,0,0,0,0,0,0,0,0,0,-1,916,827,0,0
-301,197,0,0,0,0,0,0,0,0,0,-1,923,827,0,0
-294,197,0,0,0,0,0,0,0,0,0,-1,930,827,0,0
-287,197,0,0,0,0,0,0,0,0,0,-1,937,827,0,0
-280,197,0,0,0,0,0,0,0,0,0,-1,944,827,0,0
-273,197,0,0,0,0,0,0,0,0,0,-1,951,827,0,0
-266,197,0,0,0,0,0,0,0,0,0,-1,958,827,0,0
-259,197,0,0,0,0,0,0,0,0,0,-1,965,827,0,0
-252,197,0,0,0,0,0,0,0,0,0,-1,972,827,0,0
-245,197,0,0,0,0,0,0,0,0,0,-1,979,827,0,0
-238,197,0,0,0,0,0,0,0,0,0,-1,986,827,0,0
-231,197,0,0,0,0,0,0,0,0,0,-1,993,827,0,0
-224,197,0,0,0,0,0,0,0,0,0,-1,1000,827,0,0
-217,197,0,0,0,0,0,0,0,0,0,-1,1007,827,0,0
-210,197,0,0,0,0,0,0,0,0,0,-1,1014,827,0,0
-203,197,0,0,0,0,0,0,0,0,0,-1,1021,827,0,0
-196,197,0,0,0,0,0,0,0,0,0,-1,1028,827,0,0
-189,197,0,0,0,0,0,0,0,0,0,-1,1035,827,0,0
-182,197,0,0,0,0,0,0,0,0,0,-1,1042,827,0,0
-175,197,0,0,0,0,0,0,0,0,0,-1,1049,827,0,0
-168,197,0,0,0,0,0,0,0,0,0,-1,1056,827,0,0
-161,197,0,0,0,0,0,0,0,0,0,-1,1063,827,0,0
-154,197,0,0,0,0,0,0,0,0,0,-1,1070,827,0,0
-147,197,0,0,0,0,0,0,0,0,0,-1,1077,827,0,0
-140,197,0,0,0,0,0,0,0,0,0,-1,1084,827,0,0
-133,197,0,0,0,0,0,0,0,0,0,-1,1091,827,0,0
-126,197,0,0,0,0,0,0,0,0,0,-1,1098,827,0,0
-119,197,0,0,0,0,0,0,0,0,0,-1,1105,827,0,0
-112,197,0,0,0,0,0,0,0,0,0,-1,1112,827,0,0
-105,197,0,0,0,0,0,0,0,0,0,-1,1119,827,0,0
-98,197,0,0,0,0,0,0,0,0,0,-1,1126,827,0,0
-91,197,0,0,0,0,0,0,0,0,0,-1,1133,827,0,0
-84,197,0,0,0,0,0,0,0,0,0,-1,1140,827,0,0
-77,197,0,0,0,0,0,0,0,0,0,-1,1147,827,0,0
-70,197,0,0,0,0,0,0,0,0,0,-1,1154,827,0,0
-63,197,0,0,0,0,0,0,0,0,0,-1,1161,827,0,0
-56,197,0,0,0,0,0,0,0,0,0,-1,1168,827,0,0
-49,197,0,0,0,0,0,0,0,0,0,-1,1175,827,0,0
-42,197,0,0,0,0,0,0,0,0,0,-1,1182,827,0,0
-35,197,0,0,0,0,0,0,0,0,0,-1,1189,827,0,0
-28,197,0,0,0,0,0,0,0,0,0,-1,1196,827,0,0
-21,197,0,0,0,0,0,0,0,0,0,-1,1203,827,0,0
-14,197,0,0,0,0,0,0,0,0,0,-1,1210,827,0,0
-7,197,0,0,0,0,0,0,0,0,0,-1,1217,827,0,0
0,197,0,0,0,0,0,0,0,0,0,-1,1224,827,0,0
7,197,0,0,0,0,0,0,0,0,0,-1,1231,827,0,0
14,197,0,0,0,0,0,0,0,0,0,-1,1238,827,0,0
21,197,0,0,0,0,0,0,0,0,0,-1,1245,827,0,0
28,197,0,0,0,0,0,0,0,0,0,-1,1252,827,0,0
35,197,0,0,0,0,0,0,0,0,0,-1,1259,827,0,0
42,197,0,0,0,0,0,0,0,0,0,-1,1266,827,0,0
49,197,0,0,0,0,0,0,0,0,0,-1,1273,827,0,0
56,197,0,0,0,0,0,0,0,0,0,-1,1280,827,0,0
63,197,0,0,0,0,0,0,0,0,0,-1,1287,827,0,0
70,197,0,0,0,0,0,0,0,0,0,-1,1294,827,0,0
77,197,0,0,0,0,0,0,0,0,0,-1,1301,827,0,0
84,197,0,0,0,0,0,0,0,0,0,-1,1308,827,0,0
91,197,0,0,0,0,0,0,0,0,0,-1,1315,827,0,0
98,197,0,0,0,0,0,0,0,0,0,-1,1322,827,0,0
105,197,0,0,0,0,0,0,0,0,0,-1,1329,827,0,0
112,197,0,0,0,0,0,0,0,0,0,-1,1336,827,0,0
119,197,0,0,0,0,0,0,0,0,0,-1,1343,827,0,0
126,197,0,0,0,0,0,0,0,0,0,-1,1350,827,0,0
133,197,0,0,0,0,0,0,0,0,0,-1,1357,827,0,0
140,197,0,0,0,0,0,0,0,0,0,-1,1364,827,0,0
147,197,0,0,0,0,0,0,0,0,0,-1,1371,827,0,0
154,197,0,0,0,0,0,0,0,0,0,-1,1378,827,0,0
161,197,0,0,0,0,0,0,0,0,0,-1,1385,827,0,0
168,197,0,0,0,0,0,0,0,0,0,-1,1392,827,0,0
175,197,0,0,0,0,0,0,0,0,0,-1,1399,827,0,0
182,197,0,0,0,0,0,0,0,0,0,-1,1406,827,0,0
189,197,0,0,0,0,0,0,0,0,0,-1,1413,827,0,0
196,197,0,0,0,0,0,0,0,0,0,-1,1420,827,0,0
203,197,0,0,0,0,0,0,0,0,0,-1,1427,827,0,0
210,197,0,0,0,0,0,0,0,0,0,-1,1434,827,0,0
217,197,0,0,0,0,0,0,0,0,0,-1,1441,827,0,0
224,197,0,0,0,0,0,0,0,0,0,-1,1448,827,0,0
231,197,0,0,0,0,0,0,0,0,0,-1,1455,827,0,0
238,197,0,0,0,0,0,0,0,0,0,-1,1462,827,0,0
245,197,0,0,0,0,0,0,0,0,0,-1,1469,827,0,0
252,197,0,0,0,0,0,0,0,0,0,-1,1476,827,0,0
259,197,0,0,0,0,0,0,0,0,0,-1,1483,827,0,0
266,197,0,0,0,0,0,0,0,0,0,-1,1490,827,0,0
273,197,0,0,0,0,0,0,0,0,0,-1,1497,827,0,0
280,197,0,0,0,0,0,0,0,0,0,-1,1504,827,0,0
287,197,0,0,0,0,0,0,0,0,0,-1,1511,827,0,0
294,197,0,0,0,0,0,0,0,0,0,-1,1518,827,0,0
301,197,0,0,0,0,0,0,0,0,0,-1,1525,827,0,0
308,197,0,0,0,0,0,0,0,0,0,-1,1532,827,0,0
315,197,0,0,0,0,0,0,0,0,0,-1,1539,827,0,0
322,197,0,0,0,0,0,0,0,0,0,-1,1546,827,0,0
329,197,0,0,0,0,0,0,0,0,0,-1,1553,827,0,0
336,197,0,0,0,0,0,0,0,0,0,-1,1560,827,0,0
343,197,0,0,0,0,0,0,0,0,0,-1,1567,827,0,0
350,197,0,0,0,0,0,0,0,0,0,-1,1574,827,0,0
357,197,0,0,0,0,0,0,0,0,0,-1,1581,827,0,0
364,197,0,0,0,0,0,0,0,0,0,-1,1588,827,0,0
371,197,0,0,0,0,0,0,0,0,0,-1,1595,827,0,0
378,197,0,0,0,0,0,0,0,0,0,-1,1602,827,0,0
385,197,0,0,0,0,0,0,0,0,0,-1,1609,827,0,0
392,197,0,0,0,0,0,0,0,0,0,-1,1616,827,0,0
399,197,0,0,0,0,0,0,0,0,0,-1,1623,827,0,0
406,197,0,0,0,0,0,0,0,0,0,-1,1630,827,0,0
413,197,0,0,0,0,0,0,0,0,0,-1,1637,827,0,0
420,197,0,0,0,0,0,0,0,0,0,-1,1644,827,0,0
427,197,0,0,0,0,0,0,0,0,0,-1,1651,827,0,0
434,197,0,0,0,0,0,0,0,0,0,-1,1658,827,0,0
441,197,0,0,0,0,0,0,0,0,0,-1,1665,827,0,0
448,197,0,0,0,0,0,0,0,0,0,-1,1672,827,0,0
455,197,0,0,0,0,0,0,0,0,0,-1,1679,827,0,0
462,197,0,0,0,0,0,0,0,0,0,-1,1686,827,0,0
469,197,0,0,0,0,0,0,0,0,0,-1,1693,827,0,0
476,197,0,0,0,0,0,0,0,0,0,-1,1700,827,0,0
483,197,0,0,0,0,0,0,0,0,0,-1,1707,827,0,0
490,197,0,0,0,0,0,0,0,0,0,-1,1714,827,0,0
497,197,0,0,0,0,0,0,0,0,0,-1,1721,827,0,0
504,197,0,0,0,0,0,0,0,0,0,-1,1728,827,0,0
511,197,0,0,0,0,0,0,0,0,0,-1,1735,827,0,0
518,197,0,0,0,0,0,0,0,0,0,-1,1742,827,0,0
525,197,0,0,0,0,0,0,0,0,0,-1,1749,827,0,0
532,197,0,0,0,0,0,0,0,0,0,-1,1756,827,0,0
539,197,0,0,0,0,0,0,0,0,0,-1,1763,827,0,0
546,197,0,0,0,0,0,0,0,0,0,-1,1770,827,0,0
553,197,0,0,0,0,0,0,0,0,0,-1,1777,827,0,0
560,197,0,0,0,0,0,0,0,0,0,-1,1784,827,0,0
567,197,0,0,0,0,0,0,0,0,0,-1,1791,827,0,0
574,197,0,0,0,0,0,0,0,0,0,-1,1798,827,0,0
581,197,0,0,0,0,0,0,0,0,0,-1,1805,827,0,0
588,197,0,0,0,0,0,0,0,0,0,-1,1812,827,0,0
595,197,0,0,0,0,0,0,0,0,0,-1,1819,827,0,0
602,197,61.5322,2.85846,0.00155571,0.00403781,0.000655901,0.00420047,0.00139304,1.3277,0.00247054,0.0418888,1826,827,61.5322,-2.85844
609,197,61.637,2.7002,0.00126497,0.00262726,0.00121903,0.00334253,0.000549691,1.04017,0.0020696,0.0446831,1833,827,61.637,-2.70023
616,197,61.6038,2.66809,0.00112487,0.00167129,0.00151999,0.00294243,-0.000146265,0.874322,0.00201214,0.0433439,1840,827,61.6037,-2.66808
623,197,61.444,2.75043,0.00100382,0.000888591,0.00154147,0.00248875,-0.000596339,0.766719,0.00188958,0.0383985,1847,827,61.4439,-2.75044
630,197,61.5016,2.79962,0.000360623,0.000594212,0.00134102,0.00182351,-0.000868675,0.828835,0.00158659,0.0326561,1854,827,61.5015,-2.79963
637,197,61.52,2.80347,-0.000376982,0.000288435,0.000935211,0.000948356,-0.0010369,0.956296,0.00114657,0.0295833,1861,827,61.52,-2.80348
644,197,61.5537,2.74207,-0.00101978,-3.22199e-05,0.000573196,0.000230553,-0.00128255,1.14095,0.000941345,0.0364605,1868,827,61.5537,-2.74206
651,197,61.6053,2.66693,0,0,0,0,0,0,0,-1,1875,827,61.6053,-2.66695
658,197,40.4694,3.05927,0,0,0,0,0,0,0,-1,1882,827,40.4694,-3.05926
665,197,14.0618,1.80304,0,0,0,0,0,0,0,-1,1889,827,14.0617,-1.80303
672,197,47.4735,-1.26709,0,0,0,0,0,0,0,-1,1896,827,47.4735,1.26706
679,197,47.3215,-0.365112,0,0,0,0,0,0,0,-1,1903,827,47.3215,0.365094
686,197,47.4968,0.66394,-0.0032332,-0.000948843,-0.00150749,-0.000199702,-0.00398234,-1.10959,0.00259089,0.0312717,1910,827,47.4968,-0.663914
693,197,47.3435,1.4245,-0.00341499,-0.00113547,-0.00164085,-0.000277378,-0.00427309,-1.08895,0.00276092,0.0277118,1917,827,47.3435,-1.42451
700,197,47.3282,2.04498,-0.00302382,-0.00104439,-0.00198681,0.00018557,-0.00425377,-1.01648,0.00289969,0.0265155,1924,827,47.3283,-2.04498
707,197,47.328,2.78467,-0.00208405,-0.00127993,-0.00223399,0.000587886,-0.00395187,-0.874432,0.00285082,0.00909902,1931,827,47.328,-2.78469
714,197,47.2899,3.48663,-0.000554885,-0.00237494,-0.0027054,0.00138945,-0.00431927,-0.623156,0.00343757,0.0117016,1938,827,47.2899,-3.48661
721,197,47.2506,4.18024,0.0013194,-0.00419942,-0.0034603,0.00298582,-0.00586585,-0.448807,0.0051999,0.0129562,1945,827,47.2507,-4.18025
728,197,47.2113,4.86334,0.00334012,-0.00732683,-0.00472951,0.00513506,-0.00912176,-0.362726,0.00833776,0.0115195,1952,827,47.2113,-4.86334
735,197,47.1501,5.57959,0.00539716,-0.0119977,-0.00662108,0.0076306,-0.0142311,-0.325337,0.0128122,0.0123342,1959,827,47.1502,-5.57962
742,197,47.0785,6.26013,0.00748693,-0.0189685,-0.00946651,0.0105254,-0.0220069,-0.310578,0.0191685,0.0228095,1966,827,47.0785,-6.26014
749,197,47.1575,6.55133,0.00961997,-0.0294065,-0.0136924,0.0139447,-0.0337312,-0.305933,0.0283048,0.0462746,1973,827,47.1575,-6.55135
756,197,47.4076,6.77808,0.0116889,-0.0439578,-0.0195945,0.0178962,-0.0501651,-0.306784,0.0407408,0.0462004,1980,827,47.4076,-6.77809
763,197,47.3788,6.63177,0.0135163,-0.0633776,-0.027528,0.0223553,-0.0722166,-0.310692,0.0570747,0.0472191,1987,827,47.3787,-6.63177
770,197,47.5538,6.49817,0,0,0,0,0,0,0,-1,1994,827,47.5538,-6.49816
777,197,0,0,0,0,0,0,0,0,0,-1,2001,827,0,0
784,197,0,0,0,0,0,0,0,0,0,-1,2008,827,0,0
791,197,0,0,0,0,0,0,0,0,0,-1,2015,827,0,0
798,197,0,0,0,0,0,0,0,0,0,-1,2022,827,0,0
805,197,0,0,0,0,0,0,0,0,0,-1,2029,827,0,0
812,197,0,0,0,0,0,0,0,0,0,-1,2036,827,0,0
-700,190,0,0,0,0,0,0,0,0,0,-1,524,834,0,0
-693,190,0,0,0,0,0,0,0,0,0,-1,531,834,0,0
-686,190,0,0,0,0,0,0,0,0,0,-1,538,834,0,0
-679,190,0,0,0,0,0,0,0,0,0,-1,545,834,0,0
-672,190,0,0,0,0,0,0,0,0,0,-1,552,834,0,0
-665,190,0,0,0,0,0,0,0,0,0,-1,559,834,0,0
-658,190,-41.1679,5.51379,0,0,0,0,0,0,0,-1,566,834,-41.1679,-5.51377
-651,190,-40.1895,4.99677,0,0,0,0,0,0,0,-1,573,834,-40.1894,-4.99677
-644,190,-35.6208,9.854,0,0,0,0,0,0,0,-1,580,834,-35.6208,-9.854
-637,190,-35.1792,9.11749,0,0,0,0,0,0,0,-1,587,834,-35.1792,-9.1175
-630,190,-34.7375,8.38098,0,0,0,0,0,0,0,-1,594,834,-34.7375,-8.381
-623,190,-34.41,4.84265,0,0,0,0,0,0,0,-1,601,834,-34.41,-4.84263
-616,190,-34.4178,4.34241,-0.00107298,-0.000117379,-0.0163796,0.0157914,-0.0169818,-0.799979,0.0189258,0.0474556,608,834,-34.4178,-4.34238
-609,190,-34.4138,3.84216,-0.000811175,0.000449008,-0.0105665,0.0104042,-0.0107663,-0.815178,0.0122234,0.0268202,615,834,-34.4138,-3.84217
-602,190,-34.5162,3.26361,-0.000903536,0.000710333,-0.00598647,0.00594401,-0.00613721,-0.852391,0.00697539,0.0173417,622,834,-34.5162,-3.26361
-595,190,-34.5958,2.55243,-0.00117735,0.000772436,-0.0026979,0.00266618,-0.0030711,-0.958774,0.00331517,0.0188248,629,834,-34.5958,-2.55243
-588,190,-34.6351,1.83459,-0.00146852,0.000663904,-0.00028795,0.000702103,-0.00150672,-1.43891,0.00130316,0.0181156,636,834,-34.6351,-1.83457
-581,190,-34.6419,1.15125,-0.00170076,0.000427575,0.000795041,0.000691767,-0.00196496,1.24998,0.00159149,0.0135352,643,834,-34.6419,-1.15123
-574,190,-34.6319,0.476501,-0.00169869,0.000166248,0.000974109,0.000582256,-0.00211469,1.16718,0.00163873,0.0129783,650,834,-34.6319,-0.47652
-567,190,-34.5247,-0.297363,-0.0013127,0.000232643,0.000258046,0.000274593,-0.00135465,1.40964,0.00100718,0.028558,657,834,-34.5247,0.297385
-560,190,-34.3598,-1.12384,0,0,0,0,0,0,0,-1,664,834,-34.3598,1.12386
-553,190,-33.9625,-1.6355,0,0,0,0,0,0,0,-1,671,834,-33.9625,1.63552
-546,190,-33.7621,-2.04889,0,0,0,0,0,0,0,-1,678,834,-33.7621,2.04886
-539,190,-16.4624,-0.542542,0,0,0,0,0,0,0,-1,685,834,-16.4624,0.542527
-532,190,-21.6292,2.06122,0,0,0,0,0,0,0,-1,692,834,-21.6292,-2.06123
-525,190,-38.9377,1.03369,0,0,0,0,0,0,0,-1,699,834,-38.9377,-1.0337
-518,190,-46.7957,1.0293,0,0,0,0,0,0,0,-1,706,834,-46.7957,-1.02931
-511,190,-46.7207,1.07629,-0.000721106,0.00474314,-0.00325473,0.00626046,-0.00223842,-1.13456,0.00508669,0.0441183,713,834,-46.7207,-1.07628
-504,190,-46.9113,0.698792,0.000140719,0.00515178,-0.00289997,0.00647867,-0.00118618,-1.14168,0.00476399,0.0443151,720,834,-46.9113,-0.698814
-497,190,-46.7184,0.877563,0.00181333,0.00575976,-0.00250145,0.00697258,0.000600511,-1.11934,0.00446171,0.0441163,727,834,-46.7184,-0.877591
-490,190,-46.6814,1.12592,0.00378843,0.00712269,-0.0015696,0.00774531,0.00316581,-1.19316,0.00449652,0.0415776,734,834,-46.6814,-1.12594
-483,190,0,0,0,0,0,0,0,0,0,-1,741,834,0,0
-476,190,0,0,0,0,0,0,0,0,0,-1,748,834,0,0
-469,190,0,0,0,0,0,0,0,0,0,-1,755,834,0,0
-462,190,0,0,0,0,0,0,0,0,0,-1,762,834,0,0
-455,190,0,0,0,0,0,0,0,0,0,-1,769,834,0,0
-448,190,0,0,0,0,0,0,0,0,0,-1,776,834,0,0
-441,190,0,0,0,0,0,0,0,0,0,-1,783,834,0,0
-434,190,0,0,0,0,0,0,0,0,0,-1,790,834,0,0
-427,190,0,0,0,0,0,0,0,0,0,-1,797,834,0,0
-420,190,0,0,0,0,0,0,0,0,0,-1,804,834,0,0
-413,190,0,0,0,0,0,0,0,0,0,-1,811,834,0,0
-406,190,0,0,0,0,0,0,0,0,0,-1,818,834,0,0
-399,190,0,0,0,0,0,0,0,0,0,-1,825,834,0,0
-392,190,0,0,0,0,0,0,0,0,0,-1,832,834,0,0
-385,190,0,0,0,0,0,0,0,0,0,-1,839,834,0,0
-378,190,0,0,0,0,0,0,0,0,0,-1,846,834,0,0
-371,190,0,0,0,0,0,0,0,0,0,-1,853,834,0,0
-364,190,0,0,0,0,0,0,0,0,0,-1,860,834,0,0
-357,190,0,0,0,0,0,0,0,0,0,-1,867,834,0,0
-350,190,0,0,0,0,0,0,0,0,0,-1,874,834,0,0
-343,190,0,0,0,0,0,0,0,0,0,-1,881,834,0,0
-336,190,0,0,0,0,0,0,0,0,0,-1,888,834,0,0
-329,190,0,0,0,0,0,0,0,0,0,-1,895,834,0,0
-322,190,0,0,0,0,0,0,0,0,0,-1,902,834,0,0
-315,190,0,0,0,0,0,0,0,0,0,-1,909,834,0,0
-308,190,0,0,0,0,0,0,0,0,0,-1,916,834,0,0
-301,190,0,0,0,0,0,0,0,0,0,-1,923,834,0,0
-294,190,0,0,0,0,0,0,0,0,0,-1,930,834,0,0
-287,190,0,0,0,0,0,0,0,0,0,-1,937,834,0,0
-280,190,0,0,0,0,0,0,0,0,0,-1,944,834,0,0
-273,190,0,0,0,0,0,0,0,0,0,-1,951,834,0,0
-266,190,0,0,0,0,0,0,0,0,0,-1,958,834,0,0
-259,190,0,0,0,0,0,0,0,0,0,-1,965,834,0,0
-252,190,0,0,0,0,0,0,0,0,0,-1,972,834,0,0
-245,190,0,0,0,0,0,0,0,0,0,-1,979,834,0,0
-238,190,0,0,0,0,0,0,0,0,0,-1,986,834,0,0
-231,190,0,0,0,0,0,0,0,0,0,-1,993,834,0,0
-224,190,0,0,0,0,0,0,0,0,0,-1,1000,834,0,0
-217,190,0,0,0,0,0,0,0,0,0,-1,1007,834,0,0
-210,190,0,0,0,0,0,0,0,0,0,-1,1014,834,0,0
-203,190,0,0,0,0,0,0,0,0,0,-1,1021,834,0,0
-196,190,0,0,0,0,0,0,0,0,0,-1,1028,834,0,0
-189,190,0,0,0,0,0,0,0,0,0,-1,1035,834,0,0
-182,190,0,0,0,0,0,0,0,0,0,-1,1042,834,0,0
-175,190,0,0,0,0,0,0,0,0,0,-1,1049,834,0,0
-168,190,0,0,0,0,0,0,0,0,0,-1,1056,834,0,0
-161,190,0,0,0,0,0,0,0,0,0,-1,1063,834,0,0
-154,190,0,0,0,0,0,0,0,0,0,-1,1070,834,0,0
-147,190,0,0,0,0,0,0,0,0,0,-1,1077,834,0,0
-140,190,0,0,0,0,0,0,0,0,0,-1,1084,834,0,0
-133,190,0,0,0,0,0,0,0,0,0,-1,1091,834,0,0
-126,190,0,0,0,0,0,0,0,0,0,-1,1098,834,0,0
-119,190,0,0,0,0,0,0,0,0,0,-1,1105,834,0,0
-112,190,0,0,0,0,0,0,0,0,0,-1,1112,834,0,0
-105,190,0,0,0,0,0,0,0,0,0,-1,1119,834,0,0
-98,190,0,0,0,0,0,0,0,0,0,-1,1126,834,0,0
-91,190,0,0,0,0,0,0,0,0,0,-1,1133,834,0,0
-84,190,0,0,0,0,0,0,0,0,0,-1,1140,834,0,0
-77,190,0,0,0,0,0,0,0,0,0,-1,1147,834,0,0
-70,190,0,0,0,0,0,0,0,0,0,-1,1154,834,0,0
-63,190,0,0,0,0,0,0,0,0,0,-1,1161,834,0,0
-56,190,0,0,0,0,0,0,0,0,0,-1,1168,834,0,0
-49,190,0,0,0,0,0,0,0,0,0,-1,1175,834,0,0
-42,190,0,0,0,0,0,0,0,0,0,-1,1182,834,0,0
-35,190,0,0,0,0,0,0,0,0,0,-1,1189,834,0,0
-28,190,0,0,0,0,0,0,0,0,0,-1,1196,834,0,0
-21,190,0,0,0,0,0,0,0,0,0,-1,1203,834,0,0
-14,190,0,0,0,0,0,0,0,0,0,-1,1210,834,0,0
-7,190,0,0,0,0,0,0,0,0,0,-1,1217,834,0,0
0,190,0,0,0,0,0,0,0,0,0,-1,1224,834,0,0
7,190,0,0,0,0,0,0,0,0,0,-1,1231,834,0,0
14,190,0,0,0,0,0,0,0,0,0,-1,1238,834,0,0
21,190,0,0,0,0,0,0,0,0,0,-1,1245,834,0,0
28,190,0,0,0,0,0,0,0,0,0,-1,1252,834,0,0
35,190,0,0,0,0,0,0,0,0,0,-1,1259,834,0,0
42,190,0,0,0,0,0,0,0,0,0,-1,1266,834,0,0
49,190,0,0,0,0,0,0,0,0,0,-1,1273,834,0,0
56,190,0,0,0,0,0,0,0,0,0,-1,1280,834,0,0
63,190,0,0,0,0,0,0,0,0,0,-1,1287,834,0,0
70,190,0,0,0,0,0,0,0,0,0,-1,1294,834,0,0
77,190,0,0,0,0,0,0,0,0,0,-1,1301,834,0,0
84,190,0,0,0,0,0,0,0,0,0,-1,1308,834,0,0
91,190,0,0,0,0,0,0,0,0,0,-1,1315,834,0,0
98,190,0,0,0,0,0,0,0,0,0,-1,1322,834,0,0
105,190,0,0,0,0,0,0,0,0,0,-1,1329,834,0,0
112,190,0,0,0,0,0,0,0,0,0,-1,1336,834,0,0
119,190,0,0,0,0,0,0,0,0,0,-1,1343,834,0,0
126,190,0,0,0,0,0,0,0,0,0,-1,1350,834,0,0
133,190,0,0,0,0,0,0,0,0,0,-1,1357,834,0,0
140,190,0,0,0,0,0,0,0,0,0,-1,1364,834,0,0
147,190,0,0,0,0,0,0,0,0,0,-1,1371,834,0,0
154,190,0,0,0,0,0,0,0,0,0,-1,1378,834,0,0
161,190,0,0,0,0,0,0,0,0,0,-1,1385,834,0,0
168,190,0,0,0,0,0,0,0,0,0,-1,1392,834,0,0
175,190,0,0,0,0,0,0,0,0,0,-1,1399,834,0,0
182,190,0,0,0,0,0,0,0,0,0,-1,1406,834,0,0
189,190,0,0,0,0,0,0,0,0,0,-1,1413,834,0,0
196,190,0,0,0,0,0,0,0,0,0,-1,1420,834,0,0
203,190,0,0,0,0,0,0,0,0,0,-1,1427,834,0,0
210,190,0,0,0,0,0,0,0,0,0,-1,1434,834,0,0
217,190,0,0,0,0,0,0,0,0,0,-1,1441,834,0,0
224,190,0,0,0,0,0,0,0,0,0,-1,1448,834,0,0
231,190,0,0,0,0,0,0,0,0,0,-1,1455,834,0,0
238,190,0,0,0,0,0,0,0,0,0,-1,1462,834,0,0
245,190,0,0,0,0,0,0,0,0,0,-1,1469,834,0,0
252,190,0,0,0,0,0,0,0,0,0,-1,1476,834,0,0
259,190,0,0,0,0,0,0,0,0,0,-1,1483,834,0,0
266,190,0,0,0,0,0,0,0,0,0,-1,1490,834,0,0
273,190,0,0,0,0,0,0,0,0,0,-1,1497,834,0,0
280,190,0,0,0,0,0,0,0,0,0,-1,1504,834,0,0
287,190,0,0,0,0,0,0,0,0,0,-1,1511,834,0,0
294,190,0,0,0,0,0,0,0,0,0,-1,1518,834,0,0
301,190,0,0,0,0,0,0,0,0,0,-1,1525,834,0,0
308,190,0,0,0,0,0,0,0,0,0,-1,1532,834,0,0
315,190,0,0,0,0,0,0,0,0,0,-1,1539,834,0,0
322,190,0,0,0,0,0,0,0,0,0,-1,1546,834,0,0
329,190,0,0,0,0,0,0,0,0,0,-1,1553,834,0,0
336,190,0,0,0,0,0,0,0,0,0,-1,1560,834,0,0
343,190,0,0,0,0,0,0,0,0,0,-1,1567,834,0,0
350,190,0,0,0,0,0,0,0,0,0,-1,1574,834,0,0
357,190,0,0,0,0,0,0,0,0,0,-1,1581,834,0,0
364,190,0,0,0,0,0,0,0,0,0,-1,1588,834,0,0
371,190,0,0,0,0,0,0,0,0,0,-1,1595,834,0,0
378,190,0,0,0,0,0,0,0,0,0,-1,1602,834,0,0
385,190,0,0,0,0,0,0,0,0,0,-1,1609,834,0,0
392,190,0,0,0,0,0,0,0,0,0,-1,1616,834,0,0
399,190,0,0,0,0,0,0,0,0,0,-1,1623,834,0,0
406,190,0,0,0,0,0,0,0,0,0,-1,1630,834,0,0
413,190,0,0,0,0,0,0,0,0,0,-1,1637,834,0,0
420,190,0,0,0,0,0,0,0,0,0,-1,1644,834,0,0
427,190,0,0,0,0,0,0,0,0,0,-1,1651,834,0,0
434,190,0,0,0,0,0,0,0,0,0,-1,1658,834,0,0
441,190,0,0,0,0,0,0,0,0,0,-1,1665,834,0,0
448,190,0,0,0,0,0,0,0,0,0,-1,1672,834,0,0
455,190,0,0,0,0,0,0,0,0,0,-1,1679,834,0,0
462,190,0,0,0,0,0,0,0,0,0,-1,1686,834,0,0
469,190,0,0,0,0,0,0,0,0,0,-1,1693,834,0,0
476,190,0,0,0,0,0,0,0,0,0,-1,1700,834,0,0
483,190,0,0,0,0,0,0,0,0,0,-1,1707,834,0,0
490,190,0,0,0,0,0,0,0,0,0,-1,1714,834,0,0
497,190,0,0,0,0,0,0,0,0,0,-1,1721,834,0,0
504,190,0,0,0,0,0,0,0,0,0,-1,1728,834,0,0
511,190,0,0,0,0,0,0,0,0,0,-1,1735,834,0,0
518,190,0,0,0,0,0,0,0,0,0,-1,1742,834,0,0
525,190,0,0,0,0,0,0,0,0,0,-1,1749,834,0,0
532,190,0,0,0,0,0,0,0,0,0,-1,1756,834,0,0
539,190,0,0,0,0,0,0,0,0,0,-1,1763,834,0,0
546,190,0,0,0,0,0,0,0,0,0,-1,1770,834,0,0
553,190,0,0,0,0,0,0,0,0,0,-1,1777,834,0,0
560,190,0,0,0,0,0,0,0,0,0,-1,1784,834,0,0
567,190,0,0,0,0,0,0,0,0,0,-1,1791,834,0,0
574,190,0,0,0,0,0,0,0,0,0,-1,1798,834,0,0
581,190,0,0,0,0,0,0,0,0,0,-1,1805,834,0,0
588,190,0,0,0,0,0,0,0,0,0,-1,1812,834,0,0
595,190,0,0,0,0,0,0,0,0,0,-1,1819,834,0,0
602,190,61.644,2.58856,0.00158303,0.00431225,0.00143157,0.00492541,0.000969874,1.16613,0.00301281,0.0435095,1826,834,61.644,-2.58855
609,190,61.78,2.62775,0.00132599,0.00285171,0.00169348,0.00394622,0.000231477,0.997019,0.00255715,0.0433167,1833,834,61.78,-2.62777
616,190,61.6519,2.72797,0.00106773,0.00181833,0.00166045,0.00314537,-0.000259302,0.896542,0.00218847,0.0416779,1840,834,61.6518,-2.72799
623,190,61.502,3.01581,0.000770151,0.000947522,0.00142272,0.00228431,-0.000566641,0.816526,0.00174274,0.0381534,1847,834,61.502,-3.01584
630,190,61.5889,2.93488,0.000112311,0.000540945,0.00111088,0.00145799,-0.000804736,0.88069,0.00132441,0.0404836,1854,834,61.5889,-2.93485
637,190,61.5515,2.81207,-0.000669134,0.000211047,0.000675587,0.000577243,-0.00103533,1.07408,0.000943458,0.0336697,1861,834,61.5515,-2.81206
644,190,61.4856,2.84863,-0.00134426,-0.000151588,0.000295439,-8.24163e-05,-0.00141343,1.34081,0.000916051,0.0285099,1868,834,61.4855,-2.84863
651,190,61.5098,2.89209,0,0,0,0,0,0,0,-1,1875,834,61.5098,-2.8921
658,190,54.0599,3.0943,0,0,0,0,0,0,0,-1,1882,834,54.0599,-3.09428
665,190,25.9916,3.05157,0,0,0,0,0,0,0,-1,1889,834,25.9916,-3.05156
672,190,27.2662,1.70862,0,0,0,0,0,0,0,-1,1896,834,27.2662,-1.70861
679,190,48.2294,0.103455,0,0,0,0,0,0,0,-1,1903,834,48.2294,-0.103483
686,190,48.197,0.765625,-0.00345761,-0.000900009,-0.00165021,-9.10994e-05,-0.00426652,-1.11503,0.00281447,0.0282912,1910,834,48.197,-0.765621
693,190,48.2168,1.4563,-0.0036525,-0.0010246,-0.00176842,-0.000135415,-0.00454168,-1.1049,0.00298367,0.0294257,1917,834,48.2168,-1.45629
700,190,47.9976,2.09064,-0.00339483,-0.000953813,-0.00209985,0.00025447,-0.00460311,-1.04865,0.00315698,0.0189508,1924,834,47.9976,-2.09063
707,190,48.0193,2.80151,-0.00267027,-0.00112531,-0.00229246,0.000521321,-0.0043169,-0.947906,0.00306652,0.0132385,1931,834,48.0193,-2.80148
714,190,48.0032,3.49182,-0.00119482,-0.00190687,-0.00253895,0.00101295,-0.00411464,-0.715739,0.00313576,0.0119365,1938,834,48.0031,-3.49182
721,190,47.9728,4.18561,0.000699659,-0.00341691,-0.00308353,0.00234876,-0.00506601,-0.491105,0.00437569,0.0111917,1945,834,47.9727,-4.18558
728,190,47.9291,4.88452,0.0027831,-0.00608842,-0.00408007,0.00437419,-0.00767951,-0.371827,0.00704588,0.0132212,1952,834,47.9291,-4.88449
735,190,47.9042,5.57343,0.00494886,-0.0100947,-0.00562106,0.00681715,-0.011963,-0.320887,0.0109776,0.0134352,1959,834,47.9041,-5.57345
742,190,47.8225,6.2995,0.00714732,-0.0159563,-0.00790993,0.00959592,-0.0184049,-0.300204,0.0164308,0.0186233,1966,834,47.8225,-6.29947
749,190,47.7786,7.07562,0.00943802,-0.0246686,-0.0112918,0.0128376,-0.0280682,-0.292434,0.0241565,0.0424779,1973,834,47.7786,-7.0756
756,190,47.4679,7.70184,0,0,0,0,0,0,0,-1,1980,834,47.4679,-7.70184
763,190,47.9373,7.49146,0,0,0,0,0,0,0,-1,1987,834,47.9373,-7.49147
770,190,45.1699,8.8703,0,0,0,0,0,0,0,-1,1994,834,45.17,-8.87029
777,190,40.5735,6.99371,0,0,0,0,0,0,0,-1,2001,834,40.5735,-6.99373
784,190,0,0,0,0,0,0,0,0,0,-1,2008,834,0,0
791,190,0,0,0,0,0,0,0,0,0,-1,2015,834,0,0
798,190,0,0,0,0,0,0,0,0,0,-1,2022,834,0,0
805,190,0,0,0,0,0,0,0,0,0,-1,2029,834,0,0
812,190,0,0,0,0,0,0,0,0,0,-1,2036,834,0,0
-700,183,0,0,0,0,0,0,0,0,0,-1,524,841,0,0
-693,183,0,0,0,0,0,0,0,0,0,-1,531,841,0,0
-686,183,0,0,0,0,0,0,0,0,0,-1,538,841,0,0
-679,183,0,0,0,0,0,0,0,0,0,-1,545,841,0,0
-672,183,0,0,0,0,0,0,0,0,0,-1,552,841,0,0
-665,183,0,0,0,0,0,0,0,0,0,-1,559,841,0,0
-658,183,-41.5034,4.79205,0,0,0,0,0,0,0,-1,566,841,-41.5033,-4.79207
-651,183,-35.4022,10.1769,0,0,0,0,0,0,0,-1,573,841,-35.4022,-10.1769
-644,183,-35.4374,9.29297,-0.0141512,-0.0077119,-0.0499814,0.0391535,-0.0610166,-0.817562,0.0582906,0.0458442,580,841,-35.4374,-9.29298
-637,183,-35.4097,8.50787,-0.00996811,-0.0049087,-0.0406765,0.0333167,-0.0481935,-0.816454,0.0473205,0.0476972,587,841,-35.4097,-8.50788
-630,183,-35.0768,6.79199,0,0,0,0,0,0,0,-1,594,841,-35.0768,-6.792
-623,183,-35.0624,5.77802,-0.00449258,-0.000721549,-0.0232219,0.0206912,-0.0259054,-0.825907,0.0269587,0.0494053,601,841,-35.0625,-5.77802
-616,183,-35.2026,4.44324,-0.00281125,0.000287915,-0.0162131,0.0150253,-0.0175487,-0.833041,0.0188254,0.0428483,608,841,-35.2026,-4.44325
-609,183,-35.2059,3.92413,-0.0020353,0.000907785,-0.0102833,0.00982431,-0.0109518,-0.856466,0.012001,0.0182437,615,841,-35.2059,-3.92416
-602,183,-35.2292,3.2608,-0.00203543,0.00109353,-0.00548095,0.00522891,-0.00617081,-0.924421,0.00658911,0.0115097,622,841,-35.2292,-3.26078
-595,183,-35.2699,2.56122,-0.00227164,0.000989985,-0.0019966,0.00193715,-0.0032188,-1.12785,0.00300729,0.0116164,629,841,-35.2699,-2.56123
-588,183,-35.2881,1.86121,-0.00245225,0.000662379,0.000380437,0.000708174,-0.00249804,1.451,0.00194488,0.0134002,636,841,-35.2881,-1.86119
-581,183,-35.3389,1.20557,-0.00247205,0.000339374,0.00118376,0.000771406,-0.00290408,1.22085,0.00223795,0.0151849,643,841,-35.3389,-1.20554
-574,183,-35.3244,0.549683,-0.00216941,0.000137567,0.00102108,0.00052458,-0.00255643,1.2085,0.0019034,0.0181876,650,841,-35.3244,-0.549655
-567,183,-35.2372,-0.100464,0,0,0,0,0,0,0,-1,657,841,-35.2372,0.100476
-560,183,-34.0303,-1.05511,0,0,0,0,0,0,0,-1,664,841,-34.0303,1.05511
-553,183,-32.2224,-1.71942,0,0,0,0,0,0,0,-1,671,841,-32.2224,1.71944
-546,183,-27.8053,-1.91199,0,0,0,0,0,0,0,-1,678,841,-27.8053,1.91201
-539,183,-16.8032,-0.417297,0,0,0,0,0,0,0,-1,685,841,-16.8032,0.41732
-532,183,-29.9686,0.953613,0,0,0,0,0,0,0,-1,692,841,-29.9686,-0.953627
-525,183,-46.9514,0.767944,0,0,0,0,0,0,0,-1,699,841,-46.9514,-0.767929
-518,183,-46.8181,1.00525,-0.000612805,0.00503468,-0.00448359,0.00750963,-0.00308775,-1.06642,0.00629344,0.0462967,706,841,-46.8181,-1.00527
-511,183,-46.7119,0.864746,-0.000683768,0.00546995,-0.00419165,0.00759279,-0.00280662,-1.102,0.00621245,0.0404385,713,841,-46.7119,-0.864763
-504,183,-46.8477,0.473206,0.000404835,0.00594312,-0.00350731,0.00764268,-0.00129473,-1.11956,0.00557702,0.043646,720,841,-46.8477,-0.473207
-497,183,-46.9794,0.10321,0,0,0,0,0,0,0,-1,727,841,-46.9793,-0.103232
-490,183,-46.7361,0.89502,0,0,0,0,0,0,0,-1,734,841,-46.7361,-0.89504
-483,183,0,0,0,0,0,0,0,0,0,-1,741,841,0,0
-476,183,0,0,0,0,0,0,0,0,0,-1,748,841,0,0
-469,183,0,0,0,0,0,0,0,0,0,-1,755,841,0,0
-462,183,0,0,0,0,0,0,0,0,0,-1,762,841,0,0
-455,183,0,0,0,0,0,0,0,0,0,-1,769,841,0,0
-448,183,0,0,0,0,0,0,0,0,0,-1,776,841,0,0
-441,183,0,0,0,0,0,0,0,0,0,-1,783,841,0,0
-434,183,0,0,0,0,0,0,0,0,0,-1,790,841,0,0
-427,183,0,0,0,0,0,0,0,0,0,-1,797,841,0,0
-420,183,0,0,0,0,0,0,0,0,0,-1,804,841,0,0
-413,183,0,0,0,0,0,0,0,0,0,-1,811,841,0,0
-406,183,0,0,0,0,0,0,0,0,0,-1,818,841,0,0
-399,183,0,0,0,0,0,0,0,0,0,-1,825,841,0,0
-392,183,0,0,0,0,0,0,0,0,0,-1,832,841,0,0
-385,183,0,0,0,0,0,0,0,0,0,-1,839,841,0,0
-378,183,0,0,0,0,0,0,0,0,0,-1,846,841,0,0
-371,183,0,0,0,0,0,0,0,0,0,-1,853,841,0,0
-364,183,0,0,0,0,0,0,0,0,0,-1,860,841,0,0
-357,183,0,0,0,0,0,0,0,0,0,-1,867,841,0,0
-350,183,0,0,0,0,0,0,0,0,0,-1,874,841,0,0
-343,183,0,0,0,0,0,0,0,0,0,-1,881,841,0,0
-336,183,0,0,0,0,0,0,0,0,0,-1,888,841,0,0
-329,183,0,0,0,0,0,0,0,0,0,-1,895,841,0,0
-322,183,0,0,0,0,0,0,0,0,0,-1,902,841,0,0
-315,183,0,0,0,0,0,0,0,0,0,-1,909,841,0,0
-308,183,0,0,0,0,0,0,0,0,0,-1,916,841,0,0
-301,183,0,0,0,0,0,0,0,0,0,-1,923,841,0,0
-294,183,0,0,0,0,0,0,0,0,0,-1,930,841,0,0
-287,183,0,0,0,0,0,0,0,0,0,-1,937,841,0,0
-280,183,0,0,0,0,0,0,0,0,0,-1,944,841,0,0
-273,183,0,0,0,0,0,0,0,0,0,-1,951,841,0,0
-266,183,0,0,0,0,0,0,0,0,0,-1,958,841,0,0
-259,183,0,0,0,0,0,0,0,0,0,-1,965,841,0,0
-252,183,0,0,0,0,0,0,0,0,0,-1,972,841,0,0
-245,183,0,0,0,0,0,0,0,0,0,-1,979,841,0,0
-238,183,0,0,0,0,0,0,0,0,0,-1,986,841,0,0
-231,183,0,0,0,0,0,0,0,0,0,-1,993,841,0,0
-224,183,0,0,0,0,0,0,0,0,0,-1,1000,841,0,0
-217,183,0,0,0,0,0,0,0,0,0,-1,1007,841,0,0
-210,183,0,0,0,0,0,0,0,0,0,-1,1014,841,0,0
-203,183,0,0,0,0,0,0,0,0,0,-1,1021,841,0,0
-196,183,0,0,0,0,0,0,0,0,0,-1,1028,841,0,0
-189,183,0,0,0,0,0,0,0,0,0,-1,1035,841,0,0
-182,183,0,0,0,0,0,0,0,0,0,-1,1042,841,0,0
-175,183,0,0,0,0,0,0,0,0,0,-1,1049,841,0,0
-168,183,0,0,0,0,0,0,0,0,0,-1,1056,841,0,0
-161,183,0,0,0,0,0,0,0,0,0,-1,1063,841,0,0
-154,183,0,0,0,0,0,0,0,0,0,-1,1070,841,0,0
-147,183,0,0,0,0,0,0,0,0,0,-1,1077,841,0,0
-140,183,0,0,0,0,0,0,0,0,0,-1,1084,841,0,0
-133,183,0,0,0,0,0,0,0,0,0,-1,1091,841,0,0
-126,183,0,0,0,0,0,0,0,0,0,-1,1098,841,0,0
-119,183,0,0,0,0,0,0,0,0,0,-1,1105,841,0,0
-112,183,0,0,0,0,0,0,0,0,0,-1,1112,841,0,0
-105,183,0,0,0,0,0,0,0,0,0,-1,1119,841,0,0
-98,183,0,0,0,0,0,0,0,0,0,-1,1126,841,0,0
-91,183,0,0,0,0,0,0,0,0,0,-1,1133,841,0,0
-84,183,0,0,0,0,0,0,0,0,0,-1,1140,841,0,0
-77,183,0,0,0,0,0,0,0,0,0,-1,1147,841,0,0
-70,183,0,0,0,0,0,0,0,0,0,-1,1154,841,0,0
-63,183,0,0,0,0,0,0,0,0,0,-1,1161,841,0,0
-56,183,0,0,0,0,0,0,0,0,0,-1,1168,841,0,0
-49,183,0,0,0,0,0,0,0,0,0,-1,1175,841,0,0
-42,183,0,0,0,0,0,0,0,0,0,-1,1182,841,0,0
-35,183,0,0,0,0,0,0,0,0,0,-1,1189,841,0,0
-28,183,0,0,0,0,0,0,0,0,0,-1,1196,841,0,0
-21,183,0,0,0,0,0,0,0,0,0,-1,1203,841,0,0
-14,183,0,0,0,0,0,0,0,0,0,-1,1210,841,0,0
-7,183,0,0,0,0,0,0,0,0,0,-1,1217,841,0,0
0,183,0,0,0,0,0,0,0,0,0,-1,1224,841,0,0
7,183,0,0,0,0,0,0,0,0,0,-1,1231,841,0,0
14,183,0,0,0,0,0,0,0,0,0,-1,1238,841,0,0
21,183,0,0,0,0,0,0,0,0,0,-1,1245,841,0,0
28,183,0,0,0,0,0,0,0,0,0,-1,1252,841,0,0
35,183,0,0,0,0,0,0,0,0,0,-1,1259,841,0,0
42,183,0,0,0,0,0,0,0,0,0,-1,1266,841,0,0
49,183,0,0,0,0,0,0,0,0,0,-1,1273,841,0,0
56,183,0,0,0,0,0,0,0,0,0,-1,1280,841,0,0
63,183,0,0,0,0,0,0,0,0,0,-1,1287,841,0,0
70,183,0,0,0,0,0,0,0,0,0,-1,1294,841,0,0
77,183,0,0,0,0,0,0,0,0,0,-1,1301,841,0,0
84,183,0,0,0,0,0,0,0,0,0,-1,1308,841,0,0
91,183,0,0,0,0,0,0,0,0,0,-1,1315,841,0,0
98,183,0,0,0,0,0,0,0,0,0,-1,1322,841,0,0
105,183,0,0,0,0,0,0,0,0,0,-1,1329,841,0,0
112,183,0,0,0,0,0,0,0,0,0,-1,1336,841,0,0
119,183,0,0,0,0,0,0,0,0,0,-1,1343,841,0,0
126,183,0,0,0,0,0,0,0,0,0,-1,1350,841,0,0
133,183,0,0,0,0,0,0,0,0,0,-1,1357,841,0,0
140,183,0,0,0,0,0,0,0,0,0,-1,1364,841,0,0
147,183,0,0,0,0,0,0,0,0,0,-1,1371,841,0,0
154,183,0,0,0,0,0,0,0,0,0,-1,1378,841,0,0
161,183,0,0,0,0,0,0,0,0,0,-1,1385,841,0,0
168,183,0,0,0,0,0,0,0,0,0,-1,1392,841,0,0
175,183,0,0,0,0,0,0,0,0,0,-1,1399,841,0,0
182,183,0,0,0,0,0,0,0,0,0,-1,1406,841,0,0
189,183,0,0,0,0,0,0,0,0,0,-1,1413,841,0,0
196,183,0,0,0,0,0,0,0,0,0,-1,1420,841,0,0
203,183,0,0,0,0,0,0,0,0,0,-1,1427,841,0,0
210,183,0,0,0,0,0,0,0,0,0,-1,1434,841,0,0
217,183,0,0,0,0,0,0,0,0,0,-1,1441,841,0,0
224,183,0,0,0,0,0,0,0,0,0,-1,1448,841,0,0
231,183,0,0,0,0,0,0,0,0,0,-1,1455,841,0,0
238,183,0,0,0,0,0,0,0,0,0,-1,1462,841,0,0
245,183,0,0,0,0,0,0,0,0,0,-1,1469,841,0,0
252,183,0,0,0,0,0,0,0,0,0,-1,1476,841,0,0
259,183,0,0,0,0,0,0,0,0,0,-1,1483,841,0,0
266,183,0,0,0,0,0,0,0,0,0,-1,1490,841,0,0
273,183,0,0,0,0,0,0,0,0,0,-1,1497,841,0,0
280,183,0,0,0,0,0,0,0,0,0,-1,1504,841,0,0
287,183,0,0,0,0,0,0,0,0,0,-1,1511,841,0,0
294,183,0,0,0,0,0,0,0,0,0,-1,1518,841,0,0
301,183,0,0,0,0,0,0,0,0,0,-1,1525,841,0,0
308,183,0,0,0,0,0,0,0,0,0,-1,1532,841,0,0
315,183,0,0,0,0,0,0,0,0,0,-1,1539,841,0,0
322,183,0,0,0,0,0,0,0,0,0,-1,1546,841,0,0
329,183,0,0,0,0,0,0,0,0,0,-1,1553,841,0,0
336,183,0,0,0,0,0,0,0,0,0,-1,1560,841,0,0
343,183,0,0,0,0,0,0,0,0,0,-1,1567,841,0,0
350,183,0,0,0,0,0,0,0,0,0,-1,1574,841,0,0
357,183,0,0,0,0,0,0,0,0,0,-1,1581,841,0,0
364,183,0,0,0,0,0,0,0,0,0,-1,1588,841,0,0
371,183,0,0,0,0,0,0,0,0,0,-1,1595,841,0,0
378,183,0,0,0,0,0,0,0,0,0,-1,1602,841,0,0
385,183,0,0,0,0,0,0,0,0,0,-1,1609,841,0,0
392,183,0,0,0,0,0,0,0,0,0,-1,1616,841,0,0
399,183,0,0,0,0,0,0,0,0,0,-1,1623,841,0,0
406,183,0,0,0,0,0,0,0,0,0,-1,1630,841,0,0
413,183,0,0,0,0,0,0,0,0,0,-1,1637,841,0,0
420,183,0,0,0,0,0,0,0,0,0,-1,1644,841,0,0
427,183,0,0,0,0,0,0,0,0,0,-1,1651,841,0,0
434,183,0,0,0,0,0,0,0,0,0,-1,1658,841,0,0
441,183,0,0,0,0,0,0,0,0,0,-1,1665,841,0,0
448,183,0,0,0,0,0,0,0,0,0,-1,1672,841,0,0
455,183,0,0,0,0,0,0,0,0,0,-1,1679,841,0,0
462,183,0,0,0,0,0,0,0,0,0,-1,1686,841,0,0
469,183,0,0,0,0,0,0,0,0,0,-1,1693,841,0,0
476,183,0,0,0,0,0,0,0,0,0,-1,1700,841,0,0
483,183,0,0,0,0,0,0,0,0,0,-1,1707,841,0,0
490,183,0,0,0,0,0,0,0,0,0,-1,1714,841,0,0
497,183,0,0,0,0,0,0,0,0,0,-1,1721,841,0,0
504,183,0,0,0,0,0,0,0,0,0,-1,1728,841,0,0
511,183,0,0,0,0,0,0,0,0,0,-1,1735,841,0,0
518,183,0,0,0,0,0,0,0,0,0,-1,1742,841,0,0
525,183,0,0,0,0,0,0,0,0,0,-1,1749,841,0,0
532,183,0,0,0,0,0,0,0,0,0,-1,1756,841,0,0
539,183,0,0,0,0,0,0,0,0,0,-1,1763,841,0,0
546,183,0,0,0,0,0,0,0,0,0,-1,1770,841,0,0
553,183,0,0,0,0,0,0,0,0,0,-1,1777,841,0,0
560,183,0,0,0,0,0,0,0,0,0,-1,1784,841,0,0
567,183,0,0,0,0,0,0,0,0,0,-1,1791,841,0,0
574,183,0,0,0,0,0,0,0,0,0,-1,1798,841,0,0
581,183,0,0,0,0,0,0,0,0,0,-1,1805,841,0,0
588,183,0,0,0,0,0,0,0,0,0,-1,1812,841,0,0
595,183,0,0,0,0,0,0,0,0,0,-1,1819,841,0,0
602,183,0,0,0,0,0,0,0,0,0,-1,1826,841,0,0
609,183,61.5134,2.8822,0.00160493,0.00321162,0.00228924,0.00483437,-1.78302e-05,0.954146,0.00322887,0.0420608,1833,841,61.5134,-2.88223
616,183,61.6053,2.90881,0.00126769,0.00220701,0.0020133,0.0038047,-0.000330003,0.899989,0.00265332,0.0399842,1840,841,61.6054,-2.90883
623,183,61.5619,2.98584,0.000870244,0.00136143,0.0015971,0.00273171,-0.000500035,0.861688,0.00200867,0.0421616,1847,841,61.5619,-2.98583
630,183,61.5505,3.03418,0.000266594,0.000906078,0.00115253,0.00178239,-0.000609723,0.920708,0.00143534,0.0402742,1854,841,61.5505,-3.03416
637,183,61.5343,2.82788,-0.000530628,0.000602938,0.000655605,0.000902793,-0.000830482,1.14183,0.001001,0.0344616,1861,841,61.5343,-2.82787
644,183,61.4237,2.81854,-0.00125542,0.000235568,0.000221168,0.000267683,-0.00128753,1.42659,0.000960103,0.0285823,1868,841,61.4237,-2.81855
651,183,61.489,2.87598,-0.00177128,-5.56219e-05,-0.000224741,-2.66708e-05,-0.00180023,-1.44268,0.00119136,0.0281673,1875,841,61.489,-2.876
658,183,61.5947,2.8891,0,0,0,0,0,0,0,-1,1882,841,61.5947,-2.8891
665,183,38.4337,2.66992,0,0,0,0,0,0,0,-1,1889,841,38.4337,-2.6699
672,183,29.168,1.54572,0,0,0,0,0,0,0,-1,1896,841,29.168,-1.54574
679,183,49.0426,0.233826,0,0,0,0,0,0,0,-1,1903,841,49.0426,-0.233832
686,183,48.993,0.850464,-0.00340567,-0.000525026,-0.00178021,0.000324561,-0.00425526,-1.12552,0.00295098,0.0360741,1910,841,48.9931,-0.850451
693,183,48.9358,1.448,-0.00362189,-0.000651391,-0.00189052,0.000267532,-0.00454081,-1.11836,0.00312021,0.0325742,1917,841,48.9358,-1.44798
700,183,48.7815,2.14368,-0.00348859,-0.000667554,-0.00219935,0.000534724,-0.00469086,-1.07053,0.00331987,0.0341963,1924,841,48.7815,-2.14366
707,183,48.7198,2.83698,-0.00303904,-0.000848624,-0.00235633,0.000654587,-0.00454225,-1.00294,0.00326828,0.0132892,1931,841,48.7199,-2.83695
714,183,48.7312,3.51093,-0.00179367,-0.00135035,-0.00240597,0.000844156,-0.00398817,-0.831333,0.00298028,0.0167402,1938,841,48.7312,-3.51095
721,183,48.7025,4.20129,-5.8486e-06,-0.00248487,-0.0027073,0.0017322,-0.00422292,-0.570721,0.00353701,0.0153712,1945,841,48.7025,-4.20128
728,183,48.6481,4.9137,0.00205932,-0.00461358,-0.00338789,0.00347783,-0.00603209,-0.396524,0.00555618,0.0133103,1952,841,48.6481,-4.91369
735,183,48.621,5.60706,0.00428956,-0.00789149,-0.00455537,0.00580469,-0.00940662,-0.321092,0.00886394,0.0130248,1959,841,48.621,-5.60704
742,183,48.6028,6.32153,0.00656961,-0.0126187,-0.00631449,0.00846113,-0.0145102,-0.291045,0.0134149,0.0136613,1966,841,48.6027,-6.3215
749,183,48.6259,7.28119,0.00898606,-0.0196013,-0.00892232,0.0115422,-0.0221574,-0.279017,0.0197756,0.0359987,1973,841,48.6259,-7.2812
756,183,48.7483,8.12506,0,0,0,0,0,0,0,-1,1980,841,48.7482,-8.12507
763,183,49.0775,8.68591,0,0,0,0,0,0,0,-1,1987,841,49.0775,-8.68591
770,183,41.0603,7.72028,0,0,0,0,0,0,0,-1,1994,841,41.0603,-7.72026
777,183,42.1948,7.22906,0,0,0,0,0,0,0,-1,2001,841,42.1948,-7.22905
784,183,0,0,0,0,0,0,0,0,0,-1,2008,841,0,0
791,183,0,0,0,0,0,0,0,0,0,-1,2015,841,0,0
798,183,0,0,0,0,0,0,0,0,0,-1,2022,841,0,0
805,183,0,0,0,0,0,0,0,0,0,-1,2029,841,0,0
812,183,0,0,0,0,0,0,0,0,0,-1,2036,841,0,0
-700,176,0,0,0,0,0,0,0,0,0,-1,524,848,0,0
-693,176,0,0,0,0,0,0,0,0,0,-1,531,848,0,0
-686,176,0,0,0,0,0,0,0,0,0,-1,538,848,0,0
-679,176,0,0,0,0,0,0,0,0,0,-1,545,848,0,0
-672,176,0,0,0,0,0,0,0,0,0,-1,552,848,0,0
-665,176,-43.8984,7.03381,0,0,0,0,0,0,0,-1,559,848,-43.8983,-7.0338
-658,176,-43.8357,7.30511,0,0,0,0,0,0,0,-1,566,848,-43.8357,-7.30509
-651,176,-35.39,10.5679,0,0,0,0,0,0,0,-1,573,848,-35.3899,-10.5679
-644,176,-35.4582,9.39679,-0.0196466,-0.00635173,-0.0483111,0.0357671,-0.0617654,-0.853767,0.0569734,0.0440676,580,848,-35.4582,-9.39677
-637,176,-35.5212,8.21973,-0.014231,-0.00402132,-0.0395338,0.0307358,-0.0489882,-0.849606,0.046429,0.0440601,587,848,-35.5212,-8.21975
-630,176,-35.6743,7.02563,-0.00971139,-0.00204384,-0.0308255,0.0251854,-0.0369406,-0.847266,0.0360819,0.0451407,594,848,-35.6743,-7.02561
-623,176,-35.7213,5.70728,-0.00659003,-0.000487163,-0.0227205,0.0193859,-0.0264631,-0.85215,0.0265758,0.0448364,601,848,-35.7213,-5.7073
-616,176,-35.8337,4.66913,-0.00398574,0.000446382,-0.0156795,0.0140657,-0.017605,-0.855601,0.0183231,0.0297572,608,848,-35.8337,-4.66915
-609,176,-35.9109,3.94788,-0.00281416,0.00108633,-0.00966986,0.00900065,-0.0107285,-0.884905,0.0114052,0.0120119,615,848,-35.9109,-3.94787
-602,176,-35.9326,3.25323,-0.00275287,0.00119362,-0.00469436,0.00431259,-0.00587184,-0.984358,0.00590291,0.0123811,622,848,-35.9326,-3.25322
-595,176,-35.9567,2.55219,-0.00301489,0.000955354,-0.00109554,0.00123759,-0.00329712,-1.31866,0.00270663,0.0126288,629,848,-35.9567,-2.55221
-588,176,-35.9567,1.88898,-0.00314569,0.000501972,0.00112348,0.000820235,-0.00346395,1.29475,0.00262577,0.0142985,636,848,-35.9567,-1.88896
-581,176,-36.0223,1.27753,-0.002975,0.000213374,0.00157207,0.000858125,-0.00361976,1.18159,0.0027443,0.0131765,643,848,-36.0223,-1.27753
-574,176,-36.0959,0.634338,-0.00240298,5.74266e-05,0.00114302,0.000506475,-0.00285203,1.19646,0.00209073,0.0269374,650,848,-36.0959,-0.634312
-567,176,-36.058,-0.133301,0,0,0,0,0,0,0,-1,657,848,-36.058,0.133316
-560,176,-31.6935,-0.0994873,0,0,0,0,0,0,0,-1,664,848,-31.6936,0.0994584
-553,176,-29.4605,-1.50214,0,0,0,0,0,0,0,-1,671,848,-29.4605,1.50211
-546,176,-16.657,-0.403198,0,0,0,0,0,0,0,-1,678,848,-16.657,0.403182
-539,176,-22.7061,1.48657,0,0,0,0,0,0,0,-1,685,848,-22.7061,-1.48657
-532,176,-38.8326,1.29749,0,0,0,0,0,0,0,-1,692,848,-38.8326,-1.29747
-525,176,-46.871,0.866516,0,0,0,0,0,0,0,-1,699,848,-46.8711,-0.866523
-518,176,-46.8486,0.98761,-5.20529e-05,0.00524252,-0.00515177,0.00838738,-0.00319691,-1.02273,0.00690835,0.0422435,706,848,-46.8485,-0.987609
-511,176,-46.8041,0.704651,-9.85586e-05,0.00574579,-0.00470489,0.00836212,-0.00271489,-1.06329,0.0066666,0.0393411,713,848,-46.8042,-0.704638
-504,176,-47.0027,0.558655,0.00111824,0.00626007,-0.0036176,0.00812725,-0.000748933,-1.09432,0.00568428,0.0432761,720,848,-47.0027,-0.558631
-497,176,-47.2685,0.716614,0,0,0,0,0,0,0,-1,727,848,-47.2685,-0.716644
-490,176,-46.8574,1.14514,0,0,0,0,0,0,0,-1,734,848,-46.8574,-1.14514
-483,176,0,0,0,0,0,0,0,0,0,-1,741,848,0,0
-476,176,0,0,0,0,0,0,0,0,0,-1,748,848,0,0
-469,176,0,0,0,0,0,0,0,0,0,-1,755,848,0,0
-462,176,0,0,0,0,0,0,0,0,0,-1,762,848,0,0
-455,176,0,0,0,0,0,0,0,0,0,-1,769,848,0,0
-448,176,0,0,0,0,0,0,0,0,0,-1,776,848,0,0
-441,176,0,0,0,0,0,0,0,0,0,-1,783,848,0,0
-434,176,0,0,0,0,0,0,0,0,0,-1,790,848,0,0
-427,176,0,0,0,0,0,0,0,0,0,-1,797,848,0,0
-420,176,0,0,0,0,0,0,0,0,0,-1,804,848,0,0
-413,176,0,0,0,0,0,0,0,0,0,-1,811,848,0,0
-406,176,0,0,0,0,0,0,0,0,0,-1,818,848,0,0
-399,176,0,0,0,0,0,0,0,0,0,-1,825,848,0,0
-392,176,0,0,0,0,0,0,0,0,0,-1,832,848,0,0
-385,176,0,0,0,0,0,0,0,0,0,-1,839,848,0,0
-378,176,0,0,0,0,0,0,0,0,0,-1,846,848,0,0
-371,176,0,0,0,0,0,0,0,0,0,-1,853,848,0,0
-364,176,0,0,0,0,0,0,0,0,0,-1,860,848,0,0
-357,176,0,0,0,0,0,0,0,0,0,-1,867,848,0,0
-350,176,0,0,0,0,0,0,0,0,0,-1,874,848,0,0
-343,176,0,0,0,0,0,0,0,0,0,-1,881,848,0,0
-336,176,0,0,0,0,0,0,0,0,0,-1,888,848,0,0
-329,176,0,0,0,0,0,0,0,0,0,-1,895,848,0,0
-322,176,0,0,0,0,0,0,0,0,0,-1,902,848,0,0
-315,176,0,0,0,0,0,0,0,0,0,-1,909,848,0,0
-308,176,0,0,0,0,0,0,0,0,0,-1,916,848,0,0
-301,176,0,0,0,0,0,0,0,0,0,-1,923,848,0,0
-294,176,0,0,0,0,0,0,0,0,0,-1,930,848,0,0
-287,176,0,0,0,0,0,0,0,0,0,-1,937,848,0,0
-280,176,0,0,0,0,0,0,0,0,0,-1,944,848,0,0
-273,176,0,0,0,0,0,0,0,0,0,-1,951,848,0,0
-266,176,0,0,0,0,0,0,0,0,0,-1,958,848,0,0
-259,176,0,0,0,0,0,0,0,0,0,-1,965,848,0,0
-252,176,0,0,0,0,0,0,0,0,0,-1,972,848,0,0
-245,176,0,0,0,0,0,0,0,0,0,-1,979,848,0,0
-238,176,0,0,0,0,0,0,0,0,0,-1,986,848,0,0
-231,176,0,0,0,0,0,0,0,0,0,-1,993,848,0,0
-224,176,0,0,0,0,0,0,0,0,0,-1,1000,848,0,0
-217,176,0,0,0,0,0,0,0,0,0,-1,1007,848,0,0
-210,176,0,0,0,0,0,0,0,0,0,-1,1014,848,0,0
-203,176,0,0,0,0,0,0,0,0,0,-1,1021,848,0,0
-196,176,0,0,0,0,0,0,0,0,0,-1,1028,848,0,0
-189,176,0,0,0,0,0,0,0,0,0,-1,1035,848,0,0
-182,176,0,0,0,0,0,0,0,0,0,-1,1042,848,0,0
-175,176,0,0,0,0,0,0,0,0,0,-1,1049,848,0,0
-168,176,0,0,0,0,0,0,0,0,0,-1,1056,848,0,0
-161,176,0,0,0,0,0,0,0,0,0,-1,1063,848,0,0
-154,176,0,0,0,0,0,0,0,0,0,-1,1070,848,0,0
-147,176,0,0,0,0,0,0,0,0,0,-1,1077,848,0,0
-140,176,0,0,0,0,0,0,0,0,0,-1,1084,848,0,0
-133,176,0,0,0,0,0,0,0,0,0,-1,1091,848,0,0
-126,176,0,0,0,0,0,0,0,0,0,-1,1098,848,0,0
-119,176,0,0,0,0,0,0,0,0,0,-1,1105,848,0,0
-112,176,0,0,0,0,0,0,0,0,0,-1,1112,848,0,0
-105,176,0,0,0,0,0,0,0,0,0,-1,1119,848,0,0
-98,176,0,0,0,0,0,0,0,0,0,-1,1126,848,0,0
-91,176,0,0,0,0,0,0,0,0,0,-1,1133,848,0,0
-84,176,0,0,0,0,0,0,0,0,0,-1,1140,848,0,0
-77,176,0,0,0,0,0,0,0,0,0,-1,1147,848,0,0
-70,176,0,0,0,0,0,0,0,0,0,-1,1154,848,0,0
-63,176,0,0,0,0,0,0,0,0,0,-1,1161,848,0,0
-56,176,0,0,0,0,0,0,0,0,0,-1,1168,848,0,0
-49,176,0,0,0,0,0,0,0,0,0,-1,1175,848,0,0
-42,176,0,0,0,0,0,0,0,0,0,-1,1182,848,0,0
-35,176,0,0,0,0,0,0,0,0,0,-1,1189,848,0,0
-28,176,0,0,0,0,0,0,0,0,0,-1,1196,848,0,0
-21,176,0,0,0,0,0,0,0,0,0,-1,1203,848,0,0
-14,176,0,0,0,0,0,0,0,0,0,-1,1210,848,0,0
-7,176,0,0,0,0,0,0,0,0,0,-1,1217,848,0,0
0,176,0,0,0,0,0,0,0,0,0,-1,1224,848,0,0
7,176,0,0,0,0,0,0,0,0,0,-1,1231,848,0,0
14,176,0,0,0,0,0,0,0,0,0,-1,1238,848,0,0
21,176,0,0,0,0,0,0,0,0,0,-1,1245,848,0,0
28,176,0,0,0,0,0,0,0,0,0,-1,1252,848,0,0
35,176,0,0,0,0,0,0,0,0,0,-1,1259,848,0,0
42,176,0,0,0,0,0,0,0,0,0,-1,1266,848,0,0
49,176,0,0,0,0,0,0,0,0,0,-1,1273,848,0,0
56,176,0,0,0,0,0,0,0,0,0,-1,1280,848,0,0
63,176,0,0,0,0,0,0,0,0,0,-1,1287,848,0,0
70,176,0,0,0,0,0,0,0,0,0,-1,1294,848,0,0
77,176,0,0,0,0,0,0,0,0,0,-1,1301,848,0,0
84,176,0,0,0,0,0,0,0,0,0,-1,1308,848,0,0
91,176,0,0,0,0,0,0,0,0,0,-1,1315,848,0,0
98,176,0,0,0,0,0,0,0,0,0,-1,1322,848,0,0
105,176,0,0,0,0,0,0,0,0,0,-1,1329,848,0,0
112,176,0,0,0,0,0,0,0,0,0,-1,1336,848,0,0
119,176,0,0,0,0,0,0,0,0,0,-1,1343,848,0,0
126,176,0,0,0,0,0,0,0,0,0,-1,1350,848,0,0
133,176,0,0,0,0,0,0,0,0,0,-1,1357,848,0,0
140,176,0,0,0,0,0,0,0,0,0,-1,1364,848,0,0
147,176,0,0,0,0,0,0,0,0,0,-1,1371,848,0,0
154,176,0,0,0,0,0,0,0,0,0,-1,1378,848,0,0
161,176,0,0,0,0,0,0,0,0,0,-1,1385,848,0,0
168,176,0,0,0,0,0,0,0,0,0,-1,1392,848,0,0
175,176,0,0,0,0,0,0,0,0,0,-1,1399,848,0,0
182,176,0,0,0,0,0,0,0,0,0,-1,1406,848,0,0
189,176,0,0,0,0,0,0,0,0,0,-1,1413,848,0,0
196,176,0,0,0,0,0,0,0,0,0,-1,1420,848,0,0
203,176,0,0,0,0,0,0,0,0,0,-1,1427,848,0,0
210,176,0,0,0,0,0,0,0,0,0,-1,1434,848,0,0
217,176,0,0,0,0,0,0,0,0,0,-1,1441,848,0,0
224,176,0,0,0,0,0,0,0,0,0,-1,1448,848,0,0
231,176,0,0,0,0,0,0,0,0,0,-1,1455,848,0,0
238,176,0,0,0,0,0,0,0,0,0,-1,1462,848,0,0
245,176,0,0,0,0,0,0,0,0,0,-1,1469,848,0,0
252,176,0,0,0,0,0,0,0,0,0,-1,1476,848,0,0
259,176,0,0,0,0,0,0,0,0,0,-1,1483,848,0,0
266,176,0,0,0,0,0,0,0,0,0,-1,1490,848,0,0
273,176,0,0,0,0,0,0,0,0,0,-1,1497,848,0,0
280,176,0,0,0,0,0,0,0,0,0,-1,1504,848,0,0
287,176,0,0,0,0,0,0,0,0,0,-1,1511,848,0,0
294,176,0,0,0,0,0,0,0,0,0,-1,1518,848,0,0
301,176,0,0,0,0,0,0,0,0,0,-1,1525,848,0,0
308,176,0,0,0,0,0,0,0,0,0,-1,1532,848,0,0
315,176,0,0,0,0,0,0,0,0,0,-1,1539,848,0,0
322,176,0,0,0,0,0,0,0,0,0,-1,1546,848,0,0
329,176,0,0,0,0,0,0,0,0,0,-1,1553,848,0,0
336,176,0,0,0,0,0,0,0,0,0,-1,1560,848,0,0
343,176,0,0,0,0,0,0,0,0,0,-1,1567,848,0,0
350,176,0,0,0,0,0,0,0,0,0,-1,1574,848,0,0
357,176,0,0,0,0,0,0,0,0,0,-1,1581,848,0,0
364,176,0,0,0,0,0,0,0,0,0,-1,1588,848,0,0
371,176,0,0,0,0,0,0,0,0,0,-1,1595,848,0,0
378,176,0,0,0,0,0,0,0,0,0,-1,1602,848,0,0
385,176,0,0,0,0,0,0,0,0,0,-1,1609,848,0,0
392,176,0,0,0,0,0,0,0,0,0,-1,1616,848,0,0
399,176,0,0,0,0,0,0,0,0,0,-1,1623,848,0,0
406,176,0,0,0,0,0,0,0,0,0,-1,1630,848,0,0
413,176,0,0,0,0,0,0,0,0,0,-1,1637,848,0,0
420,176,0,0,0,0,0,0,0,0,0,-1,1644,848,0,0
427,176,0,0,0,0,0,0,0,0,0,-1,1651,848,0,0
434,176,0,0,0,0,0,0,0,0,0,-1,1658,848,0,0
441,176,0,0,0,0,0,0,0,0,0,-1,1665,848,0,0
448,176,0,0,0,0,0,0,0,0,0,-1,1672,848,0,0
455,176,0,0,0,0,0,0,0,0,0,-1,1679,848,0,0
462,176,0,0,0,0,0,0,0,0,0,-1,1686,848,0,0
469,176,0,0,0,0,0,0,0,0,0,-1,1693,848,0,0
476,176,0,0,0,0,0,0,0,0,0,-1,1700,848,0,0
483,176,0,0,0,0,0,0,0,0,0,-1,1707,848,0,0
490,176,0,0,0,0,0,0,0,0,0,-1,1714,848,0,0
497,176,0,0,0,0,0,0,0,0,0,-1,1721,848,0,0
504,176,0,0,0,0,0,0,0,0,0,-1,1728,848,0,0
511,176,0,0,0,0,0,0,0,0,0,-1,1735,848,0,0
518,176,0,0,0,0,0,0,0,0,0,-1,1742,848,0,0
525,176,0,0,0,0,0,0,0,0,0,-1,1749,848,0,0
532,176,0,0,0,0,0,0,0,0,0,-1,1756,848,0,0
539,176,0,0,0,0,0,0,0,0,0,-1,1763,848,0,0
546,176,0,0,0,0,0,0,0,0,0,-1,1770,848,0,0
553,176,0,0,0,0,0,0,0,0,0,-1,1777,848,0,0
560,176,0,0,0,0,0,0,0,0,0,-1,1784,848,0,0
567,176,0,0,0,0,0,0,0,0,0,-1,1791,848,0,0
574,176,0,0,0,0,0,0,0,0,0,-1,1798,848,0,0
581,176,0,0,0,0,0,0,0,0,0,-1,1805,848,0,0
588,176,0,0,0,0,0,0,0,0,0,-1,1812,848,0,0
595,176,0,0,0,0,0,0,0,0,0,-1,1819,848,0,0
602,176,0,0,0,0,0,0,0,0,0,-1,1826,848,0,0
609,176,61.4886,2.80518,0.00206104,0.00396024,0.00321124,0.00635934,-0.000338065,0.929157,0.00435663,0.0396532,1833,848,61.4886,-2.80521
616,176,61.5721,2.86401,0.00165737,0.00298885,0.00259835,0.00500539,-0.000359177,0.910808,0.00346287,0.0390441,1840,848,61.5721,-2.86402
623,176,61.5618,2.96973,0.00119086,0.00219231,0.00199109,0.00374468,-0.000361503,0.908585,0.00262526,0.044812,1847,848,61.5618,-2.96975
630,176,61.6586,2.68652,0.000633016,0.00165683,0.00139003,0.00262621,-0.000336366,0.961828,0.00187303,0.04244,1854,848,61.6585,-2.68651
637,176,61.5807,2.71356,-0.000151965,0.0013339,0.000820618,0.00169793,-0.000515993,1.15328,0.00133755,0.0331144,1861,848,61.5807,-2.71353
644,176,61.4622,2.73444,-0.000911287,0.000944917,0.000322175,0.000999246,-0.000965616,1.40374,0.00113447,0.0312101,1868,848,61.4622,-2.73446
651,176,61.4788,2.84344,-0.00150178,0.000616835,-0.000184104,0.000632714,-0.00151766,-1.48476,0.00127608,0.0327473,1875,848,61.4788,-2.84346
658,176,61.5155,2.81812,0,0,0,0,0,0,0,-1,1882,848,61.5155,-2.81812
665,176,54.3333,2.34277,0,0,0,0,0,0,0,-1,1889,848,54.3333,-2.34279
672,176,16.9304,2.80719,0,0,0,0,0,0,0,-1,1896,848,16.9305,-2.80719
679,176,49.0515,0.10675,0,0,0,0,0,0,0,-1,1903,848,49.0515,-0.106765
686,176,49.7942,0.95697,0,0,0,0,0,0,0,-1,1910,848,49.7942,-0.956955
693,176,49.6503,1.61285,-0.00340386,-0.000398511,-0.00180283,0.000445779,-0.00424815,-1.13282,0.00299179,0.0294478,1917,848,49.6503,-1.61283
700,176,49.4995,2.36218,-0.0033361,-0.00059608,-0.00209912,0.000540543,-0.00447273,-1.07452,0.00317736,0.0343882,1924,848,49.4995,-2.3622
707,176,49.4991,2.98175,-0.00311127,-0.000874797,-0.00226442,0.000532449,-0.00451851,-1.01475,0.0032046,0.0217556,1931,848,49.4991,-2.98176
714,176,49.4258,3.55499,-0.00216658,-0.00115228,-0.00219735,0.000595688,-0.00391454,-0.898812,0.00282924,0.0125934,1938,848,49.4258,-3.555
721,176,49.396,4.22412,-0.000619108,-0.0018315,-0.00229531,0.0011487,-0.00359931,-0.656295,0.00286039,0.0127257,1945,848,49.396,-4.2241
728,176,49.3467,4.95923,0.00130887,-0.00327365,-0.00266408,0.00253147,-0.00449625,-0.430246,0.00410997,0.0152435,1952,848,49.3467,-4.95921
735,176,49.3174,5.66541,0.00351652,-0.00567154,-0.00345416,0.00467022,-0.00682523,-0.322352,0.00667566,0.0147531,1959,848,49.3174,-5.6654
742,176,49.2893,6.3576,0.0058181,-0.00916498,-0.00471569,0.00717873,-0.0105256,-0.280903,0.0102823,0.024162,1966,848,49.2893,-6.3576
749,176,49.5801,7.17145,0.00829338,-0.0143357,-0.00661096,0.0100832,-0.0161255,-0.264394,0.015265,0.0386147,1973,848,49.5801,-7.17142
756,176,50.0286,8.54828,0,0,0,0,0,0,0,-1,1980,848,50.0286,-8.54831
763,176,44.4343,7.70581,0,0,0,0,0,0,0,-1,1987,848,44.4343,-7.70578
770,176,36.4186,4.25641,0,0,0,0,0,0,0,-1,1994,848,36.4186,-4.25639
777,176,43.8328,7.50177,0,0,0,0,0,0,0,-1,2001,848,43.8328,-7.50178
784,176,0,0,0,0,0,0,0,0,0,-1,2008,848,0,0
791,176,0,0,0,0,0,0,0,0,0,-1,2015,848,0,0
798,176,0,0,0,0,0,0,0,0,0,-1,2022,848,0,0
805,176,0,0,0,0,0,0,0,0,0,-1,2029,848,0,0
812,176,0,0,0,0,0,0,0,0,0,-1,2036,848,0,0
-700,169,0,0,0,0,0,0,0,0,0,-1,524,855,0,0
-693,169,0,0,0,0,0,0,0,0,0,-1,531,855,0,0
-686,169,0,0,0,0,0,0,0,0,0,-1,538,855,0,0
-679,169,0,0,0,0,0,0,0,0,0,-1,545,855,0,0
-672,169,0,0,0,0,0,0,0,0,0,-1,552,855,0,0
-665,169,-43.2675,6.61096,0,0,0,0,0,0,0,-1,559,855,-43.2675,-6.61099
-658,169,-43.3649,6.99109,0,0,0,0,0,0,0,-1,566,855,-43.3649,-6.9911
-651,169,-40.8989,6.59399,0,0,0,0,0,0,0,-1,573,855,-40.8989,-6.59401
-644,169,-36.2381,9.6474,0,0,0,0,0,0,0,-1,580,855,-36.2381,-9.64738
-637,169,-36.2387,8.47504,-0.0178465,-0.00254977,-0.03798,0.0285443,-0.0489407,-0.884759,0.0452497,0.0452786,587,855,-36.2387,-8.47502
-630,169,-36.2623,7.27789,-0.0126131,-0.00104984,-0.0295656,0.0232941,-0.036957,-0.881956,0.0350829,0.0446256,594,855,-36.2622,-7.27787
-623,169,-36.4266,5.77264,-0.00867188,5.3946e-05,-0.0216093,0.0177364,-0.0263543,-0.885009,0.0256173,0.0420533,601,855,-36.4266,-5.77263
-616,169,-36.5291,4.61255,-0.0052236,0.000676988,-0.0145176,0.012541,-0.0170876,-0.885644,0.0171731,0.0245826,608,855,-36.5291,-4.61256
-609,169,-36.5776,3.95789,-0.00358062,0.00126745,-0.00859219,0.00777099,-0.0100842,-0.922885,0.0103375,0.0143627,615,855,-36.5776,-3.9579
-602,169,-36.6287,3.2774,-0.00338575,0.00121332,-0.00361005,0.00319401,-0.00536644,-1.06898,0.00499515,0.0135601,622,855,-36.6287,-3.27742
-595,169,-36.6499,2.57385,-0.00360175,0.000749315,-9.34643e-05,0.000751321,-0.00360376,-1.54933,0.00268817,0.0124247,629,855,-36.6499,-2.57388
-588,169,-36.646,1.92896,-0.00369203,0.000126232,0.00179181,0.000835373,-0.00440117,1.19394,0.00324857,0.0107256,636,855,-36.646,-1.92898
-581,169,-36.7005,1.3551,-0.00348445,-0.000187873,0.00189476,0.000675208,-0.00434753,1.14337,0.00314765,0.0201073,643,855,-36.7005,-1.35508
-574,169,-37.0147,0.630554,-0.00287904,-0.000323044,0.00133492,0.000247009,-0.0034491,1.16721,0.002386,0.0368111,650,855,-37.0147,-0.630556
-567,169,-36.8051,0.00701904,0,0,0,0,0,0,0,-1,657,855,-36.805,-0.00699847
-560,169,-36.8419,-0.565613,0,0,0,0,0,0,0,-1,664,855,-36.8419,0.565634
-553,169,-32.1944,-0.787964,0,0,0,0,0,0,0,-1,671,855,-32.1944,0.787959
-546,169,-19.0852,-1.05609,0,0,0,0,0,0,0,-1,678,855,-19.0852,1.05612
-539,169,-33.2307,1.10706,0,0,0,0,0,0,0,-1,685,855,-33.2307,-1.10708
-532,169,-46.8454,0.829834,0,0,0,0,0,0,0,-1,692,855,-46.8454,-0.829842
-525,169,-46.8845,0.821899,-0.000230531,0.00356213,-0.00456806,0.00661183,-0.00328023,-0.982138,0.00581816,0.0452039,699,855,-46.8845,-0.821874
-518,169,-46.9072,0.871765,-3.75063e-06,0.00487061,-0.00525506,0.00822614,-0.00335928,-1.00252,0.00688277,0.0432934,706,855,-46.9072,-0.871791
-511,169,-46.9149,0.627625,0.000322789,0.00564315,-0.00470566,0.00838851,-0.00242256,-1.04266,0.00655091,0.043763,713,855,-46.9149,-0.627609
-504,169,-46.827,0.550598,0.0019712,0.00653187,-0.00351611,0.00844235,6.0718e-05,-1.07307,0.0056081,0.0440439,720,855,-46.827,-0.550588
-497,169,-46.7637,0.937317,0.00408869,0.00745951,-0.0018569,0.00828182,0.00326637,-1.15391,0.00481693,0.0437364,727,855,-46.7637,-0.937332
-490,169,0,0,0,0,0,0,0,0,0,-1,734,855,0,0
-483,169,0,0,0,0,0,0,0,0,0,-1,741,855,0,0
-476,169,0,0,0,0,0,0,0,0,0,-1,748,855,0,0
-469,169,0,0,0,0,0,0,0,0,0,-1,755,855,0,0
-462,169,0,0,0,0,0,0,0,0,0,-1,762,855,0,0
-455,169,0,0,0,0,0,0,0,0,0,-1,769,855,0,0
-448,169,0,0,0,0,0,0,0,0,0,-1,776,855,0,0
-441,169,0,0,0,0,0,0,0,0,0,-1,783,855,0,0
-434,169,0,0,0,0,0,0,0,0,0,-1,790,855,0,0
-427,169,0,0,0,0,0,0,0,0,0,-1,797,855,0,0
-420,169,0,0,0,0,0,0,0,0,0,-1,804,855,0,0
-413,169,0,0,0,0,0,0,0,0,0,-1,811,855,0,0
-406,169,0,0,0,0,0,0,0,0,0,-1,818,855,0,0
-399,169,0,0,0,0,0,0,0,0,0,-1,825,855,0,0
-392,169,0,0,0,0,0,0,0,0,0,-1,832,855,0,0
-385,169,0,0,0,0,0,0,0,0,0,-1,839,855,0,0
-378,169,0,0,0,0,0,0,0,0,0,-1,846,855,0,0
-371,169,0,0,0,0,0,0,0,0,0,-1,853,855,0,0
-364,169,0,0,0,0,0,0,0,0,0,-1,860,855,0,0
-357,169,0,0,0,0,0,0,0,0,0,-1,867,855,0,0
-350,169,0,0,0,0,0,0,0,0,0,-1,874,855,0,0
-343,169,0,0,0,0,0,0,0,0,0,-1,881,855,0,0
-336,169,0,0,0,0,0,0,0,0,0,-1,888,855,0,0
-329,169,0,0,0,0,0,0,0,0,0,-1,895,855,0,0
-322,169,0,0,0,0,0,0,0,0,0,-1,902,855,0,0
-315,169,0,0,0,0,0,0,0,0,0,-1,909,855,0,0
-308,169,0,0,0,0,0,0,0,0,0,-1,916,855,0,0
-301,169,0,0,0,0,0,0,0,0,0,-1,923,855,0,0
-294,169,0,0,0,0,0,0,0,0,0,-1,930,855,0,0
-287,169,0,0,0,0,0,0,0,0,0,-1,937,855,0,0
-280,169,0,0,0,0,0,0,0,0,0,-1,944,855,0,0
-273,169,0,0,0,0,0,0,0,0,0,-1,951,855,0,0
-266,169,0,0,0,0,0,0,0,0,0,-1,958,855,0,0
-259,169,0,0,0,0,0,0,0,0,0,-1,965,855,0,0
-252,169,0,0,0,0,0,0,0,0,0,-1,972,855,0,0
-245,169,0,0,0,0,0,0,0,0,0,-1,979,855,0,0
-238,169,0,0,0,0,0,0,0,0,0,-1,986,855,0,0
-231,169,0,0,0,0,0,0,0,0,0,-1,993,855,0,0
-224,169,0,0,0,0,0,0,0,0,0,-1,1000,855,0,0
-217,169,0,0,0,0,0,0,0,0,0,-1,1007,855,0,0
-210,169,0,0,0,0,0,0,0,0,0,-1,1014,855,0,0
-203,169,0,0,0,0,0,0,0,0,0,-1,1021,855,0,0
-196,169,0,0,0,0,0,0,0,0,0,-1,1028,855,0,0
-189,169,0,0,0,0,0,0,0,0,0,-1,1035,855,0,0
-182,169,0,0,0,0,0,0,0,0,0,-1,1042,855,0,0
-175,169,0,0,0,0,0,0,0,0,0,-1,1049,855,0,0
-168,169,0,0,0,0,0,0,0,0,0,-1,1056,855,0,0
-161,169,0,0,0,0,0,0,0,0,0,-1,1063,855,0,0
-154,169,0,0,0,0,0,0,0,0,0,-1,1070,855,0,0
-147,169,0,0,0,0,0,0,0,0,0,-1,1077,855,0,0
-140,169,0,0,0,0,0,0,0,0,0,-1,1084,855,0,0
-133,169,0,0,0,0,0,0,0,0,0,-1,1091,855,0,0
-126,169,0,0,0,0,0,0,0,0,0,-1,1098,855,0,0
-119,169,0,0,0,0,0,0,0,0,0,-1,1105,855,0,0
-112,169,0,0,0,0,0,0,0,0,0,-1,1112,855,0,0
-105,169,0,0,0,0,0,0,0,0,0,-1,1119,855,0,0
-98,169,0,0,0,0,0,0,0,0,0,-1,1126,855,0,0
-91,169,0,0,0,0,0,0,0,0,0,-1,1133,855,0,0
-84,169,0,0,0,0,0,0,0,0,0,-1,1140,855,0,0
-77,169,0,0,0,0,0,0,0,0,0,-1,1147,855,0,0
-70,169,0,0,0,0,0,0,0,0,0,-1,1154,855,0,0
-63,169,0,0,0,0,0,0,0,0,0,-1,1161,855,0,0
-56,169,0,0,0,0,0,0,0,0,0,-1,1168,855,0,0
-49,169,0,0,0,0,0,0,0,0,0,-1,1175,855,0,0
-42,169,0,0,0,0,0,0,0,0,0,-1,1182,855,0,0
-35,169,0,0,0,0,0,0,0,0,0,-1,1189,855,0,0
-28,169,0,0,0,0,0,0,0,0,0,-1,1196,855,0,0
-21,169,0,0,0,0,0,0,0,0,0,-1,1203,855,0,0
-14,169,0,0,0,0,0,0,0,0,0,-1,1210,855,0,0
-7,169,0,0,0,0,0,0,0,0,0,-1,1217,855,0,0
0,169,0,0,0,0,0,0,0,0,0,-1,1224,855,0,0
7,169,0,0,0,0,0,0,0,0,0,-1,1231,855,0,0
14,169,0,0,0,0,0,0,0,0,0,-1,1238,855,0,0
21,169,0,0,0,0,0,0,0,0,0,-1,1245,855,0,0
28,169,0,0,0,0,0,0,0,0,0,-1,1252,855,0,0
35,169,0,0,0,0,0,0,0,0,0,-1,1259,855,0,0
42,169,0,0,0,0,0,0,0,0,0,-1,1266,855,0,0
49,169,0,0,0,0,0,0,0,0,0,-1,1273,855,0,0
56,169,0,0,0,0,0,0,0,0,0,-1,1280,855,0,0
63,169,0,0,0,0,0,0,0,0,0,-1,1287,855,0,0
70,169,0,0,0,0,0,0,0,0,0,-1,1294,855,0,0
77,169,0,0,0,0,0,0,0,0,0,-1,1301,855,0,0
84,169,0,0,0,0,0,0,0,0,0,-1,1308,855,0,0
91,169,0,0,0,0,0,0,0,0,0,-1,1315,855,0,0
98,169,0,0,0,0,0,0,0,0,0,-1,1322,855,0,0
105,169,0,0,0,0,0,0,0,0,0,-1,1329,855,0,0
112,169,0,0,0,0,0,0,0,0,0,-1,1336,855,0,0
119,169,0,0,0,0,0,0,0,0,0,-1,1343,855,0,0
126,169,0,0,0,0,0,0,0,0,0,-1,1350,855,0,0
133,169,0,0,0,0,0,0,0,0,0,-1,1357,855,0,0
140,169,0,0,0,0,0,0,0,0,0,-1,1364,855,0,0
147,169,0,0,0,0,0,0,0,0,0,-1,1371,855,0,0
154,169,0,0,0,0,0,0,0,0,0,-1,1378,855,0,0
161,169,0,0,0,0,0,0,0,0,0,-1,1385,855,0,0
168,169,0,0,0,0,0,0,0,0,0,-1,1392,855,0,0
175,169,0,0,0,0,0,0,0,0,0,-1,1399,855,0,0
182,169,0,0,0,0,0,0,0,0,0,-1,1406,855,0,0
189,169,0,0,0,0,0,0,0,0,0,-1,1413,855,0,0
196,169,0,0,0,0,0,0,0,0,0,-1,1420,855,0,0
203,169,0,0,0,0,0,0,0,0,0,-1,1427,855,0,0
210,169,0,0,0,0,0,0,0,0,0,-1,1434,855,0,0
217,169,0,0,0,0,0,0,0,0,0,-1,1441,855,0,0
224,169,0,0,0,0,0,0,0,0,0,-1,1448,855,0,0
231,169,0,0,0,0,0,0,0,0,0,-1,1455,855,0,0
238,169,0,0,0,0,0,0,0,0,0,-1,1462,855,0,0
245,169,0,0,0,0,0,0,0,0,0,-1,1469,855,0,0
252,169,0,0,0,0,0,0,0,0,0,-1,1476,855,0,0
259,169,0,0,0,0,0,0,0,0,0,-1,1483,855,0,0
266,169,0,0,0,0,0,0,0,0,0,-1,1490,855,0,0
273,169,0,0,0,0,0,0,0,0,0,-1,1497,855,0,0
280,169,0,0,0,0,0,0,0,0,0,-1,1504,855,0,0
287,169,0,0,0,0,0,0,0,0,0,-1,1511,855,0,0
294,169,0,0,0,0,0,0,0,0,0,-1,1518,855,0,0
301,169,0,0,0,0,0,0,0,0,0,-1,1525,855,0,0
308,169,0,0,0,0,0,0,0,0,0,-1,1532,855,0,0
315,169,0,0,0,0,0,0,0,0,0,-1,1539,855,0,0
322,169,0,0,0,0,0,0,0,0,0,-1,1546,855,0,0
329,169,0,0,0,0,0,0,0,0,0,-1,1553,855,0,0
336,169,0,0,0,0,0,0,0,0,0,-1,1560,855,0,0
343,169,0,0,0,0,0,0,0,0,0,-1,1567,855,0,0
350,169,0,0,0,0,0,0,0,0,0,-1,1574,855,0,0
357,169,0,0,0,0,0,0,0,0,0,-1,1581,855,0,0
364,169,0,0,0,0,0,0,0,0,0,-1,1588,855,0,0
371,169,0,0,0,0,0,0,0,0,0,-1,1595,855,0,0
378,169,0,0,0,0,0,0,0,0,0,-1,1602,855,0,0
385,169,0,0,0,0,0,0,0,0,0,-1,1609,855,0,0
392,169,0,0,0,0,0,0,0,0,0,-1,1616,855,0,0
399,169,0,0,0,0,0,0,0,0,0,-1,1623,855,0,0
406,169,0,0,0,0,0,0,0,0,0,-1,1630,855,0,0
413,169,0,0,0,0,0,0,0,0,0,-1,1637,855,0,0
420,169,0,0,0,0,0,0,0,0,0,-1,1644,855,0,0
427,169,0,0,0,0,0,0,0,0,0,-1,1651,855,0,0
434,169,0,0,0,0,0,0,0,0,0,-1,1658,855,0,0
441,169,0,0,0,0,0,0,0,0,0,-1,1665,855,0,0
448,169,0,0,0,0,0,0,0,0,0,-1,1672,855,0,0
455,169,0,0,0,0,0,0,0,0,0,-1,1679,855,0,0
462,169,0,0,0,0,0,0,0,0,0,-1,1686,855,0,0
469,169,0,0,0,0,0,0,0,0,0,-1,1693,855,0,0
476,169,0,0,0,0,0,0,0,0,0,-1,1700,855,0,0
483,169,0,0,0,0,0,0,0,0,0,-1,1707,855,0,0
490,169,0,0,0,0,0,0,0,0,0,-1,1714,855,0,0
497,169,0,0,0,0,0,0,0,0,0,-1,1721,855,0,0
504,169,0,0,0,0,0,0,0,0,0,-1,1728,855,0,0
511,169,0,0,0,0,0,0,0,0,0,-1,1735,855,0,0
518,169,0,0,0,0,0,0,0,0,0,-1,1742,855,0,0
525,169,0,0,0,0,0,0,0,0,0,-1,1749,855,0,0
532,169,0,0,0,0,0,0,0,0,0,-1,1756,855,0,0
539,169,0,0,0,0,0,0,0,0,0,-1,1763,855,0,0
546,169,0,0,0,0,0,0,0,0,0,-1,1770,855,0,0
553,169,0,0,0,0,0,0,0,0,0,-1,1777,855,0,0
560,169,0,0,0,0,0,0,0,0,0,-1,1784,855,0,0
567,169,0,0,0,0,0,0,0,0,0,-1,1791,855,0,0
574,169,0,0,0,0,0,0,0,0,0,-1,1798,855,0,0
581,169,0,0,0,0,0,0,0,0,0,-1,1805,855,0,0
588,169,0,0,0,0,0,0,0,0,0,-1,1812,855,0,0
595,169,0,0,0,0,0,0,0,0,0,-1,1819,855,0,0
602,169,0,0,0,0,0,0,0,0,0,-1,1826,855,0,0
609,169,0,0,0,0,0,0,0,0,0,-1,1833,855,0,0
616,169,61.5088,2.71234,0.00221676,0.00342488,0.0029268,0.00580931,-0.000167669,0.887164,0.00392996,0.0384957,1840,855,61.5087,-2.71234
623,169,61.5708,3.14221,0.00167607,0.00266668,0.00218172,0.00440861,-6.5868e-05,0.897019,0.00296128,0.0441252,1847,855,61.5708,-3.14221
630,169,61.6152,2.94257,0.00113074,0.00206879,0.00150654,0.00317763,2.19051e-05,0.936306,0.00211115,0.0435084,1854,855,61.6152,-2.9426
637,169,61.6077,2.71576,0.000347,0.00171545,0.000927915,0.00218413,-0.000121681,1.10308,0.00149829,0.0373115,1861,855,61.6077,-2.71576
644,169,61.5233,2.75214,-0.000455151,0.00131063,0.000409135,0.00140082,-0.000545341,1.35382,0.00115924,0.0349297,1868,855,61.5233,-2.75213
651,169,61.4408,2.96014,-0.00113736,0.000947833,-0.000124047,0.000955187,-0.00114471,-1.51158,0.00121402,0.0360701,1875,855,61.4408,-2.96016
658,169,61.5052,2.82813,-0.00177141,0.000566687,-0.000645856,0.00073323,-0.00193795,-1.31843,0.00159363,0.0381114,1882,855,61.5053,-2.82809
665,169,61.6908,2.56494,0,0,0,0,0,0,0,-1,1889,855,61.6908,-2.56495
672,169,31.2465,2.96387,0,0,0,0,0,0,0,-1,1896,855,31.2464,-2.9639
679,169,38.4297,1.08197,0,0,0,0,0,0,0,-1,1903,855,38.4296,-1.08194
686,169,50.3655,0.970459,0,0,0,0,0,0,0,-1,1910,855,50.3655,-0.970474
693,169,50.431,1.68176,-0.00325479,-0.000299435,-0.00161731,0.000413602,-0.00396783,-1.15555,0.00279331,0.0318711,1917,855,50.4311,-1.68173
700,169,50.4277,2.42438,-0.00322839,-0.000565358,-0.00188707,0.000412668,-0.00420642,-1.09263,0.00295147,0.0273053,1924,855,50.4277,-2.42438
707,169,50.3202,3.05511,-0.00315215,-0.000913272,-0.00208878,0.000337131,-0.00440255,-1.03139,0.00305362,0.0285335,1931,855,50.3202,-3.05511
714,169,50.0977,3.56232,-0.00249844,-0.00105333,-0.00200184,0.000352367,-0.00390413,-0.958594,0.00272781,0.0166553,1938,855,50.0976,-3.56234
721,169,50.1,4.25995,-0.00125613,-0.00129723,-0.00198306,0.000706485,-0.00325985,-0.780216,0.00244302,0.0165588,1945,855,50.1,-4.25998
728,169,50.057,4.992,0.000449143,-0.00207004,-0.00211104,0.00164781,-0.00326871,-0.516415,0.00288952,0.0137784,1952,855,50.057,-4.99201
735,169,50.007,5.69153,0.00257104,-0.00360494,-0.00256309,0.00349616,-0.00453007,-0.346389,0.00464674,0.0189418,1959,855,50.0069,-5.69154
742,169,50.0122,6.35663,0.0048681,-0.00597464,-0.00337957,0.00583522,-0.00694176,-0.278717,0.00738601,0.0183516,1966,855,50.0122,-6.35665
749,169,50.0057,6.90875,0.00736247,-0.00955877,-0.00463693,0.00854982,-0.0107461,-0.250676,0.0111645,0.0306751,1973,855,50.0057,-6.90875
756,169,50.2573,7.39856,0,0,0,0,0,0,0,-1,1980,855,50.2573,-7.39859
763,169,45.1978,7.5675,0,0,0,0,0,0,0,-1,1987,855,45.1977,-7.56751
770,169,37.2059,3.97021,0,0,0,0,0,0,0,-1,1994,855,37.2059,-3.97022
777,169,41.7505,8.7085,0,0,0,0,0,0,0,-1,2001,855,41.7505,-8.70852
784,169,40.0581,9.47473,0,0,0,0,0,0,0,-1,2008,855,40.058,-9.47476
791,169,0,0,0,0,0,0,0,0,0,-1,2015,855,0,0
798,169,0,0,0,0,0,0,0,0,0,-1,2022,855,0,0
805,169,0,0,0,0,0,0,0,0,0,-1,2029,855,0,0
812,169,0,0,0,0,0,0,0,0,0,-1,2036,855,0,0
-700,162,0,0,0,0,0,0,0,0,0,-1,524,862,0,0
-693,162,0,0,0,0,0,0,0,0,0,-1,531,862,0,0
-686,162,0,0,0,0,0,0,0,0,0,-1,538,862,0,0
-679,162,0,0,0,0,0,0,0,0,0,-1,545,862,0,0
-672,162,0,0,0,0,0,0,0,0,0,-1,552,862,0,0
-665,162,-42.992,5.87714,0,0,0,0,0,0,0,-1,559,862,-42.992,-5.87712
-658,162,-55.3759,-3.77582,0,0,0,0,0,0,0,-1,566,862,-55.3759,3.77583
-651,162,-41.1621,7.83588,0,0,0,0,0,0,0,-1,573,862,-41.1621,-7.83586
-644,162,-39.6024,7.15338,0,0,0,0,0,0,0,-1,580,862,-39.6023,-7.15337
-637,162,-37.3257,8.63,0,0,0,0,0,0,0,-1,587,862,-37.3257,-8.63001
-630,162,-37.3652,7.35974,0,0,0,0,0,0,0,-1,594,862,-37.3652,-7.35973
-623,162,-37.0925,5.48993,-0.0101876,0.000464352,-0.0199173,0.0157554,-0.0254787,-0.916044,0.0240262,0.0343389,601,862,-37.0925,-5.4899
-616,162,-37.1722,4.61371,-0.00603383,0.000946522,-0.0129346,0.0108535,-0.0159408,-0.917176,0.0155624,0.0209054,608,862,-37.1722,-4.61369
-609,162,-37.2607,3.94849,-0.0039915,0.00151769,-0.00721187,0.00648312,-0.00895693,-0.967824,0.00895238,0.0144748,615,862,-37.2607,-3.94851
-602,162,-37.3186,3.30255,-0.00369163,0.00135032,-0.0024015,0.00231108,-0.0046524,-1.19023,0.00409542,0.0117149,622,862,-37.3186,-3.30256
-595,162,-37.3262,2.6366,-0.00383945,0.000716928,0.000793064,0.000851019,-0.00397354,1.4033,0.00297357,0.0113263,629,862,-37.3262,-2.63662
-588,162,-37.3356,1.97034,-0.00388541,8.33657e-05,0.00222069,0.00107711,-0.00487915,1.15003,0.00366495,0.0135989,636,862,-37.3357,-1.97033
-581,162,-37.5716,1.31592,-0.00369926,-0.000136588,0.00202424,0.0007785,-0.00461435,1.14623,0.00336588,0.0355651,643,862,-37.5716,-1.31594
-574,162,-37.9103,0.625244,-0.00314351,-0.000241954,0.00141264,0.000332192,-0.00371766,1.18476,0.00259626,0.0488272,650,862,-37.9103,-0.625251
-567,162,-38.2325,-0.204651,0,0,0,0,0,0,0,-1,657,862,-38.2325,0.204671
-560,162,-36.5075,-0.831665,0,0,0,0,0,0,0,-1,664,862,-36.5075,0.831657
-553,162,-35.9823,-1.60956,0,0,0,0,0,0,0,-1,671,862,-35.9823,1.60954
-546,162,-22.8181,-1.51154,0,0,0,0,0,0,0,-1,678,862,-22.8181,1.51155
-539,162,-46.6882,1.05878,0,0,0,0,0,0,0,-1,685,862,-46.6883,-1.05876
-532,162,-46.7878,0.921692,-0.00118226,0.00237403,-0.00354412,0.00456105,-0.00336929,-1.01791,0.00459578,0.0450011,692,862,-46.7878,-0.921681
-525,162,-46.8833,0.73999,-0.000316534,0.00310149,-0.00458722,0.00628771,-0.00350275,-0.963713,0.00572825,0.039617,699,862,-46.8833,-0.73996
-518,162,-46.8083,0.614197,6.57993e-05,0.00449946,-0.00523772,0.00797016,-0.00340491,-0.985589,0.0067414,0.0417164,706,862,-46.8083,-0.614195
-511,162,-46.9287,0.68988,0.000651612,0.00538609,-0.00460599,0.00819756,-0.00215985,-1.02277,0.00630944,0.0452435,713,862,-46.9287,-0.689879
-504,162,-46.8956,0.503296,0.00228149,0.00647093,-0.00345237,0.00841436,0.000338054,-1.05808,0.00550035,0.0460451,720,862,-46.8956,-0.5033
-497,162,-46.8342,0.546509,0.00416935,0.00771489,-0.00188808,0.00853202,0.00335223,-1.16235,0.00496349,0.0448457,727,862,-46.8342,-0.54653
-490,162,0,0,0,0,0,0,0,0,0,-1,734,862,0,0
-483,162,0,0,0,0,0,0,0,0,0,-1,741,862,0,0
-476,162,0,0,0,0,0,0,0,0,0,-1,748,862,0,0
-469,162,0,0,0,0,0,0,0,0,0,-1,755,862,0,0
-462,162,0,0,0,0,0,0,0,0,0,-1,762,862,0,0
-455,162,0,0,0,0,0,0,0,0,0,-1,769,862,0,0
-448,162,0,0,0,0,0,0,0,0,0,-1,776,862,0,0
-441,162,0,0,0,0,0,0,0,0,0,-1,783,862,0,0
-434,162,0,0,0,0,0,0,0,0,0,-1,790,862,0,0
-427,162,0,0,0,0,0,0,0,0,0,-1,797,862,0,0
-420,162,0,0,0,0,0,0,0,0,0,-1,804,862,0,0
-413,162,0,0,0,0,0,0,0,0,0,-1,811,862,0,0
-406,162,0,0,0,0,0,0,0,0,0,-1,818,862,0,0
-399,162,0,0,0,0,0,0,0,0,0,-1,825,862,0,0
-392,162,0,0,0,0,0,0,0,0,0,-1,832,862,0,0
-385,162,0,0,0,0,0,0,0,0,0,-1,839,862,0,0
-378,162,0,0,0,0,0,0,0,0,0,-1,846,862,0,0
-371,162,0,0,0,0,0,0,0,0,0,-1,853,862,0,0
-364,162,0,0,0,0,0,0,0,0,0,-1,860,862,0,0
-357,162,0,0,0,0,0,0,0,0,0,-1,867,862,0,0
-350,162,0,0,0,0,0,0,0,0,0,-1,874,862,0,0
-343,162,0,0,0,0,0,0,0,0,0,-1,881,862,0,0
-336,162,0,0,0,0,0,0,0,0,0,-1,888,862,0,0
-329,162,0,0,0,0,0,0,0,0,0,-1,895,862,0,0
-322,162,0,0,0,0,0,0,0,0,0,-1,902,862,0,0
-315,162,0,0,0,0,0,0,0,0,0,-1,909,862,0,0
-308,162,0,0,0,0,0,0,0,0,0,-1,916,862,0,0
-301,162,0,0,0,0,0,0,0,0,0,-1,923,862,0,0
-294,162,0,0,0,0,0,0,0,0,0,-1,930,862,0,0
-287,162,0,0,0,0,0,0,0,0,0,-1,937,862,0,0
-280,162,0,0,0,0,0,0,0,0,0,-1,944,862,0,0
-273,162,0,0,0,0,0,0,0,0,0,-1,951,862,0,0
-266,162,0,0,0,0,0,0,0,0,0,-1,958,862,0,0
-259,162,0,0,0,0,0,0,0,0,0,-1,965,862,0,0
-252,162,0,0,0,0,0,0,0,0,0,-1,972,862,0,0
-245,162,0,0,0,0,0,0,0,0,0,-1,979,862,0,0
-238,162,0,0,0,0,0,0,0,0,0,-1,986,862,0,0
-231,162,0,0,0,0,0,0,0,0,0,-1,993,862,0,0
-224,162,0,0,0,0,0,0,0,0,0,-1,1000,862,0,0
-217,162,0,0,0,0,0,0,0,0,0,-1,1007,862,0,0
-210,162,0,0,0,0,0,0,0,0,0,-1,1014,862,0,0
-203,162,0,0,0,0,0,0,0,0,0,-1,1021,862,0,0
-196,162,0,0,0,0,0,0,0,0,0,-1,1028,862,0,0
-189,162,0,0,0,0,0,0,0,0,0,-1,1035,862,0,0
-182,162,0,0,0,0,0,0,0,0,0,-1,1042,862,0,0
-175,162,0,0,0,0,0,0,0,0,0,-1,1049,862,0,0
-168,162,0,0,0,0,0,0,0,0,0,-1,1056,862,0,0
-161,162,0,0,0,0,0,0,0,0,0,-1,1063,862,0,0
-154,162,0,0,0,0,0,0,0,0,0,-1,1070,862,0,0
-147,162,0,0,0,0,0,0,0,0,0,-1,1077,862,0,0
-140,162,0,0,0,0,0,0,0,0,0,-1,1084,862,0,0
-133,162,0,0,0,0,0,0,0,0,0,-1,1091,862,0,0
-126,162,0,0,0,0,0,0,0,0,0,-1,1098,862,0,0
-119,162,0,0,0,0,0,0,0,0,0,-1,1105,862,0,0
-112,162,0,0,0,0,0,0,0,0,0,-1,1112,862,0,0
-105,162,0,0,0,0,0,0,0,0,0,-1,1119,862,0,0
-98,162,0,0,0,0,0,0,0,0,0,-1,1126,862,0,0
-91,162,0,0,0,0,0,0,0,0,0,-1,1133,862,0,0
-84,162,0,0,0,0,0,0,0,0,0,-1,1140,862,0,0
-77,162,0,0,0,0,0,0,0,0,0,-1,1147,862,0,0
-70,162,0,0,0,0,0,0,0,0,0,-1,1154,862,0,0
-63,162,0,0,0,0,0,0,0,0,0,-1,1161,862,0,0
-56,162,0,0,0,0,0,0,0,0,0,-1,1168,862,0,0
-49,162,0,0,0,0,0,0,0,0,0,-1,1175,862,0,0
-42,162,0,0,0,0,0,0,0,0,0,-1,1182,862,0,0
-35,162,0,0,0,0,0,0,0,0,0,-1,1189,862,0,0
-28,162,0,0,0,0,0,0,0,0,0,-1,1196,862,0,0
-21,162,0,0,0,0,0,0,0,0,0,-1,1203,862,0,0
-14,162,0,0,0,0,0,0,0,0,0,-1,1210,862,0,0
-7,162,0,0,0,0,0,0,0,0,0,-1,1217,862,0,0
0,162,0,0,0,0,0,0,0,0,0,-1,1224,862,0,0
7,162,0,0,0,0,0,0,0,0,0,-1,1231,862,0,0
14,162,0,0,0,0,0,0,0,0,0,-1,1238,862,0,0
21,162,0,0,0,0,0,0,0,0,0,-1,1245,862,0,0
28,162,0,0,0,0,0,0,0,0,0,-1,1252,862,0,0
35,162,0,0,0,0,0,0,0,0,0,-1,1259,862,0,0
42,162,0,0,0,0,0,0,0,0,0,-1,1266,862,0,0
49,162,0,0,0,0,0,0,0,0,0,-1,1273,862,0,0
56,162,0,0,0,0,0,0,0,0,0,-1,1280,862,0,0
63,162,0,0,0,0,0,0,0,0,0,-1,1287,862,0,0
70,162,0,0,0,0,0,0,0,0,0,-1,1294,862,0,0
77,162,0,0,0,0,0,0,0,0,0,-1,1301,862,0,0
84,162,0,0,0,0,0,0,0,0,0,-1,1308,862,0,0
91,162,0,0,0,0,0,0,0,0,0,-1,1315,862,0,0
98,162,0,0,0,0,0,0,0,0,0,-1,1322,862,0,0
105,162,0,0,0,0,0,0,0,0,0,-1,1329,862,0,0
112,162,0,0,0,0,0,0,0,0,0,-1,1336,862,0,0
119,162,0,0,0,0,0,0,0,0,0,-1,1343,862,0,0
126,162,0,0,0,0,0,0,0,0,0,-1,1350,862,0,0
133,162,0,0,0,0,0,0,0,0,0,-1,1357,862,0,0
140,162,0,0,0,0,0,0,0,0,0,-1,1364,862,0,0
147,162,0,0,0,0,0,0,0,0,0,-1,1371,862,0,0
154,162,0,0,0,0,0,0,0,0,0,-1,1378,862,0,0
161,162,0,0,0,0,0,0,0,0,0,-1,1385,862,0,0
168,162,0,0,0,0,0,0,0,0,0,-1,1392,862,0,0
175,162,0,0,0,0,0,0,0,0,0,-1,1399,862,0,0
182,162,0,0,0,0,0,0,0,0,0,-1,1406,862,0,0
189,162,0,0,0,0,0,0,0,0,0,-1,1413,862,0,0
196,162,0,0,0,0,0,0,0,0,0,-1,1420,862,0,0
203,162,0,0,0,0,0,0,0,0,0,-1,1427,862,0,0
210,162,0,0,0,0,0,0,0,0,0,-1,1434,862,0,0
217,162,0,0,0,0,0,0,0,0,0,-1,1441,862,0,0
224,162,0,0,0,0,0,0,0,0,0,-1,1448,862,0,0
231,162,0,0,0,0,0,0,0,0,0,-1,1455,862,0,0
238,162,0,0,0,0,0,0,0,0,0,-1,1462,862,0,0
245,162,0,0,0,0,0,0,0,0,0,-1,1469,862,0,0
252,162,0,0,0,0,0,0,0,0,0,-1,1476,862,0,0
259,162,0,0,0,0,0,0,0,0,0,-1,1483,862,0,0
266,162,0,0,0,0,0,0,0,0,0,-1,1490,862,0,0
273,162,0,0,0,0,0,0,0,0,0,-1,1497,862,0,0
280,162,0,0,0,0,0,0,0,0,0,-1,1504,862,0,0
287,162,0,0,0,0,0,0,0,0,0,-1,1511,862,0,0
294,162,0,0,0,0,0,0,0,0,0,-1,1518,862,0,0
301,162,0,0,0,0,0,0,0,0,0,-1,1525,862,0,0
308,162,0,0,0,0,0,0,0,0,0,-1,1532,862,0,0
315,162,0,0,0,0,0,0,0,0,0,-1,1539,862,0,0
322,162,0,0,0,0,0,0,0,0,0,-1,1546,862,0,0
329,162,0,0,0,0,0,0,0,0,0,-1,1553,862,0,0
336,162,0,0,0,0,0,0,0,0,0,-1,1560,862,0,0
343,162,0,0,0,0,0,0,0,0,0,-1,1567,862,0,0
350,162,0,0,0,0,0,0,0,0,0,-1,1574,862,0,0
357,162,0,0,0,0,0,0,0,0,0,-1,1581,862,0,0
364,162,0,0,0,0,0,0,0,0,0,-1,1588,862,0,0
371,162,0,0,0,0,0,0,0,0,0,-1,1595,862,0,0
378,162,0,0,0,0,0,0,0,0,0,-1,1602,862,0,0
385,162,0,0,0,0,0,0,0,0,0,-1,1609,862,0,0
392,162,0,0,0,0,0,0,0,0,0,-1,1616,862,0,0
399,162,0,0,0,0,0,0,0,0,0,-1,1623,862,0,0
406,162,0,0,0,0,0,0,0,0,0,-1,1630,862,0,0
413,162,0,0,0,0,0,0,0,0,0,-1,1637,862,0,0
420,162,0,0,0,0,0,0,0,0,0,-1,1644,862,0,0
427,162,0,0,0,0,0,0,0,0,0,-1,1651,862,0,0
434,162,0,0,0,0,0,0,0,0,0,-1,1658,862,0,0
441,162,0,0,0,0,0,0,0,0,0,-1,1665,862,0,0
448,162,0,0,0,0,0,0,0,0,0,-1,1672,862,0,0
455,162,0,0,0,0,0,0,0,0,0,-1,1679,862,0,0
462,162,0,0,0,0,0,0,0,0,0,-1,1686,862,0,0
469,162,0,0,0,0,0,0,0,0,0,-1,1693,862,0,0
476,162,0,0,0,0,0,0,0,0,0,-1,1700,862,0,0
483,162,0,0,0,0,0,0,0,0,0,-1,1707,862,0,0
490,162,0,0,0,0,0,0,0,0,0,-1,1714,862,0,0
497,162,0,0,0,0,0,0,0,0,0,-1,1721,862,0,0
504,162,0,0,0,0,0,0,0,0,0,-1,1728,862,0,0
511,162,0,0,0,0,0,0,0,0,0,-1,1735,862,0,0
518,162,0,0,0,0,0,0,0,0,0,-1,1742,862,0,0
525,162,0,0,0,0,0,0,0,0,0,-1,1749,862,0,0
532,162,0,0,0,0,0,0,0,0,0,-1,1756,862,0,0
539,162,0,0,0,0,0,0,0,0,0,-1,1763,862,0,0
546,162,0,0,0,0,0,0,0,0,0,-1,1770,862,0,0
553,162,0,0,0,0,0,0,0,0,0,-1,1777,862,0,0
560,162,0,0,0,0,0,0,0,0,0,-1,1784,862,0,0
567,162,0,0,0,0,0,0,0,0,0,-1,1791,862,0,0
574,162,0,0,0,0,0,0,0,0,0,-1,1798,862,0,0
581,162,0,0,0,0,0,0,0,0,0,-1,1805,862,0,0
588,162,0,0,0,0,0,0,0,0,0,-1,1812,862,0,0
595,162,0,0,0,0,0,0,0,0,0,-1,1819,862,0,0
602,162,0,0,0,0,0,0,0,0,0,-1,1826,862,0,0
609,162,0,0,0,0,0,0,0,0,0,-1,1833,862,0,0
616,162,61.418,2.66907,0.00253944,0.00340949,0.00276985,0.00577827,0.000170661,0.86329,0.00379657,0.041803,1840,862,61.4179,-2.66909
623,162,61.3706,3.08813,0.00198084,0.00274308,0.00201723,0.00441487,0.000309048,0.878763,0.00284583,0.0429676,1847,862,61.3706,-3.08815
630,162,61.3978,2.87476,0.00146055,0.0021559,0.00137647,0.00322792,0.000388529,0.909104,0.00203484,0.0398689,1854,862,61.3979,-2.87477
637,162,61.4438,2.67249,0.00074261,0.00181544,0.000884146,0.00231317,0.000244881,1.05807,0.00146731,0.0398217,1861,862,61.4438,-2.67252
644,162,61.5001,2.73157,-2.7987e-05,0.00140285,0.000420741,0.0015174,-0.000142536,1.30498,0.0010623,0.0372726,1868,862,61.5002,-2.73155
651,162,61.4595,2.85834,-0.000743352,0.000992679,-9.39223e-05,0.000997745,-0.000748419,-1.5169,0.00101157,0.0333136,1875,862,61.4594,-2.85837
658,162,61.4825,2.81415,-0.00144539,0.000551928,-0.000654652,0.000747375,-0.00164084,-1.28067,0.00141063,0.0336034,1882,862,61.4825,-2.81415
665,162,61.5204,2.72107,0,0,0,0,0,0,0,-1,1889,862,61.5204,-2.72107
672,162,56.9712,3.04034,0,0,0,0,0,0,0,-1,1896,862,56.9711,-3.04034
679,162,26.5077,2.54785,0,0,0,0,0,0,0,-1,1903,862,26.5077,-2.54787
686,162,50.7437,0.852417,0,0,0,0,0,0,0,-1,1910,862,50.7437,-0.852412
693,162,51.1592,1.78149,-0.00299707,-0.000482624,-0.00147099,0.000195204,-0.0036749,-1.139,0.00251752,0.0394225,1917,862,51.1591,-1.78147
700,162,51.1349,2.42737,-0.00297925,-0.000689467,-0.00169104,0.000207796,-0.00387651,-1.08297,0.00265631,0.03502,1924,862,51.1349,-2.42738
707,162,50.9847,3.02771,-0.00299091,-0.00101484,-0.00189608,0.000135193,-0.00414094,-1.02559,0.00280678,0.0246856,1931,862,50.9848,-3.02773
714,162,50.8046,3.57275,-0.00256542,-0.00105944,-0.00183646,0.000172405,-0.00379726,-0.979957,0.00259089,0.0275055,1938,862,50.8045,-3.57273
721,162,50.708,4.35291,-0.00166468,-0.00097425,-0.0017863,0.000499888,-0.00313882,-0.88085,0.00227753,0.0290268,1945,862,50.708,-4.35288
728,162,50.6892,5.01819,-0.000336526,-0.00118983,-0.00176582,0.00105345,-0.00257981,-0.666861,0.00215849,0.0235786,1952,862,50.6892,-5.01819
735,162,50.6829,5.69153,0.00150103,-0.00198593,-0.00195665,0.00237827,-0.00286318,-0.421472,0.00303047,0.0111252,1959,862,50.6829,-5.69152
742,162,50.6569,6.34082,0.00363268,-0.00338833,-0.00239176,0.00437001,-0.00412567,-0.299037,0.00490566,0.0137229,1966,862,50.6568,-6.34085
749,162,50.5839,6.97113,0.00599733,-0.00562488,-0.00308382,0.00676489,-0.00639244,-0.243943,0.0075974,0.0206545,1973,862,50.5838,-6.97116
756,162,50.4258,7.58301,0.00856435,-0.00870506,-0.00409555,0.00948641,-0.00962712,-0.221444,0.0110353,0.0438747,1980,862,50.4258,-7.58302
763,162,50.3304,8.23077,0,0,0,0,0,0,0,-1,1987,862,50.3305,-8.23077
770,162,48.002,9.22675,0,0,0,0,0,0,0,-1,1994,862,48.0019,-9.22675
777,162,51.0674,11.6591,0,0,0,0,0,0,0,-1,2001,862,51.0674,-11.6591
784,162,48.532,10.3329,0,0,0,0,0,0,0,-1,2008,862,48.5321,-10.3329
791,162,0,0,0,0,0,0,0,0,0,-1,2015,862,0,0
798,162,0,0,0,0,0,0,0,0,0,-1,2022,862,0,0
805,162,0,0,0,0,0,0,0,0,0,-1,2029,862,0,0
812,162,0,0,0,0,0,0,0,0,0,-1,2036,862,0,0
-700,155,0,0,0,0,0,0,0,0,0,-1,524,869,0,0
-693,155,0,0,0,0,0,0,0,0,0,-1,531,869,0,0
-686,155,0,0,0,0,0,0,0,0,0,-1,538,869,0,0
-679,155,0,0,0,0,0,0,0,0,0,-1,545,869,0,0
-672,155,0,0,0,0,0,0,0,0,0,-1,552,869,0,0
-665,155,-53.6993,-2.64966,0,0,0,0,0,0,0,-1,559,869,-53.6994,2.64966
-658,155,-54.6123,-3.38324,0,0,0,0,0,0,0,-1,566,869,-54.6123,3.38323
-651,155,-54.7039,-3.01721,0,0,0,0,0,0,0,-1,573,869,-54.7039,3.01722
-644,155,-39.7001,8.02875,0,0,0,0,0,0,0,-1,580,869,-39.7001,-8.02874
-637,155,-36.8124,5.15515,0,0,0,0,0,0,0,-1,587,869,-36.8125,-5.15516
-630,155,-37.709,6.16766,0,0,0,0,0,0,0,-1,594,869,-37.709,-6.16766
-623,155,-37.7534,5.39307,-0.0118946,0.000940305,-0.0178769,0.0135167,-0.024471,-0.957725,0.0222341,0.0289218,601,869,-37.7533,-5.39309
-616,155,-37.841,4.64081,-0.00718908,0.00123525,-0.0110253,0.00882561,-0.0147794,-0.967865,0.0137721,0.0155929,608,869,-37.841,-4.64078
-609,155,-37.936,3.95605,-0.00472379,0.00173564,-0.00556524,0.00494044,-0.00792859,-1.04832,0.00749641,0.0141943,615,869,-37.936,-3.95606
-602,155,-37.9828,3.32709,-0.00420569,0.00145422,-0.00107926,0.00165303,-0.00440451,-1.38862,0.00361558,0.0128944,622,869,-37.9828,-3.32709
-595,155,-38.0226,2.68109,-0.00417856,0.000790866,0.00156251,0.00124132,-0.00462902,1.29012,0.00357241,0.0135204,629,869,-38.0226,-2.68111
-588,155,-38.0019,2.06085,-0.00412316,0.000258455,0.00240852,0.0013235,-0.00518821,1.15445,0.00397413,0.0203869,636,869,-38.0019,-2.06083
-581,155,-38.3132,1.54285,-0.00396216,0.00021147,0.0020367,0.00104063,-0.00479132,1.18417,0.0035917,0.0403104,643,869,-38.3132,-1.54283
-574,155,-38.3961,0.96405,-0.00347466,0.000154483,0.00151538,0.000704026,-0.0040242,1.2229,0.00294566,0.04307,650,869,-38.396,-0.964038
-567,155,-38.0134,0.582214,0,0,0,0,0,0,0,-1,657,869,-38.0134,-0.582192
-560,155,-37.1416,-0.708008,0,0,0,0,0,0,0,-1,664,869,-37.1416,0.70801
-553,155,-36.7729,-1.71521,0,0,0,0,0,0,0,-1,671,869,-36.7729,1.71523
-546,155,-22.7988,0.873657,0,0,0,0,0,0,0,-1,678,869,-22.7988,-0.873645
-539,155,-46.8046,0.916931,0,0,0,0,0,0,0,-1,685,869,-46.8046,-0.916919
-532,155,-46.7811,0.923523,-0.0015615,0.0021567,-0.00331924,0.00410202,-0.00350682,-1.04068,0.00439744,0.0356166,692,869,-46.7811,-0.923499
-525,155,-46.781,0.913147,-0.000609837,0.00287579,-0.00440654,0.00587165,-0.0036057,-0.973711,0.00552363,0.0380531,699,869,-46.781,-0.913173
-518,155,-46.7697,0.946106,-7.79046e-05,0.00420003,-0.00489133,0.00739963,-0.00327751,-0.991518,0.00631573,0.0423661,706,869,-46.7697,-0.946114
-511,155,-46.7809,0.704895,0.000849782,0.00505353,-0.00430997,0.00774683,-0.00184352,-1.01227,0.00587625,0.0427271,713,869,-46.7809,-0.704895
-504,155,-46.8552,0.556152,0.00247555,0.00614264,-0.00340837,0.00817935,0.000438839,-1.03217,0.00531266,0.0434007,720,869,-46.8551,-0.556137
-497,155,0,0,0,0,0,0,0,0,0,-1,727,869,0,0
-490,155,0,0,0,0,0,0,0,0,0,-1,734,869,0,0
-483,155,0,0,0,0,0,0,0,0,0,-1,741,869,0,0
-476,155,0,0,0,0,0,0,0,0,0,-1,748,869,0,0
-469,155,0,0,0,0,0,0,0,0,0,-1,755,869,0,0
-462,155,0,0,0,0,0,0,0,0,0,-1,762,869,0,0
-455,155,0,0,0,0,0,0,0,0,0,-1,769,869,0,0
-448,155,0,0,0,0,0,0,0,0,0,-1,776,869,0,0
-441,155,0,0,0,0,0,0,0,0,0,-1,783,869,0,0
-434,155,0,0,0,0,0,0,0,0,0,-1,790,869,0,0
-427,155,0,0,0,0,0,0,0,0,0,-1,797,869,0,0
-420,155,0,0,0,0,0,0,0,0,0,-1,804,869,0,0
-413,155,0,0,0,0,0,0,0,0,0,-1,811,869,0,0
-406,155,0,0,0,0,0,0,0,0,0,-1,818,869,0,0
-399,155,0,0,0,0,0,0,0,0,0,-1,825,869,0,0
-392,155,0,0,0,0,0,0,0,0,0,-1,832,869,0,0
-385,155,0,0,0,0,0,0,0,0,0,-1,839,869,0,0
-378,155,0,0,0,0,0,0,0,0,0,-1,846,869,0,0
-371,155,0,0,0,0,0,0,0,0,0,-1,853,869,0,0
-364,155,0,0,0,0,0,0,0,0,0,-1,860,869,0,0
-357,155,0,0,0,0,0,0,0,0,0,-1,867,869,0,0
-350,155,0,0,0,0,0,0,0,0,0,-1,874,869,0,0
-343,155,0,0,0,0,0,0,0,0,0,-1,881,869,0,0
-336,155,0,0,0,0,0,0,0,0,0,-1,888,869,0,0
-329,155,0,0,0,0,0,0,0,0,0,-1,895,869,0,0
-322,155,0,0,0,0,0,0,0,0,0,-1,902,869,0,0
-315,155,0,0,0,0,0,0,0,0,0,-1,909,869,0,0
-308,155,0,0,0,0,0,0,0,0,0,-1,916,869,0,0
-301,155,0,0,0,0,0,0,0,0,0,-1,923,869,0,0
-294,155,0,0,0,0,0,0,0,0,0,-1,930,869,0,0
-287,155,0,0,0,0,0,0,0,0,0,-1,937,869,0,0
-280,155,0,0,0,0,0,0,0,0,0,-1,944,869,0,0
-273,155,0,0,0,0,0,0,0,0,0,-1,951,869,0,0
-266,155,0,0,0,0,0,0,0,0,0,-1,958,869,0,0
-259,155,0,0,0,0,0,0,0,0,0,-1,965,869,0,0
-252,155,0,0,0,0,0,0,0,0,0,-1,972,869,0,0
-245,155,0,0,0,0,0,0,0,0,0,-1,979,869,0,0
-238,155,0,0,0,0,0,0,0,0,0,-1,986,869,0,0
-231,155,0,0,0,0,0,0,0,0,0,-1,993,869,0,0
-224,155,0,0,0,0,0,0,0,0,0,-1,1000,869,0,0
-217,155,0,0,0,0,0,0,0,0,0,-1,1007,869,0,0
-210,155,0,0,0,0,0,0,0,0,0,-1,1014,869,0,0
-203,155,0,0,0,0,0,0,0,0,0,-1,1021,869,0,0
-196,155,0,0,0,0,0,0,0,0,0,-1,1028,869,0,0
-189,155,0,0,0,0,0,0,0,0,0,-1,1035,869,0,0
-182,155,0,0,0,0,0,0,0,0,0,-1,1042,869,0,0
-175,155,0,0,0,0,0,0,0,0,0,-1,1049,869,0,0
-168,155,0,0,0,0,0,0,0,0,0,-1,1056,869,0,0
-161,155,0,0,0,0,0,0,0,0,0,-1,1063,869,0,0
-154,155,0,0,0,0,0,0,0,0,0,-1,1070,869,0,0
-147,155,0,0,0,0,0,0,0,0,0,-1,1077,869,0,0
-140,155,0,0,0,0,0,0,0,0,0,-1,1084,869,0,0
-133,155,0,0,0,0,0,0,0,0,0,-1,1091,869,0,0
-126,155,0,0,0,0,0,0,0,0,0,-1,1098,869,0,0
-119,155,0,0,0,0,0,0,0,0,0,-1,1105,869,0,0
-112,155,0,0,0,0,0,0,0,0,0,-1,1112,869,0,0
-105,155,0,0,0,0,0,0,0,0,0,-1,1119,869,0,0
-98,155,0,0,0,0,0,0,0,0,0,-1,1126,869,0,0
-91,155,0,0,0,0,0,0,0,0,0,-1,1133,869,0,0
-84,155,0,0,0,0,0,0,0,0,0,-1,1140,869,0,0
-77,155,0,0,0,0,0,0,0,0,0,-1,1147,869,0,0
-70,155,0,0,0,0,0,0,0,0,0,-1,1154,869,0,0
-63,155,0,0,0,0,0,0,0,0,0,-1,1161,869,0,0
-56,155,0,0,0,0,0,0,0,0,0,-1,1168,869,0,0
-49,155,0,0,0,0,0,0,0,0,0,-1,1175,869,0,0
-42,155,0,0,0,0,0,0,0,0,0,-1,1182,869,0,0
-35,155,0,0,0,0,0,0,0,0,0,-1,1189,869,0,0
-28,155,0,0,0,0,0,0,0,0,0,-1,1196,869,0,0
-21,155,0,0,0,0,0,0,0,0,0,-1,1203,869,0,0
-14,155,0,0,0,0,0,0,0,0,0,-1,1210,869,0,0
-7,155,0,0,0,0,0,0,0,0,0,-1,1217,869,0,0
0,155,0,0,0,0,0,0,0,0,0,-1,1224,869,0,0
7,155,0,0,0,0,0,0,0,0,0,-1,1231,869,0,0
14,155,0,0,0,0,0,0,0,0,0,-1,1238,869,0,0
21,155,0,0,0,0,0,0,0,0,0,-1,1245,869,0,0
28,155,0,0,0,0,0,0,0,0,0,-1,1252,869,0,0
35,155,0,0,0,0,0,0,0,0,0,-1,1259,869,0,0
42,155,0,0,0,0,0,0,0,0,0,-1,1266,869,0,0
49,155,0,0,0,0,0,0,0,0,0,-1,1273,869,0,0
56,155,0,0,0,0,0,0,0,0,0,-1,1280,869,0,0
63,155,0,0,0,0,0,0,0,0,0,-1,1287,869,0,0
70,155,0,0,0,0,0,0,0,0,0,-1,1294,869,0,0
77,155,0,0,0,0,0,0,0,0,0,-1,1301,869,0,0
84,155,0,0,0,0,0,0,0,0,0,-1,1308,869,0,0
91,155,0,0,0,0,0,0,0,0,0,-1,1315,869,0,0
98,155,0,0,0,0,0,0,0,0,0,-1,1322,869,0,0
105,155,0,0,0,0,0,0,0,0,0,-1,1329,869,0,0
112,155,0,0,0,0,0,0,0,0,0,-1,1336,869,0,0
119,155,0,0,0,0,0,0,0,0,0,-1,1343,869,0,0
126,155,0,0,0,0,0,0,0,0,0,-1,1350,869,0,0
133,155,0,0,0,0,0,0,0,0,0,-1,1357,869,0,0
140,155,0,0,0,0,0,0,0,0,0,-1,1364,869,0,0
147,155,0,0,0,0,0,0,0,0,0,-1,1371,869,0,0
154,155,0,0,0,0,0,0,0,0,0,-1,1378,869,0,0
161,155,0,0,0,0,0,0,0,0,0,-1,1385,869,0,0
168,155,0,0,0,0,0,0,0,0,0,-1,1392,869,0,0
175,155,0,0,0,0,0,0,0,0,0,-1,1399,869,0,0
182,155,0,0,0,0,0,0,0,0,0,-1,1406,869,0,0
189,155,0,0,0,0,0,0,0,0,0,-1,1413,869,0,0
196,155,0,0,0,0,0,0,0,0,0,-1,1420,869,0,0
203,155,0,0,0,0,0,0,0,0,0,-1,1427,869,0,0
210,155,0,0,0,0,0,0,0,0,0,-1,1434,869,0,0
217,155,0,0,0,0,0,0,0,0,0,-1,1441,869,0,0
224,155,0,0,0,0,0,0,0,0,0,-1,1448,869,0,0
231,155,0,0,0,0,0,0,0,0,0,-1,1455,869,0,0
238,155,0,0,0,0,0,0,0,0,0,-1,1462,869,0,0
245,155,0,0,0,0,0,0,0,0,0,-1,1469,869,0,0
252,155,0,0,0,0,0,0,0,0,0,-1,1476,869,0,0
259,155,0,0,0,0,0,0,0,0,0,-1,1483,869,0,0
266,155,0,0,0,0,0,0,0,0,0,-1,1490,869,0,0
273,155,0,0,0,0,0,0,0,0,0,-1,1497,869,0,0
280,155,0,0,0,0,0,0,0,0,0,-1,1504,869,0,0
287,155,0,0,0,0,0,0,0,0,0,-1,1511,869,0,0
294,155,0,0,0,0,0,0,0,0,0,-1,1518,869,0,0
301,155,0,0,0,0,0,0,0,0,0,-1,1525,869,0,0
308,155,0,0,0,0,0,0,0,0,0,-1,1532,869,0,0
315,155,0,0,0,0,0,0,0,0,0,-1,1539,869,0,0
322,155,0,0,0,0,0,0,0,0,0,-1,1546,869,0,0
329,155,0,0,0,0,0,0,0,0,0,-1,1553,869,0,0
336,155,0,0,0,0,0,0,0,0,0,-1,1560,869,0,0
343,155,0,0,0,0,0,0,0,0,0,-1,1567,869,0,0
350,155,0,0,0,0,0,0,0,0,0,-1,1574,869,0,0
357,155,0,0,0,0,0,0,0,0,0,-1,1581,869,0,0
364,155,0,0,0,0,0,0,0,0,0,-1,1588,869,0,0
371,155,0,0,0,0,0,0,0,0,0,-1,1595,869,0,0
378,155,0,0,0,0,0,0,0,0,0,-1,1602,869,0,0
385,155,0,0,0,0,0,0,0,0,0,-1,1609,869,0,0
392,155,0,0,0,0,0,0,0,0,0,-1,1616,869,0,0
399,155,0,0,0,0,0,0,0,0,0,-1,1623,869,0,0
406,155,0,0,0,0,0,0,0,0,0,-1,1630,869,0,0
413,155,0,0,0,0,0,0,0,0,0,-1,1637,869,0,0
420,155,0,0,0,0,0,0,0,0,0,-1,1644,869,0,0
427,155,0,0,0,0,0,0,0,0,0,-1,1651,869,0,0
434,155,0,0,0,0,0,0,0,0,0,-1,1658,869,0,0
441,155,0,0,0,0,0,0,0,0,0,-1,1665,869,0,0
448,155,0,0,0,0,0,0,0,0,0,-1,1672,869,0,0
455,155,0,0,0,0,0,0,0,0,0,-1,1679,869,0,0
462,155,0,0,0,0,0,0,0,0,0,-1,1686,869,0,0
469,155,0,0,0,0,0,0,0,0,0,-1,1693,869,0,0
476,155,0,0,0,0,0,0,0,0,0,-1,1700,869,0,0
483,155,0,0,0,0,0,0,0,0,0,-1,1707,869,0,0
490,155,0,0,0,0,0,0,0,0,0,-1,1714,869,0,0
497,155,0,0,0,0,0,0,0,0,0,-1,1721,869,0,0
504,155,0,0,0,0,0,0,0,0,0,-1,1728,869,0,0
511,155,0,0,0,0,0,0,0,0,0,-1,1735,869,0,0
518,155,0,0,0,0,0,0,0,0,0,-1,1742,869,0,0
525,155,0,0,0,0,0,0,0,0,0,-1,1749,869,0,0
532,155,0,0,0,0,0,0,0,0,0,-1,1756,869,0,0
539,155,0,0,0,0,0,0,0,0,0,-1,1763,869,0,0
546,155,0,0,0,0,0,0,0,0,0,-1,1770,869,0,0
553,155,0,0,0,0,0,0,0,0,0,-1,1777,869,0,0
560,155,0,0,0,0,0,0,0,0,0,-1,1784,869,0,0
567,155,0,0,0,0,0,0,0,0,0,-1,1791,869,0,0
574,155,0,0,0,0,0,0,0,0,0,-1,1798,869,0,0
581,155,0,0,0,0,0,0,0,0,0,-1,1805,869,0,0
588,155,0,0,0,0,0,0,0,0,0,-1,1812,869,0,0
595,155,0,0,0,0,0,0,0,0,0,-1,1819,869,0,0
602,155,0,0,0,0,0,0,0,0,0,-1,1826,869,0,0
609,155,0,0,0,0,0,0,0,0,0,-1,1833,869,0,0
616,155,61.5477,2.73212,0.00251212,0.00411806,0.0025561,0.00599434,0.000635836,0.937587,0.00380205,0.0436589,1840,869,61.5477,-2.73214
623,155,61.3719,2.75,0.00203771,0.00342426,0.00177656,0.00463802,0.000823943,0.971427,0.00285725,0.0410024,1847,869,61.3719,-2.75003
630,155,61.2686,2.78918,0.00157266,0.00272978,0.00117705,0.00346277,0.000839668,1.01382,0.00208575,0.0422637,1854,869,61.2685,-2.78921
637,155,61.3855,2.68323,0.0010002,0.00227717,0.00075598,0.00262821,0.000649151,1.13607,0.00158083,0.0419768,1861,869,61.3855,-2.68321
644,155,61.4879,2.68536,0.00034713,0.00176404,0.000359276,0.00184993,0.000261238,1.33613,0.00115609,0.0366232,1868,869,61.4879,-2.68533
651,155,61.5114,2.69727,-0.000333366,0.00125583,-0.000110801,0.00126352,-0.000341054,-1.50152,0.0009761,0.0325101,1875,869,61.5113,-2.69725
658,155,61.4685,2.75482,-0.00107784,0.000726053,-0.000676916,0.000951813,-0.0013036,-1.24888,0.00130743,0.0285059,1882,869,61.4685,-2.75483
665,155,61.4421,2.79773,-0.00177786,0.000315627,-0.000831952,0.000605976,-0.00206821,-1.23501,0.00161905,0.0356629,1889,869,61.4421,-2.79773
672,155,61.4874,2.60571,0,0,0,0,0,0,0,-1,1896,869,61.4874,-2.60574
679,155,35.1565,2.78528,0,0,0,0,0,0,0,-1,1903,869,35.1565,-2.7853
686,155,43.6101,1.63361,0,0,0,0,0,0,0,-1,1910,869,43.6101,-1.63362
693,155,51.9703,1.91028,0,0,0,0,0,0,0,-1,1917,869,51.9703,-1.91027
700,155,51.4888,2.54834,0,0,0,0,0,0,0,-1,1924,869,51.4887,-2.54836
707,155,51.7815,3.18445,0,0,0,0,0,0,0,-1,1931,869,51.7815,-3.18445
714,155,51.5577,3.61401,0,0,0,0,0,0,0,-1,1938,869,51.5578,-3.614
721,155,51.4338,4.40417,-0.00186595,-0.000730383,-0.00167478,0.000470237,-0.00306657,-0.948829,0.00221781,0.0385843,1945,869,51.4338,-4.40415
728,155,51.3853,5.07959,-0.000895625,-0.000537389,-0.00156583,0.000859538,-0.00229255,-0.842346,0.00188151,0.0207379,1952,869,51.3853,-5.07956
735,155,51.3666,5.70325,0.000595624,-0.000681938,-0.00154755,0.00163105,-0.00171736,-0.589665,0.00193342,0.0163465,1959,869,51.3666,-5.70326
742,155,51.3416,6.3739,0.00249768,-0.00117714,-0.00167572,0.00314706,-0.00182652,-0.369704,0.00290504,0.0183186,1966,869,51.3415,-6.37392
749,155,51.2723,7.00513,0.00466785,-0.00221723,-0.00192627,0.00517013,-0.0027195,-0.255072,0.00462775,0.0182743,1973,869,51.2723,-7.00511
756,155,51.1899,7.70276,0.00704606,-0.00370721,-0.00231018,0.00752136,-0.00418251,-0.202909,0.00684827,0.0304098,1980,869,51.19,-7.70274
763,155,51.3649,8.53864,0.00949319,-0.00564338,-0.00287418,0.0100206,-0.00617077,-0.181471,0.00943575,0.046499,1987,869,51.3648,-8.53864
770,155,51.7939,9.91107,0,0,0,0,0,0,0,-1,1994,869,51.794,-9.91106
777,155,52.0684,11.3605,0,0,0,0,0,0,0,-1,2001,869,52.0684,-11.3605
784,155,52.4966,13.0111,0,0,0,0,0,0,0,-1,2008,869,52.4966,-13.0111
791,155,0,0,0,0,0,0,0,0,0,-1,2015,869,0,0
798,155,0,0,0,0,0,0,0,0,0,-1,2022,869,0,0
805,155,0,0,0,0,0,0,0,0,0,-1,2029,869,0,0
812,155,0,0,0,0,0,0,0,0,0,-1,2036,869,0,0
-700,148,0,0,0,0,0,0,0,0,0,-1,524,876,0,0
-693,148,0,0,0,0,0,0,0,0,0,-1,531,876,0,0
-686,148,0,0,0,0,0,0,0,0,0,-1,538,876,0,0
-679,148,0,0,0,0,0,0,0,0,0,-1,545,876,0,0
-672,148,-52.6376,-2.27618,-0.066322,-0.00470037,-0.0728909,0.0436241,-0.114646,-0.985358,0.0943945,0.0445576,552,876,-52.6376,2.27621
-665,148,-53.1895,-2.58313,-0.0571222,-0.00394506,-0.064162,0.0389193,-0.0999866,-0.981826,0.0827404,0.0481078,559,876,-53.1895,2.58314
-658,148,-53.8928,-2.75366,-0.0487153,-0.00288429,-0.0552343,0.0339994,-0.085599,-0.982031,0.0711601,0.0477353,566,876,-53.8928,2.75369
-651,148,-53.8963,-2.67444,0,0,0,0,0,0,0,-1,573,876,-53.8963,2.67444
-644,148,-53.925,-2.52972,0,0,0,0,0,0,0,-1,580,876,-53.925,2.52971
-637,148,-43.4385,2.36011,0,0,0,0,0,0,0,-1,587,876,-43.4385,-2.36011
-630,148,-38.1649,6.30249,0,0,0,0,0,0,0,-1,594,876,-38.1649,-6.30248
-623,148,-38.333,5.45148,-0.0138243,0.00171231,-0.0153298,0.0111298,-0.0232418,-1.01991,0.0202509,0.0297086,601,876,-38.333,-5.4515
-616,148,-38.488,4.65326,-0.00861434,0.00171721,-0.00874698,0.00670992,-0.0136071,-1.05213,0.0119532,0.0147224,608,876,-38.488,-4.65328
-609,148,-38.5978,3.9696,-0.00561019,0.00199321,-0.00377819,0.00355133,-0.00716831,-1.17965,0.00630533,0.013347,615,876,-38.5978,-3.96961
-602,148,-38.6656,3.33502,-0.00466424,0.00148416,8.06828e-05,0.00148522,-0.0046653,1.55768,0.00370585,0.0147161,622,876,-38.6657,-3.33502
-595,148,-38.6855,2.70306,-0.00434514,0.000739332,0.00198948,0.00142525,-0.00503106,1.23878,0.00391654,0.0135436,629,876,-38.6856,-2.70309
-588,148,-38.675,2.00397,-0.00424022,0.000234519,0.00234006,0.00123469,-0.00524039,1.16688,0.00396969,0.0290011,636,876,-38.675,-2.00395
-581,148,-38.8805,1.55078,-0.00419467,0.000228085,0.00194923,0.000964538,-0.00493112,1.20956,0.00365164,0.0459175,643,876,-38.8805,-1.55081
-574,148,-38.9582,1.30157,0,0,0,0,0,0,0,-1,650,876,-38.9582,-1.30158
-567,148,-35.6293,0.615784,0,0,0,0,0,0,0,-1,657,876,-35.6293,-0.615792
-560,148,-37.7973,-0.588135,0,0,0,0,0,0,0,-1,664,876,-37.7973,0.588143
-553,148,-18.3896,-0.00280762,0,0,0,0,0,0,0,-1,671,876,-18.3897,0.00278524
-546,148,-46.8452,0.851379,0,0,0,0,0,0,0,-1,678,876,-46.8452,-0.851351
-539,148,-46.7209,0.843872,-0.00255532,0.00103538,-0.00180412,0.00178525,-0.00330519,-1.17688,0.00298232,0.0447124,685,876,-46.721,-0.843872
-532,148,-46.7869,0.889587,-0.00188448,0.00169186,-0.00300915,0.00340406,-0.00359667,-1.05349,0.00404238,0.0333763,692,876,-46.7869,-0.88958
-525,148,-46.7236,0.966492,-0.000796507,0.00233277,-0.00406684,0.00512557,-0.00358931,-0.969035,0.00505753,0.0368355,699,876,-46.7236,-0.966475
-518,148,-46.6884,1.02966,3.96853e-06,0.00339965,-0.00436014,0.00638085,-0.00297723,-0.971066,0.00552073,0.0434359,706,876,-46.6884,-1.02966
-511,148,-46.7001,0.658691,0.00117826,0.00416926,-0.00391082,0.00686077,-0.00151325,-0.96802,0.00515287,0.0408928,713,876,-46.7002,-0.658664
-504,148,-46.6232,0.460144,0.00264233,0.0053221,-0.00325557,0.00750273,0.000461697,-0.980617,0.00485524,0.0417925,720,876,-46.6232,-0.460167
-497,148,0,0,0,0,0,0,0,0,0,-1,727,876,0,0
-490,148,0,0,0,0,0,0,0,0,0,-1,734,876,0,0
-483,148,0,0,0,0,0,0,0,0,0,-1,741,876,0,0
-476,148,0,0,0,0,0,0,0,0,0,-1,748,876,0,0
-469,148,0,0,0,0,0,0,0,0,0,-1,755,876,0,0
-462,148,0,0,0,0,0,0,0,0,0,-1,762,876,0,0
-455,148,0,0,0,0,0,0,0,0,0,-1,769,876,0,0
-448,148,0,0,0,0,0,0,0,0,0,-1,776,876,0,0
-441,148,0,0,0,0,0,0,0,0,0,-1,783,876,0,0
-434,148,0,0,0,0,0,0,0,0,0,-1,790,876,0,0
-427,148,0,0,0,0,0,0,0,0,0,-1,797,876,0,0
-420,148,0,0,0,0,0,0,0,0,0,-1,804,876,0,0
-413,148,0,0,0,0,0,0,0,0,0,-1,811,876,0,0
-406,148,0,0,0,0,0,0,0,0,0,-1,818,876,0,0
-399,148,0,0,0,0,0,0,0,0,0,-1,825,876,0,0
-392,148,0,0,0,0,0,0,0,0,0,-1,832,876,0,0
-385,148,0,0,0,0,0,0,0,0,0,-1,839,876,0,0
-378,148,0,0,0,0,0,0,0,0,0,-1,846,876,0,0
-371,148,0,0,0,0,0,0,0,0,0,-1,853,876,0,0
-364,148,0,0,0,0,0,0,0,0,0,-1,860,876,0,0
-357,148,0,0,0,0,0,0,0,0,0,-1,867,876,0,0
-350,148,0,0,0,0,0,0,0,0,0,-1,874,876,0,0
-343,148,0,0,0,0,0,0,0,0,0,-1,881,876,0,0
-336,148,0,0,0,0,0,0,0,0,0,-1,888,876,0,0
-329,148,0,0,0,0,0,0,0,0,0,-1,895,876,0,0
-322,148,0,0,0,0,0,0,0,0,0,-1,902,876,0,0
-315,148,0,0,0,0,0,0,0,0,0,-1,909,876,0,0
-308,148,0,0,0,0,0,0,0,0,0,-1,916,876,0,0
-301,148,0,0,0,0,0,0,0,0,0,-1,923,876,0,0
-294,148,0,0,0,0,0,0,0,0,0,-1,930,876,0,0
-287,148,0,0,0,0,0,0,0,0,0,-1,937,876,0,0
-280,148,0,0,0,0,0,0,0,0,0,-1,944,876,0,0
-273,148,0,0,0,0,0,0,0,0,0,-1,951,876,0,0
-266,148,0,0,0,0,0,0,0,0,0,-1,958,876,0,0
-259,148,0,0,0,0,0,0,0,0,0,-1,965,876,0,0
-252,148,0,0,0,0,0,0,0,0,0,-1,972,876,0,0
-245,148,0,0,0,0,0,0,0,0,0,-1,979,876,0,0
-238,148,0,0,0,0,0,0,0,0,0,-1,986,876,0,0
-231,148,0,0,0,0,0,0,0,0,0,-1,993,876,0,0
-224,148,0,0,0,0,0,0,0,0,0,-1,1000,876,0,0
-217,148,0,0,0,0,0,0,0,0,0,-1,1007,876,0,0
-210,148,0,0,0,0,0,0,0,0,0,-1,1014,876,0,0
-203,148,0,0,0,0,0,0,0,0,0,-1,1021,876,0,0
-196,148,0,0,0,0,0,0,0,0,0,-1,1028,876,0,0
-189,148,0,0,0,0,0,0,0,0,0,-1,1035,876,0,0
-182,148,0,0,0,0,0,0,0,0,0,-1,1042,876,0,0
-175,148,0,0,0,0,0,0,0,0,0,-1,1049,876,0,0
-168,148,0,0,0,0,0,0,0,0,0,-1,1056,876,0,0
-161,148,0,0,0,0,0,0,0,0,0,-1,1063,876,0,0
-154,148,0,0,0,0,0,0,0,0,0,-1,1070,876,0,0
-147,148,0,0,0,0,0,0,0,0,0,-1,1077,876,0,0
-140,148,0,0,0,0,0,0,0,0,0,-1,1084,876,0,0
-133,148,0,0,0,0,0,0,0,0,0,-1,1091,876,0,0
-126,148,0,0,0,0,0,0,0,0,0,-1,1098,876,0,0
-119,148,0,0,0,0,0,0,0,0,0,-1,1105,876,0,0
-112,148,0,0,0,0,0,0,0,0,0,-1,1112,876,0,0
-105,148,0,0,0,0,0,0,0,0,0,-1,1119,876,0,0
-98,148,0,0,0,0,0,0,0,0,0,-1,1126,876,0,0
-91,148,0,0,0,0,0,0,0,0,0,-1,1133,876,0,0
-84,148,0,0,0,0,0,0,0,0,0,-1,1140,876,0,0
-77,148,0,0,0,0,0,0,0,0,0,-1,1147,876,0,0
-70,148,0,0,0,0,0,0,0,0,0,-1,1154,876,0,0
-63,148,0,0,0,0,0,0,0,0,0,-1,1161,876,0,0
-56,148,0,0,0,0,0,0,0,0,0,-1,1168,876,0,0
-49,148,0,0,0,0,0,0,0,0,0,-1,1175,876,0,0
-42,148,0,0,0,0,0,0,0,0,0,-1,1182,876,0,0
-35,148,0,0,0,0,0,0,0,0,0,-1,1189,876,0,0
-28,148,0,0,0,0,0,0,0,0,0,-1,1196,876,0,0
-21,148,0,0,0,0,0,0,0,0,0,-1,1203,876,0,0
-14,148,0,0,0,0,0,0,0,0,0,-1,1210,876,0,0
-7,148,0,0,0,0,0,0,0,0,0,-1,1217,876,0,0
0,148,0,0,0,0,0,0,0,0,0,-1,1224,876,0,0
7,148,0,0,0,0,0,0,0,0,0,-1,1231,876,0,0
14,148,0,0,0,0,0,0,0,0,0,-1,1238,876,0,0
21,148,0,0,0,0,0,0,0,0,0,-1,1245,876,0,0
28,148,0,0,0,0,0,0,0,0,0,-1,1252,876,0,0
35,148,0,0,0,0,0,0,0,0,0,-1,1259,876,0,0
42,148,0,0,0,0,0,0,0,0,0,-1,1266,876,0,0
49,148,0,0,0,0,0,0,0,0,0,-1,1273,876,0,0
56,148,0,0,0,0,0,0,0,0,0,-1,1280,876,0,0
63,148,0,0,0,0,0,0,0,0,0,-1,1287,876,0,0
70,148,0,0,0,0,0,0,0,0,0,-1,1294,876,0,0
77,148,0,0,0,0,0,0,0,0,0,-1,1301,876,0,0
84,148,0,0,0,0,0,0,0,0,0,-1,1308,876,0,0
91,148,0,0,0,0,0,0,0,0,0,-1,1315,876,0,0
98,148,0,0,0,0,0,0,0,0,0,-1,1322,876,0,0
105,148,0,0,0,0,0,0,0,0,0,-1,1329,876,0,0
112,148,0,0,0,0,0,0,0,0,0,-1,1336,876,0,0
119,148,0,0,0,0,0,0,0,0,0,-1,1343,876,0,0
126,148,0,0,0,0,0,0,0,0,0,-1,1350,876,0,0
133,148,0,0,0,0,0,0,0,0,0,-1,1357,876,0,0
140,148,0,0,0,0,0,0,0,0,0,-1,1364,876,0,0
147,148,0,0,0,0,0,0,0,0,0,-1,1371,876,0,0
154,148,0,0,0,0,0,0,0,0,0,-1,1378,876,0,0
161,148,0,0,0,0,0,0,0,0,0,-1,1385,876,0,0
168,148,0,0,0,0,0,0,0,0,0,-1,1392,876,0,0
175,148,0,0,0,0,0,0,0,0,0,-1,1399,876,0,0
182,148,0,0,0,0,0,0,0,0,0,-1,1406,876,0,0
189,148,0,0,0,0,0,0,0,0,0,-1,1413,876,0,0
196,148,0,0,0,0,0,0,0,0,0,-1,1420,876,0,0
203,148,0,0,0,0,0,0,0,0,0,-1,1427,876,0,0
210,148,0,0,0,0,0,0,0,0,0,-1,1434,876,0,0
217,148,0,0,0,0,0,0,0,0,0,-1,1441,876,0,0
224,148,0,0,0,0,0,0,0,0,0,-1,1448,876,0,0
231,148,0,0,0,0,0,0,0,0,0,-1,1455,876,0,0
238,148,0,0,0,0,0,0,0,0,0,-1,1462,876,0,0
245,148,0,0,0,0,0,0,0,0,0,-1,1469,876,0,0
252,148,0,0,0,0,0,0,0,0,0,-1,1476,876,0,0
259,148,0,0,0,0,0,0,0,0,0,-1,1483,876,0,0
266,148,0,0,0,0,0,0,0,0,0,-1,1490,876,0,0
273,148,0,0,0,0,0,0,0,0,0,-1,1497,876,0,0
280,148,0,0,0,0,0,0,0,0,0,-1,1504,876,0,0
287,148,0,0,0,0,0,0,0,0,0,-1,1511,876,0,0
294,148,0,0,0,0,0,0,0,0,0,-1,1518,876,0,0
301,148,0,0,0,0,0,0,0,0,0,-1,1525,876,0,0
308,148,0,0,0,0,0,0,0,0,0,-1,1532,876,0,0
315,148,0,0,0,0,0,0,0,0,0,-1,1539,876,0,0
322,148,0,0,0,0,0,0,0,0,0,-1,1546,876,0,0
329,148,0,0,0,0,0,0,0,0,0,-1,1553,876,0,0
336,148,0,0,0,0,0,0,0,0,0,-1,1560,876,0,0
343,148,0,0,0,0,0,0,0,0,0,-1,1567,876,0,0
350,148,0,0,0,0,0,0,0,0,0,-1,1574,876,0,0
357,148,0,0,0,0,0,0,0,0,0,-1,1581,876,0,0
364,148,0,0,0,0,0,0,0,0,0,-1,1588,876,0,0
371,148,0,0,0,0,0,0,0,0,0,-1,1595,876,0,0
378,148,0,0,0,0,0,0,0,0,0,-1,1602,876,0,0
385,148,0,0,0,0,0,0,0,0,0,-1,1609,876,0,0
392,148,0,0,0,0,0,0,0,0,0,-1,1616,876,0,0
399,148,0,0,0,0,0,0,0,0,0,-1,1623,876,0,0
406,148,0,0,0,0,0,0,0,0,0,-1,1630,876,0,0
413,148,0,0,0,0,0,0,0,0,0,-1,1637,876,0,0
420,148,0,0,0,0,0,0,0,0,0,-1,1644,876,0,0
427,148,0,0,0,0,0,0,0,0,0,-1,1651,876,0,0
434,148,0,0,0,0,0,0,0,0,0,-1,1658,876,0,0
441,148,0,0,0,0,0,0,0,0,0,-1,1665,876,0,0
448,148,0,0,0,0,0,0,0,0,0,-1,1672,876,0,0
455,148,0,0,0,0,0,0,0,0,0,-1,1679,876,0,0
462,148,0,0,0,0,0,0,0,0,0,-1,1686,876,0,0
469,148,0,0,0,0,0,0,0,0,0,-1,1693,876,0,0
476,148,0,0,0,0,0,0,0,0,0,-1,1700,876,0,0
483,148,0,0,0,0,0,0,0,0,0,-1,1707,876,0,0
490,148,0,0,0,0,0,0,0,0,0,-1,1714,876,0,0
497,148,0,0,0,0,0,0,0,0,0,-1,1721,876,0,0
504,148,0,0,0,0,0,0,0,0,0,-1,1728,876,0,0
511,148,0,0,0,0,0,0,0,0,0,-1,1735,876,0,0
518,148,0,0,0,0,0,0,0,0,0,-1,1742,876,0,0
525,148,0,0,0,0,0,0,0,0,0,-1,1749,876,0,0
532,148,0,0,0,0,0,0,0,0,0,-1,1756,876,0,0
539,148,0,0,0,0,0,0,0,0,0,-1,1763,876,0,0
546,148,0,0,0,0,0,0,0,0,0,-1,1770,876,0,0
553,148,0,0,0,0,0,0,0,0,0,-1,1777,876,0,0
560,148,0,0,0,0,0,0,0,0,0,-1,1784,876,0,0
567,148,0,0,0,0,0,0,0,0,0,-1,1791,876,0,0
574,148,0,0,0,0,0,0,0,0,0,-1,1798,876,0,0
581,148,0,0,0,0,0,0,0,0,0,-1,1805,876,0,0
588,148,0,0,0,0,0,0,0,0,0,-1,1812,876,0,0
595,148,0,0,0,0,0,0,0,0,0,-1,1819,876,0,0
602,148,0,0,0,0,0,0,0,0,0,-1,1826,876,0,0
609,148,0,0,0,0,0,0,0,0,0,-1,1833,876,0,0
616,148,0,0,0,0,0,0,0,0,0,-1,1840,876,0,0
623,148,61.2963,2.78699,0.00176447,0.0044573,0.0017084,0.00528608,0.000935693,1.11912,0.00325727,0.0389587,1847,876,61.2963,-2.78698
630,148,61.2604,2.7309,0.00139844,0.00366235,0.00116128,0.00415209,0.000908696,1.1717,0.00252037,0.04244,1854,876,61.2603,-2.73088
637,148,61.4225,2.76624,0.000927355,0.00308751,0.000751763,0.00332338,0.000691486,1.26677,0.00202484,0.0399229,1861,876,61.4224,-2.76623
644,148,61.5178,2.71997,0.000370952,0.0024731,0.000378732,0.00253925,0.0003048,1.39787,0.00160093,0.0366979,1868,876,61.5178,-2.72
651,148,61.5084,2.61682,-0.000272925,0.00188387,-6.59037e-05,0.00188588,-0.000274937,-1.54028,0.00135821,0.0373275,1875,876,61.5084,-2.6168
658,148,61.4536,2.81,-0.00103682,0.00129831,-0.000632987,0.00145886,-0.00119737,-1.3224,0.00153605,0.034323,1882,876,61.4536,-2.81003
665,148,61.3821,2.93048,-0.00174698,0.000769552,-0.00077058,0.000986762,-0.00196419,-1.29605,0.0017346,0.0268894,1889,876,61.3821,-2.93045
672,148,61.4277,2.7879,-0.00196158,0.000420106,-0.00106259,0.000825258,-0.00236673,-1.20652,0.00191319,0.0401353,1896,876,61.4277,-2.78788
679,148,61.1028,3.11432,0,0,0,0,0,0,0,-1,1903,876,61.1027,-3.11431
686,148,21.6195,2.40845,0,0,0,0,0,0,0,-1,1910,876,21.6196,-2.40846
693,148,48.1387,1.97351,0,0,0,0,0,0,0,-1,1917,876,48.1387,-1.97351
700,148,52.533,2.97467,0,0,0,0,0,0,0,-1,1924,876,52.5329,-2.97466
707,148,52.5479,3.40887,0,0,0,0,0,0,0,-1,1931,876,52.5479,-3.40885
714,148,52.4421,3.89026,-0.00244589,-0.000638642,-0.00149582,0.000205308,-0.00328984,-1.05711,0.00226476,0.0377751,1938,876,52.4422,-3.89028
721,148,52.1251,4.48401,-0.00191956,-0.000322985,-0.00147573,0.000556539,-0.00279908,-1.03333,0.00207658,0.0286937,1945,876,52.1251,-4.48402
728,148,52.097,5.10004,-0.00122699,0.000178065,-0.00127668,0.000932747,-0.00198168,-1.03693,0.00171859,0.021045,1952,876,52.097,-5.10004
735,148,52.064,5.73926,-4.11644e-05,0.000743398,-0.00101495,0.00143924,-0.000737007,-0.969806,0.00127808,0.0199539,1959,876,52.064,-5.73927
742,148,52.0074,6.39056,0.00175121,0.00131225,-0.00085632,0.00241573,0.000647731,-0.659944,0.00144385,0.0210832,1966,876,52.0074,-6.39056
749,148,51.9042,7.01141,0.00411746,0.00148788,-0.000840482,0.00436314,0.0012422,-0.284391,0.00259574,0.0212191,1973,876,51.9042,-7.0114
756,148,51.8239,7.74475,0.00691561,0.00140699,-0.000944951,0.0070732,0.0012494,-0.165249,0.0043591,0.026304,1980,876,51.8239,-7.74473
763,148,52.2577,8.73907,0.0103118,0.000804721,-0.0014122,0.0105172,0.000599386,-0.144389,0.00682044,0.0427633,1987,876,52.2577,-8.73909
770,148,52.7185,9.71075,0,0,0,0,0,0,0,-1,1994,876,52.7185,-9.71074
777,148,53.3291,10.9301,0,0,0,0,0,0,0,-1,2001,876,53.3291,-10.9301
784,148,54.1077,12.4875,0,0,0,0,0,0,0,-1,2008,876,54.1078,-12.4875
791,148,47.6521,12.6907,0,0,0,0,0,0,0,-1,2015,876,47.6521,-12.6908
798,148,0,0,0,0,0,0,0,0,0,-1,2022,876,0,0
805,148,0,0,0,0,0,0,0,0,0,-1,2029,876,0,0
812,148,0,0,0,0,0,0,0,0,0,-1,2036,876,0,0
-700,141,0,0,0,0,0,0,0,0,0,-1,524,883,0,0
-693,141,0,0,0,0,0,0,0,0,0,-1,531,883,0,0
-686,141,0,0,0,0,0,0,0,0,0,-1,538,883,0,0
-679,141,0,0,0,0,0,0,0,0,0,-1,545,883,0,0
-672,141,-52.124,-2.1958,-0.0674146,-0.00121739,-0.0700133,0.0431268,-0.111759,-1.0062,0.0923032,0.0435533,552,883,-52.124,2.19579
-665,141,-52.6919,-2.4104,-0.0586969,-0.000662166,-0.0602422,0.037187,-0.0965461,-1.00984,0.0797058,0.0477047,559,883,-52.6919,2.41043
-658,141,-53.1157,-2.52435,-0.0503694,9.35678e-05,-0.0509362,0.0317051,-0.0819809,-1.01536,0.0677423,0.049995,566,883,-53.1157,2.52438
-651,141,-53.3561,-2.5918,0,0,0,0,0,0,0,-1,573,883,-53.3561,2.59177
-644,141,-46.86,-2.52283,0,0,0,0,0,0,0,-1,580,883,-46.86,2.52281
-637,141,-38.8842,6.77856,0,0,0,0,0,0,0,-1,587,883,-38.8842,-6.77857
-630,141,-38.6823,6.25751,0,0,0,0,0,0,0,-1,594,883,-38.6822,-6.2575
-623,141,-38.9246,5.37201,-0.0149337,0.00294435,-0.012229,0.0091531,-0.0211424,-1.101,0.0179419,0.0335295,601,883,-38.9246,-5.37203
-616,141,-39.163,4.60345,-0.00951193,0.00253411,-0.00615206,0.00512065,-0.0120985,-1.1728,0.0102099,0.0139769,608,883,-39.163,-4.60347
-609,141,-39.2607,3.96429,-0.00626777,0.00237947,-0.00197308,0.0028084,-0.0066967,-1.35674,0.00563875,0.0143029,615,883,-39.2607,-3.96427
-602,141,-39.3092,3.34601,-0.00513675,0.00150271,0.000950018,0.00163597,-0.00527001,1.43143,0.00416712,0.0152273,622,883,-39.3092,-3.34602
-595,141,-39.2831,2.70532,-0.00475701,0.000674817,0.00212082,0.00140478,-0.00548697,1.23931,0.00420519,0.01684,629,883,-39.2831,-2.70529
-588,141,-39.6599,2.0498,-0.00467817,0.000189669,0.00213764,0.00099511,-0.00548361,1.21046,0.00402862,0.0342214,636,883,-39.6599,-2.04981
-581,141,-39.6036,1.4491,-0.00465029,0.000162311,0.0018015,0.000761952,-0.00524993,1.24947,0.00377962,0.0455051,643,883,-39.6036,-1.44912
-574,141,-39.2062,0.980774,0,0,0,0,0,0,0,-1,650,883,-39.2062,-0.98077
-567,141,-30.5335,0.480103,0,0,0,0,0,0,0,-1,657,883,-30.5335,-0.480081
-560,141,-30.5542,0.23175,0,0,0,0,0,0,0,-1,664,883,-30.5542,-0.231742
-553,141,-32.0876,1.39459,0,0,0,0,0,0,0,-1,671,883,-32.0876,-1.3946
-546,141,-46.6829,1.0528,0,0,0,0,0,0,0,-1,678,883,-46.6829,-1.05277
-539,141,-46.7315,0.973389,-0.00286562,0.000329327,-0.00161716,0.00100498,-0.00354127,-1.17504,0.00275758,0.0303938,685,883,-46.7315,-0.973401
-532,141,-46.7941,0.88324,-0.00200354,0.0009073,-0.00278991,0.0025986,-0.00369484,-1.02582,0.00365185,0.0291889,692,883,-46.7942,-0.883249
-525,141,-46.7233,0.891663,-0.000719636,0.00128987,-0.00371724,0.00413575,-0.00356552,-0.917392,0.00445039,0.0380976,699,883,-46.7233,-0.89165
-518,141,-46.7053,0.934265,0.000206198,0.00174129,-0.00385177,0.00490124,-0.00295376,-0.883745,0.00458131,0.042918,706,883,-46.7052,-0.934239
-511,141,-46.7205,0.949768,0.00130311,0.00214107,-0.00361125,0.00535756,-0.00191339,-0.84315,0.00435204,0.0382222,713,883,-46.7205,-0.949741
-504,141,-46.624,0.751587,0.00250221,0.00305964,-0.00323089,0.00602381,-0.000461962,-0.828425,0.00417838,0.0390401,720,883,-46.624,-0.7516
-497,141,0,0,0,0,0,0,0,0,0,-1,727,883,0,0
-490,141,0,0,0,0,0,0,0,0,0,-1,734,883,0,0
-483,141,0,0,0,0,0,0,0,0,0,-1,741,883,0,0
-476,141,0,0,0,0,0,0,0,0,0,-1,748,883,0,0
-469,141,0,0,0,0,0,0,0,0,0,-1,755,883,0,0
-462,141,0,0,0,0,0,0,0,0,0,-1,762,883,0,0
-455,141,0,0,0,0,0,0,0,0,0,-1,769,883,0,0
-448,141,0,0,0,0,0,0,0,0,0,-1,776,883,0,0
-441,141,0,0,0,0,0,0,0,0,0,-1,783,883,0,0
-434,141,0,0,0,0,0,0,0,0,0,-1,790,883,0,0
-427,141,0,0,0,0,0,0,0,0,0,-1,797,883,0,0
-420,141,0,0,0,0,0,0,0,0,0,-1,804,883,0,0
-413,141,0,0,0,0,0,0,0,0,0,-1,811,883,0,0
-406,141,0,0,0,0,0,0,0,0,0,-1,818,883,0,0
-399,141,0,0,0,0,0,0,0,0,0,-1,825,883,0,0
-392,141,0,0,0,0,0,0,0,0,0,-1,832,883,0,0
-385,141,0,0,0,0,0,0,0,0,0,-1,839,883,0,0
-378,141,0,0,0,0,0,0,0,0,0,-1,846,883,0,0
-371,141,0,0,0,0,0,0,0,0,0,-1,853,883,0,0
-364,141,0,0,0,0,0,0,0,0,0,-1,860,883,0,0
-357,141,0,0,0,0,0,0,0,0,0,-1,867,883,0,0
-350,141,0,0,0,0,0,0,0,0,0,-1,874,883,0,0
-343,141,0,0,0,0,0,0,0,0,0,-1,881,883,0,0
-336,141,0,0,0,0,0,0,0,0,0,-1,888,883,0,0
-329,141,0,0,0,0,0,0,0,0,0,-1,895,883,0,0
-322,141,0,0,0,0,0,0,0,0,0,-1,902,883,0,0
-315,141,0,0,0,0,0,0,0,0,0,-1,909,883,0,0
-308,141,0,0,0,0,0,0,0,0,0,-1,916,883,0,0
-301,141,0,0,0,0,0,0,0,0,0,-1,923,883,0,0
-294,141,0,0,0,0,0,0,0,0,0,-1,930,883,0,0
-287,141,0,0,0,0,0,0,0,0,0,-1,937,883,0,0
-280,141,0,0,0,0,0,0,0,0,0,-1,944,883,0,0
-273,141,0,0,0,0,0,0,0,0,0,-1,951,883,0,0
-266,141,0,0,0,0,0,0,0,0,0,-1,958,883,0,0
-259,141,0,0,0,0,0,0,0,0,0,-1,965,883,0,0
-252,141,0,0,0,0,0,0,0,0,0,-1,972,883,0,0
-245,141,0,0,0,0,0,0,0,0,0,-1,979,883,0,0
-238,141,0,0,0,0,0,0,0,0,0,-1,986,883,0,0
-231,141,0,0,0,0,0,0,0,0,0,-1,993,883,0,0
-224,141,0,0,0,0,0,0,0,0,0,-1,1000,883,0,0
-217,141,0,0,0,0,0,0,0,0,0,-1,1007,883,0,0
-210,141,0,0,0,0,0,0,0,0,0,-1,1014,883,0,0
-203,141,0,0,0,0,0,0,0,0,0,-1,1021,883,0,0
-196,141,0,0,0,0,0,0,0,0,0,-1,1028,883,0,0
-189,141,0,0,0,0,0,0,0,0,0,-1,1035,883,0,0
-182,141,0,0,0,0,0,0,0,0,0,-1,1042,883,0,0
-175,141,0,0,0,0,0,0,0,0,0,-1,1049,883,0,0
-168,141,0,0,0,0,0,0,0,0,0,-1,1056,883,0,0
-161,141,0,0,0,0,0,0,0,0,0,-1,1063,883,0,0
-154,141,0,0,0,0,0,0,0,0,0,-1,1070,883,0,0
-147,141,0,0,0,0,0,0,0,0,0,-1,1077,883,0,0
-140,141,0,0,0,0,0,0,0,0,0,-1,1084,883,0,0
-133,141,0,0,0,0,0,0,0,0,0,-1,1091,883,0,0
-126,141,0,0,0,0,0,0,0,0,0,-1,1098,883,0,0
-119,141,0,0,0,0,0,0,0,0,0,-1,1105,883,0,0
-112,141,0,0,0,0,0,0,0,0,0,-1,1112,883,0,0
-105,141,0,0,0,0,0,0,0,0,0,-1,1119,883,0,0
-98,141,0,0,0,0,0,0,0,0,0,-1,1126,883,0,0
-91,141,0,0,0,0,0,0,0,0,0,-1,1133,883,0,0
-84,141,0,0,0,0,0,0,0,0,0,-1,1140,883,0,0
-77,141,0,0,0,0,0,0,0,0,0,-1,1147,883,0,0
-70,141,0,0,0,0,0,0,0,0,0,-1,1154,883,0,0
-63,141,0,0,0,0,0,0,0,0,0,-1,1161,883,0,0
-56,141,0,0,0,0,0,0,0,0,0,-1,1168,883,0,0
-49,141,0,0,0,0,0,0,0,0,0,-1,1175,883,0,0
-42,141,0,0,0,0,0,0,0,0,0,-1,1182,883,0,0
-35,141,0,0,0,0,0,0,0,0,0,-1,1189,883,0,0
-28,141,0,0,0,0,0,0,0,0,0,-1,1196,883,0,0
-21,141,0,0,0,0,0,0,0,0,0,-1,1203,883,0,0
-14,141,0,0,0,0,0,0,0,0,0,-1,1210,883,0,0
-7,141,0,0,0,0,0,0,0,0,0,-1,1217,883,0,0
0,141,0,0,0,0,0,0,0,0,0,-1,1224,883,0,0
7,141,0,0,0,0,0,0,0,0,0,-1,1231,883,0,0
14,141,0,0,0,0,0,0,0,0,0,-1,1238,883,0,0
21,141,0,0,0,0,0,0,0,0,0,-1,1245,883,0,0
28,141,0,0,0,0,0,0,0,0,0,-1,1252,883,0,0
35,141,0,0,0,0,0,0,0,0,0,-1,1259,883,0,0
42,141,0,0,0,0,0,0,0,0,0,-1,1266,883,0,0
49,141,0,0,0,0,0,0,0,0,0,-1,1273,883,0,0
56,141,0,0,0,0,0,0,0,0,0,-1,1280,883,0,0
63,141,0,0,0,0,0,0,0,0,0,-1,1287,883,0,0
70,141,0,0,0,0,0,0,0,0,0,-1,1294,883,0,0
77,141,0,0,0,0,0,0,0,0,0,-1,1301,883,0,0
84,141,0,0,0,0,0,0,0,0,0,-1,1308,883,0,0
91,141,0,0,0,0,0,0,0,0,0,-1,1315,883,0,0
98,141,0,0,0,0,0,0,0,0,0,-1,1322,883,0,0
105,141,0,0,0,0,0,0,0,0,0,-1,1329,883,0,0
112,141,0,0,0,0,0,0,0,0,0,-1,1336,883,0,0
119,141,0,0,0,0,0,0,0,0,0,-1,1343,883,0,0
126,141,0,0,0,0,0,0,0,0,0,-1,1350,883,0,0
133,141,0,0,0,0,0,0,0,0,0,-1,1357,883,0,0
140,141,0,0,0,0,0,0,0,0,0,-1,1364,883,0,0
147,141,0,0,0,0,0,0,0,0,0,-1,1371,883,0,0
154,141,0,0,0,0,0,0,0,0,0,-1,1378,883,0,0
161,141,0,0,0,0,0,0,0,0,0,-1,1385,883,0,0
168,141,0,0,0,0,0,0,0,0,0,-1,1392,883,0,0
175,141,0,0,0,0,0,0,0,0,0,-1,1399,883,0,0
182,141,0,0,0,0,0,0,0,0,0,-1,1406,883,0,0
189,141,0,0,0,0,0,0,0,0,0,-1,1413,883,0,0
196,141,0,0,0,0,0,0,0,0,0,-1,1420,883,0,0
203,141,0,0,0,0,0,0,0,0,0,-1,1427,883,0,0
210,141,0,0,0,0,0,0,0,0,0,-1,1434,883,0,0
217,141,0,0,0,0,0,0,0,0,0,-1,1441,883,0,0
224,141,0,0,0,0,0,0,0,0,0,-1,1448,883,0,0
231,141,0,0,0,0,0,0,0,0,0,-1,1455,883,0,0
238,141,0,0,0,0,0,0,0,0,0,-1,1462,883,0,0
245,141,0,0,0,0,0,0,0,0,0,-1,1469,883,0,0
252,141,0,0,0,0,0,0,0,0,0,-1,1476,883,0,0
259,141,0,0,0,0,0,0,0,0,0,-1,1483,883,0,0
266,141,0,0,0,0,0,0,0,0,0,-1,1490,883,0,0
273,141,0,0,0,0,0,0,0,0,0,-1,1497,883,0,0
280,141,0,0,0,0,0,0,0,0,0,-1,1504,883,0,0
287,141,0,0,0,0,0,0,0,0,0,-1,1511,883,0,0
294,141,0,0,0,0,0,0,0,0,0,-1,1518,883,0,0
301,141,0,0,0,0,0,0,0,0,0,-1,1525,883,0,0
308,141,0,0,0,0,0,0,0,0,0,-1,1532,883,0,0
315,141,0,0,0,0,0,0,0,0,0,-1,1539,883,0,0
322,141,0,0,0,0,0,0,0,0,0,-1,1546,883,0,0
329,141,0,0,0,0,0,0,0,0,0,-1,1553,883,0,0
336,141,0,0,0,0,0,0,0,0,0,-1,1560,883,0,0
343,141,0,0,0,0,0,0,0,0,0,-1,1567,883,0,0
350,141,0,0,0,0,0,0,0,0,0,-1,1574,883,0,0
357,141,0,0,0,0,0,0,0,0,0,-1,1581,883,0,0
364,141,0,0,0,0,0,0,0,0,0,-1,1588,883,0,0
371,141,0,0,0,0,0,0,0,0,0,-1,1595,883,0,0
378,141,0,0,0,0,0,0,0,0,0,-1,1602,883,0,0
385,141,0,0,0,0,0,0,0,0,0,-1,1609,883,0,0
392,141,0,0,0,0,0,0,0,0,0,-1,1616,883,0,0
399,141,0,0,0,0,0,0,0,0,0,-1,1623,883,0,0
406,141,0,0,0,0,0,0,0,0,0,-1,1630,883,0,0
413,141,0,0,0,0,0,0,0,0,0,-1,1637,883,0,0
420,141,0,0,0,0,0,0,0,0,0,-1,1644,883,0,0
427,141,0,0,0,0,0,0,0,0,0,-1,1651,883,0,0
434,141,0,0,0,0,0,0,0,0,0,-1,1658,883,0,0
441,141,0,0,0,0,0,0,0,0,0,-1,1665,883,0,0
448,141,0,0,0,0,0,0,0,0,0,-1,1672,883,0,0
455,141,0,0,0,0,0,0,0,0,0,-1,1679,883,0,0
462,141,0,0,0,0,0,0,0,0,0,-1,1686,883,0,0
469,141,0,0,0,0,0,0,0,0,0,-1,1693,883,0,0
476,141,0,0,0,0,0,0,0,0,0,-1,1700,883,0,0
483,141,0,0,0,0,0,0,0,0,0,-1,1707,883,0,0
490,141,0,0,0,0,0,0,0,0,0,-1,1714,883,0,0
497,141,0,0,0,0,0,0,0,0,0,-1,1721,883,0,0
504,141,0,0,0,0,0,0,0,0,0,-1,1728,883,0,0
511,141,0,0,0,0,0,0,0,0,0,-1,1735,883,0,0
518,141,0,0,0,0,0,0,0,0,0,-1,1742,883,0,0
525,141,0,0,0,0,0,0,0,0,0,-1,1749,883,0,0
532,141,0,0,0,0,0,0,0,0,0,-1,1756,883,0,0
539,141,0,0,0,0,0,0,0,0,0,-1,1763,883,0,0
546,141,0,0,0,0,0,0,0,0,0,-1,1770,883,0,0
553,141,0,0,0,0,0,0,0,0,0,-1,1777,883,0,0
560,141,0,0,0,0,0,0,0,0,0,-1,1784,883,0,0
567,141,0,0,0,0,0,0,0,0,0,-1,1791,883,0,0
574,141,0,0,0,0,0,0,0,0,0,-1,1798,883,0,0
581,141,0,0,0,0,0,0,0,0,0,-1,1805,883,0,0
588,141,0,0,0,0,0,0,0,0,0,-1,1812,883,0,0
595,141,0,0,0,0,0,0,0,0,0,-1,1819,883,0,0
602,141,0,0,0,0,0,0,0,0,0,-1,1826,883,0,0
609,141,0,0,0,0,0,0,0,0,0,-1,1833,883,0,0
616,141,0,0,0,0,0,0,0,0,0,-1,1840,883,0,0
623,141,61.2821,2.87219,0.00130004,0.00509164,0.00167847,0.0057279,0.000663782,1.20846,0.0036177,0.0425958,1847,883,61.2821,-2.87221
630,141,61.3613,2.86987,0.00108402,0.00432111,0.0011651,0.00469684,0.000708287,1.25884,0.00292387,0.0471493,1854,883,61.3613,-2.86985
637,141,61.4186,2.95288,0.000722833,0.00377272,0.000778666,0.00396002,0.000535535,1.33474,0.00248084,0.0455457,1861,883,61.4185,-2.95287
644,141,61.4073,2.8941,0.000274543,0.00316499,0.000454582,0.00323479,0.000204736,1.41842,0.00209163,0.0397689,1868,883,61.4074,-2.89409
651,141,61.4923,2.83618,-0.00029618,0.00255281,8.13894e-05,0.00255513,-0.000298503,1.54226,0.00181114,0.0389643,1875,883,61.4923,-2.8362
658,141,61.4814,2.85138,-0.00102466,0.00193923,-0.000422026,0.00199815,-0.00108358,-1.43208,0.00180517,0.0377832,1882,883,61.4815,-2.85135
665,141,61.4106,2.8783,-0.00170401,0.00129035,-0.000529403,0.00138119,-0.00179486,-1.40086,0.00183887,0.0300339,1889,883,61.4107,-2.8783
672,141,61.4067,2.84662,-0.00194501,0.000826198,-0.000790792,0.00103598,-0.00215479,-1.31149,0.00187956,0.0259059,1896,883,61.4067,-2.84662
679,141,61.3186,2.8642,-0.00210517,0.00046479,-0.00093201,0.000767203,-0.00240759,-1.25704,0.00191278,0.0471365,1903,883,61.3186,-2.8642
686,141,61.2332,2.86896,0,0,0,0,0,0,0,-1,1910,883,61.2332,-2.86893
693,141,51.7202,1.76593,0,0,0,0,0,0,0,-1,1917,883,51.7202,-1.76595
700,141,51.7233,2.5777,0,0,0,0,0,0,0,-1,1924,883,51.7232,-2.57769
707,141,53.0952,3.33063,0,0,0,0,0,0,0,-1,1931,883,53.0952,-3.33063
714,141,52.7297,3.89868,-0.00246453,-0.000333446,-0.00123731,0.000233901,-0.00303188,-1.14087,0.00210356,0.0353893,1938,883,52.7298,-3.8987
721,141,52.722,4.48346,-0.00203714,-3.29167e-05,-0.00129017,0.00059861,-0.00266867,-1.11559,0.0020086,0.019611,1945,883,52.7221,-4.48346
728,141,52.7964,5.06604,-0.00157715,0.000564768,-0.00111685,0.00104116,-0.00205355,-1.16761,0.00181832,0.0161921,1952,883,52.7964,-5.06604
735,141,52.7449,5.78619,-0.000654704,0.00152806,-0.000809866,0.00179572,-0.000922364,-1.2516,0.00159606,0.019023,1959,883,52.7448,-5.78617
742,141,52.6678,6.4093,0.00104569,0.00284683,-0.000609342,0.0030336,0.00085891,-1.27337,0.00180553,0.0196132,1966,883,52.6678,-6.4093
749,141,52.6304,7.00256,0.00362041,0.0040351,-0.000636987,0.00449764,0.00315787,-0.942744,0.00266649,0.0152494,1973,883,52.6304,-7.00255
756,141,52.5721,7.71545,0.0067845,0.00504108,-0.000800554,0.00709633,0.00472926,-0.371437,0.00417205,0.0224394,1980,883,52.5722,-7.71548
763,141,52.5248,8.46771,0.0109179,0.00552463,-0.00148676,0.0113006,0.00514193,-0.251935,0.0065332,0.0474689,1987,883,52.5247,-8.46772
770,141,52.4323,9.20587,0,0,0,0,0,0,0,-1,1994,883,52.4322,-9.20589
777,141,54.9023,10.6115,0,0,0,0,0,0,0,-1,2001,883,54.9023,-10.6114
784,141,56.2209,12.2636,0,0,0,0,0,0,0,-1,2008,883,56.221,-12.2636
791,141,42.5815,7.74707,0,0,0,0,0,0,0,-1,2015,883,42.5815,-7.74706
798,141,0,0,0,0,0,0,0,0,0,-1,2022,883,0,0
805,141,0,0,0,0,0,0,0,0,0,-1,2029,883,0,0
812,141,0,0,0,0,0,0,0,0,0,-1,2036,883,0,0
-700,134,0,0,0,0,0,0,0,0,0,-1,524,890,0,0
-693,134,0,0,0,0,0,0,0,0,0,-1,531,890,0,0
-686,134,0,0,0,0,0,0,0,0,0,-1,538,890,0,0
-679,134,0,0,0,0,0,0,0,0,0,-1,545,890,0,0
-672,134,-51.5799,-2.0647,-0.0649043,0.000545656,-0.0667328,0.0421456,-0.106504,-1.01336,0.0884637,0.045316,552,890,-51.5799,2.06471
-665,134,-52.2605,-2.32654,-0.0568592,0.000587487,-0.0567258,0.0354475,-0.0917192,-1.01976,0.0757779,0.049275,559,890,-52.2605,2.32652
-658,134,-52.2969,-2.39673,0,0,0,0,0,0,0,-1,566,890,-52.2969,2.3967
-651,134,-47.5334,-3.22351,0,0,0,0,0,0,0,-1,573,890,-47.5335,3.2235
-644,134,-46.2668,-2.43176,0,0,0,0,0,0,0,-1,580,890,-46.2668,2.43174
-637,134,-44.0023,1.39087,0,0,0,0,0,0,0,-1,587,890,-44.0023,-1.39087
-630,134,-39.4863,5.6759,0,0,0,0,0,0,0,-1,594,890,-39.4863,-5.67588
-623,134,-39.6395,5.18018,-0.0150481,0.00346543,-0.00971967,0.00763103,-0.0192137,-1.1659,0.0159724,0.0307978,601,890,-39.6395,-5.18016
-616,134,-39.8412,4.58502,-0.00979823,0.00285017,-0.00409092,0.00405798,-0.011006,-1.28371,0.0090003,0.0128694,608,890,-39.8412,-4.58502
-609,134,-39.9373,3.97559,-0.00670788,0.00249505,-0.000541641,0.00252682,-0.00673965,-1.51221,0.00553123,0.0123514,615,890,-39.9373,-3.97557
-602,134,-39.9442,3.35284,-0.00559074,0.00142498,0.00155902,0.00175582,-0.00592158,1.36169,0.00464496,0.0141214,622,890,-39.9442,-3.35285
-595,134,-39.8566,2.77435,-0.00518371,0.000610725,0.00212693,0.00130763,-0.00588061,1.25416,0.00442122,0.0257936,629,890,-39.8566,-2.77433
-588,134,-39.8292,2.17932,0,0,0,0,0,0,0,-1,636,890,-39.8292,-2.17933
-581,134,-40.5056,1.54065,0,0,0,0,0,0,0,-1,643,890,-40.5055,-1.54065
-574,134,-31.1517,0.757751,0,0,0,0,0,0,0,-1,650,890,-31.1517,-0.757758
-567,134,-30.9003,0.296326,0,0,0,0,0,0,0,-1,657,890,-30.9002,-0.296302
-560,134,-22.9123,0.106567,0,0,0,0,0,0,0,-1,664,890,-22.9123,-0.106594
-553,134,-46.7047,0.92749,0,0,0,0,0,0,0,-1,671,890,-46.7047,-0.927498
-546,134,-46.7042,0.95636,-0.00330278,-0.000415966,-0.000653061,-0.000275102,-0.00344364,-1.35835,0.00220977,0.0350895,678,890,-46.7042,-0.956352
-539,134,-46.7113,0.972839,-0.00317341,-0.000163949,-0.00140011,0.000386681,-0.00372404,-1.1961,0.00262111,0.0188868,685,890,-46.7113,-0.972817
-532,134,-46.7592,0.951477,-0.00209314,0.0002242,-0.00243885,0.00176563,-0.00363456,-1.00716,0.00317943,0.023914,692,890,-46.7591,-0.951484
-525,134,-46.6748,0.889648,-0.000629487,0.000127168,-0.00313266,0.00290427,-0.00340659,-0.845491,0.00364742,0.0362098,699,890,-46.6748,-0.889659
-518,134,-46.6613,0.970398,0.00035001,-0.000364173,-0.00315347,0.00316654,-0.0031807,-0.729019,0.00366459,0.0416711,706,890,-46.6613,-0.970382
-511,134,-46.7079,1.02777,0.00132702,-0.000749085,-0.00311672,0.00357401,-0.00299608,-0.624647,0.00379813,0.0419852,713,890,-46.7079,-1.02775
-504,134,0,0,0,0,0,0,0,0,0,-1,720,890,0,0
-497,134,0,0,0,0,0,0,0,0,0,-1,727,890,0,0
-490,134,0,0,0,0,0,0,0,0,0,-1,734,890,0,0
-483,134,0,0,0,0,0,0,0,0,0,-1,741,890,0,0
-476,134,0,0,0,0,0,0,0,0,0,-1,748,890,0,0
-469,134,0,0,0,0,0,0,0,0,0,-1,755,890,0,0
-462,134,0,0,0,0,0,0,0,0,0,-1,762,890,0,0
-455,134,0,0,0,0,0,0,0,0,0,-1,769,890,0,0
-448,134,0,0,0,0,0,0,0,0,0,-1,776,890,0,0
-441,134,0,0,0,0,0,0,0,0,0,-1,783,890,0,0
-434,134,0,0,0,0,0,0,0,0,0,-1,790,890,0,0
-427,134,0,0,0,0,0,0,0,0,0,-1,797,890,0,0
-420,134,0,0,0,0,0,0,0,0,0,-1,804,890,0,0
-413,134,0,0,0,0,0,0,0,0,0,-1,811,890,0,0
-406,134,0,0,0,0,0,0,0,0,0,-1,818,890,0,0
-399,134,0,0,0,0,0,0,0,0,0,-1,825,890,0,0
-392,134,0,0,0,0,0,0,0,0,0,-1,832,890,0,0
-385,134,0,0,0,0,0,0,0,0,0,-1,839,890,0,0
-378,134,0,0,0,0,0,0,0,0,0,-1,846,890,0,0
-371,134,0,0,0,0,0,0,0,0,0,-1,853,890,0,0
-364,134,0,0,0,0,0,0,0,0,0,-1,860,890,0,0
-357,134,0,0,0,0,0,0,0,0,0,-1,867,890,0,0
-350,134,0,0,0,0,0,0,0,0,0,-1,874,890,0,0
-343,134,0,0,0,0,0,0,0,0,0,-1,881,890,0,0
-336,134,0,0,0,0,0,0,0,0,0,-1,888,890,0,0
-329,134,0,0,0,0,0,0,0,0,0,-1,895,890,0,0
-322,134,0,0,0,0,0,0,0,0,0,-1,902,890,0,0
-315,134,0,0,0,0,0,0,0,0,0,-1,909,890,0,0
-308,134,0,0,0,0,0,0,0,0,0,-1,916,890,0,0
-301,134,0,0,0,0,0,0,0,0,0,-1,923,890,0,0
-294,134,0,0,0,0,0,0,0,0,0,-1,930,890,0,0
-287,134,0,0,0,0,0,0,0,0,0,-1,937,890,0,0
-280,134,0,0,0,0,0,0,0,0,0,-1,944,890,0,0
-273,134,0,0,0,0,0,0,0,0,0,-1,951,890,0,0
-266,134,0,0,0,0,0,0,0,0,0,-1,958,890,0,0
-259,134,0,0,0,0,0,0,0,0,0,-1,965,890,0,0
-252,134,0,0,0,0,0,0,0,0,0,-1,972,890,0,0
-245,134,0,0,0,0,0,0,0,0,0,-1,979,890,0,0
-238,134,0,0,0,0,0,0,0,0,0,-1,986,890,0,0
-231,134,0,0,0,0,0,0,0,0,0,-1,993,890,0,0
-224,134,0,0,0,0,0,0,0,0,0,-1,1000,890,0,0
-217,134,0,0,0,0,0,0,0,0,0,-1,1007,890,0,0
-210,134,0,0,0,0,0,0,0,0,0,-1,1014,890,0,0
-203,134,0,0,0,0,0,0,0,0,0,-1,1021,890,0,0
-196,134,0,0,0,0,0,0,0,0,0,-1,1028,890,0,0
-189,134,0,0,0,0,0,0,0,0,0,-1,1035,890,0,0
-182,134,0,0,0,0,0,0,0,0,0,-1,1042,890,0,0
-175,134,0,0,0,0,0,0,0,0,0,-1,1049,890,0,0
-168,134,0,0,0,0,0,0,0,0,0,-1,1056,890,0,0
-161,134,0,0,0,0,0,0,0,0,0,-1,1063,890,0,0
-154,134,0,0,0,0,0,0,0,0,0,-1,1070,890,0,0
-147,134,0,0,0,0,0,0,0,0,0,-1,1077,890,0,0
-140,134,0,0,0,0,0,0,0,0,0,-1,1084,890,0,0
-133,134,0,0,0,0,0,0,0,0,0,-1,1091,890,0,0
-126,134,0,0,0,0,0,0,0,0,0,-1,1098,890,0,0
-119,134,0,0,0,0,0,0,0,0,0,-1,1105,890,0,0
-112,134,0,0,0,0,0,0,0,0,0,-1,1112,890,0,0
-105,134,0,0,0,0,0,0,0,0,0,-1,1119,890,0,0
-98,134,0,0,0,0,0,0,0,0,0,-1,1126,890,0,0
-91,134,0,0,0,0,0,0,0,0,0,-1,1133,890,0,0
-84,134,0,0,0,0,0,0,0,0,0,-1,1140,890,0,0
-77,134,0,0,0,0,0,0,0,0,0,-1,1147,890,0,0
-70,134,0,0,0,0,0,0,0,0,0,-1,1154,890,0,0
-63,134,0,0,0,0,0,0,0,0,0,-1,1161,890,0,0
-56,134,0,0,0,0,0,0,0,0,0,-1,1168,890,0,0
-49,134,0,0,0,0,0,0,0,0,0,-1,1175,890,0,0
-42,134,0,0,0,0,0,0,0,0,0,-1,1182,890,0,0
-35,134,0,0,0,0,0,0,0,0,0,-1,1189,890,0,0
-28,134,0,0,0,0,0,0,0,0,0,-1,1196,890,0,0
-21,134,0,0,0,0,0,0,0,0,0,-1,1203,890,0,0
-14,134,0,0,0,0,0,0,0,0,0,-1,1210,890,0,0
-7,134,0,0,0,0,0,0,0,0,0,-1,1217,890,0,0
0,134,0,0,0,0,0,0,0,0,0,-1,1224,890,0,0
7,134,0,0,0,0,0,0,0,0,0,-1,1231,890,0,0
14,134,0,0,0,0,0,0,0,0,0,-1,1238,890,0,0
21,134,0,0,0,0,0,0,0,0,0,-1,1245,890,0,0
28,134,0,0,0,0,0,0,0,0,0,-1,1252,890,0,0
35,134,0,0,0,0,0,0,0,0,0,-1,1259,890,0,0
42,134,0,0,0,0,0,0,0,0,0,-1,1266,890,0,0
49,134,0,0,0,0,0,0,0,0,0,-1,1273,890,0,0
56,134,0,0,0,0,0,0,0,0,0,-1,1280,890,0,0
63,134,0,0,0,0,0,0,0,0,0,-1,1287,890,0,0
70,134,0,0,0,0,0,0,0,0,0,-1,1294,890,0,0
77,134,0,0,0,0,0,0,0,0,0,-1,1301,890,0,0
84,134,0,0,0,0,0,0,0,0,0,-1,1308,890,0,0
91,134,0,0,0,0,0,0,0,0,0,-1,1315,890,0,0
98,134,0,0,0,0,0,0,0,0,0,-1,1322,890,0,0
105,134,0,0,0,0,0,0,0,0,0,-1,1329,890,0,0
112,134,0,0,0,0,0,0,0,0,0,-1,1336,890,0,0
119,134,0,0,0,0,0,0,0,0,0,-1,1343,890,0,0
126,134,0,0,0,0,0,0,0,0,0,-1,1350,890,0,0
133,134,0,0,0,0,0,0,0,0,0,-1,1357,890,0,0
140,134,0,0,0,0,0,0,0,0,0,-1,1364,890,0,0
147,134,0,0,0,0,0,0,0,0,0,-1,1371,890,0,0
154,134,0,0,0,0,0,0,0,0,0,-1,1378,890,0,0
161,134,0,0,0,0,0,0,0,0,0,-1,1385,890,0,0
168,134,0,0,0,0,0,0,0,0,0,-1,1392,890,0,0
175,134,0,0,0,0,0,0,0,0,0,-1,1399,890,0,0
182,134,0,0,0,0,0,0,0,0,0,-1,1406,890,0,0
189,134,0,0,0,0,0,0,0,0,0,-1,1413,890,0,0
196,134,0,0,0,0,0,0,0,0,0,-1,1420,890,0,0
203,134,0,0,0,0,0,0,0,0,0,-1,1427,890,0,0
210,134,0,0,0,0,0,0,0,0,0,-1,1434,890,0,0
217,134,0,0,0,0,0,0,0,0,0,-1,1441,890,0,0
224,134,0,0,0,0,0,0,0,0,0,-1,1448,890,0,0
231,134,0,0,0,0,0,0,0,0,0,-1,1455,890,0,0
238,134,0,0,0,0,0,0,0,0,0,-1,1462,890,0,0
245,134,0,0,0,0,0,0,0,0,0,-1,1469,890,0,0
252,134,0,0,0,0,0,0,0,0,0,-1,1476,890,0,0
259,134,0,0,0,0,0,0,0,0,0,-1,1483,890,0,0
266,134,0,0,0,0,0,0,0,0,0,-1,1490,890,0,0
273,134,0,0,0,0,0,0,0,0,0,-1,1497,890,0,0
280,134,0,0,0,0,0,0,0,0,0,-1,1504,890,0,0
287,134,0,0,0,0,0,0,0,0,0,-1,1511,890,0,0
294,134,0,0,0,0,0,0,0,0,0,-1,1518,890,0,0
301,134,0,0,0,0,0,0,0,0,0,-1,1525,890,0,0
308,134,0,0,0,0,0,0,0,0,0,-1,1532,890,0,0
315,134,0,0,0,0,0,0,0,0,0,-1,1539,890,0,0
322,134,0,0,0,0,0,0,0,0,0,-1,1546,890,0,0
329,134,0,0,0,0,0,0,0,0,0,-1,1553,890,0,0
336,134,0,0,0,0,0,0,0,0,0,-1,1560,890,0,0
343,134,0,0,0,0,0,0,0,0,0,-1,1567,890,0,0
350,134,0,0,0,0,0,0,0,0,0,-1,1574,890,0,0
357,134,0,0,0,0,0,0,0,0,0,-1,1581,890,0,0
364,134,0,0,0,0,0,0,0,0,0,-1,1588,890,0,0
371,134,0,0,0,0,0,0,0,0,0,-1,1595,890,0,0
378,134,0,0,0,0,0,0,0,0,0,-1,1602,890,0,0
385,134,0,0,0,0,0,0,0,0,0,-1,1609,890,0,0
392,134,0,0,0,0,0,0,0,0,0,-1,1616,890,0,0
399,134,0,0,0,0,0,0,0,0,0,-1,1623,890,0,0
406,134,0,0,0,0,0,0,0,0,0,-1,1630,890,0,0
413,134,0,0,0,0,0,0,0,0,0,-1,1637,890,0,0
420,134,0,0,0,0,0,0,0,0,0,-1,1644,890,0,0
427,134,0,0,0,0,0,0,0,0,0,-1,1651,890,0,0
434,134,0,0,0,0,0,0,0,0,0,-1,1658,890,0,0
441,134,0,0,0,0,0,0,0,0,0,-1,1665,890,0,0
448,134,0,0,0,0,0,0,0,0,0,-1,1672,890,0,0
455,134,0,0,0,0,0,0,0,0,0,-1,1679,890,0,0
462,134,0,0,0,0,0,0,0,0,0,-1,1686,890,0,0
469,134,0,0,0,0,0,0,0,0,0,-1,1693,890,0,0
476,134,0,0,0,0,0,0,0,0,0,-1,1700,890,0,0
483,134,0,0,0,0,0,0,0,0,0,-1,1707,890,0,0
490,134,0,0,0,0,0,0,0,0,0,-1,1714,890,0,0
497,134,0,0,0,0,0,0,0,0,0,-1,1721,890,0,0
504,134,0,0,0,0,0,0,0,0,0,-1,1728,890,0,0
511,134,0,0,0,0,0,0,0,0,0,-1,1735,890,0,0
518,134,0,0,0,0,0,0,0,0,0,-1,1742,890,0,0
525,134,0,0,0,0,0,0,0,0,0,-1,1749,890,0,0
532,134,0,0,0,0,0,0,0,0,0,-1,1756,890,0,0
539,134,0,0,0,0,0,0,0,0,0,-1,1763,890,0,0
546,134,0,0,0,0,0,0,0,0,0,-1,1770,890,0,0
553,134,0,0,0,0,0,0,0,0,0,-1,1777,890,0,0
560,134,0,0,0,0,0,0,0,0,0,-1,1784,890,0,0
567,134,0,0,0,0,0,0,0,0,0,-1,1791,890,0,0
574,134,0,0,0,0,0,0,0,0,0,-1,1798,890,0,0
581,134,0,0,0,0,0,0,0,0,0,-1,1805,890,0,0
588,134,0,0,0,0,0,0,0,0,0,-1,1812,890,0,0
595,134,0,0,0,0,0,0,0,0,0,-1,1819,890,0,0
602,134,0,0,0,0,0,0,0,0,0,-1,1826,890,0,0
609,134,0,0,0,0,0,0,0,0,0,-1,1833,890,0,0
616,134,0,0,0,0,0,0,0,0,0,-1,1840,890,0,0
623,134,61.4071,2.88275,0.0006365,0.00571073,0.00112933,0.00595072,0.000396507,1.3614,0.0038418,0.0459111,1847,890,61.4071,-2.88274
630,134,61.3931,2.97797,0.000609363,0.00485558,0.000843383,0.00501696,0.000447983,1.38173,0.00320576,0.0491115,1854,890,61.393,-2.97795
637,134,61.5142,3.00745,0.000420399,0.00427011,0.00058445,0.00435688,0.000333626,1.4234,0.00280001,0.0467203,1861,890,61.5141,-3.00747
644,134,61.5266,2.89197,9.02494e-05,0.00363801,0.000391527,0.0036807,4.75545e-05,1.46218,0.0024381,0.0397886,1868,890,61.5266,-2.89195
651,134,61.5144,2.86292,-0.000378026,0.00299764,0.000179599,0.00300717,-0.000387555,1.51779,0.00214567,0.0407794,1875,890,61.5144,-2.86289
658,134,61.5168,2.75684,-0.00103258,0.00236558,-0.000161677,0.00237325,-0.00104025,-1.52336,0.00202026,0.0395942,1882,890,61.5169,-2.75684
665,134,61.4882,2.64569,-0.00166271,0.00163536,-0.000194433,0.00164678,-0.00167414,-1.51211,0.00191735,0.0352348,1889,890,61.4881,-2.64571
672,134,61.4735,2.71179,-0.00194491,0.00108196,-0.000380121,0.00112897,-0.00199191,-1.44776,0.00182466,0.0263121,1896,890,61.4736,-2.71177
679,134,61.4501,2.69952,-0.00213542,0.000625686,-0.000498244,0.000712844,-0.00222258,-1.39762,0.00176791,0.0267577,1903,890,61.45,-2.69955
686,134,61.4344,2.6955,0,0,0,0,0,0,0,-1,1910,890,61.4345,-2.69551
693,134,34.5778,2.48096,0,0,0,0,0,0,0,-1,1917,890,34.5777,-2.48099
700,134,52.7825,2.26569,0,0,0,0,0,0,0,-1,1924,890,52.7824,-2.26567
707,134,52.7358,2.85376,0,0,0,0,0,0,0,-1,1931,890,52.7358,-2.85374
714,134,53.1183,3.61224,0,0,0,0,0,0,0,-1,1938,890,53.1183,-3.61227
721,134,53.4335,4.36383,-0.00217265,0.000164118,-0.00105862,0.000572376,-0.00258091,-1.20272,0.00193976,0.0247409,1945,890,53.4335,-4.36386
728,134,53.4812,5.02136,-0.00190696,0.00069395,-0.00099519,0.00103105,-0.00224406,-1.2442,0.00193364,0.0209763,1952,890,53.4812,-5.02137
735,134,53.4285,5.80469,-0.00118788,0.00162501,-0.000851031,0.00186245,-0.00142532,-1.29872,0.00190378,0.0264835,1959,890,53.4285,-5.80466
742,134,53.3462,6.46472,0.000379032,0.00303947,-0.00087552,0.00330174,0.000116764,-1.27975,0.00216329,0.0175505,1966,890,53.3462,-6.46471
749,134,53.3419,7.03687,0.00292362,0.00439339,-0.00114421,0.00501838,0.00229863,-1.07086,0.00290076,0.0128183,1973,890,53.3419,-7.03684
756,134,53.3076,7.64374,0.00615059,0.00557645,-0.00150104,0.00739177,0.00433527,-0.690916,0.00428887,0.0178112,1980,890,53.3076,-7.64375
763,134,53.2288,8.28137,0.0104403,0.00611681,-0.00241309,0.0115183,0.00503878,-0.420144,0.00666742,0.0400307,1987,890,53.2288,-8.28139
770,134,53.1328,8.90637,0,0,0,0,0,0,0,-1,1994,890,53.1329,-8.90637
777,134,56.5676,10.374,0,0,0,0,0,0,0,-1,2001,890,56.5676,-10.374
784,134,42.3352,7.4964,0,0,0,0,0,0,0,-1,2008,890,42.3352,-7.49641
791,134,64.4153,11.6803,0,0,0,0,0,0,0,-1,2015,890,64.4153,-11.6803
798,134,0,0,0,0,0,0,0,0,0,-1,2022,890,0,0
805,134,0,0,0,0,0,0,0,0,0,-1,2029,890,0,0
812,134,0,0,0,0,0,0,0,0,0,-1,2036,890,0,0
-700,127,0,0,0,0,0,0,0,0,0,-1,524,897,0,0
-693,127,0,0,0,0,0,0,0,0,0,-1,531,897,0,0
-686,127,0,0,0,0,0,0,0,0,0,-1,538,897,0,0
-679,127,-50.3194,-1.65735,-0.0647779,0.000538382,-0.0750948,0.049769,-0.114009,-0.990508,0.0969513,0.0430198,545,897,-50.3194,1.65735
-672,127,-50.8882,-2.07568,-0.0609016,-0.00104282,-0.0627939,0.0385896,-0.100534,-1.00779,0.0829345,0.0449787,552,897,-50.8882,2.07565
-665,127,-50.8242,-2.11566,0,0,0,0,0,0,0,-1,559,897,-50.8242,2.11563
-658,127,-49.1199,-3.05005,0,0,0,0,0,0,0,-1,566,897,-49.1199,3.05002
-651,127,-47.3047,-3.04736,0,0,0,0,0,0,0,-1,573,897,-47.3047,3.04734
-644,127,-44.5754,2.17377,0,0,0,0,0,0,0,-1,580,897,-44.5754,-2.17376
-637,127,-44.7166,1.10236,0,0,0,0,0,0,0,-1,587,897,-44.7166,-1.10233
-630,127,-40.3729,5.56293,0,0,0,0,0,0,0,-1,594,897,-40.373,-5.56292
-623,127,-40.4335,5.09113,-0.0155369,0.00341026,-0.00670961,0.00554562,-0.0176723,-1.26268,0.0140011,0.0190695,601,897,-40.4335,-5.09114
-616,127,-40.4995,4.56921,-0.01039,0.00279352,-0.00172416,0.00301528,-0.0106117,-1.44288,0.008265,0.0113203,608,897,-40.4994,-4.56924
-609,127,-40.5773,3.97833,-0.00738131,0.00248515,0.000911322,0.00256862,-0.00746478,1.47946,0.0060183,0.0149447,615,897,-40.5774,-3.97834
-602,127,-40.593,3.39685,-0.00626055,0.00154403,0.0020265,0.00203885,-0.00675537,1.33131,0.00531518,0.0174649,622,897,-40.593,-3.39683
-595,127,-40.5248,2.85553,-0.00583038,0.000839611,0.00203026,0.00140899,-0.00639976,1.29737,0.00480552,0.0316019,629,897,-40.5249,-2.85553
-588,127,-40.4824,2.57367,0,0,0,0,0,0,0,-1,636,897,-40.4824,-2.57367
-581,127,-39.8479,1.35071,0,0,0,0,0,0,0,-1,643,897,-39.8479,-1.35073
-574,127,-25.2603,0.511169,0,0,0,0,0,0,0,-1,650,897,-25.2603,-0.51117
-567,127,-24.5417,-0.0447388,0,0,0,0,0,0,0,-1,657,897,-24.5417,0.0447226
-560,127,-18.9678,1.21667,0,0,0,0,0,0,0,-1,664,897,-18.9677,-1.2167
-553,127,-46.703,0.819397,0,0,0,0,0,0,0,-1,671,897,-46.703,-0.819381
-546,127,-46.6859,0.860229,-0.00383514,-0.000346129,-0.000672139,-0.000221124,-0.00396014,-1.38692,0.00256956,0.0240699,678,897,-46.6859,-0.860228
-539,127,-46.6738,0.913757,-0.00360254,-0.000141635,-0.00133578,0.000313953,-0.00405812,-1.2421,0.00281591,0.0208798,685,897,-46.6738,-0.913738
-532,127,-46.6954,0.95929,-0.00233526,3.70645e-05,-0.00208542,0.00125006,-0.00354825,-1.04398,0.00287427,0.0167047,692,897,-46.6954,-0.959276
-525,127,-46.6547,0.892822,-0.000761652,-0.000528358,-0.00235861,0.00171649,-0.0030065,-0.810106,0.00276052,0.031985,699,897,-46.6547,-0.892842
-518,127,-46.5903,0.858215,0.000160593,-0.00160237,-0.00212882,0.00158322,-0.003025,-0.58911,0.00270361,0.0414299,706,897,-46.5903,-0.858208
-511,127,-46.627,0.849548,0.000946229,-0.00232541,-0.00208058,0.00195705,-0.00333623,-0.452254,0.00309046,0.0432835,713,897,-46.627,-0.849555
-504,127,0,0,0,0,0,0,0,0,0,-1,720,897,0,0
-497,127,0,0,0,0,0,0,0,0,0,-1,727,897,0,0
-490,127,0,0,0,0,0,0,0,0,0,-1,734,897,0,0
-483,127,0,0,0,0,0,0,0,0,0,-1,741,897,0,0
-476,127,0,0,0,0,0,0,0,0,0,-1,748,897,0,0
-469,127,0,0,0,0,0,0,0,0,0,-1,755,897,0,0
-462,127,0,0,0,0,0,0,0,0,0,-1,762,897,0,0
-455,127,0,0,0,0,0,0,0,0,0,-1,769,897,0,0
-448,127,0,0,0,0,0,0,0,0,0,-1,776,897,0,0
-441,127,0,0,0,0,0,0,0,0,0,-1,783,897,0,0
-434,127,0,0,0,0,0,0,0,0,0,-1,790,897,0,0
-427,127,0,0,0,0,0,0,0,0,0,-1,797,897,0,0
-420,127,0,0,0,0,0,0,0,0,0,-1,804,897,0,0
-413,127,0,0,0,0,0,0,0,0,0,-1,811,897,0,0
-406,127,0,0,0,0,0,0,0,0,0,-1,818,897,0,0
-399,127,0,0,0,0,0,0,0,0,0,-1,825,897,0,0
-392,127,0,0,0,0,0,0,0,0,0,-1,832,897,0,0
-385,127,0,0,0,0,0,0,0,0,0,-1,839,897,0,0
-378,127,0,0,0,0,0,0,0,0,0,-1,846,897,0,0
-371,127,0,0,0,0,0,0,0,0,0,-1,853,897,0,0
-364,127,0,0,0,0,0,0,0,0,0,-1,860,897,0,0
-357,127,0,0,0,0,0,0,0,0,0,-1,867,897,0,0
-350,127,0,0,0,0,0,0,0,0,0,-1,874,897,0,0
-343,127,0,0,0,0,0,0,0,0,0,-1,881,897,0,0
-336,127,0,0,0,0,0,0,0,0,0,-1,888,897,0,0
-329,127,0,0,0,0,0,0,0,0,0,-1,895,897,0,0
-322,127,0,0,0,0,0,0,0,0,0,-1,902,897,0,0
-315,127,0,0,0,0,0,0,0,0,0,-1,909,897,0,0
-308,127,0,0,0,0,0,0,0,0,0,-1,916,897,0,0
-301,127,0,0,0,0,0,0,0,0,0,-1,923,897,0,0
-294,127,0,0,0,0,0,0,0,0,0,-1,930,897,0,0
-287,127,0,0,0,0,0,0,0,0,0,-1,937,897,0,0
-280,127,0,0,0,0,0,0,0,0,0,-1,944,897,0,0
-273,127,0,0,0,0,0,0,0,0,0,-1,951,897,0,0
-266,127,0,0,0,0,0,0,0,0,0,-1,958,897,0,0
-259,127,0,0,0,0,0,0,0,0,0,-1,965,897,0,0
-252,127,0,0,0,0,0,0,0,0,0,-1,972,897,0,0
-245,127,0,0,0,0,0,0,0,0,0,-1,979,897,0,0
-238,127,0,0,0,0,0,0,0,0,0,-1,986,897,0,0
-231,127,0,0,0,0,0,0,0,0,0,-1,993,897,0,0
-224,127,0,0,0,0,0,0,0,0,0,-1,1000,897,0,0
-217,127,0,0,0,0,0,0,0,0,0,-1,1007,897,0,0
-210,127,0,0,0,0,0,0,0,0,0,-1,1014,897,0,0
-203,127,0,0,0,0,0,0,0,0,0,-1,1021,897,0,0
-196,127,0,0,0,0,0,0,0,0,0,-1,1028,897,0,0
-189,127,0,0,0,0,0,0,0,0,0,-1,1035,897,0,0
-182,127,0,0,0,0,0,0,0,0,0,-1,1042,897,0,0
-175,127,0,0,0,0,0,0,0,0,0,-1,1049,897,0,0
-168,127,0,0,0,0,0,0,0,0,0,-1,1056,897,0,0
-161,127,0,0,0,0,0,0,0,0,0,-1,1063,897,0,0
-154,127,0,0,0,0,0,0,0,0,0,-1,1070,897,0,0
-147,127,0,0,0,0,0,0,0,0,0,-1,1077,897,0,0
-140,127,0,0,0,0,0,0,0,0,0,-1,1084,897,0,0
-133,127,0,0,0,0,0,0,0,0,0,-1,1091,897,0,0
-126,127,0,0,0,0,0,0,0,0,0,-1,1098,897,0,0
-119,127,0,0,0,0,0,0,0,0,0,-1,1105,897,0,0
-112,127,0,0,0,0,0,0,0,0,0,-1,1112,897,0,0
-105,127,0,0,0,0,0,0,0,0,0,-1,1119,897,0,0
-98,127,0,0,0,0,0,0,0,0,0,-1,1126,897,0,0
-91,127,0,0,0,0,0,0,0,0,0,-1,1133,897,0,0
-84,127,0,0,0,0,0,0,0,0,0,-1,1140,897,0,0
-77,127,0,0,0,0,0,0,0,0,0,-1,1147,897,0,0
-70,127,0,0,0,0,0,0,0,0,0,-1,1154,897,0,0
-63,127,0,0,0,0,0,0,0,0,0,-1,1161,897,0,0
-56,127,0,0,0,0,0,0,0,0,0,-1,1168,897,0,0
-49,127,0,0,0,0,0,0,0,0,0,-1,1175,897,0,0
-42,127,0,0,0,0,0,0,0,0,0,-1,1182,897,0,0
-35,127,0,0,0,0,0,0,0,0,0,-1,1189,897,0,0
-28,127,0,0,0,0,0,0,0,0,0,-1,1196,897,0,0
-21,127,0,0,0,0,0,0,0,0,0,-1,1203,897,0,0
-14,127,0,0,0,0,0,0,0,0,0,-1,1210,897,0,0
-7,127,0,0,0,0,0,0,0,0,0,-1,1217,897,0,0
0,127,0,0,0,0,0,0,0,0,0,-1,1224,897,0,0
7,127,0,0,0,0,0,0,0,0,0,-1,1231,897,0,0
14,127,0,0,0,0,0,0,0,0,0,-1,1238,897,0,0
21,127,0,0,0,0,0,0,0,0,0,-1,1245,897,0,0
28,127,0,0,0,0,0,0,0,0,0,-1,1252,897,0,0
35,127,0,0,0,0,0,0,0,0,0,-1,1259,897,0,0
42,127,0,0,0,0,0,0,0,0,0,-1,1266,897,0,0
49,127,0,0,0,0,0,0,0,0,0,-1,1273,897,0,0
56,127,0,0,0,0,0,0,0,0,0,-1,1280,897,0,0
63,127,0,0,0,0,0,0,0,0,0,-1,1287,897,0,0
70,127,0,0,0,0,0,0,0,0,0,-1,1294,897,0,0
77,127,0,0,0,0,0,0,0,0,0,-1,1301,897,0,0
84,127,0,0,0,0,0,0,0,0,0,-1,1308,897,0,0
91,127,0,0,0,0,0,0,0,0,0,-1,1315,897,0,0
98,127,0,0,0,0,0,0,0,0,0,-1,1322,897,0,0
105,127,0,0,0,0,0,0,0,0,0,-1,1329,897,0,0
112,127,0,0,0,0,0,0,0,0,0,-1,1336,897,0,0
119,127,0,0,0,0,0,0,0,0,0,-1,1343,897,0,0
126,127,0,0,0,0,0,0,0,0,0,-1,1350,897,0,0
133,127,0,0,0,0,0,0,0,0,0,-1,1357,897,0,0
140,127,0,0,0,0,0,0,0,0,0,-1,1364,897,0,0
147,127,0,0,0,0,0,0,0,0,0,-1,1371,897,0,0
154,127,0,0,0,0,0,0,0,0,0,-1,1378,897,0,0
161,127,0,0,0,0,0,0,0,0,0,-1,1385,897,0,0
168,127,0,0,0,0,0,0,0,0,0,-1,1392,897,0,0
175,127,0,0,0,0,0,0,0,0,0,-1,1399,897,0,0
182,127,0,0,0,0,0,0,0,0,0,-1,1406,897,0,0
189,127,0,0,0,0,0,0,0,0,0,-1,1413,897,0,0
196,127,0,0,0,0,0,0,0,0,0,-1,1420,897,0,0
203,127,0,0,0,0,0,0,0,0,0,-1,1427,897,0,0
210,127,0,0,0,0,0,0,0,0,0,-1,1434,897,0,0
217,127,0,0,0,0,0,0,0,0,0,-1,1441,897,0,0
224,127,0,0,0,0,0,0,0,0,0,-1,1448,897,0,0
231,127,0,0,0,0,0,0,0,0,0,-1,1455,897,0,0
238,127,0,0,0,0,0,0,0,0,0,-1,1462,897,0,0
245,127,0,0,0,0,0,0,0,0,0,-1,1469,897,0,0
252,127,0,0,0,0,0,0,0,0,0,-1,1476,897,0,0
259,127,0,0,0,0,0,0,0,0,0,-1,1483,897,0,0
266,127,0,0,0,0,0,0,0,0,0,-1,1490,897,0,0
273,127,0,0,0,0,0,0,0,0,0,-1,1497,897,0,0
280,127,0,0,0,0,0,0,0,0,0,-1,1504,897,0,0
287,127,0,0,0,0,0,0,0,0,0,-1,1511,897,0,0
294,127,0,0,0,0,0,0,0,0,0,-1,1518,897,0,0
301,127,0,0,0,0,0,0,0,0,0,-1,1525,897,0,0
308,127,0,0,0,0,0,0,0,0,0,-1,1532,897,0,0
315,127,0,0,0,0,0,0,0,0,0,-1,1539,897,0,0
322,127,0,0,0,0,0,0,0,0,0,-1,1546,897,0,0
329,127,0,0,0,0,0,0,0,0,0,-1,1553,897,0,0
336,127,0,0,0,0,0,0,0,0,0,-1,1560,897,0,0
343,127,0,0,0,0,0,0,0,0,0,-1,1567,897,0,0
350,127,0,0,0,0,0,0,0,0,0,-1,1574,897,0,0
357,127,0,0,0,0,0,0,0,0,0,-1,1581,897,0,0
364,127,0,0,0,0,0,0,0,0,0,-1,1588,897,0,0
371,127,0,0,0,0,0,0,0,0,0,-1,1595,897,0,0
378,127,0,0,0,0,0,0,0,0,0,-1,1602,897,0,0
385,127,0,0,0,0,0,0,0,0,0,-1,1609,897,0,0
392,127,0,0,0,0,0,0,0,0,0,-1,1616,897,0,0
399,127,0,0,0,0,0,0,0,0,0,-1,1623,897,0,0
406,127,0,0,0,0,0,0,0,0,0,-1,1630,897,0,0
413,127,0,0,0,0,0,0,0,0,0,-1,1637,897,0,0
420,127,0,0,0,0,0,0,0,0,0,-1,1644,897,0,0
427,127,0,0,0,0,0,0,0,0,0,-1,1651,897,0,0
434,127,0,0,0,0,0,0,0,0,0,-1,1658,897,0,0
441,127,0,0,0,0,0,0,0,0,0,-1,1665,897,0,0
448,127,0,0,0,0,0,0,0,0,0,-1,1672,897,0,0
455,127,0,0,0,0,0,0,0,0,0,-1,1679,897,0,0
462,127,0,0,0,0,0,0,0,0,0,-1,1686,897,0,0
469,127,0,0,0,0,0,0,0,0,0,-1,1693,897,0,0
476,127,0,0,0,0,0,0,0,0,0,-1,1700,897,0,0
483,127,0,0,0,0,0,0,0,0,0,-1,1707,897,0,0
490,127,0,0,0,0,0,0,0,0,0,-1,1714,897,0,0
497,127,0,0,0,0,0,0,0,0,0,-1,1721,897,0,0
504,127,0,0,0,0,0,0,0,0,0,-1,1728,897,0,0
511,127,0,0,0,0,0,0,0,0,0,-1,1735,897,0,0
518,127,0,0,0,0,0,0,0,0,0,-1,1742,897,0,0
525,127,0,0,0,0,0,0,0,0,0,-1,1749,897,0,0
532,127,0,0,0,0,0,0,0,0,0,-1,1756,897,0,0
539,127,0,0,0,0,0,0,0,0,0,-1,1763,897,0,0
546,127,0,0,0,0,0,0,0,0,0,-1,1770,897,0,0
553,127,0,0,0,0,0,0,0,0,0,-1,1777,897,0,0
560,127,0,0,0,0,0,0,0,0,0,-1,1784,897,0,0
567,127,0,0,0,0,0,0,0,0,0,-1,1791,897,0,0
574,127,0,0,0,0,0,0,0,0,0,-1,1798,897,0,0
581,127,0,0,0,0,0,0,0,0,0,-1,1805,897,0,0
588,127,0,0,0,0,0,0,0,0,0,-1,1812,897,0,0
595,127,0,0,0,0,0,0,0,0,0,-1,1819,897,0,0
602,127,0,0,0,0,0,0,0,0,0,-1,1826,897,0,0
609,127,0,0,0,0,0,0,0,0,0,-1,1833,897,0,0
616,127,0,0,0,0,0,0,0,0,0,-1,1840,897,0,0
623,127,0,0,0,0,0,0,0,0,0,-1,1847,897,0,0
630,127,61.4027,2.61652,-2.18431e-05,0.00559347,0.000341807,0.0056142,-4.25726e-05,1.51022,0.00375707,0.0447058,1854,897,61.4027,-2.61653
637,127,61.5352,2.67181,-8.76026e-05,0.00476276,0.000261843,0.00477686,-0.000101697,1.51702,0.00321901,0.0425545,1861,897,61.5351,-2.67182
644,127,61.5284,2.6676,-0.000309292,0.00396487,0.000247581,0.00397916,-0.000323586,1.51313,0.00276695,0.0402815,1868,897,61.5284,-2.66762
651,127,61.4845,2.72009,-0.000656902,0.00324986,0.000228048,0.00326312,-0.000670169,1.51269,0.00242981,0.0415407,1875,897,61.4845,-2.72008
658,127,61.4935,2.67188,-0.00117309,0.00262101,9.70245e-05,0.00262349,-0.00117557,1.54525,0.00224586,0.0407822,1882,897,61.4936,-2.67188
665,127,61.498,2.61218,-0.00168576,0.00191033,0.000160068,0.00191744,-0.00169287,1.5264,0.00208576,0.0384636,1889,897,61.4981,-2.6122
672,127,61.4539,2.66882,-0.00194972,0.00133319,5.35476e-05,0.00133406,-0.00195059,1.55449,0.0019075,0.0338682,1896,897,61.4538,-2.6688
679,127,61.4795,2.70135,-0.00213721,0.00083999,-4.13079e-05,0.000840563,-0.00213779,-1.55693,0.00177309,0.0270602,1903,897,61.4795,-2.70134
686,127,61.4755,2.69165,0,0,0,0,0,0,0,-1,1910,897,61.4754,-2.69166
693,127,59.2523,2.33673,0,0,0,0,0,0,0,-1,1917,897,59.2524,-2.33674
700,127,53.4084,2.23663,0,0,0,0,0,0,0,-1,1924,897,53.4085,-2.23665
707,127,53.8297,2.83618,0,0,0,0,0,0,0,-1,1931,897,53.8297,-2.83619
714,127,54.1549,3.69379,-0.00256957,0.000184373,-0.000627749,0.000320716,-0.00270591,-1.35693,0.0019198,0.0252008,1938,897,54.1549,-3.69378
721,127,54.2533,4.50781,-0.00229622,0.000432413,-0.000846105,0.000673479,-0.00253729,-1.29324,0.00195507,0.0243106,1945,897,54.2533,-4.50782
728,127,54.1422,5.11951,-0.00222866,0.000871454,-0.00087499,0.00110136,-0.00245857,-1.31385,0.00210453,0.0212798,1952,897,54.1422,-5.11951
735,127,54.0891,5.8197,-0.00176296,0.0017235,-0.000893593,0.00193919,-0.00197865,-1.33396,0.002262,0.0205889,1959,897,54.0891,-5.8197
742,127,54.0308,6.45795,-0.000451055,0.00309833,-0.00114086,0.0034334,-0.000786126,-1.28513,0.00259104,0.0182653,1966,897,54.0308,-6.45793
749,127,53.9977,7.05188,0.00190123,0.00447635,-0.00163804,0.00527229,0.00110528,-1.11848,0.00321049,0.0126089,1973,897,53.9977,-7.05189
756,127,53.952,7.62115,0.00499235,0.00572492,-0.00217232,0.00756162,0.00315565,-0.86892,0.00438555,0.0152588,1980,897,53.952,-7.62117
763,127,53.8839,8.17615,0.00923055,0.00625062,-0.00327076,0.0113347,0.00414644,-0.571672,0.00662219,0.0254647,1987,897,53.8839,-8.17612
770,127,53.8488,8.70679,0,0,0,0,0,0,0,-1,1994,897,53.8488,-8.70676
777,127,42.703,5.33789,0,0,0,0,0,0,0,-1,2001,897,42.7031,-5.33791
784,127,60.9233,9.82471,0,0,0,0,0,0,0,-1,2008,897,60.9234,-9.8247
791,127,62.4458,10.6021,0,0,0,0,0,0,0,-1,2015,897,62.4457,-10.6021
798,127,0,0,0,0,0,0,0,0,0,-1,2022,897,0,0
805,127,0,0,0,0,0,0,0,0,0,-1,2029,897,0,0
812,127,0,0,0,0,0,0,0,0,0,-1,2036,897,0,0
-700,120,0,0,0,0,0,0,0,0,0,-1,524,904,0,0
-693,120,0,0,0,0,0,0,0,0,0,-1,531,904,0,0
-686,120,0,0,0,0,0,0,0,0,0,-1,538,904,0,0
-679,120,-49.5898,-1.85278,-0.0556104,-0.00635683,-0.0721942,0.0452953,-0.107263,-0.949769,0.0904689,0.0434815,545,904,-49.5898,1.85277
-672,120,-49.8945,-2.5614,-0.0559406,-0.00437881,-0.058914,0.0341483,-0.0944677,-0.991646,0.0769304,0.0465554,552,904,-49.8945,2.56138
-665,120,-50.0974,-3.02155,0,0,0,0,0,0,0,-1,559,904,-50.0974,3.02153
-658,120,-50.2215,-3.59967,0,0,0,0,0,0,0,-1,566,904,-50.2215,3.59966
-651,120,-48.2593,-1.74121,0,0,0,0,0,0,0,-1,573,904,-48.2593,1.74121
-644,120,-45.0175,2.1684,0,0,0,0,0,0,0,-1,580,904,-45.0175,-2.16837
-637,120,-41.0356,6.02911,0,0,0,0,0,0,0,-1,587,904,-41.0356,-6.02909
-630,120,-41.0181,5.61676,-0.0211024,0.00352713,-0.00920397,0.00658657,-0.0241619,-1.24988,0.0186943,0.0322159,594,904,-41.0181,-5.61678
-623,120,-41.0963,5.09979,-0.0158227,0.00382241,-0.00380089,0.00453216,-0.0165324,-1.38619,0.0128026,0.0119958,601,904,-41.0963,-5.09976
-616,120,-41.1356,4.54578,-0.0108404,0.00307203,0.000406115,0.00308387,-0.0108522,1.54164,0.00845244,0.0109766,608,904,-41.1356,-4.54579
-609,120,-41.1722,3.9873,-0.00793942,0.00262132,0.00214006,0.0030385,-0.0083566,1.37827,0.00681361,0.0138395,615,904,-41.1722,-3.98729
-602,120,-41.2011,3.43439,-0.00679088,0.00164313,0.00246354,0.00230999,-0.00745774,1.30644,0.00589468,0.0170981,622,904,-41.2011,-3.43441
-595,120,-41.1354,2.89142,-0.00626712,0.000976871,0.00206762,0.00152547,-0.00681572,1.31144,0.0051285,0.0333703,629,904,-41.1354,-2.89145
-588,120,-41.0568,2.14923,-0.00599738,0.00062901,0.00159161,0.000991477,-0.00635985,1.34688,0.0046061,0.0450443,636,904,-41.0568,-2.14923
-581,120,-40.7261,1.21912,0,0,0,0,0,0,0,-1,643,904,-40.7261,-1.21909
-574,120,-27.5438,0.505066,0,0,0,0,0,0,0,-1,650,904,-27.5438,-0.505085
-567,120,-25.2822,-0.410645,0,0,0,0,0,0,0,-1,657,904,-25.2821,0.410629
-560,120,-27.3358,1.10327,0,0,0,0,0,0,0,-1,664,904,-27.3358,-1.10324
-553,120,-46.6556,0.83374,0,0,0,0,0,0,0,-1,671,904,-46.6556,-0.833747
-546,120,-46.624,0.807312,-0.00423143,-0.000280682,-0.000675089,-0.00016851,-0.0043436,-1.40614,0.00284123,0.0339828,678,904,-46.624,-0.807318
-539,120,-46.6289,0.835876,-0.00386641,-0.000119719,-0.00118784,0.000225133,-0.00421126,-1.28825,0.00288548,0.0265569,685,904,-46.6289,-0.835878
-532,120,-46.6292,0.903748,-0.00243596,-0.000155761,-0.00153185,0.000613691,-0.00320541,-1.10531,0.00236816,0.0264461,692,904,-46.6292,-0.903733
-525,120,-46.6793,0.910828,-0.000856225,-0.00111679,-0.00132712,0.00034699,-0.00232001,-0.736469,0.00167436,0.0336122,699,904,-46.6793,-0.910806
-518,120,-46.6702,0.903442,-8.94957e-05,-0.00250056,-0.000852612,0.000181541,-0.00277159,-0.307788,0.00191112,0.0406094,706,904,-46.6702,-0.903414
-511,120,-46.6479,0.815735,0.000506014,-0.00340074,-0.000754912,0.000646814,-0.00354154,-0.184392,0.00260355,0.041686,713,904,-46.6479,-0.815751
-504,120,0,0,0,0,0,0,0,0,0,-1,720,904,0,0
-497,120,0,0,0,0,0,0,0,0,0,-1,727,904,0,0
-490,120,0,0,0,0,0,0,0,0,0,-1,734,904,0,0
-483,120,0,0,0,0,0,0,0,0,0,-1,741,904,0,0
-476,120,0,0,0,0,0,0,0,0,0,-1,748,904,0,0
-469,120,0,0,0,0,0,0,0,0,0,-1,755,904,0,0
-462,120,0,0,0,0,0,0,0,0,0,-1,762,904,0,0
-455,120,0,0,0,0,0,0,0,0,0,-1,769,904,0,0
-448,120,0,0,0,0,0,0,0,0,0,-1,776,904,0,0
-441,120,0,0,0,0,0,0,0,0,0,-1,783,904,0,0
-434,120,0,0,0,0,0,0,0,0,0,-1,790,904,0,0
-427,120,0,0,0,0,0,0,0,0,0,-1,797,904,0,0
-420,120,0,0,0,0,0,0,0,0,0,-1,804,904,0,0
-413,120,0,0,0,0,0,0,0,0,0,-1,811,904,0,0
-406,120,0,0,0,0,0,0,0,0,0,-1,818,904,0,0
-399,120,0,0,0,0,0,0,0,0,0,-1,825,904,0,0
-392,120,0,0,0,0,0,0,0,0,0,-1,832,904,0,0
-385,120,0,0,0,0,0,0,0,0,0,-1,839,904,0,0
-378,120,0,0,0,0,0,0,0,0,0,-1,846,904,0,0
-371,120,0,0,0,0,0,0,0,0,0,-1,853,904,0,0
-364,120,0,0,0,0,0,0,0,0,0,-1,860,904,0,0
-357,120,0,0,0,0,0,0,0,0,0,-1,867,904,0,0
-350,120,0,0,0,0,0,0,0,0,0,-1,874,904,0,0
-343,120,0,0,0,0,0,0,0,0,0,-1,881,904,0,0
-336,120,0,0,0,0,0,0,0,0,0,-1,888,904,0,0
-329,120,0,0,0,0,0,0,0,0,0,-1,895,904,0,0
-322,120,0,0,0,0,0,0,0,0,0,-1,902,904,0,0
-315,120,0,0,0,0,0,0,0,0,0,-1,909,904,0,0
-308,120,0,0,0,0,0,0,0,0,0,-1,916,904,0,0
-301,120,0,0,0,0,0,0,0,0,0,-1,923,904,0,0
-294,120,0,0,0,0,0,0,0,0,0,-1,930,904,0,0
-287,120,0,0,0,0,0,0,0,0,0,-1,937,904,0,0
-280,120,0,0,0,0,0,0,0,0,0,-1,944,904,0,0
-273,120,0,0,0,0,0,0,0,0,0,-1,951,904,0,0
-266,120,0,0,0,0,0,0,0,0,0,-1,958,904,0,0
-259,120,0,0,0,0,0,0,0,0,0,-1,965,904,0,0
-252,120,0,0,0,0,0,0,0,0,0,-1,972,904,0,0
-245,120,0,0,0,0,0,0,0,0,0,-1,979,904,0,0
-238,120,0,0,0,0,0,0,0,0,0,-1,986,904,0,0
-231,120,0,0,0,0,0,0,0,0,0,-1,993,904,0,0
-224,120,0,0,0,0,0,0,0,0,0,-1,1000,904,0,0
-217,120,0,0,0,0,0,0,0,0,0,-1,1007,904,0,0
-210,120,0,0,0,0,0,0,0,0,0,-1,1014,904,0,0
-203,120,0,0,0,0,0,0,0,0,0,-1,1021,904,0,0
-196,120,0,0,0,0,0,0,0,0,0,-1,1028,904,0,0
-189,120,0,0,0,0,0,0,0,0,0,-1,1035,904,0,0
-182,120,0,0,0,0,0,0,0,0,0,-1,1042,904,0,0
-175,120,0,0,0,0,0,0,0,0,0,-1,1049,904,0,0
-168,120,0,0,0,0,0,0,0,0,0,-1,1056,904,0,0
-161,120,0,0,0,0,0,0,0,0,0,-1,1063,904,0,0
-154,120,0,0,0,0,0,0,0,0,0,-1,1070,904,0,0
-147,120,0,0,0,0,0,0,0,0,0,-1,1077,904,0,0
-140,120,0,0,0,0,0,0,0,0,0,-1,1084,904,0,0
-133,120,0,0,0,0,0,0,0,0,0,-1,1091,904,0,0
-126,120,0,0,0,0,0,0,0,0,0,-1,1098,904,0,0
-119,120,0,0,0,0,0,0,0,0,0,-1,1105,904,0,0
-112,120,0,0,0,0,0,0,0,0,0,-1,1112,904,0,0
-105,120,0,0,0,0,0,0,0,0,0,-1,1119,904,0,0
-98,120,0,0,0,0,0,0,0,0,0,-1,1126,904,0,0
-91,120,0,0,0,0,0,0,0,0,0,-1,1133,904,0,0
-84,120,0,0,0,0,0,0,0,0,0,-1,1140,904,0,0
-77,120,0,0,0,0,0,0,0,0,0,-1,1147,904,0,0
-70,120,0,0,0,0,0,0,0,0,0,-1,1154,904,0,0
-63,120,0,0,0,0,0,0,0,0,0,-1,1161,904,0,0
-56,120,0,0,0,0,0,0,0,0,0,-1,1168,904,0,0
-49,120,0,0,0,0,0,0,0,0,0,-1,1175,904,0,0
-42,120,0,0,0,0,0,0,0,0,0,-1,1182,904,0,0
-35,120,0,0,0,0,0,0,0,0,0,-1,1189,904,0,0
-28,120,0,0,0,0,0,0,0,0,0,-1,1196,904,0,0
-21,120,0,0,0,0,0,0,0,0,0,-1,1203,904,0,0
-14,120,0,0,0,0,0,0,0,0,0,-1,1210,904,0,0
-7,120,0,0,0,0,0,0,0,0,0,-1,1217,904,0,0
0,120,0,0,0,0,0,0,0,0,0,-1,1224,904,0,0
7,120,0,0,0,0,0,0,0,0,0,-1,1231,904,0,0
14,120,0,0,0,0,0,0,0,0,0,-1,1238,904,0,0
21,120,0,0,0,0,0,0,0,0,0,-1,1245,904,0,0
28,120,0,0,0,0,0,0,0,0,0,-1,1252,904,0,0
35,120,0,0,0,0,0,0,0,0,0,-1,1259,904,0,0
42,120,0,0,0,0,0,0,0,0,0,-1,1266,904,0,0
49,120,0,0,0,0,0,0,0,0,0,-1,1273,904,0,0
56,120,0,0,0,0,0,0,0,0,0,-1,1280,904,0,0
63,120,0,0,0,0,0,0,0,0,0,-1,1287,904,0,0
70,120,0,0,0,0,0,0,0,0,0,-1,1294,904,0,0
77,120,0,0,0,0,0,0,0,0,0,-1,1301,904,0,0
84,120,0,0,0,0,0,0,0,0,0,-1,1308,904,0,0
91,120,0,0,0,0,0,0,0,0,0,-1,1315,904,0,0
98,120,0,0,0,0,0,0,0,0,0,-1,1322,904,0,0
105,120,0,0,0,0,0,0,0,0,0,-1,1329,904,0,0
112,120,0,0,0,0,0,0,0,0,0,-1,1336,904,0,0
119,120,0,0,0,0,0,0,0,0,0,-1,1343,904,0,0
126,120,0,0,0,0,0,0,0,0,0,-1,1350,904,0,0
133,120,0,0,0,0,0,0,0,0,0,-1,1357,904,0,0
140,120,0,0,0,0,0,0,0,0,0,-1,1364,904,0,0
147,120,0,0,0,0,0,0,0,0,0,-1,1371,904,0,0
154,120,0,0,0,0,0,0,0,0,0,-1,1378,904,0,0
161,120,0,0,0,0,0,0,0,0,0,-1,1385,904,0,0
168,120,0,0,0,0,0,0,0,0,0,-1,1392,904,0,0
175,120,0,0,0,0,0,0,0,0,0,-1,1399,904,0,0
182,120,0,0,0,0,0,0,0,0,0,-1,1406,904,0,0
189,120,0,0,0,0,0,0,0,0,0,-1,1413,904,0,0
196,120,0,0,0,0,0,0,0,0,0,-1,1420,904,0,0
203,120,0,0,0,0,0,0,0,0,0,-1,1427,904,0,0
210,120,0,0,0,0,0,0,0,0,0,-1,1434,904,0,0
217,120,0,0,0,0,0,0,0,0,0,-1,1441,904,0,0
224,120,0,0,0,0,0,0,0,0,0,-1,1448,904,0,0
231,120,0,0,0,0,0,0,0,0,0,-1,1455,904,0,0
238,120,0,0,0,0,0,0,0,0,0,-1,1462,904,0,0
245,120,0,0,0,0,0,0,0,0,0,-1,1469,904,0,0
252,120,0,0,0,0,0,0,0,0,0,-1,1476,904,0,0
259,120,0,0,0,0,0,0,0,0,0,-1,1483,904,0,0
266,120,0,0,0,0,0,0,0,0,0,-1,1490,904,0,0
273,120,0,0,0,0,0,0,0,0,0,-1,1497,904,0,0
280,120,0,0,0,0,0,0,0,0,0,-1,1504,904,0,0
287,120,0,0,0,0,0,0,0,0,0,-1,1511,904,0,0
294,120,0,0,0,0,0,0,0,0,0,-1,1518,904,0,0
301,120,0,0,0,0,0,0,0,0,0,-1,1525,904,0,0
308,120,0,0,0,0,0,0,0,0,0,-1,1532,904,0,0
315,120,0,0,0,0,0,0,0,0,0,-1,1539,904,0,0
322,120,0,0,0,0,0,0,0,0,0,-1,1546,904,0,0
329,120,0,0,0,0,0,0,0,0,0,-1,1553,904,0,0
336,120,0,0,0,0,0,0,0,0,0,-1,1560,904,0,0
343,120,0,0,0,0,0,0,0,0,0,-1,1567,904,0,0
350,120,0,0,0,0,0,0,0,0,0,-1,1574,904,0,0
357,120,0,0,0,0,0,0,0,0,0,-1,1581,904,0,0
364,120,0,0,0,0,0,0,0,0,0,-1,1588,904,0,0
371,120,0,0,0,0,0,0,0,0,0,-1,1595,904,0,0
378,120,0,0,0,0,0,0,0,0,0,-1,1602,904,0,0
385,120,0,0,0,0,0,0,0,0,0,-1,1609,904,0,0
392,120,0,0,0,0,0,0,0,0,0,-1,1616,904,0,0
399,120,0,0,0,0,0,0,0,0,0,-1,1623,904,0,0
406,120,0,0,0,0,0,0,0,0,0,-1,1630,904,0,0
413,120,0,0,0,0,0,0,0,0,0,-1,1637,904,0,0
420,120,0,0,0,0,0,0,0,0,0,-1,1644,904,0,0
427,120,0,0,0,0,0,0,0,0,0,-1,1651,904,0,0
434,120,0,0,0,0,0,0,0,0,0,-1,1658,904,0,0
441,120,0,0,0,0,0,0,0,0,0,-1,1665,904,0,0
448,120,0,0,0,0,0,0,0,0,0,-1,1672,904,0,0
455,120,0,0,0,0,0,0,0,0,0,-1,1679,904,0,0
462,120,0,0,0,0,0,0,0,0,0,-1,1686,904,0,0
469,120,0,0,0,0,0,0,0,0,0,-1,1693,904,0,0
476,120,0,0,0,0,0,0,0,0,0,-1,1700,904,0,0
483,120,0,0,0,0,0,0,0,0,0,-1,1707,904,0,0
490,120,0,0,0,0,0,0,0,0,0,-1,1714,904,0,0
497,120,0,0,0,0,0,0,0,0,0,-1,1721,904,0,0
504,120,0,0,0,0,0,0,0,0,0,-1,1728,904,0,0
511,120,0,0,0,0,0,0,0,0,0,-1,1735,904,0,0
518,120,0,0,0,0,0,0,0,0,0,-1,1742,904,0,0
525,120,0,0,0,0,0,0,0,0,0,-1,1749,904,0,0
532,120,0,0,0,0,0,0,0,0,0,-1,1756,904,0,0
539,120,0,0,0,0,0,0,0,0,0,-1,1763,904,0,0
546,120,0,0,0,0,0,0,0,0,0,-1,1770,904,0,0
553,120,0,0,0,0,0,0,0,0,0,-1,1777,904,0,0
560,120,0,0,0,0,0,0,0,0,0,-1,1784,904,0,0
567,120,0,0,0,0,0,0,0,0,0,-1,1791,904,0,0
574,120,0,0,0,0,0,0,0,0,0,-1,1798,904,0,0
581,120,0,0,0,0,0,0,0,0,0,-1,1805,904,0,0
588,120,0,0,0,0,0,0,0,0,0,-1,1812,904,0,0
595,120,0,0,0,0,0,0,0,0,0,-1,1819,904,0,0
602,120,0,0,0,0,0,0,0,0,0,-1,1826,904,0,0
609,120,0,0,0,0,0,0,0,0,0,-1,1833,904,0,0
616,120,0,0,0,0,0,0,0,0,0,-1,1840,904,0,0
623,120,0,0,0,0,0,0,0,0,0,-1,1847,904,0,0
630,120,61.4192,2.61914,-0.000617917,0.00612022,1.95639e-05,0.00612027,-0.000617974,1.56789,0.004301,0.0414642,1854,904,61.4192,-2.61914
637,120,61.4346,2.53278,-0.000565391,0.00512662,8.48148e-05,0.00512788,-0.000566654,1.5559,0.00362228,0.0426225,1861,904,61.4346,-2.53278
644,120,61.5229,2.31183,-0.000716365,0.00420937,0.000171677,0.00421535,-0.000722341,1.536,0.00307938,0.0406903,1868,904,61.523,-2.31183
651,120,61.4182,2.49359,-0.000971962,0.003442,0.000259666,0.00345722,-0.000987186,1.51224,0.00269484,0.0402095,1875,904,61.4182,-2.49359
658,120,61.4584,2.56976,-0.00135765,0.00283034,0.000279366,0.00284889,-0.0013762,1.50448,0.00248826,0.0414145,1882,904,61.4583,-2.56976
665,120,61.4431,2.67438,-0.00173727,0.00217974,0.000413939,0.002223,-0.00178054,1.46665,0.00231615,0.0382523,1889,904,61.4431,-2.67439
672,120,61.4694,2.69373,-0.00201119,0.00159693,0.000386773,0.00163792,-0.00205218,1.4652,0.00213495,0.0361716,1896,904,61.4694,-2.69375
679,120,61.4872,2.7016,-0.00221027,0.00105578,0.000330184,0.00108883,-0.00224332,1.47105,0.00196193,0.0320442,1903,904,61.4871,-2.70159
686,120,61.4531,2.71326,-0.00244631,0.000622116,0.000236852,0.000640291,-0.00246449,1.49421,0.00189287,0.0290323,1910,904,61.4531,-2.71323
693,120,61.4926,2.63574,0,0,0,0,0,0,0,-1,1917,904,61.4926,-2.63572
700,120,42.2007,3.00946,0,0,0,0,0,0,0,-1,1924,904,42.2007,-3.00944
707,120,54.7539,3.37299,0,0,0,0,0,0,0,-1,1931,904,54.7539,-3.37301
714,120,54.9547,4.06128,-0.00279825,0.000396359,-0.000437074,0.000455078,-0.00285697,-1.43725,0.00207306,0.025268,1938,904,54.9547,-4.0613
721,120,54.8936,4.66205,-0.00262959,0.000631691,-0.000698527,0.000775008,-0.00277291,-1.36843,0.00215393,0.0216823,1945,904,54.8936,-4.66202
728,120,54.7751,5.27728,-0.00274236,0.000986971,-0.000775488,0.0011418,-0.00289719,-1.37373,0.00240421,0.0147158,1952,904,54.7751,-5.27727
735,120,54.7175,5.82269,-0.0024864,0.00175852,-0.000926673,0.001952,-0.00267987,-1.36497,0.00268519,0.0137964,1959,904,54.7176,-5.82268
742,120,54.6718,6.46472,-0.00141212,0.00305629,-0.00136808,0.00344188,-0.00179771,-1.29608,0.00307433,0.0137494,1966,904,54.6717,-6.46469
749,120,54.6614,7.0473,0.000734051,0.00442442,-0.00209443,0.00537053,-0.000212064,-1.14651,0.00365309,0.0105429,1973,904,54.6613,-7.0473
756,120,54.593,7.62189,0.00366521,0.00570948,-0.00282273,0.00768944,0.00168525,-0.959108,0.00466709,0.0140794,1980,904,54.5931,-7.62188
763,120,54.4788,8.2063,0.00780557,0.00623795,-0.00410449,0.0112004,0.0028431,-0.691052,0.00672272,0.0309407,1987,904,54.4788,-8.20631
770,120,54.3706,8.80298,0,0,0,0,0,0,0,-1,1994,904,54.3705,-8.80297
777,120,59.313,9.57587,0,0,0,0,0,0,0,-1,2001,904,59.3129,-9.57587
784,120,59.6865,9.48816,0,0,0,0,0,0,0,-1,2008,904,59.6864,-9.48817
791,120,59.6704,10.6207,0,0,0,0,0,0,0,-1,2015,904,59.6704,-10.6208
798,120,60.4915,9.83624,0,0,0,0,0,0,0,-1,2022,904,60.4915,-9.83625
805,120,0,0,0,0,0,0,0,0,0,-1,2029,904,0,0
812,120,0,0,0,0,0,0,0,0,0,-1,2036,904,0,0
-700,113,0,0,0,0,0,0,0,0,0,-1,524,911,0,0
-693,113,0,0,0,0,0,0,0,0,0,-1,531,911,0,0
-686,113,0,0,0,0,0,0,0,0,0,-1,538,911,0,0
-679,113,-49.2363,-1.86841,0,0,0,0,0,0,0,-1,545,911,-49.2363,1.86842
-672,113,-49.6985,-2.78406,0,0,0,0,0,0,0,-1,552,911,-49.6985,2.78409
-665,113,-49.3706,-3.92743,0,0,0,0,0,0,0,-1,559,911,-49.3706,3.92744
-658,113,-48.5634,-1.70172,0,0,0,0,0,0,0,-1,566,911,-48.5634,1.70171
-651,113,-48.0294,-1.11536,0,0,0,0,0,0,0,-1,573,911,-48.0294,1.11538
-644,113,-41.6244,6.59979,0,0,0,0,0,0,0,-1,580,911,-41.6244,-6.5998
-637,113,-41.6924,6.04895,-0.0265809,0.00320574,-0.0118234,0.00732832,-0.0307035,-1.2353,0.0232991,0.045149,587,911,-41.6924,-6.04892
-630,113,-41.6312,5.6394,-0.020906,0.00393558,-0.0064527,0.0055117,-0.0224821,-1.33123,0.0171236,0.0213069,594,911,-41.6312,-5.63939
-623,113,-41.7482,5.07721,-0.015808,0.00418243,-0.00163846,0.00431583,-0.0159414,-1.48956,0.0123208,0.0127977,601,911,-41.7482,-5.07722
-616,113,-41.7624,4.51868,-0.0110866,0.00326079,0.0018125,0.00348622,-0.011312,1.44706,0.00893314,0.011276,608,911,-41.7624,-4.51866
-609,113,-41.7604,3.9986,-0.00832272,0.00262759,0.0029387,0.00336639,-0.00906153,1.3245,0.00742214,0.0117487,615,911,-41.7605,-3.99858
-602,113,-41.7853,3.42645,-0.00708972,0.00161351,0.00278225,0.00242692,-0.00790313,1.28637,0.00623715,0.0194679,622,911,-41.7853,-3.42643
-595,113,-41.8298,2.97339,-0.006476,0.000964099,0.00216265,0.00154705,-0.00705895,1.3075,0.00529749,0.0269253,629,911,-41.8298,-2.97336
-588,113,-41.784,2.38751,-0.00612007,0.000603257,0.00161348,0.000970414,-0.00648722,1.34705,0.00468193,0.0335123,636,911,-41.784,-2.38749
-581,113,-41.8113,1.81146,-0.00597419,0.000522273,0.00138281,0.000804362,-0.00625628,1.36956,0.0044632,0.0340195,643,911,-41.8113,-1.81145
-574,113,-41.8036,1.04449,0,0,0,0,0,0,0,-1,650,911,-41.8036,-1.04447
-567,113,-21.8396,0.437378,0,0,0,0,0,0,0,-1,657,911,-21.8396,-0.437351
-560,113,-46.6228,1.20905,0,0,0,0,0,0,0,-1,664,911,-46.6228,-1.20907
-553,113,-46.6409,1.18555,-0.00475179,-0.000507078,-0.000225919,-0.000495088,-0.00476378,-1.51777,0.00302436,0.0465144,671,911,-46.6408,-1.18557
-546,113,-46.608,0.895081,-0.00461929,-0.000357778,-0.000683437,-0.000250855,-0.00472622,-1.41561,0.00307061,0.0369809,678,911,-46.608,-0.895078
-539,113,-46.5212,0.746094,-0.0041601,-0.000273814,-0.00101361,-2.53348e-05,-0.00440858,-1.33039,0.00293064,0.0372948,685,911,-46.5212,-0.746081
-532,113,-46.6169,0.915955,-0.00270667,-0.000564502,-0.000976001,-0.000186517,-0.00308465,-1.2013,0.00199717,0.037705,692,911,-46.6169,-0.915975
-525,113,-46.7233,0.901794,-0.00131143,-0.00194044,-0.000409684,-0.00110945,-0.00214241,-0.45804,0.00123719,0.0373992,699,911,-46.7233,-0.901783
-518,113,-46.7991,0.8974,-0.000916001,-0.00362741,8.58376e-05,-0.000913287,-0.00363013,0.0316157,0.00218037,0.0403993,706,911,-46.7991,-0.897429
-511,113,-46.8688,0.698792,-0.000687351,-0.00488326,-3.67375e-05,-0.000687029,-0.00488358,-0.00875464,0.00305259,0.0412927,713,911,-46.8688,-0.698791
-504,113,0,0,0,0,0,0,0,0,0,-1,720,911,0,0
-497,113,0,0,0,0,0,0,0,0,0,-1,727,911,0,0
-490,113,0,0,0,0,0,0,0,0,0,-1,734,911,0,0
-483,113,0,0,0,0,0,0,0,0,0,-1,741,911,0,0
-476,113,0,0,0,0,0,0,0,0,0,-1,748,911,0,0
-469,113,0,0,0,0,0,0,0,0,0,-1,755,911,0,0
-462,113,0,0,0,0,0,0,0,0,0,-1,762,911,0,0
-455,113,0,0,0,0,0,0,0,0,0,-1,769,911,0,0
-448,113,0,0,0,0,0,0,0,0,0,-1,776,911,0,0
-441,113,0,0,0,0,0,0,0,0,0,-1,783,911,0,0
-434,113,0,0,0,0,0,0,0,0,0,-1,790,911,0,0
-427,113,0,0,0,0,0,0,0,0,0,-1,797,911,0,0
-420,113,0,0,0,0,0,0,0,0,0,-1,804,911,0,0
-413,113,0,0,0,0,0,0,0,0,0,-1,811,911,0,0
-406,113,0,0,0,0,0,0,0,0,0,-1,818,911,0,0
-399,113,0,0,0,0,0,0,0,0,0,-1,825,911,0,0
-392,113,0,0,0,0,0,0,0,0,0,-1,832,911,0,0
-385,113,0,0,0,0,0,0,0,0,0,-1,839,911,0,0
-378,113,0,0,0,0,0,0,0,0,0,-1,846,911,0,0
-371,113,0,0,0,0,0,0,0,0,0,-1,853,911,0,0
-364,113,0,0,0,0,0,0,0,0,0,-1,860,911,0,0
-357,113,0,0,0,0,0,0,0,0,0,-1,867,911,0,0
-350,113,0,0,0,0,0,0,0,0,0,-1,874,911,0,0
-343,113,0,0,0,0,0,0,0,0,0,-1,881,911,0,0
-336,113,0,0,0,0,0,0,0,0,0,-1,888,911,0,0
-329,113,0,0,0,0,0,0,0,0,0,-1,895,911,0,0
-322,113,0,0,0,0,0,0,0,0,0,-1,902,911,0,0
-315,113,0,0,0,0,0,0,0,0,0,-1,909,911,0,0
-308,113,0,0,0,0,0,0,0,0,0,-1,916,911,0,0
-301,113,0,0,0,0,0,0,0,0,0,-1,923,911,0,0
-294,113,0,0,0,0,0,0,0,0,0,-1,930,911,0,0
-287,113,0,0,0,0,0,0,0,0,0,-1,937,911,0,0
-280,113,0,0,0,0,0,0,0,0,0,-1,944,911,0,0
-273,113,0,0,0,0,0,0,0,0,0,-1,951,911,0,0
-266,113,0,0,0,0,0,0,0,0,0,-1,958,911,0,0
-259,113,0,0,0,0,0,0,0,0,0,-1,965,911,0,0
-252,113,0,0,0,0,0,0,0,0,0,-1,972,911,0,0
-245,113,0,0,0,0,0,0,0,0,0,-1,979,911,0,0
-238,113,0,0,0,0,0,0,0,0,0,-1,986,911,0,0
-231,113,0,0,0,0,0,0,0,0,0,-1,993,911,0,0
-224,113,0,0,0,0,0,0,0,0,0,-1,1000,911,0,0
-217,113,0,0,0,0,0,0,0,0,0,-1,1007,911,0,0
-210,113,0,0,0,0,0,0,0,0,0,-1,1014,911,0,0
-203,113,0,0,0,0,0,0,0,0,0,-1,1021,911,0,0
-196,113,0,0,0,0,0,0,0,0,0,-1,1028,911,0,0
-189,113,0,0,0,0,0,0,0,0,0,-1,1035,911,0,0
-182,113,0,0,0,0,0,0,0,0,0,-1,1042,911,0,0
-175,113,0,0,0,0,0,0,0,0,0,-1,1049,911,0,0
-168,113,0,0,0,0,0,0,0,0,0,-1,1056,911,0,0
-161,113,0,0,0,0,0,0,0,0,0,-1,1063,911,0,0
-154,113,0,0,0,0,0,0,0,0,0,-1,1070,911,0,0
-147,113,0,0,0,0,0,0,0,0,0,-1,1077,911,0,0
-140,113,0,0,0,0,0,0,0,0,0,-1,1084,911,0,0
-133,113,0,0,0,0,0,0,0,0,0,-1,1091,911,0,0
-126,113,0,0,0,0,0,0,0,0,0,-1,1098,911,0,0
-119,113,0,0,0,0,0,0,0,0,0,-1,1105,911,0,0
-112,113,0,0,0,0,0,0,0,0,0,-1,1112,911,0,0
-105,113,0,0,0,0,0,0,0,0,0,-1,1119,911,0,0
-98,113,0,0,0,0,0,0,0,0,0,-1,1126,911,0,0
-91,113,0,0,0,0,0,0,0,0,0,-1,1133,911,0,0
-84,113,0,0,0,0,0,0,0,0,0,-1,1140,911,0,0
-77,113,0,0,0,0,0,0,0,0,0,-1,1147,911,0,0
-70,113,0,0,0,0,0,0,0,0,0,-1,1154,911,0,0
-63,113,0,0,0,0,0,0,0,0,0,-1,1161,911,0,0
-56,113,0,0,0,0,0,0,0,0,0,-1,1168,911,0,0
-49,113,0,0,0,0,0,0,0,0,0,-1,1175,911,0,0
-42,113,0,0,0,0,0,0,0,0,0,-1,1182,911,0,0
-35,113,0,0,0,0,0,0,0,0,0,-1,1189,911,0,0
-28,113,0,0,0,0,0,0,0,0,0,-1,1196,911,0,0
-21,113,0,0,0,0,0,0,0,0,0,-1,1203,911,0,0
-14,113,0,0,0,0,0,0,0,0,0,-1,1210,911,0,0
-7,113,0,0,0,0,0,0,0,0,0,-1,1217,911,0,0
0,113,0,0,0,0,0,0,0,0,0,-1,1224,911,0,0
7,113,0,0,0,0,0,0,0,0,0,-1,1231,911,0,0
14,113,0,0,0,0,0,0,0,0,0,-1,1238,911,0,0
21,113,0,0,0,0,0,0,0,0,0,-1,1245,911,0,0
28,113,0,0,0,0,0,0,0,0,0,-1,1252,911,0,0
35,113,0,0,0,0,0,0,0,0,0,-1,1259,911,0,0
42,113,0,0,0,0,0,0,0,0,0,-1,1266,911,0,0
49,113,0,0,0,0,0,0,0,0,0,-1,1273,911,0,0
56,113,0,0,0,0,0,0,0,0,0,-1,1280,911,0,0
63,113,0,0,0,0,0,0,0,0,0,-1,1287,911,0,0
70,113,0,0,0,0,0,0,0,0,0,-1,1294,911,0,0
77,113,0,0,0,0,0,0,0,0,0,-1,1301,911,0,0
84,113,0,0,0,0,0,0,0,0,0,-1,1308,911,0,0
91,113,0,0,0,0,0,0,0,0,0,-1,1315,911,0,0
98,113,0,0,0,0,0,0,0,0,0,-1,1322,911,0,0
105,113,0,0,0,0,0,0,0,0,0,-1,1329,911,0,0
112,113,0,0,0,0,0,0,0,0,0,-1,1336,911,0,0
119,113,0,0,0,0,0,0,0,0,0,-1,1343,911,0,0
126,113,0,0,0,0,0,0,0,0,0,-1,1350,911,0,0
133,113,0,0,0,0,0,0,0,0,0,-1,1357,911,0,0
140,113,0,0,0,0,0,0,0,0,0,-1,1364,911,0,0
147,113,0,0,0,0,0,0,0,0,0,-1,1371,911,0,0
154,113,0,0,0,0,0,0,0,0,0,-1,1378,911,0,0
161,113,0,0,0,0,0,0,0,0,0,-1,1385,911,0,0
168,113,0,0,0,0,0,0,0,0,0,-1,1392,911,0,0
175,113,0,0,0,0,0,0,0,0,0,-1,1399,911,0,0
182,113,0,0,0,0,0,0,0,0,0,-1,1406,911,0,0
189,113,0,0,0,0,0,0,0,0,0,-1,1413,911,0,0
196,113,0,0,0,0,0,0,0,0,0,-1,1420,911,0,0
203,113,0,0,0,0,0,0,0,0,0,-1,1427,911,0,0
210,113,0,0,0,0,0,0,0,0,0,-1,1434,911,0,0
217,113,0,0,0,0,0,0,0,0,0,-1,1441,911,0,0
224,113,0,0,0,0,0,0,0,0,0,-1,1448,911,0,0
231,113,0,0,0,0,0,0,0,0,0,-1,1455,911,0,0
238,113,0,0,0,0,0,0,0,0,0,-1,1462,911,0,0
245,113,0,0,0,0,0,0,0,0,0,-1,1469,911,0,0
252,113,0,0,0,0,0,0,0,0,0,-1,1476,911,0,0
259,113,0,0,0,0,0,0,0,0,0,-1,1483,911,0,0
266,113,0,0,0,0,0,0,0,0,0,-1,1490,911,0,0
273,113,0,0,0,0,0,0,0,0,0,-1,1497,911,0,0
280,113,0,0,0,0,0,0,0,0,0,-1,1504,911,0,0
287,113,0,0,0,0,0,0,0,0,0,-1,1511,911,0,0
294,113,0,0,0,0,0,0,0,0,0,-1,1518,911,0,0
301,113,0,0,0,0,0,0,0,0,0,-1,1525,911,0,0
308,113,0,0,0,0,0,0,0,0,0,-1,1532,911,0,0
315,113,0,0,0,0,0,0,0,0,0,-1,1539,911,0,0
322,113,0,0,0,0,0,0,0,0,0,-1,1546,911,0,0
329,113,0,0,0,0,0,0,0,0,0,-1,1553,911,0,0
336,113,0,0,0,0,0,0,0,0,0,-1,1560,911,0,0
343,113,0,0,0,0,0,0,0,0,0,-1,1567,911,0,0
350,113,0,0,0,0,0,0,0,0,0,-1,1574,911,0,0
357,113,0,0,0,0,0,0,0,0,0,-1,1581,911,0,0
364,113,0,0,0,0,0,0,0,0,0,-1,1588,911,0,0
371,113,0,0,0,0,0,0,0,0,0,-1,1595,911,0,0
378,113,0,0,0,0,0,0,0,0,0,-1,1602,911,0,0
385,113,0,0,0,0,0,0,0,0,0,-1,1609,911,0,0
392,113,0,0,0,0,0,0,0,0,0,-1,1616,911,0,0
399,113,0,0,0,0,0,0,0,0,0,-1,1623,911,0,0
406,113,0,0,0,0,0,0,0,0,0,-1,1630,911,0,0
413,113,0,0,0,0,0,0,0,0,0,-1,1637,911,0,0
420,113,0,0,0,0,0,0,0,0,0,-1,1644,911,0,0
427,113,0,0,0,0,0,0,0,0,0,-1,1651,911,0,0
434,113,0,0,0,0,0,0,0,0,0,-1,1658,911,0,0
441,113,0,0,0,0,0,0,0,0,0,-1,1665,911,0,0
448,113,0,0,0,0,0,0,0,0,0,-1,1672,911,0,0
455,113,0,0,0,0,0,0,0,0,0,-1,1679,911,0,0
462,113,0,0,0,0,0,0,0,0,0,-1,1686,911,0,0
469,113,0,0,0,0,0,0,0,0,0,-1,1693,911,0,0
476,113,0,0,0,0,0,0,0,0,0,-1,1700,911,0,0
483,113,0,0,0,0,0,0,0,0,0,-1,1707,911,0,0
490,113,0,0,0,0,0,0,0,0,0,-1,1714,911,0,0
497,113,0,0,0,0,0,0,0,0,0,-1,1721,911,0,0
504,113,0,0,0,0,0,0,0,0,0,-1,1728,911,0,0
511,113,0,0,0,0,0,0,0,0,0,-1,1735,911,0,0
518,113,0,0,0,0,0,0,0,0,0,-1,1742,911,0,0
525,113,0,0,0,0,0,0,0,0,0,-1,1749,911,0,0
532,113,0,0,0,0,0,0,0,0,0,-1,1756,911,0,0
539,113,0,0,0,0,0,0,0,0,0,-1,1763,911,0,0
546,113,0,0,0,0,0,0,0,0,0,-1,1770,911,0,0
553,113,0,0,0,0,0,0,0,0,0,-1,1777,911,0,0
560,113,0,0,0,0,0,0,0,0,0,-1,1784,911,0,0
567,113,0,0,0,0,0,0,0,0,0,-1,1791,911,0,0
574,113,0,0,0,0,0,0,0,0,0,-1,1798,911,0,0
581,113,0,0,0,0,0,0,0,0,0,-1,1805,911,0,0
588,113,0,0,0,0,0,0,0,0,0,-1,1812,911,0,0
595,113,0,0,0,0,0,0,0,0,0,-1,1819,911,0,0
602,113,0,0,0,0,0,0,0,0,0,-1,1826,911,0,0
609,113,0,0,0,0,0,0,0,0,0,-1,1833,911,0,0
616,113,0,0,0,0,0,0,0,0,0,-1,1840,911,0,0
623,113,0,0,0,0,0,0,0,0,0,-1,1847,911,0,0
630,113,61.5094,2.68365,-0.00125068,0.00645005,-0.000332006,0.00646434,-0.00126497,-1.52779,0.00478725,0.0392643,1854,911,61.5094,-2.68368
637,113,61.4547,2.65985,-0.00103284,0.00529848,-7.05679e-05,0.00529927,-0.00103363,-1.55965,0.00392304,0.0384008,1861,911,61.4547,-2.65986
644,113,61.413,2.58234,-0.00109947,0.00429664,0.000128216,0.00429968,-0.00110252,1.54705,0.00329601,0.0367377,1868,911,61.413,-2.58235
651,113,61.4783,2.4577,-0.00129793,0.0035048,0.000314447,0.0035253,-0.00131843,1.50569,0.00289167,0.0397187,1875,911,61.4783,-2.45768
658,113,61.59,2.55072,-0.00161622,0.00291701,0.00048756,0.00296886,-0.00166807,1.46486,0.00271202,0.0419769,1882,911,61.59,-2.55074
665,113,61.4611,2.80157,-0.00191771,0.00233178,0.0007187,0.00245004,-0.00203597,1.40771,0.00259367,0.038268,1889,911,61.4611,-2.8016
672,113,61.4165,2.81519,-0.00221227,0.00175405,0.000807298,0.00191207,-0.00237029,1.3775,0.00247714,0.0363163,1896,911,61.4165,-2.81521
679,113,61.4581,2.75244,-0.00242085,0.00116057,0.00081409,0.00133693,-0.00259721,1.35745,0.0023099,0.0301317,1903,911,61.4581,-2.75241
686,113,61.4808,2.76483,-0.00260077,0.000657535,0.000704407,0.000803299,-0.00274654,1.36675,0.00214942,0.0267287,1910,911,61.4808,-2.76485
693,113,61.3325,2.86749,0,0,0,0,0,0,0,-1,1917,911,61.3325,-2.86752
700,113,43.897,2.79669,0,0,0,0,0,0,0,-1,1924,911,43.897,-2.79671
707,113,55.3057,3.43542,0,0,0,0,0,0,0,-1,1931,911,55.3056,-3.43545
714,113,55.4076,4.01733,-0.00296964,0.000508232,-0.000146386,0.000514383,-0.00297579,-1.5288,0.00217568,0.027834,1938,911,55.4075,-4.01731
721,113,55.4281,4.61853,-0.00286399,0.000740141,-0.000429277,0.000790565,-0.00291441,-1.45387,0.00225318,0.0246046,1945,911,55.4281,-4.61851
728,113,55.4684,5.27924,-0.00307592,0.00106628,-0.000543409,0.00113639,-0.00314602,-1.4425,0.00256159,0.0255511,1952,911,55.4684,-5.27925
735,113,55.3574,5.86029,-0.00292153,0.00184823,-0.000825089,0.00198692,-0.00306022,-1.40426,0.00293585,0.0216955,1959,911,55.3574,-5.86029
742,113,55.281,6.43427,-0.00200664,0.00314941,-0.00145858,0.00353342,-0.00239065,-1.31336,0.00344141,0.0128657,1966,911,55.281,-6.43427
749,113,55.2947,7.03693,-9.38144e-05,0.00462191,-0.0023841,0.00561717,-0.00108908,-1.17533,0.00415565,0.00954381,1973,911,55.2947,-7.03693
756,113,55.2267,7.65497,0.00258998,0.00609039,-0.00325647,0.00803719,0.00064318,-1.03198,0.00515712,0.0154946,1980,911,55.2267,-7.65499
763,113,55.0806,8.42078,0.00649179,0.00683071,-0.00458346,0.0112478,0.00207466,-0.803876,0.00691159,0.0380293,1987,911,55.0805,-8.42077
770,113,55.0015,9.20319,0,0,0,0,0,0,0,-1,1994,911,55.0015,-9.20316
777,113,57.8459,8.4209,0,0,0,0,0,0,0,-1,2001,911,57.846,-8.42088
784,113,58.3684,8.81262,0,0,0,0,0,0,0,-1,2008,911,58.3684,-8.81265
791,113,59.0164,9.93365,0,0,0,0,0,0,0,-1,2015,911,59.0162,-9.93365
798,113,56.0337,9.69434,0,0,0,0,0,0,0,-1,2022,911,56.0336,-9.69434
805,113,0,0,0,0,0,0,0,0,0,-1,2029,911,0,0
812,113,0,0,0,0,0,0,0,0,0,-1,2036,911,0,0
-700,106,0,0,0,0,0,0,0,0,0,-1,524,918,0,0
-693,106,0,0,0,0,0,0,0,0,0,-1,531,918,0,0
-686,106,0,0,0,0,0,0,0,0,0,-1,538,918,0,0
-679,106,-49.1374,-1.57178,-0.0506027,-0.0203423,-0.0699287,0.0360743,-0.107019,-0.891939,0.0859331,0.0420128,545,918,-49.1374,1.57176
-672,106,-49.3946,-2.2038,0,0,0,0,0,0,0,-1,552,918,-49.3946,2.20381
-665,106,-49.4762,-2.86334,0,0,0,0,0,0,0,-1,559,918,-49.4762,2.86333
-658,106,-48.2582,-1.1676,0,0,0,0,0,0,0,-1,566,918,-48.2582,1.16757
-651,106,-41.1808,7.17084,0,0,0,0,0,0,0,-1,573,918,-41.1809,-7.17081
-644,106,-41.5173,6.67633,-0.0308534,0.00169939,-0.0150893,0.00761773,-0.0367718,-1.19701,0.0274089,0.0477224,580,918,-41.5173,-6.67633
-637,106,-41.8358,6.22803,-0.0251931,0.00326387,-0.00892679,0.00583233,-0.0277616,-1.29064,0.0207272,0.034867,587,918,-41.8358,-6.22804
-630,106,-42.1746,5.69293,-0.0197034,0.00406919,-0.00407571,0.00474854,-0.0203828,-1.40563,0.0154171,0.0170695,594,918,-42.1746,-5.69294
-623,106,-42.3583,5.03046,-0.0149673,0.00429847,-3.86835e-05,0.00429854,-0.0149674,-1.56879,0.0116779,0.0176541,601,918,-42.3584,-5.03046
-616,106,-42.4142,4.46594,-0.0107473,0.00329335,0.00255046,0.00374229,-0.0111962,1.39656,0.00897553,0.017082,608,918,-42.4142,-4.46592
-609,106,-42.3895,3.97516,-0.00833455,0.00261959,0.00319037,0.00348103,-0.009196,1.30707,0.00756293,0.0124507,615,918,-42.3895,-3.97518
-602,106,-42.4128,3.42261,-0.00718794,0.00170991,0.0027588,0.00249586,-0.0079739,1.29326,0.0063145,0.0200829,622,918,-42.4128,-3.42259
-595,106,-42.5688,2.91974,-0.00653885,0.0010836,0.00206885,0.00160892,-0.00706416,1.32214,0.00532736,0.0256594,629,918,-42.5688,-2.91974
-588,106,-42.6812,2.38403,0,0,0,0,0,0,0,-1,636,918,-42.6812,-2.38404
-581,106,-42.3779,1.74207,0,0,0,0,0,0,0,-1,643,918,-42.3779,-1.74207
-574,106,-42.4599,1.15967,0,0,0,0,0,0,0,-1,650,918,-42.4599,-1.15969
-567,106,-41.3706,0.420776,0,0,0,0,0,0,0,-1,657,918,-41.3706,-0.420794
-560,106,-46.6517,0.859192,0,0,0,0,0,0,0,-1,664,918,-46.6517,-0.859222
-553,106,-46.6937,1.00775,-0.00500654,-0.000287866,-0.000182933,-0.000280785,-0.00501363,-1.53211,0.00325286,0.0359286,671,918,-46.6937,-1.00773
-546,106,-46.735,0.881409,-0.00483521,-0.000194975,-0.000497814,-0.000142169,-0.00488801,-1.46512,0.00321234,0.03847,678,918,-46.735,-0.881385
-539,106,-46.6743,0.582397,-0.00425908,-0.000230483,-0.000599458,-0.000143176,-0.00434639,-1.42617,0.00285107,0.0404247,685,918,-46.6743,-0.582424
-532,106,-46.6239,0.617126,-0.00274704,-0.000852842,-0.000212922,-0.000829203,-0.00277068,-1.46023,0.00164206,0.0410591,692,918,-46.6239,-0.617109
-525,106,-46.8439,0.983704,-0.00146112,-0.00262997,0.00060901,-0.00120148,-0.00288961,0.402999,0.00167618,0.0376729,699,918,-46.8439,-0.983699
-518,106,-46.7834,0.962158,-0.00125544,-0.00446575,0.00110653,-0.000911,-0.0048102,0.301776,0.00295039,0.0384906,706,918,-46.7834,-0.962173
-511,106,0,0,0,0,0,0,0,0,0,-1,713,918,0,0
-504,106,0,0,0,0,0,0,0,0,0,-1,720,918,0,0
-497,106,0,0,0,0,0,0,0,0,0,-1,727,918,0,0
-490,106,0,0,0,0,0,0,0,0,0,-1,734,918,0,0
-483,106,0,0,0,0,0,0,0,0,0,-1,741,918,0,0
-476,106,0,0,0,0,0,0,0,0,0,-1,748,918,0,0
-469,106,0,0,0,0,0,0,0,0,0,-1,755,918,0,0
-462,106,0,0,0,0,0,0,0,0,0,-1,762,918,0,0
-455,106,0,0,0,0,0,0,0,0,0,-1,769,918,0,0
-448,106,0,0,0,0,0,0,0,0,0,-1,776,918,0,0
-441,106,0,0,0,0,0,0,0,0,0,-1,783,918,0,0
-434,106,0,0,0,0,0,0,0,0,0,-1,790,918,0,0
-427,106,0,0,0,0,0,0,0,0,0,-1,797,918,0,0
-420,106,0,0,0,0,0,0,0,0,0,-1,804,918,0,0
-413,106,0,0,0,0,0,0,0,0,0,-1,811,918,0,0
-406,106,0,0,0,0,0,0,0,0,0,-1,818,918,0,0
-399,106,0,0,0,0,0,0,0,0,0,-1,825,918,0,0
-392,106,0,0,0,0,0,0,0,0,0,-1,832,918,0,0
-385,106,0,0,0,0,0,0,0,0,0,-1,839,918,0,0
-378,106,0,0,0,0,0,0,0,0,0,-1,846,918,0,0
-371,106,0,0,0,0,0,0,0,0,0,-1,853,918,0,0
-364,106,0,0,0,0,0,0,0,0,0,-1,860,918,0,0
-357,106,0,0,0,0,0,0,0,0,0,-1,867,918,0,0
-350,106,0,0,0,0,0,0,0,0,0,-1,874,918,0,0
-343,106,0,0,0,0,0,0,0,0,0,-1,881,918,0,0
-336,106,0,0,0,0,0,0,0,0,0,-1,888,918,0,0
-329,106,0,0,0,0,0,0,0,0,0,-1,895,918,0,0
-322,106,0,0,0,0,0,0,0,0,0,-1,902,918,0,0
-315,106,0,0,0,0,0,0,0,0,0,-1,909,918,0,0
-308,106,0,0,0,0,0,0,0,0,0,-1,916,918,0,0
-301,106,0,0,0,0,0,0,0,0,0,-1,923,918,0,0
-294,106,0,0,0,0,0,0,0,0,0,-1,930,918,0,0
-287,106,0,0,0,0,0,0,0,0,0,-1,937,918,0,0
-280,106,0,0,0,0,0,0,0,0,0,-1,944,918,0,0
-273,106,0,0,0,0,0,0,0,0,0,-1,951,918,0,0
-266,106,0,0,0,0,0,0,0,0,0,-1,958,918,0,0
-259,106,0,0,0,0,0,0,0,0,0,-1,965,918,0,0
-252,106,0,0,0,0,0,0,0,0,0,-1,972,918,0,0
-245,106,0,0,0,0,0,0,0,0,0,-1,979,918,0,0
-238,106,0,0,0,0,0,0,0,0,0,-1,986,918,0,0
-231,106,0,0,0,0,0,0,0,0,0,-1,993,918,0,0
-224,106,0,0,0,0,0,0,0,0,0,-1,1000,918,0,0
-217,106,0,0,0,0,0,0,0,0,0,-1,1007,918,0,0
-210,106,0,0,0,0,0,0,0,0,0,-1,1014,918,0,0
-203,106,0,0,0,0,0,0,0,0,0,-1,1021,918,0,0
-196,106,0,0,0,0,0,0,0,0,0,-1,1028,918,0,0
-189,106,0,0,0,0,0,0,0,0,0,-1,1035,918,0,0
-182,106,0,0,0,0,0,0,0,0,0,-1,1042,918,0,0
-175,106,0,0,0,0,0,0,0,0,0,-1,1049,918,0,0
-168,106,0,0,0,0,0,0,0,0,0,-1,1056,918,0,0
-161,106,0,0,0,0,0,0,0,0,0,-1,1063,918,0,0
-154,106,0,0,0,0,0,0,0,0,0,-1,1070,918,0,0
-147,106,0,0,0,0,0,0,0,0,0,-1,1077,918,0,0
-140,106,0,0,0,0,0,0,0,0,0,-1,1084,918,0,0
-133,106,0,0,0,0,0,0,0,0,0,-1,1091,918,0,0
-126,106,0,0,0,0,0,0,0,0,0,-1,1098,918,0,0
-119,106,0,0,0,0,0,0,0,0,0,-1,1105,918,0,0
-112,106,0,0,0,0,0,0,0,0,0,-1,1112,918,0,0
-105,106,0,0,0,0,0,0,0,0,0,-1,1119,918,0,0
-98,106,0,0,0,0,0,0,0,0,0,-1,1126,918,0,0
-91,106,0,0,0,0,0,0,0,0,0,-1,1133,918,0,0
-84,106,0,0,0,0,0,0,0,0,0,-1,1140,918,0,0
-77,106,0,0,0,0,0,0,0,0,0,-1,1147,918,0,0
-70,106,0,0,0,0,0,0,0,0,0,-1,1154,918,0,0
-63,106,0,0,0,0,0,0,0,0,0,-1,1161,918,0,0
-56,106,0,0,0,0,0,0,0,0,0,-1,1168,918,0,0
-49,106,0,0,0,0,0,0,0,0,0,-1,1175,918,0,0
-42,106,0,0,0,0,0,0,0,0,0,-1,1182,918,0,0
-35,106,0,0,0,0,0,0,0,0,0,-1,1189,918,0,0
-28,106,0,0,0,0,0,0,0,0,0,-1,1196,918,0,0
-21,106,0,0,0,0,0,0,0,0,0,-1,1203,918,0,0
-14,106,0,0,0,0,0,0,0,0,0,-1,1210,918,0,0
-7,106,0,0,0,0,0,0,0,0,0,-1,1217,918,0,0
0,106,0,0,0,0,0,0,0,0,0,-1,1224,918,0,0
7,106,0,0,0,0,0,0,0,0,0,-1,1231,918,0,0
14,106,0,0,0,0,0,0,0,0,0,-1,1238,918,0,0
21,106,0,0,0,0,0,0,0,0,0,-1,1245,918,0,0
28,106,0,0,0,0,0,0,0,0,0,-1,1252,918,0,0
35,106,0,0,0,0,0,0,0,0,0,-1,1259,918,0,0
42,106,0,0,0,0,0,0,0,0,0,-1,1266,918,0,0
49,106,0,0,0,0,0,0,0,0,0,-1,1273,918,0,0
56,106,0,0,0,0,0,0,0,0,0,-1,1280,918,0,0
63,106,0,0,0,0,0,0,0,0,0,-1,1287,918,0,0
70,106,0,0,0,0,0,0,0,0,0,-1,1294,918,0,0
77,106,0,0,0,0,0,0,0,0,0,-1,1301,918,0,0
84,106,0,0,0,0,0,0,0,0,0,-1,1308,918,0,0
91,106,0,0,0,0,0,0,0,0,0,-1,1315,918,0,0
98,106,0,0,0,0,0,0,0,0,0,-1,1322,918,0,0
105,106,0,0,0,0,0,0,0,0,0,-1,1329,918,0,0
112,106,0,0,0,0,0,0,0,0,0,-1,1336,918,0,0
119,106,0,0,0,0,0,0,0,0,0,-1,1343,918,0,0
126,106,0,0,0,0,0,0,0,0,0,-1,1350,918,0,0
133,106,0,0,0,0,0,0,0,0,0,-1,1357,918,0,0
140,106,0,0,0,0,0,0,0,0,0,-1,1364,918,0,0
147,106,0,0,0,0,0,0,0,0,0,-1,1371,918,0,0
154,106,0,0,0,0,0,0,0,0,0,-1,1378,918,0,0
161,106,0,0,0,0,0,0,0,0,0,-1,1385,918,0,0
168,106,0,0,0,0,0,0,0,0,0,-1,1392,918,0,0
175,106,0,0,0,0,0,0,0,0,0,-1,1399,918,0,0
182,106,0,0,0,0,0,0,0,0,0,-1,1406,918,0,0
189,106,0,0,0,0,0,0,0,0,0,-1,1413,918,0,0
196,106,0,0,0,0,0,0,0,0,0,-1,1420,918,0,0
203,106,0,0,0,0,0,0,0,0,0,-1,1427,918,0,0
210,106,0,0,0,0,0,0,0,0,0,-1,1434,918,0,0
217,106,0,0,0,0,0,0,0,0,0,-1,1441,918,0,0
224,106,0,0,0,0,0,0,0,0,0,-1,1448,918,0,0
231,106,0,0,0,0,0,0,0,0,0,-1,1455,918,0,0
238,106,0,0,0,0,0,0,0,0,0,-1,1462,918,0,0
245,106,0,0,0,0,0,0,0,0,0,-1,1469,918,0,0
252,106,0,0,0,0,0,0,0,0,0,-1,1476,918,0,0
259,106,0,0,0,0,0,0,0,0,0,-1,1483,918,0,0
266,106,0,0,0,0,0,0,0,0,0,-1,1490,918,0,0
273,106,0,0,0,0,0,0,0,0,0,-1,1497,918,0,0
280,106,0,0,0,0,0,0,0,0,0,-1,1504,918,0,0
287,106,0,0,0,0,0,0,0,0,0,-1,1511,918,0,0
294,106,0,0,0,0,0,0,0,0,0,-1,1518,918,0,0
301,106,0,0,0,0,0,0,0,0,0,-1,1525,918,0,0
308,106,0,0,0,0,0,0,0,0,0,-1,1532,918,0,0
315,106,0,0,0,0,0,0,0,0,0,-1,1539,918,0,0
322,106,0,0,0,0,0,0,0,0,0,-1,1546,918,0,0
329,106,0,0,0,0,0,0,0,0,0,-1,1553,918,0,0
336,106,0,0,0,0,0,0,0,0,0,-1,1560,918,0,0
343,106,0,0,0,0,0,0,0,0,0,-1,1567,918,0,0
350,106,0,0,0,0,0,0,0,0,0,-1,1574,918,0,0
357,106,0,0,0,0,0,0,0,0,0,-1,1581,918,0,0
364,106,0,0,0,0,0,0,0,0,0,-1,1588,918,0,0
371,106,0,0,0,0,0,0,0,0,0,-1,1595,918,0,0
378,106,0,0,0,0,0,0,0,0,0,-1,1602,918,0,0
385,106,0,0,0,0,0,0,0,0,0,-1,1609,918,0,0
392,106,0,0,0,0,0,0,0,0,0,-1,1616,918,0,0
399,106,0,0,0,0,0,0,0,0,0,-1,1623,918,0,0
406,106,0,0,0,0,0,0,0,0,0,-1,1630,918,0,0
413,106,0,0,0,0,0,0,0,0,0,-1,1637,918,0,0
420,106,0,0,0,0,0,0,0,0,0,-1,1644,918,0,0
427,106,0,0,0,0,0,0,0,0,0,-1,1651,918,0,0
434,106,0,0,0,0,0,0,0,0,0,-1,1658,918,0,0
441,106,0,0,0,0,0,0,0,0,0,-1,1665,918,0,0
448,106,0,0,0,0,0,0,0,0,0,-1,1672,918,0,0
455,106,0,0,0,0,0,0,0,0,0,-1,1679,918,0,0
462,106,0,0,0,0,0,0,0,0,0,-1,1686,918,0,0
469,106,0,0,0,0,0,0,0,0,0,-1,1693,918,0,0
476,106,0,0,0,0,0,0,0,0,0,-1,1700,918,0,0
483,106,0,0,0,0,0,0,0,0,0,-1,1707,918,0,0
490,106,0,0,0,0,0,0,0,0,0,-1,1714,918,0,0
497,106,0,0,0,0,0,0,0,0,0,-1,1721,918,0,0
504,106,0,0,0,0,0,0,0,0,0,-1,1728,918,0,0
511,106,0,0,0,0,0,0,0,0,0,-1,1735,918,0,0
518,106,0,0,0,0,0,0,0,0,0,-1,1742,918,0,0
525,106,0,0,0,0,0,0,0,0,0,-1,1749,918,0,0
532,106,0,0,0,0,0,0,0,0,0,-1,1756,918,0,0
539,106,0,0,0,0,0,0,0,0,0,-1,1763,918,0,0
546,106,0,0,0,0,0,0,0,0,0,-1,1770,918,0,0
553,106,0,0,0,0,0,0,0,0,0,-1,1777,918,0,0
560,106,0,0,0,0,0,0,0,0,0,-1,1784,918,0,0
567,106,0,0,0,0,0,0,0,0,0,-1,1791,918,0,0
574,106,0,0,0,0,0,0,0,0,0,-1,1798,918,0,0
581,106,0,0,0,0,0,0,0,0,0,-1,1805,918,0,0
588,106,0,0,0,0,0,0,0,0,0,-1,1812,918,0,0
595,106,0,0,0,0,0,0,0,0,0,-1,1819,918,0,0
602,106,0,0,0,0,0,0,0,0,0,-1,1826,918,0,0
609,106,0,0,0,0,0,0,0,0,0,-1,1833,918,0,0
616,106,0,0,0,0,0,0,0,0,0,-1,1840,918,0,0
623,106,0,0,0,0,0,0,0,0,0,-1,1847,918,0,0
630,106,61.7021,2.48901,-0.00139742,0.00660386,-0.000713553,0.006667,-0.00146056,-1.48254,0.00500309,0.0413743,1854,918,61.7021,-2.48902
637,106,61.5868,2.71008,-0.00110419,0.00531737,-0.000262009,0.00532804,-0.00111486,-1.53009,0.00397609,0.0394614,1861,918,61.5867,-2.71008
644,106,61.4939,2.83173,-0.00118313,0.00425241,5.23854e-05,0.00425292,-0.00118363,1.56116,0.00330133,0.0375026,1868,918,61.494,-2.8317
651,106,61.5637,2.66046,-0.00140908,0.00346039,0.000346316,0.0034849,-0.00143359,1.50015,0.00292085,0.0388906,1875,918,61.5637,-2.66047
658,106,61.6924,2.64697,-0.00174328,0.0029303,0.000657883,0.00302114,-0.00183412,1.43358,0.00283098,0.0398922,1882,918,61.6923,-2.64699
665,106,61.5405,2.87726,-0.00204277,0.00246169,0.000994485,0.00267148,-0.00225256,1.36289,0.00284632,0.038384,1889,918,61.5406,-2.87727
672,106,61.3906,3.02509,-0.00239803,0.00193154,0.00120218,0.00224295,-0.00270944,1.31733,0.00286349,0.0382526,1896,918,61.3907,-3.02509
679,106,61.4476,3.00104,-0.00263829,0.00134259,0.00127629,0.00171663,-0.00301233,1.28571,0.00276422,0.0330589,1903,918,61.4477,-3.00105
686,106,61.4867,2.84766,-0.00275837,0.000811903,0.00114654,0.00114839,-0.00309485,1.28533,0.0025343,0.0313725,1910,918,61.4867,-2.84768
693,106,61.3807,2.82849,-0.00287052,0.000458106,0.000884996,0.000678775,-0.00309119,1.32643,0.00232038,0.0401513,1917,918,61.3807,-2.82851
700,106,61.4299,2.90344,0,0,0,0,0,0,0,-1,1924,918,61.4299,-2.90344
707,106,55.9609,3.27417,0,0,0,0,0,0,0,-1,1931,918,55.9609,-3.27418
714,106,56.1516,3.95605,-0.0031358,0.000780347,7.51775e-05,0.00078179,-0.00313724,1.55161,0.00239501,0.0488437,1938,918,56.1517,-3.95605
721,106,56.1223,4.70093,-0.00310023,0.00102057,-0.000243116,0.00103486,-0.00311452,-1.51207,0.00249393,0.031235,1945,918,56.1223,-4.70094
728,106,56.1477,5.34546,-0.00338207,0.001328,-0.000408901,0.00136324,-0.0034173,-1.48484,0.0028437,0.0299473,1952,918,56.1478,-5.34545
735,106,56.0601,5.89691,-0.00327399,0.00213136,-0.000806158,0.00224903,-0.00339166,-1.42586,0.00327885,0.026138,1959,918,56.0601,-5.89694
742,106,55.9568,6.42328,-0.00247803,0.00344068,-0.00155327,0.00382355,-0.00286089,-1.32912,0.00387258,0.0134649,1966,918,55.9568,-6.42326
749,106,55.9099,7.00903,-0.000804216,0.00504402,-0.00257121,0.00601369,-0.00177389,-1.21016,0.00471304,0.0104546,1973,918,55.9099,-7.00903
756,106,55.8567,7.60229,0.00161696,0.00674821,-0.00349556,0.00851864,-0.000153472,-1.10198,0.00573094,0.0144871,1980,918,55.8567,-7.60232
763,106,55.7938,8.36029,0.00524119,0.00777668,-0.00481412,0.0114872,0.00153069,-0.914144,0.00720231,0.0325946,1987,918,55.7938,-8.36032
770,106,55.7683,9.15161,0,0,0,0,0,0,0,-1,1994,918,55.7683,-9.15161
777,106,56.2642,9.36652,0,0,0,0,0,0,0,-1,2001,918,56.2641,-9.36654
784,106,56.4443,9.83026,0,0,0,0,0,0,0,-1,2008,918,56.4444,-9.83024
791,106,56.417,9.14886,0,0,0,0,0,0,0,-1,2015,918,56.4171,-9.14888
798,106,57.0188,9.68188,0,0,0,0,0,0,0,-1,2022,918,57.0189,-9.68188
805,106,0,0,0,0,0,0,0,0,0,-1,2029,918,0,0
812,106,0,0,0,0,0,0,0,0,0,-1,2036,918,0,0
-700,99,0,0,0,0,0,0,0,0,0,-1,524,925,0,0
-693,99,0,0,0,0,0,0,0,0,0,-1,531,925,0,0
-686,99,0,0,0,0,0,0,0,0,0,-1,538,925,0,0
-679,99,-48.9907,-1.01166,0,0,0,0,0,0,0,-1,545,925,-48.9907,1.01167
-672,99,-43.4355,5.86664,0,0,0,0,0,0,0,-1,552,925,-43.4355,-5.86663
-665,99,-48.1783,-0.772156,0,0,0,0,0,0,0,-1,559,925,-48.1783,0.772174
-658,99,-41.5757,6.36609,0,0,0,0,0,0,0,-1,566,925,-41.5757,-6.36611
-651,99,-41.1135,7.00409,0,0,0,0,0,0,0,-1,573,925,-41.1135,-7.00411
-644,99,-41.7607,6.59338,-0.0290813,0.00116307,-0.0118767,0.00526941,-0.0331876,-1.23791,0.0240745,0.0492663,580,925,-41.7607,-6.59337
-637,99,-42.4933,6.18378,-0.0237909,0.0031273,-0.00636843,0.00455793,-0.0252215,-1.34982,0.0185216,0.0333759,587,925,-42.4933,-6.1838
-630,99,-42.7691,5.64264,-0.0186111,0.00409523,-0.00216475,0.00429977,-0.0188157,-1.47659,0.0141958,0.0180568,594,925,-42.7691,-5.64261
-623,99,-42.9777,5.03864,-0.0142767,0.00438246,0.00110104,0.0044472,-0.0143415,1.51206,0.0113379,0.0126611,601,925,-42.9777,-5.03862
-616,99,-42.9993,4.49731,-0.0105689,0.00339514,0.00291195,0.00397805,-0.0111518,1.37323,0.00905659,0.0144682,608,925,-42.9993,-4.49729
-609,99,-42.9987,4.01868,-0.00852642,0.00275359,0.00320068,0.00359849,-0.00937132,1.31271,0.00773142,0.0119782,615,925,-42.9987,-4.01868
-602,99,-42.9969,3.52509,-0.00751837,0.00190838,0.00262624,0.00259065,-0.00820065,1.31662,0.00650494,0.0165771,622,925,-42.9969,-3.52509
-595,99,-43.0943,3.01733,-0.00686477,0.00123284,0.00192817,0.00166852,-0.00730046,1.34857,0.00550804,0.0234239,629,925,-43.0943,-3.01735
-588,99,-43.0762,2.46185,-0.00639281,0.000779351,0.00134022,0.00102161,-0.00663506,1.39197,0.00480029,0.0263424,636,925,-43.0763,-2.46186
-581,99,-43.1205,1.7829,-0.00623965,0.000578169,0.00111967,0.000757341,-0.00641883,1.41212,0.00455271,0.0227169,643,925,-43.1205,-1.78289
-574,99,-43.3503,1.14612,0,0,0,0,0,0,0,-1,650,925,-43.3503,-1.14613
-567,99,-45.3462,1.02393,0,0,0,0,0,0,0,-1,657,925,-45.3462,-1.02393
-560,99,-46.5699,0.877869,0,0,0,0,0,0,0,-1,664,925,-46.57,-0.877874
-553,99,-46.6058,0.948853,-0.00552653,-0.000191107,-0.000170447,-0.000185668,-0.00553197,-1.53889,0.00362767,0.0374576,671,925,-46.6058,-0.948861
-546,99,-46.6681,0.834351,-0.00522615,-0.000119755,-0.000307066,-0.000101356,-0.00524455,-1.51095,0.00346307,0.0413403,678,925,-46.6681,-0.834367
-539,99,-46.7335,0.675781,-0.00440771,-0.000254965,-0.000162124,-0.000248646,-0.00441403,-1.53184,0.0028634,0.0398833,685,925,-46.7335,-0.67579
-532,99,-46.8458,0.60614,-0.00266689,-0.00109717,0.000510003,-0.000946024,-0.00281803,1.28268,0.00165601,0.042045,692,925,-46.8458,-0.606128
-525,99,-46.9683,0.92627,-0.00130514,-0.00293977,0.00152817,-0.000389456,-0.00385546,0.539836,0.00245082,0.0411385,699,925,-46.9683,-0.926285
-518,99,-46.8627,0.930298,-0.0012441,-0.0044167,0.00208359,-0.000211683,-0.00544912,0.460042,0.00356428,0.0401853,706,925,-46.8628,-0.930293
-511,99,0,0,0,0,0,0,0,0,0,-1,713,925,0,0
-504,99,0,0,0,0,0,0,0,0,0,-1,720,925,0,0
-497,99,0,0,0,0,0,0,0,0,0,-1,727,925,0,0
-490,99,0,0,0,0,0,0,0,0,0,-1,734,925,0,0
-483,99,0,0,0,0,0,0,0,0,0,-1,741,925,0,0
-476,99,0,0,0,0,0,0,0,0,0,-1,748,925,0,0
-469,99,0,0,0,0,0,0,0,0,0,-1,755,925,0,0
-462,99,0,0,0,0,0,0,0,0,0,-1,762,925,0,0
-455,99,0,0,0,0,0,0,0,0,0,-1,769,925,0,0
-448,99,0,0,0,0,0,0,0,0,0,-1,776,925,0,0
-441,99,0,0,0,0,0,0,0,0,0,-1,783,925,0,0
-434,99,0,0,0,0,0,0,0,0,0,-1,790,925,0,0
-427,99,0,0,0,0,0,0,0,0,0,-1,797,925,0,0
-420,99,0,0,0,0,0,0,0,0,0,-1,804,925,0,0
-413,99,0,0,0,0,0,0,0,0,0,-1,811,925,0,0
-406,99,0,0,0,0,0,0,0,0,0,-1,818,925,0,0
-399,99,0,0,0,0,0,0,0,0,0,-1,825,925,0,0
-392,99,0,0,0,0,0,0,0,0,0,-1,832,925,0,0
-385,99,0,0,0,0,0,0,0,0,0,-1,839,925,0,0
-378,99,0,0,0,0,0,0,0,0,0,-1,846,925,0,0
-371,99,0,0,0,0,0,0,0,0,0,-1,853,925,0,0
-364,99,0,0,0,0,0,0,0,0,0,-1,860,925,0,0
-357,99,0,0,0,0,0,0,0,0,0,-1,867,925,0,0
-350,99,0,0,0,0,0,0,0,0,0,-1,874,925,0,0
-343,99,0,0,0,0,0,0,0,0,0,-1,881,925,0,0
-336,99,0,0,0,0,0,0,0,0,0,-1,888,925,0,0
-329,99,0,0,0,0,0,0,0,0,0,-1,895,925,0,0
-322,99,0,0,0,0,0,0,0,0,0,-1,902,925,0,0
-315,99,0,0,0,0,0,0,0,0,0,-1,909,925,0,0
-308,99,0,0,0,0,0,0,0,0,0,-1,916,925,0,0
-301,99,0,0,0,0,0,0,0,0,0,-1,923,925,0,0
-294,99,0,0,0,0,0,0,0,0,0,-1,930,925,0,0
-287,99,0,0,0,0,0,0,0,0,0,-1,937,925,0,0
-280,99,0,0,0,0,0,0,0,0,0,-1,944,925,0,0
-273,99,0,0,0,0,0,0,0,0,0,-1,951,925,0,0
-266,99,0,0,0,0,0,0,0,0,0,-1,958,925,0,0
-259,99,0,0,0,0,0,0,0,0,0,-1,965,925,0,0
-252,99,0,0,0,0,0,0,0,0,0,-1,972,925,0,0
-245,99,0,0,0,0,0,0,0,0,0,-1,979,925,0,0
-238,99,0,0,0,0,0,0,0,0,0,-1,986,925,0,0
-231,99,0,0,0,0,0,0,0,0,0,-1,993,925,0,0
-224,99,0,0,0,0,0,0,0,0,0,-1,1000,925,0,0
-217,99,0,0,0,0,0,0,0,0,0,-1,1007,925,0,0
-210,99,0,0,0,0,0,0,0,0,0,-1,1014,925,0,0
-203,99,0,0,0,0,0,0,0,0,0,-1,1021,925,0,0
-196,99,0,0,0,0,0,0,0,0,0,-1,1028,925,0,0
-189,99,0,0,0,0,0,0,0,0,0,-1,1035,925,0,0
-182,99,0,0,0,0,0,0,0,0,0,-1,1042,925,0,0
-175,99,0,0,0,0,0,0,0,0,0,-1,1049,925,0,0
-168,99,0,0,0,0,0,0,0,0,0,-1,1056,925,0,0
-161,99,0,0,0,0,0,0,0,0,0,-1,1063,925,0,0
-154,99,0,0,0,0,0,0,0,0,0,-1,1070,925,0,0
-147,99,0,0,0,0,0,0,0,0,0,-1,1077,925,0,0
-140,99,0,0,0,0,0,0,0,0,0,-1,1084,925,0,0
-133,99,0,0,0,0,0,0,0,0,0,-1,1091,925,0,0
-126,99,0,0,0,0,0,0,0,0,0,-1,1098,925,0,0
-119,99,0,0,0,0,0,0,0,0,0,-1,1105,925,0,0
-112,99,0,0,0,0,0,0,0,0,0,-1,1112,925,0,0
-105,99,0,0,0,0,0,0,0,0,0,-1,1119,925,0,0
-98,99,0,0,0,0,0,0,0,0,0,-1,1126,925,0,0
-91,99,0,0,0,0,0,0,0,0,0,-1,1133,925,0,0
-84,99,0,0,0,0,0,0,0,0,0,-1,1140,925,0,0
-77,99,0,0,0,0,0,0,0,0,0,-1,1147,925,0,0
-70,99,0,0,0,0,0,0,0,0,0,-1,1154,925,0,0
-63,99,0,0,0,0,0,0,0,0,0,-1,1161,925,0,0
-56,99,0,0,0,0,0,0,0,0,0,-1,1168,925,0,0
-49,99,0,0,0,0,0,0,0,0,0,-1,1175,925,0,0
-42,99,0,0,0,0,0,0,0,0,0,-1,1182,925,0,0
-35,99,0,0,0,0,0,0,0,0,0,-1,1189,925,0,0
-28,99,0,0,0,0,0,0,0,0,0,-1,1196,925,0,0
-21,99,0,0,0,0,0,0,0,0,0,-1,1203,925,0,0
-14,99,0,0,0,0,0,0,0,0,0,-1,1210,925,0,0
-7,99,0,0,0,0,0,0,0,0,0,-1,1217,925,0,0
0,99,0,0,0,0,0,0,0,0,0,-1,1224,925,0,0
7,99,0,0,0,0,0,0,0,0,0,-1,1231,925,0,0
14,99,0,0,0,0,0,0,0,0,0,-1,1238,925,0,0
21,99,0,0,0,0,0,0,0,0,0,-1,1245,925,0,0
28,99,0,0,0,0,0,0,0,0,0,-1,1252,925,0,0
35,99,0,0,0,0,0,0,0,0,0,-1,1259,925,0,0
42,99,0,0,0,0,0,0,0,0,0,-1,1266,925,0,0
49,99,0,0,0,0,0,0,0,0,0,-1,1273,925,0,0
56,99,0,0,0,0,0,0,0,0,0,-1,1280,925,0,0
63,99,0,0,0,0,0,0,0,0,0,-1,1287,925,0,0
70,99,0,0,0,0,0,0,0,0,0,-1,1294,925,0,0
77,99,0,0,0,0,0,0,0,0,0,-1,1301,925,0,0
84,99,0,0,0,0,0,0,0,0,0,-1,1308,925,0,0
91,99,0,0,0,0,0,0,0,0,0,-1,1315,925,0,0
98,99,0,0,0,0,0,0,0,0,0,-1,1322,925,0,0
105,99,0,0,0,0,0,0,0,0,0,-1,1329,925,0,0
112,99,0,0,0,0,0,0,0,0,0,-1,1336,925,0,0
119,99,0,0,0,0,0,0,0,0,0,-1,1343,925,0,0
126,99,0,0,0,0,0,0,0,0,0,-1,1350,925,0,0
133,99,0,0,0,0,0,0,0,0,0,-1,1357,925,0,0
140,99,0,0,0,0,0,0,0,0,0,-1,1364,925,0,0
147,99,0,0,0,0,0,0,0,0,0,-1,1371,925,0,0
154,99,0,0,0,0,0,0,0,0,0,-1,1378,925,0,0
161,99,0,0,0,0,0,0,0,0,0,-1,1385,925,0,0
168,99,0,0,0,0,0,0,0,0,0,-1,1392,925,0,0
175,99,0,0,0,0,0,0,0,0,0,-1,1399,925,0,0
182,99,0,0,0,0,0,0,0,0,0,-1,1406,925,0,0
189,99,0,0,0,0,0,0,0,0,0,-1,1413,925,0,0
196,99,0,0,0,0,0,0,0,0,0,-1,1420,925,0,0
203,99,0,0,0,0,0,0,0,0,0,-1,1427,925,0,0
210,99,0,0,0,0,0,0,0,0,0,-1,1434,925,0,0
217,99,0,0,0,0,0,0,0,0,0,-1,1441,925,0,0
224,99,0,0,0,0,0,0,0,0,0,-1,1448,925,0,0
231,99,0,0,0,0,0,0,0,0,0,-1,1455,925,0,0
238,99,0,0,0,0,0,0,0,0,0,-1,1462,925,0,0
245,99,0,0,0,0,0,0,0,0,0,-1,1469,925,0,0
252,99,0,0,0,0,0,0,0,0,0,-1,1476,925,0,0
259,99,0,0,0,0,0,0,0,0,0,-1,1483,925,0,0
266,99,0,0,0,0,0,0,0,0,0,-1,1490,925,0,0
273,99,0,0,0,0,0,0,0,0,0,-1,1497,925,0,0
280,99,0,0,0,0,0,0,0,0,0,-1,1504,925,0,0
287,99,0,0,0,0,0,0,0,0,0,-1,1511,925,0,0
294,99,0,0,0,0,0,0,0,0,0,-1,1518,925,0,0
301,99,0,0,0,0,0,0,0,0,0,-1,1525,925,0,0
308,99,0,0,0,0,0,0,0,0,0,-1,1532,925,0,0
315,99,0,0,0,0,0,0,0,0,0,-1,1539,925,0,0
322,99,0,0,0,0,0,0,0,0,0,-1,1546,925,0,0
329,99,0,0,0,0,0,0,0,0,0,-1,1553,925,0,0
336,99,0,0,0,0,0,0,0,0,0,-1,1560,925,0,0
343,99,0,0,0,0,0,0,0,0,0,-1,1567,925,0,0
350,99,0,0,0,0,0,0,0,0,0,-1,1574,925,0,0
357,99,0,0,0,0,0,0,0,0,0,-1,1581,925,0,0
364,99,0,0,0,0,0,0,0,0,0,-1,1588,925,0,0
371,99,0,0,0,0,0,0,0,0,0,-1,1595,925,0,0
378,99,0,0,0,0,0,0,0,0,0,-1,1602,925,0,0
385,99,0,0,0,0,0,0,0,0,0,-1,1609,925,0,0
392,99,0,0,0,0,0,0,0,0,0,-1,1616,925,0,0
399,99,0,0,0,0,0,0,0,0,0,-1,1623,925,0,0
406,99,0,0,0,0,0,0,0,0,0,-1,1630,925,0,0
413,99,0,0,0,0,0,0,0,0,0,-1,1637,925,0,0
420,99,0,0,0,0,0,0,0,0,0,-1,1644,925,0,0
427,99,0,0,0,0,0,0,0,0,0,-1,1651,925,0,0
434,99,0,0,0,0,0,0,0,0,0,-1,1658,925,0,0
441,99,0,0,0,0,0,0,0,0,0,-1,1665,925,0,0
448,99,0,0,0,0,0,0,0,0,0,-1,1672,925,0,0
455,99,0,0,0,0,0,0,0,0,0,-1,1679,925,0,0
462,99,0,0,0,0,0,0,0,0,0,-1,1686,925,0,0
469,99,0,0,0,0,0,0,0,0,0,-1,1693,925,0,0
476,99,0,0,0,0,0,0,0,0,0,-1,1700,925,0,0
483,99,0,0,0,0,0,0,0,0,0,-1,1707,925,0,0
490,99,0,0,0,0,0,0,0,0,0,-1,1714,925,0,0
497,99,0,0,0,0,0,0,0,0,0,-1,1721,925,0,0
504,99,0,0,0,0,0,0,0,0,0,-1,1728,925,0,0
511,99,0,0,0,0,0,0,0,0,0,-1,1735,925,0,0
518,99,0,0,0,0,0,0,0,0,0,-1,1742,925,0,0
525,99,0,0,0,0,0,0,0,0,0,-1,1749,925,0,0
532,99,0,0,0,0,0,0,0,0,0,-1,1756,925,0,0
539,99,0,0,0,0,0,0,0,0,0,-1,1763,925,0,0
546,99,0,0,0,0,0,0,0,0,0,-1,1770,925,0,0
553,99,0,0,0,0,0,0,0,0,0,-1,1777,925,0,0
560,99,0,0,0,0,0,0,0,0,0,-1,1784,925,0,0
567,99,0,0,0,0,0,0,0,0,0,-1,1791,925,0,0
574,99,0,0,0,0,0,0,0,0,0,-1,1798,925,0,0
581,99,0,0,0,0,0,0,0,0,0,-1,1805,925,0,0
588,99,0,0,0,0,0,0,0,0,0,-1,1812,925,0,0
595,99,0,0,0,0,0,0,0,0,0,-1,1819,925,0,0
602,99,0,0,0,0,0,0,0,0,0,-1,1826,925,0,0
609,99,0,0,0,0,0,0,0,0,0,-1,1833,925,0,0
616,99,0,0,0,0,0,0,0,0,0,-1,1840,925,0,0
623,99,0,0,0,0,0,0,0,0,0,-1,1847,925,0,0
630,99,0,0,0,0,0,0,0,0,0,-1,1854,925,0,0
637,99,61.7891,2.37433,-0.00093398,0.00533004,-0.000156494,0.00533394,-0.000937887,-1.54583,0.0039063,0.04262,1861,925,61.7891,-2.37432
644,99,61.5831,2.64288,-0.00111041,0.00423507,0.000138698,0.00423867,-0.00111401,1.54487,0.00326116,0.0361332,1868,925,61.5831,-2.64289
651,99,61.5782,2.69171,-0.00139814,0.00347525,0.000442842,0.00351517,-0.00143805,1.48091,0.00294236,0.0367909,1875,925,61.5783,-2.69168
658,99,61.646,2.68396,-0.00177154,0.00306961,0.000815654,0.00320334,-0.00190527,1.40829,0.00298103,0.039992,1882,925,61.646,-2.68396
665,99,61.5205,2.77185,-0.00212066,0.00278799,0.001221,0.00307493,-0.0024076,1.33998,0.00317315,0.0400312,1889,925,61.5206,-2.77185
672,99,61.437,2.82349,-0.00257499,0.00237793,0.0015353,0.00281523,-0.00301229,1.29331,0.00336516,0.0378112,1896,925,61.437,-2.82346
679,99,61.4705,2.80365,-0.00288155,0.00184229,0.00169236,0.00238601,-0.00342527,1.25993,0.00337298,0.0357652,1903,925,61.4705,-2.80368
686,99,61.3878,2.80286,-0.00297783,0.00130776,0.00158068,0.00182769,-0.00349776,1.25301,0.00312464,0.0314243,1910,925,61.3878,-2.80287
693,99,61.4137,2.8714,-0.00306777,0.000910011,0.00130083,0.00129764,-0.0034554,1.28119,0.00283686,0.0375419,1917,925,61.4137,-2.87141
700,99,61.4031,2.96722,0,0,0,0,0,0,0,-1,1924,925,61.4031,-2.96721
707,99,47.9915,3.27429,0,0,0,0,0,0,0,-1,1931,925,47.9914,-3.27427
714,99,56.9258,3.94421,0,0,0,0,0,0,0,-1,1938,925,56.9257,-3.94421
721,99,56.6909,4.65527,-0.0035293,0.00157894,-4.85166e-05,0.0015794,-0.00352976,-1.5613,0.00302057,0.0351377,1945,925,56.6909,-4.65526
728,99,56.7098,5.28973,-0.00387407,0.00189543,-0.00027859,0.00190885,-0.00388749,-1.52266,0.00341089,0.0278402,1952,925,56.7098,-5.28971
735,99,56.6615,5.90247,-0.00383235,0.00271835,-0.000795354,0.00281354,-0.00392753,-1.45169,0.00390963,0.0227099,1959,925,56.6614,-5.90246
742,99,56.5983,6.45685,-0.00319476,0.0039781,-0.0016455,0.00433757,-0.00355423,-1.35572,0.00456381,0.014365,1966,925,56.5983,-6.45684
749,99,56.5201,6.99847,-0.00188236,0.0056549,-0.00273233,0.00654118,-0.00276864,-1.25714,0.00552017,0.0127038,1973,925,56.5201,-6.99847
756,99,56.4707,7.5174,8.4392e-05,0.00759834,-0.00369006,0.00910743,-0.0014247,-1.18259,0.00659799,0.0142553,1980,925,56.4707,-7.51741
763,99,56.4829,8.08411,0.00323117,0.00904233,-0.00495206,0.0118783,0.000395209,-1.0507,0.00779047,0.0181728,1987,925,56.483,-8.08413
770,99,56.6243,8.61505,0.00797715,0.00950564,-0.00698886,0.0157719,0.00171088,-0.839858,0.00999326,0.0319615,1994,925,56.6242,-8.61508
777,99,56.8616,9.02496,0,0,0,0,0,0,0,-1,2001,925,56.8616,-9.02496
784,99,57.0549,9.45734,0,0,0,0,0,0,0,-1,2008,925,57.055,-9.45733
791,99,57.3469,9.51935,0.0404907,-0.00207605,-0.0233782,0.0508225,-0.0124079,-0.416134,0.0386867,0.0471308,2015,925,57.3469,-9.51937
798,99,57.8003,9.91425,0.0591263,-0.0114274,-0.0347662,0.0733787,-0.0256798,-0.389054,0.0593605,0.0496798,2022,925,57.8003,-9.91422
805,99,0,0,0,0,0,0,0,0,0,-1,2029,925,0,0
812,99,0,0,0,0,0,0,0,0,0,-1,2036,925,0,0
-700,92,0,0,0,0,0,0,0,0,0,-1,524,932,0,0
-693,92,0,0,0,0,0,0,0,0,0,-1,531,932,0,0
-686,92,-48.1857,-0.879883,0,0,0,0,0,0,0,-1,538,932,-48.1857,0.879868
-679,92,-43.7404,7.22607,0,0,0,0,0,0,0,-1,545,932,-43.7404,-7.22605
-672,92,-43.5616,6.48022,0,0,0,0,0,0,0,-1,552,932,-43.5616,-6.48023
-665,92,-42.1349,5.90131,0,0,0,0,0,0,0,-1,559,932,-42.1349,-5.9013
-658,92,-42.4691,5.92554,-0.036561,-0.00750245,-0.0238743,0.00591614,-0.0499796,-1.05875,0.0354567,0.047605,566,932,-42.4691,-5.92555
-651,92,-42.749,6.06879,0,0,0,0,0,0,0,-1,573,932,-42.749,-6.06879
-644,92,-43.0489,6.25287,-0.0272204,0.00136109,-0.00865843,0.00377944,-0.0296387,-1.29843,0.0211319,0.0453322,580,932,-43.0489,-6.25288
-637,92,-43.3467,6.04517,-0.0222709,0.00360983,-0.00380179,0.00415674,-0.0228178,-1.42792,0.0167701,0.0284037,587,932,-43.3467,-6.04516
-630,92,-43.4117,5.52106,-0.0173603,0.00460414,-0.000283619,0.0046078,-0.017364,-1.55789,0.0133791,0.0142755,594,932,-43.4117,-5.52108
-623,92,-43.5244,5.0368,-0.0134319,0.00477472,0.00208875,0.00501128,-0.0136685,1.45802,0.0111642,0.010012,601,932,-43.5244,-5.03679
-616,92,-43.5493,4.54474,-0.010226,0.00366243,0.00298335,0.00427616,-0.0108398,1.36791,0.00899724,0.00956674,608,932,-43.5493,-4.54475
-609,92,-43.5873,4.05731,-0.00852861,0.00293943,0.00279552,0.00358459,-0.00917377,1.34398,0.007598,0.00969006,615,932,-43.5873,-4.0573
-602,92,-43.5623,3.51337,-0.00764149,0.00202983,0.00199317,0.0024245,-0.00803616,1.37531,0.00632251,0.011468,622,932,-43.5623,-3.51336
-595,92,-43.4514,2.92084,-0.00696321,0.00120934,0.00125207,0.00139686,-0.00715073,1.42213,0.00529456,0.0235242,629,932,-43.4514,-2.92086
-588,92,-43.4655,2.47308,-0.00645052,0.000624435,0.00064803,0.000683301,-0.00650939,1.48021,0.00458436,0.0302252,636,932,-43.4655,-2.47308
-581,92,-44.0309,1.91949,-0.00632017,0.000303842,0.000417952,0.000330109,-0.00634644,1.50803,0.00434518,0.0384273,643,932,-44.0309,-1.91952
-574,92,-44.6659,1.25861,0,0,0,0,0,0,0,-1,650,932,-44.6659,-1.25859
-567,92,-46.6116,0.881836,0,0,0,0,0,0,0,-1,657,932,-46.6116,-0.881859
-560,92,-46.5628,0.901245,-0.00591255,-0.000387834,-0.00045217,-0.000351071,-0.00594931,-1.48967,0.00385452,0.0396137,664,932,-46.5628,-0.901237
-553,92,-46.6757,1.03656,-0.00577349,-0.000349863,-0.000609041,-0.000282313,-0.00584104,-1.46034,0.00380342,0.0374365,671,932,-46.6757,-1.03653
-546,92,-46.7082,0.991882,-0.00528929,-0.000277254,-0.000508603,-0.000226164,-0.00534038,-1.47068,0.00348731,0.0394964,678,932,-46.7082,-0.991887
-539,92,-46.7446,0.940613,-0.0041998,-0.000451764,-4.74007e-05,-0.000451165,-0.0042004,-1.55815,0.00266265,0.0379375,685,932,-46.7447,-0.940611
-532,92,-46.7993,0.910889,-0.00224296,-0.00136122,0.00094149,-0.000762492,-0.00284169,1.00437,0.00169834,0.0428436,692,932,-46.7993,-0.910884
-525,92,-46.7641,1.10687,-0.000786649,-0.00305558,0.00205156,0.00042322,-0.00426545,0.532835,0.00299469,0.0410486,699,932,-46.7641,-1.10689
-518,92,-46.6601,1.17566,-0.0008984,-0.00417206,0.0026397,0.000570769,-0.00564123,0.507871,0.00396479,0.0397344,706,932,-46.6601,-1.17563
-511,92,0,0,0,0,0,0,0,0,0,-1,713,932,0,0
-504,92,0,0,0,0,0,0,0,0,0,-1,720,932,0,0
-497,92,0,0,0,0,0,0,0,0,0,-1,727,932,0,0
-490,92,0,0,0,0,0,0,0,0,0,-1,734,932,0,0
-483,92,0,0,0,0,0,0,0,0,0,-1,741,932,0,0
-476,92,0,0,0,0,0,0,0,0,0,-1,748,932,0,0
-469,92,0,0,0,0,0,0,0,0,0,-1,755,932,0,0
-462,92,0,0,0,0,0,0,0,0,0,-1,762,932,0,0
-455,92,0,0,0,0,0,0,0,0,0,-1,769,932,0,0
-448,92,0,0,0,0,0,0,0,0,0,-1,776,932,0,0
-441,92,0,0,0,0,0,0,0,0,0,-1,783,932,0,0
-434,92,0,0,0,0,0,0,0,0,0,-1,790,932,0,0
-427,92,0,0,0,0,0,0,0,0,0,-1,797,932,0,0
-420,92,0,0,0,0,0,0,0,0,0,-1,804,932,0,0
-413,92,0,0,0,0,0,0,0,0,0,-1,811,932,0,0
-406,92,0,0,0,0,0,0,0,0,0,-1,818,932,0,0
-399,92,0,0,0,0,0,0,0,0,0,-1,825,932,0,0
-392,92,0,0,0,0,0,0,0,0,0,-1,832,932,0,0
-385,92,0,0,0,0,0,0,0,0,0,-1,839,932,0,0
-378,92,0,0,0,0,0,0,0,0,0,-1,846,932,0,0
-371,92,0,0,0,0,0,0,0,0,0,-1,853,932,0,0
-364,92,0,0,0,0,0,0,0,0,0,-1,860,932,0,0
-357,92,0,0,0,0,0,0,0,0,0,-1,867,932,0,0
-350,92,0,0,0,0,0,0,0,0,0,-1,874,932,0,0
-343,92,0,0,0,0,0,0,0,0,0,-1,881,932,0,0
-336,92,0,0,0,0,0,0,0,0,0,-1,888,932,0,0
-329,92,0,0,0,0,0,0,0,0,0,-1,895,932,0,0
-322,92,0,0,0,0,0,0,0,0,0,-1,902,932,0,0
-315,92,0,0,0,0,0,0,0,0,0,-1,909,932,0,0
-308,92,0,0,0,0,0,0,0,0,0,-1,916,932,0,0
-301,92,0,0,0,0,0,0,0,0,0,-1,923,932,0,0
-294,92,0,0,0,0,0,0,0,0,0,-1,930,932,0,0
-287,92,0,0,0,0,0,0,0,0,0,-1,937,932,0,0
-280,92,0,0,0,0,0,0,0,0,0,-1,944,932,0,0
-273,92,0,0,0,0,0,0,0,0,0,-1,951,932,0,0
-266,92,0,0,0,0,0,0,0,0,0,-1,958,932,0,0
-259,92,0,0,0,0,0,0,0,0,0,-1,965,932,0,0
-252,92,0,0,0,0,0,0,0,0,0,-1,972,932,0,0
-245,92,0,0,0,0,0,0,0,0,0,-1,979,932,0,0
-238,92,0,0,0,0,0,0,0,0,0,-1,986,932,0,0
-231,92,0,0,0,0,0,0,0,0,0,-1,993,932,0,0
-224,92,0,0,0,0,0,0,0,0,0,-1,1000,932,0,0
-217,92,0,0,0,0,0,0,0,0,0,-1,1007,932,0,0
-210,92,0,0,0,0,0,0,0,0,0,-1,1014,932,0,0
-203,92,0,0,0,0,0,0,0,0,0,-1,1021,932,0,0
-196,92,0,0,0,0,0,0,0,0,0,-1,1028,932,0,0
-189,92,0,0,0,0,0,0,0,0,0,-1,1035,932,0,0
-182,92,0,0,0,0,0,0,0,0,0,-1,1042,932,0,0
-175,92,0,0,0,0,0,0,0,0,0,-1,1049,932,0,0
-168,92,0,0,0,0,0,0,0,0,0,-1,1056,932,0,0
-161,92,0,0,0,0,0,0,0,0,0,-1,1063,932,0,0
-154,92,0,0,0,0,0,0,0,0,0,-1,1070,932,0,0
-147,92,0,0,0,0,0,0,0,0,0,-1,1077,932,0,0
-140,92,0,0,0,0,0,0,0,0,0,-1,1084,932,0,0
-133,92,0,0,0,0,0,0,0,0,0,-1,1091,932,0,0
-126,92,0,0,0,0,0,0,0,0,0,-1,1098,932,0,0
-119,92,0,0,0,0,0,0,0,0,0,-1,1105,932,0,0
-112,92,0,0,0,0,0,0,0,0,0,-1,1112,932,0,0
-105,92,0,0,0,0,0,0,0,0,0,-1,1119,932,0,0
-98,92,0,0,0,0,0,0,0,0,0,-1,1126,932,0,0
-91,92,0,0,0,0,0,0,0,0,0,-1,1133,932,0,0
-84,92,0,0,0,0,0,0,0,0,0,-1,1140,932,0,0
-77,92,0,0,0,0,0,0,0,0,0,-1,1147,932,0,0
-70,92,0,0,0,0,0,0,0,0,0,-1,1154,932,0,0
-63,92,0,0,0,0,0,0,0,0,0,-1,1161,932,0,0
-56,92,0,0,0,0,0,0,0,0,0,-1,1168,932,0,0
-49,92,0,0,0,0,0,0,0,0,0,-1,1175,932,0,0
-42,92,0,0,0,0,0,0,0,0,0,-1,1182,932,0,0
-35,92,0,0,0,0,0,0,0,0,0,-1,1189,932,0,0
-28,92,0,0,0,0,0,0,0,0,0,-1,1196,932,0,0
-21,92,0,0,0,0,0,0,0,0,0,-1,1203,932,0,0
-14,92,0,0,0,0,0,0,0,0,0,-1,1210,932,0,0
-7,92,0,0,0,0,0,0,0,0,0,-1,1217,932,0,0
0,92,0,0,0,0,0,0,0,0,0,-1,1224,932,0,0
7,92,0,0,0,0,0,0,0,0,0,-1,1231,932,0,0
14,92,0,0,0,0,0,0,0,0,0,-1,1238,932,0,0
21,92,0,0,0,0,0,0,0,0,0,-1,1245,932,0,0
28,92,0,0,0,0,0,0,0,0,0,-1,1252,932,0,0
35,92,0,0,0,0,0,0,0,0,0,-1,1259,932,0,0
42,92,0,0,0,0,0,0,0,0,0,-1,1266,932,0,0
49,92,0,0,0,0,0,0,0,0,0,-1,1273,932,0,0
56,92,0,0,0,0,0,0,0,0,0,-1,1280,932,0,0
63,92,0,0,0,0,0,0,0,0,0,-1,1287,932,0,0
70,92,0,0,0,0,0,0,0,0,0,-1,1294,932,0,0
77,92,0,0,0,0,0,0,0,0,0,-1,1301,932,0,0
84,92,0,0,0,0,0,0,0,0,0,-1,1308,932,0,0
91,92,0,0,0,0,0,0,0,0,0,-1,1315,932,0,0
98,92,0,0,0,0,0,0,0,0,0,-1,1322,932,0,0
105,92,0,0,0,0,0,0,0,0,0,-1,1329,932,0,0
112,92,0,0,0,0,0,0,0,0,0,-1,1336,932,0,0
119,92,0,0,0,0,0,0,0,0,0,-1,1343,932,0,0
126,92,0,0,0,0,0,0,0,0,0,-1,1350,932,0,0
133,92,0,0,0,0,0,0,0,0,0,-1,1357,932,0,0
140,92,0,0,0,0,0,0,0,0,0,-1,1364,932,0,0
147,92,0,0,0,0,0,0,0,0,0,-1,1371,932,0,0
154,92,0,0,0,0,0,0,0,0,0,-1,1378,932,0,0
161,92,0,0,0,0,0,0,0,0,0,-1,1385,932,0,0
168,92,0,0,0,0,0,0,0,0,0,-1,1392,932,0,0
175,92,0,0,0,0,0,0,0,0,0,-1,1399,932,0,0
182,92,0,0,0,0,0,0,0,0,0,-1,1406,932,0,0
189,92,0,0,0,0,0,0,0,0,0,-1,1413,932,0,0
196,92,0,0,0,0,0,0,0,0,0,-1,1420,932,0,0
203,92,0,0,0,0,0,0,0,0,0,-1,1427,932,0,0
210,92,0,0,0,0,0,0,0,0,0,-1,1434,932,0,0
217,92,0,0,0,0,0,0,0,0,0,-1,1441,932,0,0
224,92,0,0,0,0,0,0,0,0,0,-1,1448,932,0,0
231,92,0,0,0,0,0,0,0,0,0,-1,1455,932,0,0
238,92,0,0,0,0,0,0,0,0,0,-1,1462,932,0,0
245,92,0,0,0,0,0,0,0,0,0,-1,1469,932,0,0
252,92,0,0,0,0,0,0,0,0,0,-1,1476,932,0,0
259,92,0,0,0,0,0,0,0,0,0,-1,1483,932,0,0
266,92,0,0,0,0,0,0,0,0,0,-1,1490,932,0,0
273,92,0,0,0,0,0,0,0,0,0,-1,1497,932,0,0
280,92,0,0,0,0,0,0,0,0,0,-1,1504,932,0,0
287,92,0,0,0,0,0,0,0,0,0,-1,1511,932,0,0
294,92,0,0,0,0,0,0,0,0,0,-1,1518,932,0,0
301,92,0,0,0,0,0,0,0,0,0,-1,1525,932,0,0
308,92,0,0,0,0,0,0,0,0,0,-1,1532,932,0,0
315,92,0,0,0,0,0,0,0,0,0,-1,1539,932,0,0
322,92,0,0,0,0,0,0,0,0,0,-1,1546,932,0,0
329,92,0,0,0,0,0,0,0,0,0,-1,1553,932,0,0
336,92,0,0,0,0,0,0,0,0,0,-1,1560,932,0,0
343,92,0,0,0,0,0,0,0,0,0,-1,1567,932,0,0
350,92,0,0,0,0,0,0,0,0,0,-1,1574,932,0,0
357,92,0,0,0,0,0,0,0,0,0,-1,1581,932,0,0
364,92,0,0,0,0,0,0,0,0,0,-1,1588,932,0,0
371,92,0,0,0,0,0,0,0,0,0,-1,1595,932,0,0
378,92,0,0,0,0,0,0,0,0,0,-1,1602,932,0,0
385,92,0,0,0,0,0,0,0,0,0,-1,1609,932,0,0
392,92,0,0,0,0,0,0,0,0,0,-1,1616,932,0,0
399,92,0,0,0,0,0,0,0,0,0,-1,1623,932,0,0
406,92,0,0,0,0,0,0,0,0,0,-1,1630,932,0,0
413,92,0,0,0,0,0,0,0,0,0,-1,1637,932,0,0
420,92,0,0,0,0,0,0,0,0,0,-1,1644,932,0,0
427,92,0,0,0,0,0,0,0,0,0,-1,1651,932,0,0
434,92,0,0,0,0,0,0,0,0,0,-1,1658,932,0,0
441,92,0,0,0,0,0,0,0,0,0,-1,1665,932,0,0
448,92,0,0,0,0,0,0,0,0,0,-1,1672,932,0,0
455,92,0,0,0,0,0,0,0,0,0,-1,1679,932,0,0
462,92,0,0,0,0,0,0,0,0,0,-1,1686,932,0,0
469,92,0,0,0,0,0,0,0,0,0,-1,1693,932,0,0
476,92,0,0,0,0,0,0,0,0,0,-1,1700,932,0,0
483,92,0,0,0,0,0,0,0,0,0,-1,1707,932,0,0
490,92,0,0,0,0,0,0,0,0,0,-1,1714,932,0,0
497,92,0,0,0,0,0,0,0,0,0,-1,1721,932,0,0
504,92,0,0,0,0,0,0,0,0,0,-1,1728,932,0,0
511,92,0,0,0,0,0,0,0,0,0,-1,1735,932,0,0
518,92,0,0,0,0,0,0,0,0,0,-1,1742,932,0,0
525,92,0,0,0,0,0,0,0,0,0,-1,1749,932,0,0
532,92,0,0,0,0,0,0,0,0,0,-1,1756,932,0,0
539,92,0,0,0,0,0,0,0,0,0,-1,1763,932,0,0
546,92,0,0,0,0,0,0,0,0,0,-1,1770,932,0,0
553,92,0,0,0,0,0,0,0,0,0,-1,1777,932,0,0
560,92,0,0,0,0,0,0,0,0,0,-1,1784,932,0,0
567,92,0,0,0,0,0,0,0,0,0,-1,1791,932,0,0
574,92,0,0,0,0,0,0,0,0,0,-1,1798,932,0,0
581,92,0,0,0,0,0,0,0,0,0,-1,1805,932,0,0
588,92,0,0,0,0,0,0,0,0,0,-1,1812,932,0,0
595,92,0,0,0,0,0,0,0,0,0,-1,1819,932,0,0
602,92,0,0,0,0,0,0,0,0,0,-1,1826,932,0,0
609,92,0,0,0,0,0,0,0,0,0,-1,1833,932,0,0
616,92,0,0,0,0,0,0,0,0,0,-1,1840,932,0,0
623,92,0,0,0,0,0,0,0,0,0,-1,1847,932,0,0
630,92,0,0,0,0,0,0,0,0,0,-1,1854,932,0,0
637,92,61.7041,2.30786,-0.000824368,0.00522719,-0.000115594,0.00522939,-0.000826575,-1.5517,0.00379194,0.045993,1861,932,61.7041,-2.30786
644,92,61.6399,2.32404,-0.00101993,0.0041155,0.000123367,0.00411846,-0.00102289,1.54679,0.00314259,0.0376983,1868,932,61.6399,-2.32405
651,92,61.6564,2.55756,-0.00133191,0.00338798,0.00041335,0.0034239,-0.00136783,1.4841,0.00285014,0.0376018,1875,932,61.6563,-2.55757
658,92,61.6021,2.63354,-0.00172529,0.00309642,0.000827763,0.00323456,-0.00186344,1.40543,0.00297861,0.0431287,1882,932,61.602,-2.63356
665,92,61.4227,2.7204,-0.00209747,0.00298488,0.00129541,0.00329601,-0.0024086,1.33508,0.00330682,0.0424674,1889,932,61.4227,-2.72041
672,92,61.5193,2.63318,-0.0025876,0.00271297,0.00170735,0.00321531,-0.00308994,1.28465,0.00364058,0.0390269,1896,932,61.5193,-2.63315
679,92,61.5903,2.586,-0.00291901,0.00222974,0.00194784,0.0028836,-0.00357287,1.24693,0.00373472,0.0375848,1903,932,61.5903,-2.58598
686,92,61.4225,2.68811,-0.00297112,0.00170132,0.00186608,0.00235512,-0.00362491,1.2338,0.00347842,0.0305653,1910,932,61.4225,-2.68811
693,92,61.4293,2.8689,-0.00302988,0.00127104,0.00158485,0.00179195,-0.00355079,1.25324,0.00313985,0.0297785,1917,932,61.4293,-2.86887
700,92,61.4192,2.92706,0,0,0,0,0,0,0,-1,1924,932,61.4192,-2.92707
707,92,32.9893,3.26874,0,0,0,0,0,0,0,-1,1931,932,32.9893,-3.26874
714,92,57.6741,4.15344,0,0,0,0,0,0,0,-1,1938,932,57.6741,-4.15345
721,92,57.462,4.84454,-0.00371783,0.00196605,4.3288e-05,0.00196638,-0.00371816,1.56318,0.00333351,0.0365667,1945,932,57.4621,-4.84454
728,92,57.2219,5.41284,-0.00413081,0.00229038,-0.000245346,0.00229974,-0.00414017,-1.53266,0.00376836,0.0288641,1952,932,57.2219,-5.41283
735,92,57.2046,5.95013,-0.00418449,0.00312257,-0.000881337,0.00322737,-0.00428929,-1.45244,0.00435416,0.0217152,1959,932,57.2046,-5.95016
742,92,57.2415,6.4494,-0.00376716,0.00432829,-0.00182455,0.00472051,-0.00415938,-1.35905,0.00513022,0.020133,1966,932,57.2414,-6.44939
749,92,57.1436,6.97638,-0.00280545,0.00602613,-0.00301005,0.00695446,-0.00373378,-1.27164,0.00626354,0.0182426,1973,932,57.1436,-6.97636
756,92,57.0398,7.47717,-0.00131654,0.00812812,-0.00408303,0.00964851,-0.00283693,-1.21434,0.0075576,0.0162993,1980,932,57.0397,-7.47717
763,92,57.0769,7.99036,0.00135772,0.00991871,-0.00539595,0.0125258,-0.00124937,-1.12071,0.00879662,0.0179229,1987,932,57.0769,-7.99035
770,92,57.1753,8.48138,0.00551297,0.0108285,-0.00738216,0.0160168,0.000324718,-0.958187,0.0105713,0.0259359,1994,932,57.1753,-8.48141
777,92,57.4592,8.68341,0,0,0,0,0,0,0,-1,2001,932,57.4592,-8.68339
784,92,57.6655,9.08441,0,0,0,0,0,0,0,-1,2008,932,57.6655,-9.08442
791,92,58.2983,9.86829,0.0354302,0.00199232,-0.0222815,0.0465678,-0.00914531,-0.463536,0.0345001,0.0447911,2015,932,58.2985,-9.86829
798,92,58.7493,10.292,0.0533912,-0.0061242,-0.0325738,0.0677535,-0.0204865,-0.415273,0.0533261,0.0453067,2022,932,58.7493,-10.292
805,92,0,0,0,0,0,0,0,0,0,-1,2029,932,0,0
812,92,0,0,0,0,0,0,0,0,0,-1,2036,932,0,0
-700,85,0,0,0,0,0,0,0,0,0,-1,524,939,0,0
-693,85,0,0,0,0,0,0,0,0,0,-1,531,939,0,0
-686,85,-49.6577,0.259155,0,0,0,0,0,0,0,-1,538,939,-49.6577,-0.259167
-679,85,-43.822,7.80927,0,0,0,0,0,0,0,-1,545,939,-43.822,-7.80929
-672,85,-43.6608,7.09576,0,0,0,0,0,0,0,-1,552,939,-43.6608,-7.09579
-665,85,-43.4763,6.41357,-0.0390117,-0.0166892,-0.0316242,0.00568554,-0.0613864,-0.955042,0.0429451,0.0450053,559,939,-43.4763,-6.41356
-658,85,-43.2432,5.42792,-0.034776,-0.00861655,-0.0204567,0.00258454,-0.0459771,-1.06984,0.0315482,0.0461457,566,939,-43.2432,-5.42794
-651,85,-43.691,5.65759,0,0,0,0,0,0,0,-1,573,939,-43.691,-5.65762
-644,85,-43.7074,6.23712,-0.0256535,0.00189149,-0.0059883,0.00313703,-0.026899,-1.36572,0.0190646,0.0360164,580,939,-43.7074,-6.23712
-637,85,-43.8811,5.90173,-0.0209238,0.00431417,-0.00181137,0.00444351,-0.0210531,-1.49951,0.0157272,0.0219506,587,939,-43.8811,-5.90173
-630,85,-44.001,5.42554,-0.0161553,0.00526894,0.00105268,0.00532053,-0.0162069,1.52182,0.0129477,0.0144255,594,939,-44.001,-5.42553
-623,85,-44.0886,4.96191,-0.0125285,0.00526662,0.00257468,0.00563165,-0.0128935,1.42996,0.010966,0.0102592,601,939,-44.0886,-4.96193
-616,85,-44.0952,4.51062,-0.00967825,0.00405514,0.00268927,0.00456297,-0.0101861,1.38416,0.00871922,0.0093205,608,939,-44.0952,-4.51065
-609,85,-44.1205,4.0293,-0.00817873,0.00332598,0.00213979,0.00371107,-0.00856382,1.39273,0.00726917,0.0124247,615,939,-44.1205,-4.02928
-602,85,-44.1144,3.52203,-0.00733681,0.00239384,0.0011837,0.00253576,-0.00747873,1.45147,0.00601205,0.0171817,622,939,-44.1145,-3.52202
-595,85,-44.0352,3.03149,-0.00661221,0.00145148,0.000402132,0.00147149,-0.00663221,1.52109,0.0049849,0.0199484,629,939,-44.0352,-3.03147
-588,85,-44.01,2.58051,-0.0060979,0.000742601,-0.000192478,0.000748013,-0.00610331,-1.54269,0.00433975,0.0231439,636,939,-44.01,-2.5805
-581,85,-44.4692,2.13452,-0.00600694,0.000305558,-0.000421188,0.000333537,-0.00603492,-1.50447,0.00413894,0.0375401,643,939,-44.4693,-2.13452
-574,85,-44.9367,1.37347,0,0,0,0,0,0,0,-1,650,939,-44.9367,-1.37346
-567,85,-46.5269,0.975891,0,0,0,0,0,0,0,-1,657,939,-46.5269,-0.975892
-560,85,-46.5565,0.966064,-0.00581503,-0.000301398,-0.00112565,-8.04432e-05,-0.00603599,-1.37697,0.00399745,0.0343863,664,939,-46.5565,-0.966047
-553,85,-46.7564,0.920654,-0.00560822,-0.000199154,-0.00106989,4.77862e-06,-0.00581215,-1.38245,0.00387636,0.0382029,671,939,-46.7564,-0.920673
-546,85,-46.7063,0.923096,-0.00495425,-0.000128331,-0.000706224,-2.71057e-05,-0.00505547,-1.42843,0.00336132,0.0388162,678,939,-46.7063,-0.923084
-539,85,-46.5801,0.99585,-0.00367544,-0.000350632,7.53727e-05,-0.000348924,-0.00367715,1.54814,0.0023438,0.0376373,685,939,-46.5801,-0.995824
-532,85,-46.5867,1.10699,-0.0016041,-0.00130515,0.00127157,-0.000174294,-0.00273495,0.843904,0.00176807,0.0388561,692,939,-46.5867,-1.10699
-525,85,-46.6117,1.23621,-0.00018542,-0.00280406,0.00228219,0.00113636,-0.00412584,0.524965,0.00319738,0.0373538,699,939,-46.6117,-1.23621
-518,85,-46.6232,1.29608,-0.000560259,-0.00349715,0.00271669,0.00105946,-0.00511686,0.537627,0.00381377,0.0388406,706,939,-46.6232,-1.29609
-511,85,0,0,0,0,0,0,0,0,0,-1,713,939,0,0
-504,85,0,0,0,0,0,0,0,0,0,-1,720,939,0,0
-497,85,0,0,0,0,0,0,0,0,0,-1,727,939,0,0
-490,85,0,0,0,0,0,0,0,0,0,-1,734,939,0,0
-483,85,0,0,0,0,0,0,0,0,0,-1,741,939,0,0
-476,85,0,0,0,0,0,0,0,0,0,-1,748,939,0,0
-469,85,0,0,0,0,0,0,0,0,0,-1,755,939,0,0
-462,85,0,0,0,0,0,0,0,0,0,-1,762,939,0,0
-455,85,0,0,0,0,0,0,0,0,0,-1,769,939,0,0
-448,85,0,0,0,0,0,0,0,0,0,-1,776,939,0,0
-441,85,0,0,0,0,0,0,0,0,0,-1,783,939,0,0
-434,85,0,0,0,0,0,0,0,0,0,-1,790,939,0,0
-427,85,0,0,0,0,0,0,0,0,0,-1,797,939,0,0
-420,85,0,0,0,0,0,0,0,0,0,-1,804,939,0,0
-413,85,0,0,0,0,0,0,0,0,0,-1,811,939,0,0
-406,85,0,0,0,0,0,0,0,0,0,-1,818,939,0,0
-399,85,0,0,0,0,0,0,0,0,0,-1,825,939,0,0
-392,85,0,0,0,0,0,0,0,0,0,-1,832,939,0,0
-385,85,0,0,0,0,0,0,0,0,0,-1,839,939,0,0
-378,85,0,0,0,0,0,0,0,0,0,-1,846,939,0,0
-371,85,0,0,0,0,0,0,0,0,0,-1,853,939,0,0
-364,85,0,0,0,0,0,0,0,0,0,-1,860,939,0,0
-357,85,0,0,0,0,0,0,0,0,0,-1,867,939,0,0
-350,85,0,0,0,0,0,0,0,0,0,-1,874,939,0,0
-343,85,0,0,0,0,0,0,0,0,0,-1,881,939,0,0
-336,85,0,0,0,0,0,0,0,0,0,-1,888,939,0,0
-329,85,0,0,0,0,0,0,0,0,0,-1,895,939,0,0
-322,85,0,0,0,0,0,0,0,0,0,-1,902,939,0,0
-315,85,0,0,0,0,0,0,0,0,0,-1,909,939,0,0
-308,85,0,0,0,0,0,0,0,0,0,-1,916,939,0,0
-301,85,0,0,0,0,0,0,0,0,0,-1,923,939,0,0
-294,85,0,0,0,0,0,0,0,0,0,-1,930,939,0,0
-287,85,0,0,0,0,0,0,0,0,0,-1,937,939,0,0
-280,85,0,0,0,0,0,0,0,0,0,-1,944,939,0,0
-273,85,0,0,0,0,0,0,0,0,0,-1,951,939,0,0
-266,85,0,0,0,0,0,0,0,0,0,-1,958,939,0,0
-259,85,0,0,0,0,0,0,0,0,0,-1,965,939,0,0
-252,85,0,0,0,0,0,0,0,0,0,-1,972,939,0,0
-245,85,0,0,0,0,0,0,0,0,0,-1,979,939,0,0
-238,85,0,0,0,0,0,0,0,0,0,-1,986,939,0,0
-231,85,0,0,0,0,0,0,0,0,0,-1,993,939,0,0
-224,85,0,0,0,0,0,0,0,0,0,-1,1000,939,0,0
-217,85,0,0,0,0,0,0,0,0,0,-1,1007,939,0,0
-210,85,0,0,0,0,0,0,0,0,0,-1,1014,939,0,0
-203,85,0,0,0,0,0,0,0,0,0,-1,1021,939,0,0
-196,85,0,0,0,0,0,0,0,0,0,-1,1028,939,0,0
-189,85,0,0,0,0,0,0,0,0,0,-1,1035,939,0,0
-182,85,0,0,0,0,0,0,0,0,0,-1,1042,939,0,0
-175,85,0,0,0,0,0,0,0,0,0,-1,1049,939,0,0
-168,85,0,0,0,0,0,0,0,0,0,-1,1056,939,0,0
-161,85,0,0,0,0,0,0,0,0,0,-1,1063,939,0,0
-154,85,0,0,0,0,0,0,0,0,0,-1,1070,939,0,0
-147,85,0,0,0,0,0,0,0,0,0,-1,1077,939,0,0
-140,85,0,0,0,0,0,0,0,0,0,-1,1084,939,0,0
-133,85,0,0,0,0,0,0,0,0,0,-1,1091,939,0,0
-126,85,0,0,0,0,0,0,0,0,0,-1,1098,939,0,0
-119,85,0,0,0,0,0,0,0,0,0,-1,1105,939,0,0
-112,85,0,0,0,0,0,0,0,0,0,-1,1112,939,0,0
-105,85,0,0,0,0,0,0,0,0,0,-1,1119,939,0,0
-98,85,0,0,0,0,0,0,0,0,0,-1,1126,939,0,0
-91,85,0,0,0,0,0,0,0,0,0,-1,1133,939,0,0
-84,85,0,0,0,0,0,0,0,0,0,-1,1140,939,0,0
-77,85,0,0,0,0,0,0,0,0,0,-1,1147,939,0,0
-70,85,0,0,0,0,0,0,0,0,0,-1,1154,939,0,0
-63,85,0,0,0,0,0,0,0,0,0,-1,1161,939,0,0
-56,85,0,0,0,0,0,0,0,0,0,-1,1168,939,0,0
-49,85,0,0,0,0,0,0,0,0,0,-1,1175,939,0,0
-42,85,0,0,0,0,0,0,0,0,0,-1,1182,939,0,0
-35,85,0,0,0,0,0,0,0,0,0,-1,1189,939,0,0
-28,85,0,0,0,0,0,0,0,0,0,-1,1196,939,0,0
-21,85,0,0,0,0,0,0,0,0,0,-1,1203,939,0,0
-14,85,0,0,0,0,0,0,0,0,0,-1,1210,939,0,0
-7,85,0,0,0,0,0,0,0,0,0,-1,1217,939,0,0
0,85,0,0,0,0,0,0,0,0,0,-1,1224,939,0,0
7,85,0,0,0,0,0,0,0,0,0,-1,1231,939,0,0
14,85,0,0,0,0,0,0,0,0,0,-1,1238,939,0,0
21,85,0,0,0,0,0,0,0,0,0,-1,1245,939,0,0
28,85,0,0,0,0,0,0,0,0,0,-1,1252,939,0,0
35,85,0,0,0,0,0,0,0,0,0,-1,1259,939,0,0
42,85,0,0,0,0,0,0,0,0,0,-1,1266,939,0,0
49,85,0,0,0,0,0,0,0,0,0,-1,1273,939,0,0
56,85,0,0,0,0,0,0,0,0,0,-1,1280,939,0,0
63,85,0,0,0,0,0,0,0,0,0,-1,1287,939,0,0
70,85,0,0,0,0,0,0,0,0,0,-1,1294,939,0,0
77,85,0,0,0,0,0,0,0,0,0,-1,1301,939,0,0
84,85,0,0,0,0,0,0,0,0,0,-1,1308,939,0,0
91,85,0,0,0,0,0,0,0,0,0,-1,1315,939,0,0
98,85,0,0,0,0,0,0,0,0,0,-1,1322,939,0,0
105,85,0,0,0,0,0,0,0,0,0,-1,1329,939,0,0
112,85,0,0,0,0,0,0,0,0,0,-1,1336,939,0,0
119,85,0,0,0,0,0,0,0,0,0,-1,1343,939,0,0
126,85,0,0,0,0,0,0,0,0,0,-1,1350,939,0,0
133,85,0,0,0,0,0,0,0,0,0,-1,1357,939,0,0
140,85,0,0,0,0,0,0,0,0,0,-1,1364,939,0,0
147,85,0,0,0,0,0,0,0,0,0,-1,1371,939,0,0
154,85,0,0,0,0,0,0,0,0,0,-1,1378,939,0,0
161,85,0,0,0,0,0,0,0,0,0,-1,1385,939,0,0
168,85,0,0,0,0,0,0,0,0,0,-1,1392,939,0,0
175,85,0,0,0,0,0,0,0,0,0,-1,1399,939,0,0
182,85,0,0,0,0,0,0,0,0,0,-1,1406,939,0,0
189,85,0,0,0,0,0,0,0,0,0,-1,1413,939,0,0
196,85,0,0,0,0,0,0,0,0,0,-1,1420,939,0,0
203,85,0,0,0,0,0,0,0,0,0,-1,1427,939,0,0
210,85,0,0,0,0,0,0,0,0,0,-1,1434,939,0,0
217,85,0,0,0,0,0,0,0,0,0,-1,1441,939,0,0
224,85,0,0,0,0,0,0,0,0,0,-1,1448,939,0,0
231,85,0,0,0,0,0,0,0,0,0,-1,1455,939,0,0
238,85,0,0,0,0,0,0,0,0,0,-1,1462,939,0,0
245,85,0,0,0,0,0,0,0,0,0,-1,1469,939,0,0
252,85,0,0,0,0,0,0,0,0,0,-1,1476,939,0,0
259,85,0,0,0,0,0,0,0,0,0,-1,1483,939,0,0
266,85,0,0,0,0,0,0,0,0,0,-1,1490,939,0,0
273,85,0,0,0,0,0,0,0,0,0,-1,1497,939,0,0
280,85,0,0,0,0,0,0,0,0,0,-1,1504,939,0,0
287,85,0,0,0,0,0,0,0,0,0,-1,1511,939,0,0
294,85,0,0,0,0,0,0,0,0,0,-1,1518,939,0,0
301,85,0,0,0,0,0,0,0,0,0,-1,1525,939,0,0
308,85,0,0,0,0,0,0,0,0,0,-1,1532,939,0,0
315,85,0,0,0,0,0,0,0,0,0,-1,1539,939,0,0
322,85,0,0,0,0,0,0,0,0,0,-1,1546,939,0,0
329,85,0,0,0,0,0,0,0,0,0,-1,1553,939,0,0
336,85,0,0,0,0,0,0,0,0,0,-1,1560,939,0,0
343,85,0,0,0,0,0,0,0,0,0,-1,1567,939,0,0
350,85,0,0,0,0,0,0,0,0,0,-1,1574,939,0,0
357,85,0,0,0,0,0,0,0,0,0,-1,1581,939,0,0
364,85,0,0,0,0,0,0,0,0,0,-1,1588,939,0,0
371,85,0,0,0,0,0,0,0,0,0,-1,1595,939,0,0
378,85,0,0,0,0,0,0,0,0,0,-1,1602,939,0,0
385,85,0,0,0,0,0,0,0,0,0,-1,1609,939,0,0
392,85,0,0,0,0,0,0,0,0,0,-1,1616,939,0,0
399,85,0,0,0,0,0,0,0,0,0,-1,1623,939,0,0
406,85,0,0,0,0,0,0,0,0,0,-1,1630,939,0,0
413,85,0,0,0,0,0,0,0,0,0,-1,1637,939,0,0
420,85,0,0,0,0,0,0,0,0,0,-1,1644,939,0,0
427,85,0,0,0,0,0,0,0,0,0,-1,1651,939,0,0
434,85,0,0,0,0,0,0,0,0,0,-1,1658,939,0,0
441,85,0,0,0,0,0,0,0,0,0,-1,1665,939,0,0
448,85,0,0,0,0,0,0,0,0,0,-1,1672,939,0,0
455,85,0,0,0,0,0,0,0,0,0,-1,1679,939,0,0
462,85,0,0,0,0,0,0,0,0,0,-1,1686,939,0,0
469,85,0,0,0,0,0,0,0,0,0,-1,1693,939,0,0
476,85,0,0,0,0,0,0,0,0,0,-1,1700,939,0,0
483,85,0,0,0,0,0,0,0,0,0,-1,1707,939,0,0
490,85,0,0,0,0,0,0,0,0,0,-1,1714,939,0,0
497,85,0,0,0,0,0,0,0,0,0,-1,1721,939,0,0
504,85,0,0,0,0,0,0,0,0,0,-1,1728,939,0,0
511,85,0,0,0,0,0,0,0,0,0,-1,1735,939,0,0
518,85,0,0,0,0,0,0,0,0,0,-1,1742,939,0,0
525,85,0,0,0,0,0,0,0,0,0,-1,1749,939,0,0
532,85,0,0,0,0,0,0,0,0,0,-1,1756,939,0,0
539,85,0,0,0,0,0,0,0,0,0,-1,1763,939,0,0
546,85,0,0,0,0,0,0,0,0,0,-1,1770,939,0,0
553,85,0,0,0,0,0,0,0,0,0,-1,1777,939,0,0
560,85,0,0,0,0,0,0,0,0,0,-1,1784,939,0,0
567,85,0,0,0,0,0,0,0,0,0,-1,1791,939,0,0
574,85,0,0,0,0,0,0,0,0,0,-1,1798,939,0,0
581,85,0,0,0,0,0,0,0,0,0,-1,1805,939,0,0
588,85,0,0,0,0,0,0,0,0,0,-1,1812,939,0,0
595,85,0,0,0,0,0,0,0,0,0,-1,1819,939,0,0
602,85,0,0,0,0,0,0,0,0,0,-1,1826,939,0,0
609,85,0,0,0,0,0,0,0,0,0,-1,1833,939,0,0
616,85,0,0,0,0,0,0,0,0,0,-1,1840,939,0,0
623,85,0,0,0,0,0,0,0,0,0,-1,1847,939,0,0
630,85,0,0,0,0,0,0,0,0,0,-1,1854,939,0,0
637,85,61.4303,2.68597,0,0,0,0,0,0,0,-1,1861,939,61.4303,-2.68596
644,85,61.6614,2.55225,-0.000825902,0.00380276,4.81044e-05,0.00380326,-0.000826402,1.56041,0.00285118,0.0417312,1868,939,61.6614,-2.55226
651,85,61.6758,2.57611,-0.00116035,0.0029861,0.000337882,0.00301345,-0.0011877,1.49002,0.00250072,0.0403224,1875,939,61.6757,-2.57614
658,85,61.4858,2.73279,-0.00156439,0.00268892,0.00080201,0.00283512,-0.00171059,1.39048,0.0026511,0.0417587,1882,939,61.4858,-2.73279
665,85,61.3097,2.86371,-0.00198154,0.00264314,0.00135879,0.00301282,-0.00235122,1.30516,0.00310477,0.0433523,1889,939,61.3097,-2.8637
672,85,61.5654,2.60162,-0.00254507,0.00246921,0.00188213,0.00309706,-0.00317292,1.24882,0.00362006,0.0417527,1896,939,61.5655,-2.60164
679,85,61.807,2.47522,-0.00293213,0.00204407,0.00221744,0.00288879,-0.00377685,1.20683,0.00385978,0.0398884,1903,939,61.807,-2.47522
686,85,61.595,2.59808,-0.0029906,0.00154843,0.00218499,0.00242929,-0.00387146,1.18758,0.00366937,0.0354294,1910,939,61.5949,-2.59807
693,85,61.4054,2.80688,-0.00307113,0.00113009,0.0019219,0.00187662,-0.00381767,1.2003,0.00335067,0.0318154,1917,939,61.4054,-2.8069
700,85,61.3911,2.95471,-0.00336257,0.00108182,0.00157938,0.00158591,-0.00386665,1.26185,0.00323853,0.04588,1924,939,61.3911,-2.95473
707,85,61.4288,3.08582,0,0,0,0,0,0,0,-1,1931,939,61.4289,-3.08584
714,85,58.2428,4.28827,0,0,0,0,0,0,0,-1,1938,939,58.2428,-4.28827
721,85,58.0118,4.92603,-0.00392061,0.00195547,0.000260518,0.001967,-0.00393213,1.52658,0.00346829,0.0343022,1945,939,58.0119,-4.92601
728,85,57.766,5.62256,-0.00436233,0.00235544,-5.46266e-05,0.00235589,-0.00436277,-1.56267,0.00393628,0.0317688,1952,939,57.766,-5.62258
735,85,57.7816,6.02039,-0.00444371,0.00327976,-0.000771721,0.00335611,-0.00452007,-1.47218,0.00456384,0.0289159,1959,939,57.7816,-6.02037
742,85,57.8541,6.47742,-0.00413702,0.00449932,-0.0017463,0.00483906,-0.00447676,-1.37865,0.00537985,0.0204795,1966,939,57.8541,-6.47742
749,85,57.7548,6.97675,-0.00344111,0.00628416,-0.00291345,0.00709016,-0.0042471,-1.3009,0.00661382,0.0157982,1973,939,57.7547,-6.97677
756,85,57.6211,7.4469,-0.00233173,0.00860344,-0.00395516,0.00988402,-0.00361232,-1.25767,0.00806768,0.0142171,1980,939,57.621,-7.44689
763,85,57.589,7.9259,-0.000112332,0.0108189,-0.00515096,0.0128636,-0.00215707,-1.19291,0.00937782,0.0140199,1987,939,57.5889,-7.92593
770,85,57.5779,8.40857,0.0034169,0.0122964,-0.00688797,0.0160515,-0.000338202,-1.07167,0.0108155,0.0204961,1994,939,57.5779,-8.40855
777,85,57.6877,8.81641,0.00861992,0.0125895,-0.00944125,0.0202523,0.000957095,-0.889003,0.0131941,0.0442727,2001,939,57.6877,-8.81641
784,85,57.8542,9.24451,0,0,0,0,0,0,0,-1,2008,939,57.8542,-9.24453
791,85,59.272,10.1606,0,0,0,0,0,0,0,-1,2015,939,59.272,-10.1607
798,85,60.0508,9.7934,0,0,0,0,0,0,0,-1,2022,939,60.0508,-9.79338
805,85,60.071,9.78387,0,0,0,0,0,0,0,-1,2029,939,60.0711,-9.78387
812,85,0,0,0,0,0,0,0,0,0,-1,2036,939,0,0
-700,78,0,0,0,0,0,0,0,0,0,-1,524,946,0,0
-693,78,0,0,0,0,0,0,0,0,0,-1,531,946,0,0
-686,78,-49.3812,0.384705,0,0,0,0,0,0,0,-1,538,946,-49.3812,-0.384714
-679,78,-48.5165,0.52478,0,0,0,0,0,0,0,-1,545,946,-48.5165,-0.524786
-672,78,-43.4217,7.62286,0,0,0,0,0,0,0,-1,552,946,-43.4216,-7.62283
-665,78,-43.446,7.06567,-0.0384157,-0.0185257,-0.0289858,0.00217371,-0.0591151,-0.950655,0.0401543,0.0477002,559,946,-43.446,-7.06565
-658,78,-43.431,6.73883,-0.0337647,-0.00905649,-0.017759,0.000222879,-0.0430441,-1.0893,0.0287706,0.0471546,566,946,-43.431,-6.73881
-651,78,-43.6049,6.60809,-0.0291311,-0.00193029,-0.00971178,0.00118126,-0.0322427,-1.26074,0.0218995,0.0457919,573,946,-43.6049,-6.60809
-644,78,-44.0197,6.19312,-0.0245092,0.00280672,-0.00417696,0.00343116,-0.0251336,-1.4224,0.0180087,0.0301073,580,946,-44.0197,-6.1931
-637,78,-44.3672,5.74011,-0.0199211,0.00528485,-0.000593641,0.00529882,-0.019935,-1.54726,0.015364,0.0195395,587,946,-44.3672,-5.74014
-630,78,-44.5543,5.33466,-0.0152217,0.00615359,0.00179393,0.0063031,-0.0153712,1.48765,0.0128735,0.0181999,594,946,-44.5543,-5.33466
-623,78,-44.5961,4.90826,-0.0118624,0.00593993,0.00267284,0.00633257,-0.0122551,1.42494,0.0109117,0.0143577,601,946,-44.5961,-4.90829
-616,78,-44.6022,4.45227,-0.0093228,0.00463828,0.00226157,0.0049955,-0.00968002,1.41414,0.0086156,0.0118697,608,946,-44.6022,-4.45227
-609,78,-44.5894,4.03387,-0.0079759,0.00388377,0.00151616,0.00407453,-0.00816666,1.44564,0.00719788,0.0122426,615,946,-44.5894,-4.03388
-602,78,-44.608,3.57886,-0.00709545,0.00289412,0.000559045,0.00292531,-0.00712664,1.51507,0.00597007,0.0169066,622,946,-44.6081,-3.57883
-595,78,-44.5415,3.0741,-0.00628086,0.00174684,-0.000257285,0.00175508,-0.0062891,-1.53879,0.00488403,0.0167743,629,946,-44.5415,-3.07412
-588,78,-44.523,2.68982,-0.00573677,0.000890107,-0.000841163,0.00099521,-0.00584187,-1.44649,0.0042652,0.0144701,636,946,-44.523,-2.68983
-581,78,-44.4172,2.25702,0,0,0,0,0,0,0,-1,643,946,-44.4172,-2.25704
-574,78,-45.6501,1.54791,-0.00554922,-3.86641e-05,-0.00128487,0.000246196,-0.00583408,-1.35262,0.00397399,0.0455245,650,946,-45.6501,-1.54788
-567,78,-46.5595,0.914856,-0.00548817,-0.000332393,-0.00150158,7.30488e-05,-0.00589361,-1.30708,0.00395365,0.0344067,657,946,-46.5595,-0.914872
-560,78,-46.5833,0.914124,-0.00547274,-0.000300056,-0.00151067,0.000108811,-0.00588161,-1.30648,0.00395784,0.0334193,664,946,-46.5833,-0.914125
-553,78,-46.6625,0.683838,-0.00512995,-0.000224409,-0.00124345,7.27742e-05,-0.00542714,-1.3362,0.00364259,0.0394988,671,946,-46.6626,-0.683848
-546,78,-46.5385,0.745422,-0.00427738,-0.00019887,-0.000638596,-0.000101219,-0.00437504,-1.41906,0.00288354,0.0406694,678,946,-46.5384,-0.745437
-539,78,-46.3447,1.00488,-0.00279772,-0.000483631,0.000380431,-0.000422694,-0.00285866,1.41197,0.00178167,0.0383241,685,946,-46.3447,-1.00491
-532,78,-46.4153,1.23584,-0.000609148,-0.0014391,0.00164553,0.000672922,-0.00272117,0.661881,0.00207511,0.0371886,692,946,-46.4153,-1.23582
-525,78,-46.5357,1.45471,0.000900955,-0.0027202,0.00243793,0.0021271,-0.00394635,0.466001,0.00355856,0.0383997,699,946,-46.5357,-1.45473
-518,78,-46.6678,1.27362,0.00043792,-0.00310869,0.00257198,0.00178867,-0.00445944,0.483586,0.00371557,0.042356,706,946,-46.6678,-1.2736
-511,78,0,0,0,0,0,0,0,0,0,-1,713,946,0,0
-504,78,0,0,0,0,0,0,0,0,0,-1,720,946,0,0
-497,78,0,0,0,0,0,0,0,0,0,-1,727,946,0,0
-490,78,0,0,0,0,0,0,0,0,0,-1,734,946,0,0
-483,78,0,0,0,0,0,0,0,0,0,-1,741,946,0,0
-476,78,0,0,0,0,0,0,0,0,0,-1,748,946,0,0
-469,78,0,0,0,0,0,0,0,0,0,-1,755,946,0,0
-462,78,0,0,0,0,0,0,0,0,0,-1,762,946,0,0
-455,78,0,0,0,0,0,0,0,0,0,-1,769,946,0,0
-448,78,0,0,0,0,0,0,0,0,0,-1,776,946,0,0
-441,78,0,0,0,0,0,0,0,0,0,-1,783,946,0,0
-434,78,0,0,0,0,0,0,0,0,0,-1,790,946,0,0
-427,78,0,0,0,0,0,0,0,0,0,-1,797,946,0,0
-420,78,0,0,0,0,0,0,0,0,0,-1,804,946,0,0
-413,78,0,0,0,0,0,0,0,0,0,-1,811,946,0,0
-406,78,0,0,0,0,0,0,0,0,0,-1,818,946,0,0
-399,78,0,0,0,0,0,0,0,0,0,-1,825,946,0,0
-392,78,0,0,0,0,0,0,0,0,0,-1,832,946,0,0
-385,78,0,0,0,0,0,0,0,0,0,-1,839,946,0,0
-378,78,0,0,0,0,0,0,0,0,0,-1,846,946,0,0
-371,78,0,0,0,0,0,0,0,0,0,-1,853,946,0,0
-364,78,0,0,0,0,0,0,0,0,0,-1,860,946,0,0
-357,78,0,0,0,0,0,0,0,0,0,-1,867,946,0,0
-350,78,0,0,0,0,0,0,0,0,0,-1,874,946,0,0
-343,78,0,0,0,0,0,0,0,0,0,-1,881,946,0,0
-336,78,0,0,0,0,0,0,0,0,0,-1,888,946,0,0
-329,78,0,0,0,0,0,0,0,0,0,-1,895,946,0,0
-322,78,0,0,0,0,0,0,0,0,0,-1,902,946,0,0
-315,78,0,0,0,0,0,0,0,0,0,-1,909,946,0,0
-308,78,0,0,0,0,0,0,0,0,0,-1,916,946,0,0
-301,78,0,0,0,0,0,0,0,0,0,-1,923,946,0,0
-294,78,0,0,0,0,0,0,0,0,0,-1,930,946,0,0
-287,78,0,0,0,0,0,0,0,0,0,-1,937,946,0,0
-280,78,0,0,0,0,0,0,0,0,0,-1,944,946,0,0
-273,78,0,0,0,0,0,0,0,0,0,-1,951,946,0,0
-266,78,0,0,0,0,0,0,0,0,0,-1,958,946,0,0
-259,78,0,0,0,0,0,0,0,0,0,-1,965,946,0,0
-252,78,0,0,0,0,0,0,0,0,0,-1,972,946,0,0
-245,78,0,0,0,0,0,0,0,0,0,-1,979,946,0,0
-238,78,0,0,0,0,0,0,0,0,0,-1,986,946,0,0
-231,78,0,0,0,0,0,0,0,0,0,-1,993,946,0,0
-224,78,0,0,0,0,0,0,0,0,0,-1,1000,946,0,0
-217,78,0,0,0,0,0,0,0,0,0,-1,1007,946,0,0
-210,78,0,0,0,0,0,0,0,0,0,-1,1014,946,0,0
-203,78,0,0,0,0,0,0,0,0,0,-1,1021,946,0,0
-196,78,0,0,0,0,0,0,0,0,0,-1,1028,946,0,0
-189,78,0,0,0,0,0,0,0,0,0,-1,1035,946,0,0
-182,78,0,0,0,0,0,0,0,0,0,-1,1042,946,0,0
-175,78,0,0,0,0,0,0,0,0,0,-1,1049,946,0,0
-168,78,0,0,0,0,0,0,0,0,0,-1,1056,946,0,0
-161,78,0,0,0,0,0,0,0,0,0,-1,1063,946,0,0
-154,78,0,0,0,0,0,0,0,0,0,-1,1070,946,0,0
-147,78,0,0,0,0,0,0,0,0,0,-1,1077,946,0,0
-140,78,0,0,0,0,0,0,0,0,0,-1,1084,946,0,0
-133,78,0,0,0,0,0,0,0,0,0,-1,1091,946,0,0
-126,78,0,0,0,0,0,0,0,0,0,-1,1098,946,0,0
-119,78,0,0,0,0,0,0,0,0,0,-1,1105,946,0,0
-112,78,0,0,0,0,0,0,0,0,0,-1,1112,946,0,0
-105,78,0,0,0,0,0,0,0,0,0,-1,1119,946,0,0
-98,78,0,0,0,0,0,0,0,0,0,-1,1126,946,0,0
-91,78,0,0,0,0,0,0,0,0,0,-1,1133,946,0,0
-84,78,0,0,0,0,0,0,0,0,0,-1,1140,946,0,0
-77,78,0,0,0,0,0,0,0,0,0,-1,1147,946,0,0
-70,78,0,0,0,0,0,0,0,0,0,-1,1154,946,0,0
-63,78,0,0,0,0,0,0,0,0,0,-1,1161,946,0,0
-56,78,0,0,0,0,0,0,0,0,0,-1,1168,946,0,0
-49,78,0,0,0,0,0,0,0,0,0,-1,1175,946,0,0
-42,78,0,0,0,0,0,0,0,0,0,-1,1182,946,0,0
-35,78,0,0,0,0,0,0,0,0,0,-1,1189,946,0,0
-28,78,0,0,0,0,0,0,0,0,0,-1,1196,946,0,0
-21,78,0,0,0,0,0,0,0,0,0,-1,1203,946,0,0
-14,78,0,0,0,0,0,0,0,0,0,-1,1210,946,0,0
-7,78,0,0,0,0,0,0,0,0,0,-1,1217,946,0,0
0,78,0,0,0,0,0,0,0,0,0,-1,1224,946,0,0
7,78,0,0,0,0,0,0,0,0,0,-1,1231,946,0,0
14,78,0,0,0,0,0,0,0,0,0,-1,1238,946,0,0
21,78,0,0,0,0,0,0,0,0,0,-1,1245,946,0,0
28,78,0,0,0,0,0,0,0,0,0,-1,1252,946,0,0
35,78,0,0,0,0,0,0,0,0,0,-1,1259,946,0,0
42,78,0,0,0,0,0,0,0,0,0,-1,1266,946,0,0
49,78,0,0,0,0,0,0,0,0,0,-1,1273,946,0,0
56,78,0,0,0,0,0,0,0,0,0,-1,1280,946,0,0
63,78,0,0,0,0,0,0,0,0,0,-1,1287,946,0,0
70,78,0,0,0,0,0,0,0,0,0,-1,1294,946,0,0
77,78,0,0,0,0,0,0,0,0,0,-1,1301,946,0,0
84,78,0,0,0,0,0,0,0,0,0,-1,1308,946,0,0
91,78,0,0,0,0,0,0,0,0,0,-1,1315,946,0,0
98,78,0,0,0,0,0,0,0,0,0,-1,1322,946,0,0
105,78,0,0,0,0,0,0,0,0,0,-1,1329,946,0,0
112,78,0,0,0,0,0,0,0,0,0,-1,1336,946,0,0
119,78,0,0,0,0,0,0,0,0,0,-1,1343,946,0,0
126,78,0,0,0,0,0,0,0,0,0,-1,1350,946,0,0
133,78,0,0,0,0,0,0,0,0,0,-1,1357,946,0,0
140,78,0,0,0,0,0,0,0,0,0,-1,1364,946,0,0
147,78,0,0,0,0,0,0,0,0,0,-1,1371,946,0,0
154,78,0,0,0,0,0,0,0,0,0,-1,1378,946,0,0
161,78,0,0,0,0,0,0,0,0,0,-1,1385,946,0,0
168,78,0,0,0,0,0,0,0,0,0,-1,1392,946,0,0
175,78,0,0,0,0,0,0,0,0,0,-1,1399,946,0,0
182,78,0,0,0,0,0,0,0,0,0,-1,1406,946,0,0
189,78,0,0,0,0,0,0,0,0,0,-1,1413,946,0,0
196,78,0,0,0,0,0,0,0,0,0,-1,1420,946,0,0
203,78,0,0,0,0,0,0,0,0,0,-1,1427,946,0,0
210,78,0,0,0,0,0,0,0,0,0,-1,1434,946,0,0
217,78,0,0,0,0,0,0,0,0,0,-1,1441,946,0,0
224,78,0,0,0,0,0,0,0,0,0,-1,1448,946,0,0
231,78,0,0,0,0,0,0,0,0,0,-1,1455,946,0,0
238,78,0,0,0,0,0,0,0,0,0,-1,1462,946,0,0
245,78,0,0,0,0,0,0,0,0,0,-1,1469,946,0,0
252,78,0,0,0,0,0,0,0,0,0,-1,1476,946,0,0
259,78,0,0,0,0,0,0,0,0,0,-1,1483,946,0,0
266,78,0,0,0,0,0,0,0,0,0,-1,1490,946,0,0
273,78,0,0,0,0,0,0,0,0,0,-1,1497,946,0,0
280,78,0,0,0,0,0,0,0,0,0,-1,1504,946,0,0
287,78,0,0,0,0,0,0,0,0,0,-1,1511,946,0,0
294,78,0,0,0,0,0,0,0,0,0,-1,1518,946,0,0
301,78,0,0,0,0,0,0,0,0,0,-1,1525,946,0,0
308,78,0,0,0,0,0,0,0,0,0,-1,1532,946,0,0
315,78,0,0,0,0,0,0,0,0,0,-1,1539,946,0,0
322,78,0,0,0,0,0,0,0,0,0,-1,1546,946,0,0
329,78,0,0,0,0,0,0,0,0,0,-1,1553,946,0,0
336,78,0,0,0,0,0,0,0,0,0,-1,1560,946,0,0
343,78,0,0,0,0,0,0,0,0,0,-1,1567,946,0,0
350,78,0,0,0,0,0,0,0,0,0,-1,1574,946,0,0
357,78,0,0,0,0,0,0,0,0,0,-1,1581,946,0,0
364,78,0,0,0,0,0,0,0,0,0,-1,1588,946,0,0
371,78,0,0,0,0,0,0,0,0,0,-1,1595,946,0,0
378,78,0,0,0,0,0,0,0,0,0,-1,1602,946,0,0
385,78,0,0,0,0,0,0,0,0,0,-1,1609,946,0,0
392,78,0,0,0,0,0,0,0,0,0,-1,1616,946,0,0
399,78,0,0,0,0,0,0,0,0,0,-1,1623,946,0,0
406,78,0,0,0,0,0,0,0,0,0,-1,1630,946,0,0
413,78,0,0,0,0,0,0,0,0,0,-1,1637,946,0,0
420,78,0,0,0,0,0,0,0,0,0,-1,1644,946,0,0
427,78,0,0,0,0,0,0,0,0,0,-1,1651,946,0,0
434,78,0,0,0,0,0,0,0,0,0,-1,1658,946,0,0
441,78,0,0,0,0,0,0,0,0,0,-1,1665,946,0,0
448,78,0,0,0,0,0,0,0,0,0,-1,1672,946,0,0
455,78,0,0,0,0,0,0,0,0,0,-1,1679,946,0,0
462,78,0,0,0,0,0,0,0,0,0,-1,1686,946,0,0
469,78,0,0,0,0,0,0,0,0,0,-1,1693,946,0,0
476,78,0,0,0,0,0,0,0,0,0,-1,1700,946,0,0
483,78,0,0,0,0,0,0,0,0,0,-1,1707,946,0,0
490,78,0,0,0,0,0,0,0,0,0,-1,1714,946,0,0
497,78,0,0,0,0,0,0,0,0,0,-1,1721,946,0,0
504,78,0,0,0,0,0,0,0,0,0,-1,1728,946,0,0
511,78,0,0,0,0,0,0,0,0,0,-1,1735,946,0,0
518,78,0,0,0,0,0,0,0,0,0,-1,1742,946,0,0
525,78,0,0,0,0,0,0,0,0,0,-1,1749,946,0,0
532,78,0,0,0,0,0,0,0,0,0,-1,1756,946,0,0
539,78,0,0,0,0,0,0,0,0,0,-1,1763,946,0,0
546,78,0,0,0,0,0,0,0,0,0,-1,1770,946,0,0
553,78,0,0,0,0,0,0,0,0,0,-1,1777,946,0,0
560,78,0,0,0,0,0,0,0,0,0,-1,1784,946,0,0
567,78,0,0,0,0,0,0,0,0,0,-1,1791,946,0,0
574,78,0,0,0,0,0,0,0,0,0,-1,1798,946,0,0
581,78,0,0,0,0,0,0,0,0,0,-1,1805,946,0,0
588,78,0,0,0,0,0,0,0,0,0,-1,1812,946,0,0
595,78,0,0,0,0,0,0,0,0,0,-1,1819,946,0,0
602,78,0,0,0,0,0,0,0,0,0,-1,1826,946,0,0
609,78,0,0,0,0,0,0,0,0,0,-1,1833,946,0,0
616,78,0,0,0,0,0,0,0,0,0,-1,1840,946,0,0
623,78,0,0,0,0,0,0,0,0,0,-1,1847,946,0,0
630,78,0,0,0,0,0,0,0,0,0,-1,1854,946,0,0
637,78,61.6007,2.9942,-6.49261e-05,0.00340855,0.00010399,0.00341166,-6.80365e-05,1.54089,0.00229745,0.0490947,1861,946,61.6007,-2.99423
644,78,61.6688,2.77759,-0.000423162,0.0022513,0.000183976,0.0022639,-0.000435758,1.50244,0.00167354,0.042707,1868,946,61.6688,-2.7776
651,78,61.5929,2.64697,-0.00084441,0.0015642,0.000399101,0.00162861,-0.000908818,1.41079,0.0014845,0.0403078,1875,946,61.5929,-2.64699
658,78,61.4586,2.6601,-0.00130469,0.00144618,0.000843278,0.00168411,-0.00154262,1.2958,0.00186355,0.0390494,1882,946,61.4586,-2.66012
665,78,61.41,2.82013,-0.00178936,0.00165324,0.00147362,0.00219787,-0.00233398,1.21678,0.00261686,0.040666,1889,946,61.41,-2.82015
672,78,61.5073,2.68811,-0.00241584,0.00175911,0.00212016,0.00264698,-0.0033037,1.17421,0.00344259,0.0409749,1896,946,61.5073,-2.68813
679,78,61.6201,2.52594,-0.00284899,0.00154448,0.00257176,0.00272999,-0.0040345,1.13886,0.00392961,0.0391168,1903,946,61.6201,-2.52591
686,78,61.5085,2.63287,-0.00291928,0.00120342,0.00262892,0.00248278,-0.00419865,1.11788,0.0038997,0.0362965,1910,946,61.5085,-2.63286
693,78,61.4126,2.64966,-0.0030186,0.000881865,0.00241808,0.00203816,-0.0041749,1.12475,0.00365714,0.0319356,1917,946,61.4126,-2.64967
700,78,61.3423,2.77924,-0.00332743,0.00090132,0.00207571,0.00174991,-0.00417602,1.18271,0.00351562,0.0310502,1924,946,61.3423,-2.77924
707,78,61.3571,3.02069,0,0,0,0,0,0,0,-1,1931,946,61.3571,-3.02069
714,78,58.5609,4.51666,0,0,0,0,0,0,0,-1,1938,946,58.5609,-4.51663
721,78,58.4208,5.01868,-0.00402837,0.00200487,0.000724712,0.0020907,-0.0041142,1.45291,0.00364534,0.0324092,1945,946,58.4208,-5.01865
728,78,58.3491,5.67828,-0.00448896,0.00253808,0.000381145,0.00255869,-0.00450957,1.51677,0.00413235,0.0372036,1952,946,58.3491,-5.6783
735,78,58.4304,6.07831,-0.00462329,0.00358504,-0.000406597,0.00360513,-0.00464338,-1.52142,0.00477484,0.0265999,1959,946,58.4304,-6.07834
742,78,58.4297,6.49823,-0.00450192,0.00486686,-0.00140688,0.00507356,-0.00470863,-1.42492,0.00564906,0.0210157,1966,946,58.4297,-6.4982
749,78,58.2859,6.95728,-0.00413271,0.00676463,-0.0025504,0.00733198,-0.00470006,-1.3519,0.00700189,0.0164102,1973,946,58.2859,-6.95727
756,78,58.2025,7.37885,-0.00350035,0.00933603,-0.00354442,0.0102497,-0.00441401,-1.31851,0.0086867,0.0157662,1980,946,58.2025,-7.37883
763,78,58.1221,7.7851,-0.00190094,0.0120509,-0.00457225,0.0134158,-0.00326582,-1.2807,0.0102081,0.0165935,1987,946,58.1221,-7.7851
770,78,58.0337,8.21515,0.000865949,0.0142619,-0.00594653,0.0165207,-0.00139287,-1.20778,0.0115062,0.0235365,1994,946,58.0337,-8.21518
777,78,57.8638,8.78693,0.0050343,0.015532,-0.00797559,0.019831,0.000735353,-1.07643,0.0129825,0.0449761,2001,946,57.8639,-8.78695
784,78,57.7266,9.37653,0,0,0,0,0,0,0,-1,2008,946,57.7267,-9.37656
791,78,57.6316,10.2905,0,0,0,0,0,0,0,-1,2015,946,57.6315,-10.2905
798,78,61.6345,9.09711,0,0,0,0,0,0,0,-1,2022,946,61.6345,-9.09711
805,78,50.8481,6.75513,0,0,0,0,0,0,0,-1,2029,946,50.848,-6.75512
812,78,0,0,0,0,0,0,0,0,0,-1,2036,946,0,0
-700,71,0,0,0,0,0,0,0,0,0,-1,524,953,0,0
-693,71,0,0,0,0,0,0,0,0,0,-1,531,953,0,0
-686,71,-49.0822,0.473816,0,0,0,0,0,0,0,-1,538,953,-49.0822,-0.473794
-679,71,-49.5477,3.64954,0,0,0,0,0,0,0,-1,545,953,-49.5477,-3.64957
-672,71,-43.4812,8.18744,0,0,0,0,0,0,0,-1,552,953,-43.4812,-8.18745
-665,71,-43.5321,7.66254,-0.0397136,-0.0196739,-0.0262441,-0.00160188,-0.0577856,-0.967755,0.038001,0.046617,559,953,-43.5321,-7.66254
-658,71,-43.6651,7.28918,-0.034204,-0.00867782,-0.0151329,-0.00164442,-0.0412374,-1.13572,0.0269602,0.0499713,566,953,-43.6651,-7.28919
-651,71,-44.0743,6.69733,-0.0290336,-0.00072235,-0.00753359,0.00115751,-0.0309135,-1.32626,0.0210055,0.0481037,573,953,-44.0743,-6.69732
-644,71,-44.5146,6.15179,-0.0241562,0.00425194,-0.00256484,0.00448165,-0.0243859,-1.48147,0.0179387,0.0365309,580,953,-44.5146,-6.15179
-637,71,-44.8899,5.66321,-0.0194808,0.0066333,0.00045647,0.00664128,-0.0194888,1.55332,0.0156823,0.0193308,587,953,-44.8899,-5.66324
-630,71,-45.0259,5.25189,-0.0146722,0.00731417,0.00239192,0.00757138,-0.0149294,1.46367,0.0132204,0.0169063,594,953,-45.0259,-5.25187
-623,71,-45.072,4.85315,-0.0114261,0.00682036,0.00262937,0.0071917,-0.0117974,1.43049,0.0110703,0.0157025,601,953,-45.072,-4.85314
-616,71,-45.0883,4.38953,-0.00900387,0.00537506,0.00178471,0.00559326,-0.00922207,1.44914,0.00863874,0.0160383,608,953,-45.0883,-4.3895
-609,71,-45.0573,3.99646,-0.00765176,0.00449064,0.000877877,0.00455378,-0.0077149,1.499,0.00716127,0.0169553,615,953,-45.0573,-3.99646
-602,71,-45.0406,3.6272,-0.00668078,0.00335046,-9.43176e-05,0.00335135,-0.00668167,-1.5614,0.00589798,0.0179519,622,953,-45.0406,-3.62721
-595,71,-45.0424,3.21893,-0.00575629,0.00199956,-0.000961943,0.00211709,-0.00587382,-1.44922,0.00478048,0.0202057,629,953,-45.0424,-3.21895
-588,71,-45.0038,2.83173,-0.00514643,0.000987811,-0.00156099,0.00136219,-0.00552081,-1.33541,0.00420874,0.0250878,636,953,-45.0038,-2.83173
-581,71,-45.2974,2.08038,0,0,0,0,0,0,0,-1,643,953,-45.2974,-2.08041
-574,71,-46.2056,1.40424,-0.00488547,-9.15865e-05,-0.00201719,0.000644262,-0.00562131,-1.22101,0.00397972,0.0463006,650,953,-46.2056,-1.40421
-567,71,-46.5991,0.8526,-0.00482771,-0.000386677,-0.00212483,0.000466178,-0.00568056,-1.18911,0.00395161,0.0202509,657,953,-46.599,-0.852592
-560,71,-46.5857,0.842773,-0.00474087,-0.000392645,-0.0019538,0.000356272,-0.00548978,-1.20476,0.00378421,0.0294084,664,953,-46.5857,-0.84275
-553,71,-46.6722,0.812439,0,0,0,0,0,0,0,-1,671,953,-46.6722,-0.812455
-546,71,-46.4272,0.989502,-0.00330317,-0.000316906,-0.000625324,-0.00019125,-0.00342882,-1.37249,0.00222487,0.0408869,678,953,-46.4272,-0.989476
-539,71,-46.2181,1.1618,-0.0017102,-0.000596684,0.00062453,-0.000316771,-0.00199011,1.14944,0.00123477,0.04043,685,953,-46.2182,-1.16179
-532,71,-46.5225,1.1748,0.000573106,-0.00139609,0.00193996,0.00176402,-0.00258701,0.550569,0.002527,0.0423475,692,953,-46.5225,-1.1748
-525,71,-46.6321,1.27661,0.00224152,-0.00227,0.00246332,0.00332588,-0.00335436,0.414677,0.00385685,0.0441336,699,953,-46.6322,-1.2766
-518,71,0,0,0,0,0,0,0,0,0,-1,706,953,0,0
-511,71,0,0,0,0,0,0,0,0,0,-1,713,953,0,0
-504,71,0,0,0,0,0,0,0,0,0,-1,720,953,0,0
-497,71,0,0,0,0,0,0,0,0,0,-1,727,953,0,0
-490,71,0,0,0,0,0,0,0,0,0,-1,734,953,0,0
-483,71,0,0,0,0,0,0,0,0,0,-1,741,953,0,0
-476,71,0,0,0,0,0,0,0,0,0,-1,748,953,0,0
-469,71,0,0,0,0,0,0,0,0,0,-1,755,953,0,0
-462,71,0,0,0,0,0,0,0,0,0,-1,762,953,0,0
-455,71,0,0,0,0,0,0,0,0,0,-1,769,953,0,0
-448,71,0,0,0,0,0,0,0,0,0,-1,776,953,0,0
-441,71,0,0,0,0,0,0,0,0,0,-1,783,953,0,0
-434,71,0,0,0,0,0,0,0,0,0,-1,790,953,0,0
-427,71,0,0,0,0,0,0,0,0,0,-1,797,953,0,0
-420,71,0,0,0,0,0,0,0,0,0,-1,804,953,0,0
-413,71,0,0,0,0,0,0,0,0,0,-1,811,953,0,0
-406,71,0,0,0,0,0,0,0,0,0,-1,818,953,0,0
-399,71,0,0,0,0,0,0,0,0,0,-1,825,953,0,0
-392,71,0,0,0,0,0,0,0,0,0,-1,832,953,0,0
-385,71,0,0,0,0,0,0,0,0,0,-1,839,953,0,0
-378,71,0,0,0,0,0,0,0,0,0,-1,846,953,0,0
-371,71,0,0,0,0,0,0,0,0,0,-1,853,953,0,0
-364,71,0,0,0,0,0,0,0,0,0,-1,860,953,0,0
-357,71,0,0,0,0,0,0,0,0,0,-1,867,953,0,0
-350,71,0,0,0,0,0,0,0,0,0,-1,874,953,0,0
-343,71,0,0,0,0,0,0,0,0,0,-1,881,953,0,0
-336,71,0,0,0,0,0,0,0,0,0,-1,888,953,0,0
-329,71,0,0,0,0,0,0,0,0,0,-1,895,953,0,0
-322,71,0,0,0,0,0,0,0,0,0,-1,902,953,0,0
-315,71,0,0,0,0,0,0,0,0,0,-1,909,953,0,0
-308,71,0,0,0,0,0,0,0,0,0,-1,916,953,0,0
-301,71,0,0,0,0,0,0,0,0,0,-1,923,953,0,0
-294,71,0,0,0,0,0,0,0,0,0,-1,930,953,0,0
-287,71,0,0,0,0,0,0,0,0,0,-1,937,953,0,0
-280,71,0,0,0,0,0,0,0,0,0,-1,944,953,0,0
-273,71,0,0,0,0,0,0,0,0,0,-1,951,953,0,0
-266,71,0,0,0,0,0,0,0,0,0,-1,958,953,0,0
-259,71,0,0,0,0,0,0,0,0,0,-1,965,953,0,0
-252,71,0,0,0,0,0,0,0,0,0,-1,972,953,0,0
-245,71,0,0,0,0,0,0,0,0,0,-1,979,953,0,0
-238,71,0,0,0,0,0,0,0,0,0,-1,986,953,0,0
-231,71,0,0,0,0,0,0,0,0,0,-1,993,953,0,0
-224,71,0,0,0,0,0,0,0,0,0,-1,1000,953,0,0
-217,71,0,0,0,0,0,0,0,0,0,-1,1007,953,0,0
-210,71,0,0,0,0,0,0,0,0,0,-1,1014,953,0,0
-203,71,0,0,0,0,0,0,0,0,0,-1,1021,953,0,0
-196,71,0,0,0,0,0,0,0,0,0,-1,1028,953,0,0
-189,71,0,0,0,0,0,0,0,0,0,-1,1035,953,0,0
-182,71,0,0,0,0,0,0,0,0,0,-1,1042,953,0,0
-175,71,0,0,0,0,0,0,0,0,0,-1,1049,953,0,0
-168,71,0,0,0,0,0,0,0,0,0,-1,1056,953,0,0
-161,71,0,0,0,0,0,0,0,0,0,-1,1063,953,0,0
-154,71,0,0,0,0,0,0,0,0,0,-1,1070,953,0,0
-147,71,0,0,0,0,0,0,0,0,0,-1,1077,953,0,0
-140,71,0,0,0,0,0,0,0,0,0,-1,1084,953,0,0
-133,71,0,0,0,0,0,0,0,0,0,-1,1091,953,0,0
-126,71,0,0,0,0,0,0,0,0,0,-1,1098,953,0,0
-119,71,0,0,0,0,0,0,0,0,0,-1,1105,953,0,0
-112,71,0,0,0,0,0,0,0,0,0,-1,1112,953,0,0
-105,71,0,0,0,0,0,0,0,0,0,-1,1119,953,0,0
-98,71,0,0,0,0,0,0,0,0,0,-1,1126,953,0,0
-91,71,0,0,0,0,0,0,0,0,0,-1,1133,953,0,0
-84,71,0,0,0,0,0,0,0,0,0,-1,1140,953,0,0
-77,71,0,0,0,0,0,0,0,0,0,-1,1147,953,0,0
-70,71,0,0,0,0,0,0,0,0,0,-1,1154,953,0,0
-63,71,0,0,0,0,0,0,0,0,0,-1,1161,953,0,0
-56,71,0,0,0,0,0,0,0,0,0,-1,1168,953,0,0
-49,71,0,0,0,0,0,0,0,0,0,-1,1175,953,0,0
-42,71,0,0,0,0,0,0,0,0,0,-1,1182,953,0,0
-35,71,0,0,0,0,0,0,0,0,0,-1,1189,953,0,0
-28,71,0,0,0,0,0,0,0,0,0,-1,1196,953,0,0
-21,71,0,0,0,0,0,0,0,0,0,-1,1203,953,0,0
-14,71,0,0,0,0,0,0,0,0,0,-1,1210,953,0,0
-7,71,0,0,0,0,0,0,0,0,0,-1,1217,953,0,0
0,71,0,0,0,0,0,0,0,0,0,-1,1224,953,0,0
7,71,0,0,0,0,0,0,0,0,0,-1,1231,953,0,0
14,71,0,0,0,0,0,0,0,0,0,-1,1238,953,0,0
21,71,0,0,0,0,0,0,0,0,0,-1,1245,953,0,0
28,71,0,0,0,0,0,0,0,0,0,-1,1252,953,0,0
35,71,0,0,0,0,0,0,0,0,0,-1,1259,953,0,0
42,71,0,0,0,0,0,0,0,0,0,-1,1266,953,0,0
49,71,0,0,0,0,0,0,0,0,0,-1,1273,953,0,0
56,71,0,0,0,0,0,0,0,0,0,-1,1280,953,0,0
63,71,0,0,0,0,0,0,0,0,0,-1,1287,953,0,0
70,71,0,0,0,0,0,0,0,0,0,-1,1294,953,0,0
77,71,0,0,0,0,0,0,0,0,0,-1,1301,953,0,0
84,71,0,0,0,0,0,0,0,0,0,-1,1308,953,0,0
91,71,0,0,0,0,0,0,0,0,0,-1,1315,953,0,0
98,71,0,0,0,0,0,0,0,0,0,-1,1322,953,0,0
105,71,0,0,0,0,0,0,0,0,0,-1,1329,953,0,0
112,71,0,0,0,0,0,0,0,0,0,-1,1336,953,0,0
119,71,0,0,0,0,0,0,0,0,0,-1,1343,953,0,0
126,71,0,0,0,0,0,0,0,0,0,-1,1350,953,0,0
133,71,0,0,0,0,0,0,0,0,0,-1,1357,953,0,0
140,71,0,0,0,0,0,0,0,0,0,-1,1364,953,0,0
147,71,0,0,0,0,0,0,0,0,0,-1,1371,953,0,0
154,71,0,0,0,0,0,0,0,0,0,-1,1378,953,0,0
161,71,0,0,0,0,0,0,0,0,0,-1,1385,953,0,0
168,71,0,0,0,0,0,0,0,0,0,-1,1392,953,0,0
175,71,0,0,0,0,0,0,0,0,0,-1,1399,953,0,0
182,71,0,0,0,0,0,0,0,0,0,-1,1406,953,0,0
189,71,0,0,0,0,0,0,0,0,0,-1,1413,953,0,0
196,71,0,0,0,0,0,0,0,0,0,-1,1420,953,0,0
203,71,0,0,0,0,0,0,0,0,0,-1,1427,953,0,0
210,71,0,0,0,0,0,0,0,0,0,-1,1434,953,0,0
217,71,0,0,0,0,0,0,0,0,0,-1,1441,953,0,0
224,71,0,0,0,0,0,0,0,0,0,-1,1448,953,0,0
231,71,0,0,0,0,0,0,0,0,0,-1,1455,953,0,0
238,71,0,0,0,0,0,0,0,0,0,-1,1462,953,0,0
245,71,0,0,0,0,0,0,0,0,0,-1,1469,953,0,0
252,71,0,0,0,0,0,0,0,0,0,-1,1476,953,0,0
259,71,0,0,0,0,0,0,0,0,0,-1,1483,953,0,0
266,71,0,0,0,0,0,0,0,0,0,-1,1490,953,0,0
273,71,0,0,0,0,0,0,0,0,0,-1,1497,953,0,0
280,71,0,0,0,0,0,0,0,0,0,-1,1504,953,0,0
287,71,0,0,0,0,0,0,0,0,0,-1,1511,953,0,0
294,71,0,0,0,0,0,0,0,0,0,-1,1518,953,0,0
301,71,0,0,0,0,0,0,0,0,0,-1,1525,953,0,0
308,71,0,0,0,0,0,0,0,0,0,-1,1532,953,0,0
315,71,0,0,0,0,0,0,0,0,0,-1,1539,953,0,0
322,71,0,0,0,0,0,0,0,0,0,-1,1546,953,0,0
329,71,0,0,0,0,0,0,0,0,0,-1,1553,953,0,0
336,71,0,0,0,0,0,0,0,0,0,-1,1560,953,0,0
343,71,0,0,0,0,0,0,0,0,0,-1,1567,953,0,0
350,71,0,0,0,0,0,0,0,0,0,-1,1574,953,0,0
357,71,0,0,0,0,0,0,0,0,0,-1,1581,953,0,0
364,71,0,0,0,0,0,0,0,0,0,-1,1588,953,0,0
371,71,0,0,0,0,0,0,0,0,0,-1,1595,953,0,0
378,71,0,0,0,0,0,0,0,0,0,-1,1602,953,0,0
385,71,0,0,0,0,0,0,0,0,0,-1,1609,953,0,0
392,71,0,0,0,0,0,0,0,0,0,-1,1616,953,0,0
399,71,0,0,0,0,0,0,0,0,0,-1,1623,953,0,0
406,71,0,0,0,0,0,0,0,0,0,-1,1630,953,0,0
413,71,0,0,0,0,0,0,0,0,0,-1,1637,953,0,0
420,71,0,0,0,0,0,0,0,0,0,-1,1644,953,0,0
427,71,0,0,0,0,0,0,0,0,0,-1,1651,953,0,0
434,71,0,0,0,0,0,0,0,0,0,-1,1658,953,0,0
441,71,0,0,0,0,0,0,0,0,0,-1,1665,953,0,0
448,71,0,0,0,0,0,0,0,0,0,-1,1672,953,0,0
455,71,0,0,0,0,0,0,0,0,0,-1,1679,953,0,0
462,71,0,0,0,0,0,0,0,0,0,-1,1686,953,0,0
469,71,0,0,0,0,0,0,0,0,0,-1,1693,953,0,0
476,71,0,0,0,0,0,0,0,0,0,-1,1700,953,0,0
483,71,0,0,0,0,0,0,0,0,0,-1,1707,953,0,0
490,71,0,0,0,0,0,0,0,0,0,-1,1714,953,0,0
497,71,0,0,0,0,0,0,0,0,0,-1,1721,953,0,0
504,71,0,0,0,0,0,0,0,0,0,-1,1728,953,0,0
511,71,0,0,0,0,0,0,0,0,0,-1,1735,953,0,0
518,71,0,0,0,0,0,0,0,0,0,-1,1742,953,0,0
525,71,0,0,0,0,0,0,0,0,0,-1,1749,953,0,0
532,71,0,0,0,0,0,0,0,0,0,-1,1756,953,0,0
539,71,0,0,0,0,0,0,0,0,0,-1,1763,953,0,0
546,71,0,0,0,0,0,0,0,0,0,-1,1770,953,0,0
553,71,0,0,0,0,0,0,0,0,0,-1,1777,953,0,0
560,71,0,0,0,0,0,0,0,0,0,-1,1784,953,0,0
567,71,0,0,0,0,0,0,0,0,0,-1,1791,953,0,0
574,71,0,0,0,0,0,0,0,0,0,-1,1798,953,0,0
581,71,0,0,0,0,0,0,0,0,0,-1,1805,953,0,0
588,71,0,0,0,0,0,0,0,0,0,-1,1812,953,0,0
595,71,0,0,0,0,0,0,0,0,0,-1,1819,953,0,0
602,71,0,0,0,0,0,0,0,0,0,-1,1826,953,0,0
609,71,0,0,0,0,0,0,0,0,0,-1,1833,953,0,0
616,71,0,0,0,0,0,0,0,0,0,-1,1840,953,0,0
623,71,0,0,0,0,0,0,0,0,0,-1,1847,953,0,0
630,71,0,0,0,0,0,0,0,0,0,-1,1854,953,0,0
637,71,61.5035,2.88812,0.0010323,0.00179987,0.000591554,0.00212123,0.000710943,1.07316,0.00124668,0.041679,1861,953,61.5035,-2.88812
644,71,61.6277,2.65717,0.000377765,0.000871916,0.000382386,0.0010801,0.000169576,1.07223,0.000670728,0.0401214,1868,953,61.6277,-2.65719
651,71,61.5135,2.57843,-0.000236164,0.0003773,0.000412886,0.000584921,-0.000443785,1.10487,0.000595784,0.0394298,1875,953,61.5135,-2.57846
658,71,61.4279,2.69647,-0.00083016,0.000445096,0.000741305,0.000785272,-0.00117034,1.14057,0.00113634,0.037944,1882,953,61.4278,-2.69649
665,71,61.4292,2.93268,-0.00143838,0.000893691,0.00135348,0.00151415,-0.00205883,1.14097,0.00207083,0.0388346,1889,953,61.4292,-2.93268
672,71,61.6108,2.53479,-0.00215762,0.00131688,0.00206574,0.00227876,-0.0031195,1.13502,0.00312926,0.0390379,1896,953,61.6108,-2.5348
679,71,61.4675,2.70386,-0.00264752,0.00136951,0.00262102,0.00266309,-0.0039411,1.11233,0.00383666,0.0378894,1903,953,61.4675,-2.70386
686,71,61.3898,2.7149,-0.00274133,0.00121269,0.00278068,0.00264753,-0.00417618,1.09443,0.00397248,0.0362936,1910,953,61.3898,-2.7149
693,71,61.4142,2.53473,-0.0028637,0.00100246,0.00264707,0.00234716,-0.00420839,1.10078,0.00383536,0.03444,1917,953,61.4142,-2.53473
700,71,61.361,2.68982,-0.00319,0.00107898,0.00232236,0.00209876,-0.00420978,1.15703,0.00370959,0.0374741,1924,953,61.3609,-2.68983
707,71,61.1775,3.24969,0,0,0,0,0,0,0,-1,1931,953,61.1775,-3.2497
714,71,59.373,4.61627,0,0,0,0,0,0,0,-1,1938,953,59.373,-4.61628
721,71,59.0553,5.09064,-0.00405366,0.0023775,0.00102292,0.00253629,-0.00421245,1.4168,0.00393624,0.0417002,1945,953,59.0554,-5.09065
728,71,58.8187,5.67383,-0.00454956,0.00303204,0.000672914,0.0030913,-0.00460882,1.48296,0.00447435,0.0316368,1952,953,58.8187,-5.67382
735,71,58.8574,6.15833,-0.00475513,0.00413721,-0.000139044,0.00413938,-0.00475731,-1.55517,0.00514063,0.0230331,1959,953,58.8574,-6.15834
742,71,58.9131,6.55249,-0.00485156,0.00544132,-0.00113483,0.00556495,-0.00497519,-1.46228,0.00608853,0.0229308,1966,953,58.9131,-6.55249
749,71,58.8363,6.95435,-0.00482027,0.0073986,-0.00224113,0.00779669,-0.00521836,-1.395,0.00756323,0.0203426,1973,953,58.8363,-6.95432
756,71,58.7642,7.31995,-0.00467802,0.0101507,-0.00319322,0.0108091,-0.00533641,-1.36746,0.00949843,0.0182308,1980,953,58.7642,-7.31994
763,71,58.678,7.72351,-0.00372943,0.0133056,-0.00409525,0.0142389,-0.0046628,-1.34671,0.0113702,0.0209394,1987,953,58.678,-7.7235
770,71,58.4563,8.05878,-0.00173562,0.0162195,-0.00518628,0.0176099,-0.00312599,-1.30887,0.0129087,0.0259715,1994,953,58.4563,-8.05878
777,71,58.2485,8.68188,0.00144619,0.0184149,-0.00677832,0.0207901,-0.000929003,-1.23376,0.0141799,0.0455204,2001,953,58.2486,-8.68188
784,71,58.0935,9.38727,0,0,0,0,0,0,0,-1,2008,953,58.0934,-9.38726
791,71,56.6904,8.60608,0,0,0,0,0,0,0,-1,2015,953,56.6905,-8.60608
798,71,59.2974,9.13574,0,0,0,0,0,0,0,-1,2022,953,59.2973,-9.13574
805,71,59.978,6.41992,0,0,0,0,0,0,0,-1,2029,953,59.9781,-6.41992
812,71,0,0,0,0,0,0,0,0,0,-1,2036,953,0,0
-700,64,0,0,0,0,0,0,0,0,0,-1,524,960,0,0
-693,64,0,0,0,0,0,0,0,0,0,-1,531,960,0,0
-686,64,-56.9679,-1.13049,0,0,0,0,0,0,0,-1,538,960,-56.9679,1.1305
-679,64,-58.4624,-1.99994,0,0,0,0,0,0,0,-1,545,960,-58.4624,1.99994
-672,64,-43.5974,8.45044,0,0,0,0,0,0,0,-1,552,960,-43.5974,-8.45046
-665,64,-43.61,8.07971,-0.0411882,-0.0226351,-0.0250159,-0.00523118,-0.0585922,-0.962951,0.0374397,0.0475099,559,960,-43.61,-8.07968
-658,64,-43.6073,7.51013,-0.0349593,-0.00929301,-0.0139983,-0.00313561,-0.0411167,-1.1564,0.026428,0.0489199,566,960,-43.6073,-7.51013
-651,64,-44.7659,6.54816,-0.0292016,-3.30738e-05,-0.00651377,0.00135545,-0.0305902,-1.36077,0.0208599,0.0480589,573,960,-44.7659,-6.54813
-644,64,-45.3044,5.9928,-0.0239892,0.00543667,-0.00175677,0.00554118,-0.0240937,-1.51138,0.018193,0.0373375,580,960,-45.3044,-5.99283
-637,64,-45.4014,5.46112,-0.0191733,0.00809136,0.00113235,0.00813831,-0.0192202,1.52936,0.0162216,0.0195159,587,960,-45.4013,-5.4611
-630,64,-45.4723,5.11749,-0.0141935,0.00869768,0.00280087,0.0090354,-0.0145312,1.4508,0.013729,0.0140995,594,960,-45.4723,-5.11748
-623,64,-45.5184,4.78473,-0.0109432,0.00780263,0.00249584,0.00812924,-0.0112698,1.44067,0.0112489,0.0152322,601,960,-45.5184,-4.78472
-616,64,-45.5479,4.40607,-0.00855829,0.00616247,0.00130866,0.0062779,-0.00867372,1.48282,0.00866919,0.0201971,608,960,-45.5479,-4.40609
-609,64,-45.4976,4.05316,-0.00717057,0.00508762,0.00026303,0.00509326,-0.00717621,1.54935,0.00711773,0.0194366,615,960,-45.4976,-4.05315
-602,64,-45.4742,3.6983,-0.00609901,0.00376718,-0.00072115,0.00381962,-0.00615144,-1.49822,0.00580903,0.0182294,622,960,-45.4742,-3.69828
-595,64,-45.492,3.37219,-0.00507212,0.00224954,-0.00164162,0.00260077,-0.00542335,-1.36002,0.0047273,0.0228859,629,960,-45.492,-3.37218
-588,64,-45.3831,3.08746,-0.00440395,0.00111289,-0.00225607,0.001918,-0.00520906,-1.22802,0.00425853,0.0354448,636,960,-45.3831,-3.08747
-581,64,-45.188,2.76038,0,0,0,0,0,0,0,-1,643,960,-45.1881,-2.76039
-574,64,-46.587,0.88739,0,0,0,0,0,0,0,-1,650,960,-46.5871,-0.887403
-567,64,-46.5476,0.869629,-0.00393395,-0.000407779,-0.00277252,0.00111476,-0.00545649,-1.0686,0.00406058,0.0257334,657,960,-46.5476,-0.869629
-560,64,-46.5437,0.637512,-0.00378915,-0.000435347,-0.00245642,0.000861972,-0.00508647,-1.0849,0.00371182,0.0354659,664,960,-46.5437,-0.637541
-553,64,-46.447,0.424194,-0.00327818,-0.000371405,-0.00179892,0.000487877,-0.00413746,-1.12517,0.00293448,0.0378394,671,960,-46.447,-0.424166
-546,64,-46.4265,0.643921,-0.00226965,-0.000330747,-0.000761678,-6.73191e-05,-0.00253307,-1.23782,0.00166673,0.0403736,678,960,-46.4265,-0.643924
-539,64,-46.5518,1.20056,-0.000722734,-0.000562807,0.000647978,1.0123e-05,-0.00129566,0.84679,0.00086717,0.0415935,685,960,-46.5518,-1.20056
-532,64,-46.7031,1.11005,0.0014463,-0.00105372,0.00188101,0.00245477,-0.00206219,0.492133,0.00261115,0.0422157,692,960,-46.7031,-1.11002
-525,64,-46.8107,1.05072,0.00310365,-0.00139179,0.00197701,0.00384939,-0.00213753,0.360704,0.00350334,0.0452564,699,960,-46.8107,-1.05072
-518,64,0,0,0,0,0,0,0,0,0,-1,706,960,0,0
-511,64,0,0,0,0,0,0,0,0,0,-1,713,960,0,0
-504,64,0,0,0,0,0,0,0,0,0,-1,720,960,0,0
-497,64,0,0,0,0,0,0,0,0,0,-1,727,960,0,0
-490,64,0,0,0,0,0,0,0,0,0,-1,734,960,0,0
-483,64,0,0,0,0,0,0,0,0,0,-1,741,960,0,0
-476,64,0,0,0,0,0,0,0,0,0,-1,748,960,0,0
-469,64,0,0,0,0,0,0,0,0,0,-1,755,960,0,0
-462,64,0,0,0,0,0,0,0,0,0,-1,762,960,0,0
-455,64,0,0,0,0,0,0,0,0,0,-1,769,960,0,0
-448,64,0,0,0,0,0,0,0,0,0,-1,776,960,0,0
-441,64,0,0,0,0,0,0,0,0,0,-1,783,960,0,0
-434,64,0,0,0,0,0,0,0,0,0,-1,790,960,0,0
-427,64,0,0,0,0,0,0,0,0,0,-1,797,960,0,0
-420,64,0,0,0,0,0,0,0,0,0,-1,804,960,0,0
-413,64,0,0,0,0,0,0,0,0,0,-1,811,960,0,0
-406,64,0,0,0,0,0,0,0,0,0,-1,818,960,0,0
-399,64,0,0,0,0,0,0,0,0,0,-1,825,960,0,0
-392,64,0,0,0,0,0,0,0,0,0,-1,832,960,0,0
-385,64,0,0,0,0,0,0,0,0,0,-1,839,960,0,0
-378,64,0,0,0,0,0,0,0,0,0,-1,846,960,0,0
-371,64,0,0,0,0,0,0,0,0,0,-1,853,960,0,0
-364,64,0,0,0,0,0,0,0,0,0,-1,860,960,0,0
-357,64,0,0,0,0,0,0,0,0,0,-1,867,960,0,0
-350,64,0,0,0,0,0,0,0,0,0,-1,874,960,0,0
-343,64,0,0,0,0,0,0,0,0,0,-1,881,960,0,0
-336,64,0,0,0,0,0,0,0,0,0,-1,888,960,0,0
-329,64,0,0,0,0,0,0,0,0,0,-1,895,960,0,0
-322,64,0,0,0,0,0,0,0,0,0,-1,902,960,0,0
-315,64,0,0,0,0,0,0,0,0,0,-1,909,960,0,0
-308,64,0,0,0,0,0,0,0,0,0,-1,916,960,0,0
-301,64,0,0,0,0,0,0,0,0,0,-1,923,960,0,0
-294,64,0,0,0,0,0,0,0,0,0,-1,930,960,0,0
-287,64,0,0,0,0,0,0,0,0,0,-1,937,960,0,0
-280,64,0,0,0,0,0,0,0,0,0,-1,944,960,0,0
-273,64,0,0,0,0,0,0,0,0,0,-1,951,960,0,0
-266,64,0,0,0,0,0,0,0,0,0,-1,958,960,0,0
-259,64,0,0,0,0,0,0,0,0,0,-1,965,960,0,0
-252,64,0,0,0,0,0,0,0,0,0,-1,972,960,0,0
-245,64,0,0,0,0,0,0,0,0,0,-1,979,960,0,0
-238,64,0,0,0,0,0,0,0,0,0,-1,986,960,0,0
-231,64,0,0,0,0,0,0,0,0,0,-1,993,960,0,0
-224,64,0,0,0,0,0,0,0,0,0,-1,1000,960,0,0
-217,64,0,0,0,0,0,0,0,0,0,-1,1007,960,0,0
-210,64,0,0,0,0,0,0,0,0,0,-1,1014,960,0,0
-203,64,0,0,0,0,0,0,0,0,0,-1,1021,960,0,0
-196,64,0,0,0,0,0,0,0,0,0,-1,1028,960,0,0
-189,64,0,0,0,0,0,0,0,0,0,-1,1035,960,0,0
-182,64,0,0,0,0,0,0,0,0,0,-1,1042,960,0,0
-175,64,0,0,0,0,0,0,0,0,0,-1,1049,960,0,0
-168,64,0,0,0,0,0,0,0,0,0,-1,1056,960,0,0
-161,64,0,0,0,0,0,0,0,0,0,-1,1063,960,0,0
-154,64,0,0,0,0,0,0,0,0,0,-1,1070,960,0,0
-147,64,0,0,0,0,0,0,0,0,0,-1,1077,960,0,0
-140,64,0,0,0,0,0,0,0,0,0,-1,1084,960,0,0
-133,64,0,0,0,0,0,0,0,0,0,-1,1091,960,0,0
-126,64,0,0,0,0,0,0,0,0,0,-1,1098,960,0,0
-119,64,0,0,0,0,0,0,0,0,0,-1,1105,960,0,0
-112,64,0,0,0,0,0,0,0,0,0,-1,1112,960,0,0
-105,64,0,0,0,0,0,0,0,0,0,-1,1119,960,0,0
-98,64,0,0,0,0,0,0,0,0,0,-1,1126,960,0,0
-91,64,0,0,0,0,0,0,0,0,0,-1,1133,960,0,0
-84,64,0,0,0,0,0,0,0,0,0,-1,1140,960,0,0
-77,64,0,0,0,0,0,0,0,0,0,-1,1147,960,0,0
-70,64,0,0,0,0,0,0,0,0,0,-1,1154,960,0,0
-63,64,0,0,0,0,0,0,0,0,0,-1,1161,960,0,0
-56,64,0,0,0,0,0,0,0,0,0,-1,1168,960,0,0
-49,64,0,0,0,0,0,0,0,0,0,-1,1175,960,0,0
-42,64,0,0,0,0,0,0,0,0,0,-1,1182,960,0,0
-35,64,0,0,0,0,0,0,0,0,0,-1,1189,960,0,0
-28,64,0,0,0,0,0,0,0,0,0,-1,1196,960,0,0
-21,64,0,0,0,0,0,0,0,0,0,-1,1203,960,0,0
-14,64,0,0,0,0,0,0,0,0,0,-1,1210,960,0,0
-7,64,0,0,0,0,0,0,0,0,0,-1,1217,960,0,0
0,64,0,0,0,0,0,0,0,0,0,-1,1224,960,0,0
7,64,0,0,0,0,0,0,0,0,0,-1,1231,960,0,0
14,64,0,0,0,0,0,0,0,0,0,-1,1238,960,0,0
21,64,0,0,0,0,0,0,0,0,0,-1,1245,960,0,0
28,64,0,0,0,0,0,0,0,0,0,-1,1252,960,0,0
35,64,0,0,0,0,0,0,0,0,0,-1,1259,960,0,0
42,64,0,0,0,0,0,0,0,0,0,-1,1266,960,0,0
49,64,0,0,0,0,0,0,0,0,0,-1,1273,960,0,0
56,64,0,0,0,0,0,0,0,0,0,-1,1280,960,0,0
63,64,0,0,0,0,0,0,0,0,0,-1,1287,960,0,0
70,64,0,0,0,0,0,0,0,0,0,-1,1294,960,0,0
77,64,0,0,0,0,0,0,0,0,0,-1,1301,960,0,0
84,64,0,0,0,0,0,0,0,0,0,-1,1308,960,0,0
91,64,0,0,0,0,0,0,0,0,0,-1,1315,960,0,0
98,64,0,0,0,0,0,0,0,0,0,-1,1322,960,0,0
105,64,0,0,0,0,0,0,0,0,0,-1,1329,960,0,0
112,64,0,0,0,0,0,0,0,0,0,-1,1336,960,0,0
119,64,0,0,0,0,0,0,0,0,0,-1,1343,960,0,0
126,64,0,0,0,0,0,0,0,0,0,-1,1350,960,0,0
133,64,0,0,0,0,0,0,0,0,0,-1,1357,960,0,0
140,64,0,0,0,0,0,0,0,0,0,-1,1364,960,0,0
147,64,0,0,0,0,0,0,0,0,0,-1,1371,960,0,0
154,64,0,0,0,0,0,0,0,0,0,-1,1378,960,0,0
161,64,0,0,0,0,0,0,0,0,0,-1,1385,960,0,0
168,64,0,0,0,0,0,0,0,0,0,-1,1392,960,0,0
175,64,0,0,0,0,0,0,0,0,0,-1,1399,960,0,0
182,64,0,0,0,0,0,0,0,0,0,-1,1406,960,0,0
189,64,0,0,0,0,0,0,0,0,0,-1,1413,960,0,0
196,64,0,0,0,0,0,0,0,0,0,-1,1420,960,0,0
203,64,0,0,0,0,0,0,0,0,0,-1,1427,960,0,0
210,64,0,0,0,0,0,0,0,0,0,-1,1434,960,0,0
217,64,0,0,0,0,0,0,0,0,0,-1,1441,960,0,0
224,64,0,0,0,0,0,0,0,0,0,-1,1448,960,0,0
231,64,0,0,0,0,0,0,0,0,0,-1,1455,960,0,0
238,64,0,0,0,0,0,0,0,0,0,-1,1462,960,0,0
245,64,0,0,0,0,0,0,0,0,0,-1,1469,960,0,0
252,64,0,0,0,0,0,0,0,0,0,-1,1476,960,0,0
259,64,0,0,0,0,0,0,0,0,0,-1,1483,960,0,0
266,64,0,0,0,0,0,0,0,0,0,-1,1490,960,0,0
273,64,0,0,0,0,0,0,0,0,0,-1,1497,960,0,0
280,64,0,0,0,0,0,0,0,0,0,-1,1504,960,0,0
287,64,0,0,0,0,0,0,0,0,0,-1,1511,960,0,0
294,64,0,0,0,0,0,0,0,0,0,-1,1518,960,0,0
301,64,0,0,0,0,0,0,0,0,0,-1,1525,960,0,0
308,64,0,0,0,0,0,0,0,0,0,-1,1532,960,0,0
315,64,0,0,0,0,0,0,0,0,0,-1,1539,960,0,0
322,64,0,0,0,0,0,0,0,0,0,-1,1546,960,0,0
329,64,0,0,0,0,0,0,0,0,0,-1,1553,960,0,0
336,64,0,0,0,0,0,0,0,0,0,-1,1560,960,0,0
343,64,0,0,0,0,0,0,0,0,0,-1,1567,960,0,0
350,64,0,0,0,0,0,0,0,0,0,-1,1574,960,0,0
357,64,0,0,0,0,0,0,0,0,0,-1,1581,960,0,0
364,64,0,0,0,0,0,0,0,0,0,-1,1588,960,0,0
371,64,0,0,0,0,0,0,0,0,0,-1,1595,960,0,0
378,64,0,0,0,0,0,0,0,0,0,-1,1602,960,0,0
385,64,0,0,0,0,0,0,0,0,0,-1,1609,960,0,0
392,64,0,0,0,0,0,0,0,0,0,-1,1616,960,0,0
399,64,0,0,0,0,0,0,0,0,0,-1,1623,960,0,0
406,64,0,0,0,0,0,0,0,0,0,-1,1630,960,0,0
413,64,0,0,0,0,0,0,0,0,0,-1,1637,960,0,0
420,64,0,0,0,0,0,0,0,0,0,-1,1644,960,0,0
427,64,0,0,0,0,0,0,0,0,0,-1,1651,960,0,0
434,64,0,0,0,0,0,0,0,0,0,-1,1658,960,0,0
441,64,0,0,0,0,0,0,0,0,0,-1,1665,960,0,0
448,64,0,0,0,0,0,0,0,0,0,-1,1672,960,0,0
455,64,0,0,0,0,0,0,0,0,0,-1,1679,960,0,0
462,64,0,0,0,0,0,0,0,0,0,-1,1686,960,0,0
469,64,0,0,0,0,0,0,0,0,0,-1,1693,960,0,0
476,64,0,0,0,0,0,0,0,0,0,-1,1700,960,0,0
483,64,0,0,0,0,0,0,0,0,0,-1,1707,960,0,0
490,64,0,0,0,0,0,0,0,0,0,-1,1714,960,0,0
497,64,0,0,0,0,0,0,0,0,0,-1,1721,960,0,0
504,64,0,0,0,0,0,0,0,0,0,-1,1728,960,0,0
511,64,0,0,0,0,0,0,0,0,0,-1,1735,960,0,0
518,64,0,0,0,0,0,0,0,0,0,-1,1742,960,0,0
525,64,0,0,0,0,0,0,0,0,0,-1,1749,960,0,0
532,64,0,0,0,0,0,0,0,0,0,-1,1756,960,0,0
539,64,0,0,0,0,0,0,0,0,0,-1,1763,960,0,0
546,64,0,0,0,0,0,0,0,0,0,-1,1770,960,0,0
553,64,0,0,0,0,0,0,0,0,0,-1,1777,960,0,0
560,64,0,0,0,0,0,0,0,0,0,-1,1784,960,0,0
567,64,0,0,0,0,0,0,0,0,0,-1,1791,960,0,0
574,64,0,0,0,0,0,0,0,0,0,-1,1798,960,0,0
581,64,0,0,0,0,0,0,0,0,0,-1,1805,960,0,0
588,64,0,0,0,0,0,0,0,0,0,-1,1812,960,0,0
595,64,0,0,0,0,0,0,0,0,0,-1,1819,960,0,0
602,64,0,0,0,0,0,0,0,0,0,-1,1826,960,0,0
609,64,0,0,0,0,0,0,0,0,0,-1,1833,960,0,0
616,64,0,0,0,0,0,0,0,0,0,-1,1840,960,0,0
623,64,0,0,0,0,0,0,0,0,0,-1,1847,960,0,0
630,64,0,0,0,0,0,0,0,0,0,-1,1854,960,0,0
637,64,0,0,0,0,0,0,0,0,0,-1,1861,960,0,0
644,64,61.4294,2.71521,0.00183767,0.00034011,0.000940088,0.00229073,-0.000112958,0.449097,0.00156617,0.0399354,1868,960,61.4294,-2.71521
651,64,61.4794,2.70209,0.000837655,-7.96852e-05,0.000667952,0.00118925,-0.000431285,0.484533,0.000969133,0.0402065,1875,960,61.4794,-2.70211
658,64,61.403,2.90454,-1.85065e-05,4.09905e-05,0.000787127,0.000798931,-0.000776447,0.804286,0.000909575,0.0383461,1882,960,61.403,-2.90455
665,64,61.5112,2.78986,-0.00082285,0.000577074,0.001296,0.00135005,-0.00159583,1.033,0.00170278,0.0421988,1889,960,61.5113,-2.78984
672,64,61.6785,2.5838,-0.0016578,0.00116743,0.00200371,0.00220642,-0.00269679,1.09244,0.00283558,0.0443388,1896,960,61.6785,-2.58379
679,64,61.5864,2.60693,-0.00220586,0.00137268,0.00262463,0.00275992,-0.00359309,1.08457,0.00367841,0.040373,1903,960,61.5864,-2.60693
686,64,61.3921,2.65436,-0.00232296,0.00130987,0.00288148,0.00289967,-0.00391275,1.06663,0.00394762,0.0378257,1910,960,61.3921,-2.65435
693,64,61.365,2.64807,-0.00245526,0.00113656,0.0028297,0.00269214,-0.00401085,1.06816,0.00389486,0.0349193,1917,960,61.3649,-2.64808
700,64,61.4248,2.69922,-0.00278922,0.00121544,0.00253105,0.00244042,-0.0040142,1.12005,0.00376332,0.0339295,1924,960,61.4248,-2.6992
707,64,61.2531,3.24054,-0.00305975,0.00149663,0.00211539,0.0023273,-0.00389042,1.19662,0.00362742,0.0484716,1931,960,61.253,-3.24053
714,64,61.0261,4.15369,0,0,0,0,0,0,0,-1,1938,960,61.0262,-4.15371
721,64,59.412,5.18536,0,0,0,0,0,0,0,-1,1945,960,59.412,-5.18535
728,64,59.2363,5.72253,-0.00436219,0.00338728,0.000950736,0.00350221,-0.00447713,1.45049,0.00461832,0.0245552,1952,960,59.2363,-5.72252
735,64,59.2059,6.22192,-0.00466738,0.0045568,0.000132065,0.00455869,-0.00466927,1.55648,0.0053279,0.0324248,1959,960,59.206,-6.22194
742,64,59.351,6.52582,-0.00501361,0.00591574,-0.000864607,0.00598372,-0.00508158,-1.49234,0.00639563,0.027555,1966,960,59.351,-6.5258
749,64,59.3071,6.90887,-0.00533725,0.00795726,-0.00194192,0.00823511,-0.0056151,-1.42868,0.00804397,0.0171577,1973,960,59.3072,-6.90889
756,64,59.2355,7.29395,-0.00570874,0.0109054,-0.0028724,0.011388,-0.00619133,-1.40434,0.0102962,0.0165573,1980,960,59.2355,-7.29397
763,64,59.2063,7.69067,-0.00544786,0.0144954,-0.00369637,0.0151585,-0.00611092,-1.3933,0.0126448,0.017905,1987,960,59.2063,-7.6907
770,64,58.9778,7.98792,-0.00425446,0.0181109,-0.00456365,0.0190063,-0.00514983,-1.37706,0.0146915,0.0188997,1994,960,58.9777,-7.98794
777,64,58.7686,8.52502,-0.00203237,0.0211794,-0.00578832,0.0225427,-0.00339573,-1.33948,0.0162789,0.0341393,2001,960,58.7686,-8.52503
784,64,58.6006,9.13397,0.00262844,0.0231217,-0.00768352,0.0256825,6.7655e-05,-1.24909,0.0170992,0.0433461,2008,960,58.6006,-9.134
791,64,58.3889,9.70764,0,0,0,0,0,0,0,-1,2015,960,58.389,-9.70761
798,64,60.4878,7.5744,0,0,0,0,0,0,0,-1,2022,960,60.4878,-7.57441
805,64,59.8613,6.30939,0,0,0,0,0,0,0,-1,2029,960,59.8613,-6.30941
812,64,0,0,0,0,0,0,0,0,0,-1,2036,960,0,0
-700,57,0,0,0,0,0,0,0,0,0,-1,524,967,0,0
-693,57,0,0,0,0,0,0,0,0,0,-1,531,967,0,0
-686,57,-55.857,-0.934937,-0.0680199,-0.0820085,-0.0792117,0.00450572,-0.154534,-0.741363,0.104557,0.0477153,538,967,-55.857,0.934955
-679,57,-57.3389,-1.85492,0,0,0,0,0,0,0,-1,545,967,-57.3389,1.85491
-672,57,-58.7777,-2.82947,0,0,0,0,0,0,0,-1,552,967,-58.7777,2.82944
-665,57,-43.5505,8.30469,0,0,0,0,0,0,0,-1,559,967,-43.5505,-8.30469
-658,57,-45.5275,6.17157,0,0,0,0,0,0,0,-1,566,967,-45.5275,-6.1716
-651,57,-45.7607,6.06451,-0.0282478,0.000950541,-0.00711555,0.00259227,-0.0298895,-1.34404,0.0208442,0.0496259,573,967,-45.7607,-6.0645
-644,57,-45.8857,5.76233,-0.0231061,0.00653842,-0.00209117,0.0066852,-0.0232529,-1.50072,0.0181456,0.0374968,580,967,-45.8857,-5.76234
-637,57,-45.8055,5.27716,-0.0183591,0.00946815,0.00113771,0.00951458,-0.0184055,1.53,0.0163899,0.0220601,587,967,-45.8055,-5.27717
-630,57,-45.8983,4.98621,-0.0134712,0.0100317,0.0028403,0.0103701,-0.0138096,1.45222,0.0140071,0.0142772,594,967,-45.8983,-4.98623
-623,57,-45.9406,4.72992,-0.0103372,0.008748,0.00230815,0.00902317,-0.0106124,1.45214,0.011349,0.0140409,601,967,-45.9406,-4.72989
-616,57,-45.937,4.42499,-0.0080243,0.00684714,0.000925396,0.0069045,-0.00808166,1.50889,0.00866116,0.016909,608,967,-45.937,-4.425
-609,57,-45.9324,4.09515,-0.00661115,0.00555611,-0.000245232,0.00556105,-0.00661609,-1.55065,0.00703926,0.0168768,615,967,-45.9325,-4.09514
-602,57,-45.914,3.73462,-0.00545005,0.00405041,-0.00123939,0.00420943,-0.00560907,-1.44319,0.00568788,0.011772,622,967,-45.914,-3.73465
-595,57,-45.8901,3.4234,-0.00433406,0.00237241,-0.00220315,0.00303141,-0.00499306,-1.28015,0.00467885,0.0160105,629,967,-45.8902,-3.42341
-588,57,-45.7617,3.22913,-0.00359056,0.00112468,-0.00281899,0.00244199,-0.00490787,-1.13365,0.00432232,0.0269818,636,967,-45.7617,-3.22912
-581,57,-46.0045,2.14551,0,0,0,0,0,0,0,-1,643,967,-46.0044,-2.1455
-574,57,-46.4937,0.964478,0,0,0,0,0,0,0,-1,650,967,-46.4937,-0.964463
-567,57,-46.4893,0.817261,-0.00286395,-0.000566925,-0.00323815,0.00172036,-0.00515124,-0.955818,0.00412886,0.0329463,657,967,-46.4893,-0.817269
-560,57,-46.5114,0.485596,-0.00264276,-0.000616147,-0.00276474,0.00131513,-0.00457403,-0.961052,0.00356942,0.0408808,664,967,-46.5114,-0.485588
-553,57,-46.5356,0.465393,-0.00207697,-0.000532939,-0.0019331,0.000776608,-0.00338652,-0.975378,0.00255618,0.0390258,671,967,-46.5357,-0.465398
-546,57,-46.4378,0.836487,-0.0010499,-0.000434753,-0.000722535,4.29492e-05,-0.0015276,-0.986625,0.00103302,0.0405094,678,967,-46.4378,-0.836492
-539,57,-46.6934,1.06519,0.000483139,-0.000569917,0.000799172,0.000913642,-0.00100042,0.494115,0.00110546,0.0449368,685,967,-46.6933,-1.06521
-532,57,-46.8279,1.02356,0.00267954,-0.000641944,0.001839,0.0034967,-0.0014591,0.418145,0.00294074,0.0422807,692,967,-46.8279,-1.02358
-525,57,-46.6689,1.03314,0.00449451,-0.000391316,0.00139923,0.00486685,-0.000763659,0.260079,0.00352679,0.0416851,699,967,-46.6689,-1.03315
-518,57,0,0,0,0,0,0,0,0,0,-1,706,967,0,0
-511,57,0,0,0,0,0,0,0,0,0,-1,713,967,0,0
-504,57,0,0,0,0,0,0,0,0,0,-1,720,967,0,0
-497,57,0,0,0,0,0,0,0,0,0,-1,727,967,0,0
-490,57,0,0,0,0,0,0,0,0,0,-1,734,967,0,0
-483,57,0,0,0,0,0,0,0,0,0,-1,741,967,0,0
-476,57,0,0,0,0,0,0,0,0,0,-1,748,967,0,0
-469,57,0,0,0,0,0,0,0,0,0,-1,755,967,0,0
-462,57,0,0,0,0,0,0,0,0,0,-1,762,967,0,0
-455,57,0,0,0,0,0,0,0,0,0,-1,769,967,0,0
-448,57,0,0,0,0,0,0,0,0,0,-1,776,967,0,0
-441,57,0,0,0,0,0,0,0,0,0,-1,783,967,0,0
-434,57,0,0,0,0,0,0,0,0,0,-1,790,967,0,0
-427,57,0,0,0,0,0,0,0,0,0,-1,797,967,0,0
-420,57,0,0,0,0,0,0,0,0,0,-1,804,967,0,0
-413,57,0,0,0,0,0,0,0,0,0,-1,811,967,0,0
-406,57,0,0,0,0,0,0,0,0,0,-1,818,967,0,0
-399,57,0,0,0,0,0,0,0,0,0,-1,825,967,0,0
-392,57,0,0,0,0,0,0,0,0,0,-1,832,967,0,0
-385,57,0,0,0,0,0,0,0,0,0,-1,839,967,0,0
-378,57,0,0,0,0,0,0,0,0,0,-1,846,967,0,0
-371,57,0,0,0,0,0,0,0,0,0,-1,853,967,0,0
-364,57,0,0,0,0,0,0,0,0,0,-1,860,967,0,0
-357,57,0,0,0,0,0,0,0,0,0,-1,867,967,0,0
-350,57,0,0,0,0,0,0,0,0,0,-1,874,967,0,0
-343,57,0,0,0,0,0,0,0,0,0,-1,881,967,0,0
-336,57,0,0,0,0,0,0,0,0,0,-1,888,967,0,0
-329,57,0,0,0,0,0,0,0,0,0,-1,895,967,0,0
-322,57,0,0,0,0,0,0,0,0,0,-1,902,967,0,0
-315,57,0,0,0,0,0,0,0,0,0,-1,909,967,0,0
-308,57,0,0,0,0,0,0,0,0,0,-1,916,967,0,0
-301,57,0,0,0,0,0,0,0,0,0,-1,923,967,0,0
-294,57,0,0,0,0,0,0,0,0,0,-1,930,967,0,0
-287,57,0,0,0,0,0,0,0,0,0,-1,937,967,0,0
-280,57,0,0,0,0,0,0,0,0,0,-1,944,967,0,0
-273,57,0,0,0,0,0,0,0,0,0,-1,951,967,0,0
-266,57,0,0,0,0,0,0,0,0,0,-1,958,967,0,0
-259,57,0,0,0,0,0,0,0,0,0,-1,965,967,0,0
-252,57,0,0,0,0,0,0,0,0,0,-1,972,967,0,0
-245,57,0,0,0,0,0,0,0,0,0,-1,979,967,0,0
-238,57,0,0,0,0,0,0,0,0,0,-1,986,967,0,0
-231,57,0,0,0,0,0,0,0,0,0,-1,993,967,0,0
-224,57,0,0,0,0,0,0,0,0,0,-1,1000,967,0,0
-217,57,0,0,0,0,0,0,0,0,0,-1,1007,967,0,0
-210,57,0,0,0,0,0,0,0,0,0,-1,1014,967,0,0
-203,57,0,0,0,0,0,0,0,0,0,-1,1021,967,0,0
-196,57,0,0,0,0,0,0,0,0,0,-1,1028,967,0,0
-189,57,0,0,0,0,0,0,0,0,0,-1,1035,967,0,0
-182,57,0,0,0,0,0,0,0,0,0,-1,1042,967,0,0
-175,57,0,0,0,0,0,0,0,0,0,-1,1049,967,0,0
-168,57,0,0,0,0,0,0,0,0,0,-1,1056,967,0,0
-161,57,0,0,0,0,0,0,0,0,0,-1,1063,967,0,0
-154,57,0,0,0,0,0,0,0,0,0,-1,1070,967,0,0
-147,57,0,0,0,0,0,0,0,0,0,-1,1077,967,0,0
-140,57,0,0,0,0,0,0,0,0,0,-1,1084,967,0,0
-133,57,0,0,0,0,0,0,0,0,0,-1,1091,967,0,0
-126,57,0,0,0,0,0,0,0,0,0,-1,1098,967,0,0
-119,57,0,0,0,0,0,0,0,0,0,-1,1105,967,0,0
-112,57,0,0,0,0,0,0,0,0,0,-1,1112,967,0,0
-105,57,0,0,0,0,0,0,0,0,0,-1,1119,967,0,0
-98,57,0,0,0,0,0,0,0,0,0,-1,1126,967,0,0
-91,57,0,0,0,0,0,0,0,0,0,-1,1133,967,0,0
-84,57,0,0,0,0,0,0,0,0,0,-1,1140,967,0,0
-77,57,0,0,0,0,0,0,0,0,0,-1,1147,967,0,0
-70,57,0,0,0,0,0,0,0,0,0,-1,1154,967,0,0
-63,57,0,0,0,0,0,0,0,0,0,-1,1161,967,0,0
-56,57,0,0,0,0,0,0,0,0,0,-1,1168,967,0,0
-49,57,0,0,0,0,0,0,0,0,0,-1,1175,967,0,0
-42,57,0,0,0,0,0,0,0,0,0,-1,1182,967,0,0
-35,57,0,0,0,0,0,0,0,0,0,-1,1189,967,0,0
-28,57,0,0,0,0,0,0,0,0,0,-1,1196,967,0,0
-21,57,0,0,0,0,0,0,0,0,0,-1,1203,967,0,0
-14,57,0,0,0,0,0,0,0,0,0,-1,1210,967,0,0
-7,57,0,0,0,0,0,0,0,0,0,-1,1217,967,0,0
0,57,0,0,0,0,0,0,0,0,0,-1,1224,967,0,0
7,57,0,0,0,0,0,0,0,0,0,-1,1231,967,0,0
14,57,0,0,0,0,0,0,0,0,0,-1,1238,967,0,0
21,57,0,0,0,0,0,0,0,0,0,-1,1245,967,0,0
28,57,0,0,0,0,0,0,0,0,0,-1,1252,967,0,0
35,57,0,0,0,0,0,0,0,0,0,-1,1259,967,0,0
42,57,0,0,0,0,0,0,0,0,0,-1,1266,967,0,0
49,57,0,0,0,0,0,0,0,0,0,-1,1273,967,0,0
56,57,0,0,0,0,0,0,0,0,0,-1,1280,967,0,0
63,57,0,0,0,0,0,0,0,0,0,-1,1287,967,0,0
70,57,0,0,0,0,0,0,0,0,0,-1,1294,967,0,0
77,57,0,0,0,0,0,0,0,0,0,-1,1301,967,0,0
84,57,0,0,0,0,0,0,0,0,0,-1,1308,967,0,0
91,57,0,0,0,0,0,0,0,0,0,-1,1315,967,0,0
98,57,0,0,0,0,0,0,0,0,0,-1,1322,967,0,0
105,57,0,0,0,0,0,0,0,0,0,-1,1329,967,0,0
112,57,0,0,0,0,0,0,0,0,0,-1,1336,967,0,0
119,57,0,0,0,0,0,0,0,0,0,-1,1343,967,0,0
126,57,0,0,0,0,0,0,0,0,0,-1,1350,967,0,0
133,57,0,0,0,0,0,0,0,0,0,-1,1357,967,0,0
140,57,0,0,0,0,0,0,0,0,0,-1,1364,967,0,0
147,57,0,0,0,0,0,0,0,0,0,-1,1371,967,0,0
154,57,0,0,0,0,0,0,0,0,0,-1,1378,967,0,0
161,57,0,0,0,0,0,0,0,0,0,-1,1385,967,0,0
168,57,0,0,0,0,0,0,0,0,0,-1,1392,967,0,0
175,57,0,0,0,0,0,0,0,0,0,-1,1399,967,0,0
182,57,0,0,0,0,0,0,0,0,0,-1,1406,967,0,0
189,57,0,0,0,0,0,0,0,0,0,-1,1413,967,0,0
196,57,0,0,0,0,0,0,0,0,0,-1,1420,967,0,0
203,57,0,0,0,0,0,0,0,0,0,-1,1427,967,0,0
210,57,0,0,0,0,0,0,0,0,0,-1,1434,967,0,0
217,57,0,0,0,0,0,0,0,0,0,-1,1441,967,0,0
224,57,0,0,0,0,0,0,0,0,0,-1,1448,967,0,0
231,57,0,0,0,0,0,0,0,0,0,-1,1455,967,0,0
238,57,0,0,0,0,0,0,0,0,0,-1,1462,967,0,0
245,57,0,0,0,0,0,0,0,0,0,-1,1469,967,0,0
252,57,0,0,0,0,0,0,0,0,0,-1,1476,967,0,0
259,57,0,0,0,0,0,0,0,0,0,-1,1483,967,0,0
266,57,0,0,0,0,0,0,0,0,0,-1,1490,967,0,0
273,57,0,0,0,0,0,0,0,0,0,-1,1497,967,0,0
280,57,0,0,0,0,0,0,0,0,0,-1,1504,967,0,0
287,57,0,0,0,0,0,0,0,0,0,-1,1511,967,0,0
294,57,0,0,0,0,0,0,0,0,0,-1,1518,967,0,0
301,57,0,0,0,0,0,0,0,0,0,-1,1525,967,0,0
308,57,0,0,0,0,0,0,0,0,0,-1,1532,967,0,0
315,57,0,0,0,0,0,0,0,0,0,-1,1539,967,0,0
322,57,0,0,0,0,0,0,0,0,0,-1,1546,967,0,0
329,57,0,0,0,0,0,0,0,0,0,-1,1553,967,0,0
336,57,0,0,0,0,0,0,0,0,0,-1,1560,967,0,0
343,57,0,0,0,0,0,0,0,0,0,-1,1567,967,0,0
350,57,0,0,0,0,0,0,0,0,0,-1,1574,967,0,0
357,57,0,0,0,0,0,0,0,0,0,-1,1581,967,0,0
364,57,0,0,0,0,0,0,0,0,0,-1,1588,967,0,0
371,57,0,0,0,0,0,0,0,0,0,-1,1595,967,0,0
378,57,0,0,0,0,0,0,0,0,0,-1,1602,967,0,0
385,57,0,0,0,0,0,0,0,0,0,-1,1609,967,0,0
392,57,0,0,0,0,0,0,0,0,0,-1,1616,967,0,0
399,57,0,0,0,0,0,0,0,0,0,-1,1623,967,0,0
406,57,0,0,0,0,0,0,0,0,0,-1,1630,967,0,0
413,57,0,0,0,0,0,0,0,0,0,-1,1637,967,0,0
420,57,0,0,0,0,0,0,0,0,0,-1,1644,967,0,0
427,57,0,0,0,0,0,0,0,0,0,-1,1651,967,0,0
434,57,0,0,0,0,0,0,0,0,0,-1,1658,967,0,0
441,57,0,0,0,0,0,0,0,0,0,-1,1665,967,0,0
448,57,0,0,0,0,0,0,0,0,0,-1,1672,967,0,0
455,57,0,0,0,0,0,0,0,0,0,-1,1679,967,0,0
462,57,0,0,0,0,0,0,0,0,0,-1,1686,967,0,0
469,57,0,0,0,0,0,0,0,0,0,-1,1693,967,0,0
476,57,0,0,0,0,0,0,0,0,0,-1,1700,967,0,0
483,57,0,0,0,0,0,0,0,0,0,-1,1707,967,0,0
490,57,0,0,0,0,0,0,0,0,0,-1,1714,967,0,0
497,57,0,0,0,0,0,0,0,0,0,-1,1721,967,0,0
504,57,0,0,0,0,0,0,0,0,0,-1,1728,967,0,0
511,57,0,0,0,0,0,0,0,0,0,-1,1735,967,0,0
518,57,0,0,0,0,0,0,0,0,0,-1,1742,967,0,0
525,57,0,0,0,0,0,0,0,0,0,-1,1749,967,0,0
532,57,0,0,0,0,0,0,0,0,0,-1,1756,967,0,0
539,57,0,0,0,0,0,0,0,0,0,-1,1763,967,0,0
546,57,0,0,0,0,0,0,0,0,0,-1,1770,967,0,0
553,57,0,0,0,0,0,0,0,0,0,-1,1777,967,0,0
560,57,0,0,0,0,0,0,0,0,0,-1,1784,967,0,0
567,57,0,0,0,0,0,0,0,0,0,-1,1791,967,0,0
574,57,0,0,0,0,0,0,0,0,0,-1,1798,967,0,0
581,57,0,0,0,0,0,0,0,0,0,-1,1805,967,0,0
588,57,0,0,0,0,0,0,0,0,0,-1,1812,967,0,0
595,57,0,0,0,0,0,0,0,0,0,-1,1819,967,0,0
602,57,0,0,0,0,0,0,0,0,0,-1,1826,967,0,0
609,57,0,0,0,0,0,0,0,0,0,-1,1833,967,0,0
616,57,0,0,0,0,0,0,0,0,0,-1,1840,967,0,0
623,57,0,0,0,0,0,0,0,0,0,-1,1847,967,0,0
630,57,0,0,0,0,0,0,0,0,0,-1,1854,967,0,0
637,57,0,0,0,0,0,0,0,0,0,-1,1861,967,0,0
644,57,61.2747,2.84222,0.00292926,-0.000605322,0.00106007,0.00322281,-0.000898874,0.270147,0.00250257,0.0416803,1868,967,61.2747,-2.84221
651,57,61.3883,2.81995,0.00161881,-0.000762043,0.000612134,0.00176697,-0.000910206,0.237477,0.00157183,0.0356676,1875,967,61.3883,-2.81996
658,57,61.3486,2.78009,0.000590267,-0.000508081,0.000605502,0.000858543,-0.000776357,0.417071,0.000944307,0.0342263,1882,967,61.3487,-2.7801
665,57,61.5033,2.53259,-0.000311717,0.000136175,0.00106255,0.000998124,-0.00117367,0.889259,0.00125525,0.0411324,1889,967,61.5033,-2.53262
672,57,61.7186,2.43372,-0.00120009,0.000865993,0.00178312,0.00189371,-0.0022278,1.04794,0.00238216,0.0449306,1896,967,61.7186,-2.43369
679,57,61.4679,2.75677,-0.00177951,0.00119201,0.0024714,0.00258987,-0.00317738,1.05604,0.00333548,0.0418258,1903,967,61.4679,-2.75677
686,57,61.3527,2.7005,-0.00192125,0.00121161,0.00283572,0.00288478,-0.00359442,1.03774,0.00374824,0.0393641,1910,967,61.3526,-2.70049
693,57,61.3241,2.74487,-0.00206673,0.00106808,0.00288514,0.00278408,-0.00378273,1.03423,0.00380594,0.0341262,1917,967,61.3241,-2.74489
700,57,61.4574,2.55023,0,0,0,0,0,0,0,-1,1924,967,61.4574,-2.55025
707,57,61.2881,3.24402,0,0,0,0,0,0,0,-1,1931,967,61.2881,-3.24404
714,57,61.1188,3.93781,0,0,0,0,0,0,0,-1,1938,967,61.1187,-3.93782
721,57,59.8824,5.36652,0,0,0,0,0,0,0,-1,1945,967,59.8825,-5.36652
728,57,59.7003,5.81616,-0.00424848,0.00358878,0.00115733,0.00375611,-0.00441581,1.42721,0.00472318,0.0253596,1952,967,59.7003,-5.81619
735,57,59.7188,6.24817,-0.00467112,0.00485359,0.000365107,0.00486757,-0.0046851,1.53254,0.00551557,0.0314117,1959,967,59.7188,-6.24817
742,57,59.7887,6.49042,-0.00527928,0.00630048,-0.000604361,0.00633194,-0.00531074,-1.51879,0.00673052,0.0219428,1966,967,59.7887,-6.49039
749,57,59.7185,6.88245,-0.00593889,0.00843274,-0.00163935,0.00861737,-0.00612351,-1.45865,0.00855115,0.0150366,1973,967,59.7185,-6.88247
756,57,59.6517,7.24567,-0.00676503,0.0115285,-0.00255414,0.0118784,-0.00711494,-1.43464,0.0110802,0.0126531,1980,967,59.6517,-7.2457
763,57,59.5685,7.59137,-0.00710875,0.0154422,-0.00334495,0.0159279,-0.00759445,-1.4266,0.0138618,0.0129073,1987,967,59.5684,-7.59138
770,57,59.4424,7.89648,-0.00662343,0.0196453,-0.00405863,0.0202581,-0.00723621,-1.42095,0.0164566,0.0120304,1994,967,59.4423,-7.89648
777,57,59.3225,8.29669,-0.00523195,0.0234529,-0.0050021,0.0243001,-0.00607919,-1.40301,0.0185613,0.02667,2001,967,59.3224,-8.29671
784,57,59.1584,8.76276,-0.0016167,0.0263689,-0.00641457,0.0277691,-0.00301692,-1.35588,0.0195959,0.0467052,2008,967,59.1584,-8.76278
791,57,59.0044,9.23657,0,0,0,0,0,0,0,-1,2015,967,59.0043,-9.2366
798,57,59.9475,7.81067,0,0,0,0,0,0,0,-1,2022,967,59.9474,-7.81069
805,57,59.7292,6.22009,0,0,0,0,0,0,0,-1,2029,967,59.7293,-6.22009
812,57,0,0,0,0,0,0,0,0,0,-1,2036,967,0,0
-700,50,0,0,0,0,0,0,0,0,0,-1,524,974,0,0
-693,50,-52.9344,-0.0435791,0,0,0,0,0,0,0,-1,531,974,-52.9344,0.04358
-686,50,-54.6467,-0.783447,0,0,0,0,0,0,0,-1,538,974,-54.6467,0.783471
-679,50,-56.2155,-1.49927,0,0,0,0,0,0,0,-1,545,974,-56.2156,1.4993
-672,50,-45.188,4.84625,0,0,0,0,0,0,0,-1,552,974,-45.188,-4.84625
-665,50,-46.054,3.17572,0,0,0,0,0,0,0,-1,559,974,-46.0539,-3.17572
-658,50,-45.4432,4.10754,0,0,0,0,0,0,0,-1,566,974,-45.4432,-4.10753
-651,50,-46.0533,5.17914,0,0,0,0,0,0,0,-1,573,974,-46.0533,-5.17911
-644,50,-46.1503,5.48297,0,0,0,0,0,0,0,-1,580,974,-46.1502,-5.48296
-637,50,-46.1563,5.11115,-0.0170992,0.0119683,0.00162688,0.012059,-0.0171899,1.51506,0.0169733,0.0201033,587,974,-46.1563,-5.11114
-630,50,-46.2545,4.8949,-0.0123658,0.0112264,0.00301702,0.0116061,-0.0127455,1.4456,0.0140646,0.0119575,594,974,-46.2545,-4.89489
-623,50,-46.2785,4.68683,-0.00940628,0.00952434,0.00229054,0.00979754,-0.00967948,1.45208,0.0112451,0.0128685,601,974,-46.2785,-4.68681
-616,50,-46.2742,4.42889,-0.00720479,0.00738226,0.000743566,0.00742007,-0.0072426,1.52,0.0084657,0.0134205,608,974,-46.2743,-4.42891
-609,50,-46.2877,4.0799,-0.00579811,0.00585996,-0.000533843,0.00588436,-0.0058225,-1.52513,0.00675899,0.0120246,615,974,-46.2877,-4.07987
-602,50,-46.3038,3.77258,-0.00457619,0.00422658,-0.00157028,0.0044983,-0.00484792,-1.39945,0.0053973,0.0115649,622,974,-46.3038,-3.77258
-595,50,-46.299,3.48993,-0.0034118,0.00242673,-0.00260743,0.00342164,-0.00440671,-1.20628,0.00453161,0.0141041,629,974,-46.299,-3.4899
-588,50,-46.2778,3.06287,-0.00261744,0.00111542,-0.00323721,0.0029857,-0.00448773,-1.0469,0.00434374,0.0250183,636,974,-46.2778,-3.06289
-581,50,-46.3908,1.43945,0,0,0,0,0,0,0,-1,643,974,-46.3908,-1.43947
-574,50,-46.5385,0.792114,0,0,0,0,0,0,0,-1,650,974,-46.5385,-0.792142
-567,50,-46.4589,0.679077,-0.00172208,-0.000668167,-0.00359385,0.00243716,-0.0048274,-0.858193,0.0042692,0.0379367,657,974,-46.4589,-0.679087
-560,50,-46.5721,0.281006,-0.00147117,-0.000715015,-0.00301331,0.00194384,-0.00413002,-0.847806,0.00358167,0.0426341,664,974,-46.5721,-0.281009
-553,50,-46.588,0.641296,-0.000945821,-0.000593664,-0.00206902,0.00130676,-0.00284624,-0.827847,0.00245203,0.0391607,671,974,-46.588,-0.641317
-546,50,-46.5556,1.1297,-4.39182e-05,-0.000428519,-0.000756521,0.00054436,-0.0010168,-0.660939,0.000914988,0.038406,678,974,-46.5556,-1.1297
-539,50,-46.5361,0.968262,0.00129085,-0.000457389,0.00080194,0.00160298,-0.000769521,0.37118,0.00139765,0.0441243,685,974,-46.5361,-0.96826
-532,50,-46.5718,0.913025,0.00331327,-0.000132584,0.00164383,0.00397165,-0.000790972,0.380955,0.00294702,0.0435016,692,974,-46.5718,-0.913017
-525,50,-46.4835,0.986084,0.00515072,0.000694491,0.000792679,0.00528753,0.000557689,0.170899,0.00335461,0.041013,699,974,-46.4835,-0.986112
-518,50,0,0,0,0,0,0,0,0,0,-1,706,974,0,0
-511,50,0,0,0,0,0,0,0,0,0,-1,713,974,0,0
-504,50,0,0,0,0,0,0,0,0,0,-1,720,974,0,0
-497,50,0,0,0,0,0,0,0,0,0,-1,727,974,0,0
-490,50,0,0,0,0,0,0,0,0,0,-1,734,974,0,0
-483,50,0,0,0,0,0,0,0,0,0,-1,741,974,0,0
-476,50,0,0,0,0,0,0,0,0,0,-1,748,974,0,0
-469,50,0,0,0,0,0,0,0,0,0,-1,755,974,0,0
-462,50,0,0,0,0,0,0,0,0,0,-1,762,974,0,0
-455,50,0,0,0,0,0,0,0,0,0,-1,769,974,0,0
-448,50,0,0,0,0,0,0,0,0,0,-1,776,974,0,0
-441,50,0,0,0,0,0,0,0,0,0,-1,783,974,0,0
-434,50,0,0,0,0,0,0,0,0,0,-1,790,974,0,0
-427,50,0,0,0,0,0,0,0,0,0,-1,797,974,0,0
-420,50,0,0,0,0,0,0,0,0,0,-1,804,974,0,0
-413,50,0,0,0,0,0,0,0,0,0,-1,811,974,0,0
-406,50,0,0,0,0,0,0,0,0,0,-1,818,974,0,0
-399,50,0,0,0,0,0,0,0,0,0,-1,825,974,0,0
-392,50,0,0,0,0,0,0,0,0,0,-1,832,974,0,0
-385,50,0,0,0,0,0,0,0,0,0,-1,839,974,0,0
-378,50,0,0,0,0,0,0,0,0,0,-1,846,974,0,0
-371,50,0,0,0,0,0,0,0,0,0,-1,853,974,0,0
-364,50,0,0,0,0,0,0,0,0,0,-1,860,974,0,0
-357,50,0,0,0,0,0,0,0,0,0,-1,867,974,0,0
-350,50,0,0,0,0,0,0,0,0,0,-1,874,974,0,0
-343,50,0,0,0,0,0,0,0,0,0,-1,881,974,0,0
-336,50,0,0,0,0,0,0,0,0,0,-1,888,974,0,0
-329,50,0,0,0,0,0,0,0,0,0,-1,895,974,0,0
-322,50,0,0,0,0,0,0,0,0,0,-1,902,974,0,0
-315,50,0,0,0,0,0,0,0,0,0,-1,909,974,0,0
-308,50,0,0,0,0,0,0,0,0,0,-1,916,974,0,0
-301,50,0,0,0,0,0,0,0,0,0,-1,923,974,0,0
-294,50,0,0,0,0,0,0,0,0,0,-1,930,974,0,0
-287,50,0,0,0,0,0,0,0,0,0,-1,937,974,0,0
-280,50,0,0,0,0,0,0,0,0,0,-1,944,974,0,0
-273,50,0,0,0,0,0,0,0,0,0,-1,951,974,0,0
-266,50,0,0,0,0,0,0,0,0,0,-1,958,974,0,0
-259,50,0,0,0,0,0,0,0,0,0,-1,965,974,0,0
-252,50,0,0,0,0,0,0,0,0,0,-1,972,974,0,0
-245,50,0,0,0,0,0,0,0,0,0,-1,979,974,0,0
-238,50,0,0,0,0,0,0,0,0,0,-1,986,974,0,0
-231,50,0,0,0,0,0,0,0,0,0,-1,993,974,0,0
-224,50,0,0,0,0,0,0,0,0,0,-1,1000,974,0,0
-217,50,0,0,0,0,0,0,0,0,0,-1,1007,974,0,0
-210,50,0,0,0,0,0,0,0,0,0,-1,1014,974,0,0
-203,50,0,0,0,0,0,0,0,0,0,-1,1021,974,0,0
-196,50,0,0,0,0,0,0,0,0,0,-1,1028,974,0,0
-189,50,0,0,0,0,0,0,0,0,0,-1,1035,974,0,0
-182,50,0,0,0,0,0,0,0,0,0,-1,1042,974,0,0
-175,50,0,0,0,0,0,0,0,0,0,-1,1049,974,0,0
-168,50,0,0,0,0,0,0,0,0,0,-1,1056,974,0,0
-161,50,0,0,0,0,0,0,0,0,0,-1,1063,974,0,0
-154,50,0,0,0,0,0,0,0,0,0,-1,1070,974,0,0
-147,50,0,0,0,0,0,0,0,0,0,-1,1077,974,0,0
-140,50,0,0,0,0,0,0,0,0,0,-1,1084,974,0,0
-133,50,0,0,0,0,0,0,0,0,0,-1,1091,974,0,0
-126,50,0,0,0,0,0,0,0,0,0,-1,1098,974,0,0
-119,50,0,0,0,0,0,0,0,0,0,-1,1105,974,0,0
-112,50,0,0,0,0,0,0,0,0,0,-1,1112,974,0,0
-105,50,0,0,0,0,0,0,0,0,0,-1,1119,974,0,0
-98,50,0,0,0,0,0,0,0,0,0,-1,1126,974,0,0
-91,50,0,0,0,0,0,0,0,0,0,-1,1133,974,0,0
-84,50,0,0,0,0,0,0,0,0,0,-1,1140,974,0,0
-77,50,0,0,0,0,0,0,0,0,0,-1,1147,974,0,0
-70,50,0,0,0,0,0,0,0,0,0,-1,1154,974,0,0
-63,50,0,0,0,0,0,0,0,0,0,-1,1161,974,0,0
-56,50,0,0,0,0,0,0,0,0,0,-1,1168,974,0,0
-49,50,0,0,0,0,0,0,0,0,0,-1,1175,974,0,0
-42,50,0,0,0,0,0,0,0,0,0,-1,1182,974,0,0
-35,50,0,0,0,0,0,0,0,0,0,-1,1189,974,0,0
-28,50,0,0,0,0,0,0,0,0,0,-1,1196,974,0,0
-21,50,0,0,0,0,0,0,0,0,0,-1,1203,974,0,0
-14,50,0,0,0,0,0,0,0,0,0,-1,1210,974,0,0
-7,50,0,0,0,0,0,0,0,0,0,-1,1217,974,0,0
0,50,0,0,0,0,0,0,0,0,0,-1,1224,974,0,0
7,50,0,0,0,0,0,0,0,0,0,-1,1231,974,0,0
14,50,0,0,0,0,0,0,0,0,0,-1,1238,974,0,0
21,50,0,0,0,0,0,0,0,0,0,-1,1245,974,0,0
28,50,0,0,0,0,0,0,0,0,0,-1,1252,974,0,0
35,50,0,0,0,0,0,0,0,0,0,-1,1259,974,0,0
42,50,0,0,0,0,0,0,0,0,0,-1,1266,974,0,0
49,50,0,0,0,0,0,0,0,0,0,-1,1273,974,0,0
56,50,0,0,0,0,0,0,0,0,0,-1,1280,974,0,0
63,50,0,0,0,0,0,0,0,0,0,-1,1287,974,0,0
70,50,0,0,0,0,0,0,0,0,0,-1,1294,974,0,0
77,50,0,0,0,0,0,0,0,0,0,-1,1301,974,0,0
84,50,0,0,0,0,0,0,0,0,0,-1,1308,974,0,0
91,50,0,0,0,0,0,0,0,0,0,-1,1315,974,0,0
98,50,0,0,0,0,0,0,0,0,0,-1,1322,974,0,0
105,50,0,0,0,0,0,0,0,0,0,-1,1329,974,0,0
112,50,0,0,0,0,0,0,0,0,0,-1,1336,974,0,0
119,50,0,0,0,0,0,0,0,0,0,-1,1343,974,0,0
126,50,0,0,0,0,0,0,0,0,0,-1,1350,974,0,0
133,50,0,0,0,0,0,0,0,0,0,-1,1357,974,0,0
140,50,0,0,0,0,0,0,0,0,0,-1,1364,974,0,0
147,50,0,0,0,0,0,0,0,0,0,-1,1371,974,0,0
154,50,0,0,0,0,0,0,0,0,0,-1,1378,974,0,0
161,50,0,0,0,0,0,0,0,0,0,-1,1385,974,0,0
168,50,0,0,0,0,0,0,0,0,0,-1,1392,974,0,0
175,50,0,0,0,0,0,0,0,0,0,-1,1399,974,0,0
182,50,0,0,0,0,0,0,0,0,0,-1,1406,974,0,0
189,50,0,0,0,0,0,0,0,0,0,-1,1413,974,0,0
196,50,0,0,0,0,0,0,0,0,0,-1,1420,974,0,0
203,50,0,0,0,0,0,0,0,0,0,-1,1427,974,0,0
210,50,0,0,0,0,0,0,0,0,0,-1,1434,974,0,0
217,50,0,0,0,0,0,0,0,0,0,-1,1441,974,0,0
224,50,0,0,0,0,0,0,0,0,0,-1,1448,974,0,0
231,50,0,0,0,0,0,0,0,0,0,-1,1455,974,0,0
238,50,0,0,0,0,0,0,0,0,0,-1,1462,974,0,0
245,50,0,0,0,0,0,0,0,0,0,-1,1469,974,0,0
252,50,0,0,0,0,0,0,0,0,0,-1,1476,974,0,0
259,50,0,0,0,0,0,0,0,0,0,-1,1483,974,0,0
266,50,0,0,0,0,0,0,0,0,0,-1,1490,974,0,0
273,50,0,0,0,0,0,0,0,0,0,-1,1497,974,0,0
280,50,0,0,0,0,0,0,0,0,0,-1,1504,974,0,0
287,50,0,0,0,0,0,0,0,0,0,-1,1511,974,0,0
294,50,0,0,0,0,0,0,0,0,0,-1,1518,974,0,0
301,50,0,0,0,0,0,0,0,0,0,-1,1525,974,0,0
308,50,0,0,0,0,0,0,0,0,0,-1,1532,974,0,0
315,50,0,0,0,0,0,0,0,0,0,-1,1539,974,0,0
322,50,0,0,0,0,0,0,0,0,0,-1,1546,974,0,0
329,50,0,0,0,0,0,0,0,0,0,-1,1553,974,0,0
336,50,0,0,0,0,0,0,0,0,0,-1,1560,974,0,0
343,50,0,0,0,0,0,0,0,0,0,-1,1567,974,0,0
350,50,0,0,0,0,0,0,0,0,0,-1,1574,974,0,0
357,50,0,0,0,0,0,0,0,0,0,-1,1581,974,0,0
364,50,0,0,0,0,0,0,0,0,0,-1,1588,974,0,0
371,50,0,0,0,0,0,0,0,0,0,-1,1595,974,0,0
378,50,0,0,0,0,0,0,0,0,0,-1,1602,974,0,0
385,50,0,0,0,0,0,0,0,0,0,-1,1609,974,0,0
392,50,0,0,0,0,0,0,0,0,0,-1,1616,974,0,0
399,50,0,0,0,0,0,0,0,0,0,-1,1623,974,0,0
406,50,0,0,0,0,0,0,0,0,0,-1,1630,974,0,0
413,50,0,0,0,0,0,0,0,0,0,-1,1637,974,0,0
420,50,0,0,0,0,0,0,0,0,0,-1,1644,974,0,0
427,50,0,0,0,0,0,0,0,0,0,-1,1651,974,0,0
434,50,0,0,0,0,0,0,0,0,0,-1,1658,974,0,0
441,50,0,0,0,0,0,0,0,0,0,-1,1665,974,0,0
448,50,0,0,0,0,0,0,0,0,0,-1,1672,974,0,0
455,50,0,0,0,0,0,0,0,0,0,-1,1679,974,0,0
462,50,0,0,0,0,0,0,0,0,0,-1,1686,974,0,0
469,50,0,0,0,0,0,0,0,0,0,-1,1693,974,0,0
476,50,0,0,0,0,0,0,0,0,0,-1,1700,974,0,0
483,50,0,0,0,0,0,0,0,0,0,-1,1707,974,0,0
490,50,0,0,0,0,0,0,0,0,0,-1,1714,974,0,0
497,50,0,0,0,0,0,0,0,0,0,-1,1721,974,0,0
504,50,0,0,0,0,0,0,0,0,0,-1,1728,974,0,0
511,50,0,0,0,0,0,0,0,0,0,-1,1735,974,0,0
518,50,0,0,0,0,0,0,0,0,0,-1,1742,974,0,0
525,50,0,0,0,0,0,0,0,0,0,-1,1749,974,0,0
532,50,0,0,0,0,0,0,0,0,0,-1,1756,974,0,0
539,50,0,0,0,0,0,0,0,0,0,-1,1763,974,0,0
546,50,0,0,0,0,0,0,0,0,0,-1,1770,974,0,0
553,50,0,0,0,0,0,0,0,0,0,-1,1777,974,0,0
560,50,0,0,0,0,0,0,0,0,0,-1,1784,974,0,0
567,50,0,0,0,0,0,0,0,0,0,-1,1791,974,0,0
574,50,0,0,0,0,0,0,0,0,0,-1,1798,974,0,0
581,50,0,0,0,0,0,0,0,0,0,-1,1805,974,0,0
588,50,0,0,0,0,0,0,0,0,0,-1,1812,974,0,0
595,50,0,0,0,0,0,0,0,0,0,-1,1819,974,0,0
602,50,0,0,0,0,0,0,0,0,0,-1,1826,974,0,0
609,50,0,0,0,0,0,0,0,0,0,-1,1833,974,0,0
616,50,0,0,0,0,0,0,0,0,0,-1,1840,974,0,0
623,50,0,0,0,0,0,0,0,0,0,-1,1847,974,0,0
630,50,0,0,0,0,0,0,0,0,0,-1,1854,974,0,0
637,50,0,0,0,0,0,0,0,0,0,-1,1861,974,0,0
644,50,61.3853,2.70496,0.0038933,-0.00133687,0.0014404,0.00426375,-0.00170732,0.25173,0.00355115,0.0385087,1868,974,61.3853,-2.70496
651,50,61.4025,2.7915,0.00230531,-0.00125859,0.000752077,0.00245752,-0.0014108,0.199686,0.00226046,0.0313081,1875,974,61.4025,-2.7915
658,50,61.4045,2.63239,0.00114219,-0.000929368,0.000560117,0.00128394,-0.00107112,0.247864,0.00136154,0.0337992,1882,974,61.4045,-2.63239
665,50,61.4056,2.41626,0.000192874,-0.000269792,0.000906771,0.000897356,-0.000974273,0.660504,0.00108089,0.0373944,1889,974,61.4057,-2.41627
672,50,61.4584,2.4126,-0.000696856,0.000525491,0.00158898,0.00161679,-0.00178815,0.968992,0.00196667,0.0382054,1896,974,61.4584,-2.41263
679,50,61.298,2.59857,-0.00127716,0.000940191,0.00230585,0.00239005,-0.00272702,1.00949,0.00295648,0.0397517,1903,974,61.298,-2.59856
686,50,61.2612,2.67725,-0.00143548,0.00103274,0.00276153,0.00282338,-0.00322612,0.995532,0.00349526,0.0413264,1910,974,61.2612,-2.67725
693,50,61.2716,2.70581,-0.00158377,0.000931182,0.0029084,0.0028423,-0.00349489,0.989442,0.00366524,0.0389164,1917,974,61.2716,-2.70583
700,50,61.3206,2.72211,-0.00189495,0.00101898,0.00271394,0.00264231,-0.00351828,1.03174,0.00356878,0.0240959,1924,974,61.3205,-2.72211
707,50,61.3417,2.96271,-0.00220922,0.00127207,0.0023627,0.00246608,-0.00340323,1.10287,0.00340302,0.0378524,1931,974,61.3417,-2.96272
714,50,61.2485,3.26392,0,0,0,0,0,0,0,-1,1938,974,61.2485,-3.26391
721,50,60.1611,5.41052,0,0,0,0,0,0,0,-1,1945,974,60.1612,-5.41051
728,50,60.1433,5.81384,-0.00412946,0.00372714,0.00133777,0.00394868,-0.004351,1.40668,0.0047937,0.0223422,1952,974,60.1433,-5.81385
735,50,60.1827,6.18408,-0.00470116,0.00507132,0.000589275,0.00510672,-0.00473657,1.51079,0.00568436,0.0218061,1959,974,60.1828,-6.18409
742,50,60.1967,6.54449,-0.00558887,0.00659163,-0.000351028,0.00660174,-0.00559898,-1.54201,0.00705201,0.0159624,1966,974,60.1966,-6.54451
749,50,60.1411,6.86414,-0.00657428,0.00879448,-0.0013472,0.00891168,-0.00669148,-1.48402,0.00903884,0.0158334,1973,974,60.1411,-6.86415
756,50,60.0448,7.17377,-0.00780471,0.0119715,-0.00224424,0.012223,-0.0080562,-1.4592,0.0117903,0.0139696,1980,974,60.0448,-7.17376
763,50,59.9413,7.4837,-0.00869105,0.0160897,-0.00303076,0.016455,-0.00905634,-1.45085,0.014934,0.0141725,1987,974,59.9413,-7.48373
770,50,59.8535,7.75519,-0.00884684,0.0207562,-0.00364865,0.0211992,-0.00928991,-1.44995,0.018045,0.0135779,1994,974,59.8534,-7.75522
777,50,59.793,8.05658,-0.00817467,0.0251876,-0.00439357,0.0257565,-0.00874357,-1.44203,0.0207102,0.0259692,2001,974,59.7929,-8.05655
784,50,59.5244,8.54828,-0.00545068,0.0289315,-0.00544771,0.0297741,-0.0062932,-1.41736,0.0222458,0.0444719,2008,974,59.5244,-8.54828
791,50,59.3252,8.9353,0,0,0,0,0,0,0,-1,2015,974,59.3253,-8.93532
798,50,60.1604,7.78644,0,0,0,0,0,0,0,-1,2022,974,60.1603,-7.78645
805,50,60.6084,7.58868,0,0,0,0,0,0,0,-1,2029,974,60.6085,-7.5887
812,50,0,0,0,0,0,0,0,0,0,-1,2036,974,0,0
-700,43,0,0,0,0,0,0,0,0,0,-1,524,981,0,0
-693,43,-51.81,0.0574951,0,0,0,0,0,0,0,-1,531,981,-51.81,-0.0575001
-686,43,-53.3918,-0.494995,0,0,0,0,0,0,0,-1,538,981,-53.3918,0.494974
-679,43,-54.9737,-1.04742,0,0,0,0,0,0,0,-1,545,981,-54.9737,1.04745
-672,43,-45.6067,4.22314,0,0,0,0,0,0,0,-1,552,981,-45.6067,-4.22314
-665,43,-45.805,3.9588,0,0,0,0,0,0,0,-1,559,981,-45.805,-3.95879
-658,43,-46.0436,5.40717,0,0,0,0,0,0,0,-1,566,981,-46.0437,-5.40716
-651,43,-46.1828,5.27411,-0.0264585,0.0167533,-0.0113608,0.0195582,-0.0292633,-1.32875,0.0283721,0.0413402,573,981,-46.1828,-5.27414
-644,43,-46.3679,5.17108,-0.0209101,0.0162571,-0.00475251,0.0168552,-0.0215082,-1.44561,0.0222033,0.0267385,580,981,-46.3679,-5.17107
-637,43,-46.5165,4.96588,-0.0158082,0.014735,0.000656301,0.0147491,-0.0158223,1.54932,0.017654,0.0199587,587,981,-46.5165,-4.96587
-630,43,-46.5499,4.77777,-0.0110948,0.0121676,0.00293306,0.0125317,-0.0114589,1.44729,0.0138556,0.0150512,594,981,-46.5499,-4.77775
-623,43,-46.5449,4.59583,-0.00845962,0.0101185,0.00208755,0.0103502,-0.0086913,1.46027,0.0110075,0.0126075,601,981,-46.5448,-4.59586
-616,43,-46.5418,4.35236,-0.00647211,0.00773678,0.000474237,0.00775259,-0.00648792,1.53747,0.00823256,0.0120473,608,981,-46.5418,-4.35237
-609,43,-46.5643,4.07147,-0.00515255,0.0059854,-0.000841855,0.00604867,-0.00521582,-1.49578,0.00650948,0.0141475,615,981,-46.5643,-4.07147
-602,43,-46.5579,3.83282,-0.00390488,0.00428869,-0.00188886,0.00470317,-0.00431935,-1.35479,0.00521072,0.0173765,622,981,-46.5579,-3.8328
-595,43,-46.6577,3.57806,-0.00269984,0.00245785,-0.00295354,0.00379995,-0.00404194,-1.14428,0.00452824,0.0181258,629,981,-46.6576,-3.57808
-588,43,-46.6481,2.80151,-0.00186606,0.00115474,-0.0035575,0.0035092,-0.00422052,-0.98615,0.00446905,0.0355892,636,981,-46.6481,-2.80152
-581,43,-46.5685,1.40509,-0.00129876,0.000246572,-0.00385788,0.0034084,-0.00446059,-0.884232,0.00455668,0.0410693,643,981,-46.5685,-1.40511
-574,43,-46.4637,0.160889,0,0,0,0,0,0,0,-1,650,981,-46.4637,-0.160879
-567,43,-46.4509,0.959045,-0.000749928,-0.000565819,-0.00383893,0.00318216,-0.0044979,-0.797386,0.00445572,0.0409378,657,981,-46.4508,-0.959049
-560,43,-46.4163,0.852844,-0.000458896,-0.000561572,-0.00320296,0.00269314,-0.00371361,-0.777385,0.00371455,0.0435211,664,981,-46.4163,-0.852843
-553,43,-46.5861,0.894531,1.74103e-05,-0.000360558,-0.00219575,0.0020323,-0.00237544,-0.74247,0.00254738,0.0417137,671,981,-46.5861,-0.894531
-546,43,-46.7048,1.17004,0.000751155,-0.00010624,-0.000816633,0.00124478,-0.000599861,-0.543691,0.00108648,0.041347,678,981,-46.7048,-1.17002
-539,43,-46.5321,0.953796,0.00176822,-3.83244e-05,0.000776412,0.00205605,-0.000326151,0.355007,0.00149135,0.0445252,685,981,-46.5321,-0.953767
-532,43,-46.3897,0.878235,0.00338262,0.000610912,0.00146926,0.0040165,-2.29664e-05,0.407301,0.00268536,0.0445195,692,981,-46.3897,-0.878236
-525,43,-46.2269,0.979004,0.00491611,0.00188884,0.000331259,0.00495193,0.00185302,0.107727,0.00288901,0.0460049,699,981,-46.2269,-0.979027
-518,43,0,0,0,0,0,0,0,0,0,-1,706,981,0,0
-511,43,0,0,0,0,0,0,0,0,0,-1,713,981,0,0
-504,43,0,0,0,0,0,0,0,0,0,-1,720,981,0,0
-497,43,0,0,0,0,0,0,0,0,0,-1,727,981,0,0
-490,43,0,0,0,0,0,0,0,0,0,-1,734,981,0,0
-483,43,0,0,0,0,0,0,0,0,0,-1,741,981,0,0
-476,43,0,0,0,0,0,0,0,0,0,-1,748,981,0,0
-469,43,0,0,0,0,0,0,0,0,0,-1,755,981,0,0
-462,43,0,0,0,0,0,0,0,0,0,-1,762,981,0,0
-455,43,0,0,0,0,0,0,0,0,0,-1,769,981,0,0
-448,43,0,0,0,0,0,0,0,0,0,-1,776,981,0,0
-441,43,0,0,0,0,0,0,0,0,0,-1,783,981,0,0
-434,43,0,0,0,0,0,0,0,0,0,-1,790,981,0,0
-427,43,0,0,0,0,0,0,0,0,0,-1,797,981,0,0
-420,43,0,0,0,0,0,0,0,0,0,-1,804,981,0,0
-413,43,0,0,0,0,0,0,0,0,0,-1,811,981,0,0
-406,43,0,0,0,0,0,0,0,0,0,-1,818,981,0,0
-399,43,0,0,0,0,0,0,0,0,0,-1,825,981,0,0
-392,43,0,0,0,0,0,0,0,0,0,-1,832,981,0,0
-385,43,0,0,0,0,0,0,0,0,0,-1,839,981,0,0
-378,43,0,0,0,0,0,0,0,0,0,-1,846,981,0,0
-371,43,0,0,0,0,0,0,0,0,0,-1,853,981,0,0
-364,43,0,0,0,0,0,0,0,0,0,-1,860,981,0,0
-357,43,0,0,0,0,0,0,0,0,0,-1,867,981,0,0
-350,43,0,0,0,0,0,0,0,0,0,-1,874,981,0,0
-343,43,0,0,0,0,0,0,0,0,0,-1,881,981,0,0
-336,43,0,0,0,0,0,0,0,0,0,-1,888,981,0,0
-329,43,0,0,0,0,0,0,0,0,0,-1,895,981,0,0
-322,43,0,0,0,0,0,0,0,0,0,-1,902,981,0,0
-315,43,0,0,0,0,0,0,0,0,0,-1,909,981,0,0
-308,43,0,0,0,0,0,0,0,0,0,-1,916,981,0,0
-301,43,0,0,0,0,0,0,0,0,0,-1,923,981,0,0
-294,43,0,0,0,0,0,0,0,0,0,-1,930,981,0,0
-287,43,0,0,0,0,0,0,0,0,0,-1,937,981,0,0
-280,43,0,0,0,0,0,0,0,0,0,-1,944,981,0,0
-273,43,0,0,0,0,0,0,0,0,0,-1,951,981,0,0
-266,43,0,0,0,0,0,0,0,0,0,-1,958,981,0,0
-259,43,0,0,0,0,0,0,0,0,0,-1,965,981,0,0
-252,43,0,0,0,0,0,0,0,0,0,-1,972,981,0,0
-245,43,0,0,0,0,0,0,0,0,0,-1,979,981,0,0
-238,43,0,0,0,0,0,0,0,0,0,-1,986,981,0,0
-231,43,0,0,0,0,0,0,0,0,0,-1,993,981,0,0
-224,43,0,0,0,0,0,0,0,0,0,-1,1000,981,0,0
-217,43,0,0,0,0,0,0,0,0,0,-1,1007,981,0,0
-210,43,0,0,0,0,0,0,0,0,0,-1,1014,981,0,0
-203,43,0,0,0,0,0,0,0,0,0,-1,1021,981,0,0
-196,43,0,0,0,0,0,0,0,0,0,-1,1028,981,0,0
-189,43,0,0,0,0,0,0,0,0,0,-1,1035,981,0,0
-182,43,0,0,0,0,0,0,0,0,0,-1,1042,981,0,0
-175,43,0,0,0,0,0,0,0,0,0,-1,1049,981,0,0
-168,43,0,0,0,0,0,0,0,0,0,-1,1056,981,0,0
-161,43,0,0,0,0,0,0,0,0,0,-1,1063,981,0,0
-154,43,0,0,0,0,0,0,0,0,0,-1,1070,981,0,0
-147,43,0,0,0,0,0,0,0,0,0,-1,1077,981,0,0
-140,43,0,0,0,0,0,0,0,0,0,-1,1084,981,0,0
-133,43,0,0,0,0,0,0,0,0,0,-1,1091,981,0,0
-126,43,0,0,0,0,0,0,0,0,0,-1,1098,981,0,0
-119,43,0,0,0,0,0,0,0,0,0,-1,1105,981,0,0
-112,43,0,0,0,0,0,0,0,0,0,-1,1112,981,0,0
-105,43,0,0,0,0,0,0,0,0,0,-1,1119,981,0,0
-98,43,0,0,0,0,0,0,0,0,0,-1,1126,981,0,0
-91,43,0,0,0,0,0,0,0,0,0,-1,1133,981,0,0
-84,43,0,0,0,0,0,0,0,0,0,-1,1140,981,0,0
-77,43,0,0,0,0,0,0,0,0,0,-1,1147,981,0,0
-70,43,0,0,0,0,0,0,0,0,0,-1,1154,981,0,0
-63,43,0,0,0,0,0,0,0,0,0,-1,1161,981,0,0
-56,43,0,0,0,0,0,0,0,0,0,-1,1168,981,0,0
-49,43,0,0,0,0,0,0,0,0,0,-1,1175,981,0,0
-42,43,0,0,0,0,0,0,0,0,0,-1,1182,981,0,0
-35,43,0,0,0,0,0,0,0,0,0,-1,1189,981,0,0
-28,43,0,0,0,0,0,0,0,0,0,-1,1196,981,0,0
-21,43,0,0,0,0,0,0,0,0,0,-1,1203,981,0,0
-14,43,0,0,0,0,0,0,0,0,0,-1,1210,981,0,0
-7,43,0,0,0,0,0,0,0,0,0,-1,1217,981,0,0
0,43,0,0,0,0,0,0,0,0,0,-1,1224,981,0,0
7,43,0,0,0,0,0,0,0,0,0,-1,1231,981,0,0
14,43,0,0,0,0,0,0,0,0,0,-1,1238,981,0,0
21,43,0,0,0,0,0,0,0,0,0,-1,1245,981,0,0
28,43,0,0,0,0,0,0,0,0,0,-1,1252,981,0,0
35,43,0,0,0,0,0,0,0,0,0,-1,1259,981,0,0
42,43,0,0,0,0,0,0,0,0,0,-1,1266,981,0,0
49,43,0,0,0,0,0,0,0,0,0,-1,1273,981,0,0
56,43,0,0,0,0,0,0,0,0,0,-1,1280,981,0,0
63,43,0,0,0,0,0,0,0,0,0,-1,1287,981,0,0
70,43,0,0,0,0,0,0,0,0,0,-1,1294,981,0,0
77,43,0,0,0,0,0,0,0,0,0,-1,1301,981,0,0
84,43,0,0,0,0,0,0,0,0,0,-1,1308,981,0,0
91,43,0,0,0,0,0,0,0,0,0,-1,1315,981,0,0
98,43,0,0,0,0,0,0,0,0,0,-1,1322,981,0,0
105,43,0,0,0,0,0,0,0,0,0,-1,1329,981,0,0
112,43,0,0,0,0,0,0,0,0,0,-1,1336,981,0,0
119,43,0,0,0,0,0,0,0,0,0,-1,1343,981,0,0
126,43,0,0,0,0,0,0,0,0,0,-1,1350,981,0,0
133,43,0,0,0,0,0,0,0,0,0,-1,1357,981,0,0
140,43,0,0,0,0,0,0,0,0,0,-1,1364,981,0,0
147,43,0,0,0,0,0,0,0,0,0,-1,1371,981,0,0
154,43,0,0,0,0,0,0,0,0,0,-1,1378,981,0,0
161,43,0,0,0,0,0,0,0,0,0,-1,1385,981,0,0
168,43,0,0,0,0,0,0,0,0,0,-1,1392,981,0,0
175,43,0,0,0,0,0,0,0,0,0,-1,1399,981,0,0
182,43,0,0,0,0,0,0,0,0,0,-1,1406,981,0,0
189,43,0,0,0,0,0,0,0,0,0,-1,1413,981,0,0
196,43,0,0,0,0,0,0,0,0,0,-1,1420,981,0,0
203,43,0,0,0,0,0,0,0,0,0,-1,1427,981,0,0
210,43,0,0,0,0,0,0,0,0,0,-1,1434,981,0,0
217,43,0,0,0,0,0,0,0,0,0,-1,1441,981,0,0
224,43,0,0,0,0,0,0,0,0,0,-1,1448,981,0,0
231,43,0,0,0,0,0,0,0,0,0,-1,1455,981,0,0
238,43,0,0,0,0,0,0,0,0,0,-1,1462,981,0,0
245,43,0,0,0,0,0,0,0,0,0,-1,1469,981,0,0
252,43,0,0,0,0,0,0,0,0,0,-1,1476,981,0,0
259,43,0,0,0,0,0,0,0,0,0,-1,1483,981,0,0
266,43,0,0,0,0,0,0,0,0,0,-1,1490,981,0,0
273,43,0,0,0,0,0,0,0,0,0,-1,1497,981,0,0
280,43,0,0,0,0,0,0,0,0,0,-1,1504,981,0,0
287,43,0,0,0,0,0,0,0,0,0,-1,1511,981,0,0
294,43,0,0,0,0,0,0,0,0,0,-1,1518,981,0,0
301,43,0,0,0,0,0,0,0,0,0,-1,1525,981,0,0
308,43,0,0,0,0,0,0,0,0,0,-1,1532,981,0,0
315,43,0,0,0,0,0,0,0,0,0,-1,1539,981,0,0
322,43,0,0,0,0,0,0,0,0,0,-1,1546,981,0,0
329,43,0,0,0,0,0,0,0,0,0,-1,1553,981,0,0
336,43,0,0,0,0,0,0,0,0,0,-1,1560,981,0,0
343,43,0,0,0,0,0,0,0,0,0,-1,1567,981,0,0
350,43,0,0,0,0,0,0,0,0,0,-1,1574,981,0,0
357,43,0,0,0,0,0,0,0,0,0,-1,1581,981,0,0
364,43,0,0,0,0,0,0,0,0,0,-1,1588,981,0,0
371,43,0,0,0,0,0,0,0,0,0,-1,1595,981,0,0
378,43,0,0,0,0,0,0,0,0,0,-1,1602,981,0,0
385,43,0,0,0,0,0,0,0,0,0,-1,1609,981,0,0
392,43,0,0,0,0,0,0,0,0,0,-1,1616,981,0,0
399,43,0,0,0,0,0,0,0,0,0,-1,1623,981,0,0
406,43,0,0,0,0,0,0,0,0,0,-1,1630,981,0,0
413,43,0,0,0,0,0,0,0,0,0,-1,1637,981,0,0
420,43,0,0,0,0,0,0,0,0,0,-1,1644,981,0,0
427,43,0,0,0,0,0,0,0,0,0,-1,1651,981,0,0
434,43,0,0,0,0,0,0,0,0,0,-1,1658,981,0,0
441,43,0,0,0,0,0,0,0,0,0,-1,1665,981,0,0
448,43,0,0,0,0,0,0,0,0,0,-1,1672,981,0,0
455,43,0,0,0,0,0,0,0,0,0,-1,1679,981,0,0
462,43,0,0,0,0,0,0,0,0,0,-1,1686,981,0,0
469,43,0,0,0,0,0,0,0,0,0,-1,1693,981,0,0
476,43,0,0,0,0,0,0,0,0,0,-1,1700,981,0,0
483,43,0,0,0,0,0,0,0,0,0,-1,1707,981,0,0
490,43,0,0,0,0,0,0,0,0,0,-1,1714,981,0,0
497,43,0,0,0,0,0,0,0,0,0,-1,1721,981,0,0
504,43,0,0,0,0,0,0,0,0,0,-1,1728,981,0,0
511,43,0,0,0,0,0,0,0,0,0,-1,1735,981,0,0
518,43,0,0,0,0,0,0,0,0,0,-1,1742,981,0,0
525,43,0,0,0,0,0,0,0,0,0,-1,1749,981,0,0
532,43,0,0,0,0,0,0,0,0,0,-1,1756,981,0,0
539,43,0,0,0,0,0,0,0,0,0,-1,1763,981,0,0
546,43,0,0,0,0,0,0,0,0,0,-1,1770,981,0,0
553,43,0,0,0,0,0,0,0,0,0,-1,1777,981,0,0
560,43,0,0,0,0,0,0,0,0,0,-1,1784,981,0,0
567,43,0,0,0,0,0,0,0,0,0,-1,1791,981,0,0
574,43,0,0,0,0,0,0,0,0,0,-1,1798,981,0,0
581,43,0,0,0,0,0,0,0,0,0,-1,1805,981,0,0
588,43,0,0,0,0,0,0,0,0,0,-1,1812,981,0,0
595,43,0,0,0,0,0,0,0,0,0,-1,1819,981,0,0
602,43,0,0,0,0,0,0,0,0,0,-1,1826,981,0,0
609,43,0,0,0,0,0,0,0,0,0,-1,1833,981,0,0
616,43,0,0,0,0,0,0,0,0,0,-1,1840,981,0,0
623,43,0,0,0,0,0,0,0,0,0,-1,1847,981,0,0
630,43,0,0,0,0,0,0,0,0,0,-1,1854,981,0,0
637,43,0,0,0,0,0,0,0,0,0,-1,1861,981,0,0
644,43,61.3811,2.7204,0.00512805,-0.00227048,0.00127415,0.00534134,-0.00248376,0.165853,0.00461714,0.0377017,1868,981,61.3811,-2.72038
651,43,61.3993,2.79065,0.00321241,-0.00198682,0.000467646,0.00325414,-0.00202855,0.0889934,0.0030772,0.036102,1875,981,61.3993,-2.79065
658,43,61.52,2.67572,0.00185618,-0.00156684,0.000192894,0.00186702,-0.00157767,0.0561151,0.00199113,0.0366778,1882,981,61.52,-2.67572
665,43,61.4387,2.50488,0.000801333,-0.000885905,0.000500848,0.000938806,-0.00102338,0.267883,0.00113322,0.0373159,1889,981,61.4388,-2.50491
672,43,61.3733,2.40485,-0.000134362,-2.78701e-05,0.0011902,0.00111027,-0.0012725,0.807752,0.00137676,0.0374362,1896,981,61.3733,-2.40482
679,43,61.2629,2.42523,-0.000753879,0.000513596,0.00195936,0.00193916,-0.00217944,0.941809,0.00237922,0.0399145,1903,981,61.263,-2.42524
686,43,61.2528,2.55841,-0.000960475,0.000722645,0.00251842,0.0025364,-0.00277423,0.946646,0.00306711,0.0412454,1910,981,61.2528,-2.55838
693,43,61.3073,2.6109,-0.00113403,0.000718198,0.00278235,0.00272452,-0.00314036,0.946057,0.00338892,0.0363492,1917,981,61.3072,-2.61088
700,43,61.322,2.62,-0.00143481,0.0008635,0.00266648,0.00261791,-0.00318921,0.988853,0.00335815,0.0347735,1924,981,61.322,-2.62
707,43,61.428,2.68481,-0.0018058,0.00114731,0.00237014,0.0024632,-0.0031217,1.06397,0.0032319,0.0337723,1931,981,61.4279,-2.68479
714,43,61.3699,2.84839,0,0,0,0,0,0,0,-1,1938,981,61.3699,-2.84838
721,43,60.5516,5.45825,0,0,0,0,0,0,0,-1,1945,981,60.5516,-5.45823
728,43,60.5574,5.83514,-0.00414889,0.00394856,0.00145999,0.00420375,-0.00440408,1.39775,0.00497018,0.0202465,1952,981,60.5574,-5.83516
735,43,60.5728,6.19519,-0.00488923,0.00538918,0.000782867,0.00544847,-0.00494852,1.49521,0.00600502,0.0153758,1959,981,60.5728,-6.1952
742,43,60.532,6.53479,-0.0060663,0.00699039,-7.81768e-05,0.00699086,-0.00606676,-1.56481,0.00754511,0.0169228,1966,981,60.532,-6.53481
749,43,60.4823,6.81915,-0.00738413,0.0092608,-0.000979299,0.00931822,-0.00744154,-1.51223,0.00969645,0.0182103,1973,981,60.4823,-6.81918
756,43,60.4354,7.07654,-0.00901989,0.0124954,-0.00176703,0.0126396,-0.00916405,-1.48939,0.0126415,0.0204014,1980,981,60.4354,-7.07656
763,43,60.3577,7.32922,-0.0104959,0.0168253,-0.00241791,0.0170376,-0.0107082,-1.4832,0.0161574,0.0250754,1987,981,60.3577,-7.3292
770,43,60.2507,7.64044,-0.0114444,0.0220746,-0.00275552,0.0222996,-0.0116694,-1.48932,0.0199296,0.0213636,1994,981,60.2507,-7.64044
777,43,60.2686,7.90015,-0.011674,0.0273021,-0.00305619,0.0275403,-0.0119122,-1.49302,0.023366,0.0271175,2001,981,60.2685,-7.90013
784,43,60.2595,7.96881,-0.0100946,0.0321222,-0.00340701,0.0323954,-0.0103678,-1.49078,0.0257581,0.0473603,2008,981,60.2595,-7.96884
791,43,60.1958,7.94952,0,0,0,0,0,0,0,-1,2015,981,60.1958,-7.9495
798,43,60.3315,7.82001,0.00492163,0.0375525,-0.00628339,0.0387206,0.00375351,-1.38699,0.024658,0.0433689,2022,981,60.3316,-7.81999
805,43,60.9253,7.59326,0,0,0,0,0,0,0,-1,2029,981,60.9252,-7.59329
812,43,61.437,7.37292,0,0,0,0,0,0,0,-1,2036,981,61.4371,-7.37293
-700,36,0,0,0,0,0,0,0,0,0,-1,524,988,0,0
-693,36,-50.841,0.0428467,0,0,0,0,0,0,0,-1,531,988,-50.841,-0.0428634
-686,36,-52.0787,0.0791626,0,0,0,0,0,0,0,-1,538,988,-52.0787,-0.0791817
-679,36,-53.3163,0.115479,0,0,0,0,0,0,0,-1,545,988,-53.3163,-0.1155
-672,36,-46.0831,3.59381,0,0,0,0,0,0,0,-1,552,988,-46.0831,-3.59379
-665,36,-46.0924,3.85388,0,0,0,0,0,0,0,-1,559,988,-46.0924,-3.85391
-658,36,-46.3978,5.02838,0,0,0,0,0,0,0,-1,566,988,-46.3978,-5.02839
-651,36,-46.5112,4.9267,-0.0230014,0.0256289,-0.0107574,0.0279022,-0.0252747,-1.36253,0.0307142,0.0406563,573,988,-46.5112,-4.92671
-644,36,-46.6373,4.86774,-0.0183682,0.0217723,-0.00476505,0.0223302,-0.0189261,-1.45424,0.0238463,0.0283607,580,988,-46.6373,-4.86773
-637,36,-46.8128,4.74048,-0.0140586,0.0164996,0.000253302,0.0165017,-0.0140607,1.56251,0.017664,0.022969,587,988,-46.8128,-4.74047
-630,36,-46.8177,4.65314,-0.0100147,0.0128577,0.00263269,0.0131568,-0.0103138,1.45766,0.0135839,0.0164866,594,988,-46.8178,-4.65314
-623,36,-46.8318,4.5199,-0.00770157,0.0105611,0.00179688,0.0107362,-0.00787669,1.47365,0.0107884,0.0134952,601,988,-46.8318,-4.5199
-616,36,-46.8305,4.34552,-0.0058944,0.0079816,0.000221255,0.00798513,-0.00589792,1.55486,0.00804552,0.0119944,608,988,-46.8305,-4.3455
-609,36,-46.769,4.16406,-0.00458756,0.00605232,-0.00107225,0.0061593,-0.00469454,-1.47135,0.00628546,0.018011,615,988,-46.769,-4.16404
-602,36,-46.8037,3.8949,-0.00330889,0.0043162,-0.00208356,0.00484839,-0.00384108,-1.32072,0.00502809,0.0224316,622,988,-46.8037,-3.89489
-595,36,-47.0081,3.64807,-0.0020525,0.00244011,-0.00313021,0.00404661,-0.003659,-1.09663,0.00445071,0.0257927,629,988,-47.0081,-3.64809
-588,36,-46.9041,2.51093,-0.00112692,0.0010974,-0.00368743,0.00383674,-0.00386626,-0.931864,0.00444734,0.0461802,636,988,-46.9041,-2.51094
-581,36,-46.553,1.1925,-0.000441442,0.000176494,-0.00395124,0.00383082,-0.00409577,-0.824416,0.00457727,0.0441098,643,988,-46.553,-1.19253
-574,36,-46.4908,0.862366,-7.86475e-06,-0.000384007,-0.00412384,0.00393219,-0.00432406,-0.762611,0.00476854,0.0308927,650,988,-46.4909,-0.862377
-567,36,-46.4986,0.871643,0.000209968,-0.000668841,-0.0038779,0.00367328,-0.00413215,-0.728984,0.00450906,0.0363796,657,988,-46.4986,-0.871642
-560,36,-46.3712,0.829956,0.000469416,-0.000674294,-0.00321612,0.00316412,-0.003369,-0.697413,0.00377252,0.0419179,664,988,-46.3712,-0.829936
-553,36,-46.3773,0.875916,0.00078986,-0.000481272,-0.00218155,0.00242654,-0.00211795,-0.643653,0.00262578,0.044845,671,988,-46.3773,-0.875933
-546,36,-46.492,1.04828,0.00119837,-0.000257346,-0.000763626,0.00152546,-0.000584429,-0.404687,0.00125788,0.0432723,678,988,-46.492,-1.04825
-539,36,-46.4321,1.04761,0.00167111,-0.000230503,0.000839371,0.0019886,-0.000547992,0.361614,0.00154122,0.0441947,685,988,-46.4321,-1.04763
-532,36,-46.2886,1.02423,0.00269899,0.000546334,0.0014083,0.00339517,-0.000149851,0.459112,0.00231501,0.0473752,692,988,-46.2886,-1.02423
-525,36,-46.0197,0.952576,0,0,0,0,0,0,0,-1,699,988,-46.0196,-0.95255
-518,36,0,0,0,0,0,0,0,0,0,-1,706,988,0,0
-511,36,0,0,0,0,0,0,0,0,0,-1,713,988,0,0
-504,36,0,0,0,0,0,0,0,0,0,-1,720,988,0,0
-497,36,0,0,0,0,0,0,0,0,0,-1,727,988,0,0
-490,36,0,0,0,0,0,0,0,0,0,-1,734,988,0,0
-483,36,0,0,0,0,0,0,0,0,0,-1,741,988,0,0
-476,36,0,0,0,0,0,0,0,0,0,-1,748,988,0,0
-469,36,0,0,0,0,0,0,0,0,0,-1,755,988,0,0
-462,36,0,0,0,0,0,0,0,0,0,-1,762,988,0,0
-455,36,0,0,0,0,0,0,0,0,0,-1,769,988,0,0
-448,36,0,0,0,0,0,0,0,0,0,-1,776,988,0,0
-441,36,0,0,0,0,0,0,0,0,0,-1,783,988,0,0
-434,36,0,0,0,0,0,0,0,0,0,-1,790,988,0,0
-427,36,0,0,0,0,0,0,0,0,0,-1,797,988,0,0
-420,36,0,0,0,0,0,0,0,0,0,-1,804,988,0,0
-413,36,0,0,0,0,0,0,0,0,0,-1,811,988,0,0
-406,36,0,0,0,0,0,0,0,0,0,-1,818,988,0,0
-399,36,0,0,0,0,0,0,0,0,0,-1,825,988,0,0
-392,36,0,0,0,0,0,0,0,0,0,-1,832,988,0,0
-385,36,0,0,0,0,0,0,0,0,0,-1,839,988,0,0
-378,36,0,0,0,0,0,0,0,0,0,-1,846,988,0,0
-371,36,0,0,0,0,0,0,0,0,0,-1,853,988,0,0
-364,36,0,0,0,0,0,0,0,0,0,-1,860,988,0,0
-357,36,0,0,0,0,0,0,0,0,0,-1,867,988,0,0
-350,36,0,0,0,0,0,0,0,0,0,-1,874,988,0,0
-343,36,0,0,0,0,0,0,0,0,0,-1,881,988,0,0
-336,36,0,0,0,0,0,0,0,0,0,-1,888,988,0,0
-329,36,0,0,0,0,0,0,0,0,0,-1,895,988,0,0
-322,36,0,0,0,0,0,0,0,0,0,-1,902,988,0,0
-315,36,0,0,0,0,0,0,0,0,0,-1,909,988,0,0
-308,36,0,0,0,0,0,0,0,0,0,-1,916,988,0,0
-301,36,0,0,0,0,0,0,0,0,0,-1,923,988,0,0
-294,36,0,0,0,0,0,0,0,0,0,-1,930,988,0,0
-287,36,0,0,0,0,0,0,0,0,0,-1,937,988,0,0
-280,36,0,0,0,0,0,0,0,0,0,-1,944,988,0,0
-273,36,0,0,0,0,0,0,0,0,0,-1,951,988,0,0
-266,36,0,0,0,0,0,0,0,0,0,-1,958,988,0,0
-259,36,0,0,0,0,0,0,0,0,0,-1,965,988,0,0
-252,36,0,0,0,0,0,0,0,0,0,-1,972,988,0,0
-245,36,0,0,0,0,0,0,0,0,0,-1,979,988,0,0
-238,36,0,0,0,0,0,0,0,0,0,-1,986,988,0,0
-231,36,0,0,0,0,0,0,0,0,0,-1,993,988,0,0
-224,36,0,0,0,0,0,0,0,0,0,-1,1000,988,0,0
-217,36,0,0,0,0,0,0,0,0,0,-1,1007,988,0,0
-210,36,0,0,0,0,0,0,0,0,0,-1,1014,988,0,0
-203,36,0,0,0,0,0,0,0,0,0,-1,1021,988,0,0
-196,36,0,0,0,0,0,0,0,0,0,-1,1028,988,0,0
-189,36,0,0,0,0,0,0,0,0,0,-1,1035,988,0,0
-182,36,0,0,0,0,0,0,0,0,0,-1,1042,988,0,0
-175,36,0,0,0,0,0,0,0,0,0,-1,1049,988,0,0
-168,36,0,0,0,0,0,0,0,0,0,-1,1056,988,0,0
-161,36,0,0,0,0,0,0,0,0,0,-1,1063,988,0,0
-154,36,0,0,0,0,0,0,0,0,0,-1,1070,988,0,0
-147,36,0,0,0,0,0,0,0,0,0,-1,1077,988,0,0
-140,36,0,0,0,0,0,0,0,0,0,-1,1084,988,0,0
-133,36,0,0,0,0,0,0,0,0,0,-1,1091,988,0,0
-126,36,0,0,0,0,0,0,0,0,0,-1,1098,988,0,0
-119,36,0,0,0,0,0,0,0,0,0,-1,1105,988,0,0
-112,36,0,0,0,0,0,0,0,0,0,-1,1112,988,0,0
-105,36,0,0,0,0,0,0,0,0,0,-1,1119,988,0,0
-98,36,0,0,0,0,0,0,0,0,0,-1,1126,988,0,0
-91,36,0,0,0,0,0,0,0,0,0,-1,1133,988,0,0
-84,36,0,0,0,0,0,0,0,0,0,-1,1140,988,0,0
-77,36,0,0,0,0,0,0,0,0,0,-1,1147,988,0,0
-70,36,0,0,0,0,0,0,0,0,0,-1,1154,988,0,0
-63,36,0,0,0,0,0,0,0,0,0,-1,1161,988,0,0
-56,36,0,0,0,0,0,0,0,0,0,-1,1168,988,0,0
-49,36,0,0,0,0,0,0,0,0,0,-1,1175,988,0,0
-42,36,0,0,0,0,0,0,0,0,0,-1,1182,988,0,0
-35,36,0,0,0,0,0,0,0,0,0,-1,1189,988,0,0
-28,36,0,0,0,0,0,0,0,0,0,-1,1196,988,0,0
-21,36,0,0,0,0,0,0,0,0,0,-1,1203,988,0,0
-14,36,0,0,0,0,0,0,0,0,0,-1,1210,988,0,0
-7,36,0,0,0,0,0,0,0,0,0,-1,1217,988,0,0
0,36,0,0,0,0,0,0,0,0,0,-1,1224,988,0,0
7,36,0,0,0,0,0,0,0,0,0,-1,1231,988,0,0
14,36,0,0,0,0,0,0,0,0,0,-1,1238,988,0,0
21,36,0,0,0,0,0,0,0,0,0,-1,1245,988,0,0
28,36,0,0,0,0,0,0,0,0,0,-1,1252,988,0,0
35,36,0,0,0,0,0,0,0,0,0,-1,1259,988,0,0
42,36,0,0,0,0,0,0,0,0,0,-1,1266,988,0,0
49,36,0,0,0,0,0,0,0,0,0,-1,1273,988,0,0
56,36,0,0,0,0,0,0,0,0,0,-1,1280,988,0,0
63,36,0,0,0,0,0,0,0,0,0,-1,1287,988,0,0
70,36,0,0,0,0,0,0,0,0,0,-1,1294,988,0,0
77,36,0,0,0,0,0,0,0,0,0,-1,1301,988,0,0
84,36,0,0,0,0,0,0,0,0,0,-1,1308,988,0,0
91,36,0,0,0,0,0,0,0,0,0,-1,1315,988,0,0
98,36,0,0,0,0,0,0,0,0,0,-1,1322,988,0,0
105,36,0,0,0,0,0,0,0,0,0,-1,1329,988,0,0
112,36,0,0,0,0,0,0,0,0,0,-1,1336,988,0,0
119,36,0,0,0,0,0,0,0,0,0,-1,1343,988,0,0
126,36,0,0,0,0,0,0,0,0,0,-1,1350,988,0,0
133,36,0,0,0,0,0,0,0,0,0,-1,1357,988,0,0
140,36,0,0,0,0,0,0,0,0,0,-1,1364,988,0,0
147,36,0,0,0,0,0,0,0,0,0,-1,1371,988,0,0
154,36,0,0,0,0,0,0,0,0,0,-1,1378,988,0,0
161,36,0,0,0,0,0,0,0,0,0,-1,1385,988,0,0
168,36,0,0,0,0,0,0,0,0,0,-1,1392,988,0,0
175,36,0,0,0,0,0,0,0,0,0,-1,1399,988,0,0
182,36,0,0,0,0,0,0,0,0,0,-1,1406,988,0,0
189,36,0,0,0,0,0,0,0,0,0,-1,1413,988,0,0
196,36,0,0,0,0,0,0,0,0,0,-1,1420,988,0,0
203,36,0,0,0,0,0,0,0,0,0,-1,1427,988,0,0
210,36,0,0,0,0,0,0,0,0,0,-1,1434,988,0,0
217,36,0,0,0,0,0,0,0,0,0,-1,1441,988,0,0
224,36,0,0,0,0,0,0,0,0,0,-1,1448,988,0,0
231,36,0,0,0,0,0,0,0,0,0,-1,1455,988,0,0
238,36,0,0,0,0,0,0,0,0,0,-1,1462,988,0,0
245,36,0,0,0,0,0,0,0,0,0,-1,1469,988,0,0
252,36,0,0,0,0,0,0,0,0,0,-1,1476,988,0,0
259,36,0,0,0,0,0,0,0,0,0,-1,1483,988,0,0
266,36,0,0,0,0,0,0,0,0,0,-1,1490,988,0,0
273,36,0,0,0,0,0,0,0,0,0,-1,1497,988,0,0
280,36,0,0,0,0,0,0,0,0,0,-1,1504,988,0,0
287,36,0,0,0,0,0,0,0,0,0,-1,1511,988,0,0
294,36,0,0,0,0,0,0,0,0,0,-1,1518,988,0,0
301,36,0,0,0,0,0,0,0,0,0,-1,1525,988,0,0
308,36,0,0,0,0,0,0,0,0,0,-1,1532,988,0,0
315,36,0,0,0,0,0,0,0,0,0,-1,1539,988,0,0
322,36,0,0,0,0,0,0,0,0,0,-1,1546,988,0,0
329,36,0,0,0,0,0,0,0,0,0,-1,1553,988,0,0
336,36,0,0,0,0,0,0,0,0,0,-1,1560,988,0,0
343,36,0,0,0,0,0,0,0,0,0,-1,1567,988,0,0
350,36,0,0,0,0,0,0,0,0,0,-1,1574,988,0,0
357,36,0,0,0,0,0,0,0,0,0,-1,1581,988,0,0
364,36,0,0,0,0,0,0,0,0,0,-1,1588,988,0,0
371,36,0,0,0,0,0,0,0,0,0,-1,1595,988,0,0
378,36,0,0,0,0,0,0,0,0,0,-1,1602,988,0,0
385,36,0,0,0,0,0,0,0,0,0,-1,1609,988,0,0
392,36,0,0,0,0,0,0,0,0,0,-1,1616,988,0,0
399,36,0,0,0,0,0,0,0,0,0,-1,1623,988,0,0
406,36,0,0,0,0,0,0,0,0,0,-1,1630,988,0,0
413,36,0,0,0,0,0,0,0,0,0,-1,1637,988,0,0
420,36,0,0,0,0,0,0,0,0,0,-1,1644,988,0,0
427,36,0,0,0,0,0,0,0,0,0,-1,1651,988,0,0
434,36,0,0,0,0,0,0,0,0,0,-1,1658,988,0,0
441,36,0,0,0,0,0,0,0,0,0,-1,1665,988,0,0
448,36,0,0,0,0,0,0,0,0,0,-1,1672,988,0,0
455,36,0,0,0,0,0,0,0,0,0,-1,1679,988,0,0
462,36,0,0,0,0,0,0,0,0,0,-1,1686,988,0,0
469,36,0,0,0,0,0,0,0,0,0,-1,1693,988,0,0
476,36,0,0,0,0,0,0,0,0,0,-1,1700,988,0,0
483,36,0,0,0,0,0,0,0,0,0,-1,1707,988,0,0
490,36,0,0,0,0,0,0,0,0,0,-1,1714,988,0,0
497,36,0,0,0,0,0,0,0,0,0,-1,1721,988,0,0
504,36,0,0,0,0,0,0,0,0,0,-1,1728,988,0,0
511,36,0,0,0,0,0,0,0,0,0,-1,1735,988,0,0
518,36,0,0,0,0,0,0,0,0,0,-1,1742,988,0,0
525,36,0,0,0,0,0,0,0,0,0,-1,1749,988,0,0
532,36,0,0,0,0,0,0,0,0,0,-1,1756,988,0,0
539,36,0,0,0,0,0,0,0,0,0,-1,1763,988,0,0
546,36,0,0,0,0,0,0,0,0,0,-1,1770,988,0,0
553,36,0,0,0,0,0,0,0,0,0,-1,1777,988,0,0
560,36,0,0,0,0,0,0,0,0,0,-1,1784,988,0,0
567,36,0,0,0,0,0,0,0,0,0,-1,1791,988,0,0
574,36,0,0,0,0,0,0,0,0,0,-1,1798,988,0,0
581,36,0,0,0,0,0,0,0,0,0,-1,1805,988,0,0
588,36,0,0,0,0,0,0,0,0,0,-1,1812,988,0,0
595,36,0,0,0,0,0,0,0,0,0,-1,1819,988,0,0
602,36,0,0,0,0,0,0,0,0,0,-1,1826,988,0,0
609,36,0,0,0,0,0,0,0,0,0,-1,1833,988,0,0
616,36,0,0,0,0,0,0,0,0,0,-1,1840,988,0,0
623,36,0,0,0,0,0,0,0,0,0,-1,1847,988,0,0
630,36,0,0,0,0,0,0,0,0,0,-1,1854,988,0,0
637,36,0,0,0,0,0,0,0,0,0,-1,1861,988,0,0
644,36,61.3834,2.72778,0,0,0,0,0,0,0,-1,1868,988,61.3834,-2.72776
651,36,61.2329,2.87006,0,0,0,0,0,0,0,-1,1875,988,61.2329,-2.87004
658,36,61.5266,2.72949,0.00243509,-0.0019054,9.37763e-05,0.00243712,-0.00190742,0.0215916,0.00251453,0.0377119,1882,988,61.5266,-2.72949
665,36,61.5403,2.67651,0.00133694,-0.0012904,0.00031043,0.00137312,-0.00132658,0.116026,0.00155875,0.0372811,1889,988,61.5403,-2.67651
672,36,61.39,2.50818,0.000407786,-0.000455425,0.000956876,0.00102589,-0.00107353,0.573532,0.00121221,0.0382645,1896,988,61.39,-2.50819
679,36,61.3243,2.42633,-0.000203312,0.000159892,0.00174602,0.00173373,-0.00177715,0.837216,0.00202706,0.0406986,1903,988,61.3243,-2.4263
686,36,61.3738,2.5069,-0.000433372,0.000452315,0.00237769,0.00242805,-0.00240911,0.877468,0.00279274,0.0395212,1910,988,61.3738,-2.50693
693,36,61.3074,2.69122,-0.000605701,0.000531896,0.0027471,0.00276847,-0.00284227,0.887483,0.00323946,0.0385927,1917,988,61.3074,-2.6912
700,36,61.4064,2.68665,-0.000875595,0.000728294,0.00272202,0.00276404,-0.00291134,0.928652,0.00327705,0.0377714,1924,988,61.4064,-2.68668
707,36,61.4684,2.6756,-0.00128974,0.00104199,0.00248871,0.00262438,-0.00287213,1.00445,0.00317448,0.0319732,1931,988,61.4684,-2.67562
714,36,61.4264,2.69342,0,0,0,0,0,0,0,-1,1938,988,61.4264,-2.6934
721,36,60.8286,5.55933,0,0,0,0,0,0,0,-1,1945,988,60.8286,-5.55935
728,36,60.8182,5.92822,-0.00400194,0.00413197,0.00163373,0.00444784,-0.00431781,1.37981,0.00506104,0.0216412,1952,988,60.8183,-5.92819
735,36,60.8375,6.28265,-0.00484917,0.00563017,0.00102303,0.00572911,-0.00494811,1.47439,0.00616999,0.0198979,1959,988,60.8375,-6.28267
742,36,60.7675,6.51971,-0.00618862,0.00727453,0.0002282,0.00727839,-0.00619249,1.55385,0.00778583,0.0164419,1966,988,60.7674,-6.51971
749,36,60.7401,6.78485,-0.00772599,0.00951056,-0.000603767,0.00953168,-0.00774712,-1.53583,0.00999364,0.0171497,1973,988,60.7401,-6.78488
756,36,60.7101,7.03394,-0.00959837,0.0125528,-0.00135364,0.0126352,-0.00968078,-1.50999,0.0129217,0.0165171,1980,988,60.7101,-7.03391
763,36,60.6047,7.24475,-0.0114552,0.0167139,-0.00196482,0.0168502,-0.0115916,-1.50149,0.0165142,0.0202342,1987,988,60.6047,-7.24477
770,36,60.5444,7.49609,-0.0129964,0.0219271,-0.00215727,0.0220598,-0.0131291,-1.50934,0.0205333,0.0167959,1994,988,60.5444,-7.49611
777,36,60.5374,7.74188,-0.01387,0.0270673,-0.00219772,0.027185,-0.0139877,-1.51732,0.0241746,0.0262473,2001,988,60.5373,-7.74187
784,36,60.6067,8.08405,-0.013203,0.0315642,-0.00214114,0.0316663,-0.0133052,-1.52311,0.0266759,0.0486432,2008,988,60.6067,-8.08406
791,36,60.6187,8.38568,0,0,0,0,0,0,0,-1,2015,988,60.6186,-8.38567
798,36,60.5151,7.85358,0,0,0,0,0,0,0,-1,2022,988,60.515,-7.85356
805,36,61.0662,7.69427,0,0,0,0,0,0,0,-1,2029,988,61.0661,-7.69429
812,36,59.2324,3.86169,0,0,0,0,0,0,0,-1,2036,988,59.2323,-3.86168
-700,29,0,0,0,0,0,0,0,0,0,-1,524,995,0,0
-693,29,-50.1847,0.702576,0,0,0,0,0,0,0,-1,531,995,-50.1847,-0.702558
-686,29,-50.805,0.710693,0,0,0,0,0,0,0,-1,538,995,-50.805,-0.710664
-679,29,-51.4253,0.71875,0,0,0,0,0,0,0,-1,545,995,-51.4253,-0.718769
-672,29,-46.1906,3.27521,0,0,0,0,0,0,0,-1,552,995,-46.1906,-3.27518
-665,29,-46.2081,3.59204,0,0,0,0,0,0,0,-1,559,995,-46.2081,-3.59204
-658,29,-46.3029,3.84259,0,0,0,0,0,0,0,-1,566,995,-46.3028,-3.84256
-651,29,-46.3458,4.18243,0,0,0,0,0,0,0,-1,573,995,-46.3458,-4.18246
-644,29,-46.7511,4.43488,-0.0140443,0.025592,-0.00341173,0.0258835,-0.0143359,-1.48556,0.0235375,0.0446247,580,995,-46.7511,-4.43489
-637,29,-47.0018,4.55518,-0.010742,0.0185257,0.00123135,0.0185775,-0.0107937,1.52882,0.0171548,0.0260804,587,995,-47.0018,-4.55518
-630,29,-47.0258,4.53638,-0.00791417,0.0137316,0.00326591,0.0142136,-0.0083962,1.42426,0.013197,0.0143123,594,995,-47.0258,-4.53636
-623,29,-47.0187,4.47052,-0.00659135,0.0110607,0.00211809,0.0113113,-0.00684195,1.45303,0.0105862,0.0130427,601,995,-47.0187,-4.47049
-616,29,-47.0436,4.31445,-0.00531658,0.00821871,0.000345826,0.00822754,-0.00532541,1.54527,0.00788437,0.0150816,608,995,-47.0436,-4.31444
-609,29,-47.0197,4.21954,-0.00419351,0.00597869,-0.00109739,0.00609573,-0.00431055,-1.46454,0.00603747,0.0239914,615,995,-47.0197,-4.21953
-602,29,-47.1271,4.03131,-0.00289506,0.00417727,-0.00207947,0.00474338,-0.00346117,-1.305,0.00475614,0.0253955,622,995,-47.1271,-4.03131
-595,29,-47.3209,3.76581,-0.00165602,0.00227999,-0.00306587,0.00395515,-0.00333117,-1.07073,0.00421189,0.0264838,629,995,-47.3209,-3.7658
-588,29,-47.4791,3.50153,0,0,0,0,0,0,0,-1,636,995,-47.4791,-3.50153
-581,29,-46.5001,1.28522,0,0,0,0,0,0,0,-1,643,995,-46.5001,-1.28521
-574,29,-46.4548,0.860168,0.000470208,-0.00060351,-0.00392879,0.00389865,-0.00403195,-0.717495,0.00457895,0.0353114,650,995,-46.4548,-0.860162
-567,29,-46.491,0.726013,0.000674388,-0.000895635,-0.00367396,0.00364627,-0.00386751,-0.680146,0.00433871,0.0341869,657,995,-46.491,-0.726041
-560,29,-46.4948,0.701477,0.000850235,-0.000919008,-0.00303789,0.00312969,-0.00319846,-0.643718,0.00365363,0.0394919,664,995,-46.4948,-0.701489
-553,29,-46.3795,0.929016,0.000961144,-0.000759287,-0.00207363,0.0023459,-0.00214405,-0.588783,0.00259315,0.0425199,671,995,-46.3795,-0.929044
-546,29,-46.0565,0.740173,0,0,0,0,0,0,0,-1,678,995,-46.0565,-0.740163
-539,29,-46.384,0.950623,0.000896552,-0.000656547,0.00062698,0.00111807,-0.000878062,0.339616,0.00115524,0.0417012,685,995,-46.384,-0.950641
-532,29,-46.2714,1.10577,0.00128527,0.000163482,0.000892618,0.00177859,-0.000329838,0.504888,0.00130959,0.0456697,692,995,-46.2714,-1.1058
-525,29,-46.2753,0.966309,0,0,0,0,0,0,0,-1,699,995,-46.2752,-0.966283
-518,29,0,0,0,0,0,0,0,0,0,-1,706,995,0,0
-511,29,0,0,0,0,0,0,0,0,0,-1,713,995,0,0
-504,29,0,0,0,0,0,0,0,0,0,-1,720,995,0,0
-497,29,0,0,0,0,0,0,0,0,0,-1,727,995,0,0
-490,29,0,0,0,0,0,0,0,0,0,-1,734,995,0,0
-483,29,0,0,0,0,0,0,0,0,0,-1,741,995,0,0
-476,29,0,0,0,0,0,0,0,0,0,-1,748,995,0,0
-469,29,0,0,0,0,0,0,0,0,0,-1,755,995,0,0
-462,29,0,0,0,0,0,0,0,0,0,-1,762,995,0,0
-455,29,0,0,0,0,0,0,0,0,0,-1,769,995,0,0
-448,29,0,0,0,0,0,0,0,0,0,-1,776,995,0,0
-441,29,0,0,0,0,0,0,0,0,0,-1,783,995,0,0
-434,29,0,0,0,0,0,0,0,0,0,-1,790,995,0,0
-427,29,0,0,0,0,0,0,0,0,0,-1,797,995,0,0
-420,29,0,0,0,0,0,0,0,0,0,-1,804,995,0,0
-413,29,0,0,0,0,0,0,0,0,0,-1,811,995,0,0
-406,29,0,0,0,0,0,0,0,0,0,-1,818,995,0,0
-399,29,0,0,0,0,0,0,0,0,0,-1,825,995,0,0
-392,29,0,0,0,0,0,0,0,0,0,-1,832,995,0,0
-385,29,0,0,0,0,0,0,0,0,0,-1,839,995,0,0
-378,29,0,0,0,0,0,0,0,0,0,-1,846,995,0,0
-371,29,0,0,0,0,0,0,0,0,0,-1,853,995,0,0
-364,29,0,0,0,0,0,0,0,0,0,-1,860,995,0,0
-357,29,0,0,0,0,0,0,0,0,0,-1,867,995,0,0
-350,29,0,0,0,0,0,0,0,0,0,-1,874,995,0,0
-343,29,0,0,0,0,0,0,0,0,0,-1,881,995,0,0
-336,29,0,0,0,0,0,0,0,0,0,-1,888,995,0,0
-329,29,0,0,0,0,0,0,0,0,0,-1,895,995,0,0
-322,29,0,0,0,0,0,0,0,0,0,-1,902,995,0,0
-315,29,0,0,0,0,0,0,0,0,0,-1,909,995,0,0
-308,29,0,0,0,0,0,0,0,0,0,-1,916,995,0,0
-301,29,0,0,0,0,0,0,0,0,0,-1,923,995,0,0
-294,29,0,0,0,0,0,0,0,0,0,-1,930,995,0,0
-287,29,0,0,0,0,0,0,0,0,0,-1,937,995,0,0
-280,29,0,0,0,0,0,0,0,0,0,-1,944,995,0,0
-273,29,0,0,0,0,0,0,0,0,0,-1,951,995,0,0
-266,29,0,0,0,0,0,0,0,0,0,-1,958,995,0,0
-259,29,0,0,0,0,0,0,0,0,0,-1,965,995,0,0
-252,29,0,0,0,0,0,0,0,0,0,-1,972,995,0,0
-245,29,0,0,0,0,0,0,0,0,0,-1,979,995,0,0
-238,29,0,0,0,0,0,0,0,0,0,-1,986,995,0,0
-231,29,0,0,0,0,0,0,0,0,0,-1,993,995,0,0
-224,29,0,0,0,0,0,0,0,0,0,-1,1000,995,0,0
-217,29,0,0,0,0,0,0,0,0,0,-1,1007,995,0,0
-210,29,0,0,0,0,0,0,0,0,0,-1,1014,995,0,0
-203,29,0,0,0,0,0,0,0,0,0,-1,1021,995,0,0
-196,29,0,0,0,0,0,0,0,0,0,-1,1028,995,0,0
-189,29,0,0,0,0,0,0,0,0,0,-1,1035,995,0,0
-182,29,0,0,0,0,0,0,0,0,0,-1,1042,995,0,0
-175,29,0,0,0,0,0,0,0,0,0,-1,1049,995,0,0
-168,29,0,0,0,0,0,0,0,0,0,-1,1056,995,0,0
-161,29,0,0,0,0,0,0,0,0,0,-1,1063,995,0,0
-154,29,0,0,0,0,0,0,0,0,0,-1,1070,995,0,0
-147,29,0,0,0,0,0,0,0,0,0,-1,1077,995,0,0
-140,29,0,0,0,0,0,0,0,0,0,-1,1084,995,0,0
-133,29,0,0,0,0,0,0,0,0,0,-1,1091,995,0,0
-126,29,0,0,0,0,0,0,0,0,0,-1,1098,995,0,0
-119,29,0,0,0,0,0,0,0,0,0,-1,1105,995,0,0
-112,29,0,0,0,0,0,0,0,0,0,-1,1112,995,0,0
-105,29,0,0,0,0,0,0,0,0,0,-1,1119,995,0,0
-98,29,0,0,0,0,0,0,0,0,0,-1,1126,995,0,0
-91,29,0,0,0,0,0,0,0,0,0,-1,1133,995,0,0
-84,29,0,0,0,0,0,0,0,0,0,-1,1140,995,0,0
-77,29,0,0,0,0,0,0,0,0,0,-1,1147,995,0,0
-70,29,0,0,0,0,0,0,0,0,0,-1,1154,995,0,0
-63,29,0,0,0,0,0,0,0,0,0,-1,1161,995,0,0
-56,29,0,0,0,0,0,0,0,0,0,-1,1168,995,0,0
-49,29,0,0,0,0,0,0,0,0,0,-1,1175,995,0,0
-42,29,0,0,0,0,0,0,0,0,0,-1,1182,995,0,0
-35,29,0,0,0,0,0,0,0,0,0,-1,1189,995,0,0
-28,29,0,0,0,0,0,0,0,0,0,-1,1196,995,0,0
-21,29,0,0,0,0,0,0,0,0,0,-1,1203,995,0,0
-14,29,0,0,0,0,0,0,0,0,0,-1,1210,995,0,0
-7,29,0,0,0,0,0,0,0,0,0,-1,1217,995,0,0
0,29,0,0,0,0,0,0,0,0,0,-1,1224,995,0,0
7,29,0,0,0,0,0,0,0,0,0,-1,1231,995,0,0
14,29,0,0,0,0,0,0,0,0,0,-1,1238,995,0,0
21,29,0,0,0,0,0,0,0,0,0,-1,1245,995,0,0
28,29,0,0,0,0,0,0,0,0,0,-1,1252,995,0,0
35,29,0,0,0,0,0,0,0,0,0,-1,1259,995,0,0
42,29,0,0,0,0,0,0,0,0,0,-1,1266,995,0,0
49,29,0,0,0,0,0,0,0,0,0,-1,1273,995,0,0
56,29,0,0,0,0,0,0,0,0,0,-1,1280,995,0,0
63,29,0,0,0,0,0,0,0,0,0,-1,1287,995,0,0
70,29,0,0,0,0,0,0,0,0,0,-1,1294,995,0,0
77,29,0,0,0,0,0,0,0,0,0,-1,1301,995,0,0
84,29,0,0,0,0,0,0,0,0,0,-1,1308,995,0,0
91,29,0,0,0,0,0,0,0,0,0,-1,1315,995,0,0
98,29,0,0,0,0,0,0,0,0,0,-1,1322,995,0,0
105,29,0,0,0,0,0,0,0,0,0,-1,1329,995,0,0
112,29,0,0,0,0,0,0,0,0,0,-1,1336,995,0,0
119,29,0,0,0,0,0,0,0,0,0,-1,1343,995,0,0
126,29,0,0,0,0,0,0,0,0,0,-1,1350,995,0,0
133,29,0,0,0,0,0,0,0,0,0,-1,1357,995,0,0
140,29,0,0,0,0,0,0,0,0,0,-1,1364,995,0,0
147,29,0,0,0,0,0,0,0,0,0,-1,1371,995,0,0
154,29,0,0,0,0,0,0,0,0,0,-1,1378,995,0,0
161,29,0,0,0,0,0,0,0,0,0,-1,1385,995,0,0
168,29,0,0,0,0,0,0,0,0,0,-1,1392,995,0,0
175,29,0,0,0,0,0,0,0,0,0,-1,1399,995,0,0
182,29,0,0,0,0,0,0,0,0,0,-1,1406,995,0,0
189,29,0,0,0,0,0,0,0,0,0,-1,1413,995,0,0
196,29,0,0,0,0,0,0,0,0,0,-1,1420,995,0,0
203,29,0,0,0,0,0,0,0,0,0,-1,1427,995,0,0
210,29,0,0,0,0,0,0,0,0,0,-1,1434,995,0,0
217,29,0,0,0,0,0,0,0,0,0,-1,1441,995,0,0
224,29,0,0,0,0,0,0,0,0,0,-1,1448,995,0,0
231,29,0,0,0,0,0,0,0,0,0,-1,1455,995,0,0
238,29,0,0,0,0,0,0,0,0,0,-1,1462,995,0,0
245,29,0,0,0,0,0,0,0,0,0,-1,1469,995,0,0
252,29,0,0,0,0,0,0,0,0,0,-1,1476,995,0,0
259,29,0,0,0,0,0,0,0,0,0,-1,1483,995,0,0
266,29,0,0,0,0,0,0,0,0,0,-1,1490,995,0,0
273,29,0,0,0,0,0,0,0,0,0,-1,1497,995,0,0
280,29,0,0,0,0,0,0,0,0,0,-1,1504,995,0,0
287,29,0,0,0,0,0,0,0,0,0,-1,1511,995,0,0
294,29,0,0,0,0,0,0,0,0,0,-1,1518,995,0,0
301,29,0,0,0,0,0,0,0,0,0,-1,1525,995,0,0
308,29,0,0,0,0,0,0,0,0,0,-1,1532,995,0,0
315,29,0,0,0,0,0,0,0,0,0,-1,1539,995,0,0
322,29,0,0,0,0,0,0,0,0,0,-1,1546,995,0,0
329,29,0,0,0,0,0,0,0,0,0,-1,1553,995,0,0
336,29,0,0,0,0,0,0,0,0,0,-1,1560,995,0,0
343,29,0,0,0,0,0,0,0,0,0,-1,1567,995,0,0
350,29,0,0,0,0,0,0,0,0,0,-1,1574,995,0,0
357,29,0,0,0,0,0,0,0,0,0,-1,1581,995,0,0
364,29,0,0,0,0,0,0,0,0,0,-1,1588,995,0,0
371,29,0,0,0,0,0,0,0,0,0,-1,1595,995,0,0
378,29,0,0,0,0,0,0,0,0,0,-1,1602,995,0,0
385,29,0,0,0,0,0,0,0,0,0,-1,1609,995,0,0
392,29,0,0,0,0,0,0,0,0,0,-1,1616,995,0,0
399,29,0,0,0,0,0,0,0,0,0,-1,1623,995,0,0
406,29,0,0,0,0,0,0,0,0,0,-1,1630,995,0,0
413,29,0,0,0,0,0,0,0,0,0,-1,1637,995,0,0
420,29,0,0,0,0,0,0,0,0,0,-1,1644,995,0,0
427,29,0,0,0,0,0,0,0,0,0,-1,1651,995,0,0
434,29,0,0,0,0,0,0,0,0,0,-1,1658,995,0,0
441,29,0,0,0,0,0,0,0,0,0,-1,1665,995,0,0
448,29,0,0,0,0,0,0,0,0,0,-1,1672,995,0,0
455,29,0,0,0,0,0,0,0,0,0,-1,1679,995,0,0
462,29,0,0,0,0,0,0,0,0,0,-1,1686,995,0,0
469,29,0,0,0,0,0,0,0,0,0,-1,1693,995,0,0
476,29,0,0,0,0,0,0,0,0,0,-1,1700,995,0,0
483,29,0,0,0,0,0,0,0,0,0,-1,1707,995,0,0
490,29,0,0,0,0,0,0,0,0,0,-1,1714,995,0,0
497,29,0,0,0,0,0,0,0,0,0,-1,1721,995,0,0
504,29,0,0,0,0,0,0,0,0,0,-1,1728,995,0,0
511,29,0,0,0,0,0,0,0,0,0,-1,1735,995,0,0
518,29,0,0,0,0,0,0,0,0,0,-1,1742,995,0,0
525,29,0,0,0,0,0,0,0,0,0,-1,1749,995,0,0
532,29,0,0,0,0,0,0,0,0,0,-1,1756,995,0,0
539,29,0,0,0,0,0,0,0,0,0,-1,1763,995,0,0
546,29,0,0,0,0,0,0,0,0,0,-1,1770,995,0,0
553,29,0,0,0,0,0,0,0,0,0,-1,1777,995,0,0
560,29,0,0,0,0,0,0,0,0,0,-1,1784,995,0,0
567,29,0,0,0,0,0,0,0,0,0,-1,1791,995,0,0
574,29,0,0,0,0,0,0,0,0,0,-1,1798,995,0,0
581,29,0,0,0,0,0,0,0,0,0,-1,1805,995,0,0
588,29,0,0,0,0,0,0,0,0,0,-1,1812,995,0,0
595,29,0,0,0,0,0,0,0,0,0,-1,1819,995,0,0
602,29,0,0,0,0,0,0,0,0,0,-1,1826,995,0,0
609,29,0,0,0,0,0,0,0,0,0,-1,1833,995,0,0
616,29,0,0,0,0,0,0,0,0,0,-1,1840,995,0,0
623,29,0,0,0,0,0,0,0,0,0,-1,1847,995,0,0
630,29,0,0,0,0,0,0,0,0,0,-1,1854,995,0,0
637,29,0,0,0,0,0,0,0,0,0,-1,1861,995,0,0
644,29,61.3887,2.78162,0.00623314,-0.00322126,0.00141927,0.0064416,-0.00342972,0.145837,0.00578696,0.0392756,1868,995,61.3887,-2.78159
651,29,61.2363,3.01825,0.00408083,-0.00272376,0.000364836,0.00410033,-0.00274326,0.053412,0.00397696,0.0396161,1875,995,61.2363,-3.01824
658,29,61.4874,2.70703,0.00264166,-0.0022896,-0.000139353,0.00264559,-0.00229353,-0.028229,0.00285402,0.0412552,1882,995,61.4874,-2.70704
665,29,61.4858,2.92328,0.00159335,-0.00168401,1.67558e-05,0.00159344,-0.0016841,0.0051124,0.00189253,0.0403283,1889,995,61.4859,-2.92328
672,29,61.3967,2.58026,0.000740173,-0.000830492,0.000631315,0.000962464,-0.00105278,0.338552,0.00116389,0.0387595,1896,995,61.3967,-2.58025
679,29,61.2051,2.67065,0.000190335,-0.000137976,0.00143106,0.00146662,-0.00141426,0.728293,0.00166337,0.0406921,1903,995,61.2051,-2.67066
686,29,61.1489,2.73651,-5.62756e-05,0.000225639,0.0021217,0.00221106,-0.0020417,0.818567,0.00245598,0.040306,1910,995,61.149,-2.73654
693,29,61.3241,2.7757,-0.000238964,0.000361598,0.00258243,0.00266115,-0.00253851,0.843277,0.0030023,0.0398029,1917,995,61.3241,-2.77569
700,29,61.3878,2.78967,-0.000490115,0.000579522,0.00265575,0.00275377,-0.00266436,0.88476,0.0031283,0.0362973,1924,995,61.3878,-2.78966
707,29,61.3958,2.74109,-0.000951343,0.000913401,0.0024978,0.00264717,-0.00268511,0.964028,0.00307862,0.0251903,1931,995,61.3958,-2.7411
714,29,61.2894,3.32477,-0.00171799,0.00170656,0.00223896,0.00281294,-0.00282438,1.11184,0.00325471,0.0477585,1938,995,61.2894,-3.32479
721,29,60.8827,5.77332,0,0,0,0,0,0,0,-1,1945,995,60.8828,-5.77329
728,29,61.0531,6.09241,-0.00404144,0.00424028,0.00171907,0.00458293,-0.0043841,1.37405,0.00517754,0.0329357,1952,995,61.0531,-6.09241
735,29,61.0598,6.36926,-0.00497094,0.00573316,0.00118695,0.0058632,-0.00510098,1.46168,0.00633527,0.0162871,1959,995,61.0598,-6.36929
742,29,61.0044,6.56183,-0.00636477,0.00735307,0.000447351,0.00736765,-0.00637934,1.53823,0.00794366,0.0140998,1966,995,61.0044,-6.56184
749,29,60.9609,6.77789,-0.0079919,0.00950934,-0.000353731,0.00951649,-0.00799905,-1.5506,0.0101252,0.0147795,1973,995,60.961,-6.77787
756,29,60.9363,6.99689,-0.00991186,0.0123743,-0.00110069,0.0124285,-0.00996609,-1.52157,0.0129556,0.0139393,1980,995,60.9363,-6.9969
763,29,60.8833,7.14233,-0.0118004,0.016277,-0.00178819,0.0163904,-0.0119138,-1.50745,0.0164094,0.0127609,1987,995,60.8833,-7.14234
770,29,60.8032,7.25861,-0.0133894,0.0212687,-0.0020917,0.0213945,-0.0135151,-1.51073,0.0203255,0.0171497,1994,995,60.8033,-7.2586
777,29,60.687,7.47571,-0.0142399,0.0261604,-0.00225224,0.0262856,-0.0143651,-1.51528,0.0238037,0.0296141,2001,995,60.6869,-7.47572
784,29,60.5193,7.76886,-0.0135787,0.0302006,-0.00234001,0.0303253,-0.0137034,-1.51755,0.0260168,0.0461007,2008,995,60.5192,-7.76885
791,29,60.2634,8.02112,0,0,0,0,0,0,0,-1,2015,995,60.2634,-8.02114
798,29,60.2617,8.19098,0,0,0,0,0,0,0,-1,2022,995,60.2616,-8.19097
805,29,59.8574,4.51025,0,0,0,0,0,0,0,-1,2029,995,59.8575,-4.51026
812,29,59.5952,3.70422,0,0,0,0,0,0,0,-1,2036,995,59.5952,-3.70424
-700,22,0,0,0,0,0,0,0,0,0,-1,524,1002,0,0
-693,22,-49.0759,1.23645,0,0,0,0,0,0,0,-1,531,1002,-49.0759,-1.23648
-686,22,-49.5817,1.29767,0,0,0,0,0,0,0,-1,538,1002,-49.5817,-1.29767
-679,22,-50.0875,1.35883,0,0,0,0,0,0,0,-1,545,1002,-50.0875,-1.35885
-672,22,-44.6684,1.80725,0,0,0,0,0,0,0,-1,552,1002,-44.6684,-1.80727
-665,22,-44.0331,2.88354,0,0,0,0,0,0,0,-1,559,1002,-44.0331,-2.88354
-658,22,-46.4515,3.45886,0,0,0,0,0,0,0,-1,566,1002,-46.4516,-3.45889
-651,22,-46.1642,3.8194,0,0,0,0,0,0,0,-1,573,1002,-46.1642,-3.81938
-644,22,-46.7858,4.13031,-0.00907328,0.0290072,-0.00296436,0.0292366,-0.00930265,-1.49357,0.0232216,0.0418684,580,1002,-46.7858,-4.13031
-637,22,-47.1707,4.37805,-0.00682153,0.0204291,0.00152807,0.0205146,-0.00690695,1.51496,0.0164688,0.0268343,587,1002,-47.1707,-4.37806
-630,22,-47.1553,4.41779,-0.00531123,0.014635,0.00348197,0.0152254,-0.0059016,1.40284,0.0125874,0.0147798,594,1002,-47.1552,-4.41778
-623,22,-47.1753,4.37244,-0.00507764,0.0115009,0.0022226,0.0117937,-0.00537045,1.43981,0.0101384,0.0127164,601,1002,-47.1753,-4.37244
-616,22,-47.1707,4.22626,-0.00445931,0.00832443,0.000375347,0.00833544,-0.00447032,1.54147,0.00750483,0.0190761,608,1002,-47.1706,-4.22629
-609,22,-47.2499,4.13861,-0.00361086,0.00572855,-0.00107956,0.00585172,-0.00373402,-1.4572,0.00557916,0.0308138,615,1002,-47.2499,-4.13861
-602,22,-47.4064,4.06024,-0.00239454,0.00383193,-0.00196887,0.00440227,-0.00296488,-1.28884,0.00428032,0.0301542,622,1002,-47.4064,-4.06025
-595,22,-47.5491,3.8432,-0.00123165,0.00196362,-0.00285564,0.00363816,-0.00290619,-1.04044,0.00378625,0.0330322,629,1002,-47.5491,-3.84321
-588,22,-47.53,3.53851,0,0,0,0,0,0,0,-1,636,1002,-47.53,-3.53848
-581,22,-46.4565,0.963318,0,0,0,0,0,0,0,-1,643,1002,-46.4565,-0.963319
-574,22,-46.4529,0.88916,0.000881373,-0.000734954,-0.00358074,0.00374402,-0.0035976,-0.674409,0.00423897,0.036166,650,1002,-46.4529,-0.889166
-567,22,-46.4708,0.829285,0.00106068,-0.000926964,-0.00332871,0.00354077,-0.00340705,-0.64033,0.00401157,0.0324203,657,1002,-46.4708,-0.829255
-560,22,-46.511,0.915466,0.00112143,-0.000822477,-0.00275668,0.00307248,-0.00277353,-0.615912,0.00337666,0.0368422,664,1002,-46.5111,-0.915446
-553,22,-46.5223,1.07098,0.000978587,-0.00052813,-0.00192839,0.00229555,-0.0018451,-0.599181,0.00239532,0.0395042,671,1002,-46.5223,-1.07099
-546,22,-46.4713,1.16199,0.000588824,-0.00026144,-0.000830983,0.00109711,-0.000769726,-0.548955,0.00108333,0.0405967,678,1002,-46.4713,-1.16196
-539,22,-46.4821,0.952759,-0.000153244,-0.000193416,0.000269259,9.66772e-05,-0.000443337,0.748168,0.000332502,0.0425081,685,1002,-46.4821,-0.952774
-532,22,-46.3694,1.05469,-0.000534298,0.000797242,0.000270968,0.000850272,-0.000587328,1.37753,0.000834614,0.0426402,692,1002,-46.3695,-1.05471
-525,22,0,0,0,0,0,0,0,0,0,-1,699,1002,0,0
-518,22,0,0,0,0,0,0,0,0,0,-1,706,1002,0,0
-511,22,0,0,0,0,0,0,0,0,0,-1,713,1002,0,0
-504,22,0,0,0,0,0,0,0,0,0,-1,720,1002,0,0
-497,22,0,0,0,0,0,0,0,0,0,-1,727,1002,0,0
-490,22,0,0,0,0,0,0,0,0,0,-1,734,1002,0,0
-483,22,0,0,0,0,0,0,0,0,0,-1,741,1002,0,0
-476,22,0,0,0,0,0,0,0,0,0,-1,748,1002,0,0
-469,22,0,0,0,0,0,0,0,0,0,-1,755,1002,0,0
-462,22,0,0,0,0,0,0,0,0,0,-1,762,1002,0,0
-455,22,0,0,0,0,0,0,0,0,0,-1,769,1002,0,0
-448,22,0,0,0,0,0,0,0,0,0,-1,776,1002,0,0
-441,22,0,0,0,0,0,0,0,0,0,-1,783,1002,0,0
-434,22,0,0,0,0,0,0,0,0,0,-1,790,1002,0,0
-427,22,0,0,0,0,0,0,0,0,0,-1,797,1002,0,0
-420,22,0,0,0,0,0,0,0,0,0,-1,804,1002,0,0
-413,22,0,0,0,0,0,0,0,0,0,-1,811,1002,0,0
-406,22,0,0,0,0,0,0,0,0,0,-1,818,1002,0,0
-399,22,0,0,0,0,0,0,0,0,0,-1,825,1002,0,0
-392,22,0,0,0,0,0,0,0,0,0,-1,832,1002,0,0
-385,22,0,0,0,0,0,0,0,0,0,-1,839,1002,0,0
-378,22,0,0,0,0,0,0,0,0,0,-1,846,1002,0,0
-371,22,0,0,0,0,0,0,0,0,0,-1,853,1002,0,0
-364,22,0,0,0,0,0,0,0,0,0,-1,860,1002,0,0
-357,22,0,0,0,0,0,0,0,0,0,-1,867,1002,0,0
-350,22,0,0,0,0,0,0,0,0,0,-1,874,1002,0,0
-343,22,0,0,0,0,0,0,0,0,0,-1,881,1002,0,0
-336,22,0,0,0,0,0,0,0,0,0,-1,888,1002,0,0
-329,22,0,0,0,0,0,0,0,0,0,-1,895,1002,0,0
-322,22,0,0,0,0,0,0,0,0,0,-1,902,1002,0,0
-315,22,0,0,0,0,0,0,0,0,0,-1,909,1002,0,0
-308,22,0,0,0,0,0,0,0,0,0,-1,916,1002,0,0
-301,22,0,0,0,0,0,0,0,0,0,-1,923,1002,0,0
-294,22,0,0,0,0,0,0,0,0,0,-1,930,1002,0,0
-287,22,0,0,0,0,0,0,0,0,0,-1,937,1002,0,0
-280,22,0,0,0,0,0,0,0,0,0,-1,944,1002,0,0
-273,22,0,0,0,0,0,0,0,0,0,-1,951,1002,0,0
-266,22,0,0,0,0,0,0,0,0,0,-1,958,1002,0,0
-259,22,0,0,0,0,0,0,0,0,0,-1,965,1002,0,0
-252,22,0,0,0,0,0,0,0,0,0,-1,972,1002,0,0
-245,22,0,0,0,0,0,0,0,0,0,-1,979,1002,0,0
-238,22,0,0,0,0,0,0,0,0,0,-1,986,1002,0,0
-231,22,0,0,0,0,0,0,0,0,0,-1,993,1002,0,0
-224,22,0,0,0,0,0,0,0,0,0,-1,1000,1002,0,0
-217,22,0,0,0,0,0,0,0,0,0,-1,1007,1002,0,0
-210,22,0,0,0,0,0,0,0,0,0,-1,1014,1002,0,0
-203,22,0,0,0,0,0,0,0,0,0,-1,1021,1002,0,0
-196,22,0,0,0,0,0,0,0,0,0,-1,1028,1002,0,0
-189,22,0,0,0,0,0,0,0,0,0,-1,1035,1002,0,0
-182,22,0,0,0,0,0,0,0,0,0,-1,1042,1002,0,0
-175,22,0,0,0,0,0,0,0,0,0,-1,1049,1002,0,0
-168,22,0,0,0,0,0,0,0,0,0,-1,1056,1002,0,0
-161,22,0,0,0,0,0,0,0,0,0,-1,1063,1002,0,0
-154,22,0,0,0,0,0,0,0,0,0,-1,1070,1002,0,0
-147,22,0,0,0,0,0,0,0,0,0,-1,1077,1002,0,0
-140,22,0,0,0,0,0,0,0,0,0,-1,1084,1002,0,0
-133,22,0,0,0,0,0,0,0,0,0,-1,1091,1002,0,0
-126,22,0,0,0,0,0,0,0,0,0,-1,1098,1002,0,0
-119,22,0,0,0,0,0,0,0,0,0,-1,1105,1002,0,0
-112,22,0,0,0,0,0,0,0,0,0,-1,1112,1002,0,0
-105,22,0,0,0,0,0,0,0,0,0,-1,1119,1002,0,0
-98,22,0,0,0,0,0,0,0,0,0,-1,1126,1002,0,0
-91,22,0,0,0,0,0,0,0,0,0,-1,1133,1002,0,0
-84,22,0,0,0,0,0,0,0,0,0,-1,1140,1002,0,0
-77,22,0,0,0,0,0,0,0,0,0,-1,1147,1002,0,0
-70,22,0,0,0,0,0,0,0,0,0,-1,1154,1002,0,0
-63,22,0,0,0,0,0,0,0,0,0,-1,1161,1002,0,0
-56,22,0,0,0,0,0,0,0,0,0,-1,1168,1002,0,0
-49,22,0,0,0,0,0,0,0,0,0,-1,1175,1002,0,0
-42,22,0,0,0,0,0,0,0,0,0,-1,1182,1002,0,0
-35,22,0,0,0,0,0,0,0,0,0,-1,1189,1002,0,0
-28,22,0,0,0,0,0,0,0,0,0,-1,1196,1002,0,0
-21,22,0,0,0,0,0,0,0,0,0,-1,1203,1002,0,0
-14,22,0,0,0,0,0,0,0,0,0,-1,1210,1002,0,0
-7,22,0,0,0,0,0,0,0,0,0,-1,1217,1002,0,0
0,22,0,0,0,0,0,0,0,0,0,-1,1224,1002,0,0
7,22,0,0,0,0,0,0,0,0,0,-1,1231,1002,0,0
14,22,0,0,0,0,0,0,0,0,0,-1,1238,1002,0,0
21,22,0,0,0,0,0,0,0,0,0,-1,1245,1002,0,0
28,22,0,0,0,0,0,0,0,0,0,-1,1252,1002,0,0
35,22,0,0,0,0,0,0,0,0,0,-1,1259,1002,0,0
42,22,0,0,0,0,0,0,0,0,0,-1,1266,1002,0,0
49,22,0,0,0,0,0,0,0,0,0,-1,1273,1002,0,0
56,22,0,0,0,0,0,0,0,0,0,-1,1280,1002,0,0
63,22,0,0,0,0,0,0,0,0,0,-1,1287,1002,0,0
70,22,0,0,0,0,0,0,0,0,0,-1,1294,1002,0,0
77,22,0,0,0,0,0,0,0,0,0,-1,1301,1002,0,0
84,22,0,0,0,0,0,0,0,0,0,-1,1308,1002,0,0
91,22,0,0,0,0,0,0,0,0,0,-1,1315,1002,0,0
98,22,0,0,0,0,0,0,0,0,0,-1,1322,1002,0,0
105,22,0,0,0,0,0,0,0,0,0,-1,1329,1002,0,0
112,22,0,0,0,0,0,0,0,0,0,-1,1336,1002,0,0
119,22,0,0,0,0,0,0,0,0,0,-1,1343,1002,0,0
126,22,0,0,0,0,0,0,0,0,0,-1,1350,1002,0,0
133,22,0,0,0,0,0,0,0,0,0,-1,1357,1002,0,0
140,22,0,0,0,0,0,0,0,0,0,-1,1364,1002,0,0
147,22,0,0,0,0,0,0,0,0,0,-1,1371,1002,0,0
154,22,0,0,0,0,0,0,0,0,0,-1,1378,1002,0,0
161,22,0,0,0,0,0,0,0,0,0,-1,1385,1002,0,0
168,22,0,0,0,0,0,0,0,0,0,-1,1392,1002,0,0
175,22,0,0,0,0,0,0,0,0,0,-1,1399,1002,0,0
182,22,0,0,0,0,0,0,0,0,0,-1,1406,1002,0,0
189,22,0,0,0,0,0,0,0,0,0,-1,1413,1002,0,0
196,22,0,0,0,0,0,0,0,0,0,-1,1420,1002,0,0
203,22,0,0,0,0,0,0,0,0,0,-1,1427,1002,0,0
210,22,0,0,0,0,0,0,0,0,0,-1,1434,1002,0,0
217,22,0,0,0,0,0,0,0,0,0,-1,1441,1002,0,0
224,22,0,0,0,0,0,0,0,0,0,-1,1448,1002,0,0
231,22,0,0,0,0,0,0,0,0,0,-1,1455,1002,0,0
238,22,0,0,0,0,0,0,0,0,0,-1,1462,1002,0,0
245,22,0,0,0,0,0,0,0,0,0,-1,1469,1002,0,0
252,22,0,0,0,0,0,0,0,0,0,-1,1476,1002,0,0
259,22,0,0,0,0,0,0,0,0,0,-1,1483,1002,0,0
266,22,0,0,0,0,0,0,0,0,0,-1,1490,1002,0,0
273,22,0,0,0,0,0,0,0,0,0,-1,1497,1002,0,0
280,22,0,0,0,0,0,0,0,0,0,-1,1504,1002,0,0
287,22,0,0,0,0,0,0,0,0,0,-1,1511,1002,0,0
294,22,0,0,0,0,0,0,0,0,0,-1,1518,1002,0,0
301,22,0,0,0,0,0,0,0,0,0,-1,1525,1002,0,0
308,22,0,0,0,0,0,0,0,0,0,-1,1532,1002,0,0
315,22,0,0,0,0,0,0,0,0,0,-1,1539,1002,0,0
322,22,0,0,0,0,0,0,0,0,0,-1,1546,1002,0,0
329,22,0,0,0,0,0,0,0,0,0,-1,1553,1002,0,0
336,22,0,0,0,0,0,0,0,0,0,-1,1560,1002,0,0
343,22,0,0,0,0,0,0,0,0,0,-1,1567,1002,0,0
350,22,0,0,0,0,0,0,0,0,0,-1,1574,1002,0,0
357,22,0,0,0,0,0,0,0,0,0,-1,1581,1002,0,0
364,22,0,0,0,0,0,0,0,0,0,-1,1588,1002,0,0
371,22,0,0,0,0,0,0,0,0,0,-1,1595,1002,0,0
378,22,0,0,0,0,0,0,0,0,0,-1,1602,1002,0,0
385,22,0,0,0,0,0,0,0,0,0,-1,1609,1002,0,0
392,22,0,0,0,0,0,0,0,0,0,-1,1616,1002,0,0
399,22,0,0,0,0,0,0,0,0,0,-1,1623,1002,0,0
406,22,0,0,0,0,0,0,0,0,0,-1,1630,1002,0,0
413,22,0,0,0,0,0,0,0,0,0,-1,1637,1002,0,0
420,22,0,0,0,0,0,0,0,0,0,-1,1644,1002,0,0
427,22,0,0,0,0,0,0,0,0,0,-1,1651,1002,0,0
434,22,0,0,0,0,0,0,0,0,0,-1,1658,1002,0,0
441,22,0,0,0,0,0,0,0,0,0,-1,1665,1002,0,0
448,22,0,0,0,0,0,0,0,0,0,-1,1672,1002,0,0
455,22,0,0,0,0,0,0,0,0,0,-1,1679,1002,0,0
462,22,0,0,0,0,0,0,0,0,0,-1,1686,1002,0,0
469,22,0,0,0,0,0,0,0,0,0,-1,1693,1002,0,0
476,22,0,0,0,0,0,0,0,0,0,-1,1700,1002,0,0
483,22,0,0,0,0,0,0,0,0,0,-1,1707,1002,0,0
490,22,0,0,0,0,0,0,0,0,0,-1,1714,1002,0,0
497,22,0,0,0,0,0,0,0,0,0,-1,1721,1002,0,0
504,22,0,0,0,0,0,0,0,0,0,-1,1728,1002,0,0
511,22,0,0,0,0,0,0,0,0,0,-1,1735,1002,0,0
518,22,0,0,0,0,0,0,0,0,0,-1,1742,1002,0,0
525,22,0,0,0,0,0,0,0,0,0,-1,1749,1002,0,0
532,22,0,0,0,0,0,0,0,0,0,-1,1756,1002,0,0
539,22,0,0,0,0,0,0,0,0,0,-1,1763,1002,0,0
546,22,0,0,0,0,0,0,0,0,0,-1,1770,1002,0,0
553,22,0,0,0,0,0,0,0,0,0,-1,1777,1002,0,0
560,22,0,0,0,0,0,0,0,0,0,-1,1784,1002,0,0
567,22,0,0,0,0,0,0,0,0,0,-1,1791,1002,0,0
574,22,0,0,0,0,0,0,0,0,0,-1,1798,1002,0,0
581,22,0,0,0,0,0,0,0,0,0,-1,1805,1002,0,0
588,22,0,0,0,0,0,0,0,0,0,-1,1812,1002,0,0
595,22,0,0,0,0,0,0,0,0,0,-1,1819,1002,0,0
602,22,0,0,0,0,0,0,0,0,0,-1,1826,1002,0,0
609,22,0,0,0,0,0,0,0,0,0,-1,1833,1002,0,0
616,22,0,0,0,0,0,0,0,0,0,-1,1840,1002,0,0
623,22,0,0,0,0,0,0,0,0,0,-1,1847,1002,0,0
630,22,0,0,0,0,0,0,0,0,0,-1,1854,1002,0,0
637,22,0,0,0,0,0,0,0,0,0,-1,1861,1002,0,0
644,22,61.2223,2.85565,0.00621964,-0.00413178,0.0015791,0.00645517,-0.00436732,0.148064,0.006287,0.0399905,1868,1002,61.2223,-2.85565
651,22,61.3035,3.0827,0.0040661,-0.00328201,0.000329959,0.00408089,-0.0032968,0.0447837,0.00426752,0.0436615,1875,1002,61.3034,-3.0827
658,22,61.4331,3.24628,0.00268719,-0.00265142,-0.000320694,0.00270638,-0.00267061,-0.0597842,0.00310443,0.0423638,1882,1002,61.4331,-3.24626
665,22,61.3999,3.07233,0.00171498,-0.00196547,-0.00026315,0.0017337,-0.00198419,-0.071018,0.00214815,0.0388895,1889,1002,61.3999,-3.0723
672,22,61.3022,2.85089,0.000947573,-0.00105082,0.000301016,0.000991931,-0.00109518,0.146305,0.00120548,0.0393856,1896,1002,61.3022,-2.85091
679,22,61.2878,2.68018,0.000446302,-0.000274401,0.00109795,0.00124152,-0.00106962,0.626834,0.00133557,0.0398512,1903,1002,61.2878,-2.68016
686,22,61.3126,2.76318,0.000161549,0.000145463,0.00184643,0.00199995,-0.00169294,0.78322,0.00213455,0.0389534,1910,1002,61.3126,-2.76321
693,22,61.3655,2.83112,-5.26367e-05,0.000311368,0.00239831,0.00253458,-0.00227584,0.823269,0.00277864,0.0371656,1917,1002,61.3654,-2.83112
700,22,61.3859,2.78809,-0.000310966,0.000519596,0.00257971,0.00271723,-0.0025086,0.865203,0.00301794,0.0325254,1924,1002,61.3859,-2.78806
707,22,61.3422,2.83429,-0.000826485,0.000835465,0.00249449,0.00263375,-0.00262477,0.94618,0.003036,0.0299225,1931,1002,61.3421,-2.8343
714,22,61.2866,3.0188,-0.00166639,0.00166614,0.00229327,0.00283457,-0.00283482,1.09957,0.00327323,0.0456167,1938,1002,61.2867,-3.01882
721,22,61.2106,3.47687,0,0,0,0,0,0,0,-1,1945,1002,61.2105,-3.47684
728,22,61.2161,6.34045,0,0,0,0,0,0,0,-1,1952,1002,61.216,-6.34043
735,22,61.2258,6.48425,-0.00516404,0.0057019,0.00141098,0.00588213,-0.00534427,1.44375,0.00648405,0.0166304,1959,1002,61.2258,-6.48425
742,22,61.2283,6.61627,-0.00654788,0.00728503,0.000745866,0.00732513,-0.00658798,1.51708,0.0080365,0.0174744,1966,1002,61.2282,-6.61624
749,22,61.1482,6.76801,-0.00821106,0.00936767,-4.92645e-06,0.00936767,-0.00821106,-1.57052,0.0101564,0.0135203,1973,1002,61.1481,-6.76801
756,22,61.1442,6.88232,-0.0101181,0.0124421,-0.000976799,0.0124843,-0.0101604,-1.52761,0.0130968,0.0190176,1980,1002,61.1442,-6.88231
763,22,61.0586,7.06427,-0.0119594,0.0163765,-0.00204584,0.0165234,-0.0121063,-1.49909,0.0165948,0.0204097,1987,1002,61.0587,-7.06425
770,22,60.8926,7.16138,-0.0135223,0.0216939,-0.00304969,0.021956,-0.0137845,-1.48505,0.0208138,0.0197528,1994,1002,60.8927,-7.16136
777,22,60.5969,7.12604,-0.0143952,0.0272948,-0.00433332,0.0277405,-0.0148408,-1.46831,0.0249575,0.0399453,2001,1002,60.5968,-7.12604
784,22,60.3296,7.29315,0,0,0,0,0,0,0,-1,2008,1002,60.3297,-7.29314
791,22,59.9155,7.52039,0,0,0,0,0,0,0,-1,2015,1002,59.9155,-7.52037
798,22,59.833,5.32129,0,0,0,0,0,0,0,-1,2022,1002,59.833,-5.32132
805,22,59.9275,4.39435,0,0,0,0,0,0,0,-1,2029,1002,59.9274,-4.39433
812,22,59.6816,3.40668,0,0,0,0,0,0,0,-1,2036,1002,59.6816,-3.40669
-700,15,0,0,0,0,0,0,0,0,0,-1,524,1009,0,0
-693,15,-48.3488,1.92627,-0.0679186,0.100732,-0.0913783,0.140748,-0.107934,-1.15804,0.143993,0.0455788,531,1009,-48.3488,-1.92625
-686,15,-48.5838,2.09418,-0.0464019,0.0881479,-0.0684895,0.116877,-0.0751308,-1.17362,0.111726,0.0439986,538,1009,-48.5838,-2.09417
-679,15,-48.7373,3.11432,0,0,0,0,0,0,0,-1,545,1009,-48.7374,-3.11431
-672,15,-44.7191,2.19336,0,0,0,0,0,0,0,-1,552,1009,-44.7191,-2.19336
-665,15,-47.9713,3.01733,0,0,0,0,0,0,0,-1,559,1009,-47.9713,-3.01735
-658,15,-47.7014,3.12628,0,0,0,0,0,0,0,-1,566,1009,-47.7014,-3.1263
-651,15,-45.9382,3.02948,0,0,0,0,0,0,0,-1,573,1009,-45.9382,-3.02948
-644,15,-47.1829,4.31854,0,0,0,0,0,0,0,-1,580,1009,-47.1829,-4.31855
-637,15,-47.1401,4.32721,-0.00328852,0.0216386,0.00208862,0.0218124,-0.00346231,1.48778,0.0158225,0.0301266,587,1009,-47.1401,-4.32721
-630,15,-47.1878,4.32349,-0.00284408,0.0150637,0.00380986,0.0158405,-0.00362092,1.36965,0.0119516,0.0157894,594,1009,-47.1878,-4.32346
-623,15,-47.2575,4.29968,-0.0035321,0.0116315,0.00237327,0.0119942,-0.00389487,1.41912,0.00956261,0.0109228,601,1009,-47.2575,-4.29966
-616,15,-47.2924,4.23657,-0.00360585,0.008256,0.000452674,0.00827325,-0.0036231,1.53271,0.0070411,0.0172437,608,1009,-47.2924,-4.23658
-609,15,-47.3704,4.19849,-0.00312588,0.00537225,-0.00103482,0.00549645,-0.00325008,-1.45135,0.00510502,0.0238384,615,1009,-47.3704,-4.19851
-602,15,-47.4423,4.15125,-0.00207796,0.00348081,-0.00184876,0.00403953,-0.00263667,-1.27731,0.00388277,0.024046,622,1009,-47.4423,-4.15125
-595,15,-47.4853,4.05322,0,0,0,0,0,0,0,-1,629,1009,-47.4853,-4.0532
-588,15,-46.4727,0.922974,0,0,0,0,0,0,0,-1,636,1009,-46.4727,-0.922945
-581,15,-46.46,0.92572,0.000458532,-0.00031167,-0.00311466,0.00321181,-0.00306494,-0.72389,0.00362421,0.0399902,643,1009,-46.46,-0.925728
-574,15,-46.4593,0.945068,0.000926722,-0.000746491,-0.00319862,0.00339634,-0.0032161,-0.657487,0.00381817,0.0326028,650,1009,-46.4593,-0.945092
-567,15,-46.4775,0.981689,0.00104857,-0.00081054,-0.00297987,0.0032405,-0.00300247,-0.634209,0.00360526,0.0331317,657,1009,-46.4775,-0.981704
-560,15,-46.4408,1.11578,0.00100096,-0.000550244,-0.002515,0.00285724,-0.00240652,-0.63583,0.00304275,0.0368979,664,1009,-46.4408,-1.11578
-553,15,-46.4659,1.17468,0.000652455,-9.88701e-05,-0.00187991,0.00219387,-0.00164029,-0.686782,0.00222133,0.041021,671,1009,-46.4659,-1.17466
-546,15,-46.2925,1.06354,-6.83102e-05,0.000286751,-0.00107032,0.00119416,-0.000975722,-0.867583,0.0012549,0.0439103,678,1009,-46.2926,-1.06352
-539,15,-46.4095,0.932312,-0.00129838,0.000455612,-0.000322863,0.000513154,-0.00135593,-1.39442,0.00111508,0.043169,685,1009,-46.4095,-0.932289
-532,15,-46.5598,0.969238,-0.002262,0.00149131,-0.000488887,0.00155394,-0.00232463,-1.44337,0.00225398,0.042336,692,1009,-46.5597,-0.969258
-525,15,0,0,0,0,0,0,0,0,0,-1,699,1009,0,0
-518,15,0,0,0,0,0,0,0,0,0,-1,706,1009,0,0
-511,15,0,0,0,0,0,0,0,0,0,-1,713,1009,0,0
-504,15,0,0,0,0,0,0,0,0,0,-1,720,1009,0,0
-497,15,0,0,0,0,0,0,0,0,0,-1,727,1009,0,0
-490,15,0,0,0,0,0,0,0,0,0,-1,734,1009,0,0
-483,15,0,0,0,0,0,0,0,0,0,-1,741,1009,0,0
-476,15,0,0,0,0,0,0,0,0,0,-1,748,1009,0,0
-469,15,0,0,0,0,0,0,0,0,0,-1,755,1009,0,0
-462,15,0,0,0,0,0,0,0,0,0,-1,762,1009,0,0
-455,15,0,0,0,0,0,0,0,0,0,-1,769,1009,0,0
-448,15,0,0,0,0,0,0,0,0,0,-1,776,1009,0,0
-441,15,0,0,0,0,0,0,0,0,0,-1,783,1009,0,0
-434,15,0,0,0,0,0,0,0,0,0,-1,790,1009,0,0
-427,15,0,0,0,0,0,0,0,0,0,-1,797,1009,0,0
-420,15,0,0,0,0,0,0,0,0,0,-1,804,1009,0,0
-413,15,0,0,0,0,0,0,0,0,0,-1,811,1009,0,0
-406,15,0,0,0,0,0,0,0,0,0,-1,818,1009,0,0
-399,15,0,0,0,0,0,0,0,0,0,-1,825,1009,0,0
-392,15,0,0,0,0,0,0,0,0,0,-1,832,1009,0,0
-385,15,0,0,0,0,0,0,0,0,0,-1,839,1009,0,0
-378,15,0,0,0,0,0,0,0,0,0,-1,846,1009,0,0
-371,15,0,0,0,0,0,0,0,0,0,-1,853,1009,0,0
-364,15,0,0,0,0,0,0,0,0,0,-1,860,1009,0,0
-357,15,0,0,0,0,0,0,0,0,0,-1,867,1009,0,0
-350,15,0,0,0,0,0,0,0,0,0,-1,874,1009,0,0
-343,15,0,0,0,0,0,0,0,0,0,-1,881,1009,0,0
-336,15,0,0,0,0,0,0,0,0,0,-1,888,1009,0,0
-329,15,0,0,0,0,0,0,0,0,0,-1,895,1009,0,0
-322,15,0,0,0,0,0,0,0,0,0,-1,902,1009,0,0
-315,15,0,0,0,0,0,0,0,0,0,-1,909,1009,0,0
-308,15,0,0,0,0,0,0,0,0,0,-1,916,1009,0,0
-301,15,0,0,0,0,0,0,0,0,0,-1,923,1009,0,0
-294,15,0,0,0,0,0,0,0,0,0,-1,930,1009,0,0
-287,15,0,0,0,0,0,0,0,0,0,-1,937,1009,0,0
-280,15,0,0,0,0,0,0,0,0,0,-1,944,1009,0,0
-273,15,0,0,0,0,0,0,0,0,0,-1,951,1009,0,0
-266,15,0,0,0,0,0,0,0,0,0,-1,958,1009,0,0
-259,15,0,0,0,0,0,0,0,0,0,-1,965,1009,0,0
-252,15,0,0,0,0,0,0,0,0,0,-1,972,1009,0,0
-245,15,0,0,0,0,0,0,0,0,0,-1,979,1009,0,0
-238,15,0,0,0,0,0,0,0,0,0,-1,986,1009,0,0
-231,15,0,0,0,0,0,0,0,0,0,-1,993,1009,0,0
-224,15,0,0,0,0,0,0,0,0,0,-1,1000,1009,0,0
-217,15,0,0,0,0,0,0,0,0,0,-1,1007,1009,0,0
-210,15,0,0,0,0,0,0,0,0,0,-1,1014,1009,0,0
-203,15,0,0,0,0,0,0,0,0,0,-1,1021,1009,0,0
-196,15,0,0,0,0,0,0,0,0,0,-1,1028,1009,0,0
-189,15,0,0,0,0,0,0,0,0,0,-1,1035,1009,0,0
-182,15,0,0,0,0,0,0,0,0,0,-1,1042,1009,0,0
-175,15,0,0,0,0,0,0,0,0,0,-1,1049,1009,0,0
-168,15,0,0,0,0,0,0,0,0,0,-1,1056,1009,0,0
-161,15,0,0,0,0,0,0,0,0,0,-1,1063,1009,0,0
-154,15,0,0,0,0,0,0,0,0,0,-1,1070,1009,0,0
-147,15,0,0,0,0,0,0,0,0,0,-1,1077,1009,0,0
-140,15,0,0,0,0,0,0,0,0,0,-1,1084,1009,0,0
-133,15,0,0,0,0,0,0,0,0,0,-1,1091,1009,0,0
-126,15,0,0,0,0,0,0,0,0,0,-1,1098,1009,0,0
-119,15,0,0,0,0,0,0,0,0,0,-1,1105,1009,0,0
-112,15,0,0,0,0,0,0,0,0,0,-1,1112,1009,0,0
-105,15,0,0,0,0,0,0,0,0,0,-1,1119,1009,0,0
-98,15,0,0,0,0,0,0,0,0,0,-1,1126,1009,0,0
-91,15,0,0,0,0,0,0,0,0,0,-1,1133,1009,0,0
-84,15,0,0,0,0,0,0,0,0,0,-1,1140,1009,0,0
-77,15,0,0,0,0,0,0,0,0,0,-1,1147,1009,0,0
-70,15,0,0,0,0,0,0,0,0,0,-1,1154,1009,0,0
-63,15,0,0,0,0,0,0,0,0,0,-1,1161,1009,0,0
-56,15,0,0,0,0,0,0,0,0,0,-1,1168,1009,0,0
-49,15,0,0,0,0,0,0,0,0,0,-1,1175,1009,0,0
-42,15,0,0,0,0,0,0,0,0,0,-1,1182,1009,0,0
-35,15,0,0,0,0,0,0,0,0,0,-1,1189,1009,0,0
-28,15,0,0,0,0,0,0,0,0,0,-1,1196,1009,0,0
-21,15,0,0,0,0,0,0,0,0,0,-1,1203,1009,0,0
-14,15,0,0,0,0,0,0,0,0,0,-1,1210,1009,0,0
-7,15,0,0,0,0,0,0,0,0,0,-1,1217,1009,0,0
0,15,0,0,0,0,0,0,0,0,0,-1,1224,1009,0,0
7,15,0,0,0,0,0,0,0,0,0,-1,1231,1009,0,0
14,15,0,0,0,0,0,0,0,0,0,-1,1238,1009,0,0
21,15,0,0,0,0,0,0,0,0,0,-1,1245,1009,0,0
28,15,0,0,0,0,0,0,0,0,0,-1,1252,1009,0,0
35,15,0,0,0,0,0,0,0,0,0,-1,1259,1009,0,0
42,15,0,0,0,0,0,0,0,0,0,-1,1266,1009,0,0
49,15,0,0,0,0,0,0,0,0,0,-1,1273,1009,0,0
56,15,0,0,0,0,0,0,0,0,0,-1,1280,1009,0,0
63,15,0,0,0,0,0,0,0,0,0,-1,1287,1009,0,0
70,15,0,0,0,0,0,0,0,0,0,-1,1294,1009,0,0
77,15,0,0,0,0,0,0,0,0,0,-1,1301,1009,0,0
84,15,0,0,0,0,0,0,0,0,0,-1,1308,1009,0,0
91,15,0,0,0,0,0,0,0,0,0,-1,1315,1009,0,0
98,15,0,0,0,0,0,0,0,0,0,-1,1322,1009,0,0
105,15,0,0,0,0,0,0,0,0,0,-1,1329,1009,0,0
112,15,0,0,0,0,0,0,0,0,0,-1,1336,1009,0,0
119,15,0,0,0,0,0,0,0,0,0,-1,1343,1009,0,0
126,15,0,0,0,0,0,0,0,0,0,-1,1350,1009,0,0
133,15,0,0,0,0,0,0,0,0,0,-1,1357,1009,0,0
140,15,0,0,0,0,0,0,0,0,0,-1,1364,1009,0,0
147,15,0,0,0,0,0,0,0,0,0,-1,1371,1009,0,0
154,15,0,0,0,0,0,0,0,0,0,-1,1378,1009,0,0
161,15,0,0,0,0,0,0,0,0,0,-1,1385,1009,0,0
168,15,0,0,0,0,0,0,0,0,0,-1,1392,1009,0,0
175,15,0,0,0,0,0,0,0,0,0,-1,1399,1009,0,0
182,15,0,0,0,0,0,0,0,0,0,-1,1406,1009,0,0
189,15,0,0,0,0,0,0,0,0,0,-1,1413,1009,0,0
196,15,0,0,0,0,0,0,0,0,0,-1,1420,1009,0,0
203,15,0,0,0,0,0,0,0,0,0,-1,1427,1009,0,0
210,15,0,0,0,0,0,0,0,0,0,-1,1434,1009,0,0
217,15,0,0,0,0,0,0,0,0,0,-1,1441,1009,0,0
224,15,0,0,0,0,0,0,0,0,0,-1,1448,1009,0,0
231,15,0,0,0,0,0,0,0,0,0,-1,1455,1009,0,0
238,15,0,0,0,0,0,0,0,0,0,-1,1462,1009,0,0
245,15,0,0,0,0,0,0,0,0,0,-1,1469,1009,0,0
252,15,0,0,0,0,0,0,0,0,0,-1,1476,1009,0,0
259,15,0,0,0,0,0,0,0,0,0,-1,1483,1009,0,0
266,15,0,0,0,0,0,0,0,0,0,-1,1490,1009,0,0
273,15,0,0,0,0,0,0,0,0,0,-1,1497,1009,0,0
280,15,0,0,0,0,0,0,0,0,0,-1,1504,1009,0,0
287,15,0,0,0,0,0,0,0,0,0,-1,1511,1009,0,0
294,15,0,0,0,0,0,0,0,0,0,-1,1518,1009,0,0
301,15,0,0,0,0,0,0,0,0,0,-1,1525,1009,0,0
308,15,0,0,0,0,0,0,0,0,0,-1,1532,1009,0,0
315,15,0,0,0,0,0,0,0,0,0,-1,1539,1009,0,0
322,15,0,0,0,0,0,0,0,0,0,-1,1546,1009,0,0
329,15,0,0,0,0,0,0,0,0,0,-1,1553,1009,0,0
336,15,0,0,0,0,0,0,0,0,0,-1,1560,1009,0,0
343,15,0,0,0,0,0,0,0,0,0,-1,1567,1009,0,0
350,15,0,0,0,0,0,0,0,0,0,-1,1574,1009,0,0
357,15,0,0,0,0,0,0,0,0,0,-1,1581,1009,0,0
364,15,0,0,0,0,0,0,0,0,0,-1,1588,1009,0,0
371,15,0,0,0,0,0,0,0,0,0,-1,1595,1009,0,0
378,15,0,0,0,0,0,0,0,0,0,-1,1602,1009,0,0
385,15,0,0,0,0,0,0,0,0,0,-1,1609,1009,0,0
392,15,0,0,0,0,0,0,0,0,0,-1,1616,1009,0,0
399,15,0,0,0,0,0,0,0,0,0,-1,1623,1009,0,0
406,15,0,0,0,0,0,0,0,0,0,-1,1630,1009,0,0
413,15,0,0,0,0,0,0,0,0,0,-1,1637,1009,0,0
420,15,0,0,0,0,0,0,0,0,0,-1,1644,1009,0,0
427,15,0,0,0,0,0,0,0,0,0,-1,1651,1009,0,0
434,15,0,0,0,0,0,0,0,0,0,-1,1658,1009,0,0
441,15,0,0,0,0,0,0,0,0,0,-1,1665,1009,0,0
448,15,0,0,0,0,0,0,0,0,0,-1,1672,1009,0,0
455,15,0,0,0,0,0,0,0,0,0,-1,1679,1009,0,0
462,15,0,0,0,0,0,0,0,0,0,-1,1686,1009,0,0
469,15,0,0,0,0,0,0,0,0,0,-1,1693,1009,0,0
476,15,0,0,0,0,0,0,0,0,0,-1,1700,1009,0,0
483,15,0,0,0,0,0,0,0,0,0,-1,1707,1009,0,0
490,15,0,0,0,0,0,0,0,0,0,-1,1714,1009,0,0
497,15,0,0,0,0,0,0,0,0,0,-1,1721,1009,0,0
504,15,0,0,0,0,0,0,0,0,0,-1,1728,1009,0,0
511,15,0,0,0,0,0,0,0,0,0,-1,1735,1009,0,0
518,15,0,0,0,0,0,0,0,0,0,-1,1742,1009,0,0
525,15,0,0,0,0,0,0,0,0,0,-1,1749,1009,0,0
532,15,0,0,0,0,0,0,0,0,0,-1,1756,1009,0,0
539,15,0,0,0,0,0,0,0,0,0,-1,1763,1009,0,0
546,15,0,0,0,0,0,0,0,0,0,-1,1770,1009,0,0
553,15,0,0,0,0,0,0,0,0,0,-1,1777,1009,0,0
560,15,0,0,0,0,0,0,0,0,0,-1,1784,1009,0,0
567,15,0,0,0,0,0,0,0,0,0,-1,1791,1009,0,0
574,15,0,0,0,0,0,0,0,0,0,-1,1798,1009,0,0
581,15,0,0,0,0,0,0,0,0,0,-1,1805,1009,0,0
588,15,0,0,0,0,0,0,0,0,0,-1,1812,1009,0,0
595,15,0,0,0,0,0,0,0,0,0,-1,1819,1009,0,0
602,15,0,0,0,0,0,0,0,0,0,-1,1826,1009,0,0
609,15,0,0,0,0,0,0,0,0,0,-1,1833,1009,0,0
616,15,0,0,0,0,0,0,0,0,0,-1,1840,1009,0,0
623,15,0,0,0,0,0,0,0,0,0,-1,1847,1009,0,0
630,15,0,0,0,0,0,0,0,0,0,-1,1854,1009,0,0
637,15,0,0,0,0,0,0,0,0,0,-1,1861,1009,0,0
644,15,61.0604,2.54669,0.00592481,-0.00420097,0.00167261,0.00619394,-0.00447011,0.159539,0.00618365,0.041935,1868,1009,61.0604,-2.54669
651,15,61.3042,2.81848,0.00383411,-0.00317514,0.000275576,0.00384493,-0.00318595,0.0392354,0.00406522,0.0414781,1875,1009,61.3042,-2.8185
658,15,61.3635,3.01843,0.00255416,-0.00248043,-0.000478601,0.00259926,-0.00252553,-0.0939413,0.0029589,0.0393941,1882,1009,61.3636,-3.01843
665,15,61.3439,3.06818,0.0016722,-0.00183569,-0.000497934,0.00174151,-0.001905,-0.138308,0.00210602,0.0386783,1889,1009,61.3439,-3.06819
672,15,61.3352,2.8634,0.000995692,-0.000989559,2.74522e-05,0.000996071,-0.000989938,0.0138246,0.00114662,0.0403918,1896,1009,61.3352,-2.8634
679,15,61.4451,2.54504,0.000564971,-0.00024607,0.000820555,0.00107474,-0.000755841,0.555899,0.00106222,0.0423441,1903,1009,61.4451,-2.54507
686,15,61.3945,2.63135,0.000271439,0.000155694,0.00160594,0.00182055,-0.00139342,0.767388,0.00186104,0.0445843,1910,1009,61.3946,-2.63134
693,15,61.345,2.72699,4.59858e-05,0.000313059,0.00223164,0.00241515,-0.00205611,0.815281,0.00258426,0.0384997,1917,1009,61.3449,-2.72699
700,15,61.3827,2.69641,-0.00020013,0.000496155,0.00251701,0.00268898,-0.00239296,0.85412,0.00293572,0.0297553,1924,1009,61.3827,-2.69639
707,15,61.3606,2.78577,-0.000747014,0.00078729,0.00248627,0.00262208,-0.0025818,0.935041,0.00300449,0.0294728,1931,1009,61.3606,-2.78574
714,15,61.337,2.90479,-0.00162998,0.00163116,0.00234108,0.00285355,-0.00285237,1.08959,0.00329432,0.0359734,1938,1009,61.337,-2.90479
721,15,61.2709,2.9566,0,0,0,0,0,0,0,-1,1945,1009,61.2708,-2.95659
728,15,61.3022,6.39539,0,0,0,0,0,0,0,-1,1952,1009,61.3023,-6.39538
735,15,61.2698,6.55688,-0.00525127,0.00567154,0.00160828,0.00590342,-0.00548315,1.4276,0.00657553,0.0212774,1959,1009,61.2697,-6.55687
742,15,61.3207,6.73077,-0.00645828,0.00721381,0.000935307,0.0072775,-0.00652197,1.50281,0.00797111,0.0407521,1966,1009,61.3207,-6.73075
749,15,61.2887,6.79889,-0.00805688,0.00920888,0.000200187,0.0092112,-0.0080592,1.5592,0.00997846,0.0248225,1973,1009,61.2887,-6.79891
756,15,61.2947,6.7583,-0.0100914,0.0122353,-0.000799684,0.0122639,-0.01012,-1.53504,0.0129431,0.0186988,1980,1009,61.2947,-6.75831
763,15,61.2095,6.91931,-0.0122936,0.0159282,-0.00191678,0.0160578,-0.0124232,-1.50329,0.0164881,0.015422,1987,1009,61.2095,-6.9193
770,15,61.0613,6.93237,-0.0144379,0.020997,-0.00311531,0.0212688,-0.0147097,-1.48377,0.020887,0.0199169,1994,1009,61.0613,-6.93236
777,15,60.6829,6.93329,-0.0164858,0.0264889,-0.0045736,0.0269702,-0.0169672,-1.46594,0.0255855,0.0427771,2001,1009,60.6828,-6.93331
784,15,60.3635,6.92963,0,0,0,0,0,0,0,-1,2008,1009,60.3636,-6.92961
791,15,59.7068,5.96674,0,0,0,0,0,0,0,-1,2015,1009,59.7068,-5.96673
798,15,59.696,5.13995,0,0,0,0,0,0,0,-1,2022,1009,59.6961,-5.13995
805,15,59.248,4.29761,0,0,0,0,0,0,0,-1,2029,1009,59.248,-4.29761
812,15,58.9702,3.57159,0,0,0,0,0,0,0,-1,2036,1009,58.9702,-3.57162
-700,8,0,0,0,0,0,0,0,0,0,-1,524,1016,0,0
-693,8,-46.9497,2.93811,-0.0506051,0.118553,-0.0826237,0.152212,-0.0842643,-1.18394,0.138396,0.0429036,531,1016,-46.9497,-2.93811
-686,8,-47.6603,2.91821,-0.0331629,0.101529,-0.0619242,0.125671,-0.0573051,-1.19905,0.108071,0.0464357,538,1016,-47.6603,-2.91822
-679,8,-47.9801,3.25739,-0.0205865,0.0873029,-0.0447859,0.103471,-0.0367546,-1.22435,0.0839582,0.0455347,545,1016,-47.9801,-3.2574
-672,8,-47.9716,3.06848,0,0,0,0,0,0,0,-1,552,1016,-47.9717,-3.06849
-665,8,-47.6053,3.07361,-0.00562405,0.0627894,-0.0195758,0.0679948,-0.0108294,-1.3109,0.0493374,0.0491993,559,1016,-47.6054,-3.07359
-658,8,-47.342,3.32581,-0.00217639,0.0519645,-0.0110565,0.0541354,-0.00434725,-1.37692,0.0376231,0.0425603,566,1016,-47.342,-3.32581
-651,8,-46.6481,3.86365,0,0,0,0,0,0,0,-1,573,1016,-46.6481,-3.86366
-644,8,-46.937,3.82245,0,0,0,0,0,0,0,-1,580,1016,-46.9369,-3.82242
-637,8,-46.9949,4.03564,-1.07691e-05,0.0222643,0.0024737,0.0225357,-0.000282174,1.46152,0.0151187,0.0433184,587,1016,-46.9949,-4.03565
-630,8,-47.2425,4.22778,-0.000610827,0.0151314,0.00384459,0.0160202,-0.00149958,1.34362,0.0112134,0.0258349,594,1016,-47.2425,-4.22778
-623,8,-47.2256,4.28815,-0.00217297,0.0115186,0.00224382,0.0118769,-0.00253132,1.41243,0.00888276,0.0163651,601,1016,-47.2256,-4.28812
-616,8,-47.2687,4.2561,-0.00290754,0.00806233,0.000251799,0.0080681,-0.00291332,1.54786,0.00656884,0.0176902,608,1016,-47.2687,-4.25608
-609,8,-47.353,4.16638,-0.0027808,0.00502307,-0.00129291,0.0052317,-0.00298943,-1.41081,0.00480496,0.0204516,615,1016,-47.353,-4.16639
-602,8,-47.2886,4.21844,-0.00196776,0.00312393,-0.00209825,0.00387717,-0.002721,-1.22614,0.0038289,0.0253864,622,1016,-47.2887,-4.21844
-595,8,-47.2995,4.17188,0,0,0,0,0,0,0,-1,629,1016,-47.2995,-4.17186
-588,8,-46.3909,0.773132,0,0,0,0,0,0,0,-1,636,1016,-46.3909,-0.77314
-581,8,-46.4157,0.930603,0.000228692,-0.000461301,-0.00310664,0.00300943,-0.00324204,-0.730099,0.00361012,0.0314217,643,1016,-46.4157,-0.930603
-574,8,-46.4407,1.01819,0.000656491,-0.000839302,-0.00313428,0.00313087,-0.00331368,-0.668279,0.00372126,0.0346479,650,1016,-46.4407,-1.01816
-567,8,-46.4897,1.08984,0.000710359,-0.000828558,-0.00291462,0.00295538,-0.00307358,-0.656343,0.00348104,0.0380331,657,1016,-46.4897,-1.08986
-560,8,-46.4954,1.20508,0.000568383,-0.000495966,-0.00250956,0.00260157,-0.00252915,-0.680916,0.00296232,0.0388801,664,1016,-46.4953,-1.2051
-553,8,-46.4226,1.24036,6.7036e-05,-1.27593e-06,-0.00200012,0.0020333,-0.00196754,-0.776861,0.00230999,0.0433614,671,1016,-46.4226,-1.24036
-546,8,-46.3599,1.22638,0,0,0,0,0,0,0,-1,678,1016,-46.3599,-1.22639
-539,8,-46.3552,0.899963,-0.00245762,0.000393604,-0.000941458,0.000676416,-0.00274044,-1.27897,0.00208925,0.0425033,685,1016,-46.3552,-0.899956
-532,8,-46.3777,0.900879,-0.00391537,0.00116062,-0.00114783,0.00140811,-0.00416286,-1.35843,0.00334491,0.0438353,692,1016,-46.3777,-0.900875
-525,8,0,0,0,0,0,0,0,0,0,-1,699,1016,0,0
-518,8,0,0,0,0,0,0,0,0,0,-1,706,1016,0,0
-511,8,0,0,0,0,0,0,0,0,0,-1,713,1016,0,0
-504,8,0,0,0,0,0,0,0,0,0,-1,720,1016,0,0
-497,8,0,0,0,0,0,0,0,0,0,-1,727,1016,0,0
-490,8,0,0,0,0,0,0,0,0,0,-1,734,1016,0,0
-483,8,0,0,0,0,0,0,0,0,0,-1,741,1016,0,0
-476,8,0,0,0,0,0,0,0,0,0,-1,748,1016,0,0
-469,8,0,0,0,0,0,0,0,0,0,-1,755,1016,0,0
-462,8,0,0,0,0,0,0,0,0,0,-1,762,1016,0,0
-455,8,0,0,0,0,0,0,0,0,0,-1,769,1016,0,0
-448,8,0,0,0,0,0,0,0,0,0,-1,776,1016,0,0
-441,8,0,0,0,0,0,0,0,0,0,-1,783,1016,0,0
-434,8,0,0,0,0,0,0,0,0,0,-1,790,1016,0,0
-427,8,0,0,0,0,0,0,0,0,0,-1,797,1016,0,0
-420,8,0,0,0,0,0,0,0,0,0,-1,804,1016,0,0
-413,8,0,0,0,0,0,0,0,0,0,-1,811,1016,0,0
-406,8,0,0,0,0,0,0,0,0,0,-1,818,1016,0,0
-399,8,0,0,0,0,0,0,0,0,0,-1,825,1016,0,0
-392,8,0,0,0,0,0,0,0,0,0,-1,832,1016,0,0
-385,8,0,0,0,0,0,0,0,0,0,-1,839,1016,0,0
-378,8,0,0,0,0,0,0,0,0,0,-1,846,1016,0,0
-371,8,0,0,0,0,0,0,0,0,0,-1,853,1016,0,0
-364,8,0,0,0,0,0,0,0,0,0,-1,860,1016,0,0
-357,8,0,0,0,0,0,0,0,0,0,-1,867,1016,0,0
-350,8,0,0,0,0,0,0,0,0,0,-1,874,1016,0,0
-343,8,0,0,0,0,0,0,0,0,0,-1,881,1016,0,0
-336,8,0,0,0,0,0,0,0,0,0,-1,888,1016,0,0
-329,8,0,0,0,0,0,0,0,0,0,-1,895,1016,0,0
-322,8,0,0,0,0,0,0,0,0,0,-1,902,1016,0,0
-315,8,0,0,0,0,0,0,0,0,0,-1,909,1016,0,0
-308,8,0,0,0,0,0,0,0,0,0,-1,916,1016,0,0
-301,8,0,0,0,0,0,0,0,0,0,-1,923,1016,0,0
-294,8,0,0,0,0,0,0,0,0,0,-1,930,1016,0,0
-287,8,0,0,0,0,0,0,0,0,0,-1,937,1016,0,0
-280,8,0,0,0,0,0,0,0,0,0,-1,944,1016,0,0
-273,8,0,0,0,0,0,0,0,0,0,-1,951,1016,0,0
-266,8,0,0,0,0,0,0,0,0,0,-1,958,1016,0,0
-259,8,0,0,0,0,0,0,0,0,0,-1,965,1016,0,0
-252,8,0,0,0,0,0,0,0,0,0,-1,972,1016,0,0
-245,8,0,0,0,0,0,0,0,0,0,-1,979,1016,0,0
-238,8,0,0,0,0,0,0,0,0,0,-1,986,1016,0,0
-231,8,0,0,0,0,0,0,0,0,0,-1,993,1016,0,0
-224,8,0,0,0,0,0,0,0,0,0,-1,1000,1016,0,0
-217,8,0,0,0,0,0,0,0,0,0,-1,1007,1016,0,0
-210,8,0,0,0,0,0,0,0,0,0,-1,1014,1016,0,0
-203,8,0,0,0,0,0,0,0,0,0,-1,1021,1016,0,0
-196,8,0,0,0,0,0,0,0,0,0,-1,1028,1016,0,0
-189,8,0,0,0,0,0,0,0,0,0,-1,1035,1016,0,0
-182,8,0,0,0,0,0,0,0,0,0,-1,1042,1016,0,0
-175,8,0,0,0,0,0,0,0,0,0,-1,1049,1016,0,0
-168,8,0,0,0,0,0,0,0,0,0,-1,1056,1016,0,0
-161,8,0,0,0,0,0,0,0,0,0,-1,1063,1016,0,0
-154,8,0,0,0,0,0,0,0,0,0,-1,1070,1016,0,0
-147,8,0,0,0,0,0,0,0,0,0,-1,1077,1016,0,0
-140,8,0,0,0,0,0,0,0,0,0,-1,1084,1016,0,0
-133,8,0,0,0,0,0,0,0,0,0,-1,1091,1016,0,0
-126,8,0,0,0,0,0,0,0,0,0,-1,1098,1016,0,0
-119,8,0,0,0,0,0,0,0,0,0,-1,1105,1016,0,0
-112,8,0,0,0,0,0,0,0,0,0,-1,1112,1016,0,0
-105,8,0,0,0,0,0,0,0,0,0,-1,1119,1016,0,0
-98,8,0,0,0,0,0,0,0,0,0,-1,1126,1016,0,0
-91,8,0,0,0,0,0,0,0,0,0,-1,1133,1016,0,0
-84,8,0,0,0,0,0,0,0,0,0,-1,1140,1016,0,0
-77,8,0,0,0,0,0,0,0,0,0,-1,1147,1016,0,0
-70,8,0,0,0,0,0,0,0,0,0,-1,1154,1016,0,0
-63,8,0,0,0,0,0,0,0,0,0,-1,1161,1016,0,0
-56,8,0,0,0,0,0,0,0,0,0,-1,1168,1016,0,0
-49,8,0,0,0,0,0,0,0,0,0,-1,1175,1016,0,0
-42,8,0,0,0,0,0,0,0,0,0,-1,1182,1016,0,0
-35,8,0,0,0,0,0,0,0,0,0,-1,1189,1016,0,0
-28,8,0,0,0,0,0,0,0,0,0,-1,1196,1016,0,0
-21,8,0,0,0,0,0,0,0,0,0,-1,1203,1016,0,0
-14,8,0,0,0,0,0,0,0,0,0,-1,1210,1016,0,0
-7,8,0,0,0,0,0,0,0,0,0,-1,1217,1016,0,0
0,8,0,0,0,0,0,0,0,0,0,-1,1224,1016,0,0
7,8,0,0,0,0,0,0,0,0,0,-1,1231,1016,0,0
14,8,0,0,0,0,0,0,0,0,0,-1,1238,1016,0,0
21,8,0,0,0,0,0,0,0,0,0,-1,1245,1016,0,0
28,8,0,0,0,0,0,0,0,0,0,-1,1252,1016,0,0
35,8,0,0,0,0,0,0,0,0,0,-1,1259,1016,0,0
42,8,0,0,0,0,0,0,0,0,0,-1,1266,1016,0,0
49,8,0,0,0,0,0,0,0,0,0,-1,1273,1016,0,0
56,8,0,0,0,0,0,0,0,0,0,-1,1280,1016,0,0
63,8,0,0,0,0,0,0,0,0,0,-1,1287,1016,0,0
70,8,0,0,0,0,0,0,0,0,0,-1,1294,1016,0,0
77,8,0,0,0,0,0,0,0,0,0,-1,1301,1016,0,0
84,8,0,0,0,0,0,0,0,0,0,-1,1308,1016,0,0
91,8,0,0,0,0,0,0,0,0,0,-1,1315,1016,0,0
98,8,0,0,0,0,0,0,0,0,0,-1,1322,1016,0,0
105,8,0,0,0,0,0,0,0,0,0,-1,1329,1016,0,0
112,8,0,0,0,0,0,0,0,0,0,-1,1336,1016,0,0
119,8,0,0,0,0,0,0,0,0,0,-1,1343,1016,0,0
126,8,0,0,0,0,0,0,0,0,0,-1,1350,1016,0,0
133,8,0,0,0,0,0,0,0,0,0,-1,1357,1016,0,0
140,8,0,0,0,0,0,0,0,0,0,-1,1364,1016,0,0
147,8,0,0,0,0,0,0,0,0,0,-1,1371,1016,0,0
154,8,0,0,0,0,0,0,0,0,0,-1,1378,1016,0,0
161,8,0,0,0,0,0,0,0,0,0,-1,1385,1016,0,0
168,8,0,0,0,0,0,0,0,0,0,-1,1392,1016,0,0
175,8,0,0,0,0,0,0,0,0,0,-1,1399,1016,0,0
182,8,0,0,0,0,0,0,0,0,0,-1,1406,1016,0,0
189,8,0,0,0,0,0,0,0,0,0,-1,1413,1016,0,0
196,8,0,0,0,0,0,0,0,0,0,-1,1420,1016,0,0
203,8,0,0,0,0,0,0,0,0,0,-1,1427,1016,0,0
210,8,0,0,0,0,0,0,0,0,0,-1,1434,1016,0,0
217,8,0,0,0,0,0,0,0,0,0,-1,1441,1016,0,0
224,8,0,0,0,0,0,0,0,0,0,-1,1448,1016,0,0
231,8,0,0,0,0,0,0,0,0,0,-1,1455,1016,0,0
238,8,0,0,0,0,0,0,0,0,0,-1,1462,1016,0,0
245,8,0,0,0,0,0,0,0,0,0,-1,1469,1016,0,0
252,8,0,0,0,0,0,0,0,0,0,-1,1476,1016,0,0
259,8,0,0,0,0,0,0,0,0,0,-1,1483,1016,0,0
266,8,0,0,0,0,0,0,0,0,0,-1,1490,1016,0,0
273,8,0,0,0,0,0,0,0,0,0,-1,1497,1016,0,0
280,8,0,0,0,0,0,0,0,0,0,-1,1504,1016,0,0
287,8,0,0,0,0,0,0,0,0,0,-1,1511,1016,0,0
294,8,0,0,0,0,0,0,0,0,0,-1,1518,1016,0,0
301,8,0,0,0,0,0,0,0,0,0,-1,1525,1016,0,0
308,8,0,0,0,0,0,0,0,0,0,-1,1532,1016,0,0
315,8,0,0,0,0,0,0,0,0,0,-1,1539,1016,0,0
322,8,0,0,0,0,0,0,0,0,0,-1,1546,1016,0,0
329,8,0,0,0,0,0,0,0,0,0,-1,1553,1016,0,0
336,8,0,0,0,0,0,0,0,0,0,-1,1560,1016,0,0
343,8,0,0,0,0,0,0,0,0,0,-1,1567,1016,0,0
350,8,0,0,0,0,0,0,0,0,0,-1,1574,1016,0,0
357,8,0,0,0,0,0,0,0,0,0,-1,1581,1016,0,0
364,8,0,0,0,0,0,0,0,0,0,-1,1588,1016,0,0
371,8,0,0,0,0,0,0,0,0,0,-1,1595,1016,0,0
378,8,0,0,0,0,0,0,0,0,0,-1,1602,1016,0,0
385,8,0,0,0,0,0,0,0,0,0,-1,1609,1016,0,0
392,8,0,0,0,0,0,0,0,0,0,-1,1616,1016,0,0
399,8,0,0,0,0,0,0,0,0,0,-1,1623,1016,0,0
406,8,0,0,0,0,0,0,0,0,0,-1,1630,1016,0,0
413,8,0,0,0,0,0,0,0,0,0,-1,1637,1016,0,0
420,8,0,0,0,0,0,0,0,0,0,-1,1644,1016,0,0
427,8,0,0,0,0,0,0,0,0,0,-1,1651,1016,0,0
434,8,0,0,0,0,0,0,0,0,0,-1,1658,1016,0,0
441,8,0,0,0,0,0,0,0,0,0,-1,1665,1016,0,0
448,8,0,0,0,0,0,0,0,0,0,-1,1672,1016,0,0
455,8,0,0,0,0,0,0,0,0,0,-1,1679,1016,0,0
462,8,0,0,0,0,0,0,0,0,0,-1,1686,1016,0,0
469,8,0,0,0,0,0,0,0,0,0,-1,1693,1016,0,0
476,8,0,0,0,0,0,0,0,0,0,-1,1700,1016,0,0
483,8,0,0,0,0,0,0,0,0,0,-1,1707,1016,0,0
490,8,0,0,0,0,0,0,0,0,0,-1,1714,1016,0,0
497,8,0,0,0,0,0,0,0,0,0,-1,1721,1016,0,0
504,8,0,0,0,0,0,0,0,0,0,-1,1728,1016,0,0
511,8,0,0,0,0,0,0,0,0,0,-1,1735,1016,0,0
518,8,0,0,0,0,0,0,0,0,0,-1,1742,1016,0,0
525,8,0,0,0,0,0,0,0,0,0,-1,1749,1016,0,0
532,8,0,0,0,0,0,0,0,0,0,-1,1756,1016,0,0
539,8,0,0,0,0,0,0,0,0,0,-1,1763,1016,0,0
546,8,0,0,0,0,0,0,0,0,0,-1,1770,1016,0,0
553,8,0,0,0,0,0,0,0,0,0,-1,1777,1016,0,0
560,8,0,0,0,0,0,0,0,0,0,-1,1784,1016,0,0
567,8,0,0,0,0,0,0,0,0,0,-1,1791,1016,0,0
574,8,0,0,0,0,0,0,0,0,0,-1,1798,1016,0,0
581,8,0,0,0,0,0,0,0,0,0,-1,1805,1016,0,0
588,8,0,0,0,0,0,0,0,0,0,-1,1812,1016,0,0
595,8,0,0,0,0,0,0,0,0,0,-1,1819,1016,0,0
602,8,0,0,0,0,0,0,0,0,0,-1,1826,1016,0,0
609,8,0,0,0,0,0,0,0,0,0,-1,1833,1016,0,0
616,8,0,0,0,0,0,0,0,0,0,-1,1840,1016,0,0
623,8,0,0,0,0,0,0,0,0,0,-1,1847,1016,0,0
630,8,0,0,0,0,0,0,0,0,0,-1,1854,1016,0,0
637,8,0,0,0,0,0,0,0,0,0,-1,1861,1016,0,0
644,8,61.318,3.0545,0.00545243,-0.00343659,0.00139203,0.00566533,-0.00364948,0.151763,0.00541973,0.0460381,1868,1016,61.318,-3.05453
651,8,61.3374,2.92975,0.00347673,-0.00250297,0.000124838,0.00347933,-0.00250558,0.0208649,0.0034706,0.0406802,1875,1016,61.3374,-2.92977
658,8,61.2347,2.85669,0.00230551,-0.00192038,-0.000568035,0.00238053,-0.0019954,-0.131313,0.00252971,0.0394612,1882,1016,61.2347,-2.85666
665,8,61.2821,3.01849,0.00153405,-0.00142598,-0.000617593,0.00165774,-0.00154967,-0.19766,0.00185215,0.0422047,1889,1016,61.2821,-3.01848
672,8,61.3843,2.86896,0.000959695,-0.000737331,-0.000142455,0.00097157,-0.000749206,-0.0831685,0.000996251,0.0414009,1896,1016,61.3843,-2.86894
679,8,61.3896,2.6441,0.000598032,-0.000107233,0.000594241,0.000936393,-0.000445594,0.517616,0.00081449,0.0407695,1903,1016,61.3896,-2.6441
686,8,61.3174,2.62244,0.000283398,0.000213463,0.00135088,0.00159976,-0.0011029,0.772458,0.00156914,0.0425795,1910,1016,61.3174,-2.62241
693,8,61.3168,2.65161,1.59199e-05,0.000314937,0.00199926,0.00217027,-0.00183942,0.82272,0.00231762,0.0386217,1917,1016,61.3168,-2.65164
700,8,61.3837,2.65631,-0.000234246,0.000452015,0.00235922,0.00249292,-0.00227515,0.857613,0.00275381,0.0302298,1924,1016,61.3837,-2.65631
707,8,61.3843,2.69885,-0.000820957,0.000714536,0.00238021,0.00244776,-0.00255418,0.941407,0.00288809,0.026912,1931,1016,61.3843,-2.69885
714,8,61.3806,2.72491,-0.00174858,0.00154944,0.00229381,0.00272546,-0.0029246,1.09705,0.00326274,0.033577,1938,1016,61.3806,-2.7249
721,8,61.3893,2.73334,0,0,0,0,0,0,0,-1,1945,1016,61.3893,-2.73337
728,8,52.1681,5.36774,0,0,0,0,0,0,0,-1,1952,1016,52.168,-5.36773
735,8,61.2853,6.65253,0,0,0,0,0,0,0,-1,1959,1016,61.2852,-6.65252
742,8,61.2589,6.84845,0,0,0,0,0,0,0,-1,1966,1016,61.2589,-6.84846
749,8,61.5626,6.74878,0,0,0,0,0,0,0,-1,1973,1016,61.5627,-6.74878
756,8,61.3719,6.66425,-0.00985011,0.0117125,-0.000671992,0.0117334,-0.00987103,-1.53967,0.0124888,0.0354356,1980,1016,61.3719,-6.66427
763,8,61.3298,6.7652,-0.0118342,0.0150742,-0.00202884,0.0152263,-0.0119863,-1.49596,0.0157483,0.0172101,1987,1016,61.3299,-6.76523
770,8,61.218,6.70081,-0.0136824,0.0196059,-0.00370571,0.0200134,-0.0140899,-1.46126,0.0197883,0.0220902,1994,1016,61.218,-6.70082
777,8,60.8264,6.69574,-0.0155236,0.0245912,-0.00583802,0.0254236,-0.0163559,-1.42918,0.0243101,0.0362083,2001,1016,60.8265,-6.69576
784,8,60.4419,6.69751,0,0,0,0,0,0,0,-1,2008,1016,60.442,-6.69751
791,8,59.8152,5.87506,0,0,0,0,0,0,0,-1,2015,1016,59.8153,-5.87507
798,8,59.6731,5.06757,0,0,0,0,0,0,0,-1,2022,1016,59.673,-5.06754
805,8,59.1648,4.17151,0,0,0,0,0,0,0,-1,2029,1016,59.1648,-4.17152
812,8,56.7502,1.78967,0,0,0,0,0,0,0,-1,2036,1016,56.7503,-1.7897
-700,1,0,0,0,0,0,0,0,0,0,-1,524,1023,0,0
-693,1,-45.9922,3.63501,-0.0275412,0.132213,-0.0715704,0.159586,-0.0549147,-1.20549,0.128663,0.040921,531,1023,-45.9922,-3.63503
-686,1,-46.629,3.4942,-0.0147259,0.11139,-0.0532818,0.130887,-0.0342225,-1.22001,0.100624,0.045128,538,1023,-46.629,-3.49421
-679,1,-47.218,3.38263,-0.00605212,0.0939997,-0.0381348,0.106877,-0.0189297,-1.24513,0.0783276,0.0493775,545,1023,-47.218,-3.38264
-672,1,-47.1753,3.09216,0,0,0,0,0,0,0,-1,552,1023,-47.1753,-3.09216
-665,1,-47.0893,3.14697,0.00298085,0.0654889,-0.0160001,0.0693464,-0.000876632,-1.33422,0.0465259,0.0453064,559,1023,-47.0893,-3.14697
-658,1,-46.9903,3.52246,0.00432254,0.05356,-0.00860689,0.0550211,0.00286139,-1.40263,0.0357651,0.0369122,566,1023,-46.9903,-3.52244
-651,1,-46.8994,3.8382,0.00415576,0.0428903,-0.00347451,0.0431995,0.00384656,-1.48204,0.027607,0.0288318,573,1023,-46.8994,-3.83818
-644,1,-46.7662,4.11121,0,0,0,0,0,0,0,-1,580,1023,-46.7662,-4.11123
-637,1,-46.9935,4.02899,0.00249007,0.0221298,0.00275016,0.0225076,0.00211223,1.43426,0.0143529,0.0404398,587,1023,-46.9935,-4.029
-630,1,-47.3066,4.05768,0.000858808,0.0148338,0.00366642,0.0157373,-4.46858e-05,1.32919,0.0105065,0.0353033,594,1023,-47.3067,-4.05766
-623,1,-47.162,4.2428,-0.00122272,0.0111249,0.00209316,0.0114701,-0.0015679,1.40736,0.00821938,0.0169886,601,1023,-47.162,-4.2428
-616,1,-47.285,4.16974,-0.0023568,0.00764861,0.000177761,0.00765177,-0.00235996,1.55304,0.00604343,0.0216339,608,1023,-47.2851,-4.16976
-609,1,-47.3263,4.21381,-0.00244951,0.00453429,-0.00134133,0.00478305,-0.00269826,-1.38742,0.00437488,0.0229371,615,1023,-47.3263,-4.21384
-602,1,-47.1412,4.31317,-0.00175628,0.00263463,-0.002116,0.00348835,-0.00261,-1.18731,0.00353304,0.0167429,622,1023,-47.1413,-4.31316
-595,1,-46.9461,4.36304,0,0,0,0,0,0,0,-1,629,1023,-46.9461,-4.36301
-588,1,-46.3654,0.753784,0,0,0,0,0,0,0,-1,636,1023,-46.3654,-0.753779
-581,1,-46.4323,0.91272,0.000159851,-0.00073645,-0.00286757,0.00261408,-0.00319068,-0.707884,0.00335688,0.0288602,643,1023,-46.4323,-0.912692
-574,1,-46.447,1.02222,0.000508231,-0.00103082,-0.00283786,0.00267905,-0.00320164,-0.653,0.00339968,0.0357014,650,1023,-46.447,-1.02221
-567,1,-46.4865,1.14069,0.000454954,-0.000923768,-0.00262159,0.0024763,-0.00294511,-0.656831,0.00313395,0.0412658,657,1023,-46.4865,-1.14071
-560,1,-46.5391,1.23749,0.00014256,-0.000502602,-0.00227571,0.00211844,-0.00247848,-0.714992,0.00265674,0.0407399,664,1023,-46.5391,-1.2375
-553,1,-46.5128,0.91925,-0.000612132,4.3145e-05,-0.00187789,0.00162176,-0.00219075,-0.871765,0.00220931,0.0411939,671,1023,-46.5128,-0.919221
-546,1,-46.4397,0.494629,0,0,0,0,0,0,0,-1,678,1023,-46.4397,-0.494607
-539,1,-46.3634,0.862854,-0.00401645,0.000196914,-0.00120027,0.000514849,-0.00433438,-1.31186,0.0030756,0.0421114,685,1023,-46.3634,-0.862864
-532,1,-46.4243,0.966858,-0.00609862,0.000540599,-0.00130002,0.00078608,-0.00634411,-1.38417,0.0045143,0.042566,692,1023,-46.4243,-0.966853
-525,1,0,0,0,0,0,0,0,0,0,-1,699,1023,0,0
-518,1,0,0,0,0,0,0,0,0,0,-1,706,1023,0,0
-511,1,0,0,0,0,0,0,0,0,0,-1,713,1023,0,0
-504,1,0,0,0,0,0,0,0,0,0,-1,720,1023,0,0
-497,1,0,0,0,0,0,0,0,0,0,-1,727,1023,0,0
-490,1,0,0,0,0,0,0,0,0,0,-1,734,1023,0,0
-483,1,0,0,0,0,0,0,0,0,0,-1,741,1023,0,0
-476,1,0,0,0,0,0,0,0,0,0,-1,748,1023,0,0
-469,1,0,0,0,0,0,0,0,0,0,-1,755,1023,0,0
-462,1,0,0,0,0,0,0,0,0,0,-1,762,1023,0,0
-455,1,0,0,0,0,0,0,0,0,0,-1,769,1023,0,0
-448,1,0,0,0,0,0,0,0,0,0,-1,776,1023,0,0
-441,1,0,0,0,0,0,0,0,0,0,-1,783,1023,0,0
-434,1,0,0,0,0,0,0,0,0,0,-1,790,1023,0,0
-427,1,0,0,0,0,0,0,0,0,0,-1,797,1023,0,0
-420,1,0,0,0,0,0,0,0,0,0,-1,804,1023,0,0
-413,1,0,0,0,0,0,0,0,0,0,-1,811,1023,0,0
-406,1,0,0,0,0,0,0,0,0,0,-1,818,1023,0,0
-399,1,0,0,0,0,0,0,0,0,0,-1,825,1023,0,0
-392,1,0,0,0,0,0,0,0,0,0,-1,832,1023,0,0
-385,1,0,0,0,0,0,0,0,0,0,-1,839,1023,0,0
-378,1,0,0,0,0,0,0,0,0,0,-1,846,1023,0,0
-371,1,0,0,0,0,0,0,0,0,0,-1,853,1023,0,0
-364,1,0,0,0,0,0,0,0,0,0,-1,860,1023,0,0
-357,1,0,0,0,0,0,0,0,0,0,-1,867,1023,0,0
-350,1,0,0,0,0,0,0,0,0,0,-1,874,1023,0,0
-343,1,0,0,0,0,0,0,0,0,0,-1,881,1023,0,0
-336,1,0,0,0,0,0,0,0,0,0,-1,888,1023,0,0
-329,1,0,0,0,0,0,0,0,0,0,-1,895,1023,0,0
-322,1,0,0,0,0,0,0,0,0,0,-1,902,1023,0,0
-315,1,0,0,0,0,0,0,0,0,0,-1,909,1023,0,0
-308,1,0,0,0,0,0,0,0,0,0,-1,916,1023,0,0
-301,1,0,0,0,0,0,0,0,0,0,-1,923,1023,0,0
-294,1,0,0,0,0,0,0,0,0,0,-1,930,1023,0,0
-287,1,0,0,0,0,0,0,0,0,0,-1,937,1023,0,0
-280,1,0,0,0,0,0,0,0,0,0,-1,944,1023,0,0
-273,1,0,0,0,0,0,0,0,0,0,-1,951,1023,0,0
-266,1,0,0,0,0,0,0,0,0,0,-1,958,1023,0,0
-259,1,0,0,0,0,0,0,0,0,0,-1,965,1023,0,0
-252,1,0,0,0,0,0,0,0,0,0,-1,972,1023,0,0
-245,1,0,0,0,0,0,0,0,0,0,-1,979,1023,0,0
-238,1,0,0,0,0,0,0,0,0,0,-1,986,1023,0,0
-231,1,0,0,0,0,0,0,0,0,0,-1,993,1023,0,0
-224,1,0,0,0,0,0,0,0,0,0,-1,1000,1023,0,0
-217,1,0,0,0,0,0,0,0,0,0,-1,1007,1023,0,0
-210,1,0,0,0,0,0,0,0,0,0,-1,1014,1023,0,0
-203,1,0,0,0,0,0,0,0,0,0,-1,1021,1023,0,0
-196,1,0,0,0,0,0,0,0,0,0,-1,1028,1023,0,0
-189,1,0,0,0,0,0,0,0,0,0,-1,1035,1023,0,0
-182,1,0,0,0,0,0,0,0,0,0,-1,1042,1023,0,0
-175,1,0,0,0,0,0,0,0,0,0,-1,1049,1023,0,0
-168,1,0,0,0,0,0,0,0,0,0,-1,1056,1023,0,0
-161,1,0,0,0,0,0,0,0,0,0,-1,1063,1023,0,0
-154,1,0,0,0,0,0,0,0,0,0,-1,1070,1023,0,0
-147,1,0,0,0,0,0,0,0,0,0,-1,1077,1023,0,0
-140,1,0,0,0,0,0,0,0,0,0,-1,1084,1023,0,0
-133,1,0,0,0,0,0,0,0,0,0,-1,1091,1023,0,0
-126,1,0,0,0,0,0,0,0,0,0,-1,1098,1023,0,0
-119,1,0,0,0,0,0,0,0,0,0,-1,1105,1023,0,0
-112,1,0,0,0,0,0,0,0,0,0,-1,1112,1023,0,0
-105,1,0,0,0,0,0,0,0,0,0,-1,1119,1023,0,0
-98,1,0,0,0,0,0,0,0,0,0,-1,1126,1023,0,0
-91,1,0,0,0,0,0,0,0,0,0,-1,1133,1023,0,0
-84,1,0,0,0,0,0,0,0,0,0,-1,1140,1023,0,0
-77,1,0,0,0,0,0,0,0,0,0,-1,1147,1023,0,0
-70,1,0,0,0,0,0,0,0,0,0,-1,1154,1023,0,0
-63,1,0,0,0,0,0,0,0,0,0,-1,1161,1023,0,0
-56,1,0,0,0,0,0,0,0,0,0,-1,1168,1023,0,0
-49,1,0,0,0,0,0,0,0,0,0,-1,1175,1023,0,0
-42,1,0,0,0,0,0,0,0,0,0,-1,1182,1023,0,0
-35,1,0,0,0,0,0,0,0,0,0,-1,1189,1023,0,0
-28,1,0,0,0,0,0,0,0,0,0,-1,1196,1023,0,0
-21,1,0,0,0,0,0,0,0,0,0,-1,1203,1023,0,0
-14,1,0,0,0,0,0,0,0,0,0,-1,1210,1023,0,0
-7,1,0,0,0,0,0,0,0,0,0,-1,1217,1023,0,0
0,1,0,0,0,0,0,0,0,0,0,-1,1224,1023,0,0
7,1,0,0,0,0,0,0,0,0,0,-1,1231,1023,0,0
14,1,0,0,0,0,0,0,0,0,0,-1,1238,1023,0,0
21,1,0,0,0,0,0,0,0,0,0,-1,1245,1023,0,0
28,1,0,0,0,0,0,0,0,0,0,-1,1252,1023,0,0
35,1,0,0,0,0,0,0,0,0,0,-1,1259,1023,0,0
42,1,0,0,0,0,0,0,0,0,0,-1,1266,1023,0,0
49,1,0,0,0,0,0,0,0,0,0,-1,1273,1023,0,0
56,1,0,0,0,0,0,0,0,0,0,-1,1280,1023,0,0
63,1,0,0,0,0,0,0,0,0,0,-1,1287,1023,0,0
70,1,0,0,0,0,0,0,0,0,0,-1,1294,1023,0,0
77,1,0,0,0,0,0,0,0,0,0,-1,1301,1023,0,0
84,1,0,0,0,0,0,0,0,0,0,-1,1308,1023,0,0
91,1,0,0,0,0,0,0,0,0,0,-1,1315,1023,0,0
98,1,0,0,0,0,0,0,0,0,0,-1,1322,1023,0,0
105,1,0,0,0,0,0,0,0,0,0,-1,1329,1023,0,0
112,1,0,0,0,0,0,0,0,0,0,-1,1336,1023,0,0
119,1,0,0,0,0,0,0,0,0,0,-1,1343,1023,0,0
126,1,0,0,0,0,0,0,0,0,0,-1,1350,1023,0,0
133,1,0,0,0,0,0,0,0,0,0,-1,1357,1023,0,0
140,1,0,0,0,0,0,0,0,0,0,-1,1364,1023,0,0
147,1,0,0,0,0,0,0,0,0,0,-1,1371,1023,0,0
154,1,0,0,0,0,0,0,0,0,0,-1,1378,1023,0,0
161,1,0,0,0,0,0,0,0,0,0,-1,1385,1023,0,0
168,1,0,0,0,0,0,0,0,0,0,-1,1392,1023,0,0
175,1,0,0,0,0,0,0,0,0,0,-1,1399,1023,0,0
182,1,0,0,0,0,0,0,0,0,0,-1,1406,1023,0,0
189,1,0,0,0,0,0,0,0,0,0,-1,1413,1023,0,0
196,1,0,0,0,0,0,0,0,0,0,-1,1420,1023,0,0
203,1,0,0,0,0,0,0,0,0,0,-1,1427,1023,0,0
210,1,0,0,0,0,0,0,0,0,0,-1,1434,1023,0,0
217,1,0,0,0,0,0,0,0,0,0,-1,1441,1023,0,0
224,1,0,0,0,0,0,0,0,0,0,-1,1448,1023,0,0
231,1,0,0,0,0,0,0,0,0,0,-1,1455,1023,0,0
238,1,0,0,0,0,0,0,0,0,0,-1,1462,1023,0,0
245,1,0,0,0,0,0,0,0,0,0,-1,1469,1023,0,0
252,1,0,0,0,0,0,0,0,0,0,-1,1476,1023,0,0
259,1,0,0,0,0,0,0,0,0,0,-1,1483,1023,0,0
266,1,0,0,0,0,0,0,0,0,0,-1,1490,1023,0,0
273,1,0,0,0,0,0,0,0,0,0,-1,1497,1023,0,0
280,1,0,0,0,0,0,0,0,0,0,-1,1504,1023,0,0
287,1,0,0,0,0,0,0,0,0,0,-1,1511,1023,0,0
294,1,0,0,0,0,0,0,0,0,0,-1,1518,1023,0,0
301,1,0,0,0,0,0,0,0,0,0,-1,1525,1023,0,0
308,1,0,0,0,0,0,0,0,0,0,-1,1532,1023,0,0
315,1,0,0,0,0,0,0,0,0,0,-1,1539,1023,0,0
322,1,0,0,0,0,0,0,0,0,0,-1,1546,1023,0,0
329,1,0,0,0,0,0,0,0,0,0,-1,1553,1023,0,0
336,1,0,0,0,0,0,0,0,0,0,-1,1560,1023,0,0
343,1,0,0,0,0,0,0,0,0,0,-1,1567,1023,0,0
350,1,0,0,0,0,0,0,0,0,0,-1,1574,1023,0,0
357,1,0,0,0,0,0,0,0,0,0,-1,1581,1023,0,0
364,1,0,0,0,0,0,0,0,0,0,-1,1588,1023,0,0
371,1,0,0,0,0,0,0,0,0,0,-1,1595,1023,0,0
378,1,0,0,0,0,0,0,0,0,0,-1,1602,1023,0,0
385,1,0,0,0,0,0,0,0,0,0,-1,1609,1023,0,0
392,1,0,0,0,0,0,0,0,0,0,-1,1616,1023,0,0
399,1,0,0,0,0,0,0,0,0,0,-1,1623,1023,0,0
406,1,0,0,0,0,0,0,0,0,0,-1,1630,1023,0,0
413,1,0,0,0,0,0,0,0,0,0,-1,1637,1023,0,0
420,1,0,0,0,0,0,0,0,0,0,-1,1644,1023,0,0
427,1,0,0,0,0,0,0,0,0,0,-1,1651,1023,0,0
434,1,0,0,0,0,0,0,0,0,0,-1,1658,1023,0,0
441,1,0,0,0,0,0,0,0,0,0,-1,1665,1023,0,0
448,1,0,0,0,0,0,0,0,0,0,-1,1672,1023,0,0
455,1,0,0,0,0,0,0,0,0,0,-1,1679,1023,0,0
462,1,0,0,0,0,0,0,0,0,0,-1,1686,1023,0,0
469,1,0,0,0,0,0,0,0,0,0,-1,1693,1023,0,0
476,1,0,0,0,0,0,0,0,0,0,-1,1700,1023,0,0
483,1,0,0,0,0,0,0,0,0,0,-1,1707,1023,0,0
490,1,0,0,0,0,0,0,0,0,0,-1,1714,1023,0,0
497,1,0,0,0,0,0,0,0,0,0,-1,1721,1023,0,0
504,1,0,0,0,0,0,0,0,0,0,-1,1728,1023,0,0
511,1,0,0,0,0,0,0,0,0,0,-1,1735,1023,0,0
518,1,0,0,0,0,0,0,0,0,0,-1,1742,1023,0,0
525,1,0,0,0,0,0,0,0,0,0,-1,1749,1023,0,0
532,1,0,0,0,0,0,0,0,0,0,-1,1756,1023,0,0
539,1,0,0,0,0,0,0,0,0,0,-1,1763,1023,0,0
546,1,0,0,0,0,0,0,0,0,0,-1,1770,1023,0,0
553,1,0,0,0,0,0,0,0,0,0,-1,1777,1023,0,0
560,1,0,0,0,0,0,0,0,0,0,-1,1784,1023,0,0
567,1,0,0,0,0,0,0,0,0,0,-1,1791,1023,0,0
574,1,0,0,0,0,0,0,0,0,0,-1,1798,1023,0,0
581,1,0,0,0,0,0,0,0,0,0,-1,1805,1023,0,0
588,1,0,0,0,0,0,0,0,0,0,-1,1812,1023,0,0
595,1,0,0,0,0,0,0,0,0,0,-1,1819,1023,0,0
602,1,0,0,0,0,0,0,0,0,0,-1,1826,1023,0,0
609,1,0,0,0,0,0,0,0,0,0,-1,1833,1023,0,0
616,1,0,0,0,0,0,0,0,0,0,-1,1840,1023,0,0
623,1,0,0,0,0,0,0,0,0,0,-1,1847,1023,0,0
630,1,0,0,0,0,0,0,0,0,0,-1,1854,1023,0,0
637,1,0,0,0,0,0,0,0,0,0,-1,1861,1023,0,0
644,1,0,0,0,0,0,0,0,0,0,-1,1868,1023,0,0
651,1,61.3901,2.71368,0.00285994,-0.00245763,0.000131511,0.00286319,-0.00246088,0.0247113,0.00307678,0.0388421,1875,1023,61.3902,-2.71368
658,1,61.2141,2.96667,0.00188911,-0.00187246,-0.000555825,0.00196952,-0.00195287,-0.143675,0.0022646,0.0425029,1882,1023,61.2141,-2.96666
665,1,61.3109,2.92273,0.00127037,-0.00141945,-0.000634401,0.00141249,-0.00156157,-0.220378,0.00171779,0.0448578,1889,1023,61.3109,-2.92272
672,1,61.4032,2.73663,0.000824642,-0.000804753,-0.000205018,0.000850043,-0.000830154,-0.123265,0.000970085,0.0411156,1896,1023,61.4032,-2.73665
679,1,61.4052,2.63403,0.000551282,-0.000233022,0.000483742,0.000781857,-0.000463597,0.444793,0.000726847,0.0368557,1903,1023,61.4052,-2.63405
686,1,61.3976,2.62622,0.000219833,3.17274e-05,0.00121884,0.00134824,-0.00109668,0.746891,0.00141407,0.0371052,1910,1023,61.3976,-2.62625
693,1,61.402,2.77789,-8.79587e-05,9.71295e-05,0.00188348,0.00189034,-0.00188117,0.809946,0.00217748,0.0348041,1917,1023,61.4019,-2.77789
700,1,61.3762,2.81012,-0.000343911,0.0002052,0.0023077,0.00225461,-0.00239333,0.844607,0.00268389,0.0303816,1924,1023,61.3762,-2.81011
707,1,61.3281,2.74609,-0.000960088,0.000453454,0.00238286,0.00223215,-0.00273878,0.929568,0.00287493,0.0273793,1931,1023,61.3281,-2.74606
714,1,61.3348,2.73279,-0.00191002,0.00127975,0.00235022,0.00252515,-0.00315541,1.08351,0.00328639,0.0308628,1938,1023,61.3348,-2.73276
721,1,61.3945,2.77966,0,0,0,0,0,0,0,-1,1945,1023,61.3946,-2.77969
728,1,52.4639,5.59277,0,0,0,0,0,0,0,-1,1952,1023,52.4639,-5.59276
735,1,53.3617,6.10699,0,0,0,0,0,0,0,-1,1959,1023,53.3617,-6.10698
742,1,52.4393,5.81525,0,0,0,0,0,0,0,-1,1966,1023,52.4393,-5.81527
749,1,61.5001,6.54645,0,0,0,0,0,0,0,-1,1973,1023,61.5001,-6.54646
756,1,61.4169,6.72961,-0.00942897,0.0111435,-0.00050535,0.0111559,-0.00944138,-1.54625,0.0119056,0.0375111,1980,1023,61.4169,-6.72964
763,1,61.2764,6.64362,-0.011039,0.01431,-0.00209374,0.0144817,-0.0112108,-1.48894,0.0148736,0.0178249,1987,1023,61.2764,-6.64361
770,1,61.2278,6.57355,-0.0123753,0.0185241,-0.00422412,0.0190912,-0.0129424,-1.43735,0.0186078,0.0189284,1994,1023,61.2277,-6.57357
777,1,60.9158,6.47888,-0.0136876,0.0233357,-0.00704988,0.0246327,-0.0149846,-1.38886,0.023098,0.0268174,2001,1023,60.9157,-6.47888
784,1,60.6516,6.38977,0,0,0,0,0,0,0,-1,2008,1023,60.6517,-6.38974
791,1,60.4189,6.35913,0,0,0,0,0,0,0,-1,2015,1023,60.4191,-6.35914
798,1,61.2517,5.89032,0,0,0,0,0,0,0,-1,2022,1023,61.2518,-5.89032
805,1,57.5173,1.37817,0,0,0,0,0,0,0,-1,2029,1023,57.5173,-1.37815
812,1,56.4775,2.1449,0,0,0,0,0,0,0,-1,2036,1023,56.4775,-2.14487
-700,-6,0,0,0,0,0,0,0,0,0,-1,524,1030,0,0
-693,-6,-45.0808,4.38525,-0.00619321,0.137804,-0.0591673,0.158996,-0.0273856,-1.22685,0.116207,0.0424,531,1030,-45.0808,-4.38526
-686,-6,-50.6629,-0.876831,0.00263579,0.115694,-0.0432907,0.130366,-0.0120364,-1.24402,0.091188,0.0451931,538,1030,-50.6629,0.87687
-679,-6,-46.426,3.4906,0,0,0,0,0,0,0,-1,545,1030,-46.426,-3.4906
-672,-6,-46.379,3.11584,0,0,0,0,0,0,0,-1,552,1030,-46.379,-3.11582
-665,-6,-46.9357,2.78711,0.0106839,0.0663829,-0.011641,0.068718,0.00834881,-1.37283,0.0432982,0.0438514,559,1030,-46.9357,-2.7871
-658,-6,-46.791,3.27051,0.00995342,0.0538509,-0.00555243,0.0545423,0.00926201,-1.44691,0.0337012,0.0386032,566,1030,-46.7909,-3.27054
-651,-6,-46.9145,3.54309,0.00825778,0.0427935,-0.00144565,0.042854,0.00819737,-1.52903,0.0262667,0.0432288,573,1030,-46.9145,-3.54312
-644,-6,-46.7302,3.99683,0,0,0,0,0,0,0,-1,580,1030,-46.7302,-3.99682
-637,-6,-46.9537,4.14612,0.00438499,0.0215082,0.00324416,0.0221022,0.00379096,1.3897,0.0136478,0.0442159,587,1030,-46.9537,-4.14607
-630,-6,-47.0894,4.06531,0.00212359,0.0142554,0.00380062,0.0153477,0.00103129,1.29094,0.00990595,0.0244893,594,1030,-47.0894,-4.06525
-623,-6,-47.0745,4.14465,-0.000273217,0.0104614,0.00217097,0.0108838,-0.00069565,1.37861,0.00749852,0.0185115,601,1030,-47.0745,-4.14469
-616,-6,-47.144,4.17725,-0.0016496,0.00703436,0.000280228,0.0070434,-0.00165864,1.53857,0.00533512,0.0212774,608,1030,-47.144,-4.17728
-609,-6,-47.1378,4.28345,-0.00184725,0.00393177,-0.00124871,0.00419004,-0.00210552,-1.36684,0.00370056,0.0215187,615,1030,-47.1378,-4.28343
-602,-6,-47.0384,4.41699,-0.00125291,0.00214904,-0.00204751,0.00310994,-0.00221382,-1.13201,0.00308815,0.0151726,622,1030,-47.0384,-4.41695
-595,-6,-46.8672,4.2915,0,0,0,0,0,0,0,-1,629,1030,-46.8672,-4.29152
-588,-6,-46.6498,2.46814,0,0,0,0,0,0,0,-1,636,1030,-46.6498,-2.46812
-581,-6,-46.4443,0.878418,0.000224296,-0.000818204,-0.00262357,0.0023779,-0.00297181,-0.687335,0.00309499,0.0235209,643,1030,-46.4443,-0.878475
-574,-6,-46.4761,0.965942,0.00046446,-0.000938093,-0.00253337,0.00239182,-0.00286545,-0.650371,0.00303939,0.0303142,650,1030,-46.4761,-0.965885
-567,-6,-46.4998,1.13525,0.00026505,-0.000635065,-0.00230139,0.00215998,-0.00252999,-0.688837,0.00271056,0.0405459,657,1030,-46.4997,-1.1352
-560,-6,-46.5024,1.22229,-0.000266064,-1.04832e-05,-0.0019825,0.00184834,-0.00212489,-0.817583,0.0022958,0.0434187,664,1030,-46.5024,-1.22227
-553,-6,-46.3049,0.788818,-0.00130948,0.000709269,-0.00165583,0.00163912,-0.00223934,-1.05912,0.00224815,0.0420942,671,1030,-46.3049,-0.788822
-546,-6,-46.3487,0.483765,0,0,0,0,0,0,0,-1,678,1030,-46.3487,-0.483777
-539,-6,-46.3621,0.950195,-0.00554531,0.000919834,-0.00129788,0.00117065,-0.00579613,-1.3799,0.00430766,0.0399155,685,1030,-46.3621,-0.950214
-532,-6,-46.5358,1.01221,-0.00817369,0.000999361,-0.00133937,0.00119092,-0.00836525,-1.42874,0.00601325,0.0394899,692,1030,-46.5358,-1.01222
-525,-6,0,0,0,0,0,0,0,0,0,-1,699,1030,0,0
-518,-6,0,0,0,0,0,0,0,0,0,-1,706,1030,0,0
-511,-6,0,0,0,0,0,0,0,0,0,-1,713,1030,0,0
-504,-6,0,0,0,0,0,0,0,0,0,-1,720,1030,0,0
-497,-6,0,0,0,0,0,0,0,0,0,-1,727,1030,0,0
-490,-6,0,0,0,0,0,0,0,0,0,-1,734,1030,0,0
-483,-6,0,0,0,0,0,0,0,0,0,-1,741,1030,0,0
-476,-6,0,0,0,0,0,0,0,0,0,-1,748,1030,0,0
-469,-6,0,0,0,0,0,0,0,0,0,-1,755,1030,0,0
-462,-6,0,0,0,0,0,0,0,0,0,-1,762,1030,0,0
-455,-6,0,0,0,0,0,0,0,0,0,-1,769,1030,0,0
-448,-6,0,0,0,0,0,0,0,0,0,-1,776,1030,0,0
-441,-6,0,0,0,0,0,0,0,0,0,-1,783,1030,0,0
-434,-6,0,0,0,0,0,0,0,0,0,-1,790,1030,0,0
-427,-6,0,0,0,0,0,0,0,0,0,-1,797,1030,0,0
-420,-6,0,0,0,0,0,0,0,0,0,-1,804,1030,0,0
-413,-6,0,0,0,0,0,0,0,0,0,-1,811,1030,0,0
-406,-6,0,0,0,0,0,0,0,0,0,-1,818,1030,0,0
-399,-6,0,0,0,0,0,0,0,0,0,-1,825,1030,0,0
-392,-6,0,0,0,0,0,0,0,0,0,-1,832,1030,0,0
-385,-6,0,0,0,0,0,0,0,0,0,-1,839,1030,0,0
-378,-6,0,0,0,0,0,0,0,0,0,-1,846,1030,0,0
-371,-6,0,0,0,0,0,0,0,0,0,-1,853,1030,0,0
-364,-6,0,0,0,0,0,0,0,0,0,-1,860,1030,0,0
-357,-6,0,0,0,0,0,0,0,0,0,-1,867,1030,0,0
-350,-6,0,0,0,0,0,0,0,0,0,-1,874,1030,0,0
-343,-6,0,0,0,0,0,0,0,0,0,-1,881,1030,0,0
-336,-6,0,0,0,0,0,0,0,0,0,-1,888,1030,0,0
-329,-6,0,0,0,0,0,0,0,0,0,-1,895,1030,0,0
-322,-6,0,0,0,0,0,0,0,0,0,-1,902,1030,0,0
-315,-6,0,0,0,0,0,0,0,0,0,-1,909,1030,0,0
-308,-6,0,0,0,0,0,0,0,0,0,-1,916,1030,0,0
-301,-6,0,0,0,0,0,0,0,0,0,-1,923,1030,0,0
-294,-6,0,0,0,0,0,0,0,0,0,-1,930,1030,0,0
-287,-6,0,0,0,0,0,0,0,0,0,-1,937,1030,0,0
-280,-6,0,0,0,0,0,0,0,0,0,-1,944,1030,0,0
-273,-6,0,0,0,0,0,0,0,0,0,-1,951,1030,0,0
-266,-6,0,0,0,0,0,0,0,0,0,-1,958,1030,0,0
-259,-6,0,0,0,0,0,0,0,0,0,-1,965,1030,0,0
-252,-6,0,0,0,0,0,0,0,0,0,-1,972,1030,0,0
-245,-6,0,0,0,0,0,0,0,0,0,-1,979,1030,0,0
-238,-6,0,0,0,0,0,0,0,0,0,-1,986,1030,0,0
-231,-6,0,0,0,0,0,0,0,0,0,-1,993,1030,0,0
-224,-6,0,0,0,0,0,0,0,0,0,-1,1000,1030,0,0
-217,-6,0,0,0,0,0,0,0,0,0,-1,1007,1030,0,0
-210,-6,0,0,0,0,0,0,0,0,0,-1,1014,1030,0,0
-203,-6,0,0,0,0,0,0,0,0,0,-1,1021,1030,0,0
-196,-6,0,0,0,0,0,0,0,0,0,-1,1028,1030,0,0
-189,-6,0,0,0,0,0,0,0,0,0,-1,1035,1030,0,0
-182,-6,0,0,0,0,0,0,0,0,0,-1,1042,1030,0,0
-175,-6,0,0,0,0,0,0,0,0,0,-1,1049,1030,0,0
-168,-6,0,0,0,0,0,0,0,0,0,-1,1056,1030,0,0
-161,-6,0,0,0,0,0,0,0,0,0,-1,1063,1030,0,0
-154,-6,0,0,0,0,0,0,0,0,0,-1,1070,1030,0,0
-147,-6,0,0,0,0,0,0,0,0,0,-1,1077,1030,0,0
-140,-6,0,0,0,0,0,0,0,0,0,-1,1084,1030,0,0
-133,-6,0,0,0,0,0,0,0,0,0,-1,1091,1030,0,0
-126,-6,0,0,0,0,0,0,0,0,0,-1,1098,1030,0,0
-119,-6,0,0,0,0,0,0,0,0,0,-1,1105,1030,0,0
-112,-6,0,0,0,0,0,0,0,0,0,-1,1112,1030,0,0
-105,-6,0,0,0,0,0,0,0,0,0,-1,1119,1030,0,0
-98,-6,0,0,0,0,0,0,0,0,0,-1,1126,1030,0,0
-91,-6,0,0,0,0,0,0,0,0,0,-1,1133,1030,0,0
-84,-6,0,0,0,0,0,0,0,0,0,-1,1140,1030,0,0
-77,-6,0,0,0,0,0,0,0,0,0,-1,1147,1030,0,0
-70,-6,0,0,0,0,0,0,0,0,0,-1,1154,1030,0,0
-63,-6,0,0,0,0,0,0,0,0,0,-1,1161,1030,0,0
-56,-6,0,0,0,0,0,0,0,0,0,-1,1168,1030,0,0
-49,-6,0,0,0,0,0,0,0,0,0,-1,1175,1030,0,0
-42,-6,0,0,0,0,0,0,0,0,0,-1,1182,1030,0,0
-35,-6,0,0,0,0,0,0,0,0,0,-1,1189,1030,0,0
-28,-6,0,0,0,0,0,0,0,0,0,-1,1196,1030,0,0
-21,-6,0,0,0,0,0,0,0,0,0,-1,1203,1030,0,0
-14,-6,0,0,0,0,0,0,0,0,0,-1,1210,1030,0,0
-7,-6,0,0,0,0,0,0,0,0,0,-1,1217,1030,0,0
0,-6,0,0,0,0,0,0,0,0,0,-1,1224,1030,0,0
7,-6,0,0,0,0,0,0,0,0,0,-1,1231,1030,0,0
14,-6,0,0,0,0,0,0,0,0,0,-1,1238,1030,0,0
21,-6,0,0,0,0,0,0,0,0,0,-1,1245,1030,0,0
28,-6,0,0,0,0,0,0,0,0,0,-1,1252,1030,0,0
35,-6,0,0,0,0,0,0,0,0,0,-1,1259,1030,0,0
42,-6,0,0,0,0,0,0,0,0,0,-1,1266,1030,0,0
49,-6,0,0,0,0,0,0,0,0,0,-1,1273,1030,0,0
56,-6,0,0,0,0,0,0,0,0,0,-1,1280,1030,0,0
63,-6,0,0,0,0,0,0,0,0,0,-1,1287,1030,0,0
70,-6,0,0,0,0,0,0,0,0,0,-1,1294,1030,0,0
77,-6,0,0,0,0,0,0,0,0,0,-1,1301,1030,0,0
84,-6,0,0,0,0,0,0,0,0,0,-1,1308,1030,0,0
91,-6,0,0,0,0,0,0,0,0,0,-1,1315,1030,0,0
98,-6,0,0,0,0,0,0,0,0,0,-1,1322,1030,0,0
105,-6,0,0,0,0,0,0,0,0,0,-1,1329,1030,0,0
112,-6,0,0,0,0,0,0,0,0,0,-1,1336,1030,0,0
119,-6,0,0,0,0,0,0,0,0,0,-1,1343,1030,0,0
126,-6,0,0,0,0,0,0,0,0,0,-1,1350,1030,0,0
133,-6,0,0,0,0,0,0,0,0,0,-1,1357,1030,0,0
140,-6,0,0,0,0,0,0,0,0,0,-1,1364,1030,0,0
147,-6,0,0,0,0,0,0,0,0,0,-1,1371,1030,0,0
154,-6,0,0,0,0,0,0,0,0,0,-1,1378,1030,0,0
161,-6,0,0,0,0,0,0,0,0,0,-1,1385,1030,0,0
168,-6,0,0,0,0,0,0,0,0,0,-1,1392,1030,0,0
175,-6,0,0,0,0,0,0,0,0,0,-1,1399,1030,0,0
182,-6,0,0,0,0,0,0,0,0,0,-1,1406,1030,0,0
189,-6,0,0,0,0,0,0,0,0,0,-1,1413,1030,0,0
196,-6,0,0,0,0,0,0,0,0,0,-1,1420,1030,0,0
203,-6,0,0,0,0,0,0,0,0,0,-1,1427,1030,0,0
210,-6,0,0,0,0,0,0,0,0,0,-1,1434,1030,0,0
217,-6,0,0,0,0,0,0,0,0,0,-1,1441,1030,0,0
224,-6,0,0,0,0,0,0,0,0,0,-1,1448,1030,0,0
231,-6,0,0,0,0,0,0,0,0,0,-1,1455,1030,0,0
238,-6,0,0,0,0,0,0,0,0,0,-1,1462,1030,0,0
245,-6,0,0,0,0,0,0,0,0,0,-1,1469,1030,0,0
252,-6,0,0,0,0,0,0,0,0,0,-1,1476,1030,0,0
259,-6,0,0,0,0,0,0,0,0,0,-1,1483,1030,0,0
266,-6,0,0,0,0,0,0,0,0,0,-1,1490,1030,0,0
273,-6,0,0,0,0,0,0,0,0,0,-1,1497,1030,0,0
280,-6,0,0,0,0,0,0,0,0,0,-1,1504,1030,0,0
287,-6,0,0,0,0,0,0,0,0,0,-1,1511,1030,0,0
294,-6,0,0,0,0,0,0,0,0,0,-1,1518,1030,0,0
301,-6,0,0,0,0,0,0,0,0,0,-1,1525,1030,0,0
308,-6,0,0,0,0,0,0,0,0,0,-1,1532,1030,0,0
315,-6,0,0,0,0,0,0,0,0,0,-1,1539,1030,0,0
322,-6,0,0,0,0,0,0,0,0,0,-1,1546,1030,0,0
329,-6,0,0,0,0,0,0,0,0,0,-1,1553,1030,0,0
336,-6,0,0,0,0,0,0,0,0,0,-1,1560,1030,0,0
343,-6,0,0,0,0,0,0,0,0,0,-1,1567,1030,0,0
350,-6,0,0,0,0,0,0,0,0,0,-1,1574,1030,0,0
357,-6,0,0,0,0,0,0,0,0,0,-1,1581,1030,0,0
364,-6,0,0,0,0,0,0,0,0,0,-1,1588,1030,0,0
371,-6,0,0,0,0,0,0,0,0,0,-1,1595,1030,0,0
378,-6,0,0,0,0,0,0,0,0,0,-1,1602,1030,0,0
385,-6,0,0,0,0,0,0,0,0,0,-1,1609,1030,0,0
392,-6,0,0,0,0,0,0,0,0,0,-1,1616,1030,0,0
399,-6,0,0,0,0,0,0,0,0,0,-1,1623,1030,0,0
406,-6,0,0,0,0,0,0,0,0,0,-1,1630,1030,0,0
413,-6,0,0,0,0,0,0,0,0,0,-1,1637,1030,0,0
420,-6,0,0,0,0,0,0,0,0,0,-1,1644,1030,0,0
427,-6,0,0,0,0,0,0,0,0,0,-1,1651,1030,0,0
434,-6,0,0,0,0,0,0,0,0,0,-1,1658,1030,0,0
441,-6,0,0,0,0,0,0,0,0,0,-1,1665,1030,0,0
448,-6,0,0,0,0,0,0,0,0,0,-1,1672,1030,0,0
455,-6,0,0,0,0,0,0,0,0,0,-1,1679,1030,0,0
462,-6,0,0,0,0,0,0,0,0,0,-1,1686,1030,0,0
469,-6,0,0,0,0,0,0,0,0,0,-1,1693,1030,0,0
476,-6,0,0,0,0,0,0,0,0,0,-1,1700,1030,0,0
483,-6,0,0,0,0,0,0,0,0,0,-1,1707,1030,0,0
490,-6,0,0,0,0,0,0,0,0,0,-1,1714,1030,0,0
497,-6,0,0,0,0,0,0,0,0,0,-1,1721,1030,0,0
504,-6,0,0,0,0,0,0,0,0,0,-1,1728,1030,0,0
511,-6,0,0,0,0,0,0,0,0,0,-1,1735,1030,0,0
518,-6,0,0,0,0,0,0,0,0,0,-1,1742,1030,0,0
525,-6,0,0,0,0,0,0,0,0,0,-1,1749,1030,0,0
532,-6,0,0,0,0,0,0,0,0,0,-1,1756,1030,0,0
539,-6,0,0,0,0,0,0,0,0,0,-1,1763,1030,0,0
546,-6,0,0,0,0,0,0,0,0,0,-1,1770,1030,0,0
553,-6,0,0,0,0,0,0,0,0,0,-1,1777,1030,0,0
560,-6,0,0,0,0,0,0,0,0,0,-1,1784,1030,0,0
567,-6,0,0,0,0,0,0,0,0,0,-1,1791,1030,0,0
574,-6,0,0,0,0,0,0,0,0,0,-1,1798,1030,0,0
581,-6,0,0,0,0,0,0,0,0,0,-1,1805,1030,0,0
588,-6,0,0,0,0,0,0,0,0,0,-1,1812,1030,0,0
595,-6,0,0,0,0,0,0,0,0,0,-1,1819,1030,0,0
602,-6,0,0,0,0,0,0,0,0,0,-1,1826,1030,0,0
609,-6,0,0,0,0,0,0,0,0,0,-1,1833,1030,0,0
616,-6,0,0,0,0,0,0,0,0,0,-1,1840,1030,0,0
623,-6,0,0,0,0,0,0,0,0,0,-1,1847,1030,0,0
630,-6,0,0,0,0,0,0,0,0,0,-1,1854,1030,0,0
637,-6,0,0,0,0,0,0,0,0,0,-1,1861,1030,0,0
644,-6,0,0,0,0,0,0,0,0,0,-1,1868,1030,0,0
651,-6,61.5513,2.87305,0,0,0,0,0,0,0,-1,1875,1030,61.5512,-2.87309
658,-6,61.2833,2.99316,0.00180879,-0.00185382,-0.000576054,0.00189725,-0.00194228,-0.15238,0.00221681,0.0433198,1882,1030,61.2833,-2.99317
665,-6,61.3726,2.67615,0.00122772,-0.0014898,-0.000671929,0.00138479,-0.00164687,-0.229625,0.0017525,0.0439341,1889,1030,61.3725,-2.67617
672,-6,61.4601,2.53906,0.000813958,-0.000990587,-0.000280723,0.00085662,-0.00103325,-0.150817,0.0010927,0.0391801,1896,1030,61.4601,-2.5391
679,-6,61.3605,2.41577,0.000551285,-0.000530314,0.000355807,0.000657836,-0.000636865,0.290964,0.000747529,0.0373666,1903,1030,61.3605,-2.41574
686,-6,61.2396,2.53467,0.000165483,-0.000358216,0.00104618,0.000982082,-0.00117481,0.662771,0.00124694,0.0371803,1910,1030,61.2396,-2.53461
693,-6,61.3075,2.7821,-0.000197532,-0.000346882,0.00168907,0.00141852,-0.00196293,0.763307,0.0019607,0.0360308,1917,1030,61.3075,-2.78208
700,-6,61.3279,2.78992,-0.000473876,-0.000263585,0.00214798,0.00178182,-0.00251928,0.809854,0.00249538,0.0315829,1924,1030,61.3279,-2.78997
707,-6,61.2957,2.7146,-0.00110994,-1.6319e-05,0.0022733,0.00177501,-0.00290127,0.903424,0.00272583,0.0296801,1931,1030,61.2956,-2.71462
714,-6,61.3014,2.65405,-0.00206072,0.000805674,0.00230471,0.00208647,-0.00334151,1.06357,0.00316165,0.0386459,1938,1030,61.3014,-2.654
721,-6,61.3446,2.65991,0,0,0,0,0,0,0,-1,1945,1030,61.3446,-2.65992
728,-6,53.1713,6.25494,0,0,0,0,0,0,0,-1,1952,1030,53.1713,-6.25495
735,-6,61.2703,6.80005,0,0,0,0,0,0,0,-1,1959,1030,61.2702,-6.80006
742,-6,61.3528,6.9527,0,0,0,0,0,0,0,-1,1966,1030,61.3527,-6.95272
749,-6,61.3258,6.51587,0,0,0,0,0,0,0,-1,1973,1030,61.3258,-6.51588
756,-6,61.3507,6.59821,-0.00908729,0.0104689,-0.000273197,0.0104727,-0.00909111,-1.55683,0.0113045,0.0321936,1980,1030,61.3507,-6.59823
763,-6,61.2107,6.46051,-0.0105531,0.0135139,-0.00194513,0.0136701,-0.0107093,-1.49067,0.01411,0.0213494,1987,1030,61.2107,-6.46052
770,-6,61.1108,6.37213,-0.0117124,0.0174791,-0.00431423,0.0181033,-0.0123367,-1.4271,0.0176793,0.0182576,1994,1030,61.1109,-6.37211
777,-6,60.9971,6.32471,-0.0129292,0.0221397,-0.00754376,0.0236936,-0.0144831,-1.36765,0.0222541,0.0203816,2001,1030,60.9971,-6.32468
784,-6,60.8845,6.31366,0,0,0,0,0,0,0,-1,2008,1030,60.8846,-6.31363
791,-6,61.436,5.94482,-0.0171227,0.0311558,-0.0171351,0.0366192,-0.022586,-1.26214,0.0345008,0.0462171,2015,1030,61.4361,-5.94478
798,-6,61.321,5.83057,0,0,0,0,0,0,0,-1,2022,1030,61.3212,-5.83052
805,-6,56.0215,2.20361,0,0,0,0,0,0,0,-1,2029,1030,56.0215,-2.20366
812,-6,56.4006,2.44385,0,0,0,0,0,0,0,-1,2036,1030,56.4007,-2.44386
-700,-13,0,0,0,0,0,0,0,0,0,-1,524,1037,0,0
-693,-13,-51.4993,-2.42712,0.0124351,0.135891,-0.0477366,0.152195,-0.00386981,-1.24166,0.102778,0.0476083,531,1037,-51.4993,2.4271
-686,-13,-50.6104,-1.37524,0.0178636,0.114433,-0.033833,0.125107,0.00718999,-1.2652,0.0811141,0.0430982,538,1037,-50.6104,1.37528
-679,-13,-49.488,-1.18188,0,0,0,0,0,0,0,-1,545,1037,-49.488,1.18186
-672,-13,-48.2444,-0.65332,0,0,0,0,0,0,0,-1,552,1037,-48.2444,0.653313
-665,-13,-47.7615,2.55896,0,0,0,0,0,0,0,-1,559,1037,-47.7615,-2.55896
-658,-13,-46.8174,3.05762,0.0151853,0.0524199,-0.00231995,0.0525639,0.0150413,-1.50881,0.0312593,0.0440061,566,1037,-46.8174,-3.05763
-651,-13,-46.6689,3.31628,0.0121325,0.0413972,0.000779056,0.0414179,0.0121118,1.5442,0.0245899,0.0387378,573,1037,-46.6689,-3.31624
-644,-13,-46.6309,3.6488,0.00884737,0.0323549,0.00248188,0.0326141,0.0085882,1.46675,0.0195203,0.0331547,580,1037,-46.6309,-3.6488
-637,-13,-46.7369,3.82666,0.00626347,0.0203388,0.0038792,0.0213371,0.00526516,1.31891,0.0128349,0.0274136,587,1037,-46.7369,-3.82667
-630,-13,-46.8864,3.88794,0.0033129,0.0132874,0.00410311,0.0147584,0.00184197,1.22658,0.00928602,0.017312,594,1037,-46.8864,-3.88796
-623,-13,-46.9525,4.05212,0.000596268,0.00951598,0.00242239,0.0101314,-1.91391e-05,1.32201,0.00676065,0.0147907,601,1037,-46.9525,-4.05215
-616,-13,-46.9395,4.22986,-0.000981783,0.00621109,0.000545862,0.00625227,-0.00102297,1.49548,0.00454769,0.0138448,608,1037,-46.9394,-4.22992
-609,-13,-46.8926,4.39014,-0.00123823,0.00321879,-0.00103763,0.00344852,-0.00146795,-1.35291,0.00291429,0.0185667,615,1037,-46.8927,-4.39012
-602,-13,-46.8837,4.50928,-0.000753943,0.00156966,-0.00181197,0.0025603,-0.00174459,-1.07047,0.00250026,0.0134654,622,1037,-46.8837,-4.50922
-595,-13,-46.907,4.59802,0,0,0,0,0,0,0,-1,629,1037,-46.9071,-4.59802
-588,-13,-46.3343,0.947144,0,0,0,0,0,0,0,-1,636,1037,-46.3343,-0.947169
-581,-13,-46.4381,0.8479,0.000176662,-0.000975735,-0.00215139,0.00182767,-0.00262675,-0.654556,0.00258552,0.0256065,643,1037,-46.4381,-0.847883
-574,-13,-46.4501,0.894043,0.000287283,-0.000951347,-0.00201382,0.00177486,-0.00243893,-0.636222,0.00244288,0.0321221,650,1037,-46.4501,-0.894033
-567,-13,-46.4816,1.10291,-6.31711e-05,-0.000482174,-0.00179495,0.00153446,-0.0020798,-0.727302,0.0020946,0.0413364,657,1037,-46.4816,-1.10287
-560,-13,-46.2169,1.01685,-0.00079691,0.000342077,-0.0015529,0.00142661,-0.00188145,-0.961148,0.00191592,0.0442149,664,1037,-46.2169,-1.01684
-553,-13,-46.1252,0.750732,0,0,0,0,0,0,0,-1,671,1037,-46.1252,-0.750712
-546,-13,-46.3652,1.01123,-0.00408362,0.0019418,-0.00129586,0.00220867,-0.0043505,-1.36769,0.00385365,0.0396261,678,1037,-46.3652,-1.01129
-539,-13,-46.4451,1.12634,-0.00700367,0.00190079,-0.00161735,0.00218546,-0.00728833,-1.39657,0.00572807,0.0414656,685,1037,-46.4451,-1.12631
-532,-13,-46.5297,0.973389,-0.0101411,0.00197872,-0.00170753,0.0022147,-0.0103771,-1.43347,0.00776232,0.0431836,692,1037,-46.5297,-0.973352
-525,-13,0,0,0,0,0,0,0,0,0,-1,699,1037,0,0
-518,-13,0,0,0,0,0,0,0,0,0,-1,706,1037,0,0
-511,-13,0,0,0,0,0,0,0,0,0,-1,713,1037,0,0
-504,-13,0,0,0,0,0,0,0,0,0,-1,720,1037,0,0
-497,-13,0,0,0,0,0,0,0,0,0,-1,727,1037,0,0
-490,-13,0,0,0,0,0,0,0,0,0,-1,734,1037,0,0
-483,-13,0,0,0,0,0,0,0,0,0,-1,741,1037,0,0
-476,-13,0,0,0,0,0,0,0,0,0,-1,748,1037,0,0
-469,-13,0,0,0,0,0,0,0,0,0,-1,755,1037,0,0
-462,-13,0,0,0,0,0,0,0,0,0,-1,762,1037,0,0
-455,-13,0,0,0,0,0,0,0,0,0,-1,769,1037,0,0
-448,-13,0,0,0,0,0,0,0,0,0,-1,776,1037,0,0
-441,-13,0,0,0,0,0,0,0,0,0,-1,783,1037,0,0
-434,-13,0,0,0,0,0,0,0,0,0,-1,790,1037,0,0
-427,-13,0,0,0,0,0,0,0,0,0,-1,797,1037,0,0
-420,-13,0,0,0,0,0,0,0,0,0,-1,804,1037,0,0
-413,-13,0,0,0,0,0,0,0,0,0,-1,811,1037,0,0
-406,-13,0,0,0,0,0,0,0,0,0,-1,818,1037,0,0
-399,-13,0,0,0,0,0,0,0,0,0,-1,825,1037,0,0
-392,-13,0,0,0,0,0,0,0,0,0,-1,832,1037,0,0
-385,-13,0,0,0,0,0,0,0,0,0,-1,839,1037,0,0
-378,-13,0,0,0,0,0,0,0,0,0,-1,846,1037,0,0
-371,-13,0,0,0,0,0,0,0,0,0,-1,853,1037,0,0
-364,-13,0,0,0,0,0,0,0,0,0,-1,860,1037,0,0
-357,-13,0,0,0,0,0,0,0,0,0,-1,867,1037,0,0
-350,-13,0,0,0,0,0,0,0,0,0,-1,874,1037,0,0
-343,-13,0,0,0,0,0,0,0,0,0,-1,881,1037,0,0
-336,-13,0,0,0,0,0,0,0,0,0,-1,888,1037,0,0
-329,-13,0,0,0,0,0,0,0,0,0,-1,895,1037,0,0
-322,-13,0,0,0,0,0,0,0,0,0,-1,902,1037,0,0
-315,-13,0,0,0,0,0,0,0,0,0,-1,909,1037,0,0
-308,-13,0,0,0,0,0,0,0,0,0,-1,916,1037,0,0
-301,-13,0,0,0,0,0,0,0,0,0,-1,923,1037,0,0
-294,-13,0,0,0,0,0,0,0,0,0,-1,930,1037,0,0
-287,-13,0,0,0,0,0,0,0,0,0,-1,937,1037,0,0
-280,-13,0,0,0,0,0,0,0,0,0,-1,944,1037,0,0
-273,-13,0,0,0,0,0,0,0,0,0,-1,951,1037,0,0
-266,-13,0,0,0,0,0,0,0,0,0,-1,958,1037,0,0
-259,-13,0,0,0,0,0,0,0,0,0,-1,965,1037,0,0
-252,-13,0,0,0,0,0,0,0,0,0,-1,972,1037,0,0
-245,-13,0,0,0,0,0,0,0,0,0,-1,979,1037,0,0
-238,-13,0,0,0,0,0,0,0,0,0,-1,986,1037,0,0
-231,-13,0,0,0,0,0,0,0,0,0,-1,993,1037,0,0
-224,-13,0,0,0,0,0,0,0,0,0,-1,1000,1037,0,0
-217,-13,0,0,0,0,0,0,0,0,0,-1,1007,1037,0,0
-210,-13,0,0,0,0,0,0,0,0,0,-1,1014,1037,0,0
-203,-13,0,0,0,0,0,0,0,0,0,-1,1021,1037,0,0
-196,-13,0,0,0,0,0,0,0,0,0,-1,1028,1037,0,0
-189,-13,0,0,0,0,0,0,0,0,0,-1,1035,1037,0,0
-182,-13,0,0,0,0,0,0,0,0,0,-1,1042,1037,0,0
-175,-13,0,0,0,0,0,0,0,0,0,-1,1049,1037,0,0
-168,-13,0,0,0,0,0,0,0,0,0,-1,1056,1037,0,0
-161,-13,0,0,0,0,0,0,0,0,0,-1,1063,1037,0,0
-154,-13,0,0,0,0,0,0,0,0,0,-1,1070,1037,0,0
-147,-13,0,0,0,0,0,0,0,0,0,-1,1077,1037,0,0
-140,-13,0,0,0,0,0,0,0,0,0,-1,1084,1037,0,0
-133,-13,0,0,0,0,0,0,0,0,0,-1,1091,1037,0,0
-126,-13,0,0,0,0,0,0,0,0,0,-1,1098,1037,0,0
-119,-13,0,0,0,0,0,0,0,0,0,-1,1105,1037,0,0
-112,-13,0,0,0,0,0,0,0,0,0,-1,1112,1037,0,0
-105,-13,0,0,0,0,0,0,0,0,0,-1,1119,1037,0,0
-98,-13,0,0,0,0,0,0,0,0,0,-1,1126,1037,0,0
-91,-13,0,0,0,0,0,0,0,0,0,-1,1133,1037,0,0
-84,-13,0,0,0,0,0,0,0,0,0,-1,1140,1037,0,0
-77,-13,0,0,0,0,0,0,0,0,0,-1,1147,1037,0,0
-70,-13,0,0,0,0,0,0,0,0,0,-1,1154,1037,0,0
-63,-13,0,0,0,0,0,0,0,0,0,-1,1161,1037,0,0
-56,-13,0,0,0,0,0,0,0,0,0,-1,1168,1037,0,0
-49,-13,0,0,0,0,0,0,0,0,0,-1,1175,1037,0,0
-42,-13,0,0,0,0,0,0,0,0,0,-1,1182,1037,0,0
-35,-13,0,0,0,0,0,0,0,0,0,-1,1189,1037,0,0
-28,-13,0,0,0,0,0,0,0,0,0,-1,1196,1037,0,0
-21,-13,0,0,0,0,0,0,0,0,0,-1,1203,1037,0,0
-14,-13,0,0,0,0,0,0,0,0,0,-1,1210,1037,0,0
-7,-13,0,0,0,0,0,0,0,0,0,-1,1217,1037,0,0
0,-13,0,0,0,0,0,0,0,0,0,-1,1224,1037,0,0
7,-13,0,0,0,0,0,0,0,0,0,-1,1231,1037,0,0
14,-13,0,0,0,0,0,0,0,0,0,-1,1238,1037,0,0
21,-13,0,0,0,0,0,0,0,0,0,-1,1245,1037,0,0
28,-13,0,0,0,0,0,0,0,0,0,-1,1252,1037,0,0
35,-13,0,0,0,0,0,0,0,0,0,-1,1259,1037,0,0
42,-13,0,0,0,0,0,0,0,0,0,-1,1266,1037,0,0
49,-13,0,0,0,0,0,0,0,0,0,-1,1273,1037,0,0
56,-13,0,0,0,0,0,0,0,0,0,-1,1280,1037,0,0
63,-13,0,0,0,0,0,0,0,0,0,-1,1287,1037,0,0
70,-13,0,0,0,0,0,0,0,0,0,-1,1294,1037,0,0
77,-13,0,0,0,0,0,0,0,0,0,-1,1301,1037,0,0
84,-13,0,0,0,0,0,0,0,0,0,-1,1308,1037,0,0
91,-13,0,0,0,0,0,0,0,0,0,-1,1315,1037,0,0
98,-13,0,0,0,0,0,0,0,0,0,-1,1322,1037,0,0
105,-13,0,0,0,0,0,0,0,0,0,-1,1329,1037,0,0
112,-13,0,0,0,0,0,0,0,0,0,-1,1336,1037,0,0
119,-13,0,0,0,0,0,0,0,0,0,-1,1343,1037,0,0
126,-13,0,0,0,0,0,0,0,0,0,-1,1350,1037,0,0
133,-13,0,0,0,0,0,0,0,0,0,-1,1357,1037,0,0
140,-13,0,0,0,0,0,0,0,0,0,-1,1364,1037,0,0
147,-13,0,0,0,0,0,0,0,0,0,-1,1371,1037,0,0
154,-13,0,0,0,0,0,0,0,0,0,-1,1378,1037,0,0
161,-13,0,0,0,0,0,0,0,0,0,-1,1385,1037,0,0
168,-13,0,0,0,0,0,0,0,0,0,-1,1392,1037,0,0
175,-13,0,0,0,0,0,0,0,0,0,-1,1399,1037,0,0
182,-13,0,0,0,0,0,0,0,0,0,-1,1406,1037,0,0
189,-13,0,0,0,0,0,0,0,0,0,-1,1413,1037,0,0
196,-13,0,0,0,0,0,0,0,0,0,-1,1420,1037,0,0
203,-13,0,0,0,0,0,0,0,0,0,-1,1427,1037,0,0
210,-13,0,0,0,0,0,0,0,0,0,-1,1434,1037,0,0
217,-13,0,0,0,0,0,0,0,0,0,-1,1441,1037,0,0
224,-13,0,0,0,0,0,0,0,0,0,-1,1448,1037,0,0
231,-13,0,0,0,0,0,0,0,0,0,-1,1455,1037,0,0
238,-13,0,0,0,0,0,0,0,0,0,-1,1462,1037,0,0
245,-13,0,0,0,0,0,0,0,0,0,-1,1469,1037,0,0
252,-13,0,0,0,0,0,0,0,0,0,-1,1476,1037,0,0
259,-13,0,0,0,0,0,0,0,0,0,-1,1483,1037,0,0
266,-13,0,0,0,0,0,0,0,0,0,-1,1490,1037,0,0
273,-13,0,0,0,0,0,0,0,0,0,-1,1497,1037,0,0
280,-13,0,0,0,0,0,0,0,0,0,-1,1504,1037,0,0
287,-13,0,0,0,0,0,0,0,0,0,-1,1511,1037,0,0
294,-13,0,0,0,0,0,0,0,0,0,-1,1518,1037,0,0
301,-13,0,0,0,0,0,0,0,0,0,-1,1525,1037,0,0
308,-13,0,0,0,0,0,0,0,0,0,-1,1532,1037,0,0
315,-13,0,0,0,0,0,0,0,0,0,-1,1539,1037,0,0
322,-13,0,0,0,0,0,0,0,0,0,-1,1546,1037,0,0
329,-13,0,0,0,0,0,0,0,0,0,-1,1553,1037,0,0
336,-13,0,0,0,0,0,0,0,0,0,-1,1560,1037,0,0
343,-13,0,0,0,0,0,0,0,0,0,-1,1567,1037,0,0
350,-13,0,0,0,0,0,0,0,0,0,-1,1574,1037,0,0
357,-13,0,0,0,0,0,0,0,0,0,-1,1581,1037,0,0
364,-13,0,0,0,0,0,0,0,0,0,-1,1588,1037,0,0
371,-13,0,0,0,0,0,0,0,0,0,-1,1595,1037,0,0
378,-13,0,0,0,0,0,0,0,0,0,-1,1602,1037,0,0
385,-13,0,0,0,0,0,0,0,0,0,-1,1609,1037,0,0
392,-13,0,0,0,0,0,0,0,0,0,-1,1616,1037,0,0
399,-13,0,0,0,0,0,0,0,0,0,-1,1623,1037,0,0
406,-13,0,0,0,0,0,0,0,0,0,-1,1630,1037,0,0
413,-13,0,0,0,0,0,0,0,0,0,-1,1637,1037,0,0
420,-13,0,0,0,0,0,0,0,0,0,-1,1644,1037,0,0
427,-13,0,0,0,0,0,0,0,0,0,-1,1651,1037,0,0
434,-13,0,0,0,0,0,0,0,0,0,-1,1658,1037,0,0
441,-13,0,0,0,0,0,0,0,0,0,-1,1665,1037,0,0
448,-13,0,0,0,0,0,0,0,0,0,-1,1672,1037,0,0
455,-13,0,0,0,0,0,0,0,0,0,-1,1679,1037,0,0
462,-13,0,0,0,0,0,0,0,0,0,-1,1686,1037,0,0
469,-13,0,0,0,0,0,0,0,0,0,-1,1693,1037,0,0
476,-13,0,0,0,0,0,0,0,0,0,-1,1700,1037,0,0
483,-13,0,0,0,0,0,0,0,0,0,-1,1707,1037,0,0
490,-13,0,0,0,0,0,0,0,0,0,-1,1714,1037,0,0
497,-13,0,0,0,0,0,0,0,0,0,-1,1721,1037,0,0
504,-13,0,0,0,0,0,0,0,0,0,-1,1728,1037,0,0
511,-13,0,0,0,0,0,0,0,0,0,-1,1735,1037,0,0
518,-13,0,0,0,0,0,0,0,0,0,-1,1742,1037,0,0
525,-13,0,0,0,0,0,0,0,0,0,-1,1749,1037,0,0
532,-13,0,0,0,0,0,0,0,0,0,-1,1756,1037,0,0
539,-13,0,0,0,0,0,0,0,0,0,-1,1763,1037,0,0
546,-13,0,0,0,0,0,0,0,0,0,-1,1770,1037,0,0
553,-13,0,0,0,0,0,0,0,0,0,-1,1777,1037,0,0
560,-13,0,0,0,0,0,0,0,0,0,-1,1784,1037,0,0
567,-13,0,0,0,0,0,0,0,0,0,-1,1791,1037,0,0
574,-13,0,0,0,0,0,0,0,0,0,-1,1798,1037,0,0
581,-13,0,0,0,0,0,0,0,0,0,-1,1805,1037,0,0
588,-13,0,0,0,0,0,0,0,0,0,-1,1812,1037,0,0
595,-13,0,0,0,0,0,0,0,0,0,-1,1819,1037,0,0
602,-13,0,0,0,0,0,0,0,0,0,-1,1826,1037,0,0
609,-13,0,0,0,0,0,0,0,0,0,-1,1833,1037,0,0
616,-13,0,0,0,0,0,0,0,0,0,-1,1840,1037,0,0
623,-13,0,0,0,0,0,0,0,0,0,-1,1847,1037,0,0
630,-13,0,0,0,0,0,0,0,0,0,-1,1854,1037,0,0
637,-13,0,0,0,0,0,0,0,0,0,-1,1861,1037,0,0
644,-13,0,0,0,0,0,0,0,0,0,-1,1868,1037,0,0
651,-13,61.353,2.76147,0,0,0,0,0,0,0,-1,1875,1037,61.353,-2.76152
658,-13,61.0083,2.37695,0,0,0,0,0,0,0,-1,1882,1037,61.0084,-2.37697
665,-13,61.2531,2.45508,0.00110179,-0.00110125,-0.00051513,0.00121629,-0.00121575,-0.218718,0.00140414,0.0428724,1889,1037,61.2531,-2.45511
672,-13,61.4575,2.49915,0.000729697,-0.000739889,-0.000146892,0.000744236,-0.000754428,-0.098654,0.00086526,0.0354564,1896,1037,61.4575,-2.49914
679,-13,61.3197,2.52051,0.000492627,-0.000401856,0.000428861,0.00066502,-0.000574249,0.382211,0.000716132,0.0354742,1903,1037,61.3197,-2.52056
686,-13,61.1635,2.57202,7.2907e-05,-0.000325694,0.00104788,0.000940269,-0.00119306,0.691423,0.00123455,0.039045,1910,1037,61.1634,-2.57208
693,-13,61.2255,2.76782,-0.000332573,-0.000384955,0.00163298,0.00127443,-0.00199196,0.77738,0.00190095,0.0393911,1917,1037,61.2255,-2.76784
700,-13,61.3079,2.68396,-0.000633646,-0.000348278,0.00209809,0.00161198,-0.0025939,0.819349,0.00245023,0.0374548,1924,1037,61.3079,-2.68398
707,-13,61.3708,2.64685,-0.00127836,-0.000140102,0.00225728,0.00161869,-0.00303715,0.90889,0.00272932,0.0349936,1931,1037,61.3709,-2.64683
714,-13,61.3361,2.96289,-0.00221447,0.000622003,0.00234071,0.00194061,-0.00353308,1.05777,0.00320451,0.0346244,1938,1037,61.3361,-2.96285
721,-13,61.16,3.23938,0,0,0,0,0,0,0,-1,1945,1037,61.1601,-3.23938
728,-13,61.2256,6.8988,0,0,0,0,0,0,0,-1,1952,1037,61.2256,-6.89878
735,-13,61.1486,6.84851,-0.00567283,0.00425384,0.00220284,0.00472072,-0.0061397,1.36194,0.00628808,0.0368964,1959,1037,61.1485,-6.84854
742,-13,61.1388,6.7561,-0.00619235,0.00554886,0.00161777,0.00576769,-0.00641118,1.43635,0.00703474,0.0229418,1966,1037,61.1388,-6.75616
749,-13,61.2416,6.64453,-0.00743477,0.00722866,0.00113975,0.00731672,-0.00752283,1.49369,0.00856789,0.0300029,1973,1037,61.2415,-6.64447
756,-13,61.2255,6.54248,-0.00890676,0.00991388,3.28943e-05,0.00991394,-0.00890682,1.56905,0.0108714,0.0196033,1980,1037,61.2255,-6.54246
763,-13,61.135,6.38342,-0.0103141,0.0128792,-0.00168403,0.0130008,-0.0104357,-1.49869,0.0135581,0.0284854,1987,1037,61.1349,-6.38339
770,-13,61.0205,6.28333,-0.0114552,0.0167249,-0.00418709,0.0173339,-0.0120642,-1.42637,0.0170636,0.0243619,1994,1037,61.0205,-6.28328
777,-13,60.8911,6.12073,-0.012758,0.0213829,-0.0076957,0.0230374,-0.0144125,-1.35903,0.021812,0.0175714,2001,1037,60.8911,-6.12067
784,-13,60.9148,5.93323,-0.0146319,0.026066,-0.0120469,0.0293646,-0.0179305,-1.30353,0.0275706,0.0366256,2008,1037,60.9149,-5.93318
791,-13,60.9744,5.84009,-0.0179607,0.0308689,-0.0178238,0.0366827,-0.0237745,-1.25549,0.0351692,0.0455729,2015,1037,60.9743,-5.84004
798,-13,56.9395,2.46094,0,0,0,0,0,0,0,-1,2022,1037,56.9394,-2.46097
805,-13,56.8496,2.59167,-0.0292207,0.0412333,-0.0333712,0.0545303,-0.0425177,-1.19162,0.0561736,0.0484452,2029,1037,56.8497,-2.59165
812,-13,56.7163,3.00623,0,0,0,0,0,0,0,-1,2036,1037,56.7162,-3.00618
-700,-20,-50.7841,-3.85291,0.0203826,0.148154,-0.0524953,0.166955,0.00158124,-1.22688,0.11078,0.0487409,524,1044,-50.7841,3.85287
-693,-20,-50.6122,-2.94531,0.0288048,0.127347,-0.0375356,0.140016,0.0161359,-1.24528,0.088457,0.0428289,531,1044,-50.6122,2.9453
-686,-20,-50.3101,-1.8053,0.0315939,0.108317,-0.0251017,0.115799,0.0241111,-1.28108,0.0705496,0.0442288,538,1044,-50.3101,1.8053
-679,-20,-49.1543,-0.980347,0.03077,0.0911331,-0.0154972,0.0948792,0.0270239,-1.33362,0.0564441,0.0454319,545,1044,-49.1543,0.98037
-672,-20,-47.8593,-0.495117,0.0281555,0.0758037,-0.00815473,0.0771607,0.0267985,-1.4059,0.0452359,0.0497688,552,1044,-47.8593,0.495115
-665,-20,-47.2654,2.37939,0.0245218,0.0622133,-0.0027942,0.0624193,0.0243158,-1.4972,0.0363297,0.0467376,559,1044,-47.2654,-2.37935
-658,-20,-47.0562,3.01453,0,0,0,0,0,0,0,-1,566,1044,-47.0561,-3.01452
-651,-20,-46.5714,3.22009,0.0160504,0.0396625,0.00290083,0.0400137,0.0156992,1.45033,0.0232797,0.0382492,573,1044,-46.5714,-3.22013
-644,-20,-46.4871,3.32532,0.0118706,0.0310442,0.00377869,0.031762,0.0111528,1.38307,0.0186067,0.0270121,580,1044,-46.4871,-3.3253
-637,-20,-46.5536,3.51709,0.00827388,0.0194794,0.00433632,0.0209615,0.00679182,1.24147,0.0123494,0.0212524,587,1044,-46.5536,-3.51706
-630,-20,-46.6748,3.79797,0.0045891,0.0126625,0.00413196,0.0144023,0.0028493,1.17227,0.0088068,0.017725,594,1044,-46.6748,-3.79803
-623,-20,-46.7451,4.0282,0.00152779,0.00888056,0.00240241,0.00959591,0.000812433,1.28139,0.00614439,0.0153379,601,1044,-46.7451,-4.02823
-616,-20,-46.735,4.20178,-0.000221163,0.00566723,0.000557922,0.00571963,-0.000273559,1.47716,0.00390747,0.0144278,608,1044,-46.735,-4.20173
-609,-20,-46.7457,4.39673,-0.000615114,0.00277389,-0.0010504,0.00307305,-0.000914271,-1.29334,0.00241192,0.0153554,615,1044,-46.7456,-4.39677
-602,-20,-46.7172,4.55603,-0.000289615,0.00118426,-0.00180018,0.00239251,-0.00149786,-0.979676,0.00226581,0.0139767,622,1044,-46.7172,-4.55598
-595,-20,-46.679,4.66455,-8.35253e-05,-0.000107108,-0.00214227,0.00204698,-0.00223762,-0.782646,0.00247453,0.0421827,629,1044,-46.679,-4.66451
-588,-20,-46.3718,0.914063,0,0,0,0,0,0,0,-1,636,1044,-46.3718,-0.91412
-581,-20,-46.4356,0.821777,0.000209698,-0.00104665,-0.00198901,0.00166738,-0.00250433,-0.632444,0.00242464,0.0323065,643,1044,-46.4356,-0.821801
-574,-20,-46.4257,0.757324,0.000240189,-0.00095142,-0.00182393,0.00156316,-0.0022744,-0.627532,0.00222826,0.0370654,650,1044,-46.4257,-0.757329
-567,-20,-46.4211,1.20325,-0.000196535,-0.000417889,-0.00161634,0.00131291,-0.00192733,-0.751215,0.00188193,0.0451103,657,1044,-46.4211,-1.20321
-560,-20,-46.4008,1.474,0,0,0,0,0,0,0,-1,664,1044,-46.4007,-1.47398
-553,-20,-46.3737,1.32581,-0.00241662,0.00149525,-0.00135238,0.00191726,-0.00283863,-1.26832,0.00276294,0.0425141,671,1044,-46.3736,-1.32586
-546,-20,-46.3747,1.42249,-0.00450544,0.00224619,-0.00143343,0.00253791,-0.00479717,-1.37002,0.00430135,0.0426747,678,1044,-46.3747,-1.4225
-539,-20,-46.4795,1.37317,-0.00752076,0.00224345,-0.00201047,0.00264121,-0.00791852,-1.37548,0.00634537,0.045754,685,1044,-46.4795,-1.3732
-532,-20,-46.6859,1.23547,-0.0108302,0.00226745,-0.00213705,0.00260732,-0.0111701,-1.41308,0.00845099,0.0461013,692,1044,-46.6859,-1.23551
-525,-20,0,0,0,0,0,0,0,0,0,-1,699,1044,0,0
-518,-20,0,0,0,0,0,0,0,0,0,-1,706,1044,0,0
-511,-20,0,0,0,0,0,0,0,0,0,-1,713,1044,0,0
-504,-20,0,0,0,0,0,0,0,0,0,-1,720,1044,0,0
-497,-20,0,0,0,0,0,0,0,0,0,-1,727,1044,0,0
-490,-20,0,0,0,0,0,0,0,0,0,-1,734,1044,0,0
-483,-20,0,0,0,0,0,0,0,0,0,-1,741,1044,0,0
-476,-20,0,0,0,0,0,0,0,0,0,-1,748,1044,0,0
-469,-20,0,0,0,0,0,0,0,0,0,-1,755,1044,0,0
-462,-20,0,0,0,0,0,0,0,0,0,-1,762,1044,0,0
-455,-20,0,0,0,0,0,0,0,0,0,-1,769,1044,0,0
-448,-20,0,0,0,0,0,0,0,0,0,-1,776,1044,0,0
-441,-20,0,0,0,0,0,0,0,0,0,-1,783,1044,0,0
-434,-20,0,0,0,0,0,0,0,0,0,-1,790,1044,0,0
-427,-20,0,0,0,0,0,0,0,0,0,-1,797,1044,0,0
-420,-20,0,0,0,0,0,0,0,0,0,-1,804,1044,0,0
-413,-20,0,0,0,0,0,0,0,0,0,-1,811,1044,0,0
-406,-20,0,0,0,0,0,0,0,0,0,-1,818,1044,0,0
-399,-20,0,0,0,0,0,0,0,0,0,-1,825,1044,0,0
-392,-20,0,0,0,0,0,0,0,0,0,-1,832,1044,0,0
-385,-20,0,0,0,0,0,0,0,0,0,-1,839,1044,0,0
-378,-20,0,0,0,0,0,0,0,0,0,-1,846,1044,0,0
-371,-20,0,0,0,0,0,0,0,0,0,-1,853,1044,0,0
-364,-20,0,0,0,0,0,0,0,0,0,-1,860,1044,0,0
-357,-20,0,0,0,0,0,0,0,0,0,-1,867,1044,0,0
-350,-20,0,0,0,0,0,0,0,0,0,-1,874,1044,0,0
-343,-20,0,0,0,0,0,0,0,0,0,-1,881,1044,0,0
-336,-20,0,0,0,0,0,0,0,0,0,-1,888,1044,0,0
-329,-20,0,0,0,0,0,0,0,0,0,-1,895,1044,0,0
-322,-20,0,0,0,0,0,0,0,0,0,-1,902,1044,0,0
-315,-20,0,0,0,0,0,0,0,0,0,-1,909,1044,0,0
-308,-20,0,0,0,0,0,0,0,0,0,-1,916,1044,0,0
-301,-20,0,0,0,0,0,0,0,0,0,-1,923,1044,0,0
-294,-20,0,0,0,0,0,0,0,0,0,-1,930,1044,0,0
-287,-20,0,0,0,0,0,0,0,0,0,-1,937,1044,0,0
-280,-20,0,0,0,0,0,0,0,0,0,-1,944,1044,0,0
-273,-20,0,0,0,0,0,0,0,0,0,-1,951,1044,0,0
-266,-20,0,0,0,0,0,0,0,0,0,-1,958,1044,0,0
-259,-20,0,0,0,0,0,0,0,0,0,-1,965,1044,0,0
-252,-20,0,0,0,0,0,0,0,0,0,-1,972,1044,0,0
-245,-20,0,0,0,0,0,0,0,0,0,-1,979,1044,0,0
-238,-20,0,0,0,0,0,0,0,0,0,-1,986,1044,0,0
-231,-20,0,0,0,0,0,0,0,0,0,-1,993,1044,0,0
-224,-20,0,0,0,0,0,0,0,0,0,-1,1000,1044,0,0
-217,-20,0,0,0,0,0,0,0,0,0,-1,1007,1044,0,0
-210,-20,0,0,0,0,0,0,0,0,0,-1,1014,1044,0,0
-203,-20,0,0,0,0,0,0,0,0,0,-1,1021,1044,0,0
-196,-20,0,0,0,0,0,0,0,0,0,-1,1028,1044,0,0
-189,-20,0,0,0,0,0,0,0,0,0,-1,1035,1044,0,0
-182,-20,0,0,0,0,0,0,0,0,0,-1,1042,1044,0,0
-175,-20,0,0,0,0,0,0,0,0,0,-1,1049,1044,0,0
-168,-20,0,0,0,0,0,0,0,0,0,-1,1056,1044,0,0
-161,-20,0,0,0,0,0,0,0,0,0,-1,1063,1044,0,0
-154,-20,0,0,0,0,0,0,0,0,0,-1,1070,1044,0,0
-147,-20,0,0,0,0,0,0,0,0,0,-1,1077,1044,0,0
-140,-20,0,0,0,0,0,0,0,0,0,-1,1084,1044,0,0
-133,-20,0,0,0,0,0,0,0,0,0,-1,1091,1044,0,0
-126,-20,0,0,0,0,0,0,0,0,0,-1,1098,1044,0,0
-119,-20,0,0,0,0,0,0,0,0,0,-1,1105,1044,0,0
-112,-20,0,0,0,0,0,0,0,0,0,-1,1112,1044,0,0
-105,-20,0,0,0,0,0,0,0,0,0,-1,1119,1044,0,0
-98,-20,0,0,0,0,0,0,0,0,0,-1,1126,1044,0,0
-91,-20,0,0,0,0,0,0,0,0,0,-1,1133,1044,0,0
-84,-20,0,0,0,0,0,0,0,0,0,-1,1140,1044,0,0
-77,-20,0,0,0,0,0,0,0,0,0,-1,1147,1044,0,0
-70,-20,0,0,0,0,0,0,0,0,0,-1,1154,1044,0,0
-63,-20,0,0,0,0,0,0,0,0,0,-1,1161,1044,0,0
-56,-20,0,0,0,0,0,0,0,0,0,-1,1168,1044,0,0
-49,-20,0,0,0,0,0,0,0,0,0,-1,1175,1044,0,0
-42,-20,0,0,0,0,0,0,0,0,0,-1,1182,1044,0,0
-35,-20,0,0,0,0,0,0,0,0,0,-1,1189,1044,0,0
-28,-20,0,0,0,0,0,0,0,0,0,-1,1196,1044,0,0
-21,-20,0,0,0,0,0,0,0,0,0,-1,1203,1044,0,0
-14,-20,0,0,0,0,0,0,0,0,0,-1,1210,1044,0,0
-7,-20,0,0,0,0,0,0,0,0,0,-1,1217,1044,0,0
0,-20,0,0,0,0,0,0,0,0,0,-1,1224,1044,0,0
7,-20,0,0,0,0,0,0,0,0,0,-1,1231,1044,0,0
14,-20,0,0,0,0,0,0,0,0,0,-1,1238,1044,0,0
21,-20,0,0,0,0,0,0,0,0,0,-1,1245,1044,0,0
28,-20,0,0,0,0,0,0,0,0,0,-1,1252,1044,0,0
35,-20,0,0,0,0,0,0,0,0,0,-1,1259,1044,0,0
42,-20,0,0,0,0,0,0,0,0,0,-1,1266,1044,0,0
49,-20,0,0,0,0,0,0,0,0,0,-1,1273,1044,0,0
56,-20,0,0,0,0,0,0,0,0,0,-1,1280,1044,0,0
63,-20,0,0,0,0,0,0,0,0,0,-1,1287,1044,0,0
70,-20,0,0,0,0,0,0,0,0,0,-1,1294,1044,0,0
77,-20,0,0,0,0,0,0,0,0,0,-1,1301,1044,0,0
84,-20,0,0,0,0,0,0,0,0,0,-1,1308,1044,0,0
91,-20,0,0,0,0,0,0,0,0,0,-1,1315,1044,0,0
98,-20,0,0,0,0,0,0,0,0,0,-1,1322,1044,0,0
105,-20,0,0,0,0,0,0,0,0,0,-1,1329,1044,0,0
112,-20,0,0,0,0,0,0,0,0,0,-1,1336,1044,0,0
119,-20,0,0,0,0,0,0,0,0,0,-1,1343,1044,0,0
126,-20,0,0,0,0,0,0,0,0,0,-1,1350,1044,0,0
133,-20,0,0,0,0,0,0,0,0,0,-1,1357,1044,0,0
140,-20,0,0,0,0,0,0,0,0,0,-1,1364,1044,0,0
147,-20,0,0,0,0,0,0,0,0,0,-1,1371,1044,0,0
154,-20,0,0,0,0,0,0,0,0,0,-1,1378,1044,0,0
161,-20,0,0,0,0,0,0,0,0,0,-1,1385,1044,0,0
168,-20,0,0,0,0,0,0,0,0,0,-1,1392,1044,0,0
175,-20,0,0,0,0,0,0,0,0,0,-1,1399,1044,0,0
182,-20,0,0,0,0,0,0,0,0,0,-1,1406,1044,0,0
189,-20,0,0,0,0,0,0,0,0,0,-1,1413,1044,0,0
196,-20,0,0,0,0,0,0,0,0,0,-1,1420,1044,0,0
203,-20,0,0,0,0,0,0,0,0,0,-1,1427,1044,0,0
210,-20,0,0,0,0,0,0,0,0,0,-1,1434,1044,0,0
217,-20,0,0,0,0,0,0,0,0,0,-1,1441,1044,0,0
224,-20,0,0,0,0,0,0,0,0,0,-1,1448,1044,0,0
231,-20,0,0,0,0,0,0,0,0,0,-1,1455,1044,0,0
238,-20,0,0,0,0,0,0,0,0,0,-1,1462,1044,0,0
245,-20,0,0,0,0,0,0,0,0,0,-1,1469,1044,0,0
252,-20,0,0,0,0,0,0,0,0,0,-1,1476,1044,0,0
259,-20,0,0,0,0,0,0,0,0,0,-1,1483,1044,0,0
266,-20,0,0,0,0,0,0,0,0,0,-1,1490,1044,0,0
273,-20,0,0,0,0,0,0,0,0,0,-1,1497,1044,0,0
280,-20,0,0,0,0,0,0,0,0,0,-1,1504,1044,0,0
287,-20,0,0,0,0,0,0,0,0,0,-1,1511,1044,0,0
294,-20,0,0,0,0,0,0,0,0,0,-1,1518,1044,0,0
301,-20,0,0,0,0,0,0,0,0,0,-1,1525,1044,0,0
308,-20,0,0,0,0,0,0,0,0,0,-1,1532,1044,0,0
315,-20,0,0,0,0,0,0,0,0,0,-1,1539,1044,0,0
322,-20,0,0,0,0,0,0,0,0,0,-1,1546,1044,0,0
329,-20,0,0,0,0,0,0,0,0,0,-1,1553,1044,0,0
336,-20,0,0,0,0,0,0,0,0,0,-1,1560,1044,0,0
343,-20,0,0,0,0,0,0,0,0,0,-1,1567,1044,0,0
350,-20,0,0,0,0,0,0,0,0,0,-1,1574,1044,0,0
357,-20,0,0,0,0,0,0,0,0,0,-1,1581,1044,0,0
364,-20,0,0,0,0,0,0,0,0,0,-1,1588,1044,0,0
371,-20,0,0,0,0,0,0,0,0,0,-1,1595,1044,0,0
378,-20,0,0,0,0,0,0,0,0,0,-1,1602,1044,0,0
385,-20,0,0,0,0,0,0,0,0,0,-1,1609,1044,0,0
392,-20,0,0,0,0,0,0,0,0,0,-1,1616,1044,0,0
399,-20,0,0,0,0,0,0,0,0,0,-1,1623,1044,0,0
406,-20,0,0,0,0,0,0,0,0,0,-1,1630,1044,0,0
413,-20,0,0,0,0,0,0,0,0,0,-1,1637,1044,0,0
420,-20,0,0,0,0,0,0,0,0,0,-1,1644,1044,0,0
427,-20,0,0,0,0,0,0,0,0,0,-1,1651,1044,0,0
434,-20,0,0,0,0,0,0,0,0,0,-1,1658,1044,0,0
441,-20,0,0,0,0,0,0,0,0,0,-1,1665,1044,0,0
448,-20,0,0,0,0,0,0,0,0,0,-1,1672,1044,0,0
455,-20,0,0,0,0,0,0,0,0,0,-1,1679,1044,0,0
462,-20,0,0,0,0,0,0,0,0,0,-1,1686,1044,0,0
469,-20,0,0,0,0,0,0,0,0,0,-1,1693,1044,0,0
476,-20,0,0,0,0,0,0,0,0,0,-1,1700,1044,0,0
483,-20,0,0,0,0,0,0,0,0,0,-1,1707,1044,0,0
490,-20,0,0,0,0,0,0,0,0,0,-1,1714,1044,0,0
497,-20,0,0,0,0,0,0,0,0,0,-1,1721,1044,0,0
504,-20,0,0,0,0,0,0,0,0,0,-1,1728,1044,0,0
511,-20,0,0,0,0,0,0,0,0,0,-1,1735,1044,0,0
518,-20,0,0,0,0,0,0,0,0,0,-1,1742,1044,0,0
525,-20,0,0,0,0,0,0,0,0,0,-1,1749,1044,0,0
532,-20,0,0,0,0,0,0,0,0,0,-1,1756,1044,0,0
539,-20,0,0,0,0,0,0,0,0,0,-1,1763,1044,0,0
546,-20,0,0,0,0,0,0,0,0,0,-1,1770,1044,0,0
553,-20,0,0,0,0,0,0,0,0,0,-1,1777,1044,0,0
560,-20,0,0,0,0,0,0,0,0,0,-1,1784,1044,0,0
567,-20,0,0,0,0,0,0,0,0,0,-1,1791,1044,0,0
574,-20,0,0,0,0,0,0,0,0,0,-1,1798,1044,0,0
581,-20,0,0,0,0,0,0,0,0,0,-1,1805,1044,0,0
588,-20,0,0,0,0,0,0,0,0,0,-1,1812,1044,0,0
595,-20,0,0,0,0,0,0,0,0,0,-1,1819,1044,0,0
602,-20,0,0,0,0,0,0,0,0,0,-1,1826,1044,0,0
609,-20,0,0,0,0,0,0,0,0,0,-1,1833,1044,0,0
616,-20,0,0,0,0,0,0,0,0,0,-1,1840,1044,0,0
623,-20,0,0,0,0,0,0,0,0,0,-1,1847,1044,0,0
630,-20,0,0,0,0,0,0,0,0,0,-1,1854,1044,0,0
637,-20,0,0,0,0,0,0,0,0,0,-1,1861,1044,0,0
644,-20,0,0,0,0,0,0,0,0,0,-1,1868,1044,0,0
651,-20,61.2816,2.75903,0.00226736,-0.000849755,0.000195805,0.00227961,-0.000862007,0.0624888,0.00187435,0.0404602,1875,1044,61.2816,-2.75897
658,-20,61.1705,2.64136,0.00147995,-0.000523361,-0.000230221,0.00150606,-0.000549478,-0.112959,0.00122886,0.0414504,1882,1044,61.1705,-2.64142
665,-20,61.2598,2.63831,0.000969237,-0.000384734,-0.000305201,0.00103485,-0.00045035,-0.211769,0.000879339,0.0391495,1889,1044,61.2598,-2.63828
672,-20,61.3979,2.71277,0.000634475,-0.000144031,-4.84266e-06,0.000634505,-0.000144061,-0.00622013,0.000478311,0.0258817,1896,1044,61.398,-2.71276
679,-20,61.2878,2.68896,0.000430077,8.73414e-05,0.000464689,0.00075399,-0.000236571,0.608745,0.000597342,0.028366,1903,1044,61.2878,-2.68902
686,-20,61.2239,2.70813,-7.14128e-06,6.00552e-05,0.000994702,0.00102173,-0.000968813,0.80228,0.00114937,0.0380271,1910,1044,61.2239,-2.70813
693,-20,61.1327,2.7002,-0.000451067,-8.8264e-05,0.00151365,0.00125482,-0.00179415,0.845035,0.00176948,0.0423202,1917,1044,61.1327,-2.70015
700,-20,61.2411,2.72046,-0.000779355,-0.000125129,0.00197751,0.00155214,-0.00245662,0.867364,0.00233401,0.0397673,1924,1044,61.2411,-2.72048
707,-20,61.3212,2.67798,-0.00141721,1.31432e-05,0.00217589,0.00158838,-0.00299245,0.944177,0.00268583,0.0362886,1931,1044,61.3212,-2.67793
714,-20,61.3533,2.88892,-0.00233101,0.00067206,0.00232861,0.00194127,-0.00360022,1.07176,0.00324682,0.0345686,1938,1044,61.3533,-2.88891
721,-20,61.2164,2.9502,0,0,0,0,0,0,0,-1,1945,1044,61.2165,-2.95024
728,-20,61.522,6.9751,0,0,0,0,0,0,0,-1,1952,1044,61.5219,-6.97508
735,-20,61.2115,6.87756,-0.00564991,0.00395973,0.00228301,0.00447454,-0.00616472,1.34901,0.00616836,0.0331931,1959,1044,61.2115,-6.87758
742,-20,60.9701,6.69324,-0.00603924,0.00513573,0.00171884,0.00539414,-0.00629764,1.42158,0.00675697,0.0285009,1966,1044,60.9701,-6.69328
749,-20,61.073,6.58899,-0.00712228,0.00667778,0.00126613,0.00679299,-0.00723749,1.48006,0.00810185,0.0285931,1973,1044,61.073,-6.58901
756,-20,61.0713,6.49268,-0.00840516,0.00923618,0.000107398,0.00923684,-0.00840581,1.56471,0.0101898,0.0185045,1980,1044,61.0713,-6.49267
763,-20,60.9684,6.33081,-0.00956497,0.0120318,-0.00173487,0.0121703,-0.00970345,-1.49115,0.0126555,0.0291052,1987,1044,60.9684,-6.33085
770,-20,60.8643,6.25549,-0.0103367,0.0156343,-0.00446167,0.0163794,-0.0110818,-1.40532,0.0159528,0.0250537,1994,1044,60.8643,-6.25545
777,-20,60.7139,6.02332,-0.0111203,0.0200645,-0.00834773,0.0221585,-0.0132143,-1.32503,0.020639,0.0170042,2001,1044,60.714,-6.0233
784,-20,60.7195,5.87292,-0.0124744,0.0245748,-0.0130718,0.0287225,-0.0166221,-1.26354,0.0264886,0.0215472,2008,1044,60.7196,-5.87293
791,-20,60.8245,5.67175,-0.0151597,0.0292646,-0.0191324,0.0363684,-0.0222636,-1.21527,0.0341762,0.0371606,2015,1044,60.8244,-5.67178
798,-20,57.8091,2.83276,0,0,0,0,0,0,0,-1,2022,1044,57.809,-2.83276
805,-20,57.6858,2.94128,0,0,0,0,0,0,0,-1,2029,1044,57.6858,-2.94133
812,-20,57.3647,3.17615,0,0,0,0,0,0,0,-1,2036,1044,57.3647,-3.17619
-700,-27,-50.0692,-4.35803,0.0356334,0.134623,-0.0462499,0.152868,0.0173875,-1.19504,0.0966392,0.0471312,524,1051,-50.0692,4.35797
-693,-27,-49.9543,-1.96509,0.0418674,0.117279,-0.0313411,0.128603,0.0305427,-1.22406,0.0775852,0.0495443,531,1051,-49.9543,1.96509
-686,-27,-49.0333,-1.52454,0.0425608,0.100915,-0.0192218,0.106678,0.0367982,-1.27953,0.0625697,0.0463156,538,1051,-49.0333,1.5245
-679,-27,-48.24,-0.941284,0.0397048,0.085637,-0.0102417,0.0878171,0.0375246,-1.36106,0.0508796,0.0454372,545,1051,-48.24,0.941234
-672,-27,-47.2334,-0.329956,0.0351628,0.0717078,-0.00369763,0.0720782,0.0347924,-1.47096,0.0416226,0.0441965,552,1051,-47.2334,0.329915
-665,-27,-46.6655,2.00806,0.0298551,0.0591671,0.000786269,0.0591882,0.0298341,1.544,0.0341727,0.045215,559,1051,-46.6655,-2.00807
-658,-27,-46.7479,2.66943,0.0243256,0.0479656,0.00352528,0.0484801,0.0238111,1.42587,0.0279915,0.0467777,566,1051,-46.7479,-2.66942
-651,-27,-46.4498,2.8446,0.0189603,0.0380153,0.00478325,0.0391486,0.017827,1.33815,0.0226324,0.0393622,573,1051,-46.4498,-2.84459
-644,-27,-46.296,3.10938,0.014129,0.0298705,0.00495918,0.0313025,0.012697,1.28967,0.0181795,0.0197293,580,1051,-46.296,-3.10944
-637,-27,-46.3374,3.38074,0.00978329,0.0189715,0.00474803,0.0209841,0.00777061,1.16986,0.0122503,0.0162017,587,1051,-46.3374,-3.38077
-630,-27,-46.4691,3.77051,0.0056389,0.0123736,0.00403135,0.014259,0.00375356,1.13335,0.00853451,0.0213127,594,1051,-46.4691,-3.77056
-623,-27,-46.5179,4.01892,0.00250284,0.00851132,0.00215716,0.00920557,0.00180859,1.25943,0.00563183,0.0180943,601,1051,-46.518,-4.01889
-616,-27,-46.4693,4.21155,0.000741112,0.00536246,0.000299031,0.00538173,0.000721843,1.50645,0.00337305,0.014925,608,1051,-46.4693,-4.21157
-609,-27,-46.4581,4.42322,0.000328177,0.00261966,-0.00136774,0.00325814,-0.000310299,-1.13405,0.00228257,0.0140201,615,1051,-46.458,-4.42326
-602,-27,-46.4264,4.67151,0.000512928,0.00114222,-0.00216774,0.00301804,-0.00136289,-0.85747,0.0025888,0.014259,622,1051,-46.4264,-4.67153
-595,-27,-46.4471,4.85706,0.000562395,1.60095e-05,-0.00251445,0.00281845,-0.00224004,-0.731286,0.00292688,0.0199502,629,1051,-46.4471,-4.85704
-588,-27,-46.6702,4.95764,0,0,0,0,0,0,0,-1,636,1051,-46.6702,-4.95767
-581,-27,-46.3509,0.871216,0.000665665,-0.0006308,-0.00230325,0.00241016,-0.00237529,-0.648225,0.00276291,0.0243743,643,1051,-46.3509,-0.871208
-574,-27,-46.3217,0.883057,0.000617328,-0.000409359,-0.00210094,0.00226673,-0.00205876,-0.665576,0.00249828,0.0355988,650,1051,-46.3216,-0.883079
-567,-27,-46.3292,0.931763,9.41214e-05,0.000215538,-0.00186267,0.00201848,-0.00170882,-0.801688,0.00215444,0.0449239,657,1051,-46.3292,-0.931799
-560,-27,-46.3243,1.02698,-0.000857405,0.00116175,-0.00164651,0.00208356,-0.00177921,-1.06042,0.00223247,0.045709,664,1051,-46.3243,-1.02696
-553,-27,-46.1856,1.20557,-0.00233889,0.00218395,-0.00154482,0.00266123,-0.00281617,-1.27114,0.0031628,0.04407,671,1051,-46.1856,-1.20554
-546,-27,-46.1484,1.19507,-0.00448076,0.00287682,-0.0016251,0.00321978,-0.00482372,-1.36281,0.00467459,0.0461508,678,1051,-46.1484,-1.1951
-539,-27,-46.3376,1.21765,-0.00749329,0.00269729,-0.002322,0.00320144,-0.00799743,-1.357,0.00666038,0.0450515,685,1051,-46.3376,-1.21766
-532,-27,-46.5242,1.30188,-0.010736,0.00256321,-0.00254453,0.00303343,-0.0112062,-1.38806,0.00866085,0.0420396,692,1051,-46.5242,-1.30192
-525,-27,0,0,0,0,0,0,0,0,0,-1,699,1051,0,0
-518,-27,0,0,0,0,0,0,0,0,0,-1,706,1051,0,0
-511,-27,0,0,0,0,0,0,0,0,0,-1,713,1051,0,0
-504,-27,0,0,0,0,0,0,0,0,0,-1,720,1051,0,0
-497,-27,0,0,0,0,0,0,0,0,0,-1,727,1051,0,0
-490,-27,0,0,0,0,0,0,0,0,0,-1,734,1051,0,0
-483,-27,0,0,0,0,0,0,0,0,0,-1,741,1051,0,0
-476,-27,0,0,0,0,0,0,0,0,0,-1,748,1051,0,0
-469,-27,0,0,0,0,0,0,0,0,0,-1,755,1051,0,0
-462,-27,0,0,0,0,0,0,0,0,0,-1,762,1051,0,0
-455,-27,0,0,0,0,0,0,0,0,0,-1,769,1051,0,0
-448,-27,0,0,0,0,0,0,0,0,0,-1,776,1051,0,0
-441,-27,0,0,0,0,0,0,0,0,0,-1,783,1051,0,0
-434,-27,0,0,0,0,0,0,0,0,0,-1,790,1051,0,0
-427,-27,0,0,0,0,0,0,0,0,0,-1,797,1051,0,0
-420,-27,0,0,0,0,0,0,0,0,0,-1,804,1051,0,0
-413,-27,0,0,0,0,0,0,0,0,0,-1,811,1051,0,0
-406,-27,0,0,0,0,0,0,0,0,0,-1,818,1051,0,0
-399,-27,0,0,0,0,0,0,0,0,0,-1,825,1051,0,0
-392,-27,0,0,0,0,0,0,0,0,0,-1,832,1051,0,0
-385,-27,0,0,0,0,0,0,0,0,0,-1,839,1051,0,0
-378,-27,0,0,0,0,0,0,0,0,0,-1,846,1051,0,0
-371,-27,0,0,0,0,0,0,0,0,0,-1,853,1051,0,0
-364,-27,0,0,0,0,0,0,0,0,0,-1,860,1051,0,0
-357,-27,0,0,0,0,0,0,0,0,0,-1,867,1051,0,0
-350,-27,0,0,0,0,0,0,0,0,0,-1,874,1051,0,0
-343,-27,0,0,0,0,0,0,0,0,0,-1,881,1051,0,0
-336,-27,0,0,0,0,0,0,0,0,0,-1,888,1051,0,0
-329,-27,0,0,0,0,0,0,0,0,0,-1,895,1051,0,0
-322,-27,0,0,0,0,0,0,0,0,0,-1,902,1051,0,0
-315,-27,0,0,0,0,0,0,0,0,0,-1,909,1051,0,0
-308,-27,0,0,0,0,0,0,0,0,0,-1,916,1051,0,0
-301,-27,0,0,0,0,0,0,0,0,0,-1,923,1051,0,0
-294,-27,0,0,0,0,0,0,0,0,0,-1,930,1051,0,0
-287,-27,0,0,0,0,0,0,0,0,0,-1,937,1051,0,0
-280,-27,0,0,0,0,0,0,0,0,0,-1,944,1051,0,0
-273,-27,0,0,0,0,0,0,0,0,0,-1,951,1051,0,0
-266,-27,0,0,0,0,0,0,0,0,0,-1,958,1051,0,0
-259,-27,0,0,0,0,0,0,0,0,0,-1,965,1051,0,0
-252,-27,0,0,0,0,0,0,0,0,0,-1,972,1051,0,0
-245,-27,0,0,0,0,0,0,0,0,0,-1,979,1051,0,0
-238,-27,0,0,0,0,0,0,0,0,0,-1,986,1051,0,0
-231,-27,0,0,0,0,0,0,0,0,0,-1,993,1051,0,0
-224,-27,0,0,0,0,0,0,0,0,0,-1,1000,1051,0,0
-217,-27,0,0,0,0,0,0,0,0,0,-1,1007,1051,0,0
-210,-27,0,0,0,0,0,0,0,0,0,-1,1014,1051,0,0
-203,-27,0,0,0,0,0,0,0,0,0,-1,1021,1051,0,0
-196,-27,0,0,0,0,0,0,0,0,0,-1,1028,1051,0,0
-189,-27,0,0,0,0,0,0,0,0,0,-1,1035,1051,0,0
-182,-27,0,0,0,0,0,0,0,0,0,-1,1042,1051,0,0
-175,-27,0,0,0,0,0,0,0,0,0,-1,1049,1051,0,0
-168,-27,0,0,0,0,0,0,0,0,0,-1,1056,1051,0,0
-161,-27,0,0,0,0,0,0,0,0,0,-1,1063,1051,0,0
-154,-27,0,0,0,0,0,0,0,0,0,-1,1070,1051,0,0
-147,-27,0,0,0,0,0,0,0,0,0,-1,1077,1051,0,0
-140,-27,0,0,0,0,0,0,0,0,0,-1,1084,1051,0,0
-133,-27,0,0,0,0,0,0,0,0,0,-1,1091,1051,0,0
-126,-27,0,0,0,0,0,0,0,0,0,-1,1098,1051,0,0
-119,-27,0,0,0,0,0,0,0,0,0,-1,1105,1051,0,0
-112,-27,0,0,0,0,0,0,0,0,0,-1,1112,1051,0,0
-105,-27,0,0,0,0,0,0,0,0,0,-1,1119,1051,0,0
-98,-27,0,0,0,0,0,0,0,0,0,-1,1126,1051,0,0
-91,-27,0,0,0,0,0,0,0,0,0,-1,1133,1051,0,0
-84,-27,0,0,0,0,0,0,0,0,0,-1,1140,1051,0,0
-77,-27,0,0,0,0,0,0,0,0,0,-1,1147,1051,0,0
-70,-27,0,0,0,0,0,0,0,0,0,-1,1154,1051,0,0
-63,-27,0,0,0,0,0,0,0,0,0,-1,1161,1051,0,0
-56,-27,0,0,0,0,0,0,0,0,0,-1,1168,1051,0,0
-49,-27,0,0,0,0,0,0,0,0,0,-1,1175,1051,0,0
-42,-27,0,0,0,0,0,0,0,0,0,-1,1182,1051,0,0
-35,-27,0,0,0,0,0,0,0,0,0,-1,1189,1051,0,0
-28,-27,0,0,0,0,0,0,0,0,0,-1,1196,1051,0,0
-21,-27,0,0,0,0,0,0,0,0,0,-1,1203,1051,0,0
-14,-27,0,0,0,0,0,0,0,0,0,-1,1210,1051,0,0
-7,-27,0,0,0,0,0,0,0,0,0,-1,1217,1051,0,0
0,-27,0,0,0,0,0,0,0,0,0,-1,1224,1051,0,0
7,-27,0,0,0,0,0,0,0,0,0,-1,1231,1051,0,0
14,-27,0,0,0,0,0,0,0,0,0,-1,1238,1051,0,0
21,-27,0,0,0,0,0,0,0,0,0,-1,1245,1051,0,0
28,-27,0,0,0,0,0,0,0,0,0,-1,1252,1051,0,0
35,-27,0,0,0,0,0,0,0,0,0,-1,1259,1051,0,0
42,-27,0,0,0,0,0,0,0,0,0,-1,1266,1051,0,0
49,-27,0,0,0,0,0,0,0,0,0,-1,1273,1051,0,0
56,-27,0,0,0,0,0,0,0,0,0,-1,1280,1051,0,0
63,-27,0,0,0,0,0,0,0,0,0,-1,1287,1051,0,0
70,-27,0,0,0,0,0,0,0,0,0,-1,1294,1051,0,0
77,-27,0,0,0,0,0,0,0,0,0,-1,1301,1051,0,0
84,-27,0,0,0,0,0,0,0,0,0,-1,1308,1051,0,0
91,-27,0,0,0,0,0,0,0,0,0,-1,1315,1051,0,0
98,-27,0,0,0,0,0,0,0,0,0,-1,1322,1051,0,0
105,-27,0,0,0,0,0,0,0,0,0,-1,1329,1051,0,0
112,-27,0,0,0,0,0,0,0,0,0,-1,1336,1051,0,0
119,-27,0,0,0,0,0,0,0,0,0,-1,1343,1051,0,0
126,-27,0,0,0,0,0,0,0,0,0,-1,1350,1051,0,0
133,-27,0,0,0,0,0,0,0,0,0,-1,1357,1051,0,0
140,-27,0,0,0,0,0,0,0,0,0,-1,1364,1051,0,0
147,-27,0,0,0,0,0,0,0,0,0,-1,1371,1051,0,0
154,-27,0,0,0,0,0,0,0,0,0,-1,1378,1051,0,0
161,-27,0,0,0,0,0,0,0,0,0,-1,1385,1051,0,0
168,-27,0,0,0,0,0,0,0,0,0,-1,1392,1051,0,0
175,-27,0,0,0,0,0,0,0,0,0,-1,1399,1051,0,0
182,-27,0,0,0,0,0,0,0,0,0,-1,1406,1051,0,0
189,-27,0,0,0,0,0,0,0,0,0,-1,1413,1051,0,0
196,-27,0,0,0,0,0,0,0,0,0,-1,1420,1051,0,0
203,-27,0,0,0,0,0,0,0,0,0,-1,1427,1051,0,0
210,-27,0,0,0,0,0,0,0,0,0,-1,1434,1051,0,0
217,-27,0,0,0,0,0,0,0,0,0,-1,1441,1051,0,0
224,-27,0,0,0,0,0,0,0,0,0,-1,1448,1051,0,0
231,-27,0,0,0,0,0,0,0,0,0,-1,1455,1051,0,0
238,-27,0,0,0,0,0,0,0,0,0,-1,1462,1051,0,0
245,-27,0,0,0,0,0,0,0,0,0,-1,1469,1051,0,0
252,-27,0,0,0,0,0,0,0,0,0,-1,1476,1051,0,0
259,-27,0,0,0,0,0,0,0,0,0,-1,1483,1051,0,0
266,-27,0,0,0,0,0,0,0,0,0,-1,1490,1051,0,0
273,-27,0,0,0,0,0,0,0,0,0,-1,1497,1051,0,0
280,-27,0,0,0,0,0,0,0,0,0,-1,1504,1051,0,0
287,-27,0,0,0,0,0,0,0,0,0,-1,1511,1051,0,0
294,-27,0,0,0,0,0,0,0,0,0,-1,1518,1051,0,0
301,-27,0,0,0,0,0,0,0,0,0,-1,1525,1051,0,0
308,-27,0,0,0,0,0,0,0,0,0,-1,1532,1051,0,0
315,-27,0,0,0,0,0,0,0,0,0,-1,1539,1051,0,0
322,-27,0,0,0,0,0,0,0,0,0,-1,1546,1051,0,0
329,-27,0,0,0,0,0,0,0,0,0,-1,1553,1051,0,0
336,-27,0,0,0,0,0,0,0,0,0,-1,1560,1051,0,0
343,-27,0,0,0,0,0,0,0,0,0,-1,1567,1051,0,0
350,-27,0,0,0,0,0,0,0,0,0,-1,1574,1051,0,0
357,-27,0,0,0,0,0,0,0,0,0,-1,1581,1051,0,0
364,-27,0,0,0,0,0,0,0,0,0,-1,1588,1051,0,0
371,-27,0,0,0,0,0,0,0,0,0,-1,1595,1051,0,0
378,-27,0,0,0,0,0,0,0,0,0,-1,1602,1051,0,0
385,-27,0,0,0,0,0,0,0,0,0,-1,1609,1051,0,0
392,-27,0,0,0,0,0,0,0,0,0,-1,1616,1051,0,0
399,-27,0,0,0,0,0,0,0,0,0,-1,1623,1051,0,0
406,-27,0,0,0,0,0,0,0,0,0,-1,1630,1051,0,0
413,-27,0,0,0,0,0,0,0,0,0,-1,1637,1051,0,0
420,-27,0,0,0,0,0,0,0,0,0,-1,1644,1051,0,0
427,-27,0,0,0,0,0,0,0,0,0,-1,1651,1051,0,0
434,-27,0,0,0,0,0,0,0,0,0,-1,1658,1051,0,0
441,-27,0,0,0,0,0,0,0,0,0,-1,1665,1051,0,0
448,-27,0,0,0,0,0,0,0,0,0,-1,1672,1051,0,0
455,-27,0,0,0,0,0,0,0,0,0,-1,1679,1051,0,0
462,-27,0,0,0,0,0,0,0,0,0,-1,1686,1051,0,0
469,-27,0,0,0,0,0,0,0,0,0,-1,1693,1051,0,0
476,-27,0,0,0,0,0,0,0,0,0,-1,1700,1051,0,0
483,-27,0,0,0,0,0,0,0,0,0,-1,1707,1051,0,0
490,-27,0,0,0,0,0,0,0,0,0,-1,1714,1051,0,0
497,-27,0,0,0,0,0,0,0,0,0,-1,1721,1051,0,0
504,-27,0,0,0,0,0,0,0,0,0,-1,1728,1051,0,0
511,-27,0,0,0,0,0,0,0,0,0,-1,1735,1051,0,0
518,-27,0,0,0,0,0,0,0,0,0,-1,1742,1051,0,0
525,-27,0,0,0,0,0,0,0,0,0,-1,1749,1051,0,0
532,-27,0,0,0,0,0,0,0,0,0,-1,1756,1051,0,0
539,-27,0,0,0,0,0,0,0,0,0,-1,1763,1051,0,0
546,-27,0,0,0,0,0,0,0,0,0,-1,1770,1051,0,0
553,-27,0,0,0,0,0,0,0,0,0,-1,1777,1051,0,0
560,-27,0,0,0,0,0,0,0,0,0,-1,1784,1051,0,0
567,-27,0,0,0,0,0,0,0,0,0,-1,1791,1051,0,0
574,-27,0,0,0,0,0,0,0,0,0,-1,1798,1051,0,0
581,-27,0,0,0,0,0,0,0,0,0,-1,1805,1051,0,0
588,-27,0,0,0,0,0,0,0,0,0,-1,1812,1051,0,0
595,-27,0,0,0,0,0,0,0,0,0,-1,1819,1051,0,0
602,-27,0,0,0,0,0,0,0,0,0,-1,1826,1051,0,0
609,-27,0,0,0,0,0,0,0,0,0,-1,1833,1051,0,0
616,-27,0,0,0,0,0,0,0,0,0,-1,1840,1051,0,0
623,-27,0,0,0,0,0,0,0,0,0,-1,1847,1051,0,0
630,-27,0,0,0,0,0,0,0,0,0,-1,1854,1051,0,0
637,-27,0,0,0,0,0,0,0,0,0,-1,1861,1051,0,0
644,-27,0,0,0,0,0,0,0,0,0,-1,1868,1051,0,0
651,-27,61.3584,2.83643,0.00225999,0.000539627,0.000169361,0.00227651,0.000523113,0.0972017,0.00137683,0.0411843,1875,1051,61.3584,-2.83646
658,-27,61.301,2.96619,0.00140251,0.000639116,-8.11492e-05,0.00141105,0.000630585,-0.104741,0.000816198,0.0402214,1882,1051,61.3011,-2.96622
665,-27,61.3575,2.89648,0.000869318,0.000590723,-0.000124715,0.00091699,0.000543051,-0.36511,0.000532417,0.0377147,1889,1051,61.3576,-2.89652
672,-27,61.3794,2.77307,0.000549024,0.000612067,0.000104107,0.00068932,0.000471771,0.9324,0.000406901,0.0301463,1896,1051,61.3794,-2.77313
679,-27,61.3177,2.66394,0.000370632,0.000631603,0.000445175,0.000965021,3.72136e-05,0.92796,0.000631309,0.0284201,1903,1051,61.3178,-2.66389
686,-27,61.1981,2.5863,-2.76507e-05,0.000416118,0.000863965,0.00108624,-0.000697768,0.911092,0.0010381,0.0396558,1910,1051,61.1982,-2.58635
693,-27,61.0955,2.59851,-0.000435851,0.000119388,0.00129631,0.00116747,-0.00148393,0.890886,0.00153442,0.044456,1917,1051,61.0955,-2.59856
700,-27,61.1934,2.7052,-0.000737752,-3.7128e-05,0.00173178,0.00137942,-0.0021543,0.885194,0.00205648,0.0395974,1924,1051,61.1934,-2.7052
707,-27,61.2594,2.69031,-0.00132603,1.47072e-05,0.00195456,0.00141066,-0.00272199,0.950601,0.00242569,0.0277544,1931,1051,61.2594,-2.69033
714,-27,61.3096,2.75317,-0.00218043,0.000547684,0.00217752,0.00175311,-0.00338585,1.06521,0.00301648,0.0268658,1938,1051,61.3096,-2.75318
721,-27,61.2518,2.90955,0,0,0,0,0,0,0,-1,1945,1051,61.2518,-2.90952
728,-27,61.5427,7.03882,0,0,0,0,0,0,0,-1,1952,1051,61.5428,-7.03886
735,-27,61.0642,6.97937,-0.00524115,0.00345892,0.00225585,0.00400906,-0.00579129,1.33159,0.00568933,0.0331938,1959,1051,61.0643,-6.97933
742,-27,60.8477,6.85266,-0.00547662,0.00449769,0.00174381,0.00479377,-0.0057727,1.40261,0.00610928,0.0199974,1966,1051,60.8477,-6.85262
749,-27,60.876,6.62695,-0.00636973,0.00591268,0.00135368,0.00606011,-0.00651716,1.46232,0.00726308,0.0158347,1973,1051,60.876,-6.6269
756,-27,60.8481,6.42749,-0.00743971,0.00832549,0.000209248,0.00832826,-0.00744248,1.55753,0.00911003,0.0153954,1980,1051,60.8482,-6.42745
763,-27,60.787,6.21497,-0.00833349,0.0109298,-0.00166978,0.0110735,-0.00847716,-1.48497,0.0113207,0.0159868,1987,1051,60.787,-6.21499
770,-27,60.6912,6.00647,-0.00872158,0.0142984,-0.00451095,0.0151508,-0.00957398,-1.38404,0.0143954,0.0173817,1994,1051,60.6911,-6.00648
777,-27,60.5806,5.93372,-0.00894956,0.0184131,-0.00861605,0.0209001,-0.0114366,-1.28979,0.0189342,0.0212593,2001,1051,60.5806,-5.93375
784,-27,60.5466,5.88171,-0.00966194,0.0226447,-0.0135489,0.0275746,-0.0145919,-1.22183,0.0247265,0.0305851,2008,1051,60.5467,-5.88174
791,-27,60.356,4.2677,0,0,0,0,0,0,0,-1,2015,1051,60.3559,-4.26776
798,-27,60.4233,2.74573,0,0,0,0,0,0,0,-1,2022,1051,60.4234,-2.74567
805,-27,58.594,3.29639,-0.0191109,0.0371731,-0.0362209,0.0548997,-0.0368375,-1.11566,0.0533056,0.0466735,2029,1051,58.5941,-3.29644
812,-27,58.4097,3.37024,-0.0267679,0.0430565,-0.0467169,0.0664652,-0.0501766,-1.10629,0.0675617,0.0425293,2036,1051,58.4096,-3.3702
-700,-34,-46.942,-2.9552,0.0484227,0.120294,-0.0415509,0.139293,0.0294234,-1.14193,0.084774,0.0483356,524,1058,-46.942,2.95522
-693,-34,-47.7248,-1.57544,0.0521068,0.106429,-0.0266063,0.117289,0.0412467,-1.18326,0.0687032,0.0469475,531,1058,-47.7248,1.57541
-686,-34,-47.5527,-0.950684,0.0507563,0.0927433,-0.0146121,0.0973279,0.0461717,-1.26677,0.0562169,0.0456239,538,1058,-47.5527,0.950648
-679,-34,-47.181,-0.619873,0,0,0,0,0,0,0,-1,545,1058,-47.181,0.619879
-672,-34,-46.7782,-0.295532,0.0400119,0.0670107,1.2415e-05,0.0670107,0.0400119,1.57034,0.038931,0.0428014,552,1058,-46.7782,0.295554
-665,-34,-46.4039,1.12244,0.0333913,0.0556106,0.00386657,0.0562642,0.0327377,1.40333,0.0326289,0.0439048,559,1058,-46.4039,-1.12248
-658,-34,-46.4161,2.30237,0.02684,0.0452897,0.00592911,0.0470308,0.0250989,1.28517,0.0271738,0.0471622,566,1058,-46.4161,-2.30234
-651,-34,-46.0239,2.70203,0.020739,0.0360231,0.00654041,0.0384397,0.0183224,1.21686,0.0222013,0.0341534,573,1058,-46.0239,-2.70205
-644,-34,-46.0916,3.00464,0.0155382,0.0283957,0.00614468,0.03086,0.0130739,1.18939,0.0178861,0.0159707,580,1058,-46.0916,-3.00468
-637,-34,-46.1064,3.27734,0.0107397,0.0183106,0.0052558,0.0210022,0.008048,1.09749,0.0122354,0.017404,587,1058,-46.1065,-3.2774
-630,-34,-46.1641,3.6593,0.00631858,0.0119527,0.00403251,0.0140546,0.00421659,1.09028,0.008328,0.0193054,594,1058,-46.164,-3.65936
-623,-34,-46.1588,3.95703,0.00323158,0.0080397,0.00200671,0.00876716,0.00250413,1.22302,0.00521449,0.014632,601,1058,-46.1587,-3.95709
-616,-34,-46.101,4.26257,0.00156485,0.00495004,0.000129813,0.00495501,0.00155988,1.53252,0.00292545,0.0205129,608,1058,-46.101,-4.26253
-609,-34,-46.1025,4.51489,0.00117993,0.00238089,-0.00157328,0.00346439,9.64307e-05,-0.967702,0.00227813,0.0201995,615,1058,-46.1025,-4.51495
-602,-34,-46.1288,4.7384,0.00123778,0.00102423,-0.00239868,0.00353206,-0.00127006,-0.763156,0.0028732,0.0164991,622,1058,-46.1289,-4.7384
-595,-34,-46.2349,4.95544,0.00112505,4.80564e-05,-0.0027277,0.0033669,-0.0021938,-0.687942,0.0032342,0.0188082,629,1058,-46.2349,-4.95541
-588,-34,-46.5258,5.11963,0,0,0,0,0,0,0,-1,636,1058,-46.5258,-5.11958
-581,-34,-46.3253,0.947632,0.00106063,-0.0003577,-0.00244153,0.00289391,-0.00219098,-0.644058,0.00294509,0.0261416,643,1058,-46.3252,-0.947626
-574,-34,-46.2628,0.983032,0.000944624,-2.59211e-05,-0.00217726,0.00269004,-0.00177133,-0.675749,0.00259391,0.0352433,650,1058,-46.2628,-0.983033
-567,-34,-46.2822,1.02747,0.000364259,0.000683099,-0.00187257,0.00240302,-0.00135566,-0.827863,0.00219798,0.0420482,657,1058,-46.2822,-1.02751
-560,-34,-46.3985,1.01416,-0.000665992,0.0016828,-0.00158739,0.002483,-0.00146619,-1.10388,0.00230512,0.0415805,664,1058,-46.3985,-1.01418
-553,-34,-46.3543,0.899292,-0.00219707,0.00272975,-0.00141249,0.00310597,-0.00257329,-1.31049,0.00328373,0.0432033,671,1058,-46.3543,-0.899302
-546,-34,-46.0783,0.953247,-0.00432418,0.00341453,-0.00144575,0.0036758,-0.00458545,-1.39201,0.00477927,0.0466969,678,1058,-46.0783,-0.953307
-539,-34,-46.2465,0.857666,-0.00724538,0.00313032,-0.00223335,0.00359062,-0.00770568,-1.36754,0.00666461,0.0424507,685,1058,-46.2465,-0.857712
-532,-34,-46.3657,0.941895,-0.0103421,0.00290475,-0.00256368,0.00338359,-0.010821,-1.38614,0.00856753,0.0392455,692,1058,-46.3657,-0.941925
-525,-34,0,0,0,0,0,0,0,0,0,-1,699,1058,0,0
-518,-34,0,0,0,0,0,0,0,0,0,-1,706,1058,0,0
-511,-34,0,0,0,0,0,0,0,0,0,-1,713,1058,0,0
-504,-34,0,0,0,0,0,0,0,0,0,-1,720,1058,0,0
-497,-34,0,0,0,0,0,0,0,0,0,-1,727,1058,0,0
-490,-34,0,0,0,0,0,0,0,0,0,-1,734,1058,0,0
-483,-34,0,0,0,0,0,0,0,0,0,-1,741,1058,0,0
-476,-34,0,0,0,0,0,0,0,0,0,-1,748,1058,0,0
-469,-34,0,0,0,0,0,0,0,0,0,-1,755,1058,0,0
-462,-34,0,0,0,0,0,0,0,0,0,-1,762,1058,0,0
-455,-34,0,0,0,0,0,0,0,0,0,-1,769,1058,0,0
-448,-34,0,0,0,0,0,0,0,0,0,-1,776,1058,0,0
-441,-34,0,0,0,0,0,0,0,0,0,-1,783,1058,0,0
-434,-34,0,0,0,0,0,0,0,0,0,-1,790,1058,0,0
-427,-34,0,0,0,0,0,0,0,0,0,-1,797,1058,0,0
-420,-34,0,0,0,0,0,0,0,0,0,-1,804,1058,0,0
-413,-34,0,0,0,0,0,0,0,0,0,-1,811,1058,0,0
-406,-34,0,0,0,0,0,0,0,0,0,-1,818,1058,0,0
-399,-34,0,0,0,0,0,0,0,0,0,-1,825,1058,0,0
-392,-34,0,0,0,0,0,0,0,0,0,-1,832,1058,0,0
-385,-34,0,0,0,0,0,0,0,0,0,-1,839,1058,0,0
-378,-34,0,0,0,0,0,0,0,0,0,-1,846,1058,0,0
-371,-34,0,0,0,0,0,0,0,0,0,-1,853,1058,0,0
-364,-34,0,0,0,0,0,0,0,0,0,-1,860,1058,0,0
-357,-34,0,0,0,0,0,0,0,0,0,-1,867,1058,0,0
-350,-34,0,0,0,0,0,0,0,0,0,-1,874,1058,0,0
-343,-34,0,0,0,0,0,0,0,0,0,-1,881,1058,0,0
-336,-34,0,0,0,0,0,0,0,0,0,-1,888,1058,0,0
-329,-34,0,0,0,0,0,0,0,0,0,-1,895,1058,0,0
-322,-34,0,0,0,0,0,0,0,0,0,-1,902,1058,0,0
-315,-34,0,0,0,0,0,0,0,0,0,-1,909,1058,0,0
-308,-34,0,0,0,0,0,0,0,0,0,-1,916,1058,0,0
-301,-34,0,0,0,0,0,0,0,0,0,-1,923,1058,0,0
-294,-34,0,0,0,0,0,0,0,0,0,-1,930,1058,0,0
-287,-34,0,0,0,0,0,0,0,0,0,-1,937,1058,0,0
-280,-34,0,0,0,0,0,0,0,0,0,-1,944,1058,0,0
-273,-34,0,0,0,0,0,0,0,0,0,-1,951,1058,0,0
-266,-34,0,0,0,0,0,0,0,0,0,-1,958,1058,0,0
-259,-34,0,0,0,0,0,0,0,0,0,-1,965,1058,0,0
-252,-34,0,0,0,0,0,0,0,0,0,-1,972,1058,0,0
-245,-34,0,0,0,0,0,0,0,0,0,-1,979,1058,0,0
-238,-34,0,0,0,0,0,0,0,0,0,-1,986,1058,0,0
-231,-34,0,0,0,0,0,0,0,0,0,-1,993,1058,0,0
-224,-34,0,0,0,0,0,0,0,0,0,-1,1000,1058,0,0
-217,-34,0,0,0,0,0,0,0,0,0,-1,1007,1058,0,0
-210,-34,0,0,0,0,0,0,0,0,0,-1,1014,1058,0,0
-203,-34,0,0,0,0,0,0,0,0,0,-1,1021,1058,0,0
-196,-34,0,0,0,0,0,0,0,0,0,-1,1028,1058,0,0
-189,-34,0,0,0,0,0,0,0,0,0,-1,1035,1058,0,0
-182,-34,0,0,0,0,0,0,0,0,0,-1,1042,1058,0,0
-175,-34,0,0,0,0,0,0,0,0,0,-1,1049,1058,0,0
-168,-34,0,0,0,0,0,0,0,0,0,-1,1056,1058,0,0
-161,-34,0,0,0,0,0,0,0,0,0,-1,1063,1058,0,0
-154,-34,0,0,0,0,0,0,0,0,0,-1,1070,1058,0,0
-147,-34,0,0,0,0,0,0,0,0,0,-1,1077,1058,0,0
-140,-34,0,0,0,0,0,0,0,0,0,-1,1084,1058,0,0
-133,-34,0,0,0,0,0,0,0,0,0,-1,1091,1058,0,0
-126,-34,0,0,0,0,0,0,0,0,0,-1,1098,1058,0,0
-119,-34,0,0,0,0,0,0,0,0,0,-1,1105,1058,0,0
-112,-34,0,0,0,0,0,0,0,0,0,-1,1112,1058,0,0
-105,-34,0,0,0,0,0,0,0,0,0,-1,1119,1058,0,0
-98,-34,0,0,0,0,0,0,0,0,0,-1,1126,1058,0,0
-91,-34,0,0,0,0,0,0,0,0,0,-1,1133,1058,0,0
-84,-34,0,0,0,0,0,0,0,0,0,-1,1140,1058,0,0
-77,-34,0,0,0,0,0,0,0,0,0,-1,1147,1058,0,0
-70,-34,0,0,0,0,0,0,0,0,0,-1,1154,1058,0,0
-63,-34,0,0,0,0,0,0,0,0,0,-1,1161,1058,0,0
-56,-34,0,0,0,0,0,0,0,0,0,-1,1168,1058,0,0
-49,-34,0,0,0,0,0,0,0,0,0,-1,1175,1058,0,0
-42,-34,0,0,0,0,0,0,0,0,0,-1,1182,1058,0,0
-35,-34,0,0,0,0,0,0,0,0,0,-1,1189,1058,0,0
-28,-34,0,0,0,0,0,0,0,0,0,-1,1196,1058,0,0
-21,-34,0,0,0,0,0,0,0,0,0,-1,1203,1058,0,0
-14,-34,0,0,0,0,0,0,0,0,0,-1,1210,1058,0,0
-7,-34,0,0,0,0,0,0,0,0,0,-1,1217,1058,0,0
0,-34,0,0,0,0,0,0,0,0,0,-1,1224,1058,0,0
7,-34,0,0,0,0,0,0,0,0,0,-1,1231,1058,0,0
14,-34,0,0,0,0,0,0,0,0,0,-1,1238,1058,0,0
21,-34,0,0,0,0,0,0,0,0,0,-1,1245,1058,0,0
28,-34,0,0,0,0,0,0,0,0,0,-1,1252,1058,0,0
35,-34,0,0,0,0,0,0,0,0,0,-1,1259,1058,0,0
42,-34,0,0,0,0,0,0,0,0,0,-1,1266,1058,0,0
49,-34,0,0,0,0,0,0,0,0,0,-1,1273,1058,0,0
56,-34,0,0,0,0,0,0,0,0,0,-1,1280,1058,0,0
63,-34,0,0,0,0,0,0,0,0,0,-1,1287,1058,0,0
70,-34,0,0,0,0,0,0,0,0,0,-1,1294,1058,0,0
77,-34,0,0,0,0,0,0,0,0,0,-1,1301,1058,0,0
84,-34,0,0,0,0,0,0,0,0,0,-1,1308,1058,0,0
91,-34,0,0,0,0,0,0,0,0,0,-1,1315,1058,0,0
98,-34,0,0,0,0,0,0,0,0,0,-1,1322,1058,0,0
105,-34,0,0,0,0,0,0,0,0,0,-1,1329,1058,0,0
112,-34,0,0,0,0,0,0,0,0,0,-1,1336,1058,0,0
119,-34,0,0,0,0,0,0,0,0,0,-1,1343,1058,0,0
126,-34,0,0,0,0,0,0,0,0,0,-1,1350,1058,0,0
133,-34,0,0,0,0,0,0,0,0,0,-1,1357,1058,0,0
140,-34,0,0,0,0,0,0,0,0,0,-1,1364,1058,0,0
147,-34,0,0,0,0,0,0,0,0,0,-1,1371,1058,0,0
154,-34,0,0,0,0,0,0,0,0,0,-1,1378,1058,0,0
161,-34,0,0,0,0,0,0,0,0,0,-1,1385,1058,0,0
168,-34,0,0,0,0,0,0,0,0,0,-1,1392,1058,0,0
175,-34,0,0,0,0,0,0,0,0,0,-1,1399,1058,0,0
182,-34,0,0,0,0,0,0,0,0,0,-1,1406,1058,0,0
189,-34,0,0,0,0,0,0,0,0,0,-1,1413,1058,0,0
196,-34,0,0,0,0,0,0,0,0,0,-1,1420,1058,0,0
203,-34,0,0,0,0,0,0,0,0,0,-1,1427,1058,0,0
210,-34,0,0,0,0,0,0,0,0,0,-1,1434,1058,0,0
217,-34,0,0,0,0,0,0,0,0,0,-1,1441,1058,0,0
224,-34,0,0,0,0,0,0,0,0,0,-1,1448,1058,0,0
231,-34,0,0,0,0,0,0,0,0,0,-1,1455,1058,0,0
238,-34,0,0,0,0,0,0,0,0,0,-1,1462,1058,0,0
245,-34,0,0,0,0,0,0,0,0,0,-1,1469,1058,0,0
252,-34,0,0,0,0,0,0,0,0,0,-1,1476,1058,0,0
259,-34,0,0,0,0,0,0,0,0,0,-1,1483,1058,0,0
266,-34,0,0,0,0,0,0,0,0,0,-1,1490,1058,0,0
273,-34,0,0,0,0,0,0,0,0,0,-1,1497,1058,0,0
280,-34,0,0,0,0,0,0,0,0,0,-1,1504,1058,0,0
287,-34,0,0,0,0,0,0,0,0,0,-1,1511,1058,0,0
294,-34,0,0,0,0,0,0,0,0,0,-1,1518,1058,0,0
301,-34,0,0,0,0,0,0,0,0,0,-1,1525,1058,0,0
308,-34,0,0,0,0,0,0,0,0,0,-1,1532,1058,0,0
315,-34,0,0,0,0,0,0,0,0,0,-1,1539,1058,0,0
322,-34,0,0,0,0,0,0,0,0,0,-1,1546,1058,0,0
329,-34,0,0,0,0,0,0,0,0,0,-1,1553,1058,0,0
336,-34,0,0,0,0,0,0,0,0,0,-1,1560,1058,0,0
343,-34,0,0,0,0,0,0,0,0,0,-1,1567,1058,0,0
350,-34,0,0,0,0,0,0,0,0,0,-1,1574,1058,0,0
357,-34,0,0,0,0,0,0,0,0,0,-1,1581,1058,0,0
364,-34,0,0,0,0,0,0,0,0,0,-1,1588,1058,0,0
371,-34,0,0,0,0,0,0,0,0,0,-1,1595,1058,0,0
378,-34,0,0,0,0,0,0,0,0,0,-1,1602,1058,0,0
385,-34,0,0,0,0,0,0,0,0,0,-1,1609,1058,0,0
392,-34,0,0,0,0,0,0,0,0,0,-1,1616,1058,0,0
399,-34,0,0,0,0,0,0,0,0,0,-1,1623,1058,0,0
406,-34,0,0,0,0,0,0,0,0,0,-1,1630,1058,0,0
413,-34,0,0,0,0,0,0,0,0,0,-1,1637,1058,0,0
420,-34,0,0,0,0,0,0,0,0,0,-1,1644,1058,0,0
427,-34,0,0,0,0,0,0,0,0,0,-1,1651,1058,0,0
434,-34,0,0,0,0,0,0,0,0,0,-1,1658,1058,0,0
441,-34,0,0,0,0,0,0,0,0,0,-1,1665,1058,0,0
448,-34,0,0,0,0,0,0,0,0,0,-1,1672,1058,0,0
455,-34,0,0,0,0,0,0,0,0,0,-1,1679,1058,0,0
462,-34,0,0,0,0,0,0,0,0,0,-1,1686,1058,0,0
469,-34,0,0,0,0,0,0,0,0,0,-1,1693,1058,0,0
476,-34,0,0,0,0,0,0,0,0,0,-1,1700,1058,0,0
483,-34,0,0,0,0,0,0,0,0,0,-1,1707,1058,0,0
490,-34,0,0,0,0,0,0,0,0,0,-1,1714,1058,0,0
497,-34,0,0,0,0,0,0,0,0,0,-1,1721,1058,0,0
504,-34,0,0,0,0,0,0,0,0,0,-1,1728,1058,0,0
511,-34,0,0,0,0,0,0,0,0,0,-1,1735,1058,0,0
518,-34,0,0,0,0,0,0,0,0,0,-1,1742,1058,0,0
525,-34,0,0,0,0,0,0,0,0,0,-1,1749,1058,0,0
532,-34,0,0,0,0,0,0,0,0,0,-1,1756,1058,0,0
539,-34,0,0,0,0,0,0,0,0,0,-1,1763,1058,0,0
546,-34,0,0,0,0,0,0,0,0,0,-1,1770,1058,0,0
553,-34,0,0,0,0,0,0,0,0,0,-1,1777,1058,0,0
560,-34,0,0,0,0,0,0,0,0,0,-1,1784,1058,0,0
567,-34,0,0,0,0,0,0,0,0,0,-1,1791,1058,0,0
574,-34,0,0,0,0,0,0,0,0,0,-1,1798,1058,0,0
581,-34,0,0,0,0,0,0,0,0,0,-1,1805,1058,0,0
588,-34,0,0,0,0,0,0,0,0,0,-1,1812,1058,0,0
595,-34,0,0,0,0,0,0,0,0,0,-1,1819,1058,0,0
602,-34,0,0,0,0,0,0,0,0,0,-1,1826,1058,0,0
609,-34,0,0,0,0,0,0,0,0,0,-1,1833,1058,0,0
616,-34,0,0,0,0,0,0,0,0,0,-1,1840,1058,0,0
623,-34,0,0,0,0,0,0,0,0,0,-1,1847,1058,0,0
630,-34,0,0,0,0,0,0,0,0,0,-1,1854,1058,0,0
637,-34,0,0,0,0,0,0,0,0,0,-1,1861,1058,0,0
644,-34,0,0,0,0,0,0,0,0,0,-1,1868,1058,0,0
651,-34,61.4147,2.67249,0.0018014,0.000338308,0.000150671,0.00181675,0.000322953,0.101561,0.00111916,0.0399422,1875,1058,61.4147,-2.67251
658,-34,61.3949,2.97412,0.00105029,0.000470406,0.000159518,0.00109127,0.000429422,0.251488,0.000634793,0.0419586,1882,1058,61.395,-2.97416
665,-34,61.4193,2.93799,0.000609884,0.000445323,0.000191643,0.000736163,0.000319043,0.582628,0.000426279,0.0409899,1889,1058,61.4193,-2.93799
672,-34,61.3783,2.76624,0.000375307,0.000458605,0.000389897,0.000809071,2.48408e-05,0.838607,0.000531294,0.0380433,1896,1058,61.3783,-2.76626
679,-34,61.4026,2.46973,0.000274682,0.000459464,0.000635936,0.00100969,-0.00027554,0.857535,0.000781337,0.0377083,1903,1058,61.4025,-2.46975
686,-34,61.2579,2.71716,-4.67987e-05,0.000215702,0.000967092,0.00106041,-0.000891506,0.852844,0.00112834,0.0438561,1910,1058,61.2579,-2.71718
693,-34,61.1174,2.64221,-0.000383038,-9.31709e-05,0.00133187,0.00110162,-0.00157783,0.839595,0.00155511,0.0458382,1917,1058,61.1174,-2.64217
700,-34,61.1857,2.69299,-0.000626942,-0.000249668,0.00173239,0.00130433,-0.00218094,0.839629,0.00203332,0.0394424,1924,1058,61.1856,-2.69302
707,-34,61.2435,2.73059,-0.00115312,-0.00021324,0.00196898,0.00134111,-0.00270746,0.902542,0.0023814,0.0257727,1931,1058,61.2436,-2.73064
714,-34,61.2516,2.79395,-0.00192391,0.000237669,0.00223224,0.001637,-0.00332325,1.01085,0.00291844,0.0236644,1938,1058,61.2516,-2.79397
721,-34,61.2089,2.82349,0,0,0,0,0,0,0,-1,1945,1058,61.2089,-2.82352
728,-34,60.8617,7.17627,0,0,0,0,0,0,0,-1,1952,1058,60.8617,-7.17626
735,-34,60.6934,7.03931,-0.00467839,0.00292087,0.00240763,0.00361945,-0.00537697,1.2884,0.00522701,0.0216116,1959,1058,60.6934,-7.03935
742,-34,60.598,6.83704,-0.00480027,0.00388455,0.00194435,0.00429998,-0.0052157,1.3603,0.00550235,0.0175088,1966,1058,60.5981,-6.83702
749,-34,60.6082,6.62671,-0.00550086,0.00524314,0.00160389,0.00547746,-0.00573519,1.42573,0.0064742,0.016042,1973,1058,60.6082,-6.6267
756,-34,60.6084,6.38672,-0.00633039,0.0075471,0.000501363,0.00756519,-0.00634848,1.53473,0.00804329,0.0128152,1980,1058,60.6084,-6.38676
763,-34,60.5262,6.15649,-0.00694937,0.0100385,-0.00137991,0.0101498,-0.00706073,-1.49027,0.00998974,0.0136725,1987,1058,60.5262,-6.15645
770,-34,60.4011,5.92773,-0.00697358,0.0132765,-0.00427534,0.0141421,-0.00783922,-1.37103,0.0128637,0.0187456,1994,1058,60.401,-5.9277
777,-34,60.2764,5.78857,-0.0066753,0.0172017,-0.00844244,0.0198852,-0.00935879,-1.26304,0.0172448,0.0228467,2001,1058,60.2764,-5.7886
784,-34,60.1436,5.65283,-0.00670681,0.0212451,-0.0134046,0.0266344,-0.012096,-1.18853,0.0228801,0.0420708,2008,1058,60.1436,-5.65284
791,-34,60.3638,4.14856,-0.00744221,0.0254866,-0.019523,0.0345608,-0.0165164,-1.1357,0.0300966,0.0459344,2015,1058,60.3637,-4.14851
798,-34,61.1787,2.89246,0,0,0,0,0,0,0,-1,2022,1058,61.1788,-2.8924
805,-34,61.821,1.81396,-0.012177,0.0350244,-0.0358326,0.0543302,-0.0314828,-1.07661,0.0501261,0.0478594,2029,1058,61.821,-1.81397
812,-34,59.5315,3.46838,-0.0176061,0.0405249,-0.0462029,0.0660443,-0.0431255,-1.06616,0.0634905,0.0448058,2036,1058,59.5315,-3.46842
-700,-41,-47.1546,-3.55859,0,0,0,0,0,0,0,-1,524,1065,-47.1546,3.55854
-693,-41,-46.9686,-2.70642,0.0621572,0.0980398,-0.0237088,0.109831,0.0503664,-1.1093,0.0634832,0.0461849,531,1065,-46.9686,2.70637
-686,-41,-46.7432,-1.86487,0.058619,0.0863505,-0.0115759,0.0905474,0.0544221,-1.22298,0.0526321,0.0433062,538,1065,-46.7432,1.86492
-679,-41,-46.6031,-1.10266,0.0521156,0.0744536,-0.00302881,0.074857,0.0517122,-1.43839,0.0442553,0.0427292,545,1065,-46.6031,1.1027
-672,-41,-46.3443,-0.359131,0.0443391,0.0630201,0.00273872,0.0634134,0.0439459,1.42819,0.0375099,0.0429917,552,1065,-46.3443,0.359163
-665,-41,-46.0853,0.985107,0,0,0,0,0,0,0,-1,559,1065,-46.0853,-0.985063
-658,-41,-45.7669,1.73975,0.0287309,0.0426667,0.00783089,0.0461809,0.0252167,1.14897,0.0267002,0.042276,566,1065,-45.7669,-1.73979
-651,-41,-45.4251,2.53479,0.0218858,0.0339127,0.00797907,0.0378906,0.0179079,1.10831,0.0218871,0.0339122,573,1065,-45.4251,-2.53478
-644,-41,-45.7565,2.94104,0.0163356,0.0267087,0.00719049,0.030388,0.0126563,1.09784,0.0176259,0.0176189,580,1065,-45.7565,-2.94101
-637,-41,-45.8125,3.23621,0.0111386,0.0173672,0.00576273,0.0208033,0.00770253,1.03313,0.0121449,0.0188195,587,1065,-45.8125,-3.23619
-630,-41,-45.8101,3.57214,0.00648458,0.0112143,0.00408688,0.0135712,0.00412766,1.04768,0.00803321,0.0163889,594,1065,-45.8101,-3.57209
-623,-41,-45.7933,3.90125,0.00354049,0.00735972,0.00195784,0.00818502,0.00271518,1.17186,0.004814,0.0127796,601,1065,-45.7933,-3.90127
-616,-41,-45.7785,4.26611,0.00205725,0.00438874,0.000101475,0.00439315,0.00205284,1.52738,0.00253819,0.0157607,608,1065,-45.7785,-4.26606
-609,-41,-45.7659,4.55469,0.00174926,0.00200499,-0.00158154,0.00346383,0.000290424,-0.825734,0.00221876,0.0220592,615,1065,-45.7659,-4.55465
-602,-41,-45.8023,4.8092,0.00170704,0.000781315,-0.00240321,0.00369155,-0.0012032,-0.690262,0.0029452,0.0137096,622,1065,-45.8023,-4.80925
-595,-41,-45.9617,5.04492,0.00147655,-3.12197e-05,-0.00274678,0.00357103,-0.00212569,-0.651465,0.0033241,0.023386,629,1065,-45.9617,-5.04487
-588,-41,-46.2571,2.80127,0,0,0,0,0,0,0,-1,636,1065,-46.2571,-2.80128
-581,-41,-46.4307,0.728149,0,0,0,0,0,0,0,-1,643,1065,-46.4307,-0.728133
-574,-41,-46.3147,0.985718,0.00125679,2.42224e-05,-0.00220842,0.00293331,-0.00165229,-0.649329,0.00268171,0.0369802,650,1065,-46.3147,-0.985731
-567,-41,-46.3094,1.08179,0.000695767,0.000738552,-0.00188867,0.00260595,-0.00117163,-0.791061,0.00223278,0.0425835,657,1065,-46.3094,-1.08183
-560,-41,-46.3614,1.078,-0.000291933,0.00172599,-0.0015825,0.00259381,-0.00115975,-1.06919,0.00221921,0.0414096,664,1065,-46.3614,-1.07797
-553,-41,-46.3558,0.950073,-0.00169806,0.00275454,-0.00137393,0.00314436,-0.00208789,-1.29433,0.0030413,0.0423639,671,1065,-46.3558,-0.950038
-546,-41,-46.2531,0.792114,-0.00356826,0.00341704,-0.00136433,0.00367406,-0.00382528,-1.3846,0.00433004,0.0414929,678,1065,-46.253,-0.792128
-539,-41,-46.3206,0.700073,-0.00604296,0.00304634,-0.00215288,0.00353048,-0.0065271,-1.3496,0.00589203,0.0397516,685,1065,-46.3205,-0.700102
-532,-41,-46.4235,0.740601,-0.00862389,0.00271517,-0.00250857,0.00324536,-0.00915408,-1.36251,0.00742482,0.0380359,692,1065,-46.4235,-0.740559
-525,-41,0,0,0,0,0,0,0,0,0,-1,699,1065,0,0
-518,-41,0,0,0,0,0,0,0,0,0,-1,706,1065,0,0
-511,-41,0,0,0,0,0,0,0,0,0,-1,713,1065,0,0
-504,-41,0,0,0,0,0,0,0,0,0,-1,720,1065,0,0
-497,-41,0,0,0,0,0,0,0,0,0,-1,727,1065,0,0
-490,-41,0,0,0,0,0,0,0,0,0,-1,734,1065,0,0
-483,-41,0,0,0,0,0,0,0,0,0,-1,741,1065,0,0
-476,-41,0,0,0,0,0,0,0,0,0,-1,748,1065,0,0
-469,-41,0,0,0,0,0,0,0,0,0,-1,755,1065,0,0
-462,-41,0,0,0,0,0,0,0,0,0,-1,762,1065,0,0
-455,-41,0,0,0,0,0,0,0,0,0,-1,769,1065,0,0
-448,-41,0,0,0,0,0,0,0,0,0,-1,776,1065,0,0
-441,-41,0,0,0,0,0,0,0,0,0,-1,783,1065,0,0
-434,-41,0,0,0,0,0,0,0,0,0,-1,790,1065,0,0
-427,-41,0,0,0,0,0,0,0,0,0,-1,797,1065,0,0
-420,-41,0,0,0,0,0,0,0,0,0,-1,804,1065,0,0
-413,-41,0,0,0,0,0,0,0,0,0,-1,811,1065,0,0
-406,-41,0,0,0,0,0,0,0,0,0,-1,818,1065,0,0
-399,-41,0,0,0,0,0,0,0,0,0,-1,825,1065,0,0
-392,-41,0,0,0,0,0,0,0,0,0,-1,832,1065,0,0
-385,-41,0,0,0,0,0,0,0,0,0,-1,839,1065,0,0
-378,-41,0,0,0,0,0,0,0,0,0,-1,846,1065,0,0
-371,-41,0,0,0,0,0,0,0,0,0,-1,853,1065,0,0
-364,-41,0,0,0,0,0,0,0,0,0,-1,860,1065,0,0
-357,-41,0,0,0,0,0,0,0,0,0,-1,867,1065,0,0
-350,-41,0,0,0,0,0,0,0,0,0,-1,874,1065,0,0
-343,-41,0,0,0,0,0,0,0,0,0,-1,881,1065,0,0
-336,-41,0,0,0,0,0,0,0,0,0,-1,888,1065,0,0
-329,-41,0,0,0,0,0,0,0,0,0,-1,895,1065,0,0
-322,-41,0,0,0,0,0,0,0,0,0,-1,902,1065,0,0
-315,-41,0,0,0,0,0,0,0,0,0,-1,909,1065,0,0
-308,-41,0,0,0,0,0,0,0,0,0,-1,916,1065,0,0
-301,-41,0,0,0,0,0,0,0,0,0,-1,923,1065,0,0
-294,-41,0,0,0,0,0,0,0,0,0,-1,930,1065,0,0
-287,-41,0,0,0,0,0,0,0,0,0,-1,937,1065,0,0
-280,-41,0,0,0,0,0,0,0,0,0,-1,944,1065,0,0
-273,-41,0,0,0,0,0,0,0,0,0,-1,951,1065,0,0
-266,-41,0,0,0,0,0,0,0,0,0,-1,958,1065,0,0
-259,-41,0,0,0,0,0,0,0,0,0,-1,965,1065,0,0
-252,-41,0,0,0,0,0,0,0,0,0,-1,972,1065,0,0
-245,-41,0,0,0,0,0,0,0,0,0,-1,979,1065,0,0
-238,-41,0,0,0,0,0,0,0,0,0,-1,986,1065,0,0
-231,-41,0,0,0,0,0,0,0,0,0,-1,993,1065,0,0
-224,-41,0,0,0,0,0,0,0,0,0,-1,1000,1065,0,0
-217,-41,0,0,0,0,0,0,0,0,0,-1,1007,1065,0,0
-210,-41,0,0,0,0,0,0,0,0,0,-1,1014,1065,0,0
-203,-41,0,0,0,0,0,0,0,0,0,-1,1021,1065,0,0
-196,-41,0,0,0,0,0,0,0,0,0,-1,1028,1065,0,0
-189,-41,0,0,0,0,0,0,0,0,0,-1,1035,1065,0,0
-182,-41,0,0,0,0,0,0,0,0,0,-1,1042,1065,0,0
-175,-41,0,0,0,0,0,0,0,0,0,-1,1049,1065,0,0
-168,-41,0,0,0,0,0,0,0,0,0,-1,1056,1065,0,0
-161,-41,0,0,0,0,0,0,0,0,0,-1,1063,1065,0,0
-154,-41,0,0,0,0,0,0,0,0,0,-1,1070,1065,0,0
-147,-41,0,0,0,0,0,0,0,0,0,-1,1077,1065,0,0
-140,-41,0,0,0,0,0,0,0,0,0,-1,1084,1065,0,0
-133,-41,0,0,0,0,0,0,0,0,0,-1,1091,1065,0,0
-126,-41,0,0,0,0,0,0,0,0,0,-1,1098,1065,0,0
-119,-41,0,0,0,0,0,0,0,0,0,-1,1105,1065,0,0
-112,-41,0,0,0,0,0,0,0,0,0,-1,1112,1065,0,0
-105,-41,0,0,0,0,0,0,0,0,0,-1,1119,1065,0,0
-98,-41,0,0,0,0,0,0,0,0,0,-1,1126,1065,0,0
-91,-41,0,0,0,0,0,0,0,0,0,-1,1133,1065,0,0
-84,-41,0,0,0,0,0,0,0,0,0,-1,1140,1065,0,0
-77,-41,0,0,0,0,0,0,0,0,0,-1,1147,1065,0,0
-70,-41,0,0,0,0,0,0,0,0,0,-1,1154,1065,0,0
-63,-41,0,0,0,0,0,0,0,0,0,-1,1161,1065,0,0
-56,-41,0,0,0,0,0,0,0,0,0,-1,1168,1065,0,0
-49,-41,0,0,0,0,0,0,0,0,0,-1,1175,1065,0,0
-42,-41,0,0,0,0,0,0,0,0,0,-1,1182,1065,0,0
-35,-41,0,0,0,0,0,0,0,0,0,-1,1189,1065,0,0
-28,-41,0,0,0,0,0,0,0,0,0,-1,1196,1065,0,0
-21,-41,0,0,0,0,0,0,0,0,0,-1,1203,1065,0,0
-14,-41,0,0,0,0,0,0,0,0,0,-1,1210,1065,0,0
-7,-41,0,0,0,0,0,0,0,0,0,-1,1217,1065,0,0
0,-41,0,0,0,0,0,0,0,0,0,-1,1224,1065,0,0
7,-41,0,0,0,0,0,0,0,0,0,-1,1231,1065,0,0
14,-41,0,0,0,0,0,0,0,0,0,-1,1238,1065,0,0
21,-41,0,0,0,0,0,0,0,0,0,-1,1245,1065,0,0
28,-41,0,0,0,0,0,0,0,0,0,-1,1252,1065,0,0
35,-41,0,0,0,0,0,0,0,0,0,-1,1259,1065,0,0
42,-41,0,0,0,0,0,0,0,0,0,-1,1266,1065,0,0
49,-41,0,0,0,0,0,0,0,0,0,-1,1273,1065,0,0
56,-41,0,0,0,0,0,0,0,0,0,-1,1280,1065,0,0
63,-41,0,0,0,0,0,0,0,0,0,-1,1287,1065,0,0
70,-41,0,0,0,0,0,0,0,0,0,-1,1294,1065,0,0
77,-41,0,0,0,0,0,0,0,0,0,-1,1301,1065,0,0
84,-41,0,0,0,0,0,0,0,0,0,-1,1308,1065,0,0
91,-41,0,0,0,0,0,0,0,0,0,-1,1315,1065,0,0
98,-41,0,0,0,0,0,0,0,0,0,-1,1322,1065,0,0
105,-41,0,0,0,0,0,0,0,0,0,-1,1329,1065,0,0
112,-41,0,0,0,0,0,0,0,0,0,-1,1336,1065,0,0
119,-41,0,0,0,0,0,0,0,0,0,-1,1343,1065,0,0
126,-41,0,0,0,0,0,0,0,0,0,-1,1350,1065,0,0
133,-41,0,0,0,0,0,0,0,0,0,-1,1357,1065,0,0
140,-41,0,0,0,0,0,0,0,0,0,-1,1364,1065,0,0
147,-41,0,0,0,0,0,0,0,0,0,-1,1371,1065,0,0
154,-41,0,0,0,0,0,0,0,0,0,-1,1378,1065,0,0
161,-41,0,0,0,0,0,0,0,0,0,-1,1385,1065,0,0
168,-41,0,0,0,0,0,0,0,0,0,-1,1392,1065,0,0
175,-41,0,0,0,0,0,0,0,0,0,-1,1399,1065,0,0
182,-41,0,0,0,0,0,0,0,0,0,-1,1406,1065,0,0
189,-41,0,0,0,0,0,0,0,0,0,-1,1413,1065,0,0
196,-41,0,0,0,0,0,0,0,0,0,-1,1420,1065,0,0
203,-41,0,0,0,0,0,0,0,0,0,-1,1427,1065,0,0
210,-41,0,0,0,0,0,0,0,0,0,-1,1434,1065,0,0
217,-41,0,0,0,0,0,0,0,0,0,-1,1441,1065,0,0
224,-41,0,0,0,0,0,0,0,0,0,-1,1448,1065,0,0
231,-41,0,0,0,0,0,0,0,0,0,-1,1455,1065,0,0
238,-41,0,0,0,0,0,0,0,0,0,-1,1462,1065,0,0
245,-41,0,0,0,0,0,0,0,0,0,-1,1469,1065,0,0
252,-41,0,0,0,0,0,0,0,0,0,-1,1476,1065,0,0
259,-41,0,0,0,0,0,0,0,0,0,-1,1483,1065,0,0
266,-41,0,0,0,0,0,0,0,0,0,-1,1490,1065,0,0
273,-41,0,0,0,0,0,0,0,0,0,-1,1497,1065,0,0
280,-41,0,0,0,0,0,0,0,0,0,-1,1504,1065,0,0
287,-41,0,0,0,0,0,0,0,0,0,-1,1511,1065,0,0
294,-41,0,0,0,0,0,0,0,0,0,-1,1518,1065,0,0
301,-41,0,0,0,0,0,0,0,0,0,-1,1525,1065,0,0
308,-41,0,0,0,0,0,0,0,0,0,-1,1532,1065,0,0
315,-41,0,0,0,0,0,0,0,0,0,-1,1539,1065,0,0
322,-41,0,0,0,0,0,0,0,0,0,-1,1546,1065,0,0
329,-41,0,0,0,0,0,0,0,0,0,-1,1553,1065,0,0
336,-41,0,0,0,0,0,0,0,0,0,-1,1560,1065,0,0
343,-41,0,0,0,0,0,0,0,0,0,-1,1567,1065,0,0
350,-41,0,0,0,0,0,0,0,0,0,-1,1574,1065,0,0
357,-41,0,0,0,0,0,0,0,0,0,-1,1581,1065,0,0
364,-41,0,0,0,0,0,0,0,0,0,-1,1588,1065,0,0
371,-41,0,0,0,0,0,0,0,0,0,-1,1595,1065,0,0
378,-41,0,0,0,0,0,0,0,0,0,-1,1602,1065,0,0
385,-41,0,0,0,0,0,0,0,0,0,-1,1609,1065,0,0
392,-41,0,0,0,0,0,0,0,0,0,-1,1616,1065,0,0
399,-41,0,0,0,0,0,0,0,0,0,-1,1623,1065,0,0
406,-41,0,0,0,0,0,0,0,0,0,-1,1630,1065,0,0
413,-41,0,0,0,0,0,0,0,0,0,-1,1637,1065,0,0
420,-41,0,0,0,0,0,0,0,0,0,-1,1644,1065,0,0
427,-41,0,0,0,0,0,0,0,0,0,-1,1651,1065,0,0
434,-41,0,0,0,0,0,0,0,0,0,-1,1658,1065,0,0
441,-41,0,0,0,0,0,0,0,0,0,-1,1665,1065,0,0
448,-41,0,0,0,0,0,0,0,0,0,-1,1672,1065,0,0
455,-41,0,0,0,0,0,0,0,0,0,-1,1679,1065,0,0
462,-41,0,0,0,0,0,0,0,0,0,-1,1686,1065,0,0
469,-41,0,0,0,0,0,0,0,0,0,-1,1693,1065,0,0
476,-41,0,0,0,0,0,0,0,0,0,-1,1700,1065,0,0
483,-41,0,0,0,0,0,0,0,0,0,-1,1707,1065,0,0
490,-41,0,0,0,0,0,0,0,0,0,-1,1714,1065,0,0
497,-41,0,0,0,0,0,0,0,0,0,-1,1721,1065,0,0
504,-41,0,0,0,0,0,0,0,0,0,-1,1728,1065,0,0
511,-41,0,0,0,0,0,0,0,0,0,-1,1735,1065,0,0
518,-41,0,0,0,0,0,0,0,0,0,-1,1742,1065,0,0
525,-41,0,0,0,0,0,0,0,0,0,-1,1749,1065,0,0
532,-41,0,0,0,0,0,0,0,0,0,-1,1756,1065,0,0
539,-41,0,0,0,0,0,0,0,0,0,-1,1763,1065,0,0
546,-41,0,0,0,0,0,0,0,0,0,-1,1770,1065,0,0
553,-41,0,0,0,0,0,0,0,0,0,-1,1777,1065,0,0
560,-41,0,0,0,0,0,0,0,0,0,-1,1784,1065,0,0
567,-41,0,0,0,0,0,0,0,0,0,-1,1791,1065,0,0
574,-41,0,0,0,0,0,0,0,0,0,-1,1798,1065,0,0
581,-41,0,0,0,0,0,0,0,0,0,-1,1805,1065,0,0
588,-41,0,0,0,0,0,0,0,0,0,-1,1812,1065,0,0
595,-41,0,0,0,0,0,0,0,0,0,-1,1819,1065,0,0
602,-41,0,0,0,0,0,0,0,0,0,-1,1826,1065,0,0
609,-41,0,0,0,0,0,0,0,0,0,-1,1833,1065,0,0
616,-41,0,0,0,0,0,0,0,0,0,-1,1840,1065,0,0
623,-41,0,0,0,0,0,0,0,0,0,-1,1847,1065,0,0
630,-41,0,0,0,0,0,0,0,0,0,-1,1854,1065,0,0
637,-41,0,0,0,0,0,0,0,0,0,-1,1861,1065,0,0
644,-41,0,0,0,0,0,0,0,0,0,-1,1868,1065,0,0
651,-41,61.3804,2.61584,0.00114307,-0.000230817,0.000374143,0.00123835,-0.000326098,0.249363,0.000953045,0.0355485,1875,1065,61.3804,-2.61586
658,-41,61.4011,2.68665,0.00060797,-9.70345e-05,0.000481631,0.000852315,-0.000341379,0.469493,0.000709912,0.0402739,1882,1065,61.4011,-2.68667
665,-41,61.3833,2.74597,0.000320435,-8.55444e-05,0.000491543,0.000649253,-0.000414362,0.589582,0.00061905,0.0393098,1889,1065,61.3833,-2.74597
672,-41,61.3691,2.64331,0.000202619,-2.41927e-05,0.000599157,0.000699009,-0.000520582,0.691867,0.000706638,0.0399172,1896,1065,61.3692,-2.64331
679,-41,61.3633,2.57715,0.00017482,3.88219e-05,0.000706555,0.000816641,-0.000602999,0.737426,0.000822717,0.0412955,1903,1065,61.3633,-2.5771
686,-41,61.3912,2.90112,-9.92969e-05,-0.000150268,0.000919468,0.000795039,-0.0010446,0.771543,0.00106537,0.0435498,1910,1065,61.3912,-2.90113
693,-41,61.3274,2.82886,-0.000369945,-0.000394666,0.00119049,0.000808246,-0.00157286,0.780207,0.00139816,0.0464521,1917,1065,61.3274,-2.82886
700,-41,61.2703,2.68958,-0.000559874,-0.000491989,0.00154249,0.00101693,-0.0020688,0.796399,0.00181572,0.0387896,1924,1065,61.2702,-2.68958
707,-41,61.2825,2.69983,-0.00103538,-0.000427631,0.00178902,0.00108314,-0.00254615,0.869522,0.00215138,0.0271663,1931,1065,61.2824,-2.69986
714,-41,61.282,2.72217,-0.00172491,-1.71058e-05,0.00208972,0.00138644,-0.00312845,0.979356,0.00267057,0.0259473,1938,1065,61.282,-2.72212
721,-41,61.2811,2.74792,0,0,0,0,0,0,0,-1,1945,1065,61.2812,-2.74791
728,-41,60.5698,7.18213,0,0,0,0,0,0,0,-1,1952,1065,60.5698,-7.18209
735,-41,60.3933,6.99207,-0.00419503,0.00248088,0.00237962,0.00324226,-0.00495641,1.26113,0.00476786,0.0215588,1959,1065,60.3933,-6.99201
742,-41,60.2861,6.79114,-0.0042589,0.00339719,0.00197555,0.00387689,-0.00473861,1.33258,0.00498245,0.0176539,1966,1065,60.2862,-6.79108
749,-41,60.2981,6.61511,-0.00478369,0.00472608,0.00168128,0.00501457,-0.00507218,1.40086,0.00582362,0.0160628,1973,1065,60.2981,-6.61509
756,-41,60.3237,6.39246,-0.00536429,0.00693558,0.000640155,0.00696881,-0.00539751,1.51894,0.00715889,0.0152617,1980,1065,60.3237,-6.39249
763,-41,60.1979,6.08423,-0.0057154,0.00938408,-0.00122216,0.00948236,-0.00581368,-1.49055,0.00891544,0.0132402,1987,1065,60.1978,-6.08427
770,-41,60.0894,5.84705,-0.0054096,0.0126012,-0.00415295,0.0135126,-0.00632106,-1.35475,0.0116992,0.0135018,1994,1065,60.0893,-5.847
777,-41,59.9597,5.60376,-0.00465449,0.0165129,-0.00833226,0.0193992,-0.0075408,-1.23733,0.0160483,0.016468,2001,1065,59.9597,-5.60373
784,-41,59.8154,5.31165,-0.00407371,0.0205741,-0.0132834,0.02637,-0.00986961,-1.15937,0.0216338,0.0294084,2008,1065,59.8155,-5.31166
791,-41,60.1436,4.32654,-0.00389353,0.024837,-0.0193116,0.0345403,-0.0135969,-1.10518,0.0286554,0.0433701,2015,1065,60.1435,-4.32654
798,-41,60.4407,3.55151,0,0,0,0,0,0,0,-1,2022,1065,60.4406,-3.55155
805,-41,60.5564,3.59436,-0.00559893,0.0343856,-0.0352923,0.0549549,-0.0261682,-1.0431,0.0478093,0.0445863,2029,1065,60.5564,-3.59437
812,-41,60.8628,3.39673,-0.00877924,0.0398587,-0.045385,0.0670296,-0.0359501,-1.03135,0.0603512,0.0477093,2036,1065,60.8628,-3.39667
-700,-48,-46.562,-4.26807,0,0,0,0,0,0,0,-1,524,1072,-46.5621,4.26812
-693,-48,-46.3433,-3.36755,0,0,0,0,0,0,0,-1,531,1072,-46.3433,3.36752
-686,-48,-45.8806,-2.65051,0,0,0,0,0,0,0,-1,538,1072,-45.8806,2.65055
-679,-48,-45.8358,-1.75403,0.0554674,0.0700884,-0.00370397,0.0709732,0.0545826,-1.33631,0.0429084,0.0449513,545,1072,-45.8358,1.75403
-672,-48,-45.644,-0.807373,0.0465275,0.0596014,0.00252905,0.0600736,0.0460553,1.38622,0.0362903,0.0452871,552,1072,-45.6441,0.807325
-665,-48,-45.474,0.221191,0.0376023,0.0496624,0.00626767,0.0523298,0.0349349,1.16844,0.0307731,0.0453085,559,1072,-45.474,-0.221138
-658,-48,-45.2673,0.99585,0.0293167,0.0404844,0.00798938,0.0446479,0.0251532,1.0904,0.0258464,0.0469481,566,1072,-45.2672,-0.995872
-651,-48,-45.1252,2.0061,0.0220527,0.0321631,0.0081559,0.0367034,0.0175124,1.06283,0.0211981,0.0396139,573,1072,-45.1253,-2.00608
-644,-48,-45.3137,2.89392,0.016366,0.0252783,0.00736776,0.0294327,0.0122116,1.05738,0.0170748,0.0230091,580,1072,-45.3137,-2.8939
-637,-48,-45.3494,3.14392,0.0110012,0.0166067,0.00580842,0.0202532,0.00735468,1.01018,0.0118383,0.0238624,587,1072,-45.3494,-3.14397
-630,-48,-45.3629,3.51636,0.00628747,0.0106098,0.00395955,0.0129596,0.00393769,1.03521,0.00767177,0.027489,594,1072,-45.3629,-3.51631
-623,-48,-45.4745,3.85632,0.00357809,0.00676619,0.00188185,0.00763839,0.0027059,1.13679,0.00447204,0.0131791,601,1072,-45.4745,-3.85627
-616,-48,-45.4822,4.19238,0.00236943,0.00386604,0.000141772,0.00387935,0.00235612,1.47718,0.00225689,0.0116441,608,1072,-45.4822,-4.19241
-609,-48,-45.4174,4.55786,0.00218166,0.00168483,-0.0014862,0.00344006,0.000426429,-0.70259,0.00216527,0.0130258,615,1072,-45.4174,-4.55788
-602,-48,-45.4301,4.88013,0.00210972,0.000598005,-0.00229419,0.00376936,-0.00106164,-0.626265,0.00293158,0.0140586,622,1072,-45.4301,-4.88007
-595,-48,-45.4684,5.15637,0.00184096,-1.76877e-05,-0.00265779,0.00372722,-0.00190394,-0.617212,0.00330747,0.0341863,629,1072,-45.4684,-5.15641
-588,-48,-45.6637,5.40381,0,0,0,0,0,0,0,-1,636,1072,-45.6637,-5.40387
-581,-48,-46.3276,0.887329,0,0,0,0,0,0,0,-1,643,1072,-46.3277,-0.887349
-574,-48,-46.3415,0.99707,0.00162046,0.000169978,-0.0021796,0.0031923,-0.00140187,-0.62479,0.00271876,0.0398353,650,1072,-46.3415,-0.997022
-567,-48,-46.2941,1.13489,0.00111258,0.000858705,-0.00188884,0.00287874,-0.000907456,-0.751846,0.00228259,0.0395576,657,1072,-46.2941,-1.13493
-560,-48,-46.1565,1.16052,0.00018333,0.00179807,-0.00161204,0.00279361,-0.000812218,-1.01756,0.00218408,0.0409099,664,1072,-46.1565,-1.16046
-553,-48,-46.2144,1.08789,-0.00112622,0.00275817,-0.00140241,0.00321157,-0.00157962,-1.2581,0.00281918,0.0408586,671,1072,-46.2144,-1.08789
-546,-48,-46.261,0.97998,-0.00284098,0.00334958,-0.00135147,0.00363176,-0.00312316,-1.36496,0.00390364,0.040109,678,1072,-46.261,-0.979935
-539,-48,-46.39,0.845947,-0.00503601,0.00283693,-0.00208647,0.0033557,-0.00555478,-1.3271,0.00519643,0.0393812,685,1072,-46.39,-0.845909
-532,-48,-46.4006,1.03577,-0.00731146,0.0023664,-0.00240698,0.00293199,-0.00787705,-1.34001,0.00645462,0.0374549,692,1072,-46.4006,-1.03581
-525,-48,0,0,0,0,0,0,0,0,0,-1,699,1072,0,0
-518,-48,0,0,0,0,0,0,0,0,0,-1,706,1072,0,0
-511,-48,0,0,0,0,0,0,0,0,0,-1,713,1072,0,0
-504,-48,0,0,0,0,0,0,0,0,0,-1,720,1072,0,0
-497,-48,0,0,0,0,0,0,0,0,0,-1,727,1072,0,0
-490,-48,0,0,0,0,0,0,0,0,0,-1,734,1072,0,0
-483,-48,0,0,0,0,0,0,0,0,0,-1,741,1072,0,0
-476,-48,0,0,0,0,0,0,0,0,0,-1,748,1072,0,0
-469,-48,0,0,0,0,0,0,0,0,0,-1,755,1072,0,0
-462,-48,0,0,0,0,0,0,0,0,0,-1,762,1072,0,0
-455,-48,0,0,0,0,0,0,0,0,0,-1,769,1072,0,0
-448,-48,0,0,0,0,0,0,0,0,0,-1,776,1072,0,0
-441,-48,0,0,0,0,0,0,0,0,0,-1,783,1072,0,0
-434,-48,0,0,0,0,0,0,0,0,0,-1,790,1072,0,0
-427,-48,0,0,0,0,0,0,0,0,0,-1,797,1072,0,0
-420,-48,0,0,0,0,0,0,0,0,0,-1,804,1072,0,0
-413,-48,0,0,0,0,0,0,0,0,0,-1,811,1072,0,0
-406,-48,0,0,0,0,0,0,0,0,0,-1,818,1072,0,0
-399,-48,0,0,0,0,0,0,0,0,0,-1,825,1072,0,0
-392,-48,0,0,0,0,0,0,0,0,0,-1,832,1072,0,0
-385,-48,0,0,0,0,0,0,0,0,0,-1,839,1072,0,0
-378,-48,0,0,0,0,0,0,0,0,0,-1,846,1072,0,0
-371,-48,0,0,0,0,0,0,0,0,0,-1,853,1072,0,0
-364,-48,0,0,0,0,0,0,0,0,0,-1,860,1072,0,0
-357,-48,0,0,0,0,0,0,0,0,0,-1,867,1072,0,0
-350,-48,0,0,0,0,0,0,0,0,0,-1,874,1072,0,0
-343,-48,0,0,0,0,0,0,0,0,0,-1,881,1072,0,0
-336,-48,0,0,0,0,0,0,0,0,0,-1,888,1072,0,0
-329,-48,0,0,0,0,0,0,0,0,0,-1,895,1072,0,0
-322,-48,0,0,0,0,0,0,0,0,0,-1,902,1072,0,0
-315,-48,0,0,0,0,0,0,0,0,0,-1,909,1072,0,0
-308,-48,0,0,0,0,0,0,0,0,0,-1,916,1072,0,0
-301,-48,0,0,0,0,0,0,0,0,0,-1,923,1072,0,0
-294,-48,0,0,0,0,0,0,0,0,0,-1,930,1072,0,0
-287,-48,0,0,0,0,0,0,0,0,0,-1,937,1072,0,0
-280,-48,0,0,0,0,0,0,0,0,0,-1,944,1072,0,0
-273,-48,0,0,0,0,0,0,0,0,0,-1,951,1072,0,0
-266,-48,0,0,0,0,0,0,0,0,0,-1,958,1072,0,0
-259,-48,0,0,0,0,0,0,0,0,0,-1,965,1072,0,0
-252,-48,0,0,0,0,0,0,0,0,0,-1,972,1072,0,0
-245,-48,0,0,0,0,0,0,0,0,0,-1,979,1072,0,0
-238,-48,0,0,0,0,0,0,0,0,0,-1,986,1072,0,0
-231,-48,0,0,0,0,0,0,0,0,0,-1,993,1072,0,0
-224,-48,0,0,0,0,0,0,0,0,0,-1,1000,1072,0,0
-217,-48,0,0,0,0,0,0,0,0,0,-1,1007,1072,0,0
-210,-48,0,0,0,0,0,0,0,0,0,-1,1014,1072,0,0
-203,-48,0,0,0,0,0,0,0,0,0,-1,1021,1072,0,0
-196,-48,0,0,0,0,0,0,0,0,0,-1,1028,1072,0,0
-189,-48,0,0,0,0,0,0,0,0,0,-1,1035,1072,0,0
-182,-48,0,0,0,0,0,0,0,0,0,-1,1042,1072,0,0
-175,-48,0,0,0,0,0,0,0,0,0,-1,1049,1072,0,0
-168,-48,0,0,0,0,0,0,0,0,0,-1,1056,1072,0,0
-161,-48,0,0,0,0,0,0,0,0,0,-1,1063,1072,0,0
-154,-48,0,0,0,0,0,0,0,0,0,-1,1070,1072,0,0
-147,-48,0,0,0,0,0,0,0,0,0,-1,1077,1072,0,0
-140,-48,0,0,0,0,0,0,0,0,0,-1,1084,1072,0,0
-133,-48,0,0,0,0,0,0,0,0,0,-1,1091,1072,0,0
-126,-48,0,0,0,0,0,0,0,0,0,-1,1098,1072,0,0
-119,-48,0,0,0,0,0,0,0,0,0,-1,1105,1072,0,0
-112,-48,0,0,0,0,0,0,0,0,0,-1,1112,1072,0,0
-105,-48,0,0,0,0,0,0,0,0,0,-1,1119,1072,0,0
-98,-48,0,0,0,0,0,0,0,0,0,-1,1126,1072,0,0
-91,-48,0,0,0,0,0,0,0,0,0,-1,1133,1072,0,0
-84,-48,0,0,0,0,0,0,0,0,0,-1,1140,1072,0,0
-77,-48,0,0,0,0,0,0,0,0,0,-1,1147,1072,0,0
-70,-48,0,0,0,0,0,0,0,0,0,-1,1154,1072,0,0
-63,-48,0,0,0,0,0,0,0,0,0,-1,1161,1072,0,0
-56,-48,0,0,0,0,0,0,0,0,0,-1,1168,1072,0,0
-49,-48,0,0,0,0,0,0,0,0,0,-1,1175,1072,0,0
-42,-48,0,0,0,0,0,0,0,0,0,-1,1182,1072,0,0
-35,-48,0,0,0,0,0,0,0,0,0,-1,1189,1072,0,0
-28,-48,0,0,0,0,0,0,0,0,0,-1,1196,1072,0,0
-21,-48,0,0,0,0,0,0,0,0,0,-1,1203,1072,0,0
-14,-48,0,0,0,0,0,0,0,0,0,-1,1210,1072,0,0
-7,-48,0,0,0,0,0,0,0,0,0,-1,1217,1072,0,0
0,-48,0,0,0,0,0,0,0,0,0,-1,1224,1072,0,0
7,-48,0,0,0,0,0,0,0,0,0,-1,1231,1072,0,0
14,-48,0,0,0,0,0,0,0,0,0,-1,1238,1072,0,0
21,-48,0,0,0,0,0,0,0,0,0,-1,1245,1072,0,0
28,-48,0,0,0,0,0,0,0,0,0,-1,1252,1072,0,0
35,-48,0,0,0,0,0,0,0,0,0,-1,1259,1072,0,0
42,-48,0,0,0,0,0,0,0,0,0,-1,1266,1072,0,0
49,-48,0,0,0,0,0,0,0,0,0,-1,1273,1072,0,0
56,-48,0,0,0,0,0,0,0,0,0,-1,1280,1072,0,0
63,-48,0,0,0,0,0,0,0,0,0,-1,1287,1072,0,0
70,-48,0,0,0,0,0,0,0,0,0,-1,1294,1072,0,0
77,-48,0,0,0,0,0,0,0,0,0,-1,1301,1072,0,0
84,-48,0,0,0,0,0,0,0,0,0,-1,1308,1072,0,0
91,-48,0,0,0,0,0,0,0,0,0,-1,1315,1072,0,0
98,-48,0,0,0,0,0,0,0,0,0,-1,1322,1072,0,0
105,-48,0,0,0,0,0,0,0,0,0,-1,1329,1072,0,0
112,-48,0,0,0,0,0,0,0,0,0,-1,1336,1072,0,0
119,-48,0,0,0,0,0,0,0,0,0,-1,1343,1072,0,0
126,-48,0,0,0,0,0,0,0,0,0,-1,1350,1072,0,0
133,-48,0,0,0,0,0,0,0,0,0,-1,1357,1072,0,0
140,-48,0,0,0,0,0,0,0,0,0,-1,1364,1072,0,0
147,-48,0,0,0,0,0,0,0,0,0,-1,1371,1072,0,0
154,-48,0,0,0,0,0,0,0,0,0,-1,1378,1072,0,0
161,-48,0,0,0,0,0,0,0,0,0,-1,1385,1072,0,0
168,-48,0,0,0,0,0,0,0,0,0,-1,1392,1072,0,0
175,-48,0,0,0,0,0,0,0,0,0,-1,1399,1072,0,0
182,-48,0,0,0,0,0,0,0,0,0,-1,1406,1072,0,0
189,-48,0,0,0,0,0,0,0,0,0,-1,1413,1072,0,0
196,-48,0,0,0,0,0,0,0,0,0,-1,1420,1072,0,0
203,-48,0,0,0,0,0,0,0,0,0,-1,1427,1072,0,0
210,-48,0,0,0,0,0,0,0,0,0,-1,1434,1072,0,0
217,-48,0,0,0,0,0,0,0,0,0,-1,1441,1072,0,0
224,-48,0,0,0,0,0,0,0,0,0,-1,1448,1072,0,0
231,-48,0,0,0,0,0,0,0,0,0,-1,1455,1072,0,0
238,-48,0,0,0,0,0,0,0,0,0,-1,1462,1072,0,0
245,-48,0,0,0,0,0,0,0,0,0,-1,1469,1072,0,0
252,-48,0,0,0,0,0,0,0,0,0,-1,1476,1072,0,0
259,-48,0,0,0,0,0,0,0,0,0,-1,1483,1072,0,0
266,-48,0,0,0,0,0,0,0,0,0,-1,1490,1072,0,0
273,-48,0,0,0,0,0,0,0,0,0,-1,1497,1072,0,0
280,-48,0,0,0,0,0,0,0,0,0,-1,1504,1072,0,0
287,-48,0,0,0,0,0,0,0,0,0,-1,1511,1072,0,0
294,-48,0,0,0,0,0,0,0,0,0,-1,1518,1072,0,0
301,-48,0,0,0,0,0,0,0,0,0,-1,1525,1072,0,0
308,-48,0,0,0,0,0,0,0,0,0,-1,1532,1072,0,0
315,-48,0,0,0,0,0,0,0,0,0,-1,1539,1072,0,0
322,-48,0,0,0,0,0,0,0,0,0,-1,1546,1072,0,0
329,-48,0,0,0,0,0,0,0,0,0,-1,1553,1072,0,0
336,-48,0,0,0,0,0,0,0,0,0,-1,1560,1072,0,0
343,-48,0,0,0,0,0,0,0,0,0,-1,1567,1072,0,0
350,-48,0,0,0,0,0,0,0,0,0,-1,1574,1072,0,0
357,-48,0,0,0,0,0,0,0,0,0,-1,1581,1072,0,0
364,-48,0,0,0,0,0,0,0,0,0,-1,1588,1072,0,0
371,-48,0,0,0,0,0,0,0,0,0,-1,1595,1072,0,0
378,-48,0,0,0,0,0,0,0,0,0,-1,1602,1072,0,0
385,-48,0,0,0,0,0,0,0,0,0,-1,1609,1072,0,0
392,-48,0,0,0,0,0,0,0,0,0,-1,1616,1072,0,0
399,-48,0,0,0,0,0,0,0,0,0,-1,1623,1072,0,0
406,-48,0,0,0,0,0,0,0,0,0,-1,1630,1072,0,0
413,-48,0,0,0,0,0,0,0,0,0,-1,1637,1072,0,0
420,-48,0,0,0,0,0,0,0,0,0,-1,1644,1072,0,0
427,-48,0,0,0,0,0,0,0,0,0,-1,1651,1072,0,0
434,-48,0,0,0,0,0,0,0,0,0,-1,1658,1072,0,0
441,-48,0,0,0,0,0,0,0,0,0,-1,1665,1072,0,0
448,-48,0,0,0,0,0,0,0,0,0,-1,1672,1072,0,0
455,-48,0,0,0,0,0,0,0,0,0,-1,1679,1072,0,0
462,-48,0,0,0,0,0,0,0,0,0,-1,1686,1072,0,0
469,-48,0,0,0,0,0,0,0,0,0,-1,1693,1072,0,0
476,-48,0,0,0,0,0,0,0,0,0,-1,1700,1072,0,0
483,-48,0,0,0,0,0,0,0,0,0,-1,1707,1072,0,0
490,-48,0,0,0,0,0,0,0,0,0,-1,1714,1072,0,0
497,-48,0,0,0,0,0,0,0,0,0,-1,1721,1072,0,0
504,-48,0,0,0,0,0,0,0,0,0,-1,1728,1072,0,0
511,-48,0,0,0,0,0,0,0,0,0,-1,1735,1072,0,0
518,-48,0,0,0,0,0,0,0,0,0,-1,1742,1072,0,0
525,-48,0,0,0,0,0,0,0,0,0,-1,1749,1072,0,0
532,-48,0,0,0,0,0,0,0,0,0,-1,1756,1072,0,0
539,-48,0,0,0,0,0,0,0,0,0,-1,1763,1072,0,0
546,-48,0,0,0,0,0,0,0,0,0,-1,1770,1072,0,0
553,-48,0,0,0,0,0,0,0,0,0,-1,1777,1072,0,0
560,-48,0,0,0,0,0,0,0,0,0,-1,1784,1072,0,0
567,-48,0,0,0,0,0,0,0,0,0,-1,1791,1072,0,0
574,-48,0,0,0,0,0,0,0,0,0,-1,1798,1072,0,0
581,-48,0,0,0,0,0,0,0,0,0,-1,1805,1072,0,0
588,-48,0,0,0,0,0,0,0,0,0,-1,1812,1072,0,0
595,-48,0,0,0,0,0,0,0,0,0,-1,1819,1072,0,0
602,-48,0,0,0,0,0,0,0,0,0,-1,1826,1072,0,0
609,-48,0,0,0,0,0,0,0,0,0,-1,1833,1072,0,0
616,-48,0,0,0,0,0,0,0,0,0,-1,1840,1072,0,0
623,-48,0,0,0,0,0,0,0,0,0,-1,1847,1072,0,0
630,-48,0,0,0,0,0,0,0,0,0,-1,1854,1072,0,0
637,-48,0,0,0,0,0,0,0,0,0,-1,1861,1072,0,0
644,-48,0,0,0,0,0,0,0,0,0,-1,1868,1072,0,0
651,-48,61.2751,2.6355,0.0015937,6.90997e-05,0.00110771,0.00217607,-0.000513268,0.484025,0.00164865,0.0330433,1875,1072,61.2751,-2.63549
658,-48,61.3597,2.5863,0.000931148,0.00010114,0.00104264,0.00163834,-0.00060605,0.595993,0.00134071,0.0372763,1882,1072,61.3598,-2.58628
665,-48,61.1857,2.5304,0.000548646,7.65241e-05,0.000896352,0.0012395,-0.00061433,0.656643,0.00109041,0.0408886,1889,1072,61.1857,-2.5304
672,-48,61.1418,2.56775,0.000356187,0.000130097,0.000830721,0.00108152,-0.000595235,0.717773,0.000981552,0.0408394,1896,1072,61.1418,-2.56773
679,-48,61.1561,2.6366,0.000250808,0.000215324,0.000751698,0.000984973,-0.000518842,0.773599,0.000882022,0.0401603,1903,1072,61.1561,-2.63665
686,-48,61.2561,2.78943,-3.74672e-05,4.34664e-05,0.000825409,0.0008294,-0.000823401,0.809892,0.000954247,0.0417739,1910,1072,61.2561,-2.78945
693,-48,61.3556,2.87646,-0.000269586,-0.00019319,0.000990328,0.000759676,-0.00122245,0.804674,0.00115473,0.0427987,1917,1072,61.3556,-2.87641
700,-48,61.3302,2.78015,-0.00042131,-0.000304017,0.00126543,0.000904125,-0.00162945,0.808554,0.00148261,0.0348019,1924,1072,61.3302,-2.78016
707,-48,61.3228,2.70483,-0.000838666,-0.00025657,0.00149787,0.000978269,-0.00207351,0.881356,0.00179937,0.0272611,1931,1072,61.3228,-2.70489
714,-48,61.3123,2.70325,-0.00143347,4.93019e-05,0.00181915,0.00127234,-0.00265651,0.978895,0.00231477,0.04274,1938,1072,61.3123,-2.70322
721,-48,61.3361,2.77429,0,0,0,0,0,0,0,-1,1945,1072,61.336,-2.77429
728,-48,60.2295,7.40112,0,0,0,0,0,0,0,-1,1952,1072,60.2295,-7.40109
735,-48,60.082,7.15417,-0.00358867,0.00218088,0.002191,0.00291859,-0.00432638,1.24602,0.00420912,0.0233382,1959,1072,60.0821,-7.15417
742,-48,59.9257,6.86292,-0.00363801,0.00300349,0.00183666,0.00347756,-0.00411208,1.31819,0.00438698,0.0184641,1966,1072,59.9256,-6.86294
749,-48,59.951,6.6001,-0.003999,0.00428497,0.00154568,0.00456397,-0.00427801,1.39221,0.00510581,0.0158874,1973,1072,59.9511,-6.60009
756,-48,59.9458,6.34045,-0.00432217,0.00642634,0.000515072,0.00645097,-0.00434679,1.52302,0.00627342,0.0139421,1980,1072,59.9458,-6.34045
763,-48,59.8569,6.04663,-0.0044307,0.00890759,-0.00137397,0.00904766,-0.00457076,-1.46921,0.00800296,0.0132862,1987,1072,59.857,-6.04662
770,-48,59.8325,5.7627,-0.00383677,0.0122361,-0.00440656,0.0133649,-0.0049656,-1.32002,0.0109472,0.0142605,1994,1072,59.8326,-5.7627
777,-48,59.6895,5.4585,-0.00268146,0.0163152,-0.00866936,0.0196767,-0.006043,-1.2009,0.0155291,0.0130863,2001,1072,59.6895,-5.45847
784,-48,59.5308,5.14758,-0.00149996,0.020616,-0.013707,0.0271693,-0.00805334,-1.12482,0.0213107,0.0250134,2008,1072,59.5308,-5.14761
791,-48,59.9978,4.53308,-0.000408701,0.0252031,-0.019807,0.0359833,-0.011189,-1.07237,0.0284613,0.0407815,2015,1072,59.9977,-4.53305
798,-48,60.4036,3.94104,0,0,0,0,0,0,0,-1,2022,1072,60.4036,-3.9411
805,-48,61.0925,3.42529,0.00103166,0.0356374,-0.0359318,0.0582154,-0.0215464,-1.00979,0.047645,0.0448822,2029,1072,61.0924,-3.42535
812,-48,61.7493,3.01184,0.000239828,0.0417715,-0.0460744,0.0715435,-0.0295322,-0.997117,0.0600128,0.0469328,2036,1072,61.7492,-3.01186
-700,-55,-46.1551,-4.99902,0,0,0,0,0,0,0,-1,524,1079,-46.1551,4.99899
-693,-55,-45.724,-4.00537,0,0,0,0,0,0,0,-1,531,1079,-45.724,4.00538
-686,-55,-45.4522,-2.7085,0,0,0,0,0,0,0,-1,538,1079,-45.4522,2.70849
-679,-55,-45.1324,-2.32227,0,0,0,0,0,0,0,-1,545,1079,-45.1324,2.32232
-672,-55,-44.9109,-1.29871,0,0,0,0,0,0,0,-1,552,1079,-44.9109,1.29871
-665,-55,-44.5729,-0.115967,0.0373564,0.0454425,0.00417224,0.0472093,0.0355896,1.17024,0.0284033,0.0464644,559,1079,-44.5729,0.116026
-658,-55,-45.213,0.37085,0.0287571,0.037103,0.00645149,0.0406135,0.0252466,1.07247,0.0236783,0.0482579,566,1079,-45.2129,-0.370904
-651,-55,-45.0061,1.70007,0.0213874,0.0295307,0.00705217,0.0336023,0.0173159,1.0472,0.0194033,0.0442732,573,1079,-45.0061,-1.70004
-644,-55,-44.9591,2.7915,0.0157647,0.0231952,0.00660458,0.0270578,0.0119021,1.0416,0.0156594,0.0264483,580,1079,-44.9591,-2.79154
-637,-55,-45.0023,3.07959,0.0104666,0.0154221,0.0052769,0.018774,0.00711471,1.00489,0.0109445,0.021251,587,1079,-45.0023,-3.07963
-630,-55,-45.0132,3.4834,0.00586975,0.00995783,0.00359454,0.0120489,0.00377872,1.04392,0.0071157,0.0237587,594,1079,-45.0132,-3.48335
-623,-55,-45.1803,3.90039,0.00348072,0.0061993,0.00172851,0.00703897,0.00264105,1.11859,0.00410593,0.0186181,601,1079,-45.1803,-3.9004
-616,-55,-45.2005,4.22266,0.00255746,0.00338258,0.000220025,0.00343758,0.00250245,1.32582,0.0020523,0.0182831,608,1079,-45.2005,-4.22261
-609,-55,-45.1248,4.62744,0.00244994,0.00137272,-0.00127721,0.00329746,0.000525191,-0.585859,0.00204584,0.0192084,615,1079,-45.1248,-4.62749
-602,-55,-45.0544,4.98145,0.00234635,0.000378938,-0.00201401,0.00360406,-0.000878769,-0.558223,0.00274296,0.0163825,622,1079,-45.0544,-4.98144
-595,-55,-44.9063,5.36169,0.00210272,-0.000144371,-0.00236488,0.00359738,-0.00163903,-0.563635,0.00309292,0.0346864,629,1079,-44.9062,-5.36171
-588,-55,-44.8911,5.82336,0,0,0,0,0,0,0,-1,636,1079,-44.8911,-5.82336
-581,-55,-46.2784,0.822632,0,0,0,0,0,0,0,-1,643,1079,-46.2784,-0.822636
-574,-55,-46.2813,0.938232,0.00191424,-4.85637e-05,-0.00200512,0.00316525,-0.00129957,-0.557813,0.00265173,0.039306,650,1079,-46.2813,-0.938236
-567,-55,-46.2422,1.03455,0.00147181,0.000552931,-0.00177317,0.00284409,-0.00081935,-0.658633,0.00222016,0.0393792,657,1079,-46.2423,-1.0346
-560,-55,-46.3147,1.08691,0.000614405,0.00139529,-0.00157209,0.00262469,-0.000615002,-0.907115,0.00198678,0.0417062,664,1079,-46.3147,-1.08692
-553,-55,-46.3251,1.17456,-0.000615234,0.00227688,-0.0014362,0.0028689,-0.00120725,-1.17981,0.00241767,0.0405055,671,1079,-46.3251,-1.17461
-546,-55,-46.2528,1.13855,-0.00218411,0.00286601,-0.00145182,0.00325363,-0.00257173,-1.30989,0.00337095,0.0372688,678,1079,-46.2528,-1.13854
-539,-55,-46.3856,1.04932,-0.00404685,0.0024173,-0.00223812,0.00311658,-0.00474612,-1.26797,0.00457191,0.0373813,685,1079,-46.3856,-1.04937
-532,-55,-46.3903,1.04834,-0.00604827,0.00201371,-0.00266635,0.00281577,-0.00685033,-1.2786,0.00574048,0.037481,692,1079,-46.3903,-1.04836
-525,-55,0,0,0,0,0,0,0,0,0,-1,699,1079,0,0
-518,-55,0,0,0,0,0,0,0,0,0,-1,706,1079,0,0
-511,-55,0,0,0,0,0,0,0,0,0,-1,713,1079,0,0
-504,-55,0,0,0,0,0,0,0,0,0,-1,720,1079,0,0
-497,-55,0,0,0,0,0,0,0,0,0,-1,727,1079,0,0
-490,-55,0,0,0,0,0,0,0,0,0,-1,734,1079,0,0
-483,-55,0,0,0,0,0,0,0,0,0,-1,741,1079,0,0
-476,-55,0,0,0,0,0,0,0,0,0,-1,748,1079,0,0
-469,-55,0,0,0,0,0,0,0,0,0,-1,755,1079,0,0
-462,-55,0,0,0,0,0,0,0,0,0,-1,762,1079,0,0
-455,-55,0,0,0,0,0,0,0,0,0,-1,769,1079,0,0
-448,-55,0,0,0,0,0,0,0,0,0,-1,776,1079,0,0
-441,-55,0,0,0,0,0,0,0,0,0,-1,783,1079,0,0
-434,-55,0,0,0,0,0,0,0,0,0,-1,790,1079,0,0
-427,-55,0,0,0,0,0,0,0,0,0,-1,797,1079,0,0
-420,-55,0,0,0,0,0,0,0,0,0,-1,804,1079,0,0
-413,-55,0,0,0,0,0,0,0,0,0,-1,811,1079,0,0
-406,-55,0,0,0,0,0,0,0,0,0,-1,818,1079,0,0
-399,-55,0,0,0,0,0,0,0,0,0,-1,825,1079,0,0
-392,-55,0,0,0,0,0,0,0,0,0,-1,832,1079,0,0
-385,-55,0,0,0,0,0,0,0,0,0,-1,839,1079,0,0
-378,-55,0,0,0,0,0,0,0,0,0,-1,846,1079,0,0
-371,-55,0,0,0,0,0,0,0,0,0,-1,853,1079,0,0
-364,-55,0,0,0,0,0,0,0,0,0,-1,860,1079,0,0
-357,-55,0,0,0,0,0,0,0,0,0,-1,867,1079,0,0
-350,-55,0,0,0,0,0,0,0,0,0,-1,874,1079,0,0
-343,-55,0,0,0,0,0,0,0,0,0,-1,881,1079,0,0
-336,-55,0,0,0,0,0,0,0,0,0,-1,888,1079,0,0
-329,-55,0,0,0,0,0,0,0,0,0,-1,895,1079,0,0
-322,-55,0,0,0,0,0,0,0,0,0,-1,902,1079,0,0
-315,-55,0,0,0,0,0,0,0,0,0,-1,909,1079,0,0
-308,-55,0,0,0,0,0,0,0,0,0,-1,916,1079,0,0
-301,-55,0,0,0,0,0,0,0,0,0,-1,923,1079,0,0
-294,-55,0,0,0,0,0,0,0,0,0,-1,930,1079,0,0
-287,-55,0,0,0,0,0,0,0,0,0,-1,937,1079,0,0
-280,-55,0,0,0,0,0,0,0,0,0,-1,944,1079,0,0
-273,-55,0,0,0,0,0,0,0,0,0,-1,951,1079,0,0
-266,-55,0,0,0,0,0,0,0,0,0,-1,958,1079,0,0
-259,-55,0,0,0,0,0,0,0,0,0,-1,965,1079,0,0
-252,-55,0,0,0,0,0,0,0,0,0,-1,972,1079,0,0
-245,-55,0,0,0,0,0,0,0,0,0,-1,979,1079,0,0
-238,-55,0,0,0,0,0,0,0,0,0,-1,986,1079,0,0
-231,-55,0,0,0,0,0,0,0,0,0,-1,993,1079,0,0
-224,-55,0,0,0,0,0,0,0,0,0,-1,1000,1079,0,0
-217,-55,0,0,0,0,0,0,0,0,0,-1,1007,1079,0,0
-210,-55,0,0,0,0,0,0,0,0,0,-1,1014,1079,0,0
-203,-55,0,0,0,0,0,0,0,0,0,-1,1021,1079,0,0
-196,-55,0,0,0,0,0,0,0,0,0,-1,1028,1079,0,0
-189,-55,0,0,0,0,0,0,0,0,0,-1,1035,1079,0,0
-182,-55,0,0,0,0,0,0,0,0,0,-1,1042,1079,0,0
-175,-55,0,0,0,0,0,0,0,0,0,-1,1049,1079,0,0
-168,-55,0,0,0,0,0,0,0,0,0,-1,1056,1079,0,0
-161,-55,0,0,0,0,0,0,0,0,0,-1,1063,1079,0,0
-154,-55,0,0,0,0,0,0,0,0,0,-1,1070,1079,0,0
-147,-55,0,0,0,0,0,0,0,0,0,-1,1077,1079,0,0
-140,-55,0,0,0,0,0,0,0,0,0,-1,1084,1079,0,0
-133,-55,0,0,0,0,0,0,0,0,0,-1,1091,1079,0,0
-126,-55,0,0,0,0,0,0,0,0,0,-1,1098,1079,0,0
-119,-55,0,0,0,0,0,0,0,0,0,-1,1105,1079,0,0
-112,-55,0,0,0,0,0,0,0,0,0,-1,1112,1079,0,0
-105,-55,0,0,0,0,0,0,0,0,0,-1,1119,1079,0,0
-98,-55,0,0,0,0,0,0,0,0,0,-1,1126,1079,0,0
-91,-55,0,0,0,0,0,0,0,0,0,-1,1133,1079,0,0
-84,-55,0,0,0,0,0,0,0,0,0,-1,1140,1079,0,0
-77,-55,0,0,0,0,0,0,0,0,0,-1,1147,1079,0,0
-70,-55,0,0,0,0,0,0,0,0,0,-1,1154,1079,0,0
-63,-55,0,0,0,0,0,0,0,0,0,-1,1161,1079,0,0
-56,-55,0,0,0,0,0,0,0,0,0,-1,1168,1079,0,0
-49,-55,0,0,0,0,0,0,0,0,0,-1,1175,1079,0,0
-42,-55,0,0,0,0,0,0,0,0,0,-1,1182,1079,0,0
-35,-55,0,0,0,0,0,0,0,0,0,-1,1189,1079,0,0
-28,-55,0,0,0,0,0,0,0,0,0,-1,1196,1079,0,0
-21,-55,0,0,0,0,0,0,0,0,0,-1,1203,1079,0,0
-14,-55,0,0,0,0,0,0,0,0,0,-1,1210,1079,0,0
-7,-55,0,0,0,0,0,0,0,0,0,-1,1217,1079,0,0
0,-55,0,0,0,0,0,0,0,0,0,-1,1224,1079,0,0
7,-55,0,0,0,0,0,0,0,0,0,-1,1231,1079,0,0
14,-55,0,0,0,0,0,0,0,0,0,-1,1238,1079,0,0
21,-55,0,0,0,0,0,0,0,0,0,-1,1245,1079,0,0
28,-55,0,0,0,0,0,0,0,0,0,-1,1252,1079,0,0
35,-55,0,0,0,0,0,0,0,0,0,-1,1259,1079,0,0
42,-55,0,0,0,0,0,0,0,0,0,-1,1266,1079,0,0
49,-55,0,0,0,0,0,0,0,0,0,-1,1273,1079,0,0
56,-55,0,0,0,0,0,0,0,0,0,-1,1280,1079,0,0
63,-55,0,0,0,0,0,0,0,0,0,-1,1287,1079,0,0
70,-55,0,0,0,0,0,0,0,0,0,-1,1294,1079,0,0
77,-55,0,0,0,0,0,0,0,0,0,-1,1301,1079,0,0
84,-55,0,0,0,0,0,0,0,0,0,-1,1308,1079,0,0
91,-55,0,0,0,0,0,0,0,0,0,-1,1315,1079,0,0
98,-55,0,0,0,0,0,0,0,0,0,-1,1322,1079,0,0
105,-55,0,0,0,0,0,0,0,0,0,-1,1329,1079,0,0
112,-55,0,0,0,0,0,0,0,0,0,-1,1336,1079,0,0
119,-55,0,0,0,0,0,0,0,0,0,-1,1343,1079,0,0
126,-55,0,0,0,0,0,0,0,0,0,-1,1350,1079,0,0
133,-55,0,0,0,0,0,0,0,0,0,-1,1357,1079,0,0
140,-55,0,0,0,0,0,0,0,0,0,-1,1364,1079,0,0
147,-55,0,0,0,0,0,0,0,0,0,-1,1371,1079,0,0
154,-55,0,0,0,0,0,0,0,0,0,-1,1378,1079,0,0
161,-55,0,0,0,0,0,0,0,0,0,-1,1385,1079,0,0
168,-55,0,0,0,0,0,0,0,0,0,-1,1392,1079,0,0
175,-55,0,0,0,0,0,0,0,0,0,-1,1399,1079,0,0
182,-55,0,0,0,0,0,0,0,0,0,-1,1406,1079,0,0
189,-55,0,0,0,0,0,0,0,0,0,-1,1413,1079,0,0
196,-55,0,0,0,0,0,0,0,0,0,-1,1420,1079,0,0
203,-55,0,0,0,0,0,0,0,0,0,-1,1427,1079,0,0
210,-55,0,0,0,0,0,0,0,0,0,-1,1434,1079,0,0
217,-55,0,0,0,0,0,0,0,0,0,-1,1441,1079,0,0
224,-55,0,0,0,0,0,0,0,0,0,-1,1448,1079,0,0
231,-55,0,0,0,0,0,0,0,0,0,-1,1455,1079,0,0
238,-55,0,0,0,0,0,0,0,0,0,-1,1462,1079,0,0
245,-55,0,0,0,0,0,0,0,0,0,-1,1469,1079,0,0
252,-55,0,0,0,0,0,0,0,0,0,-1,1476,1079,0,0
259,-55,0,0,0,0,0,0,0,0,0,-1,1483,1079,0,0
266,-55,0,0,0,0,0,0,0,0,0,-1,1490,1079,0,0
273,-55,0,0,0,0,0,0,0,0,0,-1,1497,1079,0,0
280,-55,0,0,0,0,0,0,0,0,0,-1,1504,1079,0,0
287,-55,0,0,0,0,0,0,0,0,0,-1,1511,1079,0,0
294,-55,0,0,0,0,0,0,0,0,0,-1,1518,1079,0,0
301,-55,0,0,0,0,0,0,0,0,0,-1,1525,1079,0,0
308,-55,0,0,0,0,0,0,0,0,0,-1,1532,1079,0,0
315,-55,0,0,0,0,0,0,0,0,0,-1,1539,1079,0,0
322,-55,0,0,0,0,0,0,0,0,0,-1,1546,1079,0,0
329,-55,0,0,0,0,0,0,0,0,0,-1,1553,1079,0,0
336,-55,0,0,0,0,0,0,0,0,0,-1,1560,1079,0,0
343,-55,0,0,0,0,0,0,0,0,0,-1,1567,1079,0,0
350,-55,0,0,0,0,0,0,0,0,0,-1,1574,1079,0,0
357,-55,0,0,0,0,0,0,0,0,0,-1,1581,1079,0,0
364,-55,0,0,0,0,0,0,0,0,0,-1,1588,1079,0,0
371,-55,0,0,0,0,0,0,0,0,0,-1,1595,1079,0,0
378,-55,0,0,0,0,0,0,0,0,0,-1,1602,1079,0,0
385,-55,0,0,0,0,0,0,0,0,0,-1,1609,1079,0,0
392,-55,0,0,0,0,0,0,0,0,0,-1,1616,1079,0,0
399,-55,0,0,0,0,0,0,0,0,0,-1,1623,1079,0,0
406,-55,0,0,0,0,0,0,0,0,0,-1,1630,1079,0,0
413,-55,0,0,0,0,0,0,0,0,0,-1,1637,1079,0,0
420,-55,0,0,0,0,0,0,0,0,0,-1,1644,1079,0,0
427,-55,0,0,0,0,0,0,0,0,0,-1,1651,1079,0,0
434,-55,0,0,0,0,0,0,0,0,0,-1,1658,1079,0,0
441,-55,0,0,0,0,0,0,0,0,0,-1,1665,1079,0,0
448,-55,0,0,0,0,0,0,0,0,0,-1,1672,1079,0,0
455,-55,0,0,0,0,0,0,0,0,0,-1,1679,1079,0,0
462,-55,0,0,0,0,0,0,0,0,0,-1,1686,1079,0,0
469,-55,0,0,0,0,0,0,0,0,0,-1,1693,1079,0,0
476,-55,0,0,0,0,0,0,0,0,0,-1,1700,1079,0,0
483,-55,0,0,0,0,0,0,0,0,0,-1,1707,1079,0,0
490,-55,0,0,0,0,0,0,0,0,0,-1,1714,1079,0,0
497,-55,0,0,0,0,0,0,0,0,0,-1,1721,1079,0,0
504,-55,0,0,0,0,0,0,0,0,0,-1,1728,1079,0,0
511,-55,0,0,0,0,0,0,0,0,0,-1,1735,1079,0,0
518,-55,0,0,0,0,0,0,0,0,0,-1,1742,1079,0,0
525,-55,0,0,0,0,0,0,0,0,0,-1,1749,1079,0,0
532,-55,0,0,0,0,0,0,0,0,0,-1,1756,1079,0,0
539,-55,0,0,0,0,0,0,0,0,0,-1,1763,1079,0,0
546,-55,0,0,0,0,0,0,0,0,0,-1,1770,1079,0,0
553,-55,0,0,0,0,0,0,0,0,0,-1,1777,1079,0,0
560,-55,0,0,0,0,0,0,0,0,0,-1,1784,1079,0,0
567,-55,0,0,0,0,0,0,0,0,0,-1,1791,1079,0,0
574,-55,0,0,0,0,0,0,0,0,0,-1,1798,1079,0,0
581,-55,0,0,0,0,0,0,0,0,0,-1,1805,1079,0,0
588,-55,0,0,0,0,0,0,0,0,0,-1,1812,1079,0,0
595,-55,0,0,0,0,0,0,0,0,0,-1,1819,1079,0,0
602,-55,0,0,0,0,0,0,0,0,0,-1,1826,1079,0,0
609,-55,0,0,0,0,0,0,0,0,0,-1,1833,1079,0,0
616,-55,0,0,0,0,0,0,0,0,0,-1,1840,1079,0,0
623,-55,0,0,0,0,0,0,0,0,0,-1,1847,1079,0,0
630,-55,0,0,0,0,0,0,0,0,0,-1,1854,1079,0,0
637,-55,0,0,0,0,0,0,0,0,0,-1,1861,1079,0,0
644,-55,0,0,0,0,0,0,0,0,0,-1,1868,1079,0,0
651,-55,61.1831,2.73816,0.00243909,-0.000978868,0.00075965,0.00260032,-0.0011401,0.209138,0.0022137,0.0369097,1875,1079,61.1831,-2.73812
658,-55,61.2954,2.7262,0.00152963,-0.000600032,0.000839762,0.00182092,-0.000891322,0.333886,0.00159628,0.0331158,1882,1079,61.2954,-2.72621
665,-55,61.1941,2.6134,0.000964393,-0.000363514,0.000770417,0.00131748,-0.000716604,0.429743,0.00119134,0.0370569,1889,1079,61.1941,-2.61339
672,-55,61.2086,2.69104,0.000623407,-0.000103867,0.000707002,0.00105481,-0.000535267,0.547873,0.000934221,0.0395576,1896,1079,61.2086,-2.69104
679,-55,61.2738,2.76538,0.000378455,0.000161123,0.00058543,0.000865219,-0.000325641,0.693634,0.000710679,0.037905,1903,1079,61.2739,-2.76535
686,-55,61.2789,2.77405,5.8894e-05,9.85037e-05,0.000625697,0.000704709,-0.000547311,0.801219,0.000724756,0.0387543,1910,1079,61.279,-2.77402
693,-55,61.3584,2.86597,-0.000146145,-7.58762e-05,0.000754046,0.000643853,-0.000865875,0.808679,0.000874778,0.0387326,1917,1079,61.3583,-2.86598
700,-55,61.3447,2.89404,-0.00027108,-0.0001386,0.00100182,0.000799172,-0.00120885,0.81841,0.00116735,0.0337404,1924,1079,61.3447,-2.89406
707,-55,61.3134,2.71851,-0.000628088,-8.7433e-05,0.00125174,0.000922833,-0.00163835,0.891746,0.00149781,0.0280655,1931,1079,61.3134,-2.71845
714,-55,61.2291,2.53967,0,0,0,0,0,0,0,-1,1938,1079,61.2291,-2.53973
721,-55,59.0815,2.79382,0,0,0,0,0,0,0,-1,1945,1079,59.0815,-2.79382
728,-55,59.7874,7.59485,0,0,0,0,0,0,0,-1,1952,1079,59.7873,-7.59486
735,-55,59.679,7.25854,-0.00302713,0.0019712,0.0020283,0.0026907,-0.00374663,1.22991,0.00373322,0.0230346,1959,1079,59.679,-7.25858
742,-55,59.6627,6.93506,-0.00311293,0.00270902,0.0017509,0.00319501,-0.00359893,1.30004,0.00392479,0.0224921,1966,1079,59.6627,-6.93503
749,-55,59.6575,6.61865,-0.00338666,0.00393225,0.00148587,0.00422241,-0.00367681,1.37795,0.00456424,0.0151715,1973,1079,59.6575,-6.61866
756,-55,59.5614,6.32581,-0.00354501,0.00596924,0.000531771,0.00599887,-0.00357464,1.51514,0.00558602,0.0124682,1980,1079,59.5614,-6.32583
763,-55,59.5208,6.02258,-0.00349797,0.00846624,-0.00131886,0.0086099,-0.00364163,-1.4623,0.00726471,0.0150378,1987,1079,59.5208,-6.02261
770,-55,59.4963,5.68323,-0.00270943,0.0118725,-0.00437309,0.0130834,-0.00392035,-1.30066,0.0102813,0.0168378,1994,1079,59.4962,-5.68326
777,-55,59.3743,5.37183,-0.00126449,0.0160445,-0.00860387,0.0195936,-0.00481356,-1.17956,0.0149279,0.0139355,2001,1079,59.3743,-5.37185
784,-55,59.2434,4.9552,0.000412925,0.0204928,-0.0135998,0.0273571,-0.00645142,-1.10336,0.020726,0.028785,2008,1079,59.2434,-4.95524
791,-55,59.0994,4.46179,0.00230996,0.0253103,-0.0196532,0.0365808,-0.00896055,-1.05011,0.0278586,0.0438364,2015,1079,59.0993,-4.46176
798,-55,58.9888,4.0199,0,0,0,0,0,0,0,-1,2022,1079,58.9887,-4.01985
805,-55,61.5745,3.34558,0,0,0,0,0,0,0,-1,2029,1079,61.5744,-3.34556
812,-55,62.2661,2.86829,0,0,0,0,0,0,0,-1,2036,1079,62.2661,-2.86823
-700,-62,-45.4719,-5.61487,0,0,0,0,0,0,0,-1,524,1086,-45.4719,5.61493
-693,-62,-45.0658,-4.69897,0,0,0,0,0,0,0,-1,531,1086,-45.0658,4.69899
-686,-62,-43.9891,-2.85828,0.0681406,0.0622444,-0.0184426,0.0838692,0.0465157,-0.706142,0.0485181,0.0473204,538,1086,-43.9891,2.85827
-679,-62,-43.0555,-1.35254,0.0577221,0.0542889,-0.0075749,0.0637725,0.0482386,-0.673973,0.0383991,0.0451048,545,1086,-43.0555,1.35258
-672,-62,-43.7725,-1.36597,0,0,0,0,0,0,0,-1,552,1086,-43.7725,1.36595
-665,-62,-43.746,-0.207642,0.0368094,0.0391058,0.00410834,0.0422234,0.0336919,0.92166,0.02578,0.0483312,559,1086,-43.746,0.207625
-658,-62,-45.3128,2.05603,0.027808,0.032216,0.00632218,0.0367073,0.0233166,0.953116,0.0214497,0.0497079,566,1086,-45.3128,-2.05603
-651,-62,-44.6265,2.08032,0.0203236,0.0258614,0.00688123,0.0305099,0.0156751,0.976677,0.0176171,0.0464214,573,1086,-44.6265,-2.08028
-644,-62,-44.5757,2.6709,0.0147722,0.0203957,0.00645229,0.0246223,0.0105456,0.99088,0.0142643,0.0172099,580,1086,-44.5757,-2.67086
-637,-62,-44.6348,3.09021,0.00958347,0.0141089,0.00498252,0.0173184,0.00637394,0.998539,0.0101142,0.0140405,587,1086,-44.6348,-3.09019
-630,-62,-44.6941,3.4845,0.00520968,0.00916661,0.00324328,0.0109872,0.00338905,1.05928,0.0064968,0.014654,594,1086,-44.6941,-3.48453
-623,-62,-44.7831,3.89807,0.00322307,0.00558288,0.00162198,0.00640872,0.00239724,1.09985,0.003739,0.0175883,601,1086,-44.7831,-3.89807
-616,-62,-44.7856,4.33337,0.00260898,0.00288774,0.000325247,0.00310221,0.0023945,0.987828,0.00187724,0.0188606,608,1086,-44.7856,-4.33337
-609,-62,-44.7453,4.70203,0.00259822,0.00105936,-0.00102208,0.00310811,0.000549469,-0.46275,0.00191537,0.0193345,615,1086,-44.7453,-4.70206
-602,-62,-44.6232,5.04626,0.00248448,0.000190642,-0.00168522,0.00337604,-0.000700921,-0.486614,0.00251708,0.0173743,622,1086,-44.6232,-5.04629
-595,-62,-44.4809,5.44409,0.00229271,-0.000252064,-0.00205265,0.00343535,-0.0013947,-0.507946,0.0028704,0.039797,629,1086,-44.4809,-5.44409
-588,-62,-44.4048,5.86157,0,0,0,0,0,0,0,-1,636,1086,-44.4048,-5.86154
-581,-62,-45.8861,1.02612,0,0,0,0,0,0,0,-1,643,1086,-45.8861,-1.02616
-574,-62,-46.2505,0.845825,0,0,0,0,0,0,0,-1,650,1086,-46.2506,-0.845863
-567,-62,-46.2531,1.02832,0.00172865,0.000211381,-0.00168215,0.00281532,-0.000875287,-0.573559,0.00222674,0.0386744,657,1086,-46.2531,-1.02833
-560,-62,-46.4275,1.23352,0.000925779,0.000916952,-0.00156594,0.00248731,-0.000644577,-0.783989,0.00190968,0.0401092,664,1086,-46.4275,-1.2335
-553,-62,-46.4464,1.02771,-0.000269147,0.00167597,-0.00152114,0.00250888,-0.00110206,-1.06983,0.00213687,0.0377582,671,1086,-46.4463,-1.02766
-546,-62,-46.3118,0.90686,-0.00172549,0.00221112,-0.00161801,0.00279079,-0.00230516,-1.22678,0.0029466,0.0316642,678,1086,-46.3118,-0.906849
-539,-62,-46.3647,0.808228,-0.00317878,0.00177838,-0.00240807,0.00275554,-0.00415594,-1.18531,0.00401756,0.0366106,685,1086,-46.3647,-0.8082
-532,-62,-46.3748,0.713623,-0.00482611,0.00137769,-0.00289435,0.00251832,-0.00596674,-1.1954,0.0050319,0.0421451,692,1086,-46.3748,-0.713585
-525,-62,0,0,0,0,0,0,0,0,0,-1,699,1086,0,0
-518,-62,0,0,0,0,0,0,0,0,0,-1,706,1086,0,0
-511,-62,0,0,0,0,0,0,0,0,0,-1,713,1086,0,0
-504,-62,0,0,0,0,0,0,0,0,0,-1,720,1086,0,0
-497,-62,0,0,0,0,0,0,0,0,0,-1,727,1086,0,0
-490,-62,0,0,0,0,0,0,0,0,0,-1,734,1086,0,0
-483,-62,0,0,0,0,0,0,0,0,0,-1,741,1086,0,0
-476,-62,0,0,0,0,0,0,0,0,0,-1,748,1086,0,0
-469,-62,0,0,0,0,0,0,0,0,0,-1,755,1086,0,0
-462,-62,0,0,0,0,0,0,0,0,0,-1,762,1086,0,0
-455,-62,0,0,0,0,0,0,0,0,0,-1,769,1086,0,0
-448,-62,0,0,0,0,0,0,0,0,0,-1,776,1086,0,0
-441,-62,0,0,0,0,0,0,0,0,0,-1,783,1086,0,0
-434,-62,0,0,0,0,0,0,0,0,0,-1,790,1086,0,0
-427,-62,0,0,0,0,0,0,0,0,0,-1,797,1086,0,0
-420,-62,0,0,0,0,0,0,0,0,0,-1,804,1086,0,0
-413,-62,0,0,0,0,0,0,0,0,0,-1,811,1086,0,0
-406,-62,0,0,0,0,0,0,0,0,0,-1,818,1086,0,0
-399,-62,0,0,0,0,0,0,0,0,0,-1,825,1086,0,0
-392,-62,0,0,0,0,0,0,0,0,0,-1,832,1086,0,0
-385,-62,0,0,0,0,0,0,0,0,0,-1,839,1086,0,0
-378,-62,0,0,0,0,0,0,0,0,0,-1,846,1086,0,0
-371,-62,0,0,0,0,0,0,0,0,0,-1,853,1086,0,0
-364,-62,0,0,0,0,0,0,0,0,0,-1,860,1086,0,0
-357,-62,0,0,0,0,0,0,0,0,0,-1,867,1086,0,0
-350,-62,0,0,0,0,0,0,0,0,0,-1,874,1086,0,0
-343,-62,0,0,0,0,0,0,0,0,0,-1,881,1086,0,0
-336,-62,0,0,0,0,0,0,0,0,0,-1,888,1086,0,0
-329,-62,0,0,0,0,0,0,0,0,0,-1,895,1086,0,0
-322,-62,0,0,0,0,0,0,0,0,0,-1,902,1086,0,0
-315,-62,0,0,0,0,0,0,0,0,0,-1,909,1086,0,0
-308,-62,0,0,0,0,0,0,0,0,0,-1,916,1086,0,0
-301,-62,0,0,0,0,0,0,0,0,0,-1,923,1086,0,0
-294,-62,0,0,0,0,0,0,0,0,0,-1,930,1086,0,0
-287,-62,0,0,0,0,0,0,0,0,0,-1,937,1086,0,0
-280,-62,0,0,0,0,0,0,0,0,0,-1,944,1086,0,0
-273,-62,0,0,0,0,0,0,0,0,0,-1,951,1086,0,0
-266,-62,0,0,0,0,0,0,0,0,0,-1,958,1086,0,0
-259,-62,0,0,0,0,0,0,0,0,0,-1,965,1086,0,0
-252,-62,0,0,0,0,0,0,0,0,0,-1,972,1086,0,0
-245,-62,0,0,0,0,0,0,0,0,0,-1,979,1086,0,0
-238,-62,0,0,0,0,0,0,0,0,0,-1,986,1086,0,0
-231,-62,0,0,0,0,0,0,0,0,0,-1,993,1086,0,0
-224,-62,0,0,0,0,0,0,0,0,0,-1,1000,1086,0,0
-217,-62,0,0,0,0,0,0,0,0,0,-1,1007,1086,0,0
-210,-62,0,0,0,0,0,0,0,0,0,-1,1014,1086,0,0
-203,-62,0,0,0,0,0,0,0,0,0,-1,1021,1086,0,0
-196,-62,0,0,0,0,0,0,0,0,0,-1,1028,1086,0,0
-189,-62,0,0,0,0,0,0,0,0,0,-1,1035,1086,0,0
-182,-62,0,0,0,0,0,0,0,0,0,-1,1042,1086,0,0
-175,-62,0,0,0,0,0,0,0,0,0,-1,1049,1086,0,0
-168,-62,0,0,0,0,0,0,0,0,0,-1,1056,1086,0,0
-161,-62,0,0,0,0,0,0,0,0,0,-1,1063,1086,0,0
-154,-62,0,0,0,0,0,0,0,0,0,-1,1070,1086,0,0
-147,-62,0,0,0,0,0,0,0,0,0,-1,1077,1086,0,0
-140,-62,0,0,0,0,0,0,0,0,0,-1,1084,1086,0,0
-133,-62,0,0,0,0,0,0,0,0,0,-1,1091,1086,0,0
-126,-62,0,0,0,0,0,0,0,0,0,-1,1098,1086,0,0
-119,-62,0,0,0,0,0,0,0,0,0,-1,1105,1086,0,0
-112,-62,0,0,0,0,0,0,0,0,0,-1,1112,1086,0,0
-105,-62,0,0,0,0,0,0,0,0,0,-1,1119,1086,0,0
-98,-62,0,0,0,0,0,0,0,0,0,-1,1126,1086,0,0
-91,-62,0,0,0,0,0,0,0,0,0,-1,1133,1086,0,0
-84,-62,0,0,0,0,0,0,0,0,0,-1,1140,1086,0,0
-77,-62,0,0,0,0,0,0,0,0,0,-1,1147,1086,0,0
-70,-62,0,0,0,0,0,0,0,0,0,-1,1154,1086,0,0
-63,-62,0,0,0,0,0,0,0,0,0,-1,1161,1086,0,0
-56,-62,0,0,0,0,0,0,0,0,0,-1,1168,1086,0,0
-49,-62,0,0,0,0,0,0,0,0,0,-1,1175,1086,0,0
-42,-62,0,0,0,0,0,0,0,0,0,-1,1182,1086,0,0
-35,-62,0,0,0,0,0,0,0,0,0,-1,1189,1086,0,0
-28,-62,0,0,0,0,0,0,0,0,0,-1,1196,1086,0,0
-21,-62,0,0,0,0,0,0,0,0,0,-1,1203,1086,0,0
-14,-62,0,0,0,0,0,0,0,0,0,-1,1210,1086,0,0
-7,-62,0,0,0,0,0,0,0,0,0,-1,1217,1086,0,0
0,-62,0,0,0,0,0,0,0,0,0,-1,1224,1086,0,0
7,-62,0,0,0,0,0,0,0,0,0,-1,1231,1086,0,0
14,-62,0,0,0,0,0,0,0,0,0,-1,1238,1086,0,0
21,-62,0,0,0,0,0,0,0,0,0,-1,1245,1086,0,0
28,-62,0,0,0,0,0,0,0,0,0,-1,1252,1086,0,0
35,-62,0,0,0,0,0,0,0,0,0,-1,1259,1086,0,0
42,-62,0,0,0,0,0,0,0,0,0,-1,1266,1086,0,0
49,-62,0,0,0,0,0,0,0,0,0,-1,1273,1086,0,0
56,-62,0,0,0,0,0,0,0,0,0,-1,1280,1086,0,0
63,-62,0,0,0,0,0,0,0,0,0,-1,1287,1086,0,0
70,-62,0,0,0,0,0,0,0,0,0,-1,1294,1086,0,0
77,-62,0,0,0,0,0,0,0,0,0,-1,1301,1086,0,0
84,-62,0,0,0,0,0,0,0,0,0,-1,1308,1086,0,0
91,-62,0,0,0,0,0,0,0,0,0,-1,1315,1086,0,0
98,-62,0,0,0,0,0,0,0,0,0,-1,1322,1086,0,0
105,-62,0,0,0,0,0,0,0,0,0,-1,1329,1086,0,0
112,-62,0,0,0,0,0,0,0,0,0,-1,1336,1086,0,0
119,-62,0,0,0,0,0,0,0,0,0,-1,1343,1086,0,0
126,-62,0,0,0,0,0,0,0,0,0,-1,1350,1086,0,0
133,-62,0,0,0,0,0,0,0,0,0,-1,1357,1086,0,0
140,-62,0,0,0,0,0,0,0,0,0,-1,1364,1086,0,0
147,-62,0,0,0,0,0,0,0,0,0,-1,1371,1086,0,0
154,-62,0,0,0,0,0,0,0,0,0,-1,1378,1086,0,0
161,-62,0,0,0,0,0,0,0,0,0,-1,1385,1086,0,0
168,-62,0,0,0,0,0,0,0,0,0,-1,1392,1086,0,0
175,-62,0,0,0,0,0,0,0,0,0,-1,1399,1086,0,0
182,-62,0,0,0,0,0,0,0,0,0,-1,1406,1086,0,0
189,-62,0,0,0,0,0,0,0,0,0,-1,1413,1086,0,0
196,-62,0,0,0,0,0,0,0,0,0,-1,1420,1086,0,0
203,-62,0,0,0,0,0,0,0,0,0,-1,1427,1086,0,0
210,-62,0,0,0,0,0,0,0,0,0,-1,1434,1086,0,0
217,-62,0,0,0,0,0,0,0,0,0,-1,1441,1086,0,0
224,-62,0,0,0,0,0,0,0,0,0,-1,1448,1086,0,0
231,-62,0,0,0,0,0,0,0,0,0,-1,1455,1086,0,0
238,-62,0,0,0,0,0,0,0,0,0,-1,1462,1086,0,0
245,-62,0,0,0,0,0,0,0,0,0,-1,1469,1086,0,0
252,-62,0,0,0,0,0,0,0,0,0,-1,1476,1086,0,0
259,-62,0,0,0,0,0,0,0,0,0,-1,1483,1086,0,0
266,-62,0,0,0,0,0,0,0,0,0,-1,1490,1086,0,0
273,-62,0,0,0,0,0,0,0,0,0,-1,1497,1086,0,0
280,-62,0,0,0,0,0,0,0,0,0,-1,1504,1086,0,0
287,-62,0,0,0,0,0,0,0,0,0,-1,1511,1086,0,0
294,-62,0,0,0,0,0,0,0,0,0,-1,1518,1086,0,0
301,-62,0,0,0,0,0,0,0,0,0,-1,1525,1086,0,0
308,-62,0,0,0,0,0,0,0,0,0,-1,1532,1086,0,0
315,-62,0,0,0,0,0,0,0,0,0,-1,1539,1086,0,0
322,-62,0,0,0,0,0,0,0,0,0,-1,1546,1086,0,0
329,-62,0,0,0,0,0,0,0,0,0,-1,1553,1086,0,0
336,-62,0,0,0,0,0,0,0,0,0,-1,1560,1086,0,0
343,-62,0,0,0,0,0,0,0,0,0,-1,1567,1086,0,0
350,-62,0,0,0,0,0,0,0,0,0,-1,1574,1086,0,0
357,-62,0,0,0,0,0,0,0,0,0,-1,1581,1086,0,0
364,-62,0,0,0,0,0,0,0,0,0,-1,1588,1086,0,0
371,-62,0,0,0,0,0,0,0,0,0,-1,1595,1086,0,0
378,-62,0,0,0,0,0,0,0,0,0,-1,1602,1086,0,0
385,-62,0,0,0,0,0,0,0,0,0,-1,1609,1086,0,0
392,-62,0,0,0,0,0,0,0,0,0,-1,1616,1086,0,0
399,-62,0,0,0,0,0,0,0,0,0,-1,1623,1086,0,0
406,-62,0,0,0,0,0,0,0,0,0,-1,1630,1086,0,0
413,-62,0,0,0,0,0,0,0,0,0,-1,1637,1086,0,0
420,-62,0,0,0,0,0,0,0,0,0,-1,1644,1086,0,0
427,-62,0,0,0,0,0,0,0,0,0,-1,1651,1086,0,0
434,-62,0,0,0,0,0,0,0,0,0,-1,1658,1086,0,0
441,-62,0,0,0,0,0,0,0,0,0,-1,1665,1086,0,0
448,-62,0,0,0,0,0,0,0,0,0,-1,1672,1086,0,0
455,-62,0,0,0,0,0,0,0,0,0,-1,1679,1086,0,0
462,-62,0,0,0,0,0,0,0,0,0,-1,1686,1086,0,0
469,-62,0,0,0,0,0,0,0,0,0,-1,1693,1086,0,0
476,-62,0,0,0,0,0,0,0,0,0,-1,1700,1086,0,0
483,-62,0,0,0,0,0,0,0,0,0,-1,1707,1086,0,0
490,-62,0,0,0,0,0,0,0,0,0,-1,1714,1086,0,0
497,-62,0,0,0,0,0,0,0,0,0,-1,1721,1086,0,0
504,-62,0,0,0,0,0,0,0,0,0,-1,1728,1086,0,0
511,-62,0,0,0,0,0,0,0,0,0,-1,1735,1086,0,0
518,-62,0,0,0,0,0,0,0,0,0,-1,1742,1086,0,0
525,-62,0,0,0,0,0,0,0,0,0,-1,1749,1086,0,0
532,-62,0,0,0,0,0,0,0,0,0,-1,1756,1086,0,0
539,-62,0,0,0,0,0,0,0,0,0,-1,1763,1086,0,0
546,-62,0,0,0,0,0,0,0,0,0,-1,1770,1086,0,0
553,-62,0,0,0,0,0,0,0,0,0,-1,1777,1086,0,0
560,-62,0,0,0,0,0,0,0,0,0,-1,1784,1086,0,0
567,-62,0,0,0,0,0,0,0,0,0,-1,1791,1086,0,0
574,-62,0,0,0,0,0,0,0,0,0,-1,1798,1086,0,0
581,-62,0,0,0,0,0,0,0,0,0,-1,1805,1086,0,0
588,-62,0,0,0,0,0,0,0,0,0,-1,1812,1086,0,0
595,-62,0,0,0,0,0,0,0,0,0,-1,1819,1086,0,0
602,-62,0,0,0,0,0,0,0,0,0,-1,1826,1086,0,0
609,-62,0,0,0,0,0,0,0,0,0,-1,1833,1086,0,0
616,-62,0,0,0,0,0,0,0,0,0,-1,1840,1086,0,0
623,-62,0,0,0,0,0,0,0,0,0,-1,1847,1086,0,0
630,-62,0,0,0,0,0,0,0,0,0,-1,1854,1086,0,0
637,-62,0,0,0,0,0,0,0,0,0,-1,1861,1086,0,0
644,-62,0,0,0,0,0,0,0,0,0,-1,1868,1086,0,0
651,-62,61.2303,2.6593,0.00296326,-0.00157165,0.000493173,0.00301628,-0.00162466,0.107083,0.0027193,0.0436448,1875,1086,61.2303,-2.65928
658,-62,61.2723,2.78174,0.00190592,-0.00105616,0.00067985,0.0020545,-0.00120475,0.215171,0.00190293,0.0393416,1882,1086,61.2723,-2.78172
665,-62,61.3101,2.69983,0.00122848,-0.000703935,0.000666092,0.00143583,-0.000911285,0.301785,0.00136634,0.0371316,1889,1086,61.31,-2.69987
672,-62,61.2119,2.67175,0.00079196,-0.000346651,0.000597443,0.00104791,-0.000602601,0.404755,0.000964415,0.0407789,1896,1086,61.212,-2.6718
679,-62,61.2469,2.77576,0.000455575,-1.86453e-06,0.000437071,0.000720154,-0.000266444,0.544341,0.000589348,0.0402204,1903,1086,61.2469,-2.77576
686,-62,61.292,2.84326,0.000151707,-1.9903e-05,0.00045471,0.000528637,-0.000396833,0.692143,0.000536123,0.0389867,1910,1086,61.292,-2.84324
693,-62,61.2864,2.84155,5.38284e-06,-0.000157155,0.000559735,0.000489718,-0.00064149,0.713306,0.000655059,0.0359819,1917,1086,61.2864,-2.84161
700,-62,61.3292,2.81409,-7.72019e-05,-0.000177905,0.000794723,0.000668763,-0.000923869,0.753762,0.00092343,0.0300617,1924,1086,61.3292,-2.81413
707,-62,61.2651,2.698,-0.000365916,-0.000128887,0.00106049,0.000819686,-0.00131449,0.841045,0.00124316,0.0235421,1931,1086,61.2651,-2.69805
714,-62,61.2992,2.63171,-0.000776768,5.04483e-05,0.00140197,0.00109855,-0.00182487,0.928839,0.00170511,0.0418389,1938,1086,61.2992,-2.63174
721,-62,61.3452,2.59729,0,0,0,0,0,0,0,-1,1945,1086,61.3452,-2.59734
728,-62,59.4193,7.75476,0,0,0,0,0,0,0,-1,1952,1086,59.4194,-7.75478
735,-62,59.3479,7.27612,-0.00252766,0.00168885,0.00184117,0.00237964,-0.00321845,1.21186,0.00324413,0.0292234,1959,1086,59.348,-7.2761
742,-62,59.2859,6.98828,-0.00268637,0.00239072,0.00162996,0.00286896,-0.00316461,1.2854,0.00348488,0.0293185,1966,1086,59.2859,-6.98822
749,-62,59.2396,6.6283,-0.0029383,0.00359391,0.00136447,0.00386746,-0.00321186,1.37293,0.00409309,0.0216304,1973,1086,59.2396,-6.62827
756,-62,59.1525,6.35034,-0.00303235,0.00559818,0.000437885,0.00562034,-0.00305451,1.52023,0.00508093,0.0148447,1980,1086,59.1525,-6.35038
763,-62,59.1447,5.99182,-0.00292018,0.00816015,-0.00142587,0.0083407,-0.00310072,-1.44485,0.00683273,0.0168201,1987,1086,59.1447,-5.99181
770,-62,59.116,5.62244,-0.00203139,0.0117007,-0.00454164,0.0130668,-0.00339755,-1.2786,0.0100373,0.0148342,1994,1086,59.116,-5.62241
777,-62,58.9634,5.2428,-0.000400575,0.0160378,-0.00876575,0.019835,-0.00419777,-1.16201,0.0148221,0.0157898,2001,1086,58.9634,-5.24277
784,-62,58.8342,4.78784,0.00167478,0.0207331,-0.0137513,0.0279342,-0.00552634,-1.08839,0.0207122,0.027196,2008,1086,58.8343,-4.78789
791,-62,58.7378,4.31934,0.00429205,0.025927,-0.0198074,0.0376783,-0.00745929,-1.03533,0.0279392,0.0427807,2015,1086,58.7377,-4.31936
798,-62,58.655,3.91406,0,0,0,0,0,0,0,-1,2022,1086,58.6549,-3.91406
805,-62,59.8147,2.55762,0,0,0,0,0,0,0,-1,2029,1086,59.8146,-2.55763
812,-62,59.8198,1.53577,0,0,0,0,0,0,0,-1,2036,1086,59.8199,-1.53575
-700,-69,-47.1294,-1.07898,0,0,0,0,0,0,0,-1,524,1093,-47.1294,1.07898
-693,-69,-43.1604,-4.32068,0,0,0,0,0,0,0,-1,531,1093,-43.1604,4.32073
-686,-69,-42.2861,-2.90039,0.0613087,0.0531029,-0.0319527,0.0894208,0.0249908,-0.721545,0.0532746,0.0453841,538,1093,-42.2861,2.90043
-679,-69,-41.2677,-1.13623,0.0513643,0.0469635,-0.0183056,0.0676013,0.0307265,-0.725584,0.0390834,0.0469532,545,1093,-41.2677,1.13628
-672,-69,-45.3936,-0.519775,0,0,0,0,0,0,0,-1,552,1093,-45.3936,0.519818
-665,-69,-45.0403,1.01855,0.0320921,0.0344175,-0.00202745,0.035592,0.0309176,-1.04575,0.0223335,0.0451349,559,1093,-45.0403,-1.01861
-658,-69,-44.5218,1.84106,0.0239381,0.0285035,0.00190223,0.0291922,0.0232494,1.22343,0.0178141,0.0494493,566,1093,-44.5218,-1.84113
-651,-69,-44.1163,2.20691,0.0172804,0.0229483,0.00380357,0.0248576,0.0153711,1.10557,0.014485,0.0408166,573,1093,-44.1163,-2.20685
-644,-69,-44.1123,2.62366,0.0124175,0.0180594,0.00434973,0.0204228,0.010054,1.07307,0.0117916,0.0118477,580,1093,-44.1123,-2.62369
-637,-69,-44.1693,3.06311,0.0079869,0.012864,0.00385761,0.0149892,0.00586172,1.06726,0.00872221,0.0122936,587,1093,-44.1693,-3.06307
-630,-69,-44.2115,3.45093,0.00428971,0.00822106,0.00268728,0.00958485,0.00292592,1.10117,0.00567199,0.0149848,594,1093,-44.2115,-3.45091
-623,-69,-44.2163,3.84961,0.00272984,0.00483619,0.00135447,0.00549876,0.00206728,1.11585,0.00320711,0.018626,601,1093,-44.2163,-3.84967
-616,-69,-44.2269,4.25537,0.00239825,0.00231641,0.000295834,0.00265598,0.00205868,0.716679,0.00160894,0.0227857,608,1093,-44.2269,-4.25543
-609,-69,-44.2407,4.64465,0.00245971,0.000689004,-0.00089833,0.00283565,0.00031307,-0.396336,0.0017952,0.0209222,615,1093,-44.2407,-4.64467
-602,-69,-44.1956,5.07813,0.00240425,-2.20558e-05,-0.00151813,0.0031344,-0.000752211,-0.448299,0.00238029,0.0206025,622,1093,-44.1955,-5.07811
-595,-69,-44.0908,5.43359,0.00232668,-0.000303692,-0.00192075,0.00333936,-0.00131638,-0.485198,0.00277129,0.0418762,629,1093,-44.0907,-5.43358
-588,-69,-44.1103,5.7688,0,0,0,0,0,0,0,-1,636,1093,-44.1103,-5.76874
-581,-69,-46.3414,0.965454,0,0,0,0,0,0,0,-1,643,1093,-46.3414,-0.965498
-574,-69,-46.3999,1.0376,0.00226668,-0.000278552,-0.00186656,0.00325318,-0.00126505,-0.486196,0.00269147,0.0331502,650,1093,-46.3999,-1.03761
-567,-69,-46.2491,1.16199,0.00193252,0.000165166,-0.00179046,0.0030455,-0.000947815,-0.556163,0.00240924,0.0385388,657,1093,-46.2491,-1.16204
-560,-69,-46.2576,1.28357,0.00123904,0.000812182,-0.0017662,0.00280466,-0.000753442,-0.72527,0.00216507,0.039568,664,1093,-46.2575,-1.28353
-553,-69,-46.2966,1.11072,0.000102368,0.00152394,-0.00182718,0.00277372,-0.00114741,-0.970895,0.00232786,0.0400831,671,1093,-46.2965,-1.11068
-546,-69,-46.2917,0.930176,-0.00125207,0.00209607,-0.00200293,0.00303241,-0.00218841,-1.1335,0.00302735,0.0377294,678,1093,-46.2917,-0.930231
-539,-69,-46.3157,0.759766,-0.00239756,0.00175564,-0.00274982,0.00312488,-0.0037668,-1.1088,0.00398466,0.0402289,685,1093,-46.3157,-0.759822
-532,-69,-46.1841,0.906006,-0.00380625,0.00142044,-0.00318401,0.00292626,-0.00531206,-1.12904,0.00482242,0.0432418,692,1093,-46.1841,-0.90598
-525,-69,0,0,0,0,0,0,0,0,0,-1,699,1093,0,0
-518,-69,0,0,0,0,0,0,0,0,0,-1,706,1093,0,0
-511,-69,0,0,0,0,0,0,0,0,0,-1,713,1093,0,0
-504,-69,0,0,0,0,0,0,0,0,0,-1,720,1093,0,0
-497,-69,0,0,0,0,0,0,0,0,0,-1,727,1093,0,0
-490,-69,0,0,0,0,0,0,0,0,0,-1,734,1093,0,0
-483,-69,0,0,0,0,0,0,0,0,0,-1,741,1093,0,0
-476,-69,0,0,0,0,0,0,0,0,0,-1,748,1093,0,0
-469,-69,0,0,0,0,0,0,0,0,0,-1,755,1093,0,0
-462,-69,0,0,0,0,0,0,0,0,0,-1,762,1093,0,0
-455,-69,0,0,0,0,0,0,0,0,0,-1,769,1093,0,0
-448,-69,0,0,0,0,0,0,0,0,0,-1,776,1093,0,0
-441,-69,0,0,0,0,0,0,0,0,0,-1,783,1093,0,0
-434,-69,0,0,0,0,0,0,0,0,0,-1,790,1093,0,0
-427,-69,0,0,0,0,0,0,0,0,0,-1,797,1093,0,0
-420,-69,0,0,0,0,0,0,0,0,0,-1,804,1093,0,0
-413,-69,0,0,0,0,0,0,0,0,0,-1,811,1093,0,0
-406,-69,0,0,0,0,0,0,0,0,0,-1,818,1093,0,0
-399,-69,0,0,0,0,0,0,0,0,0,-1,825,1093,0,0
-392,-69,0,0,0,0,0,0,0,0,0,-1,832,1093,0,0
-385,-69,0,0,0,0,0,0,0,0,0,-1,839,1093,0,0
-378,-69,0,0,0,0,0,0,0,0,0,-1,846,1093,0,0
-371,-69,0,0,0,0,0,0,0,0,0,-1,853,1093,0,0
-364,-69,0,0,0,0,0,0,0,0,0,-1,860,1093,0,0
-357,-69,0,0,0,0,0,0,0,0,0,-1,867,1093,0,0
-350,-69,0,0,0,0,0,0,0,0,0,-1,874,1093,0,0
-343,-69,0,0,0,0,0,0,0,0,0,-1,881,1093,0,0
-336,-69,0,0,0,0,0,0,0,0,0,-1,888,1093,0,0
-329,-69,0,0,0,0,0,0,0,0,0,-1,895,1093,0,0
-322,-69,0,0,0,0,0,0,0,0,0,-1,902,1093,0,0
-315,-69,0,0,0,0,0,0,0,0,0,-1,909,1093,0,0
-308,-69,0,0,0,0,0,0,0,0,0,-1,916,1093,0,0
-301,-69,0,0,0,0,0,0,0,0,0,-1,923,1093,0,0
-294,-69,0,0,0,0,0,0,0,0,0,-1,930,1093,0,0
-287,-69,0,0,0,0,0,0,0,0,0,-1,937,1093,0,0
-280,-69,0,0,0,0,0,0,0,0,0,-1,944,1093,0,0
-273,-69,0,0,0,0,0,0,0,0,0,-1,951,1093,0,0
-266,-69,0,0,0,0,0,0,0,0,0,-1,958,1093,0,0
-259,-69,0,0,0,0,0,0,0,0,0,-1,965,1093,0,0
-252,-69,0,0,0,0,0,0,0,0,0,-1,972,1093,0,0
-245,-69,0,0,0,0,0,0,0,0,0,-1,979,1093,0,0
-238,-69,0,0,0,0,0,0,0,0,0,-1,986,1093,0,0
-231,-69,0,0,0,0,0,0,0,0,0,-1,993,1093,0,0
-224,-69,0,0,0,0,0,0,0,0,0,-1,1000,1093,0,0
-217,-69,0,0,0,0,0,0,0,0,0,-1,1007,1093,0,0
-210,-69,0,0,0,0,0,0,0,0,0,-1,1014,1093,0,0
-203,-69,0,0,0,0,0,0,0,0,0,-1,1021,1093,0,0
-196,-69,0,0,0,0,0,0,0,0,0,-1,1028,1093,0,0
-189,-69,0,0,0,0,0,0,0,0,0,-1,1035,1093,0,0
-182,-69,0,0,0,0,0,0,0,0,0,-1,1042,1093,0,0
-175,-69,0,0,0,0,0,0,0,0,0,-1,1049,1093,0,0
-168,-69,0,0,0,0,0,0,0,0,0,-1,1056,1093,0,0
-161,-69,0,0,0,0,0,0,0,0,0,-1,1063,1093,0,0
-154,-69,0,0,0,0,0,0,0,0,0,-1,1070,1093,0,0
-147,-69,0,0,0,0,0,0,0,0,0,-1,1077,1093,0,0
-140,-69,0,0,0,0,0,0,0,0,0,-1,1084,1093,0,0
-133,-69,0,0,0,0,0,0,0,0,0,-1,1091,1093,0,0
-126,-69,0,0,0,0,0,0,0,0,0,-1,1098,1093,0,0
-119,-69,0,0,0,0,0,0,0,0,0,-1,1105,1093,0,0
-112,-69,0,0,0,0,0,0,0,0,0,-1,1112,1093,0,0
-105,-69,0,0,0,0,0,0,0,0,0,-1,1119,1093,0,0
-98,-69,0,0,0,0,0,0,0,0,0,-1,1126,1093,0,0
-91,-69,0,0,0,0,0,0,0,0,0,-1,1133,1093,0,0
-84,-69,0,0,0,0,0,0,0,0,0,-1,1140,1093,0,0
-77,-69,0,0,0,0,0,0,0,0,0,-1,1147,1093,0,0
-70,-69,0,0,0,0,0,0,0,0,0,-1,1154,1093,0,0
-63,-69,0,0,0,0,0,0,0,0,0,-1,1161,1093,0,0
-56,-69,0,0,0,0,0,0,0,0,0,-1,1168,1093,0,0
-49,-69,0,0,0,0,0,0,0,0,0,-1,1175,1093,0,0
-42,-69,0,0,0,0,0,0,0,0,0,-1,1182,1093,0,0
-35,-69,0,0,0,0,0,0,0,0,0,-1,1189,1093,0,0
-28,-69,0,0,0,0,0,0,0,0,0,-1,1196,1093,0,0
-21,-69,0,0,0,0,0,0,0,0,0,-1,1203,1093,0,0
-14,-69,0,0,0,0,0,0,0,0,0,-1,1210,1093,0,0
-7,-69,0,0,0,0,0,0,0,0,0,-1,1217,1093,0,0
0,-69,0,0,0,0,0,0,0,0,0,-1,1224,1093,0,0
7,-69,0,0,0,0,0,0,0,0,0,-1,1231,1093,0,0
14,-69,0,0,0,0,0,0,0,0,0,-1,1238,1093,0,0
21,-69,0,0,0,0,0,0,0,0,0,-1,1245,1093,0,0
28,-69,0,0,0,0,0,0,0,0,0,-1,1252,1093,0,0
35,-69,0,0,0,0,0,0,0,0,0,-1,1259,1093,0,0
42,-69,0,0,0,0,0,0,0,0,0,-1,1266,1093,0,0
49,-69,0,0,0,0,0,0,0,0,0,-1,1273,1093,0,0
56,-69,0,0,0,0,0,0,0,0,0,-1,1280,1093,0,0
63,-69,0,0,0,0,0,0,0,0,0,-1,1287,1093,0,0
70,-69,0,0,0,0,0,0,0,0,0,-1,1294,1093,0,0
77,-69,0,0,0,0,0,0,0,0,0,-1,1301,1093,0,0
84,-69,0,0,0,0,0,0,0,0,0,-1,1308,1093,0,0
91,-69,0,0,0,0,0,0,0,0,0,-1,1315,1093,0,0
98,-69,0,0,0,0,0,0,0,0,0,-1,1322,1093,0,0
105,-69,0,0,0,0,0,0,0,0,0,-1,1329,1093,0,0
112,-69,0,0,0,0,0,0,0,0,0,-1,1336,1093,0,0
119,-69,0,0,0,0,0,0,0,0,0,-1,1343,1093,0,0
126,-69,0,0,0,0,0,0,0,0,0,-1,1350,1093,0,0
133,-69,0,0,0,0,0,0,0,0,0,-1,1357,1093,0,0
140,-69,0,0,0,0,0,0,0,0,0,-1,1364,1093,0,0
147,-69,0,0,0,0,0,0,0,0,0,-1,1371,1093,0,0
154,-69,0,0,0,0,0,0,0,0,0,-1,1378,1093,0,0
161,-69,0,0,0,0,0,0,0,0,0,-1,1385,1093,0,0
168,-69,0,0,0,0,0,0,0,0,0,-1,1392,1093,0,0
175,-69,0,0,0,0,0,0,0,0,0,-1,1399,1093,0,0
182,-69,0,0,0,0,0,0,0,0,0,-1,1406,1093,0,0
189,-69,0,0,0,0,0,0,0,0,0,-1,1413,1093,0,0
196,-69,0,0,0,0,0,0,0,0,0,-1,1420,1093,0,0
203,-69,0,0,0,0,0,0,0,0,0,-1,1427,1093,0,0
210,-69,0,0,0,0,0,0,0,0,0,-1,1434,1093,0,0
217,-69,0,0,0,0,0,0,0,0,0,-1,1441,1093,0,0
224,-69,0,0,0,0,0,0,0,0,0,-1,1448,1093,0,0
231,-69,0,0,0,0,0,0,0,0,0,-1,1455,1093,0,0
238,-69,0,0,0,0,0,0,0,0,0,-1,1462,1093,0,0
245,-69,0,0,0,0,0,0,0,0,0,-1,1469,1093,0,0
252,-69,0,0,0,0,0,0,0,0,0,-1,1476,1093,0,0
259,-69,0,0,0,0,0,0,0,0,0,-1,1483,1093,0,0
266,-69,0,0,0,0,0,0,0,0,0,-1,1490,1093,0,0
273,-69,0,0,0,0,0,0,0,0,0,-1,1497,1093,0,0
280,-69,0,0,0,0,0,0,0,0,0,-1,1504,1093,0,0
287,-69,0,0,0,0,0,0,0,0,0,-1,1511,1093,0,0
294,-69,0,0,0,0,0,0,0,0,0,-1,1518,1093,0,0
301,-69,0,0,0,0,0,0,0,0,0,-1,1525,1093,0,0
308,-69,0,0,0,0,0,0,0,0,0,-1,1532,1093,0,0
315,-69,0,0,0,0,0,0,0,0,0,-1,1539,1093,0,0
322,-69,0,0,0,0,0,0,0,0,0,-1,1546,1093,0,0
329,-69,0,0,0,0,0,0,0,0,0,-1,1553,1093,0,0
336,-69,0,0,0,0,0,0,0,0,0,-1,1560,1093,0,0
343,-69,0,0,0,0,0,0,0,0,0,-1,1567,1093,0,0
350,-69,0,0,0,0,0,0,0,0,0,-1,1574,1093,0,0
357,-69,0,0,0,0,0,0,0,0,0,-1,1581,1093,0,0
364,-69,0,0,0,0,0,0,0,0,0,-1,1588,1093,0,0
371,-69,0,0,0,0,0,0,0,0,0,-1,1595,1093,0,0
378,-69,0,0,0,0,0,0,0,0,0,-1,1602,1093,0,0
385,-69,0,0,0,0,0,0,0,0,0,-1,1609,1093,0,0
392,-69,0,0,0,0,0,0,0,0,0,-1,1616,1093,0,0
399,-69,0,0,0,0,0,0,0,0,0,-1,1623,1093,0,0
406,-69,0,0,0,0,0,0,0,0,0,-1,1630,1093,0,0
413,-69,0,0,0,0,0,0,0,0,0,-1,1637,1093,0,0
420,-69,0,0,0,0,0,0,0,0,0,-1,1644,1093,0,0
427,-69,0,0,0,0,0,0,0,0,0,-1,1651,1093,0,0
434,-69,0,0,0,0,0,0,0,0,0,-1,1658,1093,0,0
441,-69,0,0,0,0,0,0,0,0,0,-1,1665,1093,0,0
448,-69,0,0,0,0,0,0,0,0,0,-1,1672,1093,0,0
455,-69,0,0,0,0,0,0,0,0,0,-1,1679,1093,0,0
462,-69,0,0,0,0,0,0,0,0,0,-1,1686,1093,0,0
469,-69,0,0,0,0,0,0,0,0,0,-1,1693,1093,0,0
476,-69,0,0,0,0,0,0,0,0,0,-1,1700,1093,0,0
483,-69,0,0,0,0,0,0,0,0,0,-1,1707,1093,0,0
490,-69,0,0,0,0,0,0,0,0,0,-1,1714,1093,0,0
497,-69,0,0,0,0,0,0,0,0,0,-1,1721,1093,0,0
504,-69,0,0,0,0,0,0,0,0,0,-1,1728,1093,0,0
511,-69,0,0,0,0,0,0,0,0,0,-1,1735,1093,0,0
518,-69,0,0,0,0,0,0,0,0,0,-1,1742,1093,0,0
525,-69,0,0,0,0,0,0,0,0,0,-1,1749,1093,0,0
532,-69,0,0,0,0,0,0,0,0,0,-1,1756,1093,0,0
539,-69,0,0,0,0,0,0,0,0,0,-1,1763,1093,0,0
546,-69,0,0,0,0,0,0,0,0,0,-1,1770,1093,0,0
553,-69,0,0,0,0,0,0,0,0,0,-1,1777,1093,0,0
560,-69,0,0,0,0,0,0,0,0,0,-1,1784,1093,0,0
567,-69,0,0,0,0,0,0,0,0,0,-1,1791,1093,0,0
574,-69,0,0,0,0,0,0,0,0,0,-1,1798,1093,0,0
581,-69,0,0,0,0,0,0,0,0,0,-1,1805,1093,0,0
588,-69,0,0,0,0,0,0,0,0,0,-1,1812,1093,0,0
595,-69,0,0,0,0,0,0,0,0,0,-1,1819,1093,0,0
602,-69,0,0,0,0,0,0,0,0,0,-1,1826,1093,0,0
609,-69,0,0,0,0,0,0,0,0,0,-1,1833,1093,0,0
616,-69,0,0,0,0,0,0,0,0,0,-1,1840,1093,0,0
623,-69,0,0,0,0,0,0,0,0,0,-1,1847,1093,0,0
630,-69,0,0,0,0,0,0,0,0,0,-1,1854,1093,0,0
637,-69,0,0,0,0,0,0,0,0,0,-1,1861,1093,0,0
644,-69,0,0,0,0,0,0,0,0,0,-1,1868,1093,0,0
651,-69,61.2527,2.60889,0.00362744,-0.00183468,-0.000535129,0.00367937,-0.00188662,-0.0967452,0.00326862,0.042791,1875,1093,61.2527,-2.6089
658,-69,61.2997,2.71277,0.00235959,-0.00112673,-3.92584e-05,0.00236003,-0.00112717,-0.0112588,0.00205485,0.0413289,1882,1093,61.2997,-2.7128
665,-69,61.3835,2.63025,0.00152335,-0.000639143,0.000154801,0.00153438,-0.000650168,0.0711011,0.00129523,0.0401008,1889,1093,61.3836,-2.63023
672,-69,61.2297,2.69678,0.000957467,-0.000197146,0.000209238,0.000994216,-0.000233895,0.173856,0.000752983,0.039519,1896,1093,61.2298,-2.69684
679,-69,61.1718,2.8136,0.000504968,0.000183476,0.000112913,0.000540662,0.000147782,0.306178,0.000322665,0.0374898,1903,1093,61.1717,-2.81362
686,-69,61.2372,2.72437,0.00021236,0.000154319,0.000168751,0.000354568,1.21108e-05,0.700246,0.000232447,0.0369326,1910,1093,61.2372,-2.72442
693,-69,61.2168,2.67517,0.000114027,-1.43229e-05,0.000276081,0.000333294,-0.00023359,0.671202,0.000328974,0.0331208,1917,1093,61.2168,-2.67512
700,-69,61.2466,2.65271,5.78105e-05,-7.11679e-05,0.000519353,0.000516663,-0.00053002,0.723628,0.000604319,0.0271645,1924,1093,61.2466,-2.65268
707,-69,61.2559,2.66467,-0.000175943,-5.44132e-05,0.000803956,0.000691072,-0.000921427,0.823117,0.000934138,0.0215617,1931,1093,61.2558,-2.6647
714,-69,61.2665,2.57642,-0.000523184,6.93317e-05,0.00115164,0.000962213,-0.00141607,0.911292,0.00138141,0.031405,1938,1093,61.2664,-2.5764
721,-69,61.2576,2.45325,0,0,0,0,0,0,0,-1,1945,1093,61.2575,-2.45331
728,-69,58.5819,7.89111,0,0,0,0,0,0,0,-1,1952,1093,58.5819,-7.89116
735,-69,58.9164,7.42151,-0.00215116,0.00144135,0.0015667,0.0020286,-0.00273841,1.21217,0.00276239,0.0412808,1959,1093,58.9163,-7.4215
742,-69,58.85,7.09998,-0.00237599,0.00209982,0.00141415,0.00250918,-0.00278535,1.28902,0.00305819,0.0307695,1966,1093,58.85,-7.09999
749,-69,58.6531,6.65979,-0.00262874,0.00329282,0.00115937,0.00351172,-0.00284763,1.38419,0.00367824,0.0315819,1973,1093,58.6531,-6.65973
756,-69,58.7346,6.33276,-0.0027072,0.0053104,0.000274005,0.00531976,-0.00271655,1.53667,0.00472021,0.0164952,1980,1093,58.7346,-6.33282
763,-69,58.7341,5.95154,-0.00256781,0.00798628,-0.00158089,0.00821799,-0.00279952,-1.42526,0.00661242,0.0183015,1987,1093,58.7341,-5.9515
770,-69,58.6548,5.62292,-0.00161314,0.0117582,-0.00473515,0.0132652,-0.00312014,-1.26268,0.0100464,0.0209483,1994,1093,58.6549,-5.62294
777,-69,58.5132,5.25549,0.000170236,0.016384,-0.0089592,0.0203597,-0.00380546,-1.15315,0.0150034,0.0264894,2001,1093,58.5131,-5.25549
784,-69,58.4587,4.67297,0.00258766,0.0214955,-0.0139588,0.0289005,-0.00481738,-1.08305,0.0210573,0.0339408,2008,1093,58.4587,-4.67296
791,-69,58.3557,4.12329,0,0,0,0,0,0,0,-1,2015,1093,58.3558,-4.12333
798,-69,58.7732,3.60486,0.0103213,0.0340207,-0.0275535,0.0521645,-0.00782246,-0.988473,0.0376556,0.0469281,2022,1093,58.7733,-3.60487
805,-69,58.9553,2.61377,0.016108,0.0419299,-0.0364913,0.0677269,-0.00968904,-0.95543,0.0487033,0.0478862,2029,1093,58.9554,-2.61375
812,-69,58.9915,1.64514,0,0,0,0,0,0,0,-1,2036,1093,58.9914,-1.64508
-700,-76,0,0,0,0,0,0,0,0,0,-1,524,1100,0,0
-693,-76,-41.2421,-4.56689,0.0665211,0.06151,-0.0627334,0.126799,0.00123213,-0.765439,0.0841249,0.0448215,531,1100,-41.2421,4.56688
-686,-76,-40.6638,-3.3512,0.0561167,0.0551618,-0.0423151,0.097957,0.0133215,-0.779757,0.0613482,0.0455037,538,1100,-40.6638,3.35121
-679,-76,-44.7414,-1.32593,0,0,0,0,0,0,0,-1,545,1100,-44.7414,1.32595
-672,-76,-44.3458,-0.542236,0.0361175,0.0408426,-0.015465,0.0541246,0.0228356,-0.861196,0.0313756,0.0464724,552,1100,-44.3458,0.542254
-665,-76,-43.9861,0.277466,0.0273755,0.0340073,-0.00743108,0.0388287,0.022554,-0.99525,0.0225153,0.0463427,559,1100,-43.9861,-0.277515
-658,-76,-43.8273,1.24646,0.0199049,0.0276716,-0.00220333,0.0282531,0.0193234,-1.31275,0.0166758,0.0488639,566,1100,-43.8273,-1.24643
-651,-76,-43.481,2.14771,0.0139846,0.0219081,0.000768172,0.0219818,0.0139108,1.47504,0.0128396,0.03454,573,1100,-43.481,-2.14769
-644,-76,-43.5512,2.59875,0.00976705,0.016945,0.00215677,0.0175432,0.00916885,1.30024,0.010132,0.0123847,580,1100,-43.5512,-2.59875
-637,-76,-43.6698,2.99231,0.00607576,0.0118276,0.00238835,0.01269,0.00521334,1.22427,0.00736531,0.0149485,587,1100,-43.6698,-2.99226
-630,-76,-43.7247,3.39551,0.00311456,0.00742519,0.00183041,0.00809756,0.0024422,1.21877,0.00479625,0.0157258,594,1100,-43.7247,-3.39548
-623,-76,-43.754,3.81787,0.0021038,0.00422024,0.000904521,0.00455414,0.00176991,1.21717,0.00265098,0.0196207,601,1100,-43.7539,-3.81788
-616,-76,-43.8011,4.27271,0.00207729,0.00183883,0.000135254,0.00213836,0.00177776,0.42415,0.00132187,0.0199362,608,1100,-43.8012,-4.27266
-609,-76,-43.8018,4.6897,0.00225337,0.000437602,-0.000850981,0.00258984,0.00010113,-0.376528,0.00169386,0.0212354,615,1100,-43.8018,-4.6897
-602,-76,-43.7241,5.13635,0.00227311,-0.00014712,-0.00142228,0.00293041,-0.000804423,-0.432911,0.00226977,0.0200852,622,1100,-43.7241,-5.13641
-595,-76,-43.709,5.52063,0.0023058,-0.000307307,-0.00184284,0.00325826,-0.00125976,-0.477031,0.0026922,0.0370915,629,1100,-43.709,-5.52066
-588,-76,-43.7756,5.85938,0,0,0,0,0,0,0,-1,636,1100,-43.7756,-5.85942
-581,-76,-46.2913,0.807495,0,0,0,0,0,0,0,-1,643,1100,-46.2913,-0.80751
-574,-76,-46.3391,0.785522,0.00237796,-0.000326833,-0.00197728,0.00342111,-0.00136998,-0.485456,0.00284938,0.0357131,650,1100,-46.3391,-0.785473
-567,-76,-46.2487,0.809082,0.00215437,4.9556e-05,-0.00199966,0.00336166,-0.00115773,-0.543168,0.00271072,0.0427132,657,1100,-46.2487,-0.809132
-560,-76,-46.1313,0.847656,0.0015955,0.00061488,-0.00207412,0.00323648,-0.0010261,-0.669332,0.00256893,0.0417484,664,1100,-46.1313,-0.847684
-553,-76,-46.1919,1.00806,0.000509923,0.00125255,-0.00223724,0.00314909,-0.00138661,-0.867633,0.00268378,0.0436898,671,1100,-46.1919,-1.00801
-546,-76,-46.2566,0.959961,-0.000811243,0.00180378,-0.00247603,0.00329632,-0.00230379,-1.02832,0.00325011,0.0445999,678,1100,-46.2566,-0.960004
-539,-76,-46.2404,0.835571,-0.00188319,0.00153081,-0.00311397,0.00337496,-0.00372734,-1.03612,0.0041022,0.0426596,685,1100,-46.2404,-0.835513
-532,-76,-46.0663,1.03088,-0.00330015,0.00120852,-0.00349027,0.00310918,-0.00520082,-1.07214,0.00484818,0.042698,692,1100,-46.0663,-1.03091
-525,-76,0,0,0,0,0,0,0,0,0,-1,699,1100,0,0
-518,-76,0,0,0,0,0,0,0,0,0,-1,706,1100,0,0
-511,-76,0,0,0,0,0,0,0,0,0,-1,713,1100,0,0
-504,-76,0,0,0,0,0,0,0,0,0,-1,720,1100,0,0
-497,-76,0,0,0,0,0,0,0,0,0,-1,727,1100,0,0
-490,-76,0,0,0,0,0,0,0,0,0,-1,734,1100,0,0
-483,-76,0,0,0,0,0,0,0,0,0,-1,741,1100,0,0
-476,-76,0,0,0,0,0,0,0,0,0,-1,748,1100,0,0
-469,-76,0,0,0,0,0,0,0,0,0,-1,755,1100,0,0
-462,-76,0,0,0,0,0,0,0,0,0,-1,762,1100,0,0
-455,-76,0,0,0,0,0,0,0,0,0,-1,769,1100,0,0
-448,-76,0,0,0,0,0,0,0,0,0,-1,776,1100,0,0
-441,-76,0,0,0,0,0,0,0,0,0,-1,783,1100,0,0
-434,-76,0,0,0,0,0,0,0,0,0,-1,790,1100,0,0
-427,-76,0,0,0,0,0,0,0,0,0,-1,797,1100,0,0
-420,-76,0,0,0,0,0,0,0,0,0,-1,804,1100,0,0
-413,-76,0,0,0,0,0,0,0,0,0,-1,811,1100,0,0
-406,-76,0,0,0,0,0,0,0,0,0,-1,818,1100,0,0
-399,-76,0,0,0,0,0,0,0,0,0,-1,825,1100,0,0
-392,-76,0,0,0,0,0,0,0,0,0,-1,832,1100,0,0
-385,-76,0,0,0,0,0,0,0,0,0,-1,839,1100,0,0
-378,-76,0,0,0,0,0,0,0,0,0,-1,846,1100,0,0
-371,-76,0,0,0,0,0,0,0,0,0,-1,853,1100,0,0
-364,-76,0,0,0,0,0,0,0,0,0,-1,860,1100,0,0
-357,-76,0,0,0,0,0,0,0,0,0,-1,867,1100,0,0
-350,-76,0,0,0,0,0,0,0,0,0,-1,874,1100,0,0
-343,-76,0,0,0,0,0,0,0,0,0,-1,881,1100,0,0
-336,-76,0,0,0,0,0,0,0,0,0,-1,888,1100,0,0
-329,-76,0,0,0,0,0,0,0,0,0,-1,895,1100,0,0
-322,-76,0,0,0,0,0,0,0,0,0,-1,902,1100,0,0
-315,-76,0,0,0,0,0,0,0,0,0,-1,909,1100,0,0
-308,-76,0,0,0,0,0,0,0,0,0,-1,916,1100,0,0
-301,-76,0,0,0,0,0,0,0,0,0,-1,923,1100,0,0
-294,-76,0,0,0,0,0,0,0,0,0,-1,930,1100,0,0
-287,-76,0,0,0,0,0,0,0,0,0,-1,937,1100,0,0
-280,-76,0,0,0,0,0,0,0,0,0,-1,944,1100,0,0
-273,-76,0,0,0,0,0,0,0,0,0,-1,951,1100,0,0
-266,-76,0,0,0,0,0,0,0,0,0,-1,958,1100,0,0
-259,-76,0,0,0,0,0,0,0,0,0,-1,965,1100,0,0
-252,-76,0,0,0,0,0,0,0,0,0,-1,972,1100,0,0
-245,-76,0,0,0,0,0,0,0,0,0,-1,979,1100,0,0
-238,-76,0,0,0,0,0,0,0,0,0,-1,986,1100,0,0
-231,-76,0,0,0,0,0,0,0,0,0,-1,993,1100,0,0
-224,-76,0,0,0,0,0,0,0,0,0,-1,1000,1100,0,0
-217,-76,0,0,0,0,0,0,0,0,0,-1,1007,1100,0,0
-210,-76,0,0,0,0,0,0,0,0,0,-1,1014,1100,0,0
-203,-76,0,0,0,0,0,0,0,0,0,-1,1021,1100,0,0
-196,-76,0,0,0,0,0,0,0,0,0,-1,1028,1100,0,0
-189,-76,0,0,0,0,0,0,0,0,0,-1,1035,1100,0,0
-182,-76,0,0,0,0,0,0,0,0,0,-1,1042,1100,0,0
-175,-76,0,0,0,0,0,0,0,0,0,-1,1049,1100,0,0
-168,-76,0,0,0,0,0,0,0,0,0,-1,1056,1100,0,0
-161,-76,0,0,0,0,0,0,0,0,0,-1,1063,1100,0,0
-154,-76,0,0,0,0,0,0,0,0,0,-1,1070,1100,0,0
-147,-76,0,0,0,0,0,0,0,0,0,-1,1077,1100,0,0
-140,-76,0,0,0,0,0,0,0,0,0,-1,1084,1100,0,0
-133,-76,0,0,0,0,0,0,0,0,0,-1,1091,1100,0,0
-126,-76,0,0,0,0,0,0,0,0,0,-1,1098,1100,0,0
-119,-76,0,0,0,0,0,0,0,0,0,-1,1105,1100,0,0
-112,-76,0,0,0,0,0,0,0,0,0,-1,1112,1100,0,0
-105,-76,0,0,0,0,0,0,0,0,0,-1,1119,1100,0,0
-98,-76,0,0,0,0,0,0,0,0,0,-1,1126,1100,0,0
-91,-76,0,0,0,0,0,0,0,0,0,-1,1133,1100,0,0
-84,-76,0,0,0,0,0,0,0,0,0,-1,1140,1100,0,0
-77,-76,0,0,0,0,0,0,0,0,0,-1,1147,1100,0,0
-70,-76,0,0,0,0,0,0,0,0,0,-1,1154,1100,0,0
-63,-76,0,0,0,0,0,0,0,0,0,-1,1161,1100,0,0
-56,-76,0,0,0,0,0,0,0,0,0,-1,1168,1100,0,0
-49,-76,0,0,0,0,0,0,0,0,0,-1,1175,1100,0,0
-42,-76,0,0,0,0,0,0,0,0,0,-1,1182,1100,0,0
-35,-76,0,0,0,0,0,0,0,0,0,-1,1189,1100,0,0
-28,-76,0,0,0,0,0,0,0,0,0,-1,1196,1100,0,0
-21,-76,0,0,0,0,0,0,0,0,0,-1,1203,1100,0,0
-14,-76,0,0,0,0,0,0,0,0,0,-1,1210,1100,0,0
-7,-76,0,0,0,0,0,0,0,0,0,-1,1217,1100,0,0
0,-76,0,0,0,0,0,0,0,0,0,-1,1224,1100,0,0
7,-76,0,0,0,0,0,0,0,0,0,-1,1231,1100,0,0
14,-76,0,0,0,0,0,0,0,0,0,-1,1238,1100,0,0
21,-76,0,0,0,0,0,0,0,0,0,-1,1245,1100,0,0
28,-76,0,0,0,0,0,0,0,0,0,-1,1252,1100,0,0
35,-76,0,0,0,0,0,0,0,0,0,-1,1259,1100,0,0
42,-76,0,0,0,0,0,0,0,0,0,-1,1266,1100,0,0
49,-76,0,0,0,0,0,0,0,0,0,-1,1273,1100,0,0
56,-76,0,0,0,0,0,0,0,0,0,-1,1280,1100,0,0
63,-76,0,0,0,0,0,0,0,0,0,-1,1287,1100,0,0
70,-76,0,0,0,0,0,0,0,0,0,-1,1294,1100,0,0
77,-76,0,0,0,0,0,0,0,0,0,-1,1301,1100,0,0
84,-76,0,0,0,0,0,0,0,0,0,-1,1308,1100,0,0
91,-76,0,0,0,0,0,0,0,0,0,-1,1315,1100,0,0
98,-76,0,0,0,0,0,0,0,0,0,-1,1322,1100,0,0
105,-76,0,0,0,0,0,0,0,0,0,-1,1329,1100,0,0
112,-76,0,0,0,0,0,0,0,0,0,-1,1336,1100,0,0
119,-76,0,0,0,0,0,0,0,0,0,-1,1343,1100,0,0
126,-76,0,0,0,0,0,0,0,0,0,-1,1350,1100,0,0
133,-76,0,0,0,0,0,0,0,0,0,-1,1357,1100,0,0
140,-76,0,0,0,0,0,0,0,0,0,-1,1364,1100,0,0
147,-76,0,0,0,0,0,0,0,0,0,-1,1371,1100,0,0
154,-76,0,0,0,0,0,0,0,0,0,-1,1378,1100,0,0
161,-76,0,0,0,0,0,0,0,0,0,-1,1385,1100,0,0
168,-76,0,0,0,0,0,0,0,0,0,-1,1392,1100,0,0
175,-76,0,0,0,0,0,0,0,0,0,-1,1399,1100,0,0
182,-76,0,0,0,0,0,0,0,0,0,-1,1406,1100,0,0
189,-76,0,0,0,0,0,0,0,0,0,-1,1413,1100,0,0
196,-76,0,0,0,0,0,0,0,0,0,-1,1420,1100,0,0
203,-76,0,0,0,0,0,0,0,0,0,-1,1427,1100,0,0
210,-76,0,0,0,0,0,0,0,0,0,-1,1434,1100,0,0
217,-76,0,0,0,0,0,0,0,0,0,-1,1441,1100,0,0
224,-76,0,0,0,0,0,0,0,0,0,-1,1448,1100,0,0
231,-76,0,0,0,0,0,0,0,0,0,-1,1455,1100,0,0
238,-76,0,0,0,0,0,0,0,0,0,-1,1462,1100,0,0
245,-76,0,0,0,0,0,0,0,0,0,-1,1469,1100,0,0
252,-76,0,0,0,0,0,0,0,0,0,-1,1476,1100,0,0
259,-76,0,0,0,0,0,0,0,0,0,-1,1483,1100,0,0
266,-76,0,0,0,0,0,0,0,0,0,-1,1490,1100,0,0
273,-76,0,0,0,0,0,0,0,0,0,-1,1497,1100,0,0
280,-76,0,0,0,0,0,0,0,0,0,-1,1504,1100,0,0
287,-76,0,0,0,0,0,0,0,0,0,-1,1511,1100,0,0
294,-76,0,0,0,0,0,0,0,0,0,-1,1518,1100,0,0
301,-76,0,0,0,0,0,0,0,0,0,-1,1525,1100,0,0
308,-76,0,0,0,0,0,0,0,0,0,-1,1532,1100,0,0
315,-76,0,0,0,0,0,0,0,0,0,-1,1539,1100,0,0
322,-76,0,0,0,0,0,0,0,0,0,-1,1546,1100,0,0
329,-76,0,0,0,0,0,0,0,0,0,-1,1553,1100,0,0
336,-76,0,0,0,0,0,0,0,0,0,-1,1560,1100,0,0
343,-76,0,0,0,0,0,0,0,0,0,-1,1567,1100,0,0
350,-76,0,0,0,0,0,0,0,0,0,-1,1574,1100,0,0
357,-76,0,0,0,0,0,0,0,0,0,-1,1581,1100,0,0
364,-76,0,0,0,0,0,0,0,0,0,-1,1588,1100,0,0
371,-76,0,0,0,0,0,0,0,0,0,-1,1595,1100,0,0
378,-76,0,0,0,0,0,0,0,0,0,-1,1602,1100,0,0
385,-76,0,0,0,0,0,0,0,0,0,-1,1609,1100,0,0
392,-76,0,0,0,0,0,0,0,0,0,-1,1616,1100,0,0
399,-76,0,0,0,0,0,0,0,0,0,-1,1623,1100,0,0
406,-76,0,0,0,0,0,0,0,0,0,-1,1630,1100,0,0
413,-76,0,0,0,0,0,0,0,0,0,-1,1637,1100,0,0
420,-76,0,0,0,0,0,0,0,0,0,-1,1644,1100,0,0
427,-76,0,0,0,0,0,0,0,0,0,-1,1651,1100,0,0
434,-76,0,0,0,0,0,0,0,0,0,-1,1658,1100,0,0
441,-76,0,0,0,0,0,0,0,0,0,-1,1665,1100,0,0
448,-76,0,0,0,0,0,0,0,0,0,-1,1672,1100,0,0
455,-76,0,0,0,0,0,0,0,0,0,-1,1679,1100,0,0
462,-76,0,0,0,0,0,0,0,0,0,-1,1686,1100,0,0
469,-76,0,0,0,0,0,0,0,0,0,-1,1693,1100,0,0
476,-76,0,0,0,0,0,0,0,0,0,-1,1700,1100,0,0
483,-76,0,0,0,0,0,0,0,0,0,-1,1707,1100,0,0
490,-76,0,0,0,0,0,0,0,0,0,-1,1714,1100,0,0
497,-76,0,0,0,0,0,0,0,0,0,-1,1721,1100,0,0
504,-76,0,0,0,0,0,0,0,0,0,-1,1728,1100,0,0
511,-76,0,0,0,0,0,0,0,0,0,-1,1735,1100,0,0
518,-76,0,0,0,0,0,0,0,0,0,-1,1742,1100,0,0
525,-76,0,0,0,0,0,0,0,0,0,-1,1749,1100,0,0
532,-76,0,0,0,0,0,0,0,0,0,-1,1756,1100,0,0
539,-76,0,0,0,0,0,0,0,0,0,-1,1763,1100,0,0
546,-76,0,0,0,0,0,0,0,0,0,-1,1770,1100,0,0
553,-76,0,0,0,0,0,0,0,0,0,-1,1777,1100,0,0
560,-76,0,0,0,0,0,0,0,0,0,-1,1784,1100,0,0
567,-76,0,0,0,0,0,0,0,0,0,-1,1791,1100,0,0
574,-76,0,0,0,0,0,0,0,0,0,-1,1798,1100,0,0
581,-76,0,0,0,0,0,0,0,0,0,-1,1805,1100,0,0
588,-76,0,0,0,0,0,0,0,0,0,-1,1812,1100,0,0
595,-76,0,0,0,0,0,0,0,0,0,-1,1819,1100,0,0
602,-76,0,0,0,0,0,0,0,0,0,-1,1826,1100,0,0
609,-76,0,0,0,0,0,0,0,0,0,-1,1833,1100,0,0
616,-76,0,0,0,0,0,0,0,0,0,-1,1840,1100,0,0
623,-76,0,0,0,0,0,0,0,0,0,-1,1847,1100,0,0
630,-76,0,0,0,0,0,0,0,0,0,-1,1854,1100,0,0
637,-76,0,0,0,0,0,0,0,0,0,-1,1861,1100,0,0
644,-76,0,0,0,0,0,0,0,0,0,-1,1868,1100,0,0
651,-76,61.2821,2.54321,0.00412217,-0.00156559,-0.00140205,0.004449,-0.00189242,-0.229019,0.00375909,0.0423558,1875,1100,61.2822,-2.54326
658,-76,61.3071,2.6051,0.00271733,-0.000827642,-0.000611895,0.00281998,-0.000930288,-0.166204,0.00225498,0.0426881,1882,1100,61.3071,-2.60512
665,-76,61.3427,2.45203,0.00176664,-0.000333436,-0.000214691,0.00178836,-0.000355159,-0.10084,0.00132657,0.0370316,1889,1100,61.3426,-2.45207
672,-76,61.2998,2.61804,0.00109736,6.81931e-05,-2.80753e-05,0.00109813,6.74278e-05,-0.0272525,0.000710676,0.0357012,1896,1100,61.2997,-2.61802
679,-76,61.2811,2.70471,0.00056235,0.000368378,-4.71244e-05,0.000573192,0.000357535,-0.226147,0.000334295,0.0348244,1903,1100,61.2811,-2.7047
686,-76,61.287,2.65771,0.00032464,0.000262152,3.66363e-05,0.000341546,0.000245246,0.432338,0.000203346,0.0339213,1910,1100,61.287,-2.6577
693,-76,61.2587,2.67517,0.000308154,4.55414e-05,0.000140615,0.000369237,-1.55424e-05,0.409809,0.000251499,0.0346529,1917,1100,61.2587,-2.67519
700,-76,61.2435,2.67224,0.000293671,-4.32274e-05,0.000377481,0.000538583,-0.000288139,0.575534,0.000484553,0.0319058,1924,1100,61.2435,-2.67226
707,-76,61.2382,2.68188,0.000122313,-4.91232e-05,0.000654752,0.000696934,-0.000623744,0.72031,0.000762884,0.0240848,1931,1100,61.2381,-2.68186
714,-76,61.2775,2.53369,0,0,0,0,0,0,0,-1,1938,1100,61.2775,-2.53371
721,-76,45.1713,3.04919,0,0,0,0,0,0,0,-1,1945,1100,45.1713,-3.04915
728,-76,57.5902,7.90552,0,0,0,0,0,0,0,-1,1952,1100,57.5902,-7.90554
735,-76,58.0883,7.57361,-0.00165384,0.00118031,0.00133125,0.00170754,-0.00218107,1.1937,0.00225063,0.0477697,1959,1100,58.0883,-7.57363
742,-76,58.376,7.16125,-0.00201454,0.00189526,0.00122448,0.00224709,-0.00236636,1.29101,0.00266387,0.0314023,1966,1100,58.3759,-7.16124
749,-76,58.2679,6.69971,-0.00240094,0.00320836,0.000988842,0.00337758,-0.00257015,1.40131,0.00344446,0.0296555,1973,1100,58.2679,-6.69974
756,-76,58.3248,6.33191,-0.00262448,0.00531537,0.000154706,0.00531839,-0.0026275,1.55132,0.00467442,0.0164325,1980,1100,58.3249,-6.33195
763,-76,58.2813,5.93384,-0.00270615,0.00826117,-0.00166268,0.00850769,-0.00295268,-1.4236,0.00687086,0.0179006,1987,1100,58.2813,-5.93378
770,-76,58.1714,5.61023,-0.00209119,0.0124854,-0.00477549,0.0139106,-0.00351636,-1.28078,0.0106413,0.0207201,1994,1100,58.1714,-5.61021
777,-76,58.0435,5.32935,-0.000703973,0.0176536,-0.00888723,0.0212511,-0.00430144,-1.18617,0.0157976,0.0240922,2001,1100,58.0434,-5.3293
784,-76,58.0256,4.72217,0.00140708,0.0234797,-0.0137831,0.0301005,-0.00521374,-1.12299,0.0220117,0.033046,2008,1100,58.0257,-4.72218
791,-76,58.1379,4.1261,0.00456068,0.0302752,-0.0198014,0.0410274,-0.0061915,-1.07334,0.0296319,0.0417021,2015,1100,58.1379,-4.1261
798,-76,58.1543,3.5459,0.00915927,0.0383414,-0.0272385,0.0546507,-0.00715004,-1.03129,0.0390361,0.0460768,2022,1100,58.1543,-3.54585
805,-76,58.2358,2.62939,0.0154404,0.0480277,-0.0361954,0.0714277,-0.00795965,-0.996891,0.0504813,0.0468777,2029,1100,58.2357,-2.62941
812,-76,58.3735,1.4895,0,0,0,0,0,0,0,-1,2036,1100,58.3734,-1.48953
-700,-83,0,0,0,0,0,0,0,0,0,-1,524,1107,0,0
-693,-83,-39.2366,-4.99353,0,0,0,0,0,0,0,-1,531,1107,-39.2366,4.99352
-686,-83,-54.8366,-0.59375,0,0,0,0,0,0,0,-1,538,1107,-54.8366,0.593746
-679,-83,-43.2623,-1.84412,0,0,0,0,0,0,0,-1,545,1107,-43.2623,1.84408
-672,-83,-43.1789,-1.15161,0.0301472,0.0413911,-0.0225726,0.0590313,0.0125069,-0.907446,0.0359186,0.0482894,552,1107,-43.1789,1.1516
-665,-83,-43.3681,-0.20874,0.0227628,0.0338566,-0.0128755,0.0423292,0.0142902,-0.988788,0.0248648,0.0485308,559,1107,-43.3681,0.208775
-658,-83,-43.3655,0.670898,0.0163604,0.0270512,-0.00627232,0.0299469,0.0134647,-1.13829,0.0173191,0.0438465,566,1107,-43.3655,-0.670945
-651,-83,-43.2392,1.81775,0.0112749,0.021059,-0.00220905,0.0215347,0.0107992,-1.35872,0.0124331,0.0344313,573,1107,-43.2392,-1.81777
-644,-83,-43.0474,2.51196,0.00768927,0.0159673,1.78795e-05,0.0159674,0.00768923,1.56864,0.00922085,0.0188798,580,1107,-43.0474,-2.51202
-637,-83,-43.1658,2.95496,0.00462214,0.0109485,0.000916212,0.0110785,0.00449212,1.42983,0.00643416,0.0129639,587,1107,-43.1658,-2.95494
-630,-83,-43.2286,3.41187,0.00222052,0.00679948,0.000924082,0.00697894,0.00204107,1.37898,0.00414338,0.0178075,594,1107,-43.2287,-3.4119
-623,-83,-43.2782,3.82458,0.00155022,0.00376276,0.000409846,0.00383624,0.00147674,1.3934,0.00223431,0.0188036,601,1107,-43.2782,-3.82461
-616,-83,-43.3746,4.27393,0.00166471,0.00150574,-8.5975e-05,0.00170231,0.00146814,-0.412313,0.00106543,0.0164246,608,1107,-43.3746,-4.27395
-609,-83,-43.3248,4.69641,0.00184557,0.000259329,-0.000906861,0.0022572,-0.000152307,-0.426103,0.00155805,0.0215125,615,1107,-43.3248,-4.69642
-602,-83,-43.3069,5.18274,0.00193167,-0.000238547,-0.00142809,0.00264013,-0.000947013,-0.460517,0.00214656,0.0194407,622,1107,-43.3069,-5.18275
-595,-83,-43.2355,5.60986,0.00206428,-0.000379981,-0.00184627,0.00305627,-0.00137197,-0.493035,0.00261756,0.0271588,629,1107,-43.2355,-5.60985
-588,-83,-43.2808,5.87598,0,0,0,0,0,0,0,-1,636,1107,-43.2808,-5.87603
-581,-83,-46.2879,0.840698,0,0,0,0,0,0,0,-1,643,1107,-46.2879,-0.840678
-574,-83,-46.2538,0.751099,0.00226792,-0.000643614,-0.00209512,0.00336338,-0.00173908,-0.481772,0.00299525,0.0367235,650,1107,-46.2538,-0.751144
-567,-83,-46.3292,0.659546,0.00218444,-0.00039806,-0.00218326,0.00342972,-0.00164333,-0.51835,0.00298884,0.04188,657,1107,-46.3293,-0.659539
-560,-83,-46.3082,0.477295,0.00180194,6.8383e-07,-0.00231189,0.00338243,-0.00157981,-0.59966,0.00292729,0.042186,664,1107,-46.3081,-0.477314
-553,-83,-46.2643,0.747681,0.000798485,0.000439928,-0.00253458,0.00316012,-0.0019217,-0.75009,0.00296289,0.0423401,671,1107,-46.2644,-0.747684
-546,-83,-46.3204,1.13074,-0.000474141,0.000794622,-0.0027925,0.00302389,-0.00270341,-0.897089,0.00330839,0.041751,678,1107,-46.3204,-1.13069
-539,-83,-46.1264,0.924561,0,0,0,0,0,0,0,-1,685,1107,-46.1264,-0.924569
-532,-83,-46.081,0.746216,0,0,0,0,0,0,0,-1,692,1107,-46.081,-0.746266
-525,-83,0,0,0,0,0,0,0,0,0,-1,699,1107,0,0
-518,-83,0,0,0,0,0,0,0,0,0,-1,706,1107,0,0
-511,-83,0,0,0,0,0,0,0,0,0,-1,713,1107,0,0
-504,-83,0,0,0,0,0,0,0,0,0,-1,720,1107,0,0
-497,-83,0,0,0,0,0,0,0,0,0,-1,727,1107,0,0
-490,-83,0,0,0,0,0,0,0,0,0,-1,734,1107,0,0
-483,-83,0,0,0,0,0,0,0,0,0,-1,741,1107,0,0
-476,-83,0,0,0,0,0,0,0,0,0,-1,748,1107,0,0
-469,-83,0,0,0,0,0,0,0,0,0,-1,755,1107,0,0
-462,-83,0,0,0,0,0,0,0,0,0,-1,762,1107,0,0
-455,-83,0,0,0,0,0,0,0,0,0,-1,769,1107,0,0
-448,-83,0,0,0,0,0,0,0,0,0,-1,776,1107,0,0
-441,-83,0,0,0,0,0,0,0,0,0,-1,783,1107,0,0
-434,-83,0,0,0,0,0,0,0,0,0,-1,790,1107,0,0
-427,-83,0,0,0,0,0,0,0,0,0,-1,797,1107,0,0
-420,-83,0,0,0,0,0,0,0,0,0,-1,804,1107,0,0
-413,-83,0,0,0,0,0,0,0,0,0,-1,811,1107,0,0
-406,-83,0,0,0,0,0,0,0,0,0,-1,818,1107,0,0
-399,-83,0,0,0,0,0,0,0,0,0,-1,825,1107,0,0
-392,-83,0,0,0,0,0,0,0,0,0,-1,832,1107,0,0
-385,-83,0,0,0,0,0,0,0,0,0,-1,839,1107,0,0
-378,-83,0,0,0,0,0,0,0,0,0,-1,846,1107,0,0
-371,-83,0,0,0,0,0,0,0,0,0,-1,853,1107,0,0
-364,-83,0,0,0,0,0,0,0,0,0,-1,860,1107,0,0
-357,-83,0,0,0,0,0,0,0,0,0,-1,867,1107,0,0
-350,-83,0,0,0,0,0,0,0,0,0,-1,874,1107,0,0
-343,-83,0,0,0,0,0,0,0,0,0,-1,881,1107,0,0
-336,-83,0,0,0,0,0,0,0,0,0,-1,888,1107,0,0
-329,-83,0,0,0,0,0,0,0,0,0,-1,895,1107,0,0
-322,-83,0,0,0,0,0,0,0,0,0,-1,902,1107,0,0
-315,-83,0,0,0,0,0,0,0,0,0,-1,909,1107,0,0
-308,-83,0,0,0,0,0,0,0,0,0,-1,916,1107,0,0
-301,-83,0,0,0,0,0,0,0,0,0,-1,923,1107,0,0
-294,-83,0,0,0,0,0,0,0,0,0,-1,930,1107,0,0
-287,-83,0,0,0,0,0,0,0,0,0,-1,937,1107,0,0
-280,-83,0,0,0,0,0,0,0,0,0,-1,944,1107,0,0
-273,-83,0,0,0,0,0,0,0,0,0,-1,951,1107,0,0
-266,-83,0,0,0,0,0,0,0,0,0,-1,958,1107,0,0
-259,-83,0,0,0,0,0,0,0,0,0,-1,965,1107,0,0
-252,-83,0,0,0,0,0,0,0,0,0,-1,972,1107,0,0
-245,-83,0,0,0,0,0,0,0,0,0,-1,979,1107,0,0
-238,-83,0,0,0,0,0,0,0,0,0,-1,986,1107,0,0
-231,-83,0,0,0,0,0,0,0,0,0,-1,993,1107,0,0
-224,-83,0,0,0,0,0,0,0,0,0,-1,1000,1107,0,0
-217,-83,0,0,0,0,0,0,0,0,0,-1,1007,1107,0,0
-210,-83,0,0,0,0,0,0,0,0,0,-1,1014,1107,0,0
-203,-83,0,0,0,0,0,0,0,0,0,-1,1021,1107,0,0
-196,-83,0,0,0,0,0,0,0,0,0,-1,1028,1107,0,0
-189,-83,0,0,0,0,0,0,0,0,0,-1,1035,1107,0,0
-182,-83,0,0,0,0,0,0,0,0,0,-1,1042,1107,0,0
-175,-83,0,0,0,0,0,0,0,0,0,-1,1049,1107,0,0
-168,-83,0,0,0,0,0,0,0,0,0,-1,1056,1107,0,0
-161,-83,0,0,0,0,0,0,0,0,0,-1,1063,1107,0,0
-154,-83,0,0,0,0,0,0,0,0,0,-1,1070,1107,0,0
-147,-83,0,0,0,0,0,0,0,0,0,-1,1077,1107,0,0
-140,-83,0,0,0,0,0,0,0,0,0,-1,1084,1107,0,0
-133,-83,0,0,0,0,0,0,0,0,0,-1,1091,1107,0,0
-126,-83,0,0,0,0,0,0,0,0,0,-1,1098,1107,0,0
-119,-83,0,0,0,0,0,0,0,0,0,-1,1105,1107,0,0
-112,-83,0,0,0,0,0,0,0,0,0,-1,1112,1107,0,0
-105,-83,0,0,0,0,0,0,0,0,0,-1,1119,1107,0,0
-98,-83,0,0,0,0,0,0,0,0,0,-1,1126,1107,0,0
-91,-83,0,0,0,0,0,0,0,0,0,-1,1133,1107,0,0
-84,-83,0,0,0,0,0,0,0,0,0,-1,1140,1107,0,0
-77,-83,0,0,0,0,0,0,0,0,0,-1,1147,1107,0,0
-70,-83,0,0,0,0,0,0,0,0,0,-1,1154,1107,0,0
-63,-83,0,0,0,0,0,0,0,0,0,-1,1161,1107,0,0
-56,-83,0,0,0,0,0,0,0,0,0,-1,1168,1107,0,0
-49,-83,0,0,0,0,0,0,0,0,0,-1,1175,1107,0,0
-42,-83,0,0,0,0,0,0,0,0,0,-1,1182,1107,0,0
-35,-83,0,0,0,0,0,0,0,0,0,-1,1189,1107,0,0
-28,-83,0,0,0,0,0,0,0,0,0,-1,1196,1107,0,0
-21,-83,0,0,0,0,0,0,0,0,0,-1,1203,1107,0,0
-14,-83,0,0,0,0,0,0,0,0,0,-1,1210,1107,0,0
-7,-83,0,0,0,0,0,0,0,0,0,-1,1217,1107,0,0
0,-83,0,0,0,0,0,0,0,0,0,-1,1224,1107,0,0
7,-83,0,0,0,0,0,0,0,0,0,-1,1231,1107,0,0
14,-83,0,0,0,0,0,0,0,0,0,-1,1238,1107,0,0
21,-83,0,0,0,0,0,0,0,0,0,-1,1245,1107,0,0
28,-83,0,0,0,0,0,0,0,0,0,-1,1252,1107,0,0
35,-83,0,0,0,0,0,0,0,0,0,-1,1259,1107,0,0
42,-83,0,0,0,0,0,0,0,0,0,-1,1266,1107,0,0
49,-83,0,0,0,0,0,0,0,0,0,-1,1273,1107,0,0
56,-83,0,0,0,0,0,0,0,0,0,-1,1280,1107,0,0
63,-83,0,0,0,0,0,0,0,0,0,-1,1287,1107,0,0
70,-83,0,0,0,0,0,0,0,0,0,-1,1294,1107,0,0
77,-83,0,0,0,0,0,0,0,0,0,-1,1301,1107,0,0
84,-83,0,0,0,0,0,0,0,0,0,-1,1308,1107,0,0
91,-83,0,0,0,0,0,0,0,0,0,-1,1315,1107,0,0
98,-83,0,0,0,0,0,0,0,0,0,-1,1322,1107,0,0
105,-83,0,0,0,0,0,0,0,0,0,-1,1329,1107,0,0
112,-83,0,0,0,0,0,0,0,0,0,-1,1336,1107,0,0
119,-83,0,0,0,0,0,0,0,0,0,-1,1343,1107,0,0
126,-83,0,0,0,0,0,0,0,0,0,-1,1350,1107,0,0
133,-83,0,0,0,0,0,0,0,0,0,-1,1357,1107,0,0
140,-83,0,0,0,0,0,0,0,0,0,-1,1364,1107,0,0
147,-83,0,0,0,0,0,0,0,0,0,-1,1371,1107,0,0
154,-83,0,0,0,0,0,0,0,0,0,-1,1378,1107,0,0
161,-83,0,0,0,0,0,0,0,0,0,-1,1385,1107,0,0
168,-83,0,0,0,0,0,0,0,0,0,-1,1392,1107,0,0
175,-83,0,0,0,0,0,0,0,0,0,-1,1399,1107,0,0
182,-83,0,0,0,0,0,0,0,0,0,-1,1406,1107,0,0
189,-83,0,0,0,0,0,0,0,0,0,-1,1413,1107,0,0
196,-83,0,0,0,0,0,0,0,0,0,-1,1420,1107,0,0
203,-83,0,0,0,0,0,0,0,0,0,-1,1427,1107,0,0
210,-83,0,0,0,0,0,0,0,0,0,-1,1434,1107,0,0
217,-83,0,0,0,0,0,0,0,0,0,-1,1441,1107,0,0
224,-83,0,0,0,0,0,0,0,0,0,-1,1448,1107,0,0
231,-83,0,0,0,0,0,0,0,0,0,-1,1455,1107,0,0
238,-83,0,0,0,0,0,0,0,0,0,-1,1462,1107,0,0
245,-83,0,0,0,0,0,0,0,0,0,-1,1469,1107,0,0
252,-83,0,0,0,0,0,0,0,0,0,-1,1476,1107,0,0
259,-83,0,0,0,0,0,0,0,0,0,-1,1483,1107,0,0
266,-83,0,0,0,0,0,0,0,0,0,-1,1490,1107,0,0
273,-83,0,0,0,0,0,0,0,0,0,-1,1497,1107,0,0
280,-83,0,0,0,0,0,0,0,0,0,-1,1504,1107,0,0
287,-83,0,0,0,0,0,0,0,0,0,-1,1511,1107,0,0
294,-83,0,0,0,0,0,0,0,0,0,-1,1518,1107,0,0
301,-83,0,0,0,0,0,0,0,0,0,-1,1525,1107,0,0
308,-83,0,0,0,0,0,0,0,0,0,-1,1532,1107,0,0
315,-83,0,0,0,0,0,0,0,0,0,-1,1539,1107,0,0
322,-83,0,0,0,0,0,0,0,0,0,-1,1546,1107,0,0
329,-83,0,0,0,0,0,0,0,0,0,-1,1553,1107,0,0
336,-83,0,0,0,0,0,0,0,0,0,-1,1560,1107,0,0
343,-83,0,0,0,0,0,0,0,0,0,-1,1567,1107,0,0
350,-83,0,0,0,0,0,0,0,0,0,-1,1574,1107,0,0
357,-83,0,0,0,0,0,0,0,0,0,-1,1581,1107,0,0
364,-83,0,0,0,0,0,0,0,0,0,-1,1588,1107,0,0
371,-83,0,0,0,0,0,0,0,0,0,-1,1595,1107,0,0
378,-83,0,0,0,0,0,0,0,0,0,-1,1602,1107,0,0
385,-83,0,0,0,0,0,0,0,0,0,-1,1609,1107,0,0
392,-83,0,0,0,0,0,0,0,0,0,-1,1616,1107,0,0
399,-83,0,0,0,0,0,0,0,0,0,-1,1623,1107,0,0
406,-83,0,0,0,0,0,0,0,0,0,-1,1630,1107,0,0
413,-83,0,0,0,0,0,0,0,0,0,-1,1637,1107,0,0
420,-83,0,0,0,0,0,0,0,0,0,-1,1644,1107,0,0
427,-83,0,0,0,0,0,0,0,0,0,-1,1651,1107,0,0
434,-83,0,0,0,0,0,0,0,0,0,-1,1658,1107,0,0
441,-83,0,0,0,0,0,0,0,0,0,-1,1665,1107,0,0
448,-83,0,0,0,0,0,0,0,0,0,-1,1672,1107,0,0
455,-83,0,0,0,0,0,0,0,0,0,-1,1679,1107,0,0
462,-83,0,0,0,0,0,0,0,0,0,-1,1686,1107,0,0
469,-83,0,0,0,0,0,0,0,0,0,-1,1693,1107,0,0
476,-83,0,0,0,0,0,0,0,0,0,-1,1700,1107,0,0
483,-83,0,0,0,0,0,0,0,0,0,-1,1707,1107,0,0
490,-83,0,0,0,0,0,0,0,0,0,-1,1714,1107,0,0
497,-83,0,0,0,0,0,0,0,0,0,-1,1721,1107,0,0
504,-83,0,0,0,0,0,0,0,0,0,-1,1728,1107,0,0
511,-83,0,0,0,0,0,0,0,0,0,-1,1735,1107,0,0
518,-83,0,0,0,0,0,0,0,0,0,-1,1742,1107,0,0
525,-83,0,0,0,0,0,0,0,0,0,-1,1749,1107,0,0
532,-83,0,0,0,0,0,0,0,0,0,-1,1756,1107,0,0
539,-83,0,0,0,0,0,0,0,0,0,-1,1763,1107,0,0
546,-83,0,0,0,0,0,0,0,0,0,-1,1770,1107,0,0
553,-83,0,0,0,0,0,0,0,0,0,-1,1777,1107,0,0
560,-83,0,0,0,0,0,0,0,0,0,-1,1784,1107,0,0
567,-83,0,0,0,0,0,0,0,0,0,-1,1791,1107,0,0
574,-83,0,0,0,0,0,0,0,0,0,-1,1798,1107,0,0
581,-83,0,0,0,0,0,0,0,0,0,-1,1805,1107,0,0
588,-83,0,0,0,0,0,0,0,0,0,-1,1812,1107,0,0
595,-83,0,0,0,0,0,0,0,0,0,-1,1819,1107,0,0
602,-83,0,0,0,0,0,0,0,0,0,-1,1826,1107,0,0
609,-83,0,0,0,0,0,0,0,0,0,-1,1833,1107,0,0
616,-83,0,0,0,0,0,0,0,0,0,-1,1840,1107,0,0
623,-83,0,0,0,0,0,0,0,0,0,-1,1847,1107,0,0
630,-83,0,0,0,0,0,0,0,0,0,-1,1854,1107,0,0
637,-83,0,0,0,0,0,0,0,0,0,-1,1861,1107,0,0
644,-83,61.2659,2.63831,0.00660384,-0.00241251,-0.00444215,0.00842467,-0.00423334,-0.389011,0.00744045,0.0362188,1868,1107,61.2658,-2.63826
651,-83,61.283,2.60938,0.00437786,-0.00141823,-0.00256417,0.00534939,-0.00238976,-0.362175,0.00457582,0.042383,1875,1107,61.283,-2.6094
658,-83,61.324,2.47693,0.00292751,-0.000783248,-0.00141465,0.0034053,-0.00126103,-0.325713,0.00278731,0.0448806,1882,1107,61.324,-2.47692
665,-83,61.228,2.47693,0.00191787,-0.000352408,-0.000745421,0.00214075,-0.000575279,-0.290527,0.00165264,0.0392982,1889,1107,61.2281,-2.47698
672,-83,61.1888,2.52832,0.00117325,-2.10928e-05,-0.000346076,0.00126628,-0.000114126,-0.262615,0.000884688,0.0367437,1896,1107,61.1888,-2.52836
679,-83,61.1974,2.53784,0.000549212,0.000182784,-0.000202363,0.000638978,9.30175e-05,-0.41751,0.000398614,0.0362827,1903,1107,61.1974,-2.53784
686,-83,61.3007,2.55774,0.000320154,1.84287e-05,-4.87984e-05,0.00032785,1.07328e-05,-0.15642,0.000215078,0.0325781,1910,1107,61.3006,-2.5577
693,-83,61.3187,2.69226,0.000335956,-0.00020087,8.05802e-05,0.00034779,-0.000212705,0.145825,0.00032672,0.0336384,1917,1107,61.3187,-2.69229
700,-83,61.2335,2.7804,0.00033226,-0.000279191,0.000336504,0.00048118,-0.000428112,0.416643,0.000525278,0.0320377,1924,1107,61.2336,-2.78038
707,-83,61.2449,2.69324,0.000196165,-0.000281421,0.000627993,0.000629232,-0.000714489,0.603716,0.000776318,0.02537,1931,1107,61.2449,-2.69328
714,-83,61.2734,2.59961,0,0,0,0,0,0,0,-1,1938,1107,61.2734,-2.59956
721,-83,49.1162,7.36719,0,0,0,0,0,0,0,-1,1945,1107,49.1162,-7.36721
728,-83,57.4824,7.89709,0,0,0,0,0,0,0,-1,1952,1107,57.4825,-7.89708
735,-83,57.6552,7.53357,-0.00140367,0.000879585,0.0011983,0.00139302,-0.00191711,1.16599,0.00191907,0.0472111,1959,1107,57.6551,-7.5336
742,-83,57.8158,7.15552,-0.00186466,0.00170012,0.00111261,0.00201888,-0.00218341,1.29177,0.00242682,0.0281532,1966,1107,57.8158,-7.1555
749,-83,57.9255,6.74207,-0.002367,0.00314478,0.000877862,0.00328122,-0.00250344,1.41661,0.00334982,0.0186853,1973,1107,57.9255,-6.74206
756,-83,57.9056,6.32275,-0.00277264,0.00535089,0.000118546,0.00535262,-0.00277437,1.55621,0.00477017,0.0170378,1980,1107,57.9056,-6.32277
763,-83,57.8643,5.90051,-0.00312678,0.00859912,-0.0016064,0.00881521,-0.00334286,-1.43708,0.00725261,0.0135973,1987,1107,57.8643,-5.90053
770,-83,57.7725,5.56042,-0.00299024,0.0132662,-0.00452268,0.0144397,-0.00416377,-1.31692,0.0112737,0.0167637,1994,1107,57.7726,-5.56041
777,-83,57.6313,5.18152,-0.00221804,0.0189673,-0.00829686,0.0218299,-0.00508057,-1.23857,0.0165094,0.0178155,2001,1107,57.6314,-5.18154
784,-83,57.4299,4.82581,-0.000744045,0.0255033,-0.0128062,0.0307162,-0.00595694,-1.18422,0.0227249,0.0263581,2008,1107,57.43,-4.82582
791,-83,57.3135,4.24243,0.00180373,0.033292,-0.0183661,0.0417386,-0.00664289,-1.13974,0.0302839,0.0397666,2015,1107,57.3135,-4.24239
798,-83,57.5542,3.32971,0.00587301,0.0427149,-0.0252401,0.0555413,-0.00695335,-1.10063,0.0395496,0.0425092,2022,1107,57.5542,-3.32977
805,-83,57.6941,2.39514,0.011752,0.0541712,-0.0335248,0.0726323,-0.00670901,-1.06744,0.0508057,0.0472111,2029,1107,57.694,-2.39515
812,-83,57.7051,1.55981,0,0,0,0,0,0,0,-1,2036,1107,57.7052,-1.55984
-700,-90,0,0,0,0,0,0,0,0,0,-1,524,1114,0,0
-693,-90,-52.3751,-0.958008,0,0,0,0,0,0,0,-1,531,1114,-52.3751,0.958024
-686,-90,-52.7958,-0.469604,0,0,0,0,0,0,0,-1,538,1114,-52.7958,0.469601
-679,-90,-53.234,0.0390625,0,0,0,0,0,0,0,-1,545,1114,-53.234,-0.0390185
-672,-90,-42.9359,-1.7594,0,0,0,0,0,0,0,-1,552,1114,-42.9359,1.75945
-665,-90,-42.6396,0.417236,0,0,0,0,0,0,0,-1,559,1114,-42.6396,-0.417254
-658,-90,-42.6174,1.05603,0.0155707,0.0257348,-0.0121859,0.0338559,0.00744956,-0.982954,0.0205427,0.0495641,566,1114,-42.6175,-1.05607
-651,-90,-42.5719,1.69812,0.0106219,0.0197914,-0.00664899,0.0232831,0.00713023,-1.08723,0.0137749,0.0358987,573,1114,-42.5719,-1.69816
-644,-90,-42.6157,2.35559,0.00700505,0.0147314,-0.00329854,0.015948,0.00578841,-1.21744,0.00932217,0.0170667,580,1114,-42.6157,-2.3556
-637,-90,-42.6718,2.92139,0.00407741,0.0100592,-0.0013684,0.0103574,0.00377924,-1.35625,0.00605216,0.0133064,587,1114,-42.6718,-2.92134
-630,-90,-42.717,3.39282,0.00189379,0.00624803,-0.000471197,0.00629844,0.00184338,-1.46422,0.00373916,0.0126307,594,1114,-42.7171,-3.39282
-623,-90,-42.7454,3.87122,0.00126339,0.00335638,-0.000366541,0.00341872,0.00120106,-1.40234,0.00200268,0.0121628,601,1114,-42.7454,-3.87118
-616,-90,-42.7997,4.354,0.00128757,0.00119929,-0.000458154,0.00170371,0.000783156,-0.737373,0.000984702,0.0145518,608,1114,-42.7997,-4.35406
-609,-90,-42.7767,4.80151,0.00137724,6.41532e-05,-0.00103752,0.0019485,-0.000507109,-0.503305,0.00149695,0.022646,615,1114,-42.7766,-4.8015
-602,-90,-42.8672,5.23584,0.00150168,-0.000377444,-0.00152523,0.00235352,-0.00122928,-0.509342,0.0021022,0.0229702,622,1114,-42.8672,-5.23578
-595,-90,-42.7437,5.77722,0.00167124,-0.000534009,-0.00194717,0.0028063,-0.00166908,-0.527775,0.00261152,0.0205624,629,1114,-42.7437,-5.7772
-588,-90,-42.7946,6.16455,0,0,0,0,0,0,0,-1,636,1114,-42.7946,-6.16449
-581,-90,-46.3104,0.970581,0,0,0,0,0,0,0,-1,643,1114,-46.3103,-0.970638
-574,-90,-46.2496,0.898315,0.00198884,-0.00107391,-0.00229242,0.00321433,-0.0022994,-0.49093,0.00319793,0.0373789,650,1114,-46.2496,-0.898373
-567,-90,-46.3647,0.825073,0.00205436,-0.000957197,-0.0024327,0.0034096,-0.00231243,-0.508271,0.0033238,0.0347474,657,1114,-46.3647,-0.825071
-560,-90,-46.2369,0.867798,0.00185901,-0.000714655,-0.00259718,0.00347067,-0.00232632,-0.555388,0.00336856,0.0406778,664,1114,-46.2369,-0.867777
-553,-90,-46.2382,0.875,0.00097917,-0.000463057,-0.00286836,0.00321567,-0.00269956,-0.662249,0.00341949,0.043386,671,1114,-46.2382,-0.874957
-546,-90,-46.2838,0.7677,-0.000202216,-0.000286675,-0.00314516,0.002901,-0.00338989,-0.778685,0.00363571,0.0411455,678,1114,-46.2838,-0.76769
-539,-90,-46.2613,0.55127,-0.0012608,-0.000979665,-0.00354297,0.00242553,-0.004666,-0.805226,0.00416185,0.0426278,685,1114,-46.2613,-0.551247
-532,-90,-46.2215,0.571411,-0.00276557,-0.00186732,-0.00376034,0.00147062,-0.0061035,-0.844835,0.0046376,0.0451546,692,1114,-46.2215,-0.571356
-525,-90,0,0,0,0,0,0,0,0,0,-1,699,1114,0,0
-518,-90,0,0,0,0,0,0,0,0,0,-1,706,1114,0,0
-511,-90,0,0,0,0,0,0,0,0,0,-1,713,1114,0,0
-504,-90,0,0,0,0,0,0,0,0,0,-1,720,1114,0,0
-497,-90,0,0,0,0,0,0,0,0,0,-1,727,1114,0,0
-490,-90,0,0,0,0,0,0,0,0,0,-1,734,1114,0,0
-483,-90,0,0,0,0,0,0,0,0,0,-1,741,1114,0,0
-476,-90,0,0,0,0,0,0,0,0,0,-1,748,1114,0,0
-469,-90,0,0,0,0,0,0,0,0,0,-1,755,1114,0,0
-462,-90,0,0,0,0,0,0,0,0,0,-1,762,1114,0,0
-455,-90,0,0,0,0,0,0,0,0,0,-1,769,1114,0,0
-448,-90,0,0,0,0,0,0,0,0,0,-1,776,1114,0,0
-441,-90,0,0,0,0,0,0,0,0,0,-1,783,1114,0,0
-434,-90,0,0,0,0,0,0,0,0,0,-1,790,1114,0,0
-427,-90,0,0,0,0,0,0,0,0,0,-1,797,1114,0,0
-420,-90,0,0,0,0,0,0,0,0,0,-1,804,1114,0,0
-413,-90,0,0,0,0,0,0,0,0,0,-1,811,1114,0,0
-406,-90,0,0,0,0,0,0,0,0,0,-1,818,1114,0,0
-399,-90,0,0,0,0,0,0,0,0,0,-1,825,1114,0,0
-392,-90,0,0,0,0,0,0,0,0,0,-1,832,1114,0,0
-385,-90,0,0,0,0,0,0,0,0,0,-1,839,1114,0,0
-378,-90,0,0,0,0,0,0,0,0,0,-1,846,1114,0,0
-371,-90,0,0,0,0,0,0,0,0,0,-1,853,1114,0,0
-364,-90,0,0,0,0,0,0,0,0,0,-1,860,1114,0,0
-357,-90,0,0,0,0,0,0,0,0,0,-1,867,1114,0,0
-350,-90,0,0,0,0,0,0,0,0,0,-1,874,1114,0,0
-343,-90,0,0,0,0,0,0,0,0,0,-1,881,1114,0,0
-336,-90,0,0,0,0,0,0,0,0,0,-1,888,1114,0,0
-329,-90,0,0,0,0,0,0,0,0,0,-1,895,1114,0,0
-322,-90,0,0,0,0,0,0,0,0,0,-1,902,1114,0,0
-315,-90,0,0,0,0,0,0,0,0,0,-1,909,1114,0,0
-308,-90,0,0,0,0,0,0,0,0,0,-1,916,1114,0,0
-301,-90,0,0,0,0,0,0,0,0,0,-1,923,1114,0,0
-294,-90,0,0,0,0,0,0,0,0,0,-1,930,1114,0,0
-287,-90,0,0,0,0,0,0,0,0,0,-1,937,1114,0,0
-280,-90,0,0,0,0,0,0,0,0,0,-1,944,1114,0,0
-273,-90,0,0,0,0,0,0,0,0,0,-1,951,1114,0,0
-266,-90,0,0,0,0,0,0,0,0,0,-1,958,1114,0,0
-259,-90,0,0,0,0,0,0,0,0,0,-1,965,1114,0,0
-252,-90,0,0,0,0,0,0,0,0,0,-1,972,1114,0,0
-245,-90,0,0,0,0,0,0,0,0,0,-1,979,1114,0,0
-238,-90,0,0,0,0,0,0,0,0,0,-1,986,1114,0,0
-231,-90,0,0,0,0,0,0,0,0,0,-1,993,1114,0,0
-224,-90,0,0,0,0,0,0,0,0,0,-1,1000,1114,0,0
-217,-90,0,0,0,0,0,0,0,0,0,-1,1007,1114,0,0
-210,-90,0,0,0,0,0,0,0,0,0,-1,1014,1114,0,0
-203,-90,0,0,0,0,0,0,0,0,0,-1,1021,1114,0,0
-196,-90,0,0,0,0,0,0,0,0,0,-1,1028,1114,0,0
-189,-90,0,0,0,0,0,0,0,0,0,-1,1035,1114,0,0
-182,-90,0,0,0,0,0,0,0,0,0,-1,1042,1114,0,0
-175,-90,0,0,0,0,0,0,0,0,0,-1,1049,1114,0,0
-168,-90,0,0,0,0,0,0,0,0,0,-1,1056,1114,0,0
-161,-90,0,0,0,0,0,0,0,0,0,-1,1063,1114,0,0
-154,-90,0,0,0,0,0,0,0,0,0,-1,1070,1114,0,0
-147,-90,0,0,0,0,0,0,0,0,0,-1,1077,1114,0,0
-140,-90,0,0,0,0,0,0,0,0,0,-1,1084,1114,0,0
-133,-90,0,0,0,0,0,0,0,0,0,-1,1091,1114,0,0
-126,-90,0,0,0,0,0,0,0,0,0,-1,1098,1114,0,0
-119,-90,0,0,0,0,0,0,0,0,0,-1,1105,1114,0,0
-112,-90,0,0,0,0,0,0,0,0,0,-1,1112,1114,0,0
-105,-90,0,0,0,0,0,0,0,0,0,-1,1119,1114,0,0
-98,-90,0,0,0,0,0,0,0,0,0,-1,1126,1114,0,0
-91,-90,0,0,0,0,0,0,0,0,0,-1,1133,1114,0,0
-84,-90,0,0,0,0,0,0,0,0,0,-1,1140,1114,0,0
-77,-90,0,0,0,0,0,0,0,0,0,-1,1147,1114,0,0
-70,-90,0,0,0,0,0,0,0,0,0,-1,1154,1114,0,0
-63,-90,0,0,0,0,0,0,0,0,0,-1,1161,1114,0,0
-56,-90,0,0,0,0,0,0,0,0,0,-1,1168,1114,0,0
-49,-90,0,0,0,0,0,0,0,0,0,-1,1175,1114,0,0
-42,-90,0,0,0,0,0,0,0,0,0,-1,1182,1114,0,0
-35,-90,0,0,0,0,0,0,0,0,0,-1,1189,1114,0,0
-28,-90,0,0,0,0,0,0,0,0,0,-1,1196,1114,0,0
-21,-90,0,0,0,0,0,0,0,0,0,-1,1203,1114,0,0
-14,-90,0,0,0,0,0,0,0,0,0,-1,1210,1114,0,0
-7,-90,0,0,0,0,0,0,0,0,0,-1,1217,1114,0,0
0,-90,0,0,0,0,0,0,0,0,0,-1,1224,1114,0,0
7,-90,0,0,0,0,0,0,0,0,0,-1,1231,1114,0,0
14,-90,0,0,0,0,0,0,0,0,0,-1,1238,1114,0,0
21,-90,0,0,0,0,0,0,0,0,0,-1,1245,1114,0,0
28,-90,0,0,0,0,0,0,0,0,0,-1,1252,1114,0,0
35,-90,0,0,0,0,0,0,0,0,0,-1,1259,1114,0,0
42,-90,0,0,0,0,0,0,0,0,0,-1,1266,1114,0,0
49,-90,0,0,0,0,0,0,0,0,0,-1,1273,1114,0,0
56,-90,0,0,0,0,0,0,0,0,0,-1,1280,1114,0,0
63,-90,0,0,0,0,0,0,0,0,0,-1,1287,1114,0,0
70,-90,0,0,0,0,0,0,0,0,0,-1,1294,1114,0,0
77,-90,0,0,0,0,0,0,0,0,0,-1,1301,1114,0,0
84,-90,0,0,0,0,0,0,0,0,0,-1,1308,1114,0,0
91,-90,0,0,0,0,0,0,0,0,0,-1,1315,1114,0,0
98,-90,0,0,0,0,0,0,0,0,0,-1,1322,1114,0,0
105,-90,0,0,0,0,0,0,0,0,0,-1,1329,1114,0,0
112,-90,0,0,0,0,0,0,0,0,0,-1,1336,1114,0,0
119,-90,0,0,0,0,0,0,0,0,0,-1,1343,1114,0,0
126,-90,0,0,0,0,0,0,0,0,0,-1,1350,1114,0,0
133,-90,0,0,0,0,0,0,0,0,0,-1,1357,1114,0,0
140,-90,0,0,0,0,0,0,0,0,0,-1,1364,1114,0,0
147,-90,0,0,0,0,0,0,0,0,0,-1,1371,1114,0,0
154,-90,0,0,0,0,0,0,0,0,0,-1,1378,1114,0,0
161,-90,0,0,0,0,0,0,0,0,0,-1,1385,1114,0,0
168,-90,0,0,0,0,0,0,0,0,0,-1,1392,1114,0,0
175,-90,0,0,0,0,0,0,0,0,0,-1,1399,1114,0,0
182,-90,0,0,0,0,0,0,0,0,0,-1,1406,1114,0,0
189,-90,0,0,0,0,0,0,0,0,0,-1,1413,1114,0,0
196,-90,0,0,0,0,0,0,0,0,0,-1,1420,1114,0,0
203,-90,0,0,0,0,0,0,0,0,0,-1,1427,1114,0,0
210,-90,0,0,0,0,0,0,0,0,0,-1,1434,1114,0,0
217,-90,0,0,0,0,0,0,0,0,0,-1,1441,1114,0,0
224,-90,0,0,0,0,0,0,0,0,0,-1,1448,1114,0,0
231,-90,0,0,0,0,0,0,0,0,0,-1,1455,1114,0,0
238,-90,0,0,0,0,0,0,0,0,0,-1,1462,1114,0,0
245,-90,0,0,0,0,0,0,0,0,0,-1,1469,1114,0,0
252,-90,0,0,0,0,0,0,0,0,0,-1,1476,1114,0,0
259,-90,0,0,0,0,0,0,0,0,0,-1,1483,1114,0,0
266,-90,0,0,0,0,0,0,0,0,0,-1,1490,1114,0,0
273,-90,0,0,0,0,0,0,0,0,0,-1,1497,1114,0,0
280,-90,0,0,0,0,0,0,0,0,0,-1,1504,1114,0,0
287,-90,0,0,0,0,0,0,0,0,0,-1,1511,1114,0,0
294,-90,0,0,0,0,0,0,0,0,0,-1,1518,1114,0,0
301,-90,0,0,0,0,0,0,0,0,0,-1,1525,1114,0,0
308,-90,0,0,0,0,0,0,0,0,0,-1,1532,1114,0,0
315,-90,0,0,0,0,0,0,0,0,0,-1,1539,1114,0,0
322,-90,0,0,0,0,0,0,0,0,0,-1,1546,1114,0,0
329,-90,0,0,0,0,0,0,0,0,0,-1,1553,1114,0,0
336,-90,0,0,0,0,0,0,0,0,0,-1,1560,1114,0,0
343,-90,0,0,0,0,0,0,0,0,0,-1,1567,1114,0,0
350,-90,0,0,0,0,0,0,0,0,0,-1,1574,1114,0,0
357,-90,0,0,0,0,0,0,0,0,0,-1,1581,1114,0,0
364,-90,0,0,0,0,0,0,0,0,0,-1,1588,1114,0,0
371,-90,0,0,0,0,0,0,0,0,0,-1,1595,1114,0,0
378,-90,0,0,0,0,0,0,0,0,0,-1,1602,1114,0,0
385,-90,0,0,0,0,0,0,0,0,0,-1,1609,1114,0,0
392,-90,0,0,0,0,0,0,0,0,0,-1,1616,1114,0,0
399,-90,0,0,0,0,0,0,0,0,0,-1,1623,1114,0,0
406,-90,0,0,0,0,0,0,0,0,0,-1,1630,1114,0,0
413,-90,0,0,0,0,0,0,0,0,0,-1,1637,1114,0,0
420,-90,0,0,0,0,0,0,0,0,0,-1,1644,1114,0,0
427,-90,0,0,0,0,0,0,0,0,0,-1,1651,1114,0,0
434,-90,0,0,0,0,0,0,0,0,0,-1,1658,1114,0,0
441,-90,0,0,0,0,0,0,0,0,0,-1,1665,1114,0,0
448,-90,0,0,0,0,0,0,0,0,0,-1,1672,1114,0,0
455,-90,0,0,0,0,0,0,0,0,0,-1,1679,1114,0,0
462,-90,0,0,0,0,0,0,0,0,0,-1,1686,1114,0,0
469,-90,0,0,0,0,0,0,0,0,0,-1,1693,1114,0,0
476,-90,0,0,0,0,0,0,0,0,0,-1,1700,1114,0,0
483,-90,0,0,0,0,0,0,0,0,0,-1,1707,1114,0,0
490,-90,0,0,0,0,0,0,0,0,0,-1,1714,1114,0,0
497,-90,0,0,0,0,0,0,0,0,0,-1,1721,1114,0,0
504,-90,0,0,0,0,0,0,0,0,0,-1,1728,1114,0,0
511,-90,0,0,0,0,0,0,0,0,0,-1,1735,1114,0,0
518,-90,0,0,0,0,0,0,0,0,0,-1,1742,1114,0,0
525,-90,0,0,0,0,0,0,0,0,0,-1,1749,1114,0,0
532,-90,0,0,0,0,0,0,0,0,0,-1,1756,1114,0,0
539,-90,0,0,0,0,0,0,0,0,0,-1,1763,1114,0,0
546,-90,0,0,0,0,0,0,0,0,0,-1,1770,1114,0,0
553,-90,0,0,0,0,0,0,0,0,0,-1,1777,1114,0,0
560,-90,0,0,0,0,0,0,0,0,0,-1,1784,1114,0,0
567,-90,0,0,0,0,0,0,0,0,0,-1,1791,1114,0,0
574,-90,0,0,0,0,0,0,0,0,0,-1,1798,1114,0,0
581,-90,0,0,0,0,0,0,0,0,0,-1,1805,1114,0,0
588,-90,0,0,0,0,0,0,0,0,0,-1,1812,1114,0,0
595,-90,0,0,0,0,0,0,0,0,0,-1,1819,1114,0,0
602,-90,0,0,0,0,0,0,0,0,0,-1,1826,1114,0,0
609,-90,0,0,0,0,0,0,0,0,0,-1,1833,1114,0,0
616,-90,0,0,0,0,0,0,0,0,0,-1,1840,1114,0,0
623,-90,0,0,0,0,0,0,0,0,0,-1,1847,1114,0,0
630,-90,0,0,0,0,0,0,0,0,0,-1,1854,1114,0,0
637,-90,0,0,0,0,0,0,0,0,0,-1,1861,1114,0,0
644,-90,61.1636,2.75159,0.00665561,-0.00229292,-0.0064247,0.0100105,-0.00564782,-0.48124,0.00915655,0.0368263,1868,1114,61.1636,-2.75162
651,-90,61.205,2.75256,0.00444515,-0.0014779,-0.00397605,0.00644141,-0.00347416,-0.465303,0.00580957,0.0404915,1875,1114,61.205,-2.75257
658,-90,61.1843,2.74927,0.00301323,-0.000936052,-0.0024144,0.00415765,-0.00208047,-0.44263,0.00366754,0.0418888,1882,1114,61.1843,-2.74927
665,-90,61.1637,2.69861,0.00198558,-0.000521922,-0.00141191,0.00262005,-0.00115639,-0.42233,0.00223425,0.0420955,1889,1114,61.1636,-2.69865
672,-90,61.1588,2.6803,0.0012033,-0.000185611,-0.00074033,0.00152391,-0.000506221,-0.408681,0.0012202,0.0429429,1896,1114,61.1588,-2.68033
679,-90,61.1986,2.75012,0.000544758,-8.49915e-07,-0.000402708,0.000758364,-0.000214457,-0.487692,0.000590196,0.0381809,1903,1114,61.1986,-2.75016
686,-90,61.292,2.74609,0.000359793,-0.000166614,-0.000179914,0.000415407,-0.000222228,-0.299802,0.000373728,0.0333277,1910,1114,61.292,-2.74614
693,-90,61.2382,2.77332,0.000421959,-0.000369428,-4.0477e-05,0.000424024,-0.000371493,-0.0509696,0.000459626,0.0348829,1917,1114,61.2381,-2.77334
700,-90,61.2102,2.72217,0.000436747,-0.000459871,0.000236675,0.000495385,-0.00051851,0.24287,0.000585423,0.0324803,1924,1114,61.2102,-2.72222
707,-90,61.2485,2.60559,0.000336323,-0.000457757,0.00054395,0.000612724,-0.000734158,0.470136,0.000778675,0.0262291,1931,1114,61.2485,-2.60562
714,-90,61.25,2.5166,0,0,0,0,0,0,0,-1,1938,1114,61.25,-2.51666
721,-90,57.3275,8.51563,0,0,0,0,0,0,0,-1,1945,1114,57.3275,-8.51565
728,-90,57.3904,8.13416,-0.000631497,0.000207108,0.00113086,0.000993901,-0.00141829,0.962931,0.00139985,0.0428708,1952,1114,57.3903,-8.13418
735,-90,57.125,7.64148,-0.00107908,0.00063647,0.00104375,0.00112969,-0.0015723,1.12935,0.00156696,0.0392751,1959,1114,57.125,-7.64153
742,-90,57.2416,7.13184,-0.00163455,0.00153759,0.00105044,0.0018539,-0.00195086,1.27831,0.00219692,0.0348001,1966,1114,57.2415,-7.13184
749,-90,57.584,6.5885,-0.00229872,0.00303784,0.00089054,0.00318253,-0.0024434,1.40973,0.00325746,0.0215355,1973,1114,57.584,-6.5885
756,-90,57.5223,6.23718,-0.00291502,0.00545198,0.000155396,0.00545487,-0.00291791,1.55223,0.00490744,0.0181626,1980,1114,57.5224,-6.23723
763,-90,57.4401,5.84314,-0.00348027,0.00912643,-0.00155636,0.00931573,-0.00366957,-1.44976,0.00772969,0.0135464,1987,1114,57.4401,-5.84319
770,-90,57.3914,5.41382,-0.00372029,0.0143815,-0.0044243,0.015405,-0.00474378,-1.34346,0.0121636,0.0169951,1994,1114,57.3913,-5.4138
777,-90,57.2593,5.06946,-0.00335892,0.0207671,-0.00817007,0.0232734,-0.00586528,-1.27314,0.0177959,0.0166949,2001,1114,57.2593,-5.0695
784,-90,57.1099,4.75842,-0.00223107,0.0281853,-0.0127976,0.0328534,-0.00689919,-1.22103,0.0245276,0.0301278,2008,1114,57.1099,-4.75848
791,-90,56.8777,3.82434,0.000130657,0.0371225,-0.0186844,0.0449174,-0.00766418,-1.17556,0.0327995,0.0417105,2015,1114,56.8778,-3.82435
798,-90,57.0637,2.76892,0.00431728,0.0480078,-0.0261999,0.0602749,-0.00794977,-1.1329,0.0430784,0.0434494,2022,1114,57.0637,-2.76887
805,-90,57.073,2.06836,0.010842,0.0612142,-0.0355718,0.0796135,-0.00755736,-1.09345,0.0557658,0.0459376,2029,1114,57.0731,-2.06838
812,-90,57.345,1.43311,0,0,0,0,0,0,0,-1,2036,1114,57.3449,-1.43308
-700,-97,0,0,0,0,0,0,0,0,0,-1,524,1121,0,0
-693,-97,-41.4828,-1.94873,0,0,0,0,0,0,0,-1,531,1121,-41.4828,1.94876
-686,-97,-50.6837,-0.399658,0,0,0,0,0,0,0,-1,538,1121,-50.6837,0.399608
-679,-97,-51.12,0.0668945,0.0302871,0.0445936,-0.0600176,0.0978827,-0.0230021,-0.844711,0.0741219,0.0477133,545,1121,-51.12,-0.0669527
-672,-97,-51.5065,0.478638,0.0244386,0.0368867,-0.0424779,0.0735941,-0.0122689,-0.858142,0.0536223,0.0455029,552,1121,-51.5065,-0.478589
-665,-97,-51.9066,0.90271,0,0,0,0,0,0,0,-1,559,1121,-51.9065,-0.902698
-658,-97,-42.1341,1.08936,0,0,0,0,0,0,0,-1,566,1121,-42.1341,-1.08933
-651,-97,-42.0447,1.76917,0.00947369,0.0179775,-0.0112828,0.0257829,0.00166826,-0.965593,0.0166604,0.0350553,573,1121,-42.0447,-1.76922
-644,-97,-42.1553,2.37952,0.00619042,0.0133221,-0.00662608,0.0172809,0.00223161,-1.03225,0.0108535,0.012725,580,1121,-42.1553,-2.37956
-637,-97,-42.1812,2.91101,0.00353387,0.00911255,-0.00363361,0.010904,0.00174243,-1.11275,0.00676375,0.0125655,587,1121,-42.1812,-2.91103
-630,-97,-42.2061,3.36926,0.00160265,0.00571015,-0.00183622,0.00641132,0.000901481,-1.20603,0.00400766,0.0105472,594,1121,-42.2061,-3.36932
-623,-97,-42.2523,3.8158,0.00098105,0.00296697,-0.00112059,0.00347124,0.000476779,-1.14794,0.00217274,0.0129058,601,1121,-42.2523,-3.81579
-616,-97,-42.3351,4.35437,0.000834347,0.000899032,-0.000808757,0.00167609,5.72865e-05,-0.805383,0.0010988,0.0205208,608,1121,-42.3351,-4.35436
-609,-97,-42.4168,4.87744,0.00080776,-0.000161058,-0.00111234,0.00153659,-0.000889886,-0.580038,0.00141741,0.02942,615,1121,-42.4168,-4.87742
-602,-97,-42.4614,5.27271,0.000999992,-0.000530916,-0.00155769,0.00197014,-0.00150106,-0.557025,0.00201019,0.0290585,622,1121,-42.4614,-5.27271
-595,-97,-42.3492,5.81177,0.00120337,-0.000672515,-0.00196655,0.0024442,-0.00191334,-0.562879,0.00252204,0.0216926,629,1121,-42.3492,-5.81173
-588,-97,-42.4877,6.28186,0,0,0,0,0,0,0,-1,636,1121,-42.4877,-6.28192
-581,-97,-44.9559,2.96118,0,0,0,0,0,0,0,-1,643,1121,-44.9559,-2.96124
-574,-97,-46.2944,0.987793,0,0,0,0,0,0,0,-1,650,1121,-46.2944,-0.987742
-567,-97,-46.3156,0.889038,0,0,0,0,0,0,0,-1,657,1121,-46.3156,-0.889077
-560,-97,-46.3428,1.06506,0,0,0,0,0,0,0,-1,664,1121,-46.3429,-1.06501
-553,-97,-46.4031,0.776978,0.00113489,-0.000862339,-0.00305961,0.00335473,-0.00308218,-0.627656,0.00371746,0.0456704,671,1121,-46.4031,-0.776968
-546,-97,-46.3254,0.48584,3.12954e-05,-0.000624493,-0.00337598,0.00309527,-0.00368847,-0.736987,0.00392158,0.0443296,678,1121,-46.3254,-0.485855
-539,-97,-46.05,0.655396,-0.00104766,-0.00113998,-0.00369211,0.00259858,-0.00478621,-0.779147,0.00432552,0.0406129,685,1121,-46.05,-0.655391
-532,-97,-46.3166,0.778931,-0.0025676,-0.00194725,-0.00385801,0.00161303,-0.00612789,-0.825511,0.0047158,0.042665,692,1121,-46.3166,-0.778878
-525,-97,0,0,0,0,0,0,0,0,0,-1,699,1121,0,0
-518,-97,0,0,0,0,0,0,0,0,0,-1,706,1121,0,0
-511,-97,0,0,0,0,0,0,0,0,0,-1,713,1121,0,0
-504,-97,0,0,0,0,0,0,0,0,0,-1,720,1121,0,0
-497,-97,0,0,0,0,0,0,0,0,0,-1,727,1121,0,0
-490,-97,0,0,0,0,0,0,0,0,0,-1,734,1121,0,0
-483,-97,0,0,0,0,0,0,0,0,0,-1,741,1121,0,0
-476,-97,0,0,0,0,0,0,0,0,0,-1,748,1121,0,0
-469,-97,0,0,0,0,0,0,0,0,0,-1,755,1121,0,0
-462,-97,0,0,0,0,0,0,0,0,0,-1,762,1121,0,0
-455,-97,0,0,0,0,0,0,0,0,0,-1,769,1121,0,0
-448,-97,0,0,0,0,0,0,0,0,0,-1,776,1121,0,0
-441,-97,0,0,0,0,0,0,0,0,0,-1,783,1121,0,0
-434,-97,0,0,0,0,0,0,0,0,0,-1,790,1121,0,0
-427,-97,0,0,0,0,0,0,0,0,0,-1,797,1121,0,0
-420,-97,0,0,0,0,0,0,0,0,0,-1,804,1121,0,0
-413,-97,0,0,0,0,0,0,0,0,0,-1,811,1121,0,0
-406,-97,0,0,0,0,0,0,0,0,0,-1,818,1121,0,0
-399,-97,0,0,0,0,0,0,0,0,0,-1,825,1121,0,0
-392,-97,0,0,0,0,0,0,0,0,0,-1,832,1121,0,0
-385,-97,0,0,0,0,0,0,0,0,0,-1,839,1121,0,0
-378,-97,0,0,0,0,0,0,0,0,0,-1,846,1121,0,0
-371,-97,0,0,0,0,0,0,0,0,0,-1,853,1121,0,0
-364,-97,0,0,0,0,0,0,0,0,0,-1,860,1121,0,0
-357,-97,0,0,0,0,0,0,0,0,0,-1,867,1121,0,0
-350,-97,0,0,0,0,0,0,0,0,0,-1,874,1121,0,0
-343,-97,0,0,0,0,0,0,0,0,0,-1,881,1121,0,0
-336,-97,0,0,0,0,0,0,0,0,0,-1,888,1121,0,0
-329,-97,0,0,0,0,0,0,0,0,0,-1,895,1121,0,0
-322,-97,0,0,0,0,0,0,0,0,0,-1,902,1121,0,0
-315,-97,0,0,0,0,0,0,0,0,0,-1,909,1121,0,0
-308,-97,0,0,0,0,0,0,0,0,0,-1,916,1121,0,0
-301,-97,0,0,0,0,0,0,0,0,0,-1,923,1121,0,0
-294,-97,0,0,0,0,0,0,0,0,0,-1,930,1121,0,0
-287,-97,0,0,0,0,0,0,0,0,0,-1,937,1121,0,0
-280,-97,0,0,0,0,0,0,0,0,0,-1,944,1121,0,0
-273,-97,0,0,0,0,0,0,0,0,0,-1,951,1121,0,0
-266,-97,0,0,0,0,0,0,0,0,0,-1,958,1121,0,0
-259,-97,0,0,0,0,0,0,0,0,0,-1,965,1121,0,0
-252,-97,0,0,0,0,0,0,0,0,0,-1,972,1121,0,0
-245,-97,0,0,0,0,0,0,0,0,0,-1,979,1121,0,0
-238,-97,0,0,0,0,0,0,0,0,0,-1,986,1121,0,0
-231,-97,0,0,0,0,0,0,0,0,0,-1,993,1121,0,0
-224,-97,0,0,0,0,0,0,0,0,0,-1,1000,1121,0,0
-217,-97,0,0,0,0,0,0,0,0,0,-1,1007,1121,0,0
-210,-97,0,0,0,0,0,0,0,0,0,-1,1014,1121,0,0
-203,-97,0,0,0,0,0,0,0,0,0,-1,1021,1121,0,0
-196,-97,0,0,0,0,0,0,0,0,0,-1,1028,1121,0,0
-189,-97,0,0,0,0,0,0,0,0,0,-1,1035,1121,0,0
-182,-97,0,0,0,0,0,0,0,0,0,-1,1042,1121,0,0
-175,-97,0,0,0,0,0,0,0,0,0,-1,1049,1121,0,0
-168,-97,0,0,0,0,0,0,0,0,0,-1,1056,1121,0,0
-161,-97,0,0,0,0,0,0,0,0,0,-1,1063,1121,0,0
-154,-97,0,0,0,0,0,0,0,0,0,-1,1070,1121,0,0
-147,-97,0,0,0,0,0,0,0,0,0,-1,1077,1121,0,0
-140,-97,0,0,0,0,0,0,0,0,0,-1,1084,1121,0,0
-133,-97,0,0,0,0,0,0,0,0,0,-1,1091,1121,0,0
-126,-97,0,0,0,0,0,0,0,0,0,-1,1098,1121,0,0
-119,-97,0,0,0,0,0,0,0,0,0,-1,1105,1121,0,0
-112,-97,0,0,0,0,0,0,0,0,0,-1,1112,1121,0,0
-105,-97,0,0,0,0,0,0,0,0,0,-1,1119,1121,0,0
-98,-97,0,0,0,0,0,0,0,0,0,-1,1126,1121,0,0
-91,-97,0,0,0,0,0,0,0,0,0,-1,1133,1121,0,0
-84,-97,0,0,0,0,0,0,0,0,0,-1,1140,1121,0,0
-77,-97,0,0,0,0,0,0,0,0,0,-1,1147,1121,0,0
-70,-97,0,0,0,0,0,0,0,0,0,-1,1154,1121,0,0
-63,-97,0,0,0,0,0,0,0,0,0,-1,1161,1121,0,0
-56,-97,0,0,0,0,0,0,0,0,0,-1,1168,1121,0,0
-49,-97,0,0,0,0,0,0,0,0,0,-1,1175,1121,0,0
-42,-97,0,0,0,0,0,0,0,0,0,-1,1182,1121,0,0
-35,-97,0,0,0,0,0,0,0,0,0,-1,1189,1121,0,0
-28,-97,0,0,0,0,0,0,0,0,0,-1,1196,1121,0,0
-21,-97,0,0,0,0,0,0,0,0,0,-1,1203,1121,0,0
-14,-97,0,0,0,0,0,0,0,0,0,-1,1210,1121,0,0
-7,-97,0,0,0,0,0,0,0,0,0,-1,1217,1121,0,0
0,-97,0,0,0,0,0,0,0,0,0,-1,1224,1121,0,0
7,-97,0,0,0,0,0,0,0,0,0,-1,1231,1121,0,0
14,-97,0,0,0,0,0,0,0,0,0,-1,1238,1121,0,0
21,-97,0,0,0,0,0,0,0,0,0,-1,1245,1121,0,0
28,-97,0,0,0,0,0,0,0,0,0,-1,1252,1121,0,0
35,-97,0,0,0,0,0,0,0,0,0,-1,1259,1121,0,0
42,-97,0,0,0,0,0,0,0,0,0,-1,1266,1121,0,0
49,-97,0,0,0,0,0,0,0,0,0,-1,1273,1121,0,0
56,-97,0,0,0,0,0,0,0,0,0,-1,1280,1121,0,0
63,-97,0,0,0,0,0,0,0,0,0,-1,1287,1121,0,0
70,-97,0,0,0,0,0,0,0,0,0,-1,1294,1121,0,0
77,-97,0,0,0,0,0,0,0,0,0,-1,1301,1121,0,0
84,-97,0,0,0,0,0,0,0,0,0,-1,1308,1121,0,0
91,-97,0,0,0,0,0,0,0,0,0,-1,1315,1121,0,0
98,-97,0,0,0,0,0,0,0,0,0,-1,1322,1121,0,0
105,-97,0,0,0,0,0,0,0,0,0,-1,1329,1121,0,0
112,-97,0,0,0,0,0,0,0,0,0,-1,1336,1121,0,0
119,-97,0,0,0,0,0,0,0,0,0,-1,1343,1121,0,0
126,-97,0,0,0,0,0,0,0,0,0,-1,1350,1121,0,0
133,-97,0,0,0,0,0,0,0,0,0,-1,1357,1121,0,0
140,-97,0,0,0,0,0,0,0,0,0,-1,1364,1121,0,0
147,-97,0,0,0,0,0,0,0,0,0,-1,1371,1121,0,0
154,-97,0,0,0,0,0,0,0,0,0,-1,1378,1121,0,0
161,-97,0,0,0,0,0,0,0,0,0,-1,1385,1121,0,0
168,-97,0,0,0,0,0,0,0,0,0,-1,1392,1121,0,0
175,-97,0,0,0,0,0,0,0,0,0,-1,1399,1121,0,0
182,-97,0,0,0,0,0,0,0,0,0,-1,1406,1121,0,0
189,-97,0,0,0,0,0,0,0,0,0,-1,1413,1121,0,0
196,-97,0,0,0,0,0,0,0,0,0,-1,1420,1121,0,0
203,-97,0,0,0,0,0,0,0,0,0,-1,1427,1121,0,0
210,-97,0,0,0,0,0,0,0,0,0,-1,1434,1121,0,0
217,-97,0,0,0,0,0,0,0,0,0,-1,1441,1121,0,0
224,-97,0,0,0,0,0,0,0,0,0,-1,1448,1121,0,0
231,-97,0,0,0,0,0,0,0,0,0,-1,1455,1121,0,0
238,-97,0,0,0,0,0,0,0,0,0,-1,1462,1121,0,0
245,-97,0,0,0,0,0,0,0,0,0,-1,1469,1121,0,0
252,-97,0,0,0,0,0,0,0,0,0,-1,1476,1121,0,0
259,-97,0,0,0,0,0,0,0,0,0,-1,1483,1121,0,0
266,-97,0,0,0,0,0,0,0,0,0,-1,1490,1121,0,0
273,-97,0,0,0,0,0,0,0,0,0,-1,1497,1121,0,0
280,-97,0,0,0,0,0,0,0,0,0,-1,1504,1121,0,0
287,-97,0,0,0,0,0,0,0,0,0,-1,1511,1121,0,0
294,-97,0,0,0,0,0,0,0,0,0,-1,1518,1121,0,0
301,-97,0,0,0,0,0,0,0,0,0,-1,1525,1121,0,0
308,-97,0,0,0,0,0,0,0,0,0,-1,1532,1121,0,0
315,-97,0,0,0,0,0,0,0,0,0,-1,1539,1121,0,0
322,-97,0,0,0,0,0,0,0,0,0,-1,1546,1121,0,0
329,-97,0,0,0,0,0,0,0,0,0,-1,1553,1121,0,0
336,-97,0,0,0,0,0,0,0,0,0,-1,1560,1121,0,0
343,-97,0,0,0,0,0,0,0,0,0,-1,1567,1121,0,0
350,-97,0,0,0,0,0,0,0,0,0,-1,1574,1121,0,0
357,-97,0,0,0,0,0,0,0,0,0,-1,1581,1121,0,0
364,-97,0,0,0,0,0,0,0,0,0,-1,1588,1121,0,0
371,-97,0,0,0,0,0,0,0,0,0,-1,1595,1121,0,0
378,-97,0,0,0,0,0,0,0,0,0,-1,1602,1121,0,0
385,-97,0,0,0,0,0,0,0,0,0,-1,1609,1121,0,0
392,-97,0,0,0,0,0,0,0,0,0,-1,1616,1121,0,0
399,-97,0,0,0,0,0,0,0,0,0,-1,1623,1121,0,0
406,-97,0,0,0,0,0,0,0,0,0,-1,1630,1121,0,0
413,-97,0,0,0,0,0,0,0,0,0,-1,1637,1121,0,0
420,-97,0,0,0,0,0,0,0,0,0,-1,1644,1121,0,0
427,-97,0,0,0,0,0,0,0,0,0,-1,1651,1121,0,0
434,-97,0,0,0,0,0,0,0,0,0,-1,1658,1121,0,0
441,-97,0,0,0,0,0,0,0,0,0,-1,1665,1121,0,0
448,-97,0,0,0,0,0,0,0,0,0,-1,1672,1121,0,0
455,-97,0,0,0,0,0,0,0,0,0,-1,1679,1121,0,0
462,-97,0,0,0,0,0,0,0,0,0,-1,1686,1121,0,0
469,-97,0,0,0,0,0,0,0,0,0,-1,1693,1121,0,0
476,-97,0,0,0,0,0,0,0,0,0,-1,1700,1121,0,0
483,-97,0,0,0,0,0,0,0,0,0,-1,1707,1121,0,0
490,-97,0,0,0,0,0,0,0,0,0,-1,1714,1121,0,0
497,-97,0,0,0,0,0,0,0,0,0,-1,1721,1121,0,0
504,-97,0,0,0,0,0,0,0,0,0,-1,1728,1121,0,0
511,-97,0,0,0,0,0,0,0,0,0,-1,1735,1121,0,0
518,-97,0,0,0,0,0,0,0,0,0,-1,1742,1121,0,0
525,-97,0,0,0,0,0,0,0,0,0,-1,1749,1121,0,0
532,-97,0,0,0,0,0,0,0,0,0,-1,1756,1121,0,0
539,-97,0,0,0,0,0,0,0,0,0,-1,1763,1121,0,0
546,-97,0,0,0,0,0,0,0,0,0,-1,1770,1121,0,0
553,-97,0,0,0,0,0,0,0,0,0,-1,1777,1121,0,0
560,-97,0,0,0,0,0,0,0,0,0,-1,1784,1121,0,0
567,-97,0,0,0,0,0,0,0,0,0,-1,1791,1121,0,0
574,-97,0,0,0,0,0,0,0,0,0,-1,1798,1121,0,0
581,-97,0,0,0,0,0,0,0,0,0,-1,1805,1121,0,0
588,-97,0,0,0,0,0,0,0,0,0,-1,1812,1121,0,0
595,-97,0,0,0,0,0,0,0,0,0,-1,1819,1121,0,0
602,-97,0,0,0,0,0,0,0,0,0,-1,1826,1121,0,0
609,-97,0,0,0,0,0,0,0,0,0,-1,1833,1121,0,0
616,-97,0,0,0,0,0,0,0,0,0,-1,1840,1121,0,0
623,-97,0,0,0,0,0,0,0,0,0,-1,1847,1121,0,0
630,-97,0,0,0,0,0,0,0,0,0,-1,1854,1121,0,0
637,-97,0,0,0,0,0,0,0,0,0,-1,1861,1121,0,0
644,-97,61.1144,2.92175,0.00670383,-0.00240532,-0.0079221,0.0112873,-0.00698878,-0.524511,0.0106485,0.0389877,1868,1121,61.1144,-2.92176
651,-97,61.1721,2.83997,0.00445887,-0.00175024,-0.00510323,0.00732769,-0.00461906,-0.512129,0.0069563,0.0368052,1875,1121,61.1722,-2.83994
658,-97,61.1813,2.7229,0.00301839,-0.00125739,-0.00325308,0.00477319,-0.00301219,-0.494692,0.00453306,0.0370359,1882,1121,61.1813,-2.72286
665,-97,61.244,2.61438,0.00196457,-0.000821442,-0.00198593,0.00299734,-0.00185421,-0.479552,0.00282684,0.0415988,1889,1121,61.244,-2.61435
672,-97,61.3174,2.5929,0.00114997,-0.000440039,-0.00107916,0.00169534,-0.000985413,-0.467935,0.00156572,0.0440723,1896,1121,61.3174,-2.59286
679,-97,61.3312,3.01868,0.00047924,-0.00024306,-0.000568767,0.000791829,-0.00055565,-0.50253,0.000781941,0.0419375,1903,1121,61.3311,-3.01866
686,-97,61.2974,2.8689,0.000361076,-0.000358011,-0.000278972,0.000456612,-0.000453546,-0.329938,0.000525481,0.0363943,1910,1121,61.2974,-2.86885
693,-97,61.2231,2.77209,0.000468431,-0.000523698,-0.000119924,0.000482721,-0.000537988,-0.1186,0.000589595,0.0335966,1917,1121,61.2231,-2.7721
700,-97,61.2031,2.59924,0.000488352,-0.000617117,0.000182837,0.000517807,-0.000646572,0.159728,0.000673623,0.0291009,1924,1121,61.2031,-2.59922
707,-97,61.2291,2.62048,0.000416573,-0.000600776,0.000493611,0.000616701,-0.000800905,0.385185,0.000820755,0.0262224,1931,1121,61.2291,-2.62051
714,-97,61.2098,2.6134,0,0,0,0,0,0,0,-1,1938,1121,61.2099,-2.61344
721,-97,57.0413,8.41443,0,0,0,0,0,0,0,-1,1945,1121,57.0413,-8.41446
728,-97,57.0026,8.11975,-0.000437347,0.000105061,0.00102996,0.000898929,-0.00123121,0.914133,0.00123482,0.0312191,1952,1121,57.0026,-8.11974
735,-97,56.9573,7.57715,-0.000833616,0.000431691,0.000983211,0.000968206,-0.00137013,1.07128,0.00135667,0.0308939,1959,1121,56.9572,-7.57712
742,-97,56.9305,7.12329,-0.00144254,0.00136285,0.00105979,0.0017182,-0.00179789,1.24728,0.00203019,0.0250294,1966,1121,56.9306,-7.1233
749,-97,57.0333,6.65161,-0.00221947,0.00286604,0.000978009,0.00304764,-0.00240107,1.38721,0.00315319,0.0240988,1973,1121,57.0333,-6.65162
756,-97,57.0266,6.22314,-0.00308245,0.00549634,0.000281861,0.00550559,-0.0030917,1.53799,0.00502844,0.0171647,1980,1121,57.0266,-6.22313
763,-97,56.9419,5.84583,-0.00404067,0.00958133,-0.00130027,0.00970433,-0.00416368,-1.47648,0.00821695,0.0135885,1987,1121,56.942,-5.84577
770,-97,56.8833,5.44653,-0.00480102,0.0153283,-0.00393635,0.0160707,-0.00554341,-1.38439,0.0129629,0.0126972,1994,1121,56.8833,-5.44649
777,-97,56.832,5.01477,-0.00505746,0.0222629,-0.00738529,0.0241315,-0.00692606,-1.32298,0.018826,0.0175619,2001,1121,56.8319,-5.01479
784,-97,56.8313,4.51025,-0.00463938,0.0304129,-0.0117329,0.0339777,-0.00820416,-1.27583,0.0258246,0.037693,2008,1121,56.8313,-4.51025
791,-97,56.7256,3.56311,-0.00304417,0.0403076,-0.0173483,0.0463952,-0.00913173,-1.23332,0.0343807,0.043907,2015,1121,56.7257,-3.56314
798,-97,56.5881,2.28003,0.000329302,0.0523978,-0.0246159,0.0621926,-0.00946554,-1.1921,0.0449504,0.0472534,2022,1121,56.5882,-2.28001
805,-97,56.9138,1.02637,0.00608034,0.0669963,-0.033778,0.0820206,-0.00894403,-1.15228,0.0578925,0.0477627,2029,1121,56.9138,-1.02632
812,-97,57.1501,-0.26123,0,0,0,0,0,0,0,-1,2036,1121,57.1501,0.261231
-700,-104,0,0,0,0,0,0,0,0,0,-1,524,1128,0,0
-693,-104,-48.5265,-0.116943,0,0,0,0,0,0,0,-1,531,1128,-48.5265,0.116933
-686,-104,-48.4939,-0.342529,0,0,0,0,0,0,0,-1,538,1128,-48.4939,0.342577
-679,-104,-48.9369,0.0744629,0.0229552,0.0411776,-0.0721883,0.104827,-0.0406946,-0.848173,0.0866942,0.0460955,545,1128,-48.9369,-0.0744062
-672,-104,-49.3557,0.473022,0.0197093,0.0340544,-0.0524009,0.0797714,-0.0260077,-0.853415,0.0636467,0.0447207,552,1128,-49.3557,-0.472975
-665,-104,-41.6601,0.0543213,0,0,0,0,0,0,0,-1,559,1128,-41.6601,-0.0543462
-658,-104,-41.7457,0.954468,0,0,0,0,0,0,0,-1,566,1128,-41.7457,-0.954478
-651,-104,-41.5863,1.73193,0.00849299,0.0163447,-0.0156308,0.0285351,-0.0036974,-0.908435,0.0203681,0.0446134,573,1128,-41.5863,-1.7319
-644,-104,-41.6446,2.35522,0.00554087,0.0120274,-0.00972449,0.0190352,-0.00146692,-0.946356,0.0132063,0.0158378,580,1128,-41.6446,-2.35527
-637,-104,-41.6544,2.88586,0.00310935,0.00818541,-0.00579842,0.0119769,-0.000682177,-0.991691,0.00822145,0.011491,587,1128,-41.6544,-2.88582
-630,-104,-41.6838,3.30872,0.00135937,0.00516535,-0.00322276,0.00700503,-0.0004803,-1.05209,0.00483807,0.0161509,594,1128,-41.6838,-3.30871
-623,-104,-41.7491,3.8103,0.000646399,0.00261829,-0.00199293,0.00385582,-0.000591133,-1.01511,0.00278855,0.0177426,601,1128,-41.7491,-3.81031
-616,-104,-42.0392,4.40613,0.000249358,0.000670594,-0.00140794,0.00188358,-0.00096363,-0.859644,0.0016722,0.0260216,608,1128,-42.0392,-4.40615
-609,-104,-42.2311,4.79724,8.28037e-05,-0.000318134,-0.00152914,0.00142456,-0.00165989,-0.72022,0.00178253,0.0351592,615,1128,-42.2311,-4.79723
-602,-104,-41.9988,5.3175,0.000352163,-0.000654577,-0.00196527,0.0018775,-0.00217992,-0.660027,0.00234472,0.0311601,622,1128,-41.9988,-5.31753
-595,-104,-41.8016,5.90259,0.000585704,-0.000790743,-0.00233208,0.00232899,-0.00253403,-0.641915,0.0028085,0.0214068,629,1128,-41.8016,-5.90253
-588,-104,-41.8075,6.53857,0,0,0,0,0,0,0,-1,636,1128,-41.8075,-6.53857
-581,-104,-23.9373,2.85864,0,0,0,0,0,0,0,-1,643,1128,-23.9373,-2.85861
-574,-104,-46.2084,0.894043,0,0,0,0,0,0,0,-1,650,1128,-46.2084,-0.894044
-567,-104,-46.1501,0.946899,0.00149004,-0.00142343,-0.00290363,0.00328187,-0.00321525,-0.552896,0.00375118,0.0362183,657,1128,-46.1502,-0.946912
-560,-104,-46.3214,1.05261,0.00175553,-0.00124074,-0.00305076,0.00365615,-0.00314137,-0.557159,0.0039283,0.0396711,664,1128,-46.3213,-1.05258
-553,-104,-46.459,0.899902,0.0011713,-0.000959323,-0.00336005,0.00363088,-0.0034189,-0.631885,0.00407081,0.0464861,671,1128,-46.459,-0.899949
-546,-104,-46.3116,0.671021,0.000194085,-0.000533634,-0.00364878,0.0034971,-0.00383665,-0.735702,0.00423565,0.0474767,678,1128,-46.3116,-0.671048
-539,-104,-45.8314,0.608765,-0.000901176,-0.000657001,-0.00393084,0.00315364,-0.00471182,-0.800923,0.00457074,0.0426281,685,1128,-45.8314,-0.608811
-532,-104,-46.2145,0.722168,-0.0024344,-0.00112937,-0.00408865,0.00235851,-0.00592228,-0.864526,0.00492629,0.0430544,692,1128,-46.2145,-0.722154
-525,-104,-46.3923,0.802612,-0.00449713,-0.00184554,-0.00413526,0.00117126,-0.00751392,-0.940525,0.00544188,0.040841,699,1128,-46.3923,-0.802645
-518,-104,0,0,0,0,0,0,0,0,0,-1,706,1128,0,0
-511,-104,0,0,0,0,0,0,0,0,0,-1,713,1128,0,0
-504,-104,0,0,0,0,0,0,0,0,0,-1,720,1128,0,0
-497,-104,0,0,0,0,0,0,0,0,0,-1,727,1128,0,0
-490,-104,0,0,0,0,0,0,0,0,0,-1,734,1128,0,0
-483,-104,0,0,0,0,0,0,0,0,0,-1,741,1128,0,0
-476,-104,0,0,0,0,0,0,0,0,0,-1,748,1128,0,0
-469,-104,0,0,0,0,0,0,0,0,0,-1,755,1128,0,0
-462,-104,0,0,0,0,0,0,0,0,0,-1,762,1128,0,0
-455,-104,0,0,0,0,0,0,0,0,0,-1,769,1128,0,0
-448,-104,0,0,0,0,0,0,0,0,0,-1,776,1128,0,0
-441,-104,0,0,0,0,0,0,0,0,0,-1,783,1128,0,0
-434,-104,0,0,0,0,0,0,0,0,0,-1,790,1128,0,0
-427,-104,0,0,0,0,0,0,0,0,0,-1,797,1128,0,0
-420,-104,0,0,0,0,0,0,0,0,0,-1,804,1128,0,0
-413,-104,0,0,0,0,0,0,0,0,0,-1,811,1128,0,0
-406,-104,0,0,0,0,0,0,0,0,0,-1,818,1128,0,0
-399,-104,0,0,0,0,0,0,0,0,0,-1,825,1128,0,0
-392,-104,0,0,0,0,0,0,0,0,0,-1,832,1128,0,0
-385,-104,0,0,0,0,0,0,0,0,0,-1,839,1128,0,0
-378,-104,0,0,0,0,0,0,0,0,0,-1,846,1128,0,0
-371,-104,0,0,0,0,0,0,0,0,0,-1,853,1128,0,0
-364,-104,0,0,0,0,0,0,0,0,0,-1,860,1128,0,0
-357,-104,0,0,0,0,0,0,0,0,0,-1,867,1128,0,0
-350,-104,0,0,0,0,0,0,0,0,0,-1,874,1128,0,0
-343,-104,0,0,0,0,0,0,0,0,0,-1,881,1128,0,0
-336,-104,0,0,0,0,0,0,0,0,0,-1,888,1128,0,0
-329,-104,0,0,0,0,0,0,0,0,0,-1,895,1128,0,0
-322,-104,0,0,0,0,0,0,0,0,0,-1,902,1128,0,0
-315,-104,0,0,0,0,0,0,0,0,0,-1,909,1128,0,0
-308,-104,0,0,0,0,0,0,0,0,0,-1,916,1128,0,0
-301,-104,0,0,0,0,0,0,0,0,0,-1,923,1128,0,0
-294,-104,0,0,0,0,0,0,0,0,0,-1,930,1128,0,0
-287,-104,0,0,0,0,0,0,0,0,0,-1,937,1128,0,0
-280,-104,0,0,0,0,0,0,0,0,0,-1,944,1128,0,0
-273,-104,0,0,0,0,0,0,0,0,0,-1,951,1128,0,0
-266,-104,0,0,0,0,0,0,0,0,0,-1,958,1128,0,0
-259,-104,0,0,0,0,0,0,0,0,0,-1,965,1128,0,0
-252,-104,0,0,0,0,0,0,0,0,0,-1,972,1128,0,0
-245,-104,0,0,0,0,0,0,0,0,0,-1,979,1128,0,0
-238,-104,0,0,0,0,0,0,0,0,0,-1,986,1128,0,0
-231,-104,0,0,0,0,0,0,0,0,0,-1,993,1128,0,0
-224,-104,0,0,0,0,0,0,0,0,0,-1,1000,1128,0,0
-217,-104,0,0,0,0,0,0,0,0,0,-1,1007,1128,0,0
-210,-104,0,0,0,0,0,0,0,0,0,-1,1014,1128,0,0
-203,-104,0,0,0,0,0,0,0,0,0,-1,1021,1128,0,0
-196,-104,0,0,0,0,0,0,0,0,0,-1,1028,1128,0,0
-189,-104,0,0,0,0,0,0,0,0,0,-1,1035,1128,0,0
-182,-104,0,0,0,0,0,0,0,0,0,-1,1042,1128,0,0
-175,-104,0,0,0,0,0,0,0,0,0,-1,1049,1128,0,0
-168,-104,0,0,0,0,0,0,0,0,0,-1,1056,1128,0,0
-161,-104,0,0,0,0,0,0,0,0,0,-1,1063,1128,0,0
-154,-104,0,0,0,0,0,0,0,0,0,-1,1070,1128,0,0
-147,-104,0,0,0,0,0,0,0,0,0,-1,1077,1128,0,0
-140,-104,0,0,0,0,0,0,0,0,0,-1,1084,1128,0,0
-133,-104,0,0,0,0,0,0,0,0,0,-1,1091,1128,0,0
-126,-104,0,0,0,0,0,0,0,0,0,-1,1098,1128,0,0
-119,-104,0,0,0,0,0,0,0,0,0,-1,1105,1128,0,0
-112,-104,0,0,0,0,0,0,0,0,0,-1,1112,1128,0,0
-105,-104,0,0,0,0,0,0,0,0,0,-1,1119,1128,0,0
-98,-104,0,0,0,0,0,0,0,0,0,-1,1126,1128,0,0
-91,-104,0,0,0,0,0,0,0,0,0,-1,1133,1128,0,0
-84,-104,0,0,0,0,0,0,0,0,0,-1,1140,1128,0,0
-77,-104,0,0,0,0,0,0,0,0,0,-1,1147,1128,0,0
-70,-104,0,0,0,0,0,0,0,0,0,-1,1154,1128,0,0
-63,-104,0,0,0,0,0,0,0,0,0,-1,1161,1128,0,0
-56,-104,0,0,0,0,0,0,0,0,0,-1,1168,1128,0,0
-49,-104,0,0,0,0,0,0,0,0,0,-1,1175,1128,0,0
-42,-104,0,0,0,0,0,0,0,0,0,-1,1182,1128,0,0
-35,-104,0,0,0,0,0,0,0,0,0,-1,1189,1128,0,0
-28,-104,0,0,0,0,0,0,0,0,0,-1,1196,1128,0,0
-21,-104,0,0,0,0,0,0,0,0,0,-1,1203,1128,0,0
-14,-104,0,0,0,0,0,0,0,0,0,-1,1210,1128,0,0
-7,-104,0,0,0,0,0,0,0,0,0,-1,1217,1128,0,0
0,-104,0,0,0,0,0,0,0,0,0,-1,1224,1128,0,0
7,-104,0,0,0,0,0,0,0,0,0,-1,1231,1128,0,0
14,-104,0,0,0,0,0,0,0,0,0,-1,1238,1128,0,0
21,-104,0,0,0,0,0,0,0,0,0,-1,1245,1128,0,0
28,-104,0,0,0,0,0,0,0,0,0,-1,1252,1128,0,0
35,-104,0,0,0,0,0,0,0,0,0,-1,1259,1128,0,0
42,-104,0,0,0,0,0,0,0,0,0,-1,1266,1128,0,0
49,-104,0,0,0,0,0,0,0,0,0,-1,1273,1128,0,0
56,-104,0,0,0,0,0,0,0,0,0,-1,1280,1128,0,0
63,-104,0,0,0,0,0,0,0,0,0,-1,1287,1128,0,0
70,-104,0,0,0,0,0,0,0,0,0,-1,1294,1128,0,0
77,-104,0,0,0,0,0,0,0,0,0,-1,1301,1128,0,0
84,-104,0,0,0,0,0,0,0,0,0,-1,1308,1128,0,0
91,-104,0,0,0,0,0,0,0,0,0,-1,1315,1128,0,0
98,-104,0,0,0,0,0,0,0,0,0,-1,1322,1128,0,0
105,-104,0,0,0,0,0,0,0,0,0,-1,1329,1128,0,0
112,-104,0,0,0,0,0,0,0,0,0,-1,1336,1128,0,0
119,-104,0,0,0,0,0,0,0,0,0,-1,1343,1128,0,0
126,-104,0,0,0,0,0,0,0,0,0,-1,1350,1128,0,0
133,-104,0,0,0,0,0,0,0,0,0,-1,1357,1128,0,0
140,-104,0,0,0,0,0,0,0,0,0,-1,1364,1128,0,0
147,-104,0,0,0,0,0,0,0,0,0,-1,1371,1128,0,0
154,-104,0,0,0,0,0,0,0,0,0,-1,1378,1128,0,0
161,-104,0,0,0,0,0,0,0,0,0,-1,1385,1128,0,0
168,-104,0,0,0,0,0,0,0,0,0,-1,1392,1128,0,0
175,-104,0,0,0,0,0,0,0,0,0,-1,1399,1128,0,0
182,-104,0,0,0,0,0,0,0,0,0,-1,1406,1128,0,0
189,-104,0,0,0,0,0,0,0,0,0,-1,1413,1128,0,0
196,-104,0,0,0,0,0,0,0,0,0,-1,1420,1128,0,0
203,-104,0,0,0,0,0,0,0,0,0,-1,1427,1128,0,0
210,-104,0,0,0,0,0,0,0,0,0,-1,1434,1128,0,0
217,-104,0,0,0,0,0,0,0,0,0,-1,1441,1128,0,0
224,-104,0,0,0,0,0,0,0,0,0,-1,1448,1128,0,0
231,-104,0,0,0,0,0,0,0,0,0,-1,1455,1128,0,0
238,-104,0,0,0,0,0,0,0,0,0,-1,1462,1128,0,0
245,-104,0,0,0,0,0,0,0,0,0,-1,1469,1128,0,0
252,-104,0,0,0,0,0,0,0,0,0,-1,1476,1128,0,0
259,-104,0,0,0,0,0,0,0,0,0,-1,1483,1128,0,0
266,-104,0,0,0,0,0,0,0,0,0,-1,1490,1128,0,0
273,-104,0,0,0,0,0,0,0,0,0,-1,1497,1128,0,0
280,-104,0,0,0,0,0,0,0,0,0,-1,1504,1128,0,0
287,-104,0,0,0,0,0,0,0,0,0,-1,1511,1128,0,0
294,-104,0,0,0,0,0,0,0,0,0,-1,1518,1128,0,0
301,-104,0,0,0,0,0,0,0,0,0,-1,1525,1128,0,0
308,-104,0,0,0,0,0,0,0,0,0,-1,1532,1128,0,0
315,-104,0,0,0,0,0,0,0,0,0,-1,1539,1128,0,0
322,-104,0,0,0,0,0,0,0,0,0,-1,1546,1128,0,0
329,-104,0,0,0,0,0,0,0,0,0,-1,1553,1128,0,0
336,-104,0,0,0,0,0,0,0,0,0,-1,1560,1128,0,0
343,-104,0,0,0,0,0,0,0,0,0,-1,1567,1128,0,0
350,-104,0,0,0,0,0,0,0,0,0,-1,1574,1128,0,0
357,-104,0,0,0,0,0,0,0,0,0,-1,1581,1128,0,0
364,-104,0,0,0,0,0,0,0,0,0,-1,1588,1128,0,0
371,-104,0,0,0,0,0,0,0,0,0,-1,1595,1128,0,0
378,-104,0,0,0,0,0,0,0,0,0,-1,1602,1128,0,0
385,-104,0,0,0,0,0,0,0,0,0,-1,1609,1128,0,0
392,-104,0,0,0,0,0,0,0,0,0,-1,1616,1128,0,0
399,-104,0,0,0,0,0,0,0,0,0,-1,1623,1128,0,0
406,-104,0,0,0,0,0,0,0,0,0,-1,1630,1128,0,0
413,-104,0,0,0,0,0,0,0,0,0,-1,1637,1128,0,0
420,-104,0,0,0,0,0,0,0,0,0,-1,1644,1128,0,0
427,-104,0,0,0,0,0,0,0,0,0,-1,1651,1128,0,0
434,-104,0,0,0,0,0,0,0,0,0,-1,1658,1128,0,0
441,-104,0,0,0,0,0,0,0,0,0,-1,1665,1128,0,0
448,-104,0,0,0,0,0,0,0,0,0,-1,1672,1128,0,0
455,-104,0,0,0,0,0,0,0,0,0,-1,1679,1128,0,0
462,-104,0,0,0,0,0,0,0,0,0,-1,1686,1128,0,0
469,-104,0,0,0,0,0,0,0,0,0,-1,1693,1128,0,0
476,-104,0,0,0,0,0,0,0,0,0,-1,1700,1128,0,0
483,-104,0,0,0,0,0,0,0,0,0,-1,1707,1128,0,0
490,-104,0,0,0,0,0,0,0,0,0,-1,1714,1128,0,0
497,-104,0,0,0,0,0,0,0,0,0,-1,1721,1128,0,0
504,-104,0,0,0,0,0,0,0,0,0,-1,1728,1128,0,0
511,-104,0,0,0,0,0,0,0,0,0,-1,1735,1128,0,0
518,-104,0,0,0,0,0,0,0,0,0,-1,1742,1128,0,0
525,-104,0,0,0,0,0,0,0,0,0,-1,1749,1128,0,0
532,-104,0,0,0,0,0,0,0,0,0,-1,1756,1128,0,0
539,-104,0,0,0,0,0,0,0,0,0,-1,1763,1128,0,0
546,-104,0,0,0,0,0,0,0,0,0,-1,1770,1128,0,0
553,-104,0,0,0,0,0,0,0,0,0,-1,1777,1128,0,0
560,-104,0,0,0,0,0,0,0,0,0,-1,1784,1128,0,0
567,-104,0,0,0,0,0,0,0,0,0,-1,1791,1128,0,0
574,-104,0,0,0,0,0,0,0,0,0,-1,1798,1128,0,0
581,-104,0,0,0,0,0,0,0,0,0,-1,1805,1128,0,0
588,-104,0,0,0,0,0,0,0,0,0,-1,1812,1128,0,0
595,-104,0,0,0,0,0,0,0,0,0,-1,1819,1128,0,0
602,-104,0,0,0,0,0,0,0,0,0,-1,1826,1128,0,0
609,-104,0,0,0,0,0,0,0,0,0,-1,1833,1128,0,0
616,-104,0,0,0,0,0,0,0,0,0,-1,1840,1128,0,0
623,-104,0,0,0,0,0,0,0,0,0,-1,1847,1128,0,0
630,-104,0,0,0,0,0,0,0,0,0,-1,1854,1128,0,0
637,-104,0,0,0,0,0,0,0,0,0,-1,1861,1128,0,0
644,-104,61.1293,3.00549,0.00652162,-0.00162869,-0.00885682,0.0121958,-0.0073029,-0.569781,0.0113751,0.0389413,1868,1128,61.1292,-3.00544
651,-104,61.2352,2.80664,0.00432089,-0.00129614,-0.00588003,0.0080287,-0.00500395,-0.5626,0.00759166,0.037516,1875,1128,61.2353,-2.80659
658,-104,61.2871,2.68787,0.00290905,-0.00101145,-0.00387171,0.00528847,-0.00339087,-0.551061,0.00505078,0.0407615,1882,1128,61.2871,-2.6879
665,-104,61.3772,2.60303,0.0018565,-0.000716443,-0.00242963,0.00331923,-0.00217917,-0.541917,0.00319717,0.0439201,1889,1128,61.3772,-2.60308
672,-104,61.4449,2.59949,0.00103144,-0.000448285,-0.00136211,0.00184165,-0.0012585,-0.536604,0.0018004,0.0438773,1896,1128,61.4449,-2.59954
679,-104,61.3497,2.65808,0.000370758,-0.00036549,-0.000734476,0.0008242,-0.000818932,-0.553092,0.000948664,0.0415984,1903,1128,61.3497,-2.65811
686,-104,61.2484,2.63904,0.000318916,-0.000515679,-0.000400634,0.000480103,-0.000676867,-0.382514,0.000671189,0.0391468,1910,1128,61.2484,-2.63898
693,-104,61.2487,2.71899,0.000458281,-0.00068198,-0.000215186,0.000497538,-0.000721237,-0.180451,0.0007076,0.0334288,1917,1128,61.2487,-2.71898
700,-104,61.2319,2.59094,0.000476442,-0.000792774,0.000125407,0.000488714,-0.000805046,0.0975497,0.000754359,0.0259038,1924,1128,61.232,-2.59096
707,-104,61.238,2.64563,0,0,0,0,0,0,0,-1,1931,1128,61.238,-2.64566
714,-104,45.5221,2.32166,0,0,0,0,0,0,0,-1,1938,1128,45.5221,-2.3216
721,-104,56.4836,8.5896,0,0,0,0,0,0,0,-1,1945,1128,56.4837,-8.58962
728,-104,56.6481,7.97388,0,0,0,0,0,0,0,-1,1952,1128,56.648,-7.97388
735,-104,56.7865,7.41553,0,0,0,0,0,0,0,-1,1959,1128,56.7865,-7.41552
742,-104,56.5839,7.14648,-0.00125004,0.0012724,0.00113683,0.00170913,-0.00168678,1.20401,0.00196065,0.0231276,1966,1128,56.5839,-7.14645
749,-104,56.489,6.71631,-0.00210078,0.00282042,0.00117365,0.00308599,-0.00236635,1.34827,0.00315704,0.0218186,1973,1128,56.489,-6.71626
756,-104,56.4977,6.26379,-0.00319098,0.00567687,0.000549914,0.00571084,-0.00322495,1.5091,0.0052252,0.0178276,1980,1128,56.4977,-6.26382
763,-104,56.4396,5.84131,-0.00450265,0.0102347,-0.000895108,0.0102889,-0.00455682,-1.51036,0.00878156,0.0177964,1987,1128,56.4396,-5.84135
770,-104,56.3765,5.43433,-0.00570057,0.0164881,-0.00325964,0.016957,-0.00616952,-1.42791,0.0138278,0.0159851,1994,1128,56.3765,-5.4343
777,-104,56.281,4.95496,-0.006506,0.0239568,-0.00635702,0.0252301,-0.00777936,-1.3731,0.019926,0.0244882,2001,1128,56.2811,-4.95497
784,-104,56.1802,4.41516,-0.00679028,0.032748,-0.0103159,0.0352776,-0.00931995,-1.33032,0.0271634,0.0429054,2008,1128,56.1802,-4.41516
791,-104,56.1135,3.88367,0,0,0,0,0,0,0,-1,2015,1128,56.1136,-3.88366
798,-104,56.0935,1.8291,0,0,0,0,0,0,0,-1,2022,1128,56.0935,-1.82905
805,-104,56.5515,0.790649,0,0,0,0,0,0,0,-1,2029,1128,56.5516,-0.790695
812,-104,59.0415,2.15808,0,0,0,0,0,0,0,-1,2036,1128,59.0415,-2.15803
-700,-111,0,0,0,0,0,0,0,0,0,-1,524,1135,0,0
-693,-111,-46.1571,0.590088,0,0,0,0,0,0,0,-1,531,1135,-46.1571,-0.590132
-686,-111,-46.3707,1.03809,0,0,0,0,0,0,0,-1,538,1135,-46.3707,-1.03811
-679,-111,-47.0143,1.68005,0,0,0,0,0,0,0,-1,545,1135,-47.0143,-1.68001
-672,-111,-47.3146,0.862793,0,0,0,0,0,0,0,-1,552,1135,-47.3146,-0.862838
-665,-111,-48.1072,1.31348,0,0,0,0,0,0,0,-1,559,1135,-48.1072,-1.31344
-658,-111,-40.6674,0.554932,0,0,0,0,0,0,0,-1,566,1135,-40.6674,-0.554913
-651,-111,-40.7573,1.37708,0.00876541,0.0159138,-0.0198721,0.0325305,-0.00785137,-0.874376,0.0247233,0.0485643,573,1135,-40.7573,-1.37711
-644,-111,-41.0288,2.37842,0.00584216,0.0117505,-0.0127549,0.0218889,-0.00429623,-0.899197,0.0162155,0.0268675,580,1135,-41.0288,-2.37837
-637,-111,-41.1326,2.89832,0.00333033,0.00805933,-0.00793573,0.0139753,-0.00258567,-0.930188,0.0102877,0.0117554,587,1135,-41.1326,-2.89827
-630,-111,-41.1718,3.29871,0.00146106,0.00518226,-0.00461308,0.00829583,-0.0016525,-0.977086,0.00615577,0.0236664,594,1135,-41.1718,-3.2987
-623,-111,-41.1852,3.83618,0.00035002,0.00259431,-0.00287759,0.00456081,-0.00161648,-0.971309,0.00369903,0.0196085,601,1135,-41.1852,-3.83623
-616,-111,-41.4829,4.34814,-0.000462959,0.00061817,-0.00202663,0.00217509,-0.00201988,-0.915729,0.00242252,0.0231383,608,1135,-41.4829,-4.34819
-609,-111,-41.7559,4.79114,-0.000775403,-0.000355575,-0.00200145,0.00144694,-0.00257792,-0.837648,0.00235413,0.0344474,615,1135,-41.7559,-4.79118
-602,-111,-41.6244,5.35583,-0.000421008,-0.000689854,-0.00246346,0.00191169,-0.00302255,-0.758142,0.00287275,0.0412934,622,1135,-41.6244,-5.35583
-595,-111,-41.3015,5.92725,-0.000168394,-0.000851764,-0.00278794,0.00229872,-0.00331888,-0.724423,0.0032611,0.0198302,629,1135,-41.3014,-5.92729
-588,-111,-41.014,6.63257,0,0,0,0,0,0,0,-1,636,1135,-41.014,-6.63259
-581,-111,-21.0555,3.14551,0,0,0,0,0,0,0,-1,643,1135,-21.0555,-3.14548
-574,-111,-46.2301,0.846802,0,0,0,0,0,0,0,-1,650,1135,-46.2301,-0.846852
-567,-111,-46.2056,1.17065,0.0010518,-0.00150186,-0.00332702,0.00333859,-0.00378865,-0.602177,0.00411765,0.0395559,657,1135,-46.2055,-1.17067
-560,-111,-46.337,1.2655,0.0015887,-0.00138175,-0.0034446,0.00385463,-0.00364769,-0.581854,0.00433201,0.0404605,664,1135,-46.337,-1.26548
-553,-111,-46.4442,0.941895,0.00125881,-0.00115476,-0.00374188,0.00398369,-0.00387964,-0.62941,0.00454003,0.0447038,671,1135,-46.4442,-0.941893
-546,-111,-46.3563,0.835938,0.000507941,-0.000685985,-0.00397961,0.00393512,-0.00411316,-0.710951,0.00464705,0.042712,678,1135,-46.3563,-0.835955
-539,-111,-45.9933,0.848999,0,0,0,0,0,0,0,-1,685,1135,-45.9934,-0.849031
-532,-111,-46.121,0.790405,-0.00194654,-0.000947407,-0.00426269,0.00284489,-0.00573883,-0.84373,0.00504883,0.0441161,692,1135,-46.121,-0.790387
-525,-111,-46.2645,0.780884,-0.00384733,-0.00147412,-0.00423823,0.00174049,-0.00706193,-0.921891,0.00538275,0.0403989,699,1135,-46.2645,-0.780846
-518,-111,0,0,0,0,0,0,0,0,0,-1,706,1135,0,0
-511,-111,0,0,0,0,0,0,0,0,0,-1,713,1135,0,0
-504,-111,0,0,0,0,0,0,0,0,0,-1,720,1135,0,0
-497,-111,0,0,0,0,0,0,0,0,0,-1,727,1135,0,0
-490,-111,0,0,0,0,0,0,0,0,0,-1,734,1135,0,0
-483,-111,0,0,0,0,0,0,0,0,0,-1,741,1135,0,0
-476,-111,0,0,0,0,0,0,0,0,0,-1,748,1135,0,0
-469,-111,0,0,0,0,0,0,0,0,0,-1,755,1135,0,0
-462,-111,0,0,0,0,0,0,0,0,0,-1,762,1135,0,0
-455,-111,0,0,0,0,0,0,0,0,0,-1,769,1135,0,0
-448,-111,0,0,0,0,0,0,0,0,0,-1,776,1135,0,0
-441,-111,0,0,0,0,0,0,0,0,0,-1,783,1135,0,0
-434,-111,0,0,0,0,0,0,0,0,0,-1,790,1135,0,0
-427,-111,0,0,0,0,0,0,0,0,0,-1,797,1135,0,0
-420,-111,0,0,0,0,0,0,0,0,0,-1,804,1135,0,0
-413,-111,0,0,0,0,0,0,0,0,0,-1,811,1135,0,0
-406,-111,0,0,0,0,0,0,0,0,0,-1,818,1135,0,0
-399,-111,0,0,0,0,0,0,0,0,0,-1,825,1135,0,0
-392,-111,0,0,0,0,0,0,0,0,0,-1,832,1135,0,0
-385,-111,0,0,0,0,0,0,0,0,0,-1,839,1135,0,0
-378,-111,0,0,0,0,0,0,0,0,0,-1,846,1135,0,0
-371,-111,0,0,0,0,0,0,0,0,0,-1,853,1135,0,0
-364,-111,0,0,0,0,0,0,0,0,0,-1,860,1135,0,0
-357,-111,0,0,0,0,0,0,0,0,0,-1,867,1135,0,0
-350,-111,0,0,0,0,0,0,0,0,0,-1,874,1135,0,0
-343,-111,0,0,0,0,0,0,0,0,0,-1,881,1135,0,0
-336,-111,0,0,0,0,0,0,0,0,0,-1,888,1135,0,0
-329,-111,0,0,0,0,0,0,0,0,0,-1,895,1135,0,0
-322,-111,0,0,0,0,0,0,0,0,0,-1,902,1135,0,0
-315,-111,0,0,0,0,0,0,0,0,0,-1,909,1135,0,0
-308,-111,0,0,0,0,0,0,0,0,0,-1,916,1135,0,0
-301,-111,0,0,0,0,0,0,0,0,0,-1,923,1135,0,0
-294,-111,0,0,0,0,0,0,0,0,0,-1,930,1135,0,0
-287,-111,0,0,0,0,0,0,0,0,0,-1,937,1135,0,0
-280,-111,0,0,0,0,0,0,0,0,0,-1,944,1135,0,0
-273,-111,0,0,0,0,0,0,0,0,0,-1,951,1135,0,0
-266,-111,0,0,0,0,0,0,0,0,0,-1,958,1135,0,0
-259,-111,0,0,0,0,0,0,0,0,0,-1,965,1135,0,0
-252,-111,0,0,0,0,0,0,0,0,0,-1,972,1135,0,0
-245,-111,0,0,0,0,0,0,0,0,0,-1,979,1135,0,0
-238,-111,0,0,0,0,0,0,0,0,0,-1,986,1135,0,0
-231,-111,0,0,0,0,0,0,0,0,0,-1,993,1135,0,0
-224,-111,0,0,0,0,0,0,0,0,0,-1,1000,1135,0,0
-217,-111,0,0,0,0,0,0,0,0,0,-1,1007,1135,0,0
-210,-111,0,0,0,0,0,0,0,0,0,-1,1014,1135,0,0
-203,-111,0,0,0,0,0,0,0,0,0,-1,1021,1135,0,0
-196,-111,0,0,0,0,0,0,0,0,0,-1,1028,1135,0,0
-189,-111,0,0,0,0,0,0,0,0,0,-1,1035,1135,0,0
-182,-111,0,0,0,0,0,0,0,0,0,-1,1042,1135,0,0
-175,-111,0,0,0,0,0,0,0,0,0,-1,1049,1135,0,0
-168,-111,0,0,0,0,0,0,0,0,0,-1,1056,1135,0,0
-161,-111,0,0,0,0,0,0,0,0,0,-1,1063,1135,0,0
-154,-111,0,0,0,0,0,0,0,0,0,-1,1070,1135,0,0
-147,-111,0,0,0,0,0,0,0,0,0,-1,1077,1135,0,0
-140,-111,0,0,0,0,0,0,0,0,0,-1,1084,1135,0,0
-133,-111,0,0,0,0,0,0,0,0,0,-1,1091,1135,0,0
-126,-111,0,0,0,0,0,0,0,0,0,-1,1098,1135,0,0
-119,-111,0,0,0,0,0,0,0,0,0,-1,1105,1135,0,0
-112,-111,0,0,0,0,0,0,0,0,0,-1,1112,1135,0,0
-105,-111,0,0,0,0,0,0,0,0,0,-1,1119,1135,0,0
-98,-111,0,0,0,0,0,0,0,0,0,-1,1126,1135,0,0
-91,-111,0,0,0,0,0,0,0,0,0,-1,1133,1135,0,0
-84,-111,0,0,0,0,0,0,0,0,0,-1,1140,1135,0,0
-77,-111,0,0,0,0,0,0,0,0,0,-1,1147,1135,0,0
-70,-111,0,0,0,0,0,0,0,0,0,-1,1154,1135,0,0
-63,-111,0,0,0,0,0,0,0,0,0,-1,1161,1135,0,0
-56,-111,0,0,0,0,0,0,0,0,0,-1,1168,1135,0,0
-49,-111,0,0,0,0,0,0,0,0,0,-1,1175,1135,0,0
-42,-111,0,0,0,0,0,0,0,0,0,-1,1182,1135,0,0
-35,-111,0,0,0,0,0,0,0,0,0,-1,1189,1135,0,0
-28,-111,0,0,0,0,0,0,0,0,0,-1,1196,1135,0,0
-21,-111,0,0,0,0,0,0,0,0,0,-1,1203,1135,0,0
-14,-111,0,0,0,0,0,0,0,0,0,-1,1210,1135,0,0
-7,-111,0,0,0,0,0,0,0,0,0,-1,1217,1135,0,0
0,-111,0,0,0,0,0,0,0,0,0,-1,1224,1135,0,0
7,-111,0,0,0,0,0,0,0,0,0,-1,1231,1135,0,0
14,-111,0,0,0,0,0,0,0,0,0,-1,1238,1135,0,0
21,-111,0,0,0,0,0,0,0,0,0,-1,1245,1135,0,0
28,-111,0,0,0,0,0,0,0,0,0,-1,1252,1135,0,0
35,-111,0,0,0,0,0,0,0,0,0,-1,1259,1135,0,0
42,-111,0,0,0,0,0,0,0,0,0,-1,1266,1135,0,0
49,-111,0,0,0,0,0,0,0,0,0,-1,1273,1135,0,0
56,-111,0,0,0,0,0,0,0,0,0,-1,1280,1135,0,0
63,-111,0,0,0,0,0,0,0,0,0,-1,1287,1135,0,0
70,-111,0,0,0,0,0,0,0,0,0,-1,1294,1135,0,0
77,-111,0,0,0,0,0,0,0,0,0,-1,1301,1135,0,0
84,-111,0,0,0,0,0,0,0,0,0,-1,1308,1135,0,0
91,-111,0,0,0,0,0,0,0,0,0,-1,1315,1135,0,0
98,-111,0,0,0,0,0,0,0,0,0,-1,1322,1135,0,0
105,-111,0,0,0,0,0,0,0,0,0,-1,1329,1135,0,0
112,-111,0,0,0,0,0,0,0,0,0,-1,1336,1135,0,0
119,-111,0,0,0,0,0,0,0,0,0,-1,1343,1135,0,0
126,-111,0,0,0,0,0,0,0,0,0,-1,1350,1135,0,0
133,-111,0,0,0,0,0,0,0,0,0,-1,1357,1135,0,0
140,-111,0,0,0,0,0,0,0,0,0,-1,1364,1135,0,0
147,-111,0,0,0,0,0,0,0,0,0,-1,1371,1135,0,0
154,-111,0,0,0,0,0,0,0,0,0,-1,1378,1135,0,0
161,-111,0,0,0,0,0,0,0,0,0,-1,1385,1135,0,0
168,-111,0,0,0,0,0,0,0,0,0,-1,1392,1135,0,0
175,-111,0,0,0,0,0,0,0,0,0,-1,1399,1135,0,0
182,-111,0,0,0,0,0,0,0,0,0,-1,1406,1135,0,0
189,-111,0,0,0,0,0,0,0,0,0,-1,1413,1135,0,0
196,-111,0,0,0,0,0,0,0,0,0,-1,1420,1135,0,0
203,-111,0,0,0,0,0,0,0,0,0,-1,1427,1135,0,0
210,-111,0,0,0,0,0,0,0,0,0,-1,1434,1135,0,0
217,-111,0,0,0,0,0,0,0,0,0,-1,1441,1135,0,0
224,-111,0,0,0,0,0,0,0,0,0,-1,1448,1135,0,0
231,-111,0,0,0,0,0,0,0,0,0,-1,1455,1135,0,0
238,-111,0,0,0,0,0,0,0,0,0,-1,1462,1135,0,0
245,-111,0,0,0,0,0,0,0,0,0,-1,1469,1135,0,0
252,-111,0,0,0,0,0,0,0,0,0,-1,1476,1135,0,0
259,-111,0,0,0,0,0,0,0,0,0,-1,1483,1135,0,0
266,-111,0,0,0,0,0,0,0,0,0,-1,1490,1135,0,0
273,-111,0,0,0,0,0,0,0,0,0,-1,1497,1135,0,0
280,-111,0,0,0,0,0,0,0,0,0,-1,1504,1135,0,0
287,-111,0,0,0,0,0,0,0,0,0,-1,1511,1135,0,0
294,-111,0,0,0,0,0,0,0,0,0,-1,1518,1135,0,0
301,-111,0,0,0,0,0,0,0,0,0,-1,1525,1135,0,0
308,-111,0,0,0,0,0,0,0,0,0,-1,1532,1135,0,0
315,-111,0,0,0,0,0,0,0,0,0,-1,1539,1135,0,0
322,-111,0,0,0,0,0,0,0,0,0,-1,1546,1135,0,0
329,-111,0,0,0,0,0,0,0,0,0,-1,1553,1135,0,0
336,-111,0,0,0,0,0,0,0,0,0,-1,1560,1135,0,0
343,-111,0,0,0,0,0,0,0,0,0,-1,1567,1135,0,0
350,-111,0,0,0,0,0,0,0,0,0,-1,1574,1135,0,0
357,-111,0,0,0,0,0,0,0,0,0,-1,1581,1135,0,0
364,-111,0,0,0,0,0,0,0,0,0,-1,1588,1135,0,0
371,-111,0,0,0,0,0,0,0,0,0,-1,1595,1135,0,0
378,-111,0,0,0,0,0,0,0,0,0,-1,1602,1135,0,0
385,-111,0,0,0,0,0,0,0,0,0,-1,1609,1135,0,0
392,-111,0,0,0,0,0,0,0,0,0,-1,1616,1135,0,0
399,-111,0,0,0,0,0,0,0,0,0,-1,1623,1135,0,0
406,-111,0,0,0,0,0,0,0,0,0,-1,1630,1135,0,0
413,-111,0,0,0,0,0,0,0,0,0,-1,1637,1135,0,0
420,-111,0,0,0,0,0,0,0,0,0,-1,1644,1135,0,0
427,-111,0,0,0,0,0,0,0,0,0,-1,1651,1135,0,0
434,-111,0,0,0,0,0,0,0,0,0,-1,1658,1135,0,0
441,-111,0,0,0,0,0,0,0,0,0,-1,1665,1135,0,0
448,-111,0,0,0,0,0,0,0,0,0,-1,1672,1135,0,0
455,-111,0,0,0,0,0,0,0,0,0,-1,1679,1135,0,0
462,-111,0,0,0,0,0,0,0,0,0,-1,1686,1135,0,0
469,-111,0,0,0,0,0,0,0,0,0,-1,1693,1135,0,0
476,-111,0,0,0,0,0,0,0,0,0,-1,1700,1135,0,0
483,-111,0,0,0,0,0,0,0,0,0,-1,1707,1135,0,0
490,-111,0,0,0,0,0,0,0,0,0,-1,1714,1135,0,0
497,-111,0,0,0,0,0,0,0,0,0,-1,1721,1135,0,0
504,-111,0,0,0,0,0,0,0,0,0,-1,1728,1135,0,0
511,-111,0,0,0,0,0,0,0,0,0,-1,1735,1135,0,0
518,-111,0,0,0,0,0,0,0,0,0,-1,1742,1135,0,0
525,-111,0,0,0,0,0,0,0,0,0,-1,1749,1135,0,0
532,-111,0,0,0,0,0,0,0,0,0,-1,1756,1135,0,0
539,-111,0,0,0,0,0,0,0,0,0,-1,1763,1135,0,0
546,-111,0,0,0,0,0,0,0,0,0,-1,1770,1135,0,0
553,-111,0,0,0,0,0,0,0,0,0,-1,1777,1135,0,0
560,-111,0,0,0,0,0,0,0,0,0,-1,1784,1135,0,0
567,-111,0,0,0,0,0,0,0,0,0,-1,1791,1135,0,0
574,-111,0,0,0,0,0,0,0,0,0,-1,1798,1135,0,0
581,-111,0,0,0,0,0,0,0,0,0,-1,1805,1135,0,0
588,-111,0,0,0,0,0,0,0,0,0,-1,1812,1135,0,0
595,-111,0,0,0,0,0,0,0,0,0,-1,1819,1135,0,0
602,-111,0,0,0,0,0,0,0,0,0,-1,1826,1135,0,0
609,-111,0,0,0,0,0,0,0,0,0,-1,1833,1135,0,0
616,-111,0,0,0,0,0,0,0,0,0,-1,1840,1135,0,0
623,-111,0,0,0,0,0,0,0,0,0,-1,1847,1135,0,0
630,-111,0,0,0,0,0,0,0,0,0,-1,1854,1135,0,0
637,-111,0,0,0,0,0,0,0,0,0,-1,1861,1135,0,0
644,-111,61.1871,3.07776,0.0061611,-0.00048066,-0.00919513,0.0126167,-0.00693621,-0.612109,0.0114466,0.0420816,1868,1135,61.1871,-3.0777
651,-111,61.3383,2.78931,0.00402478,-0.000491178,-0.00617198,0.00833885,-0.00480525,-0.610039,0.00767961,0.0429593,1875,1135,61.3382,-2.78927
658,-111,61.3822,2.66565,0.00266297,-0.000467796,-0.00408855,0.00547556,-0.00328039,-0.602572,0.00510793,0.0443534,1882,1135,61.3822,-2.66568
665,-111,61.4233,2.60803,0.00164525,-0.000376557,-0.00254479,0.00337257,-0.00210388,-0.596334,0.00318999,0.0442608,1889,1135,61.4233,-2.60801
672,-111,61.3868,2.57166,0.000844041,-0.000285617,-0.00138825,0.00177797,-0.00121954,-0.592193,0.00174059,0.043262,1896,1135,61.3868,-2.57164
679,-111,61.233,2.86572,0.000225475,-0.000369625,-0.000700945,0.00068941,-0.000833561,-0.584675,0.000880599,0.0406608,1903,1135,61.233,-2.86575
686,-111,61.1503,2.81226,0.00021904,-0.000640698,-0.000357267,0.000348122,-0.00076978,-0.346711,0.000660548,0.0399308,1910,1135,61.1503,-2.81225
693,-111,61.1266,2.72388,0.000343283,-0.000848204,-0.000169303,0.000366873,-0.000871794,-0.138444,0.000734683,0.0365871,1917,1135,61.1266,-2.72383
700,-111,61.2429,2.62671,0.000338824,-0.00100111,0.000193918,0.000366323,-0.00102861,0.140872,0.000835077,0.0257351,1924,1135,61.2429,-2.62673
707,-111,61.2595,2.61951,0,0,0,0,0,0,0,-1,1931,1135,61.2596,-2.61953
714,-111,45.1654,7.39746,0,0,0,0,0,0,0,-1,1938,1135,45.1654,-7.39745
721,-111,55.9971,8.71936,0,0,0,0,0,0,0,-1,1945,1135,55.9971,-8.71933
728,-111,56.1316,8.0415,-0.000428849,-0.000321621,0.00104446,0.000670598,-0.00142107,0.811042,0.00123326,0.0253992,1952,1135,56.1316,-8.04152
735,-111,56.1731,7.60254,-0.00065286,-0.000152845,0.00108152,0.000707185,-0.00151289,0.898985,0.0013096,0.0270336,1959,1135,56.1731,-7.60248
742,-111,56.0518,7.2063,-0.00115856,0.000980705,0.00132161,0.0016113,-0.00178915,1.1256,0.00196415,0.0180253,1966,1135,56.0518,-7.20633
749,-111,56.0133,6.74475,-0.0019773,0.00262289,0.00150151,0.00306961,-0.00242402,1.28162,0.00317904,0.01827,1973,1135,56.0133,-6.74479
756,-111,56.0192,6.27747,-0.00302119,0.00577465,0.000957077,0.00587759,-0.00312412,1.46366,0.00527756,0.0174918,1980,1135,56.0191,-6.27743
763,-111,55.9733,5.83691,-0.00417441,0.0108461,-0.000341317,0.0108539,-0.00418216,-1.54809,0.00896139,0.0161151,1987,1135,55.9732,-5.83689
770,-111,55.9409,5.38477,-0.00510617,0.0175748,-0.00239188,0.0178243,-0.00535567,-1.46686,0.0140135,0.0137206,1994,1135,55.9408,-5.38479
777,-111,55.7429,4.89197,-0.00559794,0.0255272,-0.00510482,0.0263431,-0.00641379,-1.41232,0.020045,0.0273098,2001,1135,55.7429,-4.89197
784,-111,55.5134,4.36499,-0.00552592,0.0348196,-0.00861851,0.0365836,-0.00728986,-1.36892,0.0271472,0.0443978,2008,1135,55.5133,-4.36493
791,-111,55.1763,3.93103,0,0,0,0,0,0,0,-1,2015,1135,55.1763,-3.93101
798,-111,54.8232,3.5658,0,0,0,0,0,0,0,-1,2022,1135,54.8233,-3.56586
805,-111,54.8418,2.34473,0,0,0,0,0,0,0,-1,2029,1135,54.8418,-2.34478
812,-111,58.8918,1.90527,0,0,0,0,0,0,0,-1,2036,1135,58.8918,-1.9053
-700,-118,0,0,0,0,0,0,0,0,0,-1,524,1142,0,0
-693,-118,-43.6955,1.43152,0,0,0,0,0,0,0,-1,531,1142,-43.6955,-1.43153
-686,-118,-44.5116,1.44019,0.00729623,0.0416996,-0.123536,0.149226,-0.10023,-0.854576,0.144946,0.0493355,538,1142,-44.5116,-1.44019
-679,-118,-45.1336,1.47351,0,0,0,0,0,0,0,-1,545,1142,-45.1336,-1.47355
-672,-118,-45.7206,1.56433,0,0,0,0,0,0,0,-1,552,1142,-45.7206,-1.56438
-665,-118,-46.2824,1.65356,0,0,0,0,0,0,0,-1,559,1142,-46.2824,-1.65353
-658,-118,-40.3921,0.945068,0,0,0,0,0,0,0,-1,566,1142,-40.3921,-0.945085
-651,-118,-40.3132,1.63367,0.00872927,0.0165483,-0.0240932,0.0370472,-0.0117696,-0.86583,0.0294169,0.0495968,573,1142,-40.3133,-1.63361
-644,-118,-40.4031,2.3324,0.00599823,0.0122861,-0.0156328,0.0250879,-0.00680358,-0.884631,0.0193951,0.0326161,580,1142,-40.4031,-2.3324
-637,-118,-40.5718,2.92249,0.0034959,0.00850406,-0.00986755,0.0161803,-0.00418034,-0.90966,0.0124171,0.018054,587,1142,-40.5718,-2.92243
-630,-118,-40.6208,3.38611,0.00157559,0.00553327,-0.00580113,0.00968378,-0.00257492,-0.949766,0.00746371,0.02497,594,1142,-40.6208,-3.38605
-623,-118,-40.608,3.89038,3.04179e-05,0.00274515,-0.00357936,0.00521587,-0.0024403,-0.966631,0.00451608,0.0196826,601,1142,-40.608,-3.89043
-616,-118,-40.7632,4.37976,-0.0012277,0.000653853,-0.00251717,0.00240031,-0.00297415,-0.964232,0.00310884,0.0276242,608,1142,-40.7632,-4.3798
-609,-118,-41.033,4.67944,-0.00161748,-0.000306552,-0.00245812,0.001582,-0.00350603,-0.915693,0.00300677,0.0422122,615,1142,-41.033,-4.67944
-602,-118,-40.8823,5.51929,-0.0011297,-0.00059743,-0.00294636,0.00209479,-0.00382192,-0.830439,0.00346418,0.0440222,622,1142,-40.8822,-5.51929
-595,-118,-40.9034,5.88123,-0.000836449,-0.000766409,-0.0032048,0.00240356,-0.00400642,-0.790862,0.00373917,0.0326847,629,1142,-40.9034,-5.88128
-588,-118,-40.3035,6.72974,0,0,0,0,0,0,0,-1,636,1142,-40.3036,-6.72969
-581,-118,-24.6116,3.89648,0,0,0,0,0,0,0,-1,643,1142,-24.6116,-3.89645
-574,-118,-46.2408,0.825806,0,0,0,0,0,0,0,-1,650,1142,-46.2408,-0.825858
-567,-118,-46.2507,1.13232,0.000677204,-0.00153481,-0.00365671,0.00339151,-0.00424911,-0.638542,0.00442057,0.0413726,657,1142,-46.2507,-1.13234
-560,-118,-46.2892,1.22473,0.00144535,-0.00148306,-0.00373093,0.0039891,-0.00402681,-0.598407,0.00462801,0.036176,664,1142,-46.2892,-1.22474
-553,-118,-46.217,0.969604,0.00139855,-0.00134926,-0.00397551,0.00423086,-0.00418158,-0.619026,0.00485695,0.0400859,671,1142,-46.217,-0.969598
-546,-118,-46.0237,0.926514,0.000920862,-0.000933405,-0.00411333,0.00421025,-0.0042228,-0.674552,0.00486882,0.0424764,678,1142,-46.0238,-0.926457
-539,-118,-46.0997,0.91394,-2.64466e-05,-0.000876603,-0.00422966,0.00379944,-0.00470249,-0.735317,0.00491782,0.0442331,685,1142,-46.0997,-0.913892
-532,-118,-46.0717,0.828857,0,0,0,0,0,0,0,-1,692,1142,-46.0717,-0.828898
-525,-118,-46.2911,0.803101,0,0,0,0,0,0,0,-1,699,1142,-46.2912,-0.803108
-518,-118,0,0,0,0,0,0,0,0,0,-1,706,1142,0,0
-511,-118,0,0,0,0,0,0,0,0,0,-1,713,1142,0,0
-504,-118,0,0,0,0,0,0,0,0,0,-1,720,1142,0,0
-497,-118,0,0,0,0,0,0,0,0,0,-1,727,1142,0,0
-490,-118,0,0,0,0,0,0,0,0,0,-1,734,1142,0,0
-483,-118,0,0,0,0,0,0,0,0,0,-1,741,1142,0,0
-476,-118,0,0,0,0,0,0,0,0,0,-1,748,1142,0,0
-469,-118,0,0,0,0,0,0,0,0,0,-1,755,1142,0,0
-462,-118,0,0,0,0,0,0,0,0,0,-1,762,1142,0,0
-455,-118,0,0,0,0,0,0,0,0,0,-1,769,1142,0,0
-448,-118,0,0,0,0,0,0,0,0,0,-1,776,1142,0,0
-441,-118,0,0,0,0,0,0,0,0,0,-1,783,1142,0,0
-434,-118,0,0,0,0,0,0,0,0,0,-1,790,1142,0,0
-427,-118,0,0,0,0,0,0,0,0,0,-1,797,1142,0,0
-420,-118,0,0,0,0,0,0,0,0,0,-1,804,1142,0,0
-413,-118,0,0,0,0,0,0,0,0,0,-1,811,1142,0,0
-406,-118,0,0,0,0,0,0,0,0,0,-1,818,1142,0,0
-399,-118,0,0,0,0,0,0,0,0,0,-1,825,1142,0,0
-392,-118,0,0,0,0,0,0,0,0,0,-1,832,1142,0,0
-385,-118,0,0,0,0,0,0,0,0,0,-1,839,1142,0,0
-378,-118,0,0,0,0,0,0,0,0,0,-1,846,1142,0,0
-371,-118,0,0,0,0,0,0,0,0,0,-1,853,1142,0,0
-364,-118,0,0,0,0,0,0,0,0,0,-1,860,1142,0,0
-357,-118,0,0,0,0,0,0,0,0,0,-1,867,1142,0,0
-350,-118,0,0,0,0,0,0,0,0,0,-1,874,1142,0,0
-343,-118,0,0,0,0,0,0,0,0,0,-1,881,1142,0,0
-336,-118,0,0,0,0,0,0,0,0,0,-1,888,1142,0,0
-329,-118,0,0,0,0,0,0,0,0,0,-1,895,1142,0,0
-322,-118,0,0,0,0,0,0,0,0,0,-1,902,1142,0,0
-315,-118,0,0,0,0,0,0,0,0,0,-1,909,1142,0,0
-308,-118,0,0,0,0,0,0,0,0,0,-1,916,1142,0,0
-301,-118,0,0,0,0,0,0,0,0,0,-1,923,1142,0,0
-294,-118,0,0,0,0,0,0,0,0,0,-1,930,1142,0,0
-287,-118,0,0,0,0,0,0,0,0,0,-1,937,1142,0,0
-280,-118,0,0,0,0,0,0,0,0,0,-1,944,1142,0,0
-273,-118,0,0,0,0,0,0,0,0,0,-1,951,1142,0,0
-266,-118,0,0,0,0,0,0,0,0,0,-1,958,1142,0,0
-259,-118,0,0,0,0,0,0,0,0,0,-1,965,1142,0,0
-252,-118,0,0,0,0,0,0,0,0,0,-1,972,1142,0,0
-245,-118,0,0,0,0,0,0,0,0,0,-1,979,1142,0,0
-238,-118,0,0,0,0,0,0,0,0,0,-1,986,1142,0,0
-231,-118,0,0,0,0,0,0,0,0,0,-1,993,1142,0,0
-224,-118,0,0,0,0,0,0,0,0,0,-1,1000,1142,0,0
-217,-118,0,0,0,0,0,0,0,0,0,-1,1007,1142,0,0
-210,-118,0,0,0,0,0,0,0,0,0,-1,1014,1142,0,0
-203,-118,0,0,0,0,0,0,0,0,0,-1,1021,1142,0,0
-196,-118,0,0,0,0,0,0,0,0,0,-1,1028,1142,0,0
-189,-118,0,0,0,0,0,0,0,0,0,-1,1035,1142,0,0
-182,-118,0,0,0,0,0,0,0,0,0,-1,1042,1142,0,0
-175,-118,0,0,0,0,0,0,0,0,0,-1,1049,1142,0,0
-168,-118,0,0,0,0,0,0,0,0,0,-1,1056,1142,0,0
-161,-118,0,0,0,0,0,0,0,0,0,-1,1063,1142,0,0
-154,-118,0,0,0,0,0,0,0,0,0,-1,1070,1142,0,0
-147,-118,0,0,0,0,0,0,0,0,0,-1,1077,1142,0,0
-140,-118,0,0,0,0,0,0,0,0,0,-1,1084,1142,0,0
-133,-118,0,0,0,0,0,0,0,0,0,-1,1091,1142,0,0
-126,-118,0,0,0,0,0,0,0,0,0,-1,1098,1142,0,0
-119,-118,0,0,0,0,0,0,0,0,0,-1,1105,1142,0,0
-112,-118,0,0,0,0,0,0,0,0,0,-1,1112,1142,0,0
-105,-118,0,0,0,0,0,0,0,0,0,-1,1119,1142,0,0
-98,-118,0,0,0,0,0,0,0,0,0,-1,1126,1142,0,0
-91,-118,0,0,0,0,0,0,0,0,0,-1,1133,1142,0,0
-84,-118,0,0,0,0,0,0,0,0,0,-1,1140,1142,0,0
-77,-118,0,0,0,0,0,0,0,0,0,-1,1147,1142,0,0
-70,-118,0,0,0,0,0,0,0,0,0,-1,1154,1142,0,0
-63,-118,0,0,0,0,0,0,0,0,0,-1,1161,1142,0,0
-56,-118,0,0,0,0,0,0,0,0,0,-1,1168,1142,0,0
-49,-118,0,0,0,0,0,0,0,0,0,-1,1175,1142,0,0
-42,-118,0,0,0,0,0,0,0,0,0,-1,1182,1142,0,0
-35,-118,0,0,0,0,0,0,0,0,0,-1,1189,1142,0,0
-28,-118,0,0,0,0,0,0,0,0,0,-1,1196,1142,0,0
-21,-118,0,0,0,0,0,0,0,0,0,-1,1203,1142,0,0
-14,-118,0,0,0,0,0,0,0,0,0,-1,1210,1142,0,0
-7,-118,0,0,0,0,0,0,0,0,0,-1,1217,1142,0,0
0,-118,0,0,0,0,0,0,0,0,0,-1,1224,1142,0,0
7,-118,0,0,0,0,0,0,0,0,0,-1,1231,1142,0,0
14,-118,0,0,0,0,0,0,0,0,0,-1,1238,1142,0,0
21,-118,0,0,0,0,0,0,0,0,0,-1,1245,1142,0,0
28,-118,0,0,0,0,0,0,0,0,0,-1,1252,1142,0,0
35,-118,0,0,0,0,0,0,0,0,0,-1,1259,1142,0,0
42,-118,0,0,0,0,0,0,0,0,0,-1,1266,1142,0,0
49,-118,0,0,0,0,0,0,0,0,0,-1,1273,1142,0,0
56,-118,0,0,0,0,0,0,0,0,0,-1,1280,1142,0,0
63,-118,0,0,0,0,0,0,0,0,0,-1,1287,1142,0,0
70,-118,0,0,0,0,0,0,0,0,0,-1,1294,1142,0,0
77,-118,0,0,0,0,0,0,0,0,0,-1,1301,1142,0,0
84,-118,0,0,0,0,0,0,0,0,0,-1,1308,1142,0,0
91,-118,0,0,0,0,0,0,0,0,0,-1,1315,1142,0,0
98,-118,0,0,0,0,0,0,0,0,0,-1,1322,1142,0,0
105,-118,0,0,0,0,0,0,0,0,0,-1,1329,1142,0,0
112,-118,0,0,0,0,0,0,0,0,0,-1,1336,1142,0,0
119,-118,0,0,0,0,0,0,0,0,0,-1,1343,1142,0,0
126,-118,0,0,0,0,0,0,0,0,0,-1,1350,1142,0,0
133,-118,0,0,0,0,0,0,0,0,0,-1,1357,1142,0,0
140,-118,0,0,0,0,0,0,0,0,0,-1,1364,1142,0,0
147,-118,0,0,0,0,0,0,0,0,0,-1,1371,1142,0,0
154,-118,0,0,0,0,0,0,0,0,0,-1,1378,1142,0,0
161,-118,0,0,0,0,0,0,0,0,0,-1,1385,1142,0,0
168,-118,0,0,0,0,0,0,0,0,0,-1,1392,1142,0,0
175,-118,0,0,0,0,0,0,0,0,0,-1,1399,1142,0,0
182,-118,0,0,0,0,0,0,0,0,0,-1,1406,1142,0,0
189,-118,0,0,0,0,0,0,0,0,0,-1,1413,1142,0,0
196,-118,0,0,0,0,0,0,0,0,0,-1,1420,1142,0,0
203,-118,0,0,0,0,0,0,0,0,0,-1,1427,1142,0,0
210,-118,0,0,0,0,0,0,0,0,0,-1,1434,1142,0,0
217,-118,0,0,0,0,0,0,0,0,0,-1,1441,1142,0,0
224,-118,0,0,0,0,0,0,0,0,0,-1,1448,1142,0,0
231,-118,0,0,0,0,0,0,0,0,0,-1,1455,1142,0,0
238,-118,0,0,0,0,0,0,0,0,0,-1,1462,1142,0,0
245,-118,0,0,0,0,0,0,0,0,0,-1,1469,1142,0,0
252,-118,0,0,0,0,0,0,0,0,0,-1,1476,1142,0,0
259,-118,0,0,0,0,0,0,0,0,0,-1,1483,1142,0,0
266,-118,0,0,0,0,0,0,0,0,0,-1,1490,1142,0,0
273,-118,0,0,0,0,0,0,0,0,0,-1,1497,1142,0,0
280,-118,0,0,0,0,0,0,0,0,0,-1,1504,1142,0,0
287,-118,0,0,0,0,0,0,0,0,0,-1,1511,1142,0,0
294,-118,0,0,0,0,0,0,0,0,0,-1,1518,1142,0,0
301,-118,0,0,0,0,0,0,0,0,0,-1,1525,1142,0,0
308,-118,0,0,0,0,0,0,0,0,0,-1,1532,1142,0,0
315,-118,0,0,0,0,0,0,0,0,0,-1,1539,1142,0,0
322,-118,0,0,0,0,0,0,0,0,0,-1,1546,1142,0,0
329,-118,0,0,0,0,0,0,0,0,0,-1,1553,1142,0,0
336,-118,0,0,0,0,0,0,0,0,0,-1,1560,1142,0,0
343,-118,0,0,0,0,0,0,0,0,0,-1,1567,1142,0,0
350,-118,0,0,0,0,0,0,0,0,0,-1,1574,1142,0,0
357,-118,0,0,0,0,0,0,0,0,0,-1,1581,1142,0,0
364,-118,0,0,0,0,0,0,0,0,0,-1,1588,1142,0,0
371,-118,0,0,0,0,0,0,0,0,0,-1,1595,1142,0,0
378,-118,0,0,0,0,0,0,0,0,0,-1,1602,1142,0,0
385,-118,0,0,0,0,0,0,0,0,0,-1,1609,1142,0,0
392,-118,0,0,0,0,0,0,0,0,0,-1,1616,1142,0,0
399,-118,0,0,0,0,0,0,0,0,0,-1,1623,1142,0,0
406,-118,0,0,0,0,0,0,0,0,0,-1,1630,1142,0,0
413,-118,0,0,0,0,0,0,0,0,0,-1,1637,1142,0,0
420,-118,0,0,0,0,0,0,0,0,0,-1,1644,1142,0,0
427,-118,0,0,0,0,0,0,0,0,0,-1,1651,1142,0,0
434,-118,0,0,0,0,0,0,0,0,0,-1,1658,1142,0,0
441,-118,0,0,0,0,0,0,0,0,0,-1,1665,1142,0,0
448,-118,0,0,0,0,0,0,0,0,0,-1,1672,1142,0,0
455,-118,0,0,0,0,0,0,0,0,0,-1,1679,1142,0,0
462,-118,0,0,0,0,0,0,0,0,0,-1,1686,1142,0,0
469,-118,0,0,0,0,0,0,0,0,0,-1,1693,1142,0,0
476,-118,0,0,0,0,0,0,0,0,0,-1,1700,1142,0,0
483,-118,0,0,0,0,0,0,0,0,0,-1,1707,1142,0,0
490,-118,0,0,0,0,0,0,0,0,0,-1,1714,1142,0,0
497,-118,0,0,0,0,0,0,0,0,0,-1,1721,1142,0,0
504,-118,0,0,0,0,0,0,0,0,0,-1,1728,1142,0,0
511,-118,0,0,0,0,0,0,0,0,0,-1,1735,1142,0,0
518,-118,0,0,0,0,0,0,0,0,0,-1,1742,1142,0,0
525,-118,0,0,0,0,0,0,0,0,0,-1,1749,1142,0,0
532,-118,0,0,0,0,0,0,0,0,0,-1,1756,1142,0,0
539,-118,0,0,0,0,0,0,0,0,0,-1,1763,1142,0,0
546,-118,0,0,0,0,0,0,0,0,0,-1,1770,1142,0,0
553,-118,0,0,0,0,0,0,0,0,0,-1,1777,1142,0,0
560,-118,0,0,0,0,0,0,0,0,0,-1,1784,1142,0,0
567,-118,0,0,0,0,0,0,0,0,0,-1,1791,1142,0,0
574,-118,0,0,0,0,0,0,0,0,0,-1,1798,1142,0,0
581,-118,0,0,0,0,0,0,0,0,0,-1,1805,1142,0,0
588,-118,0,0,0,0,0,0,0,0,0,-1,1812,1142,0,0
595,-118,0,0,0,0,0,0,0,0,0,-1,1819,1142,0,0
602,-118,0,0,0,0,0,0,0,0,0,-1,1826,1142,0,0
609,-118,0,0,0,0,0,0,0,0,0,-1,1833,1142,0,0
616,-118,0,0,0,0,0,0,0,0,0,-1,1840,1142,0,0
623,-118,0,0,0,0,0,0,0,0,0,-1,1847,1142,0,0
630,-118,0,0,0,0,0,0,0,0,0,-1,1854,1142,0,0
637,-118,0,0,0,0,0,0,0,0,0,-1,1861,1142,0,0
644,-118,61.1757,3.12354,0.00554551,0.00048469,-0.00897249,0.0123376,-0.00630738,-0.647958,0.0109507,0.0435818,1868,1142,61.1756,-3.12354
651,-118,61.3463,2.77087,0.00359772,0.000166896,-0.00607673,0.00819652,-0.00443191,-0.647832,0.00739822,0.0419307,1875,1142,61.3463,-2.77092
658,-118,61.3671,2.62292,0.00235043,-4.50736e-05,-0.00403402,0.00536076,-0.0030554,-0.641087,0.00491946,0.041965,1882,1142,61.3671,-2.62296
665,-118,61.3563,2.60486,0.00140555,-0.000127029,-0.00249194,0.00324636,-0.00196783,-0.636233,0.00304043,0.0434767,1889,1142,61.3563,-2.60491
672,-118,61.251,2.62256,0.000642198,-0.000176817,-0.00133351,0.00162767,-0.00116228,-0.636424,0.00161823,0.0461427,1896,1142,61.2509,-2.62256
679,-118,61.2137,2.94556,6.2991e-05,-0.000379846,-0.000644044,0.000522615,-0.00083947,-0.61983,0.000793461,0.0427625,1903,1142,61.2138,-2.94559
686,-118,61.1605,2.85132,0.00011441,-0.000716964,-0.000345714,0.000239384,-0.000841938,-0.346878,0.000655815,0.0378841,1910,1142,61.1606,-2.85127
693,-118,61.121,2.69739,0.00023436,-0.000940398,-0.000194944,0.000265865,-0.000971902,-0.160225,0.000752381,0.0348331,1917,1142,61.1209,-2.69734
700,-118,61.2312,2.68286,0.000222608,-0.00112652,0.00015771,0.000240799,-0.00114471,0.114835,0.000854787,0.0217013,1924,1142,61.2312,-2.68284
707,-118,61.2958,2.71765,0,0,0,0,0,0,0,-1,1931,1142,61.2958,-2.71767
714,-118,50.4819,8.53809,0,0,0,0,0,0,0,-1,1938,1142,50.4819,-8.53809
721,-118,55.583,8.74829,0,0,0,0,0,0,0,-1,1945,1142,55.583,-8.74824
728,-118,55.6112,8.19739,-0.000461074,-0.000579448,0.00100811,0.000489582,-0.0015301,0.756076,0.00121656,0.021825,1952,1142,55.6112,-8.19743
735,-118,55.5929,7.7146,-0.000573142,-0.000519297,0.00111056,0.000564666,-0.00165711,0.797517,0.00133343,0.0208297,1959,1142,55.5929,-7.71461
742,-118,55.5736,7.24768,-0.000959018,0.000525032,0.00144081,0.00140367,-0.00183766,1.02319,0.00187696,0.0307054,1966,1142,55.5736,-7.24764
749,-118,55.4526,6.78625,-0.00175485,0.00214538,0.00176532,0.00282572,-0.00243519,1.20295,0.00304018,0.0230531,1973,1142,55.4526,-6.78625
756,-118,55.5056,6.28479,-0.00281776,0.00557928,0.00133407,0.00578613,-0.00302462,1.41697,0.0051695,0.0186768,1980,1142,55.5056,-6.28478
763,-118,55.528,5.797,-0.00390828,0.0110536,0.000228445,0.0110571,-0.00391176,1.55553,0.00896445,0.010845,1987,1142,55.528,-5.79698
770,-118,55.4436,5.38293,-0.00475985,0.0181064,-0.00151084,0.0182058,-0.00485924,-1.5051,0.0140401,0.0142068,1994,1142,55.4436,-5.38292
777,-118,55.2634,4.93799,-0.00520293,0.0263677,-0.00386543,0.0268341,-0.00566932,-1.45072,0.0200481,0.0307471,2001,1142,55.2635,-4.93796
784,-118,55.2495,4.43469,-0.00512369,0.0359993,-0.00697976,0.0371516,-0.00627606,-1.40717,0.0271031,0.0459834,2008,1142,55.2496,-4.43475
791,-118,56.8015,6.39893,0,0,0,0,0,0,0,-1,2015,1142,56.8016,-6.39898
798,-118,56.0254,6.38135,0,0,0,0,0,0,0,-1,2022,1142,56.0255,-6.3813
805,-118,55.2405,5.93286,0,0,0,0,0,0,0,-1,2029,1142,55.2404,-5.93286
812,-118,53.8674,3.08484,0,0,0,0,0,0,0,-1,2036,1142,53.8673,-3.08483
-700,-125,0,0,0,0,0,0,0,0,0,-1,524,1149,0,0
-693,-125,-41.4763,2.26343,0,0,0,0,0,0,0,-1,531,1149,-41.4763,-2.26338
-686,-125,-42.6494,2.09888,0,0,0,0,0,0,0,-1,538,1149,-42.6494,-2.09885
-679,-125,-43.8223,0.578979,0,0,0,0,0,0,0,-1,545,1149,-43.8223,-0.57898
-672,-125,-43.8242,1.30371,0,0,0,0,0,0,0,-1,552,1149,-43.8242,-1.30372
-665,-125,-44.3752,1.4165,0,0,0,0,0,0,0,-1,559,1149,-44.3752,-1.41647
-658,-125,-40.8456,1.97095,0,0,0,0,0,0,0,-1,566,1149,-40.8456,-1.97089
-651,-125,-40.3312,2.22864,0.00623496,0.0156252,-0.0253107,0.0366726,-0.0148124,-0.877106,0.030605,0.0447355,573,1149,-40.3312,-2.22858
-644,-125,-39.9326,2.38989,0.00461583,0.0117425,-0.0165702,0.0251282,-0.0087698,-0.891308,0.0203164,0.0316147,580,1149,-39.9325,-2.38986
-637,-125,-40.0312,2.88318,0.00276498,0.00824341,-0.010517,0.0163721,-0.00536367,-0.912796,0.0130746,0.0139444,587,1149,-40.0312,-2.88315
-630,-125,-40.0427,3.40808,0.00122734,0.0054614,-0.00617369,0.00987095,-0.00318221,-0.950571,0.00785914,0.0145798,594,1149,-40.0427,-3.40803
-623,-125,-40.0598,3.9425,-0.000412638,0.00272333,-0.00379983,0.00526598,-0.00295529,-0.981078,0.00480864,0.0130542,601,1149,-40.0598,-3.94257
-616,-125,-40.1166,4.42273,-0.00196639,0.000597044,-0.00272299,0.00232489,-0.00369423,-1.00537,0.00350499,0.0290357,608,1149,-40.1166,-4.4227
-609,-125,-40.3528,4.72888,0,0,0,0,0,0,0,-1,615,1149,-40.3528,-4.72888
-602,-125,-40.2417,5.54541,-0.00181523,-0.000664006,-0.00327535,0.00208593,-0.00456516,-0.87238,0.00392792,0.0427,622,1149,-40.2417,-5.54544
-595,-125,-40.3907,6.00427,-0.00147605,-0.000804469,-0.00341252,0.00228874,-0.00456927,-0.83444,0.00403179,0.0378816,629,1149,-40.3907,-6.00424
-588,-125,-39.5812,6.66479,0,0,0,0,0,0,0,-1,636,1149,-39.5813,-6.66484
-581,-125,-26.4055,4.83203,0,0,0,0,0,0,0,-1,643,1149,-26.4055,-4.83204
-574,-125,-37.674,0.655151,0,0,0,0,0,0,0,-1,650,1149,-37.674,-0.655195
-567,-125,-46.2369,1.00391,0,0,0,0,0,0,0,-1,657,1149,-46.2369,-1.0039
-560,-125,-46.2205,1.03076,0.00105978,-0.00173182,-0.00386374,0.00377211,-0.00444415,-0.612065,0.00474895,0.0355573,664,1149,-46.2205,-1.03077
-553,-125,-46.0777,1.0094,0.00127077,-0.00165274,-0.00406125,0.00412532,-0.00450729,-0.612653,0.00498567,0.0384229,671,1149,-46.0777,-1.00943
-546,-125,-45.9875,0.836914,0.00109826,-0.00120156,-0.00413203,0.0042374,-0.0043407,-0.649686,0.00495269,0.0433032,678,1149,-45.9875,-0.836869
-539,-125,-45.9888,0.737671,0.000295946,-0.000918757,-0.00429361,0.00402495,-0.00464776,-0.715137,0.0050115,0.0428736,685,1149,-45.9889,-0.737721
-532,-125,-46.141,0.784302,-0.00097546,-0.000925863,-0.00439364,0.00344305,-0.00534437,-0.78822,0.00511285,0.0382454,692,1149,-46.141,-0.784303
-525,-125,-46.205,0.640503,-0.00260598,-0.00106753,-0.00447903,0.00270785,-0.00638136,-0.870438,0.00538863,0.0404198,699,1149,-46.205,-0.640463
-518,-125,0,0,0,0,0,0,0,0,0,-1,706,1149,0,0
-511,-125,0,0,0,0,0,0,0,0,0,-1,713,1149,0,0
-504,-125,0,0,0,0,0,0,0,0,0,-1,720,1149,0,0
-497,-125,0,0,0,0,0,0,0,0,0,-1,727,1149,0,0
-490,-125,0,0,0,0,0,0,0,0,0,-1,734,1149,0,0
-483,-125,0,0,0,0,0,0,0,0,0,-1,741,1149,0,0
-476,-125,0,0,0,0,0,0,0,0,0,-1,748,1149,0,0
-469,-125,0,0,0,0,0,0,0,0,0,-1,755,1149,0,0
-462,-125,0,0,0,0,0,0,0,0,0,-1,762,1149,0,0
-455,-125,0,0,0,0,0,0,0,0,0,-1,769,1149,0,0
-448,-125,0,0,0,0,0,0,0,0,0,-1,776,1149,0,0
-441,-125,0,0,0,0,0,0,0,0,0,-1,783,1149,0,0
-434,-125,0,0,0,0,0,0,0,0,0,-1,790,1149,0,0
-427,-125,0,0,0,0,0,0,0,0,0,-1,797,1149,0,0
-420,-125,0,0,0,0,0,0,0,0,0,-1,804,1149,0,0
-413,-125,0,0,0,0,0,0,0,0,0,-1,811,1149,0,0
-406,-125,0,0,0,0,0,0,0,0,0,-1,818,1149,0,0
-399,-125,0,0,0,0,0,0,0,0,0,-1,825,1149,0,0
-392,-125,0,0,0,0,0,0,0,0,0,-1,832,1149,0,0
-385,-125,0,0,0,0,0,0,0,0,0,-1,839,1149,0,0
-378,-125,0,0,0,0,0,0,0,0,0,-1,846,1149,0,0
-371,-125,0,0,0,0,0,0,0,0,0,-1,853,1149,0,0
-364,-125,0,0,0,0,0,0,0,0,0,-1,860,1149,0,0
-357,-125,0,0,0,0,0,0,0,0,0,-1,867,1149,0,0
-350,-125,0,0,0,0,0,0,0,0,0,-1,874,1149,0,0
-343,-125,0,0,0,0,0,0,0,0,0,-1,881,1149,0,0
-336,-125,0,0,0,0,0,0,0,0,0,-1,888,1149,0,0
-329,-125,0,0,0,0,0,0,0,0,0,-1,895,1149,0,0
-322,-125,0,0,0,0,0,0,0,0,0,-1,902,1149,0,0
-315,-125,0,0,0,0,0,0,0,0,0,-1,909,1149,0,0
-308,-125,0,0,0,0,0,0,0,0,0,-1,916,1149,0,0
-301,-125,0,0,0,0,0,0,0,0,0,-1,923,1149,0,0
-294,-125,0,0,0,0,0,0,0,0,0,-1,930,1149,0,0
-287,-125,0,0,0,0,0,0,0,0,0,-1,937,1149,0,0
-280,-125,0,0,0,0,0,0,0,0,0,-1,944,1149,0,0
-273,-125,0,0,0,0,0,0,0,0,0,-1,951,1149,0,0
-266,-125,0,0,0,0,0,0,0,0,0,-1,958,1149,0,0
-259,-125,0,0,0,0,0,0,0,0,0,-1,965,1149,0,0
-252,-125,0,0,0,0,0,0,0,0,0,-1,972,1149,0,0
-245,-125,0,0,0,0,0,0,0,0,0,-1,979,1149,0,0
-238,-125,0,0,0,0,0,0,0,0,0,-1,986,1149,0,0
-231,-125,0,0,0,0,0,0,0,0,0,-1,993,1149,0,0
-224,-125,0,0,0,0,0,0,0,0,0,-1,1000,1149,0,0
-217,-125,0,0,0,0,0,0,0,0,0,-1,1007,1149,0,0
-210,-125,0,0,0,0,0,0,0,0,0,-1,1014,1149,0,0
-203,-125,0,0,0,0,0,0,0,0,0,-1,1021,1149,0,0
-196,-125,0,0,0,0,0,0,0,0,0,-1,1028,1149,0,0
-189,-125,0,0,0,0,0,0,0,0,0,-1,1035,1149,0,0
-182,-125,0,0,0,0,0,0,0,0,0,-1,1042,1149,0,0
-175,-125,0,0,0,0,0,0,0,0,0,-1,1049,1149,0,0
-168,-125,0,0,0,0,0,0,0,0,0,-1,1056,1149,0,0
-161,-125,0,0,0,0,0,0,0,0,0,-1,1063,1149,0,0
-154,-125,0,0,0,0,0,0,0,0,0,-1,1070,1149,0,0
-147,-125,0,0,0,0,0,0,0,0,0,-1,1077,1149,0,0
-140,-125,0,0,0,0,0,0,0,0,0,-1,1084,1149,0,0
-133,-125,0,0,0,0,0,0,0,0,0,-1,1091,1149,0,0
-126,-125,0,0,0,0,0,0,0,0,0,-1,1098,1149,0,0
-119,-125,0,0,0,0,0,0,0,0,0,-1,1105,1149,0,0
-112,-125,0,0,0,0,0,0,0,0,0,-1,1112,1149,0,0
-105,-125,0,0,0,0,0,0,0,0,0,-1,1119,1149,0,0
-98,-125,0,0,0,0,0,0,0,0,0,-1,1126,1149,0,0
-91,-125,0,0,0,0,0,0,0,0,0,-1,1133,1149,0,0
-84,-125,0,0,0,0,0,0,0,0,0,-1,1140,1149,0,0
-77,-125,0,0,0,0,0,0,0,0,0,-1,1147,1149,0,0
-70,-125,0,0,0,0,0,0,0,0,0,-1,1154,1149,0,0
-63,-125,0,0,0,0,0,0,0,0,0,-1,1161,1149,0,0
-56,-125,0,0,0,0,0,0,0,0,0,-1,1168,1149,0,0
-49,-125,0,0,0,0,0,0,0,0,0,-1,1175,1149,0,0
-42,-125,0,0,0,0,0,0,0,0,0,-1,1182,1149,0,0
-35,-125,0,0,0,0,0,0,0,0,0,-1,1189,1149,0,0
-28,-125,0,0,0,0,0,0,0,0,0,-1,1196,1149,0,0
-21,-125,0,0,0,0,0,0,0,0,0,-1,1203,1149,0,0
-14,-125,0,0,0,0,0,0,0,0,0,-1,1210,1149,0,0
-7,-125,0,0,0,0,0,0,0,0,0,-1,1217,1149,0,0
0,-125,0,0,0,0,0,0,0,0,0,-1,1224,1149,0,0
7,-125,0,0,0,0,0,0,0,0,0,-1,1231,1149,0,0
14,-125,0,0,0,0,0,0,0,0,0,-1,1238,1149,0,0
21,-125,0,0,0,0,0,0,0,0,0,-1,1245,1149,0,0
28,-125,0,0,0,0,0,0,0,0,0,-1,1252,1149,0,0
35,-125,0,0,0,0,0,0,0,0,0,-1,1259,1149,0,0
42,-125,0,0,0,0,0,0,0,0,0,-1,1266,1149,0,0
49,-125,0,0,0,0,0,0,0,0,0,-1,1273,1149,0,0
56,-125,0,0,0,0,0,0,0,0,0,-1,1280,1149,0,0
63,-125,0,0,0,0,0,0,0,0,0,-1,1287,1149,0,0
70,-125,0,0,0,0,0,0,0,0,0,-1,1294,1149,0,0
77,-125,0,0,0,0,0,0,0,0,0,-1,1301,1149,0,0
84,-125,0,0,0,0,0,0,0,0,0,-1,1308,1149,0,0
91,-125,0,0,0,0,0,0,0,0,0,-1,1315,1149,0,0
98,-125,0,0,0,0,0,0,0,0,0,-1,1322,1149,0,0
105,-125,0,0,0,0,0,0,0,0,0,-1,1329,1149,0,0
112,-125,0,0,0,0,0,0,0,0,0,-1,1336,1149,0,0
119,-125,0,0,0,0,0,0,0,0,0,-1,1343,1149,0,0
126,-125,0,0,0,0,0,0,0,0,0,-1,1350,1149,0,0
133,-125,0,0,0,0,0,0,0,0,0,-1,1357,1149,0,0
140,-125,0,0,0,0,0,0,0,0,0,-1,1364,1149,0,0
147,-125,0,0,0,0,0,0,0,0,0,-1,1371,1149,0,0
154,-125,0,0,0,0,0,0,0,0,0,-1,1378,1149,0,0
161,-125,0,0,0,0,0,0,0,0,0,-1,1385,1149,0,0
168,-125,0,0,0,0,0,0,0,0,0,-1,1392,1149,0,0
175,-125,0,0,0,0,0,0,0,0,0,-1,1399,1149,0,0
182,-125,0,0,0,0,0,0,0,0,0,-1,1406,1149,0,0
189,-125,0,0,0,0,0,0,0,0,0,-1,1413,1149,0,0
196,-125,0,0,0,0,0,0,0,0,0,-1,1420,1149,0,0
203,-125,0,0,0,0,0,0,0,0,0,-1,1427,1149,0,0
210,-125,0,0,0,0,0,0,0,0,0,-1,1434,1149,0,0
217,-125,0,0,0,0,0,0,0,0,0,-1,1441,1149,0,0
224,-125,0,0,0,0,0,0,0,0,0,-1,1448,1149,0,0
231,-125,0,0,0,0,0,0,0,0,0,-1,1455,1149,0,0
238,-125,0,0,0,0,0,0,0,0,0,-1,1462,1149,0,0
245,-125,0,0,0,0,0,0,0,0,0,-1,1469,1149,0,0
252,-125,0,0,0,0,0,0,0,0,0,-1,1476,1149,0,0
259,-125,0,0,0,0,0,0,0,0,0,-1,1483,1149,0,0
266,-125,0,0,0,0,0,0,0,0,0,-1,1490,1149,0,0
273,-125,0,0,0,0,0,0,0,0,0,-1,1497,1149,0,0
280,-125,0,0,0,0,0,0,0,0,0,-1,1504,1149,0,0
287,-125,0,0,0,0,0,0,0,0,0,-1,1511,1149,0,0
294,-125,0,0,0,0,0,0,0,0,0,-1,1518,1149,0,0
301,-125,0,0,0,0,0,0,0,0,0,-1,1525,1149,0,0
308,-125,0,0,0,0,0,0,0,0,0,-1,1532,1149,0,0
315,-125,0,0,0,0,0,0,0,0,0,-1,1539,1149,0,0
322,-125,0,0,0,0,0,0,0,0,0,-1,1546,1149,0,0
329,-125,0,0,0,0,0,0,0,0,0,-1,1553,1149,0,0
336,-125,0,0,0,0,0,0,0,0,0,-1,1560,1149,0,0
343,-125,0,0,0,0,0,0,0,0,0,-1,1567,1149,0,0
350,-125,0,0,0,0,0,0,0,0,0,-1,1574,1149,0,0
357,-125,0,0,0,0,0,0,0,0,0,-1,1581,1149,0,0
364,-125,0,0,0,0,0,0,0,0,0,-1,1588,1149,0,0
371,-125,0,0,0,0,0,0,0,0,0,-1,1595,1149,0,0
378,-125,0,0,0,0,0,0,0,0,0,-1,1602,1149,0,0
385,-125,0,0,0,0,0,0,0,0,0,-1,1609,1149,0,0
392,-125,0,0,0,0,0,0,0,0,0,-1,1616,1149,0,0
399,-125,0,0,0,0,0,0,0,0,0,-1,1623,1149,0,0
406,-125,0,0,0,0,0,0,0,0,0,-1,1630,1149,0,0
413,-125,0,0,0,0,0,0,0,0,0,-1,1637,1149,0,0
420,-125,0,0,0,0,0,0,0,0,0,-1,1644,1149,0,0
427,-125,0,0,0,0,0,0,0,0,0,-1,1651,1149,0,0
434,-125,0,0,0,0,0,0,0,0,0,-1,1658,1149,0,0
441,-125,0,0,0,0,0,0,0,0,0,-1,1665,1149,0,0
448,-125,0,0,0,0,0,0,0,0,0,-1,1672,1149,0,0
455,-125,0,0,0,0,0,0,0,0,0,-1,1679,1149,0,0
462,-125,0,0,0,0,0,0,0,0,0,-1,1686,1149,0,0
469,-125,0,0,0,0,0,0,0,0,0,-1,1693,1149,0,0
476,-125,0,0,0,0,0,0,0,0,0,-1,1700,1149,0,0
483,-125,0,0,0,0,0,0,0,0,0,-1,1707,1149,0,0
490,-125,0,0,0,0,0,0,0,0,0,-1,1714,1149,0,0
497,-125,0,0,0,0,0,0,0,0,0,-1,1721,1149,0,0
504,-125,0,0,0,0,0,0,0,0,0,-1,1728,1149,0,0
511,-125,0,0,0,0,0,0,0,0,0,-1,1735,1149,0,0
518,-125,0,0,0,0,0,0,0,0,0,-1,1742,1149,0,0
525,-125,0,0,0,0,0,0,0,0,0,-1,1749,1149,0,0
532,-125,0,0,0,0,0,0,0,0,0,-1,1756,1149,0,0
539,-125,0,0,0,0,0,0,0,0,0,-1,1763,1149,0,0
546,-125,0,0,0,0,0,0,0,0,0,-1,1770,1149,0,0
553,-125,0,0,0,0,0,0,0,0,0,-1,1777,1149,0,0
560,-125,0,0,0,0,0,0,0,0,0,-1,1784,1149,0,0
567,-125,0,0,0,0,0,0,0,0,0,-1,1791,1149,0,0
574,-125,0,0,0,0,0,0,0,0,0,-1,1798,1149,0,0
581,-125,0,0,0,0,0,0,0,0,0,-1,1805,1149,0,0
588,-125,0,0,0,0,0,0,0,0,0,-1,1812,1149,0,0
595,-125,0,0,0,0,0,0,0,0,0,-1,1819,1149,0,0
602,-125,0,0,0,0,0,0,0,0,0,-1,1826,1149,0,0
609,-125,0,0,0,0,0,0,0,0,0,-1,1833,1149,0,0
616,-125,0,0,0,0,0,0,0,0,0,-1,1840,1149,0,0
623,-125,0,0,0,0,0,0,0,0,0,-1,1847,1149,0,0
630,-125,0,0,0,0,0,0,0,0,0,-1,1854,1149,0,0
637,-125,0,0,0,0,0,0,0,0,0,-1,1861,1149,0,0
644,-125,61.3097,3.05676,0.00500477,0.00102915,-0.00838952,0.0116388,-0.00560484,-0.669073,0.0101567,0.042715,1868,1149,61.3097,-3.0568
651,-125,61.3296,2.72192,0.00322936,0.00049514,-0.00571764,0.00774106,-0.00401656,-0.66805,0.00690086,0.0392474,1875,1149,61.3296,-2.72194
658,-125,61.2202,2.52808,0.00208269,0.000134084,-0.00378549,0.00501725,-0.00280047,-0.659442,0.00457365,0.0411533,1882,1149,61.2202,-2.52802
665,-125,61.1547,2.6593,0.00120849,-4.39485e-05,-0.00231192,0.0029775,-0.00181296,-0.653139,0.00279288,0.0463176,1889,1149,61.1547,-2.65925
672,-125,61.1411,2.63159,0.000483342,-0.000155216,-0.00120597,0.00141158,-0.00108346,-0.655993,0.00144466,0.0469,1896,1149,61.1411,-2.63155
679,-125,61.1396,2.56372,-6.01805e-05,-0.000392017,-0.000545689,0.000344257,-0.000796455,-0.637813,0.000675619,0.0408916,1903,1149,61.1396,-2.5637
686,-125,61.1327,2.77734,6.45437e-05,-0.000706964,-0.000334894,0.000189632,-0.000832052,-0.35747,0.000627537,0.0384335,1910,1149,61.1327,-2.77734
693,-125,61.1056,2.7478,0.000195399,-0.000900711,-0.000232598,0.000242714,-0.000948026,-0.200684,0.000726564,0.0321972,1917,1149,61.1056,-2.74779
700,-125,61.2081,2.72705,0.000178362,-0.001087,9.82064e-05,0.000185938,-0.00109458,0.0769966,0.000798945,0.0178811,1924,1149,61.2082,-2.72707
707,-125,61.2512,2.63928,0,0,0,0,0,0,0,-1,1931,1149,61.2512,-2.63929
714,-125,54.8745,9.21375,0,0,0,0,0,0,0,-1,1938,1149,54.8746,-9.21371
721,-125,55.1606,8.57996,0,0,0,0,0,0,0,-1,1945,1149,55.1607,-8.5799
728,-125,55.0361,8.29736,-0.000436065,-0.000609426,0.00095347,0.000434656,-0.00148015,0.740067,0.00115914,0.0207616,1952,1149,55.0362,-8.29732
735,-125,55.0636,7.82446,-0.000450426,-0.000638248,0.00111081,0.000570432,-0.00165911,0.743227,0.0013374,0.0219149,1959,1149,55.0636,-7.82451
742,-125,55.1152,7.32373,-0.000705462,0.000281115,0.00150355,0.00137023,-0.00179458,0.943906,0.00183267,0.0310177,1966,1149,55.1152,-7.32376
749,-125,55.0173,6.87805,-0.00146803,0.00186654,0.00196933,0.00277958,-0.00238107,1.13666,0.00298246,0.0259399,1973,1149,55.0174,-6.87803
756,-125,54.9775,6.27039,-0.00251639,0.00563818,0.00169772,0.00597751,-0.00285573,1.37352,0.00520495,0.02134,1980,1149,54.9776,-6.27039
763,-125,54.9927,5.79431,-0.00348738,0.0115302,0.000859236,0.0115792,-0.00353638,1.51383,0.00912948,0.0125959,1987,1149,54.9926,-5.79427
770,-125,54.9353,5.3136,-0.00417842,0.0189137,-0.000506935,0.0189248,-0.00418954,-1.54886,0.0142203,0.0164519,1994,1149,54.9353,-5.31358
777,-125,54.8259,4.98352,-0.00446193,0.0274924,-0.00243957,0.0276776,-0.0046471,-1.49504,0.0201799,0.0332434,2001,1149,54.826,-4.98348
784,-125,56.9048,6.22815,0,0,0,0,0,0,0,-1,2008,1149,56.9049,-6.22818
791,-125,55.9001,5.69373,-0.0029897,0.0491535,-0.00879679,0.0505975,-0.00443377,-1.40809,0.0353025,0.0484083,2015,1149,55.9002,-5.69368
798,-125,54.9224,5.18506,-0.000391652,0.0629221,-0.0140003,0.0658798,-0.00334932,-1.3626,0.0450778,0.0494094,2022,1149,54.9223,-5.18508
805,-125,54.2603,4.90527,0,0,0,0,0,0,0,-1,2029,1149,54.2602,-4.90522
812,-125,53.4592,2.802,0,0,0,0,0,0,0,-1,2036,1149,53.4591,-2.80203
-700,-132,0,0,0,0,0,0,0,0,0,-1,524,1156,0,0
-693,-132,-43.3401,3.19714,0,0,0,0,0,0,0,-1,531,1156,-43.3401,-3.1972
-686,-132,-42.6952,-1.02869,0,0,0,0,0,0,0,-1,538,1156,-42.6952,1.02869
-679,-132,-42.4142,0.271118,0,0,0,0,0,0,0,-1,545,1156,-42.4142,-0.271168
-672,-132,-42.3723,0.894409,0,0,0,0,0,0,0,-1,552,1156,-42.3723,-0.894364
-665,-132,-42.2512,0.942749,0,0,0,0,0,0,0,-1,559,1156,-42.2512,-0.942803
-658,-132,-40.6647,1.86523,0,0,0,0,0,0,0,-1,566,1156,-40.6647,-1.86526
-651,-132,-40.048,2.1344,0.00354311,0.0125149,-0.0247913,0.0332228,-0.0171649,-0.874903,0.0295797,0.0435246,573,1156,-40.048,-2.13434
-644,-132,-39.4628,2.38257,0.00310522,0.00977513,-0.016369,0.0231455,-0.0102651,-0.885891,0.0197617,0.0259374,580,1156,-39.4629,-2.38256
-637,-132,-39.4907,2.86133,0.00197642,0.00718059,-0.0104691,0.0153661,-0.00620914,-0.907204,0.012825,0.0126718,587,1156,-39.4907,-2.86134
-630,-132,-39.4807,3.39172,0.000679186,0.00495181,-0.00618357,0.0093577,-0.00372671,-0.95172,0.00778398,0.00995015,594,1156,-39.4806,-3.39173
-623,-132,-39.5308,3.97192,-0.00106908,0.00256003,-0.00380034,0.00495679,-0.00346585,-1.00813,0.00488814,0.015062,601,1156,-39.5307,-3.97194
-616,-132,-39.6045,4.42188,-0.00294282,0.000488284,-0.00273806,0.00200384,-0.00445838,-1.06526,0.00381962,0.0371418,608,1156,-39.6045,-4.42192
-609,-132,-39.4924,5.11865,0,0,0,0,0,0,0,-1,615,1156,-39.4924,-5.1187
-602,-132,-39.5286,5.57031,-0.00286079,-0.000951612,-0.0035257,0.00174645,-0.00555885,-0.917604,0.004405,0.0354451,622,1156,-39.5286,-5.57028
-595,-132,-39.7191,6.0575,-0.00242464,-0.00110025,-0.00356149,0.00186008,-0.00538498,-0.877315,0.00434483,0.049534,629,1156,-39.7191,-6.0575
-588,-132,-39.7882,6.62305,0,0,0,0,0,0,0,-1,636,1156,-39.7882,-6.62306
-581,-132,-35.9343,6.42957,0,0,0,0,0,0,0,-1,643,1156,-35.9342,-6.42957
-574,-132,-33.2071,2.86963,0,0,0,0,0,0,0,-1,650,1156,-33.2071,-2.86963
-567,-132,-46.2061,0.966553,0,0,0,0,0,0,0,-1,657,1156,-46.206,-0.966501
-560,-132,-46.2513,0.94751,0.000278345,-0.00219208,-0.00395868,0.00319005,-0.00510379,-0.634171,0.00483075,0.0351812,664,1156,-46.2513,-0.947545
-553,-132,-46.221,0.879761,0.000814209,-0.00217728,-0.00411502,0.00369689,-0.00505997,-0.61108,0.00507615,0.0379972,671,1156,-46.221,-0.879738
-546,-132,-46.1076,0.635498,0.0011338,-0.00175707,-0.00411949,0.00405408,-0.00467735,-0.61667,0.00504537,0.0431144,678,1156,-46.1076,-0.635487
-539,-132,-46.0488,0.602295,0.000742572,-0.0013478,-0.00431848,0.00414055,-0.00474578,-0.666668,0.00513449,0.0439966,685,1156,-46.0488,-0.602258
-532,-132,-46.0026,0.72644,-0.000421273,-0.00118713,-0.00452378,0.00373576,-0.00534415,-0.743175,0.00526963,0.0398543,692,1156,-46.0026,-0.726402
-525,-132,-46.0769,0.723999,-0.00189887,-0.00114185,-0.00472808,0.00322285,-0.00626357,-0.82534,0.00556999,0.0395925,699,1156,-46.0769,-0.724019
-518,-132,0,0,0,0,0,0,0,0,0,-1,706,1156,0,0
-511,-132,0,0,0,0,0,0,0,0,0,-1,713,1156,0,0
-504,-132,0,0,0,0,0,0,0,0,0,-1,720,1156,0,0
-497,-132,0,0,0,0,0,0,0,0,0,-1,727,1156,0,0
-490,-132,0,0,0,0,0,0,0,0,0,-1,734,1156,0,0
-483,-132,0,0,0,0,0,0,0,0,0,-1,741,1156,0,0
-476,-132,0,0,0,0,0,0,0,0,0,-1,748,1156,0,0
-469,-132,0,0,0,0,0,0,0,0,0,-1,755,1156,0,0
-462,-132,0,0,0,0,0,0,0,0,0,-1,762,1156,0,0
-455,-132,0,0,0,0,0,0,0,0,0,-1,769,1156,0,0
-448,-132,0,0,0,0,0,0,0,0,0,-1,776,1156,0,0
-441,-132,0,0,0,0,0,0,0,0,0,-1,783,1156,0,0
-434,-132,0,0,0,0,0,0,0,0,0,-1,790,1156,0,0
-427,-132,0,0,0,0,0,0,0,0,0,-1,797,1156,0,0
-420,-132,0,0,0,0,0,0,0,0,0,-1,804,1156,0,0
-413,-132,0,0,0,0,0,0,0,0,0,-1,811,1156,0,0
-406,-132,0,0,0,0,0,0,0,0,0,-1,818,1156,0,0
-399,-132,0,0,0,0,0,0,0,0,0,-1,825,1156,0,0
-392,-132,0,0,0,0,0,0,0,0,0,-1,832,1156,0,0
-385,-132,0,0,0,0,0,0,0,0,0,-1,839,1156,0,0
-378,-132,0,0,0,0,0,0,0,0,0,-1,846,1156,0,0
-371,-132,0,0,0,0,0,0,0,0,0,-1,853,1156,0,0
-364,-132,0,0,0,0,0,0,0,0,0,-1,860,1156,0,0
-357,-132,0,0,0,0,0,0,0,0,0,-1,867,1156,0,0
-350,-132,0,0,0,0,0,0,0,0,0,-1,874,1156,0,0
-343,-132,0,0,0,0,0,0,0,0,0,-1,881,1156,0,0
-336,-132,0,0,0,0,0,0,0,0,0,-1,888,1156,0,0
-329,-132,0,0,0,0,0,0,0,0,0,-1,895,1156,0,0
-322,-132,0,0,0,0,0,0,0,0,0,-1,902,1156,0,0
-315,-132,0,0,0,0,0,0,0,0,0,-1,909,1156,0,0
-308,-132,0,0,0,0,0,0,0,0,0,-1,916,1156,0,0
-301,-132,0,0,0,0,0,0,0,0,0,-1,923,1156,0,0
-294,-132,0,0,0,0,0,0,0,0,0,-1,930,1156,0,0
-287,-132,0,0,0,0,0,0,0,0,0,-1,937,1156,0,0
-280,-132,0,0,0,0,0,0,0,0,0,-1,944,1156,0,0
-273,-132,0,0,0,0,0,0,0,0,0,-1,951,1156,0,0
-266,-132,0,0,0,0,0,0,0,0,0,-1,958,1156,0,0
-259,-132,0,0,0,0,0,0,0,0,0,-1,965,1156,0,0
-252,-132,0,0,0,0,0,0,0,0,0,-1,972,1156,0,0
-245,-132,0,0,0,0,0,0,0,0,0,-1,979,1156,0,0
-238,-132,0,0,0,0,0,0,0,0,0,-1,986,1156,0,0
-231,-132,0,0,0,0,0,0,0,0,0,-1,993,1156,0,0
-224,-132,0,0,0,0,0,0,0,0,0,-1,1000,1156,0,0
-217,-132,0,0,0,0,0,0,0,0,0,-1,1007,1156,0,0
-210,-132,0,0,0,0,0,0,0,0,0,-1,1014,1156,0,0
-203,-132,0,0,0,0,0,0,0,0,0,-1,1021,1156,0,0
-196,-132,0,0,0,0,0,0,0,0,0,-1,1028,1156,0,0
-189,-132,0,0,0,0,0,0,0,0,0,-1,1035,1156,0,0
-182,-132,0,0,0,0,0,0,0,0,0,-1,1042,1156,0,0
-175,-132,0,0,0,0,0,0,0,0,0,-1,1049,1156,0,0
-168,-132,0,0,0,0,0,0,0,0,0,-1,1056,1156,0,0
-161,-132,0,0,0,0,0,0,0,0,0,-1,1063,1156,0,0
-154,-132,0,0,0,0,0,0,0,0,0,-1,1070,1156,0,0
-147,-132,0,0,0,0,0,0,0,0,0,-1,1077,1156,0,0
-140,-132,0,0,0,0,0,0,0,0,0,-1,1084,1156,0,0
-133,-132,0,0,0,0,0,0,0,0,0,-1,1091,1156,0,0
-126,-132,0,0,0,0,0,0,0,0,0,-1,1098,1156,0,0
-119,-132,0,0,0,0,0,0,0,0,0,-1,1105,1156,0,0
-112,-132,0,0,0,0,0,0,0,0,0,-1,1112,1156,0,0
-105,-132,0,0,0,0,0,0,0,0,0,-1,1119,1156,0,0
-98,-132,0,0,0,0,0,0,0,0,0,-1,1126,1156,0,0
-91,-132,0,0,0,0,0,0,0,0,0,-1,1133,1156,0,0
-84,-132,0,0,0,0,0,0,0,0,0,-1,1140,1156,0,0
-77,-132,0,0,0,0,0,0,0,0,0,-1,1147,1156,0,0
-70,-132,0,0,0,0,0,0,0,0,0,-1,1154,1156,0,0
-63,-132,0,0,0,0,0,0,0,0,0,-1,1161,1156,0,0
-56,-132,0,0,0,0,0,0,0,0,0,-1,1168,1156,0,0
-49,-132,0,0,0,0,0,0,0,0,0,-1,1175,1156,0,0
-42,-132,0,0,0,0,0,0,0,0,0,-1,1182,1156,0,0
-35,-132,0,0,0,0,0,0,0,0,0,-1,1189,1156,0,0
-28,-132,0,0,0,0,0,0,0,0,0,-1,1196,1156,0,0
-21,-132,0,0,0,0,0,0,0,0,0,-1,1203,1156,0,0
-14,-132,0,0,0,0,0,0,0,0,0,-1,1210,1156,0,0
-7,-132,0,0,0,0,0,0,0,0,0,-1,1217,1156,0,0
0,-132,0,0,0,0,0,0,0,0,0,-1,1224,1156,0,0
7,-132,0,0,0,0,0,0,0,0,0,-1,1231,1156,0,0
14,-132,0,0,0,0,0,0,0,0,0,-1,1238,1156,0,0
21,-132,0,0,0,0,0,0,0,0,0,-1,1245,1156,0,0
28,-132,0,0,0,0,0,0,0,0,0,-1,1252,1156,0,0
35,-132,0,0,0,0,0,0,0,0,0,-1,1259,1156,0,0
42,-132,0,0,0,0,0,0,0,0,0,-1,1266,1156,0,0
49,-132,0,0,0,0,0,0,0,0,0,-1,1273,1156,0,0
56,-132,0,0,0,0,0,0,0,0,0,-1,1280,1156,0,0
63,-132,0,0,0,0,0,0,0,0,0,-1,1287,1156,0,0
70,-132,0,0,0,0,0,0,0,0,0,-1,1294,1156,0,0
77,-132,0,0,0,0,0,0,0,0,0,-1,1301,1156,0,0
84,-132,0,0,0,0,0,0,0,0,0,-1,1308,1156,0,0
91,-132,0,0,0,0,0,0,0,0,0,-1,1315,1156,0,0
98,-132,0,0,0,0,0,0,0,0,0,-1,1322,1156,0,0
105,-132,0,0,0,0,0,0,0,0,0,-1,1329,1156,0,0
112,-132,0,0,0,0,0,0,0,0,0,-1,1336,1156,0,0
119,-132,0,0,0,0,0,0,0,0,0,-1,1343,1156,0,0
126,-132,0,0,0,0,0,0,0,0,0,-1,1350,1156,0,0
133,-132,0,0,0,0,0,0,0,0,0,-1,1357,1156,0,0
140,-132,0,0,0,0,0,0,0,0,0,-1,1364,1156,0,0
147,-132,0,0,0,0,0,0,0,0,0,-1,1371,1156,0,0
154,-132,0,0,0,0,0,0,0,0,0,-1,1378,1156,0,0
161,-132,0,0,0,0,0,0,0,0,0,-1,1385,1156,0,0
168,-132,0,0,0,0,0,0,0,0,0,-1,1392,1156,0,0
175,-132,0,0,0,0,0,0,0,0,0,-1,1399,1156,0,0
182,-132,0,0,0,0,0,0,0,0,0,-1,1406,1156,0,0
189,-132,0,0,0,0,0,0,0,0,0,-1,1413,1156,0,0
196,-132,0,0,0,0,0,0,0,0,0,-1,1420,1156,0,0
203,-132,0,0,0,0,0,0,0,0,0,-1,1427,1156,0,0
210,-132,0,0,0,0,0,0,0,0,0,-1,1434,1156,0,0
217,-132,0,0,0,0,0,0,0,0,0,-1,1441,1156,0,0
224,-132,0,0,0,0,0,0,0,0,0,-1,1448,1156,0,0
231,-132,0,0,0,0,0,0,0,0,0,-1,1455,1156,0,0
238,-132,0,0,0,0,0,0,0,0,0,-1,1462,1156,0,0
245,-132,0,0,0,0,0,0,0,0,0,-1,1469,1156,0,0
252,-132,0,0,0,0,0,0,0,0,0,-1,1476,1156,0,0
259,-132,0,0,0,0,0,0,0,0,0,-1,1483,1156,0,0
266,-132,0,0,0,0,0,0,0,0,0,-1,1490,1156,0,0
273,-132,0,0,0,0,0,0,0,0,0,-1,1497,1156,0,0
280,-132,0,0,0,0,0,0,0,0,0,-1,1504,1156,0,0
287,-132,0,0,0,0,0,0,0,0,0,-1,1511,1156,0,0
294,-132,0,0,0,0,0,0,0,0,0,-1,1518,1156,0,0
301,-132,0,0,0,0,0,0,0,0,0,-1,1525,1156,0,0
308,-132,0,0,0,0,0,0,0,0,0,-1,1532,1156,0,0
315,-132,0,0,0,0,0,0,0,0,0,-1,1539,1156,0,0
322,-132,0,0,0,0,0,0,0,0,0,-1,1546,1156,0,0
329,-132,0,0,0,0,0,0,0,0,0,-1,1553,1156,0,0
336,-132,0,0,0,0,0,0,0,0,0,-1,1560,1156,0,0
343,-132,0,0,0,0,0,0,0,0,0,-1,1567,1156,0,0
350,-132,0,0,0,0,0,0,0,0,0,-1,1574,1156,0,0
357,-132,0,0,0,0,0,0,0,0,0,-1,1581,1156,0,0
364,-132,0,0,0,0,0,0,0,0,0,-1,1588,1156,0,0
371,-132,0,0,0,0,0,0,0,0,0,-1,1595,1156,0,0
378,-132,0,0,0,0,0,0,0,0,0,-1,1602,1156,0,0
385,-132,0,0,0,0,0,0,0,0,0,-1,1609,1156,0,0
392,-132,0,0,0,0,0,0,0,0,0,-1,1616,1156,0,0
399,-132,0,0,0,0,0,0,0,0,0,-1,1623,1156,0,0
406,-132,0,0,0,0,0,0,0,0,0,-1,1630,1156,0,0
413,-132,0,0,0,0,0,0,0,0,0,-1,1637,1156,0,0
420,-132,0,0,0,0,0,0,0,0,0,-1,1644,1156,0,0
427,-132,0,0,0,0,0,0,0,0,0,-1,1651,1156,0,0
434,-132,0,0,0,0,0,0,0,0,0,-1,1658,1156,0,0
441,-132,0,0,0,0,0,0,0,0,0,-1,1665,1156,0,0
448,-132,0,0,0,0,0,0,0,0,0,-1,1672,1156,0,0
455,-132,0,0,0,0,0,0,0,0,0,-1,1679,1156,0,0
462,-132,0,0,0,0,0,0,0,0,0,-1,1686,1156,0,0
469,-132,0,0,0,0,0,0,0,0,0,-1,1693,1156,0,0
476,-132,0,0,0,0,0,0,0,0,0,-1,1700,1156,0,0
483,-132,0,0,0,0,0,0,0,0,0,-1,1707,1156,0,0
490,-132,0,0,0,0,0,0,0,0,0,-1,1714,1156,0,0
497,-132,0,0,0,0,0,0,0,0,0,-1,1721,1156,0,0
504,-132,0,0,0,0,0,0,0,0,0,-1,1728,1156,0,0
511,-132,0,0,0,0,0,0,0,0,0,-1,1735,1156,0,0
518,-132,0,0,0,0,0,0,0,0,0,-1,1742,1156,0,0
525,-132,0,0,0,0,0,0,0,0,0,-1,1749,1156,0,0
532,-132,0,0,0,0,0,0,0,0,0,-1,1756,1156,0,0
539,-132,0,0,0,0,0,0,0,0,0,-1,1763,1156,0,0
546,-132,0,0,0,0,0,0,0,0,0,-1,1770,1156,0,0
553,-132,0,0,0,0,0,0,0,0,0,-1,1777,1156,0,0
560,-132,0,0,0,0,0,0,0,0,0,-1,1784,1156,0,0
567,-132,0,0,0,0,0,0,0,0,0,-1,1791,1156,0,0
574,-132,0,0,0,0,0,0,0,0,0,-1,1798,1156,0,0
581,-132,0,0,0,0,0,0,0,0,0,-1,1805,1156,0,0
588,-132,0,0,0,0,0,0,0,0,0,-1,1812,1156,0,0
595,-132,0,0,0,0,0,0,0,0,0,-1,1819,1156,0,0
602,-132,0,0,0,0,0,0,0,0,0,-1,1826,1156,0,0
609,-132,0,0,0,0,0,0,0,0,0,-1,1833,1156,0,0
616,-132,0,0,0,0,0,0,0,0,0,-1,1840,1156,0,0
623,-132,0,0,0,0,0,0,0,0,0,-1,1847,1156,0,0
630,-132,0,0,0,0,0,0,0,0,0,-1,1854,1156,0,0
637,-132,0,0,0,0,0,0,0,0,0,-1,1861,1156,0,0
644,-132,61.2448,3.04553,0.00442437,0.00127613,-0.00751794,0.0105312,-0.00483072,-0.682198,0.00907048,0.0441469,1868,1156,61.2448,-3.04554
651,-132,61.1837,2.75659,0.00283596,0.00065626,-0.00514653,0.00700677,-0.00351454,-0.681057,0.00618502,0.039919,1875,1156,61.1837,-2.7566
658,-132,61.0942,2.45996,0.00179205,0.000247279,-0.00339206,0.00449855,-0.00245922,-0.673454,0.00407418,0.0390064,1882,1156,61.0942,-2.45998
665,-132,61.0875,2.66467,0.000999283,5.67192e-05,-0.00206285,0.002644,-0.001588,-0.673095,0.00246857,0.0417814,1889,1156,61.0876,-2.66466
672,-132,61.0482,2.69312,0.000327172,-3.24365e-05,-0.00107912,0.00124136,-0.00094663,-0.702846,0.00126705,0.040827,1896,1156,61.0483,-2.69316
679,-132,61.158,2.60608,-0.000115077,-0.000240866,-0.000508531,0.000334434,-0.000690377,-0.723871,0.000603454,0.0398137,1903,1156,61.1579,-2.60606
686,-132,61.1563,2.78613,6.27497e-05,-0.00052586,-0.00039297,0.000259404,-0.000722514,-0.463992,0.000587553,0.0375972,1910,1156,61.1563,-2.78614
693,-132,61.1412,2.8374,0.000172099,-0.000707243,-0.000329293,0.000281741,-0.000816885,-0.321416,0.000658897,0.0287593,1917,1156,61.1412,-2.83746
700,-132,61.224,2.70605,0,0,0,0,0,0,0,-1,1924,1156,61.2239,-2.70612
707,-132,57.9275,3.01367,0,0,0,0,0,0,0,-1,1931,1156,57.9275,-3.01369
714,-132,54.8422,8.96143,0,0,0,0,0,0,0,-1,1938,1156,54.8422,-8.96147
721,-132,54.7444,8.6687,-0.000220574,-0.000571215,0.000578173,0.000208275,-0.00100006,0.638188,0.000745891,0.0416267,1945,1156,54.7444,-8.66871
728,-132,54.5471,8.35645,-0.000236703,-0.000533203,0.000856816,0.000484594,-0.0012545,0.699734,0.00103635,0.0308272,1952,1156,54.5471,-8.35649
735,-132,54.4957,7.88623,-0.000173944,-0.000637085,0.00107215,0.000691363,-0.00150239,0.679039,0.0012951,0.0320353,1959,1156,54.4958,-7.88625
742,-132,54.5457,7.3197,-0.000319319,3.2702e-05,0.00151711,0.00138398,-0.0016706,0.843148,0.00176615,0.0246524,1966,1156,54.5456,-7.31969
749,-132,54.5099,6.80908,-0.00104673,0.00156654,0.00210882,0.00274072,-0.0022209,1.06275,0.00286983,0.0255962,1973,1156,54.5098,-6.80907
756,-132,54.5039,6.28101,-0.00192409,0.00566073,0.00200815,0.00615959,-0.00242295,1.3273,0.00510928,0.0248961,1980,1156,54.5039,-6.28102
763,-132,54.4399,5.8197,-0.00251823,0.0118604,0.00144948,0.012005,-0.00266289,1.47132,0.00902293,0.0155073,1987,1156,54.44,-5.81975
770,-132,54.4492,5.35925,-0.00274924,0.019452,0.000442732,0.0194608,-0.00275807,1.55087,0.0139842,0.0150465,1994,1156,54.4493,-5.35929
777,-132,54.386,4.93811,-0.0025296,0.0282355,-0.00108223,0.0282735,-0.00256762,-1.53568,0.0197606,0.0272093,2001,1156,54.386,-4.93806
784,-132,54.4851,4.75159,0,0,0,0,0,0,0,-1,2008,1156,54.4852,-4.75154
791,-132,55.0288,4.94714,0.000118839,0.0501377,-0.00645164,0.0509565,-0.000699915,-1.44456,0.0342067,0.0494019,2015,1156,55.0288,-4.94714
798,-132,54.2681,4.20081,0.00326363,0.0638137,-0.0110787,0.0657771,0.00130026,-1.3954,0.0434245,0.0481882,2022,1156,54.2681,-4.20086
805,-132,53.6357,3.77356,0.00809781,0.0791584,-0.0175804,0.0832699,0.00398633,-1.34106,0.0542334,0.0456244,2029,1156,53.6358,-3.77359
812,-132,53.0786,2.62207,0,0,0,0,0,0,0,-1,2036,1156,53.0786,-2.62204
-700,-139,0,0,0,0,0,0,0,0,0,-1,524,1163,0,0
-693,-139,-43.1668,4.06165,0,0,0,0,0,0,0,-1,531,1163,-43.1668,-4.0616
-686,-139,-41.1489,-1.06799,0,0,0,0,0,0,0,-1,538,1163,-41.1488,1.068
-679,-139,-41.0225,-0.13147,0,0,0,0,0,0,0,-1,545,1163,-41.0225,0.131513
-672,-139,-40.769,0.575195,-0.00675624,0.0152962,-0.0636539,0.0688718,-0.0603318,-0.871158,0.07465,0.042468,552,1163,-40.769,-0.575212
-665,-139,-40.3049,0.709106,-0.00102294,0.0142258,-0.0472056,0.0544188,-0.0412159,-0.865464,0.0553898,0.0455631,559,1163,-40.3049,-0.709058
-658,-139,-39.8679,1.11633,0,0,0,0,0,0,0,-1,566,1163,-39.8679,-1.11638
-651,-139,-39.3911,1.72668,0.00299915,0.010636,-0.0236363,0.0307603,-0.0171252,-0.865481,0.0280178,0.0468665,573,1163,-39.3911,-1.72674
-644,-139,-38.8837,2.35608,0.00284628,0.00860435,-0.0157558,0.021742,-0.0102914,-0.875766,0.0188842,0.0269567,580,1163,-38.8837,-2.35608
-637,-139,-38.9014,2.85059,0.00181126,0.00650838,-0.0101355,0.0145639,-0.00624423,-0.899247,0.0123295,0.0149877,587,1163,-38.9014,-2.85055
-630,-139,-38.9048,3.38318,0.000456585,0.00458945,-0.00605109,0.00891722,-0.00387119,-0.949938,0.00757256,0.010677,594,1163,-38.9049,-3.38319
-623,-139,-38.9478,3.95715,-0.00142005,0.00245323,-0.00374075,0.00472893,-0.00369575,-1.02426,0.00487617,0.0168402,601,1163,-38.9478,-3.9572
-616,-139,-38.9664,4.49414,-0.00358789,0.000412019,-0.00269498,0.00176806,-0.00494393,-1.10461,0.00401717,0.0193151,608,1163,-38.9664,-4.49414
-609,-139,-38.7704,5.05371,0,0,0,0,0,0,0,-1,615,1163,-38.7704,-5.05376
-602,-139,-38.883,5.63647,-0.00365059,-0.00103431,-0.00370521,0.0015869,-0.0062718,-0.955095,0.00479844,0.038946,622,1163,-38.883,-5.63652
-595,-139,-39.1207,6.1803,-0.00308093,-0.00128176,-0.00371586,0.00164186,-0.00600455,-0.904159,0.00464801,0.0488696,629,1163,-39.1208,-6.18029
-588,-139,-39.4338,6.61511,0,0,0,0,0,0,0,-1,636,1163,-39.4338,-6.61515
-581,-139,-34.4892,6.72473,0,0,0,0,0,0,0,-1,643,1163,-34.4892,-6.72476
-574,-139,-23.0725,2.4043,0,0,0,0,0,0,0,-1,650,1163,-23.0725,-2.40433
-567,-139,-46.1946,0.989136,0,0,0,0,0,0,0,-1,657,1163,-46.1946,-0.989121
-560,-139,-46.2347,0.984131,-0.000359513,-0.00260182,-0.00406945,0.0027404,-0.00570174,-0.65098,0.00497303,0.0372936,664,1163,-46.2348,-0.984098
-553,-139,-46.2236,0.83728,0.000402887,-0.00265043,-0.00416696,0.00331405,-0.00556159,-0.609806,0.00517883,0.0388308,671,1163,-46.2236,-0.837263
-546,-139,-46.2615,0.722168,0.00122608,-0.00230602,-0.00405582,0.00388367,-0.00496361,-0.580059,0.00512065,0.041585,678,1163,-46.2615,-0.722216
-539,-139,-46.2722,0.898071,0.00144766,-0.00190749,-0.00412993,0.00422773,-0.00468756,-0.592479,0.00514953,0.0429332,685,1163,-46.2722,-0.89802
-532,-139,-46.152,0.884766,0.000676703,-0.00182749,-0.00422017,0.00382661,-0.00497739,-0.641188,0.00509744,0.0398448,692,1163,-46.152,-0.884749
-525,-139,-46.0313,0.710449,-0.000393424,-0.00186793,-0.00426923,0.00320175,-0.0054631,-0.699897,0.00505912,0.0393139,699,1163,-46.0312,-0.710451
-518,-139,0,0,0,0,0,0,0,0,0,-1,706,1163,0,0
-511,-139,0,0,0,0,0,0,0,0,0,-1,713,1163,0,0
-504,-139,0,0,0,0,0,0,0,0,0,-1,720,1163,0,0
-497,-139,0,0,0,0,0,0,0,0,0,-1,727,1163,0,0
-490,-139,0,0,0,0,0,0,0,0,0,-1,734,1163,0,0
-483,-139,0,0,0,0,0,0,0,0,0,-1,741,1163,0,0
-476,-139,0,0,0,0,0,0,0,0,0,-1,748,1163,0,0
-469,-139,0,0,0,0,0,0,0,0,0,-1,755,1163,0,0
-462,-139,0,0,0,0,0,0,0,0,0,-1,762,1163,0,0
-455,-139,0,0,0,0,0,0,0,0,0,-1,769,1163,0,0
-448,-139,0,0,0,0,0,0,0,0,0,-1,776,1163,0,0
-441,-139,0,0,0,0,0,0,0,0,0,-1,783,1163,0,0
-434,-139,0,0,0,0,0,0,0,0,0,-1,790,1163,0,0
-427,-139,0,0,0,0,0,0,0,0,0,-1,797,1163,0,0
-420,-139,0,0,0,0,0,0,0,0,0,-1,804,1163,0,0
-413,-139,0,0,0,0,0,0,0,0,0,-1,811,1163,0,0
-406,-139,0,0,0,0,0,0,0,0,0,-1,818,1163,0,0
-399,-139,0,0,0,0,0,0,0,0,0,-1,825,1163,0,0
-392,-139,0,0,0,0,0,0,0,0,0,-1,832,1163,0,0
-385,-139,0,0,0,0,0,0,0,0,0,-1,839,1163,0,0
-378,-139,0,0,0,0,0,0,0,0,0,-1,846,1163,0,0
-371,-139,0,0,0,0,0,0,0,0,0,-1,853,1163,0,0
-364,-139,0,0,0,0,0,0,0,0,0,-1,860,1163,0,0
-357,-139,0,0,0,0,0,0,0,0,0,-1,867,1163,0,0
-350,-139,0,0,0,0,0,0,0,0,0,-1,874,1163,0,0
-343,-139,0,0,0,0,0,0,0,0,0,-1,881,1163,0,0
-336,-139,0,0,0,0,0,0,0,0,0,-1,888,1163,0,0
-329,-139,0,0,0,0,0,0,0,0,0,-1,895,1163,0,0
-322,-139,0,0,0,0,0,0,0,0,0,-1,902,1163,0,0
-315,-139,0,0,0,0,0,0,0,0,0,-1,909,1163,0,0
-308,-139,0,0,0,0,0,0,0,0,0,-1,916,1163,0,0
-301,-139,0,0,0,0,0,0,0,0,0,-1,923,1163,0,0
-294,-139,0,0,0,0,0,0,0,0,0,-1,930,1163,0,0
-287,-139,0,0,0,0,0,0,0,0,0,-1,937,1163,0,0
-280,-139,0,0,0,0,0,0,0,0,0,-1,944,1163,0,0
-273,-139,0,0,0,0,0,0,0,0,0,-1,951,1163,0,0
-266,-139,0,0,0,0,0,0,0,0,0,-1,958,1163,0,0
-259,-139,0,0,0,0,0,0,0,0,0,-1,965,1163,0,0
-252,-139,0,0,0,0,0,0,0,0,0,-1,972,1163,0,0
-245,-139,0,0,0,0,0,0,0,0,0,-1,979,1163,0,0
-238,-139,0,0,0,0,0,0,0,0,0,-1,986,1163,0,0
-231,-139,0,0,0,0,0,0,0,0,0,-1,993,1163,0,0
-224,-139,0,0,0,0,0,0,0,0,0,-1,1000,1163,0,0
-217,-139,0,0,0,0,0,0,0,0,0,-1,1007,1163,0,0
-210,-139,0,0,0,0,0,0,0,0,0,-1,1014,1163,0,0
-203,-139,0,0,0,0,0,0,0,0,0,-1,1021,1163,0,0
-196,-139,0,0,0,0,0,0,0,0,0,-1,1028,1163,0,0
-189,-139,0,0,0,0,0,0,0,0,0,-1,1035,1163,0,0
-182,-139,0,0,0,0,0,0,0,0,0,-1,1042,1163,0,0
-175,-139,0,0,0,0,0,0,0,0,0,-1,1049,1163,0,0
-168,-139,0,0,0,0,0,0,0,0,0,-1,1056,1163,0,0
-161,-139,0,0,0,0,0,0,0,0,0,-1,1063,1163,0,0
-154,-139,0,0,0,0,0,0,0,0,0,-1,1070,1163,0,0
-147,-139,0,0,0,0,0,0,0,0,0,-1,1077,1163,0,0
-140,-139,0,0,0,0,0,0,0,0,0,-1,1084,1163,0,0
-133,-139,0,0,0,0,0,0,0,0,0,-1,1091,1163,0,0
-126,-139,0,0,0,0,0,0,0,0,0,-1,1098,1163,0,0
-119,-139,0,0,0,0,0,0,0,0,0,-1,1105,1163,0,0
-112,-139,0,0,0,0,0,0,0,0,0,-1,1112,1163,0,0
-105,-139,0,0,0,0,0,0,0,0,0,-1,1119,1163,0,0
-98,-139,0,0,0,0,0,0,0,0,0,-1,1126,1163,0,0
-91,-139,0,0,0,0,0,0,0,0,0,-1,1133,1163,0,0
-84,-139,0,0,0,0,0,0,0,0,0,-1,1140,1163,0,0
-77,-139,0,0,0,0,0,0,0,0,0,-1,1147,1163,0,0
-70,-139,0,0,0,0,0,0,0,0,0,-1,1154,1163,0,0
-63,-139,0,0,0,0,0,0,0,0,0,-1,1161,1163,0,0
-56,-139,0,0,0,0,0,0,0,0,0,-1,1168,1163,0,0
-49,-139,0,0,0,0,0,0,0,0,0,-1,1175,1163,0,0
-42,-139,0,0,0,0,0,0,0,0,0,-1,1182,1163,0,0
-35,-139,0,0,0,0,0,0,0,0,0,-1,1189,1163,0,0
-28,-139,0,0,0,0,0,0,0,0,0,-1,1196,1163,0,0
-21,-139,0,0,0,0,0,0,0,0,0,-1,1203,1163,0,0
-14,-139,0,0,0,0,0,0,0,0,0,-1,1210,1163,0,0
-7,-139,0,0,0,0,0,0,0,0,0,-1,1217,1163,0,0
0,-139,0,0,0,0,0,0,0,0,0,-1,1224,1163,0,0
7,-139,0,0,0,0,0,0,0,0,0,-1,1231,1163,0,0
14,-139,0,0,0,0,0,0,0,0,0,-1,1238,1163,0,0
21,-139,0,0,0,0,0,0,0,0,0,-1,1245,1163,0,0
28,-139,0,0,0,0,0,0,0,0,0,-1,1252,1163,0,0
35,-139,0,0,0,0,0,0,0,0,0,-1,1259,1163,0,0
42,-139,0,0,0,0,0,0,0,0,0,-1,1266,1163,0,0
49,-139,0,0,0,0,0,0,0,0,0,-1,1273,1163,0,0
56,-139,0,0,0,0,0,0,0,0,0,-1,1280,1163,0,0
63,-139,0,0,0,0,0,0,0,0,0,-1,1287,1163,0,0
70,-139,0,0,0,0,0,0,0,0,0,-1,1294,1163,0,0
77,-139,0,0,0,0,0,0,0,0,0,-1,1301,1163,0,0
84,-139,0,0,0,0,0,0,0,0,0,-1,1308,1163,0,0
91,-139,0,0,0,0,0,0,0,0,0,-1,1315,1163,0,0
98,-139,0,0,0,0,0,0,0,0,0,-1,1322,1163,0,0
105,-139,0,0,0,0,0,0,0,0,0,-1,1329,1163,0,0
112,-139,0,0,0,0,0,0,0,0,0,-1,1336,1163,0,0
119,-139,0,0,0,0,0,0,0,0,0,-1,1343,1163,0,0
126,-139,0,0,0,0,0,0,0,0,0,-1,1350,1163,0,0
133,-139,0,0,0,0,0,0,0,0,0,-1,1357,1163,0,0
140,-139,0,0,0,0,0,0,0,0,0,-1,1364,1163,0,0
147,-139,0,0,0,0,0,0,0,0,0,-1,1371,1163,0,0
154,-139,0,0,0,0,0,0,0,0,0,-1,1378,1163,0,0
161,-139,0,0,0,0,0,0,0,0,0,-1,1385,1163,0,0
168,-139,0,0,0,0,0,0,0,0,0,-1,1392,1163,0,0
175,-139,0,0,0,0,0,0,0,0,0,-1,1399,1163,0,0
182,-139,0,0,0,0,0,0,0,0,0,-1,1406,1163,0,0
189,-139,0,0,0,0,0,0,0,0,0,-1,1413,1163,0,0
196,-139,0,0,0,0,0,0,0,0,0,-1,1420,1163,0,0
203,-139,0,0,0,0,0,0,0,0,0,-1,1427,1163,0,0
210,-139,0,0,0,0,0,0,0,0,0,-1,1434,1163,0,0
217,-139,0,0,0,0,0,0,0,0,0,-1,1441,1163,0,0
224,-139,0,0,0,0,0,0,0,0,0,-1,1448,1163,0,0
231,-139,0,0,0,0,0,0,0,0,0,-1,1455,1163,0,0
238,-139,0,0,0,0,0,0,0,0,0,-1,1462,1163,0,0
245,-139,0,0,0,0,0,0,0,0,0,-1,1469,1163,0,0
252,-139,0,0,0,0,0,0,0,0,0,-1,1476,1163,0,0
259,-139,0,0,0,0,0,0,0,0,0,-1,1483,1163,0,0
266,-139,0,0,0,0,0,0,0,0,0,-1,1490,1163,0,0
273,-139,0,0,0,0,0,0,0,0,0,-1,1497,1163,0,0
280,-139,0,0,0,0,0,0,0,0,0,-1,1504,1163,0,0
287,-139,0,0,0,0,0,0,0,0,0,-1,1511,1163,0,0
294,-139,0,0,0,0,0,0,0,0,0,-1,1518,1163,0,0
301,-139,0,0,0,0,0,0,0,0,0,-1,1525,1163,0,0
308,-139,0,0,0,0,0,0,0,0,0,-1,1532,1163,0,0
315,-139,0,0,0,0,0,0,0,0,0,-1,1539,1163,0,0
322,-139,0,0,0,0,0,0,0,0,0,-1,1546,1163,0,0
329,-139,0,0,0,0,0,0,0,0,0,-1,1553,1163,0,0
336,-139,0,0,0,0,0,0,0,0,0,-1,1560,1163,0,0
343,-139,0,0,0,0,0,0,0,0,0,-1,1567,1163,0,0
350,-139,0,0,0,0,0,0,0,0,0,-1,1574,1163,0,0
357,-139,0,0,0,0,0,0,0,0,0,-1,1581,1163,0,0
364,-139,0,0,0,0,0,0,0,0,0,-1,1588,1163,0,0
371,-139,0,0,0,0,0,0,0,0,0,-1,1595,1163,0,0
378,-139,0,0,0,0,0,0,0,0,0,-1,1602,1163,0,0
385,-139,0,0,0,0,0,0,0,0,0,-1,1609,1163,0,0
392,-139,0,0,0,0,0,0,0,0,0,-1,1616,1163,0,0
399,-139,0,0,0,0,0,0,0,0,0,-1,1623,1163,0,0
406,-139,0,0,0,0,0,0,0,0,0,-1,1630,1163,0,0
413,-139,0,0,0,0,0,0,0,0,0,-1,1637,1163,0,0
420,-139,0,0,0,0,0,0,0,0,0,-1,1644,1163,0,0
427,-139,0,0,0,0,0,0,0,0,0,-1,1651,1163,0,0
434,-139,0,0,0,0,0,0,0,0,0,-1,1658,1163,0,0
441,-139,0,0,0,0,0,0,0,0,0,-1,1665,1163,0,0
448,-139,0,0,0,0,0,0,0,0,0,-1,1672,1163,0,0
455,-139,0,0,0,0,0,0,0,0,0,-1,1679,1163,0,0
462,-139,0,0,0,0,0,0,0,0,0,-1,1686,1163,0,0
469,-139,0,0,0,0,0,0,0,0,0,-1,1693,1163,0,0
476,-139,0,0,0,0,0,0,0,0,0,-1,1700,1163,0,0
483,-139,0,0,0,0,0,0,0,0,0,-1,1707,1163,0,0
490,-139,0,0,0,0,0,0,0,0,0,-1,1714,1163,0,0
497,-139,0,0,0,0,0,0,0,0,0,-1,1721,1163,0,0
504,-139,0,0,0,0,0,0,0,0,0,-1,1728,1163,0,0
511,-139,0,0,0,0,0,0,0,0,0,-1,1735,1163,0,0
518,-139,0,0,0,0,0,0,0,0,0,-1,1742,1163,0,0
525,-139,0,0,0,0,0,0,0,0,0,-1,1749,1163,0,0
532,-139,0,0,0,0,0,0,0,0,0,-1,1756,1163,0,0
539,-139,0,0,0,0,0,0,0,0,0,-1,1763,1163,0,0
546,-139,0,0,0,0,0,0,0,0,0,-1,1770,1163,0,0
553,-139,0,0,0,0,0,0,0,0,0,-1,1777,1163,0,0
560,-139,0,0,0,0,0,0,0,0,0,-1,1784,1163,0,0
567,-139,0,0,0,0,0,0,0,0,0,-1,1791,1163,0,0
574,-139,0,0,0,0,0,0,0,0,0,-1,1798,1163,0,0
581,-139,0,0,0,0,0,0,0,0,0,-1,1805,1163,0,0
588,-139,0,0,0,0,0,0,0,0,0,-1,1812,1163,0,0
595,-139,0,0,0,0,0,0,0,0,0,-1,1819,1163,0,0
602,-139,0,0,0,0,0,0,0,0,0,-1,1826,1163,0,0
609,-139,0,0,0,0,0,0,0,0,0,-1,1833,1163,0,0
616,-139,0,0,0,0,0,0,0,0,0,-1,1840,1163,0,0
623,-139,0,0,0,0,0,0,0,0,0,-1,1847,1163,0,0
630,-139,0,0,0,0,0,0,0,0,0,-1,1854,1163,0,0
637,-139,0,0,0,0,0,0,0,0,0,-1,1861,1163,0,0
644,-139,61.22,2.7085,0.00405178,0.00179511,-0.00667413,0.00969228,-0.00384539,-0.70166,0.0080553,0.0405865,1868,1163,61.22,-2.70854
651,-139,61.1038,2.34314,0.00257458,0.00114438,-0.00455078,0.0064661,-0.00274714,-0.707467,0.0054618,0.0405494,1875,1163,61.1037,-2.34317
658,-139,61.0645,2.52185,0.00158029,0.000703126,-0.00297606,0.00414991,-0.0018665,-0.71224,0.00355599,0.0397783,1882,1163,61.0645,-2.52191
665,-139,61.1943,2.73706,0.000829341,0.000493365,-0.00182081,0.0024899,-0.00116719,-0.739398,0.00215696,0.0386712,1889,1163,61.1943,-2.73709
672,-139,61.2469,2.74207,0.000178789,0.000398257,-0.000997798,0.00129234,-0.000715291,-0.840166,0.00117496,0.0384747,1896,1163,61.2469,-2.74201
679,-139,61.332,2.74744,-0.000177067,0.000160372,-0.000559589,0.000576123,-0.000592818,-0.931817,0.000674912,0.037405,1903,1163,61.332,-2.74738
686,-139,61.2208,2.94275,6.69085e-05,-0.000144247,-0.000528353,0.000500128,-0.000577467,-0.686785,0.000622684,0.0348325,1910,1163,61.2208,-2.94279
693,-139,61.1968,2.82739,0.000164383,-0.000338068,-0.000493655,0.000467062,-0.000640746,-0.550024,0.000642208,0.023616,1917,1163,61.1967,-2.82734
700,-139,61.2145,2.56519,0,0,0,0,0,0,0,-1,1924,1163,61.2145,-2.56513
707,-139,32.116,6.54346,0,0,0,0,0,0,0,-1,1931,1163,32.116,-6.54343
714,-139,54.0817,9.43372,0,0,0,0,0,0,0,-1,1938,1163,54.0817,-9.43373
721,-139,54.1975,8.8186,0,0,0,0,0,0,0,-1,1945,1163,54.1975,-8.81855
728,-139,54.0566,8.448,0,0,0,0,0,0,0,-1,1952,1163,54.0567,-8.44795
735,-139,53.9041,7.9834,7.20159e-05,-0.00059899,0.000961582,0.000754945,-0.00128192,0.617548,0.00118903,0.0370521,1959,1163,53.904,-7.98345
742,-139,53.9962,7.28906,2.86833e-05,-0.000310879,0.00145451,0.00132329,-0.00160549,0.727297,0.00169354,0.0264302,1966,1163,53.9962,-7.2891
749,-139,53.968,6.7616,-0.000641105,0.0011543,0.00218891,0.00262244,-0.00210924,0.979996,0.00273719,0.0212655,1973,1163,53.968,-6.7616
756,-139,53.915,6.30164,-0.0011729,0.00548688,0.00230758,0.0062083,-0.00189432,1.26779,0.00489407,0.0120215,1980,1163,53.915,-6.30161
763,-139,53.8728,5.82141,-0.00117551,0.011798,0.00207087,0.0121206,-0.00149805,1.41629,0.00862322,0.0125818,1987,1163,53.8728,-5.82141
770,-139,53.8896,5.33679,-0.000689473,0.0193948,0.00146485,0.0195011,-0.00079575,1.49837,0.0132739,0.0135071,1994,1163,53.8897,-5.33678
777,-139,53.8765,4.92566,0.000374514,0.0281497,0.000405608,0.0281556,0.000368592,1.5562,0.0186488,0.026226,2001,1163,53.8765,-4.92562
784,-139,53.8506,4.63904,0.00223167,0.0381642,-0.00122306,0.0382058,0.00219009,-1.53681,0.0247728,0.0444839,2008,1163,53.8505,-4.63908
791,-139,54.0281,4.271,0.0052618,0.0496868,-0.00377106,0.0500046,0.00494396,-1.48671,0.0318167,0.0492814,2015,1163,54.0282,-4.27095
798,-139,53.6289,3.60986,0.00971221,0.0628509,-0.00763373,0.0639258,0.00863732,-1.43091,0.0400498,0.0450479,2022,1163,53.6289,-3.60982
805,-139,53.0498,3.04529,0.015821,0.0773162,-0.0132408,0.0800459,0.0130913,-1.36748,0.0495797,0.0439959,2029,1163,53.0497,-3.04529
812,-139,0,0,0,0,0,0,0,0,0,-1,2036,1163,0,0
-700,-146,0,0,0,0,0,0,0,0,0,-1,524,1170,0,0
-693,-146,-36.7423,-2.15393,0,0,0,0,0,0,0,-1,531,1170,-36.7423,2.15394
-686,-146,-44.4008,-1.33594,0,0,0,0,0,0,0,-1,538,1170,-44.4008,1.33594
-679,-146,-39.0417,-0.072876,0,0,0,0,0,0,0,-1,545,1170,-39.0417,0.0728439
-672,-146,-38.8193,0.387817,-0.00615521,0.0169497,-0.0542259,0.0608401,-0.0500456,-0.890351,0.0641209,0.0453931,552,1170,-38.8193,-0.387878
-665,-146,-38.5698,0.815552,-0.00115149,0.0159539,-0.0401453,0.0484474,-0.033645,-0.890351,0.0476522,0.0444604,559,1170,-38.5698,-0.815587
-658,-146,-38.567,1.28833,0,0,0,0,0,0,0,-1,566,1170,-38.5669,-1.2883
-651,-146,-38.3755,1.62207,0.0025905,0.0120967,-0.0201185,0.0280159,-0.0133287,-0.901399,0.0243672,0.044833,573,1170,-38.3755,-1.62206
-644,-146,-38.2322,2.27185,0.00253699,0.00980694,-0.0135003,0.0201531,-0.00780917,-0.916905,0.0166601,0.0244948,580,1170,-38.2322,-2.27182
-637,-146,-38.297,2.84705,0.00157762,0.00742183,-0.00877154,0.0137452,-0.00474574,-0.946184,0.0110892,0.0115922,587,1170,-38.297,-2.847
-630,-146,-38.3251,3.39917,0.000225997,0.00518735,-0.00537046,0.00862238,-0.00320904,-1.00176,0.00706519,0.0101218,594,1170,-38.3252,-3.39917
-623,-146,-38.3576,3.94324,-0.00165526,0.00283804,-0.00348293,0.00473605,-0.00355328,-1.07184,0.00480206,0.0136882,601,1170,-38.3576,-3.94325
-616,-146,-38.4166,4.50952,-0.00402232,0.000560069,-0.00264283,0.0017666,-0.00522885,-1.14252,0.00420048,0.0209492,608,1170,-38.4166,-4.50953
-609,-146,-38.47,5.07922,0,0,0,0,0,0,0,-1,615,1170,-38.47,-5.07928
-602,-146,-38.3419,5.73047,0,0,0,0,0,0,0,-1,622,1170,-38.3419,-5.73052
-595,-146,-38.5306,6.24609,0,0,0,0,0,0,0,-1,629,1170,-38.5307,-6.24613
-588,-146,-38.8177,6.70764,0,0,0,0,0,0,0,-1,636,1170,-38.8177,-6.7077
-581,-146,-31.7815,6.30347,0,0,0,0,0,0,0,-1,643,1170,-31.7815,-6.3035
-574,-146,-17.9915,3.79114,0,0,0,0,0,0,0,-1,650,1170,-17.9915,-3.79118
-567,-146,-44.4572,0.6604,0,0,0,0,0,0,0,-1,657,1170,-44.4572,-0.660404
-560,-146,-46.2147,1.06348,0,0,0,0,0,0,0,-1,664,1170,-46.2147,-1.06352
-553,-146,-46.1774,0.858032,-0.000220038,-0.002721,-0.0039215,0.00264553,-0.00558656,-0.631056,0.00485285,0.0384634,671,1170,-46.1774,-0.857981
-546,-146,-46.1824,0.730835,0.000942852,-0.00250204,-0.00367313,0.00327734,-0.00483653,-0.566156,0.00471329,0.0413032,678,1170,-46.1824,-0.730851
-539,-146,-46.3431,0.984375,0.00170824,-0.00217775,-0.00356547,0.00382577,-0.00429527,-0.535921,0.0046913,0.0433499,685,1170,-46.3431,-0.984385
-532,-146,-46.3249,1.02075,0.00130561,-0.00222962,-0.00345736,0.00342102,-0.00434502,-0.54909,0.00449429,0.0399185,692,1170,-46.3249,-1.0208
-525,-146,-46.1475,0.827881,0.000569341,-0.00237819,-0.00330247,0.00271197,-0.00452081,-0.575528,0.00421915,0.0423889,699,1170,-46.1475,-0.827902
-518,-146,0,0,0,0,0,0,0,0,0,-1,706,1170,0,0
-511,-146,0,0,0,0,0,0,0,0,0,-1,713,1170,0,0
-504,-146,0,0,0,0,0,0,0,0,0,-1,720,1170,0,0
-497,-146,0,0,0,0,0,0,0,0,0,-1,727,1170,0,0
-490,-146,0,0,0,0,0,0,0,0,0,-1,734,1170,0,0
-483,-146,0,0,0,0,0,0,0,0,0,-1,741,1170,0,0
-476,-146,0,0,0,0,0,0,0,0,0,-1,748,1170,0,0
-469,-146,0,0,0,0,0,0,0,0,0,-1,755,1170,0,0
-462,-146,0,0,0,0,0,0,0,0,0,-1,762,1170,0,0
-455,-146,0,0,0,0,0,0,0,0,0,-1,769,1170,0,0
-448,-146,0,0,0,0,0,0,0,0,0,-1,776,1170,0,0
-441,-146,0,0,0,0,0,0,0,0,0,-1,783,1170,0,0
-434,-146,0,0,0,0,0,0,0,0,0,-1,790,1170,0,0
-427,-146,0,0,0,0,0,0,0,0,0,-1,797,1170,0,0
-420,-146,0,0,0,0,0,0,0,0,0,-1,804,1170,0,0
-413,-146,0,0,0,0,0,0,0,0,0,-1,811,1170,0,0
-406,-146,0,0,0,0,0,0,0,0,0,-1,818,1170,0,0
-399,-146,0,0,0,0,0,0,0,0,0,-1,825,1170,0,0
-392,-146,0,0,0,0,0,0,0,0,0,-1,832,1170,0,0
-385,-146,0,0,0,0,0,0,0,0,0,-1,839,1170,0,0
-378,-146,0,0,0,0,0,0,0,0,0,-1,846,1170,0,0
-371,-146,0,0,0,0,0,0,0,0,0,-1,853,1170,0,0
-364,-146,0,0,0,0,0,0,0,0,0,-1,860,1170,0,0
-357,-146,0,0,0,0,0,0,0,0,0,-1,867,1170,0,0
-350,-146,0,0,0,0,0,0,0,0,0,-1,874,1170,0,0
-343,-146,0,0,0,0,0,0,0,0,0,-1,881,1170,0,0
-336,-146,0,0,0,0,0,0,0,0,0,-1,888,1170,0,0
-329,-146,0,0,0,0,0,0,0,0,0,-1,895,1170,0,0
-322,-146,0,0,0,0,0,0,0,0,0,-1,902,1170,0,0
-315,-146,0,0,0,0,0,0,0,0,0,-1,909,1170,0,0
-308,-146,0,0,0,0,0,0,0,0,0,-1,916,1170,0,0
-301,-146,0,0,0,0,0,0,0,0,0,-1,923,1170,0,0
-294,-146,0,0,0,0,0,0,0,0,0,-1,930,1170,0,0
-287,-146,0,0,0,0,0,0,0,0,0,-1,937,1170,0,0
-280,-146,0,0,0,0,0,0,0,0,0,-1,944,1170,0,0
-273,-146,0,0,0,0,0,0,0,0,0,-1,951,1170,0,0
-266,-146,0,0,0,0,0,0,0,0,0,-1,958,1170,0,0
-259,-146,0,0,0,0,0,0,0,0,0,-1,965,1170,0,0
-252,-146,0,0,0,0,0,0,0,0,0,-1,972,1170,0,0
-245,-146,0,0,0,0,0,0,0,0,0,-1,979,1170,0,0
-238,-146,0,0,0,0,0,0,0,0,0,-1,986,1170,0,0
-231,-146,0,0,0,0,0,0,0,0,0,-1,993,1170,0,0
-224,-146,0,0,0,0,0,0,0,0,0,-1,1000,1170,0,0
-217,-146,0,0,0,0,0,0,0,0,0,-1,1007,1170,0,0
-210,-146,0,0,0,0,0,0,0,0,0,-1,1014,1170,0,0
-203,-146,0,0,0,0,0,0,0,0,0,-1,1021,1170,0,0
-196,-146,0,0,0,0,0,0,0,0,0,-1,1028,1170,0,0
-189,-146,0,0,0,0,0,0,0,0,0,-1,1035,1170,0,0
-182,-146,0,0,0,0,0,0,0,0,0,-1,1042,1170,0,0
-175,-146,0,0,0,0,0,0,0,0,0,-1,1049,1170,0,0
-168,-146,0,0,0,0,0,0,0,0,0,-1,1056,1170,0,0
-161,-146,0,0,0,0,0,0,0,0,0,-1,1063,1170,0,0
-154,-146,0,0,0,0,0,0,0,0,0,-1,1070,1170,0,0
-147,-146,0,0,0,0,0,0,0,0,0,-1,1077,1170,0,0
-140,-146,0,0,0,0,0,0,0,0,0,-1,1084,1170,0,0
-133,-146,0,0,0,0,0,0,0,0,0,-1,1091,1170,0,0
-126,-146,0,0,0,0,0,0,0,0,0,-1,1098,1170,0,0
-119,-146,0,0,0,0,0,0,0,0,0,-1,1105,1170,0,0
-112,-146,0,0,0,0,0,0,0,0,0,-1,1112,1170,0,0
-105,-146,0,0,0,0,0,0,0,0,0,-1,1119,1170,0,0
-98,-146,0,0,0,0,0,0,0,0,0,-1,1126,1170,0,0
-91,-146,0,0,0,0,0,0,0,0,0,-1,1133,1170,0,0
-84,-146,0,0,0,0,0,0,0,0,0,-1,1140,1170,0,0
-77,-146,0,0,0,0,0,0,0,0,0,-1,1147,1170,0,0
-70,-146,0,0,0,0,0,0,0,0,0,-1,1154,1170,0,0
-63,-146,0,0,0,0,0,0,0,0,0,-1,1161,1170,0,0
-56,-146,0,0,0,0,0,0,0,0,0,-1,1168,1170,0,0
-49,-146,0,0,0,0,0,0,0,0,0,-1,1175,1170,0,0
-42,-146,0,0,0,0,0,0,0,0,0,-1,1182,1170,0,0
-35,-146,0,0,0,0,0,0,0,0,0,-1,1189,1170,0,0
-28,-146,0,0,0,0,0,0,0,0,0,-1,1196,1170,0,0
-21,-146,0,0,0,0,0,0,0,0,0,-1,1203,1170,0,0
-14,-146,0,0,0,0,0,0,0,0,0,-1,1210,1170,0,0
-7,-146,0,0,0,0,0,0,0,0,0,-1,1217,1170,0,0
0,-146,0,0,0,0,0,0,0,0,0,-1,1224,1170,0,0
7,-146,0,0,0,0,0,0,0,0,0,-1,1231,1170,0,0
14,-146,0,0,0,0,0,0,0,0,0,-1,1238,1170,0,0
21,-146,0,0,0,0,0,0,0,0,0,-1,1245,1170,0,0
28,-146,0,0,0,0,0,0,0,0,0,-1,1252,1170,0,0
35,-146,0,0,0,0,0,0,0,0,0,-1,1259,1170,0,0
42,-146,0,0,0,0,0,0,0,0,0,-1,1266,1170,0,0
49,-146,0,0,0,0,0,0,0,0,0,-1,1273,1170,0,0
56,-146,0,0,0,0,0,0,0,0,0,-1,1280,1170,0,0
63,-146,0,0,0,0,0,0,0,0,0,-1,1287,1170,0,0
70,-146,0,0,0,0,0,0,0,0,0,-1,1294,1170,0,0
77,-146,0,0,0,0,0,0,0,0,0,-1,1301,1170,0,0
84,-146,0,0,0,0,0,0,0,0,0,-1,1308,1170,0,0
91,-146,0,0,0,0,0,0,0,0,0,-1,1315,1170,0,0
98,-146,0,0,0,0,0,0,0,0,0,-1,1322,1170,0,0
105,-146,0,0,0,0,0,0,0,0,0,-1,1329,1170,0,0
112,-146,0,0,0,0,0,0,0,0,0,-1,1336,1170,0,0
119,-146,0,0,0,0,0,0,0,0,0,-1,1343,1170,0,0
126,-146,0,0,0,0,0,0,0,0,0,-1,1350,1170,0,0
133,-146,0,0,0,0,0,0,0,0,0,-1,1357,1170,0,0
140,-146,0,0,0,0,0,0,0,0,0,-1,1364,1170,0,0
147,-146,0,0,0,0,0,0,0,0,0,-1,1371,1170,0,0
154,-146,0,0,0,0,0,0,0,0,0,-1,1378,1170,0,0
161,-146,0,0,0,0,0,0,0,0,0,-1,1385,1170,0,0
168,-146,0,0,0,0,0,0,0,0,0,-1,1392,1170,0,0
175,-146,0,0,0,0,0,0,0,0,0,-1,1399,1170,0,0
182,-146,0,0,0,0,0,0,0,0,0,-1,1406,1170,0,0
189,-146,0,0,0,0,0,0,0,0,0,-1,1413,1170,0,0
196,-146,0,0,0,0,0,0,0,0,0,-1,1420,1170,0,0
203,-146,0,0,0,0,0,0,0,0,0,-1,1427,1170,0,0
210,-146,0,0,0,0,0,0,0,0,0,-1,1434,1170,0,0
217,-146,0,0,0,0,0,0,0,0,0,-1,1441,1170,0,0
224,-146,0,0,0,0,0,0,0,0,0,-1,1448,1170,0,0
231,-146,0,0,0,0,0,0,0,0,0,-1,1455,1170,0,0
238,-146,0,0,0,0,0,0,0,0,0,-1,1462,1170,0,0
245,-146,0,0,0,0,0,0,0,0,0,-1,1469,1170,0,0
252,-146,0,0,0,0,0,0,0,0,0,-1,1476,1170,0,0
259,-146,0,0,0,0,0,0,0,0,0,-1,1483,1170,0,0
266,-146,0,0,0,0,0,0,0,0,0,-1,1490,1170,0,0
273,-146,0,0,0,0,0,0,0,0,0,-1,1497,1170,0,0
280,-146,0,0,0,0,0,0,0,0,0,-1,1504,1170,0,0
287,-146,0,0,0,0,0,0,0,0,0,-1,1511,1170,0,0
294,-146,0,0,0,0,0,0,0,0,0,-1,1518,1170,0,0
301,-146,0,0,0,0,0,0,0,0,0,-1,1525,1170,0,0
308,-146,0,0,0,0,0,0,0,0,0,-1,1532,1170,0,0
315,-146,0,0,0,0,0,0,0,0,0,-1,1539,1170,0,0
322,-146,0,0,0,0,0,0,0,0,0,-1,1546,1170,0,0
329,-146,0,0,0,0,0,0,0,0,0,-1,1553,1170,0,0
336,-146,0,0,0,0,0,0,0,0,0,-1,1560,1170,0,0
343,-146,0,0,0,0,0,0,0,0,0,-1,1567,1170,0,0
350,-146,0,0,0,0,0,0,0,0,0,-1,1574,1170,0,0
357,-146,0,0,0,0,0,0,0,0,0,-1,1581,1170,0,0
364,-146,0,0,0,0,0,0,0,0,0,-1,1588,1170,0,0
371,-146,0,0,0,0,0,0,0,0,0,-1,1595,1170,0,0
378,-146,0,0,0,0,0,0,0,0,0,-1,1602,1170,0,0
385,-146,0,0,0,0,0,0,0,0,0,-1,1609,1170,0,0
392,-146,0,0,0,0,0,0,0,0,0,-1,1616,1170,0,0
399,-146,0,0,0,0,0,0,0,0,0,-1,1623,1170,0,0
406,-146,0,0,0,0,0,0,0,0,0,-1,1630,1170,0,0
413,-146,0,0,0,0,0,0,0,0,0,-1,1637,1170,0,0
420,-146,0,0,0,0,0,0,0,0,0,-1,1644,1170,0,0
427,-146,0,0,0,0,0,0,0,0,0,-1,1651,1170,0,0
434,-146,0,0,0,0,0,0,0,0,0,-1,1658,1170,0,0
441,-146,0,0,0,0,0,0,0,0,0,-1,1665,1170,0,0
448,-146,0,0,0,0,0,0,0,0,0,-1,1672,1170,0,0
455,-146,0,0,0,0,0,0,0,0,0,-1,1679,1170,0,0
462,-146,0,0,0,0,0,0,0,0,0,-1,1686,1170,0,0
469,-146,0,0,0,0,0,0,0,0,0,-1,1693,1170,0,0
476,-146,0,0,0,0,0,0,0,0,0,-1,1700,1170,0,0
483,-146,0,0,0,0,0,0,0,0,0,-1,1707,1170,0,0
490,-146,0,0,0,0,0,0,0,0,0,-1,1714,1170,0,0
497,-146,0,0,0,0,0,0,0,0,0,-1,1721,1170,0,0
504,-146,0,0,0,0,0,0,0,0,0,-1,1728,1170,0,0
511,-146,0,0,0,0,0,0,0,0,0,-1,1735,1170,0,0
518,-146,0,0,0,0,0,0,0,0,0,-1,1742,1170,0,0
525,-146,0,0,0,0,0,0,0,0,0,-1,1749,1170,0,0
532,-146,0,0,0,0,0,0,0,0,0,-1,1756,1170,0,0
539,-146,0,0,0,0,0,0,0,0,0,-1,1763,1170,0,0
546,-146,0,0,0,0,0,0,0,0,0,-1,1770,1170,0,0
553,-146,0,0,0,0,0,0,0,0,0,-1,1777,1170,0,0
560,-146,0,0,0,0,0,0,0,0,0,-1,1784,1170,0,0
567,-146,0,0,0,0,0,0,0,0,0,-1,1791,1170,0,0
574,-146,0,0,0,0,0,0,0,0,0,-1,1798,1170,0,0
581,-146,0,0,0,0,0,0,0,0,0,-1,1805,1170,0,0
588,-146,0,0,0,0,0,0,0,0,0,-1,1812,1170,0,0
595,-146,0,0,0,0,0,0,0,0,0,-1,1819,1170,0,0
602,-146,0,0,0,0,0,0,0,0,0,-1,1826,1170,0,0
609,-146,0,0,0,0,0,0,0,0,0,-1,1833,1170,0,0
616,-146,0,0,0,0,0,0,0,0,0,-1,1840,1170,0,0
623,-146,0,0,0,0,0,0,0,0,0,-1,1847,1170,0,0
630,-146,0,0,0,0,0,0,0,0,0,-1,1854,1170,0,0
637,-146,61.3342,2.56812,0,0,0,0,0,0,0,-1,1861,1170,61.3342,-2.5681
644,-146,61.3782,2.36035,0,0,0,0,0,0,0,-1,1868,1170,61.3781,-2.36029
651,-146,61.165,2.54761,0.00228329,0.00149775,-0.003785,0.00569584,-0.0019148,-0.733699,0.00457119,0.0349576,1875,1170,61.165,-2.54762
658,-146,61.1531,2.82654,0.00134993,0.00106429,-0.00248688,0.00369808,-0.00128387,-0.756715,0.00298678,0.0388191,1882,1170,61.1531,-2.82658
665,-146,61.299,2.78113,0.000649938,0.000877021,-0.00158934,0.00235687,-0.000829913,-0.821057,0.001909,0.0408201,1889,1170,61.299,-2.78113
672,-146,61.2834,2.82239,5.51898e-05,0.000782779,-0.00101374,0.00149603,-0.000658059,-0.957672,0.00127464,0.0397524,1896,1170,61.2834,-2.8224
679,-146,61.2755,2.71265,-0.000117838,0.000506243,-0.000763641,0.00101914,-0.000630732,-0.979357,0.000961311,0.0318779,1903,1170,61.2755,-2.71267
686,-146,61.1495,2.71594,0.000247728,0.000167561,-0.000780475,0.000989148,-0.000573859,-0.759742,0.000912958,0.0250128,1910,1170,61.1496,-2.71597
693,-146,61.1897,2.64502,0.000322374,-3.56142e-05,-0.000722041,0.000887276,-0.000600516,-0.663898,0.000864279,0.018356,1917,1170,61.1897,-2.64507
700,-146,61.2041,2.38062,0,0,0,0,0,0,0,-1,1924,1170,61.2041,-2.38057
707,-146,29.9441,6.94653,0,0,0,0,0,0,0,-1,1931,1170,29.9441,-6.94652
714,-146,31.325,6.13245,0,0,0,0,0,0,0,-1,1938,1170,31.325,-6.1325
721,-146,53.6296,8.73328,0,0,0,0,0,0,0,-1,1945,1170,53.6296,-8.7333
728,-146,53.4843,8.01892,0,0,0,0,0,0,0,-1,1952,1170,53.4843,-8.01888
735,-146,53.4121,7.85498,0.000391706,-0.000592106,0.000868501,0.000897931,-0.00109833,0.52773,0.00115448,0.038011,1959,1170,53.4121,-7.855
742,-146,53.5056,7.27649,0.000365664,-0.000692756,0.00139144,0.00132514,-0.00165223,0.60368,0.00172244,0.0202966,1966,1170,53.5056,-7.27653
749,-146,53.4319,6.82678,-0.000274526,0.00078713,0.00225488,0.00257282,-0.00206022,0.901,0.00268034,0.0171452,1973,1170,53.4319,-6.82684
756,-146,53.3835,6.32104,-0.000345915,0.00527537,0.00259787,0.00629208,-0.00136263,1.19776,0.00471503,0.0118529,1980,1170,53.3836,-6.32108
763,-146,53.3363,5.81201,0.000372566,0.0115062,0.00268612,0.0121204,-0.000241609,1.34601,0.008162,0.0121199,1987,1170,53.3363,-5.812
770,-146,53.3287,5.29944,0.00178312,0.0189225,0.00247567,0.0192729,0.00143269,1.43018,0.0123987,0.0132913,1994,1170,53.3288,-5.29947
777,-146,53.3564,4.92188,0.00401968,0.0274391,0.00188465,0.0275898,0.00386898,1.49101,0.0172488,0.0237697,2001,1170,53.3564,-4.92183
784,-146,53.0996,4.65991,0.00741341,0.0371082,0.000802477,0.0371299,0.00739174,1.5438,0.0226942,0.0422974,2008,1170,53.0997,-4.65996
791,-146,52.9316,4.34656,0,0,0,0,0,0,0,-1,2015,1170,52.9317,-4.34656
798,-146,53.6189,3.73096,0.0192234,0.0604417,-0.00410711,0.060847,0.0188181,-1.47244,0.0359719,0.0443501,2022,1170,53.6189,-3.7309
805,-146,54.4082,3.58459,0.0280987,0.073571,-0.00867222,0.0751688,0.0265009,-1.3886,0.0440233,0.0456636,2029,1170,54.4083,-3.58463
812,-146,0,0,0,0,0,0,0,0,0,-1,2036,1170,0,0
-700,-153,0,0,0,0,0,0,0,0,0,-1,524,1177,0,0
-693,-153,0,0,0,0,0,0,0,0,0,-1,531,1177,0,0
-686,-153,-36.5762,-2.08337,0,0,0,0,0,0,0,-1,538,1177,-36.5762,2.08333
-679,-153,-36.4394,-2.61829,0,0,0,0,0,0,0,-1,545,1177,-36.4394,2.61831
-672,-153,-37.1151,0.444458,0,0,0,0,0,0,0,-1,552,1177,-37.1151,-0.44445
-665,-153,-36.8775,0.856201,0,0,0,0,0,0,0,-1,559,1177,-36.8775,-0.856198
-658,-153,-37.0905,1.4928,0,0,0,0,0,0,0,-1,566,1177,-37.0905,-1.49279
-651,-153,-37.5111,1.60376,0,0,0,0,0,0,0,-1,573,1177,-37.5111,-1.60378
-644,-153,-37.6121,2.22961,0.00134556,0.0109296,-0.00993357,0.0171666,-0.00489143,-1.01014,0.0133764,0.0295086,580,1177,-37.6121,-2.22957
-637,-153,-37.7104,2.85522,0.000857173,0.00831365,-0.00652927,0.0121041,-0.00293331,-1.04481,0.00920434,0.011165,587,1177,-37.7104,-2.85523
-630,-153,-37.746,3.4137,-0.000131156,0.0057862,-0.00419619,0.00796189,-0.00230685,-1.09246,0.00622112,0.00977399,594,1177,-37.746,-3.41372
-623,-153,-37.7855,3.96741,-0.00169783,0.0032325,-0.00309072,0.00472077,-0.00318609,-1.12204,0.0045936,0.010845,601,1177,-37.7855,-3.96739
-616,-153,-37.8323,4.52966,-0.00403291,0.000665662,-0.0026627,0.00186731,-0.00523456,-1.14687,0.00425112,0.0137629,608,1177,-37.8323,-4.52962
-609,-153,-37.8461,5.04688,-0.0055019,-0.000614649,-0.0032164,0.000981094,-0.00709765,-1.11025,0.00509041,0.0330834,615,1177,-37.8461,-5.04684
-602,-153,-37.8362,5.44702,0,0,0,0,0,0,0,-1,622,1177,-37.8363,-5.44699
-595,-153,-38.0001,6.30139,0,0,0,0,0,0,0,-1,629,1177,-38.0001,-6.30138
-588,-153,-32.348,5.51038,0,0,0,0,0,0,0,-1,636,1177,-32.348,-5.51034
-581,-153,-33.4568,6.41492,0,0,0,0,0,0,0,-1,643,1177,-33.4568,-6.41497
-574,-153,-25.4814,5.16956,0,0,0,0,0,0,0,-1,650,1177,-25.4814,-5.16961
-567,-153,-35.3121,1.09485,0,0,0,0,0,0,0,-1,657,1177,-35.3121,-1.09482
-560,-153,-46.2181,1.05383,0,0,0,0,0,0,0,-1,664,1177,-46.2181,-1.05384
-553,-153,-46.1609,0.87085,-0.00104154,-0.0031047,-0.00367807,0.00174688,-0.00589311,-0.648677,0.0046224,0.0371486,671,1177,-46.1609,-0.870878
-546,-153,-46.1074,0.834473,0.000277692,-0.00303694,-0.00333891,0.00234798,-0.00510723,-0.555031,0.00440144,0.0403298,678,1177,-46.1074,-0.834481
-539,-153,-46.306,0.998413,0.00149082,-0.00273883,-0.00308899,0.00311958,-0.00436758,-0.485229,0.00434268,0.0410037,685,1177,-46.3061,-0.998391
-532,-153,-46.3937,0.930176,0.00157479,-0.00271896,-0.00283024,0.00298028,-0.00412445,-0.460924,0.00411961,0.0403393,692,1177,-46.3938,-0.930217
-525,-153,-46.2515,0.940308,0.00127707,-0.00276546,-0.00252458,0.00248985,-0.00397823,-0.447834,0.00376716,0.0408773,699,1177,-46.2515,-0.940273
-518,-153,0,0,0,0,0,0,0,0,0,-1,706,1177,0,0
-511,-153,0,0,0,0,0,0,0,0,0,-1,713,1177,0,0
-504,-153,0,0,0,0,0,0,0,0,0,-1,720,1177,0,0
-497,-153,0,0,0,0,0,0,0,0,0,-1,727,1177,0,0
-490,-153,0,0,0,0,0,0,0,0,0,-1,734,1177,0,0
-483,-153,0,0,0,0,0,0,0,0,0,-1,741,1177,0,0
-476,-153,0,0,0,0,0,0,0,0,0,-1,748,1177,0,0
-469,-153,0,0,0,0,0,0,0,0,0,-1,755,1177,0,0
-462,-153,0,0,0,0,0,0,0,0,0,-1,762,1177,0,0
-455,-153,0,0,0,0,0,0,0,0,0,-1,769,1177,0,0
-448,-153,0,0,0,0,0,0,0,0,0,-1,776,1177,0,0
-441,-153,0,0,0,0,0,0,0,0,0,-1,783,1177,0,0
-434,-153,0,0,0,0,0,0,0,0,0,-1,790,1177,0,0
-427,-153,0,0,0,0,0,0,0,0,0,-1,797,1177,0,0
-420,-153,0,0,0,0,0,0,0,0,0,-1,804,1177,0,0
-413,-153,0,0,0,0,0,0,0,0,0,-1,811,1177,0,0
-406,-153,0,0,0,0,0,0,0,0,0,-1,818,1177,0,0
-399,-153,0,0,0,0,0,0,0,0,0,-1,825,1177,0,0
-392,-153,0,0,0,0,0,0,0,0,0,-1,832,1177,0,0
-385,-153,0,0,0,0,0,0,0,0,0,-1,839,1177,0,0
-378,-153,0,0,0,0,0,0,0,0,0,-1,846,1177,0,0
-371,-153,0,0,0,0,0,0,0,0,0,-1,853,1177,0,0
-364,-153,0,0,0,0,0,0,0,0,0,-1,860,1177,0,0
-357,-153,0,0,0,0,0,0,0,0,0,-1,867,1177,0,0
-350,-153,0,0,0,0,0,0,0,0,0,-1,874,1177,0,0
-343,-153,0,0,0,0,0,0,0,0,0,-1,881,1177,0,0
-336,-153,0,0,0,0,0,0,0,0,0,-1,888,1177,0,0
-329,-153,0,0,0,0,0,0,0,0,0,-1,895,1177,0,0
-322,-153,0,0,0,0,0,0,0,0,0,-1,902,1177,0,0
-315,-153,0,0,0,0,0,0,0,0,0,-1,909,1177,0,0
-308,-153,0,0,0,0,0,0,0,0,0,-1,916,1177,0,0
-301,-153,0,0,0,0,0,0,0,0,0,-1,923,1177,0,0
-294,-153,0,0,0,0,0,0,0,0,0,-1,930,1177,0,0
-287,-153,0,0,0,0,0,0,0,0,0,-1,937,1177,0,0
-280,-153,0,0,0,0,0,0,0,0,0,-1,944,1177,0,0
-273,-153,0,0,0,0,0,0,0,0,0,-1,951,1177,0,0
-266,-153,0,0,0,0,0,0,0,0,0,-1,958,1177,0,0
-259,-153,0,0,0,0,0,0,0,0,0,-1,965,1177,0,0
-252,-153,0,0,0,0,0,0,0,0,0,-1,972,1177,0,0
-245,-153,0,0,0,0,0,0,0,0,0,-1,979,1177,0,0
-238,-153,0,0,0,0,0,0,0,0,0,-1,986,1177,0,0
-231,-153,0,0,0,0,0,0,0,0,0,-1,993,1177,0,0
-224,-153,0,0,0,0,0,0,0,0,0,-1,1000,1177,0,0
-217,-153,0,0,0,0,0,0,0,0,0,-1,1007,1177,0,0
-210,-153,0,0,0,0,0,0,0,0,0,-1,1014,1177,0,0
-203,-153,0,0,0,0,0,0,0,0,0,-1,1021,1177,0,0
-196,-153,0,0,0,0,0,0,0,0,0,-1,1028,1177,0,0
-189,-153,0,0,0,0,0,0,0,0,0,-1,1035,1177,0,0
-182,-153,0,0,0,0,0,0,0,0,0,-1,1042,1177,0,0
-175,-153,0,0,0,0,0,0,0,0,0,-1,1049,1177,0,0
-168,-153,0,0,0,0,0,0,0,0,0,-1,1056,1177,0,0
-161,-153,0,0,0,0,0,0,0,0,0,-1,1063,1177,0,0
-154,-153,0,0,0,0,0,0,0,0,0,-1,1070,1177,0,0
-147,-153,0,0,0,0,0,0,0,0,0,-1,1077,1177,0,0
-140,-153,0,0,0,0,0,0,0,0,0,-1,1084,1177,0,0
-133,-153,0,0,0,0,0,0,0,0,0,-1,1091,1177,0,0
-126,-153,0,0,0,0,0,0,0,0,0,-1,1098,1177,0,0
-119,-153,0,0,0,0,0,0,0,0,0,-1,1105,1177,0,0
-112,-153,0,0,0,0,0,0,0,0,0,-1,1112,1177,0,0
-105,-153,0,0,0,0,0,0,0,0,0,-1,1119,1177,0,0
-98,-153,0,0,0,0,0,0,0,0,0,-1,1126,1177,0,0
-91,-153,0,0,0,0,0,0,0,0,0,-1,1133,1177,0,0
-84,-153,0,0,0,0,0,0,0,0,0,-1,1140,1177,0,0
-77,-153,0,0,0,0,0,0,0,0,0,-1,1147,1177,0,0
-70,-153,0,0,0,0,0,0,0,0,0,-1,1154,1177,0,0
-63,-153,0,0,0,0,0,0,0,0,0,-1,1161,1177,0,0
-56,-153,0,0,0,0,0,0,0,0,0,-1,1168,1177,0,0
-49,-153,0,0,0,0,0,0,0,0,0,-1,1175,1177,0,0
-42,-153,0,0,0,0,0,0,0,0,0,-1,1182,1177,0,0
-35,-153,0,0,0,0,0,0,0,0,0,-1,1189,1177,0,0
-28,-153,0,0,0,0,0,0,0,0,0,-1,1196,1177,0,0
-21,-153,0,0,0,0,0,0,0,0,0,-1,1203,1177,0,0
-14,-153,0,0,0,0,0,0,0,0,0,-1,1210,1177,0,0
-7,-153,0,0,0,0,0,0,0,0,0,-1,1217,1177,0,0
0,-153,0,0,0,0,0,0,0,0,0,-1,1224,1177,0,0
7,-153,0,0,0,0,0,0,0,0,0,-1,1231,1177,0,0
14,-153,0,0,0,0,0,0,0,0,0,-1,1238,1177,0,0
21,-153,0,0,0,0,0,0,0,0,0,-1,1245,1177,0,0
28,-153,0,0,0,0,0,0,0,0,0,-1,1252,1177,0,0
35,-153,0,0,0,0,0,0,0,0,0,-1,1259,1177,0,0
42,-153,0,0,0,0,0,0,0,0,0,-1,1266,1177,0,0
49,-153,0,0,0,0,0,0,0,0,0,-1,1273,1177,0,0
56,-153,0,0,0,0,0,0,0,0,0,-1,1280,1177,0,0
63,-153,0,0,0,0,0,0,0,0,0,-1,1287,1177,0,0
70,-153,0,0,0,0,0,0,0,0,0,-1,1294,1177,0,0
77,-153,0,0,0,0,0,0,0,0,0,-1,1301,1177,0,0
84,-153,0,0,0,0,0,0,0,0,0,-1,1308,1177,0,0
91,-153,0,0,0,0,0,0,0,0,0,-1,1315,1177,0,0
98,-153,0,0,0,0,0,0,0,0,0,-1,1322,1177,0,0
105,-153,0,0,0,0,0,0,0,0,0,-1,1329,1177,0,0
112,-153,0,0,0,0,0,0,0,0,0,-1,1336,1177,0,0
119,-153,0,0,0,0,0,0,0,0,0,-1,1343,1177,0,0
126,-153,0,0,0,0,0,0,0,0,0,-1,1350,1177,0,0
133,-153,0,0,0,0,0,0,0,0,0,-1,1357,1177,0,0
140,-153,0,0,0,0,0,0,0,0,0,-1,1364,1177,0,0
147,-153,0,0,0,0,0,0,0,0,0,-1,1371,1177,0,0
154,-153,0,0,0,0,0,0,0,0,0,-1,1378,1177,0,0
161,-153,0,0,0,0,0,0,0,0,0,-1,1385,1177,0,0
168,-153,0,0,0,0,0,0,0,0,0,-1,1392,1177,0,0
175,-153,0,0,0,0,0,0,0,0,0,-1,1399,1177,0,0
182,-153,0,0,0,0,0,0,0,0,0,-1,1406,1177,0,0
189,-153,0,0,0,0,0,0,0,0,0,-1,1413,1177,0,0
196,-153,0,0,0,0,0,0,0,0,0,-1,1420,1177,0,0
203,-153,0,0,0,0,0,0,0,0,0,-1,1427,1177,0,0
210,-153,0,0,0,0,0,0,0,0,0,-1,1434,1177,0,0
217,-153,0,0,0,0,0,0,0,0,0,-1,1441,1177,0,0
224,-153,0,0,0,0,0,0,0,0,0,-1,1448,1177,0,0
231,-153,0,0,0,0,0,0,0,0,0,-1,1455,1177,0,0
238,-153,0,0,0,0,0,0,0,0,0,-1,1462,1177,0,0
245,-153,0,0,0,0,0,0,0,0,0,-1,1469,1177,0,0
252,-153,0,0,0,0,0,0,0,0,0,-1,1476,1177,0,0
259,-153,0,0,0,0,0,0,0,0,0,-1,1483,1177,0,0
266,-153,0,0,0,0,0,0,0,0,0,-1,1490,1177,0,0
273,-153,0,0,0,0,0,0,0,0,0,-1,1497,1177,0,0
280,-153,0,0,0,0,0,0,0,0,0,-1,1504,1177,0,0
287,-153,0,0,0,0,0,0,0,0,0,-1,1511,1177,0,0
294,-153,0,0,0,0,0,0,0,0,0,-1,1518,1177,0,0
301,-153,0,0,0,0,0,0,0,0,0,-1,1525,1177,0,0
308,-153,0,0,0,0,0,0,0,0,0,-1,1532,1177,0,0
315,-153,0,0,0,0,0,0,0,0,0,-1,1539,1177,0,0
322,-153,0,0,0,0,0,0,0,0,0,-1,1546,1177,0,0
329,-153,0,0,0,0,0,0,0,0,0,-1,1553,1177,0,0
336,-153,0,0,0,0,0,0,0,0,0,-1,1560,1177,0,0
343,-153,0,0,0,0,0,0,0,0,0,-1,1567,1177,0,0
350,-153,0,0,0,0,0,0,0,0,0,-1,1574,1177,0,0
357,-153,0,0,0,0,0,0,0,0,0,-1,1581,1177,0,0
364,-153,0,0,0,0,0,0,0,0,0,-1,1588,1177,0,0
371,-153,0,0,0,0,0,0,0,0,0,-1,1595,1177,0,0
378,-153,0,0,0,0,0,0,0,0,0,-1,1602,1177,0,0
385,-153,0,0,0,0,0,0,0,0,0,-1,1609,1177,0,0
392,-153,0,0,0,0,0,0,0,0,0,-1,1616,1177,0,0
399,-153,0,0,0,0,0,0,0,0,0,-1,1623,1177,0,0
406,-153,0,0,0,0,0,0,0,0,0,-1,1630,1177,0,0
413,-153,0,0,0,0,0,0,0,0,0,-1,1637,1177,0,0
420,-153,0,0,0,0,0,0,0,0,0,-1,1644,1177,0,0
427,-153,0,0,0,0,0,0,0,0,0,-1,1651,1177,0,0
434,-153,0,0,0,0,0,0,0,0,0,-1,1658,1177,0,0
441,-153,0,0,0,0,0,0,0,0,0,-1,1665,1177,0,0
448,-153,0,0,0,0,0,0,0,0,0,-1,1672,1177,0,0
455,-153,0,0,0,0,0,0,0,0,0,-1,1679,1177,0,0
462,-153,0,0,0,0,0,0,0,0,0,-1,1686,1177,0,0
469,-153,0,0,0,0,0,0,0,0,0,-1,1693,1177,0,0
476,-153,0,0,0,0,0,0,0,0,0,-1,1700,1177,0,0
483,-153,0,0,0,0,0,0,0,0,0,-1,1707,1177,0,0
490,-153,0,0,0,0,0,0,0,0,0,-1,1714,1177,0,0
497,-153,0,0,0,0,0,0,0,0,0,-1,1721,1177,0,0
504,-153,0,0,0,0,0,0,0,0,0,-1,1728,1177,0,0
511,-153,0,0,0,0,0,0,0,0,0,-1,1735,1177,0,0
518,-153,0,0,0,0,0,0,0,0,0,-1,1742,1177,0,0
525,-153,0,0,0,0,0,0,0,0,0,-1,1749,1177,0,0
532,-153,0,0,0,0,0,0,0,0,0,-1,1756,1177,0,0
539,-153,0,0,0,0,0,0,0,0,0,-1,1763,1177,0,0
546,-153,0,0,0,0,0,0,0,0,0,-1,1770,1177,0,0
553,-153,0,0,0,0,0,0,0,0,0,-1,1777,1177,0,0
560,-153,0,0,0,0,0,0,0,0,0,-1,1784,1177,0,0
567,-153,0,0,0,0,0,0,0,0,0,-1,1791,1177,0,0
574,-153,0,0,0,0,0,0,0,0,0,-1,1798,1177,0,0
581,-153,0,0,0,0,0,0,0,0,0,-1,1805,1177,0,0
588,-153,0,0,0,0,0,0,0,0,0,-1,1812,1177,0,0
595,-153,0,0,0,0,0,0,0,0,0,-1,1819,1177,0,0
602,-153,0,0,0,0,0,0,0,0,0,-1,1826,1177,0,0
609,-153,0,0,0,0,0,0,0,0,0,-1,1833,1177,0,0
616,-153,0,0,0,0,0,0,0,0,0,-1,1840,1177,0,0
623,-153,0,0,0,0,0,0,0,0,0,-1,1847,1177,0,0
630,-153,0,0,0,0,0,0,0,0,0,-1,1854,1177,0,0
637,-153,61.1289,2.77112,0.00479281,0.00324856,-0.00643861,0.0105054,-0.00246406,-0.725723,0.00795324,0.0411055,1861,1177,61.1289,-2.7711
644,-153,61.1766,2.70007,0.00310149,0.00201289,-0.00424664,0.00683857,-0.0017242,-0.72166,0.0052294,0.0366511,1868,1177,61.1766,-2.70011
651,-153,61.2365,2.74072,0.00193473,0.00139116,-0.00285086,0.00452673,-0.00120084,-0.737874,0.0034877,0.0298574,1875,1177,61.2365,-2.7407
658,-153,61.2013,2.8501,0.00116253,0.00100181,-0.00191199,0.00299585,-0.000831509,-0.764395,0.00232452,0.0368128,1882,1177,61.2013,-2.85008
665,-153,61.2291,2.8811,0.000630281,0.000815303,-0.00135509,0.00208104,-0.000635453,-0.81948,0.00164072,0.0400738,1889,1177,61.2291,-2.88111
672,-153,61.2419,2.83862,0.000219099,0.000680757,-0.00107159,0.0015461,-0.000646241,-0.891481,0.0013008,0.0374325,1896,1177,61.242,-2.83868
679,-153,61.1532,2.73621,0.000222717,0.000336371,-0.000995218,0.00127638,-0.000717295,-0.813917,0.00116604,0.029049,1903,1177,61.1532,-2.73623
686,-153,61.1674,2.71655,0.000579516,-3.73276e-05,-0.000957518,0.00127706,-0.00073487,-0.629592,0.00117556,0.0189293,1910,1177,61.1673,-2.71654
693,-153,61.2289,2.58203,0.000596204,-0.000241652,-0.000817565,0.00109592,-0.000741371,-0.548635,0.00106733,0.0411898,1917,1177,61.2289,-2.58207
700,-153,61.2375,2.36096,0,0,0,0,0,0,0,-1,1924,1177,61.2375,-2.36093
707,-153,29.6483,6.6842,0,0,0,0,0,0,0,-1,1931,1177,29.6483,-6.68415
714,-153,36.0046,6.78418,0,0,0,0,0,0,0,-1,1938,1177,36.0046,-6.78418
721,-153,36.4866,6.47595,0,0,0,0,0,0,0,-1,1945,1177,36.4866,-6.47593
728,-153,47.7305,7.37024,0,0,0,0,0,0,0,-1,1952,1177,47.7304,-7.37022
735,-153,52.8657,7.84985,0,0,0,0,0,0,0,-1,1959,1177,52.8657,-7.84991
742,-153,52.9158,7.38159,0.00053633,-0.000933381,0.00141536,0.00139623,-0.00179329,0.545954,0.00184622,0.0173503,1966,1177,52.9158,-7.38156
749,-153,52.9023,6.88062,3.34857e-05,0.000802941,0.00233425,0.00278396,-0.00194753,0.867073,0.00274592,0.0168504,1973,1177,52.9024,-6.88067
756,-153,52.8636,6.34363,0.00060835,0.00528166,0.0028605,0.00663857,-0.000748561,1.12787,0.00469517,0.011084,1980,1177,52.8636,-6.34358
763,-153,52.8207,5.83069,0.0021546,0.0113052,0.00326358,0.0123499,0.00110991,1.261,0.00788938,0.0114635,1987,1177,52.8207,-5.83066
770,-153,52.8224,5.30493,0.00461891,0.0184478,0.00343888,0.0192558,0.00381095,1.34003,0.0117743,0.01199,1994,1177,52.8224,-5.30498
777,-153,52.8416,4.79395,0.0082136,0.0266345,0.00331942,0.0272144,0.0076337,1.39784,0.016209,0.0250975,2001,1177,52.8415,-4.79398
784,-153,52.7197,4.58972,0.0134308,0.0358589,0.00278953,0.0362007,0.013089,1.44889,0.0211658,0.045498,2008,1177,52.7196,-4.58971
791,-153,52.8447,4.10938,0.0209207,0.0462787,0.00157077,0.0463757,0.0208237,1.50917,0.0268214,0.0472659,2015,1177,52.8448,-4.10934
798,-153,53.2937,3.65564,0.0310658,0.0577158,-0.000623657,0.0577304,0.0310512,-1.54741,0.0333625,0.0473416,2022,1177,53.2937,-3.65558
805,-153,53.792,3.27441,0.0442461,0.0694545,-0.00412593,0.0701126,0.0435879,-1.41262,0.0408772,0.047258,2029,1177,53.7921,-3.27443
812,-153,0,0,0,0,0,0,0,0,0,-1,2036,1177,0,0
-700,-160,0,0,0,0,0,0,0,0,0,-1,524,1184,0,0
-693,-160,0,0,0,0,0,0,0,0,0,-1,531,1184,0,0
-686,-160,-36.3273,-2.66882,0,0,0,0,0,0,0,-1,538,1184,-36.3273,2.66881
-679,-160,-36.7976,-1.39331,0,0,0,0,0,0,0,-1,545,1184,-36.7976,1.39326
-672,-160,-34.7708,-1.72791,0,0,0,0,0,0,0,-1,552,1184,-34.7708,1.72787
-665,-160,-36.5119,0.616699,0,0,0,0,0,0,0,-1,559,1184,-36.5119,-0.616697
-658,-160,-36.1546,-1.63403,0,0,0,0,0,0,0,-1,566,1184,-36.1546,1.63409
-651,-160,-36.901,1.29785,0,0,0,0,0,0,0,-1,573,1184,-36.901,-1.29781
-644,-160,-37.0239,2.18506,0,0,0,0,0,0,0,-1,580,1184,-37.0239,-2.18504
-637,-160,-37.1124,2.86475,-0.000138308,0.00869531,-0.00434883,0.0104769,-0.00191993,-1.18197,0.00770475,0.0145712,587,1184,-37.1125,-2.86479
-630,-160,-37.1898,3.38611,-0.000700955,0.00603281,-0.00299598,0.00717279,-0.00184094,-1.20721,0.00549919,0.0092605,594,1184,-37.1898,-3.38613
-623,-160,-37.2448,3.93237,-0.00186712,0.00344189,-0.00261052,0.00451045,-0.00293568,-1.18227,0.00433096,0.0127933,601,1184,-37.2448,-3.93235
-616,-160,-37.2817,4.51526,-0.00405765,0.000699373,-0.00266191,0.00189061,-0.00524889,-1.15001,0.00427129,0.0108097,608,1184,-37.2817,-4.51523
-609,-160,-37.3281,5.11035,-0.0058049,-0.000661531,-0.00341644,0.00104296,-0.00750939,-1.10802,0.00538767,0.0187524,615,1184,-37.328,-5.11036
-602,-160,-37.39,5.70996,0,0,0,0,0,0,0,-1,622,1184,-37.39,-5.70996
-595,-160,-33.0669,5.93445,0,0,0,0,0,0,0,-1,629,1184,-33.0669,-5.93446
-588,-160,-33.4845,5.66699,0,0,0,0,0,0,0,-1,636,1184,-33.4845,-5.66697
-581,-160,-33.1338,6.41174,0,0,0,0,0,0,0,-1,643,1184,-33.1338,-6.41176
-574,-160,-32.7831,7.15649,0,0,0,0,0,0,0,-1,650,1184,-32.7831,-7.15655
-567,-160,-29.5828,0.643921,0,0,0,0,0,0,0,-1,657,1184,-29.5828,-0.643968
-560,-160,-46.1297,0.916382,0,0,0,0,0,0,0,-1,664,1184,-46.1297,-0.916324
-553,-160,-46.1624,0.906616,-0.00177037,-0.00323373,-0.00348663,0.00106053,-0.00606463,-0.681973,0.00443903,0.0387262,671,1184,-46.1623,-0.906628
-546,-160,-46.145,0.893921,-0.000469293,-0.00334867,-0.00308562,0.00149597,-0.00531394,-0.56712,0.00413255,0.0381638,678,1184,-46.145,-0.89388
-539,-160,-46.162,0.81189,0.000981161,-0.00318658,-0.0027072,0.00231364,-0.00451906,-0.457387,0.00401278,0.0408593,685,1184,-46.162,-0.811842
-532,-160,-46.1837,0.692627,0.00145161,-0.00324821,-0.00229084,0.00238347,-0.00418007,-0.386336,0.00383649,0.0434625,692,1184,-46.1836,-0.692677
-525,-160,-46.1276,0.723145,0.00156238,-0.0033146,-0.00185417,0.00218725,-0.00393947,-0.325054,0.00358516,0.0425217,699,1184,-46.1275,-0.72313
-518,-160,-46.0276,0.773315,0.00160622,-0.0034919,-0.00128633,0.00191239,-0.00379808,-0.233671,0.00335632,0.0427199,706,1184,-46.0276,-0.7733
-511,-160,0,0,0,0,0,0,0,0,0,-1,713,1184,0,0
-504,-160,0,0,0,0,0,0,0,0,0,-1,720,1184,0,0
-497,-160,0,0,0,0,0,0,0,0,0,-1,727,1184,0,0
-490,-160,0,0,0,0,0,0,0,0,0,-1,734,1184,0,0
-483,-160,0,0,0,0,0,0,0,0,0,-1,741,1184,0,0
-476,-160,0,0,0,0,0,0,0,0,0,-1,748,1184,0,0
-469,-160,0,0,0,0,0,0,0,0,0,-1,755,1184,0,0
-462,-160,0,0,0,0,0,0,0,0,0,-1,762,1184,0,0
-455,-160,0,0,0,0,0,0,0,0,0,-1,769,1184,0,0
-448,-160,0,0,0,0,0,0,0,0,0,-1,776,1184,0,0
-441,-160,0,0,0,0,0,0,0,0,0,-1,783,1184,0,0
-434,-160,0,0,0,0,0,0,0,0,0,-1,790,1184,0,0
-427,-160,0,0,0,0,0,0,0,0,0,-1,797,1184,0,0
-420,-160,0,0,0,0,0,0,0,0,0,-1,804,1184,0,0
-413,-160,0,0,0,0,0,0,0,0,0,-1,811,1184,0,0
-406,-160,0,0,0,0,0,0,0,0,0,-1,818,1184,0,0
-399,-160,0,0,0,0,0,0,0,0,0,-1,825,1184,0,0
-392,-160,0,0,0,0,0,0,0,0,0,-1,832,1184,0,0
-385,-160,0,0,0,0,0,0,0,0,0,-1,839,1184,0,0
-378,-160,0,0,0,0,0,0,0,0,0,-1,846,1184,0,0
-371,-160,0,0,0,0,0,0,0,0,0,-1,853,1184,0,0
-364,-160,0,0,0,0,0,0,0,0,0,-1,860,1184,0,0
-357,-160,0,0,0,0,0,0,0,0,0,-1,867,1184,0,0
-350,-160,0,0,0,0,0,0,0,0,0,-1,874,1184,0,0
-343,-160,0,0,0,0,0,0,0,0,0,-1,881,1184,0,0
-336,-160,0,0,0,0,0,0,0,0,0,-1,888,1184,0,0
-329,-160,0,0,0,0,0,0,0,0,0,-1,895,1184,0,0
-322,-160,0,0,0,0,0,0,0,0,0,-1,902,1184,0,0
-315,-160,0,0,0,0,0,0,0,0,0,-1,909,1184,0,0
-308,-160,0,0,0,0,0,0,0,0,0,-1,916,1184,0,0
-301,-160,0,0,0,0,0,0,0,0,0,-1,923,1184,0,0
-294,-160,0,0,0,0,0,0,0,0,0,-1,930,1184,0,0
-287,-160,0,0,0,0,0,0,0,0,0,-1,937,1184,0,0
-280,-160,0,0,0,0,0,0,0,0,0,-1,944,1184,0,0
-273,-160,0,0,0,0,0,0,0,0,0,-1,951,1184,0,0
-266,-160,0,0,0,0,0,0,0,0,0,-1,958,1184,0,0
-259,-160,0,0,0,0,0,0,0,0,0,-1,965,1184,0,0
-252,-160,0,0,0,0,0,0,0,0,0,-1,972,1184,0,0
-245,-160,0,0,0,0,0,0,0,0,0,-1,979,1184,0,0
-238,-160,0,0,0,0,0,0,0,0,0,-1,986,1184,0,0
-231,-160,0,0,0,0,0,0,0,0,0,-1,993,1184,0,0
-224,-160,0,0,0,0,0,0,0,0,0,-1,1000,1184,0,0
-217,-160,0,0,0,0,0,0,0,0,0,-1,1007,1184,0,0
-210,-160,0,0,0,0,0,0,0,0,0,-1,1014,1184,0,0
-203,-160,0,0,0,0,0,0,0,0,0,-1,1021,1184,0,0
-196,-160,0,0,0,0,0,0,0,0,0,-1,1028,1184,0,0
-189,-160,0,0,0,0,0,0,0,0,0,-1,1035,1184,0,0
-182,-160,0,0,0,0,0,0,0,0,0,-1,1042,1184,0,0
-175,-160,0,0,0,0,0,0,0,0,0,-1,1049,1184,0,0
-168,-160,0,0,0,0,0,0,0,0,0,-1,1056,1184,0,0
-161,-160,0,0,0,0,0,0,0,0,0,-1,1063,1184,0,0
-154,-160,0,0,0,0,0,0,0,0,0,-1,1070,1184,0,0
-147,-160,0,0,0,0,0,0,0,0,0,-1,1077,1184,0,0
-140,-160,0,0,0,0,0,0,0,0,0,-1,1084,1184,0,0
-133,-160,0,0,0,0,0,0,0,0,0,-1,1091,1184,0,0
-126,-160,0,0,0,0,0,0,0,0,0,-1,1098,1184,0,0
-119,-160,0,0,0,0,0,0,0,0,0,-1,1105,1184,0,0
-112,-160,0,0,0,0,0,0,0,0,0,-1,1112,1184,0,0
-105,-160,0,0,0,0,0,0,0,0,0,-1,1119,1184,0,0
-98,-160,0,0,0,0,0,0,0,0,0,-1,1126,1184,0,0
-91,-160,0,0,0,0,0,0,0,0,0,-1,1133,1184,0,0
-84,-160,0,0,0,0,0,0,0,0,0,-1,1140,1184,0,0
-77,-160,0,0,0,0,0,0,0,0,0,-1,1147,1184,0,0
-70,-160,0,0,0,0,0,0,0,0,0,-1,1154,1184,0,0
-63,-160,0,0,0,0,0,0,0,0,0,-1,1161,1184,0,0
-56,-160,0,0,0,0,0,0,0,0,0,-1,1168,1184,0,0
-49,-160,0,0,0,0,0,0,0,0,0,-1,1175,1184,0,0
-42,-160,0,0,0,0,0,0,0,0,0,-1,1182,1184,0,0
-35,-160,0,0,0,0,0,0,0,0,0,-1,1189,1184,0,0
-28,-160,0,0,0,0,0,0,0,0,0,-1,1196,1184,0,0
-21,-160,0,0,0,0,0,0,0,0,0,-1,1203,1184,0,0
-14,-160,0,0,0,0,0,0,0,0,0,-1,1210,1184,0,0
-7,-160,0,0,0,0,0,0,0,0,0,-1,1217,1184,0,0
0,-160,0,0,0,0,0,0,0,0,0,-1,1224,1184,0,0
7,-160,0,0,0,0,0,0,0,0,0,-1,1231,1184,0,0
14,-160,0,0,0,0,0,0,0,0,0,-1,1238,1184,0,0
21,-160,0,0,0,0,0,0,0,0,0,-1,1245,1184,0,0
28,-160,0,0,0,0,0,0,0,0,0,-1,1252,1184,0,0
35,-160,0,0,0,0,0,0,0,0,0,-1,1259,1184,0,0
42,-160,0,0,0,0,0,0,0,0,0,-1,1266,1184,0,0
49,-160,0,0,0,0,0,0,0,0,0,-1,1273,1184,0,0
56,-160,0,0,0,0,0,0,0,0,0,-1,1280,1184,0,0
63,-160,0,0,0,0,0,0,0,0,0,-1,1287,1184,0,0
70,-160,0,0,0,0,0,0,0,0,0,-1,1294,1184,0,0
77,-160,0,0,0,0,0,0,0,0,0,-1,1301,1184,0,0
84,-160,0,0,0,0,0,0,0,0,0,-1,1308,1184,0,0
91,-160,0,0,0,0,0,0,0,0,0,-1,1315,1184,0,0
98,-160,0,0,0,0,0,0,0,0,0,-1,1322,1184,0,0
105,-160,0,0,0,0,0,0,0,0,0,-1,1329,1184,0,0
112,-160,0,0,0,0,0,0,0,0,0,-1,1336,1184,0,0
119,-160,0,0,0,0,0,0,0,0,0,-1,1343,1184,0,0
126,-160,0,0,0,0,0,0,0,0,0,-1,1350,1184,0,0
133,-160,0,0,0,0,0,0,0,0,0,-1,1357,1184,0,0
140,-160,0,0,0,0,0,0,0,0,0,-1,1364,1184,0,0
147,-160,0,0,0,0,0,0,0,0,0,-1,1371,1184,0,0
154,-160,0,0,0,0,0,0,0,0,0,-1,1378,1184,0,0
161,-160,0,0,0,0,0,0,0,0,0,-1,1385,1184,0,0
168,-160,0,0,0,0,0,0,0,0,0,-1,1392,1184,0,0
175,-160,0,0,0,0,0,0,0,0,0,-1,1399,1184,0,0
182,-160,0,0,0,0,0,0,0,0,0,-1,1406,1184,0,0
189,-160,0,0,0,0,0,0,0,0,0,-1,1413,1184,0,0
196,-160,0,0,0,0,0,0,0,0,0,-1,1420,1184,0,0
203,-160,0,0,0,0,0,0,0,0,0,-1,1427,1184,0,0
210,-160,0,0,0,0,0,0,0,0,0,-1,1434,1184,0,0
217,-160,0,0,0,0,0,0,0,0,0,-1,1441,1184,0,0
224,-160,0,0,0,0,0,0,0,0,0,-1,1448,1184,0,0
231,-160,0,0,0,0,0,0,0,0,0,-1,1455,1184,0,0
238,-160,0,0,0,0,0,0,0,0,0,-1,1462,1184,0,0
245,-160,0,0,0,0,0,0,0,0,0,-1,1469,1184,0,0
252,-160,0,0,0,0,0,0,0,0,0,-1,1476,1184,0,0
259,-160,0,0,0,0,0,0,0,0,0,-1,1483,1184,0,0
266,-160,0,0,0,0,0,0,0,0,0,-1,1490,1184,0,0
273,-160,0,0,0,0,0,0,0,0,0,-1,1497,1184,0,0
280,-160,0,0,0,0,0,0,0,0,0,-1,1504,1184,0,0
287,-160,0,0,0,0,0,0,0,0,0,-1,1511,1184,0,0
294,-160,0,0,0,0,0,0,0,0,0,-1,1518,1184,0,0
301,-160,0,0,0,0,0,0,0,0,0,-1,1525,1184,0,0
308,-160,0,0,0,0,0,0,0,0,0,-1,1532,1184,0,0
315,-160,0,0,0,0,0,0,0,0,0,-1,1539,1184,0,0
322,-160,0,0,0,0,0,0,0,0,0,-1,1546,1184,0,0
329,-160,0,0,0,0,0,0,0,0,0,-1,1553,1184,0,0
336,-160,0,0,0,0,0,0,0,0,0,-1,1560,1184,0,0
343,-160,0,0,0,0,0,0,0,0,0,-1,1567,1184,0,0
350,-160,0,0,0,0,0,0,0,0,0,-1,1574,1184,0,0
357,-160,0,0,0,0,0,0,0,0,0,-1,1581,1184,0,0
364,-160,0,0,0,0,0,0,0,0,0,-1,1588,1184,0,0
371,-160,0,0,0,0,0,0,0,0,0,-1,1595,1184,0,0
378,-160,0,0,0,0,0,0,0,0,0,-1,1602,1184,0,0
385,-160,0,0,0,0,0,0,0,0,0,-1,1609,1184,0,0
392,-160,0,0,0,0,0,0,0,0,0,-1,1616,1184,0,0
399,-160,0,0,0,0,0,0,0,0,0,-1,1623,1184,0,0
406,-160,0,0,0,0,0,0,0,0,0,-1,1630,1184,0,0
413,-160,0,0,0,0,0,0,0,0,0,-1,1637,1184,0,0
420,-160,0,0,0,0,0,0,0,0,0,-1,1644,1184,0,0
427,-160,0,0,0,0,0,0,0,0,0,-1,1651,1184,0,0
434,-160,0,0,0,0,0,0,0,0,0,-1,1658,1184,0,0
441,-160,0,0,0,0,0,0,0,0,0,-1,1665,1184,0,0
448,-160,0,0,0,0,0,0,0,0,0,-1,1672,1184,0,0
455,-160,0,0,0,0,0,0,0,0,0,-1,1679,1184,0,0
462,-160,0,0,0,0,0,0,0,0,0,-1,1686,1184,0,0
469,-160,0,0,0,0,0,0,0,0,0,-1,1693,1184,0,0
476,-160,0,0,0,0,0,0,0,0,0,-1,1700,1184,0,0
483,-160,0,0,0,0,0,0,0,0,0,-1,1707,1184,0,0
490,-160,0,0,0,0,0,0,0,0,0,-1,1714,1184,0,0
497,-160,0,0,0,0,0,0,0,0,0,-1,1721,1184,0,0
504,-160,0,0,0,0,0,0,0,0,0,-1,1728,1184,0,0
511,-160,0,0,0,0,0,0,0,0,0,-1,1735,1184,0,0
518,-160,0,0,0,0,0,0,0,0,0,-1,1742,1184,0,0
525,-160,0,0,0,0,0,0,0,0,0,-1,1749,1184,0,0
532,-160,0,0,0,0,0,0,0,0,0,-1,1756,1184,0,0
539,-160,0,0,0,0,0,0,0,0,0,-1,1763,1184,0,0
546,-160,0,0,0,0,0,0,0,0,0,-1,1770,1184,0,0
553,-160,0,0,0,0,0,0,0,0,0,-1,1777,1184,0,0
560,-160,0,0,0,0,0,0,0,0,0,-1,1784,1184,0,0
567,-160,0,0,0,0,0,0,0,0,0,-1,1791,1184,0,0
574,-160,0,0,0,0,0,0,0,0,0,-1,1798,1184,0,0
581,-160,0,0,0,0,0,0,0,0,0,-1,1805,1184,0,0
588,-160,0,0,0,0,0,0,0,0,0,-1,1812,1184,0,0
595,-160,0,0,0,0,0,0,0,0,0,-1,1819,1184,0,0
602,-160,0,0,0,0,0,0,0,0,0,-1,1826,1184,0,0
609,-160,0,0,0,0,0,0,0,0,0,-1,1833,1184,0,0
616,-160,0,0,0,0,0,0,0,0,0,-1,1840,1184,0,0
623,-160,0,0,0,0,0,0,0,0,0,-1,1847,1184,0,0
630,-160,0,0,0,0,0,0,0,0,0,-1,1854,1184,0,0
637,-160,61.1592,2.77429,0.003994,0.00222349,-0.00429375,0.00749281,-0.00127531,-0.683736,0.00547009,0.0410844,1861,1184,61.1591,-2.77425
644,-160,61.2866,2.71887,0.00260518,0.00137079,-0.002755,0.00481127,-0.000835305,-0.675204,0.00351915,0.0404539,1868,1184,61.2866,-2.71887
651,-160,61.2695,2.82422,0.00165017,0.000973429,-0.00184439,0.00318697,-0.000563379,-0.694678,0.00233521,0.0386355,1875,1184,61.2695,-2.82422
658,-160,61.1794,2.77527,0.00108285,0.000795916,-0.00137084,0.00231771,-0.000438944,-0.73326,0.00171034,0.0415844,1882,1184,61.1795,-2.77527
665,-160,61.2479,2.92126,0.000768804,0.000730295,-0.00122054,0.00197024,-0.000471138,-0.777511,0.00149548,0.039725,1889,1184,61.248,-2.92132
672,-160,61.2434,2.854,0.000594666,0.000649975,-0.00124912,0.00187174,-0.000627105,-0.796466,0.00150118,0.0341183,1896,1184,61.2435,-2.85397
679,-160,61.1627,2.77686,0.000773965,0.000320031,-0.00132919,0.00189542,-0.000801428,-0.700836,0.00159916,0.0258693,1903,1184,61.1627,-2.77689
686,-160,61.1879,2.71558,0.00106331,-4.17716e-05,-0.00125778,0.00188456,-0.00086303,-0.57844,0.00162246,0.0163908,1910,1184,61.1879,-2.71555
693,-160,61.2654,2.56824,0,0,0,0,0,0,0,-1,1917,1184,61.2654,-2.56823
700,-160,42.8784,2.44617,0,0,0,0,0,0,0,-1,1924,1184,42.8785,-2.4462
707,-160,24.5115,6.27405,0,0,0,0,0,0,0,-1,1931,1184,24.5115,-6.27401
714,-160,35.6892,6.8905,0,0,0,0,0,0,0,-1,1938,1184,35.6892,-6.89048
721,-160,36.2388,6.37878,0,0,0,0,0,0,0,-1,1945,1184,36.2388,-6.37876
728,-160,52.2174,8.57385,0,0,0,0,0,0,0,-1,1952,1184,52.2174,-8.57381
735,-160,52.4928,7.85974,0.000993987,-0.000762832,0.000690094,0.00123264,-0.00100149,0.332955,0.00129217,0.0481323,1959,1184,52.4928,-7.85973
742,-160,52.3766,7.35168,0.000825997,-0.000782472,0.0012874,0.00153972,-0.00149619,0.506207,0.00175284,0.0178272,1966,1184,52.3766,-7.35165
749,-160,52.3562,6.83142,0.000563513,0.0012553,0.00225881,0.00319455,-0.00137574,0.861373,0.00270741,0.0182026,1973,1184,52.3563,-6.83143
756,-160,52.3339,6.3396,0.00179812,0.00552588,0.00284861,0.00706621,0.000257791,1.0751,0.00462727,0.0119508,1980,1184,52.3339,-6.33964
763,-160,52.2804,5.87903,0.00410389,0.0112424,0.00339632,0.0126001,0.00274622,1.19051,0.00765073,0.0127821,1987,1184,52.2804,-5.87903
770,-160,52.1978,5.28772,0.00762309,0.0180902,0.00374062,0.0192895,0.00642373,1.26052,0.011342,0.0269023,1994,1184,52.1978,-5.28775
777,-160,52.1687,4.78821,0.0126392,0.025969,0.00383171,0.026992,0.0116163,1.30991,0.0156341,0.037085,2001,1184,52.1687,-4.78825
784,-160,52.2925,4.14294,0,0,0,0,0,0,0,-1,2008,1184,52.2924,-4.14292
791,-160,52.3416,3.04346,0.0303895,0.0449179,0.00263606,0.0453814,0.029926,1.39674,0.0266413,0.0451133,2015,1184,52.3415,-3.0434
798,-160,52.936,2.85461,0.0447545,0.0557591,0.000871222,0.0558276,0.044686,1.49228,0.0341164,0.0449544,2022,1184,52.9361,-2.85466
805,-160,54.0378,3.40112,0.0637945,0.0664521,-0.00197556,0.0675041,0.0627424,-1.08146,0.0435025,0.047205,2029,1184,54.0379,-3.40116
812,-160,0,0,0,0,0,0,0,0,0,-1,2036,1184,0,0
-700,-167,0,0,0,0,0,0,0,0,0,-1,524,1191,0,0
-693,-167,0,0,0,0,0,0,0,0,0,-1,531,1191,0,0
-686,-167,-35.0194,-1.78235,0,0,0,0,0,0,0,-1,538,1191,-35.0194,1.78235
-679,-167,-35.3839,-1.53369,0,0,0,0,0,0,0,-1,545,1191,-35.384,1.53364
-672,-167,-35.4438,-0.337402,0,0,0,0,0,0,0,-1,552,1191,-35.4438,0.337396
-665,-167,-35.939,0.386841,0,0,0,0,0,0,0,-1,559,1191,-35.939,-0.38685
-658,-167,-36.2794,0.826172,0,0,0,0,0,0,0,-1,566,1191,-36.2794,-0.826222
-651,-167,-36.3423,1.87756,0,0,0,0,0,0,0,-1,573,1191,-36.3424,-1.8776
-644,-167,-36.3902,2.38647,-0.00298871,0.0117205,-0.00354575,0.0125307,-0.00379882,-1.34618,0.00986689,0.0415893,580,1191,-36.3902,-2.38652
-637,-167,-36.505,2.88977,-0.00201365,0.008961,-0.00232084,0.00943161,-0.00248426,-1.37073,0.00725894,0.0190201,587,1191,-36.505,-2.88977
-630,-167,-36.6136,3.39099,-0.00174908,0.0062225,-0.00174236,0.0065867,-0.00211327,-1.36474,0.00523959,0.00985225,594,1191,-36.6137,-3.39103
-623,-167,-36.6458,3.9259,-0.00209851,0.00372585,-0.00184217,0.0042596,-0.00263225,-1.28878,0.00401582,0.012606,601,1191,-36.6458,-3.92585
-616,-167,-36.6504,4.51672,-0.00376193,0.000920973,-0.00225866,0.00183282,-0.00467378,-1.18709,0.00387411,0.0159756,608,1191,-36.6504,-4.51673
-609,-167,-36.6792,5.14209,-0.00556775,-0.000537977,-0.00312081,0.000955143,-0.00706087,-1.12455,0.00505579,0.01538,615,1191,-36.6792,-5.14213
-602,-167,-36.7621,5.69348,-0.00552356,-0.000962454,-0.00351105,0.000943689,-0.0074297,-1.07342,0.0052958,0.0219295,622,1191,-36.7621,-5.69351
-595,-167,-36.6416,6.16333,0,0,0,0,0,0,0,-1,629,1191,-36.6416,-6.16328
-588,-167,-36.8699,6.82141,0,0,0,0,0,0,0,-1,636,1191,-36.8699,-6.82145
-581,-167,-32.8646,6.30542,0,0,0,0,0,0,0,-1,643,1191,-32.8646,-6.30537
-574,-167,-32.4808,7.37524,0,0,0,0,0,0,0,-1,650,1191,-32.4808,-7.37525
-567,-167,-27.3643,2.55859,0,0,0,0,0,0,0,-1,657,1191,-27.3643,-2.55864
-560,-167,-46.0864,1.21045,0,0,0,0,0,0,0,-1,664,1191,-46.0864,-1.21046
-553,-167,-46.1634,0.918091,-0.00203551,-0.0032079,-0.00286738,0.000304987,-0.00554839,-0.684569,0.00380467,0.0448416,671,1191,-46.1634,-0.918059
-546,-167,-46.1114,0.830688,-0.000913333,-0.00350078,-0.00249176,0.000600538,-0.00501465,-0.545953,0.0035602,0.0351685,678,1191,-46.1114,-0.830652
-539,-167,-46.0369,0.825317,0.000437576,-0.00354585,-0.00214668,0.0013742,-0.00448247,-0.411414,0.00353653,0.0377861,685,1191,-46.0369,-0.825356
-532,-167,-46.0634,0.668579,0.00103217,-0.00381799,-0.00177081,0.00160988,-0.00439571,-0.315356,0.00358952,0.0440347,692,1191,-46.0634,-0.668563
-525,-167,-46.0153,0.609619,0.00153712,-0.00401128,-0.00127704,0.00181693,-0.00429109,-0.215704,0.00362162,0.0447489,699,1191,-46.0152,-0.609658
-518,-167,-45.9821,0.632813,0.00231577,-0.00401225,-0.000367926,0.00233709,-0.00403357,-0.0578824,0.00372132,0.0435731,706,1191,-45.9821,-0.632759
-511,-167,0,0,0,0,0,0,0,0,0,-1,713,1191,0,0
-504,-167,0,0,0,0,0,0,0,0,0,-1,720,1191,0,0
-497,-167,0,0,0,0,0,0,0,0,0,-1,727,1191,0,0
-490,-167,0,0,0,0,0,0,0,0,0,-1,734,1191,0,0
-483,-167,0,0,0,0,0,0,0,0,0,-1,741,1191,0,0
-476,-167,0,0,0,0,0,0,0,0,0,-1,748,1191,0,0
-469,-167,0,0,0,0,0,0,0,0,0,-1,755,1191,0,0
-462,-167,0,0,0,0,0,0,0,0,0,-1,762,1191,0,0
-455,-167,0,0,0,0,0,0,0,0,0,-1,769,1191,0,0
-448,-167,0,0,0,0,0,0,0,0,0,-1,776,1191,0,0
-441,-167,0,0,0,0,0,0,0,0,0,-1,783,1191,0,0
-434,-167,0,0,0,0,0,0,0,0,0,-1,790,1191,0,0
-427,-167,0,0,0,0,0,0,0,0,0,-1,797,1191,0,0
-420,-167,0,0,0,0,0,0,0,0,0,-1,804,1191,0,0
-413,-167,0,0,0,0,0,0,0,0,0,-1,811,1191,0,0
-406,-167,0,0,0,0,0,0,0,0,0,-1,818,1191,0,0
-399,-167,0,0,0,0,0,0,0,0,0,-1,825,1191,0,0
-392,-167,0,0,0,0,0,0,0,0,0,-1,832,1191,0,0
-385,-167,0,0,0,0,0,0,0,0,0,-1,839,1191,0,0
-378,-167,0,0,0,0,0,0,0,0,0,-1,846,1191,0,0
-371,-167,0,0,0,0,0,0,0,0,0,-1,853,1191,0,0
-364,-167,0,0,0,0,0,0,0,0,0,-1,860,1191,0,0
-357,-167,0,0,0,0,0,0,0,0,0,-1,867,1191,0,0
-350,-167,0,0,0,0,0,0,0,0,0,-1,874,1191,0,0
-343,-167,0,0,0,0,0,0,0,0,0,-1,881,1191,0,0
-336,-167,0,0,0,0,0,0,0,0,0,-1,888,1191,0,0
-329,-167,0,0,0,0,0,0,0,0,0,-1,895,1191,0,0
-322,-167,0,0,0,0,0,0,0,0,0,-1,902,1191,0,0
-315,-167,0,0,0,0,0,0,0,0,0,-1,909,1191,0,0
-308,-167,0,0,0,0,0,0,0,0,0,-1,916,1191,0,0
-301,-167,0,0,0,0,0,0,0,0,0,-1,923,1191,0,0
-294,-167,0,0,0,0,0,0,0,0,0,-1,930,1191,0,0
-287,-167,0,0,0,0,0,0,0,0,0,-1,937,1191,0,0
-280,-167,0,0,0,0,0,0,0,0,0,-1,944,1191,0,0
-273,-167,0,0,0,0,0,0,0,0,0,-1,951,1191,0,0
-266,-167,0,0,0,0,0,0,0,0,0,-1,958,1191,0,0
-259,-167,0,0,0,0,0,0,0,0,0,-1,965,1191,0,0
-252,-167,0,0,0,0,0,0,0,0,0,-1,972,1191,0,0
-245,-167,0,0,0,0,0,0,0,0,0,-1,979,1191,0,0
-238,-167,0,0,0,0,0,0,0,0,0,-1,986,1191,0,0
-231,-167,0,0,0,0,0,0,0,0,0,-1,993,1191,0,0
-224,-167,0,0,0,0,0,0,0,0,0,-1,1000,1191,0,0
-217,-167,0,0,0,0,0,0,0,0,0,-1,1007,1191,0,0
-210,-167,0,0,0,0,0,0,0,0,0,-1,1014,1191,0,0
-203,-167,0,0,0,0,0,0,0,0,0,-1,1021,1191,0,0
-196,-167,0,0,0,0,0,0,0,0,0,-1,1028,1191,0,0
-189,-167,0,0,0,0,0,0,0,0,0,-1,1035,1191,0,0
-182,-167,0,0,0,0,0,0,0,0,0,-1,1042,1191,0,0
-175,-167,0,0,0,0,0,0,0,0,0,-1,1049,1191,0,0
-168,-167,0,0,0,0,0,0,0,0,0,-1,1056,1191,0,0
-161,-167,0,0,0,0,0,0,0,0,0,-1,1063,1191,0,0
-154,-167,0,0,0,0,0,0,0,0,0,-1,1070,1191,0,0
-147,-167,0,0,0,0,0,0,0,0,0,-1,1077,1191,0,0
-140,-167,0,0,0,0,0,0,0,0,0,-1,1084,1191,0,0
-133,-167,0,0,0,0,0,0,0,0,0,-1,1091,1191,0,0
-126,-167,0,0,0,0,0,0,0,0,0,-1,1098,1191,0,0
-119,-167,0,0,0,0,0,0,0,0,0,-1,1105,1191,0,0
-112,-167,0,0,0,0,0,0,0,0,0,-1,1112,1191,0,0
-105,-167,0,0,0,0,0,0,0,0,0,-1,1119,1191,0,0
-98,-167,0,0,0,0,0,0,0,0,0,-1,1126,1191,0,0
-91,-167,0,0,0,0,0,0,0,0,0,-1,1133,1191,0,0
-84,-167,0,0,0,0,0,0,0,0,0,-1,1140,1191,0,0
-77,-167,0,0,0,0,0,0,0,0,0,-1,1147,1191,0,0
-70,-167,0,0,0,0,0,0,0,0,0,-1,1154,1191,0,0
-63,-167,0,0,0,0,0,0,0,0,0,-1,1161,1191,0,0
-56,-167,0,0,0,0,0,0,0,0,0,-1,1168,1191,0,0
-49,-167,0,0,0,0,0,0,0,0,0,-1,1175,1191,0,0
-42,-167,0,0,0,0,0,0,0,0,0,-1,1182,1191,0,0
-35,-167,0,0,0,0,0,0,0,0,0,-1,1189,1191,0,0
-28,-167,0,0,0,0,0,0,0,0,0,-1,1196,1191,0,0
-21,-167,0,0,0,0,0,0,0,0,0,-1,1203,1191,0,0
-14,-167,0,0,0,0,0,0,0,0,0,-1,1210,1191,0,0
-7,-167,0,0,0,0,0,0,0,0,0,-1,1217,1191,0,0
0,-167,0,0,0,0,0,0,0,0,0,-1,1224,1191,0,0
7,-167,0,0,0,0,0,0,0,0,0,-1,1231,1191,0,0
14,-167,0,0,0,0,0,0,0,0,0,-1,1238,1191,0,0
21,-167,0,0,0,0,0,0,0,0,0,-1,1245,1191,0,0
28,-167,0,0,0,0,0,0,0,0,0,-1,1252,1191,0,0
35,-167,0,0,0,0,0,0,0,0,0,-1,1259,1191,0,0
42,-167,0,0,0,0,0,0,0,0,0,-1,1266,1191,0,0
49,-167,0,0,0,0,0,0,0,0,0,-1,1273,1191,0,0
56,-167,0,0,0,0,0,0,0,0,0,-1,1280,1191,0,0
63,-167,0,0,0,0,0,0,0,0,0,-1,1287,1191,0,0
70,-167,0,0,0,0,0,0,0,0,0,-1,1294,1191,0,0
77,-167,0,0,0,0,0,0,0,0,0,-1,1301,1191,0,0
84,-167,0,0,0,0,0,0,0,0,0,-1,1308,1191,0,0
91,-167,0,0,0,0,0,0,0,0,0,-1,1315,1191,0,0
98,-167,0,0,0,0,0,0,0,0,0,-1,1322,1191,0,0
105,-167,0,0,0,0,0,0,0,0,0,-1,1329,1191,0,0
112,-167,0,0,0,0,0,0,0,0,0,-1,1336,1191,0,0
119,-167,0,0,0,0,0,0,0,0,0,-1,1343,1191,0,0
126,-167,0,0,0,0,0,0,0,0,0,-1,1350,1191,0,0
133,-167,0,0,0,0,0,0,0,0,0,-1,1357,1191,0,0
140,-167,0,0,0,0,0,0,0,0,0,-1,1364,1191,0,0
147,-167,0,0,0,0,0,0,0,0,0,-1,1371,1191,0,0
154,-167,0,0,0,0,0,0,0,0,0,-1,1378,1191,0,0
161,-167,0,0,0,0,0,0,0,0,0,-1,1385,1191,0,0
168,-167,0,0,0,0,0,0,0,0,0,-1,1392,1191,0,0
175,-167,0,0,0,0,0,0,0,0,0,-1,1399,1191,0,0
182,-167,0,0,0,0,0,0,0,0,0,-1,1406,1191,0,0
189,-167,0,0,0,0,0,0,0,0,0,-1,1413,1191,0,0
196,-167,0,0,0,0,0,0,0,0,0,-1,1420,1191,0,0
203,-167,0,0,0,0,0,0,0,0,0,-1,1427,1191,0,0
210,-167,0,0,0,0,0,0,0,0,0,-1,1434,1191,0,0
217,-167,0,0,0,0,0,0,0,0,0,-1,1441,1191,0,0
224,-167,0,0,0,0,0,0,0,0,0,-1,1448,1191,0,0
231,-167,0,0,0,0,0,0,0,0,0,-1,1455,1191,0,0
238,-167,0,0,0,0,0,0,0,0,0,-1,1462,1191,0,0
245,-167,0,0,0,0,0,0,0,0,0,-1,1469,1191,0,0
252,-167,0,0,0,0,0,0,0,0,0,-1,1476,1191,0,0
259,-167,0,0,0,0,0,0,0,0,0,-1,1483,1191,0,0
266,-167,0,0,0,0,0,0,0,0,0,-1,1490,1191,0,0
273,-167,0,0,0,0,0,0,0,0,0,-1,1497,1191,0,0
280,-167,0,0,0,0,0,0,0,0,0,-1,1504,1191,0,0
287,-167,0,0,0,0,0,0,0,0,0,-1,1511,1191,0,0
294,-167,0,0,0,0,0,0,0,0,0,-1,1518,1191,0,0
301,-167,0,0,0,0,0,0,0,0,0,-1,1525,1191,0,0
308,-167,0,0,0,0,0,0,0,0,0,-1,1532,1191,0,0
315,-167,0,0,0,0,0,0,0,0,0,-1,1539,1191,0,0
322,-167,0,0,0,0,0,0,0,0,0,-1,1546,1191,0,0
329,-167,0,0,0,0,0,0,0,0,0,-1,1553,1191,0,0
336,-167,0,0,0,0,0,0,0,0,0,-1,1560,1191,0,0
343,-167,0,0,0,0,0,0,0,0,0,-1,1567,1191,0,0
350,-167,0,0,0,0,0,0,0,0,0,-1,1574,1191,0,0
357,-167,0,0,0,0,0,0,0,0,0,-1,1581,1191,0,0
364,-167,0,0,0,0,0,0,0,0,0,-1,1588,1191,0,0
371,-167,0,0,0,0,0,0,0,0,0,-1,1595,1191,0,0
378,-167,0,0,0,0,0,0,0,0,0,-1,1602,1191,0,0
385,-167,0,0,0,0,0,0,0,0,0,-1,1609,1191,0,0
392,-167,0,0,0,0,0,0,0,0,0,-1,1616,1191,0,0
399,-167,0,0,0,0,0,0,0,0,0,-1,1623,1191,0,0
406,-167,0,0,0,0,0,0,0,0,0,-1,1630,1191,0,0
413,-167,0,0,0,0,0,0,0,0,0,-1,1637,1191,0,0
420,-167,0,0,0,0,0,0,0,0,0,-1,1644,1191,0,0
427,-167,0,0,0,0,0,0,0,0,0,-1,1651,1191,0,0
434,-167,0,0,0,0,0,0,0,0,0,-1,1658,1191,0,0
441,-167,0,0,0,0,0,0,0,0,0,-1,1665,1191,0,0
448,-167,0,0,0,0,0,0,0,0,0,-1,1672,1191,0,0
455,-167,0,0,0,0,0,0,0,0,0,-1,1679,1191,0,0
462,-167,0,0,0,0,0,0,0,0,0,-1,1686,1191,0,0
469,-167,0,0,0,0,0,0,0,0,0,-1,1693,1191,0,0
476,-167,0,0,0,0,0,0,0,0,0,-1,1700,1191,0,0
483,-167,0,0,0,0,0,0,0,0,0,-1,1707,1191,0,0
490,-167,0,0,0,0,0,0,0,0,0,-1,1714,1191,0,0
497,-167,0,0,0,0,0,0,0,0,0,-1,1721,1191,0,0
504,-167,0,0,0,0,0,0,0,0,0,-1,1728,1191,0,0
511,-167,0,0,0,0,0,0,0,0,0,-1,1735,1191,0,0
518,-167,0,0,0,0,0,0,0,0,0,-1,1742,1191,0,0
525,-167,0,0,0,0,0,0,0,0,0,-1,1749,1191,0,0
532,-167,0,0,0,0,0,0,0,0,0,-1,1756,1191,0,0
539,-167,0,0,0,0,0,0,0,0,0,-1,1763,1191,0,0
546,-167,0,0,0,0,0,0,0,0,0,-1,1770,1191,0,0
553,-167,0,0,0,0,0,0,0,0,0,-1,1777,1191,0,0
560,-167,0,0,0,0,0,0,0,0,0,-1,1784,1191,0,0
567,-167,0,0,0,0,0,0,0,0,0,-1,1791,1191,0,0
574,-167,0,0,0,0,0,0,0,0,0,-1,1798,1191,0,0
581,-167,0,0,0,0,0,0,0,0,0,-1,1805,1191,0,0
588,-167,0,0,0,0,0,0,0,0,0,-1,1812,1191,0,0
595,-167,0,0,0,0,0,0,0,0,0,-1,1819,1191,0,0
602,-167,0,0,0,0,0,0,0,0,0,-1,1826,1191,0,0
609,-167,0,0,0,0,0,0,0,0,0,-1,1833,1191,0,0
616,-167,0,0,0,0,0,0,0,0,0,-1,1840,1191,0,0
623,-167,0,0,0,0,0,0,0,0,0,-1,1847,1191,0,0
630,-167,0,0,0,0,0,0,0,0,0,-1,1854,1191,0,0
637,-167,61.2028,2.68872,0.00332402,0.00114771,-0.00249413,0.00495703,-0.000485307,-0.579702,0.00347776,0.0397626,1861,1191,61.2028,-2.68872
644,-167,61.2604,2.6958,0.0023005,0.000713936,-0.00158418,0.00327891,-0.00026448,-0.553273,0.00227922,0.0425493,1868,1191,61.2604,-2.69581
651,-167,61.1044,2.66638,0.00163863,0.00058276,-0.00115373,0.00237948,-0.000158088,-0.570825,0.00164155,0.040896,1875,1191,61.1044,-2.66636
658,-167,61.0469,2.66748,0.00128701,0.000643918,-0.00112678,0.00213722,-0.000206296,-0.646409,0.00149832,0.0419481,1882,1191,61.0468,-2.66748
665,-167,61.27,3.02197,0.00113088,0.00072637,-0.00131785,0.00226191,-0.000404659,-0.709256,0.00165935,0.0382606,1889,1191,61.27,-3.02199
672,-167,61.2095,2.86633,0.00106802,0.000733395,-0.00155121,0.00246092,-0.000659499,-0.731676,0.00189901,0.027603,1896,1191,61.2094,-2.86633
679,-167,61.1549,2.72925,0.00124684,0.000501386,-0.00170099,0.00261546,-0.000867232,-0.677541,0.00209347,0.0213944,1903,1191,61.1549,-2.72924
686,-167,61.1172,2.58716,0.00140271,0.00019177,-0.00159138,0.00249991,-0.000905427,-0.60362,0.00203664,0.0291209,1910,1191,61.1172,-2.58716
693,-167,61.0609,2.42896,0,0,0,0,0,0,0,-1,1917,1191,61.0609,-2.42894
700,-167,28.0459,2.70508,0,0,0,0,0,0,0,-1,1924,1191,28.0459,-2.70513
707,-167,29.4708,7.10168,0,0,0,0,0,0,0,-1,1931,1191,29.4708,-7.10172
714,-167,35.9202,6.84668,0,0,0,0,0,0,0,-1,1938,1191,35.9202,-6.84664
721,-167,36.2072,6.38892,0,0,0,0,0,0,0,-1,1945,1191,36.2072,-6.38891
728,-167,51.7391,8.59644,0,0,0,0,0,0,0,-1,1952,1191,51.7391,-8.59649
735,-167,51.8838,8.08301,0.00112581,-0.0005097,0.000472988,0.00125275,-0.000636635,0.262192,0.00111,0.0277381,1959,1191,51.8838,-8.08306
742,-167,51.8259,7.41187,0.000983425,-0.000388962,0.00114659,0.00163347,-0.00103901,0.515754,0.00155563,0.0172441,1966,1191,51.826,-7.41186
749,-167,51.8074,6.86523,0.00110627,0.00177582,0.00220785,0.00367413,-0.000792042,0.86064,0.0027517,0.015594,1973,1191,51.8073,-6.86524
756,-167,51.8051,6.37634,0.00298679,0.00564513,0.00292758,0.00753114,0.00110078,0.998493,0.00469703,0.0125246,1980,1191,51.8051,-6.3763
763,-167,51.7257,5.85767,0.00595366,0.010931,0.00365924,0.0128677,0.00401701,1.08402,0.00760186,0.0142419,1987,1191,51.7257,-5.85765
770,-167,51.5342,5.41882,0.0103522,0.0173803,0.00420108,0.0193433,0.00838921,1.13369,0.0112005,0.0345779,1994,1191,51.5341,-5.41887
777,-167,51.8145,5.04688,0.0165224,0.0248863,0.00450777,0.0268532,0.0145555,1.15936,0.015522,0.0485538,2001,1191,51.8145,-5.04683
784,-167,52.1384,4.6167,0,0,0,0,0,0,0,-1,2008,1191,52.1384,-4.6167
791,-167,52.0444,2.07764,0,0,0,0,0,0,0,-1,2015,1191,52.0444,-2.07767
798,-167,52.5264,1.91199,0,0,0,0,0,0,0,-1,2022,1191,52.5264,-1.91203
805,-167,54.2693,3.60718,0,0,0,0,0,0,0,-1,2029,1191,54.2693,-3.60718
812,-167,0,0,0,0,0,0,0,0,0,-1,2036,1191,0,0
-700,-174,0,0,0,0,0,0,0,0,0,-1,524,1198,0,0
-693,-174,0,0,0,0,0,0,0,0,0,-1,531,1198,0,0
-686,-174,-34.1979,-1.50745,0,0,0,0,0,0,0,-1,538,1198,-34.1979,1.50748
-679,-174,-34.5461,-1.255,-0.0273004,0.0202097,-0.0184464,0.0265308,-0.0336215,-1.24066,0.0348093,0.046582,545,1198,-34.546,1.255
-672,-174,-34.9001,-0.441162,-0.0212595,0.0212811,-0.0108432,0.0238855,-0.0238639,-1.33507,0.0275682,0.0479044,552,1198,-34.9001,0.441202
-665,-174,-35.2095,0.0334473,-0.0162347,0.0202948,-0.00599522,0.0212535,-0.0171935,-1.41222,0.0222386,0.0472162,559,1198,-35.2096,-0.0334783
-658,-174,-35.6169,0.591309,0,0,0,0,0,0,0,-1,566,1198,-35.6169,-0.591298
-651,-174,-35.939,1.25415,0,0,0,0,0,0,0,-1,573,1198,-35.9389,-1.25415
-644,-174,-35.8868,2.00793,-0.00549114,0.012768,-0.000108187,0.0127687,-0.00549178,-1.56487,0.0108181,0.0463601,580,1198,-35.8868,-2.00795
-637,-174,-35.8491,2.84399,-0.00366629,0.00976852,7.24583e-05,0.00976891,-0.00366668,1.5654,0.0080193,0.0255631,587,1198,-35.8491,-2.844
-630,-174,-35.9937,3.40881,-0.00269532,0.00676849,-0.000233228,0.00677423,-0.00270107,-1.54617,0.00563654,0.0132165,594,1198,-35.9937,-3.40876
-623,-174,-36.0251,3.98145,-0.00223955,0.00428993,-0.000813878,0.00438985,-0.00233947,-1.44864,0.00394483,0.0147306,601,1198,-36.0251,-3.98144
-616,-174,-36.0098,4.58887,-0.00330688,0.00131588,-0.00160294,0.00181731,-0.00380831,-1.26762,0.00331507,0.0207976,608,1198,-36.0098,-4.58891
-609,-174,-36.0584,5.17444,-0.00506697,-0.000448909,-0.00263848,0.00074823,-0.00626411,-1.14485,0.00444652,0.0227572,615,1198,-36.0584,-5.17444
-602,-174,-36.1167,5.71643,-0.00555004,-0.00115562,-0.00309814,0.000445356,-0.00715102,-1.09384,0.00492252,0.0210697,622,1198,-36.1167,-5.71647
-595,-174,-35.8787,6.1886,0,0,0,0,0,0,0,-1,629,1198,-35.8787,-6.18858
-588,-174,-36.5208,6.80591,0,0,0,0,0,0,0,-1,636,1198,-36.5208,-6.80589
-581,-174,-36.5942,7.48621,0,0,0,0,0,0,0,-1,643,1198,-36.5943,-7.48617
-574,-174,-31.7448,7.09595,0,0,0,0,0,0,0,-1,650,1198,-31.7448,-7.09599
-567,-174,-26.6597,3.04041,0,0,0,0,0,0,0,-1,657,1198,-26.6597,-3.04039
-560,-174,-42.6953,1.07178,0,0,0,0,0,0,0,-1,664,1198,-42.6953,-1.07181
-553,-174,-45.9346,0.610718,0,0,0,0,0,0,0,-1,671,1198,-45.9347,-0.610678
-546,-174,-46.073,0.824829,-0.00167413,-0.00405645,-0.00196063,-0.000571187,-0.00515939,-0.512426,0.00326589,0.0275409,678,1198,-46.073,-0.824791
-539,-174,-46.1498,1.03748,-0.000614095,-0.00420229,-0.00162459,1.21545e-05,-0.00482854,-0.367928,0.00322308,0.0315033,685,1198,-46.1498,-1.03748
-532,-174,-45.9332,0.864746,-2.84243e-05,-0.0045112,-0.00117706,0.000261847,-0.00480147,-0.241782,0.00329173,0.0429033,692,1198,-45.9331,-0.864714
-525,-174,-45.7387,0.706909,0.000579897,-0.00469879,-0.000559525,0.000638553,-0.00475745,-0.104451,0.0034045,0.0445525,699,1198,-45.7387,-0.706879
-518,-174,-45.9764,0.653076,0.00161465,-0.00445759,0.000581767,0.00166988,-0.00451283,0.0946602,0.00369324,0.0445386,706,1198,-45.9764,-0.653063
-511,-174,0,0,0,0,0,0,0,0,0,-1,713,1198,0,0
-504,-174,0,0,0,0,0,0,0,0,0,-1,720,1198,0,0
-497,-174,0,0,0,0,0,0,0,0,0,-1,727,1198,0,0
-490,-174,0,0,0,0,0,0,0,0,0,-1,734,1198,0,0
-483,-174,0,0,0,0,0,0,0,0,0,-1,741,1198,0,0
-476,-174,0,0,0,0,0,0,0,0,0,-1,748,1198,0,0
-469,-174,0,0,0,0,0,0,0,0,0,-1,755,1198,0,0
-462,-174,0,0,0,0,0,0,0,0,0,-1,762,1198,0,0
-455,-174,0,0,0,0,0,0,0,0,0,-1,769,1198,0,0
-448,-174,0,0,0,0,0,0,0,0,0,-1,776,1198,0,0
-441,-174,0,0,0,0,0,0,0,0,0,-1,783,1198,0,0
-434,-174,0,0,0,0,0,0,0,0,0,-1,790,1198,0,0
-427,-174,0,0,0,0,0,0,0,0,0,-1,797,1198,0,0
-420,-174,0,0,0,0,0,0,0,0,0,-1,804,1198,0,0
-413,-174,0,0,0,0,0,0,0,0,0,-1,811,1198,0,0
-406,-174,0,0,0,0,0,0,0,0,0,-1,818,1198,0,0
-399,-174,0,0,0,0,0,0,0,0,0,-1,825,1198,0,0
-392,-174,0,0,0,0,0,0,0,0,0,-1,832,1198,0,0
-385,-174,0,0,0,0,0,0,0,0,0,-1,839,1198,0,0
-378,-174,0,0,0,0,0,0,0,0,0,-1,846,1198,0,0
-371,-174,0,0,0,0,0,0,0,0,0,-1,853,1198,0,0
-364,-174,0,0,0,0,0,0,0,0,0,-1,860,1198,0,0
-357,-174,0,0,0,0,0,0,0,0,0,-1,867,1198,0,0
-350,-174,0,0,0,0,0,0,0,0,0,-1,874,1198,0,0
-343,-174,0,0,0,0,0,0,0,0,0,-1,881,1198,0,0
-336,-174,0,0,0,0,0,0,0,0,0,-1,888,1198,0,0
-329,-174,0,0,0,0,0,0,0,0,0,-1,895,1198,0,0
-322,-174,0,0,0,0,0,0,0,0,0,-1,902,1198,0,0
-315,-174,0,0,0,0,0,0,0,0,0,-1,909,1198,0,0
-308,-174,0,0,0,0,0,0,0,0,0,-1,916,1198,0,0
-301,-174,0,0,0,0,0,0,0,0,0,-1,923,1198,0,0
-294,-174,0,0,0,0,0,0,0,0,0,-1,930,1198,0,0
-287,-174,0,0,0,0,0,0,0,0,0,-1,937,1198,0,0
-280,-174,0,0,0,0,0,0,0,0,0,-1,944,1198,0,0
-273,-174,0,0,0,0,0,0,0,0,0,-1,951,1198,0,0
-266,-174,0,0,0,0,0,0,0,0,0,-1,958,1198,0,0
-259,-174,0,0,0,0,0,0,0,0,0,-1,965,1198,0,0
-252,-174,0,0,0,0,0,0,0,0,0,-1,972,1198,0,0
-245,-174,0,0,0,0,0,0,0,0,0,-1,979,1198,0,0
-238,-174,0,0,0,0,0,0,0,0,0,-1,986,1198,0,0
-231,-174,0,0,0,0,0,0,0,0,0,-1,993,1198,0,0
-224,-174,0,0,0,0,0,0,0,0,0,-1,1000,1198,0,0
-217,-174,0,0,0,0,0,0,0,0,0,-1,1007,1198,0,0
-210,-174,0,0,0,0,0,0,0,0,0,-1,1014,1198,0,0
-203,-174,0,0,0,0,0,0,0,0,0,-1,1021,1198,0,0
-196,-174,0,0,0,0,0,0,0,0,0,-1,1028,1198,0,0
-189,-174,0,0,0,0,0,0,0,0,0,-1,1035,1198,0,0
-182,-174,0,0,0,0,0,0,0,0,0,-1,1042,1198,0,0
-175,-174,0,0,0,0,0,0,0,0,0,-1,1049,1198,0,0
-168,-174,0,0,0,0,0,0,0,0,0,-1,1056,1198,0,0
-161,-174,0,0,0,0,0,0,0,0,0,-1,1063,1198,0,0
-154,-174,0,0,0,0,0,0,0,0,0,-1,1070,1198,0,0
-147,-174,0,0,0,0,0,0,0,0,0,-1,1077,1198,0,0
-140,-174,0,0,0,0,0,0,0,0,0,-1,1084,1198,0,0
-133,-174,0,0,0,0,0,0,0,0,0,-1,1091,1198,0,0
-126,-174,0,0,0,0,0,0,0,0,0,-1,1098,1198,0,0
-119,-174,0,0,0,0,0,0,0,0,0,-1,1105,1198,0,0
-112,-174,0,0,0,0,0,0,0,0,0,-1,1112,1198,0,0
-105,-174,0,0,0,0,0,0,0,0,0,-1,1119,1198,0,0
-98,-174,0,0,0,0,0,0,0,0,0,-1,1126,1198,0,0
-91,-174,0,0,0,0,0,0,0,0,0,-1,1133,1198,0,0
-84,-174,0,0,0,0,0,0,0,0,0,-1,1140,1198,0,0
-77,-174,0,0,0,0,0,0,0,0,0,-1,1147,1198,0,0
-70,-174,0,0,0,0,0,0,0,0,0,-1,1154,1198,0,0
-63,-174,0,0,0,0,0,0,0,0,0,-1,1161,1198,0,0
-56,-174,0,0,0,0,0,0,0,0,0,-1,1168,1198,0,0
-49,-174,0,0,0,0,0,0,0,0,0,-1,1175,1198,0,0
-42,-174,0,0,0,0,0,0,0,0,0,-1,1182,1198,0,0
-35,-174,0,0,0,0,0,0,0,0,0,-1,1189,1198,0,0
-28,-174,0,0,0,0,0,0,0,0,0,-1,1196,1198,0,0
-21,-174,0,0,0,0,0,0,0,0,0,-1,1203,1198,0,0
-14,-174,0,0,0,0,0,0,0,0,0,-1,1210,1198,0,0
-7,-174,0,0,0,0,0,0,0,0,0,-1,1217,1198,0,0
0,-174,0,0,0,0,0,0,0,0,0,-1,1224,1198,0,0
7,-174,0,0,0,0,0,0,0,0,0,-1,1231,1198,0,0
14,-174,0,0,0,0,0,0,0,0,0,-1,1238,1198,0,0
21,-174,0,0,0,0,0,0,0,0,0,-1,1245,1198,0,0
28,-174,0,0,0,0,0,0,0,0,0,-1,1252,1198,0,0
35,-174,0,0,0,0,0,0,0,0,0,-1,1259,1198,0,0
42,-174,0,0,0,0,0,0,0,0,0,-1,1266,1198,0,0
49,-174,0,0,0,0,0,0,0,0,0,-1,1273,1198,0,0
56,-174,0,0,0,0,0,0,0,0,0,-1,1280,1198,0,0
63,-174,0,0,0,0,0,0,0,0,0,-1,1287,1198,0,0
70,-174,0,0,0,0,0,0,0,0,0,-1,1294,1198,0,0
77,-174,0,0,0,0,0,0,0,0,0,-1,1301,1198,0,0
84,-174,0,0,0,0,0,0,0,0,0,-1,1308,1198,0,0
91,-174,0,0,0,0,0,0,0,0,0,-1,1315,1198,0,0
98,-174,0,0,0,0,0,0,0,0,0,-1,1322,1198,0,0
105,-174,0,0,0,0,0,0,0,0,0,-1,1329,1198,0,0
112,-174,0,0,0,0,0,0,0,0,0,-1,1336,1198,0,0
119,-174,0,0,0,0,0,0,0,0,0,-1,1343,1198,0,0
126,-174,0,0,0,0,0,0,0,0,0,-1,1350,1198,0,0
133,-174,0,0,0,0,0,0,0,0,0,-1,1357,1198,0,0
140,-174,0,0,0,0,0,0,0,0,0,-1,1364,1198,0,0
147,-174,0,0,0,0,0,0,0,0,0,-1,1371,1198,0,0
154,-174,0,0,0,0,0,0,0,0,0,-1,1378,1198,0,0
161,-174,0,0,0,0,0,0,0,0,0,-1,1385,1198,0,0
168,-174,0,0,0,0,0,0,0,0,0,-1,1392,1198,0,0
175,-174,0,0,0,0,0,0,0,0,0,-1,1399,1198,0,0
182,-174,0,0,0,0,0,0,0,0,0,-1,1406,1198,0,0
189,-174,0,0,0,0,0,0,0,0,0,-1,1413,1198,0,0
196,-174,0,0,0,0,0,0,0,0,0,-1,1420,1198,0,0
203,-174,0,0,0,0,0,0,0,0,0,-1,1427,1198,0,0
210,-174,0,0,0,0,0,0,0,0,0,-1,1434,1198,0,0
217,-174,0,0,0,0,0,0,0,0,0,-1,1441,1198,0,0
224,-174,0,0,0,0,0,0,0,0,0,-1,1448,1198,0,0
231,-174,0,0,0,0,0,0,0,0,0,-1,1455,1198,0,0
238,-174,0,0,0,0,0,0,0,0,0,-1,1462,1198,0,0
245,-174,0,0,0,0,0,0,0,0,0,-1,1469,1198,0,0
252,-174,0,0,0,0,0,0,0,0,0,-1,1476,1198,0,0
259,-174,0,0,0,0,0,0,0,0,0,-1,1483,1198,0,0
266,-174,0,0,0,0,0,0,0,0,0,-1,1490,1198,0,0
273,-174,0,0,0,0,0,0,0,0,0,-1,1497,1198,0,0
280,-174,0,0,0,0,0,0,0,0,0,-1,1504,1198,0,0
287,-174,0,0,0,0,0,0,0,0,0,-1,1511,1198,0,0
294,-174,0,0,0,0,0,0,0,0,0,-1,1518,1198,0,0
301,-174,0,0,0,0,0,0,0,0,0,-1,1525,1198,0,0
308,-174,0,0,0,0,0,0,0,0,0,-1,1532,1198,0,0
315,-174,0,0,0,0,0,0,0,0,0,-1,1539,1198,0,0
322,-174,0,0,0,0,0,0,0,0,0,-1,1546,1198,0,0
329,-174,0,0,0,0,0,0,0,0,0,-1,1553,1198,0,0
336,-174,0,0,0,0,0,0,0,0,0,-1,1560,1198,0,0
343,-174,0,0,0,0,0,0,0,0,0,-1,1567,1198,0,0
350,-174,0,0,0,0,0,0,0,0,0,-1,1574,1198,0,0
357,-174,0,0,0,0,0,0,0,0,0,-1,1581,1198,0,0
364,-174,0,0,0,0,0,0,0,0,0,-1,1588,1198,0,0
371,-174,0,0,0,0,0,0,0,0,0,-1,1595,1198,0,0
378,-174,0,0,0,0,0,0,0,0,0,-1,1602,1198,0,0
385,-174,0,0,0,0,0,0,0,0,0,-1,1609,1198,0,0
392,-174,0,0,0,0,0,0,0,0,0,-1,1616,1198,0,0
399,-174,0,0,0,0,0,0,0,0,0,-1,1623,1198,0,0
406,-174,0,0,0,0,0,0,0,0,0,-1,1630,1198,0,0
413,-174,0,0,0,0,0,0,0,0,0,-1,1637,1198,0,0
420,-174,0,0,0,0,0,0,0,0,0,-1,1644,1198,0,0
427,-174,0,0,0,0,0,0,0,0,0,-1,1651,1198,0,0
434,-174,0,0,0,0,0,0,0,0,0,-1,1658,1198,0,0
441,-174,0,0,0,0,0,0,0,0,0,-1,1665,1198,0,0
448,-174,0,0,0,0,0,0,0,0,0,-1,1672,1198,0,0
455,-174,0,0,0,0,0,0,0,0,0,-1,1679,1198,0,0
462,-174,0,0,0,0,0,0,0,0,0,-1,1686,1198,0,0
469,-174,0,0,0,0,0,0,0,0,0,-1,1693,1198,0,0
476,-174,0,0,0,0,0,0,0,0,0,-1,1700,1198,0,0
483,-174,0,0,0,0,0,0,0,0,0,-1,1707,1198,0,0
490,-174,0,0,0,0,0,0,0,0,0,-1,1714,1198,0,0
497,-174,0,0,0,0,0,0,0,0,0,-1,1721,1198,0,0
504,-174,0,0,0,0,0,0,0,0,0,-1,1728,1198,0,0
511,-174,0,0,0,0,0,0,0,0,0,-1,1735,1198,0,0
518,-174,0,0,0,0,0,0,0,0,0,-1,1742,1198,0,0
525,-174,0,0,0,0,0,0,0,0,0,-1,1749,1198,0,0
532,-174,0,0,0,0,0,0,0,0,0,-1,1756,1198,0,0
539,-174,0,0,0,0,0,0,0,0,0,-1,1763,1198,0,0
546,-174,0,0,0,0,0,0,0,0,0,-1,1770,1198,0,0
553,-174,0,0,0,0,0,0,0,0,0,-1,1777,1198,0,0
560,-174,0,0,0,0,0,0,0,0,0,-1,1784,1198,0,0
567,-174,0,0,0,0,0,0,0,0,0,-1,1791,1198,0,0
574,-174,0,0,0,0,0,0,0,0,0,-1,1798,1198,0,0
581,-174,0,0,0,0,0,0,0,0,0,-1,1805,1198,0,0
588,-174,0,0,0,0,0,0,0,0,0,-1,1812,1198,0,0
595,-174,0,0,0,0,0,0,0,0,0,-1,1819,1198,0,0
602,-174,0,0,0,0,0,0,0,0,0,-1,1826,1198,0,0
609,-174,0,0,0,0,0,0,0,0,0,-1,1833,1198,0,0
616,-174,0,0,0,0,0,0,0,0,0,-1,1840,1198,0,0
623,-174,0,0,0,0,0,0,0,0,0,-1,1847,1198,0,0
630,-174,0,0,0,0,0,0,0,0,0,-1,1854,1198,0,0
637,-174,61.1368,2.63538,0.00310065,2.82572e-05,-0.00139312,0.00363826,-0.000509353,-0.368297,0.0026119,0.0389689,1861,1198,61.1369,-2.63543
644,-174,61.255,2.64014,0.00228162,-3.54014e-07,-0.000923273,0.00260838,-0.000327115,-0.340159,0.00185759,0.0406841,1868,1198,61.255,-2.64019
651,-174,61.158,2.69922,0.00179978,0.000164241,-0.00086249,0.00217055,-0.000206534,-0.406004,0.00152056,0.0402964,1875,1198,61.158,-2.69926
658,-174,61.1366,2.78845,0.00154475,0.000414283,-0.00113978,0.00225175,-0.000292721,-0.555211,0.00160765,0.0400625,1882,1198,61.1366,-2.78843
665,-174,61.1681,2.88086,0.001407,0.00055211,-0.00149152,0.00253111,-0.000572009,-0.645848,0.00190689,0.0352052,1889,1198,61.1681,-2.88085
672,-174,61.144,2.76233,0.00132679,0.000567376,-0.0017639,0.00275139,-0.000857227,-0.679384,0.00217701,0.0253926,1896,1198,61.144,-2.76236
679,-174,61.1466,2.68091,0.00144413,0.00037684,-0.00188596,0.00287049,-0.00104953,-0.647525,0.0023432,0.0221207,1903,1198,61.1467,-2.68097
686,-174,61.0481,2.44189,0,0,0,0,0,0,0,-1,1910,1198,61.0481,-2.44188
693,-174,51.1324,2.57349,0,0,0,0,0,0,0,-1,1917,1198,51.1325,-2.57343
700,-174,25.4004,6.11792,0,0,0,0,0,0,0,-1,1924,1198,25.4004,-6.11797
707,-174,34.7908,7.34473,0,0,0,0,0,0,0,-1,1931,1198,34.7908,-7.34475
714,-174,40.1135,7.79871,0,0,0,0,0,0,0,-1,1938,1198,40.1135,-7.79875
721,-174,40.8693,7.59863,0,0,0,0,0,0,0,-1,1945,1198,40.8693,-7.59859
728,-174,51.1411,8.51416,0,0,0,0,0,0,0,-1,1952,1198,51.1411,-8.51412
735,-174,51.2548,8.01392,0.00114153,-0.000386591,0.000441095,0.00125972,-0.000504774,0.261781,0.00104935,0.0178328,1959,1198,51.2548,-8.01394
742,-174,51.2662,7.43445,0.00109871,-1.57133e-05,0.00119275,0.00185799,-0.000774992,0.56688,0.00156243,0.0203652,1966,1198,51.2662,-7.43447
749,-174,51.2828,6.89307,0.0016227,0.00219165,0.00232364,0.00424816,-0.000433811,0.846308,0.00298723,0.0181951,1973,1198,51.2828,-6.89308
756,-174,51.243,6.36121,0.00398027,0.00559455,0.00314688,0.00803615,0.00153866,0.910937,0.00492532,0.0121434,1980,1198,51.243,-6.36121
763,-174,51.1957,5.85486,0.00738973,0.0103758,0.00403972,0.0131896,0.00457596,0.962406,0.00773301,0.0171053,1987,1198,51.1957,-5.85482
770,-174,51.5793,5.21265,0,0,0,0,0,0,0,-1,1994,1198,51.5793,-5.21264
777,-174,51.5156,5.07654,0,0,0,0,0,0,0,-1,2001,1198,51.5156,-5.07651
784,-174,52.9006,4.08057,0,0,0,0,0,0,0,-1,2008,1198,52.9006,-4.08057
791,-174,51.5935,-0.0656738,0,0,0,0,0,0,0,-1,2015,1198,51.5936,0.0656446
798,-174,51.7388,1.0929,0,0,0,0,0,0,0,-1,2022,1198,51.7388,-1.09289
805,-174,52.1929,2.47119,0,0,0,0,0,0,0,-1,2029,1198,52.193,-2.47118
812,-174,0,0,0,0,0,0,0,0,0,-1,2036,1198,0,0
-700,-181,0,0,0,0,0,0,0,0,0,-1,524,1205,0,0
-693,-181,0,0,0,0,0,0,0,0,0,-1,531,1205,0,0
-686,-181,-33.5155,-1.38135,0,0,0,0,0,0,0,-1,538,1205,-33.5155,1.38137
-679,-181,-33.898,-0.963745,-0.0366973,0.0202511,-0.00874026,0.0215623,-0.0380085,-1.42188,0.0348274,0.0456408,545,1205,-33.898,0.963738
-672,-181,-34.3187,-0.470337,-0.02962,0.0209251,-0.00309517,0.0211139,-0.0298088,-1.50986,0.0295428,0.0459168,552,1205,-34.3187,0.470302
-665,-181,-34.6697,-0.0803223,-0.0234289,0.0197628,0.000125904,0.0197631,-0.0234292,1.56788,0.0249671,0.0471151,559,1205,-34.6697,0.0802829
-658,-181,-35.2197,0.507202,-0.017941,0.0177061,0.00191774,0.017809,-0.0180439,1.5172,0.0206998,0.0484863,566,1205,-35.2197,-0.507233
-651,-181,-35.3946,1.21692,-0.0131411,0.0151843,0.00268487,0.0154366,-0.0133934,1.47712,0.0166589,0.0491889,573,1205,-35.3946,-1.21695
-644,-181,-35.4683,1.78625,-0.0092399,0.0124515,0.00270352,0.0127834,-0.00957177,1.44865,0.0129511,0.0453074,580,1205,-35.4683,-1.78626
-637,-181,-35.283,2.80969,-0.00632167,0.00965161,0.00218444,0.00994496,-0.00661502,1.43731,0.00962512,0.0254798,587,1205,-35.2829,-2.80973
-630,-181,-35.3951,3.40417,-0.00430073,0.00685401,0.00132175,0.00700849,-0.00445521,1.45445,0.00667307,0.0134117,594,1205,-35.3952,-3.40412
-623,-181,-35.457,3.99622,-0.00283711,0.0046502,0.000360466,0.00466751,-0.00285443,1.5228,0.00438465,0.014846,601,1205,-35.457,-3.99618
-616,-181,-35.4563,4.59778,-0.00293064,0.001825,-0.000712641,0.00192949,-0.00303513,-1.4252,0.00288992,0.014656,608,1205,-35.4563,-4.59781
-609,-181,-35.4512,5.20972,-0.00420545,-0.000117696,-0.00198301,0.000686188,-0.00500934,-1.18565,0.00359021,0.0141797,615,1205,-35.4512,-5.20975
-602,-181,-35.4501,5.8042,-0.00509284,-0.00117306,-0.00264177,0.00015644,-0.00642234,-1.10454,0.00433465,0.0186282,622,1205,-35.4502,-5.80424
-595,-181,-35.6939,6.24463,-0.0050539,-0.00206019,-0.00218665,-0.00090714,-0.00620695,-1.08554,0.00387118,0.0482479,629,1205,-35.6939,-6.2446
-588,-181,-35.996,6.90271,-0.00439985,-0.00235637,-0.00203952,-0.00109697,-0.00565925,-1.01761,0.00346554,0.0378626,636,1205,-35.9959,-6.9027
-581,-181,-36.047,7.69409,0,0,0,0,0,0,0,-1,643,1205,-36.047,-7.69411
-574,-181,-31.4653,6.98145,0,0,0,0,0,0,0,-1,650,1205,-31.4653,-6.98148
-567,-181,-25.8839,3.34485,0,0,0,0,0,0,0,-1,657,1205,-25.8839,-3.3449
-560,-181,-31.7396,1.63306,0,0,0,0,0,0,0,-1,664,1205,-31.7396,-1.63303
-553,-181,-45.8981,0.634644,0,0,0,0,0,0,0,-1,671,1205,-45.8981,-0.634614
-546,-181,-46.0437,0.838501,-0.00220443,-0.00454574,-0.00157309,-0.00141421,-0.00533596,-0.465518,0.0031921,0.0338208,678,1205,-46.0437,-0.838456
-539,-181,-46.1509,1.00854,-0.0015862,-0.00467425,-0.00125109,-0.00114295,-0.0051175,-0.340489,0.00310169,0.0361758,685,1205,-46.1509,-1.00852
-532,-181,-45.9069,0.948364,-0.00126229,-0.00485978,-0.000724837,-0.00112173,-0.00500033,-0.191531,0.00302967,0.0423052,692,1205,-45.9068,-0.948332
-525,-181,-45.6611,0.727661,-0.000755284,-0.00488801,0.000120886,-0.000751751,-0.00489155,0.0292177,0.00304157,0.0422433,699,1205,-45.6611,-0.727611
-518,-181,-45.9136,0.801147,0.000584552,-0.00445644,0.00158189,0.00103984,-0.00491173,0.280237,0.00367053,0.0421129,706,1205,-45.9136,-0.801164
-511,-181,0,0,0,0,0,0,0,0,0,-1,713,1205,0,0
-504,-181,0,0,0,0,0,0,0,0,0,-1,720,1205,0,0
-497,-181,0,0,0,0,0,0,0,0,0,-1,727,1205,0,0
-490,-181,0,0,0,0,0,0,0,0,0,-1,734,1205,0,0
-483,-181,0,0,0,0,0,0,0,0,0,-1,741,1205,0,0
-476,-181,0,0,0,0,0,0,0,0,0,-1,748,1205,0,0
-469,-181,0,0,0,0,0,0,0,0,0,-1,755,1205,0,0
-462,-181,0,0,0,0,0,0,0,0,0,-1,762,1205,0,0
-455,-181,0,0,0,0,0,0,0,0,0,-1,769,1205,0,0
-448,-181,0,0,0,0,0,0,0,0,0,-1,776,1205,0,0
-441,-181,0,0,0,0,0,0,0,0,0,-1,783,1205,0,0
-434,-181,0,0,0,0,0,0,0,0,0,-1,790,1205,0,0
-427,-181,0,0,0,0,0,0,0,0,0,-1,797,1205,0,0
-420,-181,0,0,0,0,0,0,0,0,0,-1,804,1205,0,0
-413,-181,0,0,0,0,0,0,0,0,0,-1,811,1205,0,0
-406,-181,0,0,0,0,0,0,0,0,0,-1,818,1205,0,0
-399,-181,0,0,0,0,0,0,0,0,0,-1,825,1205,0,0
-392,-181,0,0,0,0,0,0,0,0,0,-1,832,1205,0,0
-385,-181,0,0,0,0,0,0,0,0,0,-1,839,1205,0,0
-378,-181,0,0,0,0,0,0,0,0,0,-1,846,1205,0,0
-371,-181,0,0,0,0,0,0,0,0,0,-1,853,1205,0,0
-364,-181,0,0,0,0,0,0,0,0,0,-1,860,1205,0,0
-357,-181,0,0,0,0,0,0,0,0,0,-1,867,1205,0,0
-350,-181,0,0,0,0,0,0,0,0,0,-1,874,1205,0,0
-343,-181,0,0,0,0,0,0,0,0,0,-1,881,1205,0,0
-336,-181,0,0,0,0,0,0,0,0,0,-1,888,1205,0,0
-329,-181,0,0,0,0,0,0,0,0,0,-1,895,1205,0,0
-322,-181,0,0,0,0,0,0,0,0,0,-1,902,1205,0,0
-315,-181,0,0,0,0,0,0,0,0,0,-1,909,1205,0,0
-308,-181,0,0,0,0,0,0,0,0,0,-1,916,1205,0,0
-301,-181,0,0,0,0,0,0,0,0,0,-1,923,1205,0,0
-294,-181,0,0,0,0,0,0,0,0,0,-1,930,1205,0,0
-287,-181,0,0,0,0,0,0,0,0,0,-1,937,1205,0,0
-280,-181,0,0,0,0,0,0,0,0,0,-1,944,1205,0,0
-273,-181,0,0,0,0,0,0,0,0,0,-1,951,1205,0,0
-266,-181,0,0,0,0,0,0,0,0,0,-1,958,1205,0,0
-259,-181,0,0,0,0,0,0,0,0,0,-1,965,1205,0,0
-252,-181,0,0,0,0,0,0,0,0,0,-1,972,1205,0,0
-245,-181,0,0,0,0,0,0,0,0,0,-1,979,1205,0,0
-238,-181,0,0,0,0,0,0,0,0,0,-1,986,1205,0,0
-231,-181,0,0,0,0,0,0,0,0,0,-1,993,1205,0,0
-224,-181,0,0,0,0,0,0,0,0,0,-1,1000,1205,0,0
-217,-181,0,0,0,0,0,0,0,0,0,-1,1007,1205,0,0
-210,-181,0,0,0,0,0,0,0,0,0,-1,1014,1205,0,0
-203,-181,0,0,0,0,0,0,0,0,0,-1,1021,1205,0,0
-196,-181,0,0,0,0,0,0,0,0,0,-1,1028,1205,0,0
-189,-181,0,0,0,0,0,0,0,0,0,-1,1035,1205,0,0
-182,-181,0,0,0,0,0,0,0,0,0,-1,1042,1205,0,0
-175,-181,0,0,0,0,0,0,0,0,0,-1,1049,1205,0,0
-168,-181,0,0,0,0,0,0,0,0,0,-1,1056,1205,0,0
-161,-181,0,0,0,0,0,0,0,0,0,-1,1063,1205,0,0
-154,-181,0,0,0,0,0,0,0,0,0,-1,1070,1205,0,0
-147,-181,0,0,0,0,0,0,0,0,0,-1,1077,1205,0,0
-140,-181,0,0,0,0,0,0,0,0,0,-1,1084,1205,0,0
-133,-181,0,0,0,0,0,0,0,0,0,-1,1091,1205,0,0
-126,-181,0,0,0,0,0,0,0,0,0,-1,1098,1205,0,0
-119,-181,0,0,0,0,0,0,0,0,0,-1,1105,1205,0,0
-112,-181,0,0,0,0,0,0,0,0,0,-1,1112,1205,0,0
-105,-181,0,0,0,0,0,0,0,0,0,-1,1119,1205,0,0
-98,-181,0,0,0,0,0,0,0,0,0,-1,1126,1205,0,0
-91,-181,0,0,0,0,0,0,0,0,0,-1,1133,1205,0,0
-84,-181,0,0,0,0,0,0,0,0,0,-1,1140,1205,0,0
-77,-181,0,0,0,0,0,0,0,0,0,-1,1147,1205,0,0
-70,-181,0,0,0,0,0,0,0,0,0,-1,1154,1205,0,0
-63,-181,0,0,0,0,0,0,0,0,0,-1,1161,1205,0,0
-56,-181,0,0,0,0,0,0,0,0,0,-1,1168,1205,0,0
-49,-181,0,0,0,0,0,0,0,0,0,-1,1175,1205,0,0
-42,-181,0,0,0,0,0,0,0,0,0,-1,1182,1205,0,0
-35,-181,0,0,0,0,0,0,0,0,0,-1,1189,1205,0,0
-28,-181,0,0,0,0,0,0,0,0,0,-1,1196,1205,0,0
-21,-181,0,0,0,0,0,0,0,0,0,-1,1203,1205,0,0
-14,-181,0,0,0,0,0,0,0,0,0,-1,1210,1205,0,0
-7,-181,0,0,0,0,0,0,0,0,0,-1,1217,1205,0,0
0,-181,0,0,0,0,0,0,0,0,0,-1,1224,1205,0,0
7,-181,0,0,0,0,0,0,0,0,0,-1,1231,1205,0,0
14,-181,0,0,0,0,0,0,0,0,0,-1,1238,1205,0,0
21,-181,0,0,0,0,0,0,0,0,0,-1,1245,1205,0,0
28,-181,0,0,0,0,0,0,0,0,0,-1,1252,1205,0,0
35,-181,0,0,0,0,0,0,0,0,0,-1,1259,1205,0,0
42,-181,0,0,0,0,0,0,0,0,0,-1,1266,1205,0,0
49,-181,0,0,0,0,0,0,0,0,0,-1,1273,1205,0,0
56,-181,0,0,0,0,0,0,0,0,0,-1,1280,1205,0,0
63,-181,0,0,0,0,0,0,0,0,0,-1,1287,1205,0,0
70,-181,0,0,0,0,0,0,0,0,0,-1,1294,1205,0,0
77,-181,0,0,0,0,0,0,0,0,0,-1,1301,1205,0,0
84,-181,0,0,0,0,0,0,0,0,0,-1,1308,1205,0,0
91,-181,0,0,0,0,0,0,0,0,0,-1,1315,1205,0,0
98,-181,0,0,0,0,0,0,0,0,0,-1,1322,1205,0,0
105,-181,0,0,0,0,0,0,0,0,0,-1,1329,1205,0,0
112,-181,0,0,0,0,0,0,0,0,0,-1,1336,1205,0,0
119,-181,0,0,0,0,0,0,0,0,0,-1,1343,1205,0,0
126,-181,0,0,0,0,0,0,0,0,0,-1,1350,1205,0,0
133,-181,0,0,0,0,0,0,0,0,0,-1,1357,1205,0,0
140,-181,0,0,0,0,0,0,0,0,0,-1,1364,1205,0,0
147,-181,0,0,0,0,0,0,0,0,0,-1,1371,1205,0,0
154,-181,0,0,0,0,0,0,0,0,0,-1,1378,1205,0,0
161,-181,0,0,0,0,0,0,0,0,0,-1,1385,1205,0,0
168,-181,0,0,0,0,0,0,0,0,0,-1,1392,1205,0,0
175,-181,0,0,0,0,0,0,0,0,0,-1,1399,1205,0,0
182,-181,0,0,0,0,0,0,0,0,0,-1,1406,1205,0,0
189,-181,0,0,0,0,0,0,0,0,0,-1,1413,1205,0,0
196,-181,0,0,0,0,0,0,0,0,0,-1,1420,1205,0,0
203,-181,0,0,0,0,0,0,0,0,0,-1,1427,1205,0,0
210,-181,0,0,0,0,0,0,0,0,0,-1,1434,1205,0,0
217,-181,0,0,0,0,0,0,0,0,0,-1,1441,1205,0,0
224,-181,0,0,0,0,0,0,0,0,0,-1,1448,1205,0,0
231,-181,0,0,0,0,0,0,0,0,0,-1,1455,1205,0,0
238,-181,0,0,0,0,0,0,0,0,0,-1,1462,1205,0,0
245,-181,0,0,0,0,0,0,0,0,0,-1,1469,1205,0,0
252,-181,0,0,0,0,0,0,0,0,0,-1,1476,1205,0,0
259,-181,0,0,0,0,0,0,0,0,0,-1,1483,1205,0,0
266,-181,0,0,0,0,0,0,0,0,0,-1,1490,1205,0,0
273,-181,0,0,0,0,0,0,0,0,0,-1,1497,1205,0,0
280,-181,0,0,0,0,0,0,0,0,0,-1,1504,1205,0,0
287,-181,0,0,0,0,0,0,0,0,0,-1,1511,1205,0,0
294,-181,0,0,0,0,0,0,0,0,0,-1,1518,1205,0,0
301,-181,0,0,0,0,0,0,0,0,0,-1,1525,1205,0,0
308,-181,0,0,0,0,0,0,0,0,0,-1,1532,1205,0,0
315,-181,0,0,0,0,0,0,0,0,0,-1,1539,1205,0,0
322,-181,0,0,0,0,0,0,0,0,0,-1,1546,1205,0,0
329,-181,0,0,0,0,0,0,0,0,0,-1,1553,1205,0,0
336,-181,0,0,0,0,0,0,0,0,0,-1,1560,1205,0,0
343,-181,0,0,0,0,0,0,0,0,0,-1,1567,1205,0,0
350,-181,0,0,0,0,0,0,0,0,0,-1,1574,1205,0,0
357,-181,0,0,0,0,0,0,0,0,0,-1,1581,1205,0,0
364,-181,0,0,0,0,0,0,0,0,0,-1,1588,1205,0,0
371,-181,0,0,0,0,0,0,0,0,0,-1,1595,1205,0,0
378,-181,0,0,0,0,0,0,0,0,0,-1,1602,1205,0,0
385,-181,0,0,0,0,0,0,0,0,0,-1,1609,1205,0,0
392,-181,0,0,0,0,0,0,0,0,0,-1,1616,1205,0,0
399,-181,0,0,0,0,0,0,0,0,0,-1,1623,1205,0,0
406,-181,0,0,0,0,0,0,0,0,0,-1,1630,1205,0,0
413,-181,0,0,0,0,0,0,0,0,0,-1,1637,1205,0,0
420,-181,0,0,0,0,0,0,0,0,0,-1,1644,1205,0,0
427,-181,0,0,0,0,0,0,0,0,0,-1,1651,1205,0,0
434,-181,0,0,0,0,0,0,0,0,0,-1,1658,1205,0,0
441,-181,0,0,0,0,0,0,0,0,0,-1,1665,1205,0,0
448,-181,0,0,0,0,0,0,0,0,0,-1,1672,1205,0,0
455,-181,0,0,0,0,0,0,0,0,0,-1,1679,1205,0,0
462,-181,0,0,0,0,0,0,0,0,0,-1,1686,1205,0,0
469,-181,0,0,0,0,0,0,0,0,0,-1,1693,1205,0,0
476,-181,0,0,0,0,0,0,0,0,0,-1,1700,1205,0,0
483,-181,0,0,0,0,0,0,0,0,0,-1,1707,1205,0,0
490,-181,0,0,0,0,0,0,0,0,0,-1,1714,1205,0,0
497,-181,0,0,0,0,0,0,0,0,0,-1,1721,1205,0,0
504,-181,0,0,0,0,0,0,0,0,0,-1,1728,1205,0,0
511,-181,0,0,0,0,0,0,0,0,0,-1,1735,1205,0,0
518,-181,0,0,0,0,0,0,0,0,0,-1,1742,1205,0,0
525,-181,0,0,0,0,0,0,0,0,0,-1,1749,1205,0,0
532,-181,0,0,0,0,0,0,0,0,0,-1,1756,1205,0,0
539,-181,0,0,0,0,0,0,0,0,0,-1,1763,1205,0,0
546,-181,0,0,0,0,0,0,0,0,0,-1,1770,1205,0,0
553,-181,0,0,0,0,0,0,0,0,0,-1,1777,1205,0,0
560,-181,0,0,0,0,0,0,0,0,0,-1,1784,1205,0,0
567,-181,0,0,0,0,0,0,0,0,0,-1,1791,1205,0,0
574,-181,0,0,0,0,0,0,0,0,0,-1,1798,1205,0,0
581,-181,0,0,0,0,0,0,0,0,0,-1,1805,1205,0,0
588,-181,0,0,0,0,0,0,0,0,0,-1,1812,1205,0,0
595,-181,0,0,0,0,0,0,0,0,0,-1,1819,1205,0,0
602,-181,0,0,0,0,0,0,0,0,0,-1,1826,1205,0,0
609,-181,0,0,0,0,0,0,0,0,0,-1,1833,1205,0,0
616,-181,0,0,0,0,0,0,0,0,0,-1,1840,1205,0,0
623,-181,0,0,0,0,0,0,0,0,0,-1,1847,1205,0,0
630,-181,61.1533,2.80811,0.00405692,-0.00103062,-0.00139743,0.00441549,-0.00138919,-0.251173,0.00349986,0.037484,1854,1205,61.1533,-2.80809
637,-181,61.1823,2.67505,0.00313099,-0.00081304,-0.000861198,0.00331084,-0.000992886,-0.205873,0.00260212,0.0377256,1861,1205,61.1822,-2.67502
644,-181,61.2039,2.66895,0.00245628,-0.00043305,-0.000678142,0.00260753,-0.000584297,-0.219439,0.00196233,0.0410667,1868,1205,61.2039,-2.66894
651,-181,61.2621,2.76062,0.00207685,4.0739e-05,-0.000872312,0.00239945,-0.000281864,-0.354227,0.00170139,0.041323,1875,1205,61.262,-2.76056
658,-181,61.2593,2.81055,0.00183651,0.000390124,-0.00129819,0.00259935,-0.000372722,-0.531268,0.00186957,0.0350607,1882,1205,61.2593,-2.81052
665,-181,61.1277,2.79395,0.0016525,0.000474471,-0.00165956,0.00282447,-0.000697501,-0.614872,0.00215347,0.0310416,1889,1205,61.1277,-2.79397
672,-181,61.139,2.73315,0.0015241,0.000416178,-0.00187804,0.00292818,-0.000987896,-0.641981,0.00235163,0.0230635,1896,1205,61.1391,-2.73321
679,-181,61.1649,2.69031,0.00156171,0.000207456,-0.00195585,0.00295433,-0.00118516,-0.618753,0.00246162,0.028474,1903,1205,61.1649,-2.69032
686,-181,61.2386,2.66772,0,0,0,0,0,0,0,-1,1910,1205,61.2387,-2.66773
693,-181,36.1301,2.91016,0,0,0,0,0,0,0,-1,1917,1205,36.1302,-2.9102
700,-181,29.5845,6.58398,0,0,0,0,0,0,0,-1,1924,1205,29.5844,-6.58395
707,-181,50.8789,9.94153,0,0,0,0,0,0,0,-1,1931,1205,50.8789,-9.94152
714,-181,51.0674,9.70471,0,0,0,0,0,0,0,-1,1938,1205,51.0673,-9.70466
721,-181,50.3159,9.26294,0,0,0,0,0,0,0,-1,1945,1205,50.316,-9.26292
728,-181,50.6622,8.52319,0.000973933,-0.000431498,-0.000221618,0.00100805,-0.000465616,-0.152751,0.000869823,0.0469836,1952,1205,50.6622,-8.52315
735,-181,50.7797,7.98767,0.0010833,-0.000453962,0.000424377,0.00119267,-0.000563335,0.252236,0.0010353,0.0139995,1959,1205,50.7796,-7.98766
742,-181,50.7356,7.47522,0.00127116,0.000105116,0.00127672,0.00209168,-0.000715401,0.57121,0.00168434,0.0165362,1966,1205,50.7356,-7.47522
749,-181,50.7191,6.89355,0.0023081,0.0021106,0.00244928,0.00466062,-0.000241926,0.76525,0.00319078,0.0150649,1973,1205,50.7191,-6.8935
756,-181,50.7109,6.34021,0.00512316,0.00492652,0.0033405,0.0083668,0.00168289,0.770686,0.00511012,0.012471,1980,1205,50.7109,-6.34025
763,-181,50.6865,5.82642,0.00903033,0.00899155,0.00436459,0.0133756,0.00464631,0.783176,0.0078414,0.0166734,1987,1205,50.6866,-5.82644
770,-181,50.913,5.2085,0.0147204,0.014245,0.00529494,0.019783,0.00918241,0.762964,0.0114315,0.0473207,1994,1205,50.913,-5.20846
777,-181,51.2612,4.44592,0,0,0,0,0,0,0,-1,2001,1205,51.2612,-4.44591
784,-181,49.4673,-0.801392,0,0,0,0,0,0,0,-1,2008,1205,49.4674,0.801388
791,-181,53.8142,0.311157,0,0,0,0,0,0,0,-1,2015,1205,53.8141,-0.311182
798,-181,50.7852,0.0455322,0,0,0,0,0,0,0,-1,2022,1205,50.7851,-0.0455273
805,-181,0,0,0,0,0,0,0,0,0,-1,2029,1205,0,0
812,-181,0,0,0,0,0,0,0,0,0,-1,2036,1205,0,0
-700,-188,0,0,0,0,0,0,0,0,0,-1,524,1212,0,0
-693,-188,0,0,0,0,0,0,0,0,0,-1,531,1212,0,0
-686,-188,0,0,0,0,0,0,0,0,0,-1,538,1212,0,0
-679,-188,-33.3308,-0.740845,-0.0465613,0.0182075,-0.00130895,0.0182339,-0.0465877,-1.5506,0.0385998,0.0460233,545,1212,-33.3308,0.740807
-672,-188,-33.7225,-0.310791,-0.0387939,0.0183379,0.00301235,0.0184963,-0.0389523,1.51826,0.0338616,0.048008,552,1212,-33.7225,0.31076
-665,-188,-34.788,-0.439819,0,0,0,0,0,0,0,-1,559,1212,-34.788,0.43978
-658,-188,-34.8284,0.435059,-0.0249246,0.0152308,0.00582662,0.0160591,-0.0257529,1.42957,0.0243555,0.049966,566,1212,-34.8284,-0.435062
-651,-188,-34.7294,1.24463,-0.018955,0.0130865,0.00576728,0.0140929,-0.0199615,1.39802,0.0197584,0.0460405,573,1212,-34.7294,-1.2446
-644,-188,-34.7751,2.02405,-0.0138382,0.010827,0.0051199,0.0118476,-0.0148587,1.37405,0.0154515,0.0437127,580,1212,-34.7752,-2.02409
-637,-188,-34.7894,2.82141,-0.00970658,0.00853677,0.00407387,0.00940516,-0.010575,1.36078,0.0115421,0.0229673,587,1212,-34.7894,-2.82139
-630,-188,-34.8112,3.4259,-0.00650608,0.00623826,0.00278732,0.00682121,-0.00708903,1.36462,0.00803158,0.0109177,594,1212,-34.8112,-3.42589
-623,-188,-34.8609,4.03113,-0.0039523,0.00451639,0.0015576,0.00479378,-0.0042297,1.39455,0.0052131,0.0109459,601,1212,-34.8609,-4.0311
-616,-188,-34.8541,4.62598,-0.00290564,0.0020848,0.000290908,0.0021017,-0.00292254,1.51277,0.00291362,0.0106501,608,1212,-34.8541,-4.626
-609,-188,-34.8284,5.23608,-0.00338008,0.000207764,-0.00118695,0.000564888,-0.0037372,-1.27854,0.00269954,0.0128713,615,1212,-34.8284,-5.23604
-602,-188,-34.8301,5.85193,-0.00439679,-0.000999567,-0.00201982,-5.90605e-05,-0.00533729,-1.13501,0.00353867,0.0188892,622,1212,-34.8301,-5.85194
-595,-188,-34.9527,6.38281,-0.00462232,-0.00209323,-0.0017633,-0.00118791,-0.00552763,-1.09647,0.00335986,0.0352571,629,1212,-34.9527,-6.38284
-588,-188,-35.2359,6.98877,-0.0040754,-0.0024042,-0.00175151,-0.00129918,-0.00518043,-1.00797,0.0031123,0.0279809,636,1212,-35.2359,-6.9888
-581,-188,-35.2213,7.5415,0,0,0,0,0,0,0,-1,643,1212,-35.2212,-7.54155
-574,-188,-35.387,8.02673,0,0,0,0,0,0,0,-1,650,1212,-35.387,-8.02674
-567,-188,-19.5786,4.10388,0,0,0,0,0,0,0,-1,657,1212,-19.5785,-4.10383
-560,-188,-23.9507,0.416626,0,0,0,0,0,0,0,-1,664,1212,-23.9508,-0.416602
-553,-188,-46.1228,1.3313,0,0,0,0,0,0,0,-1,671,1212,-46.1228,-1.33125
-546,-188,-46.0919,1.13232,-0.0027495,-0.00457328,-0.00119672,-0.00215684,-0.00516594,-0.459832,0.00299606,0.0466461,678,1212,-46.0918,-1.13228
-539,-188,-46.1152,1.01831,-0.00254818,-0.00470261,-0.000891465,-0.00222715,-0.00502364,-0.345662,0.00290661,0.0376455,685,1212,-46.1152,-1.01831
-532,-188,-46.0917,1.02515,-0.0025497,-0.00486248,-0.000389849,-0.00248575,-0.00492643,-0.16258,0.00284431,0.0405059,692,1212,-46.0917,-1.02509
-525,-188,-45.9294,0.824829,-0.00236389,-0.00486904,0.000453263,-0.00228441,-0.00494853,0.173603,0.00285984,0.0394505,699,1212,-45.9295,-0.824874
-518,-188,-46.0348,1.01648,-0.000949756,-0.00449937,0.00200314,-4.82779e-05,-0.00540084,0.422881,0.00358458,0.039956,706,1212,-46.0348,-1.01647
-511,-188,-46.0132,0.97937,0.00146619,-0.0046391,0.00384653,0.0033242,-0.0064971,0.449982,0.00576812,0.0379142,713,1212,-46.0133,-0.97938
-504,-188,0,0,0,0,0,0,0,0,0,-1,720,1212,0,0
-497,-188,0,0,0,0,0,0,0,0,0,-1,727,1212,0,0
-490,-188,0,0,0,0,0,0,0,0,0,-1,734,1212,0,0
-483,-188,0,0,0,0,0,0,0,0,0,-1,741,1212,0,0
-476,-188,0,0,0,0,0,0,0,0,0,-1,748,1212,0,0
-469,-188,0,0,0,0,0,0,0,0,0,-1,755,1212,0,0
-462,-188,0,0,0,0,0,0,0,0,0,-1,762,1212,0,0
-455,-188,0,0,0,0,0,0,0,0,0,-1,769,1212,0,0
-448,-188,0,0,0,0,0,0,0,0,0,-1,776,1212,0,0
-441,-188,0,0,0,0,0,0,0,0,0,-1,783,1212,0,0
-434,-188,0,0,0,0,0,0,0,0,0,-1,790,1212,0,0
-427,-188,0,0,0,0,0,0,0,0,0,-1,797,1212,0,0
-420,-188,0,0,0,0,0,0,0,0,0,-1,804,1212,0,0
-413,-188,0,0,0,0,0,0,0,0,0,-1,811,1212,0,0
-406,-188,0,0,0,0,0,0,0,0,0,-1,818,1212,0,0
-399,-188,0,0,0,0,0,0,0,0,0,-1,825,1212,0,0
-392,-188,0,0,0,0,0,0,0,0,0,-1,832,1212,0,0
-385,-188,0,0,0,0,0,0,0,0,0,-1,839,1212,0,0
-378,-188,0,0,0,0,0,0,0,0,0,-1,846,1212,0,0
-371,-188,0,0,0,0,0,0,0,0,0,-1,853,1212,0,0
-364,-188,0,0,0,0,0,0,0,0,0,-1,860,1212,0,0
-357,-188,0,0,0,0,0,0,0,0,0,-1,867,1212,0,0
-350,-188,0,0,0,0,0,0,0,0,0,-1,874,1212,0,0
-343,-188,0,0,0,0,0,0,0,0,0,-1,881,1212,0,0
-336,-188,0,0,0,0,0,0,0,0,0,-1,888,1212,0,0
-329,-188,0,0,0,0,0,0,0,0,0,-1,895,1212,0,0
-322,-188,0,0,0,0,0,0,0,0,0,-1,902,1212,0,0
-315,-188,0,0,0,0,0,0,0,0,0,-1,909,1212,0,0
-308,-188,0,0,0,0,0,0,0,0,0,-1,916,1212,0,0
-301,-188,0,0,0,0,0,0,0,0,0,-1,923,1212,0,0
-294,-188,0,0,0,0,0,0,0,0,0,-1,930,1212,0,0
-287,-188,0,0,0,0,0,0,0,0,0,-1,937,1212,0,0
-280,-188,0,0,0,0,0,0,0,0,0,-1,944,1212,0,0
-273,-188,0,0,0,0,0,0,0,0,0,-1,951,1212,0,0
-266,-188,0,0,0,0,0,0,0,0,0,-1,958,1212,0,0
-259,-188,0,0,0,0,0,0,0,0,0,-1,965,1212,0,0
-252,-188,0,0,0,0,0,0,0,0,0,-1,972,1212,0,0
-245,-188,0,0,0,0,0,0,0,0,0,-1,979,1212,0,0
-238,-188,0,0,0,0,0,0,0,0,0,-1,986,1212,0,0
-231,-188,0,0,0,0,0,0,0,0,0,-1,993,1212,0,0
-224,-188,0,0,0,0,0,0,0,0,0,-1,1000,1212,0,0
-217,-188,0,0,0,0,0,0,0,0,0,-1,1007,1212,0,0
-210,-188,0,0,0,0,0,0,0,0,0,-1,1014,1212,0,0
-203,-188,0,0,0,0,0,0,0,0,0,-1,1021,1212,0,0
-196,-188,0,0,0,0,0,0,0,0,0,-1,1028,1212,0,0
-189,-188,0,0,0,0,0,0,0,0,0,-1,1035,1212,0,0
-182,-188,0,0,0,0,0,0,0,0,0,-1,1042,1212,0,0
-175,-188,0,0,0,0,0,0,0,0,0,-1,1049,1212,0,0
-168,-188,0,0,0,0,0,0,0,0,0,-1,1056,1212,0,0
-161,-188,0,0,0,0,0,0,0,0,0,-1,1063,1212,0,0
-154,-188,0,0,0,0,0,0,0,0,0,-1,1070,1212,0,0
-147,-188,0,0,0,0,0,0,0,0,0,-1,1077,1212,0,0
-140,-188,0,0,0,0,0,0,0,0,0,-1,1084,1212,0,0
-133,-188,0,0,0,0,0,0,0,0,0,-1,1091,1212,0,0
-126,-188,0,0,0,0,0,0,0,0,0,-1,1098,1212,0,0
-119,-188,0,0,0,0,0,0,0,0,0,-1,1105,1212,0,0
-112,-188,0,0,0,0,0,0,0,0,0,-1,1112,1212,0,0
-105,-188,0,0,0,0,0,0,0,0,0,-1,1119,1212,0,0
-98,-188,0,0,0,0,0,0,0,0,0,-1,1126,1212,0,0
-91,-188,0,0,0,0,0,0,0,0,0,-1,1133,1212,0,0
-84,-188,0,0,0,0,0,0,0,0,0,-1,1140,1212,0,0
-77,-188,0,0,0,0,0,0,0,0,0,-1,1147,1212,0,0
-70,-188,0,0,0,0,0,0,0,0,0,-1,1154,1212,0,0
-63,-188,0,0,0,0,0,0,0,0,0,-1,1161,1212,0,0
-56,-188,0,0,0,0,0,0,0,0,0,-1,1168,1212,0,0
-49,-188,0,0,0,0,0,0,0,0,0,-1,1175,1212,0,0
-42,-188,0,0,0,0,0,0,0,0,0,-1,1182,1212,0,0
-35,-188,0,0,0,0,0,0,0,0,0,-1,1189,1212,0,0
-28,-188,0,0,0,0,0,0,0,0,0,-1,1196,1212,0,0
-21,-188,0,0,0,0,0,0,0,0,0,-1,1203,1212,0,0
-14,-188,0,0,0,0,0,0,0,0,0,-1,1210,1212,0,0
-7,-188,0,0,0,0,0,0,0,0,0,-1,1217,1212,0,0
0,-188,0,0,0,0,0,0,0,0,0,-1,1224,1212,0,0
7,-188,0,0,0,0,0,0,0,0,0,-1,1231,1212,0,0
14,-188,0,0,0,0,0,0,0,0,0,-1,1238,1212,0,0
21,-188,0,0,0,0,0,0,0,0,0,-1,1245,1212,0,0
28,-188,0,0,0,0,0,0,0,0,0,-1,1252,1212,0,0
35,-188,0,0,0,0,0,0,0,0,0,-1,1259,1212,0,0
42,-188,0,0,0,0,0,0,0,0,0,-1,1266,1212,0,0
49,-188,0,0,0,0,0,0,0,0,0,-1,1273,1212,0,0
56,-188,0,0,0,0,0,0,0,0,0,-1,1280,1212,0,0
63,-188,0,0,0,0,0,0,0,0,0,-1,1287,1212,0,0
70,-188,0,0,0,0,0,0,0,0,0,-1,1294,1212,0,0
77,-188,0,0,0,0,0,0,0,0,0,-1,1301,1212,0,0
84,-188,0,0,0,0,0,0,0,0,0,-1,1308,1212,0,0
91,-188,0,0,0,0,0,0,0,0,0,-1,1315,1212,0,0
98,-188,0,0,0,0,0,0,0,0,0,-1,1322,1212,0,0
105,-188,0,0,0,0,0,0,0,0,0,-1,1329,1212,0,0
112,-188,0,0,0,0,0,0,0,0,0,-1,1336,1212,0,0
119,-188,0,0,0,0,0,0,0,0,0,-1,1343,1212,0,0
126,-188,0,0,0,0,0,0,0,0,0,-1,1350,1212,0,0
133,-188,0,0,0,0,0,0,0,0,0,-1,1357,1212,0,0
140,-188,0,0,0,0,0,0,0,0,0,-1,1364,1212,0,0
147,-188,0,0,0,0,0,0,0,0,0,-1,1371,1212,0,0
154,-188,0,0,0,0,0,0,0,0,0,-1,1378,1212,0,0
161,-188,0,0,0,0,0,0,0,0,0,-1,1385,1212,0,0
168,-188,0,0,0,0,0,0,0,0,0,-1,1392,1212,0,0
175,-188,0,0,0,0,0,0,0,0,0,-1,1399,1212,0,0
182,-188,0,0,0,0,0,0,0,0,0,-1,1406,1212,0,0
189,-188,0,0,0,0,0,0,0,0,0,-1,1413,1212,0,0
196,-188,0,0,0,0,0,0,0,0,0,-1,1420,1212,0,0
203,-188,0,0,0,0,0,0,0,0,0,-1,1427,1212,0,0
210,-188,0,0,0,0,0,0,0,0,0,-1,1434,1212,0,0
217,-188,0,0,0,0,0,0,0,0,0,-1,1441,1212,0,0
224,-188,0,0,0,0,0,0,0,0,0,-1,1448,1212,0,0
231,-188,0,0,0,0,0,0,0,0,0,-1,1455,1212,0,0
238,-188,0,0,0,0,0,0,0,0,0,-1,1462,1212,0,0
245,-188,0,0,0,0,0,0,0,0,0,-1,1469,1212,0,0
252,-188,0,0,0,0,0,0,0,0,0,-1,1476,1212,0,0
259,-188,0,0,0,0,0,0,0,0,0,-1,1483,1212,0,0
266,-188,0,0,0,0,0,0,0,0,0,-1,1490,1212,0,0
273,-188,0,0,0,0,0,0,0,0,0,-1,1497,1212,0,0
280,-188,0,0,0,0,0,0,0,0,0,-1,1504,1212,0,0
287,-188,0,0,0,0,0,0,0,0,0,-1,1511,1212,0,0
294,-188,0,0,0,0,0,0,0,0,0,-1,1518,1212,0,0
301,-188,0,0,0,0,0,0,0,0,0,-1,1525,1212,0,0
308,-188,0,0,0,0,0,0,0,0,0,-1,1532,1212,0,0
315,-188,0,0,0,0,0,0,0,0,0,-1,1539,1212,0,0
322,-188,0,0,0,0,0,0,0,0,0,-1,1546,1212,0,0
329,-188,0,0,0,0,0,0,0,0,0,-1,1553,1212,0,0
336,-188,0,0,0,0,0,0,0,0,0,-1,1560,1212,0,0
343,-188,0,0,0,0,0,0,0,0,0,-1,1567,1212,0,0
350,-188,0,0,0,0,0,0,0,0,0,-1,1574,1212,0,0
357,-188,0,0,0,0,0,0,0,0,0,-1,1581,1212,0,0
364,-188,0,0,0,0,0,0,0,0,0,-1,1588,1212,0,0
371,-188,0,0,0,0,0,0,0,0,0,-1,1595,1212,0,0
378,-188,0,0,0,0,0,0,0,0,0,-1,1602,1212,0,0
385,-188,0,0,0,0,0,0,0,0,0,-1,1609,1212,0,0
392,-188,0,0,0,0,0,0,0,0,0,-1,1616,1212,0,0
399,-188,0,0,0,0,0,0,0,0,0,-1,1623,1212,0,0
406,-188,0,0,0,0,0,0,0,0,0,-1,1630,1212,0,0
413,-188,0,0,0,0,0,0,0,0,0,-1,1637,1212,0,0
420,-188,0,0,0,0,0,0,0,0,0,-1,1644,1212,0,0
427,-188,0,0,0,0,0,0,0,0,0,-1,1651,1212,0,0
434,-188,0,0,0,0,0,0,0,0,0,-1,1658,1212,0,0
441,-188,0,0,0,0,0,0,0,0,0,-1,1665,1212,0,0
448,-188,0,0,0,0,0,0,0,0,0,-1,1672,1212,0,0
455,-188,0,0,0,0,0,0,0,0,0,-1,1679,1212,0,0
462,-188,0,0,0,0,0,0,0,0,0,-1,1686,1212,0,0
469,-188,0,0,0,0,0,0,0,0,0,-1,1693,1212,0,0
476,-188,0,0,0,0,0,0,0,0,0,-1,1700,1212,0,0
483,-188,0,0,0,0,0,0,0,0,0,-1,1707,1212,0,0
490,-188,0,0,0,0,0,0,0,0,0,-1,1714,1212,0,0
497,-188,0,0,0,0,0,0,0,0,0,-1,1721,1212,0,0
504,-188,0,0,0,0,0,0,0,0,0,-1,1728,1212,0,0
511,-188,0,0,0,0,0,0,0,0,0,-1,1735,1212,0,0
518,-188,0,0,0,0,0,0,0,0,0,-1,1742,1212,0,0
525,-188,0,0,0,0,0,0,0,0,0,-1,1749,1212,0,0
532,-188,0,0,0,0,0,0,0,0,0,-1,1756,1212,0,0
539,-188,0,0,0,0,0,0,0,0,0,-1,1763,1212,0,0
546,-188,0,0,0,0,0,0,0,0,0,-1,1770,1212,0,0
553,-188,0,0,0,0,0,0,0,0,0,-1,1777,1212,0,0
560,-188,0,0,0,0,0,0,0,0,0,-1,1784,1212,0,0
567,-188,0,0,0,0,0,0,0,0,0,-1,1791,1212,0,0
574,-188,0,0,0,0,0,0,0,0,0,-1,1798,1212,0,0
581,-188,0,0,0,0,0,0,0,0,0,-1,1805,1212,0,0
588,-188,0,0,0,0,0,0,0,0,0,-1,1812,1212,0,0
595,-188,0,0,0,0,0,0,0,0,0,-1,1819,1212,0,0
602,-188,0,0,0,0,0,0,0,0,0,-1,1826,1212,0,0
609,-188,0,0,0,0,0,0,0,0,0,-1,1833,1212,0,0
616,-188,0,0,0,0,0,0,0,0,0,-1,1840,1212,0,0
623,-188,0,0,0,0,0,0,0,0,0,-1,1847,1212,0,0
630,-188,61.1503,2.85449,0.00395044,-0.00227701,-0.000855395,0.0040658,-0.00239237,-0.134052,0.00377012,0.040776,1854,1212,61.1503,-2.85452
637,-188,61.3036,2.63293,0.00306838,-0.00144231,-0.000600418,0.00314693,-0.00152087,-0.130093,0.00274892,0.0418259,1861,1212,61.3035,-2.6329
644,-188,61.1429,2.68335,0.00247052,-0.000552086,-0.000667862,0.00261152,-0.000693077,-0.208053,0.00201222,0.0391537,1868,1212,61.143,-2.68336
651,-188,61.1121,2.72949,0.00217089,0.000290246,-0.00105939,0.00264709,-0.000185947,-0.422435,0.00182986,0.0350671,1875,1212,61.1121,-2.72944
658,-188,61.116,2.78967,0.00197515,0.000681182,-0.00151069,0.00297156,-0.000315236,-0.58308,0.00209405,0.0320683,1882,1212,61.116,-2.78962
665,-188,61.1356,2.78357,0.00180985,0.000648022,-0.00177338,0.00309503,-0.000637167,-0.627119,0.00230529,0.0285807,1889,1212,61.1357,-2.78357
672,-188,61.1521,2.68762,0.00173893,0.000494798,-0.00190011,0.0031162,-0.00088248,-0.627205,0.00242574,0.0247478,1896,1212,61.152,-2.68765
679,-188,61.1202,2.52844,0,0,0,0,0,0,0,-1,1903,1212,61.1203,-2.52838
686,-188,60.1007,2.41321,0,0,0,0,0,0,0,-1,1910,1212,60.1007,-2.41325
693,-188,35.9054,2.18042,0,0,0,0,0,0,0,-1,1917,1212,35.9054,-2.18038
700,-188,49.8562,10.5465,0,0,0,0,0,0,0,-1,1924,1212,49.8562,-10.5465
707,-188,50.3879,10.4354,0,0,0,0,0,0,0,-1,1931,1212,50.3879,-10.4354
714,-188,50.1322,9.56177,0,0,0,0,0,0,0,-1,1938,1212,50.1322,-9.56174
721,-188,49.9688,9.27454,0,0,0,0,0,0,0,-1,1945,1212,49.9687,-9.2745
728,-188,50.1852,8.58459,0.0012612,-0.000525548,-0.000343527,0.00132497,-0.00058932,-0.183549,0.00113209,0.0245447,1952,1212,50.1852,-8.58459
735,-188,50.1971,8.02454,0.00137962,-0.00056901,0.000378715,0.00145063,-0.000640025,0.185363,0.00123692,0.0139564,1959,1212,50.1971,-8.02458
742,-188,50.1624,7.47839,0.0016883,4.63686e-05,0.00137943,0.00247258,-0.000737908,0.516975,0.00194167,0.0148551,1966,1212,50.1624,-7.47844
749,-188,50.1599,6.91589,0.0029418,0.00172164,0.00268327,0.00508347,-0.000420037,0.673616,0.00353731,0.0143397,1973,1212,50.1599,-6.91592
756,-188,50.1404,6.34277,0.00598136,0.00384325,0.00379786,0.00885776,0.000966851,0.648204,0.00561073,0.013204,1980,1212,50.1403,-6.34278
763,-188,50.13,5.80151,0.0102274,0.00705831,0.00511025,0.0139931,0.00329259,0.635062,0.00844789,0.0178221,1987,1212,50.1299,-5.80151
770,-188,50.1382,5.23108,0.0165746,0.0113959,0.00642958,0.0209167,0.00705387,0.59397,0.0122877,0.0406401,1994,1212,50.1382,-5.23114
777,-188,50.2649,4.69678,0,0,0,0,0,0,0,-1,2001,1212,50.2649,-4.69681
784,-188,50.2876,-0.510742,0,0,0,0,0,0,0,-1,2008,1212,50.2875,0.510762
791,-188,51.6936,0.835083,0,0,0,0,0,0,0,-1,2015,1212,51.6937,-0.835076
798,-188,52.3022,2.24426,0,0,0,0,0,0,0,-1,2022,1212,52.3023,-2.24429
805,-188,0,0,0,0,0,0,0,0,0,-1,2029,1212,0,0
812,-188,0,0,0,0,0,0,0,0,0,-1,2036,1212,0,0
-700,-195,0,0,0,0,0,0,0,0,0,-1,524,1219,0,0
-693,-195,0,0,0,0,0,0,0,0,0,-1,531,1219,0,0
-686,-195,0,0,0,0,0,0,0,0,0,-1,538,1219,0,0
-679,-195,-32.7761,-0.546875,0,0,0,0,0,0,0,-1,545,1219,-32.7761,0.546892
-672,-195,-33.6914,-0.551514,-0.0489195,0.0129094,0.00849322,0.0140549,-0.050065,1.43674,0.038917,0.0481097,552,1219,-33.6914,0.551558
-665,-195,-33.5145,-0.523071,-0.040502,0.0119684,0.0094112,0.0136054,-0.0421389,1.39858,0.03356,0.0487073,559,1219,-33.5145,0.523088
-658,-195,-34.3343,0.405151,0,0,0,0,0,0,0,-1,566,1219,-34.3343,-0.405153
-651,-195,-34.0446,1.29468,0,0,0,0,0,0,0,-1,573,1219,-34.0446,-1.29463
-644,-195,-34.068,2.07288,-0.0188491,0.00794495,0.00727097,0.00979086,-0.020695,1.32217,0.0179724,0.0415437,580,1219,-34.068,-2.07283
-637,-195,-34.081,2.86926,-0.0134262,0.00648518,0.00579344,0.00804816,-0.0149892,1.30729,0.0135004,0.0234516,587,1219,-34.081,-2.86929
-630,-195,-34.1878,3.46826,-0.00901758,0.00496103,0.0041581,0.00610439,-0.0101609,1.30246,0.00948764,0.00905861,594,1219,-34.1878,-3.46821
-623,-195,-34.2244,4.05713,-0.00540694,0.00387965,0.00271472,0.00461501,-0.00614229,1.30627,0.00623156,0.00857499,601,1219,-34.2244,-4.05713
-616,-195,-34.2261,4.65979,-0.00315964,0.00208124,0.00123157,0.00235623,-0.00343462,1.35112,0.00336262,0.0097416,608,1219,-34.2261,-4.65983
-609,-195,-34.2267,5.271,-0.00271296,0.000376847,-0.000486271,0.000451569,-0.00278768,-1.41833,0.00202582,0.0174759,615,1219,-34.2267,-5.27104
-602,-195,-34.286,5.82727,-0.00351147,-0.000766312,-0.00144708,-0.000144396,-0.00413339,-1.16489,0.00270874,0.0210205,622,1219,-34.286,-5.82733
-595,-195,-34.3275,6.47461,-0.00387304,-0.00198045,-0.00141523,-0.00122429,-0.0046292,-1.08008,0.00276975,0.0292364,629,1219,-34.3275,-6.47457
-588,-195,-34.4216,7.18237,-0.00346174,-0.00234843,-0.00154217,-0.00126552,-0.00454464,-0.958598,0.00270834,0.0283176,636,1219,-34.4216,-7.18238
-581,-195,-34.1713,7.83997,0,0,0,0,0,0,0,-1,643,1219,-34.1713,-7.83996
-574,-195,-34.2657,7.45642,0,0,0,0,0,0,0,-1,650,1219,-34.2657,-7.45643
-567,-195,-20.6388,3.78369,0,0,0,0,0,0,0,-1,657,1219,-20.6388,-3.78369
-560,-195,-20.878,2.10388,0,0,0,0,0,0,0,-1,664,1219,-20.878,-2.10385
-553,-195,-41.595,0.613281,0,0,0,0,0,0,0,-1,671,1219,-41.595,-0.61334
-546,-195,-46.1393,1.37207,0,0,0,0,0,0,0,-1,678,1219,-46.1393,-1.37201
-539,-195,-46.0553,1.08411,-0.00322611,-0.00457622,-0.000603006,-0.002996,-0.00480633,-0.364542,0.00280294,0.0391675,685,1219,-46.0553,-1.08406
-532,-195,-46.0934,0.989746,-0.003558,-0.00462234,-0.000133357,-0.00354155,-0.00463879,-0.122768,0.0027994,0.0365094,692,1219,-46.0934,-0.989769
-525,-195,-46.1348,1.00635,-0.00394693,-0.00434215,0.000686143,-0.0034305,-0.00485857,0.645191,0.00288342,0.0406504,699,1219,-46.1348,-1.00631
-518,-195,-46.271,1.18433,-0.00313617,-0.00374902,0.00221625,-0.00120526,-0.00567993,0.716701,0.00345565,0.0404144,706,1219,-46.271,-1.18429
-511,-195,-46.1806,1.22656,-0.000604988,-0.00361336,0.00430339,0.00244953,-0.00666787,0.617268,0.0054485,0.0394555,713,1219,-46.1806,-1.22651
-504,-195,0,0,0,0,0,0,0,0,0,-1,720,1219,0,0
-497,-195,0,0,0,0,0,0,0,0,0,-1,727,1219,0,0
-490,-195,0,0,0,0,0,0,0,0,0,-1,734,1219,0,0
-483,-195,0,0,0,0,0,0,0,0,0,-1,741,1219,0,0
-476,-195,0,0,0,0,0,0,0,0,0,-1,748,1219,0,0
-469,-195,0,0,0,0,0,0,0,0,0,-1,755,1219,0,0
-462,-195,0,0,0,0,0,0,0,0,0,-1,762,1219,0,0
-455,-195,0,0,0,0,0,0,0,0,0,-1,769,1219,0,0
-448,-195,0,0,0,0,0,0,0,0,0,-1,776,1219,0,0
-441,-195,0,0,0,0,0,0,0,0,0,-1,783,1219,0,0
-434,-195,0,0,0,0,0,0,0,0,0,-1,790,1219,0,0
-427,-195,0,0,0,0,0,0,0,0,0,-1,797,1219,0,0
-420,-195,0,0,0,0,0,0,0,0,0,-1,804,1219,0,0
-413,-195,0,0,0,0,0,0,0,0,0,-1,811,1219,0,0
-406,-195,0,0,0,0,0,0,0,0,0,-1,818,1219,0,0
-399,-195,0,0,0,0,0,0,0,0,0,-1,825,1219,0,0
-392,-195,0,0,0,0,0,0,0,0,0,-1,832,1219,0,0
-385,-195,0,0,0,0,0,0,0,0,0,-1,839,1219,0,0
-378,-195,0,0,0,0,0,0,0,0,0,-1,846,1219,0,0
-371,-195,0,0,0,0,0,0,0,0,0,-1,853,1219,0,0
-364,-195,0,0,0,0,0,0,0,0,0,-1,860,1219,0,0
-357,-195,0,0,0,0,0,0,0,0,0,-1,867,1219,0,0
-350,-195,0,0,0,0,0,0,0,0,0,-1,874,1219,0,0
-343,-195,0,0,0,0,0,0,0,0,0,-1,881,1219,0,0
-336,-195,0,0,0,0,0,0,0,0,0,-1,888,1219,0,0
-329,-195,0,0,0,0,0,0,0,0,0,-1,895,1219,0,0
-322,-195,0,0,0,0,0,0,0,0,0,-1,902,1219,0,0
-315,-195,0,0,0,0,0,0,0,0,0,-1,909,1219,0,0
-308,-195,0,0,0,0,0,0,0,0,0,-1,916,1219,0,0
-301,-195,0,0,0,0,0,0,0,0,0,-1,923,1219,0,0
-294,-195,0,0,0,0,0,0,0,0,0,-1,930,1219,0,0
-287,-195,0,0,0,0,0,0,0,0,0,-1,937,1219,0,0
-280,-195,0,0,0,0,0,0,0,0,0,-1,944,1219,0,0
-273,-195,0,0,0,0,0,0,0,0,0,-1,951,1219,0,0
-266,-195,0,0,0,0,0,0,0,0,0,-1,958,1219,0,0
-259,-195,0,0,0,0,0,0,0,0,0,-1,965,1219,0,0
-252,-195,0,0,0,0,0,0,0,0,0,-1,972,1219,0,0
-245,-195,0,0,0,0,0,0,0,0,0,-1,979,1219,0,0
-238,-195,0,0,0,0,0,0,0,0,0,-1,986,1219,0,0
-231,-195,0,0,0,0,0,0,0,0,0,-1,993,1219,0,0
-224,-195,0,0,0,0,0,0,0,0,0,-1,1000,1219,0,0
-217,-195,0,0,0,0,0,0,0,0,0,-1,1007,1219,0,0
-210,-195,0,0,0,0,0,0,0,0,0,-1,1014,1219,0,0
-203,-195,0,0,0,0,0,0,0,0,0,-1,1021,1219,0,0
-196,-195,0,0,0,0,0,0,0,0,0,-1,1028,1219,0,0
-189,-195,0,0,0,0,0,0,0,0,0,-1,1035,1219,0,0
-182,-195,0,0,0,0,0,0,0,0,0,-1,1042,1219,0,0
-175,-195,0,0,0,0,0,0,0,0,0,-1,1049,1219,0,0
-168,-195,0,0,0,0,0,0,0,0,0,-1,1056,1219,0,0
-161,-195,0,0,0,0,0,0,0,0,0,-1,1063,1219,0,0
-154,-195,0,0,0,0,0,0,0,0,0,-1,1070,1219,0,0
-147,-195,0,0,0,0,0,0,0,0,0,-1,1077,1219,0,0
-140,-195,0,0,0,0,0,0,0,0,0,-1,1084,1219,0,0
-133,-195,0,0,0,0,0,0,0,0,0,-1,1091,1219,0,0
-126,-195,0,0,0,0,0,0,0,0,0,-1,1098,1219,0,0
-119,-195,0,0,0,0,0,0,0,0,0,-1,1105,1219,0,0
-112,-195,0,0,0,0,0,0,0,0,0,-1,1112,1219,0,0
-105,-195,0,0,0,0,0,0,0,0,0,-1,1119,1219,0,0
-98,-195,0,0,0,0,0,0,0,0,0,-1,1126,1219,0,0
-91,-195,0,0,0,0,0,0,0,0,0,-1,1133,1219,0,0
-84,-195,0,0,0,0,0,0,0,0,0,-1,1140,1219,0,0
-77,-195,0,0,0,0,0,0,0,0,0,-1,1147,1219,0,0
-70,-195,0,0,0,0,0,0,0,0,0,-1,1154,1219,0,0
-63,-195,0,0,0,0,0,0,0,0,0,-1,1161,1219,0,0
-56,-195,0,0,0,0,0,0,0,0,0,-1,1168,1219,0,0
-49,-195,0,0,0,0,0,0,0,0,0,-1,1175,1219,0,0
-42,-195,0,0,0,0,0,0,0,0,0,-1,1182,1219,0,0
-35,-195,0,0,0,0,0,0,0,0,0,-1,1189,1219,0,0
-28,-195,0,0,0,0,0,0,0,0,0,-1,1196,1219,0,0
-21,-195,0,0,0,0,0,0,0,0,0,-1,1203,1219,0,0
-14,-195,0,0,0,0,0,0,0,0,0,-1,1210,1219,0,0
-7,-195,0,0,0,0,0,0,0,0,0,-1,1217,1219,0,0
0,-195,0,0,0,0,0,0,0,0,0,-1,1224,1219,0,0
7,-195,0,0,0,0,0,0,0,0,0,-1,1231,1219,0,0
14,-195,0,0,0,0,0,0,0,0,0,-1,1238,1219,0,0
21,-195,0,0,0,0,0,0,0,0,0,-1,1245,1219,0,0
28,-195,0,0,0,0,0,0,0,0,0,-1,1252,1219,0,0
35,-195,0,0,0,0,0,0,0,0,0,-1,1259,1219,0,0
42,-195,0,0,0,0,0,0,0,0,0,-1,1266,1219,0,0
49,-195,0,0,0,0,0,0,0,0,0,-1,1273,1219,0,0
56,-195,0,0,0,0,0,0,0,0,0,-1,1280,1219,0,0
63,-195,0,0,0,0,0,0,0,0,0,-1,1287,1219,0,0
70,-195,0,0,0,0,0,0,0,0,0,-1,1294,1219,0,0
77,-195,0,0,0,0,0,0,0,0,0,-1,1301,1219,0,0
84,-195,0,0,0,0,0,0,0,0,0,-1,1308,1219,0,0
91,-195,0,0,0,0,0,0,0,0,0,-1,1315,1219,0,0
98,-195,0,0,0,0,0,0,0,0,0,-1,1322,1219,0,0
105,-195,0,0,0,0,0,0,0,0,0,-1,1329,1219,0,0
112,-195,0,0,0,0,0,0,0,0,0,-1,1336,1219,0,0
119,-195,0,0,0,0,0,0,0,0,0,-1,1343,1219,0,0
126,-195,0,0,0,0,0,0,0,0,0,-1,1350,1219,0,0
133,-195,0,0,0,0,0,0,0,0,0,-1,1357,1219,0,0
140,-195,0,0,0,0,0,0,0,0,0,-1,1364,1219,0,0
147,-195,0,0,0,0,0,0,0,0,0,-1,1371,1219,0,0
154,-195,0,0,0,0,0,0,0,0,0,-1,1378,1219,0,0
161,-195,0,0,0,0,0,0,0,0,0,-1,1385,1219,0,0
168,-195,0,0,0,0,0,0,0,0,0,-1,1392,1219,0,0
175,-195,0,0,0,0,0,0,0,0,0,-1,1399,1219,0,0
182,-195,0,0,0,0,0,0,0,0,0,-1,1406,1219,0,0
189,-195,0,0,0,0,0,0,0,0,0,-1,1413,1219,0,0
196,-195,0,0,0,0,0,0,0,0,0,-1,1420,1219,0,0
203,-195,0,0,0,0,0,0,0,0,0,-1,1427,1219,0,0
210,-195,0,0,0,0,0,0,0,0,0,-1,1434,1219,0,0
217,-195,0,0,0,0,0,0,0,0,0,-1,1441,1219,0,0
224,-195,0,0,0,0,0,0,0,0,0,-1,1448,1219,0,0
231,-195,0,0,0,0,0,0,0,0,0,-1,1455,1219,0,0
238,-195,0,0,0,0,0,0,0,0,0,-1,1462,1219,0,0
245,-195,0,0,0,0,0,0,0,0,0,-1,1469,1219,0,0
252,-195,0,0,0,0,0,0,0,0,0,-1,1476,1219,0,0
259,-195,0,0,0,0,0,0,0,0,0,-1,1483,1219,0,0
266,-195,0,0,0,0,0,0,0,0,0,-1,1490,1219,0,0
273,-195,0,0,0,0,0,0,0,0,0,-1,1497,1219,0,0
280,-195,0,0,0,0,0,0,0,0,0,-1,1504,1219,0,0
287,-195,0,0,0,0,0,0,0,0,0,-1,1511,1219,0,0
294,-195,0,0,0,0,0,0,0,0,0,-1,1518,1219,0,0
301,-195,0,0,0,0,0,0,0,0,0,-1,1525,1219,0,0
308,-195,0,0,0,0,0,0,0,0,0,-1,1532,1219,0,0
315,-195,0,0,0,0,0,0,0,0,0,-1,1539,1219,0,0
322,-195,0,0,0,0,0,0,0,0,0,-1,1546,1219,0,0
329,-195,0,0,0,0,0,0,0,0,0,-1,1553,1219,0,0
336,-195,0,0,0,0,0,0,0,0,0,-1,1560,1219,0,0
343,-195,0,0,0,0,0,0,0,0,0,-1,1567,1219,0,0
350,-195,0,0,0,0,0,0,0,0,0,-1,1574,1219,0,0
357,-195,0,0,0,0,0,0,0,0,0,-1,1581,1219,0,0
364,-195,0,0,0,0,0,0,0,0,0,-1,1588,1219,0,0
371,-195,0,0,0,0,0,0,0,0,0,-1,1595,1219,0,0
378,-195,0,0,0,0,0,0,0,0,0,-1,1602,1219,0,0
385,-195,0,0,0,0,0,0,0,0,0,-1,1609,1219,0,0
392,-195,0,0,0,0,0,0,0,0,0,-1,1616,1219,0,0
399,-195,0,0,0,0,0,0,0,0,0,-1,1623,1219,0,0
406,-195,0,0,0,0,0,0,0,0,0,-1,1630,1219,0,0
413,-195,0,0,0,0,0,0,0,0,0,-1,1637,1219,0,0
420,-195,0,0,0,0,0,0,0,0,0,-1,1644,1219,0,0
427,-195,0,0,0,0,0,0,0,0,0,-1,1651,1219,0,0
434,-195,0,0,0,0,0,0,0,0,0,-1,1658,1219,0,0
441,-195,0,0,0,0,0,0,0,0,0,-1,1665,1219,0,0
448,-195,0,0,0,0,0,0,0,0,0,-1,1672,1219,0,0
455,-195,0,0,0,0,0,0,0,0,0,-1,1679,1219,0,0
462,-195,0,0,0,0,0,0,0,0,0,-1,1686,1219,0,0
469,-195,0,0,0,0,0,0,0,0,0,-1,1693,1219,0,0
476,-195,0,0,0,0,0,0,0,0,0,-1,1700,1219,0,0
483,-195,0,0,0,0,0,0,0,0,0,-1,1707,1219,0,0
490,-195,0,0,0,0,0,0,0,0,0,-1,1714,1219,0,0
497,-195,0,0,0,0,0,0,0,0,0,-1,1721,1219,0,0
504,-195,0,0,0,0,0,0,0,0,0,-1,1728,1219,0,0
511,-195,0,0,0,0,0,0,0,0,0,-1,1735,1219,0,0
518,-195,0,0,0,0,0,0,0,0,0,-1,1742,1219,0,0
525,-195,0,0,0,0,0,0,0,0,0,-1,1749,1219,0,0
532,-195,0,0,0,0,0,0,0,0,0,-1,1756,1219,0,0
539,-195,0,0,0,0,0,0,0,0,0,-1,1763,1219,0,0
546,-195,0,0,0,0,0,0,0,0,0,-1,1770,1219,0,0
553,-195,0,0,0,0,0,0,0,0,0,-1,1777,1219,0,0
560,-195,0,0,0,0,0,0,0,0,0,-1,1784,1219,0,0
567,-195,0,0,0,0,0,0,0,0,0,-1,1791,1219,0,0
574,-195,0,0,0,0,0,0,0,0,0,-1,1798,1219,0,0
581,-195,0,0,0,0,0,0,0,0,0,-1,1805,1219,0,0
588,-195,0,0,0,0,0,0,0,0,0,-1,1812,1219,0,0
595,-195,0,0,0,0,0,0,0,0,0,-1,1819,1219,0,0
602,-195,0,0,0,0,0,0,0,0,0,-1,1826,1219,0,0
609,-195,0,0,0,0,0,0,0,0,0,-1,1833,1219,0,0
616,-195,0,0,0,0,0,0,0,0,0,-1,1840,1219,0,0
623,-195,0,0,0,0,0,0,0,0,0,-1,1847,1219,0,0
630,-195,61.1686,2.7373,0.00363023,-0.00300482,-0.000384974,0.00365249,-0.00302709,-0.0577628,0.00386209,0.0399885,1854,1219,61.1686,-2.73728
637,-195,61.2566,2.74316,0.002749,-0.0015526,-0.000486869,0.00280341,-0.00160702,-0.111307,0.00257741,0.041102,1861,1219,61.2566,-2.74318
644,-195,61.176,2.77002,0.00221124,-0.000153834,-0.000847458,0.00248355,-0.000426144,-0.310905,0.0018145,0.0373229,1868,1219,61.176,-2.76999
651,-195,61.1434,2.76208,0.00203231,0.000915634,-0.00141493,0.00299507,-4.71355e-05,-0.597475,0.00201261,0.0292394,1875,1219,61.1435,-2.76211
658,-195,61.1432,2.75598,0.00195667,0.00117491,-0.00183075,0.0034378,-0.000306224,-0.680223,0.00240046,0.0248945,1882,1219,61.1432,-2.75603
665,-195,61.1699,2.76111,0.00189321,0.000917727,-0.00196099,0.00342621,-0.000615268,-0.66351,0.00251444,0.0230473,1889,1219,61.17,-2.76115
672,-195,61.1907,2.60754,0.00187887,0.000572446,-0.00195672,0.00328853,-0.000837214,-0.6243,0.00251825,0.037273,1896,1219,61.1907,-2.60751
679,-195,61.1581,2.4303,0,0,0,0,0,0,0,-1,1903,1219,61.1581,-2.43036
686,-195,51.2117,1.94312,0,0,0,0,0,0,0,-1,1910,1219,51.2117,-1.9431
693,-195,24.4368,5.68298,0,0,0,0,0,0,0,-1,1917,1219,24.4368,-5.68293
700,-195,49.8887,10.9347,0,0,0,0,0,0,0,-1,1924,1219,49.8887,-10.9347
707,-195,49.7543,10.2648,0,0,0,0,0,0,0,-1,1931,1219,49.7542,-10.2648
714,-195,49.8195,9.77087,0,0,0,0,0,0,0,-1,1938,1219,49.8194,-9.77085
721,-195,49.6244,9.18958,0.00122582,-0.000918973,-0.000853986,0.00152431,-0.00121746,-0.336251,0.00158626,0.0342993,1945,1219,49.6243,-9.18954
728,-195,49.6471,8.62292,0.00118766,-0.000964433,-9.99479e-05,0.00119229,-0.000969065,-0.0463093,0.00125008,0.0122298,1952,1219,49.6471,-8.62296
735,-195,49.6385,8.02234,0.00123913,-0.000939569,0.000718677,0.00145484,-0.00115528,0.291592,0.00151026,0.013545,1959,1219,49.6385,-8.02233
742,-195,49.6205,7.47937,0.00154762,-0.000293519,0.00178593,0.00263628,-0.00138218,0.547431,0.00235742,0.0157579,1966,1219,49.6205,-7.47933
749,-195,49.5757,6.93848,0.00280759,0.00107959,0.00313522,0.00519569,-0.0013085,0.650946,0.00397246,0.0158594,1973,1219,49.5757,-6.93844
756,-195,49.5648,6.37878,0.00582572,0.00271057,0.00445848,0.00899087,-0.000454584,0.61735,0.00615104,0.0146475,1980,1219,49.5648,-6.37877
763,-195,49.5717,5.8197,0.0101198,0.0052418,0.00603501,0.0141901,0.00117158,0.593361,0.0090947,0.0204501,1987,1219,49.5716,-5.81973
770,-195,49.4547,5.34497,0.0168596,0.00886956,0.00780923,0.0216364,0.0040928,0.548965,0.013272,0.0419452,1994,1219,49.4547,-5.34497
777,-195,49.4004,4.98547,0,0,0,0,0,0,0,-1,2001,1219,49.4003,-4.98551
784,-195,51.2444,-0.069458,0,0,0,0,0,0,0,-1,2008,1219,51.2443,0.0694704
791,-195,50.6421,1.65222,0,0,0,0,0,0,0,-1,2015,1219,50.6422,-1.65218
798,-195,53.3943,2.08484,0,0,0,0,0,0,0,-1,2022,1219,53.3943,-2.08489
805,-195,0,0,0,0,0,0,0,0,0,-1,2029,1219,0,0
812,-195,0,0,0,0,0,0,0,0,0,-1,2036,1219,0,0
-700,-202,0,0,0,0,0,0,0,0,0,-1,524,1226,0,0
-693,-202,0,0,0,0,0,0,0,0,0,-1,531,1226,0,0
-686,-202,0,0,0,0,0,0,0,0,0,-1,538,1226,0,0
-679,-202,-33.5967,-0.996216,-0.0669301,0.00664338,0.00803097,0.00750981,-0.0677965,1.46333,0.0478976,0.0475262,545,1226,-33.5967,0.996192
-672,-202,-34.0692,-1.11804,-0.0580249,0.00587617,0.0102592,0.00748285,-0.0596316,1.41545,0.042469,0.0474685,552,1226,-34.0691,1.11803
-665,-202,-34.6028,-1.28735,-0.04875,0.00517497,0.0105596,0.00716902,-0.0507441,1.38416,0.0364548,0.0472522,559,1226,-34.6028,1.2873
-658,-202,-33.6674,-0.390991,0,0,0,0,0,0,0,-1,566,1226,-33.6673,0.390938
-651,-202,-33.6882,0.694336,0,0,0,0,0,0,0,-1,573,1226,-33.6882,-0.694347
-644,-202,-33.7075,1.797,-0.0237963,0.00380115,0.00766244,0.00578589,-0.0257811,1.31734,0.0194057,0.0459653,580,1226,-33.7075,-1.79694
-637,-202,-33.4485,2.78516,-0.0172087,0.00337087,0.00616136,0.0050745,-0.0189124,1.30103,0.0145968,0.0455553,587,1226,-33.4485,-2.78518
-630,-202,-33.5566,3.4436,-0.0116902,0.00282921,0.00454665,0.00413544,-0.0129964,1.29103,0.0103227,0.0202674,594,1226,-33.5566,-3.44361
-623,-202,-33.5992,4.06482,-0.00710983,0.00252624,0.00316688,0.00347385,-0.00805743,1.28005,0.00683065,0.00880945,601,1226,-33.5992,-4.06486
-616,-202,-33.6184,4.66406,-0.00373622,0.00152103,0.00175917,0.00205537,-0.00427056,1.27591,0.00372617,0.00825234,608,1226,-33.6184,-4.66408
-609,-202,-33.6261,5.29089,-0.00220334,0.000328718,7.8691e-05,0.000331161,-0.00220578,1.53976,0.00159243,0.0214023,615,1226,-33.6261,-5.29087
-602,-202,-33.7067,5.83508,-0.00250432,-0.000518343,-0.000874723,-0.000188015,-0.00283465,-1.20972,0.00183032,0.0219575,622,1226,-33.7067,-5.8351
-595,-202,-33.7603,6.479,-0.00296766,-0.00174299,-0.00100481,-0.00117863,-0.00353202,-1.05905,0.00207647,0.0155484,629,1226,-33.7603,-6.47897
-588,-202,-33.7599,7.08582,-0.00270327,-0.00225816,-0.00123227,-0.00122851,-0.00373293,-0.874738,0.00219677,0.0205653,636,1226,-33.76,-7.08577
-581,-202,-33.6591,7.68237,0,0,0,0,0,0,0,-1,643,1226,-33.6591,-7.68232
-574,-202,-26.922,5.99512,0,0,0,0,0,0,0,-1,650,1226,-26.922,-5.99512
-567,-202,-22.1768,4.56995,0,0,0,0,0,0,0,-1,657,1226,-22.1768,-4.56991
-560,-202,-10.929,2.73096,0,0,0,0,0,0,0,-1,664,1226,-10.929,-2.73092
-553,-202,-30.2701,1.474,0,0,0,0,0,0,0,-1,671,1226,-30.2701,-1.47395
-546,-202,-45.9542,1.09412,0,0,0,0,0,0,0,-1,678,1226,-45.9542,-1.09408
-539,-202,-45.9755,1.05762,-0.00363362,-0.00419698,-0.000127619,-0.00360605,-0.00422454,-0.212698,0.00263451,0.0413003,685,1226,-45.9755,-1.05763
-532,-202,-46.0412,0.980469,-0.00423756,-0.00406944,0.000298004,-0.00384387,-0.00446314,0.922864,0.00279199,0.0306714,692,1226,-46.0412,-0.980447
-525,-202,-46.1823,1.06897,-0.0050514,-0.00351578,0.00098146,-0.00303748,-0.00552971,1.11733,0.00319775,0.0355613,699,1226,-46.1822,-1.069
-518,-202,-46.4316,1.27856,-0.00496858,-0.00274048,0.00221901,-0.00137157,-0.0063375,1.01804,0.00385012,0.0403632,706,1226,-46.4316,-1.27858
-511,-202,-46.4054,1.29749,-0.00281367,-0.00226992,0.00425532,0.0017222,-0.00680579,0.8173,0.00520707,0.0406673,713,1226,-46.4054,-1.29748
-504,-202,0,0,0,0,0,0,0,0,0,-1,720,1226,0,0
-497,-202,0,0,0,0,0,0,0,0,0,-1,727,1226,0,0
-490,-202,0,0,0,0,0,0,0,0,0,-1,734,1226,0,0
-483,-202,0,0,0,0,0,0,0,0,0,-1,741,1226,0,0
-476,-202,0,0,0,0,0,0,0,0,0,-1,748,1226,0,0
-469,-202,0,0,0,0,0,0,0,0,0,-1,755,1226,0,0
-462,-202,0,0,0,0,0,0,0,0,0,-1,762,1226,0,0
-455,-202,0,0,0,0,0,0,0,0,0,-1,769,1226,0,0
-448,-202,0,0,0,0,0,0,0,0,0,-1,776,1226,0,0
-441,-202,0,0,0,0,0,0,0,0,0,-1,783,1226,0,0
-434,-202,0,0,0,0,0,0,0,0,0,-1,790,1226,0,0
-427,-202,0,0,0,0,0,0,0,0,0,-1,797,1226,0,0
-420,-202,0,0,0,0,0,0,0,0,0,-1,804,1226,0,0
-413,-202,0,0,0,0,0,0,0,0,0,-1,811,1226,0,0
-406,-202,0,0,0,0,0,0,0,0,0,-1,818,1226,0,0
-399,-202,0,0,0,0,0,0,0,0,0,-1,825,1226,0,0
-392,-202,0,0,0,0,0,0,0,0,0,-1,832,1226,0,0
-385,-202,0,0,0,0,0,0,0,0,0,-1,839,1226,0,0
-378,-202,0,0,0,0,0,0,0,0,0,-1,846,1226,0,0
-371,-202,0,0,0,0,0,0,0,0,0,-1,853,1226,0,0
-364,-202,0,0,0,0,0,0,0,0,0,-1,860,1226,0,0
-357,-202,0,0,0,0,0,0,0,0,0,-1,867,1226,0,0
-350,-202,0,0,0,0,0,0,0,0,0,-1,874,1226,0,0
-343,-202,0,0,0,0,0,0,0,0,0,-1,881,1226,0,0
-336,-202,0,0,0,0,0,0,0,0,0,-1,888,1226,0,0
-329,-202,0,0,0,0,0,0,0,0,0,-1,895,1226,0,0
-322,-202,0,0,0,0,0,0,0,0,0,-1,902,1226,0,0
-315,-202,0,0,0,0,0,0,0,0,0,-1,909,1226,0,0
-308,-202,0,0,0,0,0,0,0,0,0,-1,916,1226,0,0
-301,-202,0,0,0,0,0,0,0,0,0,-1,923,1226,0,0
-294,-202,0,0,0,0,0,0,0,0,0,-1,930,1226,0,0
-287,-202,0,0,0,0,0,0,0,0,0,-1,937,1226,0,0
-280,-202,0,0,0,0,0,0,0,0,0,-1,944,1226,0,0
-273,-202,0,0,0,0,0,0,0,0,0,-1,951,1226,0,0
-266,-202,0,0,0,0,0,0,0,0,0,-1,958,1226,0,0
-259,-202,0,0,0,0,0,0,0,0,0,-1,965,1226,0,0
-252,-202,0,0,0,0,0,0,0,0,0,-1,972,1226,0,0
-245,-202,0,0,0,0,0,0,0,0,0,-1,979,1226,0,0
-238,-202,0,0,0,0,0,0,0,0,0,-1,986,1226,0,0
-231,-202,0,0,0,0,0,0,0,0,0,-1,993,1226,0,0
-224,-202,0,0,0,0,0,0,0,0,0,-1,1000,1226,0,0
-217,-202,0,0,0,0,0,0,0,0,0,-1,1007,1226,0,0
-210,-202,0,0,0,0,0,0,0,0,0,-1,1014,1226,0,0
-203,-202,0,0,0,0,0,0,0,0,0,-1,1021,1226,0,0
-196,-202,0,0,0,0,0,0,0,0,0,-1,1028,1226,0,0
-189,-202,0,0,0,0,0,0,0,0,0,-1,1035,1226,0,0
-182,-202,0,0,0,0,0,0,0,0,0,-1,1042,1226,0,0
-175,-202,0,0,0,0,0,0,0,0,0,-1,1049,1226,0,0
-168,-202,0,0,0,0,0,0,0,0,0,-1,1056,1226,0,0
-161,-202,0,0,0,0,0,0,0,0,0,-1,1063,1226,0,0
-154,-202,0,0,0,0,0,0,0,0,0,-1,1070,1226,0,0
-147,-202,0,0,0,0,0,0,0,0,0,-1,1077,1226,0,0
-140,-202,0,0,0,0,0,0,0,0,0,-1,1084,1226,0,0
-133,-202,0,0,0,0,0,0,0,0,0,-1,1091,1226,0,0
-126,-202,0,0,0,0,0,0,0,0,0,-1,1098,1226,0,0
-119,-202,0,0,0,0,0,0,0,0,0,-1,1105,1226,0,0
-112,-202,0,0,0,0,0,0,0,0,0,-1,1112,1226,0,0
-105,-202,0,0,0,0,0,0,0,0,0,-1,1119,1226,0,0
-98,-202,0,0,0,0,0,0,0,0,0,-1,1126,1226,0,0
-91,-202,0,0,0,0,0,0,0,0,0,-1,1133,1226,0,0
-84,-202,0,0,0,0,0,0,0,0,0,-1,1140,1226,0,0
-77,-202,0,0,0,0,0,0,0,0,0,-1,1147,1226,0,0
-70,-202,0,0,0,0,0,0,0,0,0,-1,1154,1226,0,0
-63,-202,0,0,0,0,0,0,0,0,0,-1,1161,1226,0,0
-56,-202,0,0,0,0,0,0,0,0,0,-1,1168,1226,0,0
-49,-202,0,0,0,0,0,0,0,0,0,-1,1175,1226,0,0
-42,-202,0,0,0,0,0,0,0,0,0,-1,1182,1226,0,0
-35,-202,0,0,0,0,0,0,0,0,0,-1,1189,1226,0,0
-28,-202,0,0,0,0,0,0,0,0,0,-1,1196,1226,0,0
-21,-202,0,0,0,0,0,0,0,0,0,-1,1203,1226,0,0
-14,-202,0,0,0,0,0,0,0,0,0,-1,1210,1226,0,0
-7,-202,0,0,0,0,0,0,0,0,0,-1,1217,1226,0,0
0,-202,0,0,0,0,0,0,0,0,0,-1,1224,1226,0,0
7,-202,0,0,0,0,0,0,0,0,0,-1,1231,1226,0,0
14,-202,0,0,0,0,0,0,0,0,0,-1,1238,1226,0,0
21,-202,0,0,0,0,0,0,0,0,0,-1,1245,1226,0,0
28,-202,0,0,0,0,0,0,0,0,0,-1,1252,1226,0,0
35,-202,0,0,0,0,0,0,0,0,0,-1,1259,1226,0,0
42,-202,0,0,0,0,0,0,0,0,0,-1,1266,1226,0,0
49,-202,0,0,0,0,0,0,0,0,0,-1,1273,1226,0,0
56,-202,0,0,0,0,0,0,0,0,0,-1,1280,1226,0,0
63,-202,0,0,0,0,0,0,0,0,0,-1,1287,1226,0,0
70,-202,0,0,0,0,0,0,0,0,0,-1,1294,1226,0,0
77,-202,0,0,0,0,0,0,0,0,0,-1,1301,1226,0,0
84,-202,0,0,0,0,0,0,0,0,0,-1,1308,1226,0,0
91,-202,0,0,0,0,0,0,0,0,0,-1,1315,1226,0,0
98,-202,0,0,0,0,0,0,0,0,0,-1,1322,1226,0,0
105,-202,0,0,0,0,0,0,0,0,0,-1,1329,1226,0,0
112,-202,0,0,0,0,0,0,0,0,0,-1,1336,1226,0,0
119,-202,0,0,0,0,0,0,0,0,0,-1,1343,1226,0,0
126,-202,0,0,0,0,0,0,0,0,0,-1,1350,1226,0,0
133,-202,0,0,0,0,0,0,0,0,0,-1,1357,1226,0,0
140,-202,0,0,0,0,0,0,0,0,0,-1,1364,1226,0,0
147,-202,0,0,0,0,0,0,0,0,0,-1,1371,1226,0,0
154,-202,0,0,0,0,0,0,0,0,0,-1,1378,1226,0,0
161,-202,0,0,0,0,0,0,0,0,0,-1,1385,1226,0,0
168,-202,0,0,0,0,0,0,0,0,0,-1,1392,1226,0,0
175,-202,0,0,0,0,0,0,0,0,0,-1,1399,1226,0,0
182,-202,0,0,0,0,0,0,0,0,0,-1,1406,1226,0,0
189,-202,0,0,0,0,0,0,0,0,0,-1,1413,1226,0,0
196,-202,0,0,0,0,0,0,0,0,0,-1,1420,1226,0,0
203,-202,0,0,0,0,0,0,0,0,0,-1,1427,1226,0,0
210,-202,0,0,0,0,0,0,0,0,0,-1,1434,1226,0,0
217,-202,0,0,0,0,0,0,0,0,0,-1,1441,1226,0,0
224,-202,0,0,0,0,0,0,0,0,0,-1,1448,1226,0,0
231,-202,0,0,0,0,0,0,0,0,0,-1,1455,1226,0,0
238,-202,0,0,0,0,0,0,0,0,0,-1,1462,1226,0,0
245,-202,0,0,0,0,0,0,0,0,0,-1,1469,1226,0,0
252,-202,0,0,0,0,0,0,0,0,0,-1,1476,1226,0,0
259,-202,0,0,0,0,0,0,0,0,0,-1,1483,1226,0,0
266,-202,0,0,0,0,0,0,0,0,0,-1,1490,1226,0,0
273,-202,0,0,0,0,0,0,0,0,0,-1,1497,1226,0,0
280,-202,0,0,0,0,0,0,0,0,0,-1,1504,1226,0,0
287,-202,0,0,0,0,0,0,0,0,0,-1,1511,1226,0,0
294,-202,0,0,0,0,0,0,0,0,0,-1,1518,1226,0,0
301,-202,0,0,0,0,0,0,0,0,0,-1,1525,1226,0,0
308,-202,0,0,0,0,0,0,0,0,0,-1,1532,1226,0,0
315,-202,0,0,0,0,0,0,0,0,0,-1,1539,1226,0,0
322,-202,0,0,0,0,0,0,0,0,0,-1,1546,1226,0,0
329,-202,0,0,0,0,0,0,0,0,0,-1,1553,1226,0,0
336,-202,0,0,0,0,0,0,0,0,0,-1,1560,1226,0,0
343,-202,0,0,0,0,0,0,0,0,0,-1,1567,1226,0,0
350,-202,0,0,0,0,0,0,0,0,0,-1,1574,1226,0,0
357,-202,0,0,0,0,0,0,0,0,0,-1,1581,1226,0,0
364,-202,0,0,0,0,0,0,0,0,0,-1,1588,1226,0,0
371,-202,0,0,0,0,0,0,0,0,0,-1,1595,1226,0,0
378,-202,0,0,0,0,0,0,0,0,0,-1,1602,1226,0,0
385,-202,0,0,0,0,0,0,0,0,0,-1,1609,1226,0,0
392,-202,0,0,0,0,0,0,0,0,0,-1,1616,1226,0,0
399,-202,0,0,0,0,0,0,0,0,0,-1,1623,1226,0,0
406,-202,0,0,0,0,0,0,0,0,0,-1,1630,1226,0,0
413,-202,0,0,0,0,0,0,0,0,0,-1,1637,1226,0,0
420,-202,0,0,0,0,0,0,0,0,0,-1,1644,1226,0,0
427,-202,0,0,0,0,0,0,0,0,0,-1,1651,1226,0,0
434,-202,0,0,0,0,0,0,0,0,0,-1,1658,1226,0,0
441,-202,0,0,0,0,0,0,0,0,0,-1,1665,1226,0,0
448,-202,0,0,0,0,0,0,0,0,0,-1,1672,1226,0,0
455,-202,0,0,0,0,0,0,0,0,0,-1,1679,1226,0,0
462,-202,0,0,0,0,0,0,0,0,0,-1,1686,1226,0,0
469,-202,0,0,0,0,0,0,0,0,0,-1,1693,1226,0,0
476,-202,0,0,0,0,0,0,0,0,0,-1,1700,1226,0,0
483,-202,0,0,0,0,0,0,0,0,0,-1,1707,1226,0,0
490,-202,0,0,0,0,0,0,0,0,0,-1,1714,1226,0,0
497,-202,0,0,0,0,0,0,0,0,0,-1,1721,1226,0,0
504,-202,0,0,0,0,0,0,0,0,0,-1,1728,1226,0,0
511,-202,0,0,0,0,0,0,0,0,0,-1,1735,1226,0,0
518,-202,0,0,0,0,0,0,0,0,0,-1,1742,1226,0,0
525,-202,0,0,0,0,0,0,0,0,0,-1,1749,1226,0,0
532,-202,0,0,0,0,0,0,0,0,0,-1,1756,1226,0,0
539,-202,0,0,0,0,0,0,0,0,0,-1,1763,1226,0,0
546,-202,0,0,0,0,0,0,0,0,0,-1,1770,1226,0,0
553,-202,0,0,0,0,0,0,0,0,0,-1,1777,1226,0,0
560,-202,0,0,0,0,0,0,0,0,0,-1,1784,1226,0,0
567,-202,0,0,0,0,0,0,0,0,0,-1,1791,1226,0,0
574,-202,0,0,0,0,0,0,0,0,0,-1,1798,1226,0,0
581,-202,0,0,0,0,0,0,0,0,0,-1,1805,1226,0,0
588,-202,0,0,0,0,0,0,0,0,0,-1,1812,1226,0,0
595,-202,0,0,0,0,0,0,0,0,0,-1,1819,1226,0,0
602,-202,0,0,0,0,0,0,0,0,0,-1,1826,1226,0,0
609,-202,0,0,0,0,0,0,0,0,0,-1,1833,1226,0,0
616,-202,0,0,0,0,0,0,0,0,0,-1,1840,1226,0,0
623,-202,0,0,0,0,0,0,0,0,0,-1,1847,1226,0,0
630,-202,61.0841,2.58679,0,0,0,0,0,0,0,-1,1854,1226,61.0841,-2.58685
637,-202,61.2512,2.96265,0,0,0,0,0,0,0,-1,1861,1226,61.2513,-2.96265
644,-202,61.2423,2.77405,0.00187837,0.00106412,-0.00145319,0.00298038,-3.78928e-05,-0.648821,0.00199967,0.0343816,1868,1226,61.2424,-2.77401
651,-202,61.2242,2.73083,0.00181702,0.00209019,-0.00211282,0.00407084,-0.000163629,-0.817677,0.00277005,0.0278363,1875,1226,61.2242,-2.73088
658,-202,61.1882,2.71033,0.00182222,0.002044,-0.00240114,0.00433681,-0.000470583,-0.808472,0.00306015,0.0218129,1882,1226,61.1883,-2.7103
665,-202,61.2119,2.67322,0.00181043,0.00150559,-0.00234778,0.00401073,-0.000694709,-0.752983,0.00293295,0.0201357,1889,1226,61.2119,-2.67325
672,-202,61.3608,2.79089,0.0018124,0.000961562,-0.00219044,0.00361835,-0.000844385,-0.689484,0.00273745,0.0409775,1896,1226,61.3608,-2.79085
679,-202,61.5734,2.92529,0,0,0,0,0,0,0,-1,1903,1226,61.5733,-2.92534
686,-202,49.1708,2.15198,0,0,0,0,0,0,0,-1,1910,1226,49.1708,-2.15195
693,-202,49.0952,11.7555,0,0,0,0,0,0,0,-1,1917,1226,49.0953,-11.7555
700,-202,49.1582,10.9723,0.00150901,-0.000336381,-0.00139218,0.0022565,-0.00108388,-0.492748,0.00196778,0.0488366,1924,1226,49.1582,-10.9723
707,-202,49.1774,10.1434,0.00163999,-0.000931991,-0.00124919,0.00214683,-0.00143883,-0.385441,0.00208359,0.0337012,1931,1226,49.1773,-10.1435
714,-202,49.0979,9.63977,0.00147921,-0.00110463,-0.00113031,0.00190387,-0.00152929,-0.35939,0.00198607,0.032557,1938,1226,49.0979,-9.63971
721,-202,49.1278,9.27905,0.00107421,-0.00136669,-0.000636745,0.00123033,-0.0015228,-0.24044,0.00159251,0.0189892,1945,1226,49.1278,-9.27906
728,-202,49.1113,8.62671,0.000981027,-0.00131597,0.000189327,0.000996527,-0.00133147,0.081689,0.0013487,0.0111355,1952,1226,49.1113,-8.62675
735,-202,49.0802,8.05701,0.00100443,-0.00117955,0.00111268,0.00147144,-0.00164656,0.397391,0.00180112,0.0116309,1959,1226,49.0802,-8.05704
742,-202,49.0397,7.50745,0.00130605,-0.000504499,0.00225624,0.00283185,-0.0020303,0.594615,0.00281985,0.012649,1966,1226,49.0397,-7.50743
749,-202,48.9917,6.95398,0.00230573,0.000640158,0.00363548,0.00520259,-0.0022567,0.672805,0.00441715,0.0129986,1973,1226,48.9916,-6.95399
756,-202,49.0034,6.40503,0.00467434,0.00200105,0.00511099,0.00862057,-0.00194518,0.6575,0.0064933,0.01284,1980,1226,49.0034,-6.40501
763,-202,49.0673,5.89099,0.00821883,0.0040992,0.00688834,0.0133487,-0.0010307,0.640115,0.00926186,0.024673,1987,1226,49.0672,-5.89099
770,-202,49.0522,5.56323,0,0,0,0,0,0,0,-1,1994,1226,49.0522,-5.56322
777,-202,53.3003,-4.00098,0,0,0,0,0,0,0,-1,2001,1226,53.3002,4.00099
784,-202,52.9231,-1.28162,0,0,0,0,0,0,0,-1,2008,1226,52.9232,1.28167
791,-202,52.2668,1.22656,0,0,0,0,0,0,0,-1,2015,1226,52.2668,-1.22651
798,-202,51.8999,3.58789,0,0,0,0,0,0,0,-1,2022,1226,51.9,-3.58791
805,-202,0,0,0,0,0,0,0,0,0,-1,2029,1226,0,0
812,-202,0,0,0,0,0,0,0,0,0,-1,2036,1226,0,0
-700,-209,0,0,0,0,0,0,0,0,0,-1,524,1233,0,0
-693,-209,0,0,0,0,0,0,0,0,0,-1,531,1233,0,0
-686,-209,0,0,0,0,0,0,0,0,0,-1,538,1233,0,0
-679,-209,-33.7623,-1.23682,0,0,0,0,0,0,0,-1,545,1233,-33.7623,1.23681
-672,-209,-34.3106,-1.50024,0,0,0,0,0,0,0,-1,552,1233,-34.3106,1.50025
-665,-209,-34.8839,-1.72302,0,0,0,0,0,0,0,-1,559,1233,-34.8839,1.72307
-658,-209,-43.0598,0.798096,0,0,0,0,0,0,0,-1,566,1233,-43.0598,-0.798099
-651,-209,-33.521,0.669434,0,0,0,0,0,0,0,-1,573,1233,-33.521,-0.669469
-644,-209,-33.5486,1.78784,0,0,0,0,0,0,0,-1,580,1233,-33.5486,-1.78784
-637,-209,-32.7446,2.68042,0,0,0,0,0,0,0,-1,587,1233,-32.7446,-2.68041
-630,-209,-32.8141,3.37793,-0.0150062,0.000566826,0.00482744,0.00194186,-0.0163812,1.29331,0.0116223,0.0345541,594,1233,-32.8141,-3.37792
-623,-209,-32.9641,4.08203,-0.00945379,0.0010314,0.00354361,0.00211668,-0.0105391,1.2736,0.00782759,0.0151245,601,1233,-32.9641,-4.08207
-616,-209,-33.0029,4.71436,-0.00497416,0.000806378,0.00228689,0.00160169,-0.00576948,1.23611,0.00447677,0.0126505,608,1233,-33.0029,-4.7144
-609,-209,-33.0296,5.3219,-0.00217719,0.000245585,0.000632334,0.000400692,-0.0023323,1.33025,0.0017042,0.0157518,615,1233,-33.0296,-5.32185
-602,-209,-33.0821,5.92944,-0.00160475,-0.000240008,-0.000466435,-9.58251e-05,-0.00174893,-1.271,0.00113536,0.017526,622,1233,-33.0821,-5.92944
-595,-209,-33.0783,6.52393,-0.00203231,-0.00144366,-0.000781032,-0.000903333,-0.00257263,-0.96559,0.00150709,0.0118793,629,1233,-33.0783,-6.52394
-588,-209,-33.119,7.16418,-0.00194993,-0.00213309,-0.000995238,-0.00104207,-0.00304095,-0.739518,0.00178443,0.0238585,636,1233,-33.1189,-7.16417
-581,-209,-33.1685,7.79749,0,0,0,0,0,0,0,-1,643,1233,-33.1684,-7.79743
-574,-209,-32.6694,9.20959,0,0,0,0,0,0,0,-1,650,1233,-32.6694,-9.20965
-567,-209,-26.2951,6.92981,0,0,0,0,0,0,0,-1,657,1233,-26.2951,-6.92986
-560,-209,-13.9294,4.16626,0,0,0,0,0,0,0,-1,664,1233,-13.9294,-4.16621
-553,-209,-22.7542,0.748779,0,0,0,0,0,0,0,-1,671,1233,-22.7541,-0.748796
-546,-209,-44.691,0.142822,0,0,0,0,0,0,0,-1,678,1233,-44.6911,-0.142844
-539,-209,-45.9403,1.03149,0,0,0,0,0,0,0,-1,685,1233,-45.9403,-1.03146
-532,-209,-45.9633,1.06128,-0.00482141,-0.00319906,0.000694745,-0.00294221,-0.00507826,1.21668,0.00294422,0.0326971,692,1233,-45.9633,-1.0613
-525,-209,-46.1481,1.18835,-0.00582371,-0.00228767,0.00128823,-0.00186813,-0.00624325,1.25595,0.00370014,0.0329804,699,1233,-46.1481,-1.18836
-518,-209,-46.3367,1.22424,-0.00624817,-0.00124262,0.00224696,-0.000381953,-0.00710883,1.205,0.00461717,0.0425674,706,1233,-46.3367,-1.22421
-511,-209,-46.3565,1.1239,-0.00479451,-0.000387641,0.00401758,0.00199107,-0.00717322,1.03622,0.00556584,0.0443328,713,1233,-46.3565,-1.12395
-504,-209,0,0,0,0,0,0,0,0,0,-1,720,1233,0,0
-497,-209,0,0,0,0,0,0,0,0,0,-1,727,1233,0,0
-490,-209,0,0,0,0,0,0,0,0,0,-1,734,1233,0,0
-483,-209,0,0,0,0,0,0,0,0,0,-1,741,1233,0,0
-476,-209,0,0,0,0,0,0,0,0,0,-1,748,1233,0,0
-469,-209,0,0,0,0,0,0,0,0,0,-1,755,1233,0,0
-462,-209,0,0,0,0,0,0,0,0,0,-1,762,1233,0,0
-455,-209,0,0,0,0,0,0,0,0,0,-1,769,1233,0,0
-448,-209,0,0,0,0,0,0,0,0,0,-1,776,1233,0,0
-441,-209,0,0,0,0,0,0,0,0,0,-1,783,1233,0,0
-434,-209,0,0,0,0,0,0,0,0,0,-1,790,1233,0,0
-427,-209,0,0,0,0,0,0,0,0,0,-1,797,1233,0,0
-420,-209,0,0,0,0,0,0,0,0,0,-1,804,1233,0,0
-413,-209,0,0,0,0,0,0,0,0,0,-1,811,1233,0,0
-406,-209,0,0,0,0,0,0,0,0,0,-1,818,1233,0,0
-399,-209,0,0,0,0,0,0,0,0,0,-1,825,1233,0,0
-392,-209,0,0,0,0,0,0,0,0,0,-1,832,1233,0,0
-385,-209,0,0,0,0,0,0,0,0,0,-1,839,1233,0,0
-378,-209,0,0,0,0,0,0,0,0,0,-1,846,1233,0,0
-371,-209,0,0,0,0,0,0,0,0,0,-1,853,1233,0,0
-364,-209,0,0,0,0,0,0,0,0,0,-1,860,1233,0,0
-357,-209,0,0,0,0,0,0,0,0,0,-1,867,1233,0,0
-350,-209,0,0,0,0,0,0,0,0,0,-1,874,1233,0,0
-343,-209,0,0,0,0,0,0,0,0,0,-1,881,1233,0,0
-336,-209,0,0,0,0,0,0,0,0,0,-1,888,1233,0,0
-329,-209,0,0,0,0,0,0,0,0,0,-1,895,1233,0,0
-322,-209,0,0,0,0,0,0,0,0,0,-1,902,1233,0,0
-315,-209,0,0,0,0,0,0,0,0,0,-1,909,1233,0,0
-308,-209,0,0,0,0,0,0,0,0,0,-1,916,1233,0,0
-301,-209,0,0,0,0,0,0,0,0,0,-1,923,1233,0,0
-294,-209,0,0,0,0,0,0,0,0,0,-1,930,1233,0,0
-287,-209,0,0,0,0,0,0,0,0,0,-1,937,1233,0,0
-280,-209,0,0,0,0,0,0,0,0,0,-1,944,1233,0,0
-273,-209,0,0,0,0,0,0,0,0,0,-1,951,1233,0,0
-266,-209,0,0,0,0,0,0,0,0,0,-1,958,1233,0,0
-259,-209,0,0,0,0,0,0,0,0,0,-1,965,1233,0,0
-252,-209,0,0,0,0,0,0,0,0,0,-1,972,1233,0,0
-245,-209,0,0,0,0,0,0,0,0,0,-1,979,1233,0,0
-238,-209,0,0,0,0,0,0,0,0,0,-1,986,1233,0,0
-231,-209,0,0,0,0,0,0,0,0,0,-1,993,1233,0,0
-224,-209,0,0,0,0,0,0,0,0,0,-1,1000,1233,0,0
-217,-209,0,0,0,0,0,0,0,0,0,-1,1007,1233,0,0
-210,-209,0,0,0,0,0,0,0,0,0,-1,1014,1233,0,0
-203,-209,0,0,0,0,0,0,0,0,0,-1,1021,1233,0,0
-196,-209,0,0,0,0,0,0,0,0,0,-1,1028,1233,0,0
-189,-209,0,0,0,0,0,0,0,0,0,-1,1035,1233,0,0
-182,-209,0,0,0,0,0,0,0,0,0,-1,1042,1233,0,0
-175,-209,0,0,0,0,0,0,0,0,0,-1,1049,1233,0,0
-168,-209,0,0,0,0,0,0,0,0,0,-1,1056,1233,0,0
-161,-209,0,0,0,0,0,0,0,0,0,-1,1063,1233,0,0
-154,-209,0,0,0,0,0,0,0,0,0,-1,1070,1233,0,0
-147,-209,0,0,0,0,0,0,0,0,0,-1,1077,1233,0,0
-140,-209,0,0,0,0,0,0,0,0,0,-1,1084,1233,0,0
-133,-209,0,0,0,0,0,0,0,0,0,-1,1091,1233,0,0
-126,-209,0,0,0,0,0,0,0,0,0,-1,1098,1233,0,0
-119,-209,0,0,0,0,0,0,0,0,0,-1,1105,1233,0,0
-112,-209,0,0,0,0,0,0,0,0,0,-1,1112,1233,0,0
-105,-209,0,0,0,0,0,0,0,0,0,-1,1119,1233,0,0
-98,-209,0,0,0,0,0,0,0,0,0,-1,1126,1233,0,0
-91,-209,0,0,0,0,0,0,0,0,0,-1,1133,1233,0,0
-84,-209,0,0,0,0,0,0,0,0,0,-1,1140,1233,0,0
-77,-209,0,0,0,0,0,0,0,0,0,-1,1147,1233,0,0
-70,-209,0,0,0,0,0,0,0,0,0,-1,1154,1233,0,0
-63,-209,0,0,0,0,0,0,0,0,0,-1,1161,1233,0,0
-56,-209,0,0,0,0,0,0,0,0,0,-1,1168,1233,0,0
-49,-209,0,0,0,0,0,0,0,0,0,-1,1175,1233,0,0
-42,-209,0,0,0,0,0,0,0,0,0,-1,1182,1233,0,0
-35,-209,0,0,0,0,0,0,0,0,0,-1,1189,1233,0,0
-28,-209,0,0,0,0,0,0,0,0,0,-1,1196,1233,0,0
-21,-209,0,0,0,0,0,0,0,0,0,-1,1203,1233,0,0
-14,-209,0,0,0,0,0,0,0,0,0,-1,1210,1233,0,0
-7,-209,0,0,0,0,0,0,0,0,0,-1,1217,1233,0,0
0,-209,0,0,0,0,0,0,0,0,0,-1,1224,1233,0,0
7,-209,0,0,0,0,0,0,0,0,0,-1,1231,1233,0,0
14,-209,0,0,0,0,0,0,0,0,0,-1,1238,1233,0,0
21,-209,0,0,0,0,0,0,0,0,0,-1,1245,1233,0,0
28,-209,0,0,0,0,0,0,0,0,0,-1,1252,1233,0,0
35,-209,0,0,0,0,0,0,0,0,0,-1,1259,1233,0,0
42,-209,0,0,0,0,0,0,0,0,0,-1,1266,1233,0,0
49,-209,0,0,0,0,0,0,0,0,0,-1,1273,1233,0,0
56,-209,0,0,0,0,0,0,0,0,0,-1,1280,1233,0,0
63,-209,0,0,0,0,0,0,0,0,0,-1,1287,1233,0,0
70,-209,0,0,0,0,0,0,0,0,0,-1,1294,1233,0,0
77,-209,0,0,0,0,0,0,0,0,0,-1,1301,1233,0,0
84,-209,0,0,0,0,0,0,0,0,0,-1,1308,1233,0,0
91,-209,0,0,0,0,0,0,0,0,0,-1,1315,1233,0,0
98,-209,0,0,0,0,0,0,0,0,0,-1,1322,1233,0,0
105,-209,0,0,0,0,0,0,0,0,0,-1,1329,1233,0,0
112,-209,0,0,0,0,0,0,0,0,0,-1,1336,1233,0,0
119,-209,0,0,0,0,0,0,0,0,0,-1,1343,1233,0,0
126,-209,0,0,0,0,0,0,0,0,0,-1,1350,1233,0,0
133,-209,0,0,0,0,0,0,0,0,0,-1,1357,1233,0,0
140,-209,0,0,0,0,0,0,0,0,0,-1,1364,1233,0,0
147,-209,0,0,0,0,0,0,0,0,0,-1,1371,1233,0,0
154,-209,0,0,0,0,0,0,0,0,0,-1,1378,1233,0,0
161,-209,0,0,0,0,0,0,0,0,0,-1,1385,1233,0,0
168,-209,0,0,0,0,0,0,0,0,0,-1,1392,1233,0,0
175,-209,0,0,0,0,0,0,0,0,0,-1,1399,1233,0,0
182,-209,0,0,0,0,0,0,0,0,0,-1,1406,1233,0,0
189,-209,0,0,0,0,0,0,0,0,0,-1,1413,1233,0,0
196,-209,0,0,0,0,0,0,0,0,0,-1,1420,1233,0,0
203,-209,0,0,0,0,0,0,0,0,0,-1,1427,1233,0,0
210,-209,0,0,0,0,0,0,0,0,0,-1,1434,1233,0,0
217,-209,0,0,0,0,0,0,0,0,0,-1,1441,1233,0,0
224,-209,0,0,0,0,0,0,0,0,0,-1,1448,1233,0,0
231,-209,0,0,0,0,0,0,0,0,0,-1,1455,1233,0,0
238,-209,0,0,0,0,0,0,0,0,0,-1,1462,1233,0,0
245,-209,0,0,0,0,0,0,0,0,0,-1,1469,1233,0,0
252,-209,0,0,0,0,0,0,0,0,0,-1,1476,1233,0,0
259,-209,0,0,0,0,0,0,0,0,0,-1,1483,1233,0,0
266,-209,0,0,0,0,0,0,0,0,0,-1,1490,1233,0,0
273,-209,0,0,0,0,0,0,0,0,0,-1,1497,1233,0,0
280,-209,0,0,0,0,0,0,0,0,0,-1,1504,1233,0,0
287,-209,0,0,0,0,0,0,0,0,0,-1,1511,1233,0,0
294,-209,0,0,0,0,0,0,0,0,0,-1,1518,1233,0,0
301,-209,0,0,0,0,0,0,0,0,0,-1,1525,1233,0,0
308,-209,0,0,0,0,0,0,0,0,0,-1,1532,1233,0,0
315,-209,0,0,0,0,0,0,0,0,0,-1,1539,1233,0,0
322,-209,0,0,0,0,0,0,0,0,0,-1,1546,1233,0,0
329,-209,0,0,0,0,0,0,0,0,0,-1,1553,1233,0,0
336,-209,0,0,0,0,0,0,0,0,0,-1,1560,1233,0,0
343,-209,0,0,0,0,0,0,0,0,0,-1,1567,1233,0,0
350,-209,0,0,0,0,0,0,0,0,0,-1,1574,1233,0,0
357,-209,0,0,0,0,0,0,0,0,0,-1,1581,1233,0,0
364,-209,0,0,0,0,0,0,0,0,0,-1,1588,1233,0,0
371,-209,0,0,0,0,0,0,0,0,0,-1,1595,1233,0,0
378,-209,0,0,0,0,0,0,0,0,0,-1,1602,1233,0,0
385,-209,0,0,0,0,0,0,0,0,0,-1,1609,1233,0,0
392,-209,0,0,0,0,0,0,0,0,0,-1,1616,1233,0,0
399,-209,0,0,0,0,0,0,0,0,0,-1,1623,1233,0,0
406,-209,0,0,0,0,0,0,0,0,0,-1,1630,1233,0,0
413,-209,0,0,0,0,0,0,0,0,0,-1,1637,1233,0,0
420,-209,0,0,0,0,0,0,0,0,0,-1,1644,1233,0,0
427,-209,0,0,0,0,0,0,0,0,0,-1,1651,1233,0,0
434,-209,0,0,0,0,0,0,0,0,0,-1,1658,1233,0,0
441,-209,0,0,0,0,0,0,0,0,0,-1,1665,1233,0,0
448,-209,0,0,0,0,0,0,0,0,0,-1,1672,1233,0,0
455,-209,0,0,0,0,0,0,0,0,0,-1,1679,1233,0,0
462,-209,0,0,0,0,0,0,0,0,0,-1,1686,1233,0,0
469,-209,0,0,0,0,0,0,0,0,0,-1,1693,1233,0,0
476,-209,0,0,0,0,0,0,0,0,0,-1,1700,1233,0,0
483,-209,0,0,0,0,0,0,0,0,0,-1,1707,1233,0,0
490,-209,0,0,0,0,0,0,0,0,0,-1,1714,1233,0,0
497,-209,0,0,0,0,0,0,0,0,0,-1,1721,1233,0,0
504,-209,0,0,0,0,0,0,0,0,0,-1,1728,1233,0,0
511,-209,0,0,0,0,0,0,0,0,0,-1,1735,1233,0,0
518,-209,0,0,0,0,0,0,0,0,0,-1,1742,1233,0,0
525,-209,0,0,0,0,0,0,0,0,0,-1,1749,1233,0,0
532,-209,0,0,0,0,0,0,0,0,0,-1,1756,1233,0,0
539,-209,0,0,0,0,0,0,0,0,0,-1,1763,1233,0,0
546,-209,0,0,0,0,0,0,0,0,0,-1,1770,1233,0,0
553,-209,0,0,0,0,0,0,0,0,0,-1,1777,1233,0,0
560,-209,0,0,0,0,0,0,0,0,0,-1,1784,1233,0,0
567,-209,0,0,0,0,0,0,0,0,0,-1,1791,1233,0,0
574,-209,0,0,0,0,0,0,0,0,0,-1,1798,1233,0,0
581,-209,0,0,0,0,0,0,0,0,0,-1,1805,1233,0,0
588,-209,0,0,0,0,0,0,0,0,0,-1,1812,1233,0,0
595,-209,0,0,0,0,0,0,0,0,0,-1,1819,1233,0,0
602,-209,0,0,0,0,0,0,0,0,0,-1,1826,1233,0,0
609,-209,0,0,0,0,0,0,0,0,0,-1,1833,1233,0,0
616,-209,0,0,0,0,0,0,0,0,0,-1,1840,1233,0,0
623,-209,61.1289,2.60681,0.00350727,-0.00527661,0.000702363,0.00356307,-0.00533241,0.0792891,0.00516957,0.035179,1847,1233,61.1289,-2.60684
630,-209,61.1106,2.59277,0.00229768,-0.00237135,-8.6987e-05,0.0022993,-0.00237297,-0.018622,0.00269765,0.0370023,1854,1233,61.1106,-2.5928
637,-209,61.1913,2.69629,0.00154385,0.000190133,-0.000986977,0.00206376,-0.000329779,-0.484835,0.00149792,0.0380012,1861,1233,61.1912,-2.69626
644,-209,61.1843,2.71387,0.00126951,0.00237577,-0.00196802,0.00386691,-0.000221638,-0.922394,0.00265491,0.0320562,1868,1233,61.1843,-2.71391
651,-209,61.1787,2.70081,0.00133235,0.00319748,-0.00258597,0.0050139,-0.000484073,-0.958452,0.00351509,0.0248301,1875,1233,61.1787,-2.70083
658,-209,61.168,2.67786,0.00143722,0.00282306,-0.0026985,0.00491618,-0.000655906,-0.911073,0.00351654,0.02042,1882,1233,61.168,-2.67783
665,-209,61.2672,2.65222,0.00150074,0.00208137,-0.0024993,0.00430716,-0.000725047,-0.843218,0.00314114,0.0336492,1889,1233,61.2672,-2.65227
672,-209,61.4181,2.77478,0,0,0,0,0,0,0,-1,1896,1233,61.4181,-2.77476
679,-209,55.2465,2.78674,0,0,0,0,0,0,0,-1,1903,1233,55.2464,-2.78678
686,-209,33.3711,3.89856,0,0,0,0,0,0,0,-1,1910,1233,33.3711,-3.89855
693,-209,48.3129,11.7697,0,0,0,0,0,0,0,-1,1917,1233,48.3129,-11.7696
700,-209,48.4476,10.9944,0.00140813,-0.000209137,-0.00129748,0.00212833,-0.000929336,-0.506733,0.00181002,0.0450913,1924,1233,48.4476,-10.9943
707,-209,48.5216,10.3107,0.00152376,-0.00112376,-0.00109444,0.00191759,-0.00151759,-0.345424,0.00198778,0.0373379,1931,1233,48.5216,-10.3107
714,-209,48.517,9.81982,0.00126706,-0.00128622,-0.000885453,0.00154407,-0.00156324,-0.303202,0.00179402,0.0230889,1938,1233,48.5169,-9.81978
721,-209,48.5535,9.21423,0.00077998,-0.00148022,-0.00029055,0.000816732,-0.00151697,-0.125825,0.00136743,0.0129512,1945,1233,48.5535,-9.21425
728,-209,48.5593,8.66467,0.000627651,-0.00133798,0.000598672,0.000795633,-0.00150596,0.273556,0.00134976,0.012605,1952,1233,48.5593,-8.66472
735,-209,48.5259,8.09875,0.000607959,-0.00116204,0.00159933,0.00155083,-0.00210491,0.532691,0.0021187,0.0152738,1959,1233,48.5259,-8.09877
742,-209,48.481,7.52856,0.000824093,-0.000742174,0.0027886,0.00293744,-0.00285552,0.648507,0.00334468,0.0156393,1966,1233,48.481,-7.52852
749,-209,48.4312,6.96912,0.00155219,-9.943e-05,0.00419992,0.00500671,-0.00355396,0.688324,0.00496617,0.0135432,1973,1233,48.4311,-6.96909
756,-209,48.4182,6.43262,0.00333398,0.000597659,0.00579176,0.00791698,-0.00398535,0.669412,0.00699567,0.012724,1980,1233,48.4183,-6.43256
763,-209,48.3994,5.95776,0.00618255,0.00154024,0.00777964,0.0119799,-0.00425714,0.640421,0.0097215,0.0265133,1987,1233,48.3994,-5.95773
770,-209,48.4899,5.58521,0,0,0,0,0,0,0,-1,1994,1233,48.4899,-5.58523
777,-209,49.8105,-3.45435,0,0,0,0,0,0,0,-1,2001,1233,49.8106,3.45429
784,-209,53.6729,-0.603394,0,0,0,0,0,0,0,-1,2008,1233,53.6728,0.603386
791,-209,53.6887,1.53479,0,0,0,0,0,0,0,-1,2015,1233,53.6887,-1.53478
798,-209,53.6404,3.71179,0,0,0,0,0,0,0,-1,2022,1233,53.6404,-3.71185
805,-209,0,0,0,0,0,0,0,0,0,-1,2029,1233,0,0
812,-209,0,0,0,0,0,0,0,0,0,-1,2036,1233,0,0
-700,-216,0,0,0,0,0,0,0,0,0,-1,524,1240,0,0
-693,-216,0,0,0,0,0,0,0,0,0,-1,531,1240,0,0
-686,-216,0,0,0,0,0,0,0,0,0,-1,538,1240,0,0
-679,-216,-34.0671,-1.51367,0,0,0,0,0,0,0,-1,545,1240,-34.0671,1.51364
-672,-216,-34.6006,-1.5885,0,0,0,0,0,0,0,-1,552,1240,-34.6006,1.58848
-665,-216,-42.9464,2.08167,0,0,0,0,0,0,0,-1,559,1240,-42.9464,-2.08166
-658,-216,-44.0078,1.43494,-0.0559474,-0.00887451,0.00859532,-0.00735415,-0.0574678,1.39572,0.036111,0.0484431,566,1240,-44.0078,-1.4349
-651,-216,-45.0143,0.770264,0,0,0,0,0,0,0,-1,573,1240,-45.0143,-0.770295
-644,-216,-46.0612,0.083374,0,0,0,0,0,0,0,-1,580,1240,-46.0612,-0.0833605
-637,-216,-32.1536,2.70361,0,0,0,0,0,0,0,-1,587,1240,-32.1536,-2.70367
-630,-216,-32.1854,3.44653,-0.0194248,-0.00181144,0.00542191,-0.000276229,-0.02096,1.29487,0.0138822,0.0396982,594,1240,-32.1854,-3.44655
-623,-216,-32.3112,4.16931,-0.0127734,-0.000594753,0.00418026,0.00070202,-0.0140702,1.27,0.00962268,0.0181707,601,1240,-32.3112,-4.16933
-616,-216,-32.4018,4.75586,-0.00710603,-2.45615e-05,0.00301925,0.00108794,-0.00821854,1.21776,0.00587535,0.0145004,608,1240,-32.4018,-4.75584
-609,-216,-32.4319,5.36096,-0.00284436,0.000142484,0.00139624,0.000693517,-0.00339539,1.19491,0.0025267,0.0147165,615,1240,-32.4319,-5.36098
-602,-216,-32.4407,5.92212,-0.00103856,6.88177e-05,8.50015e-05,7.53043e-05,-0.00104504,1.49463,0.000723106,0.0139279,622,1240,-32.4407,-5.92211
-595,-216,-32.426,6.52209,-0.00116765,-0.00117274,-0.000493205,-0.00067698,-0.0016634,-0.782817,0.000965889,0.0179719,629,1240,-32.4261,-6.52209
-588,-216,-32.4541,7.1554,-0.00120253,-0.00205751,-0.000721705,-0.000791211,-0.00246883,-0.518018,0.00145568,0.0212363,636,1240,-32.4541,-7.15539
-581,-216,-32.4611,7.77246,-0.00110589,-0.00272854,-0.000814113,-0.000767852,-0.00306658,-0.393556,0.00184256,0.0437211,643,1240,-32.4611,-7.77244
-574,-216,-32.4134,8.56165,-0.00157357,-0.00331247,-0.000699613,-0.00132705,-0.003559,-0.338789,0.00207681,0.0479519,650,1240,-32.4134,-8.56167
-567,-216,-32.6382,9.24744,0,0,0,0,0,0,0,-1,657,1240,-32.6382,-9.2474
-560,-216,-16.5087,5.4574,0,0,0,0,0,0,0,-1,664,1240,-16.5087,-5.45746
-553,-216,-16.2355,1.22351,0,0,0,0,0,0,0,-1,671,1240,-16.2356,-1.22356
-546,-216,-37.1617,-0.25415,0,0,0,0,0,0,0,-1,678,1240,-37.1618,0.254161
-539,-216,-45.8773,1.0166,0,0,0,0,0,0,0,-1,685,1240,-45.8773,-1.01656
-532,-216,-45.8688,1.08826,-0.00525161,-0.00205239,0.00108459,-0.00171936,-0.00558464,1.27288,0.00330269,0.0479922,692,1240,-45.8688,-1.08826
-525,-216,-45.932,1.09229,-0.0062614,-0.000657806,0.00158747,-0.000239334,-0.00667987,1.31305,0.00437565,0.0462605,699,1240,-45.932,-1.09233
-518,-216,-46.212,1.17969,-0.00695624,0.000908337,0.00230099,0.00153208,-0.00757999,1.30608,0.00563389,0.0426153,706,1240,-46.2121,-1.17967
-511,-216,-46.3409,1.25671,-0.00643646,0.00242767,0.00362435,0.00372091,-0.0077297,1.22806,0.00674471,0.04457,713,1240,-46.341,-1.25668
-504,-216,-46.0634,1.21143,-0.00167634,0.000850361,0.00657305,0.00628037,-0.00710635,0.880341,0.00773372,0.0460543,720,1240,-46.0634,-1.21137
-497,-216,0,0,0,0,0,0,0,0,0,-1,727,1240,0,0
-490,-216,0,0,0,0,0,0,0,0,0,-1,734,1240,0,0
-483,-216,0,0,0,0,0,0,0,0,0,-1,741,1240,0,0
-476,-216,0,0,0,0,0,0,0,0,0,-1,748,1240,0,0
-469,-216,0,0,0,0,0,0,0,0,0,-1,755,1240,0,0
-462,-216,0,0,0,0,0,0,0,0,0,-1,762,1240,0,0
-455,-216,0,0,0,0,0,0,0,0,0,-1,769,1240,0,0
-448,-216,0,0,0,0,0,0,0,0,0,-1,776,1240,0,0
-441,-216,0,0,0,0,0,0,0,0,0,-1,783,1240,0,0
-434,-216,0,0,0,0,0,0,0,0,0,-1,790,1240,0,0
-427,-216,0,0,0,0,0,0,0,0,0,-1,797,1240,0,0
-420,-216,0,0,0,0,0,0,0,0,0,-1,804,1240,0,0
-413,-216,0,0,0,0,0,0,0,0,0,-1,811,1240,0,0
-406,-216,0,0,0,0,0,0,0,0,0,-1,818,1240,0,0
-399,-216,0,0,0,0,0,0,0,0,0,-1,825,1240,0,0
-392,-216,0,0,0,0,0,0,0,0,0,-1,832,1240,0,0
-385,-216,0,0,0,0,0,0,0,0,0,-1,839,1240,0,0
-378,-216,0,0,0,0,0,0,0,0,0,-1,846,1240,0,0
-371,-216,0,0,0,0,0,0,0,0,0,-1,853,1240,0,0
-364,-216,0,0,0,0,0,0,0,0,0,-1,860,1240,0,0
-357,-216,0,0,0,0,0,0,0,0,0,-1,867,1240,0,0
-350,-216,0,0,0,0,0,0,0,0,0,-1,874,1240,0,0
-343,-216,0,0,0,0,0,0,0,0,0,-1,881,1240,0,0
-336,-216,0,0,0,0,0,0,0,0,0,-1,888,1240,0,0
-329,-216,0,0,0,0,0,0,0,0,0,-1,895,1240,0,0
-322,-216,0,0,0,0,0,0,0,0,0,-1,902,1240,0,0
-315,-216,0,0,0,0,0,0,0,0,0,-1,909,1240,0,0
-308,-216,0,0,0,0,0,0,0,0,0,-1,916,1240,0,0
-301,-216,0,0,0,0,0,0,0,0,0,-1,923,1240,0,0
-294,-216,0,0,0,0,0,0,0,0,0,-1,930,1240,0,0
-287,-216,0,0,0,0,0,0,0,0,0,-1,937,1240,0,0
-280,-216,0,0,0,0,0,0,0,0,0,-1,944,1240,0,0
-273,-216,0,0,0,0,0,0,0,0,0,-1,951,1240,0,0
-266,-216,0,0,0,0,0,0,0,0,0,-1,958,1240,0,0
-259,-216,0,0,0,0,0,0,0,0,0,-1,965,1240,0,0
-252,-216,0,0,0,0,0,0,0,0,0,-1,972,1240,0,0
-245,-216,0,0,0,0,0,0,0,0,0,-1,979,1240,0,0
-238,-216,0,0,0,0,0,0,0,0,0,-1,986,1240,0,0
-231,-216,0,0,0,0,0,0,0,0,0,-1,993,1240,0,0
-224,-216,0,0,0,0,0,0,0,0,0,-1,1000,1240,0,0
-217,-216,0,0,0,0,0,0,0,0,0,-1,1007,1240,0,0
-210,-216,0,0,0,0,0,0,0,0,0,-1,1014,1240,0,0
-203,-216,0,0,0,0,0,0,0,0,0,-1,1021,1240,0,0
-196,-216,0,0,0,0,0,0,0,0,0,-1,1028,1240,0,0
-189,-216,0,0,0,0,0,0,0,0,0,-1,1035,1240,0,0
-182,-216,0,0,0,0,0,0,0,0,0,-1,1042,1240,0,0
-175,-216,0,0,0,0,0,0,0,0,0,-1,1049,1240,0,0
-168,-216,0,0,0,0,0,0,0,0,0,-1,1056,1240,0,0
-161,-216,0,0,0,0,0,0,0,0,0,-1,1063,1240,0,0
-154,-216,0,0,0,0,0,0,0,0,0,-1,1070,1240,0,0
-147,-216,0,0,0,0,0,0,0,0,0,-1,1077,1240,0,0
-140,-216,0,0,0,0,0,0,0,0,0,-1,1084,1240,0,0
-133,-216,0,0,0,0,0,0,0,0,0,-1,1091,1240,0,0
-126,-216,0,0,0,0,0,0,0,0,0,-1,1098,1240,0,0
-119,-216,0,0,0,0,0,0,0,0,0,-1,1105,1240,0,0
-112,-216,0,0,0,0,0,0,0,0,0,-1,1112,1240,0,0
-105,-216,0,0,0,0,0,0,0,0,0,-1,1119,1240,0,0
-98,-216,0,0,0,0,0,0,0,0,0,-1,1126,1240,0,0
-91,-216,0,0,0,0,0,0,0,0,0,-1,1133,1240,0,0
-84,-216,0,0,0,0,0,0,0,0,0,-1,1140,1240,0,0
-77,-216,0,0,0,0,0,0,0,0,0,-1,1147,1240,0,0
-70,-216,0,0,0,0,0,0,0,0,0,-1,1154,1240,0,0
-63,-216,0,0,0,0,0,0,0,0,0,-1,1161,1240,0,0
-56,-216,0,0,0,0,0,0,0,0,0,-1,1168,1240,0,0
-49,-216,0,0,0,0,0,0,0,0,0,-1,1175,1240,0,0
-42,-216,0,0,0,0,0,0,0,0,0,-1,1182,1240,0,0
-35,-216,0,0,0,0,0,0,0,0,0,-1,1189,1240,0,0
-28,-216,0,0,0,0,0,0,0,0,0,-1,1196,1240,0,0
-21,-216,0,0,0,0,0,0,0,0,0,-1,1203,1240,0,0
-14,-216,0,0,0,0,0,0,0,0,0,-1,1210,1240,0,0
-7,-216,0,0,0,0,0,0,0,0,0,-1,1217,1240,0,0
0,-216,0,0,0,0,0,0,0,0,0,-1,1224,1240,0,0
7,-216,0,0,0,0,0,0,0,0,0,-1,1231,1240,0,0
14,-216,0,0,0,0,0,0,0,0,0,-1,1238,1240,0,0
21,-216,0,0,0,0,0,0,0,0,0,-1,1245,1240,0,0
28,-216,0,0,0,0,0,0,0,0,0,-1,1252,1240,0,0
35,-216,0,0,0,0,0,0,0,0,0,-1,1259,1240,0,0
42,-216,0,0,0,0,0,0,0,0,0,-1,1266,1240,0,0
49,-216,0,0,0,0,0,0,0,0,0,-1,1273,1240,0,0
56,-216,0,0,0,0,0,0,0,0,0,-1,1280,1240,0,0
63,-216,0,0,0,0,0,0,0,0,0,-1,1287,1240,0,0
70,-216,0,0,0,0,0,0,0,0,0,-1,1294,1240,0,0
77,-216,0,0,0,0,0,0,0,0,0,-1,1301,1240,0,0
84,-216,0,0,0,0,0,0,0,0,0,-1,1308,1240,0,0
91,-216,0,0,0,0,0,0,0,0,0,-1,1315,1240,0,0
98,-216,0,0,0,0,0,0,0,0,0,-1,1322,1240,0,0
105,-216,0,0,0,0,0,0,0,0,0,-1,1329,1240,0,0
112,-216,0,0,0,0,0,0,0,0,0,-1,1336,1240,0,0
119,-216,0,0,0,0,0,0,0,0,0,-1,1343,1240,0,0
126,-216,0,0,0,0,0,0,0,0,0,-1,1350,1240,0,0
133,-216,0,0,0,0,0,0,0,0,0,-1,1357,1240,0,0
140,-216,0,0,0,0,0,0,0,0,0,-1,1364,1240,0,0
147,-216,0,0,0,0,0,0,0,0,0,-1,1371,1240,0,0
154,-216,0,0,0,0,0,0,0,0,0,-1,1378,1240,0,0
161,-216,0,0,0,0,0,0,0,0,0,-1,1385,1240,0,0
168,-216,0,0,0,0,0,0,0,0,0,-1,1392,1240,0,0
175,-216,0,0,0,0,0,0,0,0,0,-1,1399,1240,0,0
182,-216,0,0,0,0,0,0,0,0,0,-1,1406,1240,0,0
189,-216,0,0,0,0,0,0,0,0,0,-1,1413,1240,0,0
196,-216,0,0,0,0,0,0,0,0,0,-1,1420,1240,0,0
203,-216,0,0,0,0,0,0,0,0,0,-1,1427,1240,0,0
210,-216,0,0,0,0,0,0,0,0,0,-1,1434,1240,0,0
217,-216,0,0,0,0,0,0,0,0,0,-1,1441,1240,0,0
224,-216,0,0,0,0,0,0,0,0,0,-1,1448,1240,0,0
231,-216,0,0,0,0,0,0,0,0,0,-1,1455,1240,0,0
238,-216,0,0,0,0,0,0,0,0,0,-1,1462,1240,0,0
245,-216,0,0,0,0,0,0,0,0,0,-1,1469,1240,0,0
252,-216,0,0,0,0,0,0,0,0,0,-1,1476,1240,0,0
259,-216,0,0,0,0,0,0,0,0,0,-1,1483,1240,0,0
266,-216,0,0,0,0,0,0,0,0,0,-1,1490,1240,0,0
273,-216,0,0,0,0,0,0,0,0,0,-1,1497,1240,0,0
280,-216,0,0,0,0,0,0,0,0,0,-1,1504,1240,0,0
287,-216,0,0,0,0,0,0,0,0,0,-1,1511,1240,0,0
294,-216,0,0,0,0,0,0,0,0,0,-1,1518,1240,0,0
301,-216,0,0,0,0,0,0,0,0,0,-1,1525,1240,0,0
308,-216,0,0,0,0,0,0,0,0,0,-1,1532,1240,0,0
315,-216,0,0,0,0,0,0,0,0,0,-1,1539,1240,0,0
322,-216,0,0,0,0,0,0,0,0,0,-1,1546,1240,0,0
329,-216,0,0,0,0,0,0,0,0,0,-1,1553,1240,0,0
336,-216,0,0,0,0,0,0,0,0,0,-1,1560,1240,0,0
343,-216,0,0,0,0,0,0,0,0,0,-1,1567,1240,0,0
350,-216,0,0,0,0,0,0,0,0,0,-1,1574,1240,0,0
357,-216,0,0,0,0,0,0,0,0,0,-1,1581,1240,0,0
364,-216,0,0,0,0,0,0,0,0,0,-1,1588,1240,0,0
371,-216,0,0,0,0,0,0,0,0,0,-1,1595,1240,0,0
378,-216,0,0,0,0,0,0,0,0,0,-1,1602,1240,0,0
385,-216,0,0,0,0,0,0,0,0,0,-1,1609,1240,0,0
392,-216,0,0,0,0,0,0,0,0,0,-1,1616,1240,0,0
399,-216,0,0,0,0,0,0,0,0,0,-1,1623,1240,0,0
406,-216,0,0,0,0,0,0,0,0,0,-1,1630,1240,0,0
413,-216,0,0,0,0,0,0,0,0,0,-1,1637,1240,0,0
420,-216,0,0,0,0,0,0,0,0,0,-1,1644,1240,0,0
427,-216,0,0,0,0,0,0,0,0,0,-1,1651,1240,0,0
434,-216,0,0,0,0,0,0,0,0,0,-1,1658,1240,0,0
441,-216,0,0,0,0,0,0,0,0,0,-1,1665,1240,0,0
448,-216,0,0,0,0,0,0,0,0,0,-1,1672,1240,0,0
455,-216,0,0,0,0,0,0,0,0,0,-1,1679,1240,0,0
462,-216,0,0,0,0,0,0,0,0,0,-1,1686,1240,0,0
469,-216,0,0,0,0,0,0,0,0,0,-1,1693,1240,0,0
476,-216,0,0,0,0,0,0,0,0,0,-1,1700,1240,0,0
483,-216,0,0,0,0,0,0,0,0,0,-1,1707,1240,0,0
490,-216,0,0,0,0,0,0,0,0,0,-1,1714,1240,0,0
497,-216,0,0,0,0,0,0,0,0,0,-1,1721,1240,0,0
504,-216,0,0,0,0,0,0,0,0,0,-1,1728,1240,0,0
511,-216,0,0,0,0,0,0,0,0,0,-1,1735,1240,0,0
518,-216,0,0,0,0,0,0,0,0,0,-1,1742,1240,0,0
525,-216,0,0,0,0,0,0,0,0,0,-1,1749,1240,0,0
532,-216,0,0,0,0,0,0,0,0,0,-1,1756,1240,0,0
539,-216,0,0,0,0,0,0,0,0,0,-1,1763,1240,0,0
546,-216,0,0,0,0,0,0,0,0,0,-1,1770,1240,0,0
553,-216,0,0,0,0,0,0,0,0,0,-1,1777,1240,0,0
560,-216,0,0,0,0,0,0,0,0,0,-1,1784,1240,0,0
567,-216,0,0,0,0,0,0,0,0,0,-1,1791,1240,0,0
574,-216,0,0,0,0,0,0,0,0,0,-1,1798,1240,0,0
581,-216,0,0,0,0,0,0,0,0,0,-1,1805,1240,0,0
588,-216,0,0,0,0,0,0,0,0,0,-1,1812,1240,0,0
595,-216,0,0,0,0,0,0,0,0,0,-1,1819,1240,0,0
602,-216,0,0,0,0,0,0,0,0,0,-1,1826,1240,0,0
609,-216,0,0,0,0,0,0,0,0,0,-1,1833,1240,0,0
616,-216,0,0,0,0,0,0,0,0,0,-1,1840,1240,0,0
623,-216,61.0796,2.68384,0.00272579,-0.00514244,0.000678857,0.00278393,-0.00520058,0.085437,0.00467971,0.0384943,1847,1240,61.0796,-2.68378
630,-216,61.108,2.69678,0.00145364,-0.0016968,-0.000512912,0.00153504,-0.0017782,-0.157393,0.00191462,0.0363562,1854,1240,61.1081,-2.69684
637,-216,61.1418,2.73914,0.000678821,0.00150312,-0.0017563,0.00289498,-0.000713043,-0.900647,0.00220641,0.0328538,1861,1240,61.1418,-2.73914
644,-216,61.1353,2.76062,0.000529246,0.00387477,-0.00284131,0.00549915,-0.00109514,-1.05144,0.00408043,0.0259158,1868,1240,61.1352,-2.76058
651,-216,61.1318,2.71814,0.00070229,0.00427708,-0.00321691,0.00616981,-0.00119044,-1.03897,0.00456209,0.0221204,1875,1240,61.1319,-2.71809
658,-216,61.1792,2.71948,0.000917766,0.00357669,-0.00309442,0.00561514,-0.00112069,-0.988292,0.00416753,0.0308327,1882,1240,61.1792,-2.71954
665,-216,61.3956,2.72656,0.00105197,0.00268913,-0.00276043,0.00474979,-0.00100869,-0.929538,0.00355084,0.0432409,1889,1240,61.3956,-2.72659
672,-216,61.6545,2.72913,0,0,0,0,0,0,0,-1,1896,1240,61.6545,-2.7291
679,-216,47.3159,3.82703,0,0,0,0,0,0,0,-1,1903,1240,47.316,-3.82708
686,-216,21.5172,6.19458,0,0,0,0,0,0,0,-1,1910,1240,21.5172,-6.19453
693,-216,48.5209,11.3105,0,0,0,0,0,0,0,-1,1917,1240,48.5209,-11.3106
700,-216,48.0371,10.9407,0.00132971,-5.89751e-05,-0.00124427,0.00206027,-0.000789528,-0.530904,0.00169898,0.0449761,1924,1240,48.0371,-10.9407
707,-216,47.9625,10.3561,0.00140871,-0.00125327,-0.00095743,0.00171729,-0.00156186,-0.311793,0.00189393,0.0442164,1931,1240,47.9625,-10.3561
714,-216,47.9708,9.81873,0.00103256,-0.00133982,-0.000632561,0.00119068,-0.00149794,-0.244955,0.00155565,0.0171321,1938,1240,47.9709,-9.81875
721,-216,47.9987,9.2666,0.000487949,-0.00141828,7.25424e-05,0.000490706,-0.00142103,0.0379823,0.00114648,0.0134884,1945,1240,47.9986,-9.26666
728,-216,48.01,8.6947,0.000271773,-0.00119942,0.00103723,0.000807772,-0.00173542,0.476964,0.00150052,0.0130111,1952,1240,48.01,-8.69475
735,-216,48.0042,8.13464,0.000190691,-0.0010163,0.00211809,0.00178959,-0.0026152,0.646614,0.00255795,0.0144184,1959,1240,48.0042,-8.13469
742,-216,47.9141,7.57251,0.000250278,-0.000858227,0.00335006,0.00309163,-0.00369958,0.703418,0.00392614,0.0164879,1966,1240,47.914,-7.57249
749,-216,47.8763,6.98096,0.000580543,-0.000767725,0.00472569,0.00467994,-0.00486712,0.71455,0.00551235,0.0126954,1973,1240,47.8764,-6.98094
756,-216,47.8395,6.41821,0.00134947,-0.000728801,0.00626817,0.00666405,-0.00604338,0.703255,0.00733956,0.0112553,1980,1240,47.8395,-6.41819
763,-216,47.8099,5.94348,0.00275771,-0.00108129,0.00816516,0.00922596,-0.00754954,0.669952,0.00970144,0.0211376,1987,1240,47.81,-5.94347
770,-216,47.9581,5.47827,0.00512224,-0.00178811,0.0105293,0.0127488,-0.00941469,0.62686,0.0128443,0.044009,1994,1240,47.9581,-5.47825
777,-216,48.1887,5.00049,0,0,0,0,0,0,0,-1,2001,1240,48.1888,-5.00045
784,-216,51.8208,-0.443726,0,0,0,0,0,0,0,-1,2008,1240,51.8208,0.443779
791,-216,55.1682,1.76636,0,0,0,0,0,0,0,-1,2015,1240,55.1682,-1.76635
798,-216,0,0,0,0,0,0,0,0,0,-1,2022,1240,0,0
805,-216,0,0,0,0,0,0,0,0,0,-1,2029,1240,0,0
812,-216,0,0,0,0,0,0,0,0,0,-1,2036,1240,0,0
-700,-223,0,0,0,0,0,0,0,0,0,-1,524,1247,0,0
-693,-223,0,0,0,0,0,0,0,0,0,-1,531,1247,0,0
-686,-223,0,0,0,0,0,0,0,0,0,-1,538,1247,0,0
-679,-223,0,0,0,0,0,0,0,0,0,-1,545,1247,0,0
-672,-223,-44.4224,3.97266,0,0,0,0,0,0,0,-1,552,1247,-44.4224,-3.97263
-665,-223,-43.8759,2.77161,0,0,0,0,0,0,0,-1,559,1247,-43.8759,-2.77164
-658,-223,-45.0807,1.9021,0,0,0,0,0,0,0,-1,566,1247,-45.0807,-1.9021
-651,-223,-45.9648,1.22046,0,0,0,0,0,0,0,-1,573,1247,-45.9648,-1.22042
-644,-223,-46.2908,-0.212891,0,0,0,0,0,0,0,-1,580,1247,-46.2908,0.212852
-637,-223,-46.7499,-0.944946,0,0,0,0,0,0,0,-1,587,1247,-46.7499,0.944886
-630,-223,-31.6233,3.50623,0,0,0,0,0,0,0,-1,594,1247,-31.6233,-3.50618
-623,-223,-31.833,4.23706,-0.0168251,-0.00285072,0.00441548,-0.00157248,-0.0181033,1.28901,0.0115804,0.0309052,601,1247,-31.833,-4.23702
-616,-223,-31.793,4.74841,-0.00999482,-0.00142017,0.00340259,-0.000234032,-0.011181,1.23537,0.0073772,0.0160735,608,1247,-31.7931,-4.74846
-609,-223,-31.7852,5.37085,-0.00430637,-0.000357639,0.00194197,0.000437354,-0.00510137,1.18223,0.00355567,0.0121693,615,1247,-31.7852,-5.37082
-602,-223,-31.8146,5.93604,-0.00101429,0.000223825,0.000594481,0.000463045,-0.00125351,1.18822,0.00102548,0.0150549,622,1247,-31.8147,-5.93606
-595,-223,-31.8204,6.56348,-0.000566228,-0.000878051,-0.000151215,-0.000504943,-0.000939336,-0.385055,0.000542836,0.0208121,629,1247,-31.8204,-6.56351
-588,-223,-31.8377,7.23877,-0.00052817,-0.00181608,-0.000455983,-0.000383075,-0.00196118,-0.30807,0.00120031,0.0240521,636,1247,-31.8377,-7.23877
-581,-223,-31.9138,7.86365,-0.000591377,-0.00253988,-0.000451926,-0.000491662,-0.0026396,-0.217164,0.00162089,0.0286568,643,1247,-31.9138,-7.86368
-574,-223,-32.0503,8.34241,-0.00118676,-0.00316369,-0.000322232,-0.00113556,-0.00321488,-0.157564,0.00188258,0.0327051,650,1247,-32.0503,-8.34243
-567,-223,-31.9431,8.60889,0,0,0,0,0,0,0,-1,657,1247,-31.943,-8.60893
-560,-223,-31.8748,9.50732,0,0,0,0,0,0,0,-1,664,1247,-31.8748,-9.50735
-553,-223,-11.4025,4.14722,0,0,0,0,0,0,0,-1,671,1247,-11.4025,-4.14719
-546,-223,-26.9034,-0.148682,0,0,0,0,0,0,0,-1,678,1247,-26.9034,0.14867
-539,-223,-36.7405,0.35376,0,0,0,0,0,0,0,-1,685,1247,-36.7405,-0.353807
-532,-223,-45.7446,1.01331,0,0,0,0,0,0,0,-1,692,1247,-45.7446,-1.01333
-525,-223,-45.742,0.837891,0,0,0,0,0,0,0,-1,699,1247,-45.742,-0.837925
-518,-223,-46.0828,1.10657,0,0,0,0,0,0,0,-1,706,1247,-46.0828,-1.10658
-511,-223,-46.1255,1.15417,-0.00691061,0.00548055,0.00325175,0.00628205,-0.00771211,1.32913,0.00809358,0.0405919,713,1247,-46.1255,-1.15422
-504,-223,-46.1098,1.26245,-0.00424072,0.00550796,0.00550193,0.00798416,-0.00671692,1.14789,0.00849818,0.0430938,720,1247,-46.1098,-1.26247
-497,-223,0,0,0,0,0,0,0,0,0,-1,727,1247,0,0
-490,-223,0,0,0,0,0,0,0,0,0,-1,734,1247,0,0
-483,-223,0,0,0,0,0,0,0,0,0,-1,741,1247,0,0
-476,-223,0,0,0,0,0,0,0,0,0,-1,748,1247,0,0
-469,-223,0,0,0,0,0,0,0,0,0,-1,755,1247,0,0
-462,-223,0,0,0,0,0,0,0,0,0,-1,762,1247,0,0
-455,-223,0,0,0,0,0,0,0,0,0,-1,769,1247,0,0
-448,-223,0,0,0,0,0,0,0,0,0,-1,776,1247,0,0
-441,-223,0,0,0,0,0,0,0,0,0,-1,783,1247,0,0
-434,-223,0,0,0,0,0,0,0,0,0,-1,790,1247,0,0
-427,-223,0,0,0,0,0,0,0,0,0,-1,797,1247,0,0
-420,-223,0,0,0,0,0,0,0,0,0,-1,804,1247,0,0
-413,-223,0,0,0,0,0,0,0,0,0,-1,811,1247,0,0
-406,-223,0,0,0,0,0,0,0,0,0,-1,818,1247,0,0
-399,-223,0,0,0,0,0,0,0,0,0,-1,825,1247,0,0
-392,-223,0,0,0,0,0,0,0,0,0,-1,832,1247,0,0
-385,-223,0,0,0,0,0,0,0,0,0,-1,839,1247,0,0
-378,-223,0,0,0,0,0,0,0,0,0,-1,846,1247,0,0
-371,-223,0,0,0,0,0,0,0,0,0,-1,853,1247,0,0
-364,-223,0,0,0,0,0,0,0,0,0,-1,860,1247,0,0
-357,-223,0,0,0,0,0,0,0,0,0,-1,867,1247,0,0
-350,-223,0,0,0,0,0,0,0,0,0,-1,874,1247,0,0
-343,-223,0,0,0,0,0,0,0,0,0,-1,881,1247,0,0
-336,-223,0,0,0,0,0,0,0,0,0,-1,888,1247,0,0
-329,-223,0,0,0,0,0,0,0,0,0,-1,895,1247,0,0
-322,-223,0,0,0,0,0,0,0,0,0,-1,902,1247,0,0
-315,-223,0,0,0,0,0,0,0,0,0,-1,909,1247,0,0
-308,-223,0,0,0,0,0,0,0,0,0,-1,916,1247,0,0
-301,-223,0,0,0,0,0,0,0,0,0,-1,923,1247,0,0
-294,-223,0,0,0,0,0,0,0,0,0,-1,930,1247,0,0
-287,-223,0,0,0,0,0,0,0,0,0,-1,937,1247,0,0
-280,-223,0,0,0,0,0,0,0,0,0,-1,944,1247,0,0
-273,-223,0,0,0,0,0,0,0,0,0,-1,951,1247,0,0
-266,-223,0,0,0,0,0,0,0,0,0,-1,958,1247,0,0
-259,-223,0,0,0,0,0,0,0,0,0,-1,965,1247,0,0
-252,-223,0,0,0,0,0,0,0,0,0,-1,972,1247,0,0
-245,-223,0,0,0,0,0,0,0,0,0,-1,979,1247,0,0
-238,-223,0,0,0,0,0,0,0,0,0,-1,986,1247,0,0
-231,-223,0,0,0,0,0,0,0,0,0,-1,993,1247,0,0
-224,-223,0,0,0,0,0,0,0,0,0,-1,1000,1247,0,0
-217,-223,0,0,0,0,0,0,0,0,0,-1,1007,1247,0,0
-210,-223,0,0,0,0,0,0,0,0,0,-1,1014,1247,0,0
-203,-223,0,0,0,0,0,0,0,0,0,-1,1021,1247,0,0
-196,-223,0,0,0,0,0,0,0,0,0,-1,1028,1247,0,0
-189,-223,0,0,0,0,0,0,0,0,0,-1,1035,1247,0,0
-182,-223,0,0,0,0,0,0,0,0,0,-1,1042,1247,0,0
-175,-223,0,0,0,0,0,0,0,0,0,-1,1049,1247,0,0
-168,-223,0,0,0,0,0,0,0,0,0,-1,1056,1247,0,0
-161,-223,0,0,0,0,0,0,0,0,0,-1,1063,1247,0,0
-154,-223,0,0,0,0,0,0,0,0,0,-1,1070,1247,0,0
-147,-223,0,0,0,0,0,0,0,0,0,-1,1077,1247,0,0
-140,-223,0,0,0,0,0,0,0,0,0,-1,1084,1247,0,0
-133,-223,0,0,0,0,0,0,0,0,0,-1,1091,1247,0,0
-126,-223,0,0,0,0,0,0,0,0,0,-1,1098,1247,0,0
-119,-223,0,0,0,0,0,0,0,0,0,-1,1105,1247,0,0
-112,-223,0,0,0,0,0,0,0,0,0,-1,1112,1247,0,0
-105,-223,0,0,0,0,0,0,0,0,0,-1,1119,1247,0,0
-98,-223,0,0,0,0,0,0,0,0,0,-1,1126,1247,0,0
-91,-223,0,0,0,0,0,0,0,0,0,-1,1133,1247,0,0
-84,-223,0,0,0,0,0,0,0,0,0,-1,1140,1247,0,0
-77,-223,0,0,0,0,0,0,0,0,0,-1,1147,1247,0,0
-70,-223,0,0,0,0,0,0,0,0,0,-1,1154,1247,0,0
-63,-223,0,0,0,0,0,0,0,0,0,-1,1161,1247,0,0
-56,-223,0,0,0,0,0,0,0,0,0,-1,1168,1247,0,0
-49,-223,0,0,0,0,0,0,0,0,0,-1,1175,1247,0,0
-42,-223,0,0,0,0,0,0,0,0,0,-1,1182,1247,0,0
-35,-223,0,0,0,0,0,0,0,0,0,-1,1189,1247,0,0
-28,-223,0,0,0,0,0,0,0,0,0,-1,1196,1247,0,0
-21,-223,0,0,0,0,0,0,0,0,0,-1,1203,1247,0,0
-14,-223,0,0,0,0,0,0,0,0,0,-1,1210,1247,0,0
-7,-223,0,0,0,0,0,0,0,0,0,-1,1217,1247,0,0
0,-223,0,0,0,0,0,0,0,0,0,-1,1224,1247,0,0
7,-223,0,0,0,0,0,0,0,0,0,-1,1231,1247,0,0
14,-223,0,0,0,0,0,0,0,0,0,-1,1238,1247,0,0
21,-223,0,0,0,0,0,0,0,0,0,-1,1245,1247,0,0
28,-223,0,0,0,0,0,0,0,0,0,-1,1252,1247,0,0
35,-223,0,0,0,0,0,0,0,0,0,-1,1259,1247,0,0
42,-223,0,0,0,0,0,0,0,0,0,-1,1266,1247,0,0
49,-223,0,0,0,0,0,0,0,0,0,-1,1273,1247,0,0
56,-223,0,0,0,0,0,0,0,0,0,-1,1280,1247,0,0
63,-223,0,0,0,0,0,0,0,0,0,-1,1287,1247,0,0
70,-223,0,0,0,0,0,0,0,0,0,-1,1294,1247,0,0
77,-223,0,0,0,0,0,0,0,0,0,-1,1301,1247,0,0
84,-223,0,0,0,0,0,0,0,0,0,-1,1308,1247,0,0
91,-223,0,0,0,0,0,0,0,0,0,-1,1315,1247,0,0
98,-223,0,0,0,0,0,0,0,0,0,-1,1322,1247,0,0
105,-223,0,0,0,0,0,0,0,0,0,-1,1329,1247,0,0
112,-223,0,0,0,0,0,0,0,0,0,-1,1336,1247,0,0
119,-223,0,0,0,0,0,0,0,0,0,-1,1343,1247,0,0
126,-223,0,0,0,0,0,0,0,0,0,-1,1350,1247,0,0
133,-223,0,0,0,0,0,0,0,0,0,-1,1357,1247,0,0
140,-223,0,0,0,0,0,0,0,0,0,-1,1364,1247,0,0
147,-223,0,0,0,0,0,0,0,0,0,-1,1371,1247,0,0
154,-223,0,0,0,0,0,0,0,0,0,-1,1378,1247,0,0
161,-223,0,0,0,0,0,0,0,0,0,-1,1385,1247,0,0
168,-223,0,0,0,0,0,0,0,0,0,-1,1392,1247,0,0
175,-223,0,0,0,0,0,0,0,0,0,-1,1399,1247,0,0
182,-223,0,0,0,0,0,0,0,0,0,-1,1406,1247,0,0
189,-223,0,0,0,0,0,0,0,0,0,-1,1413,1247,0,0
196,-223,0,0,0,0,0,0,0,0,0,-1,1420,1247,0,0
203,-223,0,0,0,0,0,0,0,0,0,-1,1427,1247,0,0
210,-223,0,0,0,0,0,0,0,0,0,-1,1434,1247,0,0
217,-223,0,0,0,0,0,0,0,0,0,-1,1441,1247,0,0
224,-223,0,0,0,0,0,0,0,0,0,-1,1448,1247,0,0
231,-223,0,0,0,0,0,0,0,0,0,-1,1455,1247,0,0
238,-223,0,0,0,0,0,0,0,0,0,-1,1462,1247,0,0
245,-223,0,0,0,0,0,0,0,0,0,-1,1469,1247,0,0
252,-223,0,0,0,0,0,0,0,0,0,-1,1476,1247,0,0
259,-223,0,0,0,0,0,0,0,0,0,-1,1483,1247,0,0
266,-223,0,0,0,0,0,0,0,0,0,-1,1490,1247,0,0
273,-223,0,0,0,0,0,0,0,0,0,-1,1497,1247,0,0
280,-223,0,0,0,0,0,0,0,0,0,-1,1504,1247,0,0
287,-223,0,0,0,0,0,0,0,0,0,-1,1511,1247,0,0
294,-223,0,0,0,0,0,0,0,0,0,-1,1518,1247,0,0
301,-223,0,0,0,0,0,0,0,0,0,-1,1525,1247,0,0
308,-223,0,0,0,0,0,0,0,0,0,-1,1532,1247,0,0
315,-223,0,0,0,0,0,0,0,0,0,-1,1539,1247,0,0
322,-223,0,0,0,0,0,0,0,0,0,-1,1546,1247,0,0
329,-223,0,0,0,0,0,0,0,0,0,-1,1553,1247,0,0
336,-223,0,0,0,0,0,0,0,0,0,-1,1560,1247,0,0
343,-223,0,0,0,0,0,0,0,0,0,-1,1567,1247,0,0
350,-223,0,0,0,0,0,0,0,0,0,-1,1574,1247,0,0
357,-223,0,0,0,0,0,0,0,0,0,-1,1581,1247,0,0
364,-223,0,0,0,0,0,0,0,0,0,-1,1588,1247,0,0
371,-223,0,0,0,0,0,0,0,0,0,-1,1595,1247,0,0
378,-223,0,0,0,0,0,0,0,0,0,-1,1602,1247,0,0
385,-223,0,0,0,0,0,0,0,0,0,-1,1609,1247,0,0
392,-223,0,0,0,0,0,0,0,0,0,-1,1616,1247,0,0
399,-223,0,0,0,0,0,0,0,0,0,-1,1623,1247,0,0
406,-223,0,0,0,0,0,0,0,0,0,-1,1630,1247,0,0
413,-223,0,0,0,0,0,0,0,0,0,-1,1637,1247,0,0
420,-223,0,0,0,0,0,0,0,0,0,-1,1644,1247,0,0
427,-223,0,0,0,0,0,0,0,0,0,-1,1651,1247,0,0
434,-223,0,0,0,0,0,0,0,0,0,-1,1658,1247,0,0
441,-223,0,0,0,0,0,0,0,0,0,-1,1665,1247,0,0
448,-223,0,0,0,0,0,0,0,0,0,-1,1672,1247,0,0
455,-223,0,0,0,0,0,0,0,0,0,-1,1679,1247,0,0
462,-223,0,0,0,0,0,0,0,0,0,-1,1686,1247,0,0
469,-223,0,0,0,0,0,0,0,0,0,-1,1693,1247,0,0
476,-223,0,0,0,0,0,0,0,0,0,-1,1700,1247,0,0
483,-223,0,0,0,0,0,0,0,0,0,-1,1707,1247,0,0
490,-223,0,0,0,0,0,0,0,0,0,-1,1714,1247,0,0
497,-223,0,0,0,0,0,0,0,0,0,-1,1721,1247,0,0
504,-223,0,0,0,0,0,0,0,0,0,-1,1728,1247,0,0
511,-223,0,0,0,0,0,0,0,0,0,-1,1735,1247,0,0
518,-223,0,0,0,0,0,0,0,0,0,-1,1742,1247,0,0
525,-223,0,0,0,0,0,0,0,0,0,-1,1749,1247,0,0
532,-223,0,0,0,0,0,0,0,0,0,-1,1756,1247,0,0
539,-223,0,0,0,0,0,0,0,0,0,-1,1763,1247,0,0
546,-223,0,0,0,0,0,0,0,0,0,-1,1770,1247,0,0
553,-223,0,0,0,0,0,0,0,0,0,-1,1777,1247,0,0
560,-223,0,0,0,0,0,0,0,0,0,-1,1784,1247,0,0
567,-223,0,0,0,0,0,0,0,0,0,-1,1791,1247,0,0
574,-223,0,0,0,0,0,0,0,0,0,-1,1798,1247,0,0
581,-223,0,0,0,0,0,0,0,0,0,-1,1805,1247,0,0
588,-223,0,0,0,0,0,0,0,0,0,-1,1812,1247,0,0
595,-223,0,0,0,0,0,0,0,0,0,-1,1819,1247,0,0
602,-223,0,0,0,0,0,0,0,0,0,-1,1826,1247,0,0
609,-223,0,0,0,0,0,0,0,0,0,-1,1833,1247,0,0
616,-223,0,0,0,0,0,0,0,0,0,-1,1840,1247,0,0
623,-223,60.9583,2.84302,0.00248547,-0.00434208,0.000337101,0.00250207,-0.00435869,0.049214,0.00400912,0.0385579,1847,1247,60.9582,-2.84303
630,-223,61.0204,2.76453,0.00106727,-0.000459213,-0.0012267,0.00174878,-0.00114073,-0.507109,0.00168053,0.0335439,1854,1247,61.0203,-2.76449
637,-223,61.1088,2.70984,0.000163408,0.00321489,-0.0027496,0.0048337,-0.0014554,-1.0387,0.00380163,0.0275078,1861,1247,61.1088,-2.70985
644,-223,61.1565,2.72681,7.32088e-05,0.00536358,-0.0037537,0.00731048,-0.00187369,-1.09233,0.00560362,0.0220063,1868,1247,61.1564,-2.72681
651,-223,61.1576,2.71277,0.000275897,0.00520269,-0.00380731,0.00727405,-0.00179546,-1.07254,0.0055456,0.0286201,1875,1247,61.1576,-2.71276
658,-223,61.2363,2.75024,0,0,0,0,0,0,0,-1,1882,1247,61.2363,-2.75027
665,-223,61.4526,2.71277,0,0,0,0,0,0,0,-1,1889,1247,61.4527,-2.71278
672,-223,56.4625,2.72424,0,0,0,0,0,0,0,-1,1896,1247,56.4626,-2.72418
679,-223,43.2783,2.46973,0,0,0,0,0,0,0,-1,1903,1247,43.2784,-2.46978
686,-223,40.7926,10.0316,0,0,0,0,0,0,0,-1,1910,1247,40.7926,-10.0316
693,-223,48.0715,11.2617,0,0,0,0,0,0,0,-1,1917,1247,48.0715,-11.2617
700,-223,47.6074,10.881,0.00121528,4.32985e-05,-0.00117671,0.00194384,-0.00068526,-0.554379,0.00157482,0.0392535,1924,1247,47.6074,-10.881
707,-223,47.4878,10.3484,0.00123631,-0.00144342,-0.00078128,0.00144745,-0.00165457,-0.263951,0.00179228,0.0370454,1931,1247,47.4878,-10.3484
714,-223,47.4347,9.83276,0.000709461,-0.00146426,-0.00030108,0.000750393,-0.00150519,-0.135121,0.00132634,0.0142554,1938,1247,47.4347,-9.83274
721,-223,47.3927,9.27087,7.46883e-05,-0.00141024,0.000527625,0.00024307,-0.00157862,0.308916,0.00114209,0.0151855,1945,1247,47.3927,-9.27087
728,-223,47.3871,8.69714,-0.000281178,-0.0011362,0.0015503,0.000899478,-0.00231685,0.650862,0.00191611,0.0186146,1952,1247,47.3871,-8.69717
735,-223,47.3723,8.16895,-0.000488629,-0.000952599,0.00268185,0.00197125,-0.00341248,0.742255,0.00314521,0.0177286,1959,1247,47.3723,-8.16898
742,-223,47.3055,7.62915,-0.000543917,-0.000818842,0.00395413,0.00327514,-0.0046379,0.768023,0.00459112,0.015951,1966,1247,47.3056,-7.62918
749,-223,47.2898,6.99756,-0.000330861,-0.000744395,0.0053711,0.00483745,-0.00591271,0.76616,0.00621695,0.0126267,1973,1247,47.2898,-6.99761
756,-223,47.2361,6.42517,0.000284593,-0.000681177,0.00698607,0.00680444,-0.00720103,0.750892,0.00808714,0.0148866,1980,1247,47.2361,-6.4252
763,-223,47.2037,5.97839,0.00153295,-0.000971706,0.00899619,0.00936356,-0.00880232,0.716239,0.0104897,0.0215744,1987,1247,47.2038,-5.97838
770,-223,47.3602,5.50305,0.00375317,-0.00148445,0.0115071,0.0129357,-0.0106669,0.673512,0.0136479,0.0493885,1994,1247,47.3603,-5.50302
777,-223,47.5408,4.98206,0,0,0,0,0,0,0,-1,2001,1247,47.5407,-4.9821
784,-223,54.1208,-0.293457,0,0,0,0,0,0,0,-1,2008,1247,54.1208,0.293477
791,-223,34.7136,2.92554,0,0,0,0,0,0,0,-1,2015,1247,34.7137,-2.92555
798,-223,0,0,0,0,0,0,0,0,0,-1,2022,1247,0,0
805,-223,0,0,0,0,0,0,0,0,0,-1,2029,1247,0,0
812,-223,0,0,0,0,0,0,0,0,0,-1,2036,1247,0,0
-700,-230,0,0,0,0,0,0,0,0,0,-1,524,1254,0,0
-693,-230,0,0,0,0,0,0,0,0,0,-1,531,1254,0,0
-686,-230,0,0,0,0,0,0,0,0,0,-1,538,1254,0,0
-679,-230,0,0,0,0,0,0,0,0,0,-1,545,1254,0,0
-672,-230,-44.9609,3.53552,-0.0979263,-0.0296077,0.00176618,-0.0295621,-0.0979719,1.54497,0.0580274,0.0457904,552,1254,-44.9609,-3.53552
-665,-230,-45.4745,2.71704,-0.08633,-0.0261816,0.00571638,-0.0256431,-0.0868685,1.47688,0.0515369,0.0432632,559,1254,-45.4745,-2.71703
-658,-230,-46.1138,2.26343,-0.0742174,-0.0222367,0.00733715,-0.0212209,-0.0752332,1.43322,0.0447901,0.0452308,566,1254,-46.1138,-2.26347
-651,-230,-46.918,1.68115,0,0,0,0,0,0,0,-1,573,1254,-46.9179,-1.68121
-644,-230,-46.6829,-0.736084,0,0,0,0,0,0,0,-1,580,1254,-46.6828,0.736121
-637,-230,-47.2576,-2.08752,0,0,0,0,0,0,0,-1,587,1254,-47.2576,2.08754
-630,-230,-31.5291,3.38977,0,0,0,0,0,0,0,-1,594,1254,-31.529,-3.38973
-623,-230,-31.3025,4.13782,-0.0216908,-0.00508549,0.00487247,-0.00376135,-0.0230149,1.30545,0.0142559,0.0353973,601,1254,-31.3025,-4.13779
-616,-230,-31.1526,4.7699,-0.0137353,-0.00284104,0.00392292,-0.00157546,-0.0150009,1.25872,0.009519,0.0164489,608,1254,-31.1526,-4.76994
-609,-230,-31.1514,5.39929,-0.00666295,-0.000879142,0.00259837,0.000116708,-0.0076588,1.2048,0.00514521,0.0120985,615,1254,-31.1513,-5.39933
-602,-230,-31.1737,5.96729,-0.00173797,0.000351472,0.00117883,0.000881896,-0.00226839,1.14798,0.00187662,0.0122714,622,1254,-31.1737,-5.96724
-595,-230,-31.2205,6.6062,-0.000385675,-0.000511836,0.000181359,-0.000256739,-0.000640772,0.618032,0.000372375,0.0188911,629,1254,-31.2204,-6.60626
-588,-230,-31.24,7.29651,5.24307e-05,-0.00146638,-0.000306935,0.000112114,-0.00152606,-0.192052,0.00105673,0.0268185,636,1254,-31.24,-7.29645
-581,-230,-31.2807,7.94226,-4.20029e-05,-0.00224426,-0.000279534,-7.07537e-06,-0.00227919,-0.124305,0.0015171,0.0268093,643,1254,-31.2807,-7.94224
-574,-230,-31.2822,8.44202,-0.000652955,-0.00288962,-0.000138466,-0.000644416,-0.00289816,-0.061594,0.00175714,0.030927,650,1254,-31.2822,-8.44196
-567,-230,-31.269,8.95435,-0.00154206,-0.00339907,0.000100848,-0.0015366,-0.00340453,0.0540948,0.00196871,0.0435162,657,1254,-31.2691,-8.95437
-560,-230,-31.4763,9.36609,0,0,0,0,0,0,0,-1,664,1254,-31.4763,-9.36604
-553,-230,-13.1939,4.9718,0,0,0,0,0,0,0,-1,671,1254,-13.1939,-4.97175
-546,-230,-15.23,0.453979,0,0,0,0,0,0,0,-1,678,1254,-15.23,-0.453996
-539,-230,-25.8232,0.512817,0,0,0,0,0,0,0,-1,685,1254,-25.8232,-0.512878
-532,-230,-21.1644,1.52966,0,0,0,0,0,0,0,-1,692,1254,-21.1644,-1.52969
-525,-230,-29.4775,0.731445,0,0,0,0,0,0,0,-1,699,1254,-29.4775,-0.731432
-518,-230,-45.7252,0.79541,0,0,0,0,0,0,0,-1,706,1254,-45.7251,-0.795419
-511,-230,-45.9714,0.887207,-0.0063421,0.00741818,0.00337449,0.00820117,-0.00712509,1.3428,0.00885589,0.0421695,713,1254,-45.9714,-0.887256
-504,-230,-46.1375,1.0249,-0.00573408,0.00909876,0.00477656,0.0105038,-0.00713916,1.2847,0.0102477,0.0391399,720,1254,-46.1374,-1.02493
-497,-230,0,0,0,0,0,0,0,0,0,-1,727,1254,0,0
-490,-230,0,0,0,0,0,0,0,0,0,-1,734,1254,0,0
-483,-230,0,0,0,0,0,0,0,0,0,-1,741,1254,0,0
-476,-230,0,0,0,0,0,0,0,0,0,-1,748,1254,0,0
-469,-230,0,0,0,0,0,0,0,0,0,-1,755,1254,0,0
-462,-230,0,0,0,0,0,0,0,0,0,-1,762,1254,0,0
-455,-230,0,0,0,0,0,0,0,0,0,-1,769,1254,0,0
-448,-230,0,0,0,0,0,0,0,0,0,-1,776,1254,0,0
-441,-230,0,0,0,0,0,0,0,0,0,-1,783,1254,0,0
-434,-230,0,0,0,0,0,0,0,0,0,-1,790,1254,0,0
-427,-230,0,0,0,0,0,0,0,0,0,-1,797,1254,0,0
-420,-230,0,0,0,0,0,0,0,0,0,-1,804,1254,0,0
-413,-230,0,0,0,0,0,0,0,0,0,-1,811,1254,0,0
-406,-230,0,0,0,0,0,0,0,0,0,-1,818,1254,0,0
-399,-230,0,0,0,0,0,0,0,0,0,-1,825,1254,0,0
-392,-230,0,0,0,0,0,0,0,0,0,-1,832,1254,0,0
-385,-230,0,0,0,0,0,0,0,0,0,-1,839,1254,0,0
-378,-230,0,0,0,0,0,0,0,0,0,-1,846,1254,0,0
-371,-230,0,0,0,0,0,0,0,0,0,-1,853,1254,0,0
-364,-230,0,0,0,0,0,0,0,0,0,-1,860,1254,0,0
-357,-230,0,0,0,0,0,0,0,0,0,-1,867,1254,0,0
-350,-230,0,0,0,0,0,0,0,0,0,-1,874,1254,0,0
-343,-230,0,0,0,0,0,0,0,0,0,-1,881,1254,0,0
-336,-230,0,0,0,0,0,0,0,0,0,-1,888,1254,0,0
-329,-230,0,0,0,0,0,0,0,0,0,-1,895,1254,0,0
-322,-230,0,0,0,0,0,0,0,0,0,-1,902,1254,0,0
-315,-230,0,0,0,0,0,0,0,0,0,-1,909,1254,0,0
-308,-230,0,0,0,0,0,0,0,0,0,-1,916,1254,0,0
-301,-230,0,0,0,0,0,0,0,0,0,-1,923,1254,0,0
-294,-230,0,0,0,0,0,0,0,0,0,-1,930,1254,0,0
-287,-230,0,0,0,0,0,0,0,0,0,-1,937,1254,0,0
-280,-230,0,0,0,0,0,0,0,0,0,-1,944,1254,0,0
-273,-230,0,0,0,0,0,0,0,0,0,-1,951,1254,0,0
-266,-230,0,0,0,0,0,0,0,0,0,-1,958,1254,0,0
-259,-230,0,0,0,0,0,0,0,0,0,-1,965,1254,0,0
-252,-230,0,0,0,0,0,0,0,0,0,-1,972,1254,0,0
-245,-230,0,0,0,0,0,0,0,0,0,-1,979,1254,0,0
-238,-230,0,0,0,0,0,0,0,0,0,-1,986,1254,0,0
-231,-230,0,0,0,0,0,0,0,0,0,-1,993,1254,0,0
-224,-230,0,0,0,0,0,0,0,0,0,-1,1000,1254,0,0
-217,-230,0,0,0,0,0,0,0,0,0,-1,1007,1254,0,0
-210,-230,0,0,0,0,0,0,0,0,0,-1,1014,1254,0,0
-203,-230,0,0,0,0,0,0,0,0,0,-1,1021,1254,0,0
-196,-230,0,0,0,0,0,0,0,0,0,-1,1028,1254,0,0
-189,-230,0,0,0,0,0,0,0,0,0,-1,1035,1254,0,0
-182,-230,0,0,0,0,0,0,0,0,0,-1,1042,1254,0,0
-175,-230,0,0,0,0,0,0,0,0,0,-1,1049,1254,0,0
-168,-230,0,0,0,0,0,0,0,0,0,-1,1056,1254,0,0
-161,-230,0,0,0,0,0,0,0,0,0,-1,1063,1254,0,0
-154,-230,0,0,0,0,0,0,0,0,0,-1,1070,1254,0,0
-147,-230,0,0,0,0,0,0,0,0,0,-1,1077,1254,0,0
-140,-230,0,0,0,0,0,0,0,0,0,-1,1084,1254,0,0
-133,-230,0,0,0,0,0,0,0,0,0,-1,1091,1254,0,0
-126,-230,0,0,0,0,0,0,0,0,0,-1,1098,1254,0,0
-119,-230,0,0,0,0,0,0,0,0,0,-1,1105,1254,0,0
-112,-230,0,0,0,0,0,0,0,0,0,-1,1112,1254,0,0
-105,-230,0,0,0,0,0,0,0,0,0,-1,1119,1254,0,0
-98,-230,0,0,0,0,0,0,0,0,0,-1,1126,1254,0,0
-91,-230,0,0,0,0,0,0,0,0,0,-1,1133,1254,0,0
-84,-230,0,0,0,0,0,0,0,0,0,-1,1140,1254,0,0
-77,-230,0,0,0,0,0,0,0,0,0,-1,1147,1254,0,0
-70,-230,0,0,0,0,0,0,0,0,0,-1,1154,1254,0,0
-63,-230,0,0,0,0,0,0,0,0,0,-1,1161,1254,0,0
-56,-230,0,0,0,0,0,0,0,0,0,-1,1168,1254,0,0
-49,-230,0,0,0,0,0,0,0,0,0,-1,1175,1254,0,0
-42,-230,0,0,0,0,0,0,0,0,0,-1,1182,1254,0,0
-35,-230,0,0,0,0,0,0,0,0,0,-1,1189,1254,0,0
-28,-230,0,0,0,0,0,0,0,0,0,-1,1196,1254,0,0
-21,-230,0,0,0,0,0,0,0,0,0,-1,1203,1254,0,0
-14,-230,0,0,0,0,0,0,0,0,0,-1,1210,1254,0,0
-7,-230,0,0,0,0,0,0,0,0,0,-1,1217,1254,0,0
0,-230,0,0,0,0,0,0,0,0,0,-1,1224,1254,0,0
7,-230,0,0,0,0,0,0,0,0,0,-1,1231,1254,0,0
14,-230,0,0,0,0,0,0,0,0,0,-1,1238,1254,0,0
21,-230,0,0,0,0,0,0,0,0,0,-1,1245,1254,0,0
28,-230,0,0,0,0,0,0,0,0,0,-1,1252,1254,0,0
35,-230,0,0,0,0,0,0,0,0,0,-1,1259,1254,0,0
42,-230,0,0,0,0,0,0,0,0,0,-1,1266,1254,0,0
49,-230,0,0,0,0,0,0,0,0,0,-1,1273,1254,0,0
56,-230,0,0,0,0,0,0,0,0,0,-1,1280,1254,0,0
63,-230,0,0,0,0,0,0,0,0,0,-1,1287,1254,0,0
70,-230,0,0,0,0,0,0,0,0,0,-1,1294,1254,0,0
77,-230,0,0,0,0,0,0,0,0,0,-1,1301,1254,0,0
84,-230,0,0,0,0,0,0,0,0,0,-1,1308,1254,0,0
91,-230,0,0,0,0,0,0,0,0,0,-1,1315,1254,0,0
98,-230,0,0,0,0,0,0,0,0,0,-1,1322,1254,0,0
105,-230,0,0,0,0,0,0,0,0,0,-1,1329,1254,0,0
112,-230,0,0,0,0,0,0,0,0,0,-1,1336,1254,0,0
119,-230,0,0,0,0,0,0,0,0,0,-1,1343,1254,0,0
126,-230,0,0,0,0,0,0,0,0,0,-1,1350,1254,0,0
133,-230,0,0,0,0,0,0,0,0,0,-1,1357,1254,0,0
140,-230,0,0,0,0,0,0,0,0,0,-1,1364,1254,0,0
147,-230,0,0,0,0,0,0,0,0,0,-1,1371,1254,0,0
154,-230,0,0,0,0,0,0,0,0,0,-1,1378,1254,0,0
161,-230,0,0,0,0,0,0,0,0,0,-1,1385,1254,0,0
168,-230,0,0,0,0,0,0,0,0,0,-1,1392,1254,0,0
175,-230,0,0,0,0,0,0,0,0,0,-1,1399,1254,0,0
182,-230,0,0,0,0,0,0,0,0,0,-1,1406,1254,0,0
189,-230,0,0,0,0,0,0,0,0,0,-1,1413,1254,0,0
196,-230,0,0,0,0,0,0,0,0,0,-1,1420,1254,0,0
203,-230,0,0,0,0,0,0,0,0,0,-1,1427,1254,0,0
210,-230,0,0,0,0,0,0,0,0,0,-1,1434,1254,0,0
217,-230,0,0,0,0,0,0,0,0,0,-1,1441,1254,0,0
224,-230,0,0,0,0,0,0,0,0,0,-1,1448,1254,0,0
231,-230,0,0,0,0,0,0,0,0,0,-1,1455,1254,0,0
238,-230,0,0,0,0,0,0,0,0,0,-1,1462,1254,0,0
245,-230,0,0,0,0,0,0,0,0,0,-1,1469,1254,0,0
252,-230,0,0,0,0,0,0,0,0,0,-1,1476,1254,0,0
259,-230,0,0,0,0,0,0,0,0,0,-1,1483,1254,0,0
266,-230,0,0,0,0,0,0,0,0,0,-1,1490,1254,0,0
273,-230,0,0,0,0,0,0,0,0,0,-1,1497,1254,0,0
280,-230,0,0,0,0,0,0,0,0,0,-1,1504,1254,0,0
287,-230,0,0,0,0,0,0,0,0,0,-1,1511,1254,0,0
294,-230,0,0,0,0,0,0,0,0,0,-1,1518,1254,0,0
301,-230,0,0,0,0,0,0,0,0,0,-1,1525,1254,0,0
308,-230,0,0,0,0,0,0,0,0,0,-1,1532,1254,0,0
315,-230,0,0,0,0,0,0,0,0,0,-1,1539,1254,0,0
322,-230,0,0,0,0,0,0,0,0,0,-1,1546,1254,0,0
329,-230,0,0,0,0,0,0,0,0,0,-1,1553,1254,0,0
336,-230,0,0,0,0,0,0,0,0,0,-1,1560,1254,0,0
343,-230,0,0,0,0,0,0,0,0,0,-1,1567,1254,0,0
350,-230,0,0,0,0,0,0,0,0,0,-1,1574,1254,0,0
357,-230,0,0,0,0,0,0,0,0,0,-1,1581,1254,0,0
364,-230,0,0,0,0,0,0,0,0,0,-1,1588,1254,0,0
371,-230,0,0,0,0,0,0,0,0,0,-1,1595,1254,0,0
378,-230,0,0,0,0,0,0,0,0,0,-1,1602,1254,0,0
385,-230,0,0,0,0,0,0,0,0,0,-1,1609,1254,0,0
392,-230,0,0,0,0,0,0,0,0,0,-1,1616,1254,0,0
399,-230,0,0,0,0,0,0,0,0,0,-1,1623,1254,0,0
406,-230,0,0,0,0,0,0,0,0,0,-1,1630,1254,0,0
413,-230,0,0,0,0,0,0,0,0,0,-1,1637,1254,0,0
420,-230,0,0,0,0,0,0,0,0,0,-1,1644,1254,0,0
427,-230,0,0,0,0,0,0,0,0,0,-1,1651,1254,0,0
434,-230,0,0,0,0,0,0,0,0,0,-1,1658,1254,0,0
441,-230,0,0,0,0,0,0,0,0,0,-1,1665,1254,0,0
448,-230,0,0,0,0,0,0,0,0,0,-1,1672,1254,0,0
455,-230,0,0,0,0,0,0,0,0,0,-1,1679,1254,0,0
462,-230,0,0,0,0,0,0,0,0,0,-1,1686,1254,0,0
469,-230,0,0,0,0,0,0,0,0,0,-1,1693,1254,0,0
476,-230,0,0,0,0,0,0,0,0,0,-1,1700,1254,0,0
483,-230,0,0,0,0,0,0,0,0,0,-1,1707,1254,0,0
490,-230,0,0,0,0,0,0,0,0,0,-1,1714,1254,0,0
497,-230,0,0,0,0,0,0,0,0,0,-1,1721,1254,0,0
504,-230,0,0,0,0,0,0,0,0,0,-1,1728,1254,0,0
511,-230,0,0,0,0,0,0,0,0,0,-1,1735,1254,0,0
518,-230,0,0,0,0,0,0,0,0,0,-1,1742,1254,0,0
525,-230,0,0,0,0,0,0,0,0,0,-1,1749,1254,0,0
532,-230,0,0,0,0,0,0,0,0,0,-1,1756,1254,0,0
539,-230,0,0,0,0,0,0,0,0,0,-1,1763,1254,0,0
546,-230,0,0,0,0,0,0,0,0,0,-1,1770,1254,0,0
553,-230,0,0,0,0,0,0,0,0,0,-1,1777,1254,0,0
560,-230,0,0,0,0,0,0,0,0,0,-1,1784,1254,0,0
567,-230,0,0,0,0,0,0,0,0,0,-1,1791,1254,0,0
574,-230,0,0,0,0,0,0,0,0,0,-1,1798,1254,0,0
581,-230,0,0,0,0,0,0,0,0,0,-1,1805,1254,0,0
588,-230,0,0,0,0,0,0,0,0,0,-1,1812,1254,0,0
595,-230,0,0,0,0,0,0,0,0,0,-1,1819,1254,0,0
602,-230,0,0,0,0,0,0,0,0,0,-1,1826,1254,0,0
609,-230,0,0,0,0,0,0,0,0,0,-1,1833,1254,0,0
616,-230,61.0902,2.85291,0.00382847,-0.00723779,0.0016294,0.0040634,-0.00747272,0.143192,0.00675664,0.037291,1840,1254,61.0902,-2.85294
623,-230,61.1196,2.90479,0.00185202,-0.00279684,-0.000281185,0.00186896,-0.00281378,-0.0601923,0.00272187,0.036218,1847,1254,61.1196,-2.90483
630,-230,61.0938,2.85596,0.000410287,0.00144544,-0.00219127,0.00317944,-0.0013237,-0.901372,0.00267246,0.0314666,1854,1254,61.0937,-2.85597
637,-230,61.1187,2.76343,-0.000470614,0.00526353,-0.00385781,0.007203,-0.00241008,-1.10496,0.00577549,0.0270509,1861,1254,61.1187,-2.76342
644,-230,61.1222,2.68103,-0.000400899,0.00678129,-0.00457565,0.00900677,-0.00262638,-1.11811,0.00704509,0.0214805,1868,1254,61.1222,-2.68107
651,-230,61.0942,2.61548,-0.000164531,0.00609097,-0.00429866,0.00827935,-0.00235291,-1.09991,0.00644858,0.0442992,1875,1254,61.0943,-2.61542
658,-230,61.0552,2.55774,0,0,0,0,0,0,0,-1,1882,1254,61.0552,-2.55778
665,-230,56.2585,2.51587,0,0,0,0,0,0,0,-1,1889,1254,56.2586,-2.51586
672,-230,43.0962,2.78699,0,0,0,0,0,0,0,-1,1896,1254,43.0962,-2.78698
679,-230,27.9967,2.37708,0,0,0,0,0,0,0,-1,1903,1254,27.9967,-2.3771
686,-230,40.8854,10.1788,0,0,0,0,0,0,0,-1,1910,1254,40.8853,-10.1788
693,-230,47.2335,11.575,0,0,0,0,0,0,0,-1,1917,1254,47.2335,-11.5749
700,-230,47.0111,11.0085,0.0010821,0.000312031,-0.00110055,0.00186303,-0.000468897,-0.617125,0.00142429,0.0418711,1924,1254,47.0111,-11.0085
707,-230,46.8906,10.4429,0.00102203,-0.00146069,-0.000592196,0.00115605,-0.00159471,-0.222561,0.00159487,0.0207349,1931,1254,46.8907,-10.4428
714,-230,46.8204,9.86938,0.000293021,-0.00144812,1.42666e-05,0.000293138,-0.00144824,0.00819311,0.00107659,0.0147046,1938,1254,46.8204,-9.86936
721,-230,46.8051,9.28625,-0.000436622,-0.00133125,0.000943255,0.000160007,-0.00192788,0.56399,0.00134178,0.0136299,1945,1254,46.805,-9.28631
728,-230,46.7666,8.73596,-0.000893357,-0.00112133,0.00201762,0.0010135,-0.00302818,0.757181,0.00242818,0.0143254,1952,1254,46.7665,-8.73599
735,-230,46.7476,8.20264,-0.00120849,-0.001019,0.00319877,0.00208643,-0.00431392,0.800203,0.0037691,0.0146433,1959,1254,46.7476,-8.20259
742,-230,46.7313,7.6123,-0.00137336,-0.000970622,0.00451955,0.00335204,-0.00569602,0.807661,0.00528201,0.0104845,1966,1254,46.7314,-7.61234
749,-230,46.7144,6.98828,-0.00126903,-0.000968288,0.00599631,0.00487953,-0.00711685,0.797934,0.00696615,0.0101577,1973,1254,46.7144,-6.98832
756,-230,46.6776,6.45374,-0.000788697,-0.000982254,0.00771978,0.00683491,-0.00860586,0.77913,0.00893426,0.0158169,1980,1254,46.6776,-6.45369
763,-230,46.6732,5.92957,0.000349246,-0.0013711,0.00988934,0.00941575,-0.0104376,0.742017,0.0114674,0.0366716,1987,1254,46.6733,-5.92961
770,-230,47.0258,5.38757,0,0,0,0,0,0,0,-1,1994,1254,47.0257,-5.38754
777,-230,41.8693,3.74707,0,0,0,0,0,0,0,-1,2001,1254,41.8692,-3.74713
784,-230,35.8896,1.80334,0,0,0,0,0,0,0,-1,2008,1254,35.8897,-1.80338
791,-230,35.6028,2.20642,0,0,0,0,0,0,0,-1,2015,1254,35.6027,-2.2064
798,-230,0,0,0,0,0,0,0,0,0,-1,2022,1254,0,0
805,-230,0,0,0,0,0,0,0,0,0,-1,2029,1254,0,0
812,-230,0,0,0,0,0,0,0,0,0,-1,2036,1254,0,0
-700,-237,0,0,0,0,0,0,0,0,0,-1,524,1261,0,0
-693,-237,0,0,0,0,0,0,0,0,0,-1,531,1261,0,0
-686,-237,0,0,0,0,0,0,0,0,0,-1,538,1261,0,0
-679,-237,0,0,0,0,0,0,0,0,0,-1,545,1261,0,0
-672,-237,-45.2139,3.55286,-0.107582,-0.0392063,-0.000568878,-0.0392016,-0.107586,-1.56248,0.0628721,0.0485448,552,1261,-45.2139,-3.55291
-665,-237,-46.1459,3.0697,-0.0955503,-0.0339684,0.00488514,-0.0335833,-0.0959354,1.49212,0.0562124,0.049821,559,1261,-46.146,-3.06967
-658,-237,-46.9545,2.63147,-0.0829234,-0.0286775,0.00721116,-0.0277352,-0.0838656,1.44087,0.0493363,0.0466807,566,1261,-46.9545,-2.63152
-651,-237,-47.6913,2.20374,0,0,0,0,0,0,0,-1,573,1261,-47.6913,-2.20379
-644,-237,-48.3894,1.8125,0,0,0,0,0,0,0,-1,580,1261,-48.3894,-1.81252
-637,-237,-46.2443,-2.69543,0,0,0,0,0,0,0,-1,587,1261,-46.2443,2.69545
-630,-237,-30.4108,3.5022,0,0,0,0,0,0,0,-1,594,1261,-30.4107,-3.50221
-623,-237,-30.4349,4.1217,-0.0265531,-0.00724275,0.00555131,-0.00576063,-0.0280352,1.30989,0.0170965,0.0345554,601,1261,-30.4349,-4.1217
-616,-237,-30.4596,4.77673,-0.0175942,-0.00424089,0.00460087,-0.00280918,-0.0190259,1.26911,0.011859,0.0142865,608,1261,-30.4596,-4.77675
-609,-237,-30.5092,5.41125,-0.00930567,-0.00143562,0.00339712,-0.000172097,-0.0105692,1.21471,0.00698946,0.0162895,615,1261,-30.5092,-5.41127
-602,-237,-30.5385,6.01001,-0.00291423,0.000421963,0.00190814,0.00128834,-0.0037806,1.14459,0.00304218,0.0124041,622,1261,-30.5385,-6.01003
-595,-237,-30.5911,6.61414,-0.000435085,-0.000119132,0.000629319,0.000371735,-0.000925953,0.908371,0.00077166,0.0153743,629,1261,-30.591,-6.61409
-588,-237,-30.6123,7.29663,0.000672452,-0.00103336,-7.0968e-05,0.0006754,-0.0010363,-0.0415081,0.000995549,0.026922,636,1261,-30.6123,-7.29657
-581,-237,-30.6352,7.93005,0.000713073,-0.00189393,-7.20664e-05,0.000715064,-0.00189592,-0.0276153,0.00155799,0.0257791,643,1261,-30.6352,-7.93004
-574,-237,-30.6202,8.48364,0.000156412,-0.00259144,3.22024e-05,0.000156789,-0.00259181,0.011717,0.00178244,0.0226014,650,1261,-30.6202,-8.48361
-567,-237,-30.655,9.11975,-0.00071835,-0.00309537,0.000172575,-0.000705886,-0.00310783,0.0720977,0.00188127,0.0376045,657,1261,-30.6549,-9.11977
-560,-237,-30.6271,9.48645,0,0,0,0,0,0,0,-1,664,1261,-30.6271,-9.48641
-553,-237,-20.6102,6.92139,0,0,0,0,0,0,0,-1,671,1261,-20.6102,-6.92138
-546,-237,-11.192,1.14014,0,0,0,0,0,0,0,-1,678,1261,-11.192,-1.14011
-539,-237,-16.512,1.53455,0,0,0,0,0,0,0,-1,685,1261,-16.512,-1.53457
-532,-237,-29.7025,1.23621,0,0,0,0,0,0,0,-1,692,1261,-29.7025,-1.23618
-525,-237,-37.9338,0.75708,0,0,0,0,0,0,0,-1,699,1261,-37.9339,-0.757056
-518,-237,-45.2555,0.932007,0,0,0,0,0,0,0,-1,706,1261,-45.2555,-0.932061
-511,-237,-45.8983,0.96167,0,0,0,0,0,0,0,-1,713,1261,-45.8983,-0.961706
-504,-237,-46.1323,1.16589,-0.00518966,0.0103654,0.00567977,0.0122186,-0.0070428,1.25542,0.0112536,0.0436864,720,1261,-46.1323,-1.16593
-497,-237,-46.2436,1.41296,0,0,0,0,0,0,0,-1,727,1261,-46.2436,-1.41296
-490,-237,0,0,0,0,0,0,0,0,0,-1,734,1261,0,0
-483,-237,0,0,0,0,0,0,0,0,0,-1,741,1261,0,0
-476,-237,0,0,0,0,0,0,0,0,0,-1,748,1261,0,0
-469,-237,0,0,0,0,0,0,0,0,0,-1,755,1261,0,0
-462,-237,0,0,0,0,0,0,0,0,0,-1,762,1261,0,0
-455,-237,0,0,0,0,0,0,0,0,0,-1,769,1261,0,0
-448,-237,0,0,0,0,0,0,0,0,0,-1,776,1261,0,0
-441,-237,0,0,0,0,0,0,0,0,0,-1,783,1261,0,0
-434,-237,0,0,0,0,0,0,0,0,0,-1,790,1261,0,0
-427,-237,0,0,0,0,0,0,0,0,0,-1,797,1261,0,0
-420,-237,0,0,0,0,0,0,0,0,0,-1,804,1261,0,0
-413,-237,0,0,0,0,0,0,0,0,0,-1,811,1261,0,0
-406,-237,0,0,0,0,0,0,0,0,0,-1,818,1261,0,0
-399,-237,0,0,0,0,0,0,0,0,0,-1,825,1261,0,0
-392,-237,0,0,0,0,0,0,0,0,0,-1,832,1261,0,0
-385,-237,0,0,0,0,0,0,0,0,0,-1,839,1261,0,0
-378,-237,0,0,0,0,0,0,0,0,0,-1,846,1261,0,0
-371,-237,0,0,0,0,0,0,0,0,0,-1,853,1261,0,0
-364,-237,0,0,0,0,0,0,0,0,0,-1,860,1261,0,0
-357,-237,0,0,0,0,0,0,0,0,0,-1,867,1261,0,0
-350,-237,0,0,0,0,0,0,0,0,0,-1,874,1261,0,0
-343,-237,0,0,0,0,0,0,0,0,0,-1,881,1261,0,0
-336,-237,0,0,0,0,0,0,0,0,0,-1,888,1261,0,0
-329,-237,0,0,0,0,0,0,0,0,0,-1,895,1261,0,0
-322,-237,0,0,0,0,0,0,0,0,0,-1,902,1261,0,0
-315,-237,0,0,0,0,0,0,0,0,0,-1,909,1261,0,0
-308,-237,0,0,0,0,0,0,0,0,0,-1,916,1261,0,0
-301,-237,0,0,0,0,0,0,0,0,0,-1,923,1261,0,0
-294,-237,0,0,0,0,0,0,0,0,0,-1,930,1261,0,0
-287,-237,0,0,0,0,0,0,0,0,0,-1,937,1261,0,0
-280,-237,0,0,0,0,0,0,0,0,0,-1,944,1261,0,0
-273,-237,0,0,0,0,0,0,0,0,0,-1,951,1261,0,0
-266,-237,0,0,0,0,0,0,0,0,0,-1,958,1261,0,0
-259,-237,0,0,0,0,0,0,0,0,0,-1,965,1261,0,0
-252,-237,0,0,0,0,0,0,0,0,0,-1,972,1261,0,0
-245,-237,0,0,0,0,0,0,0,0,0,-1,979,1261,0,0
-238,-237,0,0,0,0,0,0,0,0,0,-1,986,1261,0,0
-231,-237,0,0,0,0,0,0,0,0,0,-1,993,1261,0,0
-224,-237,0,0,0,0,0,0,0,0,0,-1,1000,1261,0,0
-217,-237,0,0,0,0,0,0,0,0,0,-1,1007,1261,0,0
-210,-237,0,0,0,0,0,0,0,0,0,-1,1014,1261,0,0
-203,-237,0,0,0,0,0,0,0,0,0,-1,1021,1261,0,0
-196,-237,0,0,0,0,0,0,0,0,0,-1,1028,1261,0,0
-189,-237,0,0,0,0,0,0,0,0,0,-1,1035,1261,0,0
-182,-237,0,0,0,0,0,0,0,0,0,-1,1042,1261,0,0
-175,-237,0,0,0,0,0,0,0,0,0,-1,1049,1261,0,0
-168,-237,0,0,0,0,0,0,0,0,0,-1,1056,1261,0,0
-161,-237,0,0,0,0,0,0,0,0,0,-1,1063,1261,0,0
-154,-237,0,0,0,0,0,0,0,0,0,-1,1070,1261,0,0
-147,-237,0,0,0,0,0,0,0,0,0,-1,1077,1261,0,0
-140,-237,0,0,0,0,0,0,0,0,0,-1,1084,1261,0,0
-133,-237,0,0,0,0,0,0,0,0,0,-1,1091,1261,0,0
-126,-237,0,0,0,0,0,0,0,0,0,-1,1098,1261,0,0
-119,-237,0,0,0,0,0,0,0,0,0,-1,1105,1261,0,0
-112,-237,0,0,0,0,0,0,0,0,0,-1,1112,1261,0,0
-105,-237,0,0,0,0,0,0,0,0,0,-1,1119,1261,0,0
-98,-237,0,0,0,0,0,0,0,0,0,-1,1126,1261,0,0
-91,-237,0,0,0,0,0,0,0,0,0,-1,1133,1261,0,0
-84,-237,0,0,0,0,0,0,0,0,0,-1,1140,1261,0,0
-77,-237,0,0,0,0,0,0,0,0,0,-1,1147,1261,0,0
-70,-237,0,0,0,0,0,0,0,0,0,-1,1154,1261,0,0
-63,-237,0,0,0,0,0,0,0,0,0,-1,1161,1261,0,0
-56,-237,0,0,0,0,0,0,0,0,0,-1,1168,1261,0,0
-49,-237,0,0,0,0,0,0,0,0,0,-1,1175,1261,0,0
-42,-237,0,0,0,0,0,0,0,0,0,-1,1182,1261,0,0
-35,-237,0,0,0,0,0,0,0,0,0,-1,1189,1261,0,0
-28,-237,0,0,0,0,0,0,0,0,0,-1,1196,1261,0,0
-21,-237,0,0,0,0,0,0,0,0,0,-1,1203,1261,0,0
-14,-237,0,0,0,0,0,0,0,0,0,-1,1210,1261,0,0
-7,-237,0,0,0,0,0,0,0,0,0,-1,1217,1261,0,0
0,-237,0,0,0,0,0,0,0,0,0,-1,1224,1261,0,0
7,-237,0,0,0,0,0,0,0,0,0,-1,1231,1261,0,0
14,-237,0,0,0,0,0,0,0,0,0,-1,1238,1261,0,0
21,-237,0,0,0,0,0,0,0,0,0,-1,1245,1261,0,0
28,-237,0,0,0,0,0,0,0,0,0,-1,1252,1261,0,0
35,-237,0,0,0,0,0,0,0,0,0,-1,1259,1261,0,0
42,-237,0,0,0,0,0,0,0,0,0,-1,1266,1261,0,0
49,-237,0,0,0,0,0,0,0,0,0,-1,1273,1261,0,0
56,-237,0,0,0,0,0,0,0,0,0,-1,1280,1261,0,0
63,-237,0,0,0,0,0,0,0,0,0,-1,1287,1261,0,0
70,-237,0,0,0,0,0,0,0,0,0,-1,1294,1261,0,0
77,-237,0,0,0,0,0,0,0,0,0,-1,1301,1261,0,0
84,-237,0,0,0,0,0,0,0,0,0,-1,1308,1261,0,0
91,-237,0,0,0,0,0,0,0,0,0,-1,1315,1261,0,0
98,-237,0,0,0,0,0,0,0,0,0,-1,1322,1261,0,0
105,-237,0,0,0,0,0,0,0,0,0,-1,1329,1261,0,0
112,-237,0,0,0,0,0,0,0,0,0,-1,1336,1261,0,0
119,-237,0,0,0,0,0,0,0,0,0,-1,1343,1261,0,0
126,-237,0,0,0,0,0,0,0,0,0,-1,1350,1261,0,0
133,-237,0,0,0,0,0,0,0,0,0,-1,1357,1261,0,0
140,-237,0,0,0,0,0,0,0,0,0,-1,1364,1261,0,0
147,-237,0,0,0,0,0,0,0,0,0,-1,1371,1261,0,0
154,-237,0,0,0,0,0,0,0,0,0,-1,1378,1261,0,0
161,-237,0,0,0,0,0,0,0,0,0,-1,1385,1261,0,0
168,-237,0,0,0,0,0,0,0,0,0,-1,1392,1261,0,0
175,-237,0,0,0,0,0,0,0,0,0,-1,1399,1261,0,0
182,-237,0,0,0,0,0,0,0,0,0,-1,1406,1261,0,0
189,-237,0,0,0,0,0,0,0,0,0,-1,1413,1261,0,0
196,-237,0,0,0,0,0,0,0,0,0,-1,1420,1261,0,0
203,-237,0,0,0,0,0,0,0,0,0,-1,1427,1261,0,0
210,-237,0,0,0,0,0,0,0,0,0,-1,1434,1261,0,0
217,-237,0,0,0,0,0,0,0,0,0,-1,1441,1261,0,0
224,-237,0,0,0,0,0,0,0,0,0,-1,1448,1261,0,0
231,-237,0,0,0,0,0,0,0,0,0,-1,1455,1261,0,0
238,-237,0,0,0,0,0,0,0,0,0,-1,1462,1261,0,0
245,-237,0,0,0,0,0,0,0,0,0,-1,1469,1261,0,0
252,-237,0,0,0,0,0,0,0,0,0,-1,1476,1261,0,0
259,-237,0,0,0,0,0,0,0,0,0,-1,1483,1261,0,0
266,-237,0,0,0,0,0,0,0,0,0,-1,1490,1261,0,0
273,-237,0,0,0,0,0,0,0,0,0,-1,1497,1261,0,0
280,-237,0,0,0,0,0,0,0,0,0,-1,1504,1261,0,0
287,-237,0,0,0,0,0,0,0,0,0,-1,1511,1261,0,0
294,-237,0,0,0,0,0,0,0,0,0,-1,1518,1261,0,0
301,-237,0,0,0,0,0,0,0,0,0,-1,1525,1261,0,0
308,-237,0,0,0,0,0,0,0,0,0,-1,1532,1261,0,0
315,-237,0,0,0,0,0,0,0,0,0,-1,1539,1261,0,0
322,-237,0,0,0,0,0,0,0,0,0,-1,1546,1261,0,0
329,-237,0,0,0,0,0,0,0,0,0,-1,1553,1261,0,0
336,-237,0,0,0,0,0,0,0,0,0,-1,1560,1261,0,0
343,-237,0,0,0,0,0,0,0,0,0,-1,1567,1261,0,0
350,-237,0,0,0,0,0,0,0,0,0,-1,1574,1261,0,0
357,-237,0,0,0,0,0,0,0,0,0,-1,1581,1261,0,0
364,-237,0,0,0,0,0,0,0,0,0,-1,1588,1261,0,0
371,-237,0,0,0,0,0,0,0,0,0,-1,1595,1261,0,0
378,-237,0,0,0,0,0,0,0,0,0,-1,1602,1261,0,0
385,-237,0,0,0,0,0,0,0,0,0,-1,1609,1261,0,0
392,-237,0,0,0,0,0,0,0,0,0,-1,1616,1261,0,0
399,-237,0,0,0,0,0,0,0,0,0,-1,1623,1261,0,0
406,-237,0,0,0,0,0,0,0,0,0,-1,1630,1261,0,0
413,-237,0,0,0,0,0,0,0,0,0,-1,1637,1261,0,0
420,-237,0,0,0,0,0,0,0,0,0,-1,1644,1261,0,0
427,-237,0,0,0,0,0,0,0,0,0,-1,1651,1261,0,0
434,-237,0,0,0,0,0,0,0,0,0,-1,1658,1261,0,0
441,-237,0,0,0,0,0,0,0,0,0,-1,1665,1261,0,0
448,-237,0,0,0,0,0,0,0,0,0,-1,1672,1261,0,0
455,-237,0,0,0,0,0,0,0,0,0,-1,1679,1261,0,0
462,-237,0,0,0,0,0,0,0,0,0,-1,1686,1261,0,0
469,-237,0,0,0,0,0,0,0,0,0,-1,1693,1261,0,0
476,-237,0,0,0,0,0,0,0,0,0,-1,1700,1261,0,0
483,-237,0,0,0,0,0,0,0,0,0,-1,1707,1261,0,0
490,-237,0,0,0,0,0,0,0,0,0,-1,1714,1261,0,0
497,-237,0,0,0,0,0,0,0,0,0,-1,1721,1261,0,0
504,-237,0,0,0,0,0,0,0,0,0,-1,1728,1261,0,0
511,-237,0,0,0,0,0,0,0,0,0,-1,1735,1261,0,0
518,-237,0,0,0,0,0,0,0,0,0,-1,1742,1261,0,0
525,-237,0,0,0,0,0,0,0,0,0,-1,1749,1261,0,0
532,-237,0,0,0,0,0,0,0,0,0,-1,1756,1261,0,0
539,-237,0,0,0,0,0,0,0,0,0,-1,1763,1261,0,0
546,-237,0,0,0,0,0,0,0,0,0,-1,1770,1261,0,0
553,-237,0,0,0,0,0,0,0,0,0,-1,1777,1261,0,0
560,-237,0,0,0,0,0,0,0,0,0,-1,1784,1261,0,0
567,-237,0,0,0,0,0,0,0,0,0,-1,1791,1261,0,0
574,-237,0,0,0,0,0,0,0,0,0,-1,1798,1261,0,0
581,-237,0,0,0,0,0,0,0,0,0,-1,1805,1261,0,0
588,-237,0,0,0,0,0,0,0,0,0,-1,1812,1261,0,0
595,-237,0,0,0,0,0,0,0,0,0,-1,1819,1261,0,0
602,-237,0,0,0,0,0,0,0,0,0,-1,1826,1261,0,0
609,-237,0,0,0,0,0,0,0,0,0,-1,1833,1261,0,0
616,-237,61.1675,2.86572,0.00304633,-0.00531701,0.00130579,0.00324547,-0.00551615,0.151335,0.00511483,0.0382882,1840,1261,61.1675,-2.86567
623,-237,61.2657,2.91602,0.00106982,-0.00073824,-0.00107134,0.00156759,-0.00123601,-0.434947,0.00162243,0.0335294,1847,1261,61.2657,-2.91601
630,-237,61.1864,2.87378,-0.000525639,0.00395045,-0.00344521,0.00582074,-0.00239592,-1.07345,0.00487932,0.0263257,1854,1261,61.1864,-2.87379
637,-237,61.0784,2.7157,-0.00132252,0.00746638,-0.00507488,0.00978502,-0.00364117,-1.14223,0.00801758,0.0206001,1861,1261,61.0784,-2.71575
644,-237,60.9354,2.49365,-0.00103345,0.00801607,-0.00532287,0.0104775,-0.00349485,-1.13766,0.00839599,0.0397238,1868,1261,60.9355,-2.49363
651,-237,60.9093,2.23022,-0.000724133,0.00687744,-0.00473167,0.00914581,-0.0029925,-1.12376,0.00730205,0.048497,1875,1261,60.9094,-2.23019
658,-237,60.8555,1.96619,0,0,0,0,0,0,0,-1,1882,1261,60.8555,-1.96621
665,-237,57.9302,3.30676,0,0,0,0,0,0,0,-1,1889,1261,57.9302,-3.30671
672,-237,45.3922,1.95618,0,0,0,0,0,0,0,-1,1896,1261,45.3922,-1.95623
679,-237,23.1501,7.37488,0,0,0,0,0,0,0,-1,1903,1261,23.1502,-7.37493
686,-237,36.8348,9.99426,0,0,0,0,0,0,0,-1,1910,1261,36.8349,-9.99424
693,-237,46.3628,11.6003,0,0,0,0,0,0,0,-1,1917,1261,46.3627,-11.6003
700,-237,46.3363,11.0502,0.000970759,0.000623162,-0.00105392,0.00186511,-0.000271194,-0.70368,0.00134297,0.0204279,1924,1261,46.3363,-11.0502
707,-237,46.293,10.4944,0.000825512,-0.00134285,-0.000413345,0.000901633,-0.00141898,-0.182119,0.00135086,0.0129059,1931,1261,46.293,-10.4943
714,-237,46.2593,9.89185,-9.38823e-05,-0.00128567,0.000307255,-1.9332e-05,-0.00136022,0.238033,0.000900438,0.0168255,1938,1261,46.2593,-9.8918
721,-237,46.2021,9.32361,-0.000911549,-0.00116342,0.00129235,0.000260984,-0.00233595,0.736828,0.00165118,0.0173885,1945,1261,46.2022,-9.32366
728,-237,46.1967,8.75513,-0.00146787,-0.0010325,0.00239382,0.00115351,-0.00365388,0.830742,0.00289799,0.0143476,1952,1261,46.1967,-8.75507
735,-237,46.1793,8.19775,-0.00190567,-0.00100737,0.00360339,0.00217476,-0.00508779,0.847402,0.004304,0.0193054,1959,1261,46.1793,-8.19775
742,-237,46.1656,7.62048,-0.00221078,-0.00103988,0.00495811,0.00336722,-0.00661788,0.844166,0.00586585,0.014807,1966,1261,46.1656,-7.62048
749,-237,46.0989,7.04895,-0.00226412,-0.0011141,0.00647823,0.00481459,-0.00819281,0.829662,0.00759378,0.0104011,1973,1261,46.0989,-7.04894
756,-237,46.059,6.50842,-0.00199614,-0.00123502,0.00830406,0.00669719,-0.00992836,0.808296,0.00965901,0.0187954,1980,1261,46.0589,-6.50847
763,-237,45.9824,5.93237,-0.00106382,-0.00176266,0.0106288,0.00922133,-0.0120478,0.768967,0.0123158,0.0400257,1987,1261,45.9824,-5.9324
770,-237,46.3333,5.54626,0,0,0,0,0,0,0,-1,1994,1261,46.3332,-5.5463
777,-237,46.8997,4.86511,0,0,0,0,0,0,0,-1,2001,1261,46.8996,-4.86514
784,-237,36.3441,1.68591,0,0,0,0,0,0,0,-1,2008,1261,36.3441,-1.68592
791,-237,32.3025,6.03235,0,0,0,0,0,0,0,-1,2015,1261,32.3025,-6.03229
798,-237,0,0,0,0,0,0,0,0,0,-1,2022,1261,0,0
805,-237,0,0,0,0,0,0,0,0,0,-1,2029,1261,0,0
812,-237,0,0,0,0,0,0,0,0,0,-1,2036,1261,0,0
-700,-244,0,0,0,0,0,0,0,0,0,-1,524,1268,0,0
-693,-244,0,0,0,0,0,0,0,0,0,-1,531,1268,0,0
-686,-244,0,0,0,0,0,0,0,0,0,-1,538,1268,0,0
-679,-244,0,0,0,0,0,0,0,0,0,-1,545,1268,0,0
-672,-244,-45.7924,4.37476,-0.118844,-0.0497359,-0.00376315,-0.0495316,-0.119048,-1.51656,0.0690544,0.0475789,552,1268,-45.7924,-4.3747
-665,-244,-46.6867,3.79749,-0.106071,-0.0419441,0.00377986,-0.0417221,-0.106293,1.51212,0.0618389,0.0497,559,1268,-46.6867,-3.79748
-658,-244,-47.6869,3.19189,0,0,0,0,0,0,0,-1,566,1268,-47.6869,-3.19187
-651,-244,-48.4576,2.76489,0,0,0,0,0,0,0,-1,573,1268,-48.4576,-2.76488
-644,-244,-47.0084,-0.652344,0,0,0,0,0,0,0,-1,580,1268,-47.0083,0.652373
-637,-244,-29.655,2.78674,0,0,0,0,0,0,0,-1,587,1268,-29.6549,-2.78679
-630,-244,-29.9048,3.55969,0,0,0,0,0,0,0,-1,594,1268,-29.9048,-3.5597
-623,-244,-29.8738,4.19458,-0.0319393,-0.00919405,0.00652953,-0.00745289,-0.0336804,1.3102,0.0204277,0.0370383,601,1268,-29.8739,-4.19458
-616,-244,-29.8685,4.81531,-0.0220755,-0.00555478,0.0055325,-0.0038732,-0.0237571,1.27572,0.0147179,0.0171913,608,1268,-29.8684,-4.81533
-609,-244,-29.8892,5.42627,-0.0127179,-0.00208323,0.00441185,-0.000491265,-0.0143099,1.2245,0.00938044,0.0150668,615,1268,-29.8892,-5.42626
-602,-244,-29.9236,6.03149,-0.00494556,0.000332479,0.00283533,0.0015669,-0.00617998,1.16017,0.00472961,0.0148345,622,1268,-29.9237,-6.03145
-595,-244,-29.9534,6.66553,-0.0012278,0.000213166,0.00122111,0.000910499,-0.00192513,1.05192,0.00167172,0.0152639,629,1268,-29.9535,-6.66556
-588,-244,-29.9735,7.31799,0.000753812,-0.000525613,0.000243887,0.000798726,-0.000570527,0.182117,0.000794189,0.01985,636,1268,-29.9735,-7.318
-581,-244,-30.0264,7.92737,0.00115506,-0.00145316,0.000177119,0.00116703,-0.00146514,0.0674952,0.00152293,0.0177109,643,1268,-30.0263,-7.92742
-574,-244,-30.0496,8.54285,0.000887522,-0.00215466,0.000279352,0.000912961,-0.0021801,0.0908141,0.00183505,0.0139364,650,1268,-30.0495,-8.54279
-567,-244,-30.049,9.17126,0.000198239,-0.00263094,0.000333154,0.000236941,-0.00266964,0.115649,0.00186377,0.0250427,657,1268,-30.049,-9.17123
-560,-244,-29.9695,9.73767,-0.00043556,-0.00166519,0.000223189,-0.000396303,-0.00170444,0.174113,0.00102993,0.0435186,664,1268,-29.9695,-9.73761
-553,-244,-29.8182,10.2968,0,0,0,0,0,0,0,-1,671,1268,-29.8183,-10.2967
-546,-244,-11.2686,4.41772,0,0,0,0,0,0,0,-1,678,1268,-11.2686,-4.41767
-539,-244,-12.8706,0.3302,0,0,0,0,0,0,0,-1,685,1268,-12.8706,-0.330156
-532,-244,-18.1502,0.816528,0,0,0,0,0,0,0,-1,692,1268,-18.1502,-0.816514
-525,-244,-33.0835,0.693604,0,0,0,0,0,0,0,-1,699,1268,-33.0835,-0.69365
-518,-244,-38.1713,0.902832,0,0,0,0,0,0,0,-1,706,1268,-38.1713,-0.902888
-511,-244,-45.5411,1.24158,0,0,0,0,0,0,0,-1,713,1268,-45.5411,-1.24156
-504,-244,-46.1316,1.23547,0,0,0,0,0,0,0,-1,720,1268,-46.1316,-1.23553
-497,-244,-46.3387,1.50928,0,0,0,0,0,0,0,-1,727,1268,-46.3387,-1.50928
-490,-244,0,0,0,0,0,0,0,0,0,-1,734,1268,0,0
-483,-244,0,0,0,0,0,0,0,0,0,-1,741,1268,0,0
-476,-244,0,0,0,0,0,0,0,0,0,-1,748,1268,0,0
-469,-244,0,0,0,0,0,0,0,0,0,-1,755,1268,0,0
-462,-244,0,0,0,0,0,0,0,0,0,-1,762,1268,0,0
-455,-244,0,0,0,0,0,0,0,0,0,-1,769,1268,0,0
-448,-244,0,0,0,0,0,0,0,0,0,-1,776,1268,0,0
-441,-244,0,0,0,0,0,0,0,0,0,-1,783,1268,0,0
-434,-244,0,0,0,0,0,0,0,0,0,-1,790,1268,0,0
-427,-244,0,0,0,0,0,0,0,0,0,-1,797,1268,0,0
-420,-244,0,0,0,0,0,0,0,0,0,-1,804,1268,0,0
-413,-244,0,0,0,0,0,0,0,0,0,-1,811,1268,0,0
-406,-244,0,0,0,0,0,0,0,0,0,-1,818,1268,0,0
-399,-244,0,0,0,0,0,0,0,0,0,-1,825,1268,0,0
-392,-244,0,0,0,0,0,0,0,0,0,-1,832,1268,0,0
-385,-244,0,0,0,0,0,0,0,0,0,-1,839,1268,0,0
-378,-244,0,0,0,0,0,0,0,0,0,-1,846,1268,0,0
-371,-244,0,0,0,0,0,0,0,0,0,-1,853,1268,0,0
-364,-244,0,0,0,0,0,0,0,0,0,-1,860,1268,0,0
-357,-244,0,0,0,0,0,0,0,0,0,-1,867,1268,0,0
-350,-244,0,0,0,0,0,0,0,0,0,-1,874,1268,0,0
-343,-244,0,0,0,0,0,0,0,0,0,-1,881,1268,0,0
-336,-244,0,0,0,0,0,0,0,0,0,-1,888,1268,0,0
-329,-244,0,0,0,0,0,0,0,0,0,-1,895,1268,0,0
-322,-244,0,0,0,0,0,0,0,0,0,-1,902,1268,0,0
-315,-244,0,0,0,0,0,0,0,0,0,-1,909,1268,0,0
-308,-244,0,0,0,0,0,0,0,0,0,-1,916,1268,0,0
-301,-244,0,0,0,0,0,0,0,0,0,-1,923,1268,0,0
-294,-244,0,0,0,0,0,0,0,0,0,-1,930,1268,0,0
-287,-244,0,0,0,0,0,0,0,0,0,-1,937,1268,0,0
-280,-244,0,0,0,0,0,0,0,0,0,-1,944,1268,0,0
-273,-244,0,0,0,0,0,0,0,0,0,-1,951,1268,0,0
-266,-244,0,0,0,0,0,0,0,0,0,-1,958,1268,0,0
-259,-244,0,0,0,0,0,0,0,0,0,-1,965,1268,0,0
-252,-244,0,0,0,0,0,0,0,0,0,-1,972,1268,0,0
-245,-244,0,0,0,0,0,0,0,0,0,-1,979,1268,0,0
-238,-244,0,0,0,0,0,0,0,0,0,-1,986,1268,0,0
-231,-244,0,0,0,0,0,0,0,0,0,-1,993,1268,0,0
-224,-244,0,0,0,0,0,0,0,0,0,-1,1000,1268,0,0
-217,-244,0,0,0,0,0,0,0,0,0,-1,1007,1268,0,0
-210,-244,0,0,0,0,0,0,0,0,0,-1,1014,1268,0,0
-203,-244,0,0,0,0,0,0,0,0,0,-1,1021,1268,0,0
-196,-244,0,0,0,0,0,0,0,0,0,-1,1028,1268,0,0
-189,-244,0,0,0,0,0,0,0,0,0,-1,1035,1268,0,0
-182,-244,0,0,0,0,0,0,0,0,0,-1,1042,1268,0,0
-175,-244,0,0,0,0,0,0,0,0,0,-1,1049,1268,0,0
-168,-244,0,0,0,0,0,0,0,0,0,-1,1056,1268,0,0
-161,-244,0,0,0,0,0,0,0,0,0,-1,1063,1268,0,0
-154,-244,0,0,0,0,0,0,0,0,0,-1,1070,1268,0,0
-147,-244,0,0,0,0,0,0,0,0,0,-1,1077,1268,0,0
-140,-244,0,0,0,0,0,0,0,0,0,-1,1084,1268,0,0
-133,-244,0,0,0,0,0,0,0,0,0,-1,1091,1268,0,0
-126,-244,0,0,0,0,0,0,0,0,0,-1,1098,1268,0,0
-119,-244,0,0,0,0,0,0,0,0,0,-1,1105,1268,0,0
-112,-244,0,0,0,0,0,0,0,0,0,-1,1112,1268,0,0
-105,-244,0,0,0,0,0,0,0,0,0,-1,1119,1268,0,0
-98,-244,0,0,0,0,0,0,0,0,0,-1,1126,1268,0,0
-91,-244,0,0,0,0,0,0,0,0,0,-1,1133,1268,0,0
-84,-244,0,0,0,0,0,0,0,0,0,-1,1140,1268,0,0
-77,-244,0,0,0,0,0,0,0,0,0,-1,1147,1268,0,0
-70,-244,0,0,0,0,0,0,0,0,0,-1,1154,1268,0,0
-63,-244,0,0,0,0,0,0,0,0,0,-1,1161,1268,0,0
-56,-244,0,0,0,0,0,0,0,0,0,-1,1168,1268,0,0
-49,-244,0,0,0,0,0,0,0,0,0,-1,1175,1268,0,0
-42,-244,0,0,0,0,0,0,0,0,0,-1,1182,1268,0,0
-35,-244,0,0,0,0,0,0,0,0,0,-1,1189,1268,0,0
-28,-244,0,0,0,0,0,0,0,0,0,-1,1196,1268,0,0
-21,-244,0,0,0,0,0,0,0,0,0,-1,1203,1268,0,0
-14,-244,0,0,0,0,0,0,0,0,0,-1,1210,1268,0,0
-7,-244,0,0,0,0,0,0,0,0,0,-1,1217,1268,0,0
0,-244,0,0,0,0,0,0,0,0,0,-1,1224,1268,0,0
7,-244,0,0,0,0,0,0,0,0,0,-1,1231,1268,0,0
14,-244,0,0,0,0,0,0,0,0,0,-1,1238,1268,0,0
21,-244,0,0,0,0,0,0,0,0,0,-1,1245,1268,0,0
28,-244,0,0,0,0,0,0,0,0,0,-1,1252,1268,0,0
35,-244,0,0,0,0,0,0,0,0,0,-1,1259,1268,0,0
42,-244,0,0,0,0,0,0,0,0,0,-1,1266,1268,0,0
49,-244,0,0,0,0,0,0,0,0,0,-1,1273,1268,0,0
56,-244,0,0,0,0,0,0,0,0,0,-1,1280,1268,0,0
63,-244,0,0,0,0,0,0,0,0,0,-1,1287,1268,0,0
70,-244,0,0,0,0,0,0,0,0,0,-1,1294,1268,0,0
77,-244,0,0,0,0,0,0,0,0,0,-1,1301,1268,0,0
84,-244,0,0,0,0,0,0,0,0,0,-1,1308,1268,0,0
91,-244,0,0,0,0,0,0,0,0,0,-1,1315,1268,0,0
98,-244,0,0,0,0,0,0,0,0,0,-1,1322,1268,0,0
105,-244,0,0,0,0,0,0,0,0,0,-1,1329,1268,0,0
112,-244,0,0,0,0,0,0,0,0,0,-1,1336,1268,0,0
119,-244,0,0,0,0,0,0,0,0,0,-1,1343,1268,0,0
126,-244,0,0,0,0,0,0,0,0,0,-1,1350,1268,0,0
133,-244,0,0,0,0,0,0,0,0,0,-1,1357,1268,0,0
140,-244,0,0,0,0,0,0,0,0,0,-1,1364,1268,0,0
147,-244,0,0,0,0,0,0,0,0,0,-1,1371,1268,0,0
154,-244,0,0,0,0,0,0,0,0,0,-1,1378,1268,0,0
161,-244,0,0,0,0,0,0,0,0,0,-1,1385,1268,0,0
168,-244,0,0,0,0,0,0,0,0,0,-1,1392,1268,0,0
175,-244,0,0,0,0,0,0,0,0,0,-1,1399,1268,0,0
182,-244,0,0,0,0,0,0,0,0,0,-1,1406,1268,0,0
189,-244,0,0,0,0,0,0,0,0,0,-1,1413,1268,0,0
196,-244,0,0,0,0,0,0,0,0,0,-1,1420,1268,0,0
203,-244,0,0,0,0,0,0,0,0,0,-1,1427,1268,0,0
210,-244,0,0,0,0,0,0,0,0,0,-1,1434,1268,0,0
217,-244,0,0,0,0,0,0,0,0,0,-1,1441,1268,0,0
224,-244,0,0,0,0,0,0,0,0,0,-1,1448,1268,0,0
231,-244,0,0,0,0,0,0,0,0,0,-1,1455,1268,0,0
238,-244,0,0,0,0,0,0,0,0,0,-1,1462,1268,0,0
245,-244,0,0,0,0,0,0,0,0,0,-1,1469,1268,0,0
252,-244,0,0,0,0,0,0,0,0,0,-1,1476,1268,0,0
259,-244,0,0,0,0,0,0,0,0,0,-1,1483,1268,0,0
266,-244,0,0,0,0,0,0,0,0,0,-1,1490,1268,0,0
273,-244,0,0,0,0,0,0,0,0,0,-1,1497,1268,0,0
280,-244,0,0,0,0,0,0,0,0,0,-1,1504,1268,0,0
287,-244,0,0,0,0,0,0,0,0,0,-1,1511,1268,0,0
294,-244,0,0,0,0,0,0,0,0,0,-1,1518,1268,0,0
301,-244,0,0,0,0,0,0,0,0,0,-1,1525,1268,0,0
308,-244,0,0,0,0,0,0,0,0,0,-1,1532,1268,0,0
315,-244,0,0,0,0,0,0,0,0,0,-1,1539,1268,0,0
322,-244,0,0,0,0,0,0,0,0,0,-1,1546,1268,0,0
329,-244,0,0,0,0,0,0,0,0,0,-1,1553,1268,0,0
336,-244,0,0,0,0,0,0,0,0,0,-1,1560,1268,0,0
343,-244,0,0,0,0,0,0,0,0,0,-1,1567,1268,0,0
350,-244,0,0,0,0,0,0,0,0,0,-1,1574,1268,0,0
357,-244,0,0,0,0,0,0,0,0,0,-1,1581,1268,0,0
364,-244,0,0,0,0,0,0,0,0,0,-1,1588,1268,0,0
371,-244,0,0,0,0,0,0,0,0,0,-1,1595,1268,0,0
378,-244,0,0,0,0,0,0,0,0,0,-1,1602,1268,0,0
385,-244,0,0,0,0,0,0,0,0,0,-1,1609,1268,0,0
392,-244,0,0,0,0,0,0,0,0,0,-1,1616,1268,0,0
399,-244,0,0,0,0,0,0,0,0,0,-1,1623,1268,0,0
406,-244,0,0,0,0,0,0,0,0,0,-1,1630,1268,0,0
413,-244,0,0,0,0,0,0,0,0,0,-1,1637,1268,0,0
420,-244,0,0,0,0,0,0,0,0,0,-1,1644,1268,0,0
427,-244,0,0,0,0,0,0,0,0,0,-1,1651,1268,0,0
434,-244,0,0,0,0,0,0,0,0,0,-1,1658,1268,0,0
441,-244,0,0,0,0,0,0,0,0,0,-1,1665,1268,0,0
448,-244,0,0,0,0,0,0,0,0,0,-1,1672,1268,0,0
455,-244,0,0,0,0,0,0,0,0,0,-1,1679,1268,0,0
462,-244,0,0,0,0,0,0,0,0,0,-1,1686,1268,0,0
469,-244,0,0,0,0,0,0,0,0,0,-1,1693,1268,0,0
476,-244,0,0,0,0,0,0,0,0,0,-1,1700,1268,0,0
483,-244,0,0,0,0,0,0,0,0,0,-1,1707,1268,0,0
490,-244,0,0,0,0,0,0,0,0,0,-1,1714,1268,0,0
497,-244,0,0,0,0,0,0,0,0,0,-1,1721,1268,0,0
504,-244,0,0,0,0,0,0,0,0,0,-1,1728,1268,0,0
511,-244,0,0,0,0,0,0,0,0,0,-1,1735,1268,0,0
518,-244,0,0,0,0,0,0,0,0,0,-1,1742,1268,0,0
525,-244,0,0,0,0,0,0,0,0,0,-1,1749,1268,0,0
532,-244,0,0,0,0,0,0,0,0,0,-1,1756,1268,0,0
539,-244,0,0,0,0,0,0,0,0,0,-1,1763,1268,0,0
546,-244,0,0,0,0,0,0,0,0,0,-1,1770,1268,0,0
553,-244,0,0,0,0,0,0,0,0,0,-1,1777,1268,0,0
560,-244,0,0,0,0,0,0,0,0,0,-1,1784,1268,0,0
567,-244,0,0,0,0,0,0,0,0,0,-1,1791,1268,0,0
574,-244,0,0,0,0,0,0,0,0,0,-1,1798,1268,0,0
581,-244,0,0,0,0,0,0,0,0,0,-1,1805,1268,0,0
588,-244,0,0,0,0,0,0,0,0,0,-1,1812,1268,0,0
595,-244,0,0,0,0,0,0,0,0,0,-1,1819,1268,0,0
602,-244,0,0,0,0,0,0,0,0,0,-1,1826,1268,0,0
609,-244,0,0,0,0,0,0,0,0,0,-1,1833,1268,0,0
616,-244,61.1655,2.76343,0.00217226,-0.00315521,0.000452233,0.00221037,-0.00319333,0.0840853,0.00313699,0.0347156,1840,1268,61.1656,-2.76345
623,-244,61.2085,2.81982,0.000247436,0.00154845,-0.00236894,0.00335457,-0.00155869,-0.919394,0.00289915,0.0273429,1847,1268,61.2085,-2.81978
630,-244,61.1444,2.79712,-0.00140177,0.00645302,-0.00508335,0.0089494,-0.00389816,-1.1143,0.00760624,0.0239669,1854,1268,61.1444,-2.79715
637,-244,61.0579,2.68176,-0.00186059,0.00878282,-0.00610181,0.0115576,-0.00463535,-1.14401,0.00962952,0.0362629,1861,1268,61.0579,-2.68173
644,-244,60.7729,2.29419,-0.0014237,0.00840003,-0.00577318,0.0110681,-0.00409182,-1.13788,0.00905626,0.0428534,1868,1268,60.773,-2.29414
651,-244,60.7561,2.01294,-0.00110795,0.00711532,-0.00497572,0.0094584,-0.00345103,-1.1307,0.00771758,0.0446791,1875,1268,60.7561,-2.01298
658,-244,60.7714,1.88391,0,0,0,0,0,0,0,-1,1882,1268,60.7713,-1.88393
665,-244,50.7988,1.09888,0,0,0,0,0,0,0,-1,1889,1268,50.7989,-1.09893
672,-244,32.224,3.6123,0,0,0,0,0,0,0,-1,1896,1268,32.224,-3.6123
679,-244,27.2593,7.90649,0,0,0,0,0,0,0,-1,1903,1268,27.2592,-7.9065
686,-244,45.6731,12.3795,0,0,0,0,0,0,0,-1,1910,1268,45.6731,-12.3795
693,-244,45.6296,11.7843,0.000547791,0.0025063,-0.00182017,0.00359392,-0.000539824,-1.03219,0.00259467,0.0319296,1917,1268,45.6297,-11.7843
700,-244,45.6705,11.134,0.000859773,0.0008303,-0.000977689,0.00182284,-0.000132763,-0.777862,0.00126181,0.011571,1924,1268,45.6706,-11.1341
707,-244,45.697,10.5465,0.000625624,-0.00118619,-0.000211576,0.000650003,-0.00121057,-0.11472,0.00109033,0.0120215,1931,1268,45.697,-10.5465
714,-244,45.7466,9.94165,-0.000354645,-0.00109942,0.000583346,-3.49592e-05,-0.0014191,0.501323,0.000934635,0.0154121,1938,1268,45.7465,-9.94169
721,-244,45.6493,9.38574,-0.00118588,-0.00100529,0.00157598,0.000482979,-0.00267415,0.814013,0.00196366,0.0205683,1945,1268,45.6493,-9.38577
728,-244,45.5962,8.78589,-0.00182671,-0.000955753,0.00267487,0.00131886,-0.00410132,0.866092,0.00326389,0.0259063,1952,1268,45.5962,-8.78588
735,-244,45.5656,8.16431,-0.00238202,-0.00100394,0.00389588,0.00226336,-0.00564932,0.872925,0.00470574,0.0267901,1959,1268,45.5656,-8.16426
742,-244,45.5121,7.64941,-0.00282139,-0.00111288,0.00528077,0.00338228,-0.00731655,0.865587,0.00631466,0.0177491,1966,1268,45.512,-7.64947
749,-244,45.3615,7.18677,-0.00302856,-0.00125774,0.00684347,0.00475736,-0.00904365,0.849731,0.0080951,0.025182,1973,1268,45.3615,-7.18673
756,-244,45.1301,6.75427,-0.00297309,-0.00148943,0.00877975,0.00657978,-0.0110423,0.827545,0.0102823,0.0367188,1980,1268,45.1301,-6.75421
763,-244,45.4189,5.92188,0,0,0,0,0,0,0,-1,1987,1268,45.4189,-5.92185
770,-244,46.3372,5.37488,0,0,0,0,0,0,0,-1,1994,1268,46.3371,-5.37487
777,-244,45.5345,4.51587,0,0,0,0,0,0,0,-1,2001,1268,45.5346,-4.51589
784,-244,31.7908,5.20081,0,0,0,0,0,0,0,-1,2008,1268,31.7907,-5.20083
791,-244,0,0,0,0,0,0,0,0,0,-1,2015,1268,0,0
798,-244,0,0,0,0,0,0,0,0,0,-1,2022,1268,0,0
805,-244,0,0,0,0,0,0,0,0,0,-1,2029,1268,0,0
812,-244,0,0,0,0,0,0,0,0,0,-1,2036,1268,0,0
-700,-251,0,0,0,0,0,0,0,0,0,-1,524,1275,0,0
-693,-251,0,0,0,0,0,0,0,0,0,-1,531,1275,0,0
-686,-251,0,0,0,0,0,0,0,0,0,-1,538,1275,0,0
-679,-251,0,0,0,0,0,0,0,0,0,-1,545,1275,0,0
-672,-251,0,0,0,0,0,0,0,0,0,-1,552,1275,0,0
-665,-251,-47.0474,4.46838,-0.117711,-0.0514227,0.00239785,-0.051336,-0.117797,1.53469,0.0681969,0.0437992,559,1275,-47.0474,-4.46837
-658,-251,-47.8416,3.82239,-0.102959,-0.0421297,0.00696688,-0.041342,-0.103747,1.45821,0.0603084,0.0463405,566,1275,-47.8416,-3.82237
-651,-251,-48.6532,3.22571,0,0,0,0,0,0,0,-1,573,1275,-48.6532,-3.2257
-644,-251,-49.4579,2.62561,0,0,0,0,0,0,0,-1,580,1275,-49.4579,-2.62563
-637,-251,-49.7051,6.03198,0,0,0,0,0,0,0,-1,587,1275,-49.7051,-6.03198
-630,-251,-29.1464,3.91724,0,0,0,0,0,0,0,-1,594,1275,-29.1464,-3.91721
-623,-251,-29.2061,4.38062,-0.0371762,-0.0111596,0.00755919,-0.00912274,-0.0392131,1.30759,0.023694,0.0411461,601,1275,-29.2061,-4.3806
-616,-251,-29.2498,4.85559,-0.0263919,-0.00690942,0.00647194,-0.00495545,-0.0283459,1.27759,0.0174811,0.0200671,608,1275,-29.2498,-4.85555
-609,-251,-29.2857,5.41785,-0.0160691,-0.00277812,0.00545692,-0.000824748,-0.0180225,1.22705,0.0117497,0.0192466,615,1275,-29.2857,-5.41787
-602,-251,-29.3043,6.05139,-0.00714113,8.59569e-05,0.00377668,0.00169936,-0.00875454,1.16706,0.00647755,0.0137848,622,1275,-29.3042,-6.05142
-595,-251,-29.3136,6.69836,-0.00229297,0.000378529,0.00181457,0.00129597,-0.00321041,1.10268,0.00267888,0.0127723,629,1275,-29.3136,-6.69838
-588,-251,-29.3384,7.30518,0.000599039,-0.000112605,0.000489681,0.000848524,-0.00036209,0.471206,0.00071751,0.0152162,636,1275,-29.3384,-7.30516
-581,-251,-29.3795,7.95227,0.00137065,-0.00115213,0.000270488,0.00139933,-0.0011808,0.105619,0.00149142,0.014523,643,1275,-29.3795,-7.95226
-574,-251,-29.4,8.61487,0.00150112,-0.00194397,0.000405338,0.00154817,-0.00199102,0.115554,0.00204868,0.0128061,650,1275,-29.4,-8.61481
-567,-251,-29.4091,9.26038,0.00122896,-0.00251518,0.000441172,0.00128025,-0.00256646,0.115719,0.0022619,0.0190784,657,1275,-29.4091,-9.26035
-560,-251,-29.3141,10.0972,0.000673105,-0.00150176,0.000289313,0.000710933,-0.00153959,0.130014,0.00132837,0.0422091,664,1275,-29.3141,-10.0972
-553,-251,-29.1039,10.8042,0,0,0,0,0,0,0,-1,671,1275,-29.1039,-10.8042
-546,-251,-12.995,4.5675,0,0,0,0,0,0,0,-1,678,1275,-12.995,-4.56745
-539,-251,-10.7916,0.366333,0,0,0,0,0,0,0,-1,685,1275,-10.7916,-0.366282
-532,-251,-10.7391,-0.00769043,0,0,0,0,0,0,0,-1,692,1275,-10.7391,0.00773227
-525,-251,-29.4286,-0.250244,0,0,0,0,0,0,0,-1,699,1275,-29.4286,0.250266
-518,-251,-32.6981,0.678833,0,0,0,0,0,0,0,-1,706,1275,-32.6981,-0.678787
-511,-251,-29.4731,0.637085,0,0,0,0,0,0,0,-1,713,1275,-29.4731,-0.637025
-504,-251,-30.6428,0.792358,0,0,0,0,0,0,0,-1,720,1275,-30.6427,-0.792335
-497,-251,-43.2418,1.24744,0,0,0,0,0,0,0,-1,727,1275,-43.2418,-1.24738
-490,-251,0,0,0,0,0,0,0,0,0,-1,734,1275,0,0
-483,-251,0,0,0,0,0,0,0,0,0,-1,741,1275,0,0
-476,-251,0,0,0,0,0,0,0,0,0,-1,748,1275,0,0
-469,-251,0,0,0,0,0,0,0,0,0,-1,755,1275,0,0
-462,-251,0,0,0,0,0,0,0,0,0,-1,762,1275,0,0
-455,-251,0,0,0,0,0,0,0,0,0,-1,769,1275,0,0
-448,-251,0,0,0,0,0,0,0,0,0,-1,776,1275,0,0
-441,-251,0,0,0,0,0,0,0,0,0,-1,783,1275,0,0
-434,-251,0,0,0,0,0,0,0,0,0,-1,790,1275,0,0
-427,-251,0,0,0,0,0,0,0,0,0,-1,797,1275,0,0
-420,-251,0,0,0,0,0,0,0,0,0,-1,804,1275,0,0
-413,-251,0,0,0,0,0,0,0,0,0,-1,811,1275,0,0
-406,-251,0,0,0,0,0,0,0,0,0,-1,818,1275,0,0
-399,-251,0,0,0,0,0,0,0,0,0,-1,825,1275,0,0
-392,-251,0,0,0,0,0,0,0,0,0,-1,832,1275,0,0
-385,-251,0,0,0,0,0,0,0,0,0,-1,839,1275,0,0
-378,-251,0,0,0,0,0,0,0,0,0,-1,846,1275,0,0
-371,-251,0,0,0,0,0,0,0,0,0,-1,853,1275,0,0
-364,-251,0,0,0,0,0,0,0,0,0,-1,860,1275,0,0
-357,-251,0,0,0,0,0,0,0,0,0,-1,867,1275,0,0
-350,-251,0,0,0,0,0,0,0,0,0,-1,874,1275,0,0
-343,-251,0,0,0,0,0,0,0,0,0,-1,881,1275,0,0
-336,-251,0,0,0,0,0,0,0,0,0,-1,888,1275,0,0
-329,-251,0,0,0,0,0,0,0,0,0,-1,895,1275,0,0
-322,-251,0,0,0,0,0,0,0,0,0,-1,902,1275,0,0
-315,-251,0,0,0,0,0,0,0,0,0,-1,909,1275,0,0
-308,-251,0,0,0,0,0,0,0,0,0,-1,916,1275,0,0
-301,-251,0,0,0,0,0,0,0,0,0,-1,923,1275,0,0
-294,-251,0,0,0,0,0,0,0,0,0,-1,930,1275,0,0
-287,-251,0,0,0,0,0,0,0,0,0,-1,937,1275,0,0
-280,-251,0,0,0,0,0,0,0,0,0,-1,944,1275,0,0
-273,-251,0,0,0,0,0,0,0,0,0,-1,951,1275,0,0
-266,-251,0,0,0,0,0,0,0,0,0,-1,958,1275,0,0
-259,-251,0,0,0,0,0,0,0,0,0,-1,965,1275,0,0
-252,-251,0,0,0,0,0,0,0,0,0,-1,972,1275,0,0
-245,-251,0,0,0,0,0,0,0,0,0,-1,979,1275,0,0
-238,-251,0,0,0,0,0,0,0,0,0,-1,986,1275,0,0
-231,-251,0,0,0,0,0,0,0,0,0,-1,993,1275,0,0
-224,-251,0,0,0,0,0,0,0,0,0,-1,1000,1275,0,0
-217,-251,0,0,0,0,0,0,0,0,0,-1,1007,1275,0,0
-210,-251,0,0,0,0,0,0,0,0,0,-1,1014,1275,0,0
-203,-251,0,0,0,0,0,0,0,0,0,-1,1021,1275,0,0
-196,-251,0,0,0,0,0,0,0,0,0,-1,1028,1275,0,0
-189,-251,0,0,0,0,0,0,0,0,0,-1,1035,1275,0,0
-182,-251,0,0,0,0,0,0,0,0,0,-1,1042,1275,0,0
-175,-251,0,0,0,0,0,0,0,0,0,-1,1049,1275,0,0
-168,-251,0,0,0,0,0,0,0,0,0,-1,1056,1275,0,0
-161,-251,0,0,0,0,0,0,0,0,0,-1,1063,1275,0,0
-154,-251,0,0,0,0,0,0,0,0,0,-1,1070,1275,0,0
-147,-251,0,0,0,0,0,0,0,0,0,-1,1077,1275,0,0
-140,-251,0,0,0,0,0,0,0,0,0,-1,1084,1275,0,0
-133,-251,0,0,0,0,0,0,0,0,0,-1,1091,1275,0,0
-126,-251,0,0,0,0,0,0,0,0,0,-1,1098,1275,0,0
-119,-251,0,0,0,0,0,0,0,0,0,-1,1105,1275,0,0
-112,-251,0,0,0,0,0,0,0,0,0,-1,1112,1275,0,0
-105,-251,0,0,0,0,0,0,0,0,0,-1,1119,1275,0,0
-98,-251,0,0,0,0,0,0,0,0,0,-1,1126,1275,0,0
-91,-251,0,0,0,0,0,0,0,0,0,-1,1133,1275,0,0
-84,-251,0,0,0,0,0,0,0,0,0,-1,1140,1275,0,0
-77,-251,0,0,0,0,0,0,0,0,0,-1,1147,1275,0,0
-70,-251,0,0,0,0,0,0,0,0,0,-1,1154,1275,0,0
-63,-251,0,0,0,0,0,0,0,0,0,-1,1161,1275,0,0
-56,-251,0,0,0,0,0,0,0,0,0,-1,1168,1275,0,0
-49,-251,0,0,0,0,0,0,0,0,0,-1,1175,1275,0,0
-42,-251,0,0,0,0,0,0,0,0,0,-1,1182,1275,0,0
-35,-251,0,0,0,0,0,0,0,0,0,-1,1189,1275,0,0
-28,-251,0,0,0,0,0,0,0,0,0,-1,1196,1275,0,0
-21,-251,0,0,0,0,0,0,0,0,0,-1,1203,1275,0,0
-14,-251,0,0,0,0,0,0,0,0,0,-1,1210,1275,0,0
-7,-251,0,0,0,0,0,0,0,0,0,-1,1217,1275,0,0
0,-251,0,0,0,0,0,0,0,0,0,-1,1224,1275,0,0
7,-251,0,0,0,0,0,0,0,0,0,-1,1231,1275,0,0
14,-251,0,0,0,0,0,0,0,0,0,-1,1238,1275,0,0
21,-251,0,0,0,0,0,0,0,0,0,-1,1245,1275,0,0
28,-251,0,0,0,0,0,0,0,0,0,-1,1252,1275,0,0
35,-251,0,0,0,0,0,0,0,0,0,-1,1259,1275,0,0
42,-251,0,0,0,0,0,0,0,0,0,-1,1266,1275,0,0
49,-251,0,0,0,0,0,0,0,0,0,-1,1273,1275,0,0
56,-251,0,0,0,0,0,0,0,0,0,-1,1280,1275,0,0
63,-251,0,0,0,0,0,0,0,0,0,-1,1287,1275,0,0
70,-251,0,0,0,0,0,0,0,0,0,-1,1294,1275,0,0
77,-251,0,0,0,0,0,0,0,0,0,-1,1301,1275,0,0
84,-251,0,0,0,0,0,0,0,0,0,-1,1308,1275,0,0
91,-251,0,0,0,0,0,0,0,0,0,-1,1315,1275,0,0
98,-251,0,0,0,0,0,0,0,0,0,-1,1322,1275,0,0
105,-251,0,0,0,0,0,0,0,0,0,-1,1329,1275,0,0
112,-251,0,0,0,0,0,0,0,0,0,-1,1336,1275,0,0
119,-251,0,0,0,0,0,0,0,0,0,-1,1343,1275,0,0
126,-251,0,0,0,0,0,0,0,0,0,-1,1350,1275,0,0
133,-251,0,0,0,0,0,0,0,0,0,-1,1357,1275,0,0
140,-251,0,0,0,0,0,0,0,0,0,-1,1364,1275,0,0
147,-251,0,0,0,0,0,0,0,0,0,-1,1371,1275,0,0
154,-251,0,0,0,0,0,0,0,0,0,-1,1378,1275,0,0
161,-251,0,0,0,0,0,0,0,0,0,-1,1385,1275,0,0
168,-251,0,0,0,0,0,0,0,0,0,-1,1392,1275,0,0
175,-251,0,0,0,0,0,0,0,0,0,-1,1399,1275,0,0
182,-251,0,0,0,0,0,0,0,0,0,-1,1406,1275,0,0
189,-251,0,0,0,0,0,0,0,0,0,-1,1413,1275,0,0
196,-251,0,0,0,0,0,0,0,0,0,-1,1420,1275,0,0
203,-251,0,0,0,0,0,0,0,0,0,-1,1427,1275,0,0
210,-251,0,0,0,0,0,0,0,0,0,-1,1434,1275,0,0
217,-251,0,0,0,0,0,0,0,0,0,-1,1441,1275,0,0
224,-251,0,0,0,0,0,0,0,0,0,-1,1448,1275,0,0
231,-251,0,0,0,0,0,0,0,0,0,-1,1455,1275,0,0
238,-251,0,0,0,0,0,0,0,0,0,-1,1462,1275,0,0
245,-251,0,0,0,0,0,0,0,0,0,-1,1469,1275,0,0
252,-251,0,0,0,0,0,0,0,0,0,-1,1476,1275,0,0
259,-251,0,0,0,0,0,0,0,0,0,-1,1483,1275,0,0
266,-251,0,0,0,0,0,0,0,0,0,-1,1490,1275,0,0
273,-251,0,0,0,0,0,0,0,0,0,-1,1497,1275,0,0
280,-251,0,0,0,0,0,0,0,0,0,-1,1504,1275,0,0
287,-251,0,0,0,0,0,0,0,0,0,-1,1511,1275,0,0
294,-251,0,0,0,0,0,0,0,0,0,-1,1518,1275,0,0
301,-251,0,0,0,0,0,0,0,0,0,-1,1525,1275,0,0
308,-251,0,0,0,0,0,0,0,0,0,-1,1532,1275,0,0
315,-251,0,0,0,0,0,0,0,0,0,-1,1539,1275,0,0
322,-251,0,0,0,0,0,0,0,0,0,-1,1546,1275,0,0
329,-251,0,0,0,0,0,0,0,0,0,-1,1553,1275,0,0
336,-251,0,0,0,0,0,0,0,0,0,-1,1560,1275,0,0
343,-251,0,0,0,0,0,0,0,0,0,-1,1567,1275,0,0
350,-251,0,0,0,0,0,0,0,0,0,-1,1574,1275,0,0
357,-251,0,0,0,0,0,0,0,0,0,-1,1581,1275,0,0
364,-251,0,0,0,0,0,0,0,0,0,-1,1588,1275,0,0
371,-251,0,0,0,0,0,0,0,0,0,-1,1595,1275,0,0
378,-251,0,0,0,0,0,0,0,0,0,-1,1602,1275,0,0
385,-251,0,0,0,0,0,0,0,0,0,-1,1609,1275,0,0
392,-251,0,0,0,0,0,0,0,0,0,-1,1616,1275,0,0
399,-251,0,0,0,0,0,0,0,0,0,-1,1623,1275,0,0
406,-251,0,0,0,0,0,0,0,0,0,-1,1630,1275,0,0
413,-251,0,0,0,0,0,0,0,0,0,-1,1637,1275,0,0
420,-251,0,0,0,0,0,0,0,0,0,-1,1644,1275,0,0
427,-251,0,0,0,0,0,0,0,0,0,-1,1651,1275,0,0
434,-251,0,0,0,0,0,0,0,0,0,-1,1658,1275,0,0
441,-251,0,0,0,0,0,0,0,0,0,-1,1665,1275,0,0
448,-251,0,0,0,0,0,0,0,0,0,-1,1672,1275,0,0
455,-251,0,0,0,0,0,0,0,0,0,-1,1679,1275,0,0
462,-251,0,0,0,0,0,0,0,0,0,-1,1686,1275,0,0
469,-251,0,0,0,0,0,0,0,0,0,-1,1693,1275,0,0
476,-251,0,0,0,0,0,0,0,0,0,-1,1700,1275,0,0
483,-251,0,0,0,0,0,0,0,0,0,-1,1707,1275,0,0
490,-251,0,0,0,0,0,0,0,0,0,-1,1714,1275,0,0
497,-251,0,0,0,0,0,0,0,0,0,-1,1721,1275,0,0
504,-251,0,0,0,0,0,0,0,0,0,-1,1728,1275,0,0
511,-251,0,0,0,0,0,0,0,0,0,-1,1735,1275,0,0
518,-251,0,0,0,0,0,0,0,0,0,-1,1742,1275,0,0
525,-251,0,0,0,0,0,0,0,0,0,-1,1749,1275,0,0
532,-251,0,0,0,0,0,0,0,0,0,-1,1756,1275,0,0
539,-251,0,0,0,0,0,0,0,0,0,-1,1763,1275,0,0
546,-251,0,0,0,0,0,0,0,0,0,-1,1770,1275,0,0
553,-251,0,0,0,0,0,0,0,0,0,-1,1777,1275,0,0
560,-251,0,0,0,0,0,0,0,0,0,-1,1784,1275,0,0
567,-251,0,0,0,0,0,0,0,0,0,-1,1791,1275,0,0
574,-251,0,0,0,0,0,0,0,0,0,-1,1798,1275,0,0
581,-251,0,0,0,0,0,0,0,0,0,-1,1805,1275,0,0
588,-251,0,0,0,0,0,0,0,0,0,-1,1812,1275,0,0
595,-251,0,0,0,0,0,0,0,0,0,-1,1819,1275,0,0
602,-251,0,0,0,0,0,0,0,0,0,-1,1826,1275,0,0
609,-251,61.1028,2.67151,0.0038784,-0.00535305,0.00197368,0.00428266,-0.00575732,0.202035,0.00581739,0.0287586,1833,1275,61.1028,-2.67148
616,-251,61.1216,2.71765,0.00169658,-0.00113143,-0.00113413,0.00209521,-0.00153007,-0.338001,0.00210152,0.0258072,1840,1275,61.1216,-2.71762
623,-251,61.1161,2.75867,-0.000175603,0.0035759,-0.00418691,0.00628803,-0.00288773,-0.995995,0.00541752,0.0230004,1847,1275,61.1161,-2.75865
630,-251,61.1107,2.74707,-0.00160195,0.00784734,-0.00653676,0.0111881,-0.00494275,-1.09832,0.00954301,0.0339551,1854,1275,61.1107,-2.74705
637,-251,61.0459,2.67908,0,0,0,0,0,0,0,-1,1861,1275,61.0459,-2.67904
644,-251,60.699,2.18762,-0.00133275,0.00795673,-0.00585521,0.0107857,-0.00416177,-1.12071,0.00890794,0.047288,1868,1275,60.699,-2.18766
651,-251,60.6029,1.60828,-0.00109462,0.0068652,-0.00502382,0.00929454,-0.00352395,-1.12038,0.00764664,0.0490288,1875,1275,60.6029,-1.60825
658,-251,60.7063,1.43652,0,0,0,0,0,0,0,-1,1882,1275,60.7063,-1.43649
665,-251,32.9579,2.60229,0,0,0,0,0,0,0,-1,1889,1275,32.9579,-2.60231
672,-251,26.0721,4.53064,0,0,0,0,0,0,0,-1,1896,1275,26.0721,-4.53063
679,-251,29.1344,8.63782,0,0,0,0,0,0,0,-1,1903,1275,29.1344,-8.63778
686,-251,45.2374,12.3101,0,0,0,0,0,0,0,-1,1910,1275,45.2374,-12.3101
693,-251,45.1401,11.7579,0.00052001,0.00279116,-0.00172664,0.00372218,-0.000411009,-1.07628,0.00262919,0.0204221,1917,1275,45.1402,-11.758
700,-251,45.095,11.1628,0.000795245,0.00102018,-0.000776883,0.0016927,0.000122733,-0.857283,0.00108986,0.0101809,1924,1275,45.0949,-11.1628
707,-251,45.113,10.5621,0.000442334,-0.00094542,6.2069e-05,0.000445104,-0.00094819,0.0446075,0.000821712,0.0125211,1931,1275,45.113,-10.5621
714,-251,45.1241,9.97034,-0.000593975,-0.000921508,0.000899604,0.000156647,-0.00167213,0.695363,0.00117047,0.0148766,1938,1275,45.1242,-9.97035
721,-251,45.0267,9.41162,-0.00147948,-0.000936832,0.00190625,0.00071731,-0.00313362,0.85609,0.00236473,0.0225316,1945,1275,45.0268,-9.41164
728,-251,44.9713,8.87109,-0.00225446,-0.0010344,0.00302983,0.0014462,-0.00473506,0.884741,0.00373334,0.0269491,1952,1275,44.9713,-8.87107
735,-251,44.9574,8.20007,-0.00296767,-0.00120107,0.00429027,0.00229588,-0.00646462,0.886922,0.00524529,0.0212554,1959,1275,44.9575,-8.20005
742,-251,44.8994,7.71252,-0.00357334,-0.0014292,0.00573237,0.00333049,-0.00833303,0.87784,0.00693733,0.0180252,1966,1275,44.8995,-7.71247
749,-251,44.6387,7.40173,-0.00396333,-0.00167977,0.00735872,0.00462522,-0.0102683,0.862364,0.00880213,0.0375785,1973,1275,44.6387,-7.40179
756,-251,44.2115,6.99207,0,0,0,0,0,0,0,-1,1980,1275,44.2116,-6.99209
763,-251,43.3652,5.7583,0,0,0,0,0,0,0,-1,1987,1275,43.3653,-5.75827
770,-251,45.2444,5.30237,0,0,0,0,0,0,0,-1,1994,1275,45.2444,-5.30239
777,-251,31.5731,4.33252,0,0,0,0,0,0,0,-1,2001,1275,31.5731,-4.33251
784,-251,32.0776,5.78247,0,0,0,0,0,0,0,-1,2008,1275,32.0776,-5.78247
791,-251,0,0,0,0,0,0,0,0,0,-1,2015,1275,0,0
798,-251,0,0,0,0,0,0,0,0,0,-1,2022,1275,0,0
805,-251,0,0,0,0,0,0,0,0,0,-1,2029,1275,0,0
812,-251,0,0,0,0,0,0,0,0,0,-1,2036,1275,0,0
-700,-258,0,0,0,0,0,0,0,0,0,-1,524,1282,0,0
-693,-258,0,0,0,0,0,0,0,0,0,-1,531,1282,0,0
-686,-258,0,0,0,0,0,0,0,0,0,-1,538,1282,0,0
-679,-258,0,0,0,0,0,0,0,0,0,-1,545,1282,0,0
-672,-258,0,0,0,0,0,0,0,0,0,-1,552,1282,0,0
-665,-258,-47.163,5.06372,-0.127147,-0.0595699,0.00229619,-0.0594919,-0.127225,1.53687,0.0735045,0.0422721,559,1282,-47.163,-5.06371
-658,-258,-48.0417,4.48987,-0.111852,-0.0480146,0.00811784,-0.0469985,-0.112868,1.44627,0.0654672,0.0478531,566,1282,-48.0417,-4.48982
-651,-258,-48.8695,3.99646,0,0,0,0,0,0,0,-1,573,1282,-48.8695,-3.9965
-644,-258,-50.097,5.34106,-0.0821108,-0.0306221,0.0115258,-0.0281598,-0.0845731,1.36033,0.0497282,0.0490103,580,1282,-50.097,-5.34105
-637,-258,-50.4734,5.95081,-0.0680661,-0.0238331,0.0112487,-0.0211368,-0.0707624,1.33554,0.0419438,0.0457373,587,1282,-50.4734,-5.95082
-630,-258,-50.9767,6.38953,0,0,0,0,0,0,0,-1,594,1282,-50.9768,-6.38951
-623,-258,-28.5353,4.41541,0,0,0,0,0,0,0,-1,601,1282,-28.5353,-4.41539
-616,-258,-28.5762,4.83972,-0.0309258,-0.00814047,0.00757328,-0.00585295,-0.0332133,1.27746,0.020472,0.0338698,608,1282,-28.5762,-4.83967
-609,-258,-28.6307,5.45447,-0.0198496,-0.00355417,0.00652976,-0.00126048,-0.0221433,1.23299,0.0143605,0.0168925,615,1282,-28.6307,-5.45442
-602,-258,-28.6708,6.10095,-0.00982516,-0.000298717,0.00476026,0.00167218,-0.0117961,1.17825,0.00847659,0.0133034,622,1282,-28.6709,-6.10094
-595,-258,-28.6761,6.73499,-0.00369832,0.000515308,0.00246385,0.00165029,-0.00483329,1.13912,0.00389076,0.0116756,629,1282,-28.6761,-6.73504
-588,-258,-28.686,7.36108,0.000264405,0.000406164,0.000780076,0.00111857,-0.000448006,0.830705,0.000931676,0.0134161,636,1282,-28.6861,-7.36111
-581,-258,-28.7178,7.9928,0.00137949,-0.000707975,0.000364632,0.00144135,-0.000769834,0.168049,0.0012961,0.0154662,643,1282,-28.7178,-7.99277
-574,-258,-28.7262,8.6405,0.0018828,-0.00158901,0.000531929,0.00196247,-0.00166868,0.148671,0.00209873,0.0149648,650,1282,-28.7262,-8.64056
-567,-258,-28.7789,9.31226,0.00215777,-0.00232641,0.000613341,0.00224015,-0.00240879,0.133512,0.00268465,0.0149399,657,1282,-28.7789,-9.31222
-560,-258,-28.7916,9.9635,0.00200145,-0.00158141,0.000509433,0.00207247,-0.00165244,0.138529,0.00215513,0.0446662,664,1282,-28.7916,-9.96347
-553,-258,-28.7137,10.6412,0,0,0,0,0,0,0,-1,671,1282,-28.7137,-10.6413
-546,-258,-14.2231,5.92029,0,0,0,0,0,0,0,-1,678,1282,-14.2231,-5.92028
-539,-258,-10.2228,4.05823,0,0,0,0,0,0,0,-1,685,1282,-10.2228,-4.05823
-532,-258,-10.2173,-0.353882,0,0,0,0,0,0,0,-1,692,1282,-10.2173,0.353836
-525,-258,-21.8661,-1.5929,0,0,0,0,0,0,0,-1,699,1282,-21.8661,1.59285
-518,-258,-29.2484,0.123169,0,0,0,0,0,0,0,-1,706,1282,-29.2484,-0.123186
-511,-258,-23.5061,1.16833,0,0,0,0,0,0,0,-1,713,1282,-23.5061,-1.16833
-504,-258,-22.9178,0.484131,0,0,0,0,0,0,0,-1,720,1282,-22.9178,-0.484106
-497,-258,-17.8047,0.730469,0,0,0,0,0,0,0,-1,727,1282,-17.8048,-0.730489
-490,-258,-15.4346,0.632935,0,0,0,0,0,0,0,-1,734,1282,-15.4346,-0.632917
-483,-258,0,0,0,0,0,0,0,0,0,-1,741,1282,0,0
-476,-258,0,0,0,0,0,0,0,0,0,-1,748,1282,0,0
-469,-258,0,0,0,0,0,0,0,0,0,-1,755,1282,0,0
-462,-258,0,0,0,0,0,0,0,0,0,-1,762,1282,0,0
-455,-258,0,0,0,0,0,0,0,0,0,-1,769,1282,0,0
-448,-258,0,0,0,0,0,0,0,0,0,-1,776,1282,0,0
-441,-258,0,0,0,0,0,0,0,0,0,-1,783,1282,0,0
-434,-258,0,0,0,0,0,0,0,0,0,-1,790,1282,0,0
-427,-258,0,0,0,0,0,0,0,0,0,-1,797,1282,0,0
-420,-258,0,0,0,0,0,0,0,0,0,-1,804,1282,0,0
-413,-258,0,0,0,0,0,0,0,0,0,-1,811,1282,0,0
-406,-258,0,0,0,0,0,0,0,0,0,-1,818,1282,0,0
-399,-258,0,0,0,0,0,0,0,0,0,-1,825,1282,0,0
-392,-258,0,0,0,0,0,0,0,0,0,-1,832,1282,0,0
-385,-258,0,0,0,0,0,0,0,0,0,-1,839,1282,0,0
-378,-258,0,0,0,0,0,0,0,0,0,-1,846,1282,0,0
-371,-258,0,0,0,0,0,0,0,0,0,-1,853,1282,0,0
-364,-258,0,0,0,0,0,0,0,0,0,-1,860,1282,0,0
-357,-258,0,0,0,0,0,0,0,0,0,-1,867,1282,0,0
-350,-258,0,0,0,0,0,0,0,0,0,-1,874,1282,0,0
-343,-258,0,0,0,0,0,0,0,0,0,-1,881,1282,0,0
-336,-258,0,0,0,0,0,0,0,0,0,-1,888,1282,0,0
-329,-258,0,0,0,0,0,0,0,0,0,-1,895,1282,0,0
-322,-258,0,0,0,0,0,0,0,0,0,-1,902,1282,0,0
-315,-258,0,0,0,0,0,0,0,0,0,-1,909,1282,0,0
-308,-258,0,0,0,0,0,0,0,0,0,-1,916,1282,0,0
-301,-258,0,0,0,0,0,0,0,0,0,-1,923,1282,0,0
-294,-258,0,0,0,0,0,0,0,0,0,-1,930,1282,0,0
-287,-258,0,0,0,0,0,0,0,0,0,-1,937,1282,0,0
-280,-258,0,0,0,0,0,0,0,0,0,-1,944,1282,0,0
-273,-258,0,0,0,0,0,0,0,0,0,-1,951,1282,0,0
-266,-258,0,0,0,0,0,0,0,0,0,-1,958,1282,0,0
-259,-258,0,0,0,0,0,0,0,0,0,-1,965,1282,0,0
-252,-258,0,0,0,0,0,0,0,0,0,-1,972,1282,0,0
-245,-258,0,0,0,0,0,0,0,0,0,-1,979,1282,0,0
-238,-258,0,0,0,0,0,0,0,0,0,-1,986,1282,0,0
-231,-258,0,0,0,0,0,0,0,0,0,-1,993,1282,0,0
-224,-258,0,0,0,0,0,0,0,0,0,-1,1000,1282,0,0
-217,-258,0,0,0,0,0,0,0,0,0,-1,1007,1282,0,0
-210,-258,0,0,0,0,0,0,0,0,0,-1,1014,1282,0,0
-203,-258,0,0,0,0,0,0,0,0,0,-1,1021,1282,0,0
-196,-258,0,0,0,0,0,0,0,0,0,-1,1028,1282,0,0
-189,-258,0,0,0,0,0,0,0,0,0,-1,1035,1282,0,0
-182,-258,0,0,0,0,0,0,0,0,0,-1,1042,1282,0,0
-175,-258,0,0,0,0,0,0,0,0,0,-1,1049,1282,0,0
-168,-258,0,0,0,0,0,0,0,0,0,-1,1056,1282,0,0
-161,-258,0,0,0,0,0,0,0,0,0,-1,1063,1282,0,0
-154,-258,0,0,0,0,0,0,0,0,0,-1,1070,1282,0,0
-147,-258,0,0,0,0,0,0,0,0,0,-1,1077,1282,0,0
-140,-258,0,0,0,0,0,0,0,0,0,-1,1084,1282,0,0
-133,-258,0,0,0,0,0,0,0,0,0,-1,1091,1282,0,0
-126,-258,0,0,0,0,0,0,0,0,0,-1,1098,1282,0,0
-119,-258,0,0,0,0,0,0,0,0,0,-1,1105,1282,0,0
-112,-258,0,0,0,0,0,0,0,0,0,-1,1112,1282,0,0
-105,-258,0,0,0,0,0,0,0,0,0,-1,1119,1282,0,0
-98,-258,0,0,0,0,0,0,0,0,0,-1,1126,1282,0,0
-91,-258,0,0,0,0,0,0,0,0,0,-1,1133,1282,0,0
-84,-258,0,0,0,0,0,0,0,0,0,-1,1140,1282,0,0
-77,-258,0,0,0,0,0,0,0,0,0,-1,1147,1282,0,0
-70,-258,0,0,0,0,0,0,0,0,0,-1,1154,1282,0,0
-63,-258,0,0,0,0,0,0,0,0,0,-1,1161,1282,0,0
-56,-258,0,0,0,0,0,0,0,0,0,-1,1168,1282,0,0
-49,-258,0,0,0,0,0,0,0,0,0,-1,1175,1282,0,0
-42,-258,0,0,0,0,0,0,0,0,0,-1,1182,1282,0,0
-35,-258,0,0,0,0,0,0,0,0,0,-1,1189,1282,0,0
-28,-258,0,0,0,0,0,0,0,0,0,-1,1196,1282,0,0
-21,-258,0,0,0,0,0,0,0,0,0,-1,1203,1282,0,0
-14,-258,0,0,0,0,0,0,0,0,0,-1,1210,1282,0,0
-7,-258,0,0,0,0,0,0,0,0,0,-1,1217,1282,0,0
0,-258,0,0,0,0,0,0,0,0,0,-1,1224,1282,0,0
7,-258,0,0,0,0,0,0,0,0,0,-1,1231,1282,0,0
14,-258,0,0,0,0,0,0,0,0,0,-1,1238,1282,0,0
21,-258,0,0,0,0,0,0,0,0,0,-1,1245,1282,0,0
28,-258,0,0,0,0,0,0,0,0,0,-1,1252,1282,0,0
35,-258,0,0,0,0,0,0,0,0,0,-1,1259,1282,0,0
42,-258,0,0,0,0,0,0,0,0,0,-1,1266,1282,0,0
49,-258,0,0,0,0,0,0,0,0,0,-1,1273,1282,0,0
56,-258,0,0,0,0,0,0,0,0,0,-1,1280,1282,0,0
63,-258,0,0,0,0,0,0,0,0,0,-1,1287,1282,0,0
70,-258,0,0,0,0,0,0,0,0,0,-1,1294,1282,0,0
77,-258,0,0,0,0,0,0,0,0,0,-1,1301,1282,0,0
84,-258,0,0,0,0,0,0,0,0,0,-1,1308,1282,0,0
91,-258,0,0,0,0,0,0,0,0,0,-1,1315,1282,0,0
98,-258,0,0,0,0,0,0,0,0,0,-1,1322,1282,0,0
105,-258,0,0,0,0,0,0,0,0,0,-1,1329,1282,0,0
112,-258,0,0,0,0,0,0,0,0,0,-1,1336,1282,0,0
119,-258,0,0,0,0,0,0,0,0,0,-1,1343,1282,0,0
126,-258,0,0,0,0,0,0,0,0,0,-1,1350,1282,0,0
133,-258,0,0,0,0,0,0,0,0,0,-1,1357,1282,0,0
140,-258,0,0,0,0,0,0,0,0,0,-1,1364,1282,0,0
147,-258,0,0,0,0,0,0,0,0,0,-1,1371,1282,0,0
154,-258,0,0,0,0,0,0,0,0,0,-1,1378,1282,0,0
161,-258,0,0,0,0,0,0,0,0,0,-1,1385,1282,0,0
168,-258,0,0,0,0,0,0,0,0,0,-1,1392,1282,0,0
175,-258,0,0,0,0,0,0,0,0,0,-1,1399,1282,0,0
182,-258,0,0,0,0,0,0,0,0,0,-1,1406,1282,0,0
189,-258,0,0,0,0,0,0,0,0,0,-1,1413,1282,0,0
196,-258,0,0,0,0,0,0,0,0,0,-1,1420,1282,0,0
203,-258,0,0,0,0,0,0,0,0,0,-1,1427,1282,0,0
210,-258,0,0,0,0,0,0,0,0,0,-1,1434,1282,0,0
217,-258,0,0,0,0,0,0,0,0,0,-1,1441,1282,0,0
224,-258,0,0,0,0,0,0,0,0,0,-1,1448,1282,0,0
231,-258,0,0,0,0,0,0,0,0,0,-1,1455,1282,0,0
238,-258,0,0,0,0,0,0,0,0,0,-1,1462,1282,0,0
245,-258,0,0,0,0,0,0,0,0,0,-1,1469,1282,0,0
252,-258,0,0,0,0,0,0,0,0,0,-1,1476,1282,0,0
259,-258,0,0,0,0,0,0,0,0,0,-1,1483,1282,0,0
266,-258,0,0,0,0,0,0,0,0,0,-1,1490,1282,0,0
273,-258,0,0,0,0,0,0,0,0,0,-1,1497,1282,0,0
280,-258,0,0,0,0,0,0,0,0,0,-1,1504,1282,0,0
287,-258,0,0,0,0,0,0,0,0,0,-1,1511,1282,0,0
294,-258,0,0,0,0,0,0,0,0,0,-1,1518,1282,0,0
301,-258,0,0,0,0,0,0,0,0,0,-1,1525,1282,0,0
308,-258,0,0,0,0,0,0,0,0,0,-1,1532,1282,0,0
315,-258,0,0,0,0,0,0,0,0,0,-1,1539,1282,0,0
322,-258,0,0,0,0,0,0,0,0,0,-1,1546,1282,0,0
329,-258,0,0,0,0,0,0,0,0,0,-1,1553,1282,0,0
336,-258,0,0,0,0,0,0,0,0,0,-1,1560,1282,0,0
343,-258,0,0,0,0,0,0,0,0,0,-1,1567,1282,0,0
350,-258,0,0,0,0,0,0,0,0,0,-1,1574,1282,0,0
357,-258,0,0,0,0,0,0,0,0,0,-1,1581,1282,0,0
364,-258,0,0,0,0,0,0,0,0,0,-1,1588,1282,0,0
371,-258,0,0,0,0,0,0,0,0,0,-1,1595,1282,0,0
378,-258,0,0,0,0,0,0,0,0,0,-1,1602,1282,0,0
385,-258,0,0,0,0,0,0,0,0,0,-1,1609,1282,0,0
392,-258,0,0,0,0,0,0,0,0,0,-1,1616,1282,0,0
399,-258,0,0,0,0,0,0,0,0,0,-1,1623,1282,0,0
406,-258,0,0,0,0,0,0,0,0,0,-1,1630,1282,0,0
413,-258,0,0,0,0,0,0,0,0,0,-1,1637,1282,0,0
420,-258,0,0,0,0,0,0,0,0,0,-1,1644,1282,0,0
427,-258,0,0,0,0,0,0,0,0,0,-1,1651,1282,0,0
434,-258,0,0,0,0,0,0,0,0,0,-1,1658,1282,0,0
441,-258,0,0,0,0,0,0,0,0,0,-1,1665,1282,0,0
448,-258,0,0,0,0,0,0,0,0,0,-1,1672,1282,0,0
455,-258,0,0,0,0,0,0,0,0,0,-1,1679,1282,0,0
462,-258,0,0,0,0,0,0,0,0,0,-1,1686,1282,0,0
469,-258,0,0,0,0,0,0,0,0,0,-1,1693,1282,0,0
476,-258,0,0,0,0,0,0,0,0,0,-1,1700,1282,0,0
483,-258,0,0,0,0,0,0,0,0,0,-1,1707,1282,0,0
490,-258,0,0,0,0,0,0,0,0,0,-1,1714,1282,0,0
497,-258,0,0,0,0,0,0,0,0,0,-1,1721,1282,0,0
504,-258,0,0,0,0,0,0,0,0,0,-1,1728,1282,0,0
511,-258,0,0,0,0,0,0,0,0,0,-1,1735,1282,0,0
518,-258,0,0,0,0,0,0,0,0,0,-1,1742,1282,0,0
525,-258,0,0,0,0,0,0,0,0,0,-1,1749,1282,0,0
532,-258,0,0,0,0,0,0,0,0,0,-1,1756,1282,0,0
539,-258,0,0,0,0,0,0,0,0,0,-1,1763,1282,0,0
546,-258,0,0,0,0,0,0,0,0,0,-1,1770,1282,0,0
553,-258,0,0,0,0,0,0,0,0,0,-1,1777,1282,0,0
560,-258,0,0,0,0,0,0,0,0,0,-1,1784,1282,0,0
567,-258,0,0,0,0,0,0,0,0,0,-1,1791,1282,0,0
574,-258,0,0,0,0,0,0,0,0,0,-1,1798,1282,0,0
581,-258,0,0,0,0,0,0,0,0,0,-1,1805,1282,0,0
588,-258,0,0,0,0,0,0,0,0,0,-1,1812,1282,0,0
595,-258,0,0,0,0,0,0,0,0,0,-1,1819,1282,0,0
602,-258,0,0,0,0,0,0,0,0,0,-1,1826,1282,0,0
609,-258,61.1147,2.71375,0.00387199,-0.0035852,0.000304938,0.00388444,-0.00359764,0.040801,0.00432084,0.0257085,1833,1282,61.1147,-2.71371
616,-258,61.0917,2.7572,0.00194582,0.000334137,-0.00299438,0.00424089,-0.00196094,-0.653954,0.0036604,0.0238402,1840,1282,61.0917,-2.75723
623,-258,61.0146,2.71313,0.000222753,0.00448459,-0.00588192,0.00860969,-0.00390235,-0.959186,0.00739228,0.0334774,1847,1282,61.0147,-2.7131
630,-258,61.0205,2.57788,-0.000996588,0.00748553,-0.00733126,0.0117141,-0.00522512,-1.04762,0.0100162,0.0435431,1854,1282,61.0205,-2.57787
637,-258,60.3768,2.51563,0,0,0,0,0,0,0,-1,1861,1282,60.3769,-2.51563
644,-258,60.4983,2.04883,0,0,0,0,0,0,0,-1,1868,1282,60.4983,-2.04879
651,-258,60.437,1.1814,0,0,0,0,0,0,0,-1,1875,1282,60.437,-1.1814
658,-258,45.4424,3.1405,0,0,0,0,0,0,0,-1,1882,1282,45.4423,-3.14046
665,-258,35.4747,1.1864,0,0,0,0,0,0,0,-1,1889,1282,35.4747,-1.18637
672,-258,22.703,2.80957,0,0,0,0,0,0,0,-1,1896,1282,22.703,-2.80962
679,-258,26.8693,8.19543,0,0,0,0,0,0,0,-1,1903,1282,26.8692,-8.19548
686,-258,44.6479,12.413,0,0,0,0,0,0,0,-1,1910,1282,44.648,-12.413
693,-258,44.5782,11.7957,0.00037989,0.00300357,-0.00169491,0.00383501,-0.000451549,-1.11474,0.00271971,0.0171536,1917,1282,44.5783,-11.7957
700,-258,44.5229,11.1797,0.0006244,0.001236,-0.000658308,0.00165607,0.000204333,-1.00283,0.00104263,0.00974627,1924,1282,44.5229,-11.1797
707,-258,44.5159,10.5876,0.000206797,-0.000623799,0.000251372,0.000276948,-0.000693949,0.272147,0.000577525,0.0116265,1931,1282,44.5159,-10.5876
714,-258,44.5009,10.0101,-0.000787029,-0.000731138,0.00113547,0.000376725,-0.00189489,0.797701,0.00140577,0.0123261,1938,1282,44.5009,-10.0102
721,-258,44.4553,9.40222,-0.00168047,-0.000909275,0.00216505,0.000904246,-0.00349399,0.873525,0.00268205,0.0206703,1945,1282,44.4553,-9.40217
728,-258,44.3947,8.85291,-0.00256106,-0.00117435,0.00330966,0.0015138,-0.00524921,0.888652,0.00409835,0.0202432,1952,1282,44.3946,-8.85288
735,-258,44.4073,8.26233,-0.00343692,-0.00149044,0.00459837,0.00223656,-0.00716392,0.889684,0.00567045,0.017931,1959,1282,44.4073,-8.26237
742,-258,44.3633,7.71606,-0.00424808,-0.00187927,0.00609524,0.00314558,-0.00927293,0.881361,0.00745507,0.0181581,1966,1282,44.3633,-7.71609
749,-258,44.2456,7.30518,-0.00491218,-0.00229491,0.00779014,0.00429575,-0.0115028,0.868614,0.00943238,0.0411133,1973,1282,44.2456,-7.30517
756,-258,44.1489,6.77441,0,0,0,0,0,0,0,-1,1980,1282,44.149,-6.77443
763,-258,39.3638,5.09753,0,0,0,0,0,0,0,-1,1987,1282,39.3638,-5.09751
770,-258,40.3713,4.08325,0,0,0,0,0,0,0,-1,1994,1282,40.3713,-4.08323
777,-258,31.912,4.83093,0,0,0,0,0,0,0,-1,2001,1282,31.912,-4.8309
784,-258,32.6525,6.43091,0,0,0,0,0,0,0,-1,2008,1282,32.6525,-6.43091
791,-258,0,0,0,0,0,0,0,0,0,-1,2015,1282,0,0
798,-258,0,0,0,0,0,0,0,0,0,-1,2022,1282,0,0
805,-258,0,0,0,0,0,0,0,0,0,-1,2029,1282,0,0
812,-258,0,0,0,0,0,0,0,0,0,-1,2036,1282,0,0
-700,-265,0,0,0,0,0,0,0,0,0,-1,524,1289,0,0
-693,-265,0,0,0,0,0,0,0,0,0,-1,531,1289,0,0
-686,-265,0,0,0,0,0,0,0,0,0,-1,538,1289,0,0
-679,-265,0,0,0,0,0,0,0,0,0,-1,545,1289,0,0
-672,-265,0,0,0,0,0,0,0,0,0,-1,552,1289,0,0
-665,-265,-47.2945,5.33521,-0.136469,-0.0594575,0.00540705,-0.0590797,-0.136846,1.50104,0.0792535,0.0425451,559,1289,-47.2945,-5.33516
-658,-265,-48.4001,5.04749,-0.120452,-0.0475169,0.0121553,-0.0455444,-0.122424,1.40993,0.0714492,0.0447195,566,1289,-48.4001,-5.0475
-651,-265,-49.1514,4.72644,0,0,0,0,0,0,0,-1,573,1289,-49.1514,-4.7265
-644,-265,-50.492,5.28992,-0.0891031,-0.0304978,0.0149036,-0.0269255,-0.0926754,1.33554,0.055049,0.0492476,580,1289,-50.492,-5.28992
-637,-265,-51.0987,5.82629,-0.0742169,-0.0240969,0.0139751,-0.0204636,-0.0778502,1.31644,0.0466015,0.0469336,587,1289,-51.0987,-5.82635
-630,-265,-51.7584,6.19983,0,0,0,0,0,0,0,-1,594,1289,-51.7584,-6.19981
-623,-265,-27.7764,3.63037,0,0,0,0,0,0,0,-1,601,1289,-27.7764,-3.6304
-616,-265,-27.8775,4.51135,-0.0350321,-0.00881844,0.0089772,-0.00603882,-0.0378117,1.27053,0.0234554,0.0468518,608,1289,-27.8775,-4.51137
-609,-265,-27.9838,5.4563,-0.0232919,-0.00414386,0.00772415,-0.00141649,-0.0260193,1.23136,0.0168938,0.0194863,615,1289,-27.9838,-5.45628
-602,-265,-28.0237,6.13989,-0.012356,-0.000624468,0.00583341,0.00178237,-0.0147628,1.17948,0.0104866,0.0141158,622,1289,-28.0237,-6.13992
-595,-265,-28.0294,6.78015,-0.00499096,0.000721192,0.00319085,0.00214748,-0.00641725,1.15044,0.0051456,0.0119583,629,1289,-28.0294,-6.78012
-588,-265,-28.0436,7.39539,-2.02214e-06,0.00103866,0.00110016,0.00173532,-0.000698688,1.00629,0.00144714,0.0111113,636,1289,-28.0437,-7.3954
-581,-265,-28.069,8.02136,0.00131744,-0.000122675,0.000439332,0.00144089,-0.00024612,0.273919,0.00105227,0.0137343,643,1289,-28.069,-8.02141
-574,-265,-28.1254,8.70032,0.00201627,-0.00105236,0.00059814,0.00212874,-0.00116483,0.185859,0.0019285,0.0149512,650,1289,-28.1254,-8.70027
-567,-265,-28.2161,9.38928,0.0026996,-0.00191155,0.000743731,0.00281659,-0.00202854,0.15602,0.00280964,0.0209636,657,1289,-28.216,-9.38932
-560,-265,-28.2412,10.0364,0.00309747,-0.00158598,0.000801191,0.00323073,-0.00171924,0.164827,0.00290194,0.0270556,664,1289,-28.2412,-10.0364
-553,-265,-28.2484,10.6798,0,0,0,0,0,0,0,-1,671,1289,-28.2484,-10.6797
-546,-265,-24.2283,10.2581,0,0,0,0,0,0,0,-1,678,1289,-24.2283,-10.258
-539,-265,-13.7668,6.39917,0,0,0,0,0,0,0,-1,685,1289,-13.7668,-6.39915
-532,-265,-8.53998,3.41467,0,0,0,0,0,0,0,-1,692,1289,-8.53996,-3.41473
-525,-265,-12.1317,0.514648,0,0,0,0,0,0,0,-1,699,1289,-12.1317,-0.514634
-518,-265,-24.1604,0.712402,0,0,0,0,0,0,0,-1,706,1289,-24.1604,-0.712425
-511,-265,-23.233,0.791626,0,0,0,0,0,0,0,-1,713,1289,-23.233,-0.791617
-504,-265,-22.3056,0.87085,0,0,0,0,0,0,0,-1,720,1289,-22.3056,-0.87081
-497,-265,-18.689,-0.278442,0,0,0,0,0,0,0,-1,727,1289,-18.689,0.278423
-490,-265,-15.1696,0.492676,0,0,0,0,0,0,0,-1,734,1289,-15.1696,-0.492688
-483,-265,0,0,0,0,0,0,0,0,0,-1,741,1289,0,0
-476,-265,0,0,0,0,0,0,0,0,0,-1,748,1289,0,0
-469,-265,0,0,0,0,0,0,0,0,0,-1,755,1289,0,0
-462,-265,0,0,0,0,0,0,0,0,0,-1,762,1289,0,0
-455,-265,0,0,0,0,0,0,0,0,0,-1,769,1289,0,0
-448,-265,0,0,0,0,0,0,0,0,0,-1,776,1289,0,0
-441,-265,0,0,0,0,0,0,0,0,0,-1,783,1289,0,0
-434,-265,0,0,0,0,0,0,0,0,0,-1,790,1289,0,0
-427,-265,0,0,0,0,0,0,0,0,0,-1,797,1289,0,0
-420,-265,0,0,0,0,0,0,0,0,0,-1,804,1289,0,0
-413,-265,0,0,0,0,0,0,0,0,0,-1,811,1289,0,0
-406,-265,0,0,0,0,0,0,0,0,0,-1,818,1289,0,0
-399,-265,0,0,0,0,0,0,0,0,0,-1,825,1289,0,0
-392,-265,0,0,0,0,0,0,0,0,0,-1,832,1289,0,0
-385,-265,0,0,0,0,0,0,0,0,0,-1,839,1289,0,0
-378,-265,0,0,0,0,0,0,0,0,0,-1,846,1289,0,0
-371,-265,0,0,0,0,0,0,0,0,0,-1,853,1289,0,0
-364,-265,0,0,0,0,0,0,0,0,0,-1,860,1289,0,0
-357,-265,0,0,0,0,0,0,0,0,0,-1,867,1289,0,0
-350,-265,0,0,0,0,0,0,0,0,0,-1,874,1289,0,0
-343,-265,0,0,0,0,0,0,0,0,0,-1,881,1289,0,0
-336,-265,0,0,0,0,0,0,0,0,0,-1,888,1289,0,0
-329,-265,0,0,0,0,0,0,0,0,0,-1,895,1289,0,0
-322,-265,0,0,0,0,0,0,0,0,0,-1,902,1289,0,0
-315,-265,0,0,0,0,0,0,0,0,0,-1,909,1289,0,0
-308,-265,0,0,0,0,0,0,0,0,0,-1,916,1289,0,0
-301,-265,0,0,0,0,0,0,0,0,0,-1,923,1289,0,0
-294,-265,0,0,0,0,0,0,0,0,0,-1,930,1289,0,0
-287,-265,0,0,0,0,0,0,0,0,0,-1,937,1289,0,0
-280,-265,0,0,0,0,0,0,0,0,0,-1,944,1289,0,0
-273,-265,0,0,0,0,0,0,0,0,0,-1,951,1289,0,0
-266,-265,0,0,0,0,0,0,0,0,0,-1,958,1289,0,0
-259,-265,0,0,0,0,0,0,0,0,0,-1,965,1289,0,0
-252,-265,0,0,0,0,0,0,0,0,0,-1,972,1289,0,0
-245,-265,0,0,0,0,0,0,0,0,0,-1,979,1289,0,0
-238,-265,0,0,0,0,0,0,0,0,0,-1,986,1289,0,0
-231,-265,0,0,0,0,0,0,0,0,0,-1,993,1289,0,0
-224,-265,0,0,0,0,0,0,0,0,0,-1,1000,1289,0,0
-217,-265,0,0,0,0,0,0,0,0,0,-1,1007,1289,0,0
-210,-265,0,0,0,0,0,0,0,0,0,-1,1014,1289,0,0
-203,-265,0,0,0,0,0,0,0,0,0,-1,1021,1289,0,0
-196,-265,0,0,0,0,0,0,0,0,0,-1,1028,1289,0,0
-189,-265,0,0,0,0,0,0,0,0,0,-1,1035,1289,0,0
-182,-265,0,0,0,0,0,0,0,0,0,-1,1042,1289,0,0
-175,-265,0,0,0,0,0,0,0,0,0,-1,1049,1289,0,0
-168,-265,0,0,0,0,0,0,0,0,0,-1,1056,1289,0,0
-161,-265,0,0,0,0,0,0,0,0,0,-1,1063,1289,0,0
-154,-265,0,0,0,0,0,0,0,0,0,-1,1070,1289,0,0
-147,-265,0,0,0,0,0,0,0,0,0,-1,1077,1289,0,0
-140,-265,0,0,0,0,0,0,0,0,0,-1,1084,1289,0,0
-133,-265,0,0,0,0,0,0,0,0,0,-1,1091,1289,0,0
-126,-265,0,0,0,0,0,0,0,0,0,-1,1098,1289,0,0
-119,-265,0,0,0,0,0,0,0,0,0,-1,1105,1289,0,0
-112,-265,0,0,0,0,0,0,0,0,0,-1,1112,1289,0,0
-105,-265,0,0,0,0,0,0,0,0,0,-1,1119,1289,0,0
-98,-265,0,0,0,0,0,0,0,0,0,-1,1126,1289,0,0
-91,-265,0,0,0,0,0,0,0,0,0,-1,1133,1289,0,0
-84,-265,0,0,0,0,0,0,0,0,0,-1,1140,1289,0,0
-77,-265,0,0,0,0,0,0,0,0,0,-1,1147,1289,0,0
-70,-265,0,0,0,0,0,0,0,0,0,-1,1154,1289,0,0
-63,-265,0,0,0,0,0,0,0,0,0,-1,1161,1289,0,0
-56,-265,0,0,0,0,0,0,0,0,0,-1,1168,1289,0,0
-49,-265,0,0,0,0,0,0,0,0,0,-1,1175,1289,0,0
-42,-265,0,0,0,0,0,0,0,0,0,-1,1182,1289,0,0
-35,-265,0,0,0,0,0,0,0,0,0,-1,1189,1289,0,0
-28,-265,0,0,0,0,0,0,0,0,0,-1,1196,1289,0,0
-21,-265,0,0,0,0,0,0,0,0,0,-1,1203,1289,0,0
-14,-265,0,0,0,0,0,0,0,0,0,-1,1210,1289,0,0
-7,-265,0,0,0,0,0,0,0,0,0,-1,1217,1289,0,0
0,-265,0,0,0,0,0,0,0,0,0,-1,1224,1289,0,0
7,-265,0,0,0,0,0,0,0,0,0,-1,1231,1289,0,0
14,-265,0,0,0,0,0,0,0,0,0,-1,1238,1289,0,0
21,-265,0,0,0,0,0,0,0,0,0,-1,1245,1289,0,0
28,-265,0,0,0,0,0,0,0,0,0,-1,1252,1289,0,0
35,-265,0,0,0,0,0,0,0,0,0,-1,1259,1289,0,0
42,-265,0,0,0,0,0,0,0,0,0,-1,1266,1289,0,0
49,-265,0,0,0,0,0,0,0,0,0,-1,1273,1289,0,0
56,-265,0,0,0,0,0,0,0,0,0,-1,1280,1289,0,0
63,-265,0,0,0,0,0,0,0,0,0,-1,1287,1289,0,0
70,-265,0,0,0,0,0,0,0,0,0,-1,1294,1289,0,0
77,-265,0,0,0,0,0,0,0,0,0,-1,1301,1289,0,0
84,-265,0,0,0,0,0,0,0,0,0,-1,1308,1289,0,0
91,-265,0,0,0,0,0,0,0,0,0,-1,1315,1289,0,0
98,-265,0,0,0,0,0,0,0,0,0,-1,1322,1289,0,0
105,-265,0,0,0,0,0,0,0,0,0,-1,1329,1289,0,0
112,-265,0,0,0,0,0,0,0,0,0,-1,1336,1289,0,0
119,-265,0,0,0,0,0,0,0,0,0,-1,1343,1289,0,0
126,-265,0,0,0,0,0,0,0,0,0,-1,1350,1289,0,0
133,-265,0,0,0,0,0,0,0,0,0,-1,1357,1289,0,0
140,-265,0,0,0,0,0,0,0,0,0,-1,1364,1289,0,0
147,-265,0,0,0,0,0,0,0,0,0,-1,1371,1289,0,0
154,-265,0,0,0,0,0,0,0,0,0,-1,1378,1289,0,0
161,-265,0,0,0,0,0,0,0,0,0,-1,1385,1289,0,0
168,-265,0,0,0,0,0,0,0,0,0,-1,1392,1289,0,0
175,-265,0,0,0,0,0,0,0,0,0,-1,1399,1289,0,0
182,-265,0,0,0,0,0,0,0,0,0,-1,1406,1289,0,0
189,-265,0,0,0,0,0,0,0,0,0,-1,1413,1289,0,0
196,-265,0,0,0,0,0,0,0,0,0,-1,1420,1289,0,0
203,-265,0,0,0,0,0,0,0,0,0,-1,1427,1289,0,0
210,-265,0,0,0,0,0,0,0,0,0,-1,1434,1289,0,0
217,-265,0,0,0,0,0,0,0,0,0,-1,1441,1289,0,0
224,-265,0,0,0,0,0,0,0,0,0,-1,1448,1289,0,0
231,-265,0,0,0,0,0,0,0,0,0,-1,1455,1289,0,0
238,-265,0,0,0,0,0,0,0,0,0,-1,1462,1289,0,0
245,-265,0,0,0,0,0,0,0,0,0,-1,1469,1289,0,0
252,-265,0,0,0,0,0,0,0,0,0,-1,1476,1289,0,0
259,-265,0,0,0,0,0,0,0,0,0,-1,1483,1289,0,0
266,-265,0,0,0,0,0,0,0,0,0,-1,1490,1289,0,0
273,-265,0,0,0,0,0,0,0,0,0,-1,1497,1289,0,0
280,-265,0,0,0,0,0,0,0,0,0,-1,1504,1289,0,0
287,-265,0,0,0,0,0,0,0,0,0,-1,1511,1289,0,0
294,-265,0,0,0,0,0,0,0,0,0,-1,1518,1289,0,0
301,-265,0,0,0,0,0,0,0,0,0,-1,1525,1289,0,0
308,-265,0,0,0,0,0,0,0,0,0,-1,1532,1289,0,0
315,-265,0,0,0,0,0,0,0,0,0,-1,1539,1289,0,0
322,-265,0,0,0,0,0,0,0,0,0,-1,1546,1289,0,0
329,-265,0,0,0,0,0,0,0,0,0,-1,1553,1289,0,0
336,-265,0,0,0,0,0,0,0,0,0,-1,1560,1289,0,0
343,-265,0,0,0,0,0,0,0,0,0,-1,1567,1289,0,0
350,-265,0,0,0,0,0,0,0,0,0,-1,1574,1289,0,0
357,-265,0,0,0,0,0,0,0,0,0,-1,1581,1289,0,0
364,-265,0,0,0,0,0,0,0,0,0,-1,1588,1289,0,0
371,-265,0,0,0,0,0,0,0,0,0,-1,1595,1289,0,0
378,-265,0,0,0,0,0,0,0,0,0,-1,1602,1289,0,0
385,-265,0,0,0,0,0,0,0,0,0,-1,1609,1289,0,0
392,-265,0,0,0,0,0,0,0,0,0,-1,1616,1289,0,0
399,-265,0,0,0,0,0,0,0,0,0,-1,1623,1289,0,0
406,-265,0,0,0,0,0,0,0,0,0,-1,1630,1289,0,0
413,-265,0,0,0,0,0,0,0,0,0,-1,1637,1289,0,0
420,-265,0,0,0,0,0,0,0,0,0,-1,1644,1289,0,0
427,-265,0,0,0,0,0,0,0,0,0,-1,1651,1289,0,0
434,-265,0,0,0,0,0,0,0,0,0,-1,1658,1289,0,0
441,-265,0,0,0,0,0,0,0,0,0,-1,1665,1289,0,0
448,-265,0,0,0,0,0,0,0,0,0,-1,1672,1289,0,0
455,-265,0,0,0,0,0,0,0,0,0,-1,1679,1289,0,0
462,-265,0,0,0,0,0,0,0,0,0,-1,1686,1289,0,0
469,-265,0,0,0,0,0,0,0,0,0,-1,1693,1289,0,0
476,-265,0,0,0,0,0,0,0,0,0,-1,1700,1289,0,0
483,-265,0,0,0,0,0,0,0,0,0,-1,1707,1289,0,0
490,-265,0,0,0,0,0,0,0,0,0,-1,1714,1289,0,0
497,-265,0,0,0,0,0,0,0,0,0,-1,1721,1289,0,0
504,-265,0,0,0,0,0,0,0,0,0,-1,1728,1289,0,0
511,-265,0,0,0,0,0,0,0,0,0,-1,1735,1289,0,0
518,-265,0,0,0,0,0,0,0,0,0,-1,1742,1289,0,0
525,-265,0,0,0,0,0,0,0,0,0,-1,1749,1289,0,0
532,-265,0,0,0,0,0,0,0,0,0,-1,1756,1289,0,0
539,-265,0,0,0,0,0,0,0,0,0,-1,1763,1289,0,0
546,-265,0,0,0,0,0,0,0,0,0,-1,1770,1289,0,0
553,-265,0,0,0,0,0,0,0,0,0,-1,1777,1289,0,0
560,-265,0,0,0,0,0,0,0,0,0,-1,1784,1289,0,0
567,-265,0,0,0,0,0,0,0,0,0,-1,1791,1289,0,0
574,-265,0,0,0,0,0,0,0,0,0,-1,1798,1289,0,0
581,-265,0,0,0,0,0,0,0,0,0,-1,1805,1289,0,0
588,-265,0,0,0,0,0,0,0,0,0,-1,1812,1289,0,0
595,-265,0,0,0,0,0,0,0,0,0,-1,1819,1289,0,0
602,-265,61.0942,2.79431,0.00592518,-0.00514487,0.00196271,0.00626287,-0.00548255,0.170383,0.00678621,0.0279103,1826,1289,61.0942,-2.79429
609,-265,61.0208,2.74219,0.00490054,-0.00296559,-0.00146513,0.00516457,-0.00322962,-0.178296,0.00488912,0.0295997,1833,1289,61.0207,-2.74219
616,-265,61.0781,2.77026,0.00332173,0.000293432,-0.00474677,0.00679,-0.00317483,-0.631007,0.00587805,0.0344057,1840,1289,61.0781,-2.77027
623,-265,61.093,2.61951,0.0018355,0.00318902,-0.00660282,0.00914967,-0.00412515,-0.836468,0.00784509,0.0461928,1847,1289,61.093,-2.61951
630,-265,60.9041,2.37109,0.000651826,0.00499986,-0.00694694,0.010105,-0.00445333,-0.937044,0.0086138,0.0464265,1854,1289,60.904,-2.37109
637,-265,60.9189,2.30396,0,0,0,0,0,0,0,-1,1861,1289,60.9189,-2.30396
644,-265,60.6063,1.83386,0,0,0,0,0,0,0,-1,1868,1289,60.6064,-1.83392
651,-265,53.6781,1.57166,0,0,0,0,0,0,0,-1,1875,1289,53.6781,-1.57167
658,-265,41.7163,3.71619,0,0,0,0,0,0,0,-1,1882,1289,41.7163,-3.71624
665,-265,34.7902,1.43164,0,0,0,0,0,0,0,-1,1889,1289,34.7901,-1.43162
672,-265,20.0045,6.62671,0,0,0,0,0,0,0,-1,1896,1289,20.0045,-6.62668
679,-265,44.0084,13.05,0,0,0,0,0,0,0,-1,1903,1289,44.0084,-13.05
686,-265,43.9713,12.4286,-0.000128143,0.00425903,-0.00258687,0.00545715,-0.00132627,-1.13706,0.00415142,0.0421249,1910,1289,43.9713,-12.4286
693,-265,43.9507,11.8267,0.000322333,0.00277695,-0.00156779,0.00354068,-0.000441402,-1.11749,0.0025205,0.0106221,1917,1289,43.9507,-11.8267
700,-265,43.9163,11.2167,0.000467872,0.00107726,-0.000451765,0.00131748,0.000227652,-1.08208,0.000813128,0.0108777,1924,1289,43.9163,-11.2167
707,-265,43.915,10.6063,-2.58635e-05,-0.000560992,0.000508955,0.000281573,-0.000868428,0.543395,0.000692171,0.0104953,1931,1289,43.915,-10.6063
714,-265,43.8894,10.0148,-0.000945374,-0.000748339,0.00140601,0.0005626,-0.00225631,0.820376,0.00172264,0.0123988,1938,1289,43.8894,-10.0148
721,-265,43.8037,9.40918,-0.00182789,-0.00101888,0.00242304,0.00103319,-0.00387996,0.868106,0.00299112,0.0147064,1945,1289,43.8037,-9.40921
728,-265,43.775,8.86218,-0.00276601,-0.00137395,0.0035648,0.00156213,-0.0057021,0.88181,0.00441521,0.0154706,1952,1289,43.775,-8.8622
735,-265,43.821,8.29834,-0.00373861,-0.00179741,0.00485698,0.002185,-0.00772102,0.884017,0.00600958,0.017095,1959,1289,43.8211,-8.29829
742,-265,43.776,7.7168,-0.00469457,-0.00232291,0.00638262,0.00298311,-0.0100006,0.877246,0.00785263,0.0205333,1966,1289,43.776,-7.71678
749,-265,43.9581,7.28479,0,0,0,0,0,0,0,-1,1973,1289,43.9581,-7.28476
756,-265,43.1897,6.19714,0,0,0,0,0,0,0,-1,1980,1289,43.1897,-6.1972
763,-265,39.1299,4.9679,0,0,0,0,0,0,0,-1,1987,1289,39.1299,-4.96791
770,-265,35.1674,5.07715,0,0,0,0,0,0,0,-1,1994,1289,35.1673,-5.07718
777,-265,32.1664,5.3457,0,0,0,0,0,0,0,-1,2001,1289,32.1664,-5.34568
784,-265,0,0,0,0,0,0,0,0,0,-1,2008,1289,0,0
791,-265,0,0,0,0,0,0,0,0,0,-1,2015,1289,0,0
798,-265,0,0,0,0,0,0,0,0,0,-1,2022,1289,0,0
805,-265,0,0,0,0,0,0,0,0,0,-1,2029,1289,0,0
812,-265,0,0,0,0,0,0,0,0,0,-1,2036,1289,0,0
-700,-272,0,0,0,0,0,0,0,0,0,-1,524,1296,0,0
-693,-272,0,0,0,0,0,0,0,0,0,-1,531,1296,0,0
-686,-272,0,0,0,0,0,0,0,0,0,-1,538,1296,0,0
-679,-272,0,0,0,0,0,0,0,0,0,-1,545,1296,0,0
-672,-272,0,0,0,0,0,0,0,0,0,-1,552,1296,0,0
-665,-272,0,0,0,0,0,0,0,0,0,-1,559,1296,0,0
-658,-272,-48.7759,5.50476,-0.129758,-0.0471909,0.0167441,-0.0439245,-0.133024,1.37814,0.0782639,0.0447053,566,1296,-48.7759,-5.50477
-651,-272,-49.6185,5.21814,-0.113126,-0.0378731,0.0190473,-0.0333266,-0.117672,1.33649,0.0700342,0.0454943,573,1296,-49.6185,-5.21809
-644,-272,-50.6778,5.26685,-0.0967545,-0.0306159,0.0187041,-0.0256928,-0.101678,1.31342,0.0610504,0.0476137,580,1296,-50.6778,-5.26683
-637,-272,-51.5787,5.34985,0,0,0,0,0,0,0,-1,587,1296,-51.5787,-5.34986
-630,-272,-50.7759,-2.20715,0,0,0,0,0,0,0,-1,594,1296,-50.7759,2.20711
-623,-272,-26.0651,3.34204,0,0,0,0,0,0,0,-1,601,1296,-26.0651,-3.34206
-616,-272,-27.0507,4.47852,0,0,0,0,0,0,0,-1,608,1296,-27.0507,-4.47849
-609,-272,-27.2674,5.64136,-0.02678,-0.00481402,0.00891965,-0.00164829,-0.0299457,1.22975,0.0194377,0.0261095,615,1296,-27.2674,-5.64133
-602,-272,-27.3439,6.14099,-0.0150374,-0.00109219,0.00689214,0.00173922,-0.0178689,1.181,0.0125326,0.0148464,622,1296,-27.3439,-6.14095
-595,-272,-27.3865,6.79944,-0.00636905,0.000841002,0.00389604,0.00254402,-0.00807207,1.15871,0.0064002,0.0116602,629,1296,-27.3865,-6.7995
-588,-272,-27.3985,7.43591,-0.000279894,0.00163866,0.00137882,0.00235907,-0.00100031,1.08932,0.00199172,0.010672,636,1296,-27.3985,-7.43593
-581,-272,-27.4147,8.04285,0.001165,0.000396436,0.000461789,0.00138149,0.00017995,0.438375,0.000867254,0.0101427,643,1296,-27.4147,-8.04286
-574,-272,-27.4941,8.7113,0.00194054,-0.000611427,0.000566748,0.00206074,-0.00073163,0.208996,0.00167194,0.0157926,650,1296,-27.4941,-8.71127
-567,-272,-27.5757,9.39417,0.00289862,-0.00157732,0.000721301,0.00301198,-0.00169069,0.155895,0.00275058,0.021853,657,1296,-27.5757,-9.39411
-560,-272,-27.6053,10.0634,0.00378822,-0.00170708,0.000924062,0.00393944,-0.0018583,0.162214,0.00341846,0.0211775,664,1296,-27.6054,-10.0633
-553,-272,-27.5046,10.6738,0.00404094,-0.00180136,0.00149199,0.00439991,-0.00216033,0.236106,0.00386042,0.0282506,671,1296,-27.5046,-10.6739
-546,-272,-27.4316,11.2891,0,0,0,0,0,0,0,-1,678,1296,-27.4316,-11.2891
-539,-272,-24.1416,11.0325,0,0,0,0,0,0,0,-1,685,1296,-24.1416,-11.0324
-532,-272,-10.5572,4.53943,0,0,0,0,0,0,0,-1,692,1296,-10.5572,-4.53943
-525,-272,-11.9599,0.0393066,0,0,0,0,0,0,0,-1,699,1296,-11.9599,-0.0393577
-518,-272,-21.1357,-1.41382,0,0,0,0,0,0,0,-1,706,1296,-21.1357,1.41379
-511,-272,-23.2565,0.226318,0,0,0,0,0,0,0,-1,713,1296,-23.2565,-0.22626
-504,-272,-19.7397,0.114746,0,0,0,0,0,0,0,-1,720,1296,-19.7397,-0.114701
-497,-272,-19.2225,1.71301,0,0,0,0,0,0,0,-1,727,1296,-19.2225,-1.71302
-490,-272,-20.1948,2.4032,0,0,0,0,0,0,0,-1,734,1296,-20.1948,-2.40322
-483,-272,-15.3736,0.792603,0,0,0,0,0,0,0,-1,741,1296,-15.3736,-0.79263
-476,-272,0,0,0,0,0,0,0,0,0,-1,748,1296,0,0
-469,-272,0,0,0,0,0,0,0,0,0,-1,755,1296,0,0
-462,-272,0,0,0,0,0,0,0,0,0,-1,762,1296,0,0
-455,-272,0,0,0,0,0,0,0,0,0,-1,769,1296,0,0
-448,-272,0,0,0,0,0,0,0,0,0,-1,776,1296,0,0
-441,-272,0,0,0,0,0,0,0,0,0,-1,783,1296,0,0
-434,-272,0,0,0,0,0,0,0,0,0,-1,790,1296,0,0
-427,-272,0,0,0,0,0,0,0,0,0,-1,797,1296,0,0
-420,-272,0,0,0,0,0,0,0,0,0,-1,804,1296,0,0
-413,-272,0,0,0,0,0,0,0,0,0,-1,811,1296,0,0
-406,-272,0,0,0,0,0,0,0,0,0,-1,818,1296,0,0
-399,-272,0,0,0,0,0,0,0,0,0,-1,825,1296,0,0
-392,-272,0,0,0,0,0,0,0,0,0,-1,832,1296,0,0
-385,-272,0,0,0,0,0,0,0,0,0,-1,839,1296,0,0
-378,-272,0,0,0,0,0,0,0,0,0,-1,846,1296,0,0
-371,-272,0,0,0,0,0,0,0,0,0,-1,853,1296,0,0
-364,-272,0,0,0,0,0,0,0,0,0,-1,860,1296,0,0
-357,-272,0,0,0,0,0,0,0,0,0,-1,867,1296,0,0
-350,-272,0,0,0,0,0,0,0,0,0,-1,874,1296,0,0
-343,-272,0,0,0,0,0,0,0,0,0,-1,881,1296,0,0
-336,-272,0,0,0,0,0,0,0,0,0,-1,888,1296,0,0
-329,-272,0,0,0,0,0,0,0,0,0,-1,895,1296,0,0
-322,-272,0,0,0,0,0,0,0,0,0,-1,902,1296,0,0
-315,-272,0,0,0,0,0,0,0,0,0,-1,909,1296,0,0
-308,-272,0,0,0,0,0,0,0,0,0,-1,916,1296,0,0
-301,-272,0,0,0,0,0,0,0,0,0,-1,923,1296,0,0
-294,-272,0,0,0,0,0,0,0,0,0,-1,930,1296,0,0
-287,-272,0,0,0,0,0,0,0,0,0,-1,937,1296,0,0
-280,-272,0,0,0,0,0,0,0,0,0,-1,944,1296,0,0
-273,-272,0,0,0,0,0,0,0,0,0,-1,951,1296,0,0
-266,-272,0,0,0,0,0,0,0,0,0,-1,958,1296,0,0
-259,-272,0,0,0,0,0,0,0,0,0,-1,965,1296,0,0
-252,-272,0,0,0,0,0,0,0,0,0,-1,972,1296,0,0
-245,-272,0,0,0,0,0,0,0,0,0,-1,979,1296,0,0
-238,-272,0,0,0,0,0,0,0,0,0,-1,986,1296,0,0
-231,-272,0,0,0,0,0,0,0,0,0,-1,993,1296,0,0
-224,-272,0,0,0,0,0,0,0,0,0,-1,1000,1296,0,0
-217,-272,0,0,0,0,0,0,0,0,0,-1,1007,1296,0,0
-210,-272,0,0,0,0,0,0,0,0,0,-1,1014,1296,0,0
-203,-272,0,0,0,0,0,0,0,0,0,-1,1021,1296,0,0
-196,-272,0,0,0,0,0,0,0,0,0,-1,1028,1296,0,0
-189,-272,0,0,0,0,0,0,0,0,0,-1,1035,1296,0,0
-182,-272,0,0,0,0,0,0,0,0,0,-1,1042,1296,0,0
-175,-272,0,0,0,0,0,0,0,0,0,-1,1049,1296,0,0
-168,-272,0,0,0,0,0,0,0,0,0,-1,1056,1296,0,0
-161,-272,0,0,0,0,0,0,0,0,0,-1,1063,1296,0,0
-154,-272,0,0,0,0,0,0,0,0,0,-1,1070,1296,0,0
-147,-272,0,0,0,0,0,0,0,0,0,-1,1077,1296,0,0
-140,-272,0,0,0,0,0,0,0,0,0,-1,1084,1296,0,0
-133,-272,0,0,0,0,0,0,0,0,0,-1,1091,1296,0,0
-126,-272,0,0,0,0,0,0,0,0,0,-1,1098,1296,0,0
-119,-272,0,0,0,0,0,0,0,0,0,-1,1105,1296,0,0
-112,-272,0,0,0,0,0,0,0,0,0,-1,1112,1296,0,0
-105,-272,0,0,0,0,0,0,0,0,0,-1,1119,1296,0,0
-98,-272,0,0,0,0,0,0,0,0,0,-1,1126,1296,0,0
-91,-272,0,0,0,0,0,0,0,0,0,-1,1133,1296,0,0
-84,-272,0,0,0,0,0,0,0,0,0,-1,1140,1296,0,0
-77,-272,0,0,0,0,0,0,0,0,0,-1,1147,1296,0,0
-70,-272,0,0,0,0,0,0,0,0,0,-1,1154,1296,0,0
-63,-272,0,0,0,0,0,0,0,0,0,-1,1161,1296,0,0
-56,-272,0,0,0,0,0,0,0,0,0,-1,1168,1296,0,0
-49,-272,0,0,0,0,0,0,0,0,0,-1,1175,1296,0,0
-42,-272,0,0,0,0,0,0,0,0,0,-1,1182,1296,0,0
-35,-272,0,0,0,0,0,0,0,0,0,-1,1189,1296,0,0
-28,-272,0,0,0,0,0,0,0,0,0,-1,1196,1296,0,0
-21,-272,0,0,0,0,0,0,0,0,0,-1,1203,1296,0,0
-14,-272,0,0,0,0,0,0,0,0,0,-1,1210,1296,0,0
-7,-272,0,0,0,0,0,0,0,0,0,-1,1217,1296,0,0
0,-272,0,0,0,0,0,0,0,0,0,-1,1224,1296,0,0
7,-272,0,0,0,0,0,0,0,0,0,-1,1231,1296,0,0
14,-272,0,0,0,0,0,0,0,0,0,-1,1238,1296,0,0
21,-272,0,0,0,0,0,0,0,0,0,-1,1245,1296,0,0
28,-272,0,0,0,0,0,0,0,0,0,-1,1252,1296,0,0
35,-272,0,0,0,0,0,0,0,0,0,-1,1259,1296,0,0
42,-272,0,0,0,0,0,0,0,0,0,-1,1266,1296,0,0
49,-272,0,0,0,0,0,0,0,0,0,-1,1273,1296,0,0
56,-272,0,0,0,0,0,0,0,0,0,-1,1280,1296,0,0
63,-272,0,0,0,0,0,0,0,0,0,-1,1287,1296,0,0
70,-272,0,0,0,0,0,0,0,0,0,-1,1294,1296,0,0
77,-272,0,0,0,0,0,0,0,0,0,-1,1301,1296,0,0
84,-272,0,0,0,0,0,0,0,0,0,-1,1308,1296,0,0
91,-272,0,0,0,0,0,0,0,0,0,-1,1315,1296,0,0
98,-272,0,0,0,0,0,0,0,0,0,-1,1322,1296,0,0
105,-272,0,0,0,0,0,0,0,0,0,-1,1329,1296,0,0
112,-272,0,0,0,0,0,0,0,0,0,-1,1336,1296,0,0
119,-272,0,0,0,0,0,0,0,0,0,-1,1343,1296,0,0
126,-272,0,0,0,0,0,0,0,0,0,-1,1350,1296,0,0
133,-272,0,0,0,0,0,0,0,0,0,-1,1357,1296,0,0
140,-272,0,0,0,0,0,0,0,0,0,-1,1364,1296,0,0
147,-272,0,0,0,0,0,0,0,0,0,-1,1371,1296,0,0
154,-272,0,0,0,0,0,0,0,0,0,-1,1378,1296,0,0
161,-272,0,0,0,0,0,0,0,0,0,-1,1385,1296,0,0
168,-272,0,0,0,0,0,0,0,0,0,-1,1392,1296,0,0
175,-272,0,0,0,0,0,0,0,0,0,-1,1399,1296,0,0
182,-272,0,0,0,0,0,0,0,0,0,-1,1406,1296,0,0
189,-272,0,0,0,0,0,0,0,0,0,-1,1413,1296,0,0
196,-272,0,0,0,0,0,0,0,0,0,-1,1420,1296,0,0
203,-272,0,0,0,0,0,0,0,0,0,-1,1427,1296,0,0
210,-272,0,0,0,0,0,0,0,0,0,-1,1434,1296,0,0
217,-272,0,0,0,0,0,0,0,0,0,-1,1441,1296,0,0
224,-272,0,0,0,0,0,0,0,0,0,-1,1448,1296,0,0
231,-272,0,0,0,0,0,0,0,0,0,-1,1455,1296,0,0
238,-272,0,0,0,0,0,0,0,0,0,-1,1462,1296,0,0
245,-272,0,0,0,0,0,0,0,0,0,-1,1469,1296,0,0
252,-272,0,0,0,0,0,0,0,0,0,-1,1476,1296,0,0
259,-272,0,0,0,0,0,0,0,0,0,-1,1483,1296,0,0
266,-272,0,0,0,0,0,0,0,0,0,-1,1490,1296,0,0
273,-272,0,0,0,0,0,0,0,0,0,-1,1497,1296,0,0
280,-272,0,0,0,0,0,0,0,0,0,-1,1504,1296,0,0
287,-272,0,0,0,0,0,0,0,0,0,-1,1511,1296,0,0
294,-272,0,0,0,0,0,0,0,0,0,-1,1518,1296,0,0
301,-272,0,0,0,0,0,0,0,0,0,-1,1525,1296,0,0
308,-272,0,0,0,0,0,0,0,0,0,-1,1532,1296,0,0
315,-272,0,0,0,0,0,0,0,0,0,-1,1539,1296,0,0
322,-272,0,0,0,0,0,0,0,0,0,-1,1546,1296,0,0
329,-272,0,0,0,0,0,0,0,0,0,-1,1553,1296,0,0
336,-272,0,0,0,0,0,0,0,0,0,-1,1560,1296,0,0
343,-272,0,0,0,0,0,0,0,0,0,-1,1567,1296,0,0
350,-272,0,0,0,0,0,0,0,0,0,-1,1574,1296,0,0
357,-272,0,0,0,0,0,0,0,0,0,-1,1581,1296,0,0
364,-272,0,0,0,0,0,0,0,0,0,-1,1588,1296,0,0
371,-272,0,0,0,0,0,0,0,0,0,-1,1595,1296,0,0
378,-272,0,0,0,0,0,0,0,0,0,-1,1602,1296,0,0
385,-272,0,0,0,0,0,0,0,0,0,-1,1609,1296,0,0
392,-272,0,0,0,0,0,0,0,0,0,-1,1616,1296,0,0
399,-272,0,0,0,0,0,0,0,0,0,-1,1623,1296,0,0
406,-272,0,0,0,0,0,0,0,0,0,-1,1630,1296,0,0
413,-272,0,0,0,0,0,0,0,0,0,-1,1637,1296,0,0
420,-272,0,0,0,0,0,0,0,0,0,-1,1644,1296,0,0
427,-272,0,0,0,0,0,0,0,0,0,-1,1651,1296,0,0
434,-272,0,0,0,0,0,0,0,0,0,-1,1658,1296,0,0
441,-272,0,0,0,0,0,0,0,0,0,-1,1665,1296,0,0
448,-272,0,0,0,0,0,0,0,0,0,-1,1672,1296,0,0
455,-272,0,0,0,0,0,0,0,0,0,-1,1679,1296,0,0
462,-272,0,0,0,0,0,0,0,0,0,-1,1686,1296,0,0
469,-272,0,0,0,0,0,0,0,0,0,-1,1693,1296,0,0
476,-272,0,0,0,0,0,0,0,0,0,-1,1700,1296,0,0
483,-272,0,0,0,0,0,0,0,0,0,-1,1707,1296,0,0
490,-272,0,0,0,0,0,0,0,0,0,-1,1714,1296,0,0
497,-272,0,0,0,0,0,0,0,0,0,-1,1721,1296,0,0
504,-272,0,0,0,0,0,0,0,0,0,-1,1728,1296,0,0
511,-272,0,0,0,0,0,0,0,0,0,-1,1735,1296,0,0
518,-272,0,0,0,0,0,0,0,0,0,-1,1742,1296,0,0
525,-272,0,0,0,0,0,0,0,0,0,-1,1749,1296,0,0
532,-272,0,0,0,0,0,0,0,0,0,-1,1756,1296,0,0
539,-272,0,0,0,0,0,0,0,0,0,-1,1763,1296,0,0
546,-272,0,0,0,0,0,0,0,0,0,-1,1770,1296,0,0
553,-272,0,0,0,0,0,0,0,0,0,-1,1777,1296,0,0
560,-272,0,0,0,0,0,0,0,0,0,-1,1784,1296,0,0
567,-272,0,0,0,0,0,0,0,0,0,-1,1791,1296,0,0
574,-272,0,0,0,0,0,0,0,0,0,-1,1798,1296,0,0
581,-272,0,0,0,0,0,0,0,0,0,-1,1805,1296,0,0
588,-272,0,0,0,0,0,0,0,0,0,-1,1812,1296,0,0
595,-272,0,0,0,0,0,0,0,0,0,-1,1819,1296,0,0
602,-272,61.0781,2.74158,0.00810662,-0.00577167,0.000113139,0.00810754,-0.00577259,0.00815153,0.00805141,0.0330496,1826,1296,61.0782,-2.74164
609,-272,61.0212,2.64307,0.00774782,-0.00442329,-0.00333747,0.00860292,-0.00527839,-0.250817,0.00809063,0.0403847,1833,1296,61.0213,-2.64305
616,-272,61.2179,2.77063,0.00643704,-0.00214423,-0.00572033,0.00929706,-0.00500424,-0.463626,0.00837993,0.045212,1840,1296,61.2179,-2.77059
623,-272,61.452,2.95154,0.00470635,-7.6587e-05,-0.00620232,0.00896228,-0.00433251,-0.601393,0.00782936,0.0465116,1847,1296,61.452,-2.95155
630,-272,60.799,2.14575,0,0,0,0,0,0,0,-1,1854,1296,60.7989,-2.14578
637,-272,60.8385,2.00537,0,0,0,0,0,0,0,-1,1861,1296,60.8385,-2.00539
644,-272,53.563,1.44336,0,0,0,0,0,0,0,-1,1868,1296,53.5629,-1.4433
651,-272,41.9225,4.27161,0,0,0,0,0,0,0,-1,1875,1296,41.9225,-4.27157
658,-272,35.1527,2.10571,0,0,0,0,0,0,0,-1,1882,1296,35.1527,-2.10573
665,-272,22.0238,4.14417,0,0,0,0,0,0,0,-1,1889,1296,22.0238,-4.14421
672,-272,22.661,7.21765,0,0,0,0,0,0,0,-1,1896,1296,22.661,-7.21761
679,-272,43.3866,13.1056,0,0,0,0,0,0,0,-1,1903,1296,43.3867,-13.1056
686,-272,43.3296,12.4862,-0.000171653,0.00399095,-0.00247178,0.00514098,-0.00132169,-1.13532,0.00394244,0.0305608,1910,1296,43.3296,-12.4862
693,-272,43.3337,11.8601,0.000321671,0.00239706,-0.0013426,0.00305624,-0.000337508,-1.1144,0.00215881,0.0124754,1917,1296,43.3337,-11.8601
700,-272,43.3151,11.2517,0.000405894,0.000797753,-0.000207162,0.000886963,0.000316684,-1.16417,0.000519018,0.0125998,1924,1296,43.315,-11.2517
707,-272,43.3108,10.6294,-0.000118127,-0.000593262,0.000751241,0.000432215,-0.0011436,0.632257,0.000940194,0.0110813,1931,1296,43.3108,-10.6294
714,-272,43.2767,10.0297,-0.000990821,-0.000851129,0.0016337,0.000714216,-0.00255617,0.806762,0.00198547,0.0128612,1938,1296,43.2768,-10.0297
721,-272,43.2045,9.46863,-0.00194063,-0.00118763,0.00262464,0.00108737,-0.00421563,0.856637,0.00323439,0.0171483,1945,1296,43.2045,-9.46862
728,-272,43.196,8.86035,-0.00300477,-0.00161004,0.00375355,0.00151038,-0.00612519,0.877245,0.00466907,0.0186492,1952,1296,43.196,-8.86029
735,-272,43.2096,8.31921,-0.00416283,-0.00212635,0.00504785,0.00200493,-0.00829411,0.884921,0.00630489,0.0164445,1959,1296,43.2096,-8.31927
742,-272,43.1179,7.77441,-0.00540036,-0.00279035,0.00661529,0.00264743,-0.0108381,0.882783,0.00825072,0.0256529,1966,1296,43.1179,-7.77445
749,-272,43.0503,7.1814,0,0,0,0,0,0,0,-1,1973,1296,43.0503,-7.18142
756,-272,43.1301,6.65479,0,0,0,0,0,0,0,-1,1980,1296,43.1301,-6.65478
763,-272,34.3995,5.88416,0,0,0,0,0,0,0,-1,1987,1296,34.3996,-5.88419
770,-272,25.9485,3.67749,0,0,0,0,0,0,0,-1,1994,1296,25.9485,-3.67744
777,-272,32.3619,6.13257,0,0,0,0,0,0,0,-1,2001,1296,32.362,-6.1326
784,-272,0,0,0,0,0,0,0,0,0,-1,2008,1296,0,0
791,-272,0,0,0,0,0,0,0,0,0,-1,2015,1296,0,0
798,-272,0,0,0,0,0,0,0,0,0,-1,2022,1296,0,0
805,-272,0,0,0,0,0,0,0,0,0,-1,2029,1296,0,0
812,-272,0,0,0,0,0,0,0,0,0,-1,2036,1296,0,0
-700,-279,0,0,0,0,0,0,0,0,0,-1,524,1303,0,0
-693,-279,0,0,0,0,0,0,0,0,0,-1,531,1303,0,0
-686,-279,0,0,0,0,0,0,0,0,0,-1,538,1303,0,0
-679,-279,0,0,0,0,0,0,0,0,0,-1,545,1303,0,0
-672,-279,0,0,0,0,0,0,0,0,0,-1,552,1303,0,0
-665,-279,0,0,0,0,0,0,0,0,0,-1,559,1303,0,0
-658,-279,-48.9786,5.4137,-0.139203,-0.0472935,0.0216281,-0.0424584,-0.144038,1.35085,0.0854635,0.0449936,566,1303,-48.9786,-5.41368
-651,-279,-50.0671,5.51086,-0.122031,-0.038139,0.0238329,-0.0318411,-0.128329,1.31245,0.077161,0.0433729,573,1303,-50.0672,-5.51084
-644,-279,-51.064,5.61621,-0.104779,-0.0312878,0.022768,-0.0248059,-0.111261,1.29344,0.0674434,0.0450846,580,1303,-51.0639,-5.61623
-637,-279,-52.0073,5.78674,0,0,0,0,0,0,0,-1,587,1303,-52.0073,-5.78671
-630,-279,-37.8927,-1.96741,0,0,0,0,0,0,0,-1,594,1303,-37.8927,1.96745
-623,-279,-22.2665,2.68457,0,0,0,0,0,0,0,-1,601,1303,-22.2665,-2.68451
-616,-279,-25.9256,4.78198,0,0,0,0,0,0,0,-1,608,1303,-25.9256,-4.78194
-609,-279,-26.6558,5.43994,0,0,0,0,0,0,0,-1,615,1303,-26.6558,-5.43999
-602,-279,-26.6726,6.14282,-0.0176267,-0.00172369,0.00790452,0.00153677,-0.0208871,1.17958,0.0144642,0.0161591,622,1303,-26.6726,-6.14281
-595,-279,-26.738,6.80469,-0.00763316,0.000862394,0.00460248,0.00287772,-0.00964848,1.15807,0.00757599,0.0108767,629,1303,-26.738,-6.80468
-588,-279,-26.7495,7.45996,-0.000420947,0.00222856,0.00174093,0.00309145,-0.00128384,1.11063,0.00259694,0.0110883,636,1303,-26.7495,-7.46
-581,-279,-26.7665,8.06226,0.00111991,0.00098559,0.00066709,0.00172321,0.000382289,0.735228,0.00104495,0.0122598,643,1303,-26.7665,-8.06229
-574,-279,-26.832,8.70142,0.00188434,3.23887e-05,0.000723167,0.00213327,-0.000216541,0.331518,0.00149958,0.0134403,650,1303,-26.832,-8.70147
-567,-279,-26.8827,9.36719,0.0027968,-0.00082958,0.00085591,0.00298867,-0.00102144,0.220518,0.00240631,0.018239,657,1303,-26.8827,-9.36722
-560,-279,-26.8859,10.0662,0.0037644,-0.00131173,0.00107267,0.00398177,-0.00152909,0.199933,0.00328506,0.0174186,664,1303,-26.8859,-10.0662
-553,-279,-26.8884,10.7183,0.00439273,-0.00179796,0.00154226,0.00475567,-0.0021609,0.231124,0.00408588,0.0156023,671,1303,-26.8884,-10.7182
-546,-279,-26.8896,11.3501,0.00499149,-0.00173344,0.00221087,0.00565322,-0.00239517,0.29082,0.00477196,0.0310221,678,1303,-26.8896,-11.3501
-539,-279,-27.2445,12.0736,0,0,0,0,0,0,0,-1,685,1303,-27.2445,-12.0736
-532,-279,-14.9813,7.89917,0,0,0,0,0,0,0,-1,692,1303,-14.9813,-7.89918
-525,-279,-11.7063,-0.539185,0,0,0,0,0,0,0,-1,699,1303,-11.7063,0.539166
-518,-279,-16.8138,1.11963,0,0,0,0,0,0,0,-1,706,1303,-16.8138,-1.11968
-511,-279,-20.1063,-1.37915,0,0,0,0,0,0,0,-1,713,1303,-20.1062,1.37918
-504,-279,-18.3766,1.04578,0,0,0,0,0,0,0,-1,720,1303,-18.3767,-1.04577
-497,-279,-19.0046,2.08911,0,0,0,0,0,0,0,-1,727,1303,-19.0046,-2.08905
-490,-279,-20.0176,2.55188,0,0,0,0,0,0,0,-1,734,1303,-20.0176,-2.55183
-483,-279,-20.8064,2.99792,0,0,0,0,0,0,0,-1,741,1303,-20.8064,-2.99797
-476,-279,0,0,0,0,0,0,0,0,0,-1,748,1303,0,0
-469,-279,0,0,0,0,0,0,0,0,0,-1,755,1303,0,0
-462,-279,0,0,0,0,0,0,0,0,0,-1,762,1303,0,0
-455,-279,0,0,0,0,0,0,0,0,0,-1,769,1303,0,0
-448,-279,0,0,0,0,0,0,0,0,0,-1,776,1303,0,0
-441,-279,0,0,0,0,0,0,0,0,0,-1,783,1303,0,0
-434,-279,0,0,0,0,0,0,0,0,0,-1,790,1303,0,0
-427,-279,0,0,0,0,0,0,0,0,0,-1,797,1303,0,0
-420,-279,0,0,0,0,0,0,0,0,0,-1,804,1303,0,0
-413,-279,0,0,0,0,0,0,0,0,0,-1,811,1303,0,0
-406,-279,0,0,0,0,0,0,0,0,0,-1,818,1303,0,0
-399,-279,0,0,0,0,0,0,0,0,0,-1,825,1303,0,0
-392,-279,0,0,0,0,0,0,0,0,0,-1,832,1303,0,0
-385,-279,0,0,0,0,0,0,0,0,0,-1,839,1303,0,0
-378,-279,0,0,0,0,0,0,0,0,0,-1,846,1303,0,0
-371,-279,0,0,0,0,0,0,0,0,0,-1,853,1303,0,0
-364,-279,0,0,0,0,0,0,0,0,0,-1,860,1303,0,0
-357,-279,0,0,0,0,0,0,0,0,0,-1,867,1303,0,0
-350,-279,0,0,0,0,0,0,0,0,0,-1,874,1303,0,0
-343,-279,0,0,0,0,0,0,0,0,0,-1,881,1303,0,0
-336,-279,0,0,0,0,0,0,0,0,0,-1,888,1303,0,0
-329,-279,0,0,0,0,0,0,0,0,0,-1,895,1303,0,0
-322,-279,0,0,0,0,0,0,0,0,0,-1,902,1303,0,0
-315,-279,0,0,0,0,0,0,0,0,0,-1,909,1303,0,0
-308,-279,0,0,0,0,0,0,0,0,0,-1,916,1303,0,0
-301,-279,0,0,0,0,0,0,0,0,0,-1,923,1303,0,0
-294,-279,0,0,0,0,0,0,0,0,0,-1,930,1303,0,0
-287,-279,0,0,0,0,0,0,0,0,0,-1,937,1303,0,0
-280,-279,0,0,0,0,0,0,0,0,0,-1,944,1303,0,0
-273,-279,0,0,0,0,0,0,0,0,0,-1,951,1303,0,0
-266,-279,0,0,0,0,0,0,0,0,0,-1,958,1303,0,0
-259,-279,0,0,0,0,0,0,0,0,0,-1,965,1303,0,0
-252,-279,0,0,0,0,0,0,0,0,0,-1,972,1303,0,0
-245,-279,0,0,0,0,0,0,0,0,0,-1,979,1303,0,0
-238,-279,0,0,0,0,0,0,0,0,0,-1,986,1303,0,0
-231,-279,0,0,0,0,0,0,0,0,0,-1,993,1303,0,0
-224,-279,0,0,0,0,0,0,0,0,0,-1,1000,1303,0,0
-217,-279,0,0,0,0,0,0,0,0,0,-1,1007,1303,0,0
-210,-279,0,0,0,0,0,0,0,0,0,-1,1014,1303,0,0
-203,-279,0,0,0,0,0,0,0,0,0,-1,1021,1303,0,0
-196,-279,0,0,0,0,0,0,0,0,0,-1,1028,1303,0,0
-189,-279,0,0,0,0,0,0,0,0,0,-1,1035,1303,0,0
-182,-279,0,0,0,0,0,0,0,0,0,-1,1042,1303,0,0
-175,-279,0,0,0,0,0,0,0,0,0,-1,1049,1303,0,0
-168,-279,0,0,0,0,0,0,0,0,0,-1,1056,1303,0,0
-161,-279,0,0,0,0,0,0,0,0,0,-1,1063,1303,0,0
-154,-279,0,0,0,0,0,0,0,0,0,-1,1070,1303,0,0
-147,-279,0,0,0,0,0,0,0,0,0,-1,1077,1303,0,0
-140,-279,0,0,0,0,0,0,0,0,0,-1,1084,1303,0,0
-133,-279,0,0,0,0,0,0,0,0,0,-1,1091,1303,0,0
-126,-279,0,0,0,0,0,0,0,0,0,-1,1098,1303,0,0
-119,-279,0,0,0,0,0,0,0,0,0,-1,1105,1303,0,0
-112,-279,0,0,0,0,0,0,0,0,0,-1,1112,1303,0,0
-105,-279,0,0,0,0,0,0,0,0,0,-1,1119,1303,0,0
-98,-279,0,0,0,0,0,0,0,0,0,-1,1126,1303,0,0
-91,-279,0,0,0,0,0,0,0,0,0,-1,1133,1303,0,0
-84,-279,0,0,0,0,0,0,0,0,0,-1,1140,1303,0,0
-77,-279,0,0,0,0,0,0,0,0,0,-1,1147,1303,0,0
-70,-279,0,0,0,0,0,0,0,0,0,-1,1154,1303,0,0
-63,-279,0,0,0,0,0,0,0,0,0,-1,1161,1303,0,0
-56,-279,0,0,0,0,0,0,0,0,0,-1,1168,1303,0,0
-49,-279,0,0,0,0,0,0,0,0,0,-1,1175,1303,0,0
-42,-279,0,0,0,0,0,0,0,0,0,-1,1182,1303,0,0
-35,-279,0,0,0,0,0,0,0,0,0,-1,1189,1303,0,0
-28,-279,0,0,0,0,0,0,0,0,0,-1,1196,1303,0,0
-21,-279,0,0,0,0,0,0,0,0,0,-1,1203,1303,0,0
-14,-279,0,0,0,0,0,0,0,0,0,-1,1210,1303,0,0
-7,-279,0,0,0,0,0,0,0,0,0,-1,1217,1303,0,0
0,-279,0,0,0,0,0,0,0,0,0,-1,1224,1303,0,0
7,-279,0,0,0,0,0,0,0,0,0,-1,1231,1303,0,0
14,-279,0,0,0,0,0,0,0,0,0,-1,1238,1303,0,0
21,-279,0,0,0,0,0,0,0,0,0,-1,1245,1303,0,0
28,-279,0,0,0,0,0,0,0,0,0,-1,1252,1303,0,0
35,-279,0,0,0,0,0,0,0,0,0,-1,1259,1303,0,0
42,-279,0,0,0,0,0,0,0,0,0,-1,1266,1303,0,0
49,-279,0,0,0,0,0,0,0,0,0,-1,1273,1303,0,0
56,-279,0,0,0,0,0,0,0,0,0,-1,1280,1303,0,0
63,-279,0,0,0,0,0,0,0,0,0,-1,1287,1303,0,0
70,-279,0,0,0,0,0,0,0,0,0,-1,1294,1303,0,0
77,-279,0,0,0,0,0,0,0,0,0,-1,1301,1303,0,0
84,-279,0,0,0,0,0,0,0,0,0,-1,1308,1303,0,0
91,-279,0,0,0,0,0,0,0,0,0,-1,1315,1303,0,0
98,-279,0,0,0,0,0,0,0,0,0,-1,1322,1303,0,0
105,-279,0,0,0,0,0,0,0,0,0,-1,1329,1303,0,0
112,-279,0,0,0,0,0,0,0,0,0,-1,1336,1303,0,0
119,-279,0,0,0,0,0,0,0,0,0,-1,1343,1303,0,0
126,-279,0,0,0,0,0,0,0,0,0,-1,1350,1303,0,0
133,-279,0,0,0,0,0,0,0,0,0,-1,1357,1303,0,0
140,-279,0,0,0,0,0,0,0,0,0,-1,1364,1303,0,0
147,-279,0,0,0,0,0,0,0,0,0,-1,1371,1303,0,0
154,-279,0,0,0,0,0,0,0,0,0,-1,1378,1303,0,0
161,-279,0,0,0,0,0,0,0,0,0,-1,1385,1303,0,0
168,-279,0,0,0,0,0,0,0,0,0,-1,1392,1303,0,0
175,-279,0,0,0,0,0,0,0,0,0,-1,1399,1303,0,0
182,-279,0,0,0,0,0,0,0,0,0,-1,1406,1303,0,0
189,-279,0,0,0,0,0,0,0,0,0,-1,1413,1303,0,0
196,-279,0,0,0,0,0,0,0,0,0,-1,1420,1303,0,0
203,-279,0,0,0,0,0,0,0,0,0,-1,1427,1303,0,0
210,-279,0,0,0,0,0,0,0,0,0,-1,1434,1303,0,0
217,-279,0,0,0,0,0,0,0,0,0,-1,1441,1303,0,0
224,-279,0,0,0,0,0,0,0,0,0,-1,1448,1303,0,0
231,-279,0,0,0,0,0,0,0,0,0,-1,1455,1303,0,0
238,-279,0,0,0,0,0,0,0,0,0,-1,1462,1303,0,0
245,-279,0,0,0,0,0,0,0,0,0,-1,1469,1303,0,0
252,-279,0,0,0,0,0,0,0,0,0,-1,1476,1303,0,0
259,-279,0,0,0,0,0,0,0,0,0,-1,1483,1303,0,0
266,-279,0,0,0,0,0,0,0,0,0,-1,1490,1303,0,0
273,-279,0,0,0,0,0,0,0,0,0,-1,1497,1303,0,0
280,-279,0,0,0,0,0,0,0,0,0,-1,1504,1303,0,0
287,-279,0,0,0,0,0,0,0,0,0,-1,1511,1303,0,0
294,-279,0,0,0,0,0,0,0,0,0,-1,1518,1303,0,0
301,-279,0,0,0,0,0,0,0,0,0,-1,1525,1303,0,0
308,-279,0,0,0,0,0,0,0,0,0,-1,1532,1303,0,0
315,-279,0,0,0,0,0,0,0,0,0,-1,1539,1303,0,0
322,-279,0,0,0,0,0,0,0,0,0,-1,1546,1303,0,0
329,-279,0,0,0,0,0,0,0,0,0,-1,1553,1303,0,0
336,-279,0,0,0,0,0,0,0,0,0,-1,1560,1303,0,0
343,-279,0,0,0,0,0,0,0,0,0,-1,1567,1303,0,0
350,-279,0,0,0,0,0,0,0,0,0,-1,1574,1303,0,0
357,-279,0,0,0,0,0,0,0,0,0,-1,1581,1303,0,0
364,-279,0,0,0,0,0,0,0,0,0,-1,1588,1303,0,0
371,-279,0,0,0,0,0,0,0,0,0,-1,1595,1303,0,0
378,-279,0,0,0,0,0,0,0,0,0,-1,1602,1303,0,0
385,-279,0,0,0,0,0,0,0,0,0,-1,1609,1303,0,0
392,-279,0,0,0,0,0,0,0,0,0,-1,1616,1303,0,0
399,-279,0,0,0,0,0,0,0,0,0,-1,1623,1303,0,0
406,-279,0,0,0,0,0,0,0,0,0,-1,1630,1303,0,0
413,-279,0,0,0,0,0,0,0,0,0,-1,1637,1303,0,0
420,-279,0,0,0,0,0,0,0,0,0,-1,1644,1303,0,0
427,-279,0,0,0,0,0,0,0,0,0,-1,1651,1303,0,0
434,-279,0,0,0,0,0,0,0,0,0,-1,1658,1303,0,0
441,-279,0,0,0,0,0,0,0,0,0,-1,1665,1303,0,0
448,-279,0,0,0,0,0,0,0,0,0,-1,1672,1303,0,0
455,-279,0,0,0,0,0,0,0,0,0,-1,1679,1303,0,0
462,-279,0,0,0,0,0,0,0,0,0,-1,1686,1303,0,0
469,-279,0,0,0,0,0,0,0,0,0,-1,1693,1303,0,0
476,-279,0,0,0,0,0,0,0,0,0,-1,1700,1303,0,0
483,-279,0,0,0,0,0,0,0,0,0,-1,1707,1303,0,0
490,-279,0,0,0,0,0,0,0,0,0,-1,1714,1303,0,0
497,-279,0,0,0,0,0,0,0,0,0,-1,1721,1303,0,0
504,-279,0,0,0,0,0,0,0,0,0,-1,1728,1303,0,0
511,-279,0,0,0,0,0,0,0,0,0,-1,1735,1303,0,0
518,-279,0,0,0,0,0,0,0,0,0,-1,1742,1303,0,0
525,-279,0,0,0,0,0,0,0,0,0,-1,1749,1303,0,0
532,-279,0,0,0,0,0,0,0,0,0,-1,1756,1303,0,0
539,-279,0,0,0,0,0,0,0,0,0,-1,1763,1303,0,0
546,-279,0,0,0,0,0,0,0,0,0,-1,1770,1303,0,0
553,-279,0,0,0,0,0,0,0,0,0,-1,1777,1303,0,0
560,-279,0,0,0,0,0,0,0,0,0,-1,1784,1303,0,0
567,-279,0,0,0,0,0,0,0,0,0,-1,1791,1303,0,0
574,-279,0,0,0,0,0,0,0,0,0,-1,1798,1303,0,0
581,-279,0,0,0,0,0,0,0,0,0,-1,1805,1303,0,0
588,-279,0,0,0,0,0,0,0,0,0,-1,1812,1303,0,0
595,-279,0,0,0,0,0,0,0,0,0,-1,1819,1303,0,0
602,-279,61.0446,2.61267,0,0,0,0,0,0,0,-1,1826,1303,61.0446,-2.61273
609,-279,61.3247,2.85474,0,0,0,0,0,0,0,-1,1833,1303,61.3247,-2.8547
616,-279,61.5978,2.91504,0.0108605,-0.00631527,-0.00576846,0.012618,-0.00807276,-0.295738,0.0120415,0.0458782,1840,1303,61.5977,-2.91498
623,-279,61.8094,3.16675,0.00822316,-0.00420654,-0.00514255,0.0100749,-0.0060583,-0.345632,0.00941025,0.0468601,1847,1303,61.8095,-3.16671
630,-279,61.8872,3.32849,0,0,0,0,0,0,0,-1,1854,1303,61.8872,-3.32854
637,-279,60.8157,3.09143,0,0,0,0,0,0,0,-1,1861,1303,60.8157,-3.0914
644,-279,33.5021,3.40234,0,0,0,0,0,0,0,-1,1868,1303,33.5021,-3.40237
651,-279,29.8456,2.3562,0,0,0,0,0,0,0,-1,1875,1303,29.8455,-2.35615
658,-279,21.5076,7.65649,0,0,0,0,0,0,0,-1,1882,1303,21.5076,-7.65648
665,-279,18.9794,6.09607,0,0,0,0,0,0,0,-1,1889,1303,18.9793,-6.09601
672,-279,23.5206,8.32507,0,0,0,0,0,0,0,-1,1896,1303,23.5206,-8.32512
679,-279,42.6395,13.0979,0,0,0,0,0,0,0,-1,1903,1303,42.6395,-13.0979
686,-279,42.708,12.4985,0.000304395,0.00324779,-0.0022677,0.00447949,-0.000927305,-1.07323,0.00333864,0.0303755,1910,1303,42.708,-12.4986
693,-279,42.7296,11.8849,0.000702984,0.00176521,-0.00112585,0.00247893,-1.0745e-05,-1.00579,0.00165622,0.0180584,1917,1303,42.7296,-11.8849
700,-279,42.7285,11.2938,0.000606052,0.000445202,-3.32974e-05,0.000612673,0.000438581,-0.196266,0.000364548,0.012878,1924,1303,42.7285,-11.2938
707,-279,42.692,10.6688,-2.91181e-05,-0.000636711,0.000907066,0.000623673,-0.0012895,0.623808,0.00112665,0.00978788,1931,1303,42.692,-10.6688
714,-279,42.6487,10.0739,-0.000941092,-0.000974732,0.00180095,0.000843117,-0.00275894,0.780729,0.00217549,0.0107828,1938,1303,42.6487,-10.0738
721,-279,42.6504,9.48181,-0.00199431,-0.00141182,0.00280924,0.00112124,-0.00452736,0.837051,0.00345321,0.0150163,1945,1303,42.6504,-9.48178
728,-279,42.6426,8.89954,-0.00319883,-0.00195493,0.00396903,0.00144058,-0.00659434,0.863117,0.00494684,0.0169054,1952,1303,42.6426,-8.89948
735,-279,42.6091,8.36548,-0.00457923,-0.00262651,0.00531635,0.0018024,-0.00900813,0.876212,0.00668768,0.0159053,1959,1303,42.6092,-8.36547
742,-279,42.5406,7.83691,-0.00618998,-0.00351128,0.00699204,0.00226854,-0.0119698,0.880028,0.00883368,0.0291913,1966,1303,42.5407,-7.83695
749,-279,42.429,7.47998,0,0,0,0,0,0,0,-1,1973,1303,42.4289,-7.48002
756,-279,23.2091,4.43433,0,0,0,0,0,0,0,-1,1980,1303,23.2092,-4.43432
763,-279,27.1613,3.46265,0,0,0,0,0,0,0,-1,1987,1303,27.1613,-3.4627
770,-279,21.5828,3.54199,0,0,0,0,0,0,0,-1,1994,1303,21.5827,-3.54198
777,-279,32.5369,6.99609,0,0,0,0,0,0,0,-1,2001,1303,32.5369,-6.99608
784,-279,0,0,0,0,0,0,0,0,0,-1,2008,1303,0,0
791,-279,0,0,0,0,0,0,0,0,0,-1,2015,1303,0,0
798,-279,0,0,0,0,0,0,0,0,0,-1,2022,1303,0,0
805,-279,0,0,0,0,0,0,0,0,0,-1,2029,1303,0,0
812,-279,0,0,0,0,0,0,0,0,0,-1,2036,1303,0,0
-700,-286,0,0,0,0,0,0,0,0,0,-1,524,1310,0,0
-693,-286,0,0,0,0,0,0,0,0,0,-1,531,1310,0,0
-686,-286,0,0,0,0,0,0,0,0,0,-1,538,1310,0,0
-679,-286,0,0,0,0,0,0,0,0,0,-1,545,1310,0,0
-672,-286,0,0,0,0,0,0,0,0,0,-1,552,1310,0,0
-665,-286,0,0,0,0,0,0,0,0,0,-1,559,1310,0,0
-658,-286,-49.4084,5.46875,0,0,0,0,0,0,0,-1,566,1310,-49.4084,-5.4687
-651,-286,-50.4988,5.78333,-0.129941,-0.0386224,0.0288333,-0.0302805,-0.138283,1.28917,0.0839362,0.0450586,573,1310,-50.4988,-5.78329
-644,-286,-51.389,6.02417,-0.111983,-0.032399,0.0268043,-0.0242131,-0.120169,1.2744,0.0733852,0.046271,580,1310,-51.389,-6.02411
-637,-286,-52.3304,6.17957,0,0,0,0,0,0,0,-1,587,1310,-52.3305,-6.17958
-630,-286,-53.0779,1.25867,0,0,0,0,0,0,0,-1,594,1310,-53.0779,-1.25867
-623,-286,-20.1415,-1.72998,0,0,0,0,0,0,0,-1,601,1310,-20.1415,1.72995
-616,-286,-22.0634,2.37744,0,0,0,0,0,0,0,-1,608,1310,-22.0633,-2.37746
-609,-286,-26.2118,5.22058,0,0,0,0,0,0,0,-1,615,1310,-26.2118,-5.22057
-602,-286,-26.09,6.07886,-0.0200168,-0.0026225,0.00871547,0.00099294,-0.0236322,1.17757,0.016096,0.0220137,622,1310,-26.09,-6.07891
-595,-286,-26.1071,6.82568,-0.00874796,0.000632456,0.00512383,0.00288859,-0.0110041,1.15602,0.00846484,0.0120168,629,1310,-26.1071,-6.82563
-588,-286,-26.1064,7.47522,-0.000532204,0.00259142,0.00198173,0.0035528,-0.00149358,1.11912,0.0029933,0.0125943,636,1310,-26.1064,-7.47525
-581,-286,-26.1013,8.10144,0.000988712,0.00142079,0.000844072,0.00207603,0.000333471,0.910684,0.00128734,0.0149879,643,1310,-26.1012,-8.10142
-574,-286,-26.1675,8.73718,0.00169563,0.000585245,0.000882996,0.00218347,9.74017e-05,0.50475,0.00142429,0.0154659,650,1310,-26.1675,-8.73715
-567,-286,-26.2222,9.38721,0.00253948,-0.000124517,0.00101745,0.00288362,-0.000468652,0.326153,0.00209617,0.0152694,657,1310,-26.2222,-9.38719
-560,-286,-26.2285,10.0667,0.00357666,-0.000747692,0.00124167,0.00390782,-0.00107886,0.260643,0.00302956,0.0148977,664,1310,-26.2284,-10.0666
-553,-286,-26.2303,10.7277,0.00464993,-0.00139301,0.00164344,0.00506796,-0.00181104,0.249082,0.0041173,0.0113659,671,1310,-26.2303,-10.7277
-546,-286,-26.2398,11.4175,0.00589228,-0.00175238,0.0022698,0.00651542,-0.00237552,0.267934,0.00531544,0.0234144,678,1310,-26.2398,-11.4175
-539,-286,-26.3812,12.1793,0,0,0,0,0,0,0,-1,685,1310,-26.3812,-12.1793
-532,-286,-21.6771,10.4924,0,0,0,0,0,0,0,-1,692,1310,-21.6771,-10.4924
-525,-286,-11.4528,-1.11768,0,0,0,0,0,0,0,-1,699,1310,-11.4528,1.11769
-518,-286,-11.0701,1.37329,0,0,0,0,0,0,0,-1,706,1310,-11.0701,-1.37332
-511,-286,-17.7545,-0.0791016,0,0,0,0,0,0,0,-1,713,1310,-17.7544,0.0791606
-504,-286,-18.0455,1.29602,0,0,0,0,0,0,0,-1,720,1310,-18.0455,-1.29601
-497,-286,-18.3367,2.67114,0,0,0,0,0,0,0,-1,727,1310,-18.3366,-2.67118
-490,-286,-19.5795,2.47266,0,0,0,0,0,0,0,-1,734,1310,-19.5795,-2.4727
-483,-286,-19.7277,2.74744,0,0,0,0,0,0,0,-1,741,1310,-19.7277,-2.74747
-476,-286,-20.0391,3.06177,0,0,0,0,0,0,0,-1,748,1310,-20.0391,-3.06178
-469,-286,0,0,0,0,0,0,0,0,0,-1,755,1310,0,0
-462,-286,0,0,0,0,0,0,0,0,0,-1,762,1310,0,0
-455,-286,0,0,0,0,0,0,0,0,0,-1,769,1310,0,0
-448,-286,0,0,0,0,0,0,0,0,0,-1,776,1310,0,0
-441,-286,0,0,0,0,0,0,0,0,0,-1,783,1310,0,0
-434,-286,0,0,0,0,0,0,0,0,0,-1,790,1310,0,0
-427,-286,0,0,0,0,0,0,0,0,0,-1,797,1310,0,0
-420,-286,0,0,0,0,0,0,0,0,0,-1,804,1310,0,0
-413,-286,0,0,0,0,0,0,0,0,0,-1,811,1310,0,0
-406,-286,0,0,0,0,0,0,0,0,0,-1,818,1310,0,0
-399,-286,0,0,0,0,0,0,0,0,0,-1,825,1310,0,0
-392,-286,0,0,0,0,0,0,0,0,0,-1,832,1310,0,0
-385,-286,0,0,0,0,0,0,0,0,0,-1,839,1310,0,0
-378,-286,0,0,0,0,0,0,0,0,0,-1,846,1310,0,0
-371,-286,0,0,0,0,0,0,0,0,0,-1,853,1310,0,0
-364,-286,0,0,0,0,0,0,0,0,0,-1,860,1310,0,0
-357,-286,0,0,0,0,0,0,0,0,0,-1,867,1310,0,0
-350,-286,0,0,0,0,0,0,0,0,0,-1,874,1310,0,0
-343,-286,0,0,0,0,0,0,0,0,0,-1,881,1310,0,0
-336,-286,0,0,0,0,0,0,0,0,0,-1,888,1310,0,0
-329,-286,0,0,0,0,0,0,0,0,0,-1,895,1310,0,0
-322,-286,0,0,0,0,0,0,0,0,0,-1,902,1310,0,0
-315,-286,0,0,0,0,0,0,0,0,0,-1,909,1310,0,0
-308,-286,0,0,0,0,0,0,0,0,0,-1,916,1310,0,0
-301,-286,0,0,0,0,0,0,0,0,0,-1,923,1310,0,0
-294,-286,0,0,0,0,0,0,0,0,0,-1,930,1310,0,0
-287,-286,0,0,0,0,0,0,0,0,0,-1,937,1310,0,0
-280,-286,0,0,0,0,0,0,0,0,0,-1,944,1310,0,0
-273,-286,0,0,0,0,0,0,0,0,0,-1,951,1310,0,0
-266,-286,0,0,0,0,0,0,0,0,0,-1,958,1310,0,0
-259,-286,0,0,0,0,0,0,0,0,0,-1,965,1310,0,0
-252,-286,0,0,0,0,0,0,0,0,0,-1,972,1310,0,0
-245,-286,0,0,0,0,0,0,0,0,0,-1,979,1310,0,0
-238,-286,0,0,0,0,0,0,0,0,0,-1,986,1310,0,0
-231,-286,0,0,0,0,0,0,0,0,0,-1,993,1310,0,0
-224,-286,0,0,0,0,0,0,0,0,0,-1,1000,1310,0,0
-217,-286,0,0,0,0,0,0,0,0,0,-1,1007,1310,0,0
-210,-286,0,0,0,0,0,0,0,0,0,-1,1014,1310,0,0
-203,-286,0,0,0,0,0,0,0,0,0,-1,1021,1310,0,0
-196,-286,0,0,0,0,0,0,0,0,0,-1,1028,1310,0,0
-189,-286,0,0,0,0,0,0,0,0,0,-1,1035,1310,0,0
-182,-286,0,0,0,0,0,0,0,0,0,-1,1042,1310,0,0
-175,-286,0,0,0,0,0,0,0,0,0,-1,1049,1310,0,0
-168,-286,0,0,0,0,0,0,0,0,0,-1,1056,1310,0,0
-161,-286,0,0,0,0,0,0,0,0,0,-1,1063,1310,0,0
-154,-286,0,0,0,0,0,0,0,0,0,-1,1070,1310,0,0
-147,-286,0,0,0,0,0,0,0,0,0,-1,1077,1310,0,0
-140,-286,0,0,0,0,0,0,0,0,0,-1,1084,1310,0,0
-133,-286,0,0,0,0,0,0,0,0,0,-1,1091,1310,0,0
-126,-286,0,0,0,0,0,0,0,0,0,-1,1098,1310,0,0
-119,-286,0,0,0,0,0,0,0,0,0,-1,1105,1310,0,0
-112,-286,0,0,0,0,0,0,0,0,0,-1,1112,1310,0,0
-105,-286,0,0,0,0,0,0,0,0,0,-1,1119,1310,0,0
-98,-286,0,0,0,0,0,0,0,0,0,-1,1126,1310,0,0
-91,-286,0,0,0,0,0,0,0,0,0,-1,1133,1310,0,0
-84,-286,0,0,0,0,0,0,0,0,0,-1,1140,1310,0,0
-77,-286,0,0,0,0,0,0,0,0,0,-1,1147,1310,0,0
-70,-286,0,0,0,0,0,0,0,0,0,-1,1154,1310,0,0
-63,-286,0,0,0,0,0,0,0,0,0,-1,1161,1310,0,0
-56,-286,0,0,0,0,0,0,0,0,0,-1,1168,1310,0,0
-49,-286,0,0,0,0,0,0,0,0,0,-1,1175,1310,0,0
-42,-286,0,0,0,0,0,0,0,0,0,-1,1182,1310,0,0
-35,-286,0,0,0,0,0,0,0,0,0,-1,1189,1310,0,0
-28,-286,0,0,0,0,0,0,0,0,0,-1,1196,1310,0,0
-21,-286,0,0,0,0,0,0,0,0,0,-1,1203,1310,0,0
-14,-286,0,0,0,0,0,0,0,0,0,-1,1210,1310,0,0
-7,-286,0,0,0,0,0,0,0,0,0,-1,1217,1310,0,0
0,-286,0,0,0,0,0,0,0,0,0,-1,1224,1310,0,0
7,-286,0,0,0,0,0,0,0,0,0,-1,1231,1310,0,0
14,-286,0,0,0,0,0,0,0,0,0,-1,1238,1310,0,0
21,-286,0,0,0,0,0,0,0,0,0,-1,1245,1310,0,0
28,-286,0,0,0,0,0,0,0,0,0,-1,1252,1310,0,0
35,-286,0,0,0,0,0,0,0,0,0,-1,1259,1310,0,0
42,-286,0,0,0,0,0,0,0,0,0,-1,1266,1310,0,0
49,-286,0,0,0,0,0,0,0,0,0,-1,1273,1310,0,0
56,-286,0,0,0,0,0,0,0,0,0,-1,1280,1310,0,0
63,-286,0,0,0,0,0,0,0,0,0,-1,1287,1310,0,0
70,-286,0,0,0,0,0,0,0,0,0,-1,1294,1310,0,0
77,-286,0,0,0,0,0,0,0,0,0,-1,1301,1310,0,0
84,-286,0,0,0,0,0,0,0,0,0,-1,1308,1310,0,0
91,-286,0,0,0,0,0,0,0,0,0,-1,1315,1310,0,0
98,-286,0,0,0,0,0,0,0,0,0,-1,1322,1310,0,0
105,-286,0,0,0,0,0,0,0,0,0,-1,1329,1310,0,0
112,-286,0,0,0,0,0,0,0,0,0,-1,1336,1310,0,0
119,-286,0,0,0,0,0,0,0,0,0,-1,1343,1310,0,0
126,-286,0,0,0,0,0,0,0,0,0,-1,1350,1310,0,0
133,-286,0,0,0,0,0,0,0,0,0,-1,1357,1310,0,0
140,-286,0,0,0,0,0,0,0,0,0,-1,1364,1310,0,0
147,-286,0,0,0,0,0,0,0,0,0,-1,1371,1310,0,0
154,-286,0,0,0,0,0,0,0,0,0,-1,1378,1310,0,0
161,-286,0,0,0,0,0,0,0,0,0,-1,1385,1310,0,0
168,-286,0,0,0,0,0,0,0,0,0,-1,1392,1310,0,0
175,-286,0,0,0,0,0,0,0,0,0,-1,1399,1310,0,0
182,-286,0,0,0,0,0,0,0,0,0,-1,1406,1310,0,0
189,-286,0,0,0,0,0,0,0,0,0,-1,1413,1310,0,0
196,-286,0,0,0,0,0,0,0,0,0,-1,1420,1310,0,0
203,-286,0,0,0,0,0,0,0,0,0,-1,1427,1310,0,0
210,-286,0,0,0,0,0,0,0,0,0,-1,1434,1310,0,0
217,-286,0,0,0,0,0,0,0,0,0,-1,1441,1310,0,0
224,-286,0,0,0,0,0,0,0,0,0,-1,1448,1310,0,0
231,-286,0,0,0,0,0,0,0,0,0,-1,1455,1310,0,0
238,-286,0,0,0,0,0,0,0,0,0,-1,1462,1310,0,0
245,-286,0,0,0,0,0,0,0,0,0,-1,1469,1310,0,0
252,-286,0,0,0,0,0,0,0,0,0,-1,1476,1310,0,0
259,-286,0,0,0,0,0,0,0,0,0,-1,1483,1310,0,0
266,-286,0,0,0,0,0,0,0,0,0,-1,1490,1310,0,0
273,-286,0,0,0,0,0,0,0,0,0,-1,1497,1310,0,0
280,-286,0,0,0,0,0,0,0,0,0,-1,1504,1310,0,0
287,-286,0,0,0,0,0,0,0,0,0,-1,1511,1310,0,0
294,-286,0,0,0,0,0,0,0,0,0,-1,1518,1310,0,0
301,-286,0,0,0,0,0,0,0,0,0,-1,1525,1310,0,0
308,-286,0,0,0,0,0,0,0,0,0,-1,1532,1310,0,0
315,-286,0,0,0,0,0,0,0,0,0,-1,1539,1310,0,0
322,-286,0,0,0,0,0,0,0,0,0,-1,1546,1310,0,0
329,-286,0,0,0,0,0,0,0,0,0,-1,1553,1310,0,0
336,-286,0,0,0,0,0,0,0,0,0,-1,1560,1310,0,0
343,-286,0,0,0,0,0,0,0,0,0,-1,1567,1310,0,0
350,-286,0,0,0,0,0,0,0,0,0,-1,1574,1310,0,0
357,-286,0,0,0,0,0,0,0,0,0,-1,1581,1310,0,0
364,-286,0,0,0,0,0,0,0,0,0,-1,1588,1310,0,0
371,-286,0,0,0,0,0,0,0,0,0,-1,1595,1310,0,0
378,-286,0,0,0,0,0,0,0,0,0,-1,1602,1310,0,0
385,-286,0,0,0,0,0,0,0,0,0,-1,1609,1310,0,0
392,-286,0,0,0,0,0,0,0,0,0,-1,1616,1310,0,0
399,-286,0,0,0,0,0,0,0,0,0,-1,1623,1310,0,0
406,-286,0,0,0,0,0,0,0,0,0,-1,1630,1310,0,0
413,-286,0,0,0,0,0,0,0,0,0,-1,1637,1310,0,0
420,-286,0,0,0,0,0,0,0,0,0,-1,1644,1310,0,0
427,-286,0,0,0,0,0,0,0,0,0,-1,1651,1310,0,0
434,-286,0,0,0,0,0,0,0,0,0,-1,1658,1310,0,0
441,-286,0,0,0,0,0,0,0,0,0,-1,1665,1310,0,0
448,-286,0,0,0,0,0,0,0,0,0,-1,1672,1310,0,0
455,-286,0,0,0,0,0,0,0,0,0,-1,1679,1310,0,0
462,-286,0,0,0,0,0,0,0,0,0,-1,1686,1310,0,0
469,-286,0,0,0,0,0,0,0,0,0,-1,1693,1310,0,0
476,-286,0,0,0,0,0,0,0,0,0,-1,1700,1310,0,0
483,-286,0,0,0,0,0,0,0,0,0,-1,1707,1310,0,0
490,-286,0,0,0,0,0,0,0,0,0,-1,1714,1310,0,0
497,-286,0,0,0,0,0,0,0,0,0,-1,1721,1310,0,0
504,-286,0,0,0,0,0,0,0,0,0,-1,1728,1310,0,0
511,-286,0,0,0,0,0,0,0,0,0,-1,1735,1310,0,0
518,-286,0,0,0,0,0,0,0,0,0,-1,1742,1310,0,0
525,-286,0,0,0,0,0,0,0,0,0,-1,1749,1310,0,0
532,-286,0,0,0,0,0,0,0,0,0,-1,1756,1310,0,0
539,-286,0,0,0,0,0,0,0,0,0,-1,1763,1310,0,0
546,-286,0,0,0,0,0,0,0,0,0,-1,1770,1310,0,0
553,-286,0,0,0,0,0,0,0,0,0,-1,1777,1310,0,0
560,-286,0,0,0,0,0,0,0,0,0,-1,1784,1310,0,0
567,-286,0,0,0,0,0,0,0,0,0,-1,1791,1310,0,0
574,-286,0,0,0,0,0,0,0,0,0,-1,1798,1310,0,0
581,-286,0,0,0,0,0,0,0,0,0,-1,1805,1310,0,0
588,-286,0,0,0,0,0,0,0,0,0,-1,1812,1310,0,0
595,-286,58.9567,2.65564,0,0,0,0,0,0,0,-1,1819,1310,58.9567,-2.65569
602,-286,61.0214,2.40869,0,0,0,0,0,0,0,-1,1826,1310,61.0213,-2.40869
609,-286,60.3877,1.94141,0,0,0,0,0,0,0,-1,1833,1310,60.3877,-1.94137
616,-286,61.7887,3.16052,0,0,0,0,0,0,0,-1,1840,1310,61.7887,-3.16047
623,-286,62.0304,3.26514,0,0,0,0,0,0,0,-1,1847,1310,62.0304,-3.2651
630,-286,62.1256,3.39111,0,0,0,0,0,0,0,-1,1854,1310,62.1256,-3.39113
637,-286,47.8409,3.69824,0,0,0,0,0,0,0,-1,1861,1310,47.841,-3.69823
644,-286,25.6433,1.33862,0,0,0,0,0,0,0,-1,1868,1310,25.6433,-1.33858
651,-286,25.2507,1.88245,0,0,0,0,0,0,0,-1,1875,1310,25.2508,-1.88245
658,-286,25.9475,9.43689,0,0,0,0,0,0,0,-1,1882,1310,25.9475,-9.43693
665,-286,24.9838,8.03101,0,0,0,0,0,0,0,-1,1889,1310,24.9837,-8.03104
672,-286,40.2175,12.9626,0,0,0,0,0,0,0,-1,1896,1310,40.2175,-12.9627
679,-286,42.147,13.115,0,0,0,0,0,0,0,-1,1903,1310,42.1469,-13.1149
686,-286,42.134,12.5073,0.000819455,0.00227371,-0.00200672,0.00368098,-0.000587813,-0.959214,0.00267157,0.0232179,1910,1310,42.1341,-12.5073
693,-286,42.1272,11.9061,0.000999847,0.00108518,-0.000898026,0.00194155,0.000143476,-0.809137,0.00124929,0.0177051,1917,1310,42.1272,-11.9061
700,-286,42.1306,11.309,0.000714239,0.00010776,0.000140006,0.000744999,7.69998e-05,0.21627,0.000473093,0.0121026,1924,1310,42.1307,-11.3089
707,-286,42.0825,10.7219,7.90638e-06,-0.000690592,0.00106226,0.000776861,-0.00145955,0.626575,0.00131109,0.00900476,1931,1310,42.0826,-10.7219
714,-286,42.05,10.1232,-0.000905815,-0.00111435,0.00197555,0.000968213,-0.00298838,0.759033,0.00238152,0.00964287,1938,1310,42.0501,-10.1231
721,-286,42.0505,9.52942,-0.00198166,-0.00165464,0.00301592,0.0012022,-0.0048385,0.81248,0.00369223,0.0130826,1945,1310,42.0505,-9.5294
728,-286,42.0287,8.94409,-0.00324673,-0.00232937,0.00422291,0.0014597,-0.0070358,0.839494,0.00524525,0.0161997,1952,1310,42.0287,-8.94413
735,-286,42.026,8.34961,-0.00474734,-0.0031861,0.00564741,0.00173439,-0.00966783,0.854076,0.00709437,0.0190346,1959,1310,42.026,-8.34966
742,-286,42.0277,7.86951,-0.00659255,-0.00435446,0.0074644,0.00207431,-0.0130213,0.859803,0.00944853,0.0409961,1966,1310,42.0278,-7.86953
749,-286,42.1456,7.36768,0,0,0,0,0,0,0,-1,1973,1310,42.1457,-7.36763
756,-286,24.8226,4.43481,0,0,0,0,0,0,0,-1,1980,1310,24.8227,-4.43479
763,-286,20.6671,3.99683,0,0,0,0,0,0,0,-1,1987,1310,20.6671,-3.99683
770,-286,23.9147,4.45679,0,0,0,0,0,0,0,-1,1994,1310,23.9146,-4.45675
777,-286,0,0,0,0,0,0,0,0,0,-1,2001,1310,0,0
784,-286,0,0,0,0,0,0,0,0,0,-1,2008,1310,0,0
791,-286,0,0,0,0,0,0,0,0,0,-1,2015,1310,0,0
798,-286,0,0,0,0,0,0,0,0,0,-1,2022,1310,0,0
805,-286,0,0,0,0,0,0,0,0,0,-1,2029,1310,0,0
812,-286,0,0,0,0,0,0,0,0,0,-1,2036,1310,0,0
-700,-293,0,0,0,0,0,0,0,0,0,-1,524,1317,0,0
-693,-293,0,0,0,0,0,0,0,0,0,-1,531,1317,0,0
-686,-293,0,0,0,0,0,0,0,0,0,-1,538,1317,0,0
-679,-293,0,0,0,0,0,0,0,0,0,-1,545,1317,0,0
-672,-293,0,0,0,0,0,0,0,0,0,-1,552,1317,0,0
-665,-293,0,0,0,0,0,0,0,0,0,-1,559,1317,0,0
-658,-293,0,0,0,0,0,0,0,0,0,-1,566,1317,0,0
-651,-293,-50.6594,6.0946,-0.138198,-0.0409999,0.0344378,-0.0300353,-0.149162,1.26255,0.0910955,0.0466594,573,1317,-50.6594,-6.0946
-644,-293,-51.5288,6.49414,-0.11937,-0.0352755,0.0309753,-0.0250978,-0.129548,1.25334,0.0793336,0.048243,580,1317,-51.5288,-6.49408
-637,-293,-52.6402,5.65686,0,0,0,0,0,0,0,-1,587,1317,-52.6402,-5.65684
-630,-293,-24.5684,-3.7887,0,0,0,0,0,0,0,-1,594,1317,-24.5684,3.78869
-623,-293,-15.6058,0.229614,0,0,0,0,0,0,0,-1,601,1317,-15.6058,-0.229666
-616,-293,-15.5056,2.17737,0,0,0,0,0,0,0,-1,608,1317,-15.5055,-2.17742
-609,-293,-25.3796,5.07373,0,0,0,0,0,0,0,-1,615,1317,-25.3796,-5.07369
-602,-293,-25.3081,5.995,-0.0219466,-0.00353581,0.00946362,0.000461045,-0.0259435,1.17118,0.0174514,0.0498791,622,1317,-25.3081,-5.99501
-595,-293,-25.4875,6.84082,-0.00940526,0.00038958,0.0055762,0.00291367,-0.0119293,1.14574,0.00908129,0.0200045,629,1317,-25.4875,-6.84086
-588,-293,-25.4617,7.49756,-0.000306671,0.00290119,0.00217365,0.00399862,-0.0014041,1.10325,0.00323693,0.0165673,636,1317,-25.4617,-7.49752
-581,-293,-25.4544,8.14124,0.00107595,0.00176218,0.000973997,0.00245173,0.000386396,0.954748,0.00152212,0.0190074,643,1317,-25.4544,-8.1412
-574,-293,-25.498,8.78723,0.00166875,0.000986046,0.000946212,0.0023333,0.000321496,0.612285,0.00146021,0.0175755,650,1317,-25.498,-8.78724
-567,-293,-25.5768,9.44849,0.00241018,0.000360935,0.00103729,0.00284357,-7.24593e-05,0.39577,0.00192032,0.0164867,657,1317,-25.5768,-9.44852
-560,-293,-25.5991,10.1161,0.00334309,-0.000208828,0.00122571,0.003725,-0.000590736,0.302048,0.00270186,0.0168106,664,1317,-25.5991,-10.1161
-553,-293,-25.585,10.7526,0.00449779,-0.000657287,0.00154349,0.00492459,-0.00108409,0.269777,0.00369778,0.0120995,671,1317,-25.585,-10.7526
-546,-293,-25.5995,11.4283,0.00587341,-0.000885103,0.00206674,0.00645531,-0.00146701,0.274451,0.00486681,0.0150213,678,1317,-25.5995,-11.4283
-539,-293,-25.5065,12.101,0.00786547,-0.0011367,0.00293853,0.00873976,-0.002011,0.289187,0.00659977,0.0461226,685,1317,-25.5066,-12.1009
-532,-293,-25.3329,12.7076,0,0,0,0,0,0,0,-1,692,1317,-25.3329,-12.7076
-525,-293,-8.20642,3.62256,0,0,0,0,0,0,0,-1,699,1317,-8.20639,-3.6226
-518,-293,-10.1053,0.314209,0,0,0,0,0,0,0,-1,706,1317,-10.1053,-0.314234
-511,-293,-11.6276,0.235352,0,0,0,0,0,0,0,-1,713,1317,-11.6276,-0.235372
-504,-293,-17.9086,1.25427,0,0,0,0,0,0,0,-1,720,1317,-17.9086,-1.25423
-497,-293,-18.8006,1.62122,0,0,0,0,0,0,0,-1,727,1317,-18.8006,-1.62119
-490,-293,-18.8961,1.99255,0,0,0,0,0,0,0,-1,734,1317,-18.8961,-1.99251
-483,-293,-19.0831,2.35498,0,0,0,0,0,0,0,-1,741,1317,-19.0831,-2.35497
-476,-293,-19.5228,2.61243,0,0,0,0,0,0,0,-1,748,1317,-19.5228,-2.61237
-469,-293,0,0,0,0,0,0,0,0,0,-1,755,1317,0,0
-462,-293,0,0,0,0,0,0,0,0,0,-1,762,1317,0,0
-455,-293,0,0,0,0,0,0,0,0,0,-1,769,1317,0,0
-448,-293,0,0,0,0,0,0,0,0,0,-1,776,1317,0,0
-441,-293,0,0,0,0,0,0,0,0,0,-1,783,1317,0,0
-434,-293,0,0,0,0,0,0,0,0,0,-1,790,1317,0,0
-427,-293,0,0,0,0,0,0,0,0,0,-1,797,1317,0,0
-420,-293,0,0,0,0,0,0,0,0,0,-1,804,1317,0,0
-413,-293,0,0,0,0,0,0,0,0,0,-1,811,1317,0,0
-406,-293,0,0,0,0,0,0,0,0,0,-1,818,1317,0,0
-399,-293,0,0,0,0,0,0,0,0,0,-1,825,1317,0,0
-392,-293,0,0,0,0,0,0,0,0,0,-1,832,1317,0,0
-385,-293,0,0,0,0,0,0,0,0,0,-1,839,1317,0,0
-378,-293,0,0,0,0,0,0,0,0,0,-1,846,1317,0,0
-371,-293,0,0,0,0,0,0,0,0,0,-1,853,1317,0,0
-364,-293,0,0,0,0,0,0,0,0,0,-1,860,1317,0,0
-357,-293,0,0,0,0,0,0,0,0,0,-1,867,1317,0,0
-350,-293,0,0,0,0,0,0,0,0,0,-1,874,1317,0,0
-343,-293,0,0,0,0,0,0,0,0,0,-1,881,1317,0,0
-336,-293,0,0,0,0,0,0,0,0,0,-1,888,1317,0,0
-329,-293,0,0,0,0,0,0,0,0,0,-1,895,1317,0,0
-322,-293,0,0,0,0,0,0,0,0,0,-1,902,1317,0,0
-315,-293,0,0,0,0,0,0,0,0,0,-1,909,1317,0,0
-308,-293,0,0,0,0,0,0,0,0,0,-1,916,1317,0,0
-301,-293,0,0,0,0,0,0,0,0,0,-1,923,1317,0,0
-294,-293,0,0,0,0,0,0,0,0,0,-1,930,1317,0,0
-287,-293,0,0,0,0,0,0,0,0,0,-1,937,1317,0,0
-280,-293,0,0,0,0,0,0,0,0,0,-1,944,1317,0,0
-273,-293,0,0,0,0,0,0,0,0,0,-1,951,1317,0,0
-266,-293,0,0,0,0,0,0,0,0,0,-1,958,1317,0,0
-259,-293,0,0,0,0,0,0,0,0,0,-1,965,1317,0,0
-252,-293,0,0,0,0,0,0,0,0,0,-1,972,1317,0,0
-245,-293,0,0,0,0,0,0,0,0,0,-1,979,1317,0,0
-238,-293,0,0,0,0,0,0,0,0,0,-1,986,1317,0,0
-231,-293,0,0,0,0,0,0,0,0,0,-1,993,1317,0,0
-224,-293,0,0,0,0,0,0,0,0,0,-1,1000,1317,0,0
-217,-293,0,0,0,0,0,0,0,0,0,-1,1007,1317,0,0
-210,-293,0,0,0,0,0,0,0,0,0,-1,1014,1317,0,0
-203,-293,0,0,0,0,0,0,0,0,0,-1,1021,1317,0,0
-196,-293,0,0,0,0,0,0,0,0,0,-1,1028,1317,0,0
-189,-293,0,0,0,0,0,0,0,0,0,-1,1035,1317,0,0
-182,-293,0,0,0,0,0,0,0,0,0,-1,1042,1317,0,0
-175,-293,0,0,0,0,0,0,0,0,0,-1,1049,1317,0,0
-168,-293,0,0,0,0,0,0,0,0,0,-1,1056,1317,0,0
-161,-293,0,0,0,0,0,0,0,0,0,-1,1063,1317,0,0
-154,-293,0,0,0,0,0,0,0,0,0,-1,1070,1317,0,0
-147,-293,0,0,0,0,0,0,0,0,0,-1,1077,1317,0,0
-140,-293,0,0,0,0,0,0,0,0,0,-1,1084,1317,0,0
-133,-293,0,0,0,0,0,0,0,0,0,-1,1091,1317,0,0
-126,-293,0,0,0,0,0,0,0,0,0,-1,1098,1317,0,0
-119,-293,0,0,0,0,0,0,0,0,0,-1,1105,1317,0,0
-112,-293,0,0,0,0,0,0,0,0,0,-1,1112,1317,0,0
-105,-293,0,0,0,0,0,0,0,0,0,-1,1119,1317,0,0
-98,-293,0,0,0,0,0,0,0,0,0,-1,1126,1317,0,0
-91,-293,0,0,0,0,0,0,0,0,0,-1,1133,1317,0,0
-84,-293,0,0,0,0,0,0,0,0,0,-1,1140,1317,0,0
-77,-293,0,0,0,0,0,0,0,0,0,-1,1147,1317,0,0
-70,-293,0,0,0,0,0,0,0,0,0,-1,1154,1317,0,0
-63,-293,0,0,0,0,0,0,0,0,0,-1,1161,1317,0,0
-56,-293,0,0,0,0,0,0,0,0,0,-1,1168,1317,0,0
-49,-293,0,0,0,0,0,0,0,0,0,-1,1175,1317,0,0
-42,-293,0,0,0,0,0,0,0,0,0,-1,1182,1317,0,0
-35,-293,0,0,0,0,0,0,0,0,0,-1,1189,1317,0,0
-28,-293,0,0,0,0,0,0,0,0,0,-1,1196,1317,0,0
-21,-293,0,0,0,0,0,0,0,0,0,-1,1203,1317,0,0
-14,-293,0,0,0,0,0,0,0,0,0,-1,1210,1317,0,0
-7,-293,0,0,0,0,0,0,0,0,0,-1,1217,1317,0,0
0,-293,0,0,0,0,0,0,0,0,0,-1,1224,1317,0,0
7,-293,0,0,0,0,0,0,0,0,0,-1,1231,1317,0,0
14,-293,0,0,0,0,0,0,0,0,0,-1,1238,1317,0,0
21,-293,0,0,0,0,0,0,0,0,0,-1,1245,1317,0,0
28,-293,0,0,0,0,0,0,0,0,0,-1,1252,1317,0,0
35,-293,0,0,0,0,0,0,0,0,0,-1,1259,1317,0,0
42,-293,0,0,0,0,0,0,0,0,0,-1,1266,1317,0,0
49,-293,0,0,0,0,0,0,0,0,0,-1,1273,1317,0,0
56,-293,0,0,0,0,0,0,0,0,0,-1,1280,1317,0,0
63,-293,0,0,0,0,0,0,0,0,0,-1,1287,1317,0,0
70,-293,0,0,0,0,0,0,0,0,0,-1,1294,1317,0,0
77,-293,0,0,0,0,0,0,0,0,0,-1,1301,1317,0,0
84,-293,0,0,0,0,0,0,0,0,0,-1,1308,1317,0,0
91,-293,0,0,0,0,0,0,0,0,0,-1,1315,1317,0,0
98,-293,0,0,0,0,0,0,0,0,0,-1,1322,1317,0,0
105,-293,0,0,0,0,0,0,0,0,0,-1,1329,1317,0,0
112,-293,0,0,0,0,0,0,0,0,0,-1,1336,1317,0,0
119,-293,0,0,0,0,0,0,0,0,0,-1,1343,1317,0,0
126,-293,0,0,0,0,0,0,0,0,0,-1,1350,1317,0,0
133,-293,0,0,0,0,0,0,0,0,0,-1,1357,1317,0,0
140,-293,0,0,0,0,0,0,0,0,0,-1,1364,1317,0,0
147,-293,0,0,0,0,0,0,0,0,0,-1,1371,1317,0,0
154,-293,0,0,0,0,0,0,0,0,0,-1,1378,1317,0,0
161,-293,0,0,0,0,0,0,0,0,0,-1,1385,1317,0,0
168,-293,0,0,0,0,0,0,0,0,0,-1,1392,1317,0,0
175,-293,0,0,0,0,0,0,0,0,0,-1,1399,1317,0,0
182,-293,0,0,0,0,0,0,0,0,0,-1,1406,1317,0,0
189,-293,0,0,0,0,0,0,0,0,0,-1,1413,1317,0,0
196,-293,0,0,0,0,0,0,0,0,0,-1,1420,1317,0,0
203,-293,0,0,0,0,0,0,0,0,0,-1,1427,1317,0,0
210,-293,0,0,0,0,0,0,0,0,0,-1,1434,1317,0,0
217,-293,0,0,0,0,0,0,0,0,0,-1,1441,1317,0,0
224,-293,0,0,0,0,0,0,0,0,0,-1,1448,1317,0,0
231,-293,0,0,0,0,0,0,0,0,0,-1,1455,1317,0,0
238,-293,0,0,0,0,0,0,0,0,0,-1,1462,1317,0,0
245,-293,0,0,0,0,0,0,0,0,0,-1,1469,1317,0,0
252,-293,0,0,0,0,0,0,0,0,0,-1,1476,1317,0,0
259,-293,0,0,0,0,0,0,0,0,0,-1,1483,1317,0,0
266,-293,0,0,0,0,0,0,0,0,0,-1,1490,1317,0,0
273,-293,0,0,0,0,0,0,0,0,0,-1,1497,1317,0,0
280,-293,0,0,0,0,0,0,0,0,0,-1,1504,1317,0,0
287,-293,0,0,0,0,0,0,0,0,0,-1,1511,1317,0,0
294,-293,0,0,0,0,0,0,0,0,0,-1,1518,1317,0,0
301,-293,0,0,0,0,0,0,0,0,0,-1,1525,1317,0,0
308,-293,0,0,0,0,0,0,0,0,0,-1,1532,1317,0,0
315,-293,0,0,0,0,0,0,0,0,0,-1,1539,1317,0,0
322,-293,0,0,0,0,0,0,0,0,0,-1,1546,1317,0,0
329,-293,0,0,0,0,0,0,0,0,0,-1,1553,1317,0,0
336,-293,0,0,0,0,0,0,0,0,0,-1,1560,1317,0,0
343,-293,0,0,0,0,0,0,0,0,0,-1,1567,1317,0,0
350,-293,0,0,0,0,0,0,0,0,0,-1,1574,1317,0,0
357,-293,0,0,0,0,0,0,0,0,0,-1,1581,1317,0,0
364,-293,0,0,0,0,0,0,0,0,0,-1,1588,1317,0,0
371,-293,0,0,0,0,0,0,0,0,0,-1,1595,1317,0,0
378,-293,0,0,0,0,0,0,0,0,0,-1,1602,1317,0,0
385,-293,0,0,0,0,0,0,0,0,0,-1,1609,1317,0,0
392,-293,0,0,0,0,0,0,0,0,0,-1,1616,1317,0,0
399,-293,0,0,0,0,0,0,0,0,0,-1,1623,1317,0,0
406,-293,0,0,0,0,0,0,0,0,0,-1,1630,1317,0,0
413,-293,0,0,0,0,0,0,0,0,0,-1,1637,1317,0,0
420,-293,0,0,0,0,0,0,0,0,0,-1,1644,1317,0,0
427,-293,0,0,0,0,0,0,0,0,0,-1,1651,1317,0,0
434,-293,0,0,0,0,0,0,0,0,0,-1,1658,1317,0,0
441,-293,0,0,0,0,0,0,0,0,0,-1,1665,1317,0,0
448,-293,0,0,0,0,0,0,0,0,0,-1,1672,1317,0,0
455,-293,0,0,0,0,0,0,0,0,0,-1,1679,1317,0,0
462,-293,0,0,0,0,0,0,0,0,0,-1,1686,1317,0,0
469,-293,0,0,0,0,0,0,0,0,0,-1,1693,1317,0,0
476,-293,0,0,0,0,0,0,0,0,0,-1,1700,1317,0,0
483,-293,0,0,0,0,0,0,0,0,0,-1,1707,1317,0,0
490,-293,0,0,0,0,0,0,0,0,0,-1,1714,1317,0,0
497,-293,0,0,0,0,0,0,0,0,0,-1,1721,1317,0,0
504,-293,0,0,0,0,0,0,0,0,0,-1,1728,1317,0,0
511,-293,0,0,0,0,0,0,0,0,0,-1,1735,1317,0,0
518,-293,0,0,0,0,0,0,0,0,0,-1,1742,1317,0,0
525,-293,0,0,0,0,0,0,0,0,0,-1,1749,1317,0,0
532,-293,0,0,0,0,0,0,0,0,0,-1,1756,1317,0,0
539,-293,0,0,0,0,0,0,0,0,0,-1,1763,1317,0,0
546,-293,0,0,0,0,0,0,0,0,0,-1,1770,1317,0,0
553,-293,0,0,0,0,0,0,0,0,0,-1,1777,1317,0,0
560,-293,0,0,0,0,0,0,0,0,0,-1,1784,1317,0,0
567,-293,0,0,0,0,0,0,0,0,0,-1,1791,1317,0,0
574,-293,0,0,0,0,0,0,0,0,0,-1,1798,1317,0,0
581,-293,0,0,0,0,0,0,0,0,0,-1,1805,1317,0,0
588,-293,0,0,0,0,0,0,0,0,0,-1,1812,1317,0,0
595,-293,59.283,2.56763,0,0,0,0,0,0,0,-1,1819,1317,59.2829,-2.56765
602,-293,60.4449,1.62744,0,0,0,0,0,0,0,-1,1826,1317,60.4449,-1.6274
609,-293,60.5278,1.4292,0,0,0,0,0,0,0,-1,1833,1317,60.5279,-1.42921
616,-293,60.6252,1.49255,0,0,0,0,0,0,0,-1,1840,1317,60.6252,-1.4926
623,-293,62.22,3.31262,0,0,0,0,0,0,0,-1,1847,1317,62.22,-3.31256
630,-293,46.6716,3.21558,0,0,0,0,0,0,0,-1,1854,1317,46.6716,-3.2156
637,-293,42.7729,4.95544,0,0,0,0,0,0,0,-1,1861,1317,42.773,-4.95546
644,-293,24.4565,0.520752,0,0,0,0,0,0,0,-1,1868,1317,24.4566,-0.520709
651,-293,25.8926,9.51245,0,0,0,0,0,0,0,-1,1875,1317,25.8926,-9.51246
658,-293,25.4904,9.10205,0,0,0,0,0,0,0,-1,1882,1317,25.4904,-9.10209
665,-293,39.7999,13.4221,0,0,0,0,0,0,0,-1,1889,1317,39.8,-13.4221
672,-293,41.6027,13.7773,0,0,0,0,0,0,0,-1,1896,1317,41.6026,-13.7773
679,-293,41.583,13.1549,8.8855e-05,0.00277432,-0.00223652,0.00404022,-0.00117704,-1.05574,0.00315977,0.0170041,1903,1317,41.5831,-13.1549
686,-293,41.573,12.5499,0.00122495,0.00126176,-0.00154221,0.00278567,-0.000298973,-0.791365,0.00196437,0.017285,1910,1317,41.573,-12.5499
693,-293,41.5524,11.9419,0.00109578,0.000448479,-0.000579893,0.00143623,0.000108033,-0.530868,0.000923584,0.0133129,1917,1317,41.5523,-11.9419
700,-293,41.5171,11.3326,0.000654128,-0.000215696,0.000341246,0.000772024,-0.000333592,0.33265,0.000654844,0.010775,1924,1317,41.5171,-11.3326
707,-293,41.4773,10.7461,-6.76265e-05,-0.000805648,0.00120554,0.000824114,-0.00169739,0.636878,0.00148461,0.0110926,1931,1317,41.4773,-10.7461
714,-293,41.46,10.1536,-0.000972047,-0.0012876,0.00211095,0.000987016,-0.00324666,0.748097,0.00255773,0.00865116,1938,1317,41.4599,-10.1535
721,-293,41.4548,9.54932,-0.00205153,-0.00190133,0.00315791,0.00118238,-0.00513524,0.797286,0.00387817,0.0108822,1945,1317,41.4548,-9.54932
728,-293,41.4419,8.92822,-0.00336851,-0.00267571,0.00437926,0.00137083,-0.00741505,0.824866,0.005458,0.0136085,1952,1317,41.4419,-8.92825
735,-293,41.4214,8.30872,-0.00500924,-0.00369299,0.00583761,0.00152348,-0.0102257,0.841531,0.00737759,0.024785,1959,1317,41.4214,-8.30868
742,-293,41.4718,7.6731,0,0,0,0,0,0,0,-1,1966,1317,41.4718,-7.67311
749,-293,29.439,5.35339,0,0,0,0,0,0,0,-1,1973,1317,29.4389,-5.35334
756,-293,24.978,3.9718,0,0,0,0,0,0,0,-1,1980,1317,24.978,-3.97186
763,-293,26.6713,4.74097,0,0,0,0,0,0,0,-1,1987,1317,26.6713,-4.74098
770,-293,24.1349,4.69153,0,0,0,0,0,0,0,-1,1994,1317,24.1348,-4.69159
777,-293,0,0,0,0,0,0,0,0,0,-1,2001,1317,0,0
784,-293,0,0,0,0,0,0,0,0,0,-1,2008,1317,0,0
791,-293,0,0,0,0,0,0,0,0,0,-1,2015,1317,0,0
798,-293,0,0,0,0,0,0,0,0,0,-1,2022,1317,0,0
805,-293,0,0,0,0,0,0,0,0,0,-1,2029,1317,0,0
812,-293,0,0,0,0,0,0,0,0,0,-1,2036,1317,0,0
-700,-300,0,0,0,0,0,0,0,0,0,-1,524,1324,0,0
-693,-300,0,0,0,0,0,0,0,0,0,-1,531,1324,0,0
-686,-300,0,0,0,0,0,0,0,0,0,-1,538,1324,0,0
-679,-300,0,0,0,0,0,0,0,0,0,-1,545,1324,0,0
-672,-300,0,0,0,0,0,0,0,0,0,-1,552,1324,0,0
-665,-300,0,0,0,0,0,0,0,0,0,-1,559,1324,0,0
-658,-300,0,0,0,0,0,0,0,0,0,-1,566,1324,0,0
-651,-300,-50.806,6.43359,0,0,0,0,0,0,0,-1,573,1324,-50.8059,-6.43357
-644,-300,-51.8368,6.62878,0,0,0,0,0,0,0,-1,580,1324,-51.8368,-6.62877
-637,-300,-24.088,-5.12695,0,0,0,0,0,0,0,-1,587,1324,-24.088,5.12694
-630,-300,-21.1108,2.26306,0,0,0,0,0,0,0,-1,594,1324,-21.1109,-2.2631
-623,-300,-12.7067,1.48462,0,0,0,0,0,0,0,-1,601,1324,-12.7067,-1.48462
-616,-300,-14.9988,1.68628,0,0,0,0,0,0,0,-1,608,1324,-14.9988,-1.68627
-609,-300,-15.5027,3.29907,0,0,0,0,0,0,0,-1,615,1324,-15.5027,-3.29902
-602,-300,-24.8705,5.96619,0,0,0,0,0,0,0,-1,622,1324,-24.8705,-5.96624
-595,-300,-24.8818,6.82446,-0.00981267,0.000115519,0.00586601,0.00283598,-0.0125331,1.13655,0.00944376,0.0375942,629,1324,-24.8818,-6.82441
-588,-300,-24.8155,7.52698,-2.22067e-05,0.00313398,0.00225865,0.00431122,-0.00119945,1.09032,0.0033464,0.021304,636,1324,-24.8155,-7.52697
-581,-300,-24.8182,8.19775,0.00115199,0.0020623,0.00105744,0.00275839,0.000455908,0.988629,0.00170737,0.0203256,643,1324,-24.8182,-8.19777
-574,-300,-24.8398,8.85632,0.00161197,0.00136461,0.000987654,0.00248366,0.000492921,0.723109,0.00151837,0.016372,650,1324,-24.8398,-8.85626
-567,-300,-24.9022,9.48828,0.00223402,0.000830061,0.00106153,0.00280468,0.0002594,0.493262,0.0017896,0.0166528,657,1324,-24.9022,-9.48828
-560,-300,-24.9405,10.1337,0.00304699,0.000346822,0.00124592,0.00353403,-0.000140221,0.372647,0.00240413,0.01507,664,1324,-24.9405,-10.1337
-553,-300,-24.9354,10.7803,0.00408429,2.00129e-05,0.00158739,0.00463079,-0.000526491,0.331568,0.00327682,0.0105803,671,1324,-24.9354,-10.7803
-546,-300,-24.961,11.436,0.00534506,-0.000175525,0.00211924,0.00606477,-0.000895234,0.327386,0.00437225,0.0092545,678,1324,-24.961,-11.436
-539,-300,-24.9049,12.1302,0.00710576,-0.000362411,0.00295784,0.00813531,-0.00139196,0.334958,0.00594212,0.024394,685,1324,-24.9049,-12.1303
-532,-300,-24.8144,12.7981,0,0,0,0,0,0,0,-1,692,1324,-24.8144,-12.7981
-525,-300,-13.5115,6.27783,0,0,0,0,0,0,0,-1,699,1324,-13.5115,-6.2778
-518,-300,-9.8349,-0.537109,0,0,0,0,0,0,0,-1,706,1324,-9.83487,0.537068
-511,-300,-12.8644,0.081665,0,0,0,0,0,0,0,-1,713,1324,-12.8644,-0.0817016
-504,-300,-13.4829,-0.165527,0,0,0,0,0,0,0,-1,720,1324,-13.4829,0.165544
-497,-300,-18.1063,0.956543,0,0,0,0,0,0,0,-1,727,1324,-18.1063,-0.9565
-490,-300,-18.2293,1.53625,0,0,0,0,0,0,0,-1,734,1324,-18.2293,-1.53626
-483,-300,-18.3522,1.61084,0,0,0,0,0,0,0,-1,741,1324,-18.3522,-1.6108
-476,-300,-18.7489,1.96387,0,0,0,0,0,0,0,-1,748,1324,-18.7489,-1.96387
-469,-300,0,0,0,0,0,0,0,0,0,-1,755,1324,0,0
-462,-300,0,0,0,0,0,0,0,0,0,-1,762,1324,0,0
-455,-300,0,0,0,0,0,0,0,0,0,-1,769,1324,0,0
-448,-300,0,0,0,0,0,0,0,0,0,-1,776,1324,0,0
-441,-300,0,0,0,0,0,0,0,0,0,-1,783,1324,0,0
-434,-300,0,0,0,0,0,0,0,0,0,-1,790,1324,0,0
-427,-300,0,0,0,0,0,0,0,0,0,-1,797,1324,0,0
-420,-300,0,0,0,0,0,0,0,0,0,-1,804,1324,0,0
-413,-300,0,0,0,0,0,0,0,0,0,-1,811,1324,0,0
-406,-300,0,0,0,0,0,0,0,0,0,-1,818,1324,0,0
-399,-300,0,0,0,0,0,0,0,0,0,-1,825,1324,0,0
-392,-300,0,0,0,0,0,0,0,0,0,-1,832,1324,0,0
-385,-300,0,0,0,0,0,0,0,0,0,-1,839,1324,0,0
-378,-300,0,0,0,0,0,0,0,0,0,-1,846,1324,0,0
-371,-300,0,0,0,0,0,0,0,0,0,-1,853,1324,0,0
-364,-300,0,0,0,0,0,0,0,0,0,-1,860,1324,0,0
-357,-300,0,0,0,0,0,0,0,0,0,-1,867,1324,0,0
-350,-300,0,0,0,0,0,0,0,0,0,-1,874,1324,0,0
-343,-300,0,0,0,0,0,0,0,0,0,-1,881,1324,0,0
-336,-300,0,0,0,0,0,0,0,0,0,-1,888,1324,0,0
-329,-300,0,0,0,0,0,0,0,0,0,-1,895,1324,0,0
-322,-300,0,0,0,0,0,0,0,0,0,-1,902,1324,0,0
-315,-300,0,0,0,0,0,0,0,0,0,-1,909,1324,0,0
-308,-300,0,0,0,0,0,0,0,0,0,-1,916,1324,0,0
-301,-300,0,0,0,0,0,0,0,0,0,-1,923,1324,0,0
-294,-300,0,0,0,0,0,0,0,0,0,-1,930,1324,0,0
-287,-300,0,0,0,0,0,0,0,0,0,-1,937,1324,0,0
-280,-300,0,0,0,0,0,0,0,0,0,-1,944,1324,0,0
-273,-300,0,0,0,0,0,0,0,0,0,-1,951,1324,0,0
-266,-300,0,0,0,0,0,0,0,0,0,-1,958,1324,0,0
-259,-300,0,0,0,0,0,0,0,0,0,-1,965,1324,0,0
-252,-300,0,0,0,0,0,0,0,0,0,-1,972,1324,0,0
-245,-300,0,0,0,0,0,0,0,0,0,-1,979,1324,0,0
-238,-300,0,0,0,0,0,0,0,0,0,-1,986,1324,0,0
-231,-300,0,0,0,0,0,0,0,0,0,-1,993,1324,0,0
-224,-300,0,0,0,0,0,0,0,0,0,-1,1000,1324,0,0
-217,-300,0,0,0,0,0,0,0,0,0,-1,1007,1324,0,0
-210,-300,0,0,0,0,0,0,0,0,0,-1,1014,1324,0,0
-203,-300,0,0,0,0,0,0,0,0,0,-1,1021,1324,0,0
-196,-300,0,0,0,0,0,0,0,0,0,-1,1028,1324,0,0
-189,-300,0,0,0,0,0,0,0,0,0,-1,1035,1324,0,0
-182,-300,0,0,0,0,0,0,0,0,0,-1,1042,1324,0,0
-175,-300,0,0,0,0,0,0,0,0,0,-1,1049,1324,0,0
-168,-300,0,0,0,0,0,0,0,0,0,-1,1056,1324,0,0
-161,-300,0,0,0,0,0,0,0,0,0,-1,1063,1324,0,0
-154,-300,0,0,0,0,0,0,0,0,0,-1,1070,1324,0,0
-147,-300,0,0,0,0,0,0,0,0,0,-1,1077,1324,0,0
-140,-300,0,0,0,0,0,0,0,0,0,-1,1084,1324,0,0
-133,-300,0,0,0,0,0,0,0,0,0,-1,1091,1324,0,0
-126,-300,0,0,0,0,0,0,0,0,0,-1,1098,1324,0,0
-119,-300,0,0,0,0,0,0,0,0,0,-1,1105,1324,0,0
-112,-300,0,0,0,0,0,0,0,0,0,-1,1112,1324,0,0
-105,-300,0,0,0,0,0,0,0,0,0,-1,1119,1324,0,0
-98,-300,0,0,0,0,0,0,0,0,0,-1,1126,1324,0,0
-91,-300,0,0,0,0,0,0,0,0,0,-1,1133,1324,0,0
-84,-300,0,0,0,0,0,0,0,0,0,-1,1140,1324,0,0
-77,-300,0,0,0,0,0,0,0,0,0,-1,1147,1324,0,0
-70,-300,0,0,0,0,0,0,0,0,0,-1,1154,1324,0,0
-63,-300,0,0,0,0,0,0,0,0,0,-1,1161,1324,0,0
-56,-300,0,0,0,0,0,0,0,0,0,-1,1168,1324,0,0
-49,-300,0,0,0,0,0,0,0,0,0,-1,1175,1324,0,0
-42,-300,0,0,0,0,0,0,0,0,0,-1,1182,1324,0,0
-35,-300,0,0,0,0,0,0,0,0,0,-1,1189,1324,0,0
-28,-300,0,0,0,0,0,0,0,0,0,-1,1196,1324,0,0
-21,-300,0,0,0,0,0,0,0,0,0,-1,1203,1324,0,0
-14,-300,0,0,0,0,0,0,0,0,0,-1,1210,1324,0,0
-7,-300,0,0,0,0,0,0,0,0,0,-1,1217,1324,0,0
0,-300,0,0,0,0,0,0,0,0,0,-1,1224,1324,0,0
7,-300,0,0,0,0,0,0,0,0,0,-1,1231,1324,0,0
14,-300,0,0,0,0,0,0,0,0,0,-1,1238,1324,0,0
21,-300,0,0,0,0,0,0,0,0,0,-1,1245,1324,0,0
28,-300,0,0,0,0,0,0,0,0,0,-1,1252,1324,0,0
35,-300,0,0,0,0,0,0,0,0,0,-1,1259,1324,0,0
42,-300,0,0,0,0,0,0,0,0,0,-1,1266,1324,0,0
49,-300,0,0,0,0,0,0,0,0,0,-1,1273,1324,0,0
56,-300,0,0,0,0,0,0,0,0,0,-1,1280,1324,0,0
63,-300,0,0,0,0,0,0,0,0,0,-1,1287,1324,0,0
70,-300,0,0,0,0,0,0,0,0,0,-1,1294,1324,0,0
77,-300,0,0,0,0,0,0,0,0,0,-1,1301,1324,0,0
84,-300,0,0,0,0,0,0,0,0,0,-1,1308,1324,0,0
91,-300,0,0,0,0,0,0,0,0,0,-1,1315,1324,0,0
98,-300,0,0,0,0,0,0,0,0,0,-1,1322,1324,0,0
105,-300,0,0,0,0,0,0,0,0,0,-1,1329,1324,0,0
112,-300,0,0,0,0,0,0,0,0,0,-1,1336,1324,0,0
119,-300,0,0,0,0,0,0,0,0,0,-1,1343,1324,0,0
126,-300,0,0,0,0,0,0,0,0,0,-1,1350,1324,0,0
133,-300,0,0,0,0,0,0,0,0,0,-1,1357,1324,0,0
140,-300,0,0,0,0,0,0,0,0,0,-1,1364,1324,0,0
147,-300,0,0,0,0,0,0,0,0,0,-1,1371,1324,0,0
154,-300,0,0,0,0,0,0,0,0,0,-1,1378,1324,0,0
161,-300,0,0,0,0,0,0,0,0,0,-1,1385,1324,0,0
168,-300,0,0,0,0,0,0,0,0,0,-1,1392,1324,0,0
175,-300,0,0,0,0,0,0,0,0,0,-1,1399,1324,0,0
182,-300,0,0,0,0,0,0,0,0,0,-1,1406,1324,0,0
189,-300,0,0,0,0,0,0,0,0,0,-1,1413,1324,0,0
196,-300,0,0,0,0,0,0,0,0,0,-1,1420,1324,0,0
203,-300,0,0,0,0,0,0,0,0,0,-1,1427,1324,0,0
210,-300,0,0,0,0,0,0,0,0,0,-1,1434,1324,0,0
217,-300,0,0,0,0,0,0,0,0,0,-1,1441,1324,0,0
224,-300,0,0,0,0,0,0,0,0,0,-1,1448,1324,0,0
231,-300,0,0,0,0,0,0,0,0,0,-1,1455,1324,0,0
238,-300,0,0,0,0,0,0,0,0,0,-1,1462,1324,0,0
245,-300,0,0,0,0,0,0,0,0,0,-1,1469,1324,0,0
252,-300,0,0,0,0,0,0,0,0,0,-1,1476,1324,0,0
259,-300,0,0,0,0,0,0,0,0,0,-1,1483,1324,0,0
266,-300,0,0,0,0,0,0,0,0,0,-1,1490,1324,0,0
273,-300,0,0,0,0,0,0,0,0,0,-1,1497,1324,0,0
280,-300,0,0,0,0,0,0,0,0,0,-1,1504,1324,0,0
287,-300,0,0,0,0,0,0,0,0,0,-1,1511,1324,0,0
294,-300,0,0,0,0,0,0,0,0,0,-1,1518,1324,0,0
301,-300,0,0,0,0,0,0,0,0,0,-1,1525,1324,0,0
308,-300,0,0,0,0,0,0,0,0,0,-1,1532,1324,0,0
315,-300,0,0,0,0,0,0,0,0,0,-1,1539,1324,0,0
322,-300,0,0,0,0,0,0,0,0,0,-1,1546,1324,0,0
329,-300,0,0,0,0,0,0,0,0,0,-1,1553,1324,0,0
336,-300,0,0,0,0,0,0,0,0,0,-1,1560,1324,0,0
343,-300,0,0,0,0,0,0,0,0,0,-1,1567,1324,0,0
350,-300,0,0,0,0,0,0,0,0,0,-1,1574,1324,0,0
357,-300,0,0,0,0,0,0,0,0,0,-1,1581,1324,0,0
364,-300,0,0,0,0,0,0,0,0,0,-1,1588,1324,0,0
371,-300,0,0,0,0,0,0,0,0,0,-1,1595,1324,0,0
378,-300,0,0,0,0,0,0,0,0,0,-1,1602,1324,0,0
385,-300,0,0,0,0,0,0,0,0,0,-1,1609,1324,0,0
392,-300,0,0,0,0,0,0,0,0,0,-1,1616,1324,0,0
399,-300,0,0,0,0,0,0,0,0,0,-1,1623,1324,0,0
406,-300,0,0,0,0,0,0,0,0,0,-1,1630,1324,0,0
413,-300,0,0,0,0,0,0,0,0,0,-1,1637,1324,0,0
420,-300,0,0,0,0,0,0,0,0,0,-1,1644,1324,0,0
427,-300,0,0,0,0,0,0,0,0,0,-1,1651,1324,0,0
434,-300,0,0,0,0,0,0,0,0,0,-1,1658,1324,0,0
441,-300,0,0,0,0,0,0,0,0,0,-1,1665,1324,0,0
448,-300,0,0,0,0,0,0,0,0,0,-1,1672,1324,0,0
455,-300,0,0,0,0,0,0,0,0,0,-1,1679,1324,0,0
462,-300,0,0,0,0,0,0,0,0,0,-1,1686,1324,0,0
469,-300,0,0,0,0,0,0,0,0,0,-1,1693,1324,0,0
476,-300,0,0,0,0,0,0,0,0,0,-1,1700,1324,0,0
483,-300,0,0,0,0,0,0,0,0,0,-1,1707,1324,0,0
490,-300,0,0,0,0,0,0,0,0,0,-1,1714,1324,0,0
497,-300,0,0,0,0,0,0,0,0,0,-1,1721,1324,0,0
504,-300,0,0,0,0,0,0,0,0,0,-1,1728,1324,0,0
511,-300,0,0,0,0,0,0,0,0,0,-1,1735,1324,0,0
518,-300,0,0,0,0,0,0,0,0,0,-1,1742,1324,0,0
525,-300,0,0,0,0,0,0,0,0,0,-1,1749,1324,0,0
532,-300,0,0,0,0,0,0,0,0,0,-1,1756,1324,0,0
539,-300,0,0,0,0,0,0,0,0,0,-1,1763,1324,0,0
546,-300,0,0,0,0,0,0,0,0,0,-1,1770,1324,0,0
553,-300,0,0,0,0,0,0,0,0,0,-1,1777,1324,0,0
560,-300,0,0,0,0,0,0,0,0,0,-1,1784,1324,0,0
567,-300,0,0,0,0,0,0,0,0,0,-1,1791,1324,0,0
574,-300,0,0,0,0,0,0,0,0,0,-1,1798,1324,0,0
581,-300,0,0,0,0,0,0,0,0,0,-1,1805,1324,0,0
588,-300,61.3982,2.35547,0,0,0,0,0,0,0,-1,1812,1324,61.3981,-2.3555
595,-300,61.2064,1.96851,0,0,0,0,0,0,0,-1,1819,1324,61.2064,-1.96853
602,-300,60.8494,1.61389,0,0,0,0,0,0,0,-1,1826,1324,60.8494,-1.61385
609,-300,60.4249,1.20483,0,0,0,0,0,0,0,-1,1833,1324,60.4249,-1.20486
616,-300,60.4126,1.02698,0,0,0,0,0,0,0,-1,1840,1324,60.4126,-1.02699
623,-300,47.4474,2.43188,0,0,0,0,0,0,0,-1,1847,1324,47.4474,-2.43194
630,-300,42.4099,3.9165,0,0,0,0,0,0,0,-1,1854,1324,42.4099,-3.91649
637,-300,31.1719,4.6366,0,0,0,0,0,0,0,-1,1861,1324,31.1718,-4.63665
644,-300,22.9836,3.44934,0,0,0,0,0,0,0,-1,1868,1324,22.9836,-3.4493
651,-300,25.5004,9.11853,0,0,0,0,0,0,0,-1,1875,1324,25.5004,-9.11851
658,-300,25.4012,9.20032,0,0,0,0,0,0,0,-1,1882,1324,25.4012,-9.20036
665,-300,41.0959,14.4086,0,0,0,0,0,0,0,-1,1889,1324,41.096,-14.4086
672,-300,40.9495,13.8462,0.000986054,0.000964028,-0.00236099,0.00333606,-0.00138597,-0.783066,0.00280269,0.0303534,1896,1324,40.9495,-13.8462
679,-300,40.9646,13.1824,0.000591266,0.00148558,-0.00145956,0.00256494,-0.000488098,-0.934041,0.00189375,0.013529,1903,1324,40.9646,-13.1824
686,-300,40.9702,12.5807,0.00127742,0.000466469,-0.000905408,0.001864,-0.00012011,-0.57487,0.00128458,0.0141582,1910,1324,40.9702,-12.5806
693,-300,40.9246,11.9745,0.000980211,-1.8152e-05,-0.000194327,0.0010167,-5.46429e-05,-0.18562,0.00069673,0.0121741,1917,1324,40.9246,-11.9745
700,-300,40.8766,11.3566,0.000540639,-0.000449377,0.000539469,0.000777792,-0.00068653,0.414176,0.000845974,0.0134959,1924,1324,40.8766,-11.3565
707,-300,40.8882,10.7449,-4.08914e-05,-0.000889765,0.0012761,0.000879509,-0.00181017,0.624851,0.00158357,0.00947814,1931,1324,40.8882,-10.7449
714,-300,40.8873,10.1476,-0.000789397,-0.00137708,0.00211119,0.0010483,-0.00321478,0.716251,0.00256504,0.0115402,1938,1324,40.8873,-10.1476
721,-300,40.8639,9.55664,-0.00171791,-0.00201098,0.00310403,0.00124305,-0.00497193,0.761811,0.0037974,0.0135257,1945,1324,40.8638,-9.55663
728,-300,40.8539,8.92468,-0.0028808,-0.00282581,0.00427925,0.00142604,-0.00713264,0.788611,0.00529484,0.0173231,1952,1324,40.8539,-8.92464
735,-300,40.6134,8.6051,-0.00437537,-0.00393935,0.00570924,0.00155604,-0.00987076,0.804482,0.00715581,0.0332649,1959,1324,40.6134,-8.60512
742,-300,40.4741,8.14404,0,0,0,0,0,0,0,-1,1966,1324,40.4742,-8.14408
749,-300,27.4065,5.9718,0,0,0,0,0,0,0,-1,1973,1324,27.4065,-5.97181
756,-300,22.1423,3.45642,0,0,0,0,0,0,0,-1,1980,1324,22.1423,-3.45638
763,-300,22.6136,5.1571,0,0,0,0,0,0,0,-1,1987,1324,22.6136,-5.15706
770,-300,24.859,4.77979,0,0,0,0,0,0,0,-1,1994,1324,24.859,-4.77972
777,-300,0,0,0,0,0,0,0,0,0,-1,2001,1324,0,0
784,-300,0,0,0,0,0,0,0,0,0,-1,2008,1324,0,0
791,-300,0,0,0,0,0,0,0,0,0,-1,2015,1324,0,0
798,-300,0,0,0,0,0,0,0,0,0,-1,2022,1324,0,0
805,-300,0,0,0,0,0,0,0,0,0,-1,2029,1324,0,0
812,-300,0,0,0,0,0,0,0,0,0,-1,2036,1324,0,0
-700,-307,0,0,0,0,0,0,0,0,0,-1,524,1331,0,0
-693,-307,0,0,0,0,0,0,0,0,0,-1,531,1331,0,0
-686,-307,0,0,0,0,0,0,0,0,0,-1,538,1331,0,0
-679,-307,0,0,0,0,0,0,0,0,0,-1,545,1331,0,0
-672,-307,0,0,0,0,0,0,0,0,0,-1,552,1331,0,0
-665,-307,0,0,0,0,0,0,0,0,0,-1,559,1331,0,0
-658,-307,0,0,0,0,0,0,0,0,0,-1,566,1331,0,0
-651,-307,-54.7367,9.00867,0,0,0,0,0,0,0,-1,573,1331,-54.7367,-9.00861
-644,-307,-55.8599,7.91187,0,0,0,0,0,0,0,-1,580,1331,-55.8599,-7.91183
-637,-307,-56.9963,6.80457,0,0,0,0,0,0,0,-1,587,1331,-56.9963,-6.80456
-630,-307,-12.0005,0.767212,0,0,0,0,0,0,0,-1,594,1331,-12.0005,-0.767266
-623,-307,-12.2128,2.93811,0,0,0,0,0,0,0,-1,601,1331,-12.2128,-2.93813
-616,-307,-12.6612,2.08289,0,0,0,0,0,0,0,-1,608,1331,-12.6612,-2.08293
-609,-307,-12.2767,1.83228,0,0,0,0,0,0,0,-1,615,1331,-12.2768,-1.83224
-602,-307,-22.8475,5.62708,0,0,0,0,0,0,0,-1,622,1331,-22.8476,-5.6271
-595,-307,-24.395,6.81006,0,0,0,0,0,0,0,-1,629,1331,-24.3949,-6.81004
-588,-307,-24.1921,7.56982,0.000590565,0.00339305,0.00253206,0.00488573,-0.000902116,1.03812,0.00359578,0.0227408,636,1331,-24.192,-7.56978
-581,-307,-24.1737,8.22607,0.00144408,0.0023236,0.00125111,0.00320998,0.000557698,0.954401,0.00198044,0.0161462,643,1331,-24.1737,-8.22612
-574,-307,-24.192,8.86182,0.00170616,0.00161852,0.00105436,0.00271761,0.000607065,0.76463,0.00164711,0.0133178,650,1331,-24.192,-8.86178
-567,-307,-24.2454,9.51721,0.00215179,0.00107636,0.00102645,0.00277285,0.00045531,0.544123,0.00171704,0.013141,657,1331,-24.2454,-9.51723
-560,-307,-24.2727,10.165,0.00280154,0.000604062,0.00114245,0.00328786,0.000117738,0.40245,0.00215374,0.0135435,664,1331,-24.2727,-10.165
-553,-307,-24.2977,10.8079,0.00368373,0.000294669,0.00143934,0.00421251,-0.000234114,0.352073,0.00288954,0.0105589,671,1331,-24.2977,-10.8078
-546,-307,-24.3323,11.4608,0.00479939,5.74043e-05,0.00191257,0.00547463,-0.000617836,0.339393,0.00387216,0.0101552,678,1331,-24.3323,-11.4608
-539,-307,-24.3199,12.1481,0.00632686,-0.000140359,0.00265066,0.00727443,-0.00108792,0.343325,0.00524997,0.017308,685,1331,-24.32,-12.1481
-532,-307,-24.2846,12.8386,0,0,0,0,0,0,0,-1,692,1331,-24.2846,-12.8386
-525,-307,-13.2009,6.91309,0,0,0,0,0,0,0,-1,699,1331,-13.2009,-6.9131
-518,-307,-9.77777,-1.56653,0,0,0,0,0,0,0,-1,706,1331,-9.77777,1.56651
-511,-307,-12.5226,0.26709,0,0,0,0,0,0,0,-1,713,1331,-12.5226,-0.267038
-504,-307,-12.5913,-0.308105,0,0,0,0,0,0,0,-1,720,1331,-12.5913,0.308124
-497,-307,-13.8586,-0.115845,0,0,0,0,0,0,0,-1,727,1331,-13.8587,0.115861
-490,-307,-17.9429,0.982178,0,0,0,0,0,0,0,-1,734,1331,-17.9429,-0.982198
-483,-307,-18.1066,0.927612,0,0,0,0,0,0,0,-1,741,1331,-18.1066,-0.927609
-476,-307,-18.1288,1.1228,0,0,0,0,0,0,0,-1,748,1331,-18.1289,-1.12286
-469,-307,-18.2028,0.798584,0,0,0,0,0,0,0,-1,755,1331,-18.2027,-0.798546
-462,-307,0,0,0,0,0,0,0,0,0,-1,762,1331,0,0
-455,-307,0,0,0,0,0,0,0,0,0,-1,769,1331,0,0
-448,-307,0,0,0,0,0,0,0,0,0,-1,776,1331,0,0
-441,-307,0,0,0,0,0,0,0,0,0,-1,783,1331,0,0
-434,-307,0,0,0,0,0,0,0,0,0,-1,790,1331,0,0
-427,-307,0,0,0,0,0,0,0,0,0,-1,797,1331,0,0
-420,-307,0,0,0,0,0,0,0,0,0,-1,804,1331,0,0
-413,-307,0,0,0,0,0,0,0,0,0,-1,811,1331,0,0
-406,-307,0,0,0,0,0,0,0,0,0,-1,818,1331,0,0
-399,-307,0,0,0,0,0,0,0,0,0,-1,825,1331,0,0
-392,-307,0,0,0,0,0,0,0,0,0,-1,832,1331,0,0
-385,-307,0,0,0,0,0,0,0,0,0,-1,839,1331,0,0
-378,-307,0,0,0,0,0,0,0,0,0,-1,846,1331,0,0
-371,-307,0,0,0,0,0,0,0,0,0,-1,853,1331,0,0
-364,-307,0,0,0,0,0,0,0,0,0,-1,860,1331,0,0
-357,-307,0,0,0,0,0,0,0,0,0,-1,867,1331,0,0
-350,-307,0,0,0,0,0,0,0,0,0,-1,874,1331,0,0
-343,-307,0,0,0,0,0,0,0,0,0,-1,881,1331,0,0
-336,-307,0,0,0,0,0,0,0,0,0,-1,888,1331,0,0
-329,-307,0,0,0,0,0,0,0,0,0,-1,895,1331,0,0
-322,-307,0,0,0,0,0,0,0,0,0,-1,902,1331,0,0
-315,-307,0,0,0,0,0,0,0,0,0,-1,909,1331,0,0
-308,-307,0,0,0,0,0,0,0,0,0,-1,916,1331,0,0
-301,-307,0,0,0,0,0,0,0,0,0,-1,923,1331,0,0
-294,-307,0,0,0,0,0,0,0,0,0,-1,930,1331,0,0
-287,-307,0,0,0,0,0,0,0,0,0,-1,937,1331,0,0
-280,-307,0,0,0,0,0,0,0,0,0,-1,944,1331,0,0
-273,-307,0,0,0,0,0,0,0,0,0,-1,951,1331,0,0
-266,-307,0,0,0,0,0,0,0,0,0,-1,958,1331,0,0
-259,-307,0,0,0,0,0,0,0,0,0,-1,965,1331,0,0
-252,-307,0,0,0,0,0,0,0,0,0,-1,972,1331,0,0
-245,-307,0,0,0,0,0,0,0,0,0,-1,979,1331,0,0
-238,-307,0,0,0,0,0,0,0,0,0,-1,986,1331,0,0
-231,-307,0,0,0,0,0,0,0,0,0,-1,993,1331,0,0
-224,-307,0,0,0,0,0,0,0,0,0,-1,1000,1331,0,0
-217,-307,0,0,0,0,0,0,0,0,0,-1,1007,1331,0,0
-210,-307,0,0,0,0,0,0,0,0,0,-1,1014,1331,0,0
-203,-307,0,0,0,0,0,0,0,0,0,-1,1021,1331,0,0
-196,-307,0,0,0,0,0,0,0,0,0,-1,1028,1331,0,0
-189,-307,0,0,0,0,0,0,0,0,0,-1,1035,1331,0,0
-182,-307,0,0,0,0,0,0,0,0,0,-1,1042,1331,0,0
-175,-307,0,0,0,0,0,0,0,0,0,-1,1049,1331,0,0
-168,-307,0,0,0,0,0,0,0,0,0,-1,1056,1331,0,0
-161,-307,0,0,0,0,0,0,0,0,0,-1,1063,1331,0,0
-154,-307,0,0,0,0,0,0,0,0,0,-1,1070,1331,0,0
-147,-307,0,0,0,0,0,0,0,0,0,-1,1077,1331,0,0
-140,-307,0,0,0,0,0,0,0,0,0,-1,1084,1331,0,0
-133,-307,0,0,0,0,0,0,0,0,0,-1,1091,1331,0,0
-126,-307,0,0,0,0,0,0,0,0,0,-1,1098,1331,0,0
-119,-307,0,0,0,0,0,0,0,0,0,-1,1105,1331,0,0
-112,-307,0,0,0,0,0,0,0,0,0,-1,1112,1331,0,0
-105,-307,0,0,0,0,0,0,0,0,0,-1,1119,1331,0,0
-98,-307,0,0,0,0,0,0,0,0,0,-1,1126,1331,0,0
-91,-307,0,0,0,0,0,0,0,0,0,-1,1133,1331,0,0
-84,-307,0,0,0,0,0,0,0,0,0,-1,1140,1331,0,0
-77,-307,0,0,0,0,0,0,0,0,0,-1,1147,1331,0,0
-70,-307,0,0,0,0,0,0,0,0,0,-1,1154,1331,0,0
-63,-307,0,0,0,0,0,0,0,0,0,-1,1161,1331,0,0
-56,-307,0,0,0,0,0,0,0,0,0,-1,1168,1331,0,0
-49,-307,0,0,0,0,0,0,0,0,0,-1,1175,1331,0,0
-42,-307,0,0,0,0,0,0,0,0,0,-1,1182,1331,0,0
-35,-307,0,0,0,0,0,0,0,0,0,-1,1189,1331,0,0
-28,-307,0,0,0,0,0,0,0,0,0,-1,1196,1331,0,0
-21,-307,0,0,0,0,0,0,0,0,0,-1,1203,1331,0,0
-14,-307,0,0,0,0,0,0,0,0,0,-1,1210,1331,0,0
-7,-307,0,0,0,0,0,0,0,0,0,-1,1217,1331,0,0
0,-307,0,0,0,0,0,0,0,0,0,-1,1224,1331,0,0
7,-307,0,0,0,0,0,0,0,0,0,-1,1231,1331,0,0
14,-307,0,0,0,0,0,0,0,0,0,-1,1238,1331,0,0
21,-307,0,0,0,0,0,0,0,0,0,-1,1245,1331,0,0
28,-307,0,0,0,0,0,0,0,0,0,-1,1252,1331,0,0
35,-307,0,0,0,0,0,0,0,0,0,-1,1259,1331,0,0
42,-307,0,0,0,0,0,0,0,0,0,-1,1266,1331,0,0
49,-307,0,0,0,0,0,0,0,0,0,-1,1273,1331,0,0
56,-307,0,0,0,0,0,0,0,0,0,-1,1280,1331,0,0
63,-307,0,0,0,0,0,0,0,0,0,-1,1287,1331,0,0
70,-307,0,0,0,0,0,0,0,0,0,-1,1294,1331,0,0
77,-307,0,0,0,0,0,0,0,0,0,-1,1301,1331,0,0
84,-307,0,0,0,0,0,0,0,0,0,-1,1308,1331,0,0
91,-307,0,0,0,0,0,0,0,0,0,-1,1315,1331,0,0
98,-307,0,0,0,0,0,0,0,0,0,-1,1322,1331,0,0
105,-307,0,0,0,0,0,0,0,0,0,-1,1329,1331,0,0
112,-307,0,0,0,0,0,0,0,0,0,-1,1336,1331,0,0
119,-307,0,0,0,0,0,0,0,0,0,-1,1343,1331,0,0
126,-307,0,0,0,0,0,0,0,0,0,-1,1350,1331,0,0
133,-307,0,0,0,0,0,0,0,0,0,-1,1357,1331,0,0
140,-307,0,0,0,0,0,0,0,0,0,-1,1364,1331,0,0
147,-307,0,0,0,0,0,0,0,0,0,-1,1371,1331,0,0
154,-307,0,0,0,0,0,0,0,0,0,-1,1378,1331,0,0
161,-307,0,0,0,0,0,0,0,0,0,-1,1385,1331,0,0
168,-307,0,0,0,0,0,0,0,0,0,-1,1392,1331,0,0
175,-307,0,0,0,0,0,0,0,0,0,-1,1399,1331,0,0
182,-307,0,0,0,0,0,0,0,0,0,-1,1406,1331,0,0
189,-307,0,0,0,0,0,0,0,0,0,-1,1413,1331,0,0
196,-307,0,0,0,0,0,0,0,0,0,-1,1420,1331,0,0
203,-307,0,0,0,0,0,0,0,0,0,-1,1427,1331,0,0
210,-307,0,0,0,0,0,0,0,0,0,-1,1434,1331,0,0
217,-307,0,0,0,0,0,0,0,0,0,-1,1441,1331,0,0
224,-307,0,0,0,0,0,0,0,0,0,-1,1448,1331,0,0
231,-307,0,0,0,0,0,0,0,0,0,-1,1455,1331,0,0
238,-307,0,0,0,0,0,0,0,0,0,-1,1462,1331,0,0
245,-307,0,0,0,0,0,0,0,0,0,-1,1469,1331,0,0
252,-307,0,0,0,0,0,0,0,0,0,-1,1476,1331,0,0
259,-307,0,0,0,0,0,0,0,0,0,-1,1483,1331,0,0
266,-307,0,0,0,0,0,0,0,0,0,-1,1490,1331,0,0
273,-307,0,0,0,0,0,0,0,0,0,-1,1497,1331,0,0
280,-307,0,0,0,0,0,0,0,0,0,-1,1504,1331,0,0
287,-307,0,0,0,0,0,0,0,0,0,-1,1511,1331,0,0
294,-307,0,0,0,0,0,0,0,0,0,-1,1518,1331,0,0
301,-307,0,0,0,0,0,0,0,0,0,-1,1525,1331,0,0
308,-307,0,0,0,0,0,0,0,0,0,-1,1532,1331,0,0
315,-307,0,0,0,0,0,0,0,0,0,-1,1539,1331,0,0
322,-307,0,0,0,0,0,0,0,0,0,-1,1546,1331,0,0
329,-307,0,0,0,0,0,0,0,0,0,-1,1553,1331,0,0
336,-307,0,0,0,0,0,0,0,0,0,-1,1560,1331,0,0
343,-307,0,0,0,0,0,0,0,0,0,-1,1567,1331,0,0
350,-307,0,0,0,0,0,0,0,0,0,-1,1574,1331,0,0
357,-307,0,0,0,0,0,0,0,0,0,-1,1581,1331,0,0
364,-307,0,0,0,0,0,0,0,0,0,-1,1588,1331,0,0
371,-307,0,0,0,0,0,0,0,0,0,-1,1595,1331,0,0
378,-307,0,0,0,0,0,0,0,0,0,-1,1602,1331,0,0
385,-307,0,0,0,0,0,0,0,0,0,-1,1609,1331,0,0
392,-307,0,0,0,0,0,0,0,0,0,-1,1616,1331,0,0
399,-307,0,0,0,0,0,0,0,0,0,-1,1623,1331,0,0
406,-307,0,0,0,0,0,0,0,0,0,-1,1630,1331,0,0
413,-307,0,0,0,0,0,0,0,0,0,-1,1637,1331,0,0
420,-307,0,0,0,0,0,0,0,0,0,-1,1644,1331,0,0
427,-307,0,0,0,0,0,0,0,0,0,-1,1651,1331,0,0
434,-307,0,0,0,0,0,0,0,0,0,-1,1658,1331,0,0
441,-307,0,0,0,0,0,0,0,0,0,-1,1665,1331,0,0
448,-307,0,0,0,0,0,0,0,0,0,-1,1672,1331,0,0
455,-307,0,0,0,0,0,0,0,0,0,-1,1679,1331,0,0
462,-307,0,0,0,0,0,0,0,0,0,-1,1686,1331,0,0
469,-307,0,0,0,0,0,0,0,0,0,-1,1693,1331,0,0
476,-307,0,0,0,0,0,0,0,0,0,-1,1700,1331,0,0
483,-307,0,0,0,0,0,0,0,0,0,-1,1707,1331,0,0
490,-307,0,0,0,0,0,0,0,0,0,-1,1714,1331,0,0
497,-307,0,0,0,0,0,0,0,0,0,-1,1721,1331,0,0
504,-307,0,0,0,0,0,0,0,0,0,-1,1728,1331,0,0
511,-307,0,0,0,0,0,0,0,0,0,-1,1735,1331,0,0
518,-307,0,0,0,0,0,0,0,0,0,-1,1742,1331,0,0
525,-307,0,0,0,0,0,0,0,0,0,-1,1749,1331,0,0
532,-307,0,0,0,0,0,0,0,0,0,-1,1756,1331,0,0
539,-307,0,0,0,0,0,0,0,0,0,-1,1763,1331,0,0
546,-307,0,0,0,0,0,0,0,0,0,-1,1770,1331,0,0
553,-307,0,0,0,0,0,0,0,0,0,-1,1777,1331,0,0
560,-307,0,0,0,0,0,0,0,0,0,-1,1784,1331,0,0
567,-307,0,0,0,0,0,0,0,0,0,-1,1791,1331,0,0
574,-307,0,0,0,0,0,0,0,0,0,-1,1798,1331,0,0
581,-307,0,0,0,0,0,0,0,0,0,-1,1805,1331,0,0
588,-307,61.8744,1.92188,0,0,0,0,0,0,0,-1,1812,1331,61.8744,-1.92191
595,-307,61.3059,1.68066,0,0,0,0,0,0,0,-1,1819,1331,61.3059,-1.68071
602,-307,60.7374,1.60144,0,0,0,0,0,0,0,-1,1826,1331,60.7374,-1.60147
609,-307,60.4161,1.03345,0,0,0,0,0,0,0,-1,1833,1331,60.4161,-1.03344
616,-307,53.2878,0.135498,0,0,0,0,0,0,0,-1,1840,1331,53.2878,-0.135477
623,-307,44.3966,2.84888,0,0,0,0,0,0,0,-1,1847,1331,44.3966,-2.84884
630,-307,29.8116,1.51184,0,0,0,0,0,0,0,-1,1854,1331,29.8116,-1.51188
637,-307,24.6407,4.09106,0,0,0,0,0,0,0,-1,1861,1331,24.6407,-4.09103
644,-307,22.6885,5.80408,0,0,0,0,0,0,0,-1,1868,1331,22.6884,-5.80408
651,-307,17.5013,5.80078,0,0,0,0,0,0,0,-1,1875,1331,17.5014,-5.80072
658,-307,37.4427,13.9775,0,0,0,0,0,0,0,-1,1882,1331,37.4427,-13.9776
665,-307,40.4,14.3477,0,0,0,0,0,0,0,-1,1889,1331,40.4001,-14.3477
672,-307,40.3746,13.8269,0.00129027,-0.000350551,-0.00127494,0.00198595,-0.00104624,-0.499506,0.00177844,0.0185856,1896,1331,40.3747,-13.8269
679,-307,40.3469,13.2169,0.000890961,0.000331977,-0.00059444,0.00126834,-4.53984e-05,-0.565645,0.000861089,0.0110703,1903,1331,40.3469,-13.217
686,-307,40.3318,12.5999,0.00126551,-0.000120663,-0.000308116,0.00133091,-0.000186064,-0.209159,0.000955354,0.0106356,1910,1331,40.3317,-12.5999
693,-307,40.3009,11.9808,0.000964681,-0.000327708,0.00012956,0.000977541,-0.000340568,0.0989365,0.000790075,0.0128071,1917,1331,40.3009,-11.9808
700,-307,40.2813,11.3439,0.00056982,-0.000586871,0.000662645,0.00087101,-0.000888061,0.426611,0.00101562,0.0147517,1924,1331,40.2812,-11.3439
707,-307,40.2778,10.7346,7.62965e-05,-0.000950193,0.00131718,0.00097669,-0.00185059,0.59962,0.00165812,0.0157209,1931,1331,40.2779,-10.7346
714,-307,40.2808,10.1829,-0.000576505,-0.00144491,0.00212189,0.00115515,-0.00317657,0.684477,0.0025901,0.0137224,1938,1331,40.2808,-10.1829
721,-307,40.2827,9.59888,-0.00142063,-0.00212469,0.00312433,0.00137144,-0.00491676,0.729298,0.00381799,0.0176751,1945,1331,40.2827,-9.59889
728,-307,40.2069,9.12671,-0.00251253,-0.00304212,0.0043522,0.00158292,-0.00713757,0.755015,0.00536444,0.0486809,1952,1331,40.2069,-9.12673
735,-307,40.2327,8.37915,0,0,0,0,0,0,0,-1,1959,1331,40.2326,-8.37915
742,-307,26.677,6.09192,0,0,0,0,0,0,0,-1,1966,1331,26.677,-6.0919
749,-307,26.7727,5.9032,0,0,0,0,0,0,0,-1,1973,1331,26.7727,-5.90323
756,-307,27.1556,5.74756,0,0,0,0,0,0,0,-1,1980,1331,27.1557,-5.7475
763,-307,18.7522,3.55298,0,0,0,0,0,0,0,-1,1987,1331,18.7522,-3.55301
770,-307,0,0,0,0,0,0,0,0,0,-1,1994,1331,0,0
777,-307,0,0,0,0,0,0,0,0,0,-1,2001,1331,0,0
784,-307,0,0,0,0,0,0,0,0,0,-1,2008,1331,0,0
791,-307,0,0,0,0,0,0,0,0,0,-1,2015,1331,0,0
798,-307,0,0,0,0,0,0,0,0,0,-1,2022,1331,0,0
805,-307,0,0,0,0,0,0,0,0,0,-1,2029,1331,0,0
812,-307,0,0,0,0,0,0,0,0,0,-1,2036,1331,0,0
-700,-314,0,0,0,0,0,0,0,0,0,-1,524,1338,0,0
-693,-314,0,0,0,0,0,0,0,0,0,-1,531,1338,0,0
-686,-314,0,0,0,0,0,0,0,0,0,-1,538,1338,0,0
-679,-314,0,0,0,0,0,0,0,0,0,-1,545,1338,0,0
-672,-314,0,0,0,0,0,0,0,0,0,-1,552,1338,0,0
-665,-314,0,0,0,0,0,0,0,0,0,-1,559,1338,0,0
-658,-314,0,0,0,0,0,0,0,0,0,-1,566,1338,0,0
-651,-314,0,0,0,0,0,0,0,0,0,-1,573,1338,0,0
-644,-314,-57.1674,9.05884,0,0,0,0,0,0,0,-1,580,1338,-57.1674,-9.05884
-637,-314,-58.369,7.97375,0,0,0,0,0,0,0,-1,587,1338,-58.369,-7.97376
-630,-314,-59.7463,6.72742,0,0,0,0,0,0,0,-1,594,1338,-59.7463,-6.72739
-623,-314,-13.3542,3.00903,0,0,0,0,0,0,0,-1,601,1338,-13.3542,-3.00907
-616,-314,-9.93311,1.15088,0,0,0,0,0,0,0,-1,608,1338,-9.93308,-1.15093
-609,-314,-9.4361,2.86292,0,0,0,0,0,0,0,-1,615,1338,-9.43612,-2.86286
-602,-314,-11.8027,2.42798,0,0,0,0,0,0,0,-1,622,1338,-11.8027,-2.42802
-595,-314,-23.7712,6.81445,0,0,0,0,0,0,0,-1,629,1338,-23.7712,-6.81445
-588,-314,-23.5748,7.5387,0.00135624,0.00329303,0.00238785,0.00490138,-0.000252107,0.97804,0.00335478,0.0350685,636,1338,-23.5748,-7.5387
-581,-314,-23.5087,8.2373,0.0016988,0.00237815,0.00137672,0.00345648,0.000620467,0.906346,0.00212787,0.0130948,643,1338,-23.5087,-8.23736
-574,-314,-23.5593,8.86279,0.00181246,0.00171236,0.0011098,0.00287333,0.000651484,0.762863,0.00173955,0.0130284,650,1338,-23.5593,-8.86275
-567,-314,-23.5676,9.53162,0.00214046,0.00119286,0.00103132,0.0028016,0.000531713,0.57007,0.00171815,0.0141135,657,1338,-23.5676,-9.53164
-560,-314,-23.5793,10.2062,0.002686,0.000745198,0.00110919,0.00318937,0.000241833,0.42602,0.00205039,0.01517,664,1338,-23.5793,-10.2062
-553,-314,-23.6385,10.8516,0.00346804,0.000431048,0.00137431,0.00399761,-9.85209e-05,0.367799,0.00269851,0.0173638,671,1338,-23.6385,-10.8516
-546,-314,-23.6992,11.5101,0.00449176,0.000160357,0.00180039,0.00514239,-0.000490265,0.346775,0.00360282,0.0185695,678,1338,-23.6992,-11.5101
-539,-314,-23.6932,12.1797,0.00585425,-3.86647e-05,0.00245059,0.00674015,-0.000924569,0.346889,0.0048312,0.0191158,685,1338,-23.6932,-12.1797
-532,-314,-23.6415,12.8129,0,0,0,0,0,0,0,-1,692,1338,-23.6415,-12.8129
-525,-314,-13.3017,7.50671,0,0,0,0,0,0,0,-1,699,1338,-13.3017,-7.50669
-518,-314,-8.52753,4.70032,0,0,0,0,0,0,0,-1,706,1338,-8.52755,-4.70034
-511,-314,-11.8597,0.384888,0,0,0,0,0,0,0,-1,713,1338,-11.8597,-0.384927
-504,-314,-11.4322,-0.187378,0,0,0,0,0,0,0,-1,720,1338,-11.4322,0.187381
-497,-314,-11.0047,-0.759644,0,0,0,0,0,0,0,-1,727,1338,-11.0047,0.759689
-490,-314,-18.5143,0.471069,0,0,0,0,0,0,0,-1,734,1338,-18.5143,-0.47103
-483,-314,-17.8528,0.577271,0,0,0,0,0,0,0,-1,741,1338,-17.8528,-0.577327
-476,-314,-17.714,0.665405,0,0,0,0,0,0,0,-1,748,1338,-17.714,-0.665388
-469,-314,-17.7246,0.794678,0,0,0,0,0,0,0,-1,755,1338,-17.7246,-0.794645
-462,-314,0,0,0,0,0,0,0,0,0,-1,762,1338,0,0
-455,-314,0,0,0,0,0,0,0,0,0,-1,769,1338,0,0
-448,-314,0,0,0,0,0,0,0,0,0,-1,776,1338,0,0
-441,-314,0,0,0,0,0,0,0,0,0,-1,783,1338,0,0
-434,-314,0,0,0,0,0,0,0,0,0,-1,790,1338,0,0
-427,-314,0,0,0,0,0,0,0,0,0,-1,797,1338,0,0
-420,-314,0,0,0,0,0,0,0,0,0,-1,804,1338,0,0
-413,-314,0,0,0,0,0,0,0,0,0,-1,811,1338,0,0
-406,-314,0,0,0,0,0,0,0,0,0,-1,818,1338,0,0
-399,-314,0,0,0,0,0,0,0,0,0,-1,825,1338,0,0
-392,-314,0,0,0,0,0,0,0,0,0,-1,832,1338,0,0
-385,-314,0,0,0,0,0,0,0,0,0,-1,839,1338,0,0
-378,-314,0,0,0,0,0,0,0,0,0,-1,846,1338,0,0
-371,-314,0,0,0,0,0,0,0,0,0,-1,853,1338,0,0
-364,-314,0,0,0,0,0,0,0,0,0,-1,860,1338,0,0
-357,-314,0,0,0,0,0,0,0,0,0,-1,867,1338,0,0
-350,-314,0,0,0,0,0,0,0,0,0,-1,874,1338,0,0
-343,-314,0,0,0,0,0,0,0,0,0,-1,881,1338,0,0
-336,-314,0,0,0,0,0,0,0,0,0,-1,888,1338,0,0
-329,-314,0,0,0,0,0,0,0,0,0,-1,895,1338,0,0
-322,-314,0,0,0,0,0,0,0,0,0,-1,902,1338,0,0
-315,-314,0,0,0,0,0,0,0,0,0,-1,909,1338,0,0
-308,-314,0,0,0,0,0,0,0,0,0,-1,916,1338,0,0
-301,-314,0,0,0,0,0,0,0,0,0,-1,923,1338,0,0
-294,-314,0,0,0,0,0,0,0,0,0,-1,930,1338,0,0
-287,-314,0,0,0,0,0,0,0,0,0,-1,937,1338,0,0
-280,-314,0,0,0,0,0,0,0,0,0,-1,944,1338,0,0
-273,-314,0,0,0,0,0,0,0,0,0,-1,951,1338,0,0
-266,-314,0,0,0,0,0,0,0,0,0,-1,958,1338,0,0
-259,-314,0,0,0,0,0,0,0,0,0,-1,965,1338,0,0
-252,-314,0,0,0,0,0,0,0,0,0,-1,972,1338,0,0
-245,-314,0,0,0,0,0,0,0,0,0,-1,979,1338,0,0
-238,-314,0,0,0,0,0,0,0,0,0,-1,986,1338,0,0
-231,-314,0,0,0,0,0,0,0,0,0,-1,993,1338,0,0
-224,-314,0,0,0,0,0,0,0,0,0,-1,1000,1338,0,0
-217,-314,0,0,0,0,0,0,0,0,0,-1,1007,1338,0,0
-210,-314,0,0,0,0,0,0,0,0,0,-1,1014,1338,0,0
-203,-314,0,0,0,0,0,0,0,0,0,-1,1021,1338,0,0
-196,-314,0,0,0,0,0,0,0,0,0,-1,1028,1338,0,0
-189,-314,0,0,0,0,0,0,0,0,0,-1,1035,1338,0,0
-182,-314,0,0,0,0,0,0,0,0,0,-1,1042,1338,0,0
-175,-314,0,0,0,0,0,0,0,0,0,-1,1049,1338,0,0
-168,-314,0,0,0,0,0,0,0,0,0,-1,1056,1338,0,0
-161,-314,0,0,0,0,0,0,0,0,0,-1,1063,1338,0,0
-154,-314,0,0,0,0,0,0,0,0,0,-1,1070,1338,0,0
-147,-314,0,0,0,0,0,0,0,0,0,-1,1077,1338,0,0
-140,-314,0,0,0,0,0,0,0,0,0,-1,1084,1338,0,0
-133,-314,0,0,0,0,0,0,0,0,0,-1,1091,1338,0,0
-126,-314,0,0,0,0,0,0,0,0,0,-1,1098,1338,0,0
-119,-314,0,0,0,0,0,0,0,0,0,-1,1105,1338,0,0
-112,-314,0,0,0,0,0,0,0,0,0,-1,1112,1338,0,0
-105,-314,0,0,0,0,0,0,0,0,0,-1,1119,1338,0,0
-98,-314,0,0,0,0,0,0,0,0,0,-1,1126,1338,0,0
-91,-314,0,0,0,0,0,0,0,0,0,-1,1133,1338,0,0
-84,-314,0,0,0,0,0,0,0,0,0,-1,1140,1338,0,0
-77,-314,0,0,0,0,0,0,0,0,0,-1,1147,1338,0,0
-70,-314,0,0,0,0,0,0,0,0,0,-1,1154,1338,0,0
-63,-314,0,0,0,0,0,0,0,0,0,-1,1161,1338,0,0
-56,-314,0,0,0,0,0,0,0,0,0,-1,1168,1338,0,0
-49,-314,0,0,0,0,0,0,0,0,0,-1,1175,1338,0,0
-42,-314,0,0,0,0,0,0,0,0,0,-1,1182,1338,0,0
-35,-314,0,0,0,0,0,0,0,0,0,-1,1189,1338,0,0
-28,-314,0,0,0,0,0,0,0,0,0,-1,1196,1338,0,0
-21,-314,0,0,0,0,0,0,0,0,0,-1,1203,1338,0,0
-14,-314,0,0,0,0,0,0,0,0,0,-1,1210,1338,0,0
-7,-314,0,0,0,0,0,0,0,0,0,-1,1217,1338,0,0
0,-314,0,0,0,0,0,0,0,0,0,-1,1224,1338,0,0
7,-314,0,0,0,0,0,0,0,0,0,-1,1231,1338,0,0
14,-314,0,0,0,0,0,0,0,0,0,-1,1238,1338,0,0
21,-314,0,0,0,0,0,0,0,0,0,-1,1245,1338,0,0
28,-314,0,0,0,0,0,0,0,0,0,-1,1252,1338,0,0
35,-314,0,0,0,0,0,0,0,0,0,-1,1259,1338,0,0
42,-314,0,0,0,0,0,0,0,0,0,-1,1266,1338,0,0
49,-314,0,0,0,0,0,0,0,0,0,-1,1273,1338,0,0
56,-314,0,0,0,0,0,0,0,0,0,-1,1280,1338,0,0
63,-314,0,0,0,0,0,0,0,0,0,-1,1287,1338,0,0
70,-314,0,0,0,0,0,0,0,0,0,-1,1294,1338,0,0
77,-314,0,0,0,0,0,0,0,0,0,-1,1301,1338,0,0
84,-314,0,0,0,0,0,0,0,0,0,-1,1308,1338,0,0
91,-314,0,0,0,0,0,0,0,0,0,-1,1315,1338,0,0
98,-314,0,0,0,0,0,0,0,0,0,-1,1322,1338,0,0
105,-314,0,0,0,0,0,0,0,0,0,-1,1329,1338,0,0
112,-314,0,0,0,0,0,0,0,0,0,-1,1336,1338,0,0
119,-314,0,0,0,0,0,0,0,0,0,-1,1343,1338,0,0
126,-314,0,0,0,0,0,0,0,0,0,-1,1350,1338,0,0
133,-314,0,0,0,0,0,0,0,0,0,-1,1357,1338,0,0
140,-314,0,0,0,0,0,0,0,0,0,-1,1364,1338,0,0
147,-314,0,0,0,0,0,0,0,0,0,-1,1371,1338,0,0
154,-314,0,0,0,0,0,0,0,0,0,-1,1378,1338,0,0
161,-314,0,0,0,0,0,0,0,0,0,-1,1385,1338,0,0
168,-314,0,0,0,0,0,0,0,0,0,-1,1392,1338,0,0
175,-314,0,0,0,0,0,0,0,0,0,-1,1399,1338,0,0
182,-314,0,0,0,0,0,0,0,0,0,-1,1406,1338,0,0
189,-314,0,0,0,0,0,0,0,0,0,-1,1413,1338,0,0
196,-314,0,0,0,0,0,0,0,0,0,-1,1420,1338,0,0
203,-314,0,0,0,0,0,0,0,0,0,-1,1427,1338,0,0
210,-314,0,0,0,0,0,0,0,0,0,-1,1434,1338,0,0
217,-314,0,0,0,0,0,0,0,0,0,-1,1441,1338,0,0
224,-314,0,0,0,0,0,0,0,0,0,-1,1448,1338,0,0
231,-314,0,0,0,0,0,0,0,0,0,-1,1455,1338,0,0
238,-314,0,0,0,0,0,0,0,0,0,-1,1462,1338,0,0
245,-314,0,0,0,0,0,0,0,0,0,-1,1469,1338,0,0
252,-314,0,0,0,0,0,0,0,0,0,-1,1476,1338,0,0
259,-314,0,0,0,0,0,0,0,0,0,-1,1483,1338,0,0
266,-314,0,0,0,0,0,0,0,0,0,-1,1490,1338,0,0
273,-314,0,0,0,0,0,0,0,0,0,-1,1497,1338,0,0
280,-314,0,0,0,0,0,0,0,0,0,-1,1504,1338,0,0
287,-314,0,0,0,0,0,0,0,0,0,-1,1511,1338,0,0
294,-314,0,0,0,0,0,0,0,0,0,-1,1518,1338,0,0
301,-314,0,0,0,0,0,0,0,0,0,-1,1525,1338,0,0
308,-314,0,0,0,0,0,0,0,0,0,-1,1532,1338,0,0
315,-314,0,0,0,0,0,0,0,0,0,-1,1539,1338,0,0
322,-314,0,0,0,0,0,0,0,0,0,-1,1546,1338,0,0
329,-314,0,0,0,0,0,0,0,0,0,-1,1553,1338,0,0
336,-314,0,0,0,0,0,0,0,0,0,-1,1560,1338,0,0
343,-314,0,0,0,0,0,0,0,0,0,-1,1567,1338,0,0
350,-314,0,0,0,0,0,0,0,0,0,-1,1574,1338,0,0
357,-314,0,0,0,0,0,0,0,0,0,-1,1581,1338,0,0
364,-314,0,0,0,0,0,0,0,0,0,-1,1588,1338,0,0
371,-314,0,0,0,0,0,0,0,0,0,-1,1595,1338,0,0
378,-314,0,0,0,0,0,0,0,0,0,-1,1602,1338,0,0
385,-314,0,0,0,0,0,0,0,0,0,-1,1609,1338,0,0
392,-314,0,0,0,0,0,0,0,0,0,-1,1616,1338,0,0
399,-314,0,0,0,0,0,0,0,0,0,-1,1623,1338,0,0
406,-314,0,0,0,0,0,0,0,0,0,-1,1630,1338,0,0
413,-314,0,0,0,0,0,0,0,0,0,-1,1637,1338,0,0
420,-314,0,0,0,0,0,0,0,0,0,-1,1644,1338,0,0
427,-314,0,0,0,0,0,0,0,0,0,-1,1651,1338,0,0
434,-314,0,0,0,0,0,0,0,0,0,-1,1658,1338,0,0
441,-314,0,0,0,0,0,0,0,0,0,-1,1665,1338,0,0
448,-314,0,0,0,0,0,0,0,0,0,-1,1672,1338,0,0
455,-314,0,0,0,0,0,0,0,0,0,-1,1679,1338,0,0
462,-314,0,0,0,0,0,0,0,0,0,-1,1686,1338,0,0
469,-314,0,0,0,0,0,0,0,0,0,-1,1693,1338,0,0
476,-314,0,0,0,0,0,0,0,0,0,-1,1700,1338,0,0
483,-314,0,0,0,0,0,0,0,0,0,-1,1707,1338,0,0
490,-314,0,0,0,0,0,0,0,0,0,-1,1714,1338,0,0
497,-314,0,0,0,0,0,0,0,0,0,-1,1721,1338,0,0
504,-314,0,0,0,0,0,0,0,0,0,-1,1728,1338,0,0
511,-314,0,0,0,0,0,0,0,0,0,-1,1735,1338,0,0
518,-314,0,0,0,0,0,0,0,0,0,-1,1742,1338,0,0
525,-314,0,0,0,0,0,0,0,0,0,-1,1749,1338,0,0
532,-314,0,0,0,0,0,0,0,0,0,-1,1756,1338,0,0
539,-314,0,0,0,0,0,0,0,0,0,-1,1763,1338,0,0
546,-314,0,0,0,0,0,0,0,0,0,-1,1770,1338,0,0
553,-314,0,0,0,0,0,0,0,0,0,-1,1777,1338,0,0
560,-314,0,0,0,0,0,0,0,0,0,-1,1784,1338,0,0
567,-314,0,0,0,0,0,0,0,0,0,-1,1791,1338,0,0
574,-314,0,0,0,0,0,0,0,0,0,-1,1798,1338,0,0
581,-314,61.8267,2.02466,0,0,0,0,0,0,0,-1,1805,1338,61.8267,-2.02467
588,-314,61.4409,1.81555,0,0,0,0,0,0,0,-1,1812,1338,61.441,-1.81552
595,-314,61.0155,1.63379,0,0,0,0,0,0,0,-1,1819,1338,61.0155,-1.63379
602,-314,60.5292,1.44434,0,0,0,0,0,0,0,-1,1826,1338,60.5292,-1.44435
609,-314,60.2225,1.27014,0,0,0,0,0,0,0,-1,1833,1338,60.2225,-1.27017
616,-314,48.1149,3.005,0,0,0,0,0,0,0,-1,1840,1338,48.1149,-3.00505
623,-314,38.7728,2.71741,0,0,0,0,0,0,0,-1,1847,1338,38.7728,-2.71737
630,-314,29.4308,6.23206,0,0,0,0,0,0,0,-1,1854,1338,29.4308,-6.23202
637,-314,22.1349,5.16418,0,0,0,0,0,0,0,-1,1861,1338,22.1349,-5.16414
644,-314,18.7517,6.2605,0,0,0,0,0,0,0,-1,1868,1338,18.7517,-6.26053
651,-314,23.1317,8.005,0,0,0,0,0,0,0,-1,1875,1338,23.1317,-8.00506
658,-314,39.8521,15.0767,0,0,0,0,0,0,0,-1,1882,1338,39.8521,-15.0767
665,-314,39.7638,14.4884,0.0025531,-0.000996078,-0.00170517,0.00323956,-0.00168254,-0.382726,0.00288878,0.0325633,1889,1338,39.7638,-14.4883
672,-314,39.7667,13.9021,0.00146987,-0.000444766,-0.00100691,0.00190191,-0.000876808,-0.40532,0.00164028,0.0138768,1896,1338,39.7667,-13.9021
679,-314,39.7494,13.2706,0.00105948,0.000111967,-0.000492719,0.00126925,-9.78105e-05,-0.402509,0.000880585,0.0107787,1903,1338,39.7494,-13.2706
686,-314,39.7052,12.6381,0.0011584,-0.00013226,-0.00021334,0.00119275,-0.00016661,-0.15964,0.000856128,0.0126266,1910,1338,39.7052,-12.638
693,-314,39.672,12.0016,0.000989101,-0.000319088,0.000159078,0.00100817,-0.000338154,0.119286,0.000808748,0.0130795,1917,1338,39.672,-12.0016
700,-314,39.6614,11.3765,0.000727452,-0.000568988,0.000635232,0.000986815,-0.000828352,0.387639,0.00104932,0.0146557,1924,1338,39.6614,-11.3765
707,-314,39.6649,10.7788,0.000350844,-0.00091556,0.00123528,0.00110576,-0.00167047,0.548561,0.00161387,0.0138762,1931,1338,39.6649,-10.7788
714,-314,39.6326,10.2104,-0.000206672,-0.00140677,0.00200495,0.0012861,-0.00289955,0.639998,0.00247571,0.0117188,1938,1338,39.6326,-10.2104
721,-314,39.6057,9.65405,-0.000988787,-0.00214001,0.00303649,0.00152617,-0.00465497,0.691728,0.00371796,0.0263464,1945,1338,39.6057,-9.65405
728,-314,39.8303,9.3075,0,0,0,0,0,0,0,-1,1952,1338,39.8303,-9.30753
735,-314,26.3665,6.21582,0,0,0,0,0,0,0,-1,1959,1338,26.3664,-6.21581
742,-314,26.2235,6.0166,0,0,0,0,0,0,0,-1,1966,1338,26.2235,-6.01662
749,-314,26.2223,5.47046,0,0,0,0,0,0,0,-1,1973,1338,26.2223,-5.47041
756,-314,24.2521,5.93408,0,0,0,0,0,0,0,-1,1980,1338,24.252,-5.93413
763,-314,19.2207,4.07239,0,0,0,0,0,0,0,-1,1987,1338,19.2206,-4.07239
770,-314,0,0,0,0,0,0,0,0,0,-1,1994,1338,0,0
777,-314,0,0,0,0,0,0,0,0,0,-1,2001,1338,0,0
784,-314,0,0,0,0,0,0,0,0,0,-1,2008,1338,0,0
791,-314,0,0,0,0,0,0,0,0,0,-1,2015,1338,0,0
798,-314,0,0,0,0,0,0,0,0,0,-1,2022,1338,0,0
805,-314,0,0,0,0,0,0,0,0,0,-1,2029,1338,0,0
812,-314,0,0,0,0,0,0,0,0,0,-1,2036,1338,0,0
-700,-321,0,0,0,0,0,0,0,0,0,-1,524,1345,0,0
-693,-321,0,0,0,0,0,0,0,0,0,-1,531,1345,0,0
-686,-321,0,0,0,0,0,0,0,0,0,-1,538,1345,0,0
-679,-321,0,0,0,0,0,0,0,0,0,-1,545,1345,0,0
-672,-321,0,0,0,0,0,0,0,0,0,-1,552,1345,0,0
-665,-321,0,0,0,0,0,0,0,0,0,-1,559,1345,0,0
-658,-321,0,0,0,0,0,0,0,0,0,-1,566,1345,0,0
-651,-321,0,0,0,0,0,0,0,0,0,-1,573,1345,0,0
-644,-321,-58.7329,10.2313,0,0,0,0,0,0,0,-1,580,1345,-58.7329,-10.2313
-637,-321,-59.9981,9.06421,0,0,0,0,0,0,0,-1,587,1345,-59.9981,-9.06417
-630,-321,-61.377,8.07166,0,0,0,0,0,0,0,-1,594,1345,-61.3769,-8.07168
-623,-321,-13.2242,3.14148,0,0,0,0,0,0,0,-1,601,1345,-13.2243,-3.14146
-616,-321,-11.6754,3.13794,0,0,0,0,0,0,0,-1,608,1345,-11.6754,-3.13789
-609,-321,-7.95209,1.14758,0,0,0,0,0,0,0,-1,615,1345,-7.95208,-1.14757
-602,-321,-8.85791,2.50049,0,0,0,0,0,0,0,-1,622,1345,-8.85791,-2.50048
-595,-321,-19.8463,5.36584,0,0,0,0,0,0,0,-1,629,1345,-19.8462,-5.36589
-588,-321,-23.0052,7.54187,0,0,0,0,0,0,0,-1,636,1345,-23.0052,-7.54189
-581,-321,-22.886,8.25134,0.0021192,0.00233172,0.00137321,0.00360278,0.000848138,0.824012,0.00217498,0.0140162,643,1345,-22.886,-8.25136
-574,-321,-22.9186,8.90845,0.00206293,0.00174893,0.0011074,0.0030244,0.000787455,0.71498,0.00181175,0.0157062,650,1345,-22.9186,-8.90851
-567,-321,-22.9162,9.59448,0.00225136,0.00127821,0.0010173,0.00289246,0.000637109,0.562327,0.00175492,0.0230495,657,1345,-22.9162,-9.59444
-560,-321,-22.9424,10.2859,0.00266238,0.000891647,0.00109043,0.00318162,0.000372409,0.444408,0.00200848,0.0267497,664,1345,-22.9425,-10.2858
-553,-321,-23.0065,10.8673,0.00330354,0.000573625,0.00131901,0.00383671,4.04492e-05,0.384141,0.00254443,0.0274236,671,1345,-23.0065,-10.8674
-546,-321,-23.0026,11.5254,0.00418118,0.00029331,0.00168579,0.00481033,-0.000335838,0.357198,0.00332449,0.0277629,678,1345,-23.0026,-11.5253
-539,-321,-23.0217,12.1829,0.00533305,0.000101196,0.00224023,0.00616121,-0.000726959,0.354093,0.00436999,0.0255022,685,1345,-23.0217,-12.1829
-532,-321,-22.8765,12.8517,0.00694069,-2.18347e-05,0.00299043,0.00804874,-0.00112989,0.35485,0.00577939,0.0363827,692,1345,-22.8765,-12.8516
-525,-321,-22.959,13.5582,0,0,0,0,0,0,0,-1,699,1345,-22.959,-13.5583
-518,-321,-10.3564,6.75696,0,0,0,0,0,0,0,-1,706,1345,-10.3564,-6.75694
-511,-321,-9.3302,5.29297,0,0,0,0,0,0,0,-1,713,1345,-9.33023,-5.29294
-504,-321,-10.4713,0.0145264,0,0,0,0,0,0,0,-1,720,1345,-10.4713,-0.0145296
-497,-321,-9.96771,0.313599,0,0,0,0,0,0,0,-1,727,1345,-9.96769,-0.313618
-490,-321,-10.7631,0.973511,0,0,0,0,0,0,0,-1,734,1345,-10.7631,-0.97353
-483,-321,-17.5908,0.2323,0,0,0,0,0,0,0,-1,741,1345,-17.5908,-0.232355
-476,-321,-17.2915,0.297363,0,0,0,0,0,0,0,-1,748,1345,-17.2915,-0.297342
-469,-321,-17.2441,0.478027,0,0,0,0,0,0,0,-1,755,1345,-17.2441,-0.477994
-462,-321,-17.1672,0.526489,0,0,0,0,0,0,0,-1,762,1345,-17.1672,-0.526533
-455,-321,0,0,0,0,0,0,0,0,0,-1,769,1345,0,0
-448,-321,0,0,0,0,0,0,0,0,0,-1,776,1345,0,0
-441,-321,0,0,0,0,0,0,0,0,0,-1,783,1345,0,0
-434,-321,0,0,0,0,0,0,0,0,0,-1,790,1345,0,0
-427,-321,0,0,0,0,0,0,0,0,0,-1,797,1345,0,0
-420,-321,0,0,0,0,0,0,0,0,0,-1,804,1345,0,0
-413,-321,0,0,0,0,0,0,0,0,0,-1,811,1345,0,0
-406,-321,0,0,0,0,0,0,0,0,0,-1,818,1345,0,0
-399,-321,0,0,0,0,0,0,0,0,0,-1,825,1345,0,0
-392,-321,0,0,0,0,0,0,0,0,0,-1,832,1345,0,0
-385,-321,0,0,0,0,0,0,0,0,0,-1,839,1345,0,0
-378,-321,0,0,0,0,0,0,0,0,0,-1,846,1345,0,0
-371,-321,0,0,0,0,0,0,0,0,0,-1,853,1345,0,0
-364,-321,0,0,0,0,0,0,0,0,0,-1,860,1345,0,0
-357,-321,0,0,0,0,0,0,0,0,0,-1,867,1345,0,0
-350,-321,0,0,0,0,0,0,0,0,0,-1,874,1345,0,0
-343,-321,0,0,0,0,0,0,0,0,0,-1,881,1345,0,0
-336,-321,0,0,0,0,0,0,0,0,0,-1,888,1345,0,0
-329,-321,0,0,0,0,0,0,0,0,0,-1,895,1345,0,0
-322,-321,0,0,0,0,0,0,0,0,0,-1,902,1345,0,0
-315,-321,0,0,0,0,0,0,0,0,0,-1,909,1345,0,0
-308,-321,0,0,0,0,0,0,0,0,0,-1,916,1345,0,0
-301,-321,0,0,0,0,0,0,0,0,0,-1,923,1345,0,0
-294,-321,0,0,0,0,0,0,0,0,0,-1,930,1345,0,0
-287,-321,0,0,0,0,0,0,0,0,0,-1,937,1345,0,0
-280,-321,0,0,0,0,0,0,0,0,0,-1,944,1345,0,0
-273,-321,0,0,0,0,0,0,0,0,0,-1,951,1345,0,0
-266,-321,0,0,0,0,0,0,0,0,0,-1,958,1345,0,0
-259,-321,0,0,0,0,0,0,0,0,0,-1,965,1345,0,0
-252,-321,0,0,0,0,0,0,0,0,0,-1,972,1345,0,0
-245,-321,0,0,0,0,0,0,0,0,0,-1,979,1345,0,0
-238,-321,0,0,0,0,0,0,0,0,0,-1,986,1345,0,0
-231,-321,0,0,0,0,0,0,0,0,0,-1,993,1345,0,0
-224,-321,0,0,0,0,0,0,0,0,0,-1,1000,1345,0,0
-217,-321,0,0,0,0,0,0,0,0,0,-1,1007,1345,0,0
-210,-321,0,0,0,0,0,0,0,0,0,-1,1014,1345,0,0
-203,-321,0,0,0,0,0,0,0,0,0,-1,1021,1345,0,0
-196,-321,0,0,0,0,0,0,0,0,0,-1,1028,1345,0,0
-189,-321,0,0,0,0,0,0,0,0,0,-1,1035,1345,0,0
-182,-321,0,0,0,0,0,0,0,0,0,-1,1042,1345,0,0
-175,-321,0,0,0,0,0,0,0,0,0,-1,1049,1345,0,0
-168,-321,0,0,0,0,0,0,0,0,0,-1,1056,1345,0,0
-161,-321,0,0,0,0,0,0,0,0,0,-1,1063,1345,0,0
-154,-321,0,0,0,0,0,0,0,0,0,-1,1070,1345,0,0
-147,-321,0,0,0,0,0,0,0,0,0,-1,1077,1345,0,0
-140,-321,0,0,0,0,0,0,0,0,0,-1,1084,1345,0,0
-133,-321,0,0,0,0,0,0,0,0,0,-1,1091,1345,0,0
-126,-321,0,0,0,0,0,0,0,0,0,-1,1098,1345,0,0
-119,-321,0,0,0,0,0,0,0,0,0,-1,1105,1345,0,0
-112,-321,0,0,0,0,0,0,0,0,0,-1,1112,1345,0,0
-105,-321,0,0,0,0,0,0,0,0,0,-1,1119,1345,0,0
-98,-321,0,0,0,0,0,0,0,0,0,-1,1126,1345,0,0
-91,-321,0,0,0,0,0,0,0,0,0,-1,1133,1345,0,0
-84,-321,0,0,0,0,0,0,0,0,0,-1,1140,1345,0,0
-77,-321,0,0,0,0,0,0,0,0,0,-1,1147,1345,0,0
-70,-321,0,0,0,0,0,0,0,0,0,-1,1154,1345,0,0
-63,-321,0,0,0,0,0,0,0,0,0,-1,1161,1345,0,0
-56,-321,0,0,0,0,0,0,0,0,0,-1,1168,1345,0,0
-49,-321,0,0,0,0,0,0,0,0,0,-1,1175,1345,0,0
-42,-321,0,0,0,0,0,0,0,0,0,-1,1182,1345,0,0
-35,-321,0,0,0,0,0,0,0,0,0,-1,1189,1345,0,0
-28,-321,0,0,0,0,0,0,0,0,0,-1,1196,1345,0,0
-21,-321,0,0,0,0,0,0,0,0,0,-1,1203,1345,0,0
-14,-321,0,0,0,0,0,0,0,0,0,-1,1210,1345,0,0
-7,-321,0,0,0,0,0,0,0,0,0,-1,1217,1345,0,0
0,-321,0,0,0,0,0,0,0,0,0,-1,1224,1345,0,0
7,-321,0,0,0,0,0,0,0,0,0,-1,1231,1345,0,0
14,-321,0,0,0,0,0,0,0,0,0,-1,1238,1345,0,0
21,-321,0,0,0,0,0,0,0,0,0,-1,1245,1345,0,0
28,-321,0,0,0,0,0,0,0,0,0,-1,1252,1345,0,0
35,-321,0,0,0,0,0,0,0,0,0,-1,1259,1345,0,0
42,-321,0,0,0,0,0,0,0,0,0,-1,1266,1345,0,0
49,-321,0,0,0,0,0,0,0,0,0,-1,1273,1345,0,0
56,-321,0,0,0,0,0,0,0,0,0,-1,1280,1345,0,0
63,-321,0,0,0,0,0,0,0,0,0,-1,1287,1345,0,0
70,-321,0,0,0,0,0,0,0,0,0,-1,1294,1345,0,0
77,-321,0,0,0,0,0,0,0,0,0,-1,1301,1345,0,0
84,-321,0,0,0,0,0,0,0,0,0,-1,1308,1345,0,0
91,-321,0,0,0,0,0,0,0,0,0,-1,1315,1345,0,0
98,-321,0,0,0,0,0,0,0,0,0,-1,1322,1345,0,0
105,-321,0,0,0,0,0,0,0,0,0,-1,1329,1345,0,0
112,-321,0,0,0,0,0,0,0,0,0,-1,1336,1345,0,0
119,-321,0,0,0,0,0,0,0,0,0,-1,1343,1345,0,0
126,-321,0,0,0,0,0,0,0,0,0,-1,1350,1345,0,0
133,-321,0,0,0,0,0,0,0,0,0,-1,1357,1345,0,0
140,-321,0,0,0,0,0,0,0,0,0,-1,1364,1345,0,0
147,-321,0,0,0,0,0,0,0,0,0,-1,1371,1345,0,0
154,-321,0,0,0,0,0,0,0,0,0,-1,1378,1345,0,0
161,-321,0,0,0,0,0,0,0,0,0,-1,1385,1345,0,0
168,-321,0,0,0,0,0,0,0,0,0,-1,1392,1345,0,0
175,-321,0,0,0,0,0,0,0,0,0,-1,1399,1345,0,0
182,-321,0,0,0,0,0,0,0,0,0,-1,1406,1345,0,0
189,-321,0,0,0,0,0,0,0,0,0,-1,1413,1345,0,0
196,-321,0,0,0,0,0,0,0,0,0,-1,1420,1345,0,0
203,-321,0,0,0,0,0,0,0,0,0,-1,1427,1345,0,0
210,-321,0,0,0,0,0,0,0,0,0,-1,1434,1345,0,0
217,-321,0,0,0,0,0,0,0,0,0,-1,1441,1345,0,0
224,-321,0,0,0,0,0,0,0,0,0,-1,1448,1345,0,0
231,-321,0,0,0,0,0,0,0,0,0,-1,1455,1345,0,0
238,-321,0,0,0,0,0,0,0,0,0,-1,1462,1345,0,0
245,-321,0,0,0,0,0,0,0,0,0,-1,1469,1345,0,0
252,-321,0,0,0,0,0,0,0,0,0,-1,1476,1345,0,0
259,-321,0,0,0,0,0,0,0,0,0,-1,1483,1345,0,0
266,-321,0,0,0,0,0,0,0,0,0,-1,1490,1345,0,0
273,-321,0,0,0,0,0,0,0,0,0,-1,1497,1345,0,0
280,-321,0,0,0,0,0,0,0,0,0,-1,1504,1345,0,0
287,-321,0,0,0,0,0,0,0,0,0,-1,1511,1345,0,0
294,-321,0,0,0,0,0,0,0,0,0,-1,1518,1345,0,0
301,-321,0,0,0,0,0,0,0,0,0,-1,1525,1345,0,0
308,-321,0,0,0,0,0,0,0,0,0,-1,1532,1345,0,0
315,-321,0,0,0,0,0,0,0,0,0,-1,1539,1345,0,0
322,-321,0,0,0,0,0,0,0,0,0,-1,1546,1345,0,0
329,-321,0,0,0,0,0,0,0,0,0,-1,1553,1345,0,0
336,-321,0,0,0,0,0,0,0,0,0,-1,1560,1345,0,0
343,-321,0,0,0,0,0,0,0,0,0,-1,1567,1345,0,0
350,-321,0,0,0,0,0,0,0,0,0,-1,1574,1345,0,0
357,-321,0,0,0,0,0,0,0,0,0,-1,1581,1345,0,0
364,-321,0,0,0,0,0,0,0,0,0,-1,1588,1345,0,0
371,-321,0,0,0,0,0,0,0,0,0,-1,1595,1345,0,0
378,-321,0,0,0,0,0,0,0,0,0,-1,1602,1345,0,0
385,-321,0,0,0,0,0,0,0,0,0,-1,1609,1345,0,0
392,-321,0,0,0,0,0,0,0,0,0,-1,1616,1345,0,0
399,-321,0,0,0,0,0,0,0,0,0,-1,1623,1345,0,0
406,-321,0,0,0,0,0,0,0,0,0,-1,1630,1345,0,0
413,-321,0,0,0,0,0,0,0,0,0,-1,1637,1345,0,0
420,-321,0,0,0,0,0,0,0,0,0,-1,1644,1345,0,0
427,-321,0,0,0,0,0,0,0,0,0,-1,1651,1345,0,0
434,-321,0,0,0,0,0,0,0,0,0,-1,1658,1345,0,0
441,-321,0,0,0,0,0,0,0,0,0,-1,1665,1345,0,0
448,-321,0,0,0,0,0,0,0,0,0,-1,1672,1345,0,0
455,-321,0,0,0,0,0,0,0,0,0,-1,1679,1345,0,0
462,-321,0,0,0,0,0,0,0,0,0,-1,1686,1345,0,0
469,-321,0,0,0,0,0,0,0,0,0,-1,1693,1345,0,0
476,-321,0,0,0,0,0,0,0,0,0,-1,1700,1345,0,0
483,-321,0,0,0,0,0,0,0,0,0,-1,1707,1345,0,0
490,-321,0,0,0,0,0,0,0,0,0,-1,1714,1345,0,0
497,-321,0,0,0,0,0,0,0,0,0,-1,1721,1345,0,0
504,-321,0,0,0,0,0,0,0,0,0,-1,1728,1345,0,0
511,-321,0,0,0,0,0,0,0,0,0,-1,1735,1345,0,0
518,-321,0,0,0,0,0,0,0,0,0,-1,1742,1345,0,0
525,-321,0,0,0,0,0,0,0,0,0,-1,1749,1345,0,0
532,-321,0,0,0,0,0,0,0,0,0,-1,1756,1345,0,0
539,-321,0,0,0,0,0,0,0,0,0,-1,1763,1345,0,0
546,-321,0,0,0,0,0,0,0,0,0,-1,1770,1345,0,0
553,-321,0,0,0,0,0,0,0,0,0,-1,1777,1345,0,0
560,-321,0,0,0,0,0,0,0,0,0,-1,1784,1345,0,0
567,-321,0,0,0,0,0,0,0,0,0,-1,1791,1345,0,0
574,-321,0,0,0,0,0,0,0,0,0,-1,1798,1345,0,0
581,-321,59.2018,1.7915,0,0,0,0,0,0,0,-1,1805,1345,59.2017,-1.79155
588,-321,61.1644,1.78894,0,0,0,0,0,0,0,-1,1812,1345,61.1644,-1.78899
595,-321,60.7913,1.61035,0,0,0,0,0,0,0,-1,1819,1345,60.7913,-1.61039
602,-321,60.3523,1.24133,0,0,0,0,0,0,0,-1,1826,1345,60.3523,-1.2413
609,-321,48.311,3.39575,0,0,0,0,0,0,0,-1,1833,1345,48.311,-3.39571
616,-321,37.8107,2.58704,0,0,0,0,0,0,0,-1,1840,1345,37.8106,-2.58705
623,-321,37.6854,3.68933,0,0,0,0,0,0,0,-1,1847,1345,37.6854,-3.68931
630,-321,23.6674,4.34106,0,0,0,0,0,0,0,-1,1854,1345,23.6674,-4.34112
637,-321,21.7925,6.79224,0,0,0,0,0,0,0,-1,1861,1345,21.7925,-6.7922
644,-321,16.8844,6.71973,0,0,0,0,0,0,0,-1,1868,1345,16.8844,-6.71971
651,-321,27.4924,10.0319,0,0,0,0,0,0,0,-1,1875,1345,27.4924,-10.0319
658,-321,39.1377,15.1041,0,0,0,0,0,0,0,-1,1882,1345,39.1377,-15.1041
665,-321,39.1575,14.5161,0.00213404,-0.000735106,-0.000967632,0.00242988,-0.00103094,-0.296706,0.0020518,0.0246338,1889,1345,39.1574,-14.5161
672,-321,39.1606,13.9169,0.00126964,-0.000288891,-0.000604685,0.00147673,-0.000495982,-0.329957,0.00118493,0.0143085,1896,1345,39.1606,-13.9169
679,-321,39.1533,13.3009,0.00100763,5.47346e-05,-0.000397648,0.00115176,-8.94036e-05,-0.347747,0.000799312,0.0122692,1903,1345,39.1533,-13.3009
686,-321,39.0858,12.6832,0.00112168,-5.49851e-05,-0.000202856,0.00115567,-8.89754e-05,-0.166016,0.000801756,0.0129405,1910,1345,39.0858,-12.6832
693,-321,39.0486,12.0712,0.0011343,-0.000203602,7.56007e-05,0.00113856,-0.00020786,0.0562683,0.000836972,0.0135152,1917,1345,39.0485,-12.0711
700,-321,39.0571,11.4503,0.00105078,-0.000403952,0.000451783,0.00117966,-0.000532839,0.277903,0.00101195,0.0139295,1924,1345,39.0571,-11.4503
707,-321,39.0536,10.8329,0.000831563,-0.000688915,0.000955773,0.00129258,-0.00114993,0.449428,0.00141099,0.0148741,1931,1345,39.0536,-10.8329
714,-321,39.0156,10.2234,0.000405436,-0.00111263,0.00163785,0.00145158,-0.00215878,0.568414,0.00209773,0.0136983,1938,1345,39.0156,-10.2234
721,-321,38.9684,9.61694,-0.000283226,-0.00181663,0.00264375,0.00170275,-0.00380261,0.644267,0.00325467,0.041681,1945,1345,38.9684,-9.61689
728,-321,38.9844,9.06519,0,0,0,0,0,0,0,-1,1952,1345,38.9844,-9.06517
735,-321,22.0081,5.65479,0,0,0,0,0,0,0,-1,1959,1345,22.008,-5.65481
742,-321,24.5398,5.05725,0,0,0,0,0,0,0,-1,1966,1345,24.5398,-5.05729
749,-321,24.0675,5.4458,0,0,0,0,0,0,0,-1,1973,1345,24.0675,-5.44581
756,-321,19.6251,4.98315,0,0,0,0,0,0,0,-1,1980,1345,19.6251,-4.98311
763,-321,19.6747,4.61438,0,0,0,0,0,0,0,-1,1987,1345,19.6747,-4.61436
770,-321,0,0,0,0,0,0,0,0,0,-1,1994,1345,0,0
777,-321,0,0,0,0,0,0,0,0,0,-1,2001,1345,0,0
784,-321,0,0,0,0,0,0,0,0,0,-1,2008,1345,0,0
791,-321,0,0,0,0,0,0,0,0,0,-1,2015,1345,0,0
798,-321,0,0,0,0,0,0,0,0,0,-1,2022,1345,0,0
805,-321,0,0,0,0,0,0,0,0,0,-1,2029,1345,0,0
812,-321,0,0,0,0,0,0,0,0,0,-1,2036,1345,0,0
-700,-328,0,0,0,0,0,0,0,0,0,-1,524,1352,0,0
-693,-328,0,0,0,0,0,0,0,0,0,-1,531,1352,0,0
-686,-328,0,0,0,0,0,0,0,0,0,-1,538,1352,0,0
-679,-328,0,0,0,0,0,0,0,0,0,-1,545,1352,0,0
-672,-328,0,0,0,0,0,0,0,0,0,-1,552,1352,0,0
-665,-328,0,0,0,0,0,0,0,0,0,-1,559,1352,0,0
-658,-328,0,0,0,0,0,0,0,0,0,-1,566,1352,0,0
-651,-328,0,0,0,0,0,0,0,0,0,-1,573,1352,0,0
-644,-328,0,0,0,0,0,0,0,0,0,-1,580,1352,0,0
-637,-328,-61.3883,10.1125,0,0,0,0,0,0,0,-1,587,1352,-61.3883,-10.1126
-630,-328,-62.8012,9.14563,0,0,0,0,0,0,0,-1,594,1352,-62.8012,-9.14564
-623,-328,-10.7739,4.55042,0,0,0,0,0,0,0,-1,601,1352,-10.7739,-4.55041
-616,-328,-8.22198,-0.25708,0,0,0,0,0,0,0,-1,608,1352,-8.22201,0.257067
-609,-328,-7.87439,0.192871,0,0,0,0,0,0,0,-1,615,1352,-7.87441,-0.192822
-602,-328,-7.63062,1.31665,0,0,0,0,0,0,0,-1,622,1352,-7.63064,-1.3166
-595,-328,-9.42639,2.93494,0,0,0,0,0,0,0,-1,629,1352,-9.42638,-2.93499
-588,-328,-22.4009,7.34521,0,0,0,0,0,0,0,-1,636,1352,-22.4009,-7.34527
-581,-328,-22.2684,8.2135,0.00266123,0.00261906,0.00162625,0.00426653,0.00101376,0.778917,0.00257386,0.0277681,643,1352,-22.2684,-8.21349
-574,-328,-22.2621,8.93359,0.00235103,0.0019398,0.00127205,0.00343397,0.00085686,0.705271,0.00206386,0.0154325,650,1352,-22.2621,-8.93356
-567,-328,-22.2708,9.60913,0.00234451,0.00141042,0.00111867,0.00308972,0.000665211,0.58765,0.00187777,0.0211307,657,1352,-22.2708,-9.60916
-560,-328,-22.2989,10.2892,0.00258906,0.000994241,0.00114626,0.003188,0.000395305,0.481494,0.00200659,0.0277431,664,1352,-22.2989,-10.2892
-553,-328,-22.3403,10.9113,0.00305481,0.000654803,0.00132111,0.00363956,7.00515e-05,0.4167,0.00240336,0.0291315,671,1352,-22.3403,-10.9112
-546,-328,-22.3484,11.5488,0.00376268,0.00037141,0.00163094,0.00441973,-0.00028564,0.382976,0.00304617,0.0283234,678,1352,-22.3485,-11.5489
-539,-328,-22.3794,12.2124,0.00470386,0.00018337,0.00209602,0.00552615,-0.000638919,0.373859,0.00391449,0.0240915,685,1352,-22.3794,-12.2124
-532,-328,-22.4061,12.8823,0.00599638,6.79869e-05,0.00272222,0.00705673,-0.00099236,0.371435,0.00506776,0.0192944,692,1352,-22.4061,-12.8823
-525,-328,-22.3962,13.6006,0.00762952,-0.000115478,0.00347791,0.00896203,-0.00144799,0.365883,0.00651124,0.033765,699,1352,-22.3962,-13.6006
-518,-328,-22.4638,14.309,0,0,0,0,0,0,0,-1,706,1352,-22.4638,-14.309
-511,-328,-9.39868,7.16113,0,0,0,0,0,0,0,-1,713,1352,-9.39869,-7.16113
-504,-328,-8.60626,-0.905762,0,0,0,0,0,0,0,-1,720,1352,-8.60623,0.905787
-497,-328,-9.29102,-0.0517578,0,0,0,0,0,0,0,-1,727,1352,-9.29104,0.0518175
-490,-328,-10.0663,0.882813,0,0,0,0,0,0,0,-1,734,1352,-10.0663,-0.882795
-483,-328,-10.8181,1.72375,0,0,0,0,0,0,0,-1,741,1352,-10.8181,-1.72374
-476,-328,-16.8951,-0.150757,0,0,0,0,0,0,0,-1,748,1352,-16.8951,0.150795
-469,-328,-16.8412,0.00158691,0,0,0,0,0,0,0,-1,755,1352,-16.8412,-0.00161515
-462,-328,-16.3546,-0.203491,0,0,0,0,0,0,0,-1,762,1352,-16.3545,0.203532
-455,-328,0,0,0,0,0,0,0,0,0,-1,769,1352,0,0
-448,-328,0,0,0,0,0,0,0,0,0,-1,776,1352,0,0
-441,-328,0,0,0,0,0,0,0,0,0,-1,783,1352,0,0
-434,-328,0,0,0,0,0,0,0,0,0,-1,790,1352,0,0
-427,-328,0,0,0,0,0,0,0,0,0,-1,797,1352,0,0
-420,-328,0,0,0,0,0,0,0,0,0,-1,804,1352,0,0
-413,-328,0,0,0,0,0,0,0,0,0,-1,811,1352,0,0
-406,-328,0,0,0,0,0,0,0,0,0,-1,818,1352,0,0
-399,-328,0,0,0,0,0,0,0,0,0,-1,825,1352,0,0
-392,-328,0,0,0,0,0,0,0,0,0,-1,832,1352,0,0
-385,-328,0,0,0,0,0,0,0,0,0,-1,839,1352,0,0
-378,-328,0,0,0,0,0,0,0,0,0,-1,846,1352,0,0
-371,-328,0,0,0,0,0,0,0,0,0,-1,853,1352,0,0
-364,-328,0,0,0,0,0,0,0,0,0,-1,860,1352,0,0
-357,-328,0,0,0,0,0,0,0,0,0,-1,867,1352,0,0
-350,-328,0,0,0,0,0,0,0,0,0,-1,874,1352,0,0
-343,-328,0,0,0,0,0,0,0,0,0,-1,881,1352,0,0
-336,-328,0,0,0,0,0,0,0,0,0,-1,888,1352,0,0
-329,-328,0,0,0,0,0,0,0,0,0,-1,895,1352,0,0
-322,-328,0,0,0,0,0,0,0,0,0,-1,902,1352,0,0
-315,-328,0,0,0,0,0,0,0,0,0,-1,909,1352,0,0
-308,-328,0,0,0,0,0,0,0,0,0,-1,916,1352,0,0
-301,-328,0,0,0,0,0,0,0,0,0,-1,923,1352,0,0
-294,-328,0,0,0,0,0,0,0,0,0,-1,930,1352,0,0
-287,-328,0,0,0,0,0,0,0,0,0,-1,937,1352,0,0
-280,-328,0,0,0,0,0,0,0,0,0,-1,944,1352,0,0
-273,-328,0,0,0,0,0,0,0,0,0,-1,951,1352,0,0
-266,-328,0,0,0,0,0,0,0,0,0,-1,958,1352,0,0
-259,-328,0,0,0,0,0,0,0,0,0,-1,965,1352,0,0
-252,-328,0,0,0,0,0,0,0,0,0,-1,972,1352,0,0
-245,-328,0,0,0,0,0,0,0,0,0,-1,979,1352,0,0
-238,-328,0,0,0,0,0,0,0,0,0,-1,986,1352,0,0
-231,-328,0,0,0,0,0,0,0,0,0,-1,993,1352,0,0
-224,-328,0,0,0,0,0,0,0,0,0,-1,1000,1352,0,0
-217,-328,0,0,0,0,0,0,0,0,0,-1,1007,1352,0,0
-210,-328,0,0,0,0,0,0,0,0,0,-1,1014,1352,0,0
-203,-328,0,0,0,0,0,0,0,0,0,-1,1021,1352,0,0
-196,-328,0,0,0,0,0,0,0,0,0,-1,1028,1352,0,0
-189,-328,0,0,0,0,0,0,0,0,0,-1,1035,1352,0,0
-182,-328,0,0,0,0,0,0,0,0,0,-1,1042,1352,0,0
-175,-328,0,0,0,0,0,0,0,0,0,-1,1049,1352,0,0
-168,-328,0,0,0,0,0,0,0,0,0,-1,1056,1352,0,0
-161,-328,0,0,0,0,0,0,0,0,0,-1,1063,1352,0,0
-154,-328,0,0,0,0,0,0,0,0,0,-1,1070,1352,0,0
-147,-328,0,0,0,0,0,0,0,0,0,-1,1077,1352,0,0
-140,-328,0,0,0,0,0,0,0,0,0,-1,1084,1352,0,0
-133,-328,0,0,0,0,0,0,0,0,0,-1,1091,1352,0,0
-126,-328,0,0,0,0,0,0,0,0,0,-1,1098,1352,0,0
-119,-328,0,0,0,0,0,0,0,0,0,-1,1105,1352,0,0
-112,-328,0,0,0,0,0,0,0,0,0,-1,1112,1352,0,0
-105,-328,0,0,0,0,0,0,0,0,0,-1,1119,1352,0,0
-98,-328,0,0,0,0,0,0,0,0,0,-1,1126,1352,0,0
-91,-328,0,0,0,0,0,0,0,0,0,-1,1133,1352,0,0
-84,-328,0,0,0,0,0,0,0,0,0,-1,1140,1352,0,0
-77,-328,0,0,0,0,0,0,0,0,0,-1,1147,1352,0,0
-70,-328,0,0,0,0,0,0,0,0,0,-1,1154,1352,0,0
-63,-328,0,0,0,0,0,0,0,0,0,-1,1161,1352,0,0
-56,-328,0,0,0,0,0,0,0,0,0,-1,1168,1352,0,0
-49,-328,0,0,0,0,0,0,0,0,0,-1,1175,1352,0,0
-42,-328,0,0,0,0,0,0,0,0,0,-1,1182,1352,0,0
-35,-328,0,0,0,0,0,0,0,0,0,-1,1189,1352,0,0
-28,-328,0,0,0,0,0,0,0,0,0,-1,1196,1352,0,0
-21,-328,0,0,0,0,0,0,0,0,0,-1,1203,1352,0,0
-14,-328,0,0,0,0,0,0,0,0,0,-1,1210,1352,0,0
-7,-328,0,0,0,0,0,0,0,0,0,-1,1217,1352,0,0
0,-328,0,0,0,0,0,0,0,0,0,-1,1224,1352,0,0
7,-328,0,0,0,0,0,0,0,0,0,-1,1231,1352,0,0
14,-328,0,0,0,0,0,0,0,0,0,-1,1238,1352,0,0
21,-328,0,0,0,0,0,0,0,0,0,-1,1245,1352,0,0
28,-328,0,0,0,0,0,0,0,0,0,-1,1252,1352,0,0
35,-328,0,0,0,0,0,0,0,0,0,-1,1259,1352,0,0
42,-328,0,0,0,0,0,0,0,0,0,-1,1266,1352,0,0
49,-328,0,0,0,0,0,0,0,0,0,-1,1273,1352,0,0
56,-328,0,0,0,0,0,0,0,0,0,-1,1280,1352,0,0
63,-328,0,0,0,0,0,0,0,0,0,-1,1287,1352,0,0
70,-328,0,0,0,0,0,0,0,0,0,-1,1294,1352,0,0
77,-328,0,0,0,0,0,0,0,0,0,-1,1301,1352,0,0
84,-328,0,0,0,0,0,0,0,0,0,-1,1308,1352,0,0
91,-328,0,0,0,0,0,0,0,0,0,-1,1315,1352,0,0
98,-328,0,0,0,0,0,0,0,0,0,-1,1322,1352,0,0
105,-328,0,0,0,0,0,0,0,0,0,-1,1329,1352,0,0
112,-328,0,0,0,0,0,0,0,0,0,-1,1336,1352,0,0
119,-328,0,0,0,0,0,0,0,0,0,-1,1343,1352,0,0
126,-328,0,0,0,0,0,0,0,0,0,-1,1350,1352,0,0
133,-328,0,0,0,0,0,0,0,0,0,-1,1357,1352,0,0
140,-328,0,0,0,0,0,0,0,0,0,-1,1364,1352,0,0
147,-328,0,0,0,0,0,0,0,0,0,-1,1371,1352,0,0
154,-328,0,0,0,0,0,0,0,0,0,-1,1378,1352,0,0
161,-328,0,0,0,0,0,0,0,0,0,-1,1385,1352,0,0
168,-328,0,0,0,0,0,0,0,0,0,-1,1392,1352,0,0
175,-328,0,0,0,0,0,0,0,0,0,-1,1399,1352,0,0
182,-328,0,0,0,0,0,0,0,0,0,-1,1406,1352,0,0
189,-328,0,0,0,0,0,0,0,0,0,-1,1413,1352,0,0
196,-328,0,0,0,0,0,0,0,0,0,-1,1420,1352,0,0
203,-328,0,0,0,0,0,0,0,0,0,-1,1427,1352,0,0
210,-328,0,0,0,0,0,0,0,0,0,-1,1434,1352,0,0
217,-328,0,0,0,0,0,0,0,0,0,-1,1441,1352,0,0
224,-328,0,0,0,0,0,0,0,0,0,-1,1448,1352,0,0
231,-328,0,0,0,0,0,0,0,0,0,-1,1455,1352,0,0
238,-328,0,0,0,0,0,0,0,0,0,-1,1462,1352,0,0
245,-328,0,0,0,0,0,0,0,0,0,-1,1469,1352,0,0
252,-328,0,0,0,0,0,0,0,0,0,-1,1476,1352,0,0
259,-328,0,0,0,0,0,0,0,0,0,-1,1483,1352,0,0
266,-328,0,0,0,0,0,0,0,0,0,-1,1490,1352,0,0
273,-328,0,0,0,0,0,0,0,0,0,-1,1497,1352,0,0
280,-328,0,0,0,0,0,0,0,0,0,-1,1504,1352,0,0
287,-328,0,0,0,0,0,0,0,0,0,-1,1511,1352,0,0
294,-328,0,0,0,0,0,0,0,0,0,-1,1518,1352,0,0
301,-328,0,0,0,0,0,0,0,0,0,-1,1525,1352,0,0
308,-328,0,0,0,0,0,0,0,0,0,-1,1532,1352,0,0
315,-328,0,0,0,0,0,0,0,0,0,-1,1539,1352,0,0
322,-328,0,0,0,0,0,0,0,0,0,-1,1546,1352,0,0
329,-328,0,0,0,0,0,0,0,0,0,-1,1553,1352,0,0
336,-328,0,0,0,0,0,0,0,0,0,-1,1560,1352,0,0
343,-328,0,0,0,0,0,0,0,0,0,-1,1567,1352,0,0
350,-328,0,0,0,0,0,0,0,0,0,-1,1574,1352,0,0
357,-328,0,0,0,0,0,0,0,0,0,-1,1581,1352,0,0
364,-328,0,0,0,0,0,0,0,0,0,-1,1588,1352,0,0
371,-328,0,0,0,0,0,0,0,0,0,-1,1595,1352,0,0
378,-328,0,0,0,0,0,0,0,0,0,-1,1602,1352,0,0
385,-328,0,0,0,0,0,0,0,0,0,-1,1609,1352,0,0
392,-328,0,0,0,0,0,0,0,0,0,-1,1616,1352,0,0
399,-328,0,0,0,0,0,0,0,0,0,-1,1623,1352,0,0
406,-328,0,0,0,0,0,0,0,0,0,-1,1630,1352,0,0
413,-328,0,0,0,0,0,0,0,0,0,-1,1637,1352,0,0
420,-328,0,0,0,0,0,0,0,0,0,-1,1644,1352,0,0
427,-328,0,0,0,0,0,0,0,0,0,-1,1651,1352,0,0
434,-328,0,0,0,0,0,0,0,0,0,-1,1658,1352,0,0
441,-328,0,0,0,0,0,0,0,0,0,-1,1665,1352,0,0
448,-328,0,0,0,0,0,0,0,0,0,-1,1672,1352,0,0
455,-328,0,0,0,0,0,0,0,0,0,-1,1679,1352,0,0
462,-328,0,0,0,0,0,0,0,0,0,-1,1686,1352,0,0
469,-328,0,0,0,0,0,0,0,0,0,-1,1693,1352,0,0
476,-328,0,0,0,0,0,0,0,0,0,-1,1700,1352,0,0
483,-328,0,0,0,0,0,0,0,0,0,-1,1707,1352,0,0
490,-328,0,0,0,0,0,0,0,0,0,-1,1714,1352,0,0
497,-328,0,0,0,0,0,0,0,0,0,-1,1721,1352,0,0
504,-328,0,0,0,0,0,0,0,0,0,-1,1728,1352,0,0
511,-328,0,0,0,0,0,0,0,0,0,-1,1735,1352,0,0
518,-328,0,0,0,0,0,0,0,0,0,-1,1742,1352,0,0
525,-328,0,0,0,0,0,0,0,0,0,-1,1749,1352,0,0
532,-328,0,0,0,0,0,0,0,0,0,-1,1756,1352,0,0
539,-328,0,0,0,0,0,0,0,0,0,-1,1763,1352,0,0
546,-328,0,0,0,0,0,0,0,0,0,-1,1770,1352,0,0
553,-328,0,0,0,0,0,0,0,0,0,-1,1777,1352,0,0
560,-328,0,0,0,0,0,0,0,0,0,-1,1784,1352,0,0
567,-328,0,0,0,0,0,0,0,0,0,-1,1791,1352,0,0
574,-328,58.4558,1.34363,0,0,0,0,0,0,0,-1,1798,1352,58.4558,-1.34364
581,-328,58.6575,1.03662,0,0,0,0,0,0,0,-1,1805,1352,58.6575,-1.03663
588,-328,58.8262,0.918213,0,0,0,0,0,0,0,-1,1812,1352,58.8262,-0.918189
595,-328,60.5831,1.52856,0,0,0,0,0,0,0,-1,1819,1352,60.5832,-1.52861
602,-328,48.7734,3.66785,0,0,0,0,0,0,0,-1,1826,1352,48.7734,-3.66782
609,-328,37.0468,1.17407,0,0,0,0,0,0,0,-1,1833,1352,37.0468,-1.17407
616,-328,36.999,2.42859,0,0,0,0,0,0,0,-1,1840,1352,36.999,-2.42862
623,-328,34.345,5.14722,0,0,0,0,0,0,0,-1,1847,1352,34.3449,-5.14718
630,-328,22.0211,5.026,0,0,0,0,0,0,0,-1,1854,1352,22.0212,-5.02603
637,-328,21.15,5.53699,0,0,0,0,0,0,0,-1,1861,1352,21.15,-5.53704
644,-328,16.9579,6.3396,0,0,0,0,0,0,0,-1,1868,1352,16.9579,-6.33959
651,-328,36.2629,14.6906,0,0,0,0,0,0,0,-1,1875,1352,36.263,-14.6905
658,-328,38.4506,15.2545,0,0,0,0,0,0,0,-1,1882,1352,38.4506,-15.2545
665,-328,38.5814,14.5502,0.00105526,8.99889e-05,-0.000697617,0.00142092,-0.000275672,-0.482786,0.00105129,0.015008,1889,1352,38.5814,-14.5502
672,-328,38.5565,13.9551,0.000889685,0.000124353,-0.000489041,0.00112798,-0.000113943,-0.453414,0.000792703,0.0131147,1896,1352,38.5565,-13.9551
679,-328,38.5527,13.3324,0.00100828,0.00014613,-0.000377496,0.0011502,4.20498e-06,-0.359616,0.000765405,0.0160259,1903,1352,38.5528,-13.3324
686,-328,38.4927,12.6937,0.00123176,3.47266e-05,-0.000223657,0.00127218,-5.69731e-06,-0.17881,0.000850025,0.0160691,1910,1352,38.4926,-12.6937
693,-328,38.4545,12.0847,0.00140392,-7.03241e-05,-3.39617e-05,0.0014047,-7.1106e-05,-0.0230204,0.000961048,0.0106878,1917,1352,38.4545,-12.0848
700,-328,38.4457,11.4722,0.00151533,-0.000201892,0.000220457,0.00154318,-0.000229743,0.125666,0.0011133,0.0148889,1924,1352,38.4457,-11.4722
707,-328,38.4553,10.861,0.00148743,-0.000401449,0.000598068,0.00166087,-0.000574888,0.282255,0.00134061,0.016788,1931,1352,38.4553,-10.861
714,-328,38.4484,10.2516,0.00124673,-0.000718391,0.00114456,0.00177263,-0.00124429,0.430705,0.0017507,0.0167715,1938,1352,38.4484,-10.2516
721,-328,38.4673,9.56396,0,0,0,0,0,0,0,-1,1945,1352,38.4673,-9.56394
728,-328,29.2787,6.74695,0,0,0,0,0,0,0,-1,1952,1352,29.2787,-6.74693
735,-328,20.8927,5.23523,0,0,0,0,0,0,0,-1,1959,1352,20.8927,-5.23528
742,-328,20.3547,4.11316,0,0,0,0,0,0,0,-1,1966,1352,20.3547,-4.11321
749,-328,20.0669,5.66321,0,0,0,0,0,0,0,-1,1973,1352,20.0669,-5.66319
756,-328,19.9543,5.50464,0,0,0,0,0,0,0,-1,1980,1352,19.9543,-5.50463
763,-328,0,0,0,0,0,0,0,0,0,-1,1987,1352,0,0
770,-328,0,0,0,0,0,0,0,0,0,-1,1994,1352,0,0
777,-328,0,0,0,0,0,0,0,0,0,-1,2001,1352,0,0
784,-328,0,0,0,0,0,0,0,0,0,-1,2008,1352,0,0
791,-328,0,0,0,0,0,0,0,0,0,-1,2015,1352,0,0
798,-328,0,0,0,0,0,0,0,0,0,-1,2022,1352,0,0
805,-328,0,0,0,0,0,0,0,0,0,-1,2029,1352,0,0
812,-328,0,0,0,0,0,0,0,0,0,-1,2036,1352,0,0
-700,-335,0,0,0,0,0,0,0,0,0,-1,524,1359,0,0
-693,-335,0,0,0,0,0,0,0,0,0,-1,531,1359,0,0
-686,-335,0,0,0,0,0,0,0,0,0,-1,538,1359,0,0
-679,-335,0,0,0,0,0,0,0,0,0,-1,545,1359,0,0
-672,-335,0,0,0,0,0,0,0,0,0,-1,552,1359,0,0
-665,-335,0,0,0,0,0,0,0,0,0,-1,559,1359,0,0
-658,-335,0,0,0,0,0,0,0,0,0,-1,566,1359,0,0
-651,-335,0,0,0,0,0,0,0,0,0,-1,573,1359,0,0
-644,-335,0,0,0,0,0,0,0,0,0,-1,580,1359,0,0
-637,-335,-62.7114,11.0491,0,0,0,0,0,0,0,-1,587,1359,-62.7114,-11.0491
-630,-335,-64.2532,9.91284,0,0,0,0,0,0,0,-1,594,1359,-64.2532,-9.91285
-623,-335,-8.43304,1.09509,0,0,0,0,0,0,0,-1,601,1359,-8.43301,-1.09507
-616,-335,-7.80927,-0.485352,0,0,0,0,0,0,0,-1,608,1359,-7.80926,0.485291
-609,-335,-7.12256,-2.03601,0,0,0,0,0,0,0,-1,615,1359,-7.12253,2.03601
-602,-335,-9.39935,2.25146,0,0,0,0,0,0,0,-1,622,1359,-9.39935,-2.25145
-595,-335,-9.54767,3.01917,0,0,0,0,0,0,0,-1,629,1359,-9.54768,-3.01911
-588,-335,-21.6544,7.37695,0,0,0,0,0,0,0,-1,636,1359,-21.6544,-7.37694
-581,-335,-21.5807,8.32544,0.00323033,0.00268949,0.00171253,0.00469366,0.00122616,0.707091,0.00281099,0.0453202,643,1359,-21.5808,-8.32548
-574,-335,-21.6195,8.93604,0.00268971,0.00199658,0.00135303,0.00373986,0.000946431,0.660023,0.00224526,0.0134116,650,1359,-21.6195,-8.93605
-567,-335,-21.6118,9.60181,0.00251547,0.00145599,0.00117902,0.00327829,0.00069317,0.574261,0.00199502,0.0163321,657,1359,-21.6117,-9.60183
-560,-335,-21.5948,10.2394,0.00262364,0.00104084,0.00118339,0.00325587,0.000408605,0.490674,0.00204801,0.0243086,664,1359,-21.5948,-10.2393
-553,-335,-21.6705,10.9023,0.00294315,0.000708959,0.00132075,0.00355588,9.62308e-05,0.434372,0.00233917,0.0281397,671,1359,-21.6705,-10.9024
-546,-335,-21.7302,11.598,0.0034913,0.000435083,0.00157617,0.00415851,-0.000232126,0.400439,0.00285286,0.0252724,678,1359,-21.7303,-11.5981
-539,-335,-21.754,12.264,0.0042421,0.000257105,0.00195795,0.0050431,-0.000543896,0.388327,0.00355725,0.0202169,685,1359,-21.7541,-12.264
-532,-335,-21.7885,12.9557,0.00526606,0.000155041,0.00247233,0.00626626,-0.000845157,0.384428,0.00448584,0.0151401,692,1359,-21.7885,-12.9556
-525,-335,-21.7386,13.6361,0.00655551,3.28469e-05,0.0030872,0.00778495,-0.0011966,0.378988,0.00563137,0.012666,699,1359,-21.7386,-13.6361
-518,-335,-21.647,14.2206,0,0,0,0,0,0,0,-1,706,1359,-21.647,-14.2206
-511,-335,-17.3098,11.6718,0,0,0,0,0,0,0,-1,713,1359,-17.3097,-11.6717
-504,-335,-9.35767,5.99695,0,0,0,0,0,0,0,-1,720,1359,-9.35767,-5.99694
-497,-335,-8.75024,-0.650513,0,0,0,0,0,0,0,-1,727,1359,-8.75024,0.650521
-490,-335,-9.51971,0.417603,0,0,0,0,0,0,0,-1,734,1359,-9.51974,-0.41765
-483,-335,-10.2883,1.29224,0,0,0,0,0,0,0,-1,741,1359,-10.2883,-1.2922
-476,-335,-11.9938,-0.173462,0,0,0,0,0,0,0,-1,748,1359,-11.9938,0.173429
-469,-335,-12.8704,-0.204102,0,0,0,0,0,0,0,-1,755,1359,-12.8704,0.204117
-462,-335,-13.486,0.0218506,0,0,0,0,0,0,0,-1,762,1359,-13.4859,-0.0217908
-455,-335,-14.1504,0.549561,0,0,0,0,0,0,0,-1,769,1359,-14.1504,-0.549583
-448,-335,0,0,0,0,0,0,0,0,0,-1,776,1359,0,0
-441,-335,0,0,0,0,0,0,0,0,0,-1,783,1359,0,0
-434,-335,0,0,0,0,0,0,0,0,0,-1,790,1359,0,0
-427,-335,0,0,0,0,0,0,0,0,0,-1,797,1359,0,0
-420,-335,0,0,0,0,0,0,0,0,0,-1,804,1359,0,0
-413,-335,0,0,0,0,0,0,0,0,0,-1,811,1359,0,0
-406,-335,0,0,0,0,0,0,0,0,0,-1,818,1359,0,0
-399,-335,0,0,0,0,0,0,0,0,0,-1,825,1359,0,0
-392,-335,0,0,0,0,0,0,0,0,0,-1,832,1359,0,0
-385,-335,0,0,0,0,0,0,0,0,0,-1,839,1359,0,0
-378,-335,0,0,0,0,0,0,0,0,0,-1,846,1359,0,0
-371,-335,0,0,0,0,0,0,0,0,0,-1,853,1359,0,0
-364,-335,0,0,0,0,0,0,0,0,0,-1,860,1359,0,0
-357,-335,0,0,0,0,0,0,0,0,0,-1,867,1359,0,0
-350,-335,0,0,0,0,0,0,0,0,0,-1,874,1359,0,0
-343,-335,0,0,0,0,0,0,0,0,0,-1,881,1359,0,0
-336,-335,0,0,0,0,0,0,0,0,0,-1,888,1359,0,0
-329,-335,0,0,0,0,0,0,0,0,0,-1,895,1359,0,0
-322,-335,0,0,0,0,0,0,0,0,0,-1,902,1359,0,0
-315,-335,0,0,0,0,0,0,0,0,0,-1,909,1359,0,0
-308,-335,0,0,0,0,0,0,0,0,0,-1,916,1359,0,0
-301,-335,0,0,0,0,0,0,0,0,0,-1,923,1359,0,0
-294,-335,0,0,0,0,0,0,0,0,0,-1,930,1359,0,0
-287,-335,0,0,0,0,0,0,0,0,0,-1,937,1359,0,0
-280,-335,0,0,0,0,0,0,0,0,0,-1,944,1359,0,0
-273,-335,0,0,0,0,0,0,0,0,0,-1,951,1359,0,0
-266,-335,0,0,0,0,0,0,0,0,0,-1,958,1359,0,0
-259,-335,0,0,0,0,0,0,0,0,0,-1,965,1359,0,0
-252,-335,0,0,0,0,0,0,0,0,0,-1,972,1359,0,0
-245,-335,0,0,0,0,0,0,0,0,0,-1,979,1359,0,0
-238,-335,0,0,0,0,0,0,0,0,0,-1,986,1359,0,0
-231,-335,0,0,0,0,0,0,0,0,0,-1,993,1359,0,0
-224,-335,0,0,0,0,0,0,0,0,0,-1,1000,1359,0,0
-217,-335,0,0,0,0,0,0,0,0,0,-1,1007,1359,0,0
-210,-335,0,0,0,0,0,0,0,0,0,-1,1014,1359,0,0
-203,-335,0,0,0,0,0,0,0,0,0,-1,1021,1359,0,0
-196,-335,0,0,0,0,0,0,0,0,0,-1,1028,1359,0,0
-189,-335,0,0,0,0,0,0,0,0,0,-1,1035,1359,0,0
-182,-335,0,0,0,0,0,0,0,0,0,-1,1042,1359,0,0
-175,-335,0,0,0,0,0,0,0,0,0,-1,1049,1359,0,0
-168,-335,0,0,0,0,0,0,0,0,0,-1,1056,1359,0,0
-161,-335,0,0,0,0,0,0,0,0,0,-1,1063,1359,0,0
-154,-335,0,0,0,0,0,0,0,0,0,-1,1070,1359,0,0
-147,-335,0,0,0,0,0,0,0,0,0,-1,1077,1359,0,0
-140,-335,0,0,0,0,0,0,0,0,0,-1,1084,1359,0,0
-133,-335,0,0,0,0,0,0,0,0,0,-1,1091,1359,0,0
-126,-335,0,0,0,0,0,0,0,0,0,-1,1098,1359,0,0
-119,-335,0,0,0,0,0,0,0,0,0,-1,1105,1359,0,0
-112,-335,0,0,0,0,0,0,0,0,0,-1,1112,1359,0,0
-105,-335,0,0,0,0,0,0,0,0,0,-1,1119,1359,0,0
-98,-335,0,0,0,0,0,0,0,0,0,-1,1126,1359,0,0
-91,-335,0,0,0,0,0,0,0,0,0,-1,1133,1359,0,0
-84,-335,0,0,0,0,0,0,0,0,0,-1,1140,1359,0,0
-77,-335,0,0,0,0,0,0,0,0,0,-1,1147,1359,0,0
-70,-335,0,0,0,0,0,0,0,0,0,-1,1154,1359,0,0
-63,-335,0,0,0,0,0,0,0,0,0,-1,1161,1359,0,0
-56,-335,0,0,0,0,0,0,0,0,0,-1,1168,1359,0,0
-49,-335,0,0,0,0,0,0,0,0,0,-1,1175,1359,0,0
-42,-335,0,0,0,0,0,0,0,0,0,-1,1182,1359,0,0
-35,-335,0,0,0,0,0,0,0,0,0,-1,1189,1359,0,0
-28,-335,0,0,0,0,0,0,0,0,0,-1,1196,1359,0,0
-21,-335,0,0,0,0,0,0,0,0,0,-1,1203,1359,0,0
-14,-335,0,0,0,0,0,0,0,0,0,-1,1210,1359,0,0
-7,-335,0,0,0,0,0,0,0,0,0,-1,1217,1359,0,0
0,-335,0,0,0,0,0,0,0,0,0,-1,1224,1359,0,0
7,-335,0,0,0,0,0,0,0,0,0,-1,1231,1359,0,0
14,-335,0,0,0,0,0,0,0,0,0,-1,1238,1359,0,0
21,-335,0,0,0,0,0,0,0,0,0,-1,1245,1359,0,0
28,-335,0,0,0,0,0,0,0,0,0,-1,1252,1359,0,0
35,-335,0,0,0,0,0,0,0,0,0,-1,1259,1359,0,0
42,-335,0,0,0,0,0,0,0,0,0,-1,1266,1359,0,0
49,-335,0,0,0,0,0,0,0,0,0,-1,1273,1359,0,0
56,-335,0,0,0,0,0,0,0,0,0,-1,1280,1359,0,0
63,-335,0,0,0,0,0,0,0,0,0,-1,1287,1359,0,0
70,-335,0,0,0,0,0,0,0,0,0,-1,1294,1359,0,0
77,-335,0,0,0,0,0,0,0,0,0,-1,1301,1359,0,0
84,-335,0,0,0,0,0,0,0,0,0,-1,1308,1359,0,0
91,-335,0,0,0,0,0,0,0,0,0,-1,1315,1359,0,0
98,-335,0,0,0,0,0,0,0,0,0,-1,1322,1359,0,0
105,-335,0,0,0,0,0,0,0,0,0,-1,1329,1359,0,0
112,-335,0,0,0,0,0,0,0,0,0,-1,1336,1359,0,0
119,-335,0,0,0,0,0,0,0,0,0,-1,1343,1359,0,0
126,-335,0,0,0,0,0,0,0,0,0,-1,1350,1359,0,0
133,-335,0,0,0,0,0,0,0,0,0,-1,1357,1359,0,0
140,-335,0,0,0,0,0,0,0,0,0,-1,1364,1359,0,0
147,-335,0,0,0,0,0,0,0,0,0,-1,1371,1359,0,0
154,-335,0,0,0,0,0,0,0,0,0,-1,1378,1359,0,0
161,-335,0,0,0,0,0,0,0,0,0,-1,1385,1359,0,0
168,-335,0,0,0,0,0,0,0,0,0,-1,1392,1359,0,0
175,-335,0,0,0,0,0,0,0,0,0,-1,1399,1359,0,0
182,-335,0,0,0,0,0,0,0,0,0,-1,1406,1359,0,0
189,-335,0,0,0,0,0,0,0,0,0,-1,1413,1359,0,0
196,-335,0,0,0,0,0,0,0,0,0,-1,1420,1359,0,0
203,-335,0,0,0,0,0,0,0,0,0,-1,1427,1359,0,0
210,-335,0,0,0,0,0,0,0,0,0,-1,1434,1359,0,0
217,-335,0,0,0,0,0,0,0,0,0,-1,1441,1359,0,0
224,-335,0,0,0,0,0,0,0,0,0,-1,1448,1359,0,0
231,-335,0,0,0,0,0,0,0,0,0,-1,1455,1359,0,0
238,-335,0,0,0,0,0,0,0,0,0,-1,1462,1359,0,0
245,-335,0,0,0,0,0,0,0,0,0,-1,1469,1359,0,0
252,-335,0,0,0,0,0,0,0,0,0,-1,1476,1359,0,0
259,-335,0,0,0,0,0,0,0,0,0,-1,1483,1359,0,0
266,-335,0,0,0,0,0,0,0,0,0,-1,1490,1359,0,0
273,-335,0,0,0,0,0,0,0,0,0,-1,1497,1359,0,0
280,-335,0,0,0,0,0,0,0,0,0,-1,1504,1359,0,0
287,-335,0,0,0,0,0,0,0,0,0,-1,1511,1359,0,0
294,-335,0,0,0,0,0,0,0,0,0,-1,1518,1359,0,0
301,-335,0,0,0,0,0,0,0,0,0,-1,1525,1359,0,0
308,-335,0,0,0,0,0,0,0,0,0,-1,1532,1359,0,0
315,-335,0,0,0,0,0,0,0,0,0,-1,1539,1359,0,0
322,-335,0,0,0,0,0,0,0,0,0,-1,1546,1359,0,0
329,-335,0,0,0,0,0,0,0,0,0,-1,1553,1359,0,0
336,-335,0,0,0,0,0,0,0,0,0,-1,1560,1359,0,0
343,-335,0,0,0,0,0,0,0,0,0,-1,1567,1359,0,0
350,-335,0,0,0,0,0,0,0,0,0,-1,1574,1359,0,0
357,-335,0,0,0,0,0,0,0,0,0,-1,1581,1359,0,0
364,-335,0,0,0,0,0,0,0,0,0,-1,1588,1359,0,0
371,-335,0,0,0,0,0,0,0,0,0,-1,1595,1359,0,0
378,-335,0,0,0,0,0,0,0,0,0,-1,1602,1359,0,0
385,-335,0,0,0,0,0,0,0,0,0,-1,1609,1359,0,0
392,-335,0,0,0,0,0,0,0,0,0,-1,1616,1359,0,0
399,-335,0,0,0,0,0,0,0,0,0,-1,1623,1359,0,0
406,-335,0,0,0,0,0,0,0,0,0,-1,1630,1359,0,0
413,-335,0,0,0,0,0,0,0,0,0,-1,1637,1359,0,0
420,-335,0,0,0,0,0,0,0,0,0,-1,1644,1359,0,0
427,-335,0,0,0,0,0,0,0,0,0,-1,1651,1359,0,0
434,-335,0,0,0,0,0,0,0,0,0,-1,1658,1359,0,0
441,-335,0,0,0,0,0,0,0,0,0,-1,1665,1359,0,0
448,-335,0,0,0,0,0,0,0,0,0,-1,1672,1359,0,0
455,-335,0,0,0,0,0,0,0,0,0,-1,1679,1359,0,0
462,-335,0,0,0,0,0,0,0,0,0,-1,1686,1359,0,0
469,-335,0,0,0,0,0,0,0,0,0,-1,1693,1359,0,0
476,-335,0,0,0,0,0,0,0,0,0,-1,1700,1359,0,0
483,-335,0,0,0,0,0,0,0,0,0,-1,1707,1359,0,0
490,-335,0,0,0,0,0,0,0,0,0,-1,1714,1359,0,0
497,-335,0,0,0,0,0,0,0,0,0,-1,1721,1359,0,0
504,-335,0,0,0,0,0,0,0,0,0,-1,1728,1359,0,0
511,-335,0,0,0,0,0,0,0,0,0,-1,1735,1359,0,0
518,-335,0,0,0,0,0,0,0,0,0,-1,1742,1359,0,0
525,-335,0,0,0,0,0,0,0,0,0,-1,1749,1359,0,0
532,-335,0,0,0,0,0,0,0,0,0,-1,1756,1359,0,0
539,-335,0,0,0,0,0,0,0,0,0,-1,1763,1359,0,0
546,-335,0,0,0,0,0,0,0,0,0,-1,1770,1359,0,0
553,-335,0,0,0,0,0,0,0,0,0,-1,1777,1359,0,0
560,-335,0,0,0,0,0,0,0,0,0,-1,1784,1359,0,0
567,-335,0,0,0,0,0,0,0,0,0,-1,1791,1359,0,0
574,-335,58.0887,0.573853,0,0,0,0,0,0,0,-1,1798,1359,58.0887,-0.573905
581,-335,57.8474,0.28833,0,0,0,0,0,0,0,-1,1805,1359,57.8474,-0.28839
588,-335,58.4113,0.081665,0,0,0,0,0,0,0,-1,1812,1359,58.4113,-0.0816863
595,-335,49.984,3.76465,0,0,0,0,0,0,0,-1,1819,1359,49.984,-3.76467
602,-335,36.5643,0.0861816,0,0,0,0,0,0,0,-1,1826,1359,36.5643,-0.0862283
609,-335,36.2933,0.993896,0,0,0,0,0,0,0,-1,1833,1359,36.2934,-0.993911
616,-335,34.6969,4.82666,0,0,0,0,0,0,0,-1,1840,1359,34.6969,-4.82667
623,-335,26.6051,6.54333,0,0,0,0,0,0,0,-1,1847,1359,26.6051,-6.54339
630,-335,19.1707,1.00952,0,0,0,0,0,0,0,-1,1854,1359,19.1707,-1.00953
637,-335,18.2009,6.65454,0,0,0,0,0,0,0,-1,1861,1359,18.2009,-6.6546
644,-335,28.1042,12.067,0,0,0,0,0,0,0,-1,1868,1359,28.1042,-12.067
651,-335,37.8799,15.9808,0,0,0,0,0,0,0,-1,1875,1359,37.8799,-15.9809
658,-335,37.9672,15.2526,2.50628e-06,0.00100319,-0.000859393,0.00149728,-0.000491587,-1.04901,0.00119621,0.034499,1882,1359,37.9672,-15.2526
665,-335,37.9622,14.5914,0.000256281,0.000544245,-0.000560419,0.000978882,-0.000178356,-0.911138,0.000719447,0.0147816,1889,1359,37.9621,-14.5914
672,-335,37.9426,13.972,0.000660126,0.000294576,-0.000436921,0.000950961,3.74005e-06,-0.587297,0.000632731,0.0186547,1896,1359,37.9426,-13.972
679,-335,37.9231,13.3657,0.00108773,0.000174417,-0.000366764,0.00121677,4.53677e-05,-0.338331,0.000796492,0.0165283,1903,1359,37.9232,-13.3657
686,-335,37.8984,12.7146,0.00148324,5.76666e-05,-0.000274209,0.00153417,6.74179e-06,-0.183623,0.00102054,0.0139758,1910,1359,37.8984,-12.7146
693,-335,37.8577,12.0956,0.00187428,-1.35296e-05,-0.000186796,0.00189259,-3.18354e-05,-0.0976864,0.00127247,0.0113498,1917,1359,37.8577,-12.0956
700,-335,37.8219,11.5125,0.00222885,-7.91937e-05,-6.73426e-05,0.00223082,-8.11568e-05,-0.0291443,0.00151499,0.0122854,1924,1359,37.8219,-11.5125
707,-335,37.7965,10.9203,0.00243524,-0.000188141,0.000167379,0.00244588,-0.000198777,0.0634595,0.00170072,0.0159787,1931,1359,37.7966,-10.9202
714,-335,37.8401,10.2358,0.00244174,-0.000379035,0.000544125,0.00254306,-0.000480357,0.184102,0.00187611,0.0354069,1938,1359,37.8401,-10.2358
721,-335,37.7841,9.47192,0,0,0,0,0,0,0,-1,1945,1359,37.784,-9.47193
728,-335,20.8126,5.21167,0,0,0,0,0,0,0,-1,1952,1359,20.8127,-5.21172
735,-335,20.2725,5.34729,0,0,0,0,0,0,0,-1,1959,1359,20.2724,-5.34734
742,-335,19.8624,4.72229,0,0,0,0,0,0,0,-1,1966,1359,19.8624,-4.72225
749,-335,20.5887,6.05322,0,0,0,0,0,0,0,-1,1973,1359,20.5887,-6.05322
756,-335,20.7832,6.00452,0,0,0,0,0,0,0,-1,1980,1359,20.7832,-6.00447
763,-335,0,0,0,0,0,0,0,0,0,-1,1987,1359,0,0
770,-335,0,0,0,0,0,0,0,0,0,-1,1994,1359,0,0
777,-335,0,0,0,0,0,0,0,0,0,-1,2001,1359,0,0
784,-335,0,0,0,0,0,0,0,0,0,-1,2008,1359,0,0
791,-335,0,0,0,0,0,0,0,0,0,-1,2015,1359,0,0
798,-335,0,0,0,0,0,0,0,0,0,-1,2022,1359,0,0
805,-335,0,0,0,0,0,0,0,0,0,-1,2029,1359,0,0
812,-335,0,0,0,0,0,0,0,0,0,-1,2036,1359,0,0
-700,-342,0,0,0,0,0,0,0,0,0,-1,524,1366,0,0
-693,-342,0,0,0,0,0,0,0,0,0,-1,531,1366,0,0
-686,-342,0,0,0,0,0,0,0,0,0,-1,538,1366,0,0
-679,-342,0,0,0,0,0,0,0,0,0,-1,545,1366,0,0
-672,-342,0,0,0,0,0,0,0,0,0,-1,552,1366,0,0
-665,-342,0,0,0,0,0,0,0,0,0,-1,559,1366,0,0
-658,-342,0,0,0,0,0,0,0,0,0,-1,566,1366,0,0
-651,-342,0,0,0,0,0,0,0,0,0,-1,573,1366,0,0
-644,-342,0,0,0,0,0,0,0,0,0,-1,580,1366,0,0
-637,-342,-63.7546,12.2344,0,0,0,0,0,0,0,-1,587,1366,-63.7546,-12.2343
-630,-342,-8.60132,2.71777,0,0,0,0,0,0,0,-1,594,1366,-8.60135,-2.71779
-623,-342,-8.41168,0.662476,0,0,0,0,0,0,0,-1,601,1366,-8.41168,-0.662442
-616,-342,-6.625,-1.28015,0,0,0,0,0,0,0,-1,608,1366,-6.62499,1.28011
-609,-342,-7.83154,0.674561,0,0,0,0,0,0,0,-1,615,1366,-7.83155,-0.674598
-602,-342,-9.65765,2.25195,0,0,0,0,0,0,0,-1,622,1366,-9.65767,-2.25192
-595,-342,-9.47687,3.00671,0,0,0,0,0,0,0,-1,629,1366,-9.47686,-3.00668
-588,-342,-9.78467,3.57727,0,0,0,0,0,0,0,-1,636,1366,-9.78468,-3.57723
-581,-342,-20.9734,8.17017,0,0,0,0,0,0,0,-1,643,1366,-20.9735,-8.1702
-574,-342,-21.0151,8.97485,0.00300586,0.00206085,0.00144972,0.00405813,0.00100857,0.627863,0.00243974,0.016134,650,1366,-21.0152,-8.97488
-567,-342,-20.9731,9.66431,0.00267412,0.00150554,0.00123283,0.00345411,0.000725545,0.564107,0.00210304,0.0167202,657,1366,-20.9731,-9.66433
-560,-342,-21.0242,10.2897,0.00266074,0.00108421,0.00119278,0.0033022,0.000442759,0.493412,0.00206973,0.0254232,664,1366,-21.0242,-10.2897
-553,-342,-21.0667,10.8864,0.00284579,0.000749985,0.00127492,0.0034482,0.000147576,0.441412,0.00225122,0.0290147,671,1366,-21.0667,-10.8864
-546,-342,-21.0637,11.5331,0.00323921,0.000483275,0.00146118,0.00386968,-0.000147197,0.407349,0.00263023,0.0281796,678,1366,-21.0637,-11.5331
-539,-342,-21.0739,12.2766,0.00380963,0.000305774,0.00175329,0.00453626,-0.000420858,0.392893,0.00317377,0.02252,685,1366,-21.0739,-12.2766
-532,-342,-21.1194,12.9918,0.00459675,0.000211814,0.00215523,0.00547868,-0.000670117,0.388417,0.00389509,0.0168764,692,1366,-21.1194,-12.9918
-525,-342,-21.0927,13.6674,0.00559524,0.000142327,0.00264072,0.00666444,-0.000926865,0.384712,0.00478195,0.0126749,699,1366,-21.0926,-13.6674
-518,-342,-21.0191,14.3562,0.00684983,0.000342883,0.00326686,0.00820694,-0.00101422,0.393725,0.0058388,0.0379737,706,1366,-21.0191,-14.3562
-511,-342,-21.0132,15.0188,0,0,0,0,0,0,0,-1,713,1366,-21.0132,-15.0188
-504,-342,-8.95709,6.5719,0,0,0,0,0,0,0,-1,720,1366,-8.95707,-6.57192
-497,-342,-8.26587,-0.943604,0,0,0,0,0,0,0,-1,727,1366,-8.26586,0.943543
-490,-342,-9.07153,-0.0227051,0,0,0,0,0,0,0,-1,734,1366,-9.07155,0.0227087
-483,-342,-9.87726,0.898071,0,0,0,0,0,0,0,-1,741,1366,-9.87724,-0.898125
-476,-342,-11.6371,-0.736328,0,0,0,0,0,0,0,-1,748,1366,-11.6371,0.736281
-469,-342,-12.6245,-0.987549,0,0,0,0,0,0,0,-1,755,1366,-12.6245,0.987553
-462,-342,-13.0912,-0.533203,0,0,0,0,0,0,0,-1,762,1366,-13.0912,0.533224
-455,-342,-13.7612,0.122925,0,0,0,0,0,0,0,-1,769,1366,-13.7612,-0.122896
-448,-342,-14.5278,0.826904,0,0,0,0,0,0,0,-1,776,1366,-14.5277,-0.826861
-441,-342,0,0,0,0,0,0,0,0,0,-1,783,1366,0,0
-434,-342,0,0,0,0,0,0,0,0,0,-1,790,1366,0,0
-427,-342,0,0,0,0,0,0,0,0,0,-1,797,1366,0,0
-420,-342,0,0,0,0,0,0,0,0,0,-1,804,1366,0,0
-413,-342,0,0,0,0,0,0,0,0,0,-1,811,1366,0,0
-406,-342,0,0,0,0,0,0,0,0,0,-1,818,1366,0,0
-399,-342,0,0,0,0,0,0,0,0,0,-1,825,1366,0,0
-392,-342,0,0,0,0,0,0,0,0,0,-1,832,1366,0,0
-385,-342,0,0,0,0,0,0,0,0,0,-1,839,1366,0,0
-378,-342,0,0,0,0,0,0,0,0,0,-1,846,1366,0,0
-371,-342,0,0,0,0,0,0,0,0,0,-1,853,1366,0,0
-364,-342,0,0,0,0,0,0,0,0,0,-1,860,1366,0,0
-357,-342,0,0,0,0,0,0,0,0,0,-1,867,1366,0,0
-350,-342,0,0,0,0,0,0,0,0,0,-1,874,1366,0,0
-343,-342,0,0,0,0,0,0,0,0,0,-1,881,1366,0,0
-336,-342,0,0,0,0,0,0,0,0,0,-1,888,1366,0,0
-329,-342,0,0,0,0,0,0,0,0,0,-1,895,1366,0,0
-322,-342,0,0,0,0,0,0,0,0,0,-1,902,1366,0,0
-315,-342,0,0,0,0,0,0,0,0,0,-1,909,1366,0,0
-308,-342,0,0,0,0,0,0,0,0,0,-1,916,1366,0,0
-301,-342,0,0,0,0,0,0,0,0,0,-1,923,1366,0,0
-294,-342,0,0,0,0,0,0,0,0,0,-1,930,1366,0,0
-287,-342,0,0,0,0,0,0,0,0,0,-1,937,1366,0,0
-280,-342,0,0,0,0,0,0,0,0,0,-1,944,1366,0,0
-273,-342,0,0,0,0,0,0,0,0,0,-1,951,1366,0,0
-266,-342,0,0,0,0,0,0,0,0,0,-1,958,1366,0,0
-259,-342,0,0,0,0,0,0,0,0,0,-1,965,1366,0,0
-252,-342,0,0,0,0,0,0,0,0,0,-1,972,1366,0,0
-245,-342,0,0,0,0,0,0,0,0,0,-1,979,1366,0,0
-238,-342,0,0,0,0,0,0,0,0,0,-1,986,1366,0,0
-231,-342,0,0,0,0,0,0,0,0,0,-1,993,1366,0,0
-224,-342,0,0,0,0,0,0,0,0,0,-1,1000,1366,0,0
-217,-342,0,0,0,0,0,0,0,0,0,-1,1007,1366,0,0
-210,-342,0,0,0,0,0,0,0,0,0,-1,1014,1366,0,0
-203,-342,0,0,0,0,0,0,0,0,0,-1,1021,1366,0,0
-196,-342,0,0,0,0,0,0,0,0,0,-1,1028,1366,0,0
-189,-342,0,0,0,0,0,0,0,0,0,-1,1035,1366,0,0
-182,-342,0,0,0,0,0,0,0,0,0,-1,1042,1366,0,0
-175,-342,0,0,0,0,0,0,0,0,0,-1,1049,1366,0,0
-168,-342,0,0,0,0,0,0,0,0,0,-1,1056,1366,0,0
-161,-342,0,0,0,0,0,0,0,0,0,-1,1063,1366,0,0
-154,-342,0,0,0,0,0,0,0,0,0,-1,1070,1366,0,0
-147,-342,0,0,0,0,0,0,0,0,0,-1,1077,1366,0,0
-140,-342,0,0,0,0,0,0,0,0,0,-1,1084,1366,0,0
-133,-342,0,0,0,0,0,0,0,0,0,-1,1091,1366,0,0
-126,-342,0,0,0,0,0,0,0,0,0,-1,1098,1366,0,0
-119,-342,0,0,0,0,0,0,0,0,0,-1,1105,1366,0,0
-112,-342,0,0,0,0,0,0,0,0,0,-1,1112,1366,0,0
-105,-342,0,0,0,0,0,0,0,0,0,-1,1119,1366,0,0
-98,-342,0,0,0,0,0,0,0,0,0,-1,1126,1366,0,0
-91,-342,0,0,0,0,0,0,0,0,0,-1,1133,1366,0,0
-84,-342,0,0,0,0,0,0,0,0,0,-1,1140,1366,0,0
-77,-342,0,0,0,0,0,0,0,0,0,-1,1147,1366,0,0
-70,-342,0,0,0,0,0,0,0,0,0,-1,1154,1366,0,0
-63,-342,0,0,0,0,0,0,0,0,0,-1,1161,1366,0,0
-56,-342,0,0,0,0,0,0,0,0,0,-1,1168,1366,0,0
-49,-342,0,0,0,0,0,0,0,0,0,-1,1175,1366,0,0
-42,-342,0,0,0,0,0,0,0,0,0,-1,1182,1366,0,0
-35,-342,0,0,0,0,0,0,0,0,0,-1,1189,1366,0,0
-28,-342,0,0,0,0,0,0,0,0,0,-1,1196,1366,0,0
-21,-342,0,0,0,0,0,0,0,0,0,-1,1203,1366,0,0
-14,-342,0,0,0,0,0,0,0,0,0,-1,1210,1366,0,0
-7,-342,0,0,0,0,0,0,0,0,0,-1,1217,1366,0,0
0,-342,0,0,0,0,0,0,0,0,0,-1,1224,1366,0,0
7,-342,0,0,0,0,0,0,0,0,0,-1,1231,1366,0,0
14,-342,0,0,0,0,0,0,0,0,0,-1,1238,1366,0,0
21,-342,0,0,0,0,0,0,0,0,0,-1,1245,1366,0,0
28,-342,0,0,0,0,0,0,0,0,0,-1,1252,1366,0,0
35,-342,0,0,0,0,0,0,0,0,0,-1,1259,1366,0,0
42,-342,0,0,0,0,0,0,0,0,0,-1,1266,1366,0,0
49,-342,0,0,0,0,0,0,0,0,0,-1,1273,1366,0,0
56,-342,0,0,0,0,0,0,0,0,0,-1,1280,1366,0,0
63,-342,0,0,0,0,0,0,0,0,0,-1,1287,1366,0,0
70,-342,0,0,0,0,0,0,0,0,0,-1,1294,1366,0,0
77,-342,0,0,0,0,0,0,0,0,0,-1,1301,1366,0,0
84,-342,0,0,0,0,0,0,0,0,0,-1,1308,1366,0,0
91,-342,0,0,0,0,0,0,0,0,0,-1,1315,1366,0,0
98,-342,0,0,0,0,0,0,0,0,0,-1,1322,1366,0,0
105,-342,0,0,0,0,0,0,0,0,0,-1,1329,1366,0,0
112,-342,0,0,0,0,0,0,0,0,0,-1,1336,1366,0,0
119,-342,0,0,0,0,0,0,0,0,0,-1,1343,1366,0,0
126,-342,0,0,0,0,0,0,0,0,0,-1,1350,1366,0,0
133,-342,0,0,0,0,0,0,0,0,0,-1,1357,1366,0,0
140,-342,0,0,0,0,0,0,0,0,0,-1,1364,1366,0,0
147,-342,0,0,0,0,0,0,0,0,0,-1,1371,1366,0,0
154,-342,0,0,0,0,0,0,0,0,0,-1,1378,1366,0,0
161,-342,0,0,0,0,0,0,0,0,0,-1,1385,1366,0,0
168,-342,0,0,0,0,0,0,0,0,0,-1,1392,1366,0,0
175,-342,0,0,0,0,0,0,0,0,0,-1,1399,1366,0,0
182,-342,0,0,0,0,0,0,0,0,0,-1,1406,1366,0,0
189,-342,0,0,0,0,0,0,0,0,0,-1,1413,1366,0,0
196,-342,0,0,0,0,0,0,0,0,0,-1,1420,1366,0,0
203,-342,0,0,0,0,0,0,0,0,0,-1,1427,1366,0,0
210,-342,0,0,0,0,0,0,0,0,0,-1,1434,1366,0,0
217,-342,0,0,0,0,0,0,0,0,0,-1,1441,1366,0,0
224,-342,0,0,0,0,0,0,0,0,0,-1,1448,1366,0,0
231,-342,0,0,0,0,0,0,0,0,0,-1,1455,1366,0,0
238,-342,0,0,0,0,0,0,0,0,0,-1,1462,1366,0,0
245,-342,0,0,0,0,0,0,0,0,0,-1,1469,1366,0,0
252,-342,0,0,0,0,0,0,0,0,0,-1,1476,1366,0,0
259,-342,0,0,0,0,0,0,0,0,0,-1,1483,1366,0,0
266,-342,0,0,0,0,0,0,0,0,0,-1,1490,1366,0,0
273,-342,0,0,0,0,0,0,0,0,0,-1,1497,1366,0,0
280,-342,0,0,0,0,0,0,0,0,0,-1,1504,1366,0,0
287,-342,0,0,0,0,0,0,0,0,0,-1,1511,1366,0,0
294,-342,0,0,0,0,0,0,0,0,0,-1,1518,1366,0,0
301,-342,0,0,0,0,0,0,0,0,0,-1,1525,1366,0,0
308,-342,0,0,0,0,0,0,0,0,0,-1,1532,1366,0,0
315,-342,0,0,0,0,0,0,0,0,0,-1,1539,1366,0,0
322,-342,0,0,0,0,0,0,0,0,0,-1,1546,1366,0,0
329,-342,0,0,0,0,0,0,0,0,0,-1,1553,1366,0,0
336,-342,0,0,0,0,0,0,0,0,0,-1,1560,1366,0,0
343,-342,0,0,0,0,0,0,0,0,0,-1,1567,1366,0,0
350,-342,0,0,0,0,0,0,0,0,0,-1,1574,1366,0,0
357,-342,0,0,0,0,0,0,0,0,0,-1,1581,1366,0,0
364,-342,0,0,0,0,0,0,0,0,0,-1,1588,1366,0,0
371,-342,0,0,0,0,0,0,0,0,0,-1,1595,1366,0,0
378,-342,0,0,0,0,0,0,0,0,0,-1,1602,1366,0,0
385,-342,0,0,0,0,0,0,0,0,0,-1,1609,1366,0,0
392,-342,0,0,0,0,0,0,0,0,0,-1,1616,1366,0,0
399,-342,0,0,0,0,0,0,0,0,0,-1,1623,1366,0,0
406,-342,0,0,0,0,0,0,0,0,0,-1,1630,1366,0,0
413,-342,0,0,0,0,0,0,0,0,0,-1,1637,1366,0,0
420,-342,0,0,0,0,0,0,0,0,0,-1,1644,1366,0,0
427,-342,0,0,0,0,0,0,0,0,0,-1,1651,1366,0,0
434,-342,0,0,0,0,0,0,0,0,0,-1,1658,1366,0,0
441,-342,0,0,0,0,0,0,0,0,0,-1,1665,1366,0,0
448,-342,0,0,0,0,0,0,0,0,0,-1,1672,1366,0,0
455,-342,0,0,0,0,0,0,0,0,0,-1,1679,1366,0,0
462,-342,0,0,0,0,0,0,0,0,0,-1,1686,1366,0,0
469,-342,0,0,0,0,0,0,0,0,0,-1,1693,1366,0,0
476,-342,0,0,0,0,0,0,0,0,0,-1,1700,1366,0,0
483,-342,0,0,0,0,0,0,0,0,0,-1,1707,1366,0,0
490,-342,0,0,0,0,0,0,0,0,0,-1,1714,1366,0,0
497,-342,0,0,0,0,0,0,0,0,0,-1,1721,1366,0,0
504,-342,0,0,0,0,0,0,0,0,0,-1,1728,1366,0,0
511,-342,0,0,0,0,0,0,0,0,0,-1,1735,1366,0,0
518,-342,0,0,0,0,0,0,0,0,0,-1,1742,1366,0,0
525,-342,0,0,0,0,0,0,0,0,0,-1,1749,1366,0,0
532,-342,0,0,0,0,0,0,0,0,0,-1,1756,1366,0,0
539,-342,0,0,0,0,0,0,0,0,0,-1,1763,1366,0,0
546,-342,0,0,0,0,0,0,0,0,0,-1,1770,1366,0,0
553,-342,0,0,0,0,0,0,0,0,0,-1,1777,1366,0,0
560,-342,0,0,0,0,0,0,0,0,0,-1,1784,1366,0,0
567,-342,42.6652,5.53748,0,0,0,0,0,0,0,-1,1791,1366,42.6652,-5.53752
574,-342,57.798,-0.27356,0,0,0,0,0,0,0,-1,1798,1366,57.798,0.273534
581,-342,57.0219,-0.327759,0,0,0,0,0,0,0,-1,1805,1366,57.0219,0.327814
588,-342,43.9108,7.22559,0,0,0,0,0,0,0,-1,1812,1366,43.9107,-7.22554
595,-342,35.7993,0.709961,0,0,0,0,0,0,0,-1,1819,1366,35.7993,-0.709913
602,-342,36.3618,3.28723,0,0,0,0,0,0,0,-1,1826,1366,36.3619,-3.28719
609,-342,35.3777,4.14978,0,0,0,0,0,0,0,-1,1833,1366,35.3777,-4.14976
616,-342,34.199,5.8158,0,0,0,0,0,0,0,-1,1840,1366,34.199,-5.81579
623,-342,26.0299,6.86865,0,0,0,0,0,0,0,-1,1847,1366,26.0299,-6.86863
630,-342,17.3431,0.773071,0,0,0,0,0,0,0,-1,1854,1366,17.3432,-0.773095
637,-342,16.196,6.76172,0,0,0,0,0,0,0,-1,1861,1366,16.1961,-6.76174
644,-342,31.8916,14.0614,0,0,0,0,0,0,0,-1,1868,1366,31.8916,-14.0613
651,-342,37.3489,15.9,0,0,0,0,0,0,0,-1,1875,1366,37.3489,-15.9
658,-342,37.3599,15.2504,-0.00019817,0.000847093,-0.000768482,0.00125382,-0.000604897,-1.08401,0.00109471,0.0191514,1882,1366,37.3598,-15.2504
665,-342,37.348,14.5724,0.000205527,0.000474518,-0.000493042,0.00085108,-0.000171035,-0.918552,0.000632158,0.0161627,1889,1366,37.348,-14.5724
672,-342,37.321,13.9946,0.000730276,0.000272917,-0.000357967,0.000926372,7.68203e-05,-0.501158,0.000593634,0.0139544,1896,1366,37.321,-13.9946
679,-342,37.2871,13.4211,0.00129487,0.000167116,-0.000285526,0.00136304,9.89468e-05,-0.234363,0.000877569,0.0135354,1903,1366,37.2871,-13.4211
686,-342,37.2926,12.7882,0.00186232,8.57335e-05,-0.000224343,0.00189021,5.78418e-05,-0.123691,0.00124131,0.01214,1910,1366,37.2926,-12.7882
693,-342,37.2458,12.1583,0.00244372,6.29779e-05,-0.000191071,0.00245896,4.77406e-05,-0.0795781,0.00162363,0.0130144,1917,1366,37.2458,-12.1583
700,-342,37.2087,11.5614,0.00301893,7.37438e-05,-0.000161173,0.00302773,6.495e-05,-0.0545073,0.00199719,0.0156363,1924,1366,37.2088,-11.5614
707,-342,37.176,10.9086,0.00342767,5.95051e-05,-3.2981e-05,0.00342799,5.91821e-05,-0.00979073,0.00226586,0.0156388,1931,1366,37.176,-10.9086
714,-342,37.1946,10.2639,0,0,0,0,0,0,0,-1,1938,1366,37.1946,-10.2639
721,-342,22.4666,6.08679,0,0,0,0,0,0,0,-1,1945,1366,22.4666,-6.08678
728,-342,19.8912,5.26636,0,0,0,0,0,0,0,-1,1952,1366,19.8913,-5.26636
735,-342,19.481,4.41968,0,0,0,0,0,0,0,-1,1959,1366,19.4809,-4.41962
742,-342,19.309,2.66943,0,0,0,0,0,0,0,-1,1966,1366,19.3089,-2.66948
749,-342,21.0934,6.47729,0,0,0,0,0,0,0,-1,1973,1366,21.0934,-6.4773
756,-342,0,0,0,0,0,0,0,0,0,-1,1980,1366,0,0
763,-342,0,0,0,0,0,0,0,0,0,-1,1987,1366,0,0
770,-342,0,0,0,0,0,0,0,0,0,-1,1994,1366,0,0
777,-342,0,0,0,0,0,0,0,0,0,-1,2001,1366,0,0
784,-342,0,0,0,0,0,0,0,0,0,-1,2008,1366,0,0
791,-342,0,0,0,0,0,0,0,0,0,-1,2015,1366,0,0
798,-342,0,0,0,0,0,0,0,0,0,-1,2022,1366,0,0
805,-342,0,0,0,0,0,0,0,0,0,-1,2029,1366,0,0
812,-342,0,0,0,0,0,0,0,0,0,-1,2036,1366,0,0
-700,-349,0,0,0,0,0,0,0,0,0,-1,524,1373,0,0
-693,-349,0,0,0,0,0,0,0,0,0,-1,531,1373,0,0
-686,-349,0,0,0,0,0,0,0,0,0,-1,538,1373,0,0
-679,-349,0,0,0,0,0,0,0,0,0,-1,545,1373,0,0
-672,-349,0,0,0,0,0,0,0,0,0,-1,552,1373,0,0
-665,-349,0,0,0,0,0,0,0,0,0,-1,559,1373,0,0
-658,-349,0,0,0,0,0,0,0,0,0,-1,566,1373,0,0
-651,-349,0,0,0,0,0,0,0,0,0,-1,573,1373,0,0
-644,-349,0,0,0,0,0,0,0,0,0,-1,580,1373,0,0
-637,-349,0,0,0,0,0,0,0,0,0,-1,587,1373,0,0
-630,-349,-7.64117,-5.06177,0,0,0,0,0,0,0,-1,594,1373,-7.64118,5.0618
-623,-349,-8.63507,0.51123,0,0,0,0,0,0,0,-1,601,1373,-8.63505,-0.511275
-616,-349,-5.2066,-0.188232,0,0,0,0,0,0,0,-1,608,1373,-5.20659,0.188211
-609,-349,-7.12073,1.37048,0,0,0,0,0,0,0,-1,615,1373,-7.12072,-1.37044
-602,-349,-9.00623,3.39587,0,0,0,0,0,0,0,-1,622,1373,-9.0062,-3.39591
-595,-349,-9.50568,2.96912,0,0,0,0,0,0,0,-1,629,1373,-9.50569,-2.96906
-588,-349,-8.60046,3.56042,0,0,0,0,0,0,0,-1,636,1373,-8.60046,-3.56047
-581,-349,-20.1825,8.31165,0,0,0,0,0,0,0,-1,643,1373,-20.1825,-8.31163
-574,-349,-20.2711,8.93555,0.00387139,0.00215538,0.00162297,0.00484919,0.00117757,0.542241,0.00292051,0.0369293,650,1373,-20.2711,-8.93555
-567,-349,-20.3348,9.68958,0.003206,0.0015749,0.00135748,0.00397407,0.000806824,0.5149,0.00242559,0.0184619,657,1373,-20.3348,-9.68953
-560,-349,-20.3535,10.3585,0.00295603,0.00113752,0.00126197,0.00360219,0.000491355,0.473221,0.00225558,0.0215878,664,1373,-20.3534,-10.3585
-553,-349,-20.3588,10.9274,0.00291632,0.000792903,0.00127838,0.00351639,0.00019284,0.438863,0.00228269,0.0265196,671,1373,-20.3588,-10.9274
-546,-349,-20.3367,11.5853,0.00306584,0.000526318,0.00138446,0.00367465,-8.24925e-05,0.414293,0.00247772,0.0291179,678,1373,-20.3367,-11.5853
-539,-349,-20.384,12.29,0.00339497,0.000335194,0.00157574,0.00406133,-0.000331169,0.400081,0.00282442,0.0238073,685,1373,-20.384,-12.29
-532,-349,-20.4528,12.9918,0.00390876,0.000228736,0.00185521,0.00468169,-0.000544192,0.394755,0.00331744,0.0174167,692,1373,-20.4528,-12.9918
-525,-349,-20.4425,13.6884,0.00459535,0.000173976,0.00220666,0.0055082,-0.000738876,0.392244,0.00394158,0.0141591,699,1373,-20.4425,-13.6884
-518,-349,-20.4193,14.3879,0.00546117,0.00032752,0.00265412,0.00658663,-0.000797939,0.401059,0.0046798,0.0236801,706,1373,-20.4192,-14.388
-511,-349,-20.3703,15.0786,0,0,0,0,0,0,0,-1,713,1373,-20.3703,-15.0786
-504,-349,-9.60516,7.88831,0,0,0,0,0,0,0,-1,720,1373,-9.60519,-7.88825
-497,-349,-7.9339,5.58789,0,0,0,0,0,0,0,-1,727,1373,-7.93388,-5.58785
-490,-349,-8.73969,-0.503784,0,0,0,0,0,0,0,-1,734,1373,-8.73966,0.503752
-483,-349,-5.66974,3.7395,0,0,0,0,0,0,0,-1,741,1373,-5.66975,-3.73949
-476,-349,-10.8496,1.15759,0,0,0,0,0,0,0,-1,748,1373,-10.8496,-1.15756
-469,-349,-12.3314,-1.74878,0,0,0,0,0,0,0,-1,755,1373,-12.3314,1.74882
-462,-349,-12.6559,-0.995361,0,0,0,0,0,0,0,-1,762,1373,-12.656,0.995351
-455,-349,-13.2897,-0.234253,0,0,0,0,0,0,0,-1,769,1373,-13.2897,0.234261
-448,-349,-14.045,0.712891,0,0,0,0,0,0,0,-1,776,1373,-14.045,-0.712838
-441,-349,0,0,0,0,0,0,0,0,0,-1,783,1373,0,0
-434,-349,0,0,0,0,0,0,0,0,0,-1,790,1373,0,0
-427,-349,0,0,0,0,0,0,0,0,0,-1,797,1373,0,0
-420,-349,0,0,0,0,0,0,0,0,0,-1,804,1373,0,0
-413,-349,0,0,0,0,0,0,0,0,0,-1,811,1373,0,0
-406,-349,0,0,0,0,0,0,0,0,0,-1,818,1373,0,0
-399,-349,0,0,0,0,0,0,0,0,0,-1,825,1373,0,0
-392,-349,0,0,0,0,0,0,0,0,0,-1,832,1373,0,0
-385,-349,0,0,0,0,0,0,0,0,0,-1,839,1373,0,0
-378,-349,0,0,0,0,0,0,0,0,0,-1,846,1373,0,0
-371,-349,0,0,0,0,0,0,0,0,0,-1,853,1373,0,0
-364,-349,0,0,0,0,0,0,0,0,0,-1,860,1373,0,0
-357,-349,0,0,0,0,0,0,0,0,0,-1,867,1373,0,0
-350,-349,0,0,0,0,0,0,0,0,0,-1,874,1373,0,0
-343,-349,0,0,0,0,0,0,0,0,0,-1,881,1373,0,0
-336,-349,0,0,0,0,0,0,0,0,0,-1,888,1373,0,0
-329,-349,0,0,0,0,0,0,0,0,0,-1,895,1373,0,0
-322,-349,0,0,0,0,0,0,0,0,0,-1,902,1373,0,0
-315,-349,0,0,0,0,0,0,0,0,0,-1,909,1373,0,0
-308,-349,0,0,0,0,0,0,0,0,0,-1,916,1373,0,0
-301,-349,0,0,0,0,0,0,0,0,0,-1,923,1373,0,0
-294,-349,0,0,0,0,0,0,0,0,0,-1,930,1373,0,0
-287,-349,0,0,0,0,0,0,0,0,0,-1,937,1373,0,0
-280,-349,0,0,0,0,0,0,0,0,0,-1,944,1373,0,0
-273,-349,0,0,0,0,0,0,0,0,0,-1,951,1373,0,0
-266,-349,0,0,0,0,0,0,0,0,0,-1,958,1373,0,0
-259,-349,0,0,0,0,0,0,0,0,0,-1,965,1373,0,0
-252,-349,0,0,0,0,0,0,0,0,0,-1,972,1373,0,0
-245,-349,0,0,0,0,0,0,0,0,0,-1,979,1373,0,0
-238,-349,0,0,0,0,0,0,0,0,0,-1,986,1373,0,0
-231,-349,0,0,0,0,0,0,0,0,0,-1,993,1373,0,0
-224,-349,0,0,0,0,0,0,0,0,0,-1,1000,1373,0,0
-217,-349,0,0,0,0,0,0,0,0,0,-1,1007,1373,0,0
-210,-349,0,0,0,0,0,0,0,0,0,-1,1014,1373,0,0
-203,-349,0,0,0,0,0,0,0,0,0,-1,1021,1373,0,0
-196,-349,0,0,0,0,0,0,0,0,0,-1,1028,1373,0,0
-189,-349,0,0,0,0,0,0,0,0,0,-1,1035,1373,0,0
-182,-349,0,0,0,0,0,0,0,0,0,-1,1042,1373,0,0
-175,-349,0,0,0,0,0,0,0,0,0,-1,1049,1373,0,0
-168,-349,0,0,0,0,0,0,0,0,0,-1,1056,1373,0,0
-161,-349,0,0,0,0,0,0,0,0,0,-1,1063,1373,0,0
-154,-349,0,0,0,0,0,0,0,0,0,-1,1070,1373,0,0
-147,-349,0,0,0,0,0,0,0,0,0,-1,1077,1373,0,0
-140,-349,0,0,0,0,0,0,0,0,0,-1,1084,1373,0,0
-133,-349,0,0,0,0,0,0,0,0,0,-1,1091,1373,0,0
-126,-349,0,0,0,0,0,0,0,0,0,-1,1098,1373,0,0
-119,-349,0,0,0,0,0,0,0,0,0,-1,1105,1373,0,0
-112,-349,0,0,0,0,0,0,0,0,0,-1,1112,1373,0,0
-105,-349,0,0,0,0,0,0,0,0,0,-1,1119,1373,0,0
-98,-349,0,0,0,0,0,0,0,0,0,-1,1126,1373,0,0
-91,-349,0,0,0,0,0,0,0,0,0,-1,1133,1373,0,0
-84,-349,0,0,0,0,0,0,0,0,0,-1,1140,1373,0,0
-77,-349,0,0,0,0,0,0,0,0,0,-1,1147,1373,0,0
-70,-349,0,0,0,0,0,0,0,0,0,-1,1154,1373,0,0
-63,-349,0,0,0,0,0,0,0,0,0,-1,1161,1373,0,0
-56,-349,0,0,0,0,0,0,0,0,0,-1,1168,1373,0,0
-49,-349,0,0,0,0,0,0,0,0,0,-1,1175,1373,0,0
-42,-349,0,0,0,0,0,0,0,0,0,-1,1182,1373,0,0
-35,-349,0,0,0,0,0,0,0,0,0,-1,1189,1373,0,0
-28,-349,0,0,0,0,0,0,0,0,0,-1,1196,1373,0,0
-21,-349,0,0,0,0,0,0,0,0,0,-1,1203,1373,0,0
-14,-349,0,0,0,0,0,0,0,0,0,-1,1210,1373,0,0
-7,-349,0,0,0,0,0,0,0,0,0,-1,1217,1373,0,0
0,-349,0,0,0,0,0,0,0,0,0,-1,1224,1373,0,0
7,-349,0,0,0,0,0,0,0,0,0,-1,1231,1373,0,0
14,-349,0,0,0,0,0,0,0,0,0,-1,1238,1373,0,0
21,-349,0,0,0,0,0,0,0,0,0,-1,1245,1373,0,0
28,-349,0,0,0,0,0,0,0,0,0,-1,1252,1373,0,0
35,-349,0,0,0,0,0,0,0,0,0,-1,1259,1373,0,0
42,-349,0,0,0,0,0,0,0,0,0,-1,1266,1373,0,0
49,-349,0,0,0,0,0,0,0,0,0,-1,1273,1373,0,0
56,-349,0,0,0,0,0,0,0,0,0,-1,1280,1373,0,0
63,-349,0,0,0,0,0,0,0,0,0,-1,1287,1373,0,0
70,-349,0,0,0,0,0,0,0,0,0,-1,1294,1373,0,0
77,-349,0,0,0,0,0,0,0,0,0,-1,1301,1373,0,0
84,-349,0,0,0,0,0,0,0,0,0,-1,1308,1373,0,0
91,-349,0,0,0,0,0,0,0,0,0,-1,1315,1373,0,0
98,-349,0,0,0,0,0,0,0,0,0,-1,1322,1373,0,0
105,-349,0,0,0,0,0,0,0,0,0,-1,1329,1373,0,0
112,-349,0,0,0,0,0,0,0,0,0,-1,1336,1373,0,0
119,-349,0,0,0,0,0,0,0,0,0,-1,1343,1373,0,0
126,-349,0,0,0,0,0,0,0,0,0,-1,1350,1373,0,0
133,-349,0,0,0,0,0,0,0,0,0,-1,1357,1373,0,0
140,-349,0,0,0,0,0,0,0,0,0,-1,1364,1373,0,0
147,-349,0,0,0,0,0,0,0,0,0,-1,1371,1373,0,0
154,-349,0,0,0,0,0,0,0,0,0,-1,1378,1373,0,0
161,-349,0,0,0,0,0,0,0,0,0,-1,1385,1373,0,0
168,-349,0,0,0,0,0,0,0,0,0,-1,1392,1373,0,0
175,-349,0,0,0,0,0,0,0,0,0,-1,1399,1373,0,0
182,-349,0,0,0,0,0,0,0,0,0,-1,1406,1373,0,0
189,-349,0,0,0,0,0,0,0,0,0,-1,1413,1373,0,0
196,-349,0,0,0,0,0,0,0,0,0,-1,1420,1373,0,0
203,-349,0,0,0,0,0,0,0,0,0,-1,1427,1373,0,0
210,-349,0,0,0,0,0,0,0,0,0,-1,1434,1373,0,0
217,-349,0,0,0,0,0,0,0,0,0,-1,1441,1373,0,0
224,-349,0,0,0,0,0,0,0,0,0,-1,1448,1373,0,0
231,-349,0,0,0,0,0,0,0,0,0,-1,1455,1373,0,0
238,-349,0,0,0,0,0,0,0,0,0,-1,1462,1373,0,0
245,-349,0,0,0,0,0,0,0,0,0,-1,1469,1373,0,0
252,-349,0,0,0,0,0,0,0,0,0,-1,1476,1373,0,0
259,-349,0,0,0,0,0,0,0,0,0,-1,1483,1373,0,0
266,-349,0,0,0,0,0,0,0,0,0,-1,1490,1373,0,0
273,-349,0,0,0,0,0,0,0,0,0,-1,1497,1373,0,0
280,-349,0,0,0,0,0,0,0,0,0,-1,1504,1373,0,0
287,-349,0,0,0,0,0,0,0,0,0,-1,1511,1373,0,0
294,-349,0,0,0,0,0,0,0,0,0,-1,1518,1373,0,0
301,-349,0,0,0,0,0,0,0,0,0,-1,1525,1373,0,0
308,-349,0,0,0,0,0,0,0,0,0,-1,1532,1373,0,0
315,-349,0,0,0,0,0,0,0,0,0,-1,1539,1373,0,0
322,-349,0,0,0,0,0,0,0,0,0,-1,1546,1373,0,0
329,-349,0,0,0,0,0,0,0,0,0,-1,1553,1373,0,0
336,-349,0,0,0,0,0,0,0,0,0,-1,1560,1373,0,0
343,-349,0,0,0,0,0,0,0,0,0,-1,1567,1373,0,0
350,-349,0,0,0,0,0,0,0,0,0,-1,1574,1373,0,0
357,-349,0,0,0,0,0,0,0,0,0,-1,1581,1373,0,0
364,-349,0,0,0,0,0,0,0,0,0,-1,1588,1373,0,0
371,-349,0,0,0,0,0,0,0,0,0,-1,1595,1373,0,0
378,-349,0,0,0,0,0,0,0,0,0,-1,1602,1373,0,0
385,-349,0,0,0,0,0,0,0,0,0,-1,1609,1373,0,0
392,-349,0,0,0,0,0,0,0,0,0,-1,1616,1373,0,0
399,-349,0,0,0,0,0,0,0,0,0,-1,1623,1373,0,0
406,-349,0,0,0,0,0,0,0,0,0,-1,1630,1373,0,0
413,-349,0,0,0,0,0,0,0,0,0,-1,1637,1373,0,0
420,-349,0,0,0,0,0,0,0,0,0,-1,1644,1373,0,0
427,-349,0,0,0,0,0,0,0,0,0,-1,1651,1373,0,0
434,-349,0,0,0,0,0,0,0,0,0,-1,1658,1373,0,0
441,-349,0,0,0,0,0,0,0,0,0,-1,1665,1373,0,0
448,-349,0,0,0,0,0,0,0,0,0,-1,1672,1373,0,0
455,-349,0,0,0,0,0,0,0,0,0,-1,1679,1373,0,0
462,-349,0,0,0,0,0,0,0,0,0,-1,1686,1373,0,0
469,-349,0,0,0,0,0,0,0,0,0,-1,1693,1373,0,0
476,-349,0,0,0,0,0,0,0,0,0,-1,1700,1373,0,0
483,-349,0,0,0,0,0,0,0,0,0,-1,1707,1373,0,0
490,-349,0,0,0,0,0,0,0,0,0,-1,1714,1373,0,0
497,-349,0,0,0,0,0,0,0,0,0,-1,1721,1373,0,0
504,-349,0,0,0,0,0,0,0,0,0,-1,1728,1373,0,0
511,-349,0,0,0,0,0,0,0,0,0,-1,1735,1373,0,0
518,-349,0,0,0,0,0,0,0,0,0,-1,1742,1373,0,0
525,-349,0,0,0,0,0,0,0,0,0,-1,1749,1373,0,0
532,-349,0,0,0,0,0,0,0,0,0,-1,1756,1373,0,0
539,-349,0,0,0,0,0,0,0,0,0,-1,1763,1373,0,0
546,-349,0,0,0,0,0,0,0,0,0,-1,1770,1373,0,0
553,-349,0,0,0,0,0,0,0,0,0,-1,1777,1373,0,0
560,-349,45.6893,3.53845,0,0,0,0,0,0,0,-1,1784,1373,45.6893,-3.5385
567,-349,41.9424,6.03833,0,0,0,0,0,0,0,-1,1791,1373,41.9423,-6.03834
574,-349,42.4165,6.17078,0,0,0,0,0,0,0,-1,1798,1373,42.4165,-6.17072
581,-349,42.8947,6.78381,0,0,0,0,0,0,0,-1,1805,1373,42.8946,-6.78376
588,-349,44.8121,5.06213,0,0,0,0,0,0,0,-1,1812,1373,44.8121,-5.06215
595,-349,44.4338,6.14099,0,0,0,0,0,0,0,-1,1819,1373,44.4338,-6.14095
602,-349,35.6641,3.26465,0,0,0,0,0,0,0,-1,1826,1373,35.6641,-3.26468
609,-349,34.7175,4.401,0,0,0,0,0,0,0,-1,1833,1373,34.7175,-4.40096
616,-349,27.1451,6.68274,0,0,0,0,0,0,0,-1,1840,1373,27.1451,-6.6828
623,-349,18.8478,2.75769,0,0,0,0,0,0,0,-1,1847,1373,18.8478,-2.75774
630,-349,15.4948,6.47644,0,0,0,0,0,0,0,-1,1854,1373,15.4947,-6.4765
637,-349,16.5161,6.92639,0,0,0,0,0,0,0,-1,1861,1373,16.5161,-6.92636
644,-349,36.8464,16.5594,0,0,0,0,0,0,0,-1,1868,1373,36.8465,-16.5595
651,-349,36.8671,15.8939,-0.000152796,0.000942645,-0.00109769,0.00162167,-0.000831824,-1.01681,0.00144079,0.042207,1875,1373,36.8671,-15.8939
658,-349,36.7534,15.2533,3.94335e-05,0.000599978,-0.000648792,0.00102645,-0.000387036,-0.989287,0.000843449,0.0242885,1882,1373,36.7534,-15.2533
665,-349,36.7056,14.6111,0.000423257,0.000355352,-0.000402973,0.000793705,-1.50971e-05,-0.74337,0.00053424,0.0195207,1889,1373,36.7056,-14.6111
672,-349,36.6938,14.0159,0.000938009,0.000242492,-0.000268492,0.00102959,0.000150906,-0.328737,0.000642034,0.0145678,1896,1373,36.6939,-14.0158
679,-349,36.6616,13.4376,0.00152488,0.000206216,-0.000200627,0.00155473,0.000176367,-0.147693,0.000982986,0.0147647,1903,1373,36.6616,-13.4377
686,-349,36.7081,12.8324,0.00216646,0.000219911,-0.000172264,0.00218159,0.000204784,-0.08759,0.00139116,0.0167541,1910,1373,36.7081,-12.8324
693,-349,36.6449,12.2058,0.0028643,0.000307279,-0.000192868,0.00287876,0.000292813,-0.0748623,0.0018294,0.0195098,1917,1373,36.6449,-12.2058
700,-349,36.5999,11.6001,0.00361077,0.000474817,-0.0002539,0.0036312,0.000454393,-0.0802673,0.00228445,0.0193222,1924,1373,36.5998,-11.6001
707,-349,36.645,10.9279,0.00419406,0.000660686,-0.000235072,0.00420963,0.000645115,-0.0661406,0.00261801,0.0349218,1931,1373,36.6451,-10.9278
714,-349,36.7421,10.1561,0,0,0,0,0,0,0,-1,1938,1373,36.7421,-10.1561
721,-349,19.6688,5.93604,0,0,0,0,0,0,0,-1,1945,1373,19.6688,-5.93606
728,-349,18.6333,3.73218,0,0,0,0,0,0,0,-1,1952,1373,18.6333,-3.73214
735,-349,18.1918,3.39954,0,0,0,0,0,0,0,-1,1959,1373,18.1918,-3.3995
742,-349,20.7345,2.07483,0,0,0,0,0,0,0,-1,1966,1373,20.7345,-2.07485
749,-349,21.9037,1.45789,0,0,0,0,0,0,0,-1,1973,1373,21.9037,-1.45788
756,-349,0,0,0,0,0,0,0,0,0,-1,1980,1373,0,0
763,-349,0,0,0,0,0,0,0,0,0,-1,1987,1373,0,0
770,-349,0,0,0,0,0,0,0,0,0,-1,1994,1373,0,0
777,-349,0,0,0,0,0,0,0,0,0,-1,2001,1373,0,0
784,-349,0,0,0,0,0,0,0,0,0,-1,2008,1373,0,0
791,-349,0,0,0,0,0,0,0,0,0,-1,2015,1373,0,0
798,-349,0,0,0,0,0,0,0,0,0,-1,2022,1373,0,0
805,-349,0,0,0,0,0,0,0,0,0,-1,2029,1373,0,0
812,-349,0,0,0,0,0,0,0,0,0,-1,2036,1373,0,0
-700,-356,0,0,0,0,0,0,0,0,0,-1,524,1380,0,0
-693,-356,0,0,0,0,0,0,0,0,0,-1,531,1380,0,0
-686,-356,0,0,0,0,0,0,0,0,0,-1,538,1380,0,0
-679,-356,0,0,0,0,0,0,0,0,0,-1,545,1380,0,0
-672,-356,0,0,0,0,0,0,0,0,0,-1,552,1380,0,0
-665,-356,0,0,0,0,0,0,0,0,0,-1,559,1380,0,0
-658,-356,0,0,0,0,0,0,0,0,0,-1,566,1380,0,0
-651,-356,0,0,0,0,0,0,0,0,0,-1,573,1380,0,0
-644,-356,0,0,0,0,0,0,0,0,0,-1,580,1380,0,0
-637,-356,0,0,0,0,0,0,0,0,0,-1,587,1380,0,0
-630,-356,-8.23126,-5.01917,0,0,0,0,0,0,0,-1,594,1380,-8.23124,5.0192
-623,-356,-0.263855,-0.675781,0,0,0,0,0,0,0,-1,601,1380,-0.263835,0.675841
-616,-356,-8.26532,-3.43945,0,0,0,0,0,0,0,-1,608,1380,-8.2653,3.43948
-609,-356,-4.88483,0.734497,0,0,0,0,0,0,0,-1,615,1380,-4.88485,-0.734532
-602,-356,-9.06635,2.4021,0,0,0,0,0,0,0,-1,622,1380,-9.06634,-2.40206
-595,-356,-8.45703,3.61853,0,0,0,0,0,0,0,-1,629,1380,-8.45706,-3.61848
-588,-356,-9.31738,4.14258,0,0,0,0,0,0,0,-1,636,1380,-9.31736,-4.14255
-581,-356,-16.5185,7.32312,0,0,0,0,0,0,0,-1,643,1380,-16.5185,-7.32306
-574,-356,-19.6977,8.94666,0,0,0,0,0,0,0,-1,650,1380,-19.6977,-8.94668
-567,-356,-19.6852,9.6377,0.00353079,0.00177815,0.00159588,0.00447512,0.000833819,0.534317,0.00274797,0.0220047,657,1380,-19.6852,-9.63774
-560,-356,-19.6245,10.3555,0.00316597,0.00126689,0.00140887,0.00391541,0.000517454,0.488876,0.00245603,0.0188285,664,1380,-19.6245,-10.3555
-553,-356,-19.6423,11.0092,0.00299655,0.000875214,0.00134002,0.00364488,0.000226886,0.45062,0.00235793,0.0200212,671,1380,-19.6423,-11.0091
-546,-356,-19.6882,11.6566,0.00298781,0.000572639,0.00135229,0.00359322,-3.27708e-05,0.420933,0.00240648,0.0214504,678,1380,-19.6882,-11.6566
-539,-356,-19.7493,12.3519,0.00314486,0.000354104,0.00144649,0.00375931,-0.00026035,0.401691,0.00259735,0.016237,685,1380,-19.7493,-12.3519
-532,-356,-19.8073,13.0399,0.00347003,0.000250257,0.00163856,0.00415723,-0.000436945,0.397112,0.00292802,0.0155489,692,1380,-19.8073,-13.04
-525,-356,-19.8035,13.7084,0.00394689,0.00021701,0.00190328,0.00474662,-0.000582724,0.397787,0.00337547,0.0134873,699,1380,-19.8035,-13.7084
-518,-356,-19.791,14.3674,0.00457766,0.000358234,0.00226226,0.00556128,-0.000625384,0.410138,0.00393259,0.0140125,706,1380,-19.791,-14.3674
-511,-356,-19.7837,15.0359,0,0,0,0,0,0,0,-1,713,1380,-19.7837,-15.0359
-504,-356,-14.3925,12.3971,0,0,0,0,0,0,0,-1,720,1380,-14.3925,-12.3971
-497,-356,-5.68604,4.96387,0,0,0,0,0,0,0,-1,727,1380,-5.68605,-4.96385
-490,-356,-7.95288,5.5625,0,0,0,0,0,0,0,-1,734,1380,-7.95285,-5.56246
-483,-356,-7.2627,4.07446,0,0,0,0,0,0,0,-1,741,1380,-7.2627,-4.07441
-476,-356,-5.1936,4.16016,0,0,0,0,0,0,0,-1,748,1380,-5.1936,-4.16012
-469,-356,-10.0883,0.536011,0,0,0,0,0,0,0,-1,755,1380,-10.0883,-0.535989
-462,-356,-12.3481,-0.215698,0,0,0,0,0,0,0,-1,762,1380,-12.3481,0.215641
-455,-356,-13.1367,-0.264648,0,0,0,0,0,0,0,-1,769,1380,-13.1367,0.264647
-448,-356,-13.9116,-0.310181,0,0,0,0,0,0,0,-1,776,1380,-13.9115,0.310207
-441,-356,-13.1602,3.05603,0,0,0,0,0,0,0,-1,783,1380,-13.1602,-3.05609
-434,-356,0,0,0,0,0,0,0,0,0,-1,790,1380,0,0
-427,-356,0,0,0,0,0,0,0,0,0,-1,797,1380,0,0
-420,-356,0,0,0,0,0,0,0,0,0,-1,804,1380,0,0
-413,-356,0,0,0,0,0,0,0,0,0,-1,811,1380,0,0
-406,-356,0,0,0,0,0,0,0,0,0,-1,818,1380,0,0
-399,-356,0,0,0,0,0,0,0,0,0,-1,825,1380,0,0
-392,-356,0,0,0,0,0,0,0,0,0,-1,832,1380,0,0
-385,-356,0,0,0,0,0,0,0,0,0,-1,839,1380,0,0
-378,-356,0,0,0,0,0,0,0,0,0,-1,846,1380,0,0
-371,-356,0,0,0,0,0,0,0,0,0,-1,853,1380,0,0
-364,-356,0,0,0,0,0,0,0,0,0,-1,860,1380,0,0
-357,-356,0,0,0,0,0,0,0,0,0,-1,867,1380,0,0
-350,-356,0,0,0,0,0,0,0,0,0,-1,874,1380,0,0
-343,-356,0,0,0,0,0,0,0,0,0,-1,881,1380,0,0
-336,-356,0,0,0,0,0,0,0,0,0,-1,888,1380,0,0
-329,-356,0,0,0,0,0,0,0,0,0,-1,895,1380,0,0
-322,-356,0,0,0,0,0,0,0,0,0,-1,902,1380,0,0
-315,-356,0,0,0,0,0,0,0,0,0,-1,909,1380,0,0
-308,-356,0,0,0,0,0,0,0,0,0,-1,916,1380,0,0
-301,-356,0,0,0,0,0,0,0,0,0,-1,923,1380,0,0
-294,-356,0,0,0,0,0,0,0,0,0,-1,930,1380,0,0
-287,-356,0,0,0,0,0,0,0,0,0,-1,937,1380,0,0
-280,-356,0,0,0,0,0,0,0,0,0,-1,944,1380,0,0
-273,-356,0,0,0,0,0,0,0,0,0,-1,951,1380,0,0
-266,-356,0,0,0,0,0,0,0,0,0,-1,958,1380,0,0
-259,-356,0,0,0,0,0,0,0,0,0,-1,965,1380,0,0
-252,-356,0,0,0,0,0,0,0,0,0,-1,972,1380,0,0
-245,-356,0,0,0,0,0,0,0,0,0,-1,979,1380,0,0
-238,-356,0,0,0,0,0,0,0,0,0,-1,986,1380,0,0
-231,-356,0,0,0,0,0,0,0,0,0,-1,993,1380,0,0
-224,-356,0,0,0,0,0,0,0,0,0,-1,1000,1380,0,0
-217,-356,0,0,0,0,0,0,0,0,0,-1,1007,1380,0,0
-210,-356,0,0,0,0,0,0,0,0,0,-1,1014,1380,0,0
-203,-356,0,0,0,0,0,0,0,0,0,-1,1021,1380,0,0
-196,-356,0,0,0,0,0,0,0,0,0,-1,1028,1380,0,0
-189,-356,0,0,0,0,0,0,0,0,0,-1,1035,1380,0,0
-182,-356,0,0,0,0,0,0,0,0,0,-1,1042,1380,0,0
-175,-356,0,0,0,0,0,0,0,0,0,-1,1049,1380,0,0
-168,-356,0,0,0,0,0,0,0,0,0,-1,1056,1380,0,0
-161,-356,0,0,0,0,0,0,0,0,0,-1,1063,1380,0,0
-154,-356,0,0,0,0,0,0,0,0,0,-1,1070,1380,0,0
-147,-356,0,0,0,0,0,0,0,0,0,-1,1077,1380,0,0
-140,-356,0,0,0,0,0,0,0,0,0,-1,1084,1380,0,0
-133,-356,0,0,0,0,0,0,0,0,0,-1,1091,1380,0,0
-126,-356,0,0,0,0,0,0,0,0,0,-1,1098,1380,0,0
-119,-356,0,0,0,0,0,0,0,0,0,-1,1105,1380,0,0
-112,-356,0,0,0,0,0,0,0,0,0,-1,1112,1380,0,0
-105,-356,0,0,0,0,0,0,0,0,0,-1,1119,1380,0,0
-98,-356,0,0,0,0,0,0,0,0,0,-1,1126,1380,0,0
-91,-356,0,0,0,0,0,0,0,0,0,-1,1133,1380,0,0
-84,-356,0,0,0,0,0,0,0,0,0,-1,1140,1380,0,0
-77,-356,0,0,0,0,0,0,0,0,0,-1,1147,1380,0,0
-70,-356,0,0,0,0,0,0,0,0,0,-1,1154,1380,0,0
-63,-356,0,0,0,0,0,0,0,0,0,-1,1161,1380,0,0
-56,-356,0,0,0,0,0,0,0,0,0,-1,1168,1380,0,0
-49,-356,0,0,0,0,0,0,0,0,0,-1,1175,1380,0,0
-42,-356,0,0,0,0,0,0,0,0,0,-1,1182,1380,0,0
-35,-356,0,0,0,0,0,0,0,0,0,-1,1189,1380,0,0
-28,-356,0,0,0,0,0,0,0,0,0,-1,1196,1380,0,0
-21,-356,0,0,0,0,0,0,0,0,0,-1,1203,1380,0,0
-14,-356,0,0,0,0,0,0,0,0,0,-1,1210,1380,0,0
-7,-356,0,0,0,0,0,0,0,0,0,-1,1217,1380,0,0
0,-356,0,0,0,0,0,0,0,0,0,-1,1224,1380,0,0
7,-356,0,0,0,0,0,0,0,0,0,-1,1231,1380,0,0
14,-356,0,0,0,0,0,0,0,0,0,-1,1238,1380,0,0
21,-356,0,0,0,0,0,0,0,0,0,-1,1245,1380,0,0
28,-356,0,0,0,0,0,0,0,0,0,-1,1252,1380,0,0
35,-356,0,0,0,0,0,0,0,0,0,-1,1259,1380,0,0
42,-356,0,0,0,0,0,0,0,0,0,-1,1266,1380,0,0
49,-356,0,0,0,0,0,0,0,0,0,-1,1273,1380,0,0
56,-356,0,0,0,0,0,0,0,0,0,-1,1280,1380,0,0
63,-356,0,0,0,0,0,0,0,0,0,-1,1287,1380,0,0
70,-356,0,0,0,0,0,0,0,0,0,-1,1294,1380,0,0
77,-356,0,0,0,0,0,0,0,0,0,-1,1301,1380,0,0
84,-356,0,0,0,0,0,0,0,0,0,-1,1308,1380,0,0
91,-356,0,0,0,0,0,0,0,0,0,-1,1315,1380,0,0
98,-356,0,0,0,0,0,0,0,0,0,-1,1322,1380,0,0
105,-356,0,0,0,0,0,0,0,0,0,-1,1329,1380,0,0
112,-356,0,0,0,0,0,0,0,0,0,-1,1336,1380,0,0
119,-356,0,0,0,0,0,0,0,0,0,-1,1343,1380,0,0
126,-356,0,0,0,0,0,0,0,0,0,-1,1350,1380,0,0
133,-356,0,0,0,0,0,0,0,0,0,-1,1357,1380,0,0
140,-356,0,0,0,0,0,0,0,0,0,-1,1364,1380,0,0
147,-356,0,0,0,0,0,0,0,0,0,-1,1371,1380,0,0
154,-356,0,0,0,0,0,0,0,0,0,-1,1378,1380,0,0
161,-356,0,0,0,0,0,0,0,0,0,-1,1385,1380,0,0
168,-356,0,0,0,0,0,0,0,0,0,-1,1392,1380,0,0
175,-356,0,0,0,0,0,0,0,0,0,-1,1399,1380,0,0
182,-356,0,0,0,0,0,0,0,0,0,-1,1406,1380,0,0
189,-356,0,0,0,0,0,0,0,0,0,-1,1413,1380,0,0
196,-356,0,0,0,0,0,0,0,0,0,-1,1420,1380,0,0
203,-356,0,0,0,0,0,0,0,0,0,-1,1427,1380,0,0
210,-356,0,0,0,0,0,0,0,0,0,-1,1434,1380,0,0
217,-356,0,0,0,0,0,0,0,0,0,-1,1441,1380,0,0
224,-356,0,0,0,0,0,0,0,0,0,-1,1448,1380,0,0
231,-356,0,0,0,0,0,0,0,0,0,-1,1455,1380,0,0
238,-356,0,0,0,0,0,0,0,0,0,-1,1462,1380,0,0
245,-356,0,0,0,0,0,0,0,0,0,-1,1469,1380,0,0
252,-356,0,0,0,0,0,0,0,0,0,-1,1476,1380,0,0
259,-356,0,0,0,0,0,0,0,0,0,-1,1483,1380,0,0
266,-356,0,0,0,0,0,0,0,0,0,-1,1490,1380,0,0
273,-356,0,0,0,0,0,0,0,0,0,-1,1497,1380,0,0
280,-356,0,0,0,0,0,0,0,0,0,-1,1504,1380,0,0
287,-356,0,0,0,0,0,0,0,0,0,-1,1511,1380,0,0
294,-356,0,0,0,0,0,0,0,0,0,-1,1518,1380,0,0
301,-356,0,0,0,0,0,0,0,0,0,-1,1525,1380,0,0
308,-356,0,0,0,0,0,0,0,0,0,-1,1532,1380,0,0
315,-356,0,0,0,0,0,0,0,0,0,-1,1539,1380,0,0
322,-356,0,0,0,0,0,0,0,0,0,-1,1546,1380,0,0
329,-356,0,0,0,0,0,0,0,0,0,-1,1553,1380,0,0
336,-356,0,0,0,0,0,0,0,0,0,-1,1560,1380,0,0
343,-356,0,0,0,0,0,0,0,0,0,-1,1567,1380,0,0
350,-356,0,0,0,0,0,0,0,0,0,-1,1574,1380,0,0
357,-356,0,0,0,0,0,0,0,0,0,-1,1581,1380,0,0
364,-356,0,0,0,0,0,0,0,0,0,-1,1588,1380,0,0
371,-356,0,0,0,0,0,0,0,0,0,-1,1595,1380,0,0
378,-356,0,0,0,0,0,0,0,0,0,-1,1602,1380,0,0
385,-356,0,0,0,0,0,0,0,0,0,-1,1609,1380,0,0
392,-356,0,0,0,0,0,0,0,0,0,-1,1616,1380,0,0
399,-356,0,0,0,0,0,0,0,0,0,-1,1623,1380,0,0
406,-356,0,0,0,0,0,0,0,0,0,-1,1630,1380,0,0
413,-356,0,0,0,0,0,0,0,0,0,-1,1637,1380,0,0
420,-356,0,0,0,0,0,0,0,0,0,-1,1644,1380,0,0
427,-356,0,0,0,0,0,0,0,0,0,-1,1651,1380,0,0
434,-356,0,0,0,0,0,0,0,0,0,-1,1658,1380,0,0
441,-356,0,0,0,0,0,0,0,0,0,-1,1665,1380,0,0
448,-356,0,0,0,0,0,0,0,0,0,-1,1672,1380,0,0
455,-356,0,0,0,0,0,0,0,0,0,-1,1679,1380,0,0
462,-356,0,0,0,0,0,0,0,0,0,-1,1686,1380,0,0
469,-356,0,0,0,0,0,0,0,0,0,-1,1693,1380,0,0
476,-356,0,0,0,0,0,0,0,0,0,-1,1700,1380,0,0
483,-356,0,0,0,0,0,0,0,0,0,-1,1707,1380,0,0
490,-356,0,0,0,0,0,0,0,0,0,-1,1714,1380,0,0
497,-356,0,0,0,0,0,0,0,0,0,-1,1721,1380,0,0
504,-356,0,0,0,0,0,0,0,0,0,-1,1728,1380,0,0
511,-356,0,0,0,0,0,0,0,0,0,-1,1735,1380,0,0
518,-356,0,0,0,0,0,0,0,0,0,-1,1742,1380,0,0
525,-356,0,0,0,0,0,0,0,0,0,-1,1749,1380,0,0
532,-356,0,0,0,0,0,0,0,0,0,-1,1756,1380,0,0
539,-356,0,0,0,0,0,0,0,0,0,-1,1763,1380,0,0
546,-356,0,0,0,0,0,0,0,0,0,-1,1770,1380,0,0
553,-356,0,0,0,0,0,0,0,0,0,-1,1777,1380,0,0
560,-356,45.7938,3.65295,0,0,0,0,0,0,0,-1,1784,1380,45.7938,-3.65294
567,-356,45.6788,3.51428,0,0,0,0,0,0,0,-1,1791,1380,45.6788,-3.51422
574,-356,45.5742,3.39575,0,0,0,0,0,0,0,-1,1798,1380,45.5742,-3.39574
581,-356,45.6708,3.64172,0,0,0,0,0,0,0,-1,1805,1380,45.6707,-3.64175
588,-356,44.4739,4.87085,0,0,0,0,0,0,0,-1,1812,1380,44.4739,-4.87086
595,-356,32.0834,5.86084,0,0,0,0,0,0,0,-1,1819,1380,32.0834,-5.86079
602,-356,30.1604,6.07104,0,0,0,0,0,0,0,-1,1826,1380,30.1604,-6.07104
609,-356,28.3435,6.48901,0,0,0,0,0,0,0,-1,1833,1380,28.3435,-6.48899
616,-356,26.9358,6.80872,0,0,0,0,0,0,0,-1,1840,1380,26.9358,-6.80877
623,-356,16.1803,1.07532,0,0,0,0,0,0,0,-1,1847,1380,16.1803,-1.07529
630,-356,16.4138,6.91553,0,0,0,0,0,0,0,-1,1854,1380,16.4138,-6.9155
637,-356,24.8021,12.0151,0,0,0,0,0,0,0,-1,1861,1380,24.8022,-12.0151
644,-356,36.2107,16.6298,0,0,0,0,0,0,0,-1,1868,1380,36.2107,-16.6298
651,-356,36.1995,15.9127,5.86958e-05,0.000695401,-0.00091733,0.00134805,-0.000593952,-0.952417,0.00114905,0.0190587,1875,1380,36.1994,-15.9128
658,-356,36.1371,15.2535,0.000246546,0.000439983,-0.000521073,0.000873237,-0.000186708,-0.877161,0.000653348,0.0143073,1882,1380,36.1371,-15.2535
665,-356,36.0863,14.675,0.000614936,0.000258522,-0.000283477,0.000771568,0.00010189,-0.504789,0.000484004,0.014391,1889,1380,36.0862,-14.6751
672,-356,36.0587,14.0605,0.00111878,0.000179446,-0.000139815,0.00113914,0.000159077,-0.144669,0.000712349,0.0154341,1896,1380,36.0588,-14.0606
679,-356,36.0518,13.4436,0.00173428,0.000174673,-7.56884e-05,0.00173795,0.000171008,-0.0483788,0.00110604,0.0178477,1903,1380,36.0518,-13.4436
686,-356,36.0382,12.8303,0.00249317,0.000269007,-0.000111261,0.00249872,0.000263455,-0.0498576,0.00158531,0.0193652,1910,1380,36.0382,-12.8304
693,-356,36.026,12.2295,0.00337258,0.00046568,-0.000234297,0.00339134,0.000446917,-0.079913,0.00212763,0.0169952,1917,1380,36.026,-12.2295
700,-356,36.0266,11.6072,0.00443206,0.000835552,-0.000481178,0.00449532,0.000772288,-0.130728,0.0027755,0.0238346,1924,1380,36.0266,-11.6072
707,-356,36.1356,10.7817,0,0,0,0,0,0,0,-1,1931,1380,36.1356,-10.7817
714,-356,19.6907,5.82129,0,0,0,0,0,0,0,-1,1938,1380,19.6907,-5.82132
721,-356,17.2948,4.1958,0,0,0,0,0,0,0,-1,1945,1380,17.2948,-4.19584
728,-356,19.1846,2.31519,0,0,0,0,0,0,0,-1,1952,1380,19.1846,-2.31514
735,-356,20.0731,2.50842,0,0,0,0,0,0,0,-1,1959,1380,20.0731,-2.50844
742,-356,21.0111,2.43762,0,0,0,0,0,0,0,-1,1966,1380,21.0112,-2.43762
749,-356,22.1411,1.83276,0,0,0,0,0,0,0,-1,1973,1380,22.1411,-1.83275
756,-356,0,0,0,0,0,0,0,0,0,-1,1980,1380,0,0
763,-356,0,0,0,0,0,0,0,0,0,-1,1987,1380,0,0
770,-356,0,0,0,0,0,0,0,0,0,-1,1994,1380,0,0
777,-356,0,0,0,0,0,0,0,0,0,-1,2001,1380,0,0
784,-356,0,0,0,0,0,0,0,0,0,-1,2008,1380,0,0
791,-356,0,0,0,0,0,0,0,0,0,-1,2015,1380,0,0
798,-356,0,0,0,0,0,0,0,0,0,-1,2022,1380,0,0
805,-356,0,0,0,0,0,0,0,0,0,-1,2029,1380,0,0
812,-356,0,0,0,0,0,0,0,0,0,-1,2036,1380,0,0
-700,-363,0,0,0,0,0,0,0,0,0,-1,524,1387,0,0
-693,-363,0,0,0,0,0,0,0,0,0,-1,531,1387,0,0
-686,-363,0,0,0,0,0,0,0,0,0,-1,538,1387,0,0
-679,-363,0,0,0,0,0,0,0,0,0,-1,545,1387,0,0
-672,-363,0,0,0,0,0,0,0,0,0,-1,552,1387,0,0
-665,-363,0,0,0,0,0,0,0,0,0,-1,559,1387,0,0
-658,-363,0,0,0,0,0,0,0,0,0,-1,566,1387,0,0
-651,-363,0,0,0,0,0,0,0,0,0,-1,573,1387,0,0
-644,-363,0,0,0,0,0,0,0,0,0,-1,580,1387,0,0
-637,-363,0,0,0,0,0,0,0,0,0,-1,587,1387,0,0
-630,-363,0,0,0,0,0,0,0,0,0,-1,594,1387,0,0
-623,-363,-9.67566,-5.91846,0,0,0,0,0,0,0,-1,601,1387,-9.67563,5.91847
-616,-363,-9.02985,-2.98083,0,0,0,0,0,0,0,-1,608,1387,-9.02987,2.98079
-609,-363,-4.90265,0.195679,0,0,0,0,0,0,0,-1,615,1387,-4.90263,-0.195721
-602,-363,-9.65009,3.5321,0,0,0,0,0,0,0,-1,622,1387,-9.65007,-3.53211
-595,-363,-8.00256,3.48853,0,0,0,0,0,0,0,-1,629,1387,-8.00256,-3.48855
-588,-363,-10.8846,4.49768,0,0,0,0,0,0,0,-1,636,1387,-10.8846,-4.49773
-581,-363,-11.7469,5.15161,0,0,0,0,0,0,0,-1,643,1387,-11.747,-5.15167
-574,-363,-17.8334,8.33801,0,0,0,0,0,0,0,-1,650,1387,-17.8334,-8.33804
-567,-363,-19.082,9.65723,0,0,0,0,0,0,0,-1,657,1387,-19.082,-9.65728
-560,-363,-19.0038,10.3795,0.00346703,0.00138971,0.00168551,0.0044082,0.000448534,0.509265,0.00280128,0.0148428,664,1387,-19.0038,-10.3795
-553,-363,-19.0087,11.0677,0.00315924,0.000958397,0.00150152,0.0039204,0.000197235,0.469174,0.0025504,0.0133393,671,1387,-19.0087,-11.0677
-546,-363,-19.055,11.7117,0.00299891,0.000627676,0.00140154,0.00364905,-2.24604e-05,0.434332,0.00244022,0.0136062,678,1387,-19.055,-11.7116
-539,-363,-19.0699,12.3684,0.00299294,0.000387324,0.00138074,0.00358849,-0.000208222,0.407215,0.00246467,0.0161661,685,1387,-19.07,-12.3684
-532,-363,-19.1342,13.0579,0.00314725,0.000280036,0.00146398,0.00376266,-0.000335372,0.39794,0.00262738,0.0138032,692,1387,-19.1342,-13.0579
-525,-363,-19.1454,13.7345,0.00344187,0.000253749,0.00162382,0.0041233,-0.000427675,0.397323,0.00290195,0.0118137,699,1387,-19.1454,-13.7345
-518,-363,-19.1397,14.3998,0.00386907,0.000369037,0.00187151,0.0046813,-0.000443193,0.409467,0.0032786,0.0107422,706,1387,-19.1397,-14.3998
-511,-363,-19.12,15.0938,0.00449763,0.000683002,0.00225767,0.0055458,-0.000365173,0.43466,0.00382474,0.0287082,713,1387,-19.12,-15.0937
-504,-363,-19.0731,15.8163,0,0,0,0,0,0,0,-1,720,1387,-19.0731,-15.8163
-497,-363,-7.18842,7.29944,0,0,0,0,0,0,0,-1,727,1387,-7.18839,-7.29945
-490,-363,-5.42413,4.6958,0,0,0,0,0,0,0,-1,734,1387,-5.42412,-4.69583
-483,-363,-6.28375,4.1394,0,0,0,0,0,0,0,-1,741,1387,-6.28374,-4.13944
-476,-363,-5.83807,4.31018,0,0,0,0,0,0,0,-1,748,1387,-5.8381,-4.31013
-469,-363,-10.7125,0.697754,0,0,0,0,0,0,0,-1,755,1387,-10.7125,-0.697811
-462,-363,-9.55951,-0.0830078,0,0,0,0,0,0,0,-1,762,1387,-9.55949,0.0830163
-455,-363,-13.1008,-0.290894,0,0,0,0,0,0,0,-1,769,1387,-13.1008,0.290921
-448,-363,-11.7324,2.46606,0,0,0,0,0,0,0,-1,776,1387,-11.7324,-2.46605
-441,-363,-12.4464,2.5354,0,0,0,0,0,0,0,-1,783,1387,-12.4463,-2.53537
-434,-363,-13.6918,2.14661,0,0,0,0,0,0,0,-1,790,1387,-13.6918,-2.14662
-427,-363,0,0,0,0,0,0,0,0,0,-1,797,1387,0,0
-420,-363,0,0,0,0,0,0,0,0,0,-1,804,1387,0,0
-413,-363,0,0,0,0,0,0,0,0,0,-1,811,1387,0,0
-406,-363,0,0,0,0,0,0,0,0,0,-1,818,1387,0,0
-399,-363,0,0,0,0,0,0,0,0,0,-1,825,1387,0,0
-392,-363,0,0,0,0,0,0,0,0,0,-1,832,1387,0,0
-385,-363,0,0,0,0,0,0,0,0,0,-1,839,1387,0,0
-378,-363,0,0,0,0,0,0,0,0,0,-1,846,1387,0,0
-371,-363,0,0,0,0,0,0,0,0,0,-1,853,1387,0,0
-364,-363,0,0,0,0,0,0,0,0,0,-1,860,1387,0,0
-357,-363,0,0,0,0,0,0,0,0,0,-1,867,1387,0,0
-350,-363,0,0,0,0,0,0,0,0,0,-1,874,1387,0,0
-343,-363,0,0,0,0,0,0,0,0,0,-1,881,1387,0,0
-336,-363,0,0,0,0,0,0,0,0,0,-1,888,1387,0,0
-329,-363,0,0,0,0,0,0,0,0,0,-1,895,1387,0,0
-322,-363,0,0,0,0,0,0,0,0,0,-1,902,1387,0,0
-315,-363,0,0,0,0,0,0,0,0,0,-1,909,1387,0,0
-308,-363,0,0,0,0,0,0,0,0,0,-1,916,1387,0,0
-301,-363,0,0,0,0,0,0,0,0,0,-1,923,1387,0,0
-294,-363,0,0,0,0,0,0,0,0,0,-1,930,1387,0,0
-287,-363,0,0,0,0,0,0,0,0,0,-1,937,1387,0,0
-280,-363,0,0,0,0,0,0,0,0,0,-1,944,1387,0,0
-273,-363,0,0,0,0,0,0,0,0,0,-1,951,1387,0,0
-266,-363,0,0,0,0,0,0,0,0,0,-1,958,1387,0,0
-259,-363,0,0,0,0,0,0,0,0,0,-1,965,1387,0,0
-252,-363,0,0,0,0,0,0,0,0,0,-1,972,1387,0,0
-245,-363,0,0,0,0,0,0,0,0,0,-1,979,1387,0,0
-238,-363,0,0,0,0,0,0,0,0,0,-1,986,1387,0,0
-231,-363,0,0,0,0,0,0,0,0,0,-1,993,1387,0,0
-224,-363,0,0,0,0,0,0,0,0,0,-1,1000,1387,0,0
-217,-363,0,0,0,0,0,0,0,0,0,-1,1007,1387,0,0
-210,-363,0,0,0,0,0,0,0,0,0,-1,1014,1387,0,0
-203,-363,0,0,0,0,0,0,0,0,0,-1,1021,1387,0,0
-196,-363,0,0,0,0,0,0,0,0,0,-1,1028,1387,0,0
-189,-363,0,0,0,0,0,0,0,0,0,-1,1035,1387,0,0
-182,-363,0,0,0,0,0,0,0,0,0,-1,1042,1387,0,0
-175,-363,0,0,0,0,0,0,0,0,0,-1,1049,1387,0,0
-168,-363,0,0,0,0,0,0,0,0,0,-1,1056,1387,0,0
-161,-363,0,0,0,0,0,0,0,0,0,-1,1063,1387,0,0
-154,-363,0,0,0,0,0,0,0,0,0,-1,1070,1387,0,0
-147,-363,0,0,0,0,0,0,0,0,0,-1,1077,1387,0,0
-140,-363,0,0,0,0,0,0,0,0,0,-1,1084,1387,0,0
-133,-363,0,0,0,0,0,0,0,0,0,-1,1091,1387,0,0
-126,-363,0,0,0,0,0,0,0,0,0,-1,1098,1387,0,0
-119,-363,0,0,0,0,0,0,0,0,0,-1,1105,1387,0,0
-112,-363,0,0,0,0,0,0,0,0,0,-1,1112,1387,0,0
-105,-363,0,0,0,0,0,0,0,0,0,-1,1119,1387,0,0
-98,-363,0,0,0,0,0,0,0,0,0,-1,1126,1387,0,0
-91,-363,0,0,0,0,0,0,0,0,0,-1,1133,1387,0,0
-84,-363,0,0,0,0,0,0,0,0,0,-1,1140,1387,0,0
-77,-363,0,0,0,0,0,0,0,0,0,-1,1147,1387,0,0
-70,-363,0,0,0,0,0,0,0,0,0,-1,1154,1387,0,0
-63,-363,0,0,0,0,0,0,0,0,0,-1,1161,1387,0,0
-56,-363,0,0,0,0,0,0,0,0,0,-1,1168,1387,0,0
-49,-363,0,0,0,0,0,0,0,0,0,-1,1175,1387,0,0
-42,-363,0,0,0,0,0,0,0,0,0,-1,1182,1387,0,0
-35,-363,0,0,0,0,0,0,0,0,0,-1,1189,1387,0,0
-28,-363,0,0,0,0,0,0,0,0,0,-1,1196,1387,0,0
-21,-363,0,0,0,0,0,0,0,0,0,-1,1203,1387,0,0
-14,-363,0,0,0,0,0,0,0,0,0,-1,1210,1387,0,0
-7,-363,0,0,0,0,0,0,0,0,0,-1,1217,1387,0,0
0,-363,0,0,0,0,0,0,0,0,0,-1,1224,1387,0,0
7,-363,0,0,0,0,0,0,0,0,0,-1,1231,1387,0,0
14,-363,0,0,0,0,0,0,0,0,0,-1,1238,1387,0,0
21,-363,0,0,0,0,0,0,0,0,0,-1,1245,1387,0,0
28,-363,0,0,0,0,0,0,0,0,0,-1,1252,1387,0,0
35,-363,0,0,0,0,0,0,0,0,0,-1,1259,1387,0,0
42,-363,0,0,0,0,0,0,0,0,0,-1,1266,1387,0,0
49,-363,0,0,0,0,0,0,0,0,0,-1,1273,1387,0,0
56,-363,0,0,0,0,0,0,0,0,0,-1,1280,1387,0,0
63,-363,0,0,0,0,0,0,0,0,0,-1,1287,1387,0,0
70,-363,0,0,0,0,0,0,0,0,0,-1,1294,1387,0,0
77,-363,0,0,0,0,0,0,0,0,0,-1,1301,1387,0,0
84,-363,0,0,0,0,0,0,0,0,0,-1,1308,1387,0,0
91,-363,0,0,0,0,0,0,0,0,0,-1,1315,1387,0,0
98,-363,0,0,0,0,0,0,0,0,0,-1,1322,1387,0,0
105,-363,0,0,0,0,0,0,0,0,0,-1,1329,1387,0,0
112,-363,0,0,0,0,0,0,0,0,0,-1,1336,1387,0,0
119,-363,0,0,0,0,0,0,0,0,0,-1,1343,1387,0,0
126,-363,0,0,0,0,0,0,0,0,0,-1,1350,1387,0,0
133,-363,0,0,0,0,0,0,0,0,0,-1,1357,1387,0,0
140,-363,0,0,0,0,0,0,0,0,0,-1,1364,1387,0,0
147,-363,0,0,0,0,0,0,0,0,0,-1,1371,1387,0,0
154,-363,0,0,0,0,0,0,0,0,0,-1,1378,1387,0,0
161,-363,0,0,0,0,0,0,0,0,0,-1,1385,1387,0,0
168,-363,0,0,0,0,0,0,0,0,0,-1,1392,1387,0,0
175,-363,0,0,0,0,0,0,0,0,0,-1,1399,1387,0,0
182,-363,0,0,0,0,0,0,0,0,0,-1,1406,1387,0,0
189,-363,0,0,0,0,0,0,0,0,0,-1,1413,1387,0,0
196,-363,0,0,0,0,0,0,0,0,0,-1,1420,1387,0,0
203,-363,0,0,0,0,0,0,0,0,0,-1,1427,1387,0,0
210,-363,0,0,0,0,0,0,0,0,0,-1,1434,1387,0,0
217,-363,0,0,0,0,0,0,0,0,0,-1,1441,1387,0,0
224,-363,0,0,0,0,0,0,0,0,0,-1,1448,1387,0,0
231,-363,0,0,0,0,0,0,0,0,0,-1,1455,1387,0,0
238,-363,0,0,0,0,0,0,0,0,0,-1,1462,1387,0,0
245,-363,0,0,0,0,0,0,0,0,0,-1,1469,1387,0,0
252,-363,0,0,0,0,0,0,0,0,0,-1,1476,1387,0,0
259,-363,0,0,0,0,0,0,0,0,0,-1,1483,1387,0,0
266,-363,0,0,0,0,0,0,0,0,0,-1,1490,1387,0,0
273,-363,0,0,0,0,0,0,0,0,0,-1,1497,1387,0,0
280,-363,0,0,0,0,0,0,0,0,0,-1,1504,1387,0,0
287,-363,0,0,0,0,0,0,0,0,0,-1,1511,1387,0,0
294,-363,0,0,0,0,0,0,0,0,0,-1,1518,1387,0,0
301,-363,0,0,0,0,0,0,0,0,0,-1,1525,1387,0,0
308,-363,0,0,0,0,0,0,0,0,0,-1,1532,1387,0,0
315,-363,0,0,0,0,0,0,0,0,0,-1,1539,1387,0,0
322,-363,0,0,0,0,0,0,0,0,0,-1,1546,1387,0,0
329,-363,0,0,0,0,0,0,0,0,0,-1,1553,1387,0,0
336,-363,0,0,0,0,0,0,0,0,0,-1,1560,1387,0,0
343,-363,0,0,0,0,0,0,0,0,0,-1,1567,1387,0,0
350,-363,0,0,0,0,0,0,0,0,0,-1,1574,1387,0,0
357,-363,0,0,0,0,0,0,0,0,0,-1,1581,1387,0,0
364,-363,0,0,0,0,0,0,0,0,0,-1,1588,1387,0,0
371,-363,0,0,0,0,0,0,0,0,0,-1,1595,1387,0,0
378,-363,0,0,0,0,0,0,0,0,0,-1,1602,1387,0,0
385,-363,0,0,0,0,0,0,0,0,0,-1,1609,1387,0,0
392,-363,0,0,0,0,0,0,0,0,0,-1,1616,1387,0,0
399,-363,0,0,0,0,0,0,0,0,0,-1,1623,1387,0,0
406,-363,0,0,0,0,0,0,0,0,0,-1,1630,1387,0,0
413,-363,0,0,0,0,0,0,0,0,0,-1,1637,1387,0,0
420,-363,0,0,0,0,0,0,0,0,0,-1,1644,1387,0,0
427,-363,0,0,0,0,0,0,0,0,0,-1,1651,1387,0,0
434,-363,0,0,0,0,0,0,0,0,0,-1,1658,1387,0,0
441,-363,0,0,0,0,0,0,0,0,0,-1,1665,1387,0,0
448,-363,0,0,0,0,0,0,0,0,0,-1,1672,1387,0,0
455,-363,0,0,0,0,0,0,0,0,0,-1,1679,1387,0,0
462,-363,0,0,0,0,0,0,0,0,0,-1,1686,1387,0,0
469,-363,0,0,0,0,0,0,0,0,0,-1,1693,1387,0,0
476,-363,0,0,0,0,0,0,0,0,0,-1,1700,1387,0,0
483,-363,0,0,0,0,0,0,0,0,0,-1,1707,1387,0,0
490,-363,0,0,0,0,0,0,0,0,0,-1,1714,1387,0,0
497,-363,0,0,0,0,0,0,0,0,0,-1,1721,1387,0,0
504,-363,0,0,0,0,0,0,0,0,0,-1,1728,1387,0,0
511,-363,0,0,0,0,0,0,0,0,0,-1,1735,1387,0,0
518,-363,0,0,0,0,0,0,0,0,0,-1,1742,1387,0,0
525,-363,0,0,0,0,0,0,0,0,0,-1,1749,1387,0,0
532,-363,0,0,0,0,0,0,0,0,0,-1,1756,1387,0,0
539,-363,0,0,0,0,0,0,0,0,0,-1,1763,1387,0,0
546,-363,0,0,0,0,0,0,0,0,0,-1,1770,1387,0,0
553,-363,45.9076,3.64331,0,0,0,0,0,0,0,-1,1777,1387,45.9076,-3.64336
560,-363,45.9459,3.6875,0,0,0,0,0,0,0,-1,1784,1387,45.9459,-3.68756
567,-363,45.9266,3.32825,0,0,0,0,0,0,0,-1,1791,1387,45.9266,-3.32824
574,-363,45.7261,2.8075,0,0,0,0,0,0,0,-1,1798,1387,45.7261,-2.80754
581,-363,39.2413,1.97632,0,0,0,0,0,0,0,-1,1805,1387,39.2413,-1.97636
588,-363,32.5608,6.72131,0,0,0,0,0,0,0,-1,1812,1387,32.5608,-6.72131
595,-363,31.4688,6.95435,0,0,0,0,0,0,0,-1,1819,1387,31.4688,-6.95431
602,-363,25.7437,5.33667,0,0,0,0,0,0,0,-1,1826,1387,25.7437,-5.33667
609,-363,27.7048,7.06885,0,0,0,0,0,0,0,-1,1833,1387,27.7048,-7.06882
616,-363,16.229,1.08704,0,0,0,0,0,0,0,-1,1840,1387,16.229,-1.08706
623,-363,15.7283,7.16663,0,0,0,0,0,0,0,-1,1847,1387,15.7282,-7.16665
630,-363,18.3192,9.27844,0,0,0,0,0,0,0,-1,1854,1387,18.3192,-9.27843
637,-363,35.4668,17.3795,0,0,0,0,0,0,0,-1,1861,1387,35.4668,-17.3795
644,-363,35.5256,16.6134,0.000484657,0.000771576,-0.00131133,0.00194727,-0.000691035,-0.839882,0.00157973,0.0173942,1868,1387,35.5257,-16.6134
651,-363,35.5452,15.907,0.000283089,0.000414005,-0.000734414,0.00108587,-0.000388778,-0.829845,0.00088253,0.0113767,1875,1387,35.5452,-15.9069
658,-363,35.5193,15.2853,0.00050933,0.000257343,-0.000396802,0.000799661,-3.29879e-05,-0.631671,0.000544436,0.012205,1882,1387,35.5193,-15.2853
665,-363,35.4772,14.6984,0.000891123,0.000157276,-0.000169129,0.000928226,0.000120173,-0.215956,0.000582904,0.0126896,1889,1387,35.4771,-14.6984
672,-363,35.4365,14.093,0.00142742,0.00015092,-3.11944e-05,0.00142818,0.000150158,-0.024418,0.000906225,0.0142133,1896,1387,35.4365,-14.093
679,-363,35.4264,13.4797,0.00210284,0.000229151,1.9982e-05,0.00210306,0.000228938,0.0106629,0.0013323,0.0153414,1903,1387,35.4264,-13.4798
686,-363,35.4015,12.8889,0.00293244,0.000395172,-2.52614e-05,0.00293269,0.00039492,-0.00995482,0.00183769,0.0152367,1910,1387,35.4014,-12.8889
693,-363,35.3729,12.2322,0.00393814,0.000700075,-0.000204245,0.00395097,0.000687243,-0.0627449,0.00243741,0.0141291,1917,1387,35.3729,-12.2322
700,-363,35.4893,11.5315,0.0052153,0.00124487,-0.000561425,0.00529316,0.00116701,-0.137803,0.00321125,0.0282093,1924,1387,35.4892,-11.5315
707,-363,35.734,10.8888,0,0,0,0,0,0,0,-1,1931,1387,35.734,-10.8887
714,-363,16.5782,5.3147,0,0,0,0,0,0,0,-1,1938,1387,16.5783,-5.31472
721,-363,14.4045,4.51685,0,0,0,0,0,0,0,-1,1945,1387,14.4045,-4.51685
728,-363,19.9756,0.853027,0,0,0,0,0,0,0,-1,1952,1387,19.9756,-0.853059
735,-363,21.4297,1.2981,0,0,0,0,0,0,0,-1,1959,1387,21.4297,-1.29811
742,-363,21.3621,2.79663,0,0,0,0,0,0,0,-1,1966,1387,21.362,-2.7966
749,-363,0,0,0,0,0,0,0,0,0,-1,1973,1387,0,0
756,-363,0,0,0,0,0,0,0,0,0,-1,1980,1387,0,0
763,-363,0,0,0,0,0,0,0,0,0,-1,1987,1387,0,0
770,-363,0,0,0,0,0,0,0,0,0,-1,1994,1387,0,0
777,-363,0,0,0,0,0,0,0,0,0,-1,2001,1387,0,0
784,-363,0,0,0,0,0,0,0,0,0,-1,2008,1387,0,0
791,-363,0,0,0,0,0,0,0,0,0,-1,2015,1387,0,0
798,-363,0,0,0,0,0,0,0,0,0,-1,2022,1387,0,0
805,-363,0,0,0,0,0,0,0,0,0,-1,2029,1387,0,0
812,-363,0,0,0,0,0,0,0,0,0,-1,2036,1387,0,0
-700,-370,0,0,0,0,0,0,0,0,0,-1,524,1394,0,0
-693,-370,0,0,0,0,0,0,0,0,0,-1,531,1394,0,0
-686,-370,0,0,0,0,0,0,0,0,0,-1,538,1394,0,0
-679,-370,0,0,0,0,0,0,0,0,0,-1,545,1394,0,0
-672,-370,0,0,0,0,0,0,0,0,0,-1,552,1394,0,0
-665,-370,0,0,0,0,0,0,0,0,0,-1,559,1394,0,0
-658,-370,0,0,0,0,0,0,0,0,0,-1,566,1394,0,0
-651,-370,0,0,0,0,0,0,0,0,0,-1,573,1394,0,0
-644,-370,0,0,0,0,0,0,0,0,0,-1,580,1394,0,0
-637,-370,0,0,0,0,0,0,0,0,0,-1,587,1394,0,0
-630,-370,0,0,0,0,0,0,0,0,0,-1,594,1394,0,0
-623,-370,-10.1758,-7.10486,0,0,0,0,0,0,0,-1,601,1394,-10.1758,7.10483
-616,-370,-8.85925,-1.61475,0,0,0,0,0,0,0,-1,608,1394,-8.85925,1.61476
-609,-370,-5.39325,0.0421143,0,0,0,0,0,0,0,-1,615,1394,-5.39328,-0.0421372
-602,-370,-12.3151,3.44592,0,0,0,0,0,0,0,-1,622,1394,-12.3151,-3.44595
-595,-370,-7.53284,5.44214,0,0,0,0,0,0,0,-1,629,1394,-7.53284,-5.44216
-588,-370,-11.2422,4.50598,0,0,0,0,0,0,0,-1,636,1394,-11.2422,-4.50596
-581,-370,-13.1575,5.84888,0,0,0,0,0,0,0,-1,643,1394,-13.1575,-5.84887
-574,-370,-13.0107,6.69861,0,0,0,0,0,0,0,-1,650,1394,-13.0108,-6.69866
-567,-370,-18.4386,9.63171,0,0,0,0,0,0,0,-1,657,1394,-18.4386,-9.63169
-560,-370,-18.4343,10.3854,0.00384389,0.001566,0.00197036,0.0049808,0.000429086,0.523341,0.00318715,0.031642,664,1394,-18.4343,-10.3853
-553,-370,-18.3683,11.1025,0.00341348,0.00109277,0.00168121,0.00429589,0.000210359,0.483341,0.00279645,0.0112102,671,1394,-18.3683,-11.1025
-546,-370,-18.3844,11.7612,0.00311142,0.000726314,0.00148299,0.00382187,1.58604e-05,0.446763,0.00254264,0.0153191,678,1394,-18.3844,-11.7612
-539,-370,-18.3853,12.4612,0.00294759,0.000452571,0.00136185,0.00354695,-0.000146783,0.414594,0.00241505,0.0199361,685,1394,-18.3853,-12.4611
-532,-370,-18.4455,13.1075,0.00294181,0.000315587,0.00135196,0.00351339,-0.000255996,0.399988,0.00243209,0.0222903,692,1394,-18.4455,-13.1076
-525,-370,-18.4739,13.7532,0.00307538,0.00028207,0.0014373,0.00368284,-0.000325392,0.39987,0.00257057,0.018678,699,1394,-18.4739,-13.7532
-518,-370,-18.4777,14.405,0.00333302,0.000360706,0.00161034,0.00403818,-0.000344452,0.41274,0.00281397,0.013335,706,1394,-18.4777,-14.405
-511,-370,-18.4843,15.1027,0.00376968,0.000626014,0.00191599,0.00467608,-0.000280392,0.441877,0.00321493,0.0159064,713,1394,-18.4843,-15.1027
-504,-370,-18.4824,15.8118,0,0,0,0,0,0,0,-1,720,1394,-18.4824,-15.8117
-497,-370,-12.3546,11.7982,0,0,0,0,0,0,0,-1,727,1394,-12.3546,-11.7983
-490,-370,-5.30695,4.5271,0,0,0,0,0,0,0,-1,734,1394,-5.30698,-4.52704
-483,-370,-6.02997,4.59253,0,0,0,0,0,0,0,-1,741,1394,-6.02994,-4.5925
-476,-370,-6.75293,4.65796,0,0,0,0,0,0,0,-1,748,1394,-6.7529,-4.65795
-469,-370,-10.584,1.14294,0,0,0,0,0,0,0,-1,755,1394,-10.584,-1.14293
-462,-370,-9.54462,0.387207,0,0,0,0,0,0,0,-1,762,1394,-9.5446,-0.387176
-455,-370,-8.50525,-0.36853,0,0,0,0,0,0,0,-1,769,1394,-8.50523,0.368582
-448,-370,-10.9543,2.28833,0,0,0,0,0,0,0,-1,776,1394,-10.9543,-2.28835
-441,-370,-11.8699,1.8313,0,0,0,0,0,0,0,-1,783,1394,-11.8699,-1.83127
-434,-370,-12.7855,1.37415,0,0,0,0,0,0,0,-1,790,1394,-12.7855,-1.37419
-427,-370,0,0,0,0,0,0,0,0,0,-1,797,1394,0,0
-420,-370,0,0,0,0,0,0,0,0,0,-1,804,1394,0,0
-413,-370,0,0,0,0,0,0,0,0,0,-1,811,1394,0,0
-406,-370,0,0,0,0,0,0,0,0,0,-1,818,1394,0,0
-399,-370,0,0,0,0,0,0,0,0,0,-1,825,1394,0,0
-392,-370,0,0,0,0,0,0,0,0,0,-1,832,1394,0,0
-385,-370,0,0,0,0,0,0,0,0,0,-1,839,1394,0,0
-378,-370,0,0,0,0,0,0,0,0,0,-1,846,1394,0,0
-371,-370,0,0,0,0,0,0,0,0,0,-1,853,1394,0,0
-364,-370,0,0,0,0,0,0,0,0,0,-1,860,1394,0,0
-357,-370,0,0,0,0,0,0,0,0,0,-1,867,1394,0,0
-350,-370,0,0,0,0,0,0,0,0,0,-1,874,1394,0,0
-343,-370,0,0,0,0,0,0,0,0,0,-1,881,1394,0,0
-336,-370,0,0,0,0,0,0,0,0,0,-1,888,1394,0,0
-329,-370,0,0,0,0,0,0,0,0,0,-1,895,1394,0,0
-322,-370,0,0,0,0,0,0,0,0,0,-1,902,1394,0,0
-315,-370,0,0,0,0,0,0,0,0,0,-1,909,1394,0,0
-308,-370,0,0,0,0,0,0,0,0,0,-1,916,1394,0,0
-301,-370,0,0,0,0,0,0,0,0,0,-1,923,1394,0,0
-294,-370,0,0,0,0,0,0,0,0,0,-1,930,1394,0,0
-287,-370,0,0,0,0,0,0,0,0,0,-1,937,1394,0,0
-280,-370,0,0,0,0,0,0,0,0,0,-1,944,1394,0,0
-273,-370,0,0,0,0,0,0,0,0,0,-1,951,1394,0,0
-266,-370,0,0,0,0,0,0,0,0,0,-1,958,1394,0,0
-259,-370,0,0,0,0,0,0,0,0,0,-1,965,1394,0,0
-252,-370,0,0,0,0,0,0,0,0,0,-1,972,1394,0,0
-245,-370,0,0,0,0,0,0,0,0,0,-1,979,1394,0,0
-238,-370,0,0,0,0,0,0,0,0,0,-1,986,1394,0,0
-231,-370,0,0,0,0,0,0,0,0,0,-1,993,1394,0,0
-224,-370,0,0,0,0,0,0,0,0,0,-1,1000,1394,0,0
-217,-370,0,0,0,0,0,0,0,0,0,-1,1007,1394,0,0
-210,-370,0,0,0,0,0,0,0,0,0,-1,1014,1394,0,0
-203,-370,0,0,0,0,0,0,0,0,0,-1,1021,1394,0,0
-196,-370,0,0,0,0,0,0,0,0,0,-1,1028,1394,0,0
-189,-370,0,0,0,0,0,0,0,0,0,-1,1035,1394,0,0
-182,-370,0,0,0,0,0,0,0,0,0,-1,1042,1394,0,0
-175,-370,0,0,0,0,0,0,0,0,0,-1,1049,1394,0,0
-168,-370,0,0,0,0,0,0,0,0,0,-1,1056,1394,0,0
-161,-370,0,0,0,0,0,0,0,0,0,-1,1063,1394,0,0
-154,-370,0,0,0,0,0,0,0,0,0,-1,1070,1394,0,0
-147,-370,0,0,0,0,0,0,0,0,0,-1,1077,1394,0,0
-140,-370,0,0,0,0,0,0,0,0,0,-1,1084,1394,0,0
-133,-370,0,0,0,0,0,0,0,0,0,-1,1091,1394,0,0
-126,-370,0,0,0,0,0,0,0,0,0,-1,1098,1394,0,0
-119,-370,0,0,0,0,0,0,0,0,0,-1,1105,1394,0,0
-112,-370,0,0,0,0,0,0,0,0,0,-1,1112,1394,0,0
-105,-370,0,0,0,0,0,0,0,0,0,-1,1119,1394,0,0
-98,-370,0,0,0,0,0,0,0,0,0,-1,1126,1394,0,0
-91,-370,0,0,0,0,0,0,0,0,0,-1,1133,1394,0,0
-84,-370,0,0,0,0,0,0,0,0,0,-1,1140,1394,0,0
-77,-370,0,0,0,0,0,0,0,0,0,-1,1147,1394,0,0
-70,-370,0,0,0,0,0,0,0,0,0,-1,1154,1394,0,0
-63,-370,0,0,0,0,0,0,0,0,0,-1,1161,1394,0,0
-56,-370,0,0,0,0,0,0,0,0,0,-1,1168,1394,0,0
-49,-370,0,0,0,0,0,0,0,0,0,-1,1175,1394,0,0
-42,-370,0,0,0,0,0,0,0,0,0,-1,1182,1394,0,0
-35,-370,0,0,0,0,0,0,0,0,0,-1,1189,1394,0,0
-28,-370,0,0,0,0,0,0,0,0,0,-1,1196,1394,0,0
-21,-370,0,0,0,0,0,0,0,0,0,-1,1203,1394,0,0
-14,-370,0,0,0,0,0,0,0,0,0,-1,1210,1394,0,0
-7,-370,0,0,0,0,0,0,0,0,0,-1,1217,1394,0,0
0,-370,0,0,0,0,0,0,0,0,0,-1,1224,1394,0,0
7,-370,0,0,0,0,0,0,0,0,0,-1,1231,1394,0,0
14,-370,0,0,0,0,0,0,0,0,0,-1,1238,1394,0,0
21,-370,0,0,0,0,0,0,0,0,0,-1,1245,1394,0,0
28,-370,0,0,0,0,0,0,0,0,0,-1,1252,1394,0,0
35,-370,0,0,0,0,0,0,0,0,0,-1,1259,1394,0,0
42,-370,0,0,0,0,0,0,0,0,0,-1,1266,1394,0,0
49,-370,0,0,0,0,0,0,0,0,0,-1,1273,1394,0,0
56,-370,0,0,0,0,0,0,0,0,0,-1,1280,1394,0,0
63,-370,0,0,0,0,0,0,0,0,0,-1,1287,1394,0,0
70,-370,0,0,0,0,0,0,0,0,0,-1,1294,1394,0,0
77,-370,0,0,0,0,0,0,0,0,0,-1,1301,1394,0,0
84,-370,0,0,0,0,0,0,0,0,0,-1,1308,1394,0,0
91,-370,0,0,0,0,0,0,0,0,0,-1,1315,1394,0,0
98,-370,0,0,0,0,0,0,0,0,0,-1,1322,1394,0,0
105,-370,0,0,0,0,0,0,0,0,0,-1,1329,1394,0,0
112,-370,0,0,0,0,0,0,0,0,0,-1,1336,1394,0,0
119,-370,0,0,0,0,0,0,0,0,0,-1,1343,1394,0,0
126,-370,0,0,0,0,0,0,0,0,0,-1,1350,1394,0,0
133,-370,0,0,0,0,0,0,0,0,0,-1,1357,1394,0,0
140,-370,0,0,0,0,0,0,0,0,0,-1,1364,1394,0,0
147,-370,0,0,0,0,0,0,0,0,0,-1,1371,1394,0,0
154,-370,0,0,0,0,0,0,0,0,0,-1,1378,1394,0,0
161,-370,0,0,0,0,0,0,0,0,0,-1,1385,1394,0,0
168,-370,0,0,0,0,0,0,0,0,0,-1,1392,1394,0,0
175,-370,0,0,0,0,0,0,0,0,0,-1,1399,1394,0,0
182,-370,0,0,0,0,0,0,0,0,0,-1,1406,1394,0,0
189,-370,0,0,0,0,0,0,0,0,0,-1,1413,1394,0,0
196,-370,0,0,0,0,0,0,0,0,0,-1,1420,1394,0,0
203,-370,0,0,0,0,0,0,0,0,0,-1,1427,1394,0,0
210,-370,0,0,0,0,0,0,0,0,0,-1,1434,1394,0,0
217,-370,0,0,0,0,0,0,0,0,0,-1,1441,1394,0,0
224,-370,0,0,0,0,0,0,0,0,0,-1,1448,1394,0,0
231,-370,0,0,0,0,0,0,0,0,0,-1,1455,1394,0,0
238,-370,0,0,0,0,0,0,0,0,0,-1,1462,1394,0,0
245,-370,0,0,0,0,0,0,0,0,0,-1,1469,1394,0,0
252,-370,0,0,0,0,0,0,0,0,0,-1,1476,1394,0,0
259,-370,0,0,0,0,0,0,0,0,0,-1,1483,1394,0,0
266,-370,0,0,0,0,0,0,0,0,0,-1,1490,1394,0,0
273,-370,0,0,0,0,0,0,0,0,0,-1,1497,1394,0,0
280,-370,0,0,0,0,0,0,0,0,0,-1,1504,1394,0,0
287,-370,0,0,0,0,0,0,0,0,0,-1,1511,1394,0,0
294,-370,0,0,0,0,0,0,0,0,0,-1,1518,1394,0,0
301,-370,0,0,0,0,0,0,0,0,0,-1,1525,1394,0,0
308,-370,0,0,0,0,0,0,0,0,0,-1,1532,1394,0,0
315,-370,0,0,0,0,0,0,0,0,0,-1,1539,1394,0,0
322,-370,0,0,0,0,0,0,0,0,0,-1,1546,1394,0,0
329,-370,0,0,0,0,0,0,0,0,0,-1,1553,1394,0,0
336,-370,0,0,0,0,0,0,0,0,0,-1,1560,1394,0,0
343,-370,0,0,0,0,0,0,0,0,0,-1,1567,1394,0,0
350,-370,0,0,0,0,0,0,0,0,0,-1,1574,1394,0,0
357,-370,0,0,0,0,0,0,0,0,0,-1,1581,1394,0,0
364,-370,0,0,0,0,0,0,0,0,0,-1,1588,1394,0,0
371,-370,0,0,0,0,0,0,0,0,0,-1,1595,1394,0,0
378,-370,0,0,0,0,0,0,0,0,0,-1,1602,1394,0,0
385,-370,0,0,0,0,0,0,0,0,0,-1,1609,1394,0,0
392,-370,0,0,0,0,0,0,0,0,0,-1,1616,1394,0,0
399,-370,0,0,0,0,0,0,0,0,0,-1,1623,1394,0,0
406,-370,0,0,0,0,0,0,0,0,0,-1,1630,1394,0,0
413,-370,0,0,0,0,0,0,0,0,0,-1,1637,1394,0,0
420,-370,0,0,0,0,0,0,0,0,0,-1,1644,1394,0,0
427,-370,0,0,0,0,0,0,0,0,0,-1,1651,1394,0,0
434,-370,0,0,0,0,0,0,0,0,0,-1,1658,1394,0,0
441,-370,0,0,0,0,0,0,0,0,0,-1,1665,1394,0,0
448,-370,0,0,0,0,0,0,0,0,0,-1,1672,1394,0,0
455,-370,0,0,0,0,0,0,0,0,0,-1,1679,1394,0,0
462,-370,0,0,0,0,0,0,0,0,0,-1,1686,1394,0,0
469,-370,0,0,0,0,0,0,0,0,0,-1,1693,1394,0,0
476,-370,0,0,0,0,0,0,0,0,0,-1,1700,1394,0,0
483,-370,0,0,0,0,0,0,0,0,0,-1,1707,1394,0,0
490,-370,0,0,0,0,0,0,0,0,0,-1,1714,1394,0,0
497,-370,0,0,0,0,0,0,0,0,0,-1,1721,1394,0,0
504,-370,0,0,0,0,0,0,0,0,0,-1,1728,1394,0,0
511,-370,0,0,0,0,0,0,0,0,0,-1,1735,1394,0,0
518,-370,0,0,0,0,0,0,0,0,0,-1,1742,1394,0,0
525,-370,0,0,0,0,0,0,0,0,0,-1,1749,1394,0,0
532,-370,0,0,0,0,0,0,0,0,0,-1,1756,1394,0,0
539,-370,0,0,0,0,0,0,0,0,0,-1,1763,1394,0,0
546,-370,27.4949,2.81201,0,0,0,0,0,0,0,-1,1770,1394,27.4948,-2.81198
553,-370,26.5985,1.99329,0,0,0,0,0,0,0,-1,1777,1394,26.5985,-1.99327
560,-370,46.0132,3.65686,0,0,0,0,0,0,0,-1,1784,1394,46.0132,-3.65689
567,-370,46.1089,3.11719,0,0,0,0,0,0,0,-1,1791,1394,46.1089,-3.1172
574,-370,38.8953,1.49353,0,0,0,0,0,0,0,-1,1798,1394,38.8952,-1.49348
581,-370,39.178,2.86145,0,0,0,0,0,0,0,-1,1805,1394,39.1779,-2.86145
588,-370,39.2102,4.27661,0,0,0,0,0,0,0,-1,1812,1394,39.2102,-4.27657
595,-370,25.793,4.5271,0,0,0,0,0,0,0,-1,1819,1394,25.793,-4.52711
602,-370,25.1077,5.34937,0,0,0,0,0,0,0,-1,1826,1394,25.1077,-5.34932
609,-370,16.712,0.993286,0,0,0,0,0,0,0,-1,1833,1394,16.7121,-0.99323
616,-370,16.7764,7.23315,0,0,0,0,0,0,0,-1,1840,1394,16.7764,-7.23313
623,-370,17.6625,8.94263,0,0,0,0,0,0,0,-1,1847,1394,17.6624,-8.94258
630,-370,20.9681,11.1785,0,0,0,0,0,0,0,-1,1854,1394,20.9681,-11.1784
637,-370,34.923,17.2079,0,0,0,0,0,0,0,-1,1861,1394,34.9229,-17.2079
644,-370,34.9491,16.5721,0.000534972,0.000347548,-0.000957122,0.00140296,-0.000520438,-0.736599,0.00114878,0.0145603,1868,1394,34.9491,-16.5721
651,-370,34.9362,15.9408,0.000477058,0.00017102,-0.000524227,0.000870142,-0.000222064,-0.643396,0.000666563,0.012899,1875,1394,34.9362,-15.9408
658,-370,34.9065,15.3322,0.000737578,0.00012341,-0.000248322,0.000825418,3.55704e-05,-0.339995,0.000538813,0.0134489,1882,1394,34.9064,-15.3321
665,-370,34.8605,14.7196,0.00113355,0.000114266,-3.84848e-05,0.001135,0.000112815,-0.0376853,0.000722003,0.0149987,1889,1394,34.8605,-14.7196
672,-370,34.8085,14.0914,0.00168218,0.000185342,0.000100693,0.00168893,0.000178599,0.0668691,0.00107139,0.0154115,1896,1394,34.8085,-14.0914
679,-370,34.8245,13.4805,0.0023756,0.000323534,0.000173561,0.00239018,0.000308958,0.0837856,0.0015011,0.0142962,1903,1394,34.8245,-13.4805
686,-370,34.797,12.8936,0.00322818,0.000523729,0.000170381,0.00323887,0.000513037,0.0626699,0.00201018,0.0146015,1910,1394,34.797,-12.8936
693,-370,34.751,12.2365,0.0043042,0.000873576,4.19753e-06,0.0043042,0.000873571,0.00122355,0.00262715,0.0133608,1917,1394,34.7509,-12.2364
700,-370,34.8778,11.4971,0.0057344,0.00147551,-0.000357377,0.00576418,0.00144573,-0.0831384,0.00346298,0.0418738,1924,1394,34.8778,-11.497
707,-370,35.1002,10.677,0,0,0,0,0,0,0,-1,1931,1394,35.1002,-10.677
714,-370,16.9116,5.93018,0,0,0,0,0,0,0,-1,1938,1394,16.9116,-5.93014
721,-370,17.2007,4.69153,0,0,0,0,0,0,0,-1,1945,1394,17.2007,-4.69158
728,-370,20.5315,-0.313354,0,0,0,0,0,0,0,-1,1952,1394,20.5315,0.313332
735,-370,22.3652,0.233398,0,0,0,0,0,0,0,-1,1959,1394,22.3652,-0.233355
742,-370,24.1989,0.780029,0,0,0,0,0,0,0,-1,1966,1394,24.1989,-0.780041
749,-370,0,0,0,0,0,0,0,0,0,-1,1973,1394,0,0
756,-370,0,0,0,0,0,0,0,0,0,-1,1980,1394,0,0
763,-370,0,0,0,0,0,0,0,0,0,-1,1987,1394,0,0
770,-370,0,0,0,0,0,0,0,0,0,-1,1994,1394,0,0
777,-370,0,0,0,0,0,0,0,0,0,-1,2001,1394,0,0
784,-370,0,0,0,0,0,0,0,0,0,-1,2008,1394,0,0
791,-370,0,0,0,0,0,0,0,0,0,-1,2015,1394,0,0
798,-370,0,0,0,0,0,0,0,0,0,-1,2022,1394,0,0
805,-370,0,0,0,0,0,0,0,0,0,-1,2029,1394,0,0
812,-370,0,0,0,0,0,0,0,0,0,-1,2036,1394,0,0
-700,-377,0,0,0,0,0,0,0,0,0,-1,524,1401,0,0
-693,-377,0,0,0,0,0,0,0,0,0,-1,531,1401,0,0
-686,-377,0,0,0,0,0,0,0,0,0,-1,538,1401,0,0
-679,-377,0,0,0,0,0,0,0,0,0,-1,545,1401,0,0
-672,-377,0,0,0,0,0,0,0,0,0,-1,552,1401,0,0
-665,-377,0,0,0,0,0,0,0,0,0,-1,559,1401,0,0
-658,-377,0,0,0,0,0,0,0,0,0,-1,566,1401,0,0
-651,-377,0,0,0,0,0,0,0,0,0,-1,573,1401,0,0
-644,-377,0,0,0,0,0,0,0,0,0,-1,580,1401,0,0
-637,-377,0,0,0,0,0,0,0,0,0,-1,587,1401,0,0
-630,-377,0,0,0,0,0,0,0,0,0,-1,594,1401,0,0
-623,-377,0,0,0,0,0,0,0,0,0,-1,601,1401,0,0
-616,-377,-9.43915,-2.4906,0,0,0,0,0,0,0,-1,608,1401,-9.43915,2.49062
-609,-377,-7.2821,-1.35278,0,0,0,0,0,0,0,-1,615,1401,-7.28208,1.35279
-602,-377,-14.9736,3.98279,0,0,0,0,0,0,0,-1,622,1401,-14.9737,-3.98276
-595,-377,-6.9082,1.18201,0,0,0,0,0,0,0,-1,629,1401,-6.90822,-1.18204
-588,-377,-12.8003,3.44751,0,0,0,0,0,0,0,-1,636,1401,-12.8003,-3.44754
-581,-377,-11.8243,6.21521,0,0,0,0,0,0,0,-1,643,1401,-11.8244,-6.21519
-574,-377,-12.2761,6.60547,0,0,0,0,0,0,0,-1,650,1401,-12.2761,-6.60552
-567,-377,-13.4844,7.41931,0,0,0,0,0,0,0,-1,657,1401,-13.4845,-7.41926
-560,-377,-17.8865,10.3353,0,0,0,0,0,0,0,-1,664,1401,-17.8865,-10.3353
-553,-377,-17.7256,11.0905,0.00392187,0.00132714,0.00198259,0.00499385,0.000255155,0.495674,0.00324753,0.0166141,671,1401,-17.7256,-11.0904
-546,-377,-17.7512,11.8376,0.00337121,0.000903396,0.00166314,0.00420819,6.64226e-05,0.466244,0.00278358,0.0164466,678,1401,-17.7511,-11.8376
-539,-377,-17.7235,12.4888,0.0029753,0.000579274,0.00142342,0.00363776,-8.31879e-05,0.435587,0.00245337,0.0218439,685,1401,-17.7235,-12.4888
-532,-377,-17.7812,13.106,0.00275444,0.00038815,0.00129798,0.00332759,-0.000185002,0.415824,0.00228256,0.0216635,692,1401,-17.7812,-13.1059
-525,-377,-17.7433,13.7908,0.00269513,0.000326415,0.00128499,0.00325832,-0.000236769,0.413064,0.00225528,0.0230789,699,1401,-17.7433,-13.7907
-518,-377,-17.8107,14.4402,0.00277488,0.00035571,0.0013612,0.00338627,-0.000255681,0.422152,0.00234739,0.0151261,706,1401,-17.8107,-14.4402
-511,-377,-17.8428,15.1244,0.00302201,0.000556053,0.00155812,0.00377598,-0.000197924,0.450685,0.00258582,0.0124733,713,1401,-17.8428,-15.1243
-504,-377,-17.8793,15.8196,0.0035047,0.000926124,0.00193383,0.00453962,-0.000108805,0.491386,0.00306333,0.0159707,720,1401,-17.8793,-15.8196
-497,-377,-17.8967,16.4886,0,0,0,0,0,0,0,-1,727,1401,-17.8967,-16.4886
-490,-377,-8.88409,10.1245,0,0,0,0,0,0,0,-1,734,1401,-8.8841,-10.1245
-483,-377,-5.6524,5.07324,0,0,0,0,0,0,0,-1,741,1401,-5.6524,-5.07325
-476,-377,-6.11682,5.10535,0,0,0,0,0,0,0,-1,748,1401,-6.11681,-5.10537
-469,-377,-10.3211,1.9281,0,0,0,0,0,0,0,-1,755,1401,-10.3211,-1.92808
-462,-377,-9.2204,1.0022,0,0,0,0,0,0,0,-1,762,1401,-9.22039,-1.00218
-455,-377,-8.11969,0.0762939,0,0,0,0,0,0,0,-1,769,1401,-8.11968,-0.0762759
-448,-377,-9.05334,0.877319,0,0,0,0,0,0,0,-1,776,1401,-9.05332,-0.877324
-441,-377,-11.212,0.763428,0,0,0,0,0,0,0,-1,783,1401,-11.212,-0.763415
-434,-377,-11.0984,0.996216,0,0,0,0,0,0,0,-1,790,1401,-11.0984,-0.996265
-427,-377,-11.1733,1.25732,0,0,0,0,0,0,0,-1,797,1401,-11.1733,-1.25732
-420,-377,0,0,0,0,0,0,0,0,0,-1,804,1401,0,0
-413,-377,0,0,0,0,0,0,0,0,0,-1,811,1401,0,0
-406,-377,0,0,0,0,0,0,0,0,0,-1,818,1401,0,0
-399,-377,0,0,0,0,0,0,0,0,0,-1,825,1401,0,0
-392,-377,0,0,0,0,0,0,0,0,0,-1,832,1401,0,0
-385,-377,0,0,0,0,0,0,0,0,0,-1,839,1401,0,0
-378,-377,0,0,0,0,0,0,0,0,0,-1,846,1401,0,0
-371,-377,0,0,0,0,0,0,0,0,0,-1,853,1401,0,0
-364,-377,0,0,0,0,0,0,0,0,0,-1,860,1401,0,0
-357,-377,0,0,0,0,0,0,0,0,0,-1,867,1401,0,0
-350,-377,0,0,0,0,0,0,0,0,0,-1,874,1401,0,0
-343,-377,0,0,0,0,0,0,0,0,0,-1,881,1401,0,0
-336,-377,0,0,0,0,0,0,0,0,0,-1,888,1401,0,0
-329,-377,0,0,0,0,0,0,0,0,0,-1,895,1401,0,0
-322,-377,0,0,0,0,0,0,0,0,0,-1,902,1401,0,0
-315,-377,0,0,0,0,0,0,0,0,0,-1,909,1401,0,0
-308,-377,0,0,0,0,0,0,0,0,0,-1,916,1401,0,0
-301,-377,0,0,0,0,0,0,0,0,0,-1,923,1401,0,0
-294,-377,0,0,0,0,0,0,0,0,0,-1,930,1401,0,0
-287,-377,0,0,0,0,0,0,0,0,0,-1,937,1401,0,0
-280,-377,0,0,0,0,0,0,0,0,0,-1,944,1401,0,0
-273,-377,0,0,0,0,0,0,0,0,0,-1,951,1401,0,0
-266,-377,0,0,0,0,0,0,0,0,0,-1,958,1401,0,0
-259,-377,0,0,0,0,0,0,0,0,0,-1,965,1401,0,0
-252,-377,0,0,0,0,0,0,0,0,0,-1,972,1401,0,0
-245,-377,0,0,0,0,0,0,0,0,0,-1,979,1401,0,0
-238,-377,0,0,0,0,0,0,0,0,0,-1,986,1401,0,0
-231,-377,0,0,0,0,0,0,0,0,0,-1,993,1401,0,0
-224,-377,0,0,0,0,0,0,0,0,0,-1,1000,1401,0,0
-217,-377,0,0,0,0,0,0,0,0,0,-1,1007,1401,0,0
-210,-377,0,0,0,0,0,0,0,0,0,-1,1014,1401,0,0
-203,-377,0,0,0,0,0,0,0,0,0,-1,1021,1401,0,0
-196,-377,0,0,0,0,0,0,0,0,0,-1,1028,1401,0,0
-189,-377,0,0,0,0,0,0,0,0,0,-1,1035,1401,0,0
-182,-377,0,0,0,0,0,0,0,0,0,-1,1042,1401,0,0
-175,-377,0,0,0,0,0,0,0,0,0,-1,1049,1401,0,0
-168,-377,0,0,0,0,0,0,0,0,0,-1,1056,1401,0,0
-161,-377,0,0,0,0,0,0,0,0,0,-1,1063,1401,0,0
-154,-377,0,0,0,0,0,0,0,0,0,-1,1070,1401,0,0
-147,-377,0,0,0,0,0,0,0,0,0,-1,1077,1401,0,0
-140,-377,0,0,0,0,0,0,0,0,0,-1,1084,1401,0,0
-133,-377,0,0,0,0,0,0,0,0,0,-1,1091,1401,0,0
-126,-377,0,0,0,0,0,0,0,0,0,-1,1098,1401,0,0
-119,-377,0,0,0,0,0,0,0,0,0,-1,1105,1401,0,0
-112,-377,0,0,0,0,0,0,0,0,0,-1,1112,1401,0,0
-105,-377,0,0,0,0,0,0,0,0,0,-1,1119,1401,0,0
-98,-377,0,0,0,0,0,0,0,0,0,-1,1126,1401,0,0
-91,-377,0,0,0,0,0,0,0,0,0,-1,1133,1401,0,0
-84,-377,0,0,0,0,0,0,0,0,0,-1,1140,1401,0,0
-77,-377,0,0,0,0,0,0,0,0,0,-1,1147,1401,0,0
-70,-377,0,0,0,0,0,0,0,0,0,-1,1154,1401,0,0
-63,-377,0,0,0,0,0,0,0,0,0,-1,1161,1401,0,0
-56,-377,0,0,0,0,0,0,0,0,0,-1,1168,1401,0,0
-49,-377,0,0,0,0,0,0,0,0,0,-1,1175,1401,0,0
-42,-377,0,0,0,0,0,0,0,0,0,-1,1182,1401,0,0
-35,-377,0,0,0,0,0,0,0,0,0,-1,1189,1401,0,0
-28,-377,0,0,0,0,0,0,0,0,0,-1,1196,1401,0,0
-21,-377,0,0,0,0,0,0,0,0,0,-1,1203,1401,0,0
-14,-377,0,0,0,0,0,0,0,0,0,-1,1210,1401,0,0
-7,-377,0,0,0,0,0,0,0,0,0,-1,1217,1401,0,0
0,-377,0,0,0,0,0,0,0,0,0,-1,1224,1401,0,0
7,-377,0,0,0,0,0,0,0,0,0,-1,1231,1401,0,0
14,-377,0,0,0,0,0,0,0,0,0,-1,1238,1401,0,0
21,-377,0,0,0,0,0,0,0,0,0,-1,1245,1401,0,0
28,-377,0,0,0,0,0,0,0,0,0,-1,1252,1401,0,0
35,-377,0,0,0,0,0,0,0,0,0,-1,1259,1401,0,0
42,-377,0,0,0,0,0,0,0,0,0,-1,1266,1401,0,0
49,-377,0,0,0,0,0,0,0,0,0,-1,1273,1401,0,0
56,-377,0,0,0,0,0,0,0,0,0,-1,1280,1401,0,0
63,-377,0,0,0,0,0,0,0,0,0,-1,1287,1401,0,0
70,-377,0,0,0,0,0,0,0,0,0,-1,1294,1401,0,0
77,-377,0,0,0,0,0,0,0,0,0,-1,1301,1401,0,0
84,-377,0,0,0,0,0,0,0,0,0,-1,1308,1401,0,0
91,-377,0,0,0,0,0,0,0,0,0,-1,1315,1401,0,0
98,-377,0,0,0,0,0,0,0,0,0,-1,1322,1401,0,0
105,-377,0,0,0,0,0,0,0,0,0,-1,1329,1401,0,0
112,-377,0,0,0,0,0,0,0,0,0,-1,1336,1401,0,0
119,-377,0,0,0,0,0,0,0,0,0,-1,1343,1401,0,0
126,-377,0,0,0,0,0,0,0,0,0,-1,1350,1401,0,0
133,-377,0,0,0,0,0,0,0,0,0,-1,1357,1401,0,0
140,-377,0,0,0,0,0,0,0,0,0,-1,1364,1401,0,0
147,-377,0,0,0,0,0,0,0,0,0,-1,1371,1401,0,0
154,-377,0,0,0,0,0,0,0,0,0,-1,1378,1401,0,0
161,-377,0,0,0,0,0,0,0,0,0,-1,1385,1401,0,0
168,-377,0,0,0,0,0,0,0,0,0,-1,1392,1401,0,0
175,-377,0,0,0,0,0,0,0,0,0,-1,1399,1401,0,0
182,-377,0,0,0,0,0,0,0,0,0,-1,1406,1401,0,0
189,-377,0,0,0,0,0,0,0,0,0,-1,1413,1401,0,0
196,-377,0,0,0,0,0,0,0,0,0,-1,1420,1401,0,0
203,-377,0,0,0,0,0,0,0,0,0,-1,1427,1401,0,0
210,-377,0,0,0,0,0,0,0,0,0,-1,1434,1401,0,0
217,-377,0,0,0,0,0,0,0,0,0,-1,1441,1401,0,0
224,-377,0,0,0,0,0,0,0,0,0,-1,1448,1401,0,0
231,-377,0,0,0,0,0,0,0,0,0,-1,1455,1401,0,0
238,-377,0,0,0,0,0,0,0,0,0,-1,1462,1401,0,0
245,-377,0,0,0,0,0,0,0,0,0,-1,1469,1401,0,0
252,-377,0,0,0,0,0,0,0,0,0,-1,1476,1401,0,0
259,-377,0,0,0,0,0,0,0,0,0,-1,1483,1401,0,0
266,-377,0,0,0,0,0,0,0,0,0,-1,1490,1401,0,0
273,-377,0,0,0,0,0,0,0,0,0,-1,1497,1401,0,0
280,-377,0,0,0,0,0,0,0,0,0,-1,1504,1401,0,0
287,-377,0,0,0,0,0,0,0,0,0,-1,1511,1401,0,0
294,-377,0,0,0,0,0,0,0,0,0,-1,1518,1401,0,0
301,-377,0,0,0,0,0,0,0,0,0,-1,1525,1401,0,0
308,-377,0,0,0,0,0,0,0,0,0,-1,1532,1401,0,0
315,-377,0,0,0,0,0,0,0,0,0,-1,1539,1401,0,0
322,-377,0,0,0,0,0,0,0,0,0,-1,1546,1401,0,0
329,-377,0,0,0,0,0,0,0,0,0,-1,1553,1401,0,0
336,-377,0,0,0,0,0,0,0,0,0,-1,1560,1401,0,0
343,-377,0,0,0,0,0,0,0,0,0,-1,1567,1401,0,0
350,-377,0,0,0,0,0,0,0,0,0,-1,1574,1401,0,0
357,-377,0,0,0,0,0,0,0,0,0,-1,1581,1401,0,0
364,-377,0,0,0,0,0,0,0,0,0,-1,1588,1401,0,0
371,-377,0,0,0,0,0,0,0,0,0,-1,1595,1401,0,0
378,-377,0,0,0,0,0,0,0,0,0,-1,1602,1401,0,0
385,-377,0,0,0,0,0,0,0,0,0,-1,1609,1401,0,0
392,-377,0,0,0,0,0,0,0,0,0,-1,1616,1401,0,0
399,-377,0,0,0,0,0,0,0,0,0,-1,1623,1401,0,0
406,-377,0,0,0,0,0,0,0,0,0,-1,1630,1401,0,0
413,-377,0,0,0,0,0,0,0,0,0,-1,1637,1401,0,0
420,-377,0,0,0,0,0,0,0,0,0,-1,1644,1401,0,0
427,-377,0,0,0,0,0,0,0,0,0,-1,1651,1401,0,0
434,-377,0,0,0,0,0,0,0,0,0,-1,1658,1401,0,0
441,-377,0,0,0,0,0,0,0,0,0,-1,1665,1401,0,0
448,-377,0,0,0,0,0,0,0,0,0,-1,1672,1401,0,0
455,-377,0,0,0,0,0,0,0,0,0,-1,1679,1401,0,0
462,-377,0,0,0,0,0,0,0,0,0,-1,1686,1401,0,0
469,-377,0,0,0,0,0,0,0,0,0,-1,1693,1401,0,0
476,-377,0,0,0,0,0,0,0,0,0,-1,1700,1401,0,0
483,-377,0,0,0,0,0,0,0,0,0,-1,1707,1401,0,0
490,-377,0,0,0,0,0,0,0,0,0,-1,1714,1401,0,0
497,-377,0,0,0,0,0,0,0,0,0,-1,1721,1401,0,0
504,-377,0,0,0,0,0,0,0,0,0,-1,1728,1401,0,0
511,-377,0,0,0,0,0,0,0,0,0,-1,1735,1401,0,0
518,-377,0,0,0,0,0,0,0,0,0,-1,1742,1401,0,0
525,-377,0,0,0,0,0,0,0,0,0,-1,1749,1401,0,0
532,-377,0,0,0,0,0,0,0,0,0,-1,1756,1401,0,0
539,-377,0,0,0,0,0,0,0,0,0,-1,1763,1401,0,0
546,-377,27.8485,2.34094,0,0,0,0,0,0,0,-1,1770,1401,27.8486,-2.34091
553,-377,27.2189,2.42493,0,0,0,0,0,0,0,-1,1777,1401,27.2188,-2.42498
560,-377,38.3577,-2.15015,0,0,0,0,0,0,0,-1,1784,1401,38.3576,2.1501
567,-377,38.4889,-0.285645,0,0,0,0,0,0,0,-1,1791,1401,38.4889,0.2857
574,-377,38.6221,1.61694,0,0,0,0,0,0,0,-1,1798,1401,38.6221,-1.61689
581,-377,39.1818,3.76367,0,0,0,0,0,0,0,-1,1805,1401,39.1818,-3.76366
588,-377,25.882,4.35217,0,0,0,0,0,0,0,-1,1812,1401,25.8819,-4.3522
595,-377,25.5392,5.11804,0,0,0,0,0,0,0,-1,1819,1401,25.5392,-5.11808
602,-377,24.816,5.79126,0,0,0,0,0,0,0,-1,1826,1401,24.816,-5.79124
609,-377,15.0223,4.76135,0,0,0,0,0,0,0,-1,1833,1401,15.0224,-4.76129
616,-377,14.1842,5.78992,0,0,0,0,0,0,0,-1,1840,1401,14.1842,-5.78987
623,-377,15.8248,8.76721,0,0,0,0,0,0,0,-1,1847,1401,15.8248,-8.76725
630,-377,33.8369,18.2711,0,0,0,0,0,0,0,-1,1854,1401,33.8369,-18.2711
637,-377,34.1984,17.2908,0.000943198,3.68013e-05,-0.000805224,0.001414,-0.000434,-0.529081,0.00111583,0.0419112,1861,1401,34.1984,-17.2908
644,-377,34.3243,16.5917,0.000736054,-2.3127e-05,-0.000634422,0.00109577,-0.000382847,-0.515805,0.000886142,0.0142015,1868,1401,34.3243,-16.5917
651,-377,34.3062,15.9607,0.000745339,-2.39086e-05,-0.000332025,0.000868825,-0.000147395,-0.356067,0.000634085,0.0145636,1875,1401,34.3061,-15.9607
658,-377,34.2657,15.3677,0.000983537,4.2707e-05,-0.000110349,0.000996306,2.99377e-05,-0.115206,0.000654453,0.0157608,1882,1401,34.2657,-15.3677
665,-377,34.2339,14.7095,0.0013738,0.000132551,7.5491e-05,0.00137838,0.000127977,0.0605211,0.000879369,0.0193685,1889,1401,34.2339,-14.7094
672,-377,34.1899,14.0741,0.00192214,0.000280303,0.000224531,0.00195229,0.000250151,0.133491,0.00122668,0.0191706,1896,1401,34.1899,-14.0741
679,-377,34.1682,13.506,0.00261237,0.000473898,0.000342356,0.00266584,0.000420426,0.154937,0.00165498,0.0183652,1903,1401,34.1682,-13.506
686,-377,34.1604,12.9293,0.00344967,0.00069382,0.000436036,0.00351702,0.000626475,0.153237,0.00216626,0.0157201,1910,1401,34.1603,-12.9293
693,-377,34.1934,12.271,0.00454744,0.00107388,0.000363371,0.00458505,0.00103627,0.103123,0.0027765,0.0194202,1917,1401,34.1933,-12.2709
700,-377,34.3015,11.5221,0,0,0,0,0,0,0,-1,1924,1401,34.3016,-11.5221
707,-377,28.6234,9.18152,0,0,0,0,0,0,0,-1,1931,1401,28.6234,-9.18151
714,-377,16.5369,5.45959,0,0,0,0,0,0,0,-1,1938,1401,16.5369,-5.4596
721,-377,17.0913,5.42529,0,0,0,0,0,0,0,-1,1945,1401,17.0914,-5.42529
728,-377,14.5396,2.79724,0,0,0,0,0,0,0,-1,1952,1401,14.5396,-2.7972
735,-377,23.2977,-0.991089,0,0,0,0,0,0,0,-1,1959,1401,23.2978,0.991076
742,-377,0,0,0,0,0,0,0,0,0,-1,1966,1401,0,0
749,-377,0,0,0,0,0,0,0,0,0,-1,1973,1401,0,0
756,-377,0,0,0,0,0,0,0,0,0,-1,1980,1401,0,0
763,-377,0,0,0,0,0,0,0,0,0,-1,1987,1401,0,0
770,-377,0,0,0,0,0,0,0,0,0,-1,1994,1401,0,0
777,-377,0,0,0,0,0,0,0,0,0,-1,2001,1401,0,0
784,-377,0,0,0,0,0,0,0,0,0,-1,2008,1401,0,0
791,-377,0,0,0,0,0,0,0,0,0,-1,2015,1401,0,0
798,-377,0,0,0,0,0,0,0,0,0,-1,2022,1401,0,0
805,-377,0,0,0,0,0,0,0,0,0,-1,2029,1401,0,0
812,-377,0,0,0,0,0,0,0,0,0,-1,2036,1401,0,0
-700,-384,0,0,0,0,0,0,0,0,0,-1,524,1408,0,0
-693,-384,0,0,0,0,0,0,0,0,0,-1,531,1408,0,0
-686,-384,0,0,0,0,0,0,0,0,0,-1,538,1408,0,0
-679,-384,0,0,0,0,0,0,0,0,0,-1,545,1408,0,0
-672,-384,0,0,0,0,0,0,0,0,0,-1,552,1408,0,0
-665,-384,0,0,0,0,0,0,0,0,0,-1,559,1408,0,0
-658,-384,0,0,0,0,0,0,0,0,0,-1,566,1408,0,0
-651,-384,0,0,0,0,0,0,0,0,0,-1,573,1408,0,0
-644,-384,0,0,0,0,0,0,0,0,0,-1,580,1408,0,0
-637,-384,0,0,0,0,0,0,0,0,0,-1,587,1408,0,0
-630,-384,0,0,0,0,0,0,0,0,0,-1,594,1408,0,0
-623,-384,0,0,0,0,0,0,0,0,0,-1,601,1408,0,0
-616,-384,-10.019,-3.36646,0,0,0,0,0,0,0,-1,608,1408,-10.019,3.36648
-609,-384,-7.72357,-2.3418,0,0,0,0,0,0,0,-1,615,1408,-7.72358,2.34182
-602,-384,-11.7632,-2.85156,0,0,0,0,0,0,0,-1,622,1408,-11.7632,2.85157
-595,-384,-10.2217,2.8855,0,0,0,0,0,0,0,-1,629,1408,-10.2218,-2.88548
-588,-384,-12.1653,2.29041,0,0,0,0,0,0,0,-1,636,1408,-12.1654,-2.29038
-581,-384,-11.9297,3.60376,0,0,0,0,0,0,0,-1,643,1408,-11.9298,-3.6038
-574,-384,-11.8677,6.02722,0,0,0,0,0,0,0,-1,650,1408,-11.8677,-6.02722
-567,-384,-12.0743,7.04639,0,0,0,0,0,0,0,-1,657,1408,-12.0743,-7.04641
-560,-384,-17.2889,10.3647,0,0,0,0,0,0,0,-1,664,1408,-17.2889,-10.3647
-553,-384,-17.1266,11.137,0.00431362,0.00161173,0.00232356,0.00565042,0.000274926,0.522078,0.00367873,0.0457514,671,1408,-17.1267,-11.1369
-546,-384,-17.0896,11.8622,0.00359618,0.00113274,0.00187949,0.0046116,0.000117325,0.495336,0.00303605,0.0142605,678,1408,-17.0896,-11.8621
-539,-384,-17.131,12.4994,0.00304862,0.000765405,0.00152345,0.00381073,3.2899e-06,0.463853,0.00253939,0.0158856,685,1408,-17.131,-12.4994
-532,-384,-17.1253,13.0948,0.00269046,0.000518475,0.00128585,0.00328756,-7.86239e-05,0.434731,0.00221838,0.0218909,692,1408,-17.1253,-13.0949
-525,-384,-17.1064,13.814,0.00252074,0.000424738,0.00118575,0.00305524,-0.000109763,0.423494,0.00207438,0.0216188,699,1408,-17.1064,-13.814
-518,-384,-17.1544,14.4933,0.00250218,0.000416875,0.00118414,0.00303728,-0.000118229,0.424426,0.00206539,0.0130237,706,1408,-17.1544,-14.4933
-511,-384,-17.2028,15.1733,0.00264576,0.000563863,0.00129954,0.00326985,-6.02322e-05,0.447718,0.00220026,0.0107856,713,1408,-17.2028,-15.1734
-504,-384,-17.2143,15.8529,0.00300269,0.000873779,0.00157662,0.00384055,3.59199e-05,0.488472,0.00254848,0.0124462,720,1408,-17.2143,-15.8529
-497,-384,-17.2377,16.531,0,0,0,0,0,0,0,-1,727,1408,-17.2377,-16.531
-490,-384,-16.4548,16.7072,0,0,0,0,0,0,0,-1,734,1408,-16.4548,-16.7072
-483,-384,-6.26471,7.61194,0,0,0,0,0,0,0,-1,741,1408,-6.26469,-7.61191
-476,-384,-6.02734,5.67761,0,0,0,0,0,0,0,-1,748,1408,-6.02736,-5.6776
-469,-384,-10.206,2.63721,0,0,0,0,0,0,0,-1,755,1408,-10.206,-2.6372
-462,-384,-9.04291,1.43542,0,0,0,0,0,0,0,-1,762,1408,-9.04293,-1.43545
-455,-384,-7.87988,0.233765,0,0,0,0,0,0,0,-1,769,1408,-7.87986,-0.233709
-448,-384,-9.35529,7.19226,0,0,0,0,0,0,0,-1,776,1408,-9.35531,-7.19226
-441,-384,-10.4697,1.79004,0,0,0,0,0,0,0,-1,783,1408,-10.4697,-1.79003
-434,-384,-10.6449,0.552246,0,0,0,0,0,0,0,-1,790,1408,-10.6449,-0.552216
-427,-384,-10.968,1.10583,0,0,0,0,0,0,0,-1,797,1408,-10.968,-1.10588
-420,-384,-12.5607,4.54858,0,0,0,0,0,0,0,-1,804,1408,-12.5607,-4.54859
-413,-384,0,0,0,0,0,0,0,0,0,-1,811,1408,0,0
-406,-384,0,0,0,0,0,0,0,0,0,-1,818,1408,0,0
-399,-384,0,0,0,0,0,0,0,0,0,-1,825,1408,0,0
-392,-384,0,0,0,0,0,0,0,0,0,-1,832,1408,0,0
-385,-384,0,0,0,0,0,0,0,0,0,-1,839,1408,0,0
-378,-384,0,0,0,0,0,0,0,0,0,-1,846,1408,0,0
-371,-384,0,0,0,0,0,0,0,0,0,-1,853,1408,0,0
-364,-384,0,0,0,0,0,0,0,0,0,-1,860,1408,0,0
-357,-384,0,0,0,0,0,0,0,0,0,-1,867,1408,0,0
-350,-384,0,0,0,0,0,0,0,0,0,-1,874,1408,0,0
-343,-384,0,0,0,0,0,0,0,0,0,-1,881,1408,0,0
-336,-384,0,0,0,0,0,0,0,0,0,-1,888,1408,0,0
-329,-384,0,0,0,0,0,0,0,0,0,-1,895,1408,0,0
-322,-384,0,0,0,0,0,0,0,0,0,-1,902,1408,0,0
-315,-384,0,0,0,0,0,0,0,0,0,-1,909,1408,0,0
-308,-384,0,0,0,0,0,0,0,0,0,-1,916,1408,0,0
-301,-384,0,0,0,0,0,0,0,0,0,-1,923,1408,0,0
-294,-384,0,0,0,0,0,0,0,0,0,-1,930,1408,0,0
-287,-384,0,0,0,0,0,0,0,0,0,-1,937,1408,0,0
-280,-384,0,0,0,0,0,0,0,0,0,-1,944,1408,0,0
-273,-384,0,0,0,0,0,0,0,0,0,-1,951,1408,0,0
-266,-384,0,0,0,0,0,0,0,0,0,-1,958,1408,0,0
-259,-384,0,0,0,0,0,0,0,0,0,-1,965,1408,0,0
-252,-384,0,0,0,0,0,0,0,0,0,-1,972,1408,0,0
-245,-384,0,0,0,0,0,0,0,0,0,-1,979,1408,0,0
-238,-384,0,0,0,0,0,0,0,0,0,-1,986,1408,0,0
-231,-384,0,0,0,0,0,0,0,0,0,-1,993,1408,0,0
-224,-384,0,0,0,0,0,0,0,0,0,-1,1000,1408,0,0
-217,-384,0,0,0,0,0,0,0,0,0,-1,1007,1408,0,0
-210,-384,0,0,0,0,0,0,0,0,0,-1,1014,1408,0,0
-203,-384,0,0,0,0,0,0,0,0,0,-1,1021,1408,0,0
-196,-384,0,0,0,0,0,0,0,0,0,-1,1028,1408,0,0
-189,-384,0,0,0,0,0,0,0,0,0,-1,1035,1408,0,0
-182,-384,0,0,0,0,0,0,0,0,0,-1,1042,1408,0,0
-175,-384,0,0,0,0,0,0,0,0,0,-1,1049,1408,0,0
-168,-384,0,0,0,0,0,0,0,0,0,-1,1056,1408,0,0
-161,-384,0,0,0,0,0,0,0,0,0,-1,1063,1408,0,0
-154,-384,0,0,0,0,0,0,0,0,0,-1,1070,1408,0,0
-147,-384,0,0,0,0,0,0,0,0,0,-1,1077,1408,0,0
-140,-384,0,0,0,0,0,0,0,0,0,-1,1084,1408,0,0
-133,-384,0,0,0,0,0,0,0,0,0,-1,1091,1408,0,0
-126,-384,0,0,0,0,0,0,0,0,0,-1,1098,1408,0,0
-119,-384,0,0,0,0,0,0,0,0,0,-1,1105,1408,0,0
-112,-384,0,0,0,0,0,0,0,0,0,-1,1112,1408,0,0
-105,-384,0,0,0,0,0,0,0,0,0,-1,1119,1408,0,0
-98,-384,0,0,0,0,0,0,0,0,0,-1,1126,1408,0,0
-91,-384,0,0,0,0,0,0,0,0,0,-1,1133,1408,0,0
-84,-384,0,0,0,0,0,0,0,0,0,-1,1140,1408,0,0
-77,-384,0,0,0,0,0,0,0,0,0,-1,1147,1408,0,0
-70,-384,0,0,0,0,0,0,0,0,0,-1,1154,1408,0,0
-63,-384,0,0,0,0,0,0,0,0,0,-1,1161,1408,0,0
-56,-384,0,0,0,0,0,0,0,0,0,-1,1168,1408,0,0
-49,-384,0,0,0,0,0,0,0,0,0,-1,1175,1408,0,0
-42,-384,0,0,0,0,0,0,0,0,0,-1,1182,1408,0,0
-35,-384,0,0,0,0,0,0,0,0,0,-1,1189,1408,0,0
-28,-384,0,0,0,0,0,0,0,0,0,-1,1196,1408,0,0
-21,-384,0,0,0,0,0,0,0,0,0,-1,1203,1408,0,0
-14,-384,0,0,0,0,0,0,0,0,0,-1,1210,1408,0,0
-7,-384,0,0,0,0,0,0,0,0,0,-1,1217,1408,0,0
0,-384,0,0,0,0,0,0,0,0,0,-1,1224,1408,0,0
7,-384,0,0,0,0,0,0,0,0,0,-1,1231,1408,0,0
14,-384,0,0,0,0,0,0,0,0,0,-1,1238,1408,0,0
21,-384,0,0,0,0,0,0,0,0,0,-1,1245,1408,0,0
28,-384,0,0,0,0,0,0,0,0,0,-1,1252,1408,0,0
35,-384,0,0,0,0,0,0,0,0,0,-1,1259,1408,0,0
42,-384,0,0,0,0,0,0,0,0,0,-1,1266,1408,0,0
49,-384,0,0,0,0,0,0,0,0,0,-1,1273,1408,0,0
56,-384,0,0,0,0,0,0,0,0,0,-1,1280,1408,0,0
63,-384,0,0,0,0,0,0,0,0,0,-1,1287,1408,0,0
70,-384,0,0,0,0,0,0,0,0,0,-1,1294,1408,0,0
77,-384,0,0,0,0,0,0,0,0,0,-1,1301,1408,0,0
84,-384,0,0,0,0,0,0,0,0,0,-1,1308,1408,0,0
91,-384,0,0,0,0,0,0,0,0,0,-1,1315,1408,0,0
98,-384,0,0,0,0,0,0,0,0,0,-1,1322,1408,0,0
105,-384,0,0,0,0,0,0,0,0,0,-1,1329,1408,0,0
112,-384,0,0,0,0,0,0,0,0,0,-1,1336,1408,0,0
119,-384,0,0,0,0,0,0,0,0,0,-1,1343,1408,0,0
126,-384,0,0,0,0,0,0,0,0,0,-1,1350,1408,0,0
133,-384,0,0,0,0,0,0,0,0,0,-1,1357,1408,0,0
140,-384,0,0,0,0,0,0,0,0,0,-1,1364,1408,0,0
147,-384,0,0,0,0,0,0,0,0,0,-1,1371,1408,0,0
154,-384,0,0,0,0,0,0,0,0,0,-1,1378,1408,0,0
161,-384,0,0,0,0,0,0,0,0,0,-1,1385,1408,0,0
168,-384,0,0,0,0,0,0,0,0,0,-1,1392,1408,0,0
175,-384,0,0,0,0,0,0,0,0,0,-1,1399,1408,0,0
182,-384,0,0,0,0,0,0,0,0,0,-1,1406,1408,0,0
189,-384,0,0,0,0,0,0,0,0,0,-1,1413,1408,0,0
196,-384,0,0,0,0,0,0,0,0,0,-1,1420,1408,0,0
203,-384,0,0,0,0,0,0,0,0,0,-1,1427,1408,0,0
210,-384,0,0,0,0,0,0,0,0,0,-1,1434,1408,0,0
217,-384,0,0,0,0,0,0,0,0,0,-1,1441,1408,0,0
224,-384,0,0,0,0,0,0,0,0,0,-1,1448,1408,0,0
231,-384,0,0,0,0,0,0,0,0,0,-1,1455,1408,0,0
238,-384,0,0,0,0,0,0,0,0,0,-1,1462,1408,0,0
245,-384,0,0,0,0,0,0,0,0,0,-1,1469,1408,0,0
252,-384,0,0,0,0,0,0,0,0,0,-1,1476,1408,0,0
259,-384,0,0,0,0,0,0,0,0,0,-1,1483,1408,0,0
266,-384,0,0,0,0,0,0,0,0,0,-1,1490,1408,0,0
273,-384,0,0,0,0,0,0,0,0,0,-1,1497,1408,0,0
280,-384,0,0,0,0,0,0,0,0,0,-1,1504,1408,0,0
287,-384,0,0,0,0,0,0,0,0,0,-1,1511,1408,0,0
294,-384,0,0,0,0,0,0,0,0,0,-1,1518,1408,0,0
301,-384,0,0,0,0,0,0,0,0,0,-1,1525,1408,0,0
308,-384,0,0,0,0,0,0,0,0,0,-1,1532,1408,0,0
315,-384,0,0,0,0,0,0,0,0,0,-1,1539,1408,0,0
322,-384,0,0,0,0,0,0,0,0,0,-1,1546,1408,0,0
329,-384,0,0,0,0,0,0,0,0,0,-1,1553,1408,0,0
336,-384,0,0,0,0,0,0,0,0,0,-1,1560,1408,0,0
343,-384,0,0,0,0,0,0,0,0,0,-1,1567,1408,0,0
350,-384,0,0,0,0,0,0,0,0,0,-1,1574,1408,0,0
357,-384,0,0,0,0,0,0,0,0,0,-1,1581,1408,0,0
364,-384,0,0,0,0,0,0,0,0,0,-1,1588,1408,0,0
371,-384,0,0,0,0,0,0,0,0,0,-1,1595,1408,0,0
378,-384,0,0,0,0,0,0,0,0,0,-1,1602,1408,0,0
385,-384,0,0,0,0,0,0,0,0,0,-1,1609,1408,0,0
392,-384,0,0,0,0,0,0,0,0,0,-1,1616,1408,0,0
399,-384,0,0,0,0,0,0,0,0,0,-1,1623,1408,0,0
406,-384,0,0,0,0,0,0,0,0,0,-1,1630,1408,0,0
413,-384,0,0,0,0,0,0,0,0,0,-1,1637,1408,0,0
420,-384,0,0,0,0,0,0,0,0,0,-1,1644,1408,0,0
427,-384,0,0,0,0,0,0,0,0,0,-1,1651,1408,0,0
434,-384,0,0,0,0,0,0,0,0,0,-1,1658,1408,0,0
441,-384,0,0,0,0,0,0,0,0,0,-1,1665,1408,0,0
448,-384,0,0,0,0,0,0,0,0,0,-1,1672,1408,0,0
455,-384,0,0,0,0,0,0,0,0,0,-1,1679,1408,0,0
462,-384,0,0,0,0,0,0,0,0,0,-1,1686,1408,0,0
469,-384,0,0,0,0,0,0,0,0,0,-1,1693,1408,0,0
476,-384,0,0,0,0,0,0,0,0,0,-1,1700,1408,0,0
483,-384,0,0,0,0,0,0,0,0,0,-1,1707,1408,0,0
490,-384,0,0,0,0,0,0,0,0,0,-1,1714,1408,0,0
497,-384,0,0,0,0,0,0,0,0,0,-1,1721,1408,0,0
504,-384,0,0,0,0,0,0,0,0,0,-1,1728,1408,0,0
511,-384,0,0,0,0,0,0,0,0,0,-1,1735,1408,0,0
518,-384,0,0,0,0,0,0,0,0,0,-1,1742,1408,0,0
525,-384,0,0,0,0,0,0,0,0,0,-1,1749,1408,0,0
532,-384,0,0,0,0,0,0,0,0,0,-1,1756,1408,0,0
539,-384,27.6886,2.85803,0,0,0,0,0,0,0,-1,1763,1408,27.6886,-2.85807
546,-384,27.5044,2.9425,0,0,0,0,0,0,0,-1,1770,1408,27.5044,-2.94255
553,-384,27.3052,2.78394,0,0,0,0,0,0,0,-1,1777,1408,27.3051,-2.78394
560,-384,26.833,3.19812,0,0,0,0,0,0,0,-1,1784,1408,26.833,-3.19816
567,-384,38.2566,0.109985,0,0,0,0,0,0,0,-1,1791,1408,38.2566,-0.110044
574,-384,38.4003,2.05945,0,0,0,0,0,0,0,-1,1798,1408,38.4003,-2.05949
581,-384,25.819,3.91846,0,0,0,0,0,0,0,-1,1805,1408,25.8189,-3.91848
588,-384,23.3721,4.25439,0,0,0,0,0,0,0,-1,1812,1408,23.3721,-4.25442
595,-384,24.981,5.59595,0,0,0,0,0,0,0,-1,1819,1408,24.981,-5.59598
602,-384,20.6605,4.17261,0,0,0,0,0,0,0,-1,1826,1408,20.6606,-4.17265
609,-384,14.158,5.49475,0,0,0,0,0,0,0,-1,1833,1408,14.158,-5.49474
616,-384,14.7997,7.6908,0,0,0,0,0,0,0,-1,1840,1408,14.7996,-7.69079
623,-384,16.4293,9.58899,0,0,0,0,0,0,0,-1,1847,1408,16.4294,-9.58901
630,-384,33.7289,17.8441,0,0,0,0,0,0,0,-1,1854,1408,33.7289,-17.8442
637,-384,33.7145,17.267,0.0011471,-0.0002953,-0.00051392,0.00131148,-0.000459675,-0.309563,0.00106126,0.023325,1861,1408,33.7145,-17.267
644,-384,33.6588,16.6615,0.000950641,-0.000262613,-0.000398915,0.00107005,-0.000382023,-0.290848,0.000869159,0.0179464,1868,1408,33.6588,-16.6615
651,-384,33.6285,16.0109,0.000977324,-0.00014578,-0.000187788,0.00100789,-0.000176347,-0.161359,0.000737769,0.0168555,1875,1408,33.6286,-16.0108
658,-384,33.6151,15.386,0.00116771,2.10024e-06,-9.28862e-07,0.00116771,2.09949e-06,-0.000796886,0.000777778,0.0169898,1882,1408,33.6151,-15.386
665,-384,33.6177,14.7712,0.00151532,0.000171053,0.000174428,0.00153758,0.000148788,0.126957,0.000979232,0.0186017,1889,1408,33.6176,-14.7712
672,-384,33.5929,14.1412,0.00201709,0.000390491,0.000348416,0.00208858,0.000319002,0.202373,0.00129917,0.0165687,1896,1408,33.5928,-14.1413
679,-384,33.5486,13.5349,0.00265442,0.000636111,0.000530953,0.00278558,0.000504958,0.242168,0.00171371,0.0166904,1903,1408,33.5486,-13.5349
686,-384,33.52,12.9586,0.00340223,0.000878328,0.000759042,0.00361291,0.00066764,0.270755,0.00221979,0.0132725,1910,1408,33.5201,-12.9586
693,-384,33.5901,12.3354,0.00441167,0.00131027,0.000838274,0.00462374,0.0010982,0.24779,0.00278944,0.0305486,1917,1408,33.5901,-12.3354
700,-384,33.7281,11.7036,0,0,0,0,0,0,0,-1,1924,1408,33.7282,-11.7036
707,-384,17.0566,6.62842,0,0,0,0,0,0,0,-1,1931,1408,17.0567,-6.62848
714,-384,16.038,5.0282,0,0,0,0,0,0,0,-1,1938,1408,16.038,-5.02819
721,-384,13.8843,2.8717,0,0,0,0,0,0,0,-1,1945,1408,13.8843,-2.87171
728,-384,15.4409,6.25745,0,0,0,0,0,0,0,-1,1952,1408,15.4409,-6.2574
735,-384,16.7598,6.71289,0,0,0,0,0,0,0,-1,1959,1408,16.7598,-6.71287
742,-384,0,0,0,0,0,0,0,0,0,-1,1966,1408,0,0
749,-384,0,0,0,0,0,0,0,0,0,-1,1973,1408,0,0
756,-384,0,0,0,0,0,0,0,0,0,-1,1980,1408,0,0
763,-384,0,0,0,0,0,0,0,0,0,-1,1987,1408,0,0
770,-384,0,0,0,0,0,0,0,0,0,-1,1994,1408,0,0
777,-384,0,0,0,0,0,0,0,0,0,-1,2001,1408,0,0
784,-384,0,0,0,0,0,0,0,0,0,-1,2008,1408,0,0
791,-384,0,0,0,0,0,0,0,0,0,-1,2015,1408,0,0
798,-384,0,0,0,0,0,0,0,0,0,-1,2022,1408,0,0
805,-384,0,0,0,0,0,0,0,0,0,-1,2029,1408,0,0
812,-384,0,0,0,0,0,0,0,0,0,-1,2036,1408,0,0
-700,-391,0,0,0,0,0,0,0,0,0,-1,524,1415,0,0
-693,-391,0,0,0,0,0,0,0,0,0,-1,531,1415,0,0
-686,-391,0,0,0,0,0,0,0,0,0,-1,538,1415,0,0
-679,-391,0,0,0,0,0,0,0,0,0,-1,545,1415,0,0
-672,-391,0,0,0,0,0,0,0,0,0,-1,552,1415,0,0
-665,-391,0,0,0,0,0,0,0,0,0,-1,559,1415,0,0
-658,-391,0,0,0,0,0,0,0,0,0,-1,566,1415,0,0
-651,-391,0,0,0,0,0,0,0,0,0,-1,573,1415,0,0
-644,-391,0,0,0,0,0,0,0,0,0,-1,580,1415,0,0
-637,-391,0,0,0,0,0,0,0,0,0,-1,587,1415,0,0
-630,-391,0,0,0,0,0,0,0,0,0,-1,594,1415,0,0
-623,-391,0,0,0,0,0,0,0,0,0,-1,601,1415,0,0
-616,-391,0,0,0,0,0,0,0,0,0,-1,608,1415,0,0
-609,-391,-7.71753,-3.69763,0,0,0,0,0,0,0,-1,615,1415,-7.71751,3.69759
-602,-391,-13.9493,-4.12805,0,0,0,0,0,0,0,-1,622,1415,-13.9493,4.12803
-595,-391,-10.8315,1.76172,0,0,0,0,0,0,0,-1,629,1415,-10.8315,-1.76171
-588,-391,-10.265,2.16431,0,0,0,0,0,0,0,-1,636,1415,-10.265,-2.16431
-581,-391,-11.3325,2.44836,0,0,0,0,0,0,0,-1,643,1415,-11.3325,-2.44842
-574,-391,-11.1471,6.19983,0,0,0,0,0,0,0,-1,650,1415,-11.1471,-6.19981
-567,-391,-11.5172,6.82458,0,0,0,0,0,0,0,-1,657,1415,-11.5171,-6.82454
-560,-391,-11.2459,7.37195,0,0,0,0,0,0,0,-1,664,1415,-11.2459,-7.37191
-553,-391,-16.4964,11.1599,0,0,0,0,0,0,0,-1,671,1415,-16.4964,-11.1599
-546,-391,-16.4368,11.86,0.00398049,0.00161806,0.00222284,0.00531647,0.000282083,0.541173,0.00345413,0.016835,678,1415,-16.4369,-11.86
-539,-391,-16.4193,12.5306,0.00325287,0.00114226,0.00174411,0.00423609,0.000159038,0.513329,0.00277257,0.0144193,685,1415,-16.4193,-12.5307
-532,-391,-16.4705,13.1844,0.00273379,0.000772573,0.00138772,0.0034524,5.39586e-05,0.477816,0.00228383,0.0244689,692,1415,-16.4705,-13.1844
-525,-391,-16.4785,13.8726,0.00243203,0.000589371,0.00119397,0.00301881,2.58267e-06,0.456792,0.00201168,0.022479,699,1415,-16.4784,-13.8725
-518,-391,-16.5168,14.528,0.00229471,0.000509711,0.00111423,0.00282982,-2.53936e-05,0.447721,0.00189507,0.0141173,706,1415,-16.5168,-14.5279
-511,-391,-16.5425,15.2023,0.00234139,0.000567487,0.00114466,0.00290252,6.3593e-06,0.455787,0.0019329,0.0135464,713,1415,-16.5425,-15.2023
-504,-391,-16.5557,15.8823,0.00266572,0.000812848,0.00137779,0.00339958,7.8987e-05,0.489415,0.00224052,0.0123011,720,1415,-16.5557,-15.8824
-497,-391,-16.5688,16.5497,0.00320285,0.00120014,0.00179737,0.00425898,0.000144011,0.53125,0.00279256,0.0136179,727,1415,-16.5688,-16.5497
-490,-391,-16.5117,17.2194,0,0,0,0,0,0,0,-1,734,1415,-16.5117,-17.2193
-483,-391,-11.1018,12.9382,0,0,0,0,0,0,0,-1,741,1415,-11.1018,-12.9382
-476,-391,-6.05731,6.85303,0,0,0,0,0,0,0,-1,748,1415,-6.05728,-6.85304
-469,-391,-3.88953,5.0979,0,0,0,0,0,0,0,-1,755,1415,-3.88955,-5.09794
-462,-391,-8.67688,2.03125,0,0,0,0,0,0,0,-1,762,1415,-8.67685,-2.03121
-455,-391,-8.65576,6.46997,0,0,0,0,0,0,0,-1,769,1415,-8.65579,-6.46999
-448,-391,-8.39618,4.38403,0,0,0,0,0,0,0,-1,776,1415,-8.39617,-4.38405
-441,-391,-9.77704,2.5946,0,0,0,0,0,0,0,-1,783,1415,-9.77702,-2.5946
-434,-391,-11.5403,2.12878,0,0,0,0,0,0,0,-1,790,1415,-11.5403,-2.12881
-427,-391,-10.5311,2.50403,0,0,0,0,0,0,0,-1,797,1415,-10.5311,-2.504
-420,-391,-14.7087,1.24365,0,0,0,0,0,0,0,-1,804,1415,-14.7088,-1.24365
-413,-391,0,0,0,0,0,0,0,0,0,-1,811,1415,0,0
-406,-391,0,0,0,0,0,0,0,0,0,-1,818,1415,0,0
-399,-391,0,0,0,0,0,0,0,0,0,-1,825,1415,0,0
-392,-391,0,0,0,0,0,0,0,0,0,-1,832,1415,0,0
-385,-391,0,0,0,0,0,0,0,0,0,-1,839,1415,0,0
-378,-391,0,0,0,0,0,0,0,0,0,-1,846,1415,0,0
-371,-391,0,0,0,0,0,0,0,0,0,-1,853,1415,0,0
-364,-391,0,0,0,0,0,0,0,0,0,-1,860,1415,0,0
-357,-391,0,0,0,0,0,0,0,0,0,-1,867,1415,0,0
-350,-391,0,0,0,0,0,0,0,0,0,-1,874,1415,0,0
-343,-391,0,0,0,0,0,0,0,0,0,-1,881,1415,0,0
-336,-391,0,0,0,0,0,0,0,0,0,-1,888,1415,0,0
-329,-391,0,0,0,0,0,0,0,0,0,-1,895,1415,0,0
-322,-391,0,0,0,0,0,0,0,0,0,-1,902,1415,0,0
-315,-391,0,0,0,0,0,0,0,0,0,-1,909,1415,0,0
-308,-391,0,0,0,0,0,0,0,0,0,-1,916,1415,0,0
-301,-391,0,0,0,0,0,0,0,0,0,-1,923,1415,0,0
-294,-391,0,0,0,0,0,0,0,0,0,-1,930,1415,0,0
-287,-391,0,0,0,0,0,0,0,0,0,-1,937,1415,0,0
-280,-391,0,0,0,0,0,0,0,0,0,-1,944,1415,0,0
-273,-391,0,0,0,0,0,0,0,0,0,-1,951,1415,0,0
-266,-391,0,0,0,0,0,0,0,0,0,-1,958,1415,0,0
-259,-391,0,0,0,0,0,0,0,0,0,-1,965,1415,0,0
-252,-391,0,0,0,0,0,0,0,0,0,-1,972,1415,0,0
-245,-391,0,0,0,0,0,0,0,0,0,-1,979,1415,0,0
-238,-391,0,0,0,0,0,0,0,0,0,-1,986,1415,0,0
-231,-391,0,0,0,0,0,0,0,0,0,-1,993,1415,0,0
-224,-391,0,0,0,0,0,0,0,0,0,-1,1000,1415,0,0
-217,-391,0,0,0,0,0,0,0,0,0,-1,1007,1415,0,0
-210,-391,0,0,0,0,0,0,0,0,0,-1,1014,1415,0,0
-203,-391,0,0,0,0,0,0,0,0,0,-1,1021,1415,0,0
-196,-391,0,0,0,0,0,0,0,0,0,-1,1028,1415,0,0
-189,-391,0,0,0,0,0,0,0,0,0,-1,1035,1415,0,0
-182,-391,0,0,0,0,0,0,0,0,0,-1,1042,1415,0,0
-175,-391,0,0,0,0,0,0,0,0,0,-1,1049,1415,0,0
-168,-391,0,0,0,0,0,0,0,0,0,-1,1056,1415,0,0
-161,-391,0,0,0,0,0,0,0,0,0,-1,1063,1415,0,0
-154,-391,0,0,0,0,0,0,0,0,0,-1,1070,1415,0,0
-147,-391,0,0,0,0,0,0,0,0,0,-1,1077,1415,0,0
-140,-391,0,0,0,0,0,0,0,0,0,-1,1084,1415,0,0
-133,-391,0,0,0,0,0,0,0,0,0,-1,1091,1415,0,0
-126,-391,0,0,0,0,0,0,0,0,0,-1,1098,1415,0,0
-119,-391,0,0,0,0,0,0,0,0,0,-1,1105,1415,0,0
-112,-391,0,0,0,0,0,0,0,0,0,-1,1112,1415,0,0
-105,-391,0,0,0,0,0,0,0,0,0,-1,1119,1415,0,0
-98,-391,0,0,0,0,0,0,0,0,0,-1,1126,1415,0,0
-91,-391,0,0,0,0,0,0,0,0,0,-1,1133,1415,0,0
-84,-391,0,0,0,0,0,0,0,0,0,-1,1140,1415,0,0
-77,-391,0,0,0,0,0,0,0,0,0,-1,1147,1415,0,0
-70,-391,0,0,0,0,0,0,0,0,0,-1,1154,1415,0,0
-63,-391,0,0,0,0,0,0,0,0,0,-1,1161,1415,0,0
-56,-391,0,0,0,0,0,0,0,0,0,-1,1168,1415,0,0
-49,-391,0,0,0,0,0,0,0,0,0,-1,1175,1415,0,0
-42,-391,0,0,0,0,0,0,0,0,0,-1,1182,1415,0,0
-35,-391,0,0,0,0,0,0,0,0,0,-1,1189,1415,0,0
-28,-391,0,0,0,0,0,0,0,0,0,-1,1196,1415,0,0
-21,-391,0,0,0,0,0,0,0,0,0,-1,1203,1415,0,0
-14,-391,0,0,0,0,0,0,0,0,0,-1,1210,1415,0,0
-7,-391,0,0,0,0,0,0,0,0,0,-1,1217,1415,0,0
0,-391,0,0,0,0,0,0,0,0,0,-1,1224,1415,0,0
7,-391,0,0,0,0,0,0,0,0,0,-1,1231,1415,0,0
14,-391,0,0,0,0,0,0,0,0,0,-1,1238,1415,0,0
21,-391,0,0,0,0,0,0,0,0,0,-1,1245,1415,0,0
28,-391,0,0,0,0,0,0,0,0,0,-1,1252,1415,0,0
35,-391,0,0,0,0,0,0,0,0,0,-1,1259,1415,0,0
42,-391,0,0,0,0,0,0,0,0,0,-1,1266,1415,0,0
49,-391,0,0,0,0,0,0,0,0,0,-1,1273,1415,0,0
56,-391,0,0,0,0,0,0,0,0,0,-1,1280,1415,0,0
63,-391,0,0,0,0,0,0,0,0,0,-1,1287,1415,0,0
70,-391,0,0,0,0,0,0,0,0,0,-1,1294,1415,0,0
77,-391,0,0,0,0,0,0,0,0,0,-1,1301,1415,0,0
84,-391,0,0,0,0,0,0,0,0,0,-1,1308,1415,0,0
91,-391,0,0,0,0,0,0,0,0,0,-1,1315,1415,0,0
98,-391,0,0,0,0,0,0,0,0,0,-1,1322,1415,0,0
105,-391,0,0,0,0,0,0,0,0,0,-1,1329,1415,0,0
112,-391,0,0,0,0,0,0,0,0,0,-1,1336,1415,0,0
119,-391,0,0,0,0,0,0,0,0,0,-1,1343,1415,0,0
126,-391,0,0,0,0,0,0,0,0,0,-1,1350,1415,0,0
133,-391,0,0,0,0,0,0,0,0,0,-1,1357,1415,0,0
140,-391,0,0,0,0,0,0,0,0,0,-1,1364,1415,0,0
147,-391,0,0,0,0,0,0,0,0,0,-1,1371,1415,0,0
154,-391,0,0,0,0,0,0,0,0,0,-1,1378,1415,0,0
161,-391,0,0,0,0,0,0,0,0,0,-1,1385,1415,0,0
168,-391,0,0,0,0,0,0,0,0,0,-1,1392,1415,0,0
175,-391,0,0,0,0,0,0,0,0,0,-1,1399,1415,0,0
182,-391,0,0,0,0,0,0,0,0,0,-1,1406,1415,0,0
189,-391,0,0,0,0,0,0,0,0,0,-1,1413,1415,0,0
196,-391,0,0,0,0,0,0,0,0,0,-1,1420,1415,0,0
203,-391,0,0,0,0,0,0,0,0,0,-1,1427,1415,0,0
210,-391,0,0,0,0,0,0,0,0,0,-1,1434,1415,0,0
217,-391,0,0,0,0,0,0,0,0,0,-1,1441,1415,0,0
224,-391,0,0,0,0,0,0,0,0,0,-1,1448,1415,0,0
231,-391,0,0,0,0,0,0,0,0,0,-1,1455,1415,0,0
238,-391,0,0,0,0,0,0,0,0,0,-1,1462,1415,0,0
245,-391,0,0,0,0,0,0,0,0,0,-1,1469,1415,0,0
252,-391,0,0,0,0,0,0,0,0,0,-1,1476,1415,0,0
259,-391,0,0,0,0,0,0,0,0,0,-1,1483,1415,0,0
266,-391,0,0,0,0,0,0,0,0,0,-1,1490,1415,0,0
273,-391,0,0,0,0,0,0,0,0,0,-1,1497,1415,0,0
280,-391,0,0,0,0,0,0,0,0,0,-1,1504,1415,0,0
287,-391,0,0,0,0,0,0,0,0,0,-1,1511,1415,0,0
294,-391,0,0,0,0,0,0,0,0,0,-1,1518,1415,0,0
301,-391,0,0,0,0,0,0,0,0,0,-1,1525,1415,0,0
308,-391,0,0,0,0,0,0,0,0,0,-1,1532,1415,0,0
315,-391,0,0,0,0,0,0,0,0,0,-1,1539,1415,0,0
322,-391,0,0,0,0,0,0,0,0,0,-1,1546,1415,0,0
329,-391,0,0,0,0,0,0,0,0,0,-1,1553,1415,0,0
336,-391,0,0,0,0,0,0,0,0,0,-1,1560,1415,0,0
343,-391,0,0,0,0,0,0,0,0,0,-1,1567,1415,0,0
350,-391,0,0,0,0,0,0,0,0,0,-1,1574,1415,0,0
357,-391,0,0,0,0,0,0,0,0,0,-1,1581,1415,0,0
364,-391,0,0,0,0,0,0,0,0,0,-1,1588,1415,0,0
371,-391,0,0,0,0,0,0,0,0,0,-1,1595,1415,0,0
378,-391,0,0,0,0,0,0,0,0,0,-1,1602,1415,0,0
385,-391,0,0,0,0,0,0,0,0,0,-1,1609,1415,0,0
392,-391,0,0,0,0,0,0,0,0,0,-1,1616,1415,0,0
399,-391,0,0,0,0,0,0,0,0,0,-1,1623,1415,0,0
406,-391,0,0,0,0,0,0,0,0,0,-1,1630,1415,0,0
413,-391,0,0,0,0,0,0,0,0,0,-1,1637,1415,0,0
420,-391,0,0,0,0,0,0,0,0,0,-1,1644,1415,0,0
427,-391,0,0,0,0,0,0,0,0,0,-1,1651,1415,0,0
434,-391,0,0,0,0,0,0,0,0,0,-1,1658,1415,0,0
441,-391,0,0,0,0,0,0,0,0,0,-1,1665,1415,0,0
448,-391,0,0,0,0,0,0,0,0,0,-1,1672,1415,0,0
455,-391,0,0,0,0,0,0,0,0,0,-1,1679,1415,0,0
462,-391,0,0,0,0,0,0,0,0,0,-1,1686,1415,0,0
469,-391,0,0,0,0,0,0,0,0,0,-1,1693,1415,0,0
476,-391,0,0,0,0,0,0,0,0,0,-1,1700,1415,0,0
483,-391,0,0,0,0,0,0,0,0,0,-1,1707,1415,0,0
490,-391,0,0,0,0,0,0,0,0,0,-1,1714,1415,0,0
497,-391,0,0,0,0,0,0,0,0,0,-1,1721,1415,0,0
504,-391,0,0,0,0,0,0,0,0,0,-1,1728,1415,0,0
511,-391,0,0,0,0,0,0,0,0,0,-1,1735,1415,0,0
518,-391,0,0,0,0,0,0,0,0,0,-1,1742,1415,0,0
525,-391,0,0,0,0,0,0,0,0,0,-1,1749,1415,0,0
532,-391,28.5959,3.02356,0,0,0,0,0,0,0,-1,1756,1415,28.596,-3.02358
539,-391,27.5881,3.25012,0,0,0,0,0,0,0,-1,1763,1415,27.5882,-3.25016
546,-391,27.2837,3.28064,0,0,0,0,0,0,0,-1,1770,1415,27.2837,-3.28064
553,-391,32.5952,5.04553,0,0,0,0,0,0,0,-1,1777,1415,32.5952,-5.04551
560,-391,31.2947,5.67017,0,0,0,0,0,0,0,-1,1784,1415,31.2947,-5.67011
567,-391,30.1473,6.17603,0,0,0,0,0,0,0,-1,1791,1415,30.1473,-6.17602
574,-391,27.5656,5.6842,0,0,0,0,0,0,0,-1,1798,1415,27.5655,-5.68422
581,-391,25.8883,5.76123,0,0,0,0,0,0,0,-1,1805,1415,25.8883,-5.76124
588,-391,24.2717,5.47986,0,0,0,0,0,0,0,-1,1812,1415,24.2717,-5.47982
595,-391,22.8827,6.1991,0,0,0,0,0,0,0,-1,1819,1415,22.8827,-6.19909
602,-391,15.1635,5.69849,0,0,0,0,0,0,0,-1,1826,1415,15.1635,-5.69847
609,-391,14.8285,7.50476,0,0,0,0,0,0,0,-1,1833,1415,14.8285,-7.50479
616,-391,20.7952,12.0503,0,0,0,0,0,0,0,-1,1840,1415,20.7952,-12.0503
623,-391,33.0326,18.4758,0,0,0,0,0,0,0,-1,1847,1415,33.0326,-18.4758
630,-391,33.2064,17.8098,0.00158926,-0.000690765,-0.000423997,0.00166555,-0.000767059,-0.178036,0.00143605,0.0483133,1854,1415,33.2064,-17.8098
637,-391,33.0748,17.2842,0.00130482,-0.000484294,-0.00034269,0.00136821,-0.000547687,-0.182919,0.00113946,0.0172435,1861,1415,33.0748,-17.2842
644,-391,33.037,16.6781,0.00113173,-0.000386686,-0.000253579,0.00117296,-0.000427914,-0.161177,0.000957049,0.0175099,1868,1415,33.037,-16.6781
651,-391,33.0151,16.0825,0.00116693,-0.000186186,-0.000105594,0.00117512,-0.000194376,-0.0774128,0.0008556,0.0180704,1875,1415,33.0151,-16.0826
658,-391,32.9946,15.4575,0.00133653,4.5867e-05,3.34993e-05,0.0013374,4.49981e-05,0.0259318,0.000876985,0.0182793,1882,1415,32.9946,-15.4575
665,-391,32.9906,14.8413,0.00165833,0.000304156,0.000187094,0.0016837,0.000278782,0.134797,0.00104205,0.014754,1889,1415,32.9907,-14.8413
672,-391,32.9591,14.209,0.00211318,0.00060892,0.000381061,0.0022042,0.000517897,0.234474,0.00133086,0.0129213,1896,1415,32.9591,-14.209
679,-391,32.9197,13.5693,0.00268204,0.000922454,0.000632952,0.00288606,0.000718428,0.311825,0.00173488,0.0129255,1903,1415,32.9196,-13.5693
686,-391,32.9136,12.9655,0.00329117,0.00119388,0.00102536,0.00370916,0.000775891,0.387086,0.00225901,0.0134789,1910,1415,32.9136,-12.9654
693,-391,32.9371,12.5825,0.00411795,0.0016862,0.00131647,0.00469413,0.00111002,0.412551,0.00283285,0.0369362,1917,1415,32.9371,-12.5825
700,-391,33.1146,12.1095,0,0,0,0,0,0,0,-1,1924,1415,33.1146,-12.1095
707,-391,12.9524,5.96851,0,0,0,0,0,0,0,-1,1931,1415,12.9524,-5.96849
714,-391,15.6875,7.67896,0,0,0,0,0,0,0,-1,1938,1415,15.6875,-7.67893
721,-391,14.1808,8.08435,0,0,0,0,0,0,0,-1,1945,1415,14.1808,-8.08439
728,-391,13.8102,7.28174,0,0,0,0,0,0,0,-1,1952,1415,13.8102,-7.28174
735,-391,0,0,0,0,0,0,0,0,0,-1,1959,1415,0,0
742,-391,0,0,0,0,0,0,0,0,0,-1,1966,1415,0,0
749,-391,0,0,0,0,0,0,0,0,0,-1,1973,1415,0,0
756,-391,0,0,0,0,0,0,0,0,0,-1,1980,1415,0,0
763,-391,0,0,0,0,0,0,0,0,0,-1,1987,1415,0,0
770,-391,0,0,0,0,0,0,0,0,0,-1,1994,1415,0,0
777,-391,0,0,0,0,0,0,0,0,0,-1,2001,1415,0,0
784,-391,0,0,0,0,0,0,0,0,0,-1,2008,1415,0,0
791,-391,0,0,0,0,0,0,0,0,0,-1,2015,1415,0,0
798,-391,0,0,0,0,0,0,0,0,0,-1,2022,1415,0,0
805,-391,0,0,0,0,0,0,0,0,0,-1,2029,1415,0,0
812,-391,0,0,0,0,0,0,0,0,0,-1,2036,1415,0,0
-700,-398,0,0,0,0,0,0,0,0,0,-1,524,1422,0,0
-693,-398,0,0,0,0,0,0,0,0,0,-1,531,1422,0,0
-686,-398,0,0,0,0,0,0,0,0,0,-1,538,1422,0,0
-679,-398,0,0,0,0,0,0,0,0,0,-1,545,1422,0,0
-672,-398,0,0,0,0,0,0,0,0,0,-1,552,1422,0,0
-665,-398,0,0,0,0,0,0,0,0,0,-1,559,1422,0,0
-658,-398,0,0,0,0,0,0,0,0,0,-1,566,1422,0,0
-651,-398,0,0,0,0,0,0,0,0,0,-1,573,1422,0,0
-644,-398,0,0,0,0,0,0,0,0,0,-1,580,1422,0,0
-637,-398,0,0,0,0,0,0,0,0,0,-1,587,1422,0,0
-630,-398,0,0,0,0,0,0,0,0,0,-1,594,1422,0,0
-623,-398,0,0,0,0,0,0,0,0,0,-1,601,1422,0,0
-616,-398,0,0,0,0,0,0,0,0,0,-1,608,1422,0,0
-609,-398,-7.47125,-4.05322,0,0,0,0,0,0,0,-1,615,1422,-7.47128,4.05317
-602,-398,-4.58868,-2.77026,0,0,0,0,0,0,0,-1,622,1422,-4.58869,2.77023
-595,-398,-12.2224,-1.82007,0,0,0,0,0,0,0,-1,629,1422,-12.2224,1.82006
-588,-398,-10.6939,1.32336,0,0,0,0,0,0,0,-1,636,1422,-10.6939,-1.32337
-581,-398,-10.433,3.1123,0,0,0,0,0,0,0,-1,643,1422,-10.433,-3.11233
-574,-398,-10.4475,5.89807,0,0,0,0,0,0,0,-1,650,1422,-10.4475,-5.89802
-567,-398,-10.4904,6.80115,0,0,0,0,0,0,0,-1,657,1422,-10.4904,-6.80115
-560,-398,-10.5333,7.70435,0,0,0,0,0,0,0,-1,664,1422,-10.5333,-7.70429
-553,-398,-15.8428,11.0416,0,0,0,0,0,0,0,-1,671,1422,-15.8428,-11.0416
-546,-398,-15.7974,11.863,0.00439149,0.00225958,0.00264635,0.00617851,0.000472567,0.593938,0.00397087,0.030055,678,1422,-15.7974,-11.8631
-539,-398,-15.7303,12.5909,0.00348756,0.00165567,0.00205883,0.004825,0.000318233,0.576102,0.00311601,0.0135451,685,1422,-15.7303,-12.591
-532,-398,-15.798,13.2461,0.0028031,0.0011236,0.00157665,0.00374969,0.000177016,0.540698,0.00244293,0.0209631,692,1422,-15.798,-13.2461
-525,-398,-15.817,13.9177,0.00237425,0.000828728,0.00128639,0.00310214,0.000100833,0.514924,0.00203532,0.0188108,699,1422,-15.817,-13.9177
-518,-398,-15.8367,14.5616,0.00212406,0.000658471,0.00111651,0.00272678,5.57556e-05,0.494993,0.00179956,0.0172316,706,1422,-15.8366,-14.5617
-511,-398,-15.8572,15.2157,0.00205375,0.000618054,0.00105172,0.00260925,6.25531e-05,0.48594,0.00171903,0.0142481,713,1422,-15.8572,-15.2157
-504,-398,-15.8828,15.9122,0.00225363,0.000783499,0.0011981,0.00292418,0.000112948,0.510245,0.00191292,0.0140673,720,1422,-15.8828,-15.9122
-497,-398,-15.9044,16.5753,0.00264717,0.00110004,0.00149604,0.00355781,0.000189403,0.546791,0.00231133,0.0103392,727,1422,-15.9044,-16.5754
-490,-398,-15.9175,17.2417,0.00344019,0.00170097,0.00200217,0.00475345,0.000387713,0.580524,0.00304796,0.0201377,734,1422,-15.9175,-17.2417
-483,-398,-15.9196,17.9403,0,0,0,0,0,0,0,-1,741,1422,-15.9196,-17.9403
-476,-398,-8.64392,11.9448,0,0,0,0,0,0,0,-1,748,1422,-8.6439,-11.9448
-469,-398,-8.91699,10.6276,0,0,0,0,0,0,0,-1,755,1422,-8.91697,-10.6275
-462,-398,-9.59753,9.32532,0,0,0,0,0,0,0,-1,762,1422,-9.59753,-9.32531
-455,-398,-8.08331,6.75024,0,0,0,0,0,0,0,-1,769,1422,-8.08333,-6.75022
-448,-398,-7.4505,5.25293,0,0,0,0,0,0,0,-1,776,1422,-7.4505,-5.25291
-441,-398,-7.61639,3.32141,0,0,0,0,0,0,0,-1,783,1422,-7.61637,-3.32145
-434,-398,-10.7618,3.297,0,0,0,0,0,0,0,-1,790,1422,-10.7618,-3.29704
-427,-398,-11.9061,2.24939,0,0,0,0,0,0,0,-1,797,1422,-11.9061,-2.24941
-420,-398,-13.467,2.32788,0,0,0,0,0,0,0,-1,804,1422,-13.467,-2.32787
-413,-398,-14.7983,2.15515,0,0,0,0,0,0,0,-1,811,1422,-14.7983,-2.15516
-406,-398,0,0,0,0,0,0,0,0,0,-1,818,1422,0,0
-399,-398,0,0,0,0,0,0,0,0,0,-1,825,1422,0,0
-392,-398,0,0,0,0,0,0,0,0,0,-1,832,1422,0,0
-385,-398,0,0,0,0,0,0,0,0,0,-1,839,1422,0,0
-378,-398,0,0,0,0,0,0,0,0,0,-1,846,1422,0,0
-371,-398,0,0,0,0,0,0,0,0,0,-1,853,1422,0,0
-364,-398,0,0,0,0,0,0,0,0,0,-1,860,1422,0,0
-357,-398,0,0,0,0,0,0,0,0,0,-1,867,1422,0,0
-350,-398,0,0,0,0,0,0,0,0,0,-1,874,1422,0,0
-343,-398,0,0,0,0,0,0,0,0,0,-1,881,1422,0,0
-336,-398,0,0,0,0,0,0,0,0,0,-1,888,1422,0,0
-329,-398,0,0,0,0,0,0,0,0,0,-1,895,1422,0,0
-322,-398,0,0,0,0,0,0,0,0,0,-1,902,1422,0,0
-315,-398,0,0,0,0,0,0,0,0,0,-1,909,1422,0,0
-308,-398,0,0,0,0,0,0,0,0,0,-1,916,1422,0,0
-301,-398,0,0,0,0,0,0,0,0,0,-1,923,1422,0,0
-294,-398,0,0,0,0,0,0,0,0,0,-1,930,1422,0,0
-287,-398,0,0,0,0,0,0,0,0,0,-1,937,1422,0,0
-280,-398,0,0,0,0,0,0,0,0,0,-1,944,1422,0,0
-273,-398,0,0,0,0,0,0,0,0,0,-1,951,1422,0,0
-266,-398,0,0,0,0,0,0,0,0,0,-1,958,1422,0,0
-259,-398,0,0,0,0,0,0,0,0,0,-1,965,1422,0,0
-252,-398,0,0,0,0,0,0,0,0,0,-1,972,1422,0,0
-245,-398,0,0,0,0,0,0,0,0,0,-1,979,1422,0,0
-238,-398,0,0,0,0,0,0,0,0,0,-1,986,1422,0,0
-231,-398,0,0,0,0,0,0,0,0,0,-1,993,1422,0,0
-224,-398,0,0,0,0,0,0,0,0,0,-1,1000,1422,0,0
-217,-398,0,0,0,0,0,0,0,0,0,-1,1007,1422,0,0
-210,-398,0,0,0,0,0,0,0,0,0,-1,1014,1422,0,0
-203,-398,0,0,0,0,0,0,0,0,0,-1,1021,1422,0,0
-196,-398,0,0,0,0,0,0,0,0,0,-1,1028,1422,0,0
-189,-398,0,0,0,0,0,0,0,0,0,-1,1035,1422,0,0
-182,-398,0,0,0,0,0,0,0,0,0,-1,1042,1422,0,0
-175,-398,0,0,0,0,0,0,0,0,0,-1,1049,1422,0,0
-168,-398,0,0,0,0,0,0,0,0,0,-1,1056,1422,0,0
-161,-398,0,0,0,0,0,0,0,0,0,-1,1063,1422,0,0
-154,-398,0,0,0,0,0,0,0,0,0,-1,1070,1422,0,0
-147,-398,0,0,0,0,0,0,0,0,0,-1,1077,1422,0,0
-140,-398,0,0,0,0,0,0,0,0,0,-1,1084,1422,0,0
-133,-398,0,0,0,0,0,0,0,0,0,-1,1091,1422,0,0
-126,-398,0,0,0,0,0,0,0,0,0,-1,1098,1422,0,0
-119,-398,0,0,0,0,0,0,0,0,0,-1,1105,1422,0,0
-112,-398,0,0,0,0,0,0,0,0,0,-1,1112,1422,0,0
-105,-398,0,0,0,0,0,0,0,0,0,-1,1119,1422,0,0
-98,-398,0,0,0,0,0,0,0,0,0,-1,1126,1422,0,0
-91,-398,0,0,0,0,0,0,0,0,0,-1,1133,1422,0,0
-84,-398,0,0,0,0,0,0,0,0,0,-1,1140,1422,0,0
-77,-398,0,0,0,0,0,0,0,0,0,-1,1147,1422,0,0
-70,-398,0,0,0,0,0,0,0,0,0,-1,1154,1422,0,0
-63,-398,0,0,0,0,0,0,0,0,0,-1,1161,1422,0,0
-56,-398,0,0,0,0,0,0,0,0,0,-1,1168,1422,0,0
-49,-398,0,0,0,0,0,0,0,0,0,-1,1175,1422,0,0
-42,-398,0,0,0,0,0,0,0,0,0,-1,1182,1422,0,0
-35,-398,0,0,0,0,0,0,0,0,0,-1,1189,1422,0,0
-28,-398,0,0,0,0,0,0,0,0,0,-1,1196,1422,0,0
-21,-398,0,0,0,0,0,0,0,0,0,-1,1203,1422,0,0
-14,-398,0,0,0,0,0,0,0,0,0,-1,1210,1422,0,0
-7,-398,0,0,0,0,0,0,0,0,0,-1,1217,1422,0,0
0,-398,0,0,0,0,0,0,0,0,0,-1,1224,1422,0,0
7,-398,0,0,0,0,0,0,0,0,0,-1,1231,1422,0,0
14,-398,0,0,0,0,0,0,0,0,0,-1,1238,1422,0,0
21,-398,0,0,0,0,0,0,0,0,0,-1,1245,1422,0,0
28,-398,0,0,0,0,0,0,0,0,0,-1,1252,1422,0,0
35,-398,0,0,0,0,0,0,0,0,0,-1,1259,1422,0,0
42,-398,0,0,0,0,0,0,0,0,0,-1,1266,1422,0,0
49,-398,0,0,0,0,0,0,0,0,0,-1,1273,1422,0,0
56,-398,0,0,0,0,0,0,0,0,0,-1,1280,1422,0,0
63,-398,0,0,0,0,0,0,0,0,0,-1,1287,1422,0,0
70,-398,0,0,0,0,0,0,0,0,0,-1,1294,1422,0,0
77,-398,0,0,0,0,0,0,0,0,0,-1,1301,1422,0,0
84,-398,0,0,0,0,0,0,0,0,0,-1,1308,1422,0,0
91,-398,0,0,0,0,0,0,0,0,0,-1,1315,1422,0,0
98,-398,0,0,0,0,0,0,0,0,0,-1,1322,1422,0,0
105,-398,0,0,0,0,0,0,0,0,0,-1,1329,1422,0,0
112,-398,0,0,0,0,0,0,0,0,0,-1,1336,1422,0,0
119,-398,0,0,0,0,0,0,0,0,0,-1,1343,1422,0,0
126,-398,0,0,0,0,0,0,0,0,0,-1,1350,1422,0,0
133,-398,0,0,0,0,0,0,0,0,0,-1,1357,1422,0,0
140,-398,0,0,0,0,0,0,0,0,0,-1,1364,1422,0,0
147,-398,0,0,0,0,0,0,0,0,0,-1,1371,1422,0,0
154,-398,0,0,0,0,0,0,0,0,0,-1,1378,1422,0,0
161,-398,0,0,0,0,0,0,0,0,0,-1,1385,1422,0,0
168,-398,0,0,0,0,0,0,0,0,0,-1,1392,1422,0,0
175,-398,0,0,0,0,0,0,0,0,0,-1,1399,1422,0,0
182,-398,0,0,0,0,0,0,0,0,0,-1,1406,1422,0,0
189,-398,0,0,0,0,0,0,0,0,0,-1,1413,1422,0,0
196,-398,0,0,0,0,0,0,0,0,0,-1,1420,1422,0,0
203,-398,0,0,0,0,0,0,0,0,0,-1,1427,1422,0,0
210,-398,0,0,0,0,0,0,0,0,0,-1,1434,1422,0,0
217,-398,0,0,0,0,0,0,0,0,0,-1,1441,1422,0,0
224,-398,0,0,0,0,0,0,0,0,0,-1,1448,1422,0,0
231,-398,0,0,0,0,0,0,0,0,0,-1,1455,1422,0,0
238,-398,0,0,0,0,0,0,0,0,0,-1,1462,1422,0,0
245,-398,0,0,0,0,0,0,0,0,0,-1,1469,1422,0,0
252,-398,0,0,0,0,0,0,0,0,0,-1,1476,1422,0,0
259,-398,0,0,0,0,0,0,0,0,0,-1,1483,1422,0,0
266,-398,0,0,0,0,0,0,0,0,0,-1,1490,1422,0,0
273,-398,0,0,0,0,0,0,0,0,0,-1,1497,1422,0,0
280,-398,0,0,0,0,0,0,0,0,0,-1,1504,1422,0,0
287,-398,0,0,0,0,0,0,0,0,0,-1,1511,1422,0,0
294,-398,0,0,0,0,0,0,0,0,0,-1,1518,1422,0,0
301,-398,0,0,0,0,0,0,0,0,0,-1,1525,1422,0,0
308,-398,0,0,0,0,0,0,0,0,0,-1,1532,1422,0,0
315,-398,0,0,0,0,0,0,0,0,0,-1,1539,1422,0,0
322,-398,0,0,0,0,0,0,0,0,0,-1,1546,1422,0,0
329,-398,0,0,0,0,0,0,0,0,0,-1,1553,1422,0,0
336,-398,0,0,0,0,0,0,0,0,0,-1,1560,1422,0,0
343,-398,0,0,0,0,0,0,0,0,0,-1,1567,1422,0,0
350,-398,0,0,0,0,0,0,0,0,0,-1,1574,1422,0,0
357,-398,0,0,0,0,0,0,0,0,0,-1,1581,1422,0,0
364,-398,0,0,0,0,0,0,0,0,0,-1,1588,1422,0,0
371,-398,0,0,0,0,0,0,0,0,0,-1,1595,1422,0,0
378,-398,0,0,0,0,0,0,0,0,0,-1,1602,1422,0,0
385,-398,0,0,0,0,0,0,0,0,0,-1,1609,1422,0,0
392,-398,0,0,0,0,0,0,0,0,0,-1,1616,1422,0,0
399,-398,0,0,0,0,0,0,0,0,0,-1,1623,1422,0,0
406,-398,0,0,0,0,0,0,0,0,0,-1,1630,1422,0,0
413,-398,0,0,0,0,0,0,0,0,0,-1,1637,1422,0,0
420,-398,0,0,0,0,0,0,0,0,0,-1,1644,1422,0,0
427,-398,0,0,0,0,0,0,0,0,0,-1,1651,1422,0,0
434,-398,0,0,0,0,0,0,0,0,0,-1,1658,1422,0,0
441,-398,0,0,0,0,0,0,0,0,0,-1,1665,1422,0,0
448,-398,0,0,0,0,0,0,0,0,0,-1,1672,1422,0,0
455,-398,0,0,0,0,0,0,0,0,0,-1,1679,1422,0,0
462,-398,0,0,0,0,0,0,0,0,0,-1,1686,1422,0,0
469,-398,0,0,0,0,0,0,0,0,0,-1,1693,1422,0,0
476,-398,0,0,0,0,0,0,0,0,0,-1,1700,1422,0,0
483,-398,0,0,0,0,0,0,0,0,0,-1,1707,1422,0,0
490,-398,0,0,0,0,0,0,0,0,0,-1,1714,1422,0,0
497,-398,0,0,0,0,0,0,0,0,0,-1,1721,1422,0,0
504,-398,0,0,0,0,0,0,0,0,0,-1,1728,1422,0,0
511,-398,0,0,0,0,0,0,0,0,0,-1,1735,1422,0,0
518,-398,0,0,0,0,0,0,0,0,0,-1,1742,1422,0,0
525,-398,0,0,0,0,0,0,0,0,0,-1,1749,1422,0,0
532,-398,28.4558,3.84094,0,0,0,0,0,0,0,-1,1756,1422,28.4558,-3.8409
539,-398,27.0594,3.33887,0,0,0,0,0,0,0,-1,1763,1422,27.0595,-3.3389
546,-398,31.6873,5.58582,0,0,0,0,0,0,0,-1,1770,1422,31.6872,-5.58585
553,-398,30.4392,5.92383,0,0,0,0,0,0,0,-1,1777,1422,30.4392,-5.92386
560,-398,29.1621,6.30469,0,0,0,0,0,0,0,-1,1784,1422,29.1621,-6.30469
567,-398,27.8411,6.55029,0,0,0,0,0,0,0,-1,1791,1422,27.8411,-6.55033
574,-398,26.411,6.8916,0,0,0,0,0,0,0,-1,1798,1422,26.411,-6.8916
581,-398,24.75,7.11145,0,0,0,0,0,0,0,-1,1805,1422,24.7499,-7.11142
588,-398,23.1649,7.67969,0,0,0,0,0,0,0,-1,1812,1422,23.1649,-7.67975
595,-398,21.4253,7.86023,0,0,0,0,0,0,0,-1,1819,1422,21.4253,-7.86029
602,-398,19.6857,8.04077,0,0,0,0,0,0,0,-1,1826,1422,19.6856,-8.04083
609,-398,21.1835,13.2628,0,0,0,0,0,0,0,-1,1833,1422,21.1835,-13.2628
616,-398,32.2555,19.4133,0,0,0,0,0,0,0,-1,1840,1422,32.2555,-19.4134
623,-398,32.4728,18.5708,0.00238957,-0.000610014,-0.000746598,0.00256513,-0.000785568,-0.230943,0.00202343,0.0454229,1847,1422,32.4727,-18.5708
630,-398,32.4913,17.9248,0.00168949,-0.000658273,-0.000408255,0.00175846,-0.000727239,-0.167349,0.00147571,0.0135991,1854,1422,32.4913,-17.9248
637,-398,32.4448,17.3204,0.00142818,-0.0004974,-0.000326221,0.00148194,-0.000551166,-0.163344,0.00121413,0.014112,1861,1422,32.4448,-17.3204
644,-398,32.3767,16.7148,0.00130934,-0.000359229,-0.000242617,0.0013439,-0.000393791,-0.141502,0.00105206,0.02141,1868,1422,32.3767,-16.7148
651,-398,32.4292,16.131,0.00138495,-9.04895e-05,-0.000154328,0.00140092,-0.000106459,-0.103111,0.000971377,0.0303246,1875,1422,32.4292,-16.131
658,-398,32.401,15.5422,0.0015651,0.000223342,-6.01034e-05,0.00156778,0.000220655,-0.0446754,0.000979954,0.024155,1882,1422,32.401,-15.5422
665,-398,32.3511,14.8832,0.00188234,0.000579772,6.50916e-05,0.00188559,0.000576527,0.0498062,0.00111569,0.0159841,1889,1422,32.351,-14.8832
672,-398,32.3262,14.2505,0.00229666,0.00098113,0.000274947,0.00235181,0.000925978,0.197964,0.001368,0.0135542,1896,1422,32.3262,-14.2504
679,-398,32.3092,13.6139,0.00279871,0.00138155,0.000594051,0.00301478,0.00116548,0.348852,0.00175545,0.0131457,1903,1422,32.3092,-13.6139
686,-398,32.3075,13.0031,0.00324569,0.00170383,0.00117035,0.00387621,0.00107332,0.494159,0.002311,0.0189203,1910,1422,32.3075,-13.0031
693,-398,32.1614,12.4274,0.00382596,0.00229037,0.00171774,0.00493969,0.00117664,0.575229,0.0029794,0.0438778,1917,1422,32.1613,-12.4274
700,-398,32.1406,11.8646,0,0,0,0,0,0,0,-1,1924,1422,32.1406,-11.8646
707,-398,10.9731,5.479,0,0,0,0,0,0,0,-1,1931,1422,10.9732,-5.47896
714,-398,11.7313,6.17346,0,0,0,0,0,0,0,-1,1938,1422,11.7313,-6.17348
721,-398,13.9371,8.05103,0,0,0,0,0,0,0,-1,1945,1422,13.9372,-8.05102
728,-398,14.786,7.0282,0,0,0,0,0,0,0,-1,1952,1422,14.786,-7.0282
735,-398,0,0,0,0,0,0,0,0,0,-1,1959,1422,0,0
742,-398,0,0,0,0,0,0,0,0,0,-1,1966,1422,0,0
749,-398,0,0,0,0,0,0,0,0,0,-1,1973,1422,0,0
756,-398,0,0,0,0,0,0,0,0,0,-1,1980,1422,0,0
763,-398,0,0,0,0,0,0,0,0,0,-1,1987,1422,0,0
770,-398,0,0,0,0,0,0,0,0,0,-1,1994,1422,0,0
777,-398,0,0,0,0,0,0,0,0,0,-1,2001,1422,0,0
784,-398,0,0,0,0,0,0,0,0,0,-1,2008,1422,0,0
791,-398,0,0,0,0,0,0,0,0,0,-1,2015,1422,0,0
798,-398,0,0,0,0,0,0,0,0,0,-1,2022,1422,0,0
805,-398,0,0,0,0,0,0,0,0,0,-1,2029,1422,0,0
812,-398,0,0,0,0,0,0,0,0,0,-1,2036,1422,0,0
-700,-405,0,0,0,0,0,0,0,0,0,-1,524,1429,0,0
-693,-405,0,0,0,0,0,0,0,0,0,-1,531,1429,0,0
-686,-405,0,0,0,0,0,0,0,0,0,-1,538,1429,0,0
-679,-405,0,0,0,0,0,0,0,0,0,-1,545,1429,0,0
-672,-405,0,0,0,0,0,0,0,0,0,-1,552,1429,0,0
-665,-405,0,0,0,0,0,0,0,0,0,-1,559,1429,0,0
-658,-405,0,0,0,0,0,0,0,0,0,-1,566,1429,0,0
-651,-405,0,0,0,0,0,0,0,0,0,-1,573,1429,0,0
-644,-405,0,0,0,0,0,0,0,0,0,-1,580,1429,0,0
-637,-405,0,0,0,0,0,0,0,0,0,-1,587,1429,0,0
-630,-405,0,0,0,0,0,0,0,0,0,-1,594,1429,0,0
-623,-405,0,0,0,0,0,0,0,0,0,-1,601,1429,0,0
-616,-405,0,0,0,0,0,0,0,0,0,-1,608,1429,0,0
-609,-405,0,0,0,0,0,0,0,0,0,-1,615,1429,0,0
-602,-405,-5.80988,-3.46594,0,0,0,0,0,0,0,-1,622,1429,-5.80987,3.46592
-595,-405,-9.35413,2.01477,0,0,0,0,0,0,0,-1,629,1429,-9.35411,-2.01476
-588,-405,-7.35693,0.507202,0,0,0,0,0,0,0,-1,636,1429,-7.35696,-0.507187
-581,-405,-10.1284,1.62927,0,0,0,0,0,0,0,-1,643,1429,-10.1284,-1.62922
-574,-405,-9.32074,3.05896,0,0,0,0,0,0,0,-1,650,1429,-9.32077,-3.0589
-567,-405,-9.68781,6.92163,0,0,0,0,0,0,0,-1,657,1429,-9.68782,-6.92166
-560,-405,-9.28674,7.20886,0,0,0,0,0,0,0,-1,664,1429,-9.28675,-7.20885
-553,-405,-15.0818,11.1543,0,0,0,0,0,0,0,-1,671,1429,-15.0818,-11.1543
-546,-405,-15.0929,11.8671,0.00483596,0.00301622,0.00320623,0.00725892,0.000593257,0.647142,0.00465415,0.0439256,678,1429,-15.0929,-11.8671
-539,-405,-15.1027,12.5704,0.00375207,0.00232151,0.00250667,0.00564351,0.000430066,0.646416,0.00362749,0.0137868,685,1429,-15.1026,-12.5704
-532,-405,-15.1354,13.264,0.00291457,0.00162509,0.00188229,0.00425948,0.000280184,0.620397,0.00275102,0.0168356,692,1429,-15.1354,-13.264
-525,-405,-15.1552,13.9398,0.00238705,0.0012116,0.00148506,0.00339645,0.000202192,0.596975,0.0022,0.0146643,699,1429,-15.1552,-13.9398
-518,-405,-15.1707,14.6163,0.00205287,0.000944996,0.00121962,0.00283845,0.00015941,0.572233,0.00184147,0.014824,706,1429,-15.1707,-14.6164
-511,-405,-15.2106,15.2727,0.00190544,0.000794211,0.00105762,0.0025445,0.000155143,0.54354,0.00164706,0.0156284,713,1429,-15.2107,-15.2727
-504,-405,-15.2161,15.9407,0.00203067,0.000847938,0.00110043,0.00268857,0.000190043,0.53884,0.00173251,0.0171378,720,1429,-15.2161,-15.9407
-497,-405,-15.2238,16.6243,0.00234159,0.00105413,0.00128055,0.0031311,0.000264618,0.552495,0.00200503,0.0148415,727,1429,-15.2237,-16.6243
-490,-405,-15.2576,17.2866,0.00297587,0.00149354,0.00166167,0.00405418,0.000415236,0.575622,0.00257555,0.013104,734,1429,-15.2576,-17.2867
-483,-405,-15.1982,18.053,0.00387218,0.00223305,0.00230307,0.00549716,0.000608067,0.614456,0.00347984,0.03041,741,1429,-15.1982,-18.053
-476,-405,-14.9904,19.0254,0,0,0,0,0,0,0,-1,748,1429,-14.9904,-19.0254
-469,-405,-9.65692,12.8171,0,0,0,0,0,0,0,-1,755,1429,-9.65691,-12.8172
-462,-405,-9.14862,11.3597,0,0,0,0,0,0,0,-1,762,1429,-9.14865,-11.3597
-455,-405,-9.021,9.51111,0,0,0,0,0,0,0,-1,769,1429,-9.021,-9.51109
-448,-405,-8.4649,6.82813,0,0,0,0,0,0,0,-1,776,1429,-8.46492,-6.82817
-441,-405,-6.6712,4.23767,0,0,0,0,0,0,0,-1,783,1429,-6.67121,-4.23764
-434,-405,-9.62549,3.94189,0,0,0,0,0,0,0,-1,790,1429,-9.62546,-3.94191
-427,-405,-10.9764,3.73926,0,0,0,0,0,0,0,-1,797,1429,-10.9764,-3.73923
-420,-405,-12.1187,3.68506,0,0,0,0,0,0,0,-1,804,1429,-12.1187,-3.68512
-413,-405,-13.5353,3.75659,0,0,0,0,0,0,0,-1,811,1429,-13.5353,-3.75655
-406,-405,-14.7374,3.99817,0,0,0,0,0,0,0,-1,818,1429,-14.7374,-3.99814
-399,-405,0,0,0,0,0,0,0,0,0,-1,825,1429,0,0
-392,-405,0,0,0,0,0,0,0,0,0,-1,832,1429,0,0
-385,-405,0,0,0,0,0,0,0,0,0,-1,839,1429,0,0
-378,-405,0,0,0,0,0,0,0,0,0,-1,846,1429,0,0
-371,-405,0,0,0,0,0,0,0,0,0,-1,853,1429,0,0
-364,-405,0,0,0,0,0,0,0,0,0,-1,860,1429,0,0
-357,-405,0,0,0,0,0,0,0,0,0,-1,867,1429,0,0
-350,-405,0,0,0,0,0,0,0,0,0,-1,874,1429,0,0
-343,-405,0,0,0,0,0,0,0,0,0,-1,881,1429,0,0
-336,-405,0,0,0,0,0,0,0,0,0,-1,888,1429,0,0
-329,-405,0,0,0,0,0,0,0,0,0,-1,895,1429,0,0
-322,-405,0,0,0,0,0,0,0,0,0,-1,902,1429,0,0
-315,-405,0,0,0,0,0,0,0,0,0,-1,909,1429,0,0
-308,-405,0,0,0,0,0,0,0,0,0,-1,916,1429,0,0
-301,-405,0,0,0,0,0,0,0,0,0,-1,923,1429,0,0
-294,-405,0,0,0,0,0,0,0,0,0,-1,930,1429,0,0
-287,-405,0,0,0,0,0,0,0,0,0,-1,937,1429,0,0
-280,-405,0,0,0,0,0,0,0,0,0,-1,944,1429,0,0
-273,-405,0,0,0,0,0,0,0,0,0,-1,951,1429,0,0
-266,-405,0,0,0,0,0,0,0,0,0,-1,958,1429,0,0
-259,-405,0,0,0,0,0,0,0,0,0,-1,965,1429,0,0
-252,-405,0,0,0,0,0,0,0,0,0,-1,972,1429,0,0
-245,-405,0,0,0,0,0,0,0,0,0,-1,979,1429,0,0
-238,-405,0,0,0,0,0,0,0,0,0,-1,986,1429,0,0
-231,-405,0,0,0,0,0,0,0,0,0,-1,993,1429,0,0
-224,-405,0,0,0,0,0,0,0,0,0,-1,1000,1429,0,0
-217,-405,0,0,0,0,0,0,0,0,0,-1,1007,1429,0,0
-210,-405,0,0,0,0,0,0,0,0,0,-1,1014,1429,0,0
-203,-405,0,0,0,0,0,0,0,0,0,-1,1021,1429,0,0
-196,-405,0,0,0,0,0,0,0,0,0,-1,1028,1429,0,0
-189,-405,0,0,0,0,0,0,0,0,0,-1,1035,1429,0,0
-182,-405,0,0,0,0,0,0,0,0,0,-1,1042,1429,0,0
-175,-405,0,0,0,0,0,0,0,0,0,-1,1049,1429,0,0
-168,-405,0,0,0,0,0,0,0,0,0,-1,1056,1429,0,0
-161,-405,0,0,0,0,0,0,0,0,0,-1,1063,1429,0,0
-154,-405,0,0,0,0,0,0,0,0,0,-1,1070,1429,0,0
-147,-405,0,0,0,0,0,0,0,0,0,-1,1077,1429,0,0
-140,-405,0,0,0,0,0,0,0,0,0,-1,1084,1429,0,0
-133,-405,0,0,0,0,0,0,0,0,0,-1,1091,1429,0,0
-126,-405,0,0,0,0,0,0,0,0,0,-1,1098,1429,0,0
-119,-405,0,0,0,0,0,0,0,0,0,-1,1105,1429,0,0
-112,-405,0,0,0,0,0,0,0,0,0,-1,1112,1429,0,0
-105,-405,0,0,0,0,0,0,0,0,0,-1,1119,1429,0,0
-98,-405,0,0,0,0,0,0,0,0,0,-1,1126,1429,0,0
-91,-405,0,0,0,0,0,0,0,0,0,-1,1133,1429,0,0
-84,-405,0,0,0,0,0,0,0,0,0,-1,1140,1429,0,0
-77,-405,0,0,0,0,0,0,0,0,0,-1,1147,1429,0,0
-70,-405,0,0,0,0,0,0,0,0,0,-1,1154,1429,0,0
-63,-405,0,0,0,0,0,0,0,0,0,-1,1161,1429,0,0
-56,-405,0,0,0,0,0,0,0,0,0,-1,1168,1429,0,0
-49,-405,0,0,0,0,0,0,0,0,0,-1,1175,1429,0,0
-42,-405,0,0,0,0,0,0,0,0,0,-1,1182,1429,0,0
-35,-405,0,0,0,0,0,0,0,0,0,-1,1189,1429,0,0
-28,-405,0,0,0,0,0,0,0,0,0,-1,1196,1429,0,0
-21,-405,0,0,0,0,0,0,0,0,0,-1,1203,1429,0,0
-14,-405,0,0,0,0,0,0,0,0,0,-1,1210,1429,0,0
-7,-405,0,0,0,0,0,0,0,0,0,-1,1217,1429,0,0
0,-405,0,0,0,0,0,0,0,0,0,-1,1224,1429,0,0
7,-405,0,0,0,0,0,0,0,0,0,-1,1231,1429,0,0
14,-405,0,0,0,0,0,0,0,0,0,-1,1238,1429,0,0
21,-405,0,0,0,0,0,0,0,0,0,-1,1245,1429,0,0
28,-405,0,0,0,0,0,0,0,0,0,-1,1252,1429,0,0
35,-405,0,0,0,0,0,0,0,0,0,-1,1259,1429,0,0
42,-405,0,0,0,0,0,0,0,0,0,-1,1266,1429,0,0
49,-405,0,0,0,0,0,0,0,0,0,-1,1273,1429,0,0
56,-405,0,0,0,0,0,0,0,0,0,-1,1280,1429,0,0
63,-405,0,0,0,0,0,0,0,0,0,-1,1287,1429,0,0
70,-405,0,0,0,0,0,0,0,0,0,-1,1294,1429,0,0
77,-405,0,0,0,0,0,0,0,0,0,-1,1301,1429,0,0
84,-405,0,0,0,0,0,0,0,0,0,-1,1308,1429,0,0
91,-405,0,0,0,0,0,0,0,0,0,-1,1315,1429,0,0
98,-405,0,0,0,0,0,0,0,0,0,-1,1322,1429,0,0
105,-405,0,0,0,0,0,0,0,0,0,-1,1329,1429,0,0
112,-405,0,0,0,0,0,0,0,0,0,-1,1336,1429,0,0
119,-405,0,0,0,0,0,0,0,0,0,-1,1343,1429,0,0
126,-405,0,0,0,0,0,0,0,0,0,-1,1350,1429,0,0
133,-405,0,0,0,0,0,0,0,0,0,-1,1357,1429,0,0
140,-405,0,0,0,0,0,0,0,0,0,-1,1364,1429,0,0
147,-405,0,0,0,0,0,0,0,0,0,-1,1371,1429,0,0
154,-405,0,0,0,0,0,0,0,0,0,-1,1378,1429,0,0
161,-405,0,0,0,0,0,0,0,0,0,-1,1385,1429,0,0
168,-405,0,0,0,0,0,0,0,0,0,-1,1392,1429,0,0
175,-405,0,0,0,0,0,0,0,0,0,-1,1399,1429,0,0
182,-405,0,0,0,0,0,0,0,0,0,-1,1406,1429,0,0
189,-405,0,0,0,0,0,0,0,0,0,-1,1413,1429,0,0
196,-405,0,0,0,0,0,0,0,0,0,-1,1420,1429,0,0
203,-405,0,0,0,0,0,0,0,0,0,-1,1427,1429,0,0
210,-405,0,0,0,0,0,0,0,0,0,-1,1434,1429,0,0
217,-405,0,0,0,0,0,0,0,0,0,-1,1441,1429,0,0
224,-405,0,0,0,0,0,0,0,0,0,-1,1448,1429,0,0
231,-405,0,0,0,0,0,0,0,0,0,-1,1455,1429,0,0
238,-405,0,0,0,0,0,0,0,0,0,-1,1462,1429,0,0
245,-405,0,0,0,0,0,0,0,0,0,-1,1469,1429,0,0
252,-405,0,0,0,0,0,0,0,0,0,-1,1476,1429,0,0
259,-405,0,0,0,0,0,0,0,0,0,-1,1483,1429,0,0
266,-405,0,0,0,0,0,0,0,0,0,-1,1490,1429,0,0
273,-405,0,0,0,0,0,0,0,0,0,-1,1497,1429,0,0
280,-405,0,0,0,0,0,0,0,0,0,-1,1504,1429,0,0
287,-405,0,0,0,0,0,0,0,0,0,-1,1511,1429,0,0
294,-405,0,0,0,0,0,0,0,0,0,-1,1518,1429,0,0
301,-405,0,0,0,0,0,0,0,0,0,-1,1525,1429,0,0
308,-405,0,0,0,0,0,0,0,0,0,-1,1532,1429,0,0
315,-405,0,0,0,0,0,0,0,0,0,-1,1539,1429,0,0
322,-405,0,0,0,0,0,0,0,0,0,-1,1546,1429,0,0
329,-405,0,0,0,0,0,0,0,0,0,-1,1553,1429,0,0
336,-405,0,0,0,0,0,0,0,0,0,-1,1560,1429,0,0
343,-405,0,0,0,0,0,0,0,0,0,-1,1567,1429,0,0
350,-405,0,0,0,0,0,0,0,0,0,-1,1574,1429,0,0
357,-405,0,0,0,0,0,0,0,0,0,-1,1581,1429,0,0
364,-405,0,0,0,0,0,0,0,0,0,-1,1588,1429,0,0
371,-405,0,0,0,0,0,0,0,0,0,-1,1595,1429,0,0
378,-405,0,0,0,0,0,0,0,0,0,-1,1602,1429,0,0
385,-405,0,0,0,0,0,0,0,0,0,-1,1609,1429,0,0
392,-405,0,0,0,0,0,0,0,0,0,-1,1616,1429,0,0
399,-405,0,0,0,0,0,0,0,0,0,-1,1623,1429,0,0
406,-405,0,0,0,0,0,0,0,0,0,-1,1630,1429,0,0
413,-405,0,0,0,0,0,0,0,0,0,-1,1637,1429,0,0
420,-405,0,0,0,0,0,0,0,0,0,-1,1644,1429,0,0
427,-405,0,0,0,0,0,0,0,0,0,-1,1651,1429,0,0
434,-405,0,0,0,0,0,0,0,0,0,-1,1658,1429,0,0
441,-405,0,0,0,0,0,0,0,0,0,-1,1665,1429,0,0
448,-405,0,0,0,0,0,0,0,0,0,-1,1672,1429,0,0
455,-405,0,0,0,0,0,0,0,0,0,-1,1679,1429,0,0
462,-405,0,0,0,0,0,0,0,0,0,-1,1686,1429,0,0
469,-405,0,0,0,0,0,0,0,0,0,-1,1693,1429,0,0
476,-405,0,0,0,0,0,0,0,0,0,-1,1700,1429,0,0
483,-405,0,0,0,0,0,0,0,0,0,-1,1707,1429,0,0
490,-405,0,0,0,0,0,0,0,0,0,-1,1714,1429,0,0
497,-405,0,0,0,0,0,0,0,0,0,-1,1721,1429,0,0
504,-405,0,0,0,0,0,0,0,0,0,-1,1728,1429,0,0
511,-405,0,0,0,0,0,0,0,0,0,-1,1735,1429,0,0
518,-405,0,0,0,0,0,0,0,0,0,-1,1742,1429,0,0
525,-405,31.1563,-1.40942,0,0,0,0,0,0,0,-1,1749,1429,31.1563,1.40937
532,-405,28.156,4.8783,0,0,0,0,0,0,0,-1,1756,1429,28.1561,-4.87833
539,-405,26.5133,3.02454,0,0,0,0,0,0,0,-1,1763,1429,26.5133,-3.0246
546,-405,29.5735,6.53052,0,0,0,0,0,0,0,-1,1770,1429,29.5735,-6.53049
553,-405,28.2911,6.70654,0,0,0,0,0,0,0,-1,1777,1429,28.2912,-6.70656
560,-405,26.9299,7.08472,0,0,0,0,0,0,0,-1,1784,1429,26.9299,-7.08469
567,-405,25.804,7.14661,0,0,0,0,0,0,0,-1,1791,1429,25.8039,-7.14665
574,-405,25.1151,8.07971,0,0,0,0,0,0,0,-1,1798,1429,25.1151,-8.07965
581,-405,23.5055,8.505,0,0,0,0,0,0,0,-1,1805,1429,23.5054,-8.50501
588,-405,21.7491,8.98254,0,0,0,0,0,0,0,-1,1812,1429,21.7491,-8.98254
595,-405,21.6327,10.7795,0,0,0,0,0,0,0,-1,1819,1429,21.6327,-10.7796
602,-405,21.6461,13.9199,0,0,0,0,0,0,0,-1,1826,1429,21.6461,-13.92
609,-405,31.7737,20.1085,0,0,0,0,0,0,0,-1,1833,1429,31.7736,-20.1085
616,-405,31.847,19.3517,0,0,0,0,0,0,0,-1,1840,1429,31.847,-19.3517
623,-405,31.8458,18.6508,0.00252251,-0.000326212,-0.000867292,0.00276578,-0.000569484,-0.273469,0.00206009,0.015106,1847,1429,31.8459,-18.6508
630,-405,31.8529,17.9711,0.00193759,-0.000503073,-0.000530237,0.00204781,-0.00061329,-0.204946,0.00160908,0.0109232,1854,1429,31.8529,-17.9711
637,-405,31.826,17.3516,0.00167251,-0.000416228,-0.000428075,0.00175683,-0.000500555,-0.194501,0.00136893,0.0112811,1861,1429,31.8261,-17.3515
644,-405,31.7446,16.7341,0.00157568,-0.000244062,-0.000352008,0.0016414,-0.00030978,-0.184571,0.00121081,0.0313729,1868,1429,31.7446,-16.7341
651,-405,31.7239,16.1271,0.00165742,7.74712e-05,-0.000317834,0.00171896,1.59305e-05,-0.191258,0.0011407,0.0362077,1875,1429,31.7238,-16.1271
658,-405,31.7434,15.5372,0.00181791,0.000471721,-0.000268872,0.00186962,0.000420006,-0.19002,0.00113267,0.025276,1882,1429,31.7434,-15.5372
665,-405,31.7209,14.9032,0.00210133,0.000940095,-0.000179162,0.00212834,0.000913081,-0.149651,0.00123292,0.0194016,1889,1429,31.721,-14.9032
672,-405,31.7345,14.2758,0.00243322,0.00145948,3.7956e-05,0.0024347,0.00145801,0.038901,0.0014148,0.0235629,1896,1429,31.7345,-14.2758
679,-405,31.7992,13.6693,0.0028161,0.00197987,0.000413273,0.00298588,0.0018101,0.389786,0.00173682,0.0257892,1903,1429,31.7992,-13.6693
686,-405,31.6288,13.1313,0.00300998,0.00239152,0.00118752,0.00392787,0.00147363,0.658028,0.0022912,0.0404689,1910,1429,31.6288,-13.1314
693,-405,31.2305,12.4404,0,0,0,0,0,0,0,-1,1917,1429,31.2304,-12.4405
700,-405,9.1958,4.02026,0,0,0,0,0,0,0,-1,1924,1429,9.19579,-4.02025
707,-405,7.40308,3.83191,0,0,0,0,0,0,0,-1,1931,1429,7.40311,-3.83194
714,-405,7.33252,3.47388,0,0,0,0,0,0,0,-1,1938,1429,7.33255,-3.47383
721,-405,9.23523,0.993896,0,0,0,0,0,0,0,-1,1945,1429,9.23523,-0.993884
728,-405,0,0,0,0,0,0,0,0,0,-1,1952,1429,0,0
735,-405,0,0,0,0,0,0,0,0,0,-1,1959,1429,0,0
742,-405,0,0,0,0,0,0,0,0,0,-1,1966,1429,0,0
749,-405,0,0,0,0,0,0,0,0,0,-1,1973,1429,0,0
756,-405,0,0,0,0,0,0,0,0,0,-1,1980,1429,0,0
763,-405,0,0,0,0,0,0,0,0,0,-1,1987,1429,0,0
770,-405,0,0,0,0,0,0,0,0,0,-1,1994,1429,0,0
777,-405,0,0,0,0,0,0,0,0,0,-1,2001,1429,0,0
784,-405,0,0,0,0,0,0,0,0,0,-1,2008,1429,0,0
791,-405,0,0,0,0,0,0,0,0,0,-1,2015,1429,0,0
798,-405,0,0,0,0,0,0,0,0,0,-1,2022,1429,0,0
805,-405,0,0,0,0,0,0,0,0,0,-1,2029,1429,0,0
812,-405,0,0,0,0,0,0,0,0,0,-1,2036,1429,0,0
-700,-412,0,0,0,0,0,0,0,0,0,-1,524,1436,0,0
-693,-412,0,0,0,0,0,0,0,0,0,-1,531,1436,0,0
-686,-412,0,0,0,0,0,0,0,0,0,-1,538,1436,0,0
-679,-412,0,0,0,0,0,0,0,0,0,-1,545,1436,0,0
-672,-412,0,0,0,0,0,0,0,0,0,-1,552,1436,0,0
-665,-412,0,0,0,0,0,0,0,0,0,-1,559,1436,0,0
-658,-412,0,0,0,0,0,0,0,0,0,-1,566,1436,0,0
-651,-412,0,0,0,0,0,0,0,0,0,-1,573,1436,0,0
-644,-412,0,0,0,0,0,0,0,0,0,-1,580,1436,0,0
-637,-412,0,0,0,0,0,0,0,0,0,-1,587,1436,0,0
-630,-412,0,0,0,0,0,0,0,0,0,-1,594,1436,0,0
-623,-412,0,0,0,0,0,0,0,0,0,-1,601,1436,0,0
-616,-412,0,0,0,0,0,0,0,0,0,-1,608,1436,0,0
-609,-412,0,0,0,0,0,0,0,0,0,-1,615,1436,0,0
-602,-412,-3.72766,-3.50012,0,0,0,0,0,0,0,-1,622,1436,-3.72764,3.50017
-595,-412,-10.3706,0.65564,0,0,0,0,0,0,0,-1,629,1436,-10.3706,-0.655672
-588,-412,-8.17957,1.94934,0,0,0,0,0,0,0,-1,636,1436,-8.17956,-1.94939
-581,-412,-6.60065,-0.0554199,0,0,0,0,0,0,0,-1,643,1436,-6.60063,0.0554733
-574,-412,-8.34131,5.25012,0,0,0,0,0,0,0,-1,650,1436,-8.34129,-5.25012
-567,-412,-7.50354,3.65454,0,0,0,0,0,0,0,-1,657,1436,-7.50356,-3.65452
-560,-412,-8.52448,7.39014,0,0,0,0,0,0,0,-1,664,1436,-8.52447,-7.39019
-553,-412,-7.36761,6.54651,0,0,0,0,0,0,0,-1,671,1436,-7.36763,-6.54654
-546,-412,-14.4041,11.9214,0,0,0,0,0,0,0,-1,678,1436,-14.4041,-11.9213
-539,-412,-14.4039,12.5537,0.00403193,0.00322725,0.00307436,0.00673017,0.000529018,0.720333,0.00432125,0.026808,685,1436,-14.4039,-12.5537
-532,-412,-14.4478,13.3059,0.0031192,0.00232653,0.00233432,0.0050906,0.000355134,0.701308,0.00328176,0.0153554,692,1436,-14.4477,-13.3059
-525,-412,-14.4702,13.9894,0.00253135,0.00176616,0.00184456,0.00403257,0.000264935,0.683139,0.00260456,0.0146133,699,1436,-14.4702,-13.9893
-518,-412,-14.4888,14.6497,0.00213399,0.00137637,0.00148975,0.00329234,0.000218024,0.660897,0.00212595,0.0150996,706,1436,-14.4889,-14.6497
-511,-412,-14.543,15.3093,0.00190047,0.00110329,0.00122365,0.00278881,0.000214955,0.627948,0.00179186,0.018544,713,1436,-14.543,-15.3093
-504,-412,-14.5783,15.9811,0.00190806,0.00102125,0.00114083,0.00268863,0.00024068,0.600049,0.00171782,0.0185353,720,1436,-14.5783,-15.9811
-497,-412,-14.5872,16.6564,0.00209666,0.00108984,0.00118131,0.00287734,0.000309151,0.583978,0.00182393,0.0148443,727,1436,-14.5872,-16.6564
-490,-412,-14.6042,17.3099,0.00257931,0.00137844,0.00142974,0.00352957,0.000428173,0.586602,0.00222411,0.0132933,734,1436,-14.6042,-17.31
-483,-412,-14.6193,17.9523,0.00332252,0.00191573,0.00190231,0.00464732,0.000590937,0.608315,0.00292123,0.0110936,741,1436,-14.6192,-17.9522
-476,-412,-14.5292,18.8251,0,0,0,0,0,0,0,-1,748,1436,-14.5293,-18.8251
-469,-412,-12.7646,18.4785,0,0,0,0,0,0,0,-1,755,1436,-12.7647,-18.4785
-462,-412,-8.94659,13.3385,0,0,0,0,0,0,0,-1,762,1436,-8.94657,-13.3385
-455,-412,-8.25006,11.2572,0,0,0,0,0,0,0,-1,769,1436,-8.25007,-11.2572
-448,-412,-7.38086,8.78186,0,0,0,0,0,0,0,-1,776,1436,-7.38088,-8.78183
-441,-412,-8.79523,9.05286,0,0,0,0,0,0,0,-1,783,1436,-8.79521,-9.0529
-434,-412,-10.6305,8.03577,0,0,0,0,0,0,0,-1,790,1436,-10.6305,-8.0358
-427,-412,-10.0004,5.15271,0,0,0,0,0,0,0,-1,797,1436,-10.0004,-5.15266
-420,-412,-10.4468,4.9043,0,0,0,0,0,0,0,-1,804,1436,-10.4468,-4.90429
-413,-412,-11.5704,4.97766,0,0,0,0,0,0,0,-1,811,1436,-11.5704,-4.97771
-406,-412,-13.1968,5.70093,0,0,0,0,0,0,0,-1,818,1436,-13.1968,-5.70096
-399,-412,-10.5506,0.771973,0,0,0,0,0,0,0,-1,825,1436,-10.5506,-0.771954
-392,-412,0,0,0,0,0,0,0,0,0,-1,832,1436,0,0
-385,-412,0,0,0,0,0,0,0,0,0,-1,839,1436,0,0
-378,-412,0,0,0,0,0,0,0,0,0,-1,846,1436,0,0
-371,-412,0,0,0,0,0,0,0,0,0,-1,853,1436,0,0
-364,-412,0,0,0,0,0,0,0,0,0,-1,860,1436,0,0
-357,-412,0,0,0,0,0,0,0,0,0,-1,867,1436,0,0
-350,-412,0,0,0,0,0,0,0,0,0,-1,874,1436,0,0
-343,-412,0,0,0,0,0,0,0,0,0,-1,881,1436,0,0
-336,-412,0,0,0,0,0,0,0,0,0,-1,888,1436,0,0
-329,-412,0,0,0,0,0,0,0,0,0,-1,895,1436,0,0
-322,-412,0,0,0,0,0,0,0,0,0,-1,902,1436,0,0
-315,-412,0,0,0,0,0,0,0,0,0,-1,909,1436,0,0
-308,-412,0,0,0,0,0,0,0,0,0,-1,916,1436,0,0
-301,-412,0,0,0,0,0,0,0,0,0,-1,923,1436,0,0
-294,-412,0,0,0,0,0,0,0,0,0,-1,930,1436,0,0
-287,-412,0,0,0,0,0,0,0,0,0,-1,937,1436,0,0
-280,-412,0,0,0,0,0,0,0,0,0,-1,944,1436,0,0
-273,-412,0,0,0,0,0,0,0,0,0,-1,951,1436,0,0
-266,-412,0,0,0,0,0,0,0,0,0,-1,958,1436,0,0
-259,-412,0,0,0,0,0,0,0,0,0,-1,965,1436,0,0
-252,-412,0,0,0,0,0,0,0,0,0,-1,972,1436,0,0
-245,-412,0,0,0,0,0,0,0,0,0,-1,979,1436,0,0
-238,-412,0,0,0,0,0,0,0,0,0,-1,986,1436,0,0
-231,-412,0,0,0,0,0,0,0,0,0,-1,993,1436,0,0
-224,-412,0,0,0,0,0,0,0,0,0,-1,1000,1436,0,0
-217,-412,0,0,0,0,0,0,0,0,0,-1,1007,1436,0,0
-210,-412,0,0,0,0,0,0,0,0,0,-1,1014,1436,0,0
-203,-412,0,0,0,0,0,0,0,0,0,-1,1021,1436,0,0
-196,-412,0,0,0,0,0,0,0,0,0,-1,1028,1436,0,0
-189,-412,0,0,0,0,0,0,0,0,0,-1,1035,1436,0,0
-182,-412,0,0,0,0,0,0,0,0,0,-1,1042,1436,0,0
-175,-412,0,0,0,0,0,0,0,0,0,-1,1049,1436,0,0
-168,-412,0,0,0,0,0,0,0,0,0,-1,1056,1436,0,0
-161,-412,0,0,0,0,0,0,0,0,0,-1,1063,1436,0,0
-154,-412,0,0,0,0,0,0,0,0,0,-1,1070,1436,0,0
-147,-412,0,0,0,0,0,0,0,0,0,-1,1077,1436,0,0
-140,-412,0,0,0,0,0,0,0,0,0,-1,1084,1436,0,0
-133,-412,0,0,0,0,0,0,0,0,0,-1,1091,1436,0,0
-126,-412,0,0,0,0,0,0,0,0,0,-1,1098,1436,0,0
-119,-412,0,0,0,0,0,0,0,0,0,-1,1105,1436,0,0
-112,-412,0,0,0,0,0,0,0,0,0,-1,1112,1436,0,0
-105,-412,0,0,0,0,0,0,0,0,0,-1,1119,1436,0,0
-98,-412,0,0,0,0,0,0,0,0,0,-1,1126,1436,0,0
-91,-412,0,0,0,0,0,0,0,0,0,-1,1133,1436,0,0
-84,-412,0,0,0,0,0,0,0,0,0,-1,1140,1436,0,0
-77,-412,0,0,0,0,0,0,0,0,0,-1,1147,1436,0,0
-70,-412,0,0,0,0,0,0,0,0,0,-1,1154,1436,0,0
-63,-412,0,0,0,0,0,0,0,0,0,-1,1161,1436,0,0
-56,-412,0,0,0,0,0,0,0,0,0,-1,1168,1436,0,0
-49,-412,0,0,0,0,0,0,0,0,0,-1,1175,1436,0,0
-42,-412,0,0,0,0,0,0,0,0,0,-1,1182,1436,0,0
-35,-412,0,0,0,0,0,0,0,0,0,-1,1189,1436,0,0
-28,-412,0,0,0,0,0,0,0,0,0,-1,1196,1436,0,0
-21,-412,0,0,0,0,0,0,0,0,0,-1,1203,1436,0,0
-14,-412,0,0,0,0,0,0,0,0,0,-1,1210,1436,0,0
-7,-412,0,0,0,0,0,0,0,0,0,-1,1217,1436,0,0
0,-412,0,0,0,0,0,0,0,0,0,-1,1224,1436,0,0
7,-412,0,0,0,0,0,0,0,0,0,-1,1231,1436,0,0
14,-412,0,0,0,0,0,0,0,0,0,-1,1238,1436,0,0
21,-412,0,0,0,0,0,0,0,0,0,-1,1245,1436,0,0
28,-412,0,0,0,0,0,0,0,0,0,-1,1252,1436,0,0
35,-412,0,0,0,0,0,0,0,0,0,-1,1259,1436,0,0
42,-412,0,0,0,0,0,0,0,0,0,-1,1266,1436,0,0
49,-412,0,0,0,0,0,0,0,0,0,-1,1273,1436,0,0
56,-412,0,0,0,0,0,0,0,0,0,-1,1280,1436,0,0
63,-412,0,0,0,0,0,0,0,0,0,-1,1287,1436,0,0
70,-412,0,0,0,0,0,0,0,0,0,-1,1294,1436,0,0
77,-412,0,0,0,0,0,0,0,0,0,-1,1301,1436,0,0
84,-412,0,0,0,0,0,0,0,0,0,-1,1308,1436,0,0
91,-412,0,0,0,0,0,0,0,0,0,-1,1315,1436,0,0
98,-412,0,0,0,0,0,0,0,0,0,-1,1322,1436,0,0
105,-412,0,0,0,0,0,0,0,0,0,-1,1329,1436,0,0
112,-412,0,0,0,0,0,0,0,0,0,-1,1336,1436,0,0
119,-412,0,0,0,0,0,0,0,0,0,-1,1343,1436,0,0
126,-412,0,0,0,0,0,0,0,0,0,-1,1350,1436,0,0
133,-412,0,0,0,0,0,0,0,0,0,-1,1357,1436,0,0
140,-412,0,0,0,0,0,0,0,0,0,-1,1364,1436,0,0
147,-412,0,0,0,0,0,0,0,0,0,-1,1371,1436,0,0
154,-412,0,0,0,0,0,0,0,0,0,-1,1378,1436,0,0
161,-412,0,0,0,0,0,0,0,0,0,-1,1385,1436,0,0
168,-412,0,0,0,0,0,0,0,0,0,-1,1392,1436,0,0
175,-412,0,0,0,0,0,0,0,0,0,-1,1399,1436,0,0
182,-412,0,0,0,0,0,0,0,0,0,-1,1406,1436,0,0
189,-412,0,0,0,0,0,0,0,0,0,-1,1413,1436,0,0
196,-412,0,0,0,0,0,0,0,0,0,-1,1420,1436,0,0
203,-412,0,0,0,0,0,0,0,0,0,-1,1427,1436,0,0
210,-412,0,0,0,0,0,0,0,0,0,-1,1434,1436,0,0
217,-412,0,0,0,0,0,0,0,0,0,-1,1441,1436,0,0
224,-412,0,0,0,0,0,0,0,0,0,-1,1448,1436,0,0
231,-412,0,0,0,0,0,0,0,0,0,-1,1455,1436,0,0
238,-412,0,0,0,0,0,0,0,0,0,-1,1462,1436,0,0
245,-412,0,0,0,0,0,0,0,0,0,-1,1469,1436,0,0
252,-412,0,0,0,0,0,0,0,0,0,-1,1476,1436,0,0
259,-412,0,0,0,0,0,0,0,0,0,-1,1483,1436,0,0
266,-412,0,0,0,0,0,0,0,0,0,-1,1490,1436,0,0
273,-412,0,0,0,0,0,0,0,0,0,-1,1497,1436,0,0
280,-412,0,0,0,0,0,0,0,0,0,-1,1504,1436,0,0
287,-412,0,0,0,0,0,0,0,0,0,-1,1511,1436,0,0
294,-412,0,0,0,0,0,0,0,0,0,-1,1518,1436,0,0
301,-412,0,0,0,0,0,0,0,0,0,-1,1525,1436,0,0
308,-412,0,0,0,0,0,0,0,0,0,-1,1532,1436,0,0
315,-412,0,0,0,0,0,0,0,0,0,-1,1539,1436,0,0
322,-412,0,0,0,0,0,0,0,0,0,-1,1546,1436,0,0
329,-412,0,0,0,0,0,0,0,0,0,-1,1553,1436,0,0
336,-412,0,0,0,0,0,0,0,0,0,-1,1560,1436,0,0
343,-412,0,0,0,0,0,0,0,0,0,-1,1567,1436,0,0
350,-412,0,0,0,0,0,0,0,0,0,-1,1574,1436,0,0
357,-412,0,0,0,0,0,0,0,0,0,-1,1581,1436,0,0
364,-412,0,0,0,0,0,0,0,0,0,-1,1588,1436,0,0
371,-412,0,0,0,0,0,0,0,0,0,-1,1595,1436,0,0
378,-412,0,0,0,0,0,0,0,0,0,-1,1602,1436,0,0
385,-412,0,0,0,0,0,0,0,0,0,-1,1609,1436,0,0
392,-412,0,0,0,0,0,0,0,0,0,-1,1616,1436,0,0
399,-412,0,0,0,0,0,0,0,0,0,-1,1623,1436,0,0
406,-412,0,0,0,0,0,0,0,0,0,-1,1630,1436,0,0
413,-412,0,0,0,0,0,0,0,0,0,-1,1637,1436,0,0
420,-412,0,0,0,0,0,0,0,0,0,-1,1644,1436,0,0
427,-412,0,0,0,0,0,0,0,0,0,-1,1651,1436,0,0
434,-412,0,0,0,0,0,0,0,0,0,-1,1658,1436,0,0
441,-412,0,0,0,0,0,0,0,0,0,-1,1665,1436,0,0
448,-412,0,0,0,0,0,0,0,0,0,-1,1672,1436,0,0
455,-412,0,0,0,0,0,0,0,0,0,-1,1679,1436,0,0
462,-412,0,0,0,0,0,0,0,0,0,-1,1686,1436,0,0
469,-412,0,0,0,0,0,0,0,0,0,-1,1693,1436,0,0
476,-412,0,0,0,0,0,0,0,0,0,-1,1700,1436,0,0
483,-412,0,0,0,0,0,0,0,0,0,-1,1707,1436,0,0
490,-412,0,0,0,0,0,0,0,0,0,-1,1714,1436,0,0
497,-412,0,0,0,0,0,0,0,0,0,-1,1721,1436,0,0
504,-412,0,0,0,0,0,0,0,0,0,-1,1728,1436,0,0
511,-412,0,0,0,0,0,0,0,0,0,-1,1735,1436,0,0
518,-412,30.1038,-2.43384,0,0,0,0,0,0,0,-1,1742,1436,30.1038,2.43383
525,-412,29.5283,-1.42493,0,0,0,0,0,0,0,-1,1749,1436,29.5283,1.42495
532,-412,28.8533,-0.386597,0,0,0,0,0,0,0,-1,1756,1436,28.8533,0.386632
539,-412,25.8654,2.74683,0,0,0,0,0,0,0,-1,1763,1436,25.8654,-2.74685
546,-412,25.4265,2.4342,0,0,0,0,0,0,0,-1,1770,1436,25.4265,-2.4342
553,-412,26.3595,7.49255,0,0,0,0,0,0,0,-1,1777,1436,26.3595,-7.4925
560,-412,24.9116,7.94324,0,0,0,0,0,0,0,-1,1784,1436,24.9116,-7.94327
567,-412,23.668,7.94531,0,0,0,0,0,0,0,-1,1791,1436,23.6679,-7.94534
574,-412,23.0142,9.17236,0,0,0,0,0,0,0,-1,1798,1436,23.0141,-9.17235
581,-412,22.2615,10.0349,0,0,0,0,0,0,0,-1,1805,1436,22.2615,-10.0349
588,-412,21.6893,10.8069,0,0,0,0,0,0,0,-1,1812,1436,21.6893,-10.8069
595,-412,21.5137,14.3157,0,0,0,0,0,0,0,-1,1819,1436,21.5137,-14.3157
602,-412,31.1796,20.7312,0,0,0,0,0,0,0,-1,1826,1436,31.1795,-20.7313
609,-412,31.2415,19.9407,0.00452017,0.00133211,-0.00240886,0.00581466,3.76187e-05,-0.493108,0.00386396,0.0430297,1833,1436,31.2415,-19.9407
616,-412,31.2755,19.283,0.00335343,0.000356631,-0.00150267,0.00397711,-0.000267047,-0.39341,0.00274476,0.0134662,1840,1436,31.2755,-19.2829
623,-412,31.2297,18.6583,0.00254299,-7.48649e-05,-0.000999619,0.00288104,-0.000412913,-0.326104,0.00207209,0.00979928,1847,1436,31.2297,-18.6583
630,-412,31.2228,18.0164,0.00208325,-0.000306707,-0.000693028,0.00226967,-0.000493127,-0.262774,0.00170148,0.0115868,1854,1436,31.2228,-18.0164
637,-412,31.2169,17.3805,0.00185089,-0.000268491,-0.000579246,0.00199887,-0.000416472,-0.250121,0.00149092,0.0138992,1861,1436,31.2169,-17.3805
644,-412,31.1858,16.7628,0.001796,-6.50752e-05,-0.000512867,0.00192797,-0.00019705,-0.251864,0.00135578,0.0158369,1868,1436,31.1858,-16.7628
651,-412,31.1483,16.1366,0.00190769,0.000291833,-0.000526655,0.00206418,0.000135337,-0.28884,0.0013333,0.0273666,1875,1436,31.1483,-16.1366
658,-412,31.1064,15.5286,0.00210132,0.000758072,-0.000545827,0.00229515,0.000564245,-0.341217,0.00138099,0.0188456,1882,1436,31.1064,-15.5286
665,-412,31.1232,14.9225,0.00240513,0.00134328,-0.000524244,0.00262034,0.00112808,-0.389534,0.00151771,0.0234084,1889,1436,31.1232,-14.9225
672,-412,31.1476,14.2885,0.00270534,0.0019895,-0.000348812,0.00284719,0.00184764,-0.386255,0.00166796,0.0305848,1896,1436,31.1476,-14.2885
679,-412,31.2347,13.6416,0.00302598,0.00265447,3.74749e-06,0.00302602,0.00265443,0.0100858,0.0019056,0.0498752,1903,1436,31.2347,-13.6416
686,-412,31.0887,13.2502,0,0,0,0,0,0,0,-1,1910,1436,31.0888,-13.2502
693,-412,11.9346,6.02344,0,0,0,0,0,0,0,-1,1917,1436,11.9346,-6.02343
700,-412,8.82764,5.8844,0,0,0,0,0,0,0,-1,1924,1436,8.82761,-5.88444
707,-412,6.59998,1.68994,0,0,0,0,0,0,0,-1,1931,1436,6.60002,-1.68995
714,-412,4.77283,-2.39832,0,0,0,0,0,0,0,-1,1938,1436,4.77288,2.39835
721,-412,0,0,0,0,0,0,0,0,0,-1,1945,1436,0,0
728,-412,0,0,0,0,0,0,0,0,0,-1,1952,1436,0,0
735,-412,0,0,0,0,0,0,0,0,0,-1,1959,1436,0,0
742,-412,0,0,0,0,0,0,0,0,0,-1,1966,1436,0,0
749,-412,0,0,0,0,0,0,0,0,0,-1,1973,1436,0,0
756,-412,0,0,0,0,0,0,0,0,0,-1,1980,1436,0,0
763,-412,0,0,0,0,0,0,0,0,0,-1,1987,1436,0,0
770,-412,0,0,0,0,0,0,0,0,0,-1,1994,1436,0,0
777,-412,0,0,0,0,0,0,0,0,0,-1,2001,1436,0,0
784,-412,0,0,0,0,0,0,0,0,0,-1,2008,1436,0,0
791,-412,0,0,0,0,0,0,0,0,0,-1,2015,1436,0,0
798,-412,0,0,0,0,0,0,0,0,0,-1,2022,1436,0,0
805,-412,0,0,0,0,0,0,0,0,0,-1,2029,1436,0,0
812,-412,0,0,0,0,0,0,0,0,0,-1,2036,1436,0,0
-700,-419,0,0,0,0,0,0,0,0,0,-1,524,1443,0,0
-693,-419,0,0,0,0,0,0,0,0,0,-1,531,1443,0,0
-686,-419,0,0,0,0,0,0,0,0,0,-1,538,1443,0,0
-679,-419,0,0,0,0,0,0,0,0,0,-1,545,1443,0,0
-672,-419,0,0,0,0,0,0,0,0,0,-1,552,1443,0,0
-665,-419,0,0,0,0,0,0,0,0,0,-1,559,1443,0,0
-658,-419,0,0,0,0,0,0,0,0,0,-1,566,1443,0,0
-651,-419,0,0,0,0,0,0,0,0,0,-1,573,1443,0,0
-644,-419,0,0,0,0,0,0,0,0,0,-1,580,1443,0,0
-637,-419,0,0,0,0,0,0,0,0,0,-1,587,1443,0,0
-630,-419,0,0,0,0,0,0,0,0,0,-1,594,1443,0,0
-623,-419,0,0,0,0,0,0,0,0,0,-1,601,1443,0,0
-616,-419,0,0,0,0,0,0,0,0,0,-1,608,1443,0,0
-609,-419,0,0,0,0,0,0,0,0,0,-1,615,1443,0,0
-602,-419,0,0,0,0,0,0,0,0,0,-1,622,1443,0,0
-595,-419,-11.4904,-0.622681,0,0,0,0,0,0,0,-1,629,1443,-11.4903,0.622714
-588,-419,-9.09369,0.742432,0,0,0,0,0,0,0,-1,636,1443,-9.09366,-0.742482
-581,-419,-6.39172,2.14673,0,0,0,0,0,0,0,-1,643,1443,-6.39175,-2.14668
-574,-419,-4.09772,3.54773,0,0,0,0,0,0,0,-1,650,1443,-4.09772,-3.54767
-567,-419,-6.14038,3.22498,0,0,0,0,0,0,0,-1,657,1443,-6.14037,-3.22497
-560,-419,-4.52814,5.22253,0,0,0,0,0,0,0,-1,664,1443,-4.52816,-5.22251
-553,-419,-5.08331,6.11829,0,0,0,0,0,0,0,-1,671,1443,-5.08331,-6.1183
-546,-419,-10.3732,9.23279,0,0,0,0,0,0,0,-1,678,1443,-10.3732,-9.23275
-539,-419,-13.7448,12.5719,0,0,0,0,0,0,0,-1,685,1443,-13.7447,-12.5719
-532,-419,-13.7949,13.3137,0.00344345,0.00311878,0.00293832,0.00622391,0.00033832,0.757803,0.00404123,0.026391,692,1443,-13.7949,-13.3137
-525,-419,-13.7916,14.0103,0.00275136,0.00234423,0.00233013,0.0048868,0.000208792,0.741827,0.00319055,0.0133209,699,1443,-13.7916,-14.0102
-518,-419,-13.8,14.674,0.00227248,0.00180461,0.0018702,0.00392332,0.000153772,0.723179,0.00256583,0.016835,706,1443,-13.8,-14.674
-511,-419,-13.8319,15.3575,0.00193731,0.00140032,0.00148938,0.0031822,0.000155432,0.69622,0.0020716,0.019358,713,1443,-13.8319,-15.3575
-504,-419,-13.8997,16.0308,0.00182539,0.00119324,0.00127114,0.00281916,0.00019947,0.663543,0.00181661,0.0191467,720,1443,-13.8997,-16.0308
-497,-419,-13.9225,16.6689,0.00190299,0.00115715,0.00117855,0.00276622,0.000293925,0.63217,0.0017544,0.0136465,727,1443,-13.9225,-16.6689
-490,-419,-13.9351,17.3187,0.00224446,0.00133871,0.00129747,0.00316582,0.000417347,0.617487,0.0019861,0.011812,734,1443,-13.9351,-17.3188
-483,-419,-13.9738,17.973,0.00285417,0.00176497,0.00162829,0.00402652,0.000592618,0.624015,0.00251023,0.0101983,741,1443,-13.9738,-17.973
-476,-419,-13.9514,18.6993,0.0037811,0.00240157,0.00221253,0.00540888,0.000773778,0.634295,0.00337767,0.018729,748,1443,-13.9514,-18.6993
-469,-419,-13.9422,19.4591,0,0,0,0,0,0,0,-1,755,1443,-13.9422,-19.4592
-462,-419,-11.5347,18.1563,0,0,0,0,0,0,0,-1,762,1443,-11.5347,-18.1562
-455,-419,-7.35645,11.9451,0,0,0,0,0,0,0,-1,769,1443,-7.35646,-11.9451
-448,-419,-7.49109,9.92444,0,0,0,0,0,0,0,-1,776,1443,-7.49109,-9.92442
-441,-419,-7.65527,8.75574,0,0,0,0,0,0,0,-1,783,1443,-7.65525,-8.75568
-434,-419,-11.3724,12.3643,0,0,0,0,0,0,0,-1,790,1443,-11.3724,-12.3643
-427,-419,-8.23193,7.89404,0,0,0,0,0,0,0,-1,797,1443,-8.23193,-7.89404
-420,-419,-8.74091,6.36597,0,0,0,0,0,0,0,-1,804,1443,-8.74089,-6.366
-413,-419,-9.88391,6.53955,0,0,0,0,0,0,0,-1,811,1443,-9.8839,-6.53955
-406,-419,-10.3372,2.75195,0,0,0,0,0,0,0,-1,818,1443,-10.3372,-2.75201
-399,-419,-11.5999,1.40002,0,0,0,0,0,0,0,-1,825,1443,-11.5999,-1.39998
-392,-419,0,0,0,0,0,0,0,0,0,-1,832,1443,0,0
-385,-419,0,0,0,0,0,0,0,0,0,-1,839,1443,0,0
-378,-419,0,0,0,0,0,0,0,0,0,-1,846,1443,0,0
-371,-419,0,0,0,0,0,0,0,0,0,-1,853,1443,0,0
-364,-419,0,0,0,0,0,0,0,0,0,-1,860,1443,0,0
-357,-419,0,0,0,0,0,0,0,0,0,-1,867,1443,0,0
-350,-419,0,0,0,0,0,0,0,0,0,-1,874,1443,0,0
-343,-419,0,0,0,0,0,0,0,0,0,-1,881,1443,0,0
-336,-419,0,0,0,0,0,0,0,0,0,-1,888,1443,0,0
-329,-419,0,0,0,0,0,0,0,0,0,-1,895,1443,0,0
-322,-419,0,0,0,0,0,0,0,0,0,-1,902,1443,0,0
-315,-419,0,0,0,0,0,0,0,0,0,-1,909,1443,0,0
-308,-419,0,0,0,0,0,0,0,0,0,-1,916,1443,0,0
-301,-419,0,0,0,0,0,0,0,0,0,-1,923,1443,0,0
-294,-419,0,0,0,0,0,0,0,0,0,-1,930,1443,0,0
-287,-419,0,0,0,0,0,0,0,0,0,-1,937,1443,0,0
-280,-419,0,0,0,0,0,0,0,0,0,-1,944,1443,0,0
-273,-419,0,0,0,0,0,0,0,0,0,-1,951,1443,0,0
-266,-419,0,0,0,0,0,0,0,0,0,-1,958,1443,0,0
-259,-419,0,0,0,0,0,0,0,0,0,-1,965,1443,0,0
-252,-419,0,0,0,0,0,0,0,0,0,-1,972,1443,0,0
-245,-419,0,0,0,0,0,0,0,0,0,-1,979,1443,0,0
-238,-419,0,0,0,0,0,0,0,0,0,-1,986,1443,0,0
-231,-419,0,0,0,0,0,0,0,0,0,-1,993,1443,0,0
-224,-419,0,0,0,0,0,0,0,0,0,-1,1000,1443,0,0
-217,-419,0,0,0,0,0,0,0,0,0,-1,1007,1443,0,0
-210,-419,0,0,0,0,0,0,0,0,0,-1,1014,1443,0,0
-203,-419,0,0,0,0,0,0,0,0,0,-1,1021,1443,0,0
-196,-419,0,0,0,0,0,0,0,0,0,-1,1028,1443,0,0
-189,-419,0,0,0,0,0,0,0,0,0,-1,1035,1443,0,0
-182,-419,0,0,0,0,0,0,0,0,0,-1,1042,1443,0,0
-175,-419,0,0,0,0,0,0,0,0,0,-1,1049,1443,0,0
-168,-419,0,0,0,0,0,0,0,0,0,-1,1056,1443,0,0
-161,-419,0,0,0,0,0,0,0,0,0,-1,1063,1443,0,0
-154,-419,0,0,0,0,0,0,0,0,0,-1,1070,1443,0,0
-147,-419,0,0,0,0,0,0,0,0,0,-1,1077,1443,0,0
-140,-419,0,0,0,0,0,0,0,0,0,-1,1084,1443,0,0
-133,-419,0,0,0,0,0,0,0,0,0,-1,1091,1443,0,0
-126,-419,0,0,0,0,0,0,0,0,0,-1,1098,1443,0,0
-119,-419,0,0,0,0,0,0,0,0,0,-1,1105,1443,0,0
-112,-419,0,0,0,0,0,0,0,0,0,-1,1112,1443,0,0
-105,-419,0,0,0,0,0,0,0,0,0,-1,1119,1443,0,0
-98,-419,0,0,0,0,0,0,0,0,0,-1,1126,1443,0,0
-91,-419,0,0,0,0,0,0,0,0,0,-1,1133,1443,0,0
-84,-419,0,0,0,0,0,0,0,0,0,-1,1140,1443,0,0
-77,-419,0,0,0,0,0,0,0,0,0,-1,1147,1443,0,0
-70,-419,0,0,0,0,0,0,0,0,0,-1,1154,1443,0,0
-63,-419,0,0,0,0,0,0,0,0,0,-1,1161,1443,0,0
-56,-419,0,0,0,0,0,0,0,0,0,-1,1168,1443,0,0
-49,-419,0,0,0,0,0,0,0,0,0,-1,1175,1443,0,0
-42,-419,0,0,0,0,0,0,0,0,0,-1,1182,1443,0,0
-35,-419,0,0,0,0,0,0,0,0,0,-1,1189,1443,0,0
-28,-419,0,0,0,0,0,0,0,0,0,-1,1196,1443,0,0
-21,-419,0,0,0,0,0,0,0,0,0,-1,1203,1443,0,0
-14,-419,0,0,0,0,0,0,0,0,0,-1,1210,1443,0,0
-7,-419,0,0,0,0,0,0,0,0,0,-1,1217,1443,0,0
0,-419,0,0,0,0,0,0,0,0,0,-1,1224,1443,0,0
7,-419,0,0,0,0,0,0,0,0,0,-1,1231,1443,0,0
14,-419,0,0,0,0,0,0,0,0,0,-1,1238,1443,0,0
21,-419,0,0,0,0,0,0,0,0,0,-1,1245,1443,0,0
28,-419,0,0,0,0,0,0,0,0,0,-1,1252,1443,0,0
35,-419,0,0,0,0,0,0,0,0,0,-1,1259,1443,0,0
42,-419,0,0,0,0,0,0,0,0,0,-1,1266,1443,0,0
49,-419,0,0,0,0,0,0,0,0,0,-1,1273,1443,0,0
56,-419,0,0,0,0,0,0,0,0,0,-1,1280,1443,0,0
63,-419,0,0,0,0,0,0,0,0,0,-1,1287,1443,0,0
70,-419,0,0,0,0,0,0,0,0,0,-1,1294,1443,0,0
77,-419,0,0,0,0,0,0,0,0,0,-1,1301,1443,0,0
84,-419,0,0,0,0,0,0,0,0,0,-1,1308,1443,0,0
91,-419,0,0,0,0,0,0,0,0,0,-1,1315,1443,0,0
98,-419,0,0,0,0,0,0,0,0,0,-1,1322,1443,0,0
105,-419,0,0,0,0,0,0,0,0,0,-1,1329,1443,0,0
112,-419,0,0,0,0,0,0,0,0,0,-1,1336,1443,0,0
119,-419,0,0,0,0,0,0,0,0,0,-1,1343,1443,0,0
126,-419,0,0,0,0,0,0,0,0,0,-1,1350,1443,0,0
133,-419,0,0,0,0,0,0,0,0,0,-1,1357,1443,0,0
140,-419,0,0,0,0,0,0,0,0,0,-1,1364,1443,0,0
147,-419,0,0,0,0,0,0,0,0,0,-1,1371,1443,0,0
154,-419,0,0,0,0,0,0,0,0,0,-1,1378,1443,0,0
161,-419,0,0,0,0,0,0,0,0,0,-1,1385,1443,0,0
168,-419,0,0,0,0,0,0,0,0,0,-1,1392,1443,0,0
175,-419,0,0,0,0,0,0,0,0,0,-1,1399,1443,0,0
182,-419,0,0,0,0,0,0,0,0,0,-1,1406,1443,0,0
189,-419,0,0,0,0,0,0,0,0,0,-1,1413,1443,0,0
196,-419,0,0,0,0,0,0,0,0,0,-1,1420,1443,0,0
203,-419,0,0,0,0,0,0,0,0,0,-1,1427,1443,0,0
210,-419,0,0,0,0,0,0,0,0,0,-1,1434,1443,0,0
217,-419,0,0,0,0,0,0,0,0,0,-1,1441,1443,0,0
224,-419,0,0,0,0,0,0,0,0,0,-1,1448,1443,0,0
231,-419,0,0,0,0,0,0,0,0,0,-1,1455,1443,0,0
238,-419,0,0,0,0,0,0,0,0,0,-1,1462,1443,0,0
245,-419,0,0,0,0,0,0,0,0,0,-1,1469,1443,0,0
252,-419,0,0,0,0,0,0,0,0,0,-1,1476,1443,0,0
259,-419,0,0,0,0,0,0,0,0,0,-1,1483,1443,0,0
266,-419,0,0,0,0,0,0,0,0,0,-1,1490,1443,0,0
273,-419,0,0,0,0,0,0,0,0,0,-1,1497,1443,0,0
280,-419,0,0,0,0,0,0,0,0,0,-1,1504,1443,0,0
287,-419,0,0,0,0,0,0,0,0,0,-1,1511,1443,0,0
294,-419,0,0,0,0,0,0,0,0,0,-1,1518,1443,0,0
301,-419,0,0,0,0,0,0,0,0,0,-1,1525,1443,0,0
308,-419,0,0,0,0,0,0,0,0,0,-1,1532,1443,0,0
315,-419,0,0,0,0,0,0,0,0,0,-1,1539,1443,0,0
322,-419,0,0,0,0,0,0,0,0,0,-1,1546,1443,0,0
329,-419,0,0,0,0,0,0,0,0,0,-1,1553,1443,0,0
336,-419,0,0,0,0,0,0,0,0,0,-1,1560,1443,0,0
343,-419,0,0,0,0,0,0,0,0,0,-1,1567,1443,0,0
350,-419,0,0,0,0,0,0,0,0,0,-1,1574,1443,0,0
357,-419,0,0,0,0,0,0,0,0,0,-1,1581,1443,0,0
364,-419,0,0,0,0,0,0,0,0,0,-1,1588,1443,0,0
371,-419,0,0,0,0,0,0,0,0,0,-1,1595,1443,0,0
378,-419,0,0,0,0,0,0,0,0,0,-1,1602,1443,0,0
385,-419,0,0,0,0,0,0,0,0,0,-1,1609,1443,0,0
392,-419,0,0,0,0,0,0,0,0,0,-1,1616,1443,0,0
399,-419,0,0,0,0,0,0,0,0,0,-1,1623,1443,0,0
406,-419,0,0,0,0,0,0,0,0,0,-1,1630,1443,0,0
413,-419,0,0,0,0,0,0,0,0,0,-1,1637,1443,0,0
420,-419,0,0,0,0,0,0,0,0,0,-1,1644,1443,0,0
427,-419,0,0,0,0,0,0,0,0,0,-1,1651,1443,0,0
434,-419,0,0,0,0,0,0,0,0,0,-1,1658,1443,0,0
441,-419,0,0,0,0,0,0,0,0,0,-1,1665,1443,0,0
448,-419,0,0,0,0,0,0,0,0,0,-1,1672,1443,0,0
455,-419,0,0,0,0,0,0,0,0,0,-1,1679,1443,0,0
462,-419,0,0,0,0,0,0,0,0,0,-1,1686,1443,0,0
469,-419,0,0,0,0,0,0,0,0,0,-1,1693,1443,0,0
476,-419,0,0,0,0,0,0,0,0,0,-1,1700,1443,0,0
483,-419,0,0,0,0,0,0,0,0,0,-1,1707,1443,0,0
490,-419,0,0,0,0,0,0,0,0,0,-1,1714,1443,0,0
497,-419,0,0,0,0,0,0,0,0,0,-1,1721,1443,0,0
504,-419,0,0,0,0,0,0,0,0,0,-1,1728,1443,0,0
511,-419,20.3005,3.7959,0,0,0,0,0,0,0,-1,1735,1443,20.3005,-3.79584
518,-419,21.3154,2.03027,0,0,0,0,0,0,0,-1,1742,1443,21.3155,-2.03029
525,-419,28.3439,-1.24475,0,0,0,0,0,0,0,-1,1749,1443,28.3438,1.24471
532,-419,27.5902,-0.272583,0,0,0,0,0,0,0,-1,1756,1443,27.5902,0.272526
539,-419,26.5278,1.60583,0,0,0,0,0,0,0,-1,1763,1443,26.5279,-1.60579
546,-419,24.9509,2.77539,0,0,0,0,0,0,0,-1,1770,1443,24.9509,-2.77537
553,-419,24.118,3.75525,0,0,0,0,0,0,0,-1,1777,1443,24.1181,-3.75526
560,-419,11.8199,8.26343,0,0,0,0,0,0,0,-1,1784,1443,11.82,-8.26341
567,-419,21.5143,8.74719,0,0,0,0,0,0,0,-1,1791,1443,21.5143,-8.74722
574,-419,19.5886,6.46155,0,0,0,0,0,0,0,-1,1798,1443,19.5886,-6.46157
581,-419,20.7926,11.4265,0,0,0,0,0,0,0,-1,1805,1443,20.7926,-11.4265
588,-419,19.4242,12.5363,0,0,0,0,0,0,0,-1,1812,1443,19.4242,-12.5362
595,-419,22.9375,16.0151,0,0,0,0,0,0,0,-1,1819,1443,22.9375,-16.0152
602,-419,30.6909,20.6152,0,0,0,0,0,0,0,-1,1826,1443,30.6909,-20.6153
609,-419,30.667,19.9259,0.00396121,0.00115275,-0.00226336,0.00522056,-0.000106608,-0.50775,0.00351645,0.0234503,1833,1443,30.667,-19.9259
616,-419,30.6371,19.3177,0.00308975,0.000448537,-0.00154417,0.00380101,-0.000262717,-0.431639,0.00262596,0.0122532,1840,1443,30.6371,-19.3177
623,-419,30.6267,18.6935,0.0024897,8.89084e-05,-0.00108656,0.00290843,-0.000329817,-0.367831,0.00205772,0.0102729,1847,1443,30.6268,-18.6934
630,-419,30.6241,18.0557,0.00217089,-0.000149495,-0.000799627,0.00241975,-0.000398363,-0.301727,0.00176104,0.0121145,1854,1443,30.6241,-18.0557
637,-419,30.5923,17.4396,0.00201881,-0.000131744,-0.000678002,0.00221472,-0.00032765,-0.281285,0.00159694,0.0134031,1861,1443,30.5923,-17.4396
644,-419,30.5538,16.8345,0.00204382,0.000105763,-0.000622895,0.00222675,-7.717e-05,-0.28565,0.00151088,0.0123738,1868,1443,30.5538,-16.8345
651,-419,30.5178,16.2229,0.00222121,0.000502591,-0.000685008,0.00246083,0.00026297,-0.336503,0.0015603,0.0124494,1875,1443,30.5178,-16.2229
658,-419,30.4847,15.5741,0.00251003,0.00105337,-0.000789381,0.00285575,0.000707646,-0.4128,0.00171726,0.0144131,1882,1443,30.4848,-15.5741
665,-419,30.4943,14.9406,0.00289869,0.00178469,-0.000861624,0.00336768,0.0013157,-0.498458,0.00195976,0.021813,1889,1443,30.4942,-14.9405
672,-419,30.5145,14.2404,0.00321873,0.00259704,-0.000762218,0.00373105,0.00208472,-0.591784,0.00215908,0.0363486,1896,1443,30.5146,-14.2403
679,-419,30.5135,13.473,0,0,0,0,0,0,0,-1,1903,1443,30.5135,-13.473
686,-419,17.4127,8.03076,0,0,0,0,0,0,0,-1,1910,1443,17.4127,-8.03071
693,-419,8.76086,5.60535,0,0,0,0,0,0,0,-1,1917,1443,8.76091,-5.6054
700,-419,11.0498,4.85156,0,0,0,0,0,0,0,-1,1924,1443,11.0498,-4.85153
707,-419,9.5752,1.80042,0,0,0,0,0,0,0,-1,1931,1443,9.57523,-1.80037
714,-419,5.77576,-1.25061,0,0,0,0,0,0,0,-1,1938,1443,5.7757,1.25056
721,-419,0,0,0,0,0,0,0,0,0,-1,1945,1443,0,0
728,-419,0,0,0,0,0,0,0,0,0,-1,1952,1443,0,0
735,-419,0,0,0,0,0,0,0,0,0,-1,1959,1443,0,0
742,-419,0,0,0,0,0,0,0,0,0,-1,1966,1443,0,0
749,-419,0,0,0,0,0,0,0,0,0,-1,1973,1443,0,0
756,-419,0,0,0,0,0,0,0,0,0,-1,1980,1443,0,0
763,-419,0,0,0,0,0,0,0,0,0,-1,1987,1443,0,0
770,-419,0,0,0,0,0,0,0,0,0,-1,1994,1443,0,0
777,-419,0,0,0,0,0,0,0,0,0,-1,2001,1443,0,0
784,-419,0,0,0,0,0,0,0,0,0,-1,2008,1443,0,0
791,-419,0,0,0,0,0,0,0,0,0,-1,2015,1443,0,0
798,-419,0,0,0,0,0,0,0,0,0,-1,2022,1443,0,0
805,-419,0,0,0,0,0,0,0,0,0,-1,2029,1443,0,0
812,-419,0,0,0,0,0,0,0,0,0,-1,2036,1443,0,0
-700,-426,0,0,0,0,0,0,0,0,0,-1,524,1450,0,0
-693,-426,0,0,0,0,0,0,0,0,0,-1,531,1450,0,0
-686,-426,0,0,0,0,0,0,0,0,0,-1,538,1450,0,0
-679,-426,0,0,0,0,0,0,0,0,0,-1,545,1450,0,0
-672,-426,0,0,0,0,0,0,0,0,0,-1,552,1450,0,0
-665,-426,0,0,0,0,0,0,0,0,0,-1,559,1450,0,0
-658,-426,0,0,0,0,0,0,0,0,0,-1,566,1450,0,0
-651,-426,0,0,0,0,0,0,0,0,0,-1,573,1450,0,0
-644,-426,0,0,0,0,0,0,0,0,0,-1,580,1450,0,0
-637,-426,0,0,0,0,0,0,0,0,0,-1,587,1450,0,0
-630,-426,0,0,0,0,0,0,0,0,0,-1,594,1450,0,0
-623,-426,0,0,0,0,0,0,0,0,0,-1,601,1450,0,0
-616,-426,0,0,0,0,0,0,0,0,0,-1,608,1450,0,0
-609,-426,0,0,0,0,0,0,0,0,0,-1,615,1450,0,0
-602,-426,0,0,0,0,0,0,0,0,0,-1,622,1450,0,0
-595,-426,0,0,0,0,0,0,0,0,0,-1,629,1450,0,0
-588,-426,-10.184,-0.554321,0,0,0,0,0,0,0,-1,636,1450,-10.184,0.554321
-581,-426,-7.3349,1.48157,0,0,0,0,0,0,0,-1,643,1450,-7.33491,-1.48152
-574,-426,-5.02856,2.89319,0,0,0,0,0,0,0,-1,650,1450,-5.02858,-2.89319
-567,-426,-3.04797,1.72644,0,0,0,0,0,0,0,-1,657,1450,-3.04797,-1.72639
-560,-426,-5.55682,3.44397,0,0,0,0,0,0,0,-1,664,1450,-5.55684,-3.44399
-553,-426,-4.67017,6.66614,0,0,0,0,0,0,0,-1,671,1450,-4.67015,-6.66619
-546,-426,-7.58752,8.28882,0,0,0,0,0,0,0,-1,678,1450,-7.58752,-8.28878
-539,-426,-10.436,10.7441,0,0,0,0,0,0,0,-1,685,1450,-10.436,-10.7441
-532,-426,-13.1555,13.2783,0,0,0,0,0,0,0,-1,692,1450,-13.1555,-13.2783
-525,-426,-13.1506,13.9735,0.00300111,0.00279735,0.00284732,0.00574838,5.00823e-05,0.767515,0.00381567,0.0213053,699,1450,-13.1505,-13.9736
-518,-426,-13.1393,14.7167,0.00247946,0.00212129,0.00228507,0.00459245,8.29622e-06,0.746292,0.00305887,0.0168706,706,1450,-13.1394,-14.7167
-511,-426,-13.1735,15.4015,0.0020617,0.00161322,0.00180526,0.0036566,1.83212e-05,0.723608,0.00243165,0.0160579,713,1450,-13.1735,-15.4015
-504,-426,-13.22,16.063,0.0018361,0.00130166,0.0014597,0.00305284,8.49187e-05,0.694868,0.00200752,0.0159941,720,1450,-13.22,-16.063
-497,-426,-13.2375,16.7111,0.00181067,0.00119416,0.00126348,0.00280295,0.000201876,0.665748,0.00180511,0.0128109,727,1450,-13.2375,-16.7111
-490,-426,-13.2774,17.3539,0.00202276,0.00130094,0.00127915,0.00299094,0.000332754,0.647898,0.00189282,0.0124804,734,1450,-13.2774,-17.3539
-483,-426,-13.3237,18.0081,0.00250491,0.00164511,0.00150043,0.00363581,0.000514206,0.645876,0.00227195,0.012496,741,1450,-13.3237,-18.008
-476,-426,-13.3472,18.6565,0.00328708,0.00223212,0.00199094,0.00481923,0.00069997,0.655903,0.00300678,0.00969796,748,1450,-13.3472,-18.6566
-469,-426,-13.3654,19.3185,0.00443976,0.00311032,0.00277101,0.00662466,0.000925422,0.667681,0.00414256,0.0123776,755,1450,-13.3654,-19.3184
-462,-426,-13.2862,20.0372,0,0,0,0,0,0,0,-1,762,1450,-13.2862,-20.0373
-455,-426,-10.215,17.7007,0,0,0,0,0,0,0,-1,769,1450,-10.215,-17.7007
-448,-426,-6.46545,10.1322,0,0,0,0,0,0,0,-1,776,1450,-6.46543,-10.1322
-441,-426,-10.9547,11.4747,0,0,0,0,0,0,0,-1,783,1450,-10.9546,-11.4748
-434,-426,-10.4998,13.6189,0,0,0,0,0,0,0,-1,790,1450,-10.4997,-13.6189
-427,-426,-9.36627,13.7396,0,0,0,0,0,0,0,-1,797,1450,-9.36628,-13.7396
-420,-426,-5.33765,7.95044,0,0,0,0,0,0,0,-1,804,1450,-5.33766,-7.95041
-413,-426,-10.1148,5.0415,0,0,0,0,0,0,0,-1,811,1450,-10.1148,-5.04152
-406,-426,-11.4199,3.6438,0,0,0,0,0,0,0,-1,818,1450,-11.4198,-3.64382
-399,-426,-12.7595,2.29004,0,0,0,0,0,0,0,-1,825,1450,-12.7595,-2.29003
-392,-426,-12.4147,0.537354,0,0,0,0,0,0,0,-1,832,1450,-12.4147,-0.53731
-385,-426,0,0,0,0,0,0,0,0,0,-1,839,1450,0,0
-378,-426,0,0,0,0,0,0,0,0,0,-1,846,1450,0,0
-371,-426,0,0,0,0,0,0,0,0,0,-1,853,1450,0,0
-364,-426,0,0,0,0,0,0,0,0,0,-1,860,1450,0,0
-357,-426,0,0,0,0,0,0,0,0,0,-1,867,1450,0,0
-350,-426,0,0,0,0,0,0,0,0,0,-1,874,1450,0,0
-343,-426,0,0,0,0,0,0,0,0,0,-1,881,1450,0,0
-336,-426,0,0,0,0,0,0,0,0,0,-1,888,1450,0,0
-329,-426,0,0,0,0,0,0,0,0,0,-1,895,1450,0,0
-322,-426,0,0,0,0,0,0,0,0,0,-1,902,1450,0,0
-315,-426,0,0,0,0,0,0,0,0,0,-1,909,1450,0,0
-308,-426,0,0,0,0,0,0,0,0,0,-1,916,1450,0,0
-301,-426,0,0,0,0,0,0,0,0,0,-1,923,1450,0,0
-294,-426,0,0,0,0,0,0,0,0,0,-1,930,1450,0,0
-287,-426,0,0,0,0,0,0,0,0,0,-1,937,1450,0,0
-280,-426,0,0,0,0,0,0,0,0,0,-1,944,1450,0,0
-273,-426,0,0,0,0,0,0,0,0,0,-1,951,1450,0,0
-266,-426,0,0,0,0,0,0,0,0,0,-1,958,1450,0,0
-259,-426,0,0,0,0,0,0,0,0,0,-1,965,1450,0,0
-252,-426,0,0,0,0,0,0,0,0,0,-1,972,1450,0,0
-245,-426,0,0,0,0,0,0,0,0,0,-1,979,1450,0,0
-238,-426,0,0,0,0,0,0,0,0,0,-1,986,1450,0,0
-231,-426,0,0,0,0,0,0,0,0,0,-1,993,1450,0,0
-224,-426,0,0,0,0,0,0,0,0,0,-1,1000,1450,0,0
-217,-426,0,0,0,0,0,0,0,0,0,-1,1007,1450,0,0
-210,-426,0,0,0,0,0,0,0,0,0,-1,1014,1450,0,0
-203,-426,0,0,0,0,0,0,0,0,0,-1,1021,1450,0,0
-196,-426,0,0,0,0,0,0,0,0,0,-1,1028,1450,0,0
-189,-426,0,0,0,0,0,0,0,0,0,-1,1035,1450,0,0
-182,-426,0,0,0,0,0,0,0,0,0,-1,1042,1450,0,0
-175,-426,0,0,0,0,0,0,0,0,0,-1,1049,1450,0,0
-168,-426,0,0,0,0,0,0,0,0,0,-1,1056,1450,0,0
-161,-426,0,0,0,0,0,0,0,0,0,-1,1063,1450,0,0
-154,-426,0,0,0,0,0,0,0,0,0,-1,1070,1450,0,0
-147,-426,0,0,0,0,0,0,0,0,0,-1,1077,1450,0,0
-140,-426,0,0,0,0,0,0,0,0,0,-1,1084,1450,0,0
-133,-426,0,0,0,0,0,0,0,0,0,-1,1091,1450,0,0
-126,-426,0,0,0,0,0,0,0,0,0,-1,1098,1450,0,0
-119,-426,0,0,0,0,0,0,0,0,0,-1,1105,1450,0,0
-112,-426,0,0,0,0,0,0,0,0,0,-1,1112,1450,0,0
-105,-426,0,0,0,0,0,0,0,0,0,-1,1119,1450,0,0
-98,-426,0,0,0,0,0,0,0,0,0,-1,1126,1450,0,0
-91,-426,0,0,0,0,0,0,0,0,0,-1,1133,1450,0,0
-84,-426,0,0,0,0,0,0,0,0,0,-1,1140,1450,0,0
-77,-426,0,0,0,0,0,0,0,0,0,-1,1147,1450,0,0
-70,-426,0,0,0,0,0,0,0,0,0,-1,1154,1450,0,0
-63,-426,0,0,0,0,0,0,0,0,0,-1,1161,1450,0,0
-56,-426,0,0,0,0,0,0,0,0,0,-1,1168,1450,0,0
-49,-426,0,0,0,0,0,0,0,0,0,-1,1175,1450,0,0
-42,-426,0,0,0,0,0,0,0,0,0,-1,1182,1450,0,0
-35,-426,0,0,0,0,0,0,0,0,0,-1,1189,1450,0,0
-28,-426,0,0,0,0,0,0,0,0,0,-1,1196,1450,0,0
-21,-426,0,0,0,0,0,0,0,0,0,-1,1203,1450,0,0
-14,-426,0,0,0,0,0,0,0,0,0,-1,1210,1450,0,0
-7,-426,0,0,0,0,0,0,0,0,0,-1,1217,1450,0,0
0,-426,0,0,0,0,0,0,0,0,0,-1,1224,1450,0,0
7,-426,0,0,0,0,0,0,0,0,0,-1,1231,1450,0,0
14,-426,0,0,0,0,0,0,0,0,0,-1,1238,1450,0,0
21,-426,0,0,0,0,0,0,0,0,0,-1,1245,1450,0,0
28,-426,0,0,0,0,0,0,0,0,0,-1,1252,1450,0,0
35,-426,0,0,0,0,0,0,0,0,0,-1,1259,1450,0,0
42,-426,0,0,0,0,0,0,0,0,0,-1,1266,1450,0,0
49,-426,0,0,0,0,0,0,0,0,0,-1,1273,1450,0,0
56,-426,0,0,0,0,0,0,0,0,0,-1,1280,1450,0,0
63,-426,0,0,0,0,0,0,0,0,0,-1,1287,1450,0,0
70,-426,0,0,0,0,0,0,0,0,0,-1,1294,1450,0,0
77,-426,0,0,0,0,0,0,0,0,0,-1,1301,1450,0,0
84,-426,0,0,0,0,0,0,0,0,0,-1,1308,1450,0,0
91,-426,0,0,0,0,0,0,0,0,0,-1,1315,1450,0,0
98,-426,0,0,0,0,0,0,0,0,0,-1,1322,1450,0,0
105,-426,0,0,0,0,0,0,0,0,0,-1,1329,1450,0,0
112,-426,0,0,0,0,0,0,0,0,0,-1,1336,1450,0,0
119,-426,0,0,0,0,0,0,0,0,0,-1,1343,1450,0,0
126,-426,0,0,0,0,0,0,0,0,0,-1,1350,1450,0,0
133,-426,0,0,0,0,0,0,0,0,0,-1,1357,1450,0,0
140,-426,0,0,0,0,0,0,0,0,0,-1,1364,1450,0,0
147,-426,0,0,0,0,0,0,0,0,0,-1,1371,1450,0,0
154,-426,0,0,0,0,0,0,0,0,0,-1,1378,1450,0,0
161,-426,0,0,0,0,0,0,0,0,0,-1,1385,1450,0,0
168,-426,0,0,0,0,0,0,0,0,0,-1,1392,1450,0,0
175,-426,0,0,0,0,0,0,0,0,0,-1,1399,1450,0,0
182,-426,0,0,0,0,0,0,0,0,0,-1,1406,1450,0,0
189,-426,0,0,0,0,0,0,0,0,0,-1,1413,1450,0,0
196,-426,0,0,0,0,0,0,0,0,0,-1,1420,1450,0,0
203,-426,0,0,0,0,0,0,0,0,0,-1,1427,1450,0,0
210,-426,0,0,0,0,0,0,0,0,0,-1,1434,1450,0,0
217,-426,0,0,0,0,0,0,0,0,0,-1,1441,1450,0,0
224,-426,0,0,0,0,0,0,0,0,0,-1,1448,1450,0,0
231,-426,0,0,0,0,0,0,0,0,0,-1,1455,1450,0,0
238,-426,0,0,0,0,0,0,0,0,0,-1,1462,1450,0,0
245,-426,0,0,0,0,0,0,0,0,0,-1,1469,1450,0,0
252,-426,0,0,0,0,0,0,0,0,0,-1,1476,1450,0,0
259,-426,0,0,0,0,0,0,0,0,0,-1,1483,1450,0,0
266,-426,0,0,0,0,0,0,0,0,0,-1,1490,1450,0,0
273,-426,0,0,0,0,0,0,0,0,0,-1,1497,1450,0,0
280,-426,0,0,0,0,0,0,0,0,0,-1,1504,1450,0,0
287,-426,0,0,0,0,0,0,0,0,0,-1,1511,1450,0,0
294,-426,0,0,0,0,0,0,0,0,0,-1,1518,1450,0,0
301,-426,0,0,0,0,0,0,0,0,0,-1,1525,1450,0,0
308,-426,0,0,0,0,0,0,0,0,0,-1,1532,1450,0,0
315,-426,0,0,0,0,0,0,0,0,0,-1,1539,1450,0,0
322,-426,0,0,0,0,0,0,0,0,0,-1,1546,1450,0,0
329,-426,0,0,0,0,0,0,0,0,0,-1,1553,1450,0,0
336,-426,0,0,0,0,0,0,0,0,0,-1,1560,1450,0,0
343,-426,0,0,0,0,0,0,0,0,0,-1,1567,1450,0,0
350,-426,0,0,0,0,0,0,0,0,0,-1,1574,1450,0,0
357,-426,0,0,0,0,0,0,0,0,0,-1,1581,1450,0,0
364,-426,0,0,0,0,0,0,0,0,0,-1,1588,1450,0,0
371,-426,0,0,0,0,0,0,0,0,0,-1,1595,1450,0,0
378,-426,0,0,0,0,0,0,0,0,0,-1,1602,1450,0,0
385,-426,0,0,0,0,0,0,0,0,0,-1,1609,1450,0,0
392,-426,0,0,0,0,0,0,0,0,0,-1,1616,1450,0,0
399,-426,0,0,0,0,0,0,0,0,0,-1,1623,1450,0,0
406,-426,0,0,0,0,0,0,0,0,0,-1,1630,1450,0,0
413,-426,0,0,0,0,0,0,0,0,0,-1,1637,1450,0,0
420,-426,0,0,0,0,0,0,0,0,0,-1,1644,1450,0,0
427,-426,0,0,0,0,0,0,0,0,0,-1,1651,1450,0,0
434,-426,0,0,0,0,0,0,0,0,0,-1,1658,1450,0,0
441,-426,0,0,0,0,0,0,0,0,0,-1,1665,1450,0,0
448,-426,0,0,0,0,0,0,0,0,0,-1,1672,1450,0,0
455,-426,0,0,0,0,0,0,0,0,0,-1,1679,1450,0,0
462,-426,0,0,0,0,0,0,0,0,0,-1,1686,1450,0,0
469,-426,0,0,0,0,0,0,0,0,0,-1,1693,1450,0,0
476,-426,0,0,0,0,0,0,0,0,0,-1,1700,1450,0,0
483,-426,0,0,0,0,0,0,0,0,0,-1,1707,1450,0,0
490,-426,0,0,0,0,0,0,0,0,0,-1,1714,1450,0,0
497,-426,0,0,0,0,0,0,0,0,0,-1,1721,1450,0,0
504,-426,20.6873,3.38367,0,0,0,0,0,0,0,-1,1728,1450,20.6873,-3.38361
511,-426,19.6676,3.53748,0,0,0,0,0,0,0,-1,1735,1450,19.6676,-3.53749
518,-426,18.6853,3.32288,0,0,0,0,0,0,0,-1,1742,1450,18.6853,-3.3229
525,-426,18.9552,2.71033,0,0,0,0,0,0,0,-1,1749,1450,18.9552,-2.71034
532,-426,19.4333,2.70764,0,0,0,0,0,0,0,-1,1756,1450,19.4334,-2.70764
539,-426,25.1482,2.56287,0,0,0,0,0,0,0,-1,1763,1450,25.1482,-2.56286
546,-426,24.1136,3.75659,0,0,0,0,0,0,0,-1,1770,1450,24.1136,-3.7566
553,-426,23.0791,4.95032,0,0,0,0,0,0,0,-1,1777,1450,23.0791,-4.95034
560,-426,12.9688,11.8289,0,0,0,0,0,0,0,-1,1784,1450,12.9688,-11.8288
567,-426,13.6388,11.5623,0,0,0,0,0,0,0,-1,1791,1450,13.6388,-11.5623
574,-426,14.3943,11.0286,0,0,0,0,0,0,0,-1,1798,1450,14.3942,-11.0285
581,-426,16.3879,11.4653,0,0,0,0,0,0,0,-1,1805,1450,16.3879,-11.4653
588,-426,18.1212,12.5547,0,0,0,0,0,0,0,-1,1812,1450,18.1212,-12.5547
595,-426,29.7551,21.2534,0,0,0,0,0,0,0,-1,1819,1450,29.7551,-21.2534
602,-426,29.9476,20.6082,0.00457804,0.00191479,-0.00296465,0.0064964,-3.56371e-06,-0.574317,0.00433212,0.049723,1826,1450,29.9476,-20.6082
609,-426,30.0437,19.9392,0.00373263,0.00116563,-0.00216799,0.00496857,-7.031e-05,-0.518132,0.00333606,0.013729,1833,1450,30.0438,-19.9392
616,-426,30.0331,19.3129,0.0029877,0.000582951,-0.00155488,0.00375086,-0.000180214,-0.456277,0.00256276,0.0141071,1840,1450,30.0331,-19.3128
623,-426,30.0308,18.7042,0.00252671,0.000234454,-0.00114238,0.00299881,-0.000237641,-0.39188,0.00208294,0.0122548,1847,1450,30.0307,-18.7043
630,-426,30.022,18.0891,0.0023191,-2.97899e-05,-0.000888221,0.00261716,-0.000327845,-0.323757,0.00186369,0.0129525,1854,1450,30.022,-18.0892
637,-426,29.9742,17.4657,0.00223169,-4.9047e-05,-0.000777735,0.00247166,-0.000289009,-0.299272,0.00175207,0.0132813,1861,1450,29.9742,-17.4657
644,-426,29.9241,16.8481,0.00231533,0.000198337,-0.000744239,0.00255079,-3.71165e-05,-0.306405,0.00171303,0.013714,1868,1450,29.9241,-16.8482
651,-426,29.8823,16.2444,0.00254393,0.000623409,-0.000858896,0.002872,0.000295336,-0.364868,0.00182421,0.0134329,1875,1450,29.8823,-16.2444
658,-426,29.8669,15.5746,0.00293374,0.00125361,-0.00105102,0.00343917,0.000748185,-0.448246,0.00208855,0.013148,1882,1450,29.8669,-15.5746
665,-426,29.8999,14.8092,0.00342103,0.00214247,-0.00121219,0.00415219,0.00141132,-0.542745,0.00243789,0.030473,1889,1450,29.8998,-14.8092
672,-426,30.0015,14.0382,0,0,0,0,0,0,0,-1,1896,1450,30.0014,-14.0382
679,-426,17.1522,8.15784,0,0,0,0,0,0,0,-1,1903,1450,17.1522,-8.15784
686,-426,13.5326,8.03711,0,0,0,0,0,0,0,-1,1910,1450,13.5326,-8.03717
693,-426,11.8607,6.45215,0,0,0,0,0,0,0,-1,1917,1450,11.8607,-6.45215
700,-426,9.24304,2.95447,0,0,0,0,0,0,0,-1,1924,1450,9.24305,-2.95442
707,-426,8.44519,-1.21448,0,0,0,0,0,0,0,-1,1931,1450,8.44514,1.21454
714,-426,0,0,0,0,0,0,0,0,0,-1,1938,1450,0,0
721,-426,0,0,0,0,0,0,0,0,0,-1,1945,1450,0,0
728,-426,0,0,0,0,0,0,0,0,0,-1,1952,1450,0,0
735,-426,0,0,0,0,0,0,0,0,0,-1,1959,1450,0,0
742,-426,0,0,0,0,0,0,0,0,0,-1,1966,1450,0,0
749,-426,0,0,0,0,0,0,0,0,0,-1,1973,1450,0,0
756,-426,0,0,0,0,0,0,0,0,0,-1,1980,1450,0,0
763,-426,0,0,0,0,0,0,0,0,0,-1,1987,1450,0,0
770,-426,0,0,0,0,0,0,0,0,0,-1,1994,1450,0,0
777,-426,0,0,0,0,0,0,0,0,0,-1,2001,1450,0,0
784,-426,0,0,0,0,0,0,0,0,0,-1,2008,1450,0,0
791,-426,0,0,0,0,0,0,0,0,0,-1,2015,1450,0,0
798,-426,0,0,0,0,0,0,0,0,0,-1,2022,1450,0,0
805,-426,0,0,0,0,0,0,0,0,0,-1,2029,1450,0,0
812,-426,0,0,0,0,0,0,0,0,0,-1,2036,1450,0,0
-700,-433,0,0,0,0,0,0,0,0,0,-1,524,1457,0,0
-693,-433,0,0,0,0,0,0,0,0,0,-1,531,1457,0,0
-686,-433,0,0,0,0,0,0,0,0,0,-1,538,1457,0,0
-679,-433,0,0,0,0,0,0,0,0,0,-1,545,1457,0,0
-672,-433,0,0,0,0,0,0,0,0,0,-1,552,1457,0,0
-665,-433,0,0,0,0,0,0,0,0,0,-1,559,1457,0,0
-658,-433,0,0,0,0,0,0,0,0,0,-1,566,1457,0,0
-651,-433,0,0,0,0,0,0,0,0,0,-1,573,1457,0,0
-644,-433,0,0,0,0,0,0,0,0,0,-1,580,1457,0,0
-637,-433,0,0,0,0,0,0,0,0,0,-1,587,1457,0,0
-630,-433,0,0,0,0,0,0,0,0,0,-1,594,1457,0,0
-623,-433,0,0,0,0,0,0,0,0,0,-1,601,1457,0,0
-616,-433,0,0,0,0,0,0,0,0,0,-1,608,1457,0,0
-609,-433,0,0,0,0,0,0,0,0,0,-1,615,1457,0,0
-602,-433,0,0,0,0,0,0,0,0,0,-1,622,1457,0,0
-595,-433,0,0,0,0,0,0,0,0,0,-1,629,1457,0,0
-588,-433,-10.3756,-0.467041,0,0,0,0,0,0,0,-1,636,1457,-10.3756,0.467081
-581,-433,-8.12201,0.884033,0,0,0,0,0,0,0,-1,643,1457,-8.12204,-0.884056
-574,-433,-5.86847,2.23523,0,0,0,0,0,0,0,-1,650,1457,-5.86844,-2.23519
-567,-433,-5.42255,1.16833,0,0,0,0,0,0,0,-1,657,1457,-5.42254,-1.1683
-560,-433,-6.84027,1.86414,0,0,0,0,0,0,0,-1,664,1457,-6.84026,-1.86412
-553,-433,-5.74017,1.79163,0,0,0,0,0,0,0,-1,671,1457,-5.74015,-1.79166
-546,-433,-8.12451,7.35095,0,0,0,0,0,0,0,-1,678,1457,-8.12451,-7.35097
-539,-433,-7.3136,8.75659,0,0,0,0,0,0,0,-1,685,1457,-7.31362,-8.75659
-532,-433,-12.0881,12.7223,0,0,0,0,0,0,0,-1,692,1457,-12.0881,-12.7223
-525,-433,-12.5128,14.0034,0,0,0,0,0,0,0,-1,699,1457,-12.5127,-14.0034
-518,-433,-12.4763,14.7611,0.00291236,0.00261107,0.00294964,0.0057152,-0.000191764,0.759884,0.00387563,0.017942,706,1457,-12.4763,-14.7611
-511,-433,-12.5312,15.4299,0.0023827,0.00198711,0.00233435,0.00452762,-0.000157813,0.743134,0.00307237,0.0158787,713,1457,-12.5312,-15.43
-504,-433,-12.5739,16.0865,0.00200253,0.00153031,0.00180202,0.00358384,-5.09963e-05,0.720257,0.0024064,0.0129838,720,1457,-12.5739,-16.0866
-497,-433,-12.5839,16.7306,0.00185769,0.00131275,0.00147311,0.00308332,8.71248e-05,0.69395,0.00202713,0.0137138,727,1457,-12.5839,-16.7306
-490,-433,-12.6273,17.3741,0.00193108,0.00130229,0.00134805,0.00300091,0.000232455,0.670834,0.0019278,0.0154791,734,1457,-12.6273,-17.3742
-483,-433,-12.6593,18.0349,0.00226018,0.00151196,0.00142144,0.00335591,0.000416221,0.656722,0.00211225,0.0168898,741,1457,-12.6593,-18.0349
-476,-433,-12.6854,18.6896,0.002853,0.00196947,0.0017612,0.00422699,0.000595482,0.662517,0.00264197,0.0114932,748,1457,-12.6854,-18.6896
-469,-433,-12.718,19.3516,0.00374537,0.002649,0.00234787,0.0056082,0.000786173,0.670711,0.00350625,0.0111422,755,1457,-12.718,-19.3515
-462,-433,-12.7487,20.03,0,0,0,0,0,0,0,-1,762,1457,-12.7487,-20.03
-455,-433,-12.2162,21.0383,0,0,0,0,0,0,0,-1,769,1457,-12.2163,-21.0383
-448,-433,-6.94812,14.5563,0,0,0,0,0,0,0,-1,776,1457,-6.94809,-14.5562
-441,-433,-9.97485,14.0258,0,0,0,0,0,0,0,-1,783,1457,-9.97488,-14.0257
-434,-433,-9.41205,14.2297,0,0,0,0,0,0,0,-1,790,1457,-9.41205,-14.2297
-427,-433,-8.67419,13.6827,0,0,0,0,0,0,0,-1,797,1457,-8.67422,-13.6827
-420,-433,-5.74658,9.49121,0,0,0,0,0,0,0,-1,804,1457,-5.7466,-9.49119
-413,-433,-3.63074,5.5813,0,0,0,0,0,0,0,-1,811,1457,-3.63072,-5.58129
-406,-433,-12.3472,4.69373,0,0,0,0,0,0,0,-1,818,1457,-12.3472,-4.69374
-399,-433,-12.055,2.83594,0,0,0,0,0,0,0,-1,825,1457,-12.055,-2.83594
-392,-433,-12.9772,1.6228,0,0,0,0,0,0,0,-1,832,1457,-12.9772,-1.62282
-385,-433,-13.7999,0.514771,0,0,0,0,0,0,0,-1,839,1457,-13.7999,-0.514788
-378,-433,0,0,0,0,0,0,0,0,0,-1,846,1457,0,0
-371,-433,0,0,0,0,0,0,0,0,0,-1,853,1457,0,0
-364,-433,0,0,0,0,0,0,0,0,0,-1,860,1457,0,0
-357,-433,0,0,0,0,0,0,0,0,0,-1,867,1457,0,0
-350,-433,0,0,0,0,0,0,0,0,0,-1,874,1457,0,0
-343,-433,0,0,0,0,0,0,0,0,0,-1,881,1457,0,0
-336,-433,0,0,0,0,0,0,0,0,0,-1,888,1457,0,0
-329,-433,0,0,0,0,0,0,0,0,0,-1,895,1457,0,0
-322,-433,0,0,0,0,0,0,0,0,0,-1,902,1457,0,0
-315,-433,0,0,0,0,0,0,0,0,0,-1,909,1457,0,0
-308,-433,0,0,0,0,0,0,0,0,0,-1,916,1457,0,0
-301,-433,0,0,0,0,0,0,0,0,0,-1,923,1457,0,0
-294,-433,0,0,0,0,0,0,0,0,0,-1,930,1457,0,0
-287,-433,0,0,0,0,0,0,0,0,0,-1,937,1457,0,0
-280,-433,0,0,0,0,0,0,0,0,0,-1,944,1457,0,0
-273,-433,0,0,0,0,0,0,0,0,0,-1,951,1457,0,0
-266,-433,0,0,0,0,0,0,0,0,0,-1,958,1457,0,0
-259,-433,0,0,0,0,0,0,0,0,0,-1,965,1457,0,0
-252,-433,0,0,0,0,0,0,0,0,0,-1,972,1457,0,0
-245,-433,0,0,0,0,0,0,0,0,0,-1,979,1457,0,0
-238,-433,0,0,0,0,0,0,0,0,0,-1,986,1457,0,0
-231,-433,0,0,0,0,0,0,0,0,0,-1,993,1457,0,0
-224,-433,0,0,0,0,0,0,0,0,0,-1,1000,1457,0,0
-217,-433,0,0,0,0,0,0,0,0,0,-1,1007,1457,0,0
-210,-433,0,0,0,0,0,0,0,0,0,-1,1014,1457,0,0
-203,-433,0,0,0,0,0,0,0,0,0,-1,1021,1457,0,0
-196,-433,0,0,0,0,0,0,0,0,0,-1,1028,1457,0,0
-189,-433,0,0,0,0,0,0,0,0,0,-1,1035,1457,0,0
-182,-433,0,0,0,0,0,0,0,0,0,-1,1042,1457,0,0
-175,-433,0,0,0,0,0,0,0,0,0,-1,1049,1457,0,0
-168,-433,0,0,0,0,0,0,0,0,0,-1,1056,1457,0,0
-161,-433,0,0,0,0,0,0,0,0,0,-1,1063,1457,0,0
-154,-433,0,0,0,0,0,0,0,0,0,-1,1070,1457,0,0
-147,-433,0,0,0,0,0,0,0,0,0,-1,1077,1457,0,0
-140,-433,0,0,0,0,0,0,0,0,0,-1,1084,1457,0,0
-133,-433,0,0,0,0,0,0,0,0,0,-1,1091,1457,0,0
-126,-433,0,0,0,0,0,0,0,0,0,-1,1098,1457,0,0
-119,-433,0,0,0,0,0,0,0,0,0,-1,1105,1457,0,0
-112,-433,0,0,0,0,0,0,0,0,0,-1,1112,1457,0,0
-105,-433,0,0,0,0,0,0,0,0,0,-1,1119,1457,0,0
-98,-433,0,0,0,0,0,0,0,0,0,-1,1126,1457,0,0
-91,-433,0,0,0,0,0,0,0,0,0,-1,1133,1457,0,0
-84,-433,0,0,0,0,0,0,0,0,0,-1,1140,1457,0,0
-77,-433,0,0,0,0,0,0,0,0,0,-1,1147,1457,0,0
-70,-433,0,0,0,0,0,0,0,0,0,-1,1154,1457,0,0
-63,-433,0,0,0,0,0,0,0,0,0,-1,1161,1457,0,0
-56,-433,0,0,0,0,0,0,0,0,0,-1,1168,1457,0,0
-49,-433,0,0,0,0,0,0,0,0,0,-1,1175,1457,0,0
-42,-433,0,0,0,0,0,0,0,0,0,-1,1182,1457,0,0
-35,-433,0,0,0,0,0,0,0,0,0,-1,1189,1457,0,0
-28,-433,0,0,0,0,0,0,0,0,0,-1,1196,1457,0,0
-21,-433,0,0,0,0,0,0,0,0,0,-1,1203,1457,0,0
-14,-433,0,0,0,0,0,0,0,0,0,-1,1210,1457,0,0
-7,-433,0,0,0,0,0,0,0,0,0,-1,1217,1457,0,0
0,-433,0,0,0,0,0,0,0,0,0,-1,1224,1457,0,0
7,-433,0,0,0,0,0,0,0,0,0,-1,1231,1457,0,0
14,-433,0,0,0,0,0,0,0,0,0,-1,1238,1457,0,0
21,-433,0,0,0,0,0,0,0,0,0,-1,1245,1457,0,0
28,-433,0,0,0,0,0,0,0,0,0,-1,1252,1457,0,0
35,-433,0,0,0,0,0,0,0,0,0,-1,1259,1457,0,0
42,-433,0,0,0,0,0,0,0,0,0,-1,1266,1457,0,0
49,-433,0,0,0,0,0,0,0,0,0,-1,1273,1457,0,0
56,-433,0,0,0,0,0,0,0,0,0,-1,1280,1457,0,0
63,-433,0,0,0,0,0,0,0,0,0,-1,1287,1457,0,0
70,-433,0,0,0,0,0,0,0,0,0,-1,1294,1457,0,0
77,-433,0,0,0,0,0,0,0,0,0,-1,1301,1457,0,0
84,-433,0,0,0,0,0,0,0,0,0,-1,1308,1457,0,0
91,-433,0,0,0,0,0,0,0,0,0,-1,1315,1457,0,0
98,-433,0,0,0,0,0,0,0,0,0,-1,1322,1457,0,0
105,-433,0,0,0,0,0,0,0,0,0,-1,1329,1457,0,0
112,-433,0,0,0,0,0,0,0,0,0,-1,1336,1457,0,0
119,-433,0,0,0,0,0,0,0,0,0,-1,1343,1457,0,0
126,-433,0,0,0,0,0,0,0,0,0,-1,1350,1457,0,0
133,-433,0,0,0,0,0,0,0,0,0,-1,1357,1457,0,0
140,-433,0,0,0,0,0,0,0,0,0,-1,1364,1457,0,0
147,-433,0,0,0,0,0,0,0,0,0,-1,1371,1457,0,0
154,-433,0,0,0,0,0,0,0,0,0,-1,1378,1457,0,0
161,-433,0,0,0,0,0,0,0,0,0,-1,1385,1457,0,0
168,-433,0,0,0,0,0,0,0,0,0,-1,1392,1457,0,0
175,-433,0,0,0,0,0,0,0,0,0,-1,1399,1457,0,0
182,-433,0,0,0,0,0,0,0,0,0,-1,1406,1457,0,0
189,-433,0,0,0,0,0,0,0,0,0,-1,1413,1457,0,0
196,-433,0,0,0,0,0,0,0,0,0,-1,1420,1457,0,0
203,-433,0,0,0,0,0,0,0,0,0,-1,1427,1457,0,0
210,-433,0,0,0,0,0,0,0,0,0,-1,1434,1457,0,0
217,-433,0,0,0,0,0,0,0,0,0,-1,1441,1457,0,0
224,-433,0,0,0,0,0,0,0,0,0,-1,1448,1457,0,0
231,-433,0,0,0,0,0,0,0,0,0,-1,1455,1457,0,0
238,-433,0,0,0,0,0,0,0,0,0,-1,1462,1457,0,0
245,-433,0,0,0,0,0,0,0,0,0,-1,1469,1457,0,0
252,-433,0,0,0,0,0,0,0,0,0,-1,1476,1457,0,0
259,-433,0,0,0,0,0,0,0,0,0,-1,1483,1457,0,0
266,-433,0,0,0,0,0,0,0,0,0,-1,1490,1457,0,0
273,-433,0,0,0,0,0,0,0,0,0,-1,1497,1457,0,0
280,-433,0,0,0,0,0,0,0,0,0,-1,1504,1457,0,0
287,-433,0,0,0,0,0,0,0,0,0,-1,1511,1457,0,0
294,-433,0,0,0,0,0,0,0,0,0,-1,1518,1457,0,0
301,-433,0,0,0,0,0,0,0,0,0,-1,1525,1457,0,0
308,-433,0,0,0,0,0,0,0,0,0,-1,1532,1457,0,0
315,-433,0,0,0,0,0,0,0,0,0,-1,1539,1457,0,0
322,-433,0,0,0,0,0,0,0,0,0,-1,1546,1457,0,0
329,-433,0,0,0,0,0,0,0,0,0,-1,1553,1457,0,0
336,-433,0,0,0,0,0,0,0,0,0,-1,1560,1457,0,0
343,-433,0,0,0,0,0,0,0,0,0,-1,1567,1457,0,0
350,-433,0,0,0,0,0,0,0,0,0,-1,1574,1457,0,0
357,-433,0,0,0,0,0,0,0,0,0,-1,1581,1457,0,0
364,-433,0,0,0,0,0,0,0,0,0,-1,1588,1457,0,0
371,-433,0,0,0,0,0,0,0,0,0,-1,1595,1457,0,0
378,-433,0,0,0,0,0,0,0,0,0,-1,1602,1457,0,0
385,-433,0,0,0,0,0,0,0,0,0,-1,1609,1457,0,0
392,-433,0,0,0,0,0,0,0,0,0,-1,1616,1457,0,0
399,-433,0,0,0,0,0,0,0,0,0,-1,1623,1457,0,0
406,-433,0,0,0,0,0,0,0,0,0,-1,1630,1457,0,0
413,-433,0,0,0,0,0,0,0,0,0,-1,1637,1457,0,0
420,-433,0,0,0,0,0,0,0,0,0,-1,1644,1457,0,0
427,-433,0,0,0,0,0,0,0,0,0,-1,1651,1457,0,0
434,-433,0,0,0,0,0,0,0,0,0,-1,1658,1457,0,0
441,-433,0,0,0,0,0,0,0,0,0,-1,1665,1457,0,0
448,-433,0,0,0,0,0,0,0,0,0,-1,1672,1457,0,0
455,-433,0,0,0,0,0,0,0,0,0,-1,1679,1457,0,0
462,-433,0,0,0,0,0,0,0,0,0,-1,1686,1457,0,0
469,-433,0,0,0,0,0,0,0,0,0,-1,1693,1457,0,0
476,-433,0,0,0,0,0,0,0,0,0,-1,1700,1457,0,0
483,-433,0,0,0,0,0,0,0,0,0,-1,1707,1457,0,0
490,-433,0,0,0,0,0,0,0,0,0,-1,1714,1457,0,0
497,-433,0,0,0,0,0,0,0,0,0,-1,1721,1457,0,0
504,-433,19.9058,3.03662,0,0,0,0,0,0,0,-1,1728,1457,19.9058,-3.03656
511,-433,19.0145,3.07837,0,0,0,0,0,0,0,-1,1735,1457,19.0146,-3.07834
518,-433,18.071,3.06433,0,0,0,0,0,0,0,-1,1742,1457,18.071,-3.06432
525,-433,17.2048,3.37085,0,0,0,0,0,0,0,-1,1749,1457,17.2049,-3.37083
532,-433,16.5637,3.36646,0,0,0,0,0,0,0,-1,1756,1457,16.5637,-3.36643
539,-433,15.9193,3.30396,0,0,0,0,0,0,0,-1,1763,1457,15.9193,-3.30394
546,-433,23.1903,4.81775,0,0,0,0,0,0,0,-1,1770,1457,23.1903,-4.81775
553,-433,13.9674,11.5781,0,0,0,0,0,0,0,-1,1777,1457,13.9674,-11.5781
560,-433,13.9855,11.7341,0,0,0,0,0,0,0,-1,1784,1457,13.9855,-11.7341
567,-433,13.9264,11.3364,0,0,0,0,0,0,0,-1,1791,1457,13.9263,-11.3364
574,-433,15.5305,12.3673,0,0,0,0,0,0,0,-1,1798,1457,15.5305,-12.3673
581,-433,16.6405,12.1898,0,0,0,0,0,0,0,-1,1805,1457,16.6405,-12.1898
588,-433,26.4386,19.7478,0,0,0,0,0,0,0,-1,1812,1457,26.4386,-19.7478
595,-433,29.4707,21.3199,0,0,0,0,0,0,0,-1,1819,1457,29.4707,-21.3199
602,-433,29.4075,20.6169,0.00409938,0.00180854,-0.00267909,0.00586763,4.02848e-05,-0.583387,0.0038984,0.0278121,1826,1457,29.4074,-20.6169
609,-433,29.4349,19.9414,0.00337056,0.00111024,-0.00197244,0.00451368,-3.28738e-05,-0.525242,0.00302014,0.016006,1833,1457,29.4349,-19.9414
616,-433,29.4404,19.3479,0.00276145,0.000583128,-0.00143158,0.0034711,-0.000126518,-0.460207,0.00235737,0.0128037,1840,1457,29.4405,-19.3479
623,-433,29.397,18.7216,0.00244282,0.000227276,-0.00105433,0.00286435,-0.000194255,-0.380342,0.0019775,0.0108962,1847,1457,29.397,-18.7215
630,-433,29.385,18.1256,0.00236864,-6.92206e-05,-0.000826992,0.0026227,-0.000323283,-0.298061,0.00186559,0.0144806,1854,1457,29.385,-18.1256
637,-433,29.3699,17.489,0.002395,-0.0001307,-0.00073947,0.00259557,-0.000331274,-0.264866,0.00185071,0.0162543,1861,1457,29.3699,-17.489
644,-433,29.3308,16.8789,0.0025987,0.000110573,-0.00075235,0.0028085,-9.9229e-05,-0.271953,0.00190627,0.0178482,1868,1457,29.3308,-16.8789
651,-433,29.2935,16.2466,0.00298689,0.000562434,-0.00096318,0.00332296,0.00022637,-0.335705,0.00214384,0.0138517,1875,1457,29.2934,-16.2465
658,-433,29.2028,15.5758,0.00360994,0.00127151,-0.00129377,0.00418455,0.000696908,-0.417964,0.00258885,0.0356246,1882,1457,29.2028,-15.5758
665,-433,29.4412,14.686,0,0,0,0,0,0,0,-1,1889,1457,29.4411,-14.686
672,-433,18.115,8.7207,0,0,0,0,0,0,0,-1,1896,1457,18.115,-8.72074
679,-433,17.2969,9.6355,0,0,0,0,0,0,0,-1,1903,1457,17.2968,-9.63548
686,-433,13.6356,8.61694,0,0,0,0,0,0,0,-1,1910,1457,13.6356,-8.61694
693,-433,13.4081,8.39624,0,0,0,0,0,0,0,-1,1917,1457,13.4081,-8.39624
700,-433,7.16809,-1.5166,0,0,0,0,0,0,0,-1,1924,1457,7.16806,1.51656
707,-433,8.68359,-2.82202,0,0,0,0,0,0,0,-1,1931,1457,8.68359,2.82197
714,-433,0,0,0,0,0,0,0,0,0,-1,1938,1457,0,0
721,-433,0,0,0,0,0,0,0,0,0,-1,1945,1457,0,0
728,-433,0,0,0,0,0,0,0,0,0,-1,1952,1457,0,0
735,-433,0,0,0,0,0,0,0,0,0,-1,1959,1457,0,0
742,-433,0,0,0,0,0,0,0,0,0,-1,1966,1457,0,0
749,-433,0,0,0,0,0,0,0,0,0,-1,1973,1457,0,0
756,-433,0,0,0,0,0,0,0,0,0,-1,1980,1457,0,0
763,-433,0,0,0,0,0,0,0,0,0,-1,1987,1457,0,0
770,-433,0,0,0,0,0,0,0,0,0,-1,1994,1457,0,0
777,-433,0,0,0,0,0,0,0,0,0,-1,2001,1457,0,0
784,-433,0,0,0,0,0,0,0,0,0,-1,2008,1457,0,0
791,-433,0,0,0,0,0,0,0,0,0,-1,2015,1457,0,0
798,-433,0,0,0,0,0,0,0,0,0,-1,2022,1457,0,0
805,-433,0,0,0,0,0,0,0,0,0,-1,2029,1457,0,0
812,-433,0,0,0,0,0,0,0,0,0,-1,2036,1457,0,0
-700,-440,0,0,0,0,0,0,0,0,0,-1,524,1464,0,0
-693,-440,0,0,0,0,0,0,0,0,0,-1,531,1464,0,0
-686,-440,0,0,0,0,0,0,0,0,0,-1,538,1464,0,0
-679,-440,0,0,0,0,0,0,0,0,0,-1,545,1464,0,0
-672,-440,0,0,0,0,0,0,0,0,0,-1,552,1464,0,0
-665,-440,0,0,0,0,0,0,0,0,0,-1,559,1464,0,0
-658,-440,0,0,0,0,0,0,0,0,0,-1,566,1464,0,0
-651,-440,0,0,0,0,0,0,0,0,0,-1,573,1464,0,0
-644,-440,0,0,0,0,0,0,0,0,0,-1,580,1464,0,0
-637,-440,0,0,0,0,0,0,0,0,0,-1,587,1464,0,0
-630,-440,0,0,0,0,0,0,0,0,0,-1,594,1464,0,0
-623,-440,0,0,0,0,0,0,0,0,0,-1,601,1464,0,0
-616,-440,0,0,0,0,0,0,0,0,0,-1,608,1464,0,0
-609,-440,0,0,0,0,0,0,0,0,0,-1,615,1464,0,0
-602,-440,0,0,0,0,0,0,0,0,0,-1,622,1464,0,0
-595,-440,0,0,0,0,0,0,0,0,0,-1,629,1464,0,0
-588,-440,0,0,0,0,0,0,0,0,0,-1,636,1464,0,0
-581,-440,-8.97278,0.254517,0,0,0,0,0,0,0,-1,643,1464,-8.97276,-0.254526
-574,-440,-7.00818,-0.918579,0,0,0,0,0,0,0,-1,650,1464,-7.00817,0.918538
-567,-440,-6.12152,-0.0766602,0,0,0,0,0,0,0,-1,657,1464,-6.12151,0.0767097
-560,-440,-5.46747,0.82251,0,0,0,0,0,0,0,-1,664,1464,-5.46748,-0.822551
-553,-440,-6.84729,0.0831299,0,0,0,0,0,0,0,-1,671,1464,-6.84732,-0.083136
-546,-440,-5.63446,-0.153198,0,0,0,0,0,0,0,-1,678,1464,-5.63447,0.153147
-539,-440,-6.80017,8.58252,0,0,0,0,0,0,0,-1,685,1464,-6.80015,-8.58257
-532,-440,-9.69647,11.3262,0,0,0,0,0,0,0,-1,692,1464,-9.69649,-11.3262
-525,-440,-11.9435,13.9714,0,0,0,0,0,0,0,-1,699,1464,-11.9435,-13.9714
-518,-440,-11.895,14.703,0.0034938,0.00300419,0.00375715,0.00701411,-0.000516121,0.752865,0.00485726,0.0252496,706,1464,-11.8949,-14.703
-511,-440,-11.8807,15.4301,0.00282657,0.00226364,0.00298786,0.00554619,-0.000455987,0.738435,0.00385845,0.0149137,713,1464,-11.8807,-15.43
-504,-440,-11.8978,16.1116,0.00226235,0.00164885,0.00223815,0.00421467,-0.000303468,0.717296,0.0029162,0.0186323,720,1464,-11.8978,-16.1116
-497,-440,-11.9197,16.7556,0.00199084,0.00132959,0.0017703,0.00346112,-0.000140691,0.693079,0.00235571,0.0224016,727,1464,-11.9196,-16.7556
-490,-440,-11.9598,17.3713,0.00191741,0.00123302,0.00150367,0.00311732,3.31021e-05,0.673517,0.00206727,0.0218865,734,1464,-11.9598,-17.3713
-483,-440,-11.9966,18.0479,0.00209199,0.00135815,0.00143817,0.00320931,0.000240831,0.660499,0.00206395,0.019998,741,1464,-11.9966,-18.0479
-476,-440,-12.0229,18.7051,0.00250899,0.00173683,0.0016449,0.00381251,0.00043331,0.670128,0.00241025,0.0141295,748,1464,-12.0229,-18.7051
-469,-440,-12.063,19.377,0.00316791,0.00235332,0.00208872,0.00488867,0.000632558,0.689108,0.00307006,0.0126349,755,1464,-12.063,-19.377
-462,-440,-12.1312,20.0234,0.00414966,0.00324674,0.00285656,0.00659021,0.000806182,0.707025,0.00415093,0.0168813,762,1464,-12.1312,-20.0235
-455,-440,-11.9285,20.8146,0.00550195,0.00447273,0.00398486,0.00900529,0.000969389,0.721183,0.0057079,0.0446154,769,1464,-11.9285,-20.8146
-448,-440,-11.3019,21.765,0,0,0,0,0,0,0,-1,776,1464,-11.3019,-21.765
-441,-440,-7.28583,14.7465,0,0,0,0,0,0,0,-1,783,1464,-7.28584,-14.7464
-434,-440,-8.33636,14.5024,0,0,0,0,0,0,0,-1,790,1464,-8.33638,-14.5025
-427,-440,-8.28094,14.2512,0,0,0,0,0,0,0,-1,797,1464,-8.28094,-14.2512
-420,-440,-6.86603,8.09216,0,0,0,0,0,0,0,-1,804,1464,-6.86602,-8.09222
-413,-440,-3.46796,5.72278,0,0,0,0,0,0,0,-1,811,1464,-3.46797,-5.72276
-406,-440,-5.2887,5.20264,0,0,0,0,0,0,0,-1,818,1464,-5.2887,-5.20261
-399,-440,-12.7318,3.94421,0,0,0,0,0,0,0,-1,825,1464,-12.7318,-3.94419
-392,-440,-13.5565,2.51855,0,0,0,0,0,0,0,-1,832,1464,-13.5565,-2.51861
-385,-440,-14.6741,1.39795,0,0,0,0,0,0,0,-1,839,1464,-14.6741,-1.39801
-378,-440,-15.8063,0.293457,0,0,0,0,0,0,0,-1,846,1464,-15.8063,-0.293412
-371,-440,0,0,0,0,0,0,0,0,0,-1,853,1464,0,0
-364,-440,0,0,0,0,0,0,0,0,0,-1,860,1464,0,0
-357,-440,0,0,0,0,0,0,0,0,0,-1,867,1464,0,0
-350,-440,0,0,0,0,0,0,0,0,0,-1,874,1464,0,0
-343,-440,0,0,0,0,0,0,0,0,0,-1,881,1464,0,0
-336,-440,0,0,0,0,0,0,0,0,0,-1,888,1464,0,0
-329,-440,0,0,0,0,0,0,0,0,0,-1,895,1464,0,0
-322,-440,0,0,0,0,0,0,0,0,0,-1,902,1464,0,0
-315,-440,0,0,0,0,0,0,0,0,0,-1,909,1464,0,0
-308,-440,0,0,0,0,0,0,0,0,0,-1,916,1464,0,0
-301,-440,0,0,0,0,0,0,0,0,0,-1,923,1464,0,0
-294,-440,0,0,0,0,0,0,0,0,0,-1,930,1464,0,0
-287,-440,0,0,0,0,0,0,0,0,0,-1,937,1464,0,0
-280,-440,0,0,0,0,0,0,0,0,0,-1,944,1464,0,0
-273,-440,0,0,0,0,0,0,0,0,0,-1,951,1464,0,0
-266,-440,0,0,0,0,0,0,0,0,0,-1,958,1464,0,0
-259,-440,0,0,0,0,0,0,0,0,0,-1,965,1464,0,0
-252,-440,0,0,0,0,0,0,0,0,0,-1,972,1464,0,0
-245,-440,0,0,0,0,0,0,0,0,0,-1,979,1464,0,0
-238,-440,0,0,0,0,0,0,0,0,0,-1,986,1464,0,0
-231,-440,0,0,0,0,0,0,0,0,0,-1,993,1464,0,0
-224,-440,0,0,0,0,0,0,0,0,0,-1,1000,1464,0,0
-217,-440,0,0,0,0,0,0,0,0,0,-1,1007,1464,0,0
-210,-440,0,0,0,0,0,0,0,0,0,-1,1014,1464,0,0
-203,-440,0,0,0,0,0,0,0,0,0,-1,1021,1464,0,0
-196,-440,0,0,0,0,0,0,0,0,0,-1,1028,1464,0,0
-189,-440,0,0,0,0,0,0,0,0,0,-1,1035,1464,0,0
-182,-440,0,0,0,0,0,0,0,0,0,-1,1042,1464,0,0
-175,-440,0,0,0,0,0,0,0,0,0,-1,1049,1464,0,0
-168,-440,0,0,0,0,0,0,0,0,0,-1,1056,1464,0,0
-161,-440,0,0,0,0,0,0,0,0,0,-1,1063,1464,0,0
-154,-440,0,0,0,0,0,0,0,0,0,-1,1070,1464,0,0
-147,-440,0,0,0,0,0,0,0,0,0,-1,1077,1464,0,0
-140,-440,0,0,0,0,0,0,0,0,0,-1,1084,1464,0,0
-133,-440,0,0,0,0,0,0,0,0,0,-1,1091,1464,0,0
-126,-440,0,0,0,0,0,0,0,0,0,-1,1098,1464,0,0
-119,-440,0,0,0,0,0,0,0,0,0,-1,1105,1464,0,0
-112,-440,0,0,0,0,0,0,0,0,0,-1,1112,1464,0,0
-105,-440,0,0,0,0,0,0,0,0,0,-1,1119,1464,0,0
-98,-440,0,0,0,0,0,0,0,0,0,-1,1126,1464,0,0
-91,-440,0,0,0,0,0,0,0,0,0,-1,1133,1464,0,0
-84,-440,0,0,0,0,0,0,0,0,0,-1,1140,1464,0,0
-77,-440,0,0,0,0,0,0,0,0,0,-1,1147,1464,0,0
-70,-440,0,0,0,0,0,0,0,0,0,-1,1154,1464,0,0
-63,-440,0,0,0,0,0,0,0,0,0,-1,1161,1464,0,0
-56,-440,0,0,0,0,0,0,0,0,0,-1,1168,1464,0,0
-49,-440,0,0,0,0,0,0,0,0,0,-1,1175,1464,0,0
-42,-440,0,0,0,0,0,0,0,0,0,-1,1182,1464,0,0
-35,-440,0,0,0,0,0,0,0,0,0,-1,1189,1464,0,0
-28,-440,0,0,0,0,0,0,0,0,0,-1,1196,1464,0,0
-21,-440,0,0,0,0,0,0,0,0,0,-1,1203,1464,0,0
-14,-440,0,0,0,0,0,0,0,0,0,-1,1210,1464,0,0
-7,-440,0,0,0,0,0,0,0,0,0,-1,1217,1464,0,0
0,-440,0,0,0,0,0,0,0,0,0,-1,1224,1464,0,0
7,-440,0,0,0,0,0,0,0,0,0,-1,1231,1464,0,0
14,-440,0,0,0,0,0,0,0,0,0,-1,1238,1464,0,0
21,-440,0,0,0,0,0,0,0,0,0,-1,1245,1464,0,0
28,-440,0,0,0,0,0,0,0,0,0,-1,1252,1464,0,0
35,-440,0,0,0,0,0,0,0,0,0,-1,1259,1464,0,0
42,-440,0,0,0,0,0,0,0,0,0,-1,1266,1464,0,0
49,-440,0,0,0,0,0,0,0,0,0,-1,1273,1464,0,0
56,-440,0,0,0,0,0,0,0,0,0,-1,1280,1464,0,0
63,-440,0,0,0,0,0,0,0,0,0,-1,1287,1464,0,0
70,-440,0,0,0,0,0,0,0,0,0,-1,1294,1464,0,0
77,-440,0,0,0,0,0,0,0,0,0,-1,1301,1464,0,0
84,-440,0,0,0,0,0,0,0,0,0,-1,1308,1464,0,0
91,-440,0,0,0,0,0,0,0,0,0,-1,1315,1464,0,0
98,-440,0,0,0,0,0,0,0,0,0,-1,1322,1464,0,0
105,-440,0,0,0,0,0,0,0,0,0,-1,1329,1464,0,0
112,-440,0,0,0,0,0,0,0,0,0,-1,1336,1464,0,0
119,-440,0,0,0,0,0,0,0,0,0,-1,1343,1464,0,0
126,-440,0,0,0,0,0,0,0,0,0,-1,1350,1464,0,0
133,-440,0,0,0,0,0,0,0,0,0,-1,1357,1464,0,0
140,-440,0,0,0,0,0,0,0,0,0,-1,1364,1464,0,0
147,-440,0,0,0,0,0,0,0,0,0,-1,1371,1464,0,0
154,-440,0,0,0,0,0,0,0,0,0,-1,1378,1464,0,0
161,-440,0,0,0,0,0,0,0,0,0,-1,1385,1464,0,0
168,-440,0,0,0,0,0,0,0,0,0,-1,1392,1464,0,0
175,-440,0,0,0,0,0,0,0,0,0,-1,1399,1464,0,0
182,-440,0,0,0,0,0,0,0,0,0,-1,1406,1464,0,0
189,-440,0,0,0,0,0,0,0,0,0,-1,1413,1464,0,0
196,-440,0,0,0,0,0,0,0,0,0,-1,1420,1464,0,0
203,-440,0,0,0,0,0,0,0,0,0,-1,1427,1464,0,0
210,-440,0,0,0,0,0,0,0,0,0,-1,1434,1464,0,0
217,-440,0,0,0,0,0,0,0,0,0,-1,1441,1464,0,0
224,-440,0,0,0,0,0,0,0,0,0,-1,1448,1464,0,0
231,-440,0,0,0,0,0,0,0,0,0,-1,1455,1464,0,0
238,-440,0,0,0,0,0,0,0,0,0,-1,1462,1464,0,0
245,-440,0,0,0,0,0,0,0,0,0,-1,1469,1464,0,0
252,-440,0,0,0,0,0,0,0,0,0,-1,1476,1464,0,0
259,-440,0,0,0,0,0,0,0,0,0,-1,1483,1464,0,0
266,-440,0,0,0,0,0,0,0,0,0,-1,1490,1464,0,0
273,-440,0,0,0,0,0,0,0,0,0,-1,1497,1464,0,0
280,-440,0,0,0,0,0,0,0,0,0,-1,1504,1464,0,0
287,-440,0,0,0,0,0,0,0,0,0,-1,1511,1464,0,0
294,-440,0,0,0,0,0,0,0,0,0,-1,1518,1464,0,0
301,-440,0,0,0,0,0,0,0,0,0,-1,1525,1464,0,0
308,-440,0,0,0,0,0,0,0,0,0,-1,1532,1464,0,0
315,-440,0,0,0,0,0,0,0,0,0,-1,1539,1464,0,0
322,-440,0,0,0,0,0,0,0,0,0,-1,1546,1464,0,0
329,-440,0,0,0,0,0,0,0,0,0,-1,1553,1464,0,0
336,-440,0,0,0,0,0,0,0,0,0,-1,1560,1464,0,0
343,-440,0,0,0,0,0,0,0,0,0,-1,1567,1464,0,0
350,-440,0,0,0,0,0,0,0,0,0,-1,1574,1464,0,0
357,-440,0,0,0,0,0,0,0,0,0,-1,1581,1464,0,0
364,-440,0,0,0,0,0,0,0,0,0,-1,1588,1464,0,0
371,-440,0,0,0,0,0,0,0,0,0,-1,1595,1464,0,0
378,-440,0,0,0,0,0,0,0,0,0,-1,1602,1464,0,0
385,-440,0,0,0,0,0,0,0,0,0,-1,1609,1464,0,0
392,-440,0,0,0,0,0,0,0,0,0,-1,1616,1464,0,0
399,-440,0,0,0,0,0,0,0,0,0,-1,1623,1464,0,0
406,-440,0,0,0,0,0,0,0,0,0,-1,1630,1464,0,0
413,-440,0,0,0,0,0,0,0,0,0,-1,1637,1464,0,0
420,-440,0,0,0,0,0,0,0,0,0,-1,1644,1464,0,0
427,-440,0,0,0,0,0,0,0,0,0,-1,1651,1464,0,0
434,-440,0,0,0,0,0,0,0,0,0,-1,1658,1464,0,0
441,-440,0,0,0,0,0,0,0,0,0,-1,1665,1464,0,0
448,-440,0,0,0,0,0,0,0,0,0,-1,1672,1464,0,0
455,-440,0,0,0,0,0,0,0,0,0,-1,1679,1464,0,0
462,-440,0,0,0,0,0,0,0,0,0,-1,1686,1464,0,0
469,-440,0,0,0,0,0,0,0,0,0,-1,1693,1464,0,0
476,-440,0,0,0,0,0,0,0,0,0,-1,1700,1464,0,0
483,-440,0,0,0,0,0,0,0,0,0,-1,1707,1464,0,0
490,-440,0,0,0,0,0,0,0,0,0,-1,1714,1464,0,0
497,-440,16.965,-0.528442,0,0,0,0,0,0,0,-1,1721,1464,16.965,0.528492
504,-440,15.8052,0.670166,0,0,0,0,0,0,0,-1,1728,1464,15.8052,-0.670145
511,-440,17.5754,2.77832,0,0,0,0,0,0,0,-1,1735,1464,17.5754,-2.77826
518,-440,16.9017,3.07861,0,0,0,0,0,0,0,-1,1742,1464,16.9018,-3.07859
525,-440,18.4495,12.0867,0,0,0,0,0,0,0,-1,1749,1464,18.4495,-12.0867
532,-440,15.4319,3.64392,0,0,0,0,0,0,0,-1,1756,1464,15.4318,-3.64391
539,-440,14.8214,3.41321,0,0,0,0,0,0,0,-1,1763,1464,14.8214,-3.4132
546,-440,14.8651,10.7683,0,0,0,0,0,0,0,-1,1770,1464,14.8651,-10.7683
553,-440,15.1213,11.4121,0,0,0,0,0,0,0,-1,1777,1464,15.1213,-11.4121
560,-440,17.4325,12.5394,0,0,0,0,0,0,0,-1,1784,1464,17.4325,-12.5394
567,-440,16.9025,12.4249,0,0,0,0,0,0,0,-1,1791,1464,16.9025,-12.425
574,-440,19.2841,14.8679,0,0,0,0,0,0,0,-1,1798,1464,19.2841,-14.868
581,-440,26.4432,21.3477,0,0,0,0,0,0,0,-1,1805,1464,26.4432,-21.3476
588,-440,28.5192,22.0685,0,0,0,0,0,0,0,-1,1812,1464,28.5192,-22.0685
595,-440,28.7164,21.3062,0.00460153,0.00225366,-0.00309319,0.00673606,0.000119128,-0.604033,0.00445153,0.0317634,1819,1464,28.7164,-21.3061
602,-440,28.8019,20.5916,0.0037792,0.00154448,-0.00234669,0.00526096,6.2712e-05,-0.563208,0.00348659,0.0206527,1826,1464,28.8019,-20.5915
609,-440,28.8065,19.9979,0.00317633,0.000911778,-0.0017321,0.00411341,-2.52973e-05,-0.495912,0.00275074,0.0170788,1833,1464,28.8065,-19.9979
616,-440,28.7964,19.4133,0.00269718,0.000468342,-0.00127675,0.00327746,-0.000111939,-0.42659,0.00222323,0.016661,1840,1464,28.7963,-19.4134
623,-440,28.7773,18.7706,0.00250375,0.000135818,-0.00094594,0.00283523,-0.000195662,-0.337053,0.00195863,0.0140904,1847,1464,28.7773,-18.7706
630,-440,28.7524,18.1151,0.00254155,-0.000156132,-0.000747821,0.00273498,-0.000349565,-0.253114,0.00195031,0.0125153,1854,1464,28.7525,-18.1152
637,-440,28.7438,17.5433,0.00266019,-0.000237158,-0.000682469,0.00281289,-0.000389865,-0.220131,0.00201781,0.0169876,1861,1464,28.7438,-17.5433
644,-440,28.7322,16.9464,0.00293914,1.41105e-05,-0.000740144,0.00311576,-0.00016251,-0.234249,0.0021334,0.0161506,1868,1464,28.7321,-16.9464
651,-440,28.7344,16.2548,0.00343059,0.000490818,-0.00103718,0.00375968,0.000161729,-0.307244,0.00245432,0.020899,1875,1464,28.7343,-16.2548
658,-440,28.7876,15.4723,0,0,0,0,0,0,0,-1,1882,1464,28.7876,-15.4722
665,-440,24.2067,12.5813,0,0,0,0,0,0,0,-1,1889,1464,24.2067,-12.5813
672,-440,18.9385,9.6394,0,0,0,0,0,0,0,-1,1896,1464,18.9384,-9.63939
679,-440,16.9508,10.2336,0,0,0,0,0,0,0,-1,1903,1464,16.9508,-10.2337
686,-440,15.2556,8.44177,0,0,0,0,0,0,0,-1,1910,1464,15.2556,-8.44177
693,-440,9.88635,2.89795,0,0,0,0,0,0,0,-1,1917,1464,9.88638,-2.89798
700,-440,7.07825,-2.62061,0,0,0,0,0,0,0,-1,1924,1464,7.07829,2.62057
707,-440,0,0,0,0,0,0,0,0,0,-1,1931,1464,0,0
714,-440,0,0,0,0,0,0,0,0,0,-1,1938,1464,0,0
721,-440,0,0,0,0,0,0,0,0,0,-1,1945,1464,0,0
728,-440,0,0,0,0,0,0,0,0,0,-1,1952,1464,0,0
735,-440,0,0,0,0,0,0,0,0,0,-1,1959,1464,0,0
742,-440,0,0,0,0,0,0,0,0,0,-1,1966,1464,0,0
749,-440,0,0,0,0,0,0,0,0,0,-1,1973,1464,0,0
756,-440,0,0,0,0,0,0,0,0,0,-1,1980,1464,0,0
763,-440,0,0,0,0,0,0,0,0,0,-1,1987,1464,0,0
770,-440,0,0,0,0,0,0,0,0,0,-1,1994,1464,0,0
777,-440,0,0,0,0,0,0,0,0,0,-1,2001,1464,0,0
784,-440,0,0,0,0,0,0,0,0,0,-1,2008,1464,0,0
791,-440,0,0,0,0,0,0,0,0,0,-1,2015,1464,0,0
798,-440,0,0,0,0,0,0,0,0,0,-1,2022,1464,0,0
805,-440,0,0,0,0,0,0,0,0,0,-1,2029,1464,0,0
812,-440,0,0,0,0,0,0,0,0,0,-1,2036,1464,0,0
-700,-447,0,0,0,0,0,0,0,0,0,-1,524,1471,0,0
-693,-447,0,0,0,0,0,0,0,0,0,-1,531,1471,0,0
-686,-447,0,0,0,0,0,0,0,0,0,-1,538,1471,0,0
-679,-447,0,0,0,0,0,0,0,0,0,-1,545,1471,0,0
-672,-447,0,0,0,0,0,0,0,0,0,-1,552,1471,0,0
-665,-447,0,0,0,0,0,0,0,0,0,-1,559,1471,0,0
-658,-447,0,0,0,0,0,0,0,0,0,-1,566,1471,0,0
-651,-447,0,0,0,0,0,0,0,0,0,-1,573,1471,0,0
-644,-447,0,0,0,0,0,0,0,0,0,-1,580,1471,0,0
-637,-447,0,0,0,0,0,0,0,0,0,-1,587,1471,0,0
-630,-447,0,0,0,0,0,0,0,0,0,-1,594,1471,0,0
-623,-447,0,0,0,0,0,0,0,0,0,-1,601,1471,0,0
-616,-447,0,0,0,0,0,0,0,0,0,-1,608,1471,0,0
-609,-447,0,0,0,0,0,0,0,0,0,-1,615,1471,0,0
-602,-447,0,0,0,0,0,0,0,0,0,-1,622,1471,0,0
-595,-447,0,0,0,0,0,0,0,0,0,-1,629,1471,0,0
-588,-447,0,0,0,0,0,0,0,0,0,-1,636,1471,0,0
-581,-447,-7.06482,-1.50476,0,0,0,0,0,0,0,-1,643,1471,-7.0648,1.50474
-574,-447,-6.88092,-0.00585938,0,0,0,0,0,0,0,-1,650,1471,-6.88095,0.00589852
-567,-447,-6.8205,-1.32178,0,0,0,0,0,0,0,-1,657,1471,-6.82047,1.32172
-560,-447,-8.85748,2.80774,0,0,0,0,0,0,0,-1,664,1471,-8.85748,-2.80775
-553,-447,-7.60486,3.26794,0,0,0,0,0,0,0,-1,671,1471,-7.60487,-3.26799
-546,-447,-3.94501,1.8656,0,0,0,0,0,0,0,-1,678,1471,-3.945,-1.86554
-539,-447,-5.35492,4.50024,0,0,0,0,0,0,0,-1,685,1471,-5.35492,-4.50018
-532,-447,-6.12781,8.81091,0,0,0,0,0,0,0,-1,692,1471,-6.12781,-8.81094
-525,-447,-9.44501,12.098,0,0,0,0,0,0,0,-1,699,1471,-9.44502,-12.098
-518,-447,-11.3088,14.537,0,0,0,0,0,0,0,-1,706,1471,-11.3088,-14.537
-511,-447,-11.2416,15.3958,0.00326139,0.00220179,0.00353861,0.00630964,-0.000846459,0.71109,0.0045151,0.0235088,713,1471,-11.2416,-15.3958
-504,-447,-11.2224,16.1655,0.0024816,0.00143229,0.0025502,0.00456056,-0.000646668,0.683948,0.00327726,0.0202155,720,1471,-11.2223,-16.1656
-497,-447,-11.27,16.8309,0.00207407,0.00104856,0.00195061,0.00357819,-0.000455563,0.656871,0.00255091,0.0249394,727,1471,-11.27,-16.8309
-490,-447,-11.2587,17.4459,0.00187721,0.000915653,0.00157517,0.00304334,-0.000250477,0.637277,0.00211733,0.0231506,734,1471,-11.2586,-17.446
-483,-447,-11.3348,18.087,0.0019407,0.0010294,0.00142443,0.00298058,-1.04838e-05,0.6306,0.00199056,0.0212675,741,1471,-11.3348,-18.0871
-476,-447,-11.3692,18.7328,0.00224012,0.00141563,0.00155881,0.00344027,0.000215477,0.656127,0.00222517,0.0150743,748,1471,-11.3692,-18.7328
-469,-447,-11.3983,19.3981,0.00276687,0.00206256,0.00192307,0.00436977,0.000459665,0.694841,0.00277269,0.0136421,755,1471,-11.3983,-19.398
-462,-447,-11.432,20.0677,0.00360297,0.00296999,0.00257763,0.00588346,0.000689491,0.724312,0.00371388,0.013657,762,1471,-11.432,-20.0678
-455,-447,-11.4675,20.7377,0.00473909,0.00417915,0.0035412,0.00801137,0.000906863,0.74595,0.00506576,0.0229142,769,1471,-11.4675,-20.7377
-448,-447,-11.4658,21.4305,0,0,0,0,0,0,0,-1,776,1471,-11.4658,-21.4306
-441,-447,-8.68506,19.0931,0,0,0,0,0,0,0,-1,783,1471,-8.68504,-19.0932
-434,-447,-7.43402,15.6273,0,0,0,0,0,0,0,-1,790,1471,-7.43404,-15.6274
-427,-447,-7.21832,14.691,0,0,0,0,0,0,0,-1,797,1471,-7.21834,-14.6911
-420,-447,-8.0545,12.8055,0,0,0,0,0,0,0,-1,804,1471,-8.05452,-12.8055
-413,-447,-4.27393,6.59705,0,0,0,0,0,0,0,-1,811,1471,-4.27392,-6.59707
-406,-447,-1.04279,6.18591,0,0,0,0,0,0,0,-1,818,1471,-1.04276,-6.18586
-399,-447,0.0134888,0.687622,0,0,0,0,0,0,0,-1,825,1471,0.0134841,-0.68767
-392,-447,-14.0646,3.76147,0,0,0,0,0,0,0,-1,832,1471,-14.0646,-3.7615
-385,-447,-15.1695,2.61865,0,0,0,0,0,0,0,-1,839,1471,-15.1695,-2.61871
-378,-447,-15.9424,1.49316,0,0,0,0,0,0,0,-1,846,1471,-15.9424,-1.49313
-371,-447,-17.3655,0.73291,0,0,0,0,0,0,0,-1,853,1471,-17.3655,-0.732946
-364,-447,0,0,0,0,0,0,0,0,0,-1,860,1471,0,0
-357,-447,0,0,0,0,0,0,0,0,0,-1,867,1471,0,0
-350,-447,0,0,0,0,0,0,0,0,0,-1,874,1471,0,0
-343,-447,0,0,0,0,0,0,0,0,0,-1,881,1471,0,0
-336,-447,0,0,0,0,0,0,0,0,0,-1,888,1471,0,0
-329,-447,0,0,0,0,0,0,0,0,0,-1,895,1471,0,0
-322,-447,0,0,0,0,0,0,0,0,0,-1,902,1471,0,0
-315,-447,0,0,0,0,0,0,0,0,0,-1,909,1471,0,0
-308,-447,0,0,0,0,0,0,0,0,0,-1,916,1471,0,0
-301,-447,0,0,0,0,0,0,0,0,0,-1,923,1471,0,0
-294,-447,0,0,0,0,0,0,0,0,0,-1,930,1471,0,0
-287,-447,0,0,0,0,0,0,0,0,0,-1,937,1471,0,0
-280,-447,0,0,0,0,0,0,0,0,0,-1,944,1471,0,0
-273,-447,0,0,0,0,0,0,0,0,0,-1,951,1471,0,0
-266,-447,0,0,0,0,0,0,0,0,0,-1,958,1471,0,0
-259,-447,0,0,0,0,0,0,0,0,0,-1,965,1471,0,0
-252,-447,0,0,0,0,0,0,0,0,0,-1,972,1471,0,0
-245,-447,0,0,0,0,0,0,0,0,0,-1,979,1471,0,0
-238,-447,0,0,0,0,0,0,0,0,0,-1,986,1471,0,0
-231,-447,0,0,0,0,0,0,0,0,0,-1,993,1471,0,0
-224,-447,0,0,0,0,0,0,0,0,0,-1,1000,1471,0,0
-217,-447,0,0,0,0,0,0,0,0,0,-1,1007,1471,0,0
-210,-447,0,0,0,0,0,0,0,0,0,-1,1014,1471,0,0
-203,-447,0,0,0,0,0,0,0,0,0,-1,1021,1471,0,0
-196,-447,0,0,0,0,0,0,0,0,0,-1,1028,1471,0,0
-189,-447,0,0,0,0,0,0,0,0,0,-1,1035,1471,0,0
-182,-447,0,0,0,0,0,0,0,0,0,-1,1042,1471,0,0
-175,-447,0,0,0,0,0,0,0,0,0,-1,1049,1471,0,0
-168,-447,0,0,0,0,0,0,0,0,0,-1,1056,1471,0,0
-161,-447,0,0,0,0,0,0,0,0,0,-1,1063,1471,0,0
-154,-447,0,0,0,0,0,0,0,0,0,-1,1070,1471,0,0
-147,-447,0,0,0,0,0,0,0,0,0,-1,1077,1471,0,0
-140,-447,0,0,0,0,0,0,0,0,0,-1,1084,1471,0,0
-133,-447,0,0,0,0,0,0,0,0,0,-1,1091,1471,0,0
-126,-447,0,0,0,0,0,0,0,0,0,-1,1098,1471,0,0
-119,-447,0,0,0,0,0,0,0,0,0,-1,1105,1471,0,0
-112,-447,0,0,0,0,0,0,0,0,0,-1,1112,1471,0,0
-105,-447,0,0,0,0,0,0,0,0,0,-1,1119,1471,0,0
-98,-447,0,0,0,0,0,0,0,0,0,-1,1126,1471,0,0
-91,-447,0,0,0,0,0,0,0,0,0,-1,1133,1471,0,0
-84,-447,0,0,0,0,0,0,0,0,0,-1,1140,1471,0,0
-77,-447,0,0,0,0,0,0,0,0,0,-1,1147,1471,0,0
-70,-447,0,0,0,0,0,0,0,0,0,-1,1154,1471,0,0
-63,-447,0,0,0,0,0,0,0,0,0,-1,1161,1471,0,0
-56,-447,0,0,0,0,0,0,0,0,0,-1,1168,1471,0,0
-49,-447,0,0,0,0,0,0,0,0,0,-1,1175,1471,0,0
-42,-447,0,0,0,0,0,0,0,0,0,-1,1182,1471,0,0
-35,-447,0,0,0,0,0,0,0,0,0,-1,1189,1471,0,0
-28,-447,0,0,0,0,0,0,0,0,0,-1,1196,1471,0,0
-21,-447,0,0,0,0,0,0,0,0,0,-1,1203,1471,0,0
-14,-447,0,0,0,0,0,0,0,0,0,-1,1210,1471,0,0
-7,-447,0,0,0,0,0,0,0,0,0,-1,1217,1471,0,0
0,-447,0,0,0,0,0,0,0,0,0,-1,1224,1471,0,0
7,-447,0,0,0,0,0,0,0,0,0,-1,1231,1471,0,0
14,-447,0,0,0,0,0,0,0,0,0,-1,1238,1471,0,0
21,-447,0,0,0,0,0,0,0,0,0,-1,1245,1471,0,0
28,-447,0,0,0,0,0,0,0,0,0,-1,1252,1471,0,0
35,-447,0,0,0,0,0,0,0,0,0,-1,1259,1471,0,0
42,-447,0,0,0,0,0,0,0,0,0,-1,1266,1471,0,0
49,-447,0,0,0,0,0,0,0,0,0,-1,1273,1471,0,0
56,-447,0,0,0,0,0,0,0,0,0,-1,1280,1471,0,0
63,-447,0,0,0,0,0,0,0,0,0,-1,1287,1471,0,0
70,-447,0,0,0,0,0,0,0,0,0,-1,1294,1471,0,0
77,-447,0,0,0,0,0,0,0,0,0,-1,1301,1471,0,0
84,-447,0,0,0,0,0,0,0,0,0,-1,1308,1471,0,0
91,-447,0,0,0,0,0,0,0,0,0,-1,1315,1471,0,0
98,-447,0,0,0,0,0,0,0,0,0,-1,1322,1471,0,0
105,-447,0,0,0,0,0,0,0,0,0,-1,1329,1471,0,0
112,-447,0,0,0,0,0,0,0,0,0,-1,1336,1471,0,0
119,-447,0,0,0,0,0,0,0,0,0,-1,1343,1471,0,0
126,-447,0,0,0,0,0,0,0,0,0,-1,1350,1471,0,0
133,-447,0,0,0,0,0,0,0,0,0,-1,1357,1471,0,0
140,-447,0,0,0,0,0,0,0,0,0,-1,1364,1471,0,0
147,-447,0,0,0,0,0,0,0,0,0,-1,1371,1471,0,0
154,-447,0,0,0,0,0,0,0,0,0,-1,1378,1471,0,0
161,-447,0,0,0,0,0,0,0,0,0,-1,1385,1471,0,0
168,-447,0,0,0,0,0,0,0,0,0,-1,1392,1471,0,0
175,-447,0,0,0,0,0,0,0,0,0,-1,1399,1471,0,0
182,-447,0,0,0,0,0,0,0,0,0,-1,1406,1471,0,0
189,-447,0,0,0,0,0,0,0,0,0,-1,1413,1471,0,0
196,-447,0,0,0,0,0,0,0,0,0,-1,1420,1471,0,0
203,-447,0,0,0,0,0,0,0,0,0,-1,1427,1471,0,0
210,-447,0,0,0,0,0,0,0,0,0,-1,1434,1471,0,0
217,-447,0,0,0,0,0,0,0,0,0,-1,1441,1471,0,0
224,-447,0,0,0,0,0,0,0,0,0,-1,1448,1471,0,0
231,-447,0,0,0,0,0,0,0,0,0,-1,1455,1471,0,0
238,-447,0,0,0,0,0,0,0,0,0,-1,1462,1471,0,0
245,-447,0,0,0,0,0,0,0,0,0,-1,1469,1471,0,0
252,-447,0,0,0,0,0,0,0,0,0,-1,1476,1471,0,0
259,-447,0,0,0,0,0,0,0,0,0,-1,1483,1471,0,0
266,-447,0,0,0,0,0,0,0,0,0,-1,1490,1471,0,0
273,-447,0,0,0,0,0,0,0,0,0,-1,1497,1471,0,0
280,-447,0,0,0,0,0,0,0,0,0,-1,1504,1471,0,0
287,-447,0,0,0,0,0,0,0,0,0,-1,1511,1471,0,0
294,-447,0,0,0,0,0,0,0,0,0,-1,1518,1471,0,0
301,-447,0,0,0,0,0,0,0,0,0,-1,1525,1471,0,0
308,-447,0,0,0,0,0,0,0,0,0,-1,1532,1471,0,0
315,-447,0,0,0,0,0,0,0,0,0,-1,1539,1471,0,0
322,-447,0,0,0,0,0,0,0,0,0,-1,1546,1471,0,0
329,-447,0,0,0,0,0,0,0,0,0,-1,1553,1471,0,0
336,-447,0,0,0,0,0,0,0,0,0,-1,1560,1471,0,0
343,-447,0,0,0,0,0,0,0,0,0,-1,1567,1471,0,0
350,-447,0,0,0,0,0,0,0,0,0,-1,1574,1471,0,0
357,-447,0,0,0,0,0,0,0,0,0,-1,1581,1471,0,0
364,-447,0,0,0,0,0,0,0,0,0,-1,1588,1471,0,0
371,-447,0,0,0,0,0,0,0,0,0,-1,1595,1471,0,0
378,-447,0,0,0,0,0,0,0,0,0,-1,1602,1471,0,0
385,-447,0,0,0,0,0,0,0,0,0,-1,1609,1471,0,0
392,-447,0,0,0,0,0,0,0,0,0,-1,1616,1471,0,0
399,-447,0,0,0,0,0,0,0,0,0,-1,1623,1471,0,0
406,-447,0,0,0,0,0,0,0,0,0,-1,1630,1471,0,0
413,-447,0,0,0,0,0,0,0,0,0,-1,1637,1471,0,0
420,-447,0,0,0,0,0,0,0,0,0,-1,1644,1471,0,0
427,-447,0,0,0,0,0,0,0,0,0,-1,1651,1471,0,0
434,-447,0,0,0,0,0,0,0,0,0,-1,1658,1471,0,0
441,-447,0,0,0,0,0,0,0,0,0,-1,1665,1471,0,0
448,-447,0,0,0,0,0,0,0,0,0,-1,1672,1471,0,0
455,-447,0,0,0,0,0,0,0,0,0,-1,1679,1471,0,0
462,-447,0,0,0,0,0,0,0,0,0,-1,1686,1471,0,0
469,-447,0,0,0,0,0,0,0,0,0,-1,1693,1471,0,0
476,-447,0,0,0,0,0,0,0,0,0,-1,1700,1471,0,0
483,-447,0,0,0,0,0,0,0,0,0,-1,1707,1471,0,0
490,-447,18.2214,-0.810303,0,0,0,0,0,0,0,-1,1714,1471,18.2215,0.810307
497,-447,17.0237,0.352417,0,0,0,0,0,0,0,-1,1721,1471,17.0237,-0.352442
504,-447,15.8998,1.53479,0,0,0,0,0,0,0,-1,1728,1471,15.8997,-1.53478
511,-447,14.7201,2.76111,0,0,0,0,0,0,0,-1,1735,1471,14.7201,-2.76107
518,-447,17.7618,13.2864,0,0,0,0,0,0,0,-1,1742,1471,17.7619,-13.2863
525,-447,17.1191,11.9014,0,0,0,0,0,0,0,-1,1749,1471,17.1191,-11.9013
532,-447,16.3959,10.0455,0,0,0,0,0,0,0,-1,1756,1471,16.3959,-10.0456
539,-447,14.1699,10.0204,0,0,0,0,0,0,0,-1,1763,1471,14.1699,-10.0204
546,-447,16.3715,11.8046,0,0,0,0,0,0,0,-1,1770,1471,16.3714,-11.8046
553,-447,17.5106,13.4012,0,0,0,0,0,0,0,-1,1777,1471,17.5107,-13.4012
560,-447,17.0187,13.168,0,0,0,0,0,0,0,-1,1784,1471,17.0187,-13.168
567,-447,18.9286,15.1703,0,0,0,0,0,0,0,-1,1791,1471,18.9286,-15.1703
574,-447,27.9609,23.7504,0,0,0,0,0,0,0,-1,1798,1471,27.9609,-23.7503
581,-447,28.0399,22.625,0,0,0,0,0,0,0,-1,1805,1471,28.0399,-22.625
588,-447,28.2163,21.937,0.00513129,0.00240211,-0.00311846,0.00717065,0.000362749,-0.579157,0.00466422,0.0312527,1812,1471,28.2163,-21.9371
595,-447,28.2324,21.2678,0.00412995,0.00189343,-0.00257395,0.00581806,0.000205316,-0.580473,0.00381211,0.014386,1819,1471,28.2324,-21.2678
602,-447,28.1984,20.6317,0.00347406,0.00126977,-0.00201294,0.00466684,7.69924e-05,-0.534925,0.00308588,0.0125397,1826,1471,28.1984,-20.6317
609,-447,28.1824,20.0204,0.00302508,0.000735519,-0.0015199,0.00378309,-2.24953e-05,-0.462628,0.00252959,0.0137449,1833,1471,28.1824,-20.0204
616,-447,28.189,19.4017,0.00270633,0.000365742,-0.00115695,0.00318167,-0.000109601,-0.389832,0.00215858,0.0152536,1840,1471,28.189,-19.4017
623,-447,28.1785,18.8041,0.00265444,4.13371e-05,-0.000866952,0.00291591,-0.00022013,-0.292918,0.00202131,0.0173158,1847,1471,28.1785,-18.8041
630,-447,28.1338,18.1747,0.00280781,-0.000253334,-0.000679269,0.00295177,-0.000397294,-0.208843,0.00211277,0.0106261,1854,1471,28.1338,-18.1747
637,-447,28.1326,17.5613,0.00302505,-0.000379111,-0.000614476,0.00313257,-0.000486632,-0.173227,0.00226806,0.010715,1861,1471,28.1326,-17.5612
644,-447,28.1262,16.9542,0.00338509,-0.000191161,-0.000716143,0.00352317,-0.000329238,-0.190468,0.00246586,0.0113709,1868,1471,28.1262,-16.9543
651,-447,28.1945,16.2985,0.00397485,0.000231914,-0.00109305,0.00427067,-6.39095e-05,-0.264308,0.00286866,0.0485126,1875,1471,28.1945,-16.2984
658,-447,28.4271,15.5391,0,0,0,0,0,0,0,-1,1882,1471,28.4271,-15.539
665,-447,18.4946,9.79919,0,0,0,0,0,0,0,-1,1889,1471,18.4946,-9.79922
672,-447,18.9784,9.66077,0,0,0,0,0,0,0,-1,1896,1471,18.9784,-9.66081
679,-447,14.844,7.4248,0,0,0,0,0,0,0,-1,1903,1471,14.844,-7.42477
686,-447,9.81079,4.30859,0,0,0,0,0,0,0,-1,1910,1471,9.8108,-4.30864
693,-447,10.48,2.08643,0,0,0,0,0,0,0,-1,1917,1471,10.48,-2.08642
700,-447,0,0,0,0,0,0,0,0,0,-1,1924,1471,0,0
707,-447,0,0,0,0,0,0,0,0,0,-1,1931,1471,0,0
714,-447,0,0,0,0,0,0,0,0,0,-1,1938,1471,0,0
721,-447,0,0,0,0,0,0,0,0,0,-1,1945,1471,0,0
728,-447,0,0,0,0,0,0,0,0,0,-1,1952,1471,0,0
735,-447,0,0,0,0,0,0,0,0,0,-1,1959,1471,0,0
742,-447,0,0,0,0,0,0,0,0,0,-1,1966,1471,0,0
749,-447,0,0,0,0,0,0,0,0,0,-1,1973,1471,0,0
756,-447,0,0,0,0,0,0,0,0,0,-1,1980,1471,0,0
763,-447,0,0,0,0,0,0,0,0,0,-1,1987,1471,0,0
770,-447,0,0,0,0,0,0,0,0,0,-1,1994,1471,0,0
777,-447,0,0,0,0,0,0,0,0,0,-1,2001,1471,0,0
784,-447,0,0,0,0,0,0,0,0,0,-1,2008,1471,0,0
791,-447,0,0,0,0,0,0,0,0,0,-1,2015,1471,0,0
798,-447,0,0,0,0,0,0,0,0,0,-1,2022,1471,0,0
805,-447,0,0,0,0,0,0,0,0,0,-1,2029,1471,0,0
812,-447,0,0,0,0,0,0,0,0,0,-1,2036,1471,0,0
-700,-454,0,0,0,0,0,0,0,0,0,-1,524,1478,0,0
-693,-454,0,0,0,0,0,0,0,0,0,-1,531,1478,0,0
-686,-454,0,0,0,0,0,0,0,0,0,-1,538,1478,0,0
-679,-454,0,0,0,0,0,0,0,0,0,-1,545,1478,0,0
-672,-454,0,0,0,0,0,0,0,0,0,-1,552,1478,0,0
-665,-454,0,0,0,0,0,0,0,0,0,-1,559,1478,0,0
-658,-454,0,0,0,0,0,0,0,0,0,-1,566,1478,0,0
-651,-454,0,0,0,0,0,0,0,0,0,-1,573,1478,0,0
-644,-454,0,0,0,0,0,0,0,0,0,-1,580,1478,0,0
-637,-454,0,0,0,0,0,0,0,0,0,-1,587,1478,0,0
-630,-454,0,0,0,0,0,0,0,0,0,-1,594,1478,0,0
-623,-454,0,0,0,0,0,0,0,0,0,-1,601,1478,0,0
-616,-454,0,0,0,0,0,0,0,0,0,-1,608,1478,0,0
-609,-454,0,0,0,0,0,0,0,0,0,-1,615,1478,0,0
-602,-454,0,0,0,0,0,0,0,0,0,-1,622,1478,0,0
-595,-454,0,0,0,0,0,0,0,0,0,-1,629,1478,0,0
-588,-454,0,0,0,0,0,0,0,0,0,-1,636,1478,0,0
-581,-454,0,0,0,0,0,0,0,0,0,-1,643,1478,0,0
-574,-454,-8.4881,-0.465942,0,0,0,0,0,0,0,-1,650,1478,-8.4881,0.465885
-567,-454,-8.10046,0.922974,0,0,0,0,0,0,0,-1,657,1478,-8.10047,-0.923034
-560,-454,-10.656,3.51172,0,0,0,0,0,0,0,-1,664,1478,-10.656,-3.51176
-553,-454,-9.01129,3.95251,0,0,0,0,0,0,0,-1,671,1478,-9.0113,-3.95256
-546,-454,-9.61896,6.05237,0,0,0,0,0,0,0,-1,678,1478,-9.61897,-6.05239
-539,-454,-7.72589,4.96533,0,0,0,0,0,0,0,-1,685,1478,-7.72592,-4.96532
-532,-454,-7.03931,7.59985,0,0,0,0,0,0,0,-1,692,1478,-7.03929,-7.59981
-525,-454,-5.78723,9.677,0,0,0,0,0,0,0,-1,699,1478,-5.78722,-9.67703
-518,-454,-9.82098,13.8295,0,0,0,0,0,0,0,-1,706,1478,-9.82098,-13.8295
-511,-454,-10.6566,15.4033,0,0,0,0,0,0,0,-1,713,1478,-10.6566,-15.4033
-504,-454,-10.5948,16.1377,0.00272757,0.00123008,0.00282555,0.0049019,-0.000944253,0.655879,0.00362393,0.0185319,720,1478,-10.5948,-16.1377
-497,-454,-10.6093,16.8533,0.00217218,0.000787718,0.00208095,0.00367302,-0.000713118,0.62483,0.00271775,0.0187912,727,1478,-10.6093,-16.8533
-490,-454,-10.6259,17.5035,0.00184534,0.000604391,0.00158644,0.00292832,-0.000478594,0.598988,0.00212975,0.0173765,734,1478,-10.6259,-17.5035
-483,-454,-10.6768,18.1526,0.00179049,0.000684338,0.00135279,0.0026989,-0.000224073,0.591346,0.00187842,0.0163514,741,1478,-10.6768,-18.1526
-476,-454,-10.728,18.7681,0.00197182,0.00103722,0.00141434,0.00299406,1.49764e-05,0.625843,0.00199107,0.0139137,748,1478,-10.728,-18.7681
-469,-454,-10.7455,19.4229,0.00237806,0.00164887,0.0017108,0.00376269,0.000264241,0.680413,0.00242518,0.0103933,755,1478,-10.7455,-19.4228
-462,-454,-10.7775,20.0946,0.00307156,0.0024889,0.00227185,0.00507069,0.000489774,0.721628,0.0032296,0.0115806,762,1478,-10.7775,-20.0946
-455,-454,-10.8172,20.7549,0.00404006,0.00358828,0.00312811,0.00695043,0.000677913,0.749354,0.00442499,0.012433,769,1478,-10.8172,-20.7548
-448,-454,-10.8124,21.438,0.00543308,0.00518181,0.00447626,0.00978547,0.000829428,0.771368,0.0062655,0.0233529,776,1478,-10.8124,-21.438
-441,-454,-10.6699,22.2241,0,0,0,0,0,0,0,-1,783,1478,-10.6699,-22.2241
-434,-454,-7.55743,19.4857,0,0,0,0,0,0,0,-1,790,1478,-7.55746,-19.4858
-427,-454,-6.00183,15.8636,0,0,0,0,0,0,0,-1,797,1478,-6.00184,-15.8637
-420,-454,-6.28088,15.2135,0,0,0,0,0,0,0,-1,804,1478,-6.28087,-15.2135
-413,-454,-5.4408,13.674,0,0,0,0,0,0,0,-1,811,1478,-5.44079,-13.6739
-406,-454,-2.38208,10.0308,0,0,0,0,0,0,0,-1,818,1478,-2.38209,-10.0308
-399,-454,-1.21033,6.95447,0,0,0,0,0,0,0,-1,825,1478,-1.21035,-6.95452
-392,-454,0.0967407,0.985474,0,0,0,0,0,0,0,-1,832,1478,0.0967364,-0.985529
-385,-454,2.38629,3.297,0,0,0,0,0,0,0,-1,839,1478,2.38629,-3.29702
-378,-454,-15.9756,2.83997,0,0,0,0,0,0,0,-1,846,1478,-15.9756,-2.83994
-371,-454,-17.2753,2.01453,0,0,0,0,0,0,0,-1,853,1478,-17.2753,-2.01455
-364,-454,1.08124,0.819458,0,0,0,0,0,0,0,-1,860,1478,1.08124,-0.819513
-357,-454,0,0,0,0,0,0,0,0,0,-1,867,1478,0,0
-350,-454,0,0,0,0,0,0,0,0,0,-1,874,1478,0,0
-343,-454,0,0,0,0,0,0,0,0,0,-1,881,1478,0,0
-336,-454,0,0,0,0,0,0,0,0,0,-1,888,1478,0,0
-329,-454,0,0,0,0,0,0,0,0,0,-1,895,1478,0,0
-322,-454,0,0,0,0,0,0,0,0,0,-1,902,1478,0,0
-315,-454,0,0,0,0,0,0,0,0,0,-1,909,1478,0,0
-308,-454,0,0,0,0,0,0,0,0,0,-1,916,1478,0,0
-301,-454,0,0,0,0,0,0,0,0,0,-1,923,1478,0,0
-294,-454,0,0,0,0,0,0,0,0,0,-1,930,1478,0,0
-287,-454,0,0,0,0,0,0,0,0,0,-1,937,1478,0,0
-280,-454,0,0,0,0,0,0,0,0,0,-1,944,1478,0,0
-273,-454,0,0,0,0,0,0,0,0,0,-1,951,1478,0,0
-266,-454,0,0,0,0,0,0,0,0,0,-1,958,1478,0,0
-259,-454,0,0,0,0,0,0,0,0,0,-1,965,1478,0,0
-252,-454,0,0,0,0,0,0,0,0,0,-1,972,1478,0,0
-245,-454,0,0,0,0,0,0,0,0,0,-1,979,1478,0,0
-238,-454,0,0,0,0,0,0,0,0,0,-1,986,1478,0,0
-231,-454,0,0,0,0,0,0,0,0,0,-1,993,1478,0,0
-224,-454,0,0,0,0,0,0,0,0,0,-1,1000,1478,0,0
-217,-454,0,0,0,0,0,0,0,0,0,-1,1007,1478,0,0
-210,-454,0,0,0,0,0,0,0,0,0,-1,1014,1478,0,0
-203,-454,0,0,0,0,0,0,0,0,0,-1,1021,1478,0,0
-196,-454,0,0,0,0,0,0,0,0,0,-1,1028,1478,0,0
-189,-454,0,0,0,0,0,0,0,0,0,-1,1035,1478,0,0
-182,-454,0,0,0,0,0,0,0,0,0,-1,1042,1478,0,0
-175,-454,0,0,0,0,0,0,0,0,0,-1,1049,1478,0,0
-168,-454,0,0,0,0,0,0,0,0,0,-1,1056,1478,0,0
-161,-454,0,0,0,0,0,0,0,0,0,-1,1063,1478,0,0
-154,-454,0,0,0,0,0,0,0,0,0,-1,1070,1478,0,0
-147,-454,0,0,0,0,0,0,0,0,0,-1,1077,1478,0,0
-140,-454,0,0,0,0,0,0,0,0,0,-1,1084,1478,0,0
-133,-454,0,0,0,0,0,0,0,0,0,-1,1091,1478,0,0
-126,-454,0,0,0,0,0,0,0,0,0,-1,1098,1478,0,0
-119,-454,0,0,0,0,0,0,0,0,0,-1,1105,1478,0,0
-112,-454,0,0,0,0,0,0,0,0,0,-1,1112,1478,0,0
-105,-454,0,0,0,0,0,0,0,0,0,-1,1119,1478,0,0
-98,-454,0,0,0,0,0,0,0,0,0,-1,1126,1478,0,0
-91,-454,0,0,0,0,0,0,0,0,0,-1,1133,1478,0,0
-84,-454,0,0,0,0,0,0,0,0,0,-1,1140,1478,0,0
-77,-454,0,0,0,0,0,0,0,0,0,-1,1147,1478,0,0
-70,-454,0,0,0,0,0,0,0,0,0,-1,1154,1478,0,0
-63,-454,0,0,0,0,0,0,0,0,0,-1,1161,1478,0,0
-56,-454,0,0,0,0,0,0,0,0,0,-1,1168,1478,0,0
-49,-454,0,0,0,0,0,0,0,0,0,-1,1175,1478,0,0
-42,-454,0,0,0,0,0,0,0,0,0,-1,1182,1478,0,0
-35,-454,0,0,0,0,0,0,0,0,0,-1,1189,1478,0,0
-28,-454,0,0,0,0,0,0,0,0,0,-1,1196,1478,0,0
-21,-454,0,0,0,0,0,0,0,0,0,-1,1203,1478,0,0
-14,-454,0,0,0,0,0,0,0,0,0,-1,1210,1478,0,0
-7,-454,0,0,0,0,0,0,0,0,0,-1,1217,1478,0,0
0,-454,0,0,0,0,0,0,0,0,0,-1,1224,1478,0,0
7,-454,0,0,0,0,0,0,0,0,0,-1,1231,1478,0,0
14,-454,0,0,0,0,0,0,0,0,0,-1,1238,1478,0,0
21,-454,0,0,0,0,0,0,0,0,0,-1,1245,1478,0,0
28,-454,0,0,0,0,0,0,0,0,0,-1,1252,1478,0,0
35,-454,0,0,0,0,0,0,0,0,0,-1,1259,1478,0,0
42,-454,0,0,0,0,0,0,0,0,0,-1,1266,1478,0,0
49,-454,0,0,0,0,0,0,0,0,0,-1,1273,1478,0,0
56,-454,0,0,0,0,0,0,0,0,0,-1,1280,1478,0,0
63,-454,0,0,0,0,0,0,0,0,0,-1,1287,1478,0,0
70,-454,0,0,0,0,0,0,0,0,0,-1,1294,1478,0,0
77,-454,0,0,0,0,0,0,0,0,0,-1,1301,1478,0,0
84,-454,0,0,0,0,0,0,0,0,0,-1,1308,1478,0,0
91,-454,0,0,0,0,0,0,0,0,0,-1,1315,1478,0,0
98,-454,0,0,0,0,0,0,0,0,0,-1,1322,1478,0,0
105,-454,0,0,0,0,0,0,0,0,0,-1,1329,1478,0,0
112,-454,0,0,0,0,0,0,0,0,0,-1,1336,1478,0,0
119,-454,0,0,0,0,0,0,0,0,0,-1,1343,1478,0,0
126,-454,0,0,0,0,0,0,0,0,0,-1,1350,1478,0,0
133,-454,0,0,0,0,0,0,0,0,0,-1,1357,1478,0,0
140,-454,0,0,0,0,0,0,0,0,0,-1,1364,1478,0,0
147,-454,0,0,0,0,0,0,0,0,0,-1,1371,1478,0,0
154,-454,0,0,0,0,0,0,0,0,0,-1,1378,1478,0,0
161,-454,0,0,0,0,0,0,0,0,0,-1,1385,1478,0,0
168,-454,0,0,0,0,0,0,0,0,0,-1,1392,1478,0,0
175,-454,0,0,0,0,0,0,0,0,0,-1,1399,1478,0,0
182,-454,0,0,0,0,0,0,0,0,0,-1,1406,1478,0,0
189,-454,0,0,0,0,0,0,0,0,0,-1,1413,1478,0,0
196,-454,0,0,0,0,0,0,0,0,0,-1,1420,1478,0,0
203,-454,0,0,0,0,0,0,0,0,0,-1,1427,1478,0,0
210,-454,0,0,0,0,0,0,0,0,0,-1,1434,1478,0,0
217,-454,0,0,0,0,0,0,0,0,0,-1,1441,1478,0,0
224,-454,0,0,0,0,0,0,0,0,0,-1,1448,1478,0,0
231,-454,0,0,0,0,0,0,0,0,0,-1,1455,1478,0,0
238,-454,0,0,0,0,0,0,0,0,0,-1,1462,1478,0,0
245,-454,0,0,0,0,0,0,0,0,0,-1,1469,1478,0,0
252,-454,0,0,0,0,0,0,0,0,0,-1,1476,1478,0,0
259,-454,0,0,0,0,0,0,0,0,0,-1,1483,1478,0,0
266,-454,0,0,0,0,0,0,0,0,0,-1,1490,1478,0,0
273,-454,0,0,0,0,0,0,0,0,0,-1,1497,1478,0,0
280,-454,0,0,0,0,0,0,0,0,0,-1,1504,1478,0,0
287,-454,0,0,0,0,0,0,0,0,0,-1,1511,1478,0,0
294,-454,0,0,0,0,0,0,0,0,0,-1,1518,1478,0,0
301,-454,0,0,0,0,0,0,0,0,0,-1,1525,1478,0,0
308,-454,0,0,0,0,0,0,0,0,0,-1,1532,1478,0,0
315,-454,0,0,0,0,0,0,0,0,0,-1,1539,1478,0,0
322,-454,0,0,0,0,0,0,0,0,0,-1,1546,1478,0,0
329,-454,0,0,0,0,0,0,0,0,0,-1,1553,1478,0,0
336,-454,0,0,0,0,0,0,0,0,0,-1,1560,1478,0,0
343,-454,0,0,0,0,0,0,0,0,0,-1,1567,1478,0,0
350,-454,0,0,0,0,0,0,0,0,0,-1,1574,1478,0,0
357,-454,0,0,0,0,0,0,0,0,0,-1,1581,1478,0,0
364,-454,0,0,0,0,0,0,0,0,0,-1,1588,1478,0,0
371,-454,0,0,0,0,0,0,0,0,0,-1,1595,1478,0,0
378,-454,0,0,0,0,0,0,0,0,0,-1,1602,1478,0,0
385,-454,0,0,0,0,0,0,0,0,0,-1,1609,1478,0,0
392,-454,0,0,0,0,0,0,0,0,0,-1,1616,1478,0,0
399,-454,0,0,0,0,0,0,0,0,0,-1,1623,1478,0,0
406,-454,0,0,0,0,0,0,0,0,0,-1,1630,1478,0,0
413,-454,0,0,0,0,0,0,0,0,0,-1,1637,1478,0,0
420,-454,0,0,0,0,0,0,0,0,0,-1,1644,1478,0,0
427,-454,0,0,0,0,0,0,0,0,0,-1,1651,1478,0,0
434,-454,0,0,0,0,0,0,0,0,0,-1,1658,1478,0,0
441,-454,0,0,0,0,0,0,0,0,0,-1,1665,1478,0,0
448,-454,0,0,0,0,0,0,0,0,0,-1,1672,1478,0,0
455,-454,0,0,0,0,0,0,0,0,0,-1,1679,1478,0,0
462,-454,0,0,0,0,0,0,0,0,0,-1,1686,1478,0,0
469,-454,0,0,0,0,0,0,0,0,0,-1,1693,1478,0,0
476,-454,0,0,0,0,0,0,0,0,0,-1,1700,1478,0,0
483,-454,14.2399,3.97498,0,0,0,0,0,0,0,-1,1707,1478,14.2399,-3.97502
490,-454,18.1821,-0.175781,0,0,0,0,0,0,0,-1,1714,1478,18.1821,0.175822
497,-454,16.8854,1.01208,0,0,0,0,0,0,0,-1,1721,1478,16.8854,-1.01209
504,-454,15.587,2.05994,0,0,0,0,0,0,0,-1,1728,1478,15.5871,-2.05998
511,-454,17.0273,14.5258,0,0,0,0,0,0,0,-1,1735,1478,17.0273,-14.5258
518,-454,16.4158,13.1039,0,0,0,0,0,0,0,-1,1742,1478,16.4157,-13.1038
525,-454,15.7842,11.6628,0,0,0,0,0,0,0,-1,1749,1478,15.7841,-11.6629
532,-454,15.1094,10.2476,0,0,0,0,0,0,0,-1,1756,1478,15.1094,-10.2475
539,-454,13.7905,10.9373,0,0,0,0,0,0,0,-1,1763,1478,13.7906,-10.9372
546,-454,16.2002,13.2458,0,0,0,0,0,0,0,-1,1770,1478,16.2002,-13.2459
553,-454,15.6747,12.1868,0,0,0,0,0,0,0,-1,1777,1478,15.6747,-12.1868
560,-454,16.3895,14.0527,0,0,0,0,0,0,0,-1,1784,1478,16.3895,-14.0528
567,-454,27.7977,24.1433,0,0,0,0,0,0,0,-1,1791,1478,27.7977,-24.1433
574,-454,27.6444,23.2732,0.00668899,0.00300549,-0.00328698,0.00861504,0.00107944,-0.530033,0.0054195,0.0457491,1798,1478,27.6444,-23.2731
581,-454,27.6199,22.5677,0.00543194,0.00258011,-0.00293331,0.00726755,0.000744505,-0.559161,0.00461692,0.0281976,1805,1478,27.6199,-22.5678
588,-454,27.6738,21.8934,0.00440968,0.00205473,-0.00253054,0.00602328,0.000441134,-0.567644,0.00387685,0.0145482,1812,1478,27.6739,-21.8935
595,-454,27.6198,21.2761,0.00362403,0.00157192,-0.002096,0.00493164,0.000264312,-0.55778,0.00320329,0.013222,1819,1478,27.6197,-21.2761
602,-454,27.582,20.6633,0.00310879,0.00101444,-0.00166931,0.00403219,9.10412e-05,-0.50527,0.0026583,0.0102212,1826,1478,27.5821,-20.6634
609,-454,27.5723,20.05,0.0027966,0.000545104,-0.00126958,0.00336766,-2.59478e-05,-0.422686,0.0022538,0.011427,1833,1478,27.5723,-20.05
616,-454,27.5732,19.4319,0.00262965,0.000196858,-0.000963715,0.00296515,-0.000138637,-0.335005,0.00202456,0.0143619,1840,1478,27.5733,-19.4319
623,-454,27.5677,18.8291,0.00272517,-0.000163305,-0.000689289,0.00288123,-0.000319362,-0.222649,0.00203564,0.014893,1847,1478,27.5678,-18.8292
630,-454,27.5533,18.2244,0.00302175,-0.000484153,-0.000491665,0.00308939,-0.000551799,-0.136726,0.00226603,0.0144528,1854,1478,27.5533,-18.2244
637,-454,27.491,17.613,0.00341289,-0.000677798,-0.000406652,0.00345292,-0.000717831,-0.0981296,0.0025748,0.0122853,1861,1478,27.491,-17.613
644,-454,27.5482,16.9673,0.00400485,-0.000659644,-0.000508995,0.00405974,-0.00071454,-0.107437,0.00297343,0.0213692,1868,1478,27.5483,-16.9673
651,-454,27.7305,16.246,0,0,0,0,0,0,0,-1,1875,1478,27.7305,-16.2459
658,-454,17.2583,10.0765,0,0,0,0,0,0,0,-1,1882,1478,17.2583,-10.0765
665,-454,17.683,9.67566,0,0,0,0,0,0,0,-1,1889,1478,17.683,-9.67572
672,-454,16.5476,6.41931,0,0,0,0,0,0,0,-1,1896,1478,16.5476,-6.41929
679,-454,14.2161,5.45007,0,0,0,0,0,0,0,-1,1903,1478,14.2161,-5.45013
686,-454,10.3767,2.12842,0,0,0,0,0,0,0,-1,1910,1478,10.3767,-2.12839
693,-454,11.1857,1.48486,0,0,0,0,0,0,0,-1,1917,1478,11.1857,-1.48487
700,-454,0,0,0,0,0,0,0,0,0,-1,1924,1478,0,0
707,-454,0,0,0,0,0,0,0,0,0,-1,1931,1478,0,0
714,-454,0,0,0,0,0,0,0,0,0,-1,1938,1478,0,0
721,-454,0,0,0,0,0,0,0,0,0,-1,1945,1478,0,0
728,-454,0,0,0,0,0,0,0,0,0,-1,1952,1478,0,0
735,-454,0,0,0,0,0,0,0,0,0,-1,1959,1478,0,0
742,-454,0,0,0,0,0,0,0,0,0,-1,1966,1478,0,0
749,-454,0,0,0,0,0,0,0,0,0,-1,1973,1478,0,0
756,-454,0,0,0,0,0,0,0,0,0,-1,1980,1478,0,0
763,-454,0,0,0,0,0,0,0,0,0,-1,1987,1478,0,0
770,-454,0,0,0,0,0,0,0,0,0,-1,1994,1478,0,0
777,-454,0,0,0,0,0,0,0,0,0,-1,2001,1478,0,0
784,-454,0,0,0,0,0,0,0,0,0,-1,2008,1478,0,0
791,-454,0,0,0,0,0,0,0,0,0,-1,2015,1478,0,0
798,-454,0,0,0,0,0,0,0,0,0,-1,2022,1478,0,0
805,-454,0,0,0,0,0,0,0,0,0,-1,2029,1478,0,0
812,-454,0,0,0,0,0,0,0,0,0,-1,2036,1478,0,0
-700,-461,0,0,0,0,0,0,0,0,0,-1,524,1485,0,0
-693,-461,0,0,0,0,0,0,0,0,0,-1,531,1485,0,0
-686,-461,0,0,0,0,0,0,0,0,0,-1,538,1485,0,0
-679,-461,0,0,0,0,0,0,0,0,0,-1,545,1485,0,0
-672,-461,0,0,0,0,0,0,0,0,0,-1,552,1485,0,0
-665,-461,0,0,0,0,0,0,0,0,0,-1,559,1485,0,0
-658,-461,0,0,0,0,0,0,0,0,0,-1,566,1485,0,0
-651,-461,0,0,0,0,0,0,0,0,0,-1,573,1485,0,0
-644,-461,0,0,0,0,0,0,0,0,0,-1,580,1485,0,0
-637,-461,0,0,0,0,0,0,0,0,0,-1,587,1485,0,0
-630,-461,0,0,0,0,0,0,0,0,0,-1,594,1485,0,0
-623,-461,0,0,0,0,0,0,0,0,0,-1,601,1485,0,0
-616,-461,0,0,0,0,0,0,0,0,0,-1,608,1485,0,0
-609,-461,0,0,0,0,0,0,0,0,0,-1,615,1485,0,0
-602,-461,0,0,0,0,0,0,0,0,0,-1,622,1485,0,0
-595,-461,0,0,0,0,0,0,0,0,0,-1,629,1485,0,0
-588,-461,0,0,0,0,0,0,0,0,0,-1,636,1485,0,0
-581,-461,0,0,0,0,0,0,0,0,0,-1,643,1485,0,0
-574,-461,0,0,0,0,0,0,0,0,0,-1,650,1485,0,0
-567,-461,-9.69031,0.513306,0,0,0,0,0,0,0,-1,657,1485,-9.69032,-0.513305
-560,-461,-7.28815,1.54004,0,0,0,0,0,0,0,-1,664,1485,-7.28817,-1.54005
-553,-461,-11.9607,5.27783,0,0,0,0,0,0,0,-1,671,1485,-11.9607,-5.27778
-546,-461,-11.4215,4.44666,0,0,0,0,0,0,0,-1,678,1485,-11.4215,-4.4467
-539,-461,-9.36493,5.23438,0,0,0,0,0,0,0,-1,685,1485,-9.3649,-5.23432
-532,-461,-7.82898,6.78357,0,0,0,0,0,0,0,-1,692,1485,-7.829,-6.78363
-525,-461,-6.37878,8.75659,0,0,0,0,0,0,0,-1,699,1485,-6.3788,-8.75659
-518,-461,-6.49695,10.886,0,0,0,0,0,0,0,-1,706,1485,-6.49696,-10.8859
-511,-461,-10.2714,15.3469,0,0,0,0,0,0,0,-1,713,1485,-10.2714,-15.347
-504,-461,-10.0377,16.0706,0.00267935,0.00127488,0.00316051,0.0052147,-0.00126047,0.676079,0.003964,0.0348274,720,1485,-10.0377,-16.0706
-497,-461,-9.95673,16.8497,0.00194039,0.000726241,0.00221457,0.00362959,-0.000962961,0.651621,0.00279653,0.011507,727,1485,-9.95671,-16.8497
-490,-461,-9.99506,17.5203,0.00147687,0.000437159,0.00156074,0.00260206,-0.000688027,0.624635,0.00200381,0.0131105,734,1485,-9.99505,-17.5203
-483,-461,-10.0309,18.1741,0.00134966,0.000428912,0.00122492,0.00219786,-0.000419294,0.605645,0.00162316,0.0126268,741,1485,-10.0309,-18.1741
-476,-461,-10.0856,18.8137,0.00148408,0.000678702,0.00119139,0.002339,-0.000176215,0.622426,0.00162127,0.0111358,748,1485,-10.0856,-18.8137
-469,-461,-10.0964,19.4757,0.00185557,0.00117853,0.00140529,0.00296253,7.15648e-05,0.667206,0.00195161,0.0128426,755,1485,-10.0964,-19.4757
-462,-461,-10.0957,20.1278,0.00249662,0.00188147,0.0018607,0.00407499,0.000303094,0.703489,0.00262148,0.0191673,762,1485,-10.0957,-20.1278
-455,-461,-10.169,20.7655,0.00336913,0.00280421,0.00257692,0.00567902,0.000494309,0.73081,0.00363247,0.022756,769,1485,-10.169,-20.7656
-448,-461,-10.1967,21.4365,0.00462013,0.00417508,0.00373359,0.00813782,0.000657392,0.755633,0.0052199,0.0203066,776,1485,-10.1967,-21.4365
-441,-461,-10.092,22.1659,0.00628164,0.0057431,0.00523901,0.0112583,0.000766443,0.759722,0.00726354,0.0390093,783,1485,-10.092,-22.1659
-434,-461,-9.85675,23.1136,0,0,0,0,0,0,0,-1,790,1485,-9.85674,-23.1137
-427,-461,-8.26154,21.546,0,0,0,0,0,0,0,-1,797,1485,-8.26153,-21.5461
-420,-461,-5.70355,16.6116,0,0,0,0,0,0,0,-1,804,1485,-5.70353,-16.6115
-413,-461,-5.98798,16.0605,0,0,0,0,0,0,0,-1,811,1485,-5.98796,-16.0605
-406,-461,-5.52667,14.839,0,0,0,0,0,0,0,-1,818,1485,-5.52666,-14.839
-399,-461,-1.93439,9.82849,0,0,0,0,0,0,0,-1,825,1485,-1.9344,-9.82846
-392,-461,-0.357544,5.55225,0,0,0,0,0,0,0,-1,832,1485,-0.357536,-5.55228
-385,-461,1.71509,3.35254,0,0,0,0,0,0,0,-1,839,1485,1.71511,-3.35255
-378,-461,1.95996,3.01111,0,0,0,0,0,0,0,-1,846,1485,1.95993,-3.01111
-371,-461,0.702881,2.33459,0,0,0,0,0,0,0,-1,853,1485,0.702859,-2.33459
-364,-461,-1.93097,2.56458,0,0,0,0,0,0,0,-1,860,1485,-1.93095,-2.56456
-357,-461,-2.41516,3.49487,0,0,0,0,0,0,0,-1,867,1485,-2.41517,-3.49487
-350,-461,0,0,0,0,0,0,0,0,0,-1,874,1485,0,0
-343,-461,0,0,0,0,0,0,0,0,0,-1,881,1485,0,0
-336,-461,0,0,0,0,0,0,0,0,0,-1,888,1485,0,0
-329,-461,0,0,0,0,0,0,0,0,0,-1,895,1485,0,0
-322,-461,0,0,0,0,0,0,0,0,0,-1,902,1485,0,0
-315,-461,0,0,0,0,0,0,0,0,0,-1,909,1485,0,0
-308,-461,0,0,0,0,0,0,0,0,0,-1,916,1485,0,0
-301,-461,0,0,0,0,0,0,0,0,0,-1,923,1485,0,0
-294,-461,0,0,0,0,0,0,0,0,0,-1,930,1485,0,0
-287,-461,0,0,0,0,0,0,0,0,0,-1,937,1485,0,0
-280,-461,0,0,0,0,0,0,0,0,0,-1,944,1485,0,0
-273,-461,0,0,0,0,0,0,0,0,0,-1,951,1485,0,0
-266,-461,0,0,0,0,0,0,0,0,0,-1,958,1485,0,0
-259,-461,0,0,0,0,0,0,0,0,0,-1,965,1485,0,0
-252,-461,0,0,0,0,0,0,0,0,0,-1,972,1485,0,0
-245,-461,0,0,0,0,0,0,0,0,0,-1,979,1485,0,0
-238,-461,0,0,0,0,0,0,0,0,0,-1,986,1485,0,0
-231,-461,0,0,0,0,0,0,0,0,0,-1,993,1485,0,0
-224,-461,0,0,0,0,0,0,0,0,0,-1,1000,1485,0,0
-217,-461,0,0,0,0,0,0,0,0,0,-1,1007,1485,0,0
-210,-461,0,0,0,0,0,0,0,0,0,-1,1014,1485,0,0
-203,-461,0,0,0,0,0,0,0,0,0,-1,1021,1485,0,0
-196,-461,0,0,0,0,0,0,0,0,0,-1,1028,1485,0,0
-189,-461,0,0,0,0,0,0,0,0,0,-1,1035,1485,0,0
-182,-461,0,0,0,0,0,0,0,0,0,-1,1042,1485,0,0
-175,-461,0,0,0,0,0,0,0,0,0,-1,1049,1485,0,0
-168,-461,0,0,0,0,0,0,0,0,0,-1,1056,1485,0,0
-161,-461,0,0,0,0,0,0,0,0,0,-1,1063,1485,0,0
-154,-461,0,0,0,0,0,0,0,0,0,-1,1070,1485,0,0
-147,-461,0,0,0,0,0,0,0,0,0,-1,1077,1485,0,0
-140,-461,0,0,0,0,0,0,0,0,0,-1,1084,1485,0,0
-133,-461,0,0,0,0,0,0,0,0,0,-1,1091,1485,0,0
-126,-461,0,0,0,0,0,0,0,0,0,-1,1098,1485,0,0
-119,-461,0,0,0,0,0,0,0,0,0,-1,1105,1485,0,0
-112,-461,0,0,0,0,0,0,0,0,0,-1,1112,1485,0,0
-105,-461,0,0,0,0,0,0,0,0,0,-1,1119,1485,0,0
-98,-461,0,0,0,0,0,0,0,0,0,-1,1126,1485,0,0
-91,-461,0,0,0,0,0,0,0,0,0,-1,1133,1485,0,0
-84,-461,0,0,0,0,0,0,0,0,0,-1,1140,1485,0,0
-77,-461,0,0,0,0,0,0,0,0,0,-1,1147,1485,0,0
-70,-461,0,0,0,0,0,0,0,0,0,-1,1154,1485,0,0
-63,-461,0,0,0,0,0,0,0,0,0,-1,1161,1485,0,0
-56,-461,0,0,0,0,0,0,0,0,0,-1,1168,1485,0,0
-49,-461,0,0,0,0,0,0,0,0,0,-1,1175,1485,0,0
-42,-461,0,0,0,0,0,0,0,0,0,-1,1182,1485,0,0
-35,-461,0,0,0,0,0,0,0,0,0,-1,1189,1485,0,0
-28,-461,0,0,0,0,0,0,0,0,0,-1,1196,1485,0,0
-21,-461,0,0,0,0,0,0,0,0,0,-1,1203,1485,0,0
-14,-461,0,0,0,0,0,0,0,0,0,-1,1210,1485,0,0
-7,-461,0,0,0,0,0,0,0,0,0,-1,1217,1485,0,0
0,-461,0,0,0,0,0,0,0,0,0,-1,1224,1485,0,0
7,-461,0,0,0,0,0,0,0,0,0,-1,1231,1485,0,0
14,-461,0,0,0,0,0,0,0,0,0,-1,1238,1485,0,0
21,-461,0,0,0,0,0,0,0,0,0,-1,1245,1485,0,0
28,-461,0,0,0,0,0,0,0,0,0,-1,1252,1485,0,0
35,-461,0,0,0,0,0,0,0,0,0,-1,1259,1485,0,0
42,-461,0,0,0,0,0,0,0,0,0,-1,1266,1485,0,0
49,-461,0,0,0,0,0,0,0,0,0,-1,1273,1485,0,0
56,-461,0,0,0,0,0,0,0,0,0,-1,1280,1485,0,0
63,-461,0,0,0,0,0,0,0,0,0,-1,1287,1485,0,0
70,-461,0,0,0,0,0,0,0,0,0,-1,1294,1485,0,0
77,-461,0,0,0,0,0,0,0,0,0,-1,1301,1485,0,0
84,-461,0,0,0,0,0,0,0,0,0,-1,1308,1485,0,0
91,-461,0,0,0,0,0,0,0,0,0,-1,1315,1485,0,0
98,-461,0,0,0,0,0,0,0,0,0,-1,1322,1485,0,0
105,-461,0,0,0,0,0,0,0,0,0,-1,1329,1485,0,0
112,-461,0,0,0,0,0,0,0,0,0,-1,1336,1485,0,0
119,-461,0,0,0,0,0,0,0,0,0,-1,1343,1485,0,0
126,-461,0,0,0,0,0,0,0,0,0,-1,1350,1485,0,0
133,-461,0,0,0,0,0,0,0,0,0,-1,1357,1485,0,0
140,-461,0,0,0,0,0,0,0,0,0,-1,1364,1485,0,0
147,-461,0,0,0,0,0,0,0,0,0,-1,1371,1485,0,0
154,-461,0,0,0,0,0,0,0,0,0,-1,1378,1485,0,0
161,-461,0,0,0,0,0,0,0,0,0,-1,1385,1485,0,0
168,-461,0,0,0,0,0,0,0,0,0,-1,1392,1485,0,0
175,-461,0,0,0,0,0,0,0,0,0,-1,1399,1485,0,0
182,-461,0,0,0,0,0,0,0,0,0,-1,1406,1485,0,0
189,-461,0,0,0,0,0,0,0,0,0,-1,1413,1485,0,0
196,-461,0,0,0,0,0,0,0,0,0,-1,1420,1485,0,0
203,-461,0,0,0,0,0,0,0,0,0,-1,1427,1485,0,0
210,-461,0,0,0,0,0,0,0,0,0,-1,1434,1485,0,0
217,-461,0,0,0,0,0,0,0,0,0,-1,1441,1485,0,0
224,-461,0,0,0,0,0,0,0,0,0,-1,1448,1485,0,0
231,-461,0,0,0,0,0,0,0,0,0,-1,1455,1485,0,0
238,-461,0,0,0,0,0,0,0,0,0,-1,1462,1485,0,0
245,-461,0,0,0,0,0,0,0,0,0,-1,1469,1485,0,0
252,-461,0,0,0,0,0,0,0,0,0,-1,1476,1485,0,0
259,-461,0,0,0,0,0,0,0,0,0,-1,1483,1485,0,0
266,-461,0,0,0,0,0,0,0,0,0,-1,1490,1485,0,0
273,-461,0,0,0,0,0,0,0,0,0,-1,1497,1485,0,0
280,-461,0,0,0,0,0,0,0,0,0,-1,1504,1485,0,0
287,-461,0,0,0,0,0,0,0,0,0,-1,1511,1485,0,0
294,-461,0,0,0,0,0,0,0,0,0,-1,1518,1485,0,0
301,-461,0,0,0,0,0,0,0,0,0,-1,1525,1485,0,0
308,-461,0,0,0,0,0,0,0,0,0,-1,1532,1485,0,0
315,-461,0,0,0,0,0,0,0,0,0,-1,1539,1485,0,0
322,-461,0,0,0,0,0,0,0,0,0,-1,1546,1485,0,0
329,-461,0,0,0,0,0,0,0,0,0,-1,1553,1485,0,0
336,-461,0,0,0,0,0,0,0,0,0,-1,1560,1485,0,0
343,-461,0,0,0,0,0,0,0,0,0,-1,1567,1485,0,0
350,-461,0,0,0,0,0,0,0,0,0,-1,1574,1485,0,0
357,-461,0,0,0,0,0,0,0,0,0,-1,1581,1485,0,0
364,-461,0,0,0,0,0,0,0,0,0,-1,1588,1485,0,0
371,-461,0,0,0,0,0,0,0,0,0,-1,1595,1485,0,0
378,-461,0,0,0,0,0,0,0,0,0,-1,1602,1485,0,0
385,-461,0,0,0,0,0,0,0,0,0,-1,1609,1485,0,0
392,-461,0,0,0,0,0,0,0,0,0,-1,1616,1485,0,0
399,-461,0,0,0,0,0,0,0,0,0,-1,1623,1485,0,0
406,-461,0,0,0,0,0,0,0,0,0,-1,1630,1485,0,0
413,-461,0,0,0,0,0,0,0,0,0,-1,1637,1485,0,0
420,-461,0,0,0,0,0,0,0,0,0,-1,1644,1485,0,0
427,-461,0,0,0,0,0,0,0,0,0,-1,1651,1485,0,0
434,-461,0,0,0,0,0,0,0,0,0,-1,1658,1485,0,0
441,-461,0,0,0,0,0,0,0,0,0,-1,1665,1485,0,0
448,-461,0,0,0,0,0,0,0,0,0,-1,1672,1485,0,0
455,-461,0,0,0,0,0,0,0,0,0,-1,1679,1485,0,0
462,-461,0,0,0,0,0,0,0,0,0,-1,1686,1485,0,0
469,-461,0,0,0,0,0,0,0,0,0,-1,1693,1485,0,0
476,-461,14.1906,0.690552,0,0,0,0,0,0,0,-1,1700,1485,14.1906,-0.690525
483,-461,10.6361,3.09106,0,0,0,0,0,0,0,-1,1707,1485,10.6361,-3.091
490,-461,17.9972,0.665894,0,0,0,0,0,0,0,-1,1714,1485,17.9972,-0.665876
497,-461,16.6829,1.87732,0,0,0,0,0,0,0,-1,1721,1485,16.6828,-1.87736
504,-461,15.3884,3.09216,0,0,0,0,0,0,0,-1,1728,1485,15.3885,-3.09212
511,-461,15.4292,14.3512,0,0,0,0,0,0,0,-1,1735,1485,15.4292,-14.3512
518,-461,14.8081,10.0085,0,0,0,0,0,0,0,-1,1742,1485,14.8081,-10.0086
525,-461,14.0022,10.8033,0,0,0,0,0,0,0,-1,1749,1485,14.0022,-10.8033
532,-461,17.1704,14.077,0,0,0,0,0,0,0,-1,1756,1485,17.1704,-14.077
539,-461,17.0229,14.7386,0,0,0,0,0,0,0,-1,1763,1485,17.0229,-14.7387
546,-461,16.2106,14.1372,0,0,0,0,0,0,0,-1,1770,1485,16.2106,-14.1372
553,-461,25.9354,24.2889,0,0,0,0,0,0,0,-1,1777,1485,25.9354,-24.2889
560,-461,27.0692,24.3586,0,0,0,0,0,0,0,-1,1784,1485,27.0693,-24.3586
567,-461,27.0851,23.6559,0.00701686,0.00327354,-0.00298359,0.00866726,0.00162314,-0.505266,0.00532031,0.0340637,1791,1485,27.0851,-23.6559
574,-461,27.1012,23.1451,0.00565797,0.00268095,-0.00266557,0.00722248,0.00111644,-0.530756,0.00448936,0.0302982,1798,1485,27.1012,-23.1451
581,-461,27.0997,22.5284,0.00460133,0.00222267,-0.00236761,0.00606155,0.000762457,-0.552642,0.00381238,0.0176159,1805,1485,27.0997,-22.5284
588,-461,27.0659,21.9357,0.00378138,0.00172176,-0.00203491,0.00503222,0.000470913,-0.551151,0.00320938,0.0117558,1812,1485,27.0659,-21.9357
595,-461,27.0021,21.3315,0.003221,0.00124819,-0.00169021,0.00419158,0.0002776,-0.521262,0.0027066,0.0103816,1819,1485,27.0021,-21.3316
602,-461,26.9894,20.6957,0.00286396,0.000738731,-0.00137234,0.00353699,6.56995e-05,-0.45596,0.0023364,0.0113764,1826,1485,26.9894,-20.6957
609,-461,26.9698,20.0621,0.00269197,0.000311541,-0.00105274,0.00309074,-8.72298e-05,-0.362091,0.00209018,0.0118129,1833,1485,26.9699,-20.0621
616,-461,26.9501,19.4467,0.00267824,-3.70715e-05,-0.000787966,0.00289034,-0.000249167,-0.262936,0.00201509,0.0138122,1840,1485,26.9501,-19.4467
623,-461,26.9492,18.8666,0.00291138,-0.000444611,-0.000519136,0.00298985,-0.000523081,-0.150019,0.00218853,0.0167711,1847,1485,26.9493,-18.8666
630,-461,26.9354,18.2881,0.00334373,-0.000791486,-0.000305936,0.00336624,-0.000813998,-0.0734503,0.00255902,0.0169074,1854,1485,26.9354,-18.2881
637,-461,26.8964,17.6635,0.00392671,-0.00105412,-0.000203067,0.00393498,-0.00106238,-0.0406797,0.00303997,0.0157007,1861,1485,26.8963,-17.6635
644,-461,26.9426,17.1021,0.00470383,-0.00114277,-0.000262447,0.00471559,-0.00115453,-0.0447688,0.00359098,0.0286237,1868,1485,26.9426,-17.102
651,-461,27.0208,16.5089,0,0,0,0,0,0,0,-1,1875,1485,27.0207,-16.5089
658,-461,16.8987,10.1084,0,0,0,0,0,0,0,-1,1882,1485,16.8986,-10.1084
665,-461,17.2638,9.81384,0,0,0,0,0,0,0,-1,1889,1485,17.2638,-9.81385
672,-461,14.4877,6.89429,0,0,0,0,0,0,0,-1,1896,1485,14.4876,-6.89431
679,-461,10.0535,2.16321,0,0,0,0,0,0,0,-1,1903,1485,10.0535,-2.16317
686,-461,10.8195,1.84192,0,0,0,0,0,0,0,-1,1910,1485,10.8194,-1.84195
693,-461,0,0,0,0,0,0,0,0,0,-1,1917,1485,0,0
700,-461,0,0,0,0,0,0,0,0,0,-1,1924,1485,0,0
707,-461,0,0,0,0,0,0,0,0,0,-1,1931,1485,0,0
714,-461,0,0,0,0,0,0,0,0,0,-1,1938,1485,0,0
721,-461,0,0,0,0,0,0,0,0,0,-1,1945,1485,0,0
728,-461,0,0,0,0,0,0,0,0,0,-1,1952,1485,0,0
735,-461,0,0,0,0,0,0,0,0,0,-1,1959,1485,0,0
742,-461,0,0,0,0,0,0,0,0,0,-1,1966,1485,0,0
749,-461,0,0,0,0,0,0,0,0,0,-1,1973,1485,0,0
756,-461,0,0,0,0,0,0,0,0,0,-1,1980,1485,0,0
763,-461,0,0,0,0,0,0,0,0,0,-1,1987,1485,0,0
770,-461,0,0,0,0,0,0,0,0,0,-1,1994,1485,0,0
777,-461,0,0,0,0,0,0,0,0,0,-1,2001,1485,0,0
784,-461,0,0,0,0,0,0,0,0,0,-1,2008,1485,0,0
791,-461,0,0,0,0,0,0,0,0,0,-1,2015,1485,0,0
798,-461,0,0,0,0,0,0,0,0,0,-1,2022,1485,0,0
805,-461,0,0,0,0,0,0,0,0,0,-1,2029,1485,0,0
812,-461,0,0,0,0,0,0,0,0,0,-1,2036,1485,0,0
-700,-468,0,0,0,0,0,0,0,0,0,-1,524,1492,0,0
-693,-468,0,0,0,0,0,0,0,0,0,-1,531,1492,0,0
-686,-468,0,0,0,0,0,0,0,0,0,-1,538,1492,0,0
-679,-468,0,0,0,0,0,0,0,0,0,-1,545,1492,0,0
-672,-468,0,0,0,0,0,0,0,0,0,-1,552,1492,0,0
-665,-468,0,0,0,0,0,0,0,0,0,-1,559,1492,0,0
-658,-468,0,0,0,0,0,0,0,0,0,-1,566,1492,0,0
-651,-468,0,0,0,0,0,0,0,0,0,-1,573,1492,0,0
-644,-468,0,0,0,0,0,0,0,0,0,-1,580,1492,0,0
-637,-468,0,0,0,0,0,0,0,0,0,-1,587,1492,0,0
-630,-468,0,0,0,0,0,0,0,0,0,-1,594,1492,0,0
-623,-468,0,0,0,0,0,0,0,0,0,-1,601,1492,0,0
-616,-468,0,0,0,0,0,0,0,0,0,-1,608,1492,0,0
-609,-468,0,0,0,0,0,0,0,0,0,-1,615,1492,0,0
-602,-468,0,0,0,0,0,0,0,0,0,-1,622,1492,0,0
-595,-468,0,0,0,0,0,0,0,0,0,-1,629,1492,0,0
-588,-468,0,0,0,0,0,0,0,0,0,-1,636,1492,0,0
-581,-468,0,0,0,0,0,0,0,0,0,-1,643,1492,0,0
-574,-468,0,0,0,0,0,0,0,0,0,-1,650,1492,0,0
-567,-468,-11.2603,1.8042,0,0,0,0,0,0,0,-1,657,1492,-11.2603,-1.80424
-560,-468,-8.77441,2.23694,0,0,0,0,0,0,0,-1,664,1492,-8.77443,-2.23692
-553,-468,-5.94061,9.26318,0,0,0,0,0,0,0,-1,671,1492,-5.94062,-9.26322
-546,-468,-10.47,5.43237,0,0,0,0,0,0,0,-1,678,1492,-10.47,-5.4324
-539,-468,-10.2468,5.45203,0,0,0,0,0,0,0,-1,685,1492,-10.2468,-5.45197
-532,-468,-8.39795,6.02783,0,0,0,0,0,0,0,-1,692,1492,-8.39793,-6.02789
-525,-468,-6.59332,7.15405,0,0,0,0,0,0,0,-1,699,1492,-6.59331,-7.15411
-518,-468,-6.33588,8.65393,0,0,0,0,0,0,0,-1,706,1492,-6.33588,-8.65397
-511,-468,-8.05835,13.8282,0,0,0,0,0,0,0,-1,713,1492,-8.05835,-13.8283
-504,-468,-9.36639,15.9965,0,0,0,0,0,0,0,-1,720,1492,-9.36639,-15.9965
-497,-468,-9.34259,16.8062,0.00171235,0.000178074,0.00226851,0.00333993,-0.0014495,0.62235,0.00283607,0.024148,727,1492,-9.3426,-16.8061
-490,-468,-9.33508,17.5511,0.00111453,-0.000151609,0.00150639,0.00211547,-0.00115254,0.586474,0.0019139,0.00891669,734,1492,-9.33506,-17.5511
-483,-468,-9.38098,18.1981,0.000914135,-0.00015812,0.00110155,0.0016031,-0.000847083,0.558922,0.00143688,0.00908725,741,1492,-9.38097,-18.1981
-476,-468,-9.41687,18.8583,0.000995293,9.28604e-05,0.000993572,0.00163531,-0.000547152,0.572254,0.00131121,0.00949222,748,1492,-9.41687,-18.8582
-469,-468,-9.42627,19.5321,0.00131925,0.000601506,0.00114116,0.00215664,-0.000235884,0.633054,0.00152249,0.0133092,755,1492,-9.42629,-19.5321
-462,-468,-9.41119,20.177,0.00189196,0.0013113,0.00150887,0.00313818,6.50785e-05,0.690352,0.00207077,0.0236271,762,1492,-9.41117,-20.177
-455,-468,-9.46429,20.7755,0.00266482,0.00221482,0.00210481,0.00455662,0.000323021,0.732152,0.002936,0.0242111,769,1492,-9.46426,-20.7755
-448,-468,-9.51385,21.4288,0.00376516,0.00351262,0.00307767,0.00671915,0.000558624,0.764896,0.00430532,0.0149506,776,1492,-9.51385,-21.4288
-441,-468,-9.53662,22.0868,0.00523868,0.00509465,0.00440619,0.00957344,0.000759883,0.777227,0.00614468,0.015819,783,1492,-9.53664,-22.0868
-434,-468,-9.51514,22.8074,0.0070892,0.00726723,0.00620074,0.0133796,0.000976828,0.792576,0.0086126,0.0305277,790,1492,-9.51511,-22.8074
-427,-468,-9.50299,23.5475,0,0,0,0,0,0,0,-1,797,1492,-9.50301,-23.5475
-420,-468,-7.57581,22.0538,0,0,0,0,0,0,0,-1,804,1492,-7.57582,-22.0538
-413,-468,-5.30328,17.3519,0,0,0,0,0,0,0,-1,811,1492,-5.30329,-17.352
-406,-468,-2.2356,9.396,0,0,0,0,0,0,0,-1,818,1492,-2.2356,-9.396
-399,-468,-0.940369,8.1936,0,0,0,0,0,0,0,-1,825,1492,-0.940365,-8.19357
-392,-468,-0.35144,8.14673,0,0,0,0,0,0,0,-1,832,1492,-0.351449,-8.14674
-385,-468,0.465759,5.35864,0,0,0,0,0,0,0,-1,839,1492,0.465732,-5.35864
-378,-468,1.99835,3.25391,0,0,0,0,0,0,0,-1,846,1492,1.99837,-3.2539
-371,-468,-0.31842,3.1532,0,0,0,0,0,0,0,-1,853,1492,-0.318441,-3.15324
-364,-468,-0.966736,2.14563,0,0,0,0,0,0,0,-1,860,1492,-0.966735,-2.14557
-357,-468,-3.06787,3.22742,0,0,0,0,0,0,0,-1,867,1492,-3.06784,-3.2274
-350,-468,-3.18658,4.12659,0,0,0,0,0,0,0,-1,874,1492,-3.18659,-4.12658
-343,-468,0,0,0,0,0,0,0,0,0,-1,881,1492,0,0
-336,-468,0,0,0,0,0,0,0,0,0,-1,888,1492,0,0
-329,-468,0,0,0,0,0,0,0,0,0,-1,895,1492,0,0
-322,-468,0,0,0,0,0,0,0,0,0,-1,902,1492,0,0
-315,-468,0,0,0,0,0,0,0,0,0,-1,909,1492,0,0
-308,-468,0,0,0,0,0,0,0,0,0,-1,916,1492,0,0
-301,-468,0,0,0,0,0,0,0,0,0,-1,923,1492,0,0
-294,-468,0,0,0,0,0,0,0,0,0,-1,930,1492,0,0
-287,-468,0,0,0,0,0,0,0,0,0,-1,937,1492,0,0
-280,-468,0,0,0,0,0,0,0,0,0,-1,944,1492,0,0
-273,-468,0,0,0,0,0,0,0,0,0,-1,951,1492,0,0
-266,-468,0,0,0,0,0,0,0,0,0,-1,958,1492,0,0
-259,-468,0,0,0,0,0,0,0,0,0,-1,965,1492,0,0
-252,-468,0,0,0,0,0,0,0,0,0,-1,972,1492,0,0
-245,-468,0,0,0,0,0,0,0,0,0,-1,979,1492,0,0
-238,-468,0,0,0,0,0,0,0,0,0,-1,986,1492,0,0
-231,-468,0,0,0,0,0,0,0,0,0,-1,993,1492,0,0
-224,-468,0,0,0,0,0,0,0,0,0,-1,1000,1492,0,0
-217,-468,0,0,0,0,0,0,0,0,0,-1,1007,1492,0,0
-210,-468,0,0,0,0,0,0,0,0,0,-1,1014,1492,0,0
-203,-468,0,0,0,0,0,0,0,0,0,-1,1021,1492,0,0
-196,-468,0,0,0,0,0,0,0,0,0,-1,1028,1492,0,0
-189,-468,0,0,0,0,0,0,0,0,0,-1,1035,1492,0,0
-182,-468,0,0,0,0,0,0,0,0,0,-1,1042,1492,0,0
-175,-468,0,0,0,0,0,0,0,0,0,-1,1049,1492,0,0
-168,-468,0,0,0,0,0,0,0,0,0,-1,1056,1492,0,0
-161,-468,0,0,0,0,0,0,0,0,0,-1,1063,1492,0,0
-154,-468,0,0,0,0,0,0,0,0,0,-1,1070,1492,0,0
-147,-468,0,0,0,0,0,0,0,0,0,-1,1077,1492,0,0
-140,-468,0,0,0,0,0,0,0,0,0,-1,1084,1492,0,0
-133,-468,0,0,0,0,0,0,0,0,0,-1,1091,1492,0,0
-126,-468,0,0,0,0,0,0,0,0,0,-1,1098,1492,0,0
-119,-468,0,0,0,0,0,0,0,0,0,-1,1105,1492,0,0
-112,-468,0,0,0,0,0,0,0,0,0,-1,1112,1492,0,0
-105,-468,0,0,0,0,0,0,0,0,0,-1,1119,1492,0,0
-98,-468,0,0,0,0,0,0,0,0,0,-1,1126,1492,0,0
-91,-468,0,0,0,0,0,0,0,0,0,-1,1133,1492,0,0
-84,-468,0,0,0,0,0,0,0,0,0,-1,1140,1492,0,0
-77,-468,0,0,0,0,0,0,0,0,0,-1,1147,1492,0,0
-70,-468,0,0,0,0,0,0,0,0,0,-1,1154,1492,0,0
-63,-468,0,0,0,0,0,0,0,0,0,-1,1161,1492,0,0
-56,-468,0,0,0,0,0,0,0,0,0,-1,1168,1492,0,0
-49,-468,0,0,0,0,0,0,0,0,0,-1,1175,1492,0,0
-42,-468,0,0,0,0,0,0,0,0,0,-1,1182,1492,0,0
-35,-468,0,0,0,0,0,0,0,0,0,-1,1189,1492,0,0
-28,-468,0,0,0,0,0,0,0,0,0,-1,1196,1492,0,0
-21,-468,0,0,0,0,0,0,0,0,0,-1,1203,1492,0,0
-14,-468,0,0,0,0,0,0,0,0,0,-1,1210,1492,0,0
-7,-468,0,0,0,0,0,0,0,0,0,-1,1217,1492,0,0
0,-468,0,0,0,0,0,0,0,0,0,-1,1224,1492,0,0
7,-468,0,0,0,0,0,0,0,0,0,-1,1231,1492,0,0
14,-468,0,0,0,0,0,0,0,0,0,-1,1238,1492,0,0
21,-468,0,0,0,0,0,0,0,0,0,-1,1245,1492,0,0
28,-468,0,0,0,0,0,0,0,0,0,-1,1252,1492,0,0
35,-468,0,0,0,0,0,0,0,0,0,-1,1259,1492,0,0
42,-468,0,0,0,0,0,0,0,0,0,-1,1266,1492,0,0
49,-468,0,0,0,0,0,0,0,0,0,-1,1273,1492,0,0
56,-468,0,0,0,0,0,0,0,0,0,-1,1280,1492,0,0
63,-468,0,0,0,0,0,0,0,0,0,-1,1287,1492,0,0
70,-468,0,0,0,0,0,0,0,0,0,-1,1294,1492,0,0
77,-468,0,0,0,0,0,0,0,0,0,-1,1301,1492,0,0
84,-468,0,0,0,0,0,0,0,0,0,-1,1308,1492,0,0
91,-468,0,0,0,0,0,0,0,0,0,-1,1315,1492,0,0
98,-468,0,0,0,0,0,0,0,0,0,-1,1322,1492,0,0
105,-468,0,0,0,0,0,0,0,0,0,-1,1329,1492,0,0
112,-468,0,0,0,0,0,0,0,0,0,-1,1336,1492,0,0
119,-468,0,0,0,0,0,0,0,0,0,-1,1343,1492,0,0
126,-468,0,0,0,0,0,0,0,0,0,-1,1350,1492,0,0
133,-468,0,0,0,0,0,0,0,0,0,-1,1357,1492,0,0
140,-468,0,0,0,0,0,0,0,0,0,-1,1364,1492,0,0
147,-468,0,0,0,0,0,0,0,0,0,-1,1371,1492,0,0
154,-468,0,0,0,0,0,0,0,0,0,-1,1378,1492,0,0
161,-468,0,0,0,0,0,0,0,0,0,-1,1385,1492,0,0
168,-468,0,0,0,0,0,0,0,0,0,-1,1392,1492,0,0
175,-468,0,0,0,0,0,0,0,0,0,-1,1399,1492,0,0
182,-468,0,0,0,0,0,0,0,0,0,-1,1406,1492,0,0
189,-468,0,0,0,0,0,0,0,0,0,-1,1413,1492,0,0
196,-468,0,0,0,0,0,0,0,0,0,-1,1420,1492,0,0
203,-468,0,0,0,0,0,0,0,0,0,-1,1427,1492,0,0
210,-468,0,0,0,0,0,0,0,0,0,-1,1434,1492,0,0
217,-468,0,0,0,0,0,0,0,0,0,-1,1441,1492,0,0
224,-468,0,0,0,0,0,0,0,0,0,-1,1448,1492,0,0
231,-468,0,0,0,0,0,0,0,0,0,-1,1455,1492,0,0
238,-468,0,0,0,0,0,0,0,0,0,-1,1462,1492,0,0
245,-468,0,0,0,0,0,0,0,0,0,-1,1469,1492,0,0
252,-468,0,0,0,0,0,0,0,0,0,-1,1476,1492,0,0
259,-468,0,0,0,0,0,0,0,0,0,-1,1483,1492,0,0
266,-468,0,0,0,0,0,0,0,0,0,-1,1490,1492,0,0
273,-468,0,0,0,0,0,0,0,0,0,-1,1497,1492,0,0
280,-468,0,0,0,0,0,0,0,0,0,-1,1504,1492,0,0
287,-468,0,0,0,0,0,0,0,0,0,-1,1511,1492,0,0
294,-468,0,0,0,0,0,0,0,0,0,-1,1518,1492,0,0
301,-468,0,0,0,0,0,0,0,0,0,-1,1525,1492,0,0
308,-468,0,0,0,0,0,0,0,0,0,-1,1532,1492,0,0
315,-468,0,0,0,0,0,0,0,0,0,-1,1539,1492,0,0
322,-468,0,0,0,0,0,0,0,0,0,-1,1546,1492,0,0
329,-468,0,0,0,0,0,0,0,0,0,-1,1553,1492,0,0
336,-468,0,0,0,0,0,0,0,0,0,-1,1560,1492,0,0
343,-468,0,0,0,0,0,0,0,0,0,-1,1567,1492,0,0
350,-468,0,0,0,0,0,0,0,0,0,-1,1574,1492,0,0
357,-468,0,0,0,0,0,0,0,0,0,-1,1581,1492,0,0
364,-468,0,0,0,0,0,0,0,0,0,-1,1588,1492,0,0
371,-468,0,0,0,0,0,0,0,0,0,-1,1595,1492,0,0
378,-468,0,0,0,0,0,0,0,0,0,-1,1602,1492,0,0
385,-468,0,0,0,0,0,0,0,0,0,-1,1609,1492,0,0
392,-468,0,0,0,0,0,0,0,0,0,-1,1616,1492,0,0
399,-468,0,0,0,0,0,0,0,0,0,-1,1623,1492,0,0
406,-468,0,0,0,0,0,0,0,0,0,-1,1630,1492,0,0
413,-468,0,0,0,0,0,0,0,0,0,-1,1637,1492,0,0
420,-468,0,0,0,0,0,0,0,0,0,-1,1644,1492,0,0
427,-468,0,0,0,0,0,0,0,0,0,-1,1651,1492,0,0
434,-468,0,0,0,0,0,0,0,0,0,-1,1658,1492,0,0
441,-468,0,0,0,0,0,0,0,0,0,-1,1665,1492,0,0
448,-468,0,0,0,0,0,0,0,0,0,-1,1672,1492,0,0
455,-468,0,0,0,0,0,0,0,0,0,-1,1679,1492,0,0
462,-468,0,0,0,0,0,0,0,0,0,-1,1686,1492,0,0
469,-468,15.6879,1.2677,0,0,0,0,0,0,0,-1,1693,1492,15.6879,-1.26772
476,-468,14.9318,1.61865,0,0,0,0,0,0,0,-1,1700,1492,14.9318,-1.61869
483,-468,11.265,4.64795,0,0,0,0,0,0,0,-1,1707,1492,11.265,-4.64798
490,-468,12.1316,3.51624,0,0,0,0,0,0,0,-1,1714,1492,12.1316,-3.51628
497,-468,16.5355,3.14587,0,0,0,0,0,0,0,-1,1721,1492,16.5356,-3.14583
504,-468,15.0642,4.10437,0,0,0,0,0,0,0,-1,1728,1492,15.0643,-4.10431
511,-468,15.6877,9.4801,0,0,0,0,0,0,0,-1,1735,1492,15.6878,-9.48007
518,-468,13.759,11.0887,0,0,0,0,0,0,0,-1,1742,1492,13.759,-11.0887
525,-468,16.6531,14.2238,0,0,0,0,0,0,0,-1,1749,1492,16.653,-14.2237
532,-468,16.9696,15.9641,0,0,0,0,0,0,0,-1,1756,1492,16.9696,-15.9641
539,-468,21.5308,20.7551,0,0,0,0,0,0,0,-1,1763,1492,21.5308,-20.7551
546,-468,25.5796,25.0283,0,0,0,0,0,0,0,-1,1770,1492,25.5796,-25.0284
553,-468,26.2645,24.9692,0,0,0,0,0,0,0,-1,1777,1492,26.2645,-24.9693
560,-468,26.457,24.369,0.00779696,0.00426358,-0.0034433,0.00990035,0.0021602,-0.548369,0.00601098,0.0408481,1784,1492,26.4571,-24.3691
567,-468,26.4672,23.7986,0.0060964,0.00310919,-0.00265651,0.0076504,0.00155519,-0.529301,0.00466902,0.0217008,1791,1492,26.4672,-23.7986
574,-468,26.4973,23.1559,0.00489998,0.00243457,-0.00229389,0.00627141,0.00106314,-0.538845,0.00387547,0.0152782,1798,1492,26.4973,-23.1559
581,-468,26.4974,22.5829,0.00396541,0.00191218,-0.00198274,0.00517156,0.000706035,-0.546514,0.00323812,0.0162244,1805,1492,26.4975,-22.5829
588,-468,26.437,21.9841,0.00330348,0.00142376,-0.00169903,0.00430528,0.00042196,-0.53276,0.00274038,0.0140675,1812,1492,26.437,-21.9842
595,-468,26.4091,21.3516,0.00293247,0.000953877,-0.00142044,0.00367417,0.000212177,-0.481221,0.00238187,0.0122919,1819,1492,26.409,-21.3515
602,-468,26.3969,20.7119,0.00272497,0.000486727,-0.00118065,0.00323261,-2.09166e-05,-0.406073,0.00216208,0.0108816,1826,1492,26.3969,-20.7119
609,-468,26.3586,20.0886,0.00269278,0.000101002,-0.000925511,0.00298934,-0.00019556,-0.310093,0.00206117,0.0107739,1833,1492,26.3587,-20.0886
616,-468,26.3213,19.4663,0.00284382,-0.000250565,-0.000688826,0.00299023,-0.000396974,-0.209432,0.00213813,0.0102537,1840,1492,26.3213,-19.4662
623,-468,26.3157,18.874,0.00323041,-0.000711474,-0.000411875,0.00327298,-0.00075405,-0.103005,0.00247198,0.0117416,1847,1492,26.3157,-18.8741
630,-468,26.3108,18.2698,0.00377902,-0.00108634,-0.000159128,0.00378421,-0.00109154,-0.0326599,0.00295464,0.0124847,1854,1492,26.3108,-18.2697
637,-468,26.3008,17.6498,0.00447301,-0.00147482,2.22855e-05,0.00447309,-0.0014749,0.00374676,0.00357654,0.0142166,1861,1492,26.3008,-17.6498
644,-468,26.3724,17.1837,0.00532998,-0.00177396,9.35641e-05,0.00533122,-0.00177519,0.0131677,0.00427068,0.0363117,1868,1492,26.3725,-17.1837
651,-468,26.5671,16.714,0,0,0,0,0,0,0,-1,1875,1492,26.5671,-16.714
658,-468,16.4969,10.0774,0,0,0,0,0,0,0,-1,1882,1492,16.497,-10.0774
665,-468,15.4673,8.59546,0,0,0,0,0,0,0,-1,1889,1492,15.4672,-8.59548
672,-468,9.96814,3.61133,0,0,0,0,0,0,0,-1,1896,1492,9.96817,-3.61139
679,-468,11.2191,1.91968,0,0,0,0,0,0,0,-1,1903,1492,11.2191,-1.91965
686,-468,11.9252,1.42285,0,0,0,0,0,0,0,-1,1910,1492,11.9252,-1.42291
693,-468,0,0,0,0,0,0,0,0,0,-1,1917,1492,0,0
700,-468,0,0,0,0,0,0,0,0,0,-1,1924,1492,0,0
707,-468,0,0,0,0,0,0,0,0,0,-1,1931,1492,0,0
714,-468,0,0,0,0,0,0,0,0,0,-1,1938,1492,0,0
721,-468,0,0,0,0,0,0,0,0,0,-1,1945,1492,0,0
728,-468,0,0,0,0,0,0,0,0,0,-1,1952,1492,0,0
735,-468,0,0,0,0,0,0,0,0,0,-1,1959,1492,0,0
742,-468,0,0,0,0,0,0,0,0,0,-1,1966,1492,0,0
749,-468,0,0,0,0,0,0,0,0,0,-1,1973,1492,0,0
756,-468,0,0,0,0,0,0,0,0,0,-1,1980,1492,0,0
763,-468,0,0,0,0,0,0,0,0,0,-1,1987,1492,0,0
770,-468,0,0,0,0,0,0,0,0,0,-1,1994,1492,0,0
777,-468,0,0,0,0,0,0,0,0,0,-1,2001,1492,0,0
784,-468,0,0,0,0,0,0,0,0,0,-1,2008,1492,0,0
791,-468,0,0,0,0,0,0,0,0,0,-1,2015,1492,0,0
798,-468,0,0,0,0,0,0,0,0,0,-1,2022,1492,0,0
805,-468,0,0,0,0,0,0,0,0,0,-1,2029,1492,0,0
812,-468,0,0,0,0,0,0,0,0,0,-1,2036,1492,0,0
-700,-475,0,0,0,0,0,0,0,0,0,-1,524,1499,0,0
-693,-475,0,0,0,0,0,0,0,0,0,-1,531,1499,0,0
-686,-475,0,0,0,0,0,0,0,0,0,-1,538,1499,0,0
-679,-475,0,0,0,0,0,0,0,0,0,-1,545,1499,0,0
-672,-475,0,0,0,0,0,0,0,0,0,-1,552,1499,0,0
-665,-475,0,0,0,0,0,0,0,0,0,-1,559,1499,0,0
-658,-475,0,0,0,0,0,0,0,0,0,-1,566,1499,0,0
-651,-475,0,0,0,0,0,0,0,0,0,-1,573,1499,0,0
-644,-475,0,0,0,0,0,0,0,0,0,-1,580,1499,0,0
-637,-475,0,0,0,0,0,0,0,0,0,-1,587,1499,0,0
-630,-475,0,0,0,0,0,0,0,0,0,-1,594,1499,0,0
-623,-475,0,0,0,0,0,0,0,0,0,-1,601,1499,0,0
-616,-475,0,0,0,0,0,0,0,0,0,-1,608,1499,0,0
-609,-475,0,0,0,0,0,0,0,0,0,-1,615,1499,0,0
-602,-475,0,0,0,0,0,0,0,0,0,-1,622,1499,0,0
-595,-475,0,0,0,0,0,0,0,0,0,-1,629,1499,0,0
-588,-475,0,0,0,0,0,0,0,0,0,-1,636,1499,0,0
-581,-475,0,0,0,0,0,0,0,0,0,-1,643,1499,0,0
-574,-475,0,0,0,0,0,0,0,0,0,-1,650,1499,0,0
-567,-475,0,0,0,0,0,0,0,0,0,-1,657,1499,0,0
-560,-475,-9.42731,9.29517,0,0,0,0,0,0,0,-1,664,1499,-9.42731,-9.29519
-553,-475,-8.15131,8.78369,0,0,0,0,0,0,0,-1,671,1499,-8.15131,-8.78367
-546,-475,-8.41254,8.20654,0,0,0,0,0,0,0,-1,678,1499,-8.41251,-8.20655
-539,-475,-4.7345,4.17419,0,0,0,0,0,0,0,-1,685,1499,-4.73449,-4.17418
-532,-475,-7.07379,4.25024,0,0,0,0,0,0,0,-1,692,1499,-7.07378,-4.2503
-525,-475,-6.13147,5.82166,0,0,0,0,0,0,0,-1,699,1499,-6.1315,-5.8216
-518,-475,-7.28784,9.31506,0,0,0,0,0,0,0,-1,706,1499,-7.28782,-9.315
-511,-475,-6.84851,12.4244,0,0,0,0,0,0,0,-1,713,1499,-6.84851,-12.4244
-504,-475,-8.69482,16.1324,0,0,0,0,0,0,0,-1,720,1499,-8.69482,-16.1325
-497,-475,-8.71234,16.9971,0.00155134,-0.000903898,0.00218994,0.00283428,-0.00218683,0.529936,0.00290696,0.0483102,727,1499,-8.71235,-16.9971
-490,-475,-8.71228,17.5573,0.000848582,-0.00123611,0.0013138,0.0014833,-0.00187083,0.450051,0.00194081,0.0150341,734,1499,-8.7123,-17.5573
-483,-475,-8.72925,18.2572,0.000588836,-0.0012011,0.000843676,0.00092381,-0.00153607,0.377953,0.0014348,0.00902248,741,1499,-8.72923,-18.2573
-476,-475,-8.7594,18.899,0.000604892,-0.000889729,0.000668212,0.000860068,-0.00114491,0.364788,0.00116146,0.0106084,748,1499,-8.75941,-18.899
-469,-475,-8.77057,19.5524,0.000849982,-0.000302978,0.000771946,0.00123695,-0.000689945,0.464677,0.00112734,0.0138461,755,1499,-8.77059,-19.5524
-462,-475,-8.75739,20.199,0.0013127,0.000495431,0.00108488,0.00206335,-0.000255221,0.605284,0.00146805,0.0194274,762,1499,-8.75741,-20.199
-455,-475,-8.8103,20.8375,0.00194249,0.00147743,0.00160435,0.00333107,8.88485e-05,0.71343,0.0021917,0.0163921,769,1499,-8.81029,-20.8375
-448,-475,-8.8717,21.4897,0.00285165,0.00281641,0.00245457,0.00528866,0.000379393,0.781809,0.00340636,0.0138002,776,1499,-8.87171,-21.4898
-441,-475,-8.90271,22.1489,0.00408266,0.00446872,0.00363996,0.00792077,0.000630614,0.811889,0.00508336,0.0157092,783,1499,-8.9027,-22.149
-434,-475,-8.89355,22.7595,0.00560975,0.00663402,0.00521856,0.0113655,0.000878253,0.83431,0.00730189,0.0107339,790,1499,-8.89353,-22.7595
-427,-475,-8.83453,23.5206,0.00747204,0.00911823,0.00719963,0.0155417,0.00104861,0.842313,0.0100299,0.032995,797,1499,-8.83456,-23.5206
-420,-475,-8.75238,24.2808,0,0,0,0,0,0,0,-1,804,1499,-8.75239,-24.2807
-413,-475,-6.46777,20.8481,0,0,0,0,0,0,0,-1,811,1499,-6.46776,-20.8481
-406,-475,-2.56116,12.4956,0,0,0,0,0,0,0,-1,818,1499,-2.56116,-12.4956
-399,-475,-1.39667,6.1615,0,0,0,0,0,0,0,-1,825,1499,-1.39664,-6.16155
-392,-475,0.217163,8.61389,0,0,0,0,0,0,0,-1,832,1499,0.217167,-8.6139
-385,-475,1.18372,2.73999,0,0,0,0,0,0,0,-1,839,1499,1.18372,-2.73995
-378,-475,1.31409,2.90149,0,0,0,0,0,0,0,-1,846,1499,1.31411,-2.90151
-371,-475,2.3476,3.31116,0,0,0,0,0,0,0,-1,853,1499,2.34761,-3.31121
-364,-475,1.04462,9.05823,0,0,0,0,0,0,0,-1,860,1499,1.04461,-9.05825
-357,-475,-0.262756,7.97205,0,0,0,0,0,0,0,-1,867,1499,-0.262784,-7.97205
-350,-475,-2.77173,4.35486,0,0,0,0,0,0,0,-1,874,1499,-2.77175,-4.35491
-343,-475,-6.38824,-1.48096,0,0,0,0,0,0,0,-1,881,1499,-6.38827,1.48097
-336,-475,0,0,0,0,0,0,0,0,0,-1,888,1499,0,0
-329,-475,0,0,0,0,0,0,0,0,0,-1,895,1499,0,0
-322,-475,0,0,0,0,0,0,0,0,0,-1,902,1499,0,0
-315,-475,0,0,0,0,0,0,0,0,0,-1,909,1499,0,0
-308,-475,0,0,0,0,0,0,0,0,0,-1,916,1499,0,0
-301,-475,0,0,0,0,0,0,0,0,0,-1,923,1499,0,0
-294,-475,0,0,0,0,0,0,0,0,0,-1,930,1499,0,0
-287,-475,0,0,0,0,0,0,0,0,0,-1,937,1499,0,0
-280,-475,0,0,0,0,0,0,0,0,0,-1,944,1499,0,0
-273,-475,0,0,0,0,0,0,0,0,0,-1,951,1499,0,0
-266,-475,0,0,0,0,0,0,0,0,0,-1,958,1499,0,0
-259,-475,0,0,0,0,0,0,0,0,0,-1,965,1499,0,0
-252,-475,0,0,0,0,0,0,0,0,0,-1,972,1499,0,0
-245,-475,0,0,0,0,0,0,0,0,0,-1,979,1499,0,0
-238,-475,0,0,0,0,0,0,0,0,0,-1,986,1499,0,0
-231,-475,0,0,0,0,0,0,0,0,0,-1,993,1499,0,0
-224,-475,0,0,0,0,0,0,0,0,0,-1,1000,1499,0,0
-217,-475,0,0,0,0,0,0,0,0,0,-1,1007,1499,0,0
-210,-475,0,0,0,0,0,0,0,0,0,-1,1014,1499,0,0
-203,-475,0,0,0,0,0,0,0,0,0,-1,1021,1499,0,0
-196,-475,0,0,0,0,0,0,0,0,0,-1,1028,1499,0,0
-189,-475,0,0,0,0,0,0,0,0,0,-1,1035,1499,0,0
-182,-475,0,0,0,0,0,0,0,0,0,-1,1042,1499,0,0
-175,-475,0,0,0,0,0,0,0,0,0,-1,1049,1499,0,0
-168,-475,0,0,0,0,0,0,0,0,0,-1,1056,1499,0,0
-161,-475,0,0,0,0,0,0,0,0,0,-1,1063,1499,0,0
-154,-475,0,0,0,0,0,0,0,0,0,-1,1070,1499,0,0
-147,-475,0,0,0,0,0,0,0,0,0,-1,1077,1499,0,0
-140,-475,0,0,0,0,0,0,0,0,0,-1,1084,1499,0,0
-133,-475,0,0,0,0,0,0,0,0,0,-1,1091,1499,0,0
-126,-475,0,0,0,0,0,0,0,0,0,-1,1098,1499,0,0
-119,-475,0,0,0,0,0,0,0,0,0,-1,1105,1499,0,0
-112,-475,0,0,0,0,0,0,0,0,0,-1,1112,1499,0,0
-105,-475,0,0,0,0,0,0,0,0,0,-1,1119,1499,0,0
-98,-475,0,0,0,0,0,0,0,0,0,-1,1126,1499,0,0
-91,-475,0,0,0,0,0,0,0,0,0,-1,1133,1499,0,0
-84,-475,0,0,0,0,0,0,0,0,0,-1,1140,1499,0,0
-77,-475,0,0,0,0,0,0,0,0,0,-1,1147,1499,0,0
-70,-475,0,0,0,0,0,0,0,0,0,-1,1154,1499,0,0
-63,-475,0,0,0,0,0,0,0,0,0,-1,1161,1499,0,0
-56,-475,0,0,0,0,0,0,0,0,0,-1,1168,1499,0,0
-49,-475,0,0,0,0,0,0,0,0,0,-1,1175,1499,0,0
-42,-475,0,0,0,0,0,0,0,0,0,-1,1182,1499,0,0
-35,-475,0,0,0,0,0,0,0,0,0,-1,1189,1499,0,0
-28,-475,0,0,0,0,0,0,0,0,0,-1,1196,1499,0,0
-21,-475,0,0,0,0,0,0,0,0,0,-1,1203,1499,0,0
-14,-475,0,0,0,0,0,0,0,0,0,-1,1210,1499,0,0
-7,-475,0,0,0,0,0,0,0,0,0,-1,1217,1499,0,0
0,-475,0,0,0,0,0,0,0,0,0,-1,1224,1499,0,0
7,-475,0,0,0,0,0,0,0,0,0,-1,1231,1499,0,0
14,-475,0,0,0,0,0,0,0,0,0,-1,1238,1499,0,0
21,-475,0,0,0,0,0,0,0,0,0,-1,1245,1499,0,0
28,-475,0,0,0,0,0,0,0,0,0,-1,1252,1499,0,0
35,-475,0,0,0,0,0,0,0,0,0,-1,1259,1499,0,0
42,-475,0,0,0,0,0,0,0,0,0,-1,1266,1499,0,0
49,-475,0,0,0,0,0,0,0,0,0,-1,1273,1499,0,0
56,-475,0,0,0,0,0,0,0,0,0,-1,1280,1499,0,0
63,-475,0,0,0,0,0,0,0,0,0,-1,1287,1499,0,0
70,-475,0,0,0,0,0,0,0,0,0,-1,1294,1499,0,0
77,-475,0,0,0,0,0,0,0,0,0,-1,1301,1499,0,0
84,-475,0,0,0,0,0,0,0,0,0,-1,1308,1499,0,0
91,-475,0,0,0,0,0,0,0,0,0,-1,1315,1499,0,0
98,-475,0,0,0,0,0,0,0,0,0,-1,1322,1499,0,0
105,-475,0,0,0,0,0,0,0,0,0,-1,1329,1499,0,0
112,-475,0,0,0,0,0,0,0,0,0,-1,1336,1499,0,0
119,-475,0,0,0,0,0,0,0,0,0,-1,1343,1499,0,0
126,-475,0,0,0,0,0,0,0,0,0,-1,1350,1499,0,0
133,-475,0,0,0,0,0,0,0,0,0,-1,1357,1499,0,0
140,-475,0,0,0,0,0,0,0,0,0,-1,1364,1499,0,0
147,-475,0,0,0,0,0,0,0,0,0,-1,1371,1499,0,0
154,-475,0,0,0,0,0,0,0,0,0,-1,1378,1499,0,0
161,-475,0,0,0,0,0,0,0,0,0,-1,1385,1499,0,0
168,-475,0,0,0,0,0,0,0,0,0,-1,1392,1499,0,0
175,-475,0,0,0,0,0,0,0,0,0,-1,1399,1499,0,0
182,-475,0,0,0,0,0,0,0,0,0,-1,1406,1499,0,0
189,-475,0,0,0,0,0,0,0,0,0,-1,1413,1499,0,0
196,-475,0,0,0,0,0,0,0,0,0,-1,1420,1499,0,0
203,-475,0,0,0,0,0,0,0,0,0,-1,1427,1499,0,0
210,-475,0,0,0,0,0,0,0,0,0,-1,1434,1499,0,0
217,-475,0,0,0,0,0,0,0,0,0,-1,1441,1499,0,0
224,-475,0,0,0,0,0,0,0,0,0,-1,1448,1499,0,0
231,-475,0,0,0,0,0,0,0,0,0,-1,1455,1499,0,0
238,-475,0,0,0,0,0,0,0,0,0,-1,1462,1499,0,0
245,-475,0,0,0,0,0,0,0,0,0,-1,1469,1499,0,0
252,-475,0,0,0,0,0,0,0,0,0,-1,1476,1499,0,0
259,-475,0,0,0,0,0,0,0,0,0,-1,1483,1499,0,0
266,-475,0,0,0,0,0,0,0,0,0,-1,1490,1499,0,0
273,-475,0,0,0,0,0,0,0,0,0,-1,1497,1499,0,0
280,-475,0,0,0,0,0,0,0,0,0,-1,1504,1499,0,0
287,-475,0,0,0,0,0,0,0,0,0,-1,1511,1499,0,0
294,-475,0,0,0,0,0,0,0,0,0,-1,1518,1499,0,0
301,-475,0,0,0,0,0,0,0,0,0,-1,1525,1499,0,0
308,-475,0,0,0,0,0,0,0,0,0,-1,1532,1499,0,0
315,-475,0,0,0,0,0,0,0,0,0,-1,1539,1499,0,0
322,-475,0,0,0,0,0,0,0,0,0,-1,1546,1499,0,0
329,-475,0,0,0,0,0,0,0,0,0,-1,1553,1499,0,0
336,-475,0,0,0,0,0,0,0,0,0,-1,1560,1499,0,0
343,-475,0,0,0,0,0,0,0,0,0,-1,1567,1499,0,0
350,-475,0,0,0,0,0,0,0,0,0,-1,1574,1499,0,0
357,-475,0,0,0,0,0,0,0,0,0,-1,1581,1499,0,0
364,-475,0,0,0,0,0,0,0,0,0,-1,1588,1499,0,0
371,-475,0,0,0,0,0,0,0,0,0,-1,1595,1499,0,0
378,-475,0,0,0,0,0,0,0,0,0,-1,1602,1499,0,0
385,-475,0,0,0,0,0,0,0,0,0,-1,1609,1499,0,0
392,-475,0,0,0,0,0,0,0,0,0,-1,1616,1499,0,0
399,-475,0,0,0,0,0,0,0,0,0,-1,1623,1499,0,0
406,-475,0,0,0,0,0,0,0,0,0,-1,1630,1499,0,0
413,-475,0,0,0,0,0,0,0,0,0,-1,1637,1499,0,0
420,-475,0,0,0,0,0,0,0,0,0,-1,1644,1499,0,0
427,-475,0,0,0,0,0,0,0,0,0,-1,1651,1499,0,0
434,-475,0,0,0,0,0,0,0,0,0,-1,1658,1499,0,0
441,-475,0,0,0,0,0,0,0,0,0,-1,1665,1499,0,0
448,-475,0,0,0,0,0,0,0,0,0,-1,1672,1499,0,0
455,-475,0,0,0,0,0,0,0,0,0,-1,1679,1499,0,0
462,-475,12.6372,0.275391,0,0,0,0,0,0,0,-1,1686,1499,12.6372,-0.27536
469,-475,15.6437,2.28296,0,0,0,0,0,0,0,-1,1693,1499,15.6437,-2.28293
476,-475,15.3302,2.71436,0,0,0,0,0,0,0,-1,1700,1499,15.3303,-2.7143
483,-475,10.7461,5.91479,0,0,0,0,0,0,0,-1,1707,1499,10.7461,-5.91476
490,-475,11.9305,4.4364,0,0,0,0,0,0,0,-1,1714,1499,11.9305,-4.43644
497,-475,15.3451,4.3479,0,0,0,0,0,0,0,-1,1721,1499,15.3451,-4.34789
504,-475,16.9646,7.71265,0,0,0,0,0,0,0,-1,1728,1499,16.9646,-7.71265
511,-475,18.941,12.7572,0,0,0,0,0,0,0,-1,1735,1499,18.941,-12.7572
518,-475,17.0021,13.8564,0,0,0,0,0,0,0,-1,1742,1499,17.0021,-13.8564
525,-475,17.5637,15.2103,0,0,0,0,0,0,0,-1,1749,1499,17.5637,-15.2103
532,-475,20.8623,20.8413,0,0,0,0,0,0,0,-1,1756,1499,20.8623,-20.8413
539,-475,20.5494,20.8519,0,0,0,0,0,0,0,-1,1763,1499,20.5494,-20.852
546,-475,20.4524,19.8799,0,0,0,0,0,0,0,-1,1770,1499,20.4524,-19.8798
553,-475,25.6305,25.2029,0,0,0,0,0,0,0,-1,1777,1499,25.6305,-25.2029
560,-475,25.7402,24.5135,0.00665757,0.00394159,-0.00313851,0.00871929,0.00187987,-0.581217,0.00529859,0.0297001,1784,1499,25.7403,-24.5135
567,-475,25.9131,23.7847,0.00527207,0.00282351,-0.00240503,0.0067465,0.00134908,-0.549968,0.00412223,0.0151607,1791,1499,25.9131,-23.7847
574,-475,25.8719,23.1765,0.00429143,0.00214253,-0.00204435,0.00552648,0.000907474,-0.543451,0.00342217,0.014812,1798,1499,25.872,-23.1766
581,-475,25.8499,22.6016,0.00352619,0.00160275,-0.00174436,0.00455637,0.000572567,-0.533466,0.00286586,0.012577,1805,1499,25.8498,-22.6015
588,-475,25.8179,21.9838,0.00302277,0.00115513,-0.00151139,0.00386555,0.000312342,-0.508676,0.00247949,0.0108679,1812,1499,25.8178,-21.9838
595,-475,25.8102,21.3601,0.00281575,0.000715692,-0.00129874,0.00343584,9.56034e-05,-0.445448,0.00225937,0.0120102,1819,1499,25.8102,-21.3601
602,-475,25.7822,20.7225,0.00274503,0.000314737,-0.00113672,0.00319383,-0.000134063,-0.376033,0.00217529,0.0140991,1826,1499,25.7822,-20.7225
609,-475,25.7417,20.1274,0.00284052,-1.01875e-05,-0.000948441,0.00312723,-0.000296901,-0.293565,0.00219051,0.0130656,1833,1499,25.7417,-20.1274
616,-475,25.7041,19.5337,0.00316035,-0.000365676,-0.000737516,0.0033084,-0.000513721,-0.198102,0.00239527,0.0115755,1840,1499,25.7041,-19.5337
623,-475,25.7068,18.8778,0.00370081,-0.000893725,-0.000440928,0.00374274,-0.000935657,-0.0948149,0.00285855,0.0113509,1847,1499,25.7067,-18.8779
630,-475,25.7051,18.2581,0.00437277,-0.00128652,-0.000135581,0.00437602,-0.00128976,-0.0239389,0.00342909,0.0129806,1854,1499,25.705,-18.258
637,-475,25.6893,17.6746,0.00517622,-0.00182418,0.000170977,0.0051804,-0.00182835,0.0244045,0.00419793,0.0236099,1861,1499,25.6893,-17.6745
644,-475,25.6584,17.1053,0,0,0,0,0,0,0,-1,1868,1499,25.6584,-17.1053
651,-475,11.7965,7.57593,0,0,0,0,0,0,0,-1,1875,1499,11.7965,-7.5759
658,-475,14.6708,8.80322,0,0,0,0,0,0,0,-1,1882,1499,14.6708,-8.8032
665,-475,9.33435,5.43335,0,0,0,0,0,0,0,-1,1889,1499,9.33439,-5.43332
672,-475,9.38635,1.10474,0,0,0,0,0,0,0,-1,1896,1499,9.38629,-1.10475
679,-475,12.2594,1.31079,0,0,0,0,0,0,0,-1,1903,1499,12.2594,-1.31077
686,-475,0,0,0,0,0,0,0,0,0,-1,1910,1499,0,0
693,-475,0,0,0,0,0,0,0,0,0,-1,1917,1499,0,0
700,-475,0,0,0,0,0,0,0,0,0,-1,1924,1499,0,0
707,-475,0,0,0,0,0,0,0,0,0,-1,1931,1499,0,0
714,-475,0,0,0,0,0,0,0,0,0,-1,1938,1499,0,0
721,-475,0,0,0,0,0,0,0,0,0,-1,1945,1499,0,0
728,-475,0,0,0,0,0,0,0,0,0,-1,1952,1499,0,0
735,-475,0,0,0,0,0,0,0,0,0,-1,1959,1499,0,0
742,-475,0,0,0,0,0,0,0,0,0,-1,1966,1499,0,0
749,-475,0,0,0,0,0,0,0,0,0,-1,1973,1499,0,0
756,-475,0,0,0,0,0,0,0,0,0,-1,1980,1499,0,0
763,-475,0,0,0,0,0,0,0,0,0,-1,1987,1499,0,0
770,-475,0,0,0,0,0,0,0,0,0,-1,1994,1499,0,0
777,-475,0,0,0,0,0,0,0,0,0,-1,2001,1499,0,0
784,-475,0,0,0,0,0,0,0,0,0,-1,2008,1499,0,0
791,-475,0,0,0,0,0,0,0,0,0,-1,2015,1499,0,0
798,-475,0,0,0,0,0,0,0,0,0,-1,2022,1499,0,0
805,-475,0,0,0,0,0,0,0,0,0,-1,2029,1499,0,0
812,-475,0,0,0,0,0,0,0,0,0,-1,2036,1499,0,0
-700,-482,0,0,0,0,0,0,0,0,0,-1,524,1506,0,0
-693,-482,0,0,0,0,0,0,0,0,0,-1,531,1506,0,0
-686,-482,0,0,0,0,0,0,0,0,0,-1,538,1506,0,0
-679,-482,0,0,0,0,0,0,0,0,0,-1,545,1506,0,0
-672,-482,0,0,0,0,0,0,0,0,0,-1,552,1506,0,0
-665,-482,0,0,0,0,0,0,0,0,0,-1,559,1506,0,0
-658,-482,0,0,0,0,0,0,0,0,0,-1,566,1506,0,0
-651,-482,0,0,0,0,0,0,0,0,0,-1,573,1506,0,0
-644,-482,0,0,0,0,0,0,0,0,0,-1,580,1506,0,0
-637,-482,0,0,0,0,0,0,0,0,0,-1,587,1506,0,0
-630,-482,0,0,0,0,0,0,0,0,0,-1,594,1506,0,0
-623,-482,0,0,0,0,0,0,0,0,0,-1,601,1506,0,0
-616,-482,0,0,0,0,0,0,0,0,0,-1,608,1506,0,0
-609,-482,0,0,0,0,0,0,0,0,0,-1,615,1506,0,0
-602,-482,0,0,0,0,0,0,0,0,0,-1,622,1506,0,0
-595,-482,0,0,0,0,0,0,0,0,0,-1,629,1506,0,0
-588,-482,0,0,0,0,0,0,0,0,0,-1,636,1506,0,0
-581,-482,0,0,0,0,0,0,0,0,0,-1,643,1506,0,0
-574,-482,0,0,0,0,0,0,0,0,0,-1,650,1506,0,0
-567,-482,0,0,0,0,0,0,0,0,0,-1,657,1506,0,0
-560,-482,0,0,0,0,0,0,0,0,0,-1,664,1506,0,0
-553,-482,-9.06055,9.34314,0,0,0,0,0,0,0,-1,671,1506,-9.06056,-9.34312
-546,-482,-4.08624,8.34241,0,0,0,0,0,0,0,-1,678,1506,-4.08624,-8.3424
-539,-482,-4.29877,2.73499,0,0,0,0,0,0,0,-1,685,1506,-4.29879,-2.73494
-532,-482,-3.63611,4.23987,0,0,0,0,0,0,0,-1,692,1506,-3.63609,-4.23983
-525,-482,-6.19116,5.24927,0,0,0,0,0,0,0,-1,699,1506,-6.19117,-5.24927
-518,-482,-5.92957,6.39807,0,0,0,0,0,0,0,-1,706,1506,-5.92958,-6.39806
-511,-482,-7.74634,11.9137,0,0,0,0,0,0,0,-1,713,1506,-7.74633,-11.9137
-504,-482,-6.42358,13.4211,0,0,0,0,0,0,0,-1,720,1506,-6.42356,-13.4212
-497,-482,-8.13696,16.7269,0,0,0,0,0,0,0,-1,727,1506,-8.13696,-16.7269
-490,-482,-8.13251,17.5331,0.00111194,-0.00274189,0.000932316,0.00132563,-0.00295559,0.225318,0.00253077,0.0459301,734,1506,-8.13251,-17.533
-483,-482,-8.09924,18.2535,0.000788989,-0.00260809,0.000456738,0.000849326,-0.00266843,0.131344,0.00211956,0.0106628,741,1506,-8.09926,-18.2535
-476,-482,-8.10681,18.9192,0.000697856,-0.00219571,0.00025254,0.000719731,-0.00221758,0.086406,0.00176783,0.0100508,748,1506,-8.1068,-18.9192
-469,-482,-8.13367,19.589,0.000799453,-0.00149937,0.000347949,0.000850964,-0.00155088,0.146975,0.0014062,0.0127343,755,1506,-8.13367,-19.589
-462,-482,-8.15436,20.2181,0.00106932,-0.000581916,0.000636062,0.00128592,-0.000798516,0.328216,0.00121437,0.0143996,762,1506,-8.15438,-20.2181
-455,-482,-8.18195,20.8201,0.00147324,0.000508581,0.00110844,0.00219975,-0.000217926,0.580183,0.00154427,0.0139438,769,1506,-8.18195,-20.8201
-448,-482,-8.20862,21.5161,0.002121,0.00191203,0.00187201,0.00389143,0.000141596,0.757519,0.0025484,0.0134482,776,1506,-8.2086,-21.5161
-441,-482,-8.24719,22.1672,0.00305785,0.00362716,0.00294996,0.00630617,0.000378845,0.833497,0.00408369,0.0117388,783,1506,-8.2472,-22.1672
-434,-482,-8.27338,22.799,0.00423639,0.00574561,0.00434846,0.00940445,0.00057755,0.87131,0.00608626,0.0136464,790,1506,-8.27337,-22.799
-427,-482,-8.29492,23.462,0.00570099,0.00809242,0.00605834,0.0130719,0.000721498,0.88283,0.00848434,0.0185106,797,1506,-8.29494,-23.462
-420,-482,-8.34692,24.1459,0,0,0,0,0,0,0,-1,804,1506,-8.34693,-24.1458
-413,-482,-6.56415,22.3163,0,0,0,0,0,0,0,-1,811,1506,-6.56417,-22.3163
-406,-482,-2.51373,12.7556,0,0,0,0,0,0,0,-1,818,1506,-2.51376,-12.7556
-399,-482,-1.3822,9.22595,0,0,0,0,0,0,0,-1,825,1506,-1.38221,-9.22598
-392,-482,-1.06836,9.22729,0,0,0,0,0,0,0,-1,832,1506,-1.06835,-9.2273
-385,-482,0.0647583,8.90649,0,0,0,0,0,0,0,-1,839,1506,0.0647778,-8.90644
-378,-482,0.215698,5.96948,0,0,0,0,0,0,0,-1,846,1506,0.215681,-5.9695
-371,-482,-0.10907,8.10437,0,0,0,0,0,0,0,-1,853,1506,-0.109063,-8.10433
-364,-482,-0.154968,10.5032,0,0,0,0,0,0,0,-1,860,1506,-0.154976,-10.5032
-357,-482,2.14807,4.60144,0,0,0,0,0,0,0,-1,867,1506,2.14807,-4.60144
-350,-482,-7.5813,-1.45935,0,0,0,0,0,0,0,-1,874,1506,-7.58133,1.45937
-343,-482,-7.19983,-1.26416,0,0,0,0,0,0,0,-1,881,1506,-7.19981,1.26414
-336,-482,0.612671,-0.776978,0,0,0,0,0,0,0,-1,888,1506,0.612664,0.777012
-329,-482,0,0,0,0,0,0,0,0,0,-1,895,1506,0,0
-322,-482,0,0,0,0,0,0,0,0,0,-1,902,1506,0,0
-315,-482,0,0,0,0,0,0,0,0,0,-1,909,1506,0,0
-308,-482,0,0,0,0,0,0,0,0,0,-1,916,1506,0,0
-301,-482,0,0,0,0,0,0,0,0,0,-1,923,1506,0,0
-294,-482,0,0,0,0,0,0,0,0,0,-1,930,1506,0,0
-287,-482,0,0,0,0,0,0,0,0,0,-1,937,1506,0,0
-280,-482,0,0,0,0,0,0,0,0,0,-1,944,1506,0,0
-273,-482,0,0,0,0,0,0,0,0,0,-1,951,1506,0,0
-266,-482,0,0,0,0,0,0,0,0,0,-1,958,1506,0,0
-259,-482,0,0,0,0,0,0,0,0,0,-1,965,1506,0,0
-252,-482,0,0,0,0,0,0,0,0,0,-1,972,1506,0,0
-245,-482,0,0,0,0,0,0,0,0,0,-1,979,1506,0,0
-238,-482,0,0,0,0,0,0,0,0,0,-1,986,1506,0,0
-231,-482,0,0,0,0,0,0,0,0,0,-1,993,1506,0,0
-224,-482,0,0,0,0,0,0,0,0,0,-1,1000,1506,0,0
-217,-482,0,0,0,0,0,0,0,0,0,-1,1007,1506,0,0
-210,-482,0,0,0,0,0,0,0,0,0,-1,1014,1506,0,0
-203,-482,0,0,0,0,0,0,0,0,0,-1,1021,1506,0,0
-196,-482,0,0,0,0,0,0,0,0,0,-1,1028,1506,0,0
-189,-482,0,0,0,0,0,0,0,0,0,-1,1035,1506,0,0
-182,-482,0,0,0,0,0,0,0,0,0,-1,1042,1506,0,0
-175,-482,0,0,0,0,0,0,0,0,0,-1,1049,1506,0,0
-168,-482,0,0,0,0,0,0,0,0,0,-1,1056,1506,0,0
-161,-482,0,0,0,0,0,0,0,0,0,-1,1063,1506,0,0
-154,-482,0,0,0,0,0,0,0,0,0,-1,1070,1506,0,0
-147,-482,0,0,0,0,0,0,0,0,0,-1,1077,1506,0,0
-140,-482,0,0,0,0,0,0,0,0,0,-1,1084,1506,0,0
-133,-482,0,0,0,0,0,0,0,0,0,-1,1091,1506,0,0
-126,-482,0,0,0,0,0,0,0,0,0,-1,1098,1506,0,0
-119,-482,0,0,0,0,0,0,0,0,0,-1,1105,1506,0,0
-112,-482,0,0,0,0,0,0,0,0,0,-1,1112,1506,0,0
-105,-482,0,0,0,0,0,0,0,0,0,-1,1119,1506,0,0
-98,-482,0,0,0,0,0,0,0,0,0,-1,1126,1506,0,0
-91,-482,0,0,0,0,0,0,0,0,0,-1,1133,1506,0,0
-84,-482,0,0,0,0,0,0,0,0,0,-1,1140,1506,0,0
-77,-482,0,0,0,0,0,0,0,0,0,-1,1147,1506,0,0
-70,-482,0,0,0,0,0,0,0,0,0,-1,1154,1506,0,0
-63,-482,0,0,0,0,0,0,0,0,0,-1,1161,1506,0,0
-56,-482,0,0,0,0,0,0,0,0,0,-1,1168,1506,0,0
-49,-482,0,0,0,0,0,0,0,0,0,-1,1175,1506,0,0
-42,-482,0,0,0,0,0,0,0,0,0,-1,1182,1506,0,0
-35,-482,0,0,0,0,0,0,0,0,0,-1,1189,1506,0,0
-28,-482,0,0,0,0,0,0,0,0,0,-1,1196,1506,0,0
-21,-482,0,0,0,0,0,0,0,0,0,-1,1203,1506,0,0
-14,-482,0,0,0,0,0,0,0,0,0,-1,1210,1506,0,0
-7,-482,0,0,0,0,0,0,0,0,0,-1,1217,1506,0,0
0,-482,0,0,0,0,0,0,0,0,0,-1,1224,1506,0,0
7,-482,0,0,0,0,0,0,0,0,0,-1,1231,1506,0,0
14,-482,0,0,0,0,0,0,0,0,0,-1,1238,1506,0,0
21,-482,0,0,0,0,0,0,0,0,0,-1,1245,1506,0,0
28,-482,0,0,0,0,0,0,0,0,0,-1,1252,1506,0,0
35,-482,0,0,0,0,0,0,0,0,0,-1,1259,1506,0,0
42,-482,0,0,0,0,0,0,0,0,0,-1,1266,1506,0,0
49,-482,0,0,0,0,0,0,0,0,0,-1,1273,1506,0,0
56,-482,0,0,0,0,0,0,0,0,0,-1,1280,1506,0,0
63,-482,0,0,0,0,0,0,0,0,0,-1,1287,1506,0,0
70,-482,0,0,0,0,0,0,0,0,0,-1,1294,1506,0,0
77,-482,0,0,0,0,0,0,0,0,0,-1,1301,1506,0,0
84,-482,0,0,0,0,0,0,0,0,0,-1,1308,1506,0,0
91,-482,0,0,0,0,0,0,0,0,0,-1,1315,1506,0,0
98,-482,0,0,0,0,0,0,0,0,0,-1,1322,1506,0,0
105,-482,0,0,0,0,0,0,0,0,0,-1,1329,1506,0,0
112,-482,0,0,0,0,0,0,0,0,0,-1,1336,1506,0,0
119,-482,0,0,0,0,0,0,0,0,0,-1,1343,1506,0,0
126,-482,0,0,0,0,0,0,0,0,0,-1,1350,1506,0,0
133,-482,0,0,0,0,0,0,0,0,0,-1,1357,1506,0,0
140,-482,0,0,0,0,0,0,0,0,0,-1,1364,1506,0,0
147,-482,0,0,0,0,0,0,0,0,0,-1,1371,1506,0,0
154,-482,0,0,0,0,0,0,0,0,0,-1,1378,1506,0,0
161,-482,0,0,0,0,0,0,0,0,0,-1,1385,1506,0,0
168,-482,0,0,0,0,0,0,0,0,0,-1,1392,1506,0,0
175,-482,0,0,0,0,0,0,0,0,0,-1,1399,1506,0,0
182,-482,0,0,0,0,0,0,0,0,0,-1,1406,1506,0,0
189,-482,0,0,0,0,0,0,0,0,0,-1,1413,1506,0,0
196,-482,0,0,0,0,0,0,0,0,0,-1,1420,1506,0,0
203,-482,0,0,0,0,0,0,0,0,0,-1,1427,1506,0,0
210,-482,0,0,0,0,0,0,0,0,0,-1,1434,1506,0,0
217,-482,0,0,0,0,0,0,0,0,0,-1,1441,1506,0,0
224,-482,0,0,0,0,0,0,0,0,0,-1,1448,1506,0,0
231,-482,0,0,0,0,0,0,0,0,0,-1,1455,1506,0,0
238,-482,0,0,0,0,0,0,0,0,0,-1,1462,1506,0,0
245,-482,0,0,0,0,0,0,0,0,0,-1,1469,1506,0,0
252,-482,0,0,0,0,0,0,0,0,0,-1,1476,1506,0,0
259,-482,0,0,0,0,0,0,0,0,0,-1,1483,1506,0,0
266,-482,0,0,0,0,0,0,0,0,0,-1,1490,1506,0,0
273,-482,0,0,0,0,0,0,0,0,0,-1,1497,1506,0,0
280,-482,0,0,0,0,0,0,0,0,0,-1,1504,1506,0,0
287,-482,0,0,0,0,0,0,0,0,0,-1,1511,1506,0,0
294,-482,0,0,0,0,0,0,0,0,0,-1,1518,1506,0,0
301,-482,0,0,0,0,0,0,0,0,0,-1,1525,1506,0,0
308,-482,0,0,0,0,0,0,0,0,0,-1,1532,1506,0,0
315,-482,0,0,0,0,0,0,0,0,0,-1,1539,1506,0,0
322,-482,0,0,0,0,0,0,0,0,0,-1,1546,1506,0,0
329,-482,0,0,0,0,0,0,0,0,0,-1,1553,1506,0,0
336,-482,0,0,0,0,0,0,0,0,0,-1,1560,1506,0,0
343,-482,0,0,0,0,0,0,0,0,0,-1,1567,1506,0,0
350,-482,0,0,0,0,0,0,0,0,0,-1,1574,1506,0,0
357,-482,0,0,0,0,0,0,0,0,0,-1,1581,1506,0,0
364,-482,0,0,0,0,0,0,0,0,0,-1,1588,1506,0,0
371,-482,0,0,0,0,0,0,0,0,0,-1,1595,1506,0,0
378,-482,0,0,0,0,0,0,0,0,0,-1,1602,1506,0,0
385,-482,0,0,0,0,0,0,0,0,0,-1,1609,1506,0,0
392,-482,0,0,0,0,0,0,0,0,0,-1,1616,1506,0,0
399,-482,0,0,0,0,0,0,0,0,0,-1,1623,1506,0,0
406,-482,0,0,0,0,0,0,0,0,0,-1,1630,1506,0,0
413,-482,0,0,0,0,0,0,0,0,0,-1,1637,1506,0,0
420,-482,0,0,0,0,0,0,0,0,0,-1,1644,1506,0,0
427,-482,0,0,0,0,0,0,0,0,0,-1,1651,1506,0,0
434,-482,0,0,0,0,0,0,0,0,0,-1,1658,1506,0,0
441,-482,0,0,0,0,0,0,0,0,0,-1,1665,1506,0,0
448,-482,4.24146,1.55383,0,0,0,0,0,0,0,-1,1672,1506,4.24149,-1.55381
455,-482,12.4122,1.09729,0,0,0,0,0,0,0,-1,1679,1506,12.4122,-1.09734
462,-482,15.0673,3.13135,0,0,0,0,0,0,0,-1,1686,1506,15.0672,-3.13134
469,-482,15.3793,3.46301,0,0,0,0,0,0,0,-1,1693,1506,15.3793,-3.46307
476,-482,8.69751,9.18738,0,0,0,0,0,0,0,-1,1700,1506,8.69753,-9.18739
483,-482,10.0902,7.17432,0,0,0,0,0,0,0,-1,1707,1506,10.0902,-7.1743
490,-482,11.6289,5.4928,0,0,0,0,0,0,0,-1,1714,1506,11.6289,-5.49283
497,-482,15.9539,7.40222,0,0,0,0,0,0,0,-1,1721,1506,15.9538,-7.40219
504,-482,20.4233,12.006,0,0,0,0,0,0,0,-1,1728,1506,20.4233,-12.006
511,-482,18.4937,12.9175,0,0,0,0,0,0,0,-1,1735,1506,18.4936,-12.9174
518,-482,16.6002,13.9679,0,0,0,0,0,0,0,-1,1742,1506,16.6003,-13.9679
525,-482,18.495,15.9618,0,0,0,0,0,0,0,-1,1749,1506,18.495,-15.9618
532,-482,19.9375,21.0775,0,0,0,0,0,0,0,-1,1756,1506,19.9375,-21.0775
539,-482,20.2291,20.5577,0,0,0,0,0,0,0,-1,1763,1506,20.2291,-20.5578
546,-482,25.2115,25.995,0,0,0,0,0,0,0,-1,1770,1506,25.2115,-25.995
553,-482,25.1191,25.1174,0,0,0,0,0,0,0,-1,1777,1506,25.1192,-25.1174
560,-482,25.2264,24.4376,0.00560744,0.00356395,-0.00284599,0.00760954,0.00156185,-0.613059,0.00464086,0.0158419,1784,1506,25.2265,-24.4376
567,-482,25.3063,23.7946,0.0044919,0.00253004,-0.0021848,0.00590588,0.00111606,-0.574396,0.00362299,0.0148215,1791,1506,25.3062,-23.7946
574,-482,25.2759,23.2061,0.00373003,0.00187074,-0.00184573,0.00486701,0.000733757,-0.552107,0.00302985,0.0142057,1798,1506,25.2759,-23.2061
581,-482,25.2245,22.5961,0.00315996,0.0013371,-0.00157605,0.00406915,0.000427917,-0.523243,0.00258197,0.0105195,1805,1506,25.2245,-22.596
588,-482,25.1973,21.9781,0.0028467,0.000936981,-0.00140304,0.00358897,0.000194705,-0.486617,0.00233046,0.0109291,1812,1506,25.1973,-21.9781
595,-482,25.1964,21.3774,0.00283569,0.000545976,-0.00126938,0.00340022,-1.85572e-05,-0.418465,0.00227303,0.0166928,1819,1506,25.1964,-21.3774
602,-482,25.175,20.7451,0.00295283,0.000226745,-0.00120401,0.00340845,-0.000228875,-0.361764,0.0023523,0.0204579,1826,1506,25.1751,-20.7451
609,-482,25.1415,20.156,0.00323039,-2.95544e-05,-0.00110989,0.00357239,-0.000371551,-0.298904,0.00251461,0.0156186,1833,1506,25.1414,-20.156
616,-482,25.0953,19.5677,0.00380268,-0.00039331,-0.000946475,0.00400629,-0.000596923,-0.211898,0.00289045,0.011298,1840,1506,25.0954,-19.5677
623,-482,25.0654,18.9409,0.00458472,-0.000967231,-0.000662712,0.00466273,-0.00104524,-0.117172,0.00350918,0.017192,1847,1506,25.0654,-18.941
630,-482,25.0746,18.391,0.00543669,-0.00135543,-0.000334658,0.00545314,-0.00137188,-0.0491129,0.00416866,0.0384173,1854,1506,25.0746,-18.391
637,-482,25.1395,17.9,0,0,0,0,0,0,0,-1,1861,1506,25.1395,-17.9
644,-482,17.5909,11.6163,0,0,0,0,0,0,0,-1,1868,1506,17.5909,-11.6163
651,-482,4.03845,7.05273,0,0,0,0,0,0,0,-1,1875,1506,4.03843,-7.05279
658,-482,10.0278,5.87903,0,0,0,0,0,0,0,-1,1882,1506,10.0279,-5.87902
665,-482,8.15198,3.22229,0,0,0,0,0,0,0,-1,1889,1506,8.15199,-3.22232
672,-482,9.87415,1.3147,0,0,0,0,0,0,0,-1,1896,1506,9.87416,-1.31473
679,-482,0,0,0,0,0,0,0,0,0,-1,1903,1506,0,0
686,-482,0,0,0,0,0,0,0,0,0,-1,1910,1506,0,0
693,-482,0,0,0,0,0,0,0,0,0,-1,1917,1506,0,0
700,-482,0,0,0,0,0,0,0,0,0,-1,1924,1506,0,0
707,-482,0,0,0,0,0,0,0,0,0,-1,1931,1506,0,0
714,-482,0,0,0,0,0,0,0,0,0,-1,1938,1506,0,0
721,-482,0,0,0,0,0,0,0,0,0,-1,1945,1506,0,0
728,-482,0,0,0,0,0,0,0,0,0,-1,1952,1506,0,0
735,-482,0,0,0,0,0,0,0,0,0,-1,1959,1506,0,0
742,-482,0,0,0,0,0,0,0,0,0,-1,1966,1506,0,0
749,-482,0,0,0,0,0,0,0,0,0,-1,1973,1506,0,0
756,-482,0,0,0,0,0,0,0,0,0,-1,1980,1506,0,0
763,-482,0,0,0,0,0,0,0,0,0,-1,1987,1506,0,0
770,-482,0,0,0,0,0,0,0,0,0,-1,1994,1506,0,0
777,-482,0,0,0,0,0,0,0,0,0,-1,2001,1506,0,0
784,-482,0,0,0,0,0,0,0,0,0,-1,2008,1506,0,0
791,-482,0,0,0,0,0,0,0,0,0,-1,2015,1506,0,0
798,-482,0,0,0,0,0,0,0,0,0,-1,2022,1506,0,0
805,-482,0,0,0,0,0,0,0,0,0,-1,2029,1506,0,0
812,-482,0,0,0,0,0,0,0,0,0,-1,2036,1506,0,0
-700,-489,0,0,0,0,0,0,0,0,0,-1,524,1513,0,0
-693,-489,0,0,0,0,0,0,0,0,0,-1,531,1513,0,0
-686,-489,0,0,0,0,0,0,0,0,0,-1,538,1513,0,0
-679,-489,0,0,0,0,0,0,0,0,0,-1,545,1513,0,0
-672,-489,0,0,0,0,0,0,0,0,0,-1,552,1513,0,0
-665,-489,0,0,0,0,0,0,0,0,0,-1,559,1513,0,0
-658,-489,0,0,0,0,0,0,0,0,0,-1,566,1513,0,0
-651,-489,0,0,0,0,0,0,0,0,0,-1,573,1513,0,0
-644,-489,0,0,0,0,0,0,0,0,0,-1,580,1513,0,0
-637,-489,0,0,0,0,0,0,0,0,0,-1,587,1513,0,0
-630,-489,0,0,0,0,0,0,0,0,0,-1,594,1513,0,0
-623,-489,0,0,0,0,0,0,0,0,0,-1,601,1513,0,0
-616,-489,0,0,0,0,0,0,0,0,0,-1,608,1513,0,0
-609,-489,0,0,0,0,0,0,0,0,0,-1,615,1513,0,0
-602,-489,0,0,0,0,0,0,0,0,0,-1,622,1513,0,0
-595,-489,0,0,0,0,0,0,0,0,0,-1,629,1513,0,0
-588,-489,0,0,0,0,0,0,0,0,0,-1,636,1513,0,0
-581,-489,0,0,0,0,0,0,0,0,0,-1,643,1513,0,0
-574,-489,0,0,0,0,0,0,0,0,0,-1,650,1513,0,0
-567,-489,0,0,0,0,0,0,0,0,0,-1,657,1513,0,0
-560,-489,0,0,0,0,0,0,0,0,0,-1,664,1513,0,0
-553,-489,-9.42206,8.5116,0,0,0,0,0,0,0,-1,671,1513,-9.42205,-8.51158
-546,-489,-7.80951,8.18506,0,0,0,0,0,0,0,-1,678,1513,-7.8095,-8.18503
-539,-489,-3.06879,2.82349,0,0,0,0,0,0,0,-1,685,1513,-3.06881,-2.82354
-532,-489,-3.14215,2.5835,0,0,0,0,0,0,0,-1,692,1513,-3.14213,-2.58353
-525,-489,-2.604,4.06274,0,0,0,0,0,0,0,-1,699,1513,-2.60399,-4.06274
-518,-489,-5.43774,7.48059,0,0,0,0,0,0,0,-1,706,1513,-5.43777,-7.48058
-511,-489,-7.52856,10.951,0,0,0,0,0,0,0,-1,713,1513,-7.52857,-10.951
-504,-489,-7.17352,12.8508,0,0,0,0,0,0,0,-1,720,1513,-7.17352,-12.8508
-497,-489,-5.51678,14.9254,0,0,0,0,0,0,0,-1,727,1513,-5.51681,-14.9254
-490,-489,-7.48804,17.255,0,0,0,0,0,0,0,-1,734,1513,-7.48802,-17.2549
-483,-489,-7.48706,18.1725,0.000606602,-0.00410234,-1.77409e-05,0.000606669,-0.0041024,-0.00376741,0.00295797,0.0247175,741,1513,-7.48705,-18.1725
-476,-489,-7.47473,18.9242,0.000478415,-0.00360074,-0.000240929,0.000492596,-0.00361492,-0.0587909,0.00258981,0.00988324,748,1513,-7.47474,-18.9241
-469,-489,-7.49237,19.5934,0.000521272,-0.00283303,-0.000152552,0.000528196,-0.00283995,-0.0453549,0.00209171,0.0108329,755,1513,-7.49237,-19.5934
-462,-489,-7.52228,20.2352,0.00070515,-0.0018196,0.000120323,0.000710872,-0.00182532,0.047514,0.00151066,0.0171696,762,1513,-7.52229,-20.2352
-455,-489,-7.55292,20.8809,0.00101779,-0.00065132,0.000558098,0.0011872,-0.000820735,0.294718,0.0011657,0.0208071,769,1513,-7.55292,-20.8808
-448,-489,-7.58826,21.514,0.00155304,0.00078135,0.00125207,0.00247737,-0.00014298,0.635932,0.00170124,0.0178278,776,1513,-7.58827,-21.5141
-441,-489,-7.59717,22.1846,0.00236089,0.00251652,0.00224654,0.00468659,0.000190821,0.80271,0.00306277,0.0146481,783,1513,-7.59714,-22.1846
-434,-489,-7.65228,22.8123,0.00337994,0.00458256,0.00351632,0.00754861,0.000413889,0.870082,0.00490028,0.0159777,790,1513,-7.65228,-22.8123
-427,-489,-7.69788,23.4603,0.00465818,0.00680726,0.00503442,0.0108805,0.000584904,0.89054,0.0070668,0.0188896,797,1513,-7.69789,-23.4603
-420,-489,-7.7428,24.2429,0.00625009,0.00960054,0.00689552,0.0150214,0.000829219,0.904562,0.00974963,0.0263592,804,1513,-7.74283,-24.2429
-413,-489,-7.69263,25.1096,0,0,0,0,0,0,0,-1,811,1513,-7.69266,-25.1096
-406,-489,-3.10559,15.8143,0,0,0,0,0,0,0,-1,818,1513,-3.10556,-15.8143
-399,-489,-1.41241,9.10718,0,0,0,0,0,0,0,-1,825,1513,-1.41244,-9.10722
-392,-489,-1.0368,9.30469,0,0,0,0,0,0,0,-1,832,1513,-1.03682,-9.30466
-385,-489,-1.75165,10.6559,0,0,0,0,0,0,0,-1,839,1513,-1.75165,-10.6559
-378,-489,-0.401428,9.87048,0,0,0,0,0,0,0,-1,846,1513,-0.401415,-9.87047
-371,-489,-1.11633,10.6606,0,0,0,0,0,0,0,-1,853,1513,-1.11633,-10.6606
-364,-489,-0.503113,8.98486,0,0,0,0,0,0,0,-1,860,1513,-0.503097,-8.98482
-357,-489,-0.609924,10.9606,0,0,0,0,0,0,0,-1,867,1513,-0.609947,-10.9605
-350,-489,-7.94659,-0.358887,0,0,0,0,0,0,0,-1,874,1513,-7.94657,0.358912
-343,-489,-7.49323,-0.437866,0,0,0,0,0,0,0,-1,881,1513,-7.49322,0.437823
-336,-489,-7.02332,-0.53125,0,0,0,0,0,0,0,-1,888,1513,-7.0233,0.531295
-329,-489,-12.7423,4.73523,0,0,0,0,0,0,0,-1,895,1513,-12.7423,-4.73521
-322,-489,0,0,0,0,0,0,0,0,0,-1,902,1513,0,0
-315,-489,0,0,0,0,0,0,0,0,0,-1,909,1513,0,0
-308,-489,0,0,0,0,0,0,0,0,0,-1,916,1513,0,0
-301,-489,0,0,0,0,0,0,0,0,0,-1,923,1513,0,0
-294,-489,0,0,0,0,0,0,0,0,0,-1,930,1513,0,0
-287,-489,0,0,0,0,0,0,0,0,0,-1,937,1513,0,0
-280,-489,0,0,0,0,0,0,0,0,0,-1,944,1513,0,0
-273,-489,0,0,0,0,0,0,0,0,0,-1,951,1513,0,0
-266,-489,0,0,0,0,0,0,0,0,0,-1,958,1513,0,0
-259,-489,0,0,0,0,0,0,0,0,0,-1,965,1513,0,0
-252,-489,0,0,0,0,0,0,0,0,0,-1,972,1513,0,0
-245,-489,0,0,0,0,0,0,0,0,0,-1,979,1513,0,0
-238,-489,0,0,0,0,0,0,0,0,0,-1,986,1513,0,0
-231,-489,0,0,0,0,0,0,0,0,0,-1,993,1513,0,0
-224,-489,0,0,0,0,0,0,0,0,0,-1,1000,1513,0,0
-217,-489,0,0,0,0,0,0,0,0,0,-1,1007,1513,0,0
-210,-489,0,0,0,0,0,0,0,0,0,-1,1014,1513,0,0
-203,-489,0,0,0,0,0,0,0,0,0,-1,1021,1513,0,0
-196,-489,0,0,0,0,0,0,0,0,0,-1,1028,1513,0,0
-189,-489,0,0,0,0,0,0,0,0,0,-1,1035,1513,0,0
-182,-489,0,0,0,0,0,0,0,0,0,-1,1042,1513,0,0
-175,-489,0,0,0,0,0,0,0,0,0,-1,1049,1513,0,0
-168,-489,0,0,0,0,0,0,0,0,0,-1,1056,1513,0,0
-161,-489,0,0,0,0,0,0,0,0,0,-1,1063,1513,0,0
-154,-489,0,0,0,0,0,0,0,0,0,-1,1070,1513,0,0
-147,-489,0,0,0,0,0,0,0,0,0,-1,1077,1513,0,0
-140,-489,0,0,0,0,0,0,0,0,0,-1,1084,1513,0,0
-133,-489,0,0,0,0,0,0,0,0,0,-1,1091,1513,0,0
-126,-489,0,0,0,0,0,0,0,0,0,-1,1098,1513,0,0
-119,-489,0,0,0,0,0,0,0,0,0,-1,1105,1513,0,0
-112,-489,0,0,0,0,0,0,0,0,0,-1,1112,1513,0,0
-105,-489,0,0,0,0,0,0,0,0,0,-1,1119,1513,0,0
-98,-489,0,0,0,0,0,0,0,0,0,-1,1126,1513,0,0
-91,-489,0,0,0,0,0,0,0,0,0,-1,1133,1513,0,0
-84,-489,0,0,0,0,0,0,0,0,0,-1,1140,1513,0,0
-77,-489,0,0,0,0,0,0,0,0,0,-1,1147,1513,0,0
-70,-489,0,0,0,0,0,0,0,0,0,-1,1154,1513,0,0
-63,-489,0,0,0,0,0,0,0,0,0,-1,1161,1513,0,0
-56,-489,0,0,0,0,0,0,0,0,0,-1,1168,1513,0,0
-49,-489,0,0,0,0,0,0,0,0,0,-1,1175,1513,0,0
-42,-489,0,0,0,0,0,0,0,0,0,-1,1182,1513,0,0
-35,-489,0,0,0,0,0,0,0,0,0,-1,1189,1513,0,0
-28,-489,0,0,0,0,0,0,0,0,0,-1,1196,1513,0,0
-21,-489,0,0,0,0,0,0,0,0,0,-1,1203,1513,0,0
-14,-489,0,0,0,0,0,0,0,0,0,-1,1210,1513,0,0
-7,-489,0,0,0,0,0,0,0,0,0,-1,1217,1513,0,0
0,-489,0,0,0,0,0,0,0,0,0,-1,1224,1513,0,0
7,-489,0,0,0,0,0,0,0,0,0,-1,1231,1513,0,0
14,-489,0,0,0,0,0,0,0,0,0,-1,1238,1513,0,0
21,-489,0,0,0,0,0,0,0,0,0,-1,1245,1513,0,0
28,-489,0,0,0,0,0,0,0,0,0,-1,1252,1513,0,0
35,-489,0,0,0,0,0,0,0,0,0,-1,1259,1513,0,0
42,-489,0,0,0,0,0,0,0,0,0,-1,1266,1513,0,0
49,-489,0,0,0,0,0,0,0,0,0,-1,1273,1513,0,0
56,-489,0,0,0,0,0,0,0,0,0,-1,1280,1513,0,0
63,-489,0,0,0,0,0,0,0,0,0,-1,1287,1513,0,0
70,-489,0,0,0,0,0,0,0,0,0,-1,1294,1513,0,0
77,-489,0,0,0,0,0,0,0,0,0,-1,1301,1513,0,0
84,-489,0,0,0,0,0,0,0,0,0,-1,1308,1513,0,0
91,-489,0,0,0,0,0,0,0,0,0,-1,1315,1513,0,0
98,-489,0,0,0,0,0,0,0,0,0,-1,1322,1513,0,0
105,-489,0,0,0,0,0,0,0,0,0,-1,1329,1513,0,0
112,-489,0,0,0,0,0,0,0,0,0,-1,1336,1513,0,0
119,-489,0,0,0,0,0,0,0,0,0,-1,1343,1513,0,0
126,-489,0,0,0,0,0,0,0,0,0,-1,1350,1513,0,0
133,-489,0,0,0,0,0,0,0,0,0,-1,1357,1513,0,0
140,-489,0,0,0,0,0,0,0,0,0,-1,1364,1513,0,0
147,-489,0,0,0,0,0,0,0,0,0,-1,1371,1513,0,0
154,-489,0,0,0,0,0,0,0,0,0,-1,1378,1513,0,0
161,-489,0,0,0,0,0,0,0,0,0,-1,1385,1513,0,0
168,-489,0,0,0,0,0,0,0,0,0,-1,1392,1513,0,0
175,-489,0,0,0,0,0,0,0,0,0,-1,1399,1513,0,0
182,-489,0,0,0,0,0,0,0,0,0,-1,1406,1513,0,0
189,-489,0,0,0,0,0,0,0,0,0,-1,1413,1513,0,0
196,-489,0,0,0,0,0,0,0,0,0,-1,1420,1513,0,0
203,-489,0,0,0,0,0,0,0,0,0,-1,1427,1513,0,0
210,-489,0,0,0,0,0,0,0,0,0,-1,1434,1513,0,0
217,-489,0,0,0,0,0,0,0,0,0,-1,1441,1513,0,0
224,-489,0,0,0,0,0,0,0,0,0,-1,1448,1513,0,0
231,-489,0,0,0,0,0,0,0,0,0,-1,1455,1513,0,0
238,-489,0,0,0,0,0,0,0,0,0,-1,1462,1513,0,0
245,-489,0,0,0,0,0,0,0,0,0,-1,1469,1513,0,0
252,-489,0,0,0,0,0,0,0,0,0,-1,1476,1513,0,0
259,-489,0,0,0,0,0,0,0,0,0,-1,1483,1513,0,0
266,-489,0,0,0,0,0,0,0,0,0,-1,1490,1513,0,0
273,-489,0,0,0,0,0,0,0,0,0,-1,1497,1513,0,0
280,-489,0,0,0,0,0,0,0,0,0,-1,1504,1513,0,0
287,-489,0,0,0,0,0,0,0,0,0,-1,1511,1513,0,0
294,-489,0,0,0,0,0,0,0,0,0,-1,1518,1513,0,0
301,-489,0,0,0,0,0,0,0,0,0,-1,1525,1513,0,0
308,-489,0,0,0,0,0,0,0,0,0,-1,1532,1513,0,0
315,-489,0,0,0,0,0,0,0,0,0,-1,1539,1513,0,0
322,-489,0,0,0,0,0,0,0,0,0,-1,1546,1513,0,0
329,-489,0,0,0,0,0,0,0,0,0,-1,1553,1513,0,0
336,-489,0,0,0,0,0,0,0,0,0,-1,1560,1513,0,0
343,-489,0,0,0,0,0,0,0,0,0,-1,1567,1513,0,0
350,-489,0,0,0,0,0,0,0,0,0,-1,1574,1513,0,0
357,-489,0,0,0,0,0,0,0,0,0,-1,1581,1513,0,0
364,-489,0,0,0,0,0,0,0,0,0,-1,1588,1513,0,0
371,-489,0,0,0,0,0,0,0,0,0,-1,1595,1513,0,0
378,-489,0,0,0,0,0,0,0,0,0,-1,1602,1513,0,0
385,-489,0,0,0,0,0,0,0,0,0,-1,1609,1513,0,0
392,-489,0,0,0,0,0,0,0,0,0,-1,1616,1513,0,0
399,-489,0,0,0,0,0,0,0,0,0,-1,1623,1513,0,0
406,-489,0,0,0,0,0,0,0,0,0,-1,1630,1513,0,0
413,-489,0,0,0,0,0,0,0,0,0,-1,1637,1513,0,0
420,-489,0,0,0,0,0,0,0,0,0,-1,1644,1513,0,0
427,-489,0,0,0,0,0,0,0,0,0,-1,1651,1513,0,0
434,-489,0,0,0,0,0,0,0,0,0,-1,1658,1513,0,0
441,-489,11.4602,2.56787,0,0,0,0,0,0,0,-1,1665,1513,11.4602,-2.56786
448,-489,12.4425,1.72351,0,0,0,0,0,0,0,-1,1672,1513,12.4425,-1.72349
455,-489,12.5575,1.37463,0,0,0,0,0,0,0,-1,1679,1513,12.5575,-1.37469
462,-489,14.9784,3.84888,0,0,0,0,0,0,0,-1,1686,1513,14.9784,-3.84892
469,-489,15.1367,4.53101,0,0,0,0,0,0,0,-1,1693,1513,15.1368,-4.531
476,-489,15.5536,5.09338,0,0,0,0,0,0,0,-1,1700,1513,15.5536,-5.09339
483,-489,8.96912,8.37805,0,0,0,0,0,0,0,-1,1707,1513,8.96909,-8.37809
490,-489,10.5366,7.49561,0,0,0,0,0,0,0,-1,1714,1513,10.5367,-7.49558
497,-489,14.6051,11.8397,0,0,0,0,0,0,0,-1,1721,1513,14.6051,-11.8397
504,-489,16.7527,14.1735,0,0,0,0,0,0,0,-1,1728,1513,16.7527,-14.1735
511,-489,17.83,17.7993,0,0,0,0,0,0,0,-1,1735,1513,17.83,-17.7993
518,-489,16.4751,14.3682,0,0,0,0,0,0,0,-1,1742,1513,16.4751,-14.3682
525,-489,17.2606,17.4949,0,0,0,0,0,0,0,-1,1749,1513,17.2606,-17.4949
532,-489,19.397,21.0182,0,0,0,0,0,0,0,-1,1756,1513,19.397,-21.0182
539,-489,24.531,26.6989,0,0,0,0,0,0,0,-1,1763,1513,24.531,-26.6989
546,-489,24.6891,25.8739,0.0075324,0.00604448,-0.00474204,0.0115885,0.0019884,-0.707589,0.00715554,0.0354606,1770,1513,24.689,-25.8739
553,-489,24.6636,25.1084,0.00599766,0.00444619,-0.00349719,0.00880412,0.00163973,-0.676257,0.00540637,0.0221884,1777,1513,24.6636,-25.1084
560,-489,24.662,24.4475,0.00479579,0.00319324,-0.00257844,0.00669458,0.00129444,-0.634749,0.00410026,0.0136685,1784,1513,24.662,-24.4475
567,-489,24.6909,23.8414,0.00392256,0.00226274,-0.00199237,0.00525095,0.000934348,-0.588055,0.00323449,0.0146419,1791,1513,24.691,-23.8414
574,-489,24.6559,23.2488,0.00335424,0.00163324,-0.00167546,0.00437725,0.000610231,-0.548168,0.00273752,0.0152198,1798,1513,24.6559,-23.2487
581,-489,24.6373,22.6393,0.00296501,0.00110822,-0.00143928,0.00374934,0.000323882,-0.498958,0.0023989,0.0112489,1805,1513,24.6373,-22.6393
588,-489,24.6042,22.0266,0.00283092,0.000751876,-0.00133069,0.00347999,0.000102807,-0.453815,0.00228649,0.0127763,1812,1513,24.6042,-22.0266
595,-489,24.5817,21.4384,0.00300253,0.000418512,-0.00128147,0.00353027,-0.000109221,-0.390652,0.00239075,0.0187027,1819,1513,24.5817,-21.4384
602,-489,24.5651,20.833,0.00331908,0.000195077,-0.00131941,0.00380175,-0.000287598,-0.350703,0.0026356,0.0239752,1826,1513,24.565,-20.8331
609,-489,24.5376,20.2146,0.00380646,9.13575e-06,-0.00134253,0.00423316,-0.000417564,-0.307736,0.00297109,0.0165523,1833,1513,24.5376,-20.2146
616,-489,24.5264,19.5676,0.00469121,-0.000326833,-0.00127819,0.00499803,-0.000633652,-0.235585,0.00356208,0.0190101,1840,1513,24.5264,-19.5676
623,-489,24.5854,18.9443,0,0,0,0,0,0,0,-1,1847,1513,24.5855,-18.9444
630,-489,24.6222,18.3555,0,0,0,0,0,0,0,-1,1854,1513,24.6222,-18.3555
637,-489,17.2048,11.8091,0,0,0,0,0,0,0,-1,1861,1513,17.2048,-11.8091
644,-489,9.67578,8.45874,0,0,0,0,0,0,0,-1,1868,1513,9.67576,-8.45879
651,-489,6.13818,6.85095,0,0,0,0,0,0,0,-1,1875,1513,6.13823,-6.85097
658,-489,5.43848,7.75513,0,0,0,0,0,0,0,-1,1882,1513,5.43844,-7.75509
665,-489,5.48438,8.59912,0,0,0,0,0,0,0,-1,1889,1513,5.48434,-8.59907
672,-489,0,0,0,0,0,0,0,0,0,-1,1896,1513,0,0
679,-489,0,0,0,0,0,0,0,0,0,-1,1903,1513,0,0
686,-489,0,0,0,0,0,0,0,0,0,-1,1910,1513,0,0
693,-489,0,0,0,0,0,0,0,0,0,-1,1917,1513,0,0
700,-489,0,0,0,0,0,0,0,0,0,-1,1924,1513,0,0
707,-489,0,0,0,0,0,0,0,0,0,-1,1931,1513,0,0
714,-489,0,0,0,0,0,0,0,0,0,-1,1938,1513,0,0
721,-489,0,0,0,0,0,0,0,0,0,-1,1945,1513,0,0
728,-489,0,0,0,0,0,0,0,0,0,-1,1952,1513,0,0
735,-489,0,0,0,0,0,0,0,0,0,-1,1959,1513,0,0
742,-489,0,0,0,0,0,0,0,0,0,-1,1966,1513,0,0
749,-489,0,0,0,0,0,0,0,0,0,-1,1973,1513,0,0
756,-489,0,0,0,0,0,0,0,0,0,-1,1980,1513,0,0
763,-489,0,0,0,0,0,0,0,0,0,-1,1987,1513,0,0
770,-489,0,0,0,0,0,0,0,0,0,-1,1994,1513,0,0
777,-489,0,0,0,0,0,0,0,0,0,-1,2001,1513,0,0
784,-489,0,0,0,0,0,0,0,0,0,-1,2008,1513,0,0
791,-489,0,0,0,0,0,0,0,0,0,-1,2015,1513,0,0
798,-489,0,0,0,0,0,0,0,0,0,-1,2022,1513,0,0
805,-489,0,0,0,0,0,0,0,0,0,-1,2029,1513,0,0
812,-489,0,0,0,0,0,0,0,0,0,-1,2036,1513,0,0
-700,-496,0,0,0,0,0,0,0,0,0,-1,524,1520,0,0
-693,-496,0,0,0,0,0,0,0,0,0,-1,531,1520,0,0
-686,-496,0,0,0,0,0,0,0,0,0,-1,538,1520,0,0
-679,-496,0,0,0,0,0,0,0,0,0,-1,545,1520,0,0
-672,-496,0,0,0,0,0,0,0,0,0,-1,552,1520,0,0
-665,-496,0,0,0,0,0,0,0,0,0,-1,559,1520,0,0
-658,-496,0,0,0,0,0,0,0,0,0,-1,566,1520,0,0
-651,-496,0,0,0,0,0,0,0,0,0,-1,573,1520,0,0
-644,-496,0,0,0,0,0,0,0,0,0,-1,580,1520,0,0
-637,-496,0,0,0,0,0,0,0,0,0,-1,587,1520,0,0
-630,-496,0,0,0,0,0,0,0,0,0,-1,594,1520,0,0
-623,-496,0,0,0,0,0,0,0,0,0,-1,601,1520,0,0
-616,-496,0,0,0,0,0,0,0,0,0,-1,608,1520,0,0
-609,-496,0,0,0,0,0,0,0,0,0,-1,615,1520,0,0
-602,-496,0,0,0,0,0,0,0,0,0,-1,622,1520,0,0
-595,-496,0,0,0,0,0,0,0,0,0,-1,629,1520,0,0
-588,-496,0,0,0,0,0,0,0,0,0,-1,636,1520,0,0
-581,-496,0,0,0,0,0,0,0,0,0,-1,643,1520,0,0
-574,-496,0,0,0,0,0,0,0,0,0,-1,650,1520,0,0
-567,-496,0,0,0,0,0,0,0,0,0,-1,657,1520,0,0
-560,-496,0,0,0,0,0,0,0,0,0,-1,664,1520,0,0
-553,-496,0,0,0,0,0,0,0,0,0,-1,671,1520,0,0
-546,-496,-8.09711,7.94836,0,0,0,0,0,0,0,-1,678,1520,-8.09712,-7.94842
-539,-496,-3.20129,1.16052,0,0,0,0,0,0,0,-1,685,1520,-3.20131,-1.16054
-532,-496,-2.98279,2.62146,0,0,0,0,0,0,0,-1,692,1520,-2.98278,-2.62151
-525,-496,-2.75201,4.08032,0,0,0,0,0,0,0,-1,699,1520,-2.75201,-4.08031
-518,-496,-2.6333,5.36072,0,0,0,0,0,0,0,-1,706,1520,-2.63328,-5.36077
-511,-496,-7.92126,9.68604,0,0,0,0,0,0,0,-1,713,1520,-7.92127,-9.68598
-504,-496,-7.51044,11.6274,0,0,0,0,0,0,0,-1,720,1520,-7.51042,-11.6275
-497,-496,-5.30933,14.4291,0,0,0,0,0,0,0,-1,727,1520,-5.30932,-14.4291
-490,-496,-6.6983,17.6722,0,0,0,0,0,0,0,-1,734,1520,-6.69828,-17.6723
-483,-496,-6.74469,18.4476,0.000555685,-0.00595251,-0.000538203,0.000599892,-0.00599671,-0.0819544,0.00421204,0.0426595,741,1520,-6.74469,-18.4476
-476,-496,-6.86017,18.9542,0.000320343,-0.00528842,-0.000785885,0.000428378,-0.00539645,-0.136613,0.0037486,0.0192125,748,1520,-6.86015,-18.9543
-469,-496,-6.85565,19.6307,0.000235525,-0.00439961,-0.000712047,0.000342443,-0.00450653,-0.149042,0.00312476,0.0107828,755,1520,-6.85565,-19.6308
-462,-496,-6.9007,20.2839,0.000285005,-0.00324315,-0.000456331,0.000343071,-0.00330122,-0.126565,0.00232363,0.0166361,762,1520,-6.90067,-20.2839
-455,-496,-6.92773,20.9288,0.000475973,-0.00196113,-5.53282e-05,0.000477229,-0.00196239,-0.0226868,0.00149298,0.022653,769,1520,-6.92773,-20.9289
-448,-496,-6.9328,21.5708,0.000886712,-0.000482014,0.000565637,0.00109021,-0.000685513,0.345351,0.00103405,0.0209515,776,1520,-6.93277,-21.5708
-441,-496,-6.95294,22.2172,0.00158102,0.00126745,0.00147495,0.00290749,-5.902e-05,0.732449,0.0019583,0.0156656,783,1520,-6.95295,-22.2172
-434,-496,-6.9978,22.8501,0.00248856,0.00327985,0.00262771,0.00554153,0.000226876,0.86012,0.0036211,0.0140729,790,1520,-6.99777,-22.8501
-427,-496,-7.04309,23.4818,0.00365587,0.00537965,0.00398255,0.00859251,0.000443014,0.891963,0.00558653,0.0187958,797,1520,-7.04307,-23.4819
-420,-496,-7.0885,24.1147,0.00513801,0.0078688,0.00565483,0.0123207,0.000686066,0.903859,0.00799496,0.0205413,804,1520,-7.08849,-24.1148
-413,-496,-7.00323,24.8267,0.00733506,0.0104303,0.0079279,0.0169602,0.000805127,0.881791,0.0110482,0.0303713,811,1520,-7.00324,-24.8267
-406,-496,-6.86029,25.7477,0,0,0,0,0,0,0,-1,818,1520,-6.86028,-25.7477
-399,-496,-6.48926,26.6871,0,0,0,0,0,0,0,-1,825,1520,-6.48926,-26.6872
-392,-496,-1.49786,12.387,0,0,0,0,0,0,0,-1,832,1520,-1.49788,-12.387
-385,-496,-1.72437,11.4985,0,0,0,0,0,0,0,-1,839,1520,-1.72436,-11.4985
-378,-496,-1.45532,14.0719,0,0,0,0,0,0,0,-1,846,1520,-1.45533,-14.0719
-371,-496,0.0877075,12.5299,0,0,0,0,0,0,0,-1,853,1520,0.0876896,-12.5299
-364,-496,0.0881348,10.6422,0,0,0,0,0,0,0,-1,860,1520,0.0881368,-10.6423
-357,-496,0.323792,7.56812,0,0,0,0,0,0,0,-1,867,1520,0.323782,-7.56806
-350,-496,2.1535,7.18945,0,0,0,0,0,0,0,-1,874,1520,2.15348,-7.1894
-343,-496,-7.56244,0.335327,0,0,0,0,0,0,0,-1,881,1520,-7.56242,-0.335322
-336,-496,-3.99249,6.02222,0,0,0,0,0,0,0,-1,888,1520,-3.99246,-6.0222
-329,-496,-6.93689,-0.100342,0,0,0,0,0,0,0,-1,895,1520,-6.93686,0.1003
-322,-496,-6.17505,0.494385,0,0,0,0,0,0,0,-1,902,1520,-6.17507,-0.49437
-315,-496,-7.539,5.78638,0,0,0,0,0,0,0,-1,909,1520,-7.53898,-5.78633
-308,-496,0,0,0,0,0,0,0,0,0,-1,916,1520,0,0
-301,-496,0,0,0,0,0,0,0,0,0,-1,923,1520,0,0
-294,-496,0,0,0,0,0,0,0,0,0,-1,930,1520,0,0
-287,-496,0,0,0,0,0,0,0,0,0,-1,937,1520,0,0
-280,-496,0,0,0,0,0,0,0,0,0,-1,944,1520,0,0
-273,-496,0,0,0,0,0,0,0,0,0,-1,951,1520,0,0
-266,-496,0,0,0,0,0,0,0,0,0,-1,958,1520,0,0
-259,-496,0,0,0,0,0,0,0,0,0,-1,965,1520,0,0
-252,-496,0,0,0,0,0,0,0,0,0,-1,972,1520,0,0
-245,-496,0,0,0,0,0,0,0,0,0,-1,979,1520,0,0
-238,-496,0,0,0,0,0,0,0,0,0,-1,986,1520,0,0
-231,-496,0,0,0,0,0,0,0,0,0,-1,993,1520,0,0
-224,-496,0,0,0,0,0,0,0,0,0,-1,1000,1520,0,0
-217,-496,0,0,0,0,0,0,0,0,0,-1,1007,1520,0,0
-210,-496,0,0,0,0,0,0,0,0,0,-1,1014,1520,0,0
-203,-496,0,0,0,0,0,0,0,0,0,-1,1021,1520,0,0
-196,-496,0,0,0,0,0,0,0,0,0,-1,1028,1520,0,0
-189,-496,0,0,0,0,0,0,0,0,0,-1,1035,1520,0,0
-182,-496,0,0,0,0,0,0,0,0,0,-1,1042,1520,0,0
-175,-496,0,0,0,0,0,0,0,0,0,-1,1049,1520,0,0
-168,-496,0,0,0,0,0,0,0,0,0,-1,1056,1520,0,0
-161,-496,0,0,0,0,0,0,0,0,0,-1,1063,1520,0,0
-154,-496,0,0,0,0,0,0,0,0,0,-1,1070,1520,0,0
-147,-496,0,0,0,0,0,0,0,0,0,-1,1077,1520,0,0
-140,-496,0,0,0,0,0,0,0,0,0,-1,1084,1520,0,0
-133,-496,0,0,0,0,0,0,0,0,0,-1,1091,1520,0,0
-126,-496,0,0,0,0,0,0,0,0,0,-1,1098,1520,0,0
-119,-496,0,0,0,0,0,0,0,0,0,-1,1105,1520,0,0
-112,-496,0,0,0,0,0,0,0,0,0,-1,1112,1520,0,0
-105,-496,0,0,0,0,0,0,0,0,0,-1,1119,1520,0,0
-98,-496,0,0,0,0,0,0,0,0,0,-1,1126,1520,0,0
-91,-496,0,0,0,0,0,0,0,0,0,-1,1133,1520,0,0
-84,-496,0,0,0,0,0,0,0,0,0,-1,1140,1520,0,0
-77,-496,0,0,0,0,0,0,0,0,0,-1,1147,1520,0,0
-70,-496,0,0,0,0,0,0,0,0,0,-1,1154,1520,0,0
-63,-496,0,0,0,0,0,0,0,0,0,-1,1161,1520,0,0
-56,-496,0,0,0,0,0,0,0,0,0,-1,1168,1520,0,0
-49,-496,0,0,0,0,0,0,0,0,0,-1,1175,1520,0,0
-42,-496,0,0,0,0,0,0,0,0,0,-1,1182,1520,0,0
-35,-496,0,0,0,0,0,0,0,0,0,-1,1189,1520,0,0
-28,-496,0,0,0,0,0,0,0,0,0,-1,1196,1520,0,0
-21,-496,0,0,0,0,0,0,0,0,0,-1,1203,1520,0,0
-14,-496,0,0,0,0,0,0,0,0,0,-1,1210,1520,0,0
-7,-496,0,0,0,0,0,0,0,0,0,-1,1217,1520,0,0
0,-496,0,0,0,0,0,0,0,0,0,-1,1224,1520,0,0
7,-496,0,0,0,0,0,0,0,0,0,-1,1231,1520,0,0
14,-496,0,0,0,0,0,0,0,0,0,-1,1238,1520,0,0
21,-496,0,0,0,0,0,0,0,0,0,-1,1245,1520,0,0
28,-496,0,0,0,0,0,0,0,0,0,-1,1252,1520,0,0
35,-496,0,0,0,0,0,0,0,0,0,-1,1259,1520,0,0
42,-496,0,0,0,0,0,0,0,0,0,-1,1266,1520,0,0
49,-496,0,0,0,0,0,0,0,0,0,-1,1273,1520,0,0
56,-496,0,0,0,0,0,0,0,0,0,-1,1280,1520,0,0
63,-496,0,0,0,0,0,0,0,0,0,-1,1287,1520,0,0
70,-496,0,0,0,0,0,0,0,0,0,-1,1294,1520,0,0
77,-496,0,0,0,0,0,0,0,0,0,-1,1301,1520,0,0
84,-496,0,0,0,0,0,0,0,0,0,-1,1308,1520,0,0
91,-496,0,0,0,0,0,0,0,0,0,-1,1315,1520,0,0
98,-496,0,0,0,0,0,0,0,0,0,-1,1322,1520,0,0
105,-496,0,0,0,0,0,0,0,0,0,-1,1329,1520,0,0
112,-496,0,0,0,0,0,0,0,0,0,-1,1336,1520,0,0
119,-496,0,0,0,0,0,0,0,0,0,-1,1343,1520,0,0
126,-496,0,0,0,0,0,0,0,0,0,-1,1350,1520,0,0
133,-496,0,0,0,0,0,0,0,0,0,-1,1357,1520,0,0
140,-496,0,0,0,0,0,0,0,0,0,-1,1364,1520,0,0
147,-496,0,0,0,0,0,0,0,0,0,-1,1371,1520,0,0
154,-496,0,0,0,0,0,0,0,0,0,-1,1378,1520,0,0
161,-496,0,0,0,0,0,0,0,0,0,-1,1385,1520,0,0
168,-496,0,0,0,0,0,0,0,0,0,-1,1392,1520,0,0
175,-496,0,0,0,0,0,0,0,0,0,-1,1399,1520,0,0
182,-496,0,0,0,0,0,0,0,0,0,-1,1406,1520,0,0
189,-496,0,0,0,0,0,0,0,0,0,-1,1413,1520,0,0
196,-496,0,0,0,0,0,0,0,0,0,-1,1420,1520,0,0
203,-496,0,0,0,0,0,0,0,0,0,-1,1427,1520,0,0
210,-496,0,0,0,0,0,0,0,0,0,-1,1434,1520,0,0
217,-496,0,0,0,0,0,0,0,0,0,-1,1441,1520,0,0
224,-496,0,0,0,0,0,0,0,0,0,-1,1448,1520,0,0
231,-496,0,0,0,0,0,0,0,0,0,-1,1455,1520,0,0
238,-496,0,0,0,0,0,0,0,0,0,-1,1462,1520,0,0
245,-496,0,0,0,0,0,0,0,0,0,-1,1469,1520,0,0
252,-496,0,0,0,0,0,0,0,0,0,-1,1476,1520,0,0
259,-496,0,0,0,0,0,0,0,0,0,-1,1483,1520,0,0
266,-496,0,0,0,0,0,0,0,0,0,-1,1490,1520,0,0
273,-496,0,0,0,0,0,0,0,0,0,-1,1497,1520,0,0
280,-496,0,0,0,0,0,0,0,0,0,-1,1504,1520,0,0
287,-496,0,0,0,0,0,0,0,0,0,-1,1511,1520,0,0
294,-496,0,0,0,0,0,0,0,0,0,-1,1518,1520,0,0
301,-496,0,0,0,0,0,0,0,0,0,-1,1525,1520,0,0
308,-496,0,0,0,0,0,0,0,0,0,-1,1532,1520,0,0
315,-496,0,0,0,0,0,0,0,0,0,-1,1539,1520,0,0
322,-496,0,0,0,0,0,0,0,0,0,-1,1546,1520,0,0
329,-496,0,0,0,0,0,0,0,0,0,-1,1553,1520,0,0
336,-496,0,0,0,0,0,0,0,0,0,-1,1560,1520,0,0
343,-496,0,0,0,0,0,0,0,0,0,-1,1567,1520,0,0
350,-496,0,0,0,0,0,0,0,0,0,-1,1574,1520,0,0
357,-496,0,0,0,0,0,0,0,0,0,-1,1581,1520,0,0
364,-496,0,0,0,0,0,0,0,0,0,-1,1588,1520,0,0
371,-496,0,0,0,0,0,0,0,0,0,-1,1595,1520,0,0
378,-496,0,0,0,0,0,0,0,0,0,-1,1602,1520,0,0
385,-496,0,0,0,0,0,0,0,0,0,-1,1609,1520,0,0
392,-496,0,0,0,0,0,0,0,0,0,-1,1616,1520,0,0
399,-496,0,0,0,0,0,0,0,0,0,-1,1623,1520,0,0
406,-496,0,0,0,0,0,0,0,0,0,-1,1630,1520,0,0
413,-496,0,0,0,0,0,0,0,0,0,-1,1637,1520,0,0
420,-496,0,0,0,0,0,0,0,0,0,-1,1644,1520,0,0
427,-496,0,0,0,0,0,0,0,0,0,-1,1651,1520,0,0
434,-496,11.0457,3.37732,0,0,0,0,0,0,0,-1,1658,1520,11.0456,-3.37736
441,-496,11.788,2.75488,0,0,0,0,0,0,0,-1,1665,1520,11.7879,-2.75485
448,-496,12.2146,2.18494,0,0,0,0,0,0,0,-1,1672,1520,12.2146,-2.18489
455,-496,12.3489,1.65173,0,0,0,0,0,0,0,-1,1679,1520,12.3489,-1.65178
462,-496,12.1912,1.32361,0,0,0,0,0,0,0,-1,1686,1520,12.1911,-1.32357
469,-496,14.8138,5.77954,0,0,0,0,0,0,0,-1,1693,1520,14.8138,-5.77958
476,-496,15.2449,6.27942,0,0,0,0,0,0,0,-1,1700,1520,15.2449,-6.27936
483,-496,9.19812,6.88367,0,0,0,0,0,0,0,-1,1707,1520,9.19812,-6.88361
490,-496,10.2123,7.97144,0,0,0,0,0,0,0,-1,1714,1520,10.2122,-7.97145
497,-496,13.9297,12.2981,0,0,0,0,0,0,0,-1,1721,1520,13.9297,-12.2982
504,-496,16.3271,16.6501,0,0,0,0,0,0,0,-1,1728,1520,16.3272,-16.6502
511,-496,17.6753,18.0685,0,0,0,0,0,0,0,-1,1735,1520,17.6753,-18.0685
518,-496,17.0537,17.3118,0,0,0,0,0,0,0,-1,1742,1520,17.0538,-17.3118
525,-496,18.2721,19.3259,0,0,0,0,0,0,0,-1,1749,1520,18.2721,-19.3259
532,-496,24.2157,26.5186,0,0,0,0,0,0,0,-1,1756,1520,24.2157,-26.5186
539,-496,23.9152,26.463,0,0,0,0,0,0,0,-1,1763,1520,23.9151,-26.463
546,-496,24.011,25.7548,0.0064153,0.00532099,-0.00423818,0.0101415,0.00159479,-0.721203,0.00629708,0.0205808,1770,1520,24.011,-25.7547
553,-496,24.1304,25.0194,0.00506104,0.00389568,-0.00309201,0.00762479,0.00133193,-0.692267,0.00470252,0.0158578,1777,1520,24.1303,-25.0194
560,-496,24.1122,24.4637,0.00405086,0.00275183,-0.00224295,0.00573644,0.00106624,-0.644463,0.00352308,0.0151081,1784,1520,24.1122,-24.4638
567,-496,24.0775,23.8624,0.00340646,0.00193643,-0.00175954,0.00457833,0.000764553,-0.587549,0.00283198,0.0125552,1791,1520,24.0775,-23.8625
574,-496,24.0557,23.2401,0.00303816,0.00135883,-0.00149992,0.00391744,0.000479545,-0.530229,0.00246736,0.0124259,1798,1520,24.0557,-23.2402
581,-496,24.027,22.6646,0.00285429,0.000873893,-0.0013363,0.00352728,0.000200902,-0.46654,0.0022875,0.0136589,1805,1520,24.027,-22.6645
588,-496,24.0099,22.083,0.00293041,0.000584052,-0.00133159,0.00353191,-1.74461e-05,-0.424278,0.00236044,0.0154988,1812,1520,24.0098,-22.083
595,-496,23.985,21.4659,0.00331452,0.000339855,-0.00140921,0.0038761,-0.000221721,-0.379217,0.00266105,0.0164067,1819,1520,23.985,-21.466
602,-496,23.9482,20.8536,0.00388153,0.000259283,-0.00159466,0.00448352,-0.000342704,-0.360962,0.00310955,0.0185143,1826,1520,23.9482,-20.8536
609,-496,23.9382,20.2253,0.00462989,0.000184755,-0.0017853,0.00525813,-0.000443483,-0.338362,0.00366221,0.0179686,1833,1520,23.9382,-20.2253
616,-496,24.027,19.4706,0.0059257,-7.60251e-05,-0.0018869,0.00646963,-0.000619954,-0.280658,0.00453389,0.0419768,1840,1520,24.027,-19.4706
623,-496,24.0311,18.8536,0,0,0,0,0,0,0,-1,1847,1520,24.0311,-18.8536
630,-496,18.5656,13.8966,0,0,0,0,0,0,0,-1,1854,1520,18.5655,-13.8967
637,-496,14.6411,10.1016,0,0,0,0,0,0,0,-1,1861,1520,14.6411,-10.1016
644,-496,12.4537,10.087,0,0,0,0,0,0,0,-1,1868,1520,12.4537,-10.0871
651,-496,8.18506,5.47803,0,0,0,0,0,0,0,-1,1875,1520,8.18505,-5.47806
658,-496,7.79993,4.02563,0,0,0,0,0,0,0,-1,1882,1520,7.79997,-4.02568
665,-496,5.47583,7.90625,0,0,0,0,0,0,0,-1,1889,1520,5.47581,-7.90628
672,-496,0,0,0,0,0,0,0,0,0,-1,1896,1520,0,0
679,-496,0,0,0,0,0,0,0,0,0,-1,1903,1520,0,0
686,-496,0,0,0,0,0,0,0,0,0,-1,1910,1520,0,0
693,-496,0,0,0,0,0,0,0,0,0,-1,1917,1520,0,0
700,-496,0,0,0,0,0,0,0,0,0,-1,1924,1520,0,0
707,-496,0,0,0,0,0,0,0,0,0,-1,1931,1520,0,0
714,-496,0,0,0,0,0,0,0,0,0,-1,1938,1520,0,0
721,-496,0,0,0,0,0,0,0,0,0,-1,1945,1520,0,0
728,-496,0,0,0,0,0,0,0,0,0,-1,1952,1520,0,0
735,-496,0,0,0,0,0,0,0,0,0,-1,1959,1520,0,0
742,-496,0,0,0,0,0,0,0,0,0,-1,1966,1520,0,0
749,-496,0,0,0,0,0,0,0,0,0,-1,1973,1520,0,0
756,-496,0,0,0,0,0,0,0,0,0,-1,1980,1520,0,0
763,-496,0,0,0,0,0,0,0,0,0,-1,1987,1520,0,0
770,-496,0,0,0,0,0,0,0,0,0,-1,1994,1520,0,0
777,-496,0,0,0,0,0,0,0,0,0,-1,2001,1520,0,0
784,-496,0,0,0,0,0,0,0,0,0,-1,2008,1520,0,0
791,-496,0,0,0,0,0,0,0,0,0,-1,2015,1520,0,0
798,-496,0,0,0,0,0,0,0,0,0,-1,2022,1520,0,0
805,-496,0,0,0,0,0,0,0,0,0,-1,2029,1520,0,0
812,-496,0,0,0,0,0,0,0,0,0,-1,2036,1520,0,0
-700,-503,0,0,0,0,0,0,0,0,0,-1,524,1527,0,0
-693,-503,0,0,0,0,0,0,0,0,0,-1,531,1527,0,0
-686,-503,0,0,0,0,0,0,0,0,0,-1,538,1527,0,0
-679,-503,0,0,0,0,0,0,0,0,0,-1,545,1527,0,0
-672,-503,0,0,0,0,0,0,0,0,0,-1,552,1527,0,0
-665,-503,0,0,0,0,0,0,0,0,0,-1,559,1527,0,0
-658,-503,0,0,0,0,0,0,0,0,0,-1,566,1527,0,0
-651,-503,0,0,0,0,0,0,0,0,0,-1,573,1527,0,0
-644,-503,0,0,0,0,0,0,0,0,0,-1,580,1527,0,0
-637,-503,0,0,0,0,0,0,0,0,0,-1,587,1527,0,0
-630,-503,0,0,0,0,0,0,0,0,0,-1,594,1527,0,0
-623,-503,0,0,0,0,0,0,0,0,0,-1,601,1527,0,0
-616,-503,0,0,0,0,0,0,0,0,0,-1,608,1527,0,0
-609,-503,0,0,0,0,0,0,0,0,0,-1,615,1527,0,0
-602,-503,0,0,0,0,0,0,0,0,0,-1,622,1527,0,0
-595,-503,0,0,0,0,0,0,0,0,0,-1,629,1527,0,0
-588,-503,0,0,0,0,0,0,0,0,0,-1,636,1527,0,0
-581,-503,0,0,0,0,0,0,0,0,0,-1,643,1527,0,0
-574,-503,0,0,0,0,0,0,0,0,0,-1,650,1527,0,0
-567,-503,0,0,0,0,0,0,0,0,0,-1,657,1527,0,0
-560,-503,0,0,0,0,0,0,0,0,0,-1,664,1527,0,0
-553,-503,0,0,0,0,0,0,0,0,0,-1,671,1527,0,0
-546,-503,0,0,0,0,0,0,0,0,0,-1,678,1527,0,0
-539,-503,3.50177,4.26428,0,0,0,0,0,0,0,-1,685,1527,3.50177,-4.26424
-532,-503,-3.13196,1.05298,0,0,0,0,0,0,0,-1,692,1527,-3.13194,-1.05299
-525,-503,-2.94293,2.59314,0,0,0,0,0,0,0,-1,699,1527,-2.94296,-2.59314
-518,-503,-2.7395,4.05872,0,0,0,0,0,0,0,-1,706,1527,-2.73948,-4.05871
-511,-503,-1.60022,7.23877,0,0,0,0,0,0,0,-1,713,1527,-1.60023,-7.23872
-504,-503,-8.1402,10.1541,0,0,0,0,0,0,0,-1,720,1527,-8.14017,-10.1541
-497,-503,-4.51758,14.0781,0,0,0,0,0,0,0,-1,727,1527,-4.5176,-14.0782
-490,-503,-4.24194,16.1982,0,0,0,0,0,0,0,-1,734,1527,-4.24196,-16.1982
-483,-503,-6.13617,18.7185,0,0,0,0,0,0,0,-1,741,1527,-6.13615,-18.7185
-476,-503,-6.11676,19.113,0.000399787,-0.00733275,-0.00139453,0.000643595,-0.00757656,-0.173083,0.00527866,0.0336333,748,1527,-6.11678,-19.113
-469,-503,-6.22119,19.6621,0.000267333,-0.00625939,-0.00128163,0.000509982,-0.00650204,-0.187113,0.0045143,0.0136481,755,1527,-6.22119,-19.6621
-462,-503,-6.2616,20.3258,0.000229064,-0.00491076,-0.00100675,0.000419223,-0.00510091,-0.186685,0.00354861,0.0126265,762,1527,-6.26157,-20.3258
-455,-503,-6.24127,20.9761,0.000330809,-0.00345016,-0.000599131,0.000423476,-0.00354283,-0.153453,0.00251496,0.0194357,769,1527,-6.24127,-20.9761
-448,-503,-6.25952,21.6107,0.000613256,-0.00187867,-2.65466e-05,0.000613539,-0.00187896,-0.0106514,0.00149959,0.0181389,776,1527,-6.25952,-21.6107
-441,-503,-6.30298,22.2468,0.00116254,-9.41564e-05,0.00080343,0.00155416,-0.000485769,0.453538,0.00123042,0.0141824,783,1527,-6.30298,-22.2468
-434,-503,-6.33698,22.8643,0.00190699,0.00188366,0.00184078,0.00373615,5.45057e-05,0.78223,0.0024728,0.0119094,790,1527,-6.33695,-22.8643
-427,-503,-6.42963,23.4695,0.00288709,0.00387832,0.00302861,0.0064516,0.000313809,0.866502,0.00420037,0.0183096,797,1527,-6.42964,-23.4694
-420,-503,-6.42297,24.093,0.00416614,0.00612216,0.0045057,0.00975477,0.000533529,0.892271,0.00633283,0.0191065,804,1527,-6.423,-24.093
-413,-503,-6.42346,24.7709,0.00596251,0.00842604,0.00636706,0.0136794,0.000709161,0.880947,0.00889263,0.0167888,811,1527,-6.42344,-24.7709
-406,-503,-6.39929,25.4232,0.00813164,0.0109939,0.00848571,0.0181683,0.000957222,0.868937,0.0118061,0.0260041,818,1527,-6.39929,-25.4232
-399,-503,-6.27777,26.267,0.010569,0.0139705,0.0110564,0.0234562,0.00108336,0.861711,0.0152891,0.04191,825,1527,-6.27776,-26.267
-392,-503,-5.95209,27.3431,0,0,0,0,0,0,0,-1,832,1527,-5.95211,-27.3432
-385,-503,-2.00403,14.1218,0,0,0,0,0,0,0,-1,839,1527,-2.00403,-14.1218
-378,-503,-2.07043,13.8632,0,0,0,0,0,0,0,-1,846,1527,-2.07043,-13.8631
-371,-503,-1.67285,13.8081,0,0,0,0,0,0,0,-1,853,1527,-1.67285,-13.8081
-364,-503,0.181396,12.3768,0,0,0,0,0,0,0,-1,860,1527,0.18138,-12.3768
-357,-503,0.558533,9.25452,0,0,0,0,0,0,0,-1,867,1527,0.558542,-9.25446
-350,-503,0.219971,6.84827,0,0,0,0,0,0,0,-1,874,1527,0.21996,-6.84831
-343,-503,-3.5802,4.43274,0,0,0,0,0,0,0,-1,881,1527,-3.58018,-4.43276
-336,-503,-3.2384,6.40637,0,0,0,0,0,0,0,-1,888,1527,-3.2384,-6.40643
-329,-503,-1.70691,11.886,0,0,0,0,0,0,0,-1,895,1527,-1.70689,-11.886
-322,-503,-3.31317,8.81519,0,0,0,0,0,0,0,-1,902,1527,-3.31315,-8.81524
-315,-503,-3.90265,7.73853,0,0,0,0,0,0,0,-1,909,1527,-3.90264,-7.73854
-308,-503,-1.70264,7.35413,0,0,0,0,0,0,0,-1,916,1527,-1.70262,-7.35416
-301,-503,0,0,0,0,0,0,0,0,0,-1,923,1527,0,0
-294,-503,0,0,0,0,0,0,0,0,0,-1,930,1527,0,0
-287,-503,0,0,0,0,0,0,0,0,0,-1,937,1527,0,0
-280,-503,0,0,0,0,0,0,0,0,0,-1,944,1527,0,0
-273,-503,0,0,0,0,0,0,0,0,0,-1,951,1527,0,0
-266,-503,0,0,0,0,0,0,0,0,0,-1,958,1527,0,0
-259,-503,0,0,0,0,0,0,0,0,0,-1,965,1527,0,0
-252,-503,0,0,0,0,0,0,0,0,0,-1,972,1527,0,0
-245,-503,0,0,0,0,0,0,0,0,0,-1,979,1527,0,0
-238,-503,0,0,0,0,0,0,0,0,0,-1,986,1527,0,0
-231,-503,0,0,0,0,0,0,0,0,0,-1,993,1527,0,0
-224,-503,0,0,0,0,0,0,0,0,0,-1,1000,1527,0,0
-217,-503,0,0,0,0,0,0,0,0,0,-1,1007,1527,0,0
-210,-503,0,0,0,0,0,0,0,0,0,-1,1014,1527,0,0
-203,-503,0,0,0,0,0,0,0,0,0,-1,1021,1527,0,0
-196,-503,0,0,0,0,0,0,0,0,0,-1,1028,1527,0,0
-189,-503,0,0,0,0,0,0,0,0,0,-1,1035,1527,0,0
-182,-503,0,0,0,0,0,0,0,0,0,-1,1042,1527,0,0
-175,-503,0,0,0,0,0,0,0,0,0,-1,1049,1527,0,0
-168,-503,0,0,0,0,0,0,0,0,0,-1,1056,1527,0,0
-161,-503,0,0,0,0,0,0,0,0,0,-1,1063,1527,0,0
-154,-503,0,0,0,0,0,0,0,0,0,-1,1070,1527,0,0
-147,-503,0,0,0,0,0,0,0,0,0,-1,1077,1527,0,0
-140,-503,0,0,0,0,0,0,0,0,0,-1,1084,1527,0,0
-133,-503,0,0,0,0,0,0,0,0,0,-1,1091,1527,0,0
-126,-503,0,0,0,0,0,0,0,0,0,-1,1098,1527,0,0
-119,-503,0,0,0,0,0,0,0,0,0,-1,1105,1527,0,0
-112,-503,0,0,0,0,0,0,0,0,0,-1,1112,1527,0,0
-105,-503,0,0,0,0,0,0,0,0,0,-1,1119,1527,0,0
-98,-503,0,0,0,0,0,0,0,0,0,-1,1126,1527,0,0
-91,-503,0,0,0,0,0,0,0,0,0,-1,1133,1527,0,0
-84,-503,0,0,0,0,0,0,0,0,0,-1,1140,1527,0,0
-77,-503,0,0,0,0,0,0,0,0,0,-1,1147,1527,0,0
-70,-503,0,0,0,0,0,0,0,0,0,-1,1154,1527,0,0
-63,-503,0,0,0,0,0,0,0,0,0,-1,1161,1527,0,0
-56,-503,0,0,0,0,0,0,0,0,0,-1,1168,1527,0,0
-49,-503,0,0,0,0,0,0,0,0,0,-1,1175,1527,0,0
-42,-503,0,0,0,0,0,0,0,0,0,-1,1182,1527,0,0
-35,-503,0,0,0,0,0,0,0,0,0,-1,1189,1527,0,0
-28,-503,0,0,0,0,0,0,0,0,0,-1,1196,1527,0,0
-21,-503,0,0,0,0,0,0,0,0,0,-1,1203,1527,0,0
-14,-503,0,0,0,0,0,0,0,0,0,-1,1210,1527,0,0
-7,-503,0,0,0,0,0,0,0,0,0,-1,1217,1527,0,0
0,-503,0,0,0,0,0,0,0,0,0,-1,1224,1527,0,0
7,-503,0,0,0,0,0,0,0,0,0,-1,1231,1527,0,0
14,-503,0,0,0,0,0,0,0,0,0,-1,1238,1527,0,0
21,-503,0,0,0,0,0,0,0,0,0,-1,1245,1527,0,0
28,-503,0,0,0,0,0,0,0,0,0,-1,1252,1527,0,0
35,-503,0,0,0,0,0,0,0,0,0,-1,1259,1527,0,0
42,-503,0,0,0,0,0,0,0,0,0,-1,1266,1527,0,0
49,-503,0,0,0,0,0,0,0,0,0,-1,1273,1527,0,0
56,-503,0,0,0,0,0,0,0,0,0,-1,1280,1527,0,0
63,-503,0,0,0,0,0,0,0,0,0,-1,1287,1527,0,0
70,-503,0,0,0,0,0,0,0,0,0,-1,1294,1527,0,0
77,-503,0,0,0,0,0,0,0,0,0,-1,1301,1527,0,0
84,-503,0,0,0,0,0,0,0,0,0,-1,1308,1527,0,0
91,-503,0,0,0,0,0,0,0,0,0,-1,1315,1527,0,0
98,-503,0,0,0,0,0,0,0,0,0,-1,1322,1527,0,0
105,-503,0,0,0,0,0,0,0,0,0,-1,1329,1527,0,0
112,-503,0,0,0,0,0,0,0,0,0,-1,1336,1527,0,0
119,-503,0,0,0,0,0,0,0,0,0,-1,1343,1527,0,0
126,-503,0,0,0,0,0,0,0,0,0,-1,1350,1527,0,0
133,-503,0,0,0,0,0,0,0,0,0,-1,1357,1527,0,0
140,-503,0,0,0,0,0,0,0,0,0,-1,1364,1527,0,0
147,-503,0,0,0,0,0,0,0,0,0,-1,1371,1527,0,0
154,-503,0,0,0,0,0,0,0,0,0,-1,1378,1527,0,0
161,-503,0,0,0,0,0,0,0,0,0,-1,1385,1527,0,0
168,-503,0,0,0,0,0,0,0,0,0,-1,1392,1527,0,0
175,-503,0,0,0,0,0,0,0,0,0,-1,1399,1527,0,0
182,-503,0,0,0,0,0,0,0,0,0,-1,1406,1527,0,0
189,-503,0,0,0,0,0,0,0,0,0,-1,1413,1527,0,0
196,-503,0,0,0,0,0,0,0,0,0,-1,1420,1527,0,0
203,-503,0,0,0,0,0,0,0,0,0,-1,1427,1527,0,0
210,-503,0,0,0,0,0,0,0,0,0,-1,1434,1527,0,0
217,-503,0,0,0,0,0,0,0,0,0,-1,1441,1527,0,0
224,-503,0,0,0,0,0,0,0,0,0,-1,1448,1527,0,0
231,-503,0,0,0,0,0,0,0,0,0,-1,1455,1527,0,0
238,-503,0,0,0,0,0,0,0,0,0,-1,1462,1527,0,0
245,-503,0,0,0,0,0,0,0,0,0,-1,1469,1527,0,0
252,-503,0,0,0,0,0,0,0,0,0,-1,1476,1527,0,0
259,-503,0,0,0,0,0,0,0,0,0,-1,1483,1527,0,0
266,-503,0,0,0,0,0,0,0,0,0,-1,1490,1527,0,0
273,-503,0,0,0,0,0,0,0,0,0,-1,1497,1527,0,0
280,-503,0,0,0,0,0,0,0,0,0,-1,1504,1527,0,0
287,-503,0,0,0,0,0,0,0,0,0,-1,1511,1527,0,0
294,-503,0,0,0,0,0,0,0,0,0,-1,1518,1527,0,0
301,-503,0,0,0,0,0,0,0,0,0,-1,1525,1527,0,0
308,-503,0,0,0,0,0,0,0,0,0,-1,1532,1527,0,0
315,-503,0,0,0,0,0,0,0,0,0,-1,1539,1527,0,0
322,-503,0,0,0,0,0,0,0,0,0,-1,1546,1527,0,0
329,-503,0,0,0,0,0,0,0,0,0,-1,1553,1527,0,0
336,-503,0,0,0,0,0,0,0,0,0,-1,1560,1527,0,0
343,-503,0,0,0,0,0,0,0,0,0,-1,1567,1527,0,0
350,-503,0,0,0,0,0,0,0,0,0,-1,1574,1527,0,0
357,-503,0,0,0,0,0,0,0,0,0,-1,1581,1527,0,0
364,-503,0,0,0,0,0,0,0,0,0,-1,1588,1527,0,0
371,-503,0,0,0,0,0,0,0,0,0,-1,1595,1527,0,0
378,-503,0,0,0,0,0,0,0,0,0,-1,1602,1527,0,0
385,-503,0,0,0,0,0,0,0,0,0,-1,1609,1527,0,0
392,-503,0,0,0,0,0,0,0,0,0,-1,1616,1527,0,0
399,-503,0,0,0,0,0,0,0,0,0,-1,1623,1527,0,0
406,-503,0,0,0,0,0,0,0,0,0,-1,1630,1527,0,0
413,-503,0,0,0,0,0,0,0,0,0,-1,1637,1527,0,0
420,-503,0,0,0,0,0,0,0,0,0,-1,1644,1527,0,0
427,-503,10.5968,4.9856,0,0,0,0,0,0,0,-1,1651,1527,10.5969,-4.98563
434,-503,11.4329,3.97217,0,0,0,0,0,0,0,-1,1658,1527,11.4328,-3.97222
441,-503,12.0957,2.96509,0,0,0,0,0,0,0,-1,1665,1527,12.0957,-2.96512
448,-503,12.3259,2.53894,0,0,0,0,0,0,0,-1,1672,1527,12.326,-2.53895
455,-503,12.1669,2.18762,0,0,0,0,0,0,0,-1,1679,1527,12.1668,-2.18767
462,-503,11.59,2.60791,0,0,0,0,0,0,0,-1,1686,1527,11.5899,-2.60794
469,-503,11.1625,1.61853,0,0,0,0,0,0,0,-1,1693,1527,11.1625,-1.61856
476,-503,9.07703,5.81042,0,0,0,0,0,0,0,-1,1700,1527,9.07699,-5.81047
483,-503,9.74414,6.92432,0,0,0,0,0,0,0,-1,1707,1527,9.74417,-6.9243
490,-503,10.5033,10.1071,0,0,0,0,0,0,0,-1,1714,1527,10.5032,-10.107
497,-503,15.0057,17.9476,0,0,0,0,0,0,0,-1,1721,1527,15.0058,-17.9476
504,-503,16.4764,18.4486,0,0,0,0,0,0,0,-1,1728,1527,16.4764,-18.4486
511,-503,16.8276,18.3271,0,0,0,0,0,0,0,-1,1735,1527,16.8276,-18.3272
518,-503,17.2533,18.2738,0,0,0,0,0,0,0,-1,1742,1527,17.2533,-18.2738
525,-503,21.2887,26.5785,0,0,0,0,0,0,0,-1,1749,1527,21.2887,-26.5785
532,-503,23.4932,26.9725,0,0,0,0,0,0,0,-1,1756,1527,23.4932,-26.9726
539,-503,23.4773,26.3502,0.0070039,0.0060521,-0.00497103,0.0115218,0.00153424,-0.737676,0.00722427,0.0268813,1763,1527,23.4773,-26.3502
546,-503,23.495,25.6624,0.00537964,0.00455837,-0.00365384,0.00864584,0.00129216,-0.729441,0.0053851,0.0139873,1770,1527,23.495,-25.6624
553,-503,23.541,25.0754,0.00421879,0.00327886,-0.0026403,0.00643063,0.00106703,-0.697323,0.00397938,0.0142956,1777,1527,23.541,-25.0754
560,-503,23.4955,24.5001,0.00340717,0.00222831,-0.00188225,0.00479013,0.000845358,-0.633658,0.00295225,0.0138747,1784,1527,23.4955,-24.5001
567,-503,23.4685,23.8859,0.00298288,0.00151815,-0.00150436,0.00392368,0.000577352,-0.558871,0.00244615,0.0126484,1791,1527,23.4685,-23.8859
574,-503,23.4603,23.2605,0.00281831,0.000998193,-0.00131341,0.00350614,0.000310357,-0.482428,0.00224115,0.0122432,1798,1527,23.4604,-23.2605
581,-503,23.421,22.6818,0.00285495,0.000576141,-0.00123752,0.00339771,3.33752e-05,-0.413327,0.0022541,0.013341,1805,1527,23.421,-22.6817
588,-503,23.3936,22.1206,0.003158,0.000374657,-0.00134894,0.00370447,-0.000171814,-0.384905,0.00252886,0.0166165,1812,1527,23.3936,-22.1206
595,-503,23.3695,21.4869,0.00375912,0.000249053,-0.00157247,0.00436052,-0.000352351,-0.365294,0.0030313,0.0129428,1819,1527,23.3696,-21.4869
602,-503,23.4075,20.8104,0.00458639,0.000362299,-0.00193486,0.00533868,-0.00038999,-0.370821,0.00369598,0.0259279,1826,1527,23.4074,-20.8104
609,-503,23.3888,20.1807,0,0,0,0,0,0,0,-1,1833,1527,23.3888,-20.1806
616,-503,23.5288,19.5443,0,0,0,0,0,0,0,-1,1840,1527,23.5287,-19.5443
623,-503,18.7351,15.5999,0,0,0,0,0,0,0,-1,1847,1527,18.7351,-15.5999
630,-503,20.6721,13.9077,0,0,0,0,0,0,0,-1,1854,1527,20.6721,-13.9077
637,-503,14.5564,9.20496,0,0,0,0,0,0,0,-1,1861,1527,14.5564,-9.2049
644,-503,11.4802,7.57214,0,0,0,0,0,0,0,-1,1868,1527,11.4802,-7.57215
651,-503,11.5718,6.5448,0,0,0,0,0,0,0,-1,1875,1527,11.5718,-6.54476
658,-503,8.25635,3.10498,0,0,0,0,0,0,0,-1,1882,1527,8.2563,-3.10493
665,-503,0,0,0,0,0,0,0,0,0,-1,1889,1527,0,0
672,-503,0,0,0,0,0,0,0,0,0,-1,1896,1527,0,0
679,-503,0,0,0,0,0,0,0,0,0,-1,1903,1527,0,0
686,-503,0,0,0,0,0,0,0,0,0,-1,1910,1527,0,0
693,-503,0,0,0,0,0,0,0,0,0,-1,1917,1527,0,0
700,-503,0,0,0,0,0,0,0,0,0,-1,1924,1527,0,0
707,-503,0,0,0,0,0,0,0,0,0,-1,1931,1527,0,0
714,-503,0,0,0,0,0,0,0,0,0,-1,1938,1527,0,0
721,-503,0,0,0,0,0,0,0,0,0,-1,1945,1527,0,0
728,-503,0,0,0,0,0,0,0,0,0,-1,1952,1527,0,0
735,-503,0,0,0,0,0,0,0,0,0,-1,1959,1527,0,0
742,-503,0,0,0,0,0,0,0,0,0,-1,1966,1527,0,0
749,-503,0,0,0,0,0,0,0,0,0,-1,1973,1527,0,0
756,-503,0,0,0,0,0,0,0,0,0,-1,1980,1527,0,0
763,-503,0,0,0,0,0,0,0,0,0,-1,1987,1527,0,0
770,-503,0,0,0,0,0,0,0,0,0,-1,1994,1527,0,0
777,-503,0,0,0,0,0,0,0,0,0,-1,2001,1527,0,0
784,-503,0,0,0,0,0,0,0,0,0,-1,2008,1527,0,0
791,-503,0,0,0,0,0,0,0,0,0,-1,2015,1527,0,0
798,-503,0,0,0,0,0,0,0,0,0,-1,2022,1527,0,0
805,-503,0,0,0,0,0,0,0,0,0,-1,2029,1527,0,0
812,-503,0,0,0,0,0,0,0,0,0,-1,2036,1527,0,0
-700,-510,0,0,0,0,0,0,0,0,0,-1,524,1534,0,0
-693,-510,0,0,0,0,0,0,0,0,0,-1,531,1534,0,0
-686,-510,0,0,0,0,0,0,0,0,0,-1,538,1534,0,0
-679,-510,0,0,0,0,0,0,0,0,0,-1,545,1534,0,0
-672,-510,0,0,0,0,0,0,0,0,0,-1,552,1534,0,0
-665,-510,0,0,0,0,0,0,0,0,0,-1,559,1534,0,0
-658,-510,0,0,0,0,0,0,0,0,0,-1,566,1534,0,0
-651,-510,0,0,0,0,0,0,0,0,0,-1,573,1534,0,0
-644,-510,0,0,0,0,0,0,0,0,0,-1,580,1534,0,0
-637,-510,0,0,0,0,0,0,0,0,0,-1,587,1534,0,0
-630,-510,0,0,0,0,0,0,0,0,0,-1,594,1534,0,0
-623,-510,0,0,0,0,0,0,0,0,0,-1,601,1534,0,0
-616,-510,0,0,0,0,0,0,0,0,0,-1,608,1534,0,0
-609,-510,0,0,0,0,0,0,0,0,0,-1,615,1534,0,0
-602,-510,0,0,0,0,0,0,0,0,0,-1,622,1534,0,0
-595,-510,0,0,0,0,0,0,0,0,0,-1,629,1534,0,0
-588,-510,0,0,0,0,0,0,0,0,0,-1,636,1534,0,0
-581,-510,0,0,0,0,0,0,0,0,0,-1,643,1534,0,0
-574,-510,0,0,0,0,0,0,0,0,0,-1,650,1534,0,0
-567,-510,0,0,0,0,0,0,0,0,0,-1,657,1534,0,0
-560,-510,0,0,0,0,0,0,0,0,0,-1,664,1534,0,0
-553,-510,0,0,0,0,0,0,0,0,0,-1,671,1534,0,0
-546,-510,0,0,0,0,0,0,0,0,0,-1,678,1534,0,0
-539,-510,0,0,0,0,0,0,0,0,0,-1,685,1534,0,0
-532,-510,-3.95129,4.52014,0,0,0,0,0,0,0,-1,692,1534,-3.95131,-4.5202
-525,-510,-2.77411,0.316772,0,0,0,0,0,0,0,-1,699,1534,-2.77409,-0.3168
-518,-510,-2.86847,2.71423,0,0,0,0,0,0,0,-1,706,1534,-2.86849,-2.71424
-511,-510,-2.28571,4.48083,0,0,0,0,0,0,0,-1,713,1534,-2.28571,-4.48086
-504,-510,-4.86731,10.8224,0,0,0,0,0,0,0,-1,720,1534,-4.8673,-10.8224
-497,-510,-3.42352,15.5178,0,0,0,0,0,0,0,-1,727,1534,-3.42352,-15.5178
-490,-510,-5.29987,17.925,0,0,0,0,0,0,0,-1,734,1534,-5.29986,-17.925
-483,-510,-5.16699,18.4187,0.00123238,-0.011204,-0.00192124,0.00152242,-0.011494,-0.149833,0.00821731,0.0468789,741,1534,-5.16701,-18.4187
-476,-510,-5.26465,19.0393,0.000881968,-0.00992845,-0.00206816,0.00126412,-0.0103106,-0.182718,0.00733153,0.0433286,748,1534,-5.26465,-19.0393
-469,-510,-5.55853,19.7181,0.000582021,-0.00856499,-0.00191112,0.000965262,-0.00894823,-0.197907,0.00631189,0.0176372,755,1534,-5.55855,-19.7181
-462,-510,-5.60278,20.3527,0.0003611,-0.00692472,-0.00160301,0.000698193,-0.00726181,-0.207268,0.00508993,0.0119784,762,1534,-5.60275,-20.3526
-455,-510,-5.62128,21.0126,0.000298649,-0.00520779,-0.00118031,0.000540984,-0.00545012,-0.2025,0.00382651,0.0155216,769,1534,-5.62127,-21.0126
-448,-510,-5.63873,21.6548,0.000401936,-0.0034705,-0.000641473,0.000505431,-0.00357399,-0.159961,0.00256777,0.0143388,776,1534,-5.63873,-21.6548
-441,-510,-5.68042,22.2823,0.000774599,-0.00159994,0.000119982,0.000780646,-0.00160598,0.0503578,0.00140512,0.0145262,783,1534,-5.68041,-22.2823
-434,-510,-5.74896,22.8893,0.00135215,0.000389013,0.00106063,0.00203542,-0.00029425,0.572293,0.00146491,0.015699,790,1534,-5.74896,-22.8892
-427,-510,-5.79089,23.4832,0.00216524,0.00232814,0.00211159,0.00435985,0.000133534,0.804675,0.00286309,0.0238874,797,1534,-5.7909,-23.4831
-420,-510,-5.7998,24.1262,0.00327644,0.00440186,0.00343091,0.0073159,0.000362406,0.86668,0.00476107,0.0217283,804,1534,-5.79981,-24.1262
-413,-510,-5.78223,24.8029,0.00474093,0.00655103,0.00496837,0.0106961,0.000595845,0.875491,0.00694066,0.0117676,811,1534,-5.78223,-24.8028
-406,-510,-5.83142,25.4115,0.00652618,0.00883027,0.00672735,0.0145035,0.000852948,0.8702,0.0093976,0.0116383,818,1534,-5.83141,-25.4115
-399,-510,-5.86298,26.0281,0.00849723,0.0113799,0.00877681,0.0188329,0.00104418,0.866781,0.0122221,0.0154326,825,1534,-5.86298,-26.0281
-392,-510,-5.67999,26.937,0.0106833,0.0143606,0.01091,0.0235858,0.00145813,0.868878,0.0152611,0.0490437,832,1534,-5.67999,-26.937
-385,-510,-5.34625,27.9353,0,0,0,0,0,0,0,-1,839,1534,-5.34628,-27.9353
-378,-510,-1.78308,13.8044,0,0,0,0,0,0,0,-1,846,1534,-1.78309,-13.8044
-371,-510,-1.74982,13.8027,0,0,0,0,0,0,0,-1,853,1534,-1.74981,-13.8028
-364,-510,-1.3479,13.7771,0,0,0,0,0,0,0,-1,860,1534,-1.34791,-13.7771
-357,-510,-0.254395,8.89575,0,0,0,0,0,0,0,-1,867,1534,-0.254397,-8.89569
-350,-510,0.471191,6.06458,0,0,0,0,0,0,0,-1,874,1534,0.47118,-6.06453
-343,-510,-6.96869,26.3074,0,0,0,0,0,0,0,-1,881,1534,-6.9687,-26.3074
-336,-510,-5.60437,29.5996,0,0,0,0,0,0,0,-1,888,1534,-5.60435,-29.5996
-329,-510,-4.87781,20.6893,0,0,0,0,0,0,0,-1,895,1534,-4.87782,-20.6894
-322,-510,-0.251526,11.973,0,0,0,0,0,0,0,-1,902,1534,-0.251497,-11.9731
-315,-510,-1.73047,10.9796,0,0,0,0,0,0,0,-1,909,1534,-1.73049,-10.9796
-308,-510,-2.05328,9.72034,0,0,0,0,0,0,0,-1,916,1534,-2.05327,-9.72036
-301,-510,-1.85437,11.5869,0,0,0,0,0,0,0,-1,923,1534,-1.85437,-11.5869
-294,-510,0,0,0,0,0,0,0,0,0,-1,930,1534,0,0
-287,-510,0,0,0,0,0,0,0,0,0,-1,937,1534,0,0
-280,-510,0,0,0,0,0,0,0,0,0,-1,944,1534,0,0
-273,-510,0,0,0,0,0,0,0,0,0,-1,951,1534,0,0
-266,-510,0,0,0,0,0,0,0,0,0,-1,958,1534,0,0
-259,-510,0,0,0,0,0,0,0,0,0,-1,965,1534,0,0
-252,-510,0,0,0,0,0,0,0,0,0,-1,972,1534,0,0
-245,-510,0,0,0,0,0,0,0,0,0,-1,979,1534,0,0
-238,-510,0,0,0,0,0,0,0,0,0,-1,986,1534,0,0
-231,-510,0,0,0,0,0,0,0,0,0,-1,993,1534,0,0
-224,-510,0,0,0,0,0,0,0,0,0,-1,1000,1534,0,0
-217,-510,0,0,0,0,0,0,0,0,0,-1,1007,1534,0,0
-210,-510,0,0,0,0,0,0,0,0,0,-1,1014,1534,0,0
-203,-510,0,0,0,0,0,0,0,0,0,-1,1021,1534,0,0
-196,-510,0,0,0,0,0,0,0,0,0,-1,1028,1534,0,0
-189,-510,0,0,0,0,0,0,0,0,0,-1,1035,1534,0,0
-182,-510,0,0,0,0,0,0,0,0,0,-1,1042,1534,0,0
-175,-510,0,0,0,0,0,0,0,0,0,-1,1049,1534,0,0
-168,-510,0,0,0,0,0,0,0,0,0,-1,1056,1534,0,0
-161,-510,0,0,0,0,0,0,0,0,0,-1,1063,1534,0,0
-154,-510,0,0,0,0,0,0,0,0,0,-1,1070,1534,0,0
-147,-510,0,0,0,0,0,0,0,0,0,-1,1077,1534,0,0
-140,-510,0,0,0,0,0,0,0,0,0,-1,1084,1534,0,0
-133,-510,0,0,0,0,0,0,0,0,0,-1,1091,1534,0,0
-126,-510,0,0,0,0,0,0,0,0,0,-1,1098,1534,0,0
-119,-510,0,0,0,0,0,0,0,0,0,-1,1105,1534,0,0
-112,-510,0,0,0,0,0,0,0,0,0,-1,1112,1534,0,0
-105,-510,0,0,0,0,0,0,0,0,0,-1,1119,1534,0,0
-98,-510,0,0,0,0,0,0,0,0,0,-1,1126,1534,0,0
-91,-510,0,0,0,0,0,0,0,0,0,-1,1133,1534,0,0
-84,-510,0,0,0,0,0,0,0,0,0,-1,1140,1534,0,0
-77,-510,0,0,0,0,0,0,0,0,0,-1,1147,1534,0,0
-70,-510,0,0,0,0,0,0,0,0,0,-1,1154,1534,0,0
-63,-510,0,0,0,0,0,0,0,0,0,-1,1161,1534,0,0
-56,-510,0,0,0,0,0,0,0,0,0,-1,1168,1534,0,0
-49,-510,0,0,0,0,0,0,0,0,0,-1,1175,1534,0,0
-42,-510,0,0,0,0,0,0,0,0,0,-1,1182,1534,0,0
-35,-510,0,0,0,0,0,0,0,0,0,-1,1189,1534,0,0
-28,-510,0,0,0,0,0,0,0,0,0,-1,1196,1534,0,0
-21,-510,0,0,0,0,0,0,0,0,0,-1,1203,1534,0,0
-14,-510,0,0,0,0,0,0,0,0,0,-1,1210,1534,0,0
-7,-510,0,0,0,0,0,0,0,0,0,-1,1217,1534,0,0
0,-510,0,0,0,0,0,0,0,0,0,-1,1224,1534,0,0
7,-510,0,0,0,0,0,0,0,0,0,-1,1231,1534,0,0
14,-510,0,0,0,0,0,0,0,0,0,-1,1238,1534,0,0
21,-510,0,0,0,0,0,0,0,0,0,-1,1245,1534,0,0
28,-510,0,0,0,0,0,0,0,0,0,-1,1252,1534,0,0
35,-510,0,0,0,0,0,0,0,0,0,-1,1259,1534,0,0
42,-510,0,0,0,0,0,0,0,0,0,-1,1266,1534,0,0
49,-510,0,0,0,0,0,0,0,0,0,-1,1273,1534,0,0
56,-510,0,0,0,0,0,0,0,0,0,-1,1280,1534,0,0
63,-510,0,0,0,0,0,0,0,0,0,-1,1287,1534,0,0
70,-510,0,0,0,0,0,0,0,0,0,-1,1294,1534,0,0
77,-510,0,0,0,0,0,0,0,0,0,-1,1301,1534,0,0
84,-510,0,0,0,0,0,0,0,0,0,-1,1308,1534,0,0
91,-510,0,0,0,0,0,0,0,0,0,-1,1315,1534,0,0
98,-510,0,0,0,0,0,0,0,0,0,-1,1322,1534,0,0
105,-510,0,0,0,0,0,0,0,0,0,-1,1329,1534,0,0
112,-510,0,0,0,0,0,0,0,0,0,-1,1336,1534,0,0
119,-510,0,0,0,0,0,0,0,0,0,-1,1343,1534,0,0
126,-510,0,0,0,0,0,0,0,0,0,-1,1350,1534,0,0
133,-510,0,0,0,0,0,0,0,0,0,-1,1357,1534,0,0
140,-510,0,0,0,0,0,0,0,0,0,-1,1364,1534,0,0
147,-510,0,0,0,0,0,0,0,0,0,-1,1371,1534,0,0
154,-510,0,0,0,0,0,0,0,0,0,-1,1378,1534,0,0
161,-510,0,0,0,0,0,0,0,0,0,-1,1385,1534,0,0
168,-510,0,0,0,0,0,0,0,0,0,-1,1392,1534,0,0
175,-510,0,0,0,0,0,0,0,0,0,-1,1399,1534,0,0
182,-510,0,0,0,0,0,0,0,0,0,-1,1406,1534,0,0
189,-510,0,0,0,0,0,0,0,0,0,-1,1413,1534,0,0
196,-510,0,0,0,0,0,0,0,0,0,-1,1420,1534,0,0
203,-510,0,0,0,0,0,0,0,0,0,-1,1427,1534,0,0
210,-510,0,0,0,0,0,0,0,0,0,-1,1434,1534,0,0
217,-510,0,0,0,0,0,0,0,0,0,-1,1441,1534,0,0
224,-510,0,0,0,0,0,0,0,0,0,-1,1448,1534,0,0
231,-510,0,0,0,0,0,0,0,0,0,-1,1455,1534,0,0
238,-510,0,0,0,0,0,0,0,0,0,-1,1462,1534,0,0
245,-510,0,0,0,0,0,0,0,0,0,-1,1469,1534,0,0
252,-510,0,0,0,0,0,0,0,0,0,-1,1476,1534,0,0
259,-510,0,0,0,0,0,0,0,0,0,-1,1483,1534,0,0
266,-510,0,0,0,0,0,0,0,0,0,-1,1490,1534,0,0
273,-510,0,0,0,0,0,0,0,0,0,-1,1497,1534,0,0
280,-510,0,0,0,0,0,0,0,0,0,-1,1504,1534,0,0
287,-510,0,0,0,0,0,0,0,0,0,-1,1511,1534,0,0
294,-510,0,0,0,0,0,0,0,0,0,-1,1518,1534,0,0
301,-510,0,0,0,0,0,0,0,0,0,-1,1525,1534,0,0
308,-510,0,0,0,0,0,0,0,0,0,-1,1532,1534,0,0
315,-510,0,0,0,0,0,0,0,0,0,-1,1539,1534,0,0
322,-510,0,0,0,0,0,0,0,0,0,-1,1546,1534,0,0
329,-510,0,0,0,0,0,0,0,0,0,-1,1553,1534,0,0
336,-510,0,0,0,0,0,0,0,0,0,-1,1560,1534,0,0
343,-510,0,0,0,0,0,0,0,0,0,-1,1567,1534,0,0
350,-510,0,0,0,0,0,0,0,0,0,-1,1574,1534,0,0
357,-510,0,0,0,0,0,0,0,0,0,-1,1581,1534,0,0
364,-510,0,0,0,0,0,0,0,0,0,-1,1588,1534,0,0
371,-510,0,0,0,0,0,0,0,0,0,-1,1595,1534,0,0
378,-510,0,0,0,0,0,0,0,0,0,-1,1602,1534,0,0
385,-510,0,0,0,0,0,0,0,0,0,-1,1609,1534,0,0
392,-510,0,0,0,0,0,0,0,0,0,-1,1616,1534,0,0
399,-510,0,0,0,0,0,0,0,0,0,-1,1623,1534,0,0
406,-510,0,0,0,0,0,0,0,0,0,-1,1630,1534,0,0
413,-510,0,0,0,0,0,0,0,0,0,-1,1637,1534,0,0
420,-510,14.1888,6.71936,0,0,0,0,0,0,0,-1,1644,1534,14.1889,-6.71939
427,-510,10.2134,5.59485,0,0,0,0,0,0,0,-1,1651,1534,10.2134,-5.59485
434,-510,11.8219,4.07898,0,0,0,0,0,0,0,-1,1658,1534,11.8219,-4.07895
441,-510,12.6812,3.02991,0,0,0,0,0,0,0,-1,1665,1534,12.6811,-3.0299
448,-510,13.2379,2.2804,0,0,0,0,0,0,0,-1,1672,1534,13.2379,-2.28037
455,-510,9.76892,2.20642,0,0,0,0,0,0,0,-1,1679,1534,9.76894,-2.20647
462,-510,9.84692,2.49182,0,0,0,0,0,0,0,-1,1686,1534,9.84695,-2.49185
469,-510,16.6072,7.26941,0,0,0,0,0,0,0,-1,1693,1534,16.6072,-7.26945
476,-510,15.9199,7.8645,0,0,0,0,0,0,0,-1,1700,1534,15.9199,-7.86455
483,-510,13.0833,8.10938,0,0,0,0,0,0,0,-1,1707,1534,13.0833,-8.10932
490,-510,13.0841,15.3286,0,0,0,0,0,0,0,-1,1714,1534,13.0841,-15.3286
497,-510,15.5652,18.823,0,0,0,0,0,0,0,-1,1721,1534,15.5652,-18.823
504,-510,15.998,18.7478,0,0,0,0,0,0,0,-1,1728,1534,15.998,-18.7478
511,-510,15.9443,18.0476,0,0,0,0,0,0,0,-1,1735,1534,15.9443,-18.0476
518,-510,21.5343,27.1368,0,0,0,0,0,0,0,-1,1742,1534,21.5342,-27.1368
525,-510,22.6066,27.8229,0,0,0,0,0,0,0,-1,1749,1534,22.6065,-27.8229
532,-510,22.9397,26.939,0.00756435,0.00674773,-0.00554838,0.0127194,0.00159266,-0.748669,0.00800174,0.0270129,1756,1534,22.9397,-26.9389
539,-510,22.9835,26.2422,0.00575076,0.0050753,-0.00409194,0.00951889,0.00130717,-0.744224,0.00595819,0.0137261,1763,1534,22.9836,-26.2422
546,-510,22.9249,25.7076,0.00442675,0.00371224,-0.00298704,0.00707782,0.00106117,-0.72588,0.00440761,0.0136459,1770,1534,22.925,-25.7077
553,-510,22.9187,25.1146,0.0034601,0.00254234,-0.002101,0.00515174,0.000850694,-0.677882,0.00318898,0.0144673,1777,1534,22.9188,-25.1146
560,-510,22.8931,24.4857,0.00283918,0.00156948,-0.00143343,0.00377205,0.000636613,-0.576936,0.00233165,0.013862,1784,1534,22.8931,-24.4858
567,-510,22.8602,23.8954,0.00261154,0.000949948,-0.00114985,0.00319933,0.000362158,-0.472557,0.002023,0.0128236,1791,1534,22.8602,-23.8954
574,-510,22.8513,23.3157,0.002639,0.000493473,-0.00103185,0.0030547,7.77669e-05,-0.382981,0.00201105,0.0136696,1798,1534,22.8513,-23.3157
581,-510,22.8202,22.7524,0.00291065,0.000159871,-0.00106752,0.00327632,-0.000205801,-0.330017,0.00225594,0.0128188,1805,1534,22.8202,-22.7525
588,-510,22.796,22.1492,0.00347043,8.35796e-05,-0.00132254,0.00392567,-0.000371667,-0.331519,0.00274939,0.0132332,1812,1534,22.796,-22.1492
595,-510,22.8927,21.4045,0.00431919,0.000140735,-0.00173031,0.00494268,-0.000482759,-0.345853,0.00346726,0.0213086,1819,1534,22.8927,-21.4046
602,-510,22.9431,20.6273,0,0,0,0,0,0,0,-1,1826,1534,22.9431,-20.6273
609,-510,21.259,19.222,0,0,0,0,0,0,0,-1,1833,1534,21.259,-19.222
616,-510,18.7024,16.2474,0,0,0,0,0,0,0,-1,1840,1534,18.7024,-16.2474
623,-510,19.6013,14.6211,0,0,0,0,0,0,0,-1,1847,1534,19.6013,-14.6211
630,-510,13.7461,9.30334,0,0,0,0,0,0,0,-1,1854,1534,13.7461,-9.30335
637,-510,11.0155,7.38464,0,0,0,0,0,0,0,-1,1861,1534,11.0155,-7.38463
644,-510,11.5809,7.17126,0,0,0,0,0,0,0,-1,1868,1534,11.5809,-7.17123
651,-510,8.70471,3.5061,0,0,0,0,0,0,0,-1,1875,1534,8.70475,-3.50611
658,-510,0,0,0,0,0,0,0,0,0,-1,1882,1534,0,0
665,-510,0,0,0,0,0,0,0,0,0,-1,1889,1534,0,0
672,-510,0,0,0,0,0,0,0,0,0,-1,1896,1534,0,0
679,-510,0,0,0,0,0,0,0,0,0,-1,1903,1534,0,0
686,-510,0,0,0,0,0,0,0,0,0,-1,1910,1534,0,0
693,-510,0,0,0,0,0,0,0,0,0,-1,1917,1534,0,0
700,-510,0,0,0,0,0,0,0,0,0,-1,1924,1534,0,0
707,-510,0,0,0,0,0,0,0,0,0,-1,1931,1534,0,0
714,-510,0,0,0,0,0,0,0,0,0,-1,1938,1534,0,0
721,-510,0,0,0,0,0,0,0,0,0,-1,1945,1534,0,0
728,-510,0,0,0,0,0,0,0,0,0,-1,1952,1534,0,0
735,-510,0,0,0,0,0,0,0,0,0,-1,1959,1534,0,0
742,-510,0,0,0,0,0,0,0,0,0,-1,1966,1534,0,0
749,-510,0,0,0,0,0,0,0,0,0,-1,1973,1534,0,0
756,-510,0,0,0,0,0,0,0,0,0,-1,1980,1534,0,0
763,-510,0,0,0,0,0,0,0,0,0,-1,1987,1534,0,0
770,-510,0,0,0,0,0,0,0,0,0,-1,1994,1534,0,0
777,-510,0,0,0,0,0,0,0,0,0,-1,2001,1534,0,0
784,-510,0,0,0,0,0,0,0,0,0,-1,2008,1534,0,0
791,-510,0,0,0,0,0,0,0,0,0,-1,2015,1534,0,0
798,-510,0,0,0,0,0,0,0,0,0,-1,2022,1534,0,0
805,-510,0,0,0,0,0,0,0,0,0,-1,2029,1534,0,0
812,-510,0,0,0,0,0,0,0,0,0,-1,2036,1534,0,0
-700,-517,0,0,0,0,0,0,0,0,0,-1,524,1541,0,0
-693,-517,0,0,0,0,0,0,0,0,0,-1,531,1541,0,0
-686,-517,0,0,0,0,0,0,0,0,0,-1,538,1541,0,0
-679,-517,0,0,0,0,0,0,0,0,0,-1,545,1541,0,0
-672,-517,0,0,0,0,0,0,0,0,0,-1,552,1541,0,0
-665,-517,0,0,0,0,0,0,0,0,0,-1,559,1541,0,0
-658,-517,0,0,0,0,0,0,0,0,0,-1,566,1541,0,0
-651,-517,0,0,0,0,0,0,0,0,0,-1,573,1541,0,0
-644,-517,0,0,0,0,0,0,0,0,0,-1,580,1541,0,0
-637,-517,0,0,0,0,0,0,0,0,0,-1,587,1541,0,0
-630,-517,0,0,0,0,0,0,0,0,0,-1,594,1541,0,0
-623,-517,0,0,0,0,0,0,0,0,0,-1,601,1541,0,0
-616,-517,0,0,0,0,0,0,0,0,0,-1,608,1541,0,0
-609,-517,0,0,0,0,0,0,0,0,0,-1,615,1541,0,0
-602,-517,0,0,0,0,0,0,0,0,0,-1,622,1541,0,0
-595,-517,0,0,0,0,0,0,0,0,0,-1,629,1541,0,0
-588,-517,0,0,0,0,0,0,0,0,0,-1,636,1541,0,0
-581,-517,0,0,0,0,0,0,0,0,0,-1,643,1541,0,0
-574,-517,0,0,0,0,0,0,0,0,0,-1,650,1541,0,0
-567,-517,0,0,0,0,0,0,0,0,0,-1,657,1541,0,0
-560,-517,0,0,0,0,0,0,0,0,0,-1,664,1541,0,0
-553,-517,0,0,0,0,0,0,0,0,0,-1,671,1541,0,0
-546,-517,0,0,0,0,0,0,0,0,0,-1,678,1541,0,0
-539,-517,0,0,0,0,0,0,0,0,0,-1,685,1541,0,0
-532,-517,0,0,0,0,0,0,0,0,0,-1,692,1541,0,0
-525,-517,-3.62903,4.3606,0,0,0,0,0,0,0,-1,699,1541,-3.62904,-4.36056
-518,-517,-1.664,2.27209,0,0,0,0,0,0,0,-1,706,1541,-1.66399,-2.27207
-511,-517,-0.999146,5.52063,0,0,0,0,0,0,0,-1,713,1541,-0.999126,-5.52059
-504,-517,-1.06946,8.67432,0,0,0,0,0,0,0,-1,720,1541,-1.06947,-8.6743
-497,-517,-5.43036,17.4033,0,0,0,0,0,0,0,-1,727,1541,-5.43033,-17.4034
-490,-517,-4.98828,18.0612,0,0,0,0,0,0,0,-1,734,1541,-4.98828,-18.0611
-483,-517,-4.63214,18.3683,0,0,0,0,0,0,0,-1,741,1541,-4.63213,-18.3683
-476,-517,-4.55426,18.9741,0,0,0,0,0,0,0,-1,748,1541,-4.55426,-18.9741
-469,-517,-4.86169,19.7686,0.00132339,-0.0112879,-0.00256568,0.00182538,-0.0117899,-0.193214,0.00853373,0.0219863,755,1541,-4.86167,-19.7685
-462,-517,-4.99243,20.3656,0.000806297,-0.00922683,-0.00220147,0.00126809,-0.00968863,-0.206767,0.00692062,0.0220893,762,1541,-4.99245,-20.3656
-455,-517,-4.99261,21.0286,0.000488605,-0.00714351,-0.00174806,0.000869928,-0.00752483,-0.214776,0.00533024,0.0163453,769,1541,-4.99263,-21.0286
-448,-517,-5.01587,21.6846,0.000337856,-0.00517079,-0.00123675,0.000602777,-0.00543571,-0.211019,0.00384053,0.0147146,776,1541,-5.01585,-21.6846
-441,-517,-5.07373,22.3055,0.000474011,-0.00317392,-0.000544955,0.00055368,-0.00325359,-0.145166,0.00237523,0.0121166,783,1541,-5.07372,-22.3055
-434,-517,-5.10059,22.9037,0.000852689,-0.00115401,0.000301735,0.000897077,-0.00119839,0.146062,0.00121398,0.0146455,790,1541,-5.10061,-22.9037
-427,-517,-5.12726,23.5383,0.00147963,0.000756016,0.00123259,0.00240242,-0.000166775,0.642642,0.00166,0.0145318,797,1541,-5.12723,-23.5383
-420,-517,-5.16302,24.2186,0.00240514,0.00269333,0.00240258,0.00495614,0.000142337,0.81535,0.00325768,0.0199613,804,1541,-5.16305,-24.2186
-413,-517,-5.18652,24.8093,0.00353674,0.00472139,0.00365406,0.00783083,0.000427306,0.86575,0.00508411,0.0111768,811,1541,-5.18654,-24.8093
-406,-517,-5.2182,25.4375,0.00498029,0.00675124,0.00511212,0.011054,0.000677525,0.871153,0.00715419,0.0119173,818,1541,-5.2182,-25.4375
-399,-517,-5.22864,26.0697,0.00656608,0.00892235,0.00673228,0.0145788,0.000909628,0.87202,0.00943063,0.012063,825,1541,-5.22863,-26.0697
-392,-517,-5.21582,26.701,0.00828842,0.0112934,0.00836586,0.0182906,0.0012912,0.87425,0.011787,0.0177547,832,1541,-5.21584,-26.701
-385,-517,-5.11652,27.6598,0.0099334,0.0138603,0.0101316,0.022217,0.00157673,0.881109,0.0143147,0.0437322,839,1541,-5.11654,-27.6598
-378,-517,-4.97638,28.7813,0,0,0,0,0,0,0,-1,846,1541,-4.97639,-28.7813
-371,-517,-1.37585,13.2646,0,0,0,0,0,0,0,-1,853,1541,-1.37586,-13.2647
-364,-517,-1.26245,12.6289,0,0,0,0,0,0,0,-1,860,1541,-1.26243,-12.6289
-357,-517,-1.23889,12.979,0,0,0,0,0,0,0,-1,867,1541,-1.23891,-12.979
-350,-517,-5.40198,23.8954,0,0,0,0,0,0,0,-1,874,1541,-5.40196,-23.8954
-343,-517,-5.45844,29.2598,0,0,0,0,0,0,0,-1,881,1541,-5.45842,-29.2598
-336,-517,-4.53223,29.6708,0,0,0,0,0,0,0,-1,888,1541,-4.53221,-29.6708
-329,-517,-3.60602,30.0817,0,0,0,0,0,0,0,-1,895,1541,-3.60601,-30.0817
-322,-517,-4.21246,19.5819,0,0,0,0,0,0,0,-1,902,1541,-4.21244,-19.5819
-315,-517,-0.987976,7.29749,0,0,0,0,0,0,0,-1,909,1541,-0.987993,-7.29743
-308,-517,3.27911,17.621,0,0,0,0,0,0,0,-1,916,1541,3.27913,-17.621
-301,-517,-1.69141,8.87488,0,0,0,0,0,0,0,-1,923,1541,-1.69141,-8.87485
-294,-517,-1.72583,9.92566,0,0,0,0,0,0,0,-1,930,1541,-1.72584,-9.92571
-287,-517,-3.09045,12.1472,0,0,0,0,0,0,0,-1,937,1541,-3.09043,-12.1472
-280,-517,0,0,0,0,0,0,0,0,0,-1,944,1541,0,0
-273,-517,0,0,0,0,0,0,0,0,0,-1,951,1541,0,0
-266,-517,0,0,0,0,0,0,0,0,0,-1,958,1541,0,0
-259,-517,0,0,0,0,0,0,0,0,0,-1,965,1541,0,0
-252,-517,0,0,0,0,0,0,0,0,0,-1,972,1541,0,0
-245,-517,0,0,0,0,0,0,0,0,0,-1,979,1541,0,0
-238,-517,0,0,0,0,0,0,0,0,0,-1,986,1541,0,0
-231,-517,0,0,0,0,0,0,0,0,0,-1,993,1541,0,0
-224,-517,0,0,0,0,0,0,0,0,0,-1,1000,1541,0,0
-217,-517,0,0,0,0,0,0,0,0,0,-1,1007,1541,0,0
-210,-517,0,0,0,0,0,0,0,0,0,-1,1014,1541,0,0
-203,-517,0,0,0,0,0,0,0,0,0,-1,1021,1541,0,0
-196,-517,0,0,0,0,0,0,0,0,0,-1,1028,1541,0,0
-189,-517,0,0,0,0,0,0,0,0,0,-1,1035,1541,0,0
-182,-517,0,0,0,0,0,0,0,0,0,-1,1042,1541,0,0
-175,-517,0,0,0,0,0,0,0,0,0,-1,1049,1541,0,0
-168,-517,0,0,0,0,0,0,0,0,0,-1,1056,1541,0,0
-161,-517,0,0,0,0,0,0,0,0,0,-1,1063,1541,0,0
-154,-517,0,0,0,0,0,0,0,0,0,-1,1070,1541,0,0
-147,-517,0,0,0,0,0,0,0,0,0,-1,1077,1541,0,0
-140,-517,0,0,0,0,0,0,0,0,0,-1,1084,1541,0,0
-133,-517,0,0,0,0,0,0,0,0,0,-1,1091,1541,0,0
-126,-517,0,0,0,0,0,0,0,0,0,-1,1098,1541,0,0
-119,-517,0,0,0,0,0,0,0,0,0,-1,1105,1541,0,0
-112,-517,0,0,0,0,0,0,0,0,0,-1,1112,1541,0,0
-105,-517,0,0,0,0,0,0,0,0,0,-1,1119,1541,0,0
-98,-517,0,0,0,0,0,0,0,0,0,-1,1126,1541,0,0
-91,-517,0,0,0,0,0,0,0,0,0,-1,1133,1541,0,0
-84,-517,0,0,0,0,0,0,0,0,0,-1,1140,1541,0,0
-77,-517,0,0,0,0,0,0,0,0,0,-1,1147,1541,0,0
-70,-517,0,0,0,0,0,0,0,0,0,-1,1154,1541,0,0
-63,-517,0,0,0,0,0,0,0,0,0,-1,1161,1541,0,0
-56,-517,0,0,0,0,0,0,0,0,0,-1,1168,1541,0,0
-49,-517,0,0,0,0,0,0,0,0,0,-1,1175,1541,0,0
-42,-517,0,0,0,0,0,0,0,0,0,-1,1182,1541,0,0
-35,-517,0,0,0,0,0,0,0,0,0,-1,1189,1541,0,0
-28,-517,0,0,0,0,0,0,0,0,0,-1,1196,1541,0,0
-21,-517,0,0,0,0,0,0,0,0,0,-1,1203,1541,0,0
-14,-517,0,0,0,0,0,0,0,0,0,-1,1210,1541,0,0
-7,-517,0,0,0,0,0,0,0,0,0,-1,1217,1541,0,0
0,-517,0,0,0,0,0,0,0,0,0,-1,1224,1541,0,0
7,-517,0,0,0,0,0,0,0,0,0,-1,1231,1541,0,0
14,-517,0,0,0,0,0,0,0,0,0,-1,1238,1541,0,0
21,-517,0,0,0,0,0,0,0,0,0,-1,1245,1541,0,0
28,-517,0,0,0,0,0,0,0,0,0,-1,1252,1541,0,0
35,-517,0,0,0,0,0,0,0,0,0,-1,1259,1541,0,0
42,-517,0,0,0,0,0,0,0,0,0,-1,1266,1541,0,0
49,-517,0,0,0,0,0,0,0,0,0,-1,1273,1541,0,0
56,-517,0,0,0,0,0,0,0,0,0,-1,1280,1541,0,0
63,-517,0,0,0,0,0,0,0,0,0,-1,1287,1541,0,0
70,-517,0,0,0,0,0,0,0,0,0,-1,1294,1541,0,0
77,-517,0,0,0,0,0,0,0,0,0,-1,1301,1541,0,0
84,-517,0,0,0,0,0,0,0,0,0,-1,1308,1541,0,0
91,-517,0,0,0,0,0,0,0,0,0,-1,1315,1541,0,0
98,-517,0,0,0,0,0,0,0,0,0,-1,1322,1541,0,0
105,-517,0,0,0,0,0,0,0,0,0,-1,1329,1541,0,0
112,-517,0,0,0,0,0,0,0,0,0,-1,1336,1541,0,0
119,-517,0,0,0,0,0,0,0,0,0,-1,1343,1541,0,0
126,-517,0,0,0,0,0,0,0,0,0,-1,1350,1541,0,0
133,-517,0,0,0,0,0,0,0,0,0,-1,1357,1541,0,0
140,-517,0,0,0,0,0,0,0,0,0,-1,1364,1541,0,0
147,-517,0,0,0,0,0,0,0,0,0,-1,1371,1541,0,0
154,-517,0,0,0,0,0,0,0,0,0,-1,1378,1541,0,0
161,-517,0,0,0,0,0,0,0,0,0,-1,1385,1541,0,0
168,-517,0,0,0,0,0,0,0,0,0,-1,1392,1541,0,0
175,-517,0,0,0,0,0,0,0,0,0,-1,1399,1541,0,0
182,-517,0,0,0,0,0,0,0,0,0,-1,1406,1541,0,0
189,-517,0,0,0,0,0,0,0,0,0,-1,1413,1541,0,0
196,-517,0,0,0,0,0,0,0,0,0,-1,1420,1541,0,0
203,-517,0,0,0,0,0,0,0,0,0,-1,1427,1541,0,0
210,-517,0,0,0,0,0,0,0,0,0,-1,1434,1541,0,0
217,-517,0,0,0,0,0,0,0,0,0,-1,1441,1541,0,0
224,-517,0,0,0,0,0,0,0,0,0,-1,1448,1541,0,0
231,-517,0,0,0,0,0,0,0,0,0,-1,1455,1541,0,0
238,-517,0,0,0,0,0,0,0,0,0,-1,1462,1541,0,0
245,-517,0,0,0,0,0,0,0,0,0,-1,1469,1541,0,0
252,-517,0,0,0,0,0,0,0,0,0,-1,1476,1541,0,0
259,-517,0,0,0,0,0,0,0,0,0,-1,1483,1541,0,0
266,-517,0,0,0,0,0,0,0,0,0,-1,1490,1541,0,0
273,-517,0,0,0,0,0,0,0,0,0,-1,1497,1541,0,0
280,-517,0,0,0,0,0,0,0,0,0,-1,1504,1541,0,0
287,-517,0,0,0,0,0,0,0,0,0,-1,1511,1541,0,0
294,-517,0,0,0,0,0,0,0,0,0,-1,1518,1541,0,0
301,-517,0,0,0,0,0,0,0,0,0,-1,1525,1541,0,0
308,-517,0,0,0,0,0,0,0,0,0,-1,1532,1541,0,0
315,-517,0,0,0,0,0,0,0,0,0,-1,1539,1541,0,0
322,-517,0,0,0,0,0,0,0,0,0,-1,1546,1541,0,0
329,-517,0,0,0,0,0,0,0,0,0,-1,1553,1541,0,0
336,-517,0,0,0,0,0,0,0,0,0,-1,1560,1541,0,0
343,-517,0,0,0,0,0,0,0,0,0,-1,1567,1541,0,0
350,-517,0,0,0,0,0,0,0,0,0,-1,1574,1541,0,0
357,-517,0,0,0,0,0,0,0,0,0,-1,1581,1541,0,0
364,-517,0,0,0,0,0,0,0,0,0,-1,1588,1541,0,0
371,-517,0,0,0,0,0,0,0,0,0,-1,1595,1541,0,0
378,-517,0,0,0,0,0,0,0,0,0,-1,1602,1541,0,0
385,-517,0,0,0,0,0,0,0,0,0,-1,1609,1541,0,0
392,-517,0,0,0,0,0,0,0,0,0,-1,1616,1541,0,0
399,-517,0,0,0,0,0,0,0,0,0,-1,1623,1541,0,0
406,-517,13.1395,7.01978,0,0,0,0,0,0,0,-1,1630,1541,13.1396,-7.01981
413,-517,12.8859,6.31592,0,0,0,0,0,0,0,-1,1637,1541,12.8858,-6.31588
420,-517,12.4789,6.20337,0,0,0,0,0,0,0,-1,1644,1541,12.4789,-6.20333
427,-517,11.647,4.66516,0,0,0,0,0,0,0,-1,1651,1541,11.647,-4.66519
434,-517,12.3719,3.92773,0,0,0,0,0,0,0,-1,1658,1541,12.3719,-3.92776
441,-517,13.146,3.14124,0,0,0,0,0,0,0,-1,1665,1541,13.146,-3.14121
448,-517,13.8861,2.36682,0,0,0,0,0,0,0,-1,1672,1541,13.8861,-2.36684
455,-517,13.6012,4.06335,0,0,0,0,0,0,0,-1,1679,1541,13.6012,-4.06335
462,-517,14.8956,7.0752,0,0,0,0,0,0,0,-1,1686,1541,14.8956,-7.07525
469,-517,13.6292,6.87744,0,0,0,0,0,0,0,-1,1693,1541,13.6292,-6.87739
476,-517,17.1632,14.1487,0,0,0,0,0,0,0,-1,1700,1541,17.1632,-14.1487
483,-517,16.5157,15.0776,0,0,0,0,0,0,0,-1,1707,1541,16.5157,-15.0777
490,-517,15.5439,18.0258,0,0,0,0,0,0,0,-1,1714,1541,15.5439,-18.0258
497,-517,16.0292,18.7786,0,0,0,0,0,0,0,-1,1721,1541,16.0291,-18.7786
504,-517,17.3815,22.3873,0,0,0,0,0,0,0,-1,1728,1541,17.3814,-22.3873
511,-517,16.9674,21.8491,0,0,0,0,0,0,0,-1,1735,1541,16.9674,-21.8491
518,-517,22.4226,28.0664,0,0,0,0,0,0,0,-1,1742,1541,22.4226,-28.0664
525,-517,22.2625,27.5594,0.00811529,0.00742167,-0.00613637,0.0139146,0.00162231,-0.757169,0.00878573,0.0259296,1749,1541,22.2624,-27.5595
532,-517,22.4031,26.8484,0.00618641,0.00572996,-0.00467889,0.0106426,0.00127373,-0.761029,0.00671093,0.0125113,1756,1541,22.4031,-26.8484
539,-517,22.3976,26.2616,0.00467445,0.00425447,-0.00341676,0.00788767,0.00104125,-0.754707,0.00494802,0.0130961,1763,1541,22.3976,-26.2616
546,-517,22.3582,25.7238,0.00353694,0.0029597,-0.00241444,0.00567995,0.000816695,-0.725911,0.00354589,0.0146249,1770,1541,22.3582,-25.7238
553,-517,22.3186,25.1305,0.00267802,0.00182415,-0.00156375,0.00387207,0.000630108,-0.652136,0.00239909,0.0191932,1777,1541,22.3186,-25.1305
560,-517,22.3306,24.5188,0.00217252,0.000858733,-0.000904149,0.00263321,0.000398042,-0.471243,0.00163898,0.0186177,1784,1541,22.3306,-24.5188
567,-517,22.2983,23.9462,0.00206822,0.000235588,-0.000617394,0.00225681,4.70016e-05,-0.296455,0.00148912,0.0144137,1791,1541,22.2984,-23.9461
574,-517,22.264,23.3406,0.00223665,-0.000245718,-0.000487105,0.00232882,-0.000337879,-0.186991,0.00167656,0.0149786,1798,1541,22.264,-23.3405
581,-517,22.2249,22.7383,0.00272591,-0.000571817,-0.000566214,0.00282042,-0.000666326,-0.16539,0.00213729,0.0162318,1805,1541,22.2249,-22.7383
588,-517,22.2094,22.1338,0.0035569,-0.000610127,-0.000899008,0.00374258,-0.000795809,-0.203676,0.0027983,0.0169475,1812,1541,22.2093,-22.1338
595,-517,22.2828,21.519,0.00468281,-0.000433459,-0.00144611,0.00506326,-0.000813908,-0.257256,0.00367696,0.047906,1819,1541,22.2828,-21.519
602,-517,22.7235,20.6447,0,0,0,0,0,0,0,-1,1826,1541,22.7235,-20.6446
609,-517,12.6417,10.8751,0,0,0,0,0,0,0,-1,1833,1541,12.6417,-10.8751
616,-517,14.205,10.3193,0,0,0,0,0,0,0,-1,1840,1541,14.205,-10.3194
623,-517,12.578,10.0779,0,0,0,0,0,0,0,-1,1847,1541,12.578,-10.0779
630,-517,11.7035,7.47815,0,0,0,0,0,0,0,-1,1854,1541,11.7035,-7.47812
637,-517,11.5172,5.79822,0,0,0,0,0,0,0,-1,1861,1541,11.5173,-5.79825
644,-517,11.4232,3.30579,0,0,0,0,0,0,0,-1,1868,1541,11.4232,-3.30574
651,-517,0,0,0,0,0,0,0,0,0,-1,1875,1541,0,0
658,-517,0,0,0,0,0,0,0,0,0,-1,1882,1541,0,0
665,-517,0,0,0,0,0,0,0,0,0,-1,1889,1541,0,0
672,-517,0,0,0,0,0,0,0,0,0,-1,1896,1541,0,0
679,-517,0,0,0,0,0,0,0,0,0,-1,1903,1541,0,0
686,-517,0,0,0,0,0,0,0,0,0,-1,1910,1541,0,0
693,-517,0,0,0,0,0,0,0,0,0,-1,1917,1541,0,0
700,-517,0,0,0,0,0,0,0,0,0,-1,1924,1541,0,0
707,-517,0,0,0,0,0,0,0,0,0,-1,1931,1541,0,0
714,-517,0,0,0,0,0,0,0,0,0,-1,1938,1541,0,0
721,-517,0,0,0,0,0,0,0,0,0,-1,1945,1541,0,0
728,-517,0,0,0,0,0,0,0,0,0,-1,1952,1541,0,0
735,-517,0,0,0,0,0,0,0,0,0,-1,1959,1541,0,0
742,-517,0,0,0,0,0,0,0,0,0,-1,1966,1541,0,0
749,-517,0,0,0,0,0,0,0,0,0,-1,1973,1541,0,0
756,-517,0,0,0,0,0,0,0,0,0,-1,1980,1541,0,0
763,-517,0,0,0,0,0,0,0,0,0,-1,1987,1541,0,0
770,-517,0,0,0,0,0,0,0,0,0,-1,1994,1541,0,0
777,-517,0,0,0,0,0,0,0,0,0,-1,2001,1541,0,0
784,-517,0,0,0,0,0,0,0,0,0,-1,2008,1541,0,0
791,-517,0,0,0,0,0,0,0,0,0,-1,2015,1541,0,0
798,-517,0,0,0,0,0,0,0,0,0,-1,2022,1541,0,0
805,-517,0,0,0,0,0,0,0,0,0,-1,2029,1541,0,0
812,-517,0,0,0,0,0,0,0,0,0,-1,2036,1541,0,0
-700,-524,0,0,0,0,0,0,0,0,0,-1,524,1548,0,0
-693,-524,0,0,0,0,0,0,0,0,0,-1,531,1548,0,0
-686,-524,0,0,0,0,0,0,0,0,0,-1,538,1548,0,0
-679,-524,0,0,0,0,0,0,0,0,0,-1,545,1548,0,0
-672,-524,0,0,0,0,0,0,0,0,0,-1,552,1548,0,0
-665,-524,0,0,0,0,0,0,0,0,0,-1,559,1548,0,0
-658,-524,0,0,0,0,0,0,0,0,0,-1,566,1548,0,0
-651,-524,0,0,0,0,0,0,0,0,0,-1,573,1548,0,0
-644,-524,0,0,0,0,0,0,0,0,0,-1,580,1548,0,0
-637,-524,0,0,0,0,0,0,0,0,0,-1,587,1548,0,0
-630,-524,0,0,0,0,0,0,0,0,0,-1,594,1548,0,0
-623,-524,0,0,0,0,0,0,0,0,0,-1,601,1548,0,0
-616,-524,0,0,0,0,0,0,0,0,0,-1,608,1548,0,0
-609,-524,0,0,0,0,0,0,0,0,0,-1,615,1548,0,0
-602,-524,0,0,0,0,0,0,0,0,0,-1,622,1548,0,0
-595,-524,0,0,0,0,0,0,0,0,0,-1,629,1548,0,0
-588,-524,0,0,0,0,0,0,0,0,0,-1,636,1548,0,0
-581,-524,0,0,0,0,0,0,0,0,0,-1,643,1548,0,0
-574,-524,0,0,0,0,0,0,0,0,0,-1,650,1548,0,0
-567,-524,0,0,0,0,0,0,0,0,0,-1,657,1548,0,0
-560,-524,0,0,0,0,0,0,0,0,0,-1,664,1548,0,0
-553,-524,0,0,0,0,0,0,0,0,0,-1,671,1548,0,0
-546,-524,0,0,0,0,0,0,0,0,0,-1,678,1548,0,0
-539,-524,0,0,0,0,0,0,0,0,0,-1,685,1548,0,0
-532,-524,0,0,0,0,0,0,0,0,0,-1,692,1548,0,0
-525,-524,-0.215515,3.97131,0,0,0,0,0,0,0,-1,699,1548,-0.215501,-3.97136
-518,-524,-0.806274,4.35632,0,0,0,0,0,0,0,-1,706,1548,-0.806259,-4.35633
-511,-524,-1.08301,4.29004,0,0,0,0,0,0,0,-1,713,1548,-1.08301,-4.29006
-504,-524,-1.28821,3.98145,0,0,0,0,0,0,0,-1,720,1548,-1.28822,-3.98151
-497,-524,-0.328491,8.63416,0,0,0,0,0,0,0,-1,727,1548,-0.328487,-8.63411
-490,-524,-4.69891,17.3986,0,0,0,0,0,0,0,-1,734,1548,-4.6989,-17.3986
-483,-524,-4.02222,18.0645,0,0,0,0,0,0,0,-1,741,1548,-4.02224,-18.0644
-476,-524,-4.44489,19.7819,0,0,0,0,0,0,0,-1,748,1548,-4.44491,-19.7819
-469,-524,-4.45026,20.1339,0.00259414,-0.0143983,-0.00319606,0.00317539,-0.0149795,-0.1799,0.0111959,0.0377598,755,1548,-4.45028,-20.1339
-462,-524,-4.31354,20.6265,0.00160478,-0.0117862,-0.00277987,0.00215893,-0.0123403,-0.196764,0.00903295,0.033721,762,1548,-4.31352,-20.6264
-455,-524,-4.41217,21.0833,0.000910117,-0.00918606,-0.00226948,0.0013968,-0.00967274,-0.211249,0.00696097,0.0278051,769,1548,-4.41216,-21.0832
-448,-524,-4.41357,21.7097,0.000412826,-0.0069037,-0.00178137,0.000823488,-0.00731437,-0.226574,0.00517264,0.0149335,776,1548,-4.41357,-21.7098
-441,-524,-4.43201,22.3252,0.000271858,-0.00472674,-0.0011453,0.000521777,-0.00497666,-0.214846,0.00350467,0.0108756,783,1548,-4.43202,-22.3252
-434,-524,-4.4278,22.9181,0.00044389,-0.00264136,-0.000375516,0.000488937,-0.00268641,-0.119391,0.00197421,0.0133276,790,1548,-4.42782,-22.918
-427,-524,-4.45959,23.5662,0.000895094,-0.000718209,0.000464412,0.00101923,-0.000842345,0.261191,0.0010764,0.0137253,797,1548,-4.45957,-23.5661
-420,-524,-4.52032,24.2329,0.00164643,0.00112651,0.00150116,0.00290998,-0.000137035,0.699662,0.00198724,0.0107037,804,1548,-4.52034,-24.2329
-413,-524,-4.54718,24.8523,0.00247516,0.00307465,0.00251289,0.0053056,0.000244201,0.844759,0.00345854,0.0106087,811,1548,-4.54717,-24.8523
-406,-524,-4.56696,25.4714,0.00364965,0.00490259,0.0037286,0.00805699,0.000495253,0.868629,0.00521409,0.0116439,818,1548,-4.56697,-25.4714
-399,-524,-4.58966,26.0874,0.00495882,0.00676081,0.00500577,0.010946,0.000773608,0.874441,0.00705363,0.00987299,825,1548,-4.58968,-26.0874
-392,-524,-4.60034,26.686,0.0063423,0.00865349,0.00625459,0.0138583,0.00113744,0.876748,0.00888405,0.0103017,832,1548,-4.60034,-26.6861
-385,-524,-4.62592,27.3263,0.00767562,0.0106386,0.00752399,0.0168255,0.00148863,0.882605,0.0107552,0.0157675,839,1548,-4.62593,-27.3263
-378,-524,-4.62701,28.0364,0,0,0,0,0,0,0,-1,846,1548,-4.62702,-28.0363
-371,-524,-4.20789,29.1592,0,0,0,0,0,0,0,-1,853,1548,-4.2079,-29.1592
-364,-524,-0.712097,14.9871,0,0,0,0,0,0,0,-1,860,1548,-0.712116,-14.9871
-357,-524,-1.34052,14.7448,0,0,0,0,0,0,0,-1,867,1548,-1.34054,-14.7447
-350,-524,-4.31909,25.032,0,0,0,0,0,0,0,-1,874,1548,-4.31906,-25.0319
-343,-524,-3.69696,28.6923,0,0,0,0,0,0,0,-1,881,1548,-3.69694,-28.6922
-336,-524,-3.4873,29.655,0,0,0,0,0,0,0,-1,888,1548,-3.48728,-29.6551
-329,-524,-3.21936,30.5509,0,0,0,0,0,0,0,-1,895,1548,-3.21933,-30.5509
-322,-524,-4.31378,25.6389,0,0,0,0,0,0,0,-1,902,1548,-4.31379,-25.639
-315,-524,-1.90839,19.4824,0,0,0,0,0,0,0,-1,909,1548,-1.90838,-19.4824
-308,-524,-2.36938,19.3059,0,0,0,0,0,0,0,-1,916,1548,-2.3694,-19.3058
-301,-524,2.72394,17.7618,0,0,0,0,0,0,0,-1,923,1548,2.72396,-17.7619
-294,-524,-1.52515,9.05408,0,0,0,0,0,0,0,-1,930,1548,-1.52512,-9.05411
-287,-524,-0.962219,10.3199,0,0,0,0,0,0,0,-1,937,1548,-0.962241,-10.32
-280,-524,-1.36255,10.3859,0,0,0,0,0,0,0,-1,944,1548,-1.36253,-10.3859
-273,-524,0,0,0,0,0,0,0,0,0,-1,951,1548,0,0
-266,-524,0,0,0,0,0,0,0,0,0,-1,958,1548,0,0
-259,-524,0,0,0,0,0,0,0,0,0,-1,965,1548,0,0
-252,-524,0,0,0,0,0,0,0,0,0,-1,972,1548,0,0
-245,-524,0,0,0,0,0,0,0,0,0,-1,979,1548,0,0
-238,-524,0,0,0,0,0,0,0,0,0,-1,986,1548,0,0
-231,-524,0,0,0,0,0,0,0,0,0,-1,993,1548,0,0
-224,-524,0,0,0,0,0,0,0,0,0,-1,1000,1548,0,0
-217,-524,0,0,0,0,0,0,0,0,0,-1,1007,1548,0,0
-210,-524,0,0,0,0,0,0,0,0,0,-1,1014,1548,0,0
-203,-524,0,0,0,0,0,0,0,0,0,-1,1021,1548,0,0
-196,-524,0,0,0,0,0,0,0,0,0,-1,1028,1548,0,0
-189,-524,0,0,0,0,0,0,0,0,0,-1,1035,1548,0,0
-182,-524,0,0,0,0,0,0,0,0,0,-1,1042,1548,0,0
-175,-524,0,0,0,0,0,0,0,0,0,-1,1049,1548,0,0
-168,-524,0,0,0,0,0,0,0,0,0,-1,1056,1548,0,0
-161,-524,0,0,0,0,0,0,0,0,0,-1,1063,1548,0,0
-154,-524,0,0,0,0,0,0,0,0,0,-1,1070,1548,0,0
-147,-524,0,0,0,0,0,0,0,0,0,-1,1077,1548,0,0
-140,-524,0,0,0,0,0,0,0,0,0,-1,1084,1548,0,0
-133,-524,0,0,0,0,0,0,0,0,0,-1,1091,1548,0,0
-126,-524,0,0,0,0,0,0,0,0,0,-1,1098,1548,0,0
-119,-524,0,0,0,0,0,0,0,0,0,-1,1105,1548,0,0
-112,-524,0,0,0,0,0,0,0,0,0,-1,1112,1548,0,0
-105,-524,0,0,0,0,0,0,0,0,0,-1,1119,1548,0,0
-98,-524,0,0,0,0,0,0,0,0,0,-1,1126,1548,0,0
-91,-524,0,0,0,0,0,0,0,0,0,-1,1133,1548,0,0
-84,-524,0,0,0,0,0,0,0,0,0,-1,1140,1548,0,0
-77,-524,0,0,0,0,0,0,0,0,0,-1,1147,1548,0,0
-70,-524,0,0,0,0,0,0,0,0,0,-1,1154,1548,0,0
-63,-524,0,0,0,0,0,0,0,0,0,-1,1161,1548,0,0
-56,-524,0,0,0,0,0,0,0,0,0,-1,1168,1548,0,0
-49,-524,0,0,0,0,0,0,0,0,0,-1,1175,1548,0,0
-42,-524,0,0,0,0,0,0,0,0,0,-1,1182,1548,0,0
-35,-524,0,0,0,0,0,0,0,0,0,-1,1189,1548,0,0
-28,-524,0,0,0,0,0,0,0,0,0,-1,1196,1548,0,0
-21,-524,0,0,0,0,0,0,0,0,0,-1,1203,1548,0,0
-14,-524,0,0,0,0,0,0,0,0,0,-1,1210,1548,0,0
-7,-524,0,0,0,0,0,0,0,0,0,-1,1217,1548,0,0
0,-524,0,0,0,0,0,0,0,0,0,-1,1224,1548,0,0
7,-524,0,0,0,0,0,0,0,0,0,-1,1231,1548,0,0
14,-524,0,0,0,0,0,0,0,0,0,-1,1238,1548,0,0
21,-524,0,0,0,0,0,0,0,0,0,-1,1245,1548,0,0
28,-524,0,0,0,0,0,0,0,0,0,-1,1252,1548,0,0
35,-524,0,0,0,0,0,0,0,0,0,-1,1259,1548,0,0
42,-524,0,0,0,0,0,0,0,0,0,-1,1266,1548,0,0
49,-524,0,0,0,0,0,0,0,0,0,-1,1273,1548,0,0
56,-524,0,0,0,0,0,0,0,0,0,-1,1280,1548,0,0
63,-524,0,0,0,0,0,0,0,0,0,-1,1287,1548,0,0
70,-524,0,0,0,0,0,0,0,0,0,-1,1294,1548,0,0
77,-524,0,0,0,0,0,0,0,0,0,-1,1301,1548,0,0
84,-524,0,0,0,0,0,0,0,0,0,-1,1308,1548,0,0
91,-524,0,0,0,0,0,0,0,0,0,-1,1315,1548,0,0
98,-524,0,0,0,0,0,0,0,0,0,-1,1322,1548,0,0
105,-524,0,0,0,0,0,0,0,0,0,-1,1329,1548,0,0
112,-524,0,0,0,0,0,0,0,0,0,-1,1336,1548,0,0
119,-524,0,0,0,0,0,0,0,0,0,-1,1343,1548,0,0
126,-524,0,0,0,0,0,0,0,0,0,-1,1350,1548,0,0
133,-524,0,0,0,0,0,0,0,0,0,-1,1357,1548,0,0
140,-524,0,0,0,0,0,0,0,0,0,-1,1364,1548,0,0
147,-524,0,0,0,0,0,0,0,0,0,-1,1371,1548,0,0
154,-524,0,0,0,0,0,0,0,0,0,-1,1378,1548,0,0
161,-524,0,0,0,0,0,0,0,0,0,-1,1385,1548,0,0
168,-524,0,0,0,0,0,0,0,0,0,-1,1392,1548,0,0
175,-524,0,0,0,0,0,0,0,0,0,-1,1399,1548,0,0
182,-524,0,0,0,0,0,0,0,0,0,-1,1406,1548,0,0
189,-524,0,0,0,0,0,0,0,0,0,-1,1413,1548,0,0
196,-524,0,0,0,0,0,0,0,0,0,-1,1420,1548,0,0
203,-524,0,0,0,0,0,0,0,0,0,-1,1427,1548,0,0
210,-524,0,0,0,0,0,0,0,0,0,-1,1434,1548,0,0
217,-524,0,0,0,0,0,0,0,0,0,-1,1441,1548,0,0
224,-524,0,0,0,0,0,0,0,0,0,-1,1448,1548,0,0
231,-524,0,0,0,0,0,0,0,0,0,-1,1455,1548,0,0
238,-524,0,0,0,0,0,0,0,0,0,-1,1462,1548,0,0
245,-524,0,0,0,0,0,0,0,0,0,-1,1469,1548,0,0
252,-524,0,0,0,0,0,0,0,0,0,-1,1476,1548,0,0
259,-524,0,0,0,0,0,0,0,0,0,-1,1483,1548,0,0
266,-524,0,0,0,0,0,0,0,0,0,-1,1490,1548,0,0
273,-524,0,0,0,0,0,0,0,0,0,-1,1497,1548,0,0
280,-524,0,0,0,0,0,0,0,0,0,-1,1504,1548,0,0
287,-524,0,0,0,0,0,0,0,0,0,-1,1511,1548,0,0
294,-524,0,0,0,0,0,0,0,0,0,-1,1518,1548,0,0
301,-524,0,0,0,0,0,0,0,0,0,-1,1525,1548,0,0
308,-524,0,0,0,0,0,0,0,0,0,-1,1532,1548,0,0
315,-524,0,0,0,0,0,0,0,0,0,-1,1539,1548,0,0
322,-524,0,0,0,0,0,0,0,0,0,-1,1546,1548,0,0
329,-524,0,0,0,0,0,0,0,0,0,-1,1553,1548,0,0
336,-524,0,0,0,0,0,0,0,0,0,-1,1560,1548,0,0
343,-524,0,0,0,0,0,0,0,0,0,-1,1567,1548,0,0
350,-524,0,0,0,0,0,0,0,0,0,-1,1574,1548,0,0
357,-524,0,0,0,0,0,0,0,0,0,-1,1581,1548,0,0
364,-524,0,0,0,0,0,0,0,0,0,-1,1588,1548,0,0
371,-524,0,0,0,0,0,0,0,0,0,-1,1595,1548,0,0
378,-524,0,0,0,0,0,0,0,0,0,-1,1602,1548,0,0
385,-524,0,0,0,0,0,0,0,0,0,-1,1609,1548,0,0
392,-524,0,0,0,0,0,0,0,0,0,-1,1616,1548,0,0
399,-524,8.81848,5.05774,0,0,0,0,0,0,0,-1,1623,1548,8.81843,-5.05769
406,-524,8.64294,6.06799,0,0,0,0,0,0,0,-1,1630,1548,8.6429,-6.06805
413,-524,11.677,6.41858,0,0,0,0,0,0,0,-1,1637,1548,11.677,-6.41864
420,-524,11.4913,6.36401,0,0,0,0,0,0,0,-1,1644,1548,11.4913,-6.36402
427,-524,7.68335,6.17249,0,0,0,0,0,0,0,-1,1651,1548,7.68341,-6.17245
434,-524,10.432,11.6801,0,0,0,0,0,0,0,-1,1658,1548,10.432,-11.68
441,-524,8.78552,4.12305,0,0,0,0,0,0,0,-1,1665,1548,8.78553,-4.12301
448,-524,14.1854,4.78674,0,0,0,0,0,0,0,-1,1672,1548,14.1854,-4.78674
455,-524,12.4784,3.65576,0,0,0,0,0,0,0,-1,1679,1548,12.4784,-3.65572
462,-524,14.7551,9.29395,0,0,0,0,0,0,0,-1,1686,1548,14.7552,-9.29397
469,-524,16.3314,14.3779,0,0,0,0,0,0,0,-1,1693,1548,16.3314,-14.3779
476,-524,15.9106,15.1875,0,0,0,0,0,0,0,-1,1700,1548,15.9107,-15.1876
483,-524,15.2776,16.2268,0,0,0,0,0,0,0,-1,1707,1548,15.2776,-16.2269
490,-524,15.2563,18.5848,0,0,0,0,0,0,0,-1,1714,1548,15.2564,-18.5848
497,-524,17.5173,22.6123,0,0,0,0,0,0,0,-1,1721,1548,17.5174,-22.6123
504,-524,21.3922,29.7133,0,0,0,0,0,0,0,-1,1728,1548,21.3922,-29.7133
511,-524,21.8572,28.677,0,0,0,0,0,0,0,-1,1735,1548,21.8571,-28.677
518,-524,21.856,28.0626,0.00832379,0.00782484,-0.00654375,0.0146228,0.00152581,-0.766345,0.00928184,0.0279563,1742,1548,21.8559,-28.0626
525,-524,21.8457,27.4938,0.00645983,0.00619669,-0.00511183,0.0114418,0.00121473,-0.772532,0.00725691,0.0151837,1749,1548,21.8457,-27.4938
532,-524,21.8076,26.8796,0.00482516,0.00467591,-0.0037894,0.00854067,0.000960403,-0.775553,0.00540218,0.0110547,1756,1548,21.8077,-26.8797
539,-524,21.7878,26.2816,0.00353714,0.00331878,-0.00262199,0.00605222,0.0008037,-0.76459,0.00379539,0.0120675,1763,1548,21.7878,-26.2817
546,-524,21.7534,25.7507,0.00253362,0.00203653,-0.00162907,0.00393299,0.000637156,-0.709698,0.00243753,0.0159258,1770,1548,21.7534,-25.7508
553,-524,21.7383,25.1572,0.00175918,0.000877405,-0.000737519,0.00217755,0.00045904,-0.515998,0.00132545,0.0252818,1777,1548,21.7383,-25.1572
560,-524,21.7505,24.5765,0.00134738,-0.000135013,-1.90513e-05,0.00134762,-0.000135257,-0.0128489,0.000946725,0.036066,1784,1548,21.7505,-24.5766
567,-524,21.6985,23.9719,0.00134041,-0.0008345,0.000354124,0.00139661,-0.000890707,0.157408,0.00133131,0.0200886,1791,1548,21.6984,-23.9719
574,-524,21.6874,23.3512,0.00163538,-0.00141254,0.0005713,0.00173894,-0.00151611,0.179332,0.00188077,0.0136206,1798,1548,21.6874,-23.3512
581,-524,21.6586,22.7493,0.00235199,-0.00179695,0.000503063,0.00241211,-0.00185707,0.118955,0.00247175,0.0145293,1805,1548,21.6586,-22.7493
588,-524,21.703,22.1658,0.00349936,-0.00185898,0.000124206,0.00350224,-0.00186186,0.0231633,0.00314486,0.0270718,1812,1548,21.703,-22.1658
595,-524,21.7698,21.4028,0,0,0,0,0,0,0,-1,1819,1548,21.7698,-21.4029
602,-524,13.837,12.0682,0,0,0,0,0,0,0,-1,1826,1548,13.837,-12.0683
609,-524,13.0056,10.5138,0,0,0,0,0,0,0,-1,1833,1548,13.0056,-10.5138
616,-524,11.6941,8.65515,0,0,0,0,0,0,0,-1,1840,1548,11.6941,-8.65514
623,-524,9.38452,5.15356,0,0,0,0,0,0,0,-1,1847,1548,9.38456,-5.15359
630,-524,11.0541,3.57434,0,0,0,0,0,0,0,-1,1854,1548,11.0541,-3.57438
637,-524,11.6067,3.20728,0,0,0,0,0,0,0,-1,1861,1548,11.6067,-3.20724
644,-524,12.2134,0.727173,0,0,0,0,0,0,0,-1,1868,1548,12.2134,-0.727222
651,-524,0,0,0,0,0,0,0,0,0,-1,1875,1548,0,0
658,-524,0,0,0,0,0,0,0,0,0,-1,1882,1548,0,0
665,-524,0,0,0,0,0,0,0,0,0,-1,1889,1548,0,0
672,-524,0,0,0,0,0,0,0,0,0,-1,1896,1548,0,0
679,-524,0,0,0,0,0,0,0,0,0,-1,1903,1548,0,0
686,-524,0,0,0,0,0,0,0,0,0,-1,1910,1548,0,0
693,-524,0,0,0,0,0,0,0,0,0,-1,1917,1548,0,0
700,-524,0,0,0,0,0,0,0,0,0,-1,1924,1548,0,0
707,-524,0,0,0,0,0,0,0,0,0,-1,1931,1548,0,0
714,-524,0,0,0,0,0,0,0,0,0,-1,1938,1548,0,0
721,-524,0,0,0,0,0,0,0,0,0,-1,1945,1548,0,0
728,-524,0,0,0,0,0,0,0,0,0,-1,1952,1548,0,0
735,-524,0,0,0,0,0,0,0,0,0,-1,1959,1548,0,0
742,-524,0,0,0,0,0,0,0,0,0,-1,1966,1548,0,0
749,-524,0,0,0,0,0,0,0,0,0,-1,1973,1548,0,0
756,-524,0,0,0,0,0,0,0,0,0,-1,1980,1548,0,0
763,-524,0,0,0,0,0,0,0,0,0,-1,1987,1548,0,0
770,-524,0,0,0,0,0,0,0,0,0,-1,1994,1548,0,0
777,-524,0,0,0,0,0,0,0,0,0,-1,2001,1548,0,0
784,-524,0,0,0,0,0,0,0,0,0,-1,2008,1548,0,0
791,-524,0,0,0,0,0,0,0,0,0,-1,2015,1548,0,0
798,-524,0,0,0,0,0,0,0,0,0,-1,2022,1548,0,0
805,-524,0,0,0,0,0,0,0,0,0,-1,2029,1548,0,0
812,-524,0,0,0,0,0,0,0,0,0,-1,2036,1548,0,0
-700,-531,0,0,0,0,0,0,0,0,0,-1,524,1555,0,0
-693,-531,0,0,0,0,0,0,0,0,0,-1,531,1555,0,0
-686,-531,0,0,0,0,0,0,0,0,0,-1,538,1555,0,0
-679,-531,0,0,0,0,0,0,0,0,0,-1,545,1555,0,0
-672,-531,0,0,0,0,0,0,0,0,0,-1,552,1555,0,0
-665,-531,0,0,0,0,0,0,0,0,0,-1,559,1555,0,0
-658,-531,0,0,0,0,0,0,0,0,0,-1,566,1555,0,0
-651,-531,0,0,0,0,0,0,0,0,0,-1,573,1555,0,0
-644,-531,0,0,0,0,0,0,0,0,0,-1,580,1555,0,0
-637,-531,0,0,0,0,0,0,0,0,0,-1,587,1555,0,0
-630,-531,0,0,0,0,0,0,0,0,0,-1,594,1555,0,0
-623,-531,0,0,0,0,0,0,0,0,0,-1,601,1555,0,0
-616,-531,0,0,0,0,0,0,0,0,0,-1,608,1555,0,0
-609,-531,0,0,0,0,0,0,0,0,0,-1,615,1555,0,0
-602,-531,0,0,0,0,0,0,0,0,0,-1,622,1555,0,0
-595,-531,0,0,0,0,0,0,0,0,0,-1,629,1555,0,0
-588,-531,0,0,0,0,0,0,0,0,0,-1,636,1555,0,0
-581,-531,0,0,0,0,0,0,0,0,0,-1,643,1555,0,0
-574,-531,0,0,0,0,0,0,0,0,0,-1,650,1555,0,0
-567,-531,0,0,0,0,0,0,0,0,0,-1,657,1555,0,0
-560,-531,0,0,0,0,0,0,0,0,0,-1,664,1555,0,0
-553,-531,0,0,0,0,0,0,0,0,0,-1,671,1555,0,0
-546,-531,0,0,0,0,0,0,0,0,0,-1,678,1555,0,0
-539,-531,0,0,0,0,0,0,0,0,0,-1,685,1555,0,0
-532,-531,0,0,0,0,0,0,0,0,0,-1,692,1555,0,0
-525,-531,0,0,0,0,0,0,0,0,0,-1,699,1555,0,0
-518,-531,-1.63983,4.03821,0,0,0,0,0,0,0,-1,706,1555,-1.63982,-4.03821
-511,-531,-2.9682,8.07483,0,0,0,0,0,0,0,-1,713,1555,-2.9682,-8.07479
-504,-531,-2.95978,0.557861,0,0,0,0,0,0,0,-1,720,1555,-2.95978,-0.557917
-497,-531,-2.46039,8.07422,0,0,0,0,0,0,0,-1,727,1555,-2.46039,-8.07423
-490,-531,-0.423462,7.92065,0,0,0,0,0,0,0,-1,734,1555,-0.42344,-7.92066
-483,-531,-3.34216,17.5656,0,0,0,0,0,0,0,-1,741,1555,-3.34215,-17.5656
-476,-531,-4.14093,19.8944,0,0,0,0,0,0,0,-1,748,1555,-4.14092,-19.8945
-469,-531,-4.11133,20.3805,0.00463521,-0.018026,-0.00365863,0.00521125,-0.018602,-0.156165,0.014455,0.0424833,755,1555,-4.11135,-20.3805
-462,-531,-3.69885,20.8456,0.00289961,-0.0146411,-0.00322284,0.00347302,-0.0152145,-0.176077,0.0114772,0.0421943,762,1555,-3.69888,-20.8456
-455,-531,-3.84094,21.397,0.0016483,-0.0113628,-0.00267461,0.00217665,-0.0118912,-0.19503,0.00874378,0.0413089,769,1555,-3.84097,-21.3969
-448,-531,-3.72723,21.7295,0.000666566,-0.00867,-0.00223385,0.00117351,-0.00917694,-0.223157,0.0065443,0.0215043,776,1555,-3.72726,-21.7295
-441,-531,-3.81738,22.3295,0.000161818,-0.0062462,-0.00169361,0.000581894,-0.00666627,-0.243129,0.0046503,0.0128916,783,1555,-3.81736,-22.3294
-434,-531,-3.82703,22.9846,8.90872e-05,-0.00405956,-0.00100636,0.000320319,-0.00429079,-0.22585,0.00297306,0.0123146,790,1555,-3.82705,-22.9846
-427,-531,-3.85144,23.6304,0.000350118,-0.00207506,-0.000239168,0.000373479,-0.00209842,-0.0973691,0.00153862,0.0143064,797,1555,-3.85142,-23.6303
-420,-531,-3.89429,24.2672,0.000917274,-0.000277477,0.000678583,0.00122396,-0.000584166,0.424478,0.00106549,0.0121594,804,1555,-3.8943,-24.2672
-413,-531,-3.91809,24.8873,0.0014641,0.00162989,0.00150261,0.00305189,4.21024e-05,0.812953,0.0020207,0.0101889,811,1555,-3.91811,-24.8873
-406,-531,-3.94366,25.4913,0.0024191,0.00330639,0.00254352,0.00544466,0.000280821,0.871741,0.00353988,0.0116283,818,1555,-3.94364,-25.4913
-399,-531,-3.9635,26.1031,0.00352306,0.00491869,0.00357805,0.00786634,0.00057541,0.881702,0.00506333,0.0133642,825,1555,-3.9635,-26.1032
-392,-531,-3.97827,26.733,0.00466117,0.0064451,0.00456519,0.0102046,0.00090162,0.881875,0.00652336,0.0173015,832,1555,-3.97824,-26.733
-385,-531,-4.01416,27.3361,0.00579342,0.00801072,0.00551143,0.0125239,0.00128024,0.884651,0.00795692,0.014711,839,1555,-4.01415,-27.3361
-378,-531,-4.06207,27.9091,0.00702621,0.00949335,0.0065128,0.0148884,0.00163119,0.878993,0.009429,0.0181601,846,1555,-4.06208,-27.9091
-371,-531,-3.96112,28.6644,0.00855824,0.011209,0.00766271,0.0176601,0.00210715,0.871034,0.0111377,0.0366965,853,1555,-3.96113,-28.6645
-364,-531,-3.65259,29.7261,0,0,0,0,0,0,0,-1,860,1555,-3.65259,-29.726
-357,-531,-3.91455,30.0675,0,0,0,0,0,0,0,-1,867,1555,-3.91453,-30.0675
-350,-531,-3.16101,27.5791,0,0,0,0,0,0,0,-1,874,1555,-3.16099,-27.5791
-343,-531,-2.90552,28.561,0,0,0,0,0,0,0,-1,881,1555,-2.90549,-28.5611
-336,-531,-2.6698,29.5398,0,0,0,0,0,0,0,-1,888,1555,-2.66983,-29.5398
-329,-531,-2.45148,30.4781,0,0,0,0,0,0,0,-1,895,1555,-2.45148,-30.4781
-322,-531,-3.25092,28.4921,0,0,0,0,0,0,0,-1,902,1555,-3.25092,-28.4921
-315,-531,-5.51929,31.7814,0,0,0,0,0,0,0,-1,909,1555,-5.51928,-31.7813
-308,-531,-1.66455,19.0624,0,0,0,0,0,0,0,-1,916,1555,-1.66455,-19.0623
-301,-531,-2.02405,18.8912,0,0,0,0,0,0,0,-1,923,1555,-2.02407,-18.8913
-294,-531,-1.3244,8.1825,0,0,0,0,0,0,0,-1,930,1555,-1.3244,-8.18251
-287,-531,-1.78192,10.1661,0,0,0,0,0,0,0,-1,937,1555,-1.78192,-10.1661
-280,-531,-2.14508,10.3945,0,0,0,0,0,0,0,-1,944,1555,-2.14506,-10.3945
-273,-531,-2.50818,10.6229,0,0,0,0,0,0,0,-1,951,1555,-2.5082,-10.6229
-266,-531,-4.97742,17.9215,0,0,0,0,0,0,0,-1,958,1555,-4.97744,-17.9215
-259,-531,0,0,0,0,0,0,0,0,0,-1,965,1555,0,0
-252,-531,0,0,0,0,0,0,0,0,0,-1,972,1555,0,0
-245,-531,0,0,0,0,0,0,0,0,0,-1,979,1555,0,0
-238,-531,0,0,0,0,0,0,0,0,0,-1,986,1555,0,0
-231,-531,0,0,0,0,0,0,0,0,0,-1,993,1555,0,0
-224,-531,0,0,0,0,0,0,0,0,0,-1,1000,1555,0,0
-217,-531,0,0,0,0,0,0,0,0,0,-1,1007,1555,0,0
-210,-531,0,0,0,0,0,0,0,0,0,-1,1014,1555,0,0
-203,-531,0,0,0,0,0,0,0,0,0,-1,1021,1555,0,0
-196,-531,0,0,0,0,0,0,0,0,0,-1,1028,1555,0,0
-189,-531,0,0,0,0,0,0,0,0,0,-1,1035,1555,0,0
-182,-531,0,0,0,0,0,0,0,0,0,-1,1042,1555,0,0
-175,-531,0,0,0,0,0,0,0,0,0,-1,1049,1555,0,0
-168,-531,0,0,0,0,0,0,0,0,0,-1,1056,1555,0,0
-161,-531,0,0,0,0,0,0,0,0,0,-1,1063,1555,0,0
-154,-531,0,0,0,0,0,0,0,0,0,-1,1070,1555,0,0
-147,-531,0,0,0,0,0,0,0,0,0,-1,1077,1555,0,0
-140,-531,0,0,0,0,0,0,0,0,0,-1,1084,1555,0,0
-133,-531,0,0,0,0,0,0,0,0,0,-1,1091,1555,0,0
-126,-531,0,0,0,0,0,0,0,0,0,-1,1098,1555,0,0
-119,-531,0,0,0,0,0,0,0,0,0,-1,1105,1555,0,0
-112,-531,0,0,0,0,0,0,0,0,0,-1,1112,1555,0,0
-105,-531,0,0,0,0,0,0,0,0,0,-1,1119,1555,0,0
-98,-531,0,0,0,0,0,0,0,0,0,-1,1126,1555,0,0
-91,-531,0,0,0,0,0,0,0,0,0,-1,1133,1555,0,0
-84,-531,0,0,0,0,0,0,0,0,0,-1,1140,1555,0,0
-77,-531,0,0,0,0,0,0,0,0,0,-1,1147,1555,0,0
-70,-531,0,0,0,0,0,0,0,0,0,-1,1154,1555,0,0
-63,-531,0,0,0,0,0,0,0,0,0,-1,1161,1555,0,0
-56,-531,0,0,0,0,0,0,0,0,0,-1,1168,1555,0,0
-49,-531,0,0,0,0,0,0,0,0,0,-1,1175,1555,0,0
-42,-531,0,0,0,0,0,0,0,0,0,-1,1182,1555,0,0
-35,-531,0,0,0,0,0,0,0,0,0,-1,1189,1555,0,0
-28,-531,0,0,0,0,0,0,0,0,0,-1,1196,1555,0,0
-21,-531,0,0,0,0,0,0,0,0,0,-1,1203,1555,0,0
-14,-531,0,0,0,0,0,0,0,0,0,-1,1210,1555,0,0
-7,-531,0,0,0,0,0,0,0,0,0,-1,1217,1555,0,0
0,-531,0,0,0,0,0,0,0,0,0,-1,1224,1555,0,0
7,-531,0,0,0,0,0,0,0,0,0,-1,1231,1555,0,0
14,-531,0,0,0,0,0,0,0,0,0,-1,1238,1555,0,0
21,-531,0,0,0,0,0,0,0,0,0,-1,1245,1555,0,0
28,-531,0,0,0,0,0,0,0,0,0,-1,1252,1555,0,0
35,-531,0,0,0,0,0,0,0,0,0,-1,1259,1555,0,0
42,-531,0,0,0,0,0,0,0,0,0,-1,1266,1555,0,0
49,-531,0,0,0,0,0,0,0,0,0,-1,1273,1555,0,0
56,-531,0,0,0,0,0,0,0,0,0,-1,1280,1555,0,0
63,-531,0,0,0,0,0,0,0,0,0,-1,1287,1555,0,0
70,-531,0,0,0,0,0,0,0,0,0,-1,1294,1555,0,0
77,-531,0,0,0,0,0,0,0,0,0,-1,1301,1555,0,0
84,-531,0,0,0,0,0,0,0,0,0,-1,1308,1555,0,0
91,-531,0,0,0,0,0,0,0,0,0,-1,1315,1555,0,0
98,-531,0,0,0,0,0,0,0,0,0,-1,1322,1555,0,0
105,-531,0,0,0,0,0,0,0,0,0,-1,1329,1555,0,0
112,-531,0,0,0,0,0,0,0,0,0,-1,1336,1555,0,0
119,-531,0,0,0,0,0,0,0,0,0,-1,1343,1555,0,0
126,-531,0,0,0,0,0,0,0,0,0,-1,1350,1555,0,0
133,-531,0,0,0,0,0,0,0,0,0,-1,1357,1555,0,0
140,-531,0,0,0,0,0,0,0,0,0,-1,1364,1555,0,0
147,-531,0,0,0,0,0,0,0,0,0,-1,1371,1555,0,0
154,-531,0,0,0,0,0,0,0,0,0,-1,1378,1555,0,0
161,-531,0,0,0,0,0,0,0,0,0,-1,1385,1555,0,0
168,-531,0,0,0,0,0,0,0,0,0,-1,1392,1555,0,0
175,-531,0,0,0,0,0,0,0,0,0,-1,1399,1555,0,0
182,-531,0,0,0,0,0,0,0,0,0,-1,1406,1555,0,0
189,-531,0,0,0,0,0,0,0,0,0,-1,1413,1555,0,0
196,-531,0,0,0,0,0,0,0,0,0,-1,1420,1555,0,0
203,-531,0,0,0,0,0,0,0,0,0,-1,1427,1555,0,0
210,-531,0,0,0,0,0,0,0,0,0,-1,1434,1555,0,0
217,-531,0,0,0,0,0,0,0,0,0,-1,1441,1555,0,0
224,-531,0,0,0,0,0,0,0,0,0,-1,1448,1555,0,0
231,-531,0,0,0,0,0,0,0,0,0,-1,1455,1555,0,0
238,-531,0,0,0,0,0,0,0,0,0,-1,1462,1555,0,0
245,-531,0,0,0,0,0,0,0,0,0,-1,1469,1555,0,0
252,-531,0,0,0,0,0,0,0,0,0,-1,1476,1555,0,0
259,-531,0,0,0,0,0,0,0,0,0,-1,1483,1555,0,0
266,-531,0,0,0,0,0,0,0,0,0,-1,1490,1555,0,0
273,-531,0,0,0,0,0,0,0,0,0,-1,1497,1555,0,0
280,-531,0,0,0,0,0,0,0,0,0,-1,1504,1555,0,0
287,-531,0,0,0,0,0,0,0,0,0,-1,1511,1555,0,0
294,-531,0,0,0,0,0,0,0,0,0,-1,1518,1555,0,0
301,-531,0,0,0,0,0,0,0,0,0,-1,1525,1555,0,0
308,-531,0,0,0,0,0,0,0,0,0,-1,1532,1555,0,0
315,-531,0,0,0,0,0,0,0,0,0,-1,1539,1555,0,0
322,-531,0,0,0,0,0,0,0,0,0,-1,1546,1555,0,0
329,-531,0,0,0,0,0,0,0,0,0,-1,1553,1555,0,0
336,-531,0,0,0,0,0,0,0,0,0,-1,1560,1555,0,0
343,-531,0,0,0,0,0,0,0,0,0,-1,1567,1555,0,0
350,-531,0,0,0,0,0,0,0,0,0,-1,1574,1555,0,0
357,-531,0,0,0,0,0,0,0,0,0,-1,1581,1555,0,0
364,-531,0,0,0,0,0,0,0,0,0,-1,1588,1555,0,0
371,-531,0,0,0,0,0,0,0,0,0,-1,1595,1555,0,0
378,-531,0,0,0,0,0,0,0,0,0,-1,1602,1555,0,0
385,-531,3.48169,1.78625,0,0,0,0,0,0,0,-1,1609,1555,3.48165,-1.78624
392,-531,10.8781,9.09204,0,0,0,0,0,0,0,-1,1616,1555,10.8781,-9.09205
399,-531,8.26306,5.29602,0,0,0,0,0,0,0,-1,1623,1555,8.26302,-5.29607
406,-531,8.26147,5.42712,0,0,0,0,0,0,0,-1,1630,1555,8.26145,-5.42716
413,-531,8.20618,5.75012,0,0,0,0,0,0,0,-1,1637,1555,8.20619,-5.75017
420,-531,7.64868,7.09558,0,0,0,0,0,0,0,-1,1644,1555,7.64867,-7.09564
427,-531,9.93054,11.8412,0,0,0,0,0,0,0,-1,1651,1555,9.93059,-11.8412
434,-531,10.244,11.7072,0,0,0,0,0,0,0,-1,1658,1555,10.244,-11.7071
441,-531,11.4528,12.9397,0,0,0,0,0,0,0,-1,1665,1555,11.4528,-12.9397
448,-531,11.928,18.8029,0,0,0,0,0,0,0,-1,1672,1555,11.928,-18.8028
455,-531,14.4877,9.67065,0,0,0,0,0,0,0,-1,1679,1555,14.4876,-9.67066
462,-531,13.5253,12.2002,0,0,0,0,0,0,0,-1,1686,1555,13.5252,-12.2002
469,-531,15.5087,15.7894,0,0,0,0,0,0,0,-1,1693,1555,15.5086,-15.7895
476,-531,14.6582,16.2264,0,0,0,0,0,0,0,-1,1700,1555,14.6582,-16.2264
483,-531,14.755,18.5994,0,0,0,0,0,0,0,-1,1707,1555,14.7551,-18.5994
490,-531,16.9362,25.4943,0,0,0,0,0,0,0,-1,1714,1555,16.9362,-25.4942
497,-531,20.9161,30.6139,0,0,0,0,0,0,0,-1,1721,1555,20.9162,-30.6138
504,-531,21.1182,29.4012,0.0101717,0.00991839,-0.00820177,0.0182478,0.00184232,-0.777676,0.0116,0.0430997,1728,1555,21.1182,-29.4013
511,-531,21.2408,28.6976,0.0082684,0.0081125,-0.00661995,0.0148109,0.00157005,-0.779511,0.00939439,0.0170001,1735,1555,21.2408,-28.6977
518,-531,21.264,28.0905,0.00642668,0.0062114,-0.00504711,0.0113673,0.00127079,-0.774736,0.00719213,0.0151872,1742,1555,21.264,-28.0905
525,-531,21.2655,27.5217,0.00478727,0.00472904,-0.00378148,0.00853975,0.000976563,-0.781549,0.00539718,0.0151985,1749,1555,21.2655,-27.5218
532,-531,21.2571,26.9147,0.0033714,0.00331748,-0.00259291,0.00593749,0.000751397,-0.7802,0.00373315,0.0124952,1756,1555,21.2571,-26.9146
539,-531,21.2245,26.339,0.002258,0.00205142,-0.00153684,0.00369502,0.000614401,-0.751845,0.00228623,0.0139989,1763,1555,21.2245,-26.339
546,-531,21.1699,25.7759,0.00137771,0.000799722,-0.000590544,0.00174618,0.000431253,-0.557843,0.00105031,0.0169028,1770,1555,21.17,-25.7758
553,-531,21.1978,25.2428,0.000715528,-0.000343718,0.000286637,0.000788119,-0.000416309,0.248035,0.000706335,0.0316612,1777,1555,21.1978,-25.2429
560,-531,21.1587,24.6713,0.000434607,-0.00134893,0.00100017,0.000882834,-0.00179716,0.421316,0.00157702,0.035793,1784,1555,21.1587,-24.6713
567,-531,21.0446,24.0044,0.000562101,-0.00207911,0.00141736,0.00117874,-0.00269575,0.410362,0.00229338,0.0202218,1791,1555,21.0445,-24.0044
574,-531,21.0413,23.3755,0.00103521,-0.00270194,0.00169189,0.00168737,-0.00335409,0.367907,0.00296323,0.0138603,1798,1555,21.0412,-23.3754
581,-531,21.0847,22.7622,0.00207066,-0.0030584,0.00159763,0.00252759,-0.00351533,0.278569,0.00350438,0.0226656,1805,1555,21.0847,-22.7622
588,-531,21.1536,22.1433,0.00369974,-0.00305308,0.00113656,0.0038859,-0.00323924,0.162352,0.00411935,0.0392529,1812,1555,21.1536,-22.1433
595,-531,21.1687,21.5084,0,0,0,0,0,0,0,-1,1819,1555,21.1687,-21.5084
602,-531,13.701,11.8346,0,0,0,0,0,0,0,-1,1826,1555,13.701,-11.8347
609,-531,10.9072,8.50903,0,0,0,0,0,0,0,-1,1833,1555,10.9073,-8.50902
616,-531,10.5723,7.17859,0,0,0,0,0,0,0,-1,1840,1555,10.5723,-7.17855
623,-531,10.0674,5.08984,0,0,0,0,0,0,0,-1,1847,1555,10.0674,-5.08981
630,-531,11.672,3.18909,0,0,0,0,0,0,0,-1,1854,1555,11.672,-3.18904
637,-531,13.2546,1.38965,0,0,0,0,0,0,0,-1,1861,1555,13.2547,-1.3896
644,-531,0,0,0,0,0,0,0,0,0,-1,1868,1555,0,0
651,-531,0,0,0,0,0,0,0,0,0,-1,1875,1555,0,0
658,-531,0,0,0,0,0,0,0,0,0,-1,1882,1555,0,0
665,-531,0,0,0,0,0,0,0,0,0,-1,1889,1555,0,0
672,-531,0,0,0,0,0,0,0,0,0,-1,1896,1555,0,0
679,-531,0,0,0,0,0,0,0,0,0,-1,1903,1555,0,0
686,-531,0,0,0,0,0,0,0,0,0,-1,1910,1555,0,0
693,-531,0,0,0,0,0,0,0,0,0,-1,1917,1555,0,0
700,-531,0,0,0,0,0,0,0,0,0,-1,1924,1555,0,0
707,-531,0,0,0,0,0,0,0,0,0,-1,1931,1555,0,0
714,-531,0,0,0,0,0,0,0,0,0,-1,1938,1555,0,0
721,-531,0,0,0,0,0,0,0,0,0,-1,1945,1555,0,0
728,-531,0,0,0,0,0,0,0,0,0,-1,1952,1555,0,0
735,-531,0,0,0,0,0,0,0,0,0,-1,1959,1555,0,0
742,-531,0,0,0,0,0,0,0,0,0,-1,1966,1555,0,0
749,-531,0,0,0,0,0,0,0,0,0,-1,1973,1555,0,0
756,-531,0,0,0,0,0,0,0,0,0,-1,1980,1555,0,0
763,-531,0,0,0,0,0,0,0,0,0,-1,1987,1555,0,0
770,-531,0,0,0,0,0,0,0,0,0,-1,1994,1555,0,0
777,-531,0,0,0,0,0,0,0,0,0,-1,2001,1555,0,0
784,-531,0,0,0,0,0,0,0,0,0,-1,2008,1555,0,0
791,-531,0,0,0,0,0,0,0,0,0,-1,2015,1555,0,0
798,-531,0,0,0,0,0,0,0,0,0,-1,2022,1555,0,0
805,-531,0,0,0,0,0,0,0,0,0,-1,2029,1555,0,0
812,-531,0,0,0,0,0,0,0,0,0,-1,2036,1555,0,0
-700,-538,0,0,0,0,0,0,0,0,0,-1,524,1562,0,0
-693,-538,0,0,0,0,0,0,0,0,0,-1,531,1562,0,0
-686,-538,0,0,0,0,0,0,0,0,0,-1,538,1562,0,0
-679,-538,0,0,0,0,0,0,0,0,0,-1,545,1562,0,0
-672,-538,0,0,0,0,0,0,0,0,0,-1,552,1562,0,0
-665,-538,0,0,0,0,0,0,0,0,0,-1,559,1562,0,0
-658,-538,0,0,0,0,0,0,0,0,0,-1,566,1562,0,0
-651,-538,0,0,0,0,0,0,0,0,0,-1,573,1562,0,0
-644,-538,0,0,0,0,0,0,0,0,0,-1,580,1562,0,0
-637,-538,0,0,0,0,0,0,0,0,0,-1,587,1562,0,0
-630,-538,0,0,0,0,0,0,0,0,0,-1,594,1562,0,0
-623,-538,0,0,0,0,0,0,0,0,0,-1,601,1562,0,0
-616,-538,0,0,0,0,0,0,0,0,0,-1,608,1562,0,0
-609,-538,0,0,0,0,0,0,0,0,0,-1,615,1562,0,0
-602,-538,0,0,0,0,0,0,0,0,0,-1,622,1562,0,0
-595,-538,0,0,0,0,0,0,0,0,0,-1,629,1562,0,0
-588,-538,0,0,0,0,0,0,0,0,0,-1,636,1562,0,0
-581,-538,0,0,0,0,0,0,0,0,0,-1,643,1562,0,0
-574,-538,0,0,0,0,0,0,0,0,0,-1,650,1562,0,0
-567,-538,0,0,0,0,0,0,0,0,0,-1,657,1562,0,0
-560,-538,0,0,0,0,0,0,0,0,0,-1,664,1562,0,0
-553,-538,0,0,0,0,0,0,0,0,0,-1,671,1562,0,0
-546,-538,0,0,0,0,0,0,0,0,0,-1,678,1562,0,0
-539,-538,0,0,0,0,0,0,0,0,0,-1,685,1562,0,0
-532,-538,0,0,0,0,0,0,0,0,0,-1,692,1562,0,0
-525,-538,0,0,0,0,0,0,0,0,0,-1,699,1562,0,0
-518,-538,0,0,0,0,0,0,0,0,0,-1,706,1562,0,0
-511,-538,-2.6582,-1.54321,0,0,0,0,0,0,0,-1,713,1562,-2.65821,1.54327
-504,-538,-2.66455,-0.71167,0,0,0,0,0,0,0,-1,720,1562,-2.66456,0.711667
-497,-538,-0.763855,6.77747,0,0,0,0,0,0,0,-1,727,1562,-0.76385,-6.77743
-490,-538,-2.70453,8.01465,0,0,0,0,0,0,0,-1,734,1562,-2.70451,-8.0147
-483,-538,-0.933533,7.84644,0,0,0,0,0,0,0,-1,741,1562,-0.933548,-7.84638
-476,-538,-3.29962,15.8307,0,0,0,0,0,0,0,-1,748,1562,-3.29962,-15.8306
-469,-538,-3.85522,20.676,0,0,0,0,0,0,0,-1,755,1562,-3.85524,-20.6761
-462,-538,-2.9939,21.0453,0,0,0,0,0,0,0,-1,762,1562,-2.9939,-21.0453
-455,-538,-3.46582,21.4521,0,0,0,0,0,0,0,-1,769,1562,-3.46583,-21.4521
-448,-538,-3.18774,21.7826,0,0,0,0,0,0,0,-1,776,1562,-3.18774,-21.7826
-441,-538,-3.15607,22.4952,-6.90105e-05,-0.00757467,-0.00217045,0.000513433,-0.00815712,-0.262174,0.00561705,0.0271713,783,1562,-3.15608,-22.4952
-434,-538,-3.24255,23.0103,-0.000405658,-0.00530863,-0.00154181,3.88785e-05,-0.00575316,-0.280709,0.00384847,0.0136184,790,1562,-3.24257,-23.0102
-427,-538,-3.276,23.6854,-0.000306413,-0.0032318,-0.000805681,-9.91977e-05,-0.00343902,-0.251736,0.00226034,0.0137829,797,1562,-3.27598,-23.6854
-420,-538,-3.28992,24.2683,0.00010186,-0.00145901,1.56592e-05,0.000102017,-0.00145917,0.010031,0.00100851,0.0178419,804,1562,-3.28992,-24.2683
-413,-538,-3.31055,24.8781,0.000418184,0.000425426,0.000695207,0.00111702,-0.000273412,0.788003,0.000850594,0.0178049,811,1562,-3.31056,-24.8781
-406,-538,-3.32568,25.5006,0.00122577,0.00197015,0.00159907,0.00323977,-4.38519e-05,0.89974,0.00217461,0.0145988,818,1562,-3.3257,-25.5006
-399,-538,-3.33966,26.1357,0.00221903,0.00336922,0.00244645,0.00530727,0.000280987,0.900839,0.00344833,0.0137229,825,1562,-3.33965,-26.1357
-392,-538,-3.36304,26.7634,0.00322833,0.0046073,0.00323784,0.00722825,0.000607377,0.890305,0.00462967,0.0152455,832,1562,-3.36303,-26.7634
-385,-538,-3.40497,27.3693,0.00428573,0.00585999,0.0039568,0.00910719,0.00103853,0.883582,0.00575659,0.0129617,839,1562,-3.40496,-27.3693
-378,-538,-3.43726,27.9646,0.00537176,0.007001,0.00465724,0.0109143,0.00145843,0.871979,0.00684209,0.0106658,846,1562,-3.43726,-27.9646
-371,-538,-3.47656,28.5388,0.00664498,0.00827338,0.00546093,0.0129805,0.00193789,0.859401,0.00808547,0.0141637,853,1562,-3.47659,-28.5389
-364,-538,-3.40277,29.2228,0.00802082,0.00965139,0.00629007,0.0151788,0.00249342,0.849846,0.00939895,0.0197806,860,1562,-3.40275,-29.2228
-357,-538,-3.36737,29.9629,0.00947062,0.0111927,0.00718873,0.0175717,0.00309153,0.845001,0.0108321,0.045863,867,1562,-3.36737,-29.9629
-350,-538,-3.21063,30.8668,0,0,0,0,0,0,0,-1,874,1562,-3.21066,-30.8668
-343,-538,-2.47339,28.3082,0,0,0,0,0,0,0,-1,881,1562,-2.47341,-28.3083
-336,-538,-2.40161,28.5409,0,0,0,0,0,0,0,-1,888,1562,-2.40163,-28.541
-329,-538,-2.57159,28.4905,0,0,0,0,0,0,0,-1,895,1562,-2.57161,-28.4905
-322,-538,-2.83783,28.2308,0,0,0,0,0,0,0,-1,902,1562,-2.83783,-28.2308
-315,-538,-2.91827,27.7609,0,0,0,0,0,0,0,-1,909,1562,-2.91829,-27.7608
-308,-538,-4.37433,31.7996,0,0,0,0,0,0,0,-1,916,1562,-4.3743,-31.7995
-301,-538,-0.452393,18.5101,0,0,0,0,0,0,0,-1,923,1562,-0.452367,-18.5102
-294,-538,1.23138,14.0757,0,0,0,0,0,0,0,-1,930,1562,1.23137,-14.0757
-287,-538,-2.60419,10.2361,0,0,0,0,0,0,0,-1,937,1562,-2.6042,-10.2361
-280,-538,-2.93475,10.5106,0,0,0,0,0,0,0,-1,944,1562,-2.93475,-10.5106
-273,-538,-3.26532,10.785,0,0,0,0,0,0,0,-1,951,1562,-3.26531,-10.785
-266,-538,-5.03412,15.9951,0,0,0,0,0,0,0,-1,958,1562,-5.03409,-15.9951
-259,-538,-5.89642,16.5184,0,0,0,0,0,0,0,-1,965,1562,-5.89644,-16.5184
-252,-538,0,0,0,0,0,0,0,0,0,-1,972,1562,0,0
-245,-538,0,0,0,0,0,0,0,0,0,-1,979,1562,0,0
-238,-538,0,0,0,0,0,0,0,0,0,-1,986,1562,0,0
-231,-538,0,0,0,0,0,0,0,0,0,-1,993,1562,0,0
-224,-538,0,0,0,0,0,0,0,0,0,-1,1000,1562,0,0
-217,-538,0,0,0,0,0,0,0,0,0,-1,1007,1562,0,0
-210,-538,0,0,0,0,0,0,0,0,0,-1,1014,1562,0,0
-203,-538,0,0,0,0,0,0,0,0,0,-1,1021,1562,0,0
-196,-538,0,0,0,0,0,0,0,0,0,-1,1028,1562,0,0
-189,-538,0,0,0,0,0,0,0,0,0,-1,1035,1562,0,0
-182,-538,0,0,0,0,0,0,0,0,0,-1,1042,1562,0,0
-175,-538,0,0,0,0,0,0,0,0,0,-1,1049,1562,0,0
-168,-538,0,0,0,0,0,0,0,0,0,-1,1056,1562,0,0
-161,-538,0,0,0,0,0,0,0,0,0,-1,1063,1562,0,0
-154,-538,0,0,0,0,0,0,0,0,0,-1,1070,1562,0,0
-147,-538,0,0,0,0,0,0,0,0,0,-1,1077,1562,0,0
-140,-538,0,0,0,0,0,0,0,0,0,-1,1084,1562,0,0
-133,-538,0,0,0,0,0,0,0,0,0,-1,1091,1562,0,0
-126,-538,0,0,0,0,0,0,0,0,0,-1,1098,1562,0,0
-119,-538,0,0,0,0,0,0,0,0,0,-1,1105,1562,0,0
-112,-538,0,0,0,0,0,0,0,0,0,-1,1112,1562,0,0
-105,-538,0,0,0,0,0,0,0,0,0,-1,1119,1562,0,0
-98,-538,0,0,0,0,0,0,0,0,0,-1,1126,1562,0,0
-91,-538,0,0,0,0,0,0,0,0,0,-1,1133,1562,0,0
-84,-538,0,0,0,0,0,0,0,0,0,-1,1140,1562,0,0
-77,-538,0,0,0,0,0,0,0,0,0,-1,1147,1562,0,0
-70,-538,0,0,0,0,0,0,0,0,0,-1,1154,1562,0,0
-63,-538,0,0,0,0,0,0,0,0,0,-1,1161,1562,0,0
-56,-538,0,0,0,0,0,0,0,0,0,-1,1168,1562,0,0
-49,-538,0,0,0,0,0,0,0,0,0,-1,1175,1562,0,0
-42,-538,0,0,0,0,0,0,0,0,0,-1,1182,1562,0,0
-35,-538,0,0,0,0,0,0,0,0,0,-1,1189,1562,0,0
-28,-538,0,0,0,0,0,0,0,0,0,-1,1196,1562,0,0
-21,-538,0,0,0,0,0,0,0,0,0,-1,1203,1562,0,0
-14,-538,0,0,0,0,0,0,0,0,0,-1,1210,1562,0,0
-7,-538,0,0,0,0,0,0,0,0,0,-1,1217,1562,0,0
0,-538,0,0,0,0,0,0,0,0,0,-1,1224,1562,0,0
7,-538,0,0,0,0,0,0,0,0,0,-1,1231,1562,0,0
14,-538,0,0,0,0,0,0,0,0,0,-1,1238,1562,0,0
21,-538,0,0,0,0,0,0,0,0,0,-1,1245,1562,0,0
28,-538,0,0,0,0,0,0,0,0,0,-1,1252,1562,0,0
35,-538,0,0,0,0,0,0,0,0,0,-1,1259,1562,0,0
42,-538,0,0,0,0,0,0,0,0,0,-1,1266,1562,0,0
49,-538,0,0,0,0,0,0,0,0,0,-1,1273,1562,0,0
56,-538,0,0,0,0,0,0,0,0,0,-1,1280,1562,0,0
63,-538,0,0,0,0,0,0,0,0,0,-1,1287,1562,0,0
70,-538,0,0,0,0,0,0,0,0,0,-1,1294,1562,0,0
77,-538,0,0,0,0,0,0,0,0,0,-1,1301,1562,0,0
84,-538,0,0,0,0,0,0,0,0,0,-1,1308,1562,0,0
91,-538,0,0,0,0,0,0,0,0,0,-1,1315,1562,0,0
98,-538,0,0,0,0,0,0,0,0,0,-1,1322,1562,0,0
105,-538,0,0,0,0,0,0,0,0,0,-1,1329,1562,0,0
112,-538,0,0,0,0,0,0,0,0,0,-1,1336,1562,0,0
119,-538,0,0,0,0,0,0,0,0,0,-1,1343,1562,0,0
126,-538,0,0,0,0,0,0,0,0,0,-1,1350,1562,0,0
133,-538,0,0,0,0,0,0,0,0,0,-1,1357,1562,0,0
140,-538,0,0,0,0,0,0,0,0,0,-1,1364,1562,0,0
147,-538,0,0,0,0,0,0,0,0,0,-1,1371,1562,0,0
154,-538,0,0,0,0,0,0,0,0,0,-1,1378,1562,0,0
161,-538,0,0,0,0,0,0,0,0,0,-1,1385,1562,0,0
168,-538,0,0,0,0,0,0,0,0,0,-1,1392,1562,0,0
175,-538,0,0,0,0,0,0,0,0,0,-1,1399,1562,0,0
182,-538,0,0,0,0,0,0,0,0,0,-1,1406,1562,0,0
189,-538,0,0,0,0,0,0,0,0,0,-1,1413,1562,0,0
196,-538,0,0,0,0,0,0,0,0,0,-1,1420,1562,0,0
203,-538,0,0,0,0,0,0,0,0,0,-1,1427,1562,0,0
210,-538,0,0,0,0,0,0,0,0,0,-1,1434,1562,0,0
217,-538,0,0,0,0,0,0,0,0,0,-1,1441,1562,0,0
224,-538,0,0,0,0,0,0,0,0,0,-1,1448,1562,0,0
231,-538,0,0,0,0,0,0,0,0,0,-1,1455,1562,0,0
238,-538,0,0,0,0,0,0,0,0,0,-1,1462,1562,0,0
245,-538,0,0,0,0,0,0,0,0,0,-1,1469,1562,0,0
252,-538,0,0,0,0,0,0,0,0,0,-1,1476,1562,0,0
259,-538,0,0,0,0,0,0,0,0,0,-1,1483,1562,0,0
266,-538,0,0,0,0,0,0,0,0,0,-1,1490,1562,0,0
273,-538,0,0,0,0,0,0,0,0,0,-1,1497,1562,0,0
280,-538,0,0,0,0,0,0,0,0,0,-1,1504,1562,0,0
287,-538,0,0,0,0,0,0,0,0,0,-1,1511,1562,0,0
294,-538,0,0,0,0,0,0,0,0,0,-1,1518,1562,0,0
301,-538,0,0,0,0,0,0,0,0,0,-1,1525,1562,0,0
308,-538,0,0,0,0,0,0,0,0,0,-1,1532,1562,0,0
315,-538,0,0,0,0,0,0,0,0,0,-1,1539,1562,0,0
322,-538,0,0,0,0,0,0,0,0,0,-1,1546,1562,0,0
329,-538,0,0,0,0,0,0,0,0,0,-1,1553,1562,0,0
336,-538,0,0,0,0,0,0,0,0,0,-1,1560,1562,0,0
343,-538,0,0,0,0,0,0,0,0,0,-1,1567,1562,0,0
350,-538,0,0,0,0,0,0,0,0,0,-1,1574,1562,0,0
357,-538,0,0,0,0,0,0,0,0,0,-1,1581,1562,0,0
364,-538,0,0,0,0,0,0,0,0,0,-1,1588,1562,0,0
371,-538,0,0,0,0,0,0,0,0,0,-1,1595,1562,0,0
378,-538,9.65479,5.82434,0,0,0,0,0,0,0,-1,1602,1562,9.6548,-5.82439
385,-538,10.5449,7.9502,0,0,0,0,0,0,0,-1,1609,1562,10.5449,-7.95014
392,-538,8.20361,7.07214,0,0,0,0,0,0,0,-1,1616,1562,8.20362,-7.07211
399,-538,7.85425,4.70508,0,0,0,0,0,0,0,-1,1623,1562,7.85425,-4.70512
406,-538,7.77734,4.96094,0,0,0,0,0,0,0,-1,1630,1562,7.77729,-4.96097
413,-538,13.0446,13.1765,0,0,0,0,0,0,0,-1,1637,1562,13.0446,-13.1765
420,-538,9.96216,12.7653,0,0,0,0,0,0,0,-1,1644,1562,9.96221,-12.7653
427,-538,10.1732,14.5863,0,0,0,0,0,0,0,-1,1651,1562,10.1732,-14.5863
434,-538,9.64331,14.7745,0,0,0,0,0,0,0,-1,1658,1562,9.64326,-14.7746
441,-538,11.5039,20.5195,0,0,0,0,0,0,0,-1,1665,1562,11.5039,-20.5195
448,-538,12.8766,22.4932,0,0,0,0,0,0,0,-1,1672,1562,12.8766,-22.4932
455,-538,12.5693,17.4128,0,0,0,0,0,0,0,-1,1679,1562,12.5694,-17.4128
462,-538,12.1389,17.017,0,0,0,0,0,0,0,-1,1686,1562,12.1389,-17.017
469,-538,14.3802,16.6945,0,0,0,0,0,0,0,-1,1693,1562,14.3803,-16.6945
476,-538,13.724,19.0608,0,0,0,0,0,0,0,-1,1700,1562,13.724,-19.0608
483,-538,17.088,25.2936,0,0,0,0,0,0,0,-1,1707,1562,17.088,-25.2936
490,-538,20.3352,30.9425,0,0,0,0,0,0,0,-1,1714,1562,20.3352,-30.9425
497,-538,20.5994,29.9738,0.00985062,0.0104858,-0.00813139,0.0183058,0.00203062,-0.804917,0.0115865,0.0418346,1721,1562,20.5994,-29.9737
504,-538,20.7117,29.2369,0.00803218,0.00799982,-0.00650461,0.0145206,0.00151137,-0.784154,0.00921802,0.0172496,1728,1562,20.7117,-29.2369
511,-538,20.6686,28.6707,0.00639133,0.00636402,-0.00510616,0.0114839,0.0012715,-0.784061,0.00726923,0.0100132,1735,1562,20.6686,-28.6707
518,-538,20.6534,28.1127,0.00475855,0.00462406,-0.00369124,0.00838316,0.000999445,-0.776291,0.0052872,0.0113691,1742,1562,20.6535,-28.1127
525,-538,20.6371,27.5228,0.00333096,0.00327734,-0.00252668,0.00583096,0.00077733,-0.780093,0.00365585,0.0131804,1749,1562,20.6371,-27.5229
532,-538,20.6471,26.9426,0.00210517,0.00195719,-0.00140556,0.00343868,0.000623678,-0.759103,0.00211543,0.0152666,1756,1562,20.6471,-26.9427
539,-538,20.6321,26.3798,0.00111903,0.000747566,-0.000390397,0.00136562,0.00050097,-0.563369,0.000797708,0.0182971,1763,1562,20.6321,-26.3798
546,-538,20.5913,25.7813,0.000307548,-0.000505866,0.000571447,0.000602241,-0.00080056,0.476126,0.000812601,0.0184387,1770,1562,20.5914,-25.7812
553,-538,20.5996,25.2173,-0.000298716,-0.00167336,0.00148874,0.000653706,-0.00262578,0.569136,0.00200428,0.0274928,1777,1562,20.5996,-25.2173
560,-538,20.5319,24.6737,-0.00052717,-0.00271567,0.00225231,0.000882636,-0.00412548,0.559273,0.00308689,0.030853,1784,1562,20.5318,-24.6737
567,-538,20.4259,24.0634,-0.00036402,-0.00354304,0.00278418,0.00125243,-0.00515949,0.526021,0.00392433,0.0249256,1791,1562,20.4259,-24.0634
574,-538,20.3329,23.4225,0.000188535,-0.00427397,0.00317746,0.00183991,-0.00592534,0.479294,0.00468553,0.030642,1798,1562,20.3328,-23.4225
581,-538,20.4028,22.8251,0.00146292,-0.00464046,0.00308627,0.00275149,-0.00592903,0.395515,0.0051224,0.0429697,1805,1562,20.4029,-22.8251
588,-538,20.6853,22.2363,0,0,0,0,0,0,0,-1,1812,1562,20.6853,-22.2363
595,-538,15.9808,16.0894,0,0,0,0,0,0,0,-1,1819,1562,15.9808,-16.0893
602,-538,10.314,8.94238,0,0,0,0,0,0,0,-1,1826,1562,10.314,-8.94238
609,-538,10.1046,7.05713,0,0,0,0,0,0,0,-1,1833,1562,10.1046,-7.05719
616,-538,9.92249,5.43506,0,0,0,0,0,0,0,-1,1840,1562,9.92254,-5.43507
623,-538,11.1711,4.31604,0,0,0,0,0,0,0,-1,1847,1562,11.1711,-4.316
630,-538,12.6112,2.61633,0,0,0,0,0,0,0,-1,1854,1562,12.6112,-2.61637
637,-538,0,0,0,0,0,0,0,0,0,-1,1861,1562,0,0
644,-538,0,0,0,0,0,0,0,0,0,-1,1868,1562,0,0
651,-538,0,0,0,0,0,0,0,0,0,-1,1875,1562,0,0
658,-538,0,0,0,0,0,0,0,0,0,-1,1882,1562,0,0
665,-538,0,0,0,0,0,0,0,0,0,-1,1889,1562,0,0
672,-538,0,0,0,0,0,0,0,0,0,-1,1896,1562,0,0
679,-538,0,0,0,0,0,0,0,0,0,-1,1903,1562,0,0
686,-538,0,0,0,0,0,0,0,0,0,-1,1910,1562,0,0
693,-538,0,0,0,0,0,0,0,0,0,-1,1917,1562,0,0
700,-538,0,0,0,0,0,0,0,0,0,-1,1924,1562,0,0
707,-538,0,0,0,0,0,0,0,0,0,-1,1931,1562,0,0
714,-538,0,0,0,0,0,0,0,0,0,-1,1938,1562,0,0
721,-538,0,0,0,0,0,0,0,0,0,-1,1945,1562,0,0
728,-538,0,0,0,0,0,0,0,0,0,-1,1952,1562,0,0
735,-538,0,0,0,0,0,0,0,0,0,-1,1959,1562,0,0
742,-538,0,0,0,0,0,0,0,0,0,-1,1966,1562,0,0
749,-538,0,0,0,0,0,0,0,0,0,-1,1973,1562,0,0
756,-538,0,0,0,0,0,0,0,0,0,-1,1980,1562,0,0
763,-538,0,0,0,0,0,0,0,0,0,-1,1987,1562,0,0
770,-538,0,0,0,0,0,0,0,0,0,-1,1994,1562,0,0
777,-538,0,0,0,0,0,0,0,0,0,-1,2001,1562,0,0
784,-538,0,0,0,0,0,0,0,0,0,-1,2008,1562,0,0
791,-538,0,0,0,0,0,0,0,0,0,-1,2015,1562,0,0
798,-538,0,0,0,0,0,0,0,0,0,-1,2022,1562,0,0
805,-538,0,0,0,0,0,0,0,0,0,-1,2029,1562,0,0
812,-538,0,0,0,0,0,0,0,0,0,-1,2036,1562,0,0
-700,-545,0,0,0,0,0,0,0,0,0,-1,524,1569,0,0
-693,-545,0,0,0,0,0,0,0,0,0,-1,531,1569,0,0
-686,-545,0,0,0,0,0,0,0,0,0,-1,538,1569,0,0
-679,-545,0,0,0,0,0,0,0,0,0,-1,545,1569,0,0
-672,-545,0,0,0,0,0,0,0,0,0,-1,552,1569,0,0
-665,-545,0,0,0,0,0,0,0,0,0,-1,559,1569,0,0
-658,-545,0,0,0,0,0,0,0,0,0,-1,566,1569,0,0
-651,-545,0,0,0,0,0,0,0,0,0,-1,573,1569,0,0
-644,-545,0,0,0,0,0,0,0,0,0,-1,580,1569,0,0
-637,-545,0,0,0,0,0,0,0,0,0,-1,587,1569,0,0
-630,-545,0,0,0,0,0,0,0,0,0,-1,594,1569,0,0
-623,-545,0,0,0,0,0,0,0,0,0,-1,601,1569,0,0
-616,-545,0,0,0,0,0,0,0,0,0,-1,608,1569,0,0
-609,-545,0,0,0,0,0,0,0,0,0,-1,615,1569,0,0
-602,-545,0,0,0,0,0,0,0,0,0,-1,622,1569,0,0
-595,-545,0,0,0,0,0,0,0,0,0,-1,629,1569,0,0
-588,-545,0,0,0,0,0,0,0,0,0,-1,636,1569,0,0
-581,-545,0,0,0,0,0,0,0,0,0,-1,643,1569,0,0
-574,-545,0,0,0,0,0,0,0,0,0,-1,650,1569,0,0
-567,-545,0,0,0,0,0,0,0,0,0,-1,657,1569,0,0
-560,-545,0,0,0,0,0,0,0,0,0,-1,664,1569,0,0
-553,-545,0,0,0,0,0,0,0,0,0,-1,671,1569,0,0
-546,-545,0,0,0,0,0,0,0,0,0,-1,678,1569,0,0
-539,-545,0,0,0,0,0,0,0,0,0,-1,685,1569,0,0
-532,-545,0,0,0,0,0,0,0,0,0,-1,692,1569,0,0
-525,-545,0,0,0,0,0,0,0,0,0,-1,699,1569,0,0
-518,-545,0,0,0,0,0,0,0,0,0,-1,706,1569,0,0
-511,-545,0,0,0,0,0,0,0,0,0,-1,713,1569,0,0
-504,-545,-3.55237,-2.5354,0,0,0,0,0,0,0,-1,720,1569,-3.55236,2.53545
-497,-545,2.26575,5.69214,0,0,0,0,0,0,0,-1,727,1569,2.26573,-5.6922
-490,-545,-2.17334,7.81396,0,0,0,0,0,0,0,-1,734,1569,-2.17334,-7.81399
-483,-545,-1.88336,5.8446,0,0,0,0,0,0,0,-1,741,1569,-1.88334,-5.84466
-476,-545,-1.13147,6.5741,0,0,0,0,0,0,0,-1,748,1569,-1.13149,-6.57405
-469,-545,-1.03412,15.8353,0,0,0,0,0,0,0,-1,755,1569,-1.03414,-15.8353
-462,-545,-2.57898,19.5947,0,0,0,0,0,0,0,-1,762,1569,-2.57899,-19.5947
-455,-545,-3.11481,21.4243,0,0,0,0,0,0,0,-1,769,1569,-3.11482,-21.4243
-448,-545,-2.38531,21.7888,0,0,0,0,0,0,0,-1,776,1569,-2.3853,-21.7888
-441,-545,-2.39771,22.6053,-0.000344798,-0.00852622,-0.00243914,0.000327193,-0.00919821,-0.268834,0.00624407,0.0321361,783,1569,-2.39773,-22.6053
-434,-545,-2.70239,23.1141,-0.000975399,-0.00633555,-0.00195344,-0.000339041,-0.00697191,-0.314922,0.00453915,0.0280213,790,1569,-2.70242,-23.1142
-427,-545,-2.67078,23.7183,-0.00100521,-0.00421252,-0.00126751,-0.00056478,-0.00465295,-0.334426,0.0029319,0.0204975,797,1569,-2.67076,-23.7182
-420,-545,-2.6543,24.2788,-0.000714891,-0.00247838,-0.000551288,-0.000556736,-0.00263654,-0.27938,0.00160464,0.0243741,804,1569,-2.65428,-24.2789
-413,-545,-2.66785,24.8632,-0.000582392,-0.000629226,1.69878e-06,-0.000582331,-0.000629287,0.0362095,0.000404782,0.0245274,811,1569,-2.66783,-24.8631
-406,-545,-2.6875,25.5291,0.000111572,0.000780206,0.00078832,0.00130217,-0.000410392,0.985947,0.00103247,0.0174179,818,1569,-2.68752,-25.529
-399,-545,-2.70856,26.1528,0.00101666,0.00199246,0.00149088,0.00307325,-6.41273e-05,0.943535,0.00207054,0.0117268,825,1569,-2.70854,-26.1529
-392,-545,-2.75244,26.7538,0.00191925,0.00302049,0.00214994,0.0046892,0.000250539,0.910758,0.00304606,0.0123437,832,1569,-2.75247,-26.7538
-385,-545,-2.78857,27.3629,0.00290915,0.00406756,0.00273588,0.00628487,0.000691836,0.889711,0.0039794,0.0107471,839,1569,-2.78859,-27.3629
-378,-545,-2.83325,27.9801,0.00386846,0.00500355,0.00326237,0.00774737,0.00112464,0.87152,0.00483384,0.0121069,846,1569,-2.83326,-27.9801
-371,-545,-2.86292,28.611,0.00494148,0.0060017,0.00387596,0.00938363,0.00155955,0.853361,0.00580615,0.0156059,853,1569,-2.86292,-28.611
-364,-545,-2.86414,29.1743,0.00613427,0.0071822,0.00455078,0.0112391,0.00207738,0.842714,0.00690522,0.0113887,860,1569,-2.86411,-29.1743
-357,-545,-2.77954,29.911,0.00739411,0.00846257,0.00525623,0.0132116,0.00264504,0.836043,0.00807186,0.0203608,867,1569,-2.77953,-29.911
-350,-545,-2.74908,30.5491,0.00879044,0.00998947,0.00607917,0.0154986,0.0032813,0.834548,0.00943088,0.03259,874,1569,-2.74908,-30.5491
-343,-545,-2.78424,31.3306,0,0,0,0,0,0,0,-1,881,1569,-2.78421,-31.3305
-336,-545,-2.54688,31.4716,0,0,0,0,0,0,0,-1,888,1569,-2.54687,-31.4715
-329,-545,-2.03595,27.8694,0,0,0,0,0,0,0,-1,895,1569,-2.03592,-27.8694
-322,-545,-2.42474,27.9695,0,0,0,0,0,0,0,-1,902,1569,-2.42474,-27.9695
-315,-545,-2.52954,30.1711,0,0,0,0,0,0,0,-1,909,1569,-2.52951,-30.1712
-308,-545,-1.54358,21.4457,0,0,0,0,0,0,0,-1,916,1569,-1.54357,-21.4457
-301,-545,1.52191,17.5009,0,0,0,0,0,0,0,-1,923,1569,1.52192,-17.5008
-294,-545,-2.69287,8.42102,0,0,0,0,0,0,0,-1,930,1569,-2.69287,-8.42097
-287,-545,-3.47784,9.96021,0,0,0,0,0,0,0,-1,937,1569,-3.47785,-9.96021
-280,-545,-3.7879,10.5448,0,0,0,0,0,0,0,-1,944,1569,-3.78793,-10.5448
-273,-545,-5.10333,12.864,0,0,0,0,0,0,0,-1,951,1569,-5.10331,-12.864
-266,-545,-5.78955,13.3704,0,0,0,0,0,0,0,-1,958,1569,-5.78952,-13.3703
-259,-545,-6.32184,13.8101,0,0,0,0,0,0,0,-1,965,1569,-6.32182,-13.81
-252,-545,0.369263,7.54053,0,0,0,0,0,0,0,-1,972,1569,0.369276,-7.54056
-245,-545,-0.236633,6.65564,0,0,0,0,0,0,0,-1,979,1569,-0.236605,-6.65566
-238,-545,0,0,0,0,0,0,0,0,0,-1,986,1569,0,0
-231,-545,0,0,0,0,0,0,0,0,0,-1,993,1569,0,0
-224,-545,0,0,0,0,0,0,0,0,0,-1,1000,1569,0,0
-217,-545,0,0,0,0,0,0,0,0,0,-1,1007,1569,0,0
-210,-545,0,0,0,0,0,0,0,0,0,-1,1014,1569,0,0
-203,-545,0,0,0,0,0,0,0,0,0,-1,1021,1569,0,0
-196,-545,0,0,0,0,0,0,0,0,0,-1,1028,1569,0,0
-189,-545,0,0,0,0,0,0,0,0,0,-1,1035,1569,0,0
-182,-545,0,0,0,0,0,0,0,0,0,-1,1042,1569,0,0
-175,-545,0,0,0,0,0,0,0,0,0,-1,1049,1569,0,0
-168,-545,0,0,0,0,0,0,0,0,0,-1,1056,1569,0,0
-161,-545,0,0,0,0,0,0,0,0,0,-1,1063,1569,0,0
-154,-545,0,0,0,0,0,0,0,0,0,-1,1070,1569,0,0
-147,-545,0,0,0,0,0,0,0,0,0,-1,1077,1569,0,0
-140,-545,0,0,0,0,0,0,0,0,0,-1,1084,1569,0,0
-133,-545,0,0,0,0,0,0,0,0,0,-1,1091,1569,0,0
-126,-545,0,0,0,0,0,0,0,0,0,-1,1098,1569,0,0
-119,-545,0,0,0,0,0,0,0,0,0,-1,1105,1569,0,0
-112,-545,0,0,0,0,0,0,0,0,0,-1,1112,1569,0,0
-105,-545,0,0,0,0,0,0,0,0,0,-1,1119,1569,0,0
-98,-545,0,0,0,0,0,0,0,0,0,-1,1126,1569,0,0
-91,-545,0,0,0,0,0,0,0,0,0,-1,1133,1569,0,0
-84,-545,0,0,0,0,0,0,0,0,0,-1,1140,1569,0,0
-77,-545,0,0,0,0,0,0,0,0,0,-1,1147,1569,0,0
-70,-545,0,0,0,0,0,0,0,0,0,-1,1154,1569,0,0
-63,-545,0,0,0,0,0,0,0,0,0,-1,1161,1569,0,0
-56,-545,0,0,0,0,0,0,0,0,0,-1,1168,1569,0,0
-49,-545,0,0,0,0,0,0,0,0,0,-1,1175,1569,0,0
-42,-545,0,0,0,0,0,0,0,0,0,-1,1182,1569,0,0
-35,-545,0,0,0,0,0,0,0,0,0,-1,1189,1569,0,0
-28,-545,0,0,0,0,0,0,0,0,0,-1,1196,1569,0,0
-21,-545,0,0,0,0,0,0,0,0,0,-1,1203,1569,0,0
-14,-545,0,0,0,0,0,0,0,0,0,-1,1210,1569,0,0
-7,-545,0,0,0,0,0,0,0,0,0,-1,1217,1569,0,0
0,-545,0,0,0,0,0,0,0,0,0,-1,1224,1569,0,0
7,-545,0,0,0,0,0,0,0,0,0,-1,1231,1569,0,0
14,-545,0,0,0,0,0,0,0,0,0,-1,1238,1569,0,0
21,-545,0,0,0,0,0,0,0,0,0,-1,1245,1569,0,0
28,-545,0,0,0,0,0,0,0,0,0,-1,1252,1569,0,0
35,-545,0,0,0,0,0,0,0,0,0,-1,1259,1569,0,0
42,-545,0,0,0,0,0,0,0,0,0,-1,1266,1569,0,0
49,-545,0,0,0,0,0,0,0,0,0,-1,1273,1569,0,0
56,-545,0,0,0,0,0,0,0,0,0,-1,1280,1569,0,0
63,-545,0,0,0,0,0,0,0,0,0,-1,1287,1569,0,0
70,-545,0,0,0,0,0,0,0,0,0,-1,1294,1569,0,0
77,-545,0,0,0,0,0,0,0,0,0,-1,1301,1569,0,0
84,-545,0,0,0,0,0,0,0,0,0,-1,1308,1569,0,0
91,-545,0,0,0,0,0,0,0,0,0,-1,1315,1569,0,0
98,-545,0,0,0,0,0,0,0,0,0,-1,1322,1569,0,0
105,-545,0,0,0,0,0,0,0,0,0,-1,1329,1569,0,0
112,-545,0,0,0,0,0,0,0,0,0,-1,1336,1569,0,0
119,-545,0,0,0,0,0,0,0,0,0,-1,1343,1569,0,0
126,-545,0,0,0,0,0,0,0,0,0,-1,1350,1569,0,0
133,-545,0,0,0,0,0,0,0,0,0,-1,1357,1569,0,0
140,-545,0,0,0,0,0,0,0,0,0,-1,1364,1569,0,0
147,-545,0,0,0,0,0,0,0,0,0,-1,1371,1569,0,0
154,-545,0,0,0,0,0,0,0,0,0,-1,1378,1569,0,0
161,-545,0,0,0,0,0,0,0,0,0,-1,1385,1569,0,0
168,-545,0,0,0,0,0,0,0,0,0,-1,1392,1569,0,0
175,-545,0,0,0,0,0,0,0,0,0,-1,1399,1569,0,0
182,-545,0,0,0,0,0,0,0,0,0,-1,1406,1569,0,0
189,-545,0,0,0,0,0,0,0,0,0,-1,1413,1569,0,0
196,-545,0,0,0,0,0,0,0,0,0,-1,1420,1569,0,0
203,-545,0,0,0,0,0,0,0,0,0,-1,1427,1569,0,0
210,-545,0,0,0,0,0,0,0,0,0,-1,1434,1569,0,0
217,-545,0,0,0,0,0,0,0,0,0,-1,1441,1569,0,0
224,-545,0,0,0,0,0,0,0,0,0,-1,1448,1569,0,0
231,-545,0,0,0,0,0,0,0,0,0,-1,1455,1569,0,0
238,-545,0,0,0,0,0,0,0,0,0,-1,1462,1569,0,0
245,-545,0,0,0,0,0,0,0,0,0,-1,1469,1569,0,0
252,-545,0,0,0,0,0,0,0,0,0,-1,1476,1569,0,0
259,-545,0,0,0,0,0,0,0,0,0,-1,1483,1569,0,0
266,-545,0,0,0,0,0,0,0,0,0,-1,1490,1569,0,0
273,-545,0,0,0,0,0,0,0,0,0,-1,1497,1569,0,0
280,-545,0,0,0,0,0,0,0,0,0,-1,1504,1569,0,0
287,-545,0,0,0,0,0,0,0,0,0,-1,1511,1569,0,0
294,-545,0,0,0,0,0,0,0,0,0,-1,1518,1569,0,0
301,-545,0,0,0,0,0,0,0,0,0,-1,1525,1569,0,0
308,-545,0,0,0,0,0,0,0,0,0,-1,1532,1569,0,0
315,-545,0,0,0,0,0,0,0,0,0,-1,1539,1569,0,0
322,-545,0,0,0,0,0,0,0,0,0,-1,1546,1569,0,0
329,-545,0,0,0,0,0,0,0,0,0,-1,1553,1569,0,0
336,-545,0,0,0,0,0,0,0,0,0,-1,1560,1569,0,0
343,-545,0,0,0,0,0,0,0,0,0,-1,1567,1569,0,0
350,-545,0,0,0,0,0,0,0,0,0,-1,1574,1569,0,0
357,-545,0,0,0,0,0,0,0,0,0,-1,1581,1569,0,0
364,-545,7.19495,4.88098,0,0,0,0,0,0,0,-1,1588,1569,7.19497,-4.88095
371,-545,7.82324,3.84302,0,0,0,0,0,0,0,-1,1595,1569,7.82324,-3.84307
378,-545,7.65674,5.52673,0,0,0,0,0,0,0,-1,1602,1569,7.6567,-5.52667
385,-545,8.58447,1.16125,0,0,0,0,0,0,0,-1,1609,1569,8.5845,-1.1612
392,-545,12.5654,3.89526,0,0,0,0,0,0,0,-1,1616,1569,12.5655,-3.89532
399,-545,11.5869,5.6333,0,0,0,0,0,0,0,-1,1623,1569,11.5869,-5.63326
406,-545,11.234,6.36414,0,0,0,0,0,0,0,-1,1630,1569,11.234,-6.3641
413,-545,12.1521,13.4817,0,0,0,0,0,0,0,-1,1637,1569,12.1521,-13.4817
420,-545,11.1954,13.6047,0,0,0,0,0,0,0,-1,1644,1569,11.1954,-13.6047
427,-545,9.61072,14.9135,0,0,0,0,0,0,0,-1,1651,1569,9.61076,-14.9134
434,-545,13.1598,23.9921,0,0,0,0,0,0,0,-1,1658,1569,13.1598,-23.992
441,-545,12.2833,22.2238,0,0,0,0,0,0,0,-1,1665,1569,12.2833,-22.2237
448,-545,13.0082,21.941,0,0,0,0,0,0,0,-1,1672,1569,13.0082,-21.941
455,-545,13.733,21.6583,0,0,0,0,0,0,0,-1,1679,1569,13.733,-21.6583
462,-545,12.449,20.7413,0,0,0,0,0,0,0,-1,1686,1569,12.4489,-20.7413
469,-545,12.7837,17.7919,0,0,0,0,0,0,0,-1,1693,1569,12.7837,-17.7919
476,-545,15.7562,24.8708,0,0,0,0,0,0,0,-1,1700,1569,15.7563,-24.8709
483,-545,19.9908,31.1263,0,0,0,0,0,0,0,-1,1707,1569,19.9908,-31.1264
490,-545,20.0616,30.4652,0.00971742,0.0107244,-0.00814134,0.0183778,0.00206401,-0.81628,0.0116251,0.0300246,1714,1569,20.0617,-30.4652
497,-545,20.0968,29.8805,0.00783649,0.00836388,-0.00633815,0.0144438,0.00175656,-0.806188,0.00910038,0.0242016,1721,1569,20.0968,-29.8805
504,-545,20.1926,29.271,0.00630256,0.00617691,-0.00494422,0.0111844,0.00129511,-0.779045,0.00706422,0.0160013,1728,1569,20.1926,-29.271
511,-545,20.1378,28.6823,0.00483042,0.00470185,-0.00370405,0.00847074,0.00106153,-0.776722,0.00532868,0.0112325,1735,1569,20.1378,-28.6823
518,-545,20.1069,28.1194,0.0033402,0.00313228,-0.00243103,0.00566949,0.00080299,-0.764029,0.00354246,0.0136104,1742,1569,20.1069,-28.1194
525,-545,20.0573,27.5271,0.00204015,0.00190897,-0.00134102,0.00331718,0.00063194,-0.760963,0.0020338,0.0150642,1749,1569,20.0572,-27.5271
532,-545,20.0387,26.9397,0.000917963,0.000666714,-0.000250988,0.00107301,0.000511667,-0.553366,0.000619724,0.0152322,1756,1569,20.0387,-26.9397
539,-545,20.0166,26.3837,-2.04118e-05,-0.000514457,0.000778254,0.000549082,-0.00108395,0.631724,0.000959541,0.0178649,1763,1569,20.0167,-26.3837
546,-545,19.9979,25.7845,-0.000832238,-0.00179713,0.00181651,0.000564803,-0.00319417,0.6556,0.00234054,0.0189609,1770,1569,19.9979,-25.7846
553,-545,19.9878,25.2147,-0.00145185,-0.00303323,0.00283926,0.000704764,-0.00518984,0.649597,0.00371715,0.0257384,1777,1569,19.9877,-25.2148
560,-545,19.9362,24.6139,-0.00172168,-0.00417565,0.00373329,0.000981079,-0.00687841,0.626629,0.00494518,0.0286223,1784,1569,19.9361,-24.6139
567,-545,19.9604,23.9709,0,0,0,0,0,0,0,-1,1791,1569,19.9605,-23.971
574,-545,19.8585,23.2157,0,0,0,0,0,0,0,-1,1798,1569,19.8585,-23.2156
581,-545,19.8322,22.6968,0,0,0,0,0,0,0,-1,1805,1569,19.8321,-22.6968
588,-545,15.4786,16.7035,0,0,0,0,0,0,0,-1,1812,1569,15.4786,-16.7035
595,-545,10.2859,9.11218,0,0,0,0,0,0,0,-1,1819,1569,10.2858,-9.11215
602,-545,8.82117,6.32214,0,0,0,0,0,0,0,-1,1826,1569,8.82121,-6.32217
609,-545,10.2406,5.22351,0,0,0,0,0,0,0,-1,1833,1569,10.2406,-5.22353
616,-545,11.701,3.93188,0,0,0,0,0,0,0,-1,1840,1569,11.701,-3.93191
623,-545,13.2139,2.32043,0,0,0,0,0,0,0,-1,1847,1569,13.2139,-2.32042
630,-545,0,0,0,0,0,0,0,0,0,-1,1854,1569,0,0
637,-545,0,0,0,0,0,0,0,0,0,-1,1861,1569,0,0
644,-545,0,0,0,0,0,0,0,0,0,-1,1868,1569,0,0
651,-545,0,0,0,0,0,0,0,0,0,-1,1875,1569,0,0
658,-545,0,0,0,0,0,0,0,0,0,-1,1882,1569,0,0
665,-545,0,0,0,0,0,0,0,0,0,-1,1889,1569,0,0
672,-545,0,0,0,0,0,0,0,0,0,-1,1896,1569,0,0
679,-545,0,0,0,0,0,0,0,0,0,-1,1903,1569,0,0
686,-545,0,0,0,0,0,0,0,0,0,-1,1910,1569,0,0
693,-545,0,0,0,0,0,0,0,0,0,-1,1917,1569,0,0
700,-545,0,0,0,0,0,0,0,0,0,-1,1924,1569,0,0
707,-545,0,0,0,0,0,0,0,0,0,-1,1931,1569,0,0
714,-545,0,0,0,0,0,0,0,0,0,-1,1938,1569,0,0
721,-545,0,0,0,0,0,0,0,0,0,-1,1945,1569,0,0
728,-545,0,0,0,0,0,0,0,0,0,-1,1952,1569,0,0
735,-545,0,0,0,0,0,0,0,0,0,-1,1959,1569,0,0
742,-545,0,0,0,0,0,0,0,0,0,-1,1966,1569,0,0
749,-545,0,0,0,0,0,0,0,0,0,-1,1973,1569,0,0
756,-545,0,0,0,0,0,0,0,0,0,-1,1980,1569,0,0
763,-545,0,0,0,0,0,0,0,0,0,-1,1987,1569,0,0
770,-545,0,0,0,0,0,0,0,0,0,-1,1994,1569,0,0
777,-545,0,0,0,0,0,0,0,0,0,-1,2001,1569,0,0
784,-545,0,0,0,0,0,0,0,0,0,-1,2008,1569,0,0
791,-545,0,0,0,0,0,0,0,0,0,-1,2015,1569,0,0
798,-545,0,0,0,0,0,0,0,0,0,-1,2022,1569,0,0
805,-545,0,0,0,0,0,0,0,0,0,-1,2029,1569,0,0
812,-545,0,0,0,0,0,0,0,0,0,-1,2036,1569,0,0
-700,-552,0,0,0,0,0,0,0,0,0,-1,524,1576,0,0
-693,-552,0,0,0,0,0,0,0,0,0,-1,531,1576,0,0
-686,-552,0,0,0,0,0,0,0,0,0,-1,538,1576,0,0
-679,-552,0,0,0,0,0,0,0,0,0,-1,545,1576,0,0
-672,-552,0,0,0,0,0,0,0,0,0,-1,552,1576,0,0
-665,-552,0,0,0,0,0,0,0,0,0,-1,559,1576,0,0
-658,-552,0,0,0,0,0,0,0,0,0,-1,566,1576,0,0
-651,-552,0,0,0,0,0,0,0,0,0,-1,573,1576,0,0
-644,-552,0,0,0,0,0,0,0,0,0,-1,580,1576,0,0
-637,-552,0,0,0,0,0,0,0,0,0,-1,587,1576,0,0
-630,-552,0,0,0,0,0,0,0,0,0,-1,594,1576,0,0
-623,-552,0,0,0,0,0,0,0,0,0,-1,601,1576,0,0
-616,-552,0,0,0,0,0,0,0,0,0,-1,608,1576,0,0
-609,-552,0,0,0,0,0,0,0,0,0,-1,615,1576,0,0
-602,-552,0,0,0,0,0,0,0,0,0,-1,622,1576,0,0
-595,-552,0,0,0,0,0,0,0,0,0,-1,629,1576,0,0
-588,-552,0,0,0,0,0,0,0,0,0,-1,636,1576,0,0
-581,-552,0,0,0,0,0,0,0,0,0,-1,643,1576,0,0
-574,-552,0,0,0,0,0,0,0,0,0,-1,650,1576,0,0
-567,-552,0,0,0,0,0,0,0,0,0,-1,657,1576,0,0
-560,-552,0,0,0,0,0,0,0,0,0,-1,664,1576,0,0
-553,-552,0,0,0,0,0,0,0,0,0,-1,671,1576,0,0
-546,-552,0,0,0,0,0,0,0,0,0,-1,678,1576,0,0
-539,-552,0,0,0,0,0,0,0,0,0,-1,685,1576,0,0
-532,-552,0,0,0,0,0,0,0,0,0,-1,692,1576,0,0
-525,-552,0,0,0,0,0,0,0,0,0,-1,699,1576,0,0
-518,-552,0,0,0,0,0,0,0,0,0,-1,706,1576,0,0
-511,-552,0,0,0,0,0,0,0,0,0,-1,713,1576,0,0
-504,-552,0,0,0,0,0,0,0,0,0,-1,720,1576,0,0
-497,-552,1.51282,3.96924,0,0,0,0,0,0,0,-1,727,1576,1.5128,-3.96924
-490,-552,-3.82312,6.32104,0,0,0,0,0,0,0,-1,734,1576,-3.82314,-6.3211
-483,-552,-3.50586,6.47986,0,0,0,0,0,0,0,-1,741,1576,-3.50587,-6.47983
-476,-552,-1.95129,4.43054,0,0,0,0,0,0,0,-1,748,1576,-1.95128,-4.43054
-469,-552,-1.40491,7.9895,0,0,0,0,0,0,0,-1,755,1576,-1.40491,-7.98947
-462,-552,0.0459595,16.3469,0,0,0,0,0,0,0,-1,762,1576,0.0459611,-16.3469
-455,-552,-1.9527,19.385,0,0,0,0,0,0,0,-1,769,1576,-1.95269,-19.385
-448,-552,-1.78546,21.5887,0,0,0,0,0,0,0,-1,776,1576,-1.78543,-21.5887
-441,-552,-1.77655,22.566,0,0,0,0,0,0,0,-1,783,1576,-1.77657,-22.566
-434,-552,-1.89465,23.5699,0,0,0,0,0,0,0,-1,790,1576,-1.89464,-23.57
-427,-552,-2.11414,23.6299,-0.00168685,-0.00497615,-0.00171801,-0.000953171,-0.00570982,-0.403605,0.00353196,0.034897,797,1576,-2.11417,-23.6299
-420,-552,-2.05029,24.3314,-0.00155016,-0.00328185,-0.00110485,-0.0010123,-0.00381971,-0.453045,0.00228505,0.0238522,804,1576,-2.05028,-24.3314
-413,-552,-2.04688,24.9329,-0.00159532,-0.00146656,-0.000639504,-0.000888204,-0.00217368,-0.835567,0.00126194,0.0183832,811,1576,-2.0469,-24.9328
-406,-552,-2.08344,25.5613,-0.00100383,-0.000196188,5.5901e-05,-0.000192338,-0.00100768,1.50202,0.00061774,0.0136327,818,1576,-2.08341,-25.5613
-399,-552,-2.11957,26.1678,-0.000170116,0.000844093,0.000648795,0.00116045,-0.000486473,1.11711,0.000977032,0.0135807,825,1576,-2.11958,-26.1678
-392,-552,-2.16028,26.7705,0.000653609,0.00170584,0.00122006,0.00250839,-0.00014894,0.988962,0.00172405,0.0156295,832,1576,-2.16031,-26.7705
-385,-552,-2.18671,27.3857,0.00160019,0.00259314,0.00172942,0.00389593,0.000297393,0.925178,0.00250405,0.0147106,839,1576,-2.18673,-27.3858
-378,-552,-2.22211,27.9941,0.0024803,0.00337122,0.00215628,0.00512758,0.000723946,0.887259,0.00320444,0.0157661,846,1576,-2.22208,-27.9941
-371,-552,-2.25397,28.6193,0.00342642,0.0041506,0.00265709,0.00647015,0.00110686,0.853118,0.00399591,0.0190763,853,1576,-2.25399,-28.6193
-364,-552,-2.24274,29.2151,0.00451749,0.00513536,0.00324555,0.00808665,0.0015662,0.832849,0.00495228,0.0148895,860,1576,-2.24274,-29.2151
-357,-552,-2.2348,29.7885,0.00566716,0.00617613,0.00385064,0.00978069,0.00206261,0.818395,0.00595324,0.0110815,867,1576,-2.23482,-29.7885
-350,-552,-2.23761,30.4263,0.00692504,0.00736208,0.00453946,0.0116883,0.00259884,0.809449,0.00708657,0.0142928,874,1576,-2.23763,-30.4263
-343,-552,-2.25739,31.0046,0.00812936,0.00865734,0.00532462,0.0137245,0.00306219,0.810168,0.00831898,0.022163,881,1576,-2.25741,-31.0047
-336,-552,-2.18945,31.45,0,0,0,0,0,0,0,-1,888,1576,-2.18943,-31.4499
-329,-552,-1.9892,32.1375,0,0,0,0,0,0,0,-1,895,1576,-1.98922,-32.1375
-322,-552,-1.23962,28.5371,0,0,0,0,0,0,0,-1,902,1576,-1.23964,-28.5371
-315,-552,-0.605347,28.994,0,0,0,0,0,0,0,-1,909,1576,-0.605331,-28.9941
-308,-552,-1.01624,30.3169,0,0,0,0,0,0,0,-1,916,1576,-1.01624,-30.3169
-301,-552,1.39453,18.4995,0,0,0,0,0,0,0,-1,923,1576,1.3945,-18.4995
-294,-552,0.842163,13.7863,0,0,0,0,0,0,0,-1,930,1576,0.842149,-13.7863
-287,-552,-0.663757,13.3474,0,0,0,0,0,0,0,-1,937,1576,-0.663744,-13.3474
-280,-552,-5.47241,8.96765,0,0,0,0,0,0,0,-1,944,1576,-5.47239,-8.96766
-273,-552,1.64587,10.6685,0,0,0,0,0,0,0,-1,951,1576,1.6459,-10.6685
-266,-552,-1.32678,8.05688,0,0,0,0,0,0,0,-1,958,1576,-1.32677,-8.05683
-259,-552,-5.54321,8.31213,0,0,0,0,0,0,0,-1,965,1576,-5.54324,-8.31214
-252,-552,-1.93445,7.81543,0,0,0,0,0,0,0,-1,972,1576,-1.93445,-7.81546
-245,-552,-2.53613,6.92212,0,0,0,0,0,0,0,-1,979,1576,-2.53614,-6.92216
-238,-552,-6.5365,2.81885,0,0,0,0,0,0,0,-1,986,1576,-6.53649,-2.8188
-231,-552,-4.32239,4.34583,0,0,0,0,0,0,0,-1,993,1576,-4.32239,-4.34587
-224,-552,0,0,0,0,0,0,0,0,0,-1,1000,1576,0,0
-217,-552,0,0,0,0,0,0,0,0,0,-1,1007,1576,0,0
-210,-552,0,0,0,0,0,0,0,0,0,-1,1014,1576,0,0
-203,-552,0,0,0,0,0,0,0,0,0,-1,1021,1576,0,0
-196,-552,0,0,0,0,0,0,0,0,0,-1,1028,1576,0,0
-189,-552,0,0,0,0,0,0,0,0,0,-1,1035,1576,0,0
-182,-552,0,0,0,0,0,0,0,0,0,-1,1042,1576,0,0
-175,-552,0,0,0,0,0,0,0,0,0,-1,1049,1576,0,0
-168,-552,0,0,0,0,0,0,0,0,0,-1,1056,1576,0,0
-161,-552,0,0,0,0,0,0,0,0,0,-1,1063,1576,0,0
-154,-552,0,0,0,0,0,0,0,0,0,-1,1070,1576,0,0
-147,-552,0,0,0,0,0,0,0,0,0,-1,1077,1576,0,0
-140,-552,0,0,0,0,0,0,0,0,0,-1,1084,1576,0,0
-133,-552,0,0,0,0,0,0,0,0,0,-1,1091,1576,0,0
-126,-552,0,0,0,0,0,0,0,0,0,-1,1098,1576,0,0
-119,-552,0,0,0,0,0,0,0,0,0,-1,1105,1576,0,0
-112,-552,0,0,0,0,0,0,0,0,0,-1,1112,1576,0,0
-105,-552,0,0,0,0,0,0,0,0,0,-1,1119,1576,0,0
-98,-552,0,0,0,0,0,0,0,0,0,-1,1126,1576,0,0
-91,-552,0,0,0,0,0,0,0,0,0,-1,1133,1576,0,0
-84,-552,0,0,0,0,0,0,0,0,0,-1,1140,1576,0,0
-77,-552,0,0,0,0,0,0,0,0,0,-1,1147,1576,0,0
-70,-552,0,0,0,0,0,0,0,0,0,-1,1154,1576,0,0
-63,-552,0,0,0,0,0,0,0,0,0,-1,1161,1576,0,0
-56,-552,0,0,0,0,0,0,0,0,0,-1,1168,1576,0,0
-49,-552,0,0,0,0,0,0,0,0,0,-1,1175,1576,0,0
-42,-552,0,0,0,0,0,0,0,0,0,-1,1182,1576,0,0
-35,-552,0,0,0,0,0,0,0,0,0,-1,1189,1576,0,0
-28,-552,0,0,0,0,0,0,0,0,0,-1,1196,1576,0,0
-21,-552,0,0,0,0,0,0,0,0,0,-1,1203,1576,0,0
-14,-552,0,0,0,0,0,0,0,0,0,-1,1210,1576,0,0
-7,-552,0,0,0,0,0,0,0,0,0,-1,1217,1576,0,0
0,-552,0,0,0,0,0,0,0,0,0,-1,1224,1576,0,0
7,-552,0,0,0,0,0,0,0,0,0,-1,1231,1576,0,0
14,-552,0,0,0,0,0,0,0,0,0,-1,1238,1576,0,0
21,-552,0,0,0,0,0,0,0,0,0,-1,1245,1576,0,0
28,-552,0,0,0,0,0,0,0,0,0,-1,1252,1576,0,0
35,-552,0,0,0,0,0,0,0,0,0,-1,1259,1576,0,0
42,-552,0,0,0,0,0,0,0,0,0,-1,1266,1576,0,0
49,-552,0,0,0,0,0,0,0,0,0,-1,1273,1576,0,0
56,-552,0,0,0,0,0,0,0,0,0,-1,1280,1576,0,0
63,-552,0,0,0,0,0,0,0,0,0,-1,1287,1576,0,0
70,-552,0,0,0,0,0,0,0,0,0,-1,1294,1576,0,0
77,-552,0,0,0,0,0,0,0,0,0,-1,1301,1576,0,0
84,-552,0,0,0,0,0,0,0,0,0,-1,1308,1576,0,0
91,-552,0,0,0,0,0,0,0,0,0,-1,1315,1576,0,0
98,-552,0,0,0,0,0,0,0,0,0,-1,1322,1576,0,0
105,-552,0,0,0,0,0,0,0,0,0,-1,1329,1576,0,0
112,-552,0,0,0,0,0,0,0,0,0,-1,1336,1576,0,0
119,-552,0,0,0,0,0,0,0,0,0,-1,1343,1576,0,0
126,-552,0,0,0,0,0,0,0,0,0,-1,1350,1576,0,0
133,-552,0,0,0,0,0,0,0,0,0,-1,1357,1576,0,0
140,-552,0,0,0,0,0,0,0,0,0,-1,1364,1576,0,0
147,-552,0,0,0,0,0,0,0,0,0,-1,1371,1576,0,0
154,-552,0,0,0,0,0,0,0,0,0,-1,1378,1576,0,0
161,-552,0,0,0,0,0,0,0,0,0,-1,1385,1576,0,0
168,-552,0,0,0,0,0,0,0,0,0,-1,1392,1576,0,0
175,-552,0,0,0,0,0,0,0,0,0,-1,1399,1576,0,0
182,-552,0,0,0,0,0,0,0,0,0,-1,1406,1576,0,0
189,-552,0,0,0,0,0,0,0,0,0,-1,1413,1576,0,0
196,-552,0,0,0,0,0,0,0,0,0,-1,1420,1576,0,0
203,-552,0,0,0,0,0,0,0,0,0,-1,1427,1576,0,0
210,-552,0,0,0,0,0,0,0,0,0,-1,1434,1576,0,0
217,-552,0,0,0,0,0,0,0,0,0,-1,1441,1576,0,0
224,-552,0,0,0,0,0,0,0,0,0,-1,1448,1576,0,0
231,-552,0,0,0,0,0,0,0,0,0,-1,1455,1576,0,0
238,-552,0,0,0,0,0,0,0,0,0,-1,1462,1576,0,0
245,-552,0,0,0,0,0,0,0,0,0,-1,1469,1576,0,0
252,-552,0,0,0,0,0,0,0,0,0,-1,1476,1576,0,0
259,-552,0,0,0,0,0,0,0,0,0,-1,1483,1576,0,0
266,-552,0,0,0,0,0,0,0,0,0,-1,1490,1576,0,0
273,-552,0,0,0,0,0,0,0,0,0,-1,1497,1576,0,0
280,-552,0,0,0,0,0,0,0,0,0,-1,1504,1576,0,0
287,-552,0,0,0,0,0,0,0,0,0,-1,1511,1576,0,0
294,-552,0,0,0,0,0,0,0,0,0,-1,1518,1576,0,0
301,-552,0,0,0,0,0,0,0,0,0,-1,1525,1576,0,0
308,-552,0,0,0,0,0,0,0,0,0,-1,1532,1576,0,0
315,-552,0,0,0,0,0,0,0,0,0,-1,1539,1576,0,0
322,-552,0,0,0,0,0,0,0,0,0,-1,1546,1576,0,0
329,-552,0,0,0,0,0,0,0,0,0,-1,1553,1576,0,0
336,-552,0,0,0,0,0,0,0,0,0,-1,1560,1576,0,0
343,-552,0,0,0,0,0,0,0,0,0,-1,1567,1576,0,0
350,-552,4.97876,4.09888,0,0,0,0,0,0,0,-1,1574,1576,4.97875,-4.09883
357,-552,5.18469,4.10706,0,0,0,0,0,0,0,-1,1581,1576,5.1847,-4.10702
364,-552,5.80872,5.07031,0,0,0,0,0,0,0,-1,1588,1576,5.80874,-5.07037
371,-552,7.10657,5.64783,0,0,0,0,0,0,0,-1,1595,1576,7.10651,-5.64786
378,-552,6.44446,4.91492,0,0,0,0,0,0,0,-1,1602,1576,6.44448,-4.91496
385,-552,12.8276,3.16504,0,0,0,0,0,0,0,-1,1609,1576,12.8276,-3.16503
392,-552,12.1301,4.3363,0,0,0,0,0,0,0,-1,1616,1576,12.1302,-4.33631
399,-552,11.3486,5.6012,0,0,0,0,0,0,0,-1,1623,1576,11.3486,-5.60115
406,-552,10.7863,6.42542,0,0,0,0,0,0,0,-1,1630,1576,10.7863,-6.42536
413,-552,8.39307,10.365,0,0,0,0,0,0,0,-1,1637,1576,8.3931,-10.365
420,-552,10.2306,12.7225,0,0,0,0,0,0,0,-1,1644,1576,10.2305,-12.7226
427,-552,9.73267,14.783,0,0,0,0,0,0,0,-1,1651,1576,9.73269,-14.783
434,-552,12.0377,20.1364,0,0,0,0,0,0,0,-1,1658,1576,12.0377,-20.1364
441,-552,12.4963,21.5277,0,0,0,0,0,0,0,-1,1665,1576,12.4964,-21.5277
448,-552,12.9141,21.5482,0,0,0,0,0,0,0,-1,1672,1576,12.9141,-21.5482
455,-552,13.3318,21.5687,0,0,0,0,0,0,0,-1,1679,1576,13.3317,-21.5687
462,-552,12.745,20.5947,0,0,0,0,0,0,0,-1,1686,1576,12.745,-20.5947
469,-552,17.7067,29.6902,0,0,0,0,0,0,0,-1,1693,1576,17.7067,-29.6902
476,-552,19.4127,31.7389,0,0,0,0,0,0,0,-1,1700,1576,19.4128,-31.7388
483,-552,19.6013,30.9348,0,0,0,0,0,0,0,-1,1707,1576,19.6013,-30.9348
490,-552,19.5848,30.3882,0.00766796,0.00877026,-0.00630489,0.014548,0.00189018,-0.828996,0.00913406,0.0156299,1714,1576,19.5849,-30.3882
497,-552,19.6757,29.8604,0.00608353,0.00673451,-0.00485814,0.0112781,0.00153999,-0.818847,0.00706157,0.0238661,1721,1576,19.6757,-29.8603
504,-552,19.6731,29.3011,0.00471389,0.00475022,-0.00363266,0.00836476,0.00109934,-0.787898,0.00524858,0.0242355,1728,1576,19.6731,-29.3011
511,-552,19.603,28.6844,0.0033472,0.00332088,-0.00248796,0.00582203,0.00084605,-0.782753,0.00363233,0.0161841,1735,1576,19.6031,-28.6844
518,-552,19.5649,28.1069,0.00196095,0.00183751,-0.00131377,0.00321445,0.000584009,-0.761925,0.00197726,0.0146461,1742,1576,19.565,-28.1069
525,-552,19.5052,27.5381,0.00073953,0.000642661,-0.000255712,0.000951354,0.000430836,-0.691802,0.000550078,0.0156852,1749,1576,19.5052,-27.5381
532,-552,19.4877,26.9463,-0.00032804,-0.000609546,0.000849882,0.000392666,-0.00133025,0.703336,0.00104267,0.0159294,1756,1576,19.4877,-26.9463
539,-552,19.444,26.4001,-0.00126251,-0.00185526,0.00195595,0.000419386,-0.00353716,0.710207,0.00250961,0.0186524,1763,1576,19.444,-26.4002
546,-552,19.4169,25.8409,-0.00210305,-0.00325084,0.00314722,0.00052217,-0.00587606,0.695214,0.00410252,0.0223956,1770,1576,19.4169,-25.8409
553,-552,19.4357,25.218,-0.00276135,-0.00465735,0.00437182,0.000764069,-0.00818277,0.67863,0.00572689,0.0260178,1777,1576,19.4357,-25.218
560,-552,19.3639,24.6802,-0.00312086,-0.00602749,0.00552252,0.00113637,-0.0102847,0.656735,0.00726496,0.0432682,1784,1576,19.3639,-24.6802
567,-552,19.3357,23.8357,0,0,0,0,0,0,0,-1,1791,1576,19.3357,-23.8357
574,-552,12.8835,14.8463,0,0,0,0,0,0,0,-1,1798,1576,12.8836,-14.8463
581,-552,9.74841,9.98645,0,0,0,0,0,0,0,-1,1805,1576,9.74847,-9.9864
588,-552,10.5619,9.34924,0,0,0,0,0,0,0,-1,1812,1576,10.5619,-9.34921
595,-552,5.36194,6.62744,0,0,0,0,0,0,0,-1,1819,1576,5.36193,-6.62742
602,-552,10.6863,4.31616,0,0,0,0,0,0,0,-1,1826,1576,10.6862,-4.31619
609,-552,12.146,3.18286,0,0,0,0,0,0,0,-1,1833,1576,12.1459,-3.18281
616,-552,13.8762,2.08167,0,0,0,0,0,0,0,-1,1840,1576,13.8763,-2.08167
623,-552,0,0,0,0,0,0,0,0,0,-1,1847,1576,0,0
630,-552,0,0,0,0,0,0,0,0,0,-1,1854,1576,0,0
637,-552,0,0,0,0,0,0,0,0,0,-1,1861,1576,0,0
644,-552,0,0,0,0,0,0,0,0,0,-1,1868,1576,0,0
651,-552,0,0,0,0,0,0,0,0,0,-1,1875,1576,0,0
658,-552,0,0,0,0,0,0,0,0,0,-1,1882,1576,0,0
665,-552,0,0,0,0,0,0,0,0,0,-1,1889,1576,0,0
672,-552,0,0,0,0,0,0,0,0,0,-1,1896,1576,0,0
679,-552,0,0,0,0,0,0,0,0,0,-1,1903,1576,0,0
686,-552,0,0,0,0,0,0,0,0,0,-1,1910,1576,0,0
693,-552,0,0,0,0,0,0,0,0,0,-1,1917,1576,0,0
700,-552,0,0,0,0,0,0,0,0,0,-1,1924,1576,0,0
707,-552,0,0,0,0,0,0,0,0,0,-1,1931,1576,0,0
714,-552,0,0,0,0,0,0,0,0,0,-1,1938,1576,0,0
721,-552,0,0,0,0,0,0,0,0,0,-1,1945,1576,0,0
728,-552,0,0,0,0,0,0,0,0,0,-1,1952,1576,0,0
735,-552,0,0,0,0,0,0,0,0,0,-1,1959,1576,0,0
742,-552,0,0,0,0,0,0,0,0,0,-1,1966,1576,0,0
749,-552,0,0,0,0,0,0,0,0,0,-1,1973,1576,0,0
756,-552,0,0,0,0,0,0,0,0,0,-1,1980,1576,0,0
763,-552,0,0,0,0,0,0,0,0,0,-1,1987,1576,0,0
770,-552,0,0,0,0,0,0,0,0,0,-1,1994,1576,0,0
777,-552,0,0,0,0,0,0,0,0,0,-1,2001,1576,0,0
784,-552,0,0,0,0,0,0,0,0,0,-1,2008,1576,0,0
791,-552,0,0,0,0,0,0,0,0,0,-1,2015,1576,0,0
798,-552,0,0,0,0,0,0,0,0,0,-1,2022,1576,0,0
805,-552,0,0,0,0,0,0,0,0,0,-1,2029,1576,0,0
812,-552,0,0,0,0,0,0,0,0,0,-1,2036,1576,0,0
-700,-559,0,0,0,0,0,0,0,0,0,-1,524,1583,0,0
-693,-559,0,0,0,0,0,0,0,0,0,-1,531,1583,0,0
-686,-559,0,0,0,0,0,0,0,0,0,-1,538,1583,0,0
-679,-559,0,0,0,0,0,0,0,0,0,-1,545,1583,0,0
-672,-559,0,0,0,0,0,0,0,0,0,-1,552,1583,0,0
-665,-559,0,0,0,0,0,0,0,0,0,-1,559,1583,0,0
-658,-559,0,0,0,0,0,0,0,0,0,-1,566,1583,0,0
-651,-559,0,0,0,0,0,0,0,0,0,-1,573,1583,0,0
-644,-559,0,0,0,0,0,0,0,0,0,-1,580,1583,0,0
-637,-559,0,0,0,0,0,0,0,0,0,-1,587,1583,0,0
-630,-559,0,0,0,0,0,0,0,0,0,-1,594,1583,0,0
-623,-559,0,0,0,0,0,0,0,0,0,-1,601,1583,0,0
-616,-559,0,0,0,0,0,0,0,0,0,-1,608,1583,0,0
-609,-559,0,0,0,0,0,0,0,0,0,-1,615,1583,0,0
-602,-559,0,0,0,0,0,0,0,0,0,-1,622,1583,0,0
-595,-559,0,0,0,0,0,0,0,0,0,-1,629,1583,0,0
-588,-559,0,0,0,0,0,0,0,0,0,-1,636,1583,0,0
-581,-559,0,0,0,0,0,0,0,0,0,-1,643,1583,0,0
-574,-559,0,0,0,0,0,0,0,0,0,-1,650,1583,0,0
-567,-559,0,0,0,0,0,0,0,0,0,-1,657,1583,0,0
-560,-559,0,0,0,0,0,0,0,0,0,-1,664,1583,0,0
-553,-559,0,0,0,0,0,0,0,0,0,-1,671,1583,0,0
-546,-559,0,0,0,0,0,0,0,0,0,-1,678,1583,0,0
-539,-559,0,0,0,0,0,0,0,0,0,-1,685,1583,0,0
-532,-559,0,0,0,0,0,0,0,0,0,-1,692,1583,0,0
-525,-559,0,0,0,0,0,0,0,0,0,-1,699,1583,0,0
-518,-559,0,0,0,0,0,0,0,0,0,-1,706,1583,0,0
-511,-559,0,0,0,0,0,0,0,0,0,-1,713,1583,0,0
-504,-559,0,0,0,0,0,0,0,0,0,-1,720,1583,0,0
-497,-559,0,0,0,0,0,0,0,0,0,-1,727,1583,0,0
-490,-559,-5.49835,4.47424,0,0,0,0,0,0,0,-1,734,1583,-5.49833,-4.4743
-483,-559,-5.24078,4.74561,0,0,0,0,0,0,0,-1,741,1583,-5.24079,-4.74563
-476,-559,-4.98022,4.99316,0,0,0,0,0,0,0,-1,748,1583,-4.98024,-4.99321
-469,-559,-4.6424,5.38062,0,0,0,0,0,0,0,-1,755,1583,-4.64237,-5.38058
-462,-559,-0.161865,6.49438,0,0,0,0,0,0,0,-1,762,1583,-0.161835,-6.49444
-455,-559,1.08826,7.02527,0,0,0,0,0,0,0,-1,769,1583,1.08823,-7.02529
-448,-559,-2.86023,20.0852,0,0,0,0,0,0,0,-1,776,1583,-2.86025,-20.0852
-441,-559,-1.22485,22.4264,0,0,0,0,0,0,0,-1,783,1583,-1.22487,-22.4263
-434,-559,-0.796509,23.0845,0,0,0,0,0,0,0,-1,790,1583,-0.796508,-23.0845
-427,-559,-1.44714,23.4775,0,0,0,0,0,0,0,-1,797,1583,-1.44714,-23.4776
-420,-559,-1.4256,24.2529,0,0,0,0,0,0,0,-1,804,1583,-1.42559,-24.253
-413,-559,-1.47388,24.9669,-0.00255728,-0.00197644,-0.000977554,-0.00124708,-0.00328664,-0.929789,0.00191584,0.0182214,811,1583,-1.47387,-24.967
-406,-559,-1.49512,25.605,-0.00208102,-0.000932811,-0.000432414,-0.000788182,-0.00222565,-1.24802,0.00130308,0.0105996,818,1583,-1.49509,-25.6049
-399,-559,-1.51917,26.2114,-0.00132637,-0.000119473,1.41512e-05,-0.000119307,-0.00132653,1.55907,0.000847391,0.0135692,825,1583,-1.51914,-26.2114
-392,-559,-1.54175,26.8032,-0.000576107,0.000563636,0.000478644,0.000737978,-0.000750449,1.22149,0.000859354,0.01697,832,1583,-1.54173,-26.8033
-385,-559,-1.57062,27.4119,0.000329942,0.00129964,0.000904022,0.00184063,-0.000211042,1.03154,0.00130314,0.0175037,839,1583,-1.57061,-27.4119
-378,-559,-1.59619,28.014,0.00115164,0.0019554,0.00123653,0.00285372,0.000253322,0.942517,0.00182391,0.0157066,846,1583,-1.5962,-28.014
-371,-559,-1.63861,28.6357,0.00202041,0.00258262,0.00163095,0.00395651,0.000646521,0.870739,0.00245076,0.0220321,853,1583,-1.63862,-28.6358
-364,-559,-1.63525,29.2228,0.00305458,0.00342947,0.00213257,0.00538281,0.00110123,0.829234,0.00328361,0.0199549,860,1583,-1.63528,-29.2227
-357,-559,-1.64423,29.7971,0.00413802,0.0043292,0.00264154,0.00687688,0.00159034,0.803485,0.00415714,0.0129401,867,1583,-1.64425,-29.7971
-350,-559,-1.65967,30.3651,0.00533824,0.00531007,0.00321961,0.0085438,0.00210451,0.783211,0.00514004,0.010764,874,1583,-1.65966,-30.3651
-343,-559,-1.67804,30.9562,0.00649743,0.00648279,0.0039418,0.0104319,0.0025483,0.78447,0.00627996,0.0113497,881,1583,-1.67806,-30.9562
-336,-559,-1.71075,31.5435,0,0,0,0,0,0,0,-1,888,1583,-1.71076,-31.5435
-329,-559,-1.60083,32.3914,0,0,0,0,0,0,0,-1,895,1583,-1.60083,-32.3914
-322,-559,-1.17151,33.4001,0,0,0,0,0,0,0,-1,902,1583,-1.17149,-33.4002
-315,-559,-0.659607,29.1698,0,0,0,0,0,0,0,-1,909,1583,-0.659577,-29.1698
-308,-559,-0.755493,30.4624,0,0,0,0,0,0,0,-1,916,1583,-0.755509,-30.4625
-301,-559,-1.22174,31.0372,0,0,0,0,0,0,0,-1,923,1583,-1.22176,-31.0372
-294,-559,0.945129,18.5165,0,0,0,0,0,0,0,-1,930,1583,0.945117,-18.5165
-287,-559,-0.11792,15.4912,0,0,0,0,0,0,0,-1,937,1583,-0.117939,-15.4912
-280,-559,0.191467,13.5093,0,0,0,0,0,0,0,-1,944,1583,0.191441,-13.5093
-273,-559,2.12836,10.3059,0,0,0,0,0,0,0,-1,951,1583,2.12839,-10.3059
-266,-559,-0.597046,6.68933,0,0,0,0,0,0,0,-1,958,1583,-0.597031,-6.68937
-259,-559,-7.00311,8.62756,0,0,0,0,0,0,0,-1,965,1583,-7.00312,-8.6275
-252,-559,-9.4483,2.87805,0,0,0,0,0,0,0,-1,972,1583,-9.44829,-2.87805
-245,-559,-4.80804,7.1803,0,0,0,0,0,0,0,-1,979,1583,-4.80804,-7.18027
-238,-559,-8.45764,2.54858,0,0,0,0,0,0,0,-1,986,1583,-8.45763,-2.54862
-231,-559,-5.86914,4.34021,0,0,0,0,0,0,0,-1,993,1583,-5.86914,-4.34019
-224,-559,-3.30505,6.22864,0,0,0,0,0,0,0,-1,1000,1583,-3.30505,-6.22859
-217,-559,0,0,0,0,0,0,0,0,0,-1,1007,1583,0,0
-210,-559,0,0,0,0,0,0,0,0,0,-1,1014,1583,0,0
-203,-559,0,0,0,0,0,0,0,0,0,-1,1021,1583,0,0
-196,-559,0,0,0,0,0,0,0,0,0,-1,1028,1583,0,0
-189,-559,0,0,0,0,0,0,0,0,0,-1,1035,1583,0,0
-182,-559,0,0,0,0,0,0,0,0,0,-1,1042,1583,0,0
-175,-559,0,0,0,0,0,0,0,0,0,-1,1049,1583,0,0
-168,-559,0,0,0,0,0,0,0,0,0,-1,1056,1583,0,0
-161,-559,0,0,0,0,0,0,0,0,0,-1,1063,1583,0,0
-154,-559,0,0,0,0,0,0,0,0,0,-1,1070,1583,0,0
-147,-559,0,0,0,0,0,0,0,0,0,-1,1077,1583,0,0
-140,-559,0,0,0,0,0,0,0,0,0,-1,1084,1583,0,0
-133,-559,0,0,0,0,0,0,0,0,0,-1,1091,1583,0,0
-126,-559,0,0,0,0,0,0,0,0,0,-1,1098,1583,0,0
-119,-559,0,0,0,0,0,0,0,0,0,-1,1105,1583,0,0
-112,-559,0,0,0,0,0,0,0,0,0,-1,1112,1583,0,0
-105,-559,0,0,0,0,0,0,0,0,0,-1,1119,1583,0,0
-98,-559,0,0,0,0,0,0,0,0,0,-1,1126,1583,0,0
-91,-559,0,0,0,0,0,0,0,0,0,-1,1133,1583,0,0
-84,-559,0,0,0,0,0,0,0,0,0,-1,1140,1583,0,0
-77,-559,0,0,0,0,0,0,0,0,0,-1,1147,1583,0,0
-70,-559,0,0,0,0,0,0,0,0,0,-1,1154,1583,0,0
-63,-559,0,0,0,0,0,0,0,0,0,-1,1161,1583,0,0
-56,-559,0,0,0,0,0,0,0,0,0,-1,1168,1583,0,0
-49,-559,0,0,0,0,0,0,0,0,0,-1,1175,1583,0,0
-42,-559,0,0,0,0,0,0,0,0,0,-1,1182,1583,0,0
-35,-559,0,0,0,0,0,0,0,0,0,-1,1189,1583,0,0
-28,-559,0,0,0,0,0,0,0,0,0,-1,1196,1583,0,0
-21,-559,0,0,0,0,0,0,0,0,0,-1,1203,1583,0,0
-14,-559,0,0,0,0,0,0,0,0,0,-1,1210,1583,0,0
-7,-559,0,0,0,0,0,0,0,0,0,-1,1217,1583,0,0
0,-559,0,0,0,0,0,0,0,0,0,-1,1224,1583,0,0
7,-559,0,0,0,0,0,0,0,0,0,-1,1231,1583,0,0
14,-559,0,0,0,0,0,0,0,0,0,-1,1238,1583,0,0
21,-559,0,0,0,0,0,0,0,0,0,-1,1245,1583,0,0
28,-559,0,0,0,0,0,0,0,0,0,-1,1252,1583,0,0
35,-559,0,0,0,0,0,0,0,0,0,-1,1259,1583,0,0
42,-559,0,0,0,0,0,0,0,0,0,-1,1266,1583,0,0
49,-559,0,0,0,0,0,0,0,0,0,-1,1273,1583,0,0
56,-559,0,0,0,0,0,0,0,0,0,-1,1280,1583,0,0
63,-559,0,0,0,0,0,0,0,0,0,-1,1287,1583,0,0
70,-559,0,0,0,0,0,0,0,0,0,-1,1294,1583,0,0
77,-559,0,0,0,0,0,0,0,0,0,-1,1301,1583,0,0
84,-559,0,0,0,0,0,0,0,0,0,-1,1308,1583,0,0
91,-559,0,0,0,0,0,0,0,0,0,-1,1315,1583,0,0
98,-559,0,0,0,0,0,0,0,0,0,-1,1322,1583,0,0
105,-559,0,0,0,0,0,0,0,0,0,-1,1329,1583,0,0
112,-559,0,0,0,0,0,0,0,0,0,-1,1336,1583,0,0
119,-559,0,0,0,0,0,0,0,0,0,-1,1343,1583,0,0
126,-559,0,0,0,0,0,0,0,0,0,-1,1350,1583,0,0
133,-559,0,0,0,0,0,0,0,0,0,-1,1357,1583,0,0
140,-559,0,0,0,0,0,0,0,0,0,-1,1364,1583,0,0
147,-559,0,0,0,0,0,0,0,0,0,-1,1371,1583,0,0
154,-559,0,0,0,0,0,0,0,0,0,-1,1378,1583,0,0
161,-559,0,0,0,0,0,0,0,0,0,-1,1385,1583,0,0
168,-559,0,0,0,0,0,0,0,0,0,-1,1392,1583,0,0
175,-559,0,0,0,0,0,0,0,0,0,-1,1399,1583,0,0
182,-559,0,0,0,0,0,0,0,0,0,-1,1406,1583,0,0
189,-559,0,0,0,0,0,0,0,0,0,-1,1413,1583,0,0
196,-559,0,0,0,0,0,0,0,0,0,-1,1420,1583,0,0
203,-559,0,0,0,0,0,0,0,0,0,-1,1427,1583,0,0
210,-559,0,0,0,0,0,0,0,0,0,-1,1434,1583,0,0
217,-559,0,0,0,0,0,0,0,0,0,-1,1441,1583,0,0
224,-559,0,0,0,0,0,0,0,0,0,-1,1448,1583,0,0
231,-559,0,0,0,0,0,0,0,0,0,-1,1455,1583,0,0
238,-559,0,0,0,0,0,0,0,0,0,-1,1462,1583,0,0
245,-559,0,0,0,0,0,0,0,0,0,-1,1469,1583,0,0
252,-559,0,0,0,0,0,0,0,0,0,-1,1476,1583,0,0
259,-559,0,0,0,0,0,0,0,0,0,-1,1483,1583,0,0
266,-559,0,0,0,0,0,0,0,0,0,-1,1490,1583,0,0
273,-559,0,0,0,0,0,0,0,0,0,-1,1497,1583,0,0
280,-559,0,0,0,0,0,0,0,0,0,-1,1504,1583,0,0
287,-559,0,0,0,0,0,0,0,0,0,-1,1511,1583,0,0
294,-559,0,0,0,0,0,0,0,0,0,-1,1518,1583,0,0
301,-559,0,0,0,0,0,0,0,0,0,-1,1525,1583,0,0
308,-559,0,0,0,0,0,0,0,0,0,-1,1532,1583,0,0
315,-559,0,0,0,0,0,0,0,0,0,-1,1539,1583,0,0
322,-559,0,0,0,0,0,0,0,0,0,-1,1546,1583,0,0
329,-559,0,0,0,0,0,0,0,0,0,-1,1553,1583,0,0
336,-559,5.97668,3.09827,0,0,0,0,0,0,0,-1,1560,1583,5.97667,-3.09824
343,-559,5.44824,2.88696,0,0,0,0,0,0,0,-1,1567,1583,5.44819,-2.88693
350,-559,4.69775,3.27051,0,0,0,0,0,0,0,-1,1574,1583,4.69771,-3.27048
357,-559,3.88025,3.60999,0,0,0,0,0,0,0,-1,1581,1583,3.88027,-3.60998
364,-559,5.00928,5.32605,0,0,0,0,0,0,0,-1,1588,1583,5.00928,-5.32607
371,-559,1.84436,2.52441,0,0,0,0,0,0,0,-1,1595,1583,1.84441,-2.52447
378,-559,6.34753,1.53137,0,0,0,0,0,0,0,-1,1602,1583,6.34752,-1.53139
385,-559,6.95911,1.48181,0,0,0,0,0,0,0,-1,1609,1583,6.95916,-1.48175
392,-559,11.6949,4.77734,0,0,0,0,0,0,0,-1,1616,1583,11.6949,-4.77731
399,-559,11.1104,5.56909,0,0,0,0,0,0,0,-1,1623,1583,11.1103,-5.56905
406,-559,10.3385,6.48657,0,0,0,0,0,0,0,-1,1630,1583,10.3385,-6.48661
413,-559,9.76147,6.97571,0,0,0,0,0,0,0,-1,1637,1583,9.76143,-6.97574
420,-559,7.77124,10.5851,0,0,0,0,0,0,0,-1,1644,1583,7.77128,-10.585
427,-559,10.1022,12.5565,0,0,0,0,0,0,0,-1,1651,1583,10.1021,-12.5565
434,-559,9.62769,14.6309,0,0,0,0,0,0,0,-1,1658,1583,9.62771,-14.6309
441,-559,12.6149,21.3678,0,0,0,0,0,0,0,-1,1665,1583,12.6149,-21.3678
448,-559,13.7046,22.6677,0,0,0,0,0,0,0,-1,1672,1583,13.7046,-22.6677
455,-559,13.9427,23.0509,0,0,0,0,0,0,0,-1,1679,1583,13.9427,-23.0509
462,-559,18.699,33.3009,0,0,0,0,0,0,0,-1,1686,1583,18.699,-33.3009
469,-559,18.7129,32.439,0,0,0,0,0,0,0,-1,1693,1583,18.7129,-32.439
476,-559,18.9841,31.6001,0.00566649,0.0145504,-0.00752383,0.0188457,0.00137124,-1.05206,0.0121326,0.0230928,1700,1583,18.9841,-31.6001
483,-559,19.0402,30.9342,0.00621031,0.00998698,-0.00623046,0.014609,0.00158831,-0.932539,0.00925542,0.0133757,1707,1583,19.0402,-30.9343
490,-559,19.0458,30.3698,0.0058494,0.00694952,-0.00482045,0.0112512,0.00154772,-0.842207,0.00704181,0.0154738,1714,1583,19.0458,-30.3697
497,-559,19.0865,29.8569,0.00453111,0.00521406,-0.0036361,0.00852469,0.00122049,-0.832217,0.00532314,0.0187175,1721,1583,19.0865,-29.857
504,-559,19.0269,29.3118,0.00331086,0.00343581,-0.00252446,0.00589856,0.000848104,-0.79777,0.00368237,0.0235538,1728,1583,19.0269,-29.3117
511,-559,18.9753,28.7111,0.00204479,0.00204821,-0.00142115,0.00346765,0.000625347,-0.786001,0.00213408,0.0200121,1735,1583,18.9753,-28.711
518,-559,18.9872,28.1359,0.000766389,0.000657305,-0.000306301,0.00102297,0.000400728,-0.697288,0.000595208,0.013802,1742,1583,18.9872,-28.1359
525,-559,18.9496,27.5665,-0.000393732,-0.000528152,0.000764081,0.000306089,-0.00122797,0.74153,0.000937485,0.0132513,1749,1583,18.9496,-27.5665
532,-559,18.924,26.9989,-0.00145008,-0.00181959,0.00193629,0.000310243,-0.00357992,0.737834,0.00249646,0.0146353,1756,1583,18.9239,-26.9989
539,-559,18.8809,26.4392,-0.00244734,-0.00318881,0.00318686,0.000390278,-0.00602643,0.727492,0.00415383,0.0184455,1763,1583,18.8809,-26.4392
546,-559,18.8322,25.8729,-0.00340653,-0.00477323,0.00462096,0.000581332,-0.00876109,0.71199,0.00604383,0.0164614,1770,1583,18.8322,-25.873
553,-559,18.8911,25.2452,-0.00423248,-0.00645067,0.00616681,0.000924172,-0.0116073,0.696425,0.00806394,0.0204292,1777,1583,18.8911,-25.2452
560,-559,18.8285,24.7734,-0.00482905,-0.0081897,0.00770002,0.00137186,-0.0143906,0.677971,0.0100822,0.0389629,1784,1583,18.8285,-24.7735
567,-559,18.6978,24.1525,0,0,0,0,0,0,0,-1,1791,1583,18.6978,-24.1524
574,-559,10.5109,10.7317,0,0,0,0,0,0,0,-1,1798,1583,10.5108,-10.7317
581,-559,5.97095,5.96179,0,0,0,0,0,0,0,-1,1805,1583,5.97093,-5.96181
588,-559,5.79102,5.89954,0,0,0,0,0,0,0,-1,1812,1583,5.79098,-5.89949
595,-559,5.79089,6.24231,0,0,0,0,0,0,0,-1,1819,1583,5.7909,-6.24227
602,-559,12.478,2.35669,0,0,0,0,0,0,0,-1,1826,1583,12.4781,-2.35675
609,-559,14.0479,1.22681,0,0,0,0,0,0,0,-1,1833,1583,14.0479,-1.22681
616,-559,0,0,0,0,0,0,0,0,0,-1,1840,1583,0,0
623,-559,0,0,0,0,0,0,0,0,0,-1,1847,1583,0,0
630,-559,0,0,0,0,0,0,0,0,0,-1,1854,1583,0,0
637,-559,0,0,0,0,0,0,0,0,0,-1,1861,1583,0,0
644,-559,0,0,0,0,0,0,0,0,0,-1,1868,1583,0,0
651,-559,0,0,0,0,0,0,0,0,0,-1,1875,1583,0,0
658,-559,0,0,0,0,0,0,0,0,0,-1,1882,1583,0,0
665,-559,0,0,0,0,0,0,0,0,0,-1,1889,1583,0,0
672,-559,0,0,0,0,0,0,0,0,0,-1,1896,1583,0,0
679,-559,0,0,0,0,0,0,0,0,0,-1,1903,1583,0,0
686,-559,0,0,0,0,0,0,0,0,0,-1,1910,1583,0,0
693,-559,0,0,0,0,0,0,0,0,0,-1,1917,1583,0,0
700,-559,0,0,0,0,0,0,0,0,0,-1,1924,1583,0,0
707,-559,0,0,0,0,0,0,0,0,0,-1,1931,1583,0,0
714,-559,0,0,0,0,0,0,0,0,0,-1,1938,1583,0,0
721,-559,0,0,0,0,0,0,0,0,0,-1,1945,1583,0,0
728,-559,0,0,0,0,0,0,0,0,0,-1,1952,1583,0,0
735,-559,0,0,0,0,0,0,0,0,0,-1,1959,1583,0,0
742,-559,0,0,0,0,0,0,0,0,0,-1,1966,1583,0,0
749,-559,0,0,0,0,0,0,0,0,0,-1,1973,1583,0,0
756,-559,0,0,0,0,0,0,0,0,0,-1,1980,1583,0,0
763,-559,0,0,0,0,0,0,0,0,0,-1,1987,1583,0,0
770,-559,0,0,0,0,0,0,0,0,0,-1,1994,1583,0,0
777,-559,0,0,0,0,0,0,0,0,0,-1,2001,1583,0,0
784,-559,0,0,0,0,0,0,0,0,0,-1,2008,1583,0,0
791,-559,0,0,0,0,0,0,0,0,0,-1,2015,1583,0,0
798,-559,0,0,0,0,0,0,0,0,0,-1,2022,1583,0,0
805,-559,0,0,0,0,0,0,0,0,0,-1,2029,1583,0,0
812,-559,0,0,0,0,0,0,0,0,0,-1,2036,1583,0,0
-700,-566,0,0,0,0,0,0,0,0,0,-1,524,1590,0,0
-693,-566,0,0,0,0,0,0,0,0,0,-1,531,1590,0,0
-686,-566,0,0,0,0,0,0,0,0,0,-1,538,1590,0,0
-679,-566,0,0,0,0,0,0,0,0,0,-1,545,1590,0,0
-672,-566,0,0,0,0,0,0,0,0,0,-1,552,1590,0,0
-665,-566,0,0,0,0,0,0,0,0,0,-1,559,1590,0,0
-658,-566,0,0,0,0,0,0,0,0,0,-1,566,1590,0,0
-651,-566,0,0,0,0,0,0,0,0,0,-1,573,1590,0,0
-644,-566,0,0,0,0,0,0,0,0,0,-1,580,1590,0,0
-637,-566,0,0,0,0,0,0,0,0,0,-1,587,1590,0,0
-630,-566,0,0,0,0,0,0,0,0,0,-1,594,1590,0,0
-623,-566,0,0,0,0,0,0,0,0,0,-1,601,1590,0,0
-616,-566,0,0,0,0,0,0,0,0,0,-1,608,1590,0,0
-609,-566,0,0,0,0,0,0,0,0,0,-1,615,1590,0,0
-602,-566,0,0,0,0,0,0,0,0,0,-1,622,1590,0,0
-595,-566,0,0,0,0,0,0,0,0,0,-1,629,1590,0,0
-588,-566,0,0,0,0,0,0,0,0,0,-1,636,1590,0,0
-581,-566,0,0,0,0,0,0,0,0,0,-1,643,1590,0,0
-574,-566,0,0,0,0,0,0,0,0,0,-1,650,1590,0,0
-567,-566,0,0,0,0,0,0,0,0,0,-1,657,1590,0,0
-560,-566,0,0,0,0,0,0,0,0,0,-1,664,1590,0,0
-553,-566,0,0,0,0,0,0,0,0,0,-1,671,1590,0,0
-546,-566,0,0,0,0,0,0,0,0,0,-1,678,1590,0,0
-539,-566,0,0,0,0,0,0,0,0,0,-1,685,1590,0,0
-532,-566,0,0,0,0,0,0,0,0,0,-1,692,1590,0,0
-525,-566,0,0,0,0,0,0,0,0,0,-1,699,1590,0,0
-518,-566,0,0,0,0,0,0,0,0,0,-1,706,1590,0,0
-511,-566,0,0,0,0,0,0,0,0,0,-1,713,1590,0,0
-504,-566,0,0,0,0,0,0,0,0,0,-1,720,1590,0,0
-497,-566,0,0,0,0,0,0,0,0,0,-1,727,1590,0,0
-490,-566,0,0,0,0,0,0,0,0,0,-1,734,1590,0,0
-483,-566,-7.17084,2.78613,0,0,0,0,0,0,0,-1,741,1590,-7.17083,-2.78618
-476,-566,-7.13971,2.87183,0,0,0,0,0,0,0,-1,748,1590,-7.13971,-2.87184
-469,-566,-6.43829,3.2998,0,0,0,0,0,0,0,-1,755,1590,-6.43829,-3.2998
-462,-566,-0.459106,3.89343,0,0,0,0,0,0,0,-1,762,1590,-0.459095,-3.89341
-455,-566,0.280212,4.74023,0,0,0,0,0,0,0,-1,769,1590,0.280207,-4.74023
-448,-566,0.436951,5.51306,0,0,0,0,0,0,0,-1,776,1590,0.436971,-5.51301
-441,-566,-0.440735,12.4063,0,0,0,0,0,0,0,-1,783,1590,-0.440753,-12.4062
-434,-566,-0.20105,23.3428,0,0,0,0,0,0,0,-1,790,1590,-0.201054,-23.3428
-427,-566,-0.689514,24.2449,0,0,0,0,0,0,0,-1,797,1590,-0.689539,-24.2449
-420,-566,-1.02057,24.2601,0,0,0,0,0,0,0,-1,804,1590,-1.02057,-24.2602
-413,-566,-0.889038,24.9883,-0.0034354,-0.00233949,-0.00116182,-0.00160289,-0.00417199,-1.00575,0.00243014,0.0315263,811,1590,-0.889041,-24.9882
-406,-566,-0.893372,25.6211,-0.00304645,-0.00160906,-0.00079689,-0.00125465,-0.00340086,-1.15232,0.00198585,0.013322,818,1590,-0.893368,-25.6211
-399,-566,-0.930542,26.2299,-0.00236694,-0.00105943,-0.000506054,-0.000886453,-0.00253992,-1.24143,0.00148854,0.0109992,825,1590,-0.930528,-26.2299
-392,-566,-0.953491,26.8198,-0.00166694,-0.000562415,-0.000138505,-0.000545312,-0.00168404,-1.44793,0.0009922,0.014092,832,1590,-0.95352,-26.8198
-385,-566,-0.947388,27.4525,-0.000796524,3.60603e-05,0.00022182,9.14706e-05,-0.000851934,1.32601,0.000600772,0.0165234,839,1590,-0.947398,-27.4525
-378,-566,-0.968262,28.0643,-2.46924e-05,0.000605403,0.000488038,0.000871248,-0.000290537,1.07201,0.000698129,0.0161347,846,1590,-0.968277,-28.0643
-371,-566,-1.06293,28.6393,0.000777479,0.00113942,0.000810281,0.00178869,0.000128206,0.895267,0.00115211,0.0218133,853,1590,-1.06292,-28.6393
-364,-566,-1.06598,29.2385,0.00174359,0.00190868,0.00126118,0.00309001,0.000562259,0.818076,0.00190051,0.0227547,860,1590,-1.06595,-29.2385
-357,-566,-1.08502,29.7928,0.00274549,0.0027564,0.00172116,0.00447211,0.00102978,0.786983,0.00270431,0.0198881,867,1590,-1.08501,-29.7928
-350,-566,-1.08453,30.3845,0.00385091,0.00365754,0.00223649,0.00599281,0.00151565,0.763797,0.00359802,0.0227453,874,1590,-1.08455,-30.3845
-343,-566,-1.08081,30.9877,0.00491272,0.00477327,0.00290692,0.00775075,0.00193524,0.773408,0.00465807,0.0264865,881,1590,-1.08084,-30.9877
-336,-566,-1.19513,31.5227,0.00578809,0.0064706,0.00371539,0.00986037,0.00239832,0.831194,0.00593785,0.0302946,888,1590,-1.19515,-31.5227
-329,-566,-1.10718,32.0527,0.0067774,0.00791311,0.00452507,0.0119058,0.00278469,0.847817,0.00719101,0.0274954,895,1590,-1.1072,-32.0527
-322,-566,-1.04303,32.7994,0.00811174,0.0101915,0.00590273,0.0151452,0.00315798,0.872586,0.00922611,0.0352811,902,1590,-1.04303,-32.7994
-315,-566,-0.970581,33.7125,0,0,0,0,0,0,0,-1,909,1590,-0.970557,-33.7125
-308,-566,-0.127258,29.7607,0,0,0,0,0,0,0,-1,916,1590,-0.12725,-29.7608
-301,-566,0.424011,30.6545,0,0,0,0,0,0,0,-1,923,1590,0.424036,-30.6546
-294,-566,0.741455,25.3229,0,0,0,0,0,0,0,-1,930,1590,0.741475,-25.3229
-287,-566,1.25391,23.4589,0,0,0,0,0,0,0,-1,937,1590,1.2539,-23.4589
-280,-566,1.59406,17.8762,0,0,0,0,0,0,0,-1,944,1590,1.59405,-17.8762
-273,-566,0.49762,11.2427,0,0,0,0,0,0,0,-1,951,1590,0.497591,-11.2426
-266,-566,0.392151,6.90295,0,0,0,0,0,0,0,-1,958,1590,0.392151,-6.90294
-259,-566,0.343628,6.47437,0,0,0,0,0,0,0,-1,965,1590,0.34363,-6.47438
-252,-566,-7.68311,1.01343,0,0,0,0,0,0,0,-1,972,1590,-7.68308,-1.01348
-245,-566,-11.1835,1.97522,0,0,0,0,0,0,0,-1,979,1590,-11.1835,-1.97527
-238,-566,-10.4883,2.40491,0,0,0,0,0,0,0,-1,986,1590,-10.4883,-2.40487
-231,-566,-7.41827,4.22803,0,0,0,0,0,0,0,-1,993,1590,-7.41827,-4.22803
-224,-566,-4.67188,6.30859,0,0,0,0,0,0,0,-1,1000,1590,-4.67185,-6.30853
-217,-566,-2.82867,7.52527,0,0,0,0,0,0,0,-1,1007,1590,-2.82869,-7.52531
-210,-566,-1.03436,8.67737,0,0,0,0,0,0,0,-1,1014,1590,-1.03439,-8.67733
-203,-566,0,0,0,0,0,0,0,0,0,-1,1021,1590,0,0
-196,-566,0,0,0,0,0,0,0,0,0,-1,1028,1590,0,0
-189,-566,0,0,0,0,0,0,0,0,0,-1,1035,1590,0,0
-182,-566,0,0,0,0,0,0,0,0,0,-1,1042,1590,0,0
-175,-566,0,0,0,0,0,0,0,0,0,-1,1049,1590,0,0
-168,-566,0,0,0,0,0,0,0,0,0,-1,1056,1590,0,0
-161,-566,0,0,0,0,0,0,0,0,0,-1,1063,1590,0,0
-154,-566,0,0,0,0,0,0,0,0,0,-1,1070,1590,0,0
-147,-566,0,0,0,0,0,0,0,0,0,-1,1077,1590,0,0
-140,-566,0,0,0,0,0,0,0,0,0,-1,1084,1590,0,0
-133,-566,0,0,0,0,0,0,0,0,0,-1,1091,1590,0,0
-126,-566,0,0,0,0,0,0,0,0,0,-1,1098,1590,0,0
-119,-566,0,0,0,0,0,0,0,0,0,-1,1105,1590,0,0
-112,-566,0,0,0,0,0,0,0,0,0,-1,1112,1590,0,0
-105,-566,0,0,0,0,0,0,0,0,0,-1,1119,1590,0,0
-98,-566,0,0,0,0,0,0,0,0,0,-1,1126,1590,0,0
-91,-566,0,0,0,0,0,0,0,0,0,-1,1133,1590,0,0
-84,-566,0,0,0,0,0,0,0,0,0,-1,1140,1590,0,0
-77,-566,0,0,0,0,0,0,0,0,0,-1,1147,1590,0,0
-70,-566,0,0,0,0,0,0,0,0,0,-1,1154,1590,0,0
-63,-566,0,0,0,0,0,0,0,0,0,-1,1161,1590,0,0
-56,-566,0,0,0,0,0,0,0,0,0,-1,1168,1590,0,0
-49,-566,0,0,0,0,0,0,0,0,0,-1,1175,1590,0,0
-42,-566,0,0,0,0,0,0,0,0,0,-1,1182,1590,0,0
-35,-566,0,0,0,0,0,0,0,0,0,-1,1189,1590,0,0
-28,-566,0,0,0,0,0,0,0,0,0,-1,1196,1590,0,0
-21,-566,0,0,0,0,0,0,0,0,0,-1,1203,1590,0,0
-14,-566,0,0,0,0,0,0,0,0,0,-1,1210,1590,0,0
-7,-566,0,0,0,0,0,0,0,0,0,-1,1217,1590,0,0
0,-566,0,0,0,0,0,0,0,0,0,-1,1224,1590,0,0
7,-566,0,0,0,0,0,0,0,0,0,-1,1231,1590,0,0
14,-566,0,0,0,0,0,0,0,0,0,-1,1238,1590,0,0
21,-566,0,0,0,0,0,0,0,0,0,-1,1245,1590,0,0
28,-566,0,0,0,0,0,0,0,0,0,-1,1252,1590,0,0
35,-566,0,0,0,0,0,0,0,0,0,-1,1259,1590,0,0
42,-566,0,0,0,0,0,0,0,0,0,-1,1266,1590,0,0
49,-566,0,0,0,0,0,0,0,0,0,-1,1273,1590,0,0
56,-566,0,0,0,0,0,0,0,0,0,-1,1280,1590,0,0
63,-566,0,0,0,0,0,0,0,0,0,-1,1287,1590,0,0
70,-566,0,0,0,0,0,0,0,0,0,-1,1294,1590,0,0
77,-566,0,0,0,0,0,0,0,0,0,-1,1301,1590,0,0
84,-566,0,0,0,0,0,0,0,0,0,-1,1308,1590,0,0
91,-566,0,0,0,0,0,0,0,0,0,-1,1315,1590,0,0
98,-566,0,0,0,0,0,0,0,0,0,-1,1322,1590,0,0
105,-566,0,0,0,0,0,0,0,0,0,-1,1329,1590,0,0
112,-566,0,0,0,0,0,0,0,0,0,-1,1336,1590,0,0
119,-566,0,0,0,0,0,0,0,0,0,-1,1343,1590,0,0
126,-566,0,0,0,0,0,0,0,0,0,-1,1350,1590,0,0
133,-566,0,0,0,0,0,0,0,0,0,-1,1357,1590,0,0
140,-566,0,0,0,0,0,0,0,0,0,-1,1364,1590,0,0
147,-566,0,0,0,0,0,0,0,0,0,-1,1371,1590,0,0
154,-566,0,0,0,0,0,0,0,0,0,-1,1378,1590,0,0
161,-566,0,0,0,0,0,0,0,0,0,-1,1385,1590,0,0
168,-566,0,0,0,0,0,0,0,0,0,-1,1392,1590,0,0
175,-566,0,0,0,0,0,0,0,0,0,-1,1399,1590,0,0
182,-566,0,0,0,0,0,0,0,0,0,-1,1406,1590,0,0
189,-566,0,0,0,0,0,0,0,0,0,-1,1413,1590,0,0
196,-566,0,0,0,0,0,0,0,0,0,-1,1420,1590,0,0
203,-566,0,0,0,0,0,0,0,0,0,-1,1427,1590,0,0
210,-566,0,0,0,0,0,0,0,0,0,-1,1434,1590,0,0
217,-566,0,0,0,0,0,0,0,0,0,-1,1441,1590,0,0
224,-566,0,0,0,0,0,0,0,0,0,-1,1448,1590,0,0
231,-566,0,0,0,0,0,0,0,0,0,-1,1455,1590,0,0
238,-566,0,0,0,0,0,0,0,0,0,-1,1462,1590,0,0
245,-566,0,0,0,0,0,0,0,0,0,-1,1469,1590,0,0
252,-566,0,0,0,0,0,0,0,0,0,-1,1476,1590,0,0
259,-566,0,0,0,0,0,0,0,0,0,-1,1483,1590,0,0
266,-566,0,0,0,0,0,0,0,0,0,-1,1490,1590,0,0
273,-566,0,0,0,0,0,0,0,0,0,-1,1497,1590,0,0
280,-566,0,0,0,0,0,0,0,0,0,-1,1504,1590,0,0
287,-566,0,0,0,0,0,0,0,0,0,-1,1511,1590,0,0
294,-566,0,0,0,0,0,0,0,0,0,-1,1518,1590,0,0
301,-566,0,0,0,0,0,0,0,0,0,-1,1525,1590,0,0
308,-566,0,0,0,0,0,0,0,0,0,-1,1532,1590,0,0
315,-566,0,0,0,0,0,0,0,0,0,-1,1539,1590,0,0
322,-566,6.07983,4.44873,0,0,0,0,0,0,0,-1,1546,1590,6.07983,-4.44873
329,-566,5.77026,3.47534,0,0,0,0,0,0,0,-1,1553,1590,5.77026,-3.47535
336,-566,5.41138,2.62915,0,0,0,0,0,0,0,-1,1560,1590,5.41138,-2.62909
343,-566,4.81873,1.79089,0,0,0,0,0,0,0,-1,1567,1590,4.81878,-1.79095
350,-566,4.41663,2.44214,0,0,0,0,0,0,0,-1,1574,1590,4.41666,-2.44214
357,-566,6.34058,5.18579,0,0,0,0,0,0,0,-1,1581,1590,6.34059,-5.1858
364,-566,6.06262,4.20251,0,0,0,0,0,0,0,-1,1588,1590,6.06259,-4.20246
371,-566,5.78455,3.21912,0,0,0,0,0,0,0,-1,1595,1590,5.7846,-3.21912
378,-566,5.7439,0.695557,0,0,0,0,0,0,0,-1,1602,1590,5.74392,-0.695531
385,-566,5.67615,-0.573975,0,0,0,0,0,0,0,-1,1609,1590,5.67612,0.573956
392,-566,5.78638,1.82434,0,0,0,0,0,0,0,-1,1616,1590,5.78637,-1.82439
399,-566,18.8037,37.7473,0,0,0,0,0,0,0,-1,1623,1590,18.8037,-37.7474
406,-566,4.30359,5.26868,0,0,0,0,0,0,0,-1,1630,1590,4.30364,-5.26867
413,-566,4.27124,5.79492,0,0,0,0,0,0,0,-1,1637,1590,4.27123,-5.7949
420,-566,18.0121,32.5314,0,0,0,0,0,0,0,-1,1644,1590,18.0121,-32.5313
427,-566,19.4491,36.9315,0,0,0,0,0,0,0,-1,1651,1590,19.4491,-36.9315
434,-566,19.0242,35.8811,0,0,0,0,0,0,0,-1,1658,1590,19.0241,-35.8811
441,-566,15.5841,27.5869,0,0,0,0,0,0,0,-1,1665,1590,15.5842,-27.587
448,-566,18.4619,34.7202,0,0,0,0,0,0,0,-1,1672,1590,18.4619,-34.7202
455,-566,18.0531,33.772,0,0,0,0,0,0,0,-1,1679,1590,18.0531,-33.772
462,-566,18.275,32.9733,0.00308606,0.0200185,-0.00838341,0.0234669,-0.000362351,-1.18055,0.0157668,0.0420911,1686,1590,18.275,-32.9733
469,-566,18.4406,32.1219,0.00386898,0.0154603,-0.00701458,0.0187638,0.000565523,-1.13066,0.012325,0.0184142,1693,1590,18.4405,-32.122
476,-566,18.5031,31.5139,0.00418559,0.0117038,-0.00581155,0.014866,0.00102335,-1.07247,0.00958778,0.0102711,1700,1590,18.5031,-31.5139
483,-566,18.4803,30.9539,0.00459197,0.00784735,-0.00476494,0.0112549,0.00118438,-0.949983,0.00714131,0.0105288,1707,1590,18.4803,-30.9539
490,-566,18.4641,30.3879,0.00428531,0.00528371,-0.00359813,0.00841711,0.00115192,-0.854327,0.00526957,0.0118802,1714,1590,18.4641,-30.3879
497,-566,18.4827,29.8617,0.00316075,0.0038157,-0.00261801,0.00612663,0.000849819,-0.847618,0.00383269,0.0152129,1721,1590,18.4827,-29.8617
504,-566,18.4403,29.3198,0.00203778,0.00223552,-0.00158115,0.00372088,0.000552416,-0.816624,0.00231849,0.0190663,1728,1590,18.4403,-29.3198
511,-566,18.3901,28.7543,0.000837094,0.000883796,-0.000488585,0.00134959,0.000371302,-0.809277,0.000805025,0.0189944,1735,1590,18.3901,-28.7542
518,-566,18.396,28.1927,-0.000355037,-0.000410336,0.000591127,0.000209087,-0.00097446,0.762028,0.000729394,0.0124736,1742,1590,18.396,-28.1927
525,-566,18.3737,27.6039,-0.0014825,-0.00160915,0.00170912,0.000164463,-0.00325612,0.766881,0.00222759,0.0120821,1749,1590,18.3737,-27.6039
532,-566,18.3702,27.0096,-0.00257082,-0.00296866,0.00300067,0.000237509,-0.005777,0.752301,0.00393289,0.0140553,1756,1590,18.3702,-27.0097
539,-566,18.3257,26.426,-0.0036906,-0.00452483,0.00447079,0.000382491,-0.00859793,0.738884,0.00586361,0.0177312,1763,1590,18.3256,-26.426
546,-566,18.3367,25.797,-0.00484146,-0.00636605,0.00624383,0.000686441,-0.0118939,0.724655,0.00816773,0.0208684,1770,1590,18.3367,-25.797
553,-566,18.3313,25.3994,-0.00591802,-0.00836439,0.00821004,0.00115946,-0.0154419,0.711449,0.010702,0.0330469,1777,1590,18.3313,-25.3994
560,-566,18.0977,25.0621,-0.00692919,-0.0106122,0.0103102,0.00170263,-0.019244,0.697024,0.0134329,0.0387613,1784,1590,18.0977,-25.0622
567,-566,17.9296,24.5671,0,0,0,0,0,0,0,-1,1791,1590,17.9296,-24.5672
574,-566,7.99548,3.14514,0,0,0,0,0,0,0,-1,1798,1590,7.99543,-3.14511
581,-566,2.54102,5.1311,0,0,0,0,0,0,0,-1,1805,1590,2.54099,-5.13111
588,-566,-1.91321,8.39197,0,0,0,0,0,0,0,-1,1812,1590,-1.91316,-8.39199
595,-566,9.0271,4.66467,0,0,0,0,0,0,0,-1,1819,1590,9.02705,-4.66468
602,-566,9.953,3.54895,0,0,0,0,0,0,0,-1,1826,1590,9.953,-3.54898
609,-566,0,0,0,0,0,0,0,0,0,-1,1833,1590,0,0
616,-566,0,0,0,0,0,0,0,0,0,-1,1840,1590,0,0
623,-566,0,0,0,0,0,0,0,0,0,-1,1847,1590,0,0
630,-566,0,0,0,0,0,0,0,0,0,-1,1854,1590,0,0
637,-566,0,0,0,0,0,0,0,0,0,-1,1861,1590,0,0
644,-566,0,0,0,0,0,0,0,0,0,-1,1868,1590,0,0
651,-566,0,0,0,0,0,0,0,0,0,-1,1875,1590,0,0
658,-566,0,0,0,0,0,0,0,0,0,-1,1882,1590,0,0
665,-566,0,0,0,0,0,0,0,0,0,-1,1889,1590,0,0
672,-566,0,0,0,0,0,0,0,0,0,-1,1896,1590,0,0
679,-566,0,0,0,0,0,0,0,0,0,-1,1903,1590,0,0
686,-566,0,0,0,0,0,0,0,0,0,-1,1910,1590,0,0
693,-566,0,0,0,0,0,0,0,0,0,-1,1917,1590,0,0
700,-566,0,0,0,0,0,0,0,0,0,-1,1924,1590,0,0
707,-566,0,0,0,0,0,0,0,0,0,-1,1931,1590,0,0
714,-566,0,0,0,0,0,0,0,0,0,-1,1938,1590,0,0
721,-566,0,0,0,0,0,0,0,0,0,-1,1945,1590,0,0
728,-566,0,0,0,0,0,0,0,0,0,-1,1952,1590,0,0
735,-566,0,0,0,0,0,0,0,0,0,-1,1959,1590,0,0
742,-566,0,0,0,0,0,0,0,0,0,-1,1966,1590,0,0
749,-566,0,0,0,0,0,0,0,0,0,-1,1973,1590,0,0
756,-566,0,0,0,0,0,0,0,0,0,-1,1980,1590,0,0
763,-566,0,0,0,0,0,0,0,0,0,-1,1987,1590,0,0
770,-566,0,0,0,0,0,0,0,0,0,-1,1994,1590,0,0
777,-566,0,0,0,0,0,0,0,0,0,-1,2001,1590,0,0
784,-566,0,0,0,0,0,0,0,0,0,-1,2008,1590,0,0
791,-566,0,0,0,0,0,0,0,0,0,-1,2015,1590,0,0
798,-566,0,0,0,0,0,0,0,0,0,-1,2022,1590,0,0
805,-566,0,0,0,0,0,0,0,0,0,-1,2029,1590,0,0
812,-566,0,0,0,0,0,0,0,0,0,-1,2036,1590,0,0
-700,-573,0,0,0,0,0,0,0,0,0,-1,524,1597,0,0
-693,-573,0,0,0,0,0,0,0,0,0,-1,531,1597,0,0
-686,-573,0,0,0,0,0,0,0,0,0,-1,538,1597,0,0
-679,-573,0,0,0,0,0,0,0,0,0,-1,545,1597,0,0
-672,-573,0,0,0,0,0,0,0,0,0,-1,552,1597,0,0
-665,-573,0,0,0,0,0,0,0,0,0,-1,559,1597,0,0
-658,-573,0,0,0,0,0,0,0,0,0,-1,566,1597,0,0
-651,-573,0,0,0,0,0,0,0,0,0,-1,573,1597,0,0
-644,-573,0,0,0,0,0,0,0,0,0,-1,580,1597,0,0
-637,-573,0,0,0,0,0,0,0,0,0,-1,587,1597,0,0
-630,-573,0,0,0,0,0,0,0,0,0,-1,594,1597,0,0
-623,-573,0,0,0,0,0,0,0,0,0,-1,601,1597,0,0
-616,-573,0,0,0,0,0,0,0,0,0,-1,608,1597,0,0
-609,-573,0,0,0,0,0,0,0,0,0,-1,615,1597,0,0
-602,-573,0,0,0,0,0,0,0,0,0,-1,622,1597,0,0
-595,-573,0,0,0,0,0,0,0,0,0,-1,629,1597,0,0
-588,-573,0,0,0,0,0,0,0,0,0,-1,636,1597,0,0
-581,-573,0,0,0,0,0,0,0,0,0,-1,643,1597,0,0
-574,-573,0,0,0,0,0,0,0,0,0,-1,650,1597,0,0
-567,-573,0,0,0,0,0,0,0,0,0,-1,657,1597,0,0
-560,-573,0,0,0,0,0,0,0,0,0,-1,664,1597,0,0
-553,-573,0,0,0,0,0,0,0,0,0,-1,671,1597,0,0
-546,-573,0,0,0,0,0,0,0,0,0,-1,678,1597,0,0
-539,-573,0,0,0,0,0,0,0,0,0,-1,685,1597,0,0
-532,-573,0,0,0,0,0,0,0,0,0,-1,692,1597,0,0
-525,-573,0,0,0,0,0,0,0,0,0,-1,699,1597,0,0
-518,-573,0,0,0,0,0,0,0,0,0,-1,706,1597,0,0
-511,-573,0,0,0,0,0,0,0,0,0,-1,713,1597,0,0
-504,-573,0,0,0,0,0,0,0,0,0,-1,720,1597,0,0
-497,-573,0,0,0,0,0,0,0,0,0,-1,727,1597,0,0
-490,-573,0,0,0,0,0,0,0,0,0,-1,734,1597,0,0
-483,-573,0,0,0,0,0,0,0,0,0,-1,741,1597,0,0
-476,-573,-9.3327,0.972778,0,0,0,0,0,0,0,-1,748,1597,-9.33268,-0.972776
-469,-573,-1.41681,1.13379,0,0,0,0,0,0,0,-1,755,1597,-1.41681,-1.13382
-462,-573,-0.748535,2.02588,0,0,0,0,0,0,0,-1,762,1597,-0.748533,-2.02584
-455,-573,-0.112976,2.70703,0,0,0,0,0,0,0,-1,769,1597,-0.112988,-2.70697
-448,-573,-1.26172,3.33252,0,0,0,0,0,0,0,-1,776,1597,-1.26173,-3.33248
-441,-573,0.108582,5.06726,0,0,0,0,0,0,0,-1,783,1597,0.108584,-5.06721
-434,-573,1.61768,7.05444,0,0,0,0,0,0,0,-1,790,1597,1.61767,-7.05446
-427,-573,-0.339539,22.1222,0,0,0,0,0,0,0,-1,797,1597,-0.339546,-22.1222
-420,-573,0.300354,22.3167,0,0,0,0,0,0,0,-1,804,1597,0.300329,-22.3166
-413,-573,-0.292419,24.7898,0,0,0,0,0,0,0,-1,811,1597,-0.292408,-24.7898
-406,-573,-0.279114,25.5616,-0.0041755,-0.0020483,-0.00111483,-0.00157109,-0.0046527,-1.16634,0.00273302,0.0362182,818,1597,-0.279112,-25.5617
-399,-573,-0.344299,26.2539,-0.00353171,-0.00179831,-0.000971742,-0.00136292,-0.0039671,-1.14956,0.00232748,0.0151135,825,1597,-0.344296,-26.2539
-392,-573,-0.352112,26.8672,-0.0028323,-0.00149976,-0.00067707,-0.00121612,-0.00311594,-1.17408,0.00181337,0.0130503,832,1597,-0.352097,-26.8672
-385,-573,-0.375793,27.4802,-0.0019547,-0.00104504,-0.00035768,-0.000921249,-0.00207849,-1.2376,0.00120259,0.0148779,839,1597,-0.375783,-27.4803
-378,-573,-0.410645,28.0874,-0.00118889,-0.000563777,-0.000132928,-0.000536685,-0.00121598,-1.36974,0.000703655,0.0151322,846,1597,-0.410667,-28.0874
-371,-573,-0.429199,28.6742,-0.000407439,-0.000122631,0.000143879,-6.25997e-05,-0.00046747,1.17552,0.000293018,0.0158818,853,1597,-0.429198,-28.6741
-364,-573,-0.4552,29.2406,0.000531082,0.000551416,0.000558961,0.0011003,-1.78045e-05,0.794492,0.000739541,0.0193306,860,1597,-0.455227,-29.2406
-357,-573,-0.497681,29.809,0.00150305,0.0013262,0.000987651,0.00240623,0.000423025,0.740752,0.00148339,0.0243621,867,1597,-0.497657,-29.809
-350,-573,-0.503906,30.4175,0.00257002,0.00213688,0.00146107,0.00383048,0.00087642,0.71182,0.00231743,0.0191899,874,1597,-0.503886,-30.4174
-343,-573,-0.47644,30.9991,0.0035745,0.00316141,0.00207114,0.00544937,0.00128654,0.7357,0.00328904,0.0216072,881,1597,-0.476436,-30.9992
-336,-573,-0.509888,31.5912,0.00442758,0.00468461,0.0028231,0.00738212,0.00173007,0.808143,0.00445806,0.0167696,888,1597,-0.509885,-31.5912
-329,-573,-0.521851,32.1493,0.00536989,0.00610485,0.00357312,0.00932933,0.00214541,0.836641,0.00564206,0.0177849,895,1597,-0.521879,-32.1493
-322,-573,-0.538086,32.7554,0.00653697,0.00804671,0.00470309,0.0120551,0.00252855,0.864972,0.00734053,0.0168429,902,1597,-0.53809,-32.7554
-315,-573,-0.399658,33.5182,0.00789005,0.0108992,0.00631891,0.0158902,0.00289904,0.902274,0.00977152,0.0370614,909,1597,-0.399638,-33.5182
-308,-573,-0.44342,34.5126,0,0,0,0,0,0,0,-1,916,1597,-0.443394,-34.5126
-301,-573,-0.256409,34.8121,0,0,0,0,0,0,0,-1,923,1597,-0.256429,-34.8121
-294,-573,1.00702,24.802,0,0,0,0,0,0,0,-1,930,1597,1.00701,-24.802
-287,-573,1.27222,30.7164,0,0,0,0,0,0,0,-1,937,1597,1.27222,-30.7164
-280,-573,1.19684,26.4906,0,0,0,0,0,0,0,-1,944,1597,1.19685,-26.4906
-273,-573,2.24805,25.4375,0,0,0,0,0,0,0,-1,951,1597,2.24803,-25.4374
-266,-573,1.31116,7.1814,0,0,0,0,0,0,0,-1,958,1597,1.31118,-7.18142
-259,-573,1.2514,6.70959,0,0,0,0,0,0,0,-1,965,1597,1.25137,-6.70965
-252,-573,2.07874,5.27161,0,0,0,0,0,0,0,-1,972,1597,2.07875,-5.27157
-245,-573,-10.2592,1.09827,0,0,0,0,0,0,0,-1,979,1597,-10.2592,-1.09823
-238,-573,-11.5463,4.44141,0,0,0,0,0,0,0,-1,986,1597,-11.5463,-4.44146
-231,-573,-9.23431,4.14539,0,0,0,0,0,0,0,-1,993,1597,-9.23431,-4.14534
-224,-573,-6.70044,7.40857,0,0,0,0,0,0,0,-1,1000,1597,-6.70045,-7.40851
-217,-573,-4.25824,8.59119,0,0,0,0,0,0,0,-1,1007,1597,-4.25824,-8.59122
-210,-573,-2.39661,9.73914,0,0,0,0,0,0,0,-1,1014,1597,-2.39658,-9.73915
-203,-573,-0.557373,10.9005,0,0,0,0,0,0,0,-1,1021,1597,-0.557387,-10.9006
-196,-573,-1.65344,9.02246,0,0,0,0,0,0,0,-1,1028,1597,-1.65349,-9.02241
-189,-573,-6.12915,6.66882,0,0,0,0,0,0,0,-1,1035,1597,-6.12913,-6.66884
-182,-573,0,0,0,0,0,0,0,0,0,-1,1042,1597,0,0
-175,-573,0,0,0,0,0,0,0,0,0,-1,1049,1597,0,0
-168,-573,0,0,0,0,0,0,0,0,0,-1,1056,1597,0,0
-161,-573,0,0,0,0,0,0,0,0,0,-1,1063,1597,0,0
-154,-573,0,0,0,0,0,0,0,0,0,-1,1070,1597,0,0
-147,-573,0,0,0,0,0,0,0,0,0,-1,1077,1597,0,0
-140,-573,0,0,0,0,0,0,0,0,0,-1,1084,1597,0,0
-133,-573,0,0,0,0,0,0,0,0,0,-1,1091,1597,0,0
-126,-573,0,0,0,0,0,0,0,0,0,-1,1098,1597,0,0
-119,-573,0,0,0,0,0,0,0,0,0,-1,1105,1597,0,0
-112,-573,0,0,0,0,0,0,0,0,0,-1,1112,1597,0,0
-105,-573,0,0,0,0,0,0,0,0,0,-1,1119,1597,0,0
-98,-573,0,0,0,0,0,0,0,0,0,-1,1126,1597,0,0
-91,-573,0,0,0,0,0,0,0,0,0,-1,1133,1597,0,0
-84,-573,0,0,0,0,0,0,0,0,0,-1,1140,1597,0,0
-77,-573,0,0,0,0,0,0,0,0,0,-1,1147,1597,0,0
-70,-573,0,0,0,0,0,0,0,0,0,-1,1154,1597,0,0
-63,-573,0,0,0,0,0,0,0,0,0,-1,1161,1597,0,0
-56,-573,0,0,0,0,0,0,0,0,0,-1,1168,1597,0,0
-49,-573,0,0,0,0,0,0,0,0,0,-1,1175,1597,0,0
-42,-573,0,0,0,0,0,0,0,0,0,-1,1182,1597,0,0
-35,-573,0,0,0,0,0,0,0,0,0,-1,1189,1597,0,0
-28,-573,0,0,0,0,0,0,0,0,0,-1,1196,1597,0,0
-21,-573,0,0,0,0,0,0,0,0,0,-1,1203,1597,0,0
-14,-573,0,0,0,0,0,0,0,0,0,-1,1210,1597,0,0
-7,-573,0,0,0,0,0,0,0,0,0,-1,1217,1597,0,0
0,-573,0,0,0,0,0,0,0,0,0,-1,1224,1597,0,0
7,-573,0,0,0,0,0,0,0,0,0,-1,1231,1597,0,0
14,-573,0,0,0,0,0,0,0,0,0,-1,1238,1597,0,0
21,-573,0,0,0,0,0,0,0,0,0,-1,1245,1597,0,0
28,-573,0,0,0,0,0,0,0,0,0,-1,1252,1597,0,0
35,-573,0,0,0,0,0,0,0,0,0,-1,1259,1597,0,0
42,-573,0,0,0,0,0,0,0,0,0,-1,1266,1597,0,0
49,-573,0,0,0,0,0,0,0,0,0,-1,1273,1597,0,0
56,-573,0,0,0,0,0,0,0,0,0,-1,1280,1597,0,0
63,-573,0,0,0,0,0,0,0,0,0,-1,1287,1597,0,0
70,-573,0,0,0,0,0,0,0,0,0,-1,1294,1597,0,0
77,-573,0,0,0,0,0,0,0,0,0,-1,1301,1597,0,0
84,-573,0,0,0,0,0,0,0,0,0,-1,1308,1597,0,0
91,-573,0,0,0,0,0,0,0,0,0,-1,1315,1597,0,0
98,-573,0,0,0,0,0,0,0,0,0,-1,1322,1597,0,0
105,-573,0,0,0,0,0,0,0,0,0,-1,1329,1597,0,0
112,-573,0,0,0,0,0,0,0,0,0,-1,1336,1597,0,0
119,-573,0,0,0,0,0,0,0,0,0,-1,1343,1597,0,0
126,-573,0,0,0,0,0,0,0,0,0,-1,1350,1597,0,0
133,-573,0,0,0,0,0,0,0,0,0,-1,1357,1597,0,0
140,-573,0,0,0,0,0,0,0,0,0,-1,1364,1597,0,0
147,-573,0,0,0,0,0,0,0,0,0,-1,1371,1597,0,0
154,-573,0,0,0,0,0,0,0,0,0,-1,1378,1597,0,0
161,-573,0,0,0,0,0,0,0,0,0,-1,1385,1597,0,0
168,-573,0,0,0,0,0,0,0,0,0,-1,1392,1597,0,0
175,-573,0,0,0,0,0,0,0,0,0,-1,1399,1597,0,0
182,-573,0,0,0,0,0,0,0,0,0,-1,1406,1597,0,0
189,-573,0,0,0,0,0,0,0,0,0,-1,1413,1597,0,0
196,-573,0,0,0,0,0,0,0,0,0,-1,1420,1597,0,0
203,-573,0,0,0,0,0,0,0,0,0,-1,1427,1597,0,0
210,-573,0,0,0,0,0,0,0,0,0,-1,1434,1597,0,0
217,-573,0,0,0,0,0,0,0,0,0,-1,1441,1597,0,0
224,-573,0,0,0,0,0,0,0,0,0,-1,1448,1597,0,0
231,-573,0,0,0,0,0,0,0,0,0,-1,1455,1597,0,0
238,-573,0,0,0,0,0,0,0,0,0,-1,1462,1597,0,0
245,-573,0,0,0,0,0,0,0,0,0,-1,1469,1597,0,0
252,-573,0,0,0,0,0,0,0,0,0,-1,1476,1597,0,0
259,-573,0,0,0,0,0,0,0,0,0,-1,1483,1597,0,0
266,-573,0,0,0,0,0,0,0,0,0,-1,1490,1597,0,0
273,-573,0,0,0,0,0,0,0,0,0,-1,1497,1597,0,0
280,-573,0,0,0,0,0,0,0,0,0,-1,1504,1597,0,0
287,-573,0,0,0,0,0,0,0,0,0,-1,1511,1597,0,0
294,-573,0,0,0,0,0,0,0,0,0,-1,1518,1597,0,0
301,-573,0,0,0,0,0,0,0,0,0,-1,1525,1597,0,0
308,-573,5.93042,9.71143,0,0,0,0,0,0,0,-1,1532,1597,5.93046,-9.71144
315,-573,4.34204,11.719,0,0,0,0,0,0,0,-1,1539,1597,4.34205,-11.719
322,-573,10.3269,7.77563,0,0,0,0,0,0,0,-1,1546,1597,10.327,-7.77565
329,-573,4.99573,3.80273,0,0,0,0,0,0,0,-1,1553,1597,4.9957,-3.80273
336,-573,4.85693,2.53455,0,0,0,0,0,0,0,-1,1560,1597,4.8569,-2.53459
343,-573,5.5946,2.15894,0,0,0,0,0,0,0,-1,1567,1597,5.59456,-2.1589
350,-573,2.53748,1.56433,0,0,0,0,0,0,0,-1,1574,1597,2.53753,-1.5643
357,-573,7.40247,4.03613,0,0,0,0,0,0,0,-1,1581,1597,7.40244,-4.03614
364,-573,7.14551,3.02087,0,0,0,0,0,0,0,-1,1588,1597,7.14556,-3.02084
371,-573,6.88867,2.00549,0,0,0,0,0,0,0,-1,1595,1597,6.88868,-2.00553
378,-573,8.62012,6.09106,0,0,0,0,0,0,0,-1,1602,1597,8.62012,-6.09103
385,-573,6.54346,-0.951904,0,0,0,0,0,0,0,-1,1609,1597,6.54349,0.951901
392,-573,18.1058,38.5942,0,0,0,0,0,0,0,-1,1616,1597,18.1058,-38.5942
399,-573,18.1184,37.6503,0,0,0,0,0,0,0,-1,1623,1597,18.1184,-37.6502
406,-573,17.8047,37.2208,0,0,0,0,0,0,0,-1,1630,1597,17.8047,-37.2209
413,-573,18.2855,33.5858,0,0,0,0,0,0,0,-1,1637,1597,18.2855,-33.5858
420,-573,18.8063,37.0011,0,0,0,0,0,0,0,-1,1644,1597,18.8063,-37.0011
427,-573,18.6713,36.3639,-0.00770107,0.0357181,-0.00617842,0.0365802,-0.00856312,-1.43216,0.0276861,0.0470775,1651,1597,18.6712,-36.3639
434,-573,18.3087,35.4583,-0.00549156,0.0320119,-0.00686281,0.0332283,-0.00670794,-1.39538,0.0246937,0.0492482,1658,1597,18.3087,-35.4582
441,-573,17.9326,34.7609,0,0,0,0,0,0,0,-1,1665,1597,17.9326,-34.7609
448,-573,17.8466,34.0962,-0.000617296,0.023333,-0.00684954,0.0251535,-0.00243781,-1.31102,0.0176379,0.0443335,1672,1597,17.8465,-34.0962
455,-573,17.8499,33.3372,0.000961273,0.0194992,-0.0069213,0.0217982,-0.00133774,-1.2501,0.0149979,0.0331398,1679,1597,17.8499,-33.3372
462,-573,17.9396,32.6033,0.00207762,0.0158475,-0.00637418,0.0183451,-0.000420006,-1.19735,0.0123725,0.0223138,1686,1597,17.9396,-32.6033
469,-573,17.9603,32.0513,0.00270773,0.0121863,-0.00535483,0.0145979,0.000296132,-1.14764,0.00963473,0.0142326,1693,1597,17.9603,-32.0513
476,-573,17.9751,31.5068,0.00293896,0.00913439,-0.00438539,0.0114058,0.000667547,-1.09289,0.00739141,0.0140839,1700,1597,17.9751,-31.5068
483,-573,17.9781,30.9838,0.00319861,0.00590238,-0.00352735,0.00832803,0.000772961,-0.968393,0.00531314,0.0130832,1707,1597,17.9781,-30.9837
490,-573,17.9386,30.4351,0.00289989,0.00376474,-0.00256256,0.0059311,0.000733522,-0.868985,0.00373366,0.0138941,1714,1597,17.9386,-30.4351
497,-573,17.9144,29.8521,0.00193202,0.00251426,-0.00174788,0.0039951,0.000451181,-0.867918,0.00252647,0.0209794,1721,1597,17.9145,-29.8521
504,-573,17.8885,29.3168,0.000888901,0.00113453,-0.000777511,0.00179886,0.000224563,-0.863729,0.00113184,0.0181815,1728,1597,17.8886,-29.3167
511,-573,17.8594,28.7457,-0.000255037,-0.000172566,0.000306103,9.50659e-05,-0.000522669,0.85235,0.000384077,0.019245,1735,1597,17.8594,-28.7457
518,-573,17.8154,28.1912,-0.00136223,-0.00135541,0.00135391,-4.90935e-06,-0.00271273,0.786657,0.00180685,0.0153817,1742,1597,17.8154,-28.1912
525,-573,17.8269,27.6254,-0.00246939,-0.00258143,0.00253878,1.3985e-05,-0.00506481,0.774367,0.00338121,0.0185499,1749,1597,17.8269,-27.6253
532,-573,17.8196,27.0156,-0.00361977,-0.00403093,0.00399105,0.000170991,-0.0078217,0.759666,0.00527239,0.0180551,1756,1597,17.8196,-27.0156
539,-573,17.726,26.4548,-0.00486832,-0.00582362,0.0057341,0.000407991,-0.0110999,0.743844,0.00753963,0.0280972,1763,1597,17.7259,-26.4549
546,-573,17.8157,25.9263,-0.00621819,-0.00798583,0.00791765,0.000864809,-0.0150688,0.729815,0.0103462,0.0423489,1770,1597,17.8157,-25.9262
553,-573,17.4972,25.5771,-0.00758109,-0.0104188,0.0104342,0.00153022,-0.0195301,0.717821,0.013559,0.0468393,1777,1597,17.4972,-25.5772
560,-573,17.4305,25.3076,-0.00909913,-0.0133745,0.0132978,0.00223168,-0.0247053,0.705702,0.0172623,0.0481748,1784,1597,17.4306,-25.3076
567,-573,17.2614,24.921,0,0,0,0,0,0,0,-1,1791,1597,17.2614,-24.921
574,-573,0.83374,5.7041,0,0,0,0,0,0,0,-1,1798,1597,0.833718,-5.70405
581,-573,-0.224854,7.41602,0,0,0,0,0,0,0,-1,1805,1597,-0.224904,-7.41596
588,-573,-0.134033,7.67065,0,0,0,0,0,0,0,-1,1812,1597,-0.134037,-7.67063
595,-573,-0.0825195,8.35083,0,0,0,0,0,0,0,-1,1819,1597,-0.0824684,-8.35088
602,-573,0,0,0,0,0,0,0,0,0,-1,1826,1597,0,0
609,-573,0,0,0,0,0,0,0,0,0,-1,1833,1597,0,0
616,-573,0,0,0,0,0,0,0,0,0,-1,1840,1597,0,0
623,-573,0,0,0,0,0,0,0,0,0,-1,1847,1597,0,0
630,-573,0,0,0,0,0,0,0,0,0,-1,1854,1597,0,0
637,-573,0,0,0,0,0,0,0,0,0,-1,1861,1597,0,0
644,-573,0,0,0,0,0,0,0,0,0,-1,1868,1597,0,0
651,-573,0,0,0,0,0,0,0,0,0,-1,1875,1597,0,0
658,-573,0,0,0,0,0,0,0,0,0,-1,1882,1597,0,0
665,-573,0,0,0,0,0,0,0,0,0,-1,1889,1597,0,0
672,-573,0,0,0,0,0,0,0,0,0,-1,1896,1597,0,0
679,-573,0,0,0,0,0,0,0,0,0,-1,1903,1597,0,0
686,-573,0,0,0,0,0,0,0,0,0,-1,1910,1597,0,0
693,-573,0,0,0,0,0,0,0,0,0,-1,1917,1597,0,0
700,-573,0,0,0,0,0,0,0,0,0,-1,1924,1597,0,0
707,-573,0,0,0,0,0,0,0,0,0,-1,1931,1597,0,0
714,-573,0,0,0,0,0,0,0,0,0,-1,1938,1597,0,0
721,-573,0,0,0,0,0,0,0,0,0,-1,1945,1597,0,0
728,-573,0,0,0,0,0,0,0,0,0,-1,1952,1597,0,0
735,-573,0,0,0,0,0,0,0,0,0,-1,1959,1597,0,0
742,-573,0,0,0,0,0,0,0,0,0,-1,1966,1597,0,0
749,-573,0,0,0,0,0,0,0,0,0,-1,1973,1597,0,0
756,-573,0,0,0,0,0,0,0,0,0,-1,1980,1597,0,0
763,-573,0,0,0,0,0,0,0,0,0,-1,1987,1597,0,0
770,-573,0,0,0,0,0,0,0,0,0,-1,1994,1597,0,0
777,-573,0,0,0,0,0,0,0,0,0,-1,2001,1597,0,0
784,-573,0,0,0,0,0,0,0,0,0,-1,2008,1597,0,0
791,-573,0,0,0,0,0,0,0,0,0,-1,2015,1597,0,0
798,-573,0,0,0,0,0,0,0,0,0,-1,2022,1597,0,0
805,-573,0,0,0,0,0,0,0,0,0,-1,2029,1597,0,0
812,-573,0,0,0,0,0,0,0,0,0,-1,2036,1597,0,0
-700,-580,0,0,0,0,0,0,0,0,0,-1,524,1604,0,0
-693,-580,0,0,0,0,0,0,0,0,0,-1,531,1604,0,0
-686,-580,0,0,0,0,0,0,0,0,0,-1,538,1604,0,0
-679,-580,0,0,0,0,0,0,0,0,0,-1,545,1604,0,0
-672,-580,0,0,0,0,0,0,0,0,0,-1,552,1604,0,0
-665,-580,0,0,0,0,0,0,0,0,0,-1,559,1604,0,0
-658,-580,0,0,0,0,0,0,0,0,0,-1,566,1604,0,0
-651,-580,0,0,0,0,0,0,0,0,0,-1,573,1604,0,0
-644,-580,0,0,0,0,0,0,0,0,0,-1,580,1604,0,0
-637,-580,0,0,0,0,0,0,0,0,0,-1,587,1604,0,0
-630,-580,0,0,0,0,0,0,0,0,0,-1,594,1604,0,0
-623,-580,0,0,0,0,0,0,0,0,0,-1,601,1604,0,0
-616,-580,0,0,0,0,0,0,0,0,0,-1,608,1604,0,0
-609,-580,0,0,0,0,0,0,0,0,0,-1,615,1604,0,0
-602,-580,0,0,0,0,0,0,0,0,0,-1,622,1604,0,0
-595,-580,0,0,0,0,0,0,0,0,0,-1,629,1604,0,0
-588,-580,0,0,0,0,0,0,0,0,0,-1,636,1604,0,0
-581,-580,0,0,0,0,0,0,0,0,0,-1,643,1604,0,0
-574,-580,0,0,0,0,0,0,0,0,0,-1,650,1604,0,0
-567,-580,0,0,0,0,0,0,0,0,0,-1,657,1604,0,0
-560,-580,0,0,0,0,0,0,0,0,0,-1,664,1604,0,0
-553,-580,0,0,0,0,0,0,0,0,0,-1,671,1604,0,0
-546,-580,0,0,0,0,0,0,0,0,0,-1,678,1604,0,0
-539,-580,0,0,0,0,0,0,0,0,0,-1,685,1604,0,0
-532,-580,0,0,0,0,0,0,0,0,0,-1,692,1604,0,0
-525,-580,0,0,0,0,0,0,0,0,0,-1,699,1604,0,0
-518,-580,0,0,0,0,0,0,0,0,0,-1,706,1604,0,0
-511,-580,0,0,0,0,0,0,0,0,0,-1,713,1604,0,0
-504,-580,0,0,0,0,0,0,0,0,0,-1,720,1604,0,0
-497,-580,0,0,0,0,0,0,0,0,0,-1,727,1604,0,0
-490,-580,0,0,0,0,0,0,0,0,0,-1,734,1604,0,0
-483,-580,0,0,0,0,0,0,0,0,0,-1,741,1604,0,0
-476,-580,0,0,0,0,0,0,0,0,0,-1,748,1604,0,0
-469,-580,-1.69189,-0.38916,0,0,0,0,0,0,0,-1,755,1604,-1.69192,0.389188
-462,-580,-0.859863,0.675293,0,0,0,0,0,0,0,-1,762,1604,-0.859834,-0.675245
-455,-580,-0.730164,0.651978,0,0,0,0,0,0,0,-1,769,1604,-0.730153,-0.651957
-448,-580,-3.31891,2.07544,0,0,0,0,0,0,0,-1,776,1604,-3.3189,-2.07539
-441,-580,-1.63843,3.9469,0,0,0,0,0,0,0,-1,783,1604,-1.63842,-3.94695
-434,-580,0.23291,5.97876,0,0,0,0,0,0,0,-1,790,1604,0.232901,-5.97878
-427,-580,1.62756,8.05493,0,0,0,0,0,0,0,-1,797,1604,1.62758,-8.05488
-420,-580,0.986572,11.2383,0,0,0,0,0,0,0,-1,804,1604,0.986544,-11.2382
-413,-580,0.922913,21.5701,0,0,0,0,0,0,0,-1,811,1604,0.922905,-21.5701
-406,-580,0.291565,25.6598,0,0,0,0,0,0,0,-1,818,1604,0.291565,-25.6598
-399,-580,0.279419,26.299,-0.00499118,-0.00275761,-0.00170418,-0.00183689,-0.0059119,-1.07545,0.00349382,0.0366285,825,1604,0.279439,-26.299
-392,-580,0.237854,26.8981,-0.00412047,-0.00254564,-0.00132649,-0.00179046,-0.00487565,-1.05325,0.00284785,0.0183414,832,1604,0.237837,-26.8981
-385,-580,0.209106,27.4978,-0.00311644,-0.00212988,-0.000920778,-0.00157858,-0.00366775,-1.03131,0.0021244,0.0128461,839,1604,0.209088,-27.4978
-378,-580,0.155823,28.1139,-0.00227138,-0.00164934,-0.000640306,-0.00124851,-0.00267221,-1.01148,0.0015439,0.0148895,846,1604,0.155808,-28.1139
-371,-580,0.134705,28.7241,-0.00145261,-0.00122478,-0.000340084,-0.000980043,-0.00169735,-0.947004,0.000983873,0.013118,853,1604,0.134676,-28.7242
-364,-580,0.126709,29.3042,-0.000511212,-0.000597818,7.61754e-05,-0.000466892,-0.000642138,0.526944,0.000383273,0.0189348,860,1604,0.126736,-29.3042
-357,-580,0.10199,29.8622,0.000446466,0.000136072,0.000495637,0.000810636,-0.000228099,0.633671,0.000630367,0.0147068,867,1604,0.101996,-29.8622
-350,-580,0.0743408,30.4563,0.00146796,0.000892491,0.000935131,0.00215862,0.000201828,0.636148,0.00137675,0.0114876,874,1604,0.0743268,-30.4563
-343,-580,0.0907593,31.035,0.00239842,0.00184791,0.001479,0.00362756,0.000618762,0.693397,0.00224078,0.011647,881,1604,0.0907477,-31.0351
-336,-580,0.086853,31.5852,0.00319317,0.00319035,0.00213297,0.00532473,0.0010588,0.785068,0.00325481,0.0203152,888,1604,0.0868793,-31.5852
-329,-580,0.0564575,32.1915,0.0040301,0.00452449,0.00275835,0.0070467,0.00150789,0.830087,0.00428455,0.0188104,895,1604,0.0564786,-32.1915
-322,-580,0.0442505,32.8019,0.00501876,0.00619377,0.00366756,0.00932059,0.00189194,0.864818,0.00568893,0.0204966,902,1604,0.0442394,-32.8018
-315,-580,0.0629272,33.3245,0.0061362,0.00861642,0.00497543,0.012504,0.00224866,0.907533,0.0076967,0.0224902,909,1604,0.0629187,-33.3245
-308,-580,0.123779,34.0287,0.00724734,0.0111165,0.00646621,0.0159313,0.0024325,0.930751,0.00991006,0.0316845,916,1604,0.12377,-34.0287
-301,-580,0.198425,34.5148,0.00871753,0.0139932,0.00835052,0.0201126,0.00259812,0.938383,0.0126317,0.0295167,923,1604,0.19844,-34.5147
-294,-580,0.151794,35.0946,0,0,0,0,0,0,0,-1,930,1604,0.151774,-35.0946
-287,-580,0.249084,36.526,0,0,0,0,0,0,0,-1,937,1604,0.249059,-36.526
-280,-580,1.11133,37.2659,0,0,0,0,0,0,0,-1,944,1604,1.11136,-37.2659
-273,-580,1.39575,28.6672,0,0,0,0,0,0,0,-1,951,1604,1.39577,-28.6672
-266,-580,1.71777,25.6515,0,0,0,0,0,0,0,-1,958,1604,1.71775,-25.6515
-259,-580,1.31091,9.11536,0,0,0,0,0,0,0,-1,965,1604,1.31092,-9.11539
-252,-580,1.07629,7.74097,0,0,0,0,0,0,0,-1,972,1604,1.07627,-7.74101
-245,-580,3.80304,9.16028,0,0,0,0,0,0,0,-1,979,1604,3.80306,-9.16034
-238,-580,-10.3588,1.57556,0,0,0,0,0,0,0,-1,986,1604,-10.3588,-1.5755
-231,-580,-10.576,6.43787,0,0,0,0,0,0,0,-1,993,1604,-10.576,-6.43783
-224,-580,-8.27435,7.58972,0,0,0,0,0,0,0,-1,1000,1604,-8.27435,-7.5897
-217,-580,-5.85632,9.51221,0,0,0,0,0,0,0,-1,1007,1604,-5.85632,-9.5122
-210,-580,-3.6684,11.1569,0,0,0,0,0,0,0,-1,1014,1604,-3.66839,-11.1569
-203,-580,-1.92474,12.7845,0,0,0,0,0,0,0,-1,1021,1604,-1.92477,-12.7845
-196,-580,-2.28552,10.3289,0,0,0,0,0,0,0,-1,1028,1604,-2.28552,-10.3288
-189,-580,-4.58252,7.59058,0,0,0,0,0,0,0,-1,1035,1604,-4.58256,-7.59057
-182,-580,-5.45874,7.65942,0,0,0,0,0,0,0,-1,1042,1604,-5.45876,-7.65939
-175,-580,-6.38977,7.55005,0,0,0,0,0,0,0,-1,1049,1604,-6.38981,-7.5501
-168,-580,0,0,0,0,0,0,0,0,0,-1,1056,1604,0,0
-161,-580,0,0,0,0,0,0,0,0,0,-1,1063,1604,0,0
-154,-580,0,0,0,0,0,0,0,0,0,-1,1070,1604,0,0
-147,-580,0,0,0,0,0,0,0,0,0,-1,1077,1604,0,0
-140,-580,0,0,0,0,0,0,0,0,0,-1,1084,1604,0,0
-133,-580,0,0,0,0,0,0,0,0,0,-1,1091,1604,0,0
-126,-580,0,0,0,0,0,0,0,0,0,-1,1098,1604,0,0
-119,-580,0,0,0,0,0,0,0,0,0,-1,1105,1604,0,0
-112,-580,0,0,0,0,0,0,0,0,0,-1,1112,1604,0,0
-105,-580,0,0,0,0,0,0,0,0,0,-1,1119,1604,0,0
-98,-580,0,0,0,0,0,0,0,0,0,-1,1126,1604,0,0
-91,-580,0,0,0,0,0,0,0,0,0,-1,1133,1604,0,0
-84,-580,0,0,0,0,0,0,0,0,0,-1,1140,1604,0,0
-77,-580,0,0,0,0,0,0,0,0,0,-1,1147,1604,0,0
-70,-580,0,0,0,0,0,0,0,0,0,-1,1154,1604,0,0
-63,-580,0,0,0,0,0,0,0,0,0,-1,1161,1604,0,0
-56,-580,0,0,0,0,0,0,0,0,0,-1,1168,1604,0,0
-49,-580,0,0,0,0,0,0,0,0,0,-1,1175,1604,0,0
-42,-580,0,0,0,0,0,0,0,0,0,-1,1182,1604,0,0
-35,-580,0,0,0,0,0,0,0,0,0,-1,1189,1604,0,0
-28,-580,0,0,0,0,0,0,0,0,0,-1,1196,1604,0,0
-21,-580,0,0,0,0,0,0,0,0,0,-1,1203,1604,0,0
-14,-580,0,0,0,0,0,0,0,0,0,-1,1210,1604,0,0
-7,-580,0,0,0,0,0,0,0,0,0,-1,1217,1604,0,0
0,-580,0,0,0,0,0,0,0,0,0,-1,1224,1604,0,0
7,-580,0,0,0,0,0,0,0,0,0,-1,1231,1604,0,0
14,-580,0,0,0,0,0,0,0,0,0,-1,1238,1604,0,0
21,-580,0,0,0,0,0,0,0,0,0,-1,1245,1604,0,0
28,-580,0,0,0,0,0,0,0,0,0,-1,1252,1604,0,0
35,-580,0,0,0,0,0,0,0,0,0,-1,1259,1604,0,0
42,-580,0,0,0,0,0,0,0,0,0,-1,1266,1604,0,0
49,-580,0,0,0,0,0,0,0,0,0,-1,1273,1604,0,0
56,-580,0,0,0,0,0,0,0,0,0,-1,1280,1604,0,0
63,-580,0,0,0,0,0,0,0,0,0,-1,1287,1604,0,0
70,-580,0,0,0,0,0,0,0,0,0,-1,1294,1604,0,0
77,-580,0,0,0,0,0,0,0,0,0,-1,1301,1604,0,0
84,-580,0,0,0,0,0,0,0,0,0,-1,1308,1604,0,0
91,-580,0,0,0,0,0,0,0,0,0,-1,1315,1604,0,0
98,-580,0,0,0,0,0,0,0,0,0,-1,1322,1604,0,0
105,-580,0,0,0,0,0,0,0,0,0,-1,1329,1604,0,0
112,-580,0,0,0,0,0,0,0,0,0,-1,1336,1604,0,0
119,-580,0,0,0,0,0,0,0,0,0,-1,1343,1604,0,0
126,-580,0,0,0,0,0,0,0,0,0,-1,1350,1604,0,0
133,-580,0,0,0,0,0,0,0,0,0,-1,1357,1604,0,0
140,-580,0,0,0,0,0,0,0,0,0,-1,1364,1604,0,0
147,-580,0,0,0,0,0,0,0,0,0,-1,1371,1604,0,0
154,-580,0,0,0,0,0,0,0,0,0,-1,1378,1604,0,0
161,-580,0,0,0,0,0,0,0,0,0,-1,1385,1604,0,0
168,-580,0,0,0,0,0,0,0,0,0,-1,1392,1604,0,0
175,-580,0,0,0,0,0,0,0,0,0,-1,1399,1604,0,0
182,-580,0,0,0,0,0,0,0,0,0,-1,1406,1604,0,0
189,-580,0,0,0,0,0,0,0,0,0,-1,1413,1604,0,0
196,-580,0,0,0,0,0,0,0,0,0,-1,1420,1604,0,0
203,-580,0,0,0,0,0,0,0,0,0,-1,1427,1604,0,0
210,-580,0,0,0,0,0,0,0,0,0,-1,1434,1604,0,0
217,-580,0,0,0,0,0,0,0,0,0,-1,1441,1604,0,0
224,-580,0,0,0,0,0,0,0,0,0,-1,1448,1604,0,0
231,-580,0,0,0,0,0,0,0,0,0,-1,1455,1604,0,0
238,-580,0,0,0,0,0,0,0,0,0,-1,1462,1604,0,0
245,-580,0,0,0,0,0,0,0,0,0,-1,1469,1604,0,0
252,-580,0,0,0,0,0,0,0,0,0,-1,1476,1604,0,0
259,-580,0,0,0,0,0,0,0,0,0,-1,1483,1604,0,0
266,-580,0,0,0,0,0,0,0,0,0,-1,1490,1604,0,0
273,-580,0,0,0,0,0,0,0,0,0,-1,1497,1604,0,0
280,-580,0,0,0,0,0,0,0,0,0,-1,1504,1604,0,0
287,-580,0,0,0,0,0,0,0,0,0,-1,1511,1604,0,0
294,-580,4.0437,0.177368,0,0,0,0,0,0,0,-1,1518,1604,4.04369,-0.177371
301,-580,7.55164,8.05798,0,0,0,0,0,0,0,-1,1525,1604,7.55158,-8.05802
308,-580,5.9126,9.99341,0,0,0,0,0,0,0,-1,1532,1604,5.91255,-9.99337
315,-580,4.27356,11.9287,0,0,0,0,0,0,0,-1,1539,1604,4.27352,-11.9287
322,-580,10.2366,7.50281,0,0,0,0,0,0,0,-1,1546,1604,10.2366,-7.50282
329,-580,10.5962,8.69641,0,0,0,0,0,0,0,-1,1553,1604,10.5962,-8.69642
336,-580,3.66431,1.58862,0,0,0,0,0,0,0,-1,1560,1604,3.6643,-1.58864
343,-580,3.32227,1.39636,0,0,0,0,0,0,0,-1,1567,1604,3.32222,-1.39633
350,-580,8.71277,4.0564,0,0,0,0,0,0,0,-1,1574,1604,8.71271,-4.05638
357,-580,8.52332,3.08154,0,0,0,0,0,0,0,-1,1581,1604,8.52332,-3.08157
364,-580,8.25818,2.07605,0,0,0,0,0,0,0,-1,1588,1604,8.25812,-2.07608
371,-580,7.42114,7.14282,0,0,0,0,0,0,0,-1,1595,1604,7.42119,-7.14281
378,-580,7.9718,6.6731,0,0,0,0,0,0,0,-1,1602,1604,7.9718,-6.67307
385,-580,8.52246,6.20337,0,0,0,0,0,0,0,-1,1609,1604,8.52241,-6.20334
392,-580,17.4205,37.8278,0,0,0,0,0,0,0,-1,1616,1604,17.4205,-37.8278
399,-580,17.3234,37.4197,-0.00519139,0.0363626,-0.00301913,0.0365808,-0.0054096,-1.49865,0.026376,0.0482044,1623,1604,17.3234,-37.4196
406,-580,17.2303,37.1024,-0.00647604,0.0333349,-0.0024174,0.0334811,-0.00662229,-1.51037,0.0248244,0.0483027,1630,1604,17.2304,-37.1025
413,-580,17.2102,36.6884,0,0,0,0,0,0,0,-1,1637,1604,17.2102,-36.6884
420,-580,17.1364,36.0729,0,0,0,0,0,0,0,-1,1644,1604,17.1363,-36.0729
427,-580,17.8402,35.95,-0.00485355,0.0270437,-0.0042448,0.0275989,-0.00540877,-1.44073,0.0204421,0.0397777,1651,1604,17.8403,-35.95
434,-580,17.4902,35.1587,-0.00355915,0.0242994,-0.00470963,0.0250741,-0.0043338,-1.40777,0.0183322,0.0395912,1658,1604,17.4903,-35.1587
441,-580,17.2881,34.2664,0,0,0,0,0,0,0,-1,1665,1604,17.2881,-34.2664
448,-580,17.4205,33.6792,-0.000366236,0.0180073,-0.00498601,0.0192732,-0.00163207,-1.32217,0.0134259,0.0174111,1672,1604,17.4205,-33.6792
455,-580,17.4569,33.1682,0.000711379,0.0150431,-0.00512319,0.0166862,-0.000931651,-1.26045,0.0114473,0.0211675,1679,1604,17.4569,-33.1682
462,-580,17.4275,32.5974,0.00147689,0.0121006,-0.00475465,0.0139178,-0.000340243,-1.20575,0.00939398,0.0227509,1686,1604,17.4275,-32.5974
469,-580,17.4286,32.0577,0.00190383,0.00918489,-0.00401401,0.0109634,0.000125344,-1.15372,0.0072675,0.0186514,1693,1604,17.4286,-32.0578
476,-580,17.412,31.5146,0.00202554,0.00674373,-0.00325595,0.0084054,0.00036387,-1.0989,0.00548633,0.0145665,1700,1604,17.412,-31.5146
483,-580,17.3934,30.9941,0.00210033,0.00411807,-0.002556,0.0058571,0.000361296,-0.973366,0.00379005,0.0133489,1707,1604,17.3934,-30.9942
490,-580,17.3506,30.4841,0.00174185,0.00239102,-0.00176299,0.00385905,0.000273818,-0.876434,0.00248646,0.0181226,1714,1604,17.3505,-30.4842
497,-580,17.3234,29.8972,0.000878479,0.00132675,-0.00107674,0.00220244,2.79106e-06,-0.888013,0.00146736,0.0145858,1721,1604,17.3234,-29.8973
504,-580,17.2996,29.3202,-0.000116941,0.000156188,-0.000157769,0.000228289,-0.000189041,-1.14214,0.0002413,0.01783,1728,1604,17.2996,-29.3202
511,-580,17.2898,28.7709,-0.00123264,-0.00109679,0.000929419,-0.000232813,-0.00209661,0.821875,0.00132696,0.0189229,1735,1604,17.2898,-28.7709
518,-580,17.2585,28.2196,-0.00229235,-0.00216767,0.00196914,-0.000259885,-0.00420014,0.801221,0.00271761,0.0175657,1742,1604,17.2585,-28.2196
525,-580,17.2587,27.6488,-0.0034352,-0.00345511,0.00327057,-0.000174566,-0.00671575,0.783877,0.00442012,0.0223782,1749,1604,17.2586,-27.6488
532,-580,17.1794,27.0938,-0.00473657,-0.00503743,0.00495021,6.5492e-05,-0.0098395,0.770208,0.0065816,0.0335466,1756,1604,17.1795,-27.0937
539,-580,17.1226,26.4728,0,0,0,0,0,0,0,-1,1763,1604,17.1225,-26.4727
546,-580,17.4298,25.9694,0,0,0,0,0,0,0,-1,1770,1604,17.4298,-25.9694
553,-580,16.6495,25.6295,0,0,0,0,0,0,0,-1,1777,1604,16.6496,-25.6295
560,-580,16.8424,25.5048,0,0,0,0,0,0,0,-1,1784,1604,16.8424,-25.5048
567,-580,3.87708,4.0647,0,0,0,0,0,0,0,-1,1791,1604,3.87711,-4.06471
574,-580,2.31653,5.62952,0,0,0,0,0,0,0,-1,1798,1604,2.31654,-5.62947
581,-580,1.60876,6.67664,0,0,0,0,0,0,0,-1,1805,1604,1.60873,-6.67667
588,-580,1.38684,7.14441,0,0,0,0,0,0,0,-1,1812,1604,1.38689,-7.14443
595,-580,0,0,0,0,0,0,0,0,0,-1,1819,1604,0,0
602,-580,0,0,0,0,0,0,0,0,0,-1,1826,1604,0,0
609,-580,0,0,0,0,0,0,0,0,0,-1,1833,1604,0,0
616,-580,0,0,0,0,0,0,0,0,0,-1,1840,1604,0,0
623,-580,0,0,0,0,0,0,0,0,0,-1,1847,1604,0,0
630,-580,0,0,0,0,0,0,0,0,0,-1,1854,1604,0,0
637,-580,0,0,0,0,0,0,0,0,0,-1,1861,1604,0,0
644,-580,0,0,0,0,0,0,0,0,0,-1,1868,1604,0,0
651,-580,0,0,0,0,0,0,0,0,0,-1,1875,1604,0,0
658,-580,0,0,0,0,0,0,0,0,0,-1,1882,1604,0,0
665,-580,0,0,0,0,0,0,0,0,0,-1,1889,1604,0,0
672,-580,0,0,0,0,0,0,0,0,0,-1,1896,1604,0,0
679,-580,0,0,0,0,0,0,0,0,0,-1,1903,1604,0,0
686,-580,0,0,0,0,0,0,0,0,0,-1,1910,1604,0,0
693,-580,0,0,0,0,0,0,0,0,0,-1,1917,1604,0,0
700,-580,0,0,0,0,0,0,0,0,0,-1,1924,1604,0,0
707,-580,0,0,0,0,0,0,0,0,0,-1,1931,1604,0,0
714,-580,0,0,0,0,0,0,0,0,0,-1,1938,1604,0,0
721,-580,0,0,0,0,0,0,0,0,0,-1,1945,1604,0,0
728,-580,0,0,0,0,0,0,0,0,0,-1,1952,1604,0,0
735,-580,0,0,0,0,0,0,0,0,0,-1,1959,1604,0,0
742,-580,0,0,0,0,0,0,0,0,0,-1,1966,1604,0,0
749,-580,0,0,0,0,0,0,0,0,0,-1,1973,1604,0,0
756,-580,0,0,0,0,0,0,0,0,0,-1,1980,1604,0,0
763,-580,0,0,0,0,0,0,0,0,0,-1,1987,1604,0,0
770,-580,0,0,0,0,0,0,0,0,0,-1,1994,1604,0,0
777,-580,0,0,0,0,0,0,0,0,0,-1,2001,1604,0,0
784,-580,0,0,0,0,0,0,0,0,0,-1,2008,1604,0,0
791,-580,0,0,0,0,0,0,0,0,0,-1,2015,1604,0,0
798,-580,0,0,0,0,0,0,0,0,0,-1,2022,1604,0,0
805,-580,0,0,0,0,0,0,0,0,0,-1,2029,1604,0,0
812,-580,0,0,0,0,0,0,0,0,0,-1,2036,1604,0,0
-700,-587,0,0,0,0,0,0,0,0,0,-1,524,1611,0,0
-693,-587,0,0,0,0,0,0,0,0,0,-1,531,1611,0,0
-686,-587,0,0,0,0,0,0,0,0,0,-1,538,1611,0,0
-679,-587,0,0,0,0,0,0,0,0,0,-1,545,1611,0,0
-672,-587,0,0,0,0,0,0,0,0,0,-1,552,1611,0,0
-665,-587,0,0,0,0,0,0,0,0,0,-1,559,1611,0,0
-658,-587,0,0,0,0,0,0,0,0,0,-1,566,1611,0,0
-651,-587,0,0,0,0,0,0,0,0,0,-1,573,1611,0,0
-644,-587,0,0,0,0,0,0,0,0,0,-1,580,1611,0,0
-637,-587,0,0,0,0,0,0,0,0,0,-1,587,1611,0,0
-630,-587,0,0,0,0,0,0,0,0,0,-1,594,1611,0,0
-623,-587,0,0,0,0,0,0,0,0,0,-1,601,1611,0,0
-616,-587,0,0,0,0,0,0,0,0,0,-1,608,1611,0,0
-609,-587,0,0,0,0,0,0,0,0,0,-1,615,1611,0,0
-602,-587,0,0,0,0,0,0,0,0,0,-1,622,1611,0,0
-595,-587,0,0,0,0,0,0,0,0,0,-1,629,1611,0,0
-588,-587,0,0,0,0,0,0,0,0,0,-1,636,1611,0,0
-581,-587,0,0,0,0,0,0,0,0,0,-1,643,1611,0,0
-574,-587,0,0,0,0,0,0,0,0,0,-1,650,1611,0,0
-567,-587,0,0,0,0,0,0,0,0,0,-1,657,1611,0,0
-560,-587,0,0,0,0,0,0,0,0,0,-1,664,1611,0,0
-553,-587,0,0,0,0,0,0,0,0,0,-1,671,1611,0,0
-546,-587,0,0,0,0,0,0,0,0,0,-1,678,1611,0,0
-539,-587,0,0,0,0,0,0,0,0,0,-1,685,1611,0,0
-532,-587,0,0,0,0,0,0,0,0,0,-1,692,1611,0,0
-525,-587,0,0,0,0,0,0,0,0,0,-1,699,1611,0,0
-518,-587,0,0,0,0,0,0,0,0,0,-1,706,1611,0,0
-511,-587,0,0,0,0,0,0,0,0,0,-1,713,1611,0,0
-504,-587,0,0,0,0,0,0,0,0,0,-1,720,1611,0,0
-497,-587,0,0,0,0,0,0,0,0,0,-1,727,1611,0,0
-490,-587,0,0,0,0,0,0,0,0,0,-1,734,1611,0,0
-483,-587,0,0,0,0,0,0,0,0,0,-1,741,1611,0,0
-476,-587,0,0,0,0,0,0,0,0,0,-1,748,1611,0,0
-469,-587,0,0,0,0,0,0,0,0,0,-1,755,1611,0,0
-462,-587,-0.714355,-0.418457,0,0,0,0,0,0,0,-1,762,1611,-0.714359,0.418483
-455,-587,-0.619812,-0.522461,0,0,0,0,0,0,0,-1,769,1611,-0.619802,0.522515
-448,-587,-0.461731,-0.686523,0,0,0,0,0,0,0,-1,776,1611,-0.461739,0.686559
-441,-587,-3.56555,2.72253,0,0,0,0,0,0,0,-1,783,1611,-3.56555,-2.72259
-434,-587,-1.77319,4.76318,0,0,0,0,0,0,0,-1,790,1611,-1.77318,-4.76323
-427,-587,0.0346069,6.92944,0,0,0,0,0,0,0,-1,797,1611,0.034587,-6.92941
-420,-587,-0.647156,10.1157,0,0,0,0,0,0,0,-1,804,1611,-0.647128,-10.1158
-413,-587,2.13971,10.3901,0,0,0,0,0,0,0,-1,811,1611,2.13971,-10.3902
-406,-587,2.2525,19.7814,0,0,0,0,0,0,0,-1,818,1611,2.25253,-19.7814
-399,-587,0.822388,26.2524,0,0,0,0,0,0,0,-1,825,1611,0.822375,-26.2524
-392,-587,1.0072,26.8345,-0.00549441,-0.00384817,-0.00211618,-0.00240067,-0.00694192,-0.970877,0.00407094,0.0492339,832,1611,1.00722,-26.8345
-385,-587,0.74176,27.4644,-0.00431823,-0.00336465,-0.00155382,-0.00221611,-0.00546676,-0.934263,0.00317502,0.0233009,839,1611,0.741743,-27.4643
-378,-587,0.708008,28.135,-0.00336323,-0.00277207,-0.00116419,-0.00186653,-0.00426877,-0.909719,0.00247104,0.0139434,846,1611,0.708016,-28.135
-371,-587,0.687256,28.766,-0.00248672,-0.00228394,-0.000805502,-0.00157347,-0.00319719,-0.848005,0.00184597,0.0135629,853,1611,0.687249,-28.766
-364,-587,0.698364,29.3475,-0.00152621,-0.00165106,-0.000362595,-0.00122071,-0.00195657,-0.700153,0.00114113,0.0173843,860,1611,0.698345,-29.3476
-357,-587,0.675964,29.8658,-0.000563663,-0.000915396,7.06316e-05,-0.000550009,-0.00092905,0.190951,0.000539406,0.0174777,867,1611,0.67596,-29.8658
-350,-587,0.651611,30.4865,0.000429344,-0.000171803,0.000499212,0.000711486,-0.000453945,0.514419,0.000678316,0.0103254,874,1611,0.65162,-30.4865
-343,-587,0.642212,31.0475,0.00131577,0.000736647,0.000995961,0.00206341,-1.09917e-05,0.64393,0.00137928,0.0131404,881,1611,0.64221,-31.0475
-336,-587,0.625916,31.5969,0.00208961,0.00191647,0.00156786,0.00357328,0.000432795,0.757817,0.00225183,0.0135777,888,1611,0.625899,-31.5969
-329,-587,0.593506,32.1898,0.00286372,0.00314743,0.00209268,0.00510305,0.000908095,0.819239,0.00314337,0.0158964,895,1611,0.593495,-32.1899
-322,-587,0.596375,32.7904,0.00371526,0.00457364,0.0028188,0.00699573,0.00129316,0.860948,0.00429811,0.0182556,902,1611,0.596355,-32.7905
-315,-587,0.577698,33.316,0.00465617,0.00660836,0.00386507,0.00961868,0.00164585,0.909083,0.00594033,0.0149,909,1611,0.577669,-33.316
-308,-587,0.561951,33.8622,0.00556439,0.00863619,0.00497733,0.0123092,0.00189138,0.935053,0.00765397,0.0148543,916,1611,0.561974,-33.8622
-301,-587,0.625427,34.4518,0.00678639,0.0109471,0.00640856,0.0156045,0.00212896,0.942342,0.00977097,0.0154904,923,1611,0.6254,-34.4518
-294,-587,0.694336,35.0889,0.00839562,0.0137519,0.00839499,0.0198856,0.00226193,0.939803,0.0125711,0.0285368,930,1611,0.694328,-35.0888
-287,-587,0.610657,35.843,0.0101961,0.0173958,0.0108054,0.0251853,0.00240671,0.946192,0.0160482,0.0431945,937,1611,0.610652,-35.843
-280,-587,0.841003,36.9562,0,0,0,0,0,0,0,-1,944,1611,0.840994,-36.9562
-273,-587,0.984985,37.22,0,0,0,0,0,0,0,-1,951,1611,0.985005,-37.22
-266,-587,1.24261,38.1088,0,0,0,0,0,0,0,-1,958,1611,1.2426,-38.1088
-259,-587,1.76306,28.5784,0,0,0,0,0,0,0,-1,965,1611,1.76307,-28.5784
-252,-587,1.30188,10.3103,0,0,0,0,0,0,0,-1,972,1611,1.30188,-10.3104
-245,-587,1.52075,27.4791,0,0,0,0,0,0,0,-1,979,1611,1.52076,-27.4791
-238,-587,2.87799,9.53821,0,0,0,0,0,0,0,-1,986,1611,2.87797,-9.53823
-231,-587,2.49548,9.14465,0,0,0,0,0,0,0,-1,993,1611,2.49551,-9.14468
-224,-587,-9.72528,9.21069,0,0,0,0,0,0,0,-1,1000,1611,-9.72529,-9.21072
-217,-587,-7.07495,10.7847,0,0,0,0,0,0,0,-1,1007,1611,-7.07495,-10.7847
-210,-587,-4.72308,12.5889,0,0,0,0,0,0,0,-1,1014,1611,-4.72307,-12.5888
-203,-587,-3.2583,13.7289,0,0,0,0,0,0,0,-1,1021,1611,-3.25828,-13.7289
-196,-587,-1.953,14.8145,0,0,0,0,0,0,0,-1,1028,1611,-1.95302,-14.8144
-189,-587,-3.04138,8.66638,0,0,0,0,0,0,0,-1,1035,1611,-3.04136,-8.66635
-182,-587,-3.97095,9.7146,0,0,0,0,0,0,0,-1,1042,1611,-3.97093,-9.71461
-175,-587,-4.80969,8.37878,0,0,0,0,0,0,0,-1,1049,1611,-4.80964,-8.37883
-168,-587,-5.91394,8.72546,0,0,0,0,0,0,0,-1,1056,1611,-5.91398,-8.72542
-161,-587,-7.06946,8.88501,0,0,0,0,0,0,0,-1,1063,1611,-7.06947,-8.885
-154,-587,-2.24731,6.56519,0,0,0,0,0,0,0,-1,1070,1611,-2.24728,-6.56517
-147,-587,0,0,0,0,0,0,0,0,0,-1,1077,1611,0,0
-140,-587,0,0,0,0,0,0,0,0,0,-1,1084,1611,0,0
-133,-587,0,0,0,0,0,0,0,0,0,-1,1091,1611,0,0
-126,-587,0,0,0,0,0,0,0,0,0,-1,1098,1611,0,0
-119,-587,0,0,0,0,0,0,0,0,0,-1,1105,1611,0,0
-112,-587,0,0,0,0,0,0,0,0,0,-1,1112,1611,0,0
-105,-587,0,0,0,0,0,0,0,0,0,-1,1119,1611,0,0
-98,-587,0,0,0,0,0,0,0,0,0,-1,1126,1611,0,0
-91,-587,0,0,0,0,0,0,0,0,0,-1,1133,1611,0,0
-84,-587,0,0,0,0,0,0,0,0,0,-1,1140,1611,0,0
-77,-587,0,0,0,0,0,0,0,0,0,-1,1147,1611,0,0
-70,-587,0,0,0,0,0,0,0,0,0,-1,1154,1611,0,0
-63,-587,0,0,0,0,0,0,0,0,0,-1,1161,1611,0,0
-56,-587,0,0,0,0,0,0,0,0,0,-1,1168,1611,0,0
-49,-587,0,0,0,0,0,0,0,0,0,-1,1175,1611,0,0
-42,-587,0,0,0,0,0,0,0,0,0,-1,1182,1611,0,0
-35,-587,0,0,0,0,0,0,0,0,0,-1,1189,1611,0,0
-28,-587,0,0,0,0,0,0,0,0,0,-1,1196,1611,0,0
-21,-587,0,0,0,0,0,0,0,0,0,-1,1203,1611,0,0
-14,-587,0,0,0,0,0,0,0,0,0,-1,1210,1611,0,0
-7,-587,0,0,0,0,0,0,0,0,0,-1,1217,1611,0,0
0,-587,0,0,0,0,0,0,0,0,0,-1,1224,1611,0,0
7,-587,0,0,0,0,0,0,0,0,0,-1,1231,1611,0,0
14,-587,0,0,0,0,0,0,0,0,0,-1,1238,1611,0,0
21,-587,0,0,0,0,0,0,0,0,0,-1,1245,1611,0,0
28,-587,0,0,0,0,0,0,0,0,0,-1,1252,1611,0,0
35,-587,0,0,0,0,0,0,0,0,0,-1,1259,1611,0,0
42,-587,0,0,0,0,0,0,0,0,0,-1,1266,1611,0,0
49,-587,0,0,0,0,0,0,0,0,0,-1,1273,1611,0,0
56,-587,0,0,0,0,0,0,0,0,0,-1,1280,1611,0,0
63,-587,0,0,0,0,0,0,0,0,0,-1,1287,1611,0,0
70,-587,0,0,0,0,0,0,0,0,0,-1,1294,1611,0,0
77,-587,0,0,0,0,0,0,0,0,0,-1,1301,1611,0,0
84,-587,0,0,0,0,0,0,0,0,0,-1,1308,1611,0,0
91,-587,0,0,0,0,0,0,0,0,0,-1,1315,1611,0,0
98,-587,0,0,0,0,0,0,0,0,0,-1,1322,1611,0,0
105,-587,0,0,0,0,0,0,0,0,0,-1,1329,1611,0,0
112,-587,0,0,0,0,0,0,0,0,0,-1,1336,1611,0,0
119,-587,0,0,0,0,0,0,0,0,0,-1,1343,1611,0,0
126,-587,0,0,0,0,0,0,0,0,0,-1,1350,1611,0,0
133,-587,0,0,0,0,0,0,0,0,0,-1,1357,1611,0,0
140,-587,0,0,0,0,0,0,0,0,0,-1,1364,1611,0,0
147,-587,0,0,0,0,0,0,0,0,0,-1,1371,1611,0,0
154,-587,0,0,0,0,0,0,0,0,0,-1,1378,1611,0,0
161,-587,0,0,0,0,0,0,0,0,0,-1,1385,1611,0,0
168,-587,0,0,0,0,0,0,0,0,0,-1,1392,1611,0,0
175,-587,0,0,0,0,0,0,0,0,0,-1,1399,1611,0,0
182,-587,0,0,0,0,0,0,0,0,0,-1,1406,1611,0,0
189,-587,0,0,0,0,0,0,0,0,0,-1,1413,1611,0,0
196,-587,0,0,0,0,0,0,0,0,0,-1,1420,1611,0,0
203,-587,0,0,0,0,0,0,0,0,0,-1,1427,1611,0,0
210,-587,0,0,0,0,0,0,0,0,0,-1,1434,1611,0,0
217,-587,0,0,0,0,0,0,0,0,0,-1,1441,1611,0,0
224,-587,0,0,0,0,0,0,0,0,0,-1,1448,1611,0,0
231,-587,0,0,0,0,0,0,0,0,0,-1,1455,1611,0,0
238,-587,0,0,0,0,0,0,0,0,0,-1,1462,1611,0,0
245,-587,0,0,0,0,0,0,0,0,0,-1,1469,1611,0,0
252,-587,0,0,0,0,0,0,0,0,0,-1,1476,1611,0,0
259,-587,0,0,0,0,0,0,0,0,0,-1,1483,1611,0,0
266,-587,0,0,0,0,0,0,0,0,0,-1,1490,1611,0,0
273,-587,10.2936,6.35083,0,0,0,0,0,0,0,-1,1497,1611,10.2936,-6.35087
280,-587,2.09204,1.1217,0,0,0,0,0,0,0,-1,1504,1611,2.092,-1.12176
287,-587,3.2865,0.671509,0,0,0,0,0,0,0,-1,1511,1611,3.28656,-0.671538
294,-587,4.24646,1.58765,0,0,0,0,0,0,0,-1,1518,1611,4.24648,-1.58761
301,-587,7.60474,8.37085,0,0,0,0,0,0,0,-1,1525,1611,7.60478,-8.37084
308,-587,5.99316,10.2291,0,0,0,0,0,0,0,-1,1532,1611,5.99315,-10.2291
315,-587,4.34558,12.3289,0,0,0,0,0,0,0,-1,1539,1611,4.34556,-12.3288
322,-587,10.4526,6.38245,0,0,0,0,0,0,0,-1,1546,1611,10.4526,-6.38245
329,-587,10.7738,8.42444,0,0,0,0,0,0,0,-1,1553,1611,10.7738,-8.42438
336,-587,7.5531,5.96619,0,0,0,0,0,0,0,-1,1560,1611,7.55311,-5.96617
343,-587,9.57495,4.38391,0,0,0,0,0,0,0,-1,1567,1611,9.57494,-4.38397
350,-587,9.50378,3.45093,0,0,0,0,0,0,0,-1,1574,1611,9.50376,-3.4509
357,-587,9.40027,2.50806,0,0,0,0,0,0,0,-1,1581,1611,9.40022,-2.50803
364,-587,9.26477,1.34131,0,0,0,0,0,0,0,-1,1588,1611,9.26479,-1.34126
371,-587,6.98926,7.87561,0,0,0,0,0,0,0,-1,1595,1611,6.98928,-7.87564
378,-587,9.25146,13.8358,0,0,0,0,0,0,0,-1,1602,1611,9.2515,-13.8359
385,-587,15.0664,38.1605,0,0,0,0,0,0,0,-1,1609,1611,15.0664,-38.1606
392,-587,17.0858,37.2079,0,0,0,0,0,0,0,-1,1616,1611,17.0858,-37.2079
399,-587,16.8505,37.1066,-0.00116173,0.0302628,-0.00415117,0.0308019,-0.00170085,-1.44165,0.0211244,0.0480042,1623,1611,16.8505,-37.1066
406,-587,16.813,37.0206,-0.00255521,0.0266596,-0.00293081,0.0269507,-0.00284632,-1.47179,0.0189872,0.0419672,1630,1611,16.813,-37.0206
413,-587,16.873,36.5234,-0.00293685,0.0247184,-0.00285256,0.0250095,-0.00322801,-1.46908,0.0178466,0.0414391,1637,1611,16.873,-36.5235
420,-587,16.8561,35.8822,-0.00306219,0.0224618,-0.00282694,0.0227712,-0.00337153,-1.4618,0.0164204,0.0378966,1644,1611,16.8561,-35.8822
427,-587,16.849,35.39,-0.002794,0.0201975,-0.002909,0.0205599,-0.00315635,-1.44687,0.0148708,0.0315476,1651,1611,16.849,-35.39
434,-587,16.901,34.6995,-0.00210351,0.0181021,-0.00319714,0.018596,-0.00259733,-1.41755,0.0133476,0.0218944,1658,1611,16.9011,-34.6995
441,-587,16.8793,34.1455,-0.00104173,0.0159248,-0.00353786,0.016633,-0.00174989,-1.37324,0.0117156,0.024968,1665,1611,16.8792,-34.1455
448,-587,16.9031,33.7268,-9.332e-05,0.0134509,-0.00358214,0.01434,-0.000982357,-1.32753,0.00990368,0.0161494,1672,1611,16.9031,-33.7267
455,-587,16.925,33.1876,0.000569955,0.0111489,-0.00372999,0.0123318,-0.000612927,-1.2637,0.00843292,0.014657,1679,1611,16.925,-33.1877
462,-587,16.9155,32.6227,0.0010259,0.00878296,-0.00348549,0.010119,-0.000310126,-1.20476,0.00685171,0.0181969,1686,1611,16.9155,-32.6227
469,-587,16.8827,32.1062,0.00125065,0.00646259,-0.00295052,0.0077932,-7.99585e-05,-1.14713,0.00522233,0.0157042,1693,1611,16.8827,-32.1062
476,-587,16.8495,31.576,0.00124676,0.00453591,-0.00236652,0.00577318,9.49274e-06,-1.08906,0.00384563,0.010111,1700,1611,16.8495,-31.576
483,-587,16.8119,31.0194,0.0011238,0.00247581,-0.00179771,0.00372042,-0.000120804,-0.965238,0.00252151,0.012196,1707,1611,16.8119,-31.0195
490,-587,16.7756,30.4854,0.000671742,0.00113538,-0.00115613,0.0020827,-0.000275581,-0.884342,0.00148886,0.0145122,1714,1611,16.7756,-30.4853
497,-587,16.759,29.9291,-0.000111342,0.000227876,-0.00057678,0.000659467,-0.000542934,-0.928398,0.000695292,0.0127582,1721,1611,16.7591,-29.9291
504,-587,16.7202,29.389,-0.00105089,-0.000714842,0.000278361,-0.000557726,-0.00120801,1.05694,0.000698127,0.0132022,1728,1611,16.7202,-29.3891
511,-587,16.7043,28.848,-0.00211129,-0.00187581,0.00134911,-0.000639314,-0.00334778,0.828925,0.00205222,0.015708,1735,1611,16.7043,-28.848
518,-587,16.7277,28.2808,-0.0030897,-0.00279393,0.0023797,-0.000557519,-0.00532611,0.816431,0.00338026,0.0158988,1742,1611,16.7276,-28.2808
525,-587,16.756,27.795,-0.0042399,-0.00412565,0.00381561,-0.000366733,-0.00799882,0.792884,0.0052146,0.0271577,1749,1611,16.756,-27.795
532,-587,16.6945,27.2042,0,0,0,0,0,0,0,-1,1756,1611,16.6944,-27.2042
539,-587,17.1183,26.3331,0,0,0,0,0,0,0,-1,1763,1611,17.1183,-26.3331
546,-587,17.6716,25.2673,0,0,0,0,0,0,0,-1,1770,1611,17.6716,-25.2674
553,-587,7.5813,8.45068,0,0,0,0,0,0,0,-1,1777,1611,7.58125,-8.45068
560,-587,4.21179,5.23547,0,0,0,0,0,0,0,-1,1784,1611,4.21185,-5.23553
567,-587,4.03711,5.46387,0,0,0,0,0,0,0,-1,1791,1611,4.03715,-5.46382
574,-587,3.83142,5.68884,0,0,0,0,0,0,0,-1,1798,1611,3.83141,-5.68881
581,-587,3.47168,6.00977,0,0,0,0,0,0,0,-1,1805,1611,3.47167,-6.00983
588,-587,0,0,0,0,0,0,0,0,0,-1,1812,1611,0,0
595,-587,0,0,0,0,0,0,0,0,0,-1,1819,1611,0,0
602,-587,0,0,0,0,0,0,0,0,0,-1,1826,1611,0,0
609,-587,0,0,0,0,0,0,0,0,0,-1,1833,1611,0,0
616,-587,0,0,0,0,0,0,0,0,0,-1,1840,1611,0,0
623,-587,0,0,0,0,0,0,0,0,0,-1,1847,1611,0,0
630,-587,0,0,0,0,0,0,0,0,0,-1,1854,1611,0,0
637,-587,0,0,0,0,0,0,0,0,0,-1,1861,1611,0,0
644,-587,0,0,0,0,0,0,0,0,0,-1,1868,1611,0,0
651,-587,0,0,0,0,0,0,0,0,0,-1,1875,1611,0,0
658,-587,0,0,0,0,0,0,0,0,0,-1,1882,1611,0,0
665,-587,0,0,0,0,0,0,0,0,0,-1,1889,1611,0,0
672,-587,0,0,0,0,0,0,0,0,0,-1,1896,1611,0,0
679,-587,0,0,0,0,0,0,0,0,0,-1,1903,1611,0,0
686,-587,0,0,0,0,0,0,0,0,0,-1,1910,1611,0,0
693,-587,0,0,0,0,0,0,0,0,0,-1,1917,1611,0,0
700,-587,0,0,0,0,0,0,0,0,0,-1,1924,1611,0,0
707,-587,0,0,0,0,0,0,0,0,0,-1,1931,1611,0,0
714,-587,0,0,0,0,0,0,0,0,0,-1,1938,1611,0,0
721,-587,0,0,0,0,0,0,0,0,0,-1,1945,1611,0,0
728,-587,0,0,0,0,0,0,0,0,0,-1,1952,1611,0,0
735,-587,0,0,0,0,0,0,0,0,0,-1,1959,1611,0,0
742,-587,0,0,0,0,0,0,0,0,0,-1,1966,1611,0,0
749,-587,0,0,0,0,0,0,0,0,0,-1,1973,1611,0,0
756,-587,0,0,0,0,0,0,0,0,0,-1,1980,1611,0,0
763,-587,0,0,0,0,0,0,0,0,0,-1,1987,1611,0,0
770,-587,0,0,0,0,0,0,0,0,0,-1,1994,1611,0,0
777,-587,0,0,0,0,0,0,0,0,0,-1,2001,1611,0,0
784,-587,0,0,0,0,0,0,0,0,0,-1,2008,1611,0,0
791,-587,0,0,0,0,0,0,0,0,0,-1,2015,1611,0,0
798,-587,0,0,0,0,0,0,0,0,0,-1,2022,1611,0,0
805,-587,0,0,0,0,0,0,0,0,0,-1,2029,1611,0,0
812,-587,0,0,0,0,0,0,0,0,0,-1,2036,1611,0,0
-700,-594,0,0,0,0,0,0,0,0,0,-1,524,1618,0,0
-693,-594,0,0,0,0,0,0,0,0,0,-1,531,1618,0,0
-686,-594,0,0,0,0,0,0,0,0,0,-1,538,1618,0,0
-679,-594,0,0,0,0,0,0,0,0,0,-1,545,1618,0,0
-672,-594,0,0,0,0,0,0,0,0,0,-1,552,1618,0,0
-665,-594,0,0,0,0,0,0,0,0,0,-1,559,1618,0,0
-658,-594,0,0,0,0,0,0,0,0,0,-1,566,1618,0,0
-651,-594,0,0,0,0,0,0,0,0,0,-1,573,1618,0,0
-644,-594,0,0,0,0,0,0,0,0,0,-1,580,1618,0,0
-637,-594,0,0,0,0,0,0,0,0,0,-1,587,1618,0,0
-630,-594,0,0,0,0,0,0,0,0,0,-1,594,1618,0,0
-623,-594,0,0,0,0,0,0,0,0,0,-1,601,1618,0,0
-616,-594,0,0,0,0,0,0,0,0,0,-1,608,1618,0,0
-609,-594,0,0,0,0,0,0,0,0,0,-1,615,1618,0,0
-602,-594,0,0,0,0,0,0,0,0,0,-1,622,1618,0,0
-595,-594,0,0,0,0,0,0,0,0,0,-1,629,1618,0,0
-588,-594,0,0,0,0,0,0,0,0,0,-1,636,1618,0,0
-581,-594,0,0,0,0,0,0,0,0,0,-1,643,1618,0,0
-574,-594,0,0,0,0,0,0,0,0,0,-1,650,1618,0,0
-567,-594,0,0,0,0,0,0,0,0,0,-1,657,1618,0,0
-560,-594,0,0,0,0,0,0,0,0,0,-1,664,1618,0,0
-553,-594,0,0,0,0,0,0,0,0,0,-1,671,1618,0,0
-546,-594,0,0,0,0,0,0,0,0,0,-1,678,1618,0,0
-539,-594,0,0,0,0,0,0,0,0,0,-1,685,1618,0,0
-532,-594,0,0,0,0,0,0,0,0,0,-1,692,1618,0,0
-525,-594,0,0,0,0,0,0,0,0,0,-1,699,1618,0,0
-518,-594,0,0,0,0,0,0,0,0,0,-1,706,1618,0,0
-511,-594,0,0,0,0,0,0,0,0,0,-1,713,1618,0,0
-504,-594,0,0,0,0,0,0,0,0,0,-1,720,1618,0,0
-497,-594,0,0,0,0,0,0,0,0,0,-1,727,1618,0,0
-490,-594,0,0,0,0,0,0,0,0,0,-1,734,1618,0,0
-483,-594,0,0,0,0,0,0,0,0,0,-1,741,1618,0,0
-476,-594,0,0,0,0,0,0,0,0,0,-1,748,1618,0,0
-469,-594,0,0,0,0,0,0,0,0,0,-1,755,1618,0,0
-462,-594,0,0,0,0,0,0,0,0,0,-1,762,1618,0,0
-455,-594,-0.509216,-1.58411,0,0,0,0,0,0,0,-1,769,1618,-0.509245,1.58415
-448,-594,-7.71887,-0.0559082,0,0,0,0,0,0,0,-1,776,1618,-7.71885,0.055939
-441,-594,-5.78473,1.18298,0,0,0,0,0,0,0,-1,783,1618,-5.78474,-1.18295
-434,-594,-3.93628,3.06213,0,0,0,0,0,0,0,-1,790,1618,-3.93631,-3.06208
-427,-594,-3.97693,6.77759,0,0,0,0,0,0,0,-1,797,1618,-3.97695,-6.77764
-420,-594,-2.53046,7.71606,0,0,0,0,0,0,0,-1,804,1618,-2.53047,-7.71609
-413,-594,-0.860413,8.00391,0,0,0,0,0,0,0,-1,811,1618,-0.860423,-8.00389
-406,-594,2.45746,13.6218,0,0,0,0,0,0,0,-1,818,1618,2.45747,-13.6218
-399,-594,1.30414,24.9963,0,0,0,0,0,0,0,-1,825,1618,1.30415,-24.9963
-392,-594,1.5788,27.2386,0,0,0,0,0,0,0,-1,832,1618,1.57882,-27.2387
-385,-594,1.42328,27.7047,-0.00560305,-0.0048579,-0.00227131,-0.00292881,-0.00753214,-0.866691,0.00438436,0.0377755,839,1618,1.42331,-27.7047
-378,-594,1.26801,28.1555,-0.00443846,-0.00396398,-0.00163874,-0.0025454,-0.00585704,-0.857285,0.0033912,0.0165627,846,1618,1.26801,-28.1556
-371,-594,1.29279,28.7911,-0.00344802,-0.00331915,-0.00115631,-0.00222548,-0.00454169,-0.813232,0.00262232,0.012564,853,1618,1.29281,-28.7912
-364,-594,1.29742,29.3506,-0.00243484,-0.00260137,-0.000639472,-0.00187323,-0.00316297,-0.720658,0.00183647,0.0111534,860,1618,1.2974,-29.3506
-357,-594,1.26086,29.9172,-0.00143771,-0.00179462,-0.000163789,-0.00137394,-0.00185839,-0.371286,0.00111315,0.0105021,867,1618,1.26088,-29.9173
-350,-594,1.22845,30.5322,-0.000458848,-0.00101046,0.000271943,-0.000347327,-0.00112198,0.389174,0.00066325,0.0153972,874,1618,1.22848,-30.5323
-343,-594,1.20044,31.1123,0.000402981,-0.000114679,0.000727151,0.000915993,-0.000627692,0.614415,0.000896413,0.0183061,881,1618,1.20042,-31.1123
-336,-594,1.16022,31.6487,0.00117369,0.000928619,0.00121629,0.0022736,-0.000171292,0.735195,0.00157594,0.0157801,888,1618,1.16022,-31.6486
-329,-594,1.14423,32.2267,0.00190433,0.0020692,0.00164919,0.00363801,0.000335522,0.81037,0.0023216,0.0157372,895,1618,1.14423,-32.2267
-322,-594,1.16174,32.8206,0.00263297,0.0032748,0.00219546,0.00517267,0.000735095,0.857971,0.00323141,0.0163684,902,1618,1.16176,-32.8206
-315,-594,1.16199,33.3477,0.00340943,0.0049196,0.00296724,0.00722632,0.0011027,0.90999,0.00449529,0.0163338,909,1618,1.16197,-33.3477
-308,-594,1.1463,33.8812,0.00416252,0.00653754,0.0037539,0.00928729,0.00141278,0.938588,0.00577846,0.0151714,916,1618,1.1463,-33.8812
-301,-594,1.12238,34.4053,0.00518916,0.00835021,0.00480511,0.0118281,0.00171131,0.944288,0.00738136,0.0120146,923,1618,1.12235,-34.4052
-294,-594,1.1438,34.9357,0.0065362,0.0104953,0.00629079,0.0151106,0.00192084,0.937829,0.00949843,0.0144626,930,1618,1.14377,-34.9357
-287,-594,1.07104,35.464,0.00797964,0.0132293,0.00800299,0.0190269,0.00218204,0.943862,0.0120235,0.0242059,937,1618,1.07107,-35.464
-280,-594,1.07239,36.076,0,0,0,0,0,0,0,-1,944,1618,1.07241,-36.076
-273,-594,1.2486,36.7612,0.0121013,0.019416,0.0125465,0.0288274,0.00268996,0.92722,0.0183873,0.0335458,951,1618,1.24861,-36.7612
-266,-594,1.42975,37.5599,0.0144996,0.0226911,0.0151063,0.034247,0.00294363,0.91778,0.0219161,0.0402855,958,1618,1.42978,-37.56
-259,-594,1.50714,38.1824,0,0,0,0,0,0,0,-1,965,1618,1.50712,-38.1824
-252,-594,1.888,38.9482,0,0,0,0,0,0,0,-1,972,1618,1.88798,-38.9482
-245,-594,2.27759,35.1766,0,0,0,0,0,0,0,-1,979,1618,2.27756,-35.1766
-238,-594,2.09015,28.0121,0,0,0,0,0,0,0,-1,986,1618,2.09012,-28.0121
-231,-594,1.93774,9.35388,0,0,0,0,0,0,0,-1,993,1618,1.93776,-9.35393
-224,-594,1.81824,8.62744,0,0,0,0,0,0,0,-1,1000,1618,1.81822,-8.62745
-217,-594,-8.24066,12.0752,0,0,0,0,0,0,0,-1,1007,1618,-8.24068,-12.0751
-210,-594,-5.61438,14.2119,0,0,0,0,0,0,0,-1,1014,1618,-5.6144,-14.212
-203,-594,-3.94507,15.5768,0,0,0,0,0,0,0,-1,1021,1618,-3.94506,-15.5768
-196,-594,2.78613,10.5815,0,0,0,0,0,0,0,-1,1028,1618,2.78612,-10.5815
-189,-594,2.60913,9.48865,0,0,0,0,0,0,0,-1,1035,1618,2.6091,-9.48871
-182,-594,1.2395,9.38806,0,0,0,0,0,0,0,-1,1042,1618,1.23951,-9.38804
-175,-594,0.234863,8.73792,0,0,0,0,0,0,0,-1,1049,1618,0.234812,-8.73786
-168,-594,-0.495483,8.46289,0,0,0,0,0,0,0,-1,1056,1618,-0.495513,-8.46285
-161,-594,-1.39734,8.28699,0,0,0,0,0,0,0,-1,1063,1618,-1.39729,-8.28699
-154,-594,-0.000854492,7.68445,0,0,0,0,0,0,0,-1,1070,1618,-0.000805755,-7.6845
-147,-594,0.348267,9.3385,0,0,0,0,0,0,0,-1,1077,1618,0.348237,-9.33849
-140,-594,0.675171,11.5884,0,0,0,0,0,0,0,-1,1084,1618,0.675204,-11.5884
-133,-594,0,0,0,0,0,0,0,0,0,-1,1091,1618,0,0
-126,-594,0,0,0,0,0,0,0,0,0,-1,1098,1618,0,0
-119,-594,0,0,0,0,0,0,0,0,0,-1,1105,1618,0,0
-112,-594,0,0,0,0,0,0,0,0,0,-1,1112,1618,0,0
-105,-594,0,0,0,0,0,0,0,0,0,-1,1119,1618,0,0
-98,-594,0,0,0,0,0,0,0,0,0,-1,1126,1618,0,0
-91,-594,0,0,0,0,0,0,0,0,0,-1,1133,1618,0,0
-84,-594,0,0,0,0,0,0,0,0,0,-1,1140,1618,0,0
-77,-594,0,0,0,0,0,0,0,0,0,-1,1147,1618,0,0
-70,-594,0,0,0,0,0,0,0,0,0,-1,1154,1618,0,0
-63,-594,0,0,0,0,0,0,0,0,0,-1,1161,1618,0,0
-56,-594,0,0,0,0,0,0,0,0,0,-1,1168,1618,0,0
-49,-594,0,0,0,0,0,0,0,0,0,-1,1175,1618,0,0
-42,-594,0,0,0,0,0,0,0,0,0,-1,1182,1618,0,0
-35,-594,0,0,0,0,0,0,0,0,0,-1,1189,1618,0,0
-28,-594,0,0,0,0,0,0,0,0,0,-1,1196,1618,0,0
-21,-594,0,0,0,0,0,0,0,0,0,-1,1203,1618,0,0
-14,-594,0,0,0,0,0,0,0,0,0,-1,1210,1618,0,0
-7,-594,0,0,0,0,0,0,0,0,0,-1,1217,1618,0,0
0,-594,0,0,0,0,0,0,0,0,0,-1,1224,1618,0,0
7,-594,0,0,0,0,0,0,0,0,0,-1,1231,1618,0,0
14,-594,0,0,0,0,0,0,0,0,0,-1,1238,1618,0,0
21,-594,0,0,0,0,0,0,0,0,0,-1,1245,1618,0,0
28,-594,0,0,0,0,0,0,0,0,0,-1,1252,1618,0,0
35,-594,0,0,0,0,0,0,0,0,0,-1,1259,1618,0,0
42,-594,0,0,0,0,0,0,0,0,0,-1,1266,1618,0,0
49,-594,0,0,0,0,0,0,0,0,0,-1,1273,1618,0,0
56,-594,0,0,0,0,0,0,0,0,0,-1,1280,1618,0,0
63,-594,0,0,0,0,0,0,0,0,0,-1,1287,1618,0,0
70,-594,0,0,0,0,0,0,0,0,0,-1,1294,1618,0,0
77,-594,0,0,0,0,0,0,0,0,0,-1,1301,1618,0,0
84,-594,0,0,0,0,0,0,0,0,0,-1,1308,1618,0,0
91,-594,0,0,0,0,0,0,0,0,0,-1,1315,1618,0,0
98,-594,0,0,0,0,0,0,0,0,0,-1,1322,1618,0,0
105,-594,0,0,0,0,0,0,0,0,0,-1,1329,1618,0,0
112,-594,0,0,0,0,0,0,0,0,0,-1,1336,1618,0,0
119,-594,0,0,0,0,0,0,0,0,0,-1,1343,1618,0,0
126,-594,0,0,0,0,0,0,0,0,0,-1,1350,1618,0,0
133,-594,0,0,0,0,0,0,0,0,0,-1,1357,1618,0,0
140,-594,0,0,0,0,0,0,0,0,0,-1,1364,1618,0,0
147,-594,0,0,0,0,0,0,0,0,0,-1,1371,1618,0,0
154,-594,0,0,0,0,0,0,0,0,0,-1,1378,1618,0,0
161,-594,0,0,0,0,0,0,0,0,0,-1,1385,1618,0,0
168,-594,0,0,0,0,0,0,0,0,0,-1,1392,1618,0,0
175,-594,0,0,0,0,0,0,0,0,0,-1,1399,1618,0,0
182,-594,0,0,0,0,0,0,0,0,0,-1,1406,1618,0,0
189,-594,0,0,0,0,0,0,0,0,0,-1,1413,1618,0,0
196,-594,0,0,0,0,0,0,0,0,0,-1,1420,1618,0,0
203,-594,0,0,0,0,0,0,0,0,0,-1,1427,1618,0,0
210,-594,0,0,0,0,0,0,0,0,0,-1,1434,1618,0,0
217,-594,0,0,0,0,0,0,0,0,0,-1,1441,1618,0,0
224,-594,0,0,0,0,0,0,0,0,0,-1,1448,1618,0,0
231,-594,0,0,0,0,0,0,0,0,0,-1,1455,1618,0,0
238,-594,0,0,0,0,0,0,0,0,0,-1,1462,1618,0,0
245,-594,0,0,0,0,0,0,0,0,0,-1,1469,1618,0,0
252,-594,3.03674,1.20996,0,0,0,0,0,0,0,-1,1476,1618,3.0368,-1.20999
259,-594,4.79834,1.53113,0,0,0,0,0,0,0,-1,1483,1618,4.79837,-1.53118
266,-594,3.71606,2.68152,0,0,0,0,0,0,0,-1,1490,1618,3.71609,-2.68149
273,-594,9.7655,6.33557,0,0,0,0,0,0,0,-1,1497,1618,9.76555,-6.33554
280,-594,3.13281,0.911255,0,0,0,0,0,0,0,-1,1504,1618,3.13277,-0.911207
287,-594,4.42749,1.51563,0,0,0,0,0,0,0,-1,1511,1618,4.42747,-1.51564
294,-594,5.36475,3.34937,0,0,0,0,0,0,0,-1,1518,1618,5.36475,-3.3494
301,-594,7.97144,9.04333,0,0,0,0,0,0,0,-1,1525,1618,7.9714,-9.04328
308,-594,6.30347,10.4633,0,0,0,0,0,0,0,-1,1532,1618,6.30351,-10.4633
315,-594,4.62012,11.934,0,0,0,0,0,0,0,-1,1539,1618,4.62006,-11.934
322,-594,2.91528,13.3134,0,0,0,0,0,0,0,-1,1546,1618,2.91523,-13.3133
329,-594,4.19861,9.77258,0,0,0,0,0,0,0,-1,1553,1618,4.19865,-9.77264
336,-594,10.1353,4.66528,0,0,0,0,0,0,0,-1,1560,1618,10.1353,-4.66533
343,-594,10.5729,3.71228,0,0,0,0,0,0,0,-1,1567,1618,10.5729,-3.71232
350,-594,10.219,2.98792,0,0,0,0,0,0,0,-1,1574,1618,10.219,-2.98797
357,-594,9.83154,1.96326,0,0,0,0,0,0,0,-1,1581,1618,9.8315,-1.96321
364,-594,9.74939,0.700562,0,0,0,0,0,0,0,-1,1588,1618,9.74939,-0.700615
371,-594,8.54297,14.3988,0,0,0,0,0,0,0,-1,1595,1618,8.54296,-14.3989
378,-594,16.1564,39.1158,0,0,0,0,0,0,0,-1,1602,1618,16.1563,-39.1158
385,-594,16.3838,38.2292,0,0,0,0,0,0,0,-1,1609,1618,16.3838,-38.2292
392,-594,16.2637,37.5784,0,0,0,0,0,0,0,-1,1616,1618,16.2636,-37.5783
399,-594,16.3903,37.2577,0.00131787,0.0250474,-0.00467247,0.0259343,0.000430983,-1.38322,0.0171477,0.0385895,1623,1618,16.3903,-37.2576
406,-594,16.4047,36.9216,-8.61945e-05,0.0212669,-0.00316014,0.0217248,-0.000544061,-1.42691,0.0146679,0.026452,1630,1618,16.4046,-36.9216
413,-594,16.4467,36.4167,-0.000773514,0.0190982,-0.00260941,0.0194352,-0.00111045,-1.44238,0.0133423,0.0194273,1637,1618,16.4466,-36.4168
420,-594,16.4313,35.9026,-0.00127032,0.016912,-0.00221827,0.0171787,-0.00153704,-1.45113,0.0119977,0.0168421,1644,1618,16.4313,-35.9026
427,-594,16.4293,35.349,-0.00139981,0.0148967,-0.00206013,0.0151531,-0.00165621,-1.44698,0.0106969,0.0134281,1651,1618,16.4293,-35.349
434,-594,16.38,34.8223,-0.00108868,0.0132443,-0.00222391,0.0135814,-0.00142582,-1.42035,0.00956502,0.0182366,1658,1618,16.38,-34.8223
441,-594,16.3381,34.2676,-0.000435906,0.0116156,-0.00255006,0.0121329,-0.000953281,-1.37063,0.00842438,0.0163464,1665,1618,16.3381,-34.2676
448,-594,16.3757,33.7404,0.000129277,0.00969177,-0.00261981,0.0103625,-0.000541423,-1.32017,0.00709568,0.0164154,1672,1618,16.3758,-33.7404
455,-594,16.3575,33.1841,0.000527549,0.00787079,-0.00276325,0.00879442,-0.00039608,-1.24822,0.00599934,0.0127671,1679,1618,16.3576,-33.1841
462,-594,16.3569,32.6515,0.000779684,0.00593388,-0.00259768,0.00701594,-0.000302371,-1.17611,0.00478127,0.014417,1686,1618,16.3569,-32.6515
469,-594,16.3236,32.1479,0.000863276,0.00406752,-0.00221187,0.00519655,-0.000265751,-1.09883,0.00355626,0.0130554,1693,1618,16.3236,-32.148
476,-594,16.3009,31.6241,0.00076449,0.00254976,-0.00175964,0.00363023,-0.000315973,-1.02013,0.00253206,0.0126454,1700,1618,16.3009,-31.6241
483,-594,16.3119,31.075,0.000460201,0.00100746,-0.00129547,0.00205788,-0.000590219,-0.889479,0.00160525,0.0147034,1707,1618,16.3119,-31.075
490,-594,16.2684,30.4982,-0.000111018,2.48849e-05,-0.000786141,0.000746006,-0.000832139,-0.828509,0.000911595,0.012857,1714,1618,16.2685,-30.4982
497,-594,16.2338,29.9396,-0.000849588,-0.000758099,-0.000290815,-0.000509452,-0.00109823,-0.863408,0.000634617,0.0106038,1721,1618,16.2337,-29.9395
504,-594,16.2047,29.3955,-0.00176046,-0.00145883,0.00049009,-0.00109688,-0.00212241,0.934663,0.00122561,0.0112018,1728,1618,16.2047,-29.3955
511,-594,16.193,28.8269,-0.00281894,-0.00247886,0.00153559,-0.00110392,-0.00419388,0.84054,0.00251021,0.0164567,1735,1618,16.1929,-28.8269
518,-594,16.132,28.2506,-0.00380017,-0.00322157,0.00257397,-0.000920689,-0.00610105,0.84136,0.00379785,0.0236283,1742,1618,16.1319,-28.2506
525,-594,16.068,27.6495,-0.00500568,-0.00456445,0.00415775,-0.000621465,-0.00894866,0.811904,0.00576979,0.0408322,1749,1618,16.068,-27.6495
532,-594,16.113,27.0599,0,0,0,0,0,0,0,-1,1756,1618,16.113,-27.0599
539,-594,19.1785,24.6809,0,0,0,0,0,0,0,-1,1763,1618,19.1785,-24.681
546,-594,7.48645,8.54785,0,0,0,0,0,0,0,-1,1770,1618,7.48639,-8.54789
553,-594,3.69714,5.68762,0,0,0,0,0,0,0,-1,1777,1618,3.69715,-5.68764
560,-594,6.06616,4.44482,0,0,0,0,0,0,0,-1,1784,1618,6.06621,-4.44477
567,-594,5.97266,4.73303,0,0,0,0,0,0,0,-1,1791,1618,5.97271,-4.73309
574,-594,5.9906,4.96326,0,0,0,0,0,0,0,-1,1798,1618,5.99065,-4.96326
581,-594,0,0,0,0,0,0,0,0,0,-1,1805,1618,0,0
588,-594,0,0,0,0,0,0,0,0,0,-1,1812,1618,0,0
595,-594,0,0,0,0,0,0,0,0,0,-1,1819,1618,0,0
602,-594,0,0,0,0,0,0,0,0,0,-1,1826,1618,0,0
609,-594,0,0,0,0,0,0,0,0,0,-1,1833,1618,0,0
616,-594,0,0,0,0,0,0,0,0,0,-1,1840,1618,0,0
623,-594,0,0,0,0,0,0,0,0,0,-1,1847,1618,0,0
630,-594,0,0,0,0,0,0,0,0,0,-1,1854,1618,0,0
637,-594,0,0,0,0,0,0,0,0,0,-1,1861,1618,0,0
644,-594,0,0,0,0,0,0,0,0,0,-1,1868,1618,0,0
651,-594,0,0,0,0,0,0,0,0,0,-1,1875,1618,0,0
658,-594,0,0,0,0,0,0,0,0,0,-1,1882,1618,0,0
665,-594,0,0,0,0,0,0,0,0,0,-1,1889,1618,0,0
672,-594,0,0,0,0,0,0,0,0,0,-1,1896,1618,0,0
679,-594,0,0,0,0,0,0,0,0,0,-1,1903,1618,0,0
686,-594,0,0,0,0,0,0,0,0,0,-1,1910,1618,0,0
693,-594,0,0,0,0,0,0,0,0,0,-1,1917,1618,0,0
700,-594,0,0,0,0,0,0,0,0,0,-1,1924,1618,0,0
707,-594,0,0,0,0,0,0,0,0,0,-1,1931,1618,0,0
714,-594,0,0,0,0,0,0,0,0,0,-1,1938,1618,0,0
721,-594,0,0,0,0,0,0,0,0,0,-1,1945,1618,0,0
728,-594,0,0,0,0,0,0,0,0,0,-1,1952,1618,0,0
735,-594,0,0,0,0,0,0,0,0,0,-1,1959,1618,0,0
742,-594,0,0,0,0,0,0,0,0,0,-1,1966,1618,0,0
749,-594,0,0,0,0,0,0,0,0,0,-1,1973,1618,0,0
756,-594,0,0,0,0,0,0,0,0,0,-1,1980,1618,0,0
763,-594,0,0,0,0,0,0,0,0,0,-1,1987,1618,0,0
770,-594,0,0,0,0,0,0,0,0,0,-1,1994,1618,0,0
777,-594,0,0,0,0,0,0,0,0,0,-1,2001,1618,0,0
784,-594,0,0,0,0,0,0,0,0,0,-1,2008,1618,0,0
791,-594,0,0,0,0,0,0,0,0,0,-1,2015,1618,0,0
798,-594,0,0,0,0,0,0,0,0,0,-1,2022,1618,0,0
805,-594,0,0,0,0,0,0,0,0,0,-1,2029,1618,0,0
812,-594,0,0,0,0,0,0,0,0,0,-1,2036,1618,0,0
-700,-601,0,0,0,0,0,0,0,0,0,-1,524,1625,0,0
-693,-601,0,0,0,0,0,0,0,0,0,-1,531,1625,0,0
-686,-601,0,0,0,0,0,0,0,0,0,-1,538,1625,0,0
-679,-601,0,0,0,0,0,0,0,0,0,-1,545,1625,0,0
-672,-601,0,0,0,0,0,0,0,0,0,-1,552,1625,0,0
-665,-601,0,0,0,0,0,0,0,0,0,-1,559,1625,0,0
-658,-601,0,0,0,0,0,0,0,0,0,-1,566,1625,0,0
-651,-601,0,0,0,0,0,0,0,0,0,-1,573,1625,0,0
-644,-601,0,0,0,0,0,0,0,0,0,-1,580,1625,0,0
-637,-601,0,0,0,0,0,0,0,0,0,-1,587,1625,0,0
-630,-601,0,0,0,0,0,0,0,0,0,-1,594,1625,0,0
-623,-601,0,0,0,0,0,0,0,0,0,-1,601,1625,0,0
-616,-601,0,0,0,0,0,0,0,0,0,-1,608,1625,0,0
-609,-601,0,0,0,0,0,0,0,0,0,-1,615,1625,0,0
-602,-601,0,0,0,0,0,0,0,0,0,-1,622,1625,0,0
-595,-601,0,0,0,0,0,0,0,0,0,-1,629,1625,0,0
-588,-601,0,0,0,0,0,0,0,0,0,-1,636,1625,0,0
-581,-601,0,0,0,0,0,0,0,0,0,-1,643,1625,0,0
-574,-601,0,0,0,0,0,0,0,0,0,-1,650,1625,0,0
-567,-601,0,0,0,0,0,0,0,0,0,-1,657,1625,0,0
-560,-601,0,0,0,0,0,0,0,0,0,-1,664,1625,0,0
-553,-601,0,0,0,0,0,0,0,0,0,-1,671,1625,0,0
-546,-601,0,0,0,0,0,0,0,0,0,-1,678,1625,0,0
-539,-601,0,0,0,0,0,0,0,0,0,-1,685,1625,0,0
-532,-601,0,0,0,0,0,0,0,0,0,-1,692,1625,0,0
-525,-601,0,0,0,0,0,0,0,0,0,-1,699,1625,0,0
-518,-601,0,0,0,0,0,0,0,0,0,-1,706,1625,0,0
-511,-601,0,0,0,0,0,0,0,0,0,-1,713,1625,0,0
-504,-601,0,0,0,0,0,0,0,0,0,-1,720,1625,0,0
-497,-601,0,0,0,0,0,0,0,0,0,-1,727,1625,0,0
-490,-601,0,0,0,0,0,0,0,0,0,-1,734,1625,0,0
-483,-601,0,0,0,0,0,0,0,0,0,-1,741,1625,0,0
-476,-601,0,0,0,0,0,0,0,0,0,-1,748,1625,0,0
-469,-601,0,0,0,0,0,0,0,0,0,-1,755,1625,0,0
-462,-601,0,0,0,0,0,0,0,0,0,-1,762,1625,0,0
-455,-601,0,0,0,0,0,0,0,0,0,-1,769,1625,0,0
-448,-601,-7.07623,2.7616,0,0,0,0,0,0,0,-1,776,1625,-7.07626,-2.76161
-441,-601,-6.06689,3.33447,0,0,0,0,0,0,0,-1,783,1625,-6.06691,-3.33448
-434,-601,-5.02655,3.8468,0,0,0,0,0,0,0,-1,790,1625,-5.02657,-3.84674
-427,-601,-5.78601,4.2406,0,0,0,0,0,0,0,-1,797,1625,-5.786,-4.24058
-420,-601,-5.5191,5.60364,0,0,0,0,0,0,0,-1,804,1625,-5.51907,-5.60368
-413,-601,-4.30756,5.86047,0,0,0,0,0,0,0,-1,811,1625,-4.30757,-5.86046
-406,-601,-1.67493,7.20422,0,0,0,0,0,0,0,-1,818,1625,-1.67493,-7.20428
-399,-601,1.40094,15.3108,0,0,0,0,0,0,0,-1,825,1625,1.40096,-15.3107
-392,-601,2.02075,27.3643,0,0,0,0,0,0,0,-1,832,1625,2.02074,-27.3642
-385,-601,2.05194,27.8942,-0.00689184,-0.0065672,-0.00312105,-0.00360425,-0.00985478,-0.811379,0.00575763,0.0498778,839,1625,2.05192,-27.8941
-378,-601,1.97522,28.2826,-0.00514822,-0.00501391,-0.00189919,-0.00318069,-0.00698145,-0.803071,0.00403603,0.0445938,846,1625,1.97524,-28.2826
-371,-601,1.8869,28.7506,-0.00391755,-0.00410285,-0.00116914,-0.00283739,-0.005183,-0.745857,0.0029969,0.0251477,853,1625,1.88691,-28.7506
-364,-601,1.86316,29.3458,-0.00280724,-0.00321486,-0.000504937,-0.00246653,-0.00355557,-0.593577,0.00210353,0.0137813,860,1625,1.86317,-29.3458
-357,-601,1.80328,29.9631,-0.00172068,-0.00229222,6.41024e-05,-0.00171358,-0.00229933,0.110331,0.00137972,0.0104071,867,1625,1.80331,-29.9632
-350,-601,1.81854,30.6017,-0.000749511,-0.0014417,0.000532796,-0.000460269,-0.00173094,0.497357,0.00103523,0.0208051,874,1625,1.81857,-30.6017
-343,-601,1.75244,31.1797,7.6595e-05,-0.000556708,0.000944171,0.000755798,-0.00123591,0.623605,0.001161,0.0231029,881,1625,1.75242,-31.1796
-336,-601,1.68463,31.7245,0.000807418,0.000347445,0.001334,0.00193111,-0.000776252,0.700036,0.0016098,0.0204119,888,1625,1.68461,-31.7244
-329,-601,1.68793,32.2886,0.00143648,0.00138635,0.0016557,0.0030673,-0.000244476,0.77783,0.00213104,0.017214,895,1625,1.6879,-32.2886
-322,-601,1.70453,32.8311,0.00197784,0.00237523,0.00199674,0.00418314,0.000169932,0.83499,0.00273388,0.0126905,902,1625,1.70452,-32.8311
-315,-601,1.70782,33.3496,0.00252369,0.00364566,0.00246637,0.00561405,0.000555308,0.897222,0.00357201,0.0129186,909,1625,1.70785,-33.3496
-308,-601,1.68127,33.8867,0.00305542,0.00490562,0.00292041,0.00704395,0.000917095,0.938784,0.00442208,0.0121293,916,1625,1.68127,-33.8867
-301,-601,1.6756,34.4287,0.00383736,0.00630323,0.00360853,0.00888364,0.00125695,0.950016,0.00555108,0.0102196,923,1625,1.67558,-34.4287
-294,-601,1.6543,34.9589,0.00490876,0.00793171,0.00465705,0.0113164,0.00152404,0.942313,0.00709107,0.01012,930,1625,1.65427,-34.9588
-287,-601,1.59747,35.5134,0.00602521,0.00998531,0.00581817,0.0141511,0.00185939,0.949411,0.00887942,0.0110191,937,1625,1.59746,-35.5134
-280,-601,1.61279,36.0586,0.00750337,0.0121572,0.00728079,0.0174739,0.0021867,0.940067,0.0109931,0.0144626,944,1625,1.6128,-36.0586
-273,-601,1.63806,36.6311,0.00940387,0.0145706,0.00910714,0.0214537,0.00252079,0.923601,0.0135407,0.0157346,951,1625,1.63803,-36.6311
-266,-601,1.69629,37.1792,0.0113082,0.0169475,0.0109489,0.025434,0.00282175,0.911424,0.0160981,0.0186663,958,1625,1.69631,-37.1792
-259,-601,1.80859,37.629,0,0,0,0,0,0,0,-1,965,1625,1.80857,-37.629
-252,-601,2.15308,38.6415,0,0,0,0,0,0,0,-1,972,1625,2.15307,-38.6414
-245,-601,2.45776,38.9388,0,0,0,0,0,0,0,-1,979,1625,2.45774,-38.9389
-238,-601,2.75482,35.777,0,0,0,0,0,0,0,-1,986,1625,2.75481,-35.777
-231,-601,2.66772,13.7051,0,0,0,0,0,0,0,-1,993,1625,2.6677,-13.7051
-224,-601,-0.0305176,9.13684,0,0,0,0,0,0,0,-1,1000,1625,-0.030498,-9.13681
-217,-601,3.39429,10.3898,0,0,0,0,0,0,0,-1,1007,1625,3.39431,-10.3898
-210,-601,-6.53699,15.7931,0,0,0,0,0,0,0,-1,1014,1625,-6.53697,-15.7931
-203,-601,2.69348,15.9099,0,0,0,0,0,0,0,-1,1021,1625,2.69351,-15.91
-196,-601,2.66992,16.1815,0,0,0,0,0,0,0,-1,1028,1625,2.66995,-16.1815
-189,-601,2.849,16.6105,0,0,0,0,0,0,0,-1,1035,1625,2.84902,-16.6104
-182,-601,1.82153,13.9752,0,0,0,0,0,0,0,-1,1042,1625,1.82155,-13.9752
-175,-601,0.544922,9.28687,0,0,0,0,0,0,0,-1,1049,1625,0.544879,-9.28685
-168,-601,-0.247559,8.97461,0,0,0,0,0,0,0,-1,1056,1625,-0.247598,-8.97466
-161,-601,-1.16833,8.80078,0,0,0,0,0,0,0,-1,1063,1625,-1.16837,-8.80081
-154,-601,1.12756,7.94861,0,0,0,0,0,0,0,-1,1070,1625,1.12762,-7.94855
-147,-601,1.35352,9.55432,0,0,0,0,0,0,0,-1,1077,1625,1.35351,-9.55429
-140,-601,1.72437,11.1498,0,0,0,0,0,0,0,-1,1084,1625,1.72432,-11.1498
-133,-601,2.13281,12.8347,0,0,0,0,0,0,0,-1,1091,1625,2.13287,-12.8348
-126,-601,3.09534,15.427,0,0,0,0,0,0,0,-1,1098,1625,3.0953,-15.4271
-119,-601,1.22485,9.43457,0,0,0,0,0,0,0,-1,1105,1625,1.22489,-9.43456
-112,-601,0,0,0,0,0,0,0,0,0,-1,1112,1625,0,0
-105,-601,0,0,0,0,0,0,0,0,0,-1,1119,1625,0,0
-98,-601,0,0,0,0,0,0,0,0,0,-1,1126,1625,0,0
-91,-601,0,0,0,0,0,0,0,0,0,-1,1133,1625,0,0
-84,-601,0,0,0,0,0,0,0,0,0,-1,1140,1625,0,0
-77,-601,0,0,0,0,0,0,0,0,0,-1,1147,1625,0,0
-70,-601,0,0,0,0,0,0,0,0,0,-1,1154,1625,0,0
-63,-601,0,0,0,0,0,0,0,0,0,-1,1161,1625,0,0
-56,-601,0,0,0,0,0,0,0,0,0,-1,1168,1625,0,0
-49,-601,0,0,0,0,0,0,0,0,0,-1,1175,1625,0,0
-42,-601,0,0,0,0,0,0,0,0,0,-1,1182,1625,0,0
-35,-601,0,0,0,0,0,0,0,0,0,-1,1189,1625,0,0
-28,-601,0,0,0,0,0,0,0,0,0,-1,1196,1625,0,0
-21,-601,0,0,0,0,0,0,0,0,0,-1,1203,1625,0,0
-14,-601,0,0,0,0,0,0,0,0,0,-1,1210,1625,0,0
-7,-601,0,0,0,0,0,0,0,0,0,-1,1217,1625,0,0
0,-601,0,0,0,0,0,0,0,0,0,-1,1224,1625,0,0
7,-601,0,0,0,0,0,0,0,0,0,-1,1231,1625,0,0
14,-601,0,0,0,0,0,0,0,0,0,-1,1238,1625,0,0
21,-601,0,0,0,0,0,0,0,0,0,-1,1245,1625,0,0
28,-601,0,0,0,0,0,0,0,0,0,-1,1252,1625,0,0
35,-601,0,0,0,0,0,0,0,0,0,-1,1259,1625,0,0
42,-601,0,0,0,0,0,0,0,0,0,-1,1266,1625,0,0
49,-601,0,0,0,0,0,0,0,0,0,-1,1273,1625,0,0
56,-601,0,0,0,0,0,0,0,0,0,-1,1280,1625,0,0
63,-601,0,0,0,0,0,0,0,0,0,-1,1287,1625,0,0
70,-601,0,0,0,0,0,0,0,0,0,-1,1294,1625,0,0
77,-601,0,0,0,0,0,0,0,0,0,-1,1301,1625,0,0
84,-601,0,0,0,0,0,0,0,0,0,-1,1308,1625,0,0
91,-601,0,0,0,0,0,0,0,0,0,-1,1315,1625,0,0
98,-601,0,0,0,0,0,0,0,0,0,-1,1322,1625,0,0
105,-601,0,0,0,0,0,0,0,0,0,-1,1329,1625,0,0
112,-601,0,0,0,0,0,0,0,0,0,-1,1336,1625,0,0
119,-601,0,0,0,0,0,0,0,0,0,-1,1343,1625,0,0
126,-601,0,0,0,0,0,0,0,0,0,-1,1350,1625,0,0
133,-601,0,0,0,0,0,0,0,0,0,-1,1357,1625,0,0
140,-601,0,0,0,0,0,0,0,0,0,-1,1364,1625,0,0
147,-601,0,0,0,0,0,0,0,0,0,-1,1371,1625,0,0
154,-601,0,0,0,0,0,0,0,0,0,-1,1378,1625,0,0
161,-601,0,0,0,0,0,0,0,0,0,-1,1385,1625,0,0
168,-601,0,0,0,0,0,0,0,0,0,-1,1392,1625,0,0
175,-601,0,0,0,0,0,0,0,0,0,-1,1399,1625,0,0
182,-601,0,0,0,0,0,0,0,0,0,-1,1406,1625,0,0
189,-601,0,0,0,0,0,0,0,0,0,-1,1413,1625,0,0
196,-601,0,0,0,0,0,0,0,0,0,-1,1420,1625,0,0
203,-601,0,0,0,0,0,0,0,0,0,-1,1427,1625,0,0
210,-601,0,0,0,0,0,0,0,0,0,-1,1434,1625,0,0
217,-601,0,0,0,0,0,0,0,0,0,-1,1441,1625,0,0
224,-601,0,0,0,0,0,0,0,0,0,-1,1448,1625,0,0
231,-601,-0.0371094,0.525879,0,0,0,0,0,0,0,-1,1455,1625,-0.0371518,-0.525824
238,-601,2.03369,-1.32861,0,0,0,0,0,0,0,-1,1462,1625,2.03364,1.32858
245,-601,2.71375,2.44983,0,0,0,0,0,0,0,-1,1469,1625,2.71371,-2.44979
252,-601,4.66943,2.28381,0,0,0,0,0,0,0,-1,1476,1625,4.66947,-2.28376
259,-601,6.42712,2.61987,0,0,0,0,0,0,0,-1,1483,1625,6.42711,-2.61985
266,-601,6.75317,1.68701,0,0,0,0,0,0,0,-1,1490,1625,6.75323,-1.687
273,-601,5.4314,2.92053,0,0,0,0,0,0,0,-1,1497,1625,5.43144,-2.92051
280,-601,4.64722,1.17786,0,0,0,0,0,0,0,-1,1504,1625,4.64722,-1.1779
287,-601,5.32532,2.6217,0,0,0,0,0,0,0,-1,1511,1625,5.32535,-2.62171
294,-601,5.97693,4.22693,0,0,0,0,0,0,0,-1,1518,1625,5.97697,-4.22694
301,-601,7.28162,9.50024,0,0,0,0,0,0,0,-1,1525,1625,7.28162,-9.50025
308,-601,6.53528,10.3927,0,0,0,0,0,0,0,-1,1532,1625,6.53529,-10.3927
315,-601,4.88013,11.7184,0,0,0,0,0,0,0,-1,1539,1625,4.88015,-11.7184
322,-601,3.38098,12.7864,0,0,0,0,0,0,0,-1,1546,1625,3.38104,-12.7864
329,-601,1.8772,13.8768,0,0,0,0,0,0,0,-1,1553,1625,1.87716,-13.8768
336,-601,4.67847,9.53308,0,0,0,0,0,0,0,-1,1560,1625,4.67848,-9.53309
343,-601,11.1404,3.14575,0,0,0,0,0,0,0,-1,1567,1625,11.1404,-3.1458
350,-601,10.9462,2.37769,0,0,0,0,0,0,0,-1,1574,1625,10.9461,-2.37764
357,-601,10.7518,1.6095,0,0,0,0,0,0,0,-1,1581,1625,10.7518,-1.60948
364,-601,5.33643,9.74426,0,0,0,0,0,0,0,-1,1588,1625,5.33637,-9.74429
371,-601,15.4508,40.6171,0,0,0,0,0,0,0,-1,1595,1625,15.4509,-40.6171
378,-601,15.8208,38.4974,0,0,0,0,0,0,0,-1,1602,1625,15.8208,-38.4975
385,-601,15.9407,38.2854,0.00703351,0.030916,-0.0103967,0.0348078,0.00314172,-1.21261,0.0222321,0.0471568,1609,1625,15.9406,-38.2854
392,-601,15.7676,37.9501,0.00462879,0.0248486,-0.00705136,0.0270648,0.00241263,-1.26628,0.0172952,0.040438,1616,1625,15.7676,-37.9501
399,-601,15.8386,37.3853,0.00269165,0.0204579,-0.00473882,0.0216428,0.00150669,-1.32577,0.0139535,0.0202869,1623,1625,15.8386,-37.3852
406,-601,15.9141,36.8347,0.00134721,0.0167802,-0.00317247,0.0174069,0.000720506,-1.37576,0.011372,0.0134276,1630,1625,15.9141,-36.8347
413,-601,15.8986,36.3224,0.000560794,0.0146064,-0.00241004,0.0150084,0.00015877,-1.40551,0.0099531,0.0132316,1637,1625,15.8986,-36.3224
420,-601,15.8962,35.7957,-0.000106599,0.0125293,-0.00182382,0.0127872,-0.000364576,-1.43028,0.00864891,0.0114499,1644,1625,15.8962,-35.7957
427,-601,15.8975,35.3054,-0.000435781,0.0107107,-0.00153061,0.010917,-0.00064214,-1.43678,0.00750123,0.0145063,1651,1625,15.8975,-35.3054
434,-601,15.8882,34.7954,-0.000340976,0.00935771,-0.0016087,0.00961758,-0.000600846,-1.41064,0.00662109,0.0150531,1658,1625,15.8882,-34.7955
441,-601,15.8594,34.2671,5.19334e-05,0.00808472,-0.00189518,0.0085094,-0.000372744,-1.35035,0.00580117,0.0164143,1665,1625,15.8593,-34.2671
448,-601,15.8552,33.7434,0.000393193,0.00652329,-0.00196914,0.00710132,-0.000184839,-1.28527,0.00479702,0.0143816,1672,1625,15.8553,-33.7434
455,-601,15.8501,33.1804,0.000625799,0.00503856,-0.00209251,0.00587302,-0.000208662,-1.19134,0.00398672,0.0137778,1679,1625,15.8502,-33.1804
462,-601,15.8308,32.6615,0.00074127,0.00341506,-0.0019694,0.00445846,-0.00030213,-1.08359,0.00307796,0.0124421,1686,1625,15.8308,-32.6615
469,-601,15.7985,32.1704,0.000725153,0.00188461,-0.00168971,0.00309128,-0.000481517,-0.950652,0.00223869,0.0121034,1693,1625,15.7985,-32.1704
476,-601,15.7699,31.6493,0.000552605,0.000678144,-0.00133571,0.00195256,-0.00072181,-0.808878,0.00159762,0.0140057,1700,1625,15.7699,-31.6493
483,-601,15.7574,31.0989,8.349e-05,-0.000401412,-0.0009544,0.000825753,-0.00114368,-0.661012,0.00114198,0.0166832,1707,1625,15.7575,-31.0988
490,-601,15.7385,30.5316,-0.000630317,-0.00105357,-0.000563429,-0.00024008,-0.0014438,-0.60575,0.000893327,0.0127072,1714,1625,15.7386,-30.5316
497,-601,15.7095,29.9711,-0.00136339,-0.00172505,-0.000142535,-0.00131397,-0.00177448,-0.333761,0.00106326,0.0112466,1721,1625,15.7094,-29.9711
504,-601,15.7456,29.4049,-0.0023048,-0.00215249,0.000532354,-0.00169087,-0.00276642,0.856444,0.00161031,0.02128,1728,1625,15.7456,-29.405
511,-601,15.6251,28.9413,-0.0034853,-0.0029172,0.00151494,-0.00165991,-0.00474259,0.878071,0.0027789,0.0357762,1735,1625,15.6251,-28.9413
518,-601,15.5165,28.3287,-0.00453491,-0.00344894,0.00253142,-0.00140292,-0.00658092,0.891047,0.00400245,0.0458098,1742,1625,15.5165,-28.3288
525,-601,15.4875,27.7257,0,0,0,0,0,0,0,-1,1749,1625,15.4875,-27.7257
532,-601,16.1193,20.8458,0,0,0,0,0,0,0,-1,1756,1625,16.1192,-20.8458
539,-601,7.77112,11.4299,0,0,0,0,0,0,0,-1,1763,1625,7.77116,-11.4299
546,-601,6.56873,3.62354,0,0,0,0,0,0,0,-1,1770,1625,6.56867,-3.62352
553,-601,7.03015,4.25049,0,0,0,0,0,0,0,-1,1777,1625,7.03011,-4.25048
560,-601,7.50745,4.83374,0,0,0,0,0,0,0,-1,1784,1625,7.50744,-4.83376
567,-601,7.82043,3.83301,0,0,0,0,0,0,0,-1,1791,1625,7.82041,-3.83303
574,-601,0,0,0,0,0,0,0,0,0,-1,1798,1625,0,0
581,-601,0,0,0,0,0,0,0,0,0,-1,1805,1625,0,0
588,-601,0,0,0,0,0,0,0,0,0,-1,1812,1625,0,0
595,-601,0,0,0,0,0,0,0,0,0,-1,1819,1625,0,0
602,-601,0,0,0,0,0,0,0,0,0,-1,1826,1625,0,0
609,-601,0,0,0,0,0,0,0,0,0,-1,1833,1625,0,0
616,-601,0,0,0,0,0,0,0,0,0,-1,1840,1625,0,0
623,-601,0,0,0,0,0,0,0,0,0,-1,1847,1625,0,0
630,-601,0,0,0,0,0,0,0,0,0,-1,1854,1625,0,0
637,-601,0,0,0,0,0,0,0,0,0,-1,1861,1625,0,0
644,-601,0,0,0,0,0,0,0,0,0,-1,1868,1625,0,0
651,-601,0,0,0,0,0,0,0,0,0,-1,1875,1625,0,0
658,-601,0,0,0,0,0,0,0,0,0,-1,1882,1625,0,0
665,-601,0,0,0,0,0,0,0,0,0,-1,1889,1625,0,0
672,-601,0,0,0,0,0,0,0,0,0,-1,1896,1625,0,0
679,-601,0,0,0,0,0,0,0,0,0,-1,1903,1625,0,0
686,-601,0,0,0,0,0,0,0,0,0,-1,1910,1625,0,0
693,-601,0,0,0,0,0,0,0,0,0,-1,1917,1625,0,0
700,-601,0,0,0,0,0,0,0,0,0,-1,1924,1625,0,0
707,-601,0,0,0,0,0,0,0,0,0,-1,1931,1625,0,0
714,-601,0,0,0,0,0,0,0,0,0,-1,1938,1625,0,0
721,-601,0,0,0,0,0,0,0,0,0,-1,1945,1625,0,0
728,-601,0,0,0,0,0,0,0,0,0,-1,1952,1625,0,0
735,-601,0,0,0,0,0,0,0,0,0,-1,1959,1625,0,0
742,-601,0,0,0,0,0,0,0,0,0,-1,1966,1625,0,0
749,-601,0,0,0,0,0,0,0,0,0,-1,1973,1625,0,0
756,-601,0,0,0,0,0,0,0,0,0,-1,1980,1625,0,0
763,-601,0,0,0,0,0,0,0,0,0,-1,1987,1625,0,0
770,-601,0,0,0,0,0,0,0,0,0,-1,1994,1625,0,0
777,-601,0,0,0,0,0,0,0,0,0,-1,2001,1625,0,0
784,-601,0,0,0,0,0,0,0,0,0,-1,2008,1625,0,0
791,-601,0,0,0,0,0,0,0,0,0,-1,2015,1625,0,0
798,-601,0,0,0,0,0,0,0,0,0,-1,2022,1625,0,0
805,-601,0,0,0,0,0,0,0,0,0,-1,2029,1625,0,0
812,-601,0,0,0,0,0,0,0,0,0,-1,2036,1625,0,0
-700,-608,0,0,0,0,0,0,0,0,0,-1,524,1632,0,0
-693,-608,0,0,0,0,0,0,0,0,0,-1,531,1632,0,0
-686,-608,0,0,0,0,0,0,0,0,0,-1,538,1632,0,0
-679,-608,0,0,0,0,0,0,0,0,0,-1,545,1632,0,0
-672,-608,0,0,0,0,0,0,0,0,0,-1,552,1632,0,0
-665,-608,0,0,0,0,0,0,0,0,0,-1,559,1632,0,0
-658,-608,0,0,0,0,0,0,0,0,0,-1,566,1632,0,0
-651,-608,0,0,0,0,0,0,0,0,0,-1,573,1632,0,0
-644,-608,0,0,0,0,0,0,0,0,0,-1,580,1632,0,0
-637,-608,0,0,0,0,0,0,0,0,0,-1,587,1632,0,0
-630,-608,0,0,0,0,0,0,0,0,0,-1,594,1632,0,0
-623,-608,0,0,0,0,0,0,0,0,0,-1,601,1632,0,0
-616,-608,0,0,0,0,0,0,0,0,0,-1,608,1632,0,0
-609,-608,0,0,0,0,0,0,0,0,0,-1,615,1632,0,0
-602,-608,0,0,0,0,0,0,0,0,0,-1,622,1632,0,0
-595,-608,0,0,0,0,0,0,0,0,0,-1,629,1632,0,0
-588,-608,0,0,0,0,0,0,0,0,0,-1,636,1632,0,0
-581,-608,0,0,0,0,0,0,0,0,0,-1,643,1632,0,0
-574,-608,0,0,0,0,0,0,0,0,0,-1,650,1632,0,0
-567,-608,0,0,0,0,0,0,0,0,0,-1,657,1632,0,0
-560,-608,0,0,0,0,0,0,0,0,0,-1,664,1632,0,0
-553,-608,0,0,0,0,0,0,0,0,0,-1,671,1632,0,0
-546,-608,0,0,0,0,0,0,0,0,0,-1,678,1632,0,0
-539,-608,0,0,0,0,0,0,0,0,0,-1,685,1632,0,0
-532,-608,0,0,0,0,0,0,0,0,0,-1,692,1632,0,0
-525,-608,0,0,0,0,0,0,0,0,0,-1,699,1632,0,0
-518,-608,0,0,0,0,0,0,0,0,0,-1,706,1632,0,0
-511,-608,0,0,0,0,0,0,0,0,0,-1,713,1632,0,0
-504,-608,0,0,0,0,0,0,0,0,0,-1,720,1632,0,0
-497,-608,0,0,0,0,0,0,0,0,0,-1,727,1632,0,0
-490,-608,0,0,0,0,0,0,0,0,0,-1,734,1632,0,0
-483,-608,0,0,0,0,0,0,0,0,0,-1,741,1632,0,0
-476,-608,0,0,0,0,0,0,0,0,0,-1,748,1632,0,0
-469,-608,0,0,0,0,0,0,0,0,0,-1,755,1632,0,0
-462,-608,0,0,0,0,0,0,0,0,0,-1,762,1632,0,0
-455,-608,0,0,0,0,0,0,0,0,0,-1,769,1632,0,0
-448,-608,0,0,0,0,0,0,0,0,0,-1,776,1632,0,0
-441,-608,-7.34601,2.78052,0,0,0,0,0,0,0,-1,783,1632,-7.346,-2.78056
-434,-608,-6.34558,3.27405,0,0,0,0,0,0,0,-1,790,1632,-6.34555,-3.27406
-427,-608,-7.74335,4.17688,0,0,0,0,0,0,0,-1,797,1632,-7.74334,-4.17693
-420,-608,-6.82794,4.34839,0,0,0,0,0,0,0,-1,804,1632,-6.82794,-4.34838
-413,-608,-5.41919,5.66138,0,0,0,0,0,0,0,-1,811,1632,-5.41917,-5.66133
-406,-608,-4.79681,4.98999,0,0,0,0,0,0,0,-1,818,1632,-4.79684,-4.98997
-399,-608,-2.60645,6.34167,0,0,0,0,0,0,0,-1,825,1632,-2.60643,-6.34169
-392,-608,2.08356,15.437,0,0,0,0,0,0,0,-1,832,1632,2.08354,-15.437
-385,-608,2.82104,27.995,0,0,0,0,0,0,0,-1,839,1632,2.82107,-27.9949
-378,-608,2.71777,28.2906,0,0,0,0,0,0,0,-1,846,1632,2.71778,-28.2906
-371,-608,2.45886,28.567,0,0,0,0,0,0,0,-1,853,1632,2.45888,-28.567
-364,-608,2.49548,29.2754,-0.00314082,-0.00378919,-0.000372036,-0.00297154,-0.00395847,-0.42701,0.00237924,0.0301862,860,1632,2.49551,-29.2754
-357,-608,2.37079,29.9425,-0.00190981,-0.00278244,0.000355949,-0.00178304,-0.00290922,0.342153,0.00169385,0.0194921,867,1632,2.37081,-29.9424
-350,-608,2.37396,30.5718,-0.000917424,-0.00185553,0.00091618,-0.000357207,-0.00241575,0.548811,0.00150562,0.0197121,874,1632,2.37396,-30.5717
-343,-608,2.34241,31.1393,-9.2553e-05,-0.000979993,0.0013227,0.000858869,-0.00193142,0.623564,0.00165017,0.0236317,881,1632,2.34241,-31.1393
-336,-608,2.28363,31.7427,0.000637164,-0.000198373,0.00164838,0.00191989,-0.0014811,0.66129,0.001969,0.0168696,888,1632,2.28365,-31.7427
-329,-608,2.22931,32.3219,0.00121475,0.000768346,0.0019094,0.00291395,-0.000930849,0.727213,0.00231613,0.0159532,895,1632,2.2293,-32.3219
-322,-608,2.21844,32.8561,0.00163332,0.00160043,0.00210112,0.00371806,-0.000484306,0.781484,0.0026549,0.0162165,902,1632,2.21844,-32.8561
-315,-608,2.24176,33.3702,0.00201999,0.00259087,0.00233809,0.00466088,-5.00204e-05,0.846138,0.00312406,0.0151225,909,1632,2.24175,-33.3702
-308,-608,2.20996,33.9237,0.00239653,0.00361888,0.00254755,0.00562754,0.000387874,0.903127,0.00362932,0.0150969,916,1632,2.20997,-33.9238
-301,-608,2.19989,34.4685,0.00298507,0.00474008,0.00296096,0.00695082,0.000774328,0.929454,0.00439855,0.0109516,923,1632,2.19986,-34.4685
-294,-608,2.19562,34.9818,0.00383509,0.00602076,0.00367423,0.00876123,0.00109462,0.929948,0.00551229,0.010631,930,1632,2.1956,-34.9818
-287,-608,2.15057,35.5182,0.00469203,0.00762176,0.00442776,0.0108207,0.00149311,0.945149,0.00677118,0.0107011,937,1632,2.15058,-35.5182
-280,-608,2.15607,36.0375,0.00582798,0.00927591,0.00541953,0.0132391,0.00186483,0.939388,0.00827478,0.00891741,944,1632,2.15605,-36.0374
-273,-608,2.15167,36.566,0.00726896,0.0110119,0.00666097,0.0160593,0.00222154,0.922347,0.0100479,0.0102232,951,1632,2.15165,-36.566
-266,-608,2.17828,37.1254,0.00870687,0.0127687,0.00793043,0.0189241,0.00255142,0.910749,0.0118575,0.0113506,958,1632,2.1783,-37.1253
-259,-608,2.23907,37.6532,0.0103127,0.0145376,0.00932811,0.0219894,0.0028608,0.896752,0.0138052,0.0157575,965,1632,2.23909,-37.6531
-252,-608,2.37097,38.2393,0.0122772,0.0162747,0.0108532,0.0253117,0.00324027,0.876458,0.0159048,0.0308851,972,1632,2.37099,-38.2392
-245,-608,2.64594,38.9177,0.0140203,0.017917,0.0123625,0.0284838,0.00345356,0.863556,0.0179491,0.047122,979,1632,2.64596,-38.9177
-238,-608,2.91162,39.6503,0,0,0,0,0,0,0,-1,986,1632,2.9116,-39.6503
-231,-608,3.26025,27.5262,0,0,0,0,0,0,0,-1,993,1632,3.26023,-27.5263
-224,-608,2.51642,15.3452,0,0,0,0,0,0,0,-1,1000,1632,2.5164,-15.3452
-217,-608,1.04419,12.8451,0,0,0,0,0,0,0,-1,1007,1632,1.04418,-12.8451
-210,-608,2.75903,15.9414,0,0,0,0,0,0,0,-1,1014,1632,2.75903,-15.9414
-203,-608,2.76776,16.217,0,0,0,0,0,0,0,-1,1021,1632,2.76773,-16.217
-196,-608,1.53955,18.6058,0,0,0,0,0,0,0,-1,1028,1632,1.53959,-18.6058
-189,-608,1.37634,19.119,0,0,0,0,0,0,0,-1,1035,1632,1.37634,-19.1191
-182,-608,2.89221,16.7092,0,0,0,0,0,0,0,-1,1042,1632,2.89224,-16.7093
-175,-608,0.219116,15.1643,0,0,0,0,0,0,0,-1,1049,1632,0.219173,-15.1644
-168,-608,0.000366211,9.48645,0,0,0,0,0,0,0,-1,1056,1632,0.000317105,-9.48648
-161,-608,2.27832,15.4423,0,0,0,0,0,0,0,-1,1063,1632,2.27826,-15.4423
-154,-608,1.3999,16.4037,0,0,0,0,0,0,0,-1,1070,1632,1.39987,-16.4037
-147,-608,2.4386,9.50317,0,0,0,0,0,0,0,-1,1077,1632,2.43858,-9.50313
-140,-608,2.60132,10.8401,0,0,0,0,0,0,0,-1,1084,1632,2.60134,-10.8401
-133,-608,3.2312,12.4738,0,0,0,0,0,0,0,-1,1091,1632,3.23116,-12.4738
-126,-608,3.76465,13.9644,0,0,0,0,0,0,0,-1,1098,1632,3.76466,-13.9644
-119,-608,4.28906,15.4196,0,0,0,0,0,0,0,-1,1105,1632,4.28911,-15.4195
-112,-608,0.745117,10.5587,0,0,0,0,0,0,0,-1,1112,1632,0.745145,-10.5587
-105,-608,-0.252319,1.42419,0,0,0,0,0,0,0,-1,1119,1632,-0.252331,-1.42418
-98,-608,-2.8595,3.0863,0,0,0,0,0,0,0,-1,1126,1632,-2.85948,-3.08625
-91,-608,-3.71948,1.73608,0,0,0,0,0,0,0,-1,1133,1632,-3.7195,-1.73607
-84,-608,0,0,0,0,0,0,0,0,0,-1,1140,1632,0,0
-77,-608,0,0,0,0,0,0,0,0,0,-1,1147,1632,0,0
-70,-608,0,0,0,0,0,0,0,0,0,-1,1154,1632,0,0
-63,-608,0,0,0,0,0,0,0,0,0,-1,1161,1632,0,0
-56,-608,0,0,0,0,0,0,0,0,0,-1,1168,1632,0,0
-49,-608,0,0,0,0,0,0,0,0,0,-1,1175,1632,0,0
-42,-608,0,0,0,0,0,0,0,0,0,-1,1182,1632,0,0
-35,-608,0,0,0,0,0,0,0,0,0,-1,1189,1632,0,0
-28,-608,0,0,0,0,0,0,0,0,0,-1,1196,1632,0,0
-21,-608,0,0,0,0,0,0,0,0,0,-1,1203,1632,0,0
-14,-608,0,0,0,0,0,0,0,0,0,-1,1210,1632,0,0
-7,-608,0,0,0,0,0,0,0,0,0,-1,1217,1632,0,0
0,-608,0,0,0,0,0,0,0,0,0,-1,1224,1632,0,0
7,-608,0,0,0,0,0,0,0,0,0,-1,1231,1632,0,0
14,-608,0,0,0,0,0,0,0,0,0,-1,1238,1632,0,0
21,-608,0,0,0,0,0,0,0,0,0,-1,1245,1632,0,0
28,-608,0,0,0,0,0,0,0,0,0,-1,1252,1632,0,0
35,-608,0,0,0,0,0,0,0,0,0,-1,1259,1632,0,0
42,-608,0,0,0,0,0,0,0,0,0,-1,1266,1632,0,0
49,-608,0,0,0,0,0,0,0,0,0,-1,1273,1632,0,0
56,-608,0,0,0,0,0,0,0,0,0,-1,1280,1632,0,0
63,-608,0,0,0,0,0,0,0,0,0,-1,1287,1632,0,0
70,-608,0,0,0,0,0,0,0,0,0,-1,1294,1632,0,0
77,-608,0,0,0,0,0,0,0,0,0,-1,1301,1632,0,0
84,-608,0,0,0,0,0,0,0,0,0,-1,1308,1632,0,0
91,-608,0,0,0,0,0,0,0,0,0,-1,1315,1632,0,0
98,-608,0,0,0,0,0,0,0,0,0,-1,1322,1632,0,0
105,-608,0,0,0,0,0,0,0,0,0,-1,1329,1632,0,0
112,-608,0,0,0,0,0,0,0,0,0,-1,1336,1632,0,0
119,-608,0,0,0,0,0,0,0,0,0,-1,1343,1632,0,0
126,-608,0,0,0,0,0,0,0,0,0,-1,1350,1632,0,0
133,-608,0,0,0,0,0,0,0,0,0,-1,1357,1632,0,0
140,-608,0,0,0,0,0,0,0,0,0,-1,1364,1632,0,0
147,-608,0,0,0,0,0,0,0,0,0,-1,1371,1632,0,0
154,-608,0,0,0,0,0,0,0,0,0,-1,1378,1632,0,0
161,-608,0,0,0,0,0,0,0,0,0,-1,1385,1632,0,0
168,-608,0,0,0,0,0,0,0,0,0,-1,1392,1632,0,0
175,-608,0,0,0,0,0,0,0,0,0,-1,1399,1632,0,0
182,-608,0,0,0,0,0,0,0,0,0,-1,1406,1632,0,0
189,-608,0,0,0,0,0,0,0,0,0,-1,1413,1632,0,0
196,-608,0,0,0,0,0,0,0,0,0,-1,1420,1632,0,0
203,-608,0,0,0,0,0,0,0,0,0,-1,1427,1632,0,0
210,-608,5.7157,-0.333008,0,0,0,0,0,0,0,-1,1434,1632,5.71566,0.333004
217,-608,4.49402,-0.831787,0,0,0,0,0,0,0,-1,1441,1632,4.49396,0.831738
224,-608,4.18018,-1.11792,0,0,0,0,0,0,0,-1,1448,1632,4.1802,1.11796
231,-608,0.361816,0.825195,0,0,0,0,0,0,0,-1,1455,1632,0.36185,-0.825226
238,-608,2.85388,-0.28833,0,0,0,0,0,0,0,-1,1462,1632,2.85391,0.288282
245,-608,3.87537,4.02173,0,0,0,0,0,0,0,-1,1469,1632,3.87538,-4.02168
252,-608,5.66956,3.5282,0,0,0,0,0,0,0,-1,1476,1632,5.6696,-3.52815
259,-608,7.47437,3.07178,0,0,0,0,0,0,0,-1,1483,1632,7.4744,-3.07172
266,-608,9.46936,2.34766,0,0,0,0,0,0,0,-1,1490,1632,9.46932,-2.34764
273,-608,6.03003,3.34241,0,0,0,0,0,0,0,-1,1497,1632,6.02997,-3.34245
280,-608,5.72461,2.0769,0,0,0,0,0,0,0,-1,1504,1632,5.72457,-2.07688
287,-608,6.20581,3.59338,0,0,0,0,0,0,0,-1,1511,1632,6.20585,-3.59341
294,-608,6.94922,5.17151,0,0,0,0,0,0,0,-1,1518,1632,6.94925,-5.17151
301,-608,7.60083,6.68018,0,0,0,0,0,0,0,-1,1525,1632,7.60086,-6.68013
308,-608,7.64746,9.93848,0,0,0,0,0,0,0,-1,1532,1632,7.64745,-9.93842
315,-608,5.30688,11.2054,0,0,0,0,0,0,0,-1,1539,1632,5.30694,-11.2054
322,-608,5.32617,13.7581,0,0,0,0,0,0,0,-1,1546,1632,5.32613,-13.758
329,-608,7.12231,13.9607,0,0,0,0,0,0,0,-1,1553,1632,7.12231,-13.9607
336,-608,5.48633,7.82446,0,0,0,0,0,0,0,-1,1560,1632,5.48634,-7.82446
343,-608,5.47192,5.61047,0,0,0,0,0,0,0,-1,1567,1632,5.47192,-5.61045
350,-608,11.6957,1.71387,0,0,0,0,0,0,0,-1,1574,1632,11.6957,-1.71388
357,-608,3.77002,5.10046,0,0,0,0,0,0,0,-1,1581,1632,3.77002,-5.10043
364,-608,14.7163,41.2056,0,0,0,0,0,0,0,-1,1588,1632,14.7163,-41.2055
371,-608,15.0543,40.2778,0.0120783,0.0401865,-0.0172013,0.0483451,0.00391977,-1.12792,0.0310062,0.0441916,1595,1632,15.0544,-40.2779
378,-608,15.2375,39.0482,0.00937508,0.0318909,-0.0127448,0.037638,0.00362801,-1.14716,0.0239743,0.0370942,1602,1632,15.2376,-39.0482
385,-608,15.3538,38.3932,0.00692231,0.0257221,-0.00931078,0.0295528,0.00309161,-1.18048,0.0187565,0.0337288,1609,1632,15.3537,-38.3932
392,-608,15.3444,37.8547,0.00497212,0.0204839,-0.0065364,0.0228709,0.00258512,-1.22066,0.0144628,0.024326,1616,1632,15.3444,-37.8547
399,-608,15.3785,37.2809,0.0032924,0.0164888,-0.00447775,0.0178647,0.00191649,-1.27268,0.0113252,0.0110083,1623,1632,15.3786,-37.2808
406,-608,15.4028,36.7814,0.00209415,0.01303,-0.00299436,0.0137962,0.00132794,-1.32029,0.00878833,0.00955168,1630,1632,15.4029,-36.7813
413,-608,15.3896,36.298,0.00130781,0.0109349,-0.0021655,0.0113996,0.000843131,-1.35942,0.00733484,0.0110593,1637,1632,15.3896,-36.2979
420,-608,15.3325,35.8092,0.000586067,0.00898908,-0.00150129,0.00924924,0.000325901,-1.39921,0.00606045,0.0187785,1644,1632,15.3325,-35.8092
427,-608,15.3458,35.2861,0.000173761,0.00733821,-0.00114986,0.00751823,-6.26291e-06,-1.4155,0.00501424,0.0188035,1651,1632,15.3459,-35.2861
434,-608,15.3522,34.7743,0.000145761,0.00619008,-0.00117572,0.00641072,-7.48811e-05,-1.38529,0.00429899,0.0150659,1658,1632,15.3522,-34.7743
441,-608,15.3331,34.2654,0.000365855,0.00514013,-0.00142248,0.00553182,-2.58342e-05,-1.3021,0.00369652,0.013582,1665,1632,15.3331,-34.2654
448,-608,15.3428,33.762,0.000558778,0.0038358,-0.00150212,0.00442014,-2.55632e-05,-1.1998,0.00295532,0.0149354,1672,1632,15.3427,-33.762
455,-608,15.3627,33.2019,0.000682476,0.00259673,-0.0016108,0.00351331,-0.000234106,-1.05347,0.00242401,0.0119133,1679,1632,15.3627,-33.2019
462,-608,15.3314,32.6741,0.000705696,0.00122886,-0.00153013,0.00251961,-0.000585052,-0.870057,0.00190494,0.0113791,1686,1632,15.3314,-32.6741
469,-608,15.2777,32.172,0.000621391,-2.82621e-05,-0.0013478,0.00168295,-0.00108982,-0.66715,0.00161302,0.00818281,1693,1632,15.2777,-32.172
476,-608,15.2324,31.6497,0.0004008,-0.0009858,-0.00108238,0.000992888,-0.00157789,-0.500554,0.00149699,0.00901818,1700,1632,15.2324,-31.6496
483,-608,15.2209,31.1118,-0.00019485,-0.00163847,-0.000776509,0.000143517,-0.00197684,-0.410944,0.00136824,0.00909643,1707,1632,15.221,-31.1118
490,-608,15.2209,30.5551,-0.00102861,-0.0019932,-0.000508678,-0.00080993,-0.00221188,-0.406006,0.00129219,0.0102122,1714,1632,15.2209,-30.555
497,-608,15.2208,29.9808,-0.00173903,-0.00256478,-0.000146158,-0.00171392,-0.00258989,-0.170117,0.00152114,0.0225804,1721,1632,15.2208,-29.9808
504,-608,15.339,29.3822,0,0,0,0,0,0,0,-1,1728,1632,15.339,-29.3822
511,-608,15.005,29.0818,0,0,0,0,0,0,0,-1,1735,1632,15.0051,-29.0817
518,-608,15.0255,28.3485,0,0,0,0,0,0,0,-1,1742,1632,15.0256,-28.3485
525,-608,11.2109,16.2579,0,0,0,0,0,0,0,-1,1749,1632,11.2109,-16.2579
532,-608,8.27917,11.6693,0,0,0,0,0,0,0,-1,1756,1632,8.27919,-11.6694
539,-608,9.40796,1.43457,0,0,0,0,0,0,0,-1,1763,1632,9.40801,-1.43463
546,-608,9.94031,2.1134,0,0,0,0,0,0,0,-1,1770,1632,9.94031,-2.11346
553,-608,10.363,2.81335,0,0,0,0,0,0,0,-1,1777,1632,10.3631,-2.81333
560,-608,9.23999,4.5636,0,0,0,0,0,0,0,-1,1784,1632,9.24,-4.56354
567,-608,0,0,0,0,0,0,0,0,0,-1,1791,1632,0,0
574,-608,0,0,0,0,0,0,0,0,0,-1,1798,1632,0,0
581,-608,0,0,0,0,0,0,0,0,0,-1,1805,1632,0,0
588,-608,0,0,0,0,0,0,0,0,0,-1,1812,1632,0,0
595,-608,0,0,0,0,0,0,0,0,0,-1,1819,1632,0,0
602,-608,0,0,0,0,0,0,0,0,0,-1,1826,1632,0,0
609,-608,0,0,0,0,0,0,0,0,0,-1,1833,1632,0,0
616,-608,0,0,0,0,0,0,0,0,0,-1,1840,1632,0,0
623,-608,0,0,0,0,0,0,0,0,0,-1,1847,1632,0,0
630,-608,0,0,0,0,0,0,0,0,0,-1,1854,1632,0,0
637,-608,0,0,0,0,0,0,0,0,0,-1,1861,1632,0,0
644,-608,0,0,0,0,0,0,0,0,0,-1,1868,1632,0,0
651,-608,0,0,0,0,0,0,0,0,0,-1,1875,1632,0,0
658,-608,0,0,0,0,0,0,0,0,0,-1,1882,1632,0,0
665,-608,0,0,0,0,0,0,0,0,0,-1,1889,1632,0,0
672,-608,0,0,0,0,0,0,0,0,0,-1,1896,1632,0,0
679,-608,0,0,0,0,0,0,0,0,0,-1,1903,1632,0,0
686,-608,0,0,0,0,0,0,0,0,0,-1,1910,1632,0,0
693,-608,0,0,0,0,0,0,0,0,0,-1,1917,1632,0,0
700,-608,0,0,0,0,0,0,0,0,0,-1,1924,1632,0,0
707,-608,0,0,0,0,0,0,0,0,0,-1,1931,1632,0,0
714,-608,0,0,0,0,0,0,0,0,0,-1,1938,1632,0,0
721,-608,0,0,0,0,0,0,0,0,0,-1,1945,1632,0,0
728,-608,0,0,0,0,0,0,0,0,0,-1,1952,1632,0,0
735,-608,0,0,0,0,0,0,0,0,0,-1,1959,1632,0,0
742,-608,0,0,0,0,0,0,0,0,0,-1,1966,1632,0,0
749,-608,0,0,0,0,0,0,0,0,0,-1,1973,1632,0,0
756,-608,0,0,0,0,0,0,0,0,0,-1,1980,1632,0,0
763,-608,0,0,0,0,0,0,0,0,0,-1,1987,1632,0,0
770,-608,0,0,0,0,0,0,0,0,0,-1,1994,1632,0,0
777,-608,0,0,0,0,0,0,0,0,0,-1,2001,1632,0,0
784,-608,0,0,0,0,0,0,0,0,0,-1,2008,1632,0,0
791,-608,0,0,0,0,0,0,0,0,0,-1,2015,1632,0,0
798,-608,0,0,0,0,0,0,0,0,0,-1,2022,1632,0,0
805,-608,0,0,0,0,0,0,0,0,0,-1,2029,1632,0,0
812,-608,0,0,0,0,0,0,0,0,0,-1,2036,1632,0,0
-700,-615,0,0,0,0,0,0,0,0,0,-1,524,1639,0,0
-693,-615,0,0,0,0,0,0,0,0,0,-1,531,1639,0,0
-686,-615,0,0,0,0,0,0,0,0,0,-1,538,1639,0,0
-679,-615,0,0,0,0,0,0,0,0,0,-1,545,1639,0,0
-672,-615,0,0,0,0,0,0,0,0,0,-1,552,1639,0,0
-665,-615,0,0,0,0,0,0,0,0,0,-1,559,1639,0,0
-658,-615,0,0,0,0,0,0,0,0,0,-1,566,1639,0,0
-651,-615,0,0,0,0,0,0,0,0,0,-1,573,1639,0,0
-644,-615,0,0,0,0,0,0,0,0,0,-1,580,1639,0,0
-637,-615,0,0,0,0,0,0,0,0,0,-1,587,1639,0,0
-630,-615,0,0,0,0,0,0,0,0,0,-1,594,1639,0,0
-623,-615,0,0,0,0,0,0,0,0,0,-1,601,1639,0,0
-616,-615,0,0,0,0,0,0,0,0,0,-1,608,1639,0,0
-609,-615,0,0,0,0,0,0,0,0,0,-1,615,1639,0,0
-602,-615,0,0,0,0,0,0,0,0,0,-1,622,1639,0,0
-595,-615,0,0,0,0,0,0,0,0,0,-1,629,1639,0,0
-588,-615,0,0,0,0,0,0,0,0,0,-1,636,1639,0,0
-581,-615,0,0,0,0,0,0,0,0,0,-1,643,1639,0,0
-574,-615,0,0,0,0,0,0,0,0,0,-1,650,1639,0,0
-567,-615,0,0,0,0,0,0,0,0,0,-1,657,1639,0,0
-560,-615,0,0,0,0,0,0,0,0,0,-1,664,1639,0,0
-553,-615,0,0,0,0,0,0,0,0,0,-1,671,1639,0,0
-546,-615,0,0,0,0,0,0,0,0,0,-1,678,1639,0,0
-539,-615,0,0,0,0,0,0,0,0,0,-1,685,1639,0,0
-532,-615,0,0,0,0,0,0,0,0,0,-1,692,1639,0,0
-525,-615,0,0,0,0,0,0,0,0,0,-1,699,1639,0,0
-518,-615,0,0,0,0,0,0,0,0,0,-1,706,1639,0,0
-511,-615,0,0,0,0,0,0,0,0,0,-1,713,1639,0,0
-504,-615,0,0,0,0,0,0,0,0,0,-1,720,1639,0,0
-497,-615,0,0,0,0,0,0,0,0,0,-1,727,1639,0,0
-490,-615,0,0,0,0,0,0,0,0,0,-1,734,1639,0,0
-483,-615,0,0,0,0,0,0,0,0,0,-1,741,1639,0,0
-476,-615,0,0,0,0,0,0,0,0,0,-1,748,1639,0,0
-469,-615,0,0,0,0,0,0,0,0,0,-1,755,1639,0,0
-462,-615,0,0,0,0,0,0,0,0,0,-1,762,1639,0,0
-455,-615,0,0,0,0,0,0,0,0,0,-1,769,1639,0,0
-448,-615,0,0,0,0,0,0,0,0,0,-1,776,1639,0,0
-441,-615,0,0,0,0,0,0,0,0,0,-1,783,1639,0,0
-434,-615,-7.64508,2.98596,0,0,0,0,0,0,0,-1,790,1639,-7.64505,-2.98594
-427,-615,-9.0011,2.89404,0,0,0,0,0,0,0,-1,797,1639,-9.00107,-2.89399
-420,-615,-8.07568,3.0752,0,0,0,0,0,0,0,-1,804,1639,-8.07569,-3.07514
-413,-615,-7.09149,3.396,0,0,0,0,0,0,0,-1,811,1639,-7.09147,-3.39599
-406,-615,-6.21368,3.7312,0,0,0,0,0,0,0,-1,818,1639,-6.21366,-3.73114
-399,-615,-4.84875,3.91907,0,0,0,0,0,0,0,-1,825,1639,-4.84877,-3.91901
-392,-615,1.7395,13.3127,0,0,0,0,0,0,0,-1,832,1639,1.73953,-13.3128
-385,-615,3.42297,14.9401,0,0,0,0,0,0,0,-1,839,1639,3.42296,-14.94
-378,-615,2.54102,17.2609,0,0,0,0,0,0,0,-1,846,1639,2.54099,-17.2608
-371,-615,3.13202,28.7426,0,0,0,0,0,0,0,-1,853,1639,3.13199,-28.7426
-364,-615,2.98157,29.5391,-0.0030887,-0.0041868,0.00010138,-0.00307942,-0.00419608,0.0912948,0.0025094,0.0420829,860,1639,2.98158,-29.539
-357,-615,3.0484,30.1405,-0.00179348,-0.00310296,0.000965949,-0.00128128,-0.00361516,0.487555,0.0021165,0.0397271,867,1639,3.04842,-30.1405
-350,-615,2.92914,30.6333,-0.000817082,-0.00208356,0.00161619,0.000285494,-0.00318614,0.598685,0.00222537,0.0312973,874,1639,2.92915,-30.6333
-343,-615,2.89288,31.1263,1.24001e-05,-0.00121957,0.00199607,0.00148537,-0.00269254,0.635734,0.00244545,0.0198689,881,1639,2.89288,-31.1263
-336,-615,2.85895,31.707,0.000714406,-0.00056194,0.00222506,0.002391,-0.00223854,0.645741,0.00267335,0.0107377,888,1639,2.85895,-31.7071
-329,-615,2.81,32.2971,0.00121038,0.000317717,0.0024019,0.00320706,-0.00167897,0.693534,0.00286657,0.0112364,895,1639,2.81002,-32.2971
-322,-615,2.80011,32.8715,0.00149567,0.000980831,0.00242846,0.00368031,-0.00120381,0.732595,0.0029382,0.0130875,902,1639,2.8001,-32.8714
-315,-615,2.79205,33.4158,0.00172398,0.00169179,0.00243506,0.004143,-0.000727226,0.782093,0.0030336,0.0153805,909,1639,2.79205,-33.4158
-308,-615,2.7348,33.9762,0.00195747,0.00250395,0.00242834,0.00467437,-0.000212953,0.841422,0.0031896,0.0219011,916,1639,2.73478,-33.9762
-301,-615,2.75134,34.4854,0.00236945,0.00336806,0.00260048,0.00551674,0.000220771,0.880247,0.00360649,0.013352,923,1639,2.75136,-34.4854
-294,-615,2.74823,35.0073,0.00302523,0.00434501,0.00302831,0.0067845,0.000585744,0.892675,0.00434094,0.0108012,930,1639,2.7482,-35.0073
-287,-615,2.69684,35.5336,0.00367038,0.00557947,0.00347621,0.00822981,0.00102004,0.919393,0.00518012,0.0083084,937,1639,2.69682,-35.5336
-280,-615,2.69678,36.05,0.00452517,0.00684079,0.00411338,0.0099562,0.00140976,0.922586,0.00622102,0.00942855,944,1639,2.69677,-36.0501
-273,-615,2.68671,36.5725,0.00558332,0.00807826,0.00490988,0.0118967,0.00176491,0.909803,0.00741317,0.0112413,951,1639,2.68669,-36.5726
-266,-615,2.67029,37.0867,0.00666544,0.00941561,0.00576986,0.013972,0.00210907,0.902377,0.00869729,0.0117147,958,1639,2.6703,-37.0867
-259,-615,2.68604,37.5886,0.00787702,0.0107766,0.00671635,0.0161978,0.00245577,0.891697,0.0100802,0.0126597,965,1639,2.68601,-37.5886
-252,-615,2.69366,38.1635,0.00926799,0.0120703,0.00773569,0.0185307,0.00280759,0.874992,0.0115324,0.0174582,972,1639,2.69365,-38.1634
-245,-615,2.81512,38.8394,0.0105326,0.0132707,0.00875452,0.0207626,0.00304073,0.862962,0.0129477,0.0302815,979,1639,2.81511,-38.8393
-238,-615,2.79944,39.4034,0.0118129,0.0139618,0.0094408,0.0223891,0.00338564,0.842059,0.0139353,0.0454277,986,1639,2.79942,-39.4034
-231,-615,3.07855,39.9072,0,0,0,0,0,0,0,-1,993,1639,3.07858,-39.9072
-224,-615,3.17621,40.1392,0,0,0,0,0,0,0,-1,1000,1639,3.17624,-40.1391
-217,-615,3.99097,27.3737,0,0,0,0,0,0,0,-1,1007,1639,3.99096,-27.3736
-210,-615,2.48901,18.9324,0,0,0,0,0,0,0,-1,1014,1639,2.48902,-18.9323
-203,-615,2.13684,18.6173,0,0,0,0,0,0,0,-1,1021,1639,2.13683,-18.6173
-196,-615,4.27161,21.3264,0,0,0,0,0,0,0,-1,1028,1639,4.27165,-21.3264
-189,-615,1.8269,19.6761,0,0,0,0,0,0,0,-1,1035,1639,1.82691,-19.6761
-182,-615,1.63489,20.2278,0,0,0,0,0,0,0,-1,1042,1639,1.63492,-20.2277
-175,-615,-0.609985,13.8434,0,0,0,0,0,0,0,-1,1049,1639,-0.610016,-13.8434
-168,-615,3.85754,15.472,0,0,0,0,0,0,0,-1,1056,1639,3.85757,-15.472
-161,-615,6.29199,42.7927,0,0,0,0,0,0,0,-1,1063,1639,6.29198,-42.7928
-154,-615,2.54175,45.5796,0,0,0,0,0,0,0,-1,1070,1639,2.54178,-45.5797
-147,-615,2.20679,46.9742,0,0,0,0,0,0,0,-1,1077,1639,2.20676,-46.9743
-140,-615,3.73401,10.2349,0,0,0,0,0,0,0,-1,1084,1639,3.73402,-10.2348
-133,-615,2.6178,17.45,0,0,0,0,0,0,0,-1,1091,1639,2.61776,-17.4499
-126,-615,4.43408,12.5017,0,0,0,0,0,0,0,-1,1098,1639,4.43403,-12.5018
-119,-615,4.82983,13.9279,0,0,0,0,0,0,0,-1,1105,1639,4.82986,-13.9278
-112,-615,3.65698,14.4874,0,0,0,0,0,0,0,-1,1112,1639,3.65695,-14.4875
-105,-615,0.958496,2.45398,0,0,0,0,0,0,0,-1,1119,1639,0.958452,-2.45398
-98,-615,-0.647705,2.12109,0,0,0,0,0,0,0,-1,1126,1639,-0.647756,-2.12105
-91,-615,-3.07983,2.97375,0,0,0,0,0,0,0,-1,1133,1639,-3.07989,-2.97376
-84,-615,-2.46509,0.703247,0,0,0,0,0,0,0,-1,1140,1639,-2.46505,-0.703273
-77,-615,-3.17859,1.23755,0,0,0,0,0,0,0,-1,1147,1639,-3.17865,-1.23752
-70,-615,-4.03943,1.43335,0,0,0,0,0,0,0,-1,1154,1639,-4.03942,-1.43339
-63,-615,-4.8877,1.45544,0,0,0,0,0,0,0,-1,1161,1639,-4.88766,-1.45549
-56,-615,0,0,0,0,0,0,0,0,0,-1,1168,1639,0,0
-49,-615,0,0,0,0,0,0,0,0,0,-1,1175,1639,0,0
-42,-615,0,0,0,0,0,0,0,0,0,-1,1182,1639,0,0
-35,-615,0,0,0,0,0,0,0,0,0,-1,1189,1639,0,0
-28,-615,0,0,0,0,0,0,0,0,0,-1,1196,1639,0,0
-21,-615,0,0,0,0,0,0,0,0,0,-1,1203,1639,0,0
-14,-615,0,0,0,0,0,0,0,0,0,-1,1210,1639,0,0
-7,-615,0,0,0,0,0,0,0,0,0,-1,1217,1639,0,0
0,-615,0,0,0,0,0,0,0,0,0,-1,1224,1639,0,0
7,-615,0,0,0,0,0,0,0,0,0,-1,1231,1639,0,0
14,-615,0,0,0,0,0,0,0,0,0,-1,1238,1639,0,0
21,-615,0,0,0,0,0,0,0,0,0,-1,1245,1639,0,0
28,-615,0,0,0,0,0,0,0,0,0,-1,1252,1639,0,0
35,-615,0,0,0,0,0,0,0,0,0,-1,1259,1639,0,0
42,-615,0,0,0,0,0,0,0,0,0,-1,1266,1639,0,0
49,-615,0,0,0,0,0,0,0,0,0,-1,1273,1639,0,0
56,-615,0,0,0,0,0,0,0,0,0,-1,1280,1639,0,0
63,-615,0,0,0,0,0,0,0,0,0,-1,1287,1639,0,0
70,-615,0,0,0,0,0,0,0,0,0,-1,1294,1639,0,0
77,-615,0,0,0,0,0,0,0,0,0,-1,1301,1639,0,0
84,-615,0,0,0,0,0,0,0,0,0,-1,1308,1639,0,0
91,-615,0,0,0,0,0,0,0,0,0,-1,1315,1639,0,0
98,-615,0,0,0,0,0,0,0,0,0,-1,1322,1639,0,0
105,-615,0,0,0,0,0,0,0,0,0,-1,1329,1639,0,0
112,-615,0,0,0,0,0,0,0,0,0,-1,1336,1639,0,0
119,-615,0,0,0,0,0,0,0,0,0,-1,1343,1639,0,0
126,-615,0,0,0,0,0,0,0,0,0,-1,1350,1639,0,0
133,-615,0,0,0,0,0,0,0,0,0,-1,1357,1639,0,0
140,-615,0,0,0,0,0,0,0,0,0,-1,1364,1639,0,0
147,-615,0,0,0,0,0,0,0,0,0,-1,1371,1639,0,0
154,-615,0,0,0,0,0,0,0,0,0,-1,1378,1639,0,0
161,-615,0,0,0,0,0,0,0,0,0,-1,1385,1639,0,0
168,-615,0,0,0,0,0,0,0,0,0,-1,1392,1639,0,0
175,-615,5.39648,-2.00879,0,0,0,0,0,0,0,-1,1399,1639,5.3965,2.00881
182,-615,5.65393,-1.51025,0,0,0,0,0,0,0,-1,1406,1639,5.65388,1.51028
189,-615,5.58972,-1.35608,0,0,0,0,0,0,0,-1,1413,1639,5.58967,1.35607
196,-615,5.49915,-0.693604,0,0,0,0,0,0,0,-1,1420,1639,5.4991,0.693602
203,-615,5.33411,-0.226685,0,0,0,0,0,0,0,-1,1427,1639,5.33414,0.226689
210,-615,5.60278,0.108276,0,0,0,0,0,0,0,-1,1434,1639,5.60284,-0.10831
217,-615,6.26331,-0.307373,0,0,0,0,0,0,0,-1,1441,1639,6.26331,0.307372
224,-615,5.45422,-0.333984,0,0,0,0,0,0,0,-1,1448,1639,5.45422,0.333992
231,-615,4.92542,1.80298,0,0,0,0,0,0,0,-1,1455,1639,4.92537,-1.80297
238,-615,4.76355,1.96729,0,0,0,0,0,0,0,-1,1462,1639,4.76357,-1.96734
245,-615,4.08643,3.15906,0,0,0,0,0,0,0,-1,1469,1639,4.08638,-3.159
252,-615,6.37805,3.73889,0,0,0,0,0,0,0,-1,1476,1639,6.37806,-3.73891
259,-615,8.35974,3.16443,0,0,0,0,0,0,0,-1,1483,1639,8.35975,-3.16444
266,-615,10.3414,2.58997,0,0,0,0,0,0,0,-1,1490,1639,10.3414,-2.58996
273,-615,6.57043,1.84766,0,0,0,0,0,0,0,-1,1497,1639,6.5704,-1.84771
280,-615,7.10449,3.23438,0,0,0,0,0,0,0,-1,1504,1639,7.10447,-3.23435
287,-615,7.35779,4.68542,0,0,0,0,0,0,0,-1,1511,1639,7.35776,-4.68546
294,-615,7.63733,6.29114,0,0,0,0,0,0,0,-1,1518,1639,7.63735,-6.29109
301,-615,8.47925,11.452,0,0,0,0,0,0,0,-1,1525,1639,8.47922,-11.452
308,-615,6.8114,10.9059,0,0,0,0,0,0,0,-1,1532,1639,6.81137,-10.9058
315,-615,5.1427,14.7251,0,0,0,0,0,0,0,-1,1539,1639,5.14269,-14.7251
322,-615,7.17981,17.6864,0,0,0,0,0,0,0,-1,1546,1639,7.17985,-17.6864
329,-615,7.62134,20.4354,0,0,0,0,0,0,0,-1,1553,1639,7.62139,-20.4354
336,-615,6.45007,14.1138,0,0,0,0,0,0,0,-1,1560,1639,6.45011,-14.1138
343,-615,2.40491,6.50134,0,0,0,0,0,0,0,-1,1567,1639,2.40489,-6.50137
350,-615,15.0112,42.2322,0,0,0,0,0,0,0,-1,1574,1639,15.0112,-42.2322
357,-615,14.7334,40.9304,0,0,0,0,0,0,0,-1,1581,1639,14.7334,-40.9304
364,-615,14.2565,40.5734,0.0119535,0.040912,-0.0177892,0.0493697,0.0034958,-1.12699,0.0318119,0.0498033,1588,1639,14.2564,-40.5734
371,-615,14.6846,39.7399,0.0101932,0.0330349,-0.014173,0.0398159,0.00341216,-1.12454,0.0254828,0.039826,1595,1639,14.6845,-39.7399
378,-615,14.8583,38.801,0.00822561,0.0261021,-0.0107019,0.0311074,0.00322029,-1.13332,0.0197525,0.0203967,1602,1639,14.8582,-38.8011
385,-615,14.856,38.2236,0.00638043,0.0209591,-0.00798661,0.0244828,0.0028568,-1.15529,0.0154578,0.0123493,1609,1639,14.8559,-38.2236
392,-615,14.8912,37.7356,0.00479189,0.0165602,-0.00575465,0.0189065,0.00244566,-1.18366,0.0118733,0.0107503,1616,1639,14.8912,-37.7356
399,-615,14.8922,37.2467,0.00333693,0.0130107,-0.00398644,0.0144418,0.00190587,-1.22614,0.00905963,0.0113747,1623,1639,14.8923,-37.2467
406,-615,14.885,36.7869,0.00227158,0.00984078,-0.00265379,0.0106785,0.00143386,-1.26503,0.00669244,0.0114046,1630,1639,14.885,-36.7869
413,-615,14.8773,36.3291,0.00150849,0.00787664,-0.00184871,0.00837442,0.00101071,-1.30778,0.0052784,0.0127109,1637,1639,14.8773,-36.3291
420,-615,14.8594,35.8241,0.000778393,0.00608013,-0.00118809,0.0063342,0.000524323,-1.36012,0.00405933,0.013871,1644,1639,14.8594,-35.8241
427,-615,14.8582,35.2993,0.000329666,0.00458399,-0.000830737,0.00474045,0.000173203,-1.38463,0.00310418,0.0158677,1651,1639,14.8582,-35.2994
434,-615,14.8483,34.7936,0.000223456,0.00358293,-0.000833156,0.0037782,2.81821e-05,-1.34057,0.00250946,0.0155712,1658,1639,14.8482,-34.7936
441,-615,14.8429,34.2694,0.000337305,0.00267029,-0.00104394,0.00306921,-6.16141e-05,-1.20579,0.00206698,0.0155004,1665,1639,14.8429,-34.2694
448,-615,14.8335,33.754,0.000449939,0.00154527,-0.00113517,0.00225798,-0.000262775,-1.01015,0.00160012,0.0149536,1672,1639,14.8335,-33.754
455,-615,14.8138,33.2391,0.000531727,0.000482293,-0.00124287,0.00175013,-0.00073611,-0.775456,0.00147469,0.0137439,1679,1639,14.8138,-33.2391
462,-615,14.785,32.7197,0.00053531,-0.000682102,-0.00121586,0.00128632,-0.00143311,-0.553319,0.00157083,0.0138794,1686,1639,14.7851,-32.7197
469,-615,14.7566,32.1926,0.000448782,-0.00172491,-0.00113408,0.000932721,-0.00220885,-0.403331,0.001863,0.0114352,1693,1639,14.7566,-32.1927
476,-615,14.7327,31.6429,0.000256059,-0.00249666,-0.000972449,0.000564936,-0.00280553,-0.30755,0.00208435,0.0116111,1700,1639,14.7327,-31.6429
483,-615,14.7648,31.0459,-0.000336369,-0.00276327,-0.000759725,-0.000118162,-0.00298148,-0.27969,0.00194946,0.025529,1707,1639,14.7648,-31.0459
490,-615,14.7339,30.532,-0.00115616,-0.00285919,-0.000656876,-0.000932234,-0.00308311,-0.328534,0.0018258,0.0379104,1714,1639,14.7339,-30.532
497,-615,14.6431,30.1165,-0.0018559,-0.00337845,-0.000326291,-0.00178892,-0.00344543,-0.202463,0.00198971,0.0467827,1721,1639,14.6431,-30.1165
504,-615,14.6467,29.5836,0,0,0,0,0,0,0,-1,1728,1639,14.6467,-29.5836
511,-615,14.4313,29.1592,0,0,0,0,0,0,0,-1,1735,1639,14.4313,-29.1592
518,-615,13.2416,9.81812,0,0,0,0,0,0,0,-1,1742,1639,13.2416,-9.81813
525,-615,4.37524,3.90491,0,0,0,0,0,0,0,-1,1749,1639,4.37518,-3.90495
532,-615,7.3645,0.848145,0,0,0,0,0,0,0,-1,1756,1639,7.36451,-0.848093
539,-615,12.8112,-0.0476074,0,0,0,0,0,0,0,-1,1763,1639,12.8111,0.0475553
546,-615,8.33813,2.94556,0,0,0,0,0,0,0,-1,1770,1639,8.33813,-2.9455
553,-615,5.82532,-2.04199,0,0,0,0,0,0,0,-1,1777,1639,5.82534,2.04195
560,-615,0,0,0,0,0,0,0,0,0,-1,1784,1639,0,0
567,-615,0,0,0,0,0,0,0,0,0,-1,1791,1639,0,0
574,-615,0,0,0,0,0,0,0,0,0,-1,1798,1639,0,0
581,-615,0,0,0,0,0,0,0,0,0,-1,1805,1639,0,0
588,-615,0,0,0,0,0,0,0,0,0,-1,1812,1639,0,0
595,-615,0,0,0,0,0,0,0,0,0,-1,1819,1639,0,0
602,-615,0,0,0,0,0,0,0,0,0,-1,1826,1639,0,0
609,-615,0,0,0,0,0,0,0,0,0,-1,1833,1639,0,0
616,-615,0,0,0,0,0,0,0,0,0,-1,1840,1639,0,0
623,-615,0,0,0,0,0,0,0,0,0,-1,1847,1639,0,0
630,-615,0,0,0,0,0,0,0,0,0,-1,1854,1639,0,0
637,-615,0,0,0,0,0,0,0,0,0,-1,1861,1639,0,0
644,-615,0,0,0,0,0,0,0,0,0,-1,1868,1639,0,0
651,-615,0,0,0,0,0,0,0,0,0,-1,1875,1639,0,0
658,-615,0,0,0,0,0,0,0,0,0,-1,1882,1639,0,0
665,-615,0,0,0,0,0,0,0,0,0,-1,1889,1639,0,0
672,-615,0,0,0,0,0,0,0,0,0,-1,1896,1639,0,0
679,-615,0,0,0,0,0,0,0,0,0,-1,1903,1639,0,0
686,-615,0,0,0,0,0,0,0,0,0,-1,1910,1639,0,0
693,-615,0,0,0,0,0,0,0,0,0,-1,1917,1639,0,0
700,-615,0,0,0,0,0,0,0,0,0,-1,1924,1639,0,0
707,-615,0,0,0,0,0,0,0,0,0,-1,1931,1639,0,0
714,-615,0,0,0,0,0,0,0,0,0,-1,1938,1639,0,0
721,-615,0,0,0,0,0,0,0,0,0,-1,1945,1639,0,0
728,-615,0,0,0,0,0,0,0,0,0,-1,1952,1639,0,0
735,-615,0,0,0,0,0,0,0,0,0,-1,1959,1639,0,0
742,-615,0,0,0,0,0,0,0,0,0,-1,1966,1639,0,0
749,-615,0,0,0,0,0,0,0,0,0,-1,1973,1639,0,0
756,-615,0,0,0,0,0,0,0,0,0,-1,1980,1639,0,0
763,-615,0,0,0,0,0,0,0,0,0,-1,1987,1639,0,0
770,-615,0,0,0,0,0,0,0,0,0,-1,1994,1639,0,0
777,-615,0,0,0,0,0,0,0,0,0,-1,2001,1639,0,0
784,-615,0,0,0,0,0,0,0,0,0,-1,2008,1639,0,0
791,-615,0,0,0,0,0,0,0,0,0,-1,2015,1639,0,0
798,-615,0,0,0,0,0,0,0,0,0,-1,2022,1639,0,0
805,-615,0,0,0,0,0,0,0,0,0,-1,2029,1639,0,0
812,-615,0,0,0,0,0,0,0,0,0,-1,2036,1639,0,0
-700,-622,0,0,0,0,0,0,0,0,0,-1,524,1646,0,0
-693,-622,0,0,0,0,0,0,0,0,0,-1,531,1646,0,0
-686,-622,0,0,0,0,0,0,0,0,0,-1,538,1646,0,0
-679,-622,0,0,0,0,0,0,0,0,0,-1,545,1646,0,0
-672,-622,0,0,0,0,0,0,0,0,0,-1,552,1646,0,0
-665,-622,0,0,0,0,0,0,0,0,0,-1,559,1646,0,0
-658,-622,0,0,0,0,0,0,0,0,0,-1,566,1646,0,0
-651,-622,0,0,0,0,0,0,0,0,0,-1,573,1646,0,0
-644,-622,0,0,0,0,0,0,0,0,0,-1,580,1646,0,0
-637,-622,0,0,0,0,0,0,0,0,0,-1,587,1646,0,0
-630,-622,0,0,0,0,0,0,0,0,0,-1,594,1646,0,0
-623,-622,0,0,0,0,0,0,0,0,0,-1,601,1646,0,0
-616,-622,0,0,0,0,0,0,0,0,0,-1,608,1646,0,0
-609,-622,0,0,0,0,0,0,0,0,0,-1,615,1646,0,0
-602,-622,0,0,0,0,0,0,0,0,0,-1,622,1646,0,0
-595,-622,0,0,0,0,0,0,0,0,0,-1,629,1646,0,0
-588,-622,0,0,0,0,0,0,0,0,0,-1,636,1646,0,0
-581,-622,0,0,0,0,0,0,0,0,0,-1,643,1646,0,0
-574,-622,0,0,0,0,0,0,0,0,0,-1,650,1646,0,0
-567,-622,0,0,0,0,0,0,0,0,0,-1,657,1646,0,0
-560,-622,0,0,0,0,0,0,0,0,0,-1,664,1646,0,0
-553,-622,0,0,0,0,0,0,0,0,0,-1,671,1646,0,0
-546,-622,0,0,0,0,0,0,0,0,0,-1,678,1646,0,0
-539,-622,0,0,0,0,0,0,0,0,0,-1,685,1646,0,0
-532,-622,0,0,0,0,0,0,0,0,0,-1,692,1646,0,0
-525,-622,0,0,0,0,0,0,0,0,0,-1,699,1646,0,0
-518,-622,0,0,0,0,0,0,0,0,0,-1,706,1646,0,0
-511,-622,0,0,0,0,0,0,0,0,0,-1,713,1646,0,0
-504,-622,0,0,0,0,0,0,0,0,0,-1,720,1646,0,0
-497,-622,0,0,0,0,0,0,0,0,0,-1,727,1646,0,0
-490,-622,0,0,0,0,0,0,0,0,0,-1,734,1646,0,0
-483,-622,0,0,0,0,0,0,0,0,0,-1,741,1646,0,0
-476,-622,0,0,0,0,0,0,0,0,0,-1,748,1646,0,0
-469,-622,0,0,0,0,0,0,0,0,0,-1,755,1646,0,0
-462,-622,0,0,0,0,0,0,0,0,0,-1,762,1646,0,0
-455,-622,0,0,0,0,0,0,0,0,0,-1,769,1646,0,0
-448,-622,0,0,0,0,0,0,0,0,0,-1,776,1646,0,0
-441,-622,0,0,0,0,0,0,0,0,0,-1,783,1646,0,0
-434,-622,0,0,0,0,0,0,0,0,0,-1,790,1646,0,0
-427,-622,-7.62891,3.48096,0,0,0,0,0,0,0,-1,797,1646,-7.62892,-3.48092
-420,-622,-9.35791,1.77185,0,0,0,0,0,0,0,-1,804,1646,-9.35789,-1.77183
-413,-622,-8.46075,1.96777,0,0,0,0,0,0,0,-1,811,1646,-8.46074,-1.96774
-406,-622,-4.44318,2.16858,0,0,0,0,0,0,0,-1,818,1646,-4.44315,-2.16859
-399,-622,-7.06976,1.51001,0,0,0,0,0,0,0,-1,825,1646,-7.06976,-1.51005
-392,-622,3.89551,5.85376,0,0,0,0,0,0,0,-1,832,1646,3.8955,-5.85379
-385,-622,2.00543,14.0448,0,0,0,0,0,0,0,-1,839,1646,2.00544,-14.0448
-378,-622,1.49036,15.3436,0,0,0,0,0,0,0,-1,846,1646,1.49033,-15.3436
-371,-622,3.23883,20.4496,0,0,0,0,0,0,0,-1,853,1646,3.23886,-20.4496
-364,-622,3.3067,29.4883,0,0,0,0,0,0,0,-1,860,1646,3.30672,-29.4883
-357,-622,3.56903,30.0167,0,0,0,0,0,0,0,-1,867,1646,3.56904,-30.0168
-350,-622,3.53821,30.6783,-0.000225827,-0.00208148,0.00288487,0.00187675,-0.00418406,0.629813,0.00358273,0.0482636,874,1646,3.53823,-30.6783
-343,-622,3.41931,31.1781,0.000515963,-0.00119023,0.00320453,0.002979,-0.00365328,0.655307,0.00383574,0.0241563,881,1646,3.41928,-31.1781
-336,-622,3.40863,31.7297,0.00104808,-0.000643705,0.00326813,0.00357801,-0.00317364,0.658762,0.0039004,0.00934868,888,1646,3.40863,-31.7298
-329,-622,3.36871,32.2948,0.00135267,0.000145861,0.00330025,0.00410422,-0.00260569,0.694979,0.00390604,0.00893766,895,1646,3.36873,-32.2948
-322,-622,3.33759,32.8694,0.00142707,0.000638319,0.00311767,0.00417521,-0.00210982,0.722484,0.0036934,0.0110676,902,1646,3.33756,-32.8694
-315,-622,3.30664,33.4365,0.00144471,0.00107671,0.0028648,0.00413141,-0.00160999,0.753328,0.0034197,0.015097,909,1646,3.30662,-33.4365
-308,-622,3.3045,33.9661,0.00150581,0.00167662,0.00262696,0.00421956,-0.00103714,0.801648,0.00321501,0.0149242,916,1646,3.30452,-33.9661
-301,-622,3.29907,34.4885,0.00173701,0.00229233,0.00254931,0.00457906,-0.000549718,0.839642,0.00325148,0.0142876,923,1646,3.2991,-34.4885
-294,-622,3.2699,35.0273,0.0022168,0.00298755,0.00269592,0.0053255,-0.000121152,0.856391,0.0035914,0.0115238,930,1646,3.2699,-35.0274
-287,-622,3.23126,35.5521,0.00269917,0.00389905,0.00287059,0.00623173,0.000366494,0.888413,0.00403787,0.00843649,937,1646,3.23128,-35.5522
-280,-622,3.21362,36.0684,0.00334929,0.00482686,0.00320275,0.00737493,0.000801222,0.898752,0.0046725,0.00920646,944,1646,3.21364,-36.0683
-273,-622,3.22693,36.554,0.00413511,0.00566414,0.00363405,0.00861322,0.00118603,0.889074,0.00539047,0.0143916,951,1646,3.22692,-36.5539
-266,-622,3.20166,37.0592,0.00500196,0.00669798,0.00419132,0.0101262,0.00157373,0.885214,0.00629218,0.013825,958,1646,3.20165,-37.0592
-259,-622,3.19073,37.5909,0.00597144,0.0077539,0.00480335,0.011748,0.00197733,0.877127,0.00726317,0.0120767,965,1646,3.19076,-37.591
-252,-622,3.17944,38.0869,0.00700305,0.00876745,0.00546286,0.0134189,0.00235161,0.865452,0.0082742,0.0127697,972,1646,3.17945,-38.0869
-245,-622,3.23523,38.5913,0.00794887,0.00967438,0.0061223,0.0149944,0.00262884,0.855397,0.00924543,0.0117062,979,1646,3.23524,-38.5913
-238,-622,3.24506,39.0853,0.00892036,0.0101776,0.00651769,0.0160969,0.00300104,0.833473,0.00988397,0.0166579,986,1646,3.24506,-39.0854
-231,-622,3.33496,39.6703,0.00985478,0.00995762,0.00671531,0.0166217,0.00319069,0.789227,0.0101855,0.0301794,993,1646,3.33493,-39.6703
-224,-622,3.44598,40.0579,0.0104351,0.0102334,0.00698271,0.0173177,0.00335082,0.77818,0.0106061,0.0445746,1000,1646,3.44601,-40.0579
-217,-622,3.53687,40.6801,0,0,0,0,0,0,0,-1,1007,1646,3.53685,-40.68
-210,-622,3.87927,28.0903,0,0,0,0,0,0,0,-1,1014,1646,3.87925,-28.0903
-203,-622,4.21375,20.9574,0,0,0,0,0,0,0,-1,1021,1646,4.21375,-20.9574
-196,-622,4.18518,21.2491,0,0,0,0,0,0,0,-1,1028,1646,4.18521,-21.2491
-189,-622,4.98254,25.8979,0,0,0,0,0,0,0,-1,1035,1646,4.98255,-25.8979
-182,-622,2.21411,20.6752,0,0,0,0,0,0,0,-1,1042,1646,2.21416,-20.6751
-175,-622,3.77185,44.1945,0,0,0,0,0,0,0,-1,1049,1646,3.77182,-44.1944
-168,-622,3.7063,44.4606,0,0,0,0,0,0,0,-1,1056,1646,3.70627,-44.4606
-161,-622,3.32092,44.4694,0,0,0,0,0,0,0,-1,1063,1646,3.32096,-44.4693
-154,-622,3.18665,45.0498,-0.0348808,0.0419652,0.000683325,0.0419712,-0.0348868,1.56191,0.0444368,0.0475704,1070,1646,3.1867,-45.0499
-147,-622,2.79272,45.9603,0,0,0,0,0,0,0,-1,1077,1646,2.79274,-45.9603
-140,-622,2.20422,46.5881,0,0,0,0,0,0,0,-1,1084,1646,2.20422,-46.5882
-133,-622,3.09644,17.677,0,0,0,0,0,0,0,-1,1091,1646,3.09638,-17.677
-126,-622,3.5061,19.5251,0,0,0,0,0,0,0,-1,1098,1646,3.50616,-19.5252
-119,-622,4.06384,13.1715,0,0,0,0,0,0,0,-1,1105,1646,4.06379,-13.1716
-112,-622,4.33276,14.6605,0,0,0,0,0,0,0,-1,1112,1646,4.33281,-14.6605
-105,-622,0.306519,4.38159,0,0,0,0,0,0,0,-1,1119,1646,0.306536,-4.38159
-98,-622,-0.510376,3.5033,0,0,0,0,0,0,0,-1,1126,1646,-0.510393,-3.50324
-91,-622,-1.146,0.975952,0,0,0,0,0,0,0,-1,1133,1646,-1.14599,-0.97597
-84,-622,-2.04895,1.31787,0,0,0,0,0,0,0,-1,1140,1646,-2.0489,-1.31781
-77,-622,-1.80627,0.332275,0,0,0,0,0,0,0,-1,1147,1646,-1.80622,-0.33223
-70,-622,-3.65588,2.28149,0,0,0,0,0,0,0,-1,1154,1646,-3.65589,-2.28155
-63,-622,-2.49683,1.27087,0,0,0,0,0,0,0,-1,1161,1646,-2.49679,-1.27093
-56,-622,-2.44238,-0.575562,0,0,0,0,0,0,0,-1,1168,1646,-2.44242,0.575508
-49,-622,-2.41089,1.38818,0,0,0,0,0,0,0,-1,1175,1646,-2.41088,-1.38815
-42,-622,-2.71497,2.85242,0,0,0,0,0,0,0,-1,1182,1646,-2.71491,-2.85247
-35,-622,-3.0177,4.25842,0,0,0,0,0,0,0,-1,1189,1646,-3.01773,-4.25838
-28,-622,-0.896606,0.678833,0,0,0,0,0,0,0,-1,1196,1646,-0.89661,-0.678835
-21,-622,16.4141,36.2849,0,0,0,0,0,0,0,-1,1203,1646,16.4141,-36.285
-14,-622,9.1084,44.876,0,0,0,0,0,0,0,-1,1210,1646,9.10842,-44.8759
-7,-622,9.02441,46.463,0,0,0,0,0,0,0,-1,1217,1646,9.02446,-46.463
0,-622,0,0,0,0,0,0,0,0,0,-1,1224,1646,0,0
7,-622,0,0,0,0,0,0,0,0,0,-1,1231,1646,0,0
14,-622,0,0,0,0,0,0,0,0,0,-1,1238,1646,0,0
21,-622,0,0,0,0,0,0,0,0,0,-1,1245,1646,0,0
28,-622,0,0,0,0,0,0,0,0,0,-1,1252,1646,0,0
35,-622,0,0,0,0,0,0,0,0,0,-1,1259,1646,0,0
42,-622,0,0,0,0,0,0,0,0,0,-1,1266,1646,0,0
49,-622,0,0,0,0,0,0,0,0,0,-1,1273,1646,0,0
56,-622,0,0,0,0,0,0,0,0,0,-1,1280,1646,0,0
63,-622,0,0,0,0,0,0,0,0,0,-1,1287,1646,0,0
70,-622,0,0,0,0,0,0,0,0,0,-1,1294,1646,0,0
77,-622,0,0,0,0,0,0,0,0,0,-1,1301,1646,0,0
84,-622,0,0,0,0,0,0,0,0,0,-1,1308,1646,0,0
91,-622,0,0,0,0,0,0,0,0,0,-1,1315,1646,0,0
98,-622,0,0,0,0,0,0,0,0,0,-1,1322,1646,0,0
105,-622,0,0,0,0,0,0,0,0,0,-1,1329,1646,0,0
112,-622,0,0,0,0,0,0,0,0,0,-1,1336,1646,0,0
119,-622,0,0,0,0,0,0,0,0,0,-1,1343,1646,0,0
126,-622,7.72327,55.5219,0,0,0,0,0,0,0,-1,1350,1646,7.72324,-55.5219
133,-622,9.63586,52.7753,0,0,0,0,0,0,0,-1,1357,1646,9.63583,-52.7753
140,-622,9.90186,52.1827,0,0,0,0,0,0,0,-1,1364,1646,9.90185,-52.1828
147,-622,18.2594,55.9216,0,0,0,0,0,0,0,-1,1371,1646,18.2594,-55.9216
154,-622,4.68335,31.5724,0,0,0,0,0,0,0,-1,1378,1646,4.68332,-31.5723
161,-622,10.6884,6.46448,0,0,0,0,0,0,0,-1,1385,1646,10.6883,-6.46442
168,-622,12.2402,5.18091,0,0,0,0,0,0,0,-1,1392,1646,12.2403,-5.1809
175,-622,5.64355,-1.77075,0,0,0,0,0,0,0,-1,1399,1646,5.64351,1.77077
182,-622,5.88586,-1.32251,0,0,0,0,0,0,0,-1,1406,1646,5.88587,1.32256
189,-622,5.97986,-1.18005,0,0,0,0,0,0,0,-1,1413,1646,5.97986,1.18003
196,-622,5.85022,-0.244507,0,0,0,0,0,0,0,-1,1420,1646,5.85026,0.244478
203,-622,5.25159,0.138794,0,0,0,0,0,0,0,-1,1427,1646,5.25162,-0.138822
210,-622,6.66833,0.0397949,0,0,0,0,0,0,0,-1,1434,1646,6.6684,-0.0398278
217,-622,6.12061,0.0506592,0,0,0,0,0,0,0,-1,1441,1646,6.12058,-0.0507181
224,-622,5.57275,0.0616455,0,0,0,0,0,0,0,-1,1448,1646,5.57276,-0.0616084
231,-622,5.31348,1.3949,0,0,0,0,0,0,0,-1,1455,1646,5.31342,-1.39495
238,-622,3.76477,2.90686,0,0,0,0,0,0,0,-1,1462,1646,3.7648,-2.90686
245,-622,5.13794,2.67993,0,0,0,0,0,0,0,-1,1469,1646,5.13796,-2.67992
252,-622,6.66528,2.53992,0,0,0,0,0,0,0,-1,1476,1646,6.66522,-2.53991
259,-622,8.93787,3.31458,0,0,0,0,0,0,0,-1,1483,1646,8.93791,-3.31454
266,-622,5.72644,3.11926,0,0,0,0,0,0,0,-1,1490,1646,5.72647,-3.1192
273,-622,7.28076,3.61218,0,0,0,0,0,0,0,-1,1497,1646,7.28071,-3.61212
280,-622,8.43127,4.4447,0,0,0,0,0,0,0,-1,1504,1646,8.43123,-4.44467
287,-622,8.60315,5.94617,0,0,0,0,0,0,0,-1,1511,1646,8.60319,-5.94622
294,-622,7.62756,11.5143,0,0,0,0,0,0,0,-1,1518,1646,7.62762,-11.5143
301,-622,7.36548,11.6569,0,0,0,0,0,0,0,-1,1525,1646,7.36549,-11.6569
308,-622,7.10339,11.7994,0,0,0,0,0,0,0,-1,1532,1646,7.10335,-11.7995
315,-622,8.28687,16.5842,0,0,0,0,0,0,0,-1,1539,1646,8.28689,-16.5843
322,-622,7.43689,20.5786,0,0,0,0,0,0,0,-1,1546,1646,7.43685,-20.5786
329,-622,9.76477,26.4202,0,0,0,0,0,0,0,-1,1553,1646,9.7648,-26.4202
336,-622,10.4526,28.8552,0,0,0,0,0,0,0,-1,1560,1646,10.4526,-28.8552
343,-622,14.0562,41.892,0,0,0,0,0,0,0,-1,1567,1646,14.0562,-41.892
350,-622,14.4954,41.6334,0.0123294,0.045649,-0.0196602,0.0547588,0.00321962,-1.13689,0.0354814,0.0433637,1574,1646,14.4953,-41.6334
357,-622,14.37,40.5511,0.0109484,0.0388507,-0.0166294,0.046606,0.00319303,-1.13442,0.0300629,0.0387312,1581,1646,14.37,-40.5511
364,-622,14.3264,39.9124,0.00963833,0.0325705,-0.0139222,0.0391404,0.00306835,-1.12988,0.0251333,0.035001,1588,1646,14.3265,-39.9123
371,-622,14.365,39.2695,0.00829559,0.0264866,-0.0112949,0.0318929,0.00288928,-1.12437,0.0203672,0.0230463,1595,1646,14.365,-39.2695
378,-622,14.3937,38.7312,0.00684838,0.0208349,-0.00868835,0.0249948,0.00268848,-1.12426,0.0158433,0.0117525,1602,1646,14.3937,-38.7313
385,-622,14.3959,38.2097,0.00543965,0.0166522,-0.00658966,0.0196977,0.00239411,-1.13787,0.012411,0.00934711,1609,1646,14.3959,-38.2097
392,-622,14.3881,37.7423,0.00415797,0.0130033,-0.00483171,0.0151309,0.00203042,-1.15601,0.00948317,0.0102825,1616,1646,14.388,-37.7424
399,-622,14.3676,37.2706,0.00292978,0.00990748,-0.00335467,0.0112587,0.0015786,-1.1879,0.00703882,0.0110366,1623,1646,14.3675,-37.2706
406,-622,14.3728,36.7937,0.00202898,0.00706798,-0.00220685,0.00789781,0.00119914,-1.21112,0.0049145,0.0146142,1630,1646,14.3728,-36.7936
413,-622,14.3652,36.3174,0.00133226,0.00524754,-0.00146172,0.00573305,0.000846744,-1.25011,0.00357338,0.0159518,1637,1646,14.3652,-36.3174
420,-622,14.3534,35.8346,0.000654894,0.00361496,-0.000851032,0.00384219,0.000427662,-1.30988,0.00243148,0.0156544,1644,1646,14.3534,-35.8346
427,-622,14.3627,35.3091,0.000251263,0.00226182,-0.000532196,0.002394,0.00011908,-1.32735,0.00155782,0.0138669,1651,1646,14.3626,-35.309
434,-622,14.3553,34.7979,0.000141009,0.00134816,-0.000531342,0.00154871,-5.95476e-05,-1.20988,0.00105289,0.0153909,1658,1646,14.3554,-34.7979
441,-622,14.3362,34.2828,0.000216265,0.00051024,-0.000712242,0.0010905,-0.000363999,-0.887156,0.000873978,0.0159084,1665,1646,14.3362,-34.2828
448,-622,14.3065,33.7809,0.00031587,-0.00048465,-0.000825739,0.000833245,-0.00100202,-0.55972,0.00106109,0.0140696,1672,1646,14.3065,-33.7809
455,-622,14.2737,33.2489,0.000430384,-0.00140416,-0.000963177,0.000843186,-0.00181696,-0.404903,0.00156976,0.0161909,1679,1646,14.2737,-33.2488
462,-622,14.2527,32.7438,0.000505666,-0.00237022,-0.00103909,0.000841812,-0.00270637,-0.312875,0.00214075,0.0181874,1686,1646,14.2527,-32.7437
469,-622,14.2122,32.2042,0.000513235,-0.00318557,-0.0011335,0.000832959,-0.0035053,-0.274925,0.00265838,0.0188412,1693,1646,14.2121,-32.2043
476,-622,14.3104,31.6768,0.000453129,-0.00374598,-0.00116564,0.000755002,-0.00404785,-0.253408,0.00298226,0.0310924,1700,1646,14.3105,-31.6768
483,-622,14.4221,31.0635,0,0,0,0,0,0,0,-1,1707,1646,14.4221,-31.0635
490,-622,14.2794,30.5829,0,0,0,0,0,0,0,-1,1714,1646,14.2794,-30.5829
497,-622,14.3027,30.4088,0,0,0,0,0,0,0,-1,1721,1646,14.3027,-30.4088
504,-622,10.8306,19.8021,0,0,0,0,0,0,0,-1,1728,1646,10.8306,-19.8022
511,-622,5.29004,4.14587,0,0,0,0,0,0,0,-1,1735,1646,5.29008,-4.14589
518,-622,5.6001,1.55359,0,0,0,0,0,0,0,-1,1742,1646,5.60015,-1.5536
525,-622,5.83093,2.01807,0,0,0,0,0,0,0,-1,1749,1646,5.83097,-2.01802
532,-622,5.44202,0.57373,0,0,0,0,0,0,0,-1,1756,1646,5.44196,-0.573705
539,-622,9.32129,1.06116,0,0,0,0,0,0,0,-1,1763,1646,9.32131,-1.0612
546,-622,6.50977,-3.45618,0,0,0,0,0,0,0,-1,1770,1646,6.50981,3.4562
553,-622,0,0,0,0,0,0,0,0,0,-1,1777,1646,0,0
560,-622,0,0,0,0,0,0,0,0,0,-1,1784,1646,0,0
567,-622,0,0,0,0,0,0,0,0,0,-1,1791,1646,0,0
574,-622,0,0,0,0,0,0,0,0,0,-1,1798,1646,0,0
581,-622,0,0,0,0,0,0,0,0,0,-1,1805,1646,0,0
588,-622,0,0,0,0,0,0,0,0,0,-1,1812,1646,0,0
595,-622,0,0,0,0,0,0,0,0,0,-1,1819,1646,0,0
602,-622,0,0,0,0,0,0,0,0,0,-1,1826,1646,0,0
609,-622,0,0,0,0,0,0,0,0,0,-1,1833,1646,0,0
616,-622,0,0,0,0,0,0,0,0,0,-1,1840,1646,0,0
623,-622,0,0,0,0,0,0,0,0,0,-1,1847,1646,0,0
630,-622,0,0,0,0,0,0,0,0,0,-1,1854,1646,0,0
637,-622,0,0,0,0,0,0,0,0,0,-1,1861,1646,0,0
644,-622,0,0,0,0,0,0,0,0,0,-1,1868,1646,0,0
651,-622,0,0,0,0,0,0,0,0,0,-1,1875,1646,0,0
658,-622,0,0,0,0,0,0,0,0,0,-1,1882,1646,0,0
665,-622,0,0,0,0,0,0,0,0,0,-1,1889,1646,0,0
672,-622,0,0,0,0,0,0,0,0,0,-1,1896,1646,0,0
679,-622,0,0,0,0,0,0,0,0,0,-1,1903,1646,0,0
686,-622,0,0,0,0,0,0,0,0,0,-1,1910,1646,0,0
693,-622,0,0,0,0,0,0,0,0,0,-1,1917,1646,0,0
700,-622,0,0,0,0,0,0,0,0,0,-1,1924,1646,0,0
707,-622,0,0,0,0,0,0,0,0,0,-1,1931,1646,0,0
714,-622,0,0,0,0,0,0,0,0,0,-1,1938,1646,0,0
721,-622,0,0,0,0,0,0,0,0,0,-1,1945,1646,0,0
728,-622,0,0,0,0,0,0,0,0,0,-1,1952,1646,0,0
735,-622,0,0,0,0,0,0,0,0,0,-1,1959,1646,0,0
742,-622,0,0,0,0,0,0,0,0,0,-1,1966,1646,0,0
749,-622,0,0,0,0,0,0,0,0,0,-1,1973,1646,0,0
756,-622,0,0,0,0,0,0,0,0,0,-1,1980,1646,0,0
763,-622,0,0,0,0,0,0,0,0,0,-1,1987,1646,0,0
770,-622,0,0,0,0,0,0,0,0,0,-1,1994,1646,0,0
777,-622,0,0,0,0,0,0,0,0,0,-1,2001,1646,0,0
784,-622,0,0,0,0,0,0,0,0,0,-1,2008,1646,0,0
791,-622,0,0,0,0,0,0,0,0,0,-1,2015,1646,0,0
798,-622,0,0,0,0,0,0,0,0,0,-1,2022,1646,0,0
805,-622,0,0,0,0,0,0,0,0,0,-1,2029,1646,0,0
812,-622,0,0,0,0,0,0,0,0,0,-1,2036,1646,0,0
-700,-629,0,0,0,0,0,0,0,0,0,-1,524,1653,0,0
-693,-629,0,0,0,0,0,0,0,0,0,-1,531,1653,0,0
-686,-629,0,0,0,0,0,0,0,0,0,-1,538,1653,0,0
-679,-629,0,0,0,0,0,0,0,0,0,-1,545,1653,0,0
-672,-629,0,0,0,0,0,0,0,0,0,-1,552,1653,0,0
-665,-629,0,0,0,0,0,0,0,0,0,-1,559,1653,0,0
-658,-629,0,0,0,0,0,0,0,0,0,-1,566,1653,0,0
-651,-629,0,0,0,0,0,0,0,0,0,-1,573,1653,0,0
-644,-629,0,0,0,0,0,0,0,0,0,-1,580,1653,0,0
-637,-629,0,0,0,0,0,0,0,0,0,-1,587,1653,0,0
-630,-629,0,0,0,0,0,0,0,0,0,-1,594,1653,0,0
-623,-629,0,0,0,0,0,0,0,0,0,-1,601,1653,0,0
-616,-629,0,0,0,0,0,0,0,0,0,-1,608,1653,0,0
-609,-629,0,0,0,0,0,0,0,0,0,-1,615,1653,0,0
-602,-629,0,0,0,0,0,0,0,0,0,-1,622,1653,0,0
-595,-629,0,0,0,0,0,0,0,0,0,-1,629,1653,0,0
-588,-629,0,0,0,0,0,0,0,0,0,-1,636,1653,0,0
-581,-629,0,0,0,0,0,0,0,0,0,-1,643,1653,0,0
-574,-629,0,0,0,0,0,0,0,0,0,-1,650,1653,0,0
-567,-629,0,0,0,0,0,0,0,0,0,-1,657,1653,0,0
-560,-629,0,0,0,0,0,0,0,0,0,-1,664,1653,0,0
-553,-629,0,0,0,0,0,0,0,0,0,-1,671,1653,0,0
-546,-629,0,0,0,0,0,0,0,0,0,-1,678,1653,0,0
-539,-629,0,0,0,0,0,0,0,0,0,-1,685,1653,0,0
-532,-629,0,0,0,0,0,0,0,0,0,-1,692,1653,0,0
-525,-629,0,0,0,0,0,0,0,0,0,-1,699,1653,0,0
-518,-629,0,0,0,0,0,0,0,0,0,-1,706,1653,0,0
-511,-629,0,0,0,0,0,0,0,0,0,-1,713,1653,0,0
-504,-629,0,0,0,0,0,0,0,0,0,-1,720,1653,0,0
-497,-629,0,0,0,0,0,0,0,0,0,-1,727,1653,0,0
-490,-629,0,0,0,0,0,0,0,0,0,-1,734,1653,0,0
-483,-629,0,0,0,0,0,0,0,0,0,-1,741,1653,0,0
-476,-629,0,0,0,0,0,0,0,0,0,-1,748,1653,0,0
-469,-629,0,0,0,0,0,0,0,0,0,-1,755,1653,0,0
-462,-629,0,0,0,0,0,0,0,0,0,-1,762,1653,0,0
-455,-629,0,0,0,0,0,0,0,0,0,-1,769,1653,0,0
-448,-629,0,0,0,0,0,0,0,0,0,-1,776,1653,0,0
-441,-629,0,0,0,0,0,0,0,0,0,-1,783,1653,0,0
-434,-629,0,0,0,0,0,0,0,0,0,-1,790,1653,0,0
-427,-629,0,0,0,0,0,0,0,0,0,-1,797,1653,0,0
-420,-629,-3.87103,3.37634,0,0,0,0,0,0,0,-1,804,1653,-3.87101,-3.37633
-413,-629,-5.69751,1.33582,0,0,0,0,0,0,0,-1,811,1653,-5.69754,-1.3358
-406,-629,2.85406,6.01501,0,0,0,0,0,0,0,-1,818,1653,2.85405,-6.01507
-399,-629,-0.455627,10.8687,0,0,0,0,0,0,0,-1,825,1653,-0.455625,-10.8687
-392,-629,1.15369,11.1295,0,0,0,0,0,0,0,-1,832,1653,1.1537,-11.1295
-385,-629,1.81976,11.6935,0,0,0,0,0,0,0,-1,839,1653,1.81975,-11.6935
-378,-629,2.19452,14.7941,0,0,0,0,0,0,0,-1,846,1653,2.19451,-14.7941
-371,-629,3.60114,14.7299,0,0,0,0,0,0,0,-1,853,1653,3.60113,-14.7299
-364,-629,3.26898,21.0801,0,0,0,0,0,0,0,-1,860,1653,3.26895,-21.08
-357,-629,4.38782,16.3444,0,0,0,0,0,0,0,-1,867,1653,4.38783,-16.3443
-350,-629,4.17896,30.751,0,0,0,0,0,0,0,-1,874,1653,4.17893,-30.751
-343,-629,3.90338,31.2205,0.00243053,-0.000738041,0.00506323,0.00615155,-0.00445906,0.633773,0.00615196,0.0359784,881,1653,3.90341,-31.2205
-336,-629,3.91602,31.7795,0.00271775,-0.000384496,0.00485949,0.00626767,-0.00393441,0.630912,0.0059413,0.0181967,888,1653,3.91601,-31.7796
-329,-629,3.9165,32.3335,0.0027526,0.000227543,0.00465901,0.00631711,-0.00333698,0.653083,0.00566162,0.0120544,895,1653,3.91652,-32.3335
-322,-629,3.86902,32.887,0.00253209,0.000483026,0.00420369,0.0058343,-0.00281918,0.665867,0.00509618,0.0119683,902,1653,3.86901,-32.8869
-315,-629,3.82843,33.4551,0.00224029,0.000614197,0.00364871,0.00516544,-0.00231095,0.675774,0.00442012,0.0156124,909,1653,3.8284,-33.455
-308,-629,3.82709,33.9966,0.00201165,0.000990101,0.00315426,0.00469622,-0.00169447,0.705129,0.00382293,0.0132975,916,1653,3.82709,-33.9966
-301,-629,3.82556,34.5465,0.00192434,0.00137455,0.00281103,0.00447388,-0.00117499,0.736658,0.00344177,0.0120795,923,1653,3.82555,-34.5465
-294,-629,3.79486,35.0648,0.00207798,0.00183272,0.00267369,0.00463185,-0.000721145,0.762482,0.00335422,0.0132249,930,1653,3.79484,-35.0648
-287,-629,3.75397,35.5787,0.00225846,0.0024883,0.00259526,0.00497119,-0.000224428,0.807525,0.00339141,0.0102828,937,1653,3.75396,-35.5787
-280,-629,3.74512,36.1035,0.0025764,0.00317708,0.0026657,0.0055593,0.000194178,0.841495,0.0036432,0.0108494,944,1653,3.74514,-36.1036
-273,-629,3.73169,36.5962,0.00298523,0.00373695,0.00278194,0.00616831,0.000553874,0.852545,0.00394058,0.0144669,951,1653,3.7317,-36.5962
-266,-629,3.71863,37.1011,0.00357386,0.00457098,0.00309478,0.0072071,0.000937741,0.865261,0.00452466,0.0144712,958,1653,3.71864,-37.1011
-259,-629,3.69885,37.6139,0.00428306,0.00541243,0.00346106,0.00835457,0.00134092,0.866262,0.00518091,0.0159927,965,1653,3.69882,-37.6139
-252,-629,3.69244,38.1029,0.00498861,0.00622072,0.00383659,0.00949039,0.00171893,0.865006,0.00583891,0.0124578,972,1653,3.69244,-38.1028
-245,-629,3.71619,38.6101,0.00577026,0.00691581,0.00422709,0.0106087,0.00207732,0.852739,0.00649181,0.00899293,979,1653,3.71616,-38.6101
-238,-629,3.72119,39.0812,0.00652982,0.0072985,0.00445251,0.0113832,0.00244509,0.828452,0.00691932,0.0113636,986,1653,3.7212,-39.0812
-231,-629,3.68011,39.5488,0.00725572,0.00714467,0.00454101,0.0117415,0.00265885,0.779285,0.00710913,0.01787,993,1653,3.68009,-39.5489
-224,-629,3.7843,40.1884,0.00775086,0.00739038,0.0046795,0.0122536,0.00288765,0.766149,0.00739684,0.0223722,1000,1653,3.78432,-40.1883
-217,-629,3.73224,40.5975,0.00705132,0.00847973,0.00429977,0.0121242,0.00340684,0.867699,0.00722027,0.0362911,1007,1653,3.73223,-40.5976
-210,-629,3.90936,41.2094,0,0,0,0,0,0,0,-1,1014,1653,3.90938,-41.2094
-203,-629,4.10999,41.1306,0,0,0,0,0,0,0,-1,1021,1653,4.11003,-41.1306
-196,-629,4.27222,42.0997,0,0,0,0,0,0,0,-1,1028,1653,4.27216,-42.0997
-189,-629,4.20264,42.2511,0,0,0,0,0,0,0,-1,1035,1653,4.20262,-42.2511
-182,-629,4.19763,42.6069,0,0,0,0,0,0,0,-1,1042,1653,4.1976,-42.6069
-175,-629,4.26318,43.8713,0,0,0,0,0,0,0,-1,1049,1653,4.26318,-43.8714
-168,-629,4.17102,44.1322,-0.0171611,0.026221,5.22669e-06,0.026221,-0.0171611,1.57068,0.0252281,0.0483068,1056,1653,4.17102,-44.1322
-161,-629,4.0188,44.3978,-0.0208837,0.0299645,-2.8386e-06,0.0299645,-0.0208837,-1.57074,0.0295128,0.0458288,1063,1653,4.01876,-44.3978
-154,-629,3.68689,44.8251,-0.0245062,0.0339261,3.55873e-05,0.0339262,-0.0245062,1.57019,0.0338818,0.0445782,1070,1653,3.68689,-44.8251
-147,-629,3.44434,45.1935,0,0,0,0,0,0,0,-1,1077,1653,3.44439,-45.1934
-140,-629,2.10181,41.6577,0,0,0,0,0,0,0,-1,1084,1653,2.10175,-41.6577
-133,-629,3.41248,17.6686,0,0,0,0,0,0,0,-1,1091,1653,3.41243,-17.6686
-126,-629,4.01025,19.5328,0,0,0,0,0,0,0,-1,1098,1653,4.01022,-19.5328
-119,-629,4.94177,13.5525,0,0,0,0,0,0,0,-1,1105,1653,4.94172,-13.5525
-112,-629,5.63123,15.9187,0,0,0,0,0,0,0,-1,1112,1653,5.63118,-15.9187
-105,-629,2.15881,4.38342,0,0,0,0,0,0,0,-1,1119,1653,2.15878,-4.38347
-98,-629,0.825806,4.19385,0,0,0,0,0,0,0,-1,1126,1653,0.825779,-4.1939
-91,-629,-0.452271,3.64465,0,0,0,0,0,0,0,-1,1133,1653,-0.452278,-3.6446
-84,-629,-2.6084,0.466797,0,0,0,0,0,0,0,-1,1140,1653,-2.6084,-0.466786
-77,-629,-3.50903,2.10706,0,0,0,0,0,0,0,-1,1147,1653,-3.509,-2.10707
-70,-629,-1.20886,2.52502,0,0,0,0,0,0,0,-1,1154,1653,-1.20886,-2.525
-63,-629,-0.960693,4.30212,0,0,0,0,0,0,0,-1,1161,1653,-0.960691,-4.30215
-56,-629,-1.31934,5.64343,0,0,0,0,0,0,0,-1,1168,1653,-1.31928,-5.6434
-49,-629,-2.15662,2.57458,0,0,0,0,0,0,0,-1,1175,1653,-2.15656,-2.57459
-42,-629,-2.46326,3.91467,0,0,0,0,0,0,0,-1,1182,1653,-2.4633,-3.91466
-35,-629,-2.67261,5.24292,0,0,0,0,0,0,0,-1,1189,1653,-2.67257,-5.24298
-28,-629,-0.402954,-0.866577,0,0,0,0,0,0,0,-1,1196,1653,-0.402943,0.866612
-21,-629,3.45508,27.0596,0,0,0,0,0,0,0,-1,1203,1653,3.45508,-27.0596
-14,-629,9.41882,45.3539,0,0,0,0,0,0,0,-1,1210,1653,9.41882,-45.3539
-7,-629,9.22595,46.5137,0.0269985,0.00105891,0.0922658,0.107202,-0.0791443,0.715571,0.107993,0.0466358,1217,1653,9.22593,-46.5137
0,-629,9.31628,47.5304,0.0406629,-0.0103552,0.0808579,0.0999401,-0.0696324,0.632599,0.0984226,0.0447814,1224,1653,9.31635,-47.5304
7,-629,9.63538,48.313,0.0891387,-0.0253519,0.0879862,0.136863,-0.0730761,0.496994,0.123059,0.0445379,1231,1653,9.63532,-48.313
14,-629,9.53674,48.636,0,0,0,0,0,0,0,-1,1238,1653,9.53669,-48.6359
21,-629,9.62939,49.0841,0.158578,0.124184,0.10152,0.244347,0.038415,0.701497,0.151723,0.0452309,1245,1653,9.62938,-49.0841
28,-629,9.8374,49.7021,0,0,0,0,0,0,0,-1,1252,1653,9.83744,-49.7021
35,-629,3.61572,48.9219,0,0,0,0,0,0,0,-1,1259,1653,3.61576,-48.9218
42,-629,3.5376,55.5764,0,0,0,0,0,0,0,-1,1266,1653,3.53763,-55.5764
49,-629,4.67261,54.8146,0,0,0,0,0,0,0,-1,1273,1653,4.67265,-54.8145
56,-629,3.09937,61.7854,0,0,0,0,0,0,0,-1,1280,1653,3.09936,-61.7854
63,-629,3.5675,60.6285,0.28638,0.447101,0.0961199,0.492028,0.241453,1.13357,0.284088,0.0440862,1287,1653,3.56746,-60.6285
70,-629,4.23401,59.4746,0.253644,0.450577,0.0769458,0.477076,0.227145,1.23914,0.275545,0.0424983,1294,1653,4.23405,-59.4746
77,-629,4.94531,58.677,0,0,0,0,0,0,0,-1,1301,1653,4.94533,-58.6771
84,-629,5.3866,58.2808,0.18622,0.402796,0.0332514,0.407786,0.18123,1.42183,0.23592,0.0448764,1308,1653,5.38666,-58.2807
91,-629,5.96948,57.8829,0.15741,0.357507,0.0121218,0.358239,0.156678,1.51051,0.20737,0.0416765,1315,1653,5.96947,-57.8829
98,-629,6.41174,57.5377,0.134968,0.312279,-0.00583222,0.312471,0.134776,-1.53795,0.180971,0.0434252,1322,1653,6.41172,-57.5378
105,-629,6.68835,56.7905,0,0,0,0,0,0,0,-1,1329,1653,6.68832,-56.7906
112,-629,7.13232,55.8632,0.0929337,0.221139,-0.0413673,0.233328,0.0807448,-1.28425,0.136824,0.0464256,1336,1653,7.13232,-55.8631
119,-629,7.6001,54.9897,0.0830601,0.163428,-0.0513581,0.188455,0.0580336,-1.11737,0.111448,0.0449431,1343,1653,7.60008,-54.9898
126,-629,7.98535,54.4027,0,0,0,0,0,0,0,-1,1350,1653,7.98529,-54.4027
133,-629,9.48242,52.3676,0.0760446,0.110206,-0.049078,0.145091,0.04116,-0.952859,0.0863418,0.0483998,1357,1653,9.48238,-52.3676
140,-629,9.80396,51.8168,0,0,0,0,0,0,0,-1,1364,1653,9.80392,-51.8168
147,-629,10.2654,51.9768,0,0,0,0,0,0,0,-1,1371,1653,10.2654,-51.9768
154,-629,1.58569,52.5651,0,0,0,0,0,0,0,-1,1378,1653,1.58564,-52.5651
161,-629,10.5461,6.83752,0,0,0,0,0,0,0,-1,1385,1653,10.5461,-6.83758
168,-629,12.0059,5.56348,0,0,0,0,0,0,0,-1,1392,1653,12.0059,-5.56352
175,-629,5.84485,-1.78845,0,0,0,0,0,0,0,-1,1399,1653,5.84479,1.7884
182,-629,5.99036,-1.27783,0,0,0,0,0,0,0,-1,1406,1653,5.99041,1.27778
189,-629,5.97668,-0.748535,0,0,0,0,0,0,0,-1,1413,1653,5.97671,0.748544
196,-629,4.52869,9.24695,0,0,0,0,0,0,0,-1,1420,1653,4.52869,-9.2469
203,-629,3.75085,6.88037,0,0,0,0,0,0,0,-1,1427,1653,3.75087,-6.88032
210,-629,3.5907,6.52637,0,0,0,0,0,0,0,-1,1434,1653,3.59067,-6.52642
217,-629,2.4585,4.84448,0,0,0,0,0,0,0,-1,1441,1653,2.45855,-4.84448
224,-629,1.31982,3.68481,0,0,0,0,0,0,0,-1,1448,1653,1.31986,-3.68487
231,-629,3.63025,1.73499,0,0,0,0,0,0,0,-1,1455,1653,3.6303,-1.735
238,-629,4.26428,2.11255,0,0,0,0,0,0,0,-1,1462,1653,4.26429,-2.11253
245,-629,5.61816,1.95361,0,0,0,0,0,0,0,-1,1469,1653,5.61815,-1.95359
252,-629,7.27136,2.18982,0,0,0,0,0,0,0,-1,1476,1653,7.27131,-2.18985
259,-629,8.67334,2.18628,0,0,0,0,0,0,0,-1,1483,1653,8.6733,-2.18633
266,-629,6.86475,3.72058,0,0,0,0,0,0,0,-1,1490,1653,6.86479,-3.72063
273,-629,7.9021,3.8717,0,0,0,0,0,0,0,-1,1497,1653,7.90205,-3.87171
280,-629,9.70837,4.39087,0,0,0,0,0,0,0,-1,1504,1653,9.7084,-4.39082
287,-629,9.82947,7.19348,0,0,0,0,0,0,0,-1,1511,1653,9.8295,-7.19347
294,-629,6.56555,11.6359,0,0,0,0,0,0,0,-1,1518,1653,6.5656,-11.6358
301,-629,14.6523,43.5507,0,0,0,0,0,0,0,-1,1525,1653,14.6523,-43.5507
308,-629,6.08264,12.1423,0,0,0,0,0,0,0,-1,1532,1653,6.08263,-12.1423
315,-629,6.82043,18.2764,0,0,0,0,0,0,0,-1,1539,1653,6.82049,-18.2764
322,-629,14.1931,43.8071,0,0,0,0,0,0,0,-1,1546,1653,14.1931,-43.8071
329,-629,13.9495,42.2172,0,0,0,0,0,0,0,-1,1553,1653,13.9495,-42.2172
336,-629,13.6052,42.0327,0,0,0,0,0,0,0,-1,1560,1653,13.6053,-42.0327
343,-629,13.7147,41.4518,0.0102715,0.0398761,-0.0164202,0.0471811,0.00296653,-1.15221,0.0305133,0.0421503,1567,1653,13.7147,-41.4517
350,-629,13.9205,40.7163,0.00945087,0.0347672,-0.0144121,0.0412907,0.00292732,-1.14575,0.0266051,0.0278545,1574,1653,13.9205,-40.7164
357,-629,13.9648,40.1091,0.00854256,0.0298348,-0.012447,0.0355675,0.00280983,-1.13918,0.0228328,0.016154,1581,1653,13.9649,-40.1092
364,-629,13.915,39.6262,0.00759446,0.0251872,-0.0106032,0.0301678,0.00261391,-1.13166,0.0192996,0.0143453,1588,1653,13.9151,-39.6263
371,-629,13.9059,39.1763,0.00656944,0.0206285,-0.00876267,0.0248328,0.00236516,-1.12344,0.0158258,0.0122354,1595,1653,13.9058,-39.1763
378,-629,13.9154,38.6934,0.00551662,0.0160771,-0.00683849,0.0194366,0.00215708,-1.11416,0.0123019,0.0105515,1602,1653,13.9154,-38.6933
385,-629,13.9181,38.2363,0.00443856,0.0127217,-0.00522816,0.0152499,0.00191033,-1.12037,0.00959346,0.0124378,1609,1653,13.9181,-38.2363
392,-629,13.8892,37.7712,0.00337384,0.00973727,-0.00385114,0.011551,0.0015601,-1.13065,0.00723691,0.0108244,1616,1653,13.8892,-37.7712
399,-629,13.8635,37.2949,0.0023143,0.00706044,-0.00261173,0.00821619,0.00115854,-1.15418,0.00513503,0.0113904,1623,1653,13.8635,-37.2949
406,-629,13.8962,36.8175,0.00153348,0.0045555,-0.00162022,0.00525995,0.000829027,-1.16067,0.00326556,0.0146824,1630,1653,13.8962,-36.8175
413,-629,13.8739,36.3285,0.000901158,0.00291146,-0.000962578,0.00329803,0.000514589,-1.18891,0.00204881,0.0227352,1637,1653,13.8739,-36.3285
420,-629,13.8284,35.859,0.000289219,0.00145597,-0.000435135,0.00160038,0.000144811,-1.25036,0.00102208,0.0213152,1644,1653,13.8284,-35.859
427,-629,13.8519,35.3409,-6.25759e-05,0.00025327,-0.000180651,0.000335293,-0.000144599,-1.14458,0.000284264,0.0143825,1651,1653,13.8519,-35.341
434,-629,13.8469,34.822,-0.000176035,-0.00057626,-0.000206222,-8.87927e-05,-0.000663502,-0.400217,0.000415909,0.0119779,1658,1653,13.8469,-34.822
441,-629,13.8296,34.3217,-0.00014314,-0.00132136,-0.000394999,-2.29724e-05,-0.00144153,-0.295327,0.000953451,0.0152864,1665,1653,13.8296,-34.3217
448,-629,13.8025,33.7947,-6.48861e-05,-0.00214704,-0.000570491,8.1177e-05,-0.0022931,-0.250646,0.0015565,0.0152188,1672,1653,13.8024,-33.7947
455,-629,13.7737,33.2588,8.35154e-05,-0.00286662,-0.000811821,0.000292157,-0.00307526,-0.251561,0.00215417,0.0156847,1679,1653,13.7737,-33.2588
462,-629,13.748,32.7769,0.000259099,-0.00354603,-0.0010691,0.000538903,-0.00382583,-0.255977,0.00274786,0.0192579,1686,1653,13.7481,-32.7768
469,-629,13.701,32.2164,0.000406851,-0.00400835,-0.00143815,0.000833976,-0.00443548,-0.288698,0.00327061,0.0252208,1693,1653,13.7011,-32.2164
476,-629,13.719,31.6298,0,0,0,0,0,0,0,-1,1700,1653,13.719,-31.6298
483,-629,14.0381,30.967,0,0,0,0,0,0,0,-1,1707,1653,14.0381,-30.9671
490,-629,13.9072,28.8588,0,0,0,0,0,0,0,-1,1714,1653,13.9072,-28.8587
497,-629,10.3662,19.8605,0,0,0,0,0,0,0,-1,1721,1653,10.3662,-19.8605
504,-629,7.89453,15.5316,0,0,0,0,0,0,0,-1,1728,1653,7.89447,-15.5316
511,-629,6.29138,3.40295,0,0,0,0,0,0,0,-1,1735,1653,6.29137,-3.403
518,-629,5.84387,1.41858,0,0,0,0,0,0,0,-1,1742,1653,5.84391,-1.4186
525,-629,6.4729,1.02319,0,0,0,0,0,0,0,-1,1749,1653,6.47284,-1.02316
532,-629,6.86511,0.903687,0,0,0,0,0,0,0,-1,1756,1653,6.86514,-0.903691
539,-629,6.60803,0.746704,0,0,0,0,0,0,0,-1,1763,1653,6.60809,-0.746691
546,-629,0,0,0,0,0,0,0,0,0,-1,1770,1653,0,0
553,-629,0,0,0,0,0,0,0,0,0,-1,1777,1653,0,0
560,-629,0,0,0,0,0,0,0,0,0,-1,1784,1653,0,0
567,-629,0,0,0,0,0,0,0,0,0,-1,1791,1653,0,0
574,-629,0,0,0,0,0,0,0,0,0,-1,1798,1653,0,0
581,-629,0,0,0,0,0,0,0,0,0,-1,1805,1653,0,0
588,-629,0,0,0,0,0,0,0,0,0,-1,1812,1653,0,0
595,-629,0,0,0,0,0,0,0,0,0,-1,1819,1653,0,0
602,-629,0,0,0,0,0,0,0,0,0,-1,1826,1653,0,0
609,-629,0,0,0,0,0,0,0,0,0,-1,1833,1653,0,0
616,-629,0,0,0,0,0,0,0,0,0,-1,1840,1653,0,0
623,-629,0,0,0,0,0,0,0,0,0,-1,1847,1653,0,0
630,-629,0,0,0,0,0,0,0,0,0,-1,1854,1653,0,0
637,-629,0,0,0,0,0,0,0,0,0,-1,1861,1653,0,0
644,-629,0,0,0,0,0,0,0,0,0,-1,1868,1653,0,0
651,-629,0,0,0,0,0,0,0,0,0,-1,1875,1653,0,0
658,-629,0,0,0,0,0,0,0,0,0,-1,1882,1653,0,0
665,-629,0,0,0,0,0,0,0,0,0,-1,1889,1653,0,0
672,-629,0,0,0,0,0,0,0,0,0,-1,1896,1653,0,0
679,-629,0,0,0,0,0,0,0,0,0,-1,1903,1653,0,0
686,-629,0,0,0,0,0,0,0,0,0,-1,1910,1653,0,0
693,-629,0,0,0,0,0,0,0,0,0,-1,1917,1653,0,0
700,-629,0,0,0,0,0,0,0,0,0,-1,1924,1653,0,0
707,-629,0,0,0,0,0,0,0,0,0,-1,1931,1653,0,0
714,-629,0,0,0,0,0,0,0,0,0,-1,1938,1653,0,0
721,-629,0,0,0,0,0,0,0,0,0,-1,1945,1653,0,0
728,-629,0,0,0,0,0,0,0,0,0,-1,1952,1653,0,0
735,-629,0,0,0,0,0,0,0,0,0,-1,1959,1653,0,0
742,-629,0,0,0,0,0,0,0,0,0,-1,1966,1653,0,0
749,-629,0,0,0,0,0,0,0,0,0,-1,1973,1653,0,0
756,-629,0,0,0,0,0,0,0,0,0,-1,1980,1653,0,0
763,-629,0,0,0,0,0,0,0,0,0,-1,1987,1653,0,0
770,-629,0,0,0,0,0,0,0,0,0,-1,1994,1653,0,0
777,-629,0,0,0,0,0,0,0,0,0,-1,2001,1653,0,0
784,-629,0,0,0,0,0,0,0,0,0,-1,2008,1653,0,0
791,-629,0,0,0,0,0,0,0,0,0,-1,2015,1653,0,0
798,-629,0,0,0,0,0,0,0,0,0,-1,2022,1653,0,0
805,-629,0,0,0,0,0,0,0,0,0,-1,2029,1653,0,0
812,-629,0,0,0,0,0,0,0,0,0,-1,2036,1653,0,0
-700,-636,0,0,0,0,0,0,0,0,0,-1,524,1660,0,0
-693,-636,0,0,0,0,0,0,0,0,0,-1,531,1660,0,0
-686,-636,0,0,0,0,0,0,0,0,0,-1,538,1660,0,0
-679,-636,0,0,0,0,0,0,0,0,0,-1,545,1660,0,0
-672,-636,0,0,0,0,0,0,0,0,0,-1,552,1660,0,0
-665,-636,0,0,0,0,0,0,0,0,0,-1,559,1660,0,0
-658,-636,0,0,0,0,0,0,0,0,0,-1,566,1660,0,0
-651,-636,0,0,0,0,0,0,0,0,0,-1,573,1660,0,0
-644,-636,0,0,0,0,0,0,0,0,0,-1,580,1660,0,0
-637,-636,0,0,0,0,0,0,0,0,0,-1,587,1660,0,0
-630,-636,0,0,0,0,0,0,0,0,0,-1,594,1660,0,0
-623,-636,0,0,0,0,0,0,0,0,0,-1,601,1660,0,0
-616,-636,0,0,0,0,0,0,0,0,0,-1,608,1660,0,0
-609,-636,0,0,0,0,0,0,0,0,0,-1,615,1660,0,0
-602,-636,0,0,0,0,0,0,0,0,0,-1,622,1660,0,0
-595,-636,0,0,0,0,0,0,0,0,0,-1,629,1660,0,0
-588,-636,0,0,0,0,0,0,0,0,0,-1,636,1660,0,0
-581,-636,0,0,0,0,0,0,0,0,0,-1,643,1660,0,0
-574,-636,0,0,0,0,0,0,0,0,0,-1,650,1660,0,0
-567,-636,0,0,0,0,0,0,0,0,0,-1,657,1660,0,0
-560,-636,0,0,0,0,0,0,0,0,0,-1,664,1660,0,0
-553,-636,0,0,0,0,0,0,0,0,0,-1,671,1660,0,0
-546,-636,0,0,0,0,0,0,0,0,0,-1,678,1660,0,0
-539,-636,0,0,0,0,0,0,0,0,0,-1,685,1660,0,0
-532,-636,0,0,0,0,0,0,0,0,0,-1,692,1660,0,0
-525,-636,0,0,0,0,0,0,0,0,0,-1,699,1660,0,0
-518,-636,0,0,0,0,0,0,0,0,0,-1,706,1660,0,0
-511,-636,0,0,0,0,0,0,0,0,0,-1,713,1660,0,0
-504,-636,0,0,0,0,0,0,0,0,0,-1,720,1660,0,0
-497,-636,0,0,0,0,0,0,0,0,0,-1,727,1660,0,0
-490,-636,0,0,0,0,0,0,0,0,0,-1,734,1660,0,0
-483,-636,0,0,0,0,0,0,0,0,0,-1,741,1660,0,0
-476,-636,0,0,0,0,0,0,0,0,0,-1,748,1660,0,0
-469,-636,0,0,0,0,0,0,0,0,0,-1,755,1660,0,0
-462,-636,0,0,0,0,0,0,0,0,0,-1,762,1660,0,0
-455,-636,0,0,0,0,0,0,0,0,0,-1,769,1660,0,0
-448,-636,0,0,0,0,0,0,0,0,0,-1,776,1660,0,0
-441,-636,0,0,0,0,0,0,0,0,0,-1,783,1660,0,0
-434,-636,0,0,0,0,0,0,0,0,0,-1,790,1660,0,0
-427,-636,0,0,0,0,0,0,0,0,0,-1,797,1660,0,0
-420,-636,0,0,0,0,0,0,0,0,0,-1,804,1660,0,0
-413,-636,0,0,0,0,0,0,0,0,0,-1,811,1660,0,0
-406,-636,-0.591125,10.6943,0,0,0,0,0,0,0,-1,818,1660,-0.59115,-10.6943
-399,-636,0.0766602,11.2408,0,0,0,0,0,0,0,-1,825,1660,0.076685,-11.2409
-392,-636,0.75946,11.9233,0,0,0,0,0,0,0,-1,832,1660,0.759481,-11.9233
-385,-636,1.68878,12.517,0,0,0,0,0,0,0,-1,839,1660,1.6888,-12.5169
-378,-636,2.22107,13.0013,0,0,0,0,0,0,0,-1,846,1660,2.22107,-13.0014
-371,-636,2.52185,11.9684,0,0,0,0,0,0,0,-1,853,1660,2.52184,-11.9684
-364,-636,4.51947,14.8503,0,0,0,0,0,0,0,-1,860,1660,4.51949,-14.8504
-357,-636,4.55682,15.8809,0,0,0,0,0,0,0,-1,867,1660,4.55681,-15.8808
-350,-636,4.40942,30.4238,0,0,0,0,0,0,0,-1,874,1660,4.4094,-30.4239
-343,-636,4.37769,31.3376,0,0,0,0,0,0,0,-1,881,1660,4.37767,-31.3376
-336,-636,4.42126,31.7657,0.00483098,0.000261634,0.00708867,0.00999406,-0.00490144,0.629505,0.00876586,0.0340991,888,1660,4.42127,-31.7658
-329,-636,4.44592,32.3616,0.00443566,0.000570942,0.00652612,0.00930949,-0.00430289,0.641462,0.00803435,0.0190804,895,1660,4.44593,-32.3616
-322,-636,4.40015,32.9012,0.0037985,0.000488466,0.00568604,0.00806548,-0.00377852,0.643778,0.00698585,0.0117721,902,1660,4.40013,-32.9012
-315,-636,4.35718,33.4567,0.00310565,0.00026281,0.00473331,0.00662636,-0.0032579,0.639531,0.00581609,0.0128521,909,1660,4.35717,-33.4566
-308,-636,4.35034,34.0087,0.0025423,0.000408963,0.00391741,0.00553567,-0.0025844,0.652476,0.00479023,0.0116376,916,1660,4.35036,-34.0087
-301,-636,4.34607,34.562,0.00212965,0.000592809,0.00326873,0.00471907,-0.0019966,0.669953,0.00398208,0.0113509,923,1660,4.34607,-34.562
-294,-636,4.29913,35.1022,0.00197415,0.000876224,0.00283818,0.00431597,-0.0014656,0.689868,0.00347058,0.0148602,930,1660,4.29911,-35.1022
-287,-636,4.27905,35.5928,0.0018961,0.00134883,0.0025184,0.00415569,-0.000910759,0.731283,0.00311869,0.0140276,937,1660,4.27906,-35.5928
-280,-636,4.2807,36.1157,0.00194865,0.00188061,0.00235999,0.00427487,-0.000445614,0.778191,0.00300947,0.0136611,944,1660,4.28072,-36.1157
-273,-636,4.24878,36.6353,0.00205978,0.00225957,0.00221359,0.00437552,-5.61727e-05,0.807947,0.00293592,0.0132281,951,1660,4.24878,-36.6353
-266,-636,4.23376,37.1439,0.0024523,0.00297681,0.00234794,0.0050771,0.000352013,0.841015,0.00327371,0.0144486,958,1660,4.23376,-37.144
-259,-636,4.22729,37.6489,0.00297627,0.00366123,0.00254074,0.00588247,0.000755031,0.852391,0.00369577,0.0167274,965,1660,4.22729,-37.649
-252,-636,4.21204,38.1254,0.00346887,0.00434327,0.00273507,0.00667586,0.00113628,0.864652,0.00412432,0.0125723,972,1660,4.21205,-38.1253
-245,-636,4.22791,38.6228,0.00402463,0.00487002,0.00293318,0.00741081,0.00148384,0.856959,0.00452771,0.0108173,979,1660,4.2279,-38.6228
-238,-636,4.23352,39.1115,0.00464951,0.005161,0.00306774,0.00798364,0.00182687,0.826985,0.00483004,0.0124467,986,1660,4.23352,-39.1115
-231,-636,4.21814,39.5808,0.00526288,0.00505146,0.00311244,0.00827141,0.00204293,0.768422,0.00497513,0.0119678,993,1660,4.21812,-39.5808
-224,-636,4.21179,40.0458,0.00571905,0.00525754,0.00317879,0.00867545,0.00230114,0.749165,0.00518953,0.00970933,1000,1660,4.2118,-40.0458
-217,-636,4.19885,40.5791,0.00531257,0.00611371,0.00290119,0.00864185,0.00278443,0.854,0.00509344,0.0184483,1007,1660,4.19887,-40.5791
-210,-636,4.20013,41.0635,0.00424327,0.00701035,0.00237989,0.00837964,0.00287399,1.04869,0.00491687,0.0325595,1014,1660,4.2001,-41.0635
-203,-636,4.19495,41.5032,0,0,0,0,0,0,0,-1,1021,1660,4.19499,-41.5032
-196,-636,4.42334,41.9032,2.94948e-05,0.0104671,0.0015171,0.0106832,-0.000186543,1.42935,0.00718509,0.0355711,1028,1660,4.42334,-41.9032
-189,-636,4.45447,42.2458,-0.00256738,0.0122889,0.000788676,0.0123306,-0.00260913,1.51791,0.0092141,0.031081,1035,1660,4.45443,-42.2458
-182,-636,4.50806,42.5941,-0.00508354,0.0142922,0.000468568,0.0143036,-0.00509487,1.54663,0.0116127,0.0429445,1042,1660,4.50811,-42.5941
-175,-636,4.55225,42.902,0,0,0,0,0,0,0,-1,1049,1660,4.55223,-42.9019
-168,-636,4.63794,43.826,-0.0110218,0.0203376,-0.000127735,0.0203382,-0.0110223,-1.56672,0.0183703,0.0461068,1056,1660,4.63799,-43.826
-161,-636,4.44763,44.1077,-0.0137122,0.0234717,-0.000169814,0.0234724,-0.013713,-1.56623,0.0217141,0.0461835,1063,1660,4.44763,-44.1077
-154,-636,4.23901,44.3857,-0.016268,0.0268129,-0.000164026,0.0268135,-0.0162686,-1.56699,0.0251206,0.049957,1070,1660,4.23903,-44.3858
-147,-636,4.02649,44.7179,0,0,0,0,0,0,0,-1,1077,1660,4.02644,-44.7179
-140,-636,3.4729,27.1271,0,0,0,0,0,0,0,-1,1084,1660,3.47287,-27.1271
-133,-636,4.68311,18.0922,0,0,0,0,0,0,0,-1,1091,1660,4.68316,-18.0921
-126,-636,3.79028,18.2225,0,0,0,0,0,0,0,-1,1098,1660,3.79025,-18.2226
-119,-636,1.8667,13.8916,0,0,0,0,0,0,0,-1,1105,1660,1.86668,-13.8916
-112,-636,-1.24963,9.7998,0,0,0,0,0,0,0,-1,1112,1660,-1.24968,-9.79978
-105,-636,3.51624,4.72791,0,0,0,0,0,0,0,-1,1119,1660,3.51618,-4.7279
-98,-636,1.54504,5.11914,0,0,0,0,0,0,0,-1,1126,1660,1.54503,-5.11912
-91,-636,-1.87964,-2.25012,0,0,0,0,0,0,0,-1,1133,1660,-1.87966,2.25016
-84,-636,-2.84143,0.133667,0,0,0,0,0,0,0,-1,1140,1660,-2.84144,-0.133701
-77,-636,-3.57349,2.45935,0,0,0,0,0,0,0,-1,1147,1660,-3.57345,-2.45939
-70,-636,-4.23682,4.82312,0,0,0,0,0,0,0,-1,1154,1660,-4.23681,-4.82307
-63,-636,-2.21033,6.97168,0,0,0,0,0,0,0,-1,1161,1660,-2.21034,-6.97165
-56,-636,-2.51917,8.80359,0,0,0,0,0,0,0,-1,1168,1660,-2.51916,-8.80361
-49,-636,-3.13,10.4113,0,0,0,0,0,0,0,-1,1175,1660,-3.12996,-10.4112
-42,-636,-2.27771,4.90173,0,0,0,0,0,0,0,-1,1182,1660,-2.27775,-4.90173
-35,-636,-2.27698,5.89685,0,0,0,0,0,0,0,-1,1189,1660,-2.27695,-5.89686
-28,-636,-1.70654,4.83936,0,0,0,0,0,0,0,-1,1196,1660,-1.70656,-4.8393
-21,-636,4.24683,27.7834,0,0,0,0,0,0,0,-1,1203,1660,4.24687,-27.7835
-14,-636,9.28552,45.4551,0,0,0,0,0,0,0,-1,1210,1660,9.28548,-45.455
-7,-636,9.13696,46.3945,0.0202348,0.00149287,0.0769538,0.0883861,-0.0666585,0.72481,0.0898075,0.0455243,1217,1660,9.13699,-46.3945
0,-636,9.28845,47.5183,0.0321567,-0.00838275,0.0658003,0.0807386,-0.0569646,0.635986,0.0798969,0.0467571,1224,1660,9.2884,-47.5184
7,-636,9.41345,48.2139,0.0686324,-0.0216863,0.0667509,0.104065,-0.0571188,0.487996,0.0943661,0.0444067,1231,1660,9.41345,-48.2139
14,-636,9.38525,48.7423,0,0,0,0,0,0,0,-1,1238,1660,9.38526,-48.7423
21,-636,9.30139,49.2251,0,0,0,0,0,0,0,-1,1245,1660,9.30143,-49.225
28,-636,3.8656,49.0713,0,0,0,0,0,0,0,-1,1252,1660,3.86555,-49.0713
35,-636,4.56201,49.0669,0,0,0,0,0,0,0,-1,1259,1660,4.56196,-49.0669
42,-636,5.66406,48.837,0,0,0,0,0,0,0,-1,1266,1660,5.66409,-48.837
49,-636,6.79651,47.6527,0,0,0,0,0,0,0,-1,1273,1660,6.79657,-47.6527
56,-636,7.85217,46.8409,0.222911,0.332117,0.0805854,0.374856,0.180172,1.08316,0.216477,0.0478971,1280,1660,7.85218,-46.8409
63,-636,3.82263,60.7891,0.225495,0.369576,0.0736721,0.400577,0.194494,1.1725,0.231305,0.0449035,1287,1660,3.82258,-60.7891
70,-636,4.08447,59.3761,0.200479,0.373107,0.05898,0.391334,0.182252,1.27108,0.226114,0.0439535,1294,1660,4.08444,-59.3762
77,-636,5.22668,58.3649,0,0,0,0,0,0,0,-1,1301,1660,5.22667,-58.3648
84,-636,5.5885,57.2593,0.149362,0.335544,0.0261619,0.339151,0.145755,1.43381,0.196452,0.0415377,1308,1660,5.58851,-57.2592
91,-636,6.02319,56.5831,0.127705,0.300824,0.0099313,0.301391,0.127137,1.51368,0.174716,0.0406378,1315,1660,6.02322,-56.5831
98,-636,6.42114,56.2952,0.110677,0.267214,-0.0029797,0.26727,0.11062,-1.55177,0.15507,0.0477071,1322,1660,6.42111,-56.2952
105,-636,6.65259,55.4912,0,0,0,0,0,0,0,-1,1329,1660,6.65263,-55.4912
112,-636,7.18701,54.8005,0.0773686,0.194188,-0.0322715,0.20251,0.0690464,-1.31841,0.118874,0.0497977,1336,1660,7.18702,-54.8005
119,-636,7.7417,54.0128,0.0704375,0.141943,-0.0415466,0.161002,0.051378,-1.14069,0.0949607,0.0483485,1343,1660,7.74166,-54.0128
126,-636,8.65601,52.8159,0,0,0,0,0,0,0,-1,1350,1660,8.65599,-52.816
133,-636,9.33777,52.1017,0,0,0,0,0,0,0,-1,1357,1660,9.33776,-52.1017
140,-636,9.60449,51.4705,0,0,0,0,0,0,0,-1,1364,1660,9.60446,-51.4705
147,-636,9.9895,51.3854,0,0,0,0,0,0,0,-1,1371,1660,9.98951,-51.3853
154,-636,10.8268,51.3945,0,0,0,0,0,0,0,-1,1378,1660,10.8268,-51.3945
161,-636,10.2961,7.13025,0,0,0,0,0,0,0,-1,1385,1660,10.2961,-7.13021
168,-636,11.7659,5.83899,0,0,0,0,0,0,0,-1,1392,1660,11.7658,-5.83899
175,-636,5.94592,-1.72888,0,0,0,0,0,0,0,-1,1399,1660,5.94598,1.72886
182,-636,5.93994,-1.11938,0,0,0,0,0,0,0,-1,1406,1660,5.93998,1.11936
189,-636,5.32544,11.9595,0,0,0,0,0,0,0,-1,1413,1660,5.32542,-11.9595
196,-636,5.3623,9.38025,0,0,0,0,0,0,0,-1,1420,1660,5.36225,-9.38027
203,-636,5.18542,9.02429,0,0,0,0,0,0,0,-1,1427,1660,5.18547,-9.0243
210,-636,4.09167,7.17041,0,0,0,0,0,0,0,-1,1434,1660,4.09173,-7.17041
217,-636,2.94897,5.28992,0,0,0,0,0,0,0,-1,1441,1660,2.94899,-5.28991
224,-636,1.49194,3.63916,0,0,0,0,0,0,0,-1,1448,1660,1.49197,-3.63918
231,-636,0.17749,2.24854,0,0,0,0,0,0,0,-1,1455,1660,0.177501,-2.24855
238,-636,-0.764648,1.00598,0,0,0,0,0,0,0,-1,1462,1660,-0.764704,-1.00595
245,-636,6.21204,1.18005,0,0,0,0,0,0,0,-1,1469,1660,6.21206,-1.18001
252,-636,7.70251,0.865723,0,0,0,0,0,0,0,-1,1476,1660,7.7025,-0.865692
259,-636,9.03601,0.787231,0,0,0,0,0,0,0,-1,1483,1660,9.03598,-0.787243
266,-636,10.1071,3.24109,0,0,0,0,0,0,0,-1,1490,1660,10.1071,-3.24103
273,-636,8.48535,5.02466,0,0,0,0,0,0,0,-1,1497,1660,8.48533,-5.02472
280,-636,11.908,32.0698,0,0,0,0,0,0,0,-1,1504,1660,11.9079,-32.0698
287,-636,12.1218,36.4158,0,0,0,0,0,0,0,-1,1511,1660,12.1218,-36.4158
294,-636,13.7479,43.4808,0,0,0,0,0,0,0,-1,1518,1660,13.7479,-43.4809
301,-636,13.2655,43.7549,0,0,0,0,0,0,0,-1,1525,1660,13.2655,-43.7549
308,-636,13.2456,43.1691,0,0,0,0,0,0,0,-1,1532,1660,13.2456,-43.169
315,-636,13.2743,42.8611,0,0,0,0,0,0,0,-1,1539,1660,13.2742,-42.8611
322,-636,13.4948,43.1455,0.00846037,0.0359805,-0.0126358,0.040902,0.00353881,-1.19938,0.0261683,0.0497786,1546,1660,13.4947,-43.1455
329,-636,13.4163,42.0074,0.00856317,0.0345852,-0.0128745,0.0398782,0.00327012,-1.18073,0.0255653,0.0320901,1553,1660,13.4162,-42.0075
336,-636,13.333,41.4808,0.00806251,0.0320863,-0.0122077,0.0372007,0.00294802,-1.17406,0.0238786,0.0228586,1560,1660,13.333,-41.4809
343,-636,13.3776,41.054,0.00767067,0.029325,-0.0115394,0.0343214,0.00267424,-1.16218,0.0220437,0.0198058,1567,1660,13.3775,-41.054
350,-636,13.3918,40.5696,0.00719194,0.0258588,-0.0104443,0.0305324,0.00251839,-1.15004,0.0195696,0.0131726,1574,1660,13.3918,-40.5695
357,-636,13.4398,40.0687,0.00657351,0.0223622,-0.0092126,0.0266002,0.00233556,-1.13964,0.0170085,0.0111972,1581,1660,13.4398,-40.0687
364,-636,13.4435,39.618,0.00584763,0.0189964,-0.00797132,0.0227547,0.00208931,-1.13022,0.0145235,0.0111236,1588,1660,13.4435,-39.6181
371,-636,13.4382,39.174,0.00505348,0.015618,-0.00669778,0.0188658,0.00180564,-1.11929,0.0120206,0.00984514,1595,1660,13.4382,-39.174
378,-636,13.4487,38.7045,0.00425456,0.0120071,-0.00530289,0.0146994,0.00156227,-1.101,0.00932258,0.00991697,1602,1660,13.4487,-38.7045
385,-636,13.4421,38.2455,0.00339228,0.00936061,-0.00408078,0.0114319,0.00132095,-1.1011,0.00722136,0.0151217,1609,1660,13.4422,-38.2454
392,-636,13.401,37.7893,0.00247745,0.00696238,-0.00301528,0.00847765,0.000962182,-1.10513,0.0053599,0.0153261,1616,1660,13.4011,-37.7893
399,-636,13.3984,37.3202,0.00154033,0.00473143,-0.00200686,0.00569972,0.000572043,-1.12126,0.00362421,0.0120451,1623,1660,13.3985,-37.3202
406,-636,13.4318,36.8268,0.000845171,0.00260391,-0.0011861,0.00320106,0.000248015,-1.10438,0.00205636,0.0146035,1630,1660,13.4318,-36.8268
413,-636,13.4146,36.3334,0.000248507,0.00118952,-0.000634498,0.00150892,-7.09013e-05,-1.10443,0.0010304,0.0226897,1637,1660,13.4145,-36.3334
420,-636,13.3619,35.8483,-0.000324605,-5.01162e-05,-0.000203617,5.81918e-05,-0.000432913,-1.08194,0.000309833,0.0236316,1644,1660,13.3619,-35.8482
427,-636,13.343,35.3579,-0.000647033,-0.001064,-9.68407e-06,-0.000646808,-0.00106422,-0.0232085,0.000619168,0.0147148,1651,1660,13.343,-35.3579
434,-636,13.3363,34.86,-0.000774205,-0.0017927,-5.41632e-05,-0.000771333,-0.00179557,-0.0529805,0.0010401,0.0120649,1658,1660,13.3362,-34.86
441,-636,13.3391,34.3516,-0.000809133,-0.00246417,-0.00022618,-0.00077878,-0.00249452,-0.133404,0.00147369,0.0120089,1665,1660,13.3391,-34.3515
448,-636,13.3346,33.8401,-0.000748224,-0.00319471,-0.000377344,-0.000691346,-0.00325159,-0.149608,0.00197797,0.0144785,1672,1660,13.3346,-33.8401
455,-636,13.2981,33.3357,-0.000515194,-0.00388147,-0.000672125,-0.000385956,-0.00401071,-0.189964,0.00255489,0.0153923,1679,1660,13.2981,-33.3357
462,-636,13.2684,32.8149,-0.000235723,-0.00442766,-0.00101175,-4.30387e-06,-0.00465908,-0.224862,0.00310462,0.0206562,1686,1660,13.2684,-32.815
469,-636,13.2137,32.2043,1.90143e-05,-0.00463163,-0.00154638,0.000486257,-0.00509887,-0.29343,0.00357238,0.0367855,1693,1660,13.2137,-32.2044
476,-636,13.2634,31.5907,0,0,0,0,0,0,0,-1,1700,1660,13.2635,-31.5907
483,-636,11.3833,24.3958,0,0,0,0,0,0,0,-1,1707,1660,11.3833,-24.3957
490,-636,10.8951,23.9569,0,0,0,0,0,0,0,-1,1714,1660,10.8951,-23.9569
497,-636,9.55579,18.0111,0,0,0,0,0,0,0,-1,1721,1660,9.55574,-18.0111
504,-636,6.26428,19.4268,0,0,0,0,0,0,0,-1,1728,1660,6.26433,-19.4268
511,-636,5.65466,9.23218,0,0,0,0,0,0,0,-1,1735,1660,5.65461,-9.23216
518,-636,6.72791,1.07605,0,0,0,0,0,0,0,-1,1742,1660,6.7279,-1.0761
525,-636,7.04309,0.93335,0,0,0,0,0,0,0,-1,1749,1660,7.04308,-0.933298
532,-636,0,0,0,0,0,0,0,0,0,-1,1756,1660,0,0
539,-636,0,0,0,0,0,0,0,0,0,-1,1763,1660,0,0
546,-636,0,0,0,0,0,0,0,0,0,-1,1770,1660,0,0
553,-636,0,0,0,0,0,0,0,0,0,-1,1777,1660,0,0
560,-636,0,0,0,0,0,0,0,0,0,-1,1784,1660,0,0
567,-636,0,0,0,0,0,0,0,0,0,-1,1791,1660,0,0
574,-636,0,0,0,0,0,0,0,0,0,-1,1798,1660,0,0
581,-636,0,0,0,0,0,0,0,0,0,-1,1805,1660,0,0
588,-636,0,0,0,0,0,0,0,0,0,-1,1812,1660,0,0
595,-636,0,0,0,0,0,0,0,0,0,-1,1819,1660,0,0
602,-636,0,0,0,0,0,0,0,0,0,-1,1826,1660,0,0
609,-636,0,0,0,0,0,0,0,0,0,-1,1833,1660,0,0
616,-636,0,0,0,0,0,0,0,0,0,-1,1840,1660,0,0
623,-636,0,0,0,0,0,0,0,0,0,-1,1847,1660,0,0
630,-636,0,0,0,0,0,0,0,0,0,-1,1854,1660,0,0
637,-636,0,0,0,0,0,0,0,0,0,-1,1861,1660,0,0
644,-636,0,0,0,0,0,0,0,0,0,-1,1868,1660,0,0
651,-636,0,0,0,0,0,0,0,0,0,-1,1875,1660,0,0
658,-636,0,0,0,0,0,0,0,0,0,-1,1882,1660,0,0
665,-636,0,0,0,0,0,0,0,0,0,-1,1889,1660,0,0
672,-636,0,0,0,0,0,0,0,0,0,-1,1896,1660,0,0
679,-636,0,0,0,0,0,0,0,0,0,-1,1903,1660,0,0
686,-636,0,0,0,0,0,0,0,0,0,-1,1910,1660,0,0
693,-636,0,0,0,0,0,0,0,0,0,-1,1917,1660,0,0
700,-636,0,0,0,0,0,0,0,0,0,-1,1924,1660,0,0
707,-636,0,0,0,0,0,0,0,0,0,-1,1931,1660,0,0
714,-636,0,0,0,0,0,0,0,0,0,-1,1938,1660,0,0
721,-636,0,0,0,0,0,0,0,0,0,-1,1945,1660,0,0
728,-636,0,0,0,0,0,0,0,0,0,-1,1952,1660,0,0
735,-636,0,0,0,0,0,0,0,0,0,-1,1959,1660,0,0
742,-636,0,0,0,0,0,0,0,0,0,-1,1966,1660,0,0
749,-636,0,0,0,0,0,0,0,0,0,-1,1973,1660,0,0
756,-636,0,0,0,0,0,0,0,0,0,-1,1980,1660,0,0
763,-636,0,0,0,0,0,0,0,0,0,-1,1987,1660,0,0
770,-636,0,0,0,0,0,0,0,0,0,-1,1994,1660,0,0
777,-636,0,0,0,0,0,0,0,0,0,-1,2001,1660,0,0
784,-636,0,0,0,0,0,0,0,0,0,-1,2008,1660,0,0
791,-636,0,0,0,0,0,0,0,0,0,-1,2015,1660,0,0
798,-636,0,0,0,0,0,0,0,0,0,-1,2022,1660,0,0
805,-636,0,0,0,0,0,0,0,0,0,-1,2029,1660,0,0
812,-636,0,0,0,0,0,0,0,0,0,-1,2036,1660,0,0
-700,-643,0,0,0,0,0,0,0,0,0,-1,524,1667,0,0
-693,-643,0,0,0,0,0,0,0,0,0,-1,531,1667,0,0
-686,-643,0,0,0,0,0,0,0,0,0,-1,538,1667,0,0
-679,-643,0,0,0,0,0,0,0,0,0,-1,545,1667,0,0
-672,-643,0,0,0,0,0,0,0,0,0,-1,552,1667,0,0
-665,-643,0,0,0,0,0,0,0,0,0,-1,559,1667,0,0
-658,-643,0,0,0,0,0,0,0,0,0,-1,566,1667,0,0
-651,-643,0,0,0,0,0,0,0,0,0,-1,573,1667,0,0
-644,-643,0,0,0,0,0,0,0,0,0,-1,580,1667,0,0
-637,-643,0,0,0,0,0,0,0,0,0,-1,587,1667,0,0
-630,-643,0,0,0,0,0,0,0,0,0,-1,594,1667,0,0
-623,-643,0,0,0,0,0,0,0,0,0,-1,601,1667,0,0
-616,-643,0,0,0,0,0,0,0,0,0,-1,608,1667,0,0
-609,-643,0,0,0,0,0,0,0,0,0,-1,615,1667,0,0
-602,-643,0,0,0,0,0,0,0,0,0,-1,622,1667,0,0
-595,-643,0,0,0,0,0,0,0,0,0,-1,629,1667,0,0
-588,-643,0,0,0,0,0,0,0,0,0,-1,636,1667,0,0
-581,-643,0,0,0,0,0,0,0,0,0,-1,643,1667,0,0
-574,-643,0,0,0,0,0,0,0,0,0,-1,650,1667,0,0
-567,-643,0,0,0,0,0,0,0,0,0,-1,657,1667,0,0
-560,-643,0,0,0,0,0,0,0,0,0,-1,664,1667,0,0
-553,-643,0,0,0,0,0,0,0,0,0,-1,671,1667,0,0
-546,-643,0,0,0,0,0,0,0,0,0,-1,678,1667,0,0
-539,-643,0,0,0,0,0,0,0,0,0,-1,685,1667,0,0
-532,-643,0,0,0,0,0,0,0,0,0,-1,692,1667,0,0
-525,-643,0,0,0,0,0,0,0,0,0,-1,699,1667,0,0
-518,-643,0,0,0,0,0,0,0,0,0,-1,706,1667,0,0
-511,-643,0,0,0,0,0,0,0,0,0,-1,713,1667,0,0
-504,-643,0,0,0,0,0,0,0,0,0,-1,720,1667,0,0
-497,-643,0,0,0,0,0,0,0,0,0,-1,727,1667,0,0
-490,-643,0,0,0,0,0,0,0,0,0,-1,734,1667,0,0
-483,-643,0,0,0,0,0,0,0,0,0,-1,741,1667,0,0
-476,-643,0,0,0,0,0,0,0,0,0,-1,748,1667,0,0
-469,-643,0,0,0,0,0,0,0,0,0,-1,755,1667,0,0
-462,-643,0,0,0,0,0,0,0,0,0,-1,762,1667,0,0
-455,-643,0,0,0,0,0,0,0,0,0,-1,769,1667,0,0
-448,-643,0,0,0,0,0,0,0,0,0,-1,776,1667,0,0
-441,-643,0,0,0,0,0,0,0,0,0,-1,783,1667,0,0
-434,-643,0,0,0,0,0,0,0,0,0,-1,790,1667,0,0
-427,-643,0,0,0,0,0,0,0,0,0,-1,797,1667,0,0
-420,-643,0,0,0,0,0,0,0,0,0,-1,804,1667,0,0
-413,-643,0,0,0,0,0,0,0,0,0,-1,811,1667,0,0
-406,-643,0,0,0,0,0,0,0,0,0,-1,818,1667,0,0
-399,-643,0.589417,11.6465,0,0,0,0,0,0,0,-1,825,1667,0.58939,-11.6465
-392,-643,0.865295,12.6523,0,0,0,0,0,0,0,-1,832,1667,0.865315,-12.6523
-385,-643,1.72968,13.2692,0,0,0,0,0,0,0,-1,839,1667,1.72967,-13.2692
-378,-643,2.66522,13.8193,0,0,0,0,0,0,0,-1,846,1667,2.66524,-13.8193
-371,-643,0.466125,3.35095,0,0,0,0,0,0,0,-1,853,1667,0.466148,-3.351
-364,-643,1.69513,9.922,0,0,0,0,0,0,0,-1,860,1667,1.69511,-9.92205
-357,-643,1.14227,10.8429,0,0,0,0,0,0,0,-1,867,1667,1.14228,-10.8429
-350,-643,2.50061,9.96948,0,0,0,0,0,0,0,-1,874,1667,2.50059,-9.96954
-343,-643,5.32477,30.7362,0,0,0,0,0,0,0,-1,881,1667,5.32478,-30.7362
-336,-643,4.90723,31.7489,0,0,0,0,0,0,0,-1,888,1667,4.90721,-31.7489
-329,-643,4.90417,32.2817,0.00690768,0.00129903,0.00915385,0.0136771,-0.00547042,0.63676,0.0113883,0.0407512,895,1667,4.9042,-32.2817
-322,-643,4.94299,32.9637,0.00570474,0.000771713,0.00775302,0.0113741,-0.00489768,0.631393,0.00963939,0.0271776,902,1667,4.94298,-32.9637
-315,-643,4.84808,33.4958,0.00449281,0.000119659,0.00626721,0.00894393,-0.00433147,0.617555,0.00781724,0.0195358,909,1667,4.84806,-33.4958
-308,-643,4.88062,34.0099,0.00350297,-2.36827e-05,0.00502881,0.00706864,-0.00358935,0.616773,0.00626174,0.0137419,916,1667,4.88061,-34.0099
-301,-643,4.87463,34.5573,0.00269121,-7.8757e-05,0.00399783,0.00553716,-0.00292471,0.618651,0.00496247,0.0140202,923,1667,4.8746,-34.5573
-294,-643,4.81995,35.0829,0.00219204,5.07303e-05,0.00325496,0.0045479,-0.00230514,0.626507,0.00402661,0.0133508,930,1667,4.81996,-35.0829
-287,-643,4.80536,35.5776,0.00184022,0.000365488,0.00269275,0.00389474,-0.00168903,0.651757,0.00330657,0.0114558,937,1667,4.80535,-35.5776
-280,-643,4.78754,36.1067,0.00161831,0.000769368,0.00232353,0.00355582,-0.00116815,0.695053,0.00284114,0.0151574,944,1667,4.78752,-36.1067
-273,-643,4.75916,36.6343,0.00143328,0.00101945,0.00194104,0.0031784,-0.000725675,0.732299,0.00239771,0.0132152,951,1667,4.75917,-36.6342
-266,-643,4.72638,37.1486,0.00164257,0.00168399,0.00193446,0.00359785,-0.000271286,0.790752,0.00249392,0.0127491,958,1667,4.72636,-37.1486
-259,-643,4.71936,37.6537,0.00199777,0.00228044,0.0019909,0.00413501,0.000143197,0.820834,0.0027102,0.0127143,965,1667,4.71936,-37.6537
-252,-643,4.70343,38.1554,0.00231328,0.00291969,0.00204656,0.00468539,0.000547583,0.858939,0.00295801,0.0134902,972,1667,4.70344,-38.1553
-245,-643,4.70245,38.636,0.00265238,0.00337407,0.00209758,0.00514162,0.000884833,0.870578,0.00317418,0.0113318,979,1667,4.70242,-38.636
-238,-643,4.74426,39.1157,0.0031613,0.00364488,0.00216629,0.00558283,0.00122335,0.840976,0.00338853,0.0160037,986,1667,4.74428,-39.1157
-231,-643,4.69092,39.6017,0.00367733,0.00361869,0.00218057,0.00582877,0.00146724,0.778675,0.0035008,0.0120286,993,1667,4.69089,-39.6017
-224,-643,4.68024,40.0477,0.00408999,0.00378183,0.00217198,0.00611335,0.00175847,0.749988,0.00363411,0.00953831,1000,1667,4.68023,-40.0477
-217,-643,4.6778,40.4747,0.00387989,0.00442908,0.00194169,0.0061155,0.00219347,0.855642,0.00357749,0.00918509,1007,1667,4.67782,-40.4747
-210,-643,4.68158,40.959,0.00324084,0.00515617,0.00157914,0.00604535,0.00235167,1.05797,0.00351883,0.0126673,1014,1667,4.68157,-40.9589
-203,-643,4.68665,41.4816,0.00182622,0.00652179,0.00131598,0.00686545,0.00148256,1.31535,0.00417154,0.0169993,1021,1667,4.68668,-41.4815
-196,-643,4.70105,41.9275,0.000614994,0.00770712,0.000961198,0.00783508,0.000487031,1.43845,0.00506885,0.0171343,1028,1667,4.70106,-41.9275
-189,-643,4.80566,42.3129,-0.00101842,0.0091233,0.000514346,0.00914932,-0.00104444,1.52025,0.00647583,0.0159348,1035,1667,4.80566,-42.3129
-182,-643,4.87817,42.769,-0.00265636,0.0107591,0.000272896,0.0107646,-0.00266191,1.55047,0.00820886,0.0231051,1042,1667,4.87814,-42.769
-175,-643,4.97034,43.2816,-0.00449111,0.0129121,3.5726e-05,0.0129122,-0.00449118,1.56874,0.0104326,0.0334887,1049,1667,4.9703,-43.2817
-168,-643,5.01184,43.6715,-0.00653394,0.0154977,-0.000157222,0.0154988,-0.00653506,-1.56366,0.0130674,0.0394461,1056,1667,5.01189,-43.6715
-161,-643,4.91321,43.9957,-0.00833502,0.0180398,-0.000207365,0.0180414,-0.00833665,-1.56293,0.0155692,0.0457879,1063,1667,4.91315,-43.9957
-154,-643,4.77429,44.4119,-0.00997644,0.0207683,-0.000211327,0.0207697,-0.0099779,-1.56392,0.018113,0.0486579,1070,1667,4.77427,-44.4118
-147,-643,4.7052,45.0049,0,0,0,0,0,0,0,-1,1077,1667,4.70518,-45.0049
-140,-643,4.30322,22.9166,0,0,0,0,0,0,0,-1,1084,1667,4.30327,-22.9167
-133,-643,3.66748,21.6034,0,0,0,0,0,0,0,-1,1091,1667,3.66743,-21.6034
-126,-643,3.13904,17.689,0,0,0,0,0,0,0,-1,1098,1667,3.13909,-17.689
-119,-643,3.76282,14.1458,0,0,0,0,0,0,0,-1,1105,1667,3.76283,-14.1458
-112,-643,3.81458,16.2069,0,0,0,0,0,0,0,-1,1112,1667,3.81463,-16.2069
-105,-643,-2.23413,10.0996,0,0,0,0,0,0,0,-1,1119,1667,-2.23415,-10.0996
-98,-643,3.11035,4.68066,0,0,0,0,0,0,0,-1,1126,1667,3.11041,-4.68071
-91,-643,-1.74146,-2.5885,0,0,0,0,0,0,0,-1,1133,1667,-1.74146,2.58856
-84,-643,-3.07446,-0.199341,0,0,0,0,0,0,0,-1,1140,1667,-3.07449,0.199383
-77,-643,-3.63794,2.81165,0,0,0,0,0,0,0,-1,1147,1667,-3.63791,-2.8117
-70,-643,-3.36938,4.45203,0,0,0,0,0,0,0,-1,1154,1667,-3.36941,-4.452
-63,-643,-3.67822,6.26855,0,0,0,0,0,0,0,-1,1161,1667,-3.67823,-6.26856
-56,-643,-3.95142,8.1073,0,0,0,0,0,0,0,-1,1168,1667,-3.95139,-8.10732
-49,-643,-4.23535,9.90552,0,0,0,0,0,0,0,-1,1175,1667,-4.23537,-9.90557
-42,-643,-4.25195,10.7059,0,0,0,0,0,0,0,-1,1182,1667,-4.25192,-10.706
-35,-643,-4.10986,11.6588,0,0,0,0,0,0,0,-1,1189,1667,-4.10982,-11.6589
-28,-643,-1.38513,5.604,0,0,0,0,0,0,0,-1,1196,1667,-1.3851,-5.60403
-21,-643,1.61011,23.1276,0,0,0,0,0,0,0,-1,1203,1667,1.61011,-23.1275
-14,-643,7.56348,55.9336,0,0,0,0,0,0,0,-1,1210,1667,7.56353,-55.9336
-7,-643,8.23792,47.0868,0,0,0,0,0,0,0,-1,1217,1667,8.23793,-47.0868
0,-643,8.70728,47.7074,0.0269292,-0.00731382,0.050862,0.0634742,-0.0438587,0.623042,0.0623127,0.04825,1224,1667,8.70733,-47.7074
7,-643,8.995,48.3621,0.0550466,-0.0183245,0.0488645,0.079464,-0.0427418,0.463404,0.0716095,0.0441811,1231,1667,8.99501,-48.3621
14,-643,9.19373,48.9352,0,0,0,0,0,0,0,-1,1238,1667,9.19375,-48.9352
21,-643,9.15308,49.2477,0,0,0,0,0,0,0,-1,1245,1667,9.15311,-49.2477
28,-643,4.8374,49.2692,0,0,0,0,0,0,0,-1,1252,1667,4.83741,-49.2692
35,-643,5.54041,49.2109,0,0,0,0,0,0,0,-1,1259,1667,5.54041,-49.211
42,-643,6.0636,49.3035,0.155457,0.185262,0.0592453,0.23145,0.109268,0.908612,0.133697,0.0487543,1266,1667,6.06361,-49.3034
49,-643,7.22815,48.5144,0.16402,0.221743,0.0576079,0.257315,0.128449,1.01762,0.148561,0.0475437,1273,1667,7.22814,-48.5144
56,-643,8.28345,47.7089,0.170354,0.262594,0.0565545,0.289449,0.143498,1.12746,0.167116,0.0461689,1280,1667,8.28343,-47.7088
63,-643,9.44006,46.7148,0.168121,0.290171,0.0509678,0.308656,0.149636,1.22288,0.17823,0.045206,1287,1667,9.44006,-46.7148
70,-643,6.01074,49.9567,0.150545,0.293749,0.0404966,0.304408,0.139886,1.31343,0.175942,0.042475,1294,1667,6.0107,-49.9567
77,-643,5.78955,50.4468,0.132998,0.287432,0.030034,0.293067,0.127363,1.38532,0.169684,0.0447876,1301,1667,5.78956,-50.4468
84,-643,5.96155,55.7959,0.114739,0.266184,0.017644,0.268212,0.112711,1.45633,0.155508,0.044874,1308,1667,5.96151,-55.7959
91,-643,5.99902,55.3148,0.0992368,0.240901,0.00581215,0.241139,0.0989987,1.52986,0.139962,0.0468026,1315,1667,5.99898,-55.3149
98,-643,6.3739,55.0577,0.0866663,0.216861,-0.00283175,0.216922,0.0866048,-1.54906,0.126085,0.0489397,1322,1667,6.37394,-55.0577
105,-643,7.70032,54.0073,0,0,0,0,0,0,0,-1,1329,1667,7.70036,-54.0074
112,-643,8.01086,53.2235,0,0,0,0,0,0,0,-1,1336,1667,8.01085,-53.2235
119,-643,7.93689,53.0276,0.057235,0.118138,-0.0326837,0.132358,0.0430154,-1.16043,0.0779617,0.0467109,1343,1667,7.93694,-53.0276
126,-643,8.677,52.3176,0.0560142,0.0922091,-0.0333532,0.112058,0.0361649,-1.03397,0.0660384,0.0455117,1350,1667,8.67696,-52.3176
133,-643,9.18298,51.8383,0.0534661,0.0781569,-0.0314997,0.0996441,0.031979,-0.972159,0.0587465,0.0455855,1357,1667,9.18296,-51.8382
140,-643,9.44873,51.4354,0.0515886,0.0654862,-0.0252612,0.0847369,0.0323379,-0.919618,0.0493777,0.0410475,1364,1667,9.44877,-51.4355
147,-643,9.77563,51.1132,0.0486876,0.0543706,-0.0170992,0.0688628,0.0341954,-0.867734,0.0397583,0.041308,1371,1667,9.77569,-51.1131
154,-643,10.2994,50.7755,0,0,0,0,0,0,0,-1,1378,1667,10.2994,-50.7755
161,-643,5.57935,26.2754,0,0,0,0,0,0,0,-1,1385,1667,5.57931,-26.2754
168,-643,10.5563,10.9818,0,0,0,0,0,0,0,-1,1392,1667,10.5562,-10.9819
175,-643,5.88525,-1.1698,0,0,0,0,0,0,0,-1,1399,1667,5.88526,1.16977
182,-643,5.80945,-0.418701,0,0,0,0,0,0,0,-1,1406,1667,5.80949,0.418712
189,-643,5.42297,12.9208,0,0,0,0,0,0,0,-1,1413,1667,5.42298,-12.9208
196,-643,5.51953,11.2415,0,0,0,0,0,0,0,-1,1420,1667,5.51948,-11.2414
203,-643,5.60828,9.82153,0,0,0,0,0,0,0,-1,1427,1667,5.60833,-9.82148
210,-643,4.73218,7.58728,0,0,0,0,0,0,0,-1,1434,1667,4.73222,-7.58728
217,-643,3.8031,5.28955,0,0,0,0,0,0,0,-1,1441,1667,3.80305,-5.28955
224,-643,2.96436,2.97095,0,0,0,0,0,0,0,-1,1448,1667,2.96432,-2.97095
231,-643,2.13403,1.08472,0,0,0,0,0,0,0,-1,1455,1667,2.13403,-1.08467
238,-643,1.18152,-0.261963,0,0,0,0,0,0,0,-1,1462,1667,1.18152,0.26192
245,-643,-0.157471,-1.79016,0,0,0,0,0,0,0,-1,1469,1667,-0.157517,1.7901
252,-643,8.08789,0.0202637,0,0,0,0,0,0,0,-1,1476,1667,8.08791,-0.0203056
259,-643,9.02979,-0.46936,0,0,0,0,0,0,0,-1,1483,1667,9.02974,0.46933
266,-643,4.55066,5.17554,0,0,0,0,0,0,0,-1,1490,1667,4.55063,-5.17556
273,-643,10.74,31.432,0,0,0,0,0,0,0,-1,1497,1667,10.7399,-31.4319
280,-643,12.1675,42.5023,0,0,0,0,0,0,0,-1,1504,1667,12.1675,-42.5023
287,-643,13.012,44.2592,0,0,0,0,0,0,0,-1,1511,1667,13.0119,-44.2592
294,-643,12.7313,44.2609,0,0,0,0,0,0,0,-1,1518,1667,12.7313,-44.2609
301,-643,12.7982,43.6859,0.00724794,0.0233546,-0.00648188,0.0256392,0.00496344,-1.23195,0.015702,0.0396528,1525,1667,12.7982,-43.6859
308,-643,12.8601,43.1381,0.00667834,0.0242742,-0.00697101,0.0267012,0.00425137,-1.23577,0.0165665,0.0341522,1532,1667,12.8602,-43.1381
315,-643,12.896,42.744,0.00662079,0.0250639,-0.00780503,0.0279236,0.00376114,-1.2196,0.0174973,0.0260399,1539,1667,12.896,-42.744
322,-643,12.9421,42.2816,0.0066809,0.0253484,-0.00843337,0.0285941,0.00343528,-1.20341,0.0180271,0.0151687,1546,1667,12.9422,-42.2817
329,-643,12.9539,41.8202,0.00661535,0.0245764,-0.00869379,0.0280951,0.0030966,-1.18621,0.0177879,0.0110186,1553,1667,12.9539,-41.8202
336,-643,12.9165,41.4159,0.00619145,0.0230629,-0.00837546,0.0265145,0.0027398,-1.17989,0.0168376,0.0106298,1560,1667,12.9165,-41.4159
343,-643,12.9293,41.0068,0.00579619,0.0212023,-0.00803229,0.0246283,0.00237025,-1.16764,0.0156886,0.0129929,1567,1667,12.9293,-41.0069
350,-643,12.9802,40.5366,0.00537276,0.0188824,-0.007454,0.0221869,0.00206828,-1.15351,0.0141523,0.012563,1574,1667,12.9803,-40.5366
357,-643,12.979,40.1021,0.00482817,0.0163959,-0.00669196,0.0194571,0.00176696,-1.14177,0.0124244,0.0106552,1581,1667,12.9791,-40.1021
364,-643,12.98,39.6556,0.00416865,0.013914,-0.0058411,0.016648,0.00143466,-1.13303,0.0106527,0.0094477,1588,1667,12.9799,-39.6557
371,-643,12.976,39.2152,0.0034647,0.0113723,-0.00494187,0.0137474,0.00108963,-1.12279,0.00882415,0.0080698,1595,1667,12.9759,-39.2152
378,-643,12.9773,38.7522,0.00273601,0.00850182,-0.0039154,0.0104812,0.000756655,-1.10274,0.00674938,0.0102117,1602,1667,12.9773,-38.7522
385,-643,12.9796,38.2849,0.00192623,0.00640856,-0.00296346,0.00788289,0.000451895,-1.10915,0.00511129,0.0161973,1609,1667,12.9797,-38.285
392,-643,12.9459,37.8351,0.00107084,0.00448372,-0.00212162,0.0055,5.45634e-05,-1.12408,0.00364861,0.0161579,1616,1667,12.9459,-37.835
399,-643,12.9155,37.3611,0.000207995,0.00266585,-0.0012926,0.00322048,-0.000346637,-1.16547,0.00227137,0.0136895,1623,1667,12.9155,-37.3611
406,-643,12.9409,36.8411,-0.000424051,0.000913631,-0.000613805,0.00115259,-0.000663012,-1.19954,0.00106087,0.013519,1630,1667,12.9409,-36.8411
413,-643,12.9408,36.3481,-0.000984794,-0.000278765,-0.00014694,-0.000249405,-0.00101415,-1.37358,0.000610201,0.0199208,1637,1667,12.9408,-36.3482
420,-643,12.889,35.8767,-0.00149365,-0.00130249,0.000190161,-0.00118524,-0.0016109,1.01828,0.000963903,0.0191073,1644,1667,12.889,-35.8767
427,-643,12.8658,35.3911,-0.00173925,-0.00213445,0.000328379,-0.0015536,-0.00232009,0.514552,0.00136496,0.0158201,1651,1667,12.8658,-35.3912
434,-643,12.8621,34.896,-0.00177665,-0.00277929,0.000266583,-0.00171018,-0.00284576,0.244368,0.00165413,0.0165474,1658,1667,12.8621,-34.896
441,-643,12.8541,34.3744,-0.00174765,-0.00343655,0.000119195,-0.00173928,-0.00344493,0.0701125,0.00198896,0.0161747,1665,1667,12.8542,-34.3743
448,-643,12.8147,33.8636,-0.00159209,-0.00423908,3.0952e-05,-0.00159172,-0.00423944,0.0116911,0.00247282,0.0200748,1672,1667,12.8147,-33.8636
455,-643,12.7953,33.3553,-0.00110604,-0.00509816,-0.000310844,-0.00108198,-0.00512222,-0.077244,0.00311738,0.0285801,1679,1667,12.7952,-33.3553
462,-643,12.8776,32.7848,-0.000533851,-0.00580103,-0.000697865,-0.000442957,-0.00589192,-0.129517,0.00378893,0.0427272,1686,1667,12.8776,-32.7848
469,-643,12.7303,32.2169,0,0,0,0,0,0,0,-1,1693,1667,12.7303,-32.2169
476,-643,10.5598,24.5066,0,0,0,0,0,0,0,-1,1700,1667,10.5598,-24.5065
483,-643,10.4502,24.3062,0,0,0,0,0,0,0,-1,1707,1667,10.4502,-24.3062
490,-643,10.6885,24.1522,0,0,0,0,0,0,0,-1,1714,1667,10.6884,-24.1522
497,-643,10.9073,23.9465,0,0,0,0,0,0,0,-1,1721,1667,10.9074,-23.9465
504,-643,8.05591,19.0656,0,0,0,0,0,0,0,-1,1728,1667,8.0559,-19.0655
511,-643,7.74719,18.1564,0,0,0,0,0,0,0,-1,1735,1667,7.74724,-18.1563
518,-643,7.40564,0.922607,0,0,0,0,0,0,0,-1,1742,1667,7.4057,-0.922598
525,-643,0,0,0,0,0,0,0,0,0,-1,1749,1667,0,0
532,-643,0,0,0,0,0,0,0,0,0,-1,1756,1667,0,0
539,-643,0,0,0,0,0,0,0,0,0,-1,1763,1667,0,0
546,-643,0,0,0,0,0,0,0,0,0,-1,1770,1667,0,0
553,-643,0,0,0,0,0,0,0,0,0,-1,1777,1667,0,0
560,-643,0,0,0,0,0,0,0,0,0,-1,1784,1667,0,0
567,-643,0,0,0,0,0,0,0,0,0,-1,1791,1667,0,0
574,-643,0,0,0,0,0,0,0,0,0,-1,1798,1667,0,0
581,-643,0,0,0,0,0,0,0,0,0,-1,1805,1667,0,0
588,-643,0,0,0,0,0,0,0,0,0,-1,1812,1667,0,0
595,-643,0,0,0,0,0,0,0,0,0,-1,1819,1667,0,0
602,-643,0,0,0,0,0,0,0,0,0,-1,1826,1667,0,0
609,-643,0,0,0,0,0,0,0,0,0,-1,1833,1667,0,0
616,-643,0,0,0,0,0,0,0,0,0,-1,1840,1667,0,0
623,-643,0,0,0,0,0,0,0,0,0,-1,1847,1667,0,0
630,-643,0,0,0,0,0,0,0,0,0,-1,1854,1667,0,0
637,-643,0,0,0,0,0,0,0,0,0,-1,1861,1667,0,0
644,-643,0,0,0,0,0,0,0,0,0,-1,1868,1667,0,0
651,-643,0,0,0,0,0,0,0,0,0,-1,1875,1667,0,0
658,-643,0,0,0,0,0,0,0,0,0,-1,1882,1667,0,0
665,-643,0,0,0,0,0,0,0,0,0,-1,1889,1667,0,0
672,-643,0,0,0,0,0,0,0,0,0,-1,1896,1667,0,0
679,-643,0,0,0,0,0,0,0,0,0,-1,1903,1667,0,0
686,-643,0,0,0,0,0,0,0,0,0,-1,1910,1667,0,0
693,-643,0,0,0,0,0,0,0,0,0,-1,1917,1667,0,0
700,-643,0,0,0,0,0,0,0,0,0,-1,1924,1667,0,0
707,-643,0,0,0,0,0,0,0,0,0,-1,1931,1667,0,0
714,-643,0,0,0,0,0,0,0,0,0,-1,1938,1667,0,0
721,-643,0,0,0,0,0,0,0,0,0,-1,1945,1667,0,0
728,-643,0,0,0,0,0,0,0,0,0,-1,1952,1667,0,0
735,-643,0,0,0,0,0,0,0,0,0,-1,1959,1667,0,0
742,-643,0,0,0,0,0,0,0,0,0,-1,1966,1667,0,0
749,-643,0,0,0,0,0,0,0,0,0,-1,1973,1667,0,0
756,-643,0,0,0,0,0,0,0,0,0,-1,1980,1667,0,0
763,-643,0,0,0,0,0,0,0,0,0,-1,1987,1667,0,0
770,-643,0,0,0,0,0,0,0,0,0,-1,1994,1667,0,0
777,-643,0,0,0,0,0,0,0,0,0,-1,2001,1667,0,0
784,-643,0,0,0,0,0,0,0,0,0,-1,2008,1667,0,0
791,-643,0,0,0,0,0,0,0,0,0,-1,2015,1667,0,0
798,-643,0,0,0,0,0,0,0,0,0,-1,2022,1667,0,0
805,-643,0,0,0,0,0,0,0,0,0,-1,2029,1667,0,0
812,-643,0,0,0,0,0,0,0,0,0,-1,2036,1667,0,0
-700,-650,0,0,0,0,0,0,0,0,0,-1,524,1674,0,0
-693,-650,0,0,0,0,0,0,0,0,0,-1,531,1674,0,0
-686,-650,0,0,0,0,0,0,0,0,0,-1,538,1674,0,0
-679,-650,0,0,0,0,0,0,0,0,0,-1,545,1674,0,0
-672,-650,0,0,0,0,0,0,0,0,0,-1,552,1674,0,0
-665,-650,0,0,0,0,0,0,0,0,0,-1,559,1674,0,0
-658,-650,0,0,0,0,0,0,0,0,0,-1,566,1674,0,0
-651,-650,0,0,0,0,0,0,0,0,0,-1,573,1674,0,0
-644,-650,0,0,0,0,0,0,0,0,0,-1,580,1674,0,0
-637,-650,0,0,0,0,0,0,0,0,0,-1,587,1674,0,0
-630,-650,0,0,0,0,0,0,0,0,0,-1,594,1674,0,0
-623,-650,0,0,0,0,0,0,0,0,0,-1,601,1674,0,0
-616,-650,0,0,0,0,0,0,0,0,0,-1,608,1674,0,0
-609,-650,0,0,0,0,0,0,0,0,0,-1,615,1674,0,0
-602,-650,0,0,0,0,0,0,0,0,0,-1,622,1674,0,0
-595,-650,0,0,0,0,0,0,0,0,0,-1,629,1674,0,0
-588,-650,0,0,0,0,0,0,0,0,0,-1,636,1674,0,0
-581,-650,0,0,0,0,0,0,0,0,0,-1,643,1674,0,0
-574,-650,0,0,0,0,0,0,0,0,0,-1,650,1674,0,0
-567,-650,0,0,0,0,0,0,0,0,0,-1,657,1674,0,0
-560,-650,0,0,0,0,0,0,0,0,0,-1,664,1674,0,0
-553,-650,0,0,0,0,0,0,0,0,0,-1,671,1674,0,0
-546,-650,0,0,0,0,0,0,0,0,0,-1,678,1674,0,0
-539,-650,0,0,0,0,0,0,0,0,0,-1,685,1674,0,0
-532,-650,0,0,0,0,0,0,0,0,0,-1,692,1674,0,0
-525,-650,0,0,0,0,0,0,0,0,0,-1,699,1674,0,0
-518,-650,0,0,0,0,0,0,0,0,0,-1,706,1674,0,0
-511,-650,0,0,0,0,0,0,0,0,0,-1,713,1674,0,0
-504,-650,0,0,0,0,0,0,0,0,0,-1,720,1674,0,0
-497,-650,0,0,0,0,0,0,0,0,0,-1,727,1674,0,0
-490,-650,0,0,0,0,0,0,0,0,0,-1,734,1674,0,0
-483,-650,0,0,0,0,0,0,0,0,0,-1,741,1674,0,0
-476,-650,0,0,0,0,0,0,0,0,0,-1,748,1674,0,0
-469,-650,0,0,0,0,0,0,0,0,0,-1,755,1674,0,0
-462,-650,0,0,0,0,0,0,0,0,0,-1,762,1674,0,0
-455,-650,0,0,0,0,0,0,0,0,0,-1,769,1674,0,0
-448,-650,0,0,0,0,0,0,0,0,0,-1,776,1674,0,0
-441,-650,0,0,0,0,0,0,0,0,0,-1,783,1674,0,0
-434,-650,0,0,0,0,0,0,0,0,0,-1,790,1674,0,0
-427,-650,0,0,0,0,0,0,0,0,0,-1,797,1674,0,0
-420,-650,0,0,0,0,0,0,0,0,0,-1,804,1674,0,0
-413,-650,0,0,0,0,0,0,0,0,0,-1,811,1674,0,0
-406,-650,0,0,0,0,0,0,0,0,0,-1,818,1674,0,0
-399,-650,0,0,0,0,0,0,0,0,0,-1,825,1674,0,0
-392,-650,5.44415,6.85669,0,0,0,0,0,0,0,-1,832,1674,5.44414,-6.85674
-385,-650,1.74451,14.0183,0,0,0,0,0,0,0,-1,839,1674,1.74453,-14.0183
-378,-650,0.997986,4.11108,0,0,0,0,0,0,0,-1,846,1674,0.998006,-4.11113
-371,-650,-1.80096,3.78625,0,0,0,0,0,0,0,-1,853,1674,-1.80094,-3.78625
-364,-650,-2.95679,2.57507,0,0,0,0,0,0,0,-1,860,1674,-2.95681,-2.57506
-357,-650,1.97833,10.8362,0,0,0,0,0,0,0,-1,867,1674,1.97835,-10.8362
-350,-650,-5.30243,0.159912,0,0,0,0,0,0,0,-1,874,1674,-5.30244,-0.159866
-343,-650,-6.21338,-1.4425,0,0,0,0,0,0,0,-1,881,1674,-6.21341,1.44248
-336,-650,4.70673,31.4897,0,0,0,0,0,0,0,-1,888,1674,4.70672,-31.4897
-329,-650,5.04559,31.9077,0.010285,0.00187178,0.0121752,0.0189598,-0.00680305,0.619065,0.0154163,0.0499761,895,1674,5.04558,-31.9078
-322,-650,5.47803,33.0104,0.00844348,0.000964455,0.0102192,0.0155858,-0.00617791,0.61,0.0129507,0.0491873,902,1674,5.47801,-33.0104
-315,-650,5.17383,33.3943,0.00662216,5.27609e-05,0.00823059,0.0121993,-0.00552436,0.59554,0.0104719,0.0456537,909,1674,5.1738,-33.3943
-308,-650,5.3656,33.8765,0.00504993,-0.000329977,0.00650924,0.00940313,-0.00468318,0.589459,0.00828352,0.026567,916,1674,5.3656,-33.8765
-301,-650,5.4024,34.5773,0.0037082,-0.000563682,0.00504945,0.00705488,-0.00391036,0.585308,0.00641698,0.0144802,923,1674,5.4024,-34.5772
-294,-650,5.3277,35.0778,0.00274508,-0.000535859,0.00395107,0.0053827,-0.00317348,0.588629,0.0049945,0.0115042,930,1674,5.32772,-35.0778
-287,-650,5.30212,35.6005,0.00202649,-0.000335432,0.00311385,0.00417581,-0.00248475,0.604148,0.00388657,0.0138883,937,1674,5.30211,-35.6004
-280,-650,5.26318,36.1204,0.00147575,-3.85605e-05,0.00251178,0.00334201,-0.00190483,0.639009,0.00306691,0.0146536,944,1674,5.26319,-36.1203
-273,-650,5.23419,36.6588,0.00097014,9.90354e-05,0.00187555,0.00246004,-0.00139087,0.671307,0.00225171,0.0142213,951,1674,5.2342,-36.6588
-266,-650,5.20917,37.1615,0.000982729,0.000708453,0.00171643,0.0025675,-0.000876313,0.745534,0.00206665,0.0116353,958,1674,5.20919,-37.1614
-259,-650,5.1972,37.6685,0.00117294,0.00123057,0.00163563,0.00283764,-0.000434128,0.794206,0.00205183,0.0145488,965,1674,5.19722,-37.6684
-252,-650,5.17822,38.1678,0.00134268,0.00184206,0.00156853,0.00318065,4.08746e-06,0.86433,0.00211907,0.0135538,972,1674,5.1782,-38.1679
-245,-650,5.17133,38.6456,0.00147151,0.00225015,0.00150156,0.00341204,0.000309616,0.912244,0.00217883,0.0120452,979,1674,5.1713,-38.6456
-238,-650,5.16699,39.1367,0.00190907,0.00251974,0.00154381,0.00378812,0.000640692,0.883028,0.00234126,0.0137019,986,1674,5.16698,-39.1367
-231,-650,5.1153,39.6492,0.00238352,0.00255845,0.00156934,0.00404276,0.000899217,0.813237,0.00245105,0.0186402,993,1674,5.11528,-39.6492
-224,-650,5.11505,40.103,0.0027743,0.00270895,0.00154883,0.0042908,0.00119245,0.77485,0.00255746,0.0149495,1000,1674,5.11508,-40.103
-217,-650,5.1358,40.5153,0.00272162,0.00320388,0.00138717,0.00437072,0.00155478,0.871453,0.00255821,0.0102406,1007,1674,5.13578,-40.5153
-210,-650,5.15045,40.954,0.00239824,0.00381094,0.00116666,0.00446842,0.00174076,1.05761,0.00260073,0.00955603,1014,1674,5.15047,-40.954
-203,-650,5.19104,41.4082,0.00155008,0.00477515,0.000948235,0.00503329,0.00129194,1.30501,0.00301849,0.0141465,1021,1674,5.1911,-41.4082
-196,-650,5.19287,41.8536,0.000838308,0.00562725,0.000695967,0.00572634,0.000739216,1.42937,0.00359657,0.0136779,1028,1674,5.1929,-41.8536
-189,-650,5.17639,42.2821,-0.00015138,0.00665461,0.000381666,0.00667594,-0.000172716,1.51495,0.0045093,0.0116011,1035,1674,5.17637,-42.2821
-182,-650,5.24072,42.7471,-0.00114117,0.00791965,0.000182051,0.0079233,-0.00114483,1.55071,0.00570225,0.0113548,1042,1674,5.24071,-42.7471
-175,-650,5.27954,43.1204,-0.00218402,0.00955604,1.78531e-05,0.00955607,-0.00218404,1.56928,0.00720985,0.016616,1049,1674,5.27948,-43.1203
-168,-650,5.25867,43.5143,-0.00341079,0.0115566,-0.000111164,0.0115574,-0.00341162,-1.56337,0.00905888,0.0206769,1056,1674,5.25872,-43.5143
-161,-650,5.1803,43.8977,-0.00449043,0.0135404,-0.000153704,0.0135417,-0.00449174,-1.56227,0.0108398,0.0309836,1063,1674,5.18024,-43.8977
-154,-650,5.23181,44.2687,-0.00540134,0.0157093,-0.000156743,0.0157105,-0.00540251,-1.56337,0.0126646,0.0371701,1070,1674,5.23178,-44.2686
-147,-650,5.35962,44.7225,0,0,0,0,0,0,0,-1,1077,1674,5.35962,-44.7226
-140,-650,4.9696,36.0964,0,0,0,0,0,0,0,-1,1084,1674,4.96957,-36.0964
-133,-650,4.69751,37.2125,0,0,0,0,0,0,0,-1,1091,1674,4.69756,-37.2125
-126,-650,5.14539,46.8502,0,0,0,0,0,0,0,-1,1098,1674,5.14533,-46.8502
-119,-650,5.16663,20.6232,0,0,0,0,0,0,0,-1,1105,1674,5.16665,-20.6232
-112,-650,3.86292,14.4513,0,0,0,0,0,0,0,-1,1112,1674,3.8629,-14.4513
-105,-650,7.92102,38.1313,0,0,0,0,0,0,0,-1,1119,1674,7.92104,-38.1314
-98,-650,3.3761,6.78003,0,0,0,0,0,0,0,-1,1126,1674,3.37611,-6.78009
-91,-650,3.66809,7.04443,0,0,0,0,0,0,0,-1,1133,1674,3.66806,-7.04439
-84,-650,-3.82666,-1.59521,0,0,0,0,0,0,0,-1,1140,1674,-3.82661,1.59517
-77,-650,-4.70557,1.90198,0,0,0,0,0,0,0,-1,1147,1674,-4.7056,-1.90194
-70,-650,-4.88171,3.81653,0,0,0,0,0,0,0,-1,1154,1674,-4.88176,-3.81651
-63,-650,-5.14612,5.56543,0,0,0,0,0,0,0,-1,1161,1674,-5.14612,-5.56547
-56,-650,-5.38367,7.41101,0,0,0,0,0,0,0,-1,1168,1674,-5.38361,-7.41102
-49,-650,-5.11316,8.23706,0,0,0,0,0,0,0,-1,1175,1674,-5.11317,-8.23708
-42,-650,-4.99487,9.6792,0,0,0,0,0,0,0,-1,1182,1674,-4.99484,-9.67921
-35,-650,-4.77771,11.3369,0,0,0,0,0,0,0,-1,1189,1674,-4.77769,-11.3369
-28,-650,-4.1936,13.1501,0,0,0,0,0,0,0,-1,1196,1674,-4.19358,-13.1501
-21,-650,7.49512,36.2162,0,0,0,0,0,0,0,-1,1203,1674,7.49515,-36.2162
-14,-650,6.00903,50.444,0,0,0,0,0,0,0,-1,1210,1674,6.00903,-50.444
-7,-650,7.47681,53.5153,0,0,0,0,0,0,0,-1,1217,1674,7.47682,-53.5153
0,-650,8.49805,48.1836,0,0,0,0,0,0,0,-1,1224,1674,8.49802,-48.1836
7,-650,8.63342,48.6583,0.0449843,-0.0145462,0.0352712,0.0613712,-0.0309331,0.434928,0.0542492,0.0449421,1231,1674,8.63337,-48.6583
14,-650,8.797,49.1437,0.0671322,0.00989943,0.0372591,0.085496,-0.00846433,0.457925,0.0600181,0.0422324,1238,1674,8.79704,-49.1437
21,-650,8.90588,49.5996,0,0,0,0,0,0,0,-1,1245,1674,8.90587,-49.5996
28,-650,5.97144,49.6747,0,0,0,0,0,0,0,-1,1252,1674,5.97147,-49.6746
35,-650,5.41809,49.918,0,0,0,0,0,0,0,-1,1259,1674,5.41808,-49.918
42,-650,6.34155,49.7456,0.122191,0.142836,0.0405011,0.17431,0.0907177,0.910178,0.100666,0.0463127,1266,1674,6.34159,-49.7457
49,-650,7.2688,49.5726,0.127415,0.172741,0.0395918,0.195697,0.104458,1.04535,0.113072,0.0462086,1273,1674,7.26886,-49.5726
56,-650,8.12085,49.3805,0.130444,0.205038,0.0392535,0.221888,0.113594,1.16532,0.128119,0.0472638,1280,1674,8.12082,-49.3805
63,-650,8.61145,49.2366,0.127177,0.226225,0.0352872,0.237511,0.115891,1.26125,0.13714,0.0444107,1287,1674,8.6115,-49.2366
70,-650,9.26111,49.0709,0,0,0,0,0,0,0,-1,1294,1674,9.26114,-49.0709
77,-650,6.17834,50.4462,0,0,0,0,0,0,0,-1,1301,1674,6.17837,-50.4462
84,-650,5.52893,50.2957,0,0,0,0,0,0,0,-1,1308,1674,5.52894,-50.2957
91,-650,10.2883,49.6205,0,0,0,0,0,0,0,-1,1315,1674,10.2884,-49.6204
98,-650,10.3638,49.4784,0,0,0,0,0,0,0,-1,1322,1674,10.3637,-49.4784
105,-650,7.71936,53.5096,0,0,0,0,0,0,0,-1,1329,1674,7.71933,-53.5097
112,-650,8.03699,52.8093,0.0504085,0.133711,-0.0196995,0.138135,0.0459848,-1.3499,0.0812232,0.0445616,1336,1674,8.03703,-52.8094
119,-650,8.3844,52.3124,0.0474931,0.0985783,-0.0259601,0.109455,0.0366166,-1.17404,0.0643369,0.044642,1343,1674,8.3844,-52.3124
126,-650,8.69116,51.8997,0.0474721,0.076627,-0.0265867,0.0923705,0.0317287,-1.03617,0.054194,0.0480663,1350,1674,8.69122,-51.8997
133,-650,8.8595,51.469,0.0454986,0.0678844,-0.0255712,0.0846051,0.028778,-0.991694,0.0496719,0.0481446,1357,1674,8.85954,-51.469
140,-650,9.17725,51.1307,0.0443291,0.0602908,-0.021901,0.0756198,0.0290001,-0.960124,0.0440524,0.0446042,1364,1674,9.17725,-51.1307
147,-650,9.65332,50.7833,0.0432634,0.0551665,-0.0177524,0.0679384,0.0304915,-0.947136,0.0392927,0.0440617,1371,1674,9.65335,-50.7834
154,-650,10.0813,50.4017,0,0,0,0,0,0,0,-1,1378,1674,10.0813,-50.4018
161,-650,4.09106,30.3021,0,0,0,0,0,0,0,-1,1385,1674,4.09104,-30.3021
168,-650,11.2113,7.87231,0,0,0,0,0,0,0,-1,1392,1674,11.2113,-7.87236
175,-650,5.62537,-0.230713,0,0,0,0,0,0,0,-1,1399,1674,5.62538,0.230745
182,-650,5.56006,0.421631,0,0,0,0,0,0,0,-1,1406,1674,5.56,-0.421652
189,-650,4.81543,11.0654,0,0,0,0,0,0,0,-1,1413,1674,4.81542,-11.0654
196,-650,5.39575,11.9077,0,0,0,0,0,0,0,-1,1420,1674,5.39575,-11.9078
203,-650,3.93628,11.8215,0,0,0,0,0,0,0,-1,1427,1674,3.93624,-11.8216
210,-650,5.40955,8.08594,0,0,0,0,0,0,0,-1,1434,1674,5.40958,-8.086
217,-650,5.12451,4.69739,0,0,0,0,0,0,0,-1,1441,1674,5.12451,-4.69738
224,-650,4.79041,1.45813,0,0,0,0,0,0,0,-1,1448,1674,4.79046,-1.45816
231,-650,4.04102,-0.642212,0,0,0,0,0,0,0,-1,1455,1674,4.04101,0.642209
238,-650,3.23022,-1.43396,0,0,0,0,0,0,0,-1,1462,1674,3.23023,1.43394
245,-650,1.65894,-2.55042,0,0,0,0,0,0,0,-1,1469,1674,1.65889,2.55036
252,-650,8.75342,0.355103,0,0,0,0,0,0,0,-1,1476,1674,8.75337,-0.355147
259,-650,5.61255,3.17566,0,0,0,0,0,0,0,-1,1483,1674,5.61257,-3.17572
266,-650,4.00403,6.10229,0,0,0,0,0,0,0,-1,1490,1674,4.00401,-6.10225
273,-650,11.9524,42.7109,0,0,0,0,0,0,0,-1,1497,1674,11.9524,-42.7109
280,-650,12.0735,44.7931,0,0,0,0,0,0,0,-1,1504,1674,12.0735,-44.7931
287,-650,12.4813,44.3037,0.00686354,0.0138195,-0.00360839,0.0153532,0.00532986,-1.1689,0.00900117,0.0459323,1511,1674,12.4813,-44.3037
294,-650,12.4191,43.8831,0.0065851,0.0147619,-0.00395361,0.0163609,0.00498615,-1.18648,0.00968301,0.0452851,1518,1674,12.419,-43.883
301,-650,12.3864,43.5441,0.00615342,0.0162065,-0.00436483,0.0178372,0.0045228,-1.21327,0.0107071,0.0326881,1525,1674,12.3864,-43.544
308,-650,12.4441,43.0957,0.00566076,0.0168353,-0.00463739,0.0185091,0.00398696,-1.22441,0.0112484,0.0178567,1532,1674,12.4441,-43.0957
315,-650,12.4987,42.6664,0.00548322,0.0173669,-0.00519321,0.0193165,0.00353361,-1.21166,0.0118763,0.0108194,1539,1674,12.4987,-42.6663
322,-650,12.5204,42.2511,0.00528163,0.0176009,-0.00561022,0.0197729,0.00310966,-1.20142,0.0122774,0.0100147,1546,1674,12.5203,-42.2511
329,-650,12.5446,41.7819,0.00503286,0.0171202,-0.00582918,0.0194733,0.00267979,-1.18713,0.0121875,0.0149195,1553,1674,12.5446,-41.7819
336,-650,12.5261,41.3856,0.00457755,0.0161288,-0.00565929,0.0184393,0.00226705,-1.18318,0.0116112,0.0135346,1560,1674,12.5261,-41.3856
343,-650,12.5254,40.9808,0.00413149,0.0148308,-0.00550326,0.0171561,0.0018062,-1.17102,0.0108854,0.0138286,1567,1674,12.5254,-40.9809
350,-650,12.5409,40.5563,0.00366086,0.0132599,-0.0051861,0.0155266,0.00139419,-1.15875,0.00991904,0.0162672,1574,1674,12.5409,-40.5563
357,-650,12.522,40.1124,0.00310733,0.0114831,-0.00470541,0.0135944,0.000996073,-1.14904,0.00874983,0.0135498,1581,1674,12.522,-40.1125
364,-650,12.5247,39.6678,0.00245179,0.00964905,-0.00410573,0.01151,0.00059083,-1.14523,0.00748418,0.00918926,1588,1674,12.5246,-39.6679
371,-650,12.5118,39.2079,0.00178997,0.0077547,-0.00346627,0.00934503,0.000199645,-1.14065,0.00616455,0.0113435,1595,1674,12.5119,-39.2079
378,-650,12.5115,38.7477,0.00110119,0.00555964,-0.00270887,0.00683861,-0.000177777,-1.12968,0.00461947,0.0133385,1602,1674,12.5114,-38.7477
385,-650,12.5199,38.2921,0.000320615,0.00397188,-0.00195684,0.00482247,-0.000529972,-1.16076,0.00340541,0.0144914,1609,1674,12.5199,-38.2921
392,-650,12.4891,37.8491,-0.000496578,0.00246634,-0.00128151,0.00294371,-0.000973944,-1.21422,0.00235523,0.017731,1616,1674,12.4892,-37.8491
399,-650,12.4504,37.3748,-0.00129447,0.00105138,-0.000587536,0.0011903,-0.0014334,-1.33861,0.00151696,0.0159086,1623,1674,12.4505,-37.3747
406,-650,12.4465,36.875,-0.00187706,-0.000341743,-1.47513e-05,-0.000341601,-0.0018772,-1.56119,0.00115457,0.0153397,1630,1674,12.4465,-36.875
413,-650,12.4451,36.3921,-0.00240496,-0.00134671,0.000407297,-0.00120811,-0.00254357,1.24278,0.00146914,0.0157743,1637,1674,12.445,-36.392
420,-650,12.4028,35.9272,-0.00283565,-0.0022037,0.000657134,-0.00179052,-0.00324883,1.0095,0.00187898,0.0158712,1644,1674,12.4028,-35.9273
427,-650,12.377,35.4351,-0.00306225,-0.00293396,0.000771025,-0.00222442,-0.00377179,0.826902,0.00218931,0.0152422,1651,1674,12.3769,-35.435
434,-650,12.3563,34.9584,-0.00307486,-0.00361289,0.000724149,-0.00257138,-0.00411638,0.607552,0.00240109,0.0184165,1658,1674,12.3563,-34.9584
441,-650,12.3098,34.4507,-0.00305223,-0.00440035,0.000633579,-0.0028012,-0.00465137,0.377224,0.00270412,0.0279054,1665,1674,12.3098,-34.4507
448,-650,12.2441,33.9673,-0.00284168,-0.00545883,0.000657986,-0.00268556,-0.00561495,0.232952,0.00324281,0.0381854,1672,1674,12.2441,-33.9673
455,-650,12.4044,33.5651,-0.00209464,-0.00665527,0.00027997,-0.00207752,-0.00667239,0.0610828,0.00394264,0.0455639,1679,1674,12.4044,-33.565
462,-650,12.3561,32.7798,0,0,0,0,0,0,0,-1,1686,1674,12.3561,-32.7798
469,-650,11.3628,29.8889,0,0,0,0,0,0,0,-1,1693,1674,11.3628,-29.8889
476,-650,10.9189,27.1289,0,0,0,0,0,0,0,-1,1700,1674,10.919,-27.1289
483,-650,10.2426,24.5127,0,0,0,0,0,0,0,-1,1707,1674,10.2425,-24.5127
490,-650,10.4818,24.3475,0,0,0,0,0,0,0,-1,1714,1674,10.4818,-24.3475
497,-650,10.4985,20.1362,0,0,0,0,0,0,0,-1,1721,1674,10.4986,-20.1362
504,-650,9.69458,18.7721,0,0,0,0,0,0,0,-1,1728,1674,9.6946,-18.772
511,-650,9.37158,17.7506,0,0,0,0,0,0,0,-1,1735,1674,9.37159,-17.7506
518,-650,0,0,0,0,0,0,0,0,0,-1,1742,1674,0,0
525,-650,0,0,0,0,0,0,0,0,0,-1,1749,1674,0,0
532,-650,0,0,0,0,0,0,0,0,0,-1,1756,1674,0,0
539,-650,0,0,0,0,0,0,0,0,0,-1,1763,1674,0,0
546,-650,0,0,0,0,0,0,0,0,0,-1,1770,1674,0,0
553,-650,0,0,0,0,0,0,0,0,0,-1,1777,1674,0,0
560,-650,0,0,0,0,0,0,0,0,0,-1,1784,1674,0,0
567,-650,0,0,0,0,0,0,0,0,0,-1,1791,1674,0,0
574,-650,0,0,0,0,0,0,0,0,0,-1,1798,1674,0,0
581,-650,0,0,0,0,0,0,0,0,0,-1,1805,1674,0,0
588,-650,0,0,0,0,0,0,0,0,0,-1,1812,1674,0,0
595,-650,0,0,0,0,0,0,0,0,0,-1,1819,1674,0,0
602,-650,0,0,0,0,0,0,0,0,0,-1,1826,1674,0,0
609,-650,0,0,0,0,0,0,0,0,0,-1,1833,1674,0,0
616,-650,0,0,0,0,0,0,0,0,0,-1,1840,1674,0,0
623,-650,0,0,0,0,0,0,0,0,0,-1,1847,1674,0,0
630,-650,0,0,0,0,0,0,0,0,0,-1,1854,1674,0,0
637,-650,0,0,0,0,0,0,0,0,0,-1,1861,1674,0,0
644,-650,0,0,0,0,0,0,0,0,0,-1,1868,1674,0,0
651,-650,0,0,0,0,0,0,0,0,0,-1,1875,1674,0,0
658,-650,0,0,0,0,0,0,0,0,0,-1,1882,1674,0,0
665,-650,0,0,0,0,0,0,0,0,0,-1,1889,1674,0,0
672,-650,0,0,0,0,0,0,0,0,0,-1,1896,1674,0,0
679,-650,0,0,0,0,0,0,0,0,0,-1,1903,1674,0,0
686,-650,0,0,0,0,0,0,0,0,0,-1,1910,1674,0,0
693,-650,0,0,0,0,0,0,0,0,0,-1,1917,1674,0,0
700,-650,0,0,0,0,0,0,0,0,0,-1,1924,1674,0,0
707,-650,0,0,0,0,0,0,0,0,0,-1,1931,1674,0,0
714,-650,0,0,0,0,0,0,0,0,0,-1,1938,1674,0,0
721,-650,0,0,0,0,0,0,0,0,0,-1,1945,1674,0,0
728,-650,0,0,0,0,0,0,0,0,0,-1,1952,1674,0,0
735,-650,0,0,0,0,0,0,0,0,0,-1,1959,1674,0,0
742,-650,0,0,0,0,0,0,0,0,0,-1,1966,1674,0,0
749,-650,0,0,0,0,0,0,0,0,0,-1,1973,1674,0,0
756,-650,0,0,0,0,0,0,0,0,0,-1,1980,1674,0,0
763,-650,0,0,0,0,0,0,0,0,0,-1,1987,1674,0,0
770,-650,0,0,0,0,0,0,0,0,0,-1,1994,1674,0,0
777,-650,0,0,0,0,0,0,0,0,0,-1,2001,1674,0,0
784,-650,0,0,0,0,0,0,0,0,0,-1,2008,1674,0,0
791,-650,0,0,0,0,0,0,0,0,0,-1,2015,1674,0,0
798,-650,0,0,0,0,0,0,0,0,0,-1,2022,1674,0,0
805,-650,0,0,0,0,0,0,0,0,0,-1,2029,1674,0,0
812,-650,0,0,0,0,0,0,0,0,0,-1,2036,1674,0,0
-700,-657,0,0,0,0,0,0,0,0,0,-1,524,1681,0,0
-693,-657,0,0,0,0,0,0,0,0,0,-1,531,1681,0,0
-686,-657,0,0,0,0,0,0,0,0,0,-1,538,1681,0,0
-679,-657,0,0,0,0,0,0,0,0,0,-1,545,1681,0,0
-672,-657,0,0,0,0,0,0,0,0,0,-1,552,1681,0,0
-665,-657,0,0,0,0,0,0,0,0,0,-1,559,1681,0,0
-658,-657,0,0,0,0,0,0,0,0,0,-1,566,1681,0,0
-651,-657,0,0,0,0,0,0,0,0,0,-1,573,1681,0,0
-644,-657,0,0,0,0,0,0,0,0,0,-1,580,1681,0,0
-637,-657,0,0,0,0,0,0,0,0,0,-1,587,1681,0,0
-630,-657,0,0,0,0,0,0,0,0,0,-1,594,1681,0,0
-623,-657,0,0,0,0,0,0,0,0,0,-1,601,1681,0,0
-616,-657,0,0,0,0,0,0,0,0,0,-1,608,1681,0,0
-609,-657,0,0,0,0,0,0,0,0,0,-1,615,1681,0,0
-602,-657,0,0,0,0,0,0,0,0,0,-1,622,1681,0,0
-595,-657,0,0,0,0,0,0,0,0,0,-1,629,1681,0,0
-588,-657,0,0,0,0,0,0,0,0,0,-1,636,1681,0,0
-581,-657,0,0,0,0,0,0,0,0,0,-1,643,1681,0,0
-574,-657,0,0,0,0,0,0,0,0,0,-1,650,1681,0,0
-567,-657,0,0,0,0,0,0,0,0,0,-1,657,1681,0,0
-560,-657,0,0,0,0,0,0,0,0,0,-1,664,1681,0,0
-553,-657,0,0,0,0,0,0,0,0,0,-1,671,1681,0,0
-546,-657,0,0,0,0,0,0,0,0,0,-1,678,1681,0,0
-539,-657,0,0,0,0,0,0,0,0,0,-1,685,1681,0,0
-532,-657,0,0,0,0,0,0,0,0,0,-1,692,1681,0,0
-525,-657,0,0,0,0,0,0,0,0,0,-1,699,1681,0,0
-518,-657,0,0,0,0,0,0,0,0,0,-1,706,1681,0,0
-511,-657,0,0,0,0,0,0,0,0,0,-1,713,1681,0,0
-504,-657,0,0,0,0,0,0,0,0,0,-1,720,1681,0,0
-497,-657,0,0,0,0,0,0,0,0,0,-1,727,1681,0,0
-490,-657,0,0,0,0,0,0,0,0,0,-1,734,1681,0,0
-483,-657,0,0,0,0,0,0,0,0,0,-1,741,1681,0,0
-476,-657,0,0,0,0,0,0,0,0,0,-1,748,1681,0,0
-469,-657,0,0,0,0,0,0,0,0,0,-1,755,1681,0,0
-462,-657,0,0,0,0,0,0,0,0,0,-1,762,1681,0,0
-455,-657,0,0,0,0,0,0,0,0,0,-1,769,1681,0,0
-448,-657,0,0,0,0,0,0,0,0,0,-1,776,1681,0,0
-441,-657,0,0,0,0,0,0,0,0,0,-1,783,1681,0,0
-434,-657,0,0,0,0,0,0,0,0,0,-1,790,1681,0,0
-427,-657,0,0,0,0,0,0,0,0,0,-1,797,1681,0,0
-420,-657,0,0,0,0,0,0,0,0,0,-1,804,1681,0,0
-413,-657,0,0,0,0,0,0,0,0,0,-1,811,1681,0,0
-406,-657,0,0,0,0,0,0,0,0,0,-1,818,1681,0,0
-399,-657,0,0,0,0,0,0,0,0,0,-1,825,1681,0,0
-392,-657,0,0,0,0,0,0,0,0,0,-1,832,1681,0,0
-385,-657,1.09814,6.18896,0,0,0,0,0,0,0,-1,839,1681,1.09814,-6.18894
-378,-657,0.31488,4.46753,0,0,0,0,0,0,0,-1,846,1681,0.31487,-4.46755
-371,-657,-0.519043,2.69421,0,0,0,0,0,0,0,-1,853,1681,-0.519064,-2.69422
-364,-657,-3.42017,4.18323,0,0,0,0,0,0,0,-1,860,1681,-3.42019,-4.18319
-357,-657,-4.41913,2.97168,0,0,0,0,0,0,0,-1,867,1681,-4.41913,-2.97165
-350,-657,-5.42291,1.70276,0,0,0,0,0,0,0,-1,874,1681,-5.42291,-1.70277
-343,-657,-6.51294,0.397339,0,0,0,0,0,0,0,-1,881,1681,-6.51295,-0.397335
-336,-657,5.11139,31.3381,0,0,0,0,0,0,0,-1,888,1681,5.11137,-31.3382
-329,-657,5.39185,31.5363,0,0,0,0,0,0,0,-1,895,1681,5.39187,-31.5362
-322,-657,5.97711,33.1124,0,0,0,0,0,0,0,-1,902,1681,5.97712,-33.1125
-315,-657,5.69427,33.1324,0,0,0,0,0,0,0,-1,909,1681,5.69425,-33.1325
-308,-657,5.77655,33.8927,0.00724234,-0.000857671,0.00815474,0.0122974,-0.00591274,0.554918,0.0107269,0.0398716,916,1681,5.77655,-33.8926
-301,-657,5.90094,34.6089,0.00523367,-0.00112171,0.00623738,0.00905616,-0.00494421,0.549805,0.00819851,0.0305829,923,1681,5.90093,-34.6089
-294,-657,5.84259,35.1698,0.00371491,-0.00102703,0.00480955,0.00670615,-0.00401827,0.556394,0.00625623,0.0186178,930,1681,5.84259,-35.1698
-287,-657,5.79156,35.6658,0.00257103,-0.000803181,0.00373474,0.00498205,-0.0032142,0.573251,0.00476866,0.0126066,937,1681,5.79156,-35.6658
-280,-657,5.74316,36.1544,0.001658,-0.000509197,0.00294362,0.00371113,-0.00256233,0.609036,0.00364217,0.0150667,944,1681,5.74314,-36.1545
-273,-657,5.73737,36.6737,0.000814758,-0.000410531,0.0020933,0.00238322,-0.00197899,0.643039,0.00252212,0.0111391,951,1681,5.73734,-36.6738
-266,-657,5.71417,37.1755,0.00064054,0.000177322,0.00181041,0.0022341,-0.00141624,0.721778,0.00212508,0.0145368,958,1681,5.7142,-37.1755
-259,-657,5.71167,37.6781,0.000681319,0.000670364,0.00160795,0.0022838,-0.000932116,0.783695,0.00191059,0.0186186,965,1681,5.71169,-37.6781
-252,-657,5.66278,38.1769,0.000722062,0.00127847,0.00143445,0.00246145,-0.000460915,0.881181,0.00181422,0.0134052,972,1681,5.66281,-38.1769
-245,-657,5.65942,38.6633,0.000611319,0.00163845,0.00125645,0.00248224,-0.00023247,0.979409,0.00173751,0.0153762,979,1681,5.65945,-38.6633
-238,-657,5.67322,39.1676,0.000976234,0.00188555,0.00127269,0.00278235,7.94323e-05,0.956955,0.001829,0.0205131,986,1681,5.6732,-39.1676
-231,-657,5.63818,39.6678,0.00141331,0.0019503,0.00130189,0.00301109,0.000352516,0.887088,0.00190082,0.0220611,993,1681,5.63819,-39.6678
-224,-657,5.59119,40.1217,0.00176785,0.00206565,0.0012575,0.00318304,0.000650466,0.844329,0.00194186,0.0169755,1000,1681,5.59119,-40.1217
-217,-657,5.59796,40.5752,0.00179238,0.00241449,0.00110246,0.00324894,0.000957928,0.922896,0.00192769,0.00967782,1007,1681,5.59796,-40.5752
-210,-657,5.60803,41.0072,0.00166119,0.00286862,0.000940809,0.00338275,0.00114705,1.07066,0.00198646,0.0100229,1014,1681,5.60801,-41.0073
-203,-657,5.62048,41.4512,0.00119513,0.00351897,0.000759043,0.00374493,0.000969174,1.28146,0.00224443,0.012415,1021,1681,5.62051,-41.4512
-196,-657,5.61475,41.8795,0.00080826,0.00410775,0.000569014,0.00420312,0.000712887,1.40473,0.00259727,0.0132192,1028,1681,5.61475,-41.8796
-189,-657,5.61926,42.2942,0.000244546,0.00481642,0.000324877,0.00483939,0.000221575,1.50021,0.003155,0.0100492,1035,1681,5.61929,-42.2942
-182,-657,5.62378,42.7123,-0.000291531,0.00575779,0.000153988,0.00576171,-0.000295448,1.54536,0.00394331,0.00868014,1042,1681,5.6238,-42.7122
-175,-657,5.65991,43.1156,-0.000776466,0.00696923,3.69868e-05,0.00696941,-0.000776643,1.56602,0.00492561,0.0111081,1049,1681,5.65997,-43.1156
-168,-657,5.62878,43.5336,-0.00140726,0.00847993,-4.13199e-05,0.00848011,-0.00140743,-1.56662,0.00617624,0.0144021,1056,1681,5.62883,-43.5336
-161,-657,5.63599,43.9651,-0.00193866,0.00995245,-8.57244e-05,0.00995307,-0.00193928,-1.56359,0.00736738,0.0151206,1063,1681,5.63597,-43.9651
-154,-657,5.71204,44.3263,-0.0022949,0.0116073,-0.000105861,0.0116081,-0.00229571,-1.56318,0.00860667,0.0171253,1070,1681,5.71207,-44.3263
-147,-657,5.71313,44.7142,-0.0024362,0.0133841,-7.22345e-05,0.0133844,-0.00243653,-1.56623,0.00983621,0.0349489,1077,1681,5.71309,-44.7142
-140,-657,5.83057,45.248,0,0,0,0,0,0,0,-1,1084,1681,5.83052,-45.2481
-133,-657,5.65588,46.0588,0,0,0,0,0,0,0,-1,1091,1681,5.6559,-46.0589
-126,-657,5.71082,46.3894,0,0,0,0,0,0,0,-1,1098,1681,5.71076,-46.3895
-119,-657,5.96729,46.6941,0,0,0,0,0,0,0,-1,1105,1681,5.96723,-46.6941
-112,-657,6.24219,42.9092,0,0,0,0,0,0,0,-1,1112,1681,6.24217,-42.9092
-105,-657,7.37256,41.0361,0,0,0,0,0,0,0,-1,1119,1681,7.37254,-41.0362
-98,-657,8.14404,38.4435,0,0,0,0,0,0,0,-1,1126,1681,8.14405,-38.4435
-91,-657,3.6521,16.6017,0,0,0,0,0,0,0,-1,1133,1681,3.65215,-16.6017
-84,-657,4.08008,10.4579,0,0,0,0,0,0,0,-1,1140,1681,4.08006,-10.4579
-77,-657,-5.29846,0.396606,0,0,0,0,0,0,0,-1,1147,1681,-5.29842,-0.396573
-70,-657,-4.14893,2.14575,0,0,0,0,0,0,0,-1,1154,1681,-4.14893,-2.1458
-63,-657,-4.1239,3.177,0,0,0,0,0,0,0,-1,1161,1681,-4.12391,-3.17698
-56,-657,-6.40576,5.73987,0,0,0,0,0,0,0,-1,1168,1681,-6.40577,-5.7399
-49,-657,-5.98462,7.54053,0,0,0,0,0,0,0,-1,1175,1681,-5.98466,-7.5405
-42,-657,-5.71948,9.28955,0,0,0,0,0,0,0,-1,1182,1681,-5.71951,-9.2895
-35,-657,-5.44556,11.015,0,0,0,0,0,0,0,-1,1189,1681,-5.44555,-11.015
-28,-657,-1.3446,8.92847,0,0,0,0,0,0,0,-1,1196,1681,-1.34459,-8.92848
-21,-657,6.02917,50.0658,0,0,0,0,0,0,0,-1,1203,1681,6.02913,-50.0658
-14,-657,6.36536,50.219,0,0,0,0,0,0,0,-1,1210,1681,6.3653,-50.219
-7,-657,8.27124,49.524,0,0,0,0,0,0,0,-1,1217,1681,8.27124,-49.5241
0,-657,8.42834,49.2997,0.0209977,-0.00472449,0.0274272,0.0384295,-0.0221562,0.566161,0.0353973,0.0453612,1224,1681,8.42838,-49.2997
7,-657,8.4696,49.1824,0.0370565,-0.0108277,0.0248292,0.0476066,-0.0213778,0.401792,0.0407765,0.0454234,1231,1681,8.46965,-49.1824
14,-657,8.68188,49.2195,0.0534974,0.00714112,0.0254519,0.0647435,-0.00410496,0.416061,0.0445936,0.0415423,1238,1681,8.68194,-49.2195
21,-657,8.83374,49.1754,0,0,0,0,0,0,0,-1,1245,1681,8.8338,-49.1754
28,-657,5.25513,50.2065,0.0780283,0.0569999,0.0255075,0.0951036,0.0399246,0.589908,0.055143,0.0441571,1252,1681,5.2551,-50.2066
35,-657,6.04614,50.3484,0.0887226,0.0831792,0.0267896,0.112884,0.0590183,0.733851,0.065196,0.0412022,1259,1681,6.04609,-50.3484
42,-657,6.5824,50.1726,0.094801,0.108217,0.0267814,0.129118,0.0739002,0.908106,0.0748057,0.0431843,1266,1681,6.58243,-50.1727
49,-657,7.49426,50.0319,0.0982449,0.132159,0.0265098,0.146671,0.0837329,1.06993,0.084964,0.0432222,1273,1681,7.49425,-50.0318
56,-657,8.66174,51.126,0,0,0,0,0,0,0,-1,1280,1681,8.66173,-51.1259
63,-657,8.42773,49.5839,0.0970109,0.174218,0.0242116,0.181182,0.0900465,1.29071,0.104606,0.0477687,1287,1681,8.42779,-49.5839
70,-657,7.18933,50.6312,0.0886656,0.178727,0.0192065,0.182652,0.0847407,1.36922,0.105545,0.0495607,1294,1681,7.18937,-50.6312
77,-657,6.56653,50.5281,0.0799817,0.175979,0.0147578,0.178196,0.0777642,1.42165,0.103159,0.0450878,1301,1681,6.56651,-50.5281
84,-657,10.1447,49.7377,0,0,0,0,0,0,0,-1,1308,1681,10.1446,-49.7376
91,-657,10.304,49.6394,0.0627485,0.153049,0.00190067,0.153089,0.0627086,1.54976,0.0888661,0.0456093,1315,1681,10.304,-49.6394
98,-657,10.4945,49.4751,0,0,0,0,0,0,0,-1,1322,1681,10.4945,-49.4751
105,-657,10.6886,49.2303,0,0,0,0,0,0,0,-1,1329,1681,10.6886,-49.2304
112,-657,8.0127,52.3734,0,0,0,0,0,0,0,-1,1336,1681,8.01275,-52.3734
119,-657,8.81836,52.2628,0,0,0,0,0,0,0,-1,1343,1681,8.81833,-52.2628
126,-657,8.92249,51.6089,0.0402652,0.063333,-0.0210767,0.0758253,0.0277729,-1.03576,0.0442966,0.0493975,1350,1681,8.92242,-51.6089
133,-657,8.98853,50.9883,0.0388076,0.0583579,-0.0207061,0.0714803,0.0256852,-1.00593,0.04181,0.0469354,1357,1681,8.98851,-50.9883
140,-657,9.15308,50.7665,0.0379686,0.0537285,-0.0187194,0.0661588,0.0255382,-0.984616,0.0385263,0.0477253,1364,1681,9.15311,-50.7665
147,-657,8.94946,50.7429,0.0375135,0.0507958,-0.016391,0.0618399,0.0264694,-0.977876,0.0358264,0.0498331,1371,1681,8.94942,-50.743
154,-657,8.44409,50.9492,0,0,0,0,0,0,0,-1,1378,1681,8.44409,-50.9493
161,-657,4.2926,24.9226,0,0,0,0,0,0,0,-1,1385,1681,4.29264,-24.9226
168,-657,5.21643,0.70105,0,0,0,0,0,0,0,-1,1392,1681,5.21648,-0.7011
175,-657,5.52771,0.649048,0,0,0,0,0,0,0,-1,1399,1681,5.52774,-0.649019
182,-657,5.73999,1.02612,0,0,0,0,0,0,0,-1,1406,1681,5.73995,-1.02611
189,-657,5.92126,1.44116,0,0,0,0,0,0,0,-1,1413,1681,5.92126,-1.44115
196,-657,4.92834,9.59021,0,0,0,0,0,0,0,-1,1420,1681,4.9284,-9.59018
203,-657,6.26343,5.16492,0,0,0,0,0,0,0,-1,1427,1681,6.26345,-5.16488
210,-657,3.9856,5.28088,0,0,0,0,0,0,0,-1,1434,1681,3.98555,-5.28084
217,-657,3.95178,5.2843,0,0,0,0,0,0,0,-1,1441,1681,3.95174,-5.28431
224,-657,6.66736,-0.250244,0,0,0,0,0,0,0,-1,1448,1681,6.66737,0.250229
231,-657,6.85498,-1.70752,0,0,0,0,0,0,0,-1,1455,1681,6.855,1.70758
238,-657,5.34143,-2.89819,0,0,0,0,0,0,0,-1,1462,1681,5.34143,2.89813
245,-657,8.66003,-0.102783,0,0,0,0,0,0,0,-1,1469,1681,8.66,0.102824
252,-657,4.78955,0.623779,0,0,0,0,0,0,0,-1,1476,1681,4.7895,-0.623826
259,-657,2.61523,4.31909,0,0,0,0,0,0,0,-1,1483,1681,2.61523,-4.31908
266,-657,5.35437,11.4742,0,0,0,0,0,0,0,-1,1490,1681,5.35441,-11.4742
273,-657,11.8718,44.9437,0,0,0,0,0,0,0,-1,1497,1681,11.8719,-44.9437
280,-657,11.8202,44.6711,0.00648302,0.00957618,-0.00247645,0.0109493,0.00510989,-1.06452,0.00632627,0.0476152,1504,1681,11.8202,-44.6712
287,-657,11.9292,44.2306,0.00590867,0.00967079,-0.00248078,0.010903,0.00467643,-1.10978,0.00631604,0.0335887,1511,1681,11.9292,-44.2306
294,-657,11.9702,43.8892,0.0055729,0.0102875,-0.0026971,0.0115122,0.00434812,-1.14453,0.00671255,0.0304698,1518,1681,11.9702,-43.8891
301,-657,12.033,43.524,0.00501257,0.0111036,-0.0029483,0.0122969,0.00381925,-1.18621,0.00726744,0.0220318,1525,1681,12.033,-43.524
308,-657,12.0533,43.0964,0.00446412,0.0115443,-0.00312624,0.0127271,0.00328132,-1.2091,0.00762987,0.0149637,1532,1681,12.0534,-43.0965
315,-657,12.083,42.6671,0.0041765,0.0119015,-0.00350477,0.0132546,0.00282342,-1.20236,0.00806178,0.0117606,1539,1681,12.083,-42.6671
322,-657,12.1105,42.2249,0.00387954,0.0120569,-0.00380138,0.0135511,0.00238542,-1.1963,0.00835323,0.0138262,1546,1681,12.1105,-42.2248
329,-657,12.1267,41.7721,0.00358248,0.0116943,-0.00398282,0.0133229,0.00195391,-1.18264,0.00830755,0.019873,1553,1681,12.1267,-41.7721
336,-657,12.1097,41.3633,0.0032128,0.0109891,-0.00390017,0.0126081,0.00159377,-1.17733,0.00792773,0.0172664,1560,1681,12.1097,-41.3633
343,-657,12.1104,40.9703,0.00283976,0.0100372,-0.00386636,0.0117205,0.00115648,-1.16018,0.00745811,0.0139295,1567,1681,12.1103,-40.9704
350,-657,12.1079,40.5608,0.00241274,0.00891016,-0.00367901,0.0105695,0.00075337,-1.14708,0.00680913,0.0161223,1574,1681,12.1079,-40.5607
357,-657,12.0835,40.1113,0.00191666,0.00760701,-0.00336411,0.00916777,0.000355903,-1.13641,0.00599673,0.0150805,1581,1681,12.0835,-40.1113
364,-657,12.0953,39.6705,0.00129413,0.00620545,-0.00290592,0.00755435,-5.47646e-05,-1.13621,0.00505459,0.0106951,1588,1681,12.0953,-39.6706
371,-657,12.083,39.2274,0.00065797,0.00477025,-0.00242208,0.00589125,-0.000463026,-1.13733,0.00409059,0.0153526,1595,1681,12.083,-39.2275
378,-657,12.0492,38.7634,-5.74583e-05,0.00310633,-0.00183671,0.00394845,-0.000899585,-1.1409,0.00297781,0.0163614,1602,1681,12.0492,-38.7634
385,-657,12.0211,38.2941,-0.000914883,0.00189277,-0.00118641,0.00232695,-0.00134907,-1.21997,0.00214724,0.0141682,1609,1681,12.0212,-38.2941
392,-657,12.0039,37.8484,-0.00181352,0.000693468,-0.000590945,0.000825782,-0.00194583,-1.35053,0.00164317,0.0137799,1616,1681,12.0039,-37.8484
399,-657,12.0127,37.3789,-0.00267972,-0.000359693,2.70901e-05,-0.000359377,-0.00268004,1.55912,0.00167976,0.0135631,1623,1681,12.0127,-37.379
406,-657,12.0048,36.8915,-0.00341206,-0.00141014,0.000551256,-0.00126838,-0.00355382,1.3191,0.00207962,0.014606,1630,1681,12.0047,-36.8914
413,-657,11.9667,36.4028,-0.0040977,-0.00221542,0.00101503,-0.00177235,-0.00454077,1.15922,0.00264255,0.0140765,1637,1681,11.9666,-36.4029
420,-657,11.9379,35.9177,-0.00454207,-0.00289802,0.00123007,-0.00224058,-0.00519951,1.07996,0.00301147,0.0155013,1644,1681,11.9378,-35.9177
427,-657,11.8934,35.422,-0.00482231,-0.00351354,0.00137627,-0.002644,-0.00569185,1.00732,0.00328895,0.0200537,1651,1681,11.8934,-35.422
434,-657,11.8945,34.9691,-0.00485967,-0.00419794,0.00139537,-0.00309474,-0.00596286,0.901807,0.00344349,0.0279322,1658,1681,11.8945,-34.9691
441,-657,11.7831,34.5822,-0.00483274,-0.00504248,0.00137303,-0.00356059,-0.00631464,0.747283,0.00365566,0.0416509,1665,1681,11.7831,-34.5822
448,-657,11.6582,34.076,0,0,0,0,0,0,0,-1,1672,1681,11.6582,-34.076
455,-657,11.8862,33.7054,0,0,0,0,0,0,0,-1,1679,1681,11.8862,-33.7055
462,-657,10.2832,30.1719,0,0,0,0,0,0,0,-1,1686,1681,10.2831,-30.1718
469,-657,9.22205,26.4175,0,0,0,0,0,0,0,-1,1693,1681,9.2221,-26.4175
476,-657,8.9519,20.5712,0,0,0,0,0,0,0,-1,1700,1681,8.95194,-20.5712
483,-657,10.0663,21.8628,0,0,0,0,0,0,0,-1,1707,1681,10.0663,-21.8628
490,-657,11.6039,21.2185,0,0,0,0,0,0,0,-1,1714,1681,11.6038,-21.2185
497,-657,9.20862,17.8127,0,0,0,0,0,0,0,-1,1721,1681,9.2086,-17.8127
504,-657,0,0,0,0,0,0,0,0,0,-1,1728,1681,0,0
511,-657,0,0,0,0,0,0,0,0,0,-1,1735,1681,0,0
518,-657,0,0,0,0,0,0,0,0,0,-1,1742,1681,0,0
525,-657,0,0,0,0,0,0,0,0,0,-1,1749,1681,0,0
532,-657,0,0,0,0,0,0,0,0,0,-1,1756,1681,0,0
539,-657,0,0,0,0,0,0,0,0,0,-1,1763,1681,0,0
546,-657,0,0,0,0,0,0,0,0,0,-1,1770,1681,0,0
553,-657,0,0,0,0,0,0,0,0,0,-1,1777,1681,0,0
560,-657,0,0,0,0,0,0,0,0,0,-1,1784,1681,0,0
567,-657,0,0,0,0,0,0,0,0,0,-1,1791,1681,0,0
574,-657,0,0,0,0,0,0,0,0,0,-1,1798,1681,0,0
581,-657,0,0,0,0,0,0,0,0,0,-1,1805,1681,0,0
588,-657,0,0,0,0,0,0,0,0,0,-1,1812,1681,0,0
595,-657,0,0,0,0,0,0,0,0,0,-1,1819,1681,0,0
602,-657,0,0,0,0,0,0,0,0,0,-1,1826,1681,0,0
609,-657,0,0,0,0,0,0,0,0,0,-1,1833,1681,0,0
616,-657,0,0,0,0,0,0,0,0,0,-1,1840,1681,0,0
623,-657,0,0,0,0,0,0,0,0,0,-1,1847,1681,0,0
630,-657,0,0,0,0,0,0,0,0,0,-1,1854,1681,0,0
637,-657,0,0,0,0,0,0,0,0,0,-1,1861,1681,0,0
644,-657,0,0,0,0,0,0,0,0,0,-1,1868,1681,0,0
651,-657,0,0,0,0,0,0,0,0,0,-1,1875,1681,0,0
658,-657,0,0,0,0,0,0,0,0,0,-1,1882,1681,0,0
665,-657,0,0,0,0,0,0,0,0,0,-1,1889,1681,0,0
672,-657,0,0,0,0,0,0,0,0,0,-1,1896,1681,0,0
679,-657,0,0,0,0,0,0,0,0,0,-1,1903,1681,0,0
686,-657,0,0,0,0,0,0,0,0,0,-1,1910,1681,0,0
693,-657,0,0,0,0,0,0,0,0,0,-1,1917,1681,0,0
700,-657,0,0,0,0,0,0,0,0,0,-1,1924,1681,0,0
707,-657,0,0,0,0,0,0,0,0,0,-1,1931,1681,0,0
714,-657,0,0,0,0,0,0,0,0,0,-1,1938,1681,0,0
721,-657,0,0,0,0,0,0,0,0,0,-1,1945,1681,0,0
728,-657,0,0,0,0,0,0,0,0,0,-1,1952,1681,0,0
735,-657,0,0,0,0,0,0,0,0,0,-1,1959,1681,0,0
742,-657,0,0,0,0,0,0,0,0,0,-1,1966,1681,0,0
749,-657,0,0,0,0,0,0,0,0,0,-1,1973,1681,0,0
756,-657,0,0,0,0,0,0,0,0,0,-1,1980,1681,0,0
763,-657,0,0,0,0,0,0,0,0,0,-1,1987,1681,0,0
770,-657,0,0,0,0,0,0,0,0,0,-1,1994,1681,0,0
777,-657,0,0,0,0,0,0,0,0,0,-1,2001,1681,0,0
784,-657,0,0,0,0,0,0,0,0,0,-1,2008,1681,0,0
791,-657,0,0,0,0,0,0,0,0,0,-1,2015,1681,0,0
798,-657,0,0,0,0,0,0,0,0,0,-1,2022,1681,0,0
805,-657,0,0,0,0,0,0,0,0,0,-1,2029,1681,0,0
812,-657,0,0,0,0,0,0,0,0,0,-1,2036,1681,0,0
-700,-664,0,0,0,0,0,0,0,0,0,-1,524,1688,0,0
-693,-664,0,0,0,0,0,0,0,0,0,-1,531,1688,0,0
-686,-664,0,0,0,0,0,0,0,0,0,-1,538,1688,0,0
-679,-664,0,0,0,0,0,0,0,0,0,-1,545,1688,0,0
-672,-664,0,0,0,0,0,0,0,0,0,-1,552,1688,0,0
-665,-664,0,0,0,0,0,0,0,0,0,-1,559,1688,0,0
-658,-664,0,0,0,0,0,0,0,0,0,-1,566,1688,0,0
-651,-664,0,0,0,0,0,0,0,0,0,-1,573,1688,0,0
-644,-664,0,0,0,0,0,0,0,0,0,-1,580,1688,0,0
-637,-664,0,0,0,0,0,0,0,0,0,-1,587,1688,0,0
-630,-664,0,0,0,0,0,0,0,0,0,-1,594,1688,0,0
-623,-664,0,0,0,0,0,0,0,0,0,-1,601,1688,0,0
-616,-664,0,0,0,0,0,0,0,0,0,-1,608,1688,0,0
-609,-664,0,0,0,0,0,0,0,0,0,-1,615,1688,0,0
-602,-664,0,0,0,0,0,0,0,0,0,-1,622,1688,0,0
-595,-664,0,0,0,0,0,0,0,0,0,-1,629,1688,0,0
-588,-664,0,0,0,0,0,0,0,0,0,-1,636,1688,0,0
-581,-664,0,0,0,0,0,0,0,0,0,-1,643,1688,0,0
-574,-664,0,0,0,0,0,0,0,0,0,-1,650,1688,0,0
-567,-664,0,0,0,0,0,0,0,0,0,-1,657,1688,0,0
-560,-664,0,0,0,0,0,0,0,0,0,-1,664,1688,0,0
-553,-664,0,0,0,0,0,0,0,0,0,-1,671,1688,0,0
-546,-664,0,0,0,0,0,0,0,0,0,-1,678,1688,0,0
-539,-664,0,0,0,0,0,0,0,0,0,-1,685,1688,0,0
-532,-664,0,0,0,0,0,0,0,0,0,-1,692,1688,0,0
-525,-664,0,0,0,0,0,0,0,0,0,-1,699,1688,0,0
-518,-664,0,0,0,0,0,0,0,0,0,-1,706,1688,0,0
-511,-664,0,0,0,0,0,0,0,0,0,-1,713,1688,0,0
-504,-664,0,0,0,0,0,0,0,0,0,-1,720,1688,0,0
-497,-664,0,0,0,0,0,0,0,0,0,-1,727,1688,0,0
-490,-664,0,0,0,0,0,0,0,0,0,-1,734,1688,0,0
-483,-664,0,0,0,0,0,0,0,0,0,-1,741,1688,0,0
-476,-664,0,0,0,0,0,0,0,0,0,-1,748,1688,0,0
-469,-664,0,0,0,0,0,0,0,0,0,-1,755,1688,0,0
-462,-664,0,0,0,0,0,0,0,0,0,-1,762,1688,0,0
-455,-664,0,0,0,0,0,0,0,0,0,-1,769,1688,0,0
-448,-664,0,0,0,0,0,0,0,0,0,-1,776,1688,0,0
-441,-664,0,0,0,0,0,0,0,0,0,-1,783,1688,0,0
-434,-664,0,0,0,0,0,0,0,0,0,-1,790,1688,0,0
-427,-664,0,0,0,0,0,0,0,0,0,-1,797,1688,0,0
-420,-664,0,0,0,0,0,0,0,0,0,-1,804,1688,0,0
-413,-664,0,0,0,0,0,0,0,0,0,-1,811,1688,0,0
-406,-664,0,0,0,0,0,0,0,0,0,-1,818,1688,0,0
-399,-664,0,0,0,0,0,0,0,0,0,-1,825,1688,0,0
-392,-664,0,0,0,0,0,0,0,0,0,-1,832,1688,0,0
-385,-664,0,0,0,0,0,0,0,0,0,-1,839,1688,0,0
-378,-664,0,0,0,0,0,0,0,0,0,-1,846,1688,0,0
-371,-664,-1.61676,5.92737,0,0,0,0,0,0,0,-1,853,1688,-1.61675,-5.92735
-364,-664,-3.901,5.87024,0,0,0,0,0,0,0,-1,860,1688,-3.90097,-5.87027
-357,-664,-4.81012,4.53479,0,0,0,0,0,0,0,-1,867,1688,-4.81012,-4.5348
-350,-664,-5.7193,3.19934,0,0,0,0,0,0,0,-1,874,1688,-5.71927,-3.19932
-343,-664,5.97418,34.5831,0,0,0,0,0,0,0,-1,881,1688,5.97418,-34.5831
-336,-664,5.44196,30.9269,0,0,0,0,0,0,0,-1,888,1688,5.44197,-30.9269
-329,-664,5.78845,30.9885,0,0,0,0,0,0,0,-1,895,1688,5.78847,-30.9885
-322,-664,7.55719,33.7289,0,0,0,0,0,0,0,-1,902,1688,7.55721,-33.7288
-315,-664,7.02307,34.0929,0,0,0,0,0,0,0,-1,909,1688,7.02305,-34.0928
-308,-664,6.36133,34.376,0.010428,-0.00166126,0.00991793,0.0159982,-0.00723139,0.511723,0.0137263,0.0448534,916,1688,6.36135,-34.376
-301,-664,6.20105,34.6953,0.00764393,-0.0018089,0.00757494,0.0118461,-0.00601102,0.506475,0.0104917,0.0450022,923,1688,6.20106,-34.6953
-294,-664,6.31683,35.264,0.00548317,-0.00147105,0.00590704,0.00886051,-0.00484839,0.519387,0.00802703,0.0434323,930,1688,6.31682,-35.2641
-287,-664,6.38159,35.738,0.00375619,-0.00110284,0.00459709,0.00652627,-0.00387292,0.542309,0.00606877,0.0307886,937,1688,6.38161,-35.738
-280,-664,6.23004,36.1954,0.00235166,-0.000737778,0.00362272,0.00474525,-0.00313136,0.583871,0.00457927,0.0219843,944,1688,6.23005,-36.1954
-273,-664,6.22577,36.6879,0.00107074,-0.000617001,0.00256271,0.00292494,-0.0024712,0.626345,0.00311913,0.0171151,951,1688,6.2258,-36.6878
-266,-664,6.20996,37.1954,0.000615091,-2.79002e-05,0.00214707,0.0024646,-0.00187741,0.711082,0.00251449,0.0221707,958,1688,6.20997,-37.1954
-259,-664,6.17468,37.7125,0.000425554,0.000448359,0.00181043,0.00224743,-0.00137351,0.788547,0.00211075,0.0195906,965,1688,6.17467,-37.7125
-252,-664,6.17523,38.2098,0.000292396,0.00104755,0.00151584,0.00223213,-0.000892187,0.907458,0.0018583,0.0163778,972,1688,6.17524,-38.2098
-245,-664,6.12183,38.7063,-0.000160009,0.00134043,0.00122174,0.0020239,-0.000843483,1.06074,0.0017016,0.0196535,979,1688,6.12181,-38.7063
-238,-664,6.17047,39.1931,8.9693e-05,0.00149027,0.00120288,0.00218186,-0.000601896,1.049,0.00169129,0.0225207,986,1688,6.17044,-39.1932
-231,-664,6.16187,39.6428,0.000467598,0.00150334,0.00122889,0.00231902,-0.000348083,0.984813,0.00167415,0.0201316,993,1688,6.16186,-39.6428
-224,-664,6.08472,40.1108,0.000770204,0.00153727,0.0011555,0.00237122,-6.3749e-05,0.945637,0.00160248,0.0143178,1000,1688,6.0847,-40.1108
-217,-664,6.06616,40.58,0.000829674,0.001727,0.000993006,0.002368,0.000188679,0.997584,0.00151968,0.0102381,1007,1688,6.06616,-40.58
-210,-664,6.06305,41.0221,0.000828546,0.00202405,0.000875239,0.00248618,0.000366415,1.085,0.00154982,0.0110772,1014,1688,6.06304,-41.0221
-203,-664,6.04431,41.4498,0.000632473,0.00242913,0.000741626,0.00269571,0.000365897,1.22573,0.00168844,0.0133453,1021,1688,6.04429,-41.4498
-196,-664,6.03442,41.8662,0.000479165,0.00282527,0.000608464,0.00297369,0.000330749,1.33155,0.00188192,0.0140854,1028,1688,6.03447,-41.8662
-189,-664,6.03088,42.2941,0.000222689,0.00330032,0.000417192,0.00335587,0.000167139,1.43842,0.00218367,0.00992179,1035,1688,6.03094,-42.2941
-182,-664,6.03625,42.7142,-1.43376e-06,0.00400859,0.000256777,0.00402496,-1.78092e-05,1.50711,0.00268926,0.00953312,1042,1688,6.03624,-42.7142
-175,-664,6.05371,43.0947,-0.000110603,0.00493668,0.000155731,0.00494148,-0.000115403,1.53998,0.00333345,0.0130841,1049,1688,6.05372,-43.0947
-168,-664,6.06018,43.4988,-0.000320442,0.00612479,9.93752e-05,0.00612632,-0.000321974,1.55538,0.00419566,0.0151276,1056,1688,6.06013,-43.4988
-161,-664,6.05334,43.9006,-0.00046966,0.00725746,3.29197e-05,0.0072576,-0.000469801,1.56654,0.00500236,0.0115944,1063,1688,6.05329,-43.9007
-154,-664,6.10522,44.2781,-0.000436074,0.0085452,-1.60107e-05,0.00854523,-0.000436103,-1.56901,0.00584761,0.0115596,1070,1688,6.10528,-44.278
-147,-664,6.11658,44.6688,-0.000208254,0.00992522,-3.06454e-05,0.00992532,-0.000208347,-1.56777,0.00668741,0.020435,1077,1688,6.11663,-44.6688
-140,-664,6.13391,45.0712,8.59852e-05,0.0111583,2.50932e-06,0.0111583,8.59848e-05,1.57057,0.00741038,0.0257461,1084,1688,6.13396,-45.0712
-133,-664,6.09058,45.5276,0.00053527,0.012319,0.000199699,0.0123223,0.000531886,1.55386,0.00804347,0.0251263,1091,1688,6.09062,-45.5276
-126,-664,6.21191,45.9609,0.00120926,0.0133902,0.000378466,0.013402,0.00119751,1.53977,0.00856344,0.0367825,1098,1688,6.21192,-45.961
-119,-664,6.44226,46.3479,0,0,0,0,0,0,0,-1,1105,1688,6.44221,-46.3479
-112,-664,6.68066,46.9047,0,0,0,0,0,0,0,-1,1112,1688,6.68063,-46.9047
-105,-664,6.87256,43.2527,0,0,0,0,0,0,0,-1,1119,1688,6.87258,-43.2527
-98,-664,7.69324,41.3359,0,0,0,0,0,0,0,-1,1126,1688,7.69321,-41.3359
-91,-664,5.41931,25.6302,0,0,0,0,0,0,0,-1,1133,1688,5.41932,-25.6302
-84,-664,3.48389,16.6913,0,0,0,0,0,0,0,-1,1140,1688,3.4839,-16.6913
-77,-664,4.52014,11.2122,0,0,0,0,0,0,0,-1,1147,1688,4.5202,-11.2122
-70,-664,4.20374,8.24524,0,0,0,0,0,0,0,-1,1154,1688,4.20379,-8.24519
-63,-664,-4.677,2.40503,0,0,0,0,0,0,0,-1,1161,1688,-4.67702,-2.40498
-56,-664,-4.66504,3.32727,0,0,0,0,0,0,0,-1,1168,1688,-4.6651,-3.32724
-49,-664,-2.54297,3.31848,0,0,0,0,0,0,0,-1,1175,1688,-2.54297,-3.31852
-42,-664,-0.359253,4.38684,0,0,0,0,0,0,0,-1,1182,1688,-0.359261,-4.38685
-35,-664,-0.705566,3.55017,0,0,0,0,0,0,0,-1,1189,1688,-0.705567,-3.55023
-28,-664,-1.54236,10.2538,0,0,0,0,0,0,0,-1,1196,1688,-1.54236,-10.2538
-21,-664,6.41418,49.7694,0,0,0,0,0,0,0,-1,1203,1688,6.41413,-49.7694
-14,-664,8.66333,51.1643,0,0,0,0,0,0,0,-1,1210,1688,8.66331,-51.1643
-7,-664,8.58215,50.6995,0.0142499,-0.000489315,0.0238988,0.0318896,-0.018129,0.635841,0.0292403,0.0457467,1217,1688,8.58216,-50.6995
0,-664,8.52161,50.0781,0.0183057,-0.00303228,0.0190553,0.0294755,-0.0142021,0.530194,0.025726,0.0431964,1224,1688,8.52161,-50.0781
7,-664,8.40491,49.5416,0.0303106,-0.00736889,0.0169414,0.0368076,-0.0138658,0.366197,0.0302392,0.0457461,1231,1688,8.40492,-49.5416
14,-664,8.63416,50.3206,0,0,0,0,0,0,0,-1,1238,1688,8.63412,-50.3206
21,-664,4.302,50.1733,0.0502945,0.0266847,0.0155204,0.0579893,0.0189899,0.460272,0.034138,0.044913,1245,1688,4.30201,-50.1733
28,-664,4.82813,50.6034,0.0597107,0.0416342,0.0159235,0.0689822,0.0323627,0.527268,0.0398522,0.0420564,1252,1688,4.82806,-50.6034
35,-664,5.70911,50.8192,0.0678011,0.0611629,0.0168019,0.0816086,0.0473554,0.687881,0.0473187,0.0444598,1259,1688,5.70911,-50.8192
42,-664,6.92212,50.6045,0.0724891,0.0802038,0.0168884,0.0936698,0.0590232,0.897674,0.0546873,0.0450081,1266,1688,6.92217,-50.6045
49,-664,8.32776,51.137,0,0,0,0,0,0,0,-1,1273,1688,8.32778,-51.1369
56,-664,8.5498,51.0559,0,0,0,0,0,0,0,-1,1280,1688,8.54979,-51.0559
63,-664,7.8269,50.5112,0,0,0,0,0,0,0,-1,1287,1688,7.82696,-50.5112
70,-664,7.35315,50.7478,0.068246,0.136247,0.0128096,0.13858,0.065913,1.39064,0.0800406,0.0472002,1294,1688,7.35312,-50.7478
77,-664,6.95837,50.5767,0.0622107,0.134921,0.0101558,0.136313,0.0608189,1.43459,0.0788522,0.0425234,1301,1688,6.95832,-50.5766
84,-664,10.3136,49.7164,0,0,0,0,0,0,0,-1,1308,1688,10.3137,-49.7165
91,-664,10.256,49.6294,0,0,0,0,0,0,0,-1,1315,1688,10.2559,-49.6294
98,-664,10.1824,49.5909,0,0,0,0,0,0,0,-1,1322,1688,10.1824,-49.5909
105,-664,9.38049,49.0886,0,0,0,0,0,0,0,-1,1329,1688,9.38046,-49.0886
112,-664,9.16284,49.7042,0,0,0,0,0,0,0,-1,1336,1688,9.16286,-49.7043
119,-664,9.26025,50.2588,0,0,0,0,0,0,0,-1,1343,1688,9.2602,-50.2588
126,-664,9.35864,51.4142,0,0,0,0,0,0,0,-1,1350,1688,9.35866,-51.4142
133,-664,9.44543,50.4749,0,0,0,0,0,0,0,-1,1357,1688,9.44538,-50.4748
140,-664,9.26563,50.4265,0,0,0,0,0,0,0,-1,1364,1688,9.26563,-50.4265
147,-664,9.08594,50.3782,0,0,0,0,0,0,0,-1,1371,1688,9.08588,-50.3782
154,-664,11.4288,51.0769,0,0,0,0,0,0,0,-1,1378,1688,11.4288,-51.0769
161,-664,4.60132,1.56238,0,0,0,0,0,0,0,-1,1385,1688,4.60134,-1.56233
168,-664,5.172,1.25488,0,0,0,0,0,0,0,-1,1392,1688,5.17203,-1.25484
175,-664,5.58313,1.16467,0,0,0,0,0,0,0,-1,1399,1688,5.58317,-1.16466
182,-664,5.74268,1.41113,0,0,0,0,0,0,0,-1,1406,1688,5.74263,-1.41115
189,-664,5.87744,1.87061,0,0,0,0,0,0,0,-1,1413,1688,5.87745,-1.87065
196,-664,6.7594,5.97473,0,0,0,0,0,0,0,-1,1420,1688,6.75943,-5.97478
203,-664,5.38452,5.22034,0,0,0,0,0,0,0,-1,1427,1688,5.38453,-5.2203
210,-664,5.25549,6.45715,0,0,0,0,0,0,0,-1,1434,1688,5.25549,-6.45721
217,-664,5.72009,6.73975,0,0,0,0,0,0,0,-1,1441,1688,5.72014,-6.73972
224,-664,5.05725,7.42908,0,0,0,0,0,0,0,-1,1448,1688,5.05723,-7.42912
231,-664,5.13318,7.60864,0,0,0,0,0,0,0,-1,1455,1688,5.13313,-7.60862
238,-664,4.23193,6.45471,0,0,0,0,0,0,0,-1,1462,1688,4.23197,-6.45476
245,-664,4.42004,6.80896,0,0,0,0,0,0,0,-1,1469,1688,4.4201,-6.80901
252,-664,3.67346,6.85461,0,0,0,0,0,0,0,-1,1476,1688,3.6734,-6.85462
259,-664,4.55823,11.7435,0,0,0,0,0,0,0,-1,1483,1688,4.55826,-11.7435
266,-664,11.2742,44.9867,0,0,0,0,0,0,0,-1,1490,1688,11.2742,-44.9867
273,-664,11.517,45.0609,0,0,0,0,0,0,0,-1,1497,1688,11.517,-45.0609
280,-664,11.5234,44.6902,0.00538071,0.00664449,-0.00183747,0.00795569,0.00406951,-0.951009,0.00459363,0.0288375,1504,1688,11.5235,-44.6902
287,-664,11.4952,44.2437,0.00488107,0.00671162,-0.00184275,0.00785388,0.00373881,-1.0159,0.00453617,0.0280051,1511,1688,11.4952,-44.2437
294,-664,11.5968,43.8441,0.0045268,0.00711802,-0.00198434,0.00819226,0.00345255,-1.07461,0.00474923,0.0203169,1518,1688,11.5967,-43.8441
301,-664,11.6515,43.4498,0.0040272,0.00757434,-0.00213729,0.0085781,0.00302344,-1.13173,0.00502392,0.0130165,1525,1688,11.6515,-43.4499
308,-664,11.6854,43.0358,0.0035539,0.00786481,-0.00228996,0.00885418,0.00256453,-1.16297,0.00526061,0.0119149,1532,1688,11.6855,-43.0357
315,-664,11.6984,42.6329,0.00320477,0.00805864,-0.0025331,0.00913979,0.00212363,-1.1674,0.00552312,0.0124933,1539,1688,11.6984,-42.6329
322,-664,11.7041,42.2581,0.00283146,0.00805128,-0.00268354,0.00918476,0.00169798,-1.17114,0.00564299,0.0160461,1546,1688,11.7041,-42.2581
329,-664,11.6991,41.8484,0.0024475,0.00764256,-0.00275688,0.00883285,0.00125722,-1.16322,0.00551745,0.0186239,1553,1688,11.6991,-41.8484
336,-664,11.7017,41.4063,0.00203924,0.00694914,-0.00262116,0.00808546,0.000902914,-1.16173,0.00511596,0.0150415,1560,1688,11.7016,-41.4063
343,-664,11.6732,40.9752,0.00162417,0.00612136,-0.00259656,0.00730763,0.000437892,-1.14225,0.00473255,0.0114953,1567,1688,11.6733,-40.9752
350,-664,11.6521,40.5664,0.00113122,0.0052238,-0.00242559,0.00635096,4.06429e-06,-1.13579,0.00423262,0.01337,1574,1688,11.6521,-40.5664
357,-664,11.6499,40.1311,0.000593418,0.00423629,-0.00218637,0.00526052,-0.000430815,-1.13269,0.00365908,0.0129665,1581,1688,11.6499,-40.1311
364,-664,11.665,39.6774,-7.95195e-05,0.00314576,-0.00180437,0.00395311,-0.000886873,-1.15007,0.00297542,0.0107684,1588,1688,11.665,-39.6773
371,-664,11.6626,39.2399,-0.000743137,0.00209158,-0.00143465,0.00269094,-0.00134249,-1.17507,0.00237168,0.0138558,1595,1688,11.6627,-39.2399
378,-664,11.6337,38.7794,-0.00150458,0.000921376,-0.00100006,0.00128048,-0.00186368,-1.22606,0.00182566,0.0143368,1602,1688,11.6337,-38.7794
385,-664,11.588,38.3175,-0.002439,7.86705e-05,-0.000458166,0.000159455,-0.00251979,-1.39627,0.00173545,0.015229,1609,1688,11.588,-38.3175
392,-664,11.5284,37.8854,-0.0034101,-0.000780717,3.66261e-05,-0.000780207,-0.00341061,1.55687,0.00206344,0.0174116,1616,1688,11.5284,-37.8854
399,-664,11.55,37.4111,-0.00433171,-0.0014074,0.000552749,-0.00130641,-0.0044327,1.39008,0.00263013,0.0140215,1623,1688,11.5501,-37.4111
406,-664,11.5525,36.932,-0.00520284,-0.00203656,0.00100614,-0.0017439,-0.0054955,1.28773,0.00324264,0.011243,1630,1688,11.5525,-36.932
413,-664,11.5288,36.4233,-0.00604647,-0.00257836,0.00150599,-0.00201568,-0.00660914,1.21323,0.00391134,0.0105577,1637,1688,11.5288,-36.4233
420,-664,11.5345,35.9235,-0.00652308,-0.00303761,0.00168427,-0.00235674,-0.00720395,1.18663,0.00424124,0.0259826,1644,1688,11.5345,-35.9234
427,-664,11.4083,35.5767,-0.0069817,-0.0036507,0.00200846,-0.00270702,-0.00792538,1.13156,0.00465166,0.0443761,1651,1688,11.4084,-35.5766
434,-664,11.0868,35.0581,-0.0071679,-0.00441341,0.00224118,-0.00316013,-0.00842118,1.06091,0.00491215,0.0440989,1658,1688,11.0868,-35.0581
441,-664,10.9048,34.5277,0,0,0,0,0,0,0,-1,1665,1688,10.9048,-34.5278
448,-664,11.9281,34.1836,0,0,0,0,0,0,0,-1,1672,1688,11.9281,-34.1836
455,-664,7.53198,11.3838,0,0,0,0,0,0,0,-1,1679,1688,7.53195,-11.3838
462,-664,4.3147,4.25439,0,0,0,0,0,0,0,-1,1686,1688,4.31467,-4.25435
469,-664,6.05469,7.49341,0,0,0,0,0,0,0,-1,1693,1688,6.05474,-7.49339
476,-664,10.2377,22.7128,0,0,0,0,0,0,0,-1,1700,1688,10.2377,-22.7128
483,-664,8.41895,10.9768,0,0,0,0,0,0,0,-1,1707,1688,8.41897,-10.9769
490,-664,3.90771,13.2842,0,0,0,0,0,0,0,-1,1714,1688,3.90776,-13.2841
497,-664,0,0,0,0,0,0,0,0,0,-1,1721,1688,0,0
504,-664,0,0,0,0,0,0,0,0,0,-1,1728,1688,0,0
511,-664,0,0,0,0,0,0,0,0,0,-1,1735,1688,0,0
518,-664,0,0,0,0,0,0,0,0,0,-1,1742,1688,0,0
525,-664,0,0,0,0,0,0,0,0,0,-1,1749,1688,0,0
532,-664,0,0,0,0,0,0,0,0,0,-1,1756,1688,0,0
539,-664,0,0,0,0,0,0,0,0,0,-1,1763,1688,0,0
546,-664,0,0,0,0,0,0,0,0,0,-1,1770,1688,0,0
553,-664,0,0,0,0,0,0,0,0,0,-1,1777,1688,0,0
560,-664,0,0,0,0,0,0,0,0,0,-1,1784,1688,0,0
567,-664,0,0,0,0,0,0,0,0,0,-1,1791,1688,0,0
574,-664,0,0,0,0,0,0,0,0,0,-1,1798,1688,0,0
581,-664,0,0,0,0,0,0,0,0,0,-1,1805,1688,0,0
588,-664,0,0,0,0,0,0,0,0,0,-1,1812,1688,0,0
595,-664,0,0,0,0,0,0,0,0,0,-1,1819,1688,0,0
602,-664,0,0,0,0,0,0,0,0,0,-1,1826,1688,0,0
609,-664,0,0,0,0,0,0,0,0,0,-1,1833,1688,0,0
616,-664,0,0,0,0,0,0,0,0,0,-1,1840,1688,0,0
623,-664,0,0,0,0,0,0,0,0,0,-1,1847,1688,0,0
630,-664,0,0,0,0,0,0,0,0,0,-1,1854,1688,0,0
637,-664,0,0,0,0,0,0,0,0,0,-1,1861,1688,0,0
644,-664,0,0,0,0,0,0,0,0,0,-1,1868,1688,0,0
651,-664,0,0,0,0,0,0,0,0,0,-1,1875,1688,0,0
658,-664,0,0,0,0,0,0,0,0,0,-1,1882,1688,0,0
665,-664,0,0,0,0,0,0,0,0,0,-1,1889,1688,0,0
672,-664,0,0,0,0,0,0,0,0,0,-1,1896,1688,0,0
679,-664,0,0,0,0,0,0,0,0,0,-1,1903,1688,0,0
686,-664,0,0,0,0,0,0,0,0,0,-1,1910,1688,0,0
693,-664,0,0,0,0,0,0,0,0,0,-1,1917,1688,0,0
700,-664,0,0,0,0,0,0,0,0,0,-1,1924,1688,0,0
707,-664,0,0,0,0,0,0,0,0,0,-1,1931,1688,0,0
714,-664,0,0,0,0,0,0,0,0,0,-1,1938,1688,0,0
721,-664,0,0,0,0,0,0,0,0,0,-1,1945,1688,0,0
728,-664,0,0,0,0,0,0,0,0,0,-1,1952,1688,0,0
735,-664,0,0,0,0,0,0,0,0,0,-1,1959,1688,0,0
742,-664,0,0,0,0,0,0,0,0,0,-1,1966,1688,0,0
749,-664,0,0,0,0,0,0,0,0,0,-1,1973,1688,0,0
756,-664,0,0,0,0,0,0,0,0,0,-1,1980,1688,0,0
763,-664,0,0,0,0,0,0,0,0,0,-1,1987,1688,0,0
770,-664,0,0,0,0,0,0,0,0,0,-1,1994,1688,0,0
777,-664,0,0,0,0,0,0,0,0,0,-1,2001,1688,0,0
784,-664,0,0,0,0,0,0,0,0,0,-1,2008,1688,0,0
791,-664,0,0,0,0,0,0,0,0,0,-1,2015,1688,0,0
798,-664,0,0,0,0,0,0,0,0,0,-1,2022,1688,0,0
805,-664,0,0,0,0,0,0,0,0,0,-1,2029,1688,0,0
812,-664,0,0,0,0,0,0,0,0,0,-1,2036,1688,0,0
-700,-671,0,0,0,0,0,0,0,0,0,-1,524,1695,0,0
-693,-671,0,0,0,0,0,0,0,0,0,-1,531,1695,0,0
-686,-671,0,0,0,0,0,0,0,0,0,-1,538,1695,0,0
-679,-671,0,0,0,0,0,0,0,0,0,-1,545,1695,0,0
-672,-671,0,0,0,0,0,0,0,0,0,-1,552,1695,0,0
-665,-671,0,0,0,0,0,0,0,0,0,-1,559,1695,0,0
-658,-671,0,0,0,0,0,0,0,0,0,-1,566,1695,0,0
-651,-671,0,0,0,0,0,0,0,0,0,-1,573,1695,0,0
-644,-671,0,0,0,0,0,0,0,0,0,-1,580,1695,0,0
-637,-671,0,0,0,0,0,0,0,0,0,-1,587,1695,0,0
-630,-671,0,0,0,0,0,0,0,0,0,-1,594,1695,0,0
-623,-671,0,0,0,0,0,0,0,0,0,-1,601,1695,0,0
-616,-671,0,0,0,0,0,0,0,0,0,-1,608,1695,0,0
-609,-671,0,0,0,0,0,0,0,0,0,-1,615,1695,0,0
-602,-671,0,0,0,0,0,0,0,0,0,-1,622,1695,0,0
-595,-671,0,0,0,0,0,0,0,0,0,-1,629,1695,0,0
-588,-671,0,0,0,0,0,0,0,0,0,-1,636,1695,0,0
-581,-671,0,0,0,0,0,0,0,0,0,-1,643,1695,0,0
-574,-671,0,0,0,0,0,0,0,0,0,-1,650,1695,0,0
-567,-671,0,0,0,0,0,0,0,0,0,-1,657,1695,0,0
-560,-671,0,0,0,0,0,0,0,0,0,-1,664,1695,0,0
-553,-671,0,0,0,0,0,0,0,0,0,-1,671,1695,0,0
-546,-671,0,0,0,0,0,0,0,0,0,-1,678,1695,0,0
-539,-671,0,0,0,0,0,0,0,0,0,-1,685,1695,0,0
-532,-671,0,0,0,0,0,0,0,0,0,-1,692,1695,0,0
-525,-671,0,0,0,0,0,0,0,0,0,-1,699,1695,0,0
-518,-671,0,0,0,0,0,0,0,0,0,-1,706,1695,0,0
-511,-671,0,0,0,0,0,0,0,0,0,-1,713,1695,0,0
-504,-671,0,0,0,0,0,0,0,0,0,-1,720,1695,0,0
-497,-671,0,0,0,0,0,0,0,0,0,-1,727,1695,0,0
-490,-671,0,0,0,0,0,0,0,0,0,-1,734,1695,0,0
-483,-671,0,0,0,0,0,0,0,0,0,-1,741,1695,0,0
-476,-671,0,0,0,0,0,0,0,0,0,-1,748,1695,0,0
-469,-671,0,0,0,0,0,0,0,0,0,-1,755,1695,0,0
-462,-671,0,0,0,0,0,0,0,0,0,-1,762,1695,0,0
-455,-671,0,0,0,0,0,0,0,0,0,-1,769,1695,0,0
-448,-671,0,0,0,0,0,0,0,0,0,-1,776,1695,0,0
-441,-671,0,0,0,0,0,0,0,0,0,-1,783,1695,0,0
-434,-671,0,0,0,0,0,0,0,0,0,-1,790,1695,0,0
-427,-671,0,0,0,0,0,0,0,0,0,-1,797,1695,0,0
-420,-671,0,0,0,0,0,0,0,0,0,-1,804,1695,0,0
-413,-671,0,0,0,0,0,0,0,0,0,-1,811,1695,0,0
-406,-671,0,0,0,0,0,0,0,0,0,-1,818,1695,0,0
-399,-671,0,0,0,0,0,0,0,0,0,-1,825,1695,0,0
-392,-671,0,0,0,0,0,0,0,0,0,-1,832,1695,0,0
-385,-671,0,0,0,0,0,0,0,0,0,-1,839,1695,0,0
-378,-671,0,0,0,0,0,0,0,0,0,-1,846,1695,0,0
-371,-671,0,0,0,0,0,0,0,0,0,-1,853,1695,0,0
-364,-671,-4.18738,7.51416,0,0,0,0,0,0,0,-1,860,1695,-4.18739,-7.51419
-357,-671,-5.02393,6.07129,0,0,0,0,0,0,0,-1,867,1695,-5.0239,-6.07135
-350,-671,6.93323,33.8943,0,0,0,0,0,0,0,-1,874,1695,6.93325,-33.8943
-343,-671,7.216,34.2831,0,0,0,0,0,0,0,-1,881,1695,7.21599,-34.2831
-336,-671,7.48438,34.6631,0,0,0,0,0,0,0,-1,888,1695,7.4844,-34.663
-329,-671,6.10327,30.4865,0,0,0,0,0,0,0,-1,895,1695,6.10329,-30.4864
-322,-671,7.50861,34.8223,0,0,0,0,0,0,0,-1,902,1695,7.50861,-34.8223
-315,-671,7.22723,33.9392,0,0,0,0,0,0,0,-1,909,1695,7.22725,-33.9393
-308,-671,6.52692,34.4319,0.0147947,-0.0026734,0.011702,0.0206627,-0.00854141,0.46481,0.0173384,0.0475738,916,1695,6.52689,-34.4319
-301,-671,6.40936,34.7769,0.0109917,-0.00255435,0.00892632,0.0154238,-0.00698637,0.460852,0.0132406,0.0467635,923,1695,6.40934,-34.7768
-294,-671,6.79065,35.3301,0,0,0,0,0,0,0,-1,930,1695,6.79062,-35.3301
-287,-671,6.99463,35.7742,0.0055365,-0.000995816,0.00565111,0.00879743,-0.00425674,0.523367,0.0076873,0.046142,937,1695,6.99463,-35.7741
-280,-671,6.79523,36.2046,0.00352213,-0.000514894,0.00453532,0.00646784,-0.0034606,0.576027,0.00581917,0.0395824,944,1695,6.79526,-36.2045
-273,-671,6.7522,36.7078,0.00172848,-0.000361572,0.00328689,0.00413247,-0.00276556,0.631483,0.00400856,0.0358088,951,1695,6.75217,-36.7078
-266,-671,6.73596,37.2782,0.000956087,0.000201269,0.00274938,0.00335385,-0.00219649,0.717189,0.00322763,0.0262925,958,1695,6.73597,-37.2782
-259,-671,6.62842,37.7255,0.000525913,0.000647404,0.00228085,0.00286831,-0.001695,0.798711,0.0026635,0.0222997,965,1695,6.62842,-37.7254
-252,-671,6.61273,38.2284,0.00023097,0.00120096,0.00187038,0.0026482,-0.00121627,0.912256,0.00228163,0.0173024,972,1695,6.61276,-38.2284
-245,-671,6.59222,38.717,-0.000589795,0.00137233,0.00145191,0.00214356,-0.00136102,1.08252,0.00204011,0.0197139,979,1695,6.5922,-38.717
-238,-671,6.60553,39.2085,-0.000446898,0.00122916,0.00137996,0.00200562,-0.00122336,1.05828,0.0018824,0.0197767,986,1695,6.60556,-39.2085
-231,-671,6.58868,39.667,-7.57367e-05,0.000976389,0.00138982,0.00193637,-0.00103572,0.966321,0.001742,0.0149231,993,1695,6.58871,-39.667
-224,-671,6.52954,40.1014,0.000221585,0.000799376,0.00119139,0.0017364,-0.000715437,0.904345,0.0014559,0.0121344,1000,1695,6.52952,-40.1014
-217,-671,6.50897,40.5504,0.000285162,0.000728385,0.000946719,0.00147908,-0.000465537,0.90037,0.00117246,0.0119886,1007,1695,6.50895,-40.5505
-210,-671,6.51514,41.0206,0.0003579,0.000802567,0.000815809,0.0014258,-0.00026533,0.918433,0.00105021,0.0115018,1014,1695,6.51512,-41.0207
-203,-671,6.48474,41.4117,0.00031902,0.000953205,0.000682709,0.00138887,-0.000116642,1.00281,0.00096714,0.0186322,1021,1695,6.48478,-41.4117
-196,-671,6.46619,41.8417,0.000284092,0.00117848,0.000555303,0.00144427,1.83037e-05,1.12439,0.000956804,0.0160636,1028,1695,6.46621,-41.8416
-189,-671,6.45935,42.3354,0.000183008,0.00149495,0.000363545,0.00158895,8.90039e-05,1.31776,0.00103092,0.011817,1035,1695,6.45932,-42.3354
-182,-671,6.45044,42.7451,0.000138875,0.00209631,0.000218967,0.0021205,0.00011468,1.46074,0.00137704,0.00959942,1042,1695,6.45048,-42.7451
-175,-671,6.45374,43.1235,0.000225344,0.002902,0.000146162,0.00290996,0.000217387,1.51641,0.00187172,0.013431,1049,1695,6.45377,-43.1236
-168,-671,6.45496,43.512,0.000224355,0.00396602,0.000150508,0.00397206,0.000218311,1.53066,0.00257835,0.0152843,1056,1695,6.45497,-43.512
-161,-671,6.45068,43.9158,0.000228094,0.00498602,0.000136992,0.00498996,0.000224153,1.54204,0.00325449,0.0103378,1063,1695,6.45064,-43.9158
-154,-671,6.46753,44.287,0.00039699,0.00612885,0.000163565,0.00613352,0.000392326,1.54229,0.00396471,0.008686,1070,1695,6.46757,-44.287
-147,-671,6.47742,44.6758,0.000731342,0.00732115,0.00022046,0.00732852,0.000723975,1.53739,0.00466312,0.0103688,1077,1695,6.47742,-44.6758
-140,-671,6.50659,45.0345,0.00112254,0.00829317,0.000292901,0.00830511,0.00111059,1.53004,0.00520618,0.014026,1084,1695,6.5066,-45.0345
-133,-671,6.52539,45.3674,0.00163971,0.00900972,0.000481676,0.00904107,0.00160836,1.50581,0.00556922,0.0196998,1091,1695,6.5254,-45.3674
-126,-671,6.58752,45.792,0.00247267,0.00946755,0.0006465,0.0095268,0.00241342,1.4794,0.00571906,0.0296262,1098,1695,6.58755,-45.7919
-119,-671,6.66357,46.3265,0,0,0,0,0,0,0,-1,1105,1695,6.66356,-46.3266
-112,-671,6.58704,44.6255,0,0,0,0,0,0,0,-1,1112,1695,6.58701,-44.6255
-105,-671,7.33252,41.3418,0,0,0,0,0,0,0,-1,1119,1695,7.33247,-41.3418
-98,-671,6.34534,45.6299,0,0,0,0,0,0,0,-1,1126,1695,6.34533,-45.6299
-91,-671,6.40063,38.2443,0,0,0,0,0,0,0,-1,1133,1695,6.40059,-38.2442
-84,-671,5.4209,26.2415,0,0,0,0,0,0,0,-1,1140,1695,5.42096,-26.2414
-77,-671,4.31763,16.489,0,0,0,0,0,0,0,-1,1147,1695,4.31757,-16.489
-70,-671,3.06067,10.7737,0,0,0,0,0,0,0,-1,1154,1695,3.0607,-10.7737
-63,-671,2.94592,6.90198,0,0,0,0,0,0,0,-1,1161,1695,2.94594,-6.90198
-56,-671,-3.07678,2.87976,0,0,0,0,0,0,0,-1,1168,1695,-3.07675,-2.87979
-49,-671,-1.05957,4.76917,0,0,0,0,0,0,0,-1,1175,1695,-1.05958,-4.76921
-42,-671,0.539307,3.7865,0,0,0,0,0,0,0,-1,1182,1695,0.539266,-3.78648
-35,-671,-0.272461,0.347534,0,0,0,0,0,0,0,-1,1189,1695,-0.272434,-0.347569
-28,-671,-10.4878,17.2009,0,0,0,0,0,0,0,-1,1196,1695,-10.4878,-17.2009
-21,-671,8.69287,49.8479,0,0,0,0,0,0,0,-1,1203,1695,8.69289,-49.8479
-14,-671,8.68298,49.7853,0.0111358,0.00148239,0.0188905,0.0258065,-0.0131883,0.66032,0.0229032,0.0447021,1210,1695,8.68297,-49.7852
-7,-671,8.5094,49.8512,0.0123577,0.000418277,0.0162903,0.0237377,-0.0109617,0.609768,0.0204814,0.045339,1217,1695,8.50941,-49.8512
0,-671,8.41833,49.6683,0.0156438,-0.00138675,0.0128305,0.0225276,-0.00827052,0.492433,0.0184054,0.0443461,1224,1695,8.41833,-49.6683
7,-671,8.39099,49.8378,0.0244098,-0.00432093,0.0112365,0.0282824,-0.00819349,0.331894,0.0220983,0.0461863,1231,1695,8.39094,-49.8378
14,-671,8.50598,50.323,0.0326111,0.00506645,0.0108334,0.0363614,0.0013162,0.333261,0.0238143,0.0479849,1238,1695,8.50596,-50.323
21,-671,8.70508,51.1813,0.0381896,0.0198358,0.00947924,0.0422063,0.0158191,0.400801,0.0246212,0.0479901,1245,1695,8.70512,-51.1813
28,-671,7.01831,52.057,0.0448928,0.0300492,0.00939551,0.0494442,0.0254978,0.451114,0.0285513,0.0469058,1252,1695,7.01834,-52.057
35,-671,6.81079,51.3885,0,0,0,0,0,0,0,-1,1259,1695,6.81078,-51.3886
42,-671,7.50293,51.1254,0.0545383,0.0579844,0.00995373,0.0663631,0.0461596,0.8711,0.0392795,0.0453786,1266,1695,7.50299,-51.1253
49,-671,8.14587,50.958,0.0563862,0.0718685,0.0102397,0.0769639,0.0512908,1.10906,0.0452482,0.0416071,1273,1695,8.14581,-50.958
56,-671,8.44519,51.0485,0.0571034,0.0861395,0.0108825,0.0897653,0.0534775,1.24918,0.0521418,0.0473843,1280,1695,8.44516,-51.0484
63,-671,8.23096,50.5323,0.0557802,0.096692,0.0101192,0.099058,0.0534141,1.3411,0.0572498,0.0489306,1287,1695,8.23091,-50.5323
70,-671,7.56409,50.6591,0.0519983,0.10119,0.00804471,0.102472,0.0507161,1.41274,0.0591631,0.0449166,1294,1695,7.5641,-50.659
77,-671,6.82703,50.7764,0.0478571,0.100823,0.00667271,0.10165,0.0470294,1.44738,0.0587424,0.0452462,1301,1695,6.82708,-50.7764
84,-671,6.24866,50.949,0,0,0,0,0,0,0,-1,1308,1695,6.24868,-50.949
91,-671,10.1593,49.7407,0,0,0,0,0,0,0,-1,1315,1695,10.1593,-49.7408
98,-671,9.92041,49.5111,0,0,0,0,0,0,0,-1,1322,1695,9.92036,-49.5111
105,-671,9.24255,49.1135,0.0314221,0.0772454,-0.00462976,0.0777085,0.030959,-1.4711,0.0451727,0.0448498,1329,1695,9.24261,-49.1135
112,-671,9.4657,49.4352,0.0268381,0.0690905,-0.00886181,0.0708739,0.0250547,-1.37221,0.0415003,0.0450986,1336,1695,9.46564,-49.4352
119,-671,9.51245,49.9307,0.026375,0.0523318,-0.0120533,0.0570656,0.0216412,-1.19657,0.0332656,0.0474809,1343,1695,9.51248,-49.9307
126,-671,9.771,49.6797,0,0,0,0,0,0,0,-1,1350,1695,9.771,-49.6797
133,-671,9.46582,50.1659,0,0,0,0,0,0,0,-1,1357,1695,9.46581,-50.1658
140,-671,9.30505,50.123,0,0,0,0,0,0,0,-1,1364,1695,9.30501,-50.123
147,-671,9.11621,50.0906,0,0,0,0,0,0,0,-1,1371,1695,9.11616,-50.0905
154,-671,15.2456,57.922,0,0,0,0,0,0,0,-1,1378,1695,15.2456,-57.922
161,-671,4.49292,4.91272,0,0,0,0,0,0,0,-1,1385,1695,4.49297,-4.91273
168,-671,5.17639,6.1416,0,0,0,0,0,0,0,-1,1392,1695,5.1764,-6.14164
175,-671,5.6731,1.64685,0,0,0,0,0,0,0,-1,1399,1695,5.67313,-1.64691
182,-671,5.56812,1.71692,0,0,0,0,0,0,0,-1,1406,1695,5.56809,-1.71686
189,-671,6.98315,6.36169,0,0,0,0,0,0,0,-1,1413,1695,6.98312,-6.36175
196,-671,5.38123,5.69775,0,0,0,0,0,0,0,-1,1420,1695,5.38125,-5.69769
203,-671,5.95117,8.11658,0,0,0,0,0,0,0,-1,1427,1695,5.9512,-8.11662
210,-671,4.73596,8.39624,0,0,0,0,0,0,0,-1,1434,1695,4.736,-8.39618
217,-671,5.37097,11.863,0,0,0,0,0,0,0,-1,1441,1695,5.37094,-11.863
224,-671,5.08167,13.6694,0,0,0,0,0,0,0,-1,1448,1695,5.08165,-13.6695
231,-671,5.66663,15.3348,0,0,0,0,0,0,0,-1,1455,1695,5.66667,-15.3349
238,-671,6.32959,16.2036,0,0,0,0,0,0,0,-1,1462,1695,6.32961,-16.2037
245,-671,11.3086,45.8286,0,0,0,0,0,0,0,-1,1469,1695,11.3085,-45.8287
252,-671,11.1173,45.7477,0,0,0,0,0,0,0,-1,1476,1695,11.1173,-45.7477
259,-671,11.0018,45.3655,0,0,0,0,0,0,0,-1,1483,1695,11.0018,-45.3655
266,-671,11.1327,45.2102,0.00498737,0.0034314,-0.000998409,0.00547512,0.00294365,-0.454425,0.00316405,0.0338643,1490,1695,11.1327,-45.2102
273,-671,11.2164,44.8995,0.00473049,0.00428859,-0.0012618,0.00579054,0.00322854,-0.698724,0.00335055,0.00985217,1497,1695,11.2164,-44.8995
280,-671,11.2363,44.5583,0.00431315,0.00447798,-0.00138143,0.00577945,0.00301169,-0.815193,0.00333776,0.00975414,1504,1695,11.2363,-44.5583
287,-671,11.2423,44.1322,0.00386644,0.00454833,-0.00142224,0.00566992,0.00274484,-0.903041,0.00327408,0.0119275,1511,1695,11.2423,-44.1322
294,-671,11.2384,43.7388,0.00350095,0.00481196,-0.0015406,0.00583071,0.0024822,-0.986539,0.00337872,0.0117168,1518,1695,11.2384,-43.7387
301,-671,11.2621,43.4055,0.00306466,0.0050552,-0.00165294,0.00598938,0.00213048,-1.05639,0.00350564,0.0105195,1525,1695,11.2621,-43.4055
308,-671,11.2883,43.0295,0.00266426,0.00524241,-0.00182169,0.00618498,0.00172168,-1.09331,0.00368599,0.0116556,1532,1695,11.2883,-43.0296
315,-671,11.2936,42.6365,0.00223404,0.00527581,-0.00194108,0.00622087,0.00128898,-1.11771,0.00379134,0.0135547,1539,1695,11.2936,-42.6365
322,-671,11.2766,42.2755,0.00183468,0.00514884,-0.00203358,0.00611499,0.000868525,-1.12727,0.0038202,0.0159902,1546,1695,11.2766,-42.2756
329,-671,11.2516,41.8875,0.00140851,0.00466507,-0.00204718,0.00565256,0.000421024,-1.12136,0.00363617,0.0151608,1553,1695,11.2516,-41.8875
336,-671,11.2661,41.4456,0.000989254,0.00390927,-0.00186945,0.00482128,7.72437e-05,-1.11692,0.00318875,0.01136,1560,1695,11.2661,-41.4455
343,-671,11.2809,40.9922,0.000554832,0.00313679,-0.00186906,0.00411738,-0.000425754,-1.08763,0.00289728,0.0111751,1567,1695,11.2809,-40.9922
350,-671,11.2452,40.5917,1.52211e-05,0.00238901,-0.00171241,0.00328563,-0.000881405,-1.08844,0.00253581,0.012025,1574,1695,11.2452,-40.5916
357,-671,11.2238,40.135,-0.000538632,0.00164502,-0.00154224,0.0024428,-0.00133641,-1.09342,0.00221287,0.0112129,1581,1695,11.2237,-40.135
364,-671,11.2205,39.6849,-0.00124491,0.000801557,-0.0012259,0.00137514,-0.00181849,-1.13316,0.00184976,0.0126987,1588,1695,11.2204,-39.685
371,-671,11.1874,39.27,-0.00194736,7.36642e-05,-0.000936992,0.000441227,-0.00231492,-1.19696,0.00170944,0.0147452,1595,1695,11.1874,-39.27
378,-671,11.183,38.8038,-0.00277912,-0.000633671,-0.000609608,-0.000472556,-0.00294024,-1.31241,0.00182317,0.012547,1602,1695,11.183,-38.8039
385,-671,11.1466,38.3191,-0.00383062,-0.00112929,-0.000124843,-0.00112353,-0.00383637,-1.52471,0.00227741,0.0143957,1609,1695,11.1466,-38.3191
392,-671,11.1017,37.884,-0.00493011,-0.00166355,0.000329139,-0.00163071,-0.00496294,1.47137,0.00292095,0.0188323,1616,1695,11.1017,-37.8841
399,-671,11.087,37.4287,-0.00597753,-0.00182843,0.000804779,-0.0016778,-0.00612816,1.38577,0.00365681,0.0138519,1623,1695,11.087,-37.4288
406,-671,11.0759,36.9418,-0.00711947,-0.002,0.00125979,-0.00170679,-0.00741269,1.34212,0.00448252,0.0167135,1630,1695,11.076,-36.9418
413,-671,11.057,36.4592,-0.00826523,-0.00223931,0.00191435,-0.00168258,-0.00882196,1.28779,0.0054084,0.0260928,1637,1695,11.057,-36.4593
420,-671,11.031,35.9817,-0.00897266,-0.00265057,0.00226922,-0.0019204,-0.00970283,1.25949,0.00593294,0.0476446,1644,1695,11.031,-35.9816
427,-671,11.0367,35.4989,0,0,0,0,0,0,0,-1,1651,1695,11.0367,-35.499
434,-671,10.4055,35.3292,0,0,0,0,0,0,0,-1,1658,1695,10.4055,-35.3292
441,-671,11.9645,34.5192,0,0,0,0,0,0,0,-1,1665,1695,11.9645,-34.5192
448,-671,7.44873,20.2306,0,0,0,0,0,0,0,-1,1672,1695,7.44872,-20.2306
455,-671,6.62805,19.8612,0,0,0,0,0,0,0,-1,1679,1695,6.62811,-19.8612
462,-671,5.86255,4.47961,0,0,0,0,0,0,0,-1,1686,1695,5.8625,-4.4796
469,-671,3.71301,3.76978,0,0,0,0,0,0,0,-1,1693,1695,3.71297,-3.76974
476,-671,3.75574,3.18848,0,0,0,0,0,0,0,-1,1700,1695,3.7558,-3.18847
483,-671,7.81824,12.1041,0,0,0,0,0,0,0,-1,1707,1695,7.81826,-12.1041
490,-671,0,0,0,0,0,0,0,0,0,-1,1714,1695,0,0
497,-671,0,0,0,0,0,0,0,0,0,-1,1721,1695,0,0
504,-671,0,0,0,0,0,0,0,0,0,-1,1728,1695,0,0
511,-671,0,0,0,0,0,0,0,0,0,-1,1735,1695,0,0
518,-671,0,0,0,0,0,0,0,0,0,-1,1742,1695,0,0
525,-671,0,0,0,0,0,0,0,0,0,-1,1749,1695,0,0
532,-671,0,0,0,0,0,0,0,0,0,-1,1756,1695,0,0
539,-671,0,0,0,0,0,0,0,0,0,-1,1763,1695,0,0
546,-671,0,0,0,0,0,0,0,0,0,-1,1770,1695,0,0
553,-671,0,0,0,0,0,0,0,0,0,-1,1777,1695,0,0
560,-671,0,0,0,0,0,0,0,0,0,-1,1784,1695,0,0
567,-671,0,0,0,0,0,0,0,0,0,-1,1791,1695,0,0
574,-671,0,0,0,0,0,0,0,0,0,-1,1798,1695,0,0
581,-671,0,0,0,0,0,0,0,0,0,-1,1805,1695,0,0
588,-671,0,0,0,0,0,0,0,0,0,-1,1812,1695,0,0
595,-671,0,0,0,0,0,0,0,0,0,-1,1819,1695,0,0
602,-671,0,0,0,0,0,0,0,0,0,-1,1826,1695,0,0
609,-671,0,0,0,0,0,0,0,0,0,-1,1833,1695,0,0
616,-671,0,0,0,0,0,0,0,0,0,-1,1840,1695,0,0
623,-671,0,0,0,0,0,0,0,0,0,-1,1847,1695,0,0
630,-671,0,0,0,0,0,0,0,0,0,-1,1854,1695,0,0
637,-671,0,0,0,0,0,0,0,0,0,-1,1861,1695,0,0
644,-671,0,0,0,0,0,0,0,0,0,-1,1868,1695,0,0
651,-671,0,0,0,0,0,0,0,0,0,-1,1875,1695,0,0
658,-671,0,0,0,0,0,0,0,0,0,-1,1882,1695,0,0
665,-671,0,0,0,0,0,0,0,0,0,-1,1889,1695,0,0
672,-671,0,0,0,0,0,0,0,0,0,-1,1896,1695,0,0
679,-671,0,0,0,0,0,0,0,0,0,-1,1903,1695,0,0
686,-671,0,0,0,0,0,0,0,0,0,-1,1910,1695,0,0
693,-671,0,0,0,0,0,0,0,0,0,-1,1917,1695,0,0
700,-671,0,0,0,0,0,0,0,0,0,-1,1924,1695,0,0
707,-671,0,0,0,0,0,0,0,0,0,-1,1931,1695,0,0
714,-671,0,0,0,0,0,0,0,0,0,-1,1938,1695,0,0
721,-671,0,0,0,0,0,0,0,0,0,-1,1945,1695,0,0
728,-671,0,0,0,0,0,0,0,0,0,-1,1952,1695,0,0
735,-671,0,0,0,0,0,0,0,0,0,-1,1959,1695,0,0
742,-671,0,0,0,0,0,0,0,0,0,-1,1966,1695,0,0
749,-671,0,0,0,0,0,0,0,0,0,-1,1973,1695,0,0
756,-671,0,0,0,0,0,0,0,0,0,-1,1980,1695,0,0
763,-671,0,0,0,0,0,0,0,0,0,-1,1987,1695,0,0
770,-671,0,0,0,0,0,0,0,0,0,-1,1994,1695,0,0
777,-671,0,0,0,0,0,0,0,0,0,-1,2001,1695,0,0
784,-671,0,0,0,0,0,0,0,0,0,-1,2008,1695,0,0
791,-671,0,0,0,0,0,0,0,0,0,-1,2015,1695,0,0
798,-671,0,0,0,0,0,0,0,0,0,-1,2022,1695,0,0
805,-671,0,0,0,0,0,0,0,0,0,-1,2029,1695,0,0
812,-671,0,0,0,0,0,0,0,0,0,-1,2036,1695,0,0
-700,-678,0,0,0,0,0,0,0,0,0,-1,524,1702,0,0
-693,-678,0,0,0,0,0,0,0,0,0,-1,531,1702,0,0
-686,-678,0,0,0,0,0,0,0,0,0,-1,538,1702,0,0
-679,-678,0,0,0,0,0,0,0,0,0,-1,545,1702,0,0
-672,-678,0,0,0,0,0,0,0,0,0,-1,552,1702,0,0
-665,-678,0,0,0,0,0,0,0,0,0,-1,559,1702,0,0
-658,-678,0,0,0,0,0,0,0,0,0,-1,566,1702,0,0
-651,-678,0,0,0,0,0,0,0,0,0,-1,573,1702,0,0
-644,-678,0,0,0,0,0,0,0,0,0,-1,580,1702,0,0
-637,-678,0,0,0,0,0,0,0,0,0,-1,587,1702,0,0
-630,-678,0,0,0,0,0,0,0,0,0,-1,594,1702,0,0
-623,-678,0,0,0,0,0,0,0,0,0,-1,601,1702,0,0
-616,-678,0,0,0,0,0,0,0,0,0,-1,608,1702,0,0
-609,-678,0,0,0,0,0,0,0,0,0,-1,615,1702,0,0
-602,-678,0,0,0,0,0,0,0,0,0,-1,622,1702,0,0
-595,-678,0,0,0,0,0,0,0,0,0,-1,629,1702,0,0
-588,-678,0,0,0,0,0,0,0,0,0,-1,636,1702,0,0
-581,-678,0,0,0,0,0,0,0,0,0,-1,643,1702,0,0
-574,-678,0,0,0,0,0,0,0,0,0,-1,650,1702,0,0
-567,-678,0,0,0,0,0,0,0,0,0,-1,657,1702,0,0
-560,-678,0,0,0,0,0,0,0,0,0,-1,664,1702,0,0
-553,-678,0,0,0,0,0,0,0,0,0,-1,671,1702,0,0
-546,-678,0,0,0,0,0,0,0,0,0,-1,678,1702,0,0
-539,-678,0,0,0,0,0,0,0,0,0,-1,685,1702,0,0
-532,-678,0,0,0,0,0,0,0,0,0,-1,692,1702,0,0
-525,-678,0,0,0,0,0,0,0,0,0,-1,699,1702,0,0
-518,-678,0,0,0,0,0,0,0,0,0,-1,706,1702,0,0
-511,-678,0,0,0,0,0,0,0,0,0,-1,713,1702,0,0
-504,-678,0,0,0,0,0,0,0,0,0,-1,720,1702,0,0
-497,-678,0,0,0,0,0,0,0,0,0,-1,727,1702,0,0
-490,-678,0,0,0,0,0,0,0,0,0,-1,734,1702,0,0
-483,-678,0,0,0,0,0,0,0,0,0,-1,741,1702,0,0
-476,-678,0,0,0,0,0,0,0,0,0,-1,748,1702,0,0
-469,-678,0,0,0,0,0,0,0,0,0,-1,755,1702,0,0
-462,-678,0,0,0,0,0,0,0,0,0,-1,762,1702,0,0
-455,-678,0,0,0,0,0,0,0,0,0,-1,769,1702,0,0
-448,-678,0,0,0,0,0,0,0,0,0,-1,776,1702,0,0
-441,-678,0,0,0,0,0,0,0,0,0,-1,783,1702,0,0
-434,-678,0,0,0,0,0,0,0,0,0,-1,790,1702,0,0
-427,-678,0,0,0,0,0,0,0,0,0,-1,797,1702,0,0
-420,-678,0,0,0,0,0,0,0,0,0,-1,804,1702,0,0
-413,-678,0,0,0,0,0,0,0,0,0,-1,811,1702,0,0
-406,-678,0,0,0,0,0,0,0,0,0,-1,818,1702,0,0
-399,-678,0,0,0,0,0,0,0,0,0,-1,825,1702,0,0
-392,-678,0,0,0,0,0,0,0,0,0,-1,832,1702,0,0
-385,-678,0,0,0,0,0,0,0,0,0,-1,839,1702,0,0
-378,-678,0,0,0,0,0,0,0,0,0,-1,846,1702,0,0
-371,-678,0,0,0,0,0,0,0,0,0,-1,853,1702,0,0
-364,-678,0,0,0,0,0,0,0,0,0,-1,860,1702,0,0
-357,-678,0,0,0,0,0,0,0,0,0,-1,867,1702,0,0
-350,-678,-5.79944,6.11865,0,0,0,0,0,0,0,-1,874,1702,-5.79942,-6.11864
-343,-678,8.79578,34.4388,0,0,0,0,0,0,0,-1,881,1702,8.79579,-34.4388
-336,-678,9.06317,34.813,0,0,0,0,0,0,0,-1,888,1702,9.06318,-34.8129
-329,-678,8.68359,35.6151,0,0,0,0,0,0,0,-1,895,1702,8.68362,-35.6152
-322,-678,8.50494,35.5048,0,0,0,0,0,0,0,-1,902,1702,8.50495,-35.5047
-315,-678,8.74017,35.6564,0,0,0,0,0,0,0,-1,909,1702,8.74018,-35.6563
-308,-678,6.59613,34.5348,0,0,0,0,0,0,0,-1,916,1702,6.59615,-34.5348
-301,-678,6.39899,34.7595,0.0157288,-0.00348479,0.0101387,0.0200893,-0.00784525,0.406166,0.0166364,0.0471255,923,1702,6.39901,-34.7595
-294,-678,7.32025,34.9531,0,0,0,0,0,0,0,-1,930,1702,7.32024,-34.9531
-287,-678,7.61145,35.8259,0,0,0,0,0,0,0,-1,937,1702,7.61147,-35.8259
-280,-678,7.33624,36.205,0,0,0,0,0,0,0,-1,944,1702,7.33622,-36.2049
-273,-678,7.11407,36.6774,0.00302997,0.000276261,0.0041681,0.00604273,-0.0027365,0.625875,0.00518712,0.0482752,951,1702,7.11409,-36.6774
-266,-678,7.12756,37.2927,0.00180859,0.000800296,0.00351444,0.00485486,-0.00224597,0.714159,0.00419089,0.0404846,958,1702,7.12755,-37.2927
-259,-678,7.07446,37.7902,0.00104048,0.00124508,0.00291413,0.0040587,-0.00177314,0.802943,0.00345213,0.0244247,965,1702,7.07449,-37.7902
-252,-678,7.10608,38.246,0.000518878,0.00175078,0.00239985,0.00361247,-0.00134281,0.911018,0.00295927,0.0183704,972,1702,7.10605,-38.2459
-245,-678,7.0827,38.7147,-0.000791409,0.00178319,0.00187299,0.00276861,-0.00177683,1.08647,0.00264505,0.0192312,979,1702,7.08272,-38.7148
-238,-678,7.03235,39.2012,-0.000953966,0.00108255,0.00174029,0.00208059,-0.00195201,1.0501,0.00232862,0.0156159,986,1702,7.03233,-39.2012
-231,-678,6.97632,39.6725,-0.000467464,0.000285409,0.00171931,0.00166901,-0.00185106,0.893171,0.00203322,0.0127768,993,1702,6.97633,-39.6725
-224,-678,6.93347,40.0984,-3.43713e-06,-0.000254284,0.00123393,0.00111142,-0.00136914,0.734749,0.00143473,0.0132437,1000,1702,6.93345,-40.0984
-217,-678,6.93774,40.5518,3.40339e-05,-0.000714513,0.000803369,0.000546035,-0.00122651,0.567408,0.00104822,0.014342,1007,1702,6.93772,-40.5518
-210,-678,6.92682,41.0605,0.000194968,-0.000971928,0.000577585,0.000432505,-0.00120947,0.390174,0.000982732,0.014228,1014,1702,6.92682,-41.0606
-203,-678,6.90466,41.4611,0.000287755,-0.00111375,0.000355035,0.000372562,-0.00119856,0.234476,0.000947951,0.0178851,1021,1702,6.90463,-41.4611
-196,-678,6.88123,41.8746,0.000353628,-0.0011054,0.000141253,0.000367177,-0.00111895,0.0956296,0.000893859,0.0182548,1028,1702,6.88122,-41.8746
-189,-678,6.8717,42.3344,0.000375506,-0.000907302,-0.000120625,0.00038675,-0.000918546,-0.0929465,0.000774181,0.0104281,1035,1702,6.87169,-42.3343
-182,-678,6.87549,42.7787,0.000454891,-0.000350076,-0.000283334,0.000544618,-0.000439803,-0.306691,0.000569428,0.00978104,1042,1702,6.87544,-42.7787
-175,-678,6.86438,43.1774,0.00063211,0.000479176,-0.00033431,0.000898587,0.000212699,-0.672967,0.000542247,0.0118054,1049,1702,6.86436,-43.1774
-168,-678,6.84644,43.5424,0.000712244,0.00157788,-0.000256624,0.00164824,0.000641885,-1.3032,0.000959336,0.0114865,1056,1702,6.84646,-43.5423
-161,-678,6.84387,43.9269,0.000727666,0.00267807,-0.000172288,0.00269317,0.000712564,-1.48336,0.00161133,0.00915146,1063,1702,6.84391,-43.9269
-154,-678,6.84326,44.318,0.000887471,0.00386089,-1.05888e-05,0.00386093,0.000887434,-1.56724,0.00233505,0.00837829,1070,1702,6.84328,-44.318
-147,-678,6.83411,44.6908,0.00120445,0.0050441,0.000180754,0.00505259,0.00119596,1.52386,0.00304895,0.0106248,1077,1702,6.83412,-44.6908
-140,-678,6.87012,45.0531,0.00159615,0.00592818,0.000344097,0.00595534,0.00156899,1.49202,0.00356426,0.0123919,1084,1702,6.87007,-45.0531
-133,-678,6.91321,45.3846,0.0020505,0.00644662,0.00056063,0.00651699,0.00198013,1.44593,0.0038579,0.0137113,1091,1702,6.91325,-45.3847
-126,-678,6.92004,45.7545,0.00300021,0.00653928,0.0007025,0.00667363,0.00286587,1.38184,0.00386579,0.0143029,1098,1702,6.92003,-45.7545
-119,-678,6.98267,46.3823,0.00422844,0.00644219,0.000237838,0.00646746,0.00420318,1.46497,0.00378951,0.0405386,1105,1702,6.98271,-46.3823
-112,-678,7.01636,46.3639,0,0,0,0,0,0,0,-1,1112,1702,7.01631,-46.3639
-105,-678,6.96973,46.7572,0,0,0,0,0,0,0,-1,1119,1702,6.96967,-46.7573
-98,-678,6.99158,47.1267,0,0,0,0,0,0,0,-1,1126,1702,6.99157,-47.1266
-91,-678,7.13696,47.2424,0,0,0,0,0,0,0,-1,1133,1702,7.13696,-47.2424
-84,-678,6.58545,36.5073,0,0,0,0,0,0,0,-1,1140,1702,6.58544,-36.5073
-77,-678,5.95154,29.1879,0,0,0,0,0,0,0,-1,1147,1702,5.95156,-29.1878
-70,-678,4.75891,19.6552,0,0,0,0,0,0,0,-1,1154,1702,4.75895,-19.6551
-63,-678,3.41687,11.0365,0,0,0,0,0,0,0,-1,1161,1702,3.41682,-11.0365
-56,-678,1.72388,6.13159,0,0,0,0,0,0,0,-1,1168,1702,1.72388,-6.13157
-49,-678,-0.241699,5.29895,0,0,0,0,0,0,0,-1,1175,1702,-0.241682,-5.29897
-42,-678,0.297119,3.90649,0,0,0,0,0,0,0,-1,1182,1702,0.297139,-3.90655
-35,-678,0.498413,3.64038,0,0,0,0,0,0,0,-1,1189,1702,0.498471,-3.64038
-28,-678,0.132446,3.55994,0,0,0,0,0,0,0,-1,1196,1702,0.132432,-3.55993
-21,-678,7.71814,49.3839,0,0,0,0,0,0,0,-1,1203,1702,7.71819,-49.3839
-14,-678,7.95496,49.4777,0.00881097,0.00216828,0.0127765,0.0186908,-0.00771155,0.658234,0.0156766,0.0429942,1210,1702,7.95497,-49.4777
-7,-678,8.17651,49.5894,0.0104176,0.00124305,0.0108376,0.0175989,-0.00593817,0.585194,0.0141341,0.0443755,1217,1702,8.17653,-49.5893
0,-678,8.29199,49.6301,0.0130704,8.37679e-06,0.00848555,0.0172473,-0.00416849,0.457414,0.0131105,0.0468143,1224,1702,8.29195,-49.6301
7,-678,8.24231,49.8328,0.0192778,-0.00185082,0.00732445,0.0215686,-0.00414156,0.303114,0.0159399,0.0447043,1231,1702,8.24231,-49.8328
14,-678,7.90369,50.416,0.024805,0.00462588,0.00680385,0.0268848,0.00254615,0.296649,0.0171376,0.0435865,1238,1702,7.90369,-50.4161
21,-678,7.45422,50.7507,0.0284791,0.0147049,0.00554598,0.0304345,0.0127495,0.338973,0.0176482,0.0440563,1245,1702,7.45426,-50.7507
28,-678,7.09045,50.8494,0.0331643,0.0214488,0.00518893,0.035132,0.0194811,0.362465,0.0203236,0.0486033,1252,1702,7.09041,-50.8493
35,-678,6.72595,51.019,0,0,0,0,0,0,0,-1,1259,1702,6.72601,-51.019
42,-678,7.81299,51.0487,0.0403039,0.0408115,0.00530083,0.0458646,0.0352508,0.809322,0.0277242,0.0453706,1266,1702,7.813,-51.0487
49,-678,8.09082,50.9525,0.041688,0.0506572,0.00555831,0.0533145,0.0390307,1.12484,0.0318673,0.0438042,1273,1702,8.09076,-50.9525
56,-678,8.35205,50.9037,0.0422228,0.060774,0.00611784,0.0626099,0.0403869,1.27926,0.0366514,0.0445512,1280,1702,8.35209,-50.9037
63,-678,8.5061,50.797,0.0414314,0.0686936,0.00576771,0.0698637,0.0402614,1.37065,0.040492,0.0463195,1287,1702,8.50615,-50.797
70,-678,8.29382,50.3679,0.0389291,0.072571,0.00452926,0.0731701,0.03833,1.43928,0.0422608,0.0452163,1294,1702,8.2938,-50.368
77,-678,7.8175,49.9246,0,0,0,0,0,0,0,-1,1301,1702,7.81747,-49.9246
84,-678,10.6238,50.3113,0,0,0,0,0,0,0,-1,1308,1702,10.6237,-50.3113
91,-678,10.1583,49.9857,0,0,0,0,0,0,0,-1,1315,1702,10.1583,-49.9857
98,-678,9.72644,49.5383,0.0264329,0.0627467,-0.00134659,0.0627966,0.0263831,-1.53378,0.0364095,0.0425596,1322,1702,9.72642,-49.5383
105,-678,9.29102,49.1058,0.0242108,0.0574818,-0.00340346,0.0578263,0.0238662,-1.46989,0.0335552,0.0421086,1329,1702,9.29096,-49.1058
112,-678,9.80151,49.3433,0.020977,0.0518408,-0.00636946,0.0531036,0.0197142,-1.37507,0.0309964,0.0440749,1336,1702,9.80156,-49.3432
119,-678,9.76221,49.6416,0.0208977,0.0395296,-0.00870032,0.0429605,0.0174668,-1.19518,0.0249472,0.0420318,1343,1702,9.76215,-49.6416
126,-678,9.73462,49.5868,0.0224524,0.0304827,-0.0088946,0.0362264,0.0167087,-0.997413,0.0209363,0.0451981,1350,1702,9.73466,-49.5868
133,-678,9.6106,49.7631,0,0,0,0,0,0,0,-1,1357,1702,9.61056,-49.7631
140,-678,9.46582,49.7269,0,0,0,0,0,0,0,-1,1364,1702,9.46588,-49.727
147,-678,9.32813,49.7563,0,0,0,0,0,0,0,-1,1371,1702,9.32811,-49.7563
154,-678,9.46375,49.7834,0,0,0,0,0,0,0,-1,1378,1702,9.46379,-49.7835
161,-678,8.81226,34.8624,0,0,0,0,0,0,0,-1,1385,1702,8.81229,-34.8624
168,-678,4.21863,5.25781,0,0,0,0,0,0,0,-1,1392,1702,4.21865,-5.25781
175,-678,5.21899,5.9635,0,0,0,0,0,0,0,-1,1399,1702,5.21894,-5.96346
182,-678,7.31262,6.75122,0,0,0,0,0,0,0,-1,1406,1702,7.3126,-6.75123
189,-678,5.96021,6.36853,0,0,0,0,0,0,0,-1,1413,1702,5.96018,-6.36851
196,-678,5.01599,8.15771,0,0,0,0,0,0,0,-1,1420,1702,5.01596,-8.15767
203,-678,4.64771,13.0559,0,0,0,0,0,0,0,-1,1427,1702,4.64766,-13.0559
210,-678,5.6532,18.5957,0,0,0,0,0,0,0,-1,1434,1702,5.65318,-18.5958
217,-678,6.88049,23.4835,0,0,0,0,0,0,0,-1,1441,1702,6.88047,-23.4835
224,-678,8.521,32.0977,0,0,0,0,0,0,0,-1,1448,1702,8.52098,-32.0977
231,-678,9.96838,42.3734,0,0,0,0,0,0,0,-1,1455,1702,9.96844,-42.3734
238,-678,10.6857,46.7258,0,0,0,0,0,0,0,-1,1462,1702,10.6857,-46.7258
245,-678,10.7981,46.3651,0.00477688,0.00241858,0.000137919,0.00478492,0.00241054,0.0582177,0.0027626,0.0371842,1469,1702,10.798,-46.3651
252,-678,10.8148,45.9064,0.00452506,0.00260131,-0.000225792,0.00455121,0.00257516,-0.115283,0.00263522,0.027977,1476,1702,10.8148,-45.9063
259,-678,10.8125,45.6245,0.00424676,0.00258012,-0.000594383,0.00443702,0.00238987,-0.309789,0.00256426,0.0179191,1483,1702,10.8125,-45.6245
266,-678,10.8623,45.2579,0.00393748,0.00255759,-0.000840208,0.00433472,0.00216035,-0.441643,0.00250266,0.0123659,1490,1702,10.8623,-45.2579
273,-678,10.8804,44.9169,0.00362672,0.00302398,-0.00106615,0.00443327,0.00221743,-0.647655,0.00255955,0.0116231,1497,1702,10.8803,-44.9169
280,-678,10.8657,44.5873,0.00319766,0.00307397,-0.00119068,0.0043281,0.00194353,-0.75945,0.00250315,0.012056,1504,1702,10.8657,-44.5872
287,-678,10.8838,44.2003,0.00276476,0.0030799,-0.00124242,0.0041747,0.00166996,-0.848475,0.00242627,0.0122181,1511,1702,10.8837,-44.2003
294,-678,10.8828,43.7925,0.00238729,0.00317013,-0.00133403,0.00416898,0.00138844,-0.9281,0.00245128,0.0125799,1518,1702,10.8828,-43.7925
301,-678,10.8677,43.4265,0.00204833,0.00314578,-0.00138536,0.00408713,0.00110698,-0.973963,0.00244092,0.0115535,1525,1702,10.8677,-43.4265
308,-678,10.8744,43.0548,0.00176511,0.00317447,-0.00156088,0.00418237,0.000757212,-0.997434,0.00257325,0.0129481,1532,1702,10.8744,-43.0548
315,-678,10.8633,42.656,0.00136348,0.00310477,-0.00162793,0.00408025,0.000387997,-1.03095,0.0026005,0.0144534,1539,1702,10.8633,-42.656
322,-678,10.8383,42.3007,0.00105256,0.00292784,-0.0017292,0.00395725,2.31415e-05,-1.03383,0.00263049,0.0180255,1546,1702,10.8383,-42.3007
329,-678,10.8202,41.8904,0.000675779,0.00241735,-0.00174097,0.00349316,-0.000400031,-1.01729,0.00247293,0.0158394,1553,1702,10.8202,-41.8903
336,-678,10.8269,41.4561,0.00032399,0.0016535,-0.00157582,0.00269904,-0.00072155,-0.984997,0.00208198,0.0125437,1560,1702,10.8269,-41.4561
343,-678,10.8524,41.0266,-9.14455e-05,0.000989001,-0.00165022,0.00218517,-0.00128762,-0.943583,0.00202722,0.0135022,1567,1702,10.8525,-41.0266
350,-678,10.8396,40.6003,-0.000675523,0.000435057,-0.00154048,0.00151727,-0.00175773,-0.958382,0.00189252,0.0138926,1574,1702,10.8396,-40.6003
357,-678,10.8057,40.165,-0.00127722,-3.28056e-05,-0.00145363,0.000926184,-0.00223621,-0.987618,0.0018773,0.0104944,1581,1702,10.8057,-40.165
364,-678,10.786,39.7288,-0.00209057,-0.000618889,-0.00119785,5.10839e-05,-0.00276054,-1.06083,0.00185762,0.012117,1588,1702,10.786,-39.7288
371,-678,10.7316,39.3038,-0.00294328,-0.00103325,-0.000956792,-0.000636411,-0.00334012,-1.17763,0.00204784,0.0132262,1595,1702,10.7315,-39.3038
378,-678,10.7051,38.8259,-0.003988,-0.00129533,-0.000675886,-0.0011352,-0.00414813,-1.33817,0.00247536,0.01261,1602,1702,10.7051,-38.8259
385,-678,10.7128,38.3577,-0.0053232,-0.00148248,-0.000169372,-0.00147503,-0.00533065,-1.52681,0.00317831,0.0127188,1609,1702,10.7127,-38.3577
392,-678,10.7573,37.9424,-0.00673413,-0.00174896,0.000338345,-0.0017261,-0.00675699,1.50334,0.0040537,0.0220576,1616,1702,10.7573,-37.9424
399,-678,10.7535,37.4756,-0.00810316,-0.00145784,0.000874774,-0.00134462,-0.00821639,1.44208,0.00508895,0.0317257,1623,1702,10.7536,-37.4756
406,-678,10.6437,36.9805,-0.00975037,-0.00144413,0.00152602,-0.00117264,-0.0100219,1.39473,0.00632668,0.0360548,1630,1702,10.6437,-36.9804
413,-678,10.3627,36.5615,-0.0114108,-0.00152383,0.00259157,-0.000885708,-0.0120489,1.32937,0.00775426,0.0423732,1637,1702,10.3627,-36.5616
420,-678,10.1835,36.0048,0,0,0,0,0,0,0,-1,1644,1702,10.1835,-36.0048
427,-678,4.57483,10.1555,0,0,0,0,0,0,0,-1,1651,1702,4.57485,-10.1555
434,-678,9.48169,21.6665,0,0,0,0,0,0,0,-1,1658,1702,9.48169,-21.6665
441,-678,8.64539,21.1864,0,0,0,0,0,0,0,-1,1665,1702,8.64536,-21.1865
448,-678,7.62244,20.7195,0,0,0,0,0,0,0,-1,1672,1702,7.6224,-20.7195
455,-678,5.44678,5.54297,0,0,0,0,0,0,0,-1,1679,1702,5.44676,-5.54294
462,-678,3.86792,2.87402,0,0,0,0,0,0,0,-1,1686,1702,3.86796,-2.87406
469,-678,2.26587,1.98755,0,0,0,0,0,0,0,-1,1693,1702,2.26592,-1.98755
476,-678,0,0,0,0,0,0,0,0,0,-1,1700,1702,0,0
483,-678,0,0,0,0,0,0,0,0,0,-1,1707,1702,0,0
490,-678,0,0,0,0,0,0,0,0,0,-1,1714,1702,0,0
497,-678,0,0,0,0,0,0,0,0,0,-1,1721,1702,0,0
504,-678,0,0,0,0,0,0,0,0,0,-1,1728,1702,0,0
511,-678,0,0,0,0,0,0,0,0,0,-1,1735,1702,0,0
518,-678,0,0,0,0,0,0,0,0,0,-1,1742,1702,0,0
525,-678,0,0,0,0,0,0,0,0,0,-1,1749,1702,0,0
532,-678,0,0,0,0,0,0,0,0,0,-1,1756,1702,0,0
539,-678,0,0,0,0,0,0,0,0,0,-1,1763,1702,0,0
546,-678,0,0,0,0,0,0,0,0,0,-1,1770,1702,0,0
553,-678,0,0,0,0,0,0,0,0,0,-1,1777,1702,0,0
560,-678,0,0,0,0,0,0,0,0,0,-1,1784,1702,0,0
567,-678,0,0,0,0,0,0,0,0,0,-1,1791,1702,0,0
574,-678,0,0,0,0,0,0,0,0,0,-1,1798,1702,0,0
581,-678,0,0,0,0,0,0,0,0,0,-1,1805,1702,0,0
588,-678,0,0,0,0,0,0,0,0,0,-1,1812,1702,0,0
595,-678,0,0,0,0,0,0,0,0,0,-1,1819,1702,0,0
602,-678,0,0,0,0,0,0,0,0,0,-1,1826,1702,0,0
609,-678,0,0,0,0,0,0,0,0,0,-1,1833,1702,0,0
616,-678,0,0,0,0,0,0,0,0,0,-1,1840,1702,0,0
623,-678,0,0,0,0,0,0,0,0,0,-1,1847,1702,0,0
630,-678,0,0,0,0,0,0,0,0,0,-1,1854,1702,0,0
637,-678,0,0,0,0,0,0,0,0,0,-1,1861,1702,0,0
644,-678,0,0,0,0,0,0,0,0,0,-1,1868,1702,0,0
651,-678,0,0,0,0,0,0,0,0,0,-1,1875,1702,0,0
658,-678,0,0,0,0,0,0,0,0,0,-1,1882,1702,0,0
665,-678,0,0,0,0,0,0,0,0,0,-1,1889,1702,0,0
672,-678,0,0,0,0,0,0,0,0,0,-1,1896,1702,0,0
679,-678,0,0,0,0,0,0,0,0,0,-1,1903,1702,0,0
686,-678,0,0,0,0,0,0,0,0,0,-1,1910,1702,0,0
693,-678,0,0,0,0,0,0,0,0,0,-1,1917,1702,0,0
700,-678,0,0,0,0,0,0,0,0,0,-1,1924,1702,0,0
707,-678,0,0,0,0,0,0,0,0,0,-1,1931,1702,0,0
714,-678,0,0,0,0,0,0,0,0,0,-1,1938,1702,0,0
721,-678,0,0,0,0,0,0,0,0,0,-1,1945,1702,0,0
728,-678,0,0,0,0,0,0,0,0,0,-1,1952,1702,0,0
735,-678,0,0,0,0,0,0,0,0,0,-1,1959,1702,0,0
742,-678,0,0,0,0,0,0,0,0,0,-1,1966,1702,0,0
749,-678,0,0,0,0,0,0,0,0,0,-1,1973,1702,0,0
756,-678,0,0,0,0,0,0,0,0,0,-1,1980,1702,0,0
763,-678,0,0,0,0,0,0,0,0,0,-1,1987,1702,0,0
770,-678,0,0,0,0,0,0,0,0,0,-1,1994,1702,0,0
777,-678,0,0,0,0,0,0,0,0,0,-1,2001,1702,0,0
784,-678,0,0,0,0,0,0,0,0,0,-1,2008,1702,0,0
791,-678,0,0,0,0,0,0,0,0,0,-1,2015,1702,0,0
798,-678,0,0,0,0,0,0,0,0,0,-1,2022,1702,0,0
805,-678,0,0,0,0,0,0,0,0,0,-1,2029,1702,0,0
812,-678,0,0,0,0,0,0,0,0,0,-1,2036,1702,0,0
-700,-685,0,0,0,0,0,0,0,0,0,-1,524,1709,0,0
-693,-685,0,0,0,0,0,0,0,0,0,-1,531,1709,0,0
-686,-685,0,0,0,0,0,0,0,0,0,-1,538,1709,0,0
-679,-685,0,0,0,0,0,0,0,0,0,-1,545,1709,0,0
-672,-685,0,0,0,0,0,0,0,0,0,-1,552,1709,0,0
-665,-685,0,0,0,0,0,0,0,0,0,-1,559,1709,0,0
-658,-685,0,0,0,0,0,0,0,0,0,-1,566,1709,0,0
-651,-685,0,0,0,0,0,0,0,0,0,-1,573,1709,0,0
-644,-685,0,0,0,0,0,0,0,0,0,-1,580,1709,0,0
-637,-685,0,0,0,0,0,0,0,0,0,-1,587,1709,0,0
-630,-685,0,0,0,0,0,0,0,0,0,-1,594,1709,0,0
-623,-685,0,0,0,0,0,0,0,0,0,-1,601,1709,0,0
-616,-685,0,0,0,0,0,0,0,0,0,-1,608,1709,0,0
-609,-685,0,0,0,0,0,0,0,0,0,-1,615,1709,0,0
-602,-685,0,0,0,0,0,0,0,0,0,-1,622,1709,0,0
-595,-685,0,0,0,0,0,0,0,0,0,-1,629,1709,0,0
-588,-685,0,0,0,0,0,0,0,0,0,-1,636,1709,0,0
-581,-685,0,0,0,0,0,0,0,0,0,-1,643,1709,0,0
-574,-685,0,0,0,0,0,0,0,0,0,-1,650,1709,0,0
-567,-685,0,0,0,0,0,0,0,0,0,-1,657,1709,0,0
-560,-685,0,0,0,0,0,0,0,0,0,-1,664,1709,0,0
-553,-685,0,0,0,0,0,0,0,0,0,-1,671,1709,0,0
-546,-685,0,0,0,0,0,0,0,0,0,-1,678,1709,0,0
-539,-685,0,0,0,0,0,0,0,0,0,-1,685,1709,0,0
-532,-685,0,0,0,0,0,0,0,0,0,-1,692,1709,0,0
-525,-685,0,0,0,0,0,0,0,0,0,-1,699,1709,0,0
-518,-685,0,0,0,0,0,0,0,0,0,-1,706,1709,0,0
-511,-685,0,0,0,0,0,0,0,0,0,-1,713,1709,0,0
-504,-685,0,0,0,0,0,0,0,0,0,-1,720,1709,0,0
-497,-685,0,0,0,0,0,0,0,0,0,-1,727,1709,0,0
-490,-685,0,0,0,0,0,0,0,0,0,-1,734,1709,0,0
-483,-685,0,0,0,0,0,0,0,0,0,-1,741,1709,0,0
-476,-685,0,0,0,0,0,0,0,0,0,-1,748,1709,0,0
-469,-685,0,0,0,0,0,0,0,0,0,-1,755,1709,0,0
-462,-685,0,0,0,0,0,0,0,0,0,-1,762,1709,0,0
-455,-685,0,0,0,0,0,0,0,0,0,-1,769,1709,0,0
-448,-685,0,0,0,0,0,0,0,0,0,-1,776,1709,0,0
-441,-685,0,0,0,0,0,0,0,0,0,-1,783,1709,0,0
-434,-685,0,0,0,0,0,0,0,0,0,-1,790,1709,0,0
-427,-685,0,0,0,0,0,0,0,0,0,-1,797,1709,0,0
-420,-685,0,0,0,0,0,0,0,0,0,-1,804,1709,0,0
-413,-685,0,0,0,0,0,0,0,0,0,-1,811,1709,0,0
-406,-685,0,0,0,0,0,0,0,0,0,-1,818,1709,0,0
-399,-685,0,0,0,0,0,0,0,0,0,-1,825,1709,0,0
-392,-685,0,0,0,0,0,0,0,0,0,-1,832,1709,0,0
-385,-685,0,0,0,0,0,0,0,0,0,-1,839,1709,0,0
-378,-685,0,0,0,0,0,0,0,0,0,-1,846,1709,0,0
-371,-685,0,0,0,0,0,0,0,0,0,-1,853,1709,0,0
-364,-685,0,0,0,0,0,0,0,0,0,-1,860,1709,0,0
-357,-685,0,0,0,0,0,0,0,0,0,-1,867,1709,0,0
-350,-685,0,0,0,0,0,0,0,0,0,-1,874,1709,0,0
-343,-685,-5.98505,6.56335,0,0,0,0,0,0,0,-1,881,1709,-5.98505,-6.56329
-336,-685,-6.51312,5.10571,0,0,0,0,0,0,0,-1,888,1709,-6.51311,-5.10575
-329,-685,9.98907,36.2474,0,0,0,0,0,0,0,-1,895,1709,9.98909,-36.2475
-322,-685,3.83191,16.7219,0,0,0,0,0,0,0,-1,902,1709,3.8319,-16.7219
-315,-685,5.15784,21.4388,0,0,0,0,0,0,0,-1,909,1709,5.15783,-21.4389
-308,-685,6.36969,21.0303,0,0,0,0,0,0,0,-1,916,1709,6.36968,-21.0302
-301,-685,6.44348,34.812,0,0,0,0,0,0,0,-1,923,1709,6.44349,-34.812
-294,-685,7.35986,35.0845,0,0,0,0,0,0,0,-1,930,1709,7.35989,-35.0844
-287,-685,7.98975,35.8679,0,0,0,0,0,0,0,-1,937,1709,7.98977,-35.8679
-280,-685,7.74377,36.1248,0,0,0,0,0,0,0,-1,944,1709,7.74377,-36.1247
-273,-685,7.51147,36.6493,0,0,0,0,0,0,0,-1,951,1709,7.5115,-36.6493
-266,-685,7.61169,37.308,0.00315882,0.00152893,0.0044112,0.00682972,-0.00214197,0.694056,0.00541037,0.0495266,958,1709,7.61171,-37.308
-259,-685,7.57104,37.6777,0.00191614,0.00202898,0.00364369,0.00561669,-0.00167157,0.79314,0.00440858,0.0475161,965,1709,7.57105,-37.6777
-252,-685,7.59015,38.1467,0.00108661,0.00250636,0.00301819,0.00489703,-0.00130406,0.900899,0.00377521,0.0397726,972,1709,7.59012,-38.1467
-245,-685,7.61475,38.7003,-0.000836949,0.00240904,0.00239289,0.00367742,-0.00210533,1.08339,0.00337955,0.035022,979,1709,7.61472,-38.7003
-238,-685,7.54187,39.2273,-0.00131904,0.00103454,0.00220466,0.00235683,-0.00264133,1.03055,0.00288724,0.0278872,986,1709,7.54186,-39.2272
-231,-685,7.43994,39.7195,-0.000708716,-0.000385143,0.00215885,0.00161797,-0.00271183,0.822799,0.00252627,0.0180461,993,1709,7.43995,-39.7195
-224,-685,7.38495,40.1313,-9.43749e-05,-0.00131059,0.00137767,0.000803424,-0.00220839,0.577556,0.00180083,0.0154928,1000,1709,7.38497,-40.1313
-217,-685,7.38104,40.6046,-0.000116435,-0.00214537,0.000763283,0.000138644,-0.00240044,0.322517,0.00164846,0.0118631,1007,1709,7.38102,-40.6047
-210,-685,7.36316,41.1102,8.63912e-05,-0.00274464,0.000444535,0.000154552,-0.00281281,0.152145,0.00192879,0.0157403,1014,1709,7.36316,-41.1102
-203,-685,7.34314,41.4999,0.000236414,-0.0031683,0.000151814,0.00024317,-0.00317505,0.0444718,0.00220224,0.0155096,1021,1709,7.34309,-41.4998
-196,-685,7.31006,41.9049,0.000365359,-0.00338788,-0.000133801,0.000370123,-0.00339264,-0.0355894,0.00239469,0.0138553,1028,1709,7.31001,-41.9049
-189,-685,7.29797,42.3298,0.000466777,-0.00333266,-0.000455845,0.000520703,-0.00338659,-0.117751,0.00244981,0.00961792,1035,1709,7.29796,-42.3298
-182,-685,7.28467,42.7551,0.000603411,-0.00283516,-0.000633499,0.000716409,-0.00294816,-0.176515,0.00224271,0.0138161,1042,1709,7.28471,-42.7552
-175,-685,7.26538,43.1675,0.000802242,-0.00197431,-0.000663568,0.000952677,-0.00212475,-0.222938,0.0018192,0.015155,1049,1709,7.2654,-43.1674
-168,-685,7.24915,43.5494,0.000906606,-0.000838422,-0.000514849,0.00104718,-0.000978998,-0.266545,0.00117004,0.0113713,1056,1709,7.24916,-43.5494
-161,-685,7.25061,43.9354,0.000901977,0.000316372,-0.000353874,0.00106848,0.00014987,-0.439779,0.00066799,0.0114134,1063,1709,7.25063,-43.9354
-154,-685,7.25073,44.3464,0.00103256,0.00151341,-0.000106172,0.00153581,0.00101016,-1.36287,0.000901289,0.0110586,1070,1709,7.25075,-44.3465
-147,-685,7.22864,44.7111,0.00131285,0.00270914,0.000158522,0.00272691,0.00129508,1.45916,0.00157504,0.0100686,1077,1709,7.22864,-44.7111
-140,-685,7.25195,45.0237,0.0016756,0.00359268,0.000363068,0.00365914,0.00160914,1.38976,0.00211771,0.0123468,1084,1709,7.25196,-45.0236
-133,-685,7.26917,45.3796,0.00211365,0.00420001,0.000585705,0.00435319,0.00196047,1.315,0.00251744,0.0116799,1091,1709,7.2692,-45.3797
-126,-685,7.26611,45.7474,0.00287508,0.00434141,0.000716994,0.00463373,0.00258277,1.18367,0.00268115,0.00947134,1098,1709,7.26617,-45.7475
-119,-685,7.31287,46.0582,0.00387446,0.00422896,0.000407225,0.00449584,0.00360758,0.990664,0.00274939,0.0132634,1105,1709,7.31292,-46.0583
-112,-685,7.33081,46.374,0.00459432,0.00383705,0.000116161,0.00461174,0.00381964,0.148836,0.00284742,0.0144266,1112,1709,7.33075,-46.3741
-105,-685,7.31812,46.6969,0.00533208,0.00336708,-9.78186e-05,0.00533694,0.00336222,-0.049617,0.0031158,0.0152696,1119,1709,7.31813,-46.6969
-98,-685,7.36304,46.9939,0.00603302,0.00288336,-0.000355617,0.00607268,0.00284371,-0.111044,0.00350841,0.0211836,1126,1709,7.36304,-46.9939
-91,-685,7.39954,47.1538,0.00646396,0.00223859,-0.000845979,0.00662704,0.0020755,-0.190438,0.00391413,0.0409314,1133,1709,7.39953,-47.1539
-84,-685,7.41321,47.4747,0,0,0,0,0,0,0,-1,1140,1709,7.41316,-47.4747
-77,-685,7.41565,47.8593,0,0,0,0,0,0,0,-1,1147,1709,7.4156,-47.8592
-70,-685,7.55762,48.3328,0,0,0,0,0,0,0,-1,1154,1709,7.5576,-48.3328
-63,-685,6.03015,29.7728,0,0,0,0,0,0,0,-1,1161,1709,6.0302,-29.7728
-56,-685,3.93909,15.8704,0,0,0,0,0,0,0,-1,1168,1709,3.93905,-15.8704
-49,-685,3.07471,9.86011,0,0,0,0,0,0,0,-1,1175,1709,3.07467,-9.86009
-42,-685,2.70618,7.54504,0,0,0,0,0,0,0,-1,1182,1709,2.7062,-7.54504
-35,-685,2.95264,7.91516,0,0,0,0,0,0,0,-1,1189,1709,2.95262,-7.91517
-28,-685,7.80615,48.8583,0,0,0,0,0,0,0,-1,1196,1709,7.8061,-48.8583
-21,-685,8.08643,49.2422,0,0,0,0,0,0,0,-1,1203,1709,8.08646,-49.2421
-14,-685,8.11755,49.452,0.00655261,0.00242981,0.00737318,0.0121471,-0.00316472,0.649088,0.00933359,0.031989,1210,1709,8.11751,-49.452
-7,-685,8.14172,49.6603,0.00834539,0.00163183,0.00600187,0.0118654,-0.0018882,0.530425,0.00860898,0.044368,1217,1709,8.14174,-49.6603
0,-685,8.27295,49.7322,0.0105698,0.000809376,0.00453681,0.0123529,-0.000973674,0.374473,0.00857825,0.048067,1224,1709,8.27294,-49.7322
7,-685,8.29932,49.9242,0.0150727,-0.000304252,0.00385411,0.0159847,-0.00121617,0.232337,0.0110841,0.0444704,1231,1709,8.29931,-49.9242
14,-685,8.25037,50.4341,0.0187941,0.00432899,0.00357627,0.0196299,0.00349312,0.229607,0.0120916,0.0470182,1238,1709,8.25034,-50.4341
21,-685,8.755,50.7642,0.0211507,0.0113373,0.00269277,0.021841,0.010647,0.250961,0.0126112,0.0442219,1245,1709,8.75498,-50.7642
28,-685,7.1062,50.1472,0,0,0,0,0,0,0,-1,1252,1709,7.10614,-50.1472
35,-685,8.75781,50.4015,0,0,0,0,0,0,0,-1,1259,1709,8.75782,-50.4015
42,-685,8.86316,50.7875,0,0,0,0,0,0,0,-1,1266,1709,8.86321,-50.7874
49,-685,8.16028,50.2947,0,0,0,0,0,0,0,-1,1273,1709,8.16032,-50.2947
56,-685,8.33875,50.524,0.0308847,0.0428456,0.00385846,0.0439823,0.029748,1.28431,0.0259144,0.0473304,1280,1709,8.33876,-50.5241
63,-685,8.61011,50.5453,0.0303715,0.0486738,0.00403351,0.0495233,0.0295221,1.36322,0.0287679,0.0461226,1287,1709,8.61012,-50.5453
70,-685,8.78552,50.5488,0,0,0,0,0,0,0,-1,1294,1709,8.78552,-50.5489
77,-685,9.3634,50.9309,0,0,0,0,0,0,0,-1,1301,1709,9.3634,-50.9309
84,-685,10.5992,50.9404,0,0,0,0,0,0,0,-1,1308,1709,10.5992,-50.9404
91,-685,9.48694,50.2638,0,0,0,0,0,0,0,-1,1315,1709,9.487,-50.2638
98,-685,9.57703,49.7208,0,0,0,0,0,0,0,-1,1322,1709,9.577,-49.7209
105,-685,9.4989,49.9803,0,0,0,0,0,0,0,-1,1329,1709,9.49888,-49.9804
112,-685,9.61536,49.8872,0,0,0,0,0,0,0,-1,1336,1709,9.61532,-49.8872
119,-685,9.55139,49.6416,0,0,0,0,0,0,0,-1,1343,1709,9.55138,-49.6416
126,-685,9.67444,49.5148,0,0,0,0,0,0,0,-1,1350,1709,9.67447,-49.5148
133,-685,9.91394,49.5153,0,0,0,0,0,0,0,-1,1357,1709,9.91396,-49.5153
140,-685,9.88,49.576,0,0,0,0,0,0,0,-1,1364,1709,9.87995,-49.5761
147,-685,9.82092,49.8218,0,0,0,0,0,0,0,-1,1371,1709,9.82093,-49.8218
154,-685,9.84082,49.5702,0,0,0,0,0,0,0,-1,1378,1709,9.84077,-49.5702
161,-685,10.2346,49.3842,0,0,0,0,0,0,0,-1,1385,1709,10.2346,-49.3841
168,-685,4.37524,10.8778,0,0,0,0,0,0,0,-1,1392,1709,4.37525,-10.8778
175,-685,3.97522,8.94324,0,0,0,0,0,0,0,-1,1399,1709,3.97519,-8.94328
182,-685,3.98218,9.19739,0,0,0,0,0,0,0,-1,1406,1709,3.98221,-9.1974
189,-685,4.53479,15.2343,0,0,0,0,0,0,0,-1,1413,1709,4.53474,-15.2343
196,-685,10.2203,48.3859,0,0,0,0,0,0,0,-1,1420,1709,10.2204,-48.3859
203,-685,10.275,47.9933,0,0,0,0,0,0,0,-1,1427,1709,10.275,-47.9932
210,-685,10.499,47.6991,0,0,0,0,0,0,0,-1,1434,1709,10.499,-47.699
217,-685,10.3798,47.3245,0,0,0,0,0,0,0,-1,1441,1709,10.3798,-47.3244
224,-685,10.3534,47.1265,0,0,0,0,0,0,0,-1,1448,1709,10.3534,-47.1264
231,-685,10.3004,47.1083,0,0,0,0,0,0,0,-1,1455,1709,10.3004,-47.1082
238,-685,10.4744,46.5522,0.00395816,0.00160055,0.000367803,0.00401421,0.0015445,0.151221,0.00233803,0.0255123,1462,1709,10.4744,-46.5522
245,-685,10.4832,46.2052,0.00363804,0.00167886,9.67135e-05,0.00364281,0.0016741,0.0492048,0.00210547,0.0202497,1469,1709,10.4831,-46.2052
252,-685,10.4873,45.9355,0.00338132,0.00185897,-0.000268559,0.00342731,0.00181299,-0.169594,0.00197986,0.0145556,1476,1709,10.4873,-45.9356
259,-685,10.5039,45.623,0.00307777,0.00187765,-0.000620894,0.00334118,0.00161424,-0.401231,0.0019294,0.0108284,1483,1709,10.5039,-45.623
266,-685,10.5214,45.2705,0.00274526,0.00183981,-0.000861943,0.00326614,0.00131893,-0.543583,0.0018973,0.0132109,1490,1709,10.5214,-45.2705
273,-685,10.5317,44.9214,0.00241224,0.00206571,-0.00104329,0.00329655,0.0011814,-0.703111,0.00192855,0.0158795,1497,1709,10.5317,-44.9214
280,-685,10.5074,44.5895,0.00199718,0.00203688,-0.00116117,0.00317837,0.00085569,-0.793944,0.00189907,0.0173079,1504,1709,10.5074,-44.5894
287,-685,10.511,44.233,0.00159594,0.00203143,-0.0012172,0.00305021,0.00057716,-0.873906,0.001871,0.013127,1511,1709,10.511,-44.2331
294,-685,10.5148,43.849,0.00121717,0.00198165,-0.00127523,0.0029307,0.00026812,-0.931008,0.00187084,0.0115532,1518,1709,10.5148,-43.849
301,-685,10.522,43.4639,0.000987632,0.00185151,-0.00131732,0.0028059,3.3246e-05,-0.943821,0.00185962,0.0137538,1525,1709,10.5219,-43.4639
308,-685,10.5122,43.0885,0.000840797,0.00181895,-0.00156132,0.002966,-0.000306257,-0.93718,0.00208692,0.015435,1532,1709,10.5122,-43.0885
315,-685,10.501,42.705,0.000479116,0.00177043,-0.00164391,0.00289093,-0.000641388,-0.972521,0.00217287,0.0134147,1539,1709,10.501,-42.705
322,-685,10.5005,42.302,0.000292084,0.00166367,-0.00182064,0.00292339,-0.000967637,-0.965519,0.00233917,0.0208607,1546,1709,10.5005,-42.302
329,-685,10.4683,41.8916,-5.08006e-06,0.00120148,-0.00187874,0.00257143,-0.00137502,-0.940753,0.00231312,0.0203852,1553,1709,10.4683,-41.8916
336,-685,10.4315,41.4543,-0.000258494,0.000479319,-0.00176552,0.00191406,-0.00169324,-0.888391,0.00208398,0.0131987,1560,1709,10.4315,-41.4543
343,-685,10.422,41.0276,-0.000614473,-6.7683e-05,-0.00193251,0.00161068,-0.00229283,-0.855667,0.00226513,0.0122211,1567,1709,10.422,-41.0275
350,-685,10.4009,40.6052,-0.00120781,-0.000468154,-0.00185682,0.00105531,-0.00273128,-0.883699,0.00225644,0.0134635,1574,1709,10.4009,-40.6053
357,-685,10.3744,40.2009,-0.00182543,-0.000731553,-0.00181752,0.00061954,-0.00317652,-0.931551,0.00235156,0.0106363,1581,1709,10.3744,-40.201
364,-685,10.3413,39.7892,-0.0027375,-0.00115924,-0.00156905,-0.00019205,-0.00370469,-1.01839,0.00240833,0.0115269,1588,1709,10.3412,-39.7892
371,-685,10.3358,39.3361,-0.00378204,-0.00138701,-0.00128442,-0.000828454,-0.0043406,-1.1606,0.00266092,0.020152,1595,1709,10.3358,-39.3361
378,-685,10.3333,38.8519,-0.00511297,-0.001341,-0.00092765,-0.00112521,-0.00532877,-1.34224,0.00324317,0.0231953,1602,1709,10.3333,-38.8519
385,-685,10.281,38.4178,-0.00683819,-0.00135896,-0.000269127,-0.00134577,-0.00685138,-1.52184,0.00419163,0.0334179,1609,1709,10.281,-38.4178
392,-685,10.5654,37.8314,-0.00869787,-0.00149656,0.000423722,-0.00147171,-0.00872271,1.51223,0.00539194,0.0361287,1616,1709,10.5654,-37.8314
399,-685,10.0765,37.2313,-0.0106127,-0.000927617,0.00120573,-0.000779769,-0.0107606,1.44878,0.00692843,0.0395389,1623,1709,10.0765,-37.2313
406,-685,10.0621,36.7461,-0.0131341,-0.000797411,0.00212108,-0.000442913,-0.0134886,1.4052,0.00884845,0.044164,1630,1709,10.0622,-36.7461
413,-685,10.1509,36.3235,0,0,0,0,0,0,0,-1,1637,1709,10.1509,-36.3235
420,-685,4.84631,10.3781,0,0,0,0,0,0,0,-1,1644,1709,4.84634,-10.378
427,-685,6.05151,9.21155,0,0,0,0,0,0,0,-1,1651,1709,6.05156,-9.21156
434,-685,4.87769,8.91418,0,0,0,0,0,0,0,-1,1658,1709,4.87768,-8.91413
441,-685,5.62,8.75549,0,0,0,0,0,0,0,-1,1665,1709,5.61996,-8.75545
448,-685,6.4043,8.58972,0,0,0,0,0,0,0,-1,1672,1709,6.40435,-8.58971
455,-685,2.31958,4.09802,0,0,0,0,0,0,0,-1,1679,1709,2.31957,-4.09803
462,-685,0,0,0,0,0,0,0,0,0,-1,1686,1709,0,0
469,-685,0,0,0,0,0,0,0,0,0,-1,1693,1709,0,0
476,-685,0,0,0,0,0,0,0,0,0,-1,1700,1709,0,0
483,-685,0,0,0,0,0,0,0,0,0,-1,1707,1709,0,0
490,-685,0,0,0,0,0,0,0,0,0,-1,1714,1709,0,0
497,-685,0,0,0,0,0,0,0,0,0,-1,1721,1709,0,0
504,-685,0,0,0,0,0,0,0,0,0,-1,1728,1709,0,0
511,-685,0,0,0,0,0,0,0,0,0,-1,1735,1709,0,0
518,-685,0,0,0,0,0,0,0,0,0,-1,1742,1709,0,0
525,-685,0,0,0,0,0,0,0,0,0,-1,1749,1709,0,0
532,-685,0,0,0,0,0,0,0,0,0,-1,1756,1709,0,0
539,-685,0,0,0,0,0,0,0,0,0,-1,1763,1709,0,0
546,-685,0,0,0,0,0,0,0,0,0,-1,1770,1709,0,0
553,-685,0,0,0,0,0,0,0,0,0,-1,1777,1709,0,0
560,-685,0,0,0,0,0,0,0,0,0,-1,1784,1709,0,0
567,-685,0,0,0,0,0,0,0,0,0,-1,1791,1709,0,0
574,-685,0,0,0,0,0,0,0,0,0,-1,1798,1709,0,0
581,-685,0,0,0,0,0,0,0,0,0,-1,1805,1709,0,0
588,-685,0,0,0,0,0,0,0,0,0,-1,1812,1709,0,0
595,-685,0,0,0,0,0,0,0,0,0,-1,1819,1709,0,0
602,-685,0,0,0,0,0,0,0,0,0,-1,1826,1709,0,0
609,-685,0,0,0,0,0,0,0,0,0,-1,1833,1709,0,0
616,-685,0,0,0,0,0,0,0,0,0,-1,1840,1709,0,0
623,-685,0,0,0,0,0,0,0,0,0,-1,1847,1709,0,0
630,-685,0,0,0,0,0,0,0,0,0,-1,1854,1709,0,0
637,-685,0,0,0,0,0,0,0,0,0,-1,1861,1709,0,0
644,-685,0,0,0,0,0,0,0,0,0,-1,1868,1709,0,0
651,-685,0,0,0,0,0,0,0,0,0,-1,1875,1709,0,0
658,-685,0,0,0,0,0,0,0,0,0,-1,1882,1709,0,0
665,-685,0,0,0,0,0,0,0,0,0,-1,1889,1709,0,0
672,-685,0,0,0,0,0,0,0,0,0,-1,1896,1709,0,0
679,-685,0,0,0,0,0,0,0,0,0,-1,1903,1709,0,0
686,-685,0,0,0,0,0,0,0,0,0,-1,1910,1709,0,0
693,-685,0,0,0,0,0,0,0,0,0,-1,1917,1709,0,0
700,-685,0,0,0,0,0,0,0,0,0,-1,1924,1709,0,0
707,-685,0,0,0,0,0,0,0,0,0,-1,1931,1709,0,0
714,-685,0,0,0,0,0,0,0,0,0,-1,1938,1709,0,0
721,-685,0,0,0,0,0,0,0,0,0,-1,1945,1709,0,0
728,-685,0,0,0,0,0,0,0,0,0,-1,1952,1709,0,0
735,-685,0,0,0,0,0,0,0,0,0,-1,1959,1709,0,0
742,-685,0,0,0,0,0,0,0,0,0,-1,1966,1709,0,0
749,-685,0,0,0,0,0,0,0,0,0,-1,1973,1709,0,0
756,-685,0,0,0,0,0,0,0,0,0,-1,1980,1709,0,0
763,-685,0,0,0,0,0,0,0,0,0,-1,1987,1709,0,0
770,-685,0,0,0,0,0,0,0,0,0,-1,1994,1709,0,0
777,-685,0,0,0,0,0,0,0,0,0,-1,2001,1709,0,0
784,-685,0,0,0,0,0,0,0,0,0,-1,2008,1709,0,0
791,-685,0,0,0,0,0,0,0,0,0,-1,2015,1709,0,0
798,-685,0,0,0,0,0,0,0,0,0,-1,2022,1709,0,0
805,-685,0,0,0,0,0,0,0,0,0,-1,2029,1709,0,0
812,-685,0,0,0,0,0,0,0,0,0,-1,2036,1709,0,0
-700,-692,0,0,0,0,0,0,0,0,0,-1,524,1716,0,0
-693,-692,0,0,0,0,0,0,0,0,0,-1,531,1716,0,0
-686,-692,0,0,0,0,0,0,0,0,0,-1,538,1716,0,0
-679,-692,0,0,0,0,0,0,0,0,0,-1,545,1716,0,0
-672,-692,0,0,0,0,0,0,0,0,0,-1,552,1716,0,0
-665,-692,0,0,0,0,0,0,0,0,0,-1,559,1716,0,0
-658,-692,0,0,0,0,0,0,0,0,0,-1,566,1716,0,0
-651,-692,0,0,0,0,0,0,0,0,0,-1,573,1716,0,0
-644,-692,0,0,0,0,0,0,0,0,0,-1,580,1716,0,0
-637,-692,0,0,0,0,0,0,0,0,0,-1,587,1716,0,0
-630,-692,0,0,0,0,0,0,0,0,0,-1,594,1716,0,0
-623,-692,0,0,0,0,0,0,0,0,0,-1,601,1716,0,0
-616,-692,0,0,0,0,0,0,0,0,0,-1,608,1716,0,0
-609,-692,0,0,0,0,0,0,0,0,0,-1,615,1716,0,0
-602,-692,0,0,0,0,0,0,0,0,0,-1,622,1716,0,0
-595,-692,0,0,0,0,0,0,0,0,0,-1,629,1716,0,0
-588,-692,0,0,0,0,0,0,0,0,0,-1,636,1716,0,0
-581,-692,0,0,0,0,0,0,0,0,0,-1,643,1716,0,0
-574,-692,0,0,0,0,0,0,0,0,0,-1,650,1716,0,0
-567,-692,0,0,0,0,0,0,0,0,0,-1,657,1716,0,0
-560,-692,0,0,0,0,0,0,0,0,0,-1,664,1716,0,0
-553,-692,0,0,0,0,0,0,0,0,0,-1,671,1716,0,0
-546,-692,0,0,0,0,0,0,0,0,0,-1,678,1716,0,0
-539,-692,0,0,0,0,0,0,0,0,0,-1,685,1716,0,0
-532,-692,0,0,0,0,0,0,0,0,0,-1,692,1716,0,0
-525,-692,0,0,0,0,0,0,0,0,0,-1,699,1716,0,0
-518,-692,0,0,0,0,0,0,0,0,0,-1,706,1716,0,0
-511,-692,0,0,0,0,0,0,0,0,0,-1,713,1716,0,0
-504,-692,0,0,0,0,0,0,0,0,0,-1,720,1716,0,0
-497,-692,0,0,0,0,0,0,0,0,0,-1,727,1716,0,0
-490,-692,0,0,0,0,0,0,0,0,0,-1,734,1716,0,0
-483,-692,0,0,0,0,0,0,0,0,0,-1,741,1716,0,0
-476,-692,0,0,0,0,0,0,0,0,0,-1,748,1716,0,0
-469,-692,0,0,0,0,0,0,0,0,0,-1,755,1716,0,0
-462,-692,0,0,0,0,0,0,0,0,0,-1,762,1716,0,0
-455,-692,0,0,0,0,0,0,0,0,0,-1,769,1716,0,0
-448,-692,0,0,0,0,0,0,0,0,0,-1,776,1716,0,0
-441,-692,0,0,0,0,0,0,0,0,0,-1,783,1716,0,0
-434,-692,0,0,0,0,0,0,0,0,0,-1,790,1716,0,0
-427,-692,0,0,0,0,0,0,0,0,0,-1,797,1716,0,0
-420,-692,0,0,0,0,0,0,0,0,0,-1,804,1716,0,0
-413,-692,0,0,0,0,0,0,0,0,0,-1,811,1716,0,0
-406,-692,0,0,0,0,0,0,0,0,0,-1,818,1716,0,0
-399,-692,0,0,0,0,0,0,0,0,0,-1,825,1716,0,0
-392,-692,0,0,0,0,0,0,0,0,0,-1,832,1716,0,0
-385,-692,0,0,0,0,0,0,0,0,0,-1,839,1716,0,0
-378,-692,0,0,0,0,0,0,0,0,0,-1,846,1716,0,0
-371,-692,0,0,0,0,0,0,0,0,0,-1,853,1716,0,0
-364,-692,0,0,0,0,0,0,0,0,0,-1,860,1716,0,0
-357,-692,0,0,0,0,0,0,0,0,0,-1,867,1716,0,0
-350,-692,0,0,0,0,0,0,0,0,0,-1,874,1716,0,0
-343,-692,0,0,0,0,0,0,0,0,0,-1,881,1716,0,0
-336,-692,0,0,0,0,0,0,0,0,0,-1,888,1716,0,0
-329,-692,3.03107,4.10266,0,0,0,0,0,0,0,-1,895,1716,3.03105,-4.10267
-322,-692,4.43713,18.5242,0,0,0,0,0,0,0,-1,902,1716,4.43711,-18.5241
-315,-692,5.38965,17.975,0,0,0,0,0,0,0,-1,909,1716,5.38963,-17.975
-308,-692,5.86938,17.4392,0,0,0,0,0,0,0,-1,916,1716,5.86937,-17.4392
-301,-692,8.65558,20.7662,0,0,0,0,0,0,0,-1,923,1716,8.65556,-20.7663
-294,-692,8.41125,35.4742,0,0,0,0,0,0,0,-1,930,1716,8.41125,-35.4742
-287,-692,8.53516,35.9969,0,0,0,0,0,0,0,-1,937,1716,8.53514,-35.9969
-280,-692,8.49841,35.8523,0,0,0,0,0,0,0,-1,944,1716,8.49843,-35.8523
-273,-692,8.80096,36.5579,0,0,0,0,0,0,0,-1,951,1716,8.80099,-36.5578
-266,-692,8.14539,37.2767,0,0,0,0,0,0,0,-1,958,1716,8.1454,-37.2767
-259,-692,8.10291,37.5629,0,0,0,0,0,0,0,-1,965,1716,8.10291,-37.5628
-252,-692,7.91199,37.9044,0,0,0,0,0,0,0,-1,972,1716,7.912,-37.9044
-245,-692,7.88379,38.5009,-0.000653293,0.00338249,0.00296269,0.00494921,-0.00222001,1.08436,0.00423794,0.046241,979,1716,7.88377,-38.5009
-238,-692,8.00146,39.2037,-0.0016396,0.000844619,0.00272703,0.0025991,-0.00339407,0.999099,0.00347029,0.0453677,986,1716,8.00146,-39.2038
-231,-692,7.9693,39.8257,-0.000750321,-0.00161749,0.00267023,0.0015213,-0.00388911,0.704912,0.00322187,0.0382222,993,1716,7.96932,-39.8257
-224,-692,7.82935,40.202,0.000148361,-0.00307742,0.00144371,0.000700123,-0.00362918,0.365053,0.00268345,0.0184525,1000,1716,7.82935,-40.202
-217,-692,7.79559,40.6235,7.88037e-06,-0.00435024,0.000585327,8.5125e-05,-0.00442748,0.13121,0.00298044,0.0128084,1007,1716,7.79559,-40.6235
-210,-692,7.78937,41.0907,0.00022615,-0.00531738,0.000131796,0.000229282,-0.00532051,0.0237569,0.00362585,0.013491,1014,1716,7.78938,-41.0908
-203,-692,7.76746,41.5078,0.00037557,-0.00595411,-0.000275417,0.000387531,-0.00596607,-0.0434027,0.00411265,0.0156694,1021,1716,7.76748,-41.5078
-196,-692,7.74792,41.936,0.000521549,-0.00631847,-0.000661345,0.000584906,-0.00638183,-0.0955088,0.00446232,0.0180744,1028,1716,7.7479,-41.936
-189,-692,7.69214,42.3267,0.000641157,-0.00626987,-0.00106009,0.000800108,-0.00642882,-0.148833,0.00457596,0.00977488,1035,1716,7.69209,-42.3267
-182,-692,7.67078,42.7471,0.000762796,-0.0056756,-0.0012594,0.00100038,-0.00591318,-0.186455,0.00431441,0.0142904,1042,1716,7.67078,-42.7471
-175,-692,7.63196,43.1788,0.000891758,-0.00463187,-0.00127752,0.00117292,-0.00491303,-0.216627,0.00372834,0.0158954,1049,1716,7.6319,-43.1788
-168,-692,7.64404,43.5747,0.000924808,-0.0033123,-0.00106235,0.00117625,-0.00356374,-0.232405,0.00285,0.0119898,1056,1716,7.64402,-43.5748
-161,-692,7.64746,43.9551,0.000810866,-0.00194626,-0.000810108,0.00103127,-0.00216667,-0.265643,0.00188472,0.0141766,1063,1716,7.64749,-43.955
-154,-692,7.62634,44.3706,0.00081605,-0.000586224,-0.000455591,0.000951069,-0.000721243,-0.288113,0.000968544,0.015881,1070,1716,7.62631,-44.3707
-147,-692,7.62097,44.7361,0.000967824,0.000763874,-8.834e-05,0.00100077,0.000730931,-0.356938,0.000597886,0.0142113,1077,1716,7.62103,-44.736
-140,-692,7.60535,45.0663,0.00121176,0.00179009,0.000195156,0.00184979,0.00115207,1.27396,0.00107866,0.0106499,1084,1716,7.6053,-45.0663
-133,-692,7.60828,45.4043,0.00155683,0.00269174,0.000471303,0.00286194,0.00138663,1.22425,0.00165261,0.00991621,1091,1716,7.6083,-45.4043
-126,-692,7.61194,45.7504,0.00198144,0.00306366,0.000654332,0.00337164,0.00167347,1.13088,0.00194663,0.00796082,1098,1716,7.61191,-45.7504
-119,-692,7.61621,46.0697,0.00266578,0.0030165,0.000615365,0.003481,0.00220127,0.924206,0.0020331,0.011769,1105,1716,7.61618,-46.0698
-112,-692,7.62878,46.3816,0.00327899,0.00278411,0.000439327,0.00353577,0.00252733,0.528926,0.00210323,0.012052,1112,1716,7.62878,-46.3816
-105,-692,7.6582,46.6947,0.0038174,0.00242496,0.000223007,0.00385224,0.00239012,0.154993,0.0022455,0.0162995,1119,1716,7.65815,-46.6947
-98,-692,7.69556,46.9957,0.00428228,0.002059,-7.086e-05,0.00428454,0.00205675,-0.0318288,0.00247434,0.0178017,1126,1716,7.69554,-46.9958
-91,-692,7.68152,47.2699,0.00469068,0.00154362,-0.000471727,0.00475987,0.00147443,-0.145631,0.00281363,0.019529,1133,1716,7.6815,-47.27
-84,-692,7.70056,47.5363,0.00508524,0.00119555,-0.00090397,0.00528506,0.00099573,-0.217548,0.00324283,0.0222148,1140,1716,7.70055,-47.5363
-77,-692,7.71387,47.8611,0.00531392,0.000520428,-0.00139385,0.00568976,0.000144594,-0.263374,0.0037459,0.0186754,1147,1716,7.71388,-47.8611
-70,-692,7.78723,48.1077,0.00518791,-0.000458127,-0.00186561,0.00574866,-0.00101888,-0.291985,0.00421334,0.0362074,1154,1716,7.78724,-48.1076
-63,-692,7.83008,48.2772,0,0,0,0,0,0,0,-1,1161,1716,7.83013,-48.2772
-56,-692,7.81946,48.5031,0,0,0,0,0,0,0,-1,1168,1716,7.81943,-48.5031
-49,-692,7.81079,48.7661,0,0,0,0,0,0,0,-1,1175,1716,7.81085,-48.7661
-42,-692,7.8761,49.0238,0,0,0,0,0,0,0,-1,1182,1716,7.8761,-49.0237
-35,-692,7.96375,49.2816,0,0,0,0,0,0,0,-1,1189,1716,7.9638,-49.2817
-28,-692,8.06824,49.2472,0,0,0,0,0,0,0,-1,1196,1716,8.06823,-49.2472
-21,-692,8.14575,49.3726,0.00456044,0.0028366,0.00386957,0.00766292,-0.000265876,0.675816,0.00519951,0.0352136,1203,1716,8.14576,-49.3725
-14,-692,8.20325,49.504,0.00513058,0.00242651,0.00393445,0.00793881,-0.00038173,0.619899,0.00542427,0.0177436,1210,1716,8.20329,-49.504
-7,-692,8.23267,49.7147,0.00667764,0.00189678,0.00310044,0.00820217,0.000372254,0.456996,0.00534835,0.0165261,1217,1716,8.23271,-49.7147
0,-692,8.28198,49.8668,0.0083794,0.00145918,0.00230464,0.00907666,0.000761924,0.293791,0.0058138,0.0190999,1224,1716,8.28195,-49.8668
7,-692,8.35657,49.967,0.0102501,0.00100194,0.00125912,0.0104185,0.00083358,0.132924,0.00668515,0.0237873,1231,1716,8.35659,-49.967
14,-692,8.50049,50.2228,0.0116239,0.00246751,0.000227444,0.0116295,0.00246187,0.0248195,0.00707662,0.0279484,1238,1716,8.50051,-50.2227
21,-692,8.64417,50.3068,0.012296,0.00557366,-0.000826883,0.0123962,0.00547345,-0.12061,0.00717325,0.0290721,1245,1716,8.64413,-50.3067
28,-692,8.67993,50.2545,0.0136111,0.00728419,-0.00164068,0.0140113,0.00688404,-0.239222,0.00808981,0.0313208,1252,1716,8.67999,-50.2545
35,-692,8.70532,50.3214,0.0146744,0.00985963,-0.0022052,0.0155318,0.00900229,-0.370796,0.00900507,0.029723,1259,1716,8.70533,-50.3214
42,-692,8.79272,50.5173,0.0152057,0.0125463,-0.00278446,0.0169616,0.0107903,-0.562643,0.00991311,0.0275882,1266,1716,8.79269,-50.5173
49,-692,8.89636,50.5529,0.014983,0.0151725,-0.00288543,0.0179647,0.0121908,-0.801812,0.0105902,0.0353408,1273,1716,8.89635,-50.5529
56,-692,8.78052,50.4954,0.0145187,0.0182077,-0.00265686,0.0195975,0.0131288,-1.08882,0.0115304,0.0462109,1280,1716,8.78052,-50.4954
63,-692,8.78455,50.4841,0.0138397,0.020921,-0.00243929,0.0216799,0.0130808,-1.26916,0.0126057,0.0460729,1287,1716,8.7845,-50.4841
70,-692,8.97485,50.6265,0.0127979,0.0226278,-0.00233386,0.0231538,0.012272,-1.34913,0.0133759,0.0371586,1294,1716,8.97485,-50.6264
77,-692,9.17493,50.6052,0.0119636,0.0226269,-0.00135095,0.0227954,0.0117951,-1.44672,0.0131636,0.0420846,1301,1716,9.17498,-50.6053
84,-692,9.28015,50.6016,0,0,0,0,0,0,0,-1,1308,1716,9.28013,-50.6015
91,-692,9.28857,50.2416,0.0105246,0.0218101,-0.0014248,0.0219872,0.0103475,-1.44713,0.0127017,0.0480313,1315,1716,9.28862,-50.2416
98,-692,9.35229,50.1263,0.00922247,0.0210104,-0.000966686,0.0210892,0.00914372,-1.48951,0.0122116,0.0363009,1322,1716,9.35225,-50.1264
105,-692,9.36792,50.0959,0.00891897,0.0196246,-0.0012298,0.0197641,0.00877952,-1.45788,0.0114344,0.0454299,1329,1716,9.36794,-50.0959
112,-692,9.49451,50.0176,0.009383,0.0179197,-0.00139204,0.0181409,0.00916174,-1.41317,0.0104738,0.0464512,1336,1716,9.49456,-50.0176
119,-692,9.45532,49.8286,0.0106742,0.0141744,-0.00180511,0.0149385,0.00991011,-1.17036,0.00877693,0.0378185,1343,1716,9.45532,-49.8286
126,-692,9.52441,49.7267,0.0121373,0.0104838,-0.00208957,0.0135577,0.00906333,-0.597019,0.00797432,0.0395265,1350,1716,9.52436,-49.7266
133,-692,9.6897,49.6467,0.0117061,0.0112427,-0.00237644,0.0138621,0.00908669,-0.736798,0.00813129,0.0321468,1357,1716,9.68967,-49.6467
140,-692,9.65308,49.6672,0.0114213,0.0113424,-0.00252201,0.0139042,0.00885953,-0.777577,0.00812767,0.0356773,1364,1716,9.65311,-49.6673
147,-692,9.67627,49.6609,0.0112591,0.0113336,-0.00217141,0.0134681,0.00912462,-0.79397,0.00793744,0.0391717,1371,1716,9.6763,-49.6609
154,-692,9.68445,49.4561,0.0112402,0.0111126,-0.00170497,0.0128825,0.0094702,-0.766701,0.00770697,0.0347621,1378,1716,9.68451,-49.456
161,-692,9.91223,49.2848,0.0108139,0.01088,-0.00129723,0.0121446,0.00954927,-0.798137,0.00738489,0.0425256,1385,1716,9.91227,-49.2848
168,-692,9.88684,49.0857,0,0,0,0,0,0,0,-1,1392,1716,9.88683,-49.0857
175,-692,10.0029,48.9171,0,0,0,0,0,0,0,-1,1399,1716,10.003,-48.9171
182,-692,9.95935,48.6469,0,0,0,0,0,0,0,-1,1406,1716,9.95938,-48.6469
189,-692,9.93701,48.4066,0,0,0,0,0,0,0,-1,1413,1716,9.93701,-48.4067
196,-692,9.98474,48.1583,0.00613336,0.00329107,0.00248612,0.00757586,0.00184857,0.525749,0.00456101,0.0376606,1420,1716,9.98468,-48.1583
203,-692,10.0239,47.928,0.00518124,0.00159321,0.00196306,0.00604657,0.000727889,0.415181,0.00381165,0.0255686,1427,1716,10.0239,-47.9279
210,-692,10.1213,47.6951,0.00438001,0.00121055,0.00182237,0.00521031,0.000380244,0.427517,0.00335399,0.0205593,1434,1716,10.1214,-47.6951
217,-692,10.0886,47.3983,0.003616,0.000867419,0.00126451,0.00410924,0.000374183,0.371909,0.00262367,0.0177153,1441,1716,10.0887,-47.3983
224,-692,10.1017,47.1458,0.00332027,0.000934201,0.000942153,0.00364743,0.000607043,0.334218,0.00225665,0.0144755,1448,1716,10.1016,-47.1458
231,-692,10.1124,46.8718,0.00308937,0.00111291,0.000406208,0.0031696,0.00103268,0.194996,0.00186662,0.0124962,1455,1716,10.1125,-46.8718
238,-692,10.1157,46.5275,0.00276882,0.00129133,6.97624e-05,0.00277211,0.00128804,0.0470772,0.00160181,0.0182062,1462,1716,10.1158,-46.5275
245,-692,10.1248,46.2079,0.00247684,0.0013525,-0.000205635,0.00251327,0.00131607,-0.175335,0.00145158,0.0199791,1469,1716,10.1247,-46.2079
252,-692,10.1406,45.9557,0.00219896,0.00145697,-0.000528573,0.00247374,0.00118219,-0.479403,0.00142868,0.0169297,1476,1716,10.1406,-45.9556
259,-692,10.1586,45.634,0.00186638,0.00143313,-0.000820282,0.00249816,0.000801349,-0.656303,0.00147287,0.0098029,1483,1716,10.1585,-45.634
266,-692,10.1481,45.295,0.0015159,0.00133303,-0.00101909,0.00244765,0.000401281,-0.740658,0.00151582,0.0103562,1490,1716,10.148,-45.2951
273,-692,10.1462,44.9349,0.00116814,0.00128332,-0.00111519,0.0023424,0.000109057,-0.811198,0.00152655,0.0149356,1497,1716,10.1463,-44.935
280,-692,10.1649,44.5743,0.000771976,0.00116098,-0.00119729,0.00217947,-0.00024651,-0.865921,0.00154173,0.0144854,1504,1716,10.1649,-44.5744
287,-692,10.1536,44.2395,0.000400956,0.0011584,-0.00124579,0.00208176,-0.000522405,-0.932961,0.00159083,0.0113585,1511,1716,10.1536,-44.2395
294,-692,10.1482,43.8817,4.96955e-05,0.00104762,-0.00130013,0.00194124,-0.000843928,-0.968621,0.00164909,0.011013,1518,1716,10.1482,-43.8817
301,-692,10.175,43.502,-2.79742e-05,0.000950256,-0.00136285,0.00190911,-0.000986826,-0.957684,0.0017,0.0138123,1525,1716,10.1751,-43.502
308,-692,10.1337,43.1246,-2.4507e-06,0.00097332,-0.00172234,0.00227554,-0.00130467,-0.923417,0.00209222,0.0178428,1532,1716,10.1336,-43.1246
315,-692,10.1213,42.7301,-0.000309836,0.0010656,-0.00186944,0.0023698,-0.00161404,-0.961652,0.00231383,0.0165904,1539,1716,10.1213,-42.7301
322,-692,10.0728,42.3022,-0.000344162,0.00114897,-0.00218068,0.00270734,-0.00190253,-0.950322,0.002675,0.0220413,1546,1716,10.0728,-42.3023
329,-692,10.035,41.8673,-0.000524827,0.000836442,-0.00233954,0.00259234,-0.00228073,-0.926954,0.00281538,0.0200338,1553,1716,10.035,-41.8674
336,-692,10.0333,41.4491,-0.000641911,0.000230386,-0.00233804,0.00217261,-0.00258414,-0.87761,0.00274974,0.0129293,1560,1716,10.0334,-41.4491
343,-692,10.0114,41.0731,-0.000920264,-0.000190537,-0.0026367,0.00210642,-0.00321722,-0.854151,0.00309583,0.0135795,1567,1716,10.0113,-41.0731
350,-692,9.97791,40.6747,-0.00151436,-0.000504742,-0.0026064,0.00164528,-0.00366438,-0.881054,0.00313855,0.0191496,1574,1716,9.97796,-40.6747
357,-692,9.91516,40.1667,-0.00214122,-0.000681361,-0.00260357,0.00129266,-0.00411525,-0.922068,0.00326094,0.0286767,1581,1716,9.91515,-40.1667
364,-692,9.83582,39.5958,-0.00317639,-0.00110227,-0.00234038,0.000420529,-0.00469919,-0.993956,0.00328196,0.0320423,1588,1716,9.83583,-39.5958
371,-692,9.80798,39.5056,0,0,0,0,0,0,0,-1,1595,1716,9.808,-39.5056
378,-692,9.60205,39.1971,-0.00624298,-0.00140358,-0.00130464,-0.00107427,-0.00657228,-1.32355,0.00407096,0.0477694,1602,1716,9.602,-39.1972
385,-692,9.31848,38.718,-0.00847732,-0.00147377,-0.000324258,-0.00145879,-0.0084923,-1.52463,0.00524335,0.0480101,1609,1716,9.31845,-38.718
392,-692,10.3348,37.6642,0,0,0,0,0,0,0,-1,1616,1716,10.3348,-37.6642
399,-692,9.42029,36.994,0,0,0,0,0,0,0,-1,1623,1716,9.42024,-36.994
406,-692,9.92395,36.5703,0,0,0,0,0,0,0,-1,1630,1716,9.92394,-36.5703
413,-692,10.4065,36.108,0,0,0,0,0,0,0,-1,1637,1716,10.4066,-36.1081
420,-692,5.48901,10.4845,0,0,0,0,0,0,0,-1,1644,1716,5.48906,-10.4845
427,-692,3.79578,8.60339,0,0,0,0,0,0,0,-1,1651,1716,3.79577,-8.6034
434,-692,4.78516,8.64636,0,0,0,0,0,0,0,-1,1658,1716,4.78512,-8.64634
441,-692,5.8208,8.74036,0,0,0,0,0,0,0,-1,1665,1716,5.82084,-8.7404
448,-692,6.73792,8.51013,0,0,0,0,0,0,0,-1,1672,1716,6.73793,-8.5101
455,-692,0,0,0,0,0,0,0,0,0,-1,1679,1716,0,0
462,-692,0,0,0,0,0,0,0,0,0,-1,1686,1716,0,0
469,-692,0,0,0,0,0,0,0,0,0,-1,1693,1716,0,0
476,-692,0,0,0,0,0,0,0,0,0,-1,1700,1716,0,0
483,-692,0,0,0,0,0,0,0,0,0,-1,1707,1716,0,0
490,-692,0,0,0,0,0,0,0,0,0,-1,1714,1716,0,0
497,-692,0,0,0,0,0,0,0,0,0,-1,1721,1716,0,0
504,-692,0,0,0,0,0,0,0,0,0,-1,1728,1716,0,0
511,-692,0,0,0,0,0,0,0,0,0,-1,1735,1716,0,0
518,-692,0,0,0,0,0,0,0,0,0,-1,1742,1716,0,0
525,-692,0,0,0,0,0,0,0,0,0,-1,1749,1716,0,0
532,-692,0,0,0,0,0,0,0,0,0,-1,1756,1716,0,0
539,-692,0,0,0,0,0,0,0,0,0,-1,1763,1716,0,0
546,-692,0,0,0,0,0,0,0,0,0,-1,1770,1716,0,0
553,-692,0,0,0,0,0,0,0,0,0,-1,1777,1716,0,0
560,-692,0,0,0,0,0,0,0,0,0,-1,1784,1716,0,0
567,-692,0,0,0,0,0,0,0,0,0,-1,1791,1716,0,0
574,-692,0,0,0,0,0,0,0,0,0,-1,1798,1716,0,0
581,-692,0,0,0,0,0,0,0,0,0,-1,1805,1716,0,0
588,-692,0,0,0,0,0,0,0,0,0,-1,1812,1716,0,0
595,-692,0,0,0,0,0,0,0,0,0,-1,1819,1716,0,0
602,-692,0,0,0,0,0,0,0,0,0,-1,1826,1716,0,0
609,-692,0,0,0,0,0,0,0,0,0,-1,1833,1716,0,0
616,-692,0,0,0,0,0,0,0,0,0,-1,1840,1716,0,0
623,-692,0,0,0,0,0,0,0,0,0,-1,1847,1716,0,0
630,-692,0,0,0,0,0,0,0,0,0,-1,1854,1716,0,0
637,-692,0,0,0,0,0,0,0,0,0,-1,1861,1716,0,0
644,-692,0,0,0,0,0,0,0,0,0,-1,1868,1716,0,0
651,-692,0,0,0,0,0,0,0,0,0,-1,1875,1716,0,0
658,-692,0,0,0,0,0,0,0,0,0,-1,1882,1716,0,0
665,-692,0,0,0,0,0,0,0,0,0,-1,1889,1716,0,0
672,-692,0,0,0,0,0,0,0,0,0,-1,1896,1716,0,0
679,-692,0,0,0,0,0,0,0,0,0,-1,1903,1716,0,0
686,-692,0,0,0,0,0,0,0,0,0,-1,1910,1716,0,0
693,-692,0,0,0,0,0,0,0,0,0,-1,1917,1716,0,0
700,-692,0,0,0,0,0,0,0,0,0,-1,1924,1716,0,0
707,-692,0,0,0,0,0,0,0,0,0,-1,1931,1716,0,0
714,-692,0,0,0,0,0,0,0,0,0,-1,1938,1716,0,0
721,-692,0,0,0,0,0,0,0,0,0,-1,1945,1716,0,0
728,-692,0,0,0,0,0,0,0,0,0,-1,1952,1716,0,0
735,-692,0,0,0,0,0,0,0,0,0,-1,1959,1716,0,0
742,-692,0,0,0,0,0,0,0,0,0,-1,1966,1716,0,0
749,-692,0,0,0,0,0,0,0,0,0,-1,1973,1716,0,0
756,-692,0,0,0,0,0,0,0,0,0,-1,1980,1716,0,0
763,-692,0,0,0,0,0,0,0,0,0,-1,1987,1716,0,0
770,-692,0,0,0,0,0,0,0,0,0,-1,1994,1716,0,0
777,-692,0,0,0,0,0,0,0,0,0,-1,2001,1716,0,0
784,-692,0,0,0,0,0,0,0,0,0,-1,2008,1716,0,0
791,-692,0,0,0,0,0,0,0,0,0,-1,2015,1716,0,0
798,-692,0,0,0,0,0,0,0,0,0,-1,2022,1716,0,0
805,-692,0,0,0,0,0,0,0,0,0,-1,2029,1716,0,0
812,-692,0,0,0,0,0,0,0,0,0,-1,2036,1716,0,0
-700,-699,0,0,0,0,0,0,0,0,0,-1,524,1723,0,0
-693,-699,0,0,0,0,0,0,0,0,0,-1,531,1723,0,0
-686,-699,0,0,0,0,0,0,0,0,0,-1,538,1723,0,0
-679,-699,0,0,0,0,0,0,0,0,0,-1,545,1723,0,0
-672,-699,0,0,0,0,0,0,0,0,0,-1,552,1723,0,0
-665,-699,0,0,0,0,0,0,0,0,0,-1,559,1723,0,0
-658,-699,0,0,0,0,0,0,0,0,0,-1,566,1723,0,0
-651,-699,0,0,0,0,0,0,0,0,0,-1,573,1723,0,0
-644,-699,0,0,0,0,0,0,0,0,0,-1,580,1723,0,0
-637,-699,0,0,0,0,0,0,0,0,0,-1,587,1723,0,0
-630,-699,0,0,0,0,0,0,0,0,0,-1,594,1723,0,0
-623,-699,0,0,0,0,0,0,0,0,0,-1,601,1723,0,0
-616,-699,0,0,0,0,0,0,0,0,0,-1,608,1723,0,0
-609,-699,0,0,0,0,0,0,0,0,0,-1,615,1723,0,0
-602,-699,0,0,0,0,0,0,0,0,0,-1,622,1723,0,0
-595,-699,0,0,0,0,0,0,0,0,0,-1,629,1723,0,0
-588,-699,0,0,0,0,0,0,0,0,0,-1,636,1723,0,0
-581,-699,0,0,0,0,0,0,0,0,0,-1,643,1723,0,0
-574,-699,0,0,0,0,0,0,0,0,0,-1,650,1723,0,0
-567,-699,0,0,0,0,0,0,0,0,0,-1,657,1723,0,0
-560,-699,0,0,0,0,0,0,0,0,0,-1,664,1723,0,0
-553,-699,0,0,0,0,0,0,0,0,0,-1,671,1723,0,0
-546,-699,0,0,0,0,0,0,0,0,0,-1,678,1723,0,0
-539,-699,0,0,0,0,0,0,0,0,0,-1,685,1723,0,0
-532,-699,0,0,0,0,0,0,0,0,0,-1,692,1723,0,0
-525,-699,0,0,0,0,0,0,0,0,0,-1,699,1723,0,0
-518,-699,0,0,0,0,0,0,0,0,0,-1,706,1723,0,0
-511,-699,0,0,0,0,0,0,0,0,0,-1,713,1723,0,0
-504,-699,0,0,0,0,0,0,0,0,0,-1,720,1723,0,0
-497,-699,0,0,0,0,0,0,0,0,0,-1,727,1723,0,0
-490,-699,0,0,0,0,0,0,0,0,0,-1,734,1723,0,0
-483,-699,0,0,0,0,0,0,0,0,0,-1,741,1723,0,0
-476,-699,0,0,0,0,0,0,0,0,0,-1,748,1723,0,0
-469,-699,0,0,0,0,0,0,0,0,0,-1,755,1723,0,0
-462,-699,0,0,0,0,0,0,0,0,0,-1,762,1723,0,0
-455,-699,0,0,0,0,0,0,0,0,0,-1,769,1723,0,0
-448,-699,0,0,0,0,0,0,0,0,0,-1,776,1723,0,0
-441,-699,0,0,0,0,0,0,0,0,0,-1,783,1723,0,0
-434,-699,0,0,0,0,0,0,0,0,0,-1,790,1723,0,0
-427,-699,0,0,0,0,0,0,0,0,0,-1,797,1723,0,0
-420,-699,0,0,0,0,0,0,0,0,0,-1,804,1723,0,0
-413,-699,0,0,0,0,0,0,0,0,0,-1,811,1723,0,0
-406,-699,0,0,0,0,0,0,0,0,0,-1,818,1723,0,0
-399,-699,0,0,0,0,0,0,0,0,0,-1,825,1723,0,0
-392,-699,0,0,0,0,0,0,0,0,0,-1,832,1723,0,0
-385,-699,0,0,0,0,0,0,0,0,0,-1,839,1723,0,0
-378,-699,0,0,0,0,0,0,0,0,0,-1,846,1723,0,0
-371,-699,0,0,0,0,0,0,0,0,0,-1,853,1723,0,0
-364,-699,0,0,0,0,0,0,0,0,0,-1,860,1723,0,0
-357,-699,0,0,0,0,0,0,0,0,0,-1,867,1723,0,0
-350,-699,0,0,0,0,0,0,0,0,0,-1,874,1723,0,0
-343,-699,0,0,0,0,0,0,0,0,0,-1,881,1723,0,0
-336,-699,0,0,0,0,0,0,0,0,0,-1,888,1723,0,0
-329,-699,0,0,0,0,0,0,0,0,0,-1,895,1723,0,0
-322,-699,0,0,0,0,0,0,0,0,0,-1,902,1723,0,0
-315,-699,6.20001,19.5193,0,0,0,0,0,0,0,-1,909,1723,6.20001,-19.5193
-308,-699,6.98151,18.9218,0,0,0,0,0,0,0,-1,916,1723,6.98151,-18.9217
-301,-699,4.72729,12.8752,0,0,0,0,0,0,0,-1,923,1723,4.72732,-12.8752
-294,-699,6.90332,19.8601,0,0,0,0,0,0,0,-1,930,1723,6.90332,-19.8601
-287,-699,9.0968,36.3315,0,0,0,0,0,0,0,-1,937,1723,9.09678,-36.3315
-280,-699,9.30219,35.7897,0,0,0,0,0,0,0,-1,944,1723,9.30221,-35.7896
-273,-699,10.2987,33.8755,0,0,0,0,0,0,0,-1,951,1723,10.2987,-33.8755
-266,-699,6.81915,20.8951,0,0,0,0,0,0,0,-1,958,1723,6.81914,-20.8952
-259,-699,5.39758,14.5466,0,0,0,0,0,0,0,-1,965,1723,5.39759,-14.5466
-252,-699,8.3866,31.6284,0,0,0,0,0,0,0,-1,972,1723,8.38657,-31.6284
-245,-699,8.21429,38.437,0,0,0,0,0,0,0,-1,979,1723,8.21432,-38.437
-238,-699,8.3385,39.3,0,0,0,0,0,0,0,-1,986,1723,8.33852,-39.3
-231,-699,8.20337,39.9088,-0.000418869,-0.00384159,0.00327811,0.00156771,-0.00582817,0.54483,0.00449998,0.0429192,993,1723,8.20336,-39.9088
-224,-699,8.23669,40.2377,0.001003,-0.00593746,0.00138309,0.00126846,-0.00620293,0.189631,0.00461657,0.038062,1000,1723,8.2367,-40.2376
-217,-699,8.23999,40.5767,0.000693121,-0.00773503,0.000209459,0.000698323,-0.00774023,0.0248319,0.00540798,0.0251189,1007,1723,8.24001,-40.5767
-210,-699,8.24841,41.0288,0.000915149,-0.00915128,-0.000428088,0.000933321,-0.00916946,-0.0424242,0.00644664,0.0156138,1014,1723,8.24843,-41.0289
-203,-699,8.20251,41.4979,0.00100895,-0.0099825,-0.00100762,0.00110056,-0.0100741,-0.0906661,0.00711137,0.0198848,1021,1723,8.20249,-41.4979
-196,-699,8.17261,41.9465,0.00111689,-0.0104418,-0.00154614,0.00132013,-0.010645,-0.130704,0.00757517,0.0181803,1028,1723,8.17264,-41.9465
-189,-699,8.10303,42.3658,0.00118468,-0.0102792,-0.00205887,0.00154323,-0.0106377,-0.172421,0.00765824,0.00951664,1035,1723,8.10299,-42.3658
-182,-699,8.05347,42.7759,0.0011857,-0.00942262,-0.00230638,0.00166544,-0.00990236,-0.205081,0.00722103,0.0125067,1042,1723,8.05345,-42.7759
-175,-699,8.04761,43.2135,0.00112226,-0.00799918,-0.00232203,0.00167935,-0.00855627,-0.235465,0.00633856,0.0147208,1049,1723,8.04761,-43.2135
-168,-699,8.05078,43.5956,0.000964857,-0.00631181,-0.00204226,0.00149885,-0.0068458,-0.255745,0.00513689,0.0155453,1056,1723,8.05082,-43.5956
-161,-699,8.01624,43.9636,0.000629602,-0.00452878,-0.00168179,0.00112947,-0.00502865,-0.288911,0.00378552,0.013793,1063,1723,8.01629,-43.9636
-154,-699,7.9801,44.3524,0.000406504,-0.00280955,-0.00119125,0.000799683,-0.00320273,-0.318798,0.00244569,0.014079,1070,1723,7.98011,-44.3524
-147,-699,7.97168,44.719,0.000343948,-0.00111544,-0.00067905,0.00061103,-0.00138252,-0.374733,0.00117935,0.0150911,1077,1723,7.97165,-44.719
-140,-699,7.95032,45.0664,0.000410711,0.000219795,-0.000266297,0.000598142,3.2364e-05,-0.6133,0.000388423,0.0102356,1084,1723,7.95037,-45.0665
-133,-699,7.95154,45.4344,0.000649168,0.00161175,0.000122656,0.00162714,0.000633784,1.44603,0.000947043,0.00956632,1091,1723,7.95149,-45.4344
-126,-699,7.95679,45.762,0.000662224,0.00237806,0.000423004,0.00247667,0.000563609,1.34176,0.00149899,0.0121063,1098,1723,7.9568,-45.7619
-119,-699,7.95337,46.0978,0.00100595,0.0024101,0.000768943,0.00274927,0.000666784,1.15539,0.00165595,0.0171097,1105,1723,7.95336,-46.0978
-112,-699,7.92004,46.4012,0.00166387,0.00230736,0.000771759,0.00282176,0.00114947,0.982894,0.00163844,0.0122852,1112,1723,7.92006,-46.4013
-105,-699,7.92578,46.7118,0.00215698,0.00199204,0.00060237,0.0026825,0.00146652,0.717365,0.00155099,0.0134509,1119,1723,7.92576,-46.7118
-98,-699,7.98157,47.022,0.0025856,0.00165801,0.000362908,0.00271071,0.0015329,0.331981,0.0015695,0.0154776,1126,1723,7.98163,-47.022
-91,-699,7.98218,47.2992,0.00300345,0.00127401,5.11838e-05,0.00300496,0.0012725,0.0295612,0.00174168,0.0217472,1133,1723,7.98212,-47.2992
-84,-699,7.9939,47.5663,0.0033886,0.000975703,-0.000301486,0.0034257,0.000938603,-0.12244,0.00204407,0.0264904,1140,1723,7.99392,-47.5663
-77,-699,8.02209,47.8328,0.00366232,0.000539582,-0.00067817,0.00380324,0.000398662,-0.204879,0.00241361,0.0171873,1147,1723,8.02215,-47.8328
-70,-699,8.03662,48.0719,0.00371927,-7.98488e-05,-0.00102954,0.00398033,-0.000340911,-0.248337,0.00277418,0.0179612,1154,1723,8.03658,-48.0719
-63,-699,8.0531,48.3093,0.00375236,0.000150841,0.000160438,0.0037595,0.000143708,0.0444299,0.00245983,0.0152991,1161,1723,8.05312,-48.3093
-56,-699,8.05688,48.5415,0.0038165,0.00240737,0.000683338,0.00409344,0.00213042,0.385052,0.00236401,0.011205,1168,1723,8.05692,-48.5415
-49,-699,8.0542,48.7815,0.0036959,0.00214912,0.000993579,0.00418161,0.00166341,0.454686,0.00243101,0.0249754,1175,1723,8.05415,-48.7815
-42,-699,8.10278,49.001,0.00356505,0.00145017,0.00183191,0.00462282,0.000392411,0.523643,0.00295976,0.0284424,1182,1723,8.10277,-49.001
-35,-699,8.13635,49.181,0.00379787,0.00164244,0.00296531,0.00587524,-0.000434926,0.611098,0.00406955,0.0268931,1189,1723,8.13637,-49.1811
-28,-699,8.23718,49.3389,0.00378848,0.00230969,0.00220043,0.00537042,0.000727751,0.623314,0.00336404,0.021593,1196,1723,8.23712,-49.3389
-21,-699,8.27051,49.4313,0.00351657,0.0024229,0.00226143,0.00529634,0.000643133,0.666771,0.00333724,0.0148132,1203,1723,8.27056,-49.4312
-14,-699,8.28247,49.6046,0.0039077,0.00225541,0.00237119,0.00559255,0.000570572,0.617769,0.00355348,0.0129506,1210,1723,8.28243,-49.6046
-7,-699,8.31958,49.7654,0.0049042,0.00204973,0.00190289,0.00585561,0.00109832,0.463637,0.00359402,0.00956639,1217,1723,8.31955,-49.7654
0,-699,8.38171,49.8835,0.00595934,0.00204248,0.00150955,0.0064736,0.00152822,0.328338,0.00390725,0.0105742,1224,1723,8.38171,-49.8836
7,-699,8.4469,49.9857,0.00706654,0.00210907,0.000926345,0.00723398,0.00194163,0.178823,0.00432331,0.016619,1231,1723,8.44684,-49.9858
14,-699,8.51794,50.0815,0.00793682,0.00187928,0.000286276,0.00795032,0.00186578,0.0471194,0.0048007,0.0187314,1238,1723,8.51795,-50.0815
21,-699,8.57715,50.1267,0.0084092,0.00195718,-0.000564168,0.00845816,0.00190822,-0.0865651,0.00512258,0.0179768,1245,1723,8.5772,-50.1267
28,-699,8.60278,50.1885,0.00925776,0.00180654,-0.001295,0.00947641,0.00158789,-0.167264,0.00586046,0.0176951,1252,1723,8.60278,-50.1884
35,-699,8.65869,50.2667,0.00989574,0.00155291,-0.00200085,0.0103508,0.00109787,-0.22362,0.00656524,0.0147378,1259,1723,8.65865,-50.2667
42,-699,8.73352,50.3462,0.010259,0.00106989,-0.00269879,0.010993,0.000335901,-0.265547,0.0072193,0.0132908,1266,1723,8.73357,-50.3463
49,-699,8.80957,50.4248,0.0100281,0.000237389,-0.00310193,0.0109281,-0.000662641,-0.282398,0.00751601,0.0156101,1273,1723,8.80963,-50.4248
56,-699,8.89026,50.4592,0.00967987,-9.50776e-05,-0.00323162,0.0106516,-0.00106685,-0.292105,0.00748211,0.0166346,1280,1723,8.89024,-50.4592
63,-699,8.92017,50.4152,0.00919501,-0.000236301,-0.00338116,0.0102819,-0.0013232,-0.311025,0.00733556,0.0152872,1287,1723,8.92021,-50.4151
70,-699,8.95166,50.3969,0.00831305,-0.000436673,-0.00352256,0.00955494,-0.00167856,-0.338946,0.00699692,0.0127524,1294,1723,8.95172,-50.3969
77,-699,9.00891,50.3885,0.00759204,-0.00106071,-0.00276589,0.0084006,-0.00186928,-0.284411,0.00631638,0.012226,1301,1723,9.00892,-50.3885
84,-699,9.05713,50.3546,0.00724289,-0.00102251,-0.00263911,0.00801367,-0.00179329,-0.284157,0.00602977,0.0149971,1308,1723,9.05713,-50.3547
91,-699,9.12109,50.2827,0.00630944,-0.00026605,-0.00250191,0.00715314,-0.00110975,-0.325246,0.00517847,0.0142525,1315,1723,9.12113,-50.2827
98,-699,9.1958,50.2354,0.00523767,0.000572896,-0.00183037,0.00587013,-5.95597e-05,-0.332691,0.00393342,0.0119488,1322,1723,9.19586,-50.2353
105,-699,9.23755,50.2072,0.00500139,0.00128977,-0.00163414,0.00561832,0.00067284,-0.360983,0.00354263,0.0166009,1329,1723,9.2376,-50.2072
112,-699,9.30151,50.1427,0.00538778,0.00194506,-0.0012769,0.00580968,0.00152316,-0.319115,0.0034784,0.0223977,1336,1723,9.30157,-50.1427
119,-699,9.29749,50.0144,0.00619711,0.00294631,-0.00106281,0.00651375,0.00262968,-0.289549,0.00378389,0.0167234,1343,1723,9.29748,-50.0145
126,-699,9.39465,49.8899,0.00715975,0.00338096,-0.000630267,0.0072621,0.00327861,-0.160987,0.00419936,0.0179099,1350,1723,9.3947,-49.8899
133,-699,9.49707,49.7996,0.0069537,0.00421274,-0.00046704,0.00703109,0.00413534,-0.164221,0.00408038,0.0169286,1357,1723,9.49703,-49.7995
140,-699,9.50708,49.6687,0.00690166,0.00487015,-0.000343395,0.00695813,0.00481368,-0.163003,0.00411463,0.019094,1364,1723,9.50704,-49.6687
147,-699,9.53198,49.5553,0.00677111,0.0053021,-0.000167394,0.00678995,0.00528326,-0.112036,0.00411734,0.0147868,1371,1723,9.53194,-49.5553
154,-699,9.54773,49.3975,0.00689639,0.00561335,9.39678e-05,0.00690323,0.00560651,0.0727214,0.00423659,0.0150084,1378,1723,9.54769,-49.3974
161,-699,9.59521,49.183,0.00661753,0.00563812,0.000296126,0.0067001,0.00555555,0.271936,0.00413832,0.0113614,1385,1723,9.59522,-49.183
168,-699,9.63916,49.0361,0.0061007,0.00519031,0.000612252,0.00640843,0.00488258,0.465741,0.0038654,0.0123372,1392,1723,9.6392,-49.0361
175,-699,9.67407,48.903,0.00586966,0.00429968,0.00103021,0.00637987,0.00378948,0.459838,0.00370504,0.0168671,1399,1723,9.67411,-48.9029
182,-699,9.71558,48.6603,0.0054805,0.00376761,0.00155751,0.00640151,0.00284661,0.534022,0.00370345,0.01768,1406,1723,9.71558,-48.6603
189,-699,9.70837,48.4087,0.00480913,0.0028817,0.00177941,0.00586904,0.00182179,0.537216,0.00346874,0.0169809,1413,1723,9.70839,-48.4087
196,-699,9.73486,48.1647,0.00423623,0.00213638,0.00167022,0.00515912,0.00121349,0.504802,0.00311473,0.0171366,1420,1723,9.73487,-48.1647
203,-699,9.75757,47.9387,0.00373317,0.00134126,0.00120952,0.00423817,0.00083626,0.395519,0.00259206,0.0139569,1427,1723,9.75754,-47.9387
210,-699,9.79028,47.6956,0.00311123,0.00110267,0.00106085,0.00356776,0.00064614,0.406391,0.00219506,0.0140631,1434,1723,9.79022,-47.6956
217,-699,9.79602,47.42,0.00249689,0.000904192,0.000624122,0.00271233,0.000688761,0.33237,0.00162794,0.0146168,1441,1723,9.79608,-47.42
224,-699,9.80371,47.1503,0.00219991,0.000969239,0.00031699,0.00227676,0.000892389,0.237846,0.00132468,0.0162531,1448,1723,9.80368,-47.1503
231,-699,9.83911,46.8645,0.00190815,0.00106363,-8.97888e-05,0.00191759,0.00105419,-0.104759,0.00110894,0.0132552,1455,1723,9.83917,-46.8645
238,-699,9.81042,46.5598,0.00159717,0.00115721,-0.000389571,0.00182458,0.000929804,-0.528381,0.00105349,0.0108014,1462,1723,9.81039,-46.5598
245,-699,9.80017,46.2588,0.0013143,0.00119496,-0.000657395,0.00191473,0.000594535,-0.740139,0.00113162,0.0117964,1469,1723,9.80014,-46.2588
252,-699,9.81104,45.9576,0.000999414,0.00122212,-0.000929941,0.00204735,0.000174182,-0.844985,0.0013107,0.0101876,1476,1723,9.81098,-45.9577
259,-699,9.80627,45.6479,0.000624591,0.00114196,-0.0011471,0.00205918,-0.000292637,-0.896298,0.00148001,0.0107923,1483,1723,9.80621,-45.648
266,-699,9.78894,45.3119,0.000251055,0.000969236,-0.00128809,0.00194736,-0.000727065,-0.921335,0.00159676,0.0126254,1490,1723,9.78899,-45.3119
273,-699,9.78284,44.9379,-0.000122503,0.000815236,-0.00136001,0.00178493,-0.0010922,-0.951395,0.00167709,0.0116651,1497,1723,9.78284,-44.9379
280,-699,9.80591,44.5681,-0.000516689,0.0006672,-0.00144263,0.00163461,-0.0014841,-0.980084,0.00180129,0.012377,1504,1723,9.80592,-44.5681
287,-699,9.79114,44.203,-0.000875229,0.000732272,-0.00150417,0.00163397,-0.00177693,-1.03077,0.00196986,0.0106786,1511,1723,9.7912,-44.203
294,-699,9.78711,43.859,-0.00120885,0.000650715,-0.00157439,0.00154937,-0.00210751,-1.05213,0.00211948,0.0108875,1518,1723,9.7871,-43.859
301,-699,9.79065,43.5128,-0.00111798,0.000658681,-0.00166599,0.00165838,-0.00211768,-1.03033,0.00218548,0.0123835,1525,1723,9.79068,-43.5128
308,-699,9.76733,43.1292,-0.000879232,0.000785484,-0.00214577,0.00225468,-0.00234843,-0.970417,0.00265779,0.0172498,1532,1723,9.76737,-43.1291
315,-699,9.74915,42.7197,-0.00109715,0.00105832,-0.00235182,0.00256758,-0.00260641,-1.00025,0.00298724,0.0207493,1539,1723,9.74913,-42.7197
322,-699,9.67847,42.3129,-0.000914376,0.00136901,-0.00279415,0.00324572,-0.00279108,-0.979348,0.00348864,0.0224384,1546,1723,9.67852,-42.3129
329,-699,9.62012,41.9008,-0.000892662,0.00121075,-0.0030378,0.00337375,-0.00305566,-0.952044,0.00371353,0.0189039,1553,1723,9.62015,-41.9008
336,-699,9.63037,41.5247,-0.000770901,0.000710689,-0.00314711,0.00320301,-0.00326322,-0.900989,0.00373334,0.0219992,1560,1723,9.63032,-41.5246
343,-699,9.69653,41.1445,-0.00089174,0.000340049,-0.00356135,0.00333837,-0.00389006,-0.87102,0.00417739,0.032315,1567,1723,9.69654,-41.1445
350,-699,9.63843,40.6394,-0.00141372,-1.57576e-05,-0.00354975,0.00290317,-0.00433266,-0.88261,0.0042047,0.0483578,1574,1723,9.63849,-40.6394
357,-699,9.66626,39.9973,-0.00198765,-0.000277999,-0.003542,0.00251086,-0.00477651,-0.903804,0.00427461,0.0491754,1581,1723,9.66623,-39.9973
364,-699,9.20398,39.6322,-0.00311225,-0.000830051,-0.00326028,0.00148306,-0.00542536,-0.953736,0.00419947,0.0443039,1588,1723,9.20399,-39.6321
371,-699,9.12292,39.1633,0,0,0,0,0,0,0,-1,1595,1723,9.12294,-39.1633
378,-699,8.74976,39.6765,0,0,0,0,0,0,0,-1,1602,1723,8.74973,-39.6765
385,-699,8.61072,39.2738,0,0,0,0,0,0,0,-1,1609,1723,8.61071,-39.2738
392,-699,8.42163,38.2385,0,0,0,0,0,0,0,-1,1616,1723,8.42168,-38.2385
399,-699,10.7629,36.4283,0,0,0,0,0,0,0,-1,1623,1723,10.763,-36.4284
406,-699,9.66284,36.5403,0,0,0,0,0,0,0,-1,1630,1723,9.66288,-36.5403
413,-699,9.31396,23.2781,0,0,0,0,0,0,0,-1,1637,1723,9.31396,-23.278
420,-699,2.15076,7.65527,0,0,0,0,0,0,0,-1,1644,1723,2.15079,-7.65522
427,-699,3.36328,8.2428,0,0,0,0,0,0,0,-1,1651,1723,3.36332,-8.24283
434,-699,4.66455,8.90222,0,0,0,0,0,0,0,-1,1658,1723,4.66456,-8.90223
441,-699,0,0,0,0,0,0,0,0,0,-1,1665,1723,0,0
448,-699,0,0,0,0,0,0,0,0,0,-1,1672,1723,0,0
455,-699,0,0,0,0,0,0,0,0,0,-1,1679,1723,0,0
462,-699,0,0,0,0,0,0,0,0,0,-1,1686,1723,0,0
469,-699,0,0,0,0,0,0,0,0,0,-1,1693,1723,0,0
476,-699,0,0,0,0,0,0,0,0,0,-1,1700,1723,0,0
483,-699,0,0,0,0,0,0,0,0,0,-1,1707,1723,0,0
490,-699,0,0,0,0,0,0,0,0,0,-1,1714,1723,0,0
497,-699,0,0,0,0,0,0,0,0,0,-1,1721,1723,0,0
504,-699,0,0,0,0,0,0,0,0,0,-1,1728,1723,0,0
511,-699,0,0,0,0,0,0,0,0,0,-1,1735,1723,0,0
518,-699,0,0,0,0,0,0,0,0,0,-1,1742,1723,0,0
525,-699,0,0,0,0,0,0,0,0,0,-1,1749,1723,0,0
532,-699,0,0,0,0,0,0,0,0,0,-1,1756,1723,0,0
539,-699,0,0,0,0,0,0,0,0,0,-1,1763,1723,0,0
546,-699,0,0,0,0,0,0,0,0,0,-1,1770,1723,0,0
553,-699,0,0,0,0,0,0,0,0,0,-1,1777,1723,0,0
560,-699,0,0,0,0,0,0,0,0,0,-1,1784,1723,0,0
567,-699,0,0,0,0,0,0,0,0,0,-1,1791,1723,0,0
574,-699,0,0,0,0,0,0,0,0,0,-1,1798,1723,0,0
581,-699,0,0,0,0,0,0,0,0,0,-1,1805,1723,0,0
588,-699,0,0,0,0,0,0,0,0,0,-1,1812,1723,0,0
595,-699,0,0,0,0,0,0,0,0,0,-1,1819,1723,0,0
602,-699,0,0,0,0,0,0,0,0,0,-1,1826,1723,0,0
609,-699,0,0,0,0,0,0,0,0,0,-1,1833,1723,0,0
616,-699,0,0,0,0,0,0,0,0,0,-1,1840,1723,0,0
623,-699,0,0,0,0,0,0,0,0,0,-1,1847,1723,0,0
630,-699,0,0,0,0,0,0,0,0,0,-1,1854,1723,0,0
637,-699,0,0,0,0,0,0,0,0,0,-1,1861,1723,0,0
644,-699,0,0,0,0,0,0,0,0,0,-1,1868,1723,0,0
651,-699,0,0,0,0,0,0,0,0,0,-1,1875,1723,0,0
658,-699,0,0,0,0,0,0,0,0,0,-1,1882,1723,0,0
665,-699,0,0,0,0,0,0,0,0,0,-1,1889,1723,0,0
672,-699,0,0,0,0,0,0,0,0,0,-1,1896,1723,0,0
679,-699,0,0,0,0,0,0,0,0,0,-1,1903,1723,0,0
686,-699,0,0,0,0,0,0,0,0,0,-1,1910,1723,0,0
693,-699,0,0,0,0,0,0,0,0,0,-1,1917,1723,0,0
700,-699,0,0,0,0,0,0,0,0,0,-1,1924,1723,0,0
707,-699,0,0,0,0,0,0,0,0,0,-1,1931,1723,0,0
714,-699,0,0,0,0,0,0,0,0,0,-1,1938,1723,0,0
721,-699,0,0,0,0,0,0,0,0,0,-1,1945,1723,0,0
728,-699,0,0,0,0,0,0,0,0,0,-1,1952,1723,0,0
735,-699,0,0,0,0,0,0,0,0,0,-1,1959,1723,0,0
742,-699,0,0,0,0,0,0,0,0,0,-1,1966,1723,0,0
749,-699,0,0,0,0,0,0,0,0,0,-1,1973,1723,0,0
756,-699,0,0,0,0,0,0,0,0,0,-1,1980,1723,0,0
763,-699,0,0,0,0,0,0,0,0,0,-1,1987,1723,0,0
770,-699,0,0,0,0,0,0,0,0,0,-1,1994,1723,0,0
777,-699,0,0,0,0,0,0,0,0,0,-1,2001,1723,0,0
784,-699,0,0,0,0,0,0,0,0,0,-1,2008,1723,0,0
791,-699,0,0,0,0,0,0,0,0,0,-1,2015,1723,0,0
798,-699,0,0,0,0,0,0,0,0,0,-1,2022,1723,0,0
805,-699,0,0,0,0,0,0,0,0,0,-1,2029,1723,0,0
812,-699,0,0,0,0,0,0,0,0,0,-1,2036,1723,0,0
-700,-706,0,0,0,0,0,0,0,0,0,-1,524,1730,0,0
-693,-706,0,0,0,0,0,0,0,0,0,-1,531,1730,0,0
-686,-706,0,0,0,0,0,0,0,0,0,-1,538,1730,0,0
-679,-706,0,0,0,0,0,0,0,0,0,-1,545,1730,0,0
-672,-706,0,0,0,0,0,0,0,0,0,-1,552,1730,0,0
-665,-706,0,0,0,0,0,0,0,0,0,-1,559,1730,0,0
-658,-706,0,0,0,0,0,0,0,0,0,-1,566,1730,0,0
-651,-706,0,0,0,0,0,0,0,0,0,-1,573,1730,0,0
-644,-706,0,0,0,0,0,0,0,0,0,-1,580,1730,0,0
-637,-706,0,0,0,0,0,0,0,0,0,-1,587,1730,0,0
-630,-706,0,0,0,0,0,0,0,0,0,-1,594,1730,0,0
-623,-706,0,0,0,0,0,0,0,0,0,-1,601,1730,0,0
-616,-706,0,0,0,0,0,0,0,0,0,-1,608,1730,0,0
-609,-706,0,0,0,0,0,0,0,0,0,-1,615,1730,0,0
-602,-706,0,0,0,0,0,0,0,0,0,-1,622,1730,0,0
-595,-706,0,0,0,0,0,0,0,0,0,-1,629,1730,0,0
-588,-706,0,0,0,0,0,0,0,0,0,-1,636,1730,0,0
-581,-706,0,0,0,0,0,0,0,0,0,-1,643,1730,0,0
-574,-706,0,0,0,0,0,0,0,0,0,-1,650,1730,0,0
-567,-706,0,0,0,0,0,0,0,0,0,-1,657,1730,0,0
-560,-706,0,0,0,0,0,0,0,0,0,-1,664,1730,0,0
-553,-706,0,0,0,0,0,0,0,0,0,-1,671,1730,0,0
-546,-706,0,0,0,0,0,0,0,0,0,-1,678,1730,0,0
-539,-706,0,0,0,0,0,0,0,0,0,-1,685,1730,0,0
-532,-706,0,0,0,0,0,0,0,0,0,-1,692,1730,0,0
-525,-706,0,0,0,0,0,0,0,0,0,-1,699,1730,0,0
-518,-706,0,0,0,0,0,0,0,0,0,-1,706,1730,0,0
-511,-706,0,0,0,0,0,0,0,0,0,-1,713,1730,0,0
-504,-706,0,0,0,0,0,0,0,0,0,-1,720,1730,0,0
-497,-706,0,0,0,0,0,0,0,0,0,-1,727,1730,0,0
-490,-706,0,0,0,0,0,0,0,0,0,-1,734,1730,0,0
-483,-706,0,0,0,0,0,0,0,0,0,-1,741,1730,0,0
-476,-706,0,0,0,0,0,0,0,0,0,-1,748,1730,0,0
-469,-706,0,0,0,0,0,0,0,0,0,-1,755,1730,0,0
-462,-706,0,0,0,0,0,0,0,0,0,-1,762,1730,0,0
-455,-706,0,0,0,0,0,0,0,0,0,-1,769,1730,0,0
-448,-706,0,0,0,0,0,0,0,0,0,-1,776,1730,0,0
-441,-706,0,0,0,0,0,0,0,0,0,-1,783,1730,0,0
-434,-706,0,0,0,0,0,0,0,0,0,-1,790,1730,0,0
-427,-706,0,0,0,0,0,0,0,0,0,-1,797,1730,0,0
-420,-706,0,0,0,0,0,0,0,0,0,-1,804,1730,0,0
-413,-706,0,0,0,0,0,0,0,0,0,-1,811,1730,0,0
-406,-706,0,0,0,0,0,0,0,0,0,-1,818,1730,0,0
-399,-706,0,0,0,0,0,0,0,0,0,-1,825,1730,0,0
-392,-706,0,0,0,0,0,0,0,0,0,-1,832,1730,0,0
-385,-706,0,0,0,0,0,0,0,0,0,-1,839,1730,0,0
-378,-706,0,0,0,0,0,0,0,0,0,-1,846,1730,0,0
-371,-706,0,0,0,0,0,0,0,0,0,-1,853,1730,0,0
-364,-706,0,0,0,0,0,0,0,0,0,-1,860,1730,0,0
-357,-706,0,0,0,0,0,0,0,0,0,-1,867,1730,0,0
-350,-706,0,0,0,0,0,0,0,0,0,-1,874,1730,0,0
-343,-706,0,0,0,0,0,0,0,0,0,-1,881,1730,0,0
-336,-706,0,0,0,0,0,0,0,0,0,-1,888,1730,0,0
-329,-706,0,0,0,0,0,0,0,0,0,-1,895,1730,0,0
-322,-706,0,0,0,0,0,0,0,0,0,-1,902,1730,0,0
-315,-706,0,0,0,0,0,0,0,0,0,-1,909,1730,0,0
-308,-706,5.08191,14.6245,0,0,0,0,0,0,0,-1,916,1730,5.08188,-14.6245
-301,-706,7.45007,21.1975,0,0,0,0,0,0,0,-1,923,1730,7.45005,-21.1976
-294,-706,11.8603,21.026,0,0,0,0,0,0,0,-1,930,1730,11.8603,-21.026
-287,-706,10.3292,20.8425,0,0,0,0,0,0,0,-1,937,1730,10.3292,-20.8425
-280,-706,7.9162,21.8951,0,0,0,0,0,0,0,-1,944,1730,7.9162,-21.8952
-273,-706,7.38953,20.6355,0,0,0,0,0,0,0,-1,951,1730,7.38955,-20.6355
-266,-706,9.66724,22.8231,0,0,0,0,0,0,0,-1,958,1730,9.66722,-22.8231
-259,-706,3.47852,20.7363,0,0,0,0,0,0,0,-1,965,1730,3.47851,-20.7364
-252,-706,3.84259,20.1979,0,0,0,0,0,0,0,-1,972,1730,3.84256,-20.1979
-245,-706,4.698,19.2992,0,0,0,0,0,0,0,-1,979,1730,4.69799,-19.2991
-238,-706,8.12567,36.8694,0,0,0,0,0,0,0,-1,986,1730,8.12568,-36.8694
-231,-706,8.65503,39.9152,0,0,0,0,0,0,0,-1,993,1730,8.65502,-39.9152
-224,-706,8.65228,40.3112,0.00262494,-0.0108521,0.000916346,0.00268696,-0.0109141,0.0675786,0.00831768,0.0489771,1000,1730,8.65227,-40.3112
-217,-706,8.60101,40.6243,0.00205974,-0.013185,-0.000633423,0.00208601,-0.0132112,-0.0414551,0.00957885,0.0391829,1007,1730,8.60103,-40.6243
-210,-706,8.82251,40.8884,0.00233862,-0.015081,-0.0014927,0.00246561,-0.015208,-0.0848665,0.0110526,0.0345739,1014,1730,8.82253,-40.8885
-203,-706,8.70398,41.4259,0.00240204,-0.015989,-0.00228306,0.00268122,-0.0162682,-0.121679,0.0118408,0.0298416,1021,1730,8.70396,-41.4259
-196,-706,8.62573,41.885,0.00245563,-0.0163919,-0.00299193,0.00291918,-0.0168555,-0.153711,0.0123258,0.0242707,1028,1730,8.62578,-41.885
-189,-706,8.48376,42.3524,0.00243334,-0.0158882,-0.00361173,0.00311962,-0.0165744,-0.187775,0.0122229,0.0211256,1035,1730,8.48376,-42.3524
-182,-706,8.4137,42.7961,0.00221815,-0.0144948,-0.00388258,0.00307608,-0.0153527,-0.217473,0.0113997,0.0166305,1042,1730,8.41374,-42.7961
-175,-706,8.43506,43.2262,0.00183739,-0.0123919,-0.00384684,0.00281078,-0.0133653,-0.247835,0.00997993,0.0156807,1049,1730,8.43504,-43.2262
-168,-706,8.42847,43.6073,0.0013629,-0.0100668,-0.00344158,0.00231917,-0.0110231,-0.271023,0.00823143,0.0164988,1056,1730,8.42846,-43.6073
-161,-706,8.3844,43.9871,0.000683476,-0.00760348,-0.00289647,0.00159549,-0.00851549,-0.305042,0.00627679,0.0140457,1063,1730,8.38439,-43.9871
-154,-706,8.34705,44.3772,0.000111424,-0.0052858,-0.00219517,0.0008915,-0.00606588,-0.341442,0.00437149,0.013072,1070,1730,8.34699,-44.3771
-147,-706,8.31555,44.7168,-0.000273161,-0.00304612,-0.00145807,0.000352393,-0.00367167,-0.405279,0.0025733,0.0119847,1077,1730,8.31555,-44.7168
-140,-706,8.29761,45.0739,-0.000467282,-0.00123619,-0.000840263,7.2304e-05,-0.00177577,-0.570846,0.00120867,0.0112289,1084,1730,8.29758,-45.0738
-133,-706,8.30286,45.4241,-0.000367881,0.000823893,-0.000273434,0.000883634,-0.000427622,-1.35569,0.000772163,0.00960612,1091,1730,8.30289,-45.4241
-126,-706,8.29944,45.7632,-0.000855476,0.00211714,0.000199658,0.00213049,-0.000868826,1.50403,0.00178199,0.0151137,1098,1730,8.29944,-45.7631
-119,-706,8.27185,46.0879,-0.000888431,0.00222685,0.00101359,0.00252759,-0.00118918,1.28236,0.00219176,0.0188604,1105,1730,8.27186,-46.0878
-112,-706,8.26135,46.4375,-0.000101042,0.00226175,0.00122423,0.00278165,-0.000620948,1.1692,0.00209236,0.0129116,1112,1730,8.26132,-46.4375
-105,-706,8.23682,46.7296,0.000431356,0.00196644,0.0011107,0.002549,-0.000151207,1.08774,0.00175191,0.0101438,1119,1730,8.23686,-46.7297
-98,-706,8.26294,47.0145,0.000927026,0.00165177,0.000946507,0.0023029,0.000275896,0.968217,0.00145207,0.0114417,1126,1730,8.26299,-47.0145
-91,-706,8.26465,47.3008,0.00138294,0.00139196,0.0007218,0.00210926,0.000665637,0.78852,0.00124509,0.0152647,1133,1730,8.26461,-47.3008
-84,-706,8.26099,47.5502,0.00178038,0.00109711,0.000431197,0.00198887,0.000888609,0.450385,0.00115044,0.0184309,1140,1730,8.261,-47.5502
-77,-706,8.28052,47.8279,0.00212924,0.000793386,0.000151092,0.00214611,0.00077651,0.111233,0.00125473,0.0163406,1147,1730,8.28049,-47.8279
-70,-706,8.27234,48.0988,0.00233016,0.000344181,-0.00015027,0.00234146,0.000332875,-0.0750956,0.0014627,0.0178508,1154,1730,8.27229,-48.0987
-63,-706,8.27063,48.3314,0.00250709,0.000289173,0.000320114,0.00255237,0.000243895,0.140511,0.00162639,0.0135905,1161,1730,8.27059,-48.3315
-56,-706,8.28052,48.5591,0.00271112,0.00128516,0.000592181,0.00292497,0.0010713,0.346552,0.00170875,0.0130351,1168,1730,8.28047,-48.5591
-49,-706,8.29004,48.7849,0.00277216,0.00117115,0.000813761,0.00311316,0.000830158,0.396804,0.00186148,0.0135021,1175,1730,8.29009,-48.7849
-42,-706,8.32446,49.0028,0.00275903,0.000899159,0.00126494,0.00339908,0.000259113,0.468429,0.00218481,0.0178677,1182,1730,8.32452,-49.0028
-35,-706,8.35559,49.1686,0.00295196,0.00107387,0.00194216,0.00417018,-0.000144343,0.560215,0.00282946,0.0176809,1189,1730,8.35561,-49.1686
-28,-706,8.401,49.3243,0.00298209,0.00157251,0.00154324,0.00397386,0.000580737,0.571195,0.00247845,0.0109862,1196,1730,8.40105,-49.3243
-21,-706,8.41699,49.474,0.00274986,0.00178394,0.00160603,0.00394397,0.000589828,0.639341,0.00245642,0.0120284,1203,1730,8.41702,-49.474
-14,-706,8.44116,49.6322,0.00298186,0.00180101,0.0017099,0.0042004,0.000582465,0.619158,0.00262772,0.0118606,1210,1730,8.44111,-49.6322
-7,-706,8.47498,49.7871,0.00355205,0.00181691,0.00143391,0.00436042,0.00100854,0.513342,0.00263589,0.00955051,1217,1730,8.47496,-49.7871
0,-706,8.52148,49.9161,0.00414904,0.00205694,0.0012332,0.00472009,0.00148589,0.433661,0.00278676,0.012514,1224,1730,8.52148,-49.9161
7,-706,8.55505,50.0155,0.00477922,0.00243725,0.00085944,0.00506076,0.00215571,0.316574,0.00293249,0.0147971,1231,1730,8.555,-50.0155
14,-706,8.58789,50.1057,0.0052583,0.00262053,0.000396802,0.0053167,0.00256214,0.146124,0.00307027,0.0151034,1238,1730,8.58784,-50.1058
21,-706,8.63599,50.1669,0.00548211,0.0029702,-0.000215157,0.0055004,0.00295191,-0.0848314,0.0031785,0.0126717,1245,1730,8.63595,-50.1668
28,-706,8.65771,50.245,0.00599237,0.00315641,-0.000739068,0.00617341,0.00297536,-0.240237,0.00356499,0.0131087,1252,1730,8.65773,-50.2451
35,-706,8.69141,50.3164,0.00635592,0.00327744,-0.00127037,0.00681245,0.00282091,-0.344996,0.00395248,0.0148051,1259,1730,8.69144,-50.3164
42,-706,8.7522,50.3651,0.00655795,0.00317422,-0.00181154,0.00734481,0.00238736,-0.409772,0.0043262,0.0117346,1266,1730,8.75218,-50.3651
49,-706,8.8103,50.4143,0.00635648,0.00273607,-0.0021362,0.00734632,0.00174624,-0.433909,0.00443167,0.0138293,1273,1730,8.81029,-50.4143
56,-706,8.87451,50.4396,0.00614055,0.00256681,-0.00225326,0.00722946,0.0014779,-0.450165,0.00441033,0.0139887,1280,1730,8.87449,-50.4396
63,-706,8.90955,50.4127,0.00584281,0.00231921,-0.00232033,0.00699441,0.00116762,-0.460689,0.00432657,0.0126499,1287,1730,8.90957,-50.4127
70,-706,8.92737,50.4092,0.00527022,0.00180766,-0.00233561,0.00644624,0.000631637,-0.466459,0.00410319,0.0131753,1294,1730,8.92735,-50.4092
77,-706,8.94836,50.3962,0.00483691,0.000836993,-0.0016907,0.00545579,0.000218118,-0.350899,0.00356671,0.0111613,1301,1730,8.94841,-50.3962
84,-706,8.98706,50.3805,0.00468547,0.000197141,-0.00145746,0.00511721,-0.0002346,-0.287993,0.0034923,0.00907906,1308,1730,8.987,-50.3805
91,-706,9.05115,50.3538,0.00403393,2.89417e-05,-0.00119098,0.00436133,-0.000298458,-0.268274,0.00301197,0.0103789,1315,1730,9.05118,-50.3537
98,-706,9.09741,50.3195,0.00329361,-0.000106414,-0.000574721,0.00338813,-0.000200934,-0.163003,0.00232862,0.0144598,1322,1730,9.09746,-50.3194
105,-706,9.12903,50.2683,0.00314079,-0.000303727,-0.000288457,0.00316478,-0.000327717,-0.0829737,0.00222715,0.0164974,1329,1730,9.129,-50.2683
112,-706,9.1532,50.1956,0.00336081,-0.000501555,0.000151135,0.00336671,-0.00050746,0.0390505,0.00243135,0.0154552,1336,1730,9.15326,-50.1955
119,-706,9.18701,50.1263,0.00379815,-0.000283169,0.000481928,0.00385428,-0.000339303,0.115957,0.00268977,0.0128593,1343,1730,9.18704,-50.1264
126,-706,9.2406,50.0002,0.00433119,-0.000176784,0.000864914,0.00449144,-0.000337033,0.183199,0.00311273,0.014088,1350,1730,9.24056,-50.0002
133,-706,9.30066,49.8408,0.00406643,0.00035344,0.00095877,0.00429939,0.000120482,0.238357,0.00282696,0.012399,1357,1730,9.3007,-49.8409
140,-706,9.33203,49.6718,0.00395995,0.000929232,0.000968535,0.00424303,0.000646155,0.284353,0.0026398,0.0125467,1364,1730,9.33206,-49.6717
147,-706,9.38647,49.515,0.00382483,0.00140869,0.00097968,0.00417214,0.00106138,0.340691,0.00250378,0.0214787,1371,1730,9.38644,-49.515
154,-706,9.41577,49.3807,0.00393646,0.0018875,0.00102618,0.00436202,0.00146194,0.393115,0.00256363,0.0206374,1378,1730,9.4158,-49.3808
161,-706,9.39026,49.2069,0.00374739,0.00216323,0.0010146,0.00424247,0.00166814,0.453973,0.00246795,0.0110501,1385,1730,9.39021,-49.2069
168,-706,9.42102,49.0255,0.00346931,0.00218189,0.00100306,0.00401744,0.00163376,0.500122,0.0023329,0.0104007,1392,1730,9.42101,-49.0255
175,-706,9.45874,48.8629,0.00340636,0.0020217,0.00100291,0.00393269,0.00149536,0.483298,0.00229215,0.00978881,1399,1730,9.45868,-48.8629
182,-706,9.4729,48.6366,0.00318247,0.00197012,0.00107625,0.00381151,0.00134108,0.528925,0.00223254,0.0103252,1406,1730,9.47292,-48.6365
189,-706,9.48608,48.3893,0.00281646,0.00173371,0.000983249,0.00339753,0.00115265,0.533746,0.00199506,0.0139211,1413,1730,9.48612,-48.3893
196,-706,9.49829,48.1511,0.00256895,0.00153992,0.000741667,0.00295709,0.00115177,0.482146,0.00172112,0.0126691,1420,1730,9.49827,-48.1511
203,-706,9.50024,47.9301,0.00233219,0.00123581,0.000416611,0.00247253,0.00109547,0.324927,0.0014306,0.0133616,1427,1730,9.50024,-47.93
210,-706,9.50415,47.6888,0.00187999,0.00117397,0.00022662,0.00194648,0.00110749,0.285352,0.00112736,0.0130639,1434,1730,9.50411,-47.6888
217,-706,9.50293,47.4358,0.00141464,0.00109813,-0.000126132,0.00145875,0.00105402,-0.336462,0.000869576,0.0142951,1441,1730,9.50291,-47.4358
224,-706,9.50989,47.1564,0.00111782,0.00116416,-0.000427582,0.0015692,0.00071278,-0.812469,0.000907242,0.0196907,1448,1730,9.50984,-47.1564
231,-706,9.5448,46.8643,0.000757473,0.00117677,-0.000739695,0.00173595,0.00019829,-0.923488,0.00109719,0.0151059,1455,1730,9.54478,-46.8643
238,-706,9.53357,46.5798,0.000448711,0.00118532,-0.00100516,0.00188752,-0.000253493,-0.96101,0.0013508,0.0094063,1462,1730,9.53351,-46.5798
245,-706,9.52783,46.2551,0.00016641,0.00119029,-0.00126288,0.00204105,-0.000684351,-0.977964,0.00163721,0.0111228,1469,1730,9.52787,-46.2551
252,-706,9.50684,45.936,-0.000190564,0.00117241,-0.00150504,0.00214307,-0.00116122,-0.997989,0.0019356,0.01169,1476,1730,9.50682,-45.936
259,-706,9.49792,45.6326,-0.000621326,0.00103639,-0.00164949,0.00205356,-0.0016385,-1.01822,0.0021361,0.013498,1483,1730,9.49788,-45.6326
266,-706,9.47095,45.317,-0.00102991,0.000799377,-0.00172758,0.0018395,-0.00207003,-1.02886,0.00225847,0.0136501,1490,1730,9.47095,-45.317
273,-706,9.45447,44.9587,-0.00144185,0.000609435,-0.001765,0.00162516,-0.00245757,-1.0486,0.00237344,0.0127012,1497,1730,9.45451,-44.9587
280,-706,9.4585,44.5895,-0.00185793,0.000468481,-0.00183007,0.00147373,-0.00286318,-1.06849,0.00254639,0.0104734,1504,1730,9.45855,-44.5894
287,-706,9.42505,44.2203,-0.00223763,0.000631975,-0.00188635,0.00156719,-0.00317284,-1.11053,0.0027885,0.0110768,1511,1730,9.425,-44.2203
294,-706,9.42249,43.8746,-0.00258659,0.000616179,-0.00195139,0.00153915,-0.00350956,-1.129,0.00298796,0.0106816,1518,1730,9.42248,-43.8746
301,-706,9.41357,43.5125,-0.00233291,0.000746497,-0.00204882,0.00176968,-0.00335609,-1.10763,0.00300624,0.0103328,1525,1730,9.41353,-43.5124
308,-706,9.39294,43.1167,-0.00184931,0.000971233,-0.00263905,0.00255319,-0.00343127,-1.03079,0.00346751,0.012314,1532,1730,9.3929,-43.1166
315,-706,9.37134,42.7369,-0.00194611,0.0014221,-0.00290389,0.0030949,-0.00361891,-1.04817,0.00388015,0.0196337,1539,1730,9.37131,-42.7369
322,-706,9.30579,42.3737,-0.00147376,0.00197169,-0.00350434,0.00415386,-0.00365593,-1.01385,0.00451204,0.0252265,1546,1730,9.30573,-42.3736
329,-706,9.32019,41.8833,-0.0011336,0.00195961,-0.00386406,0.00457509,-0.00374908,-0.975761,0.00481384,0.0286219,1553,1730,9.32016,-41.8833
336,-706,9.2334,41.2958,-0.000615171,0.00156974,-0.0041513,0.00476992,-0.00381535,-0.914061,0.00496691,0.0464733,1560,1730,9.23334,-41.2958
343,-706,9.13965,40.8295,0,0,0,0,0,0,0,-1,1567,1730,9.1397,-40.8295
350,-706,9.12329,40.6003,-0.000729727,0.000686311,-0.00480018,0.00483041,-0.00487382,-0.858619,0.00560276,0.0464208,1574,1730,9.12334,-40.6003
357,-706,9.5531,40.0597,-0.00109029,0.000245853,-0.00483402,0.00445774,-0.00530218,-0.854064,0.00564192,0.0497588,1581,1730,9.55316,-40.0597
364,-706,8.54968,39.7916,0,0,0,0,0,0,0,-1,1588,1730,8.54971,-39.7916
371,-706,8.43396,38.317,0,0,0,0,0,0,0,-1,1595,1730,8.43391,-38.317
378,-706,7.25085,37.1644,0,0,0,0,0,0,0,-1,1602,1730,7.25091,-37.1644
385,-706,8.13733,39.9003,0,0,0,0,0,0,0,-1,1609,1730,8.13735,-39.9003
392,-706,6.43359,36.5219,0,0,0,0,0,0,0,-1,1616,1730,6.43354,-36.5218
399,-706,6.06824,36.3298,0,0,0,0,0,0,0,-1,1623,1730,6.06819,-36.3299
406,-706,5.74524,36.2214,0,0,0,0,0,0,0,-1,1630,1730,5.74521,-36.2215
413,-706,1.17773,29.6584,0,0,0,0,0,0,0,-1,1637,1730,1.17772,-29.6585
420,-706,6.51294,21.9171,0,0,0,0,0,0,0,-1,1644,1730,6.51292,-21.9171
427,-706,0,0,0,0,0,0,0,0,0,-1,1651,1730,0,0
434,-706,0,0,0,0,0,0,0,0,0,-1,1658,1730,0,0
441,-706,0,0,0,0,0,0,0,0,0,-1,1665,1730,0,0
448,-706,0,0,0,0,0,0,0,0,0,-1,1672,1730,0,0
455,-706,0,0,0,0,0,0,0,0,0,-1,1679,1730,0,0
462,-706,0,0,0,0,0,0,0,0,0,-1,1686,1730,0,0
469,-706,0,0,0,0,0,0,0,0,0,-1,1693,1730,0,0
476,-706,0,0,0,0,0,0,0,0,0,-1,1700,1730,0,0
483,-706,0,0,0,0,0,0,0,0,0,-1,1707,1730,0,0
490,-706,0,0,0,0,0,0,0,0,0,-1,1714,1730,0,0
497,-706,0,0,0,0,0,0,0,0,0,-1,1721,1730,0,0
504,-706,0,0,0,0,0,0,0,0,0,-1,1728,1730,0,0
511,-706,0,0,0,0,0,0,0,0,0,-1,1735,1730,0,0
518,-706,0,0,0,0,0,0,0,0,0,-1,1742,1730,0,0
525,-706,0,0,0,0,0,0,0,0,0,-1,1749,1730,0,0
532,-706,0,0,0,0,0,0,0,0,0,-1,1756,1730,0,0
539,-706,0,0,0,0,0,0,0,0,0,-1,1763,1730,0,0
546,-706,0,0,0,0,0,0,0,0,0,-1,1770,1730,0,0
553,-706,0,0,0,0,0,0,0,0,0,-1,1777,1730,0,0
560,-706,0,0,0,0,0,0,0,0,0,-1,1784,1730,0,0
567,-706,0,0,0,0,0,0,0,0,0,-1,1791,1730,0,0
574,-706,0,0,0,0,0,0,0,0,0,-1,1798,1730,0,0
581,-706,0,0,0,0,0,0,0,0,0,-1,1805,1730,0,0
588,-706,0,0,0,0,0,0,0,0,0,-1,1812,1730,0,0
595,-706,0,0,0,0,0,0,0,0,0,-1,1819,1730,0,0
602,-706,0,0,0,0,0,0,0,0,0,-1,1826,1730,0,0
609,-706,0,0,0,0,0,0,0,0,0,-1,1833,1730,0,0
616,-706,0,0,0,0,0,0,0,0,0,-1,1840,1730,0,0
623,-706,0,0,0,0,0,0,0,0,0,-1,1847,1730,0,0
630,-706,0,0,0,0,0,0,0,0,0,-1,1854,1730,0,0
637,-706,0,0,0,0,0,0,0,0,0,-1,1861,1730,0,0
644,-706,0,0,0,0,0,0,0,0,0,-1,1868,1730,0,0
651,-706,0,0,0,0,0,0,0,0,0,-1,1875,1730,0,0
658,-706,0,0,0,0,0,0,0,0,0,-1,1882,1730,0,0
665,-706,0,0,0,0,0,0,0,0,0,-1,1889,1730,0,0
672,-706,0,0,0,0,0,0,0,0,0,-1,1896,1730,0,0
679,-706,0,0,0,0,0,0,0,0,0,-1,1903,1730,0,0
686,-706,0,0,0,0,0,0,0,0,0,-1,1910,1730,0,0
693,-706,0,0,0,0,0,0,0,0,0,-1,1917,1730,0,0
700,-706,0,0,0,0,0,0,0,0,0,-1,1924,1730,0,0
707,-706,0,0,0,0,0,0,0,0,0,-1,1931,1730,0,0
714,-706,0,0,0,0,0,0,0,0,0,-1,1938,1730,0,0
721,-706,0,0,0,0,0,0,0,0,0,-1,1945,1730,0,0
728,-706,0,0,0,0,0,0,0,0,0,-1,1952,1730,0,0
735,-706,0,0,0,0,0,0,0,0,0,-1,1959,1730,0,0
742,-706,0,0,0,0,0,0,0,0,0,-1,1966,1730,0,0
749,-706,0,0,0,0,0,0,0,0,0,-1,1973,1730,0,0
756,-706,0,0,0,0,0,0,0,0,0,-1,1980,1730,0,0
763,-706,0,0,0,0,0,0,0,0,0,-1,1987,1730,0,0
770,-706,0,0,0,0,0,0,0,0,0,-1,1994,1730,0,0
777,-706,0,0,0,0,0,0,0,0,0,-1,2001,1730,0,0
784,-706,0,0,0,0,0,0,0,0,0,-1,2008,1730,0,0
791,-706,0,0,0,0,0,0,0,0,0,-1,2015,1730,0,0
798,-706,0,0,0,0,0,0,0,0,0,-1,2022,1730,0,0
805,-706,0,0,0,0,0,0,0,0,0,-1,2029,1730,0,0
812,-706,0,0,0,0,0,0,0,0,0,-1,2036,1730,0,0
-700,-713,0,0,0,0,0,0,0,0,0,-1,524,1737,0,0
-693,-713,0,0,0,0,0,0,0,0,0,-1,531,1737,0,0
-686,-713,0,0,0,0,0,0,0,0,0,-1,538,1737,0,0
-679,-713,0,0,0,0,0,0,0,0,0,-1,545,1737,0,0
-672,-713,0,0,0,0,0,0,0,0,0,-1,552,1737,0,0
-665,-713,0,0,0,0,0,0,0,0,0,-1,559,1737,0,0
-658,-713,0,0,0,0,0,0,0,0,0,-1,566,1737,0,0
-651,-713,0,0,0,0,0,0,0,0,0,-1,573,1737,0,0
-644,-713,0,0,0,0,0,0,0,0,0,-1,580,1737,0,0
-637,-713,0,0,0,0,0,0,0,0,0,-1,587,1737,0,0
-630,-713,0,0,0,0,0,0,0,0,0,-1,594,1737,0,0
-623,-713,0,0,0,0,0,0,0,0,0,-1,601,1737,0,0
-616,-713,0,0,0,0,0,0,0,0,0,-1,608,1737,0,0
-609,-713,0,0,0,0,0,0,0,0,0,-1,615,1737,0,0
-602,-713,0,0,0,0,0,0,0,0,0,-1,622,1737,0,0
-595,-713,0,0,0,0,0,0,0,0,0,-1,629,1737,0,0
-588,-713,0,0,0,0,0,0,0,0,0,-1,636,1737,0,0
-581,-713,0,0,0,0,0,0,0,0,0,-1,643,1737,0,0
-574,-713,0,0,0,0,0,0,0,0,0,-1,650,1737,0,0
-567,-713,0,0,0,0,0,0,0,0,0,-1,657,1737,0,0
-560,-713,0,0,0,0,0,0,0,0,0,-1,664,1737,0,0
-553,-713,0,0,0,0,0,0,0,0,0,-1,671,1737,0,0
-546,-713,0,0,0,0,0,0,0,0,0,-1,678,1737,0,0
-539,-713,0,0,0,0,0,0,0,0,0,-1,685,1737,0,0
-532,-713,0,0,0,0,0,0,0,0,0,-1,692,1737,0,0
-525,-713,0,0,0,0,0,0,0,0,0,-1,699,1737,0,0
-518,-713,0,0,0,0,0,0,0,0,0,-1,706,1737,0,0
-511,-713,0,0,0,0,0,0,0,0,0,-1,713,1737,0,0
-504,-713,0,0,0,0,0,0,0,0,0,-1,720,1737,0,0
-497,-713,0,0,0,0,0,0,0,0,0,-1,727,1737,0,0
-490,-713,0,0,0,0,0,0,0,0,0,-1,734,1737,0,0
-483,-713,0,0,0,0,0,0,0,0,0,-1,741,1737,0,0
-476,-713,0,0,0,0,0,0,0,0,0,-1,748,1737,0,0
-469,-713,0,0,0,0,0,0,0,0,0,-1,755,1737,0,0
-462,-713,0,0,0,0,0,0,0,0,0,-1,762,1737,0,0
-455,-713,0,0,0,0,0,0,0,0,0,-1,769,1737,0,0
-448,-713,0,0,0,0,0,0,0,0,0,-1,776,1737,0,0
-441,-713,0,0,0,0,0,0,0,0,0,-1,783,1737,0,0
-434,-713,0,0,0,0,0,0,0,0,0,-1,790,1737,0,0
-427,-713,0,0,0,0,0,0,0,0,0,-1,797,1737,0,0
-420,-713,0,0,0,0,0,0,0,0,0,-1,804,1737,0,0
-413,-713,0,0,0,0,0,0,0,0,0,-1,811,1737,0,0
-406,-713,0,0,0,0,0,0,0,0,0,-1,818,1737,0,0
-399,-713,0,0,0,0,0,0,0,0,0,-1,825,1737,0,0
-392,-713,0,0,0,0,0,0,0,0,0,-1,832,1737,0,0
-385,-713,0,0,0,0,0,0,0,0,0,-1,839,1737,0,0
-378,-713,0,0,0,0,0,0,0,0,0,-1,846,1737,0,0
-371,-713,0,0,0,0,0,0,0,0,0,-1,853,1737,0,0
-364,-713,0,0,0,0,0,0,0,0,0,-1,860,1737,0,0
-357,-713,0,0,0,0,0,0,0,0,0,-1,867,1737,0,0
-350,-713,0,0,0,0,0,0,0,0,0,-1,874,1737,0,0
-343,-713,0,0,0,0,0,0,0,0,0,-1,881,1737,0,0
-336,-713,0,0,0,0,0,0,0,0,0,-1,888,1737,0,0
-329,-713,0,0,0,0,0,0,0,0,0,-1,895,1737,0,0
-322,-713,0,0,0,0,0,0,0,0,0,-1,902,1737,0,0
-315,-713,0,0,0,0,0,0,0,0,0,-1,909,1737,0,0
-308,-713,0,0,0,0,0,0,0,0,0,-1,916,1737,0,0
-301,-713,0,0,0,0,0,0,0,0,0,-1,923,1737,0,0
-294,-713,7.17883,22.0453,0,0,0,0,0,0,0,-1,930,1737,7.17881,-22.0453
-287,-713,11.8916,21.5834,0,0,0,0,0,0,0,-1,937,1737,11.8916,-21.5833
-280,-713,10.2786,21.3551,0,0,0,0,0,0,0,-1,944,1737,10.2787,-21.3551
-273,-713,11.1981,23.8683,0,0,0,0,0,0,0,-1,951,1737,11.198,-23.8683
-266,-713,3.17981,19.8851,0,0,0,0,0,0,0,-1,958,1737,3.17983,-19.8851
-259,-713,3.5921,19.6868,0,0,0,0,0,0,0,-1,965,1737,3.59207,-19.6868
-252,-713,4.55469,20.5758,0,0,0,0,0,0,0,-1,972,1737,4.55466,-20.5758
-245,-713,3.89014,25.9825,0,0,0,0,0,0,0,-1,979,1737,3.89013,-25.9826
-238,-713,6.62506,30.5463,0,0,0,0,0,0,0,-1,986,1737,6.62509,-30.5462
-231,-713,7.31439,35.574,0,0,0,0,0,0,0,-1,993,1737,7.31436,-35.574
-224,-713,9.04401,40.3643,0,0,0,0,0,0,0,-1,1000,1737,9.04402,-40.3643
-217,-713,9.02509,40.5779,0,0,0,0,0,0,0,-1,1007,1737,9.0251,-40.5779
-210,-713,9.39294,40.759,0,0,0,0,0,0,0,-1,1014,1737,9.39292,-40.7591
-203,-713,9.22729,41.4205,0,0,0,0,0,0,0,-1,1021,1737,9.22731,-41.4206
-196,-713,8.85205,41.8777,0.00486526,-0.0251278,-0.00533702,0.00578664,-0.0260492,-0.170953,0.0195821,0.0470034,1028,1737,8.85205,-41.8777
-189,-713,8.64441,42.3651,0.0046932,-0.0239042,-0.00604793,0.00591964,-0.0251307,-0.200075,0.0190363,0.0414372,1035,1737,8.64441,-42.3651
-182,-713,8.6499,42.7133,0.00412138,-0.0215287,-0.00629074,0.00558113,-0.0229884,-0.228011,0.0174854,0.0280817,1042,1737,8.64992,-42.7133
-175,-713,8.83948,43.2631,0,0,0,0,0,0,0,-1,1049,1737,8.83949,-43.263
-168,-713,8.91016,43.4961,0.00229378,-0.0149091,-0.00547,0.00388575,-0.0165011,-0.283214,0.0124989,0.0324235,1056,1737,8.91021,-43.4961
-161,-713,8.76794,43.9973,0.00112094,-0.0113875,-0.00461195,0.00263752,-0.012904,-0.317699,0.00960337,0.0155049,1063,1737,8.7679,-43.9973
-154,-713,8.69922,44.3704,6.0458e-05,-0.00814382,-0.00357707,0.00140102,-0.00948438,-0.358564,0.00683794,0.0118281,1070,1737,8.69927,-44.3704
-147,-713,8.64844,44.738,-0.00076475,-0.00510177,-0.00249369,0.000371424,-0.00623794,-0.427517,0.0042878,0.0175912,1077,1737,8.64844,-44.738
-140,-713,8.65222,45.1177,-0.00130566,-0.00262433,-0.0015593,-0.000272025,-0.00365796,-0.585378,0.00235321,0.0172544,1084,1737,8.65221,-45.1177
-133,-713,8.62305,45.4436,-0.00137349,0.00027835,-0.000726983,0.000552724,-0.00164786,-1.20991,0.00132191,0.0120116,1091,1737,8.62304,-45.4437
-126,-713,8.61255,45.7491,-0.00244565,0.00221054,-8.20051e-06,0.00221056,-0.00244566,-1.56904,0.00268941,0.018546,1098,1737,8.61254,-45.7491
-119,-713,8.60498,46.0476,-0.00288415,0.0024129,0.00135868,0.00274107,-0.00321232,1.3338,0.00344078,0.0258898,1105,1737,8.60504,-46.0476
-112,-713,8.55835,46.4496,-0.00190311,0.0026125,0.00180402,0.00324471,-0.00253532,1.23373,0.00334547,0.0135121,1112,1737,8.5583,-46.4496
-105,-713,8.55249,46.7299,-0.00129757,0.00232647,0.0017558,0.00303759,-0.0020087,1.18598,0.00293359,0.0112559,1119,1737,8.55247,-46.7299
-98,-713,8.5459,47.0099,-0.000707789,0.00201429,0.00168056,0.00281582,-0.00150932,1.12576,0.00253481,0.0103218,1126,1737,8.54589,-47.0099
-91,-713,8.51733,47.2867,-0.000186755,0.00186379,0.00153967,0.00268831,-0.00101128,1.07914,0.0022079,0.0104413,1133,1737,8.51734,-47.2867
-84,-713,8.50073,47.5612,0.000243284,0.00152233,0.00129309,0.0023254,-0.000559787,1.01504,0.00176668,0.00983717,1140,1737,8.50071,-47.5612
-77,-713,8.51404,47.8494,0.000693428,0.00126391,0.00109494,0.00211016,-0.000152817,0.91282,0.00146038,0.0126347,1147,1737,8.51407,-47.8494
-70,-713,8.51477,48.1035,0.00101571,0.000850669,0.000796423,0.00173388,0.000132502,0.733776,0.00111438,0.0142148,1154,1737,8.51482,-48.1035
-63,-713,8.50781,48.3479,0.00122096,0.00060676,0.000710356,0.00168776,0.000139965,0.58137,0.00108154,0.0127737,1161,1737,8.50787,-48.348
-56,-713,8.52893,48.5718,0.00146729,0.000805866,0.000709937,0.00191977,0.000353393,0.567426,0.00117982,0.0129331,1168,1737,8.52889,-48.5718
-49,-713,8.51733,48.7827,0.00163125,0.000814101,0.00078491,0.00210755,0.000337791,0.545429,0.00130707,0.0157895,1175,1737,8.51728,-48.7827
-42,-713,8.54089,48.9545,0.00172126,0.000750678,0.000997574,0.00234532,0.000126617,0.559015,0.0015231,0.0189213,1182,1737,8.5409,-48.9544
-35,-713,8.57141,49.1339,0.00188736,0.000888312,0.00137127,0.00284726,-7.15876e-05,0.61073,0.00192248,0.0153004,1189,1737,8.57137,-49.1339
-28,-713,8.57642,49.3287,0.00193422,0.00120779,0.00124581,0.00286868,0.000273333,0.643555,0.00182817,0.0133763,1196,1737,8.57639,-49.3287
-21,-713,8.5614,49.489,0.00172439,0.00146737,0.00131255,0.0029147,0.000277049,0.7366,0.00185769,0.00997516,1203,1737,8.56138,-49.4891
-14,-713,8.58167,49.6387,0.00177834,0.0016575,0.00141421,0.00313343,0.000302417,0.76405,0.0019958,0.010958,1210,1737,8.58168,-49.6387
-7,-713,8.61621,49.7963,0.00202432,0.00182046,0.00126962,0.0031961,0.000648687,0.745342,0.00195079,0.00983847,1217,1737,8.61626,-49.7963
0,-713,8.64539,49.9243,0.00227685,0.00219799,0.00119212,0.00343019,0.00104464,0.768866,0.00203023,0.0149819,1224,1737,8.64539,-49.9243
7,-713,8.66016,50.0037,0.00260181,0.00262313,0.000964805,0.00357733,0.00164761,0.790924,0.00206751,0.0185274,1231,1737,8.6601,-50.0036
14,-713,8.67505,50.1217,0.00293422,0.00290791,0.000599419,0.00352063,0.0023215,0.774428,0.00206678,0.0134427,1238,1737,8.67508,-50.1217
21,-713,8.70642,50.2097,0.00314661,0.00328386,0.000129359,0.00336167,0.0030688,1.02926,0.00215015,0.0111136,1245,1737,8.70647,-50.2097
28,-713,8.71313,50.2902,0.00362164,0.00356203,-0.000249786,0.00384339,0.00334028,-0.726014,0.00241211,0.0116515,1252,1737,8.71313,-50.2901
35,-713,8.74622,50.353,0.00401821,0.00374423,-0.000669867,0.00456495,0.00319749,-0.684536,0.00270525,0.011436,1259,1737,8.7462,-50.353
42,-713,8.79614,50.4021,0.00434927,0.00372196,-0.00109514,0.00517479,0.00289645,-0.645929,0.00299476,0.0106039,1266,1737,8.79609,-50.4021
49,-713,8.83899,50.3984,0.00441769,0.00340408,-0.0013684,0.00537012,0.00245165,-0.608049,0.00310434,0.0123001,1273,1737,8.83897,-50.3984
56,-713,8.86877,50.3965,0.00449823,0.0031798,-0.00147861,0.00545793,0.00222011,-0.575707,0.00316934,0.0140891,1280,1737,8.86873,-50.3965
63,-713,8.89331,50.4248,0.00452441,0.00288517,-0.00152917,0.00543976,0.00196981,-0.539386,0.00318021,0.013563,1287,1737,8.89326,-50.4248
70,-713,8.90991,50.448,0.00431715,0.00236637,-0.00153088,0.00515697,0.00152655,-0.501757,0.00305886,0.0123452,1294,1737,8.90994,-50.448
77,-713,8.92822,50.4369,0.0041516,0.0014533,-0.00103619,0.00450359,0.0011013,-0.32747,0.00271091,0.0119866,1301,1737,8.92821,-50.4368
84,-713,8.96423,50.4161,0.00415457,0.000641947,-0.00077925,0.00431968,0.000476837,-0.208795,0.00273474,0.0116458,1308,1737,8.96428,-50.4161
91,-713,8.995,50.3926,0.00371387,0.000152312,-0.000516392,0.00378723,7.89508e-05,-0.14112,0.00249892,0.0119561,1315,1737,8.99502,-50.3926
98,-713,9.01941,50.3317,0.00320192,-0.000282684,-9.94445e-05,0.00320476,-0.00028552,-0.0285073,0.00223776,0.0120793,1322,1737,9.01935,-50.3317
105,-713,9.05261,50.2567,0.00301929,-0.00074648,0.000128399,0.00302366,-0.000750853,0.0340437,0.00230715,0.0140903,1329,1737,9.0526,-50.2567
112,-713,9.07666,50.2045,0.00299416,-0.00112174,0.000493239,0.00305245,-0.00118003,0.117619,0.00252207,0.014109,1336,1737,9.07662,-50.2044
119,-713,9.08521,50.1383,0.00301396,-0.00121865,0.000818111,0.00316659,-0.00137127,0.18444,0.00268741,0.0139759,1343,1737,9.08517,-50.1383
126,-713,9.09534,50.0389,0.00318387,-0.00130362,0.00107696,0.00342895,-0.0015487,0.223754,0.0029414,0.0135503,1350,1737,9.09533,-50.0389
133,-713,9.12756,49.8794,0.00292655,-0.00102218,0.00105637,0.00319139,-0.00128702,0.245643,0.00266239,0.0126582,1357,1737,9.1275,-49.8794
140,-713,9.18237,49.7246,0.00283914,-0.000589538,0.00100552,0.00311228,-0.000862669,0.265231,0.00241434,0.0134307,1364,1737,9.18237,-49.7246
147,-713,9.18237,49.5421,0.00272337,-0.000178277,0.000924045,0.00299265,-0.000447555,0.28356,0.00215979,0.0142129,1371,1737,9.18241,-49.5421
154,-713,9.15942,49.4119,0.00273627,0.000268273,0.000859564,0.00300613,-1.59175e-06,0.30421,0.00200462,0.0140514,1378,1737,9.15948,-49.4118
161,-713,9.19177,49.2256,0.0025447,0.000594253,0.000748564,0.00279887,0.000340082,0.32733,0.00176351,0.010724,1385,1737,9.19178,-49.2256
168,-713,9.21985,49.0377,0.00227607,0.000738747,0.000618197,0.00249382,0.000520997,0.338664,0.00151896,0.0102826,1392,1737,9.21983,-49.0377
175,-713,9.2406,48.8394,0.00211656,0.000804463,0.000497083,0.00228361,0.000637413,0.324202,0.00136065,0.0129513,1399,1737,9.24056,-48.8394
182,-713,9.23901,48.6355,0.00184795,0.000953109,0.000331218,0.0019572,0.000843851,0.318628,0.00113356,0.0112837,1406,1737,9.23905,-48.6355
189,-713,9.24915,48.4188,0.00152871,0.00104164,0.00012135,0.00155727,0.00101309,0.231139,0.000912576,0.0110107,1413,1737,9.24918,-48.4189
196,-713,9.25562,48.1724,0.00125347,0.00119423,-0.000147283,0.00137408,0.00107362,-0.686159,0.000834138,0.0118962,1420,1737,9.25564,-48.1724
203,-713,9.23828,47.9419,0.000976075,0.00123338,-0.000406986,0.00153156,0.00067789,-0.938481,0.000886187,0.0156589,1427,1737,9.23831,-47.9419
210,-713,9.24133,47.6982,0.000688878,0.00140967,-0.000675616,0.001815,0.000283545,-1.03042,0.00112744,0.0141494,1434,1737,9.24136,-47.6983
217,-713,9.26001,47.4283,0.000366091,0.00143926,-0.000974663,0.00201528,-0.000209931,-1.03702,0.00141868,0.0117657,1441,1737,9.26001,-47.4284
224,-713,9.24036,47.1606,7.04083e-05,0.00151413,-0.00128054,0.00226226,-0.000677722,-1.04205,0.00177768,0.0123577,1448,1737,9.24037,-47.1607
231,-713,9.24805,46.8784,-0.000369102,0.00145369,-0.00152522,0.00231907,-0.00123448,-1.05471,0.00208325,0.0118714,1455,1737,9.24801,-46.8784
238,-713,9.23694,46.5851,-0.00070786,0.00140339,-0.00175471,0.00239553,-0.0017,-1.05619,0.0023759,0.00877175,1462,1737,9.23697,-46.5851
245,-713,9.24158,46.2754,-0.00101868,0.00137167,-0.00199964,0.00250608,-0.00215309,-1.05476,0.00269255,0.0106879,1469,1737,9.2416,-46.2754
252,-713,9.21155,45.9381,-0.00143935,0.00131396,-0.00221448,0.00254481,-0.0026702,-1.0635,0.00301118,0.012026,1476,1737,9.21157,-45.9381
259,-713,9.19409,45.6067,-0.0019436,0.00111042,-0.00228575,0.0023323,-0.00316549,-1.07988,0.00318628,0.0133605,1483,1737,9.19411,-45.6067
266,-713,9.16797,45.3075,-0.00239679,0.000799105,-0.00229734,0.00199959,-0.00359727,-1.08927,0.00327494,0.0115904,1490,1737,9.16798,-45.3075
273,-713,9.13794,44.9834,-0.00284596,0.000565566,-0.00229713,0.001721,-0.0040014,-1.10476,0.00339014,0.0093066,1497,1737,9.13797,-44.9834
280,-713,9.11108,44.6276,-0.0032761,0.000424562,-0.00233746,0.00155541,-0.00440695,-1.1202,0.00357119,0.0101759,1504,1737,9.11108,-44.6275
287,-713,9.08569,44.2559,-0.00366662,0.000685835,-0.00238604,0.00173902,-0.00471981,-1.15512,0.00385911,0.0110425,1511,1737,9.08571,-44.2558
294,-713,9.08984,43.9,-0.00401349,0.000755576,-0.00244465,0.00178606,-0.00504397,-1.17187,0.00409012,0.0147763,1518,1737,9.08987,-43.9001
301,-713,9.02502,43.5099,-0.00355309,0.00101921,-0.00254243,0.00215218,-0.00468607,-1.15158,0.0040374,0.0182557,1525,1737,9.02503,-43.5098
308,-713,8.97705,43.1202,-0.00274162,0.00134953,-0.00324813,0.00314254,-0.00453463,-1.06641,0.00445664,0.021024,1532,1737,8.97704,-43.1202
315,-713,8.99182,42.8097,-0.00263997,0.00201436,-0.00358501,0.0039613,-0.00458692,-1.07328,0.00493972,0.0278203,1539,1737,8.99181,-42.8097
322,-713,8.96191,42.4938,0,0,0,0,0,0,0,-1,1546,1737,8.96194,-42.4937
329,-713,9.09473,41.7548,0,0,0,0,0,0,0,-1,1553,1737,9.09476,-41.7547
336,-713,9.04419,41.1716,0,0,0,0,0,0,0,-1,1560,1737,9.04418,-41.1717
343,-713,8.18701,39.8011,0,0,0,0,0,0,0,-1,1567,1737,8.18705,-39.8012
350,-713,8.3501,40.6964,0,0,0,0,0,0,0,-1,1574,1737,8.35014,-40.6964
357,-713,9.36792,40.1691,0,0,0,0,0,0,0,-1,1581,1737,9.36787,-40.1691
364,-713,7.35474,20.9537,0,0,0,0,0,0,0,-1,1588,1737,7.35472,-20.9537
371,-713,3.07507,25.4108,0,0,0,0,0,0,0,-1,1595,1737,3.07502,-25.4107
378,-713,5.16516,38.248,0,0,0,0,0,0,0,-1,1602,1737,5.16511,-38.248
385,-713,5.6416,36.8367,0,0,0,0,0,0,0,-1,1609,1737,5.64155,-36.8367
392,-713,5.11096,36.6809,0,0,0,0,0,0,0,-1,1616,1737,5.11091,-36.6809
399,-713,4.47375,36.4706,0,0,0,0,0,0,0,-1,1623,1737,4.47376,-36.4706
406,-713,2.30334,27.5551,0,0,0,0,0,0,0,-1,1630,1737,2.30332,-27.555
413,-713,1.1001,29.3845,0,0,0,0,0,0,0,-1,1637,1737,1.10012,-29.3846
420,-713,0,0,0,0,0,0,0,0,0,-1,1644,1737,0,0
427,-713,0,0,0,0,0,0,0,0,0,-1,1651,1737,0,0
434,-713,0,0,0,0,0,0,0,0,0,-1,1658,1737,0,0
441,-713,0,0,0,0,0,0,0,0,0,-1,1665,1737,0,0
448,-713,0,0,0,0,0,0,0,0,0,-1,1672,1737,0,0
455,-713,0,0,0,0,0,0,0,0,0,-1,1679,1737,0,0
462,-713,0,0,0,0,0,0,0,0,0,-1,1686,1737,0,0
469,-713,0,0,0,0,0,0,0,0,0,-1,1693,1737,0,0
476,-713,0,0,0,0,0,0,0,0,0,-1,1700,1737,0,0
483,-713,0,0,0,0,0,0,0,0,0,-1,1707,1737,0,0
490,-713,0,0,0,0,0,0,0,0,0,-1,1714,1737,0,0
497,-713,0,0,0,0,0,0,0,0,0,-1,1721,1737,0,0
504,-713,0,0,0,0,0,0,0,0,0,-1,1728,1737,0,0
511,-713,0,0,0,0,0,0,0,0,0,-1,1735,1737,0,0
518,-713,0,0,0,0,0,0,0,0,0,-1,1742,1737,0,0
525,-713,0,0,0,0,0,0,0,0,0,-1,1749,1737,0,0
532,-713,0,0,0,0,0,0,0,0,0,-1,1756,1737,0,0
539,-713,0,0,0,0,0,0,0,0,0,-1,1763,1737,0,0
546,-713,0,0,0,0,0,0,0,0,0,-1,1770,1737,0,0
553,-713,0,0,0,0,0,0,0,0,0,-1,1777,1737,0,0
560,-713,0,0,0,0,0,0,0,0,0,-1,1784,1737,0,0
567,-713,0,0,0,0,0,0,0,0,0,-1,1791,1737,0,0
574,-713,0,0,0,0,0,0,0,0,0,-1,1798,1737,0,0
581,-713,0,0,0,0,0,0,0,0,0,-1,1805,1737,0,0
588,-713,0,0,0,0,0,0,0,0,0,-1,1812,1737,0,0
595,-713,0,0,0,0,0,0,0,0,0,-1,1819,1737,0,0
602,-713,0,0,0,0,0,0,0,0,0,-1,1826,1737,0,0
609,-713,0,0,0,0,0,0,0,0,0,-1,1833,1737,0,0
616,-713,0,0,0,0,0,0,0,0,0,-1,1840,1737,0,0
623,-713,0,0,0,0,0,0,0,0,0,-1,1847,1737,0,0
630,-713,0,0,0,0,0,0,0,0,0,-1,1854,1737,0,0
637,-713,0,0,0,0,0,0,0,0,0,-1,1861,1737,0,0
644,-713,0,0,0,0,0,0,0,0,0,-1,1868,1737,0,0
651,-713,0,0,0,0,0,0,0,0,0,-1,1875,1737,0,0
658,-713,0,0,0,0,0,0,0,0,0,-1,1882,1737,0,0
665,-713,0,0,0,0,0,0,0,0,0,-1,1889,1737,0,0
672,-713,0,0,0,0,0,0,0,0,0,-1,1896,1737,0,0
679,-713,0,0,0,0,0,0,0,0,0,-1,1903,1737,0,0
686,-713,0,0,0,0,0,0,0,0,0,-1,1910,1737,0,0
693,-713,0,0,0,0,0,0,0,0,0,-1,1917,1737,0,0
700,-713,0,0,0,0,0,0,0,0,0,-1,1924,1737,0,0
707,-713,0,0,0,0,0,0,0,0,0,-1,1931,1737,0,0
714,-713,0,0,0,0,0,0,0,0,0,-1,1938,1737,0,0
721,-713,0,0,0,0,0,0,0,0,0,-1,1945,1737,0,0
728,-713,0,0,0,0,0,0,0,0,0,-1,1952,1737,0,0
735,-713,0,0,0,0,0,0,0,0,0,-1,1959,1737,0,0
742,-713,0,0,0,0,0,0,0,0,0,-1,1966,1737,0,0
749,-713,0,0,0,0,0,0,0,0,0,-1,1973,1737,0,0
756,-713,0,0,0,0,0,0,0,0,0,-1,1980,1737,0,0
763,-713,0,0,0,0,0,0,0,0,0,-1,1987,1737,0,0
770,-713,0,0,0,0,0,0,0,0,0,-1,1994,1737,0,0
777,-713,0,0,0,0,0,0,0,0,0,-1,2001,1737,0,0
784,-713,0,0,0,0,0,0,0,0,0,-1,2008,1737,0,0
791,-713,0,0,0,0,0,0,0,0,0,-1,2015,1737,0,0
798,-713,0,0,0,0,0,0,0,0,0,-1,2022,1737,0,0
805,-713,0,0,0,0,0,0,0,0,0,-1,2029,1737,0,0
812,-713,0,0,0,0,0,0,0,0,0,-1,2036,1737,0,0
-700,-720,0,0,0,0,0,0,0,0,0,-1,524,1744,0,0
-693,-720,0,0,0,0,0,0,0,0,0,-1,531,1744,0,0
-686,-720,0,0,0,0,0,0,0,0,0,-1,538,1744,0,0
-679,-720,0,0,0,0,0,0,0,0,0,-1,545,1744,0,0
-672,-720,0,0,0,0,0,0,0,0,0,-1,552,1744,0,0
-665,-720,0,0,0,0,0,0,0,0,0,-1,559,1744,0,0
-658,-720,0,0,0,0,0,0,0,0,0,-1,566,1744,0,0
-651,-720,0,0,0,0,0,0,0,0,0,-1,573,1744,0,0
-644,-720,0,0,0,0,0,0,0,0,0,-1,580,1744,0,0
-637,-720,0,0,0,0,0,0,0,0,0,-1,587,1744,0,0
-630,-720,0,0,0,0,0,0,0,0,0,-1,594,1744,0,0
-623,-720,0,0,0,0,0,0,0,0,0,-1,601,1744,0,0
-616,-720,0,0,0,0,0,0,0,0,0,-1,608,1744,0,0
-609,-720,0,0,0,0,0,0,0,0,0,-1,615,1744,0,0
-602,-720,0,0,0,0,0,0,0,0,0,-1,622,1744,0,0
-595,-720,0,0,0,0,0,0,0,0,0,-1,629,1744,0,0
-588,-720,0,0,0,0,0,0,0,0,0,-1,636,1744,0,0
-581,-720,0,0,0,0,0,0,0,0,0,-1,643,1744,0,0
-574,-720,0,0,0,0,0,0,0,0,0,-1,650,1744,0,0
-567,-720,0,0,0,0,0,0,0,0,0,-1,657,1744,0,0
-560,-720,0,0,0,0,0,0,0,0,0,-1,664,1744,0,0
-553,-720,0,0,0,0,0,0,0,0,0,-1,671,1744,0,0
-546,-720,0,0,0,0,0,0,0,0,0,-1,678,1744,0,0
-539,-720,0,0,0,0,0,0,0,0,0,-1,685,1744,0,0
-532,-720,0,0,0,0,0,0,0,0,0,-1,692,1744,0,0
-525,-720,0,0,0,0,0,0,0,0,0,-1,699,1744,0,0
-518,-720,0,0,0,0,0,0,0,0,0,-1,706,1744,0,0
-511,-720,0,0,0,0,0,0,0,0,0,-1,713,1744,0,0
-504,-720,0,0,0,0,0,0,0,0,0,-1,720,1744,0,0
-497,-720,0,0,0,0,0,0,0,0,0,-1,727,1744,0,0
-490,-720,0,0,0,0,0,0,0,0,0,-1,734,1744,0,0
-483,-720,0,0,0,0,0,0,0,0,0,-1,741,1744,0,0
-476,-720,0,0,0,0,0,0,0,0,0,-1,748,1744,0,0
-469,-720,0,0,0,0,0,0,0,0,0,-1,755,1744,0,0
-462,-720,0,0,0,0,0,0,0,0,0,-1,762,1744,0,0
-455,-720,0,0,0,0,0,0,0,0,0,-1,769,1744,0,0
-448,-720,0,0,0,0,0,0,0,0,0,-1,776,1744,0,0
-441,-720,0,0,0,0,0,0,0,0,0,-1,783,1744,0,0
-434,-720,0,0,0,0,0,0,0,0,0,-1,790,1744,0,0
-427,-720,0,0,0,0,0,0,0,0,0,-1,797,1744,0,0
-420,-720,0,0,0,0,0,0,0,0,0,-1,804,1744,0,0
-413,-720,0,0,0,0,0,0,0,0,0,-1,811,1744,0,0
-406,-720,0,0,0,0,0,0,0,0,0,-1,818,1744,0,0
-399,-720,0,0,0,0,0,0,0,0,0,-1,825,1744,0,0
-392,-720,0,0,0,0,0,0,0,0,0,-1,832,1744,0,0
-385,-720,0,0,0,0,0,0,0,0,0,-1,839,1744,0,0
-378,-720,0,0,0,0,0,0,0,0,0,-1,846,1744,0,0
-371,-720,0,0,0,0,0,0,0,0,0,-1,853,1744,0,0
-364,-720,0,0,0,0,0,0,0,0,0,-1,860,1744,0,0
-357,-720,0,0,0,0,0,0,0,0,0,-1,867,1744,0,0
-350,-720,0,0,0,0,0,0,0,0,0,-1,874,1744,0,0
-343,-720,0,0,0,0,0,0,0,0,0,-1,881,1744,0,0
-336,-720,0,0,0,0,0,0,0,0,0,-1,888,1744,0,0
-329,-720,0,0,0,0,0,0,0,0,0,-1,895,1744,0,0
-322,-720,0,0,0,0,0,0,0,0,0,-1,902,1744,0,0
-315,-720,0,0,0,0,0,0,0,0,0,-1,909,1744,0,0
-308,-720,0,0,0,0,0,0,0,0,0,-1,916,1744,0,0
-301,-720,0,0,0,0,0,0,0,0,0,-1,923,1744,0,0
-294,-720,0,0,0,0,0,0,0,0,0,-1,930,1744,0,0
-287,-720,0,0,0,0,0,0,0,0,0,-1,937,1744,0,0
-280,-720,6.46796,22.6417,0,0,0,0,0,0,0,-1,944,1744,6.46793,-22.6417
-273,-720,8.54633,13.262,0,0,0,0,0,0,0,-1,951,1744,8.54636,-13.2619
-266,-720,7.28027,13.3165,0,0,0,0,0,0,0,-1,958,1744,7.28026,-13.3166
-259,-720,3.70563,18.6372,0,0,0,0,0,0,0,-1,965,1744,3.70564,-18.6372
-252,-720,4.00989,18.5059,0,0,0,0,0,0,0,-1,972,1744,4.00988,-18.5058
-245,-720,7.05634,33.8489,0,0,0,0,0,0,0,-1,979,1744,7.05634,-33.8489
-238,-720,5.02216,24.1455,0,0,0,0,0,0,0,-1,986,1744,5.02217,-24.1455
-231,-720,7.35455,28.3225,0,0,0,0,0,0,0,-1,993,1744,7.35453,-28.3225
-224,-720,9.2887,38.2468,0,0,0,0,0,0,0,-1,1000,1744,9.28869,-38.2468
-217,-720,8.88116,39.9061,0,0,0,0,0,0,0,-1,1007,1744,8.88116,-39.9061
-210,-720,8.74036,38.6686,0,0,0,0,0,0,0,-1,1014,1744,8.74035,-38.6686
-203,-720,7.89978,34.8447,0,0,0,0,0,0,0,-1,1021,1744,7.89975,-34.8447
-196,-720,9.08826,41.9811,0,0,0,0,0,0,0,-1,1028,1744,9.08827,-41.9811
-189,-720,8.73792,43.0328,0.00837204,-0.0351791,-0.00972394,0.0104445,-0.0372516,-0.209992,0.0289509,0.0454671,1035,1744,8.73791,-43.0328
-182,-720,8.70996,43.3414,0.00727467,-0.0312247,-0.00987142,0.00965818,-0.0336082,-0.236921,0.0262245,0.0388381,1042,1744,8.70993,-43.3414
-175,-720,9.45508,43.2949,0.00573804,-0.0262042,-0.00942181,0.00831003,-0.0287762,-0.26649,0.0224723,0.0397158,1049,1744,9.45508,-43.2949
-168,-720,9.33789,43.5942,0.00406833,-0.0212095,-0.00838564,0.00659718,-0.0237384,-0.292896,0.0184227,0.0435213,1056,1744,9.3379,-43.5943
-161,-720,9.02808,43.9132,0,0,0,0,0,0,0,-1,1063,1744,9.02804,-43.9132
-154,-720,9.06604,44.4037,0.000429875,-0.0114597,-0.00547499,0.00256693,-0.0135967,-0.372142,0.0100302,0.0236738,1070,1744,9.06608,-44.4036
-147,-720,9.0094,44.8024,-0.00101568,-0.00724794,-0.00386266,0.000831089,-0.00909472,-0.445982,0.00635831,0.0209417,1077,1744,9.00935,-44.8023
-140,-720,8.99438,45.1705,-0.00203892,-0.0038318,-0.00244506,-0.000331145,-0.00553957,-0.609691,0.00358776,0.0176142,1084,1744,8.99437,-45.1705
-133,-720,8.93701,45.4608,-0.00232507,0.000130872,-0.00121929,0.000633387,-0.00282759,-1.17987,0.00212785,0.0138812,1091,1744,8.93703,-45.4608
-126,-720,8.91174,45.7906,-0.0040848,0.0028159,-0.000152856,0.00281928,-0.00408818,-1.54866,0.00401039,0.0136045,1098,1744,8.91179,-45.7907
-119,-720,8.88806,46.1248,-0.00495816,0.00311678,0.00185697,0.00352335,-0.00536473,1.35525,0.00516811,0.0146584,1105,1744,8.88812,-46.1248
-112,-720,8.84912,46.4341,-0.00372589,0.00349635,0.00256641,0.00431543,-0.00454497,1.26186,0.00511613,0.0137087,1112,1744,8.84911,-46.4341
-105,-720,8.83313,46.7197,-0.00302043,0.00317968,0.00258983,0.00411912,-0.00395987,1.22281,0.00466471,0.01353,1119,1744,8.83314,-46.7198
-98,-720,8.82483,47.0073,-0.00231006,0.0028308,0.00259861,0.00391548,-0.00339475,1.17537,0.00422413,0.0106667,1126,1744,8.8248,-47.0073
-91,-720,8.77661,47.2803,-0.00169513,0.00274056,0.00252775,0.00388551,-0.00284008,1.14549,0.00389862,0.00958017,1133,1744,8.77656,-47.2802
-84,-720,8.75647,47.5675,-0.00121471,0.00227143,0.00229557,0.0034107,-0.00235398,1.11012,0.00334683,0.010272,1140,1744,8.75651,-47.5675
-77,-720,8.76025,47.8658,-0.000642967,0.00193774,0.00215569,0.00315976,-0.00186498,1.05509,0.00293296,0.0137376,1147,1744,8.7603,-47.8659
-70,-720,8.75024,48.1079,-0.000222844,0.00142249,0.00181318,0.0025909,-0.00139126,0.998368,0.00233362,0.0120866,1154,1744,8.75029,-48.1079
-63,-720,8.73486,48.3375,-8.96042e-05,0.00104791,0.00127632,0.00187647,-0.000918161,0.995002,0.0016448,0.0111888,1161,1744,8.73485,-48.3376
-56,-720,8.74133,48.5522,0.000117276,0.000827225,0.000996124,0.00152973,-0.000585232,0.956561,0.00126101,0.0132733,1168,1744,8.74135,-48.5522
-49,-720,8.72327,48.7712,0.000320483,0.000709474,0.000885012,0.00142111,-0.000391153,0.893562,0.0011012,0.0200031,1175,1744,8.7233,-48.7712
-42,-720,8.74438,48.9518,0.000505203,0.000621611,0.000901155,0.00146644,-0.000339626,0.817647,0.00110832,0.0222739,1182,1744,8.74444,-48.9518
-35,-720,8.77185,49.1271,0.000711926,0.000602955,0.0010462,0.00170506,-0.000390177,0.759382,0.00128664,0.0193903,1189,1744,8.77179,-49.127
-28,-720,8.74146,49.3333,0.000786738,0.000612171,0.00117823,0.00188091,-0.000482,0.748425,0.00144172,0.0109246,1196,1744,8.74149,-49.3332
-21,-720,8.72815,49.5056,0.000697661,0.000721224,0.00137806,0.00208755,-0.000668667,0.789673,0.0016601,0.00911401,1203,1744,8.72815,-49.5056
-14,-720,8.72498,49.6451,0.000672657,0.000903372,0.00163649,0.00242856,-0.000852534,0.820585,0.00196584,0.0113424,1210,1744,8.72494,-49.6452
-7,-720,8.74121,49.8053,0.000676309,0.00108947,0.00173149,0.00262666,-0.000860881,0.844771,0.0020978,0.0122633,1217,1744,8.74116,-49.8053
0,-720,8.75598,49.9486,0.000704369,0.00151435,0.00187022,0.00302293,-0.000804213,0.892025,0.00233009,0.013056,1224,1744,8.75597,-49.9486
7,-720,8.76721,50.0441,0.000771299,0.00198364,0.00188014,0.00335292,-0.000597975,0.941341,0.00245896,0.0158085,1231,1744,8.7672,-50.0441
14,-720,8.78235,50.1372,0.000861521,0.00227039,0.00173533,0.00343881,-0.000306906,0.978205,0.00240139,0.0143796,1238,1744,8.78239,-50.1372
21,-720,8.7926,50.2321,0.00093194,0.00263927,0.00145851,0.00347558,9.5632e-05,1.05017,0.00228584,0.0110024,1245,1744,8.79263,-50.232
28,-720,8.79333,50.3059,0.00106382,0.00296383,0.00121028,0.00355242,0.000475221,1.11815,0.00222684,0.0110429,1252,1744,8.79339,-50.3059
35,-720,8.80688,50.3668,0.00126746,0.00314066,0.000878375,0.0034881,0.000920016,1.19413,0.00208744,0.011051,1259,1744,8.80694,-50.3669
42,-720,8.82031,50.4163,0.00147623,0.00312511,0.000524407,0.00327776,0.00132358,1.28753,0.00190406,0.0118565,1266,1744,8.82033,-50.4162
49,-720,8.84949,50.4186,0.00155685,0.00292013,0.000179766,0.00294344,0.00153354,1.44187,0.00169989,0.0133216,1273,1744,8.84955,-50.4185
56,-720,8.86731,50.4318,0.00167468,0.00268376,-2.95911e-05,0.00268463,0.00167382,-1.54151,0.00156565,0.0119031,1280,1744,8.86731,-50.4318
63,-720,8.88342,50.4507,0.0017854,0.00239523,-0.000194141,0.00245179,0.00172884,-1.28731,0.00145471,0.0129907,1287,1744,8.88338,-50.4507
70,-720,8.90637,50.4711,0.00175212,0.00200128,-0.000330213,0.00222963,0.00152377,-0.965778,0.00131583,0.0131236,1294,1744,8.90638,-50.4711
77,-720,8.91321,50.4561,0.00178554,0.00136447,-0.000288749,0.00193236,0.00121765,-0.470393,0.00112817,0.0151427,1301,1744,8.91321,-50.4561
84,-720,8.93958,50.4004,0.00190583,0.00068073,-0.000265298,0.00196081,0.000625747,-0.204358,0.0011565,0.0140074,1308,1744,8.93962,-50.4004
91,-720,8.95483,50.3575,0.00174545,0.000228788,-0.000229426,0.0017794,0.000194843,-0.146893,0.00112695,0.0126348,1315,1744,8.95481,-50.3575
98,-720,8.94458,50.3204,0.00151983,-0.000167658,-0.000102394,0.00152602,-0.000173848,-0.0603833,0.00107997,0.0118195,1322,1744,8.94459,-50.3204
105,-720,8.96082,50.2446,0.00137826,-0.000575977,-5.54351e-05,0.00137983,-0.000577548,-0.0283362,0.00116131,0.0121394,1329,1744,8.96084,-50.2446
112,-720,8.99072,50.1771,0.00132148,-0.0009107,8.51621e-05,0.00132473,-0.000913945,0.0380782,0.00129973,0.0116739,1336,1744,8.99071,-50.1771
119,-720,8.99182,50.1034,0.00126866,-0.0010084,0.00021031,0.00128792,-0.00102766,0.0913307,0.00133971,0.0111314,1343,1744,8.99184,-50.1034
126,-720,8.99683,49.9928,0.00129114,-0.00113973,0.00029711,0.00132692,-0.00117552,0.119873,0.00144567,0.0111654,1350,1744,8.99686,-49.9928
133,-720,9.00671,49.8636,0.00123473,-0.00104279,0.000217608,0.00125533,-0.0010634,0.0944081,0.00134024,0.0130185,1357,1744,9.00673,-49.8637
140,-720,9.03674,49.7306,0.0011015,-0.000766692,0.000182346,0.00111913,-0.000784324,0.0963934,0.00110461,0.0186795,1364,1744,9.03673,-49.7305
147,-720,9.02991,49.562,0.000965072,-0.00049702,0.000121686,0.000975131,-0.000507079,0.082471,0.00086986,0.0190307,1371,1744,9.0299,-49.562
154,-720,9.00757,49.3981,0.000877224,-0.000202942,6.92955e-05,0.000881651,-0.00020737,0.063804,0.000667712,0.0132703,1378,1744,9.0076,-49.3981
161,-720,9.04431,49.2235,0.000722184,4.17049e-05,-4.51903e-05,0.000725172,3.8717e-05,-0.0660232,0.000471073,0.0100471,1385,1744,9.04434,-49.2235
168,-720,9.04846,49.0479,0.000516781,0.000141479,-0.000187222,0.000594206,6.40547e-05,-0.392127,0.000376606,0.0106317,1392,1744,9.04843,-49.0479
175,-720,9.03174,48.837,0.000367772,0.000206546,-0.000324169,0.000621201,-4.6883e-05,-0.663532,0.000430613,0.0161487,1399,1744,9.03177,-48.8371
182,-720,9.03369,48.6388,0.000195484,0.000335195,-0.000486765,0.000757092,-0.000226413,-0.856666,0.000594742,0.0151873,1406,1744,9.03373,-48.6388
189,-720,9.04199,48.4222,4.47516e-05,0.000553214,-0.00065162,0.000998442,-0.000400476,-0.971392,0.000831897,0.0127377,1413,1744,9.04195,-48.4222
196,-720,9.03503,48.1771,-0.00012881,0.000988875,-0.000915461,0.00150259,-0.000642522,-1.05943,0.00127123,0.0121723,1420,1744,9.03501,-48.1771
203,-720,8.99146,47.9391,-0.000333985,0.00133601,-0.00125756,0.00201055,-0.00100852,-1.07847,0.00177477,0.0136319,1427,1744,8.99151,-47.9391
210,-720,8.9928,47.7086,-0.000463892,0.00179758,-0.00163787,0.00265711,-0.00132343,-1.08751,0.00234077,0.0138004,1434,1744,8.9928,-47.7086
217,-720,9.00098,47.4222,-0.000650733,0.00191933,-0.00191227,0.00293823,-0.00166963,-1.08124,0.00269374,0.0133316,1441,1744,9.001,-47.4223
224,-720,8.97961,47.1313,-0.00094445,0.00201567,-0.00223296,0.00321455,-0.00214333,-1.07807,0.00311391,0.00927934,1448,1744,8.97957,-47.1313
231,-720,8.97266,46.8538,-0.00147023,0.00190347,-0.00245178,0.00319264,-0.0027594,-1.08671,0.00343944,0.00951378,1455,1744,8.97264,-46.8537
238,-720,8.95422,46.5663,-0.00184318,0.00181122,-0.0026657,0.00321584,-0.00324779,-1.08584,0.00373179,0.00870168,1462,1744,8.95419,-46.5663
245,-720,8.93408,46.2914,-0.00218655,0.00174945,-0.00291288,0.00329683,-0.00373393,-1.08249,0.00406183,0.0111054,1469,1744,8.93406,-46.2914
252,-720,8.91895,45.9648,-0.00268254,0.00165366,-0.00311633,0.00328189,-0.00431077,-1.08932,0.00439702,0.0111754,1476,1744,8.91889,-45.9648
259,-720,8.88672,45.6284,-0.00328236,0.00137624,-0.00312791,0.00294687,-0.00485299,-1.10544,0.00454785,0.0106251,1483,1744,8.88669,-45.6284
266,-720,8.85474,45.3044,-0.00380497,0.000986232,-0.00308266,0.00249469,-0.00531343,-1.11572,0.00460489,0.00856592,1490,1744,8.85477,-45.3045
273,-720,8.823,44.9712,-0.00431561,0.000709847,-0.00305152,0.00215004,-0.0057558,-1.12983,0.00472004,0.0127553,1497,1744,8.823,-44.9712
280,-720,8.76404,44.6316,-0.0047897,0.000576268,-0.00306813,0.00196905,-0.00618248,-1.14466,0.00491138,0.0163991,1504,1744,8.76408,-44.6316
287,-720,8.73499,44.2313,-0.0052281,0.000953471,-0.00311452,0.00225053,-0.00652516,-1.17619,0.00526319,0.0271662,1511,1744,8.73502,-44.2314
294,-720,8.81689,43.7642,-0.0056145,0.00116461,-0.00317134,0.00241688,-0.00686676,-1.19472,0.00556137,0.0361732,1518,1744,8.81694,-43.7641
301,-720,8.77087,43.3975,-0.00496894,0.001603,-0.00326304,0.00294791,-0.00631385,-1.17985,0.00546372,0.0457393,1525,1744,8.77083,-43.3975
308,-720,8.61768,43.1244,-0.00378465,0.00207388,-0.0040724,0.00416109,-0.00587186,-1.09718,0.00582053,0.0481827,1532,1744,8.61771,-43.1243
315,-720,8.62122,42.8893,0,0,0,0,0,0,0,-1,1539,1744,8.62117,-42.8893
322,-720,9.297,40.8348,0,0,0,0,0,0,0,-1,1546,1744,9.29705,-40.8348
329,-720,9.15906,34.7668,0,0,0,0,0,0,0,-1,1553,1744,9.1591,-34.7669
336,-720,6.14148,26.5682,0,0,0,0,0,0,0,-1,1560,1744,6.14151,-26.5683
343,-720,6.78552,21.3625,0,0,0,0,0,0,0,-1,1567,1744,6.78551,-21.3625
350,-720,4.0741,11.1836,0,0,0,0,0,0,0,-1,1574,1744,4.07412,-11.1836
357,-720,6.90833,21.4504,0,0,0,0,0,0,0,-1,1581,1744,6.90827,-21.4505
364,-720,5.83777,24.1599,0,0,0,0,0,0,0,-1,1588,1744,5.83773,-24.1599
371,-720,5.46997,23.6176,0,0,0,0,0,0,0,-1,1595,1744,5.47001,-23.6176
378,-720,3.88257,25.5404,0,0,0,0,0,0,0,-1,1602,1744,3.88262,-25.5404
385,-720,4.672,37.3854,0,0,0,0,0,0,0,-1,1609,1744,4.67202,-37.3854
392,-720,4.89319,36.2684,0,0,0,0,0,0,0,-1,1616,1744,4.89323,-36.2684
399,-720,2.37317,24.7166,0,0,0,0,0,0,0,-1,1623,1744,2.37317,-24.7166
406,-720,0,0,0,0,0,0,0,0,0,-1,1630,1744,0,0
413,-720,0,0,0,0,0,0,0,0,0,-1,1637,1744,0,0
420,-720,0,0,0,0,0,0,0,0,0,-1,1644,1744,0,0
427,-720,0,0,0,0,0,0,0,0,0,-1,1651,1744,0,0
434,-720,0,0,0,0,0,0,0,0,0,-1,1658,1744,0,0
441,-720,0,0,0,0,0,0,0,0,0,-1,1665,1744,0,0
448,-720,0,0,0,0,0,0,0,0,0,-1,1672,1744,0,0
455,-720,0,0,0,0,0,0,0,0,0,-1,1679,1744,0,0
462,-720,0,0,0,0,0,0,0,0,0,-1,1686,1744,0,0
469,-720,0,0,0,0,0,0,0,0,0,-1,1693,1744,0,0
476,-720,0,0,0,0,0,0,0,0,0,-1,1700,1744,0,0
483,-720,0,0,0,0,0,0,0,0,0,-1,1707,1744,0,0
490,-720,0,0,0,0,0,0,0,0,0,-1,1714,1744,0,0
497,-720,0,0,0,0,0,0,0,0,0,-1,1721,1744,0,0
504,-720,0,0,0,0,0,0,0,0,0,-1,1728,1744,0,0
511,-720,0,0,0,0,0,0,0,0,0,-1,1735,1744,0,0
518,-720,0,0,0,0,0,0,0,0,0,-1,1742,1744,0,0
525,-720,0,0,0,0,0,0,0,0,0,-1,1749,1744,0,0
532,-720,0,0,0,0,0,0,0,0,0,-1,1756,1744,0,0
539,-720,0,0,0,0,0,0,0,0,0,-1,1763,1744,0,0
546,-720,0,0,0,0,0,0,0,0,0,-1,1770,1744,0,0
553,-720,0,0,0,0,0,0,0,0,0,-1,1777,1744,0,0
560,-720,0,0,0,0,0,0,0,0,0,-1,1784,1744,0,0
567,-720,0,0,0,0,0,0,0,0,0,-1,1791,1744,0,0
574,-720,0,0,0,0,0,0,0,0,0,-1,1798,1744,0,0
581,-720,0,0,0,0,0,0,0,0,0,-1,1805,1744,0,0
588,-720,0,0,0,0,0,0,0,0,0,-1,1812,1744,0,0
595,-720,0,0,0,0,0,0,0,0,0,-1,1819,1744,0,0
602,-720,0,0,0,0,0,0,0,0,0,-1,1826,1744,0,0
609,-720,0,0,0,0,0,0,0,0,0,-1,1833,1744,0,0
616,-720,0,0,0,0,0,0,0,0,0,-1,1840,1744,0,0
623,-720,0,0,0,0,0,0,0,0,0,-1,1847,1744,0,0
630,-720,0,0,0,0,0,0,0,0,0,-1,1854,1744,0,0
637,-720,0,0,0,0,0,0,0,0,0,-1,1861,1744,0,0
644,-720,0,0,0,0,0,0,0,0,0,-1,1868,1744,0,0
651,-720,0,0,0,0,0,0,0,0,0,-1,1875,1744,0,0
658,-720,0,0,0,0,0,0,0,0,0,-1,1882,1744,0,0
665,-720,0,0,0,0,0,0,0,0,0,-1,1889,1744,0,0
672,-720,0,0,0,0,0,0,0,0,0,-1,1896,1744,0,0
679,-720,0,0,0,0,0,0,0,0,0,-1,1903,1744,0,0
686,-720,0,0,0,0,0,0,0,0,0,-1,1910,1744,0,0
693,-720,0,0,0,0,0,0,0,0,0,-1,1917,1744,0,0
700,-720,0,0,0,0,0,0,0,0,0,-1,1924,1744,0,0
707,-720,0,0,0,0,0,0,0,0,0,-1,1931,1744,0,0
714,-720,0,0,0,0,0,0,0,0,0,-1,1938,1744,0,0
721,-720,0,0,0,0,0,0,0,0,0,-1,1945,1744,0,0
728,-720,0,0,0,0,0,0,0,0,0,-1,1952,1744,0,0
735,-720,0,0,0,0,0,0,0,0,0,-1,1959,1744,0,0
742,-720,0,0,0,0,0,0,0,0,0,-1,1966,1744,0,0
749,-720,0,0,0,0,0,0,0,0,0,-1,1973,1744,0,0
756,-720,0,0,0,0,0,0,0,0,0,-1,1980,1744,0,0
763,-720,0,0,0,0,0,0,0,0,0,-1,1987,1744,0,0
770,-720,0,0,0,0,0,0,0,0,0,-1,1994,1744,0,0
777,-720,0,0,0,0,0,0,0,0,0,-1,2001,1744,0,0
784,-720,0,0,0,0,0,0,0,0,0,-1,2008,1744,0,0
791,-720,0,0,0,0,0,0,0,0,0,-1,2015,1744,0,0
798,-720,0,0,0,0,0,0,0,0,0,-1,2022,1744,0,0
805,-720,0,0,0,0,0,0,0,0,0,-1,2029,1744,0,0
812,-720,0,0,0,0,0,0,0,0,0,-1,2036,1744,0,0
-700,-727,0,0,0,0,0,0,0,0,0,-1,524,1751,0,0
-693,-727,0,0,0,0,0,0,0,0,0,-1,531,1751,0,0
-686,-727,0,0,0,0,0,0,0,0,0,-1,538,1751,0,0
-679,-727,0,0,0,0,0,0,0,0,0,-1,545,1751,0,0
-672,-727,0,0,0,0,0,0,0,0,0,-1,552,1751,0,0
-665,-727,0,0,0,0,0,0,0,0,0,-1,559,1751,0,0
-658,-727,0,0,0,0,0,0,0,0,0,-1,566,1751,0,0
-651,-727,0,0,0,0,0,0,0,0,0,-1,573,1751,0,0
-644,-727,0,0,0,0,0,0,0,0,0,-1,580,1751,0,0
-637,-727,0,0,0,0,0,0,0,0,0,-1,587,1751,0,0
-630,-727,0,0,0,0,0,0,0,0,0,-1,594,1751,0,0
-623,-727,0,0,0,0,0,0,0,0,0,-1,601,1751,0,0
-616,-727,0,0,0,0,0,0,0,0,0,-1,608,1751,0,0
-609,-727,0,0,0,0,0,0,0,0,0,-1,615,1751,0,0
-602,-727,0,0,0,0,0,0,0,0,0,-1,622,1751,0,0
-595,-727,0,0,0,0,0,0,0,0,0,-1,629,1751,0,0
-588,-727,0,0,0,0,0,0,0,0,0,-1,636,1751,0,0
-581,-727,0,0,0,0,0,0,0,0,0,-1,643,1751,0,0
-574,-727,0,0,0,0,0,0,0,0,0,-1,650,1751,0,0
-567,-727,0,0,0,0,0,0,0,0,0,-1,657,1751,0,0
-560,-727,0,0,0,0,0,0,0,0,0,-1,664,1751,0,0
-553,-727,0,0,0,0,0,0,0,0,0,-1,671,1751,0,0
-546,-727,0,0,0,0,0,0,0,0,0,-1,678,1751,0,0
-539,-727,0,0,0,0,0,0,0,0,0,-1,685,1751,0,0
-532,-727,0,0,0,0,0,0,0,0,0,-1,692,1751,0,0
-525,-727,0,0,0,0,0,0,0,0,0,-1,699,1751,0,0
-518,-727,0,0,0,0,0,0,0,0,0,-1,706,1751,0,0
-511,-727,0,0,0,0,0,0,0,0,0,-1,713,1751,0,0
-504,-727,0,0,0,0,0,0,0,0,0,-1,720,1751,0,0
-497,-727,0,0,0,0,0,0,0,0,0,-1,727,1751,0,0
-490,-727,0,0,0,0,0,0,0,0,0,-1,734,1751,0,0
-483,-727,0,0,0,0,0,0,0,0,0,-1,741,1751,0,0
-476,-727,0,0,0,0,0,0,0,0,0,-1,748,1751,0,0
-469,-727,0,0,0,0,0,0,0,0,0,-1,755,1751,0,0
-462,-727,0,0,0,0,0,0,0,0,0,-1,762,1751,0,0
-455,-727,0,0,0,0,0,0,0,0,0,-1,769,1751,0,0
-448,-727,0,0,0,0,0,0,0,0,0,-1,776,1751,0,0
-441,-727,0,0,0,0,0,0,0,0,0,-1,783,1751,0,0
-434,-727,0,0,0,0,0,0,0,0,0,-1,790,1751,0,0
-427,-727,0,0,0,0,0,0,0,0,0,-1,797,1751,0,0
-420,-727,0,0,0,0,0,0,0,0,0,-1,804,1751,0,0
-413,-727,0,0,0,0,0,0,0,0,0,-1,811,1751,0,0
-406,-727,0,0,0,0,0,0,0,0,0,-1,818,1751,0,0
-399,-727,0,0,0,0,0,0,0,0,0,-1,825,1751,0,0
-392,-727,0,0,0,0,0,0,0,0,0,-1,832,1751,0,0
-385,-727,0,0,0,0,0,0,0,0,0,-1,839,1751,0,0
-378,-727,0,0,0,0,0,0,0,0,0,-1,846,1751,0,0
-371,-727,0,0,0,0,0,0,0,0,0,-1,853,1751,0,0
-364,-727,0,0,0,0,0,0,0,0,0,-1,860,1751,0,0
-357,-727,0,0,0,0,0,0,0,0,0,-1,867,1751,0,0
-350,-727,0,0,0,0,0,0,0,0,0,-1,874,1751,0,0
-343,-727,0,0,0,0,0,0,0,0,0,-1,881,1751,0,0
-336,-727,0,0,0,0,0,0,0,0,0,-1,888,1751,0,0
-329,-727,0,0,0,0,0,0,0,0,0,-1,895,1751,0,0
-322,-727,0,0,0,0,0,0,0,0,0,-1,902,1751,0,0
-315,-727,0,0,0,0,0,0,0,0,0,-1,909,1751,0,0
-308,-727,0,0,0,0,0,0,0,0,0,-1,916,1751,0,0
-301,-727,0,0,0,0,0,0,0,0,0,-1,923,1751,0,0
-294,-727,0,0,0,0,0,0,0,0,0,-1,930,1751,0,0
-287,-727,0,0,0,0,0,0,0,0,0,-1,937,1751,0,0
-280,-727,0,0,0,0,0,0,0,0,0,-1,944,1751,0,0
-273,-727,0,0,0,0,0,0,0,0,0,-1,951,1751,0,0
-266,-727,4.24805,7.61145,0,0,0,0,0,0,0,-1,958,1751,4.24802,-7.6115
-259,-727,3.65228,5.4082,0,0,0,0,0,0,0,-1,965,1751,3.65229,-5.40818
-252,-727,5.8797,32.9292,0,0,0,0,0,0,0,-1,972,1751,5.87972,-32.9292
-245,-727,6.59198,32.2588,0,0,0,0,0,0,0,-1,979,1751,6.59195,-32.2587
-238,-727,6.6189,30.4597,0,0,0,0,0,0,0,-1,986,1751,6.61889,-30.4598
-231,-727,6.70105,28.9473,0,0,0,0,0,0,0,-1,993,1751,6.70103,-28.9472
-224,-727,7.0614,27.79,0,0,0,0,0,0,0,-1,1000,1751,7.06139,-27.79
-217,-727,9.07013,38.8207,0,0,0,0,0,0,0,-1,1007,1751,9.07015,-38.8207
-210,-727,5.0921,32.4524,0,0,0,0,0,0,0,-1,1014,1751,5.09209,-32.4523
-203,-727,9.05786,39.0233,0,0,0,0,0,0,0,-1,1021,1751,9.05789,-39.0233
-196,-727,9.35156,43.2854,0,0,0,0,0,0,0,-1,1028,1751,9.35156,-43.2854
-189,-727,9.09985,43.9709,0.0140301,-0.0512834,-0.0151273,0.0173636,-0.0546169,-0.216897,0.0433735,0.0447075,1035,1751,9.09982,-43.9709
-182,-727,8.50195,44.4105,0.0121433,-0.0448651,-0.0151,0.0158959,-0.0486177,-0.243581,0.0388111,0.0429742,1042,1751,8.50195,-44.4105
-175,-727,10.6343,43.4956,0.00961662,-0.0371669,-0.0141941,0.0135862,-0.0411366,-0.272701,0.0329018,0.0441093,1049,1751,10.6343,-43.4956
-168,-727,10.2379,43.8865,0.00688543,-0.0296748,-0.0125128,0.0107578,-0.0335471,-0.300124,0.0266836,0.045467,1056,1751,10.2379,-43.8865
-161,-727,9.74414,43.995,0,0,0,0,0,0,0,-1,1063,1751,9.7442,-43.9951
-154,-727,9.50562,44.2798,0.00125279,-0.0155368,-0.00804539,0.00448558,-0.0187696,-0.382073,0.0142457,0.0497394,1070,1751,9.5056,-44.2798
-147,-727,9.31616,44.6147,-0.00104808,-0.00965931,-0.00564814,0.0017484,-0.0124558,-0.459733,0.00894381,0.0452187,1077,1751,9.31619,-44.6147
-140,-727,9.22424,44.9115,-0.00272897,-0.00494412,-0.00352166,-0.000144823,-0.00752827,-0.633043,0.00497127,0.031273,1084,1751,9.2243,-44.9115
-133,-727,9.28162,45.3304,-0.0033019,0.000321494,-0.00173576,0.00101881,-0.00399921,-1.1888,0.00306276,0.0235383,1091,1751,9.28158,-45.3305
-126,-727,9.18237,45.743,-0.00583894,0.00386893,-0.00019313,0.00387277,-0.00584278,-1.55091,0.00564758,0.0166502,1098,1751,9.18235,-45.7431
-119,-727,9.14087,46.1122,-0.00714855,0.00427956,0.00253186,0.00481537,-0.00768436,1.36225,0.00727981,0.0131893,1105,1751,9.14088,-46.1122
-112,-727,9.13843,46.3953,-0.00560765,0.00486641,0.00353064,0.00594538,-0.00668662,1.27421,0.00729727,0.0148533,1112,1751,9.13837,-46.3953
-105,-727,9.08264,46.7078,-0.00476566,0.00448764,0.00363175,0.00574278,-0.00602081,1.23804,0.00679234,0.0149309,1119,1751,9.08266,-46.7077
-98,-727,9.06213,47.0287,-0.00390338,0.0040708,0.00371294,0.00553191,-0.00536448,1.19589,0.00629128,0.0122865,1126,1751,9.06216,-47.0287
-91,-727,9.04614,47.292,-0.00316831,0.00399993,0.00369791,0.00556561,-0.00473399,1.17028,0.00595293,0.0118242,1133,1751,9.04615,-47.292
-84,-727,9.021,47.5565,-0.00261539,0.00332968,0.00345233,0.00491286,-0.00419857,1.14083,0.00526587,0.012151,1140,1751,9.02097,-47.5565
-77,-727,9.0061,47.8403,-0.00189037,0.0027985,0.00334241,0.00453673,-0.00362859,1.09124,0.00472396,0.0131443,1147,1751,9.00613,-47.8404
-70,-727,8.99048,48.1198,-0.00138403,0.00204183,0.00290224,0.00369894,-0.00304114,1.05199,0.00389756,0.0137283,1154,1751,8.99048,-48.1198
-63,-727,8.96973,48.3562,-0.00148864,0.00168122,0.00208611,0.00271619,-0.0025236,1.11026,0.00302587,0.0110547,1161,1751,8.96977,-48.3562
-56,-727,8.94409,48.5667,-0.0014321,0.0014619,0.00155713,0.00214057,-0.00211077,1.15977,0.00245453,0.0114057,1168,1751,8.94407,-48.5667
-49,-727,8.92639,48.7823,-0.00123455,0.00131539,0.00122758,0.00181031,-0.00172947,1.18756,0.00204387,0.0143054,1175,1751,8.92641,-48.7824
-42,-727,8.94153,48.9836,-0.000926279,0.00117959,0.000992025,0.0015733,-0.00131999,1.19298,0.00167257,0.01719,1182,1751,8.94154,-48.9836
-35,-727,8.91333,49.1543,-0.000600987,0.000993918,0.000861251,0.00137021,-0.000977282,1.15888,0.00136164,0.0154971,1189,1751,8.91337,-49.1543
-28,-727,8.89551,49.3271,-0.00046093,0.000714757,0.000825414,0.00114026,-0.000886431,1.09483,0.00117316,0.00895799,1196,1751,8.89556,-49.3272
-21,-727,8.88098,49.5018,-0.000354646,0.000553313,0.00087535,0.0010854,-0.000886737,1.02462,0.00114054,0.0101432,1203,1751,8.88094,-49.5019
-14,-727,8.875,49.6477,-0.000207921,0.000568107,0.00103144,0.0012821,-0.000921912,0.965304,0.00127814,0.0119704,1210,1751,8.87498,-49.6477
-7,-727,8.87341,49.8141,-9.86871e-05,0.000587126,0.00108254,0.00137977,-0.000891334,0.938779,0.00132129,0.0156952,1217,1751,8.87347,-49.8141
0,-727,8.86548,49.9717,-4.50203e-05,0.000913636,0.00121023,0.001736,-0.000867384,0.973953,0.0015307,0.0148708,1224,1751,8.86544,-49.9717
7,-727,8.87537,50.0645,2.62603e-05,0.00130295,0.00132529,0.00213562,-0.000806408,1.00983,0.00175541,0.013483,1231,1751,8.87535,-50.0645
14,-727,8.8833,50.1431,0.000125388,0.00154296,0.00140867,0.00241111,-0.000742758,1.01849,0.00190391,0.0130266,1238,1751,8.88325,-50.1431
21,-727,8.8728,50.2397,0.000188245,0.00185167,0.00136669,0.00261983,-0.000579914,1.05874,0.00196854,0.0115174,1245,1751,8.8728,-50.2397
28,-727,8.88525,50.3073,0.000300588,0.00221439,0.00133596,0.0029008,-0.000385818,1.09618,0.00207446,0.0108561,1252,1751,8.88525,-50.3073
35,-727,8.901,50.3622,0.000443748,0.00240774,0.00122998,0.00299964,-0.000148158,1.12228,0.00205093,0.0119143,1259,1751,8.90105,-50.3622
42,-727,8.86926,50.3933,0.000591887,0.00245882,0.00112019,0.00298349,6.72111e-05,1.13276,0.00196698,0.0129795,1266,1751,8.86925,-50.3933
49,-727,8.85291,50.4167,0.00067888,0.00237477,0.000909794,0.0027705,0.000283146,1.16051,0.00176023,0.011471,1273,1751,8.85287,-50.4167
56,-727,8.84375,50.4718,0.000768835,0.00224211,0.00077532,0.00257493,0.000436006,1.16531,0.00159132,0.0095632,1280,1751,8.84373,-50.4717
63,-727,8.8634,50.4749,0.000839311,0.00208704,0.000625899,0.0023469,0.000579459,1.17728,0.00141166,0.011432,1287,1751,8.86336,-50.4748
70,-727,8.8916,50.4629,0.000786872,0.00188044,0.000449239,0.00204132,0.000625992,1.22691,0.00120757,0.0136041,1294,1751,8.89158,-50.4629
77,-727,8.90686,50.4697,0.000747209,0.00152517,0.000269962,0.00160967,0.000662707,1.26744,0.000934163,0.0161299,1301,1751,8.9069,-50.4698
84,-727,8.91211,50.3868,0.000669295,0.00100584,4.4318e-05,0.00101158,0.000663556,1.44204,0.000593431,0.015677,1308,1751,8.91213,-50.3868
91,-727,8.90686,50.3209,0.00047436,0.000606926,-0.000197727,0.000749184,0.000332101,-0.947123,0.000433468,0.0158246,1315,1751,8.90688,-50.3209
98,-727,8.89087,50.3027,0.000243357,0.000230664,-0.000351635,0.000588703,-0.000114682,-0.776375,0.000435756,0.0136241,1322,1751,8.89087,-50.3027
105,-727,8.89197,50.2407,3.50265e-05,-0.000213328,-0.000504911,0.000430807,-0.000609108,-0.664822,0.000603329,0.0132652,1329,1751,8.892,-50.2407
112,-727,8.90442,50.17,-0.000215936,-0.000598488,-0.000610248,0.000232311,-0.00104673,-0.633528,0.000786777,0.0117517,1336,1751,8.90445,-50.1701
119,-727,8.91467,50.0974,-0.000521988,-0.000772494,-0.00071628,7.9908e-05,-0.00137439,-0.69884,0.000944024,0.00920748,1343,1751,8.91465,-50.0974
126,-727,8.91138,49.9688,-0.000715103,-0.000992283,-0.000714208,-0.000126163,-0.00158122,-0.689566,0.00101471,0.0104089,1350,1751,8.91137,-49.9687
133,-727,8.90601,49.8256,-0.000898332,-0.00108984,-0.000786208,-0.000202069,-0.00178611,-0.7248,0.00112942,0.0162187,1357,1751,8.90595,-49.8256
140,-727,8.91052,49.6985,-0.00104306,-0.000973575,-0.000799871,-0.000207691,-0.00180894,-0.807101,0.00114304,0.022327,1364,1751,8.91056,-49.6984
147,-727,8.90186,49.5632,-0.00115724,-0.000850041,-0.000826322,-0.000163162,-0.00184411,-0.87729,0.00117879,0.0188553,1371,1751,8.90185,-49.5632
154,-727,8.87952,49.3943,-0.00127813,-0.00070163,-0.000835284,-0.000106257,-0.0018735,-0.951545,0.00121513,0.0122543,1378,1751,8.87948,-49.3943
161,-727,8.87427,49.2263,-0.00135712,-0.000536269,-0.000941282,8.01739e-05,-0.00197357,-0.990986,0.00134323,0.00954317,1385,1751,8.87428,-49.2263
168,-727,8.84937,49.0527,-0.00145648,-0.000533591,-0.00106319,0.000163975,-0.00215404,-0.99014,0.00149369,0.0128233,1392,1751,8.84938,-49.0527
175,-727,8.83777,48.8539,-0.00148805,-0.000558642,-0.00119825,0.000261863,-0.00230855,-0.970378,0.00163333,0.0185773,1399,1751,8.83772,-48.8539
182,-727,8.85645,48.6462,-0.00145688,-0.000407846,-0.00133985,0.000506492,-0.00237122,-0.971967,0.00177391,0.0195786,1406,1751,8.85646,-48.6462
189,-727,8.82898,48.4146,-0.0013542,7.61516e-05,-0.00143373,0.000963181,-0.00224123,-1.01675,0.00189849,0.0119956,1413,1751,8.82894,-48.4145
196,-727,8.79285,48.1815,-0.00142934,0.000875998,-0.00169035,0.00176928,-0.00232262,-1.08464,0.00236965,0.0127519,1420,1751,8.7929,-48.1815
203,-727,8.76685,47.9312,-0.00160383,0.00152134,-0.00212404,0.00259565,-0.00267815,-1.10253,0.00304495,0.0147769,1427,1751,8.76685,-47.9311
210,-727,8.76245,47.6934,-0.00157951,0.00232894,-0.00265379,0.00367041,-0.00292098,-1.10276,0.00381373,0.0161963,1434,1751,8.76242,-47.6933
217,-727,8.73584,47.4443,-0.00162446,0.00252321,-0.0029395,0.00404679,-0.00314805,-1.0926,0.00416474,0.0126514,1441,1751,8.73578,-47.4443
224,-727,8.71606,47.1284,-0.0019013,0.00265508,-0.00329155,0.00437995,-0.00362617,-1.08811,0.00462916,0.0121974,1448,1751,8.71608,-47.1284
231,-727,8.69971,46.8475,-0.00251715,0.00252463,-0.00351242,0.00432716,-0.00431968,-1.09665,0.00499226,0.0101179,1455,1751,8.69976,-46.8476
238,-727,8.69031,46.5277,-0.00293098,0.00240553,-0.00374323,0.00433416,-0.00485961,-1.09504,0.00531092,0.0112227,1462,1751,8.69027,-46.5277
245,-727,8.67773,46.2588,-0.00331561,0.0023116,-0.0040134,0.0043994,-0.00540341,-1.09111,0.00566954,0.0112392,1469,1751,8.67779,-46.2588
252,-727,8.63733,45.9597,-0.00389907,0.00216033,-0.00421979,0.00432541,-0.00606415,-1.09674,0.00602635,0.0117235,1476,1751,8.63735,-45.9598
259,-727,8.59875,45.6217,-0.00461844,0.00177489,-0.00418165,0.00384177,-0.00668531,-1.11174,0.00615128,0.0148326,1483,1751,8.59877,-45.6217
266,-727,8.60632,45.3461,-0.00524203,0.00126474,-0.00408024,0.00322987,-0.00720716,-1.12196,0.00616994,0.0190996,1490,1751,8.60627,-45.3461
273,-727,8.63379,45.0643,-0.00584588,0.000902987,-0.00400793,0.00276785,-0.00771075,-1.1353,0.00627017,0.0315037,1497,1751,8.63378,-45.0644
280,-727,8.41284,44.7578,-0.00640101,0.000734984,-0.00397341,0.00250727,-0.00817329,-1.15124,0.00644918,0.0489611,1504,1751,8.4128,-44.7579
287,-727,8.21252,44.4363,0,0,0,0,0,0,0,-1,1511,1751,8.21253,-44.4362
294,-727,8.50977,43.5618,0,0,0,0,0,0,0,-1,1518,1751,8.50982,-43.5618
301,-727,8.54004,43.3602,0,0,0,0,0,0,0,-1,1525,1751,8.54004,-43.3602
308,-727,8.30945,43.1863,0,0,0,0,0,0,0,-1,1532,1751,8.30947,-43.1863
315,-727,8.10571,41.24,0,0,0,0,0,0,0,-1,1539,1751,8.10567,-41.2399
322,-727,8.24133,40.2081,0,0,0,0,0,0,0,-1,1546,1751,8.24136,-40.2082
329,-727,5.54419,31.0325,0,0,0,0,0,0,0,-1,1553,1751,5.54425,-31.0325
336,-727,5.55823,20.2439,0,0,0,0,0,0,0,-1,1560,1751,5.55829,-20.2438
343,-727,2.41699,8.72095,0,0,0,0,0,0,0,-1,1567,1751,2.41702,-8.72098
350,-727,3.89783,7.50195,0,0,0,0,0,0,0,-1,1574,1751,3.89782,-7.50193
357,-727,4.48462,10.2948,0,0,0,0,0,0,0,-1,1581,1751,4.48464,-10.2948
364,-727,6.96729,17.2365,0,0,0,0,0,0,0,-1,1588,1751,6.96732,-17.2365
371,-727,5.04565,23.2227,0,0,0,0,0,0,0,-1,1595,1751,5.04564,-23.2227
378,-727,4.56726,23.0574,0,0,0,0,0,0,0,-1,1602,1751,4.56727,-23.0574
385,-727,3.52307,22.6431,0,0,0,0,0,0,0,-1,1609,1751,3.52303,-22.643
392,-727,0,0,0,0,0,0,0,0,0,-1,1616,1751,0,0
399,-727,0,0,0,0,0,0,0,0,0,-1,1623,1751,0,0
406,-727,0,0,0,0,0,0,0,0,0,-1,1630,1751,0,0
413,-727,0,0,0,0,0,0,0,0,0,-1,1637,1751,0,0
420,-727,0,0,0,0,0,0,0,0,0,-1,1644,1751,0,0
427,-727,0,0,0,0,0,0,0,0,0,-1,1651,1751,0,0
434,-727,0,0,0,0,0,0,0,0,0,-1,1658,1751,0,0
441,-727,0,0,0,0,0,0,0,0,0,-1,1665,1751,0,0
448,-727,0,0,0,0,0,0,0,0,0,-1,1672,1751,0,0
455,-727,0,0,0,0,0,0,0,0,0,-1,1679,1751,0,0
462,-727,0,0,0,0,0,0,0,0,0,-1,1686,1751,0,0
469,-727,0,0,0,0,0,0,0,0,0,-1,1693,1751,0,0
476,-727,0,0,0,0,0,0,0,0,0,-1,1700,1751,0,0
483,-727,0,0,0,0,0,0,0,0,0,-1,1707,1751,0,0
490,-727,0,0,0,0,0,0,0,0,0,-1,1714,1751,0,0
497,-727,0,0,0,0,0,0,0,0,0,-1,1721,1751,0,0
504,-727,0,0,0,0,0,0,0,0,0,-1,1728,1751,0,0
511,-727,0,0,0,0,0,0,0,0,0,-1,1735,1751,0,0
518,-727,0,0,0,0,0,0,0,0,0,-1,1742,1751,0,0
525,-727,0,0,0,0,0,0,0,0,0,-1,1749,1751,0,0
532,-727,0,0,0,0,0,0,0,0,0,-1,1756,1751,0,0
539,-727,0,0,0,0,0,0,0,0,0,-1,1763,1751,0,0
546,-727,0,0,0,0,0,0,0,0,0,-1,1770,1751,0,0
553,-727,0,0,0,0,0,0,0,0,0,-1,1777,1751,0,0
560,-727,0,0,0,0,0,0,0,0,0,-1,1784,1751,0,0
567,-727,0,0,0,0,0,0,0,0,0,-1,1791,1751,0,0
574,-727,0,0,0,0,0,0,0,0,0,-1,1798,1751,0,0
581,-727,0,0,0,0,0,0,0,0,0,-1,1805,1751,0,0
588,-727,0,0,0,0,0,0,0,0,0,-1,1812,1751,0,0
595,-727,0,0,0,0,0,0,0,0,0,-1,1819,1751,0,0
602,-727,0,0,0,0,0,0,0,0,0,-1,1826,1751,0,0
609,-727,0,0,0,0,0,0,0,0,0,-1,1833,1751,0,0
616,-727,0,0,0,0,0,0,0,0,0,-1,1840,1751,0,0
623,-727,0,0,0,0,0,0,0,0,0,-1,1847,1751,0,0
630,-727,0,0,0,0,0,0,0,0,0,-1,1854,1751,0,0
637,-727,0,0,0,0,0,0,0,0,0,-1,1861,1751,0,0
644,-727,0,0,0,0,0,0,0,0,0,-1,1868,1751,0,0
651,-727,0,0,0,0,0,0,0,0,0,-1,1875,1751,0,0
658,-727,0,0,0,0,0,0,0,0,0,-1,1882,1751,0,0
665,-727,0,0,0,0,0,0,0,0,0,-1,1889,1751,0,0
672,-727,0,0,0,0,0,0,0,0,0,-1,1896,1751,0,0
679,-727,0,0,0,0,0,0,0,0,0,-1,1903,1751,0,0
686,-727,0,0,0,0,0,0,0,0,0,-1,1910,1751,0,0
693,-727,0,0,0,0,0,0,0,0,0,-1,1917,1751,0,0
700,-727,0,0,0,0,0,0,0,0,0,-1,1924,1751,0,0
707,-727,0,0,0,0,0,0,0,0,0,-1,1931,1751,0,0
714,-727,0,0,0,0,0,0,0,0,0,-1,1938,1751,0,0
721,-727,0,0,0,0,0,0,0,0,0,-1,1945,1751,0,0
728,-727,0,0,0,0,0,0,0,0,0,-1,1952,1751,0,0
735,-727,0,0,0,0,0,0,0,0,0,-1,1959,1751,0,0
742,-727,0,0,0,0,0,0,0,0,0,-1,1966,1751,0,0
749,-727,0,0,0,0,0,0,0,0,0,-1,1973,1751,0,0
756,-727,0,0,0,0,0,0,0,0,0,-1,1980,1751,0,0
763,-727,0,0,0,0,0,0,0,0,0,-1,1987,1751,0,0
770,-727,0,0,0,0,0,0,0,0,0,-1,1994,1751,0,0
777,-727,0,0,0,0,0,0,0,0,0,-1,2001,1751,0,0
784,-727,0,0,0,0,0,0,0,0,0,-1,2008,1751,0,0
791,-727,0,0,0,0,0,0,0,0,0,-1,2015,1751,0,0
798,-727,0,0,0,0,0,0,0,0,0,-1,2022,1751,0,0
805,-727,0,0,0,0,0,0,0,0,0,-1,2029,1751,0,0
812,-727,0,0,0,0,0,0,0,0,0,-1,2036,1751,0,0
-700,-734,0,0,0,0,0,0,0,0,0,-1,524,1758,0,0
-693,-734,0,0,0,0,0,0,0,0,0,-1,531,1758,0,0
-686,-734,0,0,0,0,0,0,0,0,0,-1,538,1758,0,0
-679,-734,0,0,0,0,0,0,0,0,0,-1,545,1758,0,0
-672,-734,0,0,0,0,0,0,0,0,0,-1,552,1758,0,0
-665,-734,0,0,0,0,0,0,0,0,0,-1,559,1758,0,0
-658,-734,0,0,0,0,0,0,0,0,0,-1,566,1758,0,0
-651,-734,0,0,0,0,0,0,0,0,0,-1,573,1758,0,0
-644,-734,0,0,0,0,0,0,0,0,0,-1,580,1758,0,0
-637,-734,0,0,0,0,0,0,0,0,0,-1,587,1758,0,0
-630,-734,0,0,0,0,0,0,0,0,0,-1,594,1758,0,0
-623,-734,0,0,0,0,0,0,0,0,0,-1,601,1758,0,0
-616,-734,0,0,0,0,0,0,0,0,0,-1,608,1758,0,0
-609,-734,0,0,0,0,0,0,0,0,0,-1,615,1758,0,0
-602,-734,0,0,0,0,0,0,0,0,0,-1,622,1758,0,0
-595,-734,0,0,0,0,0,0,0,0,0,-1,629,1758,0,0
-588,-734,0,0,0,0,0,0,0,0,0,-1,636,1758,0,0
-581,-734,0,0,0,0,0,0,0,0,0,-1,643,1758,0,0
-574,-734,0,0,0,0,0,0,0,0,0,-1,650,1758,0,0
-567,-734,0,0,0,0,0,0,0,0,0,-1,657,1758,0,0
-560,-734,0,0,0,0,0,0,0,0,0,-1,664,1758,0,0
-553,-734,0,0,0,0,0,0,0,0,0,-1,671,1758,0,0
-546,-734,0,0,0,0,0,0,0,0,0,-1,678,1758,0,0
-539,-734,0,0,0,0,0,0,0,0,0,-1,685,1758,0,0
-532,-734,0,0,0,0,0,0,0,0,0,-1,692,1758,0,0
-525,-734,0,0,0,0,0,0,0,0,0,-1,699,1758,0,0
-518,-734,0,0,0,0,0,0,0,0,0,-1,706,1758,0,0
-511,-734,0,0,0,0,0,0,0,0,0,-1,713,1758,0,0
-504,-734,0,0,0,0,0,0,0,0,0,-1,720,1758,0,0
-497,-734,0,0,0,0,0,0,0,0,0,-1,727,1758,0,0
-490,-734,0,0,0,0,0,0,0,0,0,-1,734,1758,0,0
-483,-734,0,0,0,0,0,0,0,0,0,-1,741,1758,0,0
-476,-734,0,0,0,0,0,0,0,0,0,-1,748,1758,0,0
-469,-734,0,0,0,0,0,0,0,0,0,-1,755,1758,0,0
-462,-734,0,0,0,0,0,0,0,0,0,-1,762,1758,0,0
-455,-734,0,0,0,0,0,0,0,0,0,-1,769,1758,0,0
-448,-734,0,0,0,0,0,0,0,0,0,-1,776,1758,0,0
-441,-734,0,0,0,0,0,0,0,0,0,-1,783,1758,0,0
-434,-734,0,0,0,0,0,0,0,0,0,-1,790,1758,0,0
-427,-734,0,0,0,0,0,0,0,0,0,-1,797,1758,0,0
-420,-734,0,0,0,0,0,0,0,0,0,-1,804,1758,0,0
-413,-734,0,0,0,0,0,0,0,0,0,-1,811,1758,0,0
-406,-734,0,0,0,0,0,0,0,0,0,-1,818,1758,0,0
-399,-734,0,0,0,0,0,0,0,0,0,-1,825,1758,0,0
-392,-734,0,0,0,0,0,0,0,0,0,-1,832,1758,0,0
-385,-734,0,0,0,0,0,0,0,0,0,-1,839,1758,0,0
-378,-734,0,0,0,0,0,0,0,0,0,-1,846,1758,0,0
-371,-734,0,0,0,0,0,0,0,0,0,-1,853,1758,0,0
-364,-734,0,0,0,0,0,0,0,0,0,-1,860,1758,0,0
-357,-734,0,0,0,0,0,0,0,0,0,-1,867,1758,0,0
-350,-734,0,0,0,0,0,0,0,0,0,-1,874,1758,0,0
-343,-734,0,0,0,0,0,0,0,0,0,-1,881,1758,0,0
-336,-734,0,0,0,0,0,0,0,0,0,-1,888,1758,0,0
-329,-734,0,0,0,0,0,0,0,0,0,-1,895,1758,0,0
-322,-734,0,0,0,0,0,0,0,0,0,-1,902,1758,0,0
-315,-734,0,0,0,0,0,0,0,0,0,-1,909,1758,0,0
-308,-734,0,0,0,0,0,0,0,0,0,-1,916,1758,0,0
-301,-734,0,0,0,0,0,0,0,0,0,-1,923,1758,0,0
-294,-734,0,0,0,0,0,0,0,0,0,-1,930,1758,0,0
-287,-734,0,0,0,0,0,0,0,0,0,-1,937,1758,0,0
-280,-734,0,0,0,0,0,0,0,0,0,-1,944,1758,0,0
-273,-734,0,0,0,0,0,0,0,0,0,-1,951,1758,0,0
-266,-734,0,0,0,0,0,0,0,0,0,-1,958,1758,0,0
-259,-734,0,0,0,0,0,0,0,0,0,-1,965,1758,0,0
-252,-734,5.73883,31.5245,0,0,0,0,0,0,0,-1,972,1758,5.73884,-31.5246
-245,-734,6.32513,30.9761,0,0,0,0,0,0,0,-1,979,1758,6.32511,-30.9761
-238,-734,6.82385,30.0449,0,0,0,0,0,0,0,-1,986,1758,6.82387,-30.0449
-231,-734,7.1958,29.1666,0,0,0,0,0,0,0,-1,993,1758,7.19578,-29.1666
-224,-734,7.36169,28.5652,0,0,0,0,0,0,0,-1,1000,1758,7.36172,-28.5651
-217,-734,7.45984,28.4386,0,0,0,0,0,0,0,-1,1007,1758,7.45986,-28.4386
-210,-734,7.45483,28.4388,0,0,0,0,0,0,0,-1,1014,1758,7.45482,-28.4388
-203,-734,7.93079,29.6151,0,0,0,0,0,0,0,-1,1021,1758,7.93076,-29.6151
-196,-734,9.88013,44.328,0,0,0,0,0,0,0,-1,1028,1758,9.88017,-44.328
-189,-734,9.65833,44.9825,0,0,0,0,0,0,0,-1,1035,1758,9.65827,-44.9826
-182,-734,9.4364,45.6371,0,0,0,0,0,0,0,-1,1042,1758,9.43638,-45.6371
-175,-734,12.161,43.9269,0,0,0,0,0,0,0,-1,1049,1758,12.161,-43.9269
-168,-734,11.0513,44.3673,0,0,0,0,0,0,0,-1,1056,1758,11.0512,-44.3673
-161,-734,10.5981,44.2427,0,0,0,0,0,0,0,-1,1063,1758,10.5982,-44.2427
-154,-734,9.94031,44.4457,0,0,0,0,0,0,0,-1,1070,1758,9.94032,-44.4457
-147,-734,9.854,45.2195,0,0,0,0,0,0,0,-1,1077,1758,9.854,-45.2195
-140,-734,9.69714,45.618,0,0,0,0,0,0,0,-1,1084,1758,9.6972,-45.618
-133,-734,9.61951,45.3745,-0.00429305,0.00125498,-0.00196709,0.00188164,-0.00491971,-1.26239,0.00405524,0.0453637,1091,1758,9.61953,-45.3745
-126,-734,9.44556,45.5988,-0.00769118,0.00575164,0.000230578,0.00575559,-0.00769514,1.55365,0.00779265,0.0408476,1098,1758,9.44561,-45.5987
-119,-734,9.3396,46.0203,-0.0093957,0.00626763,0.00372571,0.00710868,-0.0102367,1.34878,0.0100685,0.043975,1105,1758,9.33956,-46.0203
-112,-734,9.30676,46.3523,-0.00748659,0.00708157,0.00503122,0.00865023,-0.00905524,1.26856,0.0102231,0.0441929,1112,1758,9.30672,-46.3524
-105,-734,9.26953,46.6666,0,0,0,0,0,0,0,-1,1119,1758,9.26955,-46.6667
-98,-734,9.27722,47.0464,0,0,0,0,0,0,0,-1,1126,1758,9.27716,-47.0464
-91,-734,9.32117,47.3025,0,0,0,0,0,0,0,-1,1133,1758,9.32121,-47.3025
-84,-734,9.26465,47.5366,0,0,0,0,0,0,0,-1,1140,1758,9.26461,-47.5366
-77,-734,9.24194,47.8401,0,0,0,0,0,0,0,-1,1147,1758,9.24192,-47.8401
-70,-734,9.23584,48.1368,0,0,0,0,0,0,0,-1,1154,1758,9.23581,-48.1368
-63,-734,9.10413,48.1422,-0.00279693,0.0024116,0.00300798,0.00378605,-0.00417138,1.14219,0.00459602,0.0358176,1161,1758,9.10416,-48.1422
-56,-734,9.14221,48.5752,-0.00280077,0.00220548,0.00236853,0.00314846,-0.00374374,1.19191,0.00398416,0.0169127,1168,1758,9.14224,-48.5752
-49,-734,9.12036,48.7756,-0.00256158,0.00198709,0.00190437,0.0026791,-0.0032536,1.22225,0.00343059,0.0132938,1175,1758,9.12036,-48.7756
-42,-734,9.09668,48.9961,-0.00217016,0.00193091,0.00147403,0.00240574,-0.00264499,1.25916,0.00291713,0.0136262,1182,1758,9.09673,-48.996
-35,-734,9.06982,49.1484,-0.00185663,0.00166225,0.00116073,0.00201064,-0.00220502,1.27921,0.00243477,0.0139056,1189,1758,9.06985,-49.1484
-28,-734,9.07751,49.3174,-0.00178581,0.00123839,0.000959386,0.00151706,-0.00206448,1.28811,0.00207584,0.00984877,1196,1758,9.07749,-49.3173
-21,-734,9.09375,49.4976,-0.00167772,0.000994751,0.000846372,0.00124025,-0.00192321,1.28849,0.00184056,0.015371,1203,1758,9.09379,-49.4975
-14,-734,9.03369,49.6812,-0.00146793,0.000876547,0.000882468,0.00117158,-0.00176297,1.24815,0.00170569,0.0160963,1210,1758,9.03373,-49.6811
-7,-734,9.00952,49.8446,-0.00129081,0.000704721,0.000825852,0.00100217,-0.00158825,1.22509,0.00150828,0.0180051,1217,1758,9.00947,-49.8446
0,-734,8.99146,49.9604,-0.00126576,0.000894559,0.000873648,0.00120365,-0.00157485,1.23075,0.00160893,0.0173992,1224,1758,8.9914,-49.9604
7,-734,8.98206,50.0553,-0.00128057,0.00116581,0.000996217,0.00152016,-0.00163492,1.22905,0.00182199,0.0124047,1231,1758,8.98201,-50.0553
14,-734,8.97058,50.1459,-0.00131231,0.00134257,0.00116499,0.00178129,-0.00175102,1.21064,0.0020394,0.0122057,1238,1758,8.97054,-50.1459
21,-734,8.93518,50.2343,-0.00143178,0.00155681,0.00115048,0.00194839,-0.00182336,1.24273,0.00217802,0.0115293,1245,1758,8.93517,-50.2343
28,-734,8.94043,50.304,-0.00153027,0.00192946,0.00120308,0.00230669,-0.00190749,1.26695,0.00243669,0.0114545,1252,1758,8.94038,-50.304
35,-734,8.95471,50.361,-0.00157299,0.00210295,0.00135184,0.00254655,-0.0020166,1.25372,0.00264045,0.014215,1259,1758,8.95469,-50.3609
42,-734,8.92847,50.3932,-0.00155999,0.00250108,0.00153205,0.00301422,-0.00207312,1.24761,0.00295388,0.0125069,1266,1758,8.92845,-50.3931
49,-734,8.89307,50.4286,-0.00147334,0.00271054,0.00143548,0.00315569,-0.00191849,1.27009,0.00295846,0.0101458,1273,1758,8.89309,-50.4286
56,-734,8.86243,50.4686,-0.00138155,0.00295341,0.0014112,0.00337233,-0.00180047,1.28223,0.00303213,0.00928348,1280,1758,8.86248,-50.4687
63,-734,8.86243,50.4558,-0.00128168,0.00318717,0.00135219,0.00356446,-0.00165898,1.29869,0.00308192,0.0119282,1287,1758,8.86246,-50.4559
70,-734,8.85449,50.4517,-0.00122953,0.00337812,0.00121573,0.00367921,-0.00153062,1.32802,0.00309199,0.012159,1294,1758,8.8545,-50.4517
77,-734,8.87561,50.4741,-0.0011092,0.0033856,0.000980176,0.00359005,-0.00131365,1.36516,0.00293107,0.0160092,1301,1758,8.87562,-50.4741
84,-734,8.86389,50.4132,-0.00106023,0.00310944,0.000630898,0.00320281,-0.0011536,1.42387,0.00260628,0.0160406,1308,1758,8.86384,-50.4132
91,-734,8.85376,50.3662,-0.00111525,0.00276244,0.000204564,0.00277321,-0.00112601,1.51824,0.0023172,0.0180402,1315,1758,8.85382,-50.3662
98,-734,8.84998,50.3362,-0.0012314,0.00235548,-0.000160199,0.00236262,-0.00123854,-1.52625,0.00211263,0.0137565,1322,1758,8.85,-50.3361
105,-734,8.84985,50.2616,-0.00136087,0.00177856,-0.000507984,0.00185871,-0.00144102,-1.41431,0.00191018,0.014721,1329,1758,8.84983,-50.2616
112,-734,8.83081,50.1781,-0.00163839,0.00117753,-0.000879061,0.00142942,-0.00189028,-1.29173,0.00192278,0.0129562,1336,1758,8.83077,-50.1781
119,-734,8.82434,50.0857,-0.00206537,0.000696464,-0.00126175,0.00118609,-0.002555,-1.20063,0.00220759,0.0135327,1343,1758,8.8244,-50.0857
126,-734,8.81909,49.939,-0.00242303,0.000181206,-0.00139275,0.000785723,-0.00302754,-1.16129,0.00232496,0.0161128,1350,1758,8.81911,-49.939
133,-734,8.79236,49.7872,-0.00276944,-0.000287414,-0.00161242,0.000506276,-0.00356313,-1.11338,0.00256092,0.0160934,1357,1758,8.79231,-49.7872
140,-734,8.78442,49.6414,-0.0030701,-0.000481309,-0.00185139,0.000483304,-0.00403472,-1.09047,0.00286454,0.0210491,1364,1758,8.78441,-49.6414
147,-734,8.76099,49.5223,-0.00329258,-0.000881136,-0.00198235,0.000233376,-0.00440709,-1.05862,0.00301886,0.0147878,1371,1758,8.761,-49.5223
154,-734,8.7334,49.3975,-0.00351625,-0.000967764,-0.00188967,3.71481e-05,-0.00452117,-1.08204,0.00302657,0.0102517,1378,1758,8.73345,-49.3975
161,-734,8.71045,49.234,-0.00358238,-0.000987889,-0.00194278,5.09417e-05,-0.00462121,-1.07977,0.00309793,0.00897374,1385,1758,8.71048,-49.234
168,-734,8.65649,49.0507,-0.0036059,-0.00118047,-0.00201565,-4.08441e-05,-0.00474553,-1.05621,0.00315016,0.0138399,1392,1758,8.65651,-49.0507
175,-734,8.62805,48.8645,-0.00342718,-0.00140117,-0.00213237,-5.34144e-05,-0.00477494,-1.00715,0.00316564,0.0174163,1399,1758,8.62809,-48.8645
182,-734,8.65637,48.632,-0.0030641,-0.00125601,-0.00226048,0.000274502,-0.0045946,-0.975623,0.00315855,0.0154848,1406,1758,8.65639,-48.632
189,-734,8.61279,48.4133,-0.00266939,-0.000414759,-0.00225809,0.000981776,-0.00406593,-1.01692,0.00309031,0.0113371,1413,1758,8.61275,-48.4133
196,-734,8.56714,48.1954,-0.00264292,0.000872253,-0.00248875,0.00216147,-0.00393214,-1.09284,0.00356731,0.0143786,1420,1758,8.56709,-48.1954
203,-734,8.59045,47.9209,-0.00285027,0.00181381,-0.00303841,0.00331196,-0.00434842,-1.11271,0.0044362,0.0207107,1427,1758,8.5905,-47.9209
210,-734,8.60217,47.6503,-0.00266855,0.00309482,-0.00380634,0.00498727,-0.00456099,-1.10941,0.00551452,0.0357706,1434,1758,8.60218,-47.6503
217,-734,8.48608,47.4713,0,0,0,0,0,0,0,-1,1441,1758,8.48612,-47.4713
224,-734,8.46252,47.1772,0,0,0,0,0,0,0,-1,1448,1758,8.46255,-47.1773
231,-734,8.40063,46.8484,0,0,0,0,0,0,0,-1,1455,1758,8.4006,-46.8484
238,-734,8.38794,46.486,0,0,0,0,0,0,0,-1,1462,1758,8.3879,-46.4859
245,-734,8.56543,46.0751,-0.00449486,0.00329021,-0.00551694,0.00614959,-0.00735425,-1.09262,0.00780678,0.0486191,1469,1758,8.56544,-46.075
252,-734,8.5448,45.8339,-0.00521497,0.0030145,-0.00574738,0.00596825,-0.00816872,-1.09607,0.00819487,0.0396416,1476,1758,8.54484,-45.8338
259,-734,8.49792,45.6167,-0.00612197,0.00241349,-0.00566421,0.00523778,-0.00894626,-1.10825,0.00828193,0.0422955,1483,1758,8.49788,-45.6167
266,-734,8.42932,45.455,-0.0069287,0.00165067,-0.00549637,0.00433318,-0.00961121,-1.11675,0.00824079,0.0464352,1490,1758,8.42929,-45.455
273,-734,8.34705,45.3429,0,0,0,0,0,0,0,-1,1497,1758,8.34702,-45.3429
280,-734,8.08472,45.0961,0,0,0,0,0,0,0,-1,1504,1758,8.08474,-45.096
287,-734,7.25867,43.0227,0,0,0,0,0,0,0,-1,1511,1758,7.25868,-43.0228
294,-734,7.31262,42.9679,0,0,0,0,0,0,0,-1,1518,1758,7.31266,-42.9679
301,-734,7.21814,42.6078,0,0,0,0,0,0,0,-1,1525,1758,7.21809,-42.6078
308,-734,8.0509,41.5156,0,0,0,0,0,0,0,-1,1532,1758,8.05087,-41.5157
315,-734,7.93787,40.8274,0,0,0,0,0,0,0,-1,1539,1758,7.93784,-40.8273
322,-734,7.82483,40.139,0,0,0,0,0,0,0,-1,1546,1758,7.82481,-40.139
329,-734,5.73267,19.656,0,0,0,0,0,0,0,-1,1553,1758,5.73262,-19.656
336,-734,6.71375,23.7469,0,0,0,0,0,0,0,-1,1560,1758,6.71372,-23.7469
343,-734,5.54968,5.14221,0,0,0,0,0,0,0,-1,1567,1758,5.54973,-5.14225
350,-734,5.07397,6.73242,0,0,0,0,0,0,0,-1,1574,1758,5.07402,-6.73243
357,-734,5.05542,7.19189,0,0,0,0,0,0,0,-1,1581,1758,5.05541,-7.19184
364,-734,4.43896,10.4904,0,0,0,0,0,0,0,-1,1588,1758,4.43893,-10.4904
371,-734,7.36975,17.4751,0,0,0,0,0,0,0,-1,1595,1758,7.36972,-17.4752
378,-734,0,0,0,0,0,0,0,0,0,-1,1602,1758,0,0
385,-734,0,0,0,0,0,0,0,0,0,-1,1609,1758,0,0
392,-734,0,0,0,0,0,0,0,0,0,-1,1616,1758,0,0
399,-734,0,0,0,0,0,0,0,0,0,-1,1623,1758,0,0
406,-734,0,0,0,0,0,0,0,0,0,-1,1630,1758,0,0
413,-734,0,0,0,0,0,0,0,0,0,-1,1637,1758,0,0
420,-734,0,0,0,0,0,0,0,0,0,-1,1644,1758,0,0
427,-734,0,0,0,0,0,0,0,0,0,-1,1651,1758,0,0
434,-734,0,0,0,0,0,0,0,0,0,-1,1658,1758,0,0
441,-734,0,0,0,0,0,0,0,0,0,-1,1665,1758,0,0
448,-734,0,0,0,0,0,0,0,0,0,-1,1672,1758,0,0
455,-734,0,0,0,0,0,0,0,0,0,-1,1679,1758,0,0
462,-734,0,0,0,0,0,0,0,0,0,-1,1686,1758,0,0
469,-734,0,0,0,0,0,0,0,0,0,-1,1693,1758,0,0
476,-734,0,0,0,0,0,0,0,0,0,-1,1700,1758,0,0
483,-734,0,0,0,0,0,0,0,0,0,-1,1707,1758,0,0
490,-734,0,0,0,0,0,0,0,0,0,-1,1714,1758,0,0
497,-734,0,0,0,0,0,0,0,0,0,-1,1721,1758,0,0
504,-734,0,0,0,0,0,0,0,0,0,-1,1728,1758,0,0
511,-734,0,0,0,0,0,0,0,0,0,-1,1735,1758,0,0
518,-734,0,0,0,0,0,0,0,0,0,-1,1742,1758,0,0
525,-734,0,0,0,0,0,0,0,0,0,-1,1749,1758,0,0
532,-734,0,0,0,0,0,0,0,0,0,-1,1756,1758,0,0
539,-734,0,0,0,0,0,0,0,0,0,-1,1763,1758,0,0
546,-734,0,0,0,0,0,0,0,0,0,-1,1770,1758,0,0
553,-734,0,0,0,0,0,0,0,0,0,-1,1777,1758,0,0
560,-734,0,0,0,0,0,0,0,0,0,-1,1784,1758,0,0
567,-734,0,0,0,0,0,0,0,0,0,-1,1791,1758,0,0
574,-734,0,0,0,0,0,0,0,0,0,-1,1798,1758,0,0
581,-734,0,0,0,0,0,0,0,0,0,-1,1805,1758,0,0
588,-734,0,0,0,0,0,0,0,0,0,-1,1812,1758,0,0
595,-734,0,0,0,0,0,0,0,0,0,-1,1819,1758,0,0
602,-734,0,0,0,0,0,0,0,0,0,-1,1826,1758,0,0
609,-734,0,0,0,0,0,0,0,0,0,-1,1833,1758,0,0
616,-734,0,0,0,0,0,0,0,0,0,-1,1840,1758,0,0
623,-734,0,0,0,0,0,0,0,0,0,-1,1847,1758,0,0
630,-734,0,0,0,0,0,0,0,0,0,-1,1854,1758,0,0
637,-734,0,0,0,0,0,0,0,0,0,-1,1861,1758,0,0
644,-734,0,0,0,0,0,0,0,0,0,-1,1868,1758,0,0
651,-734,0,0,0,0,0,0,0,0,0,-1,1875,1758,0,0
658,-734,0,0,0,0,0,0,0,0,0,-1,1882,1758,0,0
665,-734,0,0,0,0,0,0,0,0,0,-1,1889,1758,0,0
672,-734,0,0,0,0,0,0,0,0,0,-1,1896,1758,0,0
679,-734,0,0,0,0,0,0,0,0,0,-1,1903,1758,0,0
686,-734,0,0,0,0,0,0,0,0,0,-1,1910,1758,0,0
693,-734,0,0,0,0,0,0,0,0,0,-1,1917,1758,0,0
700,-734,0,0,0,0,0,0,0,0,0,-1,1924,1758,0,0
707,-734,0,0,0,0,0,0,0,0,0,-1,1931,1758,0,0
714,-734,0,0,0,0,0,0,0,0,0,-1,1938,1758,0,0
721,-734,0,0,0,0,0,0,0,0,0,-1,1945,1758,0,0
728,-734,0,0,0,0,0,0,0,0,0,-1,1952,1758,0,0
735,-734,0,0,0,0,0,0,0,0,0,-1,1959,1758,0,0
742,-734,0,0,0,0,0,0,0,0,0,-1,1966,1758,0,0
749,-734,0,0,0,0,0,0,0,0,0,-1,1973,1758,0,0
756,-734,0,0,0,0,0,0,0,0,0,-1,1980,1758,0,0
763,-734,0,0,0,0,0,0,0,0,0,-1,1987,1758,0,0
770,-734,0,0,0,0,0,0,0,0,0,-1,1994,1758,0,0
777,-734,0,0,0,0,0,0,0,0,0,-1,2001,1758,0,0
784,-734,0,0,0,0,0,0,0,0,0,-1,2008,1758,0,0
791,-734,0,0,0,0,0,0,0,0,0,-1,2015,1758,0,0
798,-734,0,0,0,0,0,0,0,0,0,-1,2022,1758,0,0
805,-734,0,0,0,0,0,0,0,0,0,-1,2029,1758,0,0
812,-734,0,0,0,0,0,0,0,0,0,-1,2036,1758,0,0
-700,-741,0,0,0,0,0,0,0,0,0,-1,524,1765,0,0
-693,-741,0,0,0,0,0,0,0,0,0,-1,531,1765,0,0
-686,-741,0,0,0,0,0,0,0,0,0,-1,538,1765,0,0
-679,-741,0,0,0,0,0,0,0,0,0,-1,545,1765,0,0
-672,-741,0,0,0,0,0,0,0,0,0,-1,552,1765,0,0
-665,-741,0,0,0,0,0,0,0,0,0,-1,559,1765,0,0
-658,-741,0,0,0,0,0,0,0,0,0,-1,566,1765,0,0
-651,-741,0,0,0,0,0,0,0,0,0,-1,573,1765,0,0
-644,-741,0,0,0,0,0,0,0,0,0,-1,580,1765,0,0
-637,-741,0,0,0,0,0,0,0,0,0,-1,587,1765,0,0
-630,-741,0,0,0,0,0,0,0,0,0,-1,594,1765,0,0
-623,-741,0,0,0,0,0,0,0,0,0,-1,601,1765,0,0
-616,-741,0,0,0,0,0,0,0,0,0,-1,608,1765,0,0
-609,-741,0,0,0,0,0,0,0,0,0,-1,615,1765,0,0
-602,-741,0,0,0,0,0,0,0,0,0,-1,622,1765,0,0
-595,-741,0,0,0,0,0,0,0,0,0,-1,629,1765,0,0
-588,-741,0,0,0,0,0,0,0,0,0,-1,636,1765,0,0
-581,-741,0,0,0,0,0,0,0,0,0,-1,643,1765,0,0
-574,-741,0,0,0,0,0,0,0,0,0,-1,650,1765,0,0
-567,-741,0,0,0,0,0,0,0,0,0,-1,657,1765,0,0
-560,-741,0,0,0,0,0,0,0,0,0,-1,664,1765,0,0
-553,-741,0,0,0,0,0,0,0,0,0,-1,671,1765,0,0
-546,-741,0,0,0,0,0,0,0,0,0,-1,678,1765,0,0
-539,-741,0,0,0,0,0,0,0,0,0,-1,685,1765,0,0
-532,-741,0,0,0,0,0,0,0,0,0,-1,692,1765,0,0
-525,-741,0,0,0,0,0,0,0,0,0,-1,699,1765,0,0
-518,-741,0,0,0,0,0,0,0,0,0,-1,706,1765,0,0
-511,-741,0,0,0,0,0,0,0,0,0,-1,713,1765,0,0
-504,-741,0,0,0,0,0,0,0,0,0,-1,720,1765,0,0
-497,-741,0,0,0,0,0,0,0,0,0,-1,727,1765,0,0
-490,-741,0,0,0,0,0,0,0,0,0,-1,734,1765,0,0
-483,-741,0,0,0,0,0,0,0,0,0,-1,741,1765,0,0
-476,-741,0,0,0,0,0,0,0,0,0,-1,748,1765,0,0
-469,-741,0,0,0,0,0,0,0,0,0,-1,755,1765,0,0
-462,-741,0,0,0,0,0,0,0,0,0,-1,762,1765,0,0
-455,-741,0,0,0,0,0,0,0,0,0,-1,769,1765,0,0
-448,-741,0,0,0,0,0,0,0,0,0,-1,776,1765,0,0
-441,-741,0,0,0,0,0,0,0,0,0,-1,783,1765,0,0
-434,-741,0,0,0,0,0,0,0,0,0,-1,790,1765,0,0
-427,-741,0,0,0,0,0,0,0,0,0,-1,797,1765,0,0
-420,-741,0,0,0,0,0,0,0,0,0,-1,804,1765,0,0
-413,-741,0,0,0,0,0,0,0,0,0,-1,811,1765,0,0
-406,-741,0,0,0,0,0,0,0,0,0,-1,818,1765,0,0
-399,-741,0,0,0,0,0,0,0,0,0,-1,825,1765,0,0
-392,-741,0,0,0,0,0,0,0,0,0,-1,832,1765,0,0
-385,-741,0,0,0,0,0,0,0,0,0,-1,839,1765,0,0
-378,-741,0,0,0,0,0,0,0,0,0,-1,846,1765,0,0
-371,-741,0,0,0,0,0,0,0,0,0,-1,853,1765,0,0
-364,-741,0,0,0,0,0,0,0,0,0,-1,860,1765,0,0
-357,-741,0,0,0,0,0,0,0,0,0,-1,867,1765,0,0
-350,-741,0,0,0,0,0,0,0,0,0,-1,874,1765,0,0
-343,-741,0,0,0,0,0,0,0,0,0,-1,881,1765,0,0
-336,-741,0,0,0,0,0,0,0,0,0,-1,888,1765,0,0
-329,-741,0,0,0,0,0,0,0,0,0,-1,895,1765,0,0
-322,-741,0,0,0,0,0,0,0,0,0,-1,902,1765,0,0
-315,-741,0,0,0,0,0,0,0,0,0,-1,909,1765,0,0
-308,-741,0,0,0,0,0,0,0,0,0,-1,916,1765,0,0
-301,-741,0,0,0,0,0,0,0,0,0,-1,923,1765,0,0
-294,-741,0,0,0,0,0,0,0,0,0,-1,930,1765,0,0
-287,-741,0,0,0,0,0,0,0,0,0,-1,937,1765,0,0
-280,-741,0,0,0,0,0,0,0,0,0,-1,944,1765,0,0
-273,-741,0,0,0,0,0,0,0,0,0,-1,951,1765,0,0
-266,-741,0,0,0,0,0,0,0,0,0,-1,958,1765,0,0
-259,-741,0,0,0,0,0,0,0,0,0,-1,965,1765,0,0
-252,-741,0,0,0,0,0,0,0,0,0,-1,972,1765,0,0
-245,-741,0,0,0,0,0,0,0,0,0,-1,979,1765,0,0
-238,-741,7.13855,29.8348,0,0,0,0,0,0,0,-1,986,1765,7.13856,-29.8348
-231,-741,7.74182,29.3066,0,0,0,0,0,0,0,-1,993,1765,7.74183,-29.3066
-224,-741,7.80078,29.0964,0,0,0,0,0,0,0,-1,1000,1765,7.80079,-29.0964
-217,-741,8.15863,29.113,0,0,0,0,0,0,0,-1,1007,1765,8.15863,-29.1131
-210,-741,8.37024,29.3896,0,0,0,0,0,0,0,-1,1014,1765,8.37022,-29.3896
-203,-741,8.33801,29.8871,0,0,0,0,0,0,0,-1,1021,1765,8.33805,-29.8871
-196,-741,2.04846,42.2267,0,0,0,0,0,0,0,-1,1028,1765,2.04845,-42.2267
-189,-741,10.1519,45.6641,0,0,0,0,0,0,0,-1,1035,1765,10.1518,-45.664
-182,-741,12.652,44.6299,0,0,0,0,0,0,0,-1,1042,1765,12.652,-44.6299
-175,-741,13.7185,44.4792,0,0,0,0,0,0,0,-1,1049,1765,13.7186,-44.4793
-168,-741,14.7578,44.5796,0,0,0,0,0,0,0,-1,1056,1765,14.7578,-44.5796
-161,-741,15.6567,44.7032,0,0,0,0,0,0,0,-1,1063,1765,15.6567,-44.7032
-154,-741,16.6932,45.0627,0,0,0,0,0,0,0,-1,1070,1765,16.6932,-45.0627
-147,-741,10.3909,46.0581,0,0,0,0,0,0,0,-1,1077,1765,10.3909,-46.0581
-140,-741,10.192,44.6427,0,0,0,0,0,0,0,-1,1084,1765,10.192,-44.6428
-133,-741,10.0336,45.6284,0,0,0,0,0,0,0,-1,1091,1765,10.0336,-45.6284
-126,-741,9.74377,45.5988,0,0,0,0,0,0,0,-1,1098,1765,9.74383,-45.5988
-119,-741,9.53992,45.9669,0,0,0,0,0,0,0,-1,1105,1765,9.5399,-45.967
-112,-741,9.45911,46.2385,0,0,0,0,0,0,0,-1,1112,1765,9.4591,-46.2385
-105,-741,9.61792,45.9158,0,0,0,0,0,0,0,-1,1119,1765,9.61797,-45.9158
-98,-741,9.19971,40.25,0,0,0,0,0,0,0,-1,1126,1765,9.19971,-40.25
-91,-741,8.40002,36.3687,0,0,0,0,0,0,0,-1,1133,1765,8.40002,-36.3687
-84,-741,7.8877,35.0892,0,0,0,0,0,0,0,-1,1140,1765,7.88776,-35.0892
-77,-741,7.73303,34.1174,0,0,0,0,0,0,0,-1,1147,1765,7.73304,-34.1174
-70,-741,7.5437,32.0275,0,0,0,0,0,0,0,-1,1154,1765,7.5437,-32.0275
-63,-741,9.07922,47.7625,0,0,0,0,0,0,0,-1,1161,1765,9.07925,-47.7625
-56,-741,9.34717,48.5629,0,0,0,0,0,0,0,-1,1168,1765,9.34721,-48.5629
-49,-741,9.31848,48.7964,0,0,0,0,0,0,0,-1,1175,1765,9.31844,-48.7963
-42,-741,9.25952,49.0457,0,0,0,0,0,0,0,-1,1182,1765,9.25958,-49.0457
-35,-741,9.25269,49.1569,-0.00278625,0.0019511,0.00188207,0.00260779,-0.00344293,1.23509,0.00350446,0.0246688,1189,1765,9.2527,-49.1568
-28,-741,9.25049,49.3448,-0.00266453,0.00151612,0.00152975,0.00201608,-0.00316449,1.25491,0.0030154,0.0148751,1196,1765,9.25043,-49.3449
-21,-741,9.24072,49.525,-0.00262139,0.00127316,0.001298,0.00166612,-0.00301435,1.27683,0.00273938,0.0182464,1203,1765,9.24067,-49.525
-14,-741,9.17542,49.6879,-0.00248486,0.00115868,0.00125756,0.00155058,-0.00287676,1.2687,0.00259406,0.0182605,1210,1765,9.17541,-49.6879
-7,-741,9.13977,49.8182,-0.00242844,0.000955118,0.00113532,0.00130076,-0.00277408,1.27527,0.00240332,0.015351,1217,1765,9.13983,-49.8182
0,-741,9.11084,49.9064,-0.00263791,0.00119511,0.00110918,0.00149294,-0.00293574,1.30847,0.00260174,0.0157919,1224,1765,9.11083,-49.9064
7,-741,9.07385,50.0081,-0.00291984,0.00152329,0.00123134,0.00184172,-0.00323826,1.31774,0.00296964,0.0174599,1231,1765,9.0739,-50.0081
14,-741,9.05029,50.1219,-0.0031954,0.00180459,0.00141326,0.00217641,-0.00356721,1.31354,0.00334833,0.0152994,1238,1765,9.05035,-50.1219
21,-741,9.01733,50.2126,-0.00354655,0.0020406,0.00133559,0.00234346,-0.0038494,1.34781,0.00361052,0.0128789,1245,1765,9.01734,-50.2127
28,-741,8.99316,50.2977,-0.00384643,0.00243709,0.00143364,0.00274873,-0.00415808,1.35675,0.00401522,0.0136556,1252,1765,8.99316,-50.2977
35,-741,8.99939,50.3245,-0.00402781,0.00257514,0.00173043,0.00300115,-0.00445382,1.32941,0.00433128,0.0148398,1259,1765,8.99936,-50.3245
42,-741,8.98218,50.3772,-0.00391587,0.00325515,0.00216512,0.00385815,-0.00451887,1.29917,0.00484149,0.0152525,1266,1765,8.98217,-50.3771
49,-741,8.93054,50.4357,-0.00355417,0.00366599,0.00211915,0.00424202,-0.0041302,1.30539,0.00483385,0.0101563,1273,1765,8.93054,-50.4357
56,-741,8.88171,50.4684,-0.00320243,0.00421194,0.00212679,0.00477869,-0.00376917,1.31037,0.00494657,0.0100462,1280,1765,8.88174,-50.4684
63,-741,8.85583,50.4541,-0.00280001,0.00470235,0.00211457,0.0052573,-0.00335496,1.31414,0.00501256,0.0140105,1287,1765,8.85587,-50.4541
70,-741,8.83691,50.4474,-0.00244918,0.00514755,0.00199595,0.00564003,-0.00294167,1.32889,0.00503563,0.0157834,1294,1765,8.83694,-50.4474
77,-741,8.823,50.4633,-0.00200641,0.00539928,0.00170131,0.00577142,-0.00237855,1.35545,0.0048394,0.0133762,1301,1765,8.823,-50.4633
84,-741,8.80371,50.4349,-0.00174175,0.00523516,0.00123148,0.00544615,-0.00195274,1.40112,0.00442762,0.0164018,1308,1765,8.80369,-50.435
91,-741,8.77588,50.3981,-0.00166421,0.00496503,0.000617695,0.00502209,-0.00172128,1.47868,0.00404577,0.013448,1315,1765,8.77585,-50.3981
98,-741,8.7666,50.3324,-0.00173082,0.00459083,3.12562e-05,0.00459098,-0.00173098,1.56585,0.00377243,0.00999086,1322,1765,8.76657,-50.3324
105,-741,8.77808,50.2222,-0.00186314,0.00393809,-0.00052139,0.00398457,-0.00190963,-1.48187,0.0034726,0.0106992,1329,1765,8.77805,-50.2222
112,-741,8.77185,50.1431,-0.00229035,0.00318576,-0.00118723,0.00343208,-0.00253666,-1.36623,0.00345896,0.0110641,1336,1765,8.7719,-50.1431
119,-741,8.74109,50.048,-0.00302181,0.00242034,-0.00183804,0.00298295,-0.00358443,-1.27376,0.00379698,0.0135442,1343,1765,8.74113,-50.048
126,-741,8.71143,49.9204,-0.00373902,0.00160836,-0.00212714,0.0023513,-0.00448196,-1.23477,0.0040086,0.0191077,1350,1765,8.71147,-49.9205
133,-741,8.69067,49.7665,-0.00440428,0.000780507,-0.00256744,0.00183671,-0.00546049,-1.18052,0.00438278,0.0155972,1357,1765,8.69064,-49.7665
140,-741,8.63147,49.6404,-0.00496486,0.000225076,-0.00302197,0.00161334,-0.00635313,-1.14016,0.00486323,0.012163,1364,1765,8.63153,-49.6404
147,-741,8.6156,49.5159,-0.00550471,-0.00082063,-0.00332689,0.00090591,-0.00723125,-1.09209,0.00514943,0.0110443,1371,1765,8.61565,-49.5159
154,-741,8.59119,49.3936,-0.00601095,-0.00124634,-0.00312516,0.000300993,-0.00755828,-1.11106,0.00514212,0.00920924,1378,1765,8.59114,-49.3936
161,-741,8.5542,49.2212,-0.00605152,-0.00158931,-0.00304931,-4.20404e-05,-0.00759879,-1.10123,0.0050519,0.011002,1385,1765,8.55422,-49.2212
168,-741,8.52698,49.0482,-0.00592466,-0.00205451,-0.00306597,-0.000364021,-0.00761515,-1.0669,0.00495988,0.0254727,1392,1765,8.52699,-49.0482
175,-741,8.41187,48.8575,0,0,0,0,0,0,0,-1,1399,1765,8.41191,-48.8576
182,-741,8.45679,48.6201,0,0,0,0,0,0,0,-1,1406,1765,8.45673,-48.6201
189,-741,8.36926,48.4437,0,0,0,0,0,0,0,-1,1413,1765,8.36928,-48.4437
196,-741,8.35022,48.2441,0,0,0,0,0,0,0,-1,1420,1765,8.35022,-48.2441
203,-741,8.36926,47.89,0,0,0,0,0,0,0,-1,1427,1765,8.36922,-47.89
210,-741,8.31238,47.3615,0,0,0,0,0,0,0,-1,1434,1765,8.31235,-47.3615
217,-741,8.4032,40.1213,0,0,0,0,0,0,0,-1,1441,1765,8.40325,-40.1214
224,-741,8.0719,38.4249,0,0,0,0,0,0,0,-1,1448,1765,8.07187,-38.4249
231,-741,7.95923,39.0671,0,0,0,0,0,0,0,-1,1455,1765,7.9592,-39.0671
238,-741,7.96619,42.4865,0,0,0,0,0,0,0,-1,1462,1765,7.96621,-42.4864
245,-741,8.53577,45.7744,0,0,0,0,0,0,0,-1,1469,1765,8.53581,-45.7744
252,-741,8.50586,45.6212,0,0,0,0,0,0,0,-1,1476,1765,8.50592,-45.6212
259,-741,8.33289,45.7139,0,0,0,0,0,0,0,-1,1483,1765,8.33292,-45.7138
266,-741,8.18457,45.6837,0,0,0,0,0,0,0,-1,1490,1765,8.18455,-45.6837
273,-741,9.09314,45.0895,0,0,0,0,0,0,0,-1,1497,1765,9.09308,-45.0895
280,-741,6.59326,43.824,0,0,0,0,0,0,0,-1,1504,1765,6.5933,-43.824
287,-741,6.29468,43.7202,0,0,0,0,0,0,0,-1,1511,1765,6.29464,-43.7202
294,-741,5.91187,43.7742,0,0,0,0,0,0,0,-1,1518,1765,5.91188,-43.7742
301,-741,6.20667,38.5165,0,0,0,0,0,0,0,-1,1525,1765,6.20667,-38.5165
308,-741,7.99036,42.5969,0,0,0,0,0,0,0,-1,1532,1765,7.99037,-42.5969
315,-741,7.83838,41.6693,0,0,0,0,0,0,0,-1,1539,1765,7.83835,-41.6694
322,-741,7.68628,40.7418,0,0,0,0,0,0,0,-1,1546,1765,7.68633,-40.7418
329,-741,4.74414,17.928,0,0,0,0,0,0,0,-1,1553,1765,4.74414,-17.928
336,-741,5.74304,22.0945,0,0,0,0,0,0,0,-1,1560,1765,5.74306,-22.0945
343,-741,7.09888,26.501,0,0,0,0,0,0,0,-1,1567,1765,7.09885,-26.501
350,-741,4.90369,5.44666,0,0,0,0,0,0,0,-1,1574,1765,4.90368,-5.44664
357,-741,4.02063,5.16626,0,0,0,0,0,0,0,-1,1581,1765,4.02058,-5.1662
364,-741,0,0,0,0,0,0,0,0,0,-1,1588,1765,0,0
371,-741,0,0,0,0,0,0,0,0,0,-1,1595,1765,0,0
378,-741,0,0,0,0,0,0,0,0,0,-1,1602,1765,0,0
385,-741,0,0,0,0,0,0,0,0,0,-1,1609,1765,0,0
392,-741,0,0,0,0,0,0,0,0,0,-1,1616,1765,0,0
399,-741,0,0,0,0,0,0,0,0,0,-1,1623,1765,0,0
406,-741,0,0,0,0,0,0,0,0,0,-1,1630,1765,0,0
413,-741,0,0,0,0,0,0,0,0,0,-1,1637,1765,0,0
420,-741,0,0,0,0,0,0,0,0,0,-1,1644,1765,0,0
427,-741,0,0,0,0,0,0,0,0,0,-1,1651,1765,0,0
434,-741,0,0,0,0,0,0,0,0,0,-1,1658,1765,0,0
441,-741,0,0,0,0,0,0,0,0,0,-1,1665,1765,0,0
448,-741,0,0,0,0,0,0,0,0,0,-1,1672,1765,0,0
455,-741,0,0,0,0,0,0,0,0,0,-1,1679,1765,0,0
462,-741,0,0,0,0,0,0,0,0,0,-1,1686,1765,0,0
469,-741,0,0,0,0,0,0,0,0,0,-1,1693,1765,0,0
476,-741,0,0,0,0,0,0,0,0,0,-1,1700,1765,0,0
483,-741,0,0,0,0,0,0,0,0,0,-1,1707,1765,0,0
490,-741,0,0,0,0,0,0,0,0,0,-1,1714,1765,0,0
497,-741,0,0,0,0,0,0,0,0,0,-1,1721,1765,0,0
504,-741,0,0,0,0,0,0,0,0,0,-1,1728,1765,0,0
511,-741,0,0,0,0,0,0,0,0,0,-1,1735,1765,0,0
518,-741,0,0,0,0,0,0,0,0,0,-1,1742,1765,0,0
525,-741,0,0,0,0,0,0,0,0,0,-1,1749,1765,0,0
532,-741,0,0,0,0,0,0,0,0,0,-1,1756,1765,0,0
539,-741,0,0,0,0,0,0,0,0,0,-1,1763,1765,0,0
546,-741,0,0,0,0,0,0,0,0,0,-1,1770,1765,0,0
553,-741,0,0,0,0,0,0,0,0,0,-1,1777,1765,0,0
560,-741,0,0,0,0,0,0,0,0,0,-1,1784,1765,0,0
567,-741,0,0,0,0,0,0,0,0,0,-1,1791,1765,0,0
574,-741,0,0,0,0,0,0,0,0,0,-1,1798,1765,0,0
581,-741,0,0,0,0,0,0,0,0,0,-1,1805,1765,0,0
588,-741,0,0,0,0,0,0,0,0,0,-1,1812,1765,0,0
595,-741,0,0,0,0,0,0,0,0,0,-1,1819,1765,0,0
602,-741,0,0,0,0,0,0,0,0,0,-1,1826,1765,0,0
609,-741,0,0,0,0,0,0,0,0,0,-1,1833,1765,0,0
616,-741,0,0,0,0,0,0,0,0,0,-1,1840,1765,0,0
623,-741,0,0,0,0,0,0,0,0,0,-1,1847,1765,0,0
630,-741,0,0,0,0,0,0,0,0,0,-1,1854,1765,0,0
637,-741,0,0,0,0,0,0,0,0,0,-1,1861,1765,0,0
644,-741,0,0,0,0,0,0,0,0,0,-1,1868,1765,0,0
651,-741,0,0,0,0,0,0,0,0,0,-1,1875,1765,0,0
658,-741,0,0,0,0,0,0,0,0,0,-1,1882,1765,0,0
665,-741,0,0,0,0,0,0,0,0,0,-1,1889,1765,0,0
672,-741,0,0,0,0,0,0,0,0,0,-1,1896,1765,0,0
679,-741,0,0,0,0,0,0,0,0,0,-1,1903,1765,0,0
686,-741,0,0,0,0,0,0,0,0,0,-1,1910,1765,0,0
693,-741,0,0,0,0,0,0,0,0,0,-1,1917,1765,0,0
700,-741,0,0,0,0,0,0,0,0,0,-1,1924,1765,0,0
707,-741,0,0,0,0,0,0,0,0,0,-1,1931,1765,0,0
714,-741,0,0,0,0,0,0,0,0,0,-1,1938,1765,0,0
721,-741,0,0,0,0,0,0,0,0,0,-1,1945,1765,0,0
728,-741,0,0,0,0,0,0,0,0,0,-1,1952,1765,0,0
735,-741,0,0,0,0,0,0,0,0,0,-1,1959,1765,0,0
742,-741,0,0,0,0,0,0,0,0,0,-1,1966,1765,0,0
749,-741,0,0,0,0,0,0,0,0,0,-1,1973,1765,0,0
756,-741,0,0,0,0,0,0,0,0,0,-1,1980,1765,0,0
763,-741,0,0,0,0,0,0,0,0,0,-1,1987,1765,0,0
770,-741,0,0,0,0,0,0,0,0,0,-1,1994,1765,0,0
777,-741,0,0,0,0,0,0,0,0,0,-1,2001,1765,0,0
784,-741,0,0,0,0,0,0,0,0,0,-1,2008,1765,0,0
791,-741,0,0,0,0,0,0,0,0,0,-1,2015,1765,0,0
798,-741,0,0,0,0,0,0,0,0,0,-1,2022,1765,0,0
805,-741,0,0,0,0,0,0,0,0,0,-1,2029,1765,0,0
812,-741,0,0,0,0,0,0,0,0,0,-1,2036,1765,0,0
-700,-748,0,0,0,0,0,0,0,0,0,-1,524,1772,0,0
-693,-748,0,0,0,0,0,0,0,0,0,-1,531,1772,0,0
-686,-748,0,0,0,0,0,0,0,0,0,-1,538,1772,0,0
-679,-748,0,0,0,0,0,0,0,0,0,-1,545,1772,0,0
-672,-748,0,0,0,0,0,0,0,0,0,-1,552,1772,0,0
-665,-748,0,0,0,0,0,0,0,0,0,-1,559,1772,0,0
-658,-748,0,0,0,0,0,0,0,0,0,-1,566,1772,0,0
-651,-748,0,0,0,0,0,0,0,0,0,-1,573,1772,0,0
-644,-748,0,0,0,0,0,0,0,0,0,-1,580,1772,0,0
-637,-748,0,0,0,0,0,0,0,0,0,-1,587,1772,0,0
-630,-748,0,0,0,0,0,0,0,0,0,-1,594,1772,0,0
-623,-748,0,0,0,0,0,0,0,0,0,-1,601,1772,0,0
-616,-748,0,0,0,0,0,0,0,0,0,-1,608,1772,0,0
-609,-748,0,0,0,0,0,0,0,0,0,-1,615,1772,0,0
-602,-748,0,0,0,0,0,0,0,0,0,-1,622,1772,0,0
-595,-748,0,0,0,0,0,0,0,0,0,-1,629,1772,0,0
-588,-748,0,0,0,0,0,0,0,0,0,-1,636,1772,0,0
-581,-748,0,0,0,0,0,0,0,0,0,-1,643,1772,0,0
-574,-748,0,0,0,0,0,0,0,0,0,-1,650,1772,0,0
-567,-748,0,0,0,0,0,0,0,0,0,-1,657,1772,0,0
-560,-748,0,0,0,0,0,0,0,0,0,-1,664,1772,0,0
-553,-748,0,0,0,0,0,0,0,0,0,-1,671,1772,0,0
-546,-748,0,0,0,0,0,0,0,0,0,-1,678,1772,0,0
-539,-748,0,0,0,0,0,0,0,0,0,-1,685,1772,0,0
-532,-748,0,0,0,0,0,0,0,0,0,-1,692,1772,0,0
-525,-748,0,0,0,0,0,0,0,0,0,-1,699,1772,0,0
-518,-748,0,0,0,0,0,0,0,0,0,-1,706,1772,0,0
-511,-748,0,0,0,0,0,0,0,0,0,-1,713,1772,0,0
-504,-748,0,0,0,0,0,0,0,0,0,-1,720,1772,0,0
-497,-748,0,0,0,0,0,0,0,0,0,-1,727,1772,0,0
-490,-748,0,0,0,0,0,0,0,0,0,-1,734,1772,0,0
-483,-748,0,0,0,0,0,0,0,0,0,-1,741,1772,0,0
-476,-748,0,0,0,0,0,0,0,0,0,-1,748,1772,0,0
-469,-748,0,0,0,0,0,0,0,0,0,-1,755,1772,0,0
-462,-748,0,0,0,0,0,0,0,0,0,-1,762,1772,0,0
-455,-748,0,0,0,0,0,0,0,0,0,-1,769,1772,0,0
-448,-748,0,0,0,0,0,0,0,0,0,-1,776,1772,0,0
-441,-748,0,0,0,0,0,0,0,0,0,-1,783,1772,0,0
-434,-748,0,0,0,0,0,0,0,0,0,-1,790,1772,0,0
-427,-748,0,0,0,0,0,0,0,0,0,-1,797,1772,0,0
-420,-748,0,0,0,0,0,0,0,0,0,-1,804,1772,0,0
-413,-748,0,0,0,0,0,0,0,0,0,-1,811,1772,0,0
-406,-748,0,0,0,0,0,0,0,0,0,-1,818,1772,0,0
-399,-748,0,0,0,0,0,0,0,0,0,-1,825,1772,0,0
-392,-748,0,0,0,0,0,0,0,0,0,-1,832,1772,0,0
-385,-748,0,0,0,0,0,0,0,0,0,-1,839,1772,0,0
-378,-748,0,0,0,0,0,0,0,0,0,-1,846,1772,0,0
-371,-748,0,0,0,0,0,0,0,0,0,-1,853,1772,0,0
-364,-748,0,0,0,0,0,0,0,0,0,-1,860,1772,0,0
-357,-748,0,0,0,0,0,0,0,0,0,-1,867,1772,0,0
-350,-748,0,0,0,0,0,0,0,0,0,-1,874,1772,0,0
-343,-748,0,0,0,0,0,0,0,0,0,-1,881,1772,0,0
-336,-748,0,0,0,0,0,0,0,0,0,-1,888,1772,0,0
-329,-748,0,0,0,0,0,0,0,0,0,-1,895,1772,0,0
-322,-748,0,0,0,0,0,0,0,0,0,-1,902,1772,0,0
-315,-748,0,0,0,0,0,0,0,0,0,-1,909,1772,0,0
-308,-748,0,0,0,0,0,0,0,0,0,-1,916,1772,0,0
-301,-748,0,0,0,0,0,0,0,0,0,-1,923,1772,0,0
-294,-748,0,0,0,0,0,0,0,0,0,-1,930,1772,0,0
-287,-748,0,0,0,0,0,0,0,0,0,-1,937,1772,0,0
-280,-748,0,0,0,0,0,0,0,0,0,-1,944,1772,0,0
-273,-748,0,0,0,0,0,0,0,0,0,-1,951,1772,0,0
-266,-748,0,0,0,0,0,0,0,0,0,-1,958,1772,0,0
-259,-748,0,0,0,0,0,0,0,0,0,-1,965,1772,0,0
-252,-748,0,0,0,0,0,0,0,0,0,-1,972,1772,0,0
-245,-748,0,0,0,0,0,0,0,0,0,-1,979,1772,0,0
-238,-748,0,0,0,0,0,0,0,0,0,-1,986,1772,0,0
-231,-748,0,0,0,0,0,0,0,0,0,-1,993,1772,0,0
-224,-748,0,0,0,0,0,0,0,0,0,-1,1000,1772,0,0
-217,-748,8.97742,29.9884,0,0,0,0,0,0,0,-1,1007,1772,8.97744,-29.9884
-210,-748,8.8941,30.14,0,0,0,0,0,0,0,-1,1014,1772,8.8941,-30.14
-203,-748,-0.821899,39.5326,0,0,0,0,0,0,0,-1,1021,1772,-0.821892,-39.5326
-196,-748,0.60083,40.5905,0,0,0,0,0,0,0,-1,1028,1772,0.600866,-40.5905
-189,-748,2.17188,41.5771,0,0,0,0,0,0,0,-1,1035,1772,2.17191,-41.5772
-182,-748,13.4258,44.5267,0,0,0,0,0,0,0,-1,1042,1772,13.4258,-44.5268
-175,-748,15.0717,44.8014,0,0,0,0,0,0,0,-1,1049,1772,15.0716,-44.8014
-168,-748,15.6296,44.9393,0,0,0,0,0,0,0,-1,1056,1772,15.6297,-44.9393
-161,-748,16.1071,45.1337,0,0,0,0,0,0,0,-1,1063,1772,16.107,-45.1337
-154,-748,8.76221,45.5106,0,0,0,0,0,0,0,-1,1070,1772,8.76222,-45.5107
-147,-748,9.49683,45.6388,0,0,0,0,0,0,0,-1,1077,1772,9.49677,-45.6387
-140,-748,10.4108,44.9001,0,0,0,0,0,0,0,-1,1084,1772,10.4107,-44.9001
-133,-748,7.44727,22.0308,0,0,0,0,0,0,0,-1,1091,1772,7.44728,-22.0308
-126,-748,5.98035,22.6067,0,0,0,0,0,0,0,-1,1098,1772,5.9803,-22.6067
-119,-748,6.63342,26.309,0,0,0,0,0,0,0,-1,1105,1772,6.6334,-26.3089
-112,-748,6.91333,24.923,0,0,0,0,0,0,0,-1,1112,1772,6.91339,-24.923
-105,-748,6.83313,25.0537,0,0,0,0,0,0,0,-1,1119,1772,6.83311,-25.0537
-98,-748,8.13623,30.8743,0,0,0,0,0,0,0,-1,1126,1772,8.13628,-30.8742
-91,-748,4.85352,15.3033,0,0,0,0,0,0,0,-1,1133,1772,4.85351,-15.3033
-84,-748,-0.192017,7.26196,0,0,0,0,0,0,0,-1,1140,1772,-0.192047,-7.26201
-77,-748,4.42615,13.5537,0,0,0,0,0,0,0,-1,1147,1772,4.4261,-13.5538
-70,-748,4.46191,13.7446,0,0,0,0,0,0,0,-1,1154,1772,4.4619,-13.7446
-63,-748,4.49768,13.9355,0,0,0,0,0,0,0,-1,1161,1772,4.49769,-13.9355
-56,-748,3.05762,7.87817,0,0,0,0,0,0,0,-1,1168,1772,3.05768,-7.87822
-49,-748,3.04102,7.82471,0,0,0,0,0,0,0,-1,1175,1772,3.04096,-7.82468
-42,-748,0.793457,14.9474,0,0,0,0,0,0,0,-1,1182,1772,0.793413,-14.9474
-35,-748,9.31714,49.2888,0,0,0,0,0,0,0,-1,1189,1772,9.31716,-49.2889
-28,-748,9.37708,49.4377,-0.00331608,0.00189327,0.00220099,0.00269868,-0.00412149,1.22,0.00396608,0.0490477,1196,1772,9.37711,-49.4378
-21,-748,9.37488,49.5573,-0.00332057,0.00171656,0.00184679,0.0023211,-0.00392511,1.25444,0.00364567,0.0222705,1203,1772,9.37482,-49.5573
-14,-748,9.28333,49.6602,-0.00323084,0.00164498,0.00173128,0.00219718,-0.00378303,1.26204,0.00349291,0.0165904,1210,1772,9.28331,-49.6602
-7,-748,9.2511,49.7712,-0.00325193,0.00143027,0.00154163,0.00189227,-0.00371393,1.27963,0.00329321,0.0160477,1217,1772,9.25113,-49.7712
0,-748,9.20923,49.8689,-0.00369984,0.00172454,0.00142477,0.002076,-0.0040513,1.32895,0.00359835,0.0161029,1224,1772,9.20924,-49.8688
7,-748,9.18091,49.957,-0.00426733,0.00213326,0.00151959,0.00247571,-0.00460979,1.34914,0.0041522,0.0148592,1231,1772,9.18096,-49.957
14,-748,9.1366,50.095,-0.00480954,0.00254533,0.00172114,0.00292817,-0.00519239,1.35192,0.00474876,0.0151959,1238,1772,9.13655,-50.095
21,-748,9.10803,50.205,-0.00540585,0.00274843,0.00162181,0.00305915,-0.00571657,1.3815,0.00514351,0.0115795,1245,1772,9.108,-50.205
28,-748,9.0647,50.2806,-0.00589759,0.00313853,0.00185487,0.00350446,-0.00626353,1.37601,0.00571405,0.0122086,1252,1772,9.06471,-50.2806
35,-748,9.03564,50.3148,-0.00622506,0.00321205,0.00239285,0.0037841,-0.00679711,1.33613,0.00619107,0.0132655,1259,1772,9.0356,-50.3148
42,-748,9.02966,50.3605,-0.0053296,0.00405055,0.00329595,0.00509285,-0.0063719,1.26451,0.00663289,0.0148008,1266,1772,9.02971,-50.3605
49,-748,8.979,50.4,-0.00406749,0.00460668,0.00333426,0.00574021,-0.00520102,1.24309,0.00631948,0.0112784,1273,1772,8.97898,-50.4001
56,-748,8.90381,50.4448,-0.00298752,0.00543006,0.00340577,0.00663543,-0.00419289,1.23063,0.00630453,0.0110462,1280,1772,8.90386,-50.4448
63,-748,8.87512,50.4349,-0.00188515,0.00609527,0.00347932,0.00739916,-0.00318903,1.21224,0.00627211,0.0130546,1287,1772,8.8751,-50.435
70,-748,8.85425,50.4352,-0.000825599,0.00674125,0.0033769,0.00802909,-0.00211344,1.20645,0.00617889,0.0142567,1294,1772,8.85426,-50.4352
77,-748,8.82837,50.4351,0.000258701,0.00720951,0.00298996,0.00831868,-0.000850468,1.21557,0.00584992,0.0135518,1301,1772,8.82841,-50.4351
84,-748,8.76746,50.4197,0.000972471,0.00717952,0.00233601,0.00796042,0.000191567,1.24818,0.00524426,0.0156182,1308,1772,8.76746,-50.4196
91,-748,8.72717,50.3868,0.00128159,0.00702701,0.00145354,0.00737381,0.000934785,1.33658,0.0046358,0.0124101,1315,1772,8.72721,-50.3868
98,-748,8.69958,50.3141,0.00119387,0.00674495,0.000553508,0.00679961,0.00113922,1.47238,0.00420509,0.0106503,1322,1772,8.69964,-50.3141
105,-748,8.69116,50.2052,0.000924947,0.00608652,-0.000288013,0.00610254,0.000908925,-1.51523,0.00380178,0.0119031,1329,1772,8.69121,-50.2052
112,-748,8.68225,50.1125,6.02126e-05,0.00523243,-0.00132331,0.00555134,-0.000258692,-1.33431,0.00379007,0.014924,1336,1772,8.68227,-50.1125
119,-748,8.65039,50.0328,-0.00137493,0.00424916,-0.00233707,0.00509355,-0.00221932,-1.22409,0.00432943,0.0132069,1343,1772,8.65041,-50.0329
126,-748,8.61145,49.9468,-0.0029604,0.0032065,-0.00293368,0.00437912,-0.00413302,-1.19054,0.00491517,0.0154981,1350,1772,8.61144,-49.9467
133,-748,8.53589,49.814,-0.00447048,0.0019823,-0.00369251,0.0036594,-0.00614758,-1.14446,0.00572249,0.00969398,1357,1772,8.53593,-49.814
140,-748,8.50769,49.6841,-0.0057303,0.000975148,-0.00437853,0.00313716,-0.00789231,-1.11214,0.00656217,0.0127079,1364,1772,8.50767,-49.684
147,-748,8.4917,49.5265,-0.00756526,-0.000671344,-0.00500196,0.00195633,-0.0101929,-1.08709,0.00753256,0.0147513,1371,1772,8.4917,-49.5265
154,-748,8.43103,49.3759,-0.00889153,-0.00156388,-0.0046129,0.000663173,-0.0111186,-1.12101,0.00764304,0.0127594,1378,1772,8.43105,-49.3759
161,-748,8.38879,49.2235,-0.00889526,-0.00243521,-0.00430583,-0.000282559,-0.0110479,-1.1072,0.00727292,0.0199394,1385,1772,8.38882,-49.2235
168,-748,8.4032,49.0634,0,0,0,0,0,0,0,-1,1392,1772,8.40321,-49.0633
175,-748,11.6235,16.8242,0,0,0,0,0,0,0,-1,1399,1772,11.6236,-16.8242
182,-748,7.62476,10.3058,0,0,0,0,0,0,0,-1,1406,1772,7.62476,-10.3058
189,-748,6.15857,6.95898,0,0,0,0,0,0,0,-1,1413,1772,6.15862,-6.95896
196,-748,3.9425,8.46021,0,0,0,0,0,0,0,-1,1420,1772,3.9425,-8.46026
203,-748,3.9668,12.9835,0,0,0,0,0,0,0,-1,1427,1772,3.96678,-12.9836
210,-748,4.71472,16.8318,0,0,0,0,0,0,0,-1,1434,1772,4.71471,-16.8317
217,-748,5.38452,21.5551,0,0,0,0,0,0,0,-1,1441,1772,5.38455,-21.555
224,-748,6.14258,25.2345,0,0,0,0,0,0,0,-1,1448,1772,6.14263,-25.2345
231,-748,6.46045,29.7867,0,0,0,0,0,0,0,-1,1455,1772,6.46049,-29.7867
238,-748,7.41565,32.8574,0,0,0,0,0,0,0,-1,1462,1772,7.41562,-32.8574
245,-748,7.84912,32.0914,0,0,0,0,0,0,0,-1,1469,1772,7.84914,-32.0914
252,-748,7.57336,29.4369,0,0,0,0,0,0,0,-1,1476,1772,7.57337,-29.4369
259,-748,8.2019,43.6465,0,0,0,0,0,0,0,-1,1483,1772,8.2019,-43.6465
266,-748,8.25952,39.3665,0,0,0,0,0,0,0,-1,1490,1772,8.25952,-39.3664
273,-748,7.1991,43.2549,0,0,0,0,0,0,0,-1,1497,1772,7.1991,-43.2549
280,-748,8.76538,40.4501,0,0,0,0,0,0,0,-1,1504,1772,8.76537,-40.45
287,-748,14.161,8.32813,0,0,0,0,0,0,0,-1,1511,1772,14.161,-8.32808
294,-748,6.38525,32.4724,0,0,0,0,0,0,0,-1,1518,1772,6.38521,-32.4725
301,-748,5.40393,38.9807,0,0,0,0,0,0,0,-1,1525,1772,5.40397,-38.9807
308,-748,5.95227,37.1827,0,0,0,0,0,0,0,-1,1532,1772,5.95229,-37.1827
315,-748,7.71741,42.637,0,0,0,0,0,0,0,-1,1539,1772,7.71738,-42.637
322,-748,4.26538,29.0557,0,0,0,0,0,0,0,-1,1546,1772,4.26537,-29.0556
329,-748,3.87256,16.1473,0,0,0,0,0,0,0,-1,1553,1772,3.87259,-16.1474
336,-748,4.81006,19.6141,0,0,0,0,0,0,0,-1,1560,1772,4.81011,-19.6141
343,-748,0,0,0,0,0,0,0,0,0,-1,1567,1772,0,0
350,-748,0,0,0,0,0,0,0,0,0,-1,1574,1772,0,0
357,-748,0,0,0,0,0,0,0,0,0,-1,1581,1772,0,0
364,-748,0,0,0,0,0,0,0,0,0,-1,1588,1772,0,0
371,-748,0,0,0,0,0,0,0,0,0,-1,1595,1772,0,0
378,-748,0,0,0,0,0,0,0,0,0,-1,1602,1772,0,0
385,-748,0,0,0,0,0,0,0,0,0,-1,1609,1772,0,0
392,-748,0,0,0,0,0,0,0,0,0,-1,1616,1772,0,0
399,-748,0,0,0,0,0,0,0,0,0,-1,1623,1772,0,0
406,-748,0,0,0,0,0,0,0,0,0,-1,1630,1772,0,0
413,-748,0,0,0,0,0,0,0,0,0,-1,1637,1772,0,0
420,-748,0,0,0,0,0,0,0,0,0,-1,1644,1772,0,0
427,-748,0,0,0,0,0,0,0,0,0,-1,1651,1772,0,0
434,-748,0,0,0,0,0,0,0,0,0,-1,1658,1772,0,0
441,-748,0,0,0,0,0,0,0,0,0,-1,1665,1772,0,0
448,-748,0,0,0,0,0,0,0,0,0,-1,1672,1772,0,0
455,-748,0,0,0,0,0,0,0,0,0,-1,1679,1772,0,0
462,-748,0,0,0,0,0,0,0,0,0,-1,1686,1772,0,0
469,-748,0,0,0,0,0,0,0,0,0,-1,1693,1772,0,0
476,-748,0,0,0,0,0,0,0,0,0,-1,1700,1772,0,0
483,-748,0,0,0,0,0,0,0,0,0,-1,1707,1772,0,0
490,-748,0,0,0,0,0,0,0,0,0,-1,1714,1772,0,0
497,-748,0,0,0,0,0,0,0,0,0,-1,1721,1772,0,0
504,-748,0,0,0,0,0,0,0,0,0,-1,1728,1772,0,0
511,-748,0,0,0,0,0,0,0,0,0,-1,1735,1772,0,0
518,-748,0,0,0,0,0,0,0,0,0,-1,1742,1772,0,0
525,-748,0,0,0,0,0,0,0,0,0,-1,1749,1772,0,0
532,-748,0,0,0,0,0,0,0,0,0,-1,1756,1772,0,0
539,-748,0,0,0,0,0,0,0,0,0,-1,1763,1772,0,0
546,-748,0,0,0,0,0,0,0,0,0,-1,1770,1772,0,0
553,-748,0,0,0,0,0,0,0,0,0,-1,1777,1772,0,0
560,-748,0,0,0,0,0,0,0,0,0,-1,1784,1772,0,0
567,-748,0,0,0,0,0,0,0,0,0,-1,1791,1772,0,0
574,-748,0,0,0,0,0,0,0,0,0,-1,1798,1772,0,0
581,-748,0,0,0,0,0,0,0,0,0,-1,1805,1772,0,0
588,-748,0,0,0,0,0,0,0,0,0,-1,1812,1772,0,0
595,-748,0,0,0,0,0,0,0,0,0,-1,1819,1772,0,0
602,-748,0,0,0,0,0,0,0,0,0,-1,1826,1772,0,0
609,-748,0,0,0,0,0,0,0,0,0,-1,1833,1772,0,0
616,-748,0,0,0,0,0,0,0,0,0,-1,1840,1772,0,0
623,-748,0,0,0,0,0,0,0,0,0,-1,1847,1772,0,0
630,-748,0,0,0,0,0,0,0,0,0,-1,1854,1772,0,0
637,-748,0,0,0,0,0,0,0,0,0,-1,1861,1772,0,0
644,-748,0,0,0,0,0,0,0,0,0,-1,1868,1772,0,0
651,-748,0,0,0,0,0,0,0,0,0,-1,1875,1772,0,0
658,-748,0,0,0,0,0,0,0,0,0,-1,1882,1772,0,0
665,-748,0,0,0,0,0,0,0,0,0,-1,1889,1772,0,0
672,-748,0,0,0,0,0,0,0,0,0,-1,1896,1772,0,0
679,-748,0,0,0,0,0,0,0,0,0,-1,1903,1772,0,0
686,-748,0,0,0,0,0,0,0,0,0,-1,1910,1772,0,0
693,-748,0,0,0,0,0,0,0,0,0,-1,1917,1772,0,0
700,-748,0,0,0,0,0,0,0,0,0,-1,1924,1772,0,0
707,-748,0,0,0,0,0,0,0,0,0,-1,1931,1772,0,0
714,-748,0,0,0,0,0,0,0,0,0,-1,1938,1772,0,0
721,-748,0,0,0,0,0,0,0,0,0,-1,1945,1772,0,0
728,-748,0,0,0,0,0,0,0,0,0,-1,1952,1772,0,0
735,-748,0,0,0,0,0,0,0,0,0,-1,1959,1772,0,0
742,-748,0,0,0,0,0,0,0,0,0,-1,1966,1772,0,0
749,-748,0,0,0,0,0,0,0,0,0,-1,1973,1772,0,0
756,-748,0,0,0,0,0,0,0,0,0,-1,1980,1772,0,0
763,-748,0,0,0,0,0,0,0,0,0,-1,1987,1772,0,0
770,-748,0,0,0,0,0,0,0,0,0,-1,1994,1772,0,0
777,-748,0,0,0,0,0,0,0,0,0,-1,2001,1772,0,0
784,-748,0,0,0,0,0,0,0,0,0,-1,2008,1772,0,0
791,-748,0,0,0,0,0,0,0,0,0,-1,2015,1772,0,0
798,-748,0,0,0,0,0,0,0,0,0,-1,2022,1772,0,0
805,-748,0,0,0,0,0,0,0,0,0,-1,2029,1772,0,0
812,-748,0,0,0,0,0,0,0,0,0,-1,2036,1772,0,0
-700,-755,0,0,0,0,0,0,0,0,0,-1,524,1779,0,0
-693,-755,0,0,0,0,0,0,0,0,0,-1,531,1779,0,0
-686,-755,0,0,0,0,0,0,0,0,0,-1,538,1779,0,0
-679,-755,0,0,0,0,0,0,0,0,0,-1,545,1779,0,0
-672,-755,0,0,0,0,0,0,0,0,0,-1,552,1779,0,0
-665,-755,0,0,0,0,0,0,0,0,0,-1,559,1779,0,0
-658,-755,0,0,0,0,0,0,0,0,0,-1,566,1779,0,0
-651,-755,0,0,0,0,0,0,0,0,0,-1,573,1779,0,0
-644,-755,0,0,0,0,0,0,0,0,0,-1,580,1779,0,0
-637,-755,0,0,0,0,0,0,0,0,0,-1,587,1779,0,0
-630,-755,0,0,0,0,0,0,0,0,0,-1,594,1779,0,0
-623,-755,0,0,0,0,0,0,0,0,0,-1,601,1779,0,0
-616,-755,0,0,0,0,0,0,0,0,0,-1,608,1779,0,0
-609,-755,0,0,0,0,0,0,0,0,0,-1,615,1779,0,0
-602,-755,0,0,0,0,0,0,0,0,0,-1,622,1779,0,0
-595,-755,0,0,0,0,0,0,0,0,0,-1,629,1779,0,0
-588,-755,0,0,0,0,0,0,0,0,0,-1,636,1779,0,0
-581,-755,0,0,0,0,0,0,0,0,0,-1,643,1779,0,0
-574,-755,0,0,0,0,0,0,0,0,0,-1,650,1779,0,0
-567,-755,0,0,0,0,0,0,0,0,0,-1,657,1779,0,0
-560,-755,0,0,0,0,0,0,0,0,0,-1,664,1779,0,0
-553,-755,0,0,0,0,0,0,0,0,0,-1,671,1779,0,0
-546,-755,0,0,0,0,0,0,0,0,0,-1,678,1779,0,0
-539,-755,0,0,0,0,0,0,0,0,0,-1,685,1779,0,0
-532,-755,0,0,0,0,0,0,0,0,0,-1,692,1779,0,0
-525,-755,0,0,0,0,0,0,0,0,0,-1,699,1779,0,0
-518,-755,0,0,0,0,0,0,0,0,0,-1,706,1779,0,0
-511,-755,0,0,0,0,0,0,0,0,0,-1,713,1779,0,0
-504,-755,0,0,0,0,0,0,0,0,0,-1,720,1779,0,0
-497,-755,0,0,0,0,0,0,0,0,0,-1,727,1779,0,0
-490,-755,0,0,0,0,0,0,0,0,0,-1,734,1779,0,0
-483,-755,0,0,0,0,0,0,0,0,0,-1,741,1779,0,0
-476,-755,0,0,0,0,0,0,0,0,0,-1,748,1779,0,0
-469,-755,0,0,0,0,0,0,0,0,0,-1,755,1779,0,0
-462,-755,0,0,0,0,0,0,0,0,0,-1,762,1779,0,0
-455,-755,0,0,0,0,0,0,0,0,0,-1,769,1779,0,0
-448,-755,0,0,0,0,0,0,0,0,0,-1,776,1779,0,0
-441,-755,0,0,0,0,0,0,0,0,0,-1,783,1779,0,0
-434,-755,0,0,0,0,0,0,0,0,0,-1,790,1779,0,0
-427,-755,0,0,0,0,0,0,0,0,0,-1,797,1779,0,0
-420,-755,0,0,0,0,0,0,0,0,0,-1,804,1779,0,0
-413,-755,0,0,0,0,0,0,0,0,0,-1,811,1779,0,0
-406,-755,0,0,0,0,0,0,0,0,0,-1,818,1779,0,0
-399,-755,0,0,0,0,0,0,0,0,0,-1,825,1779,0,0
-392,-755,0,0,0,0,0,0,0,0,0,-1,832,1779,0,0
-385,-755,0,0,0,0,0,0,0,0,0,-1,839,1779,0,0
-378,-755,0,0,0,0,0,0,0,0,0,-1,846,1779,0,0
-371,-755,0,0,0,0,0,0,0,0,0,-1,853,1779,0,0
-364,-755,0,0,0,0,0,0,0,0,0,-1,860,1779,0,0
-357,-755,0,0,0,0,0,0,0,0,0,-1,867,1779,0,0
-350,-755,0,0,0,0,0,0,0,0,0,-1,874,1779,0,0
-343,-755,0,0,0,0,0,0,0,0,0,-1,881,1779,0,0
-336,-755,0,0,0,0,0,0,0,0,0,-1,888,1779,0,0
-329,-755,0,0,0,0,0,0,0,0,0,-1,895,1779,0,0
-322,-755,0,0,0,0,0,0,0,0,0,-1,902,1779,0,0
-315,-755,0,0,0,0,0,0,0,0,0,-1,909,1779,0,0
-308,-755,0,0,0,0,0,0,0,0,0,-1,916,1779,0,0
-301,-755,0,0,0,0,0,0,0,0,0,-1,923,1779,0,0
-294,-755,0,0,0,0,0,0,0,0,0,-1,930,1779,0,0
-287,-755,0,0,0,0,0,0,0,0,0,-1,937,1779,0,0
-280,-755,0,0,0,0,0,0,0,0,0,-1,944,1779,0,0
-273,-755,0,0,0,0,0,0,0,0,0,-1,951,1779,0,0
-266,-755,0,0,0,0,0,0,0,0,0,-1,958,1779,0,0
-259,-755,0,0,0,0,0,0,0,0,0,-1,965,1779,0,0
-252,-755,0,0,0,0,0,0,0,0,0,-1,972,1779,0,0
-245,-755,0,0,0,0,0,0,0,0,0,-1,979,1779,0,0
-238,-755,0,0,0,0,0,0,0,0,0,-1,986,1779,0,0
-231,-755,0,0,0,0,0,0,0,0,0,-1,993,1779,0,0
-224,-755,0,0,0,0,0,0,0,0,0,-1,1000,1779,0,0
-217,-755,0,0,0,0,0,0,0,0,0,-1,1007,1779,0,0
-210,-755,0,0,0,0,0,0,0,0,0,-1,1014,1779,0,0
-203,-755,8.97363,30.5414,0,0,0,0,0,0,0,-1,1021,1779,8.97362,-30.5414
-196,-755,-0.84668,38.9543,0,0,0,0,0,0,0,-1,1028,1779,-0.84672,-38.9543
-189,-755,0.725098,39.8892,0,0,0,0,0,0,0,-1,1035,1779,0.725055,-39.8891
-182,-755,1.80835,40.9692,0,0,0,0,0,0,0,-1,1042,1779,1.80838,-40.9692
-175,-755,3.04749,41.9612,0,0,0,0,0,0,0,-1,1049,1779,3.0475,-41.9612
-168,-755,4.8302,42.7631,0,0,0,0,0,0,0,-1,1056,1779,4.8302,-42.7631
-161,-755,6.46777,44.0007,0,0,0,0,0,0,0,-1,1063,1779,6.46773,-44.0007
-154,-755,7.71094,44.9023,0,0,0,0,0,0,0,-1,1070,1779,7.71089,-44.9023
-147,-755,-6.45593,10.2422,0,0,0,0,0,0,0,-1,1077,1779,-6.45594,-10.2422
-140,-755,1.33521,21.3856,0,0,0,0,0,0,0,-1,1084,1779,1.33522,-21.3857
-133,-755,2.89417,21.0964,0,0,0,0,0,0,0,-1,1091,1779,2.89422,-21.0964
-126,-755,3.26404,20.9304,0,0,0,0,0,0,0,-1,1098,1779,3.26399,-20.9305
-119,-755,5.17761,21.9325,0,0,0,0,0,0,0,-1,1105,1779,5.17761,-21.9325
-112,-755,5.40247,24.5646,0,0,0,0,0,0,0,-1,1112,1779,5.40244,-24.5646
-105,-755,7.01294,20.1539,0,0,0,0,0,0,0,-1,1119,1779,7.01295,-20.154
-98,-755,5.50708,16.9628,0,0,0,0,0,0,0,-1,1126,1779,5.5071,-16.9628
-91,-755,5.51025,12.0438,0,0,0,0,0,0,0,-1,1133,1779,5.51022,-12.0439
-84,-755,0.169312,8.66443,0,0,0,0,0,0,0,-1,1140,1779,0.16932,-8.66446
-77,-755,-0.0491943,6.87439,0,0,0,0,0,0,0,-1,1147,1779,-0.0491385,-6.87443
-70,-755,4.5686,13.2169,0,0,0,0,0,0,0,-1,1154,1779,4.56865,-13.2169
-63,-755,-1.36316,7.3147,0,0,0,0,0,0,0,-1,1161,1779,-1.36312,-7.31473
-56,-755,0.0483398,5.06079,0,0,0,0,0,0,0,-1,1168,1779,0.0483138,-5.06084
-49,-755,-1.32263,5.33716,0,0,0,0,0,0,0,-1,1175,1779,-1.32264,-5.33718
-42,-755,-2.03613,4.01672,0,0,0,0,0,0,0,-1,1182,1779,-2.0361,-4.01671
-35,-755,-2.72498,2.37476,0,0,0,0,0,0,0,-1,1189,1779,-2.72502,-2.37473
-28,-755,9.37805,49.5734,0,0,0,0,0,0,0,-1,1196,1779,9.3781,-49.5733
-21,-755,9.44153,49.5725,0,0,0,0,0,0,0,-1,1203,1779,9.4415,-49.5725
-14,-755,9.40625,49.6379,-0.00355698,0.00192119,0.0023182,0.00277051,-0.0044063,1.21961,0.00417926,0.0345328,1210,1779,9.40622,-49.638
-7,-755,9.31604,49.7046,-0.00366617,0.00178596,0.00209071,0.00249537,-0.00437558,1.24367,0.00401615,0.0251473,1217,1779,9.31601,-49.7045
0,-755,9.29358,49.8171,-0.00440457,0.00225466,0.00189684,0.00275706,-0.00490697,1.31188,0.00448249,0.0151557,1224,1779,9.29357,-49.8171
7,-755,9.27234,49.9338,-0.00537687,0.00288295,0.00196452,0.00332638,-0.00582031,1.34879,0.00534588,0.0125295,1231,1779,9.2724,-49.9338
14,-755,9.24072,50.0648,-0.00631999,0.00363294,0.00217566,0.00408775,-0.00677479,1.36472,0.00633513,0.0114486,1238,1779,9.24073,-50.0648
21,-755,9.16479,50.184,-0.00729689,0.00395674,0.00198442,0.00429641,-0.00763656,1.40127,0.00697889,0.0167834,1245,1779,9.16475,-50.1839
28,-755,9.11194,50.2395,-0.00808807,0.00447673,0.00245463,0.00493923,-0.00855057,1.38456,0.00788082,0.0207612,1252,1779,9.11194,-50.2395
35,-755,9.1156,50.3333,-0.00864542,0.00455221,0.00331071,0.00533616,-0.00942936,1.33829,0.00863337,0.0212279,1259,1779,9.11561,-50.3332
42,-755,9.05664,50.3514,-0.00718822,0.00573704,0.00473166,0.00728404,-0.00873522,1.2548,0.00926137,0.0161099,1266,1779,9.05664,-50.3514
49,-755,9.00427,50.3534,-0.0052444,0.00651175,0.00488947,0.0082795,-0.00701215,1.22388,0.00883874,0.0112942,1273,1779,9.00423,-50.3535
56,-755,8.93628,50.3984,-0.00363979,0.00765677,0.00506552,0.00959549,-0.00557851,1.20527,0.00886245,0.0104228,1280,1779,8.93632,-50.3985
63,-755,8.89526,50.4277,-0.00202101,0.00849194,0.00525111,0.0106655,-0.00419452,1.17835,0.0088464,0.0102699,1287,1779,8.89522,-50.4277
70,-755,8.87891,50.4076,-0.000425231,0.0092951,0.00518376,0.0115407,-0.00267088,1.16199,0.00872153,0.0133449,1294,1779,8.87895,-50.4076
77,-755,8.82849,50.3694,0.00119971,0.00992195,0.00470215,0.0119741,-0.0008524,1.15929,0.00828148,0.013411,1301,1779,8.8285,-50.3694
84,-755,8.77112,50.3706,0.00231127,0.00996455,0.0038572,0.0115712,0.000704572,1.17611,0.00749036,0.0143769,1308,1779,8.77118,-50.3706
91,-755,8.72144,50.3181,0.00284946,0.0098595,0.00267916,0.0107662,0.00194279,1.24448,0.00662549,0.0139608,1315,1779,8.72144,-50.3181
98,-755,8.65466,50.2665,0.00281621,0.00958565,0.00141943,0.00987123,0.00253063,1.37225,0.00592039,0.0141628,1322,1779,8.6547,-50.2665
105,-755,8.61975,50.2053,0.00251219,0.00883064,0.000240002,0.00883974,0.00250309,1.53288,0.00526117,0.0172614,1329,1779,8.61981,-50.2053
112,-755,8.56555,50.0858,0.00134525,0.0077767,-0.00123398,0.00800533,0.00111662,-1.38759,0.00500636,0.0223981,1336,1779,8.56549,-50.0859
119,-755,8.52942,49.9723,-0.000670009,0.00642155,-0.0027051,0.00733561,-0.00158406,-1.24494,0.00549507,0.0237335,1343,1779,8.52942,-49.9723
126,-755,8.48914,49.9755,-0.00299703,0.00499229,-0.00368256,0.00643073,-0.00443547,-1.19841,0.00630876,0.0282321,1350,1779,8.48918,-49.9755
133,-755,8.36816,49.8835,-0.00522616,0.0032345,-0.00495518,0.0055195,-0.00751116,-1.13872,0.00755249,0.0278071,1357,1779,8.36814,-49.8835
140,-755,8.27429,49.7618,-0.00712475,0.00165587,-0.00594219,0.00465369,-0.0101226,-1.10356,0.00872367,0.0343176,1364,1779,8.27432,-49.7618
147,-755,8.33459,49.6545,-0.0100062,-0.000724641,-0.00690091,0.00295079,-0.0136816,-1.08141,0.0102473,0.0389843,1371,1779,8.33458,-49.6545
154,-755,8.2572,49.5345,-0.0121094,-0.00207237,-0.00642097,0.00105862,-0.0152403,-1.1171,0.0105309,0.0388158,1378,1779,8.25724,-49.5345
161,-755,8.06738,49.4261,0,0,0,0,0,0,0,-1,1385,1779,8.06744,-49.4262
168,-755,3.98181,7.35901,0,0,0,0,0,0,0,-1,1392,1779,3.98184,-7.35904
175,-755,8.17065,1.34363,0,0,0,0,0,0,0,-1,1399,1779,8.1706,-1.34368
182,-755,8.09216,2.96924,0,0,0,0,0,0,0,-1,1406,1779,8.09213,-2.9693
189,-755,8.04419,4.68042,0,0,0,0,0,0,0,-1,1413,1779,8.04419,-4.68046
196,-755,7.74841,7.4541,0,0,0,0,0,0,0,-1,1420,1779,7.74842,-7.45405
203,-755,4.80554,6.88696,0,0,0,0,0,0,0,-1,1427,1779,4.80554,-6.88697
210,-755,25.1694,7.35693,0,0,0,0,0,0,0,-1,1434,1779,25.1694,-7.35688
217,-755,5.01648,16.411,0,0,0,0,0,0,0,-1,1441,1779,5.01646,-16.411
224,-755,5.18103,22.6283,0,0,0,0,0,0,0,-1,1448,1779,5.18101,-22.6283
231,-755,5.7489,30.15,0,0,0,0,0,0,0,-1,1455,1779,5.74885,-30.15
238,-755,6.56323,29.2726,0,0,0,0,0,0,0,-1,1462,1779,6.56327,-29.2726
245,-755,8.29639,28.2113,0,0,0,0,0,0,0,-1,1469,1779,8.29639,-28.2113
252,-755,6.8877,28.8699,0,0,0,0,0,0,0,-1,1476,1779,6.88774,-28.8698
259,-755,5.47913,29.5283,0,0,0,0,0,0,0,-1,1483,1779,5.4791,-29.5283
266,-755,17.255,7.86096,0,0,0,0,0,0,0,-1,1490,1779,17.255,-7.86092
273,-755,15.7932,7.59778,0,0,0,0,0,0,0,-1,1497,1779,15.7932,-7.59777
280,-755,14.6255,7.34802,0,0,0,0,0,0,0,-1,1504,1779,14.6254,-7.34806
287,-755,13.8279,7.83105,0,0,0,0,0,0,0,-1,1511,1779,13.8279,-7.83104
294,-755,12.5695,7.96814,0,0,0,0,0,0,0,-1,1518,1779,12.5694,-7.9682
301,-755,11.2659,8.27087,0,0,0,0,0,0,0,-1,1525,1779,11.2658,-8.27087
308,-755,5.17737,37.2896,0,0,0,0,0,0,0,-1,1532,1779,5.17742,-37.2896
315,-755,0.828613,31.032,0,0,0,0,0,0,0,-1,1539,1779,0.828668,-31.032
322,-755,0,0,0,0,0,0,0,0,0,-1,1546,1779,0,0
329,-755,0,0,0,0,0,0,0,0,0,-1,1553,1779,0,0
336,-755,0,0,0,0,0,0,0,0,0,-1,1560,1779,0,0
343,-755,0,0,0,0,0,0,0,0,0,-1,1567,1779,0,0
350,-755,0,0,0,0,0,0,0,0,0,-1,1574,1779,0,0
357,-755,0,0,0,0,0,0,0,0,0,-1,1581,1779,0,0
364,-755,0,0,0,0,0,0,0,0,0,-1,1588,1779,0,0
371,-755,0,0,0,0,0,0,0,0,0,-1,1595,1779,0,0
378,-755,0,0,0,0,0,0,0,0,0,-1,1602,1779,0,0
385,-755,0,0,0,0,0,0,0,0,0,-1,1609,1779,0,0
392,-755,0,0,0,0,0,0,0,0,0,-1,1616,1779,0,0
399,-755,0,0,0,0,0,0,0,0,0,-1,1623,1779,0,0
406,-755,0,0,0,0,0,0,0,0,0,-1,1630,1779,0,0
413,-755,0,0,0,0,0,0,0,0,0,-1,1637,1779,0,0
420,-755,0,0,0,0,0,0,0,0,0,-1,1644,1779,0,0
427,-755,0,0,0,0,0,0,0,0,0,-1,1651,1779,0,0
434,-755,0,0,0,0,0,0,0,0,0,-1,1658,1779,0,0
441,-755,0,0,0,0,0,0,0,0,0,-1,1665,1779,0,0
448,-755,0,0,0,0,0,0,0,0,0,-1,1672,1779,0,0
455,-755,0,0,0,0,0,0,0,0,0,-1,1679,1779,0,0
462,-755,0,0,0,0,0,0,0,0,0,-1,1686,1779,0,0
469,-755,0,0,0,0,0,0,0,0,0,-1,1693,1779,0,0
476,-755,0,0,0,0,0,0,0,0,0,-1,1700,1779,0,0
483,-755,0,0,0,0,0,0,0,0,0,-1,1707,1779,0,0
490,-755,0,0,0,0,0,0,0,0,0,-1,1714,1779,0,0
497,-755,0,0,0,0,0,0,0,0,0,-1,1721,1779,0,0
504,-755,0,0,0,0,0,0,0,0,0,-1,1728,1779,0,0
511,-755,0,0,0,0,0,0,0,0,0,-1,1735,1779,0,0
518,-755,0,0,0,0,0,0,0,0,0,-1,1742,1779,0,0
525,-755,0,0,0,0,0,0,0,0,0,-1,1749,1779,0,0
532,-755,0,0,0,0,0,0,0,0,0,-1,1756,1779,0,0
539,-755,0,0,0,0,0,0,0,0,0,-1,1763,1779,0,0
546,-755,0,0,0,0,0,0,0,0,0,-1,1770,1779,0,0
553,-755,0,0,0,0,0,0,0,0,0,-1,1777,1779,0,0
560,-755,0,0,0,0,0,0,0,0,0,-1,1784,1779,0,0
567,-755,0,0,0,0,0,0,0,0,0,-1,1791,1779,0,0
574,-755,0,0,0,0,0,0,0,0,0,-1,1798,1779,0,0
581,-755,0,0,0,0,0,0,0,0,0,-1,1805,1779,0,0
588,-755,0,0,0,0,0,0,0,0,0,-1,1812,1779,0,0
595,-755,0,0,0,0,0,0,0,0,0,-1,1819,1779,0,0
602,-755,0,0,0,0,0,0,0,0,0,-1,1826,1779,0,0
609,-755,0,0,0,0,0,0,0,0,0,-1,1833,1779,0,0
616,-755,0,0,0,0,0,0,0,0,0,-1,1840,1779,0,0
623,-755,0,0,0,0,0,0,0,0,0,-1,1847,1779,0,0
630,-755,0,0,0,0,0,0,0,0,0,-1,1854,1779,0,0
637,-755,0,0,0,0,0,0,0,0,0,-1,1861,1779,0,0
644,-755,0,0,0,0,0,0,0,0,0,-1,1868,1779,0,0
651,-755,0,0,0,0,0,0,0,0,0,-1,1875,1779,0,0
658,-755,0,0,0,0,0,0,0,0,0,-1,1882,1779,0,0
665,-755,0,0,0,0,0,0,0,0,0,-1,1889,1779,0,0
672,-755,0,0,0,0,0,0,0,0,0,-1,1896,1779,0,0
679,-755,0,0,0,0,0,0,0,0,0,-1,1903,1779,0,0
686,-755,0,0,0,0,0,0,0,0,0,-1,1910,1779,0,0
693,-755,0,0,0,0,0,0,0,0,0,-1,1917,1779,0,0
700,-755,0,0,0,0,0,0,0,0,0,-1,1924,1779,0,0
707,-755,0,0,0,0,0,0,0,0,0,-1,1931,1779,0,0
714,-755,0,0,0,0,0,0,0,0,0,-1,1938,1779,0,0
721,-755,0,0,0,0,0,0,0,0,0,-1,1945,1779,0,0
728,-755,0,0,0,0,0,0,0,0,0,-1,1952,1779,0,0
735,-755,0,0,0,0,0,0,0,0,0,-1,1959,1779,0,0
742,-755,0,0,0,0,0,0,0,0,0,-1,1966,1779,0,0
749,-755,0,0,0,0,0,0,0,0,0,-1,1973,1779,0,0
756,-755,0,0,0,0,0,0,0,0,0,-1,1980,1779,0,0
763,-755,0,0,0,0,0,0,0,0,0,-1,1987,1779,0,0
770,-755,0,0,0,0,0,0,0,0,0,-1,1994,1779,0,0
777,-755,0,0,0,0,0,0,0,0,0,-1,2001,1779,0,0
784,-755,0,0,0,0,0,0,0,0,0,-1,2008,1779,0,0
791,-755,0,0,0,0,0,0,0,0,0,-1,2015,1779,0,0
798,-755,0,0,0,0,0,0,0,0,0,-1,2022,1779,0,0
805,-755,0,0,0,0,0,0,0,0,0,-1,2029,1779,0,0
812,-755,0,0,0,0,0,0,0,0,0,-1,2036,1779,0,0
-700,-762,0,0,0,0,0,0,0,0,0,-1,524,1786,0,0
-693,-762,0,0,0,0,0,0,0,0,0,-1,531,1786,0,0
-686,-762,0,0,0,0,0,0,0,0,0,-1,538,1786,0,0
-679,-762,0,0,0,0,0,0,0,0,0,-1,545,1786,0,0
-672,-762,0,0,0,0,0,0,0,0,0,-1,552,1786,0,0
-665,-762,0,0,0,0,0,0,0,0,0,-1,559,1786,0,0
-658,-762,0,0,0,0,0,0,0,0,0,-1,566,1786,0,0
-651,-762,0,0,0,0,0,0,0,0,0,-1,573,1786,0,0
-644,-762,0,0,0,0,0,0,0,0,0,-1,580,1786,0,0
-637,-762,0,0,0,0,0,0,0,0,0,-1,587,1786,0,0
-630,-762,0,0,0,0,0,0,0,0,0,-1,594,1786,0,0
-623,-762,0,0,0,0,0,0,0,0,0,-1,601,1786,0,0
-616,-762,0,0,0,0,0,0,0,0,0,-1,608,1786,0,0
-609,-762,0,0,0,0,0,0,0,0,0,-1,615,1786,0,0
-602,-762,0,0,0,0,0,0,0,0,0,-1,622,1786,0,0
-595,-762,0,0,0,0,0,0,0,0,0,-1,629,1786,0,0
-588,-762,0,0,0,0,0,0,0,0,0,-1,636,1786,0,0
-581,-762,0,0,0,0,0,0,0,0,0,-1,643,1786,0,0
-574,-762,0,0,0,0,0,0,0,0,0,-1,650,1786,0,0
-567,-762,0,0,0,0,0,0,0,0,0,-1,657,1786,0,0
-560,-762,0,0,0,0,0,0,0,0,0,-1,664,1786,0,0
-553,-762,0,0,0,0,0,0,0,0,0,-1,671,1786,0,0
-546,-762,0,0,0,0,0,0,0,0,0,-1,678,1786,0,0
-539,-762,0,0,0,0,0,0,0,0,0,-1,685,1786,0,0
-532,-762,0,0,0,0,0,0,0,0,0,-1,692,1786,0,0
-525,-762,0,0,0,0,0,0,0,0,0,-1,699,1786,0,0
-518,-762,0,0,0,0,0,0,0,0,0,-1,706,1786,0,0
-511,-762,0,0,0,0,0,0,0,0,0,-1,713,1786,0,0
-504,-762,0,0,0,0,0,0,0,0,0,-1,720,1786,0,0
-497,-762,0,0,0,0,0,0,0,0,0,-1,727,1786,0,0
-490,-762,0,0,0,0,0,0,0,0,0,-1,734,1786,0,0
-483,-762,0,0,0,0,0,0,0,0,0,-1,741,1786,0,0
-476,-762,0,0,0,0,0,0,0,0,0,-1,748,1786,0,0
-469,-762,0,0,0,0,0,0,0,0,0,-1,755,1786,0,0
-462,-762,0,0,0,0,0,0,0,0,0,-1,762,1786,0,0
-455,-762,0,0,0,0,0,0,0,0,0,-1,769,1786,0,0
-448,-762,0,0,0,0,0,0,0,0,0,-1,776,1786,0,0
-441,-762,0,0,0,0,0,0,0,0,0,-1,783,1786,0,0
-434,-762,0,0,0,0,0,0,0,0,0,-1,790,1786,0,0
-427,-762,0,0,0,0,0,0,0,0,0,-1,797,1786,0,0
-420,-762,0,0,0,0,0,0,0,0,0,-1,804,1786,0,0
-413,-762,0,0,0,0,0,0,0,0,0,-1,811,1786,0,0
-406,-762,0,0,0,0,0,0,0,0,0,-1,818,1786,0,0
-399,-762,0,0,0,0,0,0,0,0,0,-1,825,1786,0,0
-392,-762,0,0,0,0,0,0,0,0,0,-1,832,1786,0,0
-385,-762,0,0,0,0,0,0,0,0,0,-1,839,1786,0,0
-378,-762,0,0,0,0,0,0,0,0,0,-1,846,1786,0,0
-371,-762,0,0,0,0,0,0,0,0,0,-1,853,1786,0,0
-364,-762,0,0,0,0,0,0,0,0,0,-1,860,1786,0,0
-357,-762,0,0,0,0,0,0,0,0,0,-1,867,1786,0,0
-350,-762,0,0,0,0,0,0,0,0,0,-1,874,1786,0,0
-343,-762,0,0,0,0,0,0,0,0,0,-1,881,1786,0,0
-336,-762,0,0,0,0,0,0,0,0,0,-1,888,1786,0,0
-329,-762,0,0,0,0,0,0,0,0,0,-1,895,1786,0,0
-322,-762,0,0,0,0,0,0,0,0,0,-1,902,1786,0,0
-315,-762,0,0,0,0,0,0,0,0,0,-1,909,1786,0,0
-308,-762,0,0,0,0,0,0,0,0,0,-1,916,1786,0,0
-301,-762,0,0,0,0,0,0,0,0,0,-1,923,1786,0,0
-294,-762,0,0,0,0,0,0,0,0,0,-1,930,1786,0,0
-287,-762,0,0,0,0,0,0,0,0,0,-1,937,1786,0,0
-280,-762,0,0,0,0,0,0,0,0,0,-1,944,1786,0,0
-273,-762,0,0,0,0,0,0,0,0,0,-1,951,1786,0,0
-266,-762,0,0,0,0,0,0,0,0,0,-1,958,1786,0,0
-259,-762,0,0,0,0,0,0,0,0,0,-1,965,1786,0,0
-252,-762,0,0,0,0,0,0,0,0,0,-1,972,1786,0,0
-245,-762,0,0,0,0,0,0,0,0,0,-1,979,1786,0,0
-238,-762,0,0,0,0,0,0,0,0,0,-1,986,1786,0,0
-231,-762,0,0,0,0,0,0,0,0,0,-1,993,1786,0,0
-224,-762,0,0,0,0,0,0,0,0,0,-1,1000,1786,0,0
-217,-762,0,0,0,0,0,0,0,0,0,-1,1007,1786,0,0
-210,-762,0,0,0,0,0,0,0,0,0,-1,1014,1786,0,0
-203,-762,0,0,0,0,0,0,0,0,0,-1,1021,1786,0,0
-196,-762,0,0,0,0,0,0,0,0,0,-1,1028,1786,0,0
-189,-762,0,0,0,0,0,0,0,0,0,-1,1035,1786,0,0
-182,-762,4.44226,13.2462,0,0,0,0,0,0,0,-1,1042,1786,4.44227,-13.2462
-175,-762,1.14465,40.1932,0,0,0,0,0,0,0,-1,1049,1786,1.1447,-40.1932
-168,-762,3.26794,41.3881,0,0,0,0,0,0,0,-1,1056,1786,3.26794,-41.388
-161,-762,-3.29077,11.9508,0,0,0,0,0,0,0,-1,1063,1786,-3.29076,-11.9508
-154,-762,-4.55823,11.1176,0,0,0,0,0,0,0,-1,1070,1786,-4.55828,-11.1175
-147,-762,-6.52454,9.41418,0,0,0,0,0,0,0,-1,1077,1786,-6.52458,-9.41419
-140,-762,4.99792,5.28589,0,0,0,0,0,0,0,-1,1084,1786,4.99793,-5.28587
-133,-762,0.689819,19.2172,0,0,0,0,0,0,0,-1,1091,1786,0.689867,-19.2171
-126,-762,1.48743,19.9288,0,0,0,0,0,0,0,-1,1098,1786,1.48738,-19.9289
-119,-762,2.65637,20.208,0,0,0,0,0,0,0,-1,1105,1786,2.65632,-20.208
-112,-762,6.84705,25.5554,0,0,0,0,0,0,0,-1,1112,1786,6.84706,-25.5554
-105,-762,5.57947,21.618,0,0,0,0,0,0,0,-1,1119,1786,5.57948,-21.618
-98,-762,5.0636,17.9901,0,0,0,0,0,0,0,-1,1126,1786,5.06361,-17.9901
-91,-762,4.54773,14.3622,0,0,0,0,0,0,0,-1,1133,1786,4.54774,-14.3622
-84,-762,3.96375,10.4547,0,0,0,0,0,0,0,-1,1140,1786,3.96371,-10.4548
-77,-762,0.305054,8.49365,0,0,0,0,0,0,0,-1,1147,1786,0.305008,-8.49362
-70,-762,0.183716,6.74622,0,0,0,0,0,0,0,-1,1154,1786,0.183696,-6.74621
-63,-762,-0.883057,9.08813,0,0,0,0,0,0,0,-1,1161,1786,-0.88311,-9.08808
-56,-762,-0.578979,5.10254,0,0,0,0,0,0,0,-1,1168,1786,-0.578951,-5.10249
-49,-762,-2.04541,3.66321,0,0,0,0,0,0,0,-1,1175,1786,-2.0454,-3.66319
-42,-762,-2.23462,3.474,0,0,0,0,0,0,0,-1,1182,1786,-2.23459,-3.47399
-35,-762,-3.28992,1.68164,0,0,0,0,0,0,0,-1,1189,1786,-3.28998,-1.68164
-28,-762,-3.75378,1.37769,0,0,0,0,0,0,0,-1,1196,1786,-3.75373,-1.37767
-21,-762,9.70166,49.5811,0,0,0,0,0,0,0,-1,1203,1786,9.70171,-49.581
-14,-762,9.53845,49.5497,-0.0033912,0.00181605,0.00297327,0.00316453,-0.00473968,1.145,0.00459361,0.0490966,1210,1786,9.53841,-49.5497
-7,-762,9.29114,49.6105,-0.00359989,0.00183937,0.00271232,0.00296071,-0.00472123,1.17877,0.00447383,0.0497763,1217,1786,9.29114,-49.6105
0,-762,9.39075,49.8218,-0.00469597,0.00259205,0.00243536,0.00333093,-0.00543485,1.27622,0.00510929,0.0375277,1224,1786,9.39077,-49.8218
7,-762,9.35632,49.9575,-0.00622432,0.00357891,0.00247299,0.00416742,-0.00681283,1.33717,0.00640049,0.021377,1231,1786,9.35633,-49.9575
14,-762,9.31287,50.2487,-0.00772745,0.00490423,0.00267803,0.00544854,-0.00827177,1.37028,0.00797713,0.0363662,1238,1786,9.31291,-50.2486
21,-762,9.2843,50.329,-0.00920481,0.0054399,0.00237544,0.00581557,-0.00958049,1.41395,0.00897707,0.0468046,1245,1786,9.28435,-50.329
28,-762,9.00073,50.3815,-0.0103844,0.00612269,0.00310556,0.00668762,-0.0109493,1.39085,0.0102813,0.0457486,1252,1786,9.00068,-50.3814
35,-762,9.00684,50.4421,-0.0112432,0.00621623,0.00435134,0.00724061,-0.0122675,1.33959,0.011387,0.0459365,1259,1786,9.00685,-50.4421
42,-762,8.96362,50.3625,0,0,0,0,0,0,0,-1,1266,1786,8.96359,-50.3626
49,-762,8.87695,50.4218,-0.00604006,0.00883725,0.00671159,0.0114175,-0.00862034,1.20377,0.0116064,0.0446873,1273,1786,8.87693,-50.4218
56,-762,8.95264,50.4337,-0.00376061,0.0103397,0.00698037,0.0132108,-0.00663165,1.18058,0.0116641,0.0322782,1280,1786,8.95259,-50.4337
63,-762,8.80078,50.652,0,0,0,0,0,0,0,-1,1287,1786,8.80078,-50.652
70,-762,8.81958,50.605,0,0,0,0,0,0,0,-1,1294,1786,8.81957,-50.605
77,-762,8.7804,50.3446,0.00323978,0.0129898,0.00670133,0.0164017,-0.000172161,1.09986,0.0109923,0.037404,1301,1786,8.78041,-50.3446
84,-762,8.8512,50.3843,0.00491479,0.0131186,0.00565653,0.016004,0.00202942,1.09911,0.0100613,0.0457148,1308,1786,8.85122,-50.3842
91,-762,8.77087,50.2205,0,0,0,0,0,0,0,-1,1315,1786,8.7709,-50.2205
98,-762,8.54883,50.1991,0,0,0,0,0,0,0,-1,1322,1786,8.54879,-50.199
105,-762,7.60266,50.4867,0,0,0,0,0,0,0,-1,1329,1786,7.60266,-50.4867
112,-762,8.42737,50.0474,0,0,0,0,0,0,0,-1,1336,1786,8.42741,-50.0474
119,-762,8.41858,49.8118,0,0,0,0,0,0,0,-1,1343,1786,8.41863,-49.8118
126,-762,8.34644,50.0416,0,0,0,0,0,0,0,-1,1350,1786,8.34644,-50.0416
133,-762,8.35242,50.1379,-0.00555603,0.0048544,-0.00641676,0.00791169,-0.00861332,-1.12616,0.00954359,0.0483125,1357,1786,8.35246,-50.1379
140,-762,8.17517,49.8645,-0.0083834,0.00257286,-0.00775722,0.00659128,-0.0124018,-1.09283,0.0111354,0.0436818,1364,1786,8.17511,-49.8644
147,-762,8.23169,49.505,-0.0126858,-0.000535516,-0.00912449,0.00435127,-0.0175726,-1.0791,0.013403,0.0440835,1371,1786,8.23173,-49.505
154,-762,8.42664,49.2035,0,0,0,0,0,0,0,-1,1378,1786,8.42668,-49.2035
161,-762,8.65051,34.8102,0,0,0,0,0,0,0,-1,1385,1786,8.65054,-34.8101
168,-762,8.19287,0.880615,0,0,0,0,0,0,0,-1,1392,1786,8.19291,-0.880603
175,-762,8.33997,1.95947,0,0,0,0,0,0,0,-1,1399,1786,8.33997,-1.95942
182,-762,8.28418,3.56482,0,0,0,0,0,0,0,-1,1406,1786,8.28415,-3.56485
189,-762,8.21179,5.23389,0,0,0,0,0,0,0,-1,1413,1786,8.21183,-5.23383
196,-762,8.05969,6.95483,0,0,0,0,0,0,0,-1,1420,1786,8.05972,-6.9548
203,-762,24.0077,7.10425,0,0,0,0,0,0,0,-1,1427,1786,24.0077,-7.10426
210,-762,23.8073,7.6499,0,0,0,0,0,0,0,-1,1434,1786,23.8073,-7.64987
217,-762,23.3193,8.24426,0,0,0,0,0,0,0,-1,1441,1786,23.3194,-8.2442
224,-762,2.65149,20.6106,0,0,0,0,0,0,0,-1,1448,1786,2.65153,-20.6106
231,-762,5.46655,23.521,0,0,0,0,0,0,0,-1,1455,1786,5.46653,-23.521
238,-762,5.35632,29.7203,0,0,0,0,0,0,0,-1,1462,1786,5.35629,-29.7203
245,-762,6.93054,27.8312,0,0,0,0,0,0,0,-1,1469,1786,6.93058,-27.8312
252,-762,6.20215,28.3027,0,0,0,0,0,0,0,-1,1476,1786,6.20211,-28.3027
259,-762,5.46472,28.8762,0,0,0,0,0,0,0,-1,1483,1786,5.46476,-28.8762
266,-762,16.451,7.67773,0,0,0,0,0,0,0,-1,1490,1786,16.4511,-7.67773
273,-762,15.287,7.5304,0,0,0,0,0,0,0,-1,1497,1786,15.2869,-7.53044
280,-762,14.1501,7.38379,0,0,0,0,0,0,0,-1,1504,1786,14.1502,-7.38376
287,-762,12.6891,7.99133,0,0,0,0,0,0,0,-1,1511,1786,12.6891,-7.99135
294,-762,12.6959,8.30371,0,0,0,0,0,0,0,-1,1518,1786,12.6959,-8.30368
301,-762,11.4222,8.84143,0,0,0,0,0,0,0,-1,1525,1786,11.4223,-8.84149
308,-762,0,0,0,0,0,0,0,0,0,-1,1532,1786,0,0
315,-762,0,0,0,0,0,0,0,0,0,-1,1539,1786,0,0
322,-762,0,0,0,0,0,0,0,0,0,-1,1546,1786,0,0
329,-762,0,0,0,0,0,0,0,0,0,-1,1553,1786,0,0
336,-762,0,0,0,0,0,0,0,0,0,-1,1560,1786,0,0
343,-762,0,0,0,0,0,0,0,0,0,-1,1567,1786,0,0
350,-762,0,0,0,0,0,0,0,0,0,-1,1574,1786,0,0
357,-762,0,0,0,0,0,0,0,0,0,-1,1581,1786,0,0
364,-762,0,0,0,0,0,0,0,0,0,-1,1588,1786,0,0
371,-762,0,0,0,0,0,0,0,0,0,-1,1595,1786,0,0
378,-762,0,0,0,0,0,0,0,0,0,-1,1602,1786,0,0
385,-762,0,0,0,0,0,0,0,0,0,-1,1609,1786,0,0
392,-762,0,0,0,0,0,0,0,0,0,-1,1616,1786,0,0
399,-762,0,0,0,0,0,0,0,0,0,-1,1623,1786,0,0
406,-762,0,0,0,0,0,0,0,0,0,-1,1630,1786,0,0
413,-762,0,0,0,0,0,0,0,0,0,-1,1637,1786,0,0
420,-762,0,0,0,0,0,0,0,0,0,-1,1644,1786,0,0
427,-762,0,0,0,0,0,0,0,0,0,-1,1651,1786,0,0
434,-762,0,0,0,0,0,0,0,0,0,-1,1658,1786,0,0
441,-762,0,0,0,0,0,0,0,0,0,-1,1665,1786,0,0
448,-762,0,0,0,0,0,0,0,0,0,-1,1672,1786,0,0
455,-762,0,0,0,0,0,0,0,0,0,-1,1679,1786,0,0
462,-762,0,0,0,0,0,0,0,0,0,-1,1686,1786,0,0
469,-762,0,0,0,0,0,0,0,0,0,-1,1693,1786,0,0
476,-762,0,0,0,0,0,0,0,0,0,-1,1700,1786,0,0
483,-762,0,0,0,0,0,0,0,0,0,-1,1707,1786,0,0
490,-762,0,0,0,0,0,0,0,0,0,-1,1714,1786,0,0
497,-762,0,0,0,0,0,0,0,0,0,-1,1721,1786,0,0
504,-762,0,0,0,0,0,0,0,0,0,-1,1728,1786,0,0
511,-762,0,0,0,0,0,0,0,0,0,-1,1735,1786,0,0
518,-762,0,0,0,0,0,0,0,0,0,-1,1742,1786,0,0
525,-762,0,0,0,0,0,0,0,0,0,-1,1749,1786,0,0
532,-762,0,0,0,0,0,0,0,0,0,-1,1756,1786,0,0
539,-762,0,0,0,0,0,0,0,0,0,-1,1763,1786,0,0
546,-762,0,0,0,0,0,0,0,0,0,-1,1770,1786,0,0
553,-762,0,0,0,0,0,0,0,0,0,-1,1777,1786,0,0
560,-762,0,0,0,0,0,0,0,0,0,-1,1784,1786,0,0
567,-762,0,0,0,0,0,0,0,0,0,-1,1791,1786,0,0
574,-762,0,0,0,0,0,0,0,0,0,-1,1798,1786,0,0
581,-762,0,0,0,0,0,0,0,0,0,-1,1805,1786,0,0
588,-762,0,0,0,0,0,0,0,0,0,-1,1812,1786,0,0
595,-762,0,0,0,0,0,0,0,0,0,-1,1819,1786,0,0
602,-762,0,0,0,0,0,0,0,0,0,-1,1826,1786,0,0
609,-762,0,0,0,0,0,0,0,0,0,-1,1833,1786,0,0
616,-762,0,0,0,0,0,0,0,0,0,-1,1840,1786,0,0
623,-762,0,0,0,0,0,0,0,0,0,-1,1847,1786,0,0
630,-762,0,0,0,0,0,0,0,0,0,-1,1854,1786,0,0
637,-762,0,0,0,0,0,0,0,0,0,-1,1861,1786,0,0
644,-762,0,0,0,0,0,0,0,0,0,-1,1868,1786,0,0
651,-762,0,0,0,0,0,0,0,0,0,-1,1875,1786,0,0
658,-762,0,0,0,0,0,0,0,0,0,-1,1882,1786,0,0
665,-762,0,0,0,0,0,0,0,0,0,-1,1889,1786,0,0
672,-762,0,0,0,0,0,0,0,0,0,-1,1896,1786,0,0
679,-762,0,0,0,0,0,0,0,0,0,-1,1903,1786,0,0
686,-762,0,0,0,0,0,0,0,0,0,-1,1910,1786,0,0
693,-762,0,0,0,0,0,0,0,0,0,-1,1917,1786,0,0
700,-762,0,0,0,0,0,0,0,0,0,-1,1924,1786,0,0
707,-762,0,0,0,0,0,0,0,0,0,-1,1931,1786,0,0
714,-762,0,0,0,0,0,0,0,0,0,-1,1938,1786,0,0
721,-762,0,0,0,0,0,0,0,0,0,-1,1945,1786,0,0
728,-762,0,0,0,0,0,0,0,0,0,-1,1952,1786,0,0
735,-762,0,0,0,0,0,0,0,0,0,-1,1959,1786,0,0
742,-762,0,0,0,0,0,0,0,0,0,-1,1966,1786,0,0
749,-762,0,0,0,0,0,0,0,0,0,-1,1973,1786,0,0
756,-762,0,0,0,0,0,0,0,0,0,-1,1980,1786,0,0
763,-762,0,0,0,0,0,0,0,0,0,-1,1987,1786,0,0
770,-762,0,0,0,0,0,0,0,0,0,-1,1994,1786,0,0
777,-762,0,0,0,0,0,0,0,0,0,-1,2001,1786,0,0
784,-762,0,0,0,0,0,0,0,0,0,-1,2008,1786,0,0
791,-762,0,0,0,0,0,0,0,0,0,-1,2015,1786,0,0
798,-762,0,0,0,0,0,0,0,0,0,-1,2022,1786,0,0
805,-762,0,0,0,0,0,0,0,0,0,-1,2029,1786,0,0
812,-762,0,0,0,0,0,0,0,0,0,-1,2036,1786,0,0
-700,-769,0,0,0,0,0,0,0,0,0,-1,524,1793,0,0
-693,-769,0,0,0,0,0,0,0,0,0,-1,531,1793,0,0
-686,-769,0,0,0,0,0,0,0,0,0,-1,538,1793,0,0
-679,-769,0,0,0,0,0,0,0,0,0,-1,545,1793,0,0
-672,-769,0,0,0,0,0,0,0,0,0,-1,552,1793,0,0
-665,-769,0,0,0,0,0,0,0,0,0,-1,559,1793,0,0
-658,-769,0,0,0,0,0,0,0,0,0,-1,566,1793,0,0
-651,-769,0,0,0,0,0,0,0,0,0,-1,573,1793,0,0
-644,-769,0,0,0,0,0,0,0,0,0,-1,580,1793,0,0
-637,-769,0,0,0,0,0,0,0,0,0,-1,587,1793,0,0
-630,-769,0,0,0,0,0,0,0,0,0,-1,594,1793,0,0
-623,-769,0,0,0,0,0,0,0,0,0,-1,601,1793,0,0
-616,-769,0,0,0,0,0,0,0,0,0,-1,608,1793,0,0
-609,-769,0,0,0,0,0,0,0,0,0,-1,615,1793,0,0
-602,-769,0,0,0,0,0,0,0,0,0,-1,622,1793,0,0
-595,-769,0,0,0,0,0,0,0,0,0,-1,629,1793,0,0
-588,-769,0,0,0,0,0,0,0,0,0,-1,636,1793,0,0
-581,-769,0,0,0,0,0,0,0,0,0,-1,643,1793,0,0
-574,-769,0,0,0,0,0,0,0,0,0,-1,650,1793,0,0
-567,-769,0,0,0,0,0,0,0,0,0,-1,657,1793,0,0
-560,-769,0,0,0,0,0,0,0,0,0,-1,664,1793,0,0
-553,-769,0,0,0,0,0,0,0,0,0,-1,671,1793,0,0
-546,-769,0,0,0,0,0,0,0,0,0,-1,678,1793,0,0
-539,-769,0,0,0,0,0,0,0,0,0,-1,685,1793,0,0
-532,-769,0,0,0,0,0,0,0,0,0,-1,692,1793,0,0
-525,-769,0,0,0,0,0,0,0,0,0,-1,699,1793,0,0
-518,-769,0,0,0,0,0,0,0,0,0,-1,706,1793,0,0
-511,-769,0,0,0,0,0,0,0,0,0,-1,713,1793,0,0
-504,-769,0,0,0,0,0,0,0,0,0,-1,720,1793,0,0
-497,-769,0,0,0,0,0,0,0,0,0,-1,727,1793,0,0
-490,-769,0,0,0,0,0,0,0,0,0,-1,734,1793,0,0
-483,-769,0,0,0,0,0,0,0,0,0,-1,741,1793,0,0
-476,-769,0,0,0,0,0,0,0,0,0,-1,748,1793,0,0
-469,-769,0,0,0,0,0,0,0,0,0,-1,755,1793,0,0
-462,-769,0,0,0,0,0,0,0,0,0,-1,762,1793,0,0
-455,-769,0,0,0,0,0,0,0,0,0,-1,769,1793,0,0
-448,-769,0,0,0,0,0,0,0,0,0,-1,776,1793,0,0
-441,-769,0,0,0,0,0,0,0,0,0,-1,783,1793,0,0
-434,-769,0,0,0,0,0,0,0,0,0,-1,790,1793,0,0
-427,-769,0,0,0,0,0,0,0,0,0,-1,797,1793,0,0
-420,-769,0,0,0,0,0,0,0,0,0,-1,804,1793,0,0
-413,-769,0,0,0,0,0,0,0,0,0,-1,811,1793,0,0
-406,-769,0,0,0,0,0,0,0,0,0,-1,818,1793,0,0
-399,-769,0,0,0,0,0,0,0,0,0,-1,825,1793,0,0
-392,-769,0,0,0,0,0,0,0,0,0,-1,832,1793,0,0
-385,-769,0,0,0,0,0,0,0,0,0,-1,839,1793,0,0
-378,-769,0,0,0,0,0,0,0,0,0,-1,846,1793,0,0
-371,-769,0,0,0,0,0,0,0,0,0,-1,853,1793,0,0
-364,-769,0,0,0,0,0,0,0,0,0,-1,860,1793,0,0
-357,-769,0,0,0,0,0,0,0,0,0,-1,867,1793,0,0
-350,-769,0,0,0,0,0,0,0,0,0,-1,874,1793,0,0
-343,-769,0,0,0,0,0,0,0,0,0,-1,881,1793,0,0
-336,-769,0,0,0,0,0,0,0,0,0,-1,888,1793,0,0
-329,-769,0,0,0,0,0,0,0,0,0,-1,895,1793,0,0
-322,-769,0,0,0,0,0,0,0,0,0,-1,902,1793,0,0
-315,-769,0,0,0,0,0,0,0,0,0,-1,909,1793,0,0
-308,-769,0,0,0,0,0,0,0,0,0,-1,916,1793,0,0
-301,-769,0,0,0,0,0,0,0,0,0,-1,923,1793,0,0
-294,-769,0,0,0,0,0,0,0,0,0,-1,930,1793,0,0
-287,-769,0,0,0,0,0,0,0,0,0,-1,937,1793,0,0
-280,-769,0,0,0,0,0,0,0,0,0,-1,944,1793,0,0
-273,-769,0,0,0,0,0,0,0,0,0,-1,951,1793,0,0
-266,-769,0,0,0,0,0,0,0,0,0,-1,958,1793,0,0
-259,-769,0,0,0,0,0,0,0,0,0,-1,965,1793,0,0
-252,-769,0,0,0,0,0,0,0,0,0,-1,972,1793,0,0
-245,-769,0,0,0,0,0,0,0,0,0,-1,979,1793,0,0
-238,-769,0,0,0,0,0,0,0,0,0,-1,986,1793,0,0
-231,-769,0,0,0,0,0,0,0,0,0,-1,993,1793,0,0
-224,-769,0,0,0,0,0,0,0,0,0,-1,1000,1793,0,0
-217,-769,0,0,0,0,0,0,0,0,0,-1,1007,1793,0,0
-210,-769,0,0,0,0,0,0,0,0,0,-1,1014,1793,0,0
-203,-769,0,0,0,0,0,0,0,0,0,-1,1021,1793,0,0
-196,-769,0,0,0,0,0,0,0,0,0,-1,1028,1793,0,0
-189,-769,0,0,0,0,0,0,0,0,0,-1,1035,1793,0,0
-182,-769,0,0,0,0,0,0,0,0,0,-1,1042,1793,0,0
-175,-769,0,0,0,0,0,0,0,0,0,-1,1049,1793,0,0
-168,-769,0,0,0,0,0,0,0,0,0,-1,1056,1793,0,0
-161,-769,-3.61145,12.4761,0,0,0,0,0,0,0,-1,1063,1793,-3.6114,-12.476
-154,-769,-0.813232,5.32874,0,0,0,0,0,0,0,-1,1070,1793,-0.813269,-5.32872
-147,-769,4.26587,4.7002,0,0,0,0,0,0,0,-1,1077,1793,4.26593,-4.70022
-140,-769,4.10376,5.28589,0,0,0,0,0,0,0,-1,1084,1793,4.10371,-5.28584
-133,-769,6.422,8.21777,0,0,0,0,0,0,0,-1,1091,1793,6.42198,-8.21773
-126,-769,-0.352295,19.326,0,0,0,0,0,0,0,-1,1098,1793,-0.352235,-19.326
-119,-769,6.01685,16.2577,0,0,0,0,0,0,0,-1,1105,1793,6.01689,-16.2576
-112,-769,5.76416,27.2615,0,0,0,0,0,0,0,-1,1112,1793,5.7642,-27.2615
-105,-769,4.97009,22.8479,0,0,0,0,0,0,0,-1,1119,1793,4.97006,-22.8479
-98,-769,4.69373,18.9142,0,0,0,0,0,0,0,-1,1126,1793,4.69376,-18.9142
-91,-769,4.41748,14.9805,0,0,0,0,0,0,0,-1,1133,1793,4.41746,-14.9805
-84,-769,3.2207,12.4565,0,0,0,0,0,0,0,-1,1140,1793,3.22066,-12.4565
-77,-769,2.48816,8.98486,0,0,0,0,0,0,0,-1,1147,1793,2.48815,-8.98489
-70,-769,1.04944,11.9852,0,0,0,0,0,0,0,-1,1154,1793,1.04947,-11.9852
-63,-769,-2.39709,9.60339,0,0,0,0,0,0,0,-1,1161,1793,-2.39706,-9.6034
-56,-769,-5.84363,7.22156,0,0,0,0,0,0,0,-1,1168,1793,-5.84359,-7.22157
-49,-769,-2.41443,3.95471,0,0,0,0,0,0,0,-1,1175,1793,-2.41446,-3.95471
-42,-769,-3.1991,2.64941,0,0,0,0,0,0,0,-1,1182,1793,-3.19914,-2.64944
-35,-769,-3.50183,1.73389,0,0,0,0,0,0,0,-1,1189,1793,-3.50189,-1.7339
-28,-769,-3.96985,1.14075,0,0,0,0,0,0,0,-1,1196,1793,-3.96985,-1.14078
-21,-769,9.71558,46.531,0,0,0,0,0,0,0,-1,1203,1793,9.71561,-46.5311
-14,-769,9.59265,49.4194,0,0,0,0,0,0,0,-1,1210,1793,9.5926,-49.4194
-7,-769,9.27661,49.4802,0,0,0,0,0,0,0,-1,1217,1793,9.27661,-49.4802
0,-769,9.47729,49.7711,-0.00453257,0.00268526,0.00304235,0.00379653,-0.00564384,1.22059,0.00548507,0.049764,1224,1793,9.47725,-49.7711
7,-769,9.44141,49.9261,-0.00680197,0.00415487,0.00301869,0.0049315,-0.00757859,1.31899,0.0072764,0.0455026,1231,1793,9.44135,-49.9261
14,-769,9.60596,50.0554,-0.00904464,0.00631927,0.00316557,0.00694594,-0.00967131,1.37536,0.00963689,0.0416165,1238,1793,9.60601,-50.0555
21,-769,9.46338,50.4153,0,0,0,0,0,0,0,-1,1245,1793,9.46333,-50.4153
28,-769,9.08337,50.3792,-0.0127539,0.00796882,0.00384696,0.00865992,-0.013445,1.39304,0.0128615,0.0428646,1252,1793,9.0834,-50.3791
35,-769,8.72876,50.4127,-0.0139816,0.0080825,0.00557877,0.00941284,-0.0153119,1.3367,0.0144097,0.0459224,1259,1793,8.72882,-50.4127
42,-769,8.62366,50.3171,0,0,0,0,0,0,0,-1,1266,1793,8.62362,-50.3172
49,-769,8.8009,50.3944,-0.00638473,0.0113865,0.00893156,0.0150996,-0.0100978,1.17681,0.0146429,0.0449425,1273,1793,8.80089,-50.3944
56,-769,8.6095,50.2186,-0.00334073,0.0132641,0.0093232,0.0174458,-0.00752239,1.14917,0.01479,0.0437182,1280,1793,8.60948,-50.2186
63,-769,8.68372,50.041,-0.000261621,0.0142858,0.00984477,0.0192524,-0.00522827,1.10356,0.0148869,0.0477899,1287,1793,8.68374,-50.041
70,-769,8.84473,49.9669,0,0,0,0,0,0,0,-1,1294,1793,8.84469,-49.9669
77,-769,8.51526,49.7145,0,0,0,0,0,0,0,-1,1301,1793,8.51532,-49.7145
84,-769,9.0011,50.3801,0,0,0,0,0,0,0,-1,1308,1793,9.00107,-50.3801
91,-769,7.41443,50.4276,0,0,0,0,0,0,0,-1,1315,1793,7.41438,-50.4276
98,-769,7.63013,50.4377,0.010453,0.0164084,0.00399986,0.0184172,0.00844414,1.10537,0.0106454,0.0471648,1322,1793,7.63015,-50.4377
105,-769,7.84534,50.347,0,0,0,0,0,0,0,-1,1329,1793,7.84537,-50.347
112,-769,9.03088,50.7284,0,0,0,0,0,0,0,-1,1336,1793,9.03083,-50.7284
119,-769,8.80688,50.6855,0.00383758,0.0119926,-0.0033766,0.0132092,0.00262099,-1.22497,0.0080755,0.0487312,1343,1793,8.80689,-50.6855
126,-769,8.55554,50.5839,-0.000874897,0.00979516,-0.00557642,0.0121776,-0.00325732,-1.16704,0.00939432,0.0485023,1350,1793,8.55557,-50.5839
133,-769,8.3595,50.3082,-0.00554209,0.00691103,-0.00817128,0.0109577,-0.00958879,-1.11097,0.0118713,0.0498252,1357,1793,8.35945,-50.3083
140,-769,8.22009,49.9847,-0.00973611,0.00372368,-0.00984481,0.00891904,-0.0149315,-1.08521,0.0139152,0.0492538,1364,1793,8.22011,-49.9847
147,-769,7.98218,49.2869,0,0,0,0,0,0,0,-1,1371,1793,7.98221,-49.2869
154,-769,7.76904,34.4832,0,0,0,0,0,0,0,-1,1378,1793,7.7691,-34.4832
161,-769,6.57019,1.53223,0,0,0,0,0,0,0,-1,1385,1793,6.57019,-1.53226
168,-769,8.27637,0.756958,0,0,0,0,0,0,0,-1,1392,1793,8.27639,-0.756944
175,-769,8.47144,2.41174,0,0,0,0,0,0,0,-1,1399,1793,8.47147,-2.4118
182,-769,8.41479,4.05994,0,0,0,0,0,0,0,-1,1406,1793,8.41479,-4.05997
189,-769,8.25049,5.68433,0,0,0,0,0,0,0,-1,1413,1793,8.25054,-5.68428
196,-769,7.97729,7.42847,0,0,0,0,0,0,0,-1,1420,1793,7.9773,-7.42848
203,-769,22.0977,6.73889,0,0,0,0,0,0,0,-1,1427,1793,22.0977,-6.7389
210,-769,22.1115,7.77246,0,0,0,0,0,0,0,-1,1434,1793,22.1115,-7.77248
217,-769,22.4723,8.79102,0,0,0,0,0,0,0,-1,1441,1793,22.4723,-8.79099
224,-769,22.1348,9.35278,0,0,0,0,0,0,0,-1,1448,1793,22.1348,-9.35283
231,-769,3.13318,19.7184,0,0,0,0,0,0,0,-1,1455,1793,3.13323,-19.7184
238,-769,5.74512,18.6597,0,0,0,0,0,0,0,-1,1462,1793,5.74512,-18.6596
245,-769,5.80798,22.87,0,0,0,0,0,0,0,-1,1469,1793,5.80796,-22.87
252,-769,6.20837,28.394,0,0,0,0,0,0,0,-1,1476,1793,6.20833,-28.3941
259,-769,10.974,17.7698,0,0,0,0,0,0,0,-1,1483,1793,10.974,-17.7698
266,-769,15.8488,7.3905,0,0,0,0,0,0,0,-1,1490,1793,15.8488,-7.39046
273,-769,14.8075,7.56152,0,0,0,0,0,0,0,-1,1497,1793,14.8075,-7.56152
280,-769,13.6519,7.43054,0,0,0,0,0,0,0,-1,1504,1793,13.6518,-7.43058
287,-769,0,0,0,0,0,0,0,0,0,-1,1511,1793,0,0
294,-769,0,0,0,0,0,0,0,0,0,-1,1518,1793,0,0
301,-769,0,0,0,0,0,0,0,0,0,-1,1525,1793,0,0
308,-769,0,0,0,0,0,0,0,0,0,-1,1532,1793,0,0
315,-769,0,0,0,0,0,0,0,0,0,-1,1539,1793,0,0
322,-769,0,0,0,0,0,0,0,0,0,-1,1546,1793,0,0
329,-769,0,0,0,0,0,0,0,0,0,-1,1553,1793,0,0
336,-769,0,0,0,0,0,0,0,0,0,-1,1560,1793,0,0
343,-769,0,0,0,0,0,0,0,0,0,-1,1567,1793,0,0
350,-769,0,0,0,0,0,0,0,0,0,-1,1574,1793,0,0
357,-769,0,0,0,0,0,0,0,0,0,-1,1581,1793,0,0
364,-769,0,0,0,0,0,0,0,0,0,-1,1588,1793,0,0
371,-769,0,0,0,0,0,0,0,0,0,-1,1595,1793,0,0
378,-769,0,0,0,0,0,0,0,0,0,-1,1602,1793,0,0
385,-769,0,0,0,0,0,0,0,0,0,-1,1609,1793,0,0
392,-769,0,0,0,0,0,0,0,0,0,-1,1616,1793,0,0
399,-769,0,0,0,0,0,0,0,0,0,-1,1623,1793,0,0
406,-769,0,0,0,0,0,0,0,0,0,-1,1630,1793,0,0
413,-769,0,0,0,0,0,0,0,0,0,-1,1637,1793,0,0
420,-769,0,0,0,0,0,0,0,0,0,-1,1644,1793,0,0
427,-769,0,0,0,0,0,0,0,0,0,-1,1651,1793,0,0
434,-769,0,0,0,0,0,0,0,0,0,-1,1658,1793,0,0
441,-769,0,0,0,0,0,0,0,0,0,-1,1665,1793,0,0
448,-769,0,0,0,0,0,0,0,0,0,-1,1672,1793,0,0
455,-769,0,0,0,0,0,0,0,0,0,-1,1679,1793,0,0
462,-769,0,0,0,0,0,0,0,0,0,-1,1686,1793,0,0
469,-769,0,0,0,0,0,0,0,0,0,-1,1693,1793,0,0
476,-769,0,0,0,0,0,0,0,0,0,-1,1700,1793,0,0
483,-769,0,0,0,0,0,0,0,0,0,-1,1707,1793,0,0
490,-769,0,0,0,0,0,0,0,0,0,-1,1714,1793,0,0
497,-769,0,0,0,0,0,0,0,0,0,-1,1721,1793,0,0
504,-769,0,0,0,0,0,0,0,0,0,-1,1728,1793,0,0
511,-769,0,0,0,0,0,0,0,0,0,-1,1735,1793,0,0
518,-769,0,0,0,0,0,0,0,0,0,-1,1742,1793,0,0
525,-769,0,0,0,0,0,0,0,0,0,-1,1749,1793,0,0
532,-769,0,0,0,0,0,0,0,0,0,-1,1756,1793,0,0
539,-769,0,0,0,0,0,0,0,0,0,-1,1763,1793,0,0
546,-769,0,0,0,0,0,0,0,0,0,-1,1770,1793,0,0
553,-769,0,0,0,0,0,0,0,0,0,-1,1777,1793,0,0
560,-769,0,0,0,0,0,0,0,0,0,-1,1784,1793,0,0
567,-769,0,0,0,0,0,0,0,0,0,-1,1791,1793,0,0
574,-769,0,0,0,0,0,0,0,0,0,-1,1798,1793,0,0
581,-769,0,0,0,0,0,0,0,0,0,-1,1805,1793,0,0
588,-769,0,0,0,0,0,0,0,0,0,-1,1812,1793,0,0
595,-769,0,0,0,0,0,0,0,0,0,-1,1819,1793,0,0
602,-769,0,0,0,0,0,0,0,0,0,-1,1826,1793,0,0
609,-769,0,0,0,0,0,0,0,0,0,-1,1833,1793,0,0
616,-769,0,0,0,0,0,0,0,0,0,-1,1840,1793,0,0
623,-769,0,0,0,0,0,0,0,0,0,-1,1847,1793,0,0
630,-769,0,0,0,0,0,0,0,0,0,-1,1854,1793,0,0
637,-769,0,0,0,0,0,0,0,0,0,-1,1861,1793,0,0
644,-769,0,0,0,0,0,0,0,0,0,-1,1868,1793,0,0
651,-769,0,0,0,0,0,0,0,0,0,-1,1875,1793,0,0
658,-769,0,0,0,0,0,0,0,0,0,-1,1882,1793,0,0
665,-769,0,0,0,0,0,0,0,0,0,-1,1889,1793,0,0
672,-769,0,0,0,0,0,0,0,0,0,-1,1896,1793,0,0
679,-769,0,0,0,0,0,0,0,0,0,-1,1903,1793,0,0
686,-769,0,0,0,0,0,0,0,0,0,-1,1910,1793,0,0
693,-769,0,0,0,0,0,0,0,0,0,-1,1917,1793,0,0
700,-769,0,0,0,0,0,0,0,0,0,-1,1924,1793,0,0
707,-769,0,0,0,0,0,0,0,0,0,-1,1931,1793,0,0
714,-769,0,0,0,0,0,0,0,0,0,-1,1938,1793,0,0
721,-769,0,0,0,0,0,0,0,0,0,-1,1945,1793,0,0
728,-769,0,0,0,0,0,0,0,0,0,-1,1952,1793,0,0
735,-769,0,0,0,0,0,0,0,0,0,-1,1959,1793,0,0
742,-769,0,0,0,0,0,0,0,0,0,-1,1966,1793,0,0
749,-769,0,0,0,0,0,0,0,0,0,-1,1973,1793,0,0
756,-769,0,0,0,0,0,0,0,0,0,-1,1980,1793,0,0
763,-769,0,0,0,0,0,0,0,0,0,-1,1987,1793,0,0
770,-769,0,0,0,0,0,0,0,0,0,-1,1994,1793,0,0
777,-769,0,0,0,0,0,0,0,0,0,-1,2001,1793,0,0
784,-769,0,0,0,0,0,0,0,0,0,-1,2008,1793,0,0
791,-769,0,0,0,0,0,0,0,0,0,-1,2015,1793,0,0
798,-769,0,0,0,0,0,0,0,0,0,-1,2022,1793,0,0
805,-769,0,0,0,0,0,0,0,0,0,-1,2029,1793,0,0
812,-769,0,0,0,0,0,0,0,0,0,-1,2036,1793,0,0
-700,-776,0,0,0,0,0,0,0,0,0,-1,524,1800,0,0
-693,-776,0,0,0,0,0,0,0,0,0,-1,531,1800,0,0
-686,-776,0,0,0,0,0,0,0,0,0,-1,538,1800,0,0
-679,-776,0,0,0,0,0,0,0,0,0,-1,545,1800,0,0
-672,-776,0,0,0,0,0,0,0,0,0,-1,552,1800,0,0
-665,-776,0,0,0,0,0,0,0,0,0,-1,559,1800,0,0
-658,-776,0,0,0,0,0,0,0,0,0,-1,566,1800,0,0
-651,-776,0,0,0,0,0,0,0,0,0,-1,573,1800,0,0
-644,-776,0,0,0,0,0,0,0,0,0,-1,580,1800,0,0
-637,-776,0,0,0,0,0,0,0,0,0,-1,587,1800,0,0
-630,-776,0,0,0,0,0,0,0,0,0,-1,594,1800,0,0
-623,-776,0,0,0,0,0,0,0,0,0,-1,601,1800,0,0
-616,-776,0,0,0,0,0,0,0,0,0,-1,608,1800,0,0
-609,-776,0,0,0,0,0,0,0,0,0,-1,615,1800,0,0
-602,-776,0,0,0,0,0,0,0,0,0,-1,622,1800,0,0
-595,-776,0,0,0,0,0,0,0,0,0,-1,629,1800,0,0
-588,-776,0,0,0,0,0,0,0,0,0,-1,636,1800,0,0
-581,-776,0,0,0,0,0,0,0,0,0,-1,643,1800,0,0
-574,-776,0,0,0,0,0,0,0,0,0,-1,650,1800,0,0
-567,-776,0,0,0,0,0,0,0,0,0,-1,657,1800,0,0
-560,-776,0,0,0,0,0,0,0,0,0,-1,664,1800,0,0
-553,-776,0,0,0,0,0,0,0,0,0,-1,671,1800,0,0
-546,-776,0,0,0,0,0,0,0,0,0,-1,678,1800,0,0
-539,-776,0,0,0,0,0,0,0,0,0,-1,685,1800,0,0
-532,-776,0,0,0,0,0,0,0,0,0,-1,692,1800,0,0
-525,-776,0,0,0,0,0,0,0,0,0,-1,699,1800,0,0
-518,-776,0,0,0,0,0,0,0,0,0,-1,706,1800,0,0
-511,-776,0,0,0,0,0,0,0,0,0,-1,713,1800,0,0
-504,-776,0,0,0,0,0,0,0,0,0,-1,720,1800,0,0
-497,-776,0,0,0,0,0,0,0,0,0,-1,727,1800,0,0
-490,-776,0,0,0,0,0,0,0,0,0,-1,734,1800,0,0
-483,-776,0,0,0,0,0,0,0,0,0,-1,741,1800,0,0
-476,-776,0,0,0,0,0,0,0,0,0,-1,748,1800,0,0
-469,-776,0,0,0,0,0,0,0,0,0,-1,755,1800,0,0
-462,-776,0,0,0,0,0,0,0,0,0,-1,762,1800,0,0
-455,-776,0,0,0,0,0,0,0,0,0,-1,769,1800,0,0
-448,-776,0,0,0,0,0,0,0,0,0,-1,776,1800,0,0
-441,-776,0,0,0,0,0,0,0,0,0,-1,783,1800,0,0
-434,-776,0,0,0,0,0,0,0,0,0,-1,790,1800,0,0
-427,-776,0,0,0,0,0,0,0,0,0,-1,797,1800,0,0
-420,-776,0,0,0,0,0,0,0,0,0,-1,804,1800,0,0
-413,-776,0,0,0,0,0,0,0,0,0,-1,811,1800,0,0
-406,-776,0,0,0,0,0,0,0,0,0,-1,818,1800,0,0
-399,-776,0,0,0,0,0,0,0,0,0,-1,825,1800,0,0
-392,-776,0,0,0,0,0,0,0,0,0,-1,832,1800,0,0
-385,-776,0,0,0,0,0,0,0,0,0,-1,839,1800,0,0
-378,-776,0,0,0,0,0,0,0,0,0,-1,846,1800,0,0
-371,-776,0,0,0,0,0,0,0,0,0,-1,853,1800,0,0
-364,-776,0,0,0,0,0,0,0,0,0,-1,860,1800,0,0
-357,-776,0,0,0,0,0,0,0,0,0,-1,867,1800,0,0
-350,-776,0,0,0,0,0,0,0,0,0,-1,874,1800,0,0
-343,-776,0,0,0,0,0,0,0,0,0,-1,881,1800,0,0
-336,-776,0,0,0,0,0,0,0,0,0,-1,888,1800,0,0
-329,-776,0,0,0,0,0,0,0,0,0,-1,895,1800,0,0
-322,-776,0,0,0,0,0,0,0,0,0,-1,902,1800,0,0
-315,-776,0,0,0,0,0,0,0,0,0,-1,909,1800,0,0
-308,-776,0,0,0,0,0,0,0,0,0,-1,916,1800,0,0
-301,-776,0,0,0,0,0,0,0,0,0,-1,923,1800,0,0
-294,-776,0,0,0,0,0,0,0,0,0,-1,930,1800,0,0
-287,-776,0,0,0,0,0,0,0,0,0,-1,937,1800,0,0
-280,-776,0,0,0,0,0,0,0,0,0,-1,944,1800,0,0
-273,-776,0,0,0,0,0,0,0,0,0,-1,951,1800,0,0
-266,-776,0,0,0,0,0,0,0,0,0,-1,958,1800,0,0
-259,-776,0,0,0,0,0,0,0,0,0,-1,965,1800,0,0
-252,-776,0,0,0,0,0,0,0,0,0,-1,972,1800,0,0
-245,-776,0,0,0,0,0,0,0,0,0,-1,979,1800,0,0
-238,-776,0,0,0,0,0,0,0,0,0,-1,986,1800,0,0
-231,-776,0,0,0,0,0,0,0,0,0,-1,993,1800,0,0
-224,-776,0,0,0,0,0,0,0,0,0,-1,1000,1800,0,0
-217,-776,0,0,0,0,0,0,0,0,0,-1,1007,1800,0,0
-210,-776,0,0,0,0,0,0,0,0,0,-1,1014,1800,0,0
-203,-776,0,0,0,0,0,0,0,0,0,-1,1021,1800,0,0
-196,-776,0,0,0,0,0,0,0,0,0,-1,1028,1800,0,0
-189,-776,0,0,0,0,0,0,0,0,0,-1,1035,1800,0,0
-182,-776,0,0,0,0,0,0,0,0,0,-1,1042,1800,0,0
-175,-776,0,0,0,0,0,0,0,0,0,-1,1049,1800,0,0
-168,-776,0,0,0,0,0,0,0,0,0,-1,1056,1800,0,0
-161,-776,0,0,0,0,0,0,0,0,0,-1,1063,1800,0,0
-154,-776,0,0,0,0,0,0,0,0,0,-1,1070,1800,0,0
-147,-776,0,0,0,0,0,0,0,0,0,-1,1077,1800,0,0
-140,-776,2.98499,5.20911,0,0,0,0,0,0,0,-1,1084,1800,2.98493,-5.2091
-133,-776,6.72363,9.35828,0,0,0,0,0,0,0,-1,1091,1800,6.72358,-9.35824
-126,-776,6.55029,13.7832,0,0,0,0,0,0,0,-1,1098,1800,6.55029,-13.7832
-119,-776,5.72107,13.7787,0,0,0,0,0,0,0,-1,1105,1800,5.72106,-13.7787
-112,-776,6.84998,20.4421,0,0,0,0,0,0,0,-1,1112,1800,6.84993,-20.4421
-105,-776,4.46863,24.6742,0,0,0,0,0,0,0,-1,1119,1800,4.46868,-24.6742
-98,-776,4.31616,19.7659,0,0,0,0,0,0,0,-1,1126,1800,4.31619,-19.7659
-91,-776,3.30225,18.134,0,0,0,0,0,0,0,-1,1133,1800,3.30222,-18.134
-84,-776,2.67932,14.3162,0,0,0,0,0,0,0,-1,1140,1800,2.67926,-14.3161
-77,-776,0.580078,11.1272,0,0,0,0,0,0,0,-1,1147,1800,0.58002,-11.1272
-70,-776,-0.562866,12.3163,0,0,0,0,0,0,0,-1,1154,1800,-0.562897,-12.3163
-63,-776,-3.96106,9.97656,0,0,0,0,0,0,0,-1,1161,1800,-3.961,-9.97654
-56,-776,-7.35913,7.63672,0,0,0,0,0,0,0,-1,1168,1800,-7.3591,-7.63676
-49,-776,-7.62952,3.1908,0,0,0,0,0,0,0,-1,1175,1800,-7.62955,-3.19076
-42,-776,-3.41272,3.0249,0,0,0,0,0,0,0,-1,1182,1800,-3.41269,-3.02488
-35,-776,-3.71753,1.63635,0,0,0,0,0,0,0,-1,1189,1800,-3.71755,-1.63631
-28,-776,-4.03979,0.716064,0,0,0,0,0,0,0,-1,1196,1800,-4.03977,-0.716055
-21,-776,11.4921,48.1086,0,0,0,0,0,0,0,-1,1203,1800,11.4921,-48.1087
-14,-776,9.67505,49.5482,0,0,0,0,0,0,0,-1,1210,1800,9.67504,-49.5482
-7,-776,9.57764,49.5892,0,0,0,0,0,0,0,-1,1217,1800,9.57764,-49.5892
0,-776,9.50537,49.728,-0.00391739,0.00243219,0.00372995,0.00415554,-0.00564075,1.13798,0.00567752,0.0471187,1224,1800,9.50532,-49.728
7,-776,9.45886,49.8723,-0.00713767,0.00452953,0.00360026,0.00555105,-0.0081592,1.29433,0.00796322,0.0468774,1231,1800,9.45881,-49.8723
14,-776,9.78088,49.9463,-0.0103001,0.00786521,0.00359444,0.00855059,-0.0109855,1.38238,0.0113083,0.0444698,1238,1800,9.78093,-49.9462
21,-776,9.7616,50.0149,0,0,0,0,0,0,0,-1,1245,1800,9.76158,-50.0149
28,-776,8.88684,50.1312,0,0,0,0,0,0,0,-1,1252,1800,8.88678,-50.1312
35,-776,8.28601,50.3451,0,0,0,0,0,0,0,-1,1259,1800,8.28607,-50.3451
42,-776,9.52295,50.4447,0,0,0,0,0,0,0,-1,1266,1800,9.52296,-50.4447
49,-776,8.92139,50.1296,-0.0061973,0.0140299,0.0115289,0.0192525,-0.0114199,1.14545,0.0179002,0.046504,1273,1800,8.92135,-50.1296
56,-776,8.27295,50.1377,-0.00237675,0.0162791,0.0120877,0.0222195,-0.00831717,1.11402,0.0182292,0.0436998,1280,1800,8.27293,-50.1377
63,-776,8.23584,50.9225,0.00164837,0.0172644,0.0129221,0.0245543,-0.0056415,1.05716,0.0185384,0.0429042,1287,1800,8.23581,-50.9224
70,-776,8.86975,49.3287,0,0,0,0,0,0,0,-1,1294,1800,8.86981,-49.3287
77,-776,8.52124,48.9879,0,0,0,0,0,0,0,-1,1301,1800,8.5213,-48.9879
84,-776,9.97729,48.311,0,0,0,0,0,0,0,-1,1308,1800,9.97733,-48.311
91,-776,8.1687,50.483,0,0,0,0,0,0,0,-1,1315,1800,8.16866,-50.483
98,-776,8.38086,50.4626,0,0,0,0,0,0,0,-1,1322,1800,8.38088,-50.4627
105,-776,9.38269,50.6952,0,0,0,0,0,0,0,-1,1329,1800,9.38267,-50.6952
112,-776,9.27698,50.5674,0.0131465,0.0180741,-0.000215398,0.0180835,0.0131371,-1.52719,0.0107916,0.0456838,1336,1800,9.27693,-50.5674
119,-776,9.05994,50.515,0.00778694,0.0154956,-0.00370071,0.0169846,0.00629795,-1.18826,0.0099146,0.0442295,1343,1800,9.05997,-50.5151
126,-776,8.61194,50.7122,0.00122623,0.0128893,-0.0068943,0.0160876,-0.00197209,-1.13644,0.0114392,0.047959,1350,1800,8.6119,-50.7122
133,-776,8.34534,50.5306,-0.00541386,0.00934349,-0.0103892,0.0147077,-0.010778,-1.09418,0.0147724,0.0499627,1357,1800,8.34534,-50.5307
140,-776,8.09497,50.3405,0,0,0,0,0,0,0,-1,1364,1800,8.09503,-50.3404
147,-776,9.96863,47.0739,0,0,0,0,0,0,0,-1,1371,1800,9.96859,-47.0739
154,-776,38.4338,21.854,0,0,0,0,0,0,0,-1,1378,1800,38.4339,-21.854
161,-776,6.50293,1.1731,0,0,0,0,0,0,0,-1,1385,1800,6.5029,-1.17313
168,-776,8.44971,1.22913,0,0,0,0,0,0,0,-1,1392,1800,8.44974,-1.22915
175,-776,8.61523,2.87061,0,0,0,0,0,0,0,-1,1399,1800,8.6152,-2.87063
182,-776,8.54065,4.60645,0,0,0,0,0,0,0,-1,1406,1800,8.5407,-4.60643
189,-776,8.35303,6.28223,0,0,0,0,0,0,0,-1,1413,1800,8.35297,-6.28225
196,-776,8.0387,8.21704,0,0,0,0,0,0,0,-1,1420,1800,8.03865,-8.217
203,-776,7.91736,9.79919,0,0,0,0,0,0,0,-1,1427,1800,7.91735,-9.79922
210,-776,20.2479,7.85718,0,0,0,0,0,0,0,-1,1434,1800,20.248,-7.85719
217,-776,21.5171,9.3418,0,0,0,0,0,0,0,-1,1441,1800,21.5171,-9.34182
224,-776,3.09253,14.9313,0,0,0,0,0,0,0,-1,1448,1800,3.09254,-14.9313
231,-776,20.8671,9.21057,0,0,0,0,0,0,0,-1,1455,1800,20.867,-9.21054
238,-776,20.7511,9.05847,0,0,0,0,0,0,0,-1,1462,1800,20.7511,-9.05848
245,-776,3.80823,15.4108,0,0,0,0,0,0,0,-1,1469,1800,3.80826,-15.4108
252,-776,8.57837,20.2009,0,0,0,0,0,0,0,-1,1476,1800,8.57841,-20.2009
259,-776,14.1882,7.69055,0,0,0,0,0,0,0,-1,1483,1800,14.1882,-7.69061
266,-776,0,0,0,0,0,0,0,0,0,-1,1490,1800,0,0
273,-776,0,0,0,0,0,0,0,0,0,-1,1497,1800,0,0
280,-776,0,0,0,0,0,0,0,0,0,-1,1504,1800,0,0
287,-776,0,0,0,0,0,0,0,0,0,-1,1511,1800,0,0
294,-776,0,0,0,0,0,0,0,0,0,-1,1518,1800,0,0
301,-776,0,0,0,0,0,0,0,0,0,-1,1525,1800,0,0
308,-776,0,0,0,0,0,0,0,0,0,-1,1532,1800,0,0
315,-776,0,0,0,0,0,0,0,0,0,-1,1539,1800,0,0
322,-776,0,0,0,0,0,0,0,0,0,-1,1546,1800,0,0
329,-776,0,0,0,0,0,0,0,0,0,-1,1553,1800,0,0
336,-776,0,0,0,0,0,0,0,0,0,-1,1560,1800,0,0
343,-776,0,0,0,0,0,0,0,0,0,-1,1567,1800,0,0
350,-776,0,0,0,0,0,0,0,0,0,-1,1574,1800,0,0
357,-776,0,0,0,0,0,0,0,0,0,-1,1581,1800,0,0
364,-776,0,0,0,0,0,0,0,0,0,-1,1588,1800,0,0
371,-776,0,0,0,0,0,0,0,0,0,-1,1595,1800,0,0
378,-776,0,0,0,0,0,0,0,0,0,-1,1602,1800,0,0
385,-776,0,0,0,0,0,0,0,0,0,-1,1609,1800,0,0
392,-776,0,0,0,0,0,0,0,0,0,-1,1616,1800,0,0
399,-776,0,0,0,0,0,0,0,0,0,-1,1623,1800,0,0
406,-776,0,0,0,0,0,0,0,0,0,-1,1630,1800,0,0
413,-776,0,0,0,0,0,0,0,0,0,-1,1637,1800,0,0
420,-776,0,0,0,0,0,0,0,0,0,-1,1644,1800,0,0
427,-776,0,0,0,0,0,0,0,0,0,-1,1651,1800,0,0
434,-776,0,0,0,0,0,0,0,0,0,-1,1658,1800,0,0
441,-776,0,0,0,0,0,0,0,0,0,-1,1665,1800,0,0
448,-776,0,0,0,0,0,0,0,0,0,-1,1672,1800,0,0
455,-776,0,0,0,0,0,0,0,0,0,-1,1679,1800,0,0
462,-776,0,0,0,0,0,0,0,0,0,-1,1686,1800,0,0
469,-776,0,0,0,0,0,0,0,0,0,-1,1693,1800,0,0
476,-776,0,0,0,0,0,0,0,0,0,-1,1700,1800,0,0
483,-776,0,0,0,0,0,0,0,0,0,-1,1707,1800,0,0
490,-776,0,0,0,0,0,0,0,0,0,-1,1714,1800,0,0
497,-776,0,0,0,0,0,0,0,0,0,-1,1721,1800,0,0
504,-776,0,0,0,0,0,0,0,0,0,-1,1728,1800,0,0
511,-776,0,0,0,0,0,0,0,0,0,-1,1735,1800,0,0
518,-776,0,0,0,0,0,0,0,0,0,-1,1742,1800,0,0
525,-776,0,0,0,0,0,0,0,0,0,-1,1749,1800,0,0
532,-776,0,0,0,0,0,0,0,0,0,-1,1756,1800,0,0
539,-776,0,0,0,0,0,0,0,0,0,-1,1763,1800,0,0
546,-776,0,0,0,0,0,0,0,0,0,-1,1770,1800,0,0
553,-776,0,0,0,0,0,0,0,0,0,-1,1777,1800,0,0
560,-776,0,0,0,0,0,0,0,0,0,-1,1784,1800,0,0
567,-776,0,0,0,0,0,0,0,0,0,-1,1791,1800,0,0
574,-776,0,0,0,0,0,0,0,0,0,-1,1798,1800,0,0
581,-776,0,0,0,0,0,0,0,0,0,-1,1805,1800,0,0
588,-776,0,0,0,0,0,0,0,0,0,-1,1812,1800,0,0
595,-776,0,0,0,0,0,0,0,0,0,-1,1819,1800,0,0
602,-776,0,0,0,0,0,0,0,0,0,-1,1826,1800,0,0
609,-776,0,0,0,0,0,0,0,0,0,-1,1833,1800,0,0
616,-776,0,0,0,0,0,0,0,0,0,-1,1840,1800,0,0
623,-776,0,0,0,0,0,0,0,0,0,-1,1847,1800,0,0
630,-776,0,0,0,0,0,0,0,0,0,-1,1854,1800,0,0
637,-776,0,0,0,0,0,0,0,0,0,-1,1861,1800,0,0
644,-776,0,0,0,0,0,0,0,0,0,-1,1868,1800,0,0
651,-776,0,0,0,0,0,0,0,0,0,-1,1875,1800,0,0
658,-776,0,0,0,0,0,0,0,0,0,-1,1882,1800,0,0
665,-776,0,0,0,0,0,0,0,0,0,-1,1889,1800,0,0
672,-776,0,0,0,0,0,0,0,0,0,-1,1896,1800,0,0
679,-776,0,0,0,0,0,0,0,0,0,-1,1903,1800,0,0
686,-776,0,0,0,0,0,0,0,0,0,-1,1910,1800,0,0
693,-776,0,0,0,0,0,0,0,0,0,-1,1917,1800,0,0
700,-776,0,0,0,0,0,0,0,0,0,-1,1924,1800,0,0
707,-776,0,0,0,0,0,0,0,0,0,-1,1931,1800,0,0
714,-776,0,0,0,0,0,0,0,0,0,-1,1938,1800,0,0
721,-776,0,0,0,0,0,0,0,0,0,-1,1945,1800,0,0
728,-776,0,0,0,0,0,0,0,0,0,-1,1952,1800,0,0
735,-776,0,0,0,0,0,0,0,0,0,-1,1959,1800,0,0
742,-776,0,0,0,0,0,0,0,0,0,-1,1966,1800,0,0
749,-776,0,0,0,0,0,0,0,0,0,-1,1973,1800,0,0
756,-776,0,0,0,0,0,0,0,0,0,-1,1980,1800,0,0
763,-776,0,0,0,0,0,0,0,0,0,-1,1987,1800,0,0
770,-776,0,0,0,0,0,0,0,0,0,-1,1994,1800,0,0
777,-776,0,0,0,0,0,0,0,0,0,-1,2001,1800,0,0
784,-776,0,0,0,0,0,0,0,0,0,-1,2008,1800,0,0
791,-776,0,0,0,0,0,0,0,0,0,-1,2015,1800,0,0
798,-776,0,0,0,0,0,0,0,0,0,-1,2022,1800,0,0
805,-776,0,0,0,0,0,0,0,0,0,-1,2029,1800,0,0
812,-776,0,0,0,0,0,0,0,0,0,-1,2036,1800,0,0
-700,-783,0,0,0,0,0,0,0,0,0,-1,524,1807,0,0
-693,-783,0,0,0,0,0,0,0,0,0,-1,531,1807,0,0
-686,-783,0,0,0,0,0,0,0,0,0,-1,538,1807,0,0
-679,-783,0,0,0,0,0,0,0,0,0,-1,545,1807,0,0
-672,-783,0,0,0,0,0,0,0,0,0,-1,552,1807,0,0
-665,-783,0,0,0,0,0,0,0,0,0,-1,559,1807,0,0
-658,-783,0,0,0,0,0,0,0,0,0,-1,566,1807,0,0
-651,-783,0,0,0,0,0,0,0,0,0,-1,573,1807,0,0
-644,-783,0,0,0,0,0,0,0,0,0,-1,580,1807,0,0
-637,-783,0,0,0,0,0,0,0,0,0,-1,587,1807,0,0
-630,-783,0,0,0,0,0,0,0,0,0,-1,594,1807,0,0
-623,-783,0,0,0,0,0,0,0,0,0,-1,601,1807,0,0
-616,-783,0,0,0,0,0,0,0,0,0,-1,608,1807,0,0
-609,-783,0,0,0,0,0,0,0,0,0,-1,615,1807,0,0
-602,-783,0,0,0,0,0,0,0,0,0,-1,622,1807,0,0
-595,-783,0,0,0,0,0,0,0,0,0,-1,629,1807,0,0
-588,-783,0,0,0,0,0,0,0,0,0,-1,636,1807,0,0
-581,-783,0,0,0,0,0,0,0,0,0,-1,643,1807,0,0
-574,-783,0,0,0,0,0,0,0,0,0,-1,650,1807,0,0
-567,-783,0,0,0,0,0,0,0,0,0,-1,657,1807,0,0
-560,-783,0,0,0,0,0,0,0,0,0,-1,664,1807,0,0
-553,-783,0,0,0,0,0,0,0,0,0,-1,671,1807,0,0
-546,-783,0,0,0,0,0,0,0,0,0,-1,678,1807,0,0
-539,-783,0,0,0,0,0,0,0,0,0,-1,685,1807,0,0
-532,-783,0,0,0,0,0,0,0,0,0,-1,692,1807,0,0
-525,-783,0,0,0,0,0,0,0,0,0,-1,699,1807,0,0
-518,-783,0,0,0,0,0,0,0,0,0,-1,706,1807,0,0
-511,-783,0,0,0,0,0,0,0,0,0,-1,713,1807,0,0
-504,-783,0,0,0,0,0,0,0,0,0,-1,720,1807,0,0
-497,-783,0,0,0,0,0,0,0,0,0,-1,727,1807,0,0
-490,-783,0,0,0,0,0,0,0,0,0,-1,734,1807,0,0
-483,-783,0,0,0,0,0,0,0,0,0,-1,741,1807,0,0
-476,-783,0,0,0,0,0,0,0,0,0,-1,748,1807,0,0
-469,-783,0,0,0,0,0,0,0,0,0,-1,755,1807,0,0
-462,-783,0,0,0,0,0,0,0,0,0,-1,762,1807,0,0
-455,-783,0,0,0,0,0,0,0,0,0,-1,769,1807,0,0
-448,-783,0,0,0,0,0,0,0,0,0,-1,776,1807,0,0
-441,-783,0,0,0,0,0,0,0,0,0,-1,783,1807,0,0
-434,-783,0,0,0,0,0,0,0,0,0,-1,790,1807,0,0
-427,-783,0,0,0,0,0,0,0,0,0,-1,797,1807,0,0
-420,-783,0,0,0,0,0,0,0,0,0,-1,804,1807,0,0
-413,-783,0,0,0,0,0,0,0,0,0,-1,811,1807,0,0
-406,-783,0,0,0,0,0,0,0,0,0,-1,818,1807,0,0
-399,-783,0,0,0,0,0,0,0,0,0,-1,825,1807,0,0
-392,-783,0,0,0,0,0,0,0,0,0,-1,832,1807,0,0
-385,-783,0,0,0,0,0,0,0,0,0,-1,839,1807,0,0
-378,-783,0,0,0,0,0,0,0,0,0,-1,846,1807,0,0
-371,-783,0,0,0,0,0,0,0,0,0,-1,853,1807,0,0
-364,-783,0,0,0,0,0,0,0,0,0,-1,860,1807,0,0
-357,-783,0,0,0,0,0,0,0,0,0,-1,867,1807,0,0
-350,-783,0,0,0,0,0,0,0,0,0,-1,874,1807,0,0
-343,-783,0,0,0,0,0,0,0,0,0,-1,881,1807,0,0
-336,-783,0,0,0,0,0,0,0,0,0,-1,888,1807,0,0
-329,-783,0,0,0,0,0,0,0,0,0,-1,895,1807,0,0
-322,-783,0,0,0,0,0,0,0,0,0,-1,902,1807,0,0
-315,-783,0,0,0,0,0,0,0,0,0,-1,909,1807,0,0
-308,-783,0,0,0,0,0,0,0,0,0,-1,916,1807,0,0
-301,-783,0,0,0,0,0,0,0,0,0,-1,923,1807,0,0
-294,-783,0,0,0,0,0,0,0,0,0,-1,930,1807,0,0
-287,-783,0,0,0,0,0,0,0,0,0,-1,937,1807,0,0
-280,-783,0,0,0,0,0,0,0,0,0,-1,944,1807,0,0
-273,-783,0,0,0,0,0,0,0,0,0,-1,951,1807,0,0
-266,-783,0,0,0,0,0,0,0,0,0,-1,958,1807,0,0
-259,-783,0,0,0,0,0,0,0,0,0,-1,965,1807,0,0
-252,-783,0,0,0,0,0,0,0,0,0,-1,972,1807,0,0
-245,-783,0,0,0,0,0,0,0,0,0,-1,979,1807,0,0
-238,-783,0,0,0,0,0,0,0,0,0,-1,986,1807,0,0
-231,-783,0,0,0,0,0,0,0,0,0,-1,993,1807,0,0
-224,-783,0,0,0,0,0,0,0,0,0,-1,1000,1807,0,0
-217,-783,0,0,0,0,0,0,0,0,0,-1,1007,1807,0,0
-210,-783,0,0,0,0,0,0,0,0,0,-1,1014,1807,0,0
-203,-783,0,0,0,0,0,0,0,0,0,-1,1021,1807,0,0
-196,-783,0,0,0,0,0,0,0,0,0,-1,1028,1807,0,0
-189,-783,0,0,0,0,0,0,0,0,0,-1,1035,1807,0,0
-182,-783,0,0,0,0,0,0,0,0,0,-1,1042,1807,0,0
-175,-783,0,0,0,0,0,0,0,0,0,-1,1049,1807,0,0
-168,-783,0,0,0,0,0,0,0,0,0,-1,1056,1807,0,0
-161,-783,0,0,0,0,0,0,0,0,0,-1,1063,1807,0,0
-154,-783,0,0,0,0,0,0,0,0,0,-1,1070,1807,0,0
-147,-783,0,0,0,0,0,0,0,0,0,-1,1077,1807,0,0
-140,-783,0,0,0,0,0,0,0,0,0,-1,1084,1807,0,0
-133,-783,0,0,0,0,0,0,0,0,0,-1,1091,1807,0,0
-126,-783,0,0,0,0,0,0,0,0,0,-1,1098,1807,0,0
-119,-783,0,0,0,0,0,0,0,0,0,-1,1105,1807,0,0
-112,-783,5.33936,14.7699,0,0,0,0,0,0,0,-1,1112,1807,5.33931,-14.7699
-105,-783,6.44263,21.2224,0,0,0,0,0,0,0,-1,1119,1807,6.44263,-21.2224
-98,-783,5.54773,20.5695,0,0,0,0,0,0,0,-1,1126,1807,5.54772,-20.5695
-91,-783,2.6106,20.2491,0,0,0,0,0,0,0,-1,1133,1807,2.61056,-20.2492
-84,-783,-0.0491943,14.5743,0,0,0,0,0,0,0,-1,1140,1807,-0.0491562,-14.5743
-77,-783,0.332764,12.7788,0,0,0,0,0,0,0,-1,1147,1807,0.332743,-12.7788
-70,-783,-1.93176,5.12817,0,0,0,0,0,0,0,-1,1154,1807,-1.93171,-5.12813
-63,-783,-5.31702,10.54,0,0,0,0,0,0,0,-1,1161,1807,-5.31703,-10.54
-56,-783,-6.26135,6.9679,0,0,0,0,0,0,0,-1,1168,1807,-6.26136,-6.96785
-49,-783,-3.17688,4.59705,0,0,0,0,0,0,0,-1,1175,1807,-3.17685,-4.5971
-42,-783,-3.72876,3.1405,0,0,0,0,0,0,0,-1,1182,1807,-3.72874,-3.14055
-35,-783,-3.97046,1.59399,0,0,0,0,0,0,0,-1,1189,1807,-3.97041,-1.59401
-28,-783,-4.12195,0.270386,0,0,0,0,0,0,0,-1,1196,1807,-4.12197,-0.270408
-21,-783,9.5448,49.4561,0,0,0,0,0,0,0,-1,1203,1807,9.54481,-49.456
-14,-783,9.58655,49.6112,0,0,0,0,0,0,0,-1,1210,1807,9.58656,-49.6112
-7,-783,9.56946,49.6891,-0.000252486,-0.000585107,0.00523342,0.00481726,-0.00565486,0.769514,0.00605253,0.0472134,1217,1807,9.56951,-49.6891
0,-783,9.52905,49.7504,-0.00290159,0.00171964,0.0045154,0.00448128,-0.00566323,1.02189,0.00587018,0.0430935,1224,1807,9.52906,-49.7504
7,-783,9.61755,49.6812,-0.00731591,0.00463649,0.00421624,0.00597409,-0.00865351,1.26359,0.00849234,0.0439001,1231,1807,9.61751,-49.6812
14,-783,9.8927,49.5868,0,0,0,0,0,0,0,-1,1238,1807,9.89267,-49.5868
21,-783,7.78357,50.2217,0,0,0,0,0,0,0,-1,1245,1807,7.78352,-50.2216
28,-783,7.76465,50.2306,0,0,0,0,0,0,0,-1,1252,1807,7.76466,-50.2306
35,-783,7.75928,50.2677,0,0,0,0,0,0,0,-1,1259,1807,7.75932,-50.2677
42,-783,9.47351,50.2006,0,0,0,0,0,0,0,-1,1266,1807,9.47356,-50.2006
49,-783,8.92651,49.901,-0.00540175,0.0165641,0.0144928,0.0237654,-0.012603,1.10964,0.0213244,0.0457271,1273,1807,8.92647,-49.901
56,-783,8.50232,49.6595,-0.000907477,0.0191409,0.0152953,0.0274042,-0.00917072,1.07547,0.0219738,0.0463306,1280,1807,8.50236,-49.6596
63,-783,7.74084,49.6901,0.0042782,0.0199485,0.016619,0.0304867,-0.00626006,1.00567,0.0227007,0.0455704,1287,1807,7.74082,-49.6901
70,-783,7.32251,49.0718,0.0108706,0.0210234,0.0172133,0.0338933,-0.00199925,0.92879,0.0232906,0.045389,1294,1807,7.32249,-49.0718
77,-783,7.03088,48.3129,0,0,0,0,0,0,0,-1,1301,1807,7.03092,-48.3129
84,-783,9.01807,48.3544,0.0226477,0.0233808,0.0147758,0.0377946,0.0082339,0.797801,0.0229495,0.0469674,1308,1807,9.01811,-48.3544
91,-783,8.80249,50.3114,0.0254731,0.024039,0.0119914,0.0367688,0.0127433,0.755535,0.0215591,0.0417493,1315,1807,8.80248,-50.3114
98,-783,9.11462,50.2806,0.0262352,0.0243749,0.0085722,0.0339276,0.0166825,0.731355,0.019589,0.0452608,1322,1807,9.11457,-50.2807
105,-783,9.36804,50.311,0.0249825,0.023775,0.00489261,0.0293085,0.0194491,0.724009,0.0172206,0.0486464,1329,1807,9.3681,-50.311
112,-783,9.50708,50.2942,0.0205302,0.0224007,0.00036613,0.0224698,0.0204611,1.38422,0.0143572,0.0466819,1336,1807,9.50713,-50.2942
119,-783,9.30188,50.3131,0.01305,0.0194449,-0.00420386,0.0215292,0.0109658,-1.11052,0.0124306,0.0437259,1343,1807,9.30186,-50.3131
126,-783,9.03198,50.6456,0.00387935,0.0162762,-0.00881023,0.02085,-0.000694443,-1.09195,0.0141371,0.0476455,1350,1807,9.03201,-50.6456
133,-783,8.38306,50.6721,0,0,0,0,0,0,0,-1,1357,1807,8.38305,-50.6721
140,-783,9.24438,48.3726,0,0,0,0,0,0,0,-1,1364,1807,9.24439,-48.3725
147,-783,9.63403,47.1617,0,0,0,0,0,0,0,-1,1371,1807,9.63408,-47.1617
154,-783,38.2109,17.545,0,0,0,0,0,0,0,-1,1378,1807,38.2109,-17.545
161,-783,39.5087,17.5449,0,0,0,0,0,0,0,-1,1385,1807,39.5087,-17.545
168,-783,8.62561,1.79944,0,0,0,0,0,0,0,-1,1392,1807,8.62561,-1.79946
175,-783,8.78699,3.40857,0,0,0,0,0,0,0,-1,1399,1807,8.78697,-3.40854
182,-783,8.70984,5.14661,0,0,0,0,0,0,0,-1,1406,1807,8.70989,-5.14666
189,-783,8.55762,6.79871,0,0,0,0,0,0,0,-1,1413,1807,8.55766,-6.79872
196,-783,8.25488,8.66626,0,0,0,0,0,0,0,-1,1420,1807,8.25492,-8.66628
203,-783,7.86755,10.5735,0,0,0,0,0,0,0,-1,1427,1807,7.8676,-10.5734
210,-783,5.6969,8.99231,0,0,0,0,0,0,0,-1,1434,1807,5.69693,-8.99234
217,-783,5.28503,3.80872,0,0,0,0,0,0,0,-1,1441,1807,5.285,-3.80868
224,-783,3.22571,6.62903,0,0,0,0,0,0,0,-1,1448,1807,3.2257,-6.62907
231,-783,4.27942,4.56262,0,0,0,0,0,0,0,-1,1455,1807,4.27948,-4.56267
238,-783,0,0,0,0,0,0,0,0,0,-1,1462,1807,0,0
245,-783,0,0,0,0,0,0,0,0,0,-1,1469,1807,0,0
252,-783,0,0,0,0,0,0,0,0,0,-1,1476,1807,0,0
259,-783,0,0,0,0,0,0,0,0,0,-1,1483,1807,0,0
266,-783,0,0,0,0,0,0,0,0,0,-1,1490,1807,0,0
273,-783,0,0,0,0,0,0,0,0,0,-1,1497,1807,0,0
280,-783,0,0,0,0,0,0,0,0,0,-1,1504,1807,0,0
287,-783,0,0,0,0,0,0,0,0,0,-1,1511,1807,0,0
294,-783,0,0,0,0,0,0,0,0,0,-1,1518,1807,0,0
301,-783,0,0,0,0,0,0,0,0,0,-1,1525,1807,0,0
308,-783,0,0,0,0,0,0,0,0,0,-1,1532,1807,0,0
315,-783,0,0,0,0,0,0,0,0,0,-1,1539,1807,0,0
322,-783,0,0,0,0,0,0,0,0,0,-1,1546,1807,0,0
329,-783,0,0,0,0,0,0,0,0,0,-1,1553,1807,0,0
336,-783,0,0,0,0,0,0,0,0,0,-1,1560,1807,0,0
343,-783,0,0,0,0,0,0,0,0,0,-1,1567,1807,0,0
350,-783,0,0,0,0,0,0,0,0,0,-1,1574,1807,0,0
357,-783,0,0,0,0,0,0,0,0,0,-1,1581,1807,0,0
364,-783,0,0,0,0,0,0,0,0,0,-1,1588,1807,0,0
371,-783,0,0,0,0,0,0,0,0,0,-1,1595,1807,0,0
378,-783,0,0,0,0,0,0,0,0,0,-1,1602,1807,0,0
385,-783,0,0,0,0,0,0,0,0,0,-1,1609,1807,0,0
392,-783,0,0,0,0,0,0,0,0,0,-1,1616,1807,0,0
399,-783,0,0,0,0,0,0,0,0,0,-1,1623,1807,0,0
406,-783,0,0,0,0,0,0,0,0,0,-1,1630,1807,0,0
413,-783,0,0,0,0,0,0,0,0,0,-1,1637,1807,0,0
420,-783,0,0,0,0,0,0,0,0,0,-1,1644,1807,0,0
427,-783,0,0,0,0,0,0,0,0,0,-1,1651,1807,0,0
434,-783,0,0,0,0,0,0,0,0,0,-1,1658,1807,0,0
441,-783,0,0,0,0,0,0,0,0,0,-1,1665,1807,0,0
448,-783,0,0,0,0,0,0,0,0,0,-1,1672,1807,0,0
455,-783,0,0,0,0,0,0,0,0,0,-1,1679,1807,0,0
462,-783,0,0,0,0,0,0,0,0,0,-1,1686,1807,0,0
469,-783,0,0,0,0,0,0,0,0,0,-1,1693,1807,0,0
476,-783,0,0,0,0,0,0,0,0,0,-1,1700,1807,0,0
483,-783,0,0,0,0,0,0,0,0,0,-1,1707,1807,0,0
490,-783,0,0,0,0,0,0,0,0,0,-1,1714,1807,0,0
497,-783,0,0,0,0,0,0,0,0,0,-1,1721,1807,0,0
504,-783,0,0,0,0,0,0,0,0,0,-1,1728,1807,0,0
511,-783,0,0,0,0,0,0,0,0,0,-1,1735,1807,0,0
518,-783,0,0,0,0,0,0,0,0,0,-1,1742,1807,0,0
525,-783,0,0,0,0,0,0,0,0,0,-1,1749,1807,0,0
532,-783,0,0,0,0,0,0,0,0,0,-1,1756,1807,0,0
539,-783,0,0,0,0,0,0,0,0,0,-1,1763,1807,0,0
546,-783,0,0,0,0,0,0,0,0,0,-1,1770,1807,0,0
553,-783,0,0,0,0,0,0,0,0,0,-1,1777,1807,0,0
560,-783,0,0,0,0,0,0,0,0,0,-1,1784,1807,0,0
567,-783,0,0,0,0,0,0,0,0,0,-1,1791,1807,0,0
574,-783,0,0,0,0,0,0,0,0,0,-1,1798,1807,0,0
581,-783,0,0,0,0,0,0,0,0,0,-1,1805,1807,0,0
588,-783,0,0,0,0,0,0,0,0,0,-1,1812,1807,0,0
595,-783,0,0,0,0,0,0,0,0,0,-1,1819,1807,0,0
602,-783,0,0,0,0,0,0,0,0,0,-1,1826,1807,0,0
609,-783,0,0,0,0,0,0,0,0,0,-1,1833,1807,0,0
616,-783,0,0,0,0,0,0,0,0,0,-1,1840,1807,0,0
623,-783,0,0,0,0,0,0,0,0,0,-1,1847,1807,0,0
630,-783,0,0,0,0,0,0,0,0,0,-1,1854,1807,0,0
637,-783,0,0,0,0,0,0,0,0,0,-1,1861,1807,0,0
644,-783,0,0,0,0,0,0,0,0,0,-1,1868,1807,0,0
651,-783,0,0,0,0,0,0,0,0,0,-1,1875,1807,0,0
658,-783,0,0,0,0,0,0,0,0,0,-1,1882,1807,0,0
665,-783,0,0,0,0,0,0,0,0,0,-1,1889,1807,0,0
672,-783,0,0,0,0,0,0,0,0,0,-1,1896,1807,0,0
679,-783,0,0,0,0,0,0,0,0,0,-1,1903,1807,0,0
686,-783,0,0,0,0,0,0,0,0,0,-1,1910,1807,0,0
693,-783,0,0,0,0,0,0,0,0,0,-1,1917,1807,0,0
700,-783,0,0,0,0,0,0,0,0,0,-1,1924,1807,0,0
707,-783,0,0,0,0,0,0,0,0,0,-1,1931,1807,0,0
714,-783,0,0,0,0,0,0,0,0,0,-1,1938,1807,0,0
721,-783,0,0,0,0,0,0,0,0,0,-1,1945,1807,0,0
728,-783,0,0,0,0,0,0,0,0,0,-1,1952,1807,0,0
735,-783,0,0,0,0,0,0,0,0,0,-1,1959,1807,0,0
742,-783,0,0,0,0,0,0,0,0,0,-1,1966,1807,0,0
749,-783,0,0,0,0,0,0,0,0,0,-1,1973,1807,0,0
756,-783,0,0,0,0,0,0,0,0,0,-1,1980,1807,0,0
763,-783,0,0,0,0,0,0,0,0,0,-1,1987,1807,0,0
770,-783,0,0,0,0,0,0,0,0,0,-1,1994,1807,0,0
777,-783,0,0,0,0,0,0,0,0,0,-1,2001,1807,0,0
784,-783,0,0,0,0,0,0,0,0,0,-1,2008,1807,0,0
791,-783,0,0,0,0,0,0,0,0,0,-1,2015,1807,0,0
798,-783,0,0,0,0,0,0,0,0,0,-1,2022,1807,0,0
805,-783,0,0,0,0,0,0,0,0,0,-1,2029,1807,0,0
812,-783,0,0,0,0,0,0,0,0,0,-1,2036,1807,0,0
-700,-790,0,0,0,0,0,0,0,0,0,-1,524,1814,0,0
-693,-790,0,0,0,0,0,0,0,0,0,-1,531,1814,0,0
-686,-790,0,0,0,0,0,0,0,0,0,-1,538,1814,0,0
-679,-790,0,0,0,0,0,0,0,0,0,-1,545,1814,0,0
-672,-790,0,0,0,0,0,0,0,0,0,-1,552,1814,0,0
-665,-790,0,0,0,0,0,0,0,0,0,-1,559,1814,0,0
-658,-790,0,0,0,0,0,0,0,0,0,-1,566,1814,0,0
-651,-790,0,0,0,0,0,0,0,0,0,-1,573,1814,0,0
-644,-790,0,0,0,0,0,0,0,0,0,-1,580,1814,0,0
-637,-790,0,0,0,0,0,0,0,0,0,-1,587,1814,0,0
-630,-790,0,0,0,0,0,0,0,0,0,-1,594,1814,0,0
-623,-790,0,0,0,0,0,0,0,0,0,-1,601,1814,0,0
-616,-790,0,0,0,0,0,0,0,0,0,-1,608,1814,0,0
-609,-790,0,0,0,0,0,0,0,0,0,-1,615,1814,0,0
-602,-790,0,0,0,0,0,0,0,0,0,-1,622,1814,0,0
-595,-790,0,0,0,0,0,0,0,0,0,-1,629,1814,0,0
-588,-790,0,0,0,0,0,0,0,0,0,-1,636,1814,0,0
-581,-790,0,0,0,0,0,0,0,0,0,-1,643,1814,0,0
-574,-790,0,0,0,0,0,0,0,0,0,-1,650,1814,0,0
-567,-790,0,0,0,0,0,0,0,0,0,-1,657,1814,0,0
-560,-790,0,0,0,0,0,0,0,0,0,-1,664,1814,0,0
-553,-790,0,0,0,0,0,0,0,0,0,-1,671,1814,0,0
-546,-790,0,0,0,0,0,0,0,0,0,-1,678,1814,0,0
-539,-790,0,0,0,0,0,0,0,0,0,-1,685,1814,0,0
-532,-790,0,0,0,0,0,0,0,0,0,-1,692,1814,0,0
-525,-790,0,0,0,0,0,0,0,0,0,-1,699,1814,0,0
-518,-790,0,0,0,0,0,0,0,0,0,-1,706,1814,0,0
-511,-790,0,0,0,0,0,0,0,0,0,-1,713,1814,0,0
-504,-790,0,0,0,0,0,0,0,0,0,-1,720,1814,0,0
-497,-790,0,0,0,0,0,0,0,0,0,-1,727,1814,0,0
-490,-790,0,0,0,0,0,0,0,0,0,-1,734,1814,0,0
-483,-790,0,0,0,0,0,0,0,0,0,-1,741,1814,0,0
-476,-790,0,0,0,0,0,0,0,0,0,-1,748,1814,0,0
-469,-790,0,0,0,0,0,0,0,0,0,-1,755,1814,0,0
-462,-790,0,0,0,0,0,0,0,0,0,-1,762,1814,0,0
-455,-790,0,0,0,0,0,0,0,0,0,-1,769,1814,0,0
-448,-790,0,0,0,0,0,0,0,0,0,-1,776,1814,0,0
-441,-790,0,0,0,0,0,0,0,0,0,-1,783,1814,0,0
-434,-790,0,0,0,0,0,0,0,0,0,-1,790,1814,0,0
-427,-790,0,0,0,0,0,0,0,0,0,-1,797,1814,0,0
-420,-790,0,0,0,0,0,0,0,0,0,-1,804,1814,0,0
-413,-790,0,0,0,0,0,0,0,0,0,-1,811,1814,0,0
-406,-790,0,0,0,0,0,0,0,0,0,-1,818,1814,0,0
-399,-790,0,0,0,0,0,0,0,0,0,-1,825,1814,0,0
-392,-790,0,0,0,0,0,0,0,0,0,-1,832,1814,0,0
-385,-790,0,0,0,0,0,0,0,0,0,-1,839,1814,0,0
-378,-790,0,0,0,0,0,0,0,0,0,-1,846,1814,0,0
-371,-790,0,0,0,0,0,0,0,0,0,-1,853,1814,0,0
-364,-790,0,0,0,0,0,0,0,0,0,-1,860,1814,0,0
-357,-790,0,0,0,0,0,0,0,0,0,-1,867,1814,0,0
-350,-790,0,0,0,0,0,0,0,0,0,-1,874,1814,0,0
-343,-790,0,0,0,0,0,0,0,0,0,-1,881,1814,0,0
-336,-790,0,0,0,0,0,0,0,0,0,-1,888,1814,0,0
-329,-790,0,0,0,0,0,0,0,0,0,-1,895,1814,0,0
-322,-790,0,0,0,0,0,0,0,0,0,-1,902,1814,0,0
-315,-790,0,0,0,0,0,0,0,0,0,-1,909,1814,0,0
-308,-790,0,0,0,0,0,0,0,0,0,-1,916,1814,0,0
-301,-790,0,0,0,0,0,0,0,0,0,-1,923,1814,0,0
-294,-790,0,0,0,0,0,0,0,0,0,-1,930,1814,0,0
-287,-790,0,0,0,0,0,0,0,0,0,-1,937,1814,0,0
-280,-790,0,0,0,0,0,0,0,0,0,-1,944,1814,0,0
-273,-790,0,0,0,0,0,0,0,0,0,-1,951,1814,0,0
-266,-790,0,0,0,0,0,0,0,0,0,-1,958,1814,0,0
-259,-790,0,0,0,0,0,0,0,0,0,-1,965,1814,0,0
-252,-790,0,0,0,0,0,0,0,0,0,-1,972,1814,0,0
-245,-790,0,0,0,0,0,0,0,0,0,-1,979,1814,0,0
-238,-790,0,0,0,0,0,0,0,0,0,-1,986,1814,0,0
-231,-790,0,0,0,0,0,0,0,0,0,-1,993,1814,0,0
-224,-790,0,0,0,0,0,0,0,0,0,-1,1000,1814,0,0
-217,-790,0,0,0,0,0,0,0,0,0,-1,1007,1814,0,0
-210,-790,0,0,0,0,0,0,0,0,0,-1,1014,1814,0,0
-203,-790,0,0,0,0,0,0,0,0,0,-1,1021,1814,0,0
-196,-790,0,0,0,0,0,0,0,0,0,-1,1028,1814,0,0
-189,-790,0,0,0,0,0,0,0,0,0,-1,1035,1814,0,0
-182,-790,0,0,0,0,0,0,0,0,0,-1,1042,1814,0,0
-175,-790,0,0,0,0,0,0,0,0,0,-1,1049,1814,0,0
-168,-790,0,0,0,0,0,0,0,0,0,-1,1056,1814,0,0
-161,-790,0,0,0,0,0,0,0,0,0,-1,1063,1814,0,0
-154,-790,0,0,0,0,0,0,0,0,0,-1,1070,1814,0,0
-147,-790,0,0,0,0,0,0,0,0,0,-1,1077,1814,0,0
-140,-790,0,0,0,0,0,0,0,0,0,-1,1084,1814,0,0
-133,-790,0,0,0,0,0,0,0,0,0,-1,1091,1814,0,0
-126,-790,0,0,0,0,0,0,0,0,0,-1,1098,1814,0,0
-119,-790,0,0,0,0,0,0,0,0,0,-1,1105,1814,0,0
-112,-790,0,0,0,0,0,0,0,0,0,-1,1112,1814,0,0
-105,-790,0,0,0,0,0,0,0,0,0,-1,1119,1814,0,0
-98,-790,0,0,0,0,0,0,0,0,0,-1,1126,1814,0,0
-91,-790,0,0,0,0,0,0,0,0,0,-1,1133,1814,0,0
-84,-790,0,0,0,0,0,0,0,0,0,-1,1140,1814,0,0
-77,-790,-0.969238,5.30847,0,0,0,0,0,0,0,-1,1147,1814,-0.969277,-5.3085
-70,-790,-1.23169,4.98914,0,0,0,0,0,0,0,-1,1154,1814,-1.23163,-4.98916
-63,-790,-1.69128,4.32263,0,0,0,0,0,0,0,-1,1161,1814,-1.69128,-4.32258
-56,-790,-2.24756,3.75305,0,0,0,0,0,0,0,-1,1168,1814,-2.24758,-3.75302
-49,-790,-3.11011,3.35779,0,0,0,0,0,0,0,-1,1175,1814,-3.11006,-3.35781
-42,-790,0.593262,1.19165,0,0,0,0,0,0,0,-1,1182,1814,0.593225,-1.19165
-35,-790,0.307129,-0.20105,0,0,0,0,0,0,0,-1,1189,1814,0.307178,0.201006
-28,-790,-2.78467,0.785156,0,0,0,0,0,0,0,-1,1196,1814,-2.78471,-0.785183
-21,-790,7.92847,49.0938,0,0,0,0,0,0,0,-1,1203,1814,7.92849,-49.0938
-14,-790,9.56897,49.7035,0,0,0,0,0,0,0,-1,1210,1814,9.56892,-49.7035
-7,-790,9.52917,49.7549,0.00181206,-0.0026713,0.00641502,0.00636579,-0.00722503,0.617309,0.00785188,0.0454102,1217,1814,9.52916,-49.7549
0,-790,9.51794,49.9609,-0.00167712,0.000540266,0.00543506,0.00497856,-0.00611541,0.886012,0.00641631,0.0441722,1224,1814,9.51796,-49.9609
7,-790,9.73438,49.7809,0,0,0,0,0,0,0,-1,1231,1814,9.7344,-49.7809
14,-790,5.58838,50.3562,0,0,0,0,0,0,0,-1,1238,1814,5.58843,-50.3562
21,-790,5.36951,50.4169,0,0,0,0,0,0,0,-1,1245,1814,5.36952,-50.4169
28,-790,7.14612,49.887,0,0,0,0,0,0,0,-1,1252,1814,7.14616,-49.8869
35,-790,9.35925,50.0261,0,0,0,0,0,0,0,-1,1259,1814,9.3592,-50.0261
42,-790,9.00964,49.864,-0.0120454,0.0166854,0.0164745,0.024178,-0.019538,1.14396,0.0252868,0.0430594,1266,1814,9.00966,-49.864
49,-790,8.72156,49.6617,-0.00389713,0.0186343,0.017863,0.0284874,-0.0137502,1.06673,0.0248757,0.0461208,1273,1814,8.7216,-49.6617
56,-790,8.4209,49.4379,0.000998083,0.0214309,0.0190557,0.0328361,-0.0104071,1.03147,0.0260619,0.0464906,1280,1814,8.42096,-49.4379
63,-790,8.12073,49.1779,0.00770984,0.021851,0.0211553,0.037086,-0.00752518,0.946673,0.0275768,0.043305,1287,1814,8.1207,-49.1778
70,-790,8.34863,49.17,0.0171048,0.0229447,0.0222534,0.0424689,-0.00241937,0.850632,0.0291525,0.040802,1294,1814,8.34864,-49.17
77,-790,8.33887,48.9486,0.0266241,0.0247652,0.0216023,0.0473169,0.00407235,0.763899,0.0302786,0.0459968,1301,1814,8.33887,-48.9486
84,-790,8.24536,48.7256,0.0337085,0.0263122,0.0196136,0.0499695,0.0100512,0.692217,0.0305194,0.0486003,1308,1814,8.24541,-48.7256
91,-790,8.17944,48.5405,0.0377828,0.0275398,0.0162308,0.049681,0.0156416,0.632571,0.0293316,0.0467278,1315,1814,8.17947,-48.5405
98,-790,9.80469,50.0076,0.0390185,0.0283856,0.011947,0.0467786,0.0206255,0.576053,0.0270704,0.045918,1322,1814,9.80464,-50.0076
105,-790,9.99561,49.9327,0.0370316,0.0282006,0.00699955,0.040892,0.0243402,0.50401,0.0237513,0.0481637,1329,1814,9.99562,-49.9327
112,-790,9.90405,50.0009,0.0305886,0.027074,0.000988624,0.0308476,0.026815,0.256225,0.0193614,0.0470166,1336,1814,9.90406,-50.0009
119,-790,9.56641,50.358,0.0199742,0.0238495,-0.00508038,0.0273492,0.0164745,-0.967581,0.0159,0.044444,1343,1814,9.5664,-50.358
126,-790,9.23694,50.3258,0,0,0,0,0,0,0,-1,1350,1814,9.23694,-50.3258
133,-790,8.62183,49.6113,0,0,0,0,0,0,0,-1,1357,1814,8.62186,-49.6114
140,-790,9.09778,48.4047,0,0,0,0,0,0,0,-1,1364,1814,9.09782,-48.4047
147,-790,9.52661,47.1781,0,0,0,0,0,0,0,-1,1371,1814,9.52659,-47.1781
154,-790,40.215,13.2396,0,0,0,0,0,0,0,-1,1378,1814,40.2149,-13.2396
161,-790,39.3429,13.0336,0,0,0,0,0,0,0,-1,1385,1814,39.3429,-13.0336
168,-790,7.04077,2.23279,0,0,0,0,0,0,0,-1,1392,1814,7.04082,-2.23275
175,-790,9.03918,3.98535,0,0,0,0,0,0,0,-1,1399,1814,9.0392,-3.98535
182,-790,8.96997,5.67896,0,0,0,0,0,0,0,-1,1406,1814,8.97001,-5.6789
189,-790,8.59729,6.86975,0,0,0,0,0,0,0,-1,1413,1814,8.59728,-6.86972
196,-790,8.21924,9.29053,0,0,0,0,0,0,0,-1,1420,1814,8.21924,-9.29048
203,-790,0,0,0,0,0,0,0,0,0,-1,1427,1814,0,0
210,-790,0,0,0,0,0,0,0,0,0,-1,1434,1814,0,0
217,-790,0,0,0,0,0,0,0,0,0,-1,1441,1814,0,0
224,-790,0,0,0,0,0,0,0,0,0,-1,1448,1814,0,0
231,-790,0,0,0,0,0,0,0,0,0,-1,1455,1814,0,0
238,-790,0,0,0,0,0,0,0,0,0,-1,1462,1814,0,0
245,-790,0,0,0,0,0,0,0,0,0,-1,1469,1814,0,0
252,-790,0,0,0,0,0,0,0,0,0,-1,1476,1814,0,0
259,-790,0,0,0,0,0,0,0,0,0,-1,1483,1814,0,0
266,-790,0,0,0,0,0,0,0,0,0,-1,1490,1814,0,0
273,-790,0,0,0,0,0,0,0,0,0,-1,1497,1814,0,0
280,-790,0,0,0,0,0,0,0,0,0,-1,1504,1814,0,0
287,-790,0,0,0,0,0,0,0,0,0,-1,1511,1814,0,0
294,-790,0,0,0,0,0,0,0,0,0,-1,1518,1814,0,0
301,-790,0,0,0,0,0,0,0,0,0,-1,1525,1814,0,0
308,-790,0,0,0,0,0,0,0,0,0,-1,1532,1814,0,0
315,-790,0,0,0,0,0,0,0,0,0,-1,1539,1814,0,0
322,-790,0,0,0,0,0,0,0,0,0,-1,1546,1814,0,0
329,-790,0,0,0,0,0,0,0,0,0,-1,1553,1814,0,0
336,-790,0,0,0,0,0,0,0,0,0,-1,1560,1814,0,0
343,-790,0,0,0,0,0,0,0,0,0,-1,1567,1814,0,0
350,-790,0,0,0,0,0,0,0,0,0,-1,1574,1814,0,0
357,-790,0,0,0,0,0,0,0,0,0,-1,1581,1814,0,0
364,-790,0,0,0,0,0,0,0,0,0,-1,1588,1814,0,0
371,-790,0,0,0,0,0,0,0,0,0,-1,1595,1814,0,0
378,-790,0,0,0,0,0,0,0,0,0,-1,1602,1814,0,0
385,-790,0,0,0,0,0,0,0,0,0,-1,1609,1814,0,0
392,-790,0,0,0,0,0,0,0,0,0,-1,1616,1814,0,0
399,-790,0,0,0,0,0,0,0,0,0,-1,1623,1814,0,0
406,-790,0,0,0,0,0,0,0,0,0,-1,1630,1814,0,0
413,-790,0,0,0,0,0,0,0,0,0,-1,1637,1814,0,0
420,-790,0,0,0,0,0,0,0,0,0,-1,1644,1814,0,0
427,-790,0,0,0,0,0,0,0,0,0,-1,1651,1814,0,0
434,-790,0,0,0,0,0,0,0,0,0,-1,1658,1814,0,0
441,-790,0,0,0,0,0,0,0,0,0,-1,1665,1814,0,0
448,-790,0,0,0,0,0,0,0,0,0,-1,1672,1814,0,0
455,-790,0,0,0,0,0,0,0,0,0,-1,1679,1814,0,0
462,-790,0,0,0,0,0,0,0,0,0,-1,1686,1814,0,0
469,-790,0,0,0,0,0,0,0,0,0,-1,1693,1814,0,0
476,-790,0,0,0,0,0,0,0,0,0,-1,1700,1814,0,0
483,-790,0,0,0,0,0,0,0,0,0,-1,1707,1814,0,0
490,-790,0,0,0,0,0,0,0,0,0,-1,1714,1814,0,0
497,-790,0,0,0,0,0,0,0,0,0,-1,1721,1814,0,0
504,-790,0,0,0,0,0,0,0,0,0,-1,1728,1814,0,0
511,-790,0,0,0,0,0,0,0,0,0,-1,1735,1814,0,0
518,-790,0,0,0,0,0,0,0,0,0,-1,1742,1814,0,0
525,-790,0,0,0,0,0,0,0,0,0,-1,1749,1814,0,0
532,-790,0,0,0,0,0,0,0,0,0,-1,1756,1814,0,0
539,-790,0,0,0,0,0,0,0,0,0,-1,1763,1814,0,0
546,-790,0,0,0,0,0,0,0,0,0,-1,1770,1814,0,0
553,-790,0,0,0,0,0,0,0,0,0,-1,1777,1814,0,0
560,-790,0,0,0,0,0,0,0,0,0,-1,1784,1814,0,0
567,-790,0,0,0,0,0,0,0,0,0,-1,1791,1814,0,0
574,-790,0,0,0,0,0,0,0,0,0,-1,1798,1814,0,0
581,-790,0,0,0,0,0,0,0,0,0,-1,1805,1814,0,0
588,-790,0,0,0,0,0,0,0,0,0,-1,1812,1814,0,0
595,-790,0,0,0,0,0,0,0,0,0,-1,1819,1814,0,0
602,-790,0,0,0,0,0,0,0,0,0,-1,1826,1814,0,0
609,-790,0,0,0,0,0,0,0,0,0,-1,1833,1814,0,0
616,-790,0,0,0,0,0,0,0,0,0,-1,1840,1814,0,0
623,-790,0,0,0,0,0,0,0,0,0,-1,1847,1814,0,0
630,-790,0,0,0,0,0,0,0,0,0,-1,1854,1814,0,0
637,-790,0,0,0,0,0,0,0,0,0,-1,1861,1814,0,0
644,-790,0,0,0,0,0,0,0,0,0,-1,1868,1814,0,0
651,-790,0,0,0,0,0,0,0,0,0,-1,1875,1814,0,0
658,-790,0,0,0,0,0,0,0,0,0,-1,1882,1814,0,0
665,-790,0,0,0,0,0,0,0,0,0,-1,1889,1814,0,0
672,-790,0,0,0,0,0,0,0,0,0,-1,1896,1814,0,0
679,-790,0,0,0,0,0,0,0,0,0,-1,1903,1814,0,0
686,-790,0,0,0,0,0,0,0,0,0,-1,1910,1814,0,0
693,-790,0,0,0,0,0,0,0,0,0,-1,1917,1814,0,0
700,-790,0,0,0,0,0,0,0,0,0,-1,1924,1814,0,0
707,-790,0,0,0,0,0,0,0,0,0,-1,1931,1814,0,0
714,-790,0,0,0,0,0,0,0,0,0,-1,1938,1814,0,0
721,-790,0,0,0,0,0,0,0,0,0,-1,1945,1814,0,0
728,-790,0,0,0,0,0,0,0,0,0,-1,1952,1814,0,0
735,-790,0,0,0,0,0,0,0,0,0,-1,1959,1814,0,0
742,-790,0,0,0,0,0,0,0,0,0,-1,1966,1814,0,0
749,-790,0,0,0,0,0,0,0,0,0,-1,1973,1814,0,0
756,-790,0,0,0,0,0,0,0,0,0,-1,1980,1814,0,0
763,-790,0,0,0,0,0,0,0,0,0,-1,1987,1814,0,0
770,-790,0,0,0,0,0,0,0,0,0,-1,1994,1814,0,0
777,-790,0,0,0,0,0,0,0,0,0,-1,2001,1814,0,0
784,-790,0,0,0,0,0,0,0,0,0,-1,2008,1814,0,0
791,-790,0,0,0,0,0,0,0,0,0,-1,2015,1814,0,0
798,-790,0,0,0,0,0,0,0,0,0,-1,2022,1814,0,0
805,-790,0,0,0,0,0,0,0,0,0,-1,2029,1814,0,0
812,-790,0,0,0,0,0,0,0,0,0,-1,2036,1814,0,0
-700,-797,0,0,0,0,0,0,0,0,0,-1,524,1821,0,0
-693,-797,0,0,0,0,0,0,0,0,0,-1,531,1821,0,0
-686,-797,0,0,0,0,0,0,0,0,0,-1,538,1821,0,0
-679,-797,0,0,0,0,0,0,0,0,0,-1,545,1821,0,0
-672,-797,0,0,0,0,0,0,0,0,0,-1,552,1821,0,0
-665,-797,0,0,0,0,0,0,0,0,0,-1,559,1821,0,0
-658,-797,0,0,0,0,0,0,0,0,0,-1,566,1821,0,0
-651,-797,0,0,0,0,0,0,0,0,0,-1,573,1821,0,0
-644,-797,0,0,0,0,0,0,0,0,0,-1,580,1821,0,0
-637,-797,0,0,0,0,0,0,0,0,0,-1,587,1821,0,0
-630,-797,0,0,0,0,0,0,0,0,0,-1,594,1821,0,0
-623,-797,0,0,0,0,0,0,0,0,0,-1,601,1821,0,0
-616,-797,0,0,0,0,0,0,0,0,0,-1,608,1821,0,0
-609,-797,0,0,0,0,0,0,0,0,0,-1,615,1821,0,0
-602,-797,0,0,0,0,0,0,0,0,0,-1,622,1821,0,0
-595,-797,0,0,0,0,0,0,0,0,0,-1,629,1821,0,0
-588,-797,0,0,0,0,0,0,0,0,0,-1,636,1821,0,0
-581,-797,0,0,0,0,0,0,0,0,0,-1,643,1821,0,0
-574,-797,0,0,0,0,0,0,0,0,0,-1,650,1821,0,0
-567,-797,0,0,0,0,0,0,0,0,0,-1,657,1821,0,0
-560,-797,0,0,0,0,0,0,0,0,0,-1,664,1821,0,0
-553,-797,0,0,0,0,0,0,0,0,0,-1,671,1821,0,0
-546,-797,0,0,0,0,0,0,0,0,0,-1,678,1821,0,0
-539,-797,0,0,0,0,0,0,0,0,0,-1,685,1821,0,0
-532,-797,0,0,0,0,0,0,0,0,0,-1,692,1821,0,0
-525,-797,0,0,0,0,0,0,0,0,0,-1,699,1821,0,0
-518,-797,0,0,0,0,0,0,0,0,0,-1,706,1821,0,0
-511,-797,0,0,0,0,0,0,0,0,0,-1,713,1821,0,0
-504,-797,0,0,0,0,0,0,0,0,0,-1,720,1821,0,0
-497,-797,0,0,0,0,0,0,0,0,0,-1,727,1821,0,0
-490,-797,0,0,0,0,0,0,0,0,0,-1,734,1821,0,0
-483,-797,0,0,0,0,0,0,0,0,0,-1,741,1821,0,0
-476,-797,0,0,0,0,0,0,0,0,0,-1,748,1821,0,0
-469,-797,0,0,0,0,0,0,0,0,0,-1,755,1821,0,0
-462,-797,0,0,0,0,0,0,0,0,0,-1,762,1821,0,0
-455,-797,0,0,0,0,0,0,0,0,0,-1,769,1821,0,0
-448,-797,0,0,0,0,0,0,0,0,0,-1,776,1821,0,0
-441,-797,0,0,0,0,0,0,0,0,0,-1,783,1821,0,0
-434,-797,0,0,0,0,0,0,0,0,0,-1,790,1821,0,0
-427,-797,0,0,0,0,0,0,0,0,0,-1,797,1821,0,0
-420,-797,0,0,0,0,0,0,0,0,0,-1,804,1821,0,0
-413,-797,0,0,0,0,0,0,0,0,0,-1,811,1821,0,0
-406,-797,0,0,0,0,0,0,0,0,0,-1,818,1821,0,0
-399,-797,0,0,0,0,0,0,0,0,0,-1,825,1821,0,0
-392,-797,0,0,0,0,0,0,0,0,0,-1,832,1821,0,0
-385,-797,0,0,0,0,0,0,0,0,0,-1,839,1821,0,0
-378,-797,0,0,0,0,0,0,0,0,0,-1,846,1821,0,0
-371,-797,0,0,0,0,0,0,0,0,0,-1,853,1821,0,0
-364,-797,0,0,0,0,0,0,0,0,0,-1,860,1821,0,0
-357,-797,0,0,0,0,0,0,0,0,0,-1,867,1821,0,0
-350,-797,0,0,0,0,0,0,0,0,0,-1,874,1821,0,0
-343,-797,0,0,0,0,0,0,0,0,0,-1,881,1821,0,0
-336,-797,0,0,0,0,0,0,0,0,0,-1,888,1821,0,0
-329,-797,0,0,0,0,0,0,0,0,0,-1,895,1821,0,0
-322,-797,0,0,0,0,0,0,0,0,0,-1,902,1821,0,0
-315,-797,0,0,0,0,0,0,0,0,0,-1,909,1821,0,0
-308,-797,0,0,0,0,0,0,0,0,0,-1,916,1821,0,0
-301,-797,0,0,0,0,0,0,0,0,0,-1,923,1821,0,0
-294,-797,0,0,0,0,0,0,0,0,0,-1,930,1821,0,0
-287,-797,0,0,0,0,0,0,0,0,0,-1,937,1821,0,0
-280,-797,0,0,0,0,0,0,0,0,0,-1,944,1821,0,0
-273,-797,0,0,0,0,0,0,0,0,0,-1,951,1821,0,0
-266,-797,0,0,0,0,0,0,0,0,0,-1,958,1821,0,0
-259,-797,0,0,0,0,0,0,0,0,0,-1,965,1821,0,0
-252,-797,0,0,0,0,0,0,0,0,0,-1,972,1821,0,0
-245,-797,0,0,0,0,0,0,0,0,0,-1,979,1821,0,0
-238,-797,0,0,0,0,0,0,0,0,0,-1,986,1821,0,0
-231,-797,0,0,0,0,0,0,0,0,0,-1,993,1821,0,0
-224,-797,0,0,0,0,0,0,0,0,0,-1,1000,1821,0,0
-217,-797,0,0,0,0,0,0,0,0,0,-1,1007,1821,0,0
-210,-797,0,0,0,0,0,0,0,0,0,-1,1014,1821,0,0
-203,-797,0,0,0,0,0,0,0,0,0,-1,1021,1821,0,0
-196,-797,0,0,0,0,0,0,0,0,0,-1,1028,1821,0,0
-189,-797,0,0,0,0,0,0,0,0,0,-1,1035,1821,0,0
-182,-797,0,0,0,0,0,0,0,0,0,-1,1042,1821,0,0
-175,-797,0,0,0,0,0,0,0,0,0,-1,1049,1821,0,0
-168,-797,0,0,0,0,0,0,0,0,0,-1,1056,1821,0,0
-161,-797,0,0,0,0,0,0,0,0,0,-1,1063,1821,0,0
-154,-797,0,0,0,0,0,0,0,0,0,-1,1070,1821,0,0
-147,-797,0,0,0,0,0,0,0,0,0,-1,1077,1821,0,0
-140,-797,0,0,0,0,0,0,0,0,0,-1,1084,1821,0,0
-133,-797,0,0,0,0,0,0,0,0,0,-1,1091,1821,0,0
-126,-797,0,0,0,0,0,0,0,0,0,-1,1098,1821,0,0
-119,-797,0,0,0,0,0,0,0,0,0,-1,1105,1821,0,0
-112,-797,0,0,0,0,0,0,0,0,0,-1,1112,1821,0,0
-105,-797,0,0,0,0,0,0,0,0,0,-1,1119,1821,0,0
-98,-797,0,0,0,0,0,0,0,0,0,-1,1126,1821,0,0
-91,-797,0,0,0,0,0,0,0,0,0,-1,1133,1821,0,0
-84,-797,0,0,0,0,0,0,0,0,0,-1,1140,1821,0,0
-77,-797,0,0,0,0,0,0,0,0,0,-1,1147,1821,0,0
-70,-797,0,0,0,0,0,0,0,0,0,-1,1154,1821,0,0
-63,-797,0,0,0,0,0,0,0,0,0,-1,1161,1821,0,0
-56,-797,0,0,0,0,0,0,0,0,0,-1,1168,1821,0,0
-49,-797,0,0,0,0,0,0,0,0,0,-1,1175,1821,0,0
-42,-797,0.579834,0.692871,0,0,0,0,0,0,0,-1,1182,1821,0.579856,-0.692816
-35,-797,-0.185425,5.55396,0,0,0,0,0,0,0,-1,1189,1821,-0.18542,-5.55396
-28,-797,-0.310181,4.71509,0,0,0,0,0,0,0,-1,1196,1821,-0.310228,-4.71503
-21,-797,6.92566,49.1686,0,0,0,0,0,0,0,-1,1203,1821,6.92565,-49.1686
-14,-797,6.80005,49.2917,0,0,0,0,0,0,0,-1,1210,1821,6.80009,-49.2917
-7,-797,9.55627,49.7543,0,0,0,0,0,0,0,-1,1217,1821,9.55627,-49.7543
0,-797,9.61206,50.2052,0,0,0,0,0,0,0,-1,1224,1821,9.61205,-50.2052
7,-797,4.30676,50.1638,0,0,0,0,0,0,0,-1,1231,1821,4.30671,-50.1639
14,-797,4.72046,50.7594,0,0,0,0,0,0,0,-1,1238,1821,4.72049,-50.7595
21,-797,4.49719,50.5659,0,0,0,0,0,0,0,-1,1245,1821,4.49724,-50.566
28,-797,4.00684,50.1458,0,0,0,0,0,0,0,-1,1252,1821,4.00688,-50.1458
35,-797,8.82178,49.7417,0,0,0,0,0,0,0,-1,1259,1821,8.82182,-49.7417
42,-797,8.61365,49.7631,0,0,0,0,0,0,0,-1,1266,1821,8.6137,-49.7631
49,-797,8.19116,49.5625,0,0,0,0,0,0,0,-1,1273,1821,8.19117,-49.5625
56,-797,7.77576,49.5656,0,0,0,0,0,0,0,-1,1280,1821,7.77575,-49.5655
63,-797,7.43079,49.4344,0,0,0,0,0,0,0,-1,1287,1821,7.43073,-49.4344
70,-797,7.32739,49.5862,0.0258874,0.023277,0.0288212,0.0534329,-0.00426852,0.762771,0.0371267,0.0427922,1294,1821,7.32738,-49.5862
77,-797,7.4043,49.4484,0.039418,0.025626,0.0283642,0.0617124,0.00333155,0.666151,0.0400773,0.046077,1301,1821,7.40435,-49.4484
84,-797,7.32483,49.2264,0,0,0,0,0,0,0,-1,1308,1821,7.32479,-49.2264
91,-797,7.38293,49.1304,0.0554326,0.0302345,0.0219315,0.0681263,0.0175408,0.524679,0.040846,0.0456798,1315,1821,7.38294,-49.1304
98,-797,10.4928,49.7109,0.0573531,0.0319006,0.0165345,0.0654918,0.0237619,0.45741,0.0382831,0.0449623,1322,1821,10.4927,-49.7109
105,-797,10.9115,49.3862,0.0542663,0.0325179,0.00975532,0.0580008,0.0287834,0.365608,0.0334871,0.0470511,1329,1821,10.9115,-49.3863
112,-797,10.3529,49.8782,0.044851,0.0320156,0.00161047,0.04505,0.0318166,0.122933,0.0267371,0.0446505,1336,1821,10.3529,-49.8781
119,-797,9.8374,50.46,0,0,0,0,0,0,0,-1,1343,1821,9.83737,-50.4599
126,-797,8.85168,50.522,0,0,0,0,0,0,0,-1,1350,1821,8.85168,-50.5219
133,-797,8.78015,49.7061,0,0,0,0,0,0,0,-1,1357,1821,8.78016,-49.706
140,-797,8.93152,48.4375,0,0,0,0,0,0,0,-1,1364,1821,8.93147,-48.4375
147,-797,9.36804,47.281,0,0,0,0,0,0,0,-1,1371,1821,9.36803,-47.281
154,-797,40.2623,8.88733,0,0,0,0,0,0,0,-1,1378,1821,40.2623,-8.88731
161,-797,42.2798,8.17371,0,0,0,0,0,0,0,-1,1385,1821,42.2798,-8.17367
168,-797,0,0,0,0,0,0,0,0,0,-1,1392,1821,0,0
175,-797,0,0,0,0,0,0,0,0,0,-1,1399,1821,0,0
182,-797,0,0,0,0,0,0,0,0,0,-1,1406,1821,0,0
189,-797,0,0,0,0,0,0,0,0,0,-1,1413,1821,0,0
196,-797,0,0,0,0,0,0,0,0,0,-1,1420,1821,0,0
203,-797,0,0,0,0,0,0,0,0,0,-1,1427,1821,0,0
210,-797,0,0,0,0,0,0,0,0,0,-1,1434,1821,0,0
217,-797,0,0,0,0,0,0,0,0,0,-1,1441,1821,0,0
224,-797,0,0,0,0,0,0,0,0,0,-1,1448,1821,0,0
231,-797,0,0,0,0,0,0,0,0,0,-1,1455,1821,0,0
238,-797,0,0,0,0,0,0,0,0,0,-1,1462,1821,0,0
245,-797,0,0,0,0,0,0,0,0,0,-1,1469,1821,0,0
252,-797,0,0,0,0,0,0,0,0,0,-1,1476,1821,0,0
259,-797,0,0,0,0,0,0,0,0,0,-1,1483,1821,0,0
266,-797,0,0,0,0,0,0,0,0,0,-1,1490,1821,0,0
273,-797,0,0,0,0,0,0,0,0,0,-1,1497,1821,0,0
280,-797,0,0,0,0,0,0,0,0,0,-1,1504,1821,0,0
287,-797,0,0,0,0,0,0,0,0,0,-1,1511,1821,0,0
294,-797,0,0,0,0,0,0,0,0,0,-1,1518,1821,0,0
301,-797,0,0,0,0,0,0,0,0,0,-1,1525,1821,0,0
308,-797,0,0,0,0,0,0,0,0,0,-1,1532,1821,0,0
315,-797,0,0,0,0,0,0,0,0,0,-1,1539,1821,0,0
322,-797,0,0,0,0,0,0,0,0,0,-1,1546,1821,0,0
329,-797,0,0,0,0,0,0,0,0,0,-1,1553,1821,0,0
336,-797,0,0,0,0,0,0,0,0,0,-1,1560,1821,0,0
343,-797,0,0,0,0,0,0,0,0,0,-1,1567,1821,0,0
350,-797,0,0,0,0,0,0,0,0,0,-1,1574,1821,0,0
357,-797,0,0,0,0,0,0,0,0,0,-1,1581,1821,0,0
364,-797,0,0,0,0,0,0,0,0,0,-1,1588,1821,0,0
371,-797,0,0,0,0,0,0,0,0,0,-1,1595,1821,0,0
378,-797,0,0,0,0,0,0,0,0,0,-1,1602,1821,0,0
385,-797,0,0,0,0,0,0,0,0,0,-1,1609,1821,0,0
392,-797,0,0,0,0,0,0,0,0,0,-1,1616,1821,0,0
399,-797,0,0,0,0,0,0,0,0,0,-1,1623,1821,0,0
406,-797,0,0,0,0,0,0,0,0,0,-1,1630,1821,0,0
413,-797,0,0,0,0,0,0,0,0,0,-1,1637,1821,0,0
420,-797,0,0,0,0,0,0,0,0,0,-1,1644,1821,0,0
427,-797,0,0,0,0,0,0,0,0,0,-1,1651,1821,0,0
434,-797,0,0,0,0,0,0,0,0,0,-1,1658,1821,0,0
441,-797,0,0,0,0,0,0,0,0,0,-1,1665,1821,0,0
448,-797,0,0,0,0,0,0,0,0,0,-1,1672,1821,0,0
455,-797,0,0,0,0,0,0,0,0,0,-1,1679,1821,0,0
462,-797,0,0,0,0,0,0,0,0,0,-1,1686,1821,0,0
469,-797,0,0,0,0,0,0,0,0,0,-1,1693,1821,0,0
476,-797,0,0,0,0,0,0,0,0,0,-1,1700,1821,0,0
483,-797,0,0,0,0,0,0,0,0,0,-1,1707,1821,0,0
490,-797,0,0,0,0,0,0,0,0,0,-1,1714,1821,0,0
497,-797,0,0,0,0,0,0,0,0,0,-1,1721,1821,0,0
504,-797,0,0,0,0,0,0,0,0,0,-1,1728,1821,0,0
511,-797,0,0,0,0,0,0,0,0,0,-1,1735,1821,0,0
518,-797,0,0,0,0,0,0,0,0,0,-1,1742,1821,0,0
525,-797,0,0,0,0,0,0,0,0,0,-1,1749,1821,0,0
532,-797,0,0,0,0,0,0,0,0,0,-1,1756,1821,0,0
539,-797,0,0,0,0,0,0,0,0,0,-1,1763,1821,0,0
546,-797,0,0,0,0,0,0,0,0,0,-1,1770,1821,0,0
553,-797,0,0,0,0,0,0,0,0,0,-1,1777,1821,0,0
560,-797,0,0,0,0,0,0,0,0,0,-1,1784,1821,0,0
567,-797,0,0,0,0,0,0,0,0,0,-1,1791,1821,0,0
574,-797,0,0,0,0,0,0,0,0,0,-1,1798,1821,0,0
581,-797,0,0,0,0,0,0,0,0,0,-1,1805,1821,0,0
588,-797,0,0,0,0,0,0,0,0,0,-1,1812,1821,0,0
595,-797,0,0,0,0,0,0,0,0,0,-1,1819,1821,0,0
602,-797,0,0,0,0,0,0,0,0,0,-1,1826,1821,0,0
609,-797,0,0,0,0,0,0,0,0,0,-1,1833,1821,0,0
616,-797,0,0,0,0,0,0,0,0,0,-1,1840,1821,0,0
623,-797,0,0,0,0,0,0,0,0,0,-1,1847,1821,0,0
630,-797,0,0,0,0,0,0,0,0,0,-1,1854,1821,0,0
637,-797,0,0,0,0,0,0,0,0,0,-1,1861,1821,0,0
644,-797,0,0,0,0,0,0,0,0,0,-1,1868,1821,0,0
651,-797,0,0,0,0,0,0,0,0,0,-1,1875,1821,0,0
658,-797,0,0,0,0,0,0,0,0,0,-1,1882,1821,0,0
665,-797,0,0,0,0,0,0,0,0,0,-1,1889,1821,0,0
672,-797,0,0,0,0,0,0,0,0,0,-1,1896,1821,0,0
679,-797,0,0,0,0,0,0,0,0,0,-1,1903,1821,0,0
686,-797,0,0,0,0,0,0,0,0,0,-1,1910,1821,0,0
693,-797,0,0,0,0,0,0,0,0,0,-1,1917,1821,0,0
700,-797,0,0,0,0,0,0,0,0,0,-1,1924,1821,0,0
707,-797,0,0,0,0,0,0,0,0,0,-1,1931,1821,0,0
714,-797,0,0,0,0,0,0,0,0,0,-1,1938,1821,0,0
721,-797,0,0,0,0,0,0,0,0,0,-1,1945,1821,0,0
728,-797,0,0,0,0,0,0,0,0,0,-1,1952,1821,0,0
735,-797,0,0,0,0,0,0,0,0,0,-1,1959,1821,0,0
742,-797,0,0,0,0,0,0,0,0,0,-1,1966,1821,0,0
749,-797,0,0,0,0,0,0,0,0,0,-1,1973,1821,0,0
756,-797,0,0,0,0,0,0,0,0,0,-1,1980,1821,0,0
763,-797,0,0,0,0,0,0,0,0,0,-1,1987,1821,0,0
770,-797,0,0,0,0,0,0,0,0,0,-1,1994,1821,0,0
777,-797,0,0,0,0,0,0,0,0,0,-1,2001,1821,0,0
784,-797,0,0,0,0,0,0,0,0,0,-1,2008,1821,0,0
791,-797,0,0,0,0,0,0,0,0,0,-1,2015,1821,0,0
798,-797,0,0,0,0,0,0,0,0,0,-1,2022,1821,0,0
805,-797,0,0,0,0,0,0,0,0,0,-1,2029,1821,0,0
812,-797,0,0,0,0,0,0,0,0,0,-1,2036,1821,0,0
-700,-804,0,0,0,0,0,0,0,0,0,-1,524,1828,0,0
-693,-804,0,0,0,0,0,0,0,0,0,-1,531,1828,0,0
-686,-804,0,0,0,0,0,0,0,0,0,-1,538,1828,0,0
-679,-804,0,0,0,0,0,0,0,0,0,-1,545,1828,0,0
-672,-804,0,0,0,0,0,0,0,0,0,-1,552,1828,0,0
-665,-804,0,0,0,0,0,0,0,0,0,-1,559,1828,0,0
-658,-804,0,0,0,0,0,0,0,0,0,-1,566,1828,0,0
-651,-804,0,0,0,0,0,0,0,0,0,-1,573,1828,0,0
-644,-804,0,0,0,0,0,0,0,0,0,-1,580,1828,0,0
-637,-804,0,0,0,0,0,0,0,0,0,-1,587,1828,0,0
-630,-804,0,0,0,0,0,0,0,0,0,-1,594,1828,0,0
-623,-804,0,0,0,0,0,0,0,0,0,-1,601,1828,0,0
-616,-804,0,0,0,0,0,0,0,0,0,-1,608,1828,0,0
-609,-804,0,0,0,0,0,0,0,0,0,-1,615,1828,0,0
-602,-804,0,0,0,0,0,0,0,0,0,-1,622,1828,0,0
-595,-804,0,0,0,0,0,0,0,0,0,-1,629,1828,0,0
-588,-804,0,0,0,0,0,0,0,0,0,-1,636,1828,0,0
-581,-804,0,0,0,0,0,0,0,0,0,-1,643,1828,0,0
-574,-804,0,0,0,0,0,0,0,0,0,-1,650,1828,0,0
-567,-804,0,0,0,0,0,0,0,0,0,-1,657,1828,0,0
-560,-804,0,0,0,0,0,0,0,0,0,-1,664,1828,0,0
-553,-804,0,0,0,0,0,0,0,0,0,-1,671,1828,0,0
-546,-804,0,0,0,0,0,0,0,0,0,-1,678,1828,0,0
-539,-804,0,0,0,0,0,0,0,0,0,-1,685,1828,0,0
-532,-804,0,0,0,0,0,0,0,0,0,-1,692,1828,0,0
-525,-804,0,0,0,0,0,0,0,0,0,-1,699,1828,0,0
-518,-804,0,0,0,0,0,0,0,0,0,-1,706,1828,0,0
-511,-804,0,0,0,0,0,0,0,0,0,-1,713,1828,0,0
-504,-804,0,0,0,0,0,0,0,0,0,-1,720,1828,0,0
-497,-804,0,0,0,0,0,0,0,0,0,-1,727,1828,0,0
-490,-804,0,0,0,0,0,0,0,0,0,-1,734,1828,0,0
-483,-804,0,0,0,0,0,0,0,0,0,-1,741,1828,0,0
-476,-804,0,0,0,0,0,0,0,0,0,-1,748,1828,0,0
-469,-804,0,0,0,0,0,0,0,0,0,-1,755,1828,0,0
-462,-804,0,0,0,0,0,0,0,0,0,-1,762,1828,0,0
-455,-804,0,0,0,0,0,0,0,0,0,-1,769,1828,0,0
-448,-804,0,0,0,0,0,0,0,0,0,-1,776,1828,0,0
-441,-804,0,0,0,0,0,0,0,0,0,-1,783,1828,0,0
-434,-804,0,0,0,0,0,0,0,0,0,-1,790,1828,0,0
-427,-804,0,0,0,0,0,0,0,0,0,-1,797,1828,0,0
-420,-804,0,0,0,0,0,0,0,0,0,-1,804,1828,0,0
-413,-804,0,0,0,0,0,0,0,0,0,-1,811,1828,0,0
-406,-804,0,0,0,0,0,0,0,0,0,-1,818,1828,0,0
-399,-804,0,0,0,0,0,0,0,0,0,-1,825,1828,0,0
-392,-804,0,0,0,0,0,0,0,0,0,-1,832,1828,0,0
-385,-804,0,0,0,0,0,0,0,0,0,-1,839,1828,0,0
-378,-804,0,0,0,0,0,0,0,0,0,-1,846,1828,0,0
-371,-804,0,0,0,0,0,0,0,0,0,-1,853,1828,0,0
-364,-804,0,0,0,0,0,0,0,0,0,-1,860,1828,0,0
-357,-804,0,0,0,0,0,0,0,0,0,-1,867,1828,0,0
-350,-804,0,0,0,0,0,0,0,0,0,-1,874,1828,0,0
-343,-804,0,0,0,0,0,0,0,0,0,-1,881,1828,0,0
-336,-804,0,0,0,0,0,0,0,0,0,-1,888,1828,0,0
-329,-804,0,0,0,0,0,0,0,0,0,-1,895,1828,0,0
-322,-804,0,0,0,0,0,0,0,0,0,-1,902,1828,0,0
-315,-804,0,0,0,0,0,0,0,0,0,-1,909,1828,0,0
-308,-804,0,0,0,0,0,0,0,0,0,-1,916,1828,0,0
-301,-804,0,0,0,0,0,0,0,0,0,-1,923,1828,0,0
-294,-804,0,0,0,0,0,0,0,0,0,-1,930,1828,0,0
-287,-804,0,0,0,0,0,0,0,0,0,-1,937,1828,0,0
-280,-804,0,0,0,0,0,0,0,0,0,-1,944,1828,0,0
-273,-804,0,0,0,0,0,0,0,0,0,-1,951,1828,0,0
-266,-804,0,0,0,0,0,0,0,0,0,-1,958,1828,0,0
-259,-804,0,0,0,0,0,0,0,0,0,-1,965,1828,0,0
-252,-804,0,0,0,0,0,0,0,0,0,-1,972,1828,0,0
-245,-804,0,0,0,0,0,0,0,0,0,-1,979,1828,0,0
-238,-804,0,0,0,0,0,0,0,0,0,-1,986,1828,0,0
-231,-804,0,0,0,0,0,0,0,0,0,-1,993,1828,0,0
-224,-804,0,0,0,0,0,0,0,0,0,-1,1000,1828,0,0
-217,-804,0,0,0,0,0,0,0,0,0,-1,1007,1828,0,0
-210,-804,0,0,0,0,0,0,0,0,0,-1,1014,1828,0,0
-203,-804,0,0,0,0,0,0,0,0,0,-1,1021,1828,0,0
-196,-804,0,0,0,0,0,0,0,0,0,-1,1028,1828,0,0
-189,-804,0,0,0,0,0,0,0,0,0,-1,1035,1828,0,0
-182,-804,0,0,0,0,0,0,0,0,0,-1,1042,1828,0,0
-175,-804,0,0,0,0,0,0,0,0,0,-1,1049,1828,0,0
-168,-804,0,0,0,0,0,0,0,0,0,-1,1056,1828,0,0
-161,-804,0,0,0,0,0,0,0,0,0,-1,1063,1828,0,0
-154,-804,0,0,0,0,0,0,0,0,0,-1,1070,1828,0,0
-147,-804,0,0,0,0,0,0,0,0,0,-1,1077,1828,0,0
-140,-804,0,0,0,0,0,0,0,0,0,-1,1084,1828,0,0
-133,-804,0,0,0,0,0,0,0,0,0,-1,1091,1828,0,0
-126,-804,0,0,0,0,0,0,0,0,0,-1,1098,1828,0,0
-119,-804,0,0,0,0,0,0,0,0,0,-1,1105,1828,0,0
-112,-804,0,0,0,0,0,0,0,0,0,-1,1112,1828,0,0
-105,-804,0,0,0,0,0,0,0,0,0,-1,1119,1828,0,0
-98,-804,0,0,0,0,0,0,0,0,0,-1,1126,1828,0,0
-91,-804,0,0,0,0,0,0,0,0,0,-1,1133,1828,0,0
-84,-804,0,0,0,0,0,0,0,0,0,-1,1140,1828,0,0
-77,-804,0,0,0,0,0,0,0,0,0,-1,1147,1828,0,0
-70,-804,0,0,0,0,0,0,0,0,0,-1,1154,1828,0,0
-63,-804,0,0,0,0,0,0,0,0,0,-1,1161,1828,0,0
-56,-804,0,0,0,0,0,0,0,0,0,-1,1168,1828,0,0
-49,-804,0,0,0,0,0,0,0,0,0,-1,1175,1828,0,0
-42,-804,0,0,0,0,0,0,0,0,0,-1,1182,1828,0,0
-35,-804,0,0,0,0,0,0,0,0,0,-1,1189,1828,0,0
-28,-804,0,0,0,0,0,0,0,0,0,-1,1196,1828,0,0
-21,-804,0,0,0,0,0,0,0,0,0,-1,1203,1828,0,0
-14,-804,0,0,0,0,0,0,0,0,0,-1,1210,1828,0,0
-7,-804,0,0,0,0,0,0,0,0,0,-1,1217,1828,0,0
0,-804,0,0,0,0,0,0,0,0,0,-1,1224,1828,0,0
7,-804,0,0,0,0,0,0,0,0,0,-1,1231,1828,0,0
14,-804,0,0,0,0,0,0,0,0,0,-1,1238,1828,0,0
21,-804,0,0,0,0,0,0,0,0,0,-1,1245,1828,0,0
28,-804,0,0,0,0,0,0,0,0,0,-1,1252,1828,0,0
35,-804,9.11426,49.3561,0,0,0,0,0,0,0,-1,1259,1828,9.11431,-49.3561
42,-804,8.57654,49.4656,0,0,0,0,0,0,0,-1,1266,1828,8.57652,-49.4655
49,-804,8.44141,49.455,0,0,0,0,0,0,0,-1,1273,1828,8.44144,-49.4549
56,-804,7.39661,49.5632,0,0,0,0,0,0,0,-1,1280,1828,7.39657,-49.5632
63,-804,11.5062,44.7069,0,0,0,0,0,0,0,-1,1287,1828,11.5062,-44.7069
70,-804,6.26306,49.8599,0,0,0,0,0,0,0,-1,1294,1828,6.26306,-49.8599
77,-804,6.19824,49.3274,0.0590178,0.0231933,0.0379415,0.0830627,-0.00085162,0.564858,0.0556612,0.0447881,1301,1828,6.19824,-49.3274
84,-804,6.05847,49.3656,0,0,0,0,0,0,0,-1,1308,1828,6.05847,-49.3656
91,-804,0,0,0,0,0,0,0,0,0,-1,1315,1828,0,0
98,-804,0,0,0,0,0,0,0,0,0,-1,1322,1828,0,0
105,-804,0,0,0,0,0,0,0,0,0,-1,1329,1828,0,0
112,-804,0,0,0,0,0,0,0,0,0,-1,1336,1828,0,0
119,-804,0,0,0,0,0,0,0,0,0,-1,1343,1828,0,0
126,-804,0,0,0,0,0,0,0,0,0,-1,1350,1828,0,0
133,-804,0,0,0,0,0,0,0,0,0,-1,1357,1828,0,0
140,-804,0,0,0,0,0,0,0,0,0,-1,1364,1828,0,0
147,-804,0,0,0,0,0,0,0,0,0,-1,1371,1828,0,0
154,-804,0,0,0,0,0,0,0,0,0,-1,1378,1828,0,0
161,-804,0,0,0,0,0,0,0,0,0,-1,1385,1828,0,0
168,-804,0,0,0,0,0,0,0,0,0,-1,1392,1828,0,0
175,-804,0,0,0,0,0,0,0,0,0,-1,1399,1828,0,0
182,-804,0,0,0,0,0,0,0,0,0,-1,1406,1828,0,0
189,-804,0,0,0,0,0,0,0,0,0,-1,1413,1828,0,0
196,-804,0,0,0,0,0,0,0,0,0,-1,1420,1828,0,0
203,-804,0,0,0,0,0,0,0,0,0,-1,1427,1828,0,0
210,-804,0,0,0,0,0,0,0,0,0,-1,1434,1828,0,0
217,-804,0,0,0,0,0,0,0,0,0,-1,1441,1828,0,0
224,-804,0,0,0,0,0,0,0,0,0,-1,1448,1828,0,0
231,-804,0,0,0,0,0,0,0,0,0,-1,1455,1828,0,0
238,-804,0,0,0,0,0,0,0,0,0,-1,1462,1828,0,0
245,-804,0,0,0,0,0,0,0,0,0,-1,1469,1828,0,0
252,-804,0,0,0,0,0,0,0,0,0,-1,1476,1828,0,0
259,-804,0,0,0,0,0,0,0,0,0,-1,1483,1828,0,0
266,-804,0,0,0,0,0,0,0,0,0,-1,1490,1828,0,0
273,-804,0,0,0,0,0,0,0,0,0,-1,1497,1828,0,0
280,-804,0,0,0,0,0,0,0,0,0,-1,1504,1828,0,0
287,-804,0,0,0,0,0,0,0,0,0,-1,1511,1828,0,0
294,-804,0,0,0,0,0,0,0,0,0,-1,1518,1828,0,0
301,-804,0,0,0,0,0,0,0,0,0,-1,1525,1828,0,0
308,-804,0,0,0,0,0,0,0,0,0,-1,1532,1828,0,0
315,-804,0,0,0,0,0,0,0,0,0,-1,1539,1828,0,0
322,-804,0,0,0,0,0,0,0,0,0,-1,1546,1828,0,0
329,-804,0,0,0,0,0,0,0,0,0,-1,1553,1828,0,0
336,-804,0,0,0,0,0,0,0,0,0,-1,1560,1828,0,0
343,-804,0,0,0,0,0,0,0,0,0,-1,1567,1828,0,0
350,-804,0,0,0,0,0,0,0,0,0,-1,1574,1828,0,0
357,-804,0,0,0,0,0,0,0,0,0,-1,1581,1828,0,0
364,-804,0,0,0,0,0,0,0,0,0,-1,1588,1828,0,0
371,-804,0,0,0,0,0,0,0,0,0,-1,1595,1828,0,0
378,-804,0,0,0,0,0,0,0,0,0,-1,1602,1828,0,0
385,-804,0,0,0,0,0,0,0,0,0,-1,1609,1828,0,0
392,-804,0,0,0,0,0,0,0,0,0,-1,1616,1828,0,0
399,-804,0,0,0,0,0,0,0,0,0,-1,1623,1828,0,0
406,-804,0,0,0,0,0,0,0,0,0,-1,1630,1828,0,0
413,-804,0,0,0,0,0,0,0,0,0,-1,1637,1828,0,0
420,-804,0,0,0,0,0,0,0,0,0,-1,1644,1828,0,0
427,-804,0,0,0,0,0,0,0,0,0,-1,1651,1828,0,0
434,-804,0,0,0,0,0,0,0,0,0,-1,1658,1828,0,0
441,-804,0,0,0,0,0,0,0,0,0,-1,1665,1828,0,0
448,-804,0,0,0,0,0,0,0,0,0,-1,1672,1828,0,0
455,-804,0,0,0,0,0,0,0,0,0,-1,1679,1828,0,0
462,-804,0,0,0,0,0,0,0,0,0,-1,1686,1828,0,0
469,-804,0,0,0,0,0,0,0,0,0,-1,1693,1828,0,0
476,-804,0,0,0,0,0,0,0,0,0,-1,1700,1828,0,0
483,-804,0,0,0,0,0,0,0,0,0,-1,1707,1828,0,0
490,-804,0,0,0,0,0,0,0,0,0,-1,1714,1828,0,0
497,-804,0,0,0,0,0,0,0,0,0,-1,1721,1828,0,0
504,-804,0,0,0,0,0,0,0,0,0,-1,1728,1828,0,0
511,-804,0,0,0,0,0,0,0,0,0,-1,1735,1828,0,0
518,-804,0,0,0,0,0,0,0,0,0,-1,1742,1828,0,0
525,-804,0,0,0,0,0,0,0,0,0,-1,1749,1828,0,0
532,-804,0,0,0,0,0,0,0,0,0,-1,1756,1828,0,0
539,-804,0,0,0,0,0,0,0,0,0,-1,1763,1828,0,0
546,-804,0,0,0,0,0,0,0,0,0,-1,1770,1828,0,0
553,-804,0,0,0,0,0,0,0,0,0,-1,1777,1828,0,0
560,-804,0,0,0,0,0,0,0,0,0,-1,1784,1828,0,0
567,-804,0,0,0,0,0,0,0,0,0,-1,1791,1828,0,0
574,-804,0,0,0,0,0,0,0,0,0,-1,1798,1828,0,0
581,-804,0,0,0,0,0,0,0,0,0,-1,1805,1828,0,0
588,-804,0,0,0,0,0,0,0,0,0,-1,1812,1828,0,0
595,-804,0,0,0,0,0,0,0,0,0,-1,1819,1828,0,0
602,-804,0,0,0,0,0,0,0,0,0,-1,1826,1828,0,0
609,-804,0,0,0,0,0,0,0,0,0,-1,1833,1828,0,0
616,-804,0,0,0,0,0,0,0,0,0,-1,1840,1828,0,0
623,-804,0,0,0,0,0,0,0,0,0,-1,1847,1828,0,0
630,-804,0,0,0,0,0,0,0,0,0,-1,1854,1828,0,0
637,-804,0,0,0,0,0,0,0,0,0,-1,1861,1828,0,0
644,-804,0,0,0,0,0,0,0,0,0,-1,1868,1828,0,0
651,-804,0,0,0,0,0,0,0,0,0,-1,1875,1828,0,0
658,-804,0,0,0,0,0,0,0,0,0,-1,1882,1828,0,0
665,-804,0,0,0,0,0,0,0,0,0,-1,1889,1828,0,0
672,-804,0,0,0,0,0,0,0,0,0,-1,1896,1828,0,0
679,-804,0,0,0,0,0,0,0,0,0,-1,1903,1828,0,0
686,-804,0,0,0,0,0,0,0,0,0,-1,1910,1828,0,0
693,-804,0,0,0,0,0,0,0,0,0,-1,1917,1828,0,0
700,-804,0,0,0,0,0,0,0,0,0,-1,1924,1828,0,0
707,-804,0,0,0,0,0,0,0,0,0,-1,1931,1828,0,0
714,-804,0,0,0,0,0,0,0,0,0,-1,1938,1828,0,0
721,-804,0,0,0,0,0,0,0,0,0,-1,1945,1828,0,0
728,-804,0,0,0,0,0,0,0,0,0,-1,1952,1828,0,0
735,-804,0,0,0,0,0,0,0,0,0,-1,1959,1828,0,0
742,-804,0,0,0,0,0,0,0,0,0,-1,1966,1828,0,0
749,-804,0,0,0,0,0,0,0,0,0,-1,1973,1828,0,0
756,-804,0,0,0,0,0,0,0,0,0,-1,1980,1828,0,0
763,-804,0,0,0,0,0,0,0,0,0,-1,1987,1828,0,0
770,-804,0,0,0,0,0,0,0,0,0,-1,1994,1828,0,0
777,-804,0,0,0,0,0,0,0,0,0,-1,2001,1828,0,0
784,-804,0,0,0,0,0,0,0,0,0,-1,2008,1828,0,0
791,-804,0,0,0,0,0,0,0,0,0,-1,2015,1828,0,0
798,-804,0,0,0,0,0,0,0,0,0,-1,2022,1828,0,0
805,-804,0,0,0,0,0,0,0,0,0,-1,2029,1828,0,0
812,-804,0,0,0,0,0,0,0,0,0,-1,2036,1828,0,0

