 "x_c",  "y_c",  "u_c",  "v_c",  "exx",  "eyy",  "exy",  "e1",  "e2",  "gamma",  "e_vonmises",  "sigma",  "x",  "y",  "u",  "v"
-700,715,0,0,0,0,0,0,0,0,0,-1,524,309,0,0
-693,715,0,0,0,0,0,0,0,0,0,-1,531,309,0,0
-686,715,0,0,0,0,0,0,0,0,0,-1,538,309,0,0
-679,715,0,0,0,0,0,0,0,0,0,-1,545,309,0,0
-672,715,0,0,0,0,0,0,0,0,0,-1,552,309,0,0
-665,715,0,0,0,0,0,0,0,0,0,-1,559,309,0,0
-658,715,0,0,0,0,0,0,0,0,0,-1,566,309,0,0
-651,715,0,0,0,0,0,0,0,0,0,-1,573,309,0,0
-644,715,0,0,0,0,0,0,0,0,0,-1,580,309,0,0
-637,715,0,0,0,0,0,0,0,0,0,-1,587,309,0,0
-630,715,0,0,0,0,0,0,0,0,0,-1,594,309,0,0
-623,715,0,0,0,0,0,0,0,0,0,-1,601,309,0,0
-616,715,0,0,0,0,0,0,0,0,0,-1,608,309,0,0
-609,715,0,0,0,0,0,0,0,0,0,-1,615,309,0,0
-602,715,0,0,0,0,0,0,0,0,0,-1,622,309,0,0
-595,715,0,0,0,0,0,0,0,0,0,-1,629,309,0,0
-588,715,0,0,0,0,0,0,0,0,0,-1,636,309,0,0
-581,715,0,0,0,0,0,0,0,0,0,-1,643,309,0,0
-574,715,0,0,0,0,0,0,0,0,0,-1,650,309,0,0
-567,715,0,0,0,0,0,0,0,0,0,-1,657,309,0,0
-560,715,0,0,0,0,0,0,0,0,0,-1,664,309,0,0
-553,715,0,0,0,0,0,0,0,0,0,-1,671,309,0,0
-546,715,0,0,0,0,0,0,0,0,0,-1,678,309,0,0
-539,715,0,0,0,0,0,0,0,0,0,-1,685,309,0,0
-532,715,0,0,0,0,0,0,0,0,0,-1,692,309,0,0
-525,715,0,0,0,0,0,0,0,0,0,-1,699,309,0,0
-518,715,0,0,0,0,0,0,0,0,0,-1,706,309,0,0
-511,715,0,0,0,0,0,0,0,0,0,-1,713,309,0,0
-504,715,0,0,0,0,0,0,0,0,0,-1,720,309,0,0
-497,715,0,0,0,0,0,0,0,0,0,-1,727,309,0,0
-490,715,0,0,0,0,0,0,0,0,0,-1,734,309,0,0
-483,715,0,0,0,0,0,0,0,0,0,-1,741,309,0,0
-476,715,0,0,0,0,0,0,0,0,0,-1,748,309,0,0
-469,715,0,0,0,0,0,0,0,0,0,-1,755,309,0,0
-462,715,0,0,0,0,0,0,0,0,0,-1,762,309,0,0
-455,715,0,0,0,0,0,0,0,0,0,-1,769,309,0,0
-448,715,0,0,0,0,0,0,0,0,0,-1,776,309,0,0
-441,715,0,0,0,0,0,0,0,0,0,-1,783,309,0,0
-434,715,0,0,0,0,0,0,0,0,0,-1,790,309,0,0
-427,715,0,0,0,0,0,0,0,0,0,-1,797,309,0,0
-420,715,0,0,0,0,0,0,0,0,0,-1,804,309,0,0
-413,715,0,0,0,0,0,0,0,0,0,-1,811,309,0,0
-406,715,0,0,0,0,0,0,0,0,0,-1,818,309,0,0
-399,715,0,0,0,0,0,0,0,0,0,-1,825,309,0,0
-392,715,0,0,0,0,0,0,0,0,0,-1,832,309,0,0
-385,715,0,0,0,0,0,0,0,0,0,-1,839,309,0,0
-378,715,0,0,0,0,0,0,0,0,0,-1,846,309,0,0
-371,715,0,0,0,0,0,0,0,0,0,-1,853,309,0,0
-364,715,0,0,0,0,0,0,0,0,0,-1,860,309,0,0
-357,715,0,0,0,0,0,0,0,0,0,-1,867,309,0,0
-350,715,0,0,0,0,0,0,0,0,0,-1,874,309,0,0
-343,715,0,0,0,0,0,0,0,0,0,-1,881,309,0,0
-336,715,0,0,0,0,0,0,0,0,0,-1,888,309,0,0
-329,715,0,0,0,0,0,0,0,0,0,-1,895,309,0,0
-322,715,0,0,0,0,0,0,0,0,0,-1,902,309,0,0
-315,715,0,0,0,0,0,0,0,0,0,-1,909,309,0,0
-308,715,0,0,0,0,0,0,0,0,0,-1,916,309,0,0
-301,715,0,0,0,0,0,0,0,0,0,-1,923,309,0,0
-294,715,0,0,0,0,0,0,0,0,0,-1,930,309,0,0
-287,715,0,0,0,0,0,0,0,0,0,-1,937,309,0,0
-280,715,0,0,0,0,0,0,0,0,0,-1,944,309,0,0
-273,715,0,0,0,0,0,0,0,0,0,-1,951,309,0,0
-266,715,0,0,0,0,0,0,0,0,0,-1,958,309,0,0
-259,715,0,0,0,0,0,0,0,0,0,-1,965,309,0,0
-252,715,0,0,0,0,0,0,0,0,0,-1,972,309,0,0
-245,715,0,0,0,0,0,0,0,0,0,-1,979,309,0,0
-238,715,0,0,0,0,0,0,0,0,0,-1,986,309,0,0
-231,715,0,0,0,0,0,0,0,0,0,-1,993,309,0,0
-224,715,0,0,0,0,0,0,0,0,0,-1,1000,309,0,0
-217,715,0,0,0,0,0,0,0,0,0,-1,1007,309,0,0
-210,715,0,0,0,0,0,0,0,0,0,-1,1014,309,0,0
-203,715,0,0,0,0,0,0,0,0,0,-1,1021,309,0,0
-196,715,0,0,0,0,0,0,0,0,0,-1,1028,309,0,0
-189,715,0,0,0,0,0,0,0,0,0,-1,1035,309,0,0
-182,715,0,0,0,0,0,0,0,0,0,-1,1042,309,0,0
-175,715,0,0,0,0,0,0,0,0,0,-1,1049,309,0,0
-168,715,0,0,0,0,0,0,0,0,0,-1,1056,309,0,0
-161,715,0,0,0,0,0,0,0,0,0,-1,1063,309,0,0
-154,715,0,0,0,0,0,0,0,0,0,-1,1070,309,0,0
-147,715,0,0,0,0,0,0,0,0,0,-1,1077,309,0,0
-140,715,0,0,0,0,0,0,0,0,0,-1,1084,309,0,0
-133,715,0,0,0,0,0,0,0,0,0,-1,1091,309,0,0
-126,715,0,0,0,0,0,0,0,0,0,-1,1098,309,0,0
-119,715,0,0,0,0,0,0,0,0,0,-1,1105,309,0,0
-112,715,0,0,0,0,0,0,0,0,0,-1,1112,309,0,0
-105,715,0,0,0,0,0,0,0,0,0,-1,1119,309,0,0
-98,715,0,0,0,0,0,0,0,0,0,-1,1126,309,0,0
-91,715,0,0,0,0,0,0,0,0,0,-1,1133,309,0,0
-84,715,0,0,0,0,0,0,0,0,0,-1,1140,309,0,0
-77,715,0,0,0,0,0,0,0,0,0,-1,1147,309,0,0
-70,715,0,0,0,0,0,0,0,0,0,-1,1154,309,0,0
-63,715,0,0,0,0,0,0,0,0,0,-1,1161,309,0,0
-56,715,0,0,0,0,0,0,0,0,0,-1,1168,309,0,0
-49,715,0,0,0,0,0,0,0,0,0,-1,1175,309,0,0
-42,715,0,0,0,0,0,0,0,0,0,-1,1182,309,0,0
-35,715,0,0,0,0,0,0,0,0,0,-1,1189,309,0,0
-28,715,0,0,0,0,0,0,0,0,0,-1,1196,309,0,0
-21,715,0,0,0,0,0,0,0,0,0,-1,1203,309,0,0
-14,715,0,0,0,0,0,0,0,0,0,-1,1210,309,0,0
-7,715,0,0,0,0,0,0,0,0,0,-1,1217,309,0,0
0,715,0,0,0,0,0,0,0,0,0,-1,1224,309,0,0
7,715,0,0,0,0,0,0,0,0,0,-1,1231,309,0,0
14,715,0,0,0,0,0,0,0,0,0,-1,1238,309,0,0
21,715,0,0,0,0,0,0,0,0,0,-1,1245,309,0,0
28,715,0,0,0,0,0,0,0,0,0,-1,1252,309,0,0
35,715,0,0,0,0,0,0,0,0,0,-1,1259,309,0,0
42,715,0,0,0,0,0,0,0,0,0,-1,1266,309,0,0
49,715,0,0,0,0,0,0,0,0,0,-1,1273,309,0,0
56,715,0,0,0,0,0,0,0,0,0,-1,1280,309,0,0
63,715,5.43701,-44.4869,0,0,0,0,0,0,0,-1,1287,309,5.43699,44.4869
70,715,5.03796,-48.9697,0,0,0,0,0,0,0,-1,1294,309,5.03799,48.9697
77,715,0,0,0,0,0,0,0,0,0,-1,1301,309,0,0
84,715,0,0,0,0,0,0,0,0,0,-1,1308,309,0,0
91,715,0,0,0,0,0,0,0,0,0,-1,1315,309,0,0
98,715,0,0,0,0,0,0,0,0,0,-1,1322,309,0,0
105,715,0,0,0,0,0,0,0,0,0,-1,1329,309,0,0
112,715,0,0,0,0,0,0,0,0,0,-1,1336,309,0,0
119,715,0,0,0,0,0,0,0,0,0,-1,1343,309,0,0
126,715,0,0,0,0,0,0,0,0,0,-1,1350,309,0,0
133,715,0,0,0,0,0,0,0,0,0,-1,1357,309,0,0
140,715,0,0,0,0,0,0,0,0,0,-1,1364,309,0,0
147,715,0,0,0,0,0,0,0,0,0,-1,1371,309,0,0
154,715,0,0,0,0,0,0,0,0,0,-1,1378,309,0,0
161,715,0,0,0,0,0,0,0,0,0,-1,1385,309,0,0
168,715,0,0,0,0,0,0,0,0,0,-1,1392,309,0,0
175,715,0,0,0,0,0,0,0,0,0,-1,1399,309,0,0
182,715,0,0,0,0,0,0,0,0,0,-1,1406,309,0,0
189,715,0,0,0,0,0,0,0,0,0,-1,1413,309,0,0
196,715,0,0,0,0,0,0,0,0,0,-1,1420,309,0,0
203,715,0,0,0,0,0,0,0,0,0,-1,1427,309,0,0
210,715,0,0,0,0,0,0,0,0,0,-1,1434,309,0,0
217,715,0,0,0,0,0,0,0,0,0,-1,1441,309,0,0
224,715,0,0,0,0,0,0,0,0,0,-1,1448,309,0,0
231,715,0,0,0,0,0,0,0,0,0,-1,1455,309,0,0
238,715,0,0,0,0,0,0,0,0,0,-1,1462,309,0,0
245,715,0,0,0,0,0,0,0,0,0,-1,1469,309,0,0
252,715,0,0,0,0,0,0,0,0,0,-1,1476,309,0,0
259,715,0,0,0,0,0,0,0,0,0,-1,1483,309,0,0
266,715,0,0,0,0,0,0,0,0,0,-1,1490,309,0,0
273,715,0,0,0,0,0,0,0,0,0,-1,1497,309,0,0
280,715,0,0,0,0,0,0,0,0,0,-1,1504,309,0,0
287,715,0,0,0,0,0,0,0,0,0,-1,1511,309,0,0
294,715,0,0,0,0,0,0,0,0,0,-1,1518,309,0,0
301,715,0,0,0,0,0,0,0,0,0,-1,1525,309,0,0
308,715,0,0,0,0,0,0,0,0,0,-1,1532,309,0,0
315,715,0,0,0,0,0,0,0,0,0,-1,1539,309,0,0
322,715,0,0,0,0,0,0,0,0,0,-1,1546,309,0,0
329,715,0,0,0,0,0,0,0,0,0,-1,1553,309,0,0
336,715,0,0,0,0,0,0,0,0,0,-1,1560,309,0,0
343,715,0,0,0,0,0,0,0,0,0,-1,1567,309,0,0
350,715,0,0,0,0,0,0,0,0,0,-1,1574,309,0,0
357,715,0,0,0,0,0,0,0,0,0,-1,1581,309,0,0
364,715,0,0,0,0,0,0,0,0,0,-1,1588,309,0,0
371,715,0,0,0,0,0,0,0,0,0,-1,1595,309,0,0
378,715,0,0,0,0,0,0,0,0,0,-1,1602,309,0,0
385,715,0,0,0,0,0,0,0,0,0,-1,1609,309,0,0
392,715,0,0,0,0,0,0,0,0,0,-1,1616,309,0,0
399,715,0,0,0,0,0,0,0,0,0,-1,1623,309,0,0
406,715,0,0,0,0,0,0,0,0,0,-1,1630,309,0,0
413,715,0,0,0,0,0,0,0,0,0,-1,1637,309,0,0
420,715,0,0,0,0,0,0,0,0,0,-1,1644,309,0,0
427,715,0,0,0,0,0,0,0,0,0,-1,1651,309,0,0
434,715,0,0,0,0,0,0,0,0,0,-1,1658,309,0,0
441,715,0,0,0,0,0,0,0,0,0,-1,1665,309,0,0
448,715,0,0,0,0,0,0,0,0,0,-1,1672,309,0,0
455,715,0,0,0,0,0,0,0,0,0,-1,1679,309,0,0
462,715,0,0,0,0,0,0,0,0,0,-1,1686,309,0,0
469,715,0,0,0,0,0,0,0,0,0,-1,1693,309,0,0
476,715,0,0,0,0,0,0,0,0,0,-1,1700,309,0,0
483,715,0,0,0,0,0,0,0,0,0,-1,1707,309,0,0
490,715,0,0,0,0,0,0,0,0,0,-1,1714,309,0,0
497,715,0,0,0,0,0,0,0,0,0,-1,1721,309,0,0
504,715,0,0,0,0,0,0,0,0,0,-1,1728,309,0,0
511,715,0,0,0,0,0,0,0,0,0,-1,1735,309,0,0
518,715,0,0,0,0,0,0,0,0,0,-1,1742,309,0,0
525,715,0,0,0,0,0,0,0,0,0,-1,1749,309,0,0
532,715,0,0,0,0,0,0,0,0,0,-1,1756,309,0,0
539,715,0,0,0,0,0,0,0,0,0,-1,1763,309,0,0
546,715,0,0,0,0,0,0,0,0,0,-1,1770,309,0,0
553,715,0,0,0,0,0,0,0,0,0,-1,1777,309,0,0
560,715,0,0,0,0,0,0,0,0,0,-1,1784,309,0,0
567,715,0,0,0,0,0,0,0,0,0,-1,1791,309,0,0
574,715,0,0,0,0,0,0,0,0,0,-1,1798,309,0,0
581,715,0,0,0,0,0,0,0,0,0,-1,1805,309,0,0
588,715,0,0,0,0,0,0,0,0,0,-1,1812,309,0,0
595,715,0,0,0,0,0,0,0,0,0,-1,1819,309,0,0
602,715,0,0,0,0,0,0,0,0,0,-1,1826,309,0,0
609,715,0,0,0,0,0,0,0,0,0,-1,1833,309,0,0
616,715,0,0,0,0,0,0,0,0,0,-1,1840,309,0,0
623,715,0,0,0,0,0,0,0,0,0,-1,1847,309,0,0
630,715,0,0,0,0,0,0,0,0,0,-1,1854,309,0,0
637,715,0,0,0,0,0,0,0,0,0,-1,1861,309,0,0
644,715,0,0,0,0,0,0,0,0,0,-1,1868,309,0,0
651,715,0,0,0,0,0,0,0,0,0,-1,1875,309,0,0
658,715,0,0,0,0,0,0,0,0,0,-1,1882,309,0,0
665,715,0,0,0,0,0,0,0,0,0,-1,1889,309,0,0
672,715,0,0,0,0,0,0,0,0,0,-1,1896,309,0,0
679,715,0,0,0,0,0,0,0,0,0,-1,1903,309,0,0
686,715,0,0,0,0,0,0,0,0,0,-1,1910,309,0,0
693,715,0,0,0,0,0,0,0,0,0,-1,1917,309,0,0
700,715,0,0,0,0,0,0,0,0,0,-1,1924,309,0,0
707,715,0,0,0,0,0,0,0,0,0,-1,1931,309,0,0
714,715,0,0,0,0,0,0,0,0,0,-1,1938,309,0,0
721,715,0,0,0,0,0,0,0,0,0,-1,1945,309,0,0
728,715,0,0,0,0,0,0,0,0,0,-1,1952,309,0,0
735,715,0,0,0,0,0,0,0,0,0,-1,1959,309,0,0
742,715,0,0,0,0,0,0,0,0,0,-1,1966,309,0,0
749,715,0,0,0,0,0,0,0,0,0,-1,1973,309,0,0
756,715,0,0,0,0,0,0,0,0,0,-1,1980,309,0,0
763,715,0,0,0,0,0,0,0,0,0,-1,1987,309,0,0
770,715,0,0,0,0,0,0,0,0,0,-1,1994,309,0,0
777,715,0,0,0,0,0,0,0,0,0,-1,2001,309,0,0
784,715,0,0,0,0,0,0,0,0,0,-1,2008,309,0,0
791,715,0,0,0,0,0,0,0,0,0,-1,2015,309,0,0
798,715,0,0,0,0,0,0,0,0,0,-1,2022,309,0,0
805,715,0,0,0,0,0,0,0,0,0,-1,2029,309,0,0
812,715,0,0,0,0,0,0,0,0,0,-1,2036,309,0,0
-700,708,0,0,0,0,0,0,0,0,0,-1,524,316,0,0
-693,708,0,0,0,0,0,0,0,0,0,-1,531,316,0,0
-686,708,0,0,0,0,0,0,0,0,0,-1,538,316,0,0
-679,708,0,0,0,0,0,0,0,0,0,-1,545,316,0,0
-672,708,0,0,0,0,0,0,0,0,0,-1,552,316,0,0
-665,708,0,0,0,0,0,0,0,0,0,-1,559,316,0,0
-658,708,0,0,0,0,0,0,0,0,0,-1,566,316,0,0
-651,708,0,0,0,0,0,0,0,0,0,-1,573,316,0,0
-644,708,0,0,0,0,0,0,0,0,0,-1,580,316,0,0
-637,708,0,0,0,0,0,0,0,0,0,-1,587,316,0,0
-630,708,0,0,0,0,0,0,0,0,0,-1,594,316,0,0
-623,708,0,0,0,0,0,0,0,0,0,-1,601,316,0,0
-616,708,0,0,0,0,0,0,0,0,0,-1,608,316,0,0
-609,708,0,0,0,0,0,0,0,0,0,-1,615,316,0,0
-602,708,0,0,0,0,0,0,0,0,0,-1,622,316,0,0
-595,708,0,0,0,0,0,0,0,0,0,-1,629,316,0,0
-588,708,0,0,0,0,0,0,0,0,0,-1,636,316,0,0
-581,708,0,0,0,0,0,0,0,0,0,-1,643,316,0,0
-574,708,0,0,0,0,0,0,0,0,0,-1,650,316,0,0
-567,708,0,0,0,0,0,0,0,0,0,-1,657,316,0,0
-560,708,0,0,0,0,0,0,0,0,0,-1,664,316,0,0
-553,708,0,0,0,0,0,0,0,0,0,-1,671,316,0,0
-546,708,0,0,0,0,0,0,0,0,0,-1,678,316,0,0
-539,708,0,0,0,0,0,0,0,0,0,-1,685,316,0,0
-532,708,0,0,0,0,0,0,0,0,0,-1,692,316,0,0
-525,708,0,0,0,0,0,0,0,0,0,-1,699,316,0,0
-518,708,0,0,0,0,0,0,0,0,0,-1,706,316,0,0
-511,708,0,0,0,0,0,0,0,0,0,-1,713,316,0,0
-504,708,0,0,0,0,0,0,0,0,0,-1,720,316,0,0
-497,708,0,0,0,0,0,0,0,0,0,-1,727,316,0,0
-490,708,0,0,0,0,0,0,0,0,0,-1,734,316,0,0
-483,708,0,0,0,0,0,0,0,0,0,-1,741,316,0,0
-476,708,0,0,0,0,0,0,0,0,0,-1,748,316,0,0
-469,708,0,0,0,0,0,0,0,0,0,-1,755,316,0,0
-462,708,0,0,0,0,0,0,0,0,0,-1,762,316,0,0
-455,708,0,0,0,0,0,0,0,0,0,-1,769,316,0,0
-448,708,0,0,0,0,0,0,0,0,0,-1,776,316,0,0
-441,708,0,0,0,0,0,0,0,0,0,-1,783,316,0,0
-434,708,0,0,0,0,0,0,0,0,0,-1,790,316,0,0
-427,708,0,0,0,0,0,0,0,0,0,-1,797,316,0,0
-420,708,0,0,0,0,0,0,0,0,0,-1,804,316,0,0
-413,708,0,0,0,0,0,0,0,0,0,-1,811,316,0,0
-406,708,0,0,0,0,0,0,0,0,0,-1,818,316,0,0
-399,708,0,0,0,0,0,0,0,0,0,-1,825,316,0,0
-392,708,0,0,0,0,0,0,0,0,0,-1,832,316,0,0
-385,708,0,0,0,0,0,0,0,0,0,-1,839,316,0,0
-378,708,0,0,0,0,0,0,0,0,0,-1,846,316,0,0
-371,708,0,0,0,0,0,0,0,0,0,-1,853,316,0,0
-364,708,0,0,0,0,0,0,0,0,0,-1,860,316,0,0
-357,708,0,0,0,0,0,0,0,0,0,-1,867,316,0,0
-350,708,0,0,0,0,0,0,0,0,0,-1,874,316,0,0
-343,708,0,0,0,0,0,0,0,0,0,-1,881,316,0,0
-336,708,0,0,0,0,0,0,0,0,0,-1,888,316,0,0
-329,708,0,0,0,0,0,0,0,0,0,-1,895,316,0,0
-322,708,0,0,0,0,0,0,0,0,0,-1,902,316,0,0
-315,708,0,0,0,0,0,0,0,0,0,-1,909,316,0,0
-308,708,0,0,0,0,0,0,0,0,0,-1,916,316,0,0
-301,708,0,0,0,0,0,0,0,0,0,-1,923,316,0,0
-294,708,0,0,0,0,0,0,0,0,0,-1,930,316,0,0
-287,708,0,0,0,0,0,0,0,0,0,-1,937,316,0,0
-280,708,0,0,0,0,0,0,0,0,0,-1,944,316,0,0
-273,708,0,0,0,0,0,0,0,0,0,-1,951,316,0,0
-266,708,0,0,0,0,0,0,0,0,0,-1,958,316,0,0
-259,708,0,0,0,0,0,0,0,0,0,-1,965,316,0,0
-252,708,0,0,0,0,0,0,0,0,0,-1,972,316,0,0
-245,708,0,0,0,0,0,0,0,0,0,-1,979,316,0,0
-238,708,0,0,0,0,0,0,0,0,0,-1,986,316,0,0
-231,708,0,0,0,0,0,0,0,0,0,-1,993,316,0,0
-224,708,0,0,0,0,0,0,0,0,0,-1,1000,316,0,0
-217,708,0,0,0,0,0,0,0,0,0,-1,1007,316,0,0
-210,708,0,0,0,0,0,0,0,0,0,-1,1014,316,0,0
-203,708,0,0,0,0,0,0,0,0,0,-1,1021,316,0,0
-196,708,0,0,0,0,0,0,0,0,0,-1,1028,316,0,0
-189,708,0,0,0,0,0,0,0,0,0,-1,1035,316,0,0
-182,708,0,0,0,0,0,0,0,0,0,-1,1042,316,0,0
-175,708,0,0,0,0,0,0,0,0,0,-1,1049,316,0,0
-168,708,0,0,0,0,0,0,0,0,0,-1,1056,316,0,0
-161,708,0,0,0,0,0,0,0,0,0,-1,1063,316,0,0
-154,708,0,0,0,0,0,0,0,0,0,-1,1070,316,0,0
-147,708,0,0,0,0,0,0,0,0,0,-1,1077,316,0,0
-140,708,0,0,0,0,0,0,0,0,0,-1,1084,316,0,0
-133,708,0,0,0,0,0,0,0,0,0,-1,1091,316,0,0
-126,708,0,0,0,0,0,0,0,0,0,-1,1098,316,0,0
-119,708,0,0,0,0,0,0,0,0,0,-1,1105,316,0,0
-112,708,0,0,0,0,0,0,0,0,0,-1,1112,316,0,0
-105,708,0,0,0,0,0,0,0,0,0,-1,1119,316,0,0
-98,708,0,0,0,0,0,0,0,0,0,-1,1126,316,0,0
-91,708,0,0,0,0,0,0,0,0,0,-1,1133,316,0,0
-84,708,0,0,0,0,0,0,0,0,0,-1,1140,316,0,0
-77,708,0,0,0,0,0,0,0,0,0,-1,1147,316,0,0
-70,708,0,0,0,0,0,0,0,0,0,-1,1154,316,0,0
-63,708,0,0,0,0,0,0,0,0,0,-1,1161,316,0,0
-56,708,0,0,0,0,0,0,0,0,0,-1,1168,316,0,0
-49,708,0,0,0,0,0,0,0,0,0,-1,1175,316,0,0
-42,708,0,0,0,0,0,0,0,0,0,-1,1182,316,0,0
-35,708,-2.71204,-6.31558,0,0,0,0,0,0,0,-1,1189,316,-2.712,6.3156
-28,708,-2.92371,-5.53253,0,0,0,0,0,0,0,-1,1196,316,-2.92375,5.53254
-21,708,-0.417969,-24.5911,0,0,0,0,0,0,0,-1,1203,316,-0.418022,24.5911
-14,708,7.1925,-46.7122,0,0,0,0,0,0,0,-1,1210,316,7.19254,46.7122
-7,708,7.17175,-46.4096,0,0,0,0,0,0,0,-1,1217,316,7.17173,46.4096
0,708,6.48279,-46.1234,0,0,0,0,0,0,0,-1,1224,316,6.48273,46.1234
7,708,6.09619,-44.9234,0.0267719,0.086566,-0.00345047,0.0867644,0.0265734,-1.51334,0.0513315,0.044058,1231,316,6.0962,44.9234
14,708,6.31824,-44.4795,0.038372,0.0926805,-0.00968328,0.0943554,0.0366971,-1.39952,0.0549224,0.0429239,1238,316,6.31819,44.4795
21,708,6.65259,-44.1095,0,0,0,0,0,0,0,-1,1245,316,6.65255,44.1095
28,708,6.81909,-43.9256,0,0,0,0,0,0,0,-1,1252,316,6.81903,43.9256
35,708,6.97168,-43.7186,0,0,0,0,0,0,0,-1,1259,316,6.97166,43.7186
42,708,3.81104,-43.7831,0,0,0,0,0,0,0,-1,1266,316,3.81102,43.7831
49,708,4.08691,-44.1688,0.0481012,0.0984547,-0.0212791,0.106243,0.0403133,-1.21995,0.0619307,0.0489729,1273,316,4.08694,44.1688
56,708,4.24878,-44.6139,0.0431618,0.0977569,-0.0227273,0.10598,0.0349392,-1.22365,0.0623595,0.0469669,1280,316,4.24883,44.6138
63,708,5.32935,-45.0774,0.0361095,0.0953603,-0.0240893,0.103918,0.0275517,-1.22945,0.0621645,0.0446734,1287,316,5.32936,45.0774
70,708,6.0481,-45.5564,0,0,0,0,0,0,0,-1,1294,316,6.04816,45.5564
77,708,7.23645,-46.4413,0,0,0,0,0,0,0,-1,1301,316,7.23646,46.4413
84,708,7.97974,-47.0377,0,0,0,0,0,0,0,-1,1308,316,7.97975,47.0377
91,708,2.2677,-43.182,0,0,0,0,0,0,0,-1,1315,316,2.26766,43.182
98,708,1.80652,-43.5766,-0.0117715,0.1273,-0.0411568,0.138567,-0.0230385,-1.30358,0.100938,0.0478704,1322,316,1.80648,43.5766
105,708,1.50146,-44.0009,-0.0144437,0.135898,-0.0468435,0.149299,-0.0278447,-1.29216,0.109996,0.0471101,1329,316,1.50141,44.0009
112,708,1.53369,-44.0062,-0.0134799,0.1438,-0.052574,0.159756,-0.0294352,-1.27615,0.11755,0.0456448,1336,316,1.53365,44.0062
119,708,1.37366,-44.0217,-0.00810981,0.151164,-0.0583684,0.170263,-0.0272095,-1.25455,0.123581,0.0430158,1343,316,1.37369,44.0217
126,708,1.48938,-44.2655,0.00447575,0.156692,-0.0620221,0.178763,-0.0175954,-1.22891,0.125453,0.0458884,1350,316,1.48932,44.2655
133,708,1.92175,-44.1504,0.0177909,0.160991,-0.0619038,0.184041,-0.00525925,-1.21435,0.124484,0.0468304,1357,316,1.92177,44.1504
140,708,2.1853,-44.2238,0,0,0,0,0,0,0,-1,1364,316,2.18526,44.2238
147,708,2.41785,-45.0631,0,0,0,0,0,0,0,-1,1371,316,2.41786,45.0632
154,708,0,0,0,0,0,0,0,0,0,-1,1378,316,0,0
161,708,0,0,0,0,0,0,0,0,0,-1,1385,316,0,0
168,708,0,0,0,0,0,0,0,0,0,-1,1392,316,0,0
175,708,0,0,0,0,0,0,0,0,0,-1,1399,316,0,0
182,708,0,0,0,0,0,0,0,0,0,-1,1406,316,0,0
189,708,0,0,0,0,0,0,0,0,0,-1,1413,316,0,0
196,708,0,0,0,0,0,0,0,0,0,-1,1420,316,0,0
203,708,0,0,0,0,0,0,0,0,0,-1,1427,316,0,0
210,708,0,0,0,0,0,0,0,0,0,-1,1434,316,0,0
217,708,0,0,0,0,0,0,0,0,0,-1,1441,316,0,0
224,708,0,0,0,0,0,0,0,0,0,-1,1448,316,0,0
231,708,0,0,0,0,0,0,0,0,0,-1,1455,316,0,0
238,708,0,0,0,0,0,0,0,0,0,-1,1462,316,0,0
245,708,0,0,0,0,0,0,0,0,0,-1,1469,316,0,0
252,708,0,0,0,0,0,0,0,0,0,-1,1476,316,0,0
259,708,0,0,0,0,0,0,0,0,0,-1,1483,316,0,0
266,708,0,0,0,0,0,0,0,0,0,-1,1490,316,0,0
273,708,0,0,0,0,0,0,0,0,0,-1,1497,316,0,0
280,708,0,0,0,0,0,0,0,0,0,-1,1504,316,0,0
287,708,0,0,0,0,0,0,0,0,0,-1,1511,316,0,0
294,708,0,0,0,0,0,0,0,0,0,-1,1518,316,0,0
301,708,0,0,0,0,0,0,0,0,0,-1,1525,316,0,0
308,708,0,0,0,0,0,0,0,0,0,-1,1532,316,0,0
315,708,0,0,0,0,0,0,0,0,0,-1,1539,316,0,0
322,708,0,0,0,0,0,0,0,0,0,-1,1546,316,0,0
329,708,0,0,0,0,0,0,0,0,0,-1,1553,316,0,0
336,708,0,0,0,0,0,0,0,0,0,-1,1560,316,0,0
343,708,0,0,0,0,0,0,0,0,0,-1,1567,316,0,0
350,708,0,0,0,0,0,0,0,0,0,-1,1574,316,0,0
357,708,0,0,0,0,0,0,0,0,0,-1,1581,316,0,0
364,708,0,0,0,0,0,0,0,0,0,-1,1588,316,0,0
371,708,0,0,0,0,0,0,0,0,0,-1,1595,316,0,0
378,708,0,0,0,0,0,0,0,0,0,-1,1602,316,0,0
385,708,0,0,0,0,0,0,0,0,0,-1,1609,316,0,0
392,708,0,0,0,0,0,0,0,0,0,-1,1616,316,0,0
399,708,0,0,0,0,0,0,0,0,0,-1,1623,316,0,0
406,708,0,0,0,0,0,0,0,0,0,-1,1630,316,0,0
413,708,0,0,0,0,0,0,0,0,0,-1,1637,316,0,0
420,708,0,0,0,0,0,0,0,0,0,-1,1644,316,0,0
427,708,0,0,0,0,0,0,0,0,0,-1,1651,316,0,0
434,708,0,0,0,0,0,0,0,0,0,-1,1658,316,0,0
441,708,0,0,0,0,0,0,0,0,0,-1,1665,316,0,0
448,708,0,0,0,0,0,0,0,0,0,-1,1672,316,0,0
455,708,0,0,0,0,0,0,0,0,0,-1,1679,316,0,0
462,708,0,0,0,0,0,0,0,0,0,-1,1686,316,0,0
469,708,0,0,0,0,0,0,0,0,0,-1,1693,316,0,0
476,708,0,0,0,0,0,0,0,0,0,-1,1700,316,0,0
483,708,0,0,0,0,0,0,0,0,0,-1,1707,316,0,0
490,708,0,0,0,0,0,0,0,0,0,-1,1714,316,0,0
497,708,0,0,0,0,0,0,0,0,0,-1,1721,316,0,0
504,708,0,0,0,0,0,0,0,0,0,-1,1728,316,0,0
511,708,0,0,0,0,0,0,0,0,0,-1,1735,316,0,0
518,708,0,0,0,0,0,0,0,0,0,-1,1742,316,0,0
525,708,0,0,0,0,0,0,0,0,0,-1,1749,316,0,0
532,708,0,0,0,0,0,0,0,0,0,-1,1756,316,0,0
539,708,0,0,0,0,0,0,0,0,0,-1,1763,316,0,0
546,708,0,0,0,0,0,0,0,0,0,-1,1770,316,0,0
553,708,0,0,0,0,0,0,0,0,0,-1,1777,316,0,0
560,708,0,0,0,0,0,0,0,0,0,-1,1784,316,0,0
567,708,0,0,0,0,0,0,0,0,0,-1,1791,316,0,0
574,708,0,0,0,0,0,0,0,0,0,-1,1798,316,0,0
581,708,0,0,0,0,0,0,0,0,0,-1,1805,316,0,0
588,708,0,0,0,0,0,0,0,0,0,-1,1812,316,0,0
595,708,0,0,0,0,0,0,0,0,0,-1,1819,316,0,0
602,708,0,0,0,0,0,0,0,0,0,-1,1826,316,0,0
609,708,0,0,0,0,0,0,0,0,0,-1,1833,316,0,0
616,708,0,0,0,0,0,0,0,0,0,-1,1840,316,0,0
623,708,0,0,0,0,0,0,0,0,0,-1,1847,316,0,0
630,708,0,0,0,0,0,0,0,0,0,-1,1854,316,0,0
637,708,0,0,0,0,0,0,0,0,0,-1,1861,316,0,0
644,708,0,0,0,0,0,0,0,0,0,-1,1868,316,0,0
651,708,0,0,0,0,0,0,0,0,0,-1,1875,316,0,0
658,708,0,0,0,0,0,0,0,0,0,-1,1882,316,0,0
665,708,0,0,0,0,0,0,0,0,0,-1,1889,316,0,0
672,708,0,0,0,0,0,0,0,0,0,-1,1896,316,0,0
679,708,0,0,0,0,0,0,0,0,0,-1,1903,316,0,0
686,708,0,0,0,0,0,0,0,0,0,-1,1910,316,0,0
693,708,0,0,0,0,0,0,0,0,0,-1,1917,316,0,0
700,708,0,0,0,0,0,0,0,0,0,-1,1924,316,0,0
707,708,0,0,0,0,0,0,0,0,0,-1,1931,316,0,0
714,708,0,0,0,0,0,0,0,0,0,-1,1938,316,0,0
721,708,0,0,0,0,0,0,0,0,0,-1,1945,316,0,0
728,708,0,0,0,0,0,0,0,0,0,-1,1952,316,0,0
735,708,0,0,0,0,0,0,0,0,0,-1,1959,316,0,0
742,708,0,0,0,0,0,0,0,0,0,-1,1966,316,0,0
749,708,0,0,0,0,0,0,0,0,0,-1,1973,316,0,0
756,708,0,0,0,0,0,0,0,0,0,-1,1980,316,0,0
763,708,0,0,0,0,0,0,0,0,0,-1,1987,316,0,0
770,708,0,0,0,0,0,0,0,0,0,-1,1994,316,0,0
777,708,0,0,0,0,0,0,0,0,0,-1,2001,316,0,0
784,708,0,0,0,0,0,0,0,0,0,-1,2008,316,0,0
791,708,0,0,0,0,0,0,0,0,0,-1,2015,316,0,0
798,708,0,0,0,0,0,0,0,0,0,-1,2022,316,0,0
805,708,0,0,0,0,0,0,0,0,0,-1,2029,316,0,0
812,708,0,0,0,0,0,0,0,0,0,-1,2036,316,0,0
-700,701,0,0,0,0,0,0,0,0,0,-1,524,323,0,0
-693,701,0,0,0,0,0,0,0,0,0,-1,531,323,0,0
-686,701,0,0,0,0,0,0,0,0,0,-1,538,323,0,0
-679,701,0,0,0,0,0,0,0,0,0,-1,545,323,0,0
-672,701,0,0,0,0,0,0,0,0,0,-1,552,323,0,0
-665,701,0,0,0,0,0,0,0,0,0,-1,559,323,0,0
-658,701,0,0,0,0,0,0,0,0,0,-1,566,323,0,0
-651,701,0,0,0,0,0,0,0,0,0,-1,573,323,0,0
-644,701,0,0,0,0,0,0,0,0,0,-1,580,323,0,0
-637,701,0,0,0,0,0,0,0,0,0,-1,587,323,0,0
-630,701,0,0,0,0,0,0,0,0,0,-1,594,323,0,0
-623,701,0,0,0,0,0,0,0,0,0,-1,601,323,0,0
-616,701,0,0,0,0,0,0,0,0,0,-1,608,323,0,0
-609,701,0,0,0,0,0,0,0,0,0,-1,615,323,0,0
-602,701,0,0,0,0,0,0,0,0,0,-1,622,323,0,0
-595,701,0,0,0,0,0,0,0,0,0,-1,629,323,0,0
-588,701,0,0,0,0,0,0,0,0,0,-1,636,323,0,0
-581,701,0,0,0,0,0,0,0,0,0,-1,643,323,0,0
-574,701,0,0,0,0,0,0,0,0,0,-1,650,323,0,0
-567,701,0,0,0,0,0,0,0,0,0,-1,657,323,0,0
-560,701,0,0,0,0,0,0,0,0,0,-1,664,323,0,0
-553,701,0,0,0,0,0,0,0,0,0,-1,671,323,0,0
-546,701,0,0,0,0,0,0,0,0,0,-1,678,323,0,0
-539,701,0,0,0,0,0,0,0,0,0,-1,685,323,0,0
-532,701,0,0,0,0,0,0,0,0,0,-1,692,323,0,0
-525,701,0,0,0,0,0,0,0,0,0,-1,699,323,0,0
-518,701,0,0,0,0,0,0,0,0,0,-1,706,323,0,0
-511,701,0,0,0,0,0,0,0,0,0,-1,713,323,0,0
-504,701,0,0,0,0,0,0,0,0,0,-1,720,323,0,0
-497,701,0,0,0,0,0,0,0,0,0,-1,727,323,0,0
-490,701,0,0,0,0,0,0,0,0,0,-1,734,323,0,0
-483,701,0,0,0,0,0,0,0,0,0,-1,741,323,0,0
-476,701,0,0,0,0,0,0,0,0,0,-1,748,323,0,0
-469,701,0,0,0,0,0,0,0,0,0,-1,755,323,0,0
-462,701,0,0,0,0,0,0,0,0,0,-1,762,323,0,0
-455,701,0,0,0,0,0,0,0,0,0,-1,769,323,0,0
-448,701,0,0,0,0,0,0,0,0,0,-1,776,323,0,0
-441,701,0,0,0,0,0,0,0,0,0,-1,783,323,0,0
-434,701,0,0,0,0,0,0,0,0,0,-1,790,323,0,0
-427,701,0,0,0,0,0,0,0,0,0,-1,797,323,0,0
-420,701,0,0,0,0,0,0,0,0,0,-1,804,323,0,0
-413,701,0,0,0,0,0,0,0,0,0,-1,811,323,0,0
-406,701,0,0,0,0,0,0,0,0,0,-1,818,323,0,0
-399,701,0,0,0,0,0,0,0,0,0,-1,825,323,0,0
-392,701,0,0,0,0,0,0,0,0,0,-1,832,323,0,0
-385,701,0,0,0,0,0,0,0,0,0,-1,839,323,0,0
-378,701,0,0,0,0,0,0,0,0,0,-1,846,323,0,0
-371,701,0,0,0,0,0,0,0,0,0,-1,853,323,0,0
-364,701,0,0,0,0,0,0,0,0,0,-1,860,323,0,0
-357,701,0,0,0,0,0,0,0,0,0,-1,867,323,0,0
-350,701,0,0,0,0,0,0,0,0,0,-1,874,323,0,0
-343,701,0,0,0,0,0,0,0,0,0,-1,881,323,0,0
-336,701,0,0,0,0,0,0,0,0,0,-1,888,323,0,0
-329,701,0,0,0,0,0,0,0,0,0,-1,895,323,0,0
-322,701,0,0,0,0,0,0,0,0,0,-1,902,323,0,0
-315,701,0,0,0,0,0,0,0,0,0,-1,909,323,0,0
-308,701,0,0,0,0,0,0,0,0,0,-1,916,323,0,0
-301,701,0,0,0,0,0,0,0,0,0,-1,923,323,0,0
-294,701,0,0,0,0,0,0,0,0,0,-1,930,323,0,0
-287,701,0,0,0,0,0,0,0,0,0,-1,937,323,0,0
-280,701,0,0,0,0,0,0,0,0,0,-1,944,323,0,0
-273,701,0,0,0,0,0,0,0,0,0,-1,951,323,0,0
-266,701,0,0,0,0,0,0,0,0,0,-1,958,323,0,0
-259,701,0,0,0,0,0,0,0,0,0,-1,965,323,0,0
-252,701,0,0,0,0,0,0,0,0,0,-1,972,323,0,0
-245,701,0,0,0,0,0,0,0,0,0,-1,979,323,0,0
-238,701,0,0,0,0,0,0,0,0,0,-1,986,323,0,0
-231,701,0,0,0,0,0,0,0,0,0,-1,993,323,0,0
-224,701,0,0,0,0,0,0,0,0,0,-1,1000,323,0,0
-217,701,0,0,0,0,0,0,0,0,0,-1,1007,323,0,0
-210,701,0,0,0,0,0,0,0,0,0,-1,1014,323,0,0
-203,701,0,0,0,0,0,0,0,0,0,-1,1021,323,0,0
-196,701,0,0,0,0,0,0,0,0,0,-1,1028,323,0,0
-189,701,0,0,0,0,0,0,0,0,0,-1,1035,323,0,0
-182,701,0,0,0,0,0,0,0,0,0,-1,1042,323,0,0
-175,701,0,0,0,0,0,0,0,0,0,-1,1049,323,0,0
-168,701,0,0,0,0,0,0,0,0,0,-1,1056,323,0,0
-161,701,0,0,0,0,0,0,0,0,0,-1,1063,323,0,0
-154,701,0,0,0,0,0,0,0,0,0,-1,1070,323,0,0
-147,701,0,0,0,0,0,0,0,0,0,-1,1077,323,0,0
-140,701,0,0,0,0,0,0,0,0,0,-1,1084,323,0,0
-133,701,0,0,0,0,0,0,0,0,0,-1,1091,323,0,0
-126,701,0,0,0,0,0,0,0,0,0,-1,1098,323,0,0
-119,701,0,0,0,0,0,0,0,0,0,-1,1105,323,0,0
-112,701,0,0,0,0,0,0,0,0,0,-1,1112,323,0,0
-105,701,0,0,0,0,0,0,0,0,0,-1,1119,323,0,0
-98,701,0,0,0,0,0,0,0,0,0,-1,1126,323,0,0
-91,701,0,0,0,0,0,0,0,0,0,-1,1133,323,0,0
-84,701,0,0,0,0,0,0,0,0,0,-1,1140,323,0,0
-77,701,0,0,0,0,0,0,0,0,0,-1,1147,323,0,0
-70,701,-12.7566,-30.413,0,0,0,0,0,0,0,-1,1154,323,-12.7566,30.413
-63,701,-18.3169,-21.2322,0,0,0,0,0,0,0,-1,1161,323,-18.3169,21.2322
-56,701,-0.420166,-0.101776,0,0,0,0,0,0,0,-1,1168,323,-0.420119,0.101777
-49,701,-1.09021,-0.155762,0,0,0,0,0,0,0,-1,1175,323,-1.09024,0.155768
-42,701,-0.210327,-0.299133,0,0,0,0,0,0,0,-1,1182,323,-0.210379,0.29914
-35,701,-2.9635,-7.98676,0,0,0,0,0,0,0,-1,1189,323,-2.9635,7.98676
-28,701,-6.64417,-5.4917,0,0,0,0,0,0,0,-1,1196,323,-6.64411,5.4917
-21,701,7.48828,-47.0165,0,0,0,0,0,0,0,-1,1203,323,7.48826,47.0165
-14,701,7.28528,-46.7724,-0.00208725,0.0504276,0.00802288,0.051626,-0.00328559,1.42253,0.0355631,0.0496264,1210,323,7.28531,46.7724
-7,701,7.00378,-46.5109,0.0056744,0.0638309,0.00575397,0.0643947,0.00511057,1.47312,0.0413317,0.0437569,1217,323,7.00379,46.5109
0,701,6.62439,-46.2929,0.0123045,0.0731894,0.00235942,0.0732807,0.0122132,1.53212,0.0453344,0.04681,1224,323,6.62441,46.2929
7,701,6.5741,-45.7239,0.0195238,0.0799252,-0.00256465,0.0800339,0.0194151,-1.52844,0.0482056,0.0422478,1231,323,6.57413,45.7239
14,701,6.96448,-45.166,0.0287993,0.0848768,-0.00736292,0.0858275,0.0278486,-1.4424,0.0505601,0.0446478,1238,323,6.96449,45.166
21,701,7.17603,-44.643,0,0,0,0,0,0,0,-1,1245,323,7.17604,44.643
28,701,7.20605,-44.7508,0.0377035,0.0874789,-0.0116533,0.090072,0.0351103,-1.35184,0.0524224,0.0444787,1252,323,7.20604,44.7508
35,701,7.50232,-44.6953,0,0,0,0,0,0,0,-1,1259,323,7.50238,44.6953
42,701,3.97083,-44.4074,0,0,0,0,0,0,0,-1,1266,323,3.97079,44.4074
49,701,4.28625,-44.8297,0.0335105,0.0923792,-0.0162903,0.0965864,0.0293033,-1.31805,0.0571832,0.0475758,1273,323,4.28627,44.8297
56,701,4.59399,-45.2924,0.0285403,0.0930915,-0.0175841,0.0975707,0.0240611,-1.32137,0.0586944,0.0455277,1280,323,4.59398,45.2924
63,701,5.17822,-45.6867,0.021197,0.09242,-0.0190421,0.0971915,0.0164255,-1.32528,0.0600724,0.044948,1287,323,5.17821,45.6867
70,701,6.17139,-46.328,0.0108251,0.0949361,-0.0201493,0.0995138,0.00624739,-1.3474,0.0643612,0.0467234,1294,323,6.17133,46.328
77,701,7.00439,-47.0912,0.00094564,0.100036,-0.0228259,0.105041,-0.0040596,-1.35493,0.071419,0.0475362,1301,323,7.0044,47.0912
84,701,3.99182,-45.6382,-0.00735661,0.105961,-0.0261423,0.111701,-0.0130968,-1.35465,0.079195,0.0450111,1308,323,3.9918,45.6382
91,701,2.26807,-43.7173,0,0,0,0,0,0,0,-1,1315,323,2.2681,43.7173
98,701,2.17664,-44.1415,-0.0175266,0.119972,-0.036153,0.128898,-0.026453,-1.32873,0.0959729,0.0476045,1322,323,2.17662,44.1415
105,701,2.06055,-44.5196,-0.0190259,0.126201,-0.0409777,0.136966,-0.0297904,-1.31391,0.102691,0.0469107,1329,323,2.06049,44.5196
112,701,1.92212,-44.9066,-0.0176985,0.131578,-0.0457143,0.144465,-0.0305855,-1.29602,0.107959,0.0425314,1336,323,1.92206,44.9067
119,701,1.93323,-45.1317,-0.0134163,0.136237,-0.0502039,0.151518,-0.0286977,-1.27532,0.111813,0.042299,1343,323,1.93323,45.1317
126,701,2.31616,-45.2694,-0.00411547,0.13972,-0.0530331,0.157159,-0.0215548,-1.2531,0.112647,0.0472561,1350,323,2.3161,45.2694
133,701,2.46936,-45.6694,0.00604891,0.142719,-0.0533963,0.161106,-0.0123389,-1.23915,0.111745,0.0485023,1357,323,2.4693,45.6694
140,701,2.53564,-45.8214,0,0,0,0,0,0,0,-1,1364,323,2.53568,45.8214
147,701,2.6051,-45.8753,0,0,0,0,0,0,0,-1,1371,323,2.60505,45.8753
154,701,2.54138,-45.8786,0,0,0,0,0,0,0,-1,1378,323,2.54136,45.8786
161,701,-0.704102,-37.5125,0,0,0,0,0,0,0,-1,1385,323,-0.704147,37.5126
168,701,30.7272,1.76184,0,0,0,0,0,0,0,-1,1392,323,30.7272,-1.76184
175,701,31.5035,2.25711,0,0,0,0,0,0,0,-1,1399,323,31.5036,-2.25712
182,701,8.80652,5.42807,0,0,0,0,0,0,0,-1,1406,323,8.8065,-5.42808
189,701,8.58081,4.24493,0,0,0,0,0,0,0,-1,1413,323,8.58082,-4.24494
196,701,0,0,0,0,0,0,0,0,0,-1,1420,323,0,0
203,701,0,0,0,0,0,0,0,0,0,-1,1427,323,0,0
210,701,0,0,0,0,0,0,0,0,0,-1,1434,323,0,0
217,701,0,0,0,0,0,0,0,0,0,-1,1441,323,0,0
224,701,0,0,0,0,0,0,0,0,0,-1,1448,323,0,0
231,701,0,0,0,0,0,0,0,0,0,-1,1455,323,0,0
238,701,0,0,0,0,0,0,0,0,0,-1,1462,323,0,0
245,701,0,0,0,0,0,0,0,0,0,-1,1469,323,0,0
252,701,0,0,0,0,0,0,0,0,0,-1,1476,323,0,0
259,701,0,0,0,0,0,0,0,0,0,-1,1483,323,0,0
266,701,0,0,0,0,0,0,0,0,0,-1,1490,323,0,0
273,701,0,0,0,0,0,0,0,0,0,-1,1497,323,0,0
280,701,0,0,0,0,0,0,0,0,0,-1,1504,323,0,0
287,701,0,0,0,0,0,0,0,0,0,-1,1511,323,0,0
294,701,0,0,0,0,0,0,0,0,0,-1,1518,323,0,0
301,701,0,0,0,0,0,0,0,0,0,-1,1525,323,0,0
308,701,0,0,0,0,0,0,0,0,0,-1,1532,323,0,0
315,701,0,0,0,0,0,0,0,0,0,-1,1539,323,0,0
322,701,0,0,0,0,0,0,0,0,0,-1,1546,323,0,0
329,701,0,0,0,0,0,0,0,0,0,-1,1553,323,0,0
336,701,0,0,0,0,0,0,0,0,0,-1,1560,323,0,0
343,701,0,0,0,0,0,0,0,0,0,-1,1567,323,0,0
350,701,0,0,0,0,0,0,0,0,0,-1,1574,323,0,0
357,701,0,0,0,0,0,0,0,0,0,-1,1581,323,0,0
364,701,0,0,0,0,0,0,0,0,0,-1,1588,323,0,0
371,701,0,0,0,0,0,0,0,0,0,-1,1595,323,0,0
378,701,0,0,0,0,0,0,0,0,0,-1,1602,323,0,0
385,701,0,0,0,0,0,0,0,0,0,-1,1609,323,0,0
392,701,0,0,0,0,0,0,0,0,0,-1,1616,323,0,0
399,701,0,0,0,0,0,0,0,0,0,-1,1623,323,0,0
406,701,0,0,0,0,0,0,0,0,0,-1,1630,323,0,0
413,701,0,0,0,0,0,0,0,0,0,-1,1637,323,0,0
420,701,0,0,0,0,0,0,0,0,0,-1,1644,323,0,0
427,701,0,0,0,0,0,0,0,0,0,-1,1651,323,0,0
434,701,0,0,0,0,0,0,0,0,0,-1,1658,323,0,0
441,701,0,0,0,0,0,0,0,0,0,-1,1665,323,0,0
448,701,0,0,0,0,0,0,0,0,0,-1,1672,323,0,0
455,701,0,0,0,0,0,0,0,0,0,-1,1679,323,0,0
462,701,0,0,0,0,0,0,0,0,0,-1,1686,323,0,0
469,701,0,0,0,0,0,0,0,0,0,-1,1693,323,0,0
476,701,0,0,0,0,0,0,0,0,0,-1,1700,323,0,0
483,701,0,0,0,0,0,0,0,0,0,-1,1707,323,0,0
490,701,0,0,0,0,0,0,0,0,0,-1,1714,323,0,0
497,701,0,0,0,0,0,0,0,0,0,-1,1721,323,0,0
504,701,0,0,0,0,0,0,0,0,0,-1,1728,323,0,0
511,701,0,0,0,0,0,0,0,0,0,-1,1735,323,0,0
518,701,0,0,0,0,0,0,0,0,0,-1,1742,323,0,0
525,701,0,0,0,0,0,0,0,0,0,-1,1749,323,0,0
532,701,0,0,0,0,0,0,0,0,0,-1,1756,323,0,0
539,701,0,0,0,0,0,0,0,0,0,-1,1763,323,0,0
546,701,0,0,0,0,0,0,0,0,0,-1,1770,323,0,0
553,701,0,0,0,0,0,0,0,0,0,-1,1777,323,0,0
560,701,0,0,0,0,0,0,0,0,0,-1,1784,323,0,0
567,701,0,0,0,0,0,0,0,0,0,-1,1791,323,0,0
574,701,0,0,0,0,0,0,0,0,0,-1,1798,323,0,0
581,701,0,0,0,0,0,0,0,0,0,-1,1805,323,0,0
588,701,0,0,0,0,0,0,0,0,0,-1,1812,323,0,0
595,701,0,0,0,0,0,0,0,0,0,-1,1819,323,0,0
602,701,0,0,0,0,0,0,0,0,0,-1,1826,323,0,0
609,701,0,0,0,0,0,0,0,0,0,-1,1833,323,0,0
616,701,0,0,0,0,0,0,0,0,0,-1,1840,323,0,0
623,701,0,0,0,0,0,0,0,0,0,-1,1847,323,0,0
630,701,0,0,0,0,0,0,0,0,0,-1,1854,323,0,0
637,701,0,0,0,0,0,0,0,0,0,-1,1861,323,0,0
644,701,0,0,0,0,0,0,0,0,0,-1,1868,323,0,0
651,701,0,0,0,0,0,0,0,0,0,-1,1875,323,0,0
658,701,0,0,0,0,0,0,0,0,0,-1,1882,323,0,0
665,701,0,0,0,0,0,0,0,0,0,-1,1889,323,0,0
672,701,0,0,0,0,0,0,0,0,0,-1,1896,323,0,0
679,701,0,0,0,0,0,0,0,0,0,-1,1903,323,0,0
686,701,0,0,0,0,0,0,0,0,0,-1,1910,323,0,0
693,701,0,0,0,0,0,0,0,0,0,-1,1917,323,0,0
700,701,0,0,0,0,0,0,0,0,0,-1,1924,323,0,0
707,701,0,0,0,0,0,0,0,0,0,-1,1931,323,0,0
714,701,0,0,0,0,0,0,0,0,0,-1,1938,323,0,0
721,701,0,0,0,0,0,0,0,0,0,-1,1945,323,0,0
728,701,0,0,0,0,0,0,0,0,0,-1,1952,323,0,0
735,701,0,0,0,0,0,0,0,0,0,-1,1959,323,0,0
742,701,0,0,0,0,0,0,0,0,0,-1,1966,323,0,0
749,701,0,0,0,0,0,0,0,0,0,-1,1973,323,0,0
756,701,0,0,0,0,0,0,0,0,0,-1,1980,323,0,0
763,701,0,0,0,0,0,0,0,0,0,-1,1987,323,0,0
770,701,0,0,0,0,0,0,0,0,0,-1,1994,323,0,0
777,701,0,0,0,0,0,0,0,0,0,-1,2001,323,0,0
784,701,0,0,0,0,0,0,0,0,0,-1,2008,323,0,0
791,701,0,0,0,0,0,0,0,0,0,-1,2015,323,0,0
798,701,0,0,0,0,0,0,0,0,0,-1,2022,323,0,0
805,701,0,0,0,0,0,0,0,0,0,-1,2029,323,0,0
812,701,0,0,0,0,0,0,0,0,0,-1,2036,323,0,0
-700,694,0,0,0,0,0,0,0,0,0,-1,524,330,0,0
-693,694,0,0,0,0,0,0,0,0,0,-1,531,330,0,0
-686,694,0,0,0,0,0,0,0,0,0,-1,538,330,0,0
-679,694,0,0,0,0,0,0,0,0,0,-1,545,330,0,0
-672,694,0,0,0,0,0,0,0,0,0,-1,552,330,0,0
-665,694,0,0,0,0,0,0,0,0,0,-1,559,330,0,0
-658,694,0,0,0,0,0,0,0,0,0,-1,566,330,0,0
-651,694,0,0,0,0,0,0,0,0,0,-1,573,330,0,0
-644,694,0,0,0,0,0,0,0,0,0,-1,580,330,0,0
-637,694,0,0,0,0,0,0,0,0,0,-1,587,330,0,0
-630,694,0,0,0,0,0,0,0,0,0,-1,594,330,0,0
-623,694,0,0,0,0,0,0,0,0,0,-1,601,330,0,0
-616,694,0,0,0,0,0,0,0,0,0,-1,608,330,0,0
-609,694,0,0,0,0,0,0,0,0,0,-1,615,330,0,0
-602,694,0,0,0,0,0,0,0,0,0,-1,622,330,0,0
-595,694,0,0,0,0,0,0,0,0,0,-1,629,330,0,0
-588,694,0,0,0,0,0,0,0,0,0,-1,636,330,0,0
-581,694,0,0,0,0,0,0,0,0,0,-1,643,330,0,0
-574,694,0,0,0,0,0,0,0,0,0,-1,650,330,0,0
-567,694,0,0,0,0,0,0,0,0,0,-1,657,330,0,0
-560,694,0,0,0,0,0,0,0,0,0,-1,664,330,0,0
-553,694,0,0,0,0,0,0,0,0,0,-1,671,330,0,0
-546,694,0,0,0,0,0,0,0,0,0,-1,678,330,0,0
-539,694,0,0,0,0,0,0,0,0,0,-1,685,330,0,0
-532,694,0,0,0,0,0,0,0,0,0,-1,692,330,0,0
-525,694,0,0,0,0,0,0,0,0,0,-1,699,330,0,0
-518,694,0,0,0,0,0,0,0,0,0,-1,706,330,0,0
-511,694,0,0,0,0,0,0,0,0,0,-1,713,330,0,0
-504,694,0,0,0,0,0,0,0,0,0,-1,720,330,0,0
-497,694,0,0,0,0,0,0,0,0,0,-1,727,330,0,0
-490,694,0,0,0,0,0,0,0,0,0,-1,734,330,0,0
-483,694,0,0,0,0,0,0,0,0,0,-1,741,330,0,0
-476,694,0,0,0,0,0,0,0,0,0,-1,748,330,0,0
-469,694,0,0,0,0,0,0,0,0,0,-1,755,330,0,0
-462,694,0,0,0,0,0,0,0,0,0,-1,762,330,0,0
-455,694,0,0,0,0,0,0,0,0,0,-1,769,330,0,0
-448,694,0,0,0,0,0,0,0,0,0,-1,776,330,0,0
-441,694,0,0,0,0,0,0,0,0,0,-1,783,330,0,0
-434,694,0,0,0,0,0,0,0,0,0,-1,790,330,0,0
-427,694,0,0,0,0,0,0,0,0,0,-1,797,330,0,0
-420,694,0,0,0,0,0,0,0,0,0,-1,804,330,0,0
-413,694,0,0,0,0,0,0,0,0,0,-1,811,330,0,0
-406,694,0,0,0,0,0,0,0,0,0,-1,818,330,0,0
-399,694,0,0,0,0,0,0,0,0,0,-1,825,330,0,0
-392,694,0,0,0,0,0,0,0,0,0,-1,832,330,0,0
-385,694,0,0,0,0,0,0,0,0,0,-1,839,330,0,0
-378,694,0,0,0,0,0,0,0,0,0,-1,846,330,0,0
-371,694,0,0,0,0,0,0,0,0,0,-1,853,330,0,0
-364,694,0,0,0,0,0,0,0,0,0,-1,860,330,0,0
-357,694,0,0,0,0,0,0,0,0,0,-1,867,330,0,0
-350,694,0,0,0,0,0,0,0,0,0,-1,874,330,0,0
-343,694,0,0,0,0,0,0,0,0,0,-1,881,330,0,0
-336,694,0,0,0,0,0,0,0,0,0,-1,888,330,0,0
-329,694,0,0,0,0,0,0,0,0,0,-1,895,330,0,0
-322,694,0,0,0,0,0,0,0,0,0,-1,902,330,0,0
-315,694,0,0,0,0,0,0,0,0,0,-1,909,330,0,0
-308,694,0,0,0,0,0,0,0,0,0,-1,916,330,0,0
-301,694,0,0,0,0,0,0,0,0,0,-1,923,330,0,0
-294,694,0,0,0,0,0,0,0,0,0,-1,930,330,0,0
-287,694,0,0,0,0,0,0,0,0,0,-1,937,330,0,0
-280,694,0,0,0,0,0,0,0,0,0,-1,944,330,0,0
-273,694,0,0,0,0,0,0,0,0,0,-1,951,330,0,0
-266,694,0,0,0,0,0,0,0,0,0,-1,958,330,0,0
-259,694,0,0,0,0,0,0,0,0,0,-1,965,330,0,0
-252,694,0,0,0,0,0,0,0,0,0,-1,972,330,0,0
-245,694,0,0,0,0,0,0,0,0,0,-1,979,330,0,0
-238,694,0,0,0,0,0,0,0,0,0,-1,986,330,0,0
-231,694,0,0,0,0,0,0,0,0,0,-1,993,330,0,0
-224,694,0,0,0,0,0,0,0,0,0,-1,1000,330,0,0
-217,694,0,0,0,0,0,0,0,0,0,-1,1007,330,0,0
-210,694,0,0,0,0,0,0,0,0,0,-1,1014,330,0,0
-203,694,0,0,0,0,0,0,0,0,0,-1,1021,330,0,0
-196,694,0,0,0,0,0,0,0,0,0,-1,1028,330,0,0
-189,694,0,0,0,0,0,0,0,0,0,-1,1035,330,0,0
-182,694,0,0,0,0,0,0,0,0,0,-1,1042,330,0,0
-175,694,0,0,0,0,0,0,0,0,0,-1,1049,330,0,0
-168,694,0,0,0,0,0,0,0,0,0,-1,1056,330,0,0
-161,694,0,0,0,0,0,0,0,0,0,-1,1063,330,0,0
-154,694,0,0,0,0,0,0,0,0,0,-1,1070,330,0,0
-147,694,0,0,0,0,0,0,0,0,0,-1,1077,330,0,0
-140,694,0,0,0,0,0,0,0,0,0,-1,1084,330,0,0
-133,694,0,0,0,0,0,0,0,0,0,-1,1091,330,0,0
-126,694,0,0,0,0,0,0,0,0,0,-1,1098,330,0,0
-119,694,0,0,0,0,0,0,0,0,0,-1,1105,330,0,0
-112,694,0,0,0,0,0,0,0,0,0,-1,1112,330,0,0
-105,694,2.5188,-19.3963,0,0,0,0,0,0,0,-1,1119,330,2.51882,19.3963
-98,694,1.34875,-10.1051,0,0,0,0,0,0,0,-1,1126,330,1.34874,10.1051
-91,694,6.62366,-46.8039,0,0,0,0,0,0,0,-1,1133,330,6.62363,46.8039
-84,694,0.0577393,-40.8823,0,0,0,0,0,0,0,-1,1140,330,0.0577026,40.8823
-77,694,-5.51379,-31.2714,0,0,0,0,0,0,0,-1,1147,330,-5.51383,31.2714
-70,694,-11.9945,-25.5143,0,0,0,0,0,0,0,-1,1154,330,-11.9945,25.5143
-63,694,-18.4752,-19.7572,0,0,0,0,0,0,0,-1,1161,330,-18.4752,19.7572
-56,694,-6.50623,-0.649139,0,0,0,0,0,0,0,-1,1168,330,-6.5062,0.649126
-49,694,-1.11426,0.0341797,0,0,0,0,0,0,0,-1,1175,330,-1.11424,-0.0341846
-42,694,-0.346313,-0.709595,0,0,0,0,0,0,0,-1,1182,330,-0.346298,0.709581
-35,694,-0.459106,-1.24713,0,0,0,0,0,0,0,-1,1189,330,-0.459142,1.24714
-28,694,-6.48413,-3.95972,0,0,0,0,0,0,0,-1,1196,330,-6.48414,3.9597
-21,694,6.61938,-46.884,0,0,0,0,0,0,0,-1,1203,330,6.61943,46.884
-14,694,7.03833,-46.7727,-0.00175665,0.0515841,0.00502792,0.0520539,-0.00222645,1.47763,0.035468,0.0474726,1210,330,7.03831,46.7727
-7,694,7.12927,-46.6309,0.0031415,0.0603736,0.00369483,0.0606112,0.00290396,1.50659,0.0394751,0.0428334,1217,330,7.12925,46.6309
0,694,7.00244,-46.4956,0.00792652,0.0669026,0.00138621,0.0669351,0.00789396,1.54731,0.0422387,0.0443626,1224,330,7.00246,46.4956
7,694,6.94556,-46.2701,0.01338,0.0717738,-0.00204414,0.0718452,0.0133086,-1.53585,0.0441346,0.0452332,1231,330,6.94557,46.2701
14,694,6.94177,-46.0975,0,0,0,0,0,0,0,-1,1238,330,6.94183,46.0975
21,694,7.1189,-45.6826,0,0,0,0,0,0,0,-1,1245,330,7.11886,45.6826
28,694,7.48303,-46.0368,0,0,0,0,0,0,0,-1,1252,330,7.483,46.0368
35,694,2.49756,-44.8475,0,0,0,0,0,0,0,-1,1259,330,2.49762,44.8475
42,694,3.29626,-45.07,0,0,0,0,0,0,0,-1,1266,330,3.29626,45.07
49,694,4.30981,-45.4015,0.022074,0.0837788,-0.0122838,0.0861342,0.0197185,-1.38134,0.0521088,0.0449793,1273,330,4.30987,45.4015
56,694,4.89075,-45.8786,0.0173587,0.0853013,-0.0134186,0.0878554,0.0148046,-1.3827,0.0543122,0.0424867,1280,330,4.8908,45.8786
63,694,5.29688,-46.2504,0.0104879,0.0857049,-0.0148753,0.0885399,0.0076529,-1.38247,0.0566482,0.0441408,1287,330,5.29693,46.2504
70,694,5.74341,-46.7354,0.00170286,0.0887044,-0.0162483,0.0916399,-0.0012326,-1.39206,0.0615082,0.0462205,1294,330,5.74341,46.7354
77,694,4.35645,-45.6797,-0.00584771,0.0931628,-0.0189455,0.0966642,-0.00934909,-1.38805,0.0677745,0.0483088,1301,330,4.35642,45.6797
84,694,4.53955,-46.1363,-0.0124086,0.0981199,-0.0221412,0.10239,-0.016679,-1.38027,0.0744453,0.0447648,1308,330,4.53959,46.1363
91,694,4.42126,-45.6794,-0.0173559,0.103584,-0.0263292,0.109067,-0.0228393,-1.36547,0.0813996,0.0459868,1315,330,4.42122,45.6794
98,694,3.82104,-45.4752,-0.019702,0.108493,-0.0306842,0.115459,-0.0266679,-1.34756,0.0872315,0.0458469,1322,330,3.82102,45.4751
105,694,2.74719,-45.1838,-0.0205206,0.112991,-0.0345918,0.121421,-0.0289508,-1.33175,0.0921267,0.0436179,1329,330,2.74723,45.1838
112,694,2.45178,-45.766,-0.0192421,0.116664,-0.0383632,0.126745,-0.0293233,-1.31382,0.0957792,0.0435753,1336,330,2.45175,45.766
119,694,3.32703,-45.6463,0,0,0,0,0,0,0,-1,1343,330,3.32707,45.6463
126,694,3.03394,-45.9067,-0.00928328,0.121788,-0.0439601,0.135166,-0.0226616,-1.27537,0.0985372,0.0491181,1350,330,3.03389,45.9067
133,694,2.76123,-46.2206,-0.00149406,0.123907,-0.0445469,0.138121,-0.0157076,-1.26194,0.0977379,0.0482665,1357,330,2.76127,46.2205
140,694,2.66931,-46.4351,0,0,0,0,0,0,0,-1,1364,330,2.66933,46.4351
147,694,2.61487,-46.8529,0,0,0,0,0,0,0,-1,1371,330,2.61486,46.8529
154,694,2.58276,-46.6445,0,0,0,0,0,0,0,-1,1378,330,2.58276,46.6445
161,694,0.0187988,-38.6779,0,0,0,0,0,0,0,-1,1385,330,0.0187579,38.6779
168,694,30.451,0.196686,0,0,0,0,0,0,0,-1,1392,330,30.4511,-0.196674
175,694,31.0701,0.869873,0,0,0,0,0,0,0,-1,1399,330,31.07,-0.869874
182,694,8.29028,5.75238,0,0,0,0,0,0,0,-1,1406,330,8.29034,-5.75237
189,694,7.9801,4.46118,0,0,0,0,0,0,0,-1,1413,330,7.9801,-4.46118
196,694,7.39331,3.32632,0,0,0,0,0,0,0,-1,1420,330,7.39329,-3.32633
203,694,7.04492,2.20529,0,0,0,0,0,0,0,-1,1427,330,7.04496,-2.20529
210,694,6.44714,0.646912,0,0,0,0,0,0,0,-1,1434,330,6.44717,-0.646903
217,694,7.12061,-0.644958,0,0,0,0,0,0,0,-1,1441,330,7.12059,0.644961
224,694,6.74011,-1.70544,0,0,0,0,0,0,0,-1,1448,330,6.74013,1.70546
231,694,0,0,0,0,0,0,0,0,0,-1,1455,330,0,0
238,694,0,0,0,0,0,0,0,0,0,-1,1462,330,0,0
245,694,0,0,0,0,0,0,0,0,0,-1,1469,330,0,0
252,694,0,0,0,0,0,0,0,0,0,-1,1476,330,0,0
259,694,0,0,0,0,0,0,0,0,0,-1,1483,330,0,0
266,694,0,0,0,0,0,0,0,0,0,-1,1490,330,0,0
273,694,0,0,0,0,0,0,0,0,0,-1,1497,330,0,0
280,694,0,0,0,0,0,0,0,0,0,-1,1504,330,0,0
287,694,0,0,0,0,0,0,0,0,0,-1,1511,330,0,0
294,694,0,0,0,0,0,0,0,0,0,-1,1518,330,0,0
301,694,0,0,0,0,0,0,0,0,0,-1,1525,330,0,0
308,694,0,0,0,0,0,0,0,0,0,-1,1532,330,0,0
315,694,0,0,0,0,0,0,0,0,0,-1,1539,330,0,0
322,694,0,0,0,0,0,0,0,0,0,-1,1546,330,0,0
329,694,0,0,0,0,0,0,0,0,0,-1,1553,330,0,0
336,694,0,0,0,0,0,0,0,0,0,-1,1560,330,0,0
343,694,0,0,0,0,0,0,0,0,0,-1,1567,330,0,0
350,694,0,0,0,0,0,0,0,0,0,-1,1574,330,0,0
357,694,0,0,0,0,0,0,0,0,0,-1,1581,330,0,0
364,694,0,0,0,0,0,0,0,0,0,-1,1588,330,0,0
371,694,0,0,0,0,0,0,0,0,0,-1,1595,330,0,0
378,694,0,0,0,0,0,0,0,0,0,-1,1602,330,0,0
385,694,0,0,0,0,0,0,0,0,0,-1,1609,330,0,0
392,694,0,0,0,0,0,0,0,0,0,-1,1616,330,0,0
399,694,0,0,0,0,0,0,0,0,0,-1,1623,330,0,0
406,694,0,0,0,0,0,0,0,0,0,-1,1630,330,0,0
413,694,0,0,0,0,0,0,0,0,0,-1,1637,330,0,0
420,694,0,0,0,0,0,0,0,0,0,-1,1644,330,0,0
427,694,0,0,0,0,0,0,0,0,0,-1,1651,330,0,0
434,694,0,0,0,0,0,0,0,0,0,-1,1658,330,0,0
441,694,0,0,0,0,0,0,0,0,0,-1,1665,330,0,0
448,694,0,0,0,0,0,0,0,0,0,-1,1672,330,0,0
455,694,0,0,0,0,0,0,0,0,0,-1,1679,330,0,0
462,694,0,0,0,0,0,0,0,0,0,-1,1686,330,0,0
469,694,0,0,0,0,0,0,0,0,0,-1,1693,330,0,0
476,694,0,0,0,0,0,0,0,0,0,-1,1700,330,0,0
483,694,0,0,0,0,0,0,0,0,0,-1,1707,330,0,0
490,694,0,0,0,0,0,0,0,0,0,-1,1714,330,0,0
497,694,0,0,0,0,0,0,0,0,0,-1,1721,330,0,0
504,694,0,0,0,0,0,0,0,0,0,-1,1728,330,0,0
511,694,0,0,0,0,0,0,0,0,0,-1,1735,330,0,0
518,694,0,0,0,0,0,0,0,0,0,-1,1742,330,0,0
525,694,0,0,0,0,0,0,0,0,0,-1,1749,330,0,0
532,694,0,0,0,0,0,0,0,0,0,-1,1756,330,0,0
539,694,0,0,0,0,0,0,0,0,0,-1,1763,330,0,0
546,694,0,0,0,0,0,0,0,0,0,-1,1770,330,0,0
553,694,0,0,0,0,0,0,0,0,0,-1,1777,330,0,0
560,694,0,0,0,0,0,0,0,0,0,-1,1784,330,0,0
567,694,0,0,0,0,0,0,0,0,0,-1,1791,330,0,0
574,694,0,0,0,0,0,0,0,0,0,-1,1798,330,0,0
581,694,0,0,0,0,0,0,0,0,0,-1,1805,330,0,0
588,694,0,0,0,0,0,0,0,0,0,-1,1812,330,0,0
595,694,0,0,0,0,0,0,0,0,0,-1,1819,330,0,0
602,694,0,0,0,0,0,0,0,0,0,-1,1826,330,0,0
609,694,0,0,0,0,0,0,0,0,0,-1,1833,330,0,0
616,694,0,0,0,0,0,0,0,0,0,-1,1840,330,0,0
623,694,0,0,0,0,0,0,0,0,0,-1,1847,330,0,0
630,694,0,0,0,0,0,0,0,0,0,-1,1854,330,0,0
637,694,0,0,0,0,0,0,0,0,0,-1,1861,330,0,0
644,694,0,0,0,0,0,0,0,0,0,-1,1868,330,0,0
651,694,0,0,0,0,0,0,0,0,0,-1,1875,330,0,0
658,694,0,0,0,0,0,0,0,0,0,-1,1882,330,0,0
665,694,0,0,0,0,0,0,0,0,0,-1,1889,330,0,0
672,694,0,0,0,0,0,0,0,0,0,-1,1896,330,0,0
679,694,0,0,0,0,0,0,0,0,0,-1,1903,330,0,0
686,694,0,0,0,0,0,0,0,0,0,-1,1910,330,0,0
693,694,0,0,0,0,0,0,0,0,0,-1,1917,330,0,0
700,694,0,0,0,0,0,0,0,0,0,-1,1924,330,0,0
707,694,0,0,0,0,0,0,0,0,0,-1,1931,330,0,0
714,694,0,0,0,0,0,0,0,0,0,-1,1938,330,0,0
721,694,0,0,0,0,0,0,0,0,0,-1,1945,330,0,0
728,694,0,0,0,0,0,0,0,0,0,-1,1952,330,0,0
735,694,0,0,0,0,0,0,0,0,0,-1,1959,330,0,0
742,694,0,0,0,0,0,0,0,0,0,-1,1966,330,0,0
749,694,0,0,0,0,0,0,0,0,0,-1,1973,330,0,0
756,694,0,0,0,0,0,0,0,0,0,-1,1980,330,0,0
763,694,0,0,0,0,0,0,0,0,0,-1,1987,330,0,0
770,694,0,0,0,0,0,0,0,0,0,-1,1994,330,0,0
777,694,0,0,0,0,0,0,0,0,0,-1,2001,330,0,0
784,694,0,0,0,0,0,0,0,0,0,-1,2008,330,0,0
791,694,0,0,0,0,0,0,0,0,0,-1,2015,330,0,0
798,694,0,0,0,0,0,0,0,0,0,-1,2022,330,0,0
805,694,0,0,0,0,0,0,0,0,0,-1,2029,330,0,0
812,694,0,0,0,0,0,0,0,0,0,-1,2036,330,0,0
-700,687,0,0,0,0,0,0,0,0,0,-1,524,337,0,0
-693,687,0,0,0,0,0,0,0,0,0,-1,531,337,0,0
-686,687,0,0,0,0,0,0,0,0,0,-1,538,337,0,0
-679,687,0,0,0,0,0,0,0,0,0,-1,545,337,0,0
-672,687,0,0,0,0,0,0,0,0,0,-1,552,337,0,0
-665,687,0,0,0,0,0,0,0,0,0,-1,559,337,0,0
-658,687,0,0,0,0,0,0,0,0,0,-1,566,337,0,0
-651,687,0,0,0,0,0,0,0,0,0,-1,573,337,0,0
-644,687,0,0,0,0,0,0,0,0,0,-1,580,337,0,0
-637,687,0,0,0,0,0,0,0,0,0,-1,587,337,0,0
-630,687,0,0,0,0,0,0,0,0,0,-1,594,337,0,0
-623,687,0,0,0,0,0,0,0,0,0,-1,601,337,0,0
-616,687,0,0,0,0,0,0,0,0,0,-1,608,337,0,0
-609,687,0,0,0,0,0,0,0,0,0,-1,615,337,0,0
-602,687,0,0,0,0,0,0,0,0,0,-1,622,337,0,0
-595,687,0,0,0,0,0,0,0,0,0,-1,629,337,0,0
-588,687,0,0,0,0,0,0,0,0,0,-1,636,337,0,0
-581,687,0,0,0,0,0,0,0,0,0,-1,643,337,0,0
-574,687,0,0,0,0,0,0,0,0,0,-1,650,337,0,0
-567,687,0,0,0,0,0,0,0,0,0,-1,657,337,0,0
-560,687,0,0,0,0,0,0,0,0,0,-1,664,337,0,0
-553,687,0,0,0,0,0,0,0,0,0,-1,671,337,0,0
-546,687,0,0,0,0,0,0,0,0,0,-1,678,337,0,0
-539,687,0,0,0,0,0,0,0,0,0,-1,685,337,0,0
-532,687,0,0,0,0,0,0,0,0,0,-1,692,337,0,0
-525,687,0,0,0,0,0,0,0,0,0,-1,699,337,0,0
-518,687,0,0,0,0,0,0,0,0,0,-1,706,337,0,0
-511,687,0,0,0,0,0,0,0,0,0,-1,713,337,0,0
-504,687,0,0,0,0,0,0,0,0,0,-1,720,337,0,0
-497,687,0,0,0,0,0,0,0,0,0,-1,727,337,0,0
-490,687,0,0,0,0,0,0,0,0,0,-1,734,337,0,0
-483,687,0,0,0,0,0,0,0,0,0,-1,741,337,0,0
-476,687,0,0,0,0,0,0,0,0,0,-1,748,337,0,0
-469,687,0,0,0,0,0,0,0,0,0,-1,755,337,0,0
-462,687,0,0,0,0,0,0,0,0,0,-1,762,337,0,0
-455,687,0,0,0,0,0,0,0,0,0,-1,769,337,0,0
-448,687,0,0,0,0,0,0,0,0,0,-1,776,337,0,0
-441,687,0,0,0,0,0,0,0,0,0,-1,783,337,0,0
-434,687,0,0,0,0,0,0,0,0,0,-1,790,337,0,0
-427,687,0,0,0,0,0,0,0,0,0,-1,797,337,0,0
-420,687,0,0,0,0,0,0,0,0,0,-1,804,337,0,0
-413,687,0,0,0,0,0,0,0,0,0,-1,811,337,0,0
-406,687,0,0,0,0,0,0,0,0,0,-1,818,337,0,0
-399,687,0,0,0,0,0,0,0,0,0,-1,825,337,0,0
-392,687,0,0,0,0,0,0,0,0,0,-1,832,337,0,0
-385,687,0,0,0,0,0,0,0,0,0,-1,839,337,0,0
-378,687,0,0,0,0,0,0,0,0,0,-1,846,337,0,0
-371,687,0,0,0,0,0,0,0,0,0,-1,853,337,0,0
-364,687,0,0,0,0,0,0,0,0,0,-1,860,337,0,0
-357,687,0,0,0,0,0,0,0,0,0,-1,867,337,0,0
-350,687,0,0,0,0,0,0,0,0,0,-1,874,337,0,0
-343,687,0,0,0,0,0,0,0,0,0,-1,881,337,0,0
-336,687,0,0,0,0,0,0,0,0,0,-1,888,337,0,0
-329,687,0,0,0,0,0,0,0,0,0,-1,895,337,0,0
-322,687,0,0,0,0,0,0,0,0,0,-1,902,337,0,0
-315,687,0,0,0,0,0,0,0,0,0,-1,909,337,0,0
-308,687,0,0,0,0,0,0,0,0,0,-1,916,337,0,0
-301,687,0,0,0,0,0,0,0,0,0,-1,923,337,0,0
-294,687,0,0,0,0,0,0,0,0,0,-1,930,337,0,0
-287,687,0,0,0,0,0,0,0,0,0,-1,937,337,0,0
-280,687,0,0,0,0,0,0,0,0,0,-1,944,337,0,0
-273,687,0,0,0,0,0,0,0,0,0,-1,951,337,0,0
-266,687,0,0,0,0,0,0,0,0,0,-1,958,337,0,0
-259,687,0,0,0,0,0,0,0,0,0,-1,965,337,0,0
-252,687,0,0,0,0,0,0,0,0,0,-1,972,337,0,0
-245,687,0,0,0,0,0,0,0,0,0,-1,979,337,0,0
-238,687,0,0,0,0,0,0,0,0,0,-1,986,337,0,0
-231,687,0,0,0,0,0,0,0,0,0,-1,993,337,0,0
-224,687,0,0,0,0,0,0,0,0,0,-1,1000,337,0,0
-217,687,0,0,0,0,0,0,0,0,0,-1,1007,337,0,0
-210,687,0,0,0,0,0,0,0,0,0,-1,1014,337,0,0
-203,687,0,0,0,0,0,0,0,0,0,-1,1021,337,0,0
-196,687,0,0,0,0,0,0,0,0,0,-1,1028,337,0,0
-189,687,0,0,0,0,0,0,0,0,0,-1,1035,337,0,0
-182,687,0,0,0,0,0,0,0,0,0,-1,1042,337,0,0
-175,687,0,0,0,0,0,0,0,0,0,-1,1049,337,0,0
-168,687,0,0,0,0,0,0,0,0,0,-1,1056,337,0,0
-161,687,0,0,0,0,0,0,0,0,0,-1,1063,337,0,0
-154,687,0,0,0,0,0,0,0,0,0,-1,1070,337,0,0
-147,687,0,0,0,0,0,0,0,0,0,-1,1077,337,0,0
-140,687,0,0,0,0,0,0,0,0,0,-1,1084,337,0,0
-133,687,7.93958,-37.548,0,0,0,0,0,0,0,-1,1091,337,7.93957,37.548
-126,687,0.688477,-38.7298,0,0,0,0,0,0,0,-1,1098,337,0.688509,38.7298
-119,687,7.70825,-33.9236,0,0,0,0,0,0,0,-1,1105,337,7.70826,33.9236
-112,687,7.99866,-32.2983,0,0,0,0,0,0,0,-1,1112,337,7.99866,32.2983
-105,687,1.3208,-29.8313,0,0,0,0,0,0,0,-1,1119,337,1.3208,29.8313
-98,687,13.7111,-47.5645,0,0,0,0,0,0,0,-1,1126,337,13.711,47.5645
-91,687,7.22083,-41.1667,0,0,0,0,0,0,0,-1,1133,337,7.22079,41.1666
-84,687,0.745117,-35.0345,0,0,0,0,0,0,0,-1,1140,337,0.745155,35.0345
-77,687,-5.74353,-28.9553,0,0,0,0,0,0,0,-1,1147,337,-5.74357,28.9553
-70,687,-11.6842,-19.8473,0,0,0,0,0,0,0,-1,1154,337,-11.6842,19.8473
-63,687,-17.6757,-14.8966,0,0,0,0,0,0,0,-1,1161,337,-17.6756,14.8966
-56,687,-18.104,7.81931,0,0,0,0,0,0,0,-1,1168,337,-18.104,-7.81931
-49,687,-15.6449,-9.94391,0,0,0,0,0,0,0,-1,1175,337,-15.6449,9.94392
-42,687,-4.2019,-0.405609,0,0,0,0,0,0,0,-1,1182,337,-4.20192,0.405614
-35,687,-4.42273,-0.688171,0,0,0,0,0,0,0,-1,1189,337,-4.42276,0.688178
-28,687,-1.14038,-1.39072,0,0,0,0,0,0,0,-1,1196,337,-1.14035,1.3907
-21,687,7.19775,-45.6529,0,0,0,0,0,0,0,-1,1203,337,7.19774,45.6529
-14,687,6.89917,-46.7308,0,0,0,0,0,0,0,-1,1210,337,6.89915,46.7308
-7,687,6.89856,-46.7694,0.000855704,0.0551186,0.00214903,0.0552036,0.000770727,1.53127,0.0365482,0.0449292,1217,337,6.89852,46.7694
0,687,6.8999,-46.6422,0.00429966,0.0595896,0.000614014,0.0595965,0.00429284,1.55969,0.0383801,0.0479985,1224,337,6.89987,46.6422
7,687,7.05469,-46.5073,0.00831832,0.0630077,-0.00168526,0.0630596,0.00826644,-1.54002,0.0395731,0.0480355,1231,337,7.05466,46.5073
14,687,7.97717,-47.0462,0.0137535,0.0660287,-0.00419435,0.0663631,0.0134191,-1.49124,0.0405167,0.0473782,1238,337,7.9772,47.0462
21,687,7.37231,-47.3806,0,0,0,0,0,0,0,-1,1245,337,7.37231,47.3806
28,687,7.48059,-47.4591,0,0,0,0,0,0,0,-1,1252,337,7.48061,47.4591
35,687,7.61609,-47.6237,0,0,0,0,0,0,0,-1,1259,337,7.61603,47.6237
42,687,6.04272,-48.0891,0,0,0,0,0,0,0,-1,1266,337,6.0427,48.0892
49,687,6.13416,-47.9793,0,0,0,0,0,0,0,-1,1273,337,6.13421,47.9793
56,687,6.08984,-47.8965,0,0,0,0,0,0,0,-1,1280,337,6.0899,47.8966
63,687,5.57581,-46.7337,0.00309252,0.0768308,-0.0114201,0.078559,0.00136435,-1.42061,0.0519239,0.0433601,1287,337,5.5758,46.7337
70,687,5.9884,-46.7619,-0.00397016,0.0798373,-0.0128682,0.0817687,-0.0059015,-1.42182,0.0565823,0.0433099,1294,337,5.98835,46.7619
77,687,5.15698,-46.395,-0.00957479,0.0835834,-0.0153913,0.0860605,-0.0120518,-1.41123,0.061784,0.0447484,1301,337,5.15702,46.395
84,687,4.78308,-46.5808,-0.0145884,0.0875803,-0.018269,0.0907488,-0.0177569,-1.39907,0.0672047,0.0460345,1308,337,4.78308,46.5808
91,687,4.48425,-46.5507,-0.0181902,0.0916212,-0.0218099,0.0957943,-0.0223634,-1.38174,0.0724767,0.0452838,1315,337,4.48422,46.5507
98,687,4.01123,-46.6245,-0.0197566,0.0951283,-0.0253065,0.100456,-0.025084,-1.36331,0.0767112,0.0480711,1322,337,4.01123,46.6244
105,687,3.59814,-46.7123,-0.0201845,0.0983642,-0.0283656,0.104802,-0.026622,-1.34763,0.080228,0.0479425,1329,337,3.59816,46.7123
112,687,3.99255,-46.0146,-0.0191048,0.100864,-0.0312833,0.108531,-0.0267722,-1.33044,0.082735,0.0449427,1336,337,3.99253,46.0146
119,687,3.89136,-46.2186,-0.0168288,0.102604,-0.0338304,0.111521,-0.0257458,-1.31308,0.0842509,0.044785,1343,337,3.89132,46.2186
126,687,3.60437,-46.4606,-0.0119527,0.103928,-0.0354826,0.113929,-0.0219542,-1.29605,0.0842302,0.0470627,1350,337,3.60443,46.4606
133,687,3.30969,-46.715,0,0,0,0,0,0,0,-1,1357,337,3.30967,46.715
140,687,3.81824,-46.1673,0,0,0,0,0,0,0,-1,1364,337,3.81828,46.1673
147,687,3.8457,-45.9367,0,0,0,0,0,0,0,-1,1371,337,3.84567,45.9367
154,687,0.390259,-40.2087,0,0,0,0,0,0,0,-1,1378,337,0.390266,40.2087
161,687,29.3895,-1.90628,0,0,0,0,0,0,0,-1,1385,337,29.3895,1.90628
168,687,29.8564,-1.19434,0,0,0,0,0,0,0,-1,1392,337,29.8564,1.19434
175,687,30.3419,-0.453583,0,0,0,0,0,0,0,-1,1399,337,30.3419,0.45357
182,687,6.67249,0.289917,0,0,0,0,0,0,0,-1,1406,337,6.67247,-0.289916
189,687,7.76062,4.53635,0,0,0,0,0,0,0,-1,1413,337,7.76064,-4.53636
196,687,6.99048,3.2966,0,0,0,0,0,0,0,-1,1420,337,6.99046,-3.2966
203,687,6.36499,2.1445,0,0,0,0,0,0,0,-1,1427,337,6.36499,-2.14451
210,687,6.68066,0.674652,0,0,0,0,0,0,0,-1,1434,337,6.68062,-0.674655
217,687,5.99683,-0.630493,0,0,0,0,0,0,0,-1,1441,337,5.99684,0.630497
224,687,5.52917,0.524902,0,0,0,0,0,0,0,-1,1448,337,5.5292,-0.524915
231,687,5.85583,-1.73651,0,0,0,0,0,0,0,-1,1455,337,5.85577,1.73651
238,687,5.96582,-2.96774,0,0,0,0,0,0,0,-1,1462,337,5.96577,2.96773
245,687,1.28259,2.32211,0,0,0,0,0,0,0,-1,1469,337,1.28258,-2.32211
252,687,1.97278,3.88422,0,0,0,0,0,0,0,-1,1476,337,1.97281,-3.88421
259,687,0,0,0,0,0,0,0,0,0,-1,1483,337,0,0
266,687,0,0,0,0,0,0,0,0,0,-1,1490,337,0,0
273,687,0,0,0,0,0,0,0,0,0,-1,1497,337,0,0
280,687,0,0,0,0,0,0,0,0,0,-1,1504,337,0,0
287,687,0,0,0,0,0,0,0,0,0,-1,1511,337,0,0
294,687,0,0,0,0,0,0,0,0,0,-1,1518,337,0,0
301,687,0,0,0,0,0,0,0,0,0,-1,1525,337,0,0
308,687,0,0,0,0,0,0,0,0,0,-1,1532,337,0,0
315,687,0,0,0,0,0,0,0,0,0,-1,1539,337,0,0
322,687,0,0,0,0,0,0,0,0,0,-1,1546,337,0,0
329,687,0,0,0,0,0,0,0,0,0,-1,1553,337,0,0
336,687,0,0,0,0,0,0,0,0,0,-1,1560,337,0,0
343,687,0,0,0,0,0,0,0,0,0,-1,1567,337,0,0
350,687,0,0,0,0,0,0,0,0,0,-1,1574,337,0,0
357,687,0,0,0,0,0,0,0,0,0,-1,1581,337,0,0
364,687,0,0,0,0,0,0,0,0,0,-1,1588,337,0,0
371,687,0,0,0,0,0,0,0,0,0,-1,1595,337,0,0
378,687,0,0,0,0,0,0,0,0,0,-1,1602,337,0,0
385,687,0,0,0,0,0,0,0,0,0,-1,1609,337,0,0
392,687,0,0,0,0,0,0,0,0,0,-1,1616,337,0,0
399,687,0,0,0,0,0,0,0,0,0,-1,1623,337,0,0
406,687,0,0,0,0,0,0,0,0,0,-1,1630,337,0,0
413,687,0,0,0,0,0,0,0,0,0,-1,1637,337,0,0
420,687,0,0,0,0,0,0,0,0,0,-1,1644,337,0,0
427,687,0,0,0,0,0,0,0,0,0,-1,1651,337,0,0
434,687,0,0,0,0,0,0,0,0,0,-1,1658,337,0,0
441,687,0,0,0,0,0,0,0,0,0,-1,1665,337,0,0
448,687,0,0,0,0,0,0,0,0,0,-1,1672,337,0,0
455,687,0,0,0,0,0,0,0,0,0,-1,1679,337,0,0
462,687,0,0,0,0,0,0,0,0,0,-1,1686,337,0,0
469,687,0,0,0,0,0,0,0,0,0,-1,1693,337,0,0
476,687,0,0,0,0,0,0,0,0,0,-1,1700,337,0,0
483,687,0,0,0,0,0,0,0,0,0,-1,1707,337,0,0
490,687,0,0,0,0,0,0,0,0,0,-1,1714,337,0,0
497,687,0,0,0,0,0,0,0,0,0,-1,1721,337,0,0
504,687,0,0,0,0,0,0,0,0,0,-1,1728,337,0,0
511,687,0,0,0,0,0,0,0,0,0,-1,1735,337,0,0
518,687,0,0,0,0,0,0,0,0,0,-1,1742,337,0,0
525,687,0,0,0,0,0,0,0,0,0,-1,1749,337,0,0
532,687,0,0,0,0,0,0,0,0,0,-1,1756,337,0,0
539,687,0,0,0,0,0,0,0,0,0,-1,1763,337,0,0
546,687,0,0,0,0,0,0,0,0,0,-1,1770,337,0,0
553,687,0,0,0,0,0,0,0,0,0,-1,1777,337,0,0
560,687,0,0,0,0,0,0,0,0,0,-1,1784,337,0,0
567,687,0,0,0,0,0,0,0,0,0,-1,1791,337,0,0
574,687,0,0,0,0,0,0,0,0,0,-1,1798,337,0,0
581,687,0,0,0,0,0,0,0,0,0,-1,1805,337,0,0
588,687,0,0,0,0,0,0,0,0,0,-1,1812,337,0,0
595,687,0,0,0,0,0,0,0,0,0,-1,1819,337,0,0
602,687,0,0,0,0,0,0,0,0,0,-1,1826,337,0,0
609,687,0,0,0,0,0,0,0,0,0,-1,1833,337,0,0
616,687,0,0,0,0,0,0,0,0,0,-1,1840,337,0,0
623,687,0,0,0,0,0,0,0,0,0,-1,1847,337,0,0
630,687,0,0,0,0,0,0,0,0,0,-1,1854,337,0,0
637,687,0,0,0,0,0,0,0,0,0,-1,1861,337,0,0
644,687,0,0,0,0,0,0,0,0,0,-1,1868,337,0,0
651,687,0,0,0,0,0,0,0,0,0,-1,1875,337,0,0
658,687,0,0,0,0,0,0,0,0,0,-1,1882,337,0,0
665,687,0,0,0,0,0,0,0,0,0,-1,1889,337,0,0
672,687,0,0,0,0,0,0,0,0,0,-1,1896,337,0,0
679,687,0,0,0,0,0,0,0,0,0,-1,1903,337,0,0
686,687,0,0,0,0,0,0,0,0,0,-1,1910,337,0,0
693,687,0,0,0,0,0,0,0,0,0,-1,1917,337,0,0
700,687,0,0,0,0,0,0,0,0,0,-1,1924,337,0,0
707,687,0,0,0,0,0,0,0,0,0,-1,1931,337,0,0
714,687,0,0,0,0,0,0,0,0,0,-1,1938,337,0,0
721,687,0,0,0,0,0,0,0,0,0,-1,1945,337,0,0
728,687,0,0,0,0,0,0,0,0,0,-1,1952,337,0,0
735,687,0,0,0,0,0,0,0,0,0,-1,1959,337,0,0
742,687,0,0,0,0,0,0,0,0,0,-1,1966,337,0,0
749,687,0,0,0,0,0,0,0,0,0,-1,1973,337,0,0
756,687,0,0,0,0,0,0,0,0,0,-1,1980,337,0,0
763,687,0,0,0,0,0,0,0,0,0,-1,1987,337,0,0
770,687,0,0,0,0,0,0,0,0,0,-1,1994,337,0,0
777,687,0,0,0,0,0,0,0,0,0,-1,2001,337,0,0
784,687,0,0,0,0,0,0,0,0,0,-1,2008,337,0,0
791,687,0,0,0,0,0,0,0,0,0,-1,2015,337,0,0
798,687,0,0,0,0,0,0,0,0,0,-1,2022,337,0,0
805,687,0,0,0,0,0,0,0,0,0,-1,2029,337,0,0
812,687,0,0,0,0,0,0,0,0,0,-1,2036,337,0,0
-700,680,0,0,0,0,0,0,0,0,0,-1,524,344,0,0
-693,680,0,0,0,0,0,0,0,0,0,-1,531,344,0,0
-686,680,0,0,0,0,0,0,0,0,0,-1,538,344,0,0
-679,680,0,0,0,0,0,0,0,0,0,-1,545,344,0,0
-672,680,0,0,0,0,0,0,0,0,0,-1,552,344,0,0
-665,680,0,0,0,0,0,0,0,0,0,-1,559,344,0,0
-658,680,0,0,0,0,0,0,0,0,0,-1,566,344,0,0
-651,680,0,0,0,0,0,0,0,0,0,-1,573,344,0,0
-644,680,0,0,0,0,0,0,0,0,0,-1,580,344,0,0
-637,680,0,0,0,0,0,0,0,0,0,-1,587,344,0,0
-630,680,0,0,0,0,0,0,0,0,0,-1,594,344,0,0
-623,680,0,0,0,0,0,0,0,0,0,-1,601,344,0,0
-616,680,0,0,0,0,0,0,0,0,0,-1,608,344,0,0
-609,680,0,0,0,0,0,0,0,0,0,-1,615,344,0,0
-602,680,0,0,0,0,0,0,0,0,0,-1,622,344,0,0
-595,680,0,0,0,0,0,0,0,0,0,-1,629,344,0,0
-588,680,0,0,0,0,0,0,0,0,0,-1,636,344,0,0
-581,680,0,0,0,0,0,0,0,0,0,-1,643,344,0,0
-574,680,0,0,0,0,0,0,0,0,0,-1,650,344,0,0
-567,680,0,0,0,0,0,0,0,0,0,-1,657,344,0,0
-560,680,0,0,0,0,0,0,0,0,0,-1,664,344,0,0
-553,680,0,0,0,0,0,0,0,0,0,-1,671,344,0,0
-546,680,0,0,0,0,0,0,0,0,0,-1,678,344,0,0
-539,680,0,0,0,0,0,0,0,0,0,-1,685,344,0,0
-532,680,0,0,0,0,0,0,0,0,0,-1,692,344,0,0
-525,680,0,0,0,0,0,0,0,0,0,-1,699,344,0,0
-518,680,0,0,0,0,0,0,0,0,0,-1,706,344,0,0
-511,680,0,0,0,0,0,0,0,0,0,-1,713,344,0,0
-504,680,0,0,0,0,0,0,0,0,0,-1,720,344,0,0
-497,680,0,0,0,0,0,0,0,0,0,-1,727,344,0,0
-490,680,0,0,0,0,0,0,0,0,0,-1,734,344,0,0
-483,680,0,0,0,0,0,0,0,0,0,-1,741,344,0,0
-476,680,0,0,0,0,0,0,0,0,0,-1,748,344,0,0
-469,680,0,0,0,0,0,0,0,0,0,-1,755,344,0,0
-462,680,0,0,0,0,0,0,0,0,0,-1,762,344,0,0
-455,680,0,0,0,0,0,0,0,0,0,-1,769,344,0,0
-448,680,0,0,0,0,0,0,0,0,0,-1,776,344,0,0
-441,680,0,0,0,0,0,0,0,0,0,-1,783,344,0,0
-434,680,0,0,0,0,0,0,0,0,0,-1,790,344,0,0
-427,680,0,0,0,0,0,0,0,0,0,-1,797,344,0,0
-420,680,0,0,0,0,0,0,0,0,0,-1,804,344,0,0
-413,680,0,0,0,0,0,0,0,0,0,-1,811,344,0,0
-406,680,0,0,0,0,0,0,0,0,0,-1,818,344,0,0
-399,680,0,0,0,0,0,0,0,0,0,-1,825,344,0,0
-392,680,0,0,0,0,0,0,0,0,0,-1,832,344,0,0
-385,680,0,0,0,0,0,0,0,0,0,-1,839,344,0,0
-378,680,0,0,0,0,0,0,0,0,0,-1,846,344,0,0
-371,680,0,0,0,0,0,0,0,0,0,-1,853,344,0,0
-364,680,0,0,0,0,0,0,0,0,0,-1,860,344,0,0
-357,680,0,0,0,0,0,0,0,0,0,-1,867,344,0,0
-350,680,0,0,0,0,0,0,0,0,0,-1,874,344,0,0
-343,680,0,0,0,0,0,0,0,0,0,-1,881,344,0,0
-336,680,0,0,0,0,0,0,0,0,0,-1,888,344,0,0
-329,680,0,0,0,0,0,0,0,0,0,-1,895,344,0,0
-322,680,0,0,0,0,0,0,0,0,0,-1,902,344,0,0
-315,680,0,0,0,0,0,0,0,0,0,-1,909,344,0,0
-308,680,0,0,0,0,0,0,0,0,0,-1,916,344,0,0
-301,680,0,0,0,0,0,0,0,0,0,-1,923,344,0,0
-294,680,0,0,0,0,0,0,0,0,0,-1,930,344,0,0
-287,680,0,0,0,0,0,0,0,0,0,-1,937,344,0,0
-280,680,0,0,0,0,0,0,0,0,0,-1,944,344,0,0
-273,680,0,0,0,0,0,0,0,0,0,-1,951,344,0,0
-266,680,0,0,0,0,0,0,0,0,0,-1,958,344,0,0
-259,680,0,0,0,0,0,0,0,0,0,-1,965,344,0,0
-252,680,0,0,0,0,0,0,0,0,0,-1,972,344,0,0
-245,680,0,0,0,0,0,0,0,0,0,-1,979,344,0,0
-238,680,0,0,0,0,0,0,0,0,0,-1,986,344,0,0
-231,680,0,0,0,0,0,0,0,0,0,-1,993,344,0,0
-224,680,0,0,0,0,0,0,0,0,0,-1,1000,344,0,0
-217,680,0,0,0,0,0,0,0,0,0,-1,1007,344,0,0
-210,680,0,0,0,0,0,0,0,0,0,-1,1014,344,0,0
-203,680,0,0,0,0,0,0,0,0,0,-1,1021,344,0,0
-196,680,0,0,0,0,0,0,0,0,0,-1,1028,344,0,0
-189,680,0,0,0,0,0,0,0,0,0,-1,1035,344,0,0
-182,680,0,0,0,0,0,0,0,0,0,-1,1042,344,0,0
-175,680,0,0,0,0,0,0,0,0,0,-1,1049,344,0,0
-168,680,0,0,0,0,0,0,0,0,0,-1,1056,344,0,0
-161,680,0,0,0,0,0,0,0,0,0,-1,1063,344,0,0
-154,680,2.25244,-29.1442,0,0,0,0,0,0,0,-1,1070,344,2.25241,29.1442
-147,680,9.29614,-33.0369,0,0,0,0,0,0,0,-1,1077,344,9.29612,33.0369
-140,680,6.98022,-36.6899,0,0,0,0,0,0,0,-1,1084,344,6.98023,36.6899
-133,680,1.85693,-39.7233,0,0,0,0,0,0,0,-1,1091,344,1.85699,39.7233
-126,680,2.30017,-38.3751,0,0,0,0,0,0,0,-1,1098,344,2.30011,38.3751
-119,680,2.74329,-37.0269,0,0,0,0,0,0,0,-1,1105,344,2.74323,37.0269
-112,680,7.7467,-32.4407,0,0,0,0,0,0,0,-1,1112,344,7.74668,32.4407
-105,680,20.6371,-48.461,0,0,0,0,0,0,0,-1,1119,344,20.6371,48.461
-98,680,14.2684,-41.9997,0,0,0,0,0,0,0,-1,1126,344,14.2685,41.9997
-91,680,7.89648,-35.5147,0,0,0,0,0,0,0,-1,1133,344,7.8965,35.5147
-84,680,1.47168,-29.471,0,0,0,0,0,0,0,-1,1140,344,1.47163,29.471
-77,680,-4.95337,-23.3355,0,0,0,0,0,0,0,-1,1147,344,-4.9534,23.3356
-70,680,-11.5099,-17.4337,0,0,0,0,0,0,0,-1,1154,344,-11.5098,17.4338
-63,680,-17.2391,-1.43134,0,0,0,0,0,0,0,-1,1161,344,-17.2392,1.43133
-56,680,-6.96912,-8.83356,0,0,0,0,0,0,0,-1,1168,344,-6.96907,8.83354
-49,680,-6.7677,-2.24063,0,0,0,0,0,0,0,-1,1175,344,-6.76772,2.24063
-42,680,-1.02368,0.618805,0,0,0,0,0,0,0,-1,1182,344,-1.0237,-0.618797
-35,680,-0.947876,-0.942719,0,0,0,0,0,0,0,-1,1189,344,-0.947842,0.942731
-28,680,-1.46118,-1.10574,0,0,0,0,0,0,0,-1,1196,344,-1.4612,1.10575
-21,680,7.36926,-46.4307,0,0,0,0,0,0,0,-1,1203,344,7.36924,46.4307
-14,680,7.13574,-46.8318,-0.00314093,0.0449828,0.00142054,0.0450247,-0.00318283,1.54131,0.0311317,0.0474261,1210,344,7.13569,46.8318
-7,680,6.87524,-47.1179,-0.00105792,0.048751,0.00103988,0.0487727,-0.00107962,1.54993,0.0328809,0.0481936,1217,344,6.87522,47.1179
0,680,7.07056,-47.402,0.00141865,0.0517492,6.54844e-05,0.0517493,0.00141857,1.5695,0.0340365,0.0498295,1224,344,7.07061,47.402
7,680,7.10217,-47.465,0.00431825,0.0540752,-0.00139666,0.0541144,0.00427908,-1.54276,0.0347379,0.0470236,1231,344,7.10213,47.465
14,680,7.53918,-47.5339,0.00830718,0.0563321,-0.00307882,0.0565286,0.0081106,-1.50704,0.0352942,0.0451266,1238,344,7.53921,47.5339
21,680,7.03442,-47.7734,0.0111144,0.0578339,-0.00419541,0.0582076,0.0107406,-1.48194,0.0357665,0.0497598,1245,344,7.03441,47.7734
28,680,6.8761,-48.0032,0,0,0,0,0,0,0,-1,1252,344,6.87616,48.0032
35,680,6.1687,-48.248,0,0,0,0,0,0,0,-1,1259,344,6.16873,48.248
42,680,6.10645,-48.3675,0.00921623,0.0612138,-0.00547829,0.0617847,0.00864533,-1.46696,0.0386318,0.0471981,1266,344,6.10646,48.3675
49,680,6.14099,-48.3071,0.00687735,0.0635382,-0.00646862,0.0642673,0.00614825,-1.45856,0.0409496,0.0418138,1273,344,6.14099,48.3071
56,680,6.10913,-48.2192,0.0032625,0.0655576,-0.00730006,0.0664016,0.00241848,-1.45569,0.043484,0.0399243,1280,344,6.10919,48.2192
63,680,5.88708,-47.482,-0.00162553,0.0668381,-0.0085567,0.0678913,-0.00267876,-1.44832,0.0461797,0.0370944,1287,344,5.88713,47.482
70,680,6.23816,-47.4613,-0.00705929,0.0695911,-0.00994276,0.0708598,-0.00832802,-1.44388,0.0502465,0.0376166,1294,344,6.23822,47.4613
77,680,6.38269,-47.2416,-0.011115,0.0726606,-0.0121777,0.0743948,-0.0128493,-1.42934,0.054388,0.0412111,1301,344,6.38273,47.2416
84,680,5.06116,-47.431,-0.0148452,0.075803,-0.0146459,0.0781105,-0.0171527,-1.41452,0.0586336,0.0462271,1308,344,5.06119,47.431
91,680,4.72571,-47.457,-0.0174325,0.0787376,-0.0175376,0.0818359,-0.0205309,-1.39593,0.0625346,0.0453998,1315,344,4.7257,47.457
98,680,4.27332,-47.4849,-0.0184766,0.0812152,-0.0202744,0.0851807,-0.0224421,-1.37764,0.0655609,0.0469227,1322,344,4.27334,47.4849
105,680,3.85474,-47.6171,-0.0186824,0.0835226,-0.0225998,0.0882968,-0.0234567,-1.3626,0.0680447,0.0497168,1329,344,3.85468,47.6171
112,680,3.39771,-47.7289,0,0,0,0,0,0,0,-1,1336,344,3.39776,47.729
119,680,4.25415,-46.8942,-0.0162461,0.0861134,-0.0266529,0.0926376,-0.0227703,-1.33073,0.0705836,0.041005,1343,344,4.25416,46.8942
126,680,4.16162,-47.0305,-0.0127706,0.0867808,-0.0278719,0.094053,-0.0200428,-1.31557,0.0703413,0.0420882,1350,344,4.16158,47.0305
133,680,4.3291,-46.9005,0,0,0,0,0,0,0,-1,1357,344,4.32914,46.9006
140,680,4.19836,-46.806,-0.00404689,0.0873211,-0.0271914,0.094801,-0.0115268,-1.30235,0.0673724,0.0492867,1364,344,4.19834,46.806
147,680,4.24707,-46.6132,-0.00141045,0.0867684,-0.0249112,0.0933193,-0.00796137,-1.31365,0.0650293,0.0496056,1371,344,4.24712,46.6132
154,680,4.30835,-46.4755,0,0,0,0,0,0,0,-1,1378,344,4.30832,46.4755
161,680,5.01746,-44.5562,0,0,0,0,0,0,0,-1,1385,344,5.01747,44.5562
168,680,29.4142,-2.51651,0,0,0,0,0,0,0,-1,1392,344,29.4142,2.51652
175,680,6.66541,0.942078,0,0,0,0,0,0,0,-1,1399,344,6.66538,-0.942088
182,680,6.52917,0.532379,0,0,0,0,0,0,0,-1,1406,344,6.52922,-0.532385
189,680,7.55884,4.77695,0,0,0,0,0,0,0,-1,1413,344,7.55886,-4.77694
196,680,6.55627,3.35254,0,0,0,0,0,0,0,-1,1420,344,6.55622,-3.35255
203,680,5.7334,1.90753,0,0,0,0,0,0,0,-1,1427,344,5.73341,-1.90754
210,680,5.27515,0.493622,0,0,0,0,0,0,0,-1,1434,344,5.27514,-0.493632
217,680,6.56384,-0.374176,0,0,0,0,0,0,0,-1,1441,344,6.56379,0.374176
224,680,3.9491,-0.640228,0,0,0,0,0,0,0,-1,1448,344,3.94908,0.64024
231,680,4.24866,-1.96881,0,0,0,0,0,0,0,-1,1455,344,4.2486,1.96882
238,680,4.29333,-3.23984,0,0,0,0,0,0,0,-1,1462,344,4.29332,3.23984
245,680,2.44397,0.985382,0,0,0,0,0,0,0,-1,1469,344,2.44402,-0.985394
252,680,3.07349,2.18951,0,0,0,0,0,0,0,-1,1476,344,3.0735,-2.18952
259,680,2.82971,1.30682,0,0,0,0,0,0,0,-1,1483,344,2.82972,-1.30684
266,680,2.67554,1.44067,0,0,0,0,0,0,0,-1,1490,344,2.67551,-1.44066
273,680,2.46411,1.54666,0,0,0,0,0,0,0,-1,1497,344,2.46407,-1.54666
280,680,0,0,0,0,0,0,0,0,0,-1,1504,344,0,0
287,680,0,0,0,0,0,0,0,0,0,-1,1511,344,0,0
294,680,0,0,0,0,0,0,0,0,0,-1,1518,344,0,0
301,680,0,0,0,0,0,0,0,0,0,-1,1525,344,0,0
308,680,0,0,0,0,0,0,0,0,0,-1,1532,344,0,0
315,680,0,0,0,0,0,0,0,0,0,-1,1539,344,0,0
322,680,0,0,0,0,0,0,0,0,0,-1,1546,344,0,0
329,680,0,0,0,0,0,0,0,0,0,-1,1553,344,0,0
336,680,0,0,0,0,0,0,0,0,0,-1,1560,344,0,0
343,680,0,0,0,0,0,0,0,0,0,-1,1567,344,0,0
350,680,0,0,0,0,0,0,0,0,0,-1,1574,344,0,0
357,680,0,0,0,0,0,0,0,0,0,-1,1581,344,0,0
364,680,0,0,0,0,0,0,0,0,0,-1,1588,344,0,0
371,680,0,0,0,0,0,0,0,0,0,-1,1595,344,0,0
378,680,0,0,0,0,0,0,0,0,0,-1,1602,344,0,0
385,680,0,0,0,0,0,0,0,0,0,-1,1609,344,0,0
392,680,0,0,0,0,0,0,0,0,0,-1,1616,344,0,0
399,680,0,0,0,0,0,0,0,0,0,-1,1623,344,0,0
406,680,0,0,0,0,0,0,0,0,0,-1,1630,344,0,0
413,680,0,0,0,0,0,0,0,0,0,-1,1637,344,0,0
420,680,0,0,0,0,0,0,0,0,0,-1,1644,344,0,0
427,680,0,0,0,0,0,0,0,0,0,-1,1651,344,0,0
434,680,0,0,0,0,0,0,0,0,0,-1,1658,344,0,0
441,680,0,0,0,0,0,0,0,0,0,-1,1665,344,0,0
448,680,0,0,0,0,0,0,0,0,0,-1,1672,344,0,0
455,680,0,0,0,0,0,0,0,0,0,-1,1679,344,0,0
462,680,0,0,0,0,0,0,0,0,0,-1,1686,344,0,0
469,680,0,0,0,0,0,0,0,0,0,-1,1693,344,0,0
476,680,0,0,0,0,0,0,0,0,0,-1,1700,344,0,0
483,680,0,0,0,0,0,0,0,0,0,-1,1707,344,0,0
490,680,0,0,0,0,0,0,0,0,0,-1,1714,344,0,0
497,680,0,0,0,0,0,0,0,0,0,-1,1721,344,0,0
504,680,0,0,0,0,0,0,0,0,0,-1,1728,344,0,0
511,680,0,0,0,0,0,0,0,0,0,-1,1735,344,0,0
518,680,0,0,0,0,0,0,0,0,0,-1,1742,344,0,0
525,680,0,0,0,0,0,0,0,0,0,-1,1749,344,0,0
532,680,0,0,0,0,0,0,0,0,0,-1,1756,344,0,0
539,680,0,0,0,0,0,0,0,0,0,-1,1763,344,0,0
546,680,0,0,0,0,0,0,0,0,0,-1,1770,344,0,0
553,680,0,0,0,0,0,0,0,0,0,-1,1777,344,0,0
560,680,0,0,0,0,0,0,0,0,0,-1,1784,344,0,0
567,680,0,0,0,0,0,0,0,0,0,-1,1791,344,0,0
574,680,0,0,0,0,0,0,0,0,0,-1,1798,344,0,0
581,680,0,0,0,0,0,0,0,0,0,-1,1805,344,0,0
588,680,0,0,0,0,0,0,0,0,0,-1,1812,344,0,0
595,680,0,0,0,0,0,0,0,0,0,-1,1819,344,0,0
602,680,0,0,0,0,0,0,0,0,0,-1,1826,344,0,0
609,680,0,0,0,0,0,0,0,0,0,-1,1833,344,0,0
616,680,0,0,0,0,0,0,0,0,0,-1,1840,344,0,0
623,680,0,0,0,0,0,0,0,0,0,-1,1847,344,0,0
630,680,0,0,0,0,0,0,0,0,0,-1,1854,344,0,0
637,680,0,0,0,0,0,0,0,0,0,-1,1861,344,0,0
644,680,0,0,0,0,0,0,0,0,0,-1,1868,344,0,0
651,680,0,0,0,0,0,0,0,0,0,-1,1875,344,0,0
658,680,0,0,0,0,0,0,0,0,0,-1,1882,344,0,0
665,680,0,0,0,0,0,0,0,0,0,-1,1889,344,0,0
672,680,0,0,0,0,0,0,0,0,0,-1,1896,344,0,0
679,680,0,0,0,0,0,0,0,0,0,-1,1903,344,0,0
686,680,0,0,0,0,0,0,0,0,0,-1,1910,344,0,0
693,680,0,0,0,0,0,0,0,0,0,-1,1917,344,0,0
700,680,0,0,0,0,0,0,0,0,0,-1,1924,344,0,0
707,680,0,0,0,0,0,0,0,0,0,-1,1931,344,0,0
714,680,0,0,0,0,0,0,0,0,0,-1,1938,344,0,0
721,680,0,0,0,0,0,0,0,0,0,-1,1945,344,0,0
728,680,0,0,0,0,0,0,0,0,0,-1,1952,344,0,0
735,680,0,0,0,0,0,0,0,0,0,-1,1959,344,0,0
742,680,0,0,0,0,0,0,0,0,0,-1,1966,344,0,0
749,680,0,0,0,0,0,0,0,0,0,-1,1973,344,0,0
756,680,0,0,0,0,0,0,0,0,0,-1,1980,344,0,0
763,680,0,0,0,0,0,0,0,0,0,-1,1987,344,0,0
770,680,0,0,0,0,0,0,0,0,0,-1,1994,344,0,0
777,680,0,0,0,0,0,0,0,0,0,-1,2001,344,0,0
784,680,0,0,0,0,0,0,0,0,0,-1,2008,344,0,0
791,680,0,0,0,0,0,0,0,0,0,-1,2015,344,0,0
798,680,0,0,0,0,0,0,0,0,0,-1,2022,344,0,0
805,680,0,0,0,0,0,0,0,0,0,-1,2029,344,0,0
812,680,0,0,0,0,0,0,0,0,0,-1,2036,344,0,0
-700,673,0,0,0,0,0,0,0,0,0,-1,524,351,0,0
-693,673,0,0,0,0,0,0,0,0,0,-1,531,351,0,0
-686,673,0,0,0,0,0,0,0,0,0,-1,538,351,0,0
-679,673,0,0,0,0,0,0,0,0,0,-1,545,351,0,0
-672,673,0,0,0,0,0,0,0,0,0,-1,552,351,0,0
-665,673,0,0,0,0,0,0,0,0,0,-1,559,351,0,0
-658,673,0,0,0,0,0,0,0,0,0,-1,566,351,0,0
-651,673,0,0,0,0,0,0,0,0,0,-1,573,351,0,0
-644,673,0,0,0,0,0,0,0,0,0,-1,580,351,0,0
-637,673,0,0,0,0,0,0,0,0,0,-1,587,351,0,0
-630,673,0,0,0,0,0,0,0,0,0,-1,594,351,0,0
-623,673,0,0,0,0,0,0,0,0,0,-1,601,351,0,0
-616,673,0,0,0,0,0,0,0,0,0,-1,608,351,0,0
-609,673,0,0,0,0,0,0,0,0,0,-1,615,351,0,0
-602,673,0,0,0,0,0,0,0,0,0,-1,622,351,0,0
-595,673,0,0,0,0,0,0,0,0,0,-1,629,351,0,0
-588,673,0,0,0,0,0,0,0,0,0,-1,636,351,0,0
-581,673,0,0,0,0,0,0,0,0,0,-1,643,351,0,0
-574,673,0,0,0,0,0,0,0,0,0,-1,650,351,0,0
-567,673,0,0,0,0,0,0,0,0,0,-1,657,351,0,0
-560,673,0,0,0,0,0,0,0,0,0,-1,664,351,0,0
-553,673,0,0,0,0,0,0,0,0,0,-1,671,351,0,0
-546,673,0,0,0,0,0,0,0,0,0,-1,678,351,0,0
-539,673,0,0,0,0,0,0,0,0,0,-1,685,351,0,0
-532,673,0,0,0,0,0,0,0,0,0,-1,692,351,0,0
-525,673,0,0,0,0,0,0,0,0,0,-1,699,351,0,0
-518,673,0,0,0,0,0,0,0,0,0,-1,706,351,0,0
-511,673,0,0,0,0,0,0,0,0,0,-1,713,351,0,0
-504,673,0,0,0,0,0,0,0,0,0,-1,720,351,0,0
-497,673,0,0,0,0,0,0,0,0,0,-1,727,351,0,0
-490,673,0,0,0,0,0,0,0,0,0,-1,734,351,0,0
-483,673,0,0,0,0,0,0,0,0,0,-1,741,351,0,0
-476,673,0,0,0,0,0,0,0,0,0,-1,748,351,0,0
-469,673,0,0,0,0,0,0,0,0,0,-1,755,351,0,0
-462,673,0,0,0,0,0,0,0,0,0,-1,762,351,0,0
-455,673,0,0,0,0,0,0,0,0,0,-1,769,351,0,0
-448,673,0,0,0,0,0,0,0,0,0,-1,776,351,0,0
-441,673,0,0,0,0,0,0,0,0,0,-1,783,351,0,0
-434,673,0,0,0,0,0,0,0,0,0,-1,790,351,0,0
-427,673,0,0,0,0,0,0,0,0,0,-1,797,351,0,0
-420,673,0,0,0,0,0,0,0,0,0,-1,804,351,0,0
-413,673,0,0,0,0,0,0,0,0,0,-1,811,351,0,0
-406,673,0,0,0,0,0,0,0,0,0,-1,818,351,0,0
-399,673,0,0,0,0,0,0,0,0,0,-1,825,351,0,0
-392,673,0,0,0,0,0,0,0,0,0,-1,832,351,0,0
-385,673,0,0,0,0,0,0,0,0,0,-1,839,351,0,0
-378,673,0,0,0,0,0,0,0,0,0,-1,846,351,0,0
-371,673,0,0,0,0,0,0,0,0,0,-1,853,351,0,0
-364,673,0,0,0,0,0,0,0,0,0,-1,860,351,0,0
-357,673,0,0,0,0,0,0,0,0,0,-1,867,351,0,0
-350,673,0,0,0,0,0,0,0,0,0,-1,874,351,0,0
-343,673,0,0,0,0,0,0,0,0,0,-1,881,351,0,0
-336,673,0,0,0,0,0,0,0,0,0,-1,888,351,0,0
-329,673,0,0,0,0,0,0,0,0,0,-1,895,351,0,0
-322,673,0,0,0,0,0,0,0,0,0,-1,902,351,0,0
-315,673,0,0,0,0,0,0,0,0,0,-1,909,351,0,0
-308,673,0,0,0,0,0,0,0,0,0,-1,916,351,0,0
-301,673,0,0,0,0,0,0,0,0,0,-1,923,351,0,0
-294,673,0,0,0,0,0,0,0,0,0,-1,930,351,0,0
-287,673,0,0,0,0,0,0,0,0,0,-1,937,351,0,0
-280,673,0,0,0,0,0,0,0,0,0,-1,944,351,0,0
-273,673,0,0,0,0,0,0,0,0,0,-1,951,351,0,0
-266,673,0,0,0,0,0,0,0,0,0,-1,958,351,0,0
-259,673,0,0,0,0,0,0,0,0,0,-1,965,351,0,0
-252,673,0,0,0,0,0,0,0,0,0,-1,972,351,0,0
-245,673,0,0,0,0,0,0,0,0,0,-1,979,351,0,0
-238,673,0,0,0,0,0,0,0,0,0,-1,986,351,0,0
-231,673,0,0,0,0,0,0,0,0,0,-1,993,351,0,0
-224,673,0,0,0,0,0,0,0,0,0,-1,1000,351,0,0
-217,673,0,0,0,0,0,0,0,0,0,-1,1007,351,0,0
-210,673,0,0,0,0,0,0,0,0,0,-1,1014,351,0,0
-203,673,0,0,0,0,0,0,0,0,0,-1,1021,351,0,0
-196,673,0,0,0,0,0,0,0,0,0,-1,1028,351,0,0
-189,673,0,0,0,0,0,0,0,0,0,-1,1035,351,0,0
-182,673,0,0,0,0,0,0,0,0,0,-1,1042,351,0,0
-175,673,7.10449,-31.8279,0,0,0,0,0,0,0,-1,1049,351,7.10448,31.8279
-168,673,7.33081,-32.7122,0,0,0,0,0,0,0,-1,1056,351,7.33085,32.7122
-161,673,7.8938,-33.5352,0,0,0,0,0,0,0,-1,1063,351,7.89385,33.5352
-154,673,8.80566,-35.3518,0,0,0,0,0,0,0,-1,1070,351,8.80563,35.3518
-147,673,2.89221,-37.7351,0,0,0,0,0,0,0,-1,1077,351,2.89224,37.7351
-140,673,3.35046,-37.7151,0,0,0,0,0,0,0,-1,1084,351,3.35046,37.715
-133,673,3.35339,-39.0288,0,0,0,0,0,0,0,-1,1091,351,3.35342,39.0288
-126,673,3.7533,-38.0453,0,0,0,0,0,0,0,-1,1098,351,3.7533,38.0453
-119,673,4.1532,-37.0618,0,0,0,0,0,0,0,-1,1105,351,4.15318,37.0618
-112,673,7.27234,-32.5801,0,0,0,0,0,0,0,-1,1112,351,7.27231,32.5801
-105,673,21.1144,-43.3143,0,0,0,0,0,0,0,-1,1119,351,21.1143,43.3143
-98,673,14.8014,-36.7519,0,0,0,0,0,0,0,-1,1126,351,14.8014,36.7519
-91,673,8.54944,-29.9639,0,0,0,0,0,0,0,-1,1133,351,8.54949,29.9639
-84,673,2.17102,-24.3204,0,0,0,0,0,0,0,-1,1140,351,2.17107,24.3204
-77,673,-4.25378,-18.8346,0,0,0,0,0,0,0,-1,1147,351,-4.25381,18.8346
-70,673,-10.7933,-13.6681,0,0,0,0,0,0,0,-1,1154,351,-10.7934,13.6681
-63,673,-17.3896,-8.24469,0,0,0,0,0,0,0,-1,1161,351,-17.3896,8.2447
-56,673,-18.0282,2.79053,0,0,0,0,0,0,0,-1,1168,351,-18.0283,-2.79052
-49,673,-0.926758,-0.115448,0,0,0,0,0,0,0,-1,1175,351,-0.926732,0.115444
-42,673,-1.15015,0.289917,0,0,0,0,0,0,0,-1,1182,351,-1.15017,-0.289932
-35,673,-0.919556,-1.00711,0,0,0,0,0,0,0,-1,1189,351,-0.919514,1.00711
-28,673,5.28918,-39.2331,0,0,0,0,0,0,0,-1,1196,351,5.28924,39.2331
-21,673,7.29236,-47.1565,0,0,0,0,0,0,0,-1,1203,351,7.29239,47.1565
-14,673,7.01465,-47.2726,-0.00388287,0.0392723,0.000451117,0.039277,-0.00388758,1.56034,0.0275721,0.0448997,1210,351,7.01463,47.2726
-7,673,6.7677,-47.5959,-0.0024682,0.0417071,0.00030415,0.0417092,-0.0024703,1.56391,0.0286651,0.0448589,1217,351,6.76773,47.5959
0,673,6.78308,-47.9142,0,0,0,0,0,0,0,-1,1224,351,6.78308,47.9142
7,673,7.18188,-47.8892,0,0,0,0,0,0,0,-1,1231,351,7.18183,47.8892
14,673,7.0155,-47.9169,0.00423248,0.0468713,-0.00219404,0.0469839,0.00411988,-1.51952,0.0300436,0.0455861,1238,351,7.01545,47.9169
21,673,6.68127,-48.1787,0.00622293,0.0480315,-0.00282743,0.0482218,0.00603258,-1.50358,0.0303376,0.0318796,1245,351,6.68126,48.1787
28,673,6.63147,-48.3228,0.00632089,0.0486416,-0.00280321,0.0488265,0.00613602,-1.50494,0.0307107,0.0348544,1252,351,6.63151,48.3228
35,673,6.62158,-48.1498,0,0,0,0,0,0,0,-1,1259,351,6.62159,48.1498
42,673,6.19751,-48.4227,0.00446939,0.0511494,-0.00371352,0.051443,0.00417582,-1.4919,0.0329916,0.0383315,1266,351,6.19753,48.4227
49,673,6.14661,-48.5236,0.00250513,0.0531822,-0.00444055,0.0535683,0.00211897,-1.48405,0.0350273,0.0228341,1273,351,6.14657,48.5236
56,673,6.12939,-48.5021,-0.00041491,0.0551132,-0.00513336,0.0555837,-0.000885483,-1.47938,0.0373545,0.0168983,1280,351,6.12936,48.5021
63,673,6.19519,-48.2693,-0.004202,0.0564471,-0.00622004,0.0570785,-0.00483334,-1.46964,0.0397615,0.0221579,1287,351,6.1952,48.2694
70,673,6.12891,-48.1773,-0.00822491,0.0588176,-0.00745073,0.0596357,-0.00904296,-1.46144,0.0430889,0.0352879,1294,351,6.12896,48.1773
77,673,6.19458,-47.9747,-0.0110934,0.061283,-0.00933625,0.062468,-0.0122784,-1.44455,0.0462842,0.0398244,1301,351,6.19453,47.9747
84,673,5.69312,-48.2006,-0.0138049,0.0636995,-0.0113655,0.0653318,-0.0154372,-1.42815,0.0495091,0.0453114,1308,351,5.69306,48.2006
91,673,5.84888,-48.5963,0,0,0,0,0,0,0,-1,1315,351,5.84886,48.5963
98,673,5.5874,-48.5547,0,0,0,0,0,0,0,-1,1322,351,5.58745,48.5547
105,673,5.28015,-48.295,0,0,0,0,0,0,0,-1,1329,351,5.28016,48.295
112,673,4.71411,-46.5666,0,0,0,0,0,0,0,-1,1336,351,4.71414,46.5666
119,673,4.9613,-47.4318,0,0,0,0,0,0,0,-1,1343,351,4.96136,47.4318
126,673,4.84241,-47.3693,-0.0122228,0.0708036,-0.02121,0.0759082,-0.0173273,-1.33462,0.0572618,0.045303,1350,351,4.84238,47.3693
133,673,4.7915,-47.3035,-0.00878615,0.0709772,-0.0215097,0.0764079,-0.0142169,-1.32349,0.0562793,0.0443048,1357,351,4.79146,47.3035
140,673,4.71021,-47.2475,-0.00555332,0.0704049,-0.0204408,0.0755563,-0.0107047,-1.32392,0.054292,0.0464769,1364,351,4.71026,47.2475
147,673,4.52332,-47.1478,-0.00363485,0.0694069,-0.018628,0.0738833,-0.00811123,-1.33496,0.0521699,0.0460791,1371,351,4.52332,47.1478
154,673,4.74866,-46.3286,-0.00181951,0.068114,-0.0160675,0.071629,-0.00533444,-1.35543,0.0496265,0.0419521,1378,351,4.74866,46.3285
161,673,4.89209,-46.1297,0,0,0,0,0,0,0,-1,1385,351,4.89205,46.1297
168,673,6.87061,1.83954,0,0,0,0,0,0,0,-1,1392,351,6.87063,-1.83953
175,673,6.6228,1.1459,0,0,0,0,0,0,0,-1,1399,351,6.62276,-1.14591
182,673,6.37244,0.796112,0,0,0,0,0,0,0,-1,1406,351,6.3724,-0.796102
189,673,6.12097,0.265472,0,0,0,0,0,0,0,-1,1413,351,6.121,-0.265482
196,673,6.02173,3.12717,0,0,0,0,0,0,0,-1,1420,351,6.02176,-3.12717
203,673,5.04456,1.6351,0,0,0,0,0,0,0,-1,1427,351,5.04455,-1.63509
210,673,4.79224,0.447479,0,0,0,0,0,0,0,-1,1434,351,4.79229,-0.447469
217,673,2.01648,0.972687,0,0,0,0,0,0,0,-1,1441,351,2.01644,-0.972691
224,673,2.3689,-1.80539,0,0,0,0,0,0,0,-1,1448,351,2.36896,1.80539
231,673,2.65857,-2.18497,0,0,0,0,0,0,0,-1,1455,351,2.65852,2.18496
238,673,3.77844,-2.06088,0,0,0,0,0,0,0,-1,1462,351,3.77839,2.06088
245,673,3.5376,-0.190399,0,0,0,0,0,0,0,-1,1469,351,3.53759,0.1904
252,673,3.80518,0.55603,0,0,0,0,0,0,0,-1,1476,351,3.80519,-0.556022
259,673,3.88562,1.29617,0,0,0,0,0,0,0,-1,1483,351,3.88562,-1.29618
266,673,4.22424,2.04834,0,0,0,0,0,0,0,-1,1490,351,4.22429,-2.04834
273,673,6.07886,0.385895,0,0,0,0,0,0,0,-1,1497,351,6.0789,-0.385906
280,673,6.97534,-0.0820007,0,0,0,0,0,0,0,-1,1504,351,6.97536,0.0820122
287,673,7.66968,-0.348541,0,0,0,0,0,0,0,-1,1511,351,7.66969,0.348534
294,673,8.20996,0.28537,0,0,0,0,0,0,0,-1,1518,351,8.20993,-0.28536
301,673,0,0,0,0,0,0,0,0,0,-1,1525,351,0,0
308,673,0,0,0,0,0,0,0,0,0,-1,1532,351,0,0
315,673,0,0,0,0,0,0,0,0,0,-1,1539,351,0,0
322,673,0,0,0,0,0,0,0,0,0,-1,1546,351,0,0
329,673,0,0,0,0,0,0,0,0,0,-1,1553,351,0,0
336,673,0,0,0,0,0,0,0,0,0,-1,1560,351,0,0
343,673,0,0,0,0,0,0,0,0,0,-1,1567,351,0,0
350,673,0,0,0,0,0,0,0,0,0,-1,1574,351,0,0
357,673,0,0,0,0,0,0,0,0,0,-1,1581,351,0,0
364,673,0,0,0,0,0,0,0,0,0,-1,1588,351,0,0
371,673,0,0,0,0,0,0,0,0,0,-1,1595,351,0,0
378,673,0,0,0,0,0,0,0,0,0,-1,1602,351,0,0
385,673,0,0,0,0,0,0,0,0,0,-1,1609,351,0,0
392,673,0,0,0,0,0,0,0,0,0,-1,1616,351,0,0
399,673,0,0,0,0,0,0,0,0,0,-1,1623,351,0,0
406,673,0,0,0,0,0,0,0,0,0,-1,1630,351,0,0
413,673,0,0,0,0,0,0,0,0,0,-1,1637,351,0,0
420,673,0,0,0,0,0,0,0,0,0,-1,1644,351,0,0
427,673,0,0,0,0,0,0,0,0,0,-1,1651,351,0,0
434,673,0,0,0,0,0,0,0,0,0,-1,1658,351,0,0
441,673,0,0,0,0,0,0,0,0,0,-1,1665,351,0,0
448,673,0,0,0,0,0,0,0,0,0,-1,1672,351,0,0
455,673,0,0,0,0,0,0,0,0,0,-1,1679,351,0,0
462,673,0,0,0,0,0,0,0,0,0,-1,1686,351,0,0
469,673,0,0,0,0,0,0,0,0,0,-1,1693,351,0,0
476,673,0,0,0,0,0,0,0,0,0,-1,1700,351,0,0
483,673,0,0,0,0,0,0,0,0,0,-1,1707,351,0,0
490,673,0,0,0,0,0,0,0,0,0,-1,1714,351,0,0
497,673,0,0,0,0,0,0,0,0,0,-1,1721,351,0,0
504,673,0,0,0,0,0,0,0,0,0,-1,1728,351,0,0
511,673,0,0,0,0,0,0,0,0,0,-1,1735,351,0,0
518,673,0,0,0,0,0,0,0,0,0,-1,1742,351,0,0
525,673,0,0,0,0,0,0,0,0,0,-1,1749,351,0,0
532,673,0,0,0,0,0,0,0,0,0,-1,1756,351,0,0
539,673,0,0,0,0,0,0,0,0,0,-1,1763,351,0,0
546,673,0,0,0,0,0,0,0,0,0,-1,1770,351,0,0
553,673,0,0,0,0,0,0,0,0,0,-1,1777,351,0,0
560,673,0,0,0,0,0,0,0,0,0,-1,1784,351,0,0
567,673,0,0,0,0,0,0,0,0,0,-1,1791,351,0,0
574,673,0,0,0,0,0,0,0,0,0,-1,1798,351,0,0
581,673,0,0,0,0,0,0,0,0,0,-1,1805,351,0,0
588,673,0,0,0,0,0,0,0,0,0,-1,1812,351,0,0
595,673,0,0,0,0,0,0,0,0,0,-1,1819,351,0,0
602,673,0,0,0,0,0,0,0,0,0,-1,1826,351,0,0
609,673,0,0,0,0,0,0,0,0,0,-1,1833,351,0,0
616,673,0,0,0,0,0,0,0,0,0,-1,1840,351,0,0
623,673,0,0,0,0,0,0,0,0,0,-1,1847,351,0,0
630,673,0,0,0,0,0,0,0,0,0,-1,1854,351,0,0
637,673,0,0,0,0,0,0,0,0,0,-1,1861,351,0,0
644,673,0,0,0,0,0,0,0,0,0,-1,1868,351,0,0
651,673,0,0,0,0,0,0,0,0,0,-1,1875,351,0,0
658,673,0,0,0,0,0,0,0,0,0,-1,1882,351,0,0
665,673,0,0,0,0,0,0,0,0,0,-1,1889,351,0,0
672,673,0,0,0,0,0,0,0,0,0,-1,1896,351,0,0
679,673,0,0,0,0,0,0,0,0,0,-1,1903,351,0,0
686,673,0,0,0,0,0,0,0,0,0,-1,1910,351,0,0
693,673,0,0,0,0,0,0,0,0,0,-1,1917,351,0,0
700,673,0,0,0,0,0,0,0,0,0,-1,1924,351,0,0
707,673,0,0,0,0,0,0,0,0,0,-1,1931,351,0,0
714,673,0,0,0,0,0,0,0,0,0,-1,1938,351,0,0
721,673,0,0,0,0,0,0,0,0,0,-1,1945,351,0,0
728,673,0,0,0,0,0,0,0,0,0,-1,1952,351,0,0
735,673,0,0,0,0,0,0,0,0,0,-1,1959,351,0,0
742,673,0,0,0,0,0,0,0,0,0,-1,1966,351,0,0
749,673,0,0,0,0,0,0,0,0,0,-1,1973,351,0,0
756,673,0,0,0,0,0,0,0,0,0,-1,1980,351,0,0
763,673,0,0,0,0,0,0,0,0,0,-1,1987,351,0,0
770,673,0,0,0,0,0,0,0,0,0,-1,1994,351,0,0
777,673,0,0,0,0,0,0,0,0,0,-1,2001,351,0,0
784,673,0,0,0,0,0,0,0,0,0,-1,2008,351,0,0
791,673,0,0,0,0,0,0,0,0,0,-1,2015,351,0,0
798,673,0,0,0,0,0,0,0,0,0,-1,2022,351,0,0
805,673,0,0,0,0,0,0,0,0,0,-1,2029,351,0,0
812,673,0,0,0,0,0,0,0,0,0,-1,2036,351,0,0
-700,666,0,0,0,0,0,0,0,0,0,-1,524,358,0,0
-693,666,0,0,0,0,0,0,0,0,0,-1,531,358,0,0
-686,666,0,0,0,0,0,0,0,0,0,-1,538,358,0,0
-679,666,0,0,0,0,0,0,0,0,0,-1,545,358,0,0
-672,666,0,0,0,0,0,0,0,0,0,-1,552,358,0,0
-665,666,0,0,0,0,0,0,0,0,0,-1,559,358,0,0
-658,666,0,0,0,0,0,0,0,0,0,-1,566,358,0,0
-651,666,0,0,0,0,0,0,0,0,0,-1,573,358,0,0
-644,666,0,0,0,0,0,0,0,0,0,-1,580,358,0,0
-637,666,0,0,0,0,0,0,0,0,0,-1,587,358,0,0
-630,666,0,0,0,0,0,0,0,0,0,-1,594,358,0,0
-623,666,0,0,0,0,0,0,0,0,0,-1,601,358,0,0
-616,666,0,0,0,0,0,0,0,0,0,-1,608,358,0,0
-609,666,0,0,0,0,0,0,0,0,0,-1,615,358,0,0
-602,666,0,0,0,0,0,0,0,0,0,-1,622,358,0,0
-595,666,0,0,0,0,0,0,0,0,0,-1,629,358,0,0
-588,666,0,0,0,0,0,0,0,0,0,-1,636,358,0,0
-581,666,0,0,0,0,0,0,0,0,0,-1,643,358,0,0
-574,666,0,0,0,0,0,0,0,0,0,-1,650,358,0,0
-567,666,0,0,0,0,0,0,0,0,0,-1,657,358,0,0
-560,666,0,0,0,0,0,0,0,0,0,-1,664,358,0,0
-553,666,0,0,0,0,0,0,0,0,0,-1,671,358,0,0
-546,666,0,0,0,0,0,0,0,0,0,-1,678,358,0,0
-539,666,0,0,0,0,0,0,0,0,0,-1,685,358,0,0
-532,666,0,0,0,0,0,0,0,0,0,-1,692,358,0,0
-525,666,0,0,0,0,0,0,0,0,0,-1,699,358,0,0
-518,666,0,0,0,0,0,0,0,0,0,-1,706,358,0,0
-511,666,0,0,0,0,0,0,0,0,0,-1,713,358,0,0
-504,666,0,0,0,0,0,0,0,0,0,-1,720,358,0,0
-497,666,0,0,0,0,0,0,0,0,0,-1,727,358,0,0
-490,666,0,0,0,0,0,0,0,0,0,-1,734,358,0,0
-483,666,0,0,0,0,0,0,0,0,0,-1,741,358,0,0
-476,666,0,0,0,0,0,0,0,0,0,-1,748,358,0,0
-469,666,0,0,0,0,0,0,0,0,0,-1,755,358,0,0
-462,666,0,0,0,0,0,0,0,0,0,-1,762,358,0,0
-455,666,0,0,0,0,0,0,0,0,0,-1,769,358,0,0
-448,666,0,0,0,0,0,0,0,0,0,-1,776,358,0,0
-441,666,0,0,0,0,0,0,0,0,0,-1,783,358,0,0
-434,666,0,0,0,0,0,0,0,0,0,-1,790,358,0,0
-427,666,0,0,0,0,0,0,0,0,0,-1,797,358,0,0
-420,666,0,0,0,0,0,0,0,0,0,-1,804,358,0,0
-413,666,0,0,0,0,0,0,0,0,0,-1,811,358,0,0
-406,666,0,0,0,0,0,0,0,0,0,-1,818,358,0,0
-399,666,0,0,0,0,0,0,0,0,0,-1,825,358,0,0
-392,666,0,0,0,0,0,0,0,0,0,-1,832,358,0,0
-385,666,0,0,0,0,0,0,0,0,0,-1,839,358,0,0
-378,666,0,0,0,0,0,0,0,0,0,-1,846,358,0,0
-371,666,0,0,0,0,0,0,0,0,0,-1,853,358,0,0
-364,666,0,0,0,0,0,0,0,0,0,-1,860,358,0,0
-357,666,0,0,0,0,0,0,0,0,0,-1,867,358,0,0
-350,666,0,0,0,0,0,0,0,0,0,-1,874,358,0,0
-343,666,0,0,0,0,0,0,0,0,0,-1,881,358,0,0
-336,666,0,0,0,0,0,0,0,0,0,-1,888,358,0,0
-329,666,0,0,0,0,0,0,0,0,0,-1,895,358,0,0
-322,666,0,0,0,0,0,0,0,0,0,-1,902,358,0,0
-315,666,0,0,0,0,0,0,0,0,0,-1,909,358,0,0
-308,666,0,0,0,0,0,0,0,0,0,-1,916,358,0,0
-301,666,0,0,0,0,0,0,0,0,0,-1,923,358,0,0
-294,666,0,0,0,0,0,0,0,0,0,-1,930,358,0,0
-287,666,0,0,0,0,0,0,0,0,0,-1,937,358,0,0
-280,666,0,0,0,0,0,0,0,0,0,-1,944,358,0,0
-273,666,0,0,0,0,0,0,0,0,0,-1,951,358,0,0
-266,666,0,0,0,0,0,0,0,0,0,-1,958,358,0,0
-259,666,0,0,0,0,0,0,0,0,0,-1,965,358,0,0
-252,666,0,0,0,0,0,0,0,0,0,-1,972,358,0,0
-245,666,0,0,0,0,0,0,0,0,0,-1,979,358,0,0
-238,666,0,0,0,0,0,0,0,0,0,-1,986,358,0,0
-231,666,0,0,0,0,0,0,0,0,0,-1,993,358,0,0
-224,666,0,0,0,0,0,0,0,0,0,-1,1000,358,0,0
-217,666,0,0,0,0,0,0,0,0,0,-1,1007,358,0,0
-210,666,0,0,0,0,0,0,0,0,0,-1,1014,358,0,0
-203,666,0,0,0,0,0,0,0,0,0,-1,1021,358,0,0
-196,666,4.03418,-28.8724,0,0,0,0,0,0,0,-1,1028,358,4.03422,28.8724
-189,666,5.00366,-29.597,0,0,0,0,0,0,0,-1,1035,358,5.00363,29.597
-182,666,6.83252,-30.9843,0,0,0,0,0,0,0,-1,1042,358,6.83247,30.9844
-175,666,7.01611,-31.8763,0,0,0,0,0,0,0,-1,1049,358,7.01617,31.8762
-168,666,7.21545,-32.7414,0,0,0,0,0,0,0,-1,1056,358,7.2154,32.7414
-161,666,7.69116,-33.6269,0,0,0,0,0,0,0,-1,1063,358,7.69121,33.6269
-154,666,3.79041,-37.9204,0,0,0,0,0,0,0,-1,1070,358,3.79034,37.9204
-147,666,4.17908,-37.7466,0,0,0,0,0,0,0,-1,1077,358,4.17912,37.7466
-140,666,4.54309,-37.735,0,0,0,0,0,0,0,-1,1084,358,4.54304,37.735
-133,666,4.65723,-39.0643,0,0,0,0,0,0,0,-1,1091,358,4.65727,39.0643
-126,666,5.02368,-38.0699,0,0,0,0,0,0,0,-1,1098,358,5.02363,38.0698
-119,666,5.39001,-37.0754,0,0,0,0,0,0,0,-1,1105,358,5.38999,37.0754
-112,666,6.77014,-32.8165,0,0,0,0,0,0,0,-1,1112,358,6.77013,32.8165
-105,666,6.30908,-29.0855,0,0,0,0,0,0,0,-1,1119,358,6.30905,29.0855
-98,666,15.4427,-31.5168,0,0,0,0,0,0,0,-1,1126,358,15.4428,31.5168
-91,666,9.5127,-25.1347,0,0,0,0,0,0,0,-1,1133,358,9.51269,25.1347
-84,666,2.91589,-19.4071,0,0,0,0,0,0,0,-1,1140,358,2.91592,19.4071
-77,666,-3.48083,-14.0782,0,0,0,0,0,0,0,-1,1147,358,-3.48081,14.0782
-70,666,-9.99438,-8.90146,0,0,0,0,0,0,0,-1,1154,358,-9.99433,8.90146
-63,666,-11.7778,-0.975189,0,0,0,0,0,0,0,-1,1161,358,-11.7778,0.97519
-56,666,0.424683,-2.04132,0,0,0,0,0,0,0,-1,1168,358,0.424665,2.04132
-49,666,0.754395,-2.23169,0,0,0,0,0,0,0,-1,1175,358,0.754383,2.23169
-42,666,1.34473,-3.53897,0,0,0,0,0,0,0,-1,1182,358,1.34476,3.53896
-35,666,6.7782,-47.4899,0,0,0,0,0,0,0,-1,1189,358,6.77818,47.4899
-28,666,6.96216,-47.516,0,0,0,0,0,0,0,-1,1196,358,6.9622,47.516
-21,666,6.99426,-47.524,-0.00529733,0.0308853,-3.76769e-05,0.0308854,-0.00529737,-1.56976,0.0225643,0.0379997,1203,358,6.99428,47.524
-14,666,6.74487,-47.7624,-0.00427464,0.0328478,-0.000116369,0.0328482,-0.00427501,-1.56766,0.023454,0.0326655,1210,358,6.74482,47.7623
-7,666,6.64478,-47.9655,-0.00327232,0.0344117,-0.000132947,0.0344122,-0.00327279,-1.56727,0.0241066,0.0210039,1217,358,6.64477,47.9655
0,666,6.6626,-48.1721,-0.00197056,0.0356827,-0.000430752,0.0356877,-0.00197549,-1.55936,0.0244769,0.0153878,1224,358,6.66263,48.1721
7,666,6.58264,-48.2808,-0.000508637,0.0366905,-0.000900022,0.0367123,-0.000530399,-1.54662,0.0246536,0.0214408,1231,358,6.58269,48.2808
14,666,6.52673,-48.3286,0.00149264,0.0378689,-0.00151528,0.0379319,0.00142963,-1.52924,0.0248251,0.0204723,1238,358,6.52672,48.3286
21,666,6.45923,-48.5316,0.00288258,0.0387613,-0.00181973,0.0388533,0.00279052,-1.52025,0.025024,0.0149011,1245,358,6.45918,48.5316
28,666,6.40027,-48.6752,0.00291925,0.0393786,-0.00174886,0.0394623,0.00283556,-1.52298,0.0254158,0.0223052,1252,358,6.40032,48.6752
35,666,6.36584,-48.6595,0.00201386,0.0402807,-0.00216143,0.0404024,0.00189216,-1.51455,0.0263269,0.0208692,1259,358,6.36581,48.6595
42,666,6.24951,-48.7513,0.00147266,0.0414987,-0.0023971,0.0416418,0.00132961,-1.51119,0.0273288,0.016139,1266,358,6.24949,48.7513
49,666,6.15149,-48.8128,-8.45191e-05,0.0431938,-0.00291556,0.0433893,-0.000280051,-1.50383,0.02902,0.0155698,1273,358,6.15144,48.8128
56,666,6.12708,-48.834,-0.00232097,0.0449099,-0.00347926,0.0451648,-0.00257589,-1.49766,0.0310042,0.0159124,1280,358,6.12704,48.834
63,666,6.06873,-48.9198,-0.00511391,0.0461483,-0.00437338,0.0465188,-0.00548435,-1.4863,0.0329929,0.018961,1287,358,6.06875,48.9198
70,666,6.02344,-48.901,-0.00799149,0.0480849,-0.00539862,0.0485999,-0.0085065,-1.47569,0.035576,0.0185438,1294,358,6.02339,48.901
77,666,5.98706,-48.7567,-0.00997909,0.0500259,-0.00691881,0.0508133,-0.0107665,-1.45747,0.0379766,0.022098,1301,358,5.98705,48.7567
84,666,5.95496,-48.7784,-0.0119072,0.0518437,-0.00852567,0.0529642,-0.0130277,-1.44012,0.0403591,0.0313924,1308,358,5.95498,48.7784
91,666,5.84106,-48.7998,-0.0132035,0.0533091,-0.0102845,0.054863,-0.0147574,-1.42084,0.0423602,0.0275231,1315,358,5.84111,48.7998
98,666,5.67871,-48.7086,-0.0136825,0.054497,-0.0118324,0.0564921,-0.0156776,-1.40375,0.043832,0.0227201,1322,358,5.67868,48.7086
105,666,5.54041,-48.5328,-0.0136934,0.0556178,-0.013047,0.0579924,-0.016068,-1.39076,0.0449845,0.025905,1329,358,5.5404,48.5328
112,666,5.49597,-48.3886,0,0,0,0,0,0,0,-1,1336,358,5.49602,48.3886
119,666,5.51563,-48.2505,0,0,0,0,0,0,0,-1,1343,358,5.51558,48.2505
126,666,5.28638,-47.8378,-0.0107234,0.0562123,-0.0155666,0.0596554,-0.0141665,-1.35312,0.0452379,0.0357239,1350,358,5.28633,47.8378
133,666,5.27515,-47.6907,-0.00818982,0.0560207,-0.015667,0.0596395,-0.0118085,-1.3438,0.0442245,0.0295356,1357,358,5.27512,47.6907
140,666,5.23962,-47.6136,-0.0057572,0.0552319,-0.0146544,0.0585703,-0.00909561,-1.34681,0.0424052,0.0286392,1364,358,5.23963,47.6136
147,666,5.08081,-47.4272,-0.00439474,0.0540849,-0.0131804,0.0569183,-0.00722811,-1.35905,0.0405701,0.0265103,1371,358,5.08084,47.4271
154,666,5.05286,-46.9808,-0.00308886,0.0525065,-0.0110705,0.0546298,-0.00521218,-1.3813,0.0382757,0.0238509,1378,358,5.05289,46.9808
161,666,5.0448,-46.6528,-0.00223677,0.0509268,-0.00874792,0.0523293,-0.00363922,-1.41183,0.0361603,0.0316466,1385,358,5.04481,46.6528
168,666,4.98645,-46.6992,0,0,0,0,0,0,0,-1,1392,358,4.98647,46.6992
175,666,5.0769,-46.5683,0,0,0,0,0,0,0,-1,1399,358,5.07691,46.5683
182,666,2.60876,-5.17068,0,0,0,0,0,0,0,-1,1406,358,2.6088,5.17068
189,666,2.46973,-5.49979,0,0,0,0,0,0,0,-1,1413,358,2.46975,5.49979
196,666,2.32458,-5.23651,0,0,0,0,0,0,0,-1,1420,358,2.32461,5.23653
203,666,2.28064,-3.88004,0,0,0,0,0,0,0,-1,1427,358,2.28059,3.88003
210,666,3.02576,-5.83548,0,0,0,0,0,0,0,-1,1434,358,3.02581,5.83547
217,666,2.30444,-5.36011,0,0,0,0,0,0,0,-1,1441,358,2.30447,5.3601
224,666,1.82324,-6.03101,0,0,0,0,0,0,0,-1,1448,358,1.82322,6.031
231,666,2.29797,-10.1093,0,0,0,0,0,0,0,-1,1455,358,2.29801,10.1093
238,666,2.52429,-6.10568,0,0,0,0,0,0,0,-1,1462,358,2.52423,6.10567
245,666,4.53345,-1.38205,0,0,0,0,0,0,0,-1,1469,358,4.53349,1.38204
252,666,4.77405,-0.246979,0,0,0,0,0,0,0,-1,1476,358,4.77405,0.246993
259,666,4.83655,1.14087,0,0,0,0,0,0,0,-1,1483,358,4.83652,-1.14087
266,666,6.14148,0.749512,0,0,0,0,0,0,0,-1,1490,358,6.14144,-0.749519
273,666,3.17737,-33.7881,0,0,0,0,0,0,0,-1,1497,358,3.17735,33.7881
280,666,3.37268,-35.2123,0,0,0,0,0,0,0,-1,1504,358,3.37266,35.2123
287,666,-7.06934,-20.3464,0,0,0,0,0,0,0,-1,1511,358,-7.06933,20.3464
294,666,-3.9248,-22.3573,0,0,0,0,0,0,0,-1,1518,358,-3.92482,22.3573
301,666,-5.9176,-23.2736,0,0,0,0,0,0,0,-1,1525,358,-5.91758,23.2736
308,666,-7.45471,-24.766,0,0,0,0,0,0,0,-1,1532,358,-7.45475,24.766
315,666,1.76294,-0.284027,0,0,0,0,0,0,0,-1,1539,358,1.76291,0.284016
322,666,0,0,0,0,0,0,0,0,0,-1,1546,358,0,0
329,666,0,0,0,0,0,0,0,0,0,-1,1553,358,0,0
336,666,0,0,0,0,0,0,0,0,0,-1,1560,358,0,0
343,666,0,0,0,0,0,0,0,0,0,-1,1567,358,0,0
350,666,0,0,0,0,0,0,0,0,0,-1,1574,358,0,0
357,666,0,0,0,0,0,0,0,0,0,-1,1581,358,0,0
364,666,0,0,0,0,0,0,0,0,0,-1,1588,358,0,0
371,666,0,0,0,0,0,0,0,0,0,-1,1595,358,0,0
378,666,0,0,0,0,0,0,0,0,0,-1,1602,358,0,0
385,666,0,0,0,0,0,0,0,0,0,-1,1609,358,0,0
392,666,0,0,0,0,0,0,0,0,0,-1,1616,358,0,0
399,666,0,0,0,0,0,0,0,0,0,-1,1623,358,0,0
406,666,0,0,0,0,0,0,0,0,0,-1,1630,358,0,0
413,666,0,0,0,0,0,0,0,0,0,-1,1637,358,0,0
420,666,0,0,0,0,0,0,0,0,0,-1,1644,358,0,0
427,666,0,0,0,0,0,0,0,0,0,-1,1651,358,0,0
434,666,0,0,0,0,0,0,0,0,0,-1,1658,358,0,0
441,666,0,0,0,0,0,0,0,0,0,-1,1665,358,0,0
448,666,0,0,0,0,0,0,0,0,0,-1,1672,358,0,0
455,666,0,0,0,0,0,0,0,0,0,-1,1679,358,0,0
462,666,0,0,0,0,0,0,0,0,0,-1,1686,358,0,0
469,666,0,0,0,0,0,0,0,0,0,-1,1693,358,0,0
476,666,0,0,0,0,0,0,0,0,0,-1,1700,358,0,0
483,666,0,0,0,0,0,0,0,0,0,-1,1707,358,0,0
490,666,0,0,0,0,0,0,0,0,0,-1,1714,358,0,0
497,666,0,0,0,0,0,0,0,0,0,-1,1721,358,0,0
504,666,0,0,0,0,0,0,0,0,0,-1,1728,358,0,0
511,666,0,0,0,0,0,0,0,0,0,-1,1735,358,0,0
518,666,0,0,0,0,0,0,0,0,0,-1,1742,358,0,0
525,666,0,0,0,0,0,0,0,0,0,-1,1749,358,0,0
532,666,0,0,0,0,0,0,0,0,0,-1,1756,358,0,0
539,666,0,0,0,0,0,0,0,0,0,-1,1763,358,0,0
546,666,0,0,0,0,0,0,0,0,0,-1,1770,358,0,0
553,666,0,0,0,0,0,0,0,0,0,-1,1777,358,0,0
560,666,0,0,0,0,0,0,0,0,0,-1,1784,358,0,0
567,666,0,0,0,0,0,0,0,0,0,-1,1791,358,0,0
574,666,0,0,0,0,0,0,0,0,0,-1,1798,358,0,0
581,666,0,0,0,0,0,0,0,0,0,-1,1805,358,0,0
588,666,0,0,0,0,0,0,0,0,0,-1,1812,358,0,0
595,666,0,0,0,0,0,0,0,0,0,-1,1819,358,0,0
602,666,0,0,0,0,0,0,0,0,0,-1,1826,358,0,0
609,666,0,0,0,0,0,0,0,0,0,-1,1833,358,0,0
616,666,0,0,0,0,0,0,0,0,0,-1,1840,358,0,0
623,666,0,0,0,0,0,0,0,0,0,-1,1847,358,0,0
630,666,0,0,0,0,0,0,0,0,0,-1,1854,358,0,0
637,666,0,0,0,0,0,0,0,0,0,-1,1861,358,0,0
644,666,0,0,0,0,0,0,0,0,0,-1,1868,358,0,0
651,666,0,0,0,0,0,0,0,0,0,-1,1875,358,0,0
658,666,0,0,0,0,0,0,0,0,0,-1,1882,358,0,0
665,666,0,0,0,0,0,0,0,0,0,-1,1889,358,0,0
672,666,0,0,0,0,0,0,0,0,0,-1,1896,358,0,0
679,666,0,0,0,0,0,0,0,0,0,-1,1903,358,0,0
686,666,0,0,0,0,0,0,0,0,0,-1,1910,358,0,0
693,666,0,0,0,0,0,0,0,0,0,-1,1917,358,0,0
700,666,0,0,0,0,0,0,0,0,0,-1,1924,358,0,0
707,666,0,0,0,0,0,0,0,0,0,-1,1931,358,0,0
714,666,0,0,0,0,0,0,0,0,0,-1,1938,358,0,0
721,666,0,0,0,0,0,0,0,0,0,-1,1945,358,0,0
728,666,0,0,0,0,0,0,0,0,0,-1,1952,358,0,0
735,666,0,0,0,0,0,0,0,0,0,-1,1959,358,0,0
742,666,0,0,0,0,0,0,0,0,0,-1,1966,358,0,0
749,666,0,0,0,0,0,0,0,0,0,-1,1973,358,0,0
756,666,0,0,0,0,0,0,0,0,0,-1,1980,358,0,0
763,666,0,0,0,0,0,0,0,0,0,-1,1987,358,0,0
770,666,0,0,0,0,0,0,0,0,0,-1,1994,358,0,0
777,666,0,0,0,0,0,0,0,0,0,-1,2001,358,0,0
784,666,0,0,0,0,0,0,0,0,0,-1,2008,358,0,0
791,666,0,0,0,0,0,0,0,0,0,-1,2015,358,0,0
798,666,0,0,0,0,0,0,0,0,0,-1,2022,358,0,0
805,666,0,0,0,0,0,0,0,0,0,-1,2029,358,0,0
812,666,0,0,0,0,0,0,0,0,0,-1,2036,358,0,0
-700,659,0,0,0,0,0,0,0,0,0,-1,524,365,0,0
-693,659,0,0,0,0,0,0,0,0,0,-1,531,365,0,0
-686,659,0,0,0,0,0,0,0,0,0,-1,538,365,0,0
-679,659,0,0,0,0,0,0,0,0,0,-1,545,365,0,0
-672,659,0,0,0,0,0,0,0,0,0,-1,552,365,0,0
-665,659,0,0,0,0,0,0,0,0,0,-1,559,365,0,0
-658,659,0,0,0,0,0,0,0,0,0,-1,566,365,0,0
-651,659,0,0,0,0,0,0,0,0,0,-1,573,365,0,0
-644,659,0,0,0,0,0,0,0,0,0,-1,580,365,0,0
-637,659,0,0,0,0,0,0,0,0,0,-1,587,365,0,0
-630,659,0,0,0,0,0,0,0,0,0,-1,594,365,0,0
-623,659,0,0,0,0,0,0,0,0,0,-1,601,365,0,0
-616,659,0,0,0,0,0,0,0,0,0,-1,608,365,0,0
-609,659,0,0,0,0,0,0,0,0,0,-1,615,365,0,0
-602,659,0,0,0,0,0,0,0,0,0,-1,622,365,0,0
-595,659,0,0,0,0,0,0,0,0,0,-1,629,365,0,0
-588,659,0,0,0,0,0,0,0,0,0,-1,636,365,0,0
-581,659,0,0,0,0,0,0,0,0,0,-1,643,365,0,0
-574,659,0,0,0,0,0,0,0,0,0,-1,650,365,0,0
-567,659,0,0,0,0,0,0,0,0,0,-1,657,365,0,0
-560,659,0,0,0,0,0,0,0,0,0,-1,664,365,0,0
-553,659,0,0,0,0,0,0,0,0,0,-1,671,365,0,0
-546,659,0,0,0,0,0,0,0,0,0,-1,678,365,0,0
-539,659,0,0,0,0,0,0,0,0,0,-1,685,365,0,0
-532,659,0,0,0,0,0,0,0,0,0,-1,692,365,0,0
-525,659,0,0,0,0,0,0,0,0,0,-1,699,365,0,0
-518,659,0,0,0,0,0,0,0,0,0,-1,706,365,0,0
-511,659,0,0,0,0,0,0,0,0,0,-1,713,365,0,0
-504,659,0,0,0,0,0,0,0,0,0,-1,720,365,0,0
-497,659,0,0,0,0,0,0,0,0,0,-1,727,365,0,0
-490,659,0,0,0,0,0,0,0,0,0,-1,734,365,0,0
-483,659,0,0,0,0,0,0,0,0,0,-1,741,365,0,0
-476,659,0,0,0,0,0,0,0,0,0,-1,748,365,0,0
-469,659,0,0,0,0,0,0,0,0,0,-1,755,365,0,0
-462,659,0,0,0,0,0,0,0,0,0,-1,762,365,0,0
-455,659,0,0,0,0,0,0,0,0,0,-1,769,365,0,0
-448,659,0,0,0,0,0,0,0,0,0,-1,776,365,0,0
-441,659,0,0,0,0,0,0,0,0,0,-1,783,365,0,0
-434,659,0,0,0,0,0,0,0,0,0,-1,790,365,0,0
-427,659,0,0,0,0,0,0,0,0,0,-1,797,365,0,0
-420,659,0,0,0,0,0,0,0,0,0,-1,804,365,0,0
-413,659,0,0,0,0,0,0,0,0,0,-1,811,365,0,0
-406,659,0,0,0,0,0,0,0,0,0,-1,818,365,0,0
-399,659,0,0,0,0,0,0,0,0,0,-1,825,365,0,0
-392,659,0,0,0,0,0,0,0,0,0,-1,832,365,0,0
-385,659,0,0,0,0,0,0,0,0,0,-1,839,365,0,0
-378,659,0,0,0,0,0,0,0,0,0,-1,846,365,0,0
-371,659,0,0,0,0,0,0,0,0,0,-1,853,365,0,0
-364,659,0,0,0,0,0,0,0,0,0,-1,860,365,0,0
-357,659,0,0,0,0,0,0,0,0,0,-1,867,365,0,0
-350,659,0,0,0,0,0,0,0,0,0,-1,874,365,0,0
-343,659,0,0,0,0,0,0,0,0,0,-1,881,365,0,0
-336,659,0,0,0,0,0,0,0,0,0,-1,888,365,0,0
-329,659,0,0,0,0,0,0,0,0,0,-1,895,365,0,0
-322,659,0,0,0,0,0,0,0,0,0,-1,902,365,0,0
-315,659,0,0,0,0,0,0,0,0,0,-1,909,365,0,0
-308,659,0,0,0,0,0,0,0,0,0,-1,916,365,0,0
-301,659,0,0,0,0,0,0,0,0,0,-1,923,365,0,0
-294,659,0,0,0,0,0,0,0,0,0,-1,930,365,0,0
-287,659,0,0,0,0,0,0,0,0,0,-1,937,365,0,0
-280,659,0,0,0,0,0,0,0,0,0,-1,944,365,0,0
-273,659,0,0,0,0,0,0,0,0,0,-1,951,365,0,0
-266,659,0,0,0,0,0,0,0,0,0,-1,958,365,0,0
-259,659,0,0,0,0,0,0,0,0,0,-1,965,365,0,0
-252,659,0,0,0,0,0,0,0,0,0,-1,972,365,0,0
-245,659,0,0,0,0,0,0,0,0,0,-1,979,365,0,0
-238,659,0,0,0,0,0,0,0,0,0,-1,986,365,0,0
-231,659,0,0,0,0,0,0,0,0,0,-1,993,365,0,0
-224,659,0,0,0,0,0,0,0,0,0,-1,1000,365,0,0
-217,659,10.1305,-25.2622,0,0,0,0,0,0,0,-1,1007,365,10.1305,25.2622
-210,659,9.65643,-25.515,0,0,0,0,0,0,0,-1,1014,365,9.65642,25.515
-203,659,8.58911,-25.7432,0,0,0,0,0,0,0,-1,1021,365,8.58916,25.7432
-196,659,2.68323,-27.8121,0,0,0,0,0,0,0,-1,1028,365,2.6832,27.8121
-189,659,6.88049,-28.9412,0,0,0,0,0,0,0,-1,1035,365,6.88045,28.9412
-182,659,6.94189,-30.6316,0,0,0,0,0,0,0,-1,1042,365,6.94189,30.6316
-175,659,6.948,-32.0092,0,0,0,0,0,0,0,-1,1049,365,6.94798,32.0093
-168,659,7.1416,-32.7405,0,0,0,0,0,0,0,-1,1056,365,7.14157,32.7405
-161,659,7.57361,-33.7099,0,0,0,0,0,0,0,-1,1063,365,7.57355,33.7099
-154,659,7.71448,-34.8995,0,0,0,0,0,0,0,-1,1070,365,7.7145,34.8995
-147,659,5.46606,-37.758,0,0,0,0,0,0,0,-1,1077,365,5.46601,37.758
-140,659,5.7356,-37.755,0,0,0,0,0,0,0,-1,1084,365,5.73562,37.755
-133,659,5.91455,-37.9017,0,0,0,0,0,0,0,-1,1091,365,5.9146,37.9017
-126,659,6.31226,-37.9904,0,0,0,0,0,0,0,-1,1098,365,6.3122,37.9904
-119,659,6.26941,-35.0837,0,0,0,0,0,0,0,-1,1105,365,6.26943,35.0837
-112,659,6.24353,-35.0562,0,0,0,0,0,0,0,-1,1112,365,6.24349,35.0562
-105,659,5.38696,-30.5854,0,0,0,0,0,0,0,-1,1119,365,5.387,30.5854
-98,659,4.68042,-26.2438,0,0,0,0,0,0,0,-1,1126,365,4.68041,26.2438
-91,659,4.20776,-20.8654,0,0,0,0,0,0,0,-1,1133,365,4.20777,20.8654
-84,659,2.8584,-17.8303,0,0,0,0,0,0,0,-1,1140,365,2.85836,17.8303
-77,659,2.80139,-15.3457,0,0,0,0,0,0,0,-1,1147,365,2.80139,15.3457
-70,659,2.9353,-12.7028,0,0,0,0,0,0,0,-1,1154,365,2.93533,12.7028
-63,659,2.11267,-9.7796,0,0,0,0,0,0,0,-1,1161,365,2.11266,9.7796
-56,659,2.11182,-9.91541,0,0,0,0,0,0,0,-1,1168,365,2.11178,9.91541
-49,659,6.91003,-46.8584,0,0,0,0,0,0,0,-1,1175,365,6.91005,46.8584
-42,659,6.87366,-47.1218,0,0,0,0,0,0,0,-1,1182,365,6.8737,47.1218
-35,659,6.77429,-47.4012,-0.00638712,0.0217903,-0.00029643,0.0217934,-0.00639024,-1.56028,0.0170627,0.0426669,1189,365,6.77435,47.4012
-28,659,6.78381,-47.5481,-0.00582492,0.023319,-0.000321819,0.0233226,-0.00582848,-1.55976,0.017812,0.0167364,1196,365,6.78383,47.5481
-21,659,6.72461,-47.791,-0.00492471,0.0249817,-0.000424766,0.0249877,-0.00493074,-1.5566,0.0185221,0.013829,1203,365,6.72459,47.791
-14,659,6.61743,-48.0414,-0.00414935,0.0262564,-0.000380899,0.0262611,-0.00415412,-1.55827,0.0190438,0.011294,1210,365,6.61741,48.0414
-7,659,6.55676,-48.2133,-0.00339847,0.0271811,-0.000333578,0.0271848,-0.00340211,-1.55989,0.0193571,0.0110536,1217,365,6.55676,48.2133
0,659,6.52979,-48.36,-0.00243178,0.0279143,-0.000462007,0.0279214,-0.00243881,-1.55558,0.0194781,0.00983659,1224,365,6.52982,48.36
7,659,6.48706,-48.4796,-0.00138703,0.0285078,-0.000687285,0.0285236,-0.00140282,-1.54782,0.0195002,0.00970968,1231,365,6.48701,48.4796
14,659,6.41809,-48.5708,-1.26581e-06,0.0292946,-0.00101257,0.0293295,-3.62219e-05,-1.53629,0.0195651,0.012032,1238,365,6.41804,48.5708
21,659,6.36633,-48.6922,0.000966965,0.0299546,-0.00111705,0.0299975,0.000923984,-1.53234,0.0196976,0.0124977,1245,365,6.36638,48.6922
28,659,6.29736,-48.8122,0.00100873,0.0305199,-0.00102824,0.0305557,0.000972942,-1.53601,0.020054,0.0120697,1252,365,6.29732,48.8122
35,659,6.27454,-48.8857,0.000403346,0.0312931,-0.00133325,0.0313505,0.000345907,-1.52774,0.020786,0.0124908,1259,365,6.27449,48.8857
42,659,6.22095,-48.9563,-2.11682e-05,0.0322511,-0.00147393,0.0323183,-8.83453e-05,-1.52525,0.021575,0.0134945,1266,365,6.22097,48.9563
49,659,6.14087,-49.0138,-0.00118361,0.0336178,-0.0018349,0.0337143,-0.00128008,-1.51827,0.0229148,0.0150017,1273,365,6.14089,49.0138
56,659,6.08081,-49.0143,-0.00280442,0.0350738,-0.00228125,0.0352107,-0.00294132,-1.51086,0.0245131,0.0186868,1280,365,6.08082,49.0142
63,659,6.07593,-49.0605,-0.00477309,0.0361621,-0.00298567,0.0363787,-0.00498971,-1.49837,0.0260753,0.0181184,1287,365,6.07591,49.0605
70,659,6.00134,-49.0739,-0.0067675,0.0377031,-0.0037981,0.0380251,-0.00708955,-1.48621,0.0280139,0.0179411,1294,365,6.00136,49.0739
77,659,5.90649,-49.0486,-0.00811246,0.0392321,-0.00497798,0.0397498,-0.0086302,-1.46716,0.0297962,0.0190106,1301,365,5.90649,49.0486
84,659,5.89551,-48.9996,-0.00945696,0.0405776,-0.0062135,0.0413376,-0.010217,-1.44908,0.031521,0.0141244,1308,365,5.89547,48.9996
91,659,5.84302,-48.9372,-0.0103745,0.0415661,-0.00753593,0.0426374,-0.0114457,-1.42959,0.0329104,0.012216,1315,365,5.84305,48.9372
98,659,5.7666,-48.8351,-0.010721,0.04235,-0.0086579,0.0437267,-0.0120977,-1.4131,0.0339108,0.00861475,1322,365,5.76662,48.8351
105,659,5.72827,-48.7,-0.0107053,0.0430831,-0.0094872,0.0447074,-0.0123296,-1.40123,0.0346538,0.0100454,1329,365,5.72826,48.7
112,659,5.69421,-48.5666,-0.0103436,0.0434656,-0.0102297,0.0453448,-0.0122228,-1.38913,0.0350224,0.0150388,1336,365,5.69425,48.5666
119,659,5.63232,-48.4039,-0.00981946,0.0432727,-0.0107494,0.0453665,-0.0119133,-1.37842,0.0348999,0.0174404,1343,365,5.63233,48.4039
126,659,5.5459,-48.1974,-0.00863078,0.0430035,-0.0110461,0.0452673,-0.0108946,-1.36865,0.0343899,0.0155137,1350,365,5.54585,48.1974
133,659,5.479,-48.0132,-0.00682511,0.0426358,-0.0109747,0.0449615,-0.00915086,-1.36197,0.0334446,0.0135219,1357,365,5.47898,48.0133
140,659,5.41992,-47.8843,-0.00506771,0.0418581,-0.0100287,0.0439116,-0.00712113,-1.36883,0.031914,0.0110095,1364,365,5.41993,47.8843
147,659,5.37622,-47.6879,-0.00412966,0.0408648,-0.00881846,0.0425314,-0.00579626,-1.38401,0.0304707,0.0103313,1371,365,5.37621,47.6879
154,659,5.29871,-47.417,-0.00325105,0.0394854,-0.00711187,0.0406378,-0.00440348,-1.41015,0.0286726,0.0117103,1378,365,5.29875,47.417
161,659,5.23755,-47.1251,-0.00275136,0.0380567,-0.00521177,0.0387118,-0.00340646,-1.44576,0.027015,0.0126577,1385,365,5.23752,47.1251
168,659,5.20044,-46.8206,-0.00283294,0.0366993,-0.00291588,0.0369132,-0.00304686,-1.49757,0.0256848,0.0193138,1392,365,5.20047,46.8206
175,659,5.16711,-46.5687,-0.00313573,0.034421,-0.000926393,0.0344438,-0.00315856,-1.54615,0.0240845,0.0426689,1399,365,5.16707,46.5687
182,659,5.03967,-46.3905,0,0,0,0,0,0,0,-1,1406,365,5.03972,46.3905
189,659,5.03625,-45.8881,0,0,0,0,0,0,0,-1,1413,365,5.03621,45.8881
196,659,2.41248,-13.4371,0,0,0,0,0,0,0,-1,1420,365,2.41243,13.4371
203,659,2.38623,-12.2163,0,0,0,0,0,0,0,-1,1427,365,2.38617,12.2163
210,659,2.20789,-13.9792,0,0,0,0,0,0,0,-1,1434,365,2.20794,13.9792
217,659,2.24121,-13.487,0,0,0,0,0,0,0,-1,1441,365,2.24116,13.487
224,659,2.3479,-15.2926,0,0,0,0,0,0,0,-1,1448,365,2.34793,15.2926
231,659,2.47974,-17.8629,0,0,0,0,0,0,0,-1,1455,365,2.47976,17.8628
238,659,3.57886,-21.1258,0,0,0,0,0,0,0,-1,1462,365,3.57889,21.1258
245,659,3.29883,-25.0283,0,0,0,0,0,0,0,-1,1469,365,3.29889,25.0283
252,659,2.81909,-24.1604,0,0,0,0,0,0,0,-1,1476,365,2.81905,24.1604
259,659,2.33069,-3.36703,0,0,0,0,0,0,0,-1,1483,365,2.33073,3.36702
266,659,3.40918,-35.2544,0,0,0,0,0,0,0,-1,1490,365,3.40913,35.2544
273,659,3.66003,-40.9905,0,0,0,0,0,0,0,-1,1497,365,3.66009,40.9905
280,659,3.8877,-40.9072,0,0,0,0,0,0,0,-1,1504,365,3.8877,40.9072
287,659,-0.00402832,-21.4044,0,0,0,0,0,0,0,-1,1511,365,-0.00405128,21.4044
294,659,-1.83777,-21.9633,-0.151774,0.000968411,-0.09928,0.0498533,-0.200659,-1.11325,0.15312,0.0458278,1518,365,-1.83781,21.9633
301,659,-3.80432,-22.5957,-0.169147,-0.001134,-0.109905,0.0531936,-0.223474,-1.11171,0.169519,0.0475075,1525,365,-3.80428,22.5957
308,659,-5.6853,-23.1216,0,0,0,0,0,0,0,-1,1532,365,-5.68529,23.1216
315,659,-8.19324,-23.4192,0,0,0,0,0,0,0,-1,1539,365,-8.19327,23.4192
322,659,-4.974,-25.1078,0,0,0,0,0,0,0,-1,1546,365,-4.97395,25.1078
329,659,-7.67749,-23.0449,0,0,0,0,0,0,0,-1,1553,365,-7.67745,23.0449
336,659,-7.71436,-22.4188,0,0,0,0,0,0,0,-1,1560,365,-7.71432,22.4188
343,659,0,0,0,0,0,0,0,0,0,-1,1567,365,0,0
350,659,0,0,0,0,0,0,0,0,0,-1,1574,365,0,0
357,659,0,0,0,0,0,0,0,0,0,-1,1581,365,0,0
364,659,0,0,0,0,0,0,0,0,0,-1,1588,365,0,0
371,659,0,0,0,0,0,0,0,0,0,-1,1595,365,0,0
378,659,0,0,0,0,0,0,0,0,0,-1,1602,365,0,0
385,659,0,0,0,0,0,0,0,0,0,-1,1609,365,0,0
392,659,0,0,0,0,0,0,0,0,0,-1,1616,365,0,0
399,659,0,0,0,0,0,0,0,0,0,-1,1623,365,0,0
406,659,0,0,0,0,0,0,0,0,0,-1,1630,365,0,0
413,659,0,0,0,0,0,0,0,0,0,-1,1637,365,0,0
420,659,0,0,0,0,0,0,0,0,0,-1,1644,365,0,0
427,659,0,0,0,0,0,0,0,0,0,-1,1651,365,0,0
434,659,0,0,0,0,0,0,0,0,0,-1,1658,365,0,0
441,659,0,0,0,0,0,0,0,0,0,-1,1665,365,0,0
448,659,0,0,0,0,0,0,0,0,0,-1,1672,365,0,0
455,659,0,0,0,0,0,0,0,0,0,-1,1679,365,0,0
462,659,0,0,0,0,0,0,0,0,0,-1,1686,365,0,0
469,659,0,0,0,0,0,0,0,0,0,-1,1693,365,0,0
476,659,0,0,0,0,0,0,0,0,0,-1,1700,365,0,0
483,659,0,0,0,0,0,0,0,0,0,-1,1707,365,0,0
490,659,0,0,0,0,0,0,0,0,0,-1,1714,365,0,0
497,659,0,0,0,0,0,0,0,0,0,-1,1721,365,0,0
504,659,0,0,0,0,0,0,0,0,0,-1,1728,365,0,0
511,659,0,0,0,0,0,0,0,0,0,-1,1735,365,0,0
518,659,0,0,0,0,0,0,0,0,0,-1,1742,365,0,0
525,659,0,0,0,0,0,0,0,0,0,-1,1749,365,0,0
532,659,0,0,0,0,0,0,0,0,0,-1,1756,365,0,0
539,659,0,0,0,0,0,0,0,0,0,-1,1763,365,0,0
546,659,0,0,0,0,0,0,0,0,0,-1,1770,365,0,0
553,659,0,0,0,0,0,0,0,0,0,-1,1777,365,0,0
560,659,0,0,0,0,0,0,0,0,0,-1,1784,365,0,0
567,659,0,0,0,0,0,0,0,0,0,-1,1791,365,0,0
574,659,0,0,0,0,0,0,0,0,0,-1,1798,365,0,0
581,659,0,0,0,0,0,0,0,0,0,-1,1805,365,0,0
588,659,0,0,0,0,0,0,0,0,0,-1,1812,365,0,0
595,659,0,0,0,0,0,0,0,0,0,-1,1819,365,0,0
602,659,0,0,0,0,0,0,0,0,0,-1,1826,365,0,0
609,659,0,0,0,0,0,0,0,0,0,-1,1833,365,0,0
616,659,0,0,0,0,0,0,0,0,0,-1,1840,365,0,0
623,659,0,0,0,0,0,0,0,0,0,-1,1847,365,0,0
630,659,0,0,0,0,0,0,0,0,0,-1,1854,365,0,0
637,659,0,0,0,0,0,0,0,0,0,-1,1861,365,0,0
644,659,0,0,0,0,0,0,0,0,0,-1,1868,365,0,0
651,659,0,0,0,0,0,0,0,0,0,-1,1875,365,0,0
658,659,0,0,0,0,0,0,0,0,0,-1,1882,365,0,0
665,659,0,0,0,0,0,0,0,0,0,-1,1889,365,0,0
672,659,0,0,0,0,0,0,0,0,0,-1,1896,365,0,0
679,659,0,0,0,0,0,0,0,0,0,-1,1903,365,0,0
686,659,0,0,0,0,0,0,0,0,0,-1,1910,365,0,0
693,659,0,0,0,0,0,0,0,0,0,-1,1917,365,0,0
700,659,0,0,0,0,0,0,0,0,0,-1,1924,365,0,0
707,659,0,0,0,0,0,0,0,0,0,-1,1931,365,0,0
714,659,0,0,0,0,0,0,0,0,0,-1,1938,365,0,0
721,659,0,0,0,0,0,0,0,0,0,-1,1945,365,0,0
728,659,0,0,0,0,0,0,0,0,0,-1,1952,365,0,0
735,659,0,0,0,0,0,0,0,0,0,-1,1959,365,0,0
742,659,0,0,0,0,0,0,0,0,0,-1,1966,365,0,0
749,659,0,0,0,0,0,0,0,0,0,-1,1973,365,0,0
756,659,0,0,0,0,0,0,0,0,0,-1,1980,365,0,0
763,659,0,0,0,0,0,0,0,0,0,-1,1987,365,0,0
770,659,0,0,0,0,0,0,0,0,0,-1,1994,365,0,0
777,659,0,0,0,0,0,0,0,0,0,-1,2001,365,0,0
784,659,0,0,0,0,0,0,0,0,0,-1,2008,365,0,0
791,659,0,0,0,0,0,0,0,0,0,-1,2015,365,0,0
798,659,0,0,0,0,0,0,0,0,0,-1,2022,365,0,0
805,659,0,0,0,0,0,0,0,0,0,-1,2029,365,0,0
812,659,0,0,0,0,0,0,0,0,0,-1,2036,365,0,0
-700,652,0,0,0,0,0,0,0,0,0,-1,524,372,0,0
-693,652,0,0,0,0,0,0,0,0,0,-1,531,372,0,0
-686,652,0,0,0,0,0,0,0,0,0,-1,538,372,0,0
-679,652,0,0,0,0,0,0,0,0,0,-1,545,372,0,0
-672,652,0,0,0,0,0,0,0,0,0,-1,552,372,0,0
-665,652,0,0,0,0,0,0,0,0,0,-1,559,372,0,0
-658,652,0,0,0,0,0,0,0,0,0,-1,566,372,0,0
-651,652,0,0,0,0,0,0,0,0,0,-1,573,372,0,0
-644,652,0,0,0,0,0,0,0,0,0,-1,580,372,0,0
-637,652,0,0,0,0,0,0,0,0,0,-1,587,372,0,0
-630,652,0,0,0,0,0,0,0,0,0,-1,594,372,0,0
-623,652,0,0,0,0,0,0,0,0,0,-1,601,372,0,0
-616,652,0,0,0,0,0,0,0,0,0,-1,608,372,0,0
-609,652,0,0,0,0,0,0,0,0,0,-1,615,372,0,0
-602,652,0,0,0,0,0,0,0,0,0,-1,622,372,0,0
-595,652,0,0,0,0,0,0,0,0,0,-1,629,372,0,0
-588,652,0,0,0,0,0,0,0,0,0,-1,636,372,0,0
-581,652,0,0,0,0,0,0,0,0,0,-1,643,372,0,0
-574,652,0,0,0,0,0,0,0,0,0,-1,650,372,0,0
-567,652,0,0,0,0,0,0,0,0,0,-1,657,372,0,0
-560,652,0,0,0,0,0,0,0,0,0,-1,664,372,0,0
-553,652,0,0,0,0,0,0,0,0,0,-1,671,372,0,0
-546,652,0,0,0,0,0,0,0,0,0,-1,678,372,0,0
-539,652,0,0,0,0,0,0,0,0,0,-1,685,372,0,0
-532,652,0,0,0,0,0,0,0,0,0,-1,692,372,0,0
-525,652,0,0,0,0,0,0,0,0,0,-1,699,372,0,0
-518,652,0,0,0,0,0,0,0,0,0,-1,706,372,0,0
-511,652,0,0,0,0,0,0,0,0,0,-1,713,372,0,0
-504,652,0,0,0,0,0,0,0,0,0,-1,720,372,0,0
-497,652,0,0,0,0,0,0,0,0,0,-1,727,372,0,0
-490,652,0,0,0,0,0,0,0,0,0,-1,734,372,0,0
-483,652,0,0,0,0,0,0,0,0,0,-1,741,372,0,0
-476,652,0,0,0,0,0,0,0,0,0,-1,748,372,0,0
-469,652,0,0,0,0,0,0,0,0,0,-1,755,372,0,0
-462,652,0,0,0,0,0,0,0,0,0,-1,762,372,0,0
-455,652,0,0,0,0,0,0,0,0,0,-1,769,372,0,0
-448,652,0,0,0,0,0,0,0,0,0,-1,776,372,0,0
-441,652,0,0,0,0,0,0,0,0,0,-1,783,372,0,0
-434,652,0,0,0,0,0,0,0,0,0,-1,790,372,0,0
-427,652,0,0,0,0,0,0,0,0,0,-1,797,372,0,0
-420,652,0,0,0,0,0,0,0,0,0,-1,804,372,0,0
-413,652,0,0,0,0,0,0,0,0,0,-1,811,372,0,0
-406,652,0,0,0,0,0,0,0,0,0,-1,818,372,0,0
-399,652,0,0,0,0,0,0,0,0,0,-1,825,372,0,0
-392,652,0,0,0,0,0,0,0,0,0,-1,832,372,0,0
-385,652,0,0,0,0,0,0,0,0,0,-1,839,372,0,0
-378,652,0,0,0,0,0,0,0,0,0,-1,846,372,0,0
-371,652,0,0,0,0,0,0,0,0,0,-1,853,372,0,0
-364,652,0,0,0,0,0,0,0,0,0,-1,860,372,0,0
-357,652,0,0,0,0,0,0,0,0,0,-1,867,372,0,0
-350,652,0,0,0,0,0,0,0,0,0,-1,874,372,0,0
-343,652,0,0,0,0,0,0,0,0,0,-1,881,372,0,0
-336,652,0,0,0,0,0,0,0,0,0,-1,888,372,0,0
-329,652,0,0,0,0,0,0,0,0,0,-1,895,372,0,0
-322,652,0,0,0,0,0,0,0,0,0,-1,902,372,0,0
-315,652,0,0,0,0,0,0,0,0,0,-1,909,372,0,0
-308,652,0,0,0,0,0,0,0,0,0,-1,916,372,0,0
-301,652,0,0,0,0,0,0,0,0,0,-1,923,372,0,0
-294,652,0,0,0,0,0,0,0,0,0,-1,930,372,0,0
-287,652,0,0,0,0,0,0,0,0,0,-1,937,372,0,0
-280,652,0,0,0,0,0,0,0,0,0,-1,944,372,0,0
-273,652,0,0,0,0,0,0,0,0,0,-1,951,372,0,0
-266,652,0,0,0,0,0,0,0,0,0,-1,958,372,0,0
-259,652,0,0,0,0,0,0,0,0,0,-1,965,372,0,0
-252,652,0,0,0,0,0,0,0,0,0,-1,972,372,0,0
-245,652,0,0,0,0,0,0,0,0,0,-1,979,372,0,0
-238,652,0,0,0,0,0,0,0,0,0,-1,986,372,0,0
-231,652,8.79358,-27.1656,0,0,0,0,0,0,0,-1,993,372,8.79357,27.1656
-224,652,8.84552,-27.675,0,0,0,0,0,0,0,-1,1000,372,8.84555,27.675
-217,652,9.03113,-27.7474,0,0,0,0,0,0,0,-1,1007,372,9.0311,27.7474
-210,652,9.72803,-30.4624,0,0,0,0,0,0,0,-1,1014,372,9.72805,30.4624
-203,652,7.2677,-26.0732,0,0,0,0,0,0,0,-1,1021,372,7.26775,26.0732
-196,652,5.90686,-26.957,0,0,0,0,0,0,0,-1,1028,372,5.9068,26.957
-189,652,6.21326,-28.3035,0,0,0,0,0,0,0,-1,1035,372,6.21331,28.3035
-182,652,6.45068,-29.9377,0,0,0,0,0,0,0,-1,1042,372,6.45074,29.9377
-175,652,6.72559,-31.6948,0,0,0,0,0,0,0,-1,1049,372,6.72563,31.6948
-168,652,7.08533,-32.8669,0,0,0,0,0,0,0,-1,1056,372,7.08532,32.8669
-161,652,7.85291,-37.3545,0,0,0,0,0,0,0,-1,1063,372,7.85294,37.3545
-154,652,7.54639,-37.9586,0,0,0,0,0,0,0,-1,1070,372,7.54642,37.9586
-147,652,8.1582,-41.1453,0,0,0,0,0,0,0,-1,1077,372,8.15823,41.1453
-140,652,5.6842,-33.9781,0,0,0,0,0,0,0,-1,1084,372,5.68421,33.9781
-133,652,6.3009,-35.2887,0,0,0,0,0,0,0,-1,1091,372,6.30093,35.2887
-126,652,5.86841,-37.0981,0,0,0,0,0,0,0,-1,1098,372,5.86845,37.0981
-119,652,7.34375,-42.8458,0,0,0,0,0,0,0,-1,1105,372,7.34372,42.8458
-112,652,7.1283,-43.2343,0,0,0,0,0,0,0,-1,1112,372,7.12833,43.2343
-105,652,6.63855,-39.9965,0,0,0,0,0,0,0,-1,1119,372,6.63852,39.9965
-98,652,5.84302,-35.2455,0,0,0,0,0,0,0,-1,1126,372,5.84307,35.2455
-91,652,5.66296,-32.9003,0,0,0,0,0,0,0,-1,1133,372,5.66297,32.9003
-84,652,5.46057,-34.9186,0,0,0,0,0,0,0,-1,1140,372,5.46057,34.9186
-77,652,6.90942,-45.4433,0,0,0,0,0,0,0,-1,1147,372,6.90938,45.4433
-70,652,6.88098,-45.9265,0,0,0,0,0,0,0,-1,1154,372,6.88102,45.9265
-63,652,6.84583,-46.2369,0,0,0,0,0,0,0,-1,1161,372,6.84586,46.2369
-56,652,6.69556,-46.5627,0,0,0,0,0,0,0,-1,1168,372,6.69555,46.5627
-49,652,6.7251,-46.8899,-0.00774941,0.0129613,-0.000914513,0.0130016,-0.00778971,-1.52675,0.0121289,0.0365263,1175,372,6.72507,46.8899
-42,652,6.63306,-47.0955,-0.00651859,0.0149284,-0.000895568,0.0149658,-0.00655592,-1.52914,0.0127379,0.0131229,1182,372,6.63309,47.0955
-35,652,6.61206,-47.3475,-0.00548899,0.0164397,-0.000665811,0.0164599,-0.00550918,-1.54047,0.0131987,0.0102113,1189,372,6.6121,47.3475
-28,652,6.57056,-47.5981,-0.00506002,0.0175175,-0.000556237,0.0175312,-0.00507372,-1.54618,0.0136957,0.00832114,1196,372,6.5706,47.598
-21,652,6.49719,-47.8573,-0.00434918,0.0185921,-0.000506649,0.0186033,-0.00436036,-1.54873,0.0140825,0.00863839,1203,372,6.49719,47.8573
-14,652,6.46069,-48.0723,-0.0037361,0.0193418,-0.000379346,0.0193481,-0.00374234,-1.55436,0.0143102,0.0102709,1210,372,6.46067,48.0723
-7,652,6.41919,-48.2692,-0.0031381,0.0197959,-0.000285651,0.0197994,-0.00314166,-1.55834,0.0143618,0.0133958,1217,372,6.41923,48.2692
0,652,6.37634,-48.4246,-0.0024131,0.0201128,-0.000284002,0.0201164,-0.00241668,-1.55819,0.0142848,0.0138195,1224,372,6.37636,48.4246
7,652,6.36145,-48.4997,-0.00172099,0.0203661,-0.000322305,0.0203708,-0.00172569,-1.55621,0.0141908,0.0141729,1231,372,6.36141,48.4997
14,652,6.31616,-48.6456,-0.000887248,0.0208309,-0.000445285,0.02084,-0.000896375,-1.5503,0.0142015,0.0120002,1238,372,6.31617,48.6456
21,652,6.24878,-48.7859,-0.000273279,0.0212849,-0.000421802,0.0212932,-0.000281528,-1.55124,0.0142902,0.0120145,1245,372,6.24874,48.7859
28,652,6.22437,-48.9056,-0.000295461,0.0217684,-0.000307551,0.0217727,-0.000299746,-1.55686,0.0146161,0.0112933,1252,372,6.22437,48.9056
35,652,6.19604,-48.969,-0.000765088,0.022422,-0.000511957,0.0224333,-0.000776385,-1.54873,0.0152209,0.0106797,1259,372,6.19602,48.969
42,652,6.14319,-49.0297,-0.0011629,0.0231835,-0.000571632,0.0231969,-0.00117632,-1.54733,0.0158713,0.0120101,1266,372,6.14321,49.0297
49,652,6.1283,-49.079,-0.00204342,0.0242942,-0.000783484,0.0243175,-0.0020667,-1.54108,0.0169426,0.01464,1273,372,6.12835,49.079
56,652,6.1051,-49.0776,-0.00318536,0.0255211,-0.0010978,0.0255631,-0.00322728,-1.53263,0.0182134,0.0167348,1280,372,6.10513,49.0776
63,652,6.0752,-49.0989,-0.00448219,0.0264471,-0.00161877,0.0265316,-0.00456669,-1.51865,0.01939,0.0211721,1287,372,6.07519,49.0989
70,652,6.02734,-49.0829,-0.00574755,0.027612,-0.00221047,0.0277578,-0.00589338,-1.50492,0.0207505,0.0176898,1294,372,6.02735,49.083
77,652,5.93286,-49.0828,-0.00656783,0.0287458,-0.00305168,0.0290076,-0.0068296,-1.48523,0.0219717,0.0170242,1301,372,5.93285,49.0828
84,652,5.94019,-49.0544,-0.00742374,0.0295865,-0.00394589,0.0300025,-0.00783976,-1.46575,0.0230634,0.0145597,1308,372,5.94021,49.0544
91,652,5.89453,-49.0452,-0.00800972,0.0301279,-0.00492158,0.0307527,-0.0086346,-1.4445,0.0239056,0.0175559,1315,372,5.89457,49.0452
98,652,5.86023,-48.9262,-0.00825298,0.0305406,-0.00571538,0.0313651,-0.00907749,-1.42752,0.0245029,0.0138473,1322,372,5.86019,48.9262
105,652,5.83325,-48.7743,-0.00820733,0.0309216,-0.00628596,0.0319067,-0.00919235,-1.41536,0.0249072,0.0110546,1329,372,5.83327,48.7743
112,652,5.79553,-48.6454,-0.00791408,0.0310724,-0.00681657,0.0322299,-0.00907155,-1.4026,0.0250638,0.0092352,1336,372,5.79559,48.6454
119,652,5.75964,-48.4876,-0.00752423,0.0307378,-0.00715284,0.0320313,-0.00881768,-1.3919,0.0248211,0.0103012,1343,372,5.75959,48.4876
126,652,5.69812,-48.2966,-0.00678135,0.0303925,-0.00734534,0.0317912,-0.00818011,-1.38262,0.0243826,0.0131499,1350,372,5.69808,48.2966
133,652,5.64673,-48.1259,-0.00555662,0.0299782,-0.00723033,0.031393,-0.00697146,-1.37756,0.0235983,0.0137455,1357,372,5.64669,48.1259
140,652,5.60571,-47.9555,-0.00433029,0.0293256,-0.00640579,0.0305036,-0.00550828,-1.38893,0.0223987,0.0105043,1364,372,5.60566,47.9555
147,652,5.58789,-47.7344,-0.0037223,0.0286116,-0.00542782,0.0294984,-0.00460913,-1.40884,0.0213683,0.00995171,1371,372,5.58788,47.7344
154,652,5.54358,-47.4885,-0.00318746,0.0276032,-0.00407454,0.0281332,-0.00371752,-1.44143,0.0201095,0.00974685,1378,372,5.5436,47.4885
161,652,5.47754,-47.2214,-0.00293372,0.0265977,-0.0025565,0.0268174,-0.0031534,-1.48508,0.0190168,0.010517,1385,372,5.47753,47.2214
168,652,5.42847,-46.9306,-0.00310837,0.0257926,-0.000781821,0.0258138,-0.0031295,-1.54377,0.0183416,0.0117827,1392,372,5.42848,46.9306
175,652,5.39954,-46.631,-0.00338879,0.0244541,0.000685468,0.024471,-0.00340566,1.5462,0.0175597,0.0128533,1399,372,5.39953,46.631
182,652,5.3396,-46.3648,-0.00364776,0.0229229,0.00278848,0.0232124,-0.00393724,1.46735,0.0169406,0.018733,1406,372,5.33963,46.3648
189,652,5.32263,-46.049,-0.0038899,0.0210362,0.00421783,0.0217306,-0.00458428,1.40763,0.0162324,0.0310238,1413,372,5.32266,46.049
196,652,5.25195,-45.7031,0,0,0,0,0,0,0,-1,1420,372,5.25196,45.7031
203,652,5.19543,-45.3135,0,0,0,0,0,0,0,-1,1427,372,5.19548,45.3135
210,652,5.21936,-44.816,0,0,0,0,0,0,0,-1,1434,372,5.21939,44.8161
217,652,4.89636,-43.0341,0,0,0,0,0,0,0,-1,1441,372,4.89634,43.034
224,652,3.63794,-31.2791,0,0,0,0,0,0,0,-1,1448,372,3.63799,31.2791
231,652,3.83936,-30.4812,0,0,0,0,0,0,0,-1,1455,372,3.8393,30.4812
238,652,4.42358,-36.4103,0,0,0,0,0,0,0,-1,1462,372,4.4236,36.4103
245,652,4.53296,-41.8512,0,0,0,0,0,0,0,-1,1469,372,4.5329,41.8512
252,652,4.8689,-42.2201,0,0,0,0,0,0,0,-1,1476,372,4.86895,42.2201
259,652,3.44922,-31.2655,0,0,0,0,0,0,0,-1,1483,372,3.44921,31.2655
266,652,4.26489,-40.9226,0,0,0,0,0,0,0,-1,1490,372,4.26494,40.9226
273,652,4.46362,-40.7441,0,0,0,0,0,0,0,-1,1497,372,4.46364,40.7442
280,652,4.52893,-40.6902,0,0,0,0,0,0,0,-1,1504,372,4.52894,40.6902
287,652,4.69092,-40.4968,0,0,0,0,0,0,0,-1,1511,372,4.69097,40.4968
294,652,0.0880127,-21.507,-0.103862,0.00937725,-0.0653327,0.0392107,-0.133696,-1.14244,0.104678,0.0419374,1518,372,0.0880452,21.507
301,652,-1.64954,-22.0709,-0.116922,0.00829736,-0.0732641,0.0420599,-0.150685,-1.13897,0.117024,0.0397202,1525,372,-1.64952,22.0709
308,652,-3.46826,-22.5778,0,0,0,0,0,0,0,-1,1532,372,-3.46824,22.5778
315,652,-5.7417,-22.7347,0,0,0,0,0,0,0,-1,1539,372,-5.74165,22.7347
322,652,-7.62073,-22.8327,0,0,0,0,0,0,0,-1,1546,372,-7.62075,22.8327
329,652,-3.75989,-24.8717,0,0,0,0,0,0,0,-1,1553,372,-3.75992,24.8717
336,652,-3.56519,-22.3688,0,0,0,0,0,0,0,-1,1560,372,-3.56517,22.3688
343,652,-3.58069,-21.9185,0,0,0,0,0,0,0,-1,1567,372,-3.58069,21.9185
350,652,5.28394,-25.6715,0,0,0,0,0,0,0,-1,1574,372,5.28393,25.6715
357,652,0,0,0,0,0,0,0,0,0,-1,1581,372,0,0
364,652,0,0,0,0,0,0,0,0,0,-1,1588,372,0,0
371,652,0,0,0,0,0,0,0,0,0,-1,1595,372,0,0
378,652,0,0,0,0,0,0,0,0,0,-1,1602,372,0,0
385,652,0,0,0,0,0,0,0,0,0,-1,1609,372,0,0
392,652,0,0,0,0,0,0,0,0,0,-1,1616,372,0,0
399,652,0,0,0,0,0,0,0,0,0,-1,1623,372,0,0
406,652,0,0,0,0,0,0,0,0,0,-1,1630,372,0,0
413,652,0,0,0,0,0,0,0,0,0,-1,1637,372,0,0
420,652,0,0,0,0,0,0,0,0,0,-1,1644,372,0,0
427,652,0,0,0,0,0,0,0,0,0,-1,1651,372,0,0
434,652,0,0,0,0,0,0,0,0,0,-1,1658,372,0,0
441,652,0,0,0,0,0,0,0,0,0,-1,1665,372,0,0
448,652,0,0,0,0,0,0,0,0,0,-1,1672,372,0,0
455,652,0,0,0,0,0,0,0,0,0,-1,1679,372,0,0
462,652,0,0,0,0,0,0,0,0,0,-1,1686,372,0,0
469,652,0,0,0,0,0,0,0,0,0,-1,1693,372,0,0
476,652,0,0,0,0,0,0,0,0,0,-1,1700,372,0,0
483,652,0,0,0,0,0,0,0,0,0,-1,1707,372,0,0
490,652,0,0,0,0,0,0,0,0,0,-1,1714,372,0,0
497,652,0,0,0,0,0,0,0,0,0,-1,1721,372,0,0
504,652,0,0,0,0,0,0,0,0,0,-1,1728,372,0,0
511,652,0,0,0,0,0,0,0,0,0,-1,1735,372,0,0
518,652,0,0,0,0,0,0,0,0,0,-1,1742,372,0,0
525,652,0,0,0,0,0,0,0,0,0,-1,1749,372,0,0
532,652,0,0,0,0,0,0,0,0,0,-1,1756,372,0,0
539,652,0,0,0,0,0,0,0,0,0,-1,1763,372,0,0
546,652,0,0,0,0,0,0,0,0,0,-1,1770,372,0,0
553,652,0,0,0,0,0,0,0,0,0,-1,1777,372,0,0
560,652,0,0,0,0,0,0,0,0,0,-1,1784,372,0,0
567,652,0,0,0,0,0,0,0,0,0,-1,1791,372,0,0
574,652,0,0,0,0,0,0,0,0,0,-1,1798,372,0,0
581,652,0,0,0,0,0,0,0,0,0,-1,1805,372,0,0
588,652,0,0,0,0,0,0,0,0,0,-1,1812,372,0,0
595,652,0,0,0,0,0,0,0,0,0,-1,1819,372,0,0
602,652,0,0,0,0,0,0,0,0,0,-1,1826,372,0,0
609,652,0,0,0,0,0,0,0,0,0,-1,1833,372,0,0
616,652,0,0,0,0,0,0,0,0,0,-1,1840,372,0,0
623,652,0,0,0,0,0,0,0,0,0,-1,1847,372,0,0
630,652,0,0,0,0,0,0,0,0,0,-1,1854,372,0,0
637,652,0,0,0,0,0,0,0,0,0,-1,1861,372,0,0
644,652,0,0,0,0,0,0,0,0,0,-1,1868,372,0,0
651,652,0,0,0,0,0,0,0,0,0,-1,1875,372,0,0
658,652,0,0,0,0,0,0,0,0,0,-1,1882,372,0,0
665,652,0,0,0,0,0,0,0,0,0,-1,1889,372,0,0
672,652,0,0,0,0,0,0,0,0,0,-1,1896,372,0,0
679,652,0,0,0,0,0,0,0,0,0,-1,1903,372,0,0
686,652,0,0,0,0,0,0,0,0,0,-1,1910,372,0,0
693,652,0,0,0,0,0,0,0,0,0,-1,1917,372,0,0
700,652,0,0,0,0,0,0,0,0,0,-1,1924,372,0,0
707,652,0,0,0,0,0,0,0,0,0,-1,1931,372,0,0
714,652,0,0,0,0,0,0,0,0,0,-1,1938,372,0,0
721,652,0,0,0,0,0,0,0,0,0,-1,1945,372,0,0
728,652,0,0,0,0,0,0,0,0,0,-1,1952,372,0,0
735,652,0,0,0,0,0,0,0,0,0,-1,1959,372,0,0
742,652,0,0,0,0,0,0,0,0,0,-1,1966,372,0,0
749,652,0,0,0,0,0,0,0,0,0,-1,1973,372,0,0
756,652,0,0,0,0,0,0,0,0,0,-1,1980,372,0,0
763,652,0,0,0,0,0,0,0,0,0,-1,1987,372,0,0
770,652,0,0,0,0,0,0,0,0,0,-1,1994,372,0,0
777,652,0,0,0,0,0,0,0,0,0,-1,2001,372,0,0
784,652,0,0,0,0,0,0,0,0,0,-1,2008,372,0,0
791,652,0,0,0,0,0,0,0,0,0,-1,2015,372,0,0
798,652,0,0,0,0,0,0,0,0,0,-1,2022,372,0,0
805,652,0,0,0,0,0,0,0,0,0,-1,2029,372,0,0
812,652,0,0,0,0,0,0,0,0,0,-1,2036,372,0,0
-700,645,0,0,0,0,0,0,0,0,0,-1,524,379,0,0
-693,645,0,0,0,0,0,0,0,0,0,-1,531,379,0,0
-686,645,0,0,0,0,0,0,0,0,0,-1,538,379,0,0
-679,645,0,0,0,0,0,0,0,0,0,-1,545,379,0,0
-672,645,0,0,0,0,0,0,0,0,0,-1,552,379,0,0
-665,645,0,0,0,0,0,0,0,0,0,-1,559,379,0,0
-658,645,0,0,0,0,0,0,0,0,0,-1,566,379,0,0
-651,645,0,0,0,0,0,0,0,0,0,-1,573,379,0,0
-644,645,0,0,0,0,0,0,0,0,0,-1,580,379,0,0
-637,645,0,0,0,0,0,0,0,0,0,-1,587,379,0,0
-630,645,0,0,0,0,0,0,0,0,0,-1,594,379,0,0
-623,645,0,0,0,0,0,0,0,0,0,-1,601,379,0,0
-616,645,0,0,0,0,0,0,0,0,0,-1,608,379,0,0
-609,645,0,0,0,0,0,0,0,0,0,-1,615,379,0,0
-602,645,0,0,0,0,0,0,0,0,0,-1,622,379,0,0
-595,645,0,0,0,0,0,0,0,0,0,-1,629,379,0,0
-588,645,0,0,0,0,0,0,0,0,0,-1,636,379,0,0
-581,645,0,0,0,0,0,0,0,0,0,-1,643,379,0,0
-574,645,0,0,0,0,0,0,0,0,0,-1,650,379,0,0
-567,645,0,0,0,0,0,0,0,0,0,-1,657,379,0,0
-560,645,0,0,0,0,0,0,0,0,0,-1,664,379,0,0
-553,645,0,0,0,0,0,0,0,0,0,-1,671,379,0,0
-546,645,0,0,0,0,0,0,0,0,0,-1,678,379,0,0
-539,645,0,0,0,0,0,0,0,0,0,-1,685,379,0,0
-532,645,0,0,0,0,0,0,0,0,0,-1,692,379,0,0
-525,645,0,0,0,0,0,0,0,0,0,-1,699,379,0,0
-518,645,0,0,0,0,0,0,0,0,0,-1,706,379,0,0
-511,645,0,0,0,0,0,0,0,0,0,-1,713,379,0,0
-504,645,0,0,0,0,0,0,0,0,0,-1,720,379,0,0
-497,645,0,0,0,0,0,0,0,0,0,-1,727,379,0,0
-490,645,0,0,0,0,0,0,0,0,0,-1,734,379,0,0
-483,645,0,0,0,0,0,0,0,0,0,-1,741,379,0,0
-476,645,0,0,0,0,0,0,0,0,0,-1,748,379,0,0
-469,645,0,0,0,0,0,0,0,0,0,-1,755,379,0,0
-462,645,0,0,0,0,0,0,0,0,0,-1,762,379,0,0
-455,645,0,0,0,0,0,0,0,0,0,-1,769,379,0,0
-448,645,0,0,0,0,0,0,0,0,0,-1,776,379,0,0
-441,645,0,0,0,0,0,0,0,0,0,-1,783,379,0,0
-434,645,0,0,0,0,0,0,0,0,0,-1,790,379,0,0
-427,645,0,0,0,0,0,0,0,0,0,-1,797,379,0,0
-420,645,0,0,0,0,0,0,0,0,0,-1,804,379,0,0
-413,645,0,0,0,0,0,0,0,0,0,-1,811,379,0,0
-406,645,0,0,0,0,0,0,0,0,0,-1,818,379,0,0
-399,645,0,0,0,0,0,0,0,0,0,-1,825,379,0,0
-392,645,0,0,0,0,0,0,0,0,0,-1,832,379,0,0
-385,645,0,0,0,0,0,0,0,0,0,-1,839,379,0,0
-378,645,0,0,0,0,0,0,0,0,0,-1,846,379,0,0
-371,645,0,0,0,0,0,0,0,0,0,-1,853,379,0,0
-364,645,0,0,0,0,0,0,0,0,0,-1,860,379,0,0
-357,645,0,0,0,0,0,0,0,0,0,-1,867,379,0,0
-350,645,0,0,0,0,0,0,0,0,0,-1,874,379,0,0
-343,645,0,0,0,0,0,0,0,0,0,-1,881,379,0,0
-336,645,0,0,0,0,0,0,0,0,0,-1,888,379,0,0
-329,645,0,0,0,0,0,0,0,0,0,-1,895,379,0,0
-322,645,0,0,0,0,0,0,0,0,0,-1,902,379,0,0
-315,645,0,0,0,0,0,0,0,0,0,-1,909,379,0,0
-308,645,0,0,0,0,0,0,0,0,0,-1,916,379,0,0
-301,645,0,0,0,0,0,0,0,0,0,-1,923,379,0,0
-294,645,0,0,0,0,0,0,0,0,0,-1,930,379,0,0
-287,645,0,0,0,0,0,0,0,0,0,-1,937,379,0,0
-280,645,0,0,0,0,0,0,0,0,0,-1,944,379,0,0
-273,645,0,0,0,0,0,0,0,0,0,-1,951,379,0,0
-266,645,0,0,0,0,0,0,0,0,0,-1,958,379,0,0
-259,645,0,0,0,0,0,0,0,0,0,-1,965,379,0,0
-252,645,2.95691,-26.9133,0,0,0,0,0,0,0,-1,972,379,2.9569,26.9133
-245,645,2.73169,-27.0215,0,0,0,0,0,0,0,-1,979,379,2.73172,27.0215
-238,645,2.6665,-26.9464,0,0,0,0,0,0,0,-1,986,379,2.66649,26.9464
-231,645,7.26807,-29.1054,0,0,0,0,0,0,0,-1,993,379,7.26806,29.1054
-224,645,7.69073,-29.5737,0,0,0,0,0,0,0,-1,1000,379,7.69071,29.5737
-217,645,8.65485,-33.4136,0,0,0,0,0,0,0,-1,1007,379,8.65487,33.4136
-210,645,9.21594,-32.5157,0,0,0,0,0,0,0,-1,1014,379,9.21591,32.5156
-203,645,9.77698,-31.6176,0,0,0,0,0,0,0,-1,1021,379,9.77696,31.6177
-196,645,10.2664,-29.7741,0,0,0,0,0,0,0,-1,1028,379,10.2664,29.7741
-189,645,5.88062,-28.2191,0,0,0,0,0,0,0,-1,1035,379,5.88062,28.2191
-182,645,6.34167,-29.2525,0,0,0,0,0,0,0,-1,1042,379,6.3417,29.2525
-175,645,6.36462,-35.5586,0,0,0,0,0,0,0,-1,1049,379,6.3646,35.5586
-168,645,7.19116,-39.5785,0,0,0,0,0,0,0,-1,1056,379,7.19115,39.5785
-161,645,7.22083,-37.6093,0,0,0,0,0,0,0,-1,1063,379,7.22085,37.6094
-154,645,7.50317,-40.5536,0,0,0,0,0,0,0,-1,1070,379,7.50312,40.5536
-147,645,7.52661,-40.9916,0,0,0,0,0,0,0,-1,1077,379,7.52656,40.9916
-140,645,7.04285,-41.4319,0,0,0,0,0,0,0,-1,1084,379,7.04282,41.4318
-133,645,7.0155,-42.2342,0,0,0,0,0,0,0,-1,1091,379,7.01552,42.2342
-126,645,7.02344,-42.7172,0,0,0,0,0,0,0,-1,1098,379,7.02341,42.7172
-119,645,6.89758,-43.1057,-0.00805132,0.0203297,-0.00466761,0.0210777,-0.00879925,-1.41191,0.0177284,0.0301723,1105,379,6.89755,43.1057
-112,645,6.80212,-43.4787,-0.00778061,0.0178543,-0.00407629,0.0184869,-0.00841319,-1.41684,0.0158896,0.0278533,1112,379,6.80207,43.4787
-105,645,6.76697,-44.0813,0,0,0,0,0,0,0,-1,1119,379,6.76701,44.0813
-98,645,6.69861,-44.4955,0,0,0,0,0,0,0,-1,1126,379,6.69864,44.4955
-91,645,6.62964,-44.9208,0,0,0,0,0,0,0,-1,1133,379,6.6296,44.9208
-84,645,6.60645,-45.3157,0,0,0,0,0,0,0,-1,1140,379,6.60639,45.3157
-77,645,6.64722,-45.6502,-0.00613565,0.00660332,-0.00153666,0.00678606,-0.00631839,-1.45243,0.00756746,0.0424082,1147,379,6.64727,45.6502
-70,645,6.55908,-45.9758,-0.0061677,0.00650648,-0.00137053,0.00665299,-0.00631421,-1.4643,0.00748747,0.0150611,1154,379,6.55911,45.9758
-63,645,6.52747,-46.27,-0.00622234,0.00744335,-0.00138239,0.00758179,-0.00636078,-1.47099,0.00806003,0.0118889,1161,379,6.52741,46.2699
-56,645,6.47717,-46.5587,-0.00586904,0.0083272,-0.00130542,0.00844624,-0.00598808,-1.47986,0.00837384,0.0131786,1168,379,6.47715,46.5587
-49,645,6.44971,-46.8459,-0.00525274,0.00953564,-0.00120407,0.00963303,-0.00535014,-1.49008,0.00876755,0.0113009,1175,379,6.44973,46.8459
-42,645,6.40112,-47.1024,-0.00442407,0.0107393,-0.0011424,0.0108249,-0.00450965,-1.49602,0.00910025,0.0111506,1182,379,6.40113,47.1025
-35,645,6.37512,-47.3937,-0.00377005,0.0116784,-0.000892955,0.0117299,-0.00382149,-1.51325,0.00935756,0.0110329,1189,379,6.37514,47.3937
-28,645,6.33508,-47.6826,-0.00344608,0.0123027,-0.000748909,0.0123382,-0.00348161,-1.52339,0.00959886,0.0090748,1196,379,6.33509,47.6826
-21,645,6.28564,-47.8921,-0.00296138,0.012735,-0.000637261,0.0127608,-0.00298721,-1.53029,0.00965819,0.010658,1203,379,6.28561,47.8921
-14,645,6.2782,-48.1024,-0.00252118,0.0130095,-0.000483571,0.0130246,-0.00253622,-1.5397,0.00964031,0.0100558,1210,379,6.27826,48.1024
-7,645,6.26648,-48.3209,-0.00208067,0.0130213,-0.000369149,0.0130303,-0.00208969,-1.54637,0.00946068,0.0138384,1217,379,6.26652,48.3209
0,645,6.21582,-48.4413,-0.0016059,0.0129443,-0.000293034,0.0129502,-0.0016118,-1.55067,0.0092178,0.0274898,1224,379,6.21586,48.4414
7,645,6.20679,-48.5622,-0.00119907,0.0128479,-0.000216631,0.0128512,-0.00120241,-1.55538,0.00899513,0.0183052,1231,379,6.20674,48.5622
14,645,6.19189,-48.678,-0.000756091,0.012949,-0.000189943,0.0129516,-0.000758723,-1.55694,0.00889811,0.0170095,1238,379,6.19192,48.678
21,645,6.12805,-48.8308,-0.000489849,0.0131496,-7.51128e-05,0.01315,-0.000490262,-1.56529,0.00893455,0.01209,1245,379,6.128,48.8308
28,645,6.13525,-48.9382,-0.000506935,0.0135752,-3.98488e-05,0.0135753,-0.000507048,-1.56797,0.00922386,0.010353,1252,379,6.13531,48.9382
35,645,6.12097,-49.0069,-0.000687256,0.0141608,-0.000180028,0.014163,-0.000689439,-1.55867,0.00967999,0.00913183,1259,379,6.12097,49.0069
42,645,6.09888,-49.0784,-0.000967386,0.0148932,-0.000153408,0.0148946,-0.000968869,-1.56113,0.010268,0.00969675,1266,379,6.09887,49.0784
49,645,6.10803,-49.1097,-0.0015282,0.0158497,-0.000246446,0.0158532,-0.00153169,-1.55662,0.0111146,0.0126956,1273,379,6.10806,49.1097
56,645,6.10645,-49.1162,-0.00218894,0.0169766,-0.000431147,0.0169863,-0.00219863,-1.54832,0.0121237,0.0122409,1280,379,6.10649,49.1162
63,645,6.07849,-49.1516,-0.0029031,0.0178946,-0.00074897,0.0179215,-0.00293004,-1.53485,0.0130346,0.0124537,1287,379,6.0785,49.1515
70,645,6.03357,-49.134,-0.00360325,0.0188903,-0.00110524,0.0189445,-0.00365743,-1.52182,0.0140089,0.0162027,1294,379,6.03359,49.134
77,645,6.01733,-49.1138,-0.004041,0.0198262,-0.00159432,0.0199322,-0.00414703,-1.50439,0.0148646,0.0185888,1301,379,6.01735,49.1138
84,645,6.00757,-49.068,-0.00449898,0.0204043,-0.00214234,0.0205872,-0.00468193,-1.4856,0.0155226,0.0136424,1308,379,6.00759,49.068
91,645,5.93665,-49.0352,-0.00487011,0.02059,-0.00277607,0.0208892,-0.00516929,-1.46344,0.0159313,0.0156011,1315,379,5.93659,49.0352
98,645,5.91748,-48.943,-0.0050572,0.0206573,-0.00326313,0.0210649,-0.00546482,-1.44652,0.0161756,0.0143107,1322,379,5.9175,48.943
105,645,5.92334,-48.8027,-0.00499343,0.0206605,-0.00359258,0.0211541,-0.00548704,-1.43426,0.0162437,0.0105478,1329,379,5.92332,48.8027
112,645,5.90125,-48.6677,-0.00477593,0.020525,-0.0039196,0.0211183,-0.00536924,-1.42057,0.0161686,0.00867681,1336,379,5.90122,48.6677
119,645,5.88745,-48.523,-0.00451292,0.0200206,-0.00410567,0.0206894,-0.00518176,-1.40931,0.0158059,0.00893858,1343,379,5.88747,48.523
126,645,5.85779,-48.357,-0.00404208,0.0195615,-0.00420888,0.0202896,-0.00477013,-1.39951,0.0153652,0.0121315,1350,379,5.85777,48.357
133,645,5.83606,-48.1802,-0.00338024,0.0190548,-0.00401158,0.0197505,-0.00407597,-1.39907,0.0147151,0.0137366,1357,379,5.836,48.1802
140,645,5.79614,-47.9865,-0.00278258,0.0186042,-0.00340842,0.0191343,-0.00331264,-1.41652,0.0139917,0.013206,1364,379,5.79618,47.9865
147,645,5.76514,-47.7693,-0.00241662,0.0182656,-0.00279702,0.0186372,-0.00278821,-1.43872,0.0134509,0.0137263,1371,379,5.76519,47.7693
154,645,5.76086,-47.5428,-0.002114,0.0178689,-0.00196472,0.0180602,-0.00230533,-1.47372,0.0128776,0.0122804,1378,379,5.76086,47.5428
161,645,5.72058,-47.2779,-0.00201096,0.0174741,-0.000986914,0.017524,-0.00206082,-1.52032,0.0124267,0.0135945,1385,379,5.72063,47.2779
168,645,5.69434,-47.0034,-0.00220675,0.0172663,0.000138444,0.0172673,-0.00220773,1.56369,0.0123136,0.0158202,1392,379,5.69438,47.0034
175,645,5.69666,-46.7034,-0.00244046,0.0167589,0.00107645,0.0168191,-0.00250063,1.51496,0.0121325,0.0143083,1399,379,5.69668,46.7034
182,645,5.64819,-46.4046,-0.00267955,0.0160467,0.00235487,0.0163383,-0.00297114,1.4476,0.0120057,0.0108798,1406,379,5.64817,46.4046
189,645,5.60559,-46.061,-0.00290446,0.0152168,0.0032304,0.0157754,-0.00346311,1.39956,0.0118413,0.0117442,1413,379,5.60553,46.061
196,645,5.54688,-45.7473,-0.00315491,0.0143072,0.00403966,0.0151965,-0.00404415,1.35412,0.0117141,0.0124314,1420,379,5.54686,45.7473
203,645,5.47913,-45.3712,-0.00368833,0.0133581,0.00453781,0.0144908,-0.00482104,1.32618,0.0116063,0.0124223,1427,379,5.47918,45.3713
210,645,5.48022,-44.8911,-0.0044638,0.0118136,0.00444711,0.0129493,-0.00559954,1.32075,0.0109858,0.0223979,1434,379,5.48025,44.8911
217,645,5.5083,-44.4162,0,0,0,0,0,0,0,-1,1441,379,5.50828,44.4162
224,645,5.36047,-44.1969,0,0,0,0,0,0,0,-1,1448,379,5.36045,44.1969
231,645,5.27856,-43.7235,0,0,0,0,0,0,0,-1,1455,379,5.27852,43.7236
238,645,5.21045,-43.3316,0,0,0,0,0,0,0,-1,1462,379,5.21042,43.3316
245,645,5.21265,-42.8154,0,0,0,0,0,0,0,-1,1469,379,5.21264,42.8154
252,645,5.23657,-42.2748,0,0,0,0,0,0,0,-1,1476,379,5.23654,42.2748
259,645,5.0896,-41.8853,0,0,0,0,0,0,0,-1,1483,379,5.0896,41.8853
266,645,4.85486,-41.2312,-0.032996,0.0146864,-0.0186032,0.0210856,-0.0393952,-1.23949,0.035448,0.0423747,1490,379,4.85491,41.2312
273,645,4.948,-40.888,-0.0410148,0.0144776,-0.0237991,0.0232862,-0.0498233,-1.21631,0.0431267,0.0287989,1497,379,4.94803,40.888
280,645,5.09033,-40.4744,-0.0497301,0.0141274,-0.0292861,0.0255244,-0.0611271,-1.19967,0.0514166,0.0467087,1504,379,5.09037,40.4744
287,645,5.77075,-39.3671,0,0,0,0,0,0,0,-1,1511,379,5.77077,39.3671
294,645,2.29248,-21.0133,0,0,0,0,0,0,0,-1,1518,379,2.29251,21.0133
301,645,0.556396,-21.504,0,0,0,0,0,0,0,-1,1525,379,0.556356,21.504
308,645,-1.14624,-22.4595,0,0,0,0,0,0,0,-1,1532,379,-1.1463,22.4595
315,645,4.78699,-38.1335,0,0,0,0,0,0,0,-1,1539,379,4.787,38.1335
322,645,-4.52686,-22.904,0,0,0,0,0,0,0,-1,1546,379,-4.52682,22.904
329,645,2.39136,-36.649,0,0,0,0,0,0,0,-1,1553,379,2.39135,36.649
336,645,5.76514,-36.1147,0,0,0,0,0,0,0,-1,1560,379,5.76516,36.1147
343,645,4.77185,-23.7191,0,0,0,0,0,0,0,-1,1567,379,4.77184,23.7191
350,645,4.76404,-22.1987,0,0,0,0,0,0,0,-1,1574,379,4.76399,22.1987
357,645,4.61316,-21.967,0,0,0,0,0,0,0,-1,1581,379,4.61316,21.967
364,645,-0.0794678,-3.22021,0,0,0,0,0,0,0,-1,1588,379,-0.0794987,3.22021
371,645,0,0,0,0,0,0,0,0,0,-1,1595,379,0,0
378,645,0,0,0,0,0,0,0,0,0,-1,1602,379,0,0
385,645,0,0,0,0,0,0,0,0,0,-1,1609,379,0,0
392,645,0,0,0,0,0,0,0,0,0,-1,1616,379,0,0
399,645,0,0,0,0,0,0,0,0,0,-1,1623,379,0,0
406,645,0,0,0,0,0,0,0,0,0,-1,1630,379,0,0
413,645,0,0,0,0,0,0,0,0,0,-1,1637,379,0,0
420,645,0,0,0,0,0,0,0,0,0,-1,1644,379,0,0
427,645,0,0,0,0,0,0,0,0,0,-1,1651,379,0,0
434,645,0,0,0,0,0,0,0,0,0,-1,1658,379,0,0
441,645,0,0,0,0,0,0,0,0,0,-1,1665,379,0,0
448,645,0,0,0,0,0,0,0,0,0,-1,1672,379,0,0
455,645,0,0,0,0,0,0,0,0,0,-1,1679,379,0,0
462,645,0,0,0,0,0,0,0,0,0,-1,1686,379,0,0
469,645,0,0,0,0,0,0,0,0,0,-1,1693,379,0,0
476,645,0,0,0,0,0,0,0,0,0,-1,1700,379,0,0
483,645,0,0,0,0,0,0,0,0,0,-1,1707,379,0,0
490,645,0,0,0,0,0,0,0,0,0,-1,1714,379,0,0
497,645,0,0,0,0,0,0,0,0,0,-1,1721,379,0,0
504,645,0,0,0,0,0,0,0,0,0,-1,1728,379,0,0
511,645,0,0,0,0,0,0,0,0,0,-1,1735,379,0,0
518,645,0,0,0,0,0,0,0,0,0,-1,1742,379,0,0
525,645,0,0,0,0,0,0,0,0,0,-1,1749,379,0,0
532,645,0,0,0,0,0,0,0,0,0,-1,1756,379,0,0
539,645,0,0,0,0,0,0,0,0,0,-1,1763,379,0,0
546,645,0,0,0,0,0,0,0,0,0,-1,1770,379,0,0
553,645,0,0,0,0,0,0,0,0,0,-1,1777,379,0,0
560,645,0,0,0,0,0,0,0,0,0,-1,1784,379,0,0
567,645,0,0,0,0,0,0,0,0,0,-1,1791,379,0,0
574,645,0,0,0,0,0,0,0,0,0,-1,1798,379,0,0
581,645,0,0,0,0,0,0,0,0,0,-1,1805,379,0,0
588,645,0,0,0,0,0,0,0,0,0,-1,1812,379,0,0
595,645,0,0,0,0,0,0,0,0,0,-1,1819,379,0,0
602,645,0,0,0,0,0,0,0,0,0,-1,1826,379,0,0
609,645,0,0,0,0,0,0,0,0,0,-1,1833,379,0,0
616,645,0,0,0,0,0,0,0,0,0,-1,1840,379,0,0
623,645,0,0,0,0,0,0,0,0,0,-1,1847,379,0,0
630,645,0,0,0,0,0,0,0,0,0,-1,1854,379,0,0
637,645,0,0,0,0,0,0,0,0,0,-1,1861,379,0,0
644,645,0,0,0,0,0,0,0,0,0,-1,1868,379,0,0
651,645,0,0,0,0,0,0,0,0,0,-1,1875,379,0,0
658,645,0,0,0,0,0,0,0,0,0,-1,1882,379,0,0
665,645,0,0,0,0,0,0,0,0,0,-1,1889,379,0,0
672,645,0,0,0,0,0,0,0,0,0,-1,1896,379,0,0
679,645,0,0,0,0,0,0,0,0,0,-1,1903,379,0,0
686,645,0,0,0,0,0,0,0,0,0,-1,1910,379,0,0
693,645,0,0,0,0,0,0,0,0,0,-1,1917,379,0,0
700,645,0,0,0,0,0,0,0,0,0,-1,1924,379,0,0
707,645,0,0,0,0,0,0,0,0,0,-1,1931,379,0,0
714,645,0,0,0,0,0,0,0,0,0,-1,1938,379,0,0
721,645,0,0,0,0,0,0,0,0,0,-1,1945,379,0,0
728,645,0,0,0,0,0,0,0,0,0,-1,1952,379,0,0
735,645,0,0,0,0,0,0,0,0,0,-1,1959,379,0,0
742,645,0,0,0,0,0,0,0,0,0,-1,1966,379,0,0
749,645,0,0,0,0,0,0,0,0,0,-1,1973,379,0,0
756,645,0,0,0,0,0,0,0,0,0,-1,1980,379,0,0
763,645,0,0,0,0,0,0,0,0,0,-1,1987,379,0,0
770,645,0,0,0,0,0,0,0,0,0,-1,1994,379,0,0
777,645,0,0,0,0,0,0,0,0,0,-1,2001,379,0,0
784,645,0,0,0,0,0,0,0,0,0,-1,2008,379,0,0
791,645,0,0,0,0,0,0,0,0,0,-1,2015,379,0,0
798,645,0,0,0,0,0,0,0,0,0,-1,2022,379,0,0
805,645,0,0,0,0,0,0,0,0,0,-1,2029,379,0,0
812,645,0,0,0,0,0,0,0,0,0,-1,2036,379,0,0
-700,638,0,0,0,0,0,0,0,0,0,-1,524,386,0,0
-693,638,0,0,0,0,0,0,0,0,0,-1,531,386,0,0
-686,638,0,0,0,0,0,0,0,0,0,-1,538,386,0,0
-679,638,0,0,0,0,0,0,0,0,0,-1,545,386,0,0
-672,638,0,0,0,0,0,0,0,0,0,-1,552,386,0,0
-665,638,0,0,0,0,0,0,0,0,0,-1,559,386,0,0
-658,638,0,0,0,0,0,0,0,0,0,-1,566,386,0,0
-651,638,0,0,0,0,0,0,0,0,0,-1,573,386,0,0
-644,638,0,0,0,0,0,0,0,0,0,-1,580,386,0,0
-637,638,0,0,0,0,0,0,0,0,0,-1,587,386,0,0
-630,638,0,0,0,0,0,0,0,0,0,-1,594,386,0,0
-623,638,0,0,0,0,0,0,0,0,0,-1,601,386,0,0
-616,638,0,0,0,0,0,0,0,0,0,-1,608,386,0,0
-609,638,0,0,0,0,0,0,0,0,0,-1,615,386,0,0
-602,638,0,0,0,0,0,0,0,0,0,-1,622,386,0,0
-595,638,0,0,0,0,0,0,0,0,0,-1,629,386,0,0
-588,638,0,0,0,0,0,0,0,0,0,-1,636,386,0,0
-581,638,0,0,0,0,0,0,0,0,0,-1,643,386,0,0
-574,638,0,0,0,0,0,0,0,0,0,-1,650,386,0,0
-567,638,0,0,0,0,0,0,0,0,0,-1,657,386,0,0
-560,638,0,0,0,0,0,0,0,0,0,-1,664,386,0,0
-553,638,0,0,0,0,0,0,0,0,0,-1,671,386,0,0
-546,638,0,0,0,0,0,0,0,0,0,-1,678,386,0,0
-539,638,0,0,0,0,0,0,0,0,0,-1,685,386,0,0
-532,638,0,0,0,0,0,0,0,0,0,-1,692,386,0,0
-525,638,0,0,0,0,0,0,0,0,0,-1,699,386,0,0
-518,638,0,0,0,0,0,0,0,0,0,-1,706,386,0,0
-511,638,0,0,0,0,0,0,0,0,0,-1,713,386,0,0
-504,638,0,0,0,0,0,0,0,0,0,-1,720,386,0,0
-497,638,0,0,0,0,0,0,0,0,0,-1,727,386,0,0
-490,638,0,0,0,0,0,0,0,0,0,-1,734,386,0,0
-483,638,0,0,0,0,0,0,0,0,0,-1,741,386,0,0
-476,638,0,0,0,0,0,0,0,0,0,-1,748,386,0,0
-469,638,0,0,0,0,0,0,0,0,0,-1,755,386,0,0
-462,638,0,0,0,0,0,0,0,0,0,-1,762,386,0,0
-455,638,0,0,0,0,0,0,0,0,0,-1,769,386,0,0
-448,638,0,0,0,0,0,0,0,0,0,-1,776,386,0,0
-441,638,0,0,0,0,0,0,0,0,0,-1,783,386,0,0
-434,638,0,0,0,0,0,0,0,0,0,-1,790,386,0,0
-427,638,0,0,0,0,0,0,0,0,0,-1,797,386,0,0
-420,638,0,0,0,0,0,0,0,0,0,-1,804,386,0,0
-413,638,0,0,0,0,0,0,0,0,0,-1,811,386,0,0
-406,638,0,0,0,0,0,0,0,0,0,-1,818,386,0,0
-399,638,0,0,0,0,0,0,0,0,0,-1,825,386,0,0
-392,638,0,0,0,0,0,0,0,0,0,-1,832,386,0,0
-385,638,0,0,0,0,0,0,0,0,0,-1,839,386,0,0
-378,638,0,0,0,0,0,0,0,0,0,-1,846,386,0,0
-371,638,0,0,0,0,0,0,0,0,0,-1,853,386,0,0
-364,638,0,0,0,0,0,0,0,0,0,-1,860,386,0,0
-357,638,0,0,0,0,0,0,0,0,0,-1,867,386,0,0
-350,638,0,0,0,0,0,0,0,0,0,-1,874,386,0,0
-343,638,0,0,0,0,0,0,0,0,0,-1,881,386,0,0
-336,638,0,0,0,0,0,0,0,0,0,-1,888,386,0,0
-329,638,0,0,0,0,0,0,0,0,0,-1,895,386,0,0
-322,638,0,0,0,0,0,0,0,0,0,-1,902,386,0,0
-315,638,0,0,0,0,0,0,0,0,0,-1,909,386,0,0
-308,638,0,0,0,0,0,0,0,0,0,-1,916,386,0,0
-301,638,0,0,0,0,0,0,0,0,0,-1,923,386,0,0
-294,638,0,0,0,0,0,0,0,0,0,-1,930,386,0,0
-287,638,0,0,0,0,0,0,0,0,0,-1,937,386,0,0
-280,638,0,0,0,0,0,0,0,0,0,-1,944,386,0,0
-273,638,0,0,0,0,0,0,0,0,0,-1,951,386,0,0
-266,638,10.1613,-36.3326,0,0,0,0,0,0,0,-1,958,386,10.1612,36.3326
-259,638,9.95282,-34.6103,0,0,0,0,0,0,0,-1,965,386,9.9528,34.6103
-252,638,9.95746,-33.6964,0,0,0,0,0,0,0,-1,972,386,9.95744,33.6965
-245,638,9.84143,-32.9009,0,0,0,0,0,0,0,-1,979,386,9.84145,32.9009
-238,638,2.93518,-26.3649,0,0,0,0,0,0,0,-1,986,386,2.93516,26.3649
-231,638,2.36829,-26.0088,0,0,0,0,0,0,0,-1,993,386,2.3683,26.0088
-224,638,6.3465,-30.9124,0,0,0,0,0,0,0,-1,1000,386,6.34648,30.9124
-217,638,7.41205,-32.7263,0,0,0,0,0,0,0,-1,1007,386,7.41204,32.7262
-210,638,8.7038,-34.5688,0,0,0,0,0,0,0,-1,1014,386,8.70378,34.5689
-203,638,4.32593,-27.5803,0,0,0,0,0,0,0,-1,1021,386,4.32594,27.5803
-196,638,6.0614,-28.4651,0,0,0,0,0,0,0,-1,1028,386,6.06143,28.4651
-189,638,11.4561,-30.1556,0,0,0,0,0,0,0,-1,1035,386,11.456,30.1556
-182,638,6.45471,-33.4271,0,0,0,0,0,0,0,-1,1042,386,6.45473,33.427
-175,638,6.49841,-38.5815,0,0,0,0,0,0,0,-1,1049,386,6.49845,38.5815
-168,638,6.88953,-40.1288,0,0,0,0,0,0,0,-1,1056,386,6.88948,40.1288
-161,638,6.87427,-40.7059,0,0,0,0,0,0,0,-1,1063,386,6.87431,40.7059
-154,638,6.76123,-41.1136,0,0,0,0,0,0,0,-1,1070,386,6.76121,41.1137
-147,638,6.80457,-41.0833,-0.00598951,0.0238432,-0.0068141,0.0253259,-0.00747223,-1.35654,0.0198492,0.0423604,1077,386,6.80461,41.0834
-140,638,6.70227,-41.6617,-0.00597143,0.0218416,-0.00595839,0.0230643,-0.00719414,-1.3684,0.0182531,0.0376092,1084,386,6.70229,41.6617
-133,638,6.60815,-42.3986,-0.00599305,0.0194732,-0.00518136,0.0204871,-0.00700688,-1.37757,0.0164974,0.0321047,1091,386,6.60814,42.3985
-126,638,6.55237,-42.8457,-0.00601439,0.0172507,-0.0043832,0.0180491,-0.00681279,-1.39062,0.0148346,0.0216525,1098,386,6.55242,42.8457
-119,638,6.49268,-43.2919,-0.00580508,0.0152857,-0.00385059,0.0159667,-0.0064861,-1.39575,0.0133428,0.0182513,1105,386,6.49273,43.2919
-112,638,6.47961,-43.7301,-0.00549755,0.0134515,-0.00338003,0.0140364,-0.00608241,-1.39946,0.0119143,0.0161226,1112,386,6.47961,43.7301
-105,638,6.43604,-44.1489,-0.00520975,0.0117341,-0.00297865,0.0122424,-0.00571813,-1.40175,0.0105951,0.0175604,1119,386,6.43606,44.1489
-98,638,6.36865,-44.545,-0.00500742,0.00990427,-0.00248978,0.010309,-0.00541215,-1.40965,0.00922221,0.0164715,1126,386,6.3686,44.545
-91,638,6.31665,-44.9323,-0.00473529,0.00763843,-0.00207536,0.00797724,-0.0050741,-1.40897,0.00759708,0.0125209,1133,386,6.31661,44.9323
-84,638,6.28479,-45.3002,-0.00429433,0.00581071,-0.0016569,0.00607545,-0.00455907,-1.41235,0.00616062,0.0140305,1140,386,6.28483,45.3002
-77,638,6.24451,-45.6614,-0.00394094,0.00502047,-0.00137476,0.00522663,-0.0041471,-1.42195,0.00542388,0.0119635,1147,386,6.24447,45.6614
-70,638,6.22327,-45.9955,-0.00385449,0.00478688,-0.00119864,0.00495006,-0.00401768,-1.43549,0.00518685,0.0114282,1154,386,6.22324,45.9954
-63,638,6.21411,-46.3247,-0.00383183,0.00525237,-0.00113522,0.00539208,-0.00397154,-1.44834,0.00542679,0.0122393,1161,386,6.21406,46.3247
-56,638,6.21326,-46.6199,-0.00355305,0.00566769,-0.00100234,0.00577539,-0.00366075,-1.46376,0.00549337,0.0148329,1168,386,6.21324,46.6199
-49,638,6.18408,-46.8853,-0.0031178,0.00619315,-0.000907458,0.00628076,-0.00320542,-1.47454,0.00557196,0.0125841,1175,386,6.18403,46.8852
-42,638,6.15906,-47.1569,-0.00256968,0.00667353,-0.00082114,0.00674592,-0.00264206,-1.48288,0.00559011,0.0118121,1182,386,6.1591,47.1569
-35,638,6.13806,-47.4299,-0.00206298,0.00692392,-0.000701845,0.0069784,-0.00211746,-1.49333,0.00549578,0.0115736,1189,386,6.13809,47.4299
-28,638,6.11353,-47.6867,-0.00174086,0.0069408,-0.000699727,0.00699684,-0.00179689,-1.49089,0.00536479,0.0113934,1196,386,6.11354,47.6867
-21,638,6.0802,-47.8956,-0.00129676,0.00686655,-0.000778731,0.00694017,-0.00137039,-1.47654,0.00514478,0.0125769,1203,386,6.08015,47.8956
-14,638,6.06726,-48.1163,-0.000852069,0.00678636,-0.000846658,0.00687908,-0.000944789,-1.46172,0.00493125,0.0117128,1210,386,6.06729,48.1163
-7,638,6.08911,-48.3885,-0.000400914,0.00657831,-0.000961397,0.00670832,-0.000530925,-1.43638,0.00465928,0.0169143,1217,386,6.08906,48.3885
0,638,6.06848,-48.4752,-1.55065e-05,0.00642633,-0.00108489,0.00660413,-0.000193308,-1.40835,0.00446858,0.0334908,1224,386,6.06844,48.4752
7,638,6.03613,-48.5871,0.000265434,0.00634831,-0.00115732,0.00656106,5.26852e-05,-1.389,0.00435658,0.0258979,1231,386,6.03618,48.5871
14,638,6.03552,-48.7245,0.00051972,0.0064134,-0.0011961,0.0066469,0.000286227,-1.37801,0.004339,0.0138259,1238,386,6.03552,48.7245
21,638,6.0459,-48.8683,0.000691263,0.0066797,-0.00116814,0.00689949,0.000471466,-1.38481,0.00445084,0.0125558,1245,386,6.04589,48.8684
28,638,6.05188,-48.9542,0.000700326,0.00719372,-0.00116908,0.0073978,0.000496255,-1.39798,0.00477505,0.0100688,1252,386,6.05194,48.9542
35,638,6.04565,-49.0201,0.000528469,0.00788003,-0.00113483,0.00805122,0.000357278,-1.42107,0.00525244,0.0112093,1259,386,6.04569,49.0201
42,638,6.06165,-49.1013,0.000299057,0.00875788,-0.000909264,0.00885452,0.000202422,-1.46492,0.00583671,0.010765,1266,386,6.06167,49.1013
49,638,6.0752,-49.1227,-6.24268e-05,0.00970189,-0.00078175,0.00976408,-0.000124619,-1.49141,0.00655132,0.00919512,1273,386,6.07521,49.1228
56,638,6.06287,-49.1436,-0.000457521,0.0107267,-0.000723173,0.0107733,-0.000504087,-1.50649,0.00735599,0.0112396,1280,386,6.06292,49.1435
63,638,6.03711,-49.1617,-0.000908281,0.011621,-0.000649523,0.0116546,-0.000941862,-1.51914,0.00810194,0.0133364,1287,386,6.03709,49.1617
70,638,6.03333,-49.1635,-0.00127114,0.0124116,-0.000688947,0.0124462,-0.00130574,-1.52061,0.00876516,0.0183915,1294,386,6.03334,49.1635
77,638,6.07239,-49.1324,-0.00141951,0.013032,-0.000726771,0.0130684,-0.00145596,-1.52067,0.00923594,0.0180711,1301,386,6.07239,49.1323
84,638,6.07336,-49.0685,-0.00154778,0.0133408,-0.000909547,0.0133962,-0.00160313,-1.51001,0.00951032,0.0130659,1308,386,6.0734,49.0685
91,638,6.04077,-48.9874,-0.00168838,0.0132121,-0.00127298,0.0133201,-0.00179636,-1.48618,0.0095354,0.015454,1315,386,6.0408,48.9874
98,638,6.01184,-48.9078,-0.00171747,0.0129394,-0.00151298,0.013094,-0.00187202,-1.469,0.00941556,0.0139153,1322,386,6.01189,48.9078
105,638,6.0155,-48.8235,-0.00152586,0.012567,-0.00166447,0.0127609,-0.00171978,-1.45481,0.00913467,0.0102795,1329,386,6.01547,48.8235
112,638,6.01904,-48.6867,-0.00126818,0.0121266,-0.00186478,0.0123814,-0.00152294,-1.43502,0.0088059,0.00946986,1336,386,6.01903,48.6867
119,638,6.03394,-48.5337,-0.00103458,0.0114862,-0.00202707,0.0118062,-0.00135457,-1.41423,0.00835898,0.012349,1343,386,6.03397,48.5337
126,638,6.05249,-48.3625,-0.000785202,0.0109019,-0.00213055,0.0112782,-0.00116148,-1.39599,0.00793437,0.0169994,1350,386,6.05245,48.3625
133,638,6.03589,-48.198,-0.000488811,0.0103913,-0.00204482,0.010763,-0.000860421,-1.39103,0.00747863,0.0174432,1357,386,6.03587,48.198
140,638,5.97925,-48.0102,-0.000207061,0.0100503,-0.0017873,0.0103528,-0.000509567,-1.40313,0.00707785,0.0173705,1364,386,5.97927,48.0102
147,638,5.94714,-47.7985,-0.000133936,0.00989047,-0.00148905,0.010107,-0.000350446,-1.42641,0.00685779,0.0186617,1371,386,5.94719,47.7985
154,638,5.96582,-47.5938,-0.000159446,0.00995395,-0.00102029,0.0100559,-0.00026135,-1.47125,0.00679269,0.01607,1378,386,5.96577,47.5938
161,638,5.96118,-47.314,-0.000295875,0.0101042,-0.000454583,0.0101241,-0.000315708,-1.5272,0.00685704,0.0179956,1385,386,5.96118,47.314
168,638,5.96729,-47.0053,-0.000603341,0.0103307,0.000175792,0.0103336,-0.000606166,1.55472,0.00709973,0.0229979,1392,386,5.96724,47.0053
175,638,5.96606,-46.7271,-0.000931752,0.0103615,0.000812322,0.0104196,-0.000989883,1.49936,0.0072988,0.0194413,1399,386,5.96611,46.7271
182,638,5.91785,-46.434,-0.00131538,0.0102714,0.00158496,0.0104843,-0.00152827,1.43727,0.00755069,0.0132458,1406,386,5.91784,46.434
189,638,5.90247,-46.1061,-0.00166176,0.0101218,0.00217413,0.0105101,-0.0020501,1.39404,0.00778067,0.0114646,1413,386,5.90244,46.1061
196,638,5.86072,-45.7652,-0.00191213,0.00986352,0.00280127,0.0104959,-0.00254455,1.34876,0.00798184,0.0147378,1420,386,5.86074,45.7652
203,638,5.81689,-45.4444,-0.00234266,0.00958034,0.00323722,0.0104026,-0.0031649,1.32206,0.0081963,0.0204684,1427,386,5.81692,45.4444
210,638,5.7959,-45.0942,-0.00293734,0.0088849,0.00332522,0.009756,-0.00380844,1.31459,0.00807847,0.0171324,1434,386,5.79589,45.0942
217,638,5.79126,-44.6795,-0.00288959,0.00939371,0.00314006,0.0101499,-0.00364575,1.33448,0.00825471,0.0131165,1441,386,5.7913,44.6795
224,638,5.74402,-44.2362,-0.00249364,0.0103795,0.0030838,0.0110801,-0.00319424,1.3474,0.00865035,0.0114975,1448,386,5.744,44.2362
231,638,5.66077,-43.7997,-0.00144429,0.0110963,0.00334214,0.0119314,-0.00227938,1.32594,0.00881284,0.0124634,1455,386,5.66082,43.7997
238,638,5.60132,-43.4092,-0.000100409,0.0128547,0.00433495,0.0141714,-0.00141712,1.27591,0.00995364,0.013973,1462,386,5.60129,43.4093
245,638,5.57751,-42.9292,-0.00547603,0.0129946,0.000602405,0.0130143,-0.00549565,1.53823,0.0109767,0.0166434,1469,386,5.57747,42.9292
252,638,5.60852,-42.4455,-0.0120648,0.0127717,-0.00415522,0.0134485,-0.0127416,-1.40935,0.0151226,0.022714,1476,386,5.60849,42.4455
259,638,5.53931,-42.055,-0.0157922,0.0132979,-0.0067481,0.0147871,-0.0172814,-1.3536,0.0185334,0.0230057,1483,386,5.53926,42.055
266,638,5.40771,-41.5648,-0.0202321,0.0136461,-0.00965803,0.016206,-0.022792,-1.3117,0.0226222,0.0144806,1490,386,5.40773,41.5648
273,638,5.38623,-41.086,-0.0254202,0.0140173,-0.012846,0.0178325,-0.0292355,-1.28209,0.0274393,0.0124908,1497,386,5.38622,41.086
280,638,5.46631,-40.4709,-0.0311438,0.0142801,-0.0162873,0.0195165,-0.0363801,-1.25973,0.0327578,0.0266117,1504,386,5.46627,40.471
287,638,5.84546,-39.6073,-0.0371637,0.0146777,-0.0197026,0.0213158,-0.0438018,-1.24583,0.0383355,0.0481163,1511,386,5.84545,39.6073
294,638,5.41321,-39.2292,0,0,0,0,0,0,0,-1,1518,386,5.41321,39.2292
301,638,5.09448,-38.652,0,0,0,0,0,0,0,-1,1525,386,5.09451,38.652
308,638,5.24487,-37.8913,0,0,0,0,0,0,0,-1,1532,386,5.24486,37.8913
315,638,5.3042,-37.7734,0,0,0,0,0,0,0,-1,1539,386,5.30421,37.7734
322,638,5.83203,-37.6369,0,0,0,0,0,0,0,-1,1546,386,5.83197,37.6369
329,638,5.84534,-36.1208,0,0,0,0,0,0,0,-1,1553,386,5.84534,36.1207
336,638,5.93652,-36.0569,0,0,0,0,0,0,0,-1,1560,386,5.93658,36.057
343,638,6.02783,-35.9932,0,0,0,0,0,0,0,-1,1567,386,6.02782,35.9932
350,638,5.91162,-19.0222,0,0,0,0,0,0,0,-1,1574,386,5.91165,19.0222
357,638,0.387329,-3.01077,0,0,0,0,0,0,0,-1,1581,386,0.387332,3.01077
364,638,3.78149,-6.45215,0,0,0,0,0,0,0,-1,1588,386,3.78155,6.45216
371,638,4.18604,-6.71164,0,0,0,0,0,0,0,-1,1595,386,4.18598,6.71164
378,638,4.59045,-6.97113,0,0,0,0,0,0,0,-1,1602,386,4.5904,6.97112
385,638,0,0,0,0,0,0,0,0,0,-1,1609,386,0,0
392,638,0,0,0,0,0,0,0,0,0,-1,1616,386,0,0
399,638,0,0,0,0,0,0,0,0,0,-1,1623,386,0,0
406,638,0,0,0,0,0,0,0,0,0,-1,1630,386,0,0
413,638,0,0,0,0,0,0,0,0,0,-1,1637,386,0,0
420,638,0,0,0,0,0,0,0,0,0,-1,1644,386,0,0
427,638,0,0,0,0,0,0,0,0,0,-1,1651,386,0,0
434,638,0,0,0,0,0,0,0,0,0,-1,1658,386,0,0
441,638,0,0,0,0,0,0,0,0,0,-1,1665,386,0,0
448,638,0,0,0,0,0,0,0,0,0,-1,1672,386,0,0
455,638,0,0,0,0,0,0,0,0,0,-1,1679,386,0,0
462,638,0,0,0,0,0,0,0,0,0,-1,1686,386,0,0
469,638,0,0,0,0,0,0,0,0,0,-1,1693,386,0,0
476,638,0,0,0,0,0,0,0,0,0,-1,1700,386,0,0
483,638,0,0,0,0,0,0,0,0,0,-1,1707,386,0,0
490,638,0,0,0,0,0,0,0,0,0,-1,1714,386,0,0
497,638,0,0,0,0,0,0,0,0,0,-1,1721,386,0,0
504,638,0,0,0,0,0,0,0,0,0,-1,1728,386,0,0
511,638,0,0,0,0,0,0,0,0,0,-1,1735,386,0,0
518,638,0,0,0,0,0,0,0,0,0,-1,1742,386,0,0
525,638,0,0,0,0,0,0,0,0,0,-1,1749,386,0,0
532,638,0,0,0,0,0,0,0,0,0,-1,1756,386,0,0
539,638,0,0,0,0,0,0,0,0,0,-1,1763,386,0,0
546,638,0,0,0,0,0,0,0,0,0,-1,1770,386,0,0
553,638,0,0,0,0,0,0,0,0,0,-1,1777,386,0,0
560,638,0,0,0,0,0,0,0,0,0,-1,1784,386,0,0
567,638,0,0,0,0,0,0,0,0,0,-1,1791,386,0,0
574,638,0,0,0,0,0,0,0,0,0,-1,1798,386,0,0
581,638,0,0,0,0,0,0,0,0,0,-1,1805,386,0,0
588,638,0,0,0,0,0,0,0,0,0,-1,1812,386,0,0
595,638,0,0,0,0,0,0,0,0,0,-1,1819,386,0,0
602,638,0,0,0,0,0,0,0,0,0,-1,1826,386,0,0
609,638,0,0,0,0,0,0,0,0,0,-1,1833,386,0,0
616,638,0,0,0,0,0,0,0,0,0,-1,1840,386,0,0
623,638,0,0,0,0,0,0,0,0,0,-1,1847,386,0,0
630,638,0,0,0,0,0,0,0,0,0,-1,1854,386,0,0
637,638,0,0,0,0,0,0,0,0,0,-1,1861,386,0,0
644,638,0,0,0,0,0,0,0,0,0,-1,1868,386,0,0
651,638,0,0,0,0,0,0,0,0,0,-1,1875,386,0,0
658,638,0,0,0,0,0,0,0,0,0,-1,1882,386,0,0
665,638,0,0,0,0,0,0,0,0,0,-1,1889,386,0,0
672,638,0,0,0,0,0,0,0,0,0,-1,1896,386,0,0
679,638,0,0,0,0,0,0,0,0,0,-1,1903,386,0,0
686,638,0,0,0,0,0,0,0,0,0,-1,1910,386,0,0
693,638,0,0,0,0,0,0,0,0,0,-1,1917,386,0,0
700,638,0,0,0,0,0,0,0,0,0,-1,1924,386,0,0
707,638,0,0,0,0,0,0,0,0,0,-1,1931,386,0,0
714,638,0,0,0,0,0,0,0,0,0,-1,1938,386,0,0
721,638,0,0,0,0,0,0,0,0,0,-1,1945,386,0,0
728,638,0,0,0,0,0,0,0,0,0,-1,1952,386,0,0
735,638,0,0,0,0,0,0,0,0,0,-1,1959,386,0,0
742,638,0,0,0,0,0,0,0,0,0,-1,1966,386,0,0
749,638,0,0,0,0,0,0,0,0,0,-1,1973,386,0,0
756,638,0,0,0,0,0,0,0,0,0,-1,1980,386,0,0
763,638,0,0,0,0,0,0,0,0,0,-1,1987,386,0,0
770,638,0,0,0,0,0,0,0,0,0,-1,1994,386,0,0
777,638,0,0,0,0,0,0,0,0,0,-1,2001,386,0,0
784,638,0,0,0,0,0,0,0,0,0,-1,2008,386,0,0
791,638,0,0,0,0,0,0,0,0,0,-1,2015,386,0,0
798,638,0,0,0,0,0,0,0,0,0,-1,2022,386,0,0
805,638,0,0,0,0,0,0,0,0,0,-1,2029,386,0,0
812,638,0,0,0,0,0,0,0,0,0,-1,2036,386,0,0
-700,631,0,0,0,0,0,0,0,0,0,-1,524,393,0,0
-693,631,0,0,0,0,0,0,0,0,0,-1,531,393,0,0
-686,631,0,0,0,0,0,0,0,0,0,-1,538,393,0,0
-679,631,0,0,0,0,0,0,0,0,0,-1,545,393,0,0
-672,631,0,0,0,0,0,0,0,0,0,-1,552,393,0,0
-665,631,0,0,0,0,0,0,0,0,0,-1,559,393,0,0
-658,631,0,0,0,0,0,0,0,0,0,-1,566,393,0,0
-651,631,0,0,0,0,0,0,0,0,0,-1,573,393,0,0
-644,631,0,0,0,0,0,0,0,0,0,-1,580,393,0,0
-637,631,0,0,0,0,0,0,0,0,0,-1,587,393,0,0
-630,631,0,0,0,0,0,0,0,0,0,-1,594,393,0,0
-623,631,0,0,0,0,0,0,0,0,0,-1,601,393,0,0
-616,631,0,0,0,0,0,0,0,0,0,-1,608,393,0,0
-609,631,0,0,0,0,0,0,0,0,0,-1,615,393,0,0
-602,631,0,0,0,0,0,0,0,0,0,-1,622,393,0,0
-595,631,0,0,0,0,0,0,0,0,0,-1,629,393,0,0
-588,631,0,0,0,0,0,0,0,0,0,-1,636,393,0,0
-581,631,0,0,0,0,0,0,0,0,0,-1,643,393,0,0
-574,631,0,0,0,0,0,0,0,0,0,-1,650,393,0,0
-567,631,0,0,0,0,0,0,0,0,0,-1,657,393,0,0
-560,631,0,0,0,0,0,0,0,0,0,-1,664,393,0,0
-553,631,0,0,0,0,0,0,0,0,0,-1,671,393,0,0
-546,631,0,0,0,0,0,0,0,0,0,-1,678,393,0,0
-539,631,0,0,0,0,0,0,0,0,0,-1,685,393,0,0
-532,631,0,0,0,0,0,0,0,0,0,-1,692,393,0,0
-525,631,0,0,0,0,0,0,0,0,0,-1,699,393,0,0
-518,631,0,0,0,0,0,0,0,0,0,-1,706,393,0,0
-511,631,0,0,0,0,0,0,0,0,0,-1,713,393,0,0
-504,631,0,0,0,0,0,0,0,0,0,-1,720,393,0,0
-497,631,0,0,0,0,0,0,0,0,0,-1,727,393,0,0
-490,631,0,0,0,0,0,0,0,0,0,-1,734,393,0,0
-483,631,0,0,0,0,0,0,0,0,0,-1,741,393,0,0
-476,631,0,0,0,0,0,0,0,0,0,-1,748,393,0,0
-469,631,0,0,0,0,0,0,0,0,0,-1,755,393,0,0
-462,631,0,0,0,0,0,0,0,0,0,-1,762,393,0,0
-455,631,0,0,0,0,0,0,0,0,0,-1,769,393,0,0
-448,631,0,0,0,0,0,0,0,0,0,-1,776,393,0,0
-441,631,0,0,0,0,0,0,0,0,0,-1,783,393,0,0
-434,631,0,0,0,0,0,0,0,0,0,-1,790,393,0,0
-427,631,0,0,0,0,0,0,0,0,0,-1,797,393,0,0
-420,631,0,0,0,0,0,0,0,0,0,-1,804,393,0,0
-413,631,0,0,0,0,0,0,0,0,0,-1,811,393,0,0
-406,631,0,0,0,0,0,0,0,0,0,-1,818,393,0,0
-399,631,0,0,0,0,0,0,0,0,0,-1,825,393,0,0
-392,631,0,0,0,0,0,0,0,0,0,-1,832,393,0,0
-385,631,0,0,0,0,0,0,0,0,0,-1,839,393,0,0
-378,631,0,0,0,0,0,0,0,0,0,-1,846,393,0,0
-371,631,0,0,0,0,0,0,0,0,0,-1,853,393,0,0
-364,631,0,0,0,0,0,0,0,0,0,-1,860,393,0,0
-357,631,0,0,0,0,0,0,0,0,0,-1,867,393,0,0
-350,631,0,0,0,0,0,0,0,0,0,-1,874,393,0,0
-343,631,0,0,0,0,0,0,0,0,0,-1,881,393,0,0
-336,631,0,0,0,0,0,0,0,0,0,-1,888,393,0,0
-329,631,0,0,0,0,0,0,0,0,0,-1,895,393,0,0
-322,631,0,0,0,0,0,0,0,0,0,-1,902,393,0,0
-315,631,0,0,0,0,0,0,0,0,0,-1,909,393,0,0
-308,631,0,0,0,0,0,0,0,0,0,-1,916,393,0,0
-301,631,0,0,0,0,0,0,0,0,0,-1,923,393,0,0
-294,631,0,0,0,0,0,0,0,0,0,-1,930,393,0,0
-287,631,0,0,0,0,0,0,0,0,0,-1,937,393,0,0
-280,631,7.71283,-34.969,0,0,0,0,0,0,0,-1,944,393,7.71282,34.969
-273,631,8.04437,-34.934,0,0,0,0,0,0,0,-1,951,393,8.04436,34.9339
-266,631,8.40277,-34.7584,0,0,0,0,0,0,0,-1,958,393,8.40275,34.7584
-259,631,8.56659,-34.037,0,0,0,0,0,0,0,-1,965,393,8.56662,34.037
-252,631,8.44446,-33.2643,0,0,0,0,0,0,0,-1,972,393,8.44445,33.2644
-245,631,8.34705,-32.527,0,0,0,0,0,0,0,-1,979,393,8.34704,32.527
-238,631,8.41888,-31.8855,0,0,0,0,0,0,0,-1,986,393,8.41887,31.8855
-231,631,2.14966,-25.2306,0,0,0,0,0,0,0,-1,993,393,2.14968,25.2306
-224,631,6.83575,-19.7909,0,0,0,0,0,0,0,-1,1000,393,6.83575,19.7909
-217,631,5.05188,-18.3867,0,0,0,0,0,0,0,-1,1007,393,5.0519,18.3866
-210,631,3.37842,-26.3769,0,0,0,0,0,0,0,-1,1014,393,3.37839,26.3769
-203,631,5.05298,-26.4169,0,0,0,0,0,0,0,-1,1021,393,5.05302,26.4169
-196,631,6.37903,-32.8375,0,0,0,0,0,0,0,-1,1028,393,6.37901,32.8375
-189,631,6.47168,-37.5352,0,0,0,0,0,0,0,-1,1035,393,6.47171,37.5352
-182,631,6.31372,-38.3358,0,0,0,0,0,0,0,-1,1042,393,6.31374,38.3358
-175,631,6.4989,-39.3181,0,0,0,0,0,0,0,-1,1049,393,6.49894,39.3181
-168,631,6.42383,-39.988,-0.00418523,0.0229533,-0.0083657,0.0253248,-0.0065568,-1.29456,0.0194409,0.0293789,1056,393,6.42387,39.988
-161,631,6.37756,-40.5735,-0.00432177,0.0214671,-0.00735035,0.023415,-0.00626964,-1.31175,0.0180662,0.0168963,1063,393,6.37759,40.5735
-154,631,6.31604,-41.0981,-0.00436001,0.0199106,-0.00650773,0.0215454,-0.00599483,-1.32468,0.016724,0.0158366,1070,393,6.3161,41.0981
-147,631,6.27576,-41.5515,-0.00434515,0.018327,-0.00570931,0.0196835,-0.0057017,-1.33752,0.0153794,0.0145292,1077,393,6.27576,41.5516
-140,631,6.24817,-42.0269,-0.00423317,0.0167046,-0.00498797,0.0178322,-0.00536073,-1.34848,0.0140209,0.0113646,1084,393,6.24818,42.0269
-133,631,6.17297,-42.4799,-0.00416112,0.0147478,-0.00432372,0.0156896,-0.00510288,-1.35633,0.0125125,0.00875871,1091,393,6.17292,42.4799
-126,631,6.14087,-42.9064,-0.00408655,0.0129737,-0.00365353,0.0137232,-0.00483605,-1.36846,0.0111171,0.0130823,1098,393,6.14086,42.9064
-119,631,6.11145,-43.316,-0.00381688,0.0114413,-0.00319702,0.0120841,-0.00445967,-1.37238,0.00988386,0.0157877,1105,393,6.11147,43.316
-112,631,6.10352,-43.745,-0.00347053,0.00999939,-0.00280018,0.0105583,-0.00402945,-1.37378,0.00869888,0.0146728,1112,393,6.10348,43.745
-105,631,6.11389,-44.1676,-0.00315297,0.00864209,-0.00247241,0.00913938,-0.00365026,-1.37231,0.00760742,0.0202284,1119,393,6.11392,44.1676
-98,631,6.04065,-44.566,-0.00289686,0.00722377,-0.00209529,0.0076404,-0.00331349,-1.37451,0.00648662,0.01698,1126,393,6.04066,44.566
-91,631,5.99768,-44.9455,-0.00259429,0.00552088,-0.00175896,0.00588573,-0.00295914,-1.36627,0.00519893,0.0177039,1133,393,5.99766,44.9455
-84,631,5.96594,-45.3174,-0.00218608,0.00415779,-0.0013998,0.00445293,-0.00248122,-1.363,0.00405702,0.0166367,1140,393,5.96592,45.3174
-77,631,5.91724,-45.6707,-0.00183529,0.00347766,-0.00113437,0.00370972,-0.00206736,-1.36901,0.00338003,0.0116526,1147,393,5.91723,45.6708
-70,631,5.91382,-45.9938,-0.00163479,0.00312337,-0.00093711,0.00330128,-0.0018127,-1.38318,0.00299396,0.0131905,1154,393,5.91378,45.9938
-63,631,5.92419,-46.3436,-0.00143388,0.00303996,-0.000830209,0.00318906,-0.00158297,-1.39311,0.00280666,0.0142125,1161,393,5.92415,46.3436
-56,631,5.90576,-46.6735,-0.00115427,0.00276014,-0.000758797,0.00290208,-0.00129621,-1.38587,0.00248229,0.0153183,1168,393,5.90573,46.6735
-49,631,5.89648,-46.9223,-0.000827826,0.00254034,-0.000711792,0.00268458,-0.000972071,-1.37085,0.00218698,0.0113946,1175,393,5.89649,46.9223
-42,631,5.90137,-47.1816,-0.00038087,0.00212044,-0.000715991,0.00231089,-0.000571319,-1.31082,0.00176218,0.00944546,1182,393,5.90132,47.1816
-35,631,5.89478,-47.4309,-3.93012e-05,0.00160503,-0.000745051,0.00189239,-0.000326666,-1.20268,0.0013834,0.0109595,1189,393,5.89472,47.4309
-28,631,5.9071,-47.6633,0.000209284,0.00115546,-0.000985155,0.00177523,-0.000410488,-1.00925,0.00134142,0.0140601,1196,393,5.90708,47.6633
-21,631,5.87537,-47.9063,0.000482401,0.000626702,-0.00127803,0.00183461,-0.000725509,-0.813596,0.00152362,0.0121814,1203,393,5.87541,47.9063
-14,631,5.84399,-48.1389,0.00079329,0.000251828,-0.00152615,0.00207254,-0.00102742,-0.697614,0.00182335,0.0136422,1210,393,5.84398,48.1389
-7,631,5.92322,-48.38,0.00106423,-6.4496e-05,-0.0018334,0.00241817,-0.00141843,-0.63609,0.00223999,0.0205039,1217,393,5.92321,48.38
0,631,5.89136,-48.5324,0.00127828,-0.000120264,-0.00216731,0.00285633,-0.00169832,-0.629349,0.00265781,0.0245055,1224,393,5.89142,48.5324
7,631,5.87183,-48.6474,0.00142147,1.08574e-05,-0.00243657,0.00325276,-0.00182044,-0.644516,0.00296767,0.0202605,1231,393,5.87178,48.6474
14,631,5.91968,-48.7724,0.00153574,0.000304792,-0.00261026,0.00360211,-0.00176157,-0.669617,0.00315691,0.0114955,1238,393,5.91973,48.7724
21,631,5.94409,-48.8948,0.00165568,0.000880992,-0.00270337,0.00399932,-0.00146265,-0.714241,0.00326486,0.0147501,1245,393,5.94404,48.8948
28,631,5.92896,-48.9496,0.00175197,0.00169115,-0.00270741,0.00442914,-0.000986022,-0.779782,0.00333045,0.0161484,1252,393,5.92893,48.9496
35,631,5.96533,-49.0089,0.00171755,0.00267417,-0.00246887,0.00471064,-0.000318916,-0.881081,0.00325195,0.015141,1259,393,5.96534,49.0089
42,631,6.02808,-49.0839,0.00165916,0.00392457,-0.00196293,0.00505817,0.000525563,-1.04708,0.00321129,0.0134248,1266,393,6.02811,49.0839
49,631,6.01624,-49.1357,0.00155526,0.00506181,-0.00148363,0.0056053,0.00101177,-1.21965,0.00344943,0.012324,1273,393,6.01618,49.1357
56,631,6.02917,-49.1804,0.00139974,0.00606066,-0.000994519,0.006264,0.00119641,-1.36912,0.00383983,0.014021,1280,393,6.02911,49.1804
63,631,6.0332,-49.2198,0.0011468,0.00688058,-0.000339515,0.00690062,0.00112677,-1.51186,0.00427461,0.0157178,1287,393,6.03319,49.2199
70,631,6.04492,-49.1852,0.00103476,0.00744047,0.000141004,0.00744357,0.00103166,1.5488,0.00465674,0.0161994,1294,393,6.04496,49.1852
77,631,6.08813,-49.1441,0.0010278,0.00766688,0.000780157,0.00775733,0.000937359,1.45538,0.00488914,0.0152342,1301,393,6.08814,49.1441
84,631,6.1167,-49.1045,0.0010372,0.00755149,0.00117999,0.00775865,0.000830049,1.39701,0.00491915,0.0132623,1308,393,6.11666,49.1045
91,631,6.11035,-49.0046,0.000913654,0.00693537,0.00128642,0.00719867,0.00065035,1.3689,0.00459769,0.0172126,1315,393,6.11035,49.0047
98,631,6.13538,-48.9099,0.000880717,0.00620077,0.00143811,0.00656464,0.000516856,1.32298,0.00421472,0.0144069,1322,393,6.13539,48.9098
105,631,6.12842,-48.826,0.00103042,0.0053201,0.00154633,0.0058194,0.000531118,1.25847,0.00371524,0.0115869,1329,393,6.12844,48.826
112,631,6.15747,-48.7088,0.00121978,0.00446913,0.0014742,0.00503828,0.000650638,1.20236,0.00316435,0.0116539,1336,393,6.15743,48.7088
119,631,6.16614,-48.5691,0.00141943,0.00355545,0.00123283,0.00411855,0.000856326,1.14234,0.00250944,0.0128203,1343,393,6.16619,48.5691
126,631,6.18811,-48.3844,0.00157501,0.00276815,0.000945079,0.0032892,0.00105396,1.06694,0.00193941,0.0185894,1350,393,6.18812,48.3844
133,631,6.21521,-48.1994,0.00170004,0.00221122,0.000669162,0.00267194,0.00123932,0.967826,0.00154399,0.0199637,1357,393,6.21525,48.1994
140,631,6.20422,-48.0257,0.00183523,0.00190423,0.000395571,0.00226681,0.00147266,0.828897,0.00132814,0.0212561,1364,393,6.20419,48.0257
147,631,6.19128,-47.8117,0.00182195,0.00181594,0.00016162,0.00198059,0.0016573,0.77609,0.00122691,0.0245658,1371,393,6.19131,47.8117
154,631,6.21826,-47.5929,0.00170087,0.00224016,8.81526e-05,0.0022542,0.00168682,1.41281,0.0013539,0.0220826,1378,393,6.2183,47.5929
161,631,6.25708,-47.3016,0.00150816,0.00292847,8.75174e-05,0.00293384,0.00150279,1.50949,0.00169402,0.0231136,1385,393,6.25705,47.3016
168,631,6.2489,-46.9762,0.001163,0.00368044,0.000141208,0.00368833,0.00115511,1.51494,0.00217845,0.0277953,1392,393,6.24894,46.9762
175,631,6.23999,-46.7323,0.000729805,0.00438424,0.000367072,0.00442074,0.000693298,1.47167,0.0027454,0.0213248,1399,393,6.24001,46.7323
182,631,6.20471,-46.4555,0.000232489,0.00499589,0.000669059,0.00508808,0.000140299,1.43387,0.00334627,0.0114396,1406,393,6.20473,46.4555
189,631,6.18457,-46.1077,-0.00021382,0.00554208,0.00104737,0.00572674,-0.00039848,1.39628,0.00395735,0.0107575,1413,393,6.18463,46.1077
196,631,6.16248,-45.7723,-0.000503629,0.00593786,0.00153192,0.00628362,-0.000849393,1.34881,0.00449902,0.0122069,1420,393,6.16253,45.7723
203,631,6.17834,-45.4412,-0.000880782,0.00623954,0.00194495,0.00673618,-0.00137741,1.32079,0.0050134,0.0142535,1427,393,6.17833,45.4412
210,631,6.16626,-45.0862,-0.00137228,0.0061506,0.00217368,0.0067335,-0.00195519,1.3088,0.00526321,0.0166335,1434,393,6.16629,45.0862
217,631,6.16309,-44.7263,-0.00148949,0.00674725,0.00217714,0.0072873,-0.00202954,1.32765,0.00565739,0.0178485,1441,393,6.16312,44.7263
224,631,6.12756,-44.3025,-0.00134457,0.00756387,0.00225444,0.0081019,-0.00188261,1.33652,0.006126,0.0139364,1448,393,6.12755,44.3025
231,631,6.04712,-43.8831,-0.000724722,0.0082009,0.00255626,0.00888116,-0.00140498,1.31071,0.00644039,0.0111287,1455,393,6.04709,43.8831
238,631,5.99646,-43.4369,0.00014434,0.00956169,0.00337843,0.0106483,-0.000942274,1.25961,0.0074329,0.0173389,1462,393,5.9965,43.4368
245,631,5.98425,-43.0012,-0.00283731,0.0100229,0.00144623,0.0101835,-0.00299795,1.46018,0.00797835,0.0190789,1469,393,5.98426,43.0011
252,631,5.95044,-42.566,-0.00670546,0.0103352,-0.00120427,0.0104199,-0.00679014,-1.50059,0.0100096,0.0185994,1476,393,5.95049,42.566
259,631,5.90527,-42.1024,-0.00896208,0.0111109,-0.00259284,0.0114404,-0.00929159,-1.44439,0.011991,0.0135948,1483,393,5.90526,42.1025
266,631,5.89307,-41.6357,-0.0116858,0.0118064,-0.00417131,0.0125251,-0.0124045,-1.40018,0.0143932,0.012047,1490,393,5.89303,41.6357
273,631,5.86523,-41.1257,-0.0149453,0.0124813,-0.00598497,0.0137305,-0.0161945,-1.36504,0.0172967,0.0146172,1497,393,5.86522,41.1257
280,631,5.83484,-40.5946,-0.01856,0.013082,-0.00797577,0.0149787,-0.0204567,-1.33733,0.02054,0.0144686,1504,393,5.83478,40.5946
287,631,5.82092,-40.0453,-0.0223112,0.0138314,-0.00987418,0.0163531,-0.0248329,-1.32076,0.0239462,0.0179596,1511,393,5.8209,40.0453
294,631,5.75122,-39.4109,-0.026154,0.014542,-0.011783,0.0177074,-0.0293194,-1.30835,0.0274254,0.0241481,1518,393,5.75119,39.4109
301,631,5.59888,-38.7909,-0.0296377,0.015161,-0.0134452,0.0188864,-0.0333631,-1.30049,0.0305498,0.0353155,1525,393,5.59887,38.7909
308,631,5.7179,-38.1367,-0.0327615,0.0158848,-0.0148305,0.0200495,-0.0369262,-1.29703,0.0333725,0.0397826,1532,393,5.71784,38.1367
315,631,5.88257,-37.5463,-0.0351865,0.0166875,-0.0156679,0.0210524,-0.0395515,-1.29909,0.0355289,0.0443621,1539,393,5.8826,37.5463
322,631,5.84351,-37.0963,0,0,0,0,0,0,0,-1,1546,393,5.84355,37.0963
329,631,5.92786,-36.1609,0,0,0,0,0,0,0,-1,1553,393,5.92781,36.1609
336,631,6.07996,-36.063,0,0,0,0,0,0,0,-1,1560,393,6.07997,36.0629
343,631,6.23218,-35.965,0,0,0,0,0,0,0,-1,1567,393,6.23214,35.965
350,631,2.1344,-9.23401,0,0,0,0,0,0,0,-1,1574,393,2.13439,9.23401
357,631,2.6449,-9.60303,0,0,0,0,0,0,0,-1,1581,393,2.64491,9.60304
364,631,3.39136,-5.7594,0,0,0,0,0,0,0,-1,1588,393,3.39137,5.75939
371,631,3.72839,-6.0574,0,0,0,0,0,0,0,-1,1595,393,3.72845,6.05742
378,631,4.06555,-6.35544,0,0,0,0,0,0,0,-1,1602,393,4.06553,6.35544
385,631,3.90442,-3.58298,0,0,0,0,0,0,0,-1,1609,393,3.90437,3.58299
392,631,0.352295,-2.21301,0,0,0,0,0,0,0,-1,1616,393,0.352345,2.213
399,631,0,0,0,0,0,0,0,0,0,-1,1623,393,0,0
406,631,0,0,0,0,0,0,0,0,0,-1,1630,393,0,0
413,631,0,0,0,0,0,0,0,0,0,-1,1637,393,0,0
420,631,0,0,0,0,0,0,0,0,0,-1,1644,393,0,0
427,631,0,0,0,0,0,0,0,0,0,-1,1651,393,0,0
434,631,0,0,0,0,0,0,0,0,0,-1,1658,393,0,0
441,631,0,0,0,0,0,0,0,0,0,-1,1665,393,0,0
448,631,0,0,0,0,0,0,0,0,0,-1,1672,393,0,0
455,631,0,0,0,0,0,0,0,0,0,-1,1679,393,0,0
462,631,0,0,0,0,0,0,0,0,0,-1,1686,393,0,0
469,631,0,0,0,0,0,0,0,0,0,-1,1693,393,0,0
476,631,0,0,0,0,0,0,0,0,0,-1,1700,393,0,0
483,631,0,0,0,0,0,0,0,0,0,-1,1707,393,0,0
490,631,0,0,0,0,0,0,0,0,0,-1,1714,393,0,0
497,631,0,0,0,0,0,0,0,0,0,-1,1721,393,0,0
504,631,0,0,0,0,0,0,0,0,0,-1,1728,393,0,0
511,631,0,0,0,0,0,0,0,0,0,-1,1735,393,0,0
518,631,0,0,0,0,0,0,0,0,0,-1,1742,393,0,0
525,631,0,0,0,0,0,0,0,0,0,-1,1749,393,0,0
532,631,0,0,0,0,0,0,0,0,0,-1,1756,393,0,0
539,631,0,0,0,0,0,0,0,0,0,-1,1763,393,0,0
546,631,0,0,0,0,0,0,0,0,0,-1,1770,393,0,0
553,631,0,0,0,0,0,0,0,0,0,-1,1777,393,0,0
560,631,0,0,0,0,0,0,0,0,0,-1,1784,393,0,0
567,631,0,0,0,0,0,0,0,0,0,-1,1791,393,0,0
574,631,0,0,0,0,0,0,0,0,0,-1,1798,393,0,0
581,631,0,0,0,0,0,0,0,0,0,-1,1805,393,0,0
588,631,0,0,0,0,0,0,0,0,0,-1,1812,393,0,0
595,631,0,0,0,0,0,0,0,0,0,-1,1819,393,0,0
602,631,0,0,0,0,0,0,0,0,0,-1,1826,393,0,0
609,631,0,0,0,0,0,0,0,0,0,-1,1833,393,0,0
616,631,0,0,0,0,0,0,0,0,0,-1,1840,393,0,0
623,631,0,0,0,0,0,0,0,0,0,-1,1847,393,0,0
630,631,0,0,0,0,0,0,0,0,0,-1,1854,393,0,0
637,631,0,0,0,0,0,0,0,0,0,-1,1861,393,0,0
644,631,0,0,0,0,0,0,0,0,0,-1,1868,393,0,0
651,631,0,0,0,0,0,0,0,0,0,-1,1875,393,0,0
658,631,0,0,0,0,0,0,0,0,0,-1,1882,393,0,0
665,631,0,0,0,0,0,0,0,0,0,-1,1889,393,0,0
672,631,0,0,0,0,0,0,0,0,0,-1,1896,393,0,0
679,631,0,0,0,0,0,0,0,0,0,-1,1903,393,0,0
686,631,0,0,0,0,0,0,0,0,0,-1,1910,393,0,0
693,631,0,0,0,0,0,0,0,0,0,-1,1917,393,0,0
700,631,0,0,0,0,0,0,0,0,0,-1,1924,393,0,0
707,631,0,0,0,0,0,0,0,0,0,-1,1931,393,0,0
714,631,0,0,0,0,0,0,0,0,0,-1,1938,393,0,0
721,631,0,0,0,0,0,0,0,0,0,-1,1945,393,0,0
728,631,0,0,0,0,0,0,0,0,0,-1,1952,393,0,0
735,631,0,0,0,0,0,0,0,0,0,-1,1959,393,0,0
742,631,0,0,0,0,0,0,0,0,0,-1,1966,393,0,0
749,631,0,0,0,0,0,0,0,0,0,-1,1973,393,0,0
756,631,0,0,0,0,0,0,0,0,0,-1,1980,393,0,0
763,631,0,0,0,0,0,0,0,0,0,-1,1987,393,0,0
770,631,0,0,0,0,0,0,0,0,0,-1,1994,393,0,0
777,631,0,0,0,0,0,0,0,0,0,-1,2001,393,0,0
784,631,0,0,0,0,0,0,0,0,0,-1,2008,393,0,0
791,631,0,0,0,0,0,0,0,0,0,-1,2015,393,0,0
798,631,0,0,0,0,0,0,0,0,0,-1,2022,393,0,0
805,631,0,0,0,0,0,0,0,0,0,-1,2029,393,0,0
812,631,0,0,0,0,0,0,0,0,0,-1,2036,393,0,0
-700,624,0,0,0,0,0,0,0,0,0,-1,524,400,0,0
-693,624,0,0,0,0,0,0,0,0,0,-1,531,400,0,0
-686,624,0,0,0,0,0,0,0,0,0,-1,538,400,0,0
-679,624,0,0,0,0,0,0,0,0,0,-1,545,400,0,0
-672,624,0,0,0,0,0,0,0,0,0,-1,552,400,0,0
-665,624,0,0,0,0,0,0,0,0,0,-1,559,400,0,0
-658,624,0,0,0,0,0,0,0,0,0,-1,566,400,0,0
-651,624,0,0,0,0,0,0,0,0,0,-1,573,400,0,0
-644,624,0,0,0,0,0,0,0,0,0,-1,580,400,0,0
-637,624,0,0,0,0,0,0,0,0,0,-1,587,400,0,0
-630,624,0,0,0,0,0,0,0,0,0,-1,594,400,0,0
-623,624,0,0,0,0,0,0,0,0,0,-1,601,400,0,0
-616,624,0,0,0,0,0,0,0,0,0,-1,608,400,0,0
-609,624,0,0,0,0,0,0,0,0,0,-1,615,400,0,0
-602,624,0,0,0,0,0,0,0,0,0,-1,622,400,0,0
-595,624,0,0,0,0,0,0,0,0,0,-1,629,400,0,0
-588,624,0,0,0,0,0,0,0,0,0,-1,636,400,0,0
-581,624,0,0,0,0,0,0,0,0,0,-1,643,400,0,0
-574,624,0,0,0,0,0,0,0,0,0,-1,650,400,0,0
-567,624,0,0,0,0,0,0,0,0,0,-1,657,400,0,0
-560,624,0,0,0,0,0,0,0,0,0,-1,664,400,0,0
-553,624,0,0,0,0,0,0,0,0,0,-1,671,400,0,0
-546,624,0,0,0,0,0,0,0,0,0,-1,678,400,0,0
-539,624,0,0,0,0,0,0,0,0,0,-1,685,400,0,0
-532,624,0,0,0,0,0,0,0,0,0,-1,692,400,0,0
-525,624,0,0,0,0,0,0,0,0,0,-1,699,400,0,0
-518,624,0,0,0,0,0,0,0,0,0,-1,706,400,0,0
-511,624,0,0,0,0,0,0,0,0,0,-1,713,400,0,0
-504,624,0,0,0,0,0,0,0,0,0,-1,720,400,0,0
-497,624,0,0,0,0,0,0,0,0,0,-1,727,400,0,0
-490,624,0,0,0,0,0,0,0,0,0,-1,734,400,0,0
-483,624,0,0,0,0,0,0,0,0,0,-1,741,400,0,0
-476,624,0,0,0,0,0,0,0,0,0,-1,748,400,0,0
-469,624,0,0,0,0,0,0,0,0,0,-1,755,400,0,0
-462,624,0,0,0,0,0,0,0,0,0,-1,762,400,0,0
-455,624,0,0,0,0,0,0,0,0,0,-1,769,400,0,0
-448,624,0,0,0,0,0,0,0,0,0,-1,776,400,0,0
-441,624,0,0,0,0,0,0,0,0,0,-1,783,400,0,0
-434,624,0,0,0,0,0,0,0,0,0,-1,790,400,0,0
-427,624,0,0,0,0,0,0,0,0,0,-1,797,400,0,0
-420,624,0,0,0,0,0,0,0,0,0,-1,804,400,0,0
-413,624,0,0,0,0,0,0,0,0,0,-1,811,400,0,0
-406,624,0,0,0,0,0,0,0,0,0,-1,818,400,0,0
-399,624,0,0,0,0,0,0,0,0,0,-1,825,400,0,0
-392,624,0,0,0,0,0,0,0,0,0,-1,832,400,0,0
-385,624,0,0,0,0,0,0,0,0,0,-1,839,400,0,0
-378,624,0,0,0,0,0,0,0,0,0,-1,846,400,0,0
-371,624,0,0,0,0,0,0,0,0,0,-1,853,400,0,0
-364,624,0,0,0,0,0,0,0,0,0,-1,860,400,0,0
-357,624,0,0,0,0,0,0,0,0,0,-1,867,400,0,0
-350,624,0,0,0,0,0,0,0,0,0,-1,874,400,0,0
-343,624,0,0,0,0,0,0,0,0,0,-1,881,400,0,0
-336,624,0,0,0,0,0,0,0,0,0,-1,888,400,0,0
-329,624,0,0,0,0,0,0,0,0,0,-1,895,400,0,0
-322,624,0,0,0,0,0,0,0,0,0,-1,902,400,0,0
-315,624,0,0,0,0,0,0,0,0,0,-1,909,400,0,0
-308,624,0,0,0,0,0,0,0,0,0,-1,916,400,0,0
-301,624,0,0,0,0,0,0,0,0,0,-1,923,400,0,0
-294,624,5.08527,-28.5311,0,0,0,0,0,0,0,-1,930,400,5.08525,28.5311
-287,624,6.70825,-33.8,0,0,0,0,0,0,0,-1,937,400,6.70827,33.8
-280,624,6.92474,-33.8738,0,0,0,0,0,0,0,-1,944,400,6.92477,33.8739
-273,624,7.09149,-33.6875,0,0,0,0,0,0,0,-1,951,400,7.09148,33.6875
-266,624,7.17694,-33.4507,0,0,0,0,0,0,0,-1,958,400,7.17693,33.4507
-259,624,7.33569,-33.1199,0,0,0,0,0,0,0,-1,965,400,7.33567,33.1199
-252,624,7.5528,-32.8158,0,0,0,0,0,0,0,-1,972,400,7.5528,32.8158
-245,624,6.8396,-32.02,0,0,0,0,0,0,0,-1,979,400,6.83963,32.02
-238,624,6.99402,-31.5278,0,0,0,0,0,0,0,-1,986,400,6.99404,31.5278
-231,624,3.86121,-29.6032,0,0,0,0,0,0,0,-1,993,400,3.86122,29.6032
-224,624,4.59351,-27.4048,0,0,0,0,0,0,0,-1,1000,400,4.59353,27.4048
-217,624,5.90167,-32.048,0,0,0,0,0,0,0,-1,1007,400,5.90167,32.048
-210,624,6.38623,-36.7012,0,0,0,0,0,0,0,-1,1014,400,6.38622,36.7012
-203,624,6.26111,-37.2161,0,0,0,0,0,0,0,-1,1021,400,6.2611,37.2161
-196,624,6.06018,-37.7382,0,0,0,0,0,0,0,-1,1028,400,6.06016,37.7382
-189,624,5.97949,-38.0664,-0.00384527,0.0226705,-0.00897786,0.0254243,-0.00659905,-1.27318,0.0195246,0.0499109,1035,400,5.97946,38.0664
-182,624,5.95715,-38.715,-0.00300302,0.0210689,-0.0085657,0.0238057,-0.00573986,-1.26154,0.0180899,0.0429947,1042,400,5.95714,38.715
-175,624,6.02966,-39.4576,-0.00292151,0.018819,-0.00769065,0.0212645,-0.00536699,-1.26293,0.0162632,0.0269552,1049,400,6.02969,39.4576
-168,624,5.9707,-40.0527,-0.0030199,0.0174246,-0.00675127,0.0194528,-0.00504812,-1.27895,0.0149383,0.0153372,1056,400,5.9707,40.0527
-161,624,5.89368,-40.5943,-0.00303186,0.0161343,-0.00593736,0.0178245,-0.0047221,-1.29345,0.0137304,0.0115327,1063,400,5.89371,40.5943
-154,624,5.87366,-41.089,-0.00297937,0.0147912,-0.0052356,0.016219,-0.00440717,-1.30456,0.0125425,0.0106411,1070,400,5.8736,41.089
-147,624,5.85181,-41.567,-0.00289393,0.0134139,-0.00455779,0.0146013,-0.00408131,-1.31594,0.0113421,0.011405,1077,400,5.85185,41.567
-140,624,5.80823,-42.039,-0.00272566,0.0119624,-0.00392093,0.0129436,-0.0037068,-1.3256,0.0100941,0.0101927,1084,400,5.80828,42.039
-133,624,5.75024,-42.4958,-0.00258852,0.0102419,-0.00333264,0.0110559,-0.00340252,-1.33124,0.00872868,0.0110763,1091,400,5.75023,42.4958
-126,624,5.72766,-42.9097,-0.00243943,0.00872655,-0.00275509,0.00936934,-0.00308221,-1.34159,0.00748815,0.0135426,1098,400,5.72765,42.9097
-119,624,5.70227,-43.3267,-0.00212529,0.00744411,-0.00234272,0.00798686,-0.00266804,-1.34314,0.006402,0.015647,1105,400,5.70228,43.3267
-112,624,5.70093,-43.7452,-0.00175058,0.00626095,-0.00199782,0.00673151,-0.00222114,-1.33948,0.00538303,0.017169,1112,400,5.70097,43.7452
-105,624,5.71448,-44.1536,-0.00139877,0.00517586,-0.00172922,0.00560293,-0.00182584,-1.32867,0.00446998,0.0132317,1119,400,5.71444,44.1536
-98,624,5.65881,-44.5431,-0.00108159,0.00410042,-0.00144231,0.00447481,-0.00145598,-1.31683,0.00356895,0.0140695,1126,400,5.65875,44.5431
-91,624,5.63123,-44.9491,-0.000723256,0.00294276,-0.00118869,0.00329445,-0.00107494,-1.28314,0.00262892,0.0207387,1133,400,5.63118,44.9491
-84,624,5.65369,-45.3442,-0.000293999,0.00205711,-0.000906273,0.0023659,-0.000602782,-1.24241,0.00181193,0.0195923,1140,400,5.65374,45.3442
-77,624,5.64282,-45.674,0.0001069,0.00156633,-0.000688156,0.00183963,-0.000166402,-1.19275,0.00128548,0.014313,1147,400,5.64277,45.6739
-70,624,5.64087,-45.9576,0.000462917,0.0012958,-0.000526635,0.00155075,0.000207966,-1.11994,0.000971957,0.015721,1154,400,5.64087,45.9576
-63,624,5.64893,-46.2978,0.000831973,0.000801423,-0.000642517,0.0014594,0.000173999,-0.773513,0.00092043,0.0179306,1161,400,5.64898,46.2978
-56,624,5.60559,-46.6497,0.00111157,-0.000299937,-0.000872392,0.00152793,-0.000716305,-0.445301,0.00132366,0.0151173,1168,400,5.60563,46.6496
-49,624,5.62756,-46.9365,0.00140629,-0.00114811,-0.000943681,0.0017171,-0.00145892,-0.318168,0.0018357,0.0117256,1175,400,5.62759,46.9365
-42,624,5.62744,-47.1909,0.00198599,-0.00239287,-0.00115011,0.00226969,-0.00267656,-0.241841,0.00285894,0.00994588,1182,400,5.62743,47.1909
-35,624,5.62903,-47.4274,0.0023351,-0.00367418,-0.00138862,0.00264047,-0.00397955,-0.216459,0.00384804,0.0154827,1189,400,5.62907,47.4274
-28,624,5.65308,-47.6882,0.00253573,-0.00460163,-0.00199089,0.0030535,-0.00511941,-0.254436,0.00476862,0.0210406,1196,400,5.65307,47.6882
-21,624,5.6543,-47.9076,0.00266964,-0.00560656,-0.00260003,0.00341867,-0.00635559,-0.28049,0.00572746,0.0154738,1203,400,5.65425,47.9076
-14,624,5.66321,-48.1121,0.00281289,-0.00630552,-0.00310644,0.0037706,-0.00726323,-0.299051,0.00647589,0.0157979,1210,400,5.66321,48.1121
-7,624,5.70837,-48.2936,0.00284285,-0.0067407,-0.00369588,0.00410258,-0.00800042,-0.328496,0.00710744,0.0202176,1217,400,5.70833,48.2936
0,624,5.74048,-48.4698,0.00281867,-0.00668267,-0.00432096,0.00448981,-0.0083538,-0.369032,0.00752629,0.0213521,1224,400,5.74054,48.4698
7,624,5.71301,-48.6224,0.00272745,-0.0063203,-0.00484435,0.00483178,-0.00842464,-0.409797,0.00774673,0.0165487,1231,400,5.71302,48.6224
14,624,5.82166,-48.7962,0.00259844,-0.00568336,-0.00522035,0.0051208,-0.00820573,-0.450101,0.00776249,0.0138335,1238,400,5.82165,48.7962
21,624,5.84302,-48.9028,0.00250046,-0.00466488,-0.00546399,0.0054516,-0.00761602,-0.495217,0.00757902,0.0139974,1245,400,5.84306,48.9028
28,624,5.83997,-48.9667,0.00248075,-0.00341629,-0.00552186,0.005792,-0.00672754,-0.540171,0.00723488,0.0126578,1252,400,5.83995,48.9667
35,624,5.86938,-49.0063,0.00242633,-0.00199478,-0.00500625,0.00568835,-0.0052568,-0.577492,0.00632083,0.016349,1259,400,5.86938,49.0063
42,624,5.93201,-49.088,0.00235043,-0.000228246,-0.00409695,0.00535613,-0.00323395,-0.632951,0.00500968,0.0186581,1266,400,5.93205,49.088
49,624,5.96887,-49.1287,0.00225675,0.00127088,-0.00304483,0.00484829,-0.00132066,-0.705148,0.00375074,0.0204502,1273,400,5.96888,49.1286
56,624,6.01135,-49.1718,0.00214264,0.002383,-0.00183943,0.00410617,0.000419473,-0.818019,0.00260889,0.0206381,1280,400,6.01138,49.1718
63,624,6.0592,-49.1928,0.00199828,0.00321567,-0.000373406,0.00332108,0.00189287,-1.29567,0.00192367,0.0162884,1287,400,6.05917,49.1928
70,624,6.06995,-49.2115,0.00211668,0.00359862,0.000931658,0.00404804,0.00166727,1.12134,0.00234921,0.014465,1294,400,6.07,49.2115
77,624,6.10938,-49.1604,0.00225511,0.00350405,0.00257044,0.00552479,0.000234375,0.904562,0.0036076,0.0146806,1301,400,6.10941,49.1604
84,624,6.16907,-49.0971,0.00248298,0.00294139,0.00384595,0.00656496,-0.00114059,0.815161,0.0048022,0.0134638,1308,400,6.1691,49.0971
91,624,6.19714,-49.0045,0.00259325,0.00171075,0.00466475,0.00683758,-0.00253357,0.738242,0.00559742,0.0139978,1315,400,6.1972,49.0045
98,624,6.2229,-48.9148,0.00276034,0.000383409,0.00542489,0.00712542,-0.00398168,0.677564,0.00649774,0.0137571,1322,400,6.22293,48.9148
105,624,6.24841,-48.8578,0.0031018,-0.00115008,0.00595562,0.00729955,-0.00534783,0.613966,0.00733089,0.0148093,1329,400,6.24844,48.8579
112,624,6.29443,-48.7677,0.00344586,-0.00254364,0.00612189,0.00726624,-0.00636402,0.557918,0.00787518,0.0149768,1336,400,6.29441,48.7677
119,624,6.30371,-48.6358,0.00382353,-0.00390711,0.00584741,0.0069677,-0.00705128,0.493353,0.00809391,0.0147335,1343,400,6.30369,48.6358
126,624,6.30444,-48.4326,0.0041502,-0.0050566,0.00538944,0.00663463,-0.00754103,0.431948,0.0081899,0.0179423,1350,400,6.30438,48.4326
133,624,6.39832,-48.2052,0.00435842,-0.00578169,0.00473434,0.00622518,-0.00764846,0.375585,0.00802399,0.0192202,1357,400,6.39833,48.2052
140,624,6.45264,-48.0305,0.00454125,-0.00618771,0.00387281,0.00579314,-0.0074396,0.312649,0.00765961,0.0200268,1364,400,6.45259,48.0305
147,624,6.45251,-47.8115,0.00461039,-0.0063422,0.00302598,0.0053908,-0.00712261,0.252403,0.00724765,0.0254941,1371,400,6.45247,47.8115
154,624,6.47388,-47.584,0.00453065,-0.00568985,0.00230467,0.0050263,-0.0061855,0.211838,0.00648466,0.0269429,1378,400,6.47382,47.5839
161,624,6.53918,-47.3153,0.0042994,-0.00459822,0.00160611,0.00458044,-0.00487926,0.173229,0.00546247,0.0242672,1385,400,6.53917,47.3153
168,624,6.55408,-47.0026,0.00378803,-0.00333244,0.001022,0.00393181,-0.00347622,0.139771,0.00427973,0.0234929,1392,400,6.55402,47.0026
175,624,6.54309,-46.7596,0.00309115,-0.00195722,0.000756504,0.00320208,-0.00206814,0.145592,0.00306615,0.017422,1399,400,6.54315,46.7596
182,624,6.52429,-46.4739,0.00238772,-0.00059722,0.000418192,0.00244521,-0.000654702,0.136598,0.00188663,0.0109767,1406,400,6.52425,46.4739
189,624,6.49133,-46.117,0.0017086,0.00076658,0.000346229,0.00182216,0.000653017,0.316942,0.001066,0.0107878,1413,400,6.49129,46.117
196,624,6.47717,-45.7804,0.00124632,0.0019606,0.00049036,0.00221009,0.000996828,1.10014,0.00127803,0.012311,1420,400,6.47719,45.7804
203,624,6.50964,-45.4117,0.000766697,0.00300508,0.00073737,0.00322615,0.000545625,1.27951,0.00199393,0.0158806,1427,400,6.50964,45.4118
210,624,6.52063,-45.061,0.000175393,0.00360241,0.00100686,0.00387633,-9.85306e-05,1.30517,0.00261768,0.0189893,1434,400,6.52058,45.061
217,624,6.50342,-44.7011,-0.000137178,0.00431104,0.00119356,0.00461107,-0.000437201,1.32453,0.00322966,0.0213402,1441,400,6.50341,44.7011
224,624,6.47693,-44.3105,-0.000244523,0.00508774,0.00141006,0.00543765,-0.000594438,1.32755,0.00383862,0.0170356,1448,400,6.47696,44.3105
231,624,6.45703,-43.91,-1.60921e-05,0.00574487,0.00176566,0.00624295,-0.000514179,1.29584,0.00434352,0.0122138,1455,400,6.457,43.91
238,624,6.42163,-43.4875,0.000449128,0.00683942,0.00243282,0.00766019,-0.000371643,1.24541,0.00523507,0.017298,1462,400,6.4216,43.4875
245,624,6.4259,-43.0571,-0.00104448,0.00748294,0.00163227,0.0077847,-0.00134624,1.38799,0.00569187,0.0184307,1469,400,6.42589,43.0571
252,624,6.40137,-42.5916,-0.00316809,0.00808266,0.000338412,0.00809283,-0.00317825,1.54075,0.0067104,0.0140043,1476,400,6.40136,42.5916
259,624,6.35876,-42.1328,-0.00453521,0.00892582,-0.000315816,0.00893322,-0.00454262,-1.54735,0.00791673,0.00989619,1483,400,6.35875,42.1328
266,624,6.33862,-41.641,-0.00619984,0.00972766,-0.00108485,0.00980121,-0.0062734,-1.5031,0.00935488,0.0133121,1490,400,6.33867,41.641
273,624,6.3103,-41.1473,-0.00821254,0.0105128,-0.00202533,0.0107293,-0.0084291,-1.46428,0.0110877,0.0165321,1497,400,6.31034,41.1473
280,624,6.2594,-40.6701,-0.0104409,0.011255,-0.00307089,0.0116813,-0.0108671,-1.43286,0.0130212,0.0148948,1504,400,6.25939,40.6701
287,624,6.23242,-40.1815,-0.0127175,0.0121406,-0.00399697,0.0127675,-0.0133444,-1.41523,0.0150769,0.0112855,1511,400,6.23244,40.1815
294,624,6.19434,-39.6581,-0.0150592,0.0129639,-0.00493197,0.0138066,-0.0159019,-1.40157,0.0171664,0.0105909,1518,400,6.19433,39.6581
301,624,6.13965,-39.0742,-0.0171188,0.0136782,-0.00567274,0.0146899,-0.0181305,-1.39431,0.0189835,0.0134802,1525,400,6.1397,39.0741
308,624,6.15063,-38.4684,-0.01882,0.0144595,-0.00614585,0.0155582,-0.0199187,-1.39389,0.0205341,0.0186049,1532,400,6.15062,38.4684
315,624,6.15979,-37.9065,-0.0200012,0.0153072,-0.00621326,0.0163687,-0.0210626,-1.40159,0.0216675,0.0217746,1539,400,6.15981,37.9065
322,624,6.12805,-37.3708,-0.0209195,0.0160445,-0.00596559,0.0169834,-0.0218585,-1.41469,0.0224842,0.0386376,1546,400,6.128,37.3708
329,624,6.09387,-36.8334,0,0,0,0,0,0,0,-1,1553,400,6.0939,36.8334
336,624,6.08936,-35.8477,0,0,0,0,0,0,0,-1,1560,400,6.0894,35.8477
343,624,6.19885,-35.4179,0,0,0,0,0,0,0,-1,1567,400,6.1989,35.4179
350,624,1.99194,-7.29742,0,0,0,0,0,0,0,-1,1574,400,1.99198,7.29741
357,624,2.64075,-3.13092,0,0,0,0,0,0,0,-1,1581,400,2.64076,3.13091
364,624,3.16565,-4.9458,0,0,0,0,0,0,0,-1,1588,400,3.16564,4.94579
371,624,3.37561,-5.23529,0,0,0,0,0,0,0,-1,1595,400,3.37563,5.23529
378,624,1.50439,-5.22165,0,0,0,0,0,0,0,-1,1602,400,1.50438,5.22164
385,624,1.2301,-10.5866,0,0,0,0,0,0,0,-1,1609,400,1.2301,10.5866
392,624,4.26819,-5.14236,0,0,0,0,0,0,0,-1,1616,400,4.26818,5.14236
399,624,2.22168,-9.19293,0,0,0,0,0,0,0,-1,1623,400,2.22173,9.19294
406,624,2.68213,-9.91171,0,0,0,0,0,0,0,-1,1630,400,2.68213,9.91171
413,624,0,0,0,0,0,0,0,0,0,-1,1637,400,0,0
420,624,0,0,0,0,0,0,0,0,0,-1,1644,400,0,0
427,624,0,0,0,0,0,0,0,0,0,-1,1651,400,0,0
434,624,0,0,0,0,0,0,0,0,0,-1,1658,400,0,0
441,624,0,0,0,0,0,0,0,0,0,-1,1665,400,0,0
448,624,0,0,0,0,0,0,0,0,0,-1,1672,400,0,0
455,624,0,0,0,0,0,0,0,0,0,-1,1679,400,0,0
462,624,0,0,0,0,0,0,0,0,0,-1,1686,400,0,0
469,624,0,0,0,0,0,0,0,0,0,-1,1693,400,0,0
476,624,0,0,0,0,0,0,0,0,0,-1,1700,400,0,0
483,624,0,0,0,0,0,0,0,0,0,-1,1707,400,0,0
490,624,0,0,0,0,0,0,0,0,0,-1,1714,400,0,0
497,624,0,0,0,0,0,0,0,0,0,-1,1721,400,0,0
504,624,0,0,0,0,0,0,0,0,0,-1,1728,400,0,0
511,624,0,0,0,0,0,0,0,0,0,-1,1735,400,0,0
518,624,0,0,0,0,0,0,0,0,0,-1,1742,400,0,0
525,624,0,0,0,0,0,0,0,0,0,-1,1749,400,0,0
532,624,0,0,0,0,0,0,0,0,0,-1,1756,400,0,0
539,624,0,0,0,0,0,0,0,0,0,-1,1763,400,0,0
546,624,0,0,0,0,0,0,0,0,0,-1,1770,400,0,0
553,624,0,0,0,0,0,0,0,0,0,-1,1777,400,0,0
560,624,0,0,0,0,0,0,0,0,0,-1,1784,400,0,0
567,624,0,0,0,0,0,0,0,0,0,-1,1791,400,0,0
574,624,0,0,0,0,0,0,0,0,0,-1,1798,400,0,0
581,624,0,0,0,0,0,0,0,0,0,-1,1805,400,0,0
588,624,0,0,0,0,0,0,0,0,0,-1,1812,400,0,0
595,624,0,0,0,0,0,0,0,0,0,-1,1819,400,0,0
602,624,0,0,0,0,0,0,0,0,0,-1,1826,400,0,0
609,624,0,0,0,0,0,0,0,0,0,-1,1833,400,0,0
616,624,0,0,0,0,0,0,0,0,0,-1,1840,400,0,0
623,624,0,0,0,0,0,0,0,0,0,-1,1847,400,0,0
630,624,0,0,0,0,0,0,0,0,0,-1,1854,400,0,0
637,624,0,0,0,0,0,0,0,0,0,-1,1861,400,0,0
644,624,0,0,0,0,0,0,0,0,0,-1,1868,400,0,0
651,624,0,0,0,0,0,0,0,0,0,-1,1875,400,0,0
658,624,0,0,0,0,0,0,0,0,0,-1,1882,400,0,0
665,624,0,0,0,0,0,0,0,0,0,-1,1889,400,0,0
672,624,0,0,0,0,0,0,0,0,0,-1,1896,400,0,0
679,624,0,0,0,0,0,0,0,0,0,-1,1903,400,0,0
686,624,0,0,0,0,0,0,0,0,0,-1,1910,400,0,0
693,624,0,0,0,0,0,0,0,0,0,-1,1917,400,0,0
700,624,0,0,0,0,0,0,0,0,0,-1,1924,400,0,0
707,624,0,0,0,0,0,0,0,0,0,-1,1931,400,0,0
714,624,0,0,0,0,0,0,0,0,0,-1,1938,400,0,0
721,624,0,0,0,0,0,0,0,0,0,-1,1945,400,0,0
728,624,0,0,0,0,0,0,0,0,0,-1,1952,400,0,0
735,624,0,0,0,0,0,0,0,0,0,-1,1959,400,0,0
742,624,0,0,0,0,0,0,0,0,0,-1,1966,400,0,0
749,624,0,0,0,0,0,0,0,0,0,-1,1973,400,0,0
756,624,0,0,0,0,0,0,0,0,0,-1,1980,400,0,0
763,624,0,0,0,0,0,0,0,0,0,-1,1987,400,0,0
770,624,0,0,0,0,0,0,0,0,0,-1,1994,400,0,0
777,624,0,0,0,0,0,0,0,0,0,-1,2001,400,0,0
784,624,0,0,0,0,0,0,0,0,0,-1,2008,400,0,0
791,624,0,0,0,0,0,0,0,0,0,-1,2015,400,0,0
798,624,0,0,0,0,0,0,0,0,0,-1,2022,400,0,0
805,624,0,0,0,0,0,0,0,0,0,-1,2029,400,0,0
812,624,0,0,0,0,0,0,0,0,0,-1,2036,400,0,0
-700,617,0,0,0,0,0,0,0,0,0,-1,524,407,0,0
-693,617,0,0,0,0,0,0,0,0,0,-1,531,407,0,0
-686,617,0,0,0,0,0,0,0,0,0,-1,538,407,0,0
-679,617,0,0,0,0,0,0,0,0,0,-1,545,407,0,0
-672,617,0,0,0,0,0,0,0,0,0,-1,552,407,0,0
-665,617,0,0,0,0,0,0,0,0,0,-1,559,407,0,0
-658,617,0,0,0,0,0,0,0,0,0,-1,566,407,0,0
-651,617,0,0,0,0,0,0,0,0,0,-1,573,407,0,0
-644,617,0,0,0,0,0,0,0,0,0,-1,580,407,0,0
-637,617,0,0,0,0,0,0,0,0,0,-1,587,407,0,0
-630,617,0,0,0,0,0,0,0,0,0,-1,594,407,0,0
-623,617,0,0,0,0,0,0,0,0,0,-1,601,407,0,0
-616,617,0,0,0,0,0,0,0,0,0,-1,608,407,0,0
-609,617,0,0,0,0,0,0,0,0,0,-1,615,407,0,0
-602,617,0,0,0,0,0,0,0,0,0,-1,622,407,0,0
-595,617,0,0,0,0,0,0,0,0,0,-1,629,407,0,0
-588,617,0,0,0,0,0,0,0,0,0,-1,636,407,0,0
-581,617,0,0,0,0,0,0,0,0,0,-1,643,407,0,0
-574,617,0,0,0,0,0,0,0,0,0,-1,650,407,0,0
-567,617,0,0,0,0,0,0,0,0,0,-1,657,407,0,0
-560,617,0,0,0,0,0,0,0,0,0,-1,664,407,0,0
-553,617,0,0,0,0,0,0,0,0,0,-1,671,407,0,0
-546,617,0,0,0,0,0,0,0,0,0,-1,678,407,0,0
-539,617,0,0,0,0,0,0,0,0,0,-1,685,407,0,0
-532,617,0,0,0,0,0,0,0,0,0,-1,692,407,0,0
-525,617,0,0,0,0,0,0,0,0,0,-1,699,407,0,0
-518,617,0,0,0,0,0,0,0,0,0,-1,706,407,0,0
-511,617,0,0,0,0,0,0,0,0,0,-1,713,407,0,0
-504,617,0,0,0,0,0,0,0,0,0,-1,720,407,0,0
-497,617,0,0,0,0,0,0,0,0,0,-1,727,407,0,0
-490,617,0,0,0,0,0,0,0,0,0,-1,734,407,0,0
-483,617,0,0,0,0,0,0,0,0,0,-1,741,407,0,0
-476,617,0,0,0,0,0,0,0,0,0,-1,748,407,0,0
-469,617,0,0,0,0,0,0,0,0,0,-1,755,407,0,0
-462,617,0,0,0,0,0,0,0,0,0,-1,762,407,0,0
-455,617,0,0,0,0,0,0,0,0,0,-1,769,407,0,0
-448,617,0,0,0,0,0,0,0,0,0,-1,776,407,0,0
-441,617,0,0,0,0,0,0,0,0,0,-1,783,407,0,0
-434,617,0,0,0,0,0,0,0,0,0,-1,790,407,0,0
-427,617,0,0,0,0,0,0,0,0,0,-1,797,407,0,0
-420,617,0,0,0,0,0,0,0,0,0,-1,804,407,0,0
-413,617,0,0,0,0,0,0,0,0,0,-1,811,407,0,0
-406,617,0,0,0,0,0,0,0,0,0,-1,818,407,0,0
-399,617,0,0,0,0,0,0,0,0,0,-1,825,407,0,0
-392,617,0,0,0,0,0,0,0,0,0,-1,832,407,0,0
-385,617,0,0,0,0,0,0,0,0,0,-1,839,407,0,0
-378,617,0,0,0,0,0,0,0,0,0,-1,846,407,0,0
-371,617,0,0,0,0,0,0,0,0,0,-1,853,407,0,0
-364,617,0,0,0,0,0,0,0,0,0,-1,860,407,0,0
-357,617,0,0,0,0,0,0,0,0,0,-1,867,407,0,0
-350,617,0,0,0,0,0,0,0,0,0,-1,874,407,0,0
-343,617,0,0,0,0,0,0,0,0,0,-1,881,407,0,0
-336,617,0,0,0,0,0,0,0,0,0,-1,888,407,0,0
-329,617,0,0,0,0,0,0,0,0,0,-1,895,407,0,0
-322,617,0,0,0,0,0,0,0,0,0,-1,902,407,0,0
-315,617,0,0,0,0,0,0,0,0,0,-1,909,407,0,0
-308,617,0,0,0,0,0,0,0,0,0,-1,916,407,0,0
-301,617,6.81897,-24.525,0,0,0,0,0,0,0,-1,923,407,6.81899,24.525
-294,617,6.19263,-26.917,0,0,0,0,0,0,0,-1,930,407,6.19261,26.917
-287,617,7.00409,-31.9773,0,0,0,0,0,0,0,-1,937,407,7.00406,31.9773
-280,617,6.16754,-32.5725,0,0,0,0,0,0,0,-1,944,407,6.16755,32.5725
-273,617,6.38348,-32.4419,0,0,0,0,0,0,0,-1,951,407,6.38345,32.4419
-266,617,6.39923,-32.2529,0,0,0,0,0,0,0,-1,958,407,6.39925,32.2529
-259,617,7.28217,-33.4631,0,0,0,0,0,0,0,-1,965,407,7.28215,33.4631
-252,617,7.41333,-33.5027,0,0,0,0,0,0,0,-1,972,407,7.41333,33.5026
-245,617,7.03204,-34.6848,0,0,0,0,0,0,0,-1,979,407,7.03204,34.6849
-238,617,5.6474,-34.6842,0,0,0,0,0,0,0,-1,986,407,5.64741,34.6842
-231,617,5.62616,-34.2389,0,0,0,0,0,0,0,-1,993,407,5.62614,34.2389
-224,617,5.64697,-35.1192,0,0,0,0,0,0,0,-1,1000,407,5.64696,35.1192
-217,617,5.80231,-36.0347,0,0,0,0,0,0,0,-1,1007,407,5.80231,36.0347
-210,617,5.79926,-36.8281,-0.00778704,0.0208206,-0.00654416,0.0222465,-0.00921297,-1.35626,0.0186755,0.0370462,1014,407,5.79923,36.8281
-203,617,5.73401,-37.4414,-0.00587481,0.0188012,-0.0066417,0.0204752,-0.00754889,-1.32388,0.0167436,0.0250189,1021,407,5.73398,37.4414
-196,617,5.58154,-37.9682,-0.004553,0.0177705,-0.00647204,0.0195112,-0.00629365,-1.30806,0.0155362,0.0238472,1028,407,5.58156,37.9682
-189,617,5.52234,-38.4564,-0.00301196,0.0172272,-0.00683235,0.0193178,-0.00510249,-1.27387,0.014874,0.0218479,1035,407,5.5223,38.4564
-182,617,5.57446,-39.0273,-0.00226017,0.0157401,-0.00645127,0.0178134,-0.00433349,-1.25984,0.013553,0.0213065,1042,407,5.57444,39.0273
-175,617,5.55396,-39.5463,-0.00210183,0.0137229,-0.00572279,0.0155755,-0.0039545,-1.25771,0.0119225,0.0166426,1049,407,5.55396,39.5463
-168,617,5.49329,-40.088,-0.00210152,0.0123239,-0.00495059,0.0138594,-0.00363704,-1.27004,0.0106608,0.011839,1056,407,5.4933,40.088
-161,617,5.43225,-40.6126,-0.00202556,0.0110978,-0.00428546,0.0123733,-0.00330102,-1.28152,0.00954148,0.0113826,1063,407,5.43219,40.6126
-154,617,5.40527,-41.1031,-0.0019055,0.0098424,-0.00369154,0.0109061,-0.00296918,-1.29025,0.00843645,0.0122915,1070,407,5.40531,41.1031
-147,617,5.38086,-41.5788,-0.00175838,0.0085715,-0.00311516,0.00943821,-0.00262509,-1.29944,0.00732567,0.0167025,1077,407,5.38081,41.5788
-140,617,5.3512,-42.084,-0.00154219,0.00722201,-0.00255792,0.00791394,-0.00223412,-1.30661,0.00615729,0.0124749,1084,407,5.35118,42.084
-133,617,5.32776,-42.5166,-0.00134779,0.0056769,-0.00204467,0.0062287,-0.00189959,-1.3072,0.00490972,0.0143568,1091,407,5.32776,42.5166
-126,617,5.30627,-42.9078,-0.00112738,0.00435238,-0.00156218,0.00476645,-0.00154145,-1.3117,0.00379721,0.0146054,1098,407,5.30625,42.9078
-119,617,5.28186,-43.3623,-0.000764526,0.00324871,-0.00120333,0.00358186,-0.00109768,-1.3007,0.00282578,0.0151665,1105,407,5.28184,43.3623
-112,617,5.27783,-43.7578,-0.000352621,0.00227109,-0.000918159,0.00256048,-0.000642008,-1.26547,0.00195642,0.0162104,1112,407,5.27789,43.7578
-105,617,5.27454,-44.1443,4.46483e-05,0.00142476,-0.000718316,0.00173077,-0.000261365,-1.16807,0.00125011,0.0167338,1119,407,5.27456,44.1443
-98,617,5.25854,-44.5406,0.000435329,0.000657954,-0.000528012,0.00108626,7.02421e-06,-0.889284,0.000721843,0.0136541,1126,407,5.25856,44.5406
-91,617,5.25952,-44.9414,0.000876184,1.09016e-05,-0.000375043,0.00101611,-0.000129027,-0.357103,0.000724258,0.0193524,1133,407,5.25949,44.9414
-84,617,5.28589,-45.3449,0.00138168,-0.000395116,-0.000195655,0.00140297,-0.000416405,-0.108386,0.00110069,0.0194496,1140,407,5.28594,45.3449
-77,617,5.30469,-45.6725,0.00189591,-0.000661904,-5.62415e-05,0.00189714,-0.00066314,-0.021974,0.00153434,0.0148349,1147,407,5.30468,45.6725
-70,617,5.33728,-45.9772,0.00245457,-0.000670134,1.31729e-05,0.00245462,-0.00067019,0.00421564,0.00189964,0.0167974,1154,407,5.33732,45.9772
-63,617,5.36792,-46.2935,0.00295379,-0.00140784,-0.000573238,0.00302787,-0.00148192,-0.12852,0.00265423,0.0203369,1161,407,5.36787,46.2934
-56,617,5.32959,-46.6166,0.00318439,-0.0034256,-0.00140395,0.00347022,-0.00371144,-0.200849,0.00414711,0.0155637,1168,407,5.32965,46.6166
-49,617,5.34827,-46.9217,0.00346441,-0.00481938,-0.00171002,0.00380352,-0.0051585,-0.195771,0.0051939,0.0119015,1175,407,5.34824,46.9216
-42,617,5.36255,-47.2123,0.00427602,-0.00688113,-0.00223252,0.00470616,-0.00731127,-0.190337,0.0069924,0.0117457,1182,407,5.3626,47.2123
-35,617,5.39612,-47.4464,0.00456279,-0.00896007,-0.0027283,0.00509249,-0.00948976,-0.191764,0.00854571,0.0169733,1189,407,5.39614,47.4464
-28,617,5.40515,-47.6815,0.00466187,-0.0102724,-0.00380362,0.00557481,-0.0111854,-0.235562,0.00985556,0.0205208,1196,407,5.4051,47.6816
-21,617,5.45886,-47.8831,0.00462643,-0.0116932,-0.00480814,0.00593767,-0.0130044,-0.266237,0.0111871,0.0153021,1203,407,5.4589,47.8831
-14,617,5.50012,-48.0683,0.00455826,-0.012608,-0.00561719,0.00623296,-0.0142827,-0.289747,0.0121448,0.0165869,1210,407,5.5001,48.0683
-7,617,5.48206,-48.2367,0.00431747,-0.0130243,-0.0065239,0.00649765,-0.0152045,-0.322515,0.0128615,0.0197837,1217,407,5.482,48.2367
0,617,5.5387,-48.4071,0.00408342,-0.0128106,-0.00741152,0.00687396,-0.0156011,-0.360098,0.0132981,0.0179705,1224,407,5.53865,48.4071
7,617,5.60107,-48.6041,0.00374702,-0.0121428,-0.00820304,0.0072219,-0.0156176,-0.400692,0.0134801,0.0130123,1231,407,5.60106,48.6041
14,617,5.67761,-48.7589,0.00338053,-0.0110523,-0.0087695,0.00752107,-0.0151929,-0.441123,0.0133609,0.0145864,1238,407,5.67759,48.7588
21,617,5.73657,-48.8711,0.00311124,-0.00945035,-0.00913563,0.00791684,-0.014256,-0.484253,0.0129747,0.0131594,1245,407,5.73653,48.8711
28,617,5.80359,-48.9933,0.00295295,-0.0076684,-0.0092444,0.00830352,-0.013019,-0.524678,0.0124105,0.0124289,1252,407,5.80361,48.9933
35,617,5.78235,-49.0655,0.00283095,-0.00533398,-0.00852199,0.00819786,-0.0107009,-0.562024,0.0109431,0.0147569,1259,407,5.7824,49.0655
42,617,5.87634,-49.0867,0.00269625,-0.00277778,-0.00718797,0.00765067,-0.0077322,-0.603485,0.00888134,0.022052,1266,407,5.87639,49.0867
49,617,5.93958,-49.1204,0.00255439,-0.000580568,-0.00558078,0.00678364,-0.00480982,-0.64849,0.00672575,0.0226069,1273,407,5.93956,49.1204
56,617,5.96521,-49.157,0.00245192,0.00102596,-0.00367001,0.00547757,-0.00199968,-0.689457,0.00446994,0.0159092,1280,407,5.96526,49.157
63,617,6.03455,-49.1746,0.0023197,0.00224682,-0.00140809,0.00369182,0.000874695,-0.772461,0.00222764,0.0117212,1287,407,6.03457,49.1746
70,617,6.07922,-49.2112,0.00248251,0.00291232,0.00072347,0.00345213,0.0019427,0.929772,0.00199831,0.0166651,1294,407,6.07926,49.2111
77,617,6.17822,-49.1582,0.00266366,0.0028805,0.00336101,0.00613484,-0.000590682,0.801522,0.00430033,0.014234,1301,407,6.1782,49.1582
84,617,6.245,-49.0761,0.00298058,0.00214622,0.00559928,0.00817819,-0.0030514,0.748214,0.00670485,0.0117745,1308,407,6.24497,49.0761
91,617,6.29016,-49.0083,0.00322148,0.000348174,0.00725802,0.00918367,-0.00561401,0.687691,0.00862591,0.011303,1315,407,6.29015,49.0083
98,617,6.31909,-48.9264,0.00359055,-0.00169915,0.00878239,0.0101177,-0.0082263,0.639141,0.0106097,0.0122307,1322,407,6.31912,48.9264
105,617,6.3717,-48.8306,0.00415158,-0.00418105,0.0098156,0.0106485,-0.010678,0.584692,0.0123128,0.0137993,1329,407,6.37174,48.8306
112,617,6.44385,-48.74,0.0047317,-0.00649056,0.0104249,0.0109596,-0.0127185,0.538512,0.0136831,0.0170443,1336,407,6.44387,48.74
119,617,6.47131,-48.6001,0.00540609,-0.00882434,0.0103192,0.0108253,-0.0142436,0.483572,0.0145183,0.018784,1343,407,6.47134,48.6001
126,617,6.47876,-48.4183,0.00606069,-0.0108827,0.00988368,0.0106065,-0.0154286,0.431086,0.0151171,0.0207427,1350,407,6.47875,48.4183
133,617,6.57031,-48.2137,0.00661987,-0.0122444,0.00901057,0.0102321,-0.0158566,0.381272,0.0151786,0.0198415,1357,407,6.57031,48.2137
140,617,6.66492,-48.0389,0.00716431,-0.0134645,0.00784994,0.00981172,-0.0161119,0.325273,0.0151136,0.0180766,1364,407,6.66491,48.0389
147,617,6.66248,-47.8137,0.00760639,-0.0139823,0.00652527,0.00942541,-0.0158013,0.271864,0.0147189,0.0219353,1371,407,6.66245,47.8137
154,617,6.69202,-47.5868,0.00785147,-0.0133827,0.00528513,0.0090942,-0.0146254,0.230941,0.0138181,0.0240027,1378,407,6.69203,47.5868
161,617,6.75159,-47.3672,0.00782227,-0.0121418,0.00400758,0.00859671,-0.0129163,0.190891,0.0125037,0.024048,1385,407,6.75164,47.3672
168,617,6.79541,-47.0871,0.00735066,-0.0105392,0.00283714,0.00778982,-0.0109783,0.153571,0.0108878,0.0220222,1392,407,6.79537,47.0871
175,617,6.83105,-46.8209,0.00652597,-0.00854815,0.00207562,0.00680655,-0.00882873,0.134364,0.00905216,0.0178781,1399,407,6.83104,46.8209
182,617,6.85291,-46.4944,0.00555937,-0.00645701,0.00106074,0.00565229,-0.00654992,0.087374,0.0070513,0.0118574,1406,407,6.85289,46.4944
189,617,6.83557,-46.1412,0.0045413,-0.00425772,0.000396448,0.00455913,-0.00427554,0.0449346,0.00510158,0.0116846,1413,407,6.83561,46.1412
196,617,6.81152,-45.8145,0.00372716,-0.00223015,3.52663e-05,0.00372737,-0.00223035,0.00591957,0.0034757,0.0160751,1420,407,6.8115,45.8145
203,617,6.82178,-45.4719,0.00276609,-0.000296885,-0.000217679,0.00278148,-0.000312277,-0.070595,0.00196669,0.0169263,1427,407,6.82182,45.4719
210,617,6.86719,-45.0757,0.00170705,0.00118433,-0.000185406,0.00176614,0.00112525,-0.308499,0.00103238,0.0153441,1434,407,6.86724,45.0756
217,617,6.87292,-44.6815,0.00119015,0.00202076,0.000175901,0.00205648,0.00115443,1.37048,0.00119029,0.0196721,1441,407,6.8729,44.6815
224,617,6.86401,-44.3329,0.000850844,0.00284199,0.00052913,0.00297387,0.000718967,1.32654,0.00179167,0.0194851,1448,407,6.86396,44.3328
231,617,6.86511,-43.9324,0.000739936,0.0035636,0.00093896,0.00384733,0.000456211,1.27735,0.00242715,0.0151255,1455,407,6.86511,43.9324
238,617,6.86218,-43.5096,0.000863275,0.0044439,0.00145426,0.00496012,0.000347052,1.2297,0.00319735,0.0151243,1462,407,6.86213,43.5096
245,617,6.87549,-43.0906,0.000294227,0.00516555,0.00135843,0.00551876,-5.89797e-05,1.31642,0.00369899,0.0128292,1469,407,6.87549,43.0906
252,617,6.85425,-42.5951,-0.000717967,0.00589569,0.000937844,0.00602611,-0.000848386,1.43262,0.00432801,0.0140949,1476,407,6.85422,42.5951
259,617,6.80115,-42.1335,-0.00156332,0.00669568,0.000725261,0.00675889,-0.00162653,1.48387,0.0051347,0.012194,1483,407,6.80117,42.1335
266,617,6.7627,-41.6516,-0.00259877,0.00746459,0.000429994,0.00748293,-0.00261711,1.52817,0.00605263,0.0142407,1490,407,6.76273,41.6516
273,617,6.75403,-41.1529,-0.00383967,0.00825115,1.69851e-05,0.00825117,-0.0038397,1.56939,0.00713387,0.0149802,1497,407,6.75399,41.1529
280,617,6.7345,-40.6812,-0.00520809,0.00902316,-0.000451679,0.00903749,-0.00522241,-1.5391,0.00833059,0.0131974,1504,407,6.73445,40.6812
287,617,6.70361,-40.1749,-0.00659212,0.00992144,-0.00080974,0.00996105,-0.00663173,-1.52192,0.00964391,0.0124609,1511,407,6.70356,40.1749
294,617,6.68054,-39.6576,-0.00803803,0.0107619,-0.00118119,0.0108358,-0.00811196,-1.50829,0.0109771,0.0108036,1518,407,6.6806,39.6576
301,617,6.64441,-39.1249,-0.00929058,0.011497,-0.00141724,0.0115932,-0.00938676,-1.50304,0.0121351,0.00874408,1525,407,6.64442,39.1249
308,617,6.60034,-38.5783,-0.010242,0.0122664,-0.00143576,0.0123576,-0.0103332,-1.50735,0.0131179,0.00884943,1532,407,6.60034,38.5783
315,617,6.55652,-38.0367,-0.0108437,0.0130953,-0.00118167,0.0131535,-0.0109019,-1.52159,0.0139086,0.0097692,1539,407,6.5565,38.0367
322,617,6.51367,-37.4673,-0.0112775,0.0138258,-0.000706607,0.0138457,-0.0112973,-1.54268,0.0145412,0.0146992,1546,407,6.51369,37.4673
329,617,6.50574,-36.8675,-0.0113432,0.0145704,-3.55635e-05,0.0145705,-0.0113433,-1.56942,0.0149999,0.0212226,1553,407,6.50575,36.8675
336,617,6.53613,-36.1085,-0.0112125,0.0155718,0.00087129,0.0156001,-0.0112408,1.53831,0.0155645,0.0399728,1560,407,6.53608,36.1085
343,617,6.50977,-35.5436,0,0,0,0,0,0,0,-1,1567,407,6.50979,35.5436
350,617,6.25989,-35.1387,0,0,0,0,0,0,0,-1,1574,407,6.25984,35.1387
357,617,2.1748,-7.16504,0,0,0,0,0,0,0,-1,1581,407,2.1748,7.16505
364,617,2.30127,-7.60257,0,0,0,0,0,0,0,-1,1588,407,2.30125,7.60258
371,617,2.60266,-6.20667,0,0,0,0,0,0,0,-1,1595,407,2.60261,6.20668
378,617,1.56921,-10.3601,0,0,0,0,0,0,0,-1,1602,407,1.56918,10.3601
385,617,1.74146,-10.3561,0,0,0,0,0,0,0,-1,1609,407,1.7414,10.3561
392,617,1.96936,-5.10449,0,0,0,0,0,0,0,-1,1616,407,1.96931,5.10451
399,617,2.48889,-5.81256,0,0,0,0,0,0,0,-1,1623,407,2.48888,5.81255
406,617,3.01465,-6.51642,0,0,0,0,0,0,0,-1,1630,407,3.01461,6.51643
413,617,3.6427,-7.2074,0,0,0,0,0,0,0,-1,1637,407,3.64274,7.20739
420,617,3.42737,-4.47391,0,0,0,0,0,0,0,-1,1644,407,3.42737,4.47391
427,617,0,0,0,0,0,0,0,0,0,-1,1651,407,0,0
434,617,0,0,0,0,0,0,0,0,0,-1,1658,407,0,0
441,617,0,0,0,0,0,0,0,0,0,-1,1665,407,0,0
448,617,0,0,0,0,0,0,0,0,0,-1,1672,407,0,0
455,617,0,0,0,0,0,0,0,0,0,-1,1679,407,0,0
462,617,0,0,0,0,0,0,0,0,0,-1,1686,407,0,0
469,617,0,0,0,0,0,0,0,0,0,-1,1693,407,0,0
476,617,0,0,0,0,0,0,0,0,0,-1,1700,407,0,0
483,617,0,0,0,0,0,0,0,0,0,-1,1707,407,0,0
490,617,0,0,0,0,0,0,0,0,0,-1,1714,407,0,0
497,617,0,0,0,0,0,0,0,0,0,-1,1721,407,0,0
504,617,0,0,0,0,0,0,0,0,0,-1,1728,407,0,0
511,617,0,0,0,0,0,0,0,0,0,-1,1735,407,0,0
518,617,0,0,0,0,0,0,0,0,0,-1,1742,407,0,0
525,617,0,0,0,0,0,0,0,0,0,-1,1749,407,0,0
532,617,0,0,0,0,0,0,0,0,0,-1,1756,407,0,0
539,617,0,0,0,0,0,0,0,0,0,-1,1763,407,0,0
546,617,0,0,0,0,0,0,0,0,0,-1,1770,407,0,0
553,617,0,0,0,0,0,0,0,0,0,-1,1777,407,0,0
560,617,0,0,0,0,0,0,0,0,0,-1,1784,407,0,0
567,617,0,0,0,0,0,0,0,0,0,-1,1791,407,0,0
574,617,0,0,0,0,0,0,0,0,0,-1,1798,407,0,0
581,617,0,0,0,0,0,0,0,0,0,-1,1805,407,0,0
588,617,0,0,0,0,0,0,0,0,0,-1,1812,407,0,0
595,617,0,0,0,0,0,0,0,0,0,-1,1819,407,0,0
602,617,0,0,0,0,0,0,0,0,0,-1,1826,407,0,0
609,617,0,0,0,0,0,0,0,0,0,-1,1833,407,0,0
616,617,0,0,0,0,0,0,0,0,0,-1,1840,407,0,0
623,617,0,0,0,0,0,0,0,0,0,-1,1847,407,0,0
630,617,0,0,0,0,0,0,0,0,0,-1,1854,407,0,0
637,617,0,0,0,0,0,0,0,0,0,-1,1861,407,0,0
644,617,0,0,0,0,0,0,0,0,0,-1,1868,407,0,0
651,617,0,0,0,0,0,0,0,0,0,-1,1875,407,0,0
658,617,0,0,0,0,0,0,0,0,0,-1,1882,407,0,0
665,617,0,0,0,0,0,0,0,0,0,-1,1889,407,0,0
672,617,0,0,0,0,0,0,0,0,0,-1,1896,407,0,0
679,617,0,0,0,0,0,0,0,0,0,-1,1903,407,0,0
686,617,0,0,0,0,0,0,0,0,0,-1,1910,407,0,0
693,617,0,0,0,0,0,0,0,0,0,-1,1917,407,0,0
700,617,0,0,0,0,0,0,0,0,0,-1,1924,407,0,0
707,617,0,0,0,0,0,0,0,0,0,-1,1931,407,0,0
714,617,0,0,0,0,0,0,0,0,0,-1,1938,407,0,0
721,617,0,0,0,0,0,0,0,0,0,-1,1945,407,0,0
728,617,0,0,0,0,0,0,0,0,0,-1,1952,407,0,0
735,617,0,0,0,0,0,0,0,0,0,-1,1959,407,0,0
742,617,0,0,0,0,0,0,0,0,0,-1,1966,407,0,0
749,617,0,0,0,0,0,0,0,0,0,-1,1973,407,0,0
756,617,0,0,0,0,0,0,0,0,0,-1,1980,407,0,0
763,617,0,0,0,0,0,0,0,0,0,-1,1987,407,0,0
770,617,0,0,0,0,0,0,0,0,0,-1,1994,407,0,0
777,617,0,0,0,0,0,0,0,0,0,-1,2001,407,0,0
784,617,0,0,0,0,0,0,0,0,0,-1,2008,407,0,0
791,617,0,0,0,0,0,0,0,0,0,-1,2015,407,0,0
798,617,0,0,0,0,0,0,0,0,0,-1,2022,407,0,0
805,617,0,0,0,0,0,0,0,0,0,-1,2029,407,0,0
812,617,0,0,0,0,0,0,0,0,0,-1,2036,407,0,0
-700,610,0,0,0,0,0,0,0,0,0,-1,524,414,0,0
-693,610,0,0,0,0,0,0,0,0,0,-1,531,414,0,0
-686,610,0,0,0,0,0,0,0,0,0,-1,538,414,0,0
-679,610,0,0,0,0,0,0,0,0,0,-1,545,414,0,0
-672,610,0,0,0,0,0,0,0,0,0,-1,552,414,0,0
-665,610,0,0,0,0,0,0,0,0,0,-1,559,414,0,0
-658,610,0,0,0,0,0,0,0,0,0,-1,566,414,0,0
-651,610,0,0,0,0,0,0,0,0,0,-1,573,414,0,0
-644,610,0,0,0,0,0,0,0,0,0,-1,580,414,0,0
-637,610,0,0,0,0,0,0,0,0,0,-1,587,414,0,0
-630,610,0,0,0,0,0,0,0,0,0,-1,594,414,0,0
-623,610,0,0,0,0,0,0,0,0,0,-1,601,414,0,0
-616,610,0,0,0,0,0,0,0,0,0,-1,608,414,0,0
-609,610,0,0,0,0,0,0,0,0,0,-1,615,414,0,0
-602,610,0,0,0,0,0,0,0,0,0,-1,622,414,0,0
-595,610,0,0,0,0,0,0,0,0,0,-1,629,414,0,0
-588,610,0,0,0,0,0,0,0,0,0,-1,636,414,0,0
-581,610,0,0,0,0,0,0,0,0,0,-1,643,414,0,0
-574,610,0,0,0,0,0,0,0,0,0,-1,650,414,0,0
-567,610,0,0,0,0,0,0,0,0,0,-1,657,414,0,0
-560,610,0,0,0,0,0,0,0,0,0,-1,664,414,0,0
-553,610,0,0,0,0,0,0,0,0,0,-1,671,414,0,0
-546,610,0,0,0,0,0,0,0,0,0,-1,678,414,0,0
-539,610,0,0,0,0,0,0,0,0,0,-1,685,414,0,0
-532,610,0,0,0,0,0,0,0,0,0,-1,692,414,0,0
-525,610,0,0,0,0,0,0,0,0,0,-1,699,414,0,0
-518,610,0,0,0,0,0,0,0,0,0,-1,706,414,0,0
-511,610,0,0,0,0,0,0,0,0,0,-1,713,414,0,0
-504,610,0,0,0,0,0,0,0,0,0,-1,720,414,0,0
-497,610,0,0,0,0,0,0,0,0,0,-1,727,414,0,0
-490,610,0,0,0,0,0,0,0,0,0,-1,734,414,0,0
-483,610,0,0,0,0,0,0,0,0,0,-1,741,414,0,0
-476,610,0,0,0,0,0,0,0,0,0,-1,748,414,0,0
-469,610,0,0,0,0,0,0,0,0,0,-1,755,414,0,0
-462,610,0,0,0,0,0,0,0,0,0,-1,762,414,0,0
-455,610,0,0,0,0,0,0,0,0,0,-1,769,414,0,0
-448,610,0,0,0,0,0,0,0,0,0,-1,776,414,0,0
-441,610,0,0,0,0,0,0,0,0,0,-1,783,414,0,0
-434,610,0,0,0,0,0,0,0,0,0,-1,790,414,0,0
-427,610,0,0,0,0,0,0,0,0,0,-1,797,414,0,0
-420,610,0,0,0,0,0,0,0,0,0,-1,804,414,0,0
-413,610,0,0,0,0,0,0,0,0,0,-1,811,414,0,0
-406,610,0,0,0,0,0,0,0,0,0,-1,818,414,0,0
-399,610,0,0,0,0,0,0,0,0,0,-1,825,414,0,0
-392,610,0,0,0,0,0,0,0,0,0,-1,832,414,0,0
-385,610,0,0,0,0,0,0,0,0,0,-1,839,414,0,0
-378,610,0,0,0,0,0,0,0,0,0,-1,846,414,0,0
-371,610,0,0,0,0,0,0,0,0,0,-1,853,414,0,0
-364,610,0,0,0,0,0,0,0,0,0,-1,860,414,0,0
-357,610,0,0,0,0,0,0,0,0,0,-1,867,414,0,0
-350,610,0,0,0,0,0,0,0,0,0,-1,874,414,0,0
-343,610,0,0,0,0,0,0,0,0,0,-1,881,414,0,0
-336,610,0,0,0,0,0,0,0,0,0,-1,888,414,0,0
-329,610,0,0,0,0,0,0,0,0,0,-1,895,414,0,0
-322,610,0,0,0,0,0,0,0,0,0,-1,902,414,0,0
-315,610,7.68475,-21.5402,0,0,0,0,0,0,0,-1,909,414,7.68475,21.5402
-308,610,3.97211,-23.4133,0,0,0,0,0,0,0,-1,916,414,3.9721,23.4133
-301,610,7.38513,-22.4166,0,0,0,0,0,0,0,-1,923,414,7.38516,22.4166
-294,610,6.77832,-24.1945,0,0,0,0,0,0,0,-1,930,414,6.77829,24.1946
-287,610,3.39276,-28.5804,0,0,0,0,0,0,0,-1,937,414,3.39276,28.5803
-280,610,5.99969,-30.7691,0,0,0,0,0,0,0,-1,944,414,5.99967,30.7691
-273,610,5.56598,-30.9048,0,0,0,0,0,0,0,-1,951,414,5.56596,30.9047
-266,610,5.46808,-33.2672,0,0,0,0,0,0,0,-1,958,414,5.46807,33.2672
-259,610,5.49097,-33.3532,0,0,0,0,0,0,0,-1,965,414,5.49097,33.3532
-252,610,6.03448,-33.5732,0,0,0,0,0,0,0,-1,972,414,6.03449,33.5732
-245,610,6.11542,-34.2171,-0.0169712,0.0244098,-0.00339288,0.0246861,-0.0172475,-1.48953,0.024337,0.0481751,979,414,6.11543,34.2171
-238,610,5.45728,-34.5674,-0.0145059,0.0227871,-0.00373353,0.0231572,-0.014876,-1.47199,0.0221313,0.0487904,986,414,5.4573,34.5674
-231,610,5.20001,-34.6609,-0.0120821,0.021394,-0.00426155,0.021928,-0.012616,-1.44614,0.0201841,0.0416127,993,414,5.19999,34.6609
-224,610,5.224,-35.4621,-0.00974243,0.0199577,-0.00472709,0.0206919,-0.0104766,-1.41671,0.0183145,0.029428,1000,414,5.224,35.4621
-217,610,5.2616,-36.2241,-0.00765106,0.0184253,-0.00507751,0.0193791,-0.00860485,-1.38511,0.0165509,0.0206094,1007,414,5.26158,36.2241
-210,610,5.229,-36.9063,-0.00587532,0.016389,-0.00518087,0.0175355,-0.00702186,-1.353,0.0146049,0.014464,1014,414,5.22903,36.9063
-203,610,5.21008,-37.4808,-0.00442481,0.0145498,-0.0050795,0.015824,-0.00569902,-1.32501,0.0128765,0.0162022,1021,414,5.21006,37.4808
-196,610,5.16418,-38.0281,-0.00340255,0.0133977,-0.00481918,0.0146819,-0.00468678,-1.31037,0.0116683,0.0149193,1028,414,5.16416,38.0281
-189,610,5.12268,-38.5508,-0.00215643,0.0127028,-0.0050484,0.0142557,-0.00370933,-1.27238,0.0109517,0.0116405,1035,414,5.12264,38.5508
-182,610,5.08887,-39.0773,-0.00146132,0.0113406,-0.0047232,0.0128946,-0.00301528,-1.25294,0.00975804,0.0127392,1042,414,5.08891,39.0773
-175,610,5.06555,-39.5878,-0.00122242,0.00948282,-0.00412237,0.0108863,-0.00262588,-1.24266,0.0082729,0.0137527,1049,414,5.06554,39.5878
-168,610,5.00793,-40.1085,-0.001128,0.0080401,-0.00348718,0.00921574,-0.00230363,-1.24563,0.0070385,0.0123199,1056,414,5.00797,40.1085
-161,610,4.97656,-40.6405,-0.000967375,0.00684,-0.00295386,0.00783163,-0.001959,-1.24691,0.00598198,0.0117702,1063,414,4.97661,40.6405
-154,610,4.95703,-41.1286,-0.000782119,0.00561798,-0.00245282,0.00644988,-0.00161403,-1.24381,0.00492686,0.0146351,1070,414,4.95707,41.1286
-147,610,4.94482,-41.5725,-0.000579508,0.00438327,-0.00195255,0.00505936,-0.00125561,-1.23745,0.00386013,0.0159303,1077,414,4.94482,41.5725
-140,610,4.92676,-42.0569,-0.000331405,0.00305866,-0.00144466,0.00359078,-0.00086352,-1.21788,0.00272764,0.0124026,1084,414,4.9268,42.0569
-133,610,4.9032,-42.4886,-0.000107206,0.0016047,-0.000964301,0.00203814,-0.000540647,-1.14837,0.00157031,0.0137034,1091,414,4.90317,42.4886
-126,610,4.8844,-42.8946,0.000156755,0.000364739,-0.000524128,0.000795092,-0.000273598,-0.883331,0.000641028,0.0129295,1098,414,4.88439,42.8946
-119,610,4.88599,-43.3509,0.000538364,-0.000679741,-0.000167548,0.00056099,-0.000702366,-0.134228,0.00073092,0.0115902,1105,414,4.88593,43.3509
-112,610,4.88733,-43.7266,0.000955007,-0.00157596,0.000119443,0.000960631,-0.00158158,0.0470532,0.00148227,0.0195069,1112,414,4.88733,43.7266
-105,610,4.86548,-44.1167,0.00137815,-0.00230643,0.000320466,0.00140581,-0.0023341,0.0861133,0.0021813,0.0189584,1119,414,4.86549,44.1167
-98,610,4.90295,-44.5346,0.00180159,-0.00290586,0.000489415,0.00185194,-0.0029562,0.102505,0.00280028,0.0141114,1126,414,4.90298,44.5346
-91,610,4.9093,-44.938,0.00226059,-0.00324247,0.000633173,0.0023325,-0.00331438,0.11309,0.00327661,0.0149905,1133,414,4.90928,44.938
-84,610,4.91614,-45.3117,0.00285552,-0.00324201,0.000725615,0.00294068,-0.00332717,0.116828,0.00362104,0.0149946,1140,414,4.91612,45.3117
-77,610,4.93774,-45.6887,0.00350765,-0.00329643,0.000784289,0.00359688,-0.00338566,0.113288,0.00403199,0.0121119,1147,414,4.93773,45.6887
-70,610,4.99597,-46.0207,0.00429158,-0.00285353,0.000713174,0.00436207,-0.00292401,0.0985179,0.00423385,0.0152424,1154,414,4.99592,46.0207
-63,610,5.02161,-46.3163,0.00491416,-0.00369856,-0.000665254,0.00496524,-0.00374964,-0.0766351,0.00504783,0.0153354,1161,414,5.02166,46.3163
-56,610,5.0542,-46.6066,0.00502671,-0.00684254,-0.00246683,0.00551898,-0.00733481,-0.19697,0.00744578,0.0134761,1168,414,5.05425,46.6066
-49,610,5.06909,-46.8908,0.0052683,-0.00882139,-0.00314961,0.00594031,-0.0094934,-0.210211,0.00898902,0.0132403,1175,414,5.06911,46.8908
-42,610,5.08838,-47.1773,0.00636124,-0.0118318,-0.00415182,0.00726393,-0.0127345,-0.214089,0.0116892,0.0153644,1182,414,5.08838,47.1773
-35,610,5.14111,-47.4236,0.00652,-0.0147407,-0.00498433,0.00763051,-0.0158512,-0.219221,0.0138313,0.0154457,1189,414,5.14117,47.4236
-28,610,5.19202,-47.6483,0.00664003,-0.0163682,-0.0067902,0.00849448,-0.0182227,-0.266606,0.0157623,0.0133956,1196,414,5.19207,47.6484
-21,610,5.25903,-47.852,0.00658735,-0.0180756,-0.00834515,0.0091457,-0.0206339,-0.297471,0.0176146,0.0118054,1203,414,5.25908,47.852
-14,610,5.30981,-48.0369,0.00638434,-0.0191432,-0.00947104,0.00951442,-0.0222733,-0.319189,0.018839,0.0134724,1210,414,5.30986,48.0369
-7,610,5.35815,-48.1828,0.00592466,-0.0193427,-0.0106949,0.00984367,-0.0232617,-0.351241,0.0196297,0.0162984,1217,414,5.35814,48.1828
0,610,5.39685,-48.3585,0.00554465,-0.0187207,-0.0118404,0.0103648,-0.0235408,-0.386604,0.020062,0.0133195,1224,414,5.39688,48.3585
7,610,5.45374,-48.5456,0.0050624,-0.0176266,-0.0128199,0.0108365,-0.0234007,-0.423189,0.0202057,0.0136338,1231,414,5.45369,48.5456
14,610,5.5957,-48.6524,0.00458215,-0.0159078,-0.0135086,0.0112913,-0.0226169,-0.46097,0.0199376,0.0175386,1238,414,5.59566,48.6524
21,610,5.6665,-48.7392,0.00423532,-0.0135729,-0.0139228,0.0118578,-0.0211954,-0.500907,0.0193354,0.0173393,1245,414,5.66646,48.7392
28,610,5.64661,-48.8852,0.00401599,-0.0111885,-0.0139726,0.0123206,-0.0194931,-0.536254,0.0185226,0.0189752,1252,414,5.64658,48.8852
35,610,5.77856,-48.9936,0.00370077,-0.00768332,-0.0128793,0.0120898,-0.0160723,-0.577327,0.0163135,0.0215075,1259,414,5.77859,48.9936
42,610,5.85876,-49.0211,0.00332975,-0.00428953,-0.0108429,0.0110128,-0.0119726,-0.61646,0.0132744,0.0198509,1266,414,5.85875,49.0211
49,610,5.9071,-49.125,0.00301172,-0.00137676,-0.00846576,0.00956297,-0.00792802,-0.658594,0.0101131,0.0191911,1273,414,5.90714,49.125
56,610,5.96448,-49.1355,0.00273275,0.000779865,-0.00565578,0.00749576,-0.00398315,-0.699919,0.00672999,0.0176336,1280,414,5.9645,49.1355
63,610,5.96741,-49.096,0.00241288,0.0023816,-0.00237875,0.00477604,1.84344e-05,-0.782111,0.0031779,0.0259225,1287,414,5.96745,49.096
70,610,6.11011,-49.1223,0.00246413,0.0032809,0.000769781,0.00374392,0.00200112,1.02928,0.00216327,0.0370054,1294,414,6.11007,49.1223
77,610,6.26111,-49.0883,0.00249452,0.00330593,0.00457691,0.00749508,-0.00169463,0.829604,0.005647,0.0391374,1301,414,6.2611,49.0883
84,610,6.33032,-49.0331,0.00271997,0.00239214,0.00792407,0.0104818,-0.00536972,0.775057,0.00930918,0.0357679,1308,414,6.3303,49.0331
91,610,6.43982,-48.9577,0.00302887,1.41474e-06,0.0105165,0.01214,-0.00910976,0.71392,0.0123101,0.0306586,1315,414,6.4398,48.9577
98,610,6.52661,-48.9157,0.00356802,-0.00275869,0.0128783,0.0136658,-0.0128564,0.664965,0.015315,0.0271549,1322,414,6.52659,48.9157
105,610,6.55701,-48.7827,0.00439486,-0.00621718,0.0145189,0.0145469,-0.0163692,0.610209,0.0178597,0.0212388,1329,414,6.55699,48.7827
112,610,6.60522,-48.6827,0.00526392,-0.00950642,0.015524,0.0150699,-0.0193124,0.563378,0.0199009,0.0147069,1336,414,6.60524,48.6827
119,610,6.65295,-48.5479,0.00632065,-0.012885,0.0156808,0.0151053,-0.0216697,0.510656,0.0213445,0.0202526,1343,414,6.65299,48.5479
126,610,6.71753,-48.3928,0.00742499,-0.0159412,0.0153411,0.0150252,-0.0235414,0.45997,0.0224466,0.028968,1350,414,6.71748,48.3928
133,610,6.79541,-48.2087,0.00848573,-0.0180241,0.0142891,0.0147211,-0.0242595,0.411465,0.0227289,0.023726,1357,414,6.79541,48.2087
140,610,6.87939,-48.0111,0.00964201,-0.0203481,0.0128152,0.0143721,-0.0250782,0.353587,0.0230545,0.0195722,1364,414,6.87943,48.0111
147,610,6.86633,-47.7838,0.0106994,-0.021276,0.0109042,0.0140639,-0.0246405,0.299283,0.0226224,0.0202305,1371,414,6.86629,47.7837
154,610,6.87671,-47.5329,0.0113851,-0.0208209,0.0091682,0.0138121,-0.0232479,0.258788,0.0216266,0.0231554,1378,414,6.87669,47.5329
161,610,6.9458,-47.2921,0.0116441,-0.0194827,0.00731917,0.0132793,-0.0211178,0.219796,0.0200303,0.0259484,1385,414,6.94579,47.2921
168,610,7.02588,-47.0392,0.0113582,-0.0177263,0.00549398,0.0123614,-0.0187295,0.180609,0.0180754,0.0263524,1392,414,7.02582,47.0392
175,610,7.11145,-46.7698,0.0104733,-0.0152418,0.00418217,0.0111364,-0.0159049,0.157238,0.015693,0.0226054,1399,414,7.11141,46.7698
182,610,7.13501,-46.4633,0.00927901,-0.0125563,0.00235172,0.00952942,-0.0128067,0.106082,0.012942,0.016129,1406,414,7.13496,46.4633
189,610,7.151,-46.1248,0.00791033,-0.00947785,0.000979322,0.00796531,-0.00953283,0.0560847,0.0101161,0.014068,1413,414,7.151,46.1248
196,610,7.16663,-45.8027,0.00668799,-0.00654603,-2.06723e-05,0.00668803,-0.00654606,-0.00156205,0.00764085,0.0147469,1420,414,7.1666,45.8027
203,610,7.18115,-45.4688,0.0050399,-0.00356621,-0.000976274,0.00514926,-0.00367557,-0.111551,0.00511864,0.0148786,1427,414,7.18114,45.4689
210,610,7.2124,-45.1155,0.00319928,-0.0010734,-0.00140034,0.00361733,-0.00149145,-0.290112,0.00303348,0.0106542,1434,414,7.21237,45.1155
217,610,7.28247,-44.7112,0.00246495,-0.000114293,-0.000873718,0.00273305,-0.000382397,-0.297733,0.00196196,0.0166354,1441,414,7.28248,44.7112
224,610,7.29041,-44.322,0.00191289,0.000827496,-0.000383273,0.00203459,0.0007058,-0.307449,0.00119289,0.0199884,1448,414,7.29038,44.322
231,610,7.28503,-43.9232,0.00151309,0.00164656,8.68884e-05,0.00168939,0.00147027,1.11288,0.00106079,0.0163544,1455,414,7.28498,43.9232
238,610,7.27014,-43.4911,0.00135508,0.00235203,0.000466704,0.00253641,0.0011707,1.19455,0.00146584,0.0117668,1462,414,7.27012,43.4911
245,610,7.28406,-43.0526,0.00134115,0.00307919,0.000794037,0.00338732,0.00103301,1.20063,0.00200465,0.0126518,1469,414,7.28403,43.0527
252,610,7.28882,-42.5993,0.00101624,0.00383191,0.000921629,0.00410675,0.000741395,1.28098,0.00252721,0.0143057,1476,414,7.28883,42.5993
259,610,7.27625,-42.1261,0.000473125,0.00450319,0.000967167,0.00472328,0.000253036,1.34705,0.00306799,0.0128512,1483,414,7.27621,42.1261
266,610,7.25085,-41.6448,-0.000190768,0.00514388,0.00093462,0.00530288,-0.000349772,1.40228,0.00365742,0.0132148,1490,414,7.25086,41.6448
273,610,7.23608,-41.172,-0.000954372,0.005855,0.000828505,0.00595435,-0.00105373,1.45144,0.00436343,0.010365,1497,414,7.23612,41.172
280,610,7.21143,-40.6715,-0.00179344,0.00657711,0.000700161,0.00663527,-0.0018516,1.48792,0.00515283,0.00939114,1504,414,7.21144,40.6715
287,610,7.17285,-40.1485,-0.00264797,0.00739953,0.000655624,0.00744213,-0.00269057,1.50591,0.00606073,0.0130356,1511,414,7.1728,40.1485
294,610,7.16296,-39.6348,-0.00357981,0.00818907,0.000594316,0.00821901,-0.00360974,1.52047,0.00700003,0.0121662,1518,414,7.16298,39.6348
301,610,7.16443,-39.1377,-0.0044109,0.00889209,0.00061379,0.00892035,-0.00443916,1.52479,0.00785642,0.0111566,1525,414,7.16445,39.1377
308,610,7.1261,-38.5979,-0.00501862,0.00960357,0.000789472,0.00964607,-0.00506112,1.51701,0.00862764,0.0124245,1532,414,7.12613,38.5979
315,610,7.04419,-38.0569,-0.0054225,0.0103898,0.00113201,0.0104704,-0.00550313,1.49969,0.00936981,0.0125479,1539,414,7.04415,38.0569
322,610,7.00989,-37.4731,-0.00574604,0.0111063,0.00161791,0.0112602,-0.00589996,1.47595,0.0100672,0.0124867,1546,414,7.00993,37.473
329,610,6.98645,-36.9004,-0.00583994,0.0117656,0.00221484,0.01204,-0.0061143,1.44755,0.0106659,0.0122358,1553,414,6.98645,36.9004
336,610,6.95703,-36.3364,-0.00580082,0.0125824,0.00296187,0.0130478,-0.00626624,1.41493,0.0113778,0.0130667,1560,414,6.957,36.3364
343,610,6.89172,-35.7606,-0.00565845,0.0131406,0.00358424,0.0138008,-0.00631864,1.38865,0.0118807,0.0178802,1567,414,6.89172,35.7605
350,610,6.83105,-35.1847,-0.00317134,0.0149489,0.00614854,0.0168382,-0.00506066,1.27267,0.0132388,0.0360228,1574,414,6.83104,35.1847
357,610,6.84644,-34.3159,0,0,0,0,0,0,0,-1,1581,414,6.84644,34.316
364,610,7.02087,-33.7166,0,0,0,0,0,0,0,-1,1588,414,7.02084,33.7166
371,610,6.77441,-32.953,0,0,0,0,0,0,0,-1,1595,414,6.77441,32.953
378,610,3.5752,-12.1958,0,0,0,0,0,0,0,-1,1602,414,3.57517,12.1958
385,610,2.57104,-10.3878,0,0,0,0,0,0,0,-1,1609,414,2.57109,10.3878
392,610,1.99744,-1.83582,0,0,0,0,0,0,0,-1,1616,414,1.99741,1.8358
399,610,2.77136,-2.60333,0,0,0,0,0,0,0,-1,1623,414,2.77133,2.60332
406,610,3.54529,-3.37085,0,0,0,0,0,0,0,-1,1630,414,3.54525,3.37084
413,610,3.01929,-3.20306,0,0,0,0,0,0,0,-1,1637,414,3.01929,3.20306
420,610,4.78149,-3.64041,0,0,0,0,0,0,0,-1,1644,414,4.78152,3.64042
427,610,8.85168,-23.3853,0,0,0,0,0,0,0,-1,1651,414,8.85174,23.3853
434,610,8.73706,-22.6227,0,0,0,0,0,0,0,-1,1658,414,8.73703,22.6227
441,610,0,0,0,0,0,0,0,0,0,-1,1665,414,0,0
448,610,0,0,0,0,0,0,0,0,0,-1,1672,414,0,0
455,610,0,0,0,0,0,0,0,0,0,-1,1679,414,0,0
462,610,0,0,0,0,0,0,0,0,0,-1,1686,414,0,0
469,610,0,0,0,0,0,0,0,0,0,-1,1693,414,0,0
476,610,0,0,0,0,0,0,0,0,0,-1,1700,414,0,0
483,610,0,0,0,0,0,0,0,0,0,-1,1707,414,0,0
490,610,0,0,0,0,0,0,0,0,0,-1,1714,414,0,0
497,610,0,0,0,0,0,0,0,0,0,-1,1721,414,0,0
504,610,0,0,0,0,0,0,0,0,0,-1,1728,414,0,0
511,610,0,0,0,0,0,0,0,0,0,-1,1735,414,0,0
518,610,0,0,0,0,0,0,0,0,0,-1,1742,414,0,0
525,610,0,0,0,0,0,0,0,0,0,-1,1749,414,0,0
532,610,0,0,0,0,0,0,0,0,0,-1,1756,414,0,0
539,610,0,0,0,0,0,0,0,0,0,-1,1763,414,0,0
546,610,0,0,0,0,0,0,0,0,0,-1,1770,414,0,0
553,610,0,0,0,0,0,0,0,0,0,-1,1777,414,0,0
560,610,0,0,0,0,0,0,0,0,0,-1,1784,414,0,0
567,610,0,0,0,0,0,0,0,0,0,-1,1791,414,0,0
574,610,0,0,0,0,0,0,0,0,0,-1,1798,414,0,0
581,610,0,0,0,0,0,0,0,0,0,-1,1805,414,0,0
588,610,0,0,0,0,0,0,0,0,0,-1,1812,414,0,0
595,610,0,0,0,0,0,0,0,0,0,-1,1819,414,0,0
602,610,0,0,0,0,0,0,0,0,0,-1,1826,414,0,0
609,610,0,0,0,0,0,0,0,0,0,-1,1833,414,0,0
616,610,0,0,0,0,0,0,0,0,0,-1,1840,414,0,0
623,610,0,0,0,0,0,0,0,0,0,-1,1847,414,0,0
630,610,0,0,0,0,0,0,0,0,0,-1,1854,414,0,0
637,610,0,0,0,0,0,0,0,0,0,-1,1861,414,0,0
644,610,0,0,0,0,0,0,0,0,0,-1,1868,414,0,0
651,610,0,0,0,0,0,0,0,0,0,-1,1875,414,0,0
658,610,0,0,0,0,0,0,0,0,0,-1,1882,414,0,0
665,610,0,0,0,0,0,0,0,0,0,-1,1889,414,0,0
672,610,0,0,0,0,0,0,0,0,0,-1,1896,414,0,0
679,610,0,0,0,0,0,0,0,0,0,-1,1903,414,0,0
686,610,0,0,0,0,0,0,0,0,0,-1,1910,414,0,0
693,610,0,0,0,0,0,0,0,0,0,-1,1917,414,0,0
700,610,0,0,0,0,0,0,0,0,0,-1,1924,414,0,0
707,610,0,0,0,0,0,0,0,0,0,-1,1931,414,0,0
714,610,0,0,0,0,0,0,0,0,0,-1,1938,414,0,0
721,610,0,0,0,0,0,0,0,0,0,-1,1945,414,0,0
728,610,0,0,0,0,0,0,0,0,0,-1,1952,414,0,0
735,610,0,0,0,0,0,0,0,0,0,-1,1959,414,0,0
742,610,0,0,0,0,0,0,0,0,0,-1,1966,414,0,0
749,610,0,0,0,0,0,0,0,0,0,-1,1973,414,0,0
756,610,0,0,0,0,0,0,0,0,0,-1,1980,414,0,0
763,610,0,0,0,0,0,0,0,0,0,-1,1987,414,0,0
770,610,0,0,0,0,0,0,0,0,0,-1,1994,414,0,0
777,610,0,0,0,0,0,0,0,0,0,-1,2001,414,0,0
784,610,0,0,0,0,0,0,0,0,0,-1,2008,414,0,0
791,610,0,0,0,0,0,0,0,0,0,-1,2015,414,0,0
798,610,0,0,0,0,0,0,0,0,0,-1,2022,414,0,0
805,610,0,0,0,0,0,0,0,0,0,-1,2029,414,0,0
812,610,0,0,0,0,0,0,0,0,0,-1,2036,414,0,0
-700,603,0,0,0,0,0,0,0,0,0,-1,524,421,0,0
-693,603,0,0,0,0,0,0,0,0,0,-1,531,421,0,0
-686,603,0,0,0,0,0,0,0,0,0,-1,538,421,0,0
-679,603,0,0,0,0,0,0,0,0,0,-1,545,421,0,0
-672,603,0,0,0,0,0,0,0,0,0,-1,552,421,0,0
-665,603,0,0,0,0,0,0,0,0,0,-1,559,421,0,0
-658,603,0,0,0,0,0,0,0,0,0,-1,566,421,0,0
-651,603,0,0,0,0,0,0,0,0,0,-1,573,421,0,0
-644,603,0,0,0,0,0,0,0,0,0,-1,580,421,0,0
-637,603,0,0,0,0,0,0,0,0,0,-1,587,421,0,0
-630,603,0,0,0,0,0,0,0,0,0,-1,594,421,0,0
-623,603,0,0,0,0,0,0,0,0,0,-1,601,421,0,0
-616,603,0,0,0,0,0,0,0,0,0,-1,608,421,0,0
-609,603,0,0,0,0,0,0,0,0,0,-1,615,421,0,0
-602,603,0,0,0,0,0,0,0,0,0,-1,622,421,0,0
-595,603,0,0,0,0,0,0,0,0,0,-1,629,421,0,0
-588,603,0,0,0,0,0,0,0,0,0,-1,636,421,0,0
-581,603,0,0,0,0,0,0,0,0,0,-1,643,421,0,0
-574,603,0,0,0,0,0,0,0,0,0,-1,650,421,0,0
-567,603,0,0,0,0,0,0,0,0,0,-1,657,421,0,0
-560,603,0,0,0,0,0,0,0,0,0,-1,664,421,0,0
-553,603,0,0,0,0,0,0,0,0,0,-1,671,421,0,0
-546,603,0,0,0,0,0,0,0,0,0,-1,678,421,0,0
-539,603,0,0,0,0,0,0,0,0,0,-1,685,421,0,0
-532,603,0,0,0,0,0,0,0,0,0,-1,692,421,0,0
-525,603,0,0,0,0,0,0,0,0,0,-1,699,421,0,0
-518,603,0,0,0,0,0,0,0,0,0,-1,706,421,0,0
-511,603,0,0,0,0,0,0,0,0,0,-1,713,421,0,0
-504,603,0,0,0,0,0,0,0,0,0,-1,720,421,0,0
-497,603,0,0,0,0,0,0,0,0,0,-1,727,421,0,0
-490,603,0,0,0,0,0,0,0,0,0,-1,734,421,0,0
-483,603,0,0,0,0,0,0,0,0,0,-1,741,421,0,0
-476,603,0,0,0,0,0,0,0,0,0,-1,748,421,0,0
-469,603,0,0,0,0,0,0,0,0,0,-1,755,421,0,0
-462,603,0,0,0,0,0,0,0,0,0,-1,762,421,0,0
-455,603,0,0,0,0,0,0,0,0,0,-1,769,421,0,0
-448,603,0,0,0,0,0,0,0,0,0,-1,776,421,0,0
-441,603,0,0,0,0,0,0,0,0,0,-1,783,421,0,0
-434,603,0,0,0,0,0,0,0,0,0,-1,790,421,0,0
-427,603,0,0,0,0,0,0,0,0,0,-1,797,421,0,0
-420,603,0,0,0,0,0,0,0,0,0,-1,804,421,0,0
-413,603,0,0,0,0,0,0,0,0,0,-1,811,421,0,0
-406,603,0,0,0,0,0,0,0,0,0,-1,818,421,0,0
-399,603,0,0,0,0,0,0,0,0,0,-1,825,421,0,0
-392,603,0,0,0,0,0,0,0,0,0,-1,832,421,0,0
-385,603,0,0,0,0,0,0,0,0,0,-1,839,421,0,0
-378,603,0,0,0,0,0,0,0,0,0,-1,846,421,0,0
-371,603,0,0,0,0,0,0,0,0,0,-1,853,421,0,0
-364,603,0,0,0,0,0,0,0,0,0,-1,860,421,0,0
-357,603,0,0,0,0,0,0,0,0,0,-1,867,421,0,0
-350,603,0,0,0,0,0,0,0,0,0,-1,874,421,0,0
-343,603,0,0,0,0,0,0,0,0,0,-1,881,421,0,0
-336,603,0,0,0,0,0,0,0,0,0,-1,888,421,0,0
-329,603,4.09686,-17.9702,0,0,0,0,0,0,0,-1,895,421,4.09687,17.9702
-322,603,8.83179,-28.7376,0,0,0,0,0,0,0,-1,902,421,8.83179,28.7376
-315,603,5.99744,-20.4501,0,0,0,0,0,0,0,-1,909,421,5.99745,20.4501
-308,603,5.92249,-20.778,0,0,0,0,0,0,0,-1,916,421,5.92248,20.778
-301,603,2.72424,-20.9059,0,0,0,0,0,0,0,-1,923,421,2.72424,20.9059
-294,603,2.41553,-20.6767,0,0,0,0,0,0,0,-1,930,421,2.41554,20.6767
-287,603,1.91766,-21.2242,0,0,0,0,0,0,0,-1,937,421,1.91767,21.2242
-280,603,2.36121,-27.3314,0,0,0,0,0,0,0,-1,944,421,2.36119,27.3314
-273,603,4.85809,-31.9352,0,0,0,0,0,0,0,-1,951,421,4.85811,31.9351
-266,603,5.22821,-31.1862,0,0,0,0,0,0,0,-1,958,421,5.22824,31.1862
-259,603,5.17993,-32.0053,0,0,0,0,0,0,0,-1,965,421,5.17992,32.0053
-252,603,5.08026,-33.3033,0,0,0,0,0,0,0,-1,972,421,5.08024,33.3033
-245,603,5.07617,-33.823,-0.0117541,0.0204751,-0.00396446,0.0209556,-0.0122346,-1.45018,0.0193816,0.0359668,979,421,5.07615,33.823
-238,603,4.89191,-34.4317,-0.0101652,0.0187871,-0.00388158,0.0192985,-0.0106766,-1.43981,0.0175431,0.0235031,986,421,4.89188,34.4317
-231,603,4.79663,-35.121,-0.00860348,0.0173072,-0.00396264,0.0178996,-0.00919596,-1.42238,0.0159104,0.013387,993,421,4.79664,35.121
-224,603,4.75677,-35.7686,-0.00701124,0.0158431,-0.00405217,0.0165403,-0.00770844,-1.40041,0.0143062,0.0137114,1000,421,4.7568,35.7686
-217,603,4.73383,-36.3501,-0.00550571,0.0142998,-0.00412431,0.0151243,-0.00633023,-1.37348,0.0127289,0.014188,1007,421,4.73384,36.3501
-210,603,4.70697,-36.9232,-0.00416652,0.0123404,-0.00406118,0.0132855,-0.00511158,-1.34216,0.0109654,0.0124453,1014,421,4.70695,36.9232
-203,603,4.69153,-37.5113,-0.0030057,0.0106039,-0.00386887,0.0116269,-0.00402863,-1.31231,0.00938686,0.0180564,1021,421,4.69156,37.5113
-196,603,4.69214,-38.087,-0.00212827,0.00941832,-0.00360669,0.0104523,-0.00316226,-1.2916,0.00822742,0.0183499,1028,421,4.69212,38.087
-189,603,4.66113,-38.5707,-0.00108352,0.00858881,-0.00373915,0.00986572,-0.00236043,-1.24172,0.007489,0.0158485,1035,421,4.6611,38.5707
-182,603,4.60632,-39.076,-0.000426775,0.00729767,-0.0034478,0.00861271,-0.00174182,-1.20641,0.00640189,0.0118025,1042,421,4.60637,39.076
-175,603,4.56299,-39.5862,-0.000125027,0.00555541,-0.00292623,0.00679314,-0.00136276,-1.17064,0.00504474,0.011749,1049,421,4.56303,39.5863
-168,603,4.51965,-40.0958,2.98603e-05,0.00405172,-0.00235843,0.00514015,-0.00105857,-1.13842,0.00382872,0.0145416,1056,421,4.5197,40.0958
-161,603,4.50085,-40.6149,0.000237942,0.00285815,-0.00189019,0.00384787,-0.000751779,-1.08844,0.0028491,0.0148225,1063,421,4.50086,40.6149
-154,603,4.50232,-41.0915,0.000450272,0.00164117,-0.00142204,0.00258739,-0.000495952,-0.983671,0.00191181,0.0137136,1070,421,4.50228,41.0915
-147,603,4.50159,-41.5504,0.000665415,0.000411574,-0.000937606,0.00148465,-0.000407662,-0.718124,0.00115,0.0141462,1077,421,4.50157,41.5504
-140,603,4.49878,-42.0059,0.000894582,-0.000937358,-0.000420384,0.000986443,-0.00102922,-0.215136,0.00116383,0.0123545,1084,421,4.49874,42.0059
-133,603,4.46838,-42.4443,0.00109429,-0.00235398,8.46072e-05,0.00109637,-0.00235606,0.0245164,0.002037,0.0123865,1091,421,4.46841,42.4443
-126,603,4.45935,-42.8594,0.00134938,-0.00357709,0.000539734,0.00140782,-0.00363553,0.107853,0.00300497,0.0108428,1098,421,4.45929,42.8594
-119,603,4.50037,-43.3002,0.00170211,-0.00464119,0.000951537,0.00184177,-0.00478086,0.145734,0.00394709,0.0112634,1105,421,4.5004,43.3002
-112,603,4.50781,-43.7368,0.00209401,-0.00555133,0.0012822,0.00230332,-0.00576064,0.161814,0.00479624,0.0164133,1112,421,4.50784,43.7369
-105,603,4.51758,-44.1401,0.0025191,-0.00625331,0.0015203,0.00277511,-0.00650932,0.166826,0.00550299,0.0157812,1119,421,4.51754,44.1401
-98,603,4.52478,-44.5219,0.00294894,-0.00678232,0.00170603,0.00323936,-0.00707275,0.168618,0.00608928,0.0142088,1126,421,4.52474,44.5219
-91,603,4.52295,-44.9,0.00340386,-0.0069404,0.00187613,0.00373362,-0.00727016,0.173989,0.00646148,0.0105263,1133,421,4.52297,44.9
-84,603,4.55945,-45.2838,0.00409094,-0.00664435,0.00191198,0.0044213,-0.00697471,0.171096,0.00663432,0.0115369,1140,421,4.55943,45.2838
-77,603,4.62366,-45.6873,0.00490715,-0.00657065,0.0019106,0.00521683,-0.00688033,0.16069,0.00700628,0.0186899,1147,421,4.62362,45.6873
-70,603,4.65906,-46.0888,0,0,0,0,0,0,0,-1,1154,421,4.65908,46.0888
-63,603,4.63074,-46.2629,0,0,0,0,0,0,0,-1,1161,421,4.63078,46.2629
-56,603,4.73169,-46.59,0,0,0,0,0,0,0,-1,1168,421,4.73173,46.59
-49,603,4.78967,-46.861,0,0,0,0,0,0,0,-1,1175,421,4.78963,46.861
-42,603,4.82397,-47.1137,0,0,0,0,0,0,0,-1,1182,421,4.82399,47.1137
-35,603,4.82642,-47.3255,0.00828286,-0.0219095,-0.00857081,0.0105462,-0.0241729,-0.258183,0.0205533,0.0431539,1189,421,4.82642,47.3255
-28,603,4.86523,-47.4958,0.00835057,-0.0236461,-0.0113941,0.0119933,-0.0272889,-0.309436,0.0232456,0.0278822,1196,421,4.86524,47.4958
-21,603,4.95618,-47.7274,0.0081775,-0.0253404,-0.0135721,0.0129839,-0.0301468,-0.340357,0.0255503,0.023691,1203,421,4.95615,47.7274
-14,603,5.0636,-47.931,0.00775387,-0.0263326,-0.0149429,0.0133769,-0.0319557,-0.359914,0.0268955,0.0235318,1210,421,5.06365,47.931
-7,603,5.15015,-48.1,0.00703036,-0.0259927,-0.0164046,0.0137942,-0.0327565,-0.391075,0.0276093,0.0286662,1217,421,5.15012,48.1
0,603,5.28662,-48.2996,0.00653694,-0.0247163,-0.0176538,0.0144867,-0.0326661,-0.423117,0.02789,0.0355584,1224,421,5.28657,48.2996
7,603,5.34985,-48.3089,0.00592267,-0.0230621,-0.0187163,0.0151015,-0.0322409,-0.455956,0.0279239,0.0435532,1231,421,5.3499,48.3089
14,603,5.56287,-48.1297,0.00530066,-0.0205925,-0.0193741,0.0156558,-0.0309477,-0.490853,0.0273851,0.0434106,1238,421,5.56288,48.1297
21,603,5.55566,-48.2268,0.00483297,-0.0175055,-0.019673,0.0162862,-0.0289588,-0.527215,0.0264616,0.0354915,1245,421,5.55562,48.2268
28,603,5.58813,-48.3738,0.00461615,-0.0144614,-0.019524,0.0168069,-0.0266522,-0.558168,0.0253048,0.0419717,1252,421,5.58818,48.3738
35,603,5.73523,-48.4547,0,0,0,0,0,0,0,-1,1259,421,5.73518,48.4547
42,603,5.77124,-48.6788,0.00407278,-0.00586802,-0.0155313,0.0154097,-0.0172049,-0.630536,0.0188395,0.0465566,1266,421,5.77124,48.6788
49,603,5.93896,-48.9372,0.0038474,-0.00239508,-0.0123958,0.0135089,-0.0120566,-0.662063,0.0147682,0.0235195,1273,421,5.93892,48.9372
56,603,5.88,-48.8377,0.0036666,0.000195914,-0.00864848,0.0107521,-0.00688961,-0.686386,0.0102665,0.0460595,1280,421,5.87997,48.8377
63,603,5.83569,-48.7271,0,0,0,0,0,0,0,-1,1287,421,5.83573,48.7271
70,603,6.07324,-48.9882,0,0,0,0,0,0,0,-1,1294,421,6.07325,48.9881
77,603,6.33862,-49.0315,0,0,0,0,0,0,0,-1,1301,421,6.33859,49.0315
84,603,6.40771,-48.9955,0,0,0,0,0,0,0,-1,1308,421,6.40772,48.9954
91,603,6.5824,-48.8692,0,0,0,0,0,0,0,-1,1315,421,6.58238,48.8692
98,603,6.76697,-48.931,0,0,0,0,0,0,0,-1,1322,421,6.76696,48.931
105,603,6.78418,-48.7631,0,0,0,0,0,0,0,-1,1329,421,6.78422,48.7631
112,603,6.89783,-48.4049,0.00731916,-0.0128769,0.0199092,0.0195448,-0.0251025,0.550701,0.0258436,0.0456758,1336,421,6.89789,48.4049
119,603,7.03613,-48.2459,0.00870081,-0.0170676,0.020536,0.0200597,-0.0284265,0.505238,0.0281321,0.0470266,1343,421,7.03608,48.2459
126,603,7.06055,-47.9908,0,0,0,0,0,0,0,-1,1350,421,7.06057,47.9908
133,603,7.04321,-47.7223,0.01167,-0.0234614,0.0196034,0.0204263,-0.0322177,0.420083,0.0306471,0.0470957,1357,421,7.04322,47.7223
140,603,7.24292,-47.5718,0.0132038,-0.0265129,0.0183291,0.0203697,-0.0336788,0.372687,0.0315187,0.035265,1364,421,7.24297,47.5718
147,603,7.13831,-47.4831,0.0148645,-0.0276995,0.0162414,0.0203539,-0.0331889,0.325933,0.0312076,0.0289994,1371,421,7.13825,47.4831
154,603,7.12183,-47.4129,0.0160692,-0.0274764,0.0143227,0.0203578,-0.0317649,0.290928,0.0303323,0.0343755,1378,421,7.12184,47.4129
161,603,7.30994,-47.189,0.0167838,-0.0263415,0.0121896,0.0199908,-0.0295485,0.257262,0.0287784,0.0327944,1385,421,7.30989,47.189
168,603,7.42725,-46.9157,0.0169042,-0.0247273,0.00996697,0.0191674,-0.0269905,0.22328,0.0267765,0.0358198,1392,421,7.42728,46.9157
175,603,7.61267,-46.6495,0.0161429,-0.0221224,0.00821191,0.0178308,-0.0238102,0.202715,0.0241239,0.0408997,1399,421,7.61265,46.6495
182,603,7.66199,-46.3742,0.0147662,-0.0192046,0.00554825,0.0156494,-0.0200878,0.157861,0.0206859,0.0461932,1406,421,7.662,46.3742
189,603,7.59644,-46.0473,0.0129364,-0.0153084,0.00325339,0.0133063,-0.0156783,0.11321,0.0167529,0.039316,1413,421,7.59645,46.0473
196,603,7.5271,-45.6458,0.0110859,-0.0114251,0.00129906,0.0111606,-0.0114998,0.0574536,0.0130835,0.0291467,1420,421,7.52715,45.6458
203,603,7.55029,-45.385,0.00828981,-0.00712166,-0.000834466,0.00833487,-0.00716671,-0.0539356,0.0089583,0.0169416,1427,421,7.55032,45.3851
210,603,7.59778,-45.151,0.00461618,-0.00315859,-0.00264794,0.00543234,-0.00397475,-0.298986,0.00545288,0.0136604,1434,421,7.59778,45.151
217,603,7.62378,-44.73,0.00365659,-0.00207142,-0.00196106,0.00426364,-0.00267848,-0.300201,0.00404271,0.0141728,1441,421,7.62379,44.73
224,603,7.67847,-44.3043,0.00291142,-0.000943923,-0.00133144,0.00332654,-0.00135904,-0.302227,0.00278358,0.0173191,1448,421,7.67842,44.3043
231,603,7.68787,-43.9034,0.00227221,-1.87417e-06,-0.000793426,0.00252167,-0.000251335,-0.304623,0.00177085,0.0152185,1455,421,7.68788,43.9034
238,603,7.68518,-43.4815,0.00189306,0.000557931,-0.000529401,0.00207749,0.000373493,-0.33524,0.00127881,0.0115048,1462,421,7.68515,43.4815
245,603,7.70618,-43.048,0.00199618,0.0012053,-9.49621e-05,0.00200742,0.00119406,-0.11784,0.00116591,0.0121158,1469,421,7.70613,43.048
252,603,7.73596,-42.6004,0.00197038,0.00188899,0.000285339,0.00221791,0.00164146,0.714562,0.00132881,0.0107447,1476,421,7.73598,42.6004
259,603,7.73254,-42.1244,0.00169692,0.0024001,0.000540801,0.00269355,0.00140346,1.07363,0.00155558,0.0109565,1483,421,7.7326,42.1244
266,603,7.71863,-41.6376,0.00142046,0.00289208,0.00075645,0.00321156,0.00110098,1.17118,0.00188449,0.0124053,1490,421,7.71859,41.6376
273,603,7.71021,-41.1632,0.00118484,0.00352446,0.000975643,0.00387792,0.000831385,1.22323,0.00235753,0.0112142,1497,421,7.71018,41.1632
280,603,7.70325,-40.6692,0.000940779,0.00420322,0.00122315,0.00461087,0.000533136,1.2491,0.00291251,0.0118259,1504,421,7.70319,40.6692
287,603,7.68225,-40.136,0.000671589,0.00497357,0.00152322,0.00545828,0.000186872,1.26271,0.00357819,0.0111516,1511,421,7.68222,40.136
294,603,7.65161,-39.6261,0.000307498,0.00575413,0.00180954,0.0063005,-0.000238878,1.27756,0.00428218,0.0105955,1518,421,7.6516,39.6261
301,603,7.66589,-39.1303,-7.36341e-05,0.00646724,0.00210755,0.0070875,-0.000693897,1.28457,0.00497246,0.0122383,1525,421,7.66586,39.1303
308,603,7.63098,-38.5919,-0.000358619,0.00715401,0.00246579,0.00789102,-0.00109563,1.28035,0.00566134,0.0167654,1532,421,7.63102,38.5919
315,603,7.56165,-38.0528,-0.000623456,0.00792232,0.00286357,0.00879312,-0.00149427,1.27558,0.00641842,0.0148869,1539,421,7.56166,38.0528
322,603,7.5282,-37.4794,-0.000953584,0.00862299,0.00330474,0.00965269,-0.00198329,1.26875,0.00718801,0.0140136,1546,421,7.52821,37.4794
329,603,7.51038,-36.9123,-0.00121703,0.00921122,0.00376108,0.0104262,-0.00243197,1.25835,0.00788741,0.0109293,1553,421,7.51042,36.9123
336,603,7.4884,-36.3597,-0.00144598,0.00988721,0.0042823,0.0113233,-0.00288209,1.24722,0.00867074,0.010033,1560,421,7.48839,36.3597
343,603,7.45703,-35.7895,-0.00168507,0.0104139,0.00467557,0.0120102,-0.00328131,1.2418,0.00929565,0.0112018,1567,421,7.45707,35.7895
350,603,7.42566,-35.1967,-0.00109901,0.0116974,0.00590461,0.0140056,-0.00340721,1.19815,0.010656,0.0163509,1574,421,7.42566,35.1967
357,603,7.41956,-34.5151,-0.000516655,0.0129321,0.00726955,0.0161105,-0.00369499,1.15863,0.0121605,0.02323,1581,421,7.41957,34.5151
364,603,7.39209,-33.834,-0.000749889,0.01405,0.00801382,0.0175579,-0.00425775,1.1582,0.0133527,0.0299554,1588,421,7.39203,33.834
371,603,7.29053,-33.1978,-0.000930319,0.0155135,0.00873082,0.0192844,-0.00470119,1.16309,0.0146765,0.0413342,1595,421,7.29052,33.1977
378,603,7.24475,-32.7052,0,0,0,0,0,0,0,-1,1602,421,7.24472,32.7052
385,603,7.27087,-32.0031,0,0,0,0,0,0,0,-1,1609,421,7.27083,32.0031
392,603,4.90527,-19.605,0,0,0,0,0,0,0,-1,1616,421,4.90526,19.605
399,603,2.94299,0.638214,0,0,0,0,0,0,0,-1,1623,421,2.94293,-0.638215
406,603,3.01917,-2.37219,0,0,0,0,0,0,0,-1,1630,421,3.01915,2.37219
413,603,2.38928,-2.41275,0,0,0,0,0,0,0,-1,1637,421,2.38926,2.41274
420,603,8.22217,-23.7068,0,0,0,0,0,0,0,-1,1644,421,8.22215,23.7068
427,603,8.20386,-23.1278,0,0,0,0,0,0,0,-1,1651,421,8.2039,23.1278
434,603,8.01489,-22.5655,0,0,0,0,0,0,0,-1,1658,421,8.01493,22.5655
441,603,8.00122,-22.3072,0,0,0,0,0,0,0,-1,1665,421,8.00116,22.3071
448,603,1.14355,-4.59842,0,0,0,0,0,0,0,-1,1672,421,1.14355,4.59841
455,603,0,0,0,0,0,0,0,0,0,-1,1679,421,0,0
462,603,0,0,0,0,0,0,0,0,0,-1,1686,421,0,0
469,603,0,0,0,0,0,0,0,0,0,-1,1693,421,0,0
476,603,0,0,0,0,0,0,0,0,0,-1,1700,421,0,0
483,603,0,0,0,0,0,0,0,0,0,-1,1707,421,0,0
490,603,0,0,0,0,0,0,0,0,0,-1,1714,421,0,0
497,603,0,0,0,0,0,0,0,0,0,-1,1721,421,0,0
504,603,0,0,0,0,0,0,0,0,0,-1,1728,421,0,0
511,603,0,0,0,0,0,0,0,0,0,-1,1735,421,0,0
518,603,0,0,0,0,0,0,0,0,0,-1,1742,421,0,0
525,603,0,0,0,0,0,0,0,0,0,-1,1749,421,0,0
532,603,0,0,0,0,0,0,0,0,0,-1,1756,421,0,0
539,603,0,0,0,0,0,0,0,0,0,-1,1763,421,0,0
546,603,0,0,0,0,0,0,0,0,0,-1,1770,421,0,0
553,603,0,0,0,0,0,0,0,0,0,-1,1777,421,0,0
560,603,0,0,0,0,0,0,0,0,0,-1,1784,421,0,0
567,603,0,0,0,0,0,0,0,0,0,-1,1791,421,0,0
574,603,0,0,0,0,0,0,0,0,0,-1,1798,421,0,0
581,603,0,0,0,0,0,0,0,0,0,-1,1805,421,0,0
588,603,0,0,0,0,0,0,0,0,0,-1,1812,421,0,0
595,603,0,0,0,0,0,0,0,0,0,-1,1819,421,0,0
602,603,0,0,0,0,0,0,0,0,0,-1,1826,421,0,0
609,603,0,0,0,0,0,0,0,0,0,-1,1833,421,0,0
616,603,0,0,0,0,0,0,0,0,0,-1,1840,421,0,0
623,603,0,0,0,0,0,0,0,0,0,-1,1847,421,0,0
630,603,0,0,0,0,0,0,0,0,0,-1,1854,421,0,0
637,603,0,0,0,0,0,0,0,0,0,-1,1861,421,0,0
644,603,0,0,0,0,0,0,0,0,0,-1,1868,421,0,0
651,603,0,0,0,0,0,0,0,0,0,-1,1875,421,0,0
658,603,0,0,0,0,0,0,0,0,0,-1,1882,421,0,0
665,603,0,0,0,0,0,0,0,0,0,-1,1889,421,0,0
672,603,0,0,0,0,0,0,0,0,0,-1,1896,421,0,0
679,603,0,0,0,0,0,0,0,0,0,-1,1903,421,0,0
686,603,0,0,0,0,0,0,0,0,0,-1,1910,421,0,0
693,603,0,0,0,0,0,0,0,0,0,-1,1917,421,0,0
700,603,0,0,0,0,0,0,0,0,0,-1,1924,421,0,0
707,603,0,0,0,0,0,0,0,0,0,-1,1931,421,0,0
714,603,0,0,0,0,0,0,0,0,0,-1,1938,421,0,0
721,603,0,0,0,0,0,0,0,0,0,-1,1945,421,0,0
728,603,0,0,0,0,0,0,0,0,0,-1,1952,421,0,0
735,603,0,0,0,0,0,0,0,0,0,-1,1959,421,0,0
742,603,0,0,0,0,0,0,0,0,0,-1,1966,421,0,0
749,603,0,0,0,0,0,0,0,0,0,-1,1973,421,0,0
756,603,0,0,0,0,0,0,0,0,0,-1,1980,421,0,0
763,603,0,0,0,0,0,0,0,0,0,-1,1987,421,0,0
770,603,0,0,0,0,0,0,0,0,0,-1,1994,421,0,0
777,603,0,0,0,0,0,0,0,0,0,-1,2001,421,0,0
784,603,0,0,0,0,0,0,0,0,0,-1,2008,421,0,0
791,603,0,0,0,0,0,0,0,0,0,-1,2015,421,0,0
798,603,0,0,0,0,0,0,0,0,0,-1,2022,421,0,0
805,603,0,0,0,0,0,0,0,0,0,-1,2029,421,0,0
812,603,0,0,0,0,0,0,0,0,0,-1,2036,421,0,0
-700,596,0,0,0,0,0,0,0,0,0,-1,524,428,0,0
-693,596,0,0,0,0,0,0,0,0,0,-1,531,428,0,0
-686,596,0,0,0,0,0,0,0,0,0,-1,538,428,0,0
-679,596,0,0,0,0,0,0,0,0,0,-1,545,428,0,0
-672,596,0,0,0,0,0,0,0,0,0,-1,552,428,0,0
-665,596,0,0,0,0,0,0,0,0,0,-1,559,428,0,0
-658,596,0,0,0,0,0,0,0,0,0,-1,566,428,0,0
-651,596,0,0,0,0,0,0,0,0,0,-1,573,428,0,0
-644,596,0,0,0,0,0,0,0,0,0,-1,580,428,0,0
-637,596,0,0,0,0,0,0,0,0,0,-1,587,428,0,0
-630,596,0,0,0,0,0,0,0,0,0,-1,594,428,0,0
-623,596,0,0,0,0,0,0,0,0,0,-1,601,428,0,0
-616,596,0,0,0,0,0,0,0,0,0,-1,608,428,0,0
-609,596,0,0,0,0,0,0,0,0,0,-1,615,428,0,0
-602,596,0,0,0,0,0,0,0,0,0,-1,622,428,0,0
-595,596,0,0,0,0,0,0,0,0,0,-1,629,428,0,0
-588,596,0,0,0,0,0,0,0,0,0,-1,636,428,0,0
-581,596,0,0,0,0,0,0,0,0,0,-1,643,428,0,0
-574,596,0,0,0,0,0,0,0,0,0,-1,650,428,0,0
-567,596,0,0,0,0,0,0,0,0,0,-1,657,428,0,0
-560,596,0,0,0,0,0,0,0,0,0,-1,664,428,0,0
-553,596,0,0,0,0,0,0,0,0,0,-1,671,428,0,0
-546,596,0,0,0,0,0,0,0,0,0,-1,678,428,0,0
-539,596,0,0,0,0,0,0,0,0,0,-1,685,428,0,0
-532,596,0,0,0,0,0,0,0,0,0,-1,692,428,0,0
-525,596,0,0,0,0,0,0,0,0,0,-1,699,428,0,0
-518,596,0,0,0,0,0,0,0,0,0,-1,706,428,0,0
-511,596,0,0,0,0,0,0,0,0,0,-1,713,428,0,0
-504,596,0,0,0,0,0,0,0,0,0,-1,720,428,0,0
-497,596,0,0,0,0,0,0,0,0,0,-1,727,428,0,0
-490,596,0,0,0,0,0,0,0,0,0,-1,734,428,0,0
-483,596,0,0,0,0,0,0,0,0,0,-1,741,428,0,0
-476,596,0,0,0,0,0,0,0,0,0,-1,748,428,0,0
-469,596,0,0,0,0,0,0,0,0,0,-1,755,428,0,0
-462,596,0,0,0,0,0,0,0,0,0,-1,762,428,0,0
-455,596,0,0,0,0,0,0,0,0,0,-1,769,428,0,0
-448,596,0,0,0,0,0,0,0,0,0,-1,776,428,0,0
-441,596,0,0,0,0,0,0,0,0,0,-1,783,428,0,0
-434,596,0,0,0,0,0,0,0,0,0,-1,790,428,0,0
-427,596,0,0,0,0,0,0,0,0,0,-1,797,428,0,0
-420,596,0,0,0,0,0,0,0,0,0,-1,804,428,0,0
-413,596,0,0,0,0,0,0,0,0,0,-1,811,428,0,0
-406,596,0,0,0,0,0,0,0,0,0,-1,818,428,0,0
-399,596,0,0,0,0,0,0,0,0,0,-1,825,428,0,0
-392,596,0,0,0,0,0,0,0,0,0,-1,832,428,0,0
-385,596,0,0,0,0,0,0,0,0,0,-1,839,428,0,0
-378,596,0,0,0,0,0,0,0,0,0,-1,846,428,0,0
-371,596,0,0,0,0,0,0,0,0,0,-1,853,428,0,0
-364,596,0,0,0,0,0,0,0,0,0,-1,860,428,0,0
-357,596,0,0,0,0,0,0,0,0,0,-1,867,428,0,0
-350,596,0,0,0,0,0,0,0,0,0,-1,874,428,0,0
-343,596,0,0,0,0,0,0,0,0,0,-1,881,428,0,0
-336,596,6.81445,-30.5258,0,0,0,0,0,0,0,-1,888,428,6.81446,30.5258
-329,596,6.84772,-28.9253,0,0,0,0,0,0,0,-1,895,428,6.84773,28.9253
-322,596,6.97449,-27.9047,0,0,0,0,0,0,0,-1,902,428,6.97451,27.9047
-315,596,7.10132,-26.8841,0,0,0,0,0,0,0,-1,909,428,7.10129,26.8841
-308,596,0.254761,-20.841,0,0,0,0,0,0,0,-1,916,428,0.254731,20.841
-301,596,3.43213,-26.756,0,0,0,0,0,0,0,-1,923,428,3.43214,26.756
-294,596,4.1767,-27.6454,0,0,0,0,0,0,0,-1,930,428,4.17667,27.6454
-287,596,4.36041,-27.6119,0,0,0,0,0,0,0,-1,937,428,4.3604,27.6119
-280,596,4.60181,-30.9201,0,0,0,0,0,0,0,-1,944,428,4.60179,30.9201
-273,596,4.5246,-31.5463,0,0,0,0,0,0,0,-1,951,428,4.5246,31.5463
-266,596,4.52863,-31.6049,-0.0107185,0.0193303,-0.00494006,0.0201216,-0.0115098,-1.41196,0.0184866,0.0490929,958,428,4.52864,31.6049
-259,596,4.4563,-32.3532,-0.0097251,0.0187059,-0.00451595,0.019406,-0.0104252,-1.417,0.0174813,0.0444967,965,428,4.45629,32.3532
-252,596,4.31598,-33.2965,-0.00895698,0.0179165,-0.00413668,0.0185389,-0.00957933,-1.42147,0.0165065,0.0228835,972,428,4.316,33.2965
-245,596,4.33246,-34.018,-0.00799428,0.0166242,-0.00397679,0.0172507,-0.00862074,-1.41455,0.0152114,0.0162987,979,428,4.33248,34.018
-238,596,4.33167,-34.6181,-0.00691431,0.0149064,-0.00364002,0.0154976,-0.0075055,-1.40979,0.0135454,0.0134168,986,428,4.33168,34.6181
-231,596,4.2478,-35.2235,-0.00586964,0.0133229,-0.0034249,0.0139157,-0.00646249,-1.39939,0.0120248,0.0132447,993,428,4.24779,35.2235
-224,596,4.23395,-35.8268,-0.00474012,0.0117651,-0.00326764,0.0123885,-0.00536349,-1.38229,0.0105132,0.0138883,1000,428,4.23394,35.8268
-217,596,4.20929,-36.3947,-0.00361047,0.0101563,-0.00313692,0.0108374,-0.00429156,-1.35699,0.00900309,0.0148766,1007,428,4.20927,36.3947
-210,596,4.17834,-36.9564,-0.00256334,0.00821417,-0.00294889,0.00896827,-0.00331744,-1.32044,0.00733899,0.0136392,1014,428,4.17835,36.9564
-203,596,4.17493,-37.5062,-0.00159964,0.00652153,-0.00269291,0.00733333,-0.00241144,-1.278,0.00586048,0.0168613,1021,428,4.17489,37.5062
-196,596,4.15845,-38.052,-0.00081795,0.00533161,-0.00244167,0.00618316,-0.00166949,-1.23523,0.00477686,0.0160261,1028,428,4.15842,38.052
-189,596,4.10535,-38.5605,6.26777e-05,0.00441991,-0.00250018,0.00555751,-0.00107492,-1.14379,0.00411043,0.0137735,1035,428,4.10537,38.5605
-182,596,4.08398,-39.0569,0.000681963,0.00323945,-0.00225741,0.00455514,-0.000633727,-1.0431,0.00326854,0.0123983,1042,428,4.08396,39.0569
-175,596,4.07056,-39.5695,0.00103782,0.00166245,-0.00182858,0.0032052,-0.000504928,-0.869979,0.00232347,0.0144608,1049,428,4.07052,39.5695
-168,596,4.05981,-40.092,0.00124184,0.00015871,-0.00133706,0.00214286,-0.0007423,-0.592975,0.00172993,0.0174535,1056,428,4.05986,40.092
-161,596,4.05359,-40.5942,0.00149058,-0.000963791,-0.000947327,0.00181369,-0.0012869,-0.328701,0.00179872,0.0168904,1063,428,4.05357,40.5942
-154,596,4.03967,-41.0541,0.00172484,-0.00213411,-0.000523573,0.00179462,-0.00220389,-0.132487,0.00231256,0.0138763,1070,428,4.03965,41.0541
-147,596,4.05786,-41.4961,0.00194395,-0.00333226,-5.71468e-05,0.00194457,-0.00333288,-0.0108293,0.00308188,0.0134079,1077,428,4.05787,41.4961
-140,596,4.04968,-41.9542,0.00212761,-0.00474105,0.000500749,0.00216393,-0.00477737,0.0723932,0.00410115,0.015268,1084,428,4.04973,41.9542
-133,596,4.03394,-42.4299,0.00226807,-0.00618461,0.00107407,0.00240242,-0.00631896,0.124434,0.00520178,0.0155646,1091,428,4.03392,42.4299
-126,596,4.05334,-42.8416,0.00247792,-0.0074762,0.00159624,0.00272763,-0.00772591,0.155178,0.0062611,0.0113738,1098,428,4.0533,42.8416
-119,596,4.09045,-43.2845,0.00276536,-0.00865875,0.00211043,0.00314277,-0.00903615,0.176957,0.00730076,0.0141613,1105,428,4.09048,43.2845
-112,596,4.08691,-43.7135,0.00309777,-0.00968616,0.00253481,0.00358202,-0.0101704,0.188769,0.0082381,0.0162279,1112,428,4.08691,43.7135
-105,596,4.10156,-44.1389,0.00349722,-0.0104615,0.00286232,0.00406136,-0.0110256,0.194597,0.00901451,0.0203864,1119,428,4.10152,44.139
-98,596,4.13586,-44.5354,0.00389344,-0.0110352,0.00312263,0.00452028,-0.0116621,0.198108,0.0096414,0.0251631,1126,428,4.13591,44.5354
-91,596,4.06702,-45.0063,0,0,0,0,0,0,0,-1,1133,428,4.06703,45.0063
-84,596,4.20288,-45.2612,0,0,0,0,0,0,0,-1,1140,428,4.20287,45.2612
-77,596,4.32446,-45.7464,0,0,0,0,0,0,0,-1,1147,428,4.32444,45.7464
-70,596,3.50696,-32.137,0,0,0,0,0,0,0,-1,1154,428,3.50696,32.137
-63,596,1.95569,-12.2758,0,0,0,0,0,0,0,-1,1161,428,1.95563,12.2759
-56,596,1.60107,-10.5827,0,0,0,0,0,0,0,-1,1168,428,1.60108,10.5827
-49,596,1.59473,-10.0393,0,0,0,0,0,0,0,-1,1175,428,1.59472,10.0393
-42,596,1.99585,-6.6246,0,0,0,0,0,0,0,-1,1182,428,1.99586,6.62459
-35,596,4.36804,-47.0626,0,0,0,0,0,0,0,-1,1189,428,4.36809,47.0626
-28,596,4.5448,-47.2883,0,0,0,0,0,0,0,-1,1196,428,4.54474,47.2883
-21,596,4.64355,-47.5497,0,0,0,0,0,0,0,-1,1203,428,4.6436,47.5497
-14,596,4.802,-47.7668,0,0,0,0,0,0,0,-1,1210,428,4.80201,47.7668
-7,596,4.90771,-47.9634,0,0,0,0,0,0,0,-1,1217,428,4.90771,47.9634
0,596,5.18262,-48.2517,0,0,0,0,0,0,0,-1,1224,428,5.18265,48.2517
7,596,5.2428,-48.0808,0,0,0,0,0,0,0,-1,1231,428,5.24276,48.0808
14,596,5.55908,-47.4724,0,0,0,0,0,0,0,-1,1238,428,5.55904,47.4724
21,596,5.49402,-47.4352,0,0,0,0,0,0,0,-1,1245,428,5.49397,47.4352
28,596,5.4939,-47.6823,0,0,0,0,0,0,0,-1,1252,428,5.49385,47.6823
35,596,6.5094,-49.2748,0,0,0,0,0,0,0,-1,1259,428,6.50938,49.2748
42,596,5.63184,-48.3786,0,0,0,0,0,0,0,-1,1266,428,5.63187,48.3786
49,596,6.25452,-49.0763,0,0,0,0,0,0,0,-1,1273,428,6.25448,49.0763
56,596,5.84302,-48.5981,0,0,0,0,0,0,0,-1,1280,428,5.84302,48.5981
63,596,6.38611,-48.1953,0,0,0,0,0,0,0,-1,1287,428,6.38612,48.1953
70,596,8.30481,-49.8781,0,0,0,0,0,0,0,-1,1294,428,8.30475,49.8781
77,596,8.41711,-50.1496,0,0,0,0,0,0,0,-1,1301,428,8.41717,50.1496
84,596,8.69128,-50.1871,0.00426996,0.00231745,0.0114138,0.0147492,-0.00816181,0.742736,0.0134087,0.0491072,1308,428,8.69127,50.1871
91,596,8.60999,-49.588,0.00481491,-0.00141576,0.016219,0.0182151,-0.0148159,0.690514,0.0191041,0.044074,1315,428,8.60995,49.5879
98,596,8.43896,-49.129,0,0,0,0,0,0,0,-1,1322,428,8.43894,49.129
105,596,8.36646,-50.6685,0,0,0,0,0,0,0,-1,1329,428,8.36645,50.6685
112,596,7.19177,-48.0904,0,0,0,0,0,0,0,-1,1336,428,7.19172,48.0904
119,596,7.49719,-47.7042,0,0,0,0,0,0,0,-1,1343,428,7.49715,47.7042
126,596,1.24048,-47.2512,0,0,0,0,0,0,0,-1,1350,428,1.24046,47.2512
133,596,7.35632,-47.0797,0,0,0,0,0,0,0,-1,1357,428,7.35636,47.0797
140,596,7.67688,-46.8673,0,0,0,0,0,0,0,-1,1364,428,7.67685,46.8673
147,596,7.40771,-46.8371,0,0,0,0,0,0,0,-1,1371,428,7.40767,46.8371
154,596,7.2605,-47.109,0,0,0,0,0,0,0,-1,1378,428,7.26048,47.109
161,596,7.79492,-46.9544,0,0,0,0,0,0,0,-1,1385,428,7.79488,46.9544
168,596,7.93726,-46.506,0,0,0,0,0,0,0,-1,1392,428,7.93721,46.506
175,596,8.02808,-46.2284,0,0,0,0,0,0,0,-1,1399,428,8.02809,46.2284
182,596,8.12097,-46.1834,0,0,0,0,0,0,0,-1,1406,428,8.12093,46.1834
189,596,8.01672,-45.9725,0,0,0,0,0,0,0,-1,1413,428,8.01673,45.9725
196,596,7.93408,-45.3979,0,0,0,0,0,0,0,-1,1420,428,7.93408,45.3979
203,596,7.90698,-45.2823,0,0,0,0,0,0,0,-1,1427,428,7.90696,45.2823
210,596,7.94568,-45.1608,0,0,0,0,0,0,0,-1,1434,428,7.94571,45.1608
217,596,7.97571,-44.7296,0,0,0,0,0,0,0,-1,1441,428,7.97577,44.7297
224,596,8.10461,-44.4183,0,0,0,0,0,0,0,-1,1448,428,8.10457,44.4183
231,596,8.14551,-43.9231,0.00298566,-0.00138231,-0.00171087,0.003576,-0.00197265,-0.332259,0.00324779,0.0258569,1455,428,8.1455,43.9231
238,596,8.13916,-43.4556,0.00244461,-0.000949609,-0.00153776,0.00303767,-0.00154267,-0.368089,0.00269101,0.0175139,1462,428,8.13918,43.4556
245,596,8.15662,-43.0249,0.00227256,-0.000455305,-0.00130903,0.00279909,-0.000981843,-0.382431,0.00226541,0.014783,1469,428,8.15667,43.0249
252,596,8.18091,-42.5749,0.00205939,5.15749e-05,-0.00105021,0.00250833,-0.000397364,-0.403967,0.0018192,0.0106138,1476,428,8.18093,42.5748
259,596,8.18921,-42.1039,0.00184291,0.000328589,-0.000746249,0.00214885,2.26512e-05,-0.38907,0.00142508,0.00935564,1483,428,8.18923,42.1039
266,596,8.16577,-41.6184,0.00172208,0.000594644,-0.000448577,0.00187877,0.000437945,-0.336072,0.00113506,0.0106157,1490,428,8.16576,41.6184
273,596,8.177,-41.1563,0.00175882,0.00107682,-6.68415e-05,0.00176531,0.00107033,-0.0967805,0.00102686,0.0126388,1497,428,8.17694,41.1563
280,596,8.19519,-40.6876,0.00183864,0.00164143,0.000393417,0.00214562,0.00133445,0.66261,0.00125099,0.0129702,1504,428,8.19523,40.6876
287,596,8.18799,-40.1659,0.00189325,0.00232276,0.000881031,0.00301483,0.00120118,0.904946,0.00175255,0.0112989,1511,428,8.18799,40.1659
294,596,8.15759,-39.6425,0.00185656,0.00307939,0.00138459,0.00398155,0.000954399,0.993314,0.00240034,0.0100759,1518,428,8.15762,39.6425
301,596,8.16467,-39.1278,0.00174281,0.00380288,0.00187228,0.00490976,0.000635924,1.03688,0.00308314,0.0114735,1525,428,8.16464,39.1278
308,596,8.16113,-38.5883,0.00165054,0.00445997,0.00234562,0.00578933,0.000321178,1.05519,0.00375707,0.0170253,1532,428,8.1611,38.5883
315,596,8.09753,-38.0401,0.00147305,0.00522334,0.00277974,0.00670127,-4.88386e-06,1.08213,0.00446915,0.0165574,1539,428,8.09749,38.0401
322,596,8.08215,-37.4571,0.00114694,0.00592794,0.00319791,0.00753007,-0.000455198,1.10635,0.00517845,0.0135894,1546,428,8.08216,37.4571
329,596,8.06982,-36.9125,0.000796375,0.00649493,0.00357379,0.00821625,-0.000924943,1.12194,0.0058104,0.0107035,1553,428,8.06982,36.9125
336,596,8.02515,-36.3736,0.000443239,0.00711479,0.00397008,0.00896447,-0.00140644,1.13479,0.00649608,0.00971485,1560,428,8.02514,36.3736
343,596,8.00464,-35.7984,5.26217e-05,0.00766927,0.00426687,0.00958017,-0.00185828,1.14974,0.00708788,0.0117413,1567,428,8.0046,35.7984
350,596,7.99268,-35.1832,-0.000116465,0.00872773,0.00489842,0.0109048,-0.00229357,1.15257,0.00814281,0.0118801,1574,428,7.99271,35.1832
357,596,7.96033,-34.5743,-0.000266835,0.00976065,0.00562321,0.0122807,-0.00278689,1.14948,0.00925701,0.00994,1581,428,7.96032,34.5743
364,596,7.91638,-33.9454,-0.000423796,0.0108475,0.00632182,0.013681,-0.00325726,1.14944,0.0103782,0.0109909,1588,428,7.91632,33.9454
371,596,7.88074,-33.3473,-0.000536348,0.0121952,0.00701418,0.0153016,-0.00364274,1.15389,0.0116074,0.0122986,1595,428,7.88072,33.3473
378,596,7.82141,-32.7476,-0.000706294,0.0139575,0.00759216,0.0171801,-0.0039289,1.16938,0.0129631,0.0159275,1602,428,7.82143,32.7476
385,596,7.84106,-31.994,-0.00106209,0.0156405,0.00769559,0.0186455,-0.00406712,1.19852,0.0139846,0.0407558,1609,428,7.84102,31.994
392,596,7.8623,-31.3971,0,0,0,0,0,0,0,-1,1616,428,7.86236,31.3971
399,596,7.7384,-30.0571,0,0,0,0,0,0,0,-1,1623,428,7.73837,30.0571
406,596,3.60034,-10.1525,0,0,0,0,0,0,0,-1,1630,428,3.60028,10.1525
413,596,3.39124,-2.63528,0,0,0,0,0,0,0,-1,1637,428,3.39122,2.6353
420,596,2.6344,-3.06308,0,0,0,0,0,0,0,-1,1644,428,2.63439,3.06308
427,596,7.61975,-22.7222,0,0,0,0,0,0,0,-1,1651,428,7.61974,22.7222
434,596,5.09753,-22.5213,0,0,0,0,0,0,0,-1,1658,428,5.09755,22.5213
441,596,7.19043,-22.087,0,0,0,0,0,0,0,-1,1665,428,7.19046,22.087
448,596,1.0769,0.0083313,0,0,0,0,0,0,0,-1,1672,428,1.07684,-0.00832231
455,596,2.00769,-1.43329,0,0,0,0,0,0,0,-1,1679,428,2.00765,1.4333
462,596,0,0,0,0,0,0,0,0,0,-1,1686,428,0,0
469,596,0,0,0,0,0,0,0,0,0,-1,1693,428,0,0
476,596,0,0,0,0,0,0,0,0,0,-1,1700,428,0,0
483,596,0,0,0,0,0,0,0,0,0,-1,1707,428,0,0
490,596,0,0,0,0,0,0,0,0,0,-1,1714,428,0,0
497,596,0,0,0,0,0,0,0,0,0,-1,1721,428,0,0
504,596,0,0,0,0,0,0,0,0,0,-1,1728,428,0,0
511,596,0,0,0,0,0,0,0,0,0,-1,1735,428,0,0
518,596,0,0,0,0,0,0,0,0,0,-1,1742,428,0,0
525,596,0,0,0,0,0,0,0,0,0,-1,1749,428,0,0
532,596,0,0,0,0,0,0,0,0,0,-1,1756,428,0,0
539,596,0,0,0,0,0,0,0,0,0,-1,1763,428,0,0
546,596,0,0,0,0,0,0,0,0,0,-1,1770,428,0,0
553,596,0,0,0,0,0,0,0,0,0,-1,1777,428,0,0
560,596,0,0,0,0,0,0,0,0,0,-1,1784,428,0,0
567,596,0,0,0,0,0,0,0,0,0,-1,1791,428,0,0
574,596,0,0,0,0,0,0,0,0,0,-1,1798,428,0,0
581,596,0,0,0,0,0,0,0,0,0,-1,1805,428,0,0
588,596,0,0,0,0,0,0,0,0,0,-1,1812,428,0,0
595,596,0,0,0,0,0,0,0,0,0,-1,1819,428,0,0
602,596,0,0,0,0,0,0,0,0,0,-1,1826,428,0,0
609,596,0,0,0,0,0,0,0,0,0,-1,1833,428,0,0
616,596,0,0,0,0,0,0,0,0,0,-1,1840,428,0,0
623,596,0,0,0,0,0,0,0,0,0,-1,1847,428,0,0
630,596,0,0,0,0,0,0,0,0,0,-1,1854,428,0,0
637,596,0,0,0,0,0,0,0,0,0,-1,1861,428,0,0
644,596,0,0,0,0,0,0,0,0,0,-1,1868,428,0,0
651,596,0,0,0,0,0,0,0,0,0,-1,1875,428,0,0
658,596,0,0,0,0,0,0,0,0,0,-1,1882,428,0,0
665,596,0,0,0,0,0,0,0,0,0,-1,1889,428,0,0
672,596,0,0,0,0,0,0,0,0,0,-1,1896,428,0,0
679,596,0,0,0,0,0,0,0,0,0,-1,1903,428,0,0
686,596,0,0,0,0,0,0,0,0,0,-1,1910,428,0,0
693,596,0,0,0,0,0,0,0,0,0,-1,1917,428,0,0
700,596,0,0,0,0,0,0,0,0,0,-1,1924,428,0,0
707,596,0,0,0,0,0,0,0,0,0,-1,1931,428,0,0
714,596,0,0,0,0,0,0,0,0,0,-1,1938,428,0,0
721,596,0,0,0,0,0,0,0,0,0,-1,1945,428,0,0
728,596,0,0,0,0,0,0,0,0,0,-1,1952,428,0,0
735,596,0,0,0,0,0,0,0,0,0,-1,1959,428,0,0
742,596,0,0,0,0,0,0,0,0,0,-1,1966,428,0,0
749,596,0,0,0,0,0,0,0,0,0,-1,1973,428,0,0
756,596,0,0,0,0,0,0,0,0,0,-1,1980,428,0,0
763,596,0,0,0,0,0,0,0,0,0,-1,1987,428,0,0
770,596,0,0,0,0,0,0,0,0,0,-1,1994,428,0,0
777,596,0,0,0,0,0,0,0,0,0,-1,2001,428,0,0
784,596,0,0,0,0,0,0,0,0,0,-1,2008,428,0,0
791,596,0,0,0,0,0,0,0,0,0,-1,2015,428,0,0
798,596,0,0,0,0,0,0,0,0,0,-1,2022,428,0,0
805,596,0,0,0,0,0,0,0,0,0,-1,2029,428,0,0
812,596,0,0,0,0,0,0,0,0,0,-1,2036,428,0,0
-700,589,0,0,0,0,0,0,0,0,0,-1,524,435,0,0
-693,589,0,0,0,0,0,0,0,0,0,-1,531,435,0,0
-686,589,0,0,0,0,0,0,0,0,0,-1,538,435,0,0
-679,589,0,0,0,0,0,0,0,0,0,-1,545,435,0,0
-672,589,0,0,0,0,0,0,0,0,0,-1,552,435,0,0
-665,589,0,0,0,0,0,0,0,0,0,-1,559,435,0,0
-658,589,0,0,0,0,0,0,0,0,0,-1,566,435,0,0
-651,589,0,0,0,0,0,0,0,0,0,-1,573,435,0,0
-644,589,0,0,0,0,0,0,0,0,0,-1,580,435,0,0
-637,589,0,0,0,0,0,0,0,0,0,-1,587,435,0,0
-630,589,0,0,0,0,0,0,0,0,0,-1,594,435,0,0
-623,589,0,0,0,0,0,0,0,0,0,-1,601,435,0,0
-616,589,0,0,0,0,0,0,0,0,0,-1,608,435,0,0
-609,589,0,0,0,0,0,0,0,0,0,-1,615,435,0,0
-602,589,0,0,0,0,0,0,0,0,0,-1,622,435,0,0
-595,589,0,0,0,0,0,0,0,0,0,-1,629,435,0,0
-588,589,0,0,0,0,0,0,0,0,0,-1,636,435,0,0
-581,589,0,0,0,0,0,0,0,0,0,-1,643,435,0,0
-574,589,0,0,0,0,0,0,0,0,0,-1,650,435,0,0
-567,589,0,0,0,0,0,0,0,0,0,-1,657,435,0,0
-560,589,0,0,0,0,0,0,0,0,0,-1,664,435,0,0
-553,589,0,0,0,0,0,0,0,0,0,-1,671,435,0,0
-546,589,0,0,0,0,0,0,0,0,0,-1,678,435,0,0
-539,589,0,0,0,0,0,0,0,0,0,-1,685,435,0,0
-532,589,0,0,0,0,0,0,0,0,0,-1,692,435,0,0
-525,589,0,0,0,0,0,0,0,0,0,-1,699,435,0,0
-518,589,0,0,0,0,0,0,0,0,0,-1,706,435,0,0
-511,589,0,0,0,0,0,0,0,0,0,-1,713,435,0,0
-504,589,0,0,0,0,0,0,0,0,0,-1,720,435,0,0
-497,589,0,0,0,0,0,0,0,0,0,-1,727,435,0,0
-490,589,0,0,0,0,0,0,0,0,0,-1,734,435,0,0
-483,589,0,0,0,0,0,0,0,0,0,-1,741,435,0,0
-476,589,0,0,0,0,0,0,0,0,0,-1,748,435,0,0
-469,589,0,0,0,0,0,0,0,0,0,-1,755,435,0,0
-462,589,0,0,0,0,0,0,0,0,0,-1,762,435,0,0
-455,589,0,0,0,0,0,0,0,0,0,-1,769,435,0,0
-448,589,0,0,0,0,0,0,0,0,0,-1,776,435,0,0
-441,589,0,0,0,0,0,0,0,0,0,-1,783,435,0,0
-434,589,0,0,0,0,0,0,0,0,0,-1,790,435,0,0
-427,589,0,0,0,0,0,0,0,0,0,-1,797,435,0,0
-420,589,0,0,0,0,0,0,0,0,0,-1,804,435,0,0
-413,589,0,0,0,0,0,0,0,0,0,-1,811,435,0,0
-406,589,0,0,0,0,0,0,0,0,0,-1,818,435,0,0
-399,589,0,0,0,0,0,0,0,0,0,-1,825,435,0,0
-392,589,0,0,0,0,0,0,0,0,0,-1,832,435,0,0
-385,589,0,0,0,0,0,0,0,0,0,-1,839,435,0,0
-378,589,0,0,0,0,0,0,0,0,0,-1,846,435,0,0
-371,589,0,0,0,0,0,0,0,0,0,-1,853,435,0,0
-364,589,0,0,0,0,0,0,0,0,0,-1,860,435,0,0
-357,589,0,0,0,0,0,0,0,0,0,-1,867,435,0,0
-350,589,-0.799927,-20.664,0,0,0,0,0,0,0,-1,874,435,-0.799952,20.664
-343,589,5.15289,-30.4847,0,0,0,0,0,0,0,-1,881,435,5.15291,30.4847
-336,589,5.07684,-29.2368,0,0,0,0,0,0,0,-1,888,435,5.07687,29.2368
-329,589,4.9624,-28.1366,0,0,0,0,0,0,0,-1,895,435,4.96242,28.1366
-322,589,5.10156,-27.065,0,0,0,0,0,0,0,-1,902,435,5.10155,27.065
-315,589,4.22705,-27.9655,0,0,0,0,0,0,0,-1,909,435,4.22705,27.9655
-308,589,4.46698,-29.037,0,0,0,0,0,0,0,-1,916,435,4.46696,29.037
-301,589,4.44312,-29.8366,0,0,0,0,0,0,0,-1,923,435,4.44314,29.8367
-294,589,3.57489,-29.2209,0,0,0,0,0,0,0,-1,930,435,3.57487,29.2209
-287,589,3.84705,-29.998,0,0,0,0,0,0,0,-1,937,435,3.84704,29.998
-280,589,3.99274,-30.808,-0.00853691,0.0153156,-0.00427261,0.0160579,-0.00927915,-1.39879,0.0148018,0.0412442,944,435,3.99276,30.8079
-273,589,3.9436,-31.483,-0.00787116,0.0156444,-0.00475207,0.0165684,-0.00879516,-1.37875,0.0148711,0.0245312,951,435,3.9436,31.483
-266,589,3.90002,-32.1176,-0.00736621,0.0153878,-0.00472125,0.0163285,-0.00830694,-1.37412,0.0144724,0.0241207,958,435,3.9,32.1176
-259,589,3.82013,-32.7672,-0.00657696,0.0148322,-0.00427978,0.015656,-0.0074008,-1.38063,0.0135933,0.020821,965,435,3.82013,32.7673
-252,589,3.80292,-33.4838,-0.00600526,0.014059,-0.00380096,0.014755,-0.00670117,-1.38971,0.0126753,0.0117291,972,435,3.8029,33.4837
-245,589,3.80737,-34.0814,-0.00530398,0.0128446,-0.00350044,0.0134964,-0.00595573,-1.38671,0.0115085,0.0111027,979,435,3.80737,34.0814
-238,589,3.77405,-34.6387,-0.00450808,0.0110811,-0.00300465,0.0116402,-0.00506715,-1.38683,0.00989167,0.01507,986,435,3.77404,34.6387
-231,589,3.71356,-35.2184,-0.00375376,0.0093808,-0.00259397,0.00987453,-0.00424749,-1.38271,0.00836632,0.015284,993,435,3.71354,35.2184
-224,589,3.67798,-35.815,-0.00289483,0.00769595,-0.00226774,0.0081611,-0.00335998,-1.36849,0.00684151,0.0150232,1000,435,3.67799,35.815
-217,589,3.66028,-36.3935,-0.00199296,0.00598397,-0.00199816,0.0064565,-0.00246549,-1.33858,0.00532013,0.0154505,1007,435,3.66031,36.3935
-210,589,3.63,-36.9487,-0.0011253,0.00403049,-0.00173613,0.0045606,-0.00165541,-1.27445,0.00371717,0.0155565,1014,435,3.63001,36.9487
-203,589,3.63428,-37.4734,-0.000271449,0.00235234,-0.00146488,0.0030069,-0.000926011,-1.15058,0.00237425,0.0119236,1021,435,3.63431,37.4734
-196,589,3.6095,-38.001,0.00048171,0.00118018,-0.00127065,0.00214872,-0.000486827,-0.91951,0.00161933,0.0136111,1028,435,3.60955,38.001
-189,589,3.55933,-38.5718,0.00125788,0.000221172,-0.00130545,0.00214413,-0.000665071,-0.596409,0.00169517,0.0176696,1035,435,3.55938,38.5718
-182,589,3.57227,-39.0354,0.00187031,-0.000822962,-0.00114815,0.00229333,-0.00124598,-0.353003,0.00207303,0.0133752,1042,435,3.57229,39.0354
-175,589,3.57263,-39.5402,0.00229647,-0.00219954,-0.000843483,0.00244951,-0.00235257,-0.179479,0.00277267,0.016913,1049,435,3.57267,39.5402
-168,589,3.59338,-40.084,0.00255948,-0.00366242,-0.000462832,0.00259372,-0.00369666,-0.0738459,0.00365031,0.0143593,1056,435,3.59338,40.0841
-161,589,3.59021,-40.5658,0.00285142,-0.00468336,-0.000176519,0.00285555,-0.00468749,-0.0234101,0.00439758,0.0140564,1063,435,3.59026,40.5658
-154,589,3.56799,-41.0265,0.00309991,-0.00577171,0.000193319,0.00310412,-0.00577592,0.021777,0.00520367,0.0142788,1070,435,3.56797,41.0265
-147,589,3.59155,-41.4682,0.00330881,-0.00694064,0.000655775,0.0033506,-0.00698243,0.0636356,0.00608737,0.0133444,1077,435,3.59158,41.4682
-140,589,3.60193,-41.9165,0.00341894,-0.00842842,0.00128144,0.00355596,-0.00856544,0.106522,0.00719475,0.0146207,1084,435,3.60187,41.9165
-133,589,3.59998,-42.3879,0.00345533,-0.00994206,0.00197003,0.003739,-0.0102257,0.143014,0.00834745,0.0150473,1091,435,3.59992,42.3879
-126,589,3.63269,-42.829,0.00356625,-0.0113572,0.00262115,0.00401324,-0.0118042,0.168907,0.00949427,0.0120193,1098,435,3.6327,42.829
-119,589,3.61987,-43.2574,0.00372212,-0.0127209,0.0033092,0.00436312,-0.0133619,0.191332,0.0106641,0.0182318,1105,435,3.61985,43.2574
-112,589,3.62463,-43.7224,0.00392219,-0.013944,0.00390713,0.00473927,-0.0147611,0.206154,0.0117437,0.0241265,1112,435,3.62462,43.7224
-105,589,3.61023,-44.1933,0,0,0,0,0,0,0,-1,1119,435,3.61023,44.1933
-98,589,3.69287,-44.7193,0,0,0,0,0,0,0,-1,1126,435,3.69288,44.7193
-91,589,3.39563,-37.8231,0,0,0,0,0,0,0,-1,1133,435,3.39565,37.8231
-84,589,2.76538,-22.6013,0,0,0,0,0,0,0,-1,1140,435,2.76539,22.6014
-77,589,2.18152,-14.8023,0,0,0,0,0,0,0,-1,1147,435,2.18155,14.8023
-70,589,1.48267,-9.90961,0,0,0,0,0,0,0,-1,1154,435,1.48264,9.9096
-63,589,0.880127,-5.50586,0,0,0,0,0,0,0,-1,1161,435,0.880186,5.50587
-56,589,-2.78052,-7.28082,0,0,0,0,0,0,0,-1,1168,435,-2.78053,7.28082
-49,589,-0.525757,-2.76703,0,0,0,0,0,0,0,-1,1175,435,-0.525771,2.76702
-42,589,-2.7738,-2.87921,0,0,0,0,0,0,0,-1,1182,435,-2.77383,2.87922
-35,589,-2.55225,-3.27551,0,0,0,0,0,0,0,-1,1189,435,-2.55223,3.27552
-28,589,-0.0632324,-3.42938,0,0,0,0,0,0,0,-1,1196,435,-0.063241,3.42938
-21,589,8.30554,-45.0632,0,0,0,0,0,0,0,-1,1203,435,8.30554,45.0632
-14,589,8.29773,-45.8314,0.00963796,-0.0439889,-0.0299238,0.0230041,-0.057355,-0.420082,0.0477874,0.0483819,1210,435,8.29771,45.8314
-7,589,8.25439,-46.563,0.00862316,-0.0419487,-0.0311242,0.0234383,-0.0567638,-0.444264,0.0476185,0.0492631,1217,435,8.25436,46.5631
0,589,7.65991,-47.942,0,0,0,0,0,0,0,-1,1224,435,7.65986,47.9419
7,589,8.33813,-48.4921,0.00706611,-0.0358535,-0.0329431,0.0249226,-0.05371,-0.496712,0.0464016,0.0473429,1231,435,8.33811,48.4921
14,589,8.99072,-49.1397,0,0,0,0,0,0,0,-1,1238,435,8.99077,49.1397
21,589,7.05823,-48.0796,0.00527665,-0.0262412,-0.0332603,0.0263225,-0.0472871,-0.564161,0.0430692,0.0445707,1245,435,7.05825,48.0796
28,589,7.21045,-48.682,0.00488956,-0.0212464,-0.0326132,0.0269555,-0.0433124,-0.594845,0.040934,0.0453951,1252,435,7.21043,48.682
35,589,7.22156,-48.8903,0,0,0,0,0,0,0,-1,1259,435,7.22156,48.8903
42,589,6.95349,-49.0395,0.00416678,-0.00784801,-0.0264337,0.0252671,-0.0289483,-0.673665,0.0313253,0.0484183,1266,435,6.95354,49.0395
49,589,6.74072,-49.1851,0.00391091,-0.00268517,-0.0214181,0.0222834,-0.0210577,-0.709006,0.0250263,0.0448681,1273,435,6.74075,49.1851
56,589,6.82813,-49.381,0.00375138,0.00121838,-0.0151806,0.0177183,-0.0127485,-0.74378,0.0176678,0.0434801,1280,435,6.82808,49.381
63,589,6.67847,-49.4768,0,0,0,0,0,0,0,-1,1287,435,6.67848,49.4768
70,589,8.03516,-50.1026,0.00382941,0.00498699,-0.00144203,0.00596205,0.00285435,-0.976243,0.00344323,0.0456985,1294,435,8.03515,50.1026
77,589,8.17334,-50.3912,0.00396708,0.00489695,0.00625214,0.0107014,-0.00183739,0.822512,0.00781903,0.0461425,1301,435,8.17328,50.3913
84,589,8.32629,-50.461,0.004314,0.0031455,0.0135273,0.0172697,-0.00981019,0.763816,0.0158311,0.0446493,1308,435,8.32629,50.461
91,589,8.26233,-50.4161,0.0049936,-0.0014001,0.0197712,0.0218247,-0.0182312,0.705246,0.0231573,0.0458089,1315,435,8.26232,50.4161
98,589,8.31897,-50.4806,0.00615893,-0.00659015,0.0252299,0.0258071,-0.0262383,0.661659,0.0300488,0.0480472,1322,435,8.319,50.4806
105,589,8.34167,-50.6269,0.00801415,-0.0129781,0.0291322,0.0284834,-0.0334473,0.61249,0.035794,0.0471093,1329,435,8.34172,50.6269
112,589,8.47583,-50.597,0.00993675,-0.0193521,0.0318175,0.0303182,-0.0397336,0.569721,0.040566,0.0424734,1336,435,8.47586,50.597
119,589,8.66357,-50.5501,0,0,0,0,0,0,0,-1,1343,435,8.66359,50.5501
126,589,8.1095,-50.4441,0,0,0,0,0,0,0,-1,1350,435,8.10951,50.4441
133,589,7.92676,-49.9467,0,0,0,0,0,0,0,-1,1357,435,7.92674,49.9467
140,589,7.74377,-49.5303,0,0,0,0,0,0,0,-1,1364,435,7.74373,49.5303
147,589,7.43176,-49.2343,0,0,0,0,0,0,0,-1,1371,435,7.43178,49.2344
154,589,7.65259,-49.0469,0,0,0,0,0,0,0,-1,1378,435,7.65258,49.0469
161,589,15.8372,-46.1587,0,0,0,0,0,0,0,-1,1385,435,15.8372,46.1587
168,589,16.8457,-45.9775,0,0,0,0,0,0,0,-1,1392,435,16.8457,45.9775
175,589,8.66992,-7.65527,0,0,0,0,0,0,0,-1,1399,435,8.66994,7.65528
182,589,3.8136,-2.45389,0,0,0,0,0,0,0,-1,1406,435,3.81363,2.4539
189,589,3.69983,-3.68149,0,0,0,0,0,0,0,-1,1413,435,3.69987,3.68147
196,589,3.31055,-5.31677,0,0,0,0,0,0,0,-1,1420,435,3.31059,5.31678
203,589,2.72559,-8.84338,0,0,0,0,0,0,0,-1,1427,435,2.72558,8.84338
210,589,3.62378,-14.4032,0,0,0,0,0,0,0,-1,1434,435,3.62378,14.4032
217,589,4.65601,-22.3745,0,0,0,0,0,0,0,-1,1441,435,4.65607,22.3745
224,589,6.79028,-33.9412,0,0,0,0,0,0,0,-1,1448,435,6.79028,33.9412
231,589,8.62109,-43.975,0,0,0,0,0,0,0,-1,1455,435,8.6211,43.975
238,589,8.5907,-43.4474,0,0,0,0,0,0,0,-1,1462,435,8.59073,43.4474
245,589,8.60803,-42.9912,0,0,0,0,0,0,0,-1,1469,435,8.60804,42.9912
252,589,8.6344,-42.5151,0.00279288,-0.00122681,-0.00233072,0.00386065,-0.00229458,-0.429595,0.00359186,0.0179667,1476,435,8.63437,42.5151
259,589,8.64575,-42.0902,0.00246955,-0.00131228,-0.00203779,0.00335859,-0.00220132,-0.411383,0.00323311,0.0102216,1483,435,8.64576,42.0902
266,589,8.64673,-41.6046,0.00223792,-0.0013916,-0.00178365,0.00296771,-0.00212139,-0.388377,0.00295171,0.0105862,1490,435,8.64672,41.6045
273,589,8.67126,-41.1562,0.00219742,-0.00118301,-0.00142185,0.00271593,-0.00170152,-0.349689,0.00257274,0.0133552,1497,435,8.67131,41.1562
280,589,8.68726,-40.6826,0.00220109,-0.000849539,-0.000981787,0.00248975,-0.0011382,-0.285954,0.0021425,0.0133632,1504,435,8.6873,40.6826
287,589,8.68274,-40.1793,0.00218151,-0.000354931,-0.000550279,0.00229575,-0.000469169,-0.204692,0.0017085,0.0113811,1511,435,8.68273,40.1793
294,589,8.68188,-39.6359,0.00209694,0.000302333,-7.10731e-05,0.00209975,0.000299523,-0.0395213,0.00131144,0.0108677,1518,435,8.68193,39.6359
301,589,8.68066,-39.0993,0.00195212,0.000985471,0.000406319,0.00210022,0.00083737,0.349529,0.00122083,0.0113734,1525,435,8.68062,39.0993
308,589,8.66968,-38.563,0.00182913,0.00156984,0.000843702,0.00255309,0.00084588,0.709164,0.00150173,0.0109841,1532,435,8.66968,38.563
315,589,8.64746,-38.0136,0.00163097,0.00232955,0.00124874,0.00327693,0.000683591,0.921771,0.00199616,0.0108435,1539,435,8.64748,38.0136
322,589,8.64722,-37.4563,0.00132164,0.00309011,0.00166127,0.00408781,0.000323941,1.02996,0.0026239,0.0120002,1546,435,8.64725,37.4563
329,589,8.63513,-36.9147,0.000987441,0.0037288,0.00204571,0.00482057,-0.000104333,1.08056,0.00324905,0.0107674,1553,435,8.63514,36.9147
336,589,8.60461,-36.3856,0.000675676,0.00441038,0.00246462,0.00563517,-0.000549113,1.10959,0.00395255,0.00991402,1560,435,8.60456,36.3856
343,589,8.58325,-35.8071,0.000336685,0.00510227,0.00283971,0.00642646,-0.000987496,1.13446,0.00464856,0.0111478,1567,435,8.58321,35.8071
350,589,8.54993,-35.1871,0.000144578,0.0061616,0.00344755,0.00772875,-0.00142258,1.14415,0.00568632,0.016742,1574,435,8.54992,35.1871
357,589,8.52588,-34.5695,1.73774e-06,0.00721649,0.00414336,0.00910281,-0.00188457,1.14358,0.00678454,0.0143371,1581,435,8.52589,34.5695
364,589,8.50073,-33.961,-0.00011872,0.00831576,0.00482525,0.010507,-0.00230992,1.14453,0.00788817,0.0116908,1588,435,8.5007,33.961
371,589,8.45996,-33.3619,-0.000194869,0.00958559,0.00551071,0.012063,-0.00267229,1.1483,0.00906503,0.0116929,1595,435,8.46001,33.3619
378,589,8.4176,-32.7426,-0.00037441,0.0110589,0.00604246,0.0136603,-0.00297591,1.16425,0.010244,0.0129026,1602,435,8.41755,32.7426
385,589,8.40173,-32.0886,-0.000677418,0.0124202,0.00616847,0.0148678,-0.00312511,1.19305,0.0111012,0.0214493,1609,435,8.4017,32.0886
392,589,8.36182,-31.286,-0.000794936,0.0133999,0.00612712,0.0156788,-0.00307381,1.21472,0.0116135,0.028243,1616,435,8.36178,31.286
399,589,8.37573,-30.4561,-0.000833522,0.0148603,0.00633952,0.0171012,-0.0030744,1.23103,0.0125517,0.0394121,1623,435,8.37572,30.4561
406,589,8.29565,-29.8419,0,0,0,0,0,0,0,-1,1630,435,8.29568,29.8419
413,589,5.61377,-19.0606,0,0,0,0,0,0,0,-1,1637,435,5.61372,19.0606
420,589,2.79724,-5.79956,0,0,0,0,0,0,0,-1,1644,435,2.7973,5.79955
427,589,7.58142,-28.3112,0,0,0,0,0,0,0,-1,1651,435,7.58144,28.3112
434,589,7.44006,-27.54,0,0,0,0,0,0,0,-1,1658,435,7.44008,27.54
441,589,7.71021,-26.4272,0,0,0,0,0,0,0,-1,1665,435,7.71023,26.4272
448,589,0.453735,-3.2868,0,0,0,0,0,0,0,-1,1672,435,0.453701,3.28681
455,589,0.664307,-3.46848,0,0,0,0,0,0,0,-1,1679,435,0.66425,3.46846
462,589,3.46716,-4.41891,0,0,0,0,0,0,0,-1,1686,435,3.4672,4.41891
469,589,0.0238037,-3.81497,0,0,0,0,0,0,0,-1,1693,435,0.0237965,3.81498
476,589,0,0,0,0,0,0,0,0,0,-1,1700,435,0,0
483,589,0,0,0,0,0,0,0,0,0,-1,1707,435,0,0
490,589,0,0,0,0,0,0,0,0,0,-1,1714,435,0,0
497,589,0,0,0,0,0,0,0,0,0,-1,1721,435,0,0
504,589,0,0,0,0,0,0,0,0,0,-1,1728,435,0,0
511,589,0,0,0,0,0,0,0,0,0,-1,1735,435,0,0
518,589,0,0,0,0,0,0,0,0,0,-1,1742,435,0,0
525,589,0,0,0,0,0,0,0,0,0,-1,1749,435,0,0
532,589,0,0,0,0,0,0,0,0,0,-1,1756,435,0,0
539,589,0,0,0,0,0,0,0,0,0,-1,1763,435,0,0
546,589,0,0,0,0,0,0,0,0,0,-1,1770,435,0,0
553,589,0,0,0,0,0,0,0,0,0,-1,1777,435,0,0
560,589,0,0,0,0,0,0,0,0,0,-1,1784,435,0,0
567,589,0,0,0,0,0,0,0,0,0,-1,1791,435,0,0
574,589,0,0,0,0,0,0,0,0,0,-1,1798,435,0,0
581,589,0,0,0,0,0,0,0,0,0,-1,1805,435,0,0
588,589,0,0,0,0,0,0,0,0,0,-1,1812,435,0,0
595,589,0,0,0,0,0,0,0,0,0,-1,1819,435,0,0
602,589,0,0,0,0,0,0,0,0,0,-1,1826,435,0,0
609,589,0,0,0,0,0,0,0,0,0,-1,1833,435,0,0
616,589,0,0,0,0,0,0,0,0,0,-1,1840,435,0,0
623,589,0,0,0,0,0,0,0,0,0,-1,1847,435,0,0
630,589,0,0,0,0,0,0,0,0,0,-1,1854,435,0,0
637,589,0,0,0,0,0,0,0,0,0,-1,1861,435,0,0
644,589,0,0,0,0,0,0,0,0,0,-1,1868,435,0,0
651,589,0,0,0,0,0,0,0,0,0,-1,1875,435,0,0
658,589,0,0,0,0,0,0,0,0,0,-1,1882,435,0,0
665,589,0,0,0,0,0,0,0,0,0,-1,1889,435,0,0
672,589,0,0,0,0,0,0,0,0,0,-1,1896,435,0,0
679,589,0,0,0,0,0,0,0,0,0,-1,1903,435,0,0
686,589,0,0,0,0,0,0,0,0,0,-1,1910,435,0,0
693,589,0,0,0,0,0,0,0,0,0,-1,1917,435,0,0
700,589,0,0,0,0,0,0,0,0,0,-1,1924,435,0,0
707,589,0,0,0,0,0,0,0,0,0,-1,1931,435,0,0
714,589,0,0,0,0,0,0,0,0,0,-1,1938,435,0,0
721,589,0,0,0,0,0,0,0,0,0,-1,1945,435,0,0
728,589,0,0,0,0,0,0,0,0,0,-1,1952,435,0,0
735,589,0,0,0,0,0,0,0,0,0,-1,1959,435,0,0
742,589,0,0,0,0,0,0,0,0,0,-1,1966,435,0,0
749,589,0,0,0,0,0,0,0,0,0,-1,1973,435,0,0
756,589,0,0,0,0,0,0,0,0,0,-1,1980,435,0,0
763,589,0,0,0,0,0,0,0,0,0,-1,1987,435,0,0
770,589,0,0,0,0,0,0,0,0,0,-1,1994,435,0,0
777,589,0,0,0,0,0,0,0,0,0,-1,2001,435,0,0
784,589,0,0,0,0,0,0,0,0,0,-1,2008,435,0,0
791,589,0,0,0,0,0,0,0,0,0,-1,2015,435,0,0
798,589,0,0,0,0,0,0,0,0,0,-1,2022,435,0,0
805,589,0,0,0,0,0,0,0,0,0,-1,2029,435,0,0
812,589,0,0,0,0,0,0,0,0,0,-1,2036,435,0,0
-700,582,0,0,0,0,0,0,0,0,0,-1,524,442,0,0
-693,582,0,0,0,0,0,0,0,0,0,-1,531,442,0,0
-686,582,0,0,0,0,0,0,0,0,0,-1,538,442,0,0
-679,582,0,0,0,0,0,0,0,0,0,-1,545,442,0,0
-672,582,0,0,0,0,0,0,0,0,0,-1,552,442,0,0
-665,582,0,0,0,0,0,0,0,0,0,-1,559,442,0,0
-658,582,0,0,0,0,0,0,0,0,0,-1,566,442,0,0
-651,582,0,0,0,0,0,0,0,0,0,-1,573,442,0,0
-644,582,0,0,0,0,0,0,0,0,0,-1,580,442,0,0
-637,582,0,0,0,0,0,0,0,0,0,-1,587,442,0,0
-630,582,0,0,0,0,0,0,0,0,0,-1,594,442,0,0
-623,582,0,0,0,0,0,0,0,0,0,-1,601,442,0,0
-616,582,0,0,0,0,0,0,0,0,0,-1,608,442,0,0
-609,582,0,0,0,0,0,0,0,0,0,-1,615,442,0,0
-602,582,0,0,0,0,0,0,0,0,0,-1,622,442,0,0
-595,582,0,0,0,0,0,0,0,0,0,-1,629,442,0,0
-588,582,0,0,0,0,0,0,0,0,0,-1,636,442,0,0
-581,582,0,0,0,0,0,0,0,0,0,-1,643,442,0,0
-574,582,0,0,0,0,0,0,0,0,0,-1,650,442,0,0
-567,582,0,0,0,0,0,0,0,0,0,-1,657,442,0,0
-560,582,0,0,0,0,0,0,0,0,0,-1,664,442,0,0
-553,582,0,0,0,0,0,0,0,0,0,-1,671,442,0,0
-546,582,0,0,0,0,0,0,0,0,0,-1,678,442,0,0
-539,582,0,0,0,0,0,0,0,0,0,-1,685,442,0,0
-532,582,0,0,0,0,0,0,0,0,0,-1,692,442,0,0
-525,582,0,0,0,0,0,0,0,0,0,-1,699,442,0,0
-518,582,0,0,0,0,0,0,0,0,0,-1,706,442,0,0
-511,582,0,0,0,0,0,0,0,0,0,-1,713,442,0,0
-504,582,0,0,0,0,0,0,0,0,0,-1,720,442,0,0
-497,582,0,0,0,0,0,0,0,0,0,-1,727,442,0,0
-490,582,0,0,0,0,0,0,0,0,0,-1,734,442,0,0
-483,582,0,0,0,0,0,0,0,0,0,-1,741,442,0,0
-476,582,0,0,0,0,0,0,0,0,0,-1,748,442,0,0
-469,582,0,0,0,0,0,0,0,0,0,-1,755,442,0,0
-462,582,0,0,0,0,0,0,0,0,0,-1,762,442,0,0
-455,582,0,0,0,0,0,0,0,0,0,-1,769,442,0,0
-448,582,0,0,0,0,0,0,0,0,0,-1,776,442,0,0
-441,582,0,0,0,0,0,0,0,0,0,-1,783,442,0,0
-434,582,0,0,0,0,0,0,0,0,0,-1,790,442,0,0
-427,582,0,0,0,0,0,0,0,0,0,-1,797,442,0,0
-420,582,0,0,0,0,0,0,0,0,0,-1,804,442,0,0
-413,582,0,0,0,0,0,0,0,0,0,-1,811,442,0,0
-406,582,0,0,0,0,0,0,0,0,0,-1,818,442,0,0
-399,582,0,0,0,0,0,0,0,0,0,-1,825,442,0,0
-392,582,0,0,0,0,0,0,0,0,0,-1,832,442,0,0
-385,582,0,0,0,0,0,0,0,0,0,-1,839,442,0,0
-378,582,0,0,0,0,0,0,0,0,0,-1,846,442,0,0
-371,582,0,0,0,0,0,0,0,0,0,-1,853,442,0,0
-364,582,0,0,0,0,0,0,0,0,0,-1,860,442,0,0
-357,582,-1.4903,-21.5295,0,0,0,0,0,0,0,-1,867,442,-1.49031,21.5295
-350,582,-0.880859,-19.7966,0,0,0,0,0,0,0,-1,874,442,-0.880885,19.7966
-343,582,0.939941,-19.1705,0,0,0,0,0,0,0,-1,881,442,0.939935,19.1705
-336,582,3.33929,-27.9479,0,0,0,0,0,0,0,-1,888,442,3.33928,27.9479
-329,582,3.63544,-26.4736,0,0,0,0,0,0,0,-1,895,442,3.63546,26.4736
-322,582,3.67145,-27.1796,0,0,0,0,0,0,0,-1,902,442,3.67143,27.1796
-315,582,3.90686,-27.6446,0,0,0,0,0,0,0,-1,909,442,3.90689,27.6446
-308,582,3.76154,-28.5574,-0.00963837,0.00978291,-0.000684728,0.00980702,-0.00966248,-1.5356,0.0112408,0.0490025,916,442,3.76157,28.5574
-301,582,3.73456,-29.3723,-0.00787276,0.0106962,-0.00265579,0.0110686,-0.00824514,-1.43149,0.0111904,0.0435616,923,442,3.73453,29.3723
-294,582,3.2146,-29.4376,-0.00728856,0.0109423,-0.00317976,0.011481,-0.00782724,-1.40298,0.0112139,0.0474531,930,442,3.21458,29.4376
-287,582,3.33386,-30.1614,-0.00681175,0.0113007,-0.00354722,0.0119706,-0.00748168,-1.38414,0.01133,0.0421122,937,442,3.33384,30.1614
-280,582,3.40771,-30.8581,-0.00604076,0.0120875,-0.00385384,0.0128728,-0.00682602,-1.36979,0.0115503,0.0196918,944,442,3.40774,30.8581
-273,582,3.38934,-31.5581,-0.00543701,0.0121754,-0.00420228,0.0131267,-0.00638828,-1.34818,0.0114887,0.0122764,951,442,3.38937,31.5581
-266,582,3.34198,-32.2137,-0.00500816,0.0117841,-0.0041135,0.0127377,-0.00596167,-1.34302,0.0110298,0.01126,958,442,3.34196,32.2137
-259,582,3.29218,-32.8453,-0.00433361,0.0111591,-0.00364382,0.0119734,-0.00514783,-1.35096,0.0101434,0.00885818,965,442,3.29218,32.8453
-252,582,3.25446,-33.4856,-0.00386169,0.010312,-0.00308947,0.0109561,-0.00450584,-1.36524,0.00918224,0.00809042,972,442,3.25448,33.4856
-245,582,3.24896,-34.0634,-0.00330473,0.0090839,-0.00268346,0.00964018,-0.003861,-1.36639,0.00802942,0.0118652,979,442,3.24899,34.0633
-238,582,3.2027,-34.6187,-0.00265791,0.007263,-0.00209263,0.00768633,-0.00308125,-1.37119,0.00640338,0.016937,986,442,3.20273,34.6187
-231,582,3.16705,-35.1967,-0.00204813,0.005441,-0.00156223,0.00575381,-0.00236094,-1.37317,0.00481963,0.0137531,993,442,3.16708,35.1967
-224,582,3.14563,-35.7936,-0.00132995,0.00361093,-0.00113106,0.00385754,-0.00157657,-1.35612,0.0032282,0.0112201,1000,442,3.14562,35.7936
-217,582,3.09821,-36.363,-0.000553477,0.00177293,-0.000778366,0.00200933,-0.00078988,-1.27593,0.00166646,0.0129082,1007,442,3.09821,36.363
-210,582,3.09943,-36.9073,0.000212526,-0.000213741,-0.000486798,0.000530805,-0.000532019,-0.579055,0.000613622,0.013566,1014,442,3.09944,36.9073
-203,582,3.10815,-37.4485,0.00101859,-0.00190212,-0.000238386,0.00103791,-0.00192145,-0.0809059,0.00173378,0.0112021,1021,442,3.1081,37.4485
-196,582,3.08972,-38.0245,0.00180241,-0.00307816,-0.000138141,0.00180632,-0.00308207,-0.0282741,0.00285417,0.0159774,1028,442,3.08969,38.0245
-189,582,3.06006,-38.5586,0.00252437,-0.00409112,-0.000189651,0.0025298,-0.00409655,-0.0286364,0.00386121,0.0222223,1035,442,3.06002,38.5586
-182,582,3.08643,-39.0593,0.00315381,-0.00499057,-0.000146597,0.00315644,-0.00499321,-0.017992,0.00474487,0.0163357,1042,442,3.08647,39.0593
-175,582,3.05591,-39.5264,0.0036844,-0.00612729,6.01368e-06,0.0036844,-0.00612729,0.00061291,0.00572301,0.0146588,1049,442,3.05591,39.5264
-168,582,3.05969,-40.0504,0.00401123,-0.00749457,0.000260575,0.00401713,-0.00750047,0.0226318,0.0067503,0.0121116,1056,442,3.05974,40.0503
-161,582,3.0813,-40.5248,0.00432206,-0.00835706,0.000426215,0.00433637,-0.00837137,0.033565,0.00745908,0.0140797,1063,442,3.08126,40.5248
-154,582,3.08643,-40.9931,0.0045881,-0.00927977,0.000713909,0.00462476,-0.00931642,0.0512986,0.00819947,0.0140109,1070,442,3.08642,40.9931
-147,582,3.10474,-41.4587,0.00477847,-0.0103198,0.0011491,0.00486543,-0.0104067,0.0755284,0.00900878,0.0123542,1077,442,3.10471,41.4587
-140,582,3.0835,-41.8804,0.00478084,-0.0118202,0.00184592,0.00498361,-0.012023,0.109412,0.0100953,0.0127485,1084,442,3.08348,41.8804
-133,582,3.13855,-42.3374,0.00465741,-0.0133666,0.00267159,0.00504506,-0.0137543,0.144097,0.0112353,0.0170658,1091,442,3.1386,42.3374
-126,582,3.16272,-42.6942,0.00459658,-0.0149186,0.00349143,0.00520241,-0.0155245,0.171811,0.0124515,0.016225,1098,442,3.1627,42.6942
-119,582,3.10645,-42.9898,0.00452903,-0.016552,0.00440656,0.00541306,-0.017436,0.197989,0.0137872,0.0210897,1105,442,3.1064,42.9898
-112,582,3.05432,-43.356,0,0,0,0,0,0,0,-1,1112,442,3.05433,43.356
-105,582,2.87219,-43.073,0,0,0,0,0,0,0,-1,1119,442,2.87217,43.073
-98,582,2.61938,-32.8673,0,0,0,0,0,0,0,-1,1126,442,2.61944,32.8673
-91,582,2.16492,-24.1119,0,0,0,0,0,0,0,-1,1133,442,2.16496,24.1119
-84,582,2.10278,-16.7533,0,0,0,0,0,0,0,-1,1140,442,2.10279,16.7533
-77,582,2.30212,-11.4907,0,0,0,0,0,0,0,-1,1147,442,2.30207,11.4907
-70,582,1.49255,-6.36548,0,0,0,0,0,0,0,-1,1154,442,1.49251,6.36549
-63,582,-4.62915,-4.0347,0,0,0,0,0,0,0,-1,1161,442,-4.6292,4.03471
-56,582,-5.81714,-5.24149,0,0,0,0,0,0,0,-1,1168,442,-5.81718,5.24149
-49,582,-3.88672,-10.1064,0,0,0,0,0,0,0,-1,1175,442,-3.88678,10.1064
-42,582,-0.948975,1.13968,0,0,0,0,0,0,0,-1,1182,442,-0.949003,-1.13969
-35,582,-2.58435,-3.86911,0,0,0,0,0,0,0,-1,1189,442,-2.58437,3.86912
-28,582,-0.825317,-3.45941,0,0,0,0,0,0,0,-1,1196,442,-0.825377,3.45942
-21,582,8.35901,-44.5225,0,0,0,0,0,0,0,-1,1203,442,8.35898,44.5225
-14,582,8.30896,-45.2775,0.0105081,-0.0543,-0.0395423,0.0292276,-0.0730195,-0.442145,0.0608104,0.0490237,1210,442,8.309,45.2775
-7,582,8.33044,-45.9802,0.00966424,-0.0513688,-0.0402696,0.029674,-0.0713785,-0.461159,0.059976,0.0486745,1217,442,8.3305,45.9802
0,582,8.1123,-47.0474,0,0,0,0,0,0,0,-1,1224,442,8.1123,47.0474
7,582,8.5769,-47.508,0,0,0,0,0,0,0,-1,1231,442,8.57693,47.508
14,582,8.79395,-47.9274,0,0,0,0,0,0,0,-1,1238,442,8.79399,47.9274
21,582,8.16602,-48.9999,0.00560871,-0.0315949,-0.041229,0.032238,-0.0582242,-0.573479,0.0529418,0.043445,1245,442,8.166,48.9999
28,582,7.84839,-48.5044,0.00505697,-0.025386,-0.0402829,0.0328983,-0.0532274,-0.604758,0.0501843,0.0442743,1252,442,7.84836,48.5044
35,582,7.93372,-48.5057,0,0,0,0,0,0,0,-1,1259,442,7.93373,48.5057
42,582,7.33337,-49.1386,0.00419886,-0.00913994,-0.0331135,0.0313079,-0.036249,-0.686023,0.0390388,0.0461879,1266,442,7.33343,49.1386
49,582,7.18835,-49.3323,0.00393332,-0.00300225,-0.0270944,0.027781,-0.0268499,-0.72175,0.0315427,0.0446026,1273,442,7.18841,49.3323
56,582,7.39111,-49.7307,0.00378955,0.00171436,-0.019489,0.0222685,-0.0167646,-0.758803,0.0226104,0.0436594,1280,442,7.39117,49.7308
63,582,7.59204,-49.972,0.00354657,0.0046453,-0.0110662,0.0151757,-0.00698387,-0.8102,0.013082,0.0419378,1287,442,7.59209,49.972
70,582,7.7356,-50.2293,0.00391209,0.00606536,-0.0027936,0.00798261,0.00199484,-0.969324,0.0047971,0.0450561,1294,442,7.73561,50.2293
77,582,7.8855,-50.5795,0.00401806,0.0060748,0.00638059,0.0115094,-0.0014165,0.865297,0.00818603,0.0479963,1301,442,7.88552,50.5795
84,582,8.08704,-50.4228,0.00434463,0.00408755,0.0153033,0.0195199,-0.0110877,0.781199,0.0178934,0.0471481,1308,442,8.08707,50.4228
91,582,8.17969,-50.4025,0.00515595,-0.00125161,0.0231679,0.0253405,-0.0214362,0.716691,0.0270379,0.0451796,1315,442,8.17971,50.4025
98,582,8.33081,-50.5998,0.00657906,-0.00737518,0.0299694,0.0303728,-0.0311689,0.671031,0.0355321,0.0451965,1322,442,8.33076,50.5998
105,582,8.30859,-50.5835,0.0089047,-0.0148679,0.0348148,0.0338064,-0.0397696,0.620895,0.0425256,0.0460644,1329,442,8.30863,50.5835
112,582,8.13281,-50.5735,0.0113778,-0.0225072,0.0382074,0.0362307,-0.0473601,0.576707,0.0484036,0.0461039,1336,442,8.13284,50.5736
119,582,8.00403,-50.4839,0,0,0,0,0,0,0,-1,1343,442,8.00406,50.4839
126,582,7.12024,-49.7182,0.0185424,-0.0369183,0.040764,0.040114,-0.0584898,0.486719,0.0572575,0.0492743,1350,442,7.1202,49.7182
133,582,7.10608,-49.2961,0.0227245,-0.0418816,0.0399453,0.0417938,-0.0609509,0.445392,0.0596624,0.0496385,1357,442,7.10609,49.2961
140,582,7.3031,-48.9806,0.0270147,-0.0471286,0.0389609,0.0437227,-0.0638367,0.40512,0.0624603,0.0442295,1364,442,7.30316,48.9806
147,582,7.37036,-48.6869,0.0315453,-0.0486192,0.0366475,0.0457735,-0.0628473,0.370332,0.06297,0.0443111,1371,442,7.37039,48.6869
154,582,7.63623,-48.5003,0.0349917,-0.0489286,0.034788,0.0475371,-0.061474,0.346109,0.0631088,0.045016,1378,442,7.63618,48.5003
161,582,7.89063,-48.3007,0,0,0,0,0,0,0,-1,1385,442,7.89067,48.3007
168,582,0.081665,-40.4535,0,0,0,0,0,0,0,-1,1392,442,0.0816215,40.4535
175,582,6.50549,-2.00424,0,0,0,0,0,0,0,-1,1399,442,6.50546,2.00425
182,582,5.18958,-2.18652,0,0,0,0,0,0,0,-1,1406,442,5.1896,2.18652
189,582,6.19751,-0.880951,0,0,0,0,0,0,0,-1,1413,442,6.19754,0.88096
196,582,4.87354,-2.22327,0,0,0,0,0,0,0,-1,1420,442,4.87348,2.22325
203,582,3.11401,-4.48257,0,0,0,0,0,0,0,-1,1427,442,3.11404,4.48259
210,582,2.93115,-11.0731,0,0,0,0,0,0,0,-1,1434,442,2.93113,11.0731
217,582,4.94092,-16.5476,0,0,0,0,0,0,0,-1,1441,442,4.94087,16.5476
224,582,5.21008,-20.9908,0,0,0,0,0,0,0,-1,1448,442,5.21006,20.9908
231,582,5.70032,-25.622,0,0,0,0,0,0,0,-1,1455,442,5.70026,25.6221
238,582,6.44189,-30.7028,0,0,0,0,0,0,0,-1,1462,442,6.44195,30.7028
245,582,9.36487,-43.2428,0,0,0,0,0,0,0,-1,1469,442,9.36486,43.2428
252,582,9.21655,-42.6312,0.00390603,-0.0017401,-0.00301287,0.00521177,-0.00304585,-0.408955,0.0048219,0.0441943,1476,442,9.21652,42.6312
259,582,9.12158,-42.076,0.00356758,-0.0023345,-0.00280569,0.00468846,-0.00345538,-0.380078,0.00471978,0.0224056,1483,442,9.12153,42.076
266,582,9.14355,-41.5873,0.00325883,-0.00286853,-0.00269899,0.00427813,-0.00388783,-0.361099,0.00471641,0.0134988,1490,442,9.14358,41.5873
273,582,9.18567,-41.1295,0.00313783,-0.0030243,-0.00244842,0.00399221,-0.00387868,-0.33574,0.00454442,0.0125289,1497,442,9.18562,41.1296
280,582,9.19678,-40.6713,0.00303689,-0.0029972,-0.00210978,0.00370139,-0.00366169,-0.305124,0.0042511,0.0121374,1504,442,9.19673,40.6712
287,582,9.20215,-40.1602,0.00288453,-0.00271539,-0.0018132,0.00342035,-0.00325122,-0.287336,0.00385224,0.0109535,1511,442,9.20218,40.1602
294,582,9.21423,-39.615,0.00268936,-0.00216682,-0.001413,0.00307057,-0.00254804,-0.263516,0.00324858,0.00940258,1518,442,9.21424,39.615
301,582,9.20947,-39.0682,0.00245575,-0.00152644,-0.000978449,0.00268317,-0.00175387,-0.228377,0.00258039,0.0102298,1525,442,9.20946,39.0682
308,582,9.20618,-38.5348,0.00225162,-0.00101562,-0.000597199,0.00235735,-0.00112135,-0.175238,0.00205026,0.0125702,1532,442,9.20623,38.5348
315,582,9.20154,-37.9963,0.00198568,-0.000258618,-0.000225281,0.00200807,-0.000281009,-0.0990624,0.00144154,0.0135604,1539,442,9.20156,37.9963
322,582,9.19104,-37.4478,0.00164578,0.000540291,0.000202928,0.00168186,0.000504218,0.175925,0.000996629,0.0112402,1546,442,9.19106,37.4478
329,582,9.18225,-36.9146,0.00128621,0.00125269,0.000608417,0.0018781,0.000660802,0.771632,0.00110007,0.010464,1553,442,9.1822,36.9146
336,582,9.17603,-36.3737,0.00097179,0.0020192,0.00105816,0.00267616,0.000314832,1.01519,0.00168897,0.0103587,1560,442,9.17605,36.3737
343,582,9.15955,-35.7644,0.000668131,0.0028376,0.00150432,0.00360749,-0.000101755,1.09777,0.00243962,0.0131014,1567,442,9.1596,35.7644
350,582,9.12756,-35.1462,0.000428012,0.00385766,0.0020732,0.00483333,-0.00054766,1.13093,0.00341943,0.016399,1574,442,9.12762,35.1462
357,582,9.10107,-34.5469,0.00025631,0.00488044,0.00272831,0.00614459,-0.00100784,1.1369,0.00447037,0.0144344,1581,442,9.10109,34.5469
364,582,9.07544,-33.9524,0.000119198,0.00593681,0.00338149,0.00748846,-0.00143245,1.14059,0.00553196,0.0114906,1588,442,9.07539,33.9524
371,582,9.04504,-33.3628,3.35906e-05,0.0070855,0.0040446,0.00892529,-0.00180619,1.1439,0.00663472,0.0160074,1595,442,9.04503,33.3628
378,582,8.99341,-32.755,-0.00015614,0.00833051,0.00455111,0.0103096,-0.00213523,1.16061,0.00768434,0.0165252,1602,442,8.9934,32.755
385,582,8.96973,-32.1172,-0.000413282,0.00946662,0.00472396,0.0113618,-0.00230845,1.18927,0.00844978,0.0115013,1609,442,8.96974,32.1173
392,582,8.92053,-31.4649,-0.000488066,0.010258,0.00477483,0.0120731,-0.00230311,1.20754,0.00891613,0.0101628,1616,442,8.92053,31.4649
399,582,8.87695,-30.8506,-0.000485699,0.0114051,0.00500444,0.0132309,-0.00231154,1.22096,0.00968353,0.0196382,1623,442,8.87696,30.8506
406,582,8.85876,-30.0282,-0.00071878,0.0122165,0.00494597,0.0138909,-0.00239319,1.24437,0.0101528,0.0376625,1630,442,8.85876,30.0282
413,582,8.66907,-29.508,0,0,0,0,0,0,0,-1,1637,442,8.66912,29.508
420,582,8.64099,-28.8357,0,0,0,0,0,0,0,-1,1644,442,8.641,28.8357
427,582,8.48804,-28.1596,-0.00289292,0.0110505,0.00175351,0.0112676,-0.00311006,1.44759,0.00873497,0.0482886,1651,442,8.48809,28.1596
434,582,8.3075,-27.5363,-0.00530146,0.0101148,-0.000881224,0.010165,-0.00535167,-1.51388,0.00910112,0.0471931,1658,442,8.30749,27.5363
441,582,8.1311,-26.9589,0,0,0,0,0,0,0,-1,1665,442,8.13115,26.9589
448,582,8.93579,-25.9024,0,0,0,0,0,0,0,-1,1672,442,8.93581,25.9024
455,582,6.4585,-19.4734,0,0,0,0,0,0,0,-1,1679,442,6.45854,19.4734
462,582,5.35022,-19.2616,0,0,0,0,0,0,0,-1,1686,442,5.35025,19.2616
469,582,6.28601,-21.5695,0,0,0,0,0,0,0,-1,1693,442,6.28597,21.5695
476,582,1.93579,-8.53891,0,0,0,0,0,0,0,-1,1700,442,1.93579,8.53892
483,582,0,0,0,0,0,0,0,0,0,-1,1707,442,0,0
490,582,0,0,0,0,0,0,0,0,0,-1,1714,442,0,0
497,582,0,0,0,0,0,0,0,0,0,-1,1721,442,0,0
504,582,0,0,0,0,0,0,0,0,0,-1,1728,442,0,0
511,582,0,0,0,0,0,0,0,0,0,-1,1735,442,0,0
518,582,0,0,0,0,0,0,0,0,0,-1,1742,442,0,0
525,582,0,0,0,0,0,0,0,0,0,-1,1749,442,0,0
532,582,0,0,0,0,0,0,0,0,0,-1,1756,442,0,0
539,582,0,0,0,0,0,0,0,0,0,-1,1763,442,0,0
546,582,0,0,0,0,0,0,0,0,0,-1,1770,442,0,0
553,582,0,0,0,0,0,0,0,0,0,-1,1777,442,0,0
560,582,0,0,0,0,0,0,0,0,0,-1,1784,442,0,0
567,582,0,0,0,0,0,0,0,0,0,-1,1791,442,0,0
574,582,0,0,0,0,0,0,0,0,0,-1,1798,442,0,0
581,582,0,0,0,0,0,0,0,0,0,-1,1805,442,0,0
588,582,0,0,0,0,0,0,0,0,0,-1,1812,442,0,0
595,582,0,0,0,0,0,0,0,0,0,-1,1819,442,0,0
602,582,0,0,0,0,0,0,0,0,0,-1,1826,442,0,0
609,582,0,0,0,0,0,0,0,0,0,-1,1833,442,0,0
616,582,0,0,0,0,0,0,0,0,0,-1,1840,442,0,0
623,582,0,0,0,0,0,0,0,0,0,-1,1847,442,0,0
630,582,0,0,0,0,0,0,0,0,0,-1,1854,442,0,0
637,582,0,0,0,0,0,0,0,0,0,-1,1861,442,0,0
644,582,0,0,0,0,0,0,0,0,0,-1,1868,442,0,0
651,582,0,0,0,0,0,0,0,0,0,-1,1875,442,0,0
658,582,0,0,0,0,0,0,0,0,0,-1,1882,442,0,0
665,582,0,0,0,0,0,0,0,0,0,-1,1889,442,0,0
672,582,0,0,0,0,0,0,0,0,0,-1,1896,442,0,0
679,582,0,0,0,0,0,0,0,0,0,-1,1903,442,0,0
686,582,0,0,0,0,0,0,0,0,0,-1,1910,442,0,0
693,582,0,0,0,0,0,0,0,0,0,-1,1917,442,0,0
700,582,0,0,0,0,0,0,0,0,0,-1,1924,442,0,0
707,582,0,0,0,0,0,0,0,0,0,-1,1931,442,0,0
714,582,0,0,0,0,0,0,0,0,0,-1,1938,442,0,0
721,582,0,0,0,0,0,0,0,0,0,-1,1945,442,0,0
728,582,0,0,0,0,0,0,0,0,0,-1,1952,442,0,0
735,582,0,0,0,0,0,0,0,0,0,-1,1959,442,0,0
742,582,0,0,0,0,0,0,0,0,0,-1,1966,442,0,0
749,582,0,0,0,0,0,0,0,0,0,-1,1973,442,0,0
756,582,0,0,0,0,0,0,0,0,0,-1,1980,442,0,0
763,582,0,0,0,0,0,0,0,0,0,-1,1987,442,0,0
770,582,0,0,0,0,0,0,0,0,0,-1,1994,442,0,0
777,582,0,0,0,0,0,0,0,0,0,-1,2001,442,0,0
784,582,0,0,0,0,0,0,0,0,0,-1,2008,442,0,0
791,582,0,0,0,0,0,0,0,0,0,-1,2015,442,0,0
798,582,0,0,0,0,0,0,0,0,0,-1,2022,442,0,0
805,582,0,0,0,0,0,0,0,0,0,-1,2029,442,0,0
812,582,0,0,0,0,0,0,0,0,0,-1,2036,442,0,0
-700,575,0,0,0,0,0,0,0,0,0,-1,524,449,0,0
-693,575,0,0,0,0,0,0,0,0,0,-1,531,449,0,0
-686,575,0,0,0,0,0,0,0,0,0,-1,538,449,0,0
-679,575,0,0,0,0,0,0,0,0,0,-1,545,449,0,0
-672,575,0,0,0,0,0,0,0,0,0,-1,552,449,0,0
-665,575,0,0,0,0,0,0,0,0,0,-1,559,449,0,0
-658,575,0,0,0,0,0,0,0,0,0,-1,566,449,0,0
-651,575,0,0,0,0,0,0,0,0,0,-1,573,449,0,0
-644,575,0,0,0,0,0,0,0,0,0,-1,580,449,0,0
-637,575,0,0,0,0,0,0,0,0,0,-1,587,449,0,0
-630,575,0,0,0,0,0,0,0,0,0,-1,594,449,0,0
-623,575,0,0,0,0,0,0,0,0,0,-1,601,449,0,0
-616,575,0,0,0,0,0,0,0,0,0,-1,608,449,0,0
-609,575,0,0,0,0,0,0,0,0,0,-1,615,449,0,0
-602,575,0,0,0,0,0,0,0,0,0,-1,622,449,0,0
-595,575,0,0,0,0,0,0,0,0,0,-1,629,449,0,0
-588,575,0,0,0,0,0,0,0,0,0,-1,636,449,0,0
-581,575,0,0,0,0,0,0,0,0,0,-1,643,449,0,0
-574,575,0,0,0,0,0,0,0,0,0,-1,650,449,0,0
-567,575,0,0,0,0,0,0,0,0,0,-1,657,449,0,0
-560,575,0,0,0,0,0,0,0,0,0,-1,664,449,0,0
-553,575,0,0,0,0,0,0,0,0,0,-1,671,449,0,0
-546,575,0,0,0,0,0,0,0,0,0,-1,678,449,0,0
-539,575,0,0,0,0,0,0,0,0,0,-1,685,449,0,0
-532,575,0,0,0,0,0,0,0,0,0,-1,692,449,0,0
-525,575,0,0,0,0,0,0,0,0,0,-1,699,449,0,0
-518,575,0,0,0,0,0,0,0,0,0,-1,706,449,0,0
-511,575,0,0,0,0,0,0,0,0,0,-1,713,449,0,0
-504,575,0,0,0,0,0,0,0,0,0,-1,720,449,0,0
-497,575,0,0,0,0,0,0,0,0,0,-1,727,449,0,0
-490,575,0,0,0,0,0,0,0,0,0,-1,734,449,0,0
-483,575,0,0,0,0,0,0,0,0,0,-1,741,449,0,0
-476,575,0,0,0,0,0,0,0,0,0,-1,748,449,0,0
-469,575,0,0,0,0,0,0,0,0,0,-1,755,449,0,0
-462,575,0,0,0,0,0,0,0,0,0,-1,762,449,0,0
-455,575,0,0,0,0,0,0,0,0,0,-1,769,449,0,0
-448,575,0,0,0,0,0,0,0,0,0,-1,776,449,0,0
-441,575,0,0,0,0,0,0,0,0,0,-1,783,449,0,0
-434,575,0,0,0,0,0,0,0,0,0,-1,790,449,0,0
-427,575,0,0,0,0,0,0,0,0,0,-1,797,449,0,0
-420,575,0,0,0,0,0,0,0,0,0,-1,804,449,0,0
-413,575,0,0,0,0,0,0,0,0,0,-1,811,449,0,0
-406,575,0,0,0,0,0,0,0,0,0,-1,818,449,0,0
-399,575,0,0,0,0,0,0,0,0,0,-1,825,449,0,0
-392,575,0,0,0,0,0,0,0,0,0,-1,832,449,0,0
-385,575,0,0,0,0,0,0,0,0,0,-1,839,449,0,0
-378,575,0,0,0,0,0,0,0,0,0,-1,846,449,0,0
-371,575,0.56897,-3.52304,0,0,0,0,0,0,0,-1,853,449,0.568955,3.52306
-364,575,1.49805,-4.67191,0,0,0,0,0,0,0,-1,860,449,1.49803,4.6719
-357,575,3.15521,-8.29892,0,0,0,0,0,0,0,-1,867,449,3.15521,8.29891
-350,575,-0.825928,-18.5347,0,0,0,0,0,0,0,-1,874,449,-0.825948,18.5347
-343,575,0.465393,-16.3569,0,0,0,0,0,0,0,-1,881,449,0.465397,16.3569
-336,575,3.1994,-17.5725,0,0,0,0,0,0,0,-1,888,449,3.19941,17.5725
-329,575,3.61749,-26.3072,0,0,0,0,0,0,0,-1,895,449,3.61748,26.3072
-322,575,3.57721,-26.9693,0,0,0,0,0,0,0,-1,902,449,3.57721,26.9693
-315,575,3.32281,-27.5567,-0.00881437,0.00943313,0.000494282,0.00944651,-0.00882774,1.54374,0.0105527,0.0476568,909,449,3.32284,27.5567
-308,575,2.96399,-28.3319,-0.00758403,0.0092119,-0.0010028,0.00927156,-0.00764369,-1.51137,0.00978109,0.0487889,916,449,2.96397,28.332
-301,575,2.97314,-28.9855,-0.00627327,0.00908311,-0.00227649,0.00941348,-0.00660363,-1.42668,0.0092948,0.0354614,923,449,2.97312,28.9855
-294,575,2.88971,-29.6456,-0.00558535,0.00889383,-0.00271107,0.0093848,-0.00607632,-1.39164,0.00899435,0.0266362,930,449,2.88971,29.6456
-287,575,2.85059,-30.3152,-0.00501729,0.00890982,-0.00298165,0.00952131,-0.00562878,-1.36852,0.00884262,0.0203886,937,449,2.85057,30.3152
-280,575,2.83405,-30.9411,-0.0042843,0.00919494,-0.00318526,0.00990974,-0.0049991,-1.35005,0.00876188,0.0150151,944,449,2.83403,30.9411
-273,575,2.81024,-31.5983,-0.00372684,0.00902402,-0.00340748,0.00987749,-0.00458031,-1.32537,0.00853193,0.0120342,951,449,2.81023,31.5983
-266,575,2.79181,-32.2142,-0.00329753,0.00848762,-0.00327215,0.00933518,-0.00414509,-1.31734,0.0079728,0.0135394,958,449,2.79182,32.2142
-259,575,2.72699,-32.8325,-0.00267413,0.00773847,-0.00278423,0.0084362,-0.00337185,-1.32525,0.00702327,0.0128852,965,449,2.72696,32.8325
-252,575,2.6524,-33.4389,-0.00223334,0.00674759,-0.00217734,0.00724762,-0.00273338,-1.34506,0.00595576,0.0113839,972,449,2.65242,33.4389
-245,575,2.63226,-34.0346,-0.00173949,0.00543069,-0.00168939,0.0058088,-0.00211759,-1.35061,0.00473882,0.0149015,979,449,2.63227,34.0346
-238,575,2.61359,-34.6227,-0.00115518,0.0035282,-0.00103704,0.00374756,-0.00137454,-1.36235,0.0030612,0.0156764,986,449,2.61358,34.6227
-231,575,2.61078,-35.1772,-0.000597632,0.00155948,-0.000421797,0.00163903,-0.000677176,-1.3844,0.00137516,0.0135612,993,449,2.61077,35.1772
-224,575,2.58716,-35.7539,5.84426e-05,-0.000456023,9.08401e-05,7.40112e-05,-0.000471592,0.169736,0.000341747,0.0130809,1000,449,2.58715,35.7539
-217,575,2.56226,-36.3323,0.000767793,-0.00246534,0.000513887,0.000847506,-0.00254506,0.153893,0.00203879,0.0111903,1007,449,2.56226,36.3323
-210,575,2.58875,-36.8857,0.00147511,-0.00453125,0.000821189,0.00158536,-0.00464149,0.133458,0.00373662,0.00981812,1014,449,2.58873,36.8857
-203,575,2.57202,-37.4343,0.00226957,-0.00627141,0.0010301,0.00239205,-0.00639389,0.118346,0.00524503,0.0134779,1021,449,2.57204,37.4343
-196,575,2.52271,-37.9847,0.00311903,-0.00742589,0.00100665,0.00321427,-0.00752113,0.0943279,0.00636218,0.0171788,1028,449,2.52266,37.9847
-189,575,2.51819,-38.5143,0.00383088,-0.00846316,0.000893254,0.00389544,-0.00852773,0.0721525,0.00733684,0.0176024,1035,449,2.51821,38.5143
-182,575,2.52991,-39.0149,0.00450533,-0.00921173,0.000783277,0.00454991,-0.00925631,0.056856,0.00812394,0.015501,1042,449,2.52987,39.0149
-175,575,2.56323,-39.4975,0.00516014,-0.0101022,0.000742817,0.00519621,-0.0101383,0.048517,0.00900534,0.0127495,1049,449,2.56327,39.4975
-168,575,2.52686,-40.0027,0.00558,-0.0113359,0.000816128,0.00561929,-0.0113751,0.0480974,0.00999756,0.0117714,1056,449,2.52684,40.0027
-161,575,2.55396,-40.491,0.00594699,-0.0119908,0.000797562,0.00598238,-0.0120261,0.0443462,0.0105906,0.0168988,1063,449,2.55392,40.491
-154,575,2.59424,-40.9646,0.00626383,-0.0126865,0.00094152,0.0063105,-0.0127332,0.049521,0.0112014,0.0171767,1070,449,2.59425,40.9646
-147,575,2.61133,-41.4011,0.00645944,-0.0135581,0.00131272,0.00654516,-0.0136438,0.0652064,0.0118938,0.0139533,1077,449,2.61138,41.4011
-140,575,2.59814,-41.7469,0.00633954,-0.0151293,0.00210809,0.00654458,-0.0153344,0.096959,0.0129672,0.0200932,1084,449,2.5982,41.7469
-133,575,2.6073,-41.9933,0.00601495,-0.0168545,0.00316084,0.00644378,-0.0172833,0.134845,0.0141673,0.0324462,1091,449,2.60728,41.9933
-126,575,2.63525,-42.1353,0.00572464,-0.0187942,0.00430463,0.00645842,-0.019528,0.16884,0.015623,0.0376938,1098,449,2.6352,42.1353
-119,575,2.52222,-42.1842,0.0053426,-0.0210657,0.00566306,0.00650577,-0.0222289,0.202578,0.0173981,0.0462655,1105,449,2.52218,42.1842
-112,575,2.55493,-42.6075,0,0,0,0,0,0,0,-1,1112,449,2.5549,42.6074
-105,575,2.18347,-36.5414,0,0,0,0,0,0,0,-1,1119,449,2.18351,36.5414
-98,575,1.521,-25.6961,0,0,0,0,0,0,0,-1,1126,449,1.52105,25.6961
-91,575,1.60803,-16.4247,0,0,0,0,0,0,0,-1,1133,449,1.60802,16.4247
-84,575,1.16553,-11.9056,0,0,0,0,0,0,0,-1,1140,449,1.16558,11.9056
-77,575,0.205078,-11.2584,0,0,0,0,0,0,0,-1,1147,449,0.205117,11.2584
-70,575,-4.2467,-1.78738,0,0,0,0,0,0,0,-1,1154,449,-4.24674,1.78739
-63,575,-4.52209,-3.48798,0,0,0,0,0,0,0,-1,1161,449,-4.5221,3.48796
-56,575,-5.5968,-5.4928,0,0,0,0,0,0,0,-1,1168,449,-5.59683,5.49281
-49,575,-5.96863,-7.17612,0,0,0,0,0,0,0,-1,1175,449,-5.96868,7.1761
-42,575,-0.830322,0.773499,0,0,0,0,0,0,0,-1,1182,449,-0.83038,-0.77351
-35,575,-0.62085,0.205139,0,0,0,0,0,0,0,-1,1189,449,-0.620855,-0.205126
-28,575,0.49292,-3.87988,0,0,0,0,0,0,0,-1,1196,449,0.492941,3.87989
-21,575,6.64917,-45.0462,0,0,0,0,0,0,0,-1,1203,449,6.64919,45.0462
-14,575,8.49097,-44.6641,0,0,0,0,0,0,0,-1,1210,449,8.49095,44.6641
-7,575,8.46704,-45.4742,0.0114608,-0.0620701,-0.0504314,0.0371055,-0.0877148,-0.470429,0.0740132,0.0476917,1217,449,8.46703,45.4743
0,575,8.45276,-46.3668,0,0,0,0,0,0,0,-1,1224,449,8.45278,46.3668
7,575,8.60144,-46.9698,0,0,0,0,0,0,0,-1,1231,449,8.60147,46.9698
14,575,8.69958,-47.3248,0.00793135,-0.0456172,-0.0503308,0.0381663,-0.0758521,-0.540952,0.0670165,0.0467407,1238,449,8.69962,47.3248
21,575,8.5127,-47.9032,0.0063783,-0.0379003,-0.0498656,0.0387984,-0.0703204,-0.57648,0.06387,0.0422968,1245,449,8.51266,47.9032
28,575,8.77844,-48.6179,0.00556677,-0.0302836,-0.0486075,0.039449,-0.0641658,-0.608748,0.0603867,0.0423501,1252,449,8.77839,48.6179
35,575,8.31714,-48.5945,0.00531548,-0.0196079,-0.0459877,0.0405,-0.0547924,-0.653086,0.055223,0.0418523,1259,449,8.31717,48.5945
42,575,7.7605,-49.0087,0.00453467,-0.0108907,-0.0406169,0.0381647,-0.0445207,-0.691571,0.0477854,0.0441791,1266,449,7.76055,49.0087
49,575,7.64136,-49.417,0.004267,-0.00371194,-0.033592,0.0341056,-0.0335506,-0.726294,0.0390618,0.0446783,1273,449,7.6414,49.417
56,575,7.58569,-49.7816,0.00415714,0.00188147,-0.0245963,0.0276419,-0.0216033,-0.762284,0.0285029,0.0456007,1280,449,7.5857,49.7816
63,575,7.52368,-50.2696,0.00393119,0.00522739,-0.0146552,0.0192488,-0.0100903,-0.807495,0.0172119,0.0451349,1287,449,7.52364,50.2696
70,575,7.51538,-50.5516,0.00431153,0.00685129,-0.00489136,0.0106349,0.000527891,-0.912403,0.0069207,0.0449089,1294,449,7.51543,50.5516
77,575,7.50378,-50.8401,0,0,0,0,0,0,0,-1,1301,449,7.50374,50.8401
84,575,6.7511,-50.1862,0.00460816,0.0050437,0.0163522,0.0211796,-0.0115277,0.792057,0.0191557,0.0457103,1308,449,6.75114,50.1862
91,575,6.85974,-49.9918,0.00552603,-0.000975873,0.0259649,0.0284427,-0.0238925,0.723119,0.0302538,0.0457956,1315,449,6.85972,49.9918
98,575,6.34094,-49.6807,0.00717612,-0.00793999,0.0342583,0.0347002,-0.035464,0.676827,0.0405101,0.0445762,1322,449,6.3409,49.6807
105,575,5.55969,-49.1325,0.00999552,-0.0164378,0.0401544,0.0390525,-0.0454947,0.62641,0.0488606,0.0432835,1329,449,5.55972,49.1325
112,575,5.07983,-48.4875,0.0130886,-0.0253137,0.0443339,0.0422008,-0.0544259,0.581041,0.0559361,0.0478191,1336,449,5.07984,48.4876
119,575,5.8324,-49.2925,0.0172114,-0.0339997,0.0468681,0.0450123,-0.0618007,0.535387,0.061922,0.0448298,1343,449,5.83237,49.2925
126,575,6.1427,-48.9857,0.0223412,-0.0418094,0.0476551,0.0477101,-0.0671782,0.489186,0.0666475,0.0479226,1350,449,6.14273,48.9857
133,575,6.39734,-48.6025,0.0279973,-0.0476093,0.0468893,0.0504244,-0.0700364,0.446136,0.0698547,0.0477929,1357,449,6.3973,48.6025
140,575,6.69775,-48.3092,0.0339057,-0.0532089,0.0460256,0.0537171,-0.0730203,0.406472,0.0734542,0.0449944,1364,449,6.69772,48.3092
147,575,7.12097,-48.1086,0.0400121,-0.0544523,0.0438686,0.0572418,-0.071682,0.374246,0.0745897,0.0454362,1371,449,7.12101,48.1086
154,575,7.63074,-47.8758,0.0445411,-0.0546175,0.0422769,0.0601188,-0.0701953,0.353033,0.0753118,0.0461667,1378,449,7.63078,47.8758
161,575,8.14148,-47.6451,0,0,0,0,0,0,0,-1,1385,449,8.14149,47.6451
168,575,7.5509,-35.3165,0,0,0,0,0,0,0,-1,1392,449,7.5509,35.3165
175,575,4.32617,1.93634,0,0,0,0,0,0,0,-1,1399,449,4.32612,-1.93634
182,575,6.3147,-2.88345,0,0,0,0,0,0,0,-1,1406,449,6.31466,2.88346
189,575,6.10449,-1.30817,0,0,0,0,0,0,0,-1,1413,449,6.10455,1.30817
196,575,5.79895,0.818359,0,0,0,0,0,0,0,-1,1420,449,5.79895,-0.81837
203,575,3.29724,-1.46378,0,0,0,0,0,0,0,-1,1427,449,3.29722,1.46377
210,575,2.32739,-7.74503,0,0,0,0,0,0,0,-1,1434,449,2.32741,7.74502
217,575,3.33618,-11.5521,0,0,0,0,0,0,0,-1,1441,449,3.3362,11.5521
224,575,5.51709,-16.3903,0,0,0,0,0,0,0,-1,1448,449,5.51713,16.3903
231,575,5.48572,-20.4595,0,0,0,0,0,0,0,-1,1455,449,5.48571,20.4595
238,575,5.33484,-22.3575,0,0,0,0,0,0,0,-1,1462,449,5.33478,22.3575
245,575,5.59741,-23.513,0,0,0,0,0,0,0,-1,1469,449,5.5974,23.513
252,575,9.797,-42.9397,0,0,0,0,0,0,0,-1,1476,449,9.79697,42.9397
259,575,9.6687,-41.9583,0,0,0,0,0,0,0,-1,1483,449,9.66872,41.9583
266,575,9.6781,-41.5457,0.00410646,-0.00339572,-0.00348225,0.00547365,-0.0047629,-0.374125,0.00591482,0.0387509,1490,449,9.67816,41.5457
273,575,9.69153,-41.1466,0.00409245,-0.00402001,-0.0032884,0.00525796,-0.00518552,-0.340616,0.00602959,0.0292198,1497,449,9.69158,41.1466
280,575,9.75549,-40.5958,0.00403918,-0.00440227,-0.00300481,0.00499952,-0.00536261,-0.30934,0.0059838,0.02492,1504,449,9.75546,40.5958
287,575,9.7019,-40.1655,0.00384577,-0.00438696,-0.00283177,0.00472575,-0.00526693,-0.30129,0.00577209,0.0200391,1511,449,9.70187,40.1655
294,575,9.73364,-39.6324,0.00359143,-0.00399534,-0.00250067,0.00434151,-0.00474542,-0.291414,0.00524807,0.0123933,1518,449,9.73361,39.6324
301,575,9.74744,-39.0709,0.00328271,-0.00346457,-0.00211062,0.00388853,-0.0040704,-0.279523,0.00459549,0.0102336,1525,449,9.74744,39.0709
308,575,9.76208,-38.5269,0.00297164,-0.00312657,-0.00181242,0.00346963,-0.00362456,-0.26815,0.00409616,0.0107524,1532,449,9.76212,38.5269
315,575,9.74902,-37.9868,0.00259493,-0.00246064,-0.0014991,0.00300602,-0.00287173,-0.267646,0.00339382,0.0110383,1539,449,9.74901,37.9869
322,575,9.74451,-37.4577,0.00217425,-0.00170733,-0.00108054,0.00245477,-0.00198785,-0.254007,0.00256967,0.0103985,1546,449,9.74446,37.4577
329,575,9.74731,-36.9055,0.00172657,-0.000976506,-0.000686409,0.00189089,-0.00114082,-0.234963,0.00176812,0.0107251,1553,449,9.74736,36.9055
336,575,9.73352,-36.3398,0.00132842,-0.000165119,-0.000248223,0.00136859,-0.000205292,-0.160453,0.000987959,0.0118089,1560,449,9.73347,36.3398
343,575,9.74023,-35.7302,0.000957172,0.000725025,0.000201717,0.00107383,0.000608369,0.524321,0.000621803,0.012299,1567,449,9.74022,35.7302
350,575,9.70801,-35.1158,0.000649598,0.00169746,0.00072984,0.00207196,0.000275104,1.09671,0.00129935,0.0118298,1574,449,9.70801,35.1158
357,575,9.6759,-34.5339,0.000441819,0.00269495,0.00134934,0.00332618,-0.000189418,1.13323,0.00228322,0.0113384,1581,449,9.67591,34.5339
364,575,9.65906,-33.9481,0.000288838,0.00373122,0.00198168,0.00463482,-0.000614765,1.14298,0.00331387,0.0106188,1588,449,9.65909,33.9481
371,575,9.64575,-33.3737,0.000207822,0.00479419,0.00263316,0.00599274,-0.000990734,1.14365,0.00436306,0.0201794,1595,449,9.64576,33.3738
378,575,9.61072,-32.7518,2.71059e-05,0.00587871,0.00313311,0.00723972,-0.0013339,1.161,0.00532707,0.0189279,1602,449,9.61068,32.7518
385,575,9.55969,-32.1069,-0.000171594,0.00687285,0.00337551,0.00822916,-0.00152791,1.18873,0.00605996,0.0110158,1609,449,9.55971,32.1069
392,575,9.52002,-31.4858,-0.000193449,0.00755101,0.00353008,0.00891859,-0.00156104,1.20119,0.00652858,0.00925432,1616,449,9.52001,31.4859
399,575,9.46118,-30.8862,-0.00013922,0.00850013,0.00379979,0.00993354,-0.00157263,1.21007,0.00720402,0.0102995,1623,449,9.46124,30.8862
406,575,9.44165,-30.1898,-0.000279332,0.00917147,0.00384869,0.0105405,-0.00164834,1.22905,0.00763597,0.0123804,1630,449,9.44159,30.1899
413,575,9.41077,-29.5004,-0.000690377,0.00950301,0.00362056,0.0106581,-0.00184546,1.26197,0.00779372,0.0157882,1637,449,9.41074,29.5004
420,575,9.34705,-28.8581,-0.00111705,0.00975814,0.00274791,0.010413,-0.00177194,1.33684,0.00760182,0.016282,1644,449,9.34708,28.8581
427,575,9.3064,-28.1411,-0.00195865,0.00856756,0.00189433,0.00889809,-0.00228918,1.39805,0.00682433,0.0186779,1651,449,9.30641,28.1411
434,575,9.18835,-27.5129,-0.00376418,0.00794925,7.74297e-05,0.00794976,-0.00376469,1.56419,0.00690571,0.0275784,1658,449,9.1884,27.5129
441,575,9.20911,-26.961,-0.00556464,0.0068048,-0.00180367,0.00706244,-0.00582228,-1.42891,0.00745047,0.0472058,1665,449,9.20909,26.961
448,575,9.52478,-25.8748,0,0,0,0,0,0,0,-1,1672,449,9.5248,25.8749
455,575,9.54468,-22.5141,0,0,0,0,0,0,0,-1,1679,449,9.54471,22.5141
462,575,7.12781,-21.7179,0,0,0,0,0,0,0,-1,1686,449,7.12778,21.7178
469,575,8.80627,-23.9187,0,0,0,0,0,0,0,-1,1693,449,8.80622,23.9187
476,575,9.05518,-24.3051,0,0,0,0,0,0,0,-1,1700,449,9.05512,24.3051
483,575,8.63013,-23.1145,0,0,0,0,0,0,0,-1,1707,449,8.63015,23.1145
490,575,7.62415,-24.9823,0,0,0,0,0,0,0,-1,1714,449,7.62419,24.9823
497,575,0,0,0,0,0,0,0,0,0,-1,1721,449,0,0
504,575,0,0,0,0,0,0,0,0,0,-1,1728,449,0,0
511,575,0,0,0,0,0,0,0,0,0,-1,1735,449,0,0
518,575,0,0,0,0,0,0,0,0,0,-1,1742,449,0,0
525,575,0,0,0,0,0,0,0,0,0,-1,1749,449,0,0
532,575,0,0,0,0,0,0,0,0,0,-1,1756,449,0,0
539,575,0,0,0,0,0,0,0,0,0,-1,1763,449,0,0
546,575,0,0,0,0,0,0,0,0,0,-1,1770,449,0,0
553,575,0,0,0,0,0,0,0,0,0,-1,1777,449,0,0
560,575,0,0,0,0,0,0,0,0,0,-1,1784,449,0,0
567,575,0,0,0,0,0,0,0,0,0,-1,1791,449,0,0
574,575,0,0,0,0,0,0,0,0,0,-1,1798,449,0,0
581,575,0,0,0,0,0,0,0,0,0,-1,1805,449,0,0
588,575,0,0,0,0,0,0,0,0,0,-1,1812,449,0,0
595,575,0,0,0,0,0,0,0,0,0,-1,1819,449,0,0
602,575,0,0,0,0,0,0,0,0,0,-1,1826,449,0,0
609,575,0,0,0,0,0,0,0,0,0,-1,1833,449,0,0
616,575,0,0,0,0,0,0,0,0,0,-1,1840,449,0,0
623,575,0,0,0,0,0,0,0,0,0,-1,1847,449,0,0
630,575,0,0,0,0,0,0,0,0,0,-1,1854,449,0,0
637,575,0,0,0,0,0,0,0,0,0,-1,1861,449,0,0
644,575,0,0,0,0,0,0,0,0,0,-1,1868,449,0,0
651,575,0,0,0,0,0,0,0,0,0,-1,1875,449,0,0
658,575,0,0,0,0,0,0,0,0,0,-1,1882,449,0,0
665,575,0,0,0,0,0,0,0,0,0,-1,1889,449,0,0
672,575,0,0,0,0,0,0,0,0,0,-1,1896,449,0,0
679,575,0,0,0,0,0,0,0,0,0,-1,1903,449,0,0
686,575,0,0,0,0,0,0,0,0,0,-1,1910,449,0,0
693,575,0,0,0,0,0,0,0,0,0,-1,1917,449,0,0
700,575,0,0,0,0,0,0,0,0,0,-1,1924,449,0,0
707,575,0,0,0,0,0,0,0,0,0,-1,1931,449,0,0
714,575,0,0,0,0,0,0,0,0,0,-1,1938,449,0,0
721,575,0,0,0,0,0,0,0,0,0,-1,1945,449,0,0
728,575,0,0,0,0,0,0,0,0,0,-1,1952,449,0,0
735,575,0,0,0,0,0,0,0,0,0,-1,1959,449,0,0
742,575,0,0,0,0,0,0,0,0,0,-1,1966,449,0,0
749,575,0,0,0,0,0,0,0,0,0,-1,1973,449,0,0
756,575,0,0,0,0,0,0,0,0,0,-1,1980,449,0,0
763,575,0,0,0,0,0,0,0,0,0,-1,1987,449,0,0
770,575,0,0,0,0,0,0,0,0,0,-1,1994,449,0,0
777,575,0,0,0,0,0,0,0,0,0,-1,2001,449,0,0
784,575,0,0,0,0,0,0,0,0,0,-1,2008,449,0,0
791,575,0,0,0,0,0,0,0,0,0,-1,2015,449,0,0
798,575,0,0,0,0,0,0,0,0,0,-1,2022,449,0,0
805,575,0,0,0,0,0,0,0,0,0,-1,2029,449,0,0
812,575,0,0,0,0,0,0,0,0,0,-1,2036,449,0,0
-700,568,0,0,0,0,0,0,0,0,0,-1,524,456,0,0
-693,568,0,0,0,0,0,0,0,0,0,-1,531,456,0,0
-686,568,0,0,0,0,0,0,0,0,0,-1,538,456,0,0
-679,568,0,0,0,0,0,0,0,0,0,-1,545,456,0,0
-672,568,0,0,0,0,0,0,0,0,0,-1,552,456,0,0
-665,568,0,0,0,0,0,0,0,0,0,-1,559,456,0,0
-658,568,0,0,0,0,0,0,0,0,0,-1,566,456,0,0
-651,568,0,0,0,0,0,0,0,0,0,-1,573,456,0,0
-644,568,0,0,0,0,0,0,0,0,0,-1,580,456,0,0
-637,568,0,0,0,0,0,0,0,0,0,-1,587,456,0,0
-630,568,0,0,0,0,0,0,0,0,0,-1,594,456,0,0
-623,568,0,0,0,0,0,0,0,0,0,-1,601,456,0,0
-616,568,0,0,0,0,0,0,0,0,0,-1,608,456,0,0
-609,568,0,0,0,0,0,0,0,0,0,-1,615,456,0,0
-602,568,0,0,0,0,0,0,0,0,0,-1,622,456,0,0
-595,568,0,0,0,0,0,0,0,0,0,-1,629,456,0,0
-588,568,0,0,0,0,0,0,0,0,0,-1,636,456,0,0
-581,568,0,0,0,0,0,0,0,0,0,-1,643,456,0,0
-574,568,0,0,0,0,0,0,0,0,0,-1,650,456,0,0
-567,568,0,0,0,0,0,0,0,0,0,-1,657,456,0,0
-560,568,0,0,0,0,0,0,0,0,0,-1,664,456,0,0
-553,568,0,0,0,0,0,0,0,0,0,-1,671,456,0,0
-546,568,0,0,0,0,0,0,0,0,0,-1,678,456,0,0
-539,568,0,0,0,0,0,0,0,0,0,-1,685,456,0,0
-532,568,0,0,0,0,0,0,0,0,0,-1,692,456,0,0
-525,568,0,0,0,0,0,0,0,0,0,-1,699,456,0,0
-518,568,0,0,0,0,0,0,0,0,0,-1,706,456,0,0
-511,568,0,0,0,0,0,0,0,0,0,-1,713,456,0,0
-504,568,0,0,0,0,0,0,0,0,0,-1,720,456,0,0
-497,568,0,0,0,0,0,0,0,0,0,-1,727,456,0,0
-490,568,0,0,0,0,0,0,0,0,0,-1,734,456,0,0
-483,568,0,0,0,0,0,0,0,0,0,-1,741,456,0,0
-476,568,0,0,0,0,0,0,0,0,0,-1,748,456,0,0
-469,568,0,0,0,0,0,0,0,0,0,-1,755,456,0,0
-462,568,0,0,0,0,0,0,0,0,0,-1,762,456,0,0
-455,568,0,0,0,0,0,0,0,0,0,-1,769,456,0,0
-448,568,0,0,0,0,0,0,0,0,0,-1,776,456,0,0
-441,568,0,0,0,0,0,0,0,0,0,-1,783,456,0,0
-434,568,0,0,0,0,0,0,0,0,0,-1,790,456,0,0
-427,568,0,0,0,0,0,0,0,0,0,-1,797,456,0,0
-420,568,0,0,0,0,0,0,0,0,0,-1,804,456,0,0
-413,568,0,0,0,0,0,0,0,0,0,-1,811,456,0,0
-406,568,0,0,0,0,0,0,0,0,0,-1,818,456,0,0
-399,568,0,0,0,0,0,0,0,0,0,-1,825,456,0,0
-392,568,0,0,0,0,0,0,0,0,0,-1,832,456,0,0
-385,568,0,0,0,0,0,0,0,0,0,-1,839,456,0,0
-378,568,0.321777,-7.29929,0,0,0,0,0,0,0,-1,846,456,0.321806,7.29927
-371,568,1.09595,-7.46707,0,0,0,0,0,0,0,-1,853,456,1.09597,7.46707
-364,568,1.87787,-7.61115,0,0,0,0,0,0,0,-1,860,456,1.87784,7.61116
-357,568,2.14166,-7.67645,0,0,0,0,0,0,0,-1,867,456,2.14167,7.67646
-350,568,2.7467,-11.2507,0,0,0,0,0,0,0,-1,874,456,2.7467,11.2507
-343,568,2.16516,-11.3762,0,0,0,0,0,0,0,-1,881,456,2.16514,11.3762
-336,568,2.63232,-25.7558,0,0,0,0,0,0,0,-1,888,456,2.6323,25.7558
-329,568,2.74878,-26.3098,-0.00825104,0.0145896,0.000855367,0.0146216,-0.00828303,1.53342,0.0133917,0.0499831,895,456,2.74876,26.3098
-322,568,2.72968,-26.8371,-0.00760256,0.0110366,0.000383186,0.0110445,-0.00761043,1.55025,0.0108311,0.0456173,902,456,2.72967,26.8371
-315,568,2.62292,-27.3961,-0.00673647,0.00930907,-0.000370311,0.00931761,-0.00674501,-1.54773,0.00931332,0.0413184,909,456,2.62294,27.3961
-308,568,2.42169,-28.3344,-0.00585818,0.00840199,-0.00118035,0.00849903,-0.00595522,-1.48877,0.00838814,0.035594,916,456,2.4217,28.3344
-301,568,2.37317,-29.037,-0.00486576,0.00765192,-0.00193039,0.00794285,-0.00515669,-1.42121,0.00761983,0.0206068,923,456,2.3732,29.037
-294,568,2.31384,-29.66,-0.00417301,0.00713392,-0.00220701,0.00754944,-0.00458853,-1.3847,0.00707702,0.0135197,930,456,2.31386,29.66
-287,568,2.27289,-30.3251,-0.00357516,0.00686925,-0.00235535,0.00737584,-0.00408175,-1.35894,0.00670556,0.0115664,937,456,2.27291,30.3251
-280,568,2.26257,-30.9947,-0.00289256,0.00674982,-0.00245052,0.00733685,-0.00347959,-1.33567,0.00637586,0.0111087,944,456,2.26257,30.9947
-273,568,2.22467,-31.6236,-0.00237441,0.00632141,-0.00253813,0.00700803,-0.00306103,-1.3066,0.00596039,0.0124179,951,456,2.2247,31.6236
-266,568,2.17841,-32.2153,-0.00193294,0.00559409,-0.00233762,0.00626099,-0.00259983,-1.29289,0.00525935,0.0120984,958,456,2.17843,32.2153
-259,568,2.14087,-32.8244,-0.00134784,0.00463879,-0.00182054,0.00514894,-0.00185799,-1.29758,0.00419155,0.013031,965,456,2.14087,32.8244
-252,568,2.08423,-33.4135,-0.000921551,0.00341194,-0.00115872,0.00370231,-0.00121192,-1.32526,0.00295618,0.01305,972,456,2.08422,33.4135
-245,568,2.05243,-33.9771,-0.00046358,0.00191609,-0.000586282,0.00205269,-0.000600182,-1.34188,0.00160634,0.0150524,979,456,2.05244,33.9771
-238,568,2.04919,-34.5731,9.06301e-05,-0.000146371,0.000129108,0.000147376,-0.000203116,0.414106,0.000203208,0.0137383,986,456,2.04919,34.5731
-231,568,2.01959,-35.1524,0.000640097,-0.00233474,0.000829232,0.000855629,-0.00255027,0.254291,0.00204592,0.0124066,993,456,2.01962,35.1524
-224,568,1.99213,-35.7182,0.00127697,-0.00460847,0.00142432,0.00160354,-0.00493504,0.225389,0.003935,0.0138663,1000,456,1.99212,35.7182
-217,568,2.00842,-36.2908,0.00195951,-0.00686093,0.00191743,0.0023583,-0.00725972,0.205058,0.00578833,0.0121443,1007,456,2.00843,36.2908
-210,568,2.02399,-36.8564,0.00265012,-0.00905812,0.00223061,0.00306069,-0.00946869,0.182024,0.00754261,0.0124004,1014,456,2.02399,36.8564
-203,568,2.0191,-37.4076,0.0034751,-0.0108945,0.00238155,0.00385953,-0.0112789,0.160037,0.00908333,0.0114936,1021,456,2.01908,37.4076
-196,568,2.02283,-37.9091,0.0044416,-0.0120366,0.00220457,0.00473144,-0.0123265,0.130724,0.0101686,0.01554,1028,456,2.02286,37.9092
-189,568,1.99121,-38.4208,0.00520644,-0.0130967,0.00197878,0.00541792,-0.0133082,0.106472,0.0111268,0.0150864,1035,456,1.99116,38.4208
-182,568,2.03247,-38.9799,0.00597825,-0.013688,0.00165908,0.00611723,-0.013827,0.0835747,0.0117981,0.0158456,1042,456,2.03245,38.9799
-175,568,2.07166,-39.4573,0.00682974,-0.014283,0.00134336,0.00691487,-0.0143681,0.063288,0.0125364,0.0154147,1049,456,2.07161,39.4573
-168,568,2.04517,-39.838,0.00741679,-0.0153127,0.00112478,0.00747232,-0.0153683,0.049325,0.0134471,0.0217272,1056,456,2.04512,39.838
-161,568,2.02466,-40.2931,0.00789659,-0.0157,0.000801677,0.00792379,-0.0157273,0.0339221,0.0139005,0.0321502,1063,456,2.02469,40.2931
-154,568,2.13721,-40.9095,0.00833504,-0.0160496,0.000673383,0.00835363,-0.0160681,0.0275871,0.0143325,0.0335976,1070,456,2.13716,40.9095
-147,568,2.23608,-41.393,0.00858065,-0.016646,0.000882306,0.00861148,-0.0166768,0.0349182,0.0148457,0.0346391,1077,456,2.23604,41.393
-140,568,2.31128,-41.7659,0.00831437,-0.0183104,0.001768,0.00843127,-0.0184272,0.0660182,0.0158607,0.0390802,1084,456,2.31131,41.7659
-133,568,2.33337,-42.0846,0.00770797,-0.020456,0.00314097,0.00805401,-0.0208021,0.109728,0.0171935,0.0424362,1091,456,2.33335,42.0846
-126,568,2.27478,-42.2638,0,0,0,0,0,0,0,-1,1098,456,2.27483,42.2638
-119,568,1.86377,-41.1783,0,0,0,0,0,0,0,-1,1105,456,1.86377,41.1782
-112,568,1.98242,-35.0942,0,0,0,0,0,0,0,-1,1112,456,1.98247,35.0942
-105,568,2.02454,-25.038,0,0,0,0,0,0,0,-1,1119,456,2.02459,25.038
-98,568,1.58618,-14.7874,0,0,0,0,0,0,0,-1,1126,456,1.58617,14.7874
-91,568,1.11621,-11.1853,0,0,0,0,0,0,0,-1,1133,456,1.11626,11.1853
-84,568,0.461792,-9.7959,0,0,0,0,0,0,0,-1,1140,456,0.461793,9.7959
-77,568,-1.13806,-8.57822,0,0,0,0,0,0,0,-1,1147,456,-1.13807,8.57821
-70,568,-4.09766,-1.42911,0,0,0,0,0,0,0,-1,1154,456,-4.09767,1.4291
-63,568,-5.92273,-3.70752,0,0,0,0,0,0,0,-1,1161,456,-5.92272,3.70751
-56,568,-5.24158,-6.01385,0,0,0,0,0,0,0,-1,1168,456,-5.24161,6.01386
-49,568,-5.24365,-8.33557,0,0,0,0,0,0,0,-1,1175,456,-5.24371,8.33557
-42,568,-0.664795,0.521973,0,0,0,0,0,0,0,-1,1182,456,-0.664829,-0.521984
-35,568,-0.153076,-1.67731,0,0,0,0,0,0,0,-1,1189,456,-0.153068,1.67731
-28,568,1.25439,-4.48798,0,0,0,0,0,0,0,-1,1196,456,1.2544,4.48797
-21,568,8.60168,-43.2733,0,0,0,0,0,0,0,-1,1203,456,8.60162,43.2733
-14,568,8.60205,-44.1437,0,0,0,0,0,0,0,-1,1210,456,8.60209,44.1437
-7,568,8.60828,-45.0063,0,0,0,0,0,0,0,-1,1217,456,8.60833,45.0063
0,568,8.55225,-45.8766,0,0,0,0,0,0,0,-1,1224,456,8.55221,45.8766
7,568,8.59668,-46.3555,0,0,0,0,0,0,0,-1,1231,456,8.59663,46.3555
14,568,8.60876,-46.722,0.0102926,-0.0546291,-0.0596885,0.045776,-0.0901125,-0.536348,0.0798351,0.0439472,1238,456,8.60874,46.722
21,568,8.56934,-47.165,0.00806365,-0.0453699,-0.0590436,0.0461537,-0.08346,-0.572936,0.0758587,0.0389025,1245,456,8.56937,47.165
28,568,8.73193,-47.8642,0.00686621,-0.036166,-0.0574652,0.0467112,-0.076011,-0.606267,0.0715237,0.0409422,1252,456,8.73196,47.8642
35,568,8.43701,-48.5093,0.00657841,-0.0236097,-0.0548434,0.048367,-0.0653982,-0.651112,0.0659273,0.043205,1259,456,8.43699,48.5093
42,568,8.23083,-48.9492,0.0056369,-0.013397,-0.0489403,0.045977,-0.053737,-0.689367,0.057628,0.044824,1266,456,8.23088,48.9492
49,568,8.08093,-49.4214,0,0,0,0,0,0,0,-1,1273,456,8.08098,49.4214
56,568,7.87927,-49.6937,0.00536317,0.00131224,-0.0306564,0.034061,-0.0273856,-0.752411,0.0355459,0.0460031,1280,456,7.87928,49.6937
63,568,7.65784,-50.588,0.00517906,0.00503802,-0.0192724,0.0243811,-0.014164,-0.783569,0.0225131,0.0456888,1287,456,7.65787,50.588
70,568,7.79956,-50.805,0.00553042,0.00692018,-0.00813336,0.0143883,-0.00193769,-0.828013,0.010299,0.0467563,1294,456,7.79962,50.805
77,568,7.95178,-50.9195,0,0,0,0,0,0,0,-1,1301,456,7.95179,50.9195
84,568,5.68665,-49.8394,0.00557623,0.00585746,0.0160027,0.0217202,-0.0102865,0.789792,0.018868,0.0453018,1308,456,5.6866,49.8394
91,568,5.60938,-49.6467,0.00653791,-0.000554206,0.0274064,0.0306267,-0.024643,0.721062,0.0319722,0.0423717,1315,456,5.60935,49.6467
98,568,5.43579,-49.5007,0.00832304,-0.00809435,0.0373167,0.0383233,-0.0380946,0.677136,0.0441199,0.0453528,1322,456,5.4358,49.5007
105,568,5.28528,-49.1331,0.0116026,-0.017329,0.0443743,0.0438095,-0.0495359,0.627832,0.0539268,0.0487858,1329,456,5.28533,49.1331
112,568,5.45239,-48.5984,0.0153307,-0.0272672,0.0494172,0.0478435,-0.05978,0.581926,0.0622637,0.0482823,1336,456,5.45241,48.5984
119,568,5.10413,-48.4669,0.0203798,-0.0368184,0.0526034,0.0516558,-0.0680944,0.536412,0.0693547,0.0460342,1343,456,5.10407,48.4669
126,568,5.14392,-47.8983,0,0,0,0,0,0,0,-1,1350,456,5.14391,47.8983
133,568,5.4314,-47.8614,0,0,0,0,0,0,0,-1,1357,456,5.43144,47.8614
140,568,5.79761,-47.6405,0,0,0,0,0,0,0,-1,1364,456,5.7976,47.6405
147,568,6.43396,-47.5221,0.0506997,-0.0585085,0.0505165,0.0704833,-0.0782921,0.373267,0.0859349,0.0490452,1371,456,6.43397,47.5221
154,568,7.05798,-47.2374,0.0567558,-0.0583475,0.0493868,0.0750411,-0.0766328,0.354598,0.0875706,0.0454045,1378,456,7.05794,47.2374
161,568,7.5957,-47.0878,0,0,0,0,0,0,0,-1,1385,456,7.59571,47.0878
168,568,-1.74231,-39.2641,0,0,0,0,0,0,0,-1,1392,456,-1.74226,39.2641
175,568,10.5151,0.747498,0,0,0,0,0,0,0,-1,1399,456,10.5152,-0.747501
182,568,6.35095,-3.63361,0,0,0,0,0,0,0,-1,1406,456,6.35093,3.63359
189,568,6.17493,-1.70911,0,0,0,0,0,0,0,-1,1413,456,6.17497,1.70911
196,568,6.04724,0.200836,0,0,0,0,0,0,0,-1,1420,456,6.04724,-0.200835
203,568,5.9281,2.08649,0,0,0,0,0,0,0,-1,1427,456,5.92812,-2.08648
210,568,1.46216,-2.50446,0,0,0,0,0,0,0,-1,1434,456,1.46219,2.50446
217,568,2.62366,-7.86703,0,0,0,0,0,0,0,-1,1441,456,2.62365,7.86704
224,568,3.43494,-12.1555,0,0,0,0,0,0,0,-1,1448,456,3.43492,12.1555
231,568,4.38245,-9.3205,0,0,0,0,0,0,0,-1,1455,456,4.38244,9.32048
238,568,5.88879,-20.7448,0,0,0,0,0,0,0,-1,1462,456,5.88876,20.7449
245,568,3.34387,-10.6774,0,0,0,0,0,0,0,-1,1469,456,3.34389,10.6774
252,568,3.56946,-9.28928,0,0,0,0,0,0,0,-1,1476,456,3.56948,9.28928
259,568,3.38843,-8.73068,0,0,0,0,0,0,0,-1,1483,456,3.38842,8.73068
266,568,10.2161,-41.5298,0,0,0,0,0,0,0,-1,1490,456,10.216,41.5298
273,568,10.1096,-41.2328,0,0,0,0,0,0,0,-1,1497,456,10.1097,41.2329
280,568,10.1436,-40.8267,0,0,0,0,0,0,0,-1,1504,456,10.1435,40.8267
287,568,10.287,-39.9886,0.00476402,-0.00599188,-0.00388341,0.00601957,-0.00724743,-0.312702,0.00767063,0.0471507,1511,456,10.287,39.9886
294,568,10.2662,-39.5169,0.004477,-0.00561313,-0.00356748,0.0056109,-0.00674702,-0.307745,0.00714489,0.0367656,1518,456,10.2662,39.5169
301,568,10.2574,-38.9981,0.00412501,-0.00508024,-0.00317529,0.00511403,-0.00606927,-0.301953,0.00646453,0.0215137,1525,456,10.2574,38.9981
308,568,10.2977,-38.4783,0.00371366,-0.00487189,-0.00294849,0.00462871,-0.00578694,-0.300922,0.00602586,0.0139895,1532,456,10.2977,38.4783
315,568,10.2917,-37.988,0.00323575,-0.00426729,-0.00268052,0.00409498,-0.00512652,-0.310201,0.00533513,0.00859333,1539,456,10.2917,37.988
322,568,10.3024,-37.4441,0.00274873,-0.00354527,-0.00226653,0.00347997,-0.00427651,-0.312084,0.00448607,0.00972282,1546,456,10.3024,37.4441
329,568,10.317,-36.871,0.00222029,-0.0027967,-0.00188915,0.00285209,-0.00342849,-0.322741,0.00363118,0.0107227,1553,456,10.317,36.871
336,568,10.3147,-36.2952,0.00173347,-0.00197018,-0.00147527,0.00224928,-0.00248599,-0.336349,0.00273505,0.011842,1560,456,10.3146,36.2952
343,568,10.3315,-35.7054,0.00128954,-0.00106588,-0.00104534,0.00168655,-0.00146289,-0.362963,0.00181986,0.0117538,1567,456,10.3315,35.7054
350,568,10.301,-35.129,0.0008825,-0.000212317,-0.000588707,0.00113898,-0.000468794,-0.410866,0.00095475,0.010446,1574,456,10.301,35.129
357,568,10.2684,-34.534,0.000605767,0.000712682,-1.07407e-05,0.00071375,0.000604699,-1.47166,0.00044397,0.00950694,1581,456,10.2684,34.534
364,568,10.2637,-33.9359,0.000396517,0.00169722,0.000597765,0.0019302,0.000163534,1.19915,0.0012359,0.0111543,1588,456,10.2637,33.9359
371,568,10.2363,-33.3166,0.000280658,0.0026648,0.00123256,0.00318743,-0.00024198,1.16975,0.00221004,0.0199018,1595,456,10.2363,33.3166
378,568,10.2084,-32.701,0.000107215,0.0036545,0.00175033,0.00437273,-0.000611019,1.18141,0.00313872,0.0187524,1602,456,10.2084,32.7011
385,568,10.1619,-32.1022,-4.15404e-05,0.00458156,0.00209037,0.00538657,-0.000846547,1.2032,0.00390394,0.00878733,1609,456,10.1618,32.1022
392,568,10.1187,-31.5013,-2.11288e-05,0.00521687,0.00237075,0.00613052,-0.000934778,1.20295,0.00443159,0.0105932,1616,456,10.1187,31.5013
399,568,10.0692,-30.9059,7.53224e-05,0.00605766,0.00270697,0.0071007,-0.000967709,1.20301,0.00508714,0.0181249,1623,456,10.0692,30.9059
406,568,10.079,-30.2202,1.4691e-05,0.00668269,0.00287816,0.00775316,-0.00105578,1.21472,0.00555425,0.0162846,1630,456,10.079,30.2201
413,568,10.0618,-29.5162,-0.0002693,0.00708982,0.00288074,0.00808335,-0.00126283,1.23868,0.00585542,0.01302,1637,456,10.0617,29.5162
420,568,10.0093,-28.8719,-0.000590372,0.0074125,0.00238073,0.00806717,-0.00124505,1.30244,0.00583756,0.0111627,1644,456,10.0092,28.8718
427,568,9.95911,-28.2016,-0.00124119,0.00659765,0.00191643,0.00704109,-0.00168463,1.34341,0.00534485,0.0137291,1651,456,9.95907,28.2016
434,568,9.96753,-27.4923,-0.002571,0.0062191,0.000719566,0.00627761,-0.00262952,1.48966,0.00528436,0.0199197,1658,456,9.96755,27.4923
441,568,9.95251,-26.8465,-0.00389634,0.00549867,-0.000450747,0.00552025,-0.00391791,-1.52297,0.00547524,0.0288806,1665,456,9.9525,26.8465
448,568,10.037,-25.9439,-0.00564372,0.00441283,-0.00190874,0.00476293,-0.00599381,-1.3894,0.00622394,0.0473022,1672,456,10.037,25.9439
455,568,10.0557,-24.9694,0,0,0,0,0,0,0,-1,1679,456,10.0557,24.9694
462,568,9.87439,-24.5735,0,0,0,0,0,0,0,-1,1686,456,9.87436,24.5735
469,568,9.52283,-24.0217,-0.0142868,-0.000682547,-0.00856404,0.00345204,-0.0184214,-1.12102,0.0135787,0.0485315,1693,456,9.52277,24.0217
476,568,9.51575,-23.9399,-0.0182433,-0.00324824,-0.0121659,0.00354482,-0.0250364,-1.06155,0.0179893,0.0475193,1700,456,9.5157,23.9399
483,568,8.8595,-23.1703,-0.0233519,-0.00438471,-0.0177927,0.00629403,-0.0340307,-1.03025,0.0250501,0.0491679,1707,456,8.8595,23.1702
490,568,9.28479,-23.2989,0,0,0,0,0,0,0,-1,1714,456,9.28475,23.2989
497,568,8.05774,-23.8365,0,0,0,0,0,0,0,-1,1721,456,8.05774,23.8365
504,568,0,0,0,0,0,0,0,0,0,-1,1728,456,0,0
511,568,0,0,0,0,0,0,0,0,0,-1,1735,456,0,0
518,568,0,0,0,0,0,0,0,0,0,-1,1742,456,0,0
525,568,0,0,0,0,0,0,0,0,0,-1,1749,456,0,0
532,568,0,0,0,0,0,0,0,0,0,-1,1756,456,0,0
539,568,0,0,0,0,0,0,0,0,0,-1,1763,456,0,0
546,568,0,0,0,0,0,0,0,0,0,-1,1770,456,0,0
553,568,0,0,0,0,0,0,0,0,0,-1,1777,456,0,0
560,568,0,0,0,0,0,0,0,0,0,-1,1784,456,0,0
567,568,0,0,0,0,0,0,0,0,0,-1,1791,456,0,0
574,568,0,0,0,0,0,0,0,0,0,-1,1798,456,0,0
581,568,0,0,0,0,0,0,0,0,0,-1,1805,456,0,0
588,568,0,0,0,0,0,0,0,0,0,-1,1812,456,0,0
595,568,0,0,0,0,0,0,0,0,0,-1,1819,456,0,0
602,568,0,0,0,0,0,0,0,0,0,-1,1826,456,0,0
609,568,0,0,0,0,0,0,0,0,0,-1,1833,456,0,0
616,568,0,0,0,0,0,0,0,0,0,-1,1840,456,0,0
623,568,0,0,0,0,0,0,0,0,0,-1,1847,456,0,0
630,568,0,0,0,0,0,0,0,0,0,-1,1854,456,0,0
637,568,0,0,0,0,0,0,0,0,0,-1,1861,456,0,0
644,568,0,0,0,0,0,0,0,0,0,-1,1868,456,0,0
651,568,0,0,0,0,0,0,0,0,0,-1,1875,456,0,0
658,568,0,0,0,0,0,0,0,0,0,-1,1882,456,0,0
665,568,0,0,0,0,0,0,0,0,0,-1,1889,456,0,0
672,568,0,0,0,0,0,0,0,0,0,-1,1896,456,0,0
679,568,0,0,0,0,0,0,0,0,0,-1,1903,456,0,0
686,568,0,0,0,0,0,0,0,0,0,-1,1910,456,0,0
693,568,0,0,0,0,0,0,0,0,0,-1,1917,456,0,0
700,568,0,0,0,0,0,0,0,0,0,-1,1924,456,0,0
707,568,0,0,0,0,0,0,0,0,0,-1,1931,456,0,0
714,568,0,0,0,0,0,0,0,0,0,-1,1938,456,0,0
721,568,0,0,0,0,0,0,0,0,0,-1,1945,456,0,0
728,568,0,0,0,0,0,0,0,0,0,-1,1952,456,0,0
735,568,0,0,0,0,0,0,0,0,0,-1,1959,456,0,0
742,568,0,0,0,0,0,0,0,0,0,-1,1966,456,0,0
749,568,0,0,0,0,0,0,0,0,0,-1,1973,456,0,0
756,568,0,0,0,0,0,0,0,0,0,-1,1980,456,0,0
763,568,0,0,0,0,0,0,0,0,0,-1,1987,456,0,0
770,568,0,0,0,0,0,0,0,0,0,-1,1994,456,0,0
777,568,0,0,0,0,0,0,0,0,0,-1,2001,456,0,0
784,568,0,0,0,0,0,0,0,0,0,-1,2008,456,0,0
791,568,0,0,0,0,0,0,0,0,0,-1,2015,456,0,0
798,568,0,0,0,0,0,0,0,0,0,-1,2022,456,0,0
805,568,0,0,0,0,0,0,0,0,0,-1,2029,456,0,0
812,568,0,0,0,0,0,0,0,0,0,-1,2036,456,0,0
-700,561,0,0,0,0,0,0,0,0,0,-1,524,463,0,0
-693,561,0,0,0,0,0,0,0,0,0,-1,531,463,0,0
-686,561,0,0,0,0,0,0,0,0,0,-1,538,463,0,0
-679,561,0,0,0,0,0,0,0,0,0,-1,545,463,0,0
-672,561,0,0,0,0,0,0,0,0,0,-1,552,463,0,0
-665,561,0,0,0,0,0,0,0,0,0,-1,559,463,0,0
-658,561,0,0,0,0,0,0,0,0,0,-1,566,463,0,0
-651,561,0,0,0,0,0,0,0,0,0,-1,573,463,0,0
-644,561,0,0,0,0,0,0,0,0,0,-1,580,463,0,0
-637,561,0,0,0,0,0,0,0,0,0,-1,587,463,0,0
-630,561,0,0,0,0,0,0,0,0,0,-1,594,463,0,0
-623,561,0,0,0,0,0,0,0,0,0,-1,601,463,0,0
-616,561,0,0,0,0,0,0,0,0,0,-1,608,463,0,0
-609,561,0,0,0,0,0,0,0,0,0,-1,615,463,0,0
-602,561,0,0,0,0,0,0,0,0,0,-1,622,463,0,0
-595,561,0,0,0,0,0,0,0,0,0,-1,629,463,0,0
-588,561,0,0,0,0,0,0,0,0,0,-1,636,463,0,0
-581,561,0,0,0,0,0,0,0,0,0,-1,643,463,0,0
-574,561,0,0,0,0,0,0,0,0,0,-1,650,463,0,0
-567,561,0,0,0,0,0,0,0,0,0,-1,657,463,0,0
-560,561,0,0,0,0,0,0,0,0,0,-1,664,463,0,0
-553,561,0,0,0,0,0,0,0,0,0,-1,671,463,0,0
-546,561,0,0,0,0,0,0,0,0,0,-1,678,463,0,0
-539,561,0,0,0,0,0,0,0,0,0,-1,685,463,0,0
-532,561,0,0,0,0,0,0,0,0,0,-1,692,463,0,0
-525,561,0,0,0,0,0,0,0,0,0,-1,699,463,0,0
-518,561,0,0,0,0,0,0,0,0,0,-1,706,463,0,0
-511,561,0,0,0,0,0,0,0,0,0,-1,713,463,0,0
-504,561,0,0,0,0,0,0,0,0,0,-1,720,463,0,0
-497,561,0,0,0,0,0,0,0,0,0,-1,727,463,0,0
-490,561,0,0,0,0,0,0,0,0,0,-1,734,463,0,0
-483,561,0,0,0,0,0,0,0,0,0,-1,741,463,0,0
-476,561,0,0,0,0,0,0,0,0,0,-1,748,463,0,0
-469,561,0,0,0,0,0,0,0,0,0,-1,755,463,0,0
-462,561,0,0,0,0,0,0,0,0,0,-1,762,463,0,0
-455,561,0,0,0,0,0,0,0,0,0,-1,769,463,0,0
-448,561,0,0,0,0,0,0,0,0,0,-1,776,463,0,0
-441,561,0,0,0,0,0,0,0,0,0,-1,783,463,0,0
-434,561,0,0,0,0,0,0,0,0,0,-1,790,463,0,0
-427,561,0,0,0,0,0,0,0,0,0,-1,797,463,0,0
-420,561,0,0,0,0,0,0,0,0,0,-1,804,463,0,0
-413,561,0,0,0,0,0,0,0,0,0,-1,811,463,0,0
-406,561,0,0,0,0,0,0,0,0,0,-1,818,463,0,0
-399,561,0,0,0,0,0,0,0,0,0,-1,825,463,0,0
-392,561,4.92407,-2.54578,0,0,0,0,0,0,0,-1,832,463,4.92408,2.54576
-385,561,5.55634,-1.02338,0,0,0,0,0,0,0,-1,839,463,5.55634,1.02338
-378,561,0.160522,-4.51785,0,0,0,0,0,0,0,-1,846,463,0.160542,4.51785
-371,561,1.06299,-7.56818,0,0,0,0,0,0,0,-1,853,463,1.06297,7.56817
-364,561,1.45264,-7.57684,0,0,0,0,0,0,0,-1,860,463,1.45264,7.57684
-357,561,0.948242,-12.2803,0,0,0,0,0,0,0,-1,867,463,0.948262,12.2803
-350,561,1.33124,-11.9406,0,0,0,0,0,0,0,-1,874,463,1.33127,11.9406
-343,561,1.13214,-14.1837,0,0,0,0,0,0,0,-1,881,463,1.13217,14.1837
-336,561,1.72412,-26.0109,0,0,0,0,0,0,0,-1,888,463,1.72413,26.0109
-329,561,1.73657,-26.5615,-0.0058592,0.0141777,-0.00102754,0.0142302,-0.00591175,-1.51969,0.011955,0.044886,895,463,1.73657,26.5615
-322,561,1.7406,-26.9175,-0.00553886,0.0107521,-0.000804414,0.0107917,-0.00557849,-1.52158,0.00960976,0.037773,902,463,1.74058,26.9175
-315,561,1.9101,-27.417,-0.00496971,0.00873549,-0.000955013,0.00880172,-0.00503594,-1.50156,0.00808719,0.0263193,909,463,1.91011,27.417
-308,561,1.84637,-28.2168,-0.00435539,0.00745665,-0.00125965,0.00758949,-0.00448822,-1.46573,0.00704928,0.0223447,916,463,1.84638,28.2168
-301,561,1.77631,-29.0408,-0.00360934,0.00634313,-0.00160948,0.00659694,-0.00386314,-1.41439,0.0061075,0.0147647,923,463,1.77628,29.0408
-294,561,1.71234,-29.6941,-0.00297118,0.00558842,-0.00170223,0.00591452,-0.00329728,-1.38152,0.00538951,0.0114592,930,463,1.71237,29.6941
-287,561,1.6684,-30.3255,-0.00239125,0.00509518,-0.00171079,0.0054676,-0.00276367,-1.35645,0.00483704,0.0103451,937,463,1.6684,30.3255
-280,561,1.63373,-30.981,-0.00178453,0.00463528,-0.00168355,0.00504999,-0.00219924,-1.32927,0.00429186,0.0127578,944,463,1.63374,30.9811
-273,561,1.58466,-31.5897,-0.00131235,0.00394846,-0.00161897,0.00440676,-0.00177065,-1.29493,0.00367318,0.0150341,951,463,1.58468,31.5897
-266,561,1.55579,-32.1742,-0.000851601,0.00300024,-0.00133049,0.00341513,-0.00126649,-1.26852,0.00279621,0.010188,958,463,1.55578,32.1742
-259,561,1.55231,-32.8031,-0.000295751,0.00178072,-0.000769768,0.00203496,-0.000549984,-1.2518,0.00157236,0.0110658,965,463,1.55229,32.8031
-252,561,1.51978,-33.3867,0.000131543,0.000251449,-4.80143e-05,0.000268306,0.000114686,-1.23316,0.000155449,0.015014,972,463,1.51976,33.3867
-245,561,1.48047,-33.9514,0.000579442,-0.00149683,0.000614677,0.00074777,-0.00166516,0.267294,0.00142627,0.016655,979,463,1.48046,33.9514
-238,561,1.47699,-34.5429,0.00114073,-0.00374991,0.00138519,0.00150581,-0.00411498,0.257698,0.00335969,0.0131607,986,463,1.47696,34.5429
-231,561,1.44128,-35.137,0.00173956,-0.00618159,0.00214785,0.00228448,-0.00672651,0.248459,0.0054091,0.0118779,993,463,1.44129,35.137
-224,561,1.4201,-35.7025,0.00240051,-0.00875543,0.00281561,0.00307086,-0.00942577,0.23373,0.00751947,0.0121467,1000,463,1.4201,35.7025
-217,561,1.44946,-36.255,0.00309202,-0.0113052,0.00337653,0.00384457,-0.0120578,0.219292,0.00958071,0.0128814,1007,463,1.44945,36.255
-210,561,1.46277,-36.8137,0.00379609,-0.0137114,0.00369984,0.00454586,-0.0144612,0.199943,0.0114606,0.0139251,1014,463,1.46275,36.8137
-203,561,1.46777,-37.3622,0.00467713,-0.0157333,0.00379775,0.00536087,-0.016417,0.17813,0.0131025,0.0153238,1021,463,1.46779,37.3622
-196,561,1.39832,-37.8334,0.00579659,-0.0169493,0.0034565,0.00631025,-0.017463,0.147526,0.01422,0.0175157,1028,463,1.39827,37.8334
-189,561,1.45044,-38.3139,0.00665656,-0.0181219,0.00309233,0.00703665,-0.0185019,0.1223,0.015232,0.0216559,1035,463,1.45045,38.3139
-182,561,1.58496,-38.7976,0.00756011,-0.0186193,0.0025248,0.00780138,-0.0188606,0.0952723,0.0158286,0.0256013,1042,463,1.58499,38.7976
-175,561,1.53101,-39.2364,0.00867894,-0.0189075,0.00186081,0.00880389,-0.0190325,0.0670491,0.016429,0.0380189,1049,463,1.53097,39.2364
-168,561,1.72815,-39.6991,0.00950965,-0.0196892,0.00123378,0.00956169,-0.0197412,0.0421541,0.017255,0.0480031,1056,463,1.72814,39.6991
-161,561,1.73328,-40.206,0.0101501,-0.019768,0.000468369,0.0101574,-0.0197753,0.01565,0.0175765,0.0495735,1063,463,1.73328,40.206
-154,561,1.69482,-40.8618,0.0107917,-0.0195909,-9.00519e-05,0.010792,-0.0195912,-0.00296389,0.0177853,0.0475941,1070,463,1.69478,40.8619
-147,561,1.94153,-41.5935,0.0111705,-0.0196656,-0.000185951,0.0111716,-0.0196667,-0.00603002,0.0180283,0.0496095,1077,463,1.94148,41.5935
-140,561,1.99915,-41.7667,0,0,0,0,0,0,0,-1,1084,463,1.99909,41.7667
-133,561,2.04895,-42.0837,0,0,0,0,0,0,0,-1,1091,463,2.0489,42.0837
-126,561,1.78528,-41.0697,0,0,0,0,0,0,0,-1,1098,463,1.78525,41.0697
-119,561,-0.336304,-35.422,0,0,0,0,0,0,0,-1,1105,463,-0.336245,35.422
-112,561,1.24365,-29.1982,0,0,0,0,0,0,0,-1,1112,463,1.2437,29.1981
-105,561,0.530518,-13.5379,0,0,0,0,0,0,0,-1,1119,463,0.530477,13.5379
-98,561,1.5387,-7.54352,0,0,0,0,0,0,0,-1,1126,463,1.53871,7.54351
-91,561,1.29553,-6.57968,0,0,0,0,0,0,0,-1,1133,463,1.29549,6.5797
-84,561,1.23364,-5.84555,0,0,0,0,0,0,0,-1,1140,463,1.23363,5.84556
-77,561,-2.36023,1.00204,0,0,0,0,0,0,0,-1,1147,463,-2.3602,-1.00205
-70,561,-3.90015,-1.41541,0,0,0,0,0,0,0,-1,1154,463,-3.90009,1.4154
-63,561,-6.95691,-4.02756,0,0,0,0,0,0,0,-1,1161,463,-6.95696,4.02756
-56,561,-5.37988,-6.66855,0,0,0,0,0,0,0,-1,1168,463,-5.37988,6.66854
-49,561,-5.7439,-9.11029,0,0,0,0,0,0,0,-1,1175,463,-5.74387,9.1103
-42,561,-1.72644,-5.63065,0,0,0,0,0,0,0,-1,1182,463,-1.72648,5.63064
-35,561,-1.65674,-4.87994,0,0,0,0,0,0,0,-1,1189,463,-1.6567,4.87993
-28,561,-1.91418,-3.86896,0,0,0,0,0,0,0,-1,1196,463,-1.91414,3.86895
-21,561,8.0686,-49.5935,0,0,0,0,0,0,0,-1,1203,463,8.06858,49.5935
-14,561,8.72217,-43.7465,0,0,0,0,0,0,0,-1,1210,463,8.72213,43.7465
-7,561,8.95825,-45.0449,0,0,0,0,0,0,0,-1,1217,463,8.9582,45.0448
0,561,10.032,-45.9805,0,0,0,0,0,0,0,-1,1224,463,10.032,45.9805
7,561,9.48877,-45.955,0,0,0,0,0,0,0,-1,1231,463,9.48874,45.9551
14,561,8.56519,-46.1164,0,0,0,0,0,0,0,-1,1238,463,8.5652,46.1164
21,561,8.69934,-46.5627,0.0115849,-0.0543861,-0.0684443,0.0545774,-0.0973786,-0.560854,0.0888844,0.038333,1245,463,8.69929,46.5627
28,561,9.15649,-47.4722,0.00985365,-0.0435045,-0.0665441,0.0548676,-0.0885185,-0.594747,0.0835405,0.041346,1252,463,9.15645,47.4722
35,561,8.62061,-48.527,0,0,0,0,0,0,0,-1,1259,463,8.62057,48.527
42,561,8.65503,-48.9184,0.00843277,-0.0173175,-0.0580327,0.0550015,-0.0638862,-0.676236,0.0687037,0.0456184,1266,463,8.65507,48.9184
49,561,8.63721,-49.2505,0.00828364,-0.00813982,-0.0492675,0.0500191,-0.0498752,-0.702819,0.057674,0.04551,1273,463,8.63725,49.2505
56,561,8.00073,-49.5754,0,0,0,0,0,0,0,-1,1280,463,8.00068,49.5754
63,561,7.823,-50.8307,0.00831873,0.00304161,-0.0254217,0.0312384,-0.0198781,-0.733687,0.0297541,0.0427626,1287,463,7.82303,50.8307
70,561,8.04907,-51.6533,0.0085672,0.0052648,-0.0132703,0.0202887,-0.00645666,-0.723502,0.0161151,0.0453597,1294,463,8.04908,51.6533
77,561,8.22534,-52.5936,0.00830781,0.00712812,-0.00079433,0.00870735,0.00672858,-0.466034,0.00527061,0.0467537,1301,463,8.22534,52.5936
84,561,8.4845,-53.3019,0.00819307,0.00594601,0.0129496,0.0200678,-0.00592868,0.742126,0.0157316,0.0448778,1308,463,8.48455,53.3019
91,561,4.57776,-49.5072,0.00906048,-0.000271986,0.0260385,0.0308476,-0.0220591,0.696737,0.0306858,0.0421611,1315,463,4.57778,49.5072
98,561,4.47119,-49.3139,0.0107706,-0.00781067,0.0376168,0.0402271,-0.0372671,0.66433,0.0447522,0.0457444,1322,463,4.47118,49.3139
105,561,4.52856,-49.0854,0,0,0,0,0,0,0,-1,1329,463,4.52856,49.0854
112,561,4.74194,-48.4241,0.0186378,-0.0277044,0.0518802,0.0522862,-0.0613528,0.575376,0.0656791,0.0479898,1336,463,4.74193,48.4241
119,561,4.71411,-48.0853,0.0245405,-0.0375514,0.0558553,0.057398,-0.070409,0.531745,0.0739168,0.0449844,1343,463,4.71416,48.0853
126,561,4.9502,-47.8053,0.0325975,-0.0466275,0.0571883,0.0625526,-0.0765826,0.482504,0.0804658,0.0479738,1350,463,4.95015,47.8053
133,561,5.19299,-47.5251,0,0,0,0,0,0,0,-1,1357,463,5.19302,47.5251
140,561,1.71094,-46.4248,0,0,0,0,0,0,0,-1,1364,463,1.71095,46.4249
147,561,5.72729,-46.9159,0,0,0,0,0,0,0,-1,1371,463,5.72734,46.9159
154,561,6.52075,-46.6945,0,0,0,0,0,0,0,-1,1378,463,6.52074,46.6945
161,561,7.12903,-46.6082,0,0,0,0,0,0,0,-1,1385,463,7.12903,46.6083
168,561,11.7057,-58.3809,0,0,0,0,0,0,0,-1,1392,463,11.7057,58.3809
175,561,10.4185,0.276398,0,0,0,0,0,0,0,-1,1399,463,10.4185,-0.276394
182,561,6.45703,-4.02127,0,0,0,0,0,0,0,-1,1406,463,6.45704,4.02127
189,561,6.50854,-2.08685,0,0,0,0,0,0,0,-1,1413,463,6.50851,2.08686
196,561,6.44775,-0.27182,0,0,0,0,0,0,0,-1,1420,463,6.44773,0.271814
203,561,6.18591,1.1301,0,0,0,0,0,0,0,-1,1427,463,6.18592,-1.13009
210,561,5.68713,2.68427,0,0,0,0,0,0,0,-1,1434,463,5.6871,-2.68425
217,561,3.61743,-7.33582,0,0,0,0,0,0,0,-1,1441,463,3.61738,7.33581
224,561,4.27466,-8.59171,0,0,0,0,0,0,0,-1,1448,463,4.27466,8.59171
231,561,4.93188,-9.8476,0,0,0,0,0,0,0,-1,1455,463,4.93193,9.84761
238,561,2.18018,-5.18359,0,0,0,0,0,0,0,-1,1462,463,2.18023,5.18359
245,561,3.07568,-3.50238,0,0,0,0,0,0,0,-1,1469,463,3.0757,3.50238
252,561,3.47412,-3.71109,0,0,0,0,0,0,0,-1,1476,463,3.47413,3.71109
259,561,3.42212,-3.2334,0,0,0,0,0,0,0,-1,1483,463,3.42214,3.2334
266,561,4.44373,-5.90027,0,0,0,0,0,0,0,-1,1490,463,4.44372,5.90026
273,561,2.59485,-3.65268,0,0,0,0,0,0,0,-1,1497,463,2.5948,3.65268
280,561,3.10767,-6.38235,0,0,0,0,0,0,0,-1,1504,463,3.10766,6.38235
287,561,10.8293,-39.8841,0,0,0,0,0,0,0,-1,1511,463,10.8294,39.8841
294,561,10.726,-39.3259,0,0,0,0,0,0,0,-1,1518,463,10.7259,39.3259
301,561,10.8177,-38.8009,0,0,0,0,0,0,0,-1,1525,463,10.8178,38.8009
308,561,10.7809,-38.3328,0.00447189,-0.00666352,-0.00400518,0.00576282,-0.00795445,-0.311801,0.00795329,0.031643,1532,463,10.7808,38.3328
315,561,10.8528,-37.8959,0.0038647,-0.00600878,-0.00377825,0.00514459,-0.00728867,-0.326621,0.00721384,0.018189,1539,463,10.8528,37.8959
322,561,10.8557,-37.3943,0.00329696,-0.00523413,-0.00337489,0.00447061,-0.00640777,-0.334676,0.00631374,0.015148,1546,463,10.8557,37.3943
329,561,10.8892,-36.8424,0.00267111,-0.00441959,-0.00302955,0.00378921,-0.00553768,-0.353555,0.00541633,0.0122993,1553,463,10.8891,36.8424
336,561,10.906,-36.2567,0.00207689,-0.00357237,-0.00265881,0.00313141,-0.00462689,-0.377583,0.00450691,0.012372,1560,463,10.906,36.2568
343,561,10.8977,-35.6946,0.00154095,-0.00265798,-0.00226889,0.0025327,-0.00364973,-0.412082,0.00358879,0.0112267,1567,463,10.8977,35.6946
350,561,10.8621,-35.1065,0.00103225,-0.00194828,-0.0018964,0.00195387,-0.00286991,-0.452375,0.0028017,0.0103713,1574,463,10.8621,35.1065
357,561,10.8604,-34.5081,0.000685893,-0.00111891,-0.00136405,0.00141902,-0.00185203,-0.493168,0.00189405,0.0100537,1581,463,10.8603,34.5081
364,561,10.8553,-33.9245,0.000420295,-0.000197738,-0.000779315,0.000949624,-0.000727067,-0.596646,0.000970876,0.00899283,1588,463,10.8554,33.9245
371,561,10.8097,-33.3021,0.000275724,0.000695437,-0.000153773,0.000745746,0.000225415,-1.25461,0.000441637,0.0147774,1595,463,10.8097,33.3021
378,561,10.7848,-32.6999,0.000109929,0.00164749,0.000398308,0.00174454,1.28726e-05,1.33178,0.00115876,0.011388,1602,463,10.7848,32.6999
385,561,10.7673,-32.0851,5.2926e-07,0.00256191,0.000852882,0.00281991,-0.000257473,1.27704,0.00197138,0.00963248,1609,463,10.7673,32.0851
392,561,10.7406,-31.4363,4.69114e-05,0.00321269,0.00126877,0.00365843,-0.000398825,1.23295,0.00258218,0.0136785,1616,463,10.7406,31.4363
399,561,10.7063,-30.8235,0.000156949,0.00400053,0.00166588,0.00462205,-0.000464574,1.2137,0.00324732,0.0204473,1623,463,10.7062,30.8234
406,561,10.688,-30.1713,0.000143695,0.00463457,0.00193891,0.00535584,-0.000577576,1.21466,0.00377783,0.0186483,1630,463,10.688,30.1713
413,561,10.6926,-29.4893,-4.43393e-05,0.00513645,0.00211803,0.00589213,-0.000800018,1.22809,0.00422011,0.0167683,1637,463,10.6926,29.4894
420,561,10.634,-28.8575,-0.000285767,0.00552021,0.00190404,0.00608892,-0.000854478,1.28054,0.00437203,0.0131848,1644,463,10.634,28.8575
427,561,10.6035,-28.1925,-0.000779424,0.00501766,0.00172163,0.0054904,-0.00125216,1.30281,0.00414124,0.0106486,1651,463,10.6035,28.1925
434,561,10.5964,-27.5098,-0.0017354,0.00482183,0.000991033,0.00496833,-0.0018819,1.42403,0.00408661,0.0129714,1658,463,10.5964,27.5098
441,561,10.5916,-26.8239,-0.00269889,0.00441113,0.000316652,0.00442521,-0.00271296,1.52638,0.00416056,0.0166046,1665,463,10.5916,26.8239
448,561,10.568,-26.0958,-0.00398249,0.00371036,-0.00058402,0.00375444,-0.00402658,-1.49545,0.00449329,0.0249077,1672,463,10.568,26.0958
455,561,10.63,-25.4356,-0.00570883,0.00259434,-0.00184725,0.00298677,-0.00610125,-1.36147,0.00534869,0.043811,1679,463,10.63,25.4356
462,561,10.4398,-24.7582,-0.00774435,0.00154645,-0.00326737,0.00258044,-0.00877834,-1.26431,0.00687572,0.0436467,1686,463,10.4399,24.7582
469,561,10.2423,-24.1395,-0.0102307,8.36432e-05,-0.00504229,0.00213904,-0.0122861,-1.18373,0.00898897,0.0270482,1693,463,10.2423,24.1395
476,561,10.1829,-23.566,-0.012933,-0.00204878,-0.00780562,0.00202459,-0.0170063,-1.08982,0.0120692,0.0438778,1700,463,10.1829,23.566
483,561,10.08,-23.0843,-0.0168104,-0.00241526,-0.0126013,0.00489912,-0.0241248,-1.04488,0.0179406,0.0492607,1707,463,10.08,23.0842
490,561,10.1665,-22.4817,0,0,0,0,0,0,0,-1,1714,463,10.1665,22.4817
497,561,10.2692,-21.7018,0,0,0,0,0,0,0,-1,1721,463,10.2691,21.7018
504,561,10.0769,-0.811401,0,0,0,0,0,0,0,-1,1728,463,10.0769,0.8114
511,561,0,0,0,0,0,0,0,0,0,-1,1735,463,0,0
518,561,0,0,0,0,0,0,0,0,0,-1,1742,463,0,0
525,561,0,0,0,0,0,0,0,0,0,-1,1749,463,0,0
532,561,0,0,0,0,0,0,0,0,0,-1,1756,463,0,0
539,561,0,0,0,0,0,0,0,0,0,-1,1763,463,0,0
546,561,0,0,0,0,0,0,0,0,0,-1,1770,463,0,0
553,561,0,0,0,0,0,0,0,0,0,-1,1777,463,0,0
560,561,0,0,0,0,0,0,0,0,0,-1,1784,463,0,0
567,561,0,0,0,0,0,0,0,0,0,-1,1791,463,0,0
574,561,0,0,0,0,0,0,0,0,0,-1,1798,463,0,0
581,561,0,0,0,0,0,0,0,0,0,-1,1805,463,0,0
588,561,0,0,0,0,0,0,0,0,0,-1,1812,463,0,0
595,561,0,0,0,0,0,0,0,0,0,-1,1819,463,0,0
602,561,0,0,0,0,0,0,0,0,0,-1,1826,463,0,0
609,561,0,0,0,0,0,0,0,0,0,-1,1833,463,0,0
616,561,0,0,0,0,0,0,0,0,0,-1,1840,463,0,0
623,561,0,0,0,0,0,0,0,0,0,-1,1847,463,0,0
630,561,0,0,0,0,0,0,0,0,0,-1,1854,463,0,0
637,561,0,0,0,0,0,0,0,0,0,-1,1861,463,0,0
644,561,0,0,0,0,0,0,0,0,0,-1,1868,463,0,0
651,561,0,0,0,0,0,0,0,0,0,-1,1875,463,0,0
658,561,0,0,0,0,0,0,0,0,0,-1,1882,463,0,0
665,561,0,0,0,0,0,0,0,0,0,-1,1889,463,0,0
672,561,0,0,0,0,0,0,0,0,0,-1,1896,463,0,0
679,561,0,0,0,0,0,0,0,0,0,-1,1903,463,0,0
686,561,0,0,0,0,0,0,0,0,0,-1,1910,463,0,0
693,561,0,0,0,0,0,0,0,0,0,-1,1917,463,0,0
700,561,0,0,0,0,0,0,0,0,0,-1,1924,463,0,0
707,561,0,0,0,0,0,0,0,0,0,-1,1931,463,0,0
714,561,0,0,0,0,0,0,0,0,0,-1,1938,463,0,0
721,561,0,0,0,0,0,0,0,0,0,-1,1945,463,0,0
728,561,0,0,0,0,0,0,0,0,0,-1,1952,463,0,0
735,561,0,0,0,0,0,0,0,0,0,-1,1959,463,0,0
742,561,0,0,0,0,0,0,0,0,0,-1,1966,463,0,0
749,561,0,0,0,0,0,0,0,0,0,-1,1973,463,0,0
756,561,0,0,0,0,0,0,0,0,0,-1,1980,463,0,0
763,561,0,0,0,0,0,0,0,0,0,-1,1987,463,0,0
770,561,0,0,0,0,0,0,0,0,0,-1,1994,463,0,0
777,561,0,0,0,0,0,0,0,0,0,-1,2001,463,0,0
784,561,0,0,0,0,0,0,0,0,0,-1,2008,463,0,0
791,561,0,0,0,0,0,0,0,0,0,-1,2015,463,0,0
798,561,0,0,0,0,0,0,0,0,0,-1,2022,463,0,0
805,561,0,0,0,0,0,0,0,0,0,-1,2029,463,0,0
812,561,0,0,0,0,0,0,0,0,0,-1,2036,463,0,0
-700,554,0,0,0,0,0,0,0,0,0,-1,524,470,0,0
-693,554,0,0,0,0,0,0,0,0,0,-1,531,470,0,0
-686,554,0,0,0,0,0,0,0,0,0,-1,538,470,0,0
-679,554,0,0,0,0,0,0,0,0,0,-1,545,470,0,0
-672,554,0,0,0,0,0,0,0,0,0,-1,552,470,0,0
-665,554,0,0,0,0,0,0,0,0,0,-1,559,470,0,0
-658,554,0,0,0,0,0,0,0,0,0,-1,566,470,0,0
-651,554,0,0,0,0,0,0,0,0,0,-1,573,470,0,0
-644,554,0,0,0,0,0,0,0,0,0,-1,580,470,0,0
-637,554,0,0,0,0,0,0,0,0,0,-1,587,470,0,0
-630,554,0,0,0,0,0,0,0,0,0,-1,594,470,0,0
-623,554,0,0,0,0,0,0,0,0,0,-1,601,470,0,0
-616,554,0,0,0,0,0,0,0,0,0,-1,608,470,0,0
-609,554,0,0,0,0,0,0,0,0,0,-1,615,470,0,0
-602,554,0,0,0,0,0,0,0,0,0,-1,622,470,0,0
-595,554,0,0,0,0,0,0,0,0,0,-1,629,470,0,0
-588,554,0,0,0,0,0,0,0,0,0,-1,636,470,0,0
-581,554,0,0,0,0,0,0,0,0,0,-1,643,470,0,0
-574,554,0,0,0,0,0,0,0,0,0,-1,650,470,0,0
-567,554,0,0,0,0,0,0,0,0,0,-1,657,470,0,0
-560,554,0,0,0,0,0,0,0,0,0,-1,664,470,0,0
-553,554,0,0,0,0,0,0,0,0,0,-1,671,470,0,0
-546,554,0,0,0,0,0,0,0,0,0,-1,678,470,0,0
-539,554,0,0,0,0,0,0,0,0,0,-1,685,470,0,0
-532,554,0,0,0,0,0,0,0,0,0,-1,692,470,0,0
-525,554,0,0,0,0,0,0,0,0,0,-1,699,470,0,0
-518,554,0,0,0,0,0,0,0,0,0,-1,706,470,0,0
-511,554,0,0,0,0,0,0,0,0,0,-1,713,470,0,0
-504,554,0,0,0,0,0,0,0,0,0,-1,720,470,0,0
-497,554,0,0,0,0,0,0,0,0,0,-1,727,470,0,0
-490,554,0,0,0,0,0,0,0,0,0,-1,734,470,0,0
-483,554,0,0,0,0,0,0,0,0,0,-1,741,470,0,0
-476,554,0,0,0,0,0,0,0,0,0,-1,748,470,0,0
-469,554,0,0,0,0,0,0,0,0,0,-1,755,470,0,0
-462,554,0,0,0,0,0,0,0,0,0,-1,762,470,0,0
-455,554,0,0,0,0,0,0,0,0,0,-1,769,470,0,0
-448,554,0,0,0,0,0,0,0,0,0,-1,776,470,0,0
-441,554,0,0,0,0,0,0,0,0,0,-1,783,470,0,0
-434,554,0,0,0,0,0,0,0,0,0,-1,790,470,0,0
-427,554,0,0,0,0,0,0,0,0,0,-1,797,470,0,0
-420,554,0,0,0,0,0,0,0,0,0,-1,804,470,0,0
-413,554,0,0,0,0,0,0,0,0,0,-1,811,470,0,0
-406,554,0,0,0,0,0,0,0,0,0,-1,818,470,0,0
-399,554,-1.32275,-3.95142,0,0,0,0,0,0,0,-1,825,470,-1.32275,3.95141
-392,554,-1.35632,-3.7406,0,0,0,0,0,0,0,-1,832,470,-1.35632,3.7406
-385,554,-0.849243,-4.14447,0,0,0,0,0,0,0,-1,839,470,-0.849262,4.14446
-378,554,-0.982666,-4.55084,0,0,0,0,0,0,0,-1,846,470,-0.982671,4.55084
-371,554,-1.74542,-4.63467,0,0,0,0,0,0,0,-1,853,470,-1.74541,4.63468
-364,554,1.04883,-7.68756,0,0,0,0,0,0,0,-1,860,470,1.0488,7.68757
-357,554,1.27698,-22.5379,0,0,0,0,0,0,0,-1,867,470,1.27701,22.5379
-350,554,1.17157,-18.1341,0,0,0,0,0,0,0,-1,874,470,1.17156,18.1341
-343,554,1.49768,-24.7265,0,0,0,0,0,0,0,-1,881,470,1.49765,24.7265
-336,554,1.57269,-25.5907,-0.00380965,0.0182289,-0.00364038,0.0188147,-0.00439541,-1.41126,0.0142363,0.0439014,888,470,1.57271,25.5907
-329,554,1.28705,-26.3798,-0.00410911,0.0130448,-0.00210093,0.0132983,-0.00436268,-1.45069,0.0106227,0.0223771,895,470,1.28702,26.3798
-322,554,1.20392,-27.0719,-0.00398812,0.00986025,-0.00146337,0.0100132,-0.00414107,-1.46666,0.00840312,0.0141972,902,470,1.20394,27.0719
-315,554,1.19,-27.7173,-0.00360279,0.00777356,-0.00122729,0.00790446,-0.00373368,-1.46454,0.0068616,0.0143387,909,470,1.19,27.7173
-308,554,1.13831,-28.3697,-0.0031478,0.00633748,-0.00119264,0.00648514,-0.00329546,-1.44761,0.00574606,0.0143289,916,470,1.13833,28.3697
-301,554,1.13733,-29.047,-0.00255767,0.00505452,-0.00126326,0.00525868,-0.00276184,-1.41056,0.00470485,0.0141021,923,470,1.13735,29.047
-294,554,1.10065,-29.6889,-0.00190061,0.00420655,-0.00123247,0.00444589,-0.00213995,-1.37899,0.00387925,0.012436,930,470,1.10065,29.6889
-287,554,1.04553,-30.3251,-0.00127816,0.00358316,-0.0011433,0.00383862,-0.00153362,-1.35097,0.00319541,0.0123104,937,470,1.04555,30.3251
-280,554,1.00085,-30.9525,-0.000713403,0.00283281,-0.00101064,0.00310061,-0.000981205,-1.31177,0.00246025,0.0120869,944,470,1.00088,30.9525
-273,554,0.960938,-31.577,-0.000267429,0.00189126,-0.000787192,0.00214783,-0.000523995,-1.25573,0.00163479,0.0149007,951,470,0.96092,31.577
-266,554,0.942078,-32.1794,0.000225624,0.000707769,-0.000389028,0.000924362,9.02993e-06,-1.06278,0.000613254,0.0127198,958,470,0.942074,32.1794
-259,554,0.935547,-32.7451,0.0007443,-0.000819138,0.000242413,0.000781024,-0.000855862,0.15035,0.000945386,0.0129737,965,470,0.935534,32.7451
-252,554,0.88562,-33.3113,0.0011373,-0.00271858,0.00105359,0.00140641,-0.00298769,0.250071,0.00259111,0.0148474,972,470,0.885619,33.3113
-245,554,0.857117,-33.9002,0.00152782,-0.00480714,0.00184581,0.0020264,-0.00530571,0.263816,0.00437205,0.0158106,979,470,0.857144,33.9002
-238,554,0.892273,-34.5242,0.00204402,-0.00731931,0.00271259,0.0027731,-0.00804839,0.26257,0.00649053,0.0116739,986,470,0.892265,34.5242
-231,554,0.891907,-35.1171,0.00264917,-0.0100687,0.00357875,0.00358705,-0.0110065,0.256306,0.00878109,0.0105556,993,470,0.891928,35.1171
-224,554,0.887695,-35.6582,0.00330743,-0.0130373,0.00435981,0.00439766,-0.0141275,0.245037,0.0111765,0.0108736,1000,470,0.887716,35.6582
-217,554,0.890869,-36.202,0.00399144,-0.0160002,0.00503272,0.0051869,-0.0171957,0.233215,0.0135284,0.0114502,1007,470,0.890869,36.202
-210,554,0.887451,-36.7477,0.00471732,-0.0187308,0.00539226,0.00589791,-0.0199114,0.215541,0.015616,0.0158841,1014,470,0.887479,36.7477
-203,554,0.863159,-37.1956,0.00568959,-0.0210526,0.00543672,0.00675263,-0.0221156,0.193092,0.0174361,0.0251812,1021,470,0.863178,37.1956
-196,554,0.855103,-37.6144,0.00704799,-0.0224336,0.00487944,0.00783459,-0.0232202,0.159832,0.0186485,0.0337817,1028,470,0.855078,37.6144
-189,554,0.939941,-38.0067,0.00820958,-0.0237312,0.00424058,0.00876299,-0.0242846,0.129769,0.0197691,0.0381536,1035,470,0.939976,38.0067
-182,554,1.04639,-38.4361,0.00941221,-0.0241724,0.00330469,0.0097343,-0.0244945,0.0971574,0.0203653,0.0498333,1042,470,1.04633,38.4361
-175,554,1.16321,-38.8945,0.0109196,-0.0243041,0.0021954,0.0110559,-0.0244404,0.0620076,0.0209738,0.0499555,1049,470,1.1632,38.8945
-168,554,1.4906,-39.1654,0,0,0,0,0,0,0,-1,1056,470,1.49061,39.1654
-161,554,1.37244,-39.9326,0,0,0,0,0,0,0,-1,1063,470,1.3725,39.9326
-154,554,1.2998,-40.5999,0,0,0,0,0,0,0,-1,1070,470,1.29977,40.5999
-147,554,1.4552,-41.5187,0,0,0,0,0,0,0,-1,1077,470,1.45525,41.5187
-140,554,0.428101,-38.9893,0,0,0,0,0,0,0,-1,1084,470,0.428152,38.9893
-133,554,2.67163,-32.8187,0,0,0,0,0,0,0,-1,1091,470,2.67161,32.8187
-126,554,0.851929,-33.5393,0,0,0,0,0,0,0,-1,1098,470,0.851942,33.5393
-119,554,-1.03479,-32.1628,0,0,0,0,0,0,0,-1,1105,470,-1.03476,32.1628
-112,554,1.03162,-24.5784,0,0,0,0,0,0,0,-1,1112,470,1.03156,24.5784
-105,554,0.608765,-21.0475,0,0,0,0,0,0,0,-1,1119,470,0.608728,21.0475
-98,554,1.51929,-7.3624,0,0,0,0,0,0,0,-1,1126,470,1.51928,7.36241
-91,554,1.41089,-6.5864,0,0,0,0,0,0,0,-1,1133,470,1.41093,6.58638
-84,554,1.62305,-5.87186,0,0,0,0,0,0,0,-1,1140,470,1.62299,5.87186
-77,554,-2.56958,1.33258,0,0,0,0,0,0,0,-1,1147,470,-2.56959,-1.33257
-70,554,-3.68164,-1.18332,0,0,0,0,0,0,0,-1,1154,470,-3.68158,1.18331
-63,554,-4.86853,-3.88708,0,0,0,0,0,0,0,-1,1161,470,-4.86853,3.88708
-56,554,-5.69958,-6.45422,0,0,0,0,0,0,0,-1,1168,470,-5.69955,6.45422
-49,554,-6.23645,-8.8569,0,0,0,0,0,0,0,-1,1175,470,-6.23643,8.85689
-42,554,-6.62524,-11.5382,0,0,0,0,0,0,0,-1,1182,470,-6.62522,11.5382
-35,554,-2.40173,-4.59482,0,0,0,0,0,0,0,-1,1189,470,-2.40169,4.59481
-28,554,-0.760132,-1.65555,0,0,0,0,0,0,0,-1,1196,470,-0.760095,1.65556
-21,554,7.92444,-43.2634,0,0,0,0,0,0,0,-1,1203,470,7.92438,43.2634
-14,554,8.76135,-44.3329,0,0,0,0,0,0,0,-1,1210,470,8.76137,44.3329
-7,554,9.30151,-45.2542,0,0,0,0,0,0,0,-1,1217,470,9.30148,45.2542
0,554,9.74341,-44.9688,0,0,0,0,0,0,0,-1,1224,470,9.7434,44.9688
7,554,9.3186,-45.1183,0,0,0,0,0,0,0,-1,1231,470,9.31856,45.1183
14,554,9.25928,-45.1813,0,0,0,0,0,0,0,-1,1238,470,9.25932,45.1813
21,554,9.07959,-46.0216,0.0190731,-0.0679026,-0.0769328,0.0639586,-0.112788,-0.528152,0.103335,0.0396732,1245,470,9.07954,46.0216
28,554,9.24109,-47.0259,0.0166653,-0.0553793,-0.0747598,0.0636287,-0.102343,-0.560891,0.0966887,0.0402559,1252,470,9.24109,47.0259
35,554,9.19141,-48.3937,0,0,0,0,0,0,0,-1,1259,470,9.19141,48.3937
42,554,9.17712,-48.8262,0.0151462,-0.0258931,-0.0675476,0.0652221,-0.075969,-0.637937,0.0815954,0.0441507,1266,470,9.17713,48.8262
49,554,9.17639,-49.4672,0.0152834,-0.0160695,-0.0585058,0.0601766,-0.0609627,-0.6545,0.0699403,0.0470068,1273,470,9.17634,49.4672
56,554,9.46326,-49.2493,0,0,0,0,0,0,0,-1,1280,470,9.46321,49.2493
63,554,7.81311,-50.7234,0.0156732,-0.00413444,-0.0341273,0.0413047,-0.0297659,-0.644176,0.0412125,0.0427051,1287,470,7.81317,50.7234
70,554,7.72656,-51.3464,0.0156671,-0.00118121,-0.0218836,0.0306921,-0.0162061,-0.601664,0.0275039,0.044727,1294,470,7.72661,51.3464
77,554,7.64758,-52.0048,0.0151604,0.00270995,-0.0100087,0.020722,-0.0028516,-0.507186,0.0148567,0.0466494,1301,470,7.64753,52.0048
84,554,8.79407,-53.2318,0.0145952,0.0033176,0.00432137,0.0160606,0.00185215,0.326947,0.0101462,0.0435313,1308,470,8.79412,53.2318
91,554,3.57397,-49.3228,0,0,0,0,0,0,0,-1,1315,470,3.57402,49.3228
98,554,4.06506,-48.8926,0.0161746,-0.0078906,0.0316976,0.0380466,-0.0297626,0.603997,0.0392469,0.0407794,1322,470,4.06508,48.8927
105,554,4.42322,-48.5934,0.0196453,-0.0161998,0.0412062,0.0466579,-0.0432124,0.580266,0.0518994,0.0451174,1329,470,4.42317,48.5934
112,554,4.47961,-48.345,0.0241621,-0.0261564,0.0478792,0.0530899,-0.0550842,0.543489,0.0624578,0.0445867,1336,470,4.47956,48.345
119,554,4.51404,-47.9506,0.0305377,-0.0350392,0.0527322,0.059844,-0.0643455,0.507253,0.0717166,0.0414196,1343,470,4.51399,47.9506
126,554,4.78796,-47.7906,0.0399137,-0.0434039,0.0544216,0.0667908,-0.070281,0.45873,0.079147,0.0440974,1350,470,4.78793,47.7906
133,554,5.00378,-47.5809,0,0,0,0,0,0,0,-1,1357,470,5.00375,47.5809
140,554,5.2948,-47.3262,0,0,0,0,0,0,0,-1,1364,470,5.29486,47.3262
147,554,5.34155,-46.3858,0,0,0,0,0,0,0,-1,1371,470,5.34152,46.3858
154,554,5.90295,-46.2947,0.0922564,-0.0527587,0.0566047,0.111735,-0.0722372,0.331422,0.107029,0.0462773,1378,470,5.90299,46.2947
161,554,6.63062,-45.8829,0,0,0,0,0,0,0,-1,1385,470,6.63068,45.8829
168,554,7.63,-45.2673,0,0,0,0,0,0,0,-1,1392,470,7.63001,45.2673
175,554,10.663,0.286957,0,0,0,0,0,0,0,-1,1399,470,10.663,-0.286966
182,554,6.71106,-4.50217,0,0,0,0,0,0,0,-1,1406,470,6.71107,4.50215
189,554,6.90479,-2.50348,0,0,0,0,0,0,0,-1,1413,470,6.90477,2.50348
196,554,6.96216,-0.740906,0,0,0,0,0,0,0,-1,1420,470,6.96214,0.740912
203,554,6.43518,0.414154,0,0,0,0,0,0,0,-1,1427,470,6.43523,-0.414141
210,554,6.21167,1.96707,0,0,0,0,0,0,0,-1,1434,470,6.21165,-1.96706
217,554,5.64551,3.4989,0,0,0,0,0,0,0,-1,1441,470,5.64555,-3.49891
224,554,4.85144,-8.85172,0,0,0,0,0,0,0,-1,1448,470,4.85146,8.85173
231,554,3.25073,-5.29642,0,0,0,0,0,0,0,-1,1455,470,3.25078,5.29642
238,554,4.28625,-3.25253,0,0,0,0,0,0,0,-1,1462,470,4.28622,3.25252
245,554,4.0752,-2.90033,0,0,0,0,0,0,0,-1,1469,470,4.07515,2.90032
252,554,3.52112,-0.934998,0,0,0,0,0,0,0,-1,1476,470,3.52113,0.934996
259,554,3.96448,-2.16425,0,0,0,0,0,0,0,-1,1483,470,3.96446,2.16424
266,554,3.0592,-2.71716,0,0,0,0,0,0,0,-1,1490,470,3.05923,2.71718
273,554,2.58521,-3.06876,0,0,0,0,0,0,0,-1,1497,470,2.58524,3.06874
280,554,2.83301,-0.991699,0,0,0,0,0,0,0,-1,1504,470,2.83303,0.991704
287,554,3.54126,-4.12277,0,0,0,0,0,0,0,-1,1511,470,3.54123,4.12277
294,554,3.62036,-8.50146,0,0,0,0,0,0,0,-1,1518,470,3.62031,8.50145
301,554,9.31323,-32.2134,0,0,0,0,0,0,0,-1,1525,470,9.31327,32.2134
308,554,11.2529,-38.1577,0,0,0,0,0,0,0,-1,1532,470,11.2529,38.1578
315,554,11.4327,-37.7831,0,0,0,0,0,0,0,-1,1539,470,11.4327,37.7831
322,554,11.4288,-37.2483,0.00351275,-0.00705828,-0.00478056,0.00535398,-0.00889951,-0.367638,0.00831369,0.042849,1546,470,11.4288,37.2483
329,554,11.49,-36.6866,0.00282637,-0.00609542,-0.0044065,0.00463579,-0.00790484,-0.389632,0.00732188,0.0271778,1553,470,11.49,36.6866
336,554,11.4675,-36.1923,0.00216505,-0.00517794,-0.0040187,0.00393688,-0.00694977,-0.415258,0.00636514,0.0167953,1560,470,11.4676,36.1923
343,554,11.454,-35.6584,0.00157136,-0.00420151,-0.00361715,0.00331259,-0.00594274,-0.448642,0.00541501,0.0120421,1567,470,11.454,35.6584
350,554,11.4528,-35.0623,0.00098805,-0.00362488,-0.00329146,0.00270072,-0.00533755,-0.479786,0.0047234,0.0106709,1574,470,11.4527,35.0623
357,554,11.4651,-34.4685,0.00060659,-0.00286109,-0.00275849,0.00213089,-0.00438539,-0.504825,0.0038365,0.0109806,1581,470,11.4651,34.4685
364,554,11.4476,-33.9108,0.000319236,-0.00196938,-0.00216008,0.00161938,-0.00326953,-0.541815,0.00287571,0.00872509,1588,470,11.4477,33.9108
371,554,11.4215,-33.3002,0.000173798,-0.00111434,-0.00151442,0.00117542,-0.00211596,-0.58434,0.00192597,0.00828742,1595,470,11.4216,33.3002
378,554,11.4076,-32.6696,3.06253e-05,-0.000119655,-0.000887516,0.000846176,-0.000935206,-0.743167,0.00102891,0.00922197,1602,470,11.4076,32.6695
385,554,11.399,-32.05,-3.79308e-05,0.000834391,-0.000290838,0.000922466,-0.000126006,-1.27674,0.000660994,0.00902487,1609,470,11.399,32.05
392,554,11.3845,-31.3939,2.81785e-05,0.00152998,0.000260996,0.00157405,-1.58865e-05,1.40354,0.0010547,0.0126762,1616,470,11.3845,31.3939
399,554,11.356,-30.7503,0.000146833,0.00230734,0.000722548,0.00252671,-7.25376e-05,1.27603,0.00170917,0.0175315,1623,470,11.356,30.7503
406,554,11.3191,-30.1285,0.00017449,0.00298801,0.00108617,0.00335853,-0.000196036,1.24205,0.00230714,0.0164385,1630,470,11.3191,30.1285
413,554,11.3116,-29.4713,8.10429e-05,0.00360251,0.00141135,0.00409834,-0.000414792,1.23295,0.00288046,0.0155938,1637,470,11.3116,29.4713
420,554,11.2803,-28.8644,-8.44528e-05,0.00404996,0.00142725,0.0044948,-0.000529293,1.26866,0.00318764,0.0164123,1644,470,11.2803,28.8644
427,554,11.2616,-28.1918,-0.000438934,0.00382633,0.00145185,0.00427361,-0.000886223,1.27194,0.00318584,0.0116739,1651,470,11.2616,28.1918
434,554,11.2264,-27.5318,-0.00108813,0.00378175,0.00108053,0.00401073,-0.00131711,1.36197,0.0032044,0.0107929,1658,470,11.2265,27.5318
441,554,11.2136,-26.8456,-0.00176358,0.0036081,0.000754848,0.00371216,-0.00186764,1.43381,0.00327965,0.0125555,1665,470,11.2136,26.8457
448,554,11.1802,-26.1132,-0.00267928,0.00317939,0.000247055,0.00318979,-0.00268968,1.52873,0.0033986,0.0186007,1672,470,11.1802,26.1132
455,554,11.1178,-25.445,-0.0039023,0.00248491,-0.000508529,0.00252515,-0.00394253,-1.49184,0.00376389,0.0210331,1679,470,11.1177,25.445
462,554,11.0281,-24.8041,-0.00532144,0.00178821,-0.00139963,0.00205382,-0.00558706,-1.38325,0.00456597,0.0223715,1686,470,11.0281,24.8041
469,554,10.9203,-24.1523,-0.00709198,0.000656926,-0.00259192,0.00144396,-0.00787902,-1.276,0.00579428,0.0248782,1693,470,10.9203,24.1523
476,554,10.8475,-23.3006,-0.00890332,-0.00105521,-0.00459434,0.00106277,-0.0110213,-1.13883,0.00772619,0.0461845,1700,470,10.8475,23.3006
483,554,10.7886,-22.4594,0,0,0,0,0,0,0,-1,1707,470,10.7886,22.4594
490,554,11.0483,-21.6645,0,0,0,0,0,0,0,-1,1714,470,11.0483,21.6645
497,554,11.4208,1.03592,0,0,0,0,0,0,0,-1,1721,470,11.4208,-1.03593
504,554,2.13257,-3.81628,0,0,0,0,0,0,0,-1,1728,470,2.1326,3.8163
511,554,1.31396,-4.02713,0,0,0,0,0,0,0,-1,1735,470,1.31398,4.02712
518,554,5.04236,-5.9472,0,0,0,0,0,0,0,-1,1742,470,5.04231,5.94721
525,554,0,0,0,0,0,0,0,0,0,-1,1749,470,0,0
532,554,0,0,0,0,0,0,0,0,0,-1,1756,470,0,0
539,554,0,0,0,0,0,0,0,0,0,-1,1763,470,0,0
546,554,0,0,0,0,0,0,0,0,0,-1,1770,470,0,0
553,554,0,0,0,0,0,0,0,0,0,-1,1777,470,0,0
560,554,0,0,0,0,0,0,0,0,0,-1,1784,470,0,0
567,554,0,0,0,0,0,0,0,0,0,-1,1791,470,0,0
574,554,0,0,0,0,0,0,0,0,0,-1,1798,470,0,0
581,554,0,0,0,0,0,0,0,0,0,-1,1805,470,0,0
588,554,0,0,0,0,0,0,0,0,0,-1,1812,470,0,0
595,554,0,0,0,0,0,0,0,0,0,-1,1819,470,0,0
602,554,0,0,0,0,0,0,0,0,0,-1,1826,470,0,0
609,554,0,0,0,0,0,0,0,0,0,-1,1833,470,0,0
616,554,0,0,0,0,0,0,0,0,0,-1,1840,470,0,0
623,554,0,0,0,0,0,0,0,0,0,-1,1847,470,0,0
630,554,0,0,0,0,0,0,0,0,0,-1,1854,470,0,0
637,554,0,0,0,0,0,0,0,0,0,-1,1861,470,0,0
644,554,0,0,0,0,0,0,0,0,0,-1,1868,470,0,0
651,554,0,0,0,0,0,0,0,0,0,-1,1875,470,0,0
658,554,0,0,0,0,0,0,0,0,0,-1,1882,470,0,0
665,554,0,0,0,0,0,0,0,0,0,-1,1889,470,0,0
672,554,0,0,0,0,0,0,0,0,0,-1,1896,470,0,0
679,554,0,0,0,0,0,0,0,0,0,-1,1903,470,0,0
686,554,0,0,0,0,0,0,0,0,0,-1,1910,470,0,0
693,554,0,0,0,0,0,0,0,0,0,-1,1917,470,0,0
700,554,0,0,0,0,0,0,0,0,0,-1,1924,470,0,0
707,554,0,0,0,0,0,0,0,0,0,-1,1931,470,0,0
714,554,0,0,0,0,0,0,0,0,0,-1,1938,470,0,0
721,554,0,0,0,0,0,0,0,0,0,-1,1945,470,0,0
728,554,0,0,0,0,0,0,0,0,0,-1,1952,470,0,0
735,554,0,0,0,0,0,0,0,0,0,-1,1959,470,0,0
742,554,0,0,0,0,0,0,0,0,0,-1,1966,470,0,0
749,554,0,0,0,0,0,0,0,0,0,-1,1973,470,0,0
756,554,0,0,0,0,0,0,0,0,0,-1,1980,470,0,0
763,554,0,0,0,0,0,0,0,0,0,-1,1987,470,0,0
770,554,0,0,0,0,0,0,0,0,0,-1,1994,470,0,0
777,554,0,0,0,0,0,0,0,0,0,-1,2001,470,0,0
784,554,0,0,0,0,0,0,0,0,0,-1,2008,470,0,0
791,554,0,0,0,0,0,0,0,0,0,-1,2015,470,0,0
798,554,0,0,0,0,0,0,0,0,0,-1,2022,470,0,0
805,554,0,0,0,0,0,0,0,0,0,-1,2029,470,0,0
812,554,0,0,0,0,0,0,0,0,0,-1,2036,470,0,0
-700,547,0,0,0,0,0,0,0,0,0,-1,524,477,0,0
-693,547,0,0,0,0,0,0,0,0,0,-1,531,477,0,0
-686,547,0,0,0,0,0,0,0,0,0,-1,538,477,0,0
-679,547,0,0,0,0,0,0,0,0,0,-1,545,477,0,0
-672,547,0,0,0,0,0,0,0,0,0,-1,552,477,0,0
-665,547,0,0,0,0,0,0,0,0,0,-1,559,477,0,0
-658,547,0,0,0,0,0,0,0,0,0,-1,566,477,0,0
-651,547,0,0,0,0,0,0,0,0,0,-1,573,477,0,0
-644,547,0,0,0,0,0,0,0,0,0,-1,580,477,0,0
-637,547,0,0,0,0,0,0,0,0,0,-1,587,477,0,0
-630,547,0,0,0,0,0,0,0,0,0,-1,594,477,0,0
-623,547,0,0,0,0,0,0,0,0,0,-1,601,477,0,0
-616,547,0,0,0,0,0,0,0,0,0,-1,608,477,0,0
-609,547,0,0,0,0,0,0,0,0,0,-1,615,477,0,0
-602,547,0,0,0,0,0,0,0,0,0,-1,622,477,0,0
-595,547,0,0,0,0,0,0,0,0,0,-1,629,477,0,0
-588,547,0,0,0,0,0,0,0,0,0,-1,636,477,0,0
-581,547,0,0,0,0,0,0,0,0,0,-1,643,477,0,0
-574,547,0,0,0,0,0,0,0,0,0,-1,650,477,0,0
-567,547,0,0,0,0,0,0,0,0,0,-1,657,477,0,0
-560,547,0,0,0,0,0,0,0,0,0,-1,664,477,0,0
-553,547,0,0,0,0,0,0,0,0,0,-1,671,477,0,0
-546,547,0,0,0,0,0,0,0,0,0,-1,678,477,0,0
-539,547,0,0,0,0,0,0,0,0,0,-1,685,477,0,0
-532,547,0,0,0,0,0,0,0,0,0,-1,692,477,0,0
-525,547,0,0,0,0,0,0,0,0,0,-1,699,477,0,0
-518,547,0,0,0,0,0,0,0,0,0,-1,706,477,0,0
-511,547,0,0,0,0,0,0,0,0,0,-1,713,477,0,0
-504,547,0,0,0,0,0,0,0,0,0,-1,720,477,0,0
-497,547,0,0,0,0,0,0,0,0,0,-1,727,477,0,0
-490,547,0,0,0,0,0,0,0,0,0,-1,734,477,0,0
-483,547,0,0,0,0,0,0,0,0,0,-1,741,477,0,0
-476,547,0,0,0,0,0,0,0,0,0,-1,748,477,0,0
-469,547,0,0,0,0,0,0,0,0,0,-1,755,477,0,0
-462,547,0,0,0,0,0,0,0,0,0,-1,762,477,0,0
-455,547,0,0,0,0,0,0,0,0,0,-1,769,477,0,0
-448,547,0,0,0,0,0,0,0,0,0,-1,776,477,0,0
-441,547,0,0,0,0,0,0,0,0,0,-1,783,477,0,0
-434,547,0,0,0,0,0,0,0,0,0,-1,790,477,0,0
-427,547,0,0,0,0,0,0,0,0,0,-1,797,477,0,0
-420,547,0,0,0,0,0,0,0,0,0,-1,804,477,0,0
-413,547,0,0,0,0,0,0,0,0,0,-1,811,477,0,0
-406,547,0.144592,-11.0292,0,0,0,0,0,0,0,-1,818,477,0.144583,11.0292
-399,547,0.775513,-10.0294,0,0,0,0,0,0,0,-1,825,477,0.775482,10.0295
-392,547,-1.52271,-4.41675,0,0,0,0,0,0,0,-1,832,477,-1.52273,4.41674
-385,547,-1.73743,-4.6431,0,0,0,0,0,0,0,-1,839,477,-1.73743,4.64308
-378,547,-2.41339,-4.60071,0,0,0,0,0,0,0,-1,846,477,-2.41337,4.60071
-371,547,1.64569,-11.1445,0,0,0,0,0,0,0,-1,853,477,1.64569,11.1445
-364,547,0.820679,-21.7277,0,0,0,0,0,0,0,-1,860,477,0.820701,21.7277
-357,547,0.907837,-22.7783,0,0,0,0,0,0,0,-1,867,477,0.907843,22.7783
-350,547,0.902649,-23.9866,0,0,0,0,0,0,0,-1,874,477,0.902662,23.9866
-343,547,0.79364,-24.8143,-0.00169872,0.0211693,-0.00652835,0.0229018,-0.00343118,-1.3114,0.0165307,0.0474783,881,477,0.79363,24.8143
-336,547,0.746887,-25.6754,-0.00231947,0.0162801,-0.00444845,0.0172892,-0.00332865,-1.34771,0.012781,0.0200307,888,477,0.74691,25.6754
-329,547,0.639099,-26.3745,-0.00273296,0.0114925,-0.00268892,0.0119838,-0.00322426,-1.39008,0.00925316,0.0118074,895,477,0.639105,26.3745
-322,547,0.596375,-27.0554,-0.00273804,0.008585,-0.0017967,0.00886325,-0.00301629,-1.41715,0.0071302,0.0111736,902,477,0.596356,27.0554
-315,547,0.535278,-27.7432,-0.00247562,0.00655223,-0.00130252,0.0067364,-0.00265978,-1.43033,0.00559249,0.0104165,909,477,0.535267,27.7432
-308,547,0.508911,-28.386,-0.00212334,0.00508961,-0.00103174,0.00523429,-0.00226802,-1.43148,0.00444288,0.0117172,916,477,0.508928,28.386
-301,547,0.513245,-29.0364,-0.0016428,0.00377125,-0.000900077,0.00391697,-0.00178852,-1.4103,0.0033696,0.0115538,923,477,0.513262,29.0364
-294,547,0.471985,-29.6741,-0.00104916,0.00286063,-0.000723197,0.00299011,-0.00117864,-1.39363,0.00248142,0.0104629,930,477,0.471971,29.6741
-287,547,0.408264,-30.2975,-0.000463427,0.00212319,-0.000503254,0.00221765,-0.000557891,-1.38525,0.00169528,0.012001,937,477,0.408286,30.2975
-280,547,0.399414,-30.9294,9.53624e-06,0.00114641,-0.000240175,0.00119507,-3.91204e-05,-1.37091,0.000810066,0.0127556,944,477,0.399432,30.9294
-273,547,0.375183,-31.541,0.00040627,-2.60708e-05,0.000154438,0.00045577,-7.55709e-05,0.310172,0.000331917,0.012542,951,477,0.375197,31.541
-266,547,0.345215,-32.1397,0.000928021,-0.00143302,0.000681988,0.00111085,-0.00161586,0.26193,0.00158324,0.0128817,958,477,0.345191,32.1397
-259,547,0.316833,-32.719,0.00141262,-0.00327099,0.00140023,0.00179931,-0.00365768,0.269447,0.00321092,0.0118144,965,477,0.316843,32.719
-252,547,0.316772,-33.3119,0.00178931,-0.00556876,0.00230375,0.00245108,-0.00623053,0.279725,0.00516823,0.0111502,972,477,0.316766,33.3119
-245,547,0.313904,-33.915,0.00216527,-0.00803577,0.00321407,0.00309347,-0.00896397,0.281145,0.00723117,0.0123776,979,477,0.313883,33.915
-238,547,0.325989,-34.5081,0.00269327,-0.0108588,0.00416388,0.00387038,-0.0120359,0.275507,0.00957836,0.00897914,986,477,0.325982,34.5082
-231,547,0.321716,-35.0797,0.00338768,-0.0139902,0.00511869,0.00478331,-0.0153858,0.266185,0.0121692,0.00823211,993,477,0.321699,35.0797
-224,547,0.310059,-35.6003,0.00411931,-0.0174561,0.00601555,0.00568318,-0.01902,0.254341,0.0149392,0.0105355,1000,477,0.310028,35.6003
-217,547,0.313599,-36.1119,0.00486913,-0.0209758,0.00682156,0.00655912,-0.0226658,0.242853,0.0177066,0.0164632,1007,477,0.313583,36.1119
-210,547,0.302979,-36.5172,0.00568561,-0.0241921,0.00724231,0.00734858,-0.0258551,0.225706,0.0201382,0.0278505,1014,477,0.302956,36.5172
-203,547,0.277405,-36.7101,0.0068001,-0.0269965,0.00726204,0.00829446,-0.0284908,0.202944,0.0222795,0.0422197,1021,477,0.277406,36.7101
-196,547,0.344727,-37.2155,0,0,0,0,0,0,0,-1,1028,477,0.344744,37.2155
-189,547,0.377686,-37.5015,0,0,0,0,0,0,0,-1,1035,477,0.377733,37.5015
-182,547,0.480225,-37.9853,0,0,0,0,0,0,0,-1,1042,477,0.480169,37.9853
-175,547,0.609131,-38.4625,0,0,0,0,0,0,0,-1,1049,477,0.609102,38.4625
-168,547,0.761719,-32.9387,0,0,0,0,0,0,0,-1,1056,477,0.761738,32.9387
-161,547,0.0430908,-34.6016,0,0,0,0,0,0,0,-1,1063,477,0.0431231,34.6016
-154,547,-0.284424,-31.1176,0,0,0,0,0,0,0,-1,1070,477,-0.284395,31.1176
-147,547,3.69434,-26.413,0,0,0,0,0,0,0,-1,1077,477,3.69437,26.413
-140,547,1.55676,-22.5229,0,0,0,0,0,0,0,-1,1084,477,1.5568,22.5229
-133,547,2.31665,-17.9421,0,0,0,0,0,0,0,-1,1091,477,2.31667,17.9421
-126,547,-1.15271,-30.6984,0,0,0,0,0,0,0,-1,1098,477,-1.15267,30.6984
-119,547,0.967651,-24.9351,0,0,0,0,0,0,0,-1,1105,477,0.967657,24.9351
-112,547,1.15674,-22.2276,0,0,0,0,0,0,0,-1,1112,477,1.15677,22.2276
-105,547,0.966797,-20.5777,0,0,0,0,0,0,0,-1,1119,477,0.966804,20.5777
-98,547,0.70166,-18.9755,0,0,0,0,0,0,0,-1,1126,477,0.701713,18.9755
-91,547,1.37805,-7.12024,0,0,0,0,0,0,0,-1,1133,477,1.37804,7.12025
-84,547,1.94202,-6.66241,0,0,0,0,0,0,0,-1,1140,477,1.94201,6.66241
-77,547,-2.28357,1.8588,0,0,0,0,0,0,0,-1,1147,477,-2.28356,-1.85879
-70,547,-3.70178,-0.874908,0,0,0,0,0,0,0,-1,1154,477,-3.70182,0.874918
-63,547,-5.12012,-3.60861,0,0,0,0,0,0,0,-1,1161,477,-5.12009,3.60862
-56,547,-6.01917,-6.2399,0,0,0,0,0,0,0,-1,1168,477,-6.01921,6.23991
-49,547,-6.729,-8.60349,0,0,0,0,0,0,0,-1,1175,477,-6.72899,8.60348
-42,547,-2.41736,-5.53012,0,0,0,0,0,0,0,-1,1182,477,-2.41734,5.53011
-35,547,-2.96838,-4.45734,0,0,0,0,0,0,0,-1,1189,477,-2.96839,4.45734
-28,547,-0.869141,-1.29901,0,0,0,0,0,0,0,-1,1196,477,-0.869135,1.29901
-21,547,-7.68262,-30.8089,0,0,0,0,0,0,0,-1,1203,477,-7.68256,30.8089
-14,547,9.56482,-44.7078,0,0,0,0,0,0,0,-1,1210,477,9.56486,44.7078
-7,547,9.69824,-45.5137,0,0,0,0,0,0,0,-1,1217,477,9.69819,45.5137
0,547,9.78687,-46.166,0,0,0,0,0,0,0,-1,1224,477,9.78691,46.166
7,547,9.12305,-44.3668,0,0,0,0,0,0,0,-1,1231,477,9.12307,44.3668
14,547,0,0,0,0,0,0,0,0,0,-1,1238,477,0,0
21,547,0,0,0,0,0,0,0,0,0,-1,1245,477,0,0
28,547,0,0,0,0,0,0,0,0,0,-1,1252,477,0,0
35,547,0,0,0,0,0,0,0,0,0,-1,1259,477,0,0
42,547,0,0,0,0,0,0,0,0,0,-1,1266,477,0,0
49,547,0,0,0,0,0,0,0,0,0,-1,1273,477,0,0
56,547,0,0,0,0,0,0,0,0,0,-1,1280,477,0,0
63,547,0,0,0,0,0,0,0,0,0,-1,1287,477,0,0
70,547,0,0,0,0,0,0,0,0,0,-1,1294,477,0,0
77,547,0,0,0,0,0,0,0,0,0,-1,1301,477,0,0
84,547,0,0,0,0,0,0,0,0,0,-1,1308,477,0,0
91,547,0,0,0,0,0,0,0,0,0,-1,1315,477,0,0
98,547,0,0,0,0,0,0,0,0,0,-1,1322,477,0,0
105,547,4.11255,-48.5217,0.0265628,-0.0150477,0.0306621,0.0428119,-0.0312967,0.487312,0.0429584,0.0443126,1329,477,4.1125,48.5217
112,547,4.23804,-48.0172,0.0307157,-0.0228295,0.0370855,0.0496826,-0.0417964,0.472756,0.0528809,0.0441172,1336,477,4.23804,48.0171
119,547,4.30542,-47.8135,0,0,0,0,0,0,0,-1,1343,477,4.30539,47.8135
126,547,4.67566,-47.7916,0,0,0,0,0,0,0,-1,1350,477,4.67568,47.7916
133,547,4.9325,-47.6521,0,0,0,0,0,0,0,-1,1357,477,4.93245,47.6521
140,547,4.87366,-46.537,0,0,0,0,0,0,0,-1,1364,477,4.87371,46.537
147,547,5.09985,-46.2615,0,0,0,0,0,0,0,-1,1371,477,5.09988,46.2615
154,547,5.35095,-45.9897,0,0,0,0,0,0,0,-1,1378,477,5.35094,45.9898
161,547,5.91479,-45.2469,0,0,0,0,0,0,0,-1,1385,477,5.91475,45.2469
168,547,-0.28186,-46.5668,0,0,0,0,0,0,0,-1,1392,477,-0.281851,46.5668
175,547,3.35034,-0.26532,0,0,0,0,0,0,0,-1,1399,477,3.3503,0.265306
182,547,4.26038,3.72672,0,0,0,0,0,0,0,-1,1406,477,4.26039,-3.7267
189,547,3.40454,1.28671,0,0,0,0,0,0,0,-1,1413,477,3.40457,-1.28673
196,547,3.53931,1.87793,0,0,0,0,0,0,0,-1,1420,477,3.53928,-1.87794
203,547,6.49414,-0.425842,0,0,0,0,0,0,0,-1,1427,477,6.4941,0.425844
210,547,4.82092,0.53595,0,0,0,0,0,0,0,-1,1434,477,4.82096,-0.535942
217,547,4.68579,0.480072,0,0,0,0,0,0,0,-1,1441,477,4.68577,-0.480069
224,547,4.55615,0.739807,0,0,0,0,0,0,0,-1,1448,477,4.55613,-0.73981
231,547,5.90869,-3.57721,0,0,0,0,0,0,0,-1,1455,477,5.90871,3.57722
238,547,5.50049,-3.15356,0,0,0,0,0,0,0,-1,1462,477,5.50045,3.15356
245,547,5.13708,-2.65213,0,0,0,0,0,0,0,-1,1469,477,5.13708,2.65212
252,547,3.73511,-0.645233,0,0,0,0,0,0,0,-1,1476,477,3.73515,0.645237
259,547,5.86816,-3.20816,0,0,0,0,0,0,0,-1,1483,477,5.86815,3.20816
266,547,5.40222,-2.45731,0,0,0,0,0,0,0,-1,1490,477,5.40221,2.45732
273,547,3.05737,0.495789,0,0,0,0,0,0,0,-1,1497,477,3.05742,-0.49578
280,547,2.0885,1.47797,0,0,0,0,0,0,0,-1,1504,477,2.08848,-1.47795
287,547,2.31177,-2.21716,0,0,0,0,0,0,0,-1,1511,477,2.31174,2.21717
294,547,2.4823,-3.03659,0,0,0,0,0,0,0,-1,1518,477,2.48229,3.0366
301,547,4.72119,-3.93454,0,0,0,0,0,0,0,-1,1525,477,4.72119,3.93453
308,547,4.07471,-5.42175,0,0,0,0,0,0,0,-1,1532,477,4.07468,5.42174
315,547,3.58496,-6.62112,0,0,0,0,0,0,0,-1,1539,477,3.58497,6.62113
322,547,11.9897,-37.1262,0,0,0,0,0,0,0,-1,1546,477,11.9897,37.1262
329,547,12.0758,-36.6014,0,0,0,0,0,0,0,-1,1553,477,12.0758,36.6014
336,547,12.2312,-36.2559,0.00196358,-0.00671767,-0.0055524,0.00467066,-0.00942475,-0.45364,0.00829085,0.0430119,1560,477,12.2312,36.2559
343,547,12.1698,-35.6998,0.00130769,-0.00562272,-0.00510981,0.00401645,-0.00833148,-0.487444,0.00727273,0.0351145,1567,477,12.1699,35.6998
350,547,12.0801,-35.0546,0.00063659,-0.00520612,-0.00482571,0.00335632,-0.00792585,-0.513218,0.00668948,0.0252364,1574,477,12.0801,35.0546
357,547,12.0643,-34.4504,0.000239728,-0.00449035,-0.00425784,0.00274528,-0.0069959,-0.531888,0.0057998,0.0162176,1581,477,12.0643,34.4504
364,547,12.0453,-33.8665,-3.00892e-05,-0.00360531,-0.00361365,0.00221392,-0.00584932,-0.555706,0.00481045,0.0110332,1588,477,12.0453,33.8665
371,547,12.0555,-33.2601,-0.00013415,-0.00275425,-0.0029166,0.00175311,-0.00464151,-0.574316,0.00381541,0.00973685,1595,477,12.0556,33.2601
378,547,12.0592,-32.6472,-0.00021976,-0.00169031,-0.002191,0.00135605,-0.00326612,-0.623509,0.00274352,0.00955263,1602,477,12.0592,32.6472
385,547,12.0237,-32.0193,-0.000188724,-0.000674076,-0.00141339,0.00100267,-0.00186547,-0.700378,0.00168071,0.0100088,1609,477,12.0237,32.0193
392,547,11.9956,-31.3786,-5.87554e-05,6.10044e-05,-0.000712842,0.000716477,-0.000714228,-0.827301,0.000826018,0.0114844,1616,477,11.9956,31.3786
399,547,11.9641,-30.7559,9.33238e-05,0.000850055,-0.000174691,0.000888436,5.49433e-05,-1.35453,0.000574852,0.0134934,1623,477,11.9642,30.7558
406,547,11.9613,-30.119,0.000180588,0.00159669,0.000283686,0.00165141,0.000125871,1.38026,0.00106147,0.0141414,1630,477,11.9613,30.119
413,547,11.9545,-29.4724,0.000193372,0.0023312,0.000742637,0.00256386,-3.92848e-05,1.2672,0.00172248,0.0145958,1637,477,11.9545,29.4724
420,547,11.9335,-28.8634,0.00010603,0.00284821,0.00095889,0.00315024,-0.000196008,1.26565,0.00216845,0.0167541,1644,477,11.9335,28.8634
427,547,11.9244,-28.186,-0.000130927,0.00287955,0.0011458,0.00326603,-0.000517406,1.24548,0.00236873,0.0155217,1651,477,11.9245,28.186
434,547,11.856,-27.5368,-0.000537942,0.00296189,0.00105917,0.00325747,-0.000833522,1.29865,0.00249631,0.0109122,1658,477,11.856,27.5368
441,547,11.8196,-26.875,-0.000994403,0.00297465,0.000986956,0.00320653,-0.00122628,1.34004,0.00264303,0.0117932,1665,477,11.8196,26.875
448,547,11.7799,-26.1805,-0.00163314,0.00274859,0.000764691,0.00287821,-0.00176276,1.40289,0.00270514,0.0123911,1672,477,11.7799,26.1805
455,547,11.76,-25.4985,-0.00248464,0.00236707,0.000376581,0.00239612,-0.0025137,1.49379,0.00283496,0.0124609,1679,477,11.76,25.4985
462,547,11.707,-24.8186,-0.00345324,0.00194468,-0.000123924,0.00194752,-0.00345608,-1.54785,0.00316004,0.0116167,1686,477,11.707,24.8186
469,547,11.6111,-24.1233,-0.00470625,0.00108627,-0.000872568,0.00121485,-0.00483484,-1.42448,0.00369535,0.0193801,1693,477,11.611,24.1233
476,547,11.5242,-23.1583,-0.00590408,-0.000269141,-0.00230495,0.000553575,-0.00672679,-1.22796,0.00467998,0.0358088,1700,477,11.5242,23.1583
483,547,11.4905,-22.1256,0,0,0,0,0,0,0,-1,1707,477,11.4904,22.1256
490,547,3.65271,-3.71707,0,0,0,0,0,0,0,-1,1714,477,3.65277,3.71708
497,547,2.55481,-3.81421,0,0,0,0,0,0,0,-1,1721,477,2.55476,3.8142
504,547,4.01953,-2.22714,0,0,0,0,0,0,0,-1,1728,477,4.0195,2.22713
511,547,5.2146,-6.9552,0,0,0,0,0,0,0,-1,1735,477,5.21464,6.95521
518,547,5.24243,-6.56122,0,0,0,0,0,0,0,-1,1742,477,5.24241,6.56121
525,547,5.89368,-5.49866,0,0,0,0,0,0,0,-1,1749,477,5.89372,5.49866
532,547,0,0,0,0,0,0,0,0,0,-1,1756,477,0,0
539,547,0,0,0,0,0,0,0,0,0,-1,1763,477,0,0
546,547,0,0,0,0,0,0,0,0,0,-1,1770,477,0,0
553,547,0,0,0,0,0,0,0,0,0,-1,1777,477,0,0
560,547,0,0,0,0,0,0,0,0,0,-1,1784,477,0,0
567,547,0,0,0,0,0,0,0,0,0,-1,1791,477,0,0
574,547,0,0,0,0,0,0,0,0,0,-1,1798,477,0,0
581,547,0,0,0,0,0,0,0,0,0,-1,1805,477,0,0
588,547,0,0,0,0,0,0,0,0,0,-1,1812,477,0,0
595,547,0,0,0,0,0,0,0,0,0,-1,1819,477,0,0
602,547,0,0,0,0,0,0,0,0,0,-1,1826,477,0,0
609,547,0,0,0,0,0,0,0,0,0,-1,1833,477,0,0
616,547,0,0,0,0,0,0,0,0,0,-1,1840,477,0,0
623,547,0,0,0,0,0,0,0,0,0,-1,1847,477,0,0
630,547,0,0,0,0,0,0,0,0,0,-1,1854,477,0,0
637,547,0,0,0,0,0,0,0,0,0,-1,1861,477,0,0
644,547,0,0,0,0,0,0,0,0,0,-1,1868,477,0,0
651,547,0,0,0,0,0,0,0,0,0,-1,1875,477,0,0
658,547,0,0,0,0,0,0,0,0,0,-1,1882,477,0,0
665,547,0,0,0,0,0,0,0,0,0,-1,1889,477,0,0
672,547,0,0,0,0,0,0,0,0,0,-1,1896,477,0,0
679,547,0,0,0,0,0,0,0,0,0,-1,1903,477,0,0
686,547,0,0,0,0,0,0,0,0,0,-1,1910,477,0,0
693,547,0,0,0,0,0,0,0,0,0,-1,1917,477,0,0
700,547,0,0,0,0,0,0,0,0,0,-1,1924,477,0,0
707,547,0,0,0,0,0,0,0,0,0,-1,1931,477,0,0
714,547,0,0,0,0,0,0,0,0,0,-1,1938,477,0,0
721,547,0,0,0,0,0,0,0,0,0,-1,1945,477,0,0
728,547,0,0,0,0,0,0,0,0,0,-1,1952,477,0,0
735,547,0,0,0,0,0,0,0,0,0,-1,1959,477,0,0
742,547,0,0,0,0,0,0,0,0,0,-1,1966,477,0,0
749,547,0,0,0,0,0,0,0,0,0,-1,1973,477,0,0
756,547,0,0,0,0,0,0,0,0,0,-1,1980,477,0,0
763,547,0,0,0,0,0,0,0,0,0,-1,1987,477,0,0
770,547,0,0,0,0,0,0,0,0,0,-1,1994,477,0,0
777,547,0,0,0,0,0,0,0,0,0,-1,2001,477,0,0
784,547,0,0,0,0,0,0,0,0,0,-1,2008,477,0,0
791,547,0,0,0,0,0,0,0,0,0,-1,2015,477,0,0
798,547,0,0,0,0,0,0,0,0,0,-1,2022,477,0,0
805,547,0,0,0,0,0,0,0,0,0,-1,2029,477,0,0
812,547,0,0,0,0,0,0,0,0,0,-1,2036,477,0,0
-700,540,0,0,0,0,0,0,0,0,0,-1,524,484,0,0
-693,540,0,0,0,0,0,0,0,0,0,-1,531,484,0,0
-686,540,0,0,0,0,0,0,0,0,0,-1,538,484,0,0
-679,540,0,0,0,0,0,0,0,0,0,-1,545,484,0,0
-672,540,0,0,0,0,0,0,0,0,0,-1,552,484,0,0
-665,540,0,0,0,0,0,0,0,0,0,-1,559,484,0,0
-658,540,0,0,0,0,0,0,0,0,0,-1,566,484,0,0
-651,540,0,0,0,0,0,0,0,0,0,-1,573,484,0,0
-644,540,0,0,0,0,0,0,0,0,0,-1,580,484,0,0
-637,540,0,0,0,0,0,0,0,0,0,-1,587,484,0,0
-630,540,0,0,0,0,0,0,0,0,0,-1,594,484,0,0
-623,540,0,0,0,0,0,0,0,0,0,-1,601,484,0,0
-616,540,0,0,0,0,0,0,0,0,0,-1,608,484,0,0
-609,540,0,0,0,0,0,0,0,0,0,-1,615,484,0,0
-602,540,0,0,0,0,0,0,0,0,0,-1,622,484,0,0
-595,540,0,0,0,0,0,0,0,0,0,-1,629,484,0,0
-588,540,0,0,0,0,0,0,0,0,0,-1,636,484,0,0
-581,540,0,0,0,0,0,0,0,0,0,-1,643,484,0,0
-574,540,0,0,0,0,0,0,0,0,0,-1,650,484,0,0
-567,540,0,0,0,0,0,0,0,0,0,-1,657,484,0,0
-560,540,0,0,0,0,0,0,0,0,0,-1,664,484,0,0
-553,540,0,0,0,0,0,0,0,0,0,-1,671,484,0,0
-546,540,0,0,0,0,0,0,0,0,0,-1,678,484,0,0
-539,540,0,0,0,0,0,0,0,0,0,-1,685,484,0,0
-532,540,0,0,0,0,0,0,0,0,0,-1,692,484,0,0
-525,540,0,0,0,0,0,0,0,0,0,-1,699,484,0,0
-518,540,0,0,0,0,0,0,0,0,0,-1,706,484,0,0
-511,540,0,0,0,0,0,0,0,0,0,-1,713,484,0,0
-504,540,0,0,0,0,0,0,0,0,0,-1,720,484,0,0
-497,540,0,0,0,0,0,0,0,0,0,-1,727,484,0,0
-490,540,0,0,0,0,0,0,0,0,0,-1,734,484,0,0
-483,540,0,0,0,0,0,0,0,0,0,-1,741,484,0,0
-476,540,0,0,0,0,0,0,0,0,0,-1,748,484,0,0
-469,540,0,0,0,0,0,0,0,0,0,-1,755,484,0,0
-462,540,0,0,0,0,0,0,0,0,0,-1,762,484,0,0
-455,540,0,0,0,0,0,0,0,0,0,-1,769,484,0,0
-448,540,0,0,0,0,0,0,0,0,0,-1,776,484,0,0
-441,540,0,0,0,0,0,0,0,0,0,-1,783,484,0,0
-434,540,0,0,0,0,0,0,0,0,0,-1,790,484,0,0
-427,540,0,0,0,0,0,0,0,0,0,-1,797,484,0,0
-420,540,0.227051,-10.0402,0,0,0,0,0,0,0,-1,804,484,0.227063,10.0402
-413,540,-0.0393677,-10.3862,0,0,0,0,0,0,0,-1,811,484,-0.0393683,10.3862
-406,540,-0.518372,-11.5288,0,0,0,0,0,0,0,-1,818,484,-0.518402,11.5288
-399,540,0.0863037,-11.3801,0,0,0,0,0,0,0,-1,825,484,0.0863201,11.3801
-392,540,-0.517395,-10.6735,0,0,0,0,0,0,0,-1,832,484,-0.517377,10.6735
-385,540,-2.29407,-5.03418,0,0,0,0,0,0,0,-1,839,484,-2.29408,5.03418
-378,540,1.06445,-10.5824,0,0,0,0,0,0,0,-1,846,484,1.06446,10.5824
-371,540,0.873779,-20.9321,0,0,0,0,0,0,0,-1,853,484,0.87379,20.9321
-364,540,0.318909,-22.1386,0,0,0,0,0,0,0,-1,860,484,0.31893,22.1386
-357,540,0.238159,-23.0699,0.00234787,0.0314333,-0.013397,0.0366636,-0.00288239,-1.19859,0.0254576,0.0459613,867,484,0.238163,23.07
-350,540,0.158142,-23.9387,0.000593905,0.0240251,-0.00953735,0.0274163,-0.00279733,-1.22916,0.0192778,0.0370285,874,484,0.158144,23.9387
-343,540,0.0966187,-24.9344,-0.000559824,0.0183521,-0.00672984,0.0205024,-0.00271015,-1.26153,0.0146554,0.0196695,881,484,0.0966246,24.9344
-336,540,0.0140381,-25.762,-0.0012045,0.0140408,-0.0046654,0.0153552,-0.00251889,-1.29618,0.0111715,0.0135096,888,484,0.0140471,25.762
-329,540,-0.0313721,-26.4069,-0.00167404,0.00965293,-0.00283957,0.0103249,-0.00234603,-1.33842,0.00778404,0.0104275,895,484,-0.0313484,26.4069
-322,540,-0.0682983,-27.0625,-0.00175322,0.00702547,-0.00182096,0.0073882,-0.00211595,-1.37417,0.00576178,0.0135258,902,484,-0.06828,27.0625
-315,540,-0.109253,-27.7238,-0.00157108,0.00506866,-0.00116731,0.0052679,-0.00177032,-1.40174,0.00422746,0.012869,909,484,-0.109238,27.7238
-308,540,-0.116577,-28.3566,-0.00127684,0.00361785,-0.000738613,0.00372688,-0.00138587,-1.42424,0.00305325,0.0124139,916,484,-0.116599,28.3566
-301,540,-0.14624,-28.9739,-0.000869899,0.00233414,-0.000458978,0.00239859,-0.000934351,-1.43128,0.00198521,0.0121014,923,484,-0.146255,28.9739
-294,540,-0.160767,-29.6183,-0.000335178,0.00141726,-0.000154991,0.00143087,-0.00034878,-1.48326,0.00108895,0.011344,930,484,-0.160754,29.6183
-287,540,-0.18457,-30.2667,0.000218545,0.00063066,0.000171198,0.000692499,0.000156706,1.22417,0.000419308,0.00858207,937,484,-0.184582,30.2667
-280,540,-0.217224,-30.8834,0.000603958,-0.00046937,0.000542386,0.000830308,-0.00069572,0.395351,0.000882195,0.00960916,944,484,-0.21722,30.8834
-273,540,-0.218628,-31.4852,0.000959876,-0.00177534,0.00108652,0.00133894,-0.0021544,0.335679,0.00203512,0.0122062,951,484,-0.218641,31.4852
-266,540,-0.232971,-32.1024,0.00153593,-0.0032954,0.00173343,0.00209352,-0.00385298,0.311213,0.00348294,0.0143397,958,484,-0.232955,32.1024
-259,540,-0.27063,-32.7261,0.00201767,-0.00533195,0.00251988,0.00279865,-0.00611293,0.300538,0.00526237,0.0136983,965,484,-0.270653,32.7261
-252,540,-0.276917,-33.2963,0.00240701,-0.00795477,0.0034888,0.00347219,-0.00901994,0.296324,0.00744564,0.0122755,972,484,-0.276921,33.2963
-245,540,-0.275757,-33.8821,0.00280068,-0.0108057,0.00450773,0.00415855,-0.0121636,0.292587,0.00979411,0.0127514,979,484,-0.27575,33.8821
-238,540,-0.28772,-34.4366,0.0033715,-0.0139998,0.00554515,0.00499067,-0.0156189,0.284099,0.0124152,0.0104668,986,484,-0.287707,34.4366
-231,540,-0.290833,-34.9887,0.00421165,-0.0176279,0.00660395,0.00605329,-0.0194696,0.27196,0.0153993,0.014323,993,484,-0.290815,34.9887
-224,540,-0.320129,-35.4898,0.0050583,-0.0217952,0.00766929,0.00709427,-0.0238312,0.259485,0.0187061,0.0230747,1000,484,-0.320134,35.4898
-217,540,-0.300354,-35.7979,0.00591301,-0.0261494,0.00869279,0.00811815,-0.0283545,0.248434,0.0221115,0.0336527,1007,484,-0.300361,35.7978
-210,540,-0.218323,-36.1877,0.00686193,-0.0302495,0.00926546,0.0090466,-0.0324341,0.231557,0.0251858,0.0439942,1014,484,-0.218349,36.1877
-203,540,-0.356262,-36.5828,0,0,0,0,0,0,0,-1,1021,484,-0.356278,36.5828
-196,540,-0.485962,-36.4427,0,0,0,0,0,0,0,-1,1028,484,-0.485982,36.4427
-189,540,-0.726807,-22.826,0,0,0,0,0,0,0,-1,1035,484,-0.72684,22.8259
-182,540,0.109375,-15.2948,0,0,0,0,0,0,0,-1,1042,484,0.109331,15.2948
-175,540,1.73413,-10.728,0,0,0,0,0,0,0,-1,1049,484,1.73414,10.728
-168,540,1.18164,-7.65347,0,0,0,0,0,0,0,-1,1056,484,1.18163,7.65347
-161,540,-0.405884,-9.86481,0,0,0,0,0,0,0,-1,1063,484,-0.405886,9.8648
-154,540,1.96863,-22.0727,0,0,0,0,0,0,0,-1,1070,484,1.96859,22.0727
-147,540,1.32764,-21.9952,0,0,0,0,0,0,0,-1,1077,484,1.32762,21.9952
-140,540,1.40735,-15.6289,0,0,0,0,0,0,0,-1,1084,484,1.4073,15.6289
-133,540,2.28345,-17.6413,0,0,0,0,0,0,0,-1,1091,484,2.2835,17.6413
-126,540,1.25293,-23.9108,0,0,0,0,0,0,0,-1,1098,484,1.25288,23.9108
-119,540,1.55969,-23.0125,0,0,0,0,0,0,0,-1,1105,484,1.55968,23.0125
-112,540,1.4801,-21.6515,0,0,0,0,0,0,0,-1,1112,484,1.4801,21.6515
-105,540,1.30078,-19.8938,0,0,0,0,0,0,0,-1,1119,484,1.30077,19.8938
-98,540,1.08105,-18.1304,0,0,0,0,0,0,0,-1,1126,484,1.08101,18.1304
-91,540,1.56519,-7.48666,0,0,0,0,0,0,0,-1,1133,484,1.56514,7.48667
-84,540,-0.945923,4.43073,0,0,0,0,0,0,0,-1,1140,484,-0.945891,-4.43074
-77,540,-2.28894,2.14368,0,0,0,0,0,0,0,-1,1147,484,-2.28894,-2.14368
-70,540,-3.75244,-0.452576,0,0,0,0,0,0,0,-1,1154,484,-3.75244,0.452576
-63,540,-5.26257,-3.04767,0,0,0,0,0,0,0,-1,1161,484,-5.26262,3.04766
-56,540,-5.19055,-6.12595,0,0,0,0,0,0,0,-1,1168,484,-5.19057,6.12595
-49,540,-5.63867,-8.52298,0,0,0,0,0,0,0,-1,1175,484,-5.63871,8.52298
-42,540,0,0,0,0,0,0,0,0,0,-1,1182,484,0,0
-35,540,0,0,0,0,0,0,0,0,0,-1,1189,484,0,0
-28,540,0,0,0,0,0,0,0,0,0,-1,1196,484,0,0
-21,540,0,0,0,0,0,0,0,0,0,-1,1203,484,0,0
-14,540,0,0,0,0,0,0,0,0,0,-1,1210,484,0,0
-7,540,0,0,0,0,0,0,0,0,0,-1,1217,484,0,0
0,540,0,0,0,0,0,0,0,0,0,-1,1224,484,0,0
7,540,0,0,0,0,0,0,0,0,0,-1,1231,484,0,0
14,540,0,0,0,0,0,0,0,0,0,-1,1238,484,0,0
21,540,0,0,0,0,0,0,0,0,0,-1,1245,484,0,0
28,540,0,0,0,0,0,0,0,0,0,-1,1252,484,0,0
35,540,0,0,0,0,0,0,0,0,0,-1,1259,484,0,0
42,540,0,0,0,0,0,0,0,0,0,-1,1266,484,0,0
49,540,0,0,0,0,0,0,0,0,0,-1,1273,484,0,0
56,540,0,0,0,0,0,0,0,0,0,-1,1280,484,0,0
63,540,0,0,0,0,0,0,0,0,0,-1,1287,484,0,0
70,540,0,0,0,0,0,0,0,0,0,-1,1294,484,0,0
77,540,0,0,0,0,0,0,0,0,0,-1,1301,484,0,0
84,540,0,0,0,0,0,0,0,0,0,-1,1308,484,0,0
91,540,0,0,0,0,0,0,0,0,0,-1,1315,484,0,0
98,540,0,0,0,0,0,0,0,0,0,-1,1322,484,0,0
105,540,0,0,0,0,0,0,0,0,0,-1,1329,484,0,0
112,540,0,0,0,0,0,0,0,0,0,-1,1336,484,0,0
119,540,0,0,0,0,0,0,0,0,0,-1,1343,484,0,0
126,540,0,0,0,0,0,0,0,0,0,-1,1350,484,0,0
133,540,0,0,0,0,0,0,0,0,0,-1,1357,484,0,0
140,540,0,0,0,0,0,0,0,0,0,-1,1364,484,0,0
147,540,0,0,0,0,0,0,0,0,0,-1,1371,484,0,0
154,540,0,0,0,0,0,0,0,0,0,-1,1378,484,0,0
161,540,0,0,0,0,0,0,0,0,0,-1,1385,484,0,0
168,540,3.05078,-0.0010376,0,0,0,0,0,0,0,-1,1392,484,3.05084,0.00102554
175,540,3.37708,0.617035,0,0,0,0,0,0,0,-1,1399,484,3.37707,-0.617046
182,540,3.32678,1.23267,0,0,0,0,0,0,0,-1,1406,484,3.32678,-1.23266
189,540,3.5813,2.15619,0,0,0,0,0,0,0,-1,1413,484,3.58129,-2.1562
196,540,1.84448,-0.801483,0,0,0,0,0,0,0,-1,1420,484,1.84446,0.80148
203,540,4.14648,0.702087,0,0,0,0,0,0,0,-1,1427,484,4.14645,-0.702089
210,540,4.50671,-0.56076,0,0,0,0,0,0,0,-1,1434,484,4.50667,0.560771
217,540,5.00452,-0.278717,0,0,0,0,0,0,0,-1,1441,484,5.00452,0.278709
224,540,6.44458,-2.83527,0,0,0,0,0,0,0,-1,1448,484,6.44457,2.83525
231,540,6.9231,-3.10504,0,0,0,0,0,0,0,-1,1455,484,6.92307,3.10505
238,540,6.4823,-2.58365,0,0,0,0,0,0,0,-1,1462,484,6.48225,2.58363
245,540,6.02087,-1.97916,0,0,0,0,0,0,0,-1,1469,484,6.02088,1.97915
252,540,6.50647,-3.56006,0,0,0,0,0,0,0,-1,1476,484,6.50649,3.56006
259,540,6.01941,-2.798,0,0,0,0,0,0,0,-1,1483,484,6.01941,2.79801
266,540,5.5332,-2.02853,0,0,0,0,0,0,0,-1,1490,484,5.53323,2.02855
273,540,5.06787,-1.28137,0,0,0,0,0,0,0,-1,1497,484,5.06786,1.28136
280,540,1.62903,-2.14609,0,0,0,0,0,0,0,-1,1504,484,1.62906,2.1461
287,540,1.97156,-2.45053,0,0,0,0,0,0,0,-1,1511,484,1.97159,2.45053
294,540,2.44165,-2.6185,0,0,0,0,0,0,0,-1,1518,484,2.44167,2.6185
301,540,4.36169,-2.54272,0,0,0,0,0,0,0,-1,1525,484,4.36165,2.54272
308,540,4.2019,-4.30469,0,0,0,0,0,0,0,-1,1532,484,4.20193,4.3047
315,540,4.45923,-5.32101,0,0,0,0,0,0,0,-1,1539,484,4.45923,5.32103
322,540,4.71655,-6.33737,0,0,0,0,0,0,0,-1,1546,484,4.71653,6.33736
329,540,5.8949,-12.9383,0,0,0,0,0,0,0,-1,1553,484,5.89492,12.9383
336,540,13.0466,-36.496,0,0,0,0,0,0,0,-1,1560,484,13.0466,36.496
343,540,12.9137,-35.826,0,0,0,0,0,0,0,-1,1567,484,12.9137,35.8261
350,540,12.9054,-34.7204,0,0,0,0,0,0,0,-1,1574,484,12.9054,34.7204
357,540,12.7758,-34.1928,-0.000407108,-0.00613578,-0.00596567,0.00334623,-0.00988912,-0.561583,0.00794658,0.0443296,1581,484,12.7757,34.1928
364,540,12.6484,-33.7151,-0.000613058,-0.00519614,-0.00520135,0.00277917,-0.00858837,-0.577907,0.00684276,0.0259874,1588,484,12.6484,33.7151
371,540,12.6377,-33.2058,-0.000637632,-0.00426877,-0.0043871,0.00229474,-0.00720114,-0.589207,0.00572119,0.017791,1595,484,12.6377,33.2058
378,540,12.6725,-32.6137,-0.000639832,-0.0030393,-0.00349926,0.00185965,-0.00553878,-0.620251,0.00444405,0.0131083,1602,484,12.6725,32.6137
385,540,12.6495,-31.9922,-0.000496896,-0.00191812,-0.00250823,0.00139944,-0.00381445,-0.647359,0.00311602,0.0146287,1609,484,12.6495,31.9923
392,540,12.6071,-31.3542,-0.000303387,-0.00117257,-0.00169185,0.0010088,-0.00248475,-0.65968,0.00207614,0.0133606,1616,484,12.607,31.3543
399,540,12.5956,-30.7579,-0.000116701,-0.00035877,-0.00109643,0.000865352,-0.00134082,-0.730426,0.00128356,0.016937,1623,484,12.5955,30.7578
406,540,12.6143,-30.1063,4.13247e-05,0.000445858,-0.000560218,0.000839206,-0.000352023,-0.95864,0.000706669,0.0201101,1630,484,12.6142,30.1063
413,540,12.5771,-29.4357,0.000175344,0.00127763,3.30744e-06,0.00127764,0.000175334,1.5678,0.000799746,0.0161706,1637,484,12.5772,29.4357
420,540,12.5702,-28.7847,0.000188704,0.00183769,0.000378556,0.00192044,0.000105952,1.35558,0.00124648,0.0138537,1644,484,12.5702,28.7847
427,540,12.5316,-28.1425,8.13247e-05,0.0020609,0.000690788,0.00227812,-0.000135896,1.26613,0.00156601,0.0138441,1651,484,12.5317,28.1425
434,540,12.4771,-27.5052,-0.00011766,0.00223363,0.000835136,0.00250007,-0.000384094,1.26197,0.00180839,0.0171406,1658,484,12.477,27.5052
441,540,12.4601,-26.8178,-0.000380558,0.00238305,0.000963295,0.00268568,-0.000683188,1.2664,0.00205637,0.021241,1665,484,12.46,26.8178
448,540,12.4441,-26.1591,-0.000786612,0.00230193,0.000965693,0.00257901,-0.0010637,1.29137,0.00216292,0.0121288,1672,484,12.444,26.1591
455,540,12.4146,-25.4754,-0.00133946,0.00215147,0.000865029,0.00235406,-0.00154205,1.34074,0.00226565,0.0112908,1679,484,12.4145,25.4754
462,540,12.3585,-24.7875,-0.00196301,0.00194018,0.000671571,0.00205249,-0.00207532,1.40509,0.00238321,0.0110594,1686,484,12.3585,24.7875
469,540,12.3003,-24.0845,-0.0028217,0.00131725,0.000278616,0.00133592,-0.00284037,1.50388,0.00246278,0.0141426,1693,484,12.3003,24.0845
476,540,12.2665,-23.4168,-0.00356634,0.000262978,-0.000687652,0.000382719,-0.00368609,-1.39839,0.00259439,0.0212244,1700,484,12.2665,23.4168
483,540,12.3422,-22.6237,-0.00529854,0.00102331,-0.00324732,0.00239411,-0.00666934,-1.17136,0.00542337,0.0352792,1707,484,12.3422,22.6237
490,540,12.5514,-21.7343,0,0,0,0,0,0,0,-1,1714,484,12.5514,21.7343
497,540,10.3452,-16.9359,0,0,0,0,0,0,0,-1,1721,484,10.3453,16.9359
504,540,12.519,-18.0764,0,0,0,0,0,0,0,-1,1728,484,12.519,18.0765
511,540,5.82471,-6.83521,0,0,0,0,0,0,0,-1,1735,484,5.82465,6.83522
518,540,9.98181,-12.4608,0,0,0,0,0,0,0,-1,1742,484,9.98187,12.4608
525,540,12.4843,-16.3481,0,0,0,0,0,0,0,-1,1749,484,12.4842,16.3481
532,540,2.84265,-1.07925,0,0,0,0,0,0,0,-1,1756,484,2.84269,1.07927
539,540,0,0,0,0,0,0,0,0,0,-1,1763,484,0,0
546,540,0,0,0,0,0,0,0,0,0,-1,1770,484,0,0
553,540,0,0,0,0,0,0,0,0,0,-1,1777,484,0,0
560,540,0,0,0,0,0,0,0,0,0,-1,1784,484,0,0
567,540,0,0,0,0,0,0,0,0,0,-1,1791,484,0,0
574,540,0,0,0,0,0,0,0,0,0,-1,1798,484,0,0
581,540,0,0,0,0,0,0,0,0,0,-1,1805,484,0,0
588,540,0,0,0,0,0,0,0,0,0,-1,1812,484,0,0
595,540,0,0,0,0,0,0,0,0,0,-1,1819,484,0,0
602,540,0,0,0,0,0,0,0,0,0,-1,1826,484,0,0
609,540,0,0,0,0,0,0,0,0,0,-1,1833,484,0,0
616,540,0,0,0,0,0,0,0,0,0,-1,1840,484,0,0
623,540,0,0,0,0,0,0,0,0,0,-1,1847,484,0,0
630,540,0,0,0,0,0,0,0,0,0,-1,1854,484,0,0
637,540,0,0,0,0,0,0,0,0,0,-1,1861,484,0,0
644,540,0,0,0,0,0,0,0,0,0,-1,1868,484,0,0
651,540,0,0,0,0,0,0,0,0,0,-1,1875,484,0,0
658,540,0,0,0,0,0,0,0,0,0,-1,1882,484,0,0
665,540,0,0,0,0,0,0,0,0,0,-1,1889,484,0,0
672,540,0,0,0,0,0,0,0,0,0,-1,1896,484,0,0
679,540,0,0,0,0,0,0,0,0,0,-1,1903,484,0,0
686,540,0,0,0,0,0,0,0,0,0,-1,1910,484,0,0
693,540,0,0,0,0,0,0,0,0,0,-1,1917,484,0,0
700,540,0,0,0,0,0,0,0,0,0,-1,1924,484,0,0
707,540,0,0,0,0,0,0,0,0,0,-1,1931,484,0,0
714,540,0,0,0,0,0,0,0,0,0,-1,1938,484,0,0
721,540,0,0,0,0,0,0,0,0,0,-1,1945,484,0,0
728,540,0,0,0,0,0,0,0,0,0,-1,1952,484,0,0
735,540,0,0,0,0,0,0,0,0,0,-1,1959,484,0,0
742,540,0,0,0,0,0,0,0,0,0,-1,1966,484,0,0
749,540,0,0,0,0,0,0,0,0,0,-1,1973,484,0,0
756,540,0,0,0,0,0,0,0,0,0,-1,1980,484,0,0
763,540,0,0,0,0,0,0,0,0,0,-1,1987,484,0,0
770,540,0,0,0,0,0,0,0,0,0,-1,1994,484,0,0
777,540,0,0,0,0,0,0,0,0,0,-1,2001,484,0,0
784,540,0,0,0,0,0,0,0,0,0,-1,2008,484,0,0
791,540,0,0,0,0,0,0,0,0,0,-1,2015,484,0,0
798,540,0,0,0,0,0,0,0,0,0,-1,2022,484,0,0
805,540,0,0,0,0,0,0,0,0,0,-1,2029,484,0,0
812,540,0,0,0,0,0,0,0,0,0,-1,2036,484,0,0
-700,533,0,0,0,0,0,0,0,0,0,-1,524,491,0,0
-693,533,0,0,0,0,0,0,0,0,0,-1,531,491,0,0
-686,533,0,0,0,0,0,0,0,0,0,-1,538,491,0,0
-679,533,0,0,0,0,0,0,0,0,0,-1,545,491,0,0
-672,533,0,0,0,0,0,0,0,0,0,-1,552,491,0,0
-665,533,0,0,0,0,0,0,0,0,0,-1,559,491,0,0
-658,533,0,0,0,0,0,0,0,0,0,-1,566,491,0,0
-651,533,0,0,0,0,0,0,0,0,0,-1,573,491,0,0
-644,533,0,0,0,0,0,0,0,0,0,-1,580,491,0,0
-637,533,0,0,0,0,0,0,0,0,0,-1,587,491,0,0
-630,533,0,0,0,0,0,0,0,0,0,-1,594,491,0,0
-623,533,0,0,0,0,0,0,0,0,0,-1,601,491,0,0
-616,533,0,0,0,0,0,0,0,0,0,-1,608,491,0,0
-609,533,0,0,0,0,0,0,0,0,0,-1,615,491,0,0
-602,533,0,0,0,0,0,0,0,0,0,-1,622,491,0,0
-595,533,0,0,0,0,0,0,0,0,0,-1,629,491,0,0
-588,533,0,0,0,0,0,0,0,0,0,-1,636,491,0,0
-581,533,0,0,0,0,0,0,0,0,0,-1,643,491,0,0
-574,533,0,0,0,0,0,0,0,0,0,-1,650,491,0,0
-567,533,0,0,0,0,0,0,0,0,0,-1,657,491,0,0
-560,533,0,0,0,0,0,0,0,0,0,-1,664,491,0,0
-553,533,0,0,0,0,0,0,0,0,0,-1,671,491,0,0
-546,533,0,0,0,0,0,0,0,0,0,-1,678,491,0,0
-539,533,0,0,0,0,0,0,0,0,0,-1,685,491,0,0
-532,533,0,0,0,0,0,0,0,0,0,-1,692,491,0,0
-525,533,0,0,0,0,0,0,0,0,0,-1,699,491,0,0
-518,533,0,0,0,0,0,0,0,0,0,-1,706,491,0,0
-511,533,0,0,0,0,0,0,0,0,0,-1,713,491,0,0
-504,533,0,0,0,0,0,0,0,0,0,-1,720,491,0,0
-497,533,0,0,0,0,0,0,0,0,0,-1,727,491,0,0
-490,533,0,0,0,0,0,0,0,0,0,-1,734,491,0,0
-483,533,0,0,0,0,0,0,0,0,0,-1,741,491,0,0
-476,533,0,0,0,0,0,0,0,0,0,-1,748,491,0,0
-469,533,0,0,0,0,0,0,0,0,0,-1,755,491,0,0
-462,533,0,0,0,0,0,0,0,0,0,-1,762,491,0,0
-455,533,0,0,0,0,0,0,0,0,0,-1,769,491,0,0
-448,533,0,0,0,0,0,0,0,0,0,-1,776,491,0,0
-441,533,0,0,0,0,0,0,0,0,0,-1,783,491,0,0
-434,533,0,0,0,0,0,0,0,0,0,-1,790,491,0,0
-427,533,0.559814,-4.40222,0,0,0,0,0,0,0,-1,797,491,0.559816,4.40222
-420,533,-1.11127,-10.9054,0,0,0,0,0,0,0,-1,804,491,-1.11124,10.9054
-413,533,-0.704773,-11.0942,0,0,0,0,0,0,0,-1,811,491,-0.704742,11.0942
-406,533,-0.670898,-12.0899,0,0,0,0,0,0,0,-1,818,491,-0.670908,12.0899
-399,533,-0.455017,-12.4423,0,0,0,0,0,0,0,-1,825,491,-0.455032,12.4423
-392,533,-1.89661,-10.3905,0,0,0,0,0,0,0,-1,832,491,-1.89661,10.3905
-385,533,0.797729,-17.0485,0,0,0,0,0,0,0,-1,839,491,0.797746,17.0485
-378,533,-0.92981,-19.994,0,0,0,0,0,0,0,-1,846,491,-0.929825,19.994
-371,533,-0.695618,-21.9142,0,0,0,0,0,0,0,-1,853,491,-0.695599,21.9142
-364,533,-0.568542,-22.6609,0.00421539,0.0337541,-0.0162737,0.0409613,-0.00299175,-1.15389,0.0283574,0.041462,860,491,-0.568572,22.6609
-357,533,-0.486877,-23.4765,0.00242332,0.0263359,-0.0121926,0.0314563,-0.00269705,-1.1732,0.0219252,0.0260868,867,491,-0.486851,23.4765
-350,533,-0.498474,-24.2944,0.00105731,0.0202129,-0.00887087,0.0236899,-0.00241964,-1.19725,0.0166585,0.0146613,874,491,-0.498497,24.2944
-343,533,-0.552917,-25.0342,0.000140707,0.0153157,-0.00634423,0.0176186,-0.00216216,-1.2226,0.0125288,0.012331,881,491,-0.552926,25.0342
-336,533,-0.627869,-25.7417,-0.000427568,0.0115626,-0.00440844,0.013009,-0.00187395,-1.25377,0.00936003,0.0153051,888,491,-0.627838,25.7417
-329,533,-0.665283,-26.3791,-0.000851824,0.00763012,-0.00264526,0.00838747,-0.00160917,-1.29195,0.00619807,0.0139205,895,491,-0.665277,26.3791
-322,533,-0.693726,-27.0334,-0.000919765,0.0053007,-0.00160752,0.00569156,-0.00131063,-1.33228,0.00429838,0.0121556,902,491,-0.693717,27.0334
-315,533,-0.731079,-27.6824,-0.000752623,0.00352127,-0.00089647,0.0037017,-0.000933045,-1.37219,0.00283055,0.0137758,909,491,-0.731052,27.6824
-308,533,-0.758179,-28.3183,-0.000470521,0.00218468,-0.000399371,0.00224345,-0.00052929,-1.42469,0.00169976,0.0128569,916,491,-0.758167,28.3183
-301,533,-0.804565,-28.9401,-0.000106928,0.0010416,-4.51338e-05,0.00104337,-0.000108699,-1.53158,0.0007345,0.0131301,923,491,-0.804589,28.9401
-294,533,-0.79718,-29.5731,0.000386077,0.000218244,0.000338097,0.000650516,-4.61944e-05,0.663755,0.000449867,0.0119345,930,491,-0.797194,29.5731
-287,533,-0.793884,-30.2203,0.00091317,-0.000536571,0.000738808,0.00122332,-0.000846724,0.39746,0.00120172,0.00942497,937,491,-0.793911,30.2203
-280,533,-0.81427,-30.8588,0.0012076,-0.00170251,0.00120996,0.00164495,-0.00213986,0.346845,0.00219138,0.00867474,944,491,-0.814279,30.8587
-273,533,-0.843262,-31.4622,0.00150509,-0.00311182,0.00190272,0.00218817,-0.00379491,0.344674,0.00349561,0.0127764,951,491,-0.843252,31.4621
-266,533,-0.852905,-32.0573,0.0021162,-0.00473979,0.0027132,0.00306,-0.00568359,0.334763,0.0051233,0.0132883,958,491,-0.852921,32.0573
-259,533,-0.857544,-32.6755,0.00262504,-0.00699656,0.00359361,0.00381905,-0.00819058,0.320785,0.00708523,0.0137202,965,491,-0.857519,32.6755
-252,533,-0.874573,-33.2701,0.00305486,-0.0100396,0.00465769,0.00454257,-0.0115273,0.309167,0.00956563,0.0199268,972,491,-0.874581,33.2702
-245,533,-0.955017,-33.8229,0.00348727,-0.0134569,0.00583256,0.00530086,-0.0152704,0.301464,0.012333,0.0332742,979,491,-0.955029,33.8229
-238,533,-0.794312,-34.2916,0.00412037,-0.0172423,0.00700529,0.00621265,-0.0193345,0.290237,0.0153845,0.0354416,986,491,-0.794316,34.2916
-231,533,-0.831238,-34.5568,0.00516096,-0.0216099,0.00820971,0.00747805,-0.023927,0.275082,0.0189426,0.0429924,993,491,-0.831262,34.5568
-224,533,-1.06805,-35.0472,0.00613505,-0.0267299,0.0095084,0.00868773,-0.0292825,0.262281,0.0229719,0.0476551,1000,491,-1.06807,35.0473
-217,533,-0.874878,-35.676,0.00709717,-0.0322118,0.0108463,0.00989131,-0.0350059,0.252131,0.0272397,0.0451,1007,491,-0.874898,35.676
-210,533,-0.777222,-36.0574,0,0,0,0,0,0,0,-1,1014,491,-0.777234,36.0574
-203,533,-0.823364,-36.062,0,0,0,0,0,0,0,-1,1021,491,-0.823357,36.062
-196,533,0.688354,-19.5743,0,0,0,0,0,0,0,-1,1028,491,0.688406,19.5743
-189,533,-0.169189,-15.0303,0,0,0,0,0,0,0,-1,1035,491,-0.169241,15.0303
-182,533,1.26123,-11.4969,0,0,0,0,0,0,0,-1,1042,491,1.26128,11.4969
-175,533,0.937744,-7.36966,0,0,0,0,0,0,0,-1,1049,491,0.937769,7.36965
-168,533,2.64807,-2.7543,0,0,0,0,0,0,0,-1,1056,491,2.64812,2.7543
-161,533,1.91833,-1.76553,0,0,0,0,0,0,0,-1,1063,491,1.91836,1.76554
-154,533,0.376709,-11.0633,0,0,0,0,0,0,0,-1,1070,491,0.376715,11.0632
-147,533,0.383789,-12.1586,0,0,0,0,0,0,0,-1,1077,491,0.383829,12.1586
-140,533,1.14001,-15.4608,0,0,0,0,0,0,0,-1,1084,491,1.14005,15.4608
-133,533,0.189941,-16.0795,0,0,0,0,0,0,0,-1,1091,491,0.18994,16.0795
-126,533,2.89612,-2.59003,0,0,0,0,0,0,0,-1,1098,491,2.89608,2.59003
-119,533,1.78284,-22.5394,0,0,0,0,0,0,0,-1,1105,491,1.78279,22.5394
-112,533,1.83862,-21.2401,0,0,0,0,0,0,0,-1,1112,491,1.83859,21.24
-105,533,1.67554,-19.4018,0,0,0,0,0,0,0,-1,1119,491,1.6755,19.4018
-98,533,-1.39392,-5.16367,0,0,0,0,0,0,0,-1,1126,491,-1.39394,5.16367
-91,533,0.367432,4.49753,0,0,0,0,0,0,0,-1,1133,491,0.367468,-4.49754
-84,533,-0.88623,3.03604,0,0,0,0,0,0,0,-1,1140,491,-0.886288,-3.03605
-77,533,0,0,0,0,0,0,0,0,0,-1,1147,491,0,0
-70,533,0,0,0,0,0,0,0,0,0,-1,1154,491,0,0
-63,533,0,0,0,0,0,0,0,0,0,-1,1161,491,0,0
-56,533,0,0,0,0,0,0,0,0,0,-1,1168,491,0,0
-49,533,0,0,0,0,0,0,0,0,0,-1,1175,491,0,0
-42,533,0,0,0,0,0,0,0,0,0,-1,1182,491,0,0
-35,533,0,0,0,0,0,0,0,0,0,-1,1189,491,0,0
-28,533,0,0,0,0,0,0,0,0,0,-1,1196,491,0,0
-21,533,0,0,0,0,0,0,0,0,0,-1,1203,491,0,0
-14,533,0,0,0,0,0,0,0,0,0,-1,1210,491,0,0
-7,533,0,0,0,0,0,0,0,0,0,-1,1217,491,0,0
0,533,0,0,0,0,0,0,0,0,0,-1,1224,491,0,0
7,533,0,0,0,0,0,0,0,0,0,-1,1231,491,0,0
14,533,0,0,0,0,0,0,0,0,0,-1,1238,491,0,0
21,533,0,0,0,0,0,0,0,0,0,-1,1245,491,0,0
28,533,0,0,0,0,0,0,0,0,0,-1,1252,491,0,0
35,533,0,0,0,0,0,0,0,0,0,-1,1259,491,0,0
42,533,0,0,0,0,0,0,0,0,0,-1,1266,491,0,0
49,533,0,0,0,0,0,0,0,0,0,-1,1273,491,0,0
56,533,0,0,0,0,0,0,0,0,0,-1,1280,491,0,0
63,533,0,0,0,0,0,0,0,0,0,-1,1287,491,0,0
70,533,0,0,0,0,0,0,0,0,0,-1,1294,491,0,0
77,533,0,0,0,0,0,0,0,0,0,-1,1301,491,0,0
84,533,0,0,0,0,0,0,0,0,0,-1,1308,491,0,0
91,533,0,0,0,0,0,0,0,0,0,-1,1315,491,0,0
98,533,0,0,0,0,0,0,0,0,0,-1,1322,491,0,0
105,533,0,0,0,0,0,0,0,0,0,-1,1329,491,0,0
112,533,0,0,0,0,0,0,0,0,0,-1,1336,491,0,0
119,533,0,0,0,0,0,0,0,0,0,-1,1343,491,0,0
126,533,0,0,0,0,0,0,0,0,0,-1,1350,491,0,0
133,533,0,0,0,0,0,0,0,0,0,-1,1357,491,0,0
140,533,0,0,0,0,0,0,0,0,0,-1,1364,491,0,0
147,533,0,0,0,0,0,0,0,0,0,-1,1371,491,0,0
154,533,0,0,0,0,0,0,0,0,0,-1,1378,491,0,0
161,533,0,0,0,0,0,0,0,0,0,-1,1385,491,0,0
168,533,0,0,0,0,0,0,0,0,0,-1,1392,491,0,0
175,533,0,0,0,0,0,0,0,0,0,-1,1399,491,0,0
182,533,0,0,0,0,0,0,0,0,0,-1,1406,491,0,0
189,533,0,0,0,0,0,0,0,0,0,-1,1413,491,0,0
196,533,0,0,0,0,0,0,0,0,0,-1,1420,491,0,0
203,533,3.7887,1.16193,0,0,0,0,0,0,0,-1,1427,491,3.78872,-1.16193
210,533,5.09558,-0.216034,0,0,0,0,0,0,0,-1,1434,491,5.09559,0.216028
217,533,6.91614,-2.46814,0,0,0,0,0,0,0,-1,1441,491,6.91618,2.46814
224,533,7.23621,-2.1857,0,0,0,0,0,0,0,-1,1448,491,7.23621,2.1857
231,533,7.23474,-1.92282,0,0,0,0,0,0,0,-1,1455,491,7.2347,1.92282
238,533,7.23535,-1.67258,0,0,0,0,0,0,0,-1,1462,491,7.23539,1.67258
245,533,6.86682,-1.2301,0,0,0,0,0,0,0,-1,1469,491,6.86686,1.23011
252,533,6.63354,-3.07825,0,0,0,0,0,0,0,-1,1476,491,6.6335,3.07824
259,533,6.16431,-2.35037,0,0,0,0,0,0,0,-1,1483,491,6.1643,2.35037
266,533,5.68884,-1.6214,0,0,0,0,0,0,0,-1,1490,491,5.68885,1.6214
273,533,5.21399,-0.864227,0,0,0,0,0,0,0,-1,1497,491,5.21403,0.864227
280,533,1.41089,-1.97946,0,0,0,0,0,0,0,-1,1504,491,1.41087,1.97946
287,533,1.6814,-2.44443,0,0,0,0,0,0,0,-1,1511,491,1.6814,2.44444
294,533,2.2384,-2.57626,0,0,0,0,0,0,0,-1,1518,491,2.23839,2.57625
301,533,3.39941,-4.0817,0,0,0,0,0,0,0,-1,1525,491,3.3994,4.08171
308,533,4.13733,-4.14752,0,0,0,0,0,0,0,-1,1532,491,4.13727,4.14752
315,533,4.80762,-5.29349,0,0,0,0,0,0,0,-1,1539,491,4.80762,5.29347
322,533,5.47803,-6.43942,0,0,0,0,0,0,0,-1,1546,491,5.47798,6.43943
329,533,3.88477,-3.86301,0,0,0,0,0,0,0,-1,1553,491,3.88475,3.86299
336,533,6.70923,-13.2003,0,0,0,0,0,0,0,-1,1560,491,6.70926,13.2004
343,533,7.06677,-17.1133,0,0,0,0,0,0,0,-1,1567,491,7.06673,17.1133
350,533,10.0876,-23.7254,0,0,0,0,0,0,0,-1,1574,491,10.0877,23.7254
357,533,13.4047,-34.0069,0,0,0,0,0,0,0,-1,1581,491,13.4047,34.0069
364,533,13.1914,-33.6495,0,0,0,0,0,0,0,-1,1588,491,13.1914,33.6494
371,533,13.2062,-33.1783,0,0,0,0,0,0,0,-1,1595,491,13.2062,33.1783
378,533,13.2876,-32.5593,0,0,0,0,0,0,0,-1,1602,491,13.2875,32.5592
385,533,13.3097,-31.9413,-0.00093664,-0.00257969,-0.00340171,0.00174134,-0.00525767,-0.666915,0.00420744,0.026982,1609,491,13.3097,31.9413
392,533,13.2744,-31.3423,-0.000638347,-0.00191531,-0.0025112,0.00131427,-0.00386793,-0.660909,0.00311067,0.0150333,1616,491,13.2744,31.3423
399,533,13.2738,-30.7507,-0.000396125,-0.00117379,-0.0019044,0.00115873,-0.00272865,-0.684694,0.00230458,0.0136513,1623,491,13.2739,30.7508
406,533,13.2684,-30.0951,-0.000149618,-0.000402099,-0.00133358,0.00106368,-0.0016154,-0.738207,0.00155766,0.0170081,1630,491,13.2685,30.0951
413,533,13.2311,-29.4122,0.000124754,0.000450531,-0.000707323,0.00101348,-0.000438195,-0.89857,0.000859782,0.014627,1637,491,13.2311,29.4122
420,533,13.1996,-28.7565,0.000247378,0.000999884,-0.000221373,0.00106018,0.000187085,-1.30489,0.000653412,0.0132825,1644,491,13.1996,28.7564
427,533,13.1847,-28.0889,0.000258141,0.00134999,0.000176708,0.00137787,0.000230254,1.41427,0.000852263,0.0138624,1651,491,13.1847,28.0889
434,533,13.1365,-27.4537,0.000221998,0.00158415,0.000490534,0.00174241,6.37364e-05,1.25871,0.00114096,0.0136328,1658,491,13.1364,27.4537
441,533,13.1176,-26.776,0.000106576,0.00182321,0.000755014,0.00210802,-0.000178241,1.21007,0.00146837,0.0158744,1665,491,13.1175,26.776
448,533,13.1193,-26.132,-0.000115937,0.00185537,0.000926122,0.0022222,-0.000482769,1.19366,0.00166587,0.0173652,1672,491,13.1193,26.132
455,533,13.0718,-25.4803,-0.000444419,0.00189339,0.00103434,0.00228532,-0.000836343,1.2086,0.00186589,0.016983,1679,491,13.0717,25.4803
462,533,13.024,-24.7545,-0.000833727,0.00182546,0.00103825,0.00218281,-0.00119108,1.23931,0.00197576,0.0146941,1686,491,13.0241,24.7545
469,533,12.9967,-24.0795,-0.00142501,0.00138507,0.000883278,0.00163964,-0.00167958,1.29019,0.0019164,0.00907745,1693,491,12.9967,24.0795
476,533,12.979,-23.361,-0.00188698,0.000560547,0.000260179,0.000587899,-0.00191433,1.46605,0.00151081,0.0121433,1700,491,12.979,23.361
483,533,13.0007,-22.6089,-0.00322451,0.00135201,-0.00174749,0.00194296,-0.00381546,-1.2447,0.00338271,0.0211315,1707,491,13.0007,22.609
490,533,13.1083,-21.705,0,0,0,0,0,0,0,-1,1714,491,13.1083,21.705
497,533,13.1881,-21.1318,0,0,0,0,0,0,0,-1,1721,491,13.1882,21.1318
504,533,12.9669,-18.957,0,0,0,0,0,0,0,-1,1728,491,12.9669,18.957
511,533,13.6221,-19.2798,0,0,0,0,0,0,0,-1,1735,491,13.6221,19.2798
518,533,13.0684,-19.5211,0,0,0,0,0,0,0,-1,1742,491,13.0684,19.521
525,533,12.665,-19.3749,0,0,0,0,0,0,0,-1,1749,491,12.665,19.3749
532,533,12.5974,-18.4897,0,0,0,0,0,0,0,-1,1756,491,12.5974,18.4897
539,533,12.8733,-18.2556,0,0,0,0,0,0,0,-1,1763,491,12.8733,18.2556
546,533,3.59607,1.65799,0,0,0,0,0,0,0,-1,1770,491,3.59605,-1.658
553,533,0,0,0,0,0,0,0,0,0,-1,1777,491,0,0
560,533,0,0,0,0,0,0,0,0,0,-1,1784,491,0,0
567,533,0,0,0,0,0,0,0,0,0,-1,1791,491,0,0
574,533,0,0,0,0,0,0,0,0,0,-1,1798,491,0,0
581,533,0,0,0,0,0,0,0,0,0,-1,1805,491,0,0
588,533,0,0,0,0,0,0,0,0,0,-1,1812,491,0,0
595,533,0,0,0,0,0,0,0,0,0,-1,1819,491,0,0
602,533,0,0,0,0,0,0,0,0,0,-1,1826,491,0,0
609,533,0,0,0,0,0,0,0,0,0,-1,1833,491,0,0
616,533,0,0,0,0,0,0,0,0,0,-1,1840,491,0,0
623,533,0,0,0,0,0,0,0,0,0,-1,1847,491,0,0
630,533,0,0,0,0,0,0,0,0,0,-1,1854,491,0,0
637,533,0,0,0,0,0,0,0,0,0,-1,1861,491,0,0
644,533,0,0,0,0,0,0,0,0,0,-1,1868,491,0,0
651,533,0,0,0,0,0,0,0,0,0,-1,1875,491,0,0
658,533,0,0,0,0,0,0,0,0,0,-1,1882,491,0,0
665,533,0,0,0,0,0,0,0,0,0,-1,1889,491,0,0
672,533,0,0,0,0,0,0,0,0,0,-1,1896,491,0,0
679,533,0,0,0,0,0,0,0,0,0,-1,1903,491,0,0
686,533,0,0,0,0,0,0,0,0,0,-1,1910,491,0,0
693,533,0,0,0,0,0,0,0,0,0,-1,1917,491,0,0
700,533,0,0,0,0,0,0,0,0,0,-1,1924,491,0,0
707,533,0,0,0,0,0,0,0,0,0,-1,1931,491,0,0
714,533,0,0,0,0,0,0,0,0,0,-1,1938,491,0,0
721,533,0,0,0,0,0,0,0,0,0,-1,1945,491,0,0
728,533,0,0,0,0,0,0,0,0,0,-1,1952,491,0,0
735,533,0,0,0,0,0,0,0,0,0,-1,1959,491,0,0
742,533,0,0,0,0,0,0,0,0,0,-1,1966,491,0,0
749,533,0,0,0,0,0,0,0,0,0,-1,1973,491,0,0
756,533,0,0,0,0,0,0,0,0,0,-1,1980,491,0,0
763,533,0,0,0,0,0,0,0,0,0,-1,1987,491,0,0
770,533,0,0,0,0,0,0,0,0,0,-1,1994,491,0,0
777,533,0,0,0,0,0,0,0,0,0,-1,2001,491,0,0
784,533,0,0,0,0,0,0,0,0,0,-1,2008,491,0,0
791,533,0,0,0,0,0,0,0,0,0,-1,2015,491,0,0
798,533,0,0,0,0,0,0,0,0,0,-1,2022,491,0,0
805,533,0,0,0,0,0,0,0,0,0,-1,2029,491,0,0
812,533,0,0,0,0,0,0,0,0,0,-1,2036,491,0,0
-700,526,0,0,0,0,0,0,0,0,0,-1,524,498,0,0
-693,526,0,0,0,0,0,0,0,0,0,-1,531,498,0,0
-686,526,0,0,0,0,0,0,0,0,0,-1,538,498,0,0
-679,526,0,0,0,0,0,0,0,0,0,-1,545,498,0,0
-672,526,0,0,0,0,0,0,0,0,0,-1,552,498,0,0
-665,526,0,0,0,0,0,0,0,0,0,-1,559,498,0,0
-658,526,0,0,0,0,0,0,0,0,0,-1,566,498,0,0
-651,526,0,0,0,0,0,0,0,0,0,-1,573,498,0,0
-644,526,0,0,0,0,0,0,0,0,0,-1,580,498,0,0
-637,526,0,0,0,0,0,0,0,0,0,-1,587,498,0,0
-630,526,0,0,0,0,0,0,0,0,0,-1,594,498,0,0
-623,526,0,0,0,0,0,0,0,0,0,-1,601,498,0,0
-616,526,0,0,0,0,0,0,0,0,0,-1,608,498,0,0
-609,526,0,0,0,0,0,0,0,0,0,-1,615,498,0,0
-602,526,0,0,0,0,0,0,0,0,0,-1,622,498,0,0
-595,526,0,0,0,0,0,0,0,0,0,-1,629,498,0,0
-588,526,0,0,0,0,0,0,0,0,0,-1,636,498,0,0
-581,526,0,0,0,0,0,0,0,0,0,-1,643,498,0,0
-574,526,0,0,0,0,0,0,0,0,0,-1,650,498,0,0
-567,526,0,0,0,0,0,0,0,0,0,-1,657,498,0,0
-560,526,0,0,0,0,0,0,0,0,0,-1,664,498,0,0
-553,526,0,0,0,0,0,0,0,0,0,-1,671,498,0,0
-546,526,0,0,0,0,0,0,0,0,0,-1,678,498,0,0
-539,526,0,0,0,0,0,0,0,0,0,-1,685,498,0,0
-532,526,0,0,0,0,0,0,0,0,0,-1,692,498,0,0
-525,526,0,0,0,0,0,0,0,0,0,-1,699,498,0,0
-518,526,0,0,0,0,0,0,0,0,0,-1,706,498,0,0
-511,526,0,0,0,0,0,0,0,0,0,-1,713,498,0,0
-504,526,0,0,0,0,0,0,0,0,0,-1,720,498,0,0
-497,526,0,0,0,0,0,0,0,0,0,-1,727,498,0,0
-490,526,0,0,0,0,0,0,0,0,0,-1,734,498,0,0
-483,526,0,0,0,0,0,0,0,0,0,-1,741,498,0,0
-476,526,0,0,0,0,0,0,0,0,0,-1,748,498,0,0
-469,526,0,0,0,0,0,0,0,0,0,-1,755,498,0,0
-462,526,0,0,0,0,0,0,0,0,0,-1,762,498,0,0
-455,526,0,0,0,0,0,0,0,0,0,-1,769,498,0,0
-448,526,0,0,0,0,0,0,0,0,0,-1,776,498,0,0
-441,526,0,0,0,0,0,0,0,0,0,-1,783,498,0,0
-434,526,-0.153564,-5.96649,0,0,0,0,0,0,0,-1,790,498,-0.153589,5.9665
-427,526,1.23206,-4.59808,0,0,0,0,0,0,0,-1,797,498,1.23208,4.59809
-420,526,-1.76373,-11.6241,0,0,0,0,0,0,0,-1,804,498,-1.76373,11.6241
-413,526,-1.38965,-11.7916,0,0,0,0,0,0,0,-1,811,498,-1.38963,11.7916
-406,526,-1.35187,-12.5182,0,0,0,0,0,0,0,-1,818,498,-1.35185,12.5181
-399,526,-1.32715,-13.2116,0,0,0,0,0,0,0,-1,825,498,-1.32713,13.2116
-392,526,0.197571,-15.303,0,0,0,0,0,0,0,-1,832,498,0.197598,15.303
-385,526,-1.66248,-18.2971,0,0,0,0,0,0,0,-1,839,498,-1.6625,18.2971
-378,526,-1.06616,-20.7403,0,0,0,0,0,0,0,-1,846,498,-1.06615,20.7403
-371,526,-1.112,-21.7573,0.00548694,0.03461,-0.0181853,0.0433454,-0.00324839,-1.12299,0.0300383,0.0393355,853,498,-1.112,21.7574
-364,526,-1.15479,-22.7763,0.0037592,0.027534,-0.0140195,0.0340275,-0.00273425,-1.13704,0.0236491,0.021178,860,498,-1.15481,22.7763
-357,526,-1.12152,-23.5934,0.00239884,0.0215945,-0.0106402,0.0263261,-0.00233277,-1.15237,0.0183777,0.0133327,867,498,-1.12155,23.5934
-350,526,-1.15851,-24.291,0.00139665,0.0166051,-0.00786138,0.0199382,-0.00193647,-1.16978,0.0139824,0.0115995,874,498,-1.1585,24.291
-343,526,-1.2135,-24.9888,0.000714694,0.0124017,-0.00564797,0.0146851,-0.00156868,-1.1866,0.0103526,0.0159642,881,498,-1.2135,24.9889
-336,526,-1.26929,-25.6715,0.000227057,0.00914581,-0.0038845,0.0106004,-0.00122757,-1.21249,0.00750967,0.0166046,888,498,-1.26932,25.6715
-329,526,-1.29572,-26.3303,-0.000131404,0.00570114,-0.00226762,0.00647902,-0.000909284,-1.24034,0.00465216,0.0162358,895,498,-1.29571,26.3303
-322,526,-1.31055,-26.9747,-0.000173323,0.00365447,-0.00127417,0.00403981,-0.00055867,-1.27711,0.00289744,0.0112342,902,498,-1.31055,26.9747
-315,526,-1.34662,-27.6418,-1.69745e-05,0.00206168,-0.000552072,0.00219921,-0.000154501,-1.32666,0.00152026,0.0103091,909,498,-1.34661,27.6418
-308,526,-1.38306,-28.3066,0.000256024,0.00084027,-2.33092e-05,0.000841199,0.000255096,-1.53098,0.000498042,0.0093355,916,498,-1.38305,28.3066
-301,526,-1.4306,-28.9352,0.000575802,-0.000156335,0.000381914,0.000738756,-0.000319289,0.403289,0.000626661,0.00990965,923,498,-1.43059,28.9352
-294,526,-1.42902,-29.5615,0.00101618,-0.000891252,0.000829303,0.00132632,-0.00120139,0.357867,0.00145996,0.00984751,930,498,-1.42902,29.5615
-287,526,-1.42645,-30.192,0.00150032,-0.0016325,0.00129976,0.00196935,-0.00210153,0.346315,0.00235074,0.0103478,937,498,-1.42643,30.1919
-280,526,-1.47223,-30.8071,0.00168484,-0.0029053,0.00188774,0.00236145,-0.00358192,0.344161,0.00345544,0.0125219,944,498,-1.47221,30.8071
-273,526,-1.49268,-31.4288,0.00193919,-0.00448375,0.00272858,0.00294182,-0.00548639,0.352142,0.0049394,0.011377,951,498,-1.49267,31.4288
-266,526,-1.50031,-32.0247,0.00263457,-0.00628949,0.00372315,0.00398387,-0.00763879,0.347686,0.00682004,0.0149099,958,498,-1.50032,32.0247
-259,526,-1.44373,-32.6091,0.00322289,-0.0088613,0.00472023,0.0048481,-0.0104865,0.331593,0.00905073,0.0389232,965,498,-1.44375,32.6091
-252,526,-1.44489,-33.2695,0,0,0,0,0,0,0,-1,972,498,-1.44487,33.2695
-245,526,-1.49603,-33.9295,0,0,0,0,0,0,0,-1,979,498,-1.49601,33.9295
-238,526,-1.31146,-34.2756,0,0,0,0,0,0,0,-1,986,498,-1.31146,34.2756
-231,526,-1.29858,-34.1395,0,0,0,0,0,0,0,-1,993,498,-1.29856,34.1395
-224,526,-1.61725,-34.7932,0,0,0,0,0,0,0,-1,1000,498,-1.61726,34.7931
-217,526,-1.38043,-35.6716,0,0,0,0,0,0,0,-1,1007,498,-1.38045,35.6716
-210,526,-0.922241,-35.3857,0,0,0,0,0,0,0,-1,1014,498,-0.922228,35.3858
-203,526,-0.659302,-18.8818,0,0,0,0,0,0,0,-1,1021,498,-0.659273,18.8818
-196,526,-0.328247,-12.179,0,0,0,0,0,0,0,-1,1028,498,-0.328238,12.179
-189,526,0.401245,-5.96826,0,0,0,0,0,0,0,-1,1035,498,0.401197,5.96826
-182,526,1.7323,-2.99405,0,0,0,0,0,0,0,-1,1042,498,1.73226,2.99404
-175,526,2.27637,-2.07983,0,0,0,0,0,0,0,-1,1049,498,2.27639,2.07984
-168,526,2.12036,-1.66049,0,0,0,0,0,0,0,-1,1056,498,2.12035,1.66048
-161,526,2.09082,-1.20572,0,0,0,0,0,0,0,-1,1063,498,2.09086,1.2057
-154,526,-1.3446,-5.37799,0,0,0,0,0,0,0,-1,1070,498,-1.34457,5.37799
-147,526,-0.472656,-6.64996,0,0,0,0,0,0,0,-1,1077,498,-0.472659,6.64997
-140,526,0.422852,-8.03339,0,0,0,0,0,0,0,-1,1084,498,0.422844,8.0334
-133,526,1.09583,-9.2215,0,0,0,0,0,0,0,-1,1091,498,1.09581,9.2215
-126,526,3.42529,-2.36053,0,0,0,0,0,0,0,-1,1098,498,3.42523,2.36052
-119,526,2.7771,-0.764099,0,0,0,0,0,0,0,-1,1105,498,2.7771,0.764107
-112,526,2.57715,-1.1893,0,0,0,0,0,0,0,-1,1112,498,2.57718,1.1893
-105,526,0,0,0,0,0,0,0,0,0,-1,1119,498,0,0
-98,526,0,0,0,0,0,0,0,0,0,-1,1126,498,0,0
-91,526,0,0,0,0,0,0,0,0,0,-1,1133,498,0,0
-84,526,0,0,0,0,0,0,0,0,0,-1,1140,498,0,0
-77,526,0,0,0,0,0,0,0,0,0,-1,1147,498,0,0
-70,526,0,0,0,0,0,0,0,0,0,-1,1154,498,0,0
-63,526,0,0,0,0,0,0,0,0,0,-1,1161,498,0,0
-56,526,0,0,0,0,0,0,0,0,0,-1,1168,498,0,0
-49,526,0,0,0,0,0,0,0,0,0,-1,1175,498,0,0
-42,526,0,0,0,0,0,0,0,0,0,-1,1182,498,0,0
-35,526,0,0,0,0,0,0,0,0,0,-1,1189,498,0,0
-28,526,0,0,0,0,0,0,0,0,0,-1,1196,498,0,0
-21,526,0,0,0,0,0,0,0,0,0,-1,1203,498,0,0
-14,526,0,0,0,0,0,0,0,0,0,-1,1210,498,0,0
-7,526,0,0,0,0,0,0,0,0,0,-1,1217,498,0,0
0,526,0,0,0,0,0,0,0,0,0,-1,1224,498,0,0
7,526,0,0,0,0,0,0,0,0,0,-1,1231,498,0,0
14,526,0,0,0,0,0,0,0,0,0,-1,1238,498,0,0
21,526,0,0,0,0,0,0,0,0,0,-1,1245,498,0,0
28,526,0,0,0,0,0,0,0,0,0,-1,1252,498,0,0
35,526,0,0,0,0,0,0,0,0,0,-1,1259,498,0,0
42,526,0,0,0,0,0,0,0,0,0,-1,1266,498,0,0
49,526,0,0,0,0,0,0,0,0,0,-1,1273,498,0,0
56,526,0,0,0,0,0,0,0,0,0,-1,1280,498,0,0
63,526,0,0,0,0,0,0,0,0,0,-1,1287,498,0,0
70,526,0,0,0,0,0,0,0,0,0,-1,1294,498,0,0
77,526,0,0,0,0,0,0,0,0,0,-1,1301,498,0,0
84,526,0,0,0,0,0,0,0,0,0,-1,1308,498,0,0
91,526,0,0,0,0,0,0,0,0,0,-1,1315,498,0,0
98,526,0,0,0,0,0,0,0,0,0,-1,1322,498,0,0
105,526,0,0,0,0,0,0,0,0,0,-1,1329,498,0,0
112,526,0,0,0,0,0,0,0,0,0,-1,1336,498,0,0
119,526,0,0,0,0,0,0,0,0,0,-1,1343,498,0,0
126,526,0,0,0,0,0,0,0,0,0,-1,1350,498,0,0
133,526,0,0,0,0,0,0,0,0,0,-1,1357,498,0,0
140,526,0,0,0,0,0,0,0,0,0,-1,1364,498,0,0
147,526,0,0,0,0,0,0,0,0,0,-1,1371,498,0,0
154,526,0,0,0,0,0,0,0,0,0,-1,1378,498,0,0
161,526,0,0,0,0,0,0,0,0,0,-1,1385,498,0,0
168,526,0,0,0,0,0,0,0,0,0,-1,1392,498,0,0
175,526,0,0,0,0,0,0,0,0,0,-1,1399,498,0,0
182,526,0,0,0,0,0,0,0,0,0,-1,1406,498,0,0
189,526,0,0,0,0,0,0,0,0,0,-1,1413,498,0,0
196,526,0,0,0,0,0,0,0,0,0,-1,1420,498,0,0
203,526,0,0,0,0,0,0,0,0,0,-1,1427,498,0,0
210,526,0,0,0,0,0,0,0,0,0,-1,1434,498,0,0
217,526,0,0,0,0,0,0,0,0,0,-1,1441,498,0,0
224,526,0,0,0,0,0,0,0,0,0,-1,1448,498,0,0
231,526,7.93237,-1.30618,0,0,0,0,0,0,0,-1,1455,498,7.93238,1.30618
238,526,7.97717,-1.08197,0,0,0,0,0,0,0,-1,1462,498,7.97723,1.08196
245,526,7.2793,-0.792938,0,0,0,0,0,0,0,-1,1469,498,7.27931,0.792926
252,526,6.73523,-2.23608,0,0,0,0,0,0,0,-1,1476,498,6.73525,2.23608
259,526,6.22949,-1.84967,0,0,0,0,0,0,0,-1,1483,498,6.22953,1.84968
266,526,5.72375,-1.46329,0,0,0,0,0,0,0,-1,1490,498,5.72381,1.46328
273,526,4.33984,0.49173,0,0,0,0,0,0,0,-1,1497,498,4.33979,-0.491727
280,526,1.4585,-1.59897,0,0,0,0,0,0,0,-1,1504,498,1.45846,1.59895
287,526,1.46411,-2.40134,0,0,0,0,0,0,0,-1,1511,498,1.46406,2.40133
294,526,5.57471,-4.59085,0,0,0,0,0,0,0,-1,1518,498,5.57466,4.59084
301,526,4.42786,-3.99677,0,0,0,0,0,0,0,-1,1525,498,4.42788,3.99676
308,526,5.79529,-4.19366,0,0,0,0,0,0,0,-1,1532,498,5.79528,4.19368
315,526,5.09851,-5.20068,0,0,0,0,0,0,0,-1,1539,498,5.09851,5.20068
322,526,5.50708,-4.72348,0,0,0,0,0,0,0,-1,1546,498,5.50713,4.72347
329,526,3.88672,-4.345,0,0,0,0,0,0,0,-1,1553,498,3.88674,4.34501
336,526,4.97876,-2.23828,0,0,0,0,0,0,0,-1,1560,498,4.97877,2.23828
343,526,3.31665,-2.69696,0,0,0,0,0,0,0,-1,1567,498,3.31667,2.69696
350,526,6.06287,-6.12015,0,0,0,0,0,0,0,-1,1574,498,6.06286,6.12014
357,526,12.9944,-29.1665,0,0,0,0,0,0,0,-1,1581,498,12.9943,29.1665
364,526,13.2582,-29.5416,0,0,0,0,0,0,0,-1,1588,498,13.2581,29.5416
371,526,12.4481,-29.0131,0,0,0,0,0,0,0,-1,1595,498,12.4481,29.0131
378,526,13.6134,-32.6213,0,0,0,0,0,0,0,-1,1602,498,13.6134,32.6213
385,526,13.9342,-32.0498,0,0,0,0,0,0,0,-1,1609,498,13.9343,32.0498
392,526,14.0283,-31.3519,-0.00136657,-0.00231017,-0.00344274,0.00163655,-0.00531329,-0.717301,0.00419549,0.0367984,1616,498,14.0283,31.3519
399,526,13.9028,-30.7185,-0.000972615,-0.00165386,-0.00278727,0.00149477,-0.00412124,-0.724597,0.00335853,0.0201406,1623,498,13.9029,30.7185
406,526,13.9072,-30.039,-0.000541265,-0.000938169,-0.00214513,0.00141458,-0.00289401,-0.739273,0.00253597,0.0140114,1630,498,13.9072,30.039
413,526,13.8796,-29.3868,-4.42798e-05,-0.000101307,-0.00143017,0.00135766,-0.00150325,-0.775431,0.00165246,0.0134494,1637,498,13.8796,29.3868
420,526,13.8506,-28.74,0.000253278,0.000400368,-0.000823068,0.00115317,-0.000499524,-0.829957,0.000978743,0.0134916,1644,498,13.8506,28.74
427,526,13.8492,-28.0742,0.000417512,0.000822215,-0.000339505,0.0010151,0.000224629,-1.05414,0.00061567,0.0138683,1651,498,13.8492,28.0741
434,526,13.8055,-27.4024,0.000531607,0.00107594,0.000110717,0.0010976,0.000509949,1.37762,0.00063423,0.012512,1658,498,13.8055,27.4024
441,526,13.7571,-26.7308,0.000544617,0.00134953,0.000475129,0.00156975,0.000324404,1.13679,0.000956872,0.0121252,1665,498,13.757,26.7308
448,526,13.7603,-26.0991,0.000467227,0.00144617,0.000767396,0.00186691,4.64905e-05,1.06929,0.0012294,0.0119022,1672,498,13.7603,26.0991
455,526,13.7318,-25.4612,0.000302556,0.00161096,0.00101553,0.00216477,-0.000251253,1.07154,0.0015338,0.0149025,1679,498,13.7318,25.4612
462,526,13.7084,-24.744,7.08703e-05,0.00166576,0.0011506,0.00226825,-0.000531611,1.08843,0.00171702,0.0103204,1686,498,13.7084,24.744
469,526,13.6917,-24.0723,-0.000342401,0.0013914,0.00115792,0.00197097,-0.000921978,1.10672,0.00170646,0.00763852,1693,498,13.6917,24.0723
476,526,13.6504,-23.3643,-0.000645662,0.000773609,0.000796599,0.00113082,-0.00100287,1.14926,0.00123262,0.00969728,1700,498,13.6504,23.3643
483,526,13.6331,-22.6063,-0.00169948,0.00150163,-0.000738745,0.0016639,-0.00186174,-1.35459,0.00203659,0.0139412,1707,498,13.633,22.6063
490,526,13.6879,-21.7822,-0.00477251,-2.66565e-05,-0.000886532,0.000133542,-0.00493271,-1.39202,0.00333388,0.031463,1714,498,13.6878,21.7822
497,526,13.625,-21.3251,-0.00756513,-0.00101559,-0.00211752,-0.000390613,-0.0081901,-1.2838,0.00533463,0.0411942,1721,498,13.6251,21.325
504,526,13.8248,-20.5032,0,0,0,0,0,0,0,-1,1728,498,13.8248,20.5032
511,526,13.7915,-19.8203,0,0,0,0,0,0,0,-1,1735,498,13.7915,19.8202
518,526,13.4966,-19.334,-0.0232634,-0.00591337,-0.00729371,-0.00325463,-0.0259222,-1.22124,0.0163052,0.0481885,1742,498,13.4965,19.334
525,526,13.1348,-18.805,-0.0320063,-0.00842166,-0.00889318,-0.00544417,-0.0349838,-1.24772,0.0217363,0.0475213,1749,498,13.1348,18.805
532,526,12.9329,-18.0245,-0.0433102,-0.010789,-0.0103295,-0.00778547,-0.0463137,-1.28783,0.0286356,0.0479622,1756,498,12.9329,18.0245
539,526,12.8099,-17.6317,-0.0579981,-0.014716,-0.00978398,-0.0126071,-0.060107,-1.3585,0.0366,0.0497744,1763,498,12.8099,17.6317
546,526,12.4675,-17.1617,0,0,0,0,0,0,0,-1,1770,498,12.4675,17.1617
553,526,3.40796,1.37137,0,0,0,0,0,0,0,-1,1777,498,3.40792,-1.37138
560,526,0,0,0,0,0,0,0,0,0,-1,1784,498,0,0
567,526,0,0,0,0,0,0,0,0,0,-1,1791,498,0,0
574,526,0,0,0,0,0,0,0,0,0,-1,1798,498,0,0
581,526,0,0,0,0,0,0,0,0,0,-1,1805,498,0,0
588,526,0,0,0,0,0,0,0,0,0,-1,1812,498,0,0
595,526,0,0,0,0,0,0,0,0,0,-1,1819,498,0,0
602,526,0,0,0,0,0,0,0,0,0,-1,1826,498,0,0
609,526,0,0,0,0,0,0,0,0,0,-1,1833,498,0,0
616,526,0,0,0,0,0,0,0,0,0,-1,1840,498,0,0
623,526,0,0,0,0,0,0,0,0,0,-1,1847,498,0,0
630,526,0,0,0,0,0,0,0,0,0,-1,1854,498,0,0
637,526,0,0,0,0,0,0,0,0,0,-1,1861,498,0,0
644,526,0,0,0,0,0,0,0,0,0,-1,1868,498,0,0
651,526,0,0,0,0,0,0,0,0,0,-1,1875,498,0,0
658,526,0,0,0,0,0,0,0,0,0,-1,1882,498,0,0
665,526,0,0,0,0,0,0,0,0,0,-1,1889,498,0,0
672,526,0,0,0,0,0,0,0,0,0,-1,1896,498,0,0
679,526,0,0,0,0,0,0,0,0,0,-1,1903,498,0,0
686,526,0,0,0,0,0,0,0,0,0,-1,1910,498,0,0
693,526,0,0,0,0,0,0,0,0,0,-1,1917,498,0,0
700,526,0,0,0,0,0,0,0,0,0,-1,1924,498,0,0
707,526,0,0,0,0,0,0,0,0,0,-1,1931,498,0,0
714,526,0,0,0,0,0,0,0,0,0,-1,1938,498,0,0
721,526,0,0,0,0,0,0,0,0,0,-1,1945,498,0,0
728,526,0,0,0,0,0,0,0,0,0,-1,1952,498,0,0
735,526,0,0,0,0,0,0,0,0,0,-1,1959,498,0,0
742,526,0,0,0,0,0,0,0,0,0,-1,1966,498,0,0
749,526,0,0,0,0,0,0,0,0,0,-1,1973,498,0,0
756,526,0,0,0,0,0,0,0,0,0,-1,1980,498,0,0
763,526,0,0,0,0,0,0,0,0,0,-1,1987,498,0,0
770,526,0,0,0,0,0,0,0,0,0,-1,1994,498,0,0
777,526,0,0,0,0,0,0,0,0,0,-1,2001,498,0,0
784,526,0,0,0,0,0,0,0,0,0,-1,2008,498,0,0
791,526,0,0,0,0,0,0,0,0,0,-1,2015,498,0,0
798,526,0,0,0,0,0,0,0,0,0,-1,2022,498,0,0
805,526,0,0,0,0,0,0,0,0,0,-1,2029,498,0,0
812,526,0,0,0,0,0,0,0,0,0,-1,2036,498,0,0
-700,519,0,0,0,0,0,0,0,0,0,-1,524,505,0,0
-693,519,0,0,0,0,0,0,0,0,0,-1,531,505,0,0
-686,519,0,0,0,0,0,0,0,0,0,-1,538,505,0,0
-679,519,0,0,0,0,0,0,0,0,0,-1,545,505,0,0
-672,519,0,0,0,0,0,0,0,0,0,-1,552,505,0,0
-665,519,0,0,0,0,0,0,0,0,0,-1,559,505,0,0
-658,519,0,0,0,0,0,0,0,0,0,-1,566,505,0,0
-651,519,0,0,0,0,0,0,0,0,0,-1,573,505,0,0
-644,519,0,0,0,0,0,0,0,0,0,-1,580,505,0,0
-637,519,0,0,0,0,0,0,0,0,0,-1,587,505,0,0
-630,519,0,0,0,0,0,0,0,0,0,-1,594,505,0,0
-623,519,0,0,0,0,0,0,0,0,0,-1,601,505,0,0
-616,519,0,0,0,0,0,0,0,0,0,-1,608,505,0,0
-609,519,0,0,0,0,0,0,0,0,0,-1,615,505,0,0
-602,519,0,0,0,0,0,0,0,0,0,-1,622,505,0,0
-595,519,0,0,0,0,0,0,0,0,0,-1,629,505,0,0
-588,519,0,0,0,0,0,0,0,0,0,-1,636,505,0,0
-581,519,0,0,0,0,0,0,0,0,0,-1,643,505,0,0
-574,519,0,0,0,0,0,0,0,0,0,-1,650,505,0,0
-567,519,0,0,0,0,0,0,0,0,0,-1,657,505,0,0
-560,519,0,0,0,0,0,0,0,0,0,-1,664,505,0,0
-553,519,0,0,0,0,0,0,0,0,0,-1,671,505,0,0
-546,519,0,0,0,0,0,0,0,0,0,-1,678,505,0,0
-539,519,0,0,0,0,0,0,0,0,0,-1,685,505,0,0
-532,519,0,0,0,0,0,0,0,0,0,-1,692,505,0,0
-525,519,0,0,0,0,0,0,0,0,0,-1,699,505,0,0
-518,519,0,0,0,0,0,0,0,0,0,-1,706,505,0,0
-511,519,0,0,0,0,0,0,0,0,0,-1,713,505,0,0
-504,519,0,0,0,0,0,0,0,0,0,-1,720,505,0,0
-497,519,0,0,0,0,0,0,0,0,0,-1,727,505,0,0
-490,519,0,0,0,0,0,0,0,0,0,-1,734,505,0,0
-483,519,0,0,0,0,0,0,0,0,0,-1,741,505,0,0
-476,519,0,0,0,0,0,0,0,0,0,-1,748,505,0,0
-469,519,0,0,0,0,0,0,0,0,0,-1,755,505,0,0
-462,519,0,0,0,0,0,0,0,0,0,-1,762,505,0,0
-455,519,0,0,0,0,0,0,0,0,0,-1,769,505,0,0
-448,519,0,0,0,0,0,0,0,0,0,-1,776,505,0,0
-441,519,1.34839,-5.29346,0,0,0,0,0,0,0,-1,783,505,1.3484,5.29347
-434,519,0.949585,-5.77313,0,0,0,0,0,0,0,-1,790,505,0.949598,5.77315
-427,519,-0.0523682,-9.31567,0,0,0,0,0,0,0,-1,797,505,-0.0523854,9.31568
-420,519,-2.38867,-12.1938,0,0,0,0,0,0,0,-1,804,505,-2.38867,12.1938
-413,519,-2.2298,-12.4998,0,0,0,0,0,0,0,-1,811,505,-2.22979,12.4998
-406,519,-1.44373,-12.3475,0,0,0,0,0,0,0,-1,818,505,-1.44376,12.3475
-399,519,-1.60516,-15.0849,0,0,0,0,0,0,0,-1,825,505,-1.60518,15.0849
-392,519,-1.65515,-20.0137,0,0,0,0,0,0,0,-1,832,505,-1.65512,20.0137
-385,519,-2.01941,-19.4459,0.00761087,0.0413416,-0.0230204,0.0530135,-0.00406109,-1.10154,0.0367709,0.049582,839,505,-2.01942,19.4459
-378,519,-1.88025,-20.9857,0.00593887,0.0340867,-0.0188115,0.0435064,-0.0034808,-1.10656,0.0302314,0.0377736,846,505,-1.88024,20.9856
-371,519,-1.76202,-21.9716,0.00453159,0.0276385,-0.0149835,0.0350056,-0.00283549,-1.11383,0.0243374,0.0197434,853,505,-1.76202,21.9715
-364,519,-1.76959,-22.8534,0.00336188,0.0219745,-0.0116841,0.0276055,-0.00226918,-1.1217,0.0192048,0.0117327,860,505,-1.76958,22.8534
-357,519,-1.78217,-23.603,0.00239487,0.017156,-0.00890632,0.0213424,-0.00179156,-1.13139,0.0148615,0.0108854,867,505,-1.78218,23.603
-350,519,-1.82196,-24.2899,0.00166762,0.0130343,-0.00657824,0.0160443,-0.00134235,-1.14167,0.0111706,0.0126599,874,505,-1.82196,24.2899
-343,519,-1.89825,-24.9404,0.00117253,0.00944513,-0.00466113,0.0115406,-0.00092295,-1.1483,0.00801911,0.0165125,881,505,-1.89825,24.9404
-336,519,-1.95782,-25.5961,0.000782649,0.00662546,-0.00309023,0.0079566,-0.000548491,-1.16406,0.00549636,0.0168519,888,505,-1.95781,25.5961
-329,519,-1.96039,-26.2736,0.000504057,0.0036796,-0.00166646,0.00439359,-0.000209937,-1.16601,0.00300149,0.0143681,895,505,-1.96039,26.2736
-322,519,-1.95795,-26.9431,0.00048775,0.00189542,-0.000762622,0.00222936,0.000153809,-1.15806,0.00143771,0.011393,902,505,-1.95792,26.9431
-315,519,-1.98645,-27.6193,0.0006256,0.000479383,-8.01781e-05,0.000660997,0.000443987,-0.415744,0.000389054,0.00932349,909,505,-1.98646,27.6193
-308,519,-2.0274,-28.2942,0.000882538,-0.000632535,0.000423099,0.000992685,-0.000742681,0.25468,0.00100537,0.00827484,916,505,-2.0274,28.2942
-301,519,-2.07343,-28.9304,0.00114097,-0.00146336,0.000827693,0.00138176,-0.00170415,0.283103,0.00178489,0.0121945,923,505,-2.07344,28.9304
-294,519,-2.06409,-29.5281,0.00149306,-0.00209515,0.00129474,0.00191146,-0.00251355,0.312559,0.00256265,0.0152742,930,505,-2.06409,29.5281
-287,519,-2.10223,-30.151,0.00190611,-0.00280603,0.00178411,0.0025054,-0.00340531,0.324059,0.00342571,0.0115229,937,505,-2.10221,30.151
-280,519,-2.15356,-30.7769,0.00195205,-0.00419391,0.00246027,0.00281558,-0.00505745,0.337557,0.00460651,0.0213806,944,505,-2.15358,30.7769
-273,519,-2.11481,-31.4182,0.0021313,-0.00599391,0.00344264,0.00339378,-0.00725639,0.35149,0.00628223,0.0430837,951,505,-2.11482,31.4181
-266,519,-2.14398,-32.0739,0,0,0,0,0,0,0,-1,958,505,-2.14401,32.0739
-259,519,-1.98969,-32.7546,0,0,0,0,0,0,0,-1,965,505,-1.98971,32.7546
-252,519,-1.84009,-26.8372,0,0,0,0,0,0,0,-1,972,505,-1.8401,26.8372
-245,519,-1.23254,-23.2696,0,0,0,0,0,0,0,-1,979,505,-1.23256,23.2696
-238,519,-1.5415,-31.0349,0,0,0,0,0,0,0,-1,986,505,-1.5415,31.0348
-231,519,-0.726379,-33.2872,0,0,0,0,0,0,0,-1,993,505,-0.726352,33.2871
-224,519,-2.20178,-34.5695,0,0,0,0,0,0,0,-1,1000,505,-2.20179,34.5695
-217,519,-0.797974,-34.3293,0,0,0,0,0,0,0,-1,1007,505,-0.79796,34.3293
-210,519,-0.883362,-34.799,0,0,0,0,0,0,0,-1,1014,505,-0.883379,34.799
-203,519,-0.513611,-5.39017,0,0,0,0,0,0,0,-1,1021,505,-0.513585,5.39017
-196,519,-0.374023,-5.41635,0,0,0,0,0,0,0,-1,1028,505,-0.374047,5.41635
-189,519,-0.234497,-5.44254,0,0,0,0,0,0,0,-1,1035,505,-0.234508,5.44253
-182,519,2.76697,-1.19659,0,0,0,0,0,0,0,-1,1042,505,2.76696,1.19661
-175,519,2.31323,-0.960938,0,0,0,0,0,0,0,-1,1049,505,2.31319,0.960941
-168,519,2.01074,-0.721405,0,0,0,0,0,0,0,-1,1056,505,2.01072,0.721407
-161,519,2.32056,-0.522339,0,0,0,0,0,0,0,-1,1063,505,2.32057,0.522328
-154,519,2.55566,0.116669,0,0,0,0,0,0,0,-1,1070,505,2.55563,-0.116661
-147,519,-0.55127,-6.14001,0,0,0,0,0,0,0,-1,1077,505,-0.551252,6.14001
-140,519,0.240601,-7.53503,0,0,0,0,0,0,0,-1,1084,505,0.240653,7.53501
-133,519,2.70911,-4.4516,0,0,0,0,0,0,0,-1,1091,505,2.70915,4.45161
-126,519,0,0,0,0,0,0,0,0,0,-1,1098,505,0,0
-119,519,0,0,0,0,0,0,0,0,0,-1,1105,505,0,0
-112,519,0,0,0,0,0,0,0,0,0,-1,1112,505,0,0
-105,519,0,0,0,0,0,0,0,0,0,-1,1119,505,0,0
-98,519,0,0,0,0,0,0,0,0,0,-1,1126,505,0,0
-91,519,0,0,0,0,0,0,0,0,0,-1,1133,505,0,0
-84,519,0,0,0,0,0,0,0,0,0,-1,1140,505,0,0
-77,519,0,0,0,0,0,0,0,0,0,-1,1147,505,0,0
-70,519,0,0,0,0,0,0,0,0,0,-1,1154,505,0,0
-63,519,0,0,0,0,0,0,0,0,0,-1,1161,505,0,0
-56,519,0,0,0,0,0,0,0,0,0,-1,1168,505,0,0
-49,519,0,0,0,0,0,0,0,0,0,-1,1175,505,0,0
-42,519,0,0,0,0,0,0,0,0,0,-1,1182,505,0,0
-35,519,0,0,0,0,0,0,0,0,0,-1,1189,505,0,0
-28,519,0,0,0,0,0,0,0,0,0,-1,1196,505,0,0
-21,519,0,0,0,0,0,0,0,0,0,-1,1203,505,0,0
-14,519,0,0,0,0,0,0,0,0,0,-1,1210,505,0,0
-7,519,0,0,0,0,0,0,0,0,0,-1,1217,505,0,0
0,519,0,0,0,0,0,0,0,0,0,-1,1224,505,0,0
7,519,0,0,0,0,0,0,0,0,0,-1,1231,505,0,0
14,519,0,0,0,0,0,0,0,0,0,-1,1238,505,0,0
21,519,0,0,0,0,0,0,0,0,0,-1,1245,505,0,0
28,519,0,0,0,0,0,0,0,0,0,-1,1252,505,0,0
35,519,0,0,0,0,0,0,0,0,0,-1,1259,505,0,0
42,519,0,0,0,0,0,0,0,0,0,-1,1266,505,0,0
49,519,0,0,0,0,0,0,0,0,0,-1,1273,505,0,0
56,519,0,0,0,0,0,0,0,0,0,-1,1280,505,0,0
63,519,0,0,0,0,0,0,0,0,0,-1,1287,505,0,0
70,519,0,0,0,0,0,0,0,0,0,-1,1294,505,0,0
77,519,0,0,0,0,0,0,0,0,0,-1,1301,505,0,0
84,519,0,0,0,0,0,0,0,0,0,-1,1308,505,0,0
91,519,0,0,0,0,0,0,0,0,0,-1,1315,505,0,0
98,519,0,0,0,0,0,0,0,0,0,-1,1322,505,0,0
105,519,0,0,0,0,0,0,0,0,0,-1,1329,505,0,0
112,519,0,0,0,0,0,0,0,0,0,-1,1336,505,0,0
119,519,0,0,0,0,0,0,0,0,0,-1,1343,505,0,0
126,519,0,0,0,0,0,0,0,0,0,-1,1350,505,0,0
133,519,0,0,0,0,0,0,0,0,0,-1,1357,505,0,0
140,519,0,0,0,0,0,0,0,0,0,-1,1364,505,0,0
147,519,0,0,0,0,0,0,0,0,0,-1,1371,505,0,0
154,519,0,0,0,0,0,0,0,0,0,-1,1378,505,0,0
161,519,0,0,0,0,0,0,0,0,0,-1,1385,505,0,0
168,519,0,0,0,0,0,0,0,0,0,-1,1392,505,0,0
175,519,0,0,0,0,0,0,0,0,0,-1,1399,505,0,0
182,519,0,0,0,0,0,0,0,0,0,-1,1406,505,0,0
189,519,0,0,0,0,0,0,0,0,0,-1,1413,505,0,0
196,519,0,0,0,0,0,0,0,0,0,-1,1420,505,0,0
203,519,0,0,0,0,0,0,0,0,0,-1,1427,505,0,0
210,519,0,0,0,0,0,0,0,0,0,-1,1434,505,0,0
217,519,0,0,0,0,0,0,0,0,0,-1,1441,505,0,0
224,519,0,0,0,0,0,0,0,0,0,-1,1448,505,0,0
231,519,0,0,0,0,0,0,0,0,0,-1,1455,505,0,0
238,519,0,0,0,0,0,0,0,0,0,-1,1462,505,0,0
245,519,0,0,0,0,0,0,0,0,0,-1,1469,505,0,0
252,519,5.26208,0.0938416,0,0,0,0,0,0,0,-1,1476,505,5.26207,-0.0938493
259,519,6.14246,-1.36441,0,0,0,0,0,0,0,-1,1483,505,6.14241,1.36441
266,519,5.31909,-0.400787,0,0,0,0,0,0,0,-1,1490,505,5.31912,0.400773
273,519,4.02393,0.325531,0,0,0,0,0,0,0,-1,1497,505,4.0239,-0.325522
280,519,4.68848,0.53006,0,0,0,0,0,0,0,-1,1504,505,4.68842,-0.530073
287,519,7.9519,-3.80801,0,0,0,0,0,0,0,-1,1511,505,7.95193,3.808
294,519,6.92273,-3.38889,0,0,0,0,0,0,0,-1,1518,505,6.92268,3.38888
301,519,5.35669,-2.92661,0,0,0,0,0,0,0,-1,1525,505,5.35675,2.9266
308,519,7.37549,-5.64529,0,0,0,0,0,0,0,-1,1532,505,7.3755,5.64529
315,519,6.30029,-4.53754,0,0,0,0,0,0,0,-1,1539,505,6.30024,4.53753
322,519,5.84302,-5.45117,0,0,0,0,0,0,0,-1,1546,505,5.84303,5.45116
329,519,4.92407,0.62384,0,0,0,0,0,0,0,-1,1553,505,4.92403,-0.623832
336,519,3.10095,-0.329285,0,0,0,0,0,0,0,-1,1560,505,3.1009,0.329283
343,519,2.49146,-2.31119,0,0,0,0,0,0,0,-1,1567,505,2.49145,2.31119
350,519,3.47729,-2.22516,0,0,0,0,0,0,0,-1,1574,505,3.47726,2.22515
357,519,13.271,-29.6344,0,0,0,0,0,0,0,-1,1581,505,13.271,29.6344
364,519,12.8292,-28.3627,0,0,0,0,0,0,0,-1,1588,505,12.8292,28.3627
371,519,12.3875,-27.0911,0,0,0,0,0,0,0,-1,1595,505,12.3874,27.091
378,519,6.36597,-10.0967,0,0,0,0,0,0,0,-1,1602,505,6.36597,10.0967
385,519,6.24756,-9.72186,0,0,0,0,0,0,0,-1,1609,505,6.24752,9.72183
392,519,14.592,-31.5419,0,0,0,0,0,0,0,-1,1616,505,14.5921,31.5418
399,519,14.6959,-30.5253,-0.00172233,-0.00208459,-0.00395888,0.00205957,-0.00586648,-0.762538,0.00474879,0.0465745,1623,505,14.6959,30.5253
406,519,14.5234,-30.0265,-0.00101678,-0.00137696,-0.00316833,0.00197658,-0.00437032,-0.757008,0.00375025,0.0310459,1630,505,14.5235,30.0265
413,519,14.5687,-29.3688,-0.000245829,-0.000531324,-0.00231104,0.00192686,-0.00270402,-0.754553,0.00268616,0.015888,1637,505,14.5687,29.3688
420,519,14.5349,-28.6709,0.000236204,-6.69264e-05,-0.00155291,0.00164492,-0.00147565,-0.736752,0.00180254,0.0152775,1644,505,14.5349,28.6709
427,519,14.521,-28.0587,0.000528035,0.000396156,-0.000971447,0.00143578,-0.000511587,-0.751511,0.00116575,0.0140207,1651,505,14.521,28.0586
434,519,14.4661,-27.4055,0.000728883,0.000650025,-0.000402169,0.00109355,0.000285356,-0.736534,0.000654974,0.0129253,1658,505,14.4661,27.4055
441,519,14.4137,-26.7115,0.00081914,0.000923901,4.54435e-05,0.000940867,0.000802175,1.2135,0.000586506,0.0129462,1665,505,14.4137,26.7115
448,519,14.4124,-26.0503,0.000843223,0.00106123,0.000436572,0.0014022,0.000502254,0.90774,0.000820345,0.0102822,1672,505,14.4123,26.0503
455,519,14.3973,-25.3991,0.000792811,0.00131514,0.000781858,0.0018783,0.000229653,0.946588,0.0011831,0.0113374,1679,505,14.3973,25.3991
462,519,14.3845,-24.7151,0.000660966,0.00145494,0.000998339,0.00213233,-1.64217e-05,0.974636,0.00142706,0.0104184,1686,505,14.3845,24.7151
469,519,14.368,-24.0266,0.000382446,0.00133469,0.0011328,0.00208736,-0.000370227,0.984341,0.00152999,0.0110706,1693,505,14.3681,24.0266
476,519,14.3313,-23.317,0.000176817,0.000920748,0.000995284,0.0016113,-0.000513737,0.964226,0.00128028,0.0134946,1700,505,14.3313,23.3169
483,519,14.2948,-22.607,-0.000626139,0.00153743,-9.13179e-05,0.00154128,-0.000629987,-1.52869,0.00128986,0.0151099,1707,505,14.2948,22.607
490,519,14.2451,-21.8672,-0.00311268,0.000390648,-0.000108155,0.000393984,-0.00311602,-1.53996,0.00222036,0.0130845,1714,505,14.2451,21.8672
497,519,14.2271,-21.2447,-0.00537066,-0.000340508,-0.000951722,-0.000166461,-0.00554471,-1.38992,0.00364225,0.0234503,1721,505,14.2271,21.2447
504,519,14.1687,-20.5018,-0.00856999,-0.00136393,-0.00205514,-0.000819015,-0.0091149,-1.31161,0.00582283,0.0241497,1728,505,14.1688,20.5018
511,519,14.226,-19.7083,-0.012821,-0.00262352,-0.00328589,-0.00165643,-0.0137881,-1.28456,0.00869268,0.0298881,1735,505,14.226,19.7083
518,519,14.184,-19.0509,-0.0184757,-0.00420301,-0.00460289,-0.00284736,-0.0198313,-1.28437,0.0123814,0.0445864,1742,505,14.184,19.0509
525,519,14.343,-18.5958,-0.0258669,-0.00618625,-0.00574043,-0.00463428,-0.0274189,-1.30675,0.016947,0.0453048,1749,505,14.3431,18.5958
532,519,14.9177,-18.3765,-0.0353777,-0.00832231,-0.00660107,-0.00679767,-0.0369023,-1.34381,0.0226778,0.0471503,1756,505,14.9177,18.3764
539,519,12.7399,-17.0198,-0.0474923,-0.0115237,-0.0062639,-0.010464,-0.048552,-1.40322,0.0295051,0.0490173,1763,505,12.7399,17.0198
546,519,12.4001,-16.5616,0,0,0,0,0,0,0,-1,1770,505,12.4002,16.5616
553,519,4.14136,0.0667419,0,0,0,0,0,0,0,-1,1777,505,4.14141,-0.0667503
560,519,3.77856,0.279724,0,0,0,0,0,0,0,-1,1784,505,3.77861,-0.279731
567,519,0,0,0,0,0,0,0,0,0,-1,1791,505,0,0
574,519,0,0,0,0,0,0,0,0,0,-1,1798,505,0,0
581,519,0,0,0,0,0,0,0,0,0,-1,1805,505,0,0
588,519,0,0,0,0,0,0,0,0,0,-1,1812,505,0,0
595,519,0,0,0,0,0,0,0,0,0,-1,1819,505,0,0
602,519,0,0,0,0,0,0,0,0,0,-1,1826,505,0,0
609,519,0,0,0,0,0,0,0,0,0,-1,1833,505,0,0
616,519,0,0,0,0,0,0,0,0,0,-1,1840,505,0,0
623,519,0,0,0,0,0,0,0,0,0,-1,1847,505,0,0
630,519,0,0,0,0,0,0,0,0,0,-1,1854,505,0,0
637,519,0,0,0,0,0,0,0,0,0,-1,1861,505,0,0
644,519,0,0,0,0,0,0,0,0,0,-1,1868,505,0,0
651,519,0,0,0,0,0,0,0,0,0,-1,1875,505,0,0
658,519,0,0,0,0,0,0,0,0,0,-1,1882,505,0,0
665,519,0,0,0,0,0,0,0,0,0,-1,1889,505,0,0
672,519,0,0,0,0,0,0,0,0,0,-1,1896,505,0,0
679,519,0,0,0,0,0,0,0,0,0,-1,1903,505,0,0
686,519,0,0,0,0,0,0,0,0,0,-1,1910,505,0,0
693,519,0,0,0,0,0,0,0,0,0,-1,1917,505,0,0
700,519,0,0,0,0,0,0,0,0,0,-1,1924,505,0,0
707,519,0,0,0,0,0,0,0,0,0,-1,1931,505,0,0
714,519,0,0,0,0,0,0,0,0,0,-1,1938,505,0,0
721,519,0,0,0,0,0,0,0,0,0,-1,1945,505,0,0
728,519,0,0,0,0,0,0,0,0,0,-1,1952,505,0,0
735,519,0,0,0,0,0,0,0,0,0,-1,1959,505,0,0
742,519,0,0,0,0,0,0,0,0,0,-1,1966,505,0,0
749,519,0,0,0,0,0,0,0,0,0,-1,1973,505,0,0
756,519,0,0,0,0,0,0,0,0,0,-1,1980,505,0,0
763,519,0,0,0,0,0,0,0,0,0,-1,1987,505,0,0
770,519,0,0,0,0,0,0,0,0,0,-1,1994,505,0,0
777,519,0,0,0,0,0,0,0,0,0,-1,2001,505,0,0
784,519,0,0,0,0,0,0,0,0,0,-1,2008,505,0,0
791,519,0,0,0,0,0,0,0,0,0,-1,2015,505,0,0
798,519,0,0,0,0,0,0,0,0,0,-1,2022,505,0,0
805,519,0,0,0,0,0,0,0,0,0,-1,2029,505,0,0
812,519,0,0,0,0,0,0,0,0,0,-1,2036,505,0,0
-700,512,0,0,0,0,0,0,0,0,0,-1,524,512,0,0
-693,512,0,0,0,0,0,0,0,0,0,-1,531,512,0,0
-686,512,0,0,0,0,0,0,0,0,0,-1,538,512,0,0
-679,512,0,0,0,0,0,0,0,0,0,-1,545,512,0,0
-672,512,0,0,0,0,0,0,0,0,0,-1,552,512,0,0
-665,512,0,0,0,0,0,0,0,0,0,-1,559,512,0,0
-658,512,0,0,0,0,0,0,0,0,0,-1,566,512,0,0
-651,512,0,0,0,0,0,0,0,0,0,-1,573,512,0,0
-644,512,0,0,0,0,0,0,0,0,0,-1,580,512,0,0
-637,512,0,0,0,0,0,0,0,0,0,-1,587,512,0,0
-630,512,0,0,0,0,0,0,0,0,0,-1,594,512,0,0
-623,512,0,0,0,0,0,0,0,0,0,-1,601,512,0,0
-616,512,0,0,0,0,0,0,0,0,0,-1,608,512,0,0
-609,512,0,0,0,0,0,0,0,0,0,-1,615,512,0,0
-602,512,0,0,0,0,0,0,0,0,0,-1,622,512,0,0
-595,512,0,0,0,0,0,0,0,0,0,-1,629,512,0,0
-588,512,0,0,0,0,0,0,0,0,0,-1,636,512,0,0
-581,512,0,0,0,0,0,0,0,0,0,-1,643,512,0,0
-574,512,0,0,0,0,0,0,0,0,0,-1,650,512,0,0
-567,512,0,0,0,0,0,0,0,0,0,-1,657,512,0,0
-560,512,0,0,0,0,0,0,0,0,0,-1,664,512,0,0
-553,512,0,0,0,0,0,0,0,0,0,-1,671,512,0,0
-546,512,0,0,0,0,0,0,0,0,0,-1,678,512,0,0
-539,512,0,0,0,0,0,0,0,0,0,-1,685,512,0,0
-532,512,0,0,0,0,0,0,0,0,0,-1,692,512,0,0
-525,512,0,0,0,0,0,0,0,0,0,-1,699,512,0,0
-518,512,0,0,0,0,0,0,0,0,0,-1,706,512,0,0
-511,512,0,0,0,0,0,0,0,0,0,-1,713,512,0,0
-504,512,0,0,0,0,0,0,0,0,0,-1,720,512,0,0
-497,512,0,0,0,0,0,0,0,0,0,-1,727,512,0,0
-490,512,0,0,0,0,0,0,0,0,0,-1,734,512,0,0
-483,512,0,0,0,0,0,0,0,0,0,-1,741,512,0,0
-476,512,0,0,0,0,0,0,0,0,0,-1,748,512,0,0
-469,512,0,0,0,0,0,0,0,0,0,-1,755,512,0,0
-462,512,0,0,0,0,0,0,0,0,0,-1,762,512,0,0
-455,512,0,0,0,0,0,0,0,0,0,-1,769,512,0,0
-448,512,1.96283,-4.15674,0,0,0,0,0,0,0,-1,776,512,1.96285,4.15677
-441,512,1.78198,-4.88824,0,0,0,0,0,0,0,-1,783,512,1.78201,4.88826
-434,512,0.0726929,-9.85822,0,0,0,0,0,0,0,-1,790,512,0.0727008,9.85819
-427,512,-0.384583,-9.94824,0,0,0,0,0,0,0,-1,797,512,-0.384552,9.94823
-420,512,-2.93219,-12.4855,0,0,0,0,0,0,0,-1,804,512,-2.93219,12.4855
-413,512,-2.22711,-11.4485,0,0,0,0,0,0,0,-1,811,512,-2.22712,11.4485
-406,512,-2.38037,-13.5743,0,0,0,0,0,0,0,-1,818,512,-2.38034,13.5743
-399,512,-2.67651,-19.2361,0,0,0,0,0,0,0,-1,825,512,-2.67651,19.2361
-392,512,-2.45093,-19.9694,0.00632768,0.0375526,-0.0207059,0.0478724,-0.00399216,-1.10843,0.0333255,0.0443819,832,512,-2.45091,19.9694
-385,512,-2.36383,-20.6615,0.00536528,0.0317721,-0.017656,0.0406156,-0.00347815,-1.10645,0.0283077,0.0225114,839,512,-2.36386,20.6615
-378,512,-2.40692,-21.3751,0.00443613,0.0263264,-0.0147637,0.0337597,-0.00299708,-1.10437,0.0235691,0.0179017,846,512,-2.40693,21.3751
-371,512,-2.41943,-22.129,0.00359749,0.0213346,-0.0120322,0.0274135,-0.00248135,-1.10299,0.0191564,0.0138449,853,512,-2.41946,22.129
-364,512,-2.42932,-22.9093,0.002859,0.0167915,-0.00949367,0.0216006,-0.00195007,-1.10192,0.0150925,0.0108255,860,512,-2.42935,22.9093
-357,512,-2.45844,-23.5988,0.00224041,0.0128909,-0.00726271,0.0165715,-0.00144019,-1.10174,0.0115577,0.0118755,867,512,-2.45844,23.5987
-350,512,-2.50684,-24.2822,0.00178117,0.00947796,-0.00535114,0.0122208,-0.000961701,-1.09714,0.00848597,0.0121922,874,512,-2.50683,24.2822
-343,512,-2.57318,-24.9453,0.00147154,0.00644024,-0.00372419,0.00843267,-0.000520892,-1.07954,0.00580321,0.0140525,881,512,-2.5732,24.9453
-336,512,-2.62018,-25.6078,0.00119622,0.00401121,-0.00233252,0.00532799,-0.000120566,-1.05686,0.00359285,0.0149162,888,512,-2.62019,25.6079
-329,512,-2.59973,-26.2619,0.00102766,0.00160706,-0.00109607,0.00245107,0.000183652,-0.914598,0.0015764,0.0162698,895,512,-2.59973,26.2619
-322,512,-2.61713,-26.921,0.00107262,0.000111635,-0.0002609,0.00113888,4.53716e-05,-0.248721,0.000744592,0.0135803,902,512,-2.61714,26.921
-315,512,-2.65149,-27.6027,0.00122909,-0.00108128,0.000408699,0.00129926,-0.00115145,0.170026,0.00141577,0.0113942,909,512,-2.65151,27.6027
-308,512,-2.70325,-28.2514,0.00150943,-0.00203462,0.000914824,0.00173164,-0.00225683,0.238285,0.00230939,0.0113383,916,512,-2.70324,28.2514
-301,512,-2.72473,-28.893,0.00172945,-0.00262585,0.00136375,0.00212123,-0.00301763,0.279749,0.00298194,0.0154185,923,512,-2.72474,28.893
-294,512,-2.71014,-29.4815,0.00196801,-0.00310662,0.0019077,0.00260517,-0.00374378,0.322344,0.00368516,0.0155271,930,512,-2.71013,29.4815
-287,512,-2.83295,-30.0176,0.00230106,-0.00375421,0.00243203,0.0031569,-0.00461004,0.338368,0.00451033,0.0293537,937,512,-2.83292,30.0176
-280,512,-2.80676,-30.7659,0,0,0,0,0,0,0,-1,944,512,-2.80674,30.7659
-273,512,-2.54224,-31.4719,0,0,0,0,0,0,0,-1,951,512,-2.54225,31.4719
-266,512,-2.33594,-25.9839,0,0,0,0,0,0,0,-1,958,512,-2.33592,25.9839
-259,512,-0.525452,-14.0815,0,0,0,0,0,0,0,-1,965,512,-0.525475,14.0815
-252,512,1.45941,-3.43475,0,0,0,0,0,0,0,-1,972,512,1.45938,3.43475
-245,512,-1.6731,-22.8959,0,0,0,0,0,0,0,-1,979,512,-1.67312,22.8959
-238,512,0.227051,-8.92969,0,0,0,0,0,0,0,-1,986,512,0.227073,8.92968
-231,512,-0.907349,-32.3113,0,0,0,0,0,0,0,-1,993,512,-0.907339,32.3113
-224,512,-1.29974,-33.6304,0,0,0,0,0,0,0,-1,1000,512,-1.29974,33.6304
-217,512,-0.963196,-34.1697,0,0,0,0,0,0,0,-1,1007,512,-0.963226,34.1697
-210,512,-3.76642,-1.94702,0,0,0,0,0,0,0,-1,1014,512,-3.76641,1.94702
-203,512,-2.48328,-5.19061,0,0,0,0,0,0,0,-1,1021,512,-2.48328,5.19059
-196,512,-1.14929,-4.63202,0,0,0,0,0,0,0,-1,1028,512,-1.14934,4.632
-189,512,0.197998,4.55505,0,0,0,0,0,0,0,-1,1035,512,0.197996,-4.55506
-182,512,2.73938,0.0778503,0,0,0,0,0,0,0,-1,1042,512,2.73944,-0.077852
-175,512,2.29565,0.209808,0,0,0,0,0,0,0,-1,1049,512,2.29565,-0.209813
-168,512,2.09399,-0.302856,0,0,0,0,0,0,0,-1,1056,512,2.09403,0.302826
-161,512,2.76636,0.0921021,0,0,0,0,0,0,0,-1,1063,512,2.76633,-0.0921104
-154,512,3.41382,0.466187,0,0,0,0,0,0,0,-1,1070,512,3.41382,-0.466178
-147,512,0,0,0,0,0,0,0,0,0,-1,1077,512,0,0
-140,512,0,0,0,0,0,0,0,0,0,-1,1084,512,0,0
-133,512,0,0,0,0,0,0,0,0,0,-1,1091,512,0,0
-126,512,0,0,0,0,0,0,0,0,0,-1,1098,512,0,0
-119,512,0,0,0,0,0,0,0,0,0,-1,1105,512,0,0
-112,512,0,0,0,0,0,0,0,0,0,-1,1112,512,0,0
-105,512,0,0,0,0,0,0,0,0,0,-1,1119,512,0,0
-98,512,0,0,0,0,0,0,0,0,0,-1,1126,512,0,0
-91,512,0,0,0,0,0,0,0,0,0,-1,1133,512,0,0
-84,512,0,0,0,0,0,0,0,0,0,-1,1140,512,0,0
-77,512,0,0,0,0,0,0,0,0,0,-1,1147,512,0,0
-70,512,0,0,0,0,0,0,0,0,0,-1,1154,512,0,0
-63,512,0,0,0,0,0,0,0,0,0,-1,1161,512,0,0
-56,512,0,0,0,0,0,0,0,0,0,-1,1168,512,0,0
-49,512,0,0,0,0,0,0,0,0,0,-1,1175,512,0,0
-42,512,0,0,0,0,0,0,0,0,0,-1,1182,512,0,0
-35,512,0,0,0,0,0,0,0,0,0,-1,1189,512,0,0
-28,512,0,0,0,0,0,0,0,0,0,-1,1196,512,0,0
-21,512,0,0,0,0,0,0,0,0,0,-1,1203,512,0,0
-14,512,0,0,0,0,0,0,0,0,0,-1,1210,512,0,0
-7,512,0,0,0,0,0,0,0,0,0,-1,1217,512,0,0
0,512,0,0,0,0,0,0,0,0,0,-1,1224,512,0,0
7,512,0,0,0,0,0,0,0,0,0,-1,1231,512,0,0
14,512,0,0,0,0,0,0,0,0,0,-1,1238,512,0,0
21,512,0,0,0,0,0,0,0,0,0,-1,1245,512,0,0
28,512,0,0,0,0,0,0,0,0,0,-1,1252,512,0,0
35,512,0,0,0,0,0,0,0,0,0,-1,1259,512,0,0
42,512,0,0,0,0,0,0,0,0,0,-1,1266,512,0,0
49,512,0,0,0,0,0,0,0,0,0,-1,1273,512,0,0
56,512,0,0,0,0,0,0,0,0,0,-1,1280,512,0,0
63,512,0,0,0,0,0,0,0,0,0,-1,1287,512,0,0
70,512,0,0,0,0,0,0,0,0,0,-1,1294,512,0,0
77,512,0,0,0,0,0,0,0,0,0,-1,1301,512,0,0
84,512,0,0,0,0,0,0,0,0,0,-1,1308,512,0,0
91,512,0,0,0,0,0,0,0,0,0,-1,1315,512,0,0
98,512,0,0,0,0,0,0,0,0,0,-1,1322,512,0,0
105,512,0,0,0,0,0,0,0,0,0,-1,1329,512,0,0
112,512,0,0,0,0,0,0,0,0,0,-1,1336,512,0,0
119,512,0,0,0,0,0,0,0,0,0,-1,1343,512,0,0
126,512,0,0,0,0,0,0,0,0,0,-1,1350,512,0,0
133,512,0,0,0,0,0,0,0,0,0,-1,1357,512,0,0
140,512,0,0,0,0,0,0,0,0,0,-1,1364,512,0,0
147,512,0,0,0,0,0,0,0,0,0,-1,1371,512,0,0
154,512,0,0,0,0,0,0,0,0,0,-1,1378,512,0,0
161,512,0,0,0,0,0,0,0,0,0,-1,1385,512,0,0
168,512,0,0,0,0,0,0,0,0,0,-1,1392,512,0,0
175,512,0,0,0,0,0,0,0,0,0,-1,1399,512,0,0
182,512,0,0,0,0,0,0,0,0,0,-1,1406,512,0,0
189,512,0,0,0,0,0,0,0,0,0,-1,1413,512,0,0
196,512,0,0,0,0,0,0,0,0,0,-1,1420,512,0,0
203,512,0,0,0,0,0,0,0,0,0,-1,1427,512,0,0
210,512,0,0,0,0,0,0,0,0,0,-1,1434,512,0,0
217,512,0,0,0,0,0,0,0,0,0,-1,1441,512,0,0
224,512,0,0,0,0,0,0,0,0,0,-1,1448,512,0,0
231,512,0,0,0,0,0,0,0,0,0,-1,1455,512,0,0
238,512,0,0,0,0,0,0,0,0,0,-1,1462,512,0,0
245,512,0,0,0,0,0,0,0,0,0,-1,1469,512,0,0
252,512,0,0,0,0,0,0,0,0,0,-1,1476,512,0,0
259,512,0,0,0,0,0,0,0,0,0,-1,1483,512,0,0
266,512,0,0,0,0,0,0,0,0,0,-1,1490,512,0,0
273,512,4.00745,0.618622,0,0,0,0,0,0,0,-1,1497,512,4.00747,-0.618611
280,512,4.49609,0.649841,0,0,0,0,0,0,0,-1,1504,512,4.49612,-0.649834
287,512,4.77234,0.458069,0,0,0,0,0,0,0,-1,1511,512,4.77233,-0.458083
294,512,8.54956,-2.36273,0,0,0,0,0,0,0,-1,1518,512,8.54952,2.36274
301,512,6.302,-1.69092,0,0,0,0,0,0,0,-1,1525,512,6.30196,1.69093
308,512,8.2439,-6.22754,0,0,0,0,0,0,0,-1,1532,512,8.24394,6.22757
315,512,7.53687,-6.04211,0,0,0,0,0,0,0,-1,1539,512,7.53691,6.04211
322,512,6.82983,-5.85663,0,0,0,0,0,0,0,-1,1546,512,6.82988,5.85666
329,512,4.38147,-0.329651,0,0,0,0,0,0,0,-1,1553,512,4.38144,0.329662
336,512,4.41467,-0.741455,0,0,0,0,0,0,0,-1,1560,512,4.41467,0.741442
343,512,4.44727,-1.21667,0,0,0,0,0,0,0,-1,1567,512,4.44732,1.21666
350,512,4.55469,-1.65082,0,0,0,0,0,0,0,-1,1574,512,4.5547,1.65083
357,512,5.79993,-2.67456,0,0,0,0,0,0,0,-1,1581,512,5.79991,2.67454
364,512,13.118,-28.5485,0,0,0,0,0,0,0,-1,1588,512,13.1181,28.5485
371,512,5.28467,-7.69269,0,0,0,0,0,0,0,-1,1595,512,5.28464,7.69269
378,512,6.29407,-9.88055,0,0,0,0,0,0,0,-1,1602,512,6.29412,9.88057
385,512,6.45569,-9.32233,0,0,0,0,0,0,0,-1,1609,512,6.45565,9.3223
392,512,6.35522,-8.98425,0,0,0,0,0,0,0,-1,1616,512,6.35526,8.98422
399,512,15.4968,-30.1796,0,0,0,0,0,0,0,-1,1623,512,15.4968,30.1796
406,512,15.267,-30.0881,0,0,0,0,0,0,0,-1,1630,512,15.2669,30.0881
413,512,15.1996,-29.504,0,0,0,0,0,0,0,-1,1637,512,15.1995,29.504
420,512,15.2345,-28.6984,0.000409609,-0.000372823,-0.00227644,0.00232821,-0.00229142,-0.700302,0.00266717,0.0268582,1644,512,15.2345,28.6984
427,512,15.202,-28.038,0.000696567,1.5416e-05,-0.00170619,0.00209584,-0.00138386,-0.686887,0.00202298,0.0158833,1651,512,15.2021,28.038
434,512,15.1516,-27.4078,0.000813723,0.000239471,-0.00112633,0.00168895,-0.000635758,-0.660596,0.00138733,0.0120885,1658,512,15.1516,27.4078
441,512,15.1056,-26.7222,0.000939399,0.000473943,-0.000632441,0.00138057,3.27692e-05,-0.609096,0.000909656,0.013218,1665,512,15.1056,26.7222
448,512,15.0837,-26.0637,0.00105486,0.000641748,-0.000147353,0.00110203,0.000594575,-0.309824,0.000636921,0.00903468,1672,512,15.0837,26.0637
455,512,15.0587,-25.3781,0.00113028,0.000967179,0.000307647,0.001367,0.000730457,0.655841,0.000789859,0.00882705,1679,512,15.0587,25.3781
462,512,15.0446,-24.6771,0.00112875,0.00117067,0.000639416,0.00178947,0.000509947,0.801782,0.00106452,0.00990745,1686,512,15.0445,24.6771
469,512,15.0138,-23.9756,0.00103561,0.00120714,0.000950315,0.00207555,0.000167198,0.8304,0.00133147,0.0122095,1693,512,15.0138,23.9756
476,512,14.9735,-23.2844,0.000973672,0.000998765,0.00107241,0.0020587,-8.6266e-05,0.791248,0.00140211,0.0151779,1700,512,14.9735,23.2844
483,512,14.9567,-22.5781,0.000467488,0.00150381,0.000449584,0.00167166,0.000299634,1.21347,0.00102921,0.0132455,1707,512,14.9567,22.5781
490,512,14.9452,-21.8705,-0.00142927,0.000720676,0.000559784,0.000857696,-0.00156629,1.33074,0.00141928,0.0102666,1714,512,14.9452,21.8705
497,512,14.92,-21.1647,-0.00320309,0.000241179,5.74317e-05,0.000242136,-0.00320404,1.55413,0.00222115,0.0113424,1721,512,14.92,21.1647
504,512,14.8583,-20.4211,-0.00577593,-0.000501328,-0.000649865,-0.00042244,-0.00585482,-1.45,0.0037703,0.0135362,1728,512,14.8583,20.4211
511,512,14.7804,-19.6675,-0.00929776,-0.0014624,-0.00150834,-0.00118206,-0.00957809,-1.38704,0.00603012,0.0177484,1735,512,14.7804,19.6676
518,512,14.8314,-18.9367,-0.0140282,-0.00265637,-0.00245058,-0.00215076,-0.0145338,-1.36733,0.00905782,0.0227592,1742,512,14.8314,18.9367
525,512,14.9491,-18.1845,-0.0201408,-0.00413737,-0.0033035,-0.00348227,-0.0207959,-1.37503,0.0128613,0.0445523,1749,512,14.9491,18.1845
532,512,15.2397,-17.2634,0,0,0,0,0,0,0,-1,1756,512,15.2397,17.2634
539,512,12.6367,-16.4022,0,0,0,0,0,0,0,-1,1763,512,12.6367,16.4021
546,512,2.77551,-0.66449,0,0,0,0,0,0,0,-1,1770,512,2.77548,0.664503
553,512,3.927,-0.448853,0,0,0,0,0,0,0,-1,1777,512,3.92704,0.448843
560,512,3.55762,-0.201233,0,0,0,0,0,0,0,-1,1784,512,3.55768,0.201259
567,512,3.09045,0.191193,0,0,0,0,0,0,0,-1,1791,512,3.09045,-0.191203
574,512,0,0,0,0,0,0,0,0,0,-1,1798,512,0,0
581,512,0,0,0,0,0,0,0,0,0,-1,1805,512,0,0
588,512,0,0,0,0,0,0,0,0,0,-1,1812,512,0,0
595,512,0,0,0,0,0,0,0,0,0,-1,1819,512,0,0
602,512,0,0,0,0,0,0,0,0,0,-1,1826,512,0,0
609,512,0,0,0,0,0,0,0,0,0,-1,1833,512,0,0
616,512,0,0,0,0,0,0,0,0,0,-1,1840,512,0,0
623,512,0,0,0,0,0,0,0,0,0,-1,1847,512,0,0
630,512,0,0,0,0,0,0,0,0,0,-1,1854,512,0,0
637,512,0,0,0,0,0,0,0,0,0,-1,1861,512,0,0
644,512,0,0,0,0,0,0,0,0,0,-1,1868,512,0,0
651,512,0,0,0,0,0,0,0,0,0,-1,1875,512,0,0
658,512,0,0,0,0,0,0,0,0,0,-1,1882,512,0,0
665,512,0,0,0,0,0,0,0,0,0,-1,1889,512,0,0
672,512,0,0,0,0,0,0,0,0,0,-1,1896,512,0,0
679,512,0,0,0,0,0,0,0,0,0,-1,1903,512,0,0
686,512,0,0,0,0,0,0,0,0,0,-1,1910,512,0,0
693,512,0,0,0,0,0,0,0,0,0,-1,1917,512,0,0
700,512,0,0,0,0,0,0,0,0,0,-1,1924,512,0,0
707,512,0,0,0,0,0,0,0,0,0,-1,1931,512,0,0
714,512,0,0,0,0,0,0,0,0,0,-1,1938,512,0,0
721,512,0,0,0,0,0,0,0,0,0,-1,1945,512,0,0
728,512,0,0,0,0,0,0,0,0,0,-1,1952,512,0,0
735,512,0,0,0,0,0,0,0,0,0,-1,1959,512,0,0
742,512,0,0,0,0,0,0,0,0,0,-1,1966,512,0,0
749,512,0,0,0,0,0,0,0,0,0,-1,1973,512,0,0
756,512,0,0,0,0,0,0,0,0,0,-1,1980,512,0,0
763,512,0,0,0,0,0,0,0,0,0,-1,1987,512,0,0
770,512,0,0,0,0,0,0,0,0,0,-1,1994,512,0,0
777,512,0,0,0,0,0,0,0,0,0,-1,2001,512,0,0
784,512,0,0,0,0,0,0,0,0,0,-1,2008,512,0,0
791,512,0,0,0,0,0,0,0,0,0,-1,2015,512,0,0
798,512,0,0,0,0,0,0,0,0,0,-1,2022,512,0,0
805,512,0,0,0,0,0,0,0,0,0,-1,2029,512,0,0
812,512,0,0,0,0,0,0,0,0,0,-1,2036,512,0,0
-700,505,0,0,0,0,0,0,0,0,0,-1,524,519,0,0
-693,505,0,0,0,0,0,0,0,0,0,-1,531,519,0,0
-686,505,0,0,0,0,0,0,0,0,0,-1,538,519,0,0
-679,505,0,0,0,0,0,0,0,0,0,-1,545,519,0,0
-672,505,0,0,0,0,0,0,0,0,0,-1,552,519,0,0
-665,505,0,0,0,0,0,0,0,0,0,-1,559,519,0,0
-658,505,0,0,0,0,0,0,0,0,0,-1,566,519,0,0
-651,505,0,0,0,0,0,0,0,0,0,-1,573,519,0,0
-644,505,0,0,0,0,0,0,0,0,0,-1,580,519,0,0
-637,505,0,0,0,0,0,0,0,0,0,-1,587,519,0,0
-630,505,0,0,0,0,0,0,0,0,0,-1,594,519,0,0
-623,505,0,0,0,0,0,0,0,0,0,-1,601,519,0,0
-616,505,0,0,0,0,0,0,0,0,0,-1,608,519,0,0
-609,505,0,0,0,0,0,0,0,0,0,-1,615,519,0,0
-602,505,0,0,0,0,0,0,0,0,0,-1,622,519,0,0
-595,505,0,0,0,0,0,0,0,0,0,-1,629,519,0,0
-588,505,0,0,0,0,0,0,0,0,0,-1,636,519,0,0
-581,505,0,0,0,0,0,0,0,0,0,-1,643,519,0,0
-574,505,0,0,0,0,0,0,0,0,0,-1,650,519,0,0
-567,505,0,0,0,0,0,0,0,0,0,-1,657,519,0,0
-560,505,0,0,0,0,0,0,0,0,0,-1,664,519,0,0
-553,505,0,0,0,0,0,0,0,0,0,-1,671,519,0,0
-546,505,0,0,0,0,0,0,0,0,0,-1,678,519,0,0
-539,505,0,0,0,0,0,0,0,0,0,-1,685,519,0,0
-532,505,0,0,0,0,0,0,0,0,0,-1,692,519,0,0
-525,505,0,0,0,0,0,0,0,0,0,-1,699,519,0,0
-518,505,0,0,0,0,0,0,0,0,0,-1,706,519,0,0
-511,505,0,0,0,0,0,0,0,0,0,-1,713,519,0,0
-504,505,0,0,0,0,0,0,0,0,0,-1,720,519,0,0
-497,505,0,0,0,0,0,0,0,0,0,-1,727,519,0,0
-490,505,0,0,0,0,0,0,0,0,0,-1,734,519,0,0
-483,505,0,0,0,0,0,0,0,0,0,-1,741,519,0,0
-476,505,0,0,0,0,0,0,0,0,0,-1,748,519,0,0
-469,505,0,0,0,0,0,0,0,0,0,-1,755,519,0,0
-462,505,0,0,0,0,0,0,0,0,0,-1,762,519,0,0
-455,505,2.72137,-3.26379,0,0,0,0,0,0,0,-1,769,519,2.72135,3.26377
-448,505,2.51111,-3.94989,0,0,0,0,0,0,0,-1,776,519,2.51112,3.94986
-441,505,2.80212,-6.8902,0,0,0,0,0,0,0,-1,783,519,2.80209,6.89019
-434,505,-0.155212,-10.6374,0,0,0,0,0,0,0,-1,790,519,-0.155194,10.6374
-427,505,-0.474426,-10.4702,0,0,0,0,0,0,0,-1,797,519,-0.474433,10.4702
-420,505,-0.922546,-10.1928,0,0,0,0,0,0,0,-1,804,519,-0.92257,10.1928
-413,505,-3.33948,-13.6183,0,0,0,0,0,0,0,-1,811,519,-3.33949,13.6184
-406,505,-2.86981,-15.8972,0,0,0,0,0,0,0,-1,818,519,-2.86981,15.8972
-399,505,-2.91742,-18.9721,0,0,0,0,0,0,0,-1,825,519,-2.91743,18.9721
-392,505,-2.95551,-19.869,0.00419395,0.0284844,-0.015583,0.0360961,-0.00341774,-1.11642,0.0252805,0.0245179,832,519,-2.95551,19.869
-385,505,-3.03235,-20.7177,0.00377614,0.0240537,-0.0133783,0.030701,-0.00287116,-1.10965,0.0214884,0.0107795,839,519,-3.03237,20.7176
-378,505,-3.08087,-21.446,0.00331766,0.0198721,-0.0112753,0.0255822,-0.00239242,-1.10202,0.0179056,0.0122266,846,519,-3.0809,21.446
-371,505,-3.09021,-22.1759,0.00284958,0.0159291,-0.00926924,0.0207334,-0.00195471,-1.09261,0.0145177,0.0148308,853,519,-3.09023,22.1759
-364,505,-3.10638,-22.9145,0.00239815,0.0122001,-0.00729095,0.0160842,-0.00148594,-1.08131,0.0112509,0.0162956,860,519,-3.10639,22.9145
-357,505,-3.12299,-23.6068,0.00204028,0.00900551,-0.00549976,0.0120326,-0.000986788,-1.06765,0.00837005,0.0135368,867,519,-3.123,23.6068
-350,505,-3.17456,-24.2538,0.00180157,0.006169,-0.00393883,0.00848895,-0.000518384,-1.03851,0.00583977,0.0125359,874,519,-3.17455,24.2538
-343,505,-3.21448,-24.9285,0.00165756,0.00360627,-0.00257788,0.00538778,-0.000123955,-0.966084,0.00363388,0.0110083,881,519,-3.21449,24.9285
-336,505,-3.24384,-25.5995,0.0015127,0.00150517,-0.00137003,0.00287897,0.000138906,-0.784023,0.00187473,0.0141593,888,519,-3.24385,25.5996
-329,505,-3.25159,-26.2237,0.00150229,-0.000332634,-0.000356515,0.00156913,-0.000399469,-0.185315,0.00120158,0.0189986,895,519,-3.25161,26.2237
-322,505,-3.27551,-26.9019,0.00167579,-0.00154199,0.000378335,0.00171968,-0.00158587,0.115478,0.00190898,0.0217779,902,519,-3.27554,26.9018
-315,505,-3.32324,-27.5809,0.00193235,-0.00250279,0.00100633,0.00215,-0.00272044,0.213003,0.00281838,0.0158689,909,519,-3.32327,27.5809
-308,505,-3.36414,-28.1897,0.00232786,-0.00327701,0.00149458,0.00270149,-0.00365064,0.244971,0.00368103,0.0122534,916,519,-3.36415,28.1897
-301,505,-3.36206,-28.85,0.0026044,-0.00357286,0.00199147,0.00319076,-0.00415922,0.286346,0.00425578,0.0179281,923,519,-3.36206,28.85
-294,505,-3.32629,-29.567,0,0,0,0,0,0,0,-1,930,519,-3.32627,29.567
-287,505,-3.47083,-30.1243,0,0,0,0,0,0,0,-1,937,519,-3.47082,30.1243
-280,505,-2.79846,-27.7252,0,0,0,0,0,0,0,-1,944,519,-2.79845,27.7252
-273,505,-0.0680542,-9.44867,0,0,0,0,0,0,0,-1,951,519,-0.0680462,9.44866
-266,505,-0.036377,-9.07922,0,0,0,0,0,0,0,-1,958,519,-0.0364055,9.0792
-259,505,0.10321,-6.69824,0,0,0,0,0,0,0,-1,965,519,0.103235,6.69826
-252,505,6.82312,-15.6972,0,0,0,0,0,0,0,-1,972,519,6.82314,15.6972
-245,505,4.26727,-12.9861,0,0,0,0,0,0,0,-1,979,519,4.2673,12.9861
-238,505,1.67432,-11.2307,0,0,0,0,0,0,0,-1,986,519,1.67429,11.2307
-231,505,-0.958435,-8.3075,0,0,0,0,0,0,0,-1,993,519,-0.958421,8.30751
-224,505,-1.46399,-33.4399,0,0,0,0,0,0,0,-1,1000,519,-1.46397,33.4399
-217,505,-6.34302,-1.65533,0,0,0,0,0,0,0,-1,1007,519,-6.34299,1.65535
-210,505,-3.06128,-0.396301,0,0,0,0,0,0,0,-1,1014,519,-3.06129,0.396294
-203,505,-4.26465,2.03607,0,0,0,0,0,0,0,-1,1021,519,-4.26462,-2.03606
-196,505,-5.47595,4.27295,0,0,0,0,0,0,0,-1,1028,519,-5.47597,-4.27292
-189,505,1.51526,5.56207,0,0,0,0,0,0,0,-1,1035,519,1.51523,-5.56209
-182,505,2.97815,7.5097,0,0,0,0,0,0,0,-1,1042,519,2.97812,-7.5097
-175,505,-2.38416,-2.17548,0,0,0,0,0,0,0,-1,1049,519,-2.38411,2.1755
-168,505,0,0,0,0,0,0,0,0,0,-1,1056,519,0,0
-161,505,0,0,0,0,0,0,0,0,0,-1,1063,519,0,0
-154,505,0,0,0,0,0,0,0,0,0,-1,1070,519,0,0
-147,505,0,0,0,0,0,0,0,0,0,-1,1077,519,0,0
-140,505,0,0,0,0,0,0,0,0,0,-1,1084,519,0,0
-133,505,0,0,0,0,0,0,0,0,0,-1,1091,519,0,0
-126,505,0,0,0,0,0,0,0,0,0,-1,1098,519,0,0
-119,505,0,0,0,0,0,0,0,0,0,-1,1105,519,0,0
-112,505,0,0,0,0,0,0,0,0,0,-1,1112,519,0,0
-105,505,0,0,0,0,0,0,0,0,0,-1,1119,519,0,0
-98,505,0,0,0,0,0,0,0,0,0,-1,1126,519,0,0
-91,505,0,0,0,0,0,0,0,0,0,-1,1133,519,0,0
-84,505,0,0,0,0,0,0,0,0,0,-1,1140,519,0,0
-77,505,0,0,0,0,0,0,0,0,0,-1,1147,519,0,0
-70,505,0,0,0,0,0,0,0,0,0,-1,1154,519,0,0
-63,505,0,0,0,0,0,0,0,0,0,-1,1161,519,0,0
-56,505,0,0,0,0,0,0,0,0,0,-1,1168,519,0,0
-49,505,0,0,0,0,0,0,0,0,0,-1,1175,519,0,0
-42,505,0,0,0,0,0,0,0,0,0,-1,1182,519,0,0
-35,505,0,0,0,0,0,0,0,0,0,-1,1189,519,0,0
-28,505,0,0,0,0,0,0,0,0,0,-1,1196,519,0,0
-21,505,0,0,0,0,0,0,0,0,0,-1,1203,519,0,0
-14,505,0,0,0,0,0,0,0,0,0,-1,1210,519,0,0
-7,505,0,0,0,0,0,0,0,0,0,-1,1217,519,0,0
0,505,0,0,0,0,0,0,0,0,0,-1,1224,519,0,0
7,505,0,0,0,0,0,0,0,0,0,-1,1231,519,0,0
14,505,0,0,0,0,0,0,0,0,0,-1,1238,519,0,0
21,505,0,0,0,0,0,0,0,0,0,-1,1245,519,0,0
28,505,0,0,0,0,0,0,0,0,0,-1,1252,519,0,0
35,505,0,0,0,0,0,0,0,0,0,-1,1259,519,0,0
42,505,0,0,0,0,0,0,0,0,0,-1,1266,519,0,0
49,505,0,0,0,0,0,0,0,0,0,-1,1273,519,0,0
56,505,0,0,0,0,0,0,0,0,0,-1,1280,519,0,0
63,505,0,0,0,0,0,0,0,0,0,-1,1287,519,0,0
70,505,0,0,0,0,0,0,0,0,0,-1,1294,519,0,0
77,505,0,0,0,0,0,0,0,0,0,-1,1301,519,0,0
84,505,0,0,0,0,0,0,0,0,0,-1,1308,519,0,0
91,505,0,0,0,0,0,0,0,0,0,-1,1315,519,0,0
98,505,0,0,0,0,0,0,0,0,0,-1,1322,519,0,0
105,505,0,0,0,0,0,0,0,0,0,-1,1329,519,0,0
112,505,0,0,0,0,0,0,0,0,0,-1,1336,519,0,0
119,505,0,0,0,0,0,0,0,0,0,-1,1343,519,0,0
126,505,0,0,0,0,0,0,0,0,0,-1,1350,519,0,0
133,505,0,0,0,0,0,0,0,0,0,-1,1357,519,0,0
140,505,0,0,0,0,0,0,0,0,0,-1,1364,519,0,0
147,505,0,0,0,0,0,0,0,0,0,-1,1371,519,0,0
154,505,0,0,0,0,0,0,0,0,0,-1,1378,519,0,0
161,505,0,0,0,0,0,0,0,0,0,-1,1385,519,0,0
168,505,0,0,0,0,0,0,0,0,0,-1,1392,519,0,0
175,505,0,0,0,0,0,0,0,0,0,-1,1399,519,0,0
182,505,0,0,0,0,0,0,0,0,0,-1,1406,519,0,0
189,505,0,0,0,0,0,0,0,0,0,-1,1413,519,0,0
196,505,0,0,0,0,0,0,0,0,0,-1,1420,519,0,0
203,505,0,0,0,0,0,0,0,0,0,-1,1427,519,0,0
210,505,0,0,0,0,0,0,0,0,0,-1,1434,519,0,0
217,505,0,0,0,0,0,0,0,0,0,-1,1441,519,0,0
224,505,0,0,0,0,0,0,0,0,0,-1,1448,519,0,0
231,505,0,0,0,0,0,0,0,0,0,-1,1455,519,0,0
238,505,0,0,0,0,0,0,0,0,0,-1,1462,519,0,0
245,505,0,0,0,0,0,0,0,0,0,-1,1469,519,0,0
252,505,0,0,0,0,0,0,0,0,0,-1,1476,519,0,0
259,505,0,0,0,0,0,0,0,0,0,-1,1483,519,0,0
266,505,0,0,0,0,0,0,0,0,0,-1,1490,519,0,0
273,505,0,0,0,0,0,0,0,0,0,-1,1497,519,0,0
280,505,0,0,0,0,0,0,0,0,0,-1,1504,519,0,0
287,505,4.39478,0.499512,0,0,0,0,0,0,0,-1,1511,519,4.39476,-0.499506
294,505,4.88867,0.0822754,0,0,0,0,0,0,0,-1,1518,519,4.88871,-0.0822748
301,505,4.82153,-0.0704346,0,0,0,0,0,0,0,-1,1525,519,4.82156,0.0704312
308,505,4.67761,-0.29187,0,0,0,0,0,0,0,-1,1532,519,4.67762,0.291845
315,505,8.44055,-6.54352,0,0,0,0,0,0,0,-1,1539,519,8.44059,6.54349
322,505,4.78955,-0.594116,0,0,0,0,0,0,0,-1,1546,519,4.78957,0.594096
329,505,5.16321,0.434631,0,0,0,0,0,0,0,-1,1553,519,5.16316,-0.434614
336,505,4.94495,-0.920471,0,0,0,0,0,0,0,-1,1560,519,4.945,0.920495
343,505,5.01855,-1.4823,0,0,0,0,0,0,0,-1,1567,519,5.01851,1.48227
350,505,5.33154,-1.77838,0,0,0,0,0,0,0,-1,1574,519,5.33152,1.77838
357,505,5.56567,-1.9425,0,0,0,0,0,0,0,-1,1581,519,5.56562,1.94248
364,505,5.85205,-2.6579,0,0,0,0,0,0,0,-1,1588,519,5.85211,2.65788
371,505,5.88477,-7.00922,0,0,0,0,0,0,0,-1,1595,519,5.88473,7.00924
378,505,5.44104,-7.10162,0,0,0,0,0,0,0,-1,1602,519,5.44099,7.10162
385,505,6.64661,-8.65015,0,0,0,0,0,0,0,-1,1609,519,6.64662,8.65014
392,505,6.34558,-8.3429,0,0,0,0,0,0,0,-1,1616,519,6.34554,8.34288
399,505,7.45898,-9.70386,0,0,0,0,0,0,0,-1,1623,519,7.45899,9.70388
406,505,7.08679,-9.4928,0,0,0,0,0,0,0,-1,1630,519,7.08678,9.49278
413,505,8.4032,-14.0308,0,0,0,0,0,0,0,-1,1637,519,8.4032,14.0308
420,505,15.8389,-28.8943,0,0,0,0,0,0,0,-1,1644,519,15.8389,28.8943
427,505,15.8613,-28.1567,0.00075908,-0.000375869,-0.00240142,0.00265917,-0.00227596,-0.669373,0.00285216,0.0318005,1651,519,15.8613,28.1567
434,505,15.8199,-27.3991,0.000856467,-0.00017688,-0.00195045,0.00235751,-0.00167792,-0.655922,0.00234085,0.0132702,1658,519,15.8199,27.3991
441,505,15.8042,-26.6658,0.000999524,-6.70631e-06,-0.0014575,0.0020383,-0.00104549,-0.619207,0.00181092,0.0111461,1665,519,15.8042,26.6658
448,505,15.7773,-26.0055,0.0011741,0.000194253,-0.000925809,0.00173163,-0.00036327,-0.542036,0.00129264,0.0105263,1672,519,15.7773,26.0055
455,505,15.7396,-25.332,0.00131544,0.000575689,-0.000416593,0.00150266,0.000388467,-0.422365,0.000900658,0.010981,1679,519,15.7396,25.332
462,505,15.6962,-24.6422,0.00133857,0.000817446,-2.96686e-05,0.00134026,0.000815762,-0.0566874,0.000779864,0.0115453,1686,519,15.6961,24.6422
469,505,15.686,-23.9497,0.00130761,0.000999952,0.000413633,0.00159509,0.000712471,0.607373,0.000922672,0.0122019,1693,519,15.6861,23.9497
476,505,15.6389,-23.269,0.00125406,0.00098694,0.000761338,0.00189346,0.000347535,0.698568,0.00116389,0.0124646,1700,519,15.6389,23.269
483,505,15.6392,-22.5766,0.000918745,0.00133643,0.000583066,0.00174693,0.000508249,0.957371,0.00103756,0.0123292,1707,519,15.6392,22.5766
490,505,15.6372,-21.8641,-0.000479834,0.000909741,0.000786296,0.00126423,-0.000834327,1.14724,0.00122005,0.0112879,1714,519,15.6372,21.8641
497,505,15.604,-21.162,-0.00189359,0.00065994,0.000587152,0.000788478,-0.00202213,1.35528,0.001674,0.0116901,1721,519,15.604,21.162
504,505,15.538,-20.4283,-0.00394838,0.00013198,0.000204416,0.000142195,-0.0039586,1.52087,0.00268772,0.0129679,1728,519,15.5379,20.4284
511,505,15.4849,-19.6995,-0.00678627,-0.000564598,-0.000311648,-0.000549027,-0.00680184,-1.52087,0.00436308,0.0153423,1735,519,15.4849,19.6995
518,505,15.5553,-18.9758,-0.0105994,-0.00142055,-0.000915917,-0.00133005,-0.0106899,-1.4723,0.00672719,0.0265005,1742,519,15.5553,18.9758
525,505,15.326,-18.1183,-0.0154573,-0.00250902,-0.00147396,-0.00234335,-0.015623,-1.45887,0.00972874,0.0354678,1749,519,15.3261,18.1183
532,505,15.2827,-16.9556,0,0,0,0,0,0,0,-1,1756,519,15.2827,16.9556
539,505,13.9879,-13.9018,0,0,0,0,0,0,0,-1,1763,519,13.988,13.9018
546,505,7.94946,-6.64539,0,0,0,0,0,0,0,-1,1770,519,7.94947,6.64539
553,505,2.82837,0.162659,0,0,0,0,0,0,0,-1,1777,519,2.82841,-0.162672
560,505,3.66223,-0.479797,0,0,0,0,0,0,0,-1,1784,519,3.66219,0.47982
567,505,4.65271,-0.950256,0,0,0,0,0,0,0,-1,1791,519,4.65274,0.95028
574,505,5.54443,-1.19977,0,0,0,0,0,0,0,-1,1798,519,5.54443,1.19974
581,505,0,0,0,0,0,0,0,0,0,-1,1805,519,0,0
588,505,0,0,0,0,0,0,0,0,0,-1,1812,519,0,0
595,505,0,0,0,0,0,0,0,0,0,-1,1819,519,0,0
602,505,0,0,0,0,0,0,0,0,0,-1,1826,519,0,0
609,505,0,0,0,0,0,0,0,0,0,-1,1833,519,0,0
616,505,0,0,0,0,0,0,0,0,0,-1,1840,519,0,0
623,505,0,0,0,0,0,0,0,0,0,-1,1847,519,0,0
630,505,0,0,0,0,0,0,0,0,0,-1,1854,519,0,0
637,505,0,0,0,0,0,0,0,0,0,-1,1861,519,0,0
644,505,0,0,0,0,0,0,0,0,0,-1,1868,519,0,0
651,505,0,0,0,0,0,0,0,0,0,-1,1875,519,0,0
658,505,0,0,0,0,0,0,0,0,0,-1,1882,519,0,0
665,505,0,0,0,0,0,0,0,0,0,-1,1889,519,0,0
672,505,0,0,0,0,0,0,0,0,0,-1,1896,519,0,0
679,505,0,0,0,0,0,0,0,0,0,-1,1903,519,0,0
686,505,0,0,0,0,0,0,0,0,0,-1,1910,519,0,0
693,505,0,0,0,0,0,0,0,0,0,-1,1917,519,0,0
700,505,0,0,0,0,0,0,0,0,0,-1,1924,519,0,0
707,505,0,0,0,0,0,0,0,0,0,-1,1931,519,0,0
714,505,0,0,0,0,0,0,0,0,0,-1,1938,519,0,0
721,505,0,0,0,0,0,0,0,0,0,-1,1945,519,0,0
728,505,0,0,0,0,0,0,0,0,0,-1,1952,519,0,0
735,505,0,0,0,0,0,0,0,0,0,-1,1959,519,0,0
742,505,0,0,0,0,0,0,0,0,0,-1,1966,519,0,0
749,505,0,0,0,0,0,0,0,0,0,-1,1973,519,0,0
756,505,0,0,0,0,0,0,0,0,0,-1,1980,519,0,0
763,505,0,0,0,0,0,0,0,0,0,-1,1987,519,0,0
770,505,0,0,0,0,0,0,0,0,0,-1,1994,519,0,0
777,505,0,0,0,0,0,0,0,0,0,-1,2001,519,0,0
784,505,0,0,0,0,0,0,0,0,0,-1,2008,519,0,0
791,505,0,0,0,0,0,0,0,0,0,-1,2015,519,0,0
798,505,0,0,0,0,0,0,0,0,0,-1,2022,519,0,0
805,505,0,0,0,0,0,0,0,0,0,-1,2029,519,0,0
812,505,0,0,0,0,0,0,0,0,0,-1,2036,519,0,0
-700,498,0,0,0,0,0,0,0,0,0,-1,524,526,0,0
-693,498,0,0,0,0,0,0,0,0,0,-1,531,526,0,0
-686,498,0,0,0,0,0,0,0,0,0,-1,538,526,0,0
-679,498,0,0,0,0,0,0,0,0,0,-1,545,526,0,0
-672,498,0,0,0,0,0,0,0,0,0,-1,552,526,0,0
-665,498,0,0,0,0,0,0,0,0,0,-1,559,526,0,0
-658,498,0,0,0,0,0,0,0,0,0,-1,566,526,0,0
-651,498,0,0,0,0,0,0,0,0,0,-1,573,526,0,0
-644,498,0,0,0,0,0,0,0,0,0,-1,580,526,0,0
-637,498,0,0,0,0,0,0,0,0,0,-1,587,526,0,0
-630,498,0,0,0,0,0,0,0,0,0,-1,594,526,0,0
-623,498,0,0,0,0,0,0,0,0,0,-1,601,526,0,0
-616,498,0,0,0,0,0,0,0,0,0,-1,608,526,0,0
-609,498,0,0,0,0,0,0,0,0,0,-1,615,526,0,0
-602,498,0,0,0,0,0,0,0,0,0,-1,622,526,0,0
-595,498,0,0,0,0,0,0,0,0,0,-1,629,526,0,0
-588,498,0,0,0,0,0,0,0,0,0,-1,636,526,0,0
-581,498,0,0,0,0,0,0,0,0,0,-1,643,526,0,0
-574,498,0,0,0,0,0,0,0,0,0,-1,650,526,0,0
-567,498,0,0,0,0,0,0,0,0,0,-1,657,526,0,0
-560,498,0,0,0,0,0,0,0,0,0,-1,664,526,0,0
-553,498,0,0,0,0,0,0,0,0,0,-1,671,526,0,0
-546,498,0,0,0,0,0,0,0,0,0,-1,678,526,0,0
-539,498,0,0,0,0,0,0,0,0,0,-1,685,526,0,0
-532,498,0,0,0,0,0,0,0,0,0,-1,692,526,0,0
-525,498,0,0,0,0,0,0,0,0,0,-1,699,526,0,0
-518,498,0,0,0,0,0,0,0,0,0,-1,706,526,0,0
-511,498,0,0,0,0,0,0,0,0,0,-1,713,526,0,0
-504,498,0,0,0,0,0,0,0,0,0,-1,720,526,0,0
-497,498,0,0,0,0,0,0,0,0,0,-1,727,526,0,0
-490,498,0,0,0,0,0,0,0,0,0,-1,734,526,0,0
-483,498,0,0,0,0,0,0,0,0,0,-1,741,526,0,0
-476,498,0,0,0,0,0,0,0,0,0,-1,748,526,0,0
-469,498,0,0,0,0,0,0,0,0,0,-1,755,526,0,0
-462,498,6.81024,1.15515,0,0,0,0,0,0,0,-1,762,526,6.81026,-1.15514
-455,498,3.25757,-3.0592,0,0,0,0,0,0,0,-1,769,526,3.25754,3.05921
-448,498,3.05939,-3.74298,0,0,0,0,0,0,0,-1,776,526,3.05939,3.74296
-441,498,2.77191,-6.08209,0,0,0,0,0,0,0,-1,783,526,2.77189,6.08207
-434,498,2.10681,-6.95929,0,0,0,0,0,0,0,-1,790,526,2.10682,6.9593
-427,498,-0.368042,-10.7726,0,0,0,0,0,0,0,-1,797,526,-0.36807,10.7726
-420,498,-1.05035,-10.5142,0,0,0,0,0,0,0,-1,804,526,-1.05034,10.5142
-413,498,-3.41736,-14.6664,0,0,0,0,0,0,0,-1,811,526,-3.41735,14.6664
-406,498,-3.44836,-18.1724,0,0,0,0,0,0,0,-1,818,526,-3.44839,18.1724
-399,498,-3.52069,-19.0978,0.00273603,0.0245256,-0.0128979,0.0305143,-0.00325265,-1.1361,0.0215092,0.0294922,825,526,-3.52068,19.0978
-392,498,-3.6535,-19.978,0.00271493,0.0211101,-0.0114389,0.0265905,-0.0027655,-1.124,0.018717,0.0149671,832,526,-3.65349,19.978
-385,498,-3.70197,-20.7164,0.00266414,0.0176772,-0.00985006,0.022555,-0.00221367,-1.11099,0.0158262,0.0100682,839,526,-3.70194,20.7165
-378,498,-3.72534,-21.4315,0.00254813,0.0144185,-0.00825617,0.0186514,-0.00168482,-1.09704,0.0130322,0.0109584,846,526,-3.72533,21.4315
-371,498,-3.74225,-22.1437,0.00238329,0.0112775,-0.00674526,0.0149097,-0.00124891,-1.07684,0.0103812,0.0164058,853,526,-3.74222,22.1437
-364,498,-3.78156,-22.8815,0.00218424,0.00820015,-0.00518324,0.011185,-0.000800613,-1.04831,0.00773736,0.0164563,860,526,-3.78158,22.8815
-357,498,-3.81323,-23.5652,0.0020536,0.00556978,-0.00374852,0.00795201,-0.000328636,-1.00467,0.00541421,0.0116195,867,526,-3.81326,23.5652
-350,498,-3.84424,-24.2191,0.00200508,0.00320492,-0.00248949,0.00516575,4.42534e-05,-0.903634,0.00342918,0.0118134,874,526,-3.84423,24.2191
-343,498,-3.86176,-24.9438,0.00199424,0.0010536,-0.00137991,0.00298178,6.60664e-05,-0.621155,0.0019662,0.0146128,881,526,-3.86178,24.9438
-336,498,-3.87695,-25.6348,0.0019469,-0.000780772,-0.000378814,0.00199854,-0.000832403,-0.135463,0.00168003,0.0195859,888,526,-3.87693,25.6347
-329,498,-3.90875,-26.199,0.00205356,-0.00205283,0.000348378,0.00208291,-0.00208218,0.0840376,0.00240471,0.0247135,895,526,-3.90876,26.199
-322,498,-3.94348,-26.86,0.00229579,-0.00299955,0.000903534,0.00244571,-0.00314948,0.164432,0.00323889,0.0247916,902,526,-3.94345,26.86
-315,498,-3.99158,-27.5302,0.00257863,-0.00374779,0.00139386,0.00287212,-0.00404128,0.207524,0.00401043,0.0183784,909,526,-3.99156,27.5302
-308,498,-3.99713,-28.1572,0.00301239,-0.00435134,0.00175986,0.00341136,-0.00475031,0.222939,0.00473323,0.020459,916,526,-3.99713,28.1572
-301,498,-3.995,-28.8466,0,0,0,0,0,0,0,-1,923,526,-3.99502,28.8466
-294,498,-3.79565,-29.3294,0,0,0,0,0,0,0,-1,930,526,-3.79563,29.3294
-287,498,-0.91394,-13.4327,0,0,0,0,0,0,0,-1,937,526,-0.913935,13.4327
-280,498,-0.341614,-8.66608,0,0,0,0,0,0,0,-1,944,526,-0.341589,8.66606
-273,498,-0.988892,-8.62921,0,0,0,0,0,0,0,-1,951,526,-0.988906,8.62922
-266,498,0.362488,-6.33545,0,0,0,0,0,0,0,-1,958,526,0.362478,6.33547
-259,498,10.9454,-17.3615,0,0,0,0,0,0,0,-1,965,526,10.9454,17.3614
-252,498,8.56586,-14.6886,0,0,0,0,0,0,0,-1,972,526,8.56584,14.6886
-245,498,5.97382,-11.928,0,0,0,0,0,0,0,-1,979,526,5.97381,11.928
-238,498,2.24841,-13.8145,0,0,0,0,0,0,0,-1,986,526,2.24838,13.8145
-231,498,0.665894,-10.4898,0,0,0,0,0,0,0,-1,993,526,0.665863,10.4898
-224,498,-2.11243,-4.76312,0,0,0,0,0,0,0,-1,1000,526,-2.11245,4.76314
-217,498,-3.82239,-1.42841,0,0,0,0,0,0,0,-1,1007,526,-3.82241,1.42843
-210,498,-1.80591,-0.358215,0,0,0,0,0,0,0,-1,1014,526,-1.8059,0.3582
-203,498,-3.17316,1.06641,0,0,0,0,0,0,0,-1,1021,526,-3.17313,-1.0664
-196,498,-0.103271,5.40527,0,0,0,0,0,0,0,-1,1028,526,-0.103285,-5.40528
-189,498,3.00256,6.47137,0,0,0,0,0,0,0,-1,1035,526,3.00256,-6.47139
-182,498,0,0,0,0,0,0,0,0,0,-1,1042,526,0,0
-175,498,0,0,0,0,0,0,0,0,0,-1,1049,526,0,0
-168,498,0,0,0,0,0,0,0,0,0,-1,1056,526,0,0
-161,498,0,0,0,0,0,0,0,0,0,-1,1063,526,0,0
-154,498,0,0,0,0,0,0,0,0,0,-1,1070,526,0,0
-147,498,0,0,0,0,0,0,0,0,0,-1,1077,526,0,0
-140,498,0,0,0,0,0,0,0,0,0,-1,1084,526,0,0
-133,498,0,0,0,0,0,0,0,0,0,-1,1091,526,0,0
-126,498,0,0,0,0,0,0,0,0,0,-1,1098,526,0,0
-119,498,0,0,0,0,0,0,0,0,0,-1,1105,526,0,0
-112,498,0,0,0,0,0,0,0,0,0,-1,1112,526,0,0
-105,498,0,0,0,0,0,0,0,0,0,-1,1119,526,0,0
-98,498,0,0,0,0,0,0,0,0,0,-1,1126,526,0,0
-91,498,0,0,0,0,0,0,0,0,0,-1,1133,526,0,0
-84,498,0,0,0,0,0,0,0,0,0,-1,1140,526,0,0
-77,498,0,0,0,0,0,0,0,0,0,-1,1147,526,0,0
-70,498,0,0,0,0,0,0,0,0,0,-1,1154,526,0,0
-63,498,0,0,0,0,0,0,0,0,0,-1,1161,526,0,0
-56,498,0,0,0,0,0,0,0,0,0,-1,1168,526,0,0
-49,498,0,0,0,0,0,0,0,0,0,-1,1175,526,0,0
-42,498,0,0,0,0,0,0,0,0,0,-1,1182,526,0,0
-35,498,0,0,0,0,0,0,0,0,0,-1,1189,526,0,0
-28,498,0,0,0,0,0,0,0,0,0,-1,1196,526,0,0
-21,498,0,0,0,0,0,0,0,0,0,-1,1203,526,0,0
-14,498,0,0,0,0,0,0,0,0,0,-1,1210,526,0,0
-7,498,0,0,0,0,0,0,0,0,0,-1,1217,526,0,0
0,498,0,0,0,0,0,0,0,0,0,-1,1224,526,0,0
7,498,0,0,0,0,0,0,0,0,0,-1,1231,526,0,0
14,498,0,0,0,0,0,0,0,0,0,-1,1238,526,0,0
21,498,0,0,0,0,0,0,0,0,0,-1,1245,526,0,0
28,498,0,0,0,0,0,0,0,0,0,-1,1252,526,0,0
35,498,0,0,0,0,0,0,0,0,0,-1,1259,526,0,0
42,498,0,0,0,0,0,0,0,0,0,-1,1266,526,0,0
49,498,0,0,0,0,0,0,0,0,0,-1,1273,526,0,0
56,498,0,0,0,0,0,0,0,0,0,-1,1280,526,0,0
63,498,0,0,0,0,0,0,0,0,0,-1,1287,526,0,0
70,498,0,0,0,0,0,0,0,0,0,-1,1294,526,0,0
77,498,0,0,0,0,0,0,0,0,0,-1,1301,526,0,0
84,498,0,0,0,0,0,0,0,0,0,-1,1308,526,0,0
91,498,0,0,0,0,0,0,0,0,0,-1,1315,526,0,0
98,498,0,0,0,0,0,0,0,0,0,-1,1322,526,0,0
105,498,0,0,0,0,0,0,0,0,0,-1,1329,526,0,0
112,498,0,0,0,0,0,0,0,0,0,-1,1336,526,0,0
119,498,0,0,0,0,0,0,0,0,0,-1,1343,526,0,0
126,498,0,0,0,0,0,0,0,0,0,-1,1350,526,0,0
133,498,0,0,0,0,0,0,0,0,0,-1,1357,526,0,0
140,498,0,0,0,0,0,0,0,0,0,-1,1364,526,0,0
147,498,0,0,0,0,0,0,0,0,0,-1,1371,526,0,0
154,498,0,0,0,0,0,0,0,0,0,-1,1378,526,0,0
161,498,0,0,0,0,0,0,0,0,0,-1,1385,526,0,0
168,498,0,0,0,0,0,0,0,0,0,-1,1392,526,0,0
175,498,0,0,0,0,0,0,0,0,0,-1,1399,526,0,0
182,498,0,0,0,0,0,0,0,0,0,-1,1406,526,0,0
189,498,0,0,0,0,0,0,0,0,0,-1,1413,526,0,0
196,498,0,0,0,0,0,0,0,0,0,-1,1420,526,0,0
203,498,0,0,0,0,0,0,0,0,0,-1,1427,526,0,0
210,498,0,0,0,0,0,0,0,0,0,-1,1434,526,0,0
217,498,0,0,0,0,0,0,0,0,0,-1,1441,526,0,0
224,498,0,0,0,0,0,0,0,0,0,-1,1448,526,0,0
231,498,0,0,0,0,0,0,0,0,0,-1,1455,526,0,0
238,498,0,0,0,0,0,0,0,0,0,-1,1462,526,0,0
245,498,0,0,0,0,0,0,0,0,0,-1,1469,526,0,0
252,498,0,0,0,0,0,0,0,0,0,-1,1476,526,0,0
259,498,0,0,0,0,0,0,0,0,0,-1,1483,526,0,0
266,498,0,0,0,0,0,0,0,0,0,-1,1490,526,0,0
273,498,0,0,0,0,0,0,0,0,0,-1,1497,526,0,0
280,498,0,0,0,0,0,0,0,0,0,-1,1504,526,0,0
287,498,0,0,0,0,0,0,0,0,0,-1,1511,526,0,0
294,498,0,0,0,0,0,0,0,0,0,-1,1518,526,0,0
301,498,0,0,0,0,0,0,0,0,0,-1,1525,526,0,0
308,498,4.77942,-0.293884,0,0,0,0,0,0,0,-1,1532,526,4.77939,0.293899
315,498,4.56091,-0.564148,0,0,0,0,0,0,0,-1,1539,526,4.56097,0.564142
322,498,4.52344,-0.447266,0,0,0,0,0,0,0,-1,1546,526,4.52341,0.447295
329,498,4.63232,-0.156982,0,0,0,0,0,0,0,-1,1553,526,4.63238,0.156991
336,498,5.22644,0.0925903,0,0,0,0,0,0,0,-1,1560,526,5.22648,-0.0926188
343,498,6.22607,-1.67615,0,0,0,0,0,0,0,-1,1567,526,6.22605,1.67617
350,498,6.19373,-1.59906,0,0,0,0,0,0,0,-1,1574,526,6.19367,1.59906
357,498,6.21472,-1.58929,0,0,0,0,0,0,0,-1,1581,526,6.21476,1.58927
364,498,5.73547,-1.2019,0,0,0,0,0,0,0,-1,1588,526,5.73547,1.20192
371,498,3.27087,-4.55334,0,0,0,0,0,0,0,-1,1595,526,3.27089,4.55332
378,498,8.42944,-4.70624,0,0,0,0,0,0,0,-1,1602,526,8.42942,4.70624
385,498,4.7793,-5.15314,0,0,0,0,0,0,0,-1,1609,526,4.77935,5.15311
392,498,9.12439,-8.57953,0,0,0,0,0,0,0,-1,1616,526,9.12443,8.57955
399,498,7.98938,-9.46021,0,0,0,0,0,0,0,-1,1623,526,7.98936,9.4602
406,498,7.58081,-9.26819,0,0,0,0,0,0,0,-1,1630,526,7.58085,9.26817
413,498,7.17236,-9.07611,0,0,0,0,0,0,0,-1,1637,526,7.17234,9.07614
420,498,11.4314,-16.1147,0,0,0,0,0,0,0,-1,1644,526,11.4313,16.1147
427,498,16.276,-28.0621,0,0,0,0,0,0,0,-1,1651,526,16.276,28.0621
434,498,16.401,-27.3632,0.000835083,-0.000607545,-0.00264902,0.00285924,-0.0026317,-0.652473,0.0031711,0.0371082,1658,526,16.401,27.3632
441,498,16.4844,-26.6439,0.000972894,-0.000527546,-0.00217374,0.00252224,-0.00207689,-0.619234,0.00265945,0.012629,1665,526,16.4844,26.6439
448,498,16.4755,-25.952,0.00119868,-0.000273919,-0.00163017,0.00225112,-0.00132636,-0.573278,0.00208834,0.0104791,1672,526,16.4754,25.952
455,498,16.4282,-25.2798,0.00139298,0.000164011,-0.00113474,0.00206893,-0.000511944,-0.537244,0.00157787,0.0149579,1679,526,16.4282,25.2799
462,498,16.3921,-24.6082,0.00142159,0.000433221,-0.000770037,0.00184238,1.24323e-05,-0.500116,0.00122413,0.0179114,1686,526,16.3921,24.6081
469,498,16.3682,-23.9341,0.00144098,0.00075372,-0.00028007,0.00154066,0.000654044,-0.34192,0.000892871,0.014938,1693,526,16.3681,23.9341
476,498,16.3568,-23.2602,0.00138488,0.000929355,0.000205159,0.00146365,0.000850579,0.366618,0.000848742,0.0108615,1700,526,16.3568,23.2602
483,498,16.3258,-22.5792,0.00121608,0.00110074,0.000386458,0.00154915,0.000767673,0.711327,0.000894414,0.00898542,1707,526,16.3258,22.5793
490,498,16.2971,-21.8776,0.000322648,0.00101128,0.000606319,0.00136423,-3.03001e-05,1.04363,0.000919751,0.0108873,1714,526,16.2971,21.8775
497,498,16.2849,-21.1347,-0.000746553,0.000965095,0.000643617,0.0011801,-0.000961559,1.24839,0.00123863,0.0126586,1721,526,16.2849,21.1347
504,498,16.2587,-20.4132,-0.00232015,0.000610242,0.000528074,0.0007025,-0.0024124,1.39784,0.00188655,0.0152848,1728,526,16.2587,20.4132
511,498,16.2123,-19.6924,-0.00452547,0.000135683,0.00030686,0.000155798,-0.00454559,1.50534,0.00308364,0.0162079,1735,526,16.2123,19.6924
518,498,16.2516,-18.9405,-0.0074917,-0.000440001,1.01026e-05,-0.000439986,-0.00749171,1.56936,0.00485446,0.0184007,1742,526,16.2516,18.9405
525,498,16.1028,-18.2123,-0.0111981,-0.00118546,-0.000257365,-0.00117884,-0.0112047,-1.54511,0.0071095,0.0291484,1749,526,16.1028,18.2123
532,498,15.873,-17.4636,0,0,0,0,0,0,0,-1,1756,526,15.8731,17.4636
539,498,15.8801,-16.7311,0,0,0,0,0,0,0,-1,1763,526,15.8801,16.7311
546,498,10.2014,-8.47589,0,0,0,0,0,0,0,-1,1770,526,10.2014,8.47589
553,498,5.93958,-1.71448,0,0,0,0,0,0,0,-1,1777,526,5.93956,1.71447
560,498,3.69385,-0.615112,0,0,0,0,0,0,0,-1,1784,526,3.69381,0.615118
567,498,5.12695,-0.581604,0,0,0,0,0,0,0,-1,1791,526,5.12699,0.58159
574,498,3.88,0.0286255,0,0,0,0,0,0,0,-1,1798,526,3.87999,-0.0286535
581,498,10.8722,2.58551,0,0,0,0,0,0,0,-1,1805,526,10.8723,-2.58551
588,498,0,0,0,0,0,0,0,0,0,-1,1812,526,0,0
595,498,0,0,0,0,0,0,0,0,0,-1,1819,526,0,0
602,498,0,0,0,0,0,0,0,0,0,-1,1826,526,0,0
609,498,0,0,0,0,0,0,0,0,0,-1,1833,526,0,0
616,498,0,0,0,0,0,0,0,0,0,-1,1840,526,0,0
623,498,0,0,0,0,0,0,0,0,0,-1,1847,526,0,0
630,498,0,0,0,0,0,0,0,0,0,-1,1854,526,0,0
637,498,0,0,0,0,0,0,0,0,0,-1,1861,526,0,0
644,498,0,0,0,0,0,0,0,0,0,-1,1868,526,0,0
651,498,0,0,0,0,0,0,0,0,0,-1,1875,526,0,0
658,498,0,0,0,0,0,0,0,0,0,-1,1882,526,0,0
665,498,0,0,0,0,0,0,0,0,0,-1,1889,526,0,0
672,498,0,0,0,0,0,0,0,0,0,-1,1896,526,0,0
679,498,0,0,0,0,0,0,0,0,0,-1,1903,526,0,0
686,498,0,0,0,0,0,0,0,0,0,-1,1910,526,0,0
693,498,0,0,0,0,0,0,0,0,0,-1,1917,526,0,0
700,498,0,0,0,0,0,0,0,0,0,-1,1924,526,0,0
707,498,0,0,0,0,0,0,0,0,0,-1,1931,526,0,0
714,498,0,0,0,0,0,0,0,0,0,-1,1938,526,0,0
721,498,0,0,0,0,0,0,0,0,0,-1,1945,526,0,0
728,498,0,0,0,0,0,0,0,0,0,-1,1952,526,0,0
735,498,0,0,0,0,0,0,0,0,0,-1,1959,526,0,0
742,498,0,0,0,0,0,0,0,0,0,-1,1966,526,0,0
749,498,0,0,0,0,0,0,0,0,0,-1,1973,526,0,0
756,498,0,0,0,0,0,0,0,0,0,-1,1980,526,0,0
763,498,0,0,0,0,0,0,0,0,0,-1,1987,526,0,0
770,498,0,0,0,0,0,0,0,0,0,-1,1994,526,0,0
777,498,0,0,0,0,0,0,0,0,0,-1,2001,526,0,0
784,498,0,0,0,0,0,0,0,0,0,-1,2008,526,0,0
791,498,0,0,0,0,0,0,0,0,0,-1,2015,526,0,0
798,498,0,0,0,0,0,0,0,0,0,-1,2022,526,0,0
805,498,0,0,0,0,0,0,0,0,0,-1,2029,526,0,0
812,498,0,0,0,0,0,0,0,0,0,-1,2036,526,0,0
-700,491,0,0,0,0,0,0,0,0,0,-1,524,533,0,0
-693,491,0,0,0,0,0,0,0,0,0,-1,531,533,0,0
-686,491,0,0,0,0,0,0,0,0,0,-1,538,533,0,0
-679,491,0,0,0,0,0,0,0,0,0,-1,545,533,0,0
-672,491,0,0,0,0,0,0,0,0,0,-1,552,533,0,0
-665,491,0,0,0,0,0,0,0,0,0,-1,559,533,0,0
-658,491,0,0,0,0,0,0,0,0,0,-1,566,533,0,0
-651,491,0,0,0,0,0,0,0,0,0,-1,573,533,0,0
-644,491,0,0,0,0,0,0,0,0,0,-1,580,533,0,0
-637,491,0,0,0,0,0,0,0,0,0,-1,587,533,0,0
-630,491,0,0,0,0,0,0,0,0,0,-1,594,533,0,0
-623,491,0,0,0,0,0,0,0,0,0,-1,601,533,0,0
-616,491,0,0,0,0,0,0,0,0,0,-1,608,533,0,0
-609,491,0,0,0,0,0,0,0,0,0,-1,615,533,0,0
-602,491,0,0,0,0,0,0,0,0,0,-1,622,533,0,0
-595,491,0,0,0,0,0,0,0,0,0,-1,629,533,0,0
-588,491,0,0,0,0,0,0,0,0,0,-1,636,533,0,0
-581,491,0,0,0,0,0,0,0,0,0,-1,643,533,0,0
-574,491,0,0,0,0,0,0,0,0,0,-1,650,533,0,0
-567,491,0,0,0,0,0,0,0,0,0,-1,657,533,0,0
-560,491,0,0,0,0,0,0,0,0,0,-1,664,533,0,0
-553,491,0,0,0,0,0,0,0,0,0,-1,671,533,0,0
-546,491,0,0,0,0,0,0,0,0,0,-1,678,533,0,0
-539,491,0,0,0,0,0,0,0,0,0,-1,685,533,0,0
-532,491,0,0,0,0,0,0,0,0,0,-1,692,533,0,0
-525,491,0,0,0,0,0,0,0,0,0,-1,699,533,0,0
-518,491,0,0,0,0,0,0,0,0,0,-1,706,533,0,0
-511,491,0,0,0,0,0,0,0,0,0,-1,713,533,0,0
-504,491,0,0,0,0,0,0,0,0,0,-1,720,533,0,0
-497,491,0,0,0,0,0,0,0,0,0,-1,727,533,0,0
-490,491,0,0,0,0,0,0,0,0,0,-1,734,533,0,0
-483,491,0,0,0,0,0,0,0,0,0,-1,741,533,0,0
-476,491,0,0,0,0,0,0,0,0,0,-1,748,533,0,0
-469,491,-5.85913,4.55011,0,0,0,0,0,0,0,-1,755,533,-5.8591,-4.55009
-462,491,-9.93713,4.90381,0,0,0,0,0,0,0,-1,762,533,-9.93716,-4.9038
-455,491,1.9494,-0.27887,0,0,0,0,0,0,0,-1,769,533,1.94941,0.27885
-448,491,2.68909,-1.8999,0,0,0,0,0,0,0,-1,776,533,2.6891,1.89988
-441,491,3.46069,-3.51855,0,0,0,0,0,0,0,-1,783,533,3.46071,3.51854
-434,491,2.67145,-7.44061,0,0,0,0,0,0,0,-1,790,533,2.67146,7.44061
-427,491,2.27136,-8.34546,0,0,0,0,0,0,0,-1,797,533,2.27136,8.34546
-420,491,-4.51215,-16.0858,0,0,0,0,0,0,0,-1,804,533,-4.51213,16.0858
-413,491,-4.19598,-17.6458,0,0,0,0,0,0,0,-1,811,533,-4.19599,17.6457
-406,491,-4.21228,-18.5456,0.00147318,0.0207653,-0.0102908,0.0252241,-0.0029856,-1.16193,0.0178945,0.0256014,818,533,-4.21228,18.5456
-399,491,-4.27289,-19.3528,0.00161207,0.0179581,-0.00926649,0.0221409,-0.00257073,-1.14679,0.0156879,0.0131659,825,533,-4.27291,19.3528
-392,491,-4.35388,-20.0657,0.00174068,0.0152225,-0.00817154,0.0190747,-0.00211152,-1.13028,0.0134756,0.0112561,832,533,-4.35386,20.0657
-385,491,-4.38702,-20.7236,0.00187829,0.0124859,-0.00699019,0.0159567,-0.00159248,-1.10994,0.0112064,0.00999882,839,533,-4.38703,20.7235
-378,491,-4.3974,-21.4031,0.00196322,0.00986266,-0.00575901,0.0128962,-0.00107036,-1.08598,0.00897558,0.0139196,846,533,-4.39739,21.4031
-371,491,-4.42352,-22.0908,0.00200852,0.00730783,-0.00461302,0.009978,-0.000661656,-1.04608,0.00688316,0.0152348,853,533,-4.42352,22.0908
-364,491,-4.4718,-22.8166,0.00199811,0.00474698,-0.00337459,0.0070163,-0.000271206,-0.978785,0.00477051,0.0137923,860,533,-4.47177,22.8166
-357,491,-4.49438,-23.5011,0.00205358,0.00256544,-0.00223289,0.00455702,6.2003e-05,-0.842458,0.00301755,0.0116635,867,533,-4.4944,23.5011
-350,491,-4.52441,-24.1547,0.00218276,0.000585238,-0.00123291,0.00285305,-8.50447e-05,-0.497961,0.001931,0.0153816,874,533,-4.52443,24.1547
-343,491,-4.5199,-24.8663,0.0023208,-0.00119854,-0.000351018,0.00235547,-0.00123321,-0.0984476,0.00210542,0.025866,881,533,-4.5199,24.8663
-336,491,-4.56024,-25.5651,0.00242042,-0.00280693,0.000447423,0.00245844,-0.00284495,0.0847709,0.00306462,0.0277808,888,533,-4.56026,25.5651
-329,491,-4.5957,-26.1696,0.00272597,-0.00350765,0.000878043,0.00284728,-0.00362896,0.137298,0.00374813,0.0275051,895,533,-4.59569,26.1696
-322,491,-4.62592,-26.7975,0.00314388,-0.00419549,0.00123714,0.00334681,-0.00439841,0.162579,0.00448542,0.0220207,902,533,-4.62589,26.7975
-315,491,-4.66278,-27.4147,0.00357165,-0.00475796,0.00156131,0.00385469,-0.00504099,0.179333,0.00515112,0.0204368,909,533,-4.66281,27.4147
-308,491,-4.64795,-28.1317,0,0,0,0,0,0,0,-1,916,533,-4.64793,28.1317
-301,491,-4.5282,-28.9982,0,0,0,0,0,0,0,-1,923,533,-4.52822,28.9982
-294,491,-0.777283,-8.60913,0,0,0,0,0,0,0,-1,930,533,-0.777288,8.6091
-287,491,-0.26123,-8.69055,0,0,0,0,0,0,0,-1,937,533,-0.261204,8.69053
-280,491,0.2948,-5.99219,0,0,0,0,0,0,0,-1,944,533,0.294811,5.99221
-273,491,0.369995,-5.33691,0,0,0,0,0,0,0,-1,951,533,0.369985,5.33693
-266,491,1.1167,-5.0321,0,0,0,0,0,0,0,-1,958,533,1.11668,5.0321
-259,491,12.0862,-16.9615,0,0,0,0,0,0,0,-1,965,533,12.0862,16.9615
-252,491,9.72443,-13.8417,0,0,0,0,0,0,0,-1,972,533,9.72444,13.8418
-245,491,5.27258,-14.3619,0,0,0,0,0,0,0,-1,979,533,5.27255,14.3619
-238,491,3.65381,-11.1472,0,0,0,0,0,0,0,-1,986,533,3.6538,11.1472
-231,491,2.17719,-7.86835,0,0,0,0,0,0,0,-1,993,533,2.17719,7.86832
-224,491,0.554626,-4.61725,0,0,0,0,0,0,0,-1,1000,533,0.554608,4.61727
-217,491,-2.92743,-1.0766,0,0,0,0,0,0,0,-1,1007,533,-2.92743,1.07659
-210,491,-0.92395,0.374512,0,0,0,0,0,0,0,-1,1014,533,-0.923959,-0.374531
-203,491,0.417419,4.77161,0,0,0,0,0,0,0,-1,1021,533,0.417446,-4.77162
-196,491,0,0,0,0,0,0,0,0,0,-1,1028,533,0,0
-189,491,0,0,0,0,0,0,0,0,0,-1,1035,533,0,0
-182,491,0,0,0,0,0,0,0,0,0,-1,1042,533,0,0
-175,491,0,0,0,0,0,0,0,0,0,-1,1049,533,0,0
-168,491,0,0,0,0,0,0,0,0,0,-1,1056,533,0,0
-161,491,0,0,0,0,0,0,0,0,0,-1,1063,533,0,0
-154,491,0,0,0,0,0,0,0,0,0,-1,1070,533,0,0
-147,491,0,0,0,0,0,0,0,0,0,-1,1077,533,0,0
-140,491,0,0,0,0,0,0,0,0,0,-1,1084,533,0,0
-133,491,0,0,0,0,0,0,0,0,0,-1,1091,533,0,0
-126,491,0,0,0,0,0,0,0,0,0,-1,1098,533,0,0
-119,491,0,0,0,0,0,0,0,0,0,-1,1105,533,0,0
-112,491,0,0,0,0,0,0,0,0,0,-1,1112,533,0,0
-105,491,0,0,0,0,0,0,0,0,0,-1,1119,533,0,0
-98,491,0,0,0,0,0,0,0,0,0,-1,1126,533,0,0
-91,491,0,0,0,0,0,0,0,0,0,-1,1133,533,0,0
-84,491,0,0,0,0,0,0,0,0,0,-1,1140,533,0,0
-77,491,0,0,0,0,0,0,0,0,0,-1,1147,533,0,0
-70,491,0,0,0,0,0,0,0,0,0,-1,1154,533,0,0
-63,491,0,0,0,0,0,0,0,0,0,-1,1161,533,0,0
-56,491,0,0,0,0,0,0,0,0,0,-1,1168,533,0,0
-49,491,0,0,0,0,0,0,0,0,0,-1,1175,533,0,0
-42,491,0,0,0,0,0,0,0,0,0,-1,1182,533,0,0
-35,491,0,0,0,0,0,0,0,0,0,-1,1189,533,0,0
-28,491,0,0,0,0,0,0,0,0,0,-1,1196,533,0,0
-21,491,0,0,0,0,0,0,0,0,0,-1,1203,533,0,0
-14,491,0,0,0,0,0,0,0,0,0,-1,1210,533,0,0
-7,491,0,0,0,0,0,0,0,0,0,-1,1217,533,0,0
0,491,0,0,0,0,0,0,0,0,0,-1,1224,533,0,0
7,491,0,0,0,0,0,0,0,0,0,-1,1231,533,0,0
14,491,0,0,0,0,0,0,0,0,0,-1,1238,533,0,0
21,491,0,0,0,0,0,0,0,0,0,-1,1245,533,0,0
28,491,0,0,0,0,0,0,0,0,0,-1,1252,533,0,0
35,491,0,0,0,0,0,0,0,0,0,-1,1259,533,0,0
42,491,0,0,0,0,0,0,0,0,0,-1,1266,533,0,0
49,491,0,0,0,0,0,0,0,0,0,-1,1273,533,0,0
56,491,0,0,0,0,0,0,0,0,0,-1,1280,533,0,0
63,491,0,0,0,0,0,0,0,0,0,-1,1287,533,0,0
70,491,0,0,0,0,0,0,0,0,0,-1,1294,533,0,0
77,491,0,0,0,0,0,0,0,0,0,-1,1301,533,0,0
84,491,0,0,0,0,0,0,0,0,0,-1,1308,533,0,0
91,491,0,0,0,0,0,0,0,0,0,-1,1315,533,0,0
98,491,0,0,0,0,0,0,0,0,0,-1,1322,533,0,0
105,491,0,0,0,0,0,0,0,0,0,-1,1329,533,0,0
112,491,0,0,0,0,0,0,0,0,0,-1,1336,533,0,0
119,491,0,0,0,0,0,0,0,0,0,-1,1343,533,0,0
126,491,0,0,0,0,0,0,0,0,0,-1,1350,533,0,0
133,491,0,0,0,0,0,0,0,0,0,-1,1357,533,0,0
140,491,0,0,0,0,0,0,0,0,0,-1,1364,533,0,0
147,491,0,0,0,0,0,0,0,0,0,-1,1371,533,0,0
154,491,0,0,0,0,0,0,0,0,0,-1,1378,533,0,0
161,491,0,0,0,0,0,0,0,0,0,-1,1385,533,0,0
168,491,0,0,0,0,0,0,0,0,0,-1,1392,533,0,0
175,491,0,0,0,0,0,0,0,0,0,-1,1399,533,0,0
182,491,0,0,0,0,0,0,0,0,0,-1,1406,533,0,0
189,491,0,0,0,0,0,0,0,0,0,-1,1413,533,0,0
196,491,0,0,0,0,0,0,0,0,0,-1,1420,533,0,0
203,491,0,0,0,0,0,0,0,0,0,-1,1427,533,0,0
210,491,0,0,0,0,0,0,0,0,0,-1,1434,533,0,0
217,491,0,0,0,0,0,0,0,0,0,-1,1441,533,0,0
224,491,0,0,0,0,0,0,0,0,0,-1,1448,533,0,0
231,491,0,0,0,0,0,0,0,0,0,-1,1455,533,0,0
238,491,0,0,0,0,0,0,0,0,0,-1,1462,533,0,0
245,491,0,0,0,0,0,0,0,0,0,-1,1469,533,0,0
252,491,0,0,0,0,0,0,0,0,0,-1,1476,533,0,0
259,491,0,0,0,0,0,0,0,0,0,-1,1483,533,0,0
266,491,0,0,0,0,0,0,0,0,0,-1,1490,533,0,0
273,491,0,0,0,0,0,0,0,0,0,-1,1497,533,0,0
280,491,0,0,0,0,0,0,0,0,0,-1,1504,533,0,0
287,491,0,0,0,0,0,0,0,0,0,-1,1511,533,0,0
294,491,0,0,0,0,0,0,0,0,0,-1,1518,533,0,0
301,491,0,0,0,0,0,0,0,0,0,-1,1525,533,0,0
308,491,0,0,0,0,0,0,0,0,0,-1,1532,533,0,0
315,491,0,0,0,0,0,0,0,0,0,-1,1539,533,0,0
322,491,4.26331,-0.734314,0,0,0,0,0,0,0,-1,1546,533,4.26326,0.734324
329,491,4.25354,-0.783752,0,0,0,0,0,0,0,-1,1553,533,4.25359,0.783734
336,491,4.81604,-0.722107,0,0,0,0,0,0,0,-1,1560,533,4.81605,0.722115
343,491,6.14478,-1.44281,0,0,0,0,0,0,0,-1,1567,533,6.14474,1.44281
350,491,6.36353,-1.30792,0,0,0,0,0,0,0,-1,1574,533,6.36352,1.3079
357,491,6.69482,-1.06018,0,0,0,0,0,0,0,-1,1581,533,6.69489,1.06018
364,491,8.01086,-1.69604,0,0,0,0,0,0,0,-1,1588,533,8.01087,1.69607
371,491,8.2135,-0.539307,0,0,0,0,0,0,0,-1,1595,533,8.21348,0.53929
378,491,13.3589,2.17267,0,0,0,0,0,0,0,-1,1602,533,13.3589,-2.17264
385,491,8.08228,-4.95471,0,0,0,0,0,0,0,-1,1609,533,8.08227,4.95474
392,491,2.88721,-4.30988,0,0,0,0,0,0,0,-1,1616,533,2.88716,4.30986
399,491,8.95862,-8.55518,0,0,0,0,0,0,0,-1,1623,533,8.95864,8.55516
406,491,8.16541,-9.00806,0,0,0,0,0,0,0,-1,1630,533,8.16535,9.00807
413,491,5.31848,-3.7124,0,0,0,0,0,0,0,-1,1637,533,5.31849,3.7124
420,491,4.86389,-3.95892,0,0,0,0,0,0,0,-1,1644,533,4.86387,3.95893
427,491,11.5096,-15.2742,0,0,0,0,0,0,0,-1,1651,533,11.5096,15.2742
434,491,17.05,-27.3054,0,0,0,0,0,0,0,-1,1658,533,17.0501,27.3054
441,491,17.1929,-26.3926,0.0008698,-0.00101996,-0.00284603,0.0029237,-0.00307387,-0.625123,0.00346306,0.0399344,1665,533,17.1929,26.3926
448,491,17.1548,-25.9672,0.00114488,-0.000648873,-0.00227902,0.00269715,-0.00220115,-0.597938,0.00283286,0.0288138,1672,533,17.1547,25.9672
455,491,17.11,-25.2446,0.00140077,-0.000141882,-0.00179194,0.00258034,-0.00132145,-0.582163,0.00229145,0.0186211,1679,533,17.11,25.2446
462,491,17.1067,-24.5692,0.00143376,0.000128367,-0.00144477,0.00236642,-0.000804295,-0.573238,0.00190323,0.0169338,1686,533,17.1067,24.5692
469,491,17.0609,-23.9131,0.00149695,0.000544531,-0.000908054,0.00204609,-4.60679e-06,-0.543898,0.0013656,0.0152338,1693,533,17.0609,23.9131
476,491,17.0667,-23.2344,0.00144812,0.000854065,-0.000305814,0.00157741,0.000724775,-0.399985,0.000911717,0.0108513,1700,533,17.0666,23.2344
483,491,17.0326,-22.5284,0.00143962,0.000821126,0.00018355,0.00148999,0.000770755,0.267828,0.000860417,0.012653,1707,533,17.0325,22.5284
490,491,16.9952,-21.8435,0.00101208,0.000995562,0.000388016,0.00139193,0.000615719,0.774755,0.000805407,0.0112841,1714,533,16.9952,21.8435
497,491,16.976,-21.0998,0.00024127,0.00110013,0.000605985,0.00141342,-7.20154e-05,1.09365,0.000967179,0.0120728,1721,533,16.976,21.0998
504,491,16.9692,-20.3726,-0.000919735,0.000872109,0.00068981,0.0011069,-0.00115453,1.24272,0.00130573,0.013596,1728,533,16.9692,20.3726
511,491,16.9301,-19.6696,-0.00258569,0.000581228,0.000686736,0.000723732,-0.00272819,1.36619,0.00210199,0.0126302,1735,533,16.93,19.6696
518,491,16.8959,-18.9509,-0.00483936,0.000241893,0.000616225,0.000315557,-0.00491303,1.45182,0.00338544,0.0103881,1742,533,16.8959,18.9509
525,491,16.8696,-18.218,-0.00759297,-0.000208824,0.0005674,-0.000165479,-0.00763632,1.49455,0.00503663,0.0103838,1749,533,16.8696,18.218
532,491,16.817,-17.464,0,0,0,0,0,0,0,-1,1756,533,16.817,17.464
539,491,16.8134,-16.6709,0,0,0,0,0,0,0,-1,1763,533,16.8134,16.6709
546,491,16.02,-15.575,0,0,0,0,0,0,0,-1,1770,533,16.02,15.575
553,491,10.5021,-7.77869,0,0,0,0,0,0,0,-1,1777,533,10.502,7.77871
560,491,6.28455,-1.43585,0,0,0,0,0,0,0,-1,1784,533,6.28458,1.43586
567,491,5.67651,-1.3562,0,0,0,0,0,0,0,-1,1791,533,5.67649,1.3562
574,491,8.0719,1.58325,0,0,0,0,0,0,0,-1,1798,533,8.07195,-1.58326
581,491,9.44812,1.60931,0,0,0,0,0,0,0,-1,1805,533,9.44808,-1.60933
588,491,11.0497,1.54962,0,0,0,0,0,0,0,-1,1812,533,11.0496,-1.54963
595,491,0,0,0,0,0,0,0,0,0,-1,1819,533,0,0
602,491,0,0,0,0,0,0,0,0,0,-1,1826,533,0,0
609,491,0,0,0,0,0,0,0,0,0,-1,1833,533,0,0
616,491,0,0,0,0,0,0,0,0,0,-1,1840,533,0,0
623,491,0,0,0,0,0,0,0,0,0,-1,1847,533,0,0
630,491,0,0,0,0,0,0,0,0,0,-1,1854,533,0,0
637,491,0,0,0,0,0,0,0,0,0,-1,1861,533,0,0
644,491,0,0,0,0,0,0,0,0,0,-1,1868,533,0,0
651,491,0,0,0,0,0,0,0,0,0,-1,1875,533,0,0
658,491,0,0,0,0,0,0,0,0,0,-1,1882,533,0,0
665,491,0,0,0,0,0,0,0,0,0,-1,1889,533,0,0
672,491,0,0,0,0,0,0,0,0,0,-1,1896,533,0,0
679,491,0,0,0,0,0,0,0,0,0,-1,1903,533,0,0
686,491,0,0,0,0,0,0,0,0,0,-1,1910,533,0,0
693,491,0,0,0,0,0,0,0,0,0,-1,1917,533,0,0
700,491,0,0,0,0,0,0,0,0,0,-1,1924,533,0,0
707,491,0,0,0,0,0,0,0,0,0,-1,1931,533,0,0
714,491,0,0,0,0,0,0,0,0,0,-1,1938,533,0,0
721,491,0,0,0,0,0,0,0,0,0,-1,1945,533,0,0
728,491,0,0,0,0,0,0,0,0,0,-1,1952,533,0,0
735,491,0,0,0,0,0,0,0,0,0,-1,1959,533,0,0
742,491,0,0,0,0,0,0,0,0,0,-1,1966,533,0,0
749,491,0,0,0,0,0,0,0,0,0,-1,1973,533,0,0
756,491,0,0,0,0,0,0,0,0,0,-1,1980,533,0,0
763,491,0,0,0,0,0,0,0,0,0,-1,1987,533,0,0
770,491,0,0,0,0,0,0,0,0,0,-1,1994,533,0,0
777,491,0,0,0,0,0,0,0,0,0,-1,2001,533,0,0
784,491,0,0,0,0,0,0,0,0,0,-1,2008,533,0,0
791,491,0,0,0,0,0,0,0,0,0,-1,2015,533,0,0
798,491,0,0,0,0,0,0,0,0,0,-1,2022,533,0,0
805,491,0,0,0,0,0,0,0,0,0,-1,2029,533,0,0
812,491,0,0,0,0,0,0,0,0,0,-1,2036,533,0,0
-700,484,0,0,0,0,0,0,0,0,0,-1,524,540,0,0
-693,484,0,0,0,0,0,0,0,0,0,-1,531,540,0,0
-686,484,0,0,0,0,0,0,0,0,0,-1,538,540,0,0
-679,484,0,0,0,0,0,0,0,0,0,-1,545,540,0,0
-672,484,0,0,0,0,0,0,0,0,0,-1,552,540,0,0
-665,484,0,0,0,0,0,0,0,0,0,-1,559,540,0,0
-658,484,0,0,0,0,0,0,0,0,0,-1,566,540,0,0
-651,484,0,0,0,0,0,0,0,0,0,-1,573,540,0,0
-644,484,0,0,0,0,0,0,0,0,0,-1,580,540,0,0
-637,484,0,0,0,0,0,0,0,0,0,-1,587,540,0,0
-630,484,0,0,0,0,0,0,0,0,0,-1,594,540,0,0
-623,484,0,0,0,0,0,0,0,0,0,-1,601,540,0,0
-616,484,0,0,0,0,0,0,0,0,0,-1,608,540,0,0
-609,484,0,0,0,0,0,0,0,0,0,-1,615,540,0,0
-602,484,0,0,0,0,0,0,0,0,0,-1,622,540,0,0
-595,484,0,0,0,0,0,0,0,0,0,-1,629,540,0,0
-588,484,0,0,0,0,0,0,0,0,0,-1,636,540,0,0
-581,484,0,0,0,0,0,0,0,0,0,-1,643,540,0,0
-574,484,0,0,0,0,0,0,0,0,0,-1,650,540,0,0
-567,484,0,0,0,0,0,0,0,0,0,-1,657,540,0,0
-560,484,0,0,0,0,0,0,0,0,0,-1,664,540,0,0
-553,484,0,0,0,0,0,0,0,0,0,-1,671,540,0,0
-546,484,0,0,0,0,0,0,0,0,0,-1,678,540,0,0
-539,484,0,0,0,0,0,0,0,0,0,-1,685,540,0,0
-532,484,0,0,0,0,0,0,0,0,0,-1,692,540,0,0
-525,484,0,0,0,0,0,0,0,0,0,-1,699,540,0,0
-518,484,0,0,0,0,0,0,0,0,0,-1,706,540,0,0
-511,484,0,0,0,0,0,0,0,0,0,-1,713,540,0,0
-504,484,0,0,0,0,0,0,0,0,0,-1,720,540,0,0
-497,484,0,0,0,0,0,0,0,0,0,-1,727,540,0,0
-490,484,0,0,0,0,0,0,0,0,0,-1,734,540,0,0
-483,484,0,0,0,0,0,0,0,0,0,-1,741,540,0,0
-476,484,-8.46552,1.44702,0,0,0,0,0,0,0,-1,748,540,-8.46554,-1.44702
-469,484,-7.82343,1.70355,0,0,0,0,0,0,0,-1,755,540,-7.82345,-1.70355
-462,484,-8.36987,3.08612,0,0,0,0,0,0,0,-1,762,540,-8.36988,-3.0861
-455,484,-6.77197,2.07092,0,0,0,0,0,0,0,-1,769,540,-6.77197,-2.07094
-448,484,3.54895,-1.40106,0,0,0,0,0,0,0,-1,776,540,3.54897,1.40106
-441,484,4.28906,-3.05884,0,0,0,0,0,0,0,-1,783,540,4.28905,3.05883
-434,484,-2.17548,-5.07245,0,0,0,0,0,0,0,-1,790,540,-2.17546,5.07243
-427,484,-4.80151,-15.8729,0,0,0,0,0,0,0,-1,797,540,-4.80151,15.8729
-420,484,-4.75708,-16.8537,0,0,0,0,0,0,0,-1,804,540,-4.75706,16.8537
-413,484,-4.82654,-17.7424,0.000463075,0.0172387,-0.00790068,0.0203737,-0.00267197,-1.19305,0.0145551,0.0302617,811,540,-4.82657,17.7424
-406,484,-4.92535,-18.5701,0.000782544,0.0149986,-0.00730628,0.018084,-0.00230285,-1.17122,0.0128923,0.0162473,818,540,-4.92533,18.5701
-399,484,-5.01129,-19.3299,0.000972885,0.0127013,-0.00649383,0.0155869,-0.00191269,-1.15265,0.011084,0.0158252,825,540,-5.01127,19.3299
-392,484,-5.04602,-20.0168,0.00117753,0.0104501,-0.00562048,0.0130997,-0.00147213,-1.13026,0.00926293,0.01831,832,540,-5.046,20.0168
-385,484,-5.07623,-20.6999,0.00142991,0.00821512,-0.00470616,0.010624,-0.00097901,-1.0977,0.00743056,0.0137291,839,540,-5.07624,20.6999
-378,484,-5.09534,-21.3867,0.0016466,0.00606221,-0.00372322,0.00818301,-0.000474198,-1.05302,0.00562008,0.0147209,846,540,-5.09535,21.3867
-371,484,-5.13306,-22.0613,0.00184358,0.00395994,-0.00283345,0.00592636,-0.000122833,-0.964109,0.00399248,0.0170987,853,540,-5.13308,22.0613
-364,484,-5.15997,-22.7555,0.00197706,0.00184415,-0.00184764,0.00375944,6.17742e-05,-0.767422,0.00248596,0.0125155,860,540,-5.15999,22.7555
-357,484,-5.1806,-23.4463,0.00218175,5.94809e-05,-0.000956309,0.00254908,-0.000307858,-0.366743,0.00181075,0.0131234,867,540,-5.18059,23.4463
-350,484,-5.22693,-24.1033,0.00246172,-0.00154875,-0.000196973,0.00247137,-0.0015584,-0.0489577,0.00234641,0.0151638,874,540,-5.22693,24.1033
-343,484,-5.23755,-24.7896,0.00273714,-0.00292282,0.00045079,0.00277282,-0.0029585,0.0789819,0.00330956,0.0220888,881,540,-5.23755,24.7896
-336,484,-5.2746,-25.4678,0.00299933,-0.00424811,0.00100753,0.00313679,-0.00438557,0.135594,0.00436294,0.0261,888,540,-5.27461,25.4678
-329,484,-5.28821,-26.093,0.00356211,-0.00425314,0.00105318,0.00370155,-0.00439258,0.131631,0.00467882,0.0361979,895,540,-5.28823,26.0929
-322,484,-5.15161,-26.7738,0.00426483,-0.00451937,0.00108137,0.00439599,-0.00465053,0.120703,0.0052237,0.0488761,902,540,-5.15159,26.7738
-315,484,-5.26807,-27.4366,0,0,0,0,0,0,0,-1,909,540,-5.26804,27.4366
-308,484,-1.32623,-8.9317,0,0,0,0,0,0,0,-1,916,540,-1.32626,8.93173
-301,484,-1.33453,-6.52667,0,0,0,0,0,0,0,-1,923,540,-1.33454,6.5267
-294,484,-1.61224,-8.17059,0,0,0,0,0,0,0,-1,930,540,-1.61227,8.17058
-287,484,-0.715759,-5.62103,0,0,0,0,0,0,0,-1,937,540,-0.715772,5.62105
-280,484,2.66742,-1.6795,0,0,0,0,0,0,0,-1,944,540,2.6674,1.67949
-273,484,2.53125,-2.22296,0,0,0,0,0,0,0,-1,951,540,2.53128,2.22295
-266,484,2.6778,-2.72058,0,0,0,0,0,0,0,-1,958,540,2.6778,2.72061
-259,484,2.41718,-2.59894,0,0,0,0,0,0,0,-1,965,540,2.41717,2.59892
-252,484,10.6069,-11.696,0,0,0,0,0,0,0,-1,972,540,10.6069,11.696
-245,484,6.34106,-11.6107,0,0,0,0,0,0,0,-1,979,540,6.34104,11.6107
-238,484,4.89319,-8.54059,0,0,0,0,0,0,0,-1,986,540,4.89321,8.5406
-231,484,3.47675,-5.22064,0,0,0,0,0,0,0,-1,993,540,3.47676,5.22067
-224,484,1.71344,-2.03473,0,0,0,0,0,0,0,-1,1000,540,1.71342,2.03472
-217,484,-0.745056,1.17358,0,0,0,0,0,0,0,-1,1007,540,-0.745043,-1.17359
-210,484,0,0,0,0,0,0,0,0,0,-1,1014,540,0,0
-203,484,0,0,0,0,0,0,0,0,0,-1,1021,540,0,0
-196,484,0,0,0,0,0,0,0,0,0,-1,1028,540,0,0
-189,484,0,0,0,0,0,0,0,0,0,-1,1035,540,0,0
-182,484,0,0,0,0,0,0,0,0,0,-1,1042,540,0,0
-175,484,0,0,0,0,0,0,0,0,0,-1,1049,540,0,0
-168,484,0,0,0,0,0,0,0,0,0,-1,1056,540,0,0
-161,484,0,0,0,0,0,0,0,0,0,-1,1063,540,0,0
-154,484,0,0,0,0,0,0,0,0,0,-1,1070,540,0,0
-147,484,0,0,0,0,0,0,0,0,0,-1,1077,540,0,0
-140,484,0,0,0,0,0,0,0,0,0,-1,1084,540,0,0
-133,484,0,0,0,0,0,0,0,0,0,-1,1091,540,0,0
-126,484,0,0,0,0,0,0,0,0,0,-1,1098,540,0,0
-119,484,0,0,0,0,0,0,0,0,0,-1,1105,540,0,0
-112,484,0,0,0,0,0,0,0,0,0,-1,1112,540,0,0
-105,484,0,0,0,0,0,0,0,0,0,-1,1119,540,0,0
-98,484,0,0,0,0,0,0,0,0,0,-1,1126,540,0,0
-91,484,0,0,0,0,0,0,0,0,0,-1,1133,540,0,0
-84,484,0,0,0,0,0,0,0,0,0,-1,1140,540,0,0
-77,484,0,0,0,0,0,0,0,0,0,-1,1147,540,0,0
-70,484,0,0,0,0,0,0,0,0,0,-1,1154,540,0,0
-63,484,0,0,0,0,0,0,0,0,0,-1,1161,540,0,0
-56,484,0,0,0,0,0,0,0,0,0,-1,1168,540,0,0
-49,484,0,0,0,0,0,0,0,0,0,-1,1175,540,0,0
-42,484,0,0,0,0,0,0,0,0,0,-1,1182,540,0,0
-35,484,0,0,0,0,0,0,0,0,0,-1,1189,540,0,0
-28,484,0,0,0,0,0,0,0,0,0,-1,1196,540,0,0
-21,484,0,0,0,0,0,0,0,0,0,-1,1203,540,0,0
-14,484,0,0,0,0,0,0,0,0,0,-1,1210,540,0,0
-7,484,0,0,0,0,0,0,0,0,0,-1,1217,540,0,0
0,484,0,0,0,0,0,0,0,0,0,-1,1224,540,0,0
7,484,0,0,0,0,0,0,0,0,0,-1,1231,540,0,0
14,484,0,0,0,0,0,0,0,0,0,-1,1238,540,0,0
21,484,0,0,0,0,0,0,0,0,0,-1,1245,540,0,0
28,484,0,0,0,0,0,0,0,0,0,-1,1252,540,0,0
35,484,0,0,0,0,0,0,0,0,0,-1,1259,540,0,0
42,484,0,0,0,0,0,0,0,0,0,-1,1266,540,0,0
49,484,0,0,0,0,0,0,0,0,0,-1,1273,540,0,0
56,484,0,0,0,0,0,0,0,0,0,-1,1280,540,0,0
63,484,0,0,0,0,0,0,0,0,0,-1,1287,540,0,0
70,484,0,0,0,0,0,0,0,0,0,-1,1294,540,0,0
77,484,0,0,0,0,0,0,0,0,0,-1,1301,540,0,0
84,484,0,0,0,0,0,0,0,0,0,-1,1308,540,0,0
91,484,0,0,0,0,0,0,0,0,0,-1,1315,540,0,0
98,484,0,0,0,0,0,0,0,0,0,-1,1322,540,0,0
105,484,0,0,0,0,0,0,0,0,0,-1,1329,540,0,0
112,484,0,0,0,0,0,0,0,0,0,-1,1336,540,0,0
119,484,0,0,0,0,0,0,0,0,0,-1,1343,540,0,0
126,484,0,0,0,0,0,0,0,0,0,-1,1350,540,0,0
133,484,0,0,0,0,0,0,0,0,0,-1,1357,540,0,0
140,484,0,0,0,0,0,0,0,0,0,-1,1364,540,0,0
147,484,0,0,0,0,0,0,0,0,0,-1,1371,540,0,0
154,484,0,0,0,0,0,0,0,0,0,-1,1378,540,0,0
161,484,0,0,0,0,0,0,0,0,0,-1,1385,540,0,0
168,484,0,0,0,0,0,0,0,0,0,-1,1392,540,0,0
175,484,0,0,0,0,0,0,0,0,0,-1,1399,540,0,0
182,484,0,0,0,0,0,0,0,0,0,-1,1406,540,0,0
189,484,0,0,0,0,0,0,0,0,0,-1,1413,540,0,0
196,484,0,0,0,0,0,0,0,0,0,-1,1420,540,0,0
203,484,0,0,0,0,0,0,0,0,0,-1,1427,540,0,0
210,484,0,0,0,0,0,0,0,0,0,-1,1434,540,0,0
217,484,0,0,0,0,0,0,0,0,0,-1,1441,540,0,0
224,484,0,0,0,0,0,0,0,0,0,-1,1448,540,0,0
231,484,0,0,0,0,0,0,0,0,0,-1,1455,540,0,0
238,484,0,0,0,0,0,0,0,0,0,-1,1462,540,0,0
245,484,0,0,0,0,0,0,0,0,0,-1,1469,540,0,0
252,484,0,0,0,0,0,0,0,0,0,-1,1476,540,0,0
259,484,0,0,0,0,0,0,0,0,0,-1,1483,540,0,0
266,484,0,0,0,0,0,0,0,0,0,-1,1490,540,0,0
273,484,0,0,0,0,0,0,0,0,0,-1,1497,540,0,0
280,484,0,0,0,0,0,0,0,0,0,-1,1504,540,0,0
287,484,0,0,0,0,0,0,0,0,0,-1,1511,540,0,0
294,484,0,0,0,0,0,0,0,0,0,-1,1518,540,0,0
301,484,0,0,0,0,0,0,0,0,0,-1,1525,540,0,0
308,484,0,0,0,0,0,0,0,0,0,-1,1532,540,0,0
315,484,0,0,0,0,0,0,0,0,0,-1,1539,540,0,0
322,484,0,0,0,0,0,0,0,0,0,-1,1546,540,0,0
329,484,0,0,0,0,0,0,0,0,0,-1,1553,540,0,0
336,484,4.38708,-1.64136,0,0,0,0,0,0,0,-1,1560,540,4.38704,1.64138
343,484,7.57996,-1.05457,0,0,0,0,0,0,0,-1,1567,540,7.57995,1.05454
350,484,8.10425,-1.18878,0,0,0,0,0,0,0,-1,1574,540,8.1043,1.18877
357,484,7.74902,-3.80286,0,0,0,0,0,0,0,-1,1581,540,7.74901,3.80287
364,484,6.31262,-3.87213,0,0,0,0,0,0,0,-1,1588,540,6.31263,3.87215
371,484,7.21008,0.973511,0,0,0,0,0,0,0,-1,1595,540,7.21014,-0.973541
378,484,11.0563,1.5014,0,0,0,0,0,0,0,-1,1602,540,11.0563,-1.5014
385,484,14.3469,2.5545,0,0,0,0,0,0,0,-1,1609,540,14.3469,-2.55453
392,484,7.39453,-4.95026,0,0,0,0,0,0,0,-1,1616,540,7.39448,4.95023
399,484,7.14417,-2.5639,0,0,0,0,0,0,0,-1,1623,540,7.14417,2.56391
406,484,7.88953,-2.47321,0,0,0,0,0,0,0,-1,1630,540,7.88954,2.47323
413,484,4.4895,-1.08673,0,0,0,0,0,0,0,-1,1637,540,4.48952,1.08674
420,484,4.50012,-2.11255,0,0,0,0,0,0,0,-1,1644,540,4.50012,2.11256
427,484,5.28601,-3.54053,0,0,0,0,0,0,0,-1,1651,540,5.28599,3.54051
434,484,11.1488,-13.5359,0,0,0,0,0,0,0,-1,1658,540,11.1489,13.5359
441,484,17.8293,-26.0741,0,0,0,0,0,0,0,-1,1665,540,17.8293,26.0741
448,484,17.803,-26.1013,0,0,0,0,0,0,0,-1,1672,540,17.803,26.1013
455,484,17.7968,-25.2692,0,0,0,0,0,0,0,-1,1679,540,17.7968,25.2692
462,484,17.8221,-24.5459,0.00160698,-0.000142014,-0.00219449,0.00309479,-0.00162983,-0.595793,0.00277113,0.0312056,1686,540,17.8221,24.5459
469,484,17.8169,-23.8858,0.00164164,0.000374865,-0.00153021,0.00266437,-0.000647865,-0.589173,0.00202701,0.0183469,1693,540,17.8169,23.8858
476,484,17.7583,-23.173,0.00156187,0.00080194,-0.000771263,0.00204168,0.000322126,-0.556523,0.00126746,0.0166413,1700,540,17.7584,23.1729
483,484,17.7314,-22.4778,0.00166059,0.000578416,-3.426e-06,0.0016606,0.000578405,-0.00316582,0.000973342,0.0131048,1707,540,17.7314,22.4779
490,484,17.6924,-21.7952,0.00159857,0.000951486,0.000184294,0.00164737,0.000902679,0.258889,0.000952568,0.0127264,1714,540,17.6924,21.7952
497,484,17.6656,-21.0757,0.00104195,0.00116311,0.000542559,0.00164846,0.000556596,0.840997,0.000968318,0.0134572,1721,540,17.6656,21.0758
504,484,17.6589,-20.3562,0.000189552,0.00101485,0.000758786,0.00146594,-0.000261532,1.03444,0.00107512,0.0154697,1728,540,17.6589,20.3562
511,484,17.6492,-19.6593,-0.00105506,0.000857337,0.000897681,0.00121268,-0.0014104,1.19387,0.00151587,0.0185086,1735,540,17.6491,19.6593
518,484,17.6104,-18.9641,-0.00273456,0.000690836,0.000979024,0.000950908,-0.00299463,1.31115,0.00237764,0.0158361,1742,540,17.6103,18.9641
525,484,17.5558,-18.2296,-0.00472625,0.000464108,0.00106822,0.00067536,-0.0049375,1.37556,0.00353834,0.0135169,1749,540,17.5558,18.2296
532,484,17.5289,-17.4514,-0.00699898,0.000286068,0.00122442,0.000486354,-0.00719927,1.40866,0.00496957,0.0151039,1756,540,17.5289,17.4514
539,484,17.4462,-16.6635,-0.00954986,8.40604e-05,0.0014313,0.000292209,-0.00975801,1.42638,0.0066049,0.0392152,1763,540,17.4462,16.6634
546,484,17.3724,-15.7678,0,0,0,0,0,0,0,-1,1770,540,17.3724,15.7678
553,484,12.4246,-8.96423,0,0,0,0,0,0,0,-1,1777,540,12.4246,8.96422
560,484,10.0549,-5.47931,0,0,0,0,0,0,0,-1,1784,540,10.055,5.47928
567,484,7.78223,-1.38312,0,0,0,0,0,0,0,-1,1791,540,7.78224,1.38311
574,484,5.74463,1.50922,0,0,0,0,0,0,0,-1,1798,540,5.74463,-1.50924
581,484,10.34,2.9491,0,0,0,0,0,0,0,-1,1805,540,10.34,-2.94912
588,484,10.6669,2.88568,0,0,0,0,0,0,0,-1,1812,540,10.6669,-2.88567
595,484,10.7233,1.04767,0,0,0,0,0,0,0,-1,1819,540,10.7233,-1.04766
602,484,0,0,0,0,0,0,0,0,0,-1,1826,540,0,0
609,484,0,0,0,0,0,0,0,0,0,-1,1833,540,0,0
616,484,0,0,0,0,0,0,0,0,0,-1,1840,540,0,0
623,484,0,0,0,0,0,0,0,0,0,-1,1847,540,0,0
630,484,0,0,0,0,0,0,0,0,0,-1,1854,540,0,0
637,484,0,0,0,0,0,0,0,0,0,-1,1861,540,0,0
644,484,0,0,0,0,0,0,0,0,0,-1,1868,540,0,0
651,484,0,0,0,0,0,0,0,0,0,-1,1875,540,0,0
658,484,0,0,0,0,0,0,0,0,0,-1,1882,540,0,0
665,484,0,0,0,0,0,0,0,0,0,-1,1889,540,0,0
672,484,0,0,0,0,0,0,0,0,0,-1,1896,540,0,0
679,484,0,0,0,0,0,0,0,0,0,-1,1903,540,0,0
686,484,0,0,0,0,0,0,0,0,0,-1,1910,540,0,0
693,484,0,0,0,0,0,0,0,0,0,-1,1917,540,0,0
700,484,0,0,0,0,0,0,0,0,0,-1,1924,540,0,0
707,484,0,0,0,0,0,0,0,0,0,-1,1931,540,0,0
714,484,0,0,0,0,0,0,0,0,0,-1,1938,540,0,0
721,484,0,0,0,0,0,0,0,0,0,-1,1945,540,0,0
728,484,0,0,0,0,0,0,0,0,0,-1,1952,540,0,0
735,484,0,0,0,0,0,0,0,0,0,-1,1959,540,0,0
742,484,0,0,0,0,0,0,0,0,0,-1,1966,540,0,0
749,484,0,0,0,0,0,0,0,0,0,-1,1973,540,0,0
756,484,0,0,0,0,0,0,0,0,0,-1,1980,540,0,0
763,484,0,0,0,0,0,0,0,0,0,-1,1987,540,0,0
770,484,0,0,0,0,0,0,0,0,0,-1,1994,540,0,0
777,484,0,0,0,0,0,0,0,0,0,-1,2001,540,0,0
784,484,0,0,0,0,0,0,0,0,0,-1,2008,540,0,0
791,484,0,0,0,0,0,0,0,0,0,-1,2015,540,0,0
798,484,0,0,0,0,0,0,0,0,0,-1,2022,540,0,0
805,484,0,0,0,0,0,0,0,0,0,-1,2029,540,0,0
812,484,0,0,0,0,0,0,0,0,0,-1,2036,540,0,0
-700,477,0,0,0,0,0,0,0,0,0,-1,524,547,0,0
-693,477,0,0,0,0,0,0,0,0,0,-1,531,547,0,0
-686,477,0,0,0,0,0,0,0,0,0,-1,538,547,0,0
-679,477,0,0,0,0,0,0,0,0,0,-1,545,547,0,0
-672,477,0,0,0,0,0,0,0,0,0,-1,552,547,0,0
-665,477,0,0,0,0,0,0,0,0,0,-1,559,547,0,0
-658,477,0,0,0,0,0,0,0,0,0,-1,566,547,0,0
-651,477,0,0,0,0,0,0,0,0,0,-1,573,547,0,0
-644,477,0,0,0,0,0,0,0,0,0,-1,580,547,0,0
-637,477,0,0,0,0,0,0,0,0,0,-1,587,547,0,0
-630,477,0,0,0,0,0,0,0,0,0,-1,594,547,0,0
-623,477,0,0,0,0,0,0,0,0,0,-1,601,547,0,0
-616,477,0,0,0,0,0,0,0,0,0,-1,608,547,0,0
-609,477,0,0,0,0,0,0,0,0,0,-1,615,547,0,0
-602,477,0,0,0,0,0,0,0,0,0,-1,622,547,0,0
-595,477,0,0,0,0,0,0,0,0,0,-1,629,547,0,0
-588,477,0,0,0,0,0,0,0,0,0,-1,636,547,0,0
-581,477,0,0,0,0,0,0,0,0,0,-1,643,547,0,0
-574,477,0,0,0,0,0,0,0,0,0,-1,650,547,0,0
-567,477,0,0,0,0,0,0,0,0,0,-1,657,547,0,0
-560,477,0,0,0,0,0,0,0,0,0,-1,664,547,0,0
-553,477,0,0,0,0,0,0,0,0,0,-1,671,547,0,0
-546,477,0,0,0,0,0,0,0,0,0,-1,678,547,0,0
-539,477,0,0,0,0,0,0,0,0,0,-1,685,547,0,0
-532,477,0,0,0,0,0,0,0,0,0,-1,692,547,0,0
-525,477,0,0,0,0,0,0,0,0,0,-1,699,547,0,0
-518,477,0,0,0,0,0,0,0,0,0,-1,706,547,0,0
-511,477,0,0,0,0,0,0,0,0,0,-1,713,547,0,0
-504,477,0,0,0,0,0,0,0,0,0,-1,720,547,0,0
-497,477,0,0,0,0,0,0,0,0,0,-1,727,547,0,0
-490,477,0,0,0,0,0,0,0,0,0,-1,734,547,0,0
-483,477,-7.73151,-0.224182,0,0,0,0,0,0,0,-1,741,547,-7.73152,0.224176
-476,477,-6.25806,-0.310547,0,0,0,0,0,0,0,-1,748,547,-6.25804,0.310549
-469,477,-7.26617,0.525085,0,0,0,0,0,0,0,-1,755,547,-7.2662,-0.525111
-462,477,-6.65143,1.06042,0,0,0,0,0,0,0,-1,762,547,-6.65143,-1.06043
-455,477,-5.31757,0.429016,0,0,0,0,0,0,0,-1,769,547,-5.31756,-0.42902
-448,477,-4.0697,0.273376,0,0,0,0,0,0,0,-1,776,547,-4.06971,-0.273363
-441,477,-2.47504,-4.76971,0,0,0,0,0,0,0,-1,783,547,-2.47505,4.76973
-434,477,-5.25806,-15.8571,0,0,0,0,0,0,0,-1,790,547,-5.25807,15.8571
-427,477,-5.50427,-16.175,-0.000788872,0.016841,-0.00612713,0.0187613,-0.00270915,-1.26709,0.0135015,0.0462006,797,547,-5.5043,16.175
-420,477,-5.56305,-16.7078,-0.000356363,0.0146743,-0.00590352,0.0167158,-0.00239779,-1.23787,0.0120231,0.0357965,804,547,-5.56305,16.7078
-413,477,-5.55194,-17.7294,5.62519e-05,0.0126484,-0.00559604,0.0147759,-0.00207123,-1.2075,0.0106086,0.0209847,811,547,-5.55197,17.7294
-406,477,-5.66089,-18.5425,0.000359306,0.0106842,-0.00506629,0.0127549,-0.00171137,-1.1828,0.00912736,0.0115286,818,547,-5.66091,18.5425
-399,477,-5.67841,-19.2628,0.000595914,0.00876932,-0.0044061,0.0106922,-0.00132695,-1.1593,0.0076091,0.0195399,825,547,-5.67839,19.2628
-392,477,-5.72546,-19.9705,0.00085418,0.00687697,-0.00369917,0.00863551,-0.000904366,-1.12703,0.00608092,0.0187813,832,547,-5.72547,19.9705
-385,477,-5.74915,-20.6577,0.00118593,0.00501794,-0.0029834,0.0066476,-0.000443727,-1.07084,0.0045868,0.0153633,839,547,-5.74913,20.6577
-378,477,-5.77161,-21.3535,0.00150587,0.00321897,-0.00219083,0.00471474,1.01042e-05,-0.971747,0.0031398,0.0132193,846,547,-5.77164,21.3535
-371,477,-5.80194,-22.0185,0.00184492,0.00146539,-0.00149397,0.00316113,0.000149183,-0.722226,0.00205949,0.013678,853,547,-5.80195,22.0185
-364,477,-5.83923,-22.6837,0.00213657,-0.000285545,-0.000719726,0.00233429,-0.000483269,-0.268107,0.0017398,0.014901,860,547,-5.83922,22.6837
-357,477,-5.87292,-23.3847,0.0025166,-0.00178001,-4.58424e-05,0.00251709,-0.0017805,-0.0106678,0.00249333,0.0127564,867,547,-5.87292,23.3847
-350,477,-5.90881,-24.05,0.0029848,-0.00313317,0.000505426,0.00302627,-0.00317464,0.0818738,0.00358044,0.0112127,874,547,-5.90881,24.05
-343,477,-5.88513,-24.7601,0.00345013,-0.00421825,0.000955274,0.00356734,-0.00433546,0.122087,0.00456987,0.0196414,881,547,-5.88511,24.7601
-336,477,-5.83038,-25.4623,0.00395794,-0.00539754,0.00129568,0.00413407,-0.00557367,0.135107,0.00562527,0.0455587,888,547,-5.83037,25.4623
-329,477,-5.88721,-26.1234,0,0,0,0,0,0,0,-1,895,547,-5.88723,26.1234
-322,477,-5.80969,-26.856,0,0,0,0,0,0,0,-1,902,547,-5.8097,26.856
-315,477,-1.67358,-9.15253,0,0,0,0,0,0,0,-1,909,547,-1.67356,9.15253
-308,477,-1.30127,-6.55188,0,0,0,0,0,0,0,-1,916,547,-1.30128,6.55185
-301,477,-1.21185,-6.28351,0,0,0,0,0,0,0,-1,923,547,-1.21184,6.28352
-294,477,-0.352905,3.27142,0,0,0,0,0,0,0,-1,930,547,-0.35292,-3.27144
-287,477,3.54364,2.15399,0,0,0,0,0,0,0,-1,937,547,3.54362,-2.15396
-280,477,1.97308,-0.954163,0,0,0,0,0,0,0,-1,944,547,1.9731,0.954178
-273,477,2.11621,-3.76709,0,0,0,0,0,0,0,-1,951,547,2.11619,3.76706
-266,477,2.04669,-3.42389,0,0,0,0,0,0,0,-1,958,547,2.04671,3.42391
-259,477,-1.33478,-3.41205,0,0,0,0,0,0,0,-1,965,547,-1.3348,3.41206
-252,477,0.597168,-5.32922,0,0,0,0,0,0,0,-1,972,547,0.597144,5.32924
-245,477,8.2309,-8.48492,0,0,0,0,0,0,0,-1,979,547,8.23091,8.48494
-238,477,6.60938,-5.64063,0,0,0,0,0,0,0,-1,986,547,6.60938,5.64063
-231,477,4.71716,-2.52484,0,0,0,0,0,0,0,-1,993,547,4.71716,2.52483
-224,477,0,0,0,0,0,0,0,0,0,-1,1000,547,0,0
-217,477,0,0,0,0,0,0,0,0,0,-1,1007,547,0,0
-210,477,0,0,0,0,0,0,0,0,0,-1,1014,547,0,0
-203,477,0,0,0,0,0,0,0,0,0,-1,1021,547,0,0
-196,477,0,0,0,0,0,0,0,0,0,-1,1028,547,0,0
-189,477,0,0,0,0,0,0,0,0,0,-1,1035,547,0,0
-182,477,0,0,0,0,0,0,0,0,0,-1,1042,547,0,0
-175,477,0,0,0,0,0,0,0,0,0,-1,1049,547,0,0
-168,477,0,0,0,0,0,0,0,0,0,-1,1056,547,0,0
-161,477,0,0,0,0,0,0,0,0,0,-1,1063,547,0,0
-154,477,0,0,0,0,0,0,0,0,0,-1,1070,547,0,0
-147,477,0,0,0,0,0,0,0,0,0,-1,1077,547,0,0
-140,477,0,0,0,0,0,0,0,0,0,-1,1084,547,0,0
-133,477,0,0,0,0,0,0,0,0,0,-1,1091,547,0,0
-126,477,0,0,0,0,0,0,0,0,0,-1,1098,547,0,0
-119,477,0,0,0,0,0,0,0,0,0,-1,1105,547,0,0
-112,477,0,0,0,0,0,0,0,0,0,-1,1112,547,0,0
-105,477,0,0,0,0,0,0,0,0,0,-1,1119,547,0,0
-98,477,0,0,0,0,0,0,0,0,0,-1,1126,547,0,0
-91,477,0,0,0,0,0,0,0,0,0,-1,1133,547,0,0
-84,477,0,0,0,0,0,0,0,0,0,-1,1140,547,0,0
-77,477,0,0,0,0,0,0,0,0,0,-1,1147,547,0,0
-70,477,0,0,0,0,0,0,0,0,0,-1,1154,547,0,0
-63,477,0,0,0,0,0,0,0,0,0,-1,1161,547,0,0
-56,477,0,0,0,0,0,0,0,0,0,-1,1168,547,0,0
-49,477,0,0,0,0,0,0,0,0,0,-1,1175,547,0,0
-42,477,0,0,0,0,0,0,0,0,0,-1,1182,547,0,0
-35,477,0,0,0,0,0,0,0,0,0,-1,1189,547,0,0
-28,477,0,0,0,0,0,0,0,0,0,-1,1196,547,0,0
-21,477,0,0,0,0,0,0,0,0,0,-1,1203,547,0,0
-14,477,0,0,0,0,0,0,0,0,0,-1,1210,547,0,0
-7,477,0,0,0,0,0,0,0,0,0,-1,1217,547,0,0
0,477,0,0,0,0,0,0,0,0,0,-1,1224,547,0,0
7,477,0,0,0,0,0,0,0,0,0,-1,1231,547,0,0
14,477,0,0,0,0,0,0,0,0,0,-1,1238,547,0,0
21,477,0,0,0,0,0,0,0,0,0,-1,1245,547,0,0
28,477,0,0,0,0,0,0,0,0,0,-1,1252,547,0,0
35,477,0,0,0,0,0,0,0,0,0,-1,1259,547,0,0
42,477,0,0,0,0,0,0,0,0,0,-1,1266,547,0,0
49,477,0,0,0,0,0,0,0,0,0,-1,1273,547,0,0
56,477,0,0,0,0,0,0,0,0,0,-1,1280,547,0,0
63,477,0,0,0,0,0,0,0,0,0,-1,1287,547,0,0
70,477,0,0,0,0,0,0,0,0,0,-1,1294,547,0,0
77,477,0,0,0,0,0,0,0,0,0,-1,1301,547,0,0
84,477,0,0,0,0,0,0,0,0,0,-1,1308,547,0,0
91,477,0,0,0,0,0,0,0,0,0,-1,1315,547,0,0
98,477,0,0,0,0,0,0,0,0,0,-1,1322,547,0,0
105,477,0,0,0,0,0,0,0,0,0,-1,1329,547,0,0
112,477,0,0,0,0,0,0,0,0,0,-1,1336,547,0,0
119,477,0,0,0,0,0,0,0,0,0,-1,1343,547,0,0
126,477,0,0,0,0,0,0,0,0,0,-1,1350,547,0,0
133,477,0,0,0,0,0,0,0,0,0,-1,1357,547,0,0
140,477,0,0,0,0,0,0,0,0,0,-1,1364,547,0,0
147,477,0,0,0,0,0,0,0,0,0,-1,1371,547,0,0
154,477,0,0,0,0,0,0,0,0,0,-1,1378,547,0,0
161,477,0,0,0,0,0,0,0,0,0,-1,1385,547,0,0
168,477,0,0,0,0,0,0,0,0,0,-1,1392,547,0,0
175,477,0,0,0,0,0,0,0,0,0,-1,1399,547,0,0
182,477,0,0,0,0,0,0,0,0,0,-1,1406,547,0,0
189,477,0,0,0,0,0,0,0,0,0,-1,1413,547,0,0
196,477,0,0,0,0,0,0,0,0,0,-1,1420,547,0,0
203,477,0,0,0,0,0,0,0,0,0,-1,1427,547,0,0
210,477,0,0,0,0,0,0,0,0,0,-1,1434,547,0,0
217,477,0,0,0,0,0,0,0,0,0,-1,1441,547,0,0
224,477,0,0,0,0,0,0,0,0,0,-1,1448,547,0,0
231,477,0,0,0,0,0,0,0,0,0,-1,1455,547,0,0
238,477,0,0,0,0,0,0,0,0,0,-1,1462,547,0,0
245,477,0,0,0,0,0,0,0,0,0,-1,1469,547,0,0
252,477,0,0,0,0,0,0,0,0,0,-1,1476,547,0,0
259,477,0,0,0,0,0,0,0,0,0,-1,1483,547,0,0
266,477,0,0,0,0,0,0,0,0,0,-1,1490,547,0,0
273,477,0,0,0,0,0,0,0,0,0,-1,1497,547,0,0
280,477,0,0,0,0,0,0,0,0,0,-1,1504,547,0,0
287,477,0,0,0,0,0,0,0,0,0,-1,1511,547,0,0
294,477,0,0,0,0,0,0,0,0,0,-1,1518,547,0,0
301,477,0,0,0,0,0,0,0,0,0,-1,1525,547,0,0
308,477,0,0,0,0,0,0,0,0,0,-1,1532,547,0,0
315,477,0,0,0,0,0,0,0,0,0,-1,1539,547,0,0
322,477,0,0,0,0,0,0,0,0,0,-1,1546,547,0,0
329,477,0,0,0,0,0,0,0,0,0,-1,1553,547,0,0
336,477,0,0,0,0,0,0,0,0,0,-1,1560,547,0,0
343,477,0,0,0,0,0,0,0,0,0,-1,1567,547,0,0
350,477,1.7699,-3.32275,0,0,0,0,0,0,0,-1,1574,547,1.7699,3.32272
357,477,3.073,-4.83313,0,0,0,0,0,0,0,-1,1581,547,3.07303,4.83316
364,477,4.30127,-4.22864,0,0,0,0,0,0,0,-1,1588,547,4.30125,4.22865
371,477,4.57703,0.283264,0,0,0,0,0,0,0,-1,1595,547,4.57706,-0.283262
378,477,8.57947,1.05969,0,0,0,0,0,0,0,-1,1602,547,8.5795,-1.05972
385,477,12.3726,2.02356,0,0,0,0,0,0,0,-1,1609,547,12.3725,-2.02355
392,477,16.4678,2.76843,0,0,0,0,0,0,0,-1,1616,547,16.4678,-2.76845
399,477,8.00037,-2.29523,0,0,0,0,0,0,0,-1,1623,547,8.00031,2.2952
406,477,4.82495,2.7475,0,0,0,0,0,0,0,-1,1630,547,4.825,-2.74752
413,477,4.88171,-0.336426,0,0,0,0,0,0,0,-1,1637,547,4.88169,0.336398
420,477,3.34875,0.102722,0,0,0,0,0,0,0,-1,1644,547,3.34871,-0.1027
427,477,1.66772,-0.373108,0,0,0,0,0,0,0,-1,1651,547,1.66768,0.373104
434,477,3.76978,-2.30798,0,0,0,0,0,0,0,-1,1658,547,3.76974,2.30801
441,477,4.05444,-2.80402,0,0,0,0,0,0,0,-1,1665,547,4.05444,2.804
448,477,10.4247,-11.7421,0,0,0,0,0,0,0,-1,1672,547,10.4247,11.7421
455,477,13.3054,-16.8109,0,0,0,0,0,0,0,-1,1679,547,13.3054,16.8109
462,477,18.4727,-24.7216,0,0,0,0,0,0,0,-1,1686,547,18.4726,24.7216
469,477,18.5227,-23.8414,0,0,0,0,0,0,0,-1,1693,547,18.5227,23.8414
476,477,18.4655,-23.1913,0.00178555,0.000666527,-0.00115684,0.00251108,-5.90034e-05,-0.560155,0.00169407,0.0266842,1700,547,18.4655,23.1913
483,477,18.4481,-22.4712,0.00200586,0.000321658,-0.000155679,0.00202013,0.000307389,-0.091403,0.00125688,0.0128545,1707,547,18.4482,22.4712
490,477,18.4122,-21.7726,0.00224713,0.000857977,1.14039e-05,0.00224723,0.000857883,0.00820848,0.00130948,0.0121184,1714,547,18.4122,21.7726
497,477,18.3804,-21.0311,0.00185136,0.00116471,0.000481761,0.00209962,0.000916458,0.475817,0.00121547,0.0132364,1721,547,18.3803,21.0311
504,477,18.3649,-20.3173,0.00121814,0.00106993,0.000783333,0.00193087,0.000357209,0.738237,0.00118624,0.0178046,1728,547,18.3648,20.3173
511,477,18.3822,-19.6889,0.00027273,0.00100068,0.00100741,0.00170785,-0.000434436,0.958751,0.00130766,0.0225333,1735,547,18.3822,19.6889
518,477,18.3333,-18.9886,-0.000995486,0.00094486,0.00118056,0.00150274,-0.00155337,1.12934,0.00176453,0.0206958,1742,547,18.3333,18.9886
525,477,18.249,-18.1899,-0.00245118,0.000870383,0.00134204,0.00134485,-0.00292565,1.23097,0.00252125,0.0174728,1749,547,18.2491,18.19
532,477,18.1812,-17.4019,-0.00404886,0.000877048,0.0015387,0.00131819,-0.00449,1.29159,0.00351608,0.0191847,1756,547,18.1811,17.4019
539,477,18.16,-16.6184,-0.00577297,0.000894806,0.00175353,0.00132784,-0.006206,1.32869,0.00464367,0.0171621,1763,547,18.16,16.6184
546,477,18.0656,-15.9466,-0.0075211,0.00103035,0.00205609,0.00149902,-0.00798977,1.34668,0.00589012,0.0417928,1770,547,18.0656,15.9466
553,477,18.0929,-14.8823,0,0,0,0,0,0,0,-1,1777,547,18.0929,14.8823
560,477,18.036,-13.6885,0,0,0,0,0,0,0,-1,1784,547,18.036,13.6885
567,477,13.9529,-8.70972,0,0,0,0,0,0,0,-1,1791,547,13.9529,8.7097
574,477,6.82593,-0.916992,0,0,0,0,0,0,0,-1,1798,547,6.82598,0.916977
581,477,9.29321,-0.557007,0,0,0,0,0,0,0,-1,1805,547,9.29324,0.55703
588,477,9.75195,0.422729,0,0,0,0,0,0,0,-1,1812,547,9.75198,-0.42273
595,477,9.89172,1.21326,0,0,0,0,0,0,0,-1,1819,547,9.89174,-1.21328
602,477,6.5271,-0.964417,0,0,0,0,0,0,0,-1,1826,547,6.52706,0.964427
609,477,0,0,0,0,0,0,0,0,0,-1,1833,547,0,0
616,477,0,0,0,0,0,0,0,0,0,-1,1840,547,0,0
623,477,0,0,0,0,0,0,0,0,0,-1,1847,547,0,0
630,477,0,0,0,0,0,0,0,0,0,-1,1854,547,0,0
637,477,0,0,0,0,0,0,0,0,0,-1,1861,547,0,0
644,477,0,0,0,0,0,0,0,0,0,-1,1868,547,0,0
651,477,0,0,0,0,0,0,0,0,0,-1,1875,547,0,0
658,477,0,0,0,0,0,0,0,0,0,-1,1882,547,0,0
665,477,0,0,0,0,0,0,0,0,0,-1,1889,547,0,0
672,477,0,0,0,0,0,0,0,0,0,-1,1896,547,0,0
679,477,0,0,0,0,0,0,0,0,0,-1,1903,547,0,0
686,477,0,0,0,0,0,0,0,0,0,-1,1910,547,0,0
693,477,0,0,0,0,0,0,0,0,0,-1,1917,547,0,0
700,477,0,0,0,0,0,0,0,0,0,-1,1924,547,0,0
707,477,0,0,0,0,0,0,0,0,0,-1,1931,547,0,0
714,477,0,0,0,0,0,0,0,0,0,-1,1938,547,0,0
721,477,0,0,0,0,0,0,0,0,0,-1,1945,547,0,0
728,477,0,0,0,0,0,0,0,0,0,-1,1952,547,0,0
735,477,0,0,0,0,0,0,0,0,0,-1,1959,547,0,0
742,477,0,0,0,0,0,0,0,0,0,-1,1966,547,0,0
749,477,0,0,0,0,0,0,0,0,0,-1,1973,547,0,0
756,477,0,0,0,0,0,0,0,0,0,-1,1980,547,0,0
763,477,0,0,0,0,0,0,0,0,0,-1,1987,547,0,0
770,477,0,0,0,0,0,0,0,0,0,-1,1994,547,0,0
777,477,0,0,0,0,0,0,0,0,0,-1,2001,547,0,0
784,477,0,0,0,0,0,0,0,0,0,-1,2008,547,0,0
791,477,0,0,0,0,0,0,0,0,0,-1,2015,547,0,0
798,477,0,0,0,0,0,0,0,0,0,-1,2022,547,0,0
805,477,0,0,0,0,0,0,0,0,0,-1,2029,547,0,0
812,477,0,0,0,0,0,0,0,0,0,-1,2036,547,0,0
-700,470,0,0,0,0,0,0,0,0,0,-1,524,554,0,0
-693,470,0,0,0,0,0,0,0,0,0,-1,531,554,0,0
-686,470,0,0,0,0,0,0,0,0,0,-1,538,554,0,0
-679,470,0,0,0,0,0,0,0,0,0,-1,545,554,0,0
-672,470,0,0,0,0,0,0,0,0,0,-1,552,554,0,0
-665,470,0,0,0,0,0,0,0,0,0,-1,559,554,0,0
-658,470,0,0,0,0,0,0,0,0,0,-1,566,554,0,0
-651,470,0,0,0,0,0,0,0,0,0,-1,573,554,0,0
-644,470,0,0,0,0,0,0,0,0,0,-1,580,554,0,0
-637,470,0,0,0,0,0,0,0,0,0,-1,587,554,0,0
-630,470,0,0,0,0,0,0,0,0,0,-1,594,554,0,0
-623,470,0,0,0,0,0,0,0,0,0,-1,601,554,0,0
-616,470,0,0,0,0,0,0,0,0,0,-1,608,554,0,0
-609,470,0,0,0,0,0,0,0,0,0,-1,615,554,0,0
-602,470,0,0,0,0,0,0,0,0,0,-1,622,554,0,0
-595,470,0,0,0,0,0,0,0,0,0,-1,629,554,0,0
-588,470,0,0,0,0,0,0,0,0,0,-1,636,554,0,0
-581,470,0,0,0,0,0,0,0,0,0,-1,643,554,0,0
-574,470,0,0,0,0,0,0,0,0,0,-1,650,554,0,0
-567,470,0,0,0,0,0,0,0,0,0,-1,657,554,0,0
-560,470,0,0,0,0,0,0,0,0,0,-1,664,554,0,0
-553,470,0,0,0,0,0,0,0,0,0,-1,671,554,0,0
-546,470,0,0,0,0,0,0,0,0,0,-1,678,554,0,0
-539,470,0,0,0,0,0,0,0,0,0,-1,685,554,0,0
-532,470,0,0,0,0,0,0,0,0,0,-1,692,554,0,0
-525,470,0,0,0,0,0,0,0,0,0,-1,699,554,0,0
-518,470,0,0,0,0,0,0,0,0,0,-1,706,554,0,0
-511,470,0,0,0,0,0,0,0,0,0,-1,713,554,0,0
-504,470,0,0,0,0,0,0,0,0,0,-1,720,554,0,0
-497,470,0,0,0,0,0,0,0,0,0,-1,727,554,0,0
-490,470,-9.13263,-1.03125,0,0,0,0,0,0,0,-1,734,554,-9.1326,1.03127
-483,470,-7.68677,-1.03955,0,0,0,0,0,0,0,-1,741,554,-7.68678,1.03958
-476,470,-6.17969,-1.03394,0,0,0,0,0,0,0,-1,748,554,-6.17971,1.03395
-469,470,-6.23016,-0.651855,0,0,0,0,0,0,0,-1,755,554,-6.23014,0.651829
-462,470,-4.87915,-1.03705,0,0,0,0,0,0,0,-1,762,554,-4.87914,1.03702
-455,470,-4.14777,-1.37079,0,0,0,0,0,0,0,-1,769,554,-4.14779,1.37078
-448,470,-2.9314,-5.74518,0,0,0,0,0,0,0,-1,776,554,-2.93137,5.74518
-441,470,-5.77087,-14.2335,0,0,0,0,0,0,0,-1,783,554,-5.7709,14.2335
-434,470,-6.22211,-15.5104,0,0,0,0,0,0,0,-1,790,554,-6.2221,15.5104
-427,470,-6.2821,-16.2561,-0.000955482,0.0126446,-0.0044455,0.0139688,-0.00227967,-1.28129,0.010158,0.0247665,797,554,-6.28213,16.2561
-420,470,-6.26831,-17.0236,-0.000472342,0.0108497,-0.00420603,0.0122412,-0.00186383,-1.2513,0.00884773,0.0163619,804,554,-6.26831,17.0235
-413,470,-6.29895,-17.7927,-6.45366e-05,0.00912838,-0.00388358,0.0105494,-0.00148552,-1.22003,0.00757678,0.014007,811,554,-6.29896,17.7927
-406,470,-6.33453,-18.5139,0.000249728,0.00742469,-0.00338716,0.00877105,-0.00109664,-1.19245,0.00624509,0.0129875,818,554,-6.33456,18.5139
-399,470,-6.35968,-19.2308,0.000551041,0.00582859,-0.00283855,0.00706544,-0.000685815,-1.15987,0.00495475,0.0171435,825,554,-6.35967,19.2308
-392,470,-6.38892,-19.9362,0.000869721,0.00423114,-0.00225444,0.00536242,-0.000261557,-1.10571,0.00366525,0.0151145,832,554,-6.38892,19.9362
-385,470,-6.435,-20.6179,0.00126921,0.00267786,-0.00169251,0.00380675,0.000140329,-0.98257,0.00249237,0.0114198,839,554,-6.43497,20.6178
-378,470,-6.45471,-21.3157,0.00167233,0.00116411,-0.00106008,0.00250833,0.000328111,-0.667764,0.00157429,0.015788,846,554,-6.45469,21.3157
-371,470,-6.48279,-22.0048,0.0021334,-0.000307136,-0.000527714,0.00224262,-0.000416355,-0.204085,0.00165145,0.0144969,853,554,-6.48281,22.0048
-364,470,-6.53546,-22.6526,0.00256926,-0.00174307,3.70515e-05,0.00256958,-0.00174339,0.00859114,0.00250528,0.0159928,860,554,-6.53544,22.6526
-357,470,-6.5827,-23.3206,0.00310646,-0.00304169,0.000479966,0.00314371,-0.00307894,0.0774413,0.00359271,0.0162175,867,554,-6.58271,23.3206
-350,470,-6.56488,-24.0385,0.00373319,-0.00427158,0.000810578,0.00381445,-0.00435283,0.0999106,0.0047188,0.0125344,874,554,-6.56489,24.0385
-343,470,-6.52606,-24.7972,0,0,0,0,0,0,0,-1,881,554,-6.52603,24.7972
-336,470,-6.30914,-25.4718,0,0,0,0,0,0,0,-1,888,554,-6.30914,25.4718
-329,470,-2.78516,-12.3594,0,0,0,0,0,0,0,-1,895,554,-2.78517,12.3594
-322,470,-2.30829,-11.4527,0,0,0,0,0,0,0,-1,902,554,-2.30827,11.4527
-315,470,-1.04797,-8.29529,0,0,0,0,0,0,0,-1,909,554,-1.04797,8.29526
-308,470,-1.39368,-6.68152,0,0,0,0,0,0,0,-1,916,554,-1.39369,6.68149
-301,470,-0.0340576,3.34888,0,0,0,0,0,0,0,-1,923,554,-0.0340496,-3.3489
-294,470,-1.18378,3.22266,0,0,0,0,0,0,0,-1,930,554,-1.18376,-3.22268
-287,470,-2.15454,3.2204,0,0,0,0,0,0,0,-1,937,554,-2.15452,-3.22037
-280,470,-3.00537,3.099,0,0,0,0,0,0,0,-1,944,554,-3.00536,-3.09898
-273,470,-12.3932,3.65009,0,0,0,0,0,0,0,-1,951,554,-12.3932,-3.65011
-266,470,-11.5706,1.16028,0,0,0,0,0,0,0,-1,958,554,-11.5706,-1.16031
-259,470,-7.50415,-2.77167,0,0,0,0,0,0,0,-1,965,554,-7.50413,2.7717
-252,470,-0.371155,-5.87823,0,0,0,0,0,0,0,-1,972,554,-0.37114,5.87821
-245,470,1.33221,-6.81122,0,0,0,0,0,0,0,-1,979,554,1.33223,6.8112
-238,470,0,0,0,0,0,0,0,0,0,-1,986,554,0,0
-231,470,0,0,0,0,0,0,0,0,0,-1,993,554,0,0
-224,470,0,0,0,0,0,0,0,0,0,-1,1000,554,0,0
-217,470,0,0,0,0,0,0,0,0,0,-1,1007,554,0,0
-210,470,0,0,0,0,0,0,0,0,0,-1,1014,554,0,0
-203,470,0,0,0,0,0,0,0,0,0,-1,1021,554,0,0
-196,470,0,0,0,0,0,0,0,0,0,-1,1028,554,0,0
-189,470,0,0,0,0,0,0,0,0,0,-1,1035,554,0,0
-182,470,0,0,0,0,0,0,0,0,0,-1,1042,554,0,0
-175,470,0,0,0,0,0,0,0,0,0,-1,1049,554,0,0
-168,470,0,0,0,0,0,0,0,0,0,-1,1056,554,0,0
-161,470,0,0,0,0,0,0,0,0,0,-1,1063,554,0,0
-154,470,0,0,0,0,0,0,0,0,0,-1,1070,554,0,0
-147,470,0,0,0,0,0,0,0,0,0,-1,1077,554,0,0
-140,470,0,0,0,0,0,0,0,0,0,-1,1084,554,0,0
-133,470,0,0,0,0,0,0,0,0,0,-1,1091,554,0,0
-126,470,0,0,0,0,0,0,0,0,0,-1,1098,554,0,0
-119,470,0,0,0,0,0,0,0,0,0,-1,1105,554,0,0
-112,470,0,0,0,0,0,0,0,0,0,-1,1112,554,0,0
-105,470,0,0,0,0,0,0,0,0,0,-1,1119,554,0,0
-98,470,0,0,0,0,0,0,0,0,0,-1,1126,554,0,0
-91,470,0,0,0,0,0,0,0,0,0,-1,1133,554,0,0
-84,470,0,0,0,0,0,0,0,0,0,-1,1140,554,0,0
-77,470,0,0,0,0,0,0,0,0,0,-1,1147,554,0,0
-70,470,0,0,0,0,0,0,0,0,0,-1,1154,554,0,0
-63,470,0,0,0,0,0,0,0,0,0,-1,1161,554,0,0
-56,470,0,0,0,0,0,0,0,0,0,-1,1168,554,0,0
-49,470,0,0,0,0,0,0,0,0,0,-1,1175,554,0,0
-42,470,0,0,0,0,0,0,0,0,0,-1,1182,554,0,0
-35,470,0,0,0,0,0,0,0,0,0,-1,1189,554,0,0
-28,470,0,0,0,0,0,0,0,0,0,-1,1196,554,0,0
-21,470,0,0,0,0,0,0,0,0,0,-1,1203,554,0,0
-14,470,0,0,0,0,0,0,0,0,0,-1,1210,554,0,0
-7,470,0,0,0,0,0,0,0,0,0,-1,1217,554,0,0
0,470,0,0,0,0,0,0,0,0,0,-1,1224,554,0,0
7,470,0,0,0,0,0,0,0,0,0,-1,1231,554,0,0
14,470,0,0,0,0,0,0,0,0,0,-1,1238,554,0,0
21,470,0,0,0,0,0,0,0,0,0,-1,1245,554,0,0
28,470,0,0,0,0,0,0,0,0,0,-1,1252,554,0,0
35,470,0,0,0,0,0,0,0,0,0,-1,1259,554,0,0
42,470,0,0,0,0,0,0,0,0,0,-1,1266,554,0,0
49,470,0,0,0,0,0,0,0,0,0,-1,1273,554,0,0
56,470,0,0,0,0,0,0,0,0,0,-1,1280,554,0,0
63,470,0,0,0,0,0,0,0,0,0,-1,1287,554,0,0
70,470,0,0,0,0,0,0,0,0,0,-1,1294,554,0,0
77,470,0,0,0,0,0,0,0,0,0,-1,1301,554,0,0
84,470,0,0,0,0,0,0,0,0,0,-1,1308,554,0,0
91,470,0,0,0,0,0,0,0,0,0,-1,1315,554,0,0
98,470,0,0,0,0,0,0,0,0,0,-1,1322,554,0,0
105,470,0,0,0,0,0,0,0,0,0,-1,1329,554,0,0
112,470,0,0,0,0,0,0,0,0,0,-1,1336,554,0,0
119,470,0,0,0,0,0,0,0,0,0,-1,1343,554,0,0
126,470,0,0,0,0,0,0,0,0,0,-1,1350,554,0,0
133,470,0,0,0,0,0,0,0,0,0,-1,1357,554,0,0
140,470,0,0,0,0,0,0,0,0,0,-1,1364,554,0,0
147,470,0,0,0,0,0,0,0,0,0,-1,1371,554,0,0
154,470,0,0,0,0,0,0,0,0,0,-1,1378,554,0,0
161,470,0,0,0,0,0,0,0,0,0,-1,1385,554,0,0
168,470,0,0,0,0,0,0,0,0,0,-1,1392,554,0,0
175,470,0,0,0,0,0,0,0,0,0,-1,1399,554,0,0
182,470,0,0,0,0,0,0,0,0,0,-1,1406,554,0,0
189,470,0,0,0,0,0,0,0,0,0,-1,1413,554,0,0
196,470,0,0,0,0,0,0,0,0,0,-1,1420,554,0,0
203,470,0,0,0,0,0,0,0,0,0,-1,1427,554,0,0
210,470,0,0,0,0,0,0,0,0,0,-1,1434,554,0,0
217,470,0,0,0,0,0,0,0,0,0,-1,1441,554,0,0
224,470,0,0,0,0,0,0,0,0,0,-1,1448,554,0,0
231,470,0,0,0,0,0,0,0,0,0,-1,1455,554,0,0
238,470,0,0,0,0,0,0,0,0,0,-1,1462,554,0,0
245,470,0,0,0,0,0,0,0,0,0,-1,1469,554,0,0
252,470,0,0,0,0,0,0,0,0,0,-1,1476,554,0,0
259,470,0,0,0,0,0,0,0,0,0,-1,1483,554,0,0
266,470,0,0,0,0,0,0,0,0,0,-1,1490,554,0,0
273,470,0,0,0,0,0,0,0,0,0,-1,1497,554,0,0
280,470,0,0,0,0,0,0,0,0,0,-1,1504,554,0,0
287,470,0,0,0,0,0,0,0,0,0,-1,1511,554,0,0
294,470,0,0,0,0,0,0,0,0,0,-1,1518,554,0,0
301,470,0,0,0,0,0,0,0,0,0,-1,1525,554,0,0
308,470,0,0,0,0,0,0,0,0,0,-1,1532,554,0,0
315,470,0,0,0,0,0,0,0,0,0,-1,1539,554,0,0
322,470,0,0,0,0,0,0,0,0,0,-1,1546,554,0,0
329,470,0,0,0,0,0,0,0,0,0,-1,1553,554,0,0
336,470,0,0,0,0,0,0,0,0,0,-1,1560,554,0,0
343,470,0,0,0,0,0,0,0,0,0,-1,1567,554,0,0
350,470,0,0,0,0,0,0,0,0,0,-1,1574,554,0,0
357,470,0,0,0,0,0,0,0,0,0,-1,1581,554,0,0
364,470,1.33423,0.293335,0,0,0,0,0,0,0,-1,1588,554,1.33422,-0.293348
371,470,2.22498,-0.0305176,0,0,0,0,0,0,0,-1,1595,554,2.22494,0.0305046
378,470,6.27051,0.710083,0,0,0,0,0,0,0,-1,1602,554,6.27054,-0.710093
385,470,10.3657,1.47296,0,0,0,0,0,0,0,-1,1609,554,10.3657,-1.47299
392,470,15.3881,3.01935,0,0,0,0,0,0,0,-1,1616,554,15.388,-3.01937
399,470,18.4479,2.93793,0,0,0,0,0,0,0,-1,1623,554,18.4479,-2.93792
406,470,15.1896,1.36676,0,0,0,0,0,0,0,-1,1630,554,15.1896,-1.36679
413,470,6.55383,1.99207,0,0,0,0,0,0,0,-1,1637,554,6.5538,-1.99208
420,470,4.47095,0.845703,0,0,0,0,0,0,0,-1,1644,554,4.47098,-0.845718
427,470,3.51038,1.19684,0,0,0,0,0,0,0,-1,1651,554,3.51039,-1.19684
434,470,3.31775,-1.37427,0,0,0,0,0,0,0,-1,1658,554,3.31781,1.37426
441,470,2.55457,-2.05902,0,0,0,0,0,0,0,-1,1665,554,2.55461,2.05904
448,470,3.27258,-2.64032,0,0,0,0,0,0,0,-1,1672,554,3.27257,2.64029
455,470,10.3658,-9.82233,0,0,0,0,0,0,0,-1,1679,554,10.3659,9.82233
462,470,11.0651,-11.9958,0,0,0,0,0,0,0,-1,1686,554,11.0651,11.9958
469,470,15.4242,-19.0521,0,0,0,0,0,0,0,-1,1693,554,15.4242,19.0521
476,470,19.1918,-23.2538,0,0,0,0,0,0,0,-1,1700,554,19.1918,23.2538
483,470,19.174,-22.4489,0.00205273,4.19414e-05,-0.000809583,0.00233817,-0.000243494,-0.338963,0.00164596,0.0185055,1707,554,19.1739,22.4489
490,470,19.1254,-21.7326,0.00263821,0.000566751,-0.000566419,0.00278298,0.000421987,-0.250222,0.00173188,0.0120177,1714,554,19.1254,21.7326
497,470,19.1086,-20.9971,0.00243672,0.000985764,9.26275e-05,0.00244261,0.000979874,0.0634955,0.00141939,0.0126043,1721,554,19.1087,20.9972
504,470,19.1195,-20.3527,0.00203744,0.000957601,0.000571578,0.00228379,0.000711254,0.406936,0.00134944,0.0186165,1728,554,19.1196,20.3527
511,470,19.0981,-19.7296,0.00139324,0.000991159,0.0010012,0.00221338,0.000171012,0.686317,0.00142202,0.0260927,1735,554,19.0981,19.7295
518,470,19.0834,-18.9727,0.000504206,0.00105539,0.00140801,0.00221452,-0.000654924,0.882043,0.00173633,0.0266019,1742,554,19.0834,18.9727
525,470,19.0206,-18.1605,-0.000513149,0.00114784,0.0017951,0.00229525,-0.00166056,1.00206,0.00229367,0.0164592,1749,554,19.0206,18.1605
532,470,18.9255,-17.361,-0.00161207,0.00134975,0.00218549,0.00250881,-0.00277113,1.08317,0.00304963,0.013971,1756,554,18.9255,17.361
539,470,18.8663,-16.6137,-0.00276857,0.00159534,0.00255635,0.00277432,-0.00394755,1.13867,0.00390053,0.0165861,1763,554,18.8664,16.6137
546,470,18.8423,-15.8918,-0.00389589,0.00201137,0.00295129,0.00323314,-0.00511766,1.1783,0.00486209,0.0148846,1770,554,18.8423,15.8919
553,470,18.8894,-15.1438,-0.00488529,0.00260595,0.00339157,0.00391329,-0.00619263,1.20288,0.00588392,0.0259993,1777,554,18.8895,15.1438
560,470,18.8723,-14.2971,-0.00566468,0.00337872,0.0038738,0.00481119,-0.00709715,1.21661,0.00691737,0.0496853,1784,554,18.8723,14.2971
567,470,18.8422,-13.2836,0,0,0,0,0,0,0,-1,1791,554,18.8422,13.2836
574,470,14.2793,-8.07147,0,0,0,0,0,0,0,-1,1798,554,14.2793,8.07147
581,470,8.24646,-4.06317,0,0,0,0,0,0,0,-1,1805,554,8.24648,4.06318
588,470,11.1803,1.74927,0,0,0,0,0,0,0,-1,1812,554,11.1803,-1.74926
595,470,4.72192,3.44116,0,0,0,0,0,0,0,-1,1819,554,4.72191,-3.44116
602,470,14.4307,2.76141,0,0,0,0,0,0,0,-1,1826,554,14.4306,-2.76139
609,470,20.9181,4.41058,0,0,0,0,0,0,0,-1,1833,554,20.9181,-4.4106
616,470,0,0,0,0,0,0,0,0,0,-1,1840,554,0,0
623,470,0,0,0,0,0,0,0,0,0,-1,1847,554,0,0
630,470,0,0,0,0,0,0,0,0,0,-1,1854,554,0,0
637,470,0,0,0,0,0,0,0,0,0,-1,1861,554,0,0
644,470,0,0,0,0,0,0,0,0,0,-1,1868,554,0,0
651,470,0,0,0,0,0,0,0,0,0,-1,1875,554,0,0
658,470,0,0,0,0,0,0,0,0,0,-1,1882,554,0,0
665,470,0,0,0,0,0,0,0,0,0,-1,1889,554,0,0
672,470,0,0,0,0,0,0,0,0,0,-1,1896,554,0,0
679,470,0,0,0,0,0,0,0,0,0,-1,1903,554,0,0
686,470,0,0,0,0,0,0,0,0,0,-1,1910,554,0,0
693,470,0,0,0,0,0,0,0,0,0,-1,1917,554,0,0
700,470,0,0,0,0,0,0,0,0,0,-1,1924,554,0,0
707,470,0,0,0,0,0,0,0,0,0,-1,1931,554,0,0
714,470,0,0,0,0,0,0,0,0,0,-1,1938,554,0,0
721,470,0,0,0,0,0,0,0,0,0,-1,1945,554,0,0
728,470,0,0,0,0,0,0,0,0,0,-1,1952,554,0,0
735,470,0,0,0,0,0,0,0,0,0,-1,1959,554,0,0
742,470,0,0,0,0,0,0,0,0,0,-1,1966,554,0,0
749,470,0,0,0,0,0,0,0,0,0,-1,1973,554,0,0
756,470,0,0,0,0,0,0,0,0,0,-1,1980,554,0,0
763,470,0,0,0,0,0,0,0,0,0,-1,1987,554,0,0
770,470,0,0,0,0,0,0,0,0,0,-1,1994,554,0,0
777,470,0,0,0,0,0,0,0,0,0,-1,2001,554,0,0
784,470,0,0,0,0,0,0,0,0,0,-1,2008,554,0,0
791,470,0,0,0,0,0,0,0,0,0,-1,2015,554,0,0
798,470,0,0,0,0,0,0,0,0,0,-1,2022,554,0,0
805,470,0,0,0,0,0,0,0,0,0,-1,2029,554,0,0
812,470,0,0,0,0,0,0,0,0,0,-1,2036,554,0,0
-700,463,0,0,0,0,0,0,0,0,0,-1,524,561,0,0
-693,463,0,0,0,0,0,0,0,0,0,-1,531,561,0,0
-686,463,0,0,0,0,0,0,0,0,0,-1,538,561,0,0
-679,463,0,0,0,0,0,0,0,0,0,-1,545,561,0,0
-672,463,0,0,0,0,0,0,0,0,0,-1,552,561,0,0
-665,463,0,0,0,0,0,0,0,0,0,-1,559,561,0,0
-658,463,0,0,0,0,0,0,0,0,0,-1,566,561,0,0
-651,463,0,0,0,0,0,0,0,0,0,-1,573,561,0,0
-644,463,0,0,0,0,0,0,0,0,0,-1,580,561,0,0
-637,463,0,0,0,0,0,0,0,0,0,-1,587,561,0,0
-630,463,0,0,0,0,0,0,0,0,0,-1,594,561,0,0
-623,463,0,0,0,0,0,0,0,0,0,-1,601,561,0,0
-616,463,0,0,0,0,0,0,0,0,0,-1,608,561,0,0
-609,463,0,0,0,0,0,0,0,0,0,-1,615,561,0,0
-602,463,0,0,0,0,0,0,0,0,0,-1,622,561,0,0
-595,463,0,0,0,0,0,0,0,0,0,-1,629,561,0,0
-588,463,0,0,0,0,0,0,0,0,0,-1,636,561,0,0
-581,463,0,0,0,0,0,0,0,0,0,-1,643,561,0,0
-574,463,0,0,0,0,0,0,0,0,0,-1,650,561,0,0
-567,463,0,0,0,0,0,0,0,0,0,-1,657,561,0,0
-560,463,0,0,0,0,0,0,0,0,0,-1,664,561,0,0
-553,463,0,0,0,0,0,0,0,0,0,-1,671,561,0,0
-546,463,0,0,0,0,0,0,0,0,0,-1,678,561,0,0
-539,463,0,0,0,0,0,0,0,0,0,-1,685,561,0,0
-532,463,0,0,0,0,0,0,0,0,0,-1,692,561,0,0
-525,463,0,0,0,0,0,0,0,0,0,-1,699,561,0,0
-518,463,0,0,0,0,0,0,0,0,0,-1,706,561,0,0
-511,463,0,0,0,0,0,0,0,0,0,-1,713,561,0,0
-504,463,0,0,0,0,0,0,0,0,0,-1,720,561,0,0
-497,463,-9.81451,-1.67126,0,0,0,0,0,0,0,-1,727,561,-9.81452,1.67127
-490,463,-8.57043,-1.58942,0,0,0,0,0,0,0,-1,734,561,-8.57045,1.58944
-483,463,-7.29224,-1.7226,0,0,0,0,0,0,0,-1,741,561,-7.29226,1.72261
-476,463,-5.77704,-1.7312,0,0,0,0,0,0,0,-1,748,561,-5.77703,1.73121
-469,463,-5.14545,-2.138,0,0,0,0,0,0,0,-1,755,561,-5.14546,2.13799
-462,463,-3.13672,-3.07977,0,0,0,0,0,0,0,-1,762,561,-3.13672,3.07974
-455,463,-2.91406,-5.61798,0,0,0,0,0,0,0,-1,769,561,-2.91406,5.61801
-448,463,-4.00177,-8.54681,0,0,0,0,0,0,0,-1,776,561,-4.00175,8.54683
-441,463,-6.81421,-14.3172,0,0,0,0,0,0,0,-1,783,561,-6.81421,14.3172
-434,463,-6.88629,-15.5626,-0.00141274,0.010791,-0.00324421,0.0115998,-0.00222157,-1.32646,0.00857025,0.0322884,790,561,-6.88628,15.5626
-427,463,-6.94641,-16.301,-0.000950832,0.00907115,-0.00296604,0.00988317,-0.00176285,-1.30357,0.00724821,0.0111624,797,561,-6.94642,16.301
-420,463,-6.9574,-17.0226,-0.000527067,0.0074618,-0.00267752,0.00827617,-0.00134144,-1.27554,0.00601467,0.0102766,804,561,-6.95739,17.0227
-413,463,-6.98584,-17.7552,-0.000160601,0.00590586,-0.00233199,0.00669868,-0.00095342,-1.24308,0.00481516,0.0104936,811,561,-6.98581,17.7552
-406,463,-7.03198,-18.4669,0.000154683,0.00439318,-0.00187174,0.00510141,-0.000553548,-1.20907,0.00359967,0.01143,818,561,-7.03198,18.4669
-399,463,-7.06439,-19.1722,0.00051918,0.00307737,-0.00144701,0.00372957,-0.000133027,-1.14734,0.00253189,0.0125112,825,561,-7.06439,19.1722
-392,463,-7.1012,-19.8753,0.0009226,0.00181457,-0.00103351,0.00249422,0.000242953,-0.98909,0.00158804,0.0114896,832,561,-7.10117,19.8753
-385,463,-7.14252,-20.5852,0.00143632,0.000678969,-0.000705269,0.00185815,0.000257146,-0.539023,0.00116257,0.0118441,839,561,-7.1425,20.5852
-378,463,-7.16522,-21.2844,0.0019991,-0.000369565,-0.000352068,0.00205032,-0.000420787,-0.144476,0.0015266,0.0129319,846,561,-7.16523,21.2843
-371,463,-7.18103,-21.9951,0.00269463,-0.00130651,-0.000128626,0.00269876,-0.00131064,-0.0321032,0.00236062,0.0129346,853,561,-7.18105,21.995
-364,463,-7.20148,-22.6357,0.00341997,-0.00210719,4.80032e-05,0.00342038,-0.00210761,0.0086841,0.00322145,0.0154242,860,561,-7.20147,22.6357
-357,463,-7.24481,-23.2723,0.00426467,-0.00289657,6.83473e-05,0.00426532,-0.00289722,0.00954291,0.00416037,0.0214316,867,561,-7.24483,23.2723
-350,463,-7.15106,-24.0493,0.00520039,-0.0036533,-1.57115e-05,0.00520042,-0.00365332,-0.00177456,0.00513766,0.0444527,874,561,-7.15103,24.0492
-343,463,-6.83502,-24.7991,0,0,0,0,0,0,0,-1,881,561,-6.83503,24.7991
-336,463,-2.94928,-12.2127,0,0,0,0,0,0,0,-1,888,561,-2.94925,12.2127
-329,463,-2.64307,-12.7037,0,0,0,0,0,0,0,-1,895,561,-2.64307,12.7038
-322,463,-1.82898,-9.11957,0,0,0,0,0,0,0,-1,902,561,-1.829,9.11957
-315,463,-0.944763,-5.96234,0,0,0,0,0,0,0,-1,909,561,-0.94479,5.96237
-308,463,-1.1535,-3.17889,0,0,0,0,0,0,0,-1,916,561,-1.15352,3.17889
-301,463,-1.50366,-3.15338,0,0,0,0,0,0,0,-1,923,561,-1.50364,3.15341
-294,463,-2.35889,-3.93463,0,0,0,0,0,0,0,-1,930,561,-2.35886,3.93465
-287,463,-2.80322,2.73999,0,0,0,0,0,0,0,-1,937,561,-2.80322,-2.74
-280,463,-12.864,5.25146,0,0,0,0,0,0,0,-1,944,561,-12.864,-5.25149
-273,463,-12.4598,3.39178,0,0,0,0,0,0,0,-1,951,561,-12.4598,-3.3918
-266,463,-8.78101,-3.7356,0,0,0,0,0,0,0,-1,958,561,-8.78098,3.73562
-259,463,-6.23285,-5.68842,0,0,0,0,0,0,0,-1,965,561,-6.23288,5.68843
-252,463,0,0,0,0,0,0,0,0,0,-1,972,561,0,0
-245,463,0,0,0,0,0,0,0,0,0,-1,979,561,0,0
-238,463,0,0,0,0,0,0,0,0,0,-1,986,561,0,0
-231,463,0,0,0,0,0,0,0,0,0,-1,993,561,0,0
-224,463,0,0,0,0,0,0,0,0,0,-1,1000,561,0,0
-217,463,0,0,0,0,0,0,0,0,0,-1,1007,561,0,0
-210,463,0,0,0,0,0,0,0,0,0,-1,1014,561,0,0
-203,463,0,0,0,0,0,0,0,0,0,-1,1021,561,0,0
-196,463,0,0,0,0,0,0,0,0,0,-1,1028,561,0,0
-189,463,0,0,0,0,0,0,0,0,0,-1,1035,561,0,0
-182,463,0,0,0,0,0,0,0,0,0,-1,1042,561,0,0
-175,463,0,0,0,0,0,0,0,0,0,-1,1049,561,0,0
-168,463,0,0,0,0,0,0,0,0,0,-1,1056,561,0,0
-161,463,0,0,0,0,0,0,0,0,0,-1,1063,561,0,0
-154,463,0,0,0,0,0,0,0,0,0,-1,1070,561,0,0
-147,463,0,0,0,0,0,0,0,0,0,-1,1077,561,0,0
-140,463,0,0,0,0,0,0,0,0,0,-1,1084,561,0,0
-133,463,0,0,0,0,0,0,0,0,0,-1,1091,561,0,0
-126,463,0,0,0,0,0,0,0,0,0,-1,1098,561,0,0
-119,463,0,0,0,0,0,0,0,0,0,-1,1105,561,0,0
-112,463,0,0,0,0,0,0,0,0,0,-1,1112,561,0,0
-105,463,0,0,0,0,0,0,0,0,0,-1,1119,561,0,0
-98,463,0,0,0,0,0,0,0,0,0,-1,1126,561,0,0
-91,463,0,0,0,0,0,0,0,0,0,-1,1133,561,0,0
-84,463,0,0,0,0,0,0,0,0,0,-1,1140,561,0,0
-77,463,0,0,0,0,0,0,0,0,0,-1,1147,561,0,0
-70,463,0,0,0,0,0,0,0,0,0,-1,1154,561,0,0
-63,463,0,0,0,0,0,0,0,0,0,-1,1161,561,0,0
-56,463,0,0,0,0,0,0,0,0,0,-1,1168,561,0,0
-49,463,0,0,0,0,0,0,0,0,0,-1,1175,561,0,0
-42,463,0,0,0,0,0,0,0,0,0,-1,1182,561,0,0
-35,463,0,0,0,0,0,0,0,0,0,-1,1189,561,0,0
-28,463,0,0,0,0,0,0,0,0,0,-1,1196,561,0,0
-21,463,0,0,0,0,0,0,0,0,0,-1,1203,561,0,0
-14,463,0,0,0,0,0,0,0,0,0,-1,1210,561,0,0
-7,463,0,0,0,0,0,0,0,0,0,-1,1217,561,0,0
0,463,0,0,0,0,0,0,0,0,0,-1,1224,561,0,0
7,463,0,0,0,0,0,0,0,0,0,-1,1231,561,0,0
14,463,0,0,0,0,0,0,0,0,0,-1,1238,561,0,0
21,463,0,0,0,0,0,0,0,0,0,-1,1245,561,0,0
28,463,0,0,0,0,0,0,0,0,0,-1,1252,561,0,0
35,463,0,0,0,0,0,0,0,0,0,-1,1259,561,0,0
42,463,0,0,0,0,0,0,0,0,0,-1,1266,561,0,0
49,463,0,0,0,0,0,0,0,0,0,-1,1273,561,0,0
56,463,0,0,0,0,0,0,0,0,0,-1,1280,561,0,0
63,463,0,0,0,0,0,0,0,0,0,-1,1287,561,0,0
70,463,0,0,0,0,0,0,0,0,0,-1,1294,561,0,0
77,463,0,0,0,0,0,0,0,0,0,-1,1301,561,0,0
84,463,0,0,0,0,0,0,0,0,0,-1,1308,561,0,0
91,463,0,0,0,0,0,0,0,0,0,-1,1315,561,0,0
98,463,0,0,0,0,0,0,0,0,0,-1,1322,561,0,0
105,463,0,0,0,0,0,0,0,0,0,-1,1329,561,0,0
112,463,0,0,0,0,0,0,0,0,0,-1,1336,561,0,0
119,463,0,0,0,0,0,0,0,0,0,-1,1343,561,0,0
126,463,0,0,0,0,0,0,0,0,0,-1,1350,561,0,0
133,463,0,0,0,0,0,0,0,0,0,-1,1357,561,0,0
140,463,0,0,0,0,0,0,0,0,0,-1,1364,561,0,0
147,463,0,0,0,0,0,0,0,0,0,-1,1371,561,0,0
154,463,0,0,0,0,0,0,0,0,0,-1,1378,561,0,0
161,463,0,0,0,0,0,0,0,0,0,-1,1385,561,0,0
168,463,0,0,0,0,0,0,0,0,0,-1,1392,561,0,0
175,463,0,0,0,0,0,0,0,0,0,-1,1399,561,0,0
182,463,0,0,0,0,0,0,0,0,0,-1,1406,561,0,0
189,463,0,0,0,0,0,0,0,0,0,-1,1413,561,0,0
196,463,0,0,0,0,0,0,0,0,0,-1,1420,561,0,0
203,463,0,0,0,0,0,0,0,0,0,-1,1427,561,0,0
210,463,0,0,0,0,0,0,0,0,0,-1,1434,561,0,0
217,463,0,0,0,0,0,0,0,0,0,-1,1441,561,0,0
224,463,0,0,0,0,0,0,0,0,0,-1,1448,561,0,0
231,463,0,0,0,0,0,0,0,0,0,-1,1455,561,0,0
238,463,0,0,0,0,0,0,0,0,0,-1,1462,561,0,0
245,463,0,0,0,0,0,0,0,0,0,-1,1469,561,0,0
252,463,0,0,0,0,0,0,0,0,0,-1,1476,561,0,0
259,463,0,0,0,0,0,0,0,0,0,-1,1483,561,0,0
266,463,0,0,0,0,0,0,0,0,0,-1,1490,561,0,0
273,463,0,0,0,0,0,0,0,0,0,-1,1497,561,0,0
280,463,0,0,0,0,0,0,0,0,0,-1,1504,561,0,0
287,463,0,0,0,0,0,0,0,0,0,-1,1511,561,0,0
294,463,0,0,0,0,0,0,0,0,0,-1,1518,561,0,0
301,463,0,0,0,0,0,0,0,0,0,-1,1525,561,0,0
308,463,0,0,0,0,0,0,0,0,0,-1,1532,561,0,0
315,463,0,0,0,0,0,0,0,0,0,-1,1539,561,0,0
322,463,0,0,0,0,0,0,0,0,0,-1,1546,561,0,0
329,463,0,0,0,0,0,0,0,0,0,-1,1553,561,0,0
336,463,0,0,0,0,0,0,0,0,0,-1,1560,561,0,0
343,463,0,0,0,0,0,0,0,0,0,-1,1567,561,0,0
350,463,0,0,0,0,0,0,0,0,0,-1,1574,561,0,0
357,463,0,0,0,0,0,0,0,0,0,-1,1581,561,0,0
364,463,0,0,0,0,0,0,0,0,0,-1,1588,561,0,0
371,463,1.75842,0.152588,0,0,0,0,0,0,0,-1,1595,561,1.75844,-0.152558
378,463,4.58813,-0.0444336,0,0,0,0,0,0,0,-1,1602,561,4.58809,0.0444505
385,463,8.88574,1.65057,0,0,0,0,0,0,0,-1,1609,561,8.88575,-1.65055
392,463,14.0912,2.50513,0,0,0,0,0,0,0,-1,1616,561,14.0912,-2.5051
399,463,21.4769,2.7002,0,0,0,0,0,0,0,-1,1623,561,21.477,-2.70017
406,463,26.2987,4.32318,0,0,0,0,0,0,0,-1,1630,561,26.2987,-4.3232
413,463,26.5011,2.65222,0,0,0,0,0,0,0,-1,1637,561,26.5011,-2.65224
420,463,8.849,2.26611,0,0,0,0,0,0,0,-1,1644,561,8.84899,-2.26613
427,463,5.12207,1.69183,0,0,0,0,0,0,0,-1,1651,561,5.12206,-1.69184
434,463,4.59814,1.81995,0,0,0,0,0,0,0,-1,1658,561,4.59812,-1.81994
441,463,1.76392,-5.99225,0,0,0,0,0,0,0,-1,1665,561,1.7639,5.99225
448,463,2.49939,-4.30536,0,0,0,0,0,0,0,-1,1672,561,2.49941,4.30536
455,463,4.40295,-3.02557,0,0,0,0,0,0,0,-1,1679,561,4.40299,3.02558
462,463,5.38293,-4.06445,0,0,0,0,0,0,0,-1,1686,561,5.38289,4.06444
469,463,5.94373,-4.50647,0,0,0,0,0,0,0,-1,1693,561,5.94368,4.50646
476,463,15.2559,-17.3189,0,0,0,0,0,0,0,-1,1700,561,15.2558,17.3189
483,463,19.8785,-22.5019,0,0,0,0,0,0,0,-1,1707,561,19.8785,22.5019
490,463,19.8431,-21.6901,0.00260222,-6.61222e-05,-0.00104138,0.00296052,-0.00042443,-0.331383,0.00212931,0.0273376,1714,561,19.8432,21.6901
497,463,19.8176,-20.9725,0.00243972,0.000536992,-0.000245321,0.00247084,0.000505871,-0.126182,0.00150717,0.0142428,1721,561,19.8176,20.9725
504,463,19.8333,-20.2957,0.0021507,0.000620168,0.000285791,0.00220233,0.000568545,0.178707,0.00132016,0.015683,1728,561,19.8332,20.2957
511,463,19.8059,-19.629,0.00179089,0.000776007,0.000757832,0.00219548,0.000371413,0.490385,0.0013569,0.0220251,1735,561,19.806,19.629
518,463,19.7958,-18.8724,0.00136698,0.000950016,0.00121802,0.00239423,-7.72309e-05,0.700636,0.00162251,0.0234485,1742,561,19.7958,18.8724
525,463,19.7502,-18.1431,0.000956934,0.00118723,0.00161191,0.0026881,-0.000543938,0.821055,0.00199821,0.0192193,1749,561,19.7502,18.1431
532,463,19.7076,-17.3501,0.000600682,0.00153443,0.00196175,0.00308409,-0.000948983,0.902219,0.00243483,0.0172578,1756,561,19.7076,17.3501
539,463,19.6123,-16.5562,0.000292317,0.00192478,0.0022593,0.00351077,-0.00129367,0.958741,0.00287061,0.0199162,1763,561,19.6123,16.5562
546,463,19.5742,-15.8859,5.89738e-05,0.00249378,0.00253987,0.00409294,-0.00154018,1.00888,0.00336176,0.0155551,1770,561,19.5742,15.8859
553,463,19.5941,-15.155,-8.18444e-05,0.00316917,0.00282571,0.00480356,-0.00171623,1.04641,0.00390235,0.011389,1777,561,19.5941,15.155
560,463,19.6158,-14.2338,-6.86326e-05,0.00398659,0.00315907,0.00571276,-0.00179481,1.07071,0.00452697,0.0236069,1784,561,19.6158,14.2338
567,463,19.4391,-13.4951,3.94284e-06,0.004891,0.00356695,0.00677112,-0.00187618,1.08571,0.00525238,0.0357398,1791,561,19.4391,13.4951
574,463,19.5148,-12.7435,0,0,0,0,0,0,0,-1,1798,561,19.5148,12.7435
581,463,9.4939,-3.88245,0,0,0,0,0,0,0,-1,1805,561,9.49392,3.88245
588,463,1.97424,2.16016,0,0,0,0,0,0,0,-1,1812,561,1.97422,-2.16013
595,463,9.98657,2.99854,0,0,0,0,0,0,0,-1,1819,561,9.98662,-2.99856
602,463,17.2202,4.91302,0,0,0,0,0,0,0,-1,1826,561,17.2202,-4.91305
609,463,17.96,4.03131,0,0,0,0,0,0,0,-1,1833,561,17.96,-4.03132
616,463,20.8352,3.15131,0,0,0,0,0,0,0,-1,1840,561,20.8352,-3.1513
623,463,0,0,0,0,0,0,0,0,0,-1,1847,561,0,0
630,463,0,0,0,0,0,0,0,0,0,-1,1854,561,0,0
637,463,0,0,0,0,0,0,0,0,0,-1,1861,561,0,0
644,463,0,0,0,0,0,0,0,0,0,-1,1868,561,0,0
651,463,0,0,0,0,0,0,0,0,0,-1,1875,561,0,0
658,463,0,0,0,0,0,0,0,0,0,-1,1882,561,0,0
665,463,0,0,0,0,0,0,0,0,0,-1,1889,561,0,0
672,463,0,0,0,0,0,0,0,0,0,-1,1896,561,0,0
679,463,0,0,0,0,0,0,0,0,0,-1,1903,561,0,0
686,463,0,0,0,0,0,0,0,0,0,-1,1910,561,0,0
693,463,0,0,0,0,0,0,0,0,0,-1,1917,561,0,0
700,463,0,0,0,0,0,0,0,0,0,-1,1924,561,0,0
707,463,0,0,0,0,0,0,0,0,0,-1,1931,561,0,0
714,463,0,0,0,0,0,0,0,0,0,-1,1938,561,0,0
721,463,0,0,0,0,0,0,0,0,0,-1,1945,561,0,0
728,463,0,0,0,0,0,0,0,0,0,-1,1952,561,0,0
735,463,0,0,0,0,0,0,0,0,0,-1,1959,561,0,0
742,463,0,0,0,0,0,0,0,0,0,-1,1966,561,0,0
749,463,0,0,0,0,0,0,0,0,0,-1,1973,561,0,0
756,463,0,0,0,0,0,0,0,0,0,-1,1980,561,0,0
763,463,0,0,0,0,0,0,0,0,0,-1,1987,561,0,0
770,463,0,0,0,0,0,0,0,0,0,-1,1994,561,0,0
777,463,0,0,0,0,0,0,0,0,0,-1,2001,561,0,0
784,463,0,0,0,0,0,0,0,0,0,-1,2008,561,0,0
791,463,0,0,0,0,0,0,0,0,0,-1,2015,561,0,0
798,463,0,0,0,0,0,0,0,0,0,-1,2022,561,0,0
805,463,0,0,0,0,0,0,0,0,0,-1,2029,561,0,0
812,463,0,0,0,0,0,0,0,0,0,-1,2036,561,0,0
-700,456,0,0,0,0,0,0,0,0,0,-1,524,568,0,0
-693,456,0,0,0,0,0,0,0,0,0,-1,531,568,0,0
-686,456,0,0,0,0,0,0,0,0,0,-1,538,568,0,0
-679,456,0,0,0,0,0,0,0,0,0,-1,545,568,0,0
-672,456,0,0,0,0,0,0,0,0,0,-1,552,568,0,0
-665,456,0,0,0,0,0,0,0,0,0,-1,559,568,0,0
-658,456,0,0,0,0,0,0,0,0,0,-1,566,568,0,0
-651,456,0,0,0,0,0,0,0,0,0,-1,573,568,0,0
-644,456,0,0,0,0,0,0,0,0,0,-1,580,568,0,0
-637,456,0,0,0,0,0,0,0,0,0,-1,587,568,0,0
-630,456,0,0,0,0,0,0,0,0,0,-1,594,568,0,0
-623,456,0,0,0,0,0,0,0,0,0,-1,601,568,0,0
-616,456,0,0,0,0,0,0,0,0,0,-1,608,568,0,0
-609,456,0,0,0,0,0,0,0,0,0,-1,615,568,0,0
-602,456,0,0,0,0,0,0,0,0,0,-1,622,568,0,0
-595,456,0,0,0,0,0,0,0,0,0,-1,629,568,0,0
-588,456,0,0,0,0,0,0,0,0,0,-1,636,568,0,0
-581,456,0,0,0,0,0,0,0,0,0,-1,643,568,0,0
-574,456,0,0,0,0,0,0,0,0,0,-1,650,568,0,0
-567,456,0,0,0,0,0,0,0,0,0,-1,657,568,0,0
-560,456,0,0,0,0,0,0,0,0,0,-1,664,568,0,0
-553,456,0,0,0,0,0,0,0,0,0,-1,671,568,0,0
-546,456,0,0,0,0,0,0,0,0,0,-1,678,568,0,0
-539,456,0,0,0,0,0,0,0,0,0,-1,685,568,0,0
-532,456,0,0,0,0,0,0,0,0,0,-1,692,568,0,0
-525,456,0,0,0,0,0,0,0,0,0,-1,699,568,0,0
-518,456,0,0,0,0,0,0,0,0,0,-1,706,568,0,0
-511,456,0,0,0,0,0,0,0,0,0,-1,713,568,0,0
-504,456,-10.3994,-2.34839,0,0,0,0,0,0,0,-1,720,568,-10.3994,2.3484
-497,456,-9.21375,-2.38068,0,0,0,0,0,0,0,-1,727,568,-9.21372,2.38069
-490,456,-8.09058,-2.31824,0,0,0,0,0,0,0,-1,734,568,-8.09057,2.31821
-483,456,-6.66119,-2.24329,0,0,0,0,0,0,0,-1,741,568,-6.66121,2.24331
-476,456,-5.1499,-2.21185,0,0,0,0,0,0,0,-1,748,568,-5.14992,2.21184
-469,456,-2.81238,-3.51501,0,0,0,0,0,0,0,-1,755,568,-2.81237,3.51501
-462,456,-4.2431,-5.27478,0,0,0,0,0,0,0,-1,762,568,-4.24312,5.27476
-455,456,-5.98364,-8.72119,0,0,0,0,0,0,0,-1,769,568,-5.98364,8.72122
-448,456,-7.19971,-13.4815,0,0,0,0,0,0,0,-1,776,568,-7.19972,13.4815
-441,456,-7.47107,-14.72,-0.00151003,0.010142,-0.00293684,0.0108404,-0.00220839,-1.33734,0.00806446,0.0385549,783,568,-7.47107,14.72
-434,456,-7.62177,-15.5563,-0.0010254,0.00838572,-0.00264845,0.00907984,-0.00171952,-1.31447,0.00670036,0.0197281,790,568,-7.62179,15.5563
-427,456,-7.64526,-16.2783,-0.000618366,0.00681185,-0.00231012,0.00747152,-0.00127804,-1.29264,0.00545714,0.00978725,797,568,-7.64525,16.2784
-420,456,-7.6684,-16.9959,-0.000233781,0.00534993,-0.00197794,0.00597958,-0.000863431,-1.2626,0.00430317,0.00970367,804,568,-7.6684,16.9959
-413,456,-7.69885,-17.712,9.31462e-05,0.00390962,-0.00159814,0.00449044,-0.000487675,-1.2222,0.00316872,0.00945838,811,568,-7.69885,17.712
-406,456,-7.75507,-18.4081,0.000396804,0.00251135,-0.00113554,0.00300562,-9.74642e-05,-1.16026,0.00203701,0.00946885,818,568,-7.75507,18.4081
-399,456,-7.7926,-19.1163,0.000790344,0.00135584,-0.000756705,0.0018809,0.000265289,-0.964195,0.00117552,0.0114222,825,568,-7.79259,19.1164
-392,456,-7.81396,-19.8232,0.0012377,0.000279243,-0.000409271,0.00138868,0.000128262,-0.353413,0.000886131,0.0115426,832,568,-7.81397,19.8233
-385,456,-7.83301,-20.5258,0.00180545,-0.000615089,-0.000171207,0.00181749,-0.000627139,-0.0702649,0.00146612,0.0111225,839,568,-7.833,20.5258
-378,456,-7.86823,-21.2345,0.00245226,-0.00139798,7.65215e-05,0.00245378,-0.0013995,0.019864,0.00225228,0.011804,846,568,-7.86825,21.2345
-371,456,-7.89154,-21.9278,0.00330687,-0.00197446,0.000192934,0.00331391,-0.0019815,0.0364665,0.0030894,0.0126163,853,568,-7.89152,21.9278
-364,456,-7.89423,-22.5833,0.00425179,-0.00226422,0.000183665,0.00425697,-0.00226939,0.028157,0.0038258,0.0273064,860,568,-7.8942,22.5833
-357,456,-7.82007,-23.3203,0,0,0,0,0,0,0,-1,867,568,-7.82006,23.3203
-350,456,-7.62488,-24.2856,0,0,0,0,0,0,0,-1,874,568,-7.62485,24.2856
-343,456,-3.39081,-12.0217,0,0,0,0,0,0,0,-1,881,568,-3.39078,12.0217
-336,456,-3.04517,-12.4623,0,0,0,0,0,0,0,-1,888,568,-3.04519,12.4624
-329,456,-1.06183,-10.7184,0,0,0,0,0,0,0,-1,895,568,-1.06184,10.7184
-322,456,-0.662537,-7.66632,0,0,0,0,0,0,0,-1,902,568,-0.662564,7.66633
-315,456,-0.675476,-3.38397,0,0,0,0,0,0,0,-1,909,568,-0.675473,3.38399
-308,456,-1.1618,-3.15314,0,0,0,0,0,0,0,-1,916,568,-1.16178,3.15314
-301,456,-1.83551,-3.26447,0,0,0,0,0,0,0,-1,923,568,-1.8355,3.26449
-294,456,-2.93414,-3.35449,0,0,0,0,0,0,0,-1,930,568,-2.93413,3.35451
-287,456,-3.7569,-3.53101,0,0,0,0,0,0,0,-1,937,568,-3.75692,3.53101
-280,456,-13.072,4.52856,0,0,0,0,0,0,0,-1,944,568,-13.072,-4.52855
-273,456,-8.26538,-6.66748,0,0,0,0,0,0,0,-1,951,568,-8.26536,6.66745
-266,456,-5.71527,-9.36884,0,0,0,0,0,0,0,-1,958,568,-5.71529,9.36885
-259,456,0,0,0,0,0,0,0,0,0,-1,965,568,0,0
-252,456,0,0,0,0,0,0,0,0,0,-1,972,568,0,0
-245,456,0,0,0,0,0,0,0,0,0,-1,979,568,0,0
-238,456,0,0,0,0,0,0,0,0,0,-1,986,568,0,0
-231,456,0,0,0,0,0,0,0,0,0,-1,993,568,0,0
-224,456,0,0,0,0,0,0,0,0,0,-1,1000,568,0,0
-217,456,0,0,0,0,0,0,0,0,0,-1,1007,568,0,0
-210,456,0,0,0,0,0,0,0,0,0,-1,1014,568,0,0
-203,456,0,0,0,0,0,0,0,0,0,-1,1021,568,0,0
-196,456,0,0,0,0,0,0,0,0,0,-1,1028,568,0,0
-189,456,0,0,0,0,0,0,0,0,0,-1,1035,568,0,0
-182,456,0,0,0,0,0,0,0,0,0,-1,1042,568,0,0
-175,456,0,0,0,0,0,0,0,0,0,-1,1049,568,0,0
-168,456,0,0,0,0,0,0,0,0,0,-1,1056,568,0,0
-161,456,0,0,0,0,0,0,0,0,0,-1,1063,568,0,0
-154,456,0,0,0,0,0,0,0,0,0,-1,1070,568,0,0
-147,456,0,0,0,0,0,0,0,0,0,-1,1077,568,0,0
-140,456,0,0,0,0,0,0,0,0,0,-1,1084,568,0,0
-133,456,0,0,0,0,0,0,0,0,0,-1,1091,568,0,0
-126,456,0,0,0,0,0,0,0,0,0,-1,1098,568,0,0
-119,456,0,0,0,0,0,0,0,0,0,-1,1105,568,0,0
-112,456,0,0,0,0,0,0,0,0,0,-1,1112,568,0,0
-105,456,0,0,0,0,0,0,0,0,0,-1,1119,568,0,0
-98,456,0,0,0,0,0,0,0,0,0,-1,1126,568,0,0
-91,456,0,0,0,0,0,0,0,0,0,-1,1133,568,0,0
-84,456,0,0,0,0,0,0,0,0,0,-1,1140,568,0,0
-77,456,0,0,0,0,0,0,0,0,0,-1,1147,568,0,0
-70,456,0,0,0,0,0,0,0,0,0,-1,1154,568,0,0
-63,456,0,0,0,0,0,0,0,0,0,-1,1161,568,0,0
-56,456,0,0,0,0,0,0,0,0,0,-1,1168,568,0,0
-49,456,0,0,0,0,0,0,0,0,0,-1,1175,568,0,0
-42,456,0,0,0,0,0,0,0,0,0,-1,1182,568,0,0
-35,456,0,0,0,0,0,0,0,0,0,-1,1189,568,0,0
-28,456,0,0,0,0,0,0,0,0,0,-1,1196,568,0,0
-21,456,0,0,0,0,0,0,0,0,0,-1,1203,568,0,0
-14,456,0,0,0,0,0,0,0,0,0,-1,1210,568,0,0
-7,456,0,0,0,0,0,0,0,0,0,-1,1217,568,0,0
0,456,0,0,0,0,0,0,0,0,0,-1,1224,568,0,0
7,456,0,0,0,0,0,0,0,0,0,-1,1231,568,0,0
14,456,0,0,0,0,0,0,0,0,0,-1,1238,568,0,0
21,456,0,0,0,0,0,0,0,0,0,-1,1245,568,0,0
28,456,0,0,0,0,0,0,0,0,0,-1,1252,568,0,0
35,456,0,0,0,0,0,0,0,0,0,-1,1259,568,0,0
42,456,0,0,0,0,0,0,0,0,0,-1,1266,568,0,0
49,456,0,0,0,0,0,0,0,0,0,-1,1273,568,0,0
56,456,0,0,0,0,0,0,0,0,0,-1,1280,568,0,0
63,456,0,0,0,0,0,0,0,0,0,-1,1287,568,0,0
70,456,0,0,0,0,0,0,0,0,0,-1,1294,568,0,0
77,456,0,0,0,0,0,0,0,0,0,-1,1301,568,0,0
84,456,0,0,0,0,0,0,0,0,0,-1,1308,568,0,0
91,456,0,0,0,0,0,0,0,0,0,-1,1315,568,0,0
98,456,0,0,0,0,0,0,0,0,0,-1,1322,568,0,0
105,456,0,0,0,0,0,0,0,0,0,-1,1329,568,0,0
112,456,0,0,0,0,0,0,0,0,0,-1,1336,568,0,0
119,456,0,0,0,0,0,0,0,0,0,-1,1343,568,0,0
126,456,0,0,0,0,0,0,0,0,0,-1,1350,568,0,0
133,456,0,0,0,0,0,0,0,0,0,-1,1357,568,0,0
140,456,0,0,0,0,0,0,0,0,0,-1,1364,568,0,0
147,456,0,0,0,0,0,0,0,0,0,-1,1371,568,0,0
154,456,0,0,0,0,0,0,0,0,0,-1,1378,568,0,0
161,456,0,0,0,0,0,0,0,0,0,-1,1385,568,0,0
168,456,0,0,0,0,0,0,0,0,0,-1,1392,568,0,0
175,456,0,0,0,0,0,0,0,0,0,-1,1399,568,0,0
182,456,0,0,0,0,0,0,0,0,0,-1,1406,568,0,0
189,456,0,0,0,0,0,0,0,0,0,-1,1413,568,0,0
196,456,0,0,0,0,0,0,0,0,0,-1,1420,568,0,0
203,456,0,0,0,0,0,0,0,0,0,-1,1427,568,0,0
210,456,0,0,0,0,0,0,0,0,0,-1,1434,568,0,0
217,456,0,0,0,0,0,0,0,0,0,-1,1441,568,0,0
224,456,0,0,0,0,0,0,0,0,0,-1,1448,568,0,0
231,456,0,0,0,0,0,0,0,0,0,-1,1455,568,0,0
238,456,0,0,0,0,0,0,0,0,0,-1,1462,568,0,0
245,456,0,0,0,0,0,0,0,0,0,-1,1469,568,0,0
252,456,0,0,0,0,0,0,0,0,0,-1,1476,568,0,0
259,456,0,0,0,0,0,0,0,0,0,-1,1483,568,0,0
266,456,0,0,0,0,0,0,0,0,0,-1,1490,568,0,0
273,456,0,0,0,0,0,0,0,0,0,-1,1497,568,0,0
280,456,0,0,0,0,0,0,0,0,0,-1,1504,568,0,0
287,456,0,0,0,0,0,0,0,0,0,-1,1511,568,0,0
294,456,0,0,0,0,0,0,0,0,0,-1,1518,568,0,0
301,456,0,0,0,0,0,0,0,0,0,-1,1525,568,0,0
308,456,0,0,0,0,0,0,0,0,0,-1,1532,568,0,0
315,456,0,0,0,0,0,0,0,0,0,-1,1539,568,0,0
322,456,0,0,0,0,0,0,0,0,0,-1,1546,568,0,0
329,456,0,0,0,0,0,0,0,0,0,-1,1553,568,0,0
336,456,0,0,0,0,0,0,0,0,0,-1,1560,568,0,0
343,456,0,0,0,0,0,0,0,0,0,-1,1567,568,0,0
350,456,0,0,0,0,0,0,0,0,0,-1,1574,568,0,0
357,456,0,0,0,0,0,0,0,0,0,-1,1581,568,0,0
364,456,0,0,0,0,0,0,0,0,0,-1,1588,568,0,0
371,456,0,0,0,0,0,0,0,0,0,-1,1595,568,0,0
378,456,0,0,0,0,0,0,0,0,0,-1,1602,568,0,0
385,456,5.66284,0.660645,0,0,0,0,0,0,0,-1,1609,568,5.66285,-0.660615
392,456,17.5027,4.32971,0,0,0,0,0,0,0,-1,1616,568,17.5026,-4.32971
399,456,24.1917,5.99652,0,0,0,0,0,0,0,-1,1623,568,24.1916,-5.99651
406,456,24.446,4.53003,0,0,0,0,0,0,0,-1,1630,568,24.446,-4.53005
413,456,24.9418,2.90521,0,0,0,0,0,0,0,-1,1637,568,24.9418,-2.90524
420,456,25.3048,1.04712,0,0,0,0,0,0,0,-1,1644,568,25.3048,-1.04713
427,456,6.21375,2.02905,0,0,0,0,0,0,0,-1,1651,568,6.21372,-2.02904
434,456,3.0719,-4.86285,0,0,0,0,0,0,0,-1,1658,568,3.07184,4.86287
441,456,2.90344,-4.70459,0,0,0,0,0,0,0,-1,1665,568,2.90346,4.7046
448,456,3.06995,-4.93689,0,0,0,0,0,0,0,-1,1672,568,3.06991,4.93687
455,456,3.46582,-3.43701,0,0,0,0,0,0,0,-1,1679,568,3.46585,3.43698
462,456,4.68445,-4.45831,0,0,0,0,0,0,0,-1,1686,568,4.68439,4.45833
469,456,4.93201,-2.289,0,0,0,0,0,0,0,-1,1693,568,4.93197,2.28903
476,456,4.8363,-2.79364,0,0,0,0,0,0,0,-1,1700,568,4.83636,2.79363
483,456,12.8522,-13.692,0,0,0,0,0,0,0,-1,1707,568,12.8522,13.6919
490,456,20.5087,-21.729,0,0,0,0,0,0,0,-1,1714,568,20.5087,21.729
497,456,20.5153,-20.9561,0,0,0,0,0,0,0,-1,1721,568,20.5152,20.9561
504,456,20.49,-20.2501,0.00304602,0.000237266,0.000360836,0.00309164,0.000191651,0.125748,0.00200027,0.0149864,1728,568,20.4899,20.2501
511,456,20.5115,-19.5367,0.002527,0.000455082,0.000704513,0.00274385,0.000238224,0.298609,0.00175522,0.0137201,1735,568,20.5114,19.5367
518,456,20.4938,-18.8064,0.00200408,0.00065587,0.00107862,0.00260192,5.80336e-05,0.506109,0.00171559,0.0165812,1742,568,20.4938,18.8064
525,456,20.4299,-18.0773,0.00147629,0.000942985,0.00136848,0.00260386,-0.000184581,0.689177,0.00180059,0.0174123,1749,568,20.4299,18.0773
532,456,20.4222,-17.3016,0.00102864,0.00131447,0.00161378,0.00279165,-0.000448548,0.829562,0.00202723,0.0172403,1756,568,20.4223,17.3016
539,456,20.3652,-16.4822,0.000666141,0.00171614,0.00182938,0.00309437,-0.000712084,0.925134,0.00233672,0.0231415,1763,568,20.3652,16.4823
546,456,20.2998,-15.803,0.000395072,0.00227284,0.00203787,0.0035777,-0.000909793,1.00126,0.00273923,0.025866,1770,568,20.2998,15.803
553,456,20.2646,-15.069,0.000202528,0.00288299,0.0022677,0.0041769,-0.00109138,1.05229,0.00321082,0.0138469,1777,568,20.2647,15.0689
560,456,20.2625,-14.3383,0.000158701,0.00359964,0.00257764,0.00497824,-0.0012199,1.07967,0.00379145,0.0104719,1784,568,20.2625,14.3383
567,456,20.2363,-13.5536,0.000261249,0.0044477,0.00302096,0.00602977,-0.00132082,1.08837,0.00452484,0.0201742,1791,568,20.2363,13.5536
574,456,20.2164,-12.8055,0,0,0,0,0,0,0,-1,1798,568,20.2164,12.8055
581,456,16.2228,-9.08563,0,0,0,0,0,0,0,-1,1805,568,16.2228,9.08562
588,456,5.23901,-0.0901489,0,0,0,0,0,0,0,-1,1812,568,5.23906,0.0901656
595,456,6.90063,3.14886,0,0,0,0,0,0,0,-1,1819,568,6.90066,-3.14887
602,456,16.894,4.10938,0,0,0,0,0,0,0,-1,1826,568,16.8941,-4.1094
609,456,14.9966,3.5708,0,0,0,0,0,0,0,-1,1833,568,14.9966,-3.57083
616,456,17.7407,2.6579,0,0,0,0,0,0,0,-1,1840,568,17.7408,-2.6579
623,456,20.6838,1.7121,0,0,0,0,0,0,0,-1,1847,568,20.6838,-1.71208
630,456,0,0,0,0,0,0,0,0,0,-1,1854,568,0,0
637,456,0,0,0,0,0,0,0,0,0,-1,1861,568,0,0
644,456,0,0,0,0,0,0,0,0,0,-1,1868,568,0,0
651,456,0,0,0,0,0,0,0,0,0,-1,1875,568,0,0
658,456,0,0,0,0,0,0,0,0,0,-1,1882,568,0,0
665,456,0,0,0,0,0,0,0,0,0,-1,1889,568,0,0
672,456,0,0,0,0,0,0,0,0,0,-1,1896,568,0,0
679,456,0,0,0,0,0,0,0,0,0,-1,1903,568,0,0
686,456,0,0,0,0,0,0,0,0,0,-1,1910,568,0,0
693,456,0,0,0,0,0,0,0,0,0,-1,1917,568,0,0
700,456,0,0,0,0,0,0,0,0,0,-1,1924,568,0,0
707,456,0,0,0,0,0,0,0,0,0,-1,1931,568,0,0
714,456,0,0,0,0,0,0,0,0,0,-1,1938,568,0,0
721,456,0,0,0,0,0,0,0,0,0,-1,1945,568,0,0
728,456,0,0,0,0,0,0,0,0,0,-1,1952,568,0,0
735,456,0,0,0,0,0,0,0,0,0,-1,1959,568,0,0
742,456,0,0,0,0,0,0,0,0,0,-1,1966,568,0,0
749,456,0,0,0,0,0,0,0,0,0,-1,1973,568,0,0
756,456,0,0,0,0,0,0,0,0,0,-1,1980,568,0,0
763,456,0,0,0,0,0,0,0,0,0,-1,1987,568,0,0
770,456,0,0,0,0,0,0,0,0,0,-1,1994,568,0,0
777,456,0,0,0,0,0,0,0,0,0,-1,2001,568,0,0
784,456,0,0,0,0,0,0,0,0,0,-1,2008,568,0,0
791,456,0,0,0,0,0,0,0,0,0,-1,2015,568,0,0
798,456,0,0,0,0,0,0,0,0,0,-1,2022,568,0,0
805,456,0,0,0,0,0,0,0,0,0,-1,2029,568,0,0
812,456,0,0,0,0,0,0,0,0,0,-1,2036,568,0,0
-700,449,0,0,0,0,0,0,0,0,0,-1,524,575,0,0
-693,449,0,0,0,0,0,0,0,0,0,-1,531,575,0,0
-686,449,0,0,0,0,0,0,0,0,0,-1,538,575,0,0
-679,449,0,0,0,0,0,0,0,0,0,-1,545,575,0,0
-672,449,0,0,0,0,0,0,0,0,0,-1,552,575,0,0
-665,449,0,0,0,0,0,0,0,0,0,-1,559,575,0,0
-658,449,0,0,0,0,0,0,0,0,0,-1,566,575,0,0
-651,449,0,0,0,0,0,0,0,0,0,-1,573,575,0,0
-644,449,0,0,0,0,0,0,0,0,0,-1,580,575,0,0
-637,449,0,0,0,0,0,0,0,0,0,-1,587,575,0,0
-630,449,0,0,0,0,0,0,0,0,0,-1,594,575,0,0
-623,449,0,0,0,0,0,0,0,0,0,-1,601,575,0,0
-616,449,0,0,0,0,0,0,0,0,0,-1,608,575,0,0
-609,449,0,0,0,0,0,0,0,0,0,-1,615,575,0,0
-602,449,0,0,0,0,0,0,0,0,0,-1,622,575,0,0
-595,449,0,0,0,0,0,0,0,0,0,-1,629,575,0,0
-588,449,0,0,0,0,0,0,0,0,0,-1,636,575,0,0
-581,449,0,0,0,0,0,0,0,0,0,-1,643,575,0,0
-574,449,0,0,0,0,0,0,0,0,0,-1,650,575,0,0
-567,449,0,0,0,0,0,0,0,0,0,-1,657,575,0,0
-560,449,0,0,0,0,0,0,0,0,0,-1,664,575,0,0
-553,449,0,0,0,0,0,0,0,0,0,-1,671,575,0,0
-546,449,0,0,0,0,0,0,0,0,0,-1,678,575,0,0
-539,449,0,0,0,0,0,0,0,0,0,-1,685,575,0,0
-532,449,0,0,0,0,0,0,0,0,0,-1,692,575,0,0
-525,449,0,0,0,0,0,0,0,0,0,-1,699,575,0,0
-518,449,0,0,0,0,0,0,0,0,0,-1,706,575,0,0
-511,449,-0.941345,-4.4519,0,0,0,0,0,0,0,-1,713,575,-0.941356,4.45191
-504,449,-14.1078,0.318237,0,0,0,0,0,0,0,-1,720,575,-14.1078,-0.318231
-497,449,-8.61292,-3.09009,0,0,0,0,0,0,0,-1,727,575,-8.61291,3.09011
-490,449,-7.50995,-2.96252,0,0,0,0,0,0,0,-1,734,575,-7.50995,2.96251
-483,449,-5.77789,-2.50061,0,0,0,0,0,0,0,-1,741,575,-5.77792,2.50059
-476,449,-4.1723,-2.07739,0,0,0,0,0,0,0,-1,748,575,-4.17228,2.0774
-469,449,-5.0976,-5.78448,0,0,0,0,0,0,0,-1,755,575,-5.09758,5.78451
-462,449,-6.54181,-9.54535,0,0,0,0,0,0,0,-1,762,575,-6.54178,9.54536
-455,449,-8.60126,-12.9476,0,0,0,0,0,0,0,-1,769,575,-8.60126,12.9476
-448,449,-8.25128,-13.9327,-0.00151506,0.00924897,-0.00258663,0.00983828,-0.00210437,-1.34679,0.00736127,0.0492642,776,575,-8.25128,13.9327
-441,449,-8.23944,-14.8709,-0.00101921,0.00774103,-0.00234036,0.00832707,-0.00160525,-1.32544,0.00615662,0.0229206,783,575,-8.23942,14.8709
-434,449,-8.34259,-15.5523,-0.000593582,0.00629578,-0.00204427,0.0068567,-0.00115451,-1.303,0.0050006,0.015529,790,575,-8.34261,15.5523
-427,449,-8.35602,-16.2405,-0.000238044,0.00495778,-0.00170162,0.00546545,-0.000745714,-1.28086,0.00391594,0.0136269,797,575,-8.35604,16.2405
-420,449,-8.37573,-16.9559,0.000115824,0.0037097,-0.00136999,0.00417238,-0.000346854,-1.2451,0.00290411,0.0127734,804,575,-8.37573,16.9558
-413,449,-8.40216,-17.6716,0.000410322,0.00244304,-0.000988484,0.00284446,8.90589e-06,-1.18505,0.00189334,0.0108927,811,575,-8.40214,17.6716
-406,449,-8.45538,-18.3802,0.000697497,0.00119979,-0.000549199,0.00155254,0.000344745,-0.999851,0.000941396,0.00986503,818,575,-8.45536,18.3802
-399,449,-8.50635,-19.091,0.0011017,0.000194134,-0.000227454,0.00115551,0.00014032,-0.232319,0.000728091,0.00942073,825,575,-8.50637,19.091
-392,449,-8.51978,-19.7882,0.00157093,-0.000741272,4.27175e-05,0.00157172,-0.000742061,0.0184664,0.00136419,0.0106921,832,575,-8.5198,19.7882
-385,449,-8.54181,-20.4784,0.0021527,-0.00149992,0.000194049,0.00216298,-0.0015102,0.0529274,0.00213185,0.0120002,839,575,-8.54179,20.4784
-378,449,-8.58112,-21.1717,0.00283711,-0.00218431,0.000344491,0.00286063,-0.00220783,0.0681788,0.00293436,0.0107205,846,575,-8.58109,21.1717
-371,449,-8.58636,-21.889,0.00380623,-0.00261231,0.000374908,0.00382805,-0.00263414,0.0581465,0.00375211,0.020057,853,575,-8.58637,21.889
-364,449,-8.50269,-22.6427,0,0,0,0,0,0,0,-1,860,575,-8.50271,22.6427
-357,449,-5.88049,-15.8704,0,0,0,0,0,0,0,-1,867,575,-5.88051,15.8704
-350,449,-2.8764,-9.90204,0,0,0,0,0,0,0,-1,874,575,-2.87638,9.90203
-343,449,-2.98492,-9.2254,0,0,0,0,0,0,0,-1,881,575,-2.98491,9.22541
-336,449,-1.29523,-9.54626,0,0,0,0,0,0,0,-1,888,575,-1.29525,9.54626
-329,449,-0.733398,-7.78937,0,0,0,0,0,0,0,-1,895,575,-0.733398,7.78937
-322,449,-0.628845,-3.16669,0,0,0,0,0,0,0,-1,902,575,-0.628861,3.16667
-315,449,-0.540344,-3.21918,0,0,0,0,0,0,0,-1,909,575,-0.540336,3.21917
-308,449,-1.04413,-2.99341,0,0,0,0,0,0,0,-1,916,575,-1.04415,2.99338
-301,449,-1.58691,-2.80725,0,0,0,0,0,0,0,-1,923,575,-1.58692,2.80728
-294,449,-3.71118,-2.76086,0,0,0,0,0,0,0,-1,930,575,-3.71119,2.76087
-287,449,-4.4082,-2.69525,0,0,0,0,0,0,0,-1,937,575,-4.40822,2.69526
-280,449,0.723999,-14.2697,0,0,0,0,0,0,0,-1,944,575,0.723977,14.2696
-273,449,0,0,0,0,0,0,0,0,0,-1,951,575,0,0
-266,449,0,0,0,0,0,0,0,0,0,-1,958,575,0,0
-259,449,0,0,0,0,0,0,0,0,0,-1,965,575,0,0
-252,449,0,0,0,0,0,0,0,0,0,-1,972,575,0,0
-245,449,0,0,0,0,0,0,0,0,0,-1,979,575,0,0
-238,449,0,0,0,0,0,0,0,0,0,-1,986,575,0,0
-231,449,0,0,0,0,0,0,0,0,0,-1,993,575,0,0
-224,449,0,0,0,0,0,0,0,0,0,-1,1000,575,0,0
-217,449,0,0,0,0,0,0,0,0,0,-1,1007,575,0,0
-210,449,0,0,0,0,0,0,0,0,0,-1,1014,575,0,0
-203,449,0,0,0,0,0,0,0,0,0,-1,1021,575,0,0
-196,449,0,0,0,0,0,0,0,0,0,-1,1028,575,0,0
-189,449,0,0,0,0,0,0,0,0,0,-1,1035,575,0,0
-182,449,0,0,0,0,0,0,0,0,0,-1,1042,575,0,0
-175,449,0,0,0,0,0,0,0,0,0,-1,1049,575,0,0
-168,449,0,0,0,0,0,0,0,0,0,-1,1056,575,0,0
-161,449,0,0,0,0,0,0,0,0,0,-1,1063,575,0,0
-154,449,0,0,0,0,0,0,0,0,0,-1,1070,575,0,0
-147,449,0,0,0,0,0,0,0,0,0,-1,1077,575,0,0
-140,449,0,0,0,0,0,0,0,0,0,-1,1084,575,0,0
-133,449,0,0,0,0,0,0,0,0,0,-1,1091,575,0,0
-126,449,0,0,0,0,0,0,0,0,0,-1,1098,575,0,0
-119,449,0,0,0,0,0,0,0,0,0,-1,1105,575,0,0
-112,449,0,0,0,0,0,0,0,0,0,-1,1112,575,0,0
-105,449,0,0,0,0,0,0,0,0,0,-1,1119,575,0,0
-98,449,0,0,0,0,0,0,0,0,0,-1,1126,575,0,0
-91,449,0,0,0,0,0,0,0,0,0,-1,1133,575,0,0
-84,449,0,0,0,0,0,0,0,0,0,-1,1140,575,0,0
-77,449,0,0,0,0,0,0,0,0,0,-1,1147,575,0,0
-70,449,0,0,0,0,0,0,0,0,0,-1,1154,575,0,0
-63,449,0,0,0,0,0,0,0,0,0,-1,1161,575,0,0
-56,449,0,0,0,0,0,0,0,0,0,-1,1168,575,0,0
-49,449,0,0,0,0,0,0,0,0,0,-1,1175,575,0,0
-42,449,0,0,0,0,0,0,0,0,0,-1,1182,575,0,0
-35,449,0,0,0,0,0,0,0,0,0,-1,1189,575,0,0
-28,449,0,0,0,0,0,0,0,0,0,-1,1196,575,0,0
-21,449,0,0,0,0,0,0,0,0,0,-1,1203,575,0,0
-14,449,0,0,0,0,0,0,0,0,0,-1,1210,575,0,0
-7,449,0,0,0,0,0,0,0,0,0,-1,1217,575,0,0
0,449,0,0,0,0,0,0,0,0,0,-1,1224,575,0,0
7,449,0,0,0,0,0,0,0,0,0,-1,1231,575,0,0
14,449,0,0,0,0,0,0,0,0,0,-1,1238,575,0,0
21,449,0,0,0,0,0,0,0,0,0,-1,1245,575,0,0
28,449,0,0,0,0,0,0,0,0,0,-1,1252,575,0,0
35,449,0,0,0,0,0,0,0,0,0,-1,1259,575,0,0
42,449,0,0,0,0,0,0,0,0,0,-1,1266,575,0,0
49,449,0,0,0,0,0,0,0,0,0,-1,1273,575,0,0
56,449,0,0,0,0,0,0,0,0,0,-1,1280,575,0,0
63,449,0,0,0,0,0,0,0,0,0,-1,1287,575,0,0
70,449,0,0,0,0,0,0,0,0,0,-1,1294,575,0,0
77,449,0,0,0,0,0,0,0,0,0,-1,1301,575,0,0
84,449,0,0,0,0,0,0,0,0,0,-1,1308,575,0,0
91,449,0,0,0,0,0,0,0,0,0,-1,1315,575,0,0
98,449,0,0,0,0,0,0,0,0,0,-1,1322,575,0,0
105,449,0,0,0,0,0,0,0,0,0,-1,1329,575,0,0
112,449,0,0,0,0,0,0,0,0,0,-1,1336,575,0,0
119,449,0,0,0,0,0,0,0,0,0,-1,1343,575,0,0
126,449,0,0,0,0,0,0,0,0,0,-1,1350,575,0,0
133,449,0,0,0,0,0,0,0,0,0,-1,1357,575,0,0
140,449,0,0,0,0,0,0,0,0,0,-1,1364,575,0,0
147,449,0,0,0,0,0,0,0,0,0,-1,1371,575,0,0
154,449,0,0,0,0,0,0,0,0,0,-1,1378,575,0,0
161,449,0,0,0,0,0,0,0,0,0,-1,1385,575,0,0
168,449,0,0,0,0,0,0,0,0,0,-1,1392,575,0,0
175,449,0,0,0,0,0,0,0,0,0,-1,1399,575,0,0
182,449,0,0,0,0,0,0,0,0,0,-1,1406,575,0,0
189,449,0,0,0,0,0,0,0,0,0,-1,1413,575,0,0
196,449,0,0,0,0,0,0,0,0,0,-1,1420,575,0,0
203,449,0,0,0,0,0,0,0,0,0,-1,1427,575,0,0
210,449,0,0,0,0,0,0,0,0,0,-1,1434,575,0,0
217,449,0,0,0,0,0,0,0,0,0,-1,1441,575,0,0
224,449,0,0,0,0,0,0,0,0,0,-1,1448,575,0,0
231,449,0,0,0,0,0,0,0,0,0,-1,1455,575,0,0
238,449,0,0,0,0,0,0,0,0,0,-1,1462,575,0,0
245,449,0,0,0,0,0,0,0,0,0,-1,1469,575,0,0
252,449,0,0,0,0,0,0,0,0,0,-1,1476,575,0,0
259,449,0,0,0,0,0,0,0,0,0,-1,1483,575,0,0
266,449,0,0,0,0,0,0,0,0,0,-1,1490,575,0,0
273,449,0,0,0,0,0,0,0,0,0,-1,1497,575,0,0
280,449,0,0,0,0,0,0,0,0,0,-1,1504,575,0,0
287,449,0,0,0,0,0,0,0,0,0,-1,1511,575,0,0
294,449,0,0,0,0,0,0,0,0,0,-1,1518,575,0,0
301,449,0,0,0,0,0,0,0,0,0,-1,1525,575,0,0
308,449,0,0,0,0,0,0,0,0,0,-1,1532,575,0,0
315,449,0,0,0,0,0,0,0,0,0,-1,1539,575,0,0
322,449,0,0,0,0,0,0,0,0,0,-1,1546,575,0,0
329,449,0,0,0,0,0,0,0,0,0,-1,1553,575,0,0
336,449,0,0,0,0,0,0,0,0,0,-1,1560,575,0,0
343,449,0,0,0,0,0,0,0,0,0,-1,1567,575,0,0
350,449,0,0,0,0,0,0,0,0,0,-1,1574,575,0,0
357,449,0,0,0,0,0,0,0,0,0,-1,1581,575,0,0
364,449,0,0,0,0,0,0,0,0,0,-1,1588,575,0,0
371,449,0,0,0,0,0,0,0,0,0,-1,1595,575,0,0
378,449,0,0,0,0,0,0,0,0,0,-1,1602,575,0,0
385,449,0,0,0,0,0,0,0,0,0,-1,1609,575,0,0
392,449,7.95471,3.66217,0,0,0,0,0,0,0,-1,1616,575,7.95471,-3.66218
399,449,19.9791,5.565,0,0,0,0,0,0,0,-1,1623,575,19.9791,-5.56499
406,449,24.9847,4.55969,0,0,0,0,0,0,0,-1,1630,575,24.9848,-4.55968
413,449,30.4159,3.15027,0,0,0,0,0,0,0,-1,1637,575,30.4159,-3.15028
420,449,23.9675,1.29718,0,0,0,0,0,0,0,-1,1644,575,23.9675,-1.29721
427,449,24.4276,-0.596558,0,0,0,0,0,0,0,-1,1651,575,24.4277,0.596569
434,449,25.61,-2.96594,0,0,0,0,0,0,0,-1,1658,575,25.61,2.96595
441,449,3.89856,-6.06458,0,0,0,0,0,0,0,-1,1665,575,3.89855,6.06459
448,449,4.03198,-5.18207,0,0,0,0,0,0,0,-1,1672,575,4.03197,5.18207
455,449,4.21948,-4.09467,0,0,0,0,0,0,0,-1,1679,575,4.21952,4.09465
462,449,4.23181,-2.96924,0,0,0,0,0,0,0,-1,1686,575,4.23185,2.96926
469,449,4.51672,-2.95135,0,0,0,0,0,0,0,-1,1693,575,4.51672,2.95135
476,449,4.71838,-1.86688,0,0,0,0,0,0,0,-1,1700,575,4.71842,1.86689
483,449,4.87878,-1.73126,0,0,0,0,0,0,0,-1,1707,575,4.87875,1.73128
490,449,5.73279,-2.74573,0,0,0,0,0,0,0,-1,1714,575,5.73282,2.74575
497,449,17.2095,-16.4381,0,0,0,0,0,0,0,-1,1721,575,17.2094,16.4381
504,449,21.1243,-20.2672,0,0,0,0,0,0,0,-1,1728,575,21.1243,20.2671
511,449,21.2173,-19.5009,0.00322191,0.000371947,0.000949707,0.00350939,8.44697e-05,0.293933,0.00231195,0.0142918,1735,575,21.2173,19.5009
518,449,21.2114,-18.7614,0.00274375,0.000447888,0.00120268,0.0032584,-6.67633e-05,0.404342,0.00219486,0.0137907,1742,575,21.2115,18.7614
525,449,21.1455,-18.0375,0.00220526,0.000666428,0.00135743,0.00299617,-0.000124479,0.527566,0.0020402,0.0140036,1749,575,21.1455,18.0375
532,449,21.0884,-17.3008,0.00174015,0.000964015,0.00146998,0.00287242,-0.000168258,0.656345,0.00197343,0.0114216,1756,575,21.0883,17.3008
539,449,21.0394,-16.5324,0.00136499,0.00131525,0.00158245,0.00292276,-0.000242522,0.777541,0.00203417,0.015942,1763,575,21.0394,16.5324
546,449,21.0264,-15.7687,0.0010606,0.00180446,0.00169756,0.00317035,-0.000305296,0.893243,0.00222233,0.0281949,1770,575,21.0263,15.7687
553,449,20.9884,-15.0602,0.000791112,0.0023292,0.00184291,0.00355709,-0.000436776,0.983063,0.00252959,0.0190506,1777,575,20.9884,15.0602
560,449,20.9855,-14.3283,0.00063227,0.00294691,0.00207454,0.00416511,-0.00058593,1.03983,0.00299124,0.0139051,1784,575,20.9855,14.3283
567,449,20.9319,-13.5618,0.000633547,0.00372504,0.00244705,0.00507367,-0.000715082,1.06709,0.00364427,0.00990049,1791,575,20.9319,13.5618
574,449,20.9283,-12.7871,0.000631581,0.00459713,0.0028733,0.00610537,-0.000876667,1.08741,0.00439174,0.0241805,1798,575,20.9284,12.7871
581,449,20.9701,-11.82,0,0,0,0,0,0,0,-1,1805,575,20.97,11.82
588,449,12.3274,-4.5672,0,0,0,0,0,0,0,-1,1812,575,12.3274,4.5672
595,449,15.9352,-5.65479,0,0,0,0,0,0,0,-1,1819,575,15.9352,5.65478
602,449,9.46167,4.17444,0,0,0,0,0,0,0,-1,1826,575,9.46164,-4.17442
609,449,12.2028,3.18652,0,0,0,0,0,0,0,-1,1833,575,12.2027,-3.18655
616,449,14.9438,2.19867,0,0,0,0,0,0,0,-1,1840,575,14.9438,-2.19867
623,449,9.83789,-0.0820313,0,0,0,0,0,0,0,-1,1847,575,9.83794,0.0820443
630,449,8.90686,4.99329,0,0,0,0,0,0,0,-1,1854,575,8.90685,-4.99327
637,449,0,0,0,0,0,0,0,0,0,-1,1861,575,0,0
644,449,0,0,0,0,0,0,0,0,0,-1,1868,575,0,0
651,449,0,0,0,0,0,0,0,0,0,-1,1875,575,0,0
658,449,0,0,0,0,0,0,0,0,0,-1,1882,575,0,0
665,449,0,0,0,0,0,0,0,0,0,-1,1889,575,0,0
672,449,0,0,0,0,0,0,0,0,0,-1,1896,575,0,0
679,449,0,0,0,0,0,0,0,0,0,-1,1903,575,0,0
686,449,0,0,0,0,0,0,0,0,0,-1,1910,575,0,0
693,449,0,0,0,0,0,0,0,0,0,-1,1917,575,0,0
700,449,0,0,0,0,0,0,0,0,0,-1,1924,575,0,0
707,449,0,0,0,0,0,0,0,0,0,-1,1931,575,0,0
714,449,0,0,0,0,0,0,0,0,0,-1,1938,575,0,0
721,449,0,0,0,0,0,0,0,0,0,-1,1945,575,0,0
728,449,0,0,0,0,0,0,0,0,0,-1,1952,575,0,0
735,449,0,0,0,0,0,0,0,0,0,-1,1959,575,0,0
742,449,0,0,0,0,0,0,0,0,0,-1,1966,575,0,0
749,449,0,0,0,0,0,0,0,0,0,-1,1973,575,0,0
756,449,0,0,0,0,0,0,0,0,0,-1,1980,575,0,0
763,449,0,0,0,0,0,0,0,0,0,-1,1987,575,0,0
770,449,0,0,0,0,0,0,0,0,0,-1,1994,575,0,0
777,449,0,0,0,0,0,0,0,0,0,-1,2001,575,0,0
784,449,0,0,0,0,0,0,0,0,0,-1,2008,575,0,0
791,449,0,0,0,0,0,0,0,0,0,-1,2015,575,0,0
798,449,0,0,0,0,0,0,0,0,0,-1,2022,575,0,0
805,449,0,0,0,0,0,0,0,0,0,-1,2029,575,0,0
812,449,0,0,0,0,0,0,0,0,0,-1,2036,575,0,0
-700,442,0,0,0,0,0,0,0,0,0,-1,524,582,0,0
-693,442,0,0,0,0,0,0,0,0,0,-1,531,582,0,0
-686,442,0,0,0,0,0,0,0,0,0,-1,538,582,0,0
-679,442,0,0,0,0,0,0,0,0,0,-1,545,582,0,0
-672,442,0,0,0,0,0,0,0,0,0,-1,552,582,0,0
-665,442,0,0,0,0,0,0,0,0,0,-1,559,582,0,0
-658,442,0,0,0,0,0,0,0,0,0,-1,566,582,0,0
-651,442,0,0,0,0,0,0,0,0,0,-1,573,582,0,0
-644,442,0,0,0,0,0,0,0,0,0,-1,580,582,0,0
-637,442,0,0,0,0,0,0,0,0,0,-1,587,582,0,0
-630,442,0,0,0,0,0,0,0,0,0,-1,594,582,0,0
-623,442,0,0,0,0,0,0,0,0,0,-1,601,582,0,0
-616,442,0,0,0,0,0,0,0,0,0,-1,608,582,0,0
-609,442,0,0,0,0,0,0,0,0,0,-1,615,582,0,0
-602,442,0,0,0,0,0,0,0,0,0,-1,622,582,0,0
-595,442,0,0,0,0,0,0,0,0,0,-1,629,582,0,0
-588,442,0,0,0,0,0,0,0,0,0,-1,636,582,0,0
-581,442,0,0,0,0,0,0,0,0,0,-1,643,582,0,0
-574,442,0,0,0,0,0,0,0,0,0,-1,650,582,0,0
-567,442,0,0,0,0,0,0,0,0,0,-1,657,582,0,0
-560,442,0,0,0,0,0,0,0,0,0,-1,664,582,0,0
-553,442,0,0,0,0,0,0,0,0,0,-1,671,582,0,0
-546,442,0,0,0,0,0,0,0,0,0,-1,678,582,0,0
-539,442,0,0,0,0,0,0,0,0,0,-1,685,582,0,0
-532,442,0,0,0,0,0,0,0,0,0,-1,692,582,0,0
-525,442,0,0,0,0,0,0,0,0,0,-1,699,582,0,0
-518,442,-0.493774,-5.72943,0,0,0,0,0,0,0,-1,706,582,-0.493791,5.72946
-511,442,-1.33008,-6.18512,0,0,0,0,0,0,0,-1,713,582,-1.33006,6.18511
-504,442,-3.20807,-6.34082,0,0,0,0,0,0,0,-1,720,582,-3.2081,6.34083
-497,442,-13.6886,-0.250122,0,0,0,0,0,0,0,-1,727,582,-13.6886,0.250143
-490,442,-9.09039,-3.64862,0,0,0,0,0,0,0,-1,734,582,-9.09037,3.64861
-483,442,-7.36499,-1.01892,0,0,0,0,0,0,0,-1,741,582,-7.365,1.01895
-476,442,-4.84784,-4.44141,0,0,0,0,0,0,0,-1,748,582,-4.84787,4.44138
-469,442,-8.87708,-10.934,0,0,0,0,0,0,0,-1,755,582,-8.87707,10.934
-462,442,-8.59888,-11.8783,0,0,0,0,0,0,0,-1,762,582,-8.59888,11.8783
-455,442,-8.98834,-13.1725,0,0,0,0,0,0,0,-1,769,582,-8.98835,13.1726
-448,442,-8.92938,-14.0432,-0.00119673,0.00694061,-0.00197118,0.00739296,-0.00164908,-1.34522,0.00556045,0.0211321,776,582,-8.92939,14.0432
-441,442,-8.99036,-14.7767,-0.000692775,0.00567788,-0.00176222,0.00613285,-0.00114774,-1.31814,0.00451998,0.0148601,783,582,-8.99036,14.7767
-434,442,-9.04077,-15.5169,-0.000271294,0.00444043,-0.00148343,0.00486857,-0.000699432,-1.28982,0.00350221,0.0144516,790,582,-9.04078,15.5169
-427,442,-9.0755,-16.2245,8.51269e-05,0.00327151,-0.00115991,0.00364902,-0.000292379,-1.25615,0.00253576,0.0132673,797,582,-9.07553,16.2246
-420,442,-9.10327,-16.9294,0.000446911,0.00218879,-0.000849954,0.0025348,0.000100905,-1.18419,0.00165725,0.0136649,804,582,-9.10329,16.9294
-413,442,-9.11426,-17.6327,0.000741578,0.00107663,-0.000482629,0.00141998,0.000398226,-0.952447,0.000845761,0.0115868,811,582,-9.11425,17.6327
-406,442,-9.15814,-18.3484,0.0010325,-7.77623e-07,-8.18203e-05,0.00103894,-7.21653e-06,-0.0785331,0.000695043,0.00987563,818,582,-9.15812,18.3484
-399,442,-9.21826,-19.0599,0.001452,-0.000843269,0.000176809,0.00146554,-0.000856809,0.076431,0.00135608,0.00904058,825,582,-9.21827,19.0599
-392,442,-9.23566,-19.7428,0.00194001,-0.0015911,0.000362734,0.00197689,-0.00162798,0.101315,0.00208452,0.0111289,832,582,-9.23563,19.7428
-385,442,-9.26733,-20.4308,0.00251065,-0.00215495,0.000426549,0.00254933,-0.00219363,0.0904253,0.00274091,0.013436,839,582,-9.26731,20.4308
-378,442,-9.28467,-21.158,0.0031974,-0.00269107,0.000479321,0.00323616,-0.00272984,0.0806919,0.0034486,0.0181164,846,582,-9.28466,21.158
-371,442,-9.24231,-21.9705,0,0,0,0,0,0,0,-1,853,582,-9.24233,21.9705
-364,442,-6.89764,-17.5333,0,0,0,0,0,0,0,-1,860,582,-6.89765,17.5333
-357,442,-4.9115,-11.2649,0,0,0,0,0,0,0,-1,867,582,-4.91147,11.2649
-350,442,-1.75372,-6.27618,0,0,0,0,0,0,0,-1,874,582,-1.75371,6.27618
-343,442,-1.4599,-4.63605,0,0,0,0,0,0,0,-1,881,582,-1.4599,4.63607
-336,442,-1.4054,-2.64313,0,0,0,0,0,0,0,-1,888,582,-1.40539,2.64315
-329,442,-0.952576,-2.76923,0,0,0,0,0,0,0,-1,895,582,-0.952571,2.7692
-322,442,-0.972534,-2.63208,0,0,0,0,0,0,0,-1,902,582,-0.972512,2.6321
-315,442,-0.445557,-2.89764,0,0,0,0,0,0,0,-1,909,582,-0.445582,2.89765
-308,442,-0.654175,-3.07831,0,0,0,0,0,0,0,-1,916,582,-0.654145,3.07832
-301,442,-1.37427,-2.41455,0,0,0,0,0,0,0,-1,923,582,-1.37425,2.41453
-294,442,-2.99963,-2.07855,0,0,0,0,0,0,0,-1,930,582,-2.99964,2.07857
-287,442,3.91034,-10.1913,0,0,0,0,0,0,0,-1,937,582,3.91034,10.1913
-280,442,0,0,0,0,0,0,0,0,0,-1,944,582,0,0
-273,442,0,0,0,0,0,0,0,0,0,-1,951,582,0,0
-266,442,0,0,0,0,0,0,0,0,0,-1,958,582,0,0
-259,442,0,0,0,0,0,0,0,0,0,-1,965,582,0,0
-252,442,0,0,0,0,0,0,0,0,0,-1,972,582,0,0
-245,442,0,0,0,0,0,0,0,0,0,-1,979,582,0,0
-238,442,0,0,0,0,0,0,0,0,0,-1,986,582,0,0
-231,442,0,0,0,0,0,0,0,0,0,-1,993,582,0,0
-224,442,0,0,0,0,0,0,0,0,0,-1,1000,582,0,0
-217,442,0,0,0,0,0,0,0,0,0,-1,1007,582,0,0
-210,442,0,0,0,0,0,0,0,0,0,-1,1014,582,0,0
-203,442,0,0,0,0,0,0,0,0,0,-1,1021,582,0,0
-196,442,0,0,0,0,0,0,0,0,0,-1,1028,582,0,0
-189,442,0,0,0,0,0,0,0,0,0,-1,1035,582,0,0
-182,442,0,0,0,0,0,0,0,0,0,-1,1042,582,0,0
-175,442,0,0,0,0,0,0,0,0,0,-1,1049,582,0,0
-168,442,0,0,0,0,0,0,0,0,0,-1,1056,582,0,0
-161,442,0,0,0,0,0,0,0,0,0,-1,1063,582,0,0
-154,442,0,0,0,0,0,0,0,0,0,-1,1070,582,0,0
-147,442,0,0,0,0,0,0,0,0,0,-1,1077,582,0,0
-140,442,0,0,0,0,0,0,0,0,0,-1,1084,582,0,0
-133,442,0,0,0,0,0,0,0,0,0,-1,1091,582,0,0
-126,442,0,0,0,0,0,0,0,0,0,-1,1098,582,0,0
-119,442,0,0,0,0,0,0,0,0,0,-1,1105,582,0,0
-112,442,0,0,0,0,0,0,0,0,0,-1,1112,582,0,0
-105,442,0,0,0,0,0,0,0,0,0,-1,1119,582,0,0
-98,442,0,0,0,0,0,0,0,0,0,-1,1126,582,0,0
-91,442,0,0,0,0,0,0,0,0,0,-1,1133,582,0,0
-84,442,0,0,0,0,0,0,0,0,0,-1,1140,582,0,0
-77,442,0,0,0,0,0,0,0,0,0,-1,1147,582,0,0
-70,442,0,0,0,0,0,0,0,0,0,-1,1154,582,0,0
-63,442,0,0,0,0,0,0,0,0,0,-1,1161,582,0,0
-56,442,0,0,0,0,0,0,0,0,0,-1,1168,582,0,0
-49,442,0,0,0,0,0,0,0,0,0,-1,1175,582,0,0
-42,442,0,0,0,0,0,0,0,0,0,-1,1182,582,0,0
-35,442,0,0,0,0,0,0,0,0,0,-1,1189,582,0,0
-28,442,0,0,0,0,0,0,0,0,0,-1,1196,582,0,0
-21,442,0,0,0,0,0,0,0,0,0,-1,1203,582,0,0
-14,442,0,0,0,0,0,0,0,0,0,-1,1210,582,0,0
-7,442,0,0,0,0,0,0,0,0,0,-1,1217,582,0,0
0,442,0,0,0,0,0,0,0,0,0,-1,1224,582,0,0
7,442,0,0,0,0,0,0,0,0,0,-1,1231,582,0,0
14,442,0,0,0,0,0,0,0,0,0,-1,1238,582,0,0
21,442,0,0,0,0,0,0,0,0,0,-1,1245,582,0,0
28,442,0,0,0,0,0,0,0,0,0,-1,1252,582,0,0
35,442,0,0,0,0,0,0,0,0,0,-1,1259,582,0,0
42,442,0,0,0,0,0,0,0,0,0,-1,1266,582,0,0
49,442,0,0,0,0,0,0,0,0,0,-1,1273,582,0,0
56,442,0,0,0,0,0,0,0,0,0,-1,1280,582,0,0
63,442,0,0,0,0,0,0,0,0,0,-1,1287,582,0,0
70,442,0,0,0,0,0,0,0,0,0,-1,1294,582,0,0
77,442,0,0,0,0,0,0,0,0,0,-1,1301,582,0,0
84,442,0,0,0,0,0,0,0,0,0,-1,1308,582,0,0
91,442,0,0,0,0,0,0,0,0,0,-1,1315,582,0,0
98,442,0,0,0,0,0,0,0,0,0,-1,1322,582,0,0
105,442,0,0,0,0,0,0,0,0,0,-1,1329,582,0,0
112,442,0,0,0,0,0,0,0,0,0,-1,1336,582,0,0
119,442,0,0,0,0,0,0,0,0,0,-1,1343,582,0,0
126,442,0,0,0,0,0,0,0,0,0,-1,1350,582,0,0
133,442,0,0,0,0,0,0,0,0,0,-1,1357,582,0,0
140,442,0,0,0,0,0,0,0,0,0,-1,1364,582,0,0
147,442,0,0,0,0,0,0,0,0,0,-1,1371,582,0,0
154,442,0,0,0,0,0,0,0,0,0,-1,1378,582,0,0
161,442,0,0,0,0,0,0,0,0,0,-1,1385,582,0,0
168,442,0,0,0,0,0,0,0,0,0,-1,1392,582,0,0
175,442,0,0,0,0,0,0,0,0,0,-1,1399,582,0,0
182,442,0,0,0,0,0,0,0,0,0,-1,1406,582,0,0
189,442,0,0,0,0,0,0,0,0,0,-1,1413,582,0,0
196,442,0,0,0,0,0,0,0,0,0,-1,1420,582,0,0
203,442,0,0,0,0,0,0,0,0,0,-1,1427,582,0,0
210,442,0,0,0,0,0,0,0,0,0,-1,1434,582,0,0
217,442,0,0,0,0,0,0,0,0,0,-1,1441,582,0,0
224,442,0,0,0,0,0,0,0,0,0,-1,1448,582,0,0
231,442,0,0,0,0,0,0,0,0,0,-1,1455,582,0,0
238,442,0,0,0,0,0,0,0,0,0,-1,1462,582,0,0
245,442,0,0,0,0,0,0,0,0,0,-1,1469,582,0,0
252,442,0,0,0,0,0,0,0,0,0,-1,1476,582,0,0
259,442,0,0,0,0,0,0,0,0,0,-1,1483,582,0,0
266,442,0,0,0,0,0,0,0,0,0,-1,1490,582,0,0
273,442,0,0,0,0,0,0,0,0,0,-1,1497,582,0,0
280,442,0,0,0,0,0,0,0,0,0,-1,1504,582,0,0
287,442,0,0,0,0,0,0,0,0,0,-1,1511,582,0,0
294,442,0,0,0,0,0,0,0,0,0,-1,1518,582,0,0
301,442,0,0,0,0,0,0,0,0,0,-1,1525,582,0,0
308,442,0,0,0,0,0,0,0,0,0,-1,1532,582,0,0
315,442,0,0,0,0,0,0,0,0,0,-1,1539,582,0,0
322,442,0,0,0,0,0,0,0,0,0,-1,1546,582,0,0
329,442,0,0,0,0,0,0,0,0,0,-1,1553,582,0,0
336,442,0,0,0,0,0,0,0,0,0,-1,1560,582,0,0
343,442,0,0,0,0,0,0,0,0,0,-1,1567,582,0,0
350,442,0,0,0,0,0,0,0,0,0,-1,1574,582,0,0
357,442,0,0,0,0,0,0,0,0,0,-1,1581,582,0,0
364,442,0,0,0,0,0,0,0,0,0,-1,1588,582,0,0
371,442,0,0,0,0,0,0,0,0,0,-1,1595,582,0,0
378,442,0,0,0,0,0,0,0,0,0,-1,1602,582,0,0
385,442,0,0,0,0,0,0,0,0,0,-1,1609,582,0,0
392,442,0,0,0,0,0,0,0,0,0,-1,1616,582,0,0
399,442,0,0,0,0,0,0,0,0,0,-1,1623,582,0,0
406,442,17.6321,4.08295,0,0,0,0,0,0,0,-1,1630,582,17.6321,-4.08293
413,442,25.4768,2.74445,0,0,0,0,0,0,0,-1,1637,582,25.4768,-2.74444
420,442,22.7478,1.55011,0,0,0,0,0,0,0,-1,1644,582,22.7478,-1.55009
427,442,23.2969,-0.456787,0,0,0,0,0,0,0,-1,1651,582,23.2968,0.456769
434,442,23.9512,-2.49365,0,0,0,0,0,0,0,-1,1658,582,23.9512,2.49366
441,442,24.8251,-4.43958,0,0,0,0,0,0,0,-1,1665,582,24.8251,4.43956
448,442,4.7749,-5.88562,0,0,0,0,0,0,0,-1,1672,582,4.7749,5.8856
455,442,4.87024,-4.60687,0,0,0,0,0,0,0,-1,1679,582,4.87019,4.60686
462,442,5.02307,-3.72821,0,0,0,0,0,0,0,-1,1686,582,5.02311,3.7282
469,442,5.12976,-2.98834,0,0,0,0,0,0,0,-1,1693,582,5.12971,2.98834
476,442,5.4624,1.76947,0,0,0,0,0,0,0,-1,1700,582,5.46234,-1.76944
483,442,5.98486,1.87042,0,0,0,0,0,0,0,-1,1707,582,5.98492,-1.87045
490,442,5.04407,-2.35834,0,0,0,0,0,0,0,-1,1714,582,5.04411,2.35837
497,442,6.20984,-3.07831,0,0,0,0,0,0,0,-1,1721,582,6.2098,3.07833
504,442,20.9276,-19.7709,0,0,0,0,0,0,0,-1,1728,582,20.9276,19.771
511,442,21.9199,-19.4835,0,0,0,0,0,0,0,-1,1735,582,21.92,19.4835
518,442,21.9233,-18.7067,0.00353153,0.00043127,0.00145302,0.00410606,-0.000143258,0.376537,0.00278635,0.0141427,1742,582,21.9233,18.7066
525,442,21.8724,-17.9876,0.00293889,0.000551939,0.00150056,0.00366272,-0.000171895,0.449448,0.00250108,0.0110553,1749,582,21.8724,17.9876
532,442,21.8413,-17.2523,0.00241368,0.000748033,0.00149998,0.00329653,-0.000134812,0.531975,0.00224397,0.0112354,1756,582,21.8413,17.2523
539,442,21.803,-16.491,0.00199493,0.00103953,0.00152511,0.0031154,-8.09464e-05,0.633627,0.00210444,0.0137968,1763,582,21.803,16.491
546,442,21.797,-15.7638,0.00163978,0.00144002,0.00155658,0.00309968,-1.98812e-05,0.75336,0.00207311,0.0185884,1770,582,21.797,15.7638
553,442,21.7269,-15.038,0.00129843,0.00186579,0.00161871,0.00322548,-6.12715e-05,0.872143,0.00217103,0.0189952,1777,582,21.7269,15.038
560,442,21.7124,-14.2684,0.0010451,0.00237315,0.00175893,0.00358923,-0.000170975,0.965886,0.0024518,0.0147354,1784,582,21.7124,14.2684
567,442,21.6636,-13.5488,0.000968675,0.00304601,0.00204593,0.00430182,-0.000287141,1.02028,0.00296823,0.0106121,1791,582,21.6636,13.5488
574,442,21.6449,-12.8146,0.000939134,0.00379918,0.00240438,0.00516666,-0.000428345,1.05368,0.00359573,0.0133208,1798,582,21.645,12.8146
581,442,21.6816,-11.96,0.00106518,0.00475973,0.00302385,0.00645591,-0.000631,1.0596,0.00452895,0.0283137,1805,582,21.6817,11.96
588,442,21.8082,-11.2078,0,0,0,0,0,0,0,-1,1812,582,21.8083,11.2078
595,442,16.27,-6.47083,0,0,0,0,0,0,0,-1,1819,582,16.27,6.47082
602,442,16.2213,-4.49225,0,0,0,0,0,0,0,-1,1826,582,16.2213,4.49223
609,442,12.761,2.97223,0,0,0,0,0,0,0,-1,1833,582,12.761,-2.97221
616,442,9.78345,-0.103394,0,0,0,0,0,0,0,-1,1840,582,9.78341,0.103424
623,442,9.23828,0.326721,0,0,0,0,0,0,0,-1,1847,582,9.23829,-0.326727
630,442,7.74304,2.3924,0,0,0,0,0,0,0,-1,1854,582,7.7431,-2.39238
637,442,5.87805,1.84027,0,0,0,0,0,0,0,-1,1861,582,5.87807,-1.84025
644,442,0,0,0,0,0,0,0,0,0,-1,1868,582,0,0
651,442,0,0,0,0,0,0,0,0,0,-1,1875,582,0,0
658,442,0,0,0,0,0,0,0,0,0,-1,1882,582,0,0
665,442,0,0,0,0,0,0,0,0,0,-1,1889,582,0,0
672,442,0,0,0,0,0,0,0,0,0,-1,1896,582,0,0
679,442,0,0,0,0,0,0,0,0,0,-1,1903,582,0,0
686,442,0,0,0,0,0,0,0,0,0,-1,1910,582,0,0
693,442,0,0,0,0,0,0,0,0,0,-1,1917,582,0,0
700,442,0,0,0,0,0,0,0,0,0,-1,1924,582,0,0
707,442,0,0,0,0,0,0,0,0,0,-1,1931,582,0,0
714,442,0,0,0,0,0,0,0,0,0,-1,1938,582,0,0
721,442,0,0,0,0,0,0,0,0,0,-1,1945,582,0,0
728,442,0,0,0,0,0,0,0,0,0,-1,1952,582,0,0
735,442,0,0,0,0,0,0,0,0,0,-1,1959,582,0,0
742,442,0,0,0,0,0,0,0,0,0,-1,1966,582,0,0
749,442,0,0,0,0,0,0,0,0,0,-1,1973,582,0,0
756,442,0,0,0,0,0,0,0,0,0,-1,1980,582,0,0
763,442,0,0,0,0,0,0,0,0,0,-1,1987,582,0,0
770,442,0,0,0,0,0,0,0,0,0,-1,1994,582,0,0
777,442,0,0,0,0,0,0,0,0,0,-1,2001,582,0,0
784,442,0,0,0,0,0,0,0,0,0,-1,2008,582,0,0
791,442,0,0,0,0,0,0,0,0,0,-1,2015,582,0,0
798,442,0,0,0,0,0,0,0,0,0,-1,2022,582,0,0
805,442,0,0,0,0,0,0,0,0,0,-1,2029,582,0,0
812,442,0,0,0,0,0,0,0,0,0,-1,2036,582,0,0
-700,435,0,0,0,0,0,0,0,0,0,-1,524,589,0,0
-693,435,0,0,0,0,0,0,0,0,0,-1,531,589,0,0
-686,435,0,0,0,0,0,0,0,0,0,-1,538,589,0,0
-679,435,0,0,0,0,0,0,0,0,0,-1,545,589,0,0
-672,435,0,0,0,0,0,0,0,0,0,-1,552,589,0,0
-665,435,0,0,0,0,0,0,0,0,0,-1,559,589,0,0
-658,435,0,0,0,0,0,0,0,0,0,-1,566,589,0,0
-651,435,0,0,0,0,0,0,0,0,0,-1,573,589,0,0
-644,435,0,0,0,0,0,0,0,0,0,-1,580,589,0,0
-637,435,0,0,0,0,0,0,0,0,0,-1,587,589,0,0
-630,435,0,0,0,0,0,0,0,0,0,-1,594,589,0,0
-623,435,0,0,0,0,0,0,0,0,0,-1,601,589,0,0
-616,435,0,0,0,0,0,0,0,0,0,-1,608,589,0,0
-609,435,0,0,0,0,0,0,0,0,0,-1,615,589,0,0
-602,435,0,0,0,0,0,0,0,0,0,-1,622,589,0,0
-595,435,0,0,0,0,0,0,0,0,0,-1,629,589,0,0
-588,435,0,0,0,0,0,0,0,0,0,-1,636,589,0,0
-581,435,0,0,0,0,0,0,0,0,0,-1,643,589,0,0
-574,435,0,0,0,0,0,0,0,0,0,-1,650,589,0,0
-567,435,0,0,0,0,0,0,0,0,0,-1,657,589,0,0
-560,435,0,0,0,0,0,0,0,0,0,-1,664,589,0,0
-553,435,0,0,0,0,0,0,0,0,0,-1,671,589,0,0
-546,435,0,0,0,0,0,0,0,0,0,-1,678,589,0,0
-539,435,0,0,0,0,0,0,0,0,0,-1,685,589,0,0
-532,435,0,0,0,0,0,0,0,0,0,-1,692,589,0,0
-525,435,-10.0776,10.0547,0,0,0,0,0,0,0,-1,699,589,-10.0776,-10.0547
-518,435,-1.83093,-5.82367,0,0,0,0,0,0,0,-1,706,589,-1.83093,5.8237
-511,435,-2.45154,-5.33118,0,0,0,0,0,0,0,-1,713,589,-2.45151,5.33115
-504,435,-3.07208,-4.83862,0,0,0,0,0,0,0,-1,720,589,-3.0721,4.8386
-497,435,-6.31012,-5.84698,0,0,0,0,0,0,0,-1,727,589,-6.31012,5.84697
-490,435,-5.81903,-0.458679,0,0,0,0,0,0,0,-1,734,589,-5.81902,0.458684
-483,435,-6.96503,-3.01624,0,0,0,0,0,0,0,-1,741,589,-6.96505,3.01623
-476,435,-9.88403,-10.5742,0,0,0,0,0,0,0,-1,748,589,-9.88405,10.5741
-469,435,-9.55792,-11.3758,0,0,0,0,0,0,0,-1,755,589,-9.55793,11.3758
-462,435,-9.65009,-12.1563,0,0,0,0,0,0,0,-1,762,589,-9.65008,12.1563
-455,435,-9.67944,-13.1865,-0.0013437,0.00618671,-0.00149922,0.00647421,-0.0016312,-1.38133,0.00495029,0.026158,769,589,-9.67945,13.1865
-448,435,-9.66174,-14.021,-0.000840841,0.00509523,-0.00143591,0.00542432,-0.00116994,-1.3455,0.00406274,0.014032,776,589,-9.66177,14.021
-441,435,-9.70044,-14.739,-0.00038639,0.00401785,-0.00126002,0.00435285,-0.00072139,-1.31094,0.00316985,0.0116082,783,589,-9.70044,14.739
-434,435,-9.74597,-15.4637,6.52068e-06,0.00294342,-0.00101011,0.00325729,-0.000307347,-1.26953,0.00228089,0.0126806,790,589,-9.74596,15.4637
-427,435,-9.79425,-16.2124,0.000349646,0.00189656,-0.000713046,0.00217508,7.11185e-05,-1.19841,0.00142694,0.0104135,797,589,-9.79427,16.2124
-420,435,-9.80505,-16.8976,0.00070521,0.000925764,-0.000422808,0.00125244,0.000378534,-0.912966,0.00074171,0.0106392,804,589,-9.80505,16.8976
-413,435,-9.83307,-17.5985,0.00099276,-7.80999e-05,-6.26516e-05,0.000996413,-8.1753e-05,-0.0582411,0.000693135,0.01115,811,589,-9.8331,17.5985
-406,435,-9.86884,-18.3151,0.00128642,-0.00103001,0.000309179,0.00132698,-0.00107057,0.13043,0.00138686,0.0111342,818,589,-9.86883,18.3151
-399,435,-9.91809,-19.0206,0.00172543,-0.00177125,0.000522598,0.00180186,-0.00184768,0.145229,0.00210712,0.00966305,825,589,-9.91808,19.0206
-392,435,-9.95691,-19.7243,0.00225067,-0.0023861,0.000646308,0.00233907,-0.0024745,0.135936,0.00277948,0.0108161,832,589,-9.95689,19.7243
-385,435,-9.96539,-20.4304,0.00281836,-0.00281343,0.000667448,0.00289639,-0.00289145,0.116367,0.00334161,0.0217526,839,589,-9.96537,20.4304
-378,435,-9.99414,-21.0266,0.00350742,-0.00328692,0.000685417,0.00357588,-0.00335538,0.0995441,0.00400244,0.0493734,846,589,-9.99416,21.0266
-371,435,-10.247,-21.7153,0,0,0,0,0,0,0,-1,853,589,-10.247,21.7153
-364,435,-5.62848,-11.5937,0,0,0,0,0,0,0,-1,860,589,-5.62847,11.5937
-357,435,-5.57343,-10.9666,0,0,0,0,0,0,0,-1,867,589,-5.57342,10.9666
-350,435,-0.86676,-3.69836,0,0,0,0,0,0,0,-1,874,589,-0.866784,3.69834
-343,435,-1.60706,-2.36835,0,0,0,0,0,0,0,-1,881,589,-1.60706,2.36838
-336,435,-2.07263,-1.94012,0,0,0,0,0,0,0,-1,888,589,-2.07265,1.94014
-329,435,-2.55963,-1.5517,0,0,0,0,0,0,0,-1,895,589,-2.5596,1.55168
-322,435,-3.08545,-1.55255,0,0,0,0,0,0,0,-1,902,589,-3.08544,1.55254
-315,435,-0.404297,-2.63763,0,0,0,0,0,0,0,-1,909,589,-0.404276,2.63761
-308,435,-1.70056,-1.90369,0,0,0,0,0,0,0,-1,916,589,-1.70056,1.90367
-301,435,-1.19391,-2.41632,0,0,0,0,0,0,0,-1,923,589,-1.1939,2.41635
-294,435,2.98132,-8.50562,0,0,0,0,0,0,0,-1,930,589,2.9813,8.50559
-287,435,0,0,0,0,0,0,0,0,0,-1,937,589,0,0
-280,435,0,0,0,0,0,0,0,0,0,-1,944,589,0,0
-273,435,0,0,0,0,0,0,0,0,0,-1,951,589,0,0
-266,435,0,0,0,0,0,0,0,0,0,-1,958,589,0,0
-259,435,0,0,0,0,0,0,0,0,0,-1,965,589,0,0
-252,435,0,0,0,0,0,0,0,0,0,-1,972,589,0,0
-245,435,0,0,0,0,0,0,0,0,0,-1,979,589,0,0
-238,435,0,0,0,0,0,0,0,0,0,-1,986,589,0,0
-231,435,0,0,0,0,0,0,0,0,0,-1,993,589,0,0
-224,435,0,0,0,0,0,0,0,0,0,-1,1000,589,0,0
-217,435,0,0,0,0,0,0,0,0,0,-1,1007,589,0,0
-210,435,0,0,0,0,0,0,0,0,0,-1,1014,589,0,0
-203,435,0,0,0,0,0,0,0,0,0,-1,1021,589,0,0
-196,435,0,0,0,0,0,0,0,0,0,-1,1028,589,0,0
-189,435,0,0,0,0,0,0,0,0,0,-1,1035,589,0,0
-182,435,0,0,0,0,0,0,0,0,0,-1,1042,589,0,0
-175,435,0,0,0,0,0,0,0,0,0,-1,1049,589,0,0
-168,435,0,0,0,0,0,0,0,0,0,-1,1056,589,0,0
-161,435,0,0,0,0,0,0,0,0,0,-1,1063,589,0,0
-154,435,0,0,0,0,0,0,0,0,0,-1,1070,589,0,0
-147,435,0,0,0,0,0,0,0,0,0,-1,1077,589,0,0
-140,435,0,0,0,0,0,0,0,0,0,-1,1084,589,0,0
-133,435,0,0,0,0,0,0,0,0,0,-1,1091,589,0,0
-126,435,0,0,0,0,0,0,0,0,0,-1,1098,589,0,0
-119,435,0,0,0,0,0,0,0,0,0,-1,1105,589,0,0
-112,435,0,0,0,0,0,0,0,0,0,-1,1112,589,0,0
-105,435,0,0,0,0,0,0,0,0,0,-1,1119,589,0,0
-98,435,0,0,0,0,0,0,0,0,0,-1,1126,589,0,0
-91,435,0,0,0,0,0,0,0,0,0,-1,1133,589,0,0
-84,435,0,0,0,0,0,0,0,0,0,-1,1140,589,0,0
-77,435,0,0,0,0,0,0,0,0,0,-1,1147,589,0,0
-70,435,0,0,0,0,0,0,0,0,0,-1,1154,589,0,0
-63,435,0,0,0,0,0,0,0,0,0,-1,1161,589,0,0
-56,435,0,0,0,0,0,0,0,0,0,-1,1168,589,0,0
-49,435,0,0,0,0,0,0,0,0,0,-1,1175,589,0,0
-42,435,0,0,0,0,0,0,0,0,0,-1,1182,589,0,0
-35,435,0,0,0,0,0,0,0,0,0,-1,1189,589,0,0
-28,435,0,0,0,0,0,0,0,0,0,-1,1196,589,0,0
-21,435,0,0,0,0,0,0,0,0,0,-1,1203,589,0,0
-14,435,0,0,0,0,0,0,0,0,0,-1,1210,589,0,0
-7,435,0,0,0,0,0,0,0,0,0,-1,1217,589,0,0
0,435,0,0,0,0,0,0,0,0,0,-1,1224,589,0,0
7,435,0,0,0,0,0,0,0,0,0,-1,1231,589,0,0
14,435,0,0,0,0,0,0,0,0,0,-1,1238,589,0,0
21,435,0,0,0,0,0,0,0,0,0,-1,1245,589,0,0
28,435,0,0,0,0,0,0,0,0,0,-1,1252,589,0,0
35,435,0,0,0,0,0,0,0,0,0,-1,1259,589,0,0
42,435,0,0,0,0,0,0,0,0,0,-1,1266,589,0,0
49,435,0,0,0,0,0,0,0,0,0,-1,1273,589,0,0
56,435,0,0,0,0,0,0,0,0,0,-1,1280,589,0,0
63,435,0,0,0,0,0,0,0,0,0,-1,1287,589,0,0
70,435,0,0,0,0,0,0,0,0,0,-1,1294,589,0,0
77,435,0,0,0,0,0,0,0,0,0,-1,1301,589,0,0
84,435,0,0,0,0,0,0,0,0,0,-1,1308,589,0,0
91,435,0,0,0,0,0,0,0,0,0,-1,1315,589,0,0
98,435,0,0,0,0,0,0,0,0,0,-1,1322,589,0,0
105,435,0,0,0,0,0,0,0,0,0,-1,1329,589,0,0
112,435,0,0,0,0,0,0,0,0,0,-1,1336,589,0,0
119,435,0,0,0,0,0,0,0,0,0,-1,1343,589,0,0
126,435,0,0,0,0,0,0,0,0,0,-1,1350,589,0,0
133,435,0,0,0,0,0,0,0,0,0,-1,1357,589,0,0
140,435,0,0,0,0,0,0,0,0,0,-1,1364,589,0,0
147,435,0,0,0,0,0,0,0,0,0,-1,1371,589,0,0
154,435,0,0,0,0,0,0,0,0,0,-1,1378,589,0,0
161,435,0,0,0,0,0,0,0,0,0,-1,1385,589,0,0
168,435,0,0,0,0,0,0,0,0,0,-1,1392,589,0,0
175,435,0,0,0,0,0,0,0,0,0,-1,1399,589,0,0
182,435,0,0,0,0,0,0,0,0,0,-1,1406,589,0,0
189,435,0,0,0,0,0,0,0,0,0,-1,1413,589,0,0
196,435,0,0,0,0,0,0,0,0,0,-1,1420,589,0,0
203,435,0,0,0,0,0,0,0,0,0,-1,1427,589,0,0
210,435,0,0,0,0,0,0,0,0,0,-1,1434,589,0,0
217,435,0,0,0,0,0,0,0,0,0,-1,1441,589,0,0
224,435,0,0,0,0,0,0,0,0,0,-1,1448,589,0,0
231,435,0,0,0,0,0,0,0,0,0,-1,1455,589,0,0
238,435,0,0,0,0,0,0,0,0,0,-1,1462,589,0,0
245,435,0,0,0,0,0,0,0,0,0,-1,1469,589,0,0
252,435,0,0,0,0,0,0,0,0,0,-1,1476,589,0,0
259,435,0,0,0,0,0,0,0,0,0,-1,1483,589,0,0
266,435,0,0,0,0,0,0,0,0,0,-1,1490,589,0,0
273,435,0,0,0,0,0,0,0,0,0,-1,1497,589,0,0
280,435,0,0,0,0,0,0,0,0,0,-1,1504,589,0,0
287,435,0,0,0,0,0,0,0,0,0,-1,1511,589,0,0
294,435,0,0,0,0,0,0,0,0,0,-1,1518,589,0,0
301,435,0,0,0,0,0,0,0,0,0,-1,1525,589,0,0
308,435,0,0,0,0,0,0,0,0,0,-1,1532,589,0,0
315,435,0,0,0,0,0,0,0,0,0,-1,1539,589,0,0
322,435,0,0,0,0,0,0,0,0,0,-1,1546,589,0,0
329,435,0,0,0,0,0,0,0,0,0,-1,1553,589,0,0
336,435,0,0,0,0,0,0,0,0,0,-1,1560,589,0,0
343,435,0,0,0,0,0,0,0,0,0,-1,1567,589,0,0
350,435,0,0,0,0,0,0,0,0,0,-1,1574,589,0,0
357,435,0,0,0,0,0,0,0,0,0,-1,1581,589,0,0
364,435,0,0,0,0,0,0,0,0,0,-1,1588,589,0,0
371,435,0,0,0,0,0,0,0,0,0,-1,1595,589,0,0
378,435,0,0,0,0,0,0,0,0,0,-1,1602,589,0,0
385,435,0,0,0,0,0,0,0,0,0,-1,1609,589,0,0
392,435,0,0,0,0,0,0,0,0,0,-1,1616,589,0,0
399,435,0,0,0,0,0,0,0,0,0,-1,1623,589,0,0
406,435,0,0,0,0,0,0,0,0,0,-1,1630,589,0,0
413,435,20.4565,3.49835,0,0,0,0,0,0,0,-1,1637,589,20.4565,-3.49836
420,435,21.4015,1.49609,0,0,0,0,0,0,0,-1,1644,589,21.4015,-1.49609
427,435,22.0464,-0.373962,0,0,0,0,0,0,0,-1,1651,589,22.0464,0.373972
434,435,22.1863,-1.54407,0,0,0,0,0,0,0,-1,1658,589,22.1862,1.54405
441,435,22.3992,-2.38287,0,0,0,0,0,0,0,-1,1665,589,22.3992,2.38289
448,435,7.4585,-0.00292969,0,0,0,0,0,0,0,-1,1672,589,7.45848,0.00294131
455,435,5.49915,-5.047,0,0,0,0,0,0,0,-1,1679,589,5.49914,5.04703
462,435,5.60669,-4.71466,0,0,0,0,0,0,0,-1,1686,589,5.60675,4.71469
469,435,5.87708,1.22351,0,0,0,0,0,0,0,-1,1693,589,5.87703,-1.22351
476,435,6.14136,1.37714,0,0,0,0,0,0,0,-1,1700,589,6.14138,-1.37712
483,435,6.49243,1.36169,0,0,0,0,0,0,0,-1,1707,589,6.49242,-1.36171
490,435,4.38391,-1.36218,0,0,0,0,0,0,0,-1,1714,589,4.38389,1.3622
497,435,7.23499,-3.64551,0,0,0,0,0,0,0,-1,1721,589,7.23495,3.64551
504,435,7.31189,-3.75909,0,0,0,0,0,0,0,-1,1728,589,7.31184,3.75911
511,435,22.5371,-19.5092,0,0,0,0,0,0,0,-1,1735,589,22.5371,19.5092
518,435,22.6631,-18.6955,0.00455543,0.000555947,0.00185468,0.00528311,-0.000171728,0.37389,0.00358069,0.0308223,1742,589,22.6631,18.6955
525,435,22.6029,-17.9492,0.00379457,0.00054746,0.0017525,0.00455999,-0.000217961,0.411788,0.00311519,0.0129889,1749,589,22.6029,17.9492
532,435,22.5897,-17.2001,0.00312914,0.000614825,0.00160718,0.00391244,-0.00016848,0.453498,0.00266623,0.0149082,1756,589,22.5898,17.2001
539,435,22.5691,-16.4506,0.00260744,0.00084278,0.0015264,0.00348818,-3.79544e-05,0.523337,0.00233821,0.0156485,1763,589,22.5691,16.4505
546,435,22.5247,-15.728,0.00215615,0.00114006,0.00146409,0.00319784,9.83651e-05,0.618397,0.00209987,0.0153095,1770,589,22.5247,15.728
553,435,22.4712,-15.0204,0.00172597,0.00147196,0.00144273,0.00304727,0.000150661,0.741494,0.0019832,0.0110934,1777,589,22.4712,15.0204
560,435,22.4418,-14.2875,0.001382,0.0018802,0.00150292,0.00315452,0.00010768,0.867524,0.00206805,0.00919511,1784,589,22.4418,14.2875
567,435,22.4163,-13.5274,0.0012268,0.00246081,0.00172338,0.0036743,1.33066e-05,0.957299,0.00244511,0.00905503,1791,589,22.4163,13.5274
574,435,22.3792,-12.79,0.00118368,0.00311794,0.00203494,0.00440388,-0.000102261,1.00723,0.00297059,0.010655,1798,589,22.3791,12.7901
581,435,22.342,-12.0395,0.00134188,0.00394101,0.00258127,0.00553139,-0.000248503,1.0186,0.00377316,0.0180631,1805,589,22.342,12.0395
588,435,22.3114,-11.329,0.00185441,0.00496023,0.0033999,0.00714508,-0.000330439,0.999625,0.00487727,0.045547,1812,589,22.3114,11.329
595,435,22.3704,-10.3047,0,0,0,0,0,0,0,-1,1819,589,22.3703,10.3047
602,435,16.8671,-6.39026,0,0,0,0,0,0,0,-1,1826,589,16.867,6.39024
609,435,15.2611,-3.42242,0,0,0,0,0,0,0,-1,1833,589,15.2611,3.42242
616,435,5.05151,-2.75269,0,0,0,0,0,0,0,-1,1840,589,5.05157,2.7527
623,435,11.7588,3.9704,0,0,0,0,0,0,0,-1,1847,589,11.7587,-3.97043
630,435,4.72742,-0.87561,0,0,0,0,0,0,0,-1,1854,589,4.7274,0.875636
637,435,5.05286,1.48792,0,0,0,0,0,0,0,-1,1861,589,5.05291,-1.48792
644,435,0,0,0,0,0,0,0,0,0,-1,1868,589,0,0
651,435,0,0,0,0,0,0,0,0,0,-1,1875,589,0,0
658,435,0,0,0,0,0,0,0,0,0,-1,1882,589,0,0
665,435,0,0,0,0,0,0,0,0,0,-1,1889,589,0,0
672,435,0,0,0,0,0,0,0,0,0,-1,1896,589,0,0
679,435,0,0,0,0,0,0,0,0,0,-1,1903,589,0,0
686,435,0,0,0,0,0,0,0,0,0,-1,1910,589,0,0
693,435,0,0,0,0,0,0,0,0,0,-1,1917,589,0,0
700,435,0,0,0,0,0,0,0,0,0,-1,1924,589,0,0
707,435,0,0,0,0,0,0,0,0,0,-1,1931,589,0,0
714,435,0,0,0,0,0,0,0,0,0,-1,1938,589,0,0
721,435,0,0,0,0,0,0,0,0,0,-1,1945,589,0,0
728,435,0,0,0,0,0,0,0,0,0,-1,1952,589,0,0
735,435,0,0,0,0,0,0,0,0,0,-1,1959,589,0,0
742,435,0,0,0,0,0,0,0,0,0,-1,1966,589,0,0
749,435,0,0,0,0,0,0,0,0,0,-1,1973,589,0,0
756,435,0,0,0,0,0,0,0,0,0,-1,1980,589,0,0
763,435,0,0,0,0,0,0,0,0,0,-1,1987,589,0,0
770,435,0,0,0,0,0,0,0,0,0,-1,1994,589,0,0
777,435,0,0,0,0,0,0,0,0,0,-1,2001,589,0,0
784,435,0,0,0,0,0,0,0,0,0,-1,2008,589,0,0
791,435,0,0,0,0,0,0,0,0,0,-1,2015,589,0,0
798,435,0,0,0,0,0,0,0,0,0,-1,2022,589,0,0
805,435,0,0,0,0,0,0,0,0,0,-1,2029,589,0,0
812,435,0,0,0,0,0,0,0,0,0,-1,2036,589,0,0
-700,428,0,0,0,0,0,0,0,0,0,-1,524,596,0,0
-693,428,0,0,0,0,0,0,0,0,0,-1,531,596,0,0
-686,428,0,0,0,0,0,0,0,0,0,-1,538,596,0,0
-679,428,0,0,0,0,0,0,0,0,0,-1,545,596,0,0
-672,428,0,0,0,0,0,0,0,0,0,-1,552,596,0,0
-665,428,0,0,0,0,0,0,0,0,0,-1,559,596,0,0
-658,428,0,0,0,0,0,0,0,0,0,-1,566,596,0,0
-651,428,0,0,0,0,0,0,0,0,0,-1,573,596,0,0
-644,428,0,0,0,0,0,0,0,0,0,-1,580,596,0,0
-637,428,0,0,0,0,0,0,0,0,0,-1,587,596,0,0
-630,428,0,0,0,0,0,0,0,0,0,-1,594,596,0,0
-623,428,0,0,0,0,0,0,0,0,0,-1,601,596,0,0
-616,428,0,0,0,0,0,0,0,0,0,-1,608,596,0,0
-609,428,0,0,0,0,0,0,0,0,0,-1,615,596,0,0
-602,428,0,0,0,0,0,0,0,0,0,-1,622,596,0,0
-595,428,0,0,0,0,0,0,0,0,0,-1,629,596,0,0
-588,428,0,0,0,0,0,0,0,0,0,-1,636,596,0,0
-581,428,0,0,0,0,0,0,0,0,0,-1,643,596,0,0
-574,428,0,0,0,0,0,0,0,0,0,-1,650,596,0,0
-567,428,0,0,0,0,0,0,0,0,0,-1,657,596,0,0
-560,428,0,0,0,0,0,0,0,0,0,-1,664,596,0,0
-553,428,0,0,0,0,0,0,0,0,0,-1,671,596,0,0
-546,428,0,0,0,0,0,0,0,0,0,-1,678,596,0,0
-539,428,0,0,0,0,0,0,0,0,0,-1,685,596,0,0
-532,428,0,0,0,0,0,0,0,0,0,-1,692,596,0,0
-525,428,-9.59918,7.58618,0,0,0,0,0,0,0,-1,699,596,-9.59918,-7.5862
-518,428,-2.92285,-4.81854,0,0,0,0,0,0,0,-1,706,596,-2.92285,4.81856
-511,428,-3.68811,-4.79474,0,0,0,0,0,0,0,-1,713,596,-3.68811,4.79474
-504,428,-4.45337,-4.77094,0,0,0,0,0,0,0,-1,720,596,-4.45337,4.77092
-497,428,-2.98108,-3.77502,0,0,0,0,0,0,0,-1,727,596,-2.98106,3.77505
-490,428,-6.39044,-2.80481,0,0,0,0,0,0,0,-1,734,596,-6.39047,2.80483
-483,428,-10.8474,-9.11322,0,0,0,0,0,0,0,-1,741,596,-10.8473,9.11321
-476,428,-10.2441,-10.9467,0,0,0,0,0,0,0,-1,748,596,-10.2441,10.9467
-469,428,-10.1677,-11.6762,-0.00269332,0.00546481,-2.44747e-05,0.00546489,-0.00269339,-1.5678,0.00479993,0.0296653,755,596,-10.1677,11.6762
-462,428,-10.292,-12.3244,-0.00163837,0.00500616,-0.000736145,0.00508674,-0.00171895,-1.46177,0.00408649,0.0318601,762,596,-10.292,12.3244
-455,428,-10.3809,-13.1676,-0.00097997,0.00448205,-0.00101042,0.00466297,-0.00116089,-1.39362,0.00355929,0.0168971,769,596,-10.3808,13.1676
-448,428,-10.4037,-13.9344,-0.000494985,0.00357431,-0.000975053,0.00379588,-0.000716555,-1.34735,0.00280017,0.0116055,776,596,-10.4037,13.9344
-441,428,-10.4385,-14.6722,-7.5675e-05,0.00263357,-0.00081541,0.00286006,-0.000302158,-1.29987,0.00201499,0.0133412,783,596,-10.4385,14.6723
-434,428,-10.4559,-15.4358,0.000285085,0.00167883,-0.000576708,0.00188652,7.7401e-05,-1.22513,0.00123269,0.0103193,790,596,-10.4559,15.4358
-427,428,-10.4891,-16.1734,0.000601956,0.000710299,-0.000290934,0.000952062,0.000360193,-0.877443,0.000555071,0.0113063,797,596,-10.4891,16.1734
-420,428,-10.5201,-16.8622,0.000927293,-0.000206745,-1.75897e-06,0.000927296,-0.000206748,-0.00155107,0.000697404,0.0114677,804,596,-10.5201,16.8622
-413,428,-10.5554,-17.5463,0.00118613,-0.0011607,0.000365751,0.00124182,-0.00121638,0.151077,0.00141927,0.0135557,811,596,-10.5554,17.5463
-406,428,-10.5854,-18.2549,0.00146343,-0.0020448,0.000711808,0.00160235,-0.00218372,0.192745,0.00219446,0.016385,818,596,-10.5855,18.2549
-399,428,-10.5882,-18.9839,0.0019011,-0.00277275,0.000877454,0.0020604,-0.00293205,0.179593,0.002897,0.0153691,825,596,-10.5882,18.9839
-392,428,-10.5861,-19.7339,0.00244453,-0.00336682,0.000933646,0.00259085,-0.00351314,0.155449,0.00353752,0.0305619,832,596,-10.5861,19.7339
-385,428,-10.6544,-20.5804,0,0,0,0,0,0,0,-1,839,596,-10.6544,20.5804
-378,428,-10.8172,-20.952,0,0,0,0,0,0,0,-1,846,596,-10.8172,20.952
-371,428,-5.96155,-11.0703,0,0,0,0,0,0,0,-1,853,596,-5.96154,11.0702
-364,428,-6.33643,-10.7223,0,0,0,0,0,0,0,-1,860,596,-6.33645,10.7223
-357,428,-3.20996,-4.70966,0,0,0,0,0,0,0,-1,867,596,-3.20997,4.70965
-350,428,-1.62793,-3.94055,0,0,0,0,0,0,0,-1,874,596,-1.62794,3.94055
-343,428,-0.0567017,-4.80994,0,0,0,0,0,0,0,-1,881,596,-0.0567096,4.80996
-336,428,-3.29175,-1.39569,0,0,0,0,0,0,0,-1,888,596,-3.29172,1.39568
-329,428,-3.71564,-0.791321,0,0,0,0,0,0,0,-1,895,596,-3.71564,0.791299
-322,428,-5.52863,-3.59827,0,0,0,0,0,0,0,-1,902,596,-5.52865,3.59829
-315,428,-4.57172,-1.22052,0,0,0,0,0,0,0,-1,909,596,-4.57171,1.22052
-308,428,-5.60742,-3.40961,0,0,0,0,0,0,0,-1,916,596,-5.60744,3.40959
-301,428,0,0,0,0,0,0,0,0,0,-1,923,596,0,0
-294,428,0,0,0,0,0,0,0,0,0,-1,930,596,0,0
-287,428,0,0,0,0,0,0,0,0,0,-1,937,596,0,0
-280,428,0,0,0,0,0,0,0,0,0,-1,944,596,0,0
-273,428,0,0,0,0,0,0,0,0,0,-1,951,596,0,0
-266,428,0,0,0,0,0,0,0,0,0,-1,958,596,0,0
-259,428,0,0,0,0,0,0,0,0,0,-1,965,596,0,0
-252,428,0,0,0,0,0,0,0,0,0,-1,972,596,0,0
-245,428,0,0,0,0,0,0,0,0,0,-1,979,596,0,0
-238,428,0,0,0,0,0,0,0,0,0,-1,986,596,0,0
-231,428,0,0,0,0,0,0,0,0,0,-1,993,596,0,0
-224,428,0,0,0,0,0,0,0,0,0,-1,1000,596,0,0
-217,428,0,0,0,0,0,0,0,0,0,-1,1007,596,0,0
-210,428,0,0,0,0,0,0,0,0,0,-1,1014,596,0,0
-203,428,0,0,0,0,0,0,0,0,0,-1,1021,596,0,0
-196,428,0,0,0,0,0,0,0,0,0,-1,1028,596,0,0
-189,428,0,0,0,0,0,0,0,0,0,-1,1035,596,0,0
-182,428,0,0,0,0,0,0,0,0,0,-1,1042,596,0,0
-175,428,0,0,0,0,0,0,0,0,0,-1,1049,596,0,0
-168,428,0,0,0,0,0,0,0,0,0,-1,1056,596,0,0
-161,428,0,0,0,0,0,0,0,0,0,-1,1063,596,0,0
-154,428,0,0,0,0,0,0,0,0,0,-1,1070,596,0,0
-147,428,0,0,0,0,0,0,0,0,0,-1,1077,596,0,0
-140,428,0,0,0,0,0,0,0,0,0,-1,1084,596,0,0
-133,428,0,0,0,0,0,0,0,0,0,-1,1091,596,0,0
-126,428,0,0,0,0,0,0,0,0,0,-1,1098,596,0,0
-119,428,0,0,0,0,0,0,0,0,0,-1,1105,596,0,0
-112,428,0,0,0,0,0,0,0,0,0,-1,1112,596,0,0
-105,428,0,0,0,0,0,0,0,0,0,-1,1119,596,0,0
-98,428,0,0,0,0,0,0,0,0,0,-1,1126,596,0,0
-91,428,0,0,0,0,0,0,0,0,0,-1,1133,596,0,0
-84,428,0,0,0,0,0,0,0,0,0,-1,1140,596,0,0
-77,428,0,0,0,0,0,0,0,0,0,-1,1147,596,0,0
-70,428,0,0,0,0,0,0,0,0,0,-1,1154,596,0,0
-63,428,0,0,0,0,0,0,0,0,0,-1,1161,596,0,0
-56,428,0,0,0,0,0,0,0,0,0,-1,1168,596,0,0
-49,428,0,0,0,0,0,0,0,0,0,-1,1175,596,0,0
-42,428,0,0,0,0,0,0,0,0,0,-1,1182,596,0,0
-35,428,0,0,0,0,0,0,0,0,0,-1,1189,596,0,0
-28,428,0,0,0,0,0,0,0,0,0,-1,1196,596,0,0
-21,428,0,0,0,0,0,0,0,0,0,-1,1203,596,0,0
-14,428,0,0,0,0,0,0,0,0,0,-1,1210,596,0,0
-7,428,0,0,0,0,0,0,0,0,0,-1,1217,596,0,0
0,428,0,0,0,0,0,0,0,0,0,-1,1224,596,0,0
7,428,0,0,0,0,0,0,0,0,0,-1,1231,596,0,0
14,428,0,0,0,0,0,0,0,0,0,-1,1238,596,0,0
21,428,0,0,0,0,0,0,0,0,0,-1,1245,596,0,0
28,428,0,0,0,0,0,0,0,0,0,-1,1252,596,0,0
35,428,0,0,0,0,0,0,0,0,0,-1,1259,596,0,0
42,428,0,0,0,0,0,0,0,0,0,-1,1266,596,0,0
49,428,0,0,0,0,0,0,0,0,0,-1,1273,596,0,0
56,428,0,0,0,0,0,0,0,0,0,-1,1280,596,0,0
63,428,0,0,0,0,0,0,0,0,0,-1,1287,596,0,0
70,428,0,0,0,0,0,0,0,0,0,-1,1294,596,0,0
77,428,0,0,0,0,0,0,0,0,0,-1,1301,596,0,0
84,428,0,0,0,0,0,0,0,0,0,-1,1308,596,0,0
91,428,0,0,0,0,0,0,0,0,0,-1,1315,596,0,0
98,428,0,0,0,0,0,0,0,0,0,-1,1322,596,0,0
105,428,0,0,0,0,0,0,0,0,0,-1,1329,596,0,0
112,428,0,0,0,0,0,0,0,0,0,-1,1336,596,0,0
119,428,0,0,0,0,0,0,0,0,0,-1,1343,596,0,0
126,428,0,0,0,0,0,0,0,0,0,-1,1350,596,0,0
133,428,0,0,0,0,0,0,0,0,0,-1,1357,596,0,0
140,428,0,0,0,0,0,0,0,0,0,-1,1364,596,0,0
147,428,0,0,0,0,0,0,0,0,0,-1,1371,596,0,0
154,428,0,0,0,0,0,0,0,0,0,-1,1378,596,0,0
161,428,0,0,0,0,0,0,0,0,0,-1,1385,596,0,0
168,428,0,0,0,0,0,0,0,0,0,-1,1392,596,0,0
175,428,0,0,0,0,0,0,0,0,0,-1,1399,596,0,0
182,428,0,0,0,0,0,0,0,0,0,-1,1406,596,0,0
189,428,0,0,0,0,0,0,0,0,0,-1,1413,596,0,0
196,428,0,0,0,0,0,0,0,0,0,-1,1420,596,0,0
203,428,0,0,0,0,0,0,0,0,0,-1,1427,596,0,0
210,428,0,0,0,0,0,0,0,0,0,-1,1434,596,0,0
217,428,0,0,0,0,0,0,0,0,0,-1,1441,596,0,0
224,428,0,0,0,0,0,0,0,0,0,-1,1448,596,0,0
231,428,0,0,0,0,0,0,0,0,0,-1,1455,596,0,0
238,428,0,0,0,0,0,0,0,0,0,-1,1462,596,0,0
245,428,0,0,0,0,0,0,0,0,0,-1,1469,596,0,0
252,428,0,0,0,0,0,0,0,0,0,-1,1476,596,0,0
259,428,0,0,0,0,0,0,0,0,0,-1,1483,596,0,0
266,428,0,0,0,0,0,0,0,0,0,-1,1490,596,0,0
273,428,0,0,0,0,0,0,0,0,0,-1,1497,596,0,0
280,428,0,0,0,0,0,0,0,0,0,-1,1504,596,0,0
287,428,0,0,0,0,0,0,0,0,0,-1,1511,596,0,0
294,428,0,0,0,0,0,0,0,0,0,-1,1518,596,0,0
301,428,0,0,0,0,0,0,0,0,0,-1,1525,596,0,0
308,428,0,0,0,0,0,0,0,0,0,-1,1532,596,0,0
315,428,0,0,0,0,0,0,0,0,0,-1,1539,596,0,0
322,428,0,0,0,0,0,0,0,0,0,-1,1546,596,0,0
329,428,0,0,0,0,0,0,0,0,0,-1,1553,596,0,0
336,428,0,0,0,0,0,0,0,0,0,-1,1560,596,0,0
343,428,0,0,0,0,0,0,0,0,0,-1,1567,596,0,0
350,428,0,0,0,0,0,0,0,0,0,-1,1574,596,0,0
357,428,0,0,0,0,0,0,0,0,0,-1,1581,596,0,0
364,428,0,0,0,0,0,0,0,0,0,-1,1588,596,0,0
371,428,0,0,0,0,0,0,0,0,0,-1,1595,596,0,0
378,428,0,0,0,0,0,0,0,0,0,-1,1602,596,0,0
385,428,0,0,0,0,0,0,0,0,0,-1,1609,596,0,0
392,428,0,0,0,0,0,0,0,0,0,-1,1616,596,0,0
399,428,0,0,0,0,0,0,0,0,0,-1,1623,596,0,0
406,428,0,0,0,0,0,0,0,0,0,-1,1630,596,0,0
413,428,0,0,0,0,0,0,0,0,0,-1,1637,596,0,0
420,428,19.8469,1.3399,0,0,0,0,0,0,0,-1,1644,596,19.8469,-1.33992
427,428,20.7299,-0.225281,0,0,0,0,0,0,0,-1,1651,596,20.7299,0.225262
434,428,19.8915,-0.583069,0,0,0,0,0,0,0,-1,1658,596,19.8915,0.583075
441,428,8.17993,0.607483,0,0,0,0,0,0,0,-1,1665,596,8.17997,-0.607513
448,428,7.84338,-0.385986,0,0,0,0,0,0,0,-1,1672,596,7.84336,0.385978
455,428,6.64038,2.1123,0,0,0,0,0,0,0,-1,1679,596,6.64037,-2.11229
462,428,4.84106,4.12341,0,0,0,0,0,0,0,-1,1686,596,4.84107,-4.12339
469,428,7.83789,3.10083,0,0,0,0,0,0,0,-1,1693,596,7.83785,-3.10086
476,428,7.61255,1.73956,0,0,0,0,0,0,0,-1,1700,596,7.61252,-1.73958
483,428,7.22766,1.05121,0,0,0,0,0,0,0,-1,1707,596,7.2277,-1.05121
490,428,5.4071,-3.2793,0,0,0,0,0,0,0,-1,1714,596,5.40707,3.27929
497,428,7.84106,-3.65491,0,0,0,0,0,0,0,-1,1721,596,7.84107,3.65491
504,428,6.92139,-2.83356,0,0,0,0,0,0,0,-1,1728,596,6.92137,2.83353
511,428,7.88501,-3.78723,0,0,0,0,0,0,0,-1,1735,596,7.88502,3.78722
518,428,23.3918,-18.7466,0,0,0,0,0,0,0,-1,1742,596,23.3918,18.7466
525,428,23.2427,-17.9877,0.00477574,0.000578014,0.00223186,0.0057406,-0.000386852,0.40805,0.00396232,0.045665,1749,596,23.2427,17.9877
532,428,23.2841,-17.1375,0.00392734,0.000511468,0.00186088,0.00474526,-0.000306446,0.414114,0.00327044,0.0208668,1756,596,23.284,17.1375
539,428,23.3069,-16.3987,0.0032789,0.000690529,0.00162485,0.00406199,-9.25572e-05,0.449098,0.00273936,0.0215129,1763,596,23.3069,16.3987
546,428,23.2576,-15.7005,0.00271088,0.000881898,0.00143526,0.00349823,9.45437e-05,0.501751,0.00230129,0.0170908,1770,596,23.2576,15.7005
553,428,23.2095,-14.9799,0.00218212,0.00113215,0.00131136,0.00306967,0.000244593,0.595001,0.00196999,0.0116156,1777,596,23.2095,14.9799
560,428,23.207,-14.2234,0.00173536,0.00145022,0.0012842,0.00288488,0.0003007,0.730116,0.00183127,0.012197,1784,596,23.2071,14.2235
567,428,23.1566,-13.4808,0.00148583,0.00193966,0.00143492,0.0031655,0.000259992,0.863816,0.00202923,0.0117844,1791,596,23.1567,13.4808
574,428,23.1198,-12.7564,0.00139182,0.00250303,0.00170117,0.00373703,0.000157818,0.943239,0.00244045,0.0134675,1798,596,23.1198,12.7564
581,428,23.0763,-12.0222,0.00149602,0.00319866,0.00218622,0.00469346,1.21561e-06,0.971067,0.00312857,0.0115418,1805,596,23.0763,12.0222
588,428,23.0322,-11.2337,0.00190967,0.00412199,0.00293568,0.00615299,-0.000121336,0.965572,0.00414303,0.017548,1812,596,23.0322,11.2337
595,428,22.9773,-10.4197,0.00255971,0.00521497,0.00384259,0.00795282,-0.00017814,0.951729,0.00536225,0.0310008,1819,596,22.9773,10.4197
602,428,23.0959,-9.56305,0,0,0,0,0,0,0,-1,1826,596,23.0959,9.56303
609,428,17.2073,-4.82446,0,0,0,0,0,0,0,-1,1833,596,17.2073,4.82447
616,428,15.7817,-3.09558,0,0,0,0,0,0,0,-1,1840,596,15.7817,3.09556
623,428,9.53577,1.12518,0,0,0,0,0,0,0,-1,1847,596,9.5358,-1.1252
630,428,7.07996,6.88562,0,0,0,0,0,0,0,-1,1854,596,7.0799,-6.88565
637,428,3.95435,1.90857,0,0,0,0,0,0,0,-1,1861,596,3.95439,-1.90858
644,428,5.75476,0.888977,0,0,0,0,0,0,0,-1,1868,596,5.75472,-0.888955
651,428,0,0,0,0,0,0,0,0,0,-1,1875,596,0,0
658,428,0,0,0,0,0,0,0,0,0,-1,1882,596,0,0
665,428,0,0,0,0,0,0,0,0,0,-1,1889,596,0,0
672,428,0,0,0,0,0,0,0,0,0,-1,1896,596,0,0
679,428,0,0,0,0,0,0,0,0,0,-1,1903,596,0,0
686,428,0,0,0,0,0,0,0,0,0,-1,1910,596,0,0
693,428,0,0,0,0,0,0,0,0,0,-1,1917,596,0,0
700,428,0,0,0,0,0,0,0,0,0,-1,1924,596,0,0
707,428,0,0,0,0,0,0,0,0,0,-1,1931,596,0,0
714,428,0,0,0,0,0,0,0,0,0,-1,1938,596,0,0
721,428,0,0,0,0,0,0,0,0,0,-1,1945,596,0,0
728,428,0,0,0,0,0,0,0,0,0,-1,1952,596,0,0
735,428,0,0,0,0,0,0,0,0,0,-1,1959,596,0,0
742,428,0,0,0,0,0,0,0,0,0,-1,1966,596,0,0
749,428,0,0,0,0,0,0,0,0,0,-1,1973,596,0,0
756,428,0,0,0,0,0,0,0,0,0,-1,1980,596,0,0
763,428,0,0,0,0,0,0,0,0,0,-1,1987,596,0,0
770,428,0,0,0,0,0,0,0,0,0,-1,1994,596,0,0
777,428,0,0,0,0,0,0,0,0,0,-1,2001,596,0,0
784,428,0,0,0,0,0,0,0,0,0,-1,2008,596,0,0
791,428,0,0,0,0,0,0,0,0,0,-1,2015,596,0,0
798,428,0,0,0,0,0,0,0,0,0,-1,2022,596,0,0
805,428,0,0,0,0,0,0,0,0,0,-1,2029,596,0,0
812,428,0,0,0,0,0,0,0,0,0,-1,2036,596,0,0
-700,421,0,0,0,0,0,0,0,0,0,-1,524,603,0,0
-693,421,0,0,0,0,0,0,0,0,0,-1,531,603,0,0
-686,421,0,0,0,0,0,0,0,0,0,-1,538,603,0,0
-679,421,0,0,0,0,0,0,0,0,0,-1,545,603,0,0
-672,421,0,0,0,0,0,0,0,0,0,-1,552,603,0,0
-665,421,0,0,0,0,0,0,0,0,0,-1,559,603,0,0
-658,421,0,0,0,0,0,0,0,0,0,-1,566,603,0,0
-651,421,0,0,0,0,0,0,0,0,0,-1,573,603,0,0
-644,421,0,0,0,0,0,0,0,0,0,-1,580,603,0,0
-637,421,0,0,0,0,0,0,0,0,0,-1,587,603,0,0
-630,421,0,0,0,0,0,0,0,0,0,-1,594,603,0,0
-623,421,0,0,0,0,0,0,0,0,0,-1,601,603,0,0
-616,421,0,0,0,0,0,0,0,0,0,-1,608,603,0,0
-609,421,0,0,0,0,0,0,0,0,0,-1,615,603,0,0
-602,421,0,0,0,0,0,0,0,0,0,-1,622,603,0,0
-595,421,0,0,0,0,0,0,0,0,0,-1,629,603,0,0
-588,421,0,0,0,0,0,0,0,0,0,-1,636,603,0,0
-581,421,0,0,0,0,0,0,0,0,0,-1,643,603,0,0
-574,421,0,0,0,0,0,0,0,0,0,-1,650,603,0,0
-567,421,0,0,0,0,0,0,0,0,0,-1,657,603,0,0
-560,421,0,0,0,0,0,0,0,0,0,-1,664,603,0,0
-553,421,0,0,0,0,0,0,0,0,0,-1,671,603,0,0
-546,421,0,0,0,0,0,0,0,0,0,-1,678,603,0,0
-539,421,0,0,0,0,0,0,0,0,0,-1,685,603,0,0
-532,421,-8.97382,6.95636,0,0,0,0,0,0,0,-1,692,603,-8.97384,-6.95634
-525,421,-2.11481,-8.04272,0,0,0,0,0,0,0,-1,699,603,-2.11483,8.0427
-518,421,-3.05908,-5.07233,0,0,0,0,0,0,0,-1,706,603,-3.0591,5.07235
-511,421,-4.63525,-4.08447,0,0,0,0,0,0,0,-1,713,603,-4.63524,4.08449
-504,421,-5.17029,-4.94458,0,0,0,0,0,0,0,-1,720,603,-5.17029,4.9446
-497,421,-6.63141,-2.32501,0,0,0,0,0,0,0,-1,727,603,-6.6314,2.32498
-490,421,-6.7616,-4.14783,0,0,0,0,0,0,0,-1,734,603,-6.76159,4.1478
-483,421,-10.7333,-10.4161,0,0,0,0,0,0,0,-1,741,603,-10.7333,10.4161
-476,421,-10.8768,-11.0657,-0.00277487,0.00417035,0.000689466,0.00423813,-0.00284265,1.4728,0.00411447,0.034834,748,603,-10.8769,11.0657
-469,421,-11.0452,-11.6393,-0.0019607,0.00383583,1.14739e-05,0.00383585,-0.00196072,1.56882,0.00340452,0.0295919,755,603,-11.0452,11.6393
-462,421,-11.0444,-12.4614,-0.00116197,0.00341759,-0.000505277,0.00347268,-0.00121706,-1.4622,0.00281008,0.0203496,762,603,-11.0444,12.4614
-455,421,-11.0751,-13.1903,-0.000628706,0.00291511,-0.000699009,0.00304801,-0.0007616,-1.38292,0.00232778,0.0198983,769,603,-11.0751,13.1903
-448,421,-11.1267,-13.9119,-0.000192922,0.00214316,-0.000660797,0.00231712,-0.000366884,-1.31338,0.00168044,0.0201872,776,603,-11.1267,13.9119
-441,421,-11.1568,-14.6423,0.000178226,0.00131252,-0.000489703,0.00149468,-3.93688e-06,-1.21467,0.000997768,0.014956,783,603,-11.1568,14.6423
-434,421,-11.1965,-15.3962,0.000502579,0.000463817,-0.000234664,0.000718661,0.000247735,-0.744196,0.000421536,0.01092,790,603,-11.1965,15.3963
-427,421,-11.2215,-16.1213,0.00078863,-0.000421093,7.2285e-05,0.000792934,-0.000425397,0.0594713,0.000713993,0.0104902,797,603,-11.2215,16.1213
-420,421,-11.2521,-16.8156,0.00107353,-0.00128151,0.00040416,0.00114096,-0.00134894,0.165315,0.00143922,0.011305,804,603,-11.2521,16.8155
-413,421,-11.2902,-17.5026,0.001303,-0.00216274,0.000819833,0.00148715,-0.00234689,0.220952,0.00223205,0.0131849,811,603,-11.2902,17.5025
-406,421,-11.3364,-18.2246,0.00157389,-0.00292645,0.00116545,0.00185779,-0.00321036,0.238948,0.00296063,0.019891,818,603,-11.3364,18.2246
-399,421,-11.2441,-19.045,0.00202238,-0.00359698,0.00130186,0.00230934,-0.00388394,0.21695,0.003614,0.0359057,825,603,-11.2441,19.0451
-392,421,-11.1112,-19.7827,0,0,0,0,0,0,0,-1,832,603,-11.1112,19.7827
-385,421,-11.5825,-18.8583,0,0,0,0,0,0,0,-1,839,603,-11.5825,18.8583
-378,421,-4.94733,-8.87909,0,0,0,0,0,0,0,-1,846,603,-4.94731,8.87906
-371,421,-5.65082,-7.01849,0,0,0,0,0,0,0,-1,853,603,-5.65082,7.0185
-364,421,-5.94189,-7.09875,0,0,0,0,0,0,0,-1,860,603,-5.94192,7.09878
-357,421,-7.62531,-8.26337,0,0,0,0,0,0,0,-1,867,603,-7.62532,8.26337
-350,421,-5.38019,-3.75024,0,0,0,0,0,0,0,-1,874,603,-5.38017,3.75026
-343,421,-6.22797,-2.57123,0,0,0,0,0,0,0,-1,881,603,-6.22798,2.57121
-336,421,-6.22882,-2.59369,0,0,0,0,0,0,0,-1,888,603,-6.22883,2.5937
-329,421,-4.50134,-1.49469,0,0,0,0,0,0,0,-1,895,603,-4.50137,1.49468
-322,421,-7.55817,1.13263,0,0,0,0,0,0,0,-1,902,603,-7.55818,-1.13263
-315,421,-4.16144,-1.96649,0,0,0,0,0,0,0,-1,909,603,-4.16146,1.9665
-308,421,0,0,0,0,0,0,0,0,0,-1,916,603,0,0
-301,421,0,0,0,0,0,0,0,0,0,-1,923,603,0,0
-294,421,0,0,0,0,0,0,0,0,0,-1,930,603,0,0
-287,421,0,0,0,0,0,0,0,0,0,-1,937,603,0,0
-280,421,0,0,0,0,0,0,0,0,0,-1,944,603,0,0
-273,421,0,0,0,0,0,0,0,0,0,-1,951,603,0,0
-266,421,0,0,0,0,0,0,0,0,0,-1,958,603,0,0
-259,421,0,0,0,0,0,0,0,0,0,-1,965,603,0,0
-252,421,0,0,0,0,0,0,0,0,0,-1,972,603,0,0
-245,421,0,0,0,0,0,0,0,0,0,-1,979,603,0,0
-238,421,0,0,0,0,0,0,0,0,0,-1,986,603,0,0
-231,421,0,0,0,0,0,0,0,0,0,-1,993,603,0,0
-224,421,0,0,0,0,0,0,0,0,0,-1,1000,603,0,0
-217,421,0,0,0,0,0,0,0,0,0,-1,1007,603,0,0
-210,421,0,0,0,0,0,0,0,0,0,-1,1014,603,0,0
-203,421,0,0,0,0,0,0,0,0,0,-1,1021,603,0,0
-196,421,0,0,0,0,0,0,0,0,0,-1,1028,603,0,0
-189,421,0,0,0,0,0,0,0,0,0,-1,1035,603,0,0
-182,421,0,0,0,0,0,0,0,0,0,-1,1042,603,0,0
-175,421,0,0,0,0,0,0,0,0,0,-1,1049,603,0,0
-168,421,0,0,0,0,0,0,0,0,0,-1,1056,603,0,0
-161,421,0,0,0,0,0,0,0,0,0,-1,1063,603,0,0
-154,421,0,0,0,0,0,0,0,0,0,-1,1070,603,0,0
-147,421,0,0,0,0,0,0,0,0,0,-1,1077,603,0,0
-140,421,0,0,0,0,0,0,0,0,0,-1,1084,603,0,0
-133,421,0,0,0,0,0,0,0,0,0,-1,1091,603,0,0
-126,421,0,0,0,0,0,0,0,0,0,-1,1098,603,0,0
-119,421,0,0,0,0,0,0,0,0,0,-1,1105,603,0,0
-112,421,0,0,0,0,0,0,0,0,0,-1,1112,603,0,0
-105,421,0,0,0,0,0,0,0,0,0,-1,1119,603,0,0
-98,421,0,0,0,0,0,0,0,0,0,-1,1126,603,0,0
-91,421,0,0,0,0,0,0,0,0,0,-1,1133,603,0,0
-84,421,0,0,0,0,0,0,0,0,0,-1,1140,603,0,0
-77,421,0,0,0,0,0,0,0,0,0,-1,1147,603,0,0
-70,421,0,0,0,0,0,0,0,0,0,-1,1154,603,0,0
-63,421,0,0,0,0,0,0,0,0,0,-1,1161,603,0,0
-56,421,0,0,0,0,0,0,0,0,0,-1,1168,603,0,0
-49,421,0,0,0,0,0,0,0,0,0,-1,1175,603,0,0
-42,421,0,0,0,0,0,0,0,0,0,-1,1182,603,0,0
-35,421,0,0,0,0,0,0,0,0,0,-1,1189,603,0,0
-28,421,0,0,0,0,0,0,0,0,0,-1,1196,603,0,0
-21,421,0,0,0,0,0,0,0,0,0,-1,1203,603,0,0
-14,421,0,0,0,0,0,0,0,0,0,-1,1210,603,0,0
-7,421,0,0,0,0,0,0,0,0,0,-1,1217,603,0,0
0,421,0,0,0,0,0,0,0,0,0,-1,1224,603,0,0
7,421,0,0,0,0,0,0,0,0,0,-1,1231,603,0,0
14,421,0,0,0,0,0,0,0,0,0,-1,1238,603,0,0
21,421,0,0,0,0,0,0,0,0,0,-1,1245,603,0,0
28,421,0,0,0,0,0,0,0,0,0,-1,1252,603,0,0
35,421,0,0,0,0,0,0,0,0,0,-1,1259,603,0,0
42,421,0,0,0,0,0,0,0,0,0,-1,1266,603,0,0
49,421,0,0,0,0,0,0,0,0,0,-1,1273,603,0,0
56,421,0,0,0,0,0,0,0,0,0,-1,1280,603,0,0
63,421,0,0,0,0,0,0,0,0,0,-1,1287,603,0,0
70,421,0,0,0,0,0,0,0,0,0,-1,1294,603,0,0
77,421,0,0,0,0,0,0,0,0,0,-1,1301,603,0,0
84,421,0,0,0,0,0,0,0,0,0,-1,1308,603,0,0
91,421,0,0,0,0,0,0,0,0,0,-1,1315,603,0,0
98,421,0,0,0,0,0,0,0,0,0,-1,1322,603,0,0
105,421,0,0,0,0,0,0,0,0,0,-1,1329,603,0,0
112,421,0,0,0,0,0,0,0,0,0,-1,1336,603,0,0
119,421,0,0,0,0,0,0,0,0,0,-1,1343,603,0,0
126,421,0,0,0,0,0,0,0,0,0,-1,1350,603,0,0
133,421,0,0,0,0,0,0,0,0,0,-1,1357,603,0,0
140,421,0,0,0,0,0,0,0,0,0,-1,1364,603,0,0
147,421,0,0,0,0,0,0,0,0,0,-1,1371,603,0,0
154,421,0,0,0,0,0,0,0,0,0,-1,1378,603,0,0
161,421,0,0,0,0,0,0,0,0,0,-1,1385,603,0,0
168,421,0,0,0,0,0,0,0,0,0,-1,1392,603,0,0
175,421,0,0,0,0,0,0,0,0,0,-1,1399,603,0,0
182,421,0,0,0,0,0,0,0,0,0,-1,1406,603,0,0
189,421,0,0,0,0,0,0,0,0,0,-1,1413,603,0,0
196,421,0,0,0,0,0,0,0,0,0,-1,1420,603,0,0
203,421,0,0,0,0,0,0,0,0,0,-1,1427,603,0,0
210,421,0,0,0,0,0,0,0,0,0,-1,1434,603,0,0
217,421,0,0,0,0,0,0,0,0,0,-1,1441,603,0,0
224,421,0,0,0,0,0,0,0,0,0,-1,1448,603,0,0
231,421,0,0,0,0,0,0,0,0,0,-1,1455,603,0,0
238,421,0,0,0,0,0,0,0,0,0,-1,1462,603,0,0
245,421,0,0,0,0,0,0,0,0,0,-1,1469,603,0,0
252,421,0,0,0,0,0,0,0,0,0,-1,1476,603,0,0
259,421,0,0,0,0,0,0,0,0,0,-1,1483,603,0,0
266,421,0,0,0,0,0,0,0,0,0,-1,1490,603,0,0
273,421,0,0,0,0,0,0,0,0,0,-1,1497,603,0,0
280,421,0,0,0,0,0,0,0,0,0,-1,1504,603,0,0
287,421,0,0,0,0,0,0,0,0,0,-1,1511,603,0,0
294,421,0,0,0,0,0,0,0,0,0,-1,1518,603,0,0
301,421,0,0,0,0,0,0,0,0,0,-1,1525,603,0,0
308,421,0,0,0,0,0,0,0,0,0,-1,1532,603,0,0
315,421,0,0,0,0,0,0,0,0,0,-1,1539,603,0,0
322,421,0,0,0,0,0,0,0,0,0,-1,1546,603,0,0
329,421,0,0,0,0,0,0,0,0,0,-1,1553,603,0,0
336,421,0,0,0,0,0,0,0,0,0,-1,1560,603,0,0
343,421,0,0,0,0,0,0,0,0,0,-1,1567,603,0,0
350,421,0,0,0,0,0,0,0,0,0,-1,1574,603,0,0
357,421,0,0,0,0,0,0,0,0,0,-1,1581,603,0,0
364,421,0,0,0,0,0,0,0,0,0,-1,1588,603,0,0
371,421,0,0,0,0,0,0,0,0,0,-1,1595,603,0,0
378,421,0,0,0,0,0,0,0,0,0,-1,1602,603,0,0
385,421,0,0,0,0,0,0,0,0,0,-1,1609,603,0,0
392,421,0,0,0,0,0,0,0,0,0,-1,1616,603,0,0
399,421,0,0,0,0,0,0,0,0,0,-1,1623,603,0,0
406,421,0,0,0,0,0,0,0,0,0,-1,1630,603,0,0
413,421,0,0,0,0,0,0,0,0,0,-1,1637,603,0,0
420,421,0,0,0,0,0,0,0,0,0,-1,1644,603,0,0
427,421,0,0,0,0,0,0,0,0,0,-1,1651,603,0,0
434,421,3.68176,-0.0327759,0,0,0,0,0,0,0,-1,1658,603,3.6818,0.0328037
441,421,8.06689,0.527832,0,0,0,0,0,0,0,-1,1665,603,8.06693,-0.527851
448,421,6.93921,0.802246,0,0,0,0,0,0,0,-1,1672,603,6.93923,-0.802251
455,421,7.29456,2.14825,0,0,0,0,0,0,0,-1,1679,603,7.29461,-2.14827
462,421,7.86902,3.53174,0,0,0,0,0,0,0,-1,1686,603,7.869,-3.53173
469,421,8.06604,2.81213,0,0,0,0,0,0,0,-1,1693,603,8.06606,-2.81212
476,421,8.26306,2.09253,0,0,0,0,0,0,0,-1,1700,603,8.26312,-2.09251
483,421,8.05322,0.798096,0,0,0,0,0,0,0,-1,1707,603,8.05323,-0.7981
490,421,7.51233,0.213074,0,0,0,0,0,0,0,-1,1714,603,7.51235,-0.213043
497,421,7.49634,-2.86688,0,0,0,0,0,0,0,-1,1721,603,7.4963,2.86688
504,421,6.90491,-2.18671,0,0,0,0,0,0,0,-1,1728,603,6.90491,2.18669
511,421,6.31348,-1.50653,0,0,0,0,0,0,0,-1,1735,603,6.31353,1.5065
518,421,6.27588,-2.49878,0,0,0,0,0,0,0,-1,1742,603,6.2759,2.4988
525,421,23.8538,-18.1967,0,0,0,0,0,0,0,-1,1749,603,23.8538,18.1967
532,421,23.9283,-17.1498,0.00473147,0.000402786,0.00212839,0.00560266,-0.000468398,0.388511,0.00390062,0.0440916,1756,603,23.9284,17.1498
539,421,24.0345,-16.3461,0.00392673,0.000578615,0.00174109,0.00466801,-0.000162667,0.402512,0.00316762,0.023485,1763,603,24.0345,16.3461
546,421,23.9974,-15.6545,0.00322471,0.000663876,0.00143041,0.00386407,2.45199e-05,0.420336,0.00256791,0.0137422,1770,603,23.9974,15.6545
553,421,23.9656,-14.9205,0.0025972,0.000845332,0.00121748,0.00322111,0.000221425,0.473563,0.00207754,0.012761,1777,603,23.9656,14.9205
560,421,23.9353,-14.1611,0.00204802,0.0010797,0.0011138,0.00277834,0.000349381,0.580375,0.00174745,0.0149521,1784,603,23.9354,14.1611
567,421,23.9017,-13.4434,0.00170323,0.00146492,0.00119987,0.00278985,0.0003783,0.735907,0.0017475,0.0175706,1791,603,23.9017,13.4434
574,421,23.8662,-12.7227,0.00155941,0.00193338,0.00143531,0.00319383,0.000298957,0.85017,0.00203689,0.0208578,1798,603,23.8663,12.7227
581,421,23.8395,-11.9619,0.0016146,0.00250636,0.00186706,0.00398004,0.000140917,0.902609,0.00260766,0.0213263,1805,603,23.8395,11.9619
588,421,23.7949,-11.2579,0.00194765,0.0033177,0.00254116,0.00526454,8.08854e-07,0.917054,0.00350943,0.0140344,1812,603,23.7949,11.2579
595,421,23.8093,-10.4615,0.00255304,0.00429319,0.00341662,0.00694878,-0.000102549,0.910078,0.00466708,0.0196963,1819,603,23.8093,10.4616
602,421,23.83,-9.61737,0,0,0,0,0,0,0,-1,1826,603,23.8299,9.6174
609,421,22.8762,-8.37524,0,0,0,0,0,0,0,-1,1833,603,22.8762,8.37525
616,421,17.7633,-4.72491,0,0,0,0,0,0,0,-1,1840,603,17.7633,4.7249
623,421,6.19885,0.376648,0,0,0,0,0,0,0,-1,1847,603,6.19881,-0.376624
630,421,6.54993,0.778748,0,0,0,0,0,0,0,-1,1854,603,6.54991,-0.778744
637,421,3.74512,1.65405,0,0,0,0,0,0,0,-1,1861,603,3.74517,-1.65407
644,421,3.58081,0.354675,0,0,0,0,0,0,0,-1,1868,603,3.58082,-0.354704
651,421,3.28687,3.66351,0,0,0,0,0,0,0,-1,1875,603,3.28688,-3.66353
658,421,0,0,0,0,0,0,0,0,0,-1,1882,603,0,0
665,421,0,0,0,0,0,0,0,0,0,-1,1889,603,0,0
672,421,0,0,0,0,0,0,0,0,0,-1,1896,603,0,0
679,421,0,0,0,0,0,0,0,0,0,-1,1903,603,0,0
686,421,0,0,0,0,0,0,0,0,0,-1,1910,603,0,0
693,421,0,0,0,0,0,0,0,0,0,-1,1917,603,0,0
700,421,0,0,0,0,0,0,0,0,0,-1,1924,603,0,0
707,421,0,0,0,0,0,0,0,0,0,-1,1931,603,0,0
714,421,0,0,0,0,0,0,0,0,0,-1,1938,603,0,0
721,421,0,0,0,0,0,0,0,0,0,-1,1945,603,0,0
728,421,0,0,0,0,0,0,0,0,0,-1,1952,603,0,0
735,421,0,0,0,0,0,0,0,0,0,-1,1959,603,0,0
742,421,0,0,0,0,0,0,0,0,0,-1,1966,603,0,0
749,421,0,0,0,0,0,0,0,0,0,-1,1973,603,0,0
756,421,0,0,0,0,0,0,0,0,0,-1,1980,603,0,0
763,421,0,0,0,0,0,0,0,0,0,-1,1987,603,0,0
770,421,0,0,0,0,0,0,0,0,0,-1,1994,603,0,0
777,421,0,0,0,0,0,0,0,0,0,-1,2001,603,0,0
784,421,0,0,0,0,0,0,0,0,0,-1,2008,603,0,0
791,421,0,0,0,0,0,0,0,0,0,-1,2015,603,0,0
798,421,0,0,0,0,0,0,0,0,0,-1,2022,603,0,0
805,421,0,0,0,0,0,0,0,0,0,-1,2029,603,0,0
812,421,0,0,0,0,0,0,0,0,0,-1,2036,603,0,0
-700,414,0,0,0,0,0,0,0,0,0,-1,524,610,0,0
-693,414,0,0,0,0,0,0,0,0,0,-1,531,610,0,0
-686,414,0,0,0,0,0,0,0,0,0,-1,538,610,0,0
-679,414,0,0,0,0,0,0,0,0,0,-1,545,610,0,0
-672,414,0,0,0,0,0,0,0,0,0,-1,552,610,0,0
-665,414,0,0,0,0,0,0,0,0,0,-1,559,610,0,0
-658,414,0,0,0,0,0,0,0,0,0,-1,566,610,0,0
-651,414,0,0,0,0,0,0,0,0,0,-1,573,610,0,0
-644,414,0,0,0,0,0,0,0,0,0,-1,580,610,0,0
-637,414,0,0,0,0,0,0,0,0,0,-1,587,610,0,0
-630,414,0,0,0,0,0,0,0,0,0,-1,594,610,0,0
-623,414,0,0,0,0,0,0,0,0,0,-1,601,610,0,0
-616,414,0,0,0,0,0,0,0,0,0,-1,608,610,0,0
-609,414,0,0,0,0,0,0,0,0,0,-1,615,610,0,0
-602,414,0,0,0,0,0,0,0,0,0,-1,622,610,0,0
-595,414,0,0,0,0,0,0,0,0,0,-1,629,610,0,0
-588,414,0,0,0,0,0,0,0,0,0,-1,636,610,0,0
-581,414,0,0,0,0,0,0,0,0,0,-1,643,610,0,0
-574,414,0,0,0,0,0,0,0,0,0,-1,650,610,0,0
-567,414,0,0,0,0,0,0,0,0,0,-1,657,610,0,0
-560,414,0,0,0,0,0,0,0,0,0,-1,664,610,0,0
-553,414,0,0,0,0,0,0,0,0,0,-1,671,610,0,0
-546,414,0,0,0,0,0,0,0,0,0,-1,678,610,0,0
-539,414,-7.50146,5.65619,0,0,0,0,0,0,0,-1,685,610,-7.50149,-5.65617
-532,414,-8.15204,4.01605,0,0,0,0,0,0,0,-1,692,610,-8.15206,-4.01606
-525,414,-3.47137,-3.27924,0,0,0,0,0,0,0,-1,699,610,-3.47136,3.27922
-518,414,-4.12909,-4.36908,0,0,0,0,0,0,0,-1,706,610,-4.12909,4.36909
-511,414,-3.92542,-4.97021,0,0,0,0,0,0,0,-1,713,610,-3.92542,4.97023
-504,414,-9.35394,-5.49896,0,0,0,0,0,0,0,-1,720,610,-9.35394,5.49898
-497,414,-9.67627,-6.54761,0,0,0,0,0,0,0,-1,727,610,-9.6763,6.5476
-490,414,-10.9006,-8.3277,0,0,0,0,0,0,0,-1,734,610,-10.9006,8.3277
-483,414,-11.5538,-10.2412,0,0,0,0,0,0,0,-1,741,610,-11.5538,10.2412
-476,414,-11.7208,-10.9642,-0.00201607,0.00290846,0.000574902,0.00297468,-0.00208229,1.45611,0.00293476,0.0228091,748,610,-11.7208,10.9642
-469,414,-11.7643,-11.672,-0.0013902,0.00260903,7.6983e-05,0.00261051,-0.00139168,1.55156,0.00234611,0.0143386,755,610,-11.7643,11.672
-462,414,-11.7504,-12.4412,-0.000758777,0.00225549,-0.000308654,0.00228677,-0.000790057,-1.4698,0.00184513,0.0231822,762,610,-11.7503,12.4412
-455,414,-11.8098,-13.2017,-0.000302098,0.0017799,-0.000449544,0.00187282,-0.000395016,-1.36697,0.00139894,0.0263741,769,610,-11.8098,13.2017
-448,414,-11.8493,-13.9269,0.000125755,0.00113109,-0.000430917,0.00129051,-3.36683e-05,-1.21645,0.000871781,0.0270563,776,610,-11.8493,13.927
-441,414,-11.8632,-14.6528,0.000487904,0.000392788,-0.000276428,0.000720835,0.000159857,-0.70021,0.000437126,0.0186263,783,610,-11.8631,14.6528
-434,414,-11.922,-15.3572,0.000806991,-0.00038273,-3.12264e-05,0.00080781,-0.000383549,-0.0262228,0.000702219,0.0103273,790,610,-11.922,15.3572
-427,414,-11.959,-16.0684,0.00108089,-0.00123344,0.000282397,0.00111485,-0.0012674,0.119682,0.00137633,0.0108698,797,610,-11.959,16.0683
-420,414,-11.9816,-16.7728,0.00132837,-0.00212139,0.000664639,0.00145199,-0.00224501,0.183896,0.00215077,0.0103631,804,610,-11.9816,16.7728
-413,414,-12.023,-17.4913,0.00154106,-0.00302809,0.00114161,0.00181041,-0.00329744,0.231705,0.00299039,0.010593,811,610,-12.023,17.4913
-406,414,-12.0131,-18.3102,0.00181343,-0.00377596,0.00150288,0.0021919,-0.00415443,0.246699,0.00372199,0.0295919,818,610,-12.0131,18.3103
-399,414,-11.8915,-19.111,0,0,0,0,0,0,0,-1,825,610,-11.8915,19.111
-392,414,-9.43781,-14.5624,0,0,0,0,0,0,0,-1,832,610,-9.43779,14.5624
-385,414,-8.14691,-13.0653,0,0,0,0,0,0,0,-1,839,610,-8.14692,13.0653
-378,414,-8.04907,-11.3331,0,0,0,0,0,0,0,-1,846,610,-8.04905,11.3331
-371,414,-5.20886,-8.05151,0,0,0,0,0,0,0,-1,853,610,-5.20887,8.05153
-364,414,-6.76282,-6.58759,0,0,0,0,0,0,0,-1,860,610,-6.7628,6.58756
-357,414,-9.08685,-8.86188,0,0,0,0,0,0,0,-1,867,610,-9.08688,8.86187
-350,414,-6.4502,-2.41821,0,0,0,0,0,0,0,-1,874,610,-6.45021,2.41822
-343,414,-6.80249,-2.32117,0,0,0,0,0,0,0,-1,881,610,-6.80252,2.32116
-336,414,-7.11017,-2.52026,0,0,0,0,0,0,0,-1,888,610,-7.11016,2.52026
-329,414,-7.59747,-2.70313,0,0,0,0,0,0,0,-1,895,610,-7.59747,2.70315
-322,414,-4.42236,-1.29163,0,0,0,0,0,0,0,-1,902,610,-4.42238,1.2916
-315,414,0,0,0,0,0,0,0,0,0,-1,909,610,0,0
-308,414,0,0,0,0,0,0,0,0,0,-1,916,610,0,0
-301,414,0,0,0,0,0,0,0,0,0,-1,923,610,0,0
-294,414,0,0,0,0,0,0,0,0,0,-1,930,610,0,0
-287,414,0,0,0,0,0,0,0,0,0,-1,937,610,0,0
-280,414,0,0,0,0,0,0,0,0,0,-1,944,610,0,0
-273,414,0,0,0,0,0,0,0,0,0,-1,951,610,0,0
-266,414,0,0,0,0,0,0,0,0,0,-1,958,610,0,0
-259,414,0,0,0,0,0,0,0,0,0,-1,965,610,0,0
-252,414,0,0,0,0,0,0,0,0,0,-1,972,610,0,0
-245,414,0,0,0,0,0,0,0,0,0,-1,979,610,0,0
-238,414,0,0,0,0,0,0,0,0,0,-1,986,610,0,0
-231,414,0,0,0,0,0,0,0,0,0,-1,993,610,0,0
-224,414,0,0,0,0,0,0,0,0,0,-1,1000,610,0,0
-217,414,0,0,0,0,0,0,0,0,0,-1,1007,610,0,0
-210,414,0,0,0,0,0,0,0,0,0,-1,1014,610,0,0
-203,414,0,0,0,0,0,0,0,0,0,-1,1021,610,0,0
-196,414,0,0,0,0,0,0,0,0,0,-1,1028,610,0,0
-189,414,0,0,0,0,0,0,0,0,0,-1,1035,610,0,0
-182,414,0,0,0,0,0,0,0,0,0,-1,1042,610,0,0
-175,414,0,0,0,0,0,0,0,0,0,-1,1049,610,0,0
-168,414,0,0,0,0,0,0,0,0,0,-1,1056,610,0,0
-161,414,0,0,0,0,0,0,0,0,0,-1,1063,610,0,0
-154,414,0,0,0,0,0,0,0,0,0,-1,1070,610,0,0
-147,414,0,0,0,0,0,0,0,0,0,-1,1077,610,0,0
-140,414,0,0,0,0,0,0,0,0,0,-1,1084,610,0,0
-133,414,0,0,0,0,0,0,0,0,0,-1,1091,610,0,0
-126,414,0,0,0,0,0,0,0,0,0,-1,1098,610,0,0
-119,414,0,0,0,0,0,0,0,0,0,-1,1105,610,0,0
-112,414,0,0,0,0,0,0,0,0,0,-1,1112,610,0,0
-105,414,0,0,0,0,0,0,0,0,0,-1,1119,610,0,0
-98,414,0,0,0,0,0,0,0,0,0,-1,1126,610,0,0
-91,414,0,0,0,0,0,0,0,0,0,-1,1133,610,0,0
-84,414,0,0,0,0,0,0,0,0,0,-1,1140,610,0,0
-77,414,0,0,0,0,0,0,0,0,0,-1,1147,610,0,0
-70,414,0,0,0,0,0,0,0,0,0,-1,1154,610,0,0
-63,414,0,0,0,0,0,0,0,0,0,-1,1161,610,0,0
-56,414,0,0,0,0,0,0,0,0,0,-1,1168,610,0,0
-49,414,0,0,0,0,0,0,0,0,0,-1,1175,610,0,0
-42,414,0,0,0,0,0,0,0,0,0,-1,1182,610,0,0
-35,414,0,0,0,0,0,0,0,0,0,-1,1189,610,0,0
-28,414,0,0,0,0,0,0,0,0,0,-1,1196,610,0,0
-21,414,0,0,0,0,0,0,0,0,0,-1,1203,610,0,0
-14,414,0,0,0,0,0,0,0,0,0,-1,1210,610,0,0
-7,414,0,0,0,0,0,0,0,0,0,-1,1217,610,0,0
0,414,0,0,0,0,0,0,0,0,0,-1,1224,610,0,0
7,414,0,0,0,0,0,0,0,0,0,-1,1231,610,0,0
14,414,0,0,0,0,0,0,0,0,0,-1,1238,610,0,0
21,414,0,0,0,0,0,0,0,0,0,-1,1245,610,0,0
28,414,0,0,0,0,0,0,0,0,0,-1,1252,610,0,0
35,414,0,0,0,0,0,0,0,0,0,-1,1259,610,0,0
42,414,0,0,0,0,0,0,0,0,0,-1,1266,610,0,0
49,414,0,0,0,0,0,0,0,0,0,-1,1273,610,0,0
56,414,0,0,0,0,0,0,0,0,0,-1,1280,610,0,0
63,414,0,0,0,0,0,0,0,0,0,-1,1287,610,0,0
70,414,0,0,0,0,0,0,0,0,0,-1,1294,610,0,0
77,414,0,0,0,0,0,0,0,0,0,-1,1301,610,0,0
84,414,0,0,0,0,0,0,0,0,0,-1,1308,610,0,0
91,414,0,0,0,0,0,0,0,0,0,-1,1315,610,0,0
98,414,0,0,0,0,0,0,0,0,0,-1,1322,610,0,0
105,414,0,0,0,0,0,0,0,0,0,-1,1329,610,0,0
112,414,0,0,0,0,0,0,0,0,0,-1,1336,610,0,0
119,414,0,0,0,0,0,0,0,0,0,-1,1343,610,0,0
126,414,0,0,0,0,0,0,0,0,0,-1,1350,610,0,0
133,414,0,0,0,0,0,0,0,0,0,-1,1357,610,0,0
140,414,0,0,0,0,0,0,0,0,0,-1,1364,610,0,0
147,414,0,0,0,0,0,0,0,0,0,-1,1371,610,0,0
154,414,0,0,0,0,0,0,0,0,0,-1,1378,610,0,0
161,414,0,0,0,0,0,0,0,0,0,-1,1385,610,0,0
168,414,0,0,0,0,0,0,0,0,0,-1,1392,610,0,0
175,414,0,0,0,0,0,0,0,0,0,-1,1399,610,0,0
182,414,0,0,0,0,0,0,0,0,0,-1,1406,610,0,0
189,414,0,0,0,0,0,0,0,0,0,-1,1413,610,0,0
196,414,0,0,0,0,0,0,0,0,0,-1,1420,610,0,0
203,414,0,0,0,0,0,0,0,0,0,-1,1427,610,0,0
210,414,0,0,0,0,0,0,0,0,0,-1,1434,610,0,0
217,414,0,0,0,0,0,0,0,0,0,-1,1441,610,0,0
224,414,0,0,0,0,0,0,0,0,0,-1,1448,610,0,0
231,414,0,0,0,0,0,0,0,0,0,-1,1455,610,0,0
238,414,0,0,0,0,0,0,0,0,0,-1,1462,610,0,0
245,414,0,0,0,0,0,0,0,0,0,-1,1469,610,0,0
252,414,0,0,0,0,0,0,0,0,0,-1,1476,610,0,0
259,414,0,0,0,0,0,0,0,0,0,-1,1483,610,0,0
266,414,0,0,0,0,0,0,0,0,0,-1,1490,610,0,0
273,414,0,0,0,0,0,0,0,0,0,-1,1497,610,0,0
280,414,0,0,0,0,0,0,0,0,0,-1,1504,610,0,0
287,414,0,0,0,0,0,0,0,0,0,-1,1511,610,0,0
294,414,0,0,0,0,0,0,0,0,0,-1,1518,610,0,0
301,414,0,0,0,0,0,0,0,0,0,-1,1525,610,0,0
308,414,0,0,0,0,0,0,0,0,0,-1,1532,610,0,0
315,414,0,0,0,0,0,0,0,0,0,-1,1539,610,0,0
322,414,0,0,0,0,0,0,0,0,0,-1,1546,610,0,0
329,414,0,0,0,0,0,0,0,0,0,-1,1553,610,0,0
336,414,0,0,0,0,0,0,0,0,0,-1,1560,610,0,0
343,414,0,0,0,0,0,0,0,0,0,-1,1567,610,0,0
350,414,0,0,0,0,0,0,0,0,0,-1,1574,610,0,0
357,414,0,0,0,0,0,0,0,0,0,-1,1581,610,0,0
364,414,0,0,0,0,0,0,0,0,0,-1,1588,610,0,0
371,414,0,0,0,0,0,0,0,0,0,-1,1595,610,0,0
378,414,0,0,0,0,0,0,0,0,0,-1,1602,610,0,0
385,414,0,0,0,0,0,0,0,0,0,-1,1609,610,0,0
392,414,0,0,0,0,0,0,0,0,0,-1,1616,610,0,0
399,414,0,0,0,0,0,0,0,0,0,-1,1623,610,0,0
406,414,0,0,0,0,0,0,0,0,0,-1,1630,610,0,0
413,414,0,0,0,0,0,0,0,0,0,-1,1637,610,0,0
420,414,0,0,0,0,0,0,0,0,0,-1,1644,610,0,0
427,414,0,0,0,0,0,0,0,0,0,-1,1651,610,0,0
434,414,0,0,0,0,0,0,0,0,0,-1,1658,610,0,0
441,414,7.84375,0.584412,0,0,0,0,0,0,0,-1,1665,610,7.84379,-0.584394
448,414,7.40808,1.25446,0,0,0,0,0,0,0,-1,1672,610,7.40807,-1.25446
455,414,6.3512,1.73846,0,0,0,0,0,0,0,-1,1679,610,6.3512,-1.73847
462,414,8.18103,3.22113,0,0,0,0,0,0,0,-1,1686,610,8.18108,-3.22112
469,414,8.38513,2.49579,0,0,0,0,0,0,0,-1,1693,610,8.38516,-2.49576
476,414,8.64099,1.71161,0,0,0,0,0,0,0,-1,1700,610,8.64097,-1.71164
483,414,8.62744,0.687622,0,0,0,0,0,0,0,-1,1707,610,8.62749,-0.687615
490,414,8.38831,-0.0302734,0,0,0,0,0,0,0,-1,1714,610,8.38835,0.0302913
497,414,4.71094,-0.110046,0,0,0,0,0,0,0,-1,1721,610,4.71089,0.110024
504,414,7.19568,-1.43835,0,0,0,0,0,0,0,-1,1728,610,7.19563,1.43836
511,414,5.94153,-1.28772,0,0,0,0,0,0,0,-1,1735,610,5.94151,1.28769
518,414,4.53381,-0.0996704,0,0,0,0,0,0,0,-1,1742,610,4.53378,0.0996819
525,414,6.18811,-1.64056,0,0,0,0,0,0,0,-1,1749,610,6.18814,1.64055
532,414,24.6692,-17.3884,0,0,0,0,0,0,0,-1,1756,610,24.6692,17.3884
539,414,24.7737,-16.3525,0,0,0,0,0,0,0,-1,1763,610,24.7737,16.3525
546,414,24.7242,-15.6205,0.00386872,0.000636776,0.00163915,0.00455453,-4.90309e-05,0.39626,0.00305283,0.0159006,1770,610,24.7243,15.6205
553,414,24.714,-14.8942,0.00306828,0.000738847,0.00130342,0.00365155,0.000155576,0.420768,0.0023842,0.0136699,1777,610,24.714,14.8942
560,414,24.6882,-14.171,0.00235946,0.000871609,0.00108963,0.0029349,0.000296169,0.485877,0.00186573,0.0156427,1784,610,24.6882,14.171
567,414,24.6553,-13.4162,0.00186849,0.00111752,0.00106836,0.00262543,0.000360587,0.616409,0.00164333,0.0252262,1791,610,24.6553,13.4162
574,414,24.6018,-12.6849,0.00163723,0.00147422,0.001228,0.00278643,0.00032503,0.752261,0.00175931,0.0236687,1798,610,24.6018,12.6849
581,414,24.5779,-11.9552,0.00161332,0.00192429,0.00155912,0.00333566,0.00020196,0.835097,0.0021596,0.0201729,1805,610,24.5779,11.9552
588,414,24.5649,-11.2257,0.00184731,0.00260366,0.00210345,0.00436266,8.83134e-05,0.874342,0.00287946,0.0191791,1812,610,24.5649,11.2257
595,414,24.5055,-10.4415,0.00239325,0.00343562,0.0028602,0.00582173,7.14045e-06,0.875519,0.00387878,0.0225054,1819,610,24.5055,10.4415
602,414,24.4348,-9.67493,0.00325507,0.0045515,0.00383619,0.00779385,1.27177e-05,0.869095,0.00519167,0.0265617,1826,610,24.4349,9.67494
609,414,24.4189,-8.8559,0,0,0,0,0,0,0,-1,1833,610,24.4189,8.85587
616,414,24.7247,-7.80963,0,0,0,0,0,0,0,-1,1840,610,24.7247,7.80964
623,414,9.6969,0.0378418,0,0,0,0,0,0,0,-1,1847,610,9.69685,-0.0378644
630,414,5.47144,0.499329,0,0,0,0,0,0,0,-1,1854,610,5.47142,-0.499303
637,414,8.36707,4.16278,0,0,0,0,0,0,0,-1,1861,610,8.36709,-4.16278
644,414,5.87073,1.51422,0,0,0,0,0,0,0,-1,1868,610,5.87076,-1.51424
651,414,3.6377,0.820557,0,0,0,0,0,0,0,-1,1875,610,3.6377,-0.820543
658,414,2.29761,3.87323,0,0,0,0,0,0,0,-1,1882,610,2.29758,-3.87325
665,414,0,0,0,0,0,0,0,0,0,-1,1889,610,0,0
672,414,0,0,0,0,0,0,0,0,0,-1,1896,610,0,0
679,414,0,0,0,0,0,0,0,0,0,-1,1903,610,0,0
686,414,0,0,0,0,0,0,0,0,0,-1,1910,610,0,0
693,414,0,0,0,0,0,0,0,0,0,-1,1917,610,0,0
700,414,0,0,0,0,0,0,0,0,0,-1,1924,610,0,0
707,414,0,0,0,0,0,0,0,0,0,-1,1931,610,0,0
714,414,0,0,0,0,0,0,0,0,0,-1,1938,610,0,0
721,414,0,0,0,0,0,0,0,0,0,-1,1945,610,0,0
728,414,0,0,0,0,0,0,0,0,0,-1,1952,610,0,0
735,414,0,0,0,0,0,0,0,0,0,-1,1959,610,0,0
742,414,0,0,0,0,0,0,0,0,0,-1,1966,610,0,0
749,414,0,0,0,0,0,0,0,0,0,-1,1973,610,0,0
756,414,0,0,0,0,0,0,0,0,0,-1,1980,610,0,0
763,414,0,0,0,0,0,0,0,0,0,-1,1987,610,0,0
770,414,0,0,0,0,0,0,0,0,0,-1,1994,610,0,0
777,414,0,0,0,0,0,0,0,0,0,-1,2001,610,0,0
784,414,0,0,0,0,0,0,0,0,0,-1,2008,610,0,0
791,414,0,0,0,0,0,0,0,0,0,-1,2015,610,0,0
798,414,0,0,0,0,0,0,0,0,0,-1,2022,610,0,0
805,414,0,0,0,0,0,0,0,0,0,-1,2029,610,0,0
812,414,0,0,0,0,0,0,0,0,0,-1,2036,610,0,0
-700,407,0,0,0,0,0,0,0,0,0,-1,524,617,0,0
-693,407,0,0,0,0,0,0,0,0,0,-1,531,617,0,0
-686,407,0,0,0,0,0,0,0,0,0,-1,538,617,0,0
-679,407,0,0,0,0,0,0,0,0,0,-1,545,617,0,0
-672,407,0,0,0,0,0,0,0,0,0,-1,552,617,0,0
-665,407,0,0,0,0,0,0,0,0,0,-1,559,617,0,0
-658,407,0,0,0,0,0,0,0,0,0,-1,566,617,0,0
-651,407,0,0,0,0,0,0,0,0,0,-1,573,617,0,0
-644,407,0,0,0,0,0,0,0,0,0,-1,580,617,0,0
-637,407,0,0,0,0,0,0,0,0,0,-1,587,617,0,0
-630,407,0,0,0,0,0,0,0,0,0,-1,594,617,0,0
-623,407,0,0,0,0,0,0,0,0,0,-1,601,617,0,0
-616,407,0,0,0,0,0,0,0,0,0,-1,608,617,0,0
-609,407,0,0,0,0,0,0,0,0,0,-1,615,617,0,0
-602,407,0,0,0,0,0,0,0,0,0,-1,622,617,0,0
-595,407,0,0,0,0,0,0,0,0,0,-1,629,617,0,0
-588,407,0,0,0,0,0,0,0,0,0,-1,636,617,0,0
-581,407,0,0,0,0,0,0,0,0,0,-1,643,617,0,0
-574,407,0,0,0,0,0,0,0,0,0,-1,650,617,0,0
-567,407,0,0,0,0,0,0,0,0,0,-1,657,617,0,0
-560,407,0,0,0,0,0,0,0,0,0,-1,664,617,0,0
-553,407,0,0,0,0,0,0,0,0,0,-1,671,617,0,0
-546,407,-8.54517,-0.658142,0,0,0,0,0,0,0,-1,678,617,-8.54515,0.658112
-539,407,-6.09442,-1.01154,0,0,0,0,0,0,0,-1,685,617,-6.09441,1.01155
-532,407,-7.75665,1.62152,0,0,0,0,0,0,0,-1,692,617,-7.75667,-1.62154
-525,407,-3.78247,-2.67639,0,0,0,0,0,0,0,-1,699,617,-3.78246,2.67638
-518,407,-5.013,-5.87323,0,0,0,0,0,0,0,-1,706,617,-5.013,5.87324
-511,407,-9.42743,-4.94189,0,0,0,0,0,0,0,-1,713,617,-9.42745,4.94191
-504,407,-10.8291,-8.05927,0,0,0,0,0,0,0,-1,720,617,-10.8291,8.05927
-497,407,-9.84467,-6.81641,0,0,0,0,0,0,0,-1,727,617,-9.84468,6.8164
-490,407,-12.5112,-9.11462,0,0,0,0,0,0,0,-1,734,617,-12.5113,9.11465
-483,407,-12.3593,-10.1594,-0.0014371,0.00225348,0.000684283,0.00237627,-0.00155989,1.39324,0.00228878,0.0337508,741,617,-12.3593,10.1595
-476,407,-12.4194,-10.8768,-0.00116293,0.0020588,0.000298099,0.00208615,-0.00119028,1.4793,0.00191507,0.0158144,748,617,-12.4195,10.8768
-469,407,-12.4703,-11.6071,-0.000726145,0.00177887,-3.71887e-05,0.00177942,-0.000726697,-1.55595,0.00148885,0.0134296,755,617,-12.4703,11.607
-462,407,-12.5081,-12.3634,-0.000277004,0.0014471,-0.000281565,0.00149192,-0.000321821,-1.41295,0.00111744,0.0210788,762,617,-12.5081,12.3634
-455,407,-12.5513,-13.1642,7.78072e-05,0.000957409,-0.000345011,0.00107659,-4.13708e-05,-1.2382,0.000731904,0.0235138,769,617,-12.5513,13.1642
-448,407,-12.5408,-13.9004,0.000461031,0.000381488,-0.000313402,0.000737175,0.000105344,-0.722284,0.00046037,0.0206708,776,617,-12.5408,13.9004
-441,407,-12.5868,-14.5859,0.000786014,-0.000307728,-0.000150097,0.000806239,-0.000327952,-0.133934,0.000673954,0.015526,783,617,-12.5868,14.5859
-434,407,-12.6595,-15.2855,0.00107617,-0.00105592,0.000106612,0.00108149,-0.00106123,0.0498377,0.00123712,0.01109,790,617,-12.6595,15.2854
-427,407,-12.6821,-16.0009,0.00131069,-0.00193367,0.000452572,0.00137264,-0.00199562,0.136036,0.00195572,0.0114162,797,617,-12.6821,16.0009
-420,407,-12.6807,-16.7154,0.0014783,-0.00294516,0.000920991,0.00166239,-0.00312926,0.197287,0.00280934,0.0110602,804,617,-12.6807,16.7154
-413,407,-12.6974,-17.4222,0.00163338,-0.00399565,0.00150292,0.00200952,-0.00437179,0.245233,0.00376746,0.0153293,811,617,-12.6975,17.4222
-406,407,-12.8076,-17.927,0.00185429,-0.00488844,0.00194149,0.00237336,-0.00540751,0.261246,0.00460473,0.047758,818,617,-12.8076,17.927
-399,407,-12.6296,-18.4742,0,0,0,0,0,0,0,-1,825,617,-12.6296,18.4742
-392,407,-8.33612,-12.195,0,0,0,0,0,0,0,-1,832,617,-8.33611,12.195
-385,407,-7.65765,-10.7744,0,0,0,0,0,0,0,-1,839,617,-7.65767,10.7744
-378,407,-6.08655,-7.42291,0,0,0,0,0,0,0,-1,846,617,-6.08652,7.42292
-371,407,-7.4007,-5.79449,0,0,0,0,0,0,0,-1,853,617,-7.40072,5.79447
-364,407,-10.0638,-6.6228,0,0,0,0,0,0,0,-1,860,617,-10.0639,6.62279
-357,407,-6.64447,-1.83337,0,0,0,0,0,0,0,-1,867,617,-6.64446,1.8334
-350,407,-7.03351,-1.77551,0,0,0,0,0,0,0,-1,874,617,-7.03349,1.77551
-343,407,-7.40967,-1.95026,0,0,0,0,0,0,0,-1,881,617,-7.40969,1.95026
-336,407,-8.10229,-2.40662,0,0,0,0,0,0,0,-1,888,617,-8.10229,2.40664
-329,407,-8.81232,-2.76331,0,0,0,0,0,0,0,-1,895,617,-8.81235,2.76331
-322,407,0,0,0,0,0,0,0,0,0,-1,902,617,0,0
-315,407,0,0,0,0,0,0,0,0,0,-1,909,617,0,0
-308,407,0,0,0,0,0,0,0,0,0,-1,916,617,0,0
-301,407,0,0,0,0,0,0,0,0,0,-1,923,617,0,0
-294,407,0,0,0,0,0,0,0,0,0,-1,930,617,0,0
-287,407,0,0,0,0,0,0,0,0,0,-1,937,617,0,0
-280,407,0,0,0,0,0,0,0,0,0,-1,944,617,0,0
-273,407,0,0,0,0,0,0,0,0,0,-1,951,617,0,0
-266,407,0,0,0,0,0,0,0,0,0,-1,958,617,0,0
-259,407,0,0,0,0,0,0,0,0,0,-1,965,617,0,0
-252,407,0,0,0,0,0,0,0,0,0,-1,972,617,0,0
-245,407,0,0,0,0,0,0,0,0,0,-1,979,617,0,0
-238,407,0,0,0,0,0,0,0,0,0,-1,986,617,0,0
-231,407,0,0,0,0,0,0,0,0,0,-1,993,617,0,0
-224,407,0,0,0,0,0,0,0,0,0,-1,1000,617,0,0
-217,407,0,0,0,0,0,0,0,0,0,-1,1007,617,0,0
-210,407,0,0,0,0,0,0,0,0,0,-1,1014,617,0,0
-203,407,0,0,0,0,0,0,0,0,0,-1,1021,617,0,0
-196,407,0,0,0,0,0,0,0,0,0,-1,1028,617,0,0
-189,407,0,0,0,0,0,0,0,0,0,-1,1035,617,0,0
-182,407,0,0,0,0,0,0,0,0,0,-1,1042,617,0,0
-175,407,0,0,0,0,0,0,0,0,0,-1,1049,617,0,0
-168,407,0,0,0,0,0,0,0,0,0,-1,1056,617,0,0
-161,407,0,0,0,0,0,0,0,0,0,-1,1063,617,0,0
-154,407,0,0,0,0,0,0,0,0,0,-1,1070,617,0,0
-147,407,0,0,0,0,0,0,0,0,0,-1,1077,617,0,0
-140,407,0,0,0,0,0,0,0,0,0,-1,1084,617,0,0
-133,407,0,0,0,0,0,0,0,0,0,-1,1091,617,0,0
-126,407,0,0,0,0,0,0,0,0,0,-1,1098,617,0,0
-119,407,0,0,0,0,0,0,0,0,0,-1,1105,617,0,0
-112,407,0,0,0,0,0,0,0,0,0,-1,1112,617,0,0
-105,407,0,0,0,0,0,0,0,0,0,-1,1119,617,0,0
-98,407,0,0,0,0,0,0,0,0,0,-1,1126,617,0,0
-91,407,0,0,0,0,0,0,0,0,0,-1,1133,617,0,0
-84,407,0,0,0,0,0,0,0,0,0,-1,1140,617,0,0
-77,407,0,0,0,0,0,0,0,0,0,-1,1147,617,0,0
-70,407,0,0,0,0,0,0,0,0,0,-1,1154,617,0,0
-63,407,0,0,0,0,0,0,0,0,0,-1,1161,617,0,0
-56,407,0,0,0,0,0,0,0,0,0,-1,1168,617,0,0
-49,407,0,0,0,0,0,0,0,0,0,-1,1175,617,0,0
-42,407,0,0,0,0,0,0,0,0,0,-1,1182,617,0,0
-35,407,0,0,0,0,0,0,0,0,0,-1,1189,617,0,0
-28,407,0,0,0,0,0,0,0,0,0,-1,1196,617,0,0
-21,407,0,0,0,0,0,0,0,0,0,-1,1203,617,0,0
-14,407,0,0,0,0,0,0,0,0,0,-1,1210,617,0,0
-7,407,0,0,0,0,0,0,0,0,0,-1,1217,617,0,0
0,407,0,0,0,0,0,0,0,0,0,-1,1224,617,0,0
7,407,0,0,0,0,0,0,0,0,0,-1,1231,617,0,0
14,407,0,0,0,0,0,0,0,0,0,-1,1238,617,0,0
21,407,0,0,0,0,0,0,0,0,0,-1,1245,617,0,0
28,407,0,0,0,0,0,0,0,0,0,-1,1252,617,0,0
35,407,0,0,0,0,0,0,0,0,0,-1,1259,617,0,0
42,407,0,0,0,0,0,0,0,0,0,-1,1266,617,0,0
49,407,0,0,0,0,0,0,0,0,0,-1,1273,617,0,0
56,407,0,0,0,0,0,0,0,0,0,-1,1280,617,0,0
63,407,0,0,0,0,0,0,0,0,0,-1,1287,617,0,0
70,407,0,0,0,0,0,0,0,0,0,-1,1294,617,0,0
77,407,0,0,0,0,0,0,0,0,0,-1,1301,617,0,0
84,407,0,0,0,0,0,0,0,0,0,-1,1308,617,0,0
91,407,0,0,0,0,0,0,0,0,0,-1,1315,617,0,0
98,407,0,0,0,0,0,0,0,0,0,-1,1322,617,0,0
105,407,0,0,0,0,0,0,0,0,0,-1,1329,617,0,0
112,407,0,0,0,0,0,0,0,0,0,-1,1336,617,0,0
119,407,0,0,0,0,0,0,0,0,0,-1,1343,617,0,0
126,407,0,0,0,0,0,0,0,0,0,-1,1350,617,0,0
133,407,0,0,0,0,0,0,0,0,0,-1,1357,617,0,0
140,407,0,0,0,0,0,0,0,0,0,-1,1364,617,0,0
147,407,0,0,0,0,0,0,0,0,0,-1,1371,617,0,0
154,407,0,0,0,0,0,0,0,0,0,-1,1378,617,0,0
161,407,0,0,0,0,0,0,0,0,0,-1,1385,617,0,0
168,407,0,0,0,0,0,0,0,0,0,-1,1392,617,0,0
175,407,0,0,0,0,0,0,0,0,0,-1,1399,617,0,0
182,407,0,0,0,0,0,0,0,0,0,-1,1406,617,0,0
189,407,0,0,0,0,0,0,0,0,0,-1,1413,617,0,0
196,407,0,0,0,0,0,0,0,0,0,-1,1420,617,0,0
203,407,0,0,0,0,0,0,0,0,0,-1,1427,617,0,0
210,407,0,0,0,0,0,0,0,0,0,-1,1434,617,0,0
217,407,0,0,0,0,0,0,0,0,0,-1,1441,617,0,0
224,407,0,0,0,0,0,0,0,0,0,-1,1448,617,0,0
231,407,0,0,0,0,0,0,0,0,0,-1,1455,617,0,0
238,407,0,0,0,0,0,0,0,0,0,-1,1462,617,0,0
245,407,0,0,0,0,0,0,0,0,0,-1,1469,617,0,0
252,407,0,0,0,0,0,0,0,0,0,-1,1476,617,0,0
259,407,0,0,0,0,0,0,0,0,0,-1,1483,617,0,0
266,407,0,0,0,0,0,0,0,0,0,-1,1490,617,0,0
273,407,0,0,0,0,0,0,0,0,0,-1,1497,617,0,0
280,407,0,0,0,0,0,0,0,0,0,-1,1504,617,0,0
287,407,0,0,0,0,0,0,0,0,0,-1,1511,617,0,0
294,407,0,0,0,0,0,0,0,0,0,-1,1518,617,0,0
301,407,0,0,0,0,0,0,0,0,0,-1,1525,617,0,0
308,407,0,0,0,0,0,0,0,0,0,-1,1532,617,0,0
315,407,0,0,0,0,0,0,0,0,0,-1,1539,617,0,0
322,407,0,0,0,0,0,0,0,0,0,-1,1546,617,0,0
329,407,0,0,0,0,0,0,0,0,0,-1,1553,617,0,0
336,407,0,0,0,0,0,0,0,0,0,-1,1560,617,0,0
343,407,0,0,0,0,0,0,0,0,0,-1,1567,617,0,0
350,407,0,0,0,0,0,0,0,0,0,-1,1574,617,0,0
357,407,0,0,0,0,0,0,0,0,0,-1,1581,617,0,0
364,407,0,0,0,0,0,0,0,0,0,-1,1588,617,0,0
371,407,0,0,0,0,0,0,0,0,0,-1,1595,617,0,0
378,407,0,0,0,0,0,0,0,0,0,-1,1602,617,0,0
385,407,0,0,0,0,0,0,0,0,0,-1,1609,617,0,0
392,407,0,0,0,0,0,0,0,0,0,-1,1616,617,0,0
399,407,0,0,0,0,0,0,0,0,0,-1,1623,617,0,0
406,407,0,0,0,0,0,0,0,0,0,-1,1630,617,0,0
413,407,0,0,0,0,0,0,0,0,0,-1,1637,617,0,0
420,407,0,0,0,0,0,0,0,0,0,-1,1644,617,0,0
427,407,0,0,0,0,0,0,0,0,0,-1,1651,617,0,0
434,407,0,0,0,0,0,0,0,0,0,-1,1658,617,0,0
441,407,0,0,0,0,0,0,0,0,0,-1,1665,617,0,0
448,407,7.02893,2.13843,0,0,0,0,0,0,0,-1,1672,617,7.02899,-2.13844
455,407,7.55237,2.29242,0,0,0,0,0,0,0,-1,1679,617,7.55236,-2.29244
462,407,8.2926,2.46173,0,0,0,0,0,0,0,-1,1686,617,8.29261,-2.46174
469,407,8.71509,2.22681,0,0,0,0,0,0,0,-1,1693,617,8.71511,-2.22681
476,407,8.89917,1.47766,0,0,0,0,0,0,0,-1,1700,617,8.89914,-1.47768
483,407,9.02612,0.682983,0,0,0,0,0,0,0,-1,1707,617,9.02608,-0.683004
490,407,9.12659,0.000671387,0,0,0,0,0,0,0,-1,1714,617,9.12653,-0.000675931
497,407,7.76819,0.855835,0,0,0,0,0,0,0,-1,1721,617,7.7682,-0.855865
504,407,4.69336,0.160706,0,0,0,0,0,0,0,-1,1728,617,4.69337,-0.1607
511,407,4.07104,-0.00140381,0,0,0,0,0,0,0,-1,1735,617,4.07109,0.00141425
518,407,6.09534,1.9411,0,0,0,0,0,0,0,-1,1742,617,6.09532,-1.94113
525,407,5.72534,-1.35986,0,0,0,0,0,0,0,-1,1749,617,5.72529,1.35988
532,407,18.5767,-10.6388,0,0,0,0,0,0,0,-1,1756,617,18.5766,10.6388
539,407,25.4432,-16.3561,0,0,0,0,0,0,0,-1,1763,617,25.4433,16.3561
546,407,25.4464,-15.5992,0.00433571,0.000806256,0.00189586,0.00516106,-1.91033e-05,0.410603,0.00344709,0.025309,1770,617,25.4464,15.5992
553,407,25.4307,-14.8757,0.00341466,0.000788876,0.00141706,0.00403354,0.000169996,0.411769,0.00263419,0.0168477,1777,617,25.4307,14.8757
560,407,25.4395,-14.126,0.00260004,0.000772216,0.00108061,0.00310138,0.000270875,0.43439,0.00198347,0.017893,1784,617,25.4395,14.126
567,407,25.3956,-13.3884,0.00199776,0.000830382,0.00093325,0.00251482,0.000313323,0.505941,0.00158248,0.031758,1791,617,25.3957,13.3883
574,407,25.353,-12.656,0.00171038,0.00106583,0.00101596,0.00245396,0.000322253,0.631812,0.00153984,0.0267552,1798,617,25.3531,12.656
581,407,25.3116,-11.8969,0.001639,0.00141229,0.00126873,0.00279942,0.000251865,0.740844,0.00178825,0.0174628,1805,617,25.3116,11.8969
588,407,25.2686,-11.1406,0.00181379,0.00199088,0.00172681,0.00363141,0.000173262,0.811014,0.0023653,0.0132745,1812,617,25.2685,11.1406
595,407,25.2638,-10.4265,0.00234084,0.00272203,0.00241516,0.0049541,0.00010876,0.824775,0.00326709,0.0265865,1819,617,25.2638,10.4265
602,407,25.2316,-9.59399,0.00323036,0.00369399,0.00333516,0.00680538,0.000118974,0.820096,0.00449779,0.0217054,1826,617,25.2316,9.59397
609,407,25.1299,-8.80658,0.00454221,0.00497528,0.00451797,0.0092819,0.000235594,0.809344,0.00611091,0.0185055,1833,617,25.1299,8.8066
616,407,25.197,-7.89435,0.00633194,0.00662527,0.00601657,0.012497,0.000460242,0.797584,0.00818221,0.0332866,1840,617,25.1971,7.89436
623,407,25.4761,-6.85913,0,0,0,0,0,0,0,-1,1847,617,25.4761,6.85916
630,407,7.06177,0.814575,0,0,0,0,0,0,0,-1,1854,617,7.06178,-0.814579
637,407,9.76819,-0.110657,0,0,0,0,0,0,0,-1,1861,617,9.76814,0.11064
644,407,5.09766,2.27747,0,0,0,0,0,0,0,-1,1868,617,5.09764,-2.27746
651,407,7.37524,0.0513916,0,0,0,0,0,0,0,-1,1875,617,7.3752,-0.0513923
658,407,3.76685,0.594177,0,0,0,0,0,0,0,-1,1882,617,3.76683,-0.594184
665,407,5.76123,0.375061,0,0,0,0,0,0,0,-1,1889,617,5.76118,-0.37509
672,407,0,0,0,0,0,0,0,0,0,-1,1896,617,0,0
679,407,0,0,0,0,0,0,0,0,0,-1,1903,617,0,0
686,407,0,0,0,0,0,0,0,0,0,-1,1910,617,0,0
693,407,0,0,0,0,0,0,0,0,0,-1,1917,617,0,0
700,407,0,0,0,0,0,0,0,0,0,-1,1924,617,0,0
707,407,0,0,0,0,0,0,0,0,0,-1,1931,617,0,0
714,407,0,0,0,0,0,0,0,0,0,-1,1938,617,0,0
721,407,0,0,0,0,0,0,0,0,0,-1,1945,617,0,0
728,407,0,0,0,0,0,0,0,0,0,-1,1952,617,0,0
735,407,0,0,0,0,0,0,0,0,0,-1,1959,617,0,0
742,407,0,0,0,0,0,0,0,0,0,-1,1966,617,0,0
749,407,0,0,0,0,0,0,0,0,0,-1,1973,617,0,0
756,407,0,0,0,0,0,0,0,0,0,-1,1980,617,0,0
763,407,0,0,0,0,0,0,0,0,0,-1,1987,617,0,0
770,407,0,0,0,0,0,0,0,0,0,-1,1994,617,0,0
777,407,0,0,0,0,0,0,0,0,0,-1,2001,617,0,0
784,407,0,0,0,0,0,0,0,0,0,-1,2008,617,0,0
791,407,0,0,0,0,0,0,0,0,0,-1,2015,617,0,0
798,407,0,0,0,0,0,0,0,0,0,-1,2022,617,0,0
805,407,0,0,0,0,0,0,0,0,0,-1,2029,617,0,0
812,407,0,0,0,0,0,0,0,0,0,-1,2036,617,0,0
-700,400,0,0,0,0,0,0,0,0,0,-1,524,624,0,0
-693,400,0,0,0,0,0,0,0,0,0,-1,531,624,0,0
-686,400,0,0,0,0,0,0,0,0,0,-1,538,624,0,0
-679,400,0,0,0,0,0,0,0,0,0,-1,545,624,0,0
-672,400,0,0,0,0,0,0,0,0,0,-1,552,624,0,0
-665,400,0,0,0,0,0,0,0,0,0,-1,559,624,0,0
-658,400,0,0,0,0,0,0,0,0,0,-1,566,624,0,0
-651,400,0,0,0,0,0,0,0,0,0,-1,573,624,0,0
-644,400,0,0,0,0,0,0,0,0,0,-1,580,624,0,0
-637,400,0,0,0,0,0,0,0,0,0,-1,587,624,0,0
-630,400,0,0,0,0,0,0,0,0,0,-1,594,624,0,0
-623,400,0,0,0,0,0,0,0,0,0,-1,601,624,0,0
-616,400,0,0,0,0,0,0,0,0,0,-1,608,624,0,0
-609,400,0,0,0,0,0,0,0,0,0,-1,615,624,0,0
-602,400,0,0,0,0,0,0,0,0,0,-1,622,624,0,0
-595,400,0,0,0,0,0,0,0,0,0,-1,629,624,0,0
-588,400,0,0,0,0,0,0,0,0,0,-1,636,624,0,0
-581,400,0,0,0,0,0,0,0,0,0,-1,643,624,0,0
-574,400,0,0,0,0,0,0,0,0,0,-1,650,624,0,0
-567,400,0,0,0,0,0,0,0,0,0,-1,657,624,0,0
-560,400,0,0,0,0,0,0,0,0,0,-1,664,624,0,0
-553,400,0,0,0,0,0,0,0,0,0,-1,671,624,0,0
-546,400,-8.41174,-1.4599,0,0,0,0,0,0,0,-1,678,624,-8.41173,1.45989
-539,400,-5.69104,-1.7337,0,0,0,0,0,0,0,-1,685,624,-5.69103,1.7337
-532,400,-3.03632,-2.03912,0,0,0,0,0,0,0,-1,692,624,-3.03632,2.03909
-525,400,-6.20813,-7.04071,0,0,0,0,0,0,0,-1,699,624,-6.20814,7.04071
-518,400,-5.26544,-1.58661,0,0,0,0,0,0,0,-1,706,624,-5.26544,1.58658
-511,400,-10.6307,-6.7121,0,0,0,0,0,0,0,-1,713,624,-10.6307,6.71209
-504,400,-10.2663,-6.55109,0,0,0,0,0,0,0,-1,720,624,-10.2663,6.55106
-497,400,-13.2248,-8.34595,0,0,0,0,0,0,0,-1,727,624,-13.2248,8.34595
-490,400,-13.1287,-9.22076,0,0,0,0,0,0,0,-1,734,624,-13.1287,9.22079
-483,400,-13.1287,-10.0972,-0.000629999,0.00157632,0.000340299,0.00162761,-0.000681294,1.42119,0.00136986,0.0172698,741,624,-13.1287,10.0971
-476,400,-13.1572,-10.8209,-0.000449595,0.00135252,8.73651e-05,0.00135674,-0.000453821,1.52247,0.0010878,0.0137307,748,624,-13.1572,10.8208
-469,400,-13.2101,-11.5721,-0.000119097,0.00109286,-0.000155605,0.00111252,-0.000138756,-1.44512,0.000791995,0.0150465,755,624,-13.2101,11.5722
-462,400,-13.2399,-12.3314,0.000208127,0.000777083,-0.000314283,0.000916517,6.86927e-05,-1.15323,0.00058945,0.0201378,762,624,-13.2399,12.3314
-455,400,-13.2573,-13.0833,0.000502529,0.000292805,-0.000341088,0.000754511,4.08239e-05,-0.636267,0.000489967,0.0210518,769,624,-13.2573,13.0832
-448,400,-13.2675,-13.8363,0.000856166,-0.000206951,-0.00031872,0.000944396,-0.00029518,-0.270061,0.000747672,0.0155213,776,624,-13.2675,13.8363
-441,400,-13.33,-14.5139,0.00114907,-0.000827872,-0.000173239,0.00116414,-0.000842938,-0.0867484,0.00116372,0.0148401,783,624,-13.33,14.5138
-434,400,-13.3845,-15.2224,0.00140165,-0.00152187,7.14268e-05,0.0014034,-0.00152362,0.0244123,0.00169039,0.0125564,790,624,-13.3845,15.2223
-427,400,-13.4142,-15.9269,0.00157734,-0.00240257,0.00044132,0.00162569,-0.00245092,0.109121,0.00236965,0.0106994,797,624,-13.4143,15.9269
-420,400,-13.3692,-16.6848,0.00161145,-0.00353738,0.00100465,0.00180053,-0.00372647,0.186034,0.00325495,0.0178358,804,624,-13.3692,16.6847
-413,400,-13.5132,-17.2885,0.00161483,-0.00475056,0.00172131,0.00205049,-0.00518621,0.247889,0.00430687,0.045473,811,624,-13.5133,17.2885
-406,400,-13.4955,-17.3828,0,0,0,0,0,0,0,-1,818,624,-13.4956,17.3827
-399,400,-11.0176,-13.2944,0,0,0,0,0,0,0,-1,825,624,-11.0176,13.2944
-392,400,-4.92285,-6.63354,0,0,0,0,0,0,0,-1,832,624,-4.92285,6.63354
-385,400,-3.68738,-5.04205,0,0,0,0,0,0,0,-1,839,624,-3.68736,5.04207
-378,400,-6.84064,-1.28662,0,0,0,0,0,0,0,-1,846,624,-6.84062,1.28662
-371,400,-6.98865,-1.2572,0,0,0,0,0,0,0,-1,853,624,-6.98865,1.25721
-364,400,-6.97247,-1.24133,0,0,0,0,0,0,0,-1,860,624,-6.97249,1.24135
-357,400,-7.18329,-1.23218,0,0,0,0,0,0,0,-1,867,624,-7.18327,1.2322
-350,400,-7.40186,-1.19409,0,0,0,0,0,0,0,-1,874,624,-7.40187,1.19407
-343,400,-8.09357,-1.51147,0,0,0,0,0,0,0,-1,881,624,-8.09355,1.51148
-336,400,0,0,0,0,0,0,0,0,0,-1,888,624,0,0
-329,400,0,0,0,0,0,0,0,0,0,-1,895,624,0,0
-322,400,0,0,0,0,0,0,0,0,0,-1,902,624,0,0
-315,400,0,0,0,0,0,0,0,0,0,-1,909,624,0,0
-308,400,0,0,0,0,0,0,0,0,0,-1,916,624,0,0
-301,400,0,0,0,0,0,0,0,0,0,-1,923,624,0,0
-294,400,0,0,0,0,0,0,0,0,0,-1,930,624,0,0
-287,400,0,0,0,0,0,0,0,0,0,-1,937,624,0,0
-280,400,0,0,0,0,0,0,0,0,0,-1,944,624,0,0
-273,400,0,0,0,0,0,0,0,0,0,-1,951,624,0,0
-266,400,0,0,0,0,0,0,0,0,0,-1,958,624,0,0
-259,400,0,0,0,0,0,0,0,0,0,-1,965,624,0,0
-252,400,0,0,0,0,0,0,0,0,0,-1,972,624,0,0
-245,400,0,0,0,0,0,0,0,0,0,-1,979,624,0,0
-238,400,0,0,0,0,0,0,0,0,0,-1,986,624,0,0
-231,400,0,0,0,0,0,0,0,0,0,-1,993,624,0,0
-224,400,0,0,0,0,0,0,0,0,0,-1,1000,624,0,0
-217,400,0,0,0,0,0,0,0,0,0,-1,1007,624,0,0
-210,400,0,0,0,0,0,0,0,0,0,-1,1014,624,0,0
-203,400,0,0,0,0,0,0,0,0,0,-1,1021,624,0,0
-196,400,0,0,0,0,0,0,0,0,0,-1,1028,624,0,0
-189,400,0,0,0,0,0,0,0,0,0,-1,1035,624,0,0
-182,400,0,0,0,0,0,0,0,0,0,-1,1042,624,0,0
-175,400,0,0,0,0,0,0,0,0,0,-1,1049,624,0,0
-168,400,0,0,0,0,0,0,0,0,0,-1,1056,624,0,0
-161,400,0,0,0,0,0,0,0,0,0,-1,1063,624,0,0
-154,400,0,0,0,0,0,0,0,0,0,-1,1070,624,0,0
-147,400,0,0,0,0,0,0,0,0,0,-1,1077,624,0,0
-140,400,0,0,0,0,0,0,0,0,0,-1,1084,624,0,0
-133,400,0,0,0,0,0,0,0,0,0,-1,1091,624,0,0
-126,400,0,0,0,0,0,0,0,0,0,-1,1098,624,0,0
-119,400,0,0,0,0,0,0,0,0,0,-1,1105,624,0,0
-112,400,0,0,0,0,0,0,0,0,0,-1,1112,624,0,0
-105,400,0,0,0,0,0,0,0,0,0,-1,1119,624,0,0
-98,400,0,0,0,0,0,0,0,0,0,-1,1126,624,0,0
-91,400,0,0,0,0,0,0,0,0,0,-1,1133,624,0,0
-84,400,0,0,0,0,0,0,0,0,0,-1,1140,624,0,0
-77,400,0,0,0,0,0,0,0,0,0,-1,1147,624,0,0
-70,400,0,0,0,0,0,0,0,0,0,-1,1154,624,0,0
-63,400,0,0,0,0,0,0,0,0,0,-1,1161,624,0,0
-56,400,0,0,0,0,0,0,0,0,0,-1,1168,624,0,0
-49,400,0,0,0,0,0,0,0,0,0,-1,1175,624,0,0
-42,400,0,0,0,0,0,0,0,0,0,-1,1182,624,0,0
-35,400,0,0,0,0,0,0,0,0,0,-1,1189,624,0,0
-28,400,0,0,0,0,0,0,0,0,0,-1,1196,624,0,0
-21,400,0,0,0,0,0,0,0,0,0,-1,1203,624,0,0
-14,400,0,0,0,0,0,0,0,0,0,-1,1210,624,0,0
-7,400,0,0,0,0,0,0,0,0,0,-1,1217,624,0,0
0,400,0,0,0,0,0,0,0,0,0,-1,1224,624,0,0
7,400,0,0,0,0,0,0,0,0,0,-1,1231,624,0,0
14,400,0,0,0,0,0,0,0,0,0,-1,1238,624,0,0
21,400,0,0,0,0,0,0,0,0,0,-1,1245,624,0,0
28,400,0,0,0,0,0,0,0,0,0,-1,1252,624,0,0
35,400,0,0,0,0,0,0,0,0,0,-1,1259,624,0,0
42,400,0,0,0,0,0,0,0,0,0,-1,1266,624,0,0
49,400,0,0,0,0,0,0,0,0,0,-1,1273,624,0,0
56,400,0,0,0,0,0,0,0,0,0,-1,1280,624,0,0
63,400,0,0,0,0,0,0,0,0,0,-1,1287,624,0,0
70,400,0,0,0,0,0,0,0,0,0,-1,1294,624,0,0
77,400,0,0,0,0,0,0,0,0,0,-1,1301,624,0,0
84,400,0,0,0,0,0,0,0,0,0,-1,1308,624,0,0
91,400,0,0,0,0,0,0,0,0,0,-1,1315,624,0,0
98,400,0,0,0,0,0,0,0,0,0,-1,1322,624,0,0
105,400,0,0,0,0,0,0,0,0,0,-1,1329,624,0,0
112,400,0,0,0,0,0,0,0,0,0,-1,1336,624,0,0
119,400,0,0,0,0,0,0,0,0,0,-1,1343,624,0,0
126,400,0,0,0,0,0,0,0,0,0,-1,1350,624,0,0
133,400,0,0,0,0,0,0,0,0,0,-1,1357,624,0,0
140,400,0,0,0,0,0,0,0,0,0,-1,1364,624,0,0
147,400,0,0,0,0,0,0,0,0,0,-1,1371,624,0,0
154,400,0,0,0,0,0,0,0,0,0,-1,1378,624,0,0
161,400,0,0,0,0,0,0,0,0,0,-1,1385,624,0,0
168,400,0,0,0,0,0,0,0,0,0,-1,1392,624,0,0
175,400,0,0,0,0,0,0,0,0,0,-1,1399,624,0,0
182,400,0,0,0,0,0,0,0,0,0,-1,1406,624,0,0
189,400,0,0,0,0,0,0,0,0,0,-1,1413,624,0,0
196,400,0,0,0,0,0,0,0,0,0,-1,1420,624,0,0
203,400,0,0,0,0,0,0,0,0,0,-1,1427,624,0,0
210,400,0,0,0,0,0,0,0,0,0,-1,1434,624,0,0
217,400,0,0,0,0,0,0,0,0,0,-1,1441,624,0,0
224,400,0,0,0,0,0,0,0,0,0,-1,1448,624,0,0
231,400,0,0,0,0,0,0,0,0,0,-1,1455,624,0,0
238,400,0,0,0,0,0,0,0,0,0,-1,1462,624,0,0
245,400,0,0,0,0,0,0,0,0,0,-1,1469,624,0,0
252,400,0,0,0,0,0,0,0,0,0,-1,1476,624,0,0
259,400,0,0,0,0,0,0,0,0,0,-1,1483,624,0,0
266,400,0,0,0,0,0,0,0,0,0,-1,1490,624,0,0
273,400,0,0,0,0,0,0,0,0,0,-1,1497,624,0,0
280,400,0,0,0,0,0,0,0,0,0,-1,1504,624,0,0
287,400,0,0,0,0,0,0,0,0,0,-1,1511,624,0,0
294,400,0,0,0,0,0,0,0,0,0,-1,1518,624,0,0
301,400,0,0,0,0,0,0,0,0,0,-1,1525,624,0,0
308,400,0,0,0,0,0,0,0,0,0,-1,1532,624,0,0
315,400,0,0,0,0,0,0,0,0,0,-1,1539,624,0,0
322,400,0,0,0,0,0,0,0,0,0,-1,1546,624,0,0
329,400,0,0,0,0,0,0,0,0,0,-1,1553,624,0,0
336,400,0,0,0,0,0,0,0,0,0,-1,1560,624,0,0
343,400,0,0,0,0,0,0,0,0,0,-1,1567,624,0,0
350,400,0,0,0,0,0,0,0,0,0,-1,1574,624,0,0
357,400,0,0,0,0,0,0,0,0,0,-1,1581,624,0,0
364,400,0,0,0,0,0,0,0,0,0,-1,1588,624,0,0
371,400,0,0,0,0,0,0,0,0,0,-1,1595,624,0,0
378,400,0,0,0,0,0,0,0,0,0,-1,1602,624,0,0
385,400,0,0,0,0,0,0,0,0,0,-1,1609,624,0,0
392,400,0,0,0,0,0,0,0,0,0,-1,1616,624,0,0
399,400,0,0,0,0,0,0,0,0,0,-1,1623,624,0,0
406,400,0,0,0,0,0,0,0,0,0,-1,1630,624,0,0
413,400,0,0,0,0,0,0,0,0,0,-1,1637,624,0,0
420,400,0,0,0,0,0,0,0,0,0,-1,1644,624,0,0
427,400,0,0,0,0,0,0,0,0,0,-1,1651,624,0,0
434,400,0,0,0,0,0,0,0,0,0,-1,1658,624,0,0
441,400,0,0,0,0,0,0,0,0,0,-1,1665,624,0,0
448,400,0,0,0,0,0,0,0,0,0,-1,1672,624,0,0
455,400,8.91309,2.75885,0,0,0,0,0,0,0,-1,1679,624,8.91312,-2.75885
462,400,8.90356,2.37878,0,0,0,0,0,0,0,-1,1686,624,8.90353,-2.37878
469,400,9.14429,1.76849,0,0,0,0,0,0,0,-1,1693,624,9.14432,-1.76847
476,400,9.23254,1.25995,0,0,0,0,0,0,0,-1,1700,624,9.23252,-1.25994
483,400,9.59766,0.562439,0,0,0,0,0,0,0,-1,1707,624,9.59771,-0.56242
490,400,9.92578,-0.213745,0,0,0,0,0,0,0,-1,1714,624,9.92579,0.21376
497,400,9.19141,0.175232,0,0,0,0,0,0,0,-1,1721,624,9.19138,-0.175209
504,400,9.23438,0.00823975,0,0,0,0,0,0,0,-1,1728,624,9.23436,-0.00823766
511,400,6.16687,3.3501,0,0,0,0,0,0,0,-1,1735,624,6.16682,-3.35007
518,400,6.55237,1.74994,0,0,0,0,0,0,0,-1,1742,624,6.55236,-1.74993
525,400,6.99731,1.08783,0,0,0,0,0,0,0,-1,1749,624,6.99736,-1.08785
532,400,6.96582,-1.74982,0,0,0,0,0,0,0,-1,1756,624,6.96585,1.74983
539,400,21.2305,-10.5841,0,0,0,0,0,0,0,-1,1763,624,21.2304,10.5841
546,400,26.1825,-15.5712,0,0,0,0,0,0,0,-1,1770,624,26.1825,15.5712
553,400,26.111,-14.8727,0.00384342,0.000991205,0.00154066,0.0045167,0.000317929,0.411995,0.00291095,0.0422508,1777,624,26.111,14.8727
560,400,26.1659,-14.0715,0.00288182,0.000828588,0.00108332,0.00334769,0.000362715,0.406133,0.00212125,0.0161238,1784,624,26.1659,14.0715
567,400,26.1512,-13.3279,0.00210298,0.000688705,0.00079445,0.00245942,0.000332267,0.421739,0.00154085,0.0189658,1791,624,26.1513,13.3279
574,400,26.1094,-12.597,0.00169718,0.00080551,0.000791998,0.00216021,0.000342485,0.529041,0.00134064,0.0209593,1798,624,26.1094,12.597
581,400,26.0492,-11.8286,0.00153372,0.00105689,0.000968749,0.00229296,0.000297652,0.664742,0.00143972,0.020198,1805,624,26.0492,11.8286
588,400,25.9857,-11.0454,0.00162756,0.00153421,0.00135377,0.00293546,0.000226312,0.768167,0.00188607,0.0170054,1812,624,25.9857,11.0454
595,400,25.9873,-10.3154,0.0020899,0.00216273,0.00197505,0.0041017,0.000150928,0.794617,0.00268557,0.0166809,1819,624,25.9873,10.3154
602,400,25.9633,-9.57043,0.00290164,0.00298835,0.00282413,0.00576946,0.000120534,0.793074,0.00380676,0.0161577,1826,624,25.9633,9.57046
609,400,25.8435,-8.7951,0.00403175,0.00404555,0.00386366,0.00790232,0.000174983,0.786291,0.00521087,0.0149296,1833,624,25.8435,8.79513
616,400,25.8284,-8.02856,0.00557011,0.0054003,0.00518262,0.0106685,0.000301888,0.777207,0.00701389,0.0189875,1840,624,25.8284,8.02857
623,400,25.8761,-7.22876,0,0,0,0,0,0,0,-1,1847,624,25.8761,7.22875
630,400,11.9432,0.09021,0,0,0,0,0,0,0,-1,1854,624,11.9432,-0.0902007
637,400,6.92896,1.01917,0,0,0,0,0,0,0,-1,1861,624,6.92899,-1.01918
644,400,8.65381,1.4599,0,0,0,0,0,0,0,-1,1868,624,8.65379,-1.45991
651,400,7.90601,0.424072,0,0,0,0,0,0,0,-1,1875,624,7.90598,-0.424097
658,400,8.69031,1.0484,0,0,0,0,0,0,0,-1,1882,624,8.6903,-1.0484
665,400,5.98438,0.522522,0,0,0,0,0,0,0,-1,1889,624,5.98442,-0.522552
672,400,0,0,0,0,0,0,0,0,0,-1,1896,624,0,0
679,400,0,0,0,0,0,0,0,0,0,-1,1903,624,0,0
686,400,0,0,0,0,0,0,0,0,0,-1,1910,624,0,0
693,400,0,0,0,0,0,0,0,0,0,-1,1917,624,0,0
700,400,0,0,0,0,0,0,0,0,0,-1,1924,624,0,0
707,400,0,0,0,0,0,0,0,0,0,-1,1931,624,0,0
714,400,0,0,0,0,0,0,0,0,0,-1,1938,624,0,0
721,400,0,0,0,0,0,0,0,0,0,-1,1945,624,0,0
728,400,0,0,0,0,0,0,0,0,0,-1,1952,624,0,0
735,400,0,0,0,0,0,0,0,0,0,-1,1959,624,0,0
742,400,0,0,0,0,0,0,0,0,0,-1,1966,624,0,0
749,400,0,0,0,0,0,0,0,0,0,-1,1973,624,0,0
756,400,0,0,0,0,0,0,0,0,0,-1,1980,624,0,0
763,400,0,0,0,0,0,0,0,0,0,-1,1987,624,0,0
770,400,0,0,0,0,0,0,0,0,0,-1,1994,624,0,0
777,400,0,0,0,0,0,0,0,0,0,-1,2001,624,0,0
784,400,0,0,0,0,0,0,0,0,0,-1,2008,624,0,0
791,400,0,0,0,0,0,0,0,0,0,-1,2015,624,0,0
798,400,0,0,0,0,0,0,0,0,0,-1,2022,624,0,0
805,400,0,0,0,0,0,0,0,0,0,-1,2029,624,0,0
812,400,0,0,0,0,0,0,0,0,0,-1,2036,624,0,0
-700,393,0,0,0,0,0,0,0,0,0,-1,524,631,0,0
-693,393,0,0,0,0,0,0,0,0,0,-1,531,631,0,0
-686,393,0,0,0,0,0,0,0,0,0,-1,538,631,0,0
-679,393,0,0,0,0,0,0,0,0,0,-1,545,631,0,0
-672,393,0,0,0,0,0,0,0,0,0,-1,552,631,0,0
-665,393,0,0,0,0,0,0,0,0,0,-1,559,631,0,0
-658,393,0,0,0,0,0,0,0,0,0,-1,566,631,0,0
-651,393,0,0,0,0,0,0,0,0,0,-1,573,631,0,0
-644,393,0,0,0,0,0,0,0,0,0,-1,580,631,0,0
-637,393,0,0,0,0,0,0,0,0,0,-1,587,631,0,0
-630,393,0,0,0,0,0,0,0,0,0,-1,594,631,0,0
-623,393,0,0,0,0,0,0,0,0,0,-1,601,631,0,0
-616,393,0,0,0,0,0,0,0,0,0,-1,608,631,0,0
-609,393,0,0,0,0,0,0,0,0,0,-1,615,631,0,0
-602,393,0,0,0,0,0,0,0,0,0,-1,622,631,0,0
-595,393,0,0,0,0,0,0,0,0,0,-1,629,631,0,0
-588,393,0,0,0,0,0,0,0,0,0,-1,636,631,0,0
-581,393,0,0,0,0,0,0,0,0,0,-1,643,631,0,0
-574,393,0,0,0,0,0,0,0,0,0,-1,650,631,0,0
-567,393,0,0,0,0,0,0,0,0,0,-1,657,631,0,0
-560,393,0,0,0,0,0,0,0,0,0,-1,664,631,0,0
-553,393,-2.35107,3.92633,0,0,0,0,0,0,0,-1,671,631,-2.35108,-3.92634
-546,393,-1.78778,2.4856,0,0,0,0,0,0,0,-1,678,631,-1.78778,-2.48557
-539,393,-5.2113,-2.20245,0,0,0,0,0,0,0,-1,685,631,-5.21128,2.20247
-532,393,-2.83643,-2.01624,0,0,0,0,0,0,0,-1,692,631,-2.83642,2.01626
-525,393,-5.9505,-0.952698,0,0,0,0,0,0,0,-1,699,631,-5.95053,0.95268
-518,393,-5.80219,-1.57739,0,0,0,0,0,0,0,-1,706,631,-5.80219,1.57738
-511,393,-6.15527,-2.09906,0,0,0,0,0,0,0,-1,713,631,-6.15526,2.09903
-504,393,-13.6063,-6.95947,0,0,0,0,0,0,0,-1,720,631,-13.6063,6.95946
-497,393,-13.9188,-8.13239,0,0,0,0,0,0,0,-1,727,631,-13.9188,8.13237
-490,393,-13.821,-9.28961,-9.08444e-05,0.00131333,0.000292369,0.00137177,-0.000149287,1.3735,0.000968122,0.0249353,734,631,-13.821,9.2896
-483,393,-13.856,-10.0667,-8.39919e-05,0.00106165,0.000127004,0.00107556,-9.79025e-05,1.4617,0.000751803,0.0205636,741,631,-13.856,10.0667
-476,393,-13.8734,-10.7798,5.59409e-05,0.000860917,-6.58706e-05,0.000866272,5.05863e-05,-1.48969,0.000561413,0.0173538,748,631,-13.8734,10.7798
-469,393,-13.9052,-11.5432,0.000330675,0.000650475,-0.000273671,0.000807535,0.000173615,-1.04979,0.000490829,0.0131008,755,631,-13.9052,11.5432
-462,393,-13.9442,-12.3238,0.000594378,0.000373128,-0.000401089,0.000899818,6.76876e-05,-0.650838,0.000578638,0.0148455,762,631,-13.9442,12.3238
-455,393,-13.9893,-13.0728,0.000875137,-8.72777e-05,-0.000431975,0.00104058,-0.000252726,-0.365769,0.00079153,0.014356,769,631,-13.9893,13.0727
-448,393,-14.0482,-13.793,0.00124227,-0.000514353,-0.000446837,0.0013494,-0.000621483,-0.23531,0.00116347,0.0137775,776,631,-14.0482,13.793
-441,393,-14.0828,-14.4923,0.00156685,-0.00105818,-0.000359753,0.00161526,-0.00110659,-0.133762,0.00158058,0.0132416,783,631,-14.0828,14.4923
-434,393,-14.105,-15.1814,0.00185333,-0.00168883,-0.000170939,0.00186156,-0.00169706,-0.0481094,0.0020553,0.012795,790,631,-14.105,15.1814
-427,393,-14.0766,-15.9099,0.00204302,-0.00258019,0.000192627,0.00205103,-0.0025882,0.0415692,0.00268444,0.0219968,797,631,-14.0766,15.9099
-420,393,-13.9998,-16.7188,0,0,0,0,0,0,0,-1,804,631,-13.9998,16.7188
-413,393,-14.3641,-17.3309,0,0,0,0,0,0,0,-1,811,631,-14.3641,17.3309
-406,393,-11.826,-12.7987,0,0,0,0,0,0,0,-1,818,631,-11.8261,12.7987
-399,393,-5.07343,-5.92365,0,0,0,0,0,0,0,-1,825,631,-5.07344,5.92364
-392,393,-2.08063,-3.02386,0,0,0,0,0,0,0,-1,832,631,-2.08063,3.02384
-385,393,-3.16931,-0.624756,0,0,0,0,0,0,0,-1,839,631,-3.16928,0.624764
-378,393,-7.33081,-0.872314,0,0,0,0,0,0,0,-1,846,631,-7.33081,0.872325
-371,393,-7.47858,-0.811096,0,0,0,0,0,0,0,-1,853,631,-7.47859,0.811075
-364,393,-7.64917,-0.662415,0,0,0,0,0,0,0,-1,860,631,-7.64917,0.662406
-357,393,-8.09686,-0.726013,0,0,0,0,0,0,0,-1,867,631,-8.09689,0.726029
-350,393,-8.38788,-0.511841,0,0,0,0,0,0,0,-1,874,631,-8.38785,0.511811
-343,393,0,0,0,0,0,0,0,0,0,-1,881,631,0,0
-336,393,0,0,0,0,0,0,0,0,0,-1,888,631,0,0
-329,393,0,0,0,0,0,0,0,0,0,-1,895,631,0,0
-322,393,0,0,0,0,0,0,0,0,0,-1,902,631,0,0
-315,393,0,0,0,0,0,0,0,0,0,-1,909,631,0,0
-308,393,0,0,0,0,0,0,0,0,0,-1,916,631,0,0
-301,393,0,0,0,0,0,0,0,0,0,-1,923,631,0,0
-294,393,0,0,0,0,0,0,0,0,0,-1,930,631,0,0
-287,393,0,0,0,0,0,0,0,0,0,-1,937,631,0,0
-280,393,0,0,0,0,0,0,0,0,0,-1,944,631,0,0
-273,393,0,0,0,0,0,0,0,0,0,-1,951,631,0,0
-266,393,0,0,0,0,0,0,0,0,0,-1,958,631,0,0
-259,393,0,0,0,0,0,0,0,0,0,-1,965,631,0,0
-252,393,0,0,0,0,0,0,0,0,0,-1,972,631,0,0
-245,393,0,0,0,0,0,0,0,0,0,-1,979,631,0,0
-238,393,0,0,0,0,0,0,0,0,0,-1,986,631,0,0
-231,393,0,0,0,0,0,0,0,0,0,-1,993,631,0,0
-224,393,0,0,0,0,0,0,0,0,0,-1,1000,631,0,0
-217,393,0,0,0,0,0,0,0,0,0,-1,1007,631,0,0
-210,393,0,0,0,0,0,0,0,0,0,-1,1014,631,0,0
-203,393,0,0,0,0,0,0,0,0,0,-1,1021,631,0,0
-196,393,0,0,0,0,0,0,0,0,0,-1,1028,631,0,0
-189,393,0,0,0,0,0,0,0,0,0,-1,1035,631,0,0
-182,393,0,0,0,0,0,0,0,0,0,-1,1042,631,0,0
-175,393,0,0,0,0,0,0,0,0,0,-1,1049,631,0,0
-168,393,0,0,0,0,0,0,0,0,0,-1,1056,631,0,0
-161,393,0,0,0,0,0,0,0,0,0,-1,1063,631,0,0
-154,393,0,0,0,0,0,0,0,0,0,-1,1070,631,0,0
-147,393,0,0,0,0,0,0,0,0,0,-1,1077,631,0,0
-140,393,0,0,0,0,0,0,0,0,0,-1,1084,631,0,0
-133,393,0,0,0,0,0,0,0,0,0,-1,1091,631,0,0
-126,393,0,0,0,0,0,0,0,0,0,-1,1098,631,0,0
-119,393,0,0,0,0,0,0,0,0,0,-1,1105,631,0,0
-112,393,0,0,0,0,0,0,0,0,0,-1,1112,631,0,0
-105,393,0,0,0,0,0,0,0,0,0,-1,1119,631,0,0
-98,393,0,0,0,0,0,0,0,0,0,-1,1126,631,0,0
-91,393,0,0,0,0,0,0,0,0,0,-1,1133,631,0,0
-84,393,0,0,0,0,0,0,0,0,0,-1,1140,631,0,0
-77,393,0,0,0,0,0,0,0,0,0,-1,1147,631,0,0
-70,393,0,0,0,0,0,0,0,0,0,-1,1154,631,0,0
-63,393,0,0,0,0,0,0,0,0,0,-1,1161,631,0,0
-56,393,0,0,0,0,0,0,0,0,0,-1,1168,631,0,0
-49,393,0,0,0,0,0,0,0,0,0,-1,1175,631,0,0
-42,393,0,0,0,0,0,0,0,0,0,-1,1182,631,0,0
-35,393,0,0,0,0,0,0,0,0,0,-1,1189,631,0,0
-28,393,0,0,0,0,0,0,0,0,0,-1,1196,631,0,0
-21,393,0,0,0,0,0,0,0,0,0,-1,1203,631,0,0
-14,393,0,0,0,0,0,0,0,0,0,-1,1210,631,0,0
-7,393,0,0,0,0,0,0,0,0,0,-1,1217,631,0,0
0,393,0,0,0,0,0,0,0,0,0,-1,1224,631,0,0
7,393,0,0,0,0,0,0,0,0,0,-1,1231,631,0,0
14,393,0,0,0,0,0,0,0,0,0,-1,1238,631,0,0
21,393,0,0,0,0,0,0,0,0,0,-1,1245,631,0,0
28,393,0,0,0,0,0,0,0,0,0,-1,1252,631,0,0
35,393,0,0,0,0,0,0,0,0,0,-1,1259,631,0,0
42,393,0,0,0,0,0,0,0,0,0,-1,1266,631,0,0
49,393,0,0,0,0,0,0,0,0,0,-1,1273,631,0,0
56,393,0,0,0,0,0,0,0,0,0,-1,1280,631,0,0
63,393,0,0,0,0,0,0,0,0,0,-1,1287,631,0,0
70,393,0,0,0,0,0,0,0,0,0,-1,1294,631,0,0
77,393,0,0,0,0,0,0,0,0,0,-1,1301,631,0,0
84,393,0,0,0,0,0,0,0,0,0,-1,1308,631,0,0
91,393,0,0,0,0,0,0,0,0,0,-1,1315,631,0,0
98,393,0,0,0,0,0,0,0,0,0,-1,1322,631,0,0
105,393,0,0,0,0,0,0,0,0,0,-1,1329,631,0,0
112,393,0,0,0,0,0,0,0,0,0,-1,1336,631,0,0
119,393,0,0,0,0,0,0,0,0,0,-1,1343,631,0,0
126,393,0,0,0,0,0,0,0,0,0,-1,1350,631,0,0
133,393,0,0,0,0,0,0,0,0,0,-1,1357,631,0,0
140,393,0,0,0,0,0,0,0,0,0,-1,1364,631,0,0
147,393,0,0,0,0,0,0,0,0,0,-1,1371,631,0,0
154,393,0,0,0,0,0,0,0,0,0,-1,1378,631,0,0
161,393,0,0,0,0,0,0,0,0,0,-1,1385,631,0,0
168,393,0,0,0,0,0,0,0,0,0,-1,1392,631,0,0
175,393,0,0,0,0,0,0,0,0,0,-1,1399,631,0,0
182,393,0,0,0,0,0,0,0,0,0,-1,1406,631,0,0
189,393,0,0,0,0,0,0,0,0,0,-1,1413,631,0,0
196,393,0,0,0,0,0,0,0,0,0,-1,1420,631,0,0
203,393,0,0,0,0,0,0,0,0,0,-1,1427,631,0,0
210,393,0,0,0,0,0,0,0,0,0,-1,1434,631,0,0
217,393,0,0,0,0,0,0,0,0,0,-1,1441,631,0,0
224,393,0,0,0,0,0,0,0,0,0,-1,1448,631,0,0
231,393,0,0,0,0,0,0,0,0,0,-1,1455,631,0,0
238,393,0,0,0,0,0,0,0,0,0,-1,1462,631,0,0
245,393,0,0,0,0,0,0,0,0,0,-1,1469,631,0,0
252,393,0,0,0,0,0,0,0,0,0,-1,1476,631,0,0
259,393,0,0,0,0,0,0,0,0,0,-1,1483,631,0,0
266,393,0,0,0,0,0,0,0,0,0,-1,1490,631,0,0
273,393,0,0,0,0,0,0,0,0,0,-1,1497,631,0,0
280,393,0,0,0,0,0,0,0,0,0,-1,1504,631,0,0
287,393,0,0,0,0,0,0,0,0,0,-1,1511,631,0,0
294,393,0,0,0,0,0,0,0,0,0,-1,1518,631,0,0
301,393,0,0,0,0,0,0,0,0,0,-1,1525,631,0,0
308,393,0,0,0,0,0,0,0,0,0,-1,1532,631,0,0
315,393,0,0,0,0,0,0,0,0,0,-1,1539,631,0,0
322,393,0,0,0,0,0,0,0,0,0,-1,1546,631,0,0
329,393,0,0,0,0,0,0,0,0,0,-1,1553,631,0,0
336,393,0,0,0,0,0,0,0,0,0,-1,1560,631,0,0
343,393,0,0,0,0,0,0,0,0,0,-1,1567,631,0,0
350,393,0,0,0,0,0,0,0,0,0,-1,1574,631,0,0
357,393,0,0,0,0,0,0,0,0,0,-1,1581,631,0,0
364,393,0,0,0,0,0,0,0,0,0,-1,1588,631,0,0
371,393,0,0,0,0,0,0,0,0,0,-1,1595,631,0,0
378,393,0,0,0,0,0,0,0,0,0,-1,1602,631,0,0
385,393,0,0,0,0,0,0,0,0,0,-1,1609,631,0,0
392,393,0,0,0,0,0,0,0,0,0,-1,1616,631,0,0
399,393,0,0,0,0,0,0,0,0,0,-1,1623,631,0,0
406,393,0,0,0,0,0,0,0,0,0,-1,1630,631,0,0
413,393,0,0,0,0,0,0,0,0,0,-1,1637,631,0,0
420,393,0,0,0,0,0,0,0,0,0,-1,1644,631,0,0
427,393,0,0,0,0,0,0,0,0,0,-1,1651,631,0,0
434,393,0,0,0,0,0,0,0,0,0,-1,1658,631,0,0
441,393,0,0,0,0,0,0,0,0,0,-1,1665,631,0,0
448,393,0,0,0,0,0,0,0,0,0,-1,1672,631,0,0
455,393,0,0,0,0,0,0,0,0,0,-1,1679,631,0,0
462,393,8.51099,1.89502,0,0,0,0,0,0,0,-1,1686,631,8.51103,-1.89504
469,393,9.39465,1.51703,0,0,0,0,0,0,0,-1,1693,631,9.39465,-1.51703
476,393,9.95569,1.185,0,0,0,0,0,0,0,-1,1700,631,9.95575,-1.18497
483,393,10.5267,0.887329,0,0,0,0,0,0,0,-1,1707,631,10.5267,-0.887321
490,393,10.9303,0.761414,0,0,0,0,0,0,0,-1,1714,631,10.9303,-0.761386
497,393,8.32153,1.88104,0,0,0,0,0,0,0,-1,1721,631,8.32148,-1.88103
504,393,9.46985,1.78711,0,0,0,0,0,0,0,-1,1728,631,9.46986,-1.78713
511,393,9.66565,-0.375977,0,0,0,0,0,0,0,-1,1735,631,9.66571,0.375949
518,393,7.01599,1.62482,0,0,0,0,0,0,0,-1,1742,631,7.01597,-1.62483
525,393,7.88245,-1.13422,0,0,0,0,0,0,0,-1,1749,631,7.88246,1.13423
532,393,7.06335,-1.18103,0,0,0,0,0,0,0,-1,1756,631,7.06332,1.18101
539,393,9.91626,-2.46301,0,0,0,0,0,0,0,-1,1763,631,9.91625,2.46302
546,393,16.4094,-8.04651,0,0,0,0,0,0,0,-1,1770,631,16.4094,8.04649
553,393,26.7891,-14.9771,0,0,0,0,0,0,0,-1,1777,631,26.789,14.9771
560,393,26.8657,-14.0928,0.00313302,0.000987165,0.00108806,0.00358818,0.000532003,0.396201,0.00223599,0.0455603,1784,631,26.8658,14.0928
567,393,26.8625,-13.2964,0.00213123,0.000625324,0.000643518,0.00236876,0.000387795,0.353597,0.00146709,0.0179779,1791,631,26.8626,13.2965
574,393,26.8688,-12.5518,0.00158057,0.000615818,0.000547688,0.00182802,0.000368366,0.42436,0.00111634,0.0171927,1798,631,26.8687,12.5518
581,393,26.7898,-11.7839,0.00131471,0.000778745,0.000644636,0.00174485,0.000348608,0.58841,0.0010662,0.0174089,1805,631,26.7898,11.7839
588,393,26.723,-11.002,0.00134678,0.00115325,0.000963688,0.00221855,0.000281479,0.735361,0.00139471,0.0198586,1812,631,26.723,11.002
595,393,26.7151,-10.2722,0.00176651,0.00168508,0.00151784,0.00324418,0.000207411,0.771989,0.00209707,0.0172148,1819,631,26.715,10.2722
602,393,26.6853,-9.5293,0.00252869,0.00238518,0.00228811,0.00474617,0.000167696,0.769724,0.00310972,0.018447,1826,631,26.6853,9.52928
609,393,26.624,-8.77582,0.00352563,0.00327187,0.00319314,0.00659441,0.000203091,0.765542,0.00433017,0.0162072,1833,631,26.624,8.77579
616,393,26.5872,-8.0321,0.00480955,0.00440544,0.0042922,0.00890445,0.000310542,0.761878,0.00583554,0.0165861,1840,631,26.5872,8.03208
623,393,26.6283,-7.15277,0.00634955,0.00567519,0.00556996,0.0115925,0.000432211,0.755167,0.00758839,0.0339927,1847,631,26.6283,7.15278
630,393,26.7046,-6.13708,0,0,0,0,0,0,0,-1,1854,631,26.7046,6.1371
637,393,11.4626,0.608887,0,0,0,0,0,0,0,-1,1861,631,11.4627,-0.608904
644,393,8.97583,1.30585,0,0,0,0,0,0,0,-1,1868,631,8.97586,-1.30584
651,393,11.348,0.53302,0,0,0,0,0,0,0,-1,1875,631,11.348,-0.53305
658,393,9.21338,1.50836,0,0,0,0,0,0,0,-1,1882,631,9.21338,-1.50834
665,393,6.1001,2.32129,0,0,0,0,0,0,0,-1,1889,631,6.10012,-2.3213
672,393,7.14575,2.43225,0,0,0,0,0,0,0,-1,1896,631,7.14572,-2.43222
679,393,0,0,0,0,0,0,0,0,0,-1,1903,631,0,0
686,393,0,0,0,0,0,0,0,0,0,-1,1910,631,0,0
693,393,0,0,0,0,0,0,0,0,0,-1,1917,631,0,0
700,393,0,0,0,0,0,0,0,0,0,-1,1924,631,0,0
707,393,0,0,0,0,0,0,0,0,0,-1,1931,631,0,0
714,393,0,0,0,0,0,0,0,0,0,-1,1938,631,0,0
721,393,0,0,0,0,0,0,0,0,0,-1,1945,631,0,0
728,393,0,0,0,0,0,0,0,0,0,-1,1952,631,0,0
735,393,0,0,0,0,0,0,0,0,0,-1,1959,631,0,0
742,393,0,0,0,0,0,0,0,0,0,-1,1966,631,0,0
749,393,0,0,0,0,0,0,0,0,0,-1,1973,631,0,0
756,393,0,0,0,0,0,0,0,0,0,-1,1980,631,0,0
763,393,0,0,0,0,0,0,0,0,0,-1,1987,631,0,0
770,393,0,0,0,0,0,0,0,0,0,-1,1994,631,0,0
777,393,0,0,0,0,0,0,0,0,0,-1,2001,631,0,0
784,393,0,0,0,0,0,0,0,0,0,-1,2008,631,0,0
791,393,0,0,0,0,0,0,0,0,0,-1,2015,631,0,0
798,393,0,0,0,0,0,0,0,0,0,-1,2022,631,0,0
805,393,0,0,0,0,0,0,0,0,0,-1,2029,631,0,0
812,393,0,0,0,0,0,0,0,0,0,-1,2036,631,0,0
-700,386,0,0,0,0,0,0,0,0,0,-1,524,638,0,0
-693,386,0,0,0,0,0,0,0,0,0,-1,531,638,0,0
-686,386,0,0,0,0,0,0,0,0,0,-1,538,638,0,0
-679,386,0,0,0,0,0,0,0,0,0,-1,545,638,0,0
-672,386,0,0,0,0,0,0,0,0,0,-1,552,638,0,0
-665,386,0,0,0,0,0,0,0,0,0,-1,559,638,0,0
-658,386,0,0,0,0,0,0,0,0,0,-1,566,638,0,0
-651,386,0,0,0,0,0,0,0,0,0,-1,573,638,0,0
-644,386,0,0,0,0,0,0,0,0,0,-1,580,638,0,0
-637,386,0,0,0,0,0,0,0,0,0,-1,587,638,0,0
-630,386,0,0,0,0,0,0,0,0,0,-1,594,638,0,0
-623,386,0,0,0,0,0,0,0,0,0,-1,601,638,0,0
-616,386,0,0,0,0,0,0,0,0,0,-1,608,638,0,0
-609,386,0,0,0,0,0,0,0,0,0,-1,615,638,0,0
-602,386,0,0,0,0,0,0,0,0,0,-1,622,638,0,0
-595,386,0,0,0,0,0,0,0,0,0,-1,629,638,0,0
-588,386,0,0,0,0,0,0,0,0,0,-1,636,638,0,0
-581,386,0,0,0,0,0,0,0,0,0,-1,643,638,0,0
-574,386,0,0,0,0,0,0,0,0,0,-1,650,638,0,0
-567,386,0,0,0,0,0,0,0,0,0,-1,657,638,0,0
-560,386,-3.97229,-5.13898,0,0,0,0,0,0,0,-1,664,638,-3.97232,5.13897
-553,386,-4.94244,-5.54309,0,0,0,0,0,0,0,-1,671,638,-4.94242,5.5431
-546,386,-1.78668,1.72827,0,0,0,0,0,0,0,-1,678,638,-1.78668,-1.72829
-539,386,-0.879456,-2.90009,0,0,0,0,0,0,0,-1,685,638,-0.879442,2.90008
-532,386,-5.4884,1.73328,0,0,0,0,0,0,0,-1,692,638,-5.4884,-1.73325
-525,386,-6.64148,-1.50604,0,0,0,0,0,0,0,-1,699,638,-6.64149,1.50603
-518,386,-11.1217,-4.10382,0,0,0,0,0,0,0,-1,706,638,-11.1217,4.1038
-511,386,-13.0612,-5.05151,0,0,0,0,0,0,0,-1,713,638,-13.0612,5.05149
-504,386,-14.5992,-7.36224,0,0,0,0,0,0,0,-1,720,638,-14.5992,7.36222
-497,386,-14.5677,-8.51923,0.000577341,0.00108692,7.19829e-05,0.00109689,0.000567368,1.43312,0.000633418,0.0238195,727,638,-14.5677,8.51925
-490,386,-14.5441,-9.33746,0.000464313,0.000932514,5.73942e-06,0.000932585,0.000464243,1.55854,0.00053843,0.0144613,734,638,-14.5441,9.33749
-483,386,-14.5684,-10.0908,0.000435351,0.000747656,-0.000112204,0.000783788,0.000399218,-1.25926,0.000452547,0.0175471,741,638,-14.5684,10.0908
-476,386,-14.5975,-10.8093,0.000557334,0.000593219,-0.00028287,0.000858715,0.000291838,-0.817071,0.000504185,0.0158742,748,638,-14.5975,10.8093
-469,386,-14.636,-11.5117,0.000794625,0.000441468,-0.000481554,0.00113095,0.00010514,-0.609668,0.000721481,0.0118402,755,638,-14.6361,11.5117
-462,386,-14.6647,-12.2759,0.0010191,0.000216444,-0.000603234,0.00134231,-0.000106765,-0.491871,0.000932503,0.0108586,762,638,-14.6647,12.276
-455,386,-14.7046,-13.033,0.00129657,-0.000214366,-0.000649895,0.00153765,-0.000455439,-0.355208,0.00120593,0.0127175,769,638,-14.7046,13.033
-448,386,-14.757,-13.7405,0.00167051,-0.000586663,-0.000699752,0.00186984,-0.000785993,-0.277507,0.00157533,0.0134645,776,638,-14.757,13.7405
-441,386,-14.8124,-14.4443,0.00202898,-0.00106209,-0.000680207,0.00217204,-0.00120516,-0.2073,0.00197628,0.0138546,783,638,-14.8124,14.4443
-434,386,-14.8018,-15.2109,0.00234949,-0.00164809,-0.000545281,0.00242253,-0.00172113,-0.133163,0.00240374,0.0321118,790,638,-14.8018,15.2109
-427,386,-14.7307,-16.0536,0,0,0,0,0,0,0,-1,797,638,-14.7307,16.0537
-420,386,-14.5338,-16.0451,0,0,0,0,0,0,0,-1,804,638,-14.5338,16.0451
-413,386,-5.45691,-5.35785,0,0,0,0,0,0,0,-1,811,638,-5.45691,5.35783
-406,386,-4.51135,-4.10999,0,0,0,0,0,0,0,-1,818,638,-4.51135,4.10996
-399,386,-3.57117,-3.42126,0,0,0,0,0,0,0,-1,825,638,-3.57116,3.42129
-392,386,-4.00977,0.403625,0,0,0,0,0,0,0,-1,832,638,-4.0098,-0.403616
-385,386,-3.2406,-0.118469,0,0,0,0,0,0,0,-1,839,638,-3.24058,0.118485
-378,386,-2.55243,-1.22748,0,0,0,0,0,0,0,-1,846,638,-2.55243,1.22748
-371,386,-7.95807,-0.330261,0,0,0,0,0,0,0,-1,853,638,-7.95806,0.330284
-364,386,-8.90637,-0.665955,0,0,0,0,0,0,0,-1,860,638,-8.90635,0.665951
-357,386,-9.10364,-0.388733,0,0,0,0,0,0,0,-1,867,638,-9.10364,0.388744
-350,386,0,0,0,0,0,0,0,0,0,-1,874,638,0,0
-343,386,0,0,0,0,0,0,0,0,0,-1,881,638,0,0
-336,386,0,0,0,0,0,0,0,0,0,-1,888,638,0,0
-329,386,0,0,0,0,0,0,0,0,0,-1,895,638,0,0
-322,386,0,0,0,0,0,0,0,0,0,-1,902,638,0,0
-315,386,0,0,0,0,0,0,0,0,0,-1,909,638,0,0
-308,386,0,0,0,0,0,0,0,0,0,-1,916,638,0,0
-301,386,0,0,0,0,0,0,0,0,0,-1,923,638,0,0
-294,386,0,0,0,0,0,0,0,0,0,-1,930,638,0,0
-287,386,0,0,0,0,0,0,0,0,0,-1,937,638,0,0
-280,386,0,0,0,0,0,0,0,0,0,-1,944,638,0,0
-273,386,0,0,0,0,0,0,0,0,0,-1,951,638,0,0
-266,386,0,0,0,0,0,0,0,0,0,-1,958,638,0,0
-259,386,0,0,0,0,0,0,0,0,0,-1,965,638,0,0
-252,386,0,0,0,0,0,0,0,0,0,-1,972,638,0,0
-245,386,0,0,0,0,0,0,0,0,0,-1,979,638,0,0
-238,386,0,0,0,0,0,0,0,0,0,-1,986,638,0,0
-231,386,0,0,0,0,0,0,0,0,0,-1,993,638,0,0
-224,386,0,0,0,0,0,0,0,0,0,-1,1000,638,0,0
-217,386,0,0,0,0,0,0,0,0,0,-1,1007,638,0,0
-210,386,0,0,0,0,0,0,0,0,0,-1,1014,638,0,0
-203,386,0,0,0,0,0,0,0,0,0,-1,1021,638,0,0
-196,386,0,0,0,0,0,0,0,0,0,-1,1028,638,0,0
-189,386,0,0,0,0,0,0,0,0,0,-1,1035,638,0,0
-182,386,0,0,0,0,0,0,0,0,0,-1,1042,638,0,0
-175,386,0,0,0,0,0,0,0,0,0,-1,1049,638,0,0
-168,386,0,0,0,0,0,0,0,0,0,-1,1056,638,0,0
-161,386,0,0,0,0,0,0,0,0,0,-1,1063,638,0,0
-154,386,0,0,0,0,0,0,0,0,0,-1,1070,638,0,0
-147,386,0,0,0,0,0,0,0,0,0,-1,1077,638,0,0
-140,386,0,0,0,0,0,0,0,0,0,-1,1084,638,0,0
-133,386,0,0,0,0,0,0,0,0,0,-1,1091,638,0,0
-126,386,0,0,0,0,0,0,0,0,0,-1,1098,638,0,0
-119,386,0,0,0,0,0,0,0,0,0,-1,1105,638,0,0
-112,386,0,0,0,0,0,0,0,0,0,-1,1112,638,0,0
-105,386,0,0,0,0,0,0,0,0,0,-1,1119,638,0,0
-98,386,0,0,0,0,0,0,0,0,0,-1,1126,638,0,0
-91,386,0,0,0,0,0,0,0,0,0,-1,1133,638,0,0
-84,386,0,0,0,0,0,0,0,0,0,-1,1140,638,0,0
-77,386,0,0,0,0,0,0,0,0,0,-1,1147,638,0,0
-70,386,0,0,0,0,0,0,0,0,0,-1,1154,638,0,0
-63,386,0,0,0,0,0,0,0,0,0,-1,1161,638,0,0
-56,386,0,0,0,0,0,0,0,0,0,-1,1168,638,0,0
-49,386,0,0,0,0,0,0,0,0,0,-1,1175,638,0,0
-42,386,0,0,0,0,0,0,0,0,0,-1,1182,638,0,0
-35,386,0,0,0,0,0,0,0,0,0,-1,1189,638,0,0
-28,386,0,0,0,0,0,0,0,0,0,-1,1196,638,0,0
-21,386,0,0,0,0,0,0,0,0,0,-1,1203,638,0,0
-14,386,0,0,0,0,0,0,0,0,0,-1,1210,638,0,0
-7,386,0,0,0,0,0,0,0,0,0,-1,1217,638,0,0
0,386,0,0,0,0,0,0,0,0,0,-1,1224,638,0,0
7,386,0,0,0,0,0,0,0,0,0,-1,1231,638,0,0
14,386,0,0,0,0,0,0,0,0,0,-1,1238,638,0,0
21,386,0,0,0,0,0,0,0,0,0,-1,1245,638,0,0
28,386,0,0,0,0,0,0,0,0,0,-1,1252,638,0,0
35,386,0,0,0,0,0,0,0,0,0,-1,1259,638,0,0
42,386,0,0,0,0,0,0,0,0,0,-1,1266,638,0,0
49,386,0,0,0,0,0,0,0,0,0,-1,1273,638,0,0
56,386,0,0,0,0,0,0,0,0,0,-1,1280,638,0,0
63,386,0,0,0,0,0,0,0,0,0,-1,1287,638,0,0
70,386,0,0,0,0,0,0,0,0,0,-1,1294,638,0,0
77,386,0,0,0,0,0,0,0,0,0,-1,1301,638,0,0
84,386,0,0,0,0,0,0,0,0,0,-1,1308,638,0,0
91,386,0,0,0,0,0,0,0,0,0,-1,1315,638,0,0
98,386,0,0,0,0,0,0,0,0,0,-1,1322,638,0,0
105,386,0,0,0,0,0,0,0,0,0,-1,1329,638,0,0
112,386,0,0,0,0,0,0,0,0,0,-1,1336,638,0,0
119,386,0,0,0,0,0,0,0,0,0,-1,1343,638,0,0
126,386,0,0,0,0,0,0,0,0,0,-1,1350,638,0,0
133,386,0,0,0,0,0,0,0,0,0,-1,1357,638,0,0
140,386,0,0,0,0,0,0,0,0,0,-1,1364,638,0,0
147,386,0,0,0,0,0,0,0,0,0,-1,1371,638,0,0
154,386,0,0,0,0,0,0,0,0,0,-1,1378,638,0,0
161,386,0,0,0,0,0,0,0,0,0,-1,1385,638,0,0
168,386,0,0,0,0,0,0,0,0,0,-1,1392,638,0,0
175,386,0,0,0,0,0,0,0,0,0,-1,1399,638,0,0
182,386,0,0,0,0,0,0,0,0,0,-1,1406,638,0,0
189,386,0,0,0,0,0,0,0,0,0,-1,1413,638,0,0
196,386,0,0,0,0,0,0,0,0,0,-1,1420,638,0,0
203,386,0,0,0,0,0,0,0,0,0,-1,1427,638,0,0
210,386,0,0,0,0,0,0,0,0,0,-1,1434,638,0,0
217,386,0,0,0,0,0,0,0,0,0,-1,1441,638,0,0
224,386,0,0,0,0,0,0,0,0,0,-1,1448,638,0,0
231,386,0,0,0,0,0,0,0,0,0,-1,1455,638,0,0
238,386,0,0,0,0,0,0,0,0,0,-1,1462,638,0,0
245,386,0,0,0,0,0,0,0,0,0,-1,1469,638,0,0
252,386,0,0,0,0,0,0,0,0,0,-1,1476,638,0,0
259,386,0,0,0,0,0,0,0,0,0,-1,1483,638,0,0
266,386,0,0,0,0,0,0,0,0,0,-1,1490,638,0,0
273,386,0,0,0,0,0,0,0,0,0,-1,1497,638,0,0
280,386,0,0,0,0,0,0,0,0,0,-1,1504,638,0,0
287,386,0,0,0,0,0,0,0,0,0,-1,1511,638,0,0
294,386,0,0,0,0,0,0,0,0,0,-1,1518,638,0,0
301,386,0,0,0,0,0,0,0,0,0,-1,1525,638,0,0
308,386,0,0,0,0,0,0,0,0,0,-1,1532,638,0,0
315,386,0,0,0,0,0,0,0,0,0,-1,1539,638,0,0
322,386,0,0,0,0,0,0,0,0,0,-1,1546,638,0,0
329,386,0,0,0,0,0,0,0,0,0,-1,1553,638,0,0
336,386,0,0,0,0,0,0,0,0,0,-1,1560,638,0,0
343,386,0,0,0,0,0,0,0,0,0,-1,1567,638,0,0
350,386,0,0,0,0,0,0,0,0,0,-1,1574,638,0,0
357,386,0,0,0,0,0,0,0,0,0,-1,1581,638,0,0
364,386,0,0,0,0,0,0,0,0,0,-1,1588,638,0,0
371,386,0,0,0,0,0,0,0,0,0,-1,1595,638,0,0
378,386,0,0,0,0,0,0,0,0,0,-1,1602,638,0,0
385,386,0,0,0,0,0,0,0,0,0,-1,1609,638,0,0
392,386,0,0,0,0,0,0,0,0,0,-1,1616,638,0,0
399,386,0,0,0,0,0,0,0,0,0,-1,1623,638,0,0
406,386,0,0,0,0,0,0,0,0,0,-1,1630,638,0,0
413,386,0,0,0,0,0,0,0,0,0,-1,1637,638,0,0
420,386,0,0,0,0,0,0,0,0,0,-1,1644,638,0,0
427,386,0,0,0,0,0,0,0,0,0,-1,1651,638,0,0
434,386,0,0,0,0,0,0,0,0,0,-1,1658,638,0,0
441,386,0,0,0,0,0,0,0,0,0,-1,1665,638,0,0
448,386,0,0,0,0,0,0,0,0,0,-1,1672,638,0,0
455,386,0,0,0,0,0,0,0,0,0,-1,1679,638,0,0
462,386,0,0,0,0,0,0,0,0,0,-1,1686,638,0,0
469,386,9.84692,1.55804,0,0,0,0,0,0,0,-1,1693,638,9.84691,-1.55807
476,386,10.6145,0.986511,0,0,0,0,0,0,0,-1,1700,638,10.6145,-0.986529
483,386,11.4113,0.732971,0,0,0,0,0,0,0,-1,1707,638,11.4112,-0.732958
490,386,7.79785,1.79572,0,0,0,0,0,0,0,-1,1714,638,7.79788,-1.7957
497,386,8.96362,1.77081,0,0,0,0,0,0,0,-1,1721,638,8.96357,-1.77081
504,386,10.0555,1.69427,0,0,0,0,0,0,0,-1,1728,638,10.0555,-1.69426
511,386,11.2172,1.534,0,0,0,0,0,0,0,-1,1735,638,11.2172,-1.53398
518,386,7.41553,1.75238,0,0,0,0,0,0,0,-1,1742,638,7.41547,-1.75238
525,386,8.82422,-1.1449,0,0,0,0,0,0,0,-1,1749,638,8.82426,1.14492
532,386,10.6432,0.617371,0,0,0,0,0,0,0,-1,1756,638,10.6432,-0.617359
539,386,9.62061,-0.393616,0,0,0,0,0,0,0,-1,1763,638,9.62059,0.393634
546,386,10.7963,-2.854,0,0,0,0,0,0,0,-1,1770,638,10.7962,2.854
553,386,16.9939,-7.27942,0,0,0,0,0,0,0,-1,1777,638,16.9939,7.27944
560,386,27.5127,-14.212,0,0,0,0,0,0,0,-1,1784,638,27.5128,14.212
567,386,27.6396,-13.1871,0,0,0,0,0,0,0,-1,1791,638,27.6397,13.1871
574,386,27.5887,-12.4918,0.0014298,0.000555527,0.00035465,0.00155557,0.000429755,0.340799,0.000927593,0.0159662,1798,638,27.5887,12.4917
581,386,27.522,-11.7734,0.0010376,0.000599981,0.000345809,0.00122801,0.00040957,0.503325,0.000721971,0.0152315,1805,638,27.522,11.7734
588,386,27.5035,-11.0161,0.0010041,0.000836113,0.000583891,0.00151001,0.000330204,0.713964,0.000916647,0.0141252,1812,638,27.5036,11.0161
595,386,27.4595,-10.2474,0.00136988,0.0012534,0.00105085,0.0023641,0.000259177,0.757714,0.00149717,0.0159535,1819,638,27.4594,10.2474
602,386,27.4088,-9.50116,0.00206685,0.00182406,0.00172035,0.00367008,0.000220831,0.750174,0.00237653,0.0170372,1826,638,27.4088,9.50117
609,386,27.405,-8.76227,0.00295542,0.00255512,0.0024902,0.0052535,0.000257043,0.745298,0.00341987,0.0156471,1833,638,27.405,8.76228
616,386,27.3693,-8.00513,0.00407661,0.00349556,0.0033976,0.00719608,0.000376089,0.742747,0.00467707,0.012523,1840,638,27.3693,8.00514
623,386,27.328,-7.22906,0.00542847,0.00457197,0.00446846,0.00948916,0.000511279,0.737625,0.00616275,0.0107859,1847,638,27.328,7.22905
630,386,27.4476,-6.40753,0.00691084,0.00569715,0.00559313,0.0119299,0.000678043,0.73136,0.00773719,0.0394725,1854,638,27.4476,6.40753
637,386,27.5214,-5.63098,0,0,0,0,0,0,0,-1,1861,638,27.5214,5.63099
644,386,11.6521,0.723328,0,0,0,0,0,0,0,-1,1868,638,11.6521,-0.723355
651,386,9.3866,1.31097,0,0,0,0,0,0,0,-1,1875,638,9.3866,-1.31095
658,386,12.0731,-0.00415039,0,0,0,0,0,0,0,-1,1882,638,12.0731,0.00412803
665,386,6.33167,1.78601,0,0,0,0,0,0,0,-1,1889,638,6.33171,-1.78601
672,386,7.23352,2.14435,0,0,0,0,0,0,0,-1,1896,638,7.23353,-2.14433
679,386,8.07764,2.57104,0,0,0,0,0,0,0,-1,1903,638,8.07758,-2.57103
686,386,0,0,0,0,0,0,0,0,0,-1,1910,638,0,0
693,386,0,0,0,0,0,0,0,0,0,-1,1917,638,0,0
700,386,0,0,0,0,0,0,0,0,0,-1,1924,638,0,0
707,386,0,0,0,0,0,0,0,0,0,-1,1931,638,0,0
714,386,0,0,0,0,0,0,0,0,0,-1,1938,638,0,0
721,386,0,0,0,0,0,0,0,0,0,-1,1945,638,0,0
728,386,0,0,0,0,0,0,0,0,0,-1,1952,638,0,0
735,386,0,0,0,0,0,0,0,0,0,-1,1959,638,0,0
742,386,0,0,0,0,0,0,0,0,0,-1,1966,638,0,0
749,386,0,0,0,0,0,0,0,0,0,-1,1973,638,0,0
756,386,0,0,0,0,0,0,0,0,0,-1,1980,638,0,0
763,386,0,0,0,0,0,0,0,0,0,-1,1987,638,0,0
770,386,0,0,0,0,0,0,0,0,0,-1,1994,638,0,0
777,386,0,0,0,0,0,0,0,0,0,-1,2001,638,0,0
784,386,0,0,0,0,0,0,0,0,0,-1,2008,638,0,0
791,386,0,0,0,0,0,0,0,0,0,-1,2015,638,0,0
798,386,0,0,0,0,0,0,0,0,0,-1,2022,638,0,0
805,386,0,0,0,0,0,0,0,0,0,-1,2029,638,0,0
812,386,0,0,0,0,0,0,0,0,0,-1,2036,638,0,0
-700,379,0,0,0,0,0,0,0,0,0,-1,524,645,0,0
-693,379,0,0,0,0,0,0,0,0,0,-1,531,645,0,0
-686,379,0,0,0,0,0,0,0,0,0,-1,538,645,0,0
-679,379,0,0,0,0,0,0,0,0,0,-1,545,645,0,0
-672,379,0,0,0,0,0,0,0,0,0,-1,552,645,0,0
-665,379,0,0,0,0,0,0,0,0,0,-1,559,645,0,0
-658,379,0,0,0,0,0,0,0,0,0,-1,566,645,0,0
-651,379,0,0,0,0,0,0,0,0,0,-1,573,645,0,0
-644,379,0,0,0,0,0,0,0,0,0,-1,580,645,0,0
-637,379,0,0,0,0,0,0,0,0,0,-1,587,645,0,0
-630,379,0,0,0,0,0,0,0,0,0,-1,594,645,0,0
-623,379,0,0,0,0,0,0,0,0,0,-1,601,645,0,0
-616,379,0,0,0,0,0,0,0,0,0,-1,608,645,0,0
-609,379,0,0,0,0,0,0,0,0,0,-1,615,645,0,0
-602,379,0,0,0,0,0,0,0,0,0,-1,622,645,0,0
-595,379,0,0,0,0,0,0,0,0,0,-1,629,645,0,0
-588,379,0,0,0,0,0,0,0,0,0,-1,636,645,0,0
-581,379,0,0,0,0,0,0,0,0,0,-1,643,645,0,0
-574,379,0,0,0,0,0,0,0,0,0,-1,650,645,0,0
-567,379,-8.78058,0.59668,0,0,0,0,0,0,0,-1,657,645,-8.7806,-0.596692
-560,379,-9.53485,-0.211304,0,0,0,0,0,0,0,-1,664,645,-9.53487,0.211282
-553,379,-5.17108,-4.53119,0,0,0,0,0,0,0,-1,671,645,-5.17106,4.53117
-546,379,-6.23053,-4.92102,0,0,0,0,0,0,0,-1,678,645,-6.23054,4.92105
-539,379,-0.71698,-2.19427,0,0,0,0,0,0,0,-1,685,645,-0.716959,2.19427
-532,379,-7.69611,0.217224,0,0,0,0,0,0,0,-1,692,645,-7.69614,-0.217204
-525,379,-7.09833,-1.13043,0,0,0,0,0,0,0,-1,699,645,-7.0983,1.13041
-518,379,-13.126,-5.33893,0,0,0,0,0,0,0,-1,706,645,-13.126,5.33895
-511,379,-15.1908,-6.97296,0,0,0,0,0,0,0,-1,713,645,-15.1908,6.97298
-504,379,-15.1654,-7.82397,0.00149823,0.00108988,-0.000403414,0.00174619,0.000841914,-0.551135,0.00100838,0.0329465,720,645,-15.1654,7.82399
-497,379,-15.2515,-8.54492,0.00100151,0.000798712,-0.000152288,0.00108306,0.000717153,-0.491689,0.000636174,0.0152538,727,645,-15.2515,8.5449
-490,379,-15.2866,-9.3056,0.000852998,0.000654508,-0.00016648,0.000947571,0.000559936,-0.51661,0.000550087,0.0118733,734,645,-15.2865,9.30562
-483,379,-15.3204,-10.0618,0.000817734,0.000515959,-0.00026111,0.000968418,0.000365275,-0.523404,0.00056471,0.0132885,741,645,-15.3204,10.0618
-476,379,-15.3274,-10.7631,0.000940696,0.000403472,-0.000426564,0.00117618,0.000167992,-0.504408,0.000734552,0.0134888,748,645,-15.3274,10.7631
-469,379,-15.3669,-11.4595,0.00118,0.000311584,-0.000652193,0.00152931,-3.77201e-05,-0.491708,0.00103234,0.0122929,755,645,-15.367,11.4595
-462,379,-15.4147,-12.2077,0.00142103,0.000151235,-0.000814795,0.00181908,-0.000246818,-0.45443,0.00130281,0.00918033,762,645,-15.4147,12.2077
-455,379,-15.462,-12.9533,0.00175158,-0.000229599,-0.000923782,0.00211548,-0.000593499,-0.375257,0.00164425,0.00982281,769,645,-15.462,12.9533
-448,379,-15.4741,-13.6665,0.00219206,-0.000536156,-0.00105701,0.00255366,-0.000897756,-0.329616,0.00206771,0.0124105,776,645,-15.4741,13.6665
-441,379,-15.498,-14.4248,0.00266322,-0.000920996,-0.00117242,0.00301266,-0.00127043,-0.289665,0.00254012,0.0221698,783,645,-15.498,14.4248
-434,379,-15.4471,-15.3358,0,0,0,0,0,0,0,-1,790,645,-15.4472,15.3357
-427,379,-4.16113,-4.13452,0,0,0,0,0,0,0,-1,797,645,-4.16116,4.1345
-420,379,-4.63953,-3.46869,0,0,0,0,0,0,0,-1,804,645,-4.63953,3.46872
-413,379,-4.62543,-3.7912,0,0,0,0,0,0,0,-1,811,645,-4.62541,3.79123
-406,379,-4.64063,-4.38489,0,0,0,0,0,0,0,-1,818,645,-4.64065,4.3849
-399,379,-2.93536,-1.40118,0,0,0,0,0,0,0,-1,825,645,-2.93534,1.40119
-392,379,-4.16711,-0.466003,0,0,0,0,0,0,0,-1,832,645,-4.16714,0.465992
-385,379,-3.51862,0.441101,0,0,0,0,0,0,0,-1,839,645,-3.51859,-0.441072
-378,379,-5.3504,0.212219,0,0,0,0,0,0,0,-1,846,645,-5.35038,-0.212241
-371,379,-4.32092,-0.186707,0,0,0,0,0,0,0,-1,853,645,-4.3209,0.186707
-364,379,-3.40887,-0.549805,0,0,0,0,0,0,0,-1,860,645,-3.4089,0.549802
-357,379,0,0,0,0,0,0,0,0,0,-1,867,645,0,0
-350,379,0,0,0,0,0,0,0,0,0,-1,874,645,0,0
-343,379,0,0,0,0,0,0,0,0,0,-1,881,645,0,0
-336,379,0,0,0,0,0,0,0,0,0,-1,888,645,0,0
-329,379,0,0,0,0,0,0,0,0,0,-1,895,645,0,0
-322,379,0,0,0,0,0,0,0,0,0,-1,902,645,0,0
-315,379,0,0,0,0,0,0,0,0,0,-1,909,645,0,0
-308,379,0,0,0,0,0,0,0,0,0,-1,916,645,0,0
-301,379,0,0,0,0,0,0,0,0,0,-1,923,645,0,0
-294,379,0,0,0,0,0,0,0,0,0,-1,930,645,0,0
-287,379,0,0,0,0,0,0,0,0,0,-1,937,645,0,0
-280,379,0,0,0,0,0,0,0,0,0,-1,944,645,0,0
-273,379,0,0,0,0,0,0,0,0,0,-1,951,645,0,0
-266,379,0,0,0,0,0,0,0,0,0,-1,958,645,0,0
-259,379,0,0,0,0,0,0,0,0,0,-1,965,645,0,0
-252,379,0,0,0,0,0,0,0,0,0,-1,972,645,0,0
-245,379,0,0,0,0,0,0,0,0,0,-1,979,645,0,0
-238,379,0,0,0,0,0,0,0,0,0,-1,986,645,0,0
-231,379,0,0,0,0,0,0,0,0,0,-1,993,645,0,0
-224,379,0,0,0,0,0,0,0,0,0,-1,1000,645,0,0
-217,379,0,0,0,0,0,0,0,0,0,-1,1007,645,0,0
-210,379,0,0,0,0,0,0,0,0,0,-1,1014,645,0,0
-203,379,0,0,0,0,0,0,0,0,0,-1,1021,645,0,0
-196,379,0,0,0,0,0,0,0,0,0,-1,1028,645,0,0
-189,379,0,0,0,0,0,0,0,0,0,-1,1035,645,0,0
-182,379,0,0,0,0,0,0,0,0,0,-1,1042,645,0,0
-175,379,0,0,0,0,0,0,0,0,0,-1,1049,645,0,0
-168,379,0,0,0,0,0,0,0,0,0,-1,1056,645,0,0
-161,379,0,0,0,0,0,0,0,0,0,-1,1063,645,0,0
-154,379,0,0,0,0,0,0,0,0,0,-1,1070,645,0,0
-147,379,0,0,0,0,0,0,0,0,0,-1,1077,645,0,0
-140,379,0,0,0,0,0,0,0,0,0,-1,1084,645,0,0
-133,379,0,0,0,0,0,0,0,0,0,-1,1091,645,0,0
-126,379,0,0,0,0,0,0,0,0,0,-1,1098,645,0,0
-119,379,0,0,0,0,0,0,0,0,0,-1,1105,645,0,0
-112,379,0,0,0,0,0,0,0,0,0,-1,1112,645,0,0
-105,379,0,0,0,0,0,0,0,0,0,-1,1119,645,0,0
-98,379,0,0,0,0,0,0,0,0,0,-1,1126,645,0,0
-91,379,0,0,0,0,0,0,0,0,0,-1,1133,645,0,0
-84,379,0,0,0,0,0,0,0,0,0,-1,1140,645,0,0
-77,379,0,0,0,0,0,0,0,0,0,-1,1147,645,0,0
-70,379,0,0,0,0,0,0,0,0,0,-1,1154,645,0,0
-63,379,0,0,0,0,0,0,0,0,0,-1,1161,645,0,0
-56,379,0,0,0,0,0,0,0,0,0,-1,1168,645,0,0
-49,379,0,0,0,0,0,0,0,0,0,-1,1175,645,0,0
-42,379,0,0,0,0,0,0,0,0,0,-1,1182,645,0,0
-35,379,0,0,0,0,0,0,0,0,0,-1,1189,645,0,0
-28,379,0,0,0,0,0,0,0,0,0,-1,1196,645,0,0
-21,379,0,0,0,0,0,0,0,0,0,-1,1203,645,0,0
-14,379,0,0,0,0,0,0,0,0,0,-1,1210,645,0,0
-7,379,0,0,0,0,0,0,0,0,0,-1,1217,645,0,0
0,379,0,0,0,0,0,0,0,0,0,-1,1224,645,0,0
7,379,0,0,0,0,0,0,0,0,0,-1,1231,645,0,0
14,379,0,0,0,0,0,0,0,0,0,-1,1238,645,0,0
21,379,0,0,0,0,0,0,0,0,0,-1,1245,645,0,0
28,379,0,0,0,0,0,0,0,0,0,-1,1252,645,0,0
35,379,0,0,0,0,0,0,0,0,0,-1,1259,645,0,0
42,379,0,0,0,0,0,0,0,0,0,-1,1266,645,0,0
49,379,0,0,0,0,0,0,0,0,0,-1,1273,645,0,0
56,379,0,0,0,0,0,0,0,0,0,-1,1280,645,0,0
63,379,0,0,0,0,0,0,0,0,0,-1,1287,645,0,0
70,379,0,0,0,0,0,0,0,0,0,-1,1294,645,0,0
77,379,0,0,0,0,0,0,0,0,0,-1,1301,645,0,0
84,379,0,0,0,0,0,0,0,0,0,-1,1308,645,0,0
91,379,0,0,0,0,0,0,0,0,0,-1,1315,645,0,0
98,379,0,0,0,0,0,0,0,0,0,-1,1322,645,0,0
105,379,0,0,0,0,0,0,0,0,0,-1,1329,645,0,0
112,379,0,0,0,0,0,0,0,0,0,-1,1336,645,0,0
119,379,0,0,0,0,0,0,0,0,0,-1,1343,645,0,0
126,379,0,0,0,0,0,0,0,0,0,-1,1350,645,0,0
133,379,0,0,0,0,0,0,0,0,0,-1,1357,645,0,0
140,379,0,0,0,0,0,0,0,0,0,-1,1364,645,0,0
147,379,0,0,0,0,0,0,0,0,0,-1,1371,645,0,0
154,379,0,0,0,0,0,0,0,0,0,-1,1378,645,0,0
161,379,0,0,0,0,0,0,0,0,0,-1,1385,645,0,0
168,379,0,0,0,0,0,0,0,0,0,-1,1392,645,0,0
175,379,0,0,0,0,0,0,0,0,0,-1,1399,645,0,0
182,379,0,0,0,0,0,0,0,0,0,-1,1406,645,0,0
189,379,0,0,0,0,0,0,0,0,0,-1,1413,645,0,0
196,379,0,0,0,0,0,0,0,0,0,-1,1420,645,0,0
203,379,0,0,0,0,0,0,0,0,0,-1,1427,645,0,0
210,379,0,0,0,0,0,0,0,0,0,-1,1434,645,0,0
217,379,0,0,0,0,0,0,0,0,0,-1,1441,645,0,0
224,379,0,0,0,0,0,0,0,0,0,-1,1448,645,0,0
231,379,0,0,0,0,0,0,0,0,0,-1,1455,645,0,0
238,379,0,0,0,0,0,0,0,0,0,-1,1462,645,0,0
245,379,0,0,0,0,0,0,0,0,0,-1,1469,645,0,0
252,379,0,0,0,0,0,0,0,0,0,-1,1476,645,0,0
259,379,0,0,0,0,0,0,0,0,0,-1,1483,645,0,0
266,379,0,0,0,0,0,0,0,0,0,-1,1490,645,0,0
273,379,0,0,0,0,0,0,0,0,0,-1,1497,645,0,0
280,379,0,0,0,0,0,0,0,0,0,-1,1504,645,0,0
287,379,0,0,0,0,0,0,0,0,0,-1,1511,645,0,0
294,379,0,0,0,0,0,0,0,0,0,-1,1518,645,0,0
301,379,0,0,0,0,0,0,0,0,0,-1,1525,645,0,0
308,379,0,0,0,0,0,0,0,0,0,-1,1532,645,0,0
315,379,0,0,0,0,0,0,0,0,0,-1,1539,645,0,0
322,379,0,0,0,0,0,0,0,0,0,-1,1546,645,0,0
329,379,0,0,0,0,0,0,0,0,0,-1,1553,645,0,0
336,379,0,0,0,0,0,0,0,0,0,-1,1560,645,0,0
343,379,0,0,0,0,0,0,0,0,0,-1,1567,645,0,0
350,379,0,0,0,0,0,0,0,0,0,-1,1574,645,0,0
357,379,0,0,0,0,0,0,0,0,0,-1,1581,645,0,0
364,379,0,0,0,0,0,0,0,0,0,-1,1588,645,0,0
371,379,0,0,0,0,0,0,0,0,0,-1,1595,645,0,0
378,379,0,0,0,0,0,0,0,0,0,-1,1602,645,0,0
385,379,0,0,0,0,0,0,0,0,0,-1,1609,645,0,0
392,379,0,0,0,0,0,0,0,0,0,-1,1616,645,0,0
399,379,0,0,0,0,0,0,0,0,0,-1,1623,645,0,0
406,379,0,0,0,0,0,0,0,0,0,-1,1630,645,0,0
413,379,0,0,0,0,0,0,0,0,0,-1,1637,645,0,0
420,379,0,0,0,0,0,0,0,0,0,-1,1644,645,0,0
427,379,0,0,0,0,0,0,0,0,0,-1,1651,645,0,0
434,379,0,0,0,0,0,0,0,0,0,-1,1658,645,0,0
441,379,0,0,0,0,0,0,0,0,0,-1,1665,645,0,0
448,379,0,0,0,0,0,0,0,0,0,-1,1672,645,0,0
455,379,0,0,0,0,0,0,0,0,0,-1,1679,645,0,0
462,379,0,0,0,0,0,0,0,0,0,-1,1686,645,0,0
469,379,0,0,0,0,0,0,0,0,0,-1,1693,645,0,0
476,379,11.1787,0.830383,0,0,0,0,0,0,0,-1,1700,645,11.1787,-0.830365
483,379,7.4231,1.54321,0,0,0,0,0,0,0,-1,1707,645,7.42314,-1.54324
490,379,8.52881,1.56677,0,0,0,0,0,0,0,-1,1714,645,8.52878,-1.56677
497,379,9.63599,1.49573,0,0,0,0,0,0,0,-1,1721,645,9.63604,-1.4957
504,379,10.0833,1.35229,0,0,0,0,0,0,0,-1,1728,645,10.0832,-1.35227
511,379,8.14343,1.59912,0,0,0,0,0,0,0,-1,1735,645,8.14347,-1.59912
518,379,12.7955,-0.324097,0,0,0,0,0,0,0,-1,1742,645,12.7955,0.324101
525,379,6.03711,1.10352,0,0,0,0,0,0,0,-1,1749,645,6.03711,-1.10351
532,379,8.70947,0.887817,0,0,0,0,0,0,0,-1,1756,645,8.70953,-0.887808
539,379,9.87097,0.111389,0,0,0,0,0,0,0,-1,1763,645,9.87095,-0.111395
546,379,8.42383,-0.730652,0,0,0,0,0,0,0,-1,1770,645,8.42378,0.730638
553,379,19.2905,-7.67834,0,0,0,0,0,0,0,-1,1777,645,19.2905,7.67837
560,379,22.5734,-10.4749,0,0,0,0,0,0,0,-1,1784,645,22.5734,10.4749
567,379,28.3442,-13.2448,0,0,0,0,0,0,0,-1,1791,645,28.3443,13.2448
574,379,28.3291,-12.447,0.00122402,0.000467293,9.72444e-05,0.00123632,0.000454996,0.125784,0.00072203,0.0170981,1798,645,28.3291,12.4469
581,379,28.2971,-11.7192,0.000752448,0.000451137,4.61238e-05,0.00075935,0.000444235,0.148547,0.000440519,0.0156434,1805,645,28.2971,11.7193
588,379,28.2687,-10.9527,0.000700416,0.000578764,0.000252425,0.00089924,0.00037994,0.667169,0.00052125,0.0174064,1812,645,28.2687,10.9527
595,379,28.228,-10.2133,0.00102964,0.00091909,0.000660669,0.00163734,0.000311387,0.743664,0.00100399,0.0153708,1819,645,28.2281,10.2133
602,379,28.1949,-9.48242,0.00165708,0.00138891,0.00123863,0.00276886,0.000277129,0.731481,0.00176082,0.0161747,1826,645,28.1949,9.48243
609,379,28.1372,-8.76031,0.00243471,0.00198838,0.001892,0.00411666,0.000306424,0.726694,0.00264822,0.0172485,1833,645,28.1372,8.76034
616,379,28.087,-8.00098,0.00338728,0.00275696,0.00264182,0.00573268,0.000411567,0.726031,0.00369225,0.0134023,1840,645,28.087,8.001
623,379,28.092,-7.17975,0.00453994,0.00363242,0.00353976,0.0076549,0.000517455,0.721651,0.00493982,0.0117533,1847,645,28.0921,7.17978
630,379,28.0579,-6.41724,0.00574916,0.00455825,0.004468,0.00966121,0.0006462,0.719153,0.00623658,0.0146173,1854,645,28.0579,6.41721
637,379,28.0647,-5.56274,0.00693364,0.0056393,0.00545004,0.0117748,0.000798141,0.726302,0.00759781,0.0472914,1861,645,28.0647,5.56273
644,379,28.2684,-4.59802,0,0,0,0,0,0,0,-1,1868,645,28.2685,4.59802
651,379,12.9515,0.220825,0,0,0,0,0,0,0,-1,1875,645,12.9515,-0.220814
658,379,13.7498,0.37439,0,0,0,0,0,0,0,-1,1882,645,13.7498,-0.374371
665,379,11.9719,0.353333,0,0,0,0,0,0,0,-1,1889,645,11.9719,-0.353321
672,379,7.57605,2.15326,0,0,0,0,0,0,0,-1,1896,645,7.57599,-2.15326
679,379,8.55078,2.50409,0,0,0,0,0,0,0,-1,1903,645,8.55073,-2.50406
686,379,0,0,0,0,0,0,0,0,0,-1,1910,645,0,0
693,379,0,0,0,0,0,0,0,0,0,-1,1917,645,0,0
700,379,0,0,0,0,0,0,0,0,0,-1,1924,645,0,0
707,379,0,0,0,0,0,0,0,0,0,-1,1931,645,0,0
714,379,0,0,0,0,0,0,0,0,0,-1,1938,645,0,0
721,379,0,0,0,0,0,0,0,0,0,-1,1945,645,0,0
728,379,0,0,0,0,0,0,0,0,0,-1,1952,645,0,0
735,379,0,0,0,0,0,0,0,0,0,-1,1959,645,0,0
742,379,0,0,0,0,0,0,0,0,0,-1,1966,645,0,0
749,379,0,0,0,0,0,0,0,0,0,-1,1973,645,0,0
756,379,0,0,0,0,0,0,0,0,0,-1,1980,645,0,0
763,379,0,0,0,0,0,0,0,0,0,-1,1987,645,0,0
770,379,0,0,0,0,0,0,0,0,0,-1,1994,645,0,0
777,379,0,0,0,0,0,0,0,0,0,-1,2001,645,0,0
784,379,0,0,0,0,0,0,0,0,0,-1,2008,645,0,0
791,379,0,0,0,0,0,0,0,0,0,-1,2015,645,0,0
798,379,0,0,0,0,0,0,0,0,0,-1,2022,645,0,0
805,379,0,0,0,0,0,0,0,0,0,-1,2029,645,0,0
812,379,0,0,0,0,0,0,0,0,0,-1,2036,645,0,0
-700,372,0,0,0,0,0,0,0,0,0,-1,524,652,0,0
-693,372,0,0,0,0,0,0,0,0,0,-1,531,652,0,0
-686,372,0,0,0,0,0,0,0,0,0,-1,538,652,0,0
-679,372,0,0,0,0,0,0,0,0,0,-1,545,652,0,0
-672,372,0,0,0,0,0,0,0,0,0,-1,552,652,0,0
-665,372,0,0,0,0,0,0,0,0,0,-1,559,652,0,0
-658,372,0,0,0,0,0,0,0,0,0,-1,566,652,0,0
-651,372,0,0,0,0,0,0,0,0,0,-1,573,652,0,0
-644,372,0,0,0,0,0,0,0,0,0,-1,580,652,0,0
-637,372,0,0,0,0,0,0,0,0,0,-1,587,652,0,0
-630,372,0,0,0,0,0,0,0,0,0,-1,594,652,0,0
-623,372,0,0,0,0,0,0,0,0,0,-1,601,652,0,0
-616,372,0,0,0,0,0,0,0,0,0,-1,608,652,0,0
-609,372,0,0,0,0,0,0,0,0,0,-1,615,652,0,0
-602,372,0,0,0,0,0,0,0,0,0,-1,622,652,0,0
-595,372,0,0,0,0,0,0,0,0,0,-1,629,652,0,0
-588,372,0,0,0,0,0,0,0,0,0,-1,636,652,0,0
-581,372,0,0,0,0,0,0,0,0,0,-1,643,652,0,0
-574,372,0,0,0,0,0,0,0,0,0,-1,650,652,0,0
-567,372,-7.93744,0.73407,0,0,0,0,0,0,0,-1,657,652,-7.93741,-0.734076
-560,372,-8.78552,-0.158203,0,0,0,0,0,0,0,-1,664,652,-8.78552,0.158216
-553,372,-7.95551,1.61694,0,0,0,0,0,0,0,-1,671,652,-7.95552,-1.61697
-546,372,-4.2403,-3.75372,0,0,0,0,0,0,0,-1,678,652,-4.24028,3.75369
-539,372,-7.92285,-0.0650024,0,0,0,0,0,0,0,-1,685,652,-7.92287,0.0649772
-532,372,-8.59589,-0.419556,0,0,0,0,0,0,0,-1,692,652,-8.59591,0.419539
-525,372,-8.03674,-1.36804,0,0,0,0,0,0,0,-1,699,652,-8.03676,1.36806
-518,372,-15.9416,-6.18988,0,0,0,0,0,0,0,-1,706,652,-15.9416,6.18991
-511,372,-15.9117,-7.06769,0.00223797,0.000787072,-0.000640698,0.00248039,0.000544651,-0.361721,0.00150525,0.0397662,713,652,-15.9117,7.06767
-504,372,-15.9548,-7.7486,0.00175629,0.000748509,-0.000476793,0.00194611,0.000558688,-0.378886,0.00115705,0.017846,720,652,-15.9548,7.7486
-497,372,-15.9556,-8.5274,0.00135682,0.000492581,-0.000289872,0.00144504,0.000404361,-0.295435,0.000860833,0.0126793,727,652,-15.9556,8.52739
-490,372,-16.009,-9.25751,0.00121581,0.00038031,-0.000324567,0.00132708,0.000269043,-0.33026,0.00081007,0.0131822,734,652,-16.009,9.25749
-483,372,-16.0405,-9.99359,0.00119796,0.000277651,-0.000412343,0.00135568,0.000119931,-0.365328,0.000866579,0.0131007,741,652,-16.0405,9.99358
-476,372,-16.0517,-10.6988,0.00133004,0.000227332,-0.000580431,0.00157925,-2.18708e-05,-0.405541,0.0010602,0.0143287,748,652,-16.0517,10.6988
-469,372,-16.0973,-11.3954,0.00156477,0.000230755,-0.000835063,0.00196652,-0.000170988,-0.448408,0.00137156,0.0112507,755,652,-16.0973,11.3955
-462,372,-16.1509,-12.1368,0.0018106,0.000195836,-0.00104674,0.00232517,-0.000318726,-0.456892,0.00166654,0.00983105,762,652,-16.1509,12.1369
-455,372,-16.2092,-12.8749,0.00217271,-5.54626e-05,-0.00122722,0.00271611,-0.000598862,-0.416841,0.00203987,0.0109768,769,652,-16.2092,12.8749
-448,372,-16.2186,-13.613,0.00263897,-0.000215289,-0.0014496,0.00324606,-0.000822379,-0.396605,0.00248397,0.0145608,776,652,-16.2187,13.613
-441,372,-16.1777,-14.4389,0,0,0,0,0,0,0,-1,783,652,-16.1778,14.4389
-434,372,-9.86865,-9.68494,0,0,0,0,0,0,0,-1,790,652,-9.86863,9.68492
-427,372,-4.54248,-3.56268,0,0,0,0,0,0,0,-1,797,652,-4.54247,3.56266
-420,372,-4.66168,-2.93597,0,0,0,0,0,0,0,-1,804,652,-4.66166,2.93599
-413,372,-4.74762,-3.29541,0,0,0,0,0,0,0,-1,811,652,-4.74763,3.29542
-406,372,-0.885437,-0.583923,0,0,0,0,0,0,0,-1,818,652,-0.885437,0.5839
-399,372,-3.97357,-0.825012,0,0,0,0,0,0,0,-1,825,652,-3.97359,0.825037
-392,372,-7.64337,0.173035,0,0,0,0,0,0,0,-1,832,652,-7.64337,-0.173019
-385,372,-6.48871,-0.0271606,0,0,0,0,0,0,0,-1,839,652,-6.48874,0.0271353
-378,372,-5.33044,-0.242432,0,0,0,0,0,0,0,-1,846,652,-5.33042,0.242457
-371,372,-4.40802,-0.495667,0,0,0,0,0,0,0,-1,853,652,-4.40802,0.495661
-364,372,0,0,0,0,0,0,0,0,0,-1,860,652,0,0
-357,372,0,0,0,0,0,0,0,0,0,-1,867,652,0,0
-350,372,0,0,0,0,0,0,0,0,0,-1,874,652,0,0
-343,372,0,0,0,0,0,0,0,0,0,-1,881,652,0,0
-336,372,0,0,0,0,0,0,0,0,0,-1,888,652,0,0
-329,372,0,0,0,0,0,0,0,0,0,-1,895,652,0,0
-322,372,0,0,0,0,0,0,0,0,0,-1,902,652,0,0
-315,372,0,0,0,0,0,0,0,0,0,-1,909,652,0,0
-308,372,0,0,0,0,0,0,0,0,0,-1,916,652,0,0
-301,372,0,0,0,0,0,0,0,0,0,-1,923,652,0,0
-294,372,0,0,0,0,0,0,0,0,0,-1,930,652,0,0
-287,372,0,0,0,0,0,0,0,0,0,-1,937,652,0,0
-280,372,0,0,0,0,0,0,0,0,0,-1,944,652,0,0
-273,372,0,0,0,0,0,0,0,0,0,-1,951,652,0,0
-266,372,0,0,0,0,0,0,0,0,0,-1,958,652,0,0
-259,372,0,0,0,0,0,0,0,0,0,-1,965,652,0,0
-252,372,0,0,0,0,0,0,0,0,0,-1,972,652,0,0
-245,372,0,0,0,0,0,0,0,0,0,-1,979,652,0,0
-238,372,0,0,0,0,0,0,0,0,0,-1,986,652,0,0
-231,372,0,0,0,0,0,0,0,0,0,-1,993,652,0,0
-224,372,0,0,0,0,0,0,0,0,0,-1,1000,652,0,0
-217,372,0,0,0,0,0,0,0,0,0,-1,1007,652,0,0
-210,372,0,0,0,0,0,0,0,0,0,-1,1014,652,0,0
-203,372,0,0,0,0,0,0,0,0,0,-1,1021,652,0,0
-196,372,0,0,0,0,0,0,0,0,0,-1,1028,652,0,0
-189,372,0,0,0,0,0,0,0,0,0,-1,1035,652,0,0
-182,372,0,0,0,0,0,0,0,0,0,-1,1042,652,0,0
-175,372,0,0,0,0,0,0,0,0,0,-1,1049,652,0,0
-168,372,0,0,0,0,0,0,0,0,0,-1,1056,652,0,0
-161,372,0,0,0,0,0,0,0,0,0,-1,1063,652,0,0
-154,372,0,0,0,0,0,0,0,0,0,-1,1070,652,0,0
-147,372,0,0,0,0,0,0,0,0,0,-1,1077,652,0,0
-140,372,0,0,0,0,0,0,0,0,0,-1,1084,652,0,0
-133,372,0,0,0,0,0,0,0,0,0,-1,1091,652,0,0
-126,372,0,0,0,0,0,0,0,0,0,-1,1098,652,0,0
-119,372,0,0,0,0,0,0,0,0,0,-1,1105,652,0,0
-112,372,0,0,0,0,0,0,0,0,0,-1,1112,652,0,0
-105,372,0,0,0,0,0,0,0,0,0,-1,1119,652,0,0
-98,372,0,0,0,0,0,0,0,0,0,-1,1126,652,0,0
-91,372,0,0,0,0,0,0,0,0,0,-1,1133,652,0,0
-84,372,0,0,0,0,0,0,0,0,0,-1,1140,652,0,0
-77,372,0,0,0,0,0,0,0,0,0,-1,1147,652,0,0
-70,372,0,0,0,0,0,0,0,0,0,-1,1154,652,0,0
-63,372,0,0,0,0,0,0,0,0,0,-1,1161,652,0,0
-56,372,0,0,0,0,0,0,0,0,0,-1,1168,652,0,0
-49,372,0,0,0,0,0,0,0,0,0,-1,1175,652,0,0
-42,372,0,0,0,0,0,0,0,0,0,-1,1182,652,0,0
-35,372,0,0,0,0,0,0,0,0,0,-1,1189,652,0,0
-28,372,0,0,0,0,0,0,0,0,0,-1,1196,652,0,0
-21,372,0,0,0,0,0,0,0,0,0,-1,1203,652,0,0
-14,372,0,0,0,0,0,0,0,0,0,-1,1210,652,0,0
-7,372,0,0,0,0,0,0,0,0,0,-1,1217,652,0,0
0,372,0,0,0,0,0,0,0,0,0,-1,1224,652,0,0
7,372,0,0,0,0,0,0,0,0,0,-1,1231,652,0,0
14,372,0,0,0,0,0,0,0,0,0,-1,1238,652,0,0
21,372,0,0,0,0,0,0,0,0,0,-1,1245,652,0,0
28,372,0,0,0,0,0,0,0,0,0,-1,1252,652,0,0
35,372,0,0,0,0,0,0,0,0,0,-1,1259,652,0,0
42,372,0,0,0,0,0,0,0,0,0,-1,1266,652,0,0
49,372,0,0,0,0,0,0,0,0,0,-1,1273,652,0,0
56,372,0,0,0,0,0,0,0,0,0,-1,1280,652,0,0
63,372,0,0,0,0,0,0,0,0,0,-1,1287,652,0,0
70,372,0,0,0,0,0,0,0,0,0,-1,1294,652,0,0
77,372,0,0,0,0,0,0,0,0,0,-1,1301,652,0,0
84,372,0,0,0,0,0,0,0,0,0,-1,1308,652,0,0
91,372,0,0,0,0,0,0,0,0,0,-1,1315,652,0,0
98,372,0,0,0,0,0,0,0,0,0,-1,1322,652,0,0
105,372,0,0,0,0,0,0,0,0,0,-1,1329,652,0,0
112,372,0,0,0,0,0,0,0,0,0,-1,1336,652,0,0
119,372,0,0,0,0,0,0,0,0,0,-1,1343,652,0,0
126,372,0,0,0,0,0,0,0,0,0,-1,1350,652,0,0
133,372,0,0,0,0,0,0,0,0,0,-1,1357,652,0,0
140,372,0,0,0,0,0,0,0,0,0,-1,1364,652,0,0
147,372,0,0,0,0,0,0,0,0,0,-1,1371,652,0,0
154,372,0,0,0,0,0,0,0,0,0,-1,1378,652,0,0
161,372,0,0,0,0,0,0,0,0,0,-1,1385,652,0,0
168,372,0,0,0,0,0,0,0,0,0,-1,1392,652,0,0
175,372,0,0,0,0,0,0,0,0,0,-1,1399,652,0,0
182,372,0,0,0,0,0,0,0,0,0,-1,1406,652,0,0
189,372,0,0,0,0,0,0,0,0,0,-1,1413,652,0,0
196,372,0,0,0,0,0,0,0,0,0,-1,1420,652,0,0
203,372,0,0,0,0,0,0,0,0,0,-1,1427,652,0,0
210,372,0,0,0,0,0,0,0,0,0,-1,1434,652,0,0
217,372,0,0,0,0,0,0,0,0,0,-1,1441,652,0,0
224,372,0,0,0,0,0,0,0,0,0,-1,1448,652,0,0
231,372,0,0,0,0,0,0,0,0,0,-1,1455,652,0,0
238,372,0,0,0,0,0,0,0,0,0,-1,1462,652,0,0
245,372,0,0,0,0,0,0,0,0,0,-1,1469,652,0,0
252,372,0,0,0,0,0,0,0,0,0,-1,1476,652,0,0
259,372,0,0,0,0,0,0,0,0,0,-1,1483,652,0,0
266,372,0,0,0,0,0,0,0,0,0,-1,1490,652,0,0
273,372,0,0,0,0,0,0,0,0,0,-1,1497,652,0,0
280,372,0,0,0,0,0,0,0,0,0,-1,1504,652,0,0
287,372,0,0,0,0,0,0,0,0,0,-1,1511,652,0,0
294,372,0,0,0,0,0,0,0,0,0,-1,1518,652,0,0
301,372,0,0,0,0,0,0,0,0,0,-1,1525,652,0,0
308,372,0,0,0,0,0,0,0,0,0,-1,1532,652,0,0
315,372,0,0,0,0,0,0,0,0,0,-1,1539,652,0,0
322,372,0,0,0,0,0,0,0,0,0,-1,1546,652,0,0
329,372,0,0,0,0,0,0,0,0,0,-1,1553,652,0,0
336,372,0,0,0,0,0,0,0,0,0,-1,1560,652,0,0
343,372,0,0,0,0,0,0,0,0,0,-1,1567,652,0,0
350,372,0,0,0,0,0,0,0,0,0,-1,1574,652,0,0
357,372,0,0,0,0,0,0,0,0,0,-1,1581,652,0,0
364,372,0,0,0,0,0,0,0,0,0,-1,1588,652,0,0
371,372,0,0,0,0,0,0,0,0,0,-1,1595,652,0,0
378,372,0,0,0,0,0,0,0,0,0,-1,1602,652,0,0
385,372,0,0,0,0,0,0,0,0,0,-1,1609,652,0,0
392,372,0,0,0,0,0,0,0,0,0,-1,1616,652,0,0
399,372,0,0,0,0,0,0,0,0,0,-1,1623,652,0,0
406,372,0,0,0,0,0,0,0,0,0,-1,1630,652,0,0
413,372,0,0,0,0,0,0,0,0,0,-1,1637,652,0,0
420,372,0,0,0,0,0,0,0,0,0,-1,1644,652,0,0
427,372,0,0,0,0,0,0,0,0,0,-1,1651,652,0,0
434,372,0,0,0,0,0,0,0,0,0,-1,1658,652,0,0
441,372,0,0,0,0,0,0,0,0,0,-1,1665,652,0,0
448,372,0,0,0,0,0,0,0,0,0,-1,1672,652,0,0
455,372,0,0,0,0,0,0,0,0,0,-1,1679,652,0,0
462,372,0,0,0,0,0,0,0,0,0,-1,1686,652,0,0
469,372,0,0,0,0,0,0,0,0,0,-1,1693,652,0,0
476,372,0,0,0,0,0,0,0,0,0,-1,1700,652,0,0
483,372,8.74182,1.53125,0,0,0,0,0,0,0,-1,1707,652,8.74186,-1.53126
490,372,9.78455,1.67096,0,0,0,0,0,0,0,-1,1714,652,9.7846,-1.67093
497,372,9.97644,1.46069,0,0,0,0,0,0,0,-1,1721,652,9.97647,-1.46071
504,372,10.1216,1.28375,0,0,0,0,0,0,0,-1,1728,652,10.1216,-1.28376
511,372,11.7367,-0.0272217,0,0,0,0,0,0,0,-1,1735,652,11.7367,0.0272326
518,372,12.0657,-0.0995483,0,0,0,0,0,0,0,-1,1742,652,12.0657,0.0995285
525,372,12.3947,-0.171814,0,0,0,0,0,0,0,-1,1749,652,12.3946,0.171824
532,372,9.36597,1.72034,0,0,0,0,0,0,0,-1,1756,652,9.36597,-1.72036
539,372,7.82886,-0.0865479,0,0,0,0,0,0,0,-1,1763,652,7.82882,0.0865771
546,372,10.953,-0.187195,0,0,0,0,0,0,0,-1,1770,652,10.953,0.187181
553,372,14.1201,-4.83234,0,0,0,0,0,0,0,-1,1777,652,14.1201,4.83235
560,372,20.1057,-8.06934,0,0,0,0,0,0,0,-1,1784,652,20.1058,8.06936
567,372,29.1312,-13.2982,0,0,0,0,0,0,0,-1,1791,652,29.1312,13.2981
574,372,29.1107,-12.3377,0.00107484,0.000430613,-0.000175215,0.00111941,0.000386042,-0.249093,0.000656582,0.0437918,1798,652,29.1107,12.3377
581,372,29.0685,-11.6727,0.000598214,0.000354884,-0.000212517,0.000721428,0.00023167,-0.525423,0.000425308,0.0223357,1805,652,29.0684,11.6727
588,372,29.0103,-10.923,0.000563952,0.0003515,-1.54316e-05,0.000565067,0.000350385,-0.0721311,0.000329363,0.0165145,1812,652,29.0103,10.923
595,372,28.9673,-10.1896,0.000854363,0.000602996,0.00033299,0.0010846,0.00037276,0.604944,0.000636312,0.0140809,1819,652,28.9673,10.1896
602,372,28.9697,-9.46423,0.00138534,0.000965234,0.000809806,0.00201189,0.000338681,0.658503,0.00124383,0.0157159,1826,652,28.9697,9.46421
609,372,28.8605,-8.72473,0.00203544,0.00144294,0.00136036,0.00313143,0.000346939,0.678186,0.00198212,0.0168364,1833,652,28.8605,8.72473
616,372,28.826,-7.9494,0.00279576,0.00206294,0.00197477,0.00443782,0.000420876,0.693669,0.00282871,0.0154434,1840,652,28.8261,7.94937
623,372,28.8475,-7.12897,0.00370789,0.00278131,0.00272118,0.00600494,0.000484261,0.70108,0.00385203,0.0133439,1847,652,28.8476,7.12898
630,372,28.8125,-6.36633,0.00461925,0.00356172,0.00348948,0.0076198,0.000561169,0.710205,0.00490353,0.0187369,1854,652,28.8125,6.36635
637,372,28.8143,-5.63873,0.00547909,0.00443411,0.00428224,0.00927059,0.000642602,0.724691,0.00597772,0.0301607,1861,652,28.8143,5.63872
644,372,28.986,-4.86188,0,0,0,0,0,0,0,-1,1868,652,28.986,4.86189
651,372,21.3998,-0.888,0,0,0,0,0,0,0,-1,1875,652,21.3998,0.887992
658,372,14.157,0.280273,0,0,0,0,0,0,0,-1,1882,652,14.157,-0.280264
665,372,15.2286,0.463867,0,0,0,0,0,0,0,-1,1889,652,15.2287,-0.463854
672,372,9.34106,1.48444,0,0,0,0,0,0,0,-1,1896,652,9.34109,-1.48444
679,372,10.7308,2.32391,0,0,0,0,0,0,0,-1,1903,652,10.7309,-2.3239
686,372,11.6295,2.52997,0,0,0,0,0,0,0,-1,1910,652,11.6296,-2.52996
693,372,0,0,0,0,0,0,0,0,0,-1,1917,652,0,0
700,372,0,0,0,0,0,0,0,0,0,-1,1924,652,0,0
707,372,0,0,0,0,0,0,0,0,0,-1,1931,652,0,0
714,372,0,0,0,0,0,0,0,0,0,-1,1938,652,0,0
721,372,0,0,0,0,0,0,0,0,0,-1,1945,652,0,0
728,372,0,0,0,0,0,0,0,0,0,-1,1952,652,0,0
735,372,0,0,0,0,0,0,0,0,0,-1,1959,652,0,0
742,372,0,0,0,0,0,0,0,0,0,-1,1966,652,0,0
749,372,0,0,0,0,0,0,0,0,0,-1,1973,652,0,0
756,372,0,0,0,0,0,0,0,0,0,-1,1980,652,0,0
763,372,0,0,0,0,0,0,0,0,0,-1,1987,652,0,0
770,372,0,0,0,0,0,0,0,0,0,-1,1994,652,0,0
777,372,0,0,0,0,0,0,0,0,0,-1,2001,652,0,0
784,372,0,0,0,0,0,0,0,0,0,-1,2008,652,0,0
791,372,0,0,0,0,0,0,0,0,0,-1,2015,652,0,0
798,372,0,0,0,0,0,0,0,0,0,-1,2022,652,0,0
805,372,0,0,0,0,0,0,0,0,0,-1,2029,652,0,0
812,372,0,0,0,0,0,0,0,0,0,-1,2036,652,0,0
-700,365,0,0,0,0,0,0,0,0,0,-1,524,659,0,0
-693,365,0,0,0,0,0,0,0,0,0,-1,531,659,0,0
-686,365,0,0,0,0,0,0,0,0,0,-1,538,659,0,0
-679,365,0,0,0,0,0,0,0,0,0,-1,545,659,0,0
-672,365,0,0,0,0,0,0,0,0,0,-1,552,659,0,0
-665,365,0,0,0,0,0,0,0,0,0,-1,559,659,0,0
-658,365,0,0,0,0,0,0,0,0,0,-1,566,659,0,0
-651,365,0,0,0,0,0,0,0,0,0,-1,573,659,0,0
-644,365,0,0,0,0,0,0,0,0,0,-1,580,659,0,0
-637,365,0,0,0,0,0,0,0,0,0,-1,587,659,0,0
-630,365,0,0,0,0,0,0,0,0,0,-1,594,659,0,0
-623,365,0,0,0,0,0,0,0,0,0,-1,601,659,0,0
-616,365,0,0,0,0,0,0,0,0,0,-1,608,659,0,0
-609,365,0,0,0,0,0,0,0,0,0,-1,615,659,0,0
-602,365,0,0,0,0,0,0,0,0,0,-1,622,659,0,0
-595,365,0,0,0,0,0,0,0,0,0,-1,629,659,0,0
-588,365,0,0,0,0,0,0,0,0,0,-1,636,659,0,0
-581,365,0,0,0,0,0,0,0,0,0,-1,643,659,0,0
-574,365,-7.69281,1.59015,0,0,0,0,0,0,0,-1,650,659,-7.69282,-1.59018
-567,365,-8.2583,1.72638,0,0,0,0,0,0,0,-1,657,659,-8.25827,-1.72637
-560,365,-7.17767,0.275757,0,0,0,0,0,0,0,-1,664,659,-7.17768,-0.27577
-553,365,-10.0349,-0.169617,0,0,0,0,0,0,0,-1,671,659,-10.0349,0.169593
-546,365,-10.6303,-1.51642,0,0,0,0,0,0,0,-1,678,659,-10.6303,1.5164
-539,365,-8.38599,1.52936,0,0,0,0,0,0,0,-1,685,659,-8.38598,-1.52935
-532,365,-8.52863,0.166504,0,0,0,0,0,0,0,-1,692,659,-8.52863,-0.166501
-525,365,-9.28229,-2.62726,0,0,0,0,0,0,0,-1,699,659,-9.28227,2.62724
-518,365,-16.6457,-6.13458,0,0,0,0,0,0,0,-1,706,659,-16.6457,6.13461
-511,365,-16.6661,-6.96674,0.00257098,0.00068057,-0.000695193,0.00279911,0.000452443,-0.317076,0.00173503,0.0378217,713,659,-16.6661,6.96675
-504,365,-16.6519,-7.71948,0.00206343,0.000566526,-0.000552692,0.00224538,0.000384576,-0.318033,0.00138662,0.0122623,720,659,-16.6519,7.71951
-497,365,-16.6874,-8.48853,0.001687,0.000345205,-0.000415786,0.00180539,0.00022681,-0.277407,0.00113557,0.0129439,727,659,-16.6875,8.48853
-490,365,-16.742,-9.22162,0.00150251,0.000252969,-0.000455042,0.00165065,0.000104821,-0.314746,0.00106721,0.0143044,734,659,-16.742,9.22163
-483,365,-16.7766,-9.93781,0.00148646,0.000185861,-0.00054324,0.00168351,-1.11882e-05,-0.34797,0.00112608,0.0133365,741,659,-16.7765,9.93783
-476,365,-16.7373,-10.6658,0.00162616,0.000194813,-0.000722828,0.00192767,-0.000106701,-0.395186,0.00132212,0.0179572,748,659,-16.7373,10.6658
-469,365,-16.7932,-11.3877,0.00186611,0.000287078,-0.00100965,0.00235829,-0.000205096,-0.453573,0.00164482,0.0181149,755,659,-16.7932,11.3877
-462,365,-16.8921,-12.0983,0.00214347,0.000387016,-0.00127839,0.00281623,-0.000285744,-0.484431,0.00197962,0.0147671,762,659,-16.8921,12.0983
-455,365,-16.9274,-12.8202,0.0025631,0.000270465,-0.00153208,0.00333024,-0.000496675,-0.464221,0.00240289,0.0178085,769,659,-16.9274,12.8202
-448,365,-16.8234,-13.6979,0.00304825,0.000262614,-0.00183721,0.00396091,-0.000650056,-0.461061,0.00288184,0.0473459,776,659,-16.8234,13.6979
-441,365,-16.5302,-14.7079,0,0,0,0,0,0,0,-1,783,659,-16.5302,14.7079
-434,365,-5.45056,-3.98041,0,0,0,0,0,0,0,-1,790,659,-5.45055,3.98042
-427,365,-5.05377,-4.74689,0,0,0,0,0,0,0,-1,797,659,-5.05376,4.7469
-420,365,-4.58813,-3.16376,0,0,0,0,0,0,0,-1,804,659,-4.58816,3.16374
-413,365,0.141357,0.672729,0,0,0,0,0,0,0,-1,811,659,0.141365,-0.672714
-406,365,-1.75067,-0.934448,0,0,0,0,0,0,0,-1,818,659,-1.7507,0.934424
-399,365,-4.10242,-1.25439,0,0,0,0,0,0,0,-1,825,659,-4.10244,1.25438
-392,365,-7.46545,-0.779724,0,0,0,0,0,0,0,-1,832,659,-7.46543,0.779744
-385,365,-6.27875,-0.887573,0,0,0,0,0,0,0,-1,839,659,-6.27874,0.887545
-378,365,-5.34503,-0.263306,0,0,0,0,0,0,0,-1,846,659,-5.34504,0.263275
-371,365,0,0,0,0,0,0,0,0,0,-1,853,659,0,0
-364,365,0,0,0,0,0,0,0,0,0,-1,860,659,0,0
-357,365,0,0,0,0,0,0,0,0,0,-1,867,659,0,0
-350,365,0,0,0,0,0,0,0,0,0,-1,874,659,0,0
-343,365,0,0,0,0,0,0,0,0,0,-1,881,659,0,0
-336,365,0,0,0,0,0,0,0,0,0,-1,888,659,0,0
-329,365,0,0,0,0,0,0,0,0,0,-1,895,659,0,0
-322,365,0,0,0,0,0,0,0,0,0,-1,902,659,0,0
-315,365,0,0,0,0,0,0,0,0,0,-1,909,659,0,0
-308,365,0,0,0,0,0,0,0,0,0,-1,916,659,0,0
-301,365,0,0,0,0,0,0,0,0,0,-1,923,659,0,0
-294,365,0,0,0,0,0,0,0,0,0,-1,930,659,0,0
-287,365,0,0,0,0,0,0,0,0,0,-1,937,659,0,0
-280,365,0,0,0,0,0,0,0,0,0,-1,944,659,0,0
-273,365,0,0,0,0,0,0,0,0,0,-1,951,659,0,0
-266,365,0,0,0,0,0,0,0,0,0,-1,958,659,0,0
-259,365,0,0,0,0,0,0,0,0,0,-1,965,659,0,0
-252,365,0,0,0,0,0,0,0,0,0,-1,972,659,0,0
-245,365,0,0,0,0,0,0,0,0,0,-1,979,659,0,0
-238,365,0,0,0,0,0,0,0,0,0,-1,986,659,0,0
-231,365,0,0,0,0,0,0,0,0,0,-1,993,659,0,0
-224,365,0,0,0,0,0,0,0,0,0,-1,1000,659,0,0
-217,365,0,0,0,0,0,0,0,0,0,-1,1007,659,0,0
-210,365,0,0,0,0,0,0,0,0,0,-1,1014,659,0,0
-203,365,0,0,0,0,0,0,0,0,0,-1,1021,659,0,0
-196,365,0,0,0,0,0,0,0,0,0,-1,1028,659,0,0
-189,365,0,0,0,0,0,0,0,0,0,-1,1035,659,0,0
-182,365,0,0,0,0,0,0,0,0,0,-1,1042,659,0,0
-175,365,0,0,0,0,0,0,0,0,0,-1,1049,659,0,0
-168,365,0,0,0,0,0,0,0,0,0,-1,1056,659,0,0
-161,365,0,0,0,0,0,0,0,0,0,-1,1063,659,0,0
-154,365,0,0,0,0,0,0,0,0,0,-1,1070,659,0,0
-147,365,0,0,0,0,0,0,0,0,0,-1,1077,659,0,0
-140,365,0,0,0,0,0,0,0,0,0,-1,1084,659,0,0
-133,365,0,0,0,0,0,0,0,0,0,-1,1091,659,0,0
-126,365,0,0,0,0,0,0,0,0,0,-1,1098,659,0,0
-119,365,0,0,0,0,0,0,0,0,0,-1,1105,659,0,0
-112,365,0,0,0,0,0,0,0,0,0,-1,1112,659,0,0
-105,365,0,0,0,0,0,0,0,0,0,-1,1119,659,0,0
-98,365,0,0,0,0,0,0,0,0,0,-1,1126,659,0,0
-91,365,0,0,0,0,0,0,0,0,0,-1,1133,659,0,0
-84,365,0,0,0,0,0,0,0,0,0,-1,1140,659,0,0
-77,365,0,0,0,0,0,0,0,0,0,-1,1147,659,0,0
-70,365,0,0,0,0,0,0,0,0,0,-1,1154,659,0,0
-63,365,0,0,0,0,0,0,0,0,0,-1,1161,659,0,0
-56,365,0,0,0,0,0,0,0,0,0,-1,1168,659,0,0
-49,365,0,0,0,0,0,0,0,0,0,-1,1175,659,0,0
-42,365,0,0,0,0,0,0,0,0,0,-1,1182,659,0,0
-35,365,0,0,0,0,0,0,0,0,0,-1,1189,659,0,0
-28,365,0,0,0,0,0,0,0,0,0,-1,1196,659,0,0
-21,365,0,0,0,0,0,0,0,0,0,-1,1203,659,0,0
-14,365,0,0,0,0,0,0,0,0,0,-1,1210,659,0,0
-7,365,0,0,0,0,0,0,0,0,0,-1,1217,659,0,0
0,365,0,0,0,0,0,0,0,0,0,-1,1224,659,0,0
7,365,0,0,0,0,0,0,0,0,0,-1,1231,659,0,0
14,365,0,0,0,0,0,0,0,0,0,-1,1238,659,0,0
21,365,0,0,0,0,0,0,0,0,0,-1,1245,659,0,0
28,365,0,0,0,0,0,0,0,0,0,-1,1252,659,0,0
35,365,0,0,0,0,0,0,0,0,0,-1,1259,659,0,0
42,365,0,0,0,0,0,0,0,0,0,-1,1266,659,0,0
49,365,0,0,0,0,0,0,0,0,0,-1,1273,659,0,0
56,365,0,0,0,0,0,0,0,0,0,-1,1280,659,0,0
63,365,0,0,0,0,0,0,0,0,0,-1,1287,659,0,0
70,365,0,0,0,0,0,0,0,0,0,-1,1294,659,0,0
77,365,0,0,0,0,0,0,0,0,0,-1,1301,659,0,0
84,365,0,0,0,0,0,0,0,0,0,-1,1308,659,0,0
91,365,0,0,0,0,0,0,0,0,0,-1,1315,659,0,0
98,365,0,0,0,0,0,0,0,0,0,-1,1322,659,0,0
105,365,0,0,0,0,0,0,0,0,0,-1,1329,659,0,0
112,365,0,0,0,0,0,0,0,0,0,-1,1336,659,0,0
119,365,0,0,0,0,0,0,0,0,0,-1,1343,659,0,0
126,365,0,0,0,0,0,0,0,0,0,-1,1350,659,0,0
133,365,0,0,0,0,0,0,0,0,0,-1,1357,659,0,0
140,365,0,0,0,0,0,0,0,0,0,-1,1364,659,0,0
147,365,0,0,0,0,0,0,0,0,0,-1,1371,659,0,0
154,365,0,0,0,0,0,0,0,0,0,-1,1378,659,0,0
161,365,0,0,0,0,0,0,0,0,0,-1,1385,659,0,0
168,365,0,0,0,0,0,0,0,0,0,-1,1392,659,0,0
175,365,0,0,0,0,0,0,0,0,0,-1,1399,659,0,0
182,365,0,0,0,0,0,0,0,0,0,-1,1406,659,0,0
189,365,0,0,0,0,0,0,0,0,0,-1,1413,659,0,0
196,365,0,0,0,0,0,0,0,0,0,-1,1420,659,0,0
203,365,0,0,0,0,0,0,0,0,0,-1,1427,659,0,0
210,365,0,0,0,0,0,0,0,0,0,-1,1434,659,0,0
217,365,0,0,0,0,0,0,0,0,0,-1,1441,659,0,0
224,365,0,0,0,0,0,0,0,0,0,-1,1448,659,0,0
231,365,0,0,0,0,0,0,0,0,0,-1,1455,659,0,0
238,365,0,0,0,0,0,0,0,0,0,-1,1462,659,0,0
245,365,0,0,0,0,0,0,0,0,0,-1,1469,659,0,0
252,365,0,0,0,0,0,0,0,0,0,-1,1476,659,0,0
259,365,0,0,0,0,0,0,0,0,0,-1,1483,659,0,0
266,365,0,0,0,0,0,0,0,0,0,-1,1490,659,0,0
273,365,0,0,0,0,0,0,0,0,0,-1,1497,659,0,0
280,365,0,0,0,0,0,0,0,0,0,-1,1504,659,0,0
287,365,0,0,0,0,0,0,0,0,0,-1,1511,659,0,0
294,365,0,0,0,0,0,0,0,0,0,-1,1518,659,0,0
301,365,0,0,0,0,0,0,0,0,0,-1,1525,659,0,0
308,365,0,0,0,0,0,0,0,0,0,-1,1532,659,0,0
315,365,0,0,0,0,0,0,0,0,0,-1,1539,659,0,0
322,365,0,0,0,0,0,0,0,0,0,-1,1546,659,0,0
329,365,0,0,0,0,0,0,0,0,0,-1,1553,659,0,0
336,365,0,0,0,0,0,0,0,0,0,-1,1560,659,0,0
343,365,0,0,0,0,0,0,0,0,0,-1,1567,659,0,0
350,365,0,0,0,0,0,0,0,0,0,-1,1574,659,0,0
357,365,0,0,0,0,0,0,0,0,0,-1,1581,659,0,0
364,365,0,0,0,0,0,0,0,0,0,-1,1588,659,0,0
371,365,0,0,0,0,0,0,0,0,0,-1,1595,659,0,0
378,365,0,0,0,0,0,0,0,0,0,-1,1602,659,0,0
385,365,0,0,0,0,0,0,0,0,0,-1,1609,659,0,0
392,365,0,0,0,0,0,0,0,0,0,-1,1616,659,0,0
399,365,0,0,0,0,0,0,0,0,0,-1,1623,659,0,0
406,365,0,0,0,0,0,0,0,0,0,-1,1630,659,0,0
413,365,0,0,0,0,0,0,0,0,0,-1,1637,659,0,0
420,365,0,0,0,0,0,0,0,0,0,-1,1644,659,0,0
427,365,0,0,0,0,0,0,0,0,0,-1,1651,659,0,0
434,365,0,0,0,0,0,0,0,0,0,-1,1658,659,0,0
441,365,0,0,0,0,0,0,0,0,0,-1,1665,659,0,0
448,365,0,0,0,0,0,0,0,0,0,-1,1672,659,0,0
455,365,0,0,0,0,0,0,0,0,0,-1,1679,659,0,0
462,365,0,0,0,0,0,0,0,0,0,-1,1686,659,0,0
469,365,0,0,0,0,0,0,0,0,0,-1,1693,659,0,0
476,365,0,0,0,0,0,0,0,0,0,-1,1700,659,0,0
483,365,0,0,0,0,0,0,0,0,0,-1,1707,659,0,0
490,365,8.39551,0.471252,0,0,0,0,0,0,0,-1,1714,659,8.39551,-0.471241
497,365,9.89233,1.35394,0,0,0,0,0,0,0,-1,1721,659,9.89237,-1.35396
504,365,10.1414,1.18005,0,0,0,0,0,0,0,-1,1728,659,10.1413,-1.18004
511,365,10.5151,0.993896,0,0,0,0,0,0,0,-1,1735,659,10.5152,-0.993894
518,365,11.2029,0.398132,0,0,0,0,0,0,0,-1,1742,659,11.2029,-0.398136
525,365,15.5748,3.85303,0,0,0,0,0,0,0,-1,1749,659,15.5748,-3.85303
532,365,11.2446,1.00629,0,0,0,0,0,0,0,-1,1756,659,11.2446,-1.00631
539,365,12.6301,1.03204,0,0,0,0,0,0,0,-1,1763,659,12.6302,-1.03204
546,365,11.647,0.84198,0,0,0,0,0,0,0,-1,1770,659,11.6469,-0.841955
553,365,12.028,-0.558899,0,0,0,0,0,0,0,-1,1777,659,12.028,0.558873
560,365,14.5372,-4.55548,0,0,0,0,0,0,0,-1,1784,659,14.5373,4.55547
567,365,20.5676,-7.53888,0,0,0,0,0,0,0,-1,1791,659,20.5676,7.53887
574,365,30.0997,-12.2487,0,0,0,0,0,0,0,-1,1798,659,30.0997,12.2486
581,365,29.832,-11.5681,0,0,0,0,0,0,0,-1,1805,659,29.832,11.5681
588,365,29.7566,-11.0688,0.000392969,0.000174735,-0.000281983,0.000586211,-1.85073e-05,-0.60079,0.00039712,0.027563,1812,659,29.7566,11.0688
595,365,29.7235,-10.1392,0.000649254,0.000349645,2.56459e-05,0.000651433,0.000347465,0.084776,0.000376385,0.0132088,1819,659,29.7235,10.1392
602,365,29.6788,-9.37,0.00108313,0.000610002,0.000404667,0.00131531,0.000377825,0.520893,0.000781971,0.0158513,1826,659,29.6789,9.37001
609,365,29.589,-8.61914,0.00164655,0.000984016,0.000883895,0.00225922,0.000371352,0.606108,0.00139889,0.0173974,1833,659,29.589,8.61913
616,365,29.5786,-7.8501,0.00227526,0.00148076,0.00140421,0.00333733,0.000418695,0.647551,0.00209929,0.0177845,1840,659,29.5786,7.8501
623,365,29.5911,-7.09332,0.00301422,0.00207087,0.00203376,0.00463028,0.000454809,0.671451,0.00294697,0.0124831,1847,659,29.5911,7.0933
630,365,29.5652,-6.34332,0.00372745,0.00273239,0.00268791,0.00596349,0.000496356,0.693884,0.00382097,0.0174872,1854,659,29.5652,6.34331
637,365,29.5283,-5.60675,0.00437819,0.00344607,0.00334294,0.0072874,0.000536858,0.716136,0.00468957,0.022393,1861,659,29.5284,5.60673
644,365,29.521,-4.84827,0.00496572,0.00442668,0.00409464,0.0087997,0.000592697,0.752534,0.00567922,0.0280552,1868,659,29.521,4.84829
651,365,29.7701,-3.81683,0,0,0,0,0,0,0,-1,1875,659,29.7702,3.81686
658,365,24.745,-2.13275,0,0,0,0,0,0,0,-1,1882,659,24.745,2.13277
665,365,14.0961,0.769043,0,0,0,0,0,0,0,-1,1889,659,14.0961,-0.769063
672,365,10.0579,2.15088,0,0,0,0,0,0,0,-1,1896,659,10.0579,-2.15088
679,365,10.9718,2.19208,0,0,0,0,0,0,0,-1,1903,659,10.9718,-2.19211
686,365,12.2134,2.17108,0,0,0,0,0,0,0,-1,1910,659,12.2134,-2.17109
693,365,13.7141,1.98279,0,0,0,0,0,0,0,-1,1917,659,13.7141,-1.98278
700,365,0,0,0,0,0,0,0,0,0,-1,1924,659,0,0
707,365,0,0,0,0,0,0,0,0,0,-1,1931,659,0,0
714,365,0,0,0,0,0,0,0,0,0,-1,1938,659,0,0
721,365,0,0,0,0,0,0,0,0,0,-1,1945,659,0,0
728,365,0,0,0,0,0,0,0,0,0,-1,1952,659,0,0
735,365,0,0,0,0,0,0,0,0,0,-1,1959,659,0,0
742,365,0,0,0,0,0,0,0,0,0,-1,1966,659,0,0
749,365,0,0,0,0,0,0,0,0,0,-1,1973,659,0,0
756,365,0,0,0,0,0,0,0,0,0,-1,1980,659,0,0
763,365,0,0,0,0,0,0,0,0,0,-1,1987,659,0,0
770,365,0,0,0,0,0,0,0,0,0,-1,1994,659,0,0
777,365,0,0,0,0,0,0,0,0,0,-1,2001,659,0,0
784,365,0,0,0,0,0,0,0,0,0,-1,2008,659,0,0
791,365,0,0,0,0,0,0,0,0,0,-1,2015,659,0,0
798,365,0,0,0,0,0,0,0,0,0,-1,2022,659,0,0
805,365,0,0,0,0,0,0,0,0,0,-1,2029,659,0,0
812,365,0,0,0,0,0,0,0,0,0,-1,2036,659,0,0
-700,358,0,0,0,0,0,0,0,0,0,-1,524,666,0,0
-693,358,0,0,0,0,0,0,0,0,0,-1,531,666,0,0
-686,358,0,0,0,0,0,0,0,0,0,-1,538,666,0,0
-679,358,0,0,0,0,0,0,0,0,0,-1,545,666,0,0
-672,358,0,0,0,0,0,0,0,0,0,-1,552,666,0,0
-665,358,0,0,0,0,0,0,0,0,0,-1,559,666,0,0
-658,358,0,0,0,0,0,0,0,0,0,-1,566,666,0,0
-651,358,0,0,0,0,0,0,0,0,0,-1,573,666,0,0
-644,358,0,0,0,0,0,0,0,0,0,-1,580,666,0,0
-637,358,0,0,0,0,0,0,0,0,0,-1,587,666,0,0
-630,358,0,0,0,0,0,0,0,0,0,-1,594,666,0,0
-623,358,0,0,0,0,0,0,0,0,0,-1,601,666,0,0
-616,358,0,0,0,0,0,0,0,0,0,-1,608,666,0,0
-609,358,0,0,0,0,0,0,0,0,0,-1,615,666,0,0
-602,358,0,0,0,0,0,0,0,0,0,-1,622,666,0,0
-595,358,0,0,0,0,0,0,0,0,0,-1,629,666,0,0
-588,358,0,0,0,0,0,0,0,0,0,-1,636,666,0,0
-581,358,-8.31616,1.61993,0,0,0,0,0,0,0,-1,643,666,-8.31614,-1.61993
-574,358,-8.22406,1.75385,0,0,0,0,0,0,0,-1,650,666,-8.22408,-1.75383
-567,358,-8.14215,1.91577,0,0,0,0,0,0,0,-1,657,666,-8.14214,-1.91579
-560,358,-10.6086,2.18872,0,0,0,0,0,0,0,-1,664,666,-10.6086,-2.18873
-553,358,-13.4767,1.09552,0,0,0,0,0,0,0,-1,671,666,-13.4767,-1.09551
-546,358,-13.3743,-0.185059,0,0,0,0,0,0,0,-1,678,666,-13.3743,0.185037
-539,358,-9.43884,-2.04785,0,0,0,0,0,0,0,-1,685,666,-9.43884,2.04785
-532,358,-12.4141,-2.36572,0,0,0,0,0,0,0,-1,692,666,-12.4141,2.3657
-525,358,-12.731,-3.88031,0,0,0,0,0,0,0,-1,699,666,-12.731,3.88029
-518,358,-17.301,-6.08484,0,0,0,0,0,0,0,-1,706,666,-17.301,6.08485
-511,358,-17.3698,-6.92529,0.0026903,0.000649893,-0.000621957,0.00286493,0.000475255,-0.27374,0.0017729,0.0163189,713,666,-17.3698,6.92526
-504,358,-17.3869,-7.6676,0.00215431,0.000475848,-0.000480455,0.0022821,0.000348049,-0.259975,0.00141968,0.0117351,720,666,-17.3869,7.66757
-497,358,-17.4172,-8.44702,0.00180559,0.000287231,-0.000386544,0.00189834,0.000194489,-0.235474,0.00120597,0.0116152,727,666,-17.4172,8.44705
-490,358,-17.4603,-9.1684,0.00161074,0.000209413,-0.00043911,0.00173697,8.31868e-05,-0.279912,0.00113127,0.011149,734,666,-17.4603,9.16842
-483,358,-17.502,-9.88562,0.00163288,0.000184151,-0.000560299,0.00182429,-7.25652e-06,-0.329188,0.00121862,0.0106025,741,666,-17.502,9.8856
-476,358,-17.4686,-10.6003,0.00183173,0.000251239,-0.000795203,0.00216257,-7.96026e-05,-0.394263,0.00146897,0.0143256,748,666,-17.4686,10.6003
-469,358,-17.5462,-11.3301,0.00215091,0.000420386,-0.00116574,0.00273742,-0.000166122,-0.46614,0.00188276,0.0191885,755,666,-17.5462,11.3301
-462,358,-17.6375,-12.0725,0.00254508,0.000654083,-0.00155067,0.00341576,-0.000216605,-0.511624,0.0023527,0.0194659,762,666,-17.6375,12.0725
-455,358,-17.6324,-12.817,0,0,0,0,0,0,0,-1,769,666,-17.6324,12.817
-448,358,-17.3417,-13.9579,0,0,0,0,0,0,0,-1,776,666,-17.3417,13.958
-441,358,-5.56293,-3.98041,0,0,0,0,0,0,0,-1,783,666,-5.56291,3.98043
-434,358,-5.21558,-4.43127,0,0,0,0,0,0,0,-1,790,666,-5.21559,4.43125
-427,358,-3.56189,-3.15729,0,0,0,0,0,0,0,-1,797,666,-3.56192,3.15729
-420,358,0.200195,1.08234,0,0,0,0,0,0,0,-1,804,666,0.200174,-1.08231
-413,358,0.0325317,0.161072,0,0,0,0,0,0,0,-1,811,666,0.0325501,-0.161098
-406,358,-3.85846,0.753113,0,0,0,0,0,0,0,-1,818,666,-3.85846,-0.753129
-399,358,-1.31213,0.190735,0,0,0,0,0,0,0,-1,825,666,-1.31215,-0.190763
-392,358,-3.73914,-0.832214,0,0,0,0,0,0,0,-1,832,666,-3.73915,0.832202
-385,358,-5.95178,-1.69141,0,0,0,0,0,0,0,-1,839,666,-5.9518,1.69143
-378,358,0,0,0,0,0,0,0,0,0,-1,846,666,0,0
-371,358,0,0,0,0,0,0,0,0,0,-1,853,666,0,0
-364,358,0,0,0,0,0,0,0,0,0,-1,860,666,0,0
-357,358,0,0,0,0,0,0,0,0,0,-1,867,666,0,0
-350,358,0,0,0,0,0,0,0,0,0,-1,874,666,0,0
-343,358,0,0,0,0,0,0,0,0,0,-1,881,666,0,0
-336,358,0,0,0,0,0,0,0,0,0,-1,888,666,0,0
-329,358,0,0,0,0,0,0,0,0,0,-1,895,666,0,0
-322,358,0,0,0,0,0,0,0,0,0,-1,902,666,0,0
-315,358,0,0,0,0,0,0,0,0,0,-1,909,666,0,0
-308,358,0,0,0,0,0,0,0,0,0,-1,916,666,0,0
-301,358,0,0,0,0,0,0,0,0,0,-1,923,666,0,0
-294,358,0,0,0,0,0,0,0,0,0,-1,930,666,0,0
-287,358,0,0,0,0,0,0,0,0,0,-1,937,666,0,0
-280,358,0,0,0,0,0,0,0,0,0,-1,944,666,0,0
-273,358,0,0,0,0,0,0,0,0,0,-1,951,666,0,0
-266,358,0,0,0,0,0,0,0,0,0,-1,958,666,0,0
-259,358,0,0,0,0,0,0,0,0,0,-1,965,666,0,0
-252,358,0,0,0,0,0,0,0,0,0,-1,972,666,0,0
-245,358,0,0,0,0,0,0,0,0,0,-1,979,666,0,0
-238,358,0,0,0,0,0,0,0,0,0,-1,986,666,0,0
-231,358,0,0,0,0,0,0,0,0,0,-1,993,666,0,0
-224,358,0,0,0,0,0,0,0,0,0,-1,1000,666,0,0
-217,358,0,0,0,0,0,0,0,0,0,-1,1007,666,0,0
-210,358,0,0,0,0,0,0,0,0,0,-1,1014,666,0,0
-203,358,0,0,0,0,0,0,0,0,0,-1,1021,666,0,0
-196,358,0,0,0,0,0,0,0,0,0,-1,1028,666,0,0
-189,358,0,0,0,0,0,0,0,0,0,-1,1035,666,0,0
-182,358,0,0,0,0,0,0,0,0,0,-1,1042,666,0,0
-175,358,0,0,0,0,0,0,0,0,0,-1,1049,666,0,0
-168,358,0,0,0,0,0,0,0,0,0,-1,1056,666,0,0
-161,358,0,0,0,0,0,0,0,0,0,-1,1063,666,0,0
-154,358,0,0,0,0,0,0,0,0,0,-1,1070,666,0,0
-147,358,0,0,0,0,0,0,0,0,0,-1,1077,666,0,0
-140,358,0,0,0,0,0,0,0,0,0,-1,1084,666,0,0
-133,358,0,0,0,0,0,0,0,0,0,-1,1091,666,0,0
-126,358,0,0,0,0,0,0,0,0,0,-1,1098,666,0,0
-119,358,0,0,0,0,0,0,0,0,0,-1,1105,666,0,0
-112,358,0,0,0,0,0,0,0,0,0,-1,1112,666,0,0
-105,358,0,0,0,0,0,0,0,0,0,-1,1119,666,0,0
-98,358,0,0,0,0,0,0,0,0,0,-1,1126,666,0,0
-91,358,0,0,0,0,0,0,0,0,0,-1,1133,666,0,0
-84,358,0,0,0,0,0,0,0,0,0,-1,1140,666,0,0
-77,358,0,0,0,0,0,0,0,0,0,-1,1147,666,0,0
-70,358,0,0,0,0,0,0,0,0,0,-1,1154,666,0,0
-63,358,0,0,0,0,0,0,0,0,0,-1,1161,666,0,0
-56,358,0,0,0,0,0,0,0,0,0,-1,1168,666,0,0
-49,358,0,0,0,0,0,0,0,0,0,-1,1175,666,0,0
-42,358,0,0,0,0,0,0,0,0,0,-1,1182,666,0,0
-35,358,0,0,0,0,0,0,0,0,0,-1,1189,666,0,0
-28,358,0,0,0,0,0,0,0,0,0,-1,1196,666,0,0
-21,358,0,0,0,0,0,0,0,0,0,-1,1203,666,0,0
-14,358,0,0,0,0,0,0,0,0,0,-1,1210,666,0,0
-7,358,0,0,0,0,0,0,0,0,0,-1,1217,666,0,0
0,358,0,0,0,0,0,0,0,0,0,-1,1224,666,0,0
7,358,0,0,0,0,0,0,0,0,0,-1,1231,666,0,0
14,358,0,0,0,0,0,0,0,0,0,-1,1238,666,0,0
21,358,0,0,0,0,0,0,0,0,0,-1,1245,666,0,0
28,358,0,0,0,0,0,0,0,0,0,-1,1252,666,0,0
35,358,0,0,0,0,0,0,0,0,0,-1,1259,666,0,0
42,358,0,0,0,0,0,0,0,0,0,-1,1266,666,0,0
49,358,0,0,0,0,0,0,0,0,0,-1,1273,666,0,0
56,358,0,0,0,0,0,0,0,0,0,-1,1280,666,0,0
63,358,0,0,0,0,0,0,0,0,0,-1,1287,666,0,0
70,358,0,0,0,0,0,0,0,0,0,-1,1294,666,0,0
77,358,0,0,0,0,0,0,0,0,0,-1,1301,666,0,0
84,358,0,0,0,0,0,0,0,0,0,-1,1308,666,0,0
91,358,0,0,0,0,0,0,0,0,0,-1,1315,666,0,0
98,358,0,0,0,0,0,0,0,0,0,-1,1322,666,0,0
105,358,0,0,0,0,0,0,0,0,0,-1,1329,666,0,0
112,358,0,0,0,0,0,0,0,0,0,-1,1336,666,0,0
119,358,0,0,0,0,0,0,0,0,0,-1,1343,666,0,0
126,358,0,0,0,0,0,0,0,0,0,-1,1350,666,0,0
133,358,0,0,0,0,0,0,0,0,0,-1,1357,666,0,0
140,358,0,0,0,0,0,0,0,0,0,-1,1364,666,0,0
147,358,0,0,0,0,0,0,0,0,0,-1,1371,666,0,0
154,358,0,0,0,0,0,0,0,0,0,-1,1378,666,0,0
161,358,0,0,0,0,0,0,0,0,0,-1,1385,666,0,0
168,358,0,0,0,0,0,0,0,0,0,-1,1392,666,0,0
175,358,0,0,0,0,0,0,0,0,0,-1,1399,666,0,0
182,358,0,0,0,0,0,0,0,0,0,-1,1406,666,0,0
189,358,0,0,0,0,0,0,0,0,0,-1,1413,666,0,0
196,358,0,0,0,0,0,0,0,0,0,-1,1420,666,0,0
203,358,0,0,0,0,0,0,0,0,0,-1,1427,666,0,0
210,358,0,0,0,0,0,0,0,0,0,-1,1434,666,0,0
217,358,0,0,0,0,0,0,0,0,0,-1,1441,666,0,0
224,358,0,0,0,0,0,0,0,0,0,-1,1448,666,0,0
231,358,0,0,0,0,0,0,0,0,0,-1,1455,666,0,0
238,358,0,0,0,0,0,0,0,0,0,-1,1462,666,0,0
245,358,0,0,0,0,0,0,0,0,0,-1,1469,666,0,0
252,358,0,0,0,0,0,0,0,0,0,-1,1476,666,0,0
259,358,0,0,0,0,0,0,0,0,0,-1,1483,666,0,0
266,358,0,0,0,0,0,0,0,0,0,-1,1490,666,0,0
273,358,0,0,0,0,0,0,0,0,0,-1,1497,666,0,0
280,358,0,0,0,0,0,0,0,0,0,-1,1504,666,0,0
287,358,0,0,0,0,0,0,0,0,0,-1,1511,666,0,0
294,358,0,0,0,0,0,0,0,0,0,-1,1518,666,0,0
301,358,0,0,0,0,0,0,0,0,0,-1,1525,666,0,0
308,358,0,0,0,0,0,0,0,0,0,-1,1532,666,0,0
315,358,0,0,0,0,0,0,0,0,0,-1,1539,666,0,0
322,358,0,0,0,0,0,0,0,0,0,-1,1546,666,0,0
329,358,0,0,0,0,0,0,0,0,0,-1,1553,666,0,0
336,358,0,0,0,0,0,0,0,0,0,-1,1560,666,0,0
343,358,0,0,0,0,0,0,0,0,0,-1,1567,666,0,0
350,358,0,0,0,0,0,0,0,0,0,-1,1574,666,0,0
357,358,0,0,0,0,0,0,0,0,0,-1,1581,666,0,0
364,358,0,0,0,0,0,0,0,0,0,-1,1588,666,0,0
371,358,0,0,0,0,0,0,0,0,0,-1,1595,666,0,0
378,358,0,0,0,0,0,0,0,0,0,-1,1602,666,0,0
385,358,0,0,0,0,0,0,0,0,0,-1,1609,666,0,0
392,358,0,0,0,0,0,0,0,0,0,-1,1616,666,0,0
399,358,0,0,0,0,0,0,0,0,0,-1,1623,666,0,0
406,358,0,0,0,0,0,0,0,0,0,-1,1630,666,0,0
413,358,0,0,0,0,0,0,0,0,0,-1,1637,666,0,0
420,358,0,0,0,0,0,0,0,0,0,-1,1644,666,0,0
427,358,0,0,0,0,0,0,0,0,0,-1,1651,666,0,0
434,358,0,0,0,0,0,0,0,0,0,-1,1658,666,0,0
441,358,0,0,0,0,0,0,0,0,0,-1,1665,666,0,0
448,358,0,0,0,0,0,0,0,0,0,-1,1672,666,0,0
455,358,0,0,0,0,0,0,0,0,0,-1,1679,666,0,0
462,358,0,0,0,0,0,0,0,0,0,-1,1686,666,0,0
469,358,0,0,0,0,0,0,0,0,0,-1,1693,666,0,0
476,358,0,0,0,0,0,0,0,0,0,-1,1700,666,0,0
483,358,0,0,0,0,0,0,0,0,0,-1,1707,666,0,0
490,358,0,0,0,0,0,0,0,0,0,-1,1714,666,0,0
497,358,8.57239,1.1322,0,0,0,0,0,0,0,-1,1721,666,8.57234,-1.13219
504,358,10.5972,0.832947,0,0,0,0,0,0,0,-1,1728,666,10.5972,-0.832968
511,358,10.6873,0.868469,0,0,0,0,0,0,0,-1,1735,666,10.6872,-0.868484
518,358,16.5884,2.34894,0,0,0,0,0,0,0,-1,1742,666,16.5884,-2.34894
525,358,15.7626,3.65344,0,0,0,0,0,0,0,-1,1749,666,15.7626,-3.65342
532,358,14.9368,4.95789,0,0,0,0,0,0,0,-1,1756,666,14.9367,-4.9579
539,358,15.1597,3.42694,0,0,0,0,0,0,0,-1,1763,666,15.1597,-3.42692
546,358,12.3792,1.53558,0,0,0,0,0,0,0,-1,1770,666,12.3792,-1.5356
553,358,11.6584,1.26172,0,0,0,0,0,0,0,-1,1777,666,11.6585,-1.26175
560,358,10.8234,1.43042,0,0,0,0,0,0,0,-1,1784,666,10.8233,-1.43041
567,358,10.1333,-0.955139,0,0,0,0,0,0,0,-1,1791,666,10.1333,0.955132
574,358,14.7886,-2.69293,0,0,0,0,0,0,0,-1,1798,666,14.7885,2.6929
581,358,20.1738,-6.76135,0,0,0,0,0,0,0,-1,1805,666,20.1738,6.76137
588,358,30.3251,-11.1309,0,0,0,0,0,0,0,-1,1812,666,30.325,11.1308
595,358,30.4792,-10.0732,0.000468839,8.70749e-05,-0.000200346,0.000554678,1.23616e-06,-0.404792,0.000369374,0.0174211,1819,666,30.4793,10.0732
602,358,30.4042,-9.29572,0.000856624,0.000290122,7.18086e-05,0.000865585,0.000281161,0.124142,0.000509867,0.0137019,1826,666,30.4042,9.29571
609,358,30.3467,-8.54974,0.0013897,0.000602269,0.000494183,0.00162783,0.000364138,0.449036,0.000986501,0.0180909,1833,666,30.3467,8.54973
616,358,30.3259,-7.79901,0.00193162,0.00101299,0.000944587,0.00252264,0.000421967,0.559102,0.00156024,0.0170326,1840,666,30.3259,7.799
623,358,30.3431,-7.06348,0.00252545,0.00151144,0.00147805,0.00358104,0.000455855,0.620176,0.00225085,0.0145193,1847,666,30.3432,7.0635
630,358,30.3185,-6.32703,0.00308386,0.00209778,0.00204753,0.00469687,0.000484768,0.667249,0.00298282,0.0181907,1854,666,30.3184,6.32701
637,358,30.2661,-5.56537,0.00357602,0.00270954,0.00260374,0.00578232,0.000503241,0.702959,0.00369856,0.0260148,1861,666,30.2661,5.56538
644,358,30.2526,-4.81927,0.00400047,0.00348309,0.0032093,0.00696148,0.000522068,0.745182,0.00447712,0.0218549,1868,666,30.2526,4.81928
651,358,30.3871,-3.93347,0.0043345,0.00424092,0.00381408,0.00810208,0.000473349,0.779265,0.00525072,0.04963,1875,666,30.387,3.93348
658,358,30.4094,-2.86926,0,0,0,0,0,0,0,-1,1882,666,30.4095,2.86923
665,358,28.0272,-2.07764,0,0,0,0,0,0,0,-1,1889,666,28.0272,2.07764
672,358,12.4299,1.47272,0,0,0,0,0,0,0,-1,1896,666,12.4299,-1.4727
679,358,12.1294,2.19702,0,0,0,0,0,0,0,-1,1903,666,12.1294,-2.19703
686,358,11.9557,2.2002,0,0,0,0,0,0,0,-1,1910,666,11.9557,-2.20021
693,358,13.188,2.52203,0,0,0,0,0,0,0,-1,1917,666,13.188,-2.52202
700,358,0,0,0,0,0,0,0,0,0,-1,1924,666,0,0
707,358,0,0,0,0,0,0,0,0,0,-1,1931,666,0,0
714,358,0,0,0,0,0,0,0,0,0,-1,1938,666,0,0
721,358,0,0,0,0,0,0,0,0,0,-1,1945,666,0,0
728,358,0,0,0,0,0,0,0,0,0,-1,1952,666,0,0
735,358,0,0,0,0,0,0,0,0,0,-1,1959,666,0,0
742,358,0,0,0,0,0,0,0,0,0,-1,1966,666,0,0
749,358,0,0,0,0,0,0,0,0,0,-1,1973,666,0,0
756,358,0,0,0,0,0,0,0,0,0,-1,1980,666,0,0
763,358,0,0,0,0,0,0,0,0,0,-1,1987,666,0,0
770,358,0,0,0,0,0,0,0,0,0,-1,1994,666,0,0
777,358,0,0,0,0,0,0,0,0,0,-1,2001,666,0,0
784,358,0,0,0,0,0,0,0,0,0,-1,2008,666,0,0
791,358,0,0,0,0,0,0,0,0,0,-1,2015,666,0,0
798,358,0,0,0,0,0,0,0,0,0,-1,2022,666,0,0
805,358,0,0,0,0,0,0,0,0,0,-1,2029,666,0,0
812,358,0,0,0,0,0,0,0,0,0,-1,2036,666,0,0
-700,351,0,0,0,0,0,0,0,0,0,-1,524,673,0,0
-693,351,0,0,0,0,0,0,0,0,0,-1,531,673,0,0
-686,351,0,0,0,0,0,0,0,0,0,-1,538,673,0,0
-679,351,0,0,0,0,0,0,0,0,0,-1,545,673,0,0
-672,351,0,0,0,0,0,0,0,0,0,-1,552,673,0,0
-665,351,0,0,0,0,0,0,0,0,0,-1,559,673,0,0
-658,351,0,0,0,0,0,0,0,0,0,-1,566,673,0,0
-651,351,0,0,0,0,0,0,0,0,0,-1,573,673,0,0
-644,351,0,0,0,0,0,0,0,0,0,-1,580,673,0,0
-637,351,0,0,0,0,0,0,0,0,0,-1,587,673,0,0
-630,351,0,0,0,0,0,0,0,0,0,-1,594,673,0,0
-623,351,0,0,0,0,0,0,0,0,0,-1,601,673,0,0
-616,351,0,0,0,0,0,0,0,0,0,-1,608,673,0,0
-609,351,0,0,0,0,0,0,0,0,0,-1,615,673,0,0
-602,351,0,0,0,0,0,0,0,0,0,-1,622,673,0,0
-595,351,0,0,0,0,0,0,0,0,0,-1,629,673,0,0
-588,351,0,0,0,0,0,0,0,0,0,-1,636,673,0,0
-581,351,-9.0647,1.71906,0,0,0,0,0,0,0,-1,643,673,-9.06472,-1.71908
-574,351,-8.23584,2.64764,0,0,0,0,0,0,0,-1,650,673,-8.23584,-2.64764
-567,351,-10.8027,4.56836,0,0,0,0,0,0,0,-1,657,673,-10.8027,-4.56839
-560,351,-14.2001,2.17084,0,0,0,0,0,0,0,-1,664,673,-14.2002,-2.17086
-553,351,-13.4979,0.779541,0,0,0,0,0,0,0,-1,671,673,-13.4978,-0.779519
-546,351,-14.0065,0.73645,0,0,0,0,0,0,0,-1,678,673,-14.0065,-0.736473
-539,351,-12.8123,-1.46393,0,0,0,0,0,0,0,-1,685,673,-12.8123,1.46395
-532,351,-16.0198,-4.03937,0,0,0,0,0,0,0,-1,692,673,-16.0198,4.03936
-525,351,-18.1819,-5.43066,0,0,0,0,0,0,0,-1,699,673,-18.1819,5.43066
-518,351,-18.103,-6.11328,0.00344976,0.00101775,-0.000834378,0.0037085,0.000759013,-0.300689,0.00226218,0.0223836,706,673,-18.1029,6.11327
-511,351,-18.0867,-6.88086,0.00273969,0.000681637,-0.000583491,0.00289361,0.00052772,-0.257913,0.00177945,0.0125729,713,673,-18.0867,6.88085
-504,351,-18.1293,-7.63312,0.00219021,0.00042088,-0.00042205,0.00228572,0.000325362,-0.22257,0.00142777,0.0118046,720,673,-18.1294,7.63313
-497,351,-18.1626,-8.3894,0.00186226,0.000217329,-0.000342257,0.00193063,0.000148959,-0.197169,0.00124042,0.011,727,673,-18.1626,8.38941
-490,351,-18.1954,-9.1073,0.0016674,0.000139876,-0.000404638,0.00176797,3.93093e-05,-0.243599,0.00116576,0.0105002,734,673,-18.1954,9.10727
-483,351,-18.2351,-9.81396,0.00171295,0.000147656,-0.000559565,0.00189241,-3.18035e-05,-0.31035,0.00127234,0.0126729,741,673,-18.2351,9.81397
-476,351,-18.2857,-10.5455,0.00194714,0.000266707,-0.000861026,0.00230997,-9.61267e-05,-0.398815,0.001573,0.0117671,748,673,-18.2857,10.5455
-469,351,-18.3062,-11.2498,0.0023303,0.000508611,-0.0013305,0.00303187,-0.000192958,-0.485245,0.00208854,0.0146796,755,673,-18.3062,11.2497
-462,351,-18.3108,-12.0479,0.00286616,0.000910778,-0.00189897,0.00402435,-0.000247404,-0.547668,0.00276905,0.0357715,762,673,-18.3108,12.0479
-455,351,-18.2562,-12.8752,0,0,0,0,0,0,0,-1,769,673,-18.2562,12.8752
-448,351,-6.61456,-4.38654,0,0,0,0,0,0,0,-1,776,673,-6.61456,4.38654
-441,351,-4.31567,-2.3009,0,0,0,0,0,0,0,-1,783,673,-4.31565,2.30089
-434,351,-3.81708,-2.28003,0,0,0,0,0,0,0,-1,790,673,-3.81706,2.28006
-427,351,-2.05157,-2.7785,0,0,0,0,0,0,0,-1,797,673,-2.05157,2.77848
-420,351,-1.06989,-2.43665,0,0,0,0,0,0,0,-1,804,673,-1.06991,2.43663
-413,351,-0.392334,-2.06671,0,0,0,0,0,0,0,-1,811,673,-0.392363,2.06672
-406,351,-1.86316,-2.58105,0,0,0,0,0,0,0,-1,818,673,-1.86313,2.58106
-399,351,1.00952,-1.53455,0,0,0,0,0,0,0,-1,825,673,1.00954,1.53457
-392,351,-1.02197,0.877136,0,0,0,0,0,0,0,-1,832,673,-1.02195,-0.877143
-385,351,-1.47205,1.04437,0,0,0,0,0,0,0,-1,839,673,-1.47207,-1.04435
-378,351,0,0,0,0,0,0,0,0,0,-1,846,673,0,0
-371,351,0,0,0,0,0,0,0,0,0,-1,853,673,0,0
-364,351,0,0,0,0,0,0,0,0,0,-1,860,673,0,0
-357,351,0,0,0,0,0,0,0,0,0,-1,867,673,0,0
-350,351,0,0,0,0,0,0,0,0,0,-1,874,673,0,0
-343,351,0,0,0,0,0,0,0,0,0,-1,881,673,0,0
-336,351,0,0,0,0,0,0,0,0,0,-1,888,673,0,0
-329,351,0,0,0,0,0,0,0,0,0,-1,895,673,0,0
-322,351,0,0,0,0,0,0,0,0,0,-1,902,673,0,0
-315,351,0,0,0,0,0,0,0,0,0,-1,909,673,0,0
-308,351,0,0,0,0,0,0,0,0,0,-1,916,673,0,0
-301,351,0,0,0,0,0,0,0,0,0,-1,923,673,0,0
-294,351,0,0,0,0,0,0,0,0,0,-1,930,673,0,0
-287,351,0,0,0,0,0,0,0,0,0,-1,937,673,0,0
-280,351,0,0,0,0,0,0,0,0,0,-1,944,673,0,0
-273,351,0,0,0,0,0,0,0,0,0,-1,951,673,0,0
-266,351,0,0,0,0,0,0,0,0,0,-1,958,673,0,0
-259,351,0,0,0,0,0,0,0,0,0,-1,965,673,0,0
-252,351,0,0,0,0,0,0,0,0,0,-1,972,673,0,0
-245,351,0,0,0,0,0,0,0,0,0,-1,979,673,0,0
-238,351,0,0,0,0,0,0,0,0,0,-1,986,673,0,0
-231,351,0,0,0,0,0,0,0,0,0,-1,993,673,0,0
-224,351,0,0,0,0,0,0,0,0,0,-1,1000,673,0,0
-217,351,0,0,0,0,0,0,0,0,0,-1,1007,673,0,0
-210,351,0,0,0,0,0,0,0,0,0,-1,1014,673,0,0
-203,351,0,0,0,0,0,0,0,0,0,-1,1021,673,0,0
-196,351,0,0,0,0,0,0,0,0,0,-1,1028,673,0,0
-189,351,0,0,0,0,0,0,0,0,0,-1,1035,673,0,0
-182,351,0,0,0,0,0,0,0,0,0,-1,1042,673,0,0
-175,351,0,0,0,0,0,0,0,0,0,-1,1049,673,0,0
-168,351,0,0,0,0,0,0,0,0,0,-1,1056,673,0,0
-161,351,0,0,0,0,0,0,0,0,0,-1,1063,673,0,0
-154,351,0,0,0,0,0,0,0,0,0,-1,1070,673,0,0
-147,351,0,0,0,0,0,0,0,0,0,-1,1077,673,0,0
-140,351,0,0,0,0,0,0,0,0,0,-1,1084,673,0,0
-133,351,0,0,0,0,0,0,0,0,0,-1,1091,673,0,0
-126,351,0,0,0,0,0,0,0,0,0,-1,1098,673,0,0
-119,351,0,0,0,0,0,0,0,0,0,-1,1105,673,0,0
-112,351,0,0,0,0,0,0,0,0,0,-1,1112,673,0,0
-105,351,0,0,0,0,0,0,0,0,0,-1,1119,673,0,0
-98,351,0,0,0,0,0,0,0,0,0,-1,1126,673,0,0
-91,351,0,0,0,0,0,0,0,0,0,-1,1133,673,0,0
-84,351,0,0,0,0,0,0,0,0,0,-1,1140,673,0,0
-77,351,0,0,0,0,0,0,0,0,0,-1,1147,673,0,0
-70,351,0,0,0,0,0,0,0,0,0,-1,1154,673,0,0
-63,351,0,0,0,0,0,0,0,0,0,-1,1161,673,0,0
-56,351,0,0,0,0,0,0,0,0,0,-1,1168,673,0,0
-49,351,0,0,0,0,0,0,0,0,0,-1,1175,673,0,0
-42,351,0,0,0,0,0,0,0,0,0,-1,1182,673,0,0
-35,351,0,0,0,0,0,0,0,0,0,-1,1189,673,0,0
-28,351,0,0,0,0,0,0,0,0,0,-1,1196,673,0,0
-21,351,0,0,0,0,0,0,0,0,0,-1,1203,673,0,0
-14,351,0,0,0,0,0,0,0,0,0,-1,1210,673,0,0
-7,351,0,0,0,0,0,0,0,0,0,-1,1217,673,0,0
0,351,0,0,0,0,0,0,0,0,0,-1,1224,673,0,0
7,351,0,0,0,0,0,0,0,0,0,-1,1231,673,0,0
14,351,0,0,0,0,0,0,0,0,0,-1,1238,673,0,0
21,351,0,0,0,0,0,0,0,0,0,-1,1245,673,0,0
28,351,0,0,0,0,0,0,0,0,0,-1,1252,673,0,0
35,351,0,0,0,0,0,0,0,0,0,-1,1259,673,0,0
42,351,0,0,0,0,0,0,0,0,0,-1,1266,673,0,0
49,351,0,0,0,0,0,0,0,0,0,-1,1273,673,0,0
56,351,0,0,0,0,0,0,0,0,0,-1,1280,673,0,0
63,351,0,0,0,0,0,0,0,0,0,-1,1287,673,0,0
70,351,0,0,0,0,0,0,0,0,0,-1,1294,673,0,0
77,351,0,0,0,0,0,0,0,0,0,-1,1301,673,0,0
84,351,0,0,0,0,0,0,0,0,0,-1,1308,673,0,0
91,351,0,0,0,0,0,0,0,0,0,-1,1315,673,0,0
98,351,0,0,0,0,0,0,0,0,0,-1,1322,673,0,0
105,351,0,0,0,0,0,0,0,0,0,-1,1329,673,0,0
112,351,0,0,0,0,0,0,0,0,0,-1,1336,673,0,0
119,351,0,0,0,0,0,0,0,0,0,-1,1343,673,0,0
126,351,0,0,0,0,0,0,0,0,0,-1,1350,673,0,0
133,351,0,0,0,0,0,0,0,0,0,-1,1357,673,0,0
140,351,0,0,0,0,0,0,0,0,0,-1,1364,673,0,0
147,351,0,0,0,0,0,0,0,0,0,-1,1371,673,0,0
154,351,0,0,0,0,0,0,0,0,0,-1,1378,673,0,0
161,351,0,0,0,0,0,0,0,0,0,-1,1385,673,0,0
168,351,0,0,0,0,0,0,0,0,0,-1,1392,673,0,0
175,351,0,0,0,0,0,0,0,0,0,-1,1399,673,0,0
182,351,0,0,0,0,0,0,0,0,0,-1,1406,673,0,0
189,351,0,0,0,0,0,0,0,0,0,-1,1413,673,0,0
196,351,0,0,0,0,0,0,0,0,0,-1,1420,673,0,0
203,351,0,0,0,0,0,0,0,0,0,-1,1427,673,0,0
210,351,0,0,0,0,0,0,0,0,0,-1,1434,673,0,0
217,351,0,0,0,0,0,0,0,0,0,-1,1441,673,0,0
224,351,0,0,0,0,0,0,0,0,0,-1,1448,673,0,0
231,351,0,0,0,0,0,0,0,0,0,-1,1455,673,0,0
238,351,0,0,0,0,0,0,0,0,0,-1,1462,673,0,0
245,351,0,0,0,0,0,0,0,0,0,-1,1469,673,0,0
252,351,0,0,0,0,0,0,0,0,0,-1,1476,673,0,0
259,351,0,0,0,0,0,0,0,0,0,-1,1483,673,0,0
266,351,0,0,0,0,0,0,0,0,0,-1,1490,673,0,0
273,351,0,0,0,0,0,0,0,0,0,-1,1497,673,0,0
280,351,0,0,0,0,0,0,0,0,0,-1,1504,673,0,0
287,351,0,0,0,0,0,0,0,0,0,-1,1511,673,0,0
294,351,0,0,0,0,0,0,0,0,0,-1,1518,673,0,0
301,351,0,0,0,0,0,0,0,0,0,-1,1525,673,0,0
308,351,0,0,0,0,0,0,0,0,0,-1,1532,673,0,0
315,351,0,0,0,0,0,0,0,0,0,-1,1539,673,0,0
322,351,0,0,0,0,0,0,0,0,0,-1,1546,673,0,0
329,351,0,0,0,0,0,0,0,0,0,-1,1553,673,0,0
336,351,0,0,0,0,0,0,0,0,0,-1,1560,673,0,0
343,351,0,0,0,0,0,0,0,0,0,-1,1567,673,0,0
350,351,0,0,0,0,0,0,0,0,0,-1,1574,673,0,0
357,351,0,0,0,0,0,0,0,0,0,-1,1581,673,0,0
364,351,0,0,0,0,0,0,0,0,0,-1,1588,673,0,0
371,351,0,0,0,0,0,0,0,0,0,-1,1595,673,0,0
378,351,0,0,0,0,0,0,0,0,0,-1,1602,673,0,0
385,351,0,0,0,0,0,0,0,0,0,-1,1609,673,0,0
392,351,0,0,0,0,0,0,0,0,0,-1,1616,673,0,0
399,351,0,0,0,0,0,0,0,0,0,-1,1623,673,0,0
406,351,0,0,0,0,0,0,0,0,0,-1,1630,673,0,0
413,351,0,0,0,0,0,0,0,0,0,-1,1637,673,0,0
420,351,0,0,0,0,0,0,0,0,0,-1,1644,673,0,0
427,351,0,0,0,0,0,0,0,0,0,-1,1651,673,0,0
434,351,0,0,0,0,0,0,0,0,0,-1,1658,673,0,0
441,351,0,0,0,0,0,0,0,0,0,-1,1665,673,0,0
448,351,0,0,0,0,0,0,0,0,0,-1,1672,673,0,0
455,351,0,0,0,0,0,0,0,0,0,-1,1679,673,0,0
462,351,0,0,0,0,0,0,0,0,0,-1,1686,673,0,0
469,351,0,0,0,0,0,0,0,0,0,-1,1693,673,0,0
476,351,0,0,0,0,0,0,0,0,0,-1,1700,673,0,0
483,351,0,0,0,0,0,0,0,0,0,-1,1707,673,0,0
490,351,0,0,0,0,0,0,0,0,0,-1,1714,673,0,0
497,351,0,0,0,0,0,0,0,0,0,-1,1721,673,0,0
504,351,10.8842,1.61615,0,0,0,0,0,0,0,-1,1728,673,10.8842,-1.61618
511,351,15.4548,0.0236816,0,0,0,0,0,0,0,-1,1735,673,15.4549,-0.0236664
518,351,16.7448,2.49268,0,0,0,0,0,0,0,-1,1742,673,16.7448,-2.49269
525,351,16.0701,3.43225,0,0,0,0,0,0,0,-1,1749,673,16.07,-3.43227
532,351,32.3822,3.03021,0,0,0,0,0,0,0,-1,1756,673,32.3822,-3.03019
539,351,15.3387,3.54486,0,0,0,0,0,0,0,-1,1763,673,15.3387,-3.54485
546,351,13.9387,4.59357,0,0,0,0,0,0,0,-1,1770,673,13.9388,-4.59359
553,351,12.0682,2.02832,0,0,0,0,0,0,0,-1,1777,673,12.0683,-2.02831
560,351,12.0173,0.55304,0,0,0,0,0,0,0,-1,1784,673,12.0174,-0.553028
567,351,10.7827,0.130188,0,0,0,0,0,0,0,-1,1791,673,10.7827,-0.130183
574,351,13.405,-1.09204,0,0,0,0,0,0,0,-1,1798,673,13.405,1.09207
581,351,15.2351,-3.06049,0,0,0,0,0,0,0,-1,1805,673,15.2351,3.06046
588,351,29.9419,-10.5057,0,0,0,0,0,0,0,-1,1812,673,29.9419,10.5057
595,351,31.2231,-10.0294,0,0,0,0,0,0,0,-1,1819,673,31.2232,10.0294
602,351,31.1741,-9.31653,0.000746757,5.63991e-05,-0.000128789,0.000770001,3.31556e-05,-0.178556,0.000502647,0.0186657,1826,673,31.1741,9.3165
609,351,31.1636,-8.55469,0.0012282,0.000263605,0.000190537,0.00126447,0.000227332,0.188121,0.000778352,0.0181329,1833,673,31.1636,8.5547
616,351,31.1283,-7.78888,0.00166825,0.000559106,0.000548403,0.00189361,0.000333744,0.389904,0.00116717,0.0156141,1840,673,31.1283,7.78891
623,351,31.1167,-7.05634,0.00210697,0.000964,0.000969246,0.00266067,0.000410305,0.519022,0.00165406,0.0149779,1847,673,31.1168,7.05631
630,351,31.0817,-6.31439,0.00252416,0.00147773,0.00144997,0.00354243,0.000459471,0.612246,0.00222434,0.0236705,1854,673,31.0817,6.3144
637,351,31.0504,-5.52704,0.00289146,0.00202871,0.00192732,0.00443509,0.000485075,0.675302,0.00280903,0.0303346,1861,673,31.0505,5.52704
644,351,30.9888,-4.76678,0.0032053,0.00268097,0.00243435,0.00539156,0.000494712,0.731758,0.00344134,0.0232063,1868,673,30.9887,4.76677
651,351,30.9689,-3.95441,0.00347342,0.00340817,0.002968,0.00640898,0.000472615,0.779902,0.00412415,0.0181288,1875,673,30.9689,3.95444
658,351,30.9031,-3.172,0.00367493,0.00423812,0.0034356,0.00740364,0.000509404,0.826289,0.00477503,0.0413577,1882,673,30.903,3.17202
665,351,30.599,-2.29865,0,0,0,0,0,0,0,-1,1889,673,30.599,2.29864
672,351,27.876,-1.51941,0,0,0,0,0,0,0,-1,1896,673,27.8759,1.51941
679,351,14.1252,1.85681,0,0,0,0,0,0,0,-1,1903,673,14.1253,-1.85682
686,351,13.0294,2.1189,0,0,0,0,0,0,0,-1,1910,673,13.0294,-2.11892
693,351,13.5187,2.34595,0,0,0,0,0,0,0,-1,1917,673,13.5187,-2.34596
700,351,14.5629,-2.40173,0,0,0,0,0,0,0,-1,1924,673,14.5629,2.40172
707,351,0,0,0,0,0,0,0,0,0,-1,1931,673,0,0
714,351,0,0,0,0,0,0,0,0,0,-1,1938,673,0,0
721,351,0,0,0,0,0,0,0,0,0,-1,1945,673,0,0
728,351,0,0,0,0,0,0,0,0,0,-1,1952,673,0,0
735,351,0,0,0,0,0,0,0,0,0,-1,1959,673,0,0
742,351,0,0,0,0,0,0,0,0,0,-1,1966,673,0,0
749,351,0,0,0,0,0,0,0,0,0,-1,1973,673,0,0
756,351,0,0,0,0,0,0,0,0,0,-1,1980,673,0,0
763,351,0,0,0,0,0,0,0,0,0,-1,1987,673,0,0
770,351,0,0,0,0,0,0,0,0,0,-1,1994,673,0,0
777,351,0,0,0,0,0,0,0,0,0,-1,2001,673,0,0
784,351,0,0,0,0,0,0,0,0,0,-1,2008,673,0,0
791,351,0,0,0,0,0,0,0,0,0,-1,2015,673,0,0
798,351,0,0,0,0,0,0,0,0,0,-1,2022,673,0,0
805,351,0,0,0,0,0,0,0,0,0,-1,2029,673,0,0
812,351,0,0,0,0,0,0,0,0,0,-1,2036,673,0,0
-700,344,0,0,0,0,0,0,0,0,0,-1,524,680,0,0
-693,344,0,0,0,0,0,0,0,0,0,-1,531,680,0,0
-686,344,0,0,0,0,0,0,0,0,0,-1,538,680,0,0
-679,344,0,0,0,0,0,0,0,0,0,-1,545,680,0,0
-672,344,0,0,0,0,0,0,0,0,0,-1,552,680,0,0
-665,344,0,0,0,0,0,0,0,0,0,-1,559,680,0,0
-658,344,0,0,0,0,0,0,0,0,0,-1,566,680,0,0
-651,344,0,0,0,0,0,0,0,0,0,-1,573,680,0,0
-644,344,0,0,0,0,0,0,0,0,0,-1,580,680,0,0
-637,344,0,0,0,0,0,0,0,0,0,-1,587,680,0,0
-630,344,0,0,0,0,0,0,0,0,0,-1,594,680,0,0
-623,344,0,0,0,0,0,0,0,0,0,-1,601,680,0,0
-616,344,0,0,0,0,0,0,0,0,0,-1,608,680,0,0
-609,344,0,0,0,0,0,0,0,0,0,-1,615,680,0,0
-602,344,0,0,0,0,0,0,0,0,0,-1,622,680,0,0
-595,344,0,0,0,0,0,0,0,0,0,-1,629,680,0,0
-588,344,-9.27826,1.47302,0,0,0,0,0,0,0,-1,636,680,-9.27829,-1.473
-581,344,-10.0098,1.71753,0,0,0,0,0,0,0,-1,643,680,-10.0098,-1.7175
-574,344,-10.2208,3.04871,0,0,0,0,0,0,0,-1,650,680,-10.2208,-3.04869
-567,344,-14.3779,2.29016,0,0,0,0,0,0,0,-1,657,680,-14.3779,-2.29014
-560,344,-14.1238,1.8374,0,0,0,0,0,0,0,-1,664,680,-14.1238,-1.83743
-553,344,-14.7884,2.00116,0,0,0,0,0,0,0,-1,671,680,-14.7884,-2.00115
-546,344,-17.4192,0.157654,0,0,0,0,0,0,0,-1,678,680,-17.4192,-0.157635
-539,344,-17.2671,-2.75714,0,0,0,0,0,0,0,-1,685,680,-17.2671,2.75712
-532,344,-18.4417,-4.38605,0,0,0,0,0,0,0,-1,692,680,-18.4417,4.38603
-525,344,-18.8522,-5.45551,0,0,0,0,0,0,0,-1,699,680,-18.8522,5.45548
-518,344,-18.8484,-6.14398,0.003374,0.00107934,-0.000770793,0.00360887,0.000844463,-0.295779,0.00217966,0.0215173,706,680,-18.8484,6.14398
-511,344,-18.8662,-6.85144,0.00263133,0.000619205,-0.000506857,0.00275179,0.000498739,-0.233343,0.00169295,0.0182305,713,680,-18.8662,6.85145
-504,344,-18.8741,-7.61835,0.00207833,0.000239255,-0.000317345,0.00213155,0.000186035,-0.166157,0.00136326,0.0182054,720,680,-18.8741,7.61837
-497,344,-18.9069,-8.36987,0.00176645,-5.21629e-06,-0.000242765,0.00179912,-3.78794e-05,-0.133743,0.00121223,0.0158953,727,680,-18.9068,8.36987
-490,344,-18.9536,-9.08459,0.00158455,-0.000117176,-0.000303334,0.00163701,-0.000169629,-0.171227,0.00115205,0.0150292,734,680,-18.9536,9.08461
-483,344,-18.9802,-9.77576,0.00165812,-9.9099e-05,-0.000485113,0.00178315,-0.000224128,-0.252241,0.00127008,0.0148409,741,680,-18.9802,9.77576
-476,344,-19.0177,-10.5012,0.00193013,6.0323e-05,-0.00086118,0.00226631,-0.000275866,-0.372188,0.00161073,0.014537,748,680,-19.0177,10.5012
-469,344,-19.0041,-11.265,0.00240962,0.00038094,-0.00145357,0.00316778,-0.00037722,-0.480766,0.00224817,0.0212274,755,680,-19.0041,11.265
-462,344,-18.9218,-12.0626,0,0,0,0,0,0,0,-1,762,680,-18.9218,12.0626
-455,344,-12.1653,-7.99176,0,0,0,0,0,0,0,-1,769,680,-12.1653,7.99174
-448,344,-5.67657,-2.72864,0,0,0,0,0,0,0,-1,776,680,-5.6766,2.72863
-441,344,-5.09229,-2.34167,0,0,0,0,0,0,0,-1,783,680,-5.09229,2.34168
-434,344,-4.28778,-2.08807,0,0,0,0,0,0,0,-1,790,680,-4.28778,2.08809
-427,344,-3.06506,-1.45404,0,0,0,0,0,0,0,-1,797,680,-3.06505,1.45402
-420,344,-1.96582,-1.57574,0,0,0,0,0,0,0,-1,804,680,-1.96579,1.57574
-413,344,-0.817993,-1.4751,0,0,0,0,0,0,0,-1,811,680,-0.818017,1.47511
-406,344,-0.00714111,-1.25189,0,0,0,0,0,0,0,-1,818,680,-0.00714956,1.25191
-399,344,0.240051,-1.75769,0,0,0,0,0,0,0,-1,825,680,0.240079,1.75767
-392,344,1.11353,-2.05615,0,0,0,0,0,0,0,-1,832,680,1.11351,2.05616
-385,344,0,0,0,0,0,0,0,0,0,-1,839,680,0,0
-378,344,0,0,0,0,0,0,0,0,0,-1,846,680,0,0
-371,344,0,0,0,0,0,0,0,0,0,-1,853,680,0,0
-364,344,0,0,0,0,0,0,0,0,0,-1,860,680,0,0
-357,344,0,0,0,0,0,0,0,0,0,-1,867,680,0,0
-350,344,0,0,0,0,0,0,0,0,0,-1,874,680,0,0
-343,344,0,0,0,0,0,0,0,0,0,-1,881,680,0,0
-336,344,0,0,0,0,0,0,0,0,0,-1,888,680,0,0
-329,344,0,0,0,0,0,0,0,0,0,-1,895,680,0,0
-322,344,0,0,0,0,0,0,0,0,0,-1,902,680,0,0
-315,344,0,0,0,0,0,0,0,0,0,-1,909,680,0,0
-308,344,0,0,0,0,0,0,0,0,0,-1,916,680,0,0
-301,344,0,0,0,0,0,0,0,0,0,-1,923,680,0,0
-294,344,0,0,0,0,0,0,0,0,0,-1,930,680,0,0
-287,344,0,0,0,0,0,0,0,0,0,-1,937,680,0,0
-280,344,0,0,0,0,0,0,0,0,0,-1,944,680,0,0
-273,344,0,0,0,0,0,0,0,0,0,-1,951,680,0,0
-266,344,0,0,0,0,0,0,0,0,0,-1,958,680,0,0
-259,344,0,0,0,0,0,0,0,0,0,-1,965,680,0,0
-252,344,0,0,0,0,0,0,0,0,0,-1,972,680,0,0
-245,344,0,0,0,0,0,0,0,0,0,-1,979,680,0,0
-238,344,0,0,0,0,0,0,0,0,0,-1,986,680,0,0
-231,344,0,0,0,0,0,0,0,0,0,-1,993,680,0,0
-224,344,0,0,0,0,0,0,0,0,0,-1,1000,680,0,0
-217,344,0,0,0,0,0,0,0,0,0,-1,1007,680,0,0
-210,344,0,0,0,0,0,0,0,0,0,-1,1014,680,0,0
-203,344,0,0,0,0,0,0,0,0,0,-1,1021,680,0,0
-196,344,0,0,0,0,0,0,0,0,0,-1,1028,680,0,0
-189,344,0,0,0,0,0,0,0,0,0,-1,1035,680,0,0
-182,344,0,0,0,0,0,0,0,0,0,-1,1042,680,0,0
-175,344,0,0,0,0,0,0,0,0,0,-1,1049,680,0,0
-168,344,0,0,0,0,0,0,0,0,0,-1,1056,680,0,0
-161,344,0,0,0,0,0,0,0,0,0,-1,1063,680,0,0
-154,344,0,0,0,0,0,0,0,0,0,-1,1070,680,0,0
-147,344,0,0,0,0,0,0,0,0,0,-1,1077,680,0,0
-140,344,0,0,0,0,0,0,0,0,0,-1,1084,680,0,0
-133,344,0,0,0,0,0,0,0,0,0,-1,1091,680,0,0
-126,344,0,0,0,0,0,0,0,0,0,-1,1098,680,0,0
-119,344,0,0,0,0,0,0,0,0,0,-1,1105,680,0,0
-112,344,0,0,0,0,0,0,0,0,0,-1,1112,680,0,0
-105,344,0,0,0,0,0,0,0,0,0,-1,1119,680,0,0
-98,344,0,0,0,0,0,0,0,0,0,-1,1126,680,0,0
-91,344,0,0,0,0,0,0,0,0,0,-1,1133,680,0,0
-84,344,0,0,0,0,0,0,0,0,0,-1,1140,680,0,0
-77,344,0,0,0,0,0,0,0,0,0,-1,1147,680,0,0
-70,344,0,0,0,0,0,0,0,0,0,-1,1154,680,0,0
-63,344,0,0,0,0,0,0,0,0,0,-1,1161,680,0,0
-56,344,0,0,0,0,0,0,0,0,0,-1,1168,680,0,0
-49,344,0,0,0,0,0,0,0,0,0,-1,1175,680,0,0
-42,344,0,0,0,0,0,0,0,0,0,-1,1182,680,0,0
-35,344,0,0,0,0,0,0,0,0,0,-1,1189,680,0,0
-28,344,0,0,0,0,0,0,0,0,0,-1,1196,680,0,0
-21,344,0,0,0,0,0,0,0,0,0,-1,1203,680,0,0
-14,344,0,0,0,0,0,0,0,0,0,-1,1210,680,0,0
-7,344,0,0,0,0,0,0,0,0,0,-1,1217,680,0,0
0,344,0,0,0,0,0,0,0,0,0,-1,1224,680,0,0
7,344,0,0,0,0,0,0,0,0,0,-1,1231,680,0,0
14,344,0,0,0,0,0,0,0,0,0,-1,1238,680,0,0
21,344,0,0,0,0,0,0,0,0,0,-1,1245,680,0,0
28,344,0,0,0,0,0,0,0,0,0,-1,1252,680,0,0
35,344,0,0,0,0,0,0,0,0,0,-1,1259,680,0,0
42,344,0,0,0,0,0,0,0,0,0,-1,1266,680,0,0
49,344,0,0,0,0,0,0,0,0,0,-1,1273,680,0,0
56,344,0,0,0,0,0,0,0,0,0,-1,1280,680,0,0
63,344,0,0,0,0,0,0,0,0,0,-1,1287,680,0,0
70,344,0,0,0,0,0,0,0,0,0,-1,1294,680,0,0
77,344,0,0,0,0,0,0,0,0,0,-1,1301,680,0,0
84,344,0,0,0,0,0,0,0,0,0,-1,1308,680,0,0
91,344,0,0,0,0,0,0,0,0,0,-1,1315,680,0,0
98,344,0,0,0,0,0,0,0,0,0,-1,1322,680,0,0
105,344,0,0,0,0,0,0,0,0,0,-1,1329,680,0,0
112,344,0,0,0,0,0,0,0,0,0,-1,1336,680,0,0
119,344,0,0,0,0,0,0,0,0,0,-1,1343,680,0,0
126,344,0,0,0,0,0,0,0,0,0,-1,1350,680,0,0
133,344,0,0,0,0,0,0,0,0,0,-1,1357,680,0,0
140,344,0,0,0,0,0,0,0,0,0,-1,1364,680,0,0
147,344,0,0,0,0,0,0,0,0,0,-1,1371,680,0,0
154,344,0,0,0,0,0,0,0,0,0,-1,1378,680,0,0
161,344,0,0,0,0,0,0,0,0,0,-1,1385,680,0,0
168,344,0,0,0,0,0,0,0,0,0,-1,1392,680,0,0
175,344,0,0,0,0,0,0,0,0,0,-1,1399,680,0,0
182,344,0,0,0,0,0,0,0,0,0,-1,1406,680,0,0
189,344,0,0,0,0,0,0,0,0,0,-1,1413,680,0,0
196,344,0,0,0,0,0,0,0,0,0,-1,1420,680,0,0
203,344,0,0,0,0,0,0,0,0,0,-1,1427,680,0,0
210,344,0,0,0,0,0,0,0,0,0,-1,1434,680,0,0
217,344,0,0,0,0,0,0,0,0,0,-1,1441,680,0,0
224,344,0,0,0,0,0,0,0,0,0,-1,1448,680,0,0
231,344,0,0,0,0,0,0,0,0,0,-1,1455,680,0,0
238,344,0,0,0,0,0,0,0,0,0,-1,1462,680,0,0
245,344,0,0,0,0,0,0,0,0,0,-1,1469,680,0,0
252,344,0,0,0,0,0,0,0,0,0,-1,1476,680,0,0
259,344,0,0,0,0,0,0,0,0,0,-1,1483,680,0,0
266,344,0,0,0,0,0,0,0,0,0,-1,1490,680,0,0
273,344,0,0,0,0,0,0,0,0,0,-1,1497,680,0,0
280,344,0,0,0,0,0,0,0,0,0,-1,1504,680,0,0
287,344,0,0,0,0,0,0,0,0,0,-1,1511,680,0,0
294,344,0,0,0,0,0,0,0,0,0,-1,1518,680,0,0
301,344,0,0,0,0,0,0,0,0,0,-1,1525,680,0,0
308,344,0,0,0,0,0,0,0,0,0,-1,1532,680,0,0
315,344,0,0,0,0,0,0,0,0,0,-1,1539,680,0,0
322,344,0,0,0,0,0,0,0,0,0,-1,1546,680,0,0
329,344,0,0,0,0,0,0,0,0,0,-1,1553,680,0,0
336,344,0,0,0,0,0,0,0,0,0,-1,1560,680,0,0
343,344,0,0,0,0,0,0,0,0,0,-1,1567,680,0,0
350,344,0,0,0,0,0,0,0,0,0,-1,1574,680,0,0
357,344,0,0,0,0,0,0,0,0,0,-1,1581,680,0,0
364,344,0,0,0,0,0,0,0,0,0,-1,1588,680,0,0
371,344,0,0,0,0,0,0,0,0,0,-1,1595,680,0,0
378,344,0,0,0,0,0,0,0,0,0,-1,1602,680,0,0
385,344,0,0,0,0,0,0,0,0,0,-1,1609,680,0,0
392,344,0,0,0,0,0,0,0,0,0,-1,1616,680,0,0
399,344,0,0,0,0,0,0,0,0,0,-1,1623,680,0,0
406,344,0,0,0,0,0,0,0,0,0,-1,1630,680,0,0
413,344,0,0,0,0,0,0,0,0,0,-1,1637,680,0,0
420,344,0,0,0,0,0,0,0,0,0,-1,1644,680,0,0
427,344,0,0,0,0,0,0,0,0,0,-1,1651,680,0,0
434,344,0,0,0,0,0,0,0,0,0,-1,1658,680,0,0
441,344,0,0,0,0,0,0,0,0,0,-1,1665,680,0,0
448,344,0,0,0,0,0,0,0,0,0,-1,1672,680,0,0
455,344,0,0,0,0,0,0,0,0,0,-1,1679,680,0,0
462,344,0,0,0,0,0,0,0,0,0,-1,1686,680,0,0
469,344,0,0,0,0,0,0,0,0,0,-1,1693,680,0,0
476,344,0,0,0,0,0,0,0,0,0,-1,1700,680,0,0
483,344,0,0,0,0,0,0,0,0,0,-1,1707,680,0,0
490,344,0,0,0,0,0,0,0,0,0,-1,1714,680,0,0
497,344,0,0,0,0,0,0,0,0,0,-1,1721,680,0,0
504,344,0,0,0,0,0,0,0,0,0,-1,1728,680,0,0
511,344,15.4819,0.452637,0,0,0,0,0,0,0,-1,1735,680,15.4819,-0.452656
518,344,17.1357,2.31207,0,0,0,0,0,0,0,-1,1742,680,17.1358,-2.31207
525,344,31.5201,2.6217,0,0,0,0,0,0,0,-1,1749,680,31.5201,-2.62168
532,344,31.9766,2.61047,0,0,0,0,0,0,0,-1,1756,680,31.9765,-2.6105
539,344,32.4379,2.65314,0,0,0,0,0,0,0,-1,1763,680,32.4378,-2.65316
546,344,14.6722,4.30243,0,0,0,0,0,0,0,-1,1770,680,14.6722,-4.30241
553,344,14.8136,4.35681,0,0,0,0,0,0,0,-1,1777,680,14.8136,-4.35679
560,344,11.9363,2.14185,0,0,0,0,0,0,0,-1,1784,680,11.9362,-2.14182
567,344,11.397,0.925842,0,0,0,0,0,0,0,-1,1791,680,11.397,-0.92583
574,344,10.0004,0.504639,0,0,0,0,0,0,0,-1,1798,680,10.0004,-0.504645
581,344,13.6709,-0.969604,0,0,0,0,0,0,0,-1,1805,680,13.6709,0.969629
588,344,16.1447,-3.15948,0,0,0,0,0,0,0,-1,1812,680,16.1447,3.15946
595,344,31.8729,-10.1584,0,0,0,0,0,0,0,-1,1819,680,31.8729,10.1584
602,344,32.0061,-9.27618,0.000673396,-0.000152708,-0.000303103,0.000772676,-0.000251987,-0.316531,0.000616524,0.0387513,1826,680,32.0061,9.27616
609,344,31.9355,-8.5304,0.00119952,-3.5823e-05,-1.75755e-06,0.00119952,-3.58256e-05,-0.00142272,0.000811885,0.0165916,1833,680,31.9356,8.5304
616,344,31.8724,-7.73865,0.00158362,0.000166779,0.000322808,0.0016537,9.66984e-05,0.213781,0.00107169,0.0228271,1840,680,31.8725,7.73866
623,344,31.8839,-7.00751,0.00188897,0.000501228,0.000663809,0.00215536,0.00023484,0.38163,0.00136538,0.0191568,1847,680,31.8839,7.00752
630,344,31.8303,-6.2912,0.00218697,0.000952195,0.0010736,0.00280805,0.000331121,0.524457,0.001772,0.024489,1854,680,31.8303,6.29122
637,344,31.8101,-5.53961,0.00244975,0.00145524,0.00148242,0.00351609,0.0003889,0.623578,0.00222578,0.0259067,1861,680,31.8101,5.53958
644,344,31.7505,-4.74274,0.00267586,0.00202505,0.00190486,0.00428291,0.000418008,0.7008,0.00272664,0.0183924,1868,680,31.7505,4.74276
651,344,31.7068,-3.95715,0.00289403,0.00271692,0.00236378,0.00517091,0.000440033,0.766675,0.00331036,0.0121568,1875,680,31.7067,3.95716
658,344,31.7029,-3.13812,0.00309699,0.00350749,0.00279419,0.00610396,0.00050052,0.822061,0.00391315,0.02602,1882,680,31.7029,3.13814
665,344,31.5334,-2.38721,0.00353088,0.00437914,0.00341176,0.00739303,0.000516983,0.847238,0.00476571,0.0413128,1889,680,31.5335,2.3872
672,344,31.5342,-1.68597,0,0,0,0,0,0,0,-1,1896,680,31.5342,1.68598
679,344,31.3612,-1.75824,0,0,0,0,0,0,0,-1,1903,680,31.3613,1.75822
686,344,15.024,1.82709,0,0,0,0,0,0,0,-1,1910,680,15.024,-1.82706
693,344,12.4362,-1.42346,0,0,0,0,0,0,0,-1,1917,680,12.4361,1.42348
700,344,17.5396,2.61206,0,0,0,0,0,0,0,-1,1924,680,17.5396,-2.61204
707,344,18.5829,3.29352,0,0,0,0,0,0,0,-1,1931,680,18.5828,-3.2935
714,344,0,0,0,0,0,0,0,0,0,-1,1938,680,0,0
721,344,0,0,0,0,0,0,0,0,0,-1,1945,680,0,0
728,344,0,0,0,0,0,0,0,0,0,-1,1952,680,0,0
735,344,0,0,0,0,0,0,0,0,0,-1,1959,680,0,0
742,344,0,0,0,0,0,0,0,0,0,-1,1966,680,0,0
749,344,0,0,0,0,0,0,0,0,0,-1,1973,680,0,0
756,344,0,0,0,0,0,0,0,0,0,-1,1980,680,0,0
763,344,0,0,0,0,0,0,0,0,0,-1,1987,680,0,0
770,344,0,0,0,0,0,0,0,0,0,-1,1994,680,0,0
777,344,0,0,0,0,0,0,0,0,0,-1,2001,680,0,0
784,344,0,0,0,0,0,0,0,0,0,-1,2008,680,0,0
791,344,0,0,0,0,0,0,0,0,0,-1,2015,680,0,0
798,344,0,0,0,0,0,0,0,0,0,-1,2022,680,0,0
805,344,0,0,0,0,0,0,0,0,0,-1,2029,680,0,0
812,344,0,0,0,0,0,0,0,0,0,-1,2036,680,0,0
-700,337,0,0,0,0,0,0,0,0,0,-1,524,687,0,0
-693,337,0,0,0,0,0,0,0,0,0,-1,531,687,0,0
-686,337,0,0,0,0,0,0,0,0,0,-1,538,687,0,0
-679,337,0,0,0,0,0,0,0,0,0,-1,545,687,0,0
-672,337,0,0,0,0,0,0,0,0,0,-1,552,687,0,0
-665,337,0,0,0,0,0,0,0,0,0,-1,559,687,0,0
-658,337,0,0,0,0,0,0,0,0,0,-1,566,687,0,0
-651,337,0,0,0,0,0,0,0,0,0,-1,573,687,0,0
-644,337,0,0,0,0,0,0,0,0,0,-1,580,687,0,0
-637,337,0,0,0,0,0,0,0,0,0,-1,587,687,0,0
-630,337,0,0,0,0,0,0,0,0,0,-1,594,687,0,0
-623,337,0,0,0,0,0,0,0,0,0,-1,601,687,0,0
-616,337,0,0,0,0,0,0,0,0,0,-1,608,687,0,0
-609,337,0,0,0,0,0,0,0,0,0,-1,615,687,0,0
-602,337,0,0,0,0,0,0,0,0,0,-1,622,687,0,0
-595,337,0,0,0,0,0,0,0,0,0,-1,629,687,0,0
-588,337,-10.8413,1.27863,0,0,0,0,0,0,0,-1,636,687,-10.8413,-1.27861
-581,337,-11.2157,1.31567,0,0,0,0,0,0,0,-1,643,687,-11.2157,-1.3157
-574,337,-6.03339,2.0321,0,0,0,0,0,0,0,-1,650,687,-6.03337,-2.03213
-567,337,-13.8102,1.56787,0,0,0,0,0,0,0,-1,657,687,-13.8102,-1.56789
-560,337,-15.5435,2.34247,0,0,0,0,0,0,0,-1,664,687,-15.5435,-2.34247
-553,337,-18.0128,1.12927,0,0,0,0,0,0,0,-1,671,687,-18.0128,-1.12926
-546,337,-18.0244,-2.03845,0,0,0,0,0,0,0,-1,678,687,-18.0244,2.03846
-539,337,-19.2426,-3.53815,0,0,0,0,0,0,0,-1,685,687,-19.2426,3.53813
-532,337,-19.5693,-4.62616,0,0,0,0,0,0,0,-1,692,687,-19.5693,4.62619
-525,337,-19.5768,-5.37695,0.00388351,0.00135189,-0.000971569,0.00421339,0.00102201,-0.327318,0.00253781,0.0182929,699,687,-19.5768,5.37695
-518,337,-19.5744,-6.14355,0.00303635,0.00078091,-0.000642641,0.0032066,0.000610655,-0.258981,0.00196605,0.0240657,706,687,-19.5744,6.14354
-511,337,-19.6262,-6.86945,0.0023935,0.000325623,-0.00035335,0.00245221,0.000266911,-0.164654,0.0015535,0.0253652,713,687,-19.6262,6.86942
-504,337,-19.631,-7.62671,0.00187007,-4.46452e-05,-0.000108862,0.00187624,-5.08148e-05,-0.0566126,0.0012681,0.0243539,720,687,-19.631,7.62674
-497,337,-19.6379,-8.34094,0.00157031,-0.000240551,-5.26394e-06,0.00157032,-0.000240566,-0.00290685,0.00113559,0.0173911,727,687,-19.6379,8.34094
-490,337,-19.6935,-9.0531,0.00142329,-0.000311317,-2.79201e-05,0.00142374,-0.000311766,-0.0160904,0.00106835,0.0156862,734,687,-19.6935,9.05312
-483,337,-19.7175,-9.78107,0.00152845,-0.000212425,-0.000215662,0.00155477,-0.000238744,-0.121436,0.00112457,0.0151797,741,687,-19.7176,9.78108
-476,337,-19.7282,-10.5371,0.00182699,5.07619e-05,-0.000674473,0.00205407,-0.00017632,-0.32476,0.00143178,0.0166212,748,687,-19.7282,10.5371
-469,337,-19.7504,-11.2925,0,0,0,0,0,0,0,-1,755,687,-19.7504,11.2926
-462,337,-14.186,-8.89264,0,0,0,0,0,0,0,-1,762,687,-14.186,8.89266
-455,337,-6.00574,-3.12933,0,0,0,0,0,0,0,-1,769,687,-6.00576,3.12934
-448,337,-5.30627,-2.07202,0,0,0,0,0,0,0,-1,776,687,-5.30628,2.07205
-441,337,-4.24762,-1.49597,0,0,0,0,0,0,0,-1,783,687,-4.24762,1.49598
-434,337,-6.86908,1.37531,0,0,0,0,0,0,0,-1,790,687,-6.86908,-1.3753
-427,337,-9.92004,2.487,0,0,0,0,0,0,0,-1,797,687,-9.92002,-2.48701
-420,337,-2.95996,-1.76697,0,0,0,0,0,0,0,-1,804,687,-2.95998,1.76696
-413,337,-1.29169,-1.99487,0,0,0,0,0,0,0,-1,811,687,-1.29171,1.9949
-406,337,-1.02356,-1.89563,0,0,0,0,0,0,0,-1,818,687,-1.02357,1.89564
-399,337,-0.472839,-2.21338,0,0,0,0,0,0,0,-1,825,687,-0.472837,2.2134
-392,337,0,0,0,0,0,0,0,0,0,-1,832,687,0,0
-385,337,0,0,0,0,0,0,0,0,0,-1,839,687,0,0
-378,337,0,0,0,0,0,0,0,0,0,-1,846,687,0,0
-371,337,0,0,0,0,0,0,0,0,0,-1,853,687,0,0
-364,337,0,0,0,0,0,0,0,0,0,-1,860,687,0,0
-357,337,0,0,0,0,0,0,0,0,0,-1,867,687,0,0
-350,337,0,0,0,0,0,0,0,0,0,-1,874,687,0,0
-343,337,0,0,0,0,0,0,0,0,0,-1,881,687,0,0
-336,337,0,0,0,0,0,0,0,0,0,-1,888,687,0,0
-329,337,0,0,0,0,0,0,0,0,0,-1,895,687,0,0
-322,337,0,0,0,0,0,0,0,0,0,-1,902,687,0,0
-315,337,0,0,0,0,0,0,0,0,0,-1,909,687,0,0
-308,337,0,0,0,0,0,0,0,0,0,-1,916,687,0,0
-301,337,0,0,0,0,0,0,0,0,0,-1,923,687,0,0
-294,337,0,0,0,0,0,0,0,0,0,-1,930,687,0,0
-287,337,0,0,0,0,0,0,0,0,0,-1,937,687,0,0
-280,337,0,0,0,0,0,0,0,0,0,-1,944,687,0,0
-273,337,0,0,0,0,0,0,0,0,0,-1,951,687,0,0
-266,337,0,0,0,0,0,0,0,0,0,-1,958,687,0,0
-259,337,0,0,0,0,0,0,0,0,0,-1,965,687,0,0
-252,337,0,0,0,0,0,0,0,0,0,-1,972,687,0,0
-245,337,0,0,0,0,0,0,0,0,0,-1,979,687,0,0
-238,337,0,0,0,0,0,0,0,0,0,-1,986,687,0,0
-231,337,0,0,0,0,0,0,0,0,0,-1,993,687,0,0
-224,337,0,0,0,0,0,0,0,0,0,-1,1000,687,0,0
-217,337,0,0,0,0,0,0,0,0,0,-1,1007,687,0,0
-210,337,0,0,0,0,0,0,0,0,0,-1,1014,687,0,0
-203,337,0,0,0,0,0,0,0,0,0,-1,1021,687,0,0
-196,337,0,0,0,0,0,0,0,0,0,-1,1028,687,0,0
-189,337,0,0,0,0,0,0,0,0,0,-1,1035,687,0,0
-182,337,0,0,0,0,0,0,0,0,0,-1,1042,687,0,0
-175,337,0,0,0,0,0,0,0,0,0,-1,1049,687,0,0
-168,337,0,0,0,0,0,0,0,0,0,-1,1056,687,0,0
-161,337,0,0,0,0,0,0,0,0,0,-1,1063,687,0,0
-154,337,0,0,0,0,0,0,0,0,0,-1,1070,687,0,0
-147,337,0,0,0,0,0,0,0,0,0,-1,1077,687,0,0
-140,337,0,0,0,0,0,0,0,0,0,-1,1084,687,0,0
-133,337,0,0,0,0,0,0,0,0,0,-1,1091,687,0,0
-126,337,0,0,0,0,0,0,0,0,0,-1,1098,687,0,0
-119,337,0,0,0,0,0,0,0,0,0,-1,1105,687,0,0
-112,337,0,0,0,0,0,0,0,0,0,-1,1112,687,0,0
-105,337,0,0,0,0,0,0,0,0,0,-1,1119,687,0,0
-98,337,0,0,0,0,0,0,0,0,0,-1,1126,687,0,0
-91,337,0,0,0,0,0,0,0,0,0,-1,1133,687,0,0
-84,337,0,0,0,0,0,0,0,0,0,-1,1140,687,0,0
-77,337,0,0,0,0,0,0,0,0,0,-1,1147,687,0,0
-70,337,0,0,0,0,0,0,0,0,0,-1,1154,687,0,0
-63,337,0,0,0,0,0,0,0,0,0,-1,1161,687,0,0
-56,337,0,0,0,0,0,0,0,0,0,-1,1168,687,0,0
-49,337,0,0,0,0,0,0,0,0,0,-1,1175,687,0,0
-42,337,0,0,0,0,0,0,0,0,0,-1,1182,687,0,0
-35,337,0,0,0,0,0,0,0,0,0,-1,1189,687,0,0
-28,337,0,0,0,0,0,0,0,0,0,-1,1196,687,0,0
-21,337,0,0,0,0,0,0,0,0,0,-1,1203,687,0,0
-14,337,0,0,0,0,0,0,0,0,0,-1,1210,687,0,0
-7,337,0,0,0,0,0,0,0,0,0,-1,1217,687,0,0
0,337,0,0,0,0,0,0,0,0,0,-1,1224,687,0,0
7,337,0,0,0,0,0,0,0,0,0,-1,1231,687,0,0
14,337,0,0,0,0,0,0,0,0,0,-1,1238,687,0,0
21,337,0,0,0,0,0,0,0,0,0,-1,1245,687,0,0
28,337,0,0,0,0,0,0,0,0,0,-1,1252,687,0,0
35,337,0,0,0,0,0,0,0,0,0,-1,1259,687,0,0
42,337,0,0,0,0,0,0,0,0,0,-1,1266,687,0,0
49,337,0,0,0,0,0,0,0,0,0,-1,1273,687,0,0
56,337,0,0,0,0,0,0,0,0,0,-1,1280,687,0,0
63,337,0,0,0,0,0,0,0,0,0,-1,1287,687,0,0
70,337,0,0,0,0,0,0,0,0,0,-1,1294,687,0,0
77,337,0,0,0,0,0,0,0,0,0,-1,1301,687,0,0
84,337,0,0,0,0,0,0,0,0,0,-1,1308,687,0,0
91,337,0,0,0,0,0,0,0,0,0,-1,1315,687,0,0
98,337,0,0,0,0,0,0,0,0,0,-1,1322,687,0,0
105,337,0,0,0,0,0,0,0,0,0,-1,1329,687,0,0
112,337,0,0,0,0,0,0,0,0,0,-1,1336,687,0,0
119,337,0,0,0,0,0,0,0,0,0,-1,1343,687,0,0
126,337,0,0,0,0,0,0,0,0,0,-1,1350,687,0,0
133,337,0,0,0,0,0,0,0,0,0,-1,1357,687,0,0
140,337,0,0,0,0,0,0,0,0,0,-1,1364,687,0,0
147,337,0,0,0,0,0,0,0,0,0,-1,1371,687,0,0
154,337,0,0,0,0,0,0,0,0,0,-1,1378,687,0,0
161,337,0,0,0,0,0,0,0,0,0,-1,1385,687,0,0
168,337,0,0,0,0,0,0,0,0,0,-1,1392,687,0,0
175,337,0,0,0,0,0,0,0,0,0,-1,1399,687,0,0
182,337,0,0,0,0,0,0,0,0,0,-1,1406,687,0,0
189,337,0,0,0,0,0,0,0,0,0,-1,1413,687,0,0
196,337,0,0,0,0,0,0,0,0,0,-1,1420,687,0,0
203,337,0,0,0,0,0,0,0,0,0,-1,1427,687,0,0
210,337,0,0,0,0,0,0,0,0,0,-1,1434,687,0,0
217,337,0,0,0,0,0,0,0,0,0,-1,1441,687,0,0
224,337,0,0,0,0,0,0,0,0,0,-1,1448,687,0,0
231,337,0,0,0,0,0,0,0,0,0,-1,1455,687,0,0
238,337,0,0,0,0,0,0,0,0,0,-1,1462,687,0,0
245,337,0,0,0,0,0,0,0,0,0,-1,1469,687,0,0
252,337,0,0,0,0,0,0,0,0,0,-1,1476,687,0,0
259,337,0,0,0,0,0,0,0,0,0,-1,1483,687,0,0
266,337,0,0,0,0,0,0,0,0,0,-1,1490,687,0,0
273,337,0,0,0,0,0,0,0,0,0,-1,1497,687,0,0
280,337,0,0,0,0,0,0,0,0,0,-1,1504,687,0,0
287,337,0,0,0,0,0,0,0,0,0,-1,1511,687,0,0
294,337,0,0,0,0,0,0,0,0,0,-1,1518,687,0,0
301,337,0,0,0,0,0,0,0,0,0,-1,1525,687,0,0
308,337,0,0,0,0,0,0,0,0,0,-1,1532,687,0,0
315,337,0,0,0,0,0,0,0,0,0,-1,1539,687,0,0
322,337,0,0,0,0,0,0,0,0,0,-1,1546,687,0,0
329,337,0,0,0,0,0,0,0,0,0,-1,1553,687,0,0
336,337,0,0,0,0,0,0,0,0,0,-1,1560,687,0,0
343,337,0,0,0,0,0,0,0,0,0,-1,1567,687,0,0
350,337,0,0,0,0,0,0,0,0,0,-1,1574,687,0,0
357,337,0,0,0,0,0,0,0,0,0,-1,1581,687,0,0
364,337,0,0,0,0,0,0,0,0,0,-1,1588,687,0,0
371,337,0,0,0,0,0,0,0,0,0,-1,1595,687,0,0
378,337,0,0,0,0,0,0,0,0,0,-1,1602,687,0,0
385,337,0,0,0,0,0,0,0,0,0,-1,1609,687,0,0
392,337,0,0,0,0,0,0,0,0,0,-1,1616,687,0,0
399,337,0,0,0,0,0,0,0,0,0,-1,1623,687,0,0
406,337,0,0,0,0,0,0,0,0,0,-1,1630,687,0,0
413,337,0,0,0,0,0,0,0,0,0,-1,1637,687,0,0
420,337,0,0,0,0,0,0,0,0,0,-1,1644,687,0,0
427,337,0,0,0,0,0,0,0,0,0,-1,1651,687,0,0
434,337,0,0,0,0,0,0,0,0,0,-1,1658,687,0,0
441,337,0,0,0,0,0,0,0,0,0,-1,1665,687,0,0
448,337,0,0,0,0,0,0,0,0,0,-1,1672,687,0,0
455,337,0,0,0,0,0,0,0,0,0,-1,1679,687,0,0
462,337,0,0,0,0,0,0,0,0,0,-1,1686,687,0,0
469,337,0,0,0,0,0,0,0,0,0,-1,1693,687,0,0
476,337,0,0,0,0,0,0,0,0,0,-1,1700,687,0,0
483,337,0,0,0,0,0,0,0,0,0,-1,1707,687,0,0
490,337,0,0,0,0,0,0,0,0,0,-1,1714,687,0,0
497,337,0,0,0,0,0,0,0,0,0,-1,1721,687,0,0
504,337,0,0,0,0,0,0,0,0,0,-1,1728,687,0,0
511,337,0,0,0,0,0,0,0,0,0,-1,1735,687,0,0
518,337,18.0369,1.64581,0,0,0,0,0,0,0,-1,1742,687,18.0368,-1.64581
525,337,31.0717,2.13745,0,0,0,0,0,0,0,-1,1749,687,31.0717,-2.13747
532,337,31.5126,2.13904,0,0,0,0,0,0,0,-1,1756,687,31.5125,-2.13905
539,337,31.9684,2.15594,0,0,0,0,0,0,0,-1,1763,687,31.9684,-2.15596
546,337,32.3584,1.43719,0,0,0,0,0,0,0,-1,1770,687,32.3585,-1.43722
553,337,32.1809,1.36395,0,0,0,0,0,0,0,-1,1777,687,32.181,-1.36396
560,337,18.4053,3.62793,0,0,0,0,0,0,0,-1,1784,687,18.4052,-3.6279
567,337,11.9288,1.38776,0,0,0,0,0,0,0,-1,1791,687,11.9288,-1.38777
574,337,10.704,1.19476,0,0,0,0,0,0,0,-1,1798,687,10.704,-1.19478
581,337,8.50427,0.561768,0,0,0,0,0,0,0,-1,1805,687,8.5043,-0.561754
588,337,8.5885,-0.0536499,0,0,0,0,0,0,0,-1,1812,687,8.58844,0.0536788
595,337,13.8816,-1.70703,0,0,0,0,0,0,0,-1,1819,687,13.8816,1.70702
602,337,32.6957,-9.30121,0,0,0,0,0,0,0,-1,1826,687,32.6957,9.3012
609,337,32.6869,-8.46039,0.00143105,-0.000341949,-0.00011917,0.00143902,-0.000349924,-0.0668132,0.00109479,0.0234304,1833,687,32.6869,8.46038
616,337,32.6221,-7.67871,0.00169731,-0.000202657,0.00018568,0.00171528,-0.000220633,0.0965117,0.00122371,0.0174684,1840,687,32.6221,7.6787
623,337,32.6036,-6.96985,0.00182724,8.52056e-05,0.000447336,0.0019354,-2.29504e-05,0.237226,0.00129798,0.015593,1847,687,32.6036,6.96988
630,337,32.5754,-6.22736,0.00197691,0.000485944,0.000784296,0.00231349,0.000149361,0.405383,0.00149503,0.0198637,1854,687,32.5754,6.22733
637,337,32.5591,-5.46613,0.00211318,0.000955245,0.00113109,0.00280487,0.000263553,0.548851,0.00178855,0.0186737,1861,687,32.5591,5.46615
644,337,32.5184,-4.67267,0.00224702,0.00149153,0.00150011,0.00341622,0.000322334,0.662057,0.002178,0.0123343,1868,687,32.5184,4.67268
651,337,32.4579,-3.91254,0.00240554,0.00216439,0.00191438,0.00420314,0.000366793,0.753948,0.00268818,0.0108893,1875,687,32.4579,3.91255
658,337,32.4526,-3.16937,0.00259526,0.00293477,0.00234081,0.00511197,0.000418056,0.821594,0.00327753,0.0131506,1882,687,32.4527,3.16939
665,337,32.45,-2.41229,0.00300553,0.00381412,0.00292759,0.0063652,0.000454447,0.854013,0.00410039,0.0168624,1889,687,32.45,2.41232
672,337,32.4872,-1.62482,0,0,0,0,0,0,0,-1,1896,687,32.4872,1.62483
679,337,31.7838,-0.84668,0,0,0,0,0,0,0,-1,1903,687,31.7839,0.846682
686,337,18.5614,1.68597,0,0,0,0,0,0,0,-1,1910,687,18.5614,-1.68598
693,337,16.5415,2.21411,0,0,0,0,0,0,0,-1,1917,687,16.5415,-2.2141
700,337,17.2661,2.44379,0,0,0,0,0,0,0,-1,1924,687,17.2661,-2.44378
707,337,17.3544,5.61853,0,0,0,0,0,0,0,-1,1931,687,17.3543,-5.61851
714,337,0,0,0,0,0,0,0,0,0,-1,1938,687,0,0
721,337,0,0,0,0,0,0,0,0,0,-1,1945,687,0,0
728,337,0,0,0,0,0,0,0,0,0,-1,1952,687,0,0
735,337,0,0,0,0,0,0,0,0,0,-1,1959,687,0,0
742,337,0,0,0,0,0,0,0,0,0,-1,1966,687,0,0
749,337,0,0,0,0,0,0,0,0,0,-1,1973,687,0,0
756,337,0,0,0,0,0,0,0,0,0,-1,1980,687,0,0
763,337,0,0,0,0,0,0,0,0,0,-1,1987,687,0,0
770,337,0,0,0,0,0,0,0,0,0,-1,1994,687,0,0
777,337,0,0,0,0,0,0,0,0,0,-1,2001,687,0,0
784,337,0,0,0,0,0,0,0,0,0,-1,2008,687,0,0
791,337,0,0,0,0,0,0,0,0,0,-1,2015,687,0,0
798,337,0,0,0,0,0,0,0,0,0,-1,2022,687,0,0
805,337,0,0,0,0,0,0,0,0,0,-1,2029,687,0,0
812,337,0,0,0,0,0,0,0,0,0,-1,2036,687,0,0
-700,330,0,0,0,0,0,0,0,0,0,-1,524,694,0,0
-693,330,0,0,0,0,0,0,0,0,0,-1,531,694,0,0
-686,330,0,0,0,0,0,0,0,0,0,-1,538,694,0,0
-679,330,0,0,0,0,0,0,0,0,0,-1,545,694,0,0
-672,330,0,0,0,0,0,0,0,0,0,-1,552,694,0,0
-665,330,0,0,0,0,0,0,0,0,0,-1,559,694,0,0
-658,330,0,0,0,0,0,0,0,0,0,-1,566,694,0,0
-651,330,0,0,0,0,0,0,0,0,0,-1,573,694,0,0
-644,330,0,0,0,0,0,0,0,0,0,-1,580,694,0,0
-637,330,0,0,0,0,0,0,0,0,0,-1,587,694,0,0
-630,330,0,0,0,0,0,0,0,0,0,-1,594,694,0,0
-623,330,0,0,0,0,0,0,0,0,0,-1,601,694,0,0
-616,330,0,0,0,0,0,0,0,0,0,-1,608,694,0,0
-609,330,0,0,0,0,0,0,0,0,0,-1,615,694,0,0
-602,330,0,0,0,0,0,0,0,0,0,-1,622,694,0,0
-595,330,-4.67883,1.65515,0,0,0,0,0,0,0,-1,629,694,-4.67881,-1.65515
-588,330,-8.5047,2.67346,0,0,0,0,0,0,0,-1,636,694,-8.50469,-2.67348
-581,330,-12.4227,0.947083,0,0,0,0,0,0,0,-1,643,694,-12.4227,-0.947109
-574,330,-9.02118,1.87952,0,0,0,0,0,0,0,-1,650,694,-9.02115,-1.87953
-567,330,-8.35577,0.909973,0,0,0,0,0,0,0,-1,657,694,-8.35575,-0.909945
-560,330,-13.1036,-0.584656,0,0,0,0,0,0,0,-1,664,694,-13.1035,0.584658
-553,330,-17.5484,-1.21545,0,0,0,0,0,0,0,-1,671,694,-17.5484,1.21547
-546,330,-20.0392,-2.87091,0,0,0,0,0,0,0,-1,678,694,-20.0393,2.87093
-539,330,-20.3156,-3.75012,0,0,0,0,0,0,0,-1,685,694,-20.3156,3.75014
-532,330,-20.2969,-4.56543,0.0039748,0.00149809,-0.000944673,0.00429399,0.0011789,-0.325835,0.00256177,0.0214273,692,694,-20.2969,4.56542
-525,330,-20.277,-5.37,0.00323548,0.000892315,-0.00067332,0.00341518,0.000712615,-0.260808,0.00208034,0.011292,699,694,-20.277,5.36998
-518,330,-20.2891,-6.07501,0.00259803,0.000437544,-0.000385922,0.0026649,0.000370677,-0.171562,0.00166684,0.0157676,706,694,-20.2891,6.07502
-511,330,-20.3564,-6.81079,0.00207752,0.000102484,-0.00014108,0.00208754,9.24577e-05,-0.0709514,0.00136192,0.0215438,713,694,-20.3564,6.81079
-504,330,-20.3657,-7.5625,0.0016397,-0.000126181,8.72692e-05,0.001644,-0.000130483,0.0492598,0.00114198,0.0192665,720,694,-20.3657,7.56248
-497,330,-20.4149,-8.25183,0.00141757,-0.000161016,0.000166199,0.00143488,-0.000178324,0.103767,0.00102123,0.0145031,727,694,-20.4149,8.25185
-490,330,-20.4296,-9.00458,0.00139885,-7.82337e-05,0.00014372,0.00141271,-9.20877e-05,0.0960984,0.000973952,0.0151435,734,694,-20.4296,9.00459
-483,330,-20.4257,-9.76996,0.00162171,0.00021048,-6.62844e-05,0.00162482,0.000207373,-0.0468318,0.00102113,0.0147356,741,694,-20.4257,9.76997
-476,330,-20.4705,-10.5217,0,0,0,0,0,0,0,-1,748,694,-20.4704,10.5218
-469,330,-16.1478,-9.23303,0,0,0,0,0,0,0,-1,755,694,-16.1478,9.23301
-462,330,-7.26733,-3.84833,0,0,0,0,0,0,0,-1,762,694,-7.26731,3.84832
-455,330,-5.04254,-1.79303,0,0,0,0,0,0,0,-1,769,694,-5.04252,1.79305
-448,330,-4.89886,-1.66156,0,0,0,0,0,0,0,-1,776,694,-4.89886,1.66157
-441,330,-5.30676,-2.34045,0,0,0,0,0,0,0,-1,783,694,-5.30679,2.34048
-434,330,-7.20428,1.00024,0,0,0,0,0,0,0,-1,790,694,-7.20431,-1.00027
-427,330,-16.0428,2.89258,0,0,0,0,0,0,0,-1,797,694,-16.0428,-2.89259
-420,330,-29.0331,0.271606,0,0,0,0,0,0,0,-1,804,694,-29.0331,-0.27158
-413,330,-29.0896,0.56366,0,0,0,0,0,0,0,-1,811,694,-29.0896,-0.563671
-406,330,-1.65375,-1.74371,0,0,0,0,0,0,0,-1,818,694,-1.65375,1.74371
-399,330,0,0,0,0,0,0,0,0,0,-1,825,694,0,0
-392,330,0,0,0,0,0,0,0,0,0,-1,832,694,0,0
-385,330,0,0,0,0,0,0,0,0,0,-1,839,694,0,0
-378,330,0,0,0,0,0,0,0,0,0,-1,846,694,0,0
-371,330,0,0,0,0,0,0,0,0,0,-1,853,694,0,0
-364,330,0,0,0,0,0,0,0,0,0,-1,860,694,0,0
-357,330,0,0,0,0,0,0,0,0,0,-1,867,694,0,0
-350,330,0,0,0,0,0,0,0,0,0,-1,874,694,0,0
-343,330,0,0,0,0,0,0,0,0,0,-1,881,694,0,0
-336,330,0,0,0,0,0,0,0,0,0,-1,888,694,0,0
-329,330,0,0,0,0,0,0,0,0,0,-1,895,694,0,0
-322,330,0,0,0,0,0,0,0,0,0,-1,902,694,0,0
-315,330,0,0,0,0,0,0,0,0,0,-1,909,694,0,0
-308,330,0,0,0,0,0,0,0,0,0,-1,916,694,0,0
-301,330,0,0,0,0,0,0,0,0,0,-1,923,694,0,0
-294,330,0,0,0,0,0,0,0,0,0,-1,930,694,0,0
-287,330,0,0,0,0,0,0,0,0,0,-1,937,694,0,0
-280,330,0,0,0,0,0,0,0,0,0,-1,944,694,0,0
-273,330,0,0,0,0,0,0,0,0,0,-1,951,694,0,0
-266,330,0,0,0,0,0,0,0,0,0,-1,958,694,0,0
-259,330,0,0,0,0,0,0,0,0,0,-1,965,694,0,0
-252,330,0,0,0,0,0,0,0,0,0,-1,972,694,0,0
-245,330,0,0,0,0,0,0,0,0,0,-1,979,694,0,0
-238,330,0,0,0,0,0,0,0,0,0,-1,986,694,0,0
-231,330,0,0,0,0,0,0,0,0,0,-1,993,694,0,0
-224,330,0,0,0,0,0,0,0,0,0,-1,1000,694,0,0
-217,330,0,0,0,0,0,0,0,0,0,-1,1007,694,0,0
-210,330,0,0,0,0,0,0,0,0,0,-1,1014,694,0,0
-203,330,0,0,0,0,0,0,0,0,0,-1,1021,694,0,0
-196,330,0,0,0,0,0,0,0,0,0,-1,1028,694,0,0
-189,330,0,0,0,0,0,0,0,0,0,-1,1035,694,0,0
-182,330,0,0,0,0,0,0,0,0,0,-1,1042,694,0,0
-175,330,0,0,0,0,0,0,0,0,0,-1,1049,694,0,0
-168,330,0,0,0,0,0,0,0,0,0,-1,1056,694,0,0
-161,330,0,0,0,0,0,0,0,0,0,-1,1063,694,0,0
-154,330,0,0,0,0,0,0,0,0,0,-1,1070,694,0,0
-147,330,0,0,0,0,0,0,0,0,0,-1,1077,694,0,0
-140,330,0,0,0,0,0,0,0,0,0,-1,1084,694,0,0
-133,330,0,0,0,0,0,0,0,0,0,-1,1091,694,0,0
-126,330,0,0,0,0,0,0,0,0,0,-1,1098,694,0,0
-119,330,0,0,0,0,0,0,0,0,0,-1,1105,694,0,0
-112,330,0,0,0,0,0,0,0,0,0,-1,1112,694,0,0
-105,330,0,0,0,0,0,0,0,0,0,-1,1119,694,0,0
-98,330,0,0,0,0,0,0,0,0,0,-1,1126,694,0,0
-91,330,0,0,0,0,0,0,0,0,0,-1,1133,694,0,0
-84,330,0,0,0,0,0,0,0,0,0,-1,1140,694,0,0
-77,330,0,0,0,0,0,0,0,0,0,-1,1147,694,0,0
-70,330,0,0,0,0,0,0,0,0,0,-1,1154,694,0,0
-63,330,0,0,0,0,0,0,0,0,0,-1,1161,694,0,0
-56,330,0,0,0,0,0,0,0,0,0,-1,1168,694,0,0
-49,330,0,0,0,0,0,0,0,0,0,-1,1175,694,0,0
-42,330,0,0,0,0,0,0,0,0,0,-1,1182,694,0,0
-35,330,0,0,0,0,0,0,0,0,0,-1,1189,694,0,0
-28,330,0,0,0,0,0,0,0,0,0,-1,1196,694,0,0
-21,330,0,0,0,0,0,0,0,0,0,-1,1203,694,0,0
-14,330,0,0,0,0,0,0,0,0,0,-1,1210,694,0,0
-7,330,0,0,0,0,0,0,0,0,0,-1,1217,694,0,0
0,330,0,0,0,0,0,0,0,0,0,-1,1224,694,0,0
7,330,0,0,0,0,0,0,0,0,0,-1,1231,694,0,0
14,330,0,0,0,0,0,0,0,0,0,-1,1238,694,0,0
21,330,0,0,0,0,0,0,0,0,0,-1,1245,694,0,0
28,330,0,0,0,0,0,0,0,0,0,-1,1252,694,0,0
35,330,0,0,0,0,0,0,0,0,0,-1,1259,694,0,0
42,330,0,0,0,0,0,0,0,0,0,-1,1266,694,0,0
49,330,0,0,0,0,0,0,0,0,0,-1,1273,694,0,0
56,330,0,0,0,0,0,0,0,0,0,-1,1280,694,0,0
63,330,0,0,0,0,0,0,0,0,0,-1,1287,694,0,0
70,330,0,0,0,0,0,0,0,0,0,-1,1294,694,0,0
77,330,0,0,0,0,0,0,0,0,0,-1,1301,694,0,0
84,330,0,0,0,0,0,0,0,0,0,-1,1308,694,0,0
91,330,0,0,0,0,0,0,0,0,0,-1,1315,694,0,0
98,330,0,0,0,0,0,0,0,0,0,-1,1322,694,0,0
105,330,0,0,0,0,0,0,0,0,0,-1,1329,694,0,0
112,330,0,0,0,0,0,0,0,0,0,-1,1336,694,0,0
119,330,0,0,0,0,0,0,0,0,0,-1,1343,694,0,0
126,330,0,0,0,0,0,0,0,0,0,-1,1350,694,0,0
133,330,0,0,0,0,0,0,0,0,0,-1,1357,694,0,0
140,330,0,0,0,0,0,0,0,0,0,-1,1364,694,0,0
147,330,0,0,0,0,0,0,0,0,0,-1,1371,694,0,0
154,330,0,0,0,0,0,0,0,0,0,-1,1378,694,0,0
161,330,0,0,0,0,0,0,0,0,0,-1,1385,694,0,0
168,330,0,0,0,0,0,0,0,0,0,-1,1392,694,0,0
175,330,0,0,0,0,0,0,0,0,0,-1,1399,694,0,0
182,330,0,0,0,0,0,0,0,0,0,-1,1406,694,0,0
189,330,0,0,0,0,0,0,0,0,0,-1,1413,694,0,0
196,330,0,0,0,0,0,0,0,0,0,-1,1420,694,0,0
203,330,0,0,0,0,0,0,0,0,0,-1,1427,694,0,0
210,330,0,0,0,0,0,0,0,0,0,-1,1434,694,0,0
217,330,0,0,0,0,0,0,0,0,0,-1,1441,694,0,0
224,330,0,0,0,0,0,0,0,0,0,-1,1448,694,0,0
231,330,0,0,0,0,0,0,0,0,0,-1,1455,694,0,0
238,330,0,0,0,0,0,0,0,0,0,-1,1462,694,0,0
245,330,0,0,0,0,0,0,0,0,0,-1,1469,694,0,0
252,330,0,0,0,0,0,0,0,0,0,-1,1476,694,0,0
259,330,0,0,0,0,0,0,0,0,0,-1,1483,694,0,0
266,330,0,0,0,0,0,0,0,0,0,-1,1490,694,0,0
273,330,0,0,0,0,0,0,0,0,0,-1,1497,694,0,0
280,330,0,0,0,0,0,0,0,0,0,-1,1504,694,0,0
287,330,0,0,0,0,0,0,0,0,0,-1,1511,694,0,0
294,330,0,0,0,0,0,0,0,0,0,-1,1518,694,0,0
301,330,0,0,0,0,0,0,0,0,0,-1,1525,694,0,0
308,330,0,0,0,0,0,0,0,0,0,-1,1532,694,0,0
315,330,0,0,0,0,0,0,0,0,0,-1,1539,694,0,0
322,330,0,0,0,0,0,0,0,0,0,-1,1546,694,0,0
329,330,0,0,0,0,0,0,0,0,0,-1,1553,694,0,0
336,330,0,0,0,0,0,0,0,0,0,-1,1560,694,0,0
343,330,0,0,0,0,0,0,0,0,0,-1,1567,694,0,0
350,330,0,0,0,0,0,0,0,0,0,-1,1574,694,0,0
357,330,0,0,0,0,0,0,0,0,0,-1,1581,694,0,0
364,330,0,0,0,0,0,0,0,0,0,-1,1588,694,0,0
371,330,0,0,0,0,0,0,0,0,0,-1,1595,694,0,0
378,330,0,0,0,0,0,0,0,0,0,-1,1602,694,0,0
385,330,0,0,0,0,0,0,0,0,0,-1,1609,694,0,0
392,330,0,0,0,0,0,0,0,0,0,-1,1616,694,0,0
399,330,0,0,0,0,0,0,0,0,0,-1,1623,694,0,0
406,330,0,0,0,0,0,0,0,0,0,-1,1630,694,0,0
413,330,0,0,0,0,0,0,0,0,0,-1,1637,694,0,0
420,330,0,0,0,0,0,0,0,0,0,-1,1644,694,0,0
427,330,0,0,0,0,0,0,0,0,0,-1,1651,694,0,0
434,330,0,0,0,0,0,0,0,0,0,-1,1658,694,0,0
441,330,0,0,0,0,0,0,0,0,0,-1,1665,694,0,0
448,330,0,0,0,0,0,0,0,0,0,-1,1672,694,0,0
455,330,0,0,0,0,0,0,0,0,0,-1,1679,694,0,0
462,330,0,0,0,0,0,0,0,0,0,-1,1686,694,0,0
469,330,0,0,0,0,0,0,0,0,0,-1,1693,694,0,0
476,330,0,0,0,0,0,0,0,0,0,-1,1700,694,0,0
483,330,0,0,0,0,0,0,0,0,0,-1,1707,694,0,0
490,330,0,0,0,0,0,0,0,0,0,-1,1714,694,0,0
497,330,0,0,0,0,0,0,0,0,0,-1,1721,694,0,0
504,330,0,0,0,0,0,0,0,0,0,-1,1728,694,0,0
511,330,0,0,0,0,0,0,0,0,0,-1,1735,694,0,0
518,330,0,0,0,0,0,0,0,0,0,-1,1742,694,0,0
525,330,30.6694,0.69519,0,0,0,0,0,0,0,-1,1749,694,30.6694,-0.695206
532,330,30.9469,1.32501,0,0,0,0,0,0,0,-1,1756,694,30.9469,-1.32501
539,330,31.5155,1.62506,0,0,0,0,0,0,0,-1,1763,694,31.5155,-1.62507
546,330,31.4187,1.85651,0,0,0,0,0,0,0,-1,1770,694,31.4187,-1.85651
553,330,31.8452,1.81476,0,0,0,0,0,0,0,-1,1777,694,31.8452,-1.81475
560,330,32.2401,2.43225,0,0,0,0,0,0,0,-1,1784,694,32.2401,-2.43227
567,330,18.0321,3.98578,0,0,0,0,0,0,0,-1,1791,694,18.0321,-3.98576
574,330,12.0454,2.1662,0,0,0,0,0,0,0,-1,1798,694,12.0455,-2.16618
581,330,11.4215,4.50836,0,0,0,0,0,0,0,-1,1805,694,11.4215,-4.50837
588,330,6.45667,-0.0630493,0,0,0,0,0,0,0,-1,1812,694,6.45661,0.0630695
595,330,8.23193,-0.258484,0,0,0,0,0,0,0,-1,1819,694,8.23188,0.258459
602,330,33.3381,-9.31494,0,0,0,0,0,0,0,-1,1826,694,33.3382,9.31495
609,330,33.3845,-8.43848,0.00188949,-0.000575527,-8.18293e-05,0.00189221,-0.00057824,-0.0331476,0.00149205,0.0298553,1833,694,33.3845,8.43847
616,330,33.4,-7.6582,0.00195616,-0.000491579,0.00015998,0.00196657,-0.000501991,0.0649897,0.00150652,0.0110665,1840,694,33.4,7.65819
623,330,33.3562,-6.93152,0.00187224,-0.000225063,0.00032428,0.00192123,-0.000274058,0.149954,0.00138127,0.0131712,1847,694,33.3561,6.9315
630,330,33.3281,-6.1673,0.00186283,0.000139884,0.000584282,0.00204228,-3.95662e-05,0.297985,0.0013749,0.0138512,1854,694,33.3282,6.16727
637,330,33.3147,-5.40063,0.00187598,0.000585483,0.000867111,0.00231157,0.000149885,0.46553,0.0014936,0.0138227,1861,694,33.3147,5.40063
644,330,33.265,-4.64618,0.00191567,0.00109674,0.00118497,0.00275992,0.000252491,0.619046,0.00176183,0.00903997,1868,694,33.265,4.64616
651,330,33.2244,-3.87378,0.0020007,0.00173372,0.00155333,0.00342627,0.000308151,0.742535,0.00218871,0.0123205,1875,694,33.2244,3.87376
658,330,33.1804,-3.12921,0.00214923,0.00245737,0.00195798,0.00426733,0.000339265,0.824662,0.00273881,0.0135249,1882,694,33.1804,3.12921
665,330,33.1399,-2.37036,0.0024866,0.003284,0.00249237,0.00540936,0.000361243,0.864711,0.00349206,0.0120048,1889,694,33.1398,2.37039
672,330,33.1941,-1.57312,0.00302642,0.00431111,0.00299961,0.00673638,0.000601148,0.890876,0.00430455,0.0327101,1896,694,33.194,1.57309
679,330,33.348,-0.717102,0,0,0,0,0,0,0,-1,1903,694,33.348,0.717095
686,330,30.6691,0.582825,0,0,0,0,0,0,0,-1,1910,694,30.6691,-0.582798
693,330,17.3999,2.5976,0,0,0,0,0,0,0,-1,1917,694,17.4,-2.59759
700,330,17.1072,4.13,0,0,0,0,0,0,0,-1,1924,694,17.1071,-4.13002
707,330,16.663,4.88672,0,0,0,0,0,0,0,-1,1931,694,16.6629,-4.88673
714,330,16.5454,5.80896,0,0,0,0,0,0,0,-1,1938,694,16.5454,-5.80899
721,330,0,0,0,0,0,0,0,0,0,-1,1945,694,0,0
728,330,0,0,0,0,0,0,0,0,0,-1,1952,694,0,0
735,330,0,0,0,0,0,0,0,0,0,-1,1959,694,0,0
742,330,0,0,0,0,0,0,0,0,0,-1,1966,694,0,0
749,330,0,0,0,0,0,0,0,0,0,-1,1973,694,0,0
756,330,0,0,0,0,0,0,0,0,0,-1,1980,694,0,0
763,330,0,0,0,0,0,0,0,0,0,-1,1987,694,0,0
770,330,0,0,0,0,0,0,0,0,0,-1,1994,694,0,0
777,330,0,0,0,0,0,0,0,0,0,-1,2001,694,0,0
784,330,0,0,0,0,0,0,0,0,0,-1,2008,694,0,0
791,330,0,0,0,0,0,0,0,0,0,-1,2015,694,0,0
798,330,0,0,0,0,0,0,0,0,0,-1,2022,694,0,0
805,330,0,0,0,0,0,0,0,0,0,-1,2029,694,0,0
812,330,0,0,0,0,0,0,0,0,0,-1,2036,694,0,0
-700,323,0,0,0,0,0,0,0,0,0,-1,524,701,0,0
-693,323,0,0,0,0,0,0,0,0,0,-1,531,701,0,0
-686,323,0,0,0,0,0,0,0,0,0,-1,538,701,0,0
-679,323,0,0,0,0,0,0,0,0,0,-1,545,701,0,0
-672,323,0,0,0,0,0,0,0,0,0,-1,552,701,0,0
-665,323,0,0,0,0,0,0,0,0,0,-1,559,701,0,0
-658,323,0,0,0,0,0,0,0,0,0,-1,566,701,0,0
-651,323,0,0,0,0,0,0,0,0,0,-1,573,701,0,0
-644,323,0,0,0,0,0,0,0,0,0,-1,580,701,0,0
-637,323,0,0,0,0,0,0,0,0,0,-1,587,701,0,0
-630,323,0,0,0,0,0,0,0,0,0,-1,594,701,0,0
-623,323,0,0,0,0,0,0,0,0,0,-1,601,701,0,0
-616,323,0,0,0,0,0,0,0,0,0,-1,608,701,0,0
-609,323,0,0,0,0,0,0,0,0,0,-1,615,701,0,0
-602,323,-4.15833,2.12256,0,0,0,0,0,0,0,-1,622,701,-4.1583,-2.12257
-595,323,-4.052,1.79156,0,0,0,0,0,0,0,-1,629,701,-4.05198,-1.79158
-588,323,-4.07019,1.94543,0,0,0,0,0,0,0,-1,636,701,-4.07019,-1.94542
-581,323,-6.63727,0.562805,0,0,0,0,0,0,0,-1,643,701,-6.63728,-0.56279
-574,323,-6.15887,0.426697,0,0,0,0,0,0,0,-1,650,701,-6.15887,-0.426727
-567,323,-10.0015,0.0371094,0,0,0,0,0,0,0,-1,657,701,-10.0015,-0.037126
-560,323,-16.3503,-1.16956,0,0,0,0,0,0,0,-1,664,701,-16.3503,1.16957
-553,323,-20.9244,-2.47601,0,0,0,0,0,0,0,-1,671,701,-20.9244,2.47601
-546,323,-20.9001,-3.0965,0.00425939,0.00277417,-0.0010494,0.00480235,0.0022312,-0.477475,0.00277496,0.0334023,678,701,-20.9002,3.09651
-539,323,-20.8879,-3.74854,0.00385237,0.00201458,-0.000905328,0.00422343,0.00164352,-0.388981,0.00245829,0.0254868,685,701,-20.8879,3.74855
-532,323,-20.9633,-4.54272,0.0033228,0.00133321,-0.000717414,0.0035545,0.00110151,-0.312396,0.00210106,0.0120582,692,701,-20.9633,4.54271
-525,323,-21.0173,-5.30695,0.00276794,0.000752009,-0.000477049,0.00287513,0.00064482,-0.221022,0.00174206,0.00838481,699,701,-21.0173,5.30696
-518,323,-21.0432,-6.01648,0.00226519,0.000294488,-0.000219894,0.00228943,0.00027025,-0.109782,0.00144466,0.0108913,706,701,-21.0432,6.01649
-511,323,-21.0829,-6.74585,0.00178382,-5.47483e-05,5.48668e-06,0.00178383,-5.47648e-05,0.00298418,0.00120789,0.0141927,713,701,-21.0829,6.74584
-504,323,-21.1196,-7.48206,0.00133358,-0.00028801,0.000234824,0.0013669,-0.00032133,0.140954,0.00103514,0.0146112,720,701,-21.1196,7.48204
-497,323,-21.1494,-8.19189,0.00107478,-0.000312137,0.000322873,0.00114626,-0.000383617,0.217874,0.000919131,0.0129885,727,701,-21.1494,8.19189
-490,323,-21.1851,-8.93365,0.00108775,-0.000224965,0.000354307,0.00117728,-0.000314488,0.247492,0.00090802,0.014875,734,701,-21.1851,8.93367
-483,323,-21.1968,-9.6972,0.00133945,0.00015371,0.000177464,0.00136544,0.000127719,0.145422,0.000870846,0.0312096,741,701,-21.1968,9.6972
-476,323,-21.203,-10.4655,0,0,0,0,0,0,0,-1,748,701,-21.203,10.4655
-469,323,-8.33301,-3.64001,0,0,0,0,0,0,0,-1,755,701,-8.33298,3.64
-462,323,-5.29431,-1.45697,0,0,0,0,0,0,0,-1,762,701,-5.29431,1.45699
-455,323,-5.0658,-1.36639,0,0,0,0,0,0,0,-1,769,701,-5.06578,1.3664
-448,323,-4.91608,-1.59601,0,0,0,0,0,0,0,-1,776,701,-4.91606,1.59604
-441,323,-14.4006,0.535217,0,0,0,0,0,0,0,-1,783,701,-14.4006,-0.535203
-434,323,-15.3158,2.479,0,0,0,0,0,0,0,-1,790,701,-15.3158,-2.47898
-427,323,-28.3923,1.16797,0,0,0,0,0,0,0,-1,797,701,-28.3923,-1.16796
-420,323,-28.7292,1.09302,0,0,0,0,0,0,0,-1,804,701,-28.7292,-1.09304
-413,323,-28.7955,1.22418,0,0,0,0,0,0,0,-1,811,701,-28.7956,-1.22419
-406,323,0,0,0,0,0,0,0,0,0,-1,818,701,0,0
-399,323,0,0,0,0,0,0,0,0,0,-1,825,701,0,0
-392,323,0,0,0,0,0,0,0,0,0,-1,832,701,0,0
-385,323,0,0,0,0,0,0,0,0,0,-1,839,701,0,0
-378,323,0,0,0,0,0,0,0,0,0,-1,846,701,0,0
-371,323,0,0,0,0,0,0,0,0,0,-1,853,701,0,0
-364,323,0,0,0,0,0,0,0,0,0,-1,860,701,0,0
-357,323,0,0,0,0,0,0,0,0,0,-1,867,701,0,0
-350,323,0,0,0,0,0,0,0,0,0,-1,874,701,0,0
-343,323,0,0,0,0,0,0,0,0,0,-1,881,701,0,0
-336,323,0,0,0,0,0,0,0,0,0,-1,888,701,0,0
-329,323,0,0,0,0,0,0,0,0,0,-1,895,701,0,0
-322,323,0,0,0,0,0,0,0,0,0,-1,902,701,0,0
-315,323,0,0,0,0,0,0,0,0,0,-1,909,701,0,0
-308,323,0,0,0,0,0,0,0,0,0,-1,916,701,0,0
-301,323,0,0,0,0,0,0,0,0,0,-1,923,701,0,0
-294,323,0,0,0,0,0,0,0,0,0,-1,930,701,0,0
-287,323,0,0,0,0,0,0,0,0,0,-1,937,701,0,0
-280,323,0,0,0,0,0,0,0,0,0,-1,944,701,0,0
-273,323,0,0,0,0,0,0,0,0,0,-1,951,701,0,0
-266,323,0,0,0,0,0,0,0,0,0,-1,958,701,0,0
-259,323,0,0,0,0,0,0,0,0,0,-1,965,701,0,0
-252,323,0,0,0,0,0,0,0,0,0,-1,972,701,0,0
-245,323,0,0,0,0,0,0,0,0,0,-1,979,701,0,0
-238,323,0,0,0,0,0,0,0,0,0,-1,986,701,0,0
-231,323,0,0,0,0,0,0,0,0,0,-1,993,701,0,0
-224,323,0,0,0,0,0,0,0,0,0,-1,1000,701,0,0
-217,323,0,0,0,0,0,0,0,0,0,-1,1007,701,0,0
-210,323,0,0,0,0,0,0,0,0,0,-1,1014,701,0,0
-203,323,0,0,0,0,0,0,0,0,0,-1,1021,701,0,0
-196,323,0,0,0,0,0,0,0,0,0,-1,1028,701,0,0
-189,323,0,0,0,0,0,0,0,0,0,-1,1035,701,0,0
-182,323,0,0,0,0,0,0,0,0,0,-1,1042,701,0,0
-175,323,0,0,0,0,0,0,0,0,0,-1,1049,701,0,0
-168,323,0,0,0,0,0,0,0,0,0,-1,1056,701,0,0
-161,323,0,0,0,0,0,0,0,0,0,-1,1063,701,0,0
-154,323,0,0,0,0,0,0,0,0,0,-1,1070,701,0,0
-147,323,0,0,0,0,0,0,0,0,0,-1,1077,701,0,0
-140,323,0,0,0,0,0,0,0,0,0,-1,1084,701,0,0
-133,323,0,0,0,0,0,0,0,0,0,-1,1091,701,0,0
-126,323,0,0,0,0,0,0,0,0,0,-1,1098,701,0,0
-119,323,0,0,0,0,0,0,0,0,0,-1,1105,701,0,0
-112,323,0,0,0,0,0,0,0,0,0,-1,1112,701,0,0
-105,323,0,0,0,0,0,0,0,0,0,-1,1119,701,0,0
-98,323,0,0,0,0,0,0,0,0,0,-1,1126,701,0,0
-91,323,0,0,0,0,0,0,0,0,0,-1,1133,701,0,0
-84,323,0,0,0,0,0,0,0,0,0,-1,1140,701,0,0
-77,323,0,0,0,0,0,0,0,0,0,-1,1147,701,0,0
-70,323,0,0,0,0,0,0,0,0,0,-1,1154,701,0,0
-63,323,0,0,0,0,0,0,0,0,0,-1,1161,701,0,0
-56,323,0,0,0,0,0,0,0,0,0,-1,1168,701,0,0
-49,323,0,0,0,0,0,0,0,0,0,-1,1175,701,0,0
-42,323,0,0,0,0,0,0,0,0,0,-1,1182,701,0,0
-35,323,0,0,0,0,0,0,0,0,0,-1,1189,701,0,0
-28,323,0,0,0,0,0,0,0,0,0,-1,1196,701,0,0
-21,323,0,0,0,0,0,0,0,0,0,-1,1203,701,0,0
-14,323,0,0,0,0,0,0,0,0,0,-1,1210,701,0,0
-7,323,0,0,0,0,0,0,0,0,0,-1,1217,701,0,0
0,323,0,0,0,0,0,0,0,0,0,-1,1224,701,0,0
7,323,0,0,0,0,0,0,0,0,0,-1,1231,701,0,0
14,323,0,0,0,0,0,0,0,0,0,-1,1238,701,0,0
21,323,0,0,0,0,0,0,0,0,0,-1,1245,701,0,0
28,323,0,0,0,0,0,0,0,0,0,-1,1252,701,0,0
35,323,0,0,0,0,0,0,0,0,0,-1,1259,701,0,0
42,323,0,0,0,0,0,0,0,0,0,-1,1266,701,0,0
49,323,0,0,0,0,0,0,0,0,0,-1,1273,701,0,0
56,323,0,0,0,0,0,0,0,0,0,-1,1280,701,0,0
63,323,0,0,0,0,0,0,0,0,0,-1,1287,701,0,0
70,323,0,0,0,0,0,0,0,0,0,-1,1294,701,0,0
77,323,0,0,0,0,0,0,0,0,0,-1,1301,701,0,0
84,323,0,0,0,0,0,0,0,0,0,-1,1308,701,0,0
91,323,0,0,0,0,0,0,0,0,0,-1,1315,701,0,0
98,323,0,0,0,0,0,0,0,0,0,-1,1322,701,0,0
105,323,0,0,0,0,0,0,0,0,0,-1,1329,701,0,0
112,323,0,0,0,0,0,0,0,0,0,-1,1336,701,0,0
119,323,0,0,0,0,0,0,0,0,0,-1,1343,701,0,0
126,323,0,0,0,0,0,0,0,0,0,-1,1350,701,0,0
133,323,0,0,0,0,0,0,0,0,0,-1,1357,701,0,0
140,323,0,0,0,0,0,0,0,0,0,-1,1364,701,0,0
147,323,0,0,0,0,0,0,0,0,0,-1,1371,701,0,0
154,323,0,0,0,0,0,0,0,0,0,-1,1378,701,0,0
161,323,0,0,0,0,0,0,0,0,0,-1,1385,701,0,0
168,323,0,0,0,0,0,0,0,0,0,-1,1392,701,0,0
175,323,0,0,0,0,0,0,0,0,0,-1,1399,701,0,0
182,323,0,0,0,0,0,0,0,0,0,-1,1406,701,0,0
189,323,0,0,0,0,0,0,0,0,0,-1,1413,701,0,0
196,323,0,0,0,0,0,0,0,0,0,-1,1420,701,0,0
203,323,0,0,0,0,0,0,0,0,0,-1,1427,701,0,0
210,323,0,0,0,0,0,0,0,0,0,-1,1434,701,0,0
217,323,0,0,0,0,0,0,0,0,0,-1,1441,701,0,0
224,323,0,0,0,0,0,0,0,0,0,-1,1448,701,0,0
231,323,0,0,0,0,0,0,0,0,0,-1,1455,701,0,0
238,323,0,0,0,0,0,0,0,0,0,-1,1462,701,0,0
245,323,0,0,0,0,0,0,0,0,0,-1,1469,701,0,0
252,323,0,0,0,0,0,0,0,0,0,-1,1476,701,0,0
259,323,0,0,0,0,0,0,0,0,0,-1,1483,701,0,0
266,323,0,0,0,0,0,0,0,0,0,-1,1490,701,0,0
273,323,0,0,0,0,0,0,0,0,0,-1,1497,701,0,0
280,323,0,0,0,0,0,0,0,0,0,-1,1504,701,0,0
287,323,0,0,0,0,0,0,0,0,0,-1,1511,701,0,0
294,323,0,0,0,0,0,0,0,0,0,-1,1518,701,0,0
301,323,0,0,0,0,0,0,0,0,0,-1,1525,701,0,0
308,323,0,0,0,0,0,0,0,0,0,-1,1532,701,0,0
315,323,0,0,0,0,0,0,0,0,0,-1,1539,701,0,0
322,323,0,0,0,0,0,0,0,0,0,-1,1546,701,0,0
329,323,0,0,0,0,0,0,0,0,0,-1,1553,701,0,0
336,323,0,0,0,0,0,0,0,0,0,-1,1560,701,0,0
343,323,0,0,0,0,0,0,0,0,0,-1,1567,701,0,0
350,323,0,0,0,0,0,0,0,0,0,-1,1574,701,0,0
357,323,0,0,0,0,0,0,0,0,0,-1,1581,701,0,0
364,323,0,0,0,0,0,0,0,0,0,-1,1588,701,0,0
371,323,0,0,0,0,0,0,0,0,0,-1,1595,701,0,0
378,323,0,0,0,0,0,0,0,0,0,-1,1602,701,0,0
385,323,0,0,0,0,0,0,0,0,0,-1,1609,701,0,0
392,323,0,0,0,0,0,0,0,0,0,-1,1616,701,0,0
399,323,0,0,0,0,0,0,0,0,0,-1,1623,701,0,0
406,323,0,0,0,0,0,0,0,0,0,-1,1630,701,0,0
413,323,0,0,0,0,0,0,0,0,0,-1,1637,701,0,0
420,323,0,0,0,0,0,0,0,0,0,-1,1644,701,0,0
427,323,0,0,0,0,0,0,0,0,0,-1,1651,701,0,0
434,323,0,0,0,0,0,0,0,0,0,-1,1658,701,0,0
441,323,0,0,0,0,0,0,0,0,0,-1,1665,701,0,0
448,323,0,0,0,0,0,0,0,0,0,-1,1672,701,0,0
455,323,0,0,0,0,0,0,0,0,0,-1,1679,701,0,0
462,323,0,0,0,0,0,0,0,0,0,-1,1686,701,0,0
469,323,0,0,0,0,0,0,0,0,0,-1,1693,701,0,0
476,323,0,0,0,0,0,0,0,0,0,-1,1700,701,0,0
483,323,0,0,0,0,0,0,0,0,0,-1,1707,701,0,0
490,323,0,0,0,0,0,0,0,0,0,-1,1714,701,0,0
497,323,0,0,0,0,0,0,0,0,0,-1,1721,701,0,0
504,323,0,0,0,0,0,0,0,0,0,-1,1728,701,0,0
511,323,0,0,0,0,0,0,0,0,0,-1,1735,701,0,0
518,323,0,0,0,0,0,0,0,0,0,-1,1742,701,0,0
525,323,0,0,0,0,0,0,0,0,0,-1,1749,701,0,0
532,323,33.6193,1.69446,0,0,0,0,0,0,0,-1,1756,701,33.6193,-1.69444
539,323,32.2698,2.44037,0,0,0,0,0,0,0,-1,1763,701,32.2697,-2.44036
546,323,31.1644,3.9444,0,0,0,0,0,0,0,-1,1770,701,31.1644,-3.94438
553,323,30.2488,5.8775,0,0,0,0,0,0,0,-1,1777,701,30.2487,-5.87752
560,323,40.6711,1.25153,0,0,0,0,0,0,0,-1,1784,701,40.6711,-1.25154
567,323,42.1637,2.01208,0,0,0,0,0,0,0,-1,1791,701,42.1637,-2.01207
574,323,12.514,5.89685,0,0,0,0,0,0,0,-1,1798,701,12.5141,-5.89683
581,323,11.821,5.3476,0,0,0,0,0,0,0,-1,1805,701,11.821,-5.34762
588,323,11.7933,7.00818,0,0,0,0,0,0,0,-1,1812,701,11.7933,-7.00819
595,323,6.67847,0.06604,0,0,0,0,0,0,0,-1,1819,701,6.67841,-0.0660418
602,323,33.7992,-9.20642,0,0,0,0,0,0,0,-1,1826,701,33.7992,9.20645
609,323,34.0415,-8.37396,0.00242346,-0.000627851,0.000115849,0.00242785,-0.000632244,0.0378944,0.00186538,0.0431871,1833,701,34.0415,8.37394
616,323,34.1414,-7.60376,0.00233693,-0.000616575,0.000279766,0.0023632,-0.000642842,0.0936138,0.00182783,0.0127656,1840,701,34.1414,7.60374
623,323,34.1174,-6.86865,0.00207392,-0.000386504,0.000335494,0.00211885,-0.00043143,0.133119,0.00157618,0.0125174,1847,701,34.1174,6.86866
630,323,34.0787,-6.10266,0.0019409,-7.98595e-05,0.000510536,0.00206256,-0.00020152,0.233936,0.0014469,0.0139772,1854,701,34.0787,6.10267
637,323,34.0668,-5.34937,0.00185044,0.000320579,0.000723955,0.0021387,3.23089e-05,0.378943,0.00141516,0.0118352,1861,701,34.0668,5.34937
644,323,34.0204,-4.61578,0.00180531,0.000789544,0.000982182,0.00240315,0.000191703,0.546782,0.00154218,0.00908797,1868,701,34.0204,4.61579
651,323,33.9971,-3.84314,0.00181287,0.00137612,0.00129032,0.00290316,0.000285823,0.701573,0.00184755,0.0119974,1875,701,33.9971,3.84311
658,323,33.9077,-3.06525,0.0018776,0.00206282,0.00163569,0.00360852,0.000331902,0.813676,0.00230303,0.0185295,1882,701,33.9078,3.06527
665,323,33.8445,-2.32233,0.00209068,0.00284576,0.00207994,0.00458214,0.0003543,0.875178,0.00294378,0.0154008,1889,701,33.8445,2.32234
672,323,33.8712,-1.50824,0.0024486,0.00380926,0.00253307,0.00575177,0.000506093,0.916591,0.00367744,0.0191686,1896,701,33.8712,1.50823
679,323,33.9309,-0.585938,0,0,0,0,0,0,0,-1,1903,701,33.9309,0.585955
686,323,30.4916,0.378235,0,0,0,0,0,0,0,-1,1910,701,30.4916,-0.37825
693,323,23.8806,1.08844,0,0,0,0,0,0,0,-1,1917,701,23.8806,-1.08845
700,323,10.7705,0.828613,0,0,0,0,0,0,0,-1,1924,701,10.7705,-0.828591
707,323,16.9005,4.79193,0,0,0,0,0,0,0,-1,1931,701,16.9005,-4.7919
714,323,16.2346,6.25958,0,0,0,0,0,0,0,-1,1938,701,16.2346,-6.25956
721,323,0,0,0,0,0,0,0,0,0,-1,1945,701,0,0
728,323,0,0,0,0,0,0,0,0,0,-1,1952,701,0,0
735,323,0,0,0,0,0,0,0,0,0,-1,1959,701,0,0
742,323,0,0,0,0,0,0,0,0,0,-1,1966,701,0,0
749,323,0,0,0,0,0,0,0,0,0,-1,1973,701,0,0
756,323,0,0,0,0,0,0,0,0,0,-1,1980,701,0,0
763,323,0,0,0,0,0,0,0,0,0,-1,1987,701,0,0
770,323,0,0,0,0,0,0,0,0,0,-1,1994,701,0,0
777,323,0,0,0,0,0,0,0,0,0,-1,2001,701,0,0
784,323,0,0,0,0,0,0,0,0,0,-1,2008,701,0,0
791,323,0,0,0,0,0,0,0,0,0,-1,2015,701,0,0
798,323,0,0,0,0,0,0,0,0,0,-1,2022,701,0,0
805,323,0,0,0,0,0,0,0,0,0,-1,2029,701,0,0
812,323,0,0,0,0,0,0,0,0,0,-1,2036,701,0,0
-700,316,0,0,0,0,0,0,0,0,0,-1,524,708,0,0
-693,316,0,0,0,0,0,0,0,0,0,-1,531,708,0,0
-686,316,0,0,0,0,0,0,0,0,0,-1,538,708,0,0
-679,316,0,0,0,0,0,0,0,0,0,-1,545,708,0,0
-672,316,0,0,0,0,0,0,0,0,0,-1,552,708,0,0
-665,316,0,0,0,0,0,0,0,0,0,-1,559,708,0,0
-658,316,0,0,0,0,0,0,0,0,0,-1,566,708,0,0
-651,316,0,0,0,0,0,0,0,0,0,-1,573,708,0,0
-644,316,0,0,0,0,0,0,0,0,0,-1,580,708,0,0
-637,316,0,0,0,0,0,0,0,0,0,-1,587,708,0,0
-630,316,0,0,0,0,0,0,0,0,0,-1,594,708,0,0
-623,316,0,0,0,0,0,0,0,0,0,-1,601,708,0,0
-616,316,0,0,0,0,0,0,0,0,0,-1,608,708,0,0
-609,316,0,0,0,0,0,0,0,0,0,-1,615,708,0,0
-602,316,-0.451782,-0.0494995,0,0,0,0,0,0,0,-1,622,708,-0.451768,0.0495022
-595,316,-3.3761,2.17188,0,0,0,0,0,0,0,-1,629,708,-3.37609,-2.17189
-588,316,-5.00177,2.60675,0,0,0,0,0,0,0,-1,636,708,-5.00175,-2.60676
-581,316,-3.94653,0.393433,0,0,0,0,0,0,0,-1,643,708,-3.94655,-0.39342
-574,316,-9.67395,1.06067,0,0,0,0,0,0,0,-1,650,708,-9.67396,-1.06065
-567,316,-10.1962,0.448425,0,0,0,0,0,0,0,-1,657,708,-10.1962,-0.448411
-560,316,-18.9941,-1.75067,0,0,0,0,0,0,0,-1,664,708,-18.9941,1.75068
-553,316,-21.8137,-2.26923,0,0,0,0,0,0,0,-1,671,708,-21.8137,2.26924
-546,316,-21.7366,-2.97266,0.00326836,0.00295113,-0.00109112,0.00421233,0.00200716,-0.713218,0.00243289,0.0381717,678,708,-21.7365,2.97269
-539,316,-21.6182,-3.7619,0.00307421,0.0020639,-0.000885139,0.0035882,0.00154991,-0.526098,0.00207803,0.0138038,685,708,-21.6182,3.7619
-532,316,-21.6863,-4.50995,0.00270627,0.0012848,-0.000634913,0.00294856,0.00104251,-0.364555,0.00172652,0.010904,692,708,-21.6863,4.50994
-525,316,-21.7318,-5.22699,0.00223703,0.000580209,-0.00032561,0.00229872,0.000518515,-0.187252,0.00139221,0.00962311,699,708,-21.7318,5.22699
-518,316,-21.7557,-5.96338,0.0017828,3.8554e-05,-4.13935e-06,0.00178281,3.85442e-05,-0.00237313,0.0011759,0.00994444,706,708,-21.7557,5.96339
-511,316,-21.7978,-6.71191,0.0012886,-0.000411731,0.000301312,0.00134041,-0.000463547,0.170302,0.00108175,0.0115119,713,708,-21.7978,6.71193
-504,316,-21.8327,-7.46716,0.000781864,-0.000750372,0.000628669,0.00100679,-0.000975295,0.343585,0.0011444,0.0152764,720,708,-21.8327,7.46718
-497,316,-21.8595,-8.15607,0.000442183,-0.000887068,0.000829166,0.000840216,-0.0012851,0.447553,0.00123598,0.0136677,727,708,-21.8595,8.15605
-490,316,-21.8783,-8.89221,0.000466699,-0.00092156,0.00101079,0.000998749,-0.00145361,0.48452,0.00142397,0.0190219,734,708,-21.8783,8.89222
-483,316,-21.886,-9.71564,0,0,0,0,0,0,0,-1,741,708,-21.886,9.71564
-476,316,-8.90894,-3.31207,0,0,0,0,0,0,0,-1,748,708,-8.90896,3.31206
-469,316,-6.24194,-1.42725,0,0,0,0,0,0,0,-1,755,708,-6.24192,1.42725
-462,316,-5.74237,-1.40039,0,0,0,0,0,0,0,-1,762,708,-5.74238,1.40039
-455,316,-5.44745,-1.21899,0,0,0,0,0,0,0,-1,769,708,-5.44746,1.21898
-448,316,-14.8945,0.655396,0,0,0,0,0,0,0,-1,776,708,-14.8946,-0.655396
-441,316,-14.9626,0.576111,0,0,0,0,0,0,0,-1,783,708,-14.9626,-0.576115
-434,316,-27.7723,1.15576,0,0,0,0,0,0,0,-1,790,708,-27.7723,-1.15579
-427,316,-28.0504,1.31427,0,0,0,0,0,0,0,-1,797,708,-28.0504,-1.31427
-420,316,-28.198,1.62891,0,0,0,0,0,0,0,-1,804,708,-28.198,-1.62889
-413,316,0,0,0,0,0,0,0,0,0,-1,811,708,0,0
-406,316,0,0,0,0,0,0,0,0,0,-1,818,708,0,0
-399,316,0,0,0,0,0,0,0,0,0,-1,825,708,0,0
-392,316,0,0,0,0,0,0,0,0,0,-1,832,708,0,0
-385,316,0,0,0,0,0,0,0,0,0,-1,839,708,0,0
-378,316,0,0,0,0,0,0,0,0,0,-1,846,708,0,0
-371,316,0,0,0,0,0,0,0,0,0,-1,853,708,0,0
-364,316,0,0,0,0,0,0,0,0,0,-1,860,708,0,0
-357,316,0,0,0,0,0,0,0,0,0,-1,867,708,0,0
-350,316,0,0,0,0,0,0,0,0,0,-1,874,708,0,0
-343,316,0,0,0,0,0,0,0,0,0,-1,881,708,0,0
-336,316,0,0,0,0,0,0,0,0,0,-1,888,708,0,0
-329,316,0,0,0,0,0,0,0,0,0,-1,895,708,0,0
-322,316,0,0,0,0,0,0,0,0,0,-1,902,708,0,0
-315,316,0,0,0,0,0,0,0,0,0,-1,909,708,0,0
-308,316,0,0,0,0,0,0,0,0,0,-1,916,708,0,0
-301,316,0,0,0,0,0,0,0,0,0,-1,923,708,0,0
-294,316,0,0,0,0,0,0,0,0,0,-1,930,708,0,0
-287,316,0,0,0,0,0,0,0,0,0,-1,937,708,0,0
-280,316,0,0,0,0,0,0,0,0,0,-1,944,708,0,0
-273,316,0,0,0,0,0,0,0,0,0,-1,951,708,0,0
-266,316,0,0,0,0,0,0,0,0,0,-1,958,708,0,0
-259,316,0,0,0,0,0,0,0,0,0,-1,965,708,0,0
-252,316,0,0,0,0,0,0,0,0,0,-1,972,708,0,0
-245,316,0,0,0,0,0,0,0,0,0,-1,979,708,0,0
-238,316,0,0,0,0,0,0,0,0,0,-1,986,708,0,0
-231,316,0,0,0,0,0,0,0,0,0,-1,993,708,0,0
-224,316,0,0,0,0,0,0,0,0,0,-1,1000,708,0,0
-217,316,0,0,0,0,0,0,0,0,0,-1,1007,708,0,0
-210,316,0,0,0,0,0,0,0,0,0,-1,1014,708,0,0
-203,316,0,0,0,0,0,0,0,0,0,-1,1021,708,0,0
-196,316,0,0,0,0,0,0,0,0,0,-1,1028,708,0,0
-189,316,0,0,0,0,0,0,0,0,0,-1,1035,708,0,0
-182,316,0,0,0,0,0,0,0,0,0,-1,1042,708,0,0
-175,316,0,0,0,0,0,0,0,0,0,-1,1049,708,0,0
-168,316,0,0,0,0,0,0,0,0,0,-1,1056,708,0,0
-161,316,0,0,0,0,0,0,0,0,0,-1,1063,708,0,0
-154,316,0,0,0,0,0,0,0,0,0,-1,1070,708,0,0
-147,316,0,0,0,0,0,0,0,0,0,-1,1077,708,0,0
-140,316,0,0,0,0,0,0,0,0,0,-1,1084,708,0,0
-133,316,0,0,0,0,0,0,0,0,0,-1,1091,708,0,0
-126,316,0,0,0,0,0,0,0,0,0,-1,1098,708,0,0
-119,316,0,0,0,0,0,0,0,0,0,-1,1105,708,0,0
-112,316,0,0,0,0,0,0,0,0,0,-1,1112,708,0,0
-105,316,0,0,0,0,0,0,0,0,0,-1,1119,708,0,0
-98,316,0,0,0,0,0,0,0,0,0,-1,1126,708,0,0
-91,316,0,0,0,0,0,0,0,0,0,-1,1133,708,0,0
-84,316,0,0,0,0,0,0,0,0,0,-1,1140,708,0,0
-77,316,0,0,0,0,0,0,0,0,0,-1,1147,708,0,0
-70,316,0,0,0,0,0,0,0,0,0,-1,1154,708,0,0
-63,316,0,0,0,0,0,0,0,0,0,-1,1161,708,0,0
-56,316,0,0,0,0,0,0,0,0,0,-1,1168,708,0,0
-49,316,0,0,0,0,0,0,0,0,0,-1,1175,708,0,0
-42,316,0,0,0,0,0,0,0,0,0,-1,1182,708,0,0
-35,316,0,0,0,0,0,0,0,0,0,-1,1189,708,0,0
-28,316,0,0,0,0,0,0,0,0,0,-1,1196,708,0,0
-21,316,0,0,0,0,0,0,0,0,0,-1,1203,708,0,0
-14,316,0,0,0,0,0,0,0,0,0,-1,1210,708,0,0
-7,316,0,0,0,0,0,0,0,0,0,-1,1217,708,0,0
0,316,0,0,0,0,0,0,0,0,0,-1,1224,708,0,0
7,316,0,0,0,0,0,0,0,0,0,-1,1231,708,0,0
14,316,0,0,0,0,0,0,0,0,0,-1,1238,708,0,0
21,316,0,0,0,0,0,0,0,0,0,-1,1245,708,0,0
28,316,0,0,0,0,0,0,0,0,0,-1,1252,708,0,0
35,316,0,0,0,0,0,0,0,0,0,-1,1259,708,0,0
42,316,0,0,0,0,0,0,0,0,0,-1,1266,708,0,0
49,316,0,0,0,0,0,0,0,0,0,-1,1273,708,0,0
56,316,0,0,0,0,0,0,0,0,0,-1,1280,708,0,0
63,316,0,0,0,0,0,0,0,0,0,-1,1287,708,0,0
70,316,0,0,0,0,0,0,0,0,0,-1,1294,708,0,0
77,316,0,0,0,0,0,0,0,0,0,-1,1301,708,0,0
84,316,0,0,0,0,0,0,0,0,0,-1,1308,708,0,0
91,316,0,0,0,0,0,0,0,0,0,-1,1315,708,0,0
98,316,0,0,0,0,0,0,0,0,0,-1,1322,708,0,0
105,316,0,0,0,0,0,0,0,0,0,-1,1329,708,0,0
112,316,0,0,0,0,0,0,0,0,0,-1,1336,708,0,0
119,316,0,0,0,0,0,0,0,0,0,-1,1343,708,0,0
126,316,0,0,0,0,0,0,0,0,0,-1,1350,708,0,0
133,316,0,0,0,0,0,0,0,0,0,-1,1357,708,0,0
140,316,0,0,0,0,0,0,0,0,0,-1,1364,708,0,0
147,316,0,0,0,0,0,0,0,0,0,-1,1371,708,0,0
154,316,0,0,0,0,0,0,0,0,0,-1,1378,708,0,0
161,316,0,0,0,0,0,0,0,0,0,-1,1385,708,0,0
168,316,0,0,0,0,0,0,0,0,0,-1,1392,708,0,0
175,316,0,0,0,0,0,0,0,0,0,-1,1399,708,0,0
182,316,0,0,0,0,0,0,0,0,0,-1,1406,708,0,0
189,316,0,0,0,0,0,0,0,0,0,-1,1413,708,0,0
196,316,0,0,0,0,0,0,0,0,0,-1,1420,708,0,0
203,316,0,0,0,0,0,0,0,0,0,-1,1427,708,0,0
210,316,0,0,0,0,0,0,0,0,0,-1,1434,708,0,0
217,316,0,0,0,0,0,0,0,0,0,-1,1441,708,0,0
224,316,0,0,0,0,0,0,0,0,0,-1,1448,708,0,0
231,316,0,0,0,0,0,0,0,0,0,-1,1455,708,0,0
238,316,0,0,0,0,0,0,0,0,0,-1,1462,708,0,0
245,316,0,0,0,0,0,0,0,0,0,-1,1469,708,0,0
252,316,0,0,0,0,0,0,0,0,0,-1,1476,708,0,0
259,316,0,0,0,0,0,0,0,0,0,-1,1483,708,0,0
266,316,0,0,0,0,0,0,0,0,0,-1,1490,708,0,0
273,316,0,0,0,0,0,0,0,0,0,-1,1497,708,0,0
280,316,0,0,0,0,0,0,0,0,0,-1,1504,708,0,0
287,316,0,0,0,0,0,0,0,0,0,-1,1511,708,0,0
294,316,0,0,0,0,0,0,0,0,0,-1,1518,708,0,0
301,316,0,0,0,0,0,0,0,0,0,-1,1525,708,0,0
308,316,0,0,0,0,0,0,0,0,0,-1,1532,708,0,0
315,316,0,0,0,0,0,0,0,0,0,-1,1539,708,0,0
322,316,0,0,0,0,0,0,0,0,0,-1,1546,708,0,0
329,316,0,0,0,0,0,0,0,0,0,-1,1553,708,0,0
336,316,0,0,0,0,0,0,0,0,0,-1,1560,708,0,0
343,316,0,0,0,0,0,0,0,0,0,-1,1567,708,0,0
350,316,0,0,0,0,0,0,0,0,0,-1,1574,708,0,0
357,316,0,0,0,0,0,0,0,0,0,-1,1581,708,0,0
364,316,0,0,0,0,0,0,0,0,0,-1,1588,708,0,0
371,316,0,0,0,0,0,0,0,0,0,-1,1595,708,0,0
378,316,0,0,0,0,0,0,0,0,0,-1,1602,708,0,0
385,316,0,0,0,0,0,0,0,0,0,-1,1609,708,0,0
392,316,0,0,0,0,0,0,0,0,0,-1,1616,708,0,0
399,316,0,0,0,0,0,0,0,0,0,-1,1623,708,0,0
406,316,0,0,0,0,0,0,0,0,0,-1,1630,708,0,0
413,316,0,0,0,0,0,0,0,0,0,-1,1637,708,0,0
420,316,0,0,0,0,0,0,0,0,0,-1,1644,708,0,0
427,316,0,0,0,0,0,0,0,0,0,-1,1651,708,0,0
434,316,0,0,0,0,0,0,0,0,0,-1,1658,708,0,0
441,316,0,0,0,0,0,0,0,0,0,-1,1665,708,0,0
448,316,0,0,0,0,0,0,0,0,0,-1,1672,708,0,0
455,316,0,0,0,0,0,0,0,0,0,-1,1679,708,0,0
462,316,0,0,0,0,0,0,0,0,0,-1,1686,708,0,0
469,316,0,0,0,0,0,0,0,0,0,-1,1693,708,0,0
476,316,0,0,0,0,0,0,0,0,0,-1,1700,708,0,0
483,316,0,0,0,0,0,0,0,0,0,-1,1707,708,0,0
490,316,0,0,0,0,0,0,0,0,0,-1,1714,708,0,0
497,316,0,0,0,0,0,0,0,0,0,-1,1721,708,0,0
504,316,0,0,0,0,0,0,0,0,0,-1,1728,708,0,0
511,316,0,0,0,0,0,0,0,0,0,-1,1735,708,0,0
518,316,0,0,0,0,0,0,0,0,0,-1,1742,708,0,0
525,316,0,0,0,0,0,0,0,0,0,-1,1749,708,0,0
532,316,33.8604,0.531128,0,0,0,0,0,0,0,-1,1756,708,33.8604,-0.531151
539,316,44.4543,2.73468,0,0,0,0,0,0,0,-1,1763,708,44.4543,-2.7347
546,316,44.713,3.35498,0,0,0,0,0,0,0,-1,1770,708,44.7131,-3.35501
553,316,39.9031,6.57275,0,0,0,0,0,0,0,-1,1777,708,39.9031,-6.57274
560,316,39.1196,1.10046,0,0,0,0,0,0,0,-1,1784,708,39.1197,-1.10048
567,316,47.3683,6.04919,0,0,0,0,0,0,0,-1,1791,708,47.3683,-6.04918
574,316,45.9872,6.7655,0,0,0,0,0,0,0,-1,1798,708,45.9871,-6.76552
581,316,24.6815,7.77496,0,0,0,0,0,0,0,-1,1805,708,24.6815,-7.77499
588,316,19.7659,2.90198,0,0,0,0,0,0,0,-1,1812,708,19.7659,-2.902
595,316,12.5363,1.50702,0,0,0,0,0,0,0,-1,1819,708,12.5363,-1.50701
602,316,7.79919,0.0422363,0,0,0,0,0,0,0,-1,1826,708,7.79923,-0.0422066
609,316,34.7227,-8.29498,0,0,0,0,0,0,0,-1,1833,708,34.7227,8.29498
616,316,34.885,-7.55176,0.00275435,-0.000769466,0.000374196,0.00279365,-0.000808764,0.104636,0.00218256,0.0142402,1840,708,34.885,7.55178
623,316,34.8815,-6.82568,0.00229736,-0.000533828,0.000340372,0.00233771,-0.000574173,0.117983,0.00178099,0.0108086,1847,708,34.8815,6.82569
630,316,34.829,-6.11646,0.0020453,-0.000264405,0.000450603,0.00213009,-0.000349201,0.186007,0.00154963,0.0126648,1854,708,34.829,6.11647
637,316,34.8103,-5.33197,0.00186656,0.000111906,0.000625645,0.00206679,-8.83261e-05,0.309741,0.00140823,0.0123758,1861,708,34.8104,5.332
644,316,34.793,-4.55756,0.00175745,0.000569349,0.000853925,0.00220364,0.000123167,0.48149,0.0014298,0.0124957,1868,708,34.793,4.55757
651,316,34.731,-3.80707,0.00171275,0.00112597,0.00113112,0.00258792,0.000250809,0.658504,0.00164805,0.0158932,1875,708,34.731,3.80707
658,316,34.6732,-3.0365,0.00174117,0.00179343,0.00144706,0.0032146,0.000320003,0.794426,0.00204476,0.0310038,1882,708,34.6732,3.03653
665,316,34.5973,-2.27618,0.00192615,0.00257819,0.00186532,0.00414577,0.000358575,0.871914,0.00265241,0.0222351,1889,708,34.5973,2.27616
672,316,34.6006,-1.51379,0.00224089,0.00353052,0.00232453,0.00529801,0.000473402,0.920694,0.00338526,0.0135073,1896,708,34.6006,1.51379
679,316,34.6061,-0.709351,0,0,0,0,0,0,0,-1,1903,708,34.6061,0.709366
686,316,34.0828,0.223206,0,0,0,0,0,0,0,-1,1910,708,34.0828,-0.223183
693,316,26.4315,1.80652,0,0,0,0,0,0,0,-1,1917,708,26.4315,-1.80651
700,316,12.8749,2.89136,0,0,0,0,0,0,0,-1,1924,708,12.8748,-2.89137
707,316,15.7089,5.41486,0,0,0,0,0,0,0,-1,1931,708,15.7088,-5.41487
714,316,16.1727,5.52045,0,0,0,0,0,0,0,-1,1938,708,16.1728,-5.52042
721,316,16.7094,6.53351,0,0,0,0,0,0,0,-1,1945,708,16.7094,-6.5335
728,316,0,0,0,0,0,0,0,0,0,-1,1952,708,0,0
735,316,0,0,0,0,0,0,0,0,0,-1,1959,708,0,0
742,316,0,0,0,0,0,0,0,0,0,-1,1966,708,0,0
749,316,0,0,0,0,0,0,0,0,0,-1,1973,708,0,0
756,316,0,0,0,0,0,0,0,0,0,-1,1980,708,0,0
763,316,0,0,0,0,0,0,0,0,0,-1,1987,708,0,0
770,316,0,0,0,0,0,0,0,0,0,-1,1994,708,0,0
777,316,0,0,0,0,0,0,0,0,0,-1,2001,708,0,0
784,316,0,0,0,0,0,0,0,0,0,-1,2008,708,0,0
791,316,0,0,0,0,0,0,0,0,0,-1,2015,708,0,0
798,316,0,0,0,0,0,0,0,0,0,-1,2022,708,0,0
805,316,0,0,0,0,0,0,0,0,0,-1,2029,708,0,0
812,316,0,0,0,0,0,0,0,0,0,-1,2036,708,0,0
-700,309,0,0,0,0,0,0,0,0,0,-1,524,715,0,0
-693,309,0,0,0,0,0,0,0,0,0,-1,531,715,0,0
-686,309,0,0,0,0,0,0,0,0,0,-1,538,715,0,0
-679,309,0,0,0,0,0,0,0,0,0,-1,545,715,0,0
-672,309,0,0,0,0,0,0,0,0,0,-1,552,715,0,0
-665,309,0,0,0,0,0,0,0,0,0,-1,559,715,0,0
-658,309,0,0,0,0,0,0,0,0,0,-1,566,715,0,0
-651,309,0,0,0,0,0,0,0,0,0,-1,573,715,0,0
-644,309,0,0,0,0,0,0,0,0,0,-1,580,715,0,0
-637,309,0,0,0,0,0,0,0,0,0,-1,587,715,0,0
-630,309,0,0,0,0,0,0,0,0,0,-1,594,715,0,0
-623,309,0,0,0,0,0,0,0,0,0,-1,601,715,0,0
-616,309,0,0,0,0,0,0,0,0,0,-1,608,715,0,0
-609,309,-5.95392,-3.93689,0,0,0,0,0,0,0,-1,615,715,-5.95392,3.93686
-602,309,-4.99786,-3.31287,0,0,0,0,0,0,0,-1,622,715,-4.99786,3.31284
-595,309,-6.80847,2.4046,0,0,0,0,0,0,0,-1,629,715,-6.80845,-2.40458
-588,309,-6.08795,2.19324,0,0,0,0,0,0,0,-1,636,715,-6.08793,-2.19325
-581,309,-5.97552,1.3277,0,0,0,0,0,0,0,-1,643,715,-5.97552,-1.32769
-574,309,-8.73602,0.208435,0,0,0,0,0,0,0,-1,650,715,-8.73604,-0.208437
-567,309,-10.3909,0.85968,0,0,0,0,0,0,0,-1,657,715,-10.3909,-0.859696
-560,309,-18.6088,-1.73389,0,0,0,0,0,0,0,-1,664,715,-18.6088,1.73389
-553,309,-22.6186,-2.23663,0,0,0,0,0,0,0,-1,671,715,-22.6186,2.23661
-546,309,-22.4771,-2.98132,0.00240159,0.0027534,-0.000862496,0.00345775,0.00169725,-0.885992,0.00199644,0.0297559,678,715,-22.477,2.98134
-539,309,-22.3816,-3.74719,0.00229848,0.00181749,-0.000630851,0.00273312,0.00138285,-0.603293,0.001578,0.0158352,685,715,-22.3816,3.74722
-532,309,-22.384,-4.47217,0.00199341,0.000999629,-0.000342716,0.00210014,0.000892902,-0.301896,0.00121704,0.012307,692,715,-22.384,4.47215
-525,309,-22.4339,-5.20984,0.0015967,0.000260151,-1.6212e-05,0.0015969,0.000259954,-0.0121273,0.000989399,0.0151748,699,715,-22.4339,5.20986
-518,309,-22.4821,-5.93036,0.00120973,-0.000291398,0.000329636,0.00127892,-0.000360594,0.206912,0.000994842,0.0160748,706,715,-22.4821,5.93035
-511,309,-22.5243,-6.64264,0.000734848,-0.000760619,0.000681295,0.000998682,-0.00102445,0.36947,0.00116809,0.0132961,713,715,-22.5243,6.64265
-504,309,-22.5523,-7.41351,0.000206269,-0.00111442,0.00107211,0.00080508,-0.00171323,0.509373,0.00148512,0.0110311,720,715,-22.5523,7.41351
-497,309,-22.5823,-8.11835,-0.00021211,-0.00129346,0.00138073,0.000730034,-0.0022356,0.598782,0.00178424,0.0153277,727,715,-22.5824,8.11834
-490,309,-22.5004,-8.90448,0,0,0,0,0,0,0,-1,734,715,-22.5003,8.90448
-483,309,-17.7261,-7.75836,0,0,0,0,0,0,0,-1,741,715,-17.7261,7.75839
-476,309,-5.29486,-1.2262,0,0,0,0,0,0,0,-1,748,715,-5.29484,1.22622
-469,309,-4.22717,-0.592896,0,0,0,0,0,0,0,-1,755,715,-4.2272,0.592905
-462,309,-10.428,2.46948,0,0,0,0,0,0,0,-1,762,715,-10.428,-2.46947
-455,309,-15.8216,0.00915527,0,0,0,0,0,0,0,-1,769,715,-15.8216,-0.00913359
-448,309,-37.3543,-1.02441,0,0,0,0,0,0,0,-1,776,715,-37.3543,1.02444
-441,309,-19.8181,1.4425,0,0,0,0,0,0,0,-1,783,715,-19.8181,-1.44249
-434,309,-28.3196,0.95105,0,0,0,0,0,0,0,-1,790,715,-28.3196,-0.951068
-427,309,-27.8553,1.40332,0,0,0,0,0,0,0,-1,797,715,-27.8553,-1.40334
-420,309,-27.3148,1.90747,0,0,0,0,0,0,0,-1,804,715,-27.3148,-1.90745
-413,309,0,0,0,0,0,0,0,0,0,-1,811,715,0,0
-406,309,0,0,0,0,0,0,0,0,0,-1,818,715,0,0
-399,309,0,0,0,0,0,0,0,0,0,-1,825,715,0,0
-392,309,0,0,0,0,0,0,0,0,0,-1,832,715,0,0
-385,309,0,0,0,0,0,0,0,0,0,-1,839,715,0,0
-378,309,0,0,0,0,0,0,0,0,0,-1,846,715,0,0
-371,309,0,0,0,0,0,0,0,0,0,-1,853,715,0,0
-364,309,0,0,0,0,0,0,0,0,0,-1,860,715,0,0
-357,309,0,0,0,0,0,0,0,0,0,-1,867,715,0,0
-350,309,0,0,0,0,0,0,0,0,0,-1,874,715,0,0
-343,309,0,0,0,0,0,0,0,0,0,-1,881,715,0,0
-336,309,0,0,0,0,0,0,0,0,0,-1,888,715,0,0
-329,309,0,0,0,0,0,0,0,0,0,-1,895,715,0,0
-322,309,0,0,0,0,0,0,0,0,0,-1,902,715,0,0
-315,309,0,0,0,0,0,0,0,0,0,-1,909,715,0,0
-308,309,0,0,0,0,0,0,0,0,0,-1,916,715,0,0
-301,309,0,0,0,0,0,0,0,0,0,-1,923,715,0,0
-294,309,0,0,0,0,0,0,0,0,0,-1,930,715,0,0
-287,309,0,0,0,0,0,0,0,0,0,-1,937,715,0,0
-280,309,0,0,0,0,0,0,0,0,0,-1,944,715,0,0
-273,309,0,0,0,0,0,0,0,0,0,-1,951,715,0,0
-266,309,0,0,0,0,0,0,0,0,0,-1,958,715,0,0
-259,309,0,0,0,0,0,0,0,0,0,-1,965,715,0,0
-252,309,0,0,0,0,0,0,0,0,0,-1,972,715,0,0
-245,309,0,0,0,0,0,0,0,0,0,-1,979,715,0,0
-238,309,0,0,0,0,0,0,0,0,0,-1,986,715,0,0
-231,309,0,0,0,0,0,0,0,0,0,-1,993,715,0,0
-224,309,0,0,0,0,0,0,0,0,0,-1,1000,715,0,0
-217,309,0,0,0,0,0,0,0,0,0,-1,1007,715,0,0
-210,309,0,0,0,0,0,0,0,0,0,-1,1014,715,0,0
-203,309,0,0,0,0,0,0,0,0,0,-1,1021,715,0,0
-196,309,0,0,0,0,0,0,0,0,0,-1,1028,715,0,0
-189,309,0,0,0,0,0,0,0,0,0,-1,1035,715,0,0
-182,309,0,0,0,0,0,0,0,0,0,-1,1042,715,0,0
-175,309,0,0,0,0,0,0,0,0,0,-1,1049,715,0,0
-168,309,0,0,0,0,0,0,0,0,0,-1,1056,715,0,0
-161,309,0,0,0,0,0,0,0,0,0,-1,1063,715,0,0
-154,309,0,0,0,0,0,0,0,0,0,-1,1070,715,0,0
-147,309,0,0,0,0,0,0,0,0,0,-1,1077,715,0,0
-140,309,0,0,0,0,0,0,0,0,0,-1,1084,715,0,0
-133,309,0,0,0,0,0,0,0,0,0,-1,1091,715,0,0
-126,309,0,0,0,0,0,0,0,0,0,-1,1098,715,0,0
-119,309,0,0,0,0,0,0,0,0,0,-1,1105,715,0,0
-112,309,0,0,0,0,0,0,0,0,0,-1,1112,715,0,0
-105,309,0,0,0,0,0,0,0,0,0,-1,1119,715,0,0
-98,309,0,0,0,0,0,0,0,0,0,-1,1126,715,0,0
-91,309,0,0,0,0,0,0,0,0,0,-1,1133,715,0,0
-84,309,0,0,0,0,0,0,0,0,0,-1,1140,715,0,0
-77,309,0,0,0,0,0,0,0,0,0,-1,1147,715,0,0
-70,309,0,0,0,0,0,0,0,0,0,-1,1154,715,0,0
-63,309,0,0,0,0,0,0,0,0,0,-1,1161,715,0,0
-56,309,0,0,0,0,0,0,0,0,0,-1,1168,715,0,0
-49,309,0,0,0,0,0,0,0,0,0,-1,1175,715,0,0
-42,309,0,0,0,0,0,0,0,0,0,-1,1182,715,0,0
-35,309,0,0,0,0,0,0,0,0,0,-1,1189,715,0,0
-28,309,0,0,0,0,0,0,0,0,0,-1,1196,715,0,0
-21,309,0,0,0,0,0,0,0,0,0,-1,1203,715,0,0
-14,309,0,0,0,0,0,0,0,0,0,-1,1210,715,0,0
-7,309,0,0,0,0,0,0,0,0,0,-1,1217,715,0,0
0,309,0,0,0,0,0,0,0,0,0,-1,1224,715,0,0
7,309,0,0,0,0,0,0,0,0,0,-1,1231,715,0,0
14,309,0,0,0,0,0,0,0,0,0,-1,1238,715,0,0
21,309,0,0,0,0,0,0,0,0,0,-1,1245,715,0,0
28,309,0,0,0,0,0,0,0,0,0,-1,1252,715,0,0
35,309,0,0,0,0,0,0,0,0,0,-1,1259,715,0,0
42,309,0,0,0,0,0,0,0,0,0,-1,1266,715,0,0
49,309,0,0,0,0,0,0,0,0,0,-1,1273,715,0,0
56,309,0,0,0,0,0,0,0,0,0,-1,1280,715,0,0
63,309,0,0,0,0,0,0,0,0,0,-1,1287,715,0,0
70,309,0,0,0,0,0,0,0,0,0,-1,1294,715,0,0
77,309,0,0,0,0,0,0,0,0,0,-1,1301,715,0,0
84,309,0,0,0,0,0,0,0,0,0,-1,1308,715,0,0
91,309,0,0,0,0,0,0,0,0,0,-1,1315,715,0,0
98,309,0,0,0,0,0,0,0,0,0,-1,1322,715,0,0
105,309,0,0,0,0,0,0,0,0,0,-1,1329,715,0,0
112,309,0,0,0,0,0,0,0,0,0,-1,1336,715,0,0
119,309,0,0,0,0,0,0,0,0,0,-1,1343,715,0,0
126,309,0,0,0,0,0,0,0,0,0,-1,1350,715,0,0
133,309,0,0,0,0,0,0,0,0,0,-1,1357,715,0,0
140,309,0,0,0,0,0,0,0,0,0,-1,1364,715,0,0
147,309,0,0,0,0,0,0,0,0,0,-1,1371,715,0,0
154,309,0,0,0,0,0,0,0,0,0,-1,1378,715,0,0
161,309,0,0,0,0,0,0,0,0,0,-1,1385,715,0,0
168,309,0,0,0,0,0,0,0,0,0,-1,1392,715,0,0
175,309,0,0,0,0,0,0,0,0,0,-1,1399,715,0,0
182,309,0,0,0,0,0,0,0,0,0,-1,1406,715,0,0
189,309,0,0,0,0,0,0,0,0,0,-1,1413,715,0,0
196,309,0,0,0,0,0,0,0,0,0,-1,1420,715,0,0
203,309,0,0,0,0,0,0,0,0,0,-1,1427,715,0,0
210,309,0,0,0,0,0,0,0,0,0,-1,1434,715,0,0
217,309,0,0,0,0,0,0,0,0,0,-1,1441,715,0,0
224,309,0,0,0,0,0,0,0,0,0,-1,1448,715,0,0
231,309,0,0,0,0,0,0,0,0,0,-1,1455,715,0,0
238,309,0,0,0,0,0,0,0,0,0,-1,1462,715,0,0
245,309,0,0,0,0,0,0,0,0,0,-1,1469,715,0,0
252,309,0,0,0,0,0,0,0,0,0,-1,1476,715,0,0
259,309,0,0,0,0,0,0,0,0,0,-1,1483,715,0,0
266,309,0,0,0,0,0,0,0,0,0,-1,1490,715,0,0
273,309,0,0,0,0,0,0,0,0,0,-1,1497,715,0,0
280,309,0,0,0,0,0,0,0,0,0,-1,1504,715,0,0
287,309,0,0,0,0,0,0,0,0,0,-1,1511,715,0,0
294,309,0,0,0,0,0,0,0,0,0,-1,1518,715,0,0
301,309,0,0,0,0,0,0,0,0,0,-1,1525,715,0,0
308,309,0,0,0,0,0,0,0,0,0,-1,1532,715,0,0
315,309,0,0,0,0,0,0,0,0,0,-1,1539,715,0,0
322,309,0,0,0,0,0,0,0,0,0,-1,1546,715,0,0
329,309,0,0,0,0,0,0,0,0,0,-1,1553,715,0,0
336,309,0,0,0,0,0,0,0,0,0,-1,1560,715,0,0
343,309,0,0,0,0,0,0,0,0,0,-1,1567,715,0,0
350,309,0,0,0,0,0,0,0,0,0,-1,1574,715,0,0
357,309,0,0,0,0,0,0,0,0,0,-1,1581,715,0,0
364,309,0,0,0,0,0,0,0,0,0,-1,1588,715,0,0
371,309,0,0,0,0,0,0,0,0,0,-1,1595,715,0,0
378,309,0,0,0,0,0,0,0,0,0,-1,1602,715,0,0
385,309,0,0,0,0,0,0,0,0,0,-1,1609,715,0,0
392,309,0,0,0,0,0,0,0,0,0,-1,1616,715,0,0
399,309,0,0,0,0,0,0,0,0,0,-1,1623,715,0,0
406,309,0,0,0,0,0,0,0,0,0,-1,1630,715,0,0
413,309,0,0,0,0,0,0,0,0,0,-1,1637,715,0,0
420,309,0,0,0,0,0,0,0,0,0,-1,1644,715,0,0
427,309,0,0,0,0,0,0,0,0,0,-1,1651,715,0,0
434,309,0,0,0,0,0,0,0,0,0,-1,1658,715,0,0
441,309,0,0,0,0,0,0,0,0,0,-1,1665,715,0,0
448,309,0,0,0,0,0,0,0,0,0,-1,1672,715,0,0
455,309,0,0,0,0,0,0,0,0,0,-1,1679,715,0,0
462,309,0,0,0,0,0,0,0,0,0,-1,1686,715,0,0
469,309,0,0,0,0,0,0,0,0,0,-1,1693,715,0,0
476,309,0,0,0,0,0,0,0,0,0,-1,1700,715,0,0
483,309,0,0,0,0,0,0,0,0,0,-1,1707,715,0,0
490,309,0,0,0,0,0,0,0,0,0,-1,1714,715,0,0
497,309,0,0,0,0,0,0,0,0,0,-1,1721,715,0,0
504,309,0,0,0,0,0,0,0,0,0,-1,1728,715,0,0
511,309,0,0,0,0,0,0,0,0,0,-1,1735,715,0,0
518,309,0,0,0,0,0,0,0,0,0,-1,1742,715,0,0
525,309,0,0,0,0,0,0,0,0,0,-1,1749,715,0,0
532,309,0,0,0,0,0,0,0,0,0,-1,1756,715,0,0
539,309,44.2073,2.66235,0,0,0,0,0,0,0,-1,1763,715,44.2073,-2.66238
546,309,44.4976,3.25531,0,0,0,0,0,0,0,-1,1770,715,44.4976,-3.25533
553,309,47.9611,4.06433,0,0,0,0,0,0,0,-1,1777,715,47.9611,-4.06434
560,309,47.9784,4.64801,0,0,0,0,0,0,0,-1,1784,715,47.9784,-4.64799
567,309,47.0073,5.43121,0,0,0,0,0,0,0,-1,1791,715,47.0073,-5.43121
574,309,45.8746,6.53271,0,0,0,0,0,0,0,-1,1798,715,45.8747,-6.53269
581,309,45.0629,7.73468,0,0,0,0,0,0,0,-1,1805,715,45.0629,-7.73471
588,309,26.2064,7.76422,0,0,0,0,0,0,0,-1,1812,715,26.2064,-7.7642
595,309,19.585,3.71558,0,0,0,0,0,0,0,-1,1819,715,19.5849,-3.71555
602,309,11.0811,3.47772,0,0,0,0,0,0,0,-1,1826,715,11.0811,-3.47772
609,309,35.6765,-8.25439,0,0,0,0,0,0,0,-1,1833,715,35.6765,8.2544
616,309,35.6653,-7.51581,0.00294177,-0.000993728,0.000264144,0.00295942,-0.00101138,0.0667194,0.00238273,0.0250273,1840,715,35.6653,7.51581
623,309,35.6292,-6.78625,0.0023341,-0.000699898,0.000255647,0.00235549,-0.000721289,0.0834763,0.00185803,0.0114054,1847,715,35.6292,6.78626
630,309,35.5679,-6.06232,0.00200018,-0.000439774,0.000372034,0.00205565,-0.000495239,0.147997,0.0015619,0.0112932,1854,715,35.5679,6.06231
637,309,35.532,-5.28571,0.00176266,-8.7023e-05,0.000540593,0.00190907,-0.00023343,0.264482,0.00135723,0.0137235,1861,715,35.532,5.28569
644,309,35.4879,-4.51093,0.00162017,0.000363657,0.000757131,0.00197576,8.06735e-06,0.439078,0.00131449,0.01424,1868,715,35.4879,4.51094
651,309,35.475,-3.76093,0.00155587,0.000884413,0.00100961,0.00228411,0.00015617,0.624884,0.00147344,0.0135222,1875,715,35.4749,3.76093
658,309,35.4324,-3.01215,0.00157883,0.00152211,0.00129472,0.0028455,0.000255441,0.774448,0.00181785,0.0197144,1882,715,35.4324,3.01215
665,309,35.4269,-2.25916,0.00175478,0.00228892,0.00167089,0.00371394,0.000329754,0.864647,0.00237369,0.0172176,1889,715,35.4269,2.25915
672,309,35.3575,-1.49237,0.0020544,0.00320354,0.00210527,0.00481124,0.000446704,0.918613,0.00306944,0.0146013,1896,715,35.3575,1.49238
679,309,35.3462,-0.651062,0.00242455,0.00431544,0.00262585,0.00616086,0.000579132,0.958199,0.00392845,0.0256662,1903,715,35.3462,0.651072
686,309,35.339,0.175903,0,0,0,0,0,0,0,-1,1910,715,35.339,-0.175884
693,309,32.7026,1.51727,0,0,0,0,0,0,0,-1,1917,715,32.7026,-1.51727
700,309,23.0179,3.08337,0,0,0,0,0,0,0,-1,1924,715,23.018,-3.08336
707,309,15.6318,4.58655,0,0,0,0,0,0,0,-1,1931,715,15.6318,-4.58657
714,309,16.7573,6.68286,0,0,0,0,0,0,0,-1,1938,715,16.7574,-6.68284
721,309,16.8337,5.4458,0,0,0,0,0,0,0,-1,1945,715,16.8338,-5.44582
728,309,0,0,0,0,0,0,0,0,0,-1,1952,715,0,0
735,309,0,0,0,0,0,0,0,0,0,-1,1959,715,0,0
742,309,0,0,0,0,0,0,0,0,0,-1,1966,715,0,0
749,309,0,0,0,0,0,0,0,0,0,-1,1973,715,0,0
756,309,0,0,0,0,0,0,0,0,0,-1,1980,715,0,0
763,309,0,0,0,0,0,0,0,0,0,-1,1987,715,0,0
770,309,0,0,0,0,0,0,0,0,0,-1,1994,715,0,0
777,309,0,0,0,0,0,0,0,0,0,-1,2001,715,0,0
784,309,0,0,0,0,0,0,0,0,0,-1,2008,715,0,0
791,309,0,0,0,0,0,0,0,0,0,-1,2015,715,0,0
798,309,0,0,0,0,0,0,0,0,0,-1,2022,715,0,0
805,309,0,0,0,0,0,0,0,0,0,-1,2029,715,0,0
812,309,0,0,0,0,0,0,0,0,0,-1,2036,715,0,0
-700,302,0,0,0,0,0,0,0,0,0,-1,524,722,0,0
-693,302,0,0,0,0,0,0,0,0,0,-1,531,722,0,0
-686,302,0,0,0,0,0,0,0,0,0,-1,538,722,0,0
-679,302,0,0,0,0,0,0,0,0,0,-1,545,722,0,0
-672,302,0,0,0,0,0,0,0,0,0,-1,552,722,0,0
-665,302,0,0,0,0,0,0,0,0,0,-1,559,722,0,0
-658,302,0,0,0,0,0,0,0,0,0,-1,566,722,0,0
-651,302,0,0,0,0,0,0,0,0,0,-1,573,722,0,0
-644,302,0,0,0,0,0,0,0,0,0,-1,580,722,0,0
-637,302,0,0,0,0,0,0,0,0,0,-1,587,722,0,0
-630,302,0,0,0,0,0,0,0,0,0,-1,594,722,0,0
-623,302,0,0,0,0,0,0,0,0,0,-1,601,722,0,0
-616,302,0,0,0,0,0,0,0,0,0,-1,608,722,0,0
-609,302,-7.79266,-3.71649,0,0,0,0,0,0,0,-1,615,722,-7.79267,3.7165
-602,302,0.92865,-1.99158,0,0,0,0,0,0,0,-1,622,722,0.928637,1.99157
-595,302,-7.89941,2.13641,0,0,0,0,0,0,0,-1,629,722,-7.89939,-2.13639
-588,302,-7.10895,1.79163,0,0,0,0,0,0,0,-1,636,722,-7.10896,-1.79163
-581,302,-9.17566,1.09448,0,0,0,0,0,0,0,-1,643,722,-9.17569,-1.09445
-574,302,-11.5183,-0.344543,0,0,0,0,0,0,0,-1,650,722,-11.5183,0.344557
-567,302,-12.1534,-0.672241,0,0,0,0,0,0,0,-1,657,722,-12.1535,0.672246
-560,302,-23.2017,-1.43787,0,0,0,0,0,0,0,-1,664,722,-23.2017,1.43786
-553,302,-23.1059,-2.19781,0.00138461,0.00353907,-0.000719796,0.00375742,0.00116626,-1.27627,0.00222073,0.0313054,671,722,-23.1059,2.19781
-546,302,-23.1279,-2.99628,0.00159037,0.00231544,-0.000569209,0.00262776,0.00127805,-1.06896,0.00151733,0.0167482,678,722,-23.1279,2.99629
-539,302,-23.1426,-3.69202,0.00156427,0.00143159,-0.000335778,0.0018402,0.00115566,-0.687868,0.00107398,0.0156221,685,722,-23.1426,3.69204
-532,302,-23.1301,-4.42828,0.00131658,0.000662461,-3.59314e-05,0.00131855,0.000660493,-0.0547112,0.000761267,0.0151152,692,722,-23.1301,4.42831
-525,302,-23.1478,-5.19733,0.000972602,-5.35356e-05,0.000287221,0.00104753,-0.00012846,0.255172,0.000744872,0.0201471,699,722,-23.1478,5.19732
-518,302,-23.1996,-5.89435,0.00061679,-0.000582404,0.000643372,0.00089665,-0.000862263,0.410301,0.00101557,0.0211765,706,722,-23.1996,5.89432
-511,302,-23.2448,-6.60217,0.000124213,-0.00103991,0.00103629,0.000730722,-0.00164642,0.529516,0.00140598,0.0110752,713,722,-23.2448,6.60217
-504,302,-23.2777,-7.35675,-0.000432455,-0.00138408,0.00147252,0.000639217,-0.00245575,0.629129,0.00188669,0.0105072,720,722,-23.2777,7.35673
-497,302,-23.353,-8.07074,-0.000867114,-0.00153627,0.00182508,0.000653803,-0.00305718,0.694744,0.00228742,0.0161463,727,722,-23.3531,8.07075
-490,302,-23.4407,-8.77295,0,0,0,0,0,0,0,-1,734,722,-23.4407,8.77295
-483,302,-9.53412,-3.1673,0,0,0,0,0,0,0,-1,741,722,-9.53411,3.1673
-476,302,-4.29749,-0.203491,0,0,0,0,0,0,0,-1,748,722,-4.29751,0.203464
-469,302,-12.369,1.42859,0,0,0,0,0,0,0,-1,755,722,-12.3689,-1.42857
-462,302,-17.4766,0.310791,0,0,0,0,0,0,0,-1,762,722,-17.4766,-0.310788
-455,302,-36.7368,-2.97418,0,0,0,0,0,0,0,-1,769,722,-36.7368,2.97416
-448,302,-42.1174,-1.44232,0,0,0,0,0,0,0,-1,776,722,-42.1174,1.44229
-441,302,-42.171,-0.834961,0,0,0,0,0,0,0,-1,783,722,-42.171,0.834972
-434,302,-42.7626,-0.210876,0,0,0,0,0,0,0,-1,790,722,-42.7626,0.210888
-427,302,-27.1735,1.81506,0,0,0,0,0,0,0,-1,797,722,-27.1735,-1.81504
-420,302,0,0,0,0,0,0,0,0,0,-1,804,722,0,0
-413,302,0,0,0,0,0,0,0,0,0,-1,811,722,0,0
-406,302,0,0,0,0,0,0,0,0,0,-1,818,722,0,0
-399,302,0,0,0,0,0,0,0,0,0,-1,825,722,0,0
-392,302,0,0,0,0,0,0,0,0,0,-1,832,722,0,0
-385,302,0,0,0,0,0,0,0,0,0,-1,839,722,0,0
-378,302,0,0,0,0,0,0,0,0,0,-1,846,722,0,0
-371,302,0,0,0,0,0,0,0,0,0,-1,853,722,0,0
-364,302,0,0,0,0,0,0,0,0,0,-1,860,722,0,0
-357,302,0,0,0,0,0,0,0,0,0,-1,867,722,0,0
-350,302,0,0,0,0,0,0,0,0,0,-1,874,722,0,0
-343,302,0,0,0,0,0,0,0,0,0,-1,881,722,0,0
-336,302,0,0,0,0,0,0,0,0,0,-1,888,722,0,0
-329,302,0,0,0,0,0,0,0,0,0,-1,895,722,0,0
-322,302,0,0,0,0,0,0,0,0,0,-1,902,722,0,0
-315,302,0,0,0,0,0,0,0,0,0,-1,909,722,0,0
-308,302,0,0,0,0,0,0,0,0,0,-1,916,722,0,0
-301,302,0,0,0,0,0,0,0,0,0,-1,923,722,0,0
-294,302,0,0,0,0,0,0,0,0,0,-1,930,722,0,0
-287,302,0,0,0,0,0,0,0,0,0,-1,937,722,0,0
-280,302,0,0,0,0,0,0,0,0,0,-1,944,722,0,0
-273,302,0,0,0,0,0,0,0,0,0,-1,951,722,0,0
-266,302,0,0,0,0,0,0,0,0,0,-1,958,722,0,0
-259,302,0,0,0,0,0,0,0,0,0,-1,965,722,0,0
-252,302,0,0,0,0,0,0,0,0,0,-1,972,722,0,0
-245,302,0,0,0,0,0,0,0,0,0,-1,979,722,0,0
-238,302,0,0,0,0,0,0,0,0,0,-1,986,722,0,0
-231,302,0,0,0,0,0,0,0,0,0,-1,993,722,0,0
-224,302,0,0,0,0,0,0,0,0,0,-1,1000,722,0,0
-217,302,0,0,0,0,0,0,0,0,0,-1,1007,722,0,0
-210,302,0,0,0,0,0,0,0,0,0,-1,1014,722,0,0
-203,302,0,0,0,0,0,0,0,0,0,-1,1021,722,0,0
-196,302,0,0,0,0,0,0,0,0,0,-1,1028,722,0,0
-189,302,0,0,0,0,0,0,0,0,0,-1,1035,722,0,0
-182,302,0,0,0,0,0,0,0,0,0,-1,1042,722,0,0
-175,302,0,0,0,0,0,0,0,0,0,-1,1049,722,0,0
-168,302,0,0,0,0,0,0,0,0,0,-1,1056,722,0,0
-161,302,0,0,0,0,0,0,0,0,0,-1,1063,722,0,0
-154,302,0,0,0,0,0,0,0,0,0,-1,1070,722,0,0
-147,302,0,0,0,0,0,0,0,0,0,-1,1077,722,0,0
-140,302,0,0,0,0,0,0,0,0,0,-1,1084,722,0,0
-133,302,0,0,0,0,0,0,0,0,0,-1,1091,722,0,0
-126,302,0,0,0,0,0,0,0,0,0,-1,1098,722,0,0
-119,302,0,0,0,0,0,0,0,0,0,-1,1105,722,0,0
-112,302,0,0,0,0,0,0,0,0,0,-1,1112,722,0,0
-105,302,0,0,0,0,0,0,0,0,0,-1,1119,722,0,0
-98,302,0,0,0,0,0,0,0,0,0,-1,1126,722,0,0
-91,302,0,0,0,0,0,0,0,0,0,-1,1133,722,0,0
-84,302,0,0,0,0,0,0,0,0,0,-1,1140,722,0,0
-77,302,0,0,0,0,0,0,0,0,0,-1,1147,722,0,0
-70,302,0,0,0,0,0,0,0,0,0,-1,1154,722,0,0
-63,302,0,0,0,0,0,0,0,0,0,-1,1161,722,0,0
-56,302,0,0,0,0,0,0,0,0,0,-1,1168,722,0,0
-49,302,0,0,0,0,0,0,0,0,0,-1,1175,722,0,0
-42,302,0,0,0,0,0,0,0,0,0,-1,1182,722,0,0
-35,302,0,0,0,0,0,0,0,0,0,-1,1189,722,0,0
-28,302,0,0,0,0,0,0,0,0,0,-1,1196,722,0,0
-21,302,0,0,0,0,0,0,0,0,0,-1,1203,722,0,0
-14,302,0,0,0,0,0,0,0,0,0,-1,1210,722,0,0
-7,302,0,0,0,0,0,0,0,0,0,-1,1217,722,0,0
0,302,0,0,0,0,0,0,0,0,0,-1,1224,722,0,0
7,302,0,0,0,0,0,0,0,0,0,-1,1231,722,0,0
14,302,0,0,0,0,0,0,0,0,0,-1,1238,722,0,0
21,302,0,0,0,0,0,0,0,0,0,-1,1245,722,0,0
28,302,0,0,0,0,0,0,0,0,0,-1,1252,722,0,0
35,302,0,0,0,0,0,0,0,0,0,-1,1259,722,0,0
42,302,0,0,0,0,0,0,0,0,0,-1,1266,722,0,0
49,302,0,0,0,0,0,0,0,0,0,-1,1273,722,0,0
56,302,0,0,0,0,0,0,0,0,0,-1,1280,722,0,0
63,302,0,0,0,0,0,0,0,0,0,-1,1287,722,0,0
70,302,0,0,0,0,0,0,0,0,0,-1,1294,722,0,0
77,302,0,0,0,0,0,0,0,0,0,-1,1301,722,0,0
84,302,0,0,0,0,0,0,0,0,0,-1,1308,722,0,0
91,302,0,0,0,0,0,0,0,0,0,-1,1315,722,0,0
98,302,0,0,0,0,0,0,0,0,0,-1,1322,722,0,0
105,302,0,0,0,0,0,0,0,0,0,-1,1329,722,0,0
112,302,0,0,0,0,0,0,0,0,0,-1,1336,722,0,0
119,302,0,0,0,0,0,0,0,0,0,-1,1343,722,0,0
126,302,0,0,0,0,0,0,0,0,0,-1,1350,722,0,0
133,302,0,0,0,0,0,0,0,0,0,-1,1357,722,0,0
140,302,0,0,0,0,0,0,0,0,0,-1,1364,722,0,0
147,302,0,0,0,0,0,0,0,0,0,-1,1371,722,0,0
154,302,0,0,0,0,0,0,0,0,0,-1,1378,722,0,0
161,302,0,0,0,0,0,0,0,0,0,-1,1385,722,0,0
168,302,0,0,0,0,0,0,0,0,0,-1,1392,722,0,0
175,302,0,0,0,0,0,0,0,0,0,-1,1399,722,0,0
182,302,0,0,0,0,0,0,0,0,0,-1,1406,722,0,0
189,302,0,0,0,0,0,0,0,0,0,-1,1413,722,0,0
196,302,0,0,0,0,0,0,0,0,0,-1,1420,722,0,0
203,302,0,0,0,0,0,0,0,0,0,-1,1427,722,0,0
210,302,0,0,0,0,0,0,0,0,0,-1,1434,722,0,0
217,302,0,0,0,0,0,0,0,0,0,-1,1441,722,0,0
224,302,0,0,0,0,0,0,0,0,0,-1,1448,722,0,0
231,302,0,0,0,0,0,0,0,0,0,-1,1455,722,0,0
238,302,0,0,0,0,0,0,0,0,0,-1,1462,722,0,0
245,302,0,0,0,0,0,0,0,0,0,-1,1469,722,0,0
252,302,0,0,0,0,0,0,0,0,0,-1,1476,722,0,0
259,302,0,0,0,0,0,0,0,0,0,-1,1483,722,0,0
266,302,0,0,0,0,0,0,0,0,0,-1,1490,722,0,0
273,302,0,0,0,0,0,0,0,0,0,-1,1497,722,0,0
280,302,0,0,0,0,0,0,0,0,0,-1,1504,722,0,0
287,302,0,0,0,0,0,0,0,0,0,-1,1511,722,0,0
294,302,0,0,0,0,0,0,0,0,0,-1,1518,722,0,0
301,302,0,0,0,0,0,0,0,0,0,-1,1525,722,0,0
308,302,0,0,0,0,0,0,0,0,0,-1,1532,722,0,0
315,302,0,0,0,0,0,0,0,0,0,-1,1539,722,0,0
322,302,0,0,0,0,0,0,0,0,0,-1,1546,722,0,0
329,302,0,0,0,0,0,0,0,0,0,-1,1553,722,0,0
336,302,0,0,0,0,0,0,0,0,0,-1,1560,722,0,0
343,302,0,0,0,0,0,0,0,0,0,-1,1567,722,0,0
350,302,0,0,0,0,0,0,0,0,0,-1,1574,722,0,0
357,302,0,0,0,0,0,0,0,0,0,-1,1581,722,0,0
364,302,0,0,0,0,0,0,0,0,0,-1,1588,722,0,0
371,302,0,0,0,0,0,0,0,0,0,-1,1595,722,0,0
378,302,0,0,0,0,0,0,0,0,0,-1,1602,722,0,0
385,302,0,0,0,0,0,0,0,0,0,-1,1609,722,0,0
392,302,0,0,0,0,0,0,0,0,0,-1,1616,722,0,0
399,302,0,0,0,0,0,0,0,0,0,-1,1623,722,0,0
406,302,0,0,0,0,0,0,0,0,0,-1,1630,722,0,0
413,302,0,0,0,0,0,0,0,0,0,-1,1637,722,0,0
420,302,0,0,0,0,0,0,0,0,0,-1,1644,722,0,0
427,302,0,0,0,0,0,0,0,0,0,-1,1651,722,0,0
434,302,0,0,0,0,0,0,0,0,0,-1,1658,722,0,0
441,302,0,0,0,0,0,0,0,0,0,-1,1665,722,0,0
448,302,0,0,0,0,0,0,0,0,0,-1,1672,722,0,0
455,302,0,0,0,0,0,0,0,0,0,-1,1679,722,0,0
462,302,0,0,0,0,0,0,0,0,0,-1,1686,722,0,0
469,302,0,0,0,0,0,0,0,0,0,-1,1693,722,0,0
476,302,0,0,0,0,0,0,0,0,0,-1,1700,722,0,0
483,302,0,0,0,0,0,0,0,0,0,-1,1707,722,0,0
490,302,0,0,0,0,0,0,0,0,0,-1,1714,722,0,0
497,302,0,0,0,0,0,0,0,0,0,-1,1721,722,0,0
504,302,0,0,0,0,0,0,0,0,0,-1,1728,722,0,0
511,302,0,0,0,0,0,0,0,0,0,-1,1735,722,0,0
518,302,0,0,0,0,0,0,0,0,0,-1,1742,722,0,0
525,302,0,0,0,0,0,0,0,0,0,-1,1749,722,0,0
532,302,0,0,0,0,0,0,0,0,0,-1,1756,722,0,0
539,302,0,0,0,0,0,0,0,0,0,-1,1763,722,0,0
546,302,48.9873,1.50562,0,0,0,0,0,0,0,-1,1770,722,48.9873,-1.50562
553,302,56.7844,3.46533,0,0,0,0,0,0,0,-1,1777,722,56.7844,-3.4653
560,302,56.7115,3.84808,0,0,0,0,0,0,0,-1,1784,722,56.7116,-3.84806
567,302,55.9475,4.24542,0,0,0,0,0,0,0,-1,1791,722,55.9475,-4.24542
574,302,45.9537,6.00867,0,0,0,0,0,0,0,-1,1798,722,45.9537,-6.00864
581,302,45.137,7.38043,0,0,0,0,0,0,0,-1,1805,722,45.1369,-7.38044
588,302,26.9731,7.19983,0,0,0,0,0,0,0,-1,1812,722,26.9732,-7.19981
595,302,27.3826,8.13104,0,0,0,0,0,0,0,-1,1819,722,27.3825,-8.13102
602,302,14.7349,5.21246,0,0,0,0,0,0,0,-1,1826,722,14.7349,-5.21247
609,302,31.1039,-6.34253,0,0,0,0,0,0,0,-1,1833,722,31.1039,6.34254
616,302,36.4385,-7.47394,0,0,0,0,0,0,0,-1,1840,722,36.4384,7.47396
623,302,36.3732,-6.72314,0.00301412,-0.000599508,0.000838892,0.00319937,-0.000784758,0.217338,0.00243699,0.0144334,1847,722,36.3732,6.72317
630,302,36.3022,-5.99091,0.00229196,-0.000480606,0.000667156,0.00244414,-0.000632789,0.22427,0.00187627,0.0117124,1854,722,36.3022,5.99093
637,302,36.2522,-5.23535,0.00175363,-0.000196546,0.000616335,0.00193208,-0.000375003,0.281838,0.00142955,0.0144464,1861,722,36.2522,5.23533
644,302,36.2441,-4.47278,0.0014537,0.000121905,0.000683389,0.00174197,-0.000166367,0.39918,0.00122056,0.0159954,1868,722,36.2441,4.47275
651,302,36.2554,-3.71716,0.00133008,0.000616555,0.000871887,0.00191537,3.12644e-05,0.591197,0.00126662,0.014958,1875,722,36.2553,3.71716
658,302,36.2236,-3.01508,0.00131784,0.00123204,0.00109422,0.00237001,0.000179879,0.765805,0.00152359,0.0149875,1882,722,36.2237,3.01506
665,302,36.1747,-2.26044,0.00147407,0.00197226,0.00140309,0.00314819,0.000298138,0.873251,0.00200681,0.014625,1889,722,36.1747,2.26043
672,302,36.1046,-1.48199,0.00178225,0.00284856,0.00180938,0.0042017,0.000429117,0.928675,0.00266961,0.0114321,1896,722,36.1046,1.48198
679,302,36.0641,-0.688232,0.00220172,0.00390182,0.0022906,0.00549501,0.000608526,0.963074,0.00347829,0.00941869,1903,722,36.0641,0.68823
686,302,36.0718,0.108948,0.00287425,0.00515414,0.00293187,0.00715988,0.00086851,0.97081,0.0045117,0.0230794,1910,722,36.0718,-0.108978
693,302,36.0337,0.905762,0,0,0,0,0,0,0,-1,1917,722,36.0337,-0.905785
700,302,25.4069,1.97308,0,0,0,0,0,0,0,-1,1924,722,25.4068,-1.97311
707,302,16.7321,4.76685,0,0,0,0,0,0,0,-1,1931,722,16.7321,-4.76687
714,302,17.2,5.77594,0,0,0,0,0,0,0,-1,1938,722,17.2,-5.77595
721,302,17.7914,6.60394,0,0,0,0,0,0,0,-1,1945,722,17.7914,-6.60395
728,302,17.2798,4.81702,0,0,0,0,0,0,0,-1,1952,722,17.2798,-4.81703
735,302,0,0,0,0,0,0,0,0,0,-1,1959,722,0,0
742,302,0,0,0,0,0,0,0,0,0,-1,1966,722,0,0
749,302,0,0,0,0,0,0,0,0,0,-1,1973,722,0,0
756,302,0,0,0,0,0,0,0,0,0,-1,1980,722,0,0
763,302,0,0,0,0,0,0,0,0,0,-1,1987,722,0,0
770,302,0,0,0,0,0,0,0,0,0,-1,1994,722,0,0
777,302,0,0,0,0,0,0,0,0,0,-1,2001,722,0,0
784,302,0,0,0,0,0,0,0,0,0,-1,2008,722,0,0
791,302,0,0,0,0,0,0,0,0,0,-1,2015,722,0,0
798,302,0,0,0,0,0,0,0,0,0,-1,2022,722,0,0
805,302,0,0,0,0,0,0,0,0,0,-1,2029,722,0,0
812,302,0,0,0,0,0,0,0,0,0,-1,2036,722,0,0
-700,295,0,0,0,0,0,0,0,0,0,-1,524,729,0,0
-693,295,0,0,0,0,0,0,0,0,0,-1,531,729,0,0
-686,295,0,0,0,0,0,0,0,0,0,-1,538,729,0,0
-679,295,0,0,0,0,0,0,0,0,0,-1,545,729,0,0
-672,295,0,0,0,0,0,0,0,0,0,-1,552,729,0,0
-665,295,0,0,0,0,0,0,0,0,0,-1,559,729,0,0
-658,295,0,0,0,0,0,0,0,0,0,-1,566,729,0,0
-651,295,0,0,0,0,0,0,0,0,0,-1,573,729,0,0
-644,295,0,0,0,0,0,0,0,0,0,-1,580,729,0,0
-637,295,0,0,0,0,0,0,0,0,0,-1,587,729,0,0
-630,295,0,0,0,0,0,0,0,0,0,-1,594,729,0,0
-623,295,0,0,0,0,0,0,0,0,0,-1,601,729,0,0
-616,295,-13.4911,1.31738,0,0,0,0,0,0,0,-1,608,729,-13.4911,-1.3174
-609,295,-10.2864,0.832031,0,0,0,0,0,0,0,-1,615,729,-10.2863,-0.832034
-602,295,-8.19006,3.01587,0,0,0,0,0,0,0,-1,622,729,-8.19005,-3.01588
-595,295,-0.615479,-1.95447,0,0,0,0,0,0,0,-1,629,729,-0.615481,1.95445
-588,295,-7.98999,1.56903,0,0,0,0,0,0,0,-1,636,729,-7.98997,-1.56905
-581,295,-12.0404,0.150574,0,0,0,0,0,0,0,-1,643,729,-12.0404,-0.150604
-574,295,-12.1605,-0.0739746,0,0,0,0,0,0,0,-1,650,729,-12.1605,0.0739856
-567,295,-23.356,-0.709167,0,0,0,0,0,0,0,-1,657,729,-23.356,0.709195
-560,295,-23.7284,-1.49451,-0.000157561,0.00400847,-0.000624474,0.00410006,-0.000249154,-1.42516,0.0028201,0.0358053,664,729,-23.7284,1.49449
-553,295,-23.7585,-2.27222,0.000579628,0.00301982,-0.000570522,0.00314662,0.000452828,-1.3521,0.00196428,0.0188146,671,729,-23.7585,2.27223
-546,295,-23.8453,-2.98315,0.000826878,0.00187238,-0.000341323,0.00197395,0.000725314,-1.28158,0.00115293,0.0205048,678,729,-23.8453,2.98312
-539,295,-23.861,-3.66327,0.000865723,0.000989137,-6.97708e-05,0.00102057,0.000834287,-1.14747,0.000627571,0.0197341,685,729,-23.861,3.66329
-532,295,-23.8962,-4.41144,0.000684734,0.000222991,0.000273355,0.000811668,9.6057e-05,0.434727,0.000512105,0.0169777,692,729,-23.8962,4.41145
-525,295,-23.9029,-5.15216,0.000388229,-0.000516481,0.000623455,0.000706148,-0.000834399,0.47156,0.000890462,0.0153816,699,729,-23.9029,5.15215
-518,295,-23.929,-5.85162,4.67542e-05,-0.00101743,0.00101201,0.00065803,-0.0016287,0.543371,0.00135932,0.0111491,706,729,-23.929,5.8516
-511,295,-23.9666,-6.55713,-0.000467732,-0.00142678,0.00144164,0.00057204,-0.00246655,0.624842,0.00186453,0.00928949,713,729,-23.9665,6.55714
-504,295,-24.0103,-7.27307,-0.00104033,-0.001669,0.00190254,0.000573667,-0.003283,0.703528,0.00240282,0.0111898,720,729,-24.0103,7.27308
-497,295,-24.0995,-7.92212,-0.00147437,-0.00162241,0.00225271,0.000705534,-0.00380231,0.768975,0.00279984,0.023555,727,729,-24.0996,7.92214
-490,295,-24.1881,-8.53796,0,0,0,0,0,0,0,-1,734,729,-24.1881,8.53799
-483,295,-6.84503,-0.454651,0,0,0,0,0,0,0,-1,741,729,-6.84505,0.454639
-476,295,-13.1738,-0.836243,0,0,0,0,0,0,0,-1,748,729,-13.1738,0.836223
-469,295,-26.5608,-0.466187,0,0,0,0,0,0,0,-1,755,729,-26.5608,0.466162
-462,295,-29.7701,-0.792664,0,0,0,0,0,0,0,-1,762,729,-29.7701,0.792642
-455,295,-45.11,-2.79272,0,0,0,0,0,0,0,-1,769,729,-45.11,2.79272
-448,295,-44.4651,-2.22919,0,0,0,0,0,0,0,-1,776,729,-44.4652,2.22919
-441,295,-44.3488,-1.47363,0,0,0,0,0,0,0,-1,783,729,-44.3488,1.47365
-434,295,-43.5654,0.210632,0,0,0,0,0,0,0,-1,790,729,-43.5654,-0.210646
-427,295,0,0,0,0,0,0,0,0,0,-1,797,729,0,0
-420,295,0,0,0,0,0,0,0,0,0,-1,804,729,0,0
-413,295,0,0,0,0,0,0,0,0,0,-1,811,729,0,0
-406,295,0,0,0,0,0,0,0,0,0,-1,818,729,0,0
-399,295,0,0,0,0,0,0,0,0,0,-1,825,729,0,0
-392,295,0,0,0,0,0,0,0,0,0,-1,832,729,0,0
-385,295,0,0,0,0,0,0,0,0,0,-1,839,729,0,0
-378,295,0,0,0,0,0,0,0,0,0,-1,846,729,0,0
-371,295,0,0,0,0,0,0,0,0,0,-1,853,729,0,0
-364,295,0,0,0,0,0,0,0,0,0,-1,860,729,0,0
-357,295,0,0,0,0,0,0,0,0,0,-1,867,729,0,0
-350,295,0,0,0,0,0,0,0,0,0,-1,874,729,0,0
-343,295,0,0,0,0,0,0,0,0,0,-1,881,729,0,0
-336,295,0,0,0,0,0,0,0,0,0,-1,888,729,0,0
-329,295,0,0,0,0,0,0,0,0,0,-1,895,729,0,0
-322,295,0,0,0,0,0,0,0,0,0,-1,902,729,0,0
-315,295,0,0,0,0,0,0,0,0,0,-1,909,729,0,0
-308,295,0,0,0,0,0,0,0,0,0,-1,916,729,0,0
-301,295,0,0,0,0,0,0,0,0,0,-1,923,729,0,0
-294,295,0,0,0,0,0,0,0,0,0,-1,930,729,0,0
-287,295,0,0,0,0,0,0,0,0,0,-1,937,729,0,0
-280,295,0,0,0,0,0,0,0,0,0,-1,944,729,0,0
-273,295,0,0,0,0,0,0,0,0,0,-1,951,729,0,0
-266,295,0,0,0,0,0,0,0,0,0,-1,958,729,0,0
-259,295,0,0,0,0,0,0,0,0,0,-1,965,729,0,0
-252,295,0,0,0,0,0,0,0,0,0,-1,972,729,0,0
-245,295,0,0,0,0,0,0,0,0,0,-1,979,729,0,0
-238,295,0,0,0,0,0,0,0,0,0,-1,986,729,0,0
-231,295,0,0,0,0,0,0,0,0,0,-1,993,729,0,0
-224,295,0,0,0,0,0,0,0,0,0,-1,1000,729,0,0
-217,295,0,0,0,0,0,0,0,0,0,-1,1007,729,0,0
-210,295,0,0,0,0,0,0,0,0,0,-1,1014,729,0,0
-203,295,0,0,0,0,0,0,0,0,0,-1,1021,729,0,0
-196,295,0,0,0,0,0,0,0,0,0,-1,1028,729,0,0
-189,295,0,0,0,0,0,0,0,0,0,-1,1035,729,0,0
-182,295,0,0,0,0,0,0,0,0,0,-1,1042,729,0,0
-175,295,0,0,0,0,0,0,0,0,0,-1,1049,729,0,0
-168,295,0,0,0,0,0,0,0,0,0,-1,1056,729,0,0
-161,295,0,0,0,0,0,0,0,0,0,-1,1063,729,0,0
-154,295,0,0,0,0,0,0,0,0,0,-1,1070,729,0,0
-147,295,0,0,0,0,0,0,0,0,0,-1,1077,729,0,0
-140,295,0,0,0,0,0,0,0,0,0,-1,1084,729,0,0
-133,295,0,0,0,0,0,0,0,0,0,-1,1091,729,0,0
-126,295,0,0,0,0,0,0,0,0,0,-1,1098,729,0,0
-119,295,0,0,0,0,0,0,0,0,0,-1,1105,729,0,0
-112,295,0,0,0,0,0,0,0,0,0,-1,1112,729,0,0
-105,295,0,0,0,0,0,0,0,0,0,-1,1119,729,0,0
-98,295,0,0,0,0,0,0,0,0,0,-1,1126,729,0,0
-91,295,0,0,0,0,0,0,0,0,0,-1,1133,729,0,0
-84,295,0,0,0,0,0,0,0,0,0,-1,1140,729,0,0
-77,295,0,0,0,0,0,0,0,0,0,-1,1147,729,0,0
-70,295,0,0,0,0,0,0,0,0,0,-1,1154,729,0,0
-63,295,0,0,0,0,0,0,0,0,0,-1,1161,729,0,0
-56,295,0,0,0,0,0,0,0,0,0,-1,1168,729,0,0
-49,295,0,0,0,0,0,0,0,0,0,-1,1175,729,0,0
-42,295,0,0,0,0,0,0,0,0,0,-1,1182,729,0,0
-35,295,0,0,0,0,0,0,0,0,0,-1,1189,729,0,0
-28,295,0,0,0,0,0,0,0,0,0,-1,1196,729,0,0
-21,295,0,0,0,0,0,0,0,0,0,-1,1203,729,0,0
-14,295,0,0,0,0,0,0,0,0,0,-1,1210,729,0,0
-7,295,0,0,0,0,0,0,0,0,0,-1,1217,729,0,0
0,295,0,0,0,0,0,0,0,0,0,-1,1224,729,0,0
7,295,0,0,0,0,0,0,0,0,0,-1,1231,729,0,0
14,295,0,0,0,0,0,0,0,0,0,-1,1238,729,0,0
21,295,0,0,0,0,0,0,0,0,0,-1,1245,729,0,0
28,295,0,0,0,0,0,0,0,0,0,-1,1252,729,0,0
35,295,0,0,0,0,0,0,0,0,0,-1,1259,729,0,0
42,295,0,0,0,0,0,0,0,0,0,-1,1266,729,0,0
49,295,0,0,0,0,0,0,0,0,0,-1,1273,729,0,0
56,295,0,0,0,0,0,0,0,0,0,-1,1280,729,0,0
63,295,0,0,0,0,0,0,0,0,0,-1,1287,729,0,0
70,295,0,0,0,0,0,0,0,0,0,-1,1294,729,0,0
77,295,0,0,0,0,0,0,0,0,0,-1,1301,729,0,0
84,295,0,0,0,0,0,0,0,0,0,-1,1308,729,0,0
91,295,0,0,0,0,0,0,0,0,0,-1,1315,729,0,0
98,295,0,0,0,0,0,0,0,0,0,-1,1322,729,0,0
105,295,0,0,0,0,0,0,0,0,0,-1,1329,729,0,0
112,295,0,0,0,0,0,0,0,0,0,-1,1336,729,0,0
119,295,0,0,0,0,0,0,0,0,0,-1,1343,729,0,0
126,295,0,0,0,0,0,0,0,0,0,-1,1350,729,0,0
133,295,0,0,0,0,0,0,0,0,0,-1,1357,729,0,0
140,295,0,0,0,0,0,0,0,0,0,-1,1364,729,0,0
147,295,0,0,0,0,0,0,0,0,0,-1,1371,729,0,0
154,295,0,0,0,0,0,0,0,0,0,-1,1378,729,0,0
161,295,0,0,0,0,0,0,0,0,0,-1,1385,729,0,0
168,295,0,0,0,0,0,0,0,0,0,-1,1392,729,0,0
175,295,0,0,0,0,0,0,0,0,0,-1,1399,729,0,0
182,295,0,0,0,0,0,0,0,0,0,-1,1406,729,0,0
189,295,0,0,0,0,0,0,0,0,0,-1,1413,729,0,0
196,295,0,0,0,0,0,0,0,0,0,-1,1420,729,0,0
203,295,0,0,0,0,0,0,0,0,0,-1,1427,729,0,0
210,295,0,0,0,0,0,0,0,0,0,-1,1434,729,0,0
217,295,0,0,0,0,0,0,0,0,0,-1,1441,729,0,0
224,295,0,0,0,0,0,0,0,0,0,-1,1448,729,0,0
231,295,0,0,0,0,0,0,0,0,0,-1,1455,729,0,0
238,295,0,0,0,0,0,0,0,0,0,-1,1462,729,0,0
245,295,0,0,0,0,0,0,0,0,0,-1,1469,729,0,0
252,295,0,0,0,0,0,0,0,0,0,-1,1476,729,0,0
259,295,0,0,0,0,0,0,0,0,0,-1,1483,729,0,0
266,295,0,0,0,0,0,0,0,0,0,-1,1490,729,0,0
273,295,0,0,0,0,0,0,0,0,0,-1,1497,729,0,0
280,295,0,0,0,0,0,0,0,0,0,-1,1504,729,0,0
287,295,0,0,0,0,0,0,0,0,0,-1,1511,729,0,0
294,295,0,0,0,0,0,0,0,0,0,-1,1518,729,0,0
301,295,0,0,0,0,0,0,0,0,0,-1,1525,729,0,0
308,295,0,0,0,0,0,0,0,0,0,-1,1532,729,0,0
315,295,0,0,0,0,0,0,0,0,0,-1,1539,729,0,0
322,295,0,0,0,0,0,0,0,0,0,-1,1546,729,0,0
329,295,0,0,0,0,0,0,0,0,0,-1,1553,729,0,0
336,295,0,0,0,0,0,0,0,0,0,-1,1560,729,0,0
343,295,0,0,0,0,0,0,0,0,0,-1,1567,729,0,0
350,295,0,0,0,0,0,0,0,0,0,-1,1574,729,0,0
357,295,0,0,0,0,0,0,0,0,0,-1,1581,729,0,0
364,295,0,0,0,0,0,0,0,0,0,-1,1588,729,0,0
371,295,0,0,0,0,0,0,0,0,0,-1,1595,729,0,0
378,295,0,0,0,0,0,0,0,0,0,-1,1602,729,0,0
385,295,0,0,0,0,0,0,0,0,0,-1,1609,729,0,0
392,295,0,0,0,0,0,0,0,0,0,-1,1616,729,0,0
399,295,0,0,0,0,0,0,0,0,0,-1,1623,729,0,0
406,295,0,0,0,0,0,0,0,0,0,-1,1630,729,0,0
413,295,0,0,0,0,0,0,0,0,0,-1,1637,729,0,0
420,295,0,0,0,0,0,0,0,0,0,-1,1644,729,0,0
427,295,0,0,0,0,0,0,0,0,0,-1,1651,729,0,0
434,295,0,0,0,0,0,0,0,0,0,-1,1658,729,0,0
441,295,0,0,0,0,0,0,0,0,0,-1,1665,729,0,0
448,295,0,0,0,0,0,0,0,0,0,-1,1672,729,0,0
455,295,0,0,0,0,0,0,0,0,0,-1,1679,729,0,0
462,295,0,0,0,0,0,0,0,0,0,-1,1686,729,0,0
469,295,0,0,0,0,0,0,0,0,0,-1,1693,729,0,0
476,295,0,0,0,0,0,0,0,0,0,-1,1700,729,0,0
483,295,0,0,0,0,0,0,0,0,0,-1,1707,729,0,0
490,295,0,0,0,0,0,0,0,0,0,-1,1714,729,0,0
497,295,0,0,0,0,0,0,0,0,0,-1,1721,729,0,0
504,295,0,0,0,0,0,0,0,0,0,-1,1728,729,0,0
511,295,0,0,0,0,0,0,0,0,0,-1,1735,729,0,0
518,295,0,0,0,0,0,0,0,0,0,-1,1742,729,0,0
525,295,0,0,0,0,0,0,0,0,0,-1,1749,729,0,0
532,295,0,0,0,0,0,0,0,0,0,-1,1756,729,0,0
539,295,0,0,0,0,0,0,0,0,0,-1,1763,729,0,0
546,295,57.4674,2.36884,0,0,0,0,0,0,0,-1,1770,729,57.4674,-2.36883
553,295,57.1969,2.73846,0,0,0,0,0,0,0,-1,1777,729,57.197,-2.73843
560,295,57.0291,3.27454,0,0,0,0,0,0,0,-1,1784,729,57.029,-3.27454
567,295,56.6243,3.88239,0,0,0,0,0,0,0,-1,1791,729,56.6242,-3.8824
574,295,56.5275,4.755,0,0,0,0,0,0,0,-1,1798,729,56.5274,-4.75501
581,295,37.8191,2.19592,0,0,0,0,0,0,0,-1,1805,729,37.8191,-2.19594
588,295,39.0542,2.45679,0,0,0,0,0,0,0,-1,1812,729,39.0542,-2.45676
595,295,27.2102,6.99121,0,0,0,0,0,0,0,-1,1819,729,27.2103,-6.99121
602,295,26.9065,7.82141,0,0,0,0,0,0,0,-1,1826,729,26.9064,-7.8214
609,295,11.7737,2.19989,0,0,0,0,0,0,0,-1,1833,729,11.7736,-2.19988
616,295,37.2198,-7.39844,0,0,0,0,0,0,0,-1,1840,729,37.2198,7.39843
623,295,37.1071,-6.67596,0.0031092,0.00013242,0.0023315,0.00438689,-0.00114527,0.501315,0.00337182,0.0336322,1847,729,37.107,6.67594
630,295,37.0369,-5.92719,0.00241343,3.68991e-05,0.00167074,0.00327538,-0.000825042,0.476289,0.00250432,0.0128468,1854,729,37.0369,5.92719
637,295,37.0165,-5.17676,0.00182834,0.000210543,0.00125373,0.00251147,-0.000472586,0.498903,0.00185205,0.0140497,1861,729,37.0164,5.17678
644,295,37.0161,-4.41998,0.00147603,0.000234066,0.00100179,0.00203369,-0.000323593,0.507946,0.00147553,0.013937,1868,729,37.0161,4.41999
651,295,36.9926,-3.66272,0.0013815,0.0005395,0.000959267,0.00200808,-8.70855e-05,0.578616,0.00136867,0.0138167,1875,729,36.9925,3.6627
658,295,36.9436,-2.94562,0.0013852,0.000995886,0.00104913,0.00225758,0.000123511,0.693669,0.00146562,0.0131351,1882,729,36.9436,2.94561
665,295,36.9008,-2.21881,0.00146727,0.00167271,0.00127356,0.00284769,0.000292294,0.82564,0.00180891,0.0123889,1889,729,36.9008,2.2188
672,295,36.8572,-1.46014,0.0016676,0.00247138,0.0016082,0.00372715,0.000411838,0.907841,0.0023595,0.0134777,1896,729,36.8572,1.46015
679,295,36.816,-0.682983,0.0019604,0.00344261,0.00202842,0.00486107,0.000541938,0.960544,0.00307603,0.0107846,1903,729,36.8161,0.682966
686,295,36.8267,0.0610962,0.00242796,0.00459138,0.00257497,0.00630262,0.000716719,0.984249,0.00398439,0.0126053,1910,729,36.8267,-0.0611171
693,295,36.8468,1.02478,0,0,0,0,0,0,0,-1,1917,729,36.8468,-1.02476
700,295,31.3757,2.06982,0,0,0,0,0,0,0,-1,1924,729,31.3758,-2.0698
707,295,22.2661,3.05206,0,0,0,0,0,0,0,-1,1931,729,22.2662,-3.05207
714,295,17.4906,4.63068,0,0,0,0,0,0,0,-1,1938,729,17.4906,-4.63066
721,295,18.3792,5.32281,0,0,0,0,0,0,0,-1,1945,729,18.3791,-5.32283
728,295,17.379,3.74866,0,0,0,0,0,0,0,-1,1952,729,17.379,-3.74863
735,295,0,0,0,0,0,0,0,0,0,-1,1959,729,0,0
742,295,0,0,0,0,0,0,0,0,0,-1,1966,729,0,0
749,295,0,0,0,0,0,0,0,0,0,-1,1973,729,0,0
756,295,0,0,0,0,0,0,0,0,0,-1,1980,729,0,0
763,295,0,0,0,0,0,0,0,0,0,-1,1987,729,0,0
770,295,0,0,0,0,0,0,0,0,0,-1,1994,729,0,0
777,295,0,0,0,0,0,0,0,0,0,-1,2001,729,0,0
784,295,0,0,0,0,0,0,0,0,0,-1,2008,729,0,0
791,295,0,0,0,0,0,0,0,0,0,-1,2015,729,0,0
798,295,0,0,0,0,0,0,0,0,0,-1,2022,729,0,0
805,295,0,0,0,0,0,0,0,0,0,-1,2029,729,0,0
812,295,0,0,0,0,0,0,0,0,0,-1,2036,729,0,0
-700,288,0,0,0,0,0,0,0,0,0,-1,524,736,0,0
-693,288,0,0,0,0,0,0,0,0,0,-1,531,736,0,0
-686,288,0,0,0,0,0,0,0,0,0,-1,538,736,0,0
-679,288,0,0,0,0,0,0,0,0,0,-1,545,736,0,0
-672,288,0,0,0,0,0,0,0,0,0,-1,552,736,0,0
-665,288,0,0,0,0,0,0,0,0,0,-1,559,736,0,0
-658,288,0,0,0,0,0,0,0,0,0,-1,566,736,0,0
-651,288,0,0,0,0,0,0,0,0,0,-1,573,736,0,0
-644,288,0,0,0,0,0,0,0,0,0,-1,580,736,0,0
-637,288,0,0,0,0,0,0,0,0,0,-1,587,736,0,0
-630,288,0,0,0,0,0,0,0,0,0,-1,594,736,0,0
-623,288,0,0,0,0,0,0,0,0,0,-1,601,736,0,0
-616,288,-11.7584,2.4425,0,0,0,0,0,0,0,-1,608,736,-11.7584,-2.44251
-609,288,-10.3007,2.32178,0,0,0,0,0,0,0,-1,615,736,-10.3007,-2.32178
-602,288,-10.1458,-1.85559,0,0,0,0,0,0,0,-1,622,736,-10.1458,1.85556
-595,288,-7.63208,1.81769,0,0,0,0,0,0,0,-1,629,736,-7.63205,-1.81766
-588,288,-8.19269,1.50598,0,0,0,0,0,0,0,-1,636,736,-8.19268,-1.50601
-581,288,-13.1915,0.659241,0,0,0,0,0,0,0,-1,643,736,-13.1915,-0.659228
-574,288,-24.0772,0.0612793,0,0,0,0,0,0,0,-1,650,736,-24.0772,-0.0612938
-567,288,-24.2274,-0.725891,-0.00136551,0.00511302,-0.00126786,0.00535231,-0.0016048,-1.38426,0.00420645,0.038842,657,736,-24.2274,0.725895
-560,288,-24.4844,-1.5304,-0.000569208,0.00368942,-0.000874711,0.00386208,-0.000741871,-1.37591,0.00285433,0.0175289,664,736,-24.4844,1.5304
-553,288,-24.4905,-2.19501,1.1675e-05,0.00258947,-0.000559314,0.00270559,-0.00010445,-1.36608,0.00183953,0.0171905,671,736,-24.4905,2.195
-546,288,-24.5389,-2.94043,0.000228336,0.00142847,-0.000155761,0.00144836,0.00020845,-1.44381,0.000904136,0.0199255,678,736,-24.5389,2.94043
-539,288,-24.5832,-3.65051,0.000275673,0.000458209,0.000259997,0.000642492,9.139e-05,0.954196,0.000401348,0.0180183,685,736,-24.5832,3.65048
-532,288,-24.5754,-4.36151,0.000106571,-0.000369868,0.000709036,0.000616335,-0.000879633,0.623334,0.000868145,0.0147064,692,736,-24.5754,4.3615
-525,288,-24.6096,-5.0932,-0.000189649,-0.00111289,0.00109776,0.000539604,-0.00184214,0.586367,0.00144202,0.0127687,699,736,-24.6096,5.09322
-518,288,-24.6782,-5.81238,-0.000544881,-0.00149369,0.00147332,0.000528528,-0.0025671,0.629641,0.00191208,0.0116168,706,736,-24.6782,5.81239
-511,288,-24.7173,-6.51276,-0.00102746,-0.00170246,0.00182966,0.000495569,-0.00322548,0.694192,0.00233312,0.00899691,713,736,-24.7173,6.51274
-504,288,-24.7483,-7.2085,-0.00155144,-0.00161357,0.00212306,0.000540786,-0.0037058,0.778082,0.00266912,0.0106657,720,736,-24.7483,7.20851
-497,288,-24.7839,-7.72363,-0.00188504,-0.00110005,0.00220975,0.000751789,-0.00373688,0.873291,0.00277599,0.0337669,727,736,-24.7839,7.72364
-490,288,-24.7301,-8.18359,0,0,0,0,0,0,0,-1,734,736,-24.7301,8.18362
-483,288,-17.3287,0.564758,0,0,0,0,0,0,0,-1,741,736,-17.3287,-0.56477
-476,288,-26.136,0.452148,0,0,0,0,0,0,0,-1,748,736,-26.136,-0.452177
-469,288,-27.7904,0.649841,0,0,0,0,0,0,0,-1,755,736,-27.7904,-0.649854
-462,288,-44.999,-2.65112,0,0,0,0,0,0,0,-1,762,736,-44.999,2.65111
-455,288,-45.2786,-1.84644,0,0,0,0,0,0,0,-1,769,736,-45.2786,1.84643
-448,288,-44.7584,-1.31757,0,0,0,0,0,0,0,-1,776,736,-44.7584,1.31759
-441,288,-44.5874,-0.442871,0,0,0,0,0,0,0,-1,783,736,-44.5874,0.442884
-434,288,-44.372,0.381348,0,0,0,0,0,0,0,-1,790,736,-44.372,-0.381349
-427,288,0,0,0,0,0,0,0,0,0,-1,797,736,0,0
-420,288,0,0,0,0,0,0,0,0,0,-1,804,736,0,0
-413,288,0,0,0,0,0,0,0,0,0,-1,811,736,0,0
-406,288,0,0,0,0,0,0,0,0,0,-1,818,736,0,0
-399,288,0,0,0,0,0,0,0,0,0,-1,825,736,0,0
-392,288,0,0,0,0,0,0,0,0,0,-1,832,736,0,0
-385,288,0,0,0,0,0,0,0,0,0,-1,839,736,0,0
-378,288,0,0,0,0,0,0,0,0,0,-1,846,736,0,0
-371,288,0,0,0,0,0,0,0,0,0,-1,853,736,0,0
-364,288,0,0,0,0,0,0,0,0,0,-1,860,736,0,0
-357,288,0,0,0,0,0,0,0,0,0,-1,867,736,0,0
-350,288,0,0,0,0,0,0,0,0,0,-1,874,736,0,0
-343,288,0,0,0,0,0,0,0,0,0,-1,881,736,0,0
-336,288,0,0,0,0,0,0,0,0,0,-1,888,736,0,0
-329,288,0,0,0,0,0,0,0,0,0,-1,895,736,0,0
-322,288,0,0,0,0,0,0,0,0,0,-1,902,736,0,0
-315,288,0,0,0,0,0,0,0,0,0,-1,909,736,0,0
-308,288,0,0,0,0,0,0,0,0,0,-1,916,736,0,0
-301,288,0,0,0,0,0,0,0,0,0,-1,923,736,0,0
-294,288,0,0,0,0,0,0,0,0,0,-1,930,736,0,0
-287,288,0,0,0,0,0,0,0,0,0,-1,937,736,0,0
-280,288,0,0,0,0,0,0,0,0,0,-1,944,736,0,0
-273,288,0,0,0,0,0,0,0,0,0,-1,951,736,0,0
-266,288,0,0,0,0,0,0,0,0,0,-1,958,736,0,0
-259,288,0,0,0,0,0,0,0,0,0,-1,965,736,0,0
-252,288,0,0,0,0,0,0,0,0,0,-1,972,736,0,0
-245,288,0,0,0,0,0,0,0,0,0,-1,979,736,0,0
-238,288,0,0,0,0,0,0,0,0,0,-1,986,736,0,0
-231,288,0,0,0,0,0,0,0,0,0,-1,993,736,0,0
-224,288,0,0,0,0,0,0,0,0,0,-1,1000,736,0,0
-217,288,0,0,0,0,0,0,0,0,0,-1,1007,736,0,0
-210,288,0,0,0,0,0,0,0,0,0,-1,1014,736,0,0
-203,288,0,0,0,0,0,0,0,0,0,-1,1021,736,0,0
-196,288,0,0,0,0,0,0,0,0,0,-1,1028,736,0,0
-189,288,0,0,0,0,0,0,0,0,0,-1,1035,736,0,0
-182,288,0,0,0,0,0,0,0,0,0,-1,1042,736,0,0
-175,288,0,0,0,0,0,0,0,0,0,-1,1049,736,0,0
-168,288,0,0,0,0,0,0,0,0,0,-1,1056,736,0,0
-161,288,0,0,0,0,0,0,0,0,0,-1,1063,736,0,0
-154,288,0,0,0,0,0,0,0,0,0,-1,1070,736,0,0
-147,288,0,0,0,0,0,0,0,0,0,-1,1077,736,0,0
-140,288,0,0,0,0,0,0,0,0,0,-1,1084,736,0,0
-133,288,0,0,0,0,0,0,0,0,0,-1,1091,736,0,0
-126,288,0,0,0,0,0,0,0,0,0,-1,1098,736,0,0
-119,288,0,0,0,0,0,0,0,0,0,-1,1105,736,0,0
-112,288,0,0,0,0,0,0,0,0,0,-1,1112,736,0,0
-105,288,0,0,0,0,0,0,0,0,0,-1,1119,736,0,0
-98,288,0,0,0,0,0,0,0,0,0,-1,1126,736,0,0
-91,288,0,0,0,0,0,0,0,0,0,-1,1133,736,0,0
-84,288,0,0,0,0,0,0,0,0,0,-1,1140,736,0,0
-77,288,0,0,0,0,0,0,0,0,0,-1,1147,736,0,0
-70,288,0,0,0,0,0,0,0,0,0,-1,1154,736,0,0
-63,288,0,0,0,0,0,0,0,0,0,-1,1161,736,0,0
-56,288,0,0,0,0,0,0,0,0,0,-1,1168,736,0,0
-49,288,0,0,0,0,0,0,0,0,0,-1,1175,736,0,0
-42,288,0,0,0,0,0,0,0,0,0,-1,1182,736,0,0
-35,288,0,0,0,0,0,0,0,0,0,-1,1189,736,0,0
-28,288,0,0,0,0,0,0,0,0,0,-1,1196,736,0,0
-21,288,0,0,0,0,0,0,0,0,0,-1,1203,736,0,0
-14,288,0,0,0,0,0,0,0,0,0,-1,1210,736,0,0
-7,288,0,0,0,0,0,0,0,0,0,-1,1217,736,0,0
0,288,0,0,0,0,0,0,0,0,0,-1,1224,736,0,0
7,288,0,0,0,0,0,0,0,0,0,-1,1231,736,0,0
14,288,0,0,0,0,0,0,0,0,0,-1,1238,736,0,0
21,288,0,0,0,0,0,0,0,0,0,-1,1245,736,0,0
28,288,0,0,0,0,0,0,0,0,0,-1,1252,736,0,0
35,288,0,0,0,0,0,0,0,0,0,-1,1259,736,0,0
42,288,0,0,0,0,0,0,0,0,0,-1,1266,736,0,0
49,288,0,0,0,0,0,0,0,0,0,-1,1273,736,0,0
56,288,0,0,0,0,0,0,0,0,0,-1,1280,736,0,0
63,288,0,0,0,0,0,0,0,0,0,-1,1287,736,0,0
70,288,0,0,0,0,0,0,0,0,0,-1,1294,736,0,0
77,288,0,0,0,0,0,0,0,0,0,-1,1301,736,0,0
84,288,0,0,0,0,0,0,0,0,0,-1,1308,736,0,0
91,288,0,0,0,0,0,0,0,0,0,-1,1315,736,0,0
98,288,0,0,0,0,0,0,0,0,0,-1,1322,736,0,0
105,288,0,0,0,0,0,0,0,0,0,-1,1329,736,0,0
112,288,0,0,0,0,0,0,0,0,0,-1,1336,736,0,0
119,288,0,0,0,0,0,0,0,0,0,-1,1343,736,0,0
126,288,0,0,0,0,0,0,0,0,0,-1,1350,736,0,0
133,288,0,0,0,0,0,0,0,0,0,-1,1357,736,0,0
140,288,0,0,0,0,0,0,0,0,0,-1,1364,736,0,0
147,288,0,0,0,0,0,0,0,0,0,-1,1371,736,0,0
154,288,0,0,0,0,0,0,0,0,0,-1,1378,736,0,0
161,288,0,0,0,0,0,0,0,0,0,-1,1385,736,0,0
168,288,0,0,0,0,0,0,0,0,0,-1,1392,736,0,0
175,288,0,0,0,0,0,0,0,0,0,-1,1399,736,0,0
182,288,0,0,0,0,0,0,0,0,0,-1,1406,736,0,0
189,288,0,0,0,0,0,0,0,0,0,-1,1413,736,0,0
196,288,0,0,0,0,0,0,0,0,0,-1,1420,736,0,0
203,288,0,0,0,0,0,0,0,0,0,-1,1427,736,0,0
210,288,0,0,0,0,0,0,0,0,0,-1,1434,736,0,0
217,288,0,0,0,0,0,0,0,0,0,-1,1441,736,0,0
224,288,0,0,0,0,0,0,0,0,0,-1,1448,736,0,0
231,288,0,0,0,0,0,0,0,0,0,-1,1455,736,0,0
238,288,0,0,0,0,0,0,0,0,0,-1,1462,736,0,0
245,288,0,0,0,0,0,0,0,0,0,-1,1469,736,0,0
252,288,0,0,0,0,0,0,0,0,0,-1,1476,736,0,0
259,288,0,0,0,0,0,0,0,0,0,-1,1483,736,0,0
266,288,0,0,0,0,0,0,0,0,0,-1,1490,736,0,0
273,288,0,0,0,0,0,0,0,0,0,-1,1497,736,0,0
280,288,0,0,0,0,0,0,0,0,0,-1,1504,736,0,0
287,288,0,0,0,0,0,0,0,0,0,-1,1511,736,0,0
294,288,0,0,0,0,0,0,0,0,0,-1,1518,736,0,0
301,288,0,0,0,0,0,0,0,0,0,-1,1525,736,0,0
308,288,0,0,0,0,0,0,0,0,0,-1,1532,736,0,0
315,288,0,0,0,0,0,0,0,0,0,-1,1539,736,0,0
322,288,0,0,0,0,0,0,0,0,0,-1,1546,736,0,0
329,288,0,0,0,0,0,0,0,0,0,-1,1553,736,0,0
336,288,0,0,0,0,0,0,0,0,0,-1,1560,736,0,0
343,288,0,0,0,0,0,0,0,0,0,-1,1567,736,0,0
350,288,0,0,0,0,0,0,0,0,0,-1,1574,736,0,0
357,288,0,0,0,0,0,0,0,0,0,-1,1581,736,0,0
364,288,0,0,0,0,0,0,0,0,0,-1,1588,736,0,0
371,288,0,0,0,0,0,0,0,0,0,-1,1595,736,0,0
378,288,0,0,0,0,0,0,0,0,0,-1,1602,736,0,0
385,288,0,0,0,0,0,0,0,0,0,-1,1609,736,0,0
392,288,0,0,0,0,0,0,0,0,0,-1,1616,736,0,0
399,288,0,0,0,0,0,0,0,0,0,-1,1623,736,0,0
406,288,0,0,0,0,0,0,0,0,0,-1,1630,736,0,0
413,288,0,0,0,0,0,0,0,0,0,-1,1637,736,0,0
420,288,0,0,0,0,0,0,0,0,0,-1,1644,736,0,0
427,288,0,0,0,0,0,0,0,0,0,-1,1651,736,0,0
434,288,0,0,0,0,0,0,0,0,0,-1,1658,736,0,0
441,288,0,0,0,0,0,0,0,0,0,-1,1665,736,0,0
448,288,0,0,0,0,0,0,0,0,0,-1,1672,736,0,0
455,288,0,0,0,0,0,0,0,0,0,-1,1679,736,0,0
462,288,0,0,0,0,0,0,0,0,0,-1,1686,736,0,0
469,288,0,0,0,0,0,0,0,0,0,-1,1693,736,0,0
476,288,0,0,0,0,0,0,0,0,0,-1,1700,736,0,0
483,288,0,0,0,0,0,0,0,0,0,-1,1707,736,0,0
490,288,0,0,0,0,0,0,0,0,0,-1,1714,736,0,0
497,288,0,0,0,0,0,0,0,0,0,-1,1721,736,0,0
504,288,0,0,0,0,0,0,0,0,0,-1,1728,736,0,0
511,288,0,0,0,0,0,0,0,0,0,-1,1735,736,0,0
518,288,0,0,0,0,0,0,0,0,0,-1,1742,736,0,0
525,288,0,0,0,0,0,0,0,0,0,-1,1749,736,0,0
532,288,0,0,0,0,0,0,0,0,0,-1,1756,736,0,0
539,288,0,0,0,0,0,0,0,0,0,-1,1763,736,0,0
546,288,0,0,0,0,0,0,0,0,0,-1,1770,736,0,0
553,288,57.4934,2.28064,0,0,0,0,0,0,0,-1,1777,736,57.4934,-2.28064
560,288,57.3807,3.02881,0,0,0,0,0,0,0,-1,1784,736,57.3808,-3.0288
567,288,57.2081,3.74274,0,0,0,0,0,0,0,-1,1791,736,57.2081,-3.74273
574,288,56.9817,4.36981,0,0,0,0,0,0,0,-1,1798,736,56.9816,-4.36984
581,288,53.4904,5.33215,0,0,0,0,0,0,0,-1,1805,736,53.4904,-5.33218
588,288,54.9313,3.29852,0,0,0,0,0,0,0,-1,1812,736,54.9313,-3.29849
595,288,47.035,3.35156,0,0,0,0,0,0,0,-1,1819,736,47.035,-3.35157
602,288,26.7634,7.61279,0,0,0,0,0,0,0,-1,1826,736,26.7635,-7.61279
609,288,17.5223,4.86414,0,0,0,0,0,0,0,-1,1833,736,17.5223,-4.86412
616,288,13.4886,0.801331,0,0,0,0,0,0,0,-1,1840,736,13.4886,-0.80132
623,288,37.8424,-6.65222,0,0,0,0,0,0,0,-1,1847,736,37.8424,6.6522
630,288,37.7416,-5.88104,0.00293927,0.000492424,0.00211527,0.00415944,-0.000727745,0.523214,0.00304467,0.027848,1854,736,37.7415,5.88102
637,288,37.7772,-5.13239,0.00207975,0.00080885,0.00165919,0.00322102,-0.000332416,0.60252,0.00226629,0.0110934,1861,736,37.7773,5.13236
644,288,37.7539,-4.38806,0.00151463,0.000518602,0.00127104,0.00238174,-0.000348507,0.598683,0.00171583,0.0102941,1868,736,37.7538,4.38805
651,288,37.7142,-3.64307,0.00138175,0.000536038,0.00105229,0.00209297,-0.000175181,0.594351,0.00145722,0.0121969,1875,736,37.7142,3.64304
658,288,37.6802,-2.8772,0.00141211,0.000719802,0.0010286,0.00215124,-1.93267e-05,0.623086,0.00144064,0.0175507,1882,736,37.6802,2.87718
665,288,37.6465,-2.14746,0.00147884,0.00132668,0.0012069,0.00261205,0.000193469,0.753922,0.0016806,0.0181935,1889,736,37.6465,2.14744
672,288,37.6134,-1.41083,0.00163832,0.00205614,0.0014977,0.00335943,0.000335028,0.854694,0.00213671,0.0162689,1896,736,37.6134,1.4108
679,288,37.5852,-0.639648,0.00185338,0.00297537,0.00187115,0.00436781,0.000460943,0.93104,0.00277103,0.0140964,1903,736,37.5852,0.639674
686,288,37.5413,0.0666504,0.00219087,0.00406222,0.00234565,0.00565193,0.00060116,0.975177,0.00358441,0.0113127,1910,736,37.5413,-0.0666532
693,288,37.5359,0.905701,0.00275783,0.00550925,0.00303715,0.00746773,0.000799345,0.998055,0.00473458,0.0256401,1917,736,37.5359,-0.905704
700,288,37.5243,1.81604,0,0,0,0,0,0,0,-1,1924,736,37.5243,-1.81603
707,288,30.9496,3.07977,0,0,0,0,0,0,0,-1,1931,736,30.9496,-3.07975
714,288,23.0149,3.82544,0,0,0,0,0,0,0,-1,1938,736,23.0149,-3.82541
721,288,18.0732,3.69385,0,0,0,0,0,0,0,-1,1945,736,18.0732,-3.69387
728,288,19.3208,3.91455,0,0,0,0,0,0,0,-1,1952,736,19.3209,-3.91455
735,288,18.7712,3.51312,0,0,0,0,0,0,0,-1,1959,736,18.7713,-3.51309
742,288,0,0,0,0,0,0,0,0,0,-1,1966,736,0,0
749,288,0,0,0,0,0,0,0,0,0,-1,1973,736,0,0
756,288,0,0,0,0,0,0,0,0,0,-1,1980,736,0,0
763,288,0,0,0,0,0,0,0,0,0,-1,1987,736,0,0
770,288,0,0,0,0,0,0,0,0,0,-1,1994,736,0,0
777,288,0,0,0,0,0,0,0,0,0,-1,2001,736,0,0
784,288,0,0,0,0,0,0,0,0,0,-1,2008,736,0,0
791,288,0,0,0,0,0,0,0,0,0,-1,2015,736,0,0
798,288,0,0,0,0,0,0,0,0,0,-1,2022,736,0,0
805,288,0,0,0,0,0,0,0,0,0,-1,2029,736,0,0
812,288,0,0,0,0,0,0,0,0,0,-1,2036,736,0,0
-700,281,0,0,0,0,0,0,0,0,0,-1,524,743,0,0
-693,281,0,0,0,0,0,0,0,0,0,-1,531,743,0,0
-686,281,0,0,0,0,0,0,0,0,0,-1,538,743,0,0
-679,281,0,0,0,0,0,0,0,0,0,-1,545,743,0,0
-672,281,0,0,0,0,0,0,0,0,0,-1,552,743,0,0
-665,281,0,0,0,0,0,0,0,0,0,-1,559,743,0,0
-658,281,0,0,0,0,0,0,0,0,0,-1,566,743,0,0
-651,281,0,0,0,0,0,0,0,0,0,-1,573,743,0,0
-644,281,0,0,0,0,0,0,0,0,0,-1,580,743,0,0
-637,281,0,0,0,0,0,0,0,0,0,-1,587,743,0,0
-630,281,0,0,0,0,0,0,0,0,0,-1,594,743,0,0
-623,281,-19.1697,5.67017,0,0,0,0,0,0,0,-1,601,743,-19.1697,-5.67019
-616,281,-11.5906,2.6853,0,0,0,0,0,0,0,-1,608,743,-11.5906,-2.68529
-609,281,-16.1972,4.14838,0,0,0,0,0,0,0,-1,615,743,-16.1972,-4.14837
-602,281,-21.9772,6.77417,0,0,0,0,0,0,0,-1,622,743,-21.9771,-6.77415
-595,281,-10.4797,-1.07404,0,0,0,0,0,0,0,-1,629,743,-10.4798,1.07402
-588,281,-13.277,1.49817,0,0,0,0,0,0,0,-1,636,743,-13.2771,-1.49817
-581,281,-25.1243,0.716309,0,0,0,0,0,0,0,-1,643,743,-25.1242,-0.716281
-574,281,-25.0026,-0.00537109,-0.0016296,0.00666137,-0.00240966,0.00731083,-0.00227906,-1.30753,0.0057852,0.0447766,650,743,-25.0026,0.00534245
-567,281,-25.1571,-0.709351,-0.00107823,0.00475543,-0.00152516,0.00513011,-0.00145291,-1.3299,0.00399347,0.0223249,657,743,-25.1571,0.709354
-560,281,-25.2305,-1.44763,-0.000650405,0.00330033,-0.000909581,0.00349968,-0.000849759,-1.35504,0.00266197,0.00900171,664,743,-25.2305,1.44761
-553,281,-25.2403,-2.16382,-0.000359845,0.00208595,-0.000382282,0.00214431,-0.000418204,-1.41931,0.00158741,0.014081,671,743,-25.2403,2.1638
-546,281,-25.2629,-2.86761,-0.000301035,0.000909796,0.000164445,0.000931732,-0.000322972,1.43818,0.000752288,0.0163355,678,743,-25.263,2.86762
-539,281,-25.3054,-3.59827,-0.000362715,-0.000138832,0.000711829,0.000469804,-0.00097135,0.863389,0.00084868,0.0148769,685,743,-25.3054,3.59828
-532,281,-25.3213,-4.27826,-0.000597841,-0.000930818,0.0012297,0.000476595,-0.00200525,0.718113,0.0015208,0.0145818,692,743,-25.3213,4.27828
-525,281,-25.3719,-5.01361,-0.000907537,-0.0015341,0.0016099,0.000419279,-0.00286091,0.689301,0.0020613,0.01663,699,743,-25.3719,5.01359
-518,281,-25.4103,-5.77094,-0.00119915,-0.00162532,0.00190746,0.000507088,-0.00333155,0.729772,0.00240793,0.0131943,706,743,-25.4103,5.77094
-511,281,-25.4515,-6.50336,-0.00153169,-0.00149998,0.00212938,0.000613605,-0.00364527,0.78912,0.00265843,0.0118597,713,743,-25.4516,6.50335
-504,281,-25.5119,-7.22766,-0.00182965,-0.000973636,0.00221593,0.000855244,-0.00365853,0.880798,0.00276849,0.015345,720,743,-25.5119,7.22767
-497,281,-25.4372,-7.95245,-0.00188082,-3.40626e-06,0.00205747,0.00131938,-0.00320361,0.999415,0.00268582,0.0478581,727,743,-25.4372,7.95247
-490,281,-25.2964,-8.6015,0,0,0,0,0,0,0,-1,734,743,-25.2965,8.60149
-483,281,-22.1078,-2.34973,0,0,0,0,0,0,0,-1,741,743,-22.1078,2.3497
-476,281,-28.0016,2.17786,0,0,0,0,0,0,0,-1,748,743,-28.0016,-2.17786
-469,281,-34.6448,0.171692,0,0,0,0,0,0,0,-1,755,743,-34.6448,-0.171685
-462,281,-45.5345,-1.32562,0,0,0,0,0,0,0,-1,762,743,-45.5345,1.3256
-455,281,-45.3248,-0.990417,0,0,0,0,0,0,0,-1,769,743,-45.3248,0.99044
-448,281,-45.0236,-0.466003,0,0,0,0,0,0,0,-1,776,743,-45.0236,0.46603
-441,281,-44.8033,0.402039,0,0,0,0,0,0,0,-1,783,743,-44.8033,-0.402013
-434,281,0,0,0,0,0,0,0,0,0,-1,790,743,0,0
-427,281,0,0,0,0,0,0,0,0,0,-1,797,743,0,0
-420,281,0,0,0,0,0,0,0,0,0,-1,804,743,0,0
-413,281,0,0,0,0,0,0,0,0,0,-1,811,743,0,0
-406,281,0,0,0,0,0,0,0,0,0,-1,818,743,0,0
-399,281,0,0,0,0,0,0,0,0,0,-1,825,743,0,0
-392,281,0,0,0,0,0,0,0,0,0,-1,832,743,0,0
-385,281,0,0,0,0,0,0,0,0,0,-1,839,743,0,0
-378,281,0,0,0,0,0,0,0,0,0,-1,846,743,0,0
-371,281,0,0,0,0,0,0,0,0,0,-1,853,743,0,0
-364,281,0,0,0,0,0,0,0,0,0,-1,860,743,0,0
-357,281,0,0,0,0,0,0,0,0,0,-1,867,743,0,0
-350,281,0,0,0,0,0,0,0,0,0,-1,874,743,0,0
-343,281,0,0,0,0,0,0,0,0,0,-1,881,743,0,0
-336,281,0,0,0,0,0,0,0,0,0,-1,888,743,0,0
-329,281,0,0,0,0,0,0,0,0,0,-1,895,743,0,0
-322,281,0,0,0,0,0,0,0,0,0,-1,902,743,0,0
-315,281,0,0,0,0,0,0,0,0,0,-1,909,743,0,0
-308,281,0,0,0,0,0,0,0,0,0,-1,916,743,0,0
-301,281,0,0,0,0,0,0,0,0,0,-1,923,743,0,0
-294,281,0,0,0,0,0,0,0,0,0,-1,930,743,0,0
-287,281,0,0,0,0,0,0,0,0,0,-1,937,743,0,0
-280,281,0,0,0,0,0,0,0,0,0,-1,944,743,0,0
-273,281,0,0,0,0,0,0,0,0,0,-1,951,743,0,0
-266,281,0,0,0,0,0,0,0,0,0,-1,958,743,0,0
-259,281,0,0,0,0,0,0,0,0,0,-1,965,743,0,0
-252,281,0,0,0,0,0,0,0,0,0,-1,972,743,0,0
-245,281,0,0,0,0,0,0,0,0,0,-1,979,743,0,0
-238,281,0,0,0,0,0,0,0,0,0,-1,986,743,0,0
-231,281,0,0,0,0,0,0,0,0,0,-1,993,743,0,0
-224,281,0,0,0,0,0,0,0,0,0,-1,1000,743,0,0
-217,281,0,0,0,0,0,0,0,0,0,-1,1007,743,0,0
-210,281,0,0,0,0,0,0,0,0,0,-1,1014,743,0,0
-203,281,0,0,0,0,0,0,0,0,0,-1,1021,743,0,0
-196,281,0,0,0,0,0,0,0,0,0,-1,1028,743,0,0
-189,281,0,0,0,0,0,0,0,0,0,-1,1035,743,0,0
-182,281,0,0,0,0,0,0,0,0,0,-1,1042,743,0,0
-175,281,0,0,0,0,0,0,0,0,0,-1,1049,743,0,0
-168,281,0,0,0,0,0,0,0,0,0,-1,1056,743,0,0
-161,281,0,0,0,0,0,0,0,0,0,-1,1063,743,0,0
-154,281,0,0,0,0,0,0,0,0,0,-1,1070,743,0,0
-147,281,0,0,0,0,0,0,0,0,0,-1,1077,743,0,0
-140,281,0,0,0,0,0,0,0,0,0,-1,1084,743,0,0
-133,281,0,0,0,0,0,0,0,0,0,-1,1091,743,0,0
-126,281,0,0,0,0,0,0,0,0,0,-1,1098,743,0,0
-119,281,0,0,0,0,0,0,0,0,0,-1,1105,743,0,0
-112,281,0,0,0,0,0,0,0,0,0,-1,1112,743,0,0
-105,281,0,0,0,0,0,0,0,0,0,-1,1119,743,0,0
-98,281,0,0,0,0,0,0,0,0,0,-1,1126,743,0,0
-91,281,0,0,0,0,0,0,0,0,0,-1,1133,743,0,0
-84,281,0,0,0,0,0,0,0,0,0,-1,1140,743,0,0
-77,281,0,0,0,0,0,0,0,0,0,-1,1147,743,0,0
-70,281,0,0,0,0,0,0,0,0,0,-1,1154,743,0,0
-63,281,0,0,0,0,0,0,0,0,0,-1,1161,743,0,0
-56,281,0,0,0,0,0,0,0,0,0,-1,1168,743,0,0
-49,281,0,0,0,0,0,0,0,0,0,-1,1175,743,0,0
-42,281,0,0,0,0,0,0,0,0,0,-1,1182,743,0,0
-35,281,0,0,0,0,0,0,0,0,0,-1,1189,743,0,0
-28,281,0,0,0,0,0,0,0,0,0,-1,1196,743,0,0
-21,281,0,0,0,0,0,0,0,0,0,-1,1203,743,0,0
-14,281,0,0,0,0,0,0,0,0,0,-1,1210,743,0,0
-7,281,0,0,0,0,0,0,0,0,0,-1,1217,743,0,0
0,281,0,0,0,0,0,0,0,0,0,-1,1224,743,0,0
7,281,0,0,0,0,0,0,0,0,0,-1,1231,743,0,0
14,281,0,0,0,0,0,0,0,0,0,-1,1238,743,0,0
21,281,0,0,0,0,0,0,0,0,0,-1,1245,743,0,0
28,281,0,0,0,0,0,0,0,0,0,-1,1252,743,0,0
35,281,0,0,0,0,0,0,0,0,0,-1,1259,743,0,0
42,281,0,0,0,0,0,0,0,0,0,-1,1266,743,0,0
49,281,0,0,0,0,0,0,0,0,0,-1,1273,743,0,0
56,281,0,0,0,0,0,0,0,0,0,-1,1280,743,0,0
63,281,0,0,0,0,0,0,0,0,0,-1,1287,743,0,0
70,281,0,0,0,0,0,0,0,0,0,-1,1294,743,0,0
77,281,0,0,0,0,0,0,0,0,0,-1,1301,743,0,0
84,281,0,0,0,0,0,0,0,0,0,-1,1308,743,0,0
91,281,0,0,0,0,0,0,0,0,0,-1,1315,743,0,0
98,281,0,0,0,0,0,0,0,0,0,-1,1322,743,0,0
105,281,0,0,0,0,0,0,0,0,0,-1,1329,743,0,0
112,281,0,0,0,0,0,0,0,0,0,-1,1336,743,0,0
119,281,0,0,0,0,0,0,0,0,0,-1,1343,743,0,0
126,281,0,0,0,0,0,0,0,0,0,-1,1350,743,0,0
133,281,0,0,0,0,0,0,0,0,0,-1,1357,743,0,0
140,281,0,0,0,0,0,0,0,0,0,-1,1364,743,0,0
147,281,0,0,0,0,0,0,0,0,0,-1,1371,743,0,0
154,281,0,0,0,0,0,0,0,0,0,-1,1378,743,0,0
161,281,0,0,0,0,0,0,0,0,0,-1,1385,743,0,0
168,281,0,0,0,0,0,0,0,0,0,-1,1392,743,0,0
175,281,0,0,0,0,0,0,0,0,0,-1,1399,743,0,0
182,281,0,0,0,0,0,0,0,0,0,-1,1406,743,0,0
189,281,0,0,0,0,0,0,0,0,0,-1,1413,743,0,0
196,281,0,0,0,0,0,0,0,0,0,-1,1420,743,0,0
203,281,0,0,0,0,0,0,0,0,0,-1,1427,743,0,0
210,281,0,0,0,0,0,0,0,0,0,-1,1434,743,0,0
217,281,0,0,0,0,0,0,0,0,0,-1,1441,743,0,0
224,281,0,0,0,0,0,0,0,0,0,-1,1448,743,0,0
231,281,0,0,0,0,0,0,0,0,0,-1,1455,743,0,0
238,281,0,0,0,0,0,0,0,0,0,-1,1462,743,0,0
245,281,0,0,0,0,0,0,0,0,0,-1,1469,743,0,0
252,281,0,0,0,0,0,0,0,0,0,-1,1476,743,0,0
259,281,0,0,0,0,0,0,0,0,0,-1,1483,743,0,0
266,281,0,0,0,0,0,0,0,0,0,-1,1490,743,0,0
273,281,0,0,0,0,0,0,0,0,0,-1,1497,743,0,0
280,281,0,0,0,0,0,0,0,0,0,-1,1504,743,0,0
287,281,0,0,0,0,0,0,0,0,0,-1,1511,743,0,0
294,281,0,0,0,0,0,0,0,0,0,-1,1518,743,0,0
301,281,0,0,0,0,0,0,0,0,0,-1,1525,743,0,0
308,281,0,0,0,0,0,0,0,0,0,-1,1532,743,0,0
315,281,0,0,0,0,0,0,0,0,0,-1,1539,743,0,0
322,281,0,0,0,0,0,0,0,0,0,-1,1546,743,0,0
329,281,0,0,0,0,0,0,0,0,0,-1,1553,743,0,0
336,281,0,0,0,0,0,0,0,0,0,-1,1560,743,0,0
343,281,0,0,0,0,0,0,0,0,0,-1,1567,743,0,0
350,281,0,0,0,0,0,0,0,0,0,-1,1574,743,0,0
357,281,0,0,0,0,0,0,0,0,0,-1,1581,743,0,0
364,281,0,0,0,0,0,0,0,0,0,-1,1588,743,0,0
371,281,0,0,0,0,0,0,0,0,0,-1,1595,743,0,0
378,281,0,0,0,0,0,0,0,0,0,-1,1602,743,0,0
385,281,0,0,0,0,0,0,0,0,0,-1,1609,743,0,0
392,281,0,0,0,0,0,0,0,0,0,-1,1616,743,0,0
399,281,0,0,0,0,0,0,0,0,0,-1,1623,743,0,0
406,281,0,0,0,0,0,0,0,0,0,-1,1630,743,0,0
413,281,0,0,0,0,0,0,0,0,0,-1,1637,743,0,0
420,281,0,0,0,0,0,0,0,0,0,-1,1644,743,0,0
427,281,0,0,0,0,0,0,0,0,0,-1,1651,743,0,0
434,281,0,0,0,0,0,0,0,0,0,-1,1658,743,0,0
441,281,0,0,0,0,0,0,0,0,0,-1,1665,743,0,0
448,281,0,0,0,0,0,0,0,0,0,-1,1672,743,0,0
455,281,0,0,0,0,0,0,0,0,0,-1,1679,743,0,0
462,281,0,0,0,0,0,0,0,0,0,-1,1686,743,0,0
469,281,0,0,0,0,0,0,0,0,0,-1,1693,743,0,0
476,281,0,0,0,0,0,0,0,0,0,-1,1700,743,0,0
483,281,0,0,0,0,0,0,0,0,0,-1,1707,743,0,0
490,281,0,0,0,0,0,0,0,0,0,-1,1714,743,0,0
497,281,0,0,0,0,0,0,0,0,0,-1,1721,743,0,0
504,281,0,0,0,0,0,0,0,0,0,-1,1728,743,0,0
511,281,0,0,0,0,0,0,0,0,0,-1,1735,743,0,0
518,281,0,0,0,0,0,0,0,0,0,-1,1742,743,0,0
525,281,0,0,0,0,0,0,0,0,0,-1,1749,743,0,0
532,281,0,0,0,0,0,0,0,0,0,-1,1756,743,0,0
539,281,0,0,0,0,0,0,0,0,0,-1,1763,743,0,0
546,281,0,0,0,0,0,0,0,0,0,-1,1770,743,0,0
553,281,0,0,0,0,0,0,0,0,0,-1,1777,743,0,0
560,281,57.8354,3.06482,0,0,0,0,0,0,0,-1,1784,743,57.8354,-3.06479
567,281,57.6156,3.64508,0,0,0,0,0,0,0,-1,1791,743,57.6156,-3.64511
574,281,57.3431,4.17767,0,0,0,0,0,0,0,-1,1798,743,57.3431,-4.17769
581,281,57.0648,4.53906,0,0,0,0,0,0,0,-1,1805,743,57.0648,-4.53908
588,281,53.5422,6.00092,0,0,0,0,0,0,0,-1,1812,743,53.5422,-6.00092
595,281,54.8569,3.32269,0,0,0,0,0,0,0,-1,1819,743,54.857,-3.32269
602,281,45.9985,3.98254,0,0,0,0,0,0,0,-1,1826,743,45.9985,-3.98254
609,281,32.7925,1.28723,0,0,0,0,0,0,0,-1,1833,743,32.7925,-1.28722
616,281,21.3191,-0.253906,0,0,0,0,0,0,0,-1,1840,743,21.3191,0.253931
623,281,31.8741,-4.74182,0,0,0,0,0,0,0,-1,1847,743,31.8741,4.74184
630,281,38.4232,-5.81934,0,0,0,0,0,0,0,-1,1854,743,38.4233,5.81937
637,281,38.4757,-5.11725,0.00224482,0.00121654,0.00191707,0.0037155,-0.000254142,0.654386,0.00256591,0.0183558,1861,743,38.4757,5.11728
644,281,38.4875,-4.36835,0.001475,0.000691944,0.00154931,0.00268149,-0.000514545,0.661634,0.00198157,0.0103546,1868,743,38.4875,4.36837
651,281,38.4708,-3.62909,0.00124817,0.000441452,0.0011641,0.00207681,-0.000387195,0.618623,0.00153003,0.0122571,1875,743,38.4708,3.62911
658,281,38.4536,-2.83148,0.00127894,0.000309844,0.000979328,0.00188703,-0.000298252,0.555669,0.00136832,0.0214691,1882,743,38.4537,2.83149
665,281,38.4038,-2.10101,0.00130407,0.000883028,0.00109289,0.00220653,-1.94316e-05,0.69025,0.00147754,0.0224702,1889,743,38.4038,2.10101
672,281,38.3336,-1.37219,0.00142923,0.00159796,0.00133614,0.00285239,0.000174794,0.816928,0.00184609,0.0139217,1896,743,38.3336,1.37218
679,281,38.3196,-0.640503,0.00158857,0.00252785,0.00165257,0.00377622,0.000340202,0.923842,0.00241209,0.0213367,1903,743,38.3196,0.640506
686,281,38.2491,0.0757446,0.00184398,0.00361261,0.00205765,0.00496792,0.000488669,0.98835,0.00316167,0.0175502,1910,743,38.2492,-0.0757247
693,281,38.2125,0.8349,0.00224386,0.00499123,0.00264085,0.0065943,0.000640787,1.02522,0.00419894,0.0132511,1917,743,38.2126,-0.834911
700,281,38.1514,1.64764,0.00270916,0.00670516,0.00338553,0.0086383,0.000776026,1.05197,0.00551841,0.0383895,1924,743,38.1514,-1.64767
707,281,38.223,2.44281,0,0,0,0,0,0,0,-1,1931,743,38.223,-2.44282
714,281,25.0125,2.5105,0,0,0,0,0,0,0,-1,1938,743,25.0124,-2.51053
721,281,16.9656,3.22174,0,0,0,0,0,0,0,-1,1945,743,16.9656,-3.22172
728,281,19.0251,3.63934,0,0,0,0,0,0,0,-1,1952,743,19.0252,-3.63932
735,281,19.0869,2.50311,0,0,0,0,0,0,0,-1,1959,743,19.0869,-2.5031
742,281,0,0,0,0,0,0,0,0,0,-1,1966,743,0,0
749,281,0,0,0,0,0,0,0,0,0,-1,1973,743,0,0
756,281,0,0,0,0,0,0,0,0,0,-1,1980,743,0,0
763,281,0,0,0,0,0,0,0,0,0,-1,1987,743,0,0
770,281,0,0,0,0,0,0,0,0,0,-1,1994,743,0,0
777,281,0,0,0,0,0,0,0,0,0,-1,2001,743,0,0
784,281,0,0,0,0,0,0,0,0,0,-1,2008,743,0,0
791,281,0,0,0,0,0,0,0,0,0,-1,2015,743,0,0
798,281,0,0,0,0,0,0,0,0,0,-1,2022,743,0,0
805,281,0,0,0,0,0,0,0,0,0,-1,2029,743,0,0
812,281,0,0,0,0,0,0,0,0,0,-1,2036,743,0,0
-700,274,0,0,0,0,0,0,0,0,0,-1,524,750,0,0
-693,274,0,0,0,0,0,0,0,0,0,-1,531,750,0,0
-686,274,0,0,0,0,0,0,0,0,0,-1,538,750,0,0
-679,274,0,0,0,0,0,0,0,0,0,-1,545,750,0,0
-672,274,0,0,0,0,0,0,0,0,0,-1,552,750,0,0
-665,274,0,0,0,0,0,0,0,0,0,-1,559,750,0,0
-658,274,0,0,0,0,0,0,0,0,0,-1,566,750,0,0
-651,274,0,0,0,0,0,0,0,0,0,-1,573,750,0,0
-644,274,0,0,0,0,0,0,0,0,0,-1,580,750,0,0
-637,274,0,0,0,0,0,0,0,0,0,-1,587,750,0,0
-630,274,0,0,0,0,0,0,0,0,0,-1,594,750,0,0
-623,274,-19.6909,5.12701,0,0,0,0,0,0,0,-1,601,750,-19.6908,-5.12703
-616,274,-17.9133,3.9024,0,0,0,0,0,0,0,-1,608,750,-17.9133,-3.90239
-609,274,-26.0861,5.57306,0,0,0,0,0,0,0,-1,615,750,-26.0861,-5.57307
-602,274,-25.7372,3.73846,0,0,0,0,0,0,0,-1,622,750,-25.7372,-3.73849
-595,274,-25.258,2.53473,0,0,0,0,0,0,0,-1,629,750,-25.258,-2.53474
-588,274,-24.9805,2.2334,0,0,0,0,0,0,0,-1,636,750,-24.9805,-2.23341
-581,274,-25.8306,0.828918,0,0,0,0,0,0,0,-1,643,750,-25.8306,-0.828928
-574,274,-25.7192,-0.00939941,-0.00120692,0.00600754,-0.00245466,0.0067635,-0.00196288,-1.27204,0.0052862,0.0296018,650,750,-25.7192,0.00941937
-567,274,-25.9153,-0.736084,-0.000963805,0.0042283,-0.00146277,0.00461205,-0.00134755,-1.31424,0.00360874,0.0284666,657,750,-25.9153,0.736064
-560,274,-25.9301,-1.40802,-0.000777492,0.00282178,-0.000727478,0.00296326,-0.000918968,-1.37872,0.0023427,0.0149516,664,750,-25.9301,1.40801
-553,274,-25.9568,-2.14014,-0.000689242,0.00156605,-7.20842e-05,0.00156835,-0.000691544,-1.53888,0.00133709,0.0100887,671,750,-25.9568,2.14012
-546,274,-26.0154,-2.85034,-0.000726951,0.000405357,0.000560609,0.000635954,-0.000957548,1.18056,0.000926233,0.0121147,678,750,-26.0154,2.85035
-539,274,-26.06,-3.56403,-0.000774081,-0.000692295,0.00118033,0.000447846,-0.00191422,0.802714,0.00144869,0.0129576,685,750,-26.06,3.56402
-532,274,-26.081,-4.25134,-0.000902153,-0.00140562,0.00169181,0.000556549,-0.00286432,0.711543,0.00211956,0.0138824,692,750,-26.081,4.25137
-525,274,-26.1155,-4.94464,-0.00100126,-0.00184733,0.00198375,0.00060406,-0.00345265,0.680346,0.0025273,0.0140986,699,750,-26.1154,4.94467
-518,274,-26.1378,-5.71191,-0.000996605,-0.00168173,0.00215561,0.000843492,-0.00352183,0.706599,0.00267377,0.0133893,706,750,-26.1378,5.71191
-511,274,-26.1627,-6.47614,-0.00096462,-0.00133808,0.0022245,0.00108097,-0.00338368,0.743525,0.00268952,0.0153595,713,750,-26.1627,6.47613
-504,274,-26.2729,-7.25885,-0.000877363,-0.000551089,0.00213687,0.00142886,-0.00285731,0.823496,0.00252002,0.0290321,720,750,-26.2729,7.25883
-497,274,-26.4383,-8.07422,0,0,0,0,0,0,0,-1,727,750,-26.4383,8.07425
-490,274,-13.6545,-3.58826,0,0,0,0,0,0,0,-1,734,750,-13.6546,3.58825
-483,274,-27.8608,1.30981,0,0,0,0,0,0,0,-1,741,750,-27.8608,-1.30979
-476,274,-33.7561,-0.508606,0,0,0,0,0,0,0,-1,748,750,-33.7561,0.508636
-469,274,-41.1387,0.907715,0,0,0,0,0,0,0,-1,755,750,-41.1387,-0.907744
-462,274,-47.8044,0.814026,0,0,0,0,0,0,0,-1,762,750,-47.8044,-0.814022
-455,274,-45.4913,-0.216675,0,0,0,0,0,0,0,-1,769,750,-45.4913,0.216672
-448,274,-45.2978,-0.228699,0,0,0,0,0,0,0,-1,776,750,-45.2978,0.228706
-441,274,0,0,0,0,0,0,0,0,0,-1,783,750,0,0
-434,274,0,0,0,0,0,0,0,0,0,-1,790,750,0,0
-427,274,0,0,0,0,0,0,0,0,0,-1,797,750,0,0
-420,274,0,0,0,0,0,0,0,0,0,-1,804,750,0,0
-413,274,0,0,0,0,0,0,0,0,0,-1,811,750,0,0
-406,274,0,0,0,0,0,0,0,0,0,-1,818,750,0,0
-399,274,0,0,0,0,0,0,0,0,0,-1,825,750,0,0
-392,274,0,0,0,0,0,0,0,0,0,-1,832,750,0,0
-385,274,0,0,0,0,0,0,0,0,0,-1,839,750,0,0
-378,274,0,0,0,0,0,0,0,0,0,-1,846,750,0,0
-371,274,0,0,0,0,0,0,0,0,0,-1,853,750,0,0
-364,274,0,0,0,0,0,0,0,0,0,-1,860,750,0,0
-357,274,0,0,0,0,0,0,0,0,0,-1,867,750,0,0
-350,274,0,0,0,0,0,0,0,0,0,-1,874,750,0,0
-343,274,0,0,0,0,0,0,0,0,0,-1,881,750,0,0
-336,274,0,0,0,0,0,0,0,0,0,-1,888,750,0,0
-329,274,0,0,0,0,0,0,0,0,0,-1,895,750,0,0
-322,274,0,0,0,0,0,0,0,0,0,-1,902,750,0,0
-315,274,0,0,0,0,0,0,0,0,0,-1,909,750,0,0
-308,274,0,0,0,0,0,0,0,0,0,-1,916,750,0,0
-301,274,0,0,0,0,0,0,0,0,0,-1,923,750,0,0
-294,274,0,0,0,0,0,0,0,0,0,-1,930,750,0,0
-287,274,0,0,0,0,0,0,0,0,0,-1,937,750,0,0
-280,274,0,0,0,0,0,0,0,0,0,-1,944,750,0,0
-273,274,0,0,0,0,0,0,0,0,0,-1,951,750,0,0
-266,274,0,0,0,0,0,0,0,0,0,-1,958,750,0,0
-259,274,0,0,0,0,0,0,0,0,0,-1,965,750,0,0
-252,274,0,0,0,0,0,0,0,0,0,-1,972,750,0,0
-245,274,0,0,0,0,0,0,0,0,0,-1,979,750,0,0
-238,274,0,0,0,0,0,0,0,0,0,-1,986,750,0,0
-231,274,0,0,0,0,0,0,0,0,0,-1,993,750,0,0
-224,274,0,0,0,0,0,0,0,0,0,-1,1000,750,0,0
-217,274,0,0,0,0,0,0,0,0,0,-1,1007,750,0,0
-210,274,0,0,0,0,0,0,0,0,0,-1,1014,750,0,0
-203,274,0,0,0,0,0,0,0,0,0,-1,1021,750,0,0
-196,274,0,0,0,0,0,0,0,0,0,-1,1028,750,0,0
-189,274,0,0,0,0,0,0,0,0,0,-1,1035,750,0,0
-182,274,0,0,0,0,0,0,0,0,0,-1,1042,750,0,0
-175,274,0,0,0,0,0,0,0,0,0,-1,1049,750,0,0
-168,274,0,0,0,0,0,0,0,0,0,-1,1056,750,0,0
-161,274,0,0,0,0,0,0,0,0,0,-1,1063,750,0,0
-154,274,0,0,0,0,0,0,0,0,0,-1,1070,750,0,0
-147,274,0,0,0,0,0,0,0,0,0,-1,1077,750,0,0
-140,274,0,0,0,0,0,0,0,0,0,-1,1084,750,0,0
-133,274,0,0,0,0,0,0,0,0,0,-1,1091,750,0,0
-126,274,0,0,0,0,0,0,0,0,0,-1,1098,750,0,0
-119,274,0,0,0,0,0,0,0,0,0,-1,1105,750,0,0
-112,274,0,0,0,0,0,0,0,0,0,-1,1112,750,0,0
-105,274,0,0,0,0,0,0,0,0,0,-1,1119,750,0,0
-98,274,0,0,0,0,0,0,0,0,0,-1,1126,750,0,0
-91,274,0,0,0,0,0,0,0,0,0,-1,1133,750,0,0
-84,274,0,0,0,0,0,0,0,0,0,-1,1140,750,0,0
-77,274,0,0,0,0,0,0,0,0,0,-1,1147,750,0,0
-70,274,0,0,0,0,0,0,0,0,0,-1,1154,750,0,0
-63,274,0,0,0,0,0,0,0,0,0,-1,1161,750,0,0
-56,274,0,0,0,0,0,0,0,0,0,-1,1168,750,0,0
-49,274,0,0,0,0,0,0,0,0,0,-1,1175,750,0,0
-42,274,0,0,0,0,0,0,0,0,0,-1,1182,750,0,0
-35,274,0,0,0,0,0,0,0,0,0,-1,1189,750,0,0
-28,274,0,0,0,0,0,0,0,0,0,-1,1196,750,0,0
-21,274,0,0,0,0,0,0,0,0,0,-1,1203,750,0,0
-14,274,0,0,0,0,0,0,0,0,0,-1,1210,750,0,0
-7,274,0,0,0,0,0,0,0,0,0,-1,1217,750,0,0
0,274,0,0,0,0,0,0,0,0,0,-1,1224,750,0,0
7,274,0,0,0,0,0,0,0,0,0,-1,1231,750,0,0
14,274,0,0,0,0,0,0,0,0,0,-1,1238,750,0,0
21,274,0,0,0,0,0,0,0,0,0,-1,1245,750,0,0
28,274,0,0,0,0,0,0,0,0,0,-1,1252,750,0,0
35,274,0,0,0,0,0,0,0,0,0,-1,1259,750,0,0
42,274,0,0,0,0,0,0,0,0,0,-1,1266,750,0,0
49,274,0,0,0,0,0,0,0,0,0,-1,1273,750,0,0
56,274,0,0,0,0,0,0,0,0,0,-1,1280,750,0,0
63,274,0,0,0,0,0,0,0,0,0,-1,1287,750,0,0
70,274,0,0,0,0,0,0,0,0,0,-1,1294,750,0,0
77,274,0,0,0,0,0,0,0,0,0,-1,1301,750,0,0
84,274,0,0,0,0,0,0,0,0,0,-1,1308,750,0,0
91,274,0,0,0,0,0,0,0,0,0,-1,1315,750,0,0
98,274,0,0,0,0,0,0,0,0,0,-1,1322,750,0,0
105,274,0,0,0,0,0,0,0,0,0,-1,1329,750,0,0
112,274,0,0,0,0,0,0,0,0,0,-1,1336,750,0,0
119,274,0,0,0,0,0,0,0,0,0,-1,1343,750,0,0
126,274,0,0,0,0,0,0,0,0,0,-1,1350,750,0,0
133,274,0,0,0,0,0,0,0,0,0,-1,1357,750,0,0
140,274,0,0,0,0,0,0,0,0,0,-1,1364,750,0,0
147,274,0,0,0,0,0,0,0,0,0,-1,1371,750,0,0
154,274,0,0,0,0,0,0,0,0,0,-1,1378,750,0,0
161,274,0,0,0,0,0,0,0,0,0,-1,1385,750,0,0
168,274,0,0,0,0,0,0,0,0,0,-1,1392,750,0,0
175,274,0,0,0,0,0,0,0,0,0,-1,1399,750,0,0
182,274,0,0,0,0,0,0,0,0,0,-1,1406,750,0,0
189,274,0,0,0,0,0,0,0,0,0,-1,1413,750,0,0
196,274,0,0,0,0,0,0,0,0,0,-1,1420,750,0,0
203,274,0,0,0,0,0,0,0,0,0,-1,1427,750,0,0
210,274,0,0,0,0,0,0,0,0,0,-1,1434,750,0,0
217,274,0,0,0,0,0,0,0,0,0,-1,1441,750,0,0
224,274,0,0,0,0,0,0,0,0,0,-1,1448,750,0,0
231,274,0,0,0,0,0,0,0,0,0,-1,1455,750,0,0
238,274,0,0,0,0,0,0,0,0,0,-1,1462,750,0,0
245,274,0,0,0,0,0,0,0,0,0,-1,1469,750,0,0
252,274,0,0,0,0,0,0,0,0,0,-1,1476,750,0,0
259,274,0,0,0,0,0,0,0,0,0,-1,1483,750,0,0
266,274,0,0,0,0,0,0,0,0,0,-1,1490,750,0,0
273,274,0,0,0,0,0,0,0,0,0,-1,1497,750,0,0
280,274,0,0,0,0,0,0,0,0,0,-1,1504,750,0,0
287,274,0,0,0,0,0,0,0,0,0,-1,1511,750,0,0
294,274,0,0,0,0,0,0,0,0,0,-1,1518,750,0,0
301,274,0,0,0,0,0,0,0,0,0,-1,1525,750,0,0
308,274,0,0,0,0,0,0,0,0,0,-1,1532,750,0,0
315,274,0,0,0,0,0,0,0,0,0,-1,1539,750,0,0
322,274,0,0,0,0,0,0,0,0,0,-1,1546,750,0,0
329,274,0,0,0,0,0,0,0,0,0,-1,1553,750,0,0
336,274,0,0,0,0,0,0,0,0,0,-1,1560,750,0,0
343,274,0,0,0,0,0,0,0,0,0,-1,1567,750,0,0
350,274,0,0,0,0,0,0,0,0,0,-1,1574,750,0,0
357,274,0,0,0,0,0,0,0,0,0,-1,1581,750,0,0
364,274,0,0,0,0,0,0,0,0,0,-1,1588,750,0,0
371,274,0,0,0,0,0,0,0,0,0,-1,1595,750,0,0
378,274,0,0,0,0,0,0,0,0,0,-1,1602,750,0,0
385,274,0,0,0,0,0,0,0,0,0,-1,1609,750,0,0
392,274,0,0,0,0,0,0,0,0,0,-1,1616,750,0,0
399,274,0,0,0,0,0,0,0,0,0,-1,1623,750,0,0
406,274,0,0,0,0,0,0,0,0,0,-1,1630,750,0,0
413,274,0,0,0,0,0,0,0,0,0,-1,1637,750,0,0
420,274,0,0,0,0,0,0,0,0,0,-1,1644,750,0,0
427,274,0,0,0,0,0,0,0,0,0,-1,1651,750,0,0
434,274,0,0,0,0,0,0,0,0,0,-1,1658,750,0,0
441,274,0,0,0,0,0,0,0,0,0,-1,1665,750,0,0
448,274,0,0,0,0,0,0,0,0,0,-1,1672,750,0,0
455,274,0,0,0,0,0,0,0,0,0,-1,1679,750,0,0
462,274,0,0,0,0,0,0,0,0,0,-1,1686,750,0,0
469,274,0,0,0,0,0,0,0,0,0,-1,1693,750,0,0
476,274,0,0,0,0,0,0,0,0,0,-1,1700,750,0,0
483,274,0,0,0,0,0,0,0,0,0,-1,1707,750,0,0
490,274,0,0,0,0,0,0,0,0,0,-1,1714,750,0,0
497,274,0,0,0,0,0,0,0,0,0,-1,1721,750,0,0
504,274,0,0,0,0,0,0,0,0,0,-1,1728,750,0,0
511,274,0,0,0,0,0,0,0,0,0,-1,1735,750,0,0
518,274,0,0,0,0,0,0,0,0,0,-1,1742,750,0,0
525,274,0,0,0,0,0,0,0,0,0,-1,1749,750,0,0
532,274,0,0,0,0,0,0,0,0,0,-1,1756,750,0,0
539,274,0,0,0,0,0,0,0,0,0,-1,1763,750,0,0
546,274,0,0,0,0,0,0,0,0,0,-1,1770,750,0,0
553,274,0,0,0,0,0,0,0,0,0,-1,1777,750,0,0
560,274,57.9182,3.24518,0,0,0,0,0,0,0,-1,1784,750,57.9182,-3.24516
567,274,57.8315,3.4137,0,0,0,0,0,0,0,-1,1791,750,57.8315,-3.41368
574,274,58.2571,3.11115,0,0,0,0,0,0,0,-1,1798,750,58.2571,-3.11114
581,274,54.4941,4.68127,0,0,0,0,0,0,0,-1,1805,750,54.4941,-4.68125
588,274,53.9908,5.6676,0,0,0,0,0,0,0,-1,1812,750,53.9908,-5.66763
595,274,61.5503,2.89563,0,0,0,0,0,0,0,-1,1819,750,61.5503,-2.89564
602,274,55.6321,2.56519,0,0,0,0,0,0,0,-1,1826,750,55.6321,-2.56521
609,274,44.6676,3.10461,0,0,0,0,0,0,0,-1,1833,750,44.6676,-3.1046
616,274,32.7869,1.78436,0,0,0,0,0,0,0,-1,1840,750,32.7868,-1.78437
623,274,24.8231,-1.80353,0,0,0,0,0,0,0,-1,1847,750,24.8232,1.80351
630,274,39.3466,-5.98114,0,0,0,0,0,0,0,-1,1854,750,39.3466,5.98115
637,274,39.1998,-5.15967,0.00181833,0.00151251,0.00179146,0.0034634,-0.000132557,0.742823,0.00235436,0.02517,1861,750,39.1998,5.15967
644,274,39.2184,-4.33051,0.000900983,0.000859791,0.00153883,0.00241936,-0.000658584,0.778706,0.00187147,0.0132788,1868,750,39.2183,4.33051
651,274,39.2078,-3.58331,0.000586309,0.000329489,0.00102699,0.00149289,-0.00057709,0.723203,0.00123347,0.0139355,1875,750,39.2078,3.58329
658,274,39.1718,-2.83392,0.000656212,-0.000217061,0.000647205,0.0010003,-0.000561146,0.488644,0.000913307,0.0176998,1882,750,39.1717,2.83393
665,274,39.1091,-2.08643,0.000747286,0.000273105,0.000692685,0.00124233,-0.000221941,0.620509,0.000911256,0.0176481,1889,750,39.1092,2.08643
672,274,39.092,-1.34607,0.000974173,0.000991104,0.00093585,0.00191853,4.67501e-05,0.789921,0.00126372,0.014601,1896,750,39.0921,1.34609
679,274,39.0568,-0.609436,0.00124206,0.00197292,0.00128826,0.00294658,0.000268398,0.923598,0.00188131,0.0159591,1903,750,39.0568,0.609445
686,274,39.0198,0.135376,0.00160187,0.00311818,0.00174006,0.00425807,0.000461976,0.99085,0.00269794,0.0183658,1910,750,39.0198,-0.135365
693,274,38.9419,0.905701,0.00205648,0.00448715,0.00235407,0.0059211,0.000622534,1.02369,0.00375712,0.0138029,1917,750,38.9419,-0.905704
700,274,38.9279,1.69653,0.00256638,0.00614794,0.00314129,0.00797305,0.000741273,1.04446,0.00508631,0.0183137,1924,750,38.9279,-1.69653
707,274,38.823,2.47253,0.00302229,0.00786618,0.00417782,0.0102733,0.000615153,1.04808,0.00665331,0.0372154,1931,750,38.823,-2.47252
714,274,38.6942,3.27472,0,0,0,0,0,0,0,-1,1938,750,38.6942,-3.27474
721,274,25.6215,3.91144,0,0,0,0,0,0,0,-1,1945,750,25.6214,-3.91141
728,274,19.2209,3.95154,0,0,0,0,0,0,0,-1,1952,750,19.221,-3.95151
735,274,20.6608,4.10931,0,0,0,0,0,0,0,-1,1959,750,20.6607,-4.10932
742,274,11.7815,-0.740234,0,0,0,0,0,0,0,-1,1966,750,11.7815,0.740253
749,274,0,0,0,0,0,0,0,0,0,-1,1973,750,0,0
756,274,0,0,0,0,0,0,0,0,0,-1,1980,750,0,0
763,274,0,0,0,0,0,0,0,0,0,-1,1987,750,0,0
770,274,0,0,0,0,0,0,0,0,0,-1,1994,750,0,0
777,274,0,0,0,0,0,0,0,0,0,-1,2001,750,0,0
784,274,0,0,0,0,0,0,0,0,0,-1,2008,750,0,0
791,274,0,0,0,0,0,0,0,0,0,-1,2015,750,0,0
798,274,0,0,0,0,0,0,0,0,0,-1,2022,750,0,0
805,274,0,0,0,0,0,0,0,0,0,-1,2029,750,0,0
812,274,0,0,0,0,0,0,0,0,0,-1,2036,750,0,0
-700,267,0,0,0,0,0,0,0,0,0,-1,524,757,0,0
-693,267,0,0,0,0,0,0,0,0,0,-1,531,757,0,0
-686,267,0,0,0,0,0,0,0,0,0,-1,538,757,0,0
-679,267,0,0,0,0,0,0,0,0,0,-1,545,757,0,0
-672,267,0,0,0,0,0,0,0,0,0,-1,552,757,0,0
-665,267,0,0,0,0,0,0,0,0,0,-1,559,757,0,0
-658,267,0,0,0,0,0,0,0,0,0,-1,566,757,0,0
-651,267,0,0,0,0,0,0,0,0,0,-1,573,757,0,0
-644,267,0,0,0,0,0,0,0,0,0,-1,580,757,0,0
-637,267,0,0,0,0,0,0,0,0,0,-1,587,757,0,0
-630,267,-21.3979,5.17529,0,0,0,0,0,0,0,-1,594,757,-21.3979,-5.17529
-623,267,-20.043,4.43115,0,0,0,0,0,0,0,-1,601,757,-20.043,-4.43116
-616,267,-27.1628,5.9325,0,0,0,0,0,0,0,-1,608,757,-27.1629,-5.93249
-609,267,-26.9868,4.99658,0,0,0,0,0,0,0,-1,615,757,-26.9868,-4.99656
-602,267,-26.6637,3.74072,0,0,0,0,0,0,0,-1,622,757,-26.6637,-3.74075
-595,267,-26.2172,2.54993,0,0,0,0,0,0,0,-1,629,757,-26.2171,-2.54993
-588,267,-26.6376,1.71429,0,0,0,0,0,0,0,-1,636,757,-26.6376,-1.71429
-581,267,-26.4689,1.00256,-0.000712323,0.00669811,-0.00360722,0.00816403,-0.00217824,-1.1848,0.00629565,0.0424299,643,757,-26.4689,-1.00257
-574,267,-26.4868,0.0773926,-0.000771335,0.00526408,-0.0024516,0.00613442,-0.00164168,-1.22967,0.00473272,0.0248249,650,757,-26.4868,-0.0773802
-567,267,-26.607,-0.621338,-0.000789145,0.00368258,-0.0014184,0.00409453,-0.0012011,-1.28814,0.00320595,0.0292433,657,757,-26.607,0.621355
-560,267,-26.6685,-1.3172,-0.000828634,0.00236817,-0.000601691,0.00247767,-0.000938131,-1.39078,0.00203779,0.022824,664,757,-26.6685,1.31718
-553,267,-26.6868,-2.09082,-0.000947362,0.0011014,0.000159474,0.00111374,-0.000959701,1.49358,0.0011982,0.0185247,671,757,-26.6868,2.09083
-546,267,-26.7145,-2.8147,-0.00106522,-7.28695e-05,0.000855908,0.000420282,-0.00155837,1.04808,0.00120372,0.011831,678,757,-26.7145,2.81469
-539,267,-26.7499,-3.5365,-0.0011189,-0.00117304,0.0015072,0.000361471,-0.00265342,0.776419,0.00190093,0.0115426,685,757,-26.7499,3.53649
-532,267,-26.7502,-4.25195,-0.00119589,-0.00175919,0.00194057,0.000483364,-0.00343845,0.713333,0.00246924,0.0128826,692,757,-26.7502,4.25196
-525,267,-26.8184,-4.91913,-0.00116093,-0.00201161,0.00207087,0.000527835,-0.00370037,0.684112,0.00266037,0.0119393,699,757,-26.8184,4.91912
-518,267,-26.8669,-5.6474,-0.000989277,-0.00163764,0.00208308,0.000794698,-0.00342161,0.708205,0.00258699,0.0131427,706,757,-26.8669,5.6474
-511,267,-26.8595,-6.39172,-0.000754977,-0.00114828,0.00198767,0.00104575,-0.002949,0.736091,0.00239203,0.0245612,713,757,-26.8595,6.39171
-504,267,-27.048,-6.87177,-0.000495636,-0.00019656,0.00174081,0.00140112,-0.00209332,0.828244,0.00203067,0.0427546,720,757,-27.048,6.87178
-497,267,-27.3468,-7.3537,0,0,0,0,0,0,0,-1,727,757,-27.3468,7.35372
-490,267,-23.4949,-0.494995,0,0,0,0,0,0,0,-1,734,757,-23.4949,0.494981
-483,267,-33.2785,-0.448425,0,0,0,0,0,0,0,-1,741,757,-33.2785,0.448407
-476,267,-40.2954,0.52002,0,0,0,0,0,0,0,-1,748,757,-40.2954,-0.520037
-469,267,-46.6995,0.73468,0,0,0,0,0,0,0,-1,755,757,-46.6995,-0.734655
-462,267,-47.325,0.750977,0,0,0,0,0,0,0,-1,762,757,-47.325,-0.75097
-455,267,-47.4183,1.00275,0,0,0,0,0,0,0,-1,769,757,-47.4184,-1.00275
-448,267,-45.463,0.364624,0,0,0,0,0,0,0,-1,776,757,-45.463,-0.364611
-441,267,0,0,0,0,0,0,0,0,0,-1,783,757,0,0
-434,267,0,0,0,0,0,0,0,0,0,-1,790,757,0,0
-427,267,0,0,0,0,0,0,0,0,0,-1,797,757,0,0
-420,267,0,0,0,0,0,0,0,0,0,-1,804,757,0,0
-413,267,0,0,0,0,0,0,0,0,0,-1,811,757,0,0
-406,267,0,0,0,0,0,0,0,0,0,-1,818,757,0,0
-399,267,0,0,0,0,0,0,0,0,0,-1,825,757,0,0
-392,267,0,0,0,0,0,0,0,0,0,-1,832,757,0,0
-385,267,0,0,0,0,0,0,0,0,0,-1,839,757,0,0
-378,267,0,0,0,0,0,0,0,0,0,-1,846,757,0,0
-371,267,0,0,0,0,0,0,0,0,0,-1,853,757,0,0
-364,267,0,0,0,0,0,0,0,0,0,-1,860,757,0,0
-357,267,0,0,0,0,0,0,0,0,0,-1,867,757,0,0
-350,267,0,0,0,0,0,0,0,0,0,-1,874,757,0,0
-343,267,0,0,0,0,0,0,0,0,0,-1,881,757,0,0
-336,267,0,0,0,0,0,0,0,0,0,-1,888,757,0,0
-329,267,0,0,0,0,0,0,0,0,0,-1,895,757,0,0
-322,267,0,0,0,0,0,0,0,0,0,-1,902,757,0,0
-315,267,0,0,0,0,0,0,0,0,0,-1,909,757,0,0
-308,267,0,0,0,0,0,0,0,0,0,-1,916,757,0,0
-301,267,0,0,0,0,0,0,0,0,0,-1,923,757,0,0
-294,267,0,0,0,0,0,0,0,0,0,-1,930,757,0,0
-287,267,0,0,0,0,0,0,0,0,0,-1,937,757,0,0
-280,267,0,0,0,0,0,0,0,0,0,-1,944,757,0,0
-273,267,0,0,0,0,0,0,0,0,0,-1,951,757,0,0
-266,267,0,0,0,0,0,0,0,0,0,-1,958,757,0,0
-259,267,0,0,0,0,0,0,0,0,0,-1,965,757,0,0
-252,267,0,0,0,0,0,0,0,0,0,-1,972,757,0,0
-245,267,0,0,0,0,0,0,0,0,0,-1,979,757,0,0
-238,267,0,0,0,0,0,0,0,0,0,-1,986,757,0,0
-231,267,0,0,0,0,0,0,0,0,0,-1,993,757,0,0
-224,267,0,0,0,0,0,0,0,0,0,-1,1000,757,0,0
-217,267,0,0,0,0,0,0,0,0,0,-1,1007,757,0,0
-210,267,0,0,0,0,0,0,0,0,0,-1,1014,757,0,0
-203,267,0,0,0,0,0,0,0,0,0,-1,1021,757,0,0
-196,267,0,0,0,0,0,0,0,0,0,-1,1028,757,0,0
-189,267,0,0,0,0,0,0,0,0,0,-1,1035,757,0,0
-182,267,0,0,0,0,0,0,0,0,0,-1,1042,757,0,0
-175,267,0,0,0,0,0,0,0,0,0,-1,1049,757,0,0
-168,267,0,0,0,0,0,0,0,0,0,-1,1056,757,0,0
-161,267,0,0,0,0,0,0,0,0,0,-1,1063,757,0,0
-154,267,0,0,0,0,0,0,0,0,0,-1,1070,757,0,0
-147,267,0,0,0,0,0,0,0,0,0,-1,1077,757,0,0
-140,267,0,0,0,0,0,0,0,0,0,-1,1084,757,0,0
-133,267,0,0,0,0,0,0,0,0,0,-1,1091,757,0,0
-126,267,0,0,0,0,0,0,0,0,0,-1,1098,757,0,0
-119,267,0,0,0,0,0,0,0,0,0,-1,1105,757,0,0
-112,267,0,0,0,0,0,0,0,0,0,-1,1112,757,0,0
-105,267,0,0,0,0,0,0,0,0,0,-1,1119,757,0,0
-98,267,0,0,0,0,0,0,0,0,0,-1,1126,757,0,0
-91,267,0,0,0,0,0,0,0,0,0,-1,1133,757,0,0
-84,267,0,0,0,0,0,0,0,0,0,-1,1140,757,0,0
-77,267,0,0,0,0,0,0,0,0,0,-1,1147,757,0,0
-70,267,0,0,0,0,0,0,0,0,0,-1,1154,757,0,0
-63,267,0,0,0,0,0,0,0,0,0,-1,1161,757,0,0
-56,267,0,0,0,0,0,0,0,0,0,-1,1168,757,0,0
-49,267,0,0,0,0,0,0,0,0,0,-1,1175,757,0,0
-42,267,0,0,0,0,0,0,0,0,0,-1,1182,757,0,0
-35,267,0,0,0,0,0,0,0,0,0,-1,1189,757,0,0
-28,267,0,0,0,0,0,0,0,0,0,-1,1196,757,0,0
-21,267,0,0,0,0,0,0,0,0,0,-1,1203,757,0,0
-14,267,0,0,0,0,0,0,0,0,0,-1,1210,757,0,0
-7,267,0,0,0,0,0,0,0,0,0,-1,1217,757,0,0
0,267,0,0,0,0,0,0,0,0,0,-1,1224,757,0,0
7,267,0,0,0,0,0,0,0,0,0,-1,1231,757,0,0
14,267,0,0,0,0,0,0,0,0,0,-1,1238,757,0,0
21,267,0,0,0,0,0,0,0,0,0,-1,1245,757,0,0
28,267,0,0,0,0,0,0,0,0,0,-1,1252,757,0,0
35,267,0,0,0,0,0,0,0,0,0,-1,1259,757,0,0
42,267,0,0,0,0,0,0,0,0,0,-1,1266,757,0,0
49,267,0,0,0,0,0,0,0,0,0,-1,1273,757,0,0
56,267,0,0,0,0,0,0,0,0,0,-1,1280,757,0,0
63,267,0,0,0,0,0,0,0,0,0,-1,1287,757,0,0
70,267,0,0,0,0,0,0,0,0,0,-1,1294,757,0,0
77,267,0,0,0,0,0,0,0,0,0,-1,1301,757,0,0
84,267,0,0,0,0,0,0,0,0,0,-1,1308,757,0,0
91,267,0,0,0,0,0,0,0,0,0,-1,1315,757,0,0
98,267,0,0,0,0,0,0,0,0,0,-1,1322,757,0,0
105,267,0,0,0,0,0,0,0,0,0,-1,1329,757,0,0
112,267,0,0,0,0,0,0,0,0,0,-1,1336,757,0,0
119,267,0,0,0,0,0,0,0,0,0,-1,1343,757,0,0
126,267,0,0,0,0,0,0,0,0,0,-1,1350,757,0,0
133,267,0,0,0,0,0,0,0,0,0,-1,1357,757,0,0
140,267,0,0,0,0,0,0,0,0,0,-1,1364,757,0,0
147,267,0,0,0,0,0,0,0,0,0,-1,1371,757,0,0
154,267,0,0,0,0,0,0,0,0,0,-1,1378,757,0,0
161,267,0,0,0,0,0,0,0,0,0,-1,1385,757,0,0
168,267,0,0,0,0,0,0,0,0,0,-1,1392,757,0,0
175,267,0,0,0,0,0,0,0,0,0,-1,1399,757,0,0
182,267,0,0,0,0,0,0,0,0,0,-1,1406,757,0,0
189,267,0,0,0,0,0,0,0,0,0,-1,1413,757,0,0
196,267,0,0,0,0,0,0,0,0,0,-1,1420,757,0,0
203,267,0,0,0,0,0,0,0,0,0,-1,1427,757,0,0
210,267,0,0,0,0,0,0,0,0,0,-1,1434,757,0,0
217,267,0,0,0,0,0,0,0,0,0,-1,1441,757,0,0
224,267,0,0,0,0,0,0,0,0,0,-1,1448,757,0,0
231,267,0,0,0,0,0,0,0,0,0,-1,1455,757,0,0
238,267,0,0,0,0,0,0,0,0,0,-1,1462,757,0,0
245,267,0,0,0,0,0,0,0,0,0,-1,1469,757,0,0
252,267,0,0,0,0,0,0,0,0,0,-1,1476,757,0,0
259,267,0,0,0,0,0,0,0,0,0,-1,1483,757,0,0
266,267,0,0,0,0,0,0,0,0,0,-1,1490,757,0,0
273,267,0,0,0,0,0,0,0,0,0,-1,1497,757,0,0
280,267,0,0,0,0,0,0,0,0,0,-1,1504,757,0,0
287,267,0,0,0,0,0,0,0,0,0,-1,1511,757,0,0
294,267,0,0,0,0,0,0,0,0,0,-1,1518,757,0,0
301,267,0,0,0,0,0,0,0,0,0,-1,1525,757,0,0
308,267,0,0,0,0,0,0,0,0,0,-1,1532,757,0,0
315,267,0,0,0,0,0,0,0,0,0,-1,1539,757,0,0
322,267,0,0,0,0,0,0,0,0,0,-1,1546,757,0,0
329,267,0,0,0,0,0,0,0,0,0,-1,1553,757,0,0
336,267,0,0,0,0,0,0,0,0,0,-1,1560,757,0,0
343,267,0,0,0,0,0,0,0,0,0,-1,1567,757,0,0
350,267,0,0,0,0,0,0,0,0,0,-1,1574,757,0,0
357,267,0,0,0,0,0,0,0,0,0,-1,1581,757,0,0
364,267,0,0,0,0,0,0,0,0,0,-1,1588,757,0,0
371,267,0,0,0,0,0,0,0,0,0,-1,1595,757,0,0
378,267,0,0,0,0,0,0,0,0,0,-1,1602,757,0,0
385,267,0,0,0,0,0,0,0,0,0,-1,1609,757,0,0
392,267,0,0,0,0,0,0,0,0,0,-1,1616,757,0,0
399,267,0,0,0,0,0,0,0,0,0,-1,1623,757,0,0
406,267,0,0,0,0,0,0,0,0,0,-1,1630,757,0,0
413,267,0,0,0,0,0,0,0,0,0,-1,1637,757,0,0
420,267,0,0,0,0,0,0,0,0,0,-1,1644,757,0,0
427,267,0,0,0,0,0,0,0,0,0,-1,1651,757,0,0
434,267,0,0,0,0,0,0,0,0,0,-1,1658,757,0,0
441,267,0,0,0,0,0,0,0,0,0,-1,1665,757,0,0
448,267,0,0,0,0,0,0,0,0,0,-1,1672,757,0,0
455,267,0,0,0,0,0,0,0,0,0,-1,1679,757,0,0
462,267,0,0,0,0,0,0,0,0,0,-1,1686,757,0,0
469,267,0,0,0,0,0,0,0,0,0,-1,1693,757,0,0
476,267,0,0,0,0,0,0,0,0,0,-1,1700,757,0,0
483,267,0,0,0,0,0,0,0,0,0,-1,1707,757,0,0
490,267,0,0,0,0,0,0,0,0,0,-1,1714,757,0,0
497,267,0,0,0,0,0,0,0,0,0,-1,1721,757,0,0
504,267,0,0,0,0,0,0,0,0,0,-1,1728,757,0,0
511,267,0,0,0,0,0,0,0,0,0,-1,1735,757,0,0
518,267,0,0,0,0,0,0,0,0,0,-1,1742,757,0,0
525,267,0,0,0,0,0,0,0,0,0,-1,1749,757,0,0
532,267,0,0,0,0,0,0,0,0,0,-1,1756,757,0,0
539,267,0,0,0,0,0,0,0,0,0,-1,1763,757,0,0
546,267,0,0,0,0,0,0,0,0,0,-1,1770,757,0,0
553,267,0,0,0,0,0,0,0,0,0,-1,1777,757,0,0
560,267,0,0,0,0,0,0,0,0,0,-1,1784,757,0,0
567,267,58.0104,3.24304,0,0,0,0,0,0,0,-1,1791,757,58.0104,-3.24306
574,267,61.2297,2.84723,0,0,0,0,0,0,0,-1,1798,757,61.2297,-2.84721
581,267,58.374,2.95636,0,0,0,0,0,0,0,-1,1805,757,58.3741,-2.95639
588,267,61.3993,2.33972,0,0,0,0,0,0,0,-1,1812,757,61.3993,-2.33974
595,267,61.35,2.79358,0,0,0,0,0,0,0,-1,1819,757,61.3499,-2.79358
602,267,61.4132,3.33179,0,0,0,0,0,0,0,-1,1826,757,61.4132,-3.33181
609,267,54.5498,3.24054,0,0,0,0,0,0,0,-1,1833,757,54.5498,-3.24052
616,267,44.2543,3.28918,0,0,0,0,0,0,0,-1,1840,757,44.2542,-3.28918
623,267,24.1475,-1.1391,0,0,0,0,0,0,0,-1,1847,757,24.1475,1.13913
630,267,40.1821,-5.58917,0,0,0,0,0,0,0,-1,1854,757,40.1821,5.5892
637,267,39.9231,-4.98273,0,0,0,0,0,0,0,-1,1861,757,39.9231,4.98275
644,267,39.9653,-4.31714,0.000903822,0.00118825,0.00158285,0.00263526,-0.000543189,0.830201,0.00196311,0.017241,1868,757,39.9653,4.31715
651,267,39.9308,-3.52417,0.000387453,0.00046661,0.000983193,0.00141102,-0.000556958,0.805515,0.00117134,0.015383,1875,757,39.9308,3.52419
658,267,39.8824,-2.78717,0.000306503,-0.000500913,0.000368921,0.00044968,-0.00064409,0.370202,0.000634804,0.01583,1882,757,39.8824,2.78715
665,267,39.8558,-2.0434,0.000289463,-0.000227818,0.000250558,0.000390926,-0.000329281,0.384763,0.000416319,0.0159713,1889,757,39.8558,2.04342
672,267,39.848,-1.31146,0.000485621,0.000369415,0.000428074,0.000859518,-4.48097e-06,0.717945,0.000574511,0.0139121,1896,757,39.848,1.31149
679,267,39.8108,-0.575928,0.000767873,0.00128201,0.000775971,0.00184238,0.000207496,0.94535,0.00116526,0.0134137,1903,757,39.8108,0.575922
686,267,39.7758,0.190918,0.00120312,0.00241677,0.00127,0.00321748,0.000402415,1.00827,0.00202423,0.0166529,1910,757,39.7758,-0.190924
693,267,39.7068,0.914124,0.00170995,0.00372228,0.00192363,0.00488699,0.000545236,1.02636,0.00309231,0.0164801,1917,757,39.7067,-0.914101
700,267,39.6793,1.65826,0.0022594,0.00527072,0.00274979,0.00690008,0.000630034,1.03588,0.00440508,0.0161416,1924,757,39.6793,-1.65825
707,267,39.661,2.4104,0.00274537,0.00689829,0.00379083,0.00914411,0.000499559,1.03596,0.00593656,0.0177722,1931,757,39.6611,-2.41037
714,267,39.7511,3.24261,0.00333017,0.00911907,0.00534071,0.0122992,0.00015,1.03372,0.00814996,0.0427892,1938,757,39.7511,-3.24263
721,267,39.9585,4.12354,0,0,0,0,0,0,0,-1,1945,757,39.9585,-4.12355
728,267,26.7886,3.90027,0,0,0,0,0,0,0,-1,1952,757,26.7886,-3.90028
735,267,24.6713,2.82483,0,0,0,0,0,0,0,-1,1959,757,24.6713,-2.82483
742,267,18.1177,3.56561,0,0,0,0,0,0,0,-1,1966,757,18.1176,-3.56564
749,267,0,0,0,0,0,0,0,0,0,-1,1973,757,0,0
756,267,0,0,0,0,0,0,0,0,0,-1,1980,757,0,0
763,267,0,0,0,0,0,0,0,0,0,-1,1987,757,0,0
770,267,0,0,0,0,0,0,0,0,0,-1,1994,757,0,0
777,267,0,0,0,0,0,0,0,0,0,-1,2001,757,0,0
784,267,0,0,0,0,0,0,0,0,0,-1,2008,757,0,0
791,267,0,0,0,0,0,0,0,0,0,-1,2015,757,0,0
798,267,0,0,0,0,0,0,0,0,0,-1,2022,757,0,0
805,267,0,0,0,0,0,0,0,0,0,-1,2029,757,0,0
812,267,0,0,0,0,0,0,0,0,0,-1,2036,757,0,0
-700,260,0,0,0,0,0,0,0,0,0,-1,524,764,0,0
-693,260,0,0,0,0,0,0,0,0,0,-1,531,764,0,0
-686,260,0,0,0,0,0,0,0,0,0,-1,538,764,0,0
-679,260,0,0,0,0,0,0,0,0,0,-1,545,764,0,0
-672,260,0,0,0,0,0,0,0,0,0,-1,552,764,0,0
-665,260,0,0,0,0,0,0,0,0,0,-1,559,764,0,0
-658,260,0,0,0,0,0,0,0,0,0,-1,566,764,0,0
-651,260,0,0,0,0,0,0,0,0,0,-1,573,764,0,0
-644,260,0,0,0,0,0,0,0,0,0,-1,580,764,0,0
-637,260,0,0,0,0,0,0,0,0,0,-1,587,764,0,0
-630,260,-21.8905,4.49341,0,0,0,0,0,0,0,-1,594,764,-21.8905,-4.49342
-623,260,-20.3127,3.53546,0,0,0,0,0,0,0,-1,601,764,-20.3127,-3.53544
-616,260,-23.4346,3.65009,0,0,0,0,0,0,0,-1,608,764,-23.4345,-3.65008
-609,260,-27.8874,4.42004,0,0,0,0,0,0,0,-1,615,764,-27.8874,-4.42005
-602,260,-27.5727,3.89905,0,0,0,0,0,0,0,-1,622,764,-27.5727,-3.89904
-595,260,-27.6022,2.25714,0,0,0,0,0,0,0,-1,629,764,-27.6022,-2.25717
-588,260,-27.4477,1.50702,-0.000178813,0.00735254,-0.00466371,0.00958106,-0.00240734,-1.12503,0.00732293,0.0479271,636,764,-27.4477,-1.507
-581,260,-27.3045,0.789917,-0.000412905,0.00584562,-0.00350547,0.00741536,-0.00198265,-1.14978,0.00572016,0.0298775,643,764,-27.3045,-0.789931
-574,260,-27.291,0.100403,-0.000626161,0.0045571,-0.00233202,0.00545186,-0.00152091,-1.20444,0.00423361,0.0192416,650,764,-27.291,-0.100376
-567,260,-27.3224,-0.556152,-0.000806793,0.00311545,-0.00126374,0.00348736,-0.0011787,-1.28458,0.00280171,0.0177134,657,764,-27.3224,0.556175
-560,260,-27.3891,-1.27039,-0.00100608,0.00184706,-0.000364723,0.00189294,-0.00105197,-1.44564,0.0017232,0.019874,664,764,-27.3891,1.27041
-553,260,-27.411,-2.03998,-0.00128035,0.000571613,0.000502625,0.000699232,-0.00140797,1.32215,0.00123932,0.0172187,671,764,-27.411,2.04
-546,260,-27.4304,-2.77704,-0.00139189,-0.000607967,0.00123832,0.00029894,-0.0022988,0.938674,0.00164128,0.0113213,678,764,-27.4304,2.77702
-539,260,-27.4416,-3.48511,-0.00137974,-0.00158896,0.00190738,0.000425896,-0.0033946,0.758004,0.00241757,0.0131697,685,764,-27.4416,3.48513
-532,260,-27.4413,-4.15143,-0.00135963,-0.00190037,0.002248,0.000634197,-0.0038942,0.725551,0.00283131,0.0180832,692,764,-27.4414,4.15141
-525,260,-27.5244,-4.89191,-0.00118222,-0.00187579,0.00224205,0.000739709,-0.00379772,0.708669,0.00281101,0.016114,699,764,-27.5243,4.89192
-518,260,-27.641,-5.5802,-0.000882541,-0.0012961,0.00215955,0.0010801,-0.00325875,0.737668,0.00260818,0.0225386,706,764,-27.641,5.58019
-511,260,-27.6723,-6.26636,-0.00051746,-0.000711331,0.00198421,0.00137218,-0.00260097,0.760991,0.00233019,0.04156,713,764,-27.6723,6.26635
-504,260,-27.7311,-6.58856,0,0,0,0,0,0,0,-1,720,764,-27.731,6.58857
-497,260,-16.6542,-3.67334,0,0,0,0,0,0,0,-1,727,764,-16.6542,3.67331
-490,260,-29.4557,0.921387,0,0,0,0,0,0,0,-1,734,764,-29.4557,-0.921369
-483,260,-40.8972,1.04193,0,0,0,0,0,0,0,-1,741,764,-40.8972,-1.04193
-476,260,-46.489,0.818604,0,0,0,0,0,0,0,-1,748,764,-46.489,-0.818597
-469,260,-46.5511,0.751282,0,0,0,0,0,0,0,-1,755,764,-46.5511,-0.751257
-462,260,-46.8277,0.66571,0,0,0,0,0,0,0,-1,762,764,-46.8277,-0.665727
-455,260,-46.8854,0.860229,0,0,0,0,0,0,0,-1,769,764,-46.8854,-0.86025
-448,260,0,0,0,0,0,0,0,0,0,-1,776,764,0,0
-441,260,0,0,0,0,0,0,0,0,0,-1,783,764,0,0
-434,260,0,0,0,0,0,0,0,0,0,-1,790,764,0,0
-427,260,0,0,0,0,0,0,0,0,0,-1,797,764,0,0
-420,260,0,0,0,0,0,0,0,0,0,-1,804,764,0,0
-413,260,0,0,0,0,0,0,0,0,0,-1,811,764,0,0
-406,260,0,0,0,0,0,0,0,0,0,-1,818,764,0,0
-399,260,0,0,0,0,0,0,0,0,0,-1,825,764,0,0
-392,260,0,0,0,0,0,0,0,0,0,-1,832,764,0,0
-385,260,0,0,0,0,0,0,0,0,0,-1,839,764,0,0
-378,260,0,0,0,0,0,0,0,0,0,-1,846,764,0,0
-371,260,0,0,0,0,0,0,0,0,0,-1,853,764,0,0
-364,260,0,0,0,0,0,0,0,0,0,-1,860,764,0,0
-357,260,0,0,0,0,0,0,0,0,0,-1,867,764,0,0
-350,260,0,0,0,0,0,0,0,0,0,-1,874,764,0,0
-343,260,0,0,0,0,0,0,0,0,0,-1,881,764,0,0
-336,260,0,0,0,0,0,0,0,0,0,-1,888,764,0,0
-329,260,0,0,0,0,0,0,0,0,0,-1,895,764,0,0
-322,260,0,0,0,0,0,0,0,0,0,-1,902,764,0,0
-315,260,0,0,0,0,0,0,0,0,0,-1,909,764,0,0
-308,260,0,0,0,0,0,0,0,0,0,-1,916,764,0,0
-301,260,0,0,0,0,0,0,0,0,0,-1,923,764,0,0
-294,260,0,0,0,0,0,0,0,0,0,-1,930,764,0,0
-287,260,0,0,0,0,0,0,0,0,0,-1,937,764,0,0
-280,260,0,0,0,0,0,0,0,0,0,-1,944,764,0,0
-273,260,0,0,0,0,0,0,0,0,0,-1,951,764,0,0
-266,260,0,0,0,0,0,0,0,0,0,-1,958,764,0,0
-259,260,0,0,0,0,0,0,0,0,0,-1,965,764,0,0
-252,260,0,0,0,0,0,0,0,0,0,-1,972,764,0,0
-245,260,0,0,0,0,0,0,0,0,0,-1,979,764,0,0
-238,260,0,0,0,0,0,0,0,0,0,-1,986,764,0,0
-231,260,0,0,0,0,0,0,0,0,0,-1,993,764,0,0
-224,260,0,0,0,0,0,0,0,0,0,-1,1000,764,0,0
-217,260,0,0,0,0,0,0,0,0,0,-1,1007,764,0,0
-210,260,0,0,0,0,0,0,0,0,0,-1,1014,764,0,0
-203,260,0,0,0,0,0,0,0,0,0,-1,1021,764,0,0
-196,260,0,0,0,0,0,0,0,0,0,-1,1028,764,0,0
-189,260,0,0,0,0,0,0,0,0,0,-1,1035,764,0,0
-182,260,0,0,0,0,0,0,0,0,0,-1,1042,764,0,0
-175,260,0,0,0,0,0,0,0,0,0,-1,1049,764,0,0
-168,260,0,0,0,0,0,0,0,0,0,-1,1056,764,0,0
-161,260,0,0,0,0,0,0,0,0,0,-1,1063,764,0,0
-154,260,0,0,0,0,0,0,0,0,0,-1,1070,764,0,0
-147,260,0,0,0,0,0,0,0,0,0,-1,1077,764,0,0
-140,260,0,0,0,0,0,0,0,0,0,-1,1084,764,0,0
-133,260,0,0,0,0,0,0,0,0,0,-1,1091,764,0,0
-126,260,0,0,0,0,0,0,0,0,0,-1,1098,764,0,0
-119,260,0,0,0,0,0,0,0,0,0,-1,1105,764,0,0
-112,260,0,0,0,0,0,0,0,0,0,-1,1112,764,0,0
-105,260,0,0,0,0,0,0,0,0,0,-1,1119,764,0,0
-98,260,0,0,0,0,0,0,0,0,0,-1,1126,764,0,0
-91,260,0,0,0,0,0,0,0,0,0,-1,1133,764,0,0
-84,260,0,0,0,0,0,0,0,0,0,-1,1140,764,0,0
-77,260,0,0,0,0,0,0,0,0,0,-1,1147,764,0,0
-70,260,0,0,0,0,0,0,0,0,0,-1,1154,764,0,0
-63,260,0,0,0,0,0,0,0,0,0,-1,1161,764,0,0
-56,260,0,0,0,0,0,0,0,0,0,-1,1168,764,0,0
-49,260,0,0,0,0,0,0,0,0,0,-1,1175,764,0,0
-42,260,0,0,0,0,0,0,0,0,0,-1,1182,764,0,0
-35,260,0,0,0,0,0,0,0,0,0,-1,1189,764,0,0
-28,260,0,0,0,0,0,0,0,0,0,-1,1196,764,0,0
-21,260,0,0,0,0,0,0,0,0,0,-1,1203,764,0,0
-14,260,0,0,0,0,0,0,0,0,0,-1,1210,764,0,0
-7,260,0,0,0,0,0,0,0,0,0,-1,1217,764,0,0
0,260,0,0,0,0,0,0,0,0,0,-1,1224,764,0,0
7,260,0,0,0,0,0,0,0,0,0,-1,1231,764,0,0
14,260,0,0,0,0,0,0,0,0,0,-1,1238,764,0,0
21,260,0,0,0,0,0,0,0,0,0,-1,1245,764,0,0
28,260,0,0,0,0,0,0,0,0,0,-1,1252,764,0,0
35,260,0,0,0,0,0,0,0,0,0,-1,1259,764,0,0
42,260,0,0,0,0,0,0,0,0,0,-1,1266,764,0,0
49,260,0,0,0,0,0,0,0,0,0,-1,1273,764,0,0
56,260,0,0,0,0,0,0,0,0,0,-1,1280,764,0,0
63,260,0,0,0,0,0,0,0,0,0,-1,1287,764,0,0
70,260,0,0,0,0,0,0,0,0,0,-1,1294,764,0,0
77,260,0,0,0,0,0,0,0,0,0,-1,1301,764,0,0
84,260,0,0,0,0,0,0,0,0,0,-1,1308,764,0,0
91,260,0,0,0,0,0,0,0,0,0,-1,1315,764,0,0
98,260,0,0,0,0,0,0,0,0,0,-1,1322,764,0,0
105,260,0,0,0,0,0,0,0,0,0,-1,1329,764,0,0
112,260,0,0,0,0,0,0,0,0,0,-1,1336,764,0,0
119,260,0,0,0,0,0,0,0,0,0,-1,1343,764,0,0
126,260,0,0,0,0,0,0,0,0,0,-1,1350,764,0,0
133,260,0,0,0,0,0,0,0,0,0,-1,1357,764,0,0
140,260,0,0,0,0,0,0,0,0,0,-1,1364,764,0,0
147,260,0,0,0,0,0,0,0,0,0,-1,1371,764,0,0
154,260,0,0,0,0,0,0,0,0,0,-1,1378,764,0,0
161,260,0,0,0,0,0,0,0,0,0,-1,1385,764,0,0
168,260,0,0,0,0,0,0,0,0,0,-1,1392,764,0,0
175,260,0,0,0,0,0,0,0,0,0,-1,1399,764,0,0
182,260,0,0,0,0,0,0,0,0,0,-1,1406,764,0,0
189,260,0,0,0,0,0,0,0,0,0,-1,1413,764,0,0
196,260,0,0,0,0,0,0,0,0,0,-1,1420,764,0,0
203,260,0,0,0,0,0,0,0,0,0,-1,1427,764,0,0
210,260,0,0,0,0,0,0,0,0,0,-1,1434,764,0,0
217,260,0,0,0,0,0,0,0,0,0,-1,1441,764,0,0
224,260,0,0,0,0,0,0,0,0,0,-1,1448,764,0,0
231,260,0,0,0,0,0,0,0,0,0,-1,1455,764,0,0
238,260,0,0,0,0,0,0,0,0,0,-1,1462,764,0,0
245,260,0,0,0,0,0,0,0,0,0,-1,1469,764,0,0
252,260,0,0,0,0,0,0,0,0,0,-1,1476,764,0,0
259,260,0,0,0,0,0,0,0,0,0,-1,1483,764,0,0
266,260,0,0,0,0,0,0,0,0,0,-1,1490,764,0,0
273,260,0,0,0,0,0,0,0,0,0,-1,1497,764,0,0
280,260,0,0,0,0,0,0,0,0,0,-1,1504,764,0,0
287,260,0,0,0,0,0,0,0,0,0,-1,1511,764,0,0
294,260,0,0,0,0,0,0,0,0,0,-1,1518,764,0,0
301,260,0,0,0,0,0,0,0,0,0,-1,1525,764,0,0
308,260,0,0,0,0,0,0,0,0,0,-1,1532,764,0,0
315,260,0,0,0,0,0,0,0,0,0,-1,1539,764,0,0
322,260,0,0,0,0,0,0,0,0,0,-1,1546,764,0,0
329,260,0,0,0,0,0,0,0,0,0,-1,1553,764,0,0
336,260,0,0,0,0,0,0,0,0,0,-1,1560,764,0,0
343,260,0,0,0,0,0,0,0,0,0,-1,1567,764,0,0
350,260,0,0,0,0,0,0,0,0,0,-1,1574,764,0,0
357,260,0,0,0,0,0,0,0,0,0,-1,1581,764,0,0
364,260,0,0,0,0,0,0,0,0,0,-1,1588,764,0,0
371,260,0,0,0,0,0,0,0,0,0,-1,1595,764,0,0
378,260,0,0,0,0,0,0,0,0,0,-1,1602,764,0,0
385,260,0,0,0,0,0,0,0,0,0,-1,1609,764,0,0
392,260,0,0,0,0,0,0,0,0,0,-1,1616,764,0,0
399,260,0,0,0,0,0,0,0,0,0,-1,1623,764,0,0
406,260,0,0,0,0,0,0,0,0,0,-1,1630,764,0,0
413,260,0,0,0,0,0,0,0,0,0,-1,1637,764,0,0
420,260,0,0,0,0,0,0,0,0,0,-1,1644,764,0,0
427,260,0,0,0,0,0,0,0,0,0,-1,1651,764,0,0
434,260,0,0,0,0,0,0,0,0,0,-1,1658,764,0,0
441,260,0,0,0,0,0,0,0,0,0,-1,1665,764,0,0
448,260,0,0,0,0,0,0,0,0,0,-1,1672,764,0,0
455,260,0,0,0,0,0,0,0,0,0,-1,1679,764,0,0
462,260,0,0,0,0,0,0,0,0,0,-1,1686,764,0,0
469,260,0,0,0,0,0,0,0,0,0,-1,1693,764,0,0
476,260,0,0,0,0,0,0,0,0,0,-1,1700,764,0,0
483,260,0,0,0,0,0,0,0,0,0,-1,1707,764,0,0
490,260,0,0,0,0,0,0,0,0,0,-1,1714,764,0,0
497,260,0,0,0,0,0,0,0,0,0,-1,1721,764,0,0
504,260,0,0,0,0,0,0,0,0,0,-1,1728,764,0,0
511,260,0,0,0,0,0,0,0,0,0,-1,1735,764,0,0
518,260,0,0,0,0,0,0,0,0,0,-1,1742,764,0,0
525,260,0,0,0,0,0,0,0,0,0,-1,1749,764,0,0
532,260,0,0,0,0,0,0,0,0,0,-1,1756,764,0,0
539,260,0,0,0,0,0,0,0,0,0,-1,1763,764,0,0
546,260,0,0,0,0,0,0,0,0,0,-1,1770,764,0,0
553,260,0,0,0,0,0,0,0,0,0,-1,1777,764,0,0
560,260,0,0,0,0,0,0,0,0,0,-1,1784,764,0,0
567,260,0,0,0,0,0,0,0,0,0,-1,1791,764,0,0
574,260,61.1333,2.70477,0,0,0,0,0,0,0,-1,1798,764,61.1333,-2.70478
581,260,60.964,2.98224,0,0,0,0,0,0,0,-1,1805,764,60.964,-2.98226
588,260,61.2371,3.07062,0,0,0,0,0,0,0,-1,1812,764,61.2371,-3.07064
595,260,61.3707,2.55231,0,0,0,0,0,0,0,-1,1819,764,61.3708,-2.5523
602,260,61.349,3.13336,0,0,0,0,0,0,0,-1,1826,764,61.349,-3.13338
609,260,61.1674,3.70947,0,0,0,0,0,0,0,-1,1833,764,61.1674,-3.7095
616,260,46.0709,2.74542,0,0,0,0,0,0,0,-1,1840,764,46.0709,-2.74545
623,260,32.2268,3.25836,0,0,0,0,0,0,0,-1,1847,764,32.2268,-3.25833
630,260,24.3739,-0.536316,0,0,0,0,0,0,0,-1,1854,764,24.3739,0.536343
637,260,40.943,-5.06311,0,0,0,0,0,0,0,-1,1861,764,40.9431,5.06311
644,260,40.8639,-4.27313,0.000499765,0.00136835,0.00159623,0.00258831,-0.000720201,0.918219,0.00200911,0.0476228,1868,764,40.8639,4.2731
651,260,40.734,-3.44843,-0.000152899,0.000578011,0.000969744,0.00124888,-0.000823765,0.965597,0.001205,0.0197705,1875,764,40.734,3.4484
658,260,40.6392,-2.71991,-0.000368379,-0.000648434,0.000172506,-0.000286222,-0.000730591,0.444473,0.000425088,0.0163683,1882,764,40.6392,2.71993
665,260,40.5742,-2.00079,-0.000475931,-0.000597664,-0.000151114,-0.000373886,-0.000699709,-0.593946,0.000404295,0.0165295,1889,764,40.5742,2.00081
672,260,40.5707,-1.26471,-0.000283606,-0.000209868,-8.98432e-05,-0.000149623,-0.000343851,-0.980106,0.000199078,0.0140458,1896,764,40.5707,1.26468
679,260,40.5286,-0.522034,4.09703e-05,0.000547304,0.000204604,0.000619647,-3.13719e-05,1.23094,0.000423942,0.0128296,1903,764,40.5286,0.522057
686,260,40.4691,0.240662,0.000588031,0.00163087,0.000705696,0.00198688,0.000232019,1.10357,0.00125442,0.0207779,1910,764,40.4692,-0.240684
693,260,40.3975,0.923096,0.0012224,0.00288633,0.00139629,0.00367972,0.000429005,1.05408,0.00232339,0.0204351,1917,764,40.3975,-0.923122
700,260,40.3662,1.65448,0.00188549,0.00435063,0.00224872,0.00568242,0.000553691,1.0361,0.00361787,0.0150875,1924,764,40.3662,-1.65449
707,260,40.3816,2.41431,0.00247795,0.00591945,0.00328074,0.00790332,0.000494081,1.02693,0.00511215,0.0152838,1931,764,40.3815,-2.41434
714,260,40.3815,3.17181,0.00310184,0.00794244,0.00471968,0.0108262,0.000218065,1.02232,0.0071459,0.032742,1938,764,40.3815,-3.17178
721,260,40.3838,3.96399,0,0,0,0,0,0,0,-1,1945,764,40.3837,-3.96396
728,260,33.4344,5.75409,0,0,0,0,0,0,0,-1,1952,764,33.4345,-5.75408
735,260,26.9788,4.85681,0,0,0,0,0,0,0,-1,1959,764,26.9787,-4.85678
742,260,32.1443,1.73688,0,0,0,0,0,0,0,-1,1966,764,32.1442,-1.73688
749,260,33.6013,2.94733,0,0,0,0,0,0,0,-1,1973,764,33.6013,-2.9473
756,260,0,0,0,0,0,0,0,0,0,-1,1980,764,0,0
763,260,0,0,0,0,0,0,0,0,0,-1,1987,764,0,0
770,260,0,0,0,0,0,0,0,0,0,-1,1994,764,0,0
777,260,0,0,0,0,0,0,0,0,0,-1,2001,764,0,0
784,260,0,0,0,0,0,0,0,0,0,-1,2008,764,0,0
791,260,0,0,0,0,0,0,0,0,0,-1,2015,764,0,0
798,260,0,0,0,0,0,0,0,0,0,-1,2022,764,0,0
805,260,0,0,0,0,0,0,0,0,0,-1,2029,764,0,0
812,260,0,0,0,0,0,0,0,0,0,-1,2036,764,0,0
-700,253,0,0,0,0,0,0,0,0,0,-1,524,771,0,0
-693,253,0,0,0,0,0,0,0,0,0,-1,531,771,0,0
-686,253,0,0,0,0,0,0,0,0,0,-1,538,771,0,0
-679,253,0,0,0,0,0,0,0,0,0,-1,545,771,0,0
-672,253,0,0,0,0,0,0,0,0,0,-1,552,771,0,0
-665,253,0,0,0,0,0,0,0,0,0,-1,559,771,0,0
-658,253,0,0,0,0,0,0,0,0,0,-1,566,771,0,0
-651,253,0,0,0,0,0,0,0,0,0,-1,573,771,0,0
-644,253,0,0,0,0,0,0,0,0,0,-1,580,771,0,0
-637,253,-24.7979,-0.491394,0,0,0,0,0,0,0,-1,587,771,-24.7978,0.491371
-630,253,-25.156,0.540405,0,0,0,0,0,0,0,-1,594,771,-25.156,-0.540421
-623,253,-20.808,2.84314,0,0,0,0,0,0,0,-1,601,771,-20.8081,-2.84312
-616,253,-25.0877,2.96875,0,0,0,0,0,0,0,-1,608,771,-25.0877,-2.96876
-609,253,-24.28,2.08228,0,0,0,0,0,0,0,-1,615,771,-24.2801,-2.08227
-602,253,-27.5153,2.9566,0,0,0,0,0,0,0,-1,622,771,-27.5153,-2.95663
-595,253,-28.045,2.17828,0,0,0,0,0,0,0,-1,629,771,-28.0451,-2.17827
-588,253,-28.007,1.44788,-9.73883e-05,0.00647307,-0.00446418,0.00873055,-0.00235487,-1.10261,0.00674379,0.0412675,636,771,-28.0069,-1.44791
-581,253,-27.984,0.772705,-0.000250268,0.00516386,-0.00334309,0.00675847,-0.00184488,-1.12573,0.00523022,0.0266902,643,771,-27.984,-0.772728
-574,253,-28.0117,0.109741,-0.000497986,0.00395364,-0.00218127,0.00484426,-0.00138861,-1.18315,0.00377841,0.0215301,650,771,-28.0116,-0.109725
-567,253,-28.0391,-0.624023,-0.000761614,0.00261365,-0.0011054,0.00294344,-0.00109141,-1.28085,0.00240994,0.01748,657,771,-28.0391,0.624011
-560,253,-28.071,-1.26923,-0.00106923,0.0013698,-0.000146797,0.00137861,-0.00107804,-1.5109,0.00142188,0.0134936,664,771,-28.071,1.26923
-553,253,-28.1208,-1.98431,-0.00143265,0.000124312,0.000818972,0.000475764,-0.0017841,1.16543,0.00137569,0.0116156,671,771,-28.1208,1.98434
-546,253,-28.1559,-2.70776,-0.00144882,-0.00104963,0.00157311,0.000336493,-0.00283495,0.8485,0.00201153,0.0107606,678,771,-28.156,2.70776
-539,253,-28.2153,-3.44208,-0.00130481,-0.00184186,0.00224366,0.00068633,-0.003833,0.72584,0.00281217,0.0129822,685,771,-28.2153,3.44207
-532,253,-28.2018,-4.14972,-0.00117273,-0.00185789,0.00248759,0.000995758,-0.00402638,0.716971,0.00307048,0.0181845,692,771,-28.2018,4.14969
-525,253,-28.2343,-4.8681,-0.000887627,-0.00162947,0.00240289,0.0011728,-0.0036899,0.708821,0.00293017,0.0201895,699,771,-28.2343,4.86807
-518,253,-28.361,-5.61011,-0.000515362,-0.000948755,0.00228489,0.00156308,-0.0030272,0.73812,0.00269476,0.0370801,706,771,-28.3609,5.61009
-511,253,-28.6155,-6.2533,0,0,0,0,0,0,0,-1,713,771,-28.6155,6.2533
-504,253,-19.317,-4.1723,0,0,0,0,0,0,0,-1,720,771,-19.317,4.1723
-497,253,-21.7737,-1.76837,0,0,0,0,0,0,0,-1,727,771,-21.7738,1.7684
-490,253,-29.7674,0.438354,0,0,0,0,0,0,0,-1,734,771,-29.7674,-0.438339
-483,253,-45.4489,1.59302,0,0,0,0,0,0,0,-1,741,771,-45.4489,-1.59303
-476,253,-46.2409,0.884888,0,0,0,0,0,0,0,-1,748,771,-46.2409,-0.884915
-469,253,-46.244,1.31921,0,0,0,0,0,0,0,-1,755,771,-46.2439,-1.31919
-462,253,-46.5073,0.971985,0,0,0,0,0,0,0,-1,762,771,-46.5073,-0.971958
-455,253,-45.5858,0.991638,0,0,0,0,0,0,0,-1,769,771,-45.5857,-0.991648
-448,253,0,0,0,0,0,0,0,0,0,-1,776,771,0,0
-441,253,0,0,0,0,0,0,0,0,0,-1,783,771,0,0
-434,253,0,0,0,0,0,0,0,0,0,-1,790,771,0,0
-427,253,0,0,0,0,0,0,0,0,0,-1,797,771,0,0
-420,253,0,0,0,0,0,0,0,0,0,-1,804,771,0,0
-413,253,0,0,0,0,0,0,0,0,0,-1,811,771,0,0
-406,253,0,0,0,0,0,0,0,0,0,-1,818,771,0,0
-399,253,0,0,0,0,0,0,0,0,0,-1,825,771,0,0
-392,253,0,0,0,0,0,0,0,0,0,-1,832,771,0,0
-385,253,0,0,0,0,0,0,0,0,0,-1,839,771,0,0
-378,253,0,0,0,0,0,0,0,0,0,-1,846,771,0,0
-371,253,0,0,0,0,0,0,0,0,0,-1,853,771,0,0
-364,253,0,0,0,0,0,0,0,0,0,-1,860,771,0,0
-357,253,0,0,0,0,0,0,0,0,0,-1,867,771,0,0
-350,253,0,0,0,0,0,0,0,0,0,-1,874,771,0,0
-343,253,0,0,0,0,0,0,0,0,0,-1,881,771,0,0
-336,253,0,0,0,0,0,0,0,0,0,-1,888,771,0,0
-329,253,0,0,0,0,0,0,0,0,0,-1,895,771,0,0
-322,253,0,0,0,0,0,0,0,0,0,-1,902,771,0,0
-315,253,0,0,0,0,0,0,0,0,0,-1,909,771,0,0
-308,253,0,0,0,0,0,0,0,0,0,-1,916,771,0,0
-301,253,0,0,0,0,0,0,0,0,0,-1,923,771,0,0
-294,253,0,0,0,0,0,0,0,0,0,-1,930,771,0,0
-287,253,0,0,0,0,0,0,0,0,0,-1,937,771,0,0
-280,253,0,0,0,0,0,0,0,0,0,-1,944,771,0,0
-273,253,0,0,0,0,0,0,0,0,0,-1,951,771,0,0
-266,253,0,0,0,0,0,0,0,0,0,-1,958,771,0,0
-259,253,0,0,0,0,0,0,0,0,0,-1,965,771,0,0
-252,253,0,0,0,0,0,0,0,0,0,-1,972,771,0,0
-245,253,0,0,0,0,0,0,0,0,0,-1,979,771,0,0
-238,253,0,0,0,0,0,0,0,0,0,-1,986,771,0,0
-231,253,0,0,0,0,0,0,0,0,0,-1,993,771,0,0
-224,253,0,0,0,0,0,0,0,0,0,-1,1000,771,0,0
-217,253,0,0,0,0,0,0,0,0,0,-1,1007,771,0,0
-210,253,0,0,0,0,0,0,0,0,0,-1,1014,771,0,0
-203,253,0,0,0,0,0,0,0,0,0,-1,1021,771,0,0
-196,253,0,0,0,0,0,0,0,0,0,-1,1028,771,0,0
-189,253,0,0,0,0,0,0,0,0,0,-1,1035,771,0,0
-182,253,0,0,0,0,0,0,0,0,0,-1,1042,771,0,0
-175,253,0,0,0,0,0,0,0,0,0,-1,1049,771,0,0
-168,253,0,0,0,0,0,0,0,0,0,-1,1056,771,0,0
-161,253,0,0,0,0,0,0,0,0,0,-1,1063,771,0,0
-154,253,0,0,0,0,0,0,0,0,0,-1,1070,771,0,0
-147,253,0,0,0,0,0,0,0,0,0,-1,1077,771,0,0
-140,253,0,0,0,0,0,0,0,0,0,-1,1084,771,0,0
-133,253,0,0,0,0,0,0,0,0,0,-1,1091,771,0,0
-126,253,0,0,0,0,0,0,0,0,0,-1,1098,771,0,0
-119,253,0,0,0,0,0,0,0,0,0,-1,1105,771,0,0
-112,253,0,0,0,0,0,0,0,0,0,-1,1112,771,0,0
-105,253,0,0,0,0,0,0,0,0,0,-1,1119,771,0,0
-98,253,0,0,0,0,0,0,0,0,0,-1,1126,771,0,0
-91,253,0,0,0,0,0,0,0,0,0,-1,1133,771,0,0
-84,253,0,0,0,0,0,0,0,0,0,-1,1140,771,0,0
-77,253,0,0,0,0,0,0,0,0,0,-1,1147,771,0,0
-70,253,0,0,0,0,0,0,0,0,0,-1,1154,771,0,0
-63,253,0,0,0,0,0,0,0,0,0,-1,1161,771,0,0
-56,253,0,0,0,0,0,0,0,0,0,-1,1168,771,0,0
-49,253,0,0,0,0,0,0,0,0,0,-1,1175,771,0,0
-42,253,0,0,0,0,0,0,0,0,0,-1,1182,771,0,0
-35,253,0,0,0,0,0,0,0,0,0,-1,1189,771,0,0
-28,253,0,0,0,0,0,0,0,0,0,-1,1196,771,0,0
-21,253,0,0,0,0,0,0,0,0,0,-1,1203,771,0,0
-14,253,0,0,0,0,0,0,0,0,0,-1,1210,771,0,0
-7,253,0,0,0,0,0,0,0,0,0,-1,1217,771,0,0
0,253,0,0,0,0,0,0,0,0,0,-1,1224,771,0,0
7,253,0,0,0,0,0,0,0,0,0,-1,1231,771,0,0
14,253,0,0,0,0,0,0,0,0,0,-1,1238,771,0,0
21,253,0,0,0,0,0,0,0,0,0,-1,1245,771,0,0
28,253,0,0,0,0,0,0,0,0,0,-1,1252,771,0,0
35,253,0,0,0,0,0,0,0,0,0,-1,1259,771,0,0
42,253,0,0,0,0,0,0,0,0,0,-1,1266,771,0,0
49,253,0,0,0,0,0,0,0,0,0,-1,1273,771,0,0
56,253,0,0,0,0,0,0,0,0,0,-1,1280,771,0,0
63,253,0,0,0,0,0,0,0,0,0,-1,1287,771,0,0
70,253,0,0,0,0,0,0,0,0,0,-1,1294,771,0,0
77,253,0,0,0,0,0,0,0,0,0,-1,1301,771,0,0
84,253,0,0,0,0,0,0,0,0,0,-1,1308,771,0,0
91,253,0,0,0,0,0,0,0,0,0,-1,1315,771,0,0
98,253,0,0,0,0,0,0,0,0,0,-1,1322,771,0,0
105,253,0,0,0,0,0,0,0,0,0,-1,1329,771,0,0
112,253,0,0,0,0,0,0,0,0,0,-1,1336,771,0,0
119,253,0,0,0,0,0,0,0,0,0,-1,1343,771,0,0
126,253,0,0,0,0,0,0,0,0,0,-1,1350,771,0,0
133,253,0,0,0,0,0,0,0,0,0,-1,1357,771,0,0
140,253,0,0,0,0,0,0,0,0,0,-1,1364,771,0,0
147,253,0,0,0,0,0,0,0,0,0,-1,1371,771,0,0
154,253,0,0,0,0,0,0,0,0,0,-1,1378,771,0,0
161,253,0,0,0,0,0,0,0,0,0,-1,1385,771,0,0
168,253,0,0,0,0,0,0,0,0,0,-1,1392,771,0,0
175,253,0,0,0,0,0,0,0,0,0,-1,1399,771,0,0
182,253,0,0,0,0,0,0,0,0,0,-1,1406,771,0,0
189,253,0,0,0,0,0,0,0,0,0,-1,1413,771,0,0
196,253,0,0,0,0,0,0,0,0,0,-1,1420,771,0,0
203,253,0,0,0,0,0,0,0,0,0,-1,1427,771,0,0
210,253,0,0,0,0,0,0,0,0,0,-1,1434,771,0,0
217,253,0,0,0,0,0,0,0,0,0,-1,1441,771,0,0
224,253,0,0,0,0,0,0,0,0,0,-1,1448,771,0,0
231,253,0,0,0,0,0,0,0,0,0,-1,1455,771,0,0
238,253,0,0,0,0,0,0,0,0,0,-1,1462,771,0,0
245,253,0,0,0,0,0,0,0,0,0,-1,1469,771,0,0
252,253,0,0,0,0,0,0,0,0,0,-1,1476,771,0,0
259,253,0,0,0,0,0,0,0,0,0,-1,1483,771,0,0
266,253,0,0,0,0,0,0,0,0,0,-1,1490,771,0,0
273,253,0,0,0,0,0,0,0,0,0,-1,1497,771,0,0
280,253,0,0,0,0,0,0,0,0,0,-1,1504,771,0,0
287,253,0,0,0,0,0,0,0,0,0,-1,1511,771,0,0
294,253,0,0,0,0,0,0,0,0,0,-1,1518,771,0,0
301,253,0,0,0,0,0,0,0,0,0,-1,1525,771,0,0
308,253,0,0,0,0,0,0,0,0,0,-1,1532,771,0,0
315,253,0,0,0,0,0,0,0,0,0,-1,1539,771,0,0
322,253,0,0,0,0,0,0,0,0,0,-1,1546,771,0,0
329,253,0,0,0,0,0,0,0,0,0,-1,1553,771,0,0
336,253,0,0,0,0,0,0,0,0,0,-1,1560,771,0,0
343,253,0,0,0,0,0,0,0,0,0,-1,1567,771,0,0
350,253,0,0,0,0,0,0,0,0,0,-1,1574,771,0,0
357,253,0,0,0,0,0,0,0,0,0,-1,1581,771,0,0
364,253,0,0,0,0,0,0,0,0,0,-1,1588,771,0,0
371,253,0,0,0,0,0,0,0,0,0,-1,1595,771,0,0
378,253,0,0,0,0,0,0,0,0,0,-1,1602,771,0,0
385,253,0,0,0,0,0,0,0,0,0,-1,1609,771,0,0
392,253,0,0,0,0,0,0,0,0,0,-1,1616,771,0,0
399,253,0,0,0,0,0,0,0,0,0,-1,1623,771,0,0
406,253,0,0,0,0,0,0,0,0,0,-1,1630,771,0,0
413,253,0,0,0,0,0,0,0,0,0,-1,1637,771,0,0
420,253,0,0,0,0,0,0,0,0,0,-1,1644,771,0,0
427,253,0,0,0,0,0,0,0,0,0,-1,1651,771,0,0
434,253,0,0,0,0,0,0,0,0,0,-1,1658,771,0,0
441,253,0,0,0,0,0,0,0,0,0,-1,1665,771,0,0
448,253,0,0,0,0,0,0,0,0,0,-1,1672,771,0,0
455,253,0,0,0,0,0,0,0,0,0,-1,1679,771,0,0
462,253,0,0,0,0,0,0,0,0,0,-1,1686,771,0,0
469,253,0,0,0,0,0,0,0,0,0,-1,1693,771,0,0
476,253,0,0,0,0,0,0,0,0,0,-1,1700,771,0,0
483,253,0,0,0,0,0,0,0,0,0,-1,1707,771,0,0
490,253,0,0,0,0,0,0,0,0,0,-1,1714,771,0,0
497,253,0,0,0,0,0,0,0,0,0,-1,1721,771,0,0
504,253,0,0,0,0,0,0,0,0,0,-1,1728,771,0,0
511,253,0,0,0,0,0,0,0,0,0,-1,1735,771,0,0
518,253,0,0,0,0,0,0,0,0,0,-1,1742,771,0,0
525,253,0,0,0,0,0,0,0,0,0,-1,1749,771,0,0
532,253,0,0,0,0,0,0,0,0,0,-1,1756,771,0,0
539,253,0,0,0,0,0,0,0,0,0,-1,1763,771,0,0
546,253,0,0,0,0,0,0,0,0,0,-1,1770,771,0,0
553,253,0,0,0,0,0,0,0,0,0,-1,1777,771,0,0
560,253,0,0,0,0,0,0,0,0,0,-1,1784,771,0,0
567,253,0,0,0,0,0,0,0,0,0,-1,1791,771,0,0
574,253,61.0405,2.50616,0,0,0,0,0,0,0,-1,1798,771,61.0405,-2.50614
581,253,60.9464,2.76074,0.0160269,-0.0111116,0.00236042,0.0162307,-0.0113154,0.086115,0.0159879,0.0434419,1805,771,60.9464,-2.76076
588,253,61.1036,2.88666,0.0127873,-0.00613777,0.00324791,0.0133292,-0.00667966,0.165319,0.0117628,0.0484626,1812,771,61.1037,-2.88668
595,253,61.4989,2.76996,0,0,0,0,0,0,0,-1,1819,771,61.4989,-2.76993
602,253,61.2982,3.17163,0,0,0,0,0,0,0,-1,1826,771,61.2982,-3.17165
609,253,61.0367,3.74219,0,0,0,0,0,0,0,-1,1833,771,61.0367,-3.74217
616,253,58.416,2.69031,0,0,0,0,0,0,0,-1,1840,771,58.4161,-2.69031
623,253,48.8328,3.01001,0,0,0,0,0,0,0,-1,1847,771,48.8328,-3.01002
630,253,33.561,2.96838,0,0,0,0,0,0,0,-1,1854,771,33.561,-2.96836
637,253,22.3192,-0.604004,0,0,0,0,0,0,0,-1,1861,771,22.3192,0.603986
644,253,41.7589,-4.18231,0,0,0,0,0,0,0,-1,1868,771,41.759,4.18234
651,253,41.416,-3.29675,-0.000509528,0.000814369,0.000781612,0.00117667,-0.000871833,1.13674,0.00118706,0.038943,1875,771,41.416,3.29678
658,253,41.3212,-2.67389,-0.000879278,-0.000593107,-0.000107618,-0.000557153,-0.000915232,-1.24837,0.00053256,0.0208675,1882,771,41.3211,2.67388
665,253,41.2281,-1.98572,-0.00117365,-0.000804027,-0.000591501,-0.000369138,-0.00160854,-0.936815,0.000972941,0.0219935,1889,771,41.2281,1.98571
672,253,41.2645,-1.24219,-0.00109093,-0.00073086,-0.000651521,-0.000234956,-0.00158683,-0.920198,0.000988916,0.0171182,1896,771,41.2645,1.24218
679,253,41.2689,-0.453003,-0.00081279,-0.000229413,-0.000438627,5.6586e-06,-0.00104786,-1.07882,0.000700468,0.0134284,1903,771,41.2689,0.453009
686,253,41.1799,0.291382,-0.000224007,0.000772283,2.88511e-05,0.000773118,-0.000224841,1.54187,0.000604463,0.0235612,1910,771,41.1799,-0.291407
693,253,41.1021,1.0014,0.000481807,0.00198934,0.000702972,0.00226627,0.000204878,1.19552,0.0014474,0.0216637,1917,771,41.102,-1.00139
700,253,41.1002,1.69427,0.00111548,0.00319536,0.00140355,0.00390225,0.000408591,1.10424,0.00247656,0.0152159,1924,771,41.1002,-1.69426
707,253,41.1119,2.43988,0.00163298,0.00452688,0.00222337,0.00573268,0.000427189,1.07386,0.00368764,0.0150211,1931,771,41.1119,-2.43986
714,253,41.1246,3.19128,0.00200386,0.00600108,0.00320585,0.00778029,0.00022465,1.06413,0.00511362,0.0237045,1938,771,41.1247,-3.19126
721,253,41.194,3.98468,0.00161532,0.00692544,0.0038489,0.0089462,-0.000405448,1.08733,0.00610377,0.0429917,1945,771,41.1939,-3.98468
728,253,40.9835,4.6991,0,0,0,0,0,0,0,-1,1952,771,40.9835,-4.69911
735,253,34.5735,6.15118,0,0,0,0,0,0,0,-1,1959,771,34.5734,-6.1512
742,253,31.0571,5.7337,0,0,0,0,0,0,0,-1,1966,771,31.0571,-5.73373
749,253,33.7754,3.21533,0,0,0,0,0,0,0,-1,1973,771,33.7754,-3.21533
756,253,0,0,0,0,0,0,0,0,0,-1,1980,771,0,0
763,253,0,0,0,0,0,0,0,0,0,-1,1987,771,0,0
770,253,0,0,0,0,0,0,0,0,0,-1,1994,771,0,0
777,253,0,0,0,0,0,0,0,0,0,-1,2001,771,0,0
784,253,0,0,0,0,0,0,0,0,0,-1,2008,771,0,0
791,253,0,0,0,0,0,0,0,0,0,-1,2015,771,0,0
798,253,0,0,0,0,0,0,0,0,0,-1,2022,771,0,0
805,253,0,0,0,0,0,0,0,0,0,-1,2029,771,0,0
812,253,0,0,0,0,0,0,0,0,0,-1,2036,771,0,0
-700,246,0,0,0,0,0,0,0,0,0,-1,524,778,0,0
-693,246,0,0,0,0,0,0,0,0,0,-1,531,778,0,0
-686,246,0,0,0,0,0,0,0,0,0,-1,538,778,0,0
-679,246,0,0,0,0,0,0,0,0,0,-1,545,778,0,0
-672,246,0,0,0,0,0,0,0,0,0,-1,552,778,0,0
-665,246,0,0,0,0,0,0,0,0,0,-1,559,778,0,0
-658,246,0,0,0,0,0,0,0,0,0,-1,566,778,0,0
-651,246,0,0,0,0,0,0,0,0,0,-1,573,778,0,0
-644,246,0,0,0,0,0,0,0,0,0,-1,580,778,0,0
-637,246,-24.1234,0.130432,0,0,0,0,0,0,0,-1,587,778,-24.1234,-0.130438
-630,246,-24.0781,1.38916,0,0,0,0,0,0,0,-1,594,778,-24.0781,-1.38913
-623,246,-23.9183,2.49573,0,0,0,0,0,0,0,-1,601,778,-23.9183,-2.49575
-616,246,-26.8182,2.0705,0,0,0,0,0,0,0,-1,608,778,-26.8182,-2.07052
-609,246,-26.0615,1.16388,0,0,0,0,0,0,0,-1,615,778,-26.0615,-1.16388
-602,246,-28.3367,3.20685,0,0,0,0,0,0,0,-1,622,778,-28.3367,-3.20687
-595,246,-28.4517,2.51904,0,0,0,0,0,0,0,-1,629,778,-28.4517,-2.51903
-588,246,-28.574,1.65497,-0.000139927,0.00576761,-0.00417653,0.00792933,-0.00230164,-1.09318,0.00619757,0.0328376,636,778,-28.574,-1.65494
-581,246,-28.7156,0.87439,-0.000165122,0.00459725,-0.00309092,0.00611784,-0.00168571,-1.11361,0.00474143,0.0183899,643,778,-28.7156,-0.874405
-574,246,-28.6787,0.108765,-0.00038782,0.00344114,-0.00194861,0.00425838,-0.00120506,-1.17368,0.00331445,0.0187768,650,778,-28.6787,-0.108751
-567,246,-28.7267,-0.599976,-0.000693283,0.00219381,-0.000877593,0.00243964,-0.000939115,-1.29768,0.00201383,0.0242276,657,778,-28.7268,0.599987
-560,246,-28.7991,-1.26361,-0.00109367,0.000990237,0.00010874,0.000995895,-0.00109933,1.5188,0.00121017,0.0186824,664,778,-28.7991,1.26362
-553,246,-28.8096,-1.93097,-0.00152892,-0.000153888,0.00110749,0.000462135,-0.00214494,1.06318,0.00160632,0.0124298,671,778,-28.8096,1.93094
-546,246,-28.8602,-2.64264,-0.00144004,-0.00124146,0.00177435,0.000436375,-0.00311788,0.813348,0.00223827,0.010983,678,778,-28.8602,2.64263
-539,246,-28.9149,-3.39752,-0.00117296,-0.00174548,0.0023345,0.000892761,-0.0038112,0.724392,0.00288481,0.0114126,685,778,-28.9149,3.39752
-532,246,-28.9056,-4.14398,-0.000925403,-0.00148694,0.00241551,0.0012256,-0.00363794,0.72754,0.00292084,0.0197246,692,778,-28.9056,4.14397
-525,246,-28.9665,-4.84796,-0.000573618,-0.00114439,0.00225192,0.00141093,-0.00312894,0.72237,0.00268293,0.0395452,699,778,-28.9665,4.84797
-518,246,-29.1042,-5.76392,0,0,0,0,0,0,0,-1,706,778,-29.1042,5.7639
-511,246,-28.5886,-5.38635,0,0,0,0,0,0,0,-1,713,778,-28.5886,5.38633
-504,246,-20.0047,-2.88214,0,0,0,0,0,0,0,-1,720,778,-20.0047,2.88216
-497,246,-29.4669,1.82684,0,0,0,0,0,0,0,-1,727,778,-29.4669,-1.82687
-490,246,-40.4299,1.04309,0,0,0,0,0,0,0,-1,734,778,-40.4299,-1.04308
-483,246,-46.2228,1.5943,0,0,0,0,0,0,0,-1,741,778,-46.2228,-1.59429
-476,246,-46.4083,1.22131,0,0,0,0,0,0,0,-1,748,778,-46.4083,-1.22129
-469,246,-46.3677,1.16376,-0.00168362,0.00705325,0.000872977,0.00713963,-0.00176999,1.47218,0.00544648,0.0446039,755,778,-46.3677,-1.16379
-462,246,-46.3954,1.12469,-0.00301335,0.00760437,0.00118415,0.00773483,-0.00314381,1.46107,0.00646454,0.0492974,762,778,-46.3954,-1.1247
-455,246,0,0,0,0,0,0,0,0,0,-1,769,778,0,0
-448,246,0,0,0,0,0,0,0,0,0,-1,776,778,0,0
-441,246,0,0,0,0,0,0,0,0,0,-1,783,778,0,0
-434,246,0,0,0,0,0,0,0,0,0,-1,790,778,0,0
-427,246,0,0,0,0,0,0,0,0,0,-1,797,778,0,0
-420,246,0,0,0,0,0,0,0,0,0,-1,804,778,0,0
-413,246,0,0,0,0,0,0,0,0,0,-1,811,778,0,0
-406,246,0,0,0,0,0,0,0,0,0,-1,818,778,0,0
-399,246,0,0,0,0,0,0,0,0,0,-1,825,778,0,0
-392,246,0,0,0,0,0,0,0,0,0,-1,832,778,0,0
-385,246,0,0,0,0,0,0,0,0,0,-1,839,778,0,0
-378,246,0,0,0,0,0,0,0,0,0,-1,846,778,0,0
-371,246,0,0,0,0,0,0,0,0,0,-1,853,778,0,0
-364,246,0,0,0,0,0,0,0,0,0,-1,860,778,0,0
-357,246,0,0,0,0,0,0,0,0,0,-1,867,778,0,0
-350,246,0,0,0,0,0,0,0,0,0,-1,874,778,0,0
-343,246,0,0,0,0,0,0,0,0,0,-1,881,778,0,0
-336,246,0,0,0,0,0,0,0,0,0,-1,888,778,0,0
-329,246,0,0,0,0,0,0,0,0,0,-1,895,778,0,0
-322,246,0,0,0,0,0,0,0,0,0,-1,902,778,0,0
-315,246,0,0,0,0,0,0,0,0,0,-1,909,778,0,0
-308,246,0,0,0,0,0,0,0,0,0,-1,916,778,0,0
-301,246,0,0,0,0,0,0,0,0,0,-1,923,778,0,0
-294,246,0,0,0,0,0,0,0,0,0,-1,930,778,0,0
-287,246,0,0,0,0,0,0,0,0,0,-1,937,778,0,0
-280,246,0,0,0,0,0,0,0,0,0,-1,944,778,0,0
-273,246,0,0,0,0,0,0,0,0,0,-1,951,778,0,0
-266,246,0,0,0,0,0,0,0,0,0,-1,958,778,0,0
-259,246,0,0,0,0,0,0,0,0,0,-1,965,778,0,0
-252,246,0,0,0,0,0,0,0,0,0,-1,972,778,0,0
-245,246,0,0,0,0,0,0,0,0,0,-1,979,778,0,0
-238,246,0,0,0,0,0,0,0,0,0,-1,986,778,0,0
-231,246,0,0,0,0,0,0,0,0,0,-1,993,778,0,0
-224,246,0,0,0,0,0,0,0,0,0,-1,1000,778,0,0
-217,246,0,0,0,0,0,0,0,0,0,-1,1007,778,0,0
-210,246,0,0,0,0,0,0,0,0,0,-1,1014,778,0,0
-203,246,0,0,0,0,0,0,0,0,0,-1,1021,778,0,0
-196,246,0,0,0,0,0,0,0,0,0,-1,1028,778,0,0
-189,246,0,0,0,0,0,0,0,0,0,-1,1035,778,0,0
-182,246,0,0,0,0,0,0,0,0,0,-1,1042,778,0,0
-175,246,0,0,0,0,0,0,0,0,0,-1,1049,778,0,0
-168,246,0,0,0,0,0,0,0,0,0,-1,1056,778,0,0
-161,246,0,0,0,0,0,0,0,0,0,-1,1063,778,0,0
-154,246,0,0,0,0,0,0,0,0,0,-1,1070,778,0,0
-147,246,0,0,0,0,0,0,0,0,0,-1,1077,778,0,0
-140,246,0,0,0,0,0,0,0,0,0,-1,1084,778,0,0
-133,246,0,0,0,0,0,0,0,0,0,-1,1091,778,0,0
-126,246,0,0,0,0,0,0,0,0,0,-1,1098,778,0,0
-119,246,0,0,0,0,0,0,0,0,0,-1,1105,778,0,0
-112,246,0,0,0,0,0,0,0,0,0,-1,1112,778,0,0
-105,246,0,0,0,0,0,0,0,0,0,-1,1119,778,0,0
-98,246,0,0,0,0,0,0,0,0,0,-1,1126,778,0,0
-91,246,0,0,0,0,0,0,0,0,0,-1,1133,778,0,0
-84,246,0,0,0,0,0,0,0,0,0,-1,1140,778,0,0
-77,246,0,0,0,0,0,0,0,0,0,-1,1147,778,0,0
-70,246,0,0,0,0,0,0,0,0,0,-1,1154,778,0,0
-63,246,0,0,0,0,0,0,0,0,0,-1,1161,778,0,0
-56,246,0,0,0,0,0,0,0,0,0,-1,1168,778,0,0
-49,246,0,0,0,0,0,0,0,0,0,-1,1175,778,0,0
-42,246,0,0,0,0,0,0,0,0,0,-1,1182,778,0,0
-35,246,0,0,0,0,0,0,0,0,0,-1,1189,778,0,0
-28,246,0,0,0,0,0,0,0,0,0,-1,1196,778,0,0
-21,246,0,0,0,0,0,0,0,0,0,-1,1203,778,0,0
-14,246,0,0,0,0,0,0,0,0,0,-1,1210,778,0,0
-7,246,0,0,0,0,0,0,0,0,0,-1,1217,778,0,0
0,246,0,0,0,0,0,0,0,0,0,-1,1224,778,0,0
7,246,0,0,0,0,0,0,0,0,0,-1,1231,778,0,0
14,246,0,0,0,0,0,0,0,0,0,-1,1238,778,0,0
21,246,0,0,0,0,0,0,0,0,0,-1,1245,778,0,0
28,246,0,0,0,0,0,0,0,0,0,-1,1252,778,0,0
35,246,0,0,0,0,0,0,0,0,0,-1,1259,778,0,0
42,246,0,0,0,0,0,0,0,0,0,-1,1266,778,0,0
49,246,0,0,0,0,0,0,0,0,0,-1,1273,778,0,0
56,246,0,0,0,0,0,0,0,0,0,-1,1280,778,0,0
63,246,0,0,0,0,0,0,0,0,0,-1,1287,778,0,0
70,246,0,0,0,0,0,0,0,0,0,-1,1294,778,0,0
77,246,0,0,0,0,0,0,0,0,0,-1,1301,778,0,0
84,246,0,0,0,0,0,0,0,0,0,-1,1308,778,0,0
91,246,0,0,0,0,0,0,0,0,0,-1,1315,778,0,0
98,246,0,0,0,0,0,0,0,0,0,-1,1322,778,0,0
105,246,0,0,0,0,0,0,0,0,0,-1,1329,778,0,0
112,246,0,0,0,0,0,0,0,0,0,-1,1336,778,0,0
119,246,0,0,0,0,0,0,0,0,0,-1,1343,778,0,0
126,246,0,0,0,0,0,0,0,0,0,-1,1350,778,0,0
133,246,0,0,0,0,0,0,0,0,0,-1,1357,778,0,0
140,246,0,0,0,0,0,0,0,0,0,-1,1364,778,0,0
147,246,0,0,0,0,0,0,0,0,0,-1,1371,778,0,0
154,246,0,0,0,0,0,0,0,0,0,-1,1378,778,0,0
161,246,0,0,0,0,0,0,0,0,0,-1,1385,778,0,0
168,246,0,0,0,0,0,0,0,0,0,-1,1392,778,0,0
175,246,0,0,0,0,0,0,0,0,0,-1,1399,778,0,0
182,246,0,0,0,0,0,0,0,0,0,-1,1406,778,0,0
189,246,0,0,0,0,0,0,0,0,0,-1,1413,778,0,0
196,246,0,0,0,0,0,0,0,0,0,-1,1420,778,0,0
203,246,0,0,0,0,0,0,0,0,0,-1,1427,778,0,0
210,246,0,0,0,0,0,0,0,0,0,-1,1434,778,0,0
217,246,0,0,0,0,0,0,0,0,0,-1,1441,778,0,0
224,246,0,0,0,0,0,0,0,0,0,-1,1448,778,0,0
231,246,0,0,0,0,0,0,0,0,0,-1,1455,778,0,0
238,246,0,0,0,0,0,0,0,0,0,-1,1462,778,0,0
245,246,0,0,0,0,0,0,0,0,0,-1,1469,778,0,0
252,246,0,0,0,0,0,0,0,0,0,-1,1476,778,0,0
259,246,0,0,0,0,0,0,0,0,0,-1,1483,778,0,0
266,246,0,0,0,0,0,0,0,0,0,-1,1490,778,0,0
273,246,0,0,0,0,0,0,0,0,0,-1,1497,778,0,0
280,246,0,0,0,0,0,0,0,0,0,-1,1504,778,0,0
287,246,0,0,0,0,0,0,0,0,0,-1,1511,778,0,0
294,246,0,0,0,0,0,0,0,0,0,-1,1518,778,0,0
301,246,0,0,0,0,0,0,0,0,0,-1,1525,778,0,0
308,246,0,0,0,0,0,0,0,0,0,-1,1532,778,0,0
315,246,0,0,0,0,0,0,0,0,0,-1,1539,778,0,0
322,246,0,0,0,0,0,0,0,0,0,-1,1546,778,0,0
329,246,0,0,0,0,0,0,0,0,0,-1,1553,778,0,0
336,246,0,0,0,0,0,0,0,0,0,-1,1560,778,0,0
343,246,0,0,0,0,0,0,0,0,0,-1,1567,778,0,0
350,246,0,0,0,0,0,0,0,0,0,-1,1574,778,0,0
357,246,0,0,0,0,0,0,0,0,0,-1,1581,778,0,0
364,246,0,0,0,0,0,0,0,0,0,-1,1588,778,0,0
371,246,0,0,0,0,0,0,0,0,0,-1,1595,778,0,0
378,246,0,0,0,0,0,0,0,0,0,-1,1602,778,0,0
385,246,0,0,0,0,0,0,0,0,0,-1,1609,778,0,0
392,246,0,0,0,0,0,0,0,0,0,-1,1616,778,0,0
399,246,0,0,0,0,0,0,0,0,0,-1,1623,778,0,0
406,246,0,0,0,0,0,0,0,0,0,-1,1630,778,0,0
413,246,0,0,0,0,0,0,0,0,0,-1,1637,778,0,0
420,246,0,0,0,0,0,0,0,0,0,-1,1644,778,0,0
427,246,0,0,0,0,0,0,0,0,0,-1,1651,778,0,0
434,246,0,0,0,0,0,0,0,0,0,-1,1658,778,0,0
441,246,0,0,0,0,0,0,0,0,0,-1,1665,778,0,0
448,246,0,0,0,0,0,0,0,0,0,-1,1672,778,0,0
455,246,0,0,0,0,0,0,0,0,0,-1,1679,778,0,0
462,246,0,0,0,0,0,0,0,0,0,-1,1686,778,0,0
469,246,0,0,0,0,0,0,0,0,0,-1,1693,778,0,0
476,246,0,0,0,0,0,0,0,0,0,-1,1700,778,0,0
483,246,0,0,0,0,0,0,0,0,0,-1,1707,778,0,0
490,246,0,0,0,0,0,0,0,0,0,-1,1714,778,0,0
497,246,0,0,0,0,0,0,0,0,0,-1,1721,778,0,0
504,246,0,0,0,0,0,0,0,0,0,-1,1728,778,0,0
511,246,0,0,0,0,0,0,0,0,0,-1,1735,778,0,0
518,246,0,0,0,0,0,0,0,0,0,-1,1742,778,0,0
525,246,0,0,0,0,0,0,0,0,0,-1,1749,778,0,0
532,246,0,0,0,0,0,0,0,0,0,-1,1756,778,0,0
539,246,0,0,0,0,0,0,0,0,0,-1,1763,778,0,0
546,246,0,0,0,0,0,0,0,0,0,-1,1770,778,0,0
553,246,0,0,0,0,0,0,0,0,0,-1,1777,778,0,0
560,246,0,0,0,0,0,0,0,0,0,-1,1784,778,0,0
567,246,0,0,0,0,0,0,0,0,0,-1,1791,778,0,0
574,246,0,0,0,0,0,0,0,0,0,-1,1798,778,0,0
581,246,60.9037,2.87994,0.0138361,-0.0114654,-0.00122007,0.0138948,-0.0115241,-0.0480726,0.0146968,0.0416985,1805,778,60.9036,-2.87993
588,246,60.9769,2.7442,0.011405,-0.00515441,0.00185963,0.0116113,-0.00536068,0.110467,0.0100178,0.0445395,1812,778,60.9769,-2.7442
595,246,61.2465,2.72852,0.00930127,-0.0017876,0.00262591,0.00989167,-0.00237799,0.221158,0.00751361,0.0439871,1819,778,61.2464,-2.72851
602,246,61.111,3.12769,0.00734595,2.63983e-05,0.00267774,0.00822096,-0.000848612,0.315833,0.0057843,0.0452456,1826,778,61.111,-3.12766
609,246,60.7972,3.55988,0,0,0,0,0,0,0,-1,1833,778,60.7973,-3.55989
616,246,60.4568,3.98492,0,0,0,0,0,0,0,-1,1840,778,60.4568,-3.98491
623,246,55.8947,3.95953,0,0,0,0,0,0,0,-1,1847,778,55.8947,-3.95952
630,246,49.5938,1.99902,0,0,0,0,0,0,0,-1,1854,778,49.5937,-1.999
637,246,29.5785,0.837585,0,0,0,0,0,0,0,-1,1861,778,29.5785,-0.837606
644,246,28.1232,-1.43188,0,0,0,0,0,0,0,-1,1868,778,28.1232,1.43188
651,246,41.6095,-3.58563,0,0,0,0,0,0,0,-1,1875,778,41.6094,3.58564
658,246,41.8495,-2.78363,-0.00137821,-0.00041434,-0.000414372,-0.000260691,-0.00153185,-1.21571,0.000946384,0.0458697,1882,778,41.8495,2.78363
665,246,41.9678,-1.96539,-0.00187059,-0.000825075,-0.00102919,-0.000193489,-0.00250218,-1.02038,0.00160751,0.0266988,1889,778,41.9677,1.96539
672,246,41.9977,-1.18469,-0.00198416,-0.00106643,-0.00120216,-0.000238537,-0.00281205,-0.967715,0.00180046,0.0216209,1896,778,41.9977,1.18469
679,246,41.9847,-0.436157,-0.00181225,-0.000872959,-0.00110154,-0.000145122,-0.00254009,-0.986906,0.00164715,0.0213338,1903,778,41.9847,0.436129
686,246,41.9595,0.32251,-0.00120039,-3.04104e-05,-0.000708247,0.0003032,-0.001534,-1.13059,0.00113729,0.022394,1910,778,41.9595,-0.322489
693,246,41.9052,1.0224,-0.00038251,0.00112248,-2.48291e-05,0.00112289,-0.00038292,-1.5543,0.00090369,0.0169447,1917,778,41.9052,-1.02237
700,246,41.8878,1.71307,0.000327397,0.00216422,0.000649686,0.00237079,0.000120833,1.26296,0.00154183,0.0132374,1924,778,41.8879,-1.71307
707,246,41.8706,2.46246,0.000879576,0.0033444,0.00140528,0.00398112,0.000242854,1.14537,0.00257695,0.0130798,1931,778,41.8707,-2.46249
714,246,41.8274,3.2406,0.00117931,0.00444593,0.00219045,0.00554497,8.02663e-05,1.10575,0.00367018,0.014391,1938,778,41.8274,-3.24058
721,246,41.7576,3.93542,0.000696458,0.00484815,0.00257738,0.00608169,-0.000537084,1.12441,0.00424483,0.0195155,1945,778,41.7576,-3.9354
728,246,41.6987,4.75751,-0.000575057,0.00451711,0.00251969,0.00555312,-0.00161106,1.1807,0.00433995,0.0446166,1952,778,41.6987,-4.75748
735,246,41.7406,5.64417,0,0,0,0,0,0,0,-1,1959,778,41.7406,-5.64417
742,246,31.7356,6.70013,0,0,0,0,0,0,0,-1,1966,778,31.7356,-6.70011
749,246,32.3883,7.69324,0,0,0,0,0,0,0,-1,1973,778,32.3883,-7.69322
756,246,33.6919,3.45264,0,0,0,0,0,0,0,-1,1980,778,33.6919,-3.45262
763,246,0,0,0,0,0,0,0,0,0,-1,1987,778,0,0
770,246,0,0,0,0,0,0,0,0,0,-1,1994,778,0,0
777,246,0,0,0,0,0,0,0,0,0,-1,2001,778,0,0
784,246,0,0,0,0,0,0,0,0,0,-1,2008,778,0,0
791,246,0,0,0,0,0,0,0,0,0,-1,2015,778,0,0
798,246,0,0,0,0,0,0,0,0,0,-1,2022,778,0,0
805,246,0,0,0,0,0,0,0,0,0,-1,2029,778,0,0
812,246,0,0,0,0,0,0,0,0,0,-1,2036,778,0,0
-700,239,0,0,0,0,0,0,0,0,0,-1,524,785,0,0
-693,239,0,0,0,0,0,0,0,0,0,-1,531,785,0,0
-686,239,0,0,0,0,0,0,0,0,0,-1,538,785,0,0
-679,239,0,0,0,0,0,0,0,0,0,-1,545,785,0,0
-672,239,0,0,0,0,0,0,0,0,0,-1,552,785,0,0
-665,239,0,0,0,0,0,0,0,0,0,-1,559,785,0,0
-658,239,0,0,0,0,0,0,0,0,0,-1,566,785,0,0
-651,239,0,0,0,0,0,0,0,0,0,-1,573,785,0,0
-644,239,0,0,0,0,0,0,0,0,0,-1,580,785,0,0
-637,239,-23.2709,0.465088,0,0,0,0,0,0,0,-1,587,785,-23.271,-0.465116
-630,239,-23.4006,0.956299,0,0,0,0,0,0,0,-1,594,785,-23.4005,-0.956285
-623,239,-30.6328,2.52185,0,0,0,0,0,0,0,-1,601,785,-30.6328,-2.52183
-616,239,-29.1425,1.42139,0,0,0,0,0,0,0,-1,608,785,-29.1425,-1.42139
-609,239,-27.8569,0.322937,0,0,0,0,0,0,0,-1,615,785,-27.857,-0.322963
-602,239,-29.0718,3.73608,0,0,0,0,0,0,0,-1,622,785,-29.0719,-3.73607
-595,239,-29.173,2.74048,-0.00114941,0.00572804,-0.00491142,0.00828488,-0.00370625,-1.09081,0.00708932,0.0445123,629,785,-29.173,-2.74051
-588,239,-29.3053,1.74384,-0.000414157,0.00502117,-0.00376801,0.00694933,-0.00234231,-1.09782,0.00558,0.0215907,636,785,-29.3053,-1.74385
-581,239,-29.421,0.911621,-0.000193433,0.00405256,-0.00278684,0.00543294,-0.0015738,-1.1109,0.00424495,0.0114393,643,785,-29.4209,-0.911644
-574,239,-29.4168,0.163574,-0.000277624,0.00300113,-0.00172431,0.003741,-0.00101749,-1.16548,0.00289343,0.0117068,650,785,-29.4168,-0.163585
-567,239,-29.4646,-0.545166,-0.000538489,0.00188148,-0.000706006,0.00207239,-0.0007294,-1.3067,0.00167842,0.0174712,657,785,-29.4646,0.545188
-560,239,-29.5089,-1.22162,-0.000967458,0.000797474,0.00024652,0.000831261,-0.00100124,1.43459,0.00105951,0.018239,664,785,-29.5089,1.22164
-553,239,-29.5272,-1.90619,-0.0014102,-0.00011675,0.00120718,0.000606032,-0.00213298,1.03131,0.00166126,0.0142927,671,785,-29.5272,1.90619
-546,239,-29.5785,-2.61023,-0.00118154,-0.000984065,0.00171149,0.000631537,-0.00279714,0.814212,0.00210706,0.0150631,678,785,-29.5785,2.61025
-539,239,-29.7337,-3.31342,-0.000835631,-0.00112852,0.00212077,0.00114375,-0.0031079,0.750927,0.0025405,0.0185881,685,785,-29.7337,3.3134
-532,239,-29.8041,-4.00568,-0.000578371,-0.000665868,0.00210145,0.00147978,-0.00272402,0.77499,0.00246225,0.0256547,692,785,-29.8041,4.0057
-525,239,-29.795,-4.4726,-0.000249226,-0.000268309,0.00191883,0.00166009,-0.00217763,0.782912,0.00222241,0.0390294,699,785,-29.795,4.47257
-518,239,-30.0487,-4.84955,0,0,0,0,0,0,0,-1,706,785,-30.0487,4.84953
-511,239,-20.9849,-2.09235,0,0,0,0,0,0,0,-1,713,785,-20.9848,2.09234
-504,239,-25.5015,2.00421,0,0,0,0,0,0,0,-1,720,785,-25.5015,-2.00422
-497,239,-40.2453,1.4447,0,0,0,0,0,0,0,-1,727,785,-40.2453,-1.4447
-490,239,-46.4033,1.38611,0,0,0,0,0,0,0,-1,734,785,-46.4033,-1.38612
-483,239,-46.3355,1.33862,0.00151456,0.0057656,-6.17789e-05,0.00576649,0.00151366,-1.55627,0.00345222,0.0469732,741,785,-46.3355,-1.3386
-476,239,-46.4304,1.12842,0.000840657,0.00695493,-3.57174e-05,0.00695513,0.000840448,-1.56495,0.00438355,0.0428779,748,785,-46.4303,-1.12843
-469,239,-46.4678,1.02783,-5.93778e-05,0.00719726,0.000368592,0.00721593,-7.8052e-05,1.52018,0.00483685,0.0462387,755,785,-46.4679,-1.02782
-462,239,-46.4113,1.17291,-0.00124924,0.00746726,0.000702105,0.00752345,-0.00130543,1.49093,0.00550264,0.0472378,762,785,-46.4113,-1.1729
-455,239,0,0,0,0,0,0,0,0,0,-1,769,785,0,0
-448,239,0,0,0,0,0,0,0,0,0,-1,776,785,0,0
-441,239,0,0,0,0,0,0,0,0,0,-1,783,785,0,0
-434,239,0,0,0,0,0,0,0,0,0,-1,790,785,0,0
-427,239,0,0,0,0,0,0,0,0,0,-1,797,785,0,0
-420,239,0,0,0,0,0,0,0,0,0,-1,804,785,0,0
-413,239,0,0,0,0,0,0,0,0,0,-1,811,785,0,0
-406,239,0,0,0,0,0,0,0,0,0,-1,818,785,0,0
-399,239,0,0,0,0,0,0,0,0,0,-1,825,785,0,0
-392,239,0,0,0,0,0,0,0,0,0,-1,832,785,0,0
-385,239,0,0,0,0,0,0,0,0,0,-1,839,785,0,0
-378,239,0,0,0,0,0,0,0,0,0,-1,846,785,0,0
-371,239,0,0,0,0,0,0,0,0,0,-1,853,785,0,0
-364,239,0,0,0,0,0,0,0,0,0,-1,860,785,0,0
-357,239,0,0,0,0,0,0,0,0,0,-1,867,785,0,0
-350,239,0,0,0,0,0,0,0,0,0,-1,874,785,0,0
-343,239,0,0,0,0,0,0,0,0,0,-1,881,785,0,0
-336,239,0,0,0,0,0,0,0,0,0,-1,888,785,0,0
-329,239,0,0,0,0,0,0,0,0,0,-1,895,785,0,0
-322,239,0,0,0,0,0,0,0,0,0,-1,902,785,0,0
-315,239,0,0,0,0,0,0,0,0,0,-1,909,785,0,0
-308,239,0,0,0,0,0,0,0,0,0,-1,916,785,0,0
-301,239,0,0,0,0,0,0,0,0,0,-1,923,785,0,0
-294,239,0,0,0,0,0,0,0,0,0,-1,930,785,0,0
-287,239,0,0,0,0,0,0,0,0,0,-1,937,785,0,0
-280,239,0,0,0,0,0,0,0,0,0,-1,944,785,0,0
-273,239,0,0,0,0,0,0,0,0,0,-1,951,785,0,0
-266,239,0,0,0,0,0,0,0,0,0,-1,958,785,0,0
-259,239,0,0,0,0,0,0,0,0,0,-1,965,785,0,0
-252,239,0,0,0,0,0,0,0,0,0,-1,972,785,0,0
-245,239,0,0,0,0,0,0,0,0,0,-1,979,785,0,0
-238,239,0,0,0,0,0,0,0,0,0,-1,986,785,0,0
-231,239,0,0,0,0,0,0,0,0,0,-1,993,785,0,0
-224,239,0,0,0,0,0,0,0,0,0,-1,1000,785,0,0
-217,239,0,0,0,0,0,0,0,0,0,-1,1007,785,0,0
-210,239,0,0,0,0,0,0,0,0,0,-1,1014,785,0,0
-203,239,0,0,0,0,0,0,0,0,0,-1,1021,785,0,0
-196,239,0,0,0,0,0,0,0,0,0,-1,1028,785,0,0
-189,239,0,0,0,0,0,0,0,0,0,-1,1035,785,0,0
-182,239,0,0,0,0,0,0,0,0,0,-1,1042,785,0,0
-175,239,0,0,0,0,0,0,0,0,0,-1,1049,785,0,0
-168,239,0,0,0,0,0,0,0,0,0,-1,1056,785,0,0
-161,239,0,0,0,0,0,0,0,0,0,-1,1063,785,0,0
-154,239,0,0,0,0,0,0,0,0,0,-1,1070,785,0,0
-147,239,0,0,0,0,0,0,0,0,0,-1,1077,785,0,0
-140,239,0,0,0,0,0,0,0,0,0,-1,1084,785,0,0
-133,239,0,0,0,0,0,0,0,0,0,-1,1091,785,0,0
-126,239,0,0,0,0,0,0,0,0,0,-1,1098,785,0,0
-119,239,0,0,0,0,0,0,0,0,0,-1,1105,785,0,0
-112,239,0,0,0,0,0,0,0,0,0,-1,1112,785,0,0
-105,239,0,0,0,0,0,0,0,0,0,-1,1119,785,0,0
-98,239,0,0,0,0,0,0,0,0,0,-1,1126,785,0,0
-91,239,0,0,0,0,0,0,0,0,0,-1,1133,785,0,0
-84,239,0,0,0,0,0,0,0,0,0,-1,1140,785,0,0
-77,239,0,0,0,0,0,0,0,0,0,-1,1147,785,0,0
-70,239,0,0,0,0,0,0,0,0,0,-1,1154,785,0,0
-63,239,0,0,0,0,0,0,0,0,0,-1,1161,785,0,0
-56,239,0,0,0,0,0,0,0,0,0,-1,1168,785,0,0
-49,239,0,0,0,0,0,0,0,0,0,-1,1175,785,0,0
-42,239,0,0,0,0,0,0,0,0,0,-1,1182,785,0,0
-35,239,0,0,0,0,0,0,0,0,0,-1,1189,785,0,0
-28,239,0,0,0,0,0,0,0,0,0,-1,1196,785,0,0
-21,239,0,0,0,0,0,0,0,0,0,-1,1203,785,0,0
-14,239,0,0,0,0,0,0,0,0,0,-1,1210,785,0,0
-7,239,0,0,0,0,0,0,0,0,0,-1,1217,785,0,0
0,239,0,0,0,0,0,0,0,0,0,-1,1224,785,0,0
7,239,0,0,0,0,0,0,0,0,0,-1,1231,785,0,0
14,239,0,0,0,0,0,0,0,0,0,-1,1238,785,0,0
21,239,0,0,0,0,0,0,0,0,0,-1,1245,785,0,0
28,239,0,0,0,0,0,0,0,0,0,-1,1252,785,0,0
35,239,0,0,0,0,0,0,0,0,0,-1,1259,785,0,0
42,239,0,0,0,0,0,0,0,0,0,-1,1266,785,0,0
49,239,0,0,0,0,0,0,0,0,0,-1,1273,785,0,0
56,239,0,0,0,0,0,0,0,0,0,-1,1280,785,0,0
63,239,0,0,0,0,0,0,0,0,0,-1,1287,785,0,0
70,239,0,0,0,0,0,0,0,0,0,-1,1294,785,0,0
77,239,0,0,0,0,0,0,0,0,0,-1,1301,785,0,0
84,239,0,0,0,0,0,0,0,0,0,-1,1308,785,0,0
91,239,0,0,0,0,0,0,0,0,0,-1,1315,785,0,0
98,239,0,0,0,0,0,0,0,0,0,-1,1322,785,0,0
105,239,0,0,0,0,0,0,0,0,0,-1,1329,785,0,0
112,239,0,0,0,0,0,0,0,0,0,-1,1336,785,0,0
119,239,0,0,0,0,0,0,0,0,0,-1,1343,785,0,0
126,239,0,0,0,0,0,0,0,0,0,-1,1350,785,0,0
133,239,0,0,0,0,0,0,0,0,0,-1,1357,785,0,0
140,239,0,0,0,0,0,0,0,0,0,-1,1364,785,0,0
147,239,0,0,0,0,0,0,0,0,0,-1,1371,785,0,0
154,239,0,0,0,0,0,0,0,0,0,-1,1378,785,0,0
161,239,0,0,0,0,0,0,0,0,0,-1,1385,785,0,0
168,239,0,0,0,0,0,0,0,0,0,-1,1392,785,0,0
175,239,0,0,0,0,0,0,0,0,0,-1,1399,785,0,0
182,239,0,0,0,0,0,0,0,0,0,-1,1406,785,0,0
189,239,0,0,0,0,0,0,0,0,0,-1,1413,785,0,0
196,239,0,0,0,0,0,0,0,0,0,-1,1420,785,0,0
203,239,0,0,0,0,0,0,0,0,0,-1,1427,785,0,0
210,239,0,0,0,0,0,0,0,0,0,-1,1434,785,0,0
217,239,0,0,0,0,0,0,0,0,0,-1,1441,785,0,0
224,239,0,0,0,0,0,0,0,0,0,-1,1448,785,0,0
231,239,0,0,0,0,0,0,0,0,0,-1,1455,785,0,0
238,239,0,0,0,0,0,0,0,0,0,-1,1462,785,0,0
245,239,0,0,0,0,0,0,0,0,0,-1,1469,785,0,0
252,239,0,0,0,0,0,0,0,0,0,-1,1476,785,0,0
259,239,0,0,0,0,0,0,0,0,0,-1,1483,785,0,0
266,239,0,0,0,0,0,0,0,0,0,-1,1490,785,0,0
273,239,0,0,0,0,0,0,0,0,0,-1,1497,785,0,0
280,239,0,0,0,0,0,0,0,0,0,-1,1504,785,0,0
287,239,0,0,0,0,0,0,0,0,0,-1,1511,785,0,0
294,239,0,0,0,0,0,0,0,0,0,-1,1518,785,0,0
301,239,0,0,0,0,0,0,0,0,0,-1,1525,785,0,0
308,239,0,0,0,0,0,0,0,0,0,-1,1532,785,0,0
315,239,0,0,0,0,0,0,0,0,0,-1,1539,785,0,0
322,239,0,0,0,0,0,0,0,0,0,-1,1546,785,0,0
329,239,0,0,0,0,0,0,0,0,0,-1,1553,785,0,0
336,239,0,0,0,0,0,0,0,0,0,-1,1560,785,0,0
343,239,0,0,0,0,0,0,0,0,0,-1,1567,785,0,0
350,239,0,0,0,0,0,0,0,0,0,-1,1574,785,0,0
357,239,0,0,0,0,0,0,0,0,0,-1,1581,785,0,0
364,239,0,0,0,0,0,0,0,0,0,-1,1588,785,0,0
371,239,0,0,0,0,0,0,0,0,0,-1,1595,785,0,0
378,239,0,0,0,0,0,0,0,0,0,-1,1602,785,0,0
385,239,0,0,0,0,0,0,0,0,0,-1,1609,785,0,0
392,239,0,0,0,0,0,0,0,0,0,-1,1616,785,0,0
399,239,0,0,0,0,0,0,0,0,0,-1,1623,785,0,0
406,239,0,0,0,0,0,0,0,0,0,-1,1630,785,0,0
413,239,0,0,0,0,0,0,0,0,0,-1,1637,785,0,0
420,239,0,0,0,0,0,0,0,0,0,-1,1644,785,0,0
427,239,0,0,0,0,0,0,0,0,0,-1,1651,785,0,0
434,239,0,0,0,0,0,0,0,0,0,-1,1658,785,0,0
441,239,0,0,0,0,0,0,0,0,0,-1,1665,785,0,0
448,239,0,0,0,0,0,0,0,0,0,-1,1672,785,0,0
455,239,0,0,0,0,0,0,0,0,0,-1,1679,785,0,0
462,239,0,0,0,0,0,0,0,0,0,-1,1686,785,0,0
469,239,0,0,0,0,0,0,0,0,0,-1,1693,785,0,0
476,239,0,0,0,0,0,0,0,0,0,-1,1700,785,0,0
483,239,0,0,0,0,0,0,0,0,0,-1,1707,785,0,0
490,239,0,0,0,0,0,0,0,0,0,-1,1714,785,0,0
497,239,0,0,0,0,0,0,0,0,0,-1,1721,785,0,0
504,239,0,0,0,0,0,0,0,0,0,-1,1728,785,0,0
511,239,0,0,0,0,0,0,0,0,0,-1,1735,785,0,0
518,239,0,0,0,0,0,0,0,0,0,-1,1742,785,0,0
525,239,0,0,0,0,0,0,0,0,0,-1,1749,785,0,0
532,239,0,0,0,0,0,0,0,0,0,-1,1756,785,0,0
539,239,0,0,0,0,0,0,0,0,0,-1,1763,785,0,0
546,239,0,0,0,0,0,0,0,0,0,-1,1770,785,0,0
553,239,0,0,0,0,0,0,0,0,0,-1,1777,785,0,0
560,239,0,0,0,0,0,0,0,0,0,-1,1784,785,0,0
567,239,0,0,0,0,0,0,0,0,0,-1,1791,785,0,0
574,239,0,0,0,0,0,0,0,0,0,-1,1798,785,0,0
581,239,60.7903,3.21405,0.0110489,-0.0140595,-0.00646999,0.012618,-0.0156287,-0.237932,0.0163391,0.039507,1805,785,60.7903,-3.21402
588,239,60.8975,2.99957,0.00959627,-0.00563487,-0.000680968,0.00962666,-0.00566525,-0.0445903,0.00892699,0.0396656,1812,785,60.8974,-2.99958
595,239,61.0172,2.73523,0.00815111,-0.00123996,0.00152442,0.00839236,-0.00148122,0.156959,0.00614841,0.0345783,1819,785,61.0172,-2.73523
602,239,61.097,2.77826,0.00655178,0.000719185,0.00212397,0.00724325,2.77071e-05,0.314737,0.00481963,0.0397449,1826,785,61.0971,-2.77824
609,239,61.1786,2.86926,0,0,0,0,0,0,0,-1,1833,785,61.1786,-2.86925
616,239,55.8469,3.72443,0,0,0,0,0,0,0,-1,1840,785,55.8469,-3.72445
623,239,60.3989,3.45099,0,0,0,0,0,0,0,-1,1847,785,60.3989,-3.45101
630,239,54.5767,3.64667,0,0,0,0,0,0,0,-1,1854,785,54.5766,-3.64667
637,239,39.5542,2.54114,0,0,0,0,0,0,0,-1,1861,785,39.5543,-2.54114
644,239,18.3466,0.735413,0,0,0,0,0,0,0,-1,1868,785,18.3465,-0.735414
651,239,34.2471,-2.15778,0,0,0,0,0,0,0,-1,1875,785,34.2471,2.1578
658,239,42.3076,-3.01263,0,0,0,0,0,0,0,-1,1882,785,42.3076,3.01263
665,239,42.7428,-1.90125,-0.0024778,-0.000758053,-0.00140771,3.16304e-05,-0.00326748,-1.05957,0.00218894,0.0322765,1889,785,42.7428,1.90122
672,239,42.7159,-1.1308,-0.00282847,-0.00122448,-0.00170961,-0.000138099,-0.00391485,-1.00471,0.00256511,0.0214682,1896,785,42.7159,1.13083
679,239,42.6968,-0.367371,-0.00283064,-0.00131849,-0.00175008,-0.000168146,-0.00398099,-0.9893,0.00259976,0.0231082,1903,785,42.6968,0.367344
686,239,42.6877,0.39209,-0.00224674,-0.000671178,-0.00146237,0.000202097,-0.00312002,-1.03246,0.00215055,0.0235896,1910,785,42.6878,-0.392065
693,239,42.6549,1.04626,-0.00131393,0.00038044,-0.000786404,0.000689176,-0.00162267,-1.19669,0.00137054,0.0152025,1917,785,42.6549,-1.04627
700,239,42.6418,1.7558,-0.000499501,0.0013245,-0.000107284,0.00133078,-0.00050579,-1.51225,0.00109543,0.0111299,1924,785,42.6418,-1.75577
707,239,42.6123,2.50653,0.000117677,0.00240719,0.000632647,0.00257037,-4.55076e-05,1.31836,0.00172895,0.01123,1931,785,42.6123,-2.50656
714,239,42.5699,3.23883,0.000401427,0.00326332,0.00129029,0.00375915,-9.44005e-05,1.20392,0.00253815,0.0110187,1938,785,42.57,-3.2388
721,239,42.4851,3.96222,-6.96603e-05,0.00339897,0.00152909,0.00397678,-0.000647477,1.2095,0.00289128,0.0226286,1945,785,42.4851,-3.96224
728,239,42.3142,4.69781,-0.00136176,0.00267618,0.00120825,0.00301011,-0.00169568,1.30116,0.00275199,0.0461545,1952,785,42.3142,-4.69778
735,239,42.3799,5.53522,0,0,0,0,0,0,0,-1,1959,785,42.3798,-5.53524
742,239,32.4141,7.6665,0,0,0,0,0,0,0,-1,1966,785,32.4141,-7.6665
749,239,32.1489,3.4411,0,0,0,0,0,0,0,-1,1973,785,32.149,-3.44109
756,239,32.9064,3.6687,0,0,0,0,0,0,0,-1,1980,785,32.9063,-3.66873
763,239,0,0,0,0,0,0,0,0,0,-1,1987,785,0,0
770,239,0,0,0,0,0,0,0,0,0,-1,1994,785,0,0
777,239,0,0,0,0,0,0,0,0,0,-1,2001,785,0,0
784,239,0,0,0,0,0,0,0,0,0,-1,2008,785,0,0
791,239,0,0,0,0,0,0,0,0,0,-1,2015,785,0,0
798,239,0,0,0,0,0,0,0,0,0,-1,2022,785,0,0
805,239,0,0,0,0,0,0,0,0,0,-1,2029,785,0,0
812,239,0,0,0,0,0,0,0,0,0,-1,2036,785,0,0
-700,232,0,0,0,0,0,0,0,0,0,-1,524,792,0,0
-693,232,0,0,0,0,0,0,0,0,0,-1,531,792,0,0
-686,232,0,0,0,0,0,0,0,0,0,-1,538,792,0,0
-679,232,0,0,0,0,0,0,0,0,0,-1,545,792,0,0
-672,232,0,0,0,0,0,0,0,0,0,-1,552,792,0,0
-665,232,0,0,0,0,0,0,0,0,0,-1,559,792,0,0
-658,232,0,0,0,0,0,0,0,0,0,-1,566,792,0,0
-651,232,0,0,0,0,0,0,0,0,0,-1,573,792,0,0
-644,232,-41.2348,4.28168,0,0,0,0,0,0,0,-1,580,792,-41.2348,-4.28166
-637,232,-42.1427,3.51453,0,0,0,0,0,0,0,-1,587,792,-42.1427,-3.51452
-630,232,-32.2345,1.80212,0,0,0,0,0,0,0,-1,594,792,-32.2345,-1.80211
-623,232,-31.5665,1.05115,0,0,0,0,0,0,0,-1,601,792,-31.5664,-1.05112
-616,232,-30.6812,0.432861,0,0,0,0,0,0,0,-1,608,792,-30.6812,-0.432881
-609,232,-29.7142,-0.478943,0,0,0,0,0,0,0,-1,615,792,-29.7142,0.478965
-602,232,-29.938,3.72534,0,0,0,0,0,0,0,-1,622,792,-29.9381,-3.72536
-595,232,-29.9665,2.72107,-0.00215989,0.00543994,-0.00403396,0.00718188,-0.00390183,-1.16316,0.00649192,0.039091,629,792,-29.9665,-2.7211
-588,232,-30.0667,1.70758,-0.00089808,0.00468522,-0.00320364,0.00614287,-0.00235574,-1.14379,0.00506646,0.0139217,636,792,-30.0666,-1.70759
-581,232,-30.1145,0.918823,-0.000332547,0.00374619,-0.00237793,0.00483948,-0.00142584,-1.13985,0.00379204,0.00859868,643,792,-30.1145,-0.918838
-574,232,-30.1402,0.214905,-0.000213395,0.00270769,-0.00142393,0.00328695,-0.000792646,-1.18444,0.00249779,0.00858162,650,792,-30.1402,-0.214909
-567,232,-30.1721,-0.494324,-0.000371351,0.00164038,-0.000542438,0.00177732,-0.000508292,-1.32351,0.00138574,0.0108131,657,792,-30.1721,0.494347
-560,232,-30.2148,-1.18842,-0.000848744,0.000749057,0.000267999,0.00079281,-0.000892498,1.40896,0.00097358,0.0152722,664,792,-30.2148,1.18842
-553,232,-30.2647,-1.88147,-0.00130181,0.00027493,0.00107408,0.000818916,-0.00184579,1.10199,0.00157609,0.0145597,671,792,-30.2647,1.88147
-546,232,-30.3,-2.58649,-0.000927406,-0.000227343,0.00133689,0.000804581,-0.00195933,0.913437,0.00164151,0.0225476,678,792,-30.3001,2.58648
-539,232,-30.5317,-3.16138,-0.000469838,-2.81129e-05,0.00158081,0.00134719,-0.00184514,0.854806,0.00185056,0.0390954,685,792,-30.5318,3.16135
-532,232,-30.767,-3.79767,-0.000200268,0.000561314,0.0015061,0.00173401,-0.00137297,0.90922,0.00179785,0.0393345,692,792,-30.767,3.79765
-525,232,-30.5759,-3.92029,0,0,0,0,0,0,0,-1,699,792,-30.5759,3.92029
-518,232,-20.8098,-3.08154,0,0,0,0,0,0,0,-1,706,792,-20.8098,3.08155
-511,232,-21.6708,-0.962708,0,0,0,0,0,0,0,-1,713,792,-21.6708,0.962731
-504,232,-34.2155,0.346985,0,0,0,0,0,0,0,-1,720,792,-34.2155,-0.346955
-497,232,-46.482,1.16589,0,0,0,0,0,0,0,-1,727,792,-46.482,-1.16588
-490,232,-46.4238,1.18347,0.00254826,0.00458158,9.98939e-05,0.00458647,0.00254337,1.52182,0.00265325,0.0460639,734,792,-46.4238,-1.18345
-483,232,-46.3868,1.14648,0.00255455,0.00586745,-0.000361478,0.00590643,0.00251557,-1.46337,0.00342254,0.0425295,741,792,-46.3868,-1.1465
-476,232,-46.4179,1.02301,0.00211716,0.00691558,-0.000436198,0.00695491,0.00207783,-1.48087,0.00412241,0.0366932,748,792,-46.4179,-1.02301
-469,232,-46.4004,1.03815,0.00133975,0.00704582,-1.55144e-05,0.00704586,0.0013397,-1.56808,0.00432047,0.0351548,755,792,-46.4004,-1.03816
-462,232,0,0,0,0,0,0,0,0,0,-1,762,792,0,0
-455,232,0,0,0,0,0,0,0,0,0,-1,769,792,0,0
-448,232,0,0,0,0,0,0,0,0,0,-1,776,792,0,0
-441,232,0,0,0,0,0,0,0,0,0,-1,783,792,0,0
-434,232,0,0,0,0,0,0,0,0,0,-1,790,792,0,0
-427,232,0,0,0,0,0,0,0,0,0,-1,797,792,0,0
-420,232,0,0,0,0,0,0,0,0,0,-1,804,792,0,0
-413,232,0,0,0,0,0,0,0,0,0,-1,811,792,0,0
-406,232,0,0,0,0,0,0,0,0,0,-1,818,792,0,0
-399,232,0,0,0,0,0,0,0,0,0,-1,825,792,0,0
-392,232,0,0,0,0,0,0,0,0,0,-1,832,792,0,0
-385,232,0,0,0,0,0,0,0,0,0,-1,839,792,0,0
-378,232,0,0,0,0,0,0,0,0,0,-1,846,792,0,0
-371,232,0,0,0,0,0,0,0,0,0,-1,853,792,0,0
-364,232,0,0,0,0,0,0,0,0,0,-1,860,792,0,0
-357,232,0,0,0,0,0,0,0,0,0,-1,867,792,0,0
-350,232,0,0,0,0,0,0,0,0,0,-1,874,792,0,0
-343,232,0,0,0,0,0,0,0,0,0,-1,881,792,0,0
-336,232,0,0,0,0,0,0,0,0,0,-1,888,792,0,0
-329,232,0,0,0,0,0,0,0,0,0,-1,895,792,0,0
-322,232,0,0,0,0,0,0,0,0,0,-1,902,792,0,0
-315,232,0,0,0,0,0,0,0,0,0,-1,909,792,0,0
-308,232,0,0,0,0,0,0,0,0,0,-1,916,792,0,0
-301,232,0,0,0,0,0,0,0,0,0,-1,923,792,0,0
-294,232,0,0,0,0,0,0,0,0,0,-1,930,792,0,0
-287,232,0,0,0,0,0,0,0,0,0,-1,937,792,0,0
-280,232,0,0,0,0,0,0,0,0,0,-1,944,792,0,0
-273,232,0,0,0,0,0,0,0,0,0,-1,951,792,0,0
-266,232,0,0,0,0,0,0,0,0,0,-1,958,792,0,0
-259,232,0,0,0,0,0,0,0,0,0,-1,965,792,0,0
-252,232,0,0,0,0,0,0,0,0,0,-1,972,792,0,0
-245,232,0,0,0,0,0,0,0,0,0,-1,979,792,0,0
-238,232,0,0,0,0,0,0,0,0,0,-1,986,792,0,0
-231,232,0,0,0,0,0,0,0,0,0,-1,993,792,0,0
-224,232,0,0,0,0,0,0,0,0,0,-1,1000,792,0,0
-217,232,0,0,0,0,0,0,0,0,0,-1,1007,792,0,0
-210,232,0,0,0,0,0,0,0,0,0,-1,1014,792,0,0
-203,232,0,0,0,0,0,0,0,0,0,-1,1021,792,0,0
-196,232,0,0,0,0,0,0,0,0,0,-1,1028,792,0,0
-189,232,0,0,0,0,0,0,0,0,0,-1,1035,792,0,0
-182,232,0,0,0,0,0,0,0,0,0,-1,1042,792,0,0
-175,232,0,0,0,0,0,0,0,0,0,-1,1049,792,0,0
-168,232,0,0,0,0,0,0,0,0,0,-1,1056,792,0,0
-161,232,0,0,0,0,0,0,0,0,0,-1,1063,792,0,0
-154,232,0,0,0,0,0,0,0,0,0,-1,1070,792,0,0
-147,232,0,0,0,0,0,0,0,0,0,-1,1077,792,0,0
-140,232,0,0,0,0,0,0,0,0,0,-1,1084,792,0,0
-133,232,0,0,0,0,0,0,0,0,0,-1,1091,792,0,0
-126,232,0,0,0,0,0,0,0,0,0,-1,1098,792,0,0
-119,232,0,0,0,0,0,0,0,0,0,-1,1105,792,0,0
-112,232,0,0,0,0,0,0,0,0,0,-1,1112,792,0,0
-105,232,0,0,0,0,0,0,0,0,0,-1,1119,792,0,0
-98,232,0,0,0,0,0,0,0,0,0,-1,1126,792,0,0
-91,232,0,0,0,0,0,0,0,0,0,-1,1133,792,0,0
-84,232,0,0,0,0,0,0,0,0,0,-1,1140,792,0,0
-77,232,0,0,0,0,0,0,0,0,0,-1,1147,792,0,0
-70,232,0,0,0,0,0,0,0,0,0,-1,1154,792,0,0
-63,232,0,0,0,0,0,0,0,0,0,-1,1161,792,0,0
-56,232,0,0,0,0,0,0,0,0,0,-1,1168,792,0,0
-49,232,0,0,0,0,0,0,0,0,0,-1,1175,792,0,0
-42,232,0,0,0,0,0,0,0,0,0,-1,1182,792,0,0
-35,232,0,0,0,0,0,0,0,0,0,-1,1189,792,0,0
-28,232,0,0,0,0,0,0,0,0,0,-1,1196,792,0,0
-21,232,0,0,0,0,0,0,0,0,0,-1,1203,792,0,0
-14,232,0,0,0,0,0,0,0,0,0,-1,1210,792,0,0
-7,232,0,0,0,0,0,0,0,0,0,-1,1217,792,0,0
0,232,0,0,0,0,0,0,0,0,0,-1,1224,792,0,0
7,232,0,0,0,0,0,0,0,0,0,-1,1231,792,0,0
14,232,0,0,0,0,0,0,0,0,0,-1,1238,792,0,0
21,232,0,0,0,0,0,0,0,0,0,-1,1245,792,0,0
28,232,0,0,0,0,0,0,0,0,0,-1,1252,792,0,0
35,232,0,0,0,0,0,0,0,0,0,-1,1259,792,0,0
42,232,0,0,0,0,0,0,0,0,0,-1,1266,792,0,0
49,232,0,0,0,0,0,0,0,0,0,-1,1273,792,0,0
56,232,0,0,0,0,0,0,0,0,0,-1,1280,792,0,0
63,232,0,0,0,0,0,0,0,0,0,-1,1287,792,0,0
70,232,0,0,0,0,0,0,0,0,0,-1,1294,792,0,0
77,232,0,0,0,0,0,0,0,0,0,-1,1301,792,0,0
84,232,0,0,0,0,0,0,0,0,0,-1,1308,792,0,0
91,232,0,0,0,0,0,0,0,0,0,-1,1315,792,0,0
98,232,0,0,0,0,0,0,0,0,0,-1,1322,792,0,0
105,232,0,0,0,0,0,0,0,0,0,-1,1329,792,0,0
112,232,0,0,0,0,0,0,0,0,0,-1,1336,792,0,0
119,232,0,0,0,0,0,0,0,0,0,-1,1343,792,0,0
126,232,0,0,0,0,0,0,0,0,0,-1,1350,792,0,0
133,232,0,0,0,0,0,0,0,0,0,-1,1357,792,0,0
140,232,0,0,0,0,0,0,0,0,0,-1,1364,792,0,0
147,232,0,0,0,0,0,0,0,0,0,-1,1371,792,0,0
154,232,0,0,0,0,0,0,0,0,0,-1,1378,792,0,0
161,232,0,0,0,0,0,0,0,0,0,-1,1385,792,0,0
168,232,0,0,0,0,0,0,0,0,0,-1,1392,792,0,0
175,232,0,0,0,0,0,0,0,0,0,-1,1399,792,0,0
182,232,0,0,0,0,0,0,0,0,0,-1,1406,792,0,0
189,232,0,0,0,0,0,0,0,0,0,-1,1413,792,0,0
196,232,0,0,0,0,0,0,0,0,0,-1,1420,792,0,0
203,232,0,0,0,0,0,0,0,0,0,-1,1427,792,0,0
210,232,0,0,0,0,0,0,0,0,0,-1,1434,792,0,0
217,232,0,0,0,0,0,0,0,0,0,-1,1441,792,0,0
224,232,0,0,0,0,0,0,0,0,0,-1,1448,792,0,0
231,232,0,0,0,0,0,0,0,0,0,-1,1455,792,0,0
238,232,0,0,0,0,0,0,0,0,0,-1,1462,792,0,0
245,232,0,0,0,0,0,0,0,0,0,-1,1469,792,0,0
252,232,0,0,0,0,0,0,0,0,0,-1,1476,792,0,0
259,232,0,0,0,0,0,0,0,0,0,-1,1483,792,0,0
266,232,0,0,0,0,0,0,0,0,0,-1,1490,792,0,0
273,232,0,0,0,0,0,0,0,0,0,-1,1497,792,0,0
280,232,0,0,0,0,0,0,0,0,0,-1,1504,792,0,0
287,232,0,0,0,0,0,0,0,0,0,-1,1511,792,0,0
294,232,0,0,0,0,0,0,0,0,0,-1,1518,792,0,0
301,232,0,0,0,0,0,0,0,0,0,-1,1525,792,0,0
308,232,0,0,0,0,0,0,0,0,0,-1,1532,792,0,0
315,232,0,0,0,0,0,0,0,0,0,-1,1539,792,0,0
322,232,0,0,0,0,0,0,0,0,0,-1,1546,792,0,0
329,232,0,0,0,0,0,0,0,0,0,-1,1553,792,0,0
336,232,0,0,0,0,0,0,0,0,0,-1,1560,792,0,0
343,232,0,0,0,0,0,0,0,0,0,-1,1567,792,0,0
350,232,0,0,0,0,0,0,0,0,0,-1,1574,792,0,0
357,232,0,0,0,0,0,0,0,0,0,-1,1581,792,0,0
364,232,0,0,0,0,0,0,0,0,0,-1,1588,792,0,0
371,232,0,0,0,0,0,0,0,0,0,-1,1595,792,0,0
378,232,0,0,0,0,0,0,0,0,0,-1,1602,792,0,0
385,232,0,0,0,0,0,0,0,0,0,-1,1609,792,0,0
392,232,0,0,0,0,0,0,0,0,0,-1,1616,792,0,0
399,232,0,0,0,0,0,0,0,0,0,-1,1623,792,0,0
406,232,0,0,0,0,0,0,0,0,0,-1,1630,792,0,0
413,232,0,0,0,0,0,0,0,0,0,-1,1637,792,0,0
420,232,0,0,0,0,0,0,0,0,0,-1,1644,792,0,0
427,232,0,0,0,0,0,0,0,0,0,-1,1651,792,0,0
434,232,0,0,0,0,0,0,0,0,0,-1,1658,792,0,0
441,232,0,0,0,0,0,0,0,0,0,-1,1665,792,0,0
448,232,0,0,0,0,0,0,0,0,0,-1,1672,792,0,0
455,232,0,0,0,0,0,0,0,0,0,-1,1679,792,0,0
462,232,0,0,0,0,0,0,0,0,0,-1,1686,792,0,0
469,232,0,0,0,0,0,0,0,0,0,-1,1693,792,0,0
476,232,0,0,0,0,0,0,0,0,0,-1,1700,792,0,0
483,232,0,0,0,0,0,0,0,0,0,-1,1707,792,0,0
490,232,0,0,0,0,0,0,0,0,0,-1,1714,792,0,0
497,232,0,0,0,0,0,0,0,0,0,-1,1721,792,0,0
504,232,0,0,0,0,0,0,0,0,0,-1,1728,792,0,0
511,232,0,0,0,0,0,0,0,0,0,-1,1735,792,0,0
518,232,0,0,0,0,0,0,0,0,0,-1,1742,792,0,0
525,232,0,0,0,0,0,0,0,0,0,-1,1749,792,0,0
532,232,0,0,0,0,0,0,0,0,0,-1,1756,792,0,0
539,232,0,0,0,0,0,0,0,0,0,-1,1763,792,0,0
546,232,0,0,0,0,0,0,0,0,0,-1,1770,792,0,0
553,232,0,0,0,0,0,0,0,0,0,-1,1777,792,0,0
560,232,0,0,0,0,0,0,0,0,0,-1,1784,792,0,0
567,232,0,0,0,0,0,0,0,0,0,-1,1791,792,0,0
574,232,0,0,0,0,0,0,0,0,0,-1,1798,792,0,0
581,232,0,0,0,0,0,0,0,0,0,-1,1805,792,0,0
588,232,60.8894,2.95135,0.0079846,-0.00742915,-0.00429468,0.00910044,-0.00854498,-0.254198,0.0101893,0.0382718,1812,792,60.8894,-2.95135
595,232,60.9119,2.66669,0.00694343,-0.00172755,-0.000384704,0.00696047,-0.00174459,-0.0442509,0.0053181,0.0351776,1819,792,60.9119,-2.66668
602,232,60.9783,2.63849,0.00563534,0.000972932,0.00116734,0.00591128,0.000696994,0.232121,0.00373029,0.0357896,1826,792,60.9783,-2.63847
609,232,61.0273,2.72095,0.00452065,0.00239674,0.00184577,0.00558816,0.00132923,0.524351,0.00337089,0.0467971,1833,792,61.0273,-2.72095
616,232,60.9276,2.87256,0,0,0,0,0,0,0,-1,1840,792,60.9276,-2.87254
623,232,60.63,3.21356,0,0,0,0,0,0,0,-1,1847,792,60.6299,-3.21357
630,232,60.7355,3.27716,0,0,0,0,0,0,0,-1,1854,792,60.7355,-3.27718
637,232,47.0471,4.04309,0,0,0,0,0,0,0,-1,1861,792,47.0471,-4.04309
644,232,30.7756,4.24139,0,0,0,0,0,0,0,-1,1868,792,30.7757,-4.24141
651,232,31.6797,-0.564087,0,0,0,0,0,0,0,-1,1875,792,31.6797,0.564059
658,232,43.771,-2.61615,0,0,0,0,0,0,0,-1,1882,792,43.771,2.61613
665,232,43.5656,-1.86792,-0.00303533,-0.000678108,-0.0016453,0.000167174,-0.00388061,-1.09621,0.00264456,0.0437718,1889,792,43.5655,1.86795
672,232,43.3947,-1.0708,-0.00359627,-0.00129085,-0.00203034,-0.000108813,-0.00477831,-1.04358,0.00314989,0.0472834,1896,792,43.3946,1.07081
679,232,43.4146,-0.311218,-0.00382039,-0.00172402,-0.00223553,-0.000303135,-0.00524127,-1.00462,0.00339765,0.02119,1903,792,43.4146,0.311203
686,232,43.4166,0.413818,-0.00331266,-0.00132298,-0.0021378,4.01204e-05,-0.00467576,-1.00317,0.00313063,0.0197558,1910,792,43.4166,-0.413842
693,232,43.3856,1.07574,-0.00227268,-0.000406218,-0.00154381,0.000464506,-0.0031434,-1.05726,0.00226636,0.0114673,1917,792,43.3856,-1.07576
700,232,43.3715,1.79761,-0.00131143,0.000464309,-0.000893088,0.000835771,-0.0016829,-1.17663,0.00148132,0.013827,1924,792,43.3714,-1.79761
707,232,43.3489,2.54004,-0.000554751,0.00147644,-0.00015195,0.00148775,-0.000566055,-1.49654,0.00122492,0.0137479,1931,792,43.3489,-2.54005
714,232,43.3074,3.24316,-0.000171793,0.00215917,0.000428562,0.00223547,-0.00024809,1.39461,0.00157952,0.0142423,1938,792,43.3074,-3.24317
721,232,43.2467,3.96924,-0.000467571,0.00214457,0.000592837,0.00227282,-0.000595821,1.35775,0.001748,0.0215036,1945,792,43.2468,-3.96924
728,232,43.1132,4.61554,-0.0015483,0.00121662,0.000139615,0.00122365,-0.00155533,1.52047,0.00160825,0.0496372,1952,792,43.1132,-4.61551
735,232,43.2224,5.5434,0,0,0,0,0,0,0,-1,1959,792,43.2224,-5.54338
742,232,25.6461,6.00684,0,0,0,0,0,0,0,-1,1966,792,25.6461,-6.00684
749,232,31.2874,3.74713,0,0,0,0,0,0,0,-1,1973,792,31.2874,-3.74713
756,232,32.1207,3.896,0,0,0,0,0,0,0,-1,1980,792,32.1207,-3.89597
763,232,32.7255,4.05878,0,0,0,0,0,0,0,-1,1987,792,32.7255,-4.05881
770,232,0,0,0,0,0,0,0,0,0,-1,1994,792,0,0
777,232,0,0,0,0,0,0,0,0,0,-1,2001,792,0,0
784,232,0,0,0,0,0,0,0,0,0,-1,2008,792,0,0
791,232,0,0,0,0,0,0,0,0,0,-1,2015,792,0,0
798,232,0,0,0,0,0,0,0,0,0,-1,2022,792,0,0
805,232,0,0,0,0,0,0,0,0,0,-1,2029,792,0,0
812,232,0,0,0,0,0,0,0,0,0,-1,2036,792,0,0
-700,225,0,0,0,0,0,0,0,0,0,-1,524,799,0,0
-693,225,0,0,0,0,0,0,0,0,0,-1,531,799,0,0
-686,225,0,0,0,0,0,0,0,0,0,-1,538,799,0,0
-679,225,0,0,0,0,0,0,0,0,0,-1,545,799,0,0
-672,225,0,0,0,0,0,0,0,0,0,-1,552,799,0,0
-665,225,0,0,0,0,0,0,0,0,0,-1,559,799,0,0
-658,225,0,0,0,0,0,0,0,0,0,-1,566,799,0,0
-651,225,0,0,0,0,0,0,0,0,0,-1,573,799,0,0
-644,225,-40.8898,4.14661,0,0,0,0,0,0,0,-1,580,799,-40.8898,-4.14661
-637,225,-41.61,3.36749,0,0,0,0,0,0,0,-1,587,799,-41.61,-3.36751
-630,225,-30.244,4.82196,0,0,0,0,0,0,0,-1,594,799,-30.244,-4.82193
-623,225,-32.8276,-0.00836182,0,0,0,0,0,0,0,-1,601,799,-32.8276,0.00837668
-616,225,-32.0569,-0.549255,0,0,0,0,0,0,0,-1,608,799,-32.0569,0.549265
-609,225,-31.5674,3.47375,0,0,0,0,0,0,0,-1,615,799,-31.5674,-3.47378
-602,225,-30.8529,3.26392,0,0,0,0,0,0,0,-1,622,799,-30.8529,-3.26392
-595,225,-30.8118,2.42749,-0.00215852,0.00511492,-0.00315482,0.00629262,-0.00333622,-1.21352,0.00564588,0.0345355,629,799,-30.8118,-2.42749
-588,225,-30.7964,1.61035,-0.000889212,0.00432621,-0.00256934,0.00537933,-0.00194233,-1.1818,0.00437966,0.0136525,636,799,-30.7964,-1.61036
-581,225,-30.8183,0.924011,-0.000260541,0.00342309,-0.00187679,0.00421084,-0.00104829,-1.17339,0.00321416,0.01101,643,799,-30.8183,-0.924024
-574,225,-30.8456,0.249939,-7.04937e-05,0.00241433,-0.00102811,0.00278456,-0.000440721,-1.22515,0.00201938,0.00923662,650,799,-30.8456,-0.249915
-567,225,-30.8818,-0.46814,-0.000249755,0.00143645,-0.000385025,0.0015202,-0.000333511,-1.3566,0.001141,0.0121414,657,799,-30.8818,0.468136
-560,225,-30.9169,-1.13806,-0.000843844,0.000824655,5.04599e-05,0.00082618,-0.000845368,1.54059,0.00096509,0.0140078,664,799,-30.9169,1.13806
-553,225,-30.969,-1.83392,-0.00128504,0.000924809,0.000525709,0.0010435,-0.00140373,1.34875,0.001418,0.0123625,671,799,-30.969,1.83389
-546,225,-30.9988,-2.51611,-0.000763156,0.000827441,0.000534227,0.000990212,-0.000925927,1.27505,0.00110649,0.0239269,678,799,-30.9988,2.5161
-539,225,-31.0354,-3.11499,0,0,0,0,0,0,0,-1,685,799,-31.0354,3.11499
-532,225,-32.0195,-3.62036,0,0,0,0,0,0,0,-1,692,799,-32.0196,3.62037
-525,225,-29.1705,-3.88239,0,0,0,0,0,0,0,-1,699,799,-29.1705,3.88237
-518,225,-21.963,0.171326,0,0,0,0,0,0,0,-1,706,799,-21.9629,-0.171319
-511,225,-33.0002,0.660217,0,0,0,0,0,0,0,-1,713,799,-33.0002,-0.660239
-504,225,-47.3389,0.572571,0,0,0,0,0,0,0,-1,720,799,-47.339,-0.572576
-497,225,-46.9089,0.71344,0.00249371,0.00415054,0.000348515,0.00422086,0.00242339,1.37168,0.00244583,0.0450046,727,799,-46.9089,-0.713464
-490,225,-46.5065,1.05035,0.00317837,0.00506769,-3.32033e-05,0.00506827,0.00317778,-1.55323,0.00295746,0.0389134,734,799,-46.5065,-1.05037
-483,225,-46.4504,1.00653,0.00348992,0.0063331,-0.00044857,0.00640219,0.00342083,-1.41797,0.00369921,0.0340208,741,799,-46.4504,-1.00651
-476,225,-46.4371,0.956726,0.00334476,0.00742436,-0.000476611,0.0074793,0.00328982,-1.45603,0.00432858,0.0326182,748,799,-46.4372,-0.956708
-469,225,-46.4312,0.993469,0.00285911,0.00751061,0.000152117,0.00751558,0.00285415,1.53814,0.00438074,0.0352839,755,799,-46.4312,-0.993489
-462,225,0,0,0,0,0,0,0,0,0,-1,762,799,0,0
-455,225,0,0,0,0,0,0,0,0,0,-1,769,799,0,0
-448,225,0,0,0,0,0,0,0,0,0,-1,776,799,0,0
-441,225,0,0,0,0,0,0,0,0,0,-1,783,799,0,0
-434,225,0,0,0,0,0,0,0,0,0,-1,790,799,0,0
-427,225,0,0,0,0,0,0,0,0,0,-1,797,799,0,0
-420,225,0,0,0,0,0,0,0,0,0,-1,804,799,0,0
-413,225,0,0,0,0,0,0,0,0,0,-1,811,799,0,0
-406,225,0,0,0,0,0,0,0,0,0,-1,818,799,0,0
-399,225,0,0,0,0,0,0,0,0,0,-1,825,799,0,0
-392,225,0,0,0,0,0,0,0,0,0,-1,832,799,0,0
-385,225,0,0,0,0,0,0,0,0,0,-1,839,799,0,0
-378,225,0,0,0,0,0,0,0,0,0,-1,846,799,0,0
-371,225,0,0,0,0,0,0,0,0,0,-1,853,799,0,0
-364,225,0,0,0,0,0,0,0,0,0,-1,860,799,0,0
-357,225,0,0,0,0,0,0,0,0,0,-1,867,799,0,0
-350,225,0,0,0,0,0,0,0,0,0,-1,874,799,0,0
-343,225,0,0,0,0,0,0,0,0,0,-1,881,799,0,0
-336,225,0,0,0,0,0,0,0,0,0,-1,888,799,0,0
-329,225,0,0,0,0,0,0,0,0,0,-1,895,799,0,0
-322,225,0,0,0,0,0,0,0,0,0,-1,902,799,0,0
-315,225,0,0,0,0,0,0,0,0,0,-1,909,799,0,0
-308,225,0,0,0,0,0,0,0,0,0,-1,916,799,0,0
-301,225,0,0,0,0,0,0,0,0,0,-1,923,799,0,0
-294,225,0,0,0,0,0,0,0,0,0,-1,930,799,0,0
-287,225,0,0,0,0,0,0,0,0,0,-1,937,799,0,0
-280,225,0,0,0,0,0,0,0,0,0,-1,944,799,0,0
-273,225,0,0,0,0,0,0,0,0,0,-1,951,799,0,0
-266,225,0,0,0,0,0,0,0,0,0,-1,958,799,0,0
-259,225,0,0,0,0,0,0,0,0,0,-1,965,799,0,0
-252,225,0,0,0,0,0,0,0,0,0,-1,972,799,0,0
-245,225,0,0,0,0,0,0,0,0,0,-1,979,799,0,0
-238,225,0,0,0,0,0,0,0,0,0,-1,986,799,0,0
-231,225,0,0,0,0,0,0,0,0,0,-1,993,799,0,0
-224,225,0,0,0,0,0,0,0,0,0,-1,1000,799,0,0
-217,225,0,0,0,0,0,0,0,0,0,-1,1007,799,0,0
-210,225,0,0,0,0,0,0,0,0,0,-1,1014,799,0,0
-203,225,0,0,0,0,0,0,0,0,0,-1,1021,799,0,0
-196,225,0,0,0,0,0,0,0,0,0,-1,1028,799,0,0
-189,225,0,0,0,0,0,0,0,0,0,-1,1035,799,0,0
-182,225,0,0,0,0,0,0,0,0,0,-1,1042,799,0,0
-175,225,0,0,0,0,0,0,0,0,0,-1,1049,799,0,0
-168,225,0,0,0,0,0,0,0,0,0,-1,1056,799,0,0
-161,225,0,0,0,0,0,0,0,0,0,-1,1063,799,0,0
-154,225,0,0,0,0,0,0,0,0,0,-1,1070,799,0,0
-147,225,0,0,0,0,0,0,0,0,0,-1,1077,799,0,0
-140,225,0,0,0,0,0,0,0,0,0,-1,1084,799,0,0
-133,225,0,0,0,0,0,0,0,0,0,-1,1091,799,0,0
-126,225,0,0,0,0,0,0,0,0,0,-1,1098,799,0,0
-119,225,0,0,0,0,0,0,0,0,0,-1,1105,799,0,0
-112,225,0,0,0,0,0,0,0,0,0,-1,1112,799,0,0
-105,225,0,0,0,0,0,0,0,0,0,-1,1119,799,0,0
-98,225,0,0,0,0,0,0,0,0,0,-1,1126,799,0,0
-91,225,0,0,0,0,0,0,0,0,0,-1,1133,799,0,0
-84,225,0,0,0,0,0,0,0,0,0,-1,1140,799,0,0
-77,225,0,0,0,0,0,0,0,0,0,-1,1147,799,0,0
-70,225,0,0,0,0,0,0,0,0,0,-1,1154,799,0,0
-63,225,0,0,0,0,0,0,0,0,0,-1,1161,799,0,0
-56,225,0,0,0,0,0,0,0,0,0,-1,1168,799,0,0
-49,225,0,0,0,0,0,0,0,0,0,-1,1175,799,0,0
-42,225,0,0,0,0,0,0,0,0,0,-1,1182,799,0,0
-35,225,0,0,0,0,0,0,0,0,0,-1,1189,799,0,0
-28,225,0,0,0,0,0,0,0,0,0,-1,1196,799,0,0
-21,225,0,0,0,0,0,0,0,0,0,-1,1203,799,0,0
-14,225,0,0,0,0,0,0,0,0,0,-1,1210,799,0,0
-7,225,0,0,0,0,0,0,0,0,0,-1,1217,799,0,0
0,225,0,0,0,0,0,0,0,0,0,-1,1224,799,0,0
7,225,0,0,0,0,0,0,0,0,0,-1,1231,799,0,0
14,225,0,0,0,0,0,0,0,0,0,-1,1238,799,0,0
21,225,0,0,0,0,0,0,0,0,0,-1,1245,799,0,0
28,225,0,0,0,0,0,0,0,0,0,-1,1252,799,0,0
35,225,0,0,0,0,0,0,0,0,0,-1,1259,799,0,0
42,225,0,0,0,0,0,0,0,0,0,-1,1266,799,0,0
49,225,0,0,0,0,0,0,0,0,0,-1,1273,799,0,0
56,225,0,0,0,0,0,0,0,0,0,-1,1280,799,0,0
63,225,0,0,0,0,0,0,0,0,0,-1,1287,799,0,0
70,225,0,0,0,0,0,0,0,0,0,-1,1294,799,0,0
77,225,0,0,0,0,0,0,0,0,0,-1,1301,799,0,0
84,225,0,0,0,0,0,0,0,0,0,-1,1308,799,0,0
91,225,0,0,0,0,0,0,0,0,0,-1,1315,799,0,0
98,225,0,0,0,0,0,0,0,0,0,-1,1322,799,0,0
105,225,0,0,0,0,0,0,0,0,0,-1,1329,799,0,0
112,225,0,0,0,0,0,0,0,0,0,-1,1336,799,0,0
119,225,0,0,0,0,0,0,0,0,0,-1,1343,799,0,0
126,225,0,0,0,0,0,0,0,0,0,-1,1350,799,0,0
133,225,0,0,0,0,0,0,0,0,0,-1,1357,799,0,0
140,225,0,0,0,0,0,0,0,0,0,-1,1364,799,0,0
147,225,0,0,0,0,0,0,0,0,0,-1,1371,799,0,0
154,225,0,0,0,0,0,0,0,0,0,-1,1378,799,0,0
161,225,0,0,0,0,0,0,0,0,0,-1,1385,799,0,0
168,225,0,0,0,0,0,0,0,0,0,-1,1392,799,0,0
175,225,0,0,0,0,0,0,0,0,0,-1,1399,799,0,0
182,225,0,0,0,0,0,0,0,0,0,-1,1406,799,0,0
189,225,0,0,0,0,0,0,0,0,0,-1,1413,799,0,0
196,225,0,0,0,0,0,0,0,0,0,-1,1420,799,0,0
203,225,0,0,0,0,0,0,0,0,0,-1,1427,799,0,0
210,225,0,0,0,0,0,0,0,0,0,-1,1434,799,0,0
217,225,0,0,0,0,0,0,0,0,0,-1,1441,799,0,0
224,225,0,0,0,0,0,0,0,0,0,-1,1448,799,0,0
231,225,0,0,0,0,0,0,0,0,0,-1,1455,799,0,0
238,225,0,0,0,0,0,0,0,0,0,-1,1462,799,0,0
245,225,0,0,0,0,0,0,0,0,0,-1,1469,799,0,0
252,225,0,0,0,0,0,0,0,0,0,-1,1476,799,0,0
259,225,0,0,0,0,0,0,0,0,0,-1,1483,799,0,0
266,225,0,0,0,0,0,0,0,0,0,-1,1490,799,0,0
273,225,0,0,0,0,0,0,0,0,0,-1,1497,799,0,0
280,225,0,0,0,0,0,0,0,0,0,-1,1504,799,0,0
287,225,0,0,0,0,0,0,0,0,0,-1,1511,799,0,0
294,225,0,0,0,0,0,0,0,0,0,-1,1518,799,0,0
301,225,0,0,0,0,0,0,0,0,0,-1,1525,799,0,0
308,225,0,0,0,0,0,0,0,0,0,-1,1532,799,0,0
315,225,0,0,0,0,0,0,0,0,0,-1,1539,799,0,0
322,225,0,0,0,0,0,0,0,0,0,-1,1546,799,0,0
329,225,0,0,0,0,0,0,0,0,0,-1,1553,799,0,0
336,225,0,0,0,0,0,0,0,0,0,-1,1560,799,0,0
343,225,0,0,0,0,0,0,0,0,0,-1,1567,799,0,0
350,225,0,0,0,0,0,0,0,0,0,-1,1574,799,0,0
357,225,0,0,0,0,0,0,0,0,0,-1,1581,799,0,0
364,225,0,0,0,0,0,0,0,0,0,-1,1588,799,0,0
371,225,0,0,0,0,0,0,0,0,0,-1,1595,799,0,0
378,225,0,0,0,0,0,0,0,0,0,-1,1602,799,0,0
385,225,0,0,0,0,0,0,0,0,0,-1,1609,799,0,0
392,225,0,0,0,0,0,0,0,0,0,-1,1616,799,0,0
399,225,0,0,0,0,0,0,0,0,0,-1,1623,799,0,0
406,225,0,0,0,0,0,0,0,0,0,-1,1630,799,0,0
413,225,0,0,0,0,0,0,0,0,0,-1,1637,799,0,0
420,225,0,0,0,0,0,0,0,0,0,-1,1644,799,0,0
427,225,0,0,0,0,0,0,0,0,0,-1,1651,799,0,0
434,225,0,0,0,0,0,0,0,0,0,-1,1658,799,0,0
441,225,0,0,0,0,0,0,0,0,0,-1,1665,799,0,0
448,225,0,0,0,0,0,0,0,0,0,-1,1672,799,0,0
455,225,0,0,0,0,0,0,0,0,0,-1,1679,799,0,0
462,225,0,0,0,0,0,0,0,0,0,-1,1686,799,0,0
469,225,0,0,0,0,0,0,0,0,0,-1,1693,799,0,0
476,225,0,0,0,0,0,0,0,0,0,-1,1700,799,0,0
483,225,0,0,0,0,0,0,0,0,0,-1,1707,799,0,0
490,225,0,0,0,0,0,0,0,0,0,-1,1714,799,0,0
497,225,0,0,0,0,0,0,0,0,0,-1,1721,799,0,0
504,225,0,0,0,0,0,0,0,0,0,-1,1728,799,0,0
511,225,0,0,0,0,0,0,0,0,0,-1,1735,799,0,0
518,225,0,0,0,0,0,0,0,0,0,-1,1742,799,0,0
525,225,0,0,0,0,0,0,0,0,0,-1,1749,799,0,0
532,225,0,0,0,0,0,0,0,0,0,-1,1756,799,0,0
539,225,0,0,0,0,0,0,0,0,0,-1,1763,799,0,0
546,225,0,0,0,0,0,0,0,0,0,-1,1770,799,0,0
553,225,0,0,0,0,0,0,0,0,0,-1,1777,799,0,0
560,225,0,0,0,0,0,0,0,0,0,-1,1784,799,0,0
567,225,0,0,0,0,0,0,0,0,0,-1,1791,799,0,0
574,225,0,0,0,0,0,0,0,0,0,-1,1798,799,0,0
581,225,0,0,0,0,0,0,0,0,0,-1,1805,799,0,0
588,225,60.9961,3.00891,0.00710928,-0.00865639,-0.00738464,0.0100279,-0.011575,-0.376389,0.0124831,0.0355976,1812,799,60.9961,-3.00889
595,225,60.9705,2.71021,0.00625056,-0.00262526,-0.00274654,0.0070317,-0.0034064,-0.277094,0.00614641,0.0342514,1819,799,60.9705,-2.7102
602,225,60.9738,2.61322,0.00507735,0.000822125,-0.000199392,0.00508667,0.000812802,-0.0467218,0.00315527,0.033333,1826,799,60.9738,-2.61321
609,225,60.9731,2.75006,0.00400969,0.00257821,0.00111183,0.00461623,0.00197166,0.499414,0.00267461,0.0339772,1833,799,60.9732,-2.75005
616,225,60.902,2.80731,0.00273501,0.00275201,0.00121045,0.00395399,0.00153303,0.78891,0.00230194,0.0398298,1840,799,60.902,-2.80732
623,225,60.9463,2.91296,0.00154697,0.00240934,0.000899628,0.00297578,0.000980533,1.00887,0.00175104,0.0435983,1847,799,60.9462,-2.91298
630,225,61.3531,2.90936,0,0,0,0,0,0,0,-1,1854,799,61.3531,-2.90939
637,225,55.6359,2.8064,0,0,0,0,0,0,0,-1,1861,799,55.6359,-2.80637
644,225,42.0298,2.46411,0,0,0,0,0,0,0,-1,1868,799,42.0298,-2.4641
651,225,27.9657,0.579529,0,0,0,0,0,0,0,-1,1875,799,27.9657,-0.579541
658,225,45.6169,-1.80566,0,0,0,0,0,0,0,-1,1882,799,45.6169,1.80568
665,225,44.6832,-1.42767,-0.00358919,-0.000660941,-0.00183503,0.000222482,-0.00447261,-1.12212,0.0030586,0.0454079,1889,799,44.6833,1.42766
672,225,44.1899,-0.857544,-0.00431474,-0.00132001,-0.00221256,-0.000145765,-0.00548899,-1.08288,0.00361172,0.049691,1896,799,44.19,0.857555
679,225,44.1337,-0.217896,-0.00476186,-0.00202286,-0.00254154,-0.000505334,-0.00627939,-1.03252,0.0040284,0.0298702,1903,799,44.1337,0.217921
686,225,44.1357,0.425842,-0.00436792,-0.00191208,-0.00269999,-0.000173907,-0.00610609,-0.998812,0.00401402,0.0116732,1910,799,44.1357,-0.425854
693,225,44.1074,1.1178,-0.00323564,-0.00116497,-0.00224969,0.000276189,-0.0046768,-1.00105,0.00321389,0.0109668,1917,799,44.1075,-1.11779
700,225,44.0784,1.84125,-0.00212756,-0.000339941,-0.00164383,0.000637365,-0.00310487,-1.03441,0.00231184,0.012956,1924,799,44.0784,-1.84125
707,225,44.0449,2.57062,-0.00123201,0.000616425,-0.000900486,0.000982576,-0.00159816,-1.1846,0.00150405,0.0124871,1931,799,44.0449,-2.57063
714,225,44.0156,3.30072,-0.000735466,0.00117331,-0.00035772,0.00123815,-0.000800303,-1.39149,0.00118592,0.0130888,1938,799,44.0156,-3.30072
721,225,44.0101,4.01404,-0.000864593,0.0010522,-0.000223628,0.00107795,-0.000890338,-1.45618,0.00113811,0.0160999,1945,799,44.0102,-4.01404
728,225,43.9988,4.73999,0,0,0,0,0,0,0,-1,1952,799,43.9988,-4.73997
735,225,43.6678,5.72839,0,0,0,0,0,0,0,-1,1959,799,43.6679,-5.72842
742,225,29.0922,3.2132,0,0,0,0,0,0,0,-1,1966,799,29.0921,-3.21322
749,225,29.9529,4.45538,0,0,0,0,0,0,0,-1,1973,799,29.9529,-4.45537
756,225,31.8855,3.83466,0,0,0,0,0,0,0,-1,1980,799,31.8855,-3.83463
763,225,29.4901,5.14417,0,0,0,0,0,0,0,-1,1987,799,29.4902,-5.14415
770,225,0,0,0,0,0,0,0,0,0,-1,1994,799,0,0
777,225,0,0,0,0,0,0,0,0,0,-1,2001,799,0,0
784,225,0,0,0,0,0,0,0,0,0,-1,2008,799,0,0
791,225,0,0,0,0,0,0,0,0,0,-1,2015,799,0,0
798,225,0,0,0,0,0,0,0,0,0,-1,2022,799,0,0
805,225,0,0,0,0,0,0,0,0,0,-1,2029,799,0,0
812,225,0,0,0,0,0,0,0,0,0,-1,2036,799,0,0
-700,218,0,0,0,0,0,0,0,0,0,-1,524,806,0,0
-693,218,0,0,0,0,0,0,0,0,0,-1,531,806,0,0
-686,218,0,0,0,0,0,0,0,0,0,-1,538,806,0,0
-679,218,0,0,0,0,0,0,0,0,0,-1,545,806,0,0
-672,218,0,0,0,0,0,0,0,0,0,-1,552,806,0,0
-665,218,0,0,0,0,0,0,0,0,0,-1,559,806,0,0
-658,218,0,0,0,0,0,0,0,0,0,-1,566,806,0,0
-651,218,-40.3778,5.1792,0,0,0,0,0,0,0,-1,573,806,-40.3778,-5.1792
-644,218,-40.7704,4.19714,0,0,0,0,0,0,0,-1,580,806,-40.7704,-4.19714
-637,218,-41.541,3.36328,0,0,0,0,0,0,0,-1,587,806,-41.541,-3.36326
-630,218,-42.1423,2.85565,0,0,0,0,0,0,0,-1,594,806,-42.1423,-2.85567
-623,218,-42.7292,2.59015,0,0,0,0,0,0,0,-1,601,806,-42.7292,-2.59015
-616,218,-20.0258,1.87585,0,0,0,0,0,0,0,-1,608,806,-20.0258,-1.87585
-609,218,-31.4026,3.80255,0,0,0,0,0,0,0,-1,615,806,-31.4026,-3.80253
-602,218,-31.4795,3.05713,-0.00406352,0.00615525,-0.00289257,0.00691722,-0.00482548,-1.31323,0.00681541,0.0451199,622,806,-31.4795,-3.0571
-595,218,-31.5316,2.34406,-0.00216603,0.00472784,-0.0024704,0.00552169,-0.00295988,-1.25987,0.00497073,0.0206546,629,806,-31.5316,-2.34409
-588,218,-31.5292,1.62146,-0.000887873,0.00396714,-0.0019843,0.00467496,-0.00159569,-1.22816,0.00376305,0.0123014,636,806,-31.5292,-1.62148
-581,218,-31.5281,0.953308,-0.000193818,0.00313287,-0.00134685,0.00360979,-0.000670734,-1.23048,0.00265846,0.0114548,643,806,-31.5281,-0.953291
-574,218,-31.5609,0.29364,6.79731e-05,0.00221542,-0.000588423,0.00236608,-8.26905e-05,-1.32014,0.00160566,0.0111459,650,806,-31.5609,-0.293638
-567,218,-31.5938,-0.432495,-0.000136403,0.00140934,-0.000272572,0.001456,-0.00018306,-1.40127,0.00103709,0.0183303,657,806,-31.5938,0.432501
-560,218,-31.6052,-1.10504,-0.000828903,0.00106529,-0.000389934,0.00114242,-0.000906033,-1.37551,0.0011853,0.0191873,664,806,-31.6052,1.10503
-553,218,-31.577,-1.9278,-0.00117947,0.00153098,-0.000329922,0.00157057,-0.00121905,-1.4514,0.00161484,0.0201189,671,806,-31.577,1.92782
-546,218,-31.7596,-2.75043,-0.000521077,0.0016422,-0.000522064,0.0017616,-0.000640477,-1.34596,0.00143631,0.0277317,678,806,-31.7597,2.75045
-539,218,-31.852,-3.38397,7.03394e-05,0.002104,-0.000458975,0.00220279,-2.84476e-05,-1.3588,0.0014781,0.0364306,685,806,-31.852,3.38398
-532,218,-31.7698,-3.77625,0,0,0,0,0,0,0,-1,692,806,-31.7698,3.77626
-525,218,-29.3521,-3.64417,0,0,0,0,0,0,0,-1,699,806,-29.3521,3.64414
-518,218,-23.61,2.54181,0,0,0,0,0,0,0,-1,706,806,-23.61,-2.54183
-511,218,-41.0953,1.06879,0,0,0,0,0,0,0,-1,713,806,-41.0953,-1.06876
-504,218,-46.2707,1.14142,0,0,0,0,0,0,0,-1,720,806,-46.2707,-1.14142
-497,218,-46.4747,1.03949,0.00294899,0.00502063,-0.000362201,0.00508213,0.00288749,-1.4026,0.00294324,0.0484872,727,806,-46.4748,-1.03949
-490,218,-46.3885,1.01807,0.00392663,0.00605016,-0.000622877,0.00621938,0.00375741,-1.30553,0.00361663,0.0379471,734,806,-46.3885,-1.01809
-483,218,-46.4447,0.930237,0.00452149,0.00742653,-0.000925264,0.00769619,0.00425182,-1.2872,0.00445154,0.0340395,741,806,-46.4447,-0.93025
-476,218,-46.4113,0.905457,0.00455434,0.00837095,-0.000686733,0.00849076,0.00443454,-1.39808,0.00490376,0.0373264,748,806,-46.4113,-0.905464
-469,218,0,0,0,0,0,0,0,0,0,-1,755,806,0,0
-462,218,0,0,0,0,0,0,0,0,0,-1,762,806,0,0
-455,218,0,0,0,0,0,0,0,0,0,-1,769,806,0,0
-448,218,0,0,0,0,0,0,0,0,0,-1,776,806,0,0
-441,218,0,0,0,0,0,0,0,0,0,-1,783,806,0,0
-434,218,0,0,0,0,0,0,0,0,0,-1,790,806,0,0
-427,218,0,0,0,0,0,0,0,0,0,-1,797,806,0,0
-420,218,0,0,0,0,0,0,0,0,0,-1,804,806,0,0
-413,218,0,0,0,0,0,0,0,0,0,-1,811,806,0,0
-406,218,0,0,0,0,0,0,0,0,0,-1,818,806,0,0
-399,218,0,0,0,0,0,0,0,0,0,-1,825,806,0,0
-392,218,0,0,0,0,0,0,0,0,0,-1,832,806,0,0
-385,218,0,0,0,0,0,0,0,0,0,-1,839,806,0,0
-378,218,0,0,0,0,0,0,0,0,0,-1,846,806,0,0
-371,218,0,0,0,0,0,0,0,0,0,-1,853,806,0,0
-364,218,0,0,0,0,0,0,0,0,0,-1,860,806,0,0
-357,218,0,0,0,0,0,0,0,0,0,-1,867,806,0,0
-350,218,0,0,0,0,0,0,0,0,0,-1,874,806,0,0
-343,218,0,0,0,0,0,0,0,0,0,-1,881,806,0,0
-336,218,0,0,0,0,0,0,0,0,0,-1,888,806,0,0
-329,218,0,0,0,0,0,0,0,0,0,-1,895,806,0,0
-322,218,0,0,0,0,0,0,0,0,0,-1,902,806,0,0
-315,218,0,0,0,0,0,0,0,0,0,-1,909,806,0,0
-308,218,0,0,0,0,0,0,0,0,0,-1,916,806,0,0
-301,218,0,0,0,0,0,0,0,0,0,-1,923,806,0,0
-294,218,0,0,0,0,0,0,0,0,0,-1,930,806,0,0
-287,218,0,0,0,0,0,0,0,0,0,-1,937,806,0,0
-280,218,0,0,0,0,0,0,0,0,0,-1,944,806,0,0
-273,218,0,0,0,0,0,0,0,0,0,-1,951,806,0,0
-266,218,0,0,0,0,0,0,0,0,0,-1,958,806,0,0
-259,218,0,0,0,0,0,0,0,0,0,-1,965,806,0,0
-252,218,0,0,0,0,0,0,0,0,0,-1,972,806,0,0
-245,218,0,0,0,0,0,0,0,0,0,-1,979,806,0,0
-238,218,0,0,0,0,0,0,0,0,0,-1,986,806,0,0
-231,218,0,0,0,0,0,0,0,0,0,-1,993,806,0,0
-224,218,0,0,0,0,0,0,0,0,0,-1,1000,806,0,0
-217,218,0,0,0,0,0,0,0,0,0,-1,1007,806,0,0
-210,218,0,0,0,0,0,0,0,0,0,-1,1014,806,0,0
-203,218,0,0,0,0,0,0,0,0,0,-1,1021,806,0,0
-196,218,0,0,0,0,0,0,0,0,0,-1,1028,806,0,0
-189,218,0,0,0,0,0,0,0,0,0,-1,1035,806,0,0
-182,218,0,0,0,0,0,0,0,0,0,-1,1042,806,0,0
-175,218,0,0,0,0,0,0,0,0,0,-1,1049,806,0,0
-168,218,0,0,0,0,0,0,0,0,0,-1,1056,806,0,0
-161,218,0,0,0,0,0,0,0,0,0,-1,1063,806,0,0
-154,218,0,0,0,0,0,0,0,0,0,-1,1070,806,0,0
-147,218,0,0,0,0,0,0,0,0,0,-1,1077,806,0,0
-140,218,0,0,0,0,0,0,0,0,0,-1,1084,806,0,0
-133,218,0,0,0,0,0,0,0,0,0,-1,1091,806,0,0
-126,218,0,0,0,0,0,0,0,0,0,-1,1098,806,0,0
-119,218,0,0,0,0,0,0,0,0,0,-1,1105,806,0,0
-112,218,0,0,0,0,0,0,0,0,0,-1,1112,806,0,0
-105,218,0,0,0,0,0,0,0,0,0,-1,1119,806,0,0
-98,218,0,0,0,0,0,0,0,0,0,-1,1126,806,0,0
-91,218,0,0,0,0,0,0,0,0,0,-1,1133,806,0,0
-84,218,0,0,0,0,0,0,0,0,0,-1,1140,806,0,0
-77,218,0,0,0,0,0,0,0,0,0,-1,1147,806,0,0
-70,218,0,0,0,0,0,0,0,0,0,-1,1154,806,0,0
-63,218,0,0,0,0,0,0,0,0,0,-1,1161,806,0,0
-56,218,0,0,0,0,0,0,0,0,0,-1,1168,806,0,0
-49,218,0,0,0,0,0,0,0,0,0,-1,1175,806,0,0
-42,218,0,0,0,0,0,0,0,0,0,-1,1182,806,0,0
-35,218,0,0,0,0,0,0,0,0,0,-1,1189,806,0,0
-28,218,0,0,0,0,0,0,0,0,0,-1,1196,806,0,0
-21,218,0,0,0,0,0,0,0,0,0,-1,1203,806,0,0
-14,218,0,0,0,0,0,0,0,0,0,-1,1210,806,0,0
-7,218,0,0,0,0,0,0,0,0,0,-1,1217,806,0,0
0,218,0,0,0,0,0,0,0,0,0,-1,1224,806,0,0
7,218,0,0,0,0,0,0,0,0,0,-1,1231,806,0,0
14,218,0,0,0,0,0,0,0,0,0,-1,1238,806,0,0
21,218,0,0,0,0,0,0,0,0,0,-1,1245,806,0,0
28,218,0,0,0,0,0,0,0,0,0,-1,1252,806,0,0
35,218,0,0,0,0,0,0,0,0,0,-1,1259,806,0,0
42,218,0,0,0,0,0,0,0,0,0,-1,1266,806,0,0
49,218,0,0,0,0,0,0,0,0,0,-1,1273,806,0,0
56,218,0,0,0,0,0,0,0,0,0,-1,1280,806,0,0
63,218,0,0,0,0,0,0,0,0,0,-1,1287,806,0,0
70,218,0,0,0,0,0,0,0,0,0,-1,1294,806,0,0
77,218,0,0,0,0,0,0,0,0,0,-1,1301,806,0,0
84,218,0,0,0,0,0,0,0,0,0,-1,1308,806,0,0
91,218,0,0,0,0,0,0,0,0,0,-1,1315,806,0,0
98,218,0,0,0,0,0,0,0,0,0,-1,1322,806,0,0
105,218,0,0,0,0,0,0,0,0,0,-1,1329,806,0,0
112,218,0,0,0,0,0,0,0,0,0,-1,1336,806,0,0
119,218,0,0,0,0,0,0,0,0,0,-1,1343,806,0,0
126,218,0,0,0,0,0,0,0,0,0,-1,1350,806,0,0
133,218,0,0,0,0,0,0,0,0,0,-1,1357,806,0,0
140,218,0,0,0,0,0,0,0,0,0,-1,1364,806,0,0
147,218,0,0,0,0,0,0,0,0,0,-1,1371,806,0,0
154,218,0,0,0,0,0,0,0,0,0,-1,1378,806,0,0
161,218,0,0,0,0,0,0,0,0,0,-1,1385,806,0,0
168,218,0,0,0,0,0,0,0,0,0,-1,1392,806,0,0
175,218,0,0,0,0,0,0,0,0,0,-1,1399,806,0,0
182,218,0,0,0,0,0,0,0,0,0,-1,1406,806,0,0
189,218,0,0,0,0,0,0,0,0,0,-1,1413,806,0,0
196,218,0,0,0,0,0,0,0,0,0,-1,1420,806,0,0
203,218,0,0,0,0,0,0,0,0,0,-1,1427,806,0,0
210,218,0,0,0,0,0,0,0,0,0,-1,1434,806,0,0
217,218,0,0,0,0,0,0,0,0,0,-1,1441,806,0,0
224,218,0,0,0,0,0,0,0,0,0,-1,1448,806,0,0
231,218,0,0,0,0,0,0,0,0,0,-1,1455,806,0,0
238,218,0,0,0,0,0,0,0,0,0,-1,1462,806,0,0
245,218,0,0,0,0,0,0,0,0,0,-1,1469,806,0,0
252,218,0,0,0,0,0,0,0,0,0,-1,1476,806,0,0
259,218,0,0,0,0,0,0,0,0,0,-1,1483,806,0,0
266,218,0,0,0,0,0,0,0,0,0,-1,1490,806,0,0
273,218,0,0,0,0,0,0,0,0,0,-1,1497,806,0,0
280,218,0,0,0,0,0,0,0,0,0,-1,1504,806,0,0
287,218,0,0,0,0,0,0,0,0,0,-1,1511,806,0,0
294,218,0,0,0,0,0,0,0,0,0,-1,1518,806,0,0
301,218,0,0,0,0,0,0,0,0,0,-1,1525,806,0,0
308,218,0,0,0,0,0,0,0,0,0,-1,1532,806,0,0
315,218,0,0,0,0,0,0,0,0,0,-1,1539,806,0,0
322,218,0,0,0,0,0,0,0,0,0,-1,1546,806,0,0
329,218,0,0,0,0,0,0,0,0,0,-1,1553,806,0,0
336,218,0,0,0,0,0,0,0,0,0,-1,1560,806,0,0
343,218,0,0,0,0,0,0,0,0,0,-1,1567,806,0,0
350,218,0,0,0,0,0,0,0,0,0,-1,1574,806,0,0
357,218,0,0,0,0,0,0,0,0,0,-1,1581,806,0,0
364,218,0,0,0,0,0,0,0,0,0,-1,1588,806,0,0
371,218,0,0,0,0,0,0,0,0,0,-1,1595,806,0,0
378,218,0,0,0,0,0,0,0,0,0,-1,1602,806,0,0
385,218,0,0,0,0,0,0,0,0,0,-1,1609,806,0,0
392,218,0,0,0,0,0,0,0,0,0,-1,1616,806,0,0
399,218,0,0,0,0,0,0,0,0,0,-1,1623,806,0,0
406,218,0,0,0,0,0,0,0,0,0,-1,1630,806,0,0
413,218,0,0,0,0,0,0,0,0,0,-1,1637,806,0,0
420,218,0,0,0,0,0,0,0,0,0,-1,1644,806,0,0
427,218,0,0,0,0,0,0,0,0,0,-1,1651,806,0,0
434,218,0,0,0,0,0,0,0,0,0,-1,1658,806,0,0
441,218,0,0,0,0,0,0,0,0,0,-1,1665,806,0,0
448,218,0,0,0,0,0,0,0,0,0,-1,1672,806,0,0
455,218,0,0,0,0,0,0,0,0,0,-1,1679,806,0,0
462,218,0,0,0,0,0,0,0,0,0,-1,1686,806,0,0
469,218,0,0,0,0,0,0,0,0,0,-1,1693,806,0,0
476,218,0,0,0,0,0,0,0,0,0,-1,1700,806,0,0
483,218,0,0,0,0,0,0,0,0,0,-1,1707,806,0,0
490,218,0,0,0,0,0,0,0,0,0,-1,1714,806,0,0
497,218,0,0,0,0,0,0,0,0,0,-1,1721,806,0,0
504,218,0,0,0,0,0,0,0,0,0,-1,1728,806,0,0
511,218,0,0,0,0,0,0,0,0,0,-1,1735,806,0,0
518,218,0,0,0,0,0,0,0,0,0,-1,1742,806,0,0
525,218,0,0,0,0,0,0,0,0,0,-1,1749,806,0,0
532,218,0,0,0,0,0,0,0,0,0,-1,1756,806,0,0
539,218,0,0,0,0,0,0,0,0,0,-1,1763,806,0,0
546,218,0,0,0,0,0,0,0,0,0,-1,1770,806,0,0
553,218,0,0,0,0,0,0,0,0,0,-1,1777,806,0,0
560,218,0,0,0,0,0,0,0,0,0,-1,1784,806,0,0
567,218,0,0,0,0,0,0,0,0,0,-1,1791,806,0,0
574,218,0,0,0,0,0,0,0,0,0,-1,1798,806,0,0
581,218,0,0,0,0,0,0,0,0,0,-1,1805,806,0,0
588,218,0,0,0,0,0,0,0,0,0,-1,1812,806,0,0
595,218,60.9891,2.78687,0.00630697,-0.00362175,-0.00506293,0.00843332,-0.00574809,-0.397614,0.00823642,0.0363281,1819,806,60.9891,-2.78685
602,218,60.9956,2.64618,0.00503933,0.000307135,-0.00183625,0.00566827,-0.000321799,-0.329988,0.00389055,0.033765,1826,806,60.9956,-2.6462
609,218,60.9872,2.70343,0.00379606,0.00245478,0.000127399,0.00380806,0.00244279,0.0938645,0.00222773,0.0312406,1833,806,60.9872,-2.70345
616,218,60.9282,2.78821,0.00243673,0.00291308,0.000710185,0.00342396,0.00192584,0.94719,0.00198196,0.0329247,1840,806,60.9282,-2.7882
623,218,60.9835,2.74402,0.00110939,0.0025479,0.000534359,0.00272468,0.000932612,1.25132,0.00159897,0.0370887,1847,806,60.9835,-2.74403
630,218,61.2068,2.7973,-0.000143089,0.0020371,2.68284e-05,0.00203743,-0.000143419,1.55849,0.00140853,0.04138,1854,806,61.2067,-2.79733
637,218,60.8464,2.86108,0,0,0,0,0,0,0,-1,1861,806,60.8465,-2.86111
644,218,52.4042,2.47949,0,0,0,0,0,0,0,-1,1868,806,52.4041,-2.47949
651,218,41.7338,1.99164,0,0,0,0,0,0,0,-1,1875,806,41.7338,-1.99162
658,218,28.41,0.514954,0,0,0,0,0,0,0,-1,1882,806,28.41,-0.514983
665,218,45.9485,-0.819763,0,0,0,0,0,0,0,-1,1889,806,45.9484,0.81979
672,218,45.2426,-0.70874,-0.00468421,-0.00114447,-0.0022868,-2.26416e-05,-0.00580603,-1.11472,0.00386316,0.0363152,1896,806,45.2425,0.708755
679,218,45.0114,-0.131653,-0.00530386,-0.00191827,-0.00267473,-0.000445667,-0.00677647,-1.06752,0.00437666,0.0355522,1903,806,45.0113,0.131673
686,218,44.8708,0.44812,-0.00508681,-0.00208769,-0.00306819,-0.00017222,-0.00700228,-1.0127,0.00461185,0.0152757,1910,806,44.8708,-0.448106
693,218,44.847,1.15662,-0.00398657,-0.00163304,-0.00280896,0.000235687,-0.00585529,-0.983758,0.00398442,0.0119919,1917,806,44.8471,-1.15661
700,218,44.7963,1.87085,-0.00282036,-0.000957648,-0.00226684,0.000561712,-0.00433972,-0.980315,0.00309741,0.0101263,1924,806,44.7963,-1.87082
707,218,44.7566,2.58093,-0.00185203,-0.000139747,-0.00152998,0.000757346,-0.00274912,-1.04048,0.00213055,0.00829027,1931,806,44.7567,-2.58093
714,218,44.7325,3.315,-0.00122519,0.000277744,-0.000991912,0.000770702,-0.00171814,-1.10957,0.00147123,0.0102463,1938,806,44.7326,-3.31501
721,218,44.7206,4.02533,-0.00113768,6.68444e-05,-0.000841218,0.000499166,-0.00157001,-1.09607,0.00124682,0.014253,1945,806,44.7205,-4.02536
728,218,44.6965,4.78851,-0.0017632,-0.00109734,-0.00132151,-6.7469e-05,-0.00279307,-0.908798,0.00183997,0.0285336,1952,806,44.6965,-4.78849
735,218,44.819,5.65076,0,0,0,0,0,0,0,-1,1959,806,44.819,-5.65076
742,218,44.4543,6.57965,0,0,0,0,0,0,0,-1,1966,806,44.4544,-6.57965
749,218,42.0249,6.64703,0,0,0,0,0,0,0,-1,1973,806,42.0249,-6.64703
756,218,44.0059,6.09637,0,0,0,0,0,0,0,-1,1980,806,44.0058,-6.0964
763,218,40.3187,5.18854,0,0,0,0,0,0,0,-1,1987,806,40.3188,-5.18855
770,218,0,0,0,0,0,0,0,0,0,-1,1994,806,0,0
777,218,0,0,0,0,0,0,0,0,0,-1,2001,806,0,0
784,218,0,0,0,0,0,0,0,0,0,-1,2008,806,0,0
791,218,0,0,0,0,0,0,0,0,0,-1,2015,806,0,0
798,218,0,0,0,0,0,0,0,0,0,-1,2022,806,0,0
805,218,0,0,0,0,0,0,0,0,0,-1,2029,806,0,0
812,218,0,0,0,0,0,0,0,0,0,-1,2036,806,0,0
-700,211,0,0,0,0,0,0,0,0,0,-1,524,813,0,0
-693,211,0,0,0,0,0,0,0,0,0,-1,531,813,0,0
-686,211,0,0,0,0,0,0,0,0,0,-1,538,813,0,0
-679,211,0,0,0,0,0,0,0,0,0,-1,545,813,0,0
-672,211,0,0,0,0,0,0,0,0,0,-1,552,813,0,0
-665,211,0,0,0,0,0,0,0,0,0,-1,559,813,0,0
-658,211,0,0,0,0,0,0,0,0,0,-1,566,813,0,0
-651,211,-40.2495,5.20386,0,0,0,0,0,0,0,-1,573,813,-40.2494,-5.20384
-644,211,-40.6288,4.32092,0,0,0,0,0,0,0,-1,580,813,-40.6288,-4.3209
-637,211,-41.3664,3.51849,0,0,0,0,0,0,0,-1,587,813,-41.3664,-3.51847
-630,211,-41.9262,2.94977,0,0,0,0,0,0,0,-1,594,813,-41.9262,-2.94975
-623,211,-42.5012,2.62903,0,0,0,0,0,0,0,-1,601,813,-42.5011,-2.629
-616,211,-32.1245,4.55219,0,0,0,0,0,0,0,-1,608,813,-32.1245,-4.55218
-609,211,-32.0394,3.77563,-0.00561829,0.00710657,-0.00237948,0.00753696,-0.00604868,-1.39185,0.00785935,0.043355,615,813,-32.0395,-3.77562
-602,211,-32.0869,3.03595,-0.00375942,0.00557471,-0.00208101,0.00601764,-0.00420236,-1.36108,0.00593146,0.0231822,622,813,-32.0869,-3.03597
-595,211,-32.1977,2.37018,-0.0021608,0.00428371,-0.0017886,0.00474684,-0.00262392,-1.31743,0.00431395,0.0114443,629,813,-32.1977,-2.3702
-588,211,-32.2223,1.68109,-0.00105872,0.00348027,-0.0013989,0.00387677,-0.00145522,-1.2946,0.00318249,0.0107262,636,813,-32.2223,-1.6811
-581,211,-32.2406,1.00763,-0.000447395,0.00267823,-0.000837899,0.00288867,-0.000657844,-1.32472,0.00217843,0.011913,643,813,-32.2406,-1.00763
-574,211,-32.2781,0.325989,-0.000227856,0.00188916,-0.000208356,0.00190947,-0.000248168,-1.47362,0.00136326,0.0137744,650,813,-32.2781,-0.326004
-567,211,-32.3018,-0.403015,-0.000509641,0.00122779,-0.000256234,0.0012648,-0.000546642,-1.42738,0.00107288,0.0207354,657,813,-32.3018,0.403
-560,211,-32.3174,-1.12604,-0.00120253,0.00101122,-0.000865774,0.0013096,-0.00150091,-1.23891,0.0016239,0.0300885,664,813,-32.3174,1.12604
-553,211,-32.1435,-2.09851,0,0,0,0,0,0,0,-1,671,813,-32.1435,2.09849
-546,211,-32.3855,-2.95605,0,0,0,0,0,0,0,-1,678,813,-32.3855,2.95606
-539,211,-32.53,-3.17487,0,0,0,0,0,0,0,-1,685,813,-32.53,3.17487
-532,211,-32.3642,-3.84479,0,0,0,0,0,0,0,-1,692,813,-32.3642,3.84479
-525,211,-14.3009,2.3233,0,0,0,0,0,0,0,-1,699,813,-14.3009,-2.3233
-518,211,-34.952,1.93011,0,0,0,0,0,0,0,-1,706,813,-34.952,-1.9301
-511,211,-46.4487,0.949951,0,0,0,0,0,0,0,-1,713,813,-46.4486,-0.94996
-504,211,-46.4194,0.944275,0.00219454,0.00434877,-0.00131944,0.00497492,0.0015684,-1.12771,0.00293689,0.0463736,720,813,-46.4194,-0.944276
-497,211,-46.3472,0.961975,0.00345429,0.00527069,-0.00129133,0.00594121,0.00278377,-1.09187,0.00343242,0.0478269,727,813,-46.3472,-0.961969
-490,211,-46.386,0.927124,0.00468878,0.00643232,-0.00147645,0.00727516,0.00384594,-1.05208,0.00420261,0.0375765,734,813,-46.3861,-0.927146
-483,211,-46.4619,0.940063,0.00547252,0.00753505,-0.0015295,0.00834847,0.0046591,-1.08202,0.00483082,0.0334544,741,813,-46.4619,-0.940083
-476,211,-46.4286,0.935974,0.00554707,0.00746853,-0.000557595,0.00761861,0.00539698,-1.30786,0.00452417,0.0370698,748,813,-46.4286,-0.935988
-469,211,0,0,0,0,0,0,0,0,0,-1,755,813,0,0
-462,211,0,0,0,0,0,0,0,0,0,-1,762,813,0,0
-455,211,0,0,0,0,0,0,0,0,0,-1,769,813,0,0
-448,211,0,0,0,0,0,0,0,0,0,-1,776,813,0,0
-441,211,0,0,0,0,0,0,0,0,0,-1,783,813,0,0
-434,211,0,0,0,0,0,0,0,0,0,-1,790,813,0,0
-427,211,0,0,0,0,0,0,0,0,0,-1,797,813,0,0
-420,211,0,0,0,0,0,0,0,0,0,-1,804,813,0,0
-413,211,0,0,0,0,0,0,0,0,0,-1,811,813,0,0
-406,211,0,0,0,0,0,0,0,0,0,-1,818,813,0,0
-399,211,0,0,0,0,0,0,0,0,0,-1,825,813,0,0
-392,211,0,0,0,0,0,0,0,0,0,-1,832,813,0,0
-385,211,0,0,0,0,0,0,0,0,0,-1,839,813,0,0
-378,211,0,0,0,0,0,0,0,0,0,-1,846,813,0,0
-371,211,0,0,0,0,0,0,0,0,0,-1,853,813,0,0
-364,211,0,0,0,0,0,0,0,0,0,-1,860,813,0,0
-357,211,0,0,0,0,0,0,0,0,0,-1,867,813,0,0
-350,211,0,0,0,0,0,0,0,0,0,-1,874,813,0,0
-343,211,0,0,0,0,0,0,0,0,0,-1,881,813,0,0
-336,211,0,0,0,0,0,0,0,0,0,-1,888,813,0,0
-329,211,0,0,0,0,0,0,0,0,0,-1,895,813,0,0
-322,211,0,0,0,0,0,0,0,0,0,-1,902,813,0,0
-315,211,0,0,0,0,0,0,0,0,0,-1,909,813,0,0
-308,211,0,0,0,0,0,0,0,0,0,-1,916,813,0,0
-301,211,0,0,0,0,0,0,0,0,0,-1,923,813,0,0
-294,211,0,0,0,0,0,0,0,0,0,-1,930,813,0,0
-287,211,0,0,0,0,0,0,0,0,0,-1,937,813,0,0
-280,211,0,0,0,0,0,0,0,0,0,-1,944,813,0,0
-273,211,0,0,0,0,0,0,0,0,0,-1,951,813,0,0
-266,211,0,0,0,0,0,0,0,0,0,-1,958,813,0,0
-259,211,0,0,0,0,0,0,0,0,0,-1,965,813,0,0
-252,211,0,0,0,0,0,0,0,0,0,-1,972,813,0,0
-245,211,0,0,0,0,0,0,0,0,0,-1,979,813,0,0
-238,211,0,0,0,0,0,0,0,0,0,-1,986,813,0,0
-231,211,0,0,0,0,0,0,0,0,0,-1,993,813,0,0
-224,211,0,0,0,0,0,0,0,0,0,-1,1000,813,0,0
-217,211,0,0,0,0,0,0,0,0,0,-1,1007,813,0,0
-210,211,0,0,0,0,0,0,0,0,0,-1,1014,813,0,0
-203,211,0,0,0,0,0,0,0,0,0,-1,1021,813,0,0
-196,211,0,0,0,0,0,0,0,0,0,-1,1028,813,0,0
-189,211,0,0,0,0,0,0,0,0,0,-1,1035,813,0,0
-182,211,0,0,0,0,0,0,0,0,0,-1,1042,813,0,0
-175,211,0,0,0,0,0,0,0,0,0,-1,1049,813,0,0
-168,211,0,0,0,0,0,0,0,0,0,-1,1056,813,0,0
-161,211,0,0,0,0,0,0,0,0,0,-1,1063,813,0,0
-154,211,0,0,0,0,0,0,0,0,0,-1,1070,813,0,0
-147,211,0,0,0,0,0,0,0,0,0,-1,1077,813,0,0
-140,211,0,0,0,0,0,0,0,0,0,-1,1084,813,0,0
-133,211,0,0,0,0,0,0,0,0,0,-1,1091,813,0,0
-126,211,0,0,0,0,0,0,0,0,0,-1,1098,813,0,0
-119,211,0,0,0,0,0,0,0,0,0,-1,1105,813,0,0
-112,211,0,0,0,0,0,0,0,0,0,-1,1112,813,0,0
-105,211,0,0,0,0,0,0,0,0,0,-1,1119,813,0,0
-98,211,0,0,0,0,0,0,0,0,0,-1,1126,813,0,0
-91,211,0,0,0,0,0,0,0,0,0,-1,1133,813,0,0
-84,211,0,0,0,0,0,0,0,0,0,-1,1140,813,0,0
-77,211,0,0,0,0,0,0,0,0,0,-1,1147,813,0,0
-70,211,0,0,0,0,0,0,0,0,0,-1,1154,813,0,0
-63,211,0,0,0,0,0,0,0,0,0,-1,1161,813,0,0
-56,211,0,0,0,0,0,0,0,0,0,-1,1168,813,0,0
-49,211,0,0,0,0,0,0,0,0,0,-1,1175,813,0,0
-42,211,0,0,0,0,0,0,0,0,0,-1,1182,813,0,0
-35,211,0,0,0,0,0,0,0,0,0,-1,1189,813,0,0
-28,211,0,0,0,0,0,0,0,0,0,-1,1196,813,0,0
-21,211,0,0,0,0,0,0,0,0,0,-1,1203,813,0,0
-14,211,0,0,0,0,0,0,0,0,0,-1,1210,813,0,0
-7,211,0,0,0,0,0,0,0,0,0,-1,1217,813,0,0
0,211,0,0,0,0,0,0,0,0,0,-1,1224,813,0,0
7,211,0,0,0,0,0,0,0,0,0,-1,1231,813,0,0
14,211,0,0,0,0,0,0,0,0,0,-1,1238,813,0,0
21,211,0,0,0,0,0,0,0,0,0,-1,1245,813,0,0
28,211,0,0,0,0,0,0,0,0,0,-1,1252,813,0,0
35,211,0,0,0,0,0,0,0,0,0,-1,1259,813,0,0
42,211,0,0,0,0,0,0,0,0,0,-1,1266,813,0,0
49,211,0,0,0,0,0,0,0,0,0,-1,1273,813,0,0
56,211,0,0,0,0,0,0,0,0,0,-1,1280,813,0,0
63,211,0,0,0,0,0,0,0,0,0,-1,1287,813,0,0
70,211,0,0,0,0,0,0,0,0,0,-1,1294,813,0,0
77,211,0,0,0,0,0,0,0,0,0,-1,1301,813,0,0
84,211,0,0,0,0,0,0,0,0,0,-1,1308,813,0,0
91,211,0,0,0,0,0,0,0,0,0,-1,1315,813,0,0
98,211,0,0,0,0,0,0,0,0,0,-1,1322,813,0,0
105,211,0,0,0,0,0,0,0,0,0,-1,1329,813,0,0
112,211,0,0,0,0,0,0,0,0,0,-1,1336,813,0,0
119,211,0,0,0,0,0,0,0,0,0,-1,1343,813,0,0
126,211,0,0,0,0,0,0,0,0,0,-1,1350,813,0,0
133,211,0,0,0,0,0,0,0,0,0,-1,1357,813,0,0
140,211,0,0,0,0,0,0,0,0,0,-1,1364,813,0,0
147,211,0,0,0,0,0,0,0,0,0,-1,1371,813,0,0
154,211,0,0,0,0,0,0,0,0,0,-1,1378,813,0,0
161,211,0,0,0,0,0,0,0,0,0,-1,1385,813,0,0
168,211,0,0,0,0,0,0,0,0,0,-1,1392,813,0,0
175,211,0,0,0,0,0,0,0,0,0,-1,1399,813,0,0
182,211,0,0,0,0,0,0,0,0,0,-1,1406,813,0,0
189,211,0,0,0,0,0,0,0,0,0,-1,1413,813,0,0
196,211,0,0,0,0,0,0,0,0,0,-1,1420,813,0,0
203,211,0,0,0,0,0,0,0,0,0,-1,1427,813,0,0
210,211,0,0,0,0,0,0,0,0,0,-1,1434,813,0,0
217,211,0,0,0,0,0,0,0,0,0,-1,1441,813,0,0
224,211,0,0,0,0,0,0,0,0,0,-1,1448,813,0,0
231,211,0,0,0,0,0,0,0,0,0,-1,1455,813,0,0
238,211,0,0,0,0,0,0,0,0,0,-1,1462,813,0,0
245,211,0,0,0,0,0,0,0,0,0,-1,1469,813,0,0
252,211,0,0,0,0,0,0,0,0,0,-1,1476,813,0,0
259,211,0,0,0,0,0,0,0,0,0,-1,1483,813,0,0
266,211,0,0,0,0,0,0,0,0,0,-1,1490,813,0,0
273,211,0,0,0,0,0,0,0,0,0,-1,1497,813,0,0
280,211,0,0,0,0,0,0,0,0,0,-1,1504,813,0,0
287,211,0,0,0,0,0,0,0,0,0,-1,1511,813,0,0
294,211,0,0,0,0,0,0,0,0,0,-1,1518,813,0,0
301,211,0,0,0,0,0,0,0,0,0,-1,1525,813,0,0
308,211,0,0,0,0,0,0,0,0,0,-1,1532,813,0,0
315,211,0,0,0,0,0,0,0,0,0,-1,1539,813,0,0
322,211,0,0,0,0,0,0,0,0,0,-1,1546,813,0,0
329,211,0,0,0,0,0,0,0,0,0,-1,1553,813,0,0
336,211,0,0,0,0,0,0,0,0,0,-1,1560,813,0,0
343,211,0,0,0,0,0,0,0,0,0,-1,1567,813,0,0
350,211,0,0,0,0,0,0,0,0,0,-1,1574,813,0,0
357,211,0,0,0,0,0,0,0,0,0,-1,1581,813,0,0
364,211,0,0,0,0,0,0,0,0,0,-1,1588,813,0,0
371,211,0,0,0,0,0,0,0,0,0,-1,1595,813,0,0
378,211,0,0,0,0,0,0,0,0,0,-1,1602,813,0,0
385,211,0,0,0,0,0,0,0,0,0,-1,1609,813,0,0
392,211,0,0,0,0,0,0,0,0,0,-1,1616,813,0,0
399,211,0,0,0,0,0,0,0,0,0,-1,1623,813,0,0
406,211,0,0,0,0,0,0,0,0,0,-1,1630,813,0,0
413,211,0,0,0,0,0,0,0,0,0,-1,1637,813,0,0
420,211,0,0,0,0,0,0,0,0,0,-1,1644,813,0,0
427,211,0,0,0,0,0,0,0,0,0,-1,1651,813,0,0
434,211,0,0,0,0,0,0,0,0,0,-1,1658,813,0,0
441,211,0,0,0,0,0,0,0,0,0,-1,1665,813,0,0
448,211,0,0,0,0,0,0,0,0,0,-1,1672,813,0,0
455,211,0,0,0,0,0,0,0,0,0,-1,1679,813,0,0
462,211,0,0,0,0,0,0,0,0,0,-1,1686,813,0,0
469,211,0,0,0,0,0,0,0,0,0,-1,1693,813,0,0
476,211,0,0,0,0,0,0,0,0,0,-1,1700,813,0,0
483,211,0,0,0,0,0,0,0,0,0,-1,1707,813,0,0
490,211,0,0,0,0,0,0,0,0,0,-1,1714,813,0,0
497,211,0,0,0,0,0,0,0,0,0,-1,1721,813,0,0
504,211,0,0,0,0,0,0,0,0,0,-1,1728,813,0,0
511,211,0,0,0,0,0,0,0,0,0,-1,1735,813,0,0
518,211,0,0,0,0,0,0,0,0,0,-1,1742,813,0,0
525,211,0,0,0,0,0,0,0,0,0,-1,1749,813,0,0
532,211,0,0,0,0,0,0,0,0,0,-1,1756,813,0,0
539,211,0,0,0,0,0,0,0,0,0,-1,1763,813,0,0
546,211,0,0,0,0,0,0,0,0,0,-1,1770,813,0,0
553,211,0,0,0,0,0,0,0,0,0,-1,1777,813,0,0
560,211,0,0,0,0,0,0,0,0,0,-1,1784,813,0,0
567,211,0,0,0,0,0,0,0,0,0,-1,1791,813,0,0
574,211,0,0,0,0,0,0,0,0,0,-1,1798,813,0,0
581,211,0,0,0,0,0,0,0,0,0,-1,1805,813,0,0
588,211,0,0,0,0,0,0,0,0,0,-1,1812,813,0,0
595,211,61.0481,2.68646,0.00696599,-0.0042443,-0.00656442,0.00999272,-0.00727103,-0.43203,0.0100084,0.038199,1819,813,61.0481,-2.68643
602,211,61.0295,2.66614,0.00559768,-0.000333902,-0.00329522,0.00706522,-0.00180144,-0.418983,0.00541151,0.0369797,1826,813,61.0296,-2.66613
609,211,61.0465,2.70795,0.00408853,0.00208487,-0.000944512,0.00446357,0.00170983,-0.377978,0.00260043,0.0382459,1833,813,61.0466,-2.70797
616,211,60.9412,2.79681,0.00257557,0.0030957,0.00028116,0.00321863,0.00245264,1.15862,0.00194146,0.0323777,1840,813,60.9412,-2.79682
623,211,60.9622,2.74017,0.0010154,0.00290039,0.000397588,0.00298082,0.000934971,1.3712,0.00176036,0.032122,1847,813,60.9621,-2.74016
630,211,60.9485,2.77155,-0.00045039,0.00239557,-4.63943e-05,0.00239633,-0.000451146,-1.5545,0.00176723,0.03813,1854,813,60.9485,-2.77153
637,211,60.9122,2.83698,-0.001672,0.00193611,-0.00052644,0.00201135,-0.00174724,-1.42883,0.00217181,0.045929,1861,813,60.9122,-2.83697
644,211,60.9397,2.85614,0,0,0,0,0,0,0,-1,1868,813,60.9397,-2.85614
651,211,48.5043,2.95557,0,0,0,0,0,0,0,-1,1875,813,48.5043,-2.95558
658,211,27.7909,1.52234,0,0,0,0,0,0,0,-1,1882,813,27.7909,-1.52234
665,211,42.2053,-0.745605,0,0,0,0,0,0,0,-1,1889,813,42.2054,0.745605
672,211,46.5243,-0.828003,0,0,0,0,0,0,0,-1,1896,813,46.5243,0.827985
679,211,45.9409,-0.111145,-0.00567123,-0.00161944,-0.00261684,-0.000335933,-0.00695473,-1.1148,0.00452867,0.0421743,1903,813,45.9409,0.111168
686,211,45.6055,0.484436,-0.00563144,-0.00203645,-0.00318835,-0.000173808,-0.00749408,-1.04207,0.00493914,0.0177417,1910,813,45.6055,-0.484455
693,211,45.5547,1.1673,-0.00467295,-0.00193137,-0.00318459,0.000164921,-0.00676925,-0.988635,0.0045688,0.013065,1917,813,45.5547,-1.16732
700,211,45.4675,1.85638,-0.00354826,-0.0014331,-0.0027816,0.000485187,-0.00546655,-0.967061,0.00381639,0.0143845,1924,813,45.4676,-1.85639
707,211,45.4841,2.61774,-0.00258931,-0.000774625,-0.00210197,0.000607473,-0.00397141,-0.989149,0.0028716,0.0214224,1931,813,45.4842,-2.61774
714,211,45.4702,3.34656,-0.00188101,-0.000455875,-0.00157065,0.000556293,-0.00289317,-0.998351,0.00213847,0.0228397,1938,813,45.4702,-3.34658
721,211,45.4445,4.03784,-0.00160695,-0.000678216,-0.00138033,0.000313766,-0.00259893,-0.94766,0.00184612,0.0185854,1945,813,45.4444,-4.03782
728,211,45.4419,4.74438,-0.00197264,-0.0017934,-0.0017689,-0.000111848,-0.00365419,-0.810708,0.00239971,0.0183507,1952,813,45.4419,-4.74436
735,211,45.4584,5.53162,-0.00304954,-0.00391366,-0.00287131,-0.00057797,-0.00638523,-0.710721,0.00407784,0.0316072,1959,813,45.4583,-5.53162
742,211,45.2516,6.02258,0,0,0,0,0,0,0,-1,1966,813,45.2516,-6.0226
749,211,45.0106,5.58734,0,0,0,0,0,0,0,-1,1973,813,45.0107,-5.58732
756,211,44.822,6.16949,0,0,0,0,0,0,0,-1,1980,813,44.822,-6.16951
763,211,45.2036,6.37634,0,0,0,0,0,0,0,-1,1987,813,45.2036,-6.37634
770,211,39.2373,7.45868,0,0,0,0,0,0,0,-1,1994,813,39.2373,-7.45868
777,211,0,0,0,0,0,0,0,0,0,-1,2001,813,0,0
784,211,0,0,0,0,0,0,0,0,0,-1,2008,813,0,0
791,211,0,0,0,0,0,0,0,0,0,-1,2015,813,0,0
798,211,0,0,0,0,0,0,0,0,0,-1,2022,813,0,0
805,211,0,0,0,0,0,0,0,0,0,-1,2029,813,0,0
812,211,0,0,0,0,0,0,0,0,0,-1,2036,813,0,0
-700,204,0,0,0,0,0,0,0,0,0,-1,524,820,0,0
-693,204,0,0,0,0,0,0,0,0,0,-1,531,820,0,0
-686,204,0,0,0,0,0,0,0,0,0,-1,538,820,0,0
-679,204,0,0,0,0,0,0,0,0,0,-1,545,820,0,0
-672,204,0,0,0,0,0,0,0,0,0,-1,552,820,0,0
-665,204,0,0,0,0,0,0,0,0,0,-1,559,820,0,0
-658,204,0,0,0,0,0,0,0,0,0,-1,566,820,0,0
-651,204,-40.064,5.25806,0,0,0,0,0,0,0,-1,573,820,-40.064,-5.25806
-644,204,-40.4117,4.54321,0,0,0,0,0,0,0,-1,580,820,-40.4117,-4.54323
-637,204,-40.8671,3.93817,0,0,0,0,0,0,0,-1,587,820,-40.8671,-3.93819
-630,204,-41.7101,3.04382,0,0,0,0,0,0,0,-1,594,820,-41.7101,-3.04383
-623,204,-41.8597,2.11951,0,0,0,0,0,0,0,-1,601,820,-41.8597,-2.11951
-616,204,-32.8242,4.67493,0,0,0,0,0,0,0,-1,608,820,-32.8242,-4.67492
-609,204,-32.7631,3.88586,-0.00554528,0.00672409,-0.0015589,0.00691906,-0.00574025,-1.44637,0.00731941,0.0361576,615,820,-32.7631,-3.88588
-602,204,-32.8138,3.11176,-0.00390858,0.00515974,-0.00139805,0.00537038,-0.00411922,-1.42125,0.00549468,0.0172792,622,820,-32.8138,-3.11177
-595,204,-32.8716,2.40784,-0.00249027,0.00387045,-0.00119395,0.00408718,-0.00270699,-1.39123,0.0039495,0.0145855,629,820,-32.8716,-2.40787
-588,204,-32.9043,1.70093,-0.00146815,0.00292401,-0.000879175,0.00309346,-0.0016376,-1.3804,0.00277425,0.0128583,636,820,-32.9043,-1.70093
-581,204,-32.9305,1.01038,-0.0008611,0.00206674,-0.000391893,0.00211829,-0.000912648,-1.44001,0.00179547,0.012716,643,820,-32.9305,-1.01039
-574,204,-32.9766,0.342407,-0.000619163,0.00137056,0.000110329,0.00137666,-0.000625262,1.51557,0.00118264,0.013697,650,820,-32.9766,-0.342423
-567,204,-32.9648,-0.343628,-0.000892275,0.000807082,-0.000291877,0.000855817,-0.00094101,-1.40535,0.00103779,0.0143668,657,820,-32.9649,0.343648
-560,204,-32.8641,-1.11304,-0.00149831,0.000626312,-0.00129597,0.00123972,-0.00211172,-1.12872,0.00195666,0.0261126,664,820,-32.8641,1.11302
-553,204,-33.0297,-1.77191,0,0,0,0,0,0,0,-1,671,820,-33.0297,1.77188
-546,204,-32.433,-2.2323,0,0,0,0,0,0,0,-1,678,820,-32.433,2.23228
-539,204,-33.1354,-3.00513,0,0,0,0,0,0,0,-1,685,820,-33.1354,3.00513
-532,204,-30.0565,-3.29065,0,0,0,0,0,0,0,-1,692,820,-30.0565,3.29063
-525,204,-25.7137,1.52496,0,0,0,0,0,0,0,-1,699,820,-25.7137,-1.52496
-518,204,-43.4591,0.383972,0,0,0,0,0,0,0,-1,706,820,-43.4591,-0.383942
-511,204,-46.4787,0.820129,0,0,0,0,0,0,0,-1,713,820,-46.4787,-0.820151
-504,204,-46.5683,0.748779,0.00228852,0.00405357,-0.0022586,0.00559594,0.000746143,-0.971647,0.00350846,0.0479142,720,820,-46.5683,-0.748802
-497,204,-46.4145,0.928284,0.00382539,0.00503614,-0.00219975,0.00671229,0.00214923,-0.919675,0.00395799,0.0399547,727,820,-46.4145,-0.928302
-490,204,-46.4301,0.911987,0.0054125,0.00617887,-0.00225201,0.00808006,0.0035113,-0.869668,0.00467832,0.0354641,734,820,-46.4301,-0.911978
-483,204,-46.4547,0.908936,0.00658316,0.00662878,-0.00191892,0.00852503,0.00468692,-0.791341,0.00493005,0.039776,741,820,-46.4546,-0.908914
-476,204,0,0,0,0,0,0,0,0,0,-1,748,820,0,0
-469,204,0,0,0,0,0,0,0,0,0,-1,755,820,0,0
-462,204,0,0,0,0,0,0,0,0,0,-1,762,820,0,0
-455,204,0,0,0,0,0,0,0,0,0,-1,769,820,0,0
-448,204,0,0,0,0,0,0,0,0,0,-1,776,820,0,0
-441,204,0,0,0,0,0,0,0,0,0,-1,783,820,0,0
-434,204,0,0,0,0,0,0,0,0,0,-1,790,820,0,0
-427,204,0,0,0,0,0,0,0,0,0,-1,797,820,0,0
-420,204,0,0,0,0,0,0,0,0,0,-1,804,820,0,0
-413,204,0,0,0,0,0,0,0,0,0,-1,811,820,0,0
-406,204,0,0,0,0,0,0,0,0,0,-1,818,820,0,0
-399,204,0,0,0,0,0,0,0,0,0,-1,825,820,0,0
-392,204,0,0,0,0,0,0,0,0,0,-1,832,820,0,0
-385,204,0,0,0,0,0,0,0,0,0,-1,839,820,0,0
-378,204,0,0,0,0,0,0,0,0,0,-1,846,820,0,0
-371,204,0,0,0,0,0,0,0,0,0,-1,853,820,0,0
-364,204,0,0,0,0,0,0,0,0,0,-1,860,820,0,0
-357,204,0,0,0,0,0,0,0,0,0,-1,867,820,0,0
-350,204,0,0,0,0,0,0,0,0,0,-1,874,820,0,0
-343,204,0,0,0,0,0,0,0,0,0,-1,881,820,0,0
-336,204,0,0,0,0,0,0,0,0,0,-1,888,820,0,0
-329,204,0,0,0,0,0,0,0,0,0,-1,895,820,0,0
-322,204,0,0,0,0,0,0,0,0,0,-1,902,820,0,0
-315,204,0,0,0,0,0,0,0,0,0,-1,909,820,0,0
-308,204,0,0,0,0,0,0,0,0,0,-1,916,820,0,0
-301,204,0,0,0,0,0,0,0,0,0,-1,923,820,0,0
-294,204,0,0,0,0,0,0,0,0,0,-1,930,820,0,0
-287,204,0,0,0,0,0,0,0,0,0,-1,937,820,0,0
-280,204,0,0,0,0,0,0,0,0,0,-1,944,820,0,0
-273,204,0,0,0,0,0,0,0,0,0,-1,951,820,0,0
-266,204,0,0,0,0,0,0,0,0,0,-1,958,820,0,0
-259,204,0,0,0,0,0,0,0,0,0,-1,965,820,0,0
-252,204,0,0,0,0,0,0,0,0,0,-1,972,820,0,0
-245,204,0,0,0,0,0,0,0,0,0,-1,979,820,0,0
-238,204,0,0,0,0,0,0,0,0,0,-1,986,820,0,0
-231,204,0,0,0,0,0,0,0,0,0,-1,993,820,0,0
-224,204,0,0,0,0,0,0,0,0,0,-1,1000,820,0,0
-217,204,0,0,0,0,0,0,0,0,0,-1,1007,820,0,0
-210,204,0,0,0,0,0,0,0,0,0,-1,1014,820,0,0
-203,204,0,0,0,0,0,0,0,0,0,-1,1021,820,0,0
-196,204,0,0,0,0,0,0,0,0,0,-1,1028,820,0,0
-189,204,0,0,0,0,0,0,0,0,0,-1,1035,820,0,0
-182,204,0,0,0,0,0,0,0,0,0,-1,1042,820,0,0
-175,204,0,0,0,0,0,0,0,0,0,-1,1049,820,0,0
-168,204,0,0,0,0,0,0,0,0,0,-1,1056,820,0,0
-161,204,0,0,0,0,0,0,0,0,0,-1,1063,820,0,0
-154,204,0,0,0,0,0,0,0,0,0,-1,1070,820,0,0
-147,204,0,0,0,0,0,0,0,0,0,-1,1077,820,0,0
-140,204,0,0,0,0,0,0,0,0,0,-1,1084,820,0,0
-133,204,0,0,0,0,0,0,0,0,0,-1,1091,820,0,0
-126,204,0,0,0,0,0,0,0,0,0,-1,1098,820,0,0
-119,204,0,0,0,0,0,0,0,0,0,-1,1105,820,0,0
-112,204,0,0,0,0,0,0,0,0,0,-1,1112,820,0,0
-105,204,0,0,0,0,0,0,0,0,0,-1,1119,820,0,0
-98,204,0,0,0,0,0,0,0,0,0,-1,1126,820,0,0
-91,204,0,0,0,0,0,0,0,0,0,-1,1133,820,0,0
-84,204,0,0,0,0,0,0,0,0,0,-1,1140,820,0,0
-77,204,0,0,0,0,0,0,0,0,0,-1,1147,820,0,0
-70,204,0,0,0,0,0,0,0,0,0,-1,1154,820,0,0
-63,204,0,0,0,0,0,0,0,0,0,-1,1161,820,0,0
-56,204,0,0,0,0,0,0,0,0,0,-1,1168,820,0,0
-49,204,0,0,0,0,0,0,0,0,0,-1,1175,820,0,0
-42,204,0,0,0,0,0,0,0,0,0,-1,1182,820,0,0
-35,204,0,0,0,0,0,0,0,0,0,-1,1189,820,0,0
-28,204,0,0,0,0,0,0,0,0,0,-1,1196,820,0,0
-21,204,0,0,0,0,0,0,0,0,0,-1,1203,820,0,0
-14,204,0,0,0,0,0,0,0,0,0,-1,1210,820,0,0
-7,204,0,0,0,0,0,0,0,0,0,-1,1217,820,0,0
0,204,0,0,0,0,0,0,0,0,0,-1,1224,820,0,0
7,204,0,0,0,0,0,0,0,0,0,-1,1231,820,0,0
14,204,0,0,0,0,0,0,0,0,0,-1,1238,820,0,0
21,204,0,0,0,0,0,0,0,0,0,-1,1245,820,0,0
28,204,0,0,0,0,0,0,0,0,0,-1,1252,820,0,0
35,204,0,0,0,0,0,0,0,0,0,-1,1259,820,0,0
42,204,0,0,0,0,0,0,0,0,0,-1,1266,820,0,0
49,204,0,0,0,0,0,0,0,0,0,-1,1273,820,0,0
56,204,0,0,0,0,0,0,0,0,0,-1,1280,820,0,0
63,204,0,0,0,0,0,0,0,0,0,-1,1287,820,0,0
70,204,0,0,0,0,0,0,0,0,0,-1,1294,820,0,0
77,204,0,0,0,0,0,0,0,0,0,-1,1301,820,0,0
84,204,0,0,0,0,0,0,0,0,0,-1,1308,820,0,0
91,204,0,0,0,0,0,0,0,0,0,-1,1315,820,0,0
98,204,0,0,0,0,0,0,0,0,0,-1,1322,820,0,0
105,204,0,0,0,0,0,0,0,0,0,-1,1329,820,0,0
112,204,0,0,0,0,0,0,0,0,0,-1,1336,820,0,0
119,204,0,0,0,0,0,0,0,0,0,-1,1343,820,0,0
126,204,0,0,0,0,0,0,0,0,0,-1,1350,820,0,0
133,204,0,0,0,0,0,0,0,0,0,-1,1357,820,0,0
140,204,0,0,0,0,0,0,0,0,0,-1,1364,820,0,0
147,204,0,0,0,0,0,0,0,0,0,-1,1371,820,0,0
154,204,0,0,0,0,0,0,0,0,0,-1,1378,820,0,0
161,204,0,0,0,0,0,0,0,0,0,-1,1385,820,0,0
168,204,0,0,0,0,0,0,0,0,0,-1,1392,820,0,0
175,204,0,0,0,0,0,0,0,0,0,-1,1399,820,0,0
182,204,0,0,0,0,0,0,0,0,0,-1,1406,820,0,0
189,204,0,0,0,0,0,0,0,0,0,-1,1413,820,0,0
196,204,0,0,0,0,0,0,0,0,0,-1,1420,820,0,0
203,204,0,0,0,0,0,0,0,0,0,-1,1427,820,0,0
210,204,0,0,0,0,0,0,0,0,0,-1,1434,820,0,0
217,204,0,0,0,0,0,0,0,0,0,-1,1441,820,0,0
224,204,0,0,0,0,0,0,0,0,0,-1,1448,820,0,0
231,204,0,0,0,0,0,0,0,0,0,-1,1455,820,0,0
238,204,0,0,0,0,0,0,0,0,0,-1,1462,820,0,0
245,204,0,0,0,0,0,0,0,0,0,-1,1469,820,0,0
252,204,0,0,0,0,0,0,0,0,0,-1,1476,820,0,0
259,204,0,0,0,0,0,0,0,0,0,-1,1483,820,0,0
266,204,0,0,0,0,0,0,0,0,0,-1,1490,820,0,0
273,204,0,0,0,0,0,0,0,0,0,-1,1497,820,0,0
280,204,0,0,0,0,0,0,0,0,0,-1,1504,820,0,0
287,204,0,0,0,0,0,0,0,0,0,-1,1511,820,0,0
294,204,0,0,0,0,0,0,0,0,0,-1,1518,820,0,0
301,204,0,0,0,0,0,0,0,0,0,-1,1525,820,0,0
308,204,0,0,0,0,0,0,0,0,0,-1,1532,820,0,0
315,204,0,0,0,0,0,0,0,0,0,-1,1539,820,0,0
322,204,0,0,0,0,0,0,0,0,0,-1,1546,820,0,0
329,204,0,0,0,0,0,0,0,0,0,-1,1553,820,0,0
336,204,0,0,0,0,0,0,0,0,0,-1,1560,820,0,0
343,204,0,0,0,0,0,0,0,0,0,-1,1567,820,0,0
350,204,0,0,0,0,0,0,0,0,0,-1,1574,820,0,0
357,204,0,0,0,0,0,0,0,0,0,-1,1581,820,0,0
364,204,0,0,0,0,0,0,0,0,0,-1,1588,820,0,0
371,204,0,0,0,0,0,0,0,0,0,-1,1595,820,0,0
378,204,0,0,0,0,0,0,0,0,0,-1,1602,820,0,0
385,204,0,0,0,0,0,0,0,0,0,-1,1609,820,0,0
392,204,0,0,0,0,0,0,0,0,0,-1,1616,820,0,0
399,204,0,0,0,0,0,0,0,0,0,-1,1623,820,0,0
406,204,0,0,0,0,0,0,0,0,0,-1,1630,820,0,0
413,204,0,0,0,0,0,0,0,0,0,-1,1637,820,0,0
420,204,0,0,0,0,0,0,0,0,0,-1,1644,820,0,0
427,204,0,0,0,0,0,0,0,0,0,-1,1651,820,0,0
434,204,0,0,0,0,0,0,0,0,0,-1,1658,820,0,0
441,204,0,0,0,0,0,0,0,0,0,-1,1665,820,0,0
448,204,0,0,0,0,0,0,0,0,0,-1,1672,820,0,0
455,204,0,0,0,0,0,0,0,0,0,-1,1679,820,0,0
462,204,0,0,0,0,0,0,0,0,0,-1,1686,820,0,0
469,204,0,0,0,0,0,0,0,0,0,-1,1693,820,0,0
476,204,0,0,0,0,0,0,0,0,0,-1,1700,820,0,0
483,204,0,0,0,0,0,0,0,0,0,-1,1707,820,0,0
490,204,0,0,0,0,0,0,0,0,0,-1,1714,820,0,0
497,204,0,0,0,0,0,0,0,0,0,-1,1721,820,0,0
504,204,0,0,0,0,0,0,0,0,0,-1,1728,820,0,0
511,204,0,0,0,0,0,0,0,0,0,-1,1735,820,0,0
518,204,0,0,0,0,0,0,0,0,0,-1,1742,820,0,0
525,204,0,0,0,0,0,0,0,0,0,-1,1749,820,0,0
532,204,0,0,0,0,0,0,0,0,0,-1,1756,820,0,0
539,204,0,0,0,0,0,0,0,0,0,-1,1763,820,0,0
546,204,0,0,0,0,0,0,0,0,0,-1,1770,820,0,0
553,204,0,0,0,0,0,0,0,0,0,-1,1777,820,0,0
560,204,0,0,0,0,0,0,0,0,0,-1,1784,820,0,0
567,204,0,0,0,0,0,0,0,0,0,-1,1791,820,0,0
574,204,0,0,0,0,0,0,0,0,0,-1,1798,820,0,0
581,204,0,0,0,0,0,0,0,0,0,-1,1805,820,0,0
588,204,0,0,0,0,0,0,0,0,0,-1,1812,820,0,0
595,204,0,0,0,0,0,0,0,0,0,-1,1819,820,0,0
602,204,61.0592,2.83002,0,0,0,0,0,0,0,-1,1826,820,61.0591,-2.83001
609,204,60.9955,2.84595,0.00489618,0.00141636,-0.00214457,0.00591788,0.000394663,-0.444598,0.0038205,0.0423315,1833,820,60.9954,-2.84593
616,204,61.0227,2.73315,0.0032074,0.00300291,-0.00025655,0.00338132,0.00282898,-0.595777,0.00209452,0.0380845,1840,820,61.0227,-2.73313
623,204,60.9564,2.73254,0.00136165,0.00308971,0.000291338,0.00313751,0.00131385,1.40819,0.0018194,0.029286,1847,820,60.9564,-2.73255
630,204,60.9497,2.75885,-0.000377397,0.00262538,8.86206e-06,0.0026254,-0.000377423,1.56785,0.00188869,0.029454,1854,820,60.9497,-2.75883
637,204,60.9658,2.78387,-0.00172442,0.00202742,-0.000473398,0.00208623,-0.00178323,-1.4472,0.00223632,0.0364238,1861,820,60.9658,-2.78386
644,204,60.911,2.73871,0,0,0,0,0,0,0,-1,1868,820,60.9111,-2.73869
651,204,53.7611,2.32251,0,0,0,0,0,0,0,-1,1875,820,53.7611,-2.32249
658,204,34.9631,1.64844,0,0,0,0,0,0,0,-1,1882,820,34.9631,-1.64842
665,204,21.8292,1.51099,0,0,0,0,0,0,0,-1,1889,820,21.8292,-1.51099
672,204,46.1262,-0.880798,0,0,0,0,0,0,0,-1,1896,820,46.1262,0.880806
679,204,46.4526,-0.684509,0,0,0,0,0,0,0,-1,1903,820,46.4526,0.684525
686,204,46.351,0.507019,-0.00578767,-0.00211996,-0.00309919,-0.0003527,-0.00755493,-1.05255,0.00492326,0.0207769,1910,820,46.3509,-0.507002
693,204,46.1586,1.18866,-0.00500754,-0.00225003,-0.00336648,9.09111e-06,-0.00726667,-0.979756,0.00484748,0.0193449,1917,820,46.1585,-1.18865
700,204,46.1863,1.90234,-0.00400754,-0.00188413,-0.00316874,0.000396038,-0.00628771,-0.947048,0.00432986,0.0183717,1924,820,46.1862,-1.90235
707,204,46.1746,2.67834,-0.00311399,-0.00132735,-0.00257801,0.000507729,-0.00494907,-0.952181,0.00348099,0.0151255,1931,820,46.1746,-2.67836
714,204,46.1516,3.43939,-0.00234697,-0.00096634,-0.00204133,0.000498235,-0.00381154,-0.948447,0.00272235,0.0232997,1938,820,46.1516,-3.43941
721,204,46.1322,4.10931,-0.00189703,-0.00104616,-0.00176309,0.000342098,-0.00328529,-0.903785,0.00231267,0.0231152,1945,820,46.1322,-4.1093
728,204,46.1005,4.75208,-0.00202561,-0.00190569,-0.00198888,2.41324e-05,-0.00395543,-0.800468,0.00264503,0.0137966,1952,820,46.1005,-4.7521
735,204,46.0225,5.47064,-0.00276916,-0.00359683,-0.00281097,-0.000341733,-0.00602426,-0.712313,0.00390725,0.0161567,1959,820,46.0225,-5.47064
742,204,45.9362,6.13464,-0.00428043,-0.00666893,-0.00434739,-0.000966235,-0.00998312,-0.651352,0.00635786,0.0320397,1966,820,45.9361,-6.13462
749,204,45.5778,5.98468,-0.00682832,-0.011959,-0.00700014,-0.00193828,-0.0168491,-0.609761,0.0106456,0.0451715,1973,820,45.5777,-5.98469
756,204,45.1433,6.06427,0,0,0,0,0,0,0,-1,1980,820,45.1433,-6.06426
763,204,46.8104,8.40619,0,0,0,0,0,0,0,-1,1987,820,46.8105,-8.40616
770,204,46.9768,6.83398,0,0,0,0,0,0,0,-1,1994,820,46.9768,-6.83397
777,204,0,0,0,0,0,0,0,0,0,-1,2001,820,0,0
784,204,0,0,0,0,0,0,0,0,0,-1,2008,820,0,0
791,204,0,0,0,0,0,0,0,0,0,-1,2015,820,0,0
798,204,0,0,0,0,0,0,0,0,0,-1,2022,820,0,0
805,204,0,0,0,0,0,0,0,0,0,-1,2029,820,0,0
812,204,0,0,0,0,0,0,0,0,0,-1,2036,820,0,0
-700,197,0,0,0,0,0,0,0,0,0,-1,524,827,0,0
-693,197,0,0,0,0,0,0,0,0,0,-1,531,827,0,0
-686,197,0,0,0,0,0,0,0,0,0,-1,538,827,0,0
-679,197,0,0,0,0,0,0,0,0,0,-1,545,827,0,0
-672,197,0,0,0,0,0,0,0,0,0,-1,552,827,0,0
-665,197,0,0,0,0,0,0,0,0,0,-1,559,827,0,0
-658,197,-39.9774,5.66638,0,0,0,0,0,0,0,-1,566,827,-39.9774,-5.66637
-651,197,-39.9665,5.23578,0,0,0,0,0,0,0,-1,573,827,-39.9665,-5.23575
-644,197,-38.9225,4.75665,0,0,0,0,0,0,0,-1,580,827,-38.9225,-4.75665
-637,197,-39.9199,3.67963,0,0,0,0,0,0,0,-1,587,827,-39.9199,-3.67961
-630,197,-40.4908,2.45648,0,0,0,0,0,0,0,-1,594,827,-40.4908,-2.45649
-623,197,-41.1492,1.51202,0,0,0,0,0,0,0,-1,601,827,-41.1493,-1.51203
-616,197,-33.3801,4.53253,0,0,0,0,0,0,0,-1,608,827,-33.38,-4.53255
-609,197,-33.4044,3.81348,-0.00531116,0.00632822,-0.00101677,0.00641637,-0.00539931,-1.48431,0.00683021,0.0343248,615,827,-33.4044,-3.81347
-602,197,-33.4925,3.1076,-0.00390034,0.00480692,-0.000866463,0.0048923,-0.00398572,-1.47257,0.00513463,0.0185232,622,827,-33.4925,-3.1076
-595,197,-33.5726,2.4574,-0.00268763,0.00356441,-0.000648836,0.00363104,-0.00275426,-1.46847,0.00369812,0.017937,629,827,-33.5726,-2.45737
-588,197,-33.5789,1.73541,-0.00180619,0.00253657,-0.000319265,0.00255991,-0.00182954,-1.4978,0.00254592,0.0203069,636,827,-33.5789,-1.73539
-581,197,-33.6357,1.0163,-0.00128422,0.00166867,0.000182077,0.00167986,-0.0012954,1.50945,0.00172254,0.0120916,643,827,-33.6357,-1.01631
-574,197,-33.6633,0.366882,-0.00107592,0.00113531,0.000625189,0.00129984,-0.00124044,1.31348,0.00146676,0.0127809,650,827,-33.6633,-0.366904
-567,197,-33.5833,-0.307068,-0.00132546,0.000701537,-6.65158e-06,0.000701559,-0.00132548,-1.56751,0.00118865,0.0165888,657,827,-33.5833,0.307093
-560,197,-33.6462,-1.13745,0,0,0,0,0,0,0,-1,664,827,-33.6462,1.13745
-553,197,-33.1771,-1.4881,0,0,0,0,0,0,0,-1,671,827,-33.1771,1.4881
-546,197,-33.0991,-2.06989,0,0,0,0,0,0,0,-1,678,827,-33.0991,2.06991
-539,197,-32.8993,-2.61737,0,0,0,0,0,0,0,-1,685,827,-32.8993,2.61737
-532,197,-16.0519,0.0410156,0,0,0,0,0,0,0,-1,692,827,-16.0519,-0.0410415
-525,197,-35.3785,2.11829,0,0,0,0,0,0,0,-1,699,827,-35.3785,-2.11826
-518,197,-46.3085,1.03381,0,0,0,0,0,0,0,-1,706,827,-46.3085,-1.03382
-511,197,-46.4413,0.862,0.00135815,0.00284557,-0.0030148,0.00520704,-0.00100331,-0.906327,0.00384962,0.0431938,713,827,-46.4413,-0.861997
-504,197,-46.5429,0.769104,0.00252078,0.0036544,-0.00287063,0.00601364,0.000161537,-0.88287,0.00395635,0.0392412,720,827,-46.5429,-0.769119
-497,197,-46.5402,0.904297,0.00445852,0.00447301,-0.00284885,0.00731462,0.00161691,-0.78667,0.00443676,0.0386854,727,827,-46.5402,-0.904312
-490,197,-46.5093,0.870728,0.00661896,0.00530108,-0.00273026,0.00876868,0.00315136,-0.666989,0.00512889,0.037122,734,827,-46.5093,-0.870707
-483,197,-46.325,0.872925,0.00852264,0.00460333,-0.00185928,0.00926431,0.00386166,-0.37956,0.00537336,0.0404353,741,827,-46.325,-0.872904
-476,197,0,0,0,0,0,0,0,0,0,-1,748,827,0,0
-469,197,0,0,0,0,0,0,0,0,0,-1,755,827,0,0
-462,197,0,0,0,0,0,0,0,0,0,-1,762,827,0,0
-455,197,0,0,0,0,0,0,0,0,0,-1,769,827,0,0
-448,197,0,0,0,0,0,0,0,0,0,-1,776,827,0,0
-441,197,0,0,0,0,0,0,0,0,0,-1,783,827,0,0
-434,197,0,0,0,0,0,0,0,0,0,-1,790,827,0,0
-427,197,0,0,0,0,0,0,0,0,0,-1,797,827,0,0
-420,197,0,0,0,0,0,0,0,0,0,-1,804,827,0,0
-413,197,0,0,0,0,0,0,0,0,0,-1,811,827,0,0
-406,197,0,0,0,0,0,0,0,0,0,-1,818,827,0,0
-399,197,0,0,0,0,0,0,0,0,0,-1,825,827,0,0
-392,197,0,0,0,0,0,0,0,0,0,-1,832,827,0,0
-385,197,0,0,0,0,0,0,0,0,0,-1,839,827,0,0
-378,197,0,0,0,0,0,0,0,0,0,-1,846,827,0,0
-371,197,0,0,0,0,0,0,0,0,0,-1,853,827,0,0
-364,197,0,0,0,0,0,0,0,0,0,-1,860,827,0,0
-357,197,0,0,0,0,0,0,0,0,0,-1,867,827,0,0
-350,197,0,0,0,0,0,0,0,0,0,-1,874,827,0,0
-343,197,0,0,0,0,0,0,0,0,0,-1,881,827,0,0
-336,197,0,0,0,0,0,0,0,0,0,-1,888,827,0,0
-329,197,0,0,0,0,0,0,0,0,0,-1,895,827,0,0
-322,197,0,0,0,0,0,0,0,0,0,-1,902,827,0,0
-315,197,0,0,0,0,0,0,0,0,0,-1,909,827,0,0
-308,197,0,0,0,0,0,0,0,0,0,-1,916,827,0,0
-301,197,0,0,0,0,0,0,0,0,0,-1,923,827,0,0
-294,197,0,0,0,0,0,0,0,0,0,-1,930,827,0,0
-287,197,0,0,0,0,0,0,0,0,0,-1,937,827,0,0
-280,197,0,0,0,0,0,0,0,0,0,-1,944,827,0,0
-273,197,0,0,0,0,0,0,0,0,0,-1,951,827,0,0
-266,197,0,0,0,0,0,0,0,0,0,-1,958,827,0,0
-259,197,0,0,0,0,0,0,0,0,0,-1,965,827,0,0
-252,197,0,0,0,0,0,0,0,0,0,-1,972,827,0,0
-245,197,0,0,0,0,0,0,0,0,0,-1,979,827,0,0
-238,197,0,0,0,0,0,0,0,0,0,-1,986,827,0,0
-231,197,0,0,0,0,0,0,0,0,0,-1,993,827,0,0
-224,197,0,0,0,0,0,0,0,0,0,-1,1000,827,0,0
-217,197,0,0,0,0,0,0,0,0,0,-1,1007,827,0,0
-210,197,0,0,0,0,0,0,0,0,0,-1,1014,827,0,0
-203,197,0,0,0,0,0,0,0,0,0,-1,1021,827,0,0
-196,197,0,0,0,0,0,0,0,0,0,-1,1028,827,0,0
-189,197,0,0,0,0,0,0,0,0,0,-1,1035,827,0,0
-182,197,0,0,0,0,0,0,0,0,0,-1,1042,827,0,0
-175,197,0,0,0,0,0,0,0,0,0,-1,1049,827,0,0
-168,197,0,0,0,0,0,0,0,0,0,-1,1056,827,0,0
-161,197,0,0,0,0,0,0,0,0,0,-1,1063,827,0,0
-154,197,0,0,0,0,0,0,0,0,0,-1,1070,827,0,0
-147,197,0,0,0,0,0,0,0,0,0,-1,1077,827,0,0
-140,197,0,0,0,0,0,0,0,0,0,-1,1084,827,0,0
-133,197,0,0,0,0,0,0,0,0,0,-1,1091,827,0,0
-126,197,0,0,0,0,0,0,0,0,0,-1,1098,827,0,0
-119,197,0,0,0,0,0,0,0,0,0,-1,1105,827,0,0
-112,197,0,0,0,0,0,0,0,0,0,-1,1112,827,0,0
-105,197,0,0,0,0,0,0,0,0,0,-1,1119,827,0,0
-98,197,0,0,0,0,0,0,0,0,0,-1,1126,827,0,0
-91,197,0,0,0,0,0,0,0,0,0,-1,1133,827,0,0
-84,197,0,0,0,0,0,0,0,0,0,-1,1140,827,0,0
-77,197,0,0,0,0,0,0,0,0,0,-1,1147,827,0,0
-70,197,0,0,0,0,0,0,0,0,0,-1,1154,827,0,0
-63,197,0,0,0,0,0,0,0,0,0,-1,1161,827,0,0
-56,197,0,0,0,0,0,0,0,0,0,-1,1168,827,0,0
-49,197,0,0,0,0,0,0,0,0,0,-1,1175,827,0,0
-42,197,0,0,0,0,0,0,0,0,0,-1,1182,827,0,0
-35,197,0,0,0,0,0,0,0,0,0,-1,1189,827,0,0
-28,197,0,0,0,0,0,0,0,0,0,-1,1196,827,0,0
-21,197,0,0,0,0,0,0,0,0,0,-1,1203,827,0,0
-14,197,0,0,0,0,0,0,0,0,0,-1,1210,827,0,0
-7,197,0,0,0,0,0,0,0,0,0,-1,1217,827,0,0
0,197,0,0,0,0,0,0,0,0,0,-1,1224,827,0,0
7,197,0,0,0,0,0,0,0,0,0,-1,1231,827,0,0
14,197,0,0,0,0,0,0,0,0,0,-1,1238,827,0,0
21,197,0,0,0,0,0,0,0,0,0,-1,1245,827,0,0
28,197,0,0,0,0,0,0,0,0,0,-1,1252,827,0,0
35,197,0,0,0,0,0,0,0,0,0,-1,1259,827,0,0
42,197,0,0,0,0,0,0,0,0,0,-1,1266,827,0,0
49,197,0,0,0,0,0,0,0,0,0,-1,1273,827,0,0
56,197,0,0,0,0,0,0,0,0,0,-1,1280,827,0,0
63,197,0,0,0,0,0,0,0,0,0,-1,1287,827,0,0
70,197,0,0,0,0,0,0,0,0,0,-1,1294,827,0,0
77,197,0,0,0,0,0,0,0,0,0,-1,1301,827,0,0
84,197,0,0,0,0,0,0,0,0,0,-1,1308,827,0,0
91,197,0,0,0,0,0,0,0,0,0,-1,1315,827,0,0
98,197,0,0,0,0,0,0,0,0,0,-1,1322,827,0,0
105,197,0,0,0,0,0,0,0,0,0,-1,1329,827,0,0
112,197,0,0,0,0,0,0,0,0,0,-1,1336,827,0,0
119,197,0,0,0,0,0,0,0,0,0,-1,1343,827,0,0
126,197,0,0,0,0,0,0,0,0,0,-1,1350,827,0,0
133,197,0,0,0,0,0,0,0,0,0,-1,1357,827,0,0
140,197,0,0,0,0,0,0,0,0,0,-1,1364,827,0,0
147,197,0,0,0,0,0,0,0,0,0,-1,1371,827,0,0
154,197,0,0,0,0,0,0,0,0,0,-1,1378,827,0,0
161,197,0,0,0,0,0,0,0,0,0,-1,1385,827,0,0
168,197,0,0,0,0,0,0,0,0,0,-1,1392,827,0,0
175,197,0,0,0,0,0,0,0,0,0,-1,1399,827,0,0
182,197,0,0,0,0,0,0,0,0,0,-1,1406,827,0,0
189,197,0,0,0,0,0,0,0,0,0,-1,1413,827,0,0
196,197,0,0,0,0,0,0,0,0,0,-1,1420,827,0,0
203,197,0,0,0,0,0,0,0,0,0,-1,1427,827,0,0
210,197,0,0,0,0,0,0,0,0,0,-1,1434,827,0,0
217,197,0,0,0,0,0,0,0,0,0,-1,1441,827,0,0
224,197,0,0,0,0,0,0,0,0,0,-1,1448,827,0,0
231,197,0,0,0,0,0,0,0,0,0,-1,1455,827,0,0
238,197,0,0,0,0,0,0,0,0,0,-1,1462,827,0,0
245,197,0,0,0,0,0,0,0,0,0,-1,1469,827,0,0
252,197,0,0,0,0,0,0,0,0,0,-1,1476,827,0,0
259,197,0,0,0,0,0,0,0,0,0,-1,1483,827,0,0
266,197,0,0,0,0,0,0,0,0,0,-1,1490,827,0,0
273,197,0,0,0,0,0,0,0,0,0,-1,1497,827,0,0
280,197,0,0,0,0,0,0,0,0,0,-1,1504,827,0,0
287,197,0,0,0,0,0,0,0,0,0,-1,1511,827,0,0
294,197,0,0,0,0,0,0,0,0,0,-1,1518,827,0,0
301,197,0,0,0,0,0,0,0,0,0,-1,1525,827,0,0
308,197,0,0,0,0,0,0,0,0,0,-1,1532,827,0,0
315,197,0,0,0,0,0,0,0,0,0,-1,1539,827,0,0
322,197,0,0,0,0,0,0,0,0,0,-1,1546,827,0,0
329,197,0,0,0,0,0,0,0,0,0,-1,1553,827,0,0
336,197,0,0,0,0,0,0,0,0,0,-1,1560,827,0,0
343,197,0,0,0,0,0,0,0,0,0,-1,1567,827,0,0
350,197,0,0,0,0,0,0,0,0,0,-1,1574,827,0,0
357,197,0,0,0,0,0,0,0,0,0,-1,1581,827,0,0
364,197,0,0,0,0,0,0,0,0,0,-1,1588,827,0,0
371,197,0,0,0,0,0,0,0,0,0,-1,1595,827,0,0
378,197,0,0,0,0,0,0,0,0,0,-1,1602,827,0,0
385,197,0,0,0,0,0,0,0,0,0,-1,1609,827,0,0
392,197,0,0,0,0,0,0,0,0,0,-1,1616,827,0,0
399,197,0,0,0,0,0,0,0,0,0,-1,1623,827,0,0
406,197,0,0,0,0,0,0,0,0,0,-1,1630,827,0,0
413,197,0,0,0,0,0,0,0,0,0,-1,1637,827,0,0
420,197,0,0,0,0,0,0,0,0,0,-1,1644,827,0,0
427,197,0,0,0,0,0,0,0,0,0,-1,1651,827,0,0
434,197,0,0,0,0,0,0,0,0,0,-1,1658,827,0,0
441,197,0,0,0,0,0,0,0,0,0,-1,1665,827,0,0
448,197,0,0,0,0,0,0,0,0,0,-1,1672,827,0,0
455,197,0,0,0,0,0,0,0,0,0,-1,1679,827,0,0
462,197,0,0,0,0,0,0,0,0,0,-1,1686,827,0,0
469,197,0,0,0,0,0,0,0,0,0,-1,1693,827,0,0
476,197,0,0,0,0,0,0,0,0,0,-1,1700,827,0,0
483,197,0,0,0,0,0,0,0,0,0,-1,1707,827,0,0
490,197,0,0,0,0,0,0,0,0,0,-1,1714,827,0,0
497,197,0,0,0,0,0,0,0,0,0,-1,1721,827,0,0
504,197,0,0,0,0,0,0,0,0,0,-1,1728,827,0,0
511,197,0,0,0,0,0,0,0,0,0,-1,1735,827,0,0
518,197,0,0,0,0,0,0,0,0,0,-1,1742,827,0,0
525,197,0,0,0,0,0,0,0,0,0,-1,1749,827,0,0
532,197,0,0,0,0,0,0,0,0,0,-1,1756,827,0,0
539,197,0,0,0,0,0,0,0,0,0,-1,1763,827,0,0
546,197,0,0,0,0,0,0,0,0,0,-1,1770,827,0,0
553,197,0,0,0,0,0,0,0,0,0,-1,1777,827,0,0
560,197,0,0,0,0,0,0,0,0,0,-1,1784,827,0,0
567,197,0,0,0,0,0,0,0,0,0,-1,1791,827,0,0
574,197,0,0,0,0,0,0,0,0,0,-1,1798,827,0,0
581,197,0,0,0,0,0,0,0,0,0,-1,1805,827,0,0
588,197,0,0,0,0,0,0,0,0,0,-1,1812,827,0,0
595,197,0,0,0,0,0,0,0,0,0,-1,1819,827,0,0
602,197,60.9189,2.74609,0.00760064,-0.00213873,-0.00610239,0.0105382,-0.00507628,-0.448639,0.00919703,0.0409381,1826,827,60.919,-2.74612
609,197,60.8472,2.83374,0.00574049,0.000259528,-0.00344738,0.00740395,-0.00140393,-0.449572,0.0054644,0.0404692,1833,827,60.8471,-2.83376
616,197,60.996,2.65375,0.00395969,0.00230238,-0.00104118,0.00446172,0.00180035,-0.449287,0.00259191,0.0396235,1840,827,60.996,-2.65377
623,197,61.0707,2.56,0.00185731,0.00280307,6.17296e-05,0.00280709,0.0018533,1.50589,0.00164817,0.0364279,1847,827,61.0707,-2.56002
630,197,61.0444,2.62665,-0.000199647,0.00248859,0.000103714,0.00249259,-0.000203642,1.53229,0.0017336,0.0319559,1854,827,61.0445,-2.62666
637,197,60.998,2.68585,-0.00171764,0.00180195,-0.0003049,0.00182817,-0.00174386,-1.48502,0.0020625,0.0299855,1861,827,60.9981,-2.68583
644,197,60.936,2.71057,-0.00271974,0.00103571,-0.000709062,0.00116513,-0.00284916,-1.39026,0.00238466,0.0356939,1868,827,60.936,-2.7106
651,197,60.8488,2.79413,0,0,0,0,0,0,0,-1,1875,827,60.8488,-2.79413
658,197,40.4694,3.05927,0,0,0,0,0,0,0,-1,1882,827,40.4694,-3.05926
665,197,14.0618,1.80304,0,0,0,0,0,0,0,-1,1889,827,14.0617,-1.80303
672,197,47.4735,-1.26709,0,0,0,0,0,0,0,-1,1896,827,47.4735,1.26706
679,197,47.2153,-0.200745,0,0,0,0,0,0,0,-1,1903,827,47.2153,0.200738
686,197,47.0604,0.609985,-0.00581202,-0.00228947,-0.00291871,-0.000641788,-0.0074597,-1.05687,0.00477361,0.0309975,1910,827,47.0605,-0.609998
693,197,46.9104,1.38257,-0.00523691,-0.00252707,-0.00338521,-0.0002357,-0.00752829,-0.975758,0.00494216,0.0259187,1917,827,46.9104,-1.38259
700,197,46.8879,1.97626,-0.0044576,-0.00229414,-0.00339426,0.000186594,-0.00693833,-0.939657,0.00468899,0.024594,1924,827,46.888,-1.97626
707,197,46.8954,2.71381,-0.00372039,-0.00181451,-0.00293105,0.000314625,-0.00584952,-0.942568,0.00400867,0.00921062,1931,827,46.8954,-2.71384
714,197,46.8739,3.396,-0.00292459,-0.00137886,-0.00241673,0.000385581,-0.00468903,-0.940158,0.00326215,0.0120304,1938,827,46.8739,-3.39601
721,197,46.8423,4.07092,-0.00228503,-0.00127104,-0.00208192,0.000364724,-0.0039208,-0.904835,0.00274353,0.0134155,1945,827,46.8423,-4.07089
728,197,46.7889,4.78479,-0.0021033,-0.0018249,-0.00217784,0.000218189,-0.00414638,-0.817313,0.00283978,0.0113181,1952,827,46.7889,-4.78478
735,197,46.7369,5.50793,-0.00240432,-0.00305224,-0.00277873,6.92639e-05,-0.00552583,-0.727367,0.00370719,0.0117722,1959,827,46.737,-5.50791
742,197,46.66,6.24261,-0.0032423,-0.00528941,-0.00396974,-0.000166283,-0.00836542,-0.659227,0.00552235,0.0217549,1966,827,46.66,-6.2426
749,197,46.5587,7.01849,-0.00478748,-0.00911885,-0.00602081,-0.000554699,-0.0133516,-0.612753,0.00872206,0.0456453,1973,827,46.5587,-7.01852
756,197,46.4678,7.79327,0,0,0,0,0,0,0,-1,1980,827,46.4678,-7.7933
763,197,47.5629,8.78076,0,0,0,0,0,0,0,-1,1987,827,47.5629,-8.78079
770,197,47.9403,9.42865,0,0,0,0,0,0,0,-1,1994,827,47.9403,-9.42866
777,197,0,0,0,0,0,0,0,0,0,-1,2001,827,0,0
784,197,0,0,0,0,0,0,0,0,0,-1,2008,827,0,0
791,197,0,0,0,0,0,0,0,0,0,-1,2015,827,0,0
798,197,0,0,0,0,0,0,0,0,0,-1,2022,827,0,0
805,197,0,0,0,0,0,0,0,0,0,-1,2029,827,0,0
812,197,0,0,0,0,0,0,0,0,0,-1,2036,827,0,0
-700,190,0,0,0,0,0,0,0,0,0,-1,524,834,0,0
-693,190,0,0,0,0,0,0,0,0,0,-1,531,834,0,0
-686,190,0,0,0,0,0,0,0,0,0,-1,538,834,0,0
-679,190,0,0,0,0,0,0,0,0,0,-1,545,834,0,0
-672,190,0,0,0,0,0,0,0,0,0,-1,552,834,0,0
-665,190,0,0,0,0,0,0,0,0,0,-1,559,834,0,0
-658,190,-41.1679,5.51379,0,0,0,0,0,0,0,-1,566,834,-41.1679,-5.51377
-651,190,-40.1895,4.99677,0,0,0,0,0,0,0,-1,573,834,-40.1894,-4.99677
-644,190,-39.1886,4.41058,0,0,0,0,0,0,0,-1,580,834,-39.1886,-4.4106
-637,190,-37.7112,3.70337,0,0,0,0,0,0,0,-1,587,834,-37.7112,-3.70338
-630,190,-33.1392,6.48315,0,0,0,0,0,0,0,-1,594,834,-33.1392,-6.48314
-623,190,-33.8597,5.18176,0,0,0,0,0,0,0,-1,601,834,-33.8597,-5.18179
-616,190,-33.9877,4.47345,-0.00634811,0.00788569,-0.000779083,0.00792821,-0.00639063,-1.51628,0.00828286,0.0477108,608,834,-33.9876,-4.47346
-609,190,-34.1064,3.77063,-0.00518017,0.0061069,-0.000616589,0.00614048,-0.00521376,-1.51638,0.00656265,0.026487,615,834,-34.1064,-3.77061
-602,190,-34.1913,3.14008,-0.00400702,0.00455358,-0.000401587,0.00457238,-0.00402582,-1.52402,0.00496751,0.0173224,622,834,-34.1914,-3.14007
-595,190,-34.2643,2.4906,-0.00301284,0.00327386,-0.000120799,0.00327618,-0.00301516,-1.55159,0.00363335,0.0192626,629,834,-34.2644,-2.49058
-588,190,-34.3004,1.75946,-0.00229348,0.00212882,0.000256421,0.00214364,-0.00230829,1.51307,0.00257091,0.0192277,636,834,-34.3004,-1.75945
-581,190,-34.3282,1.06281,-0.00184524,0.00127528,0.000750172,0.00144625,-0.00201622,1.34671,0.00200807,0.0141737,643,834,-34.3282,-1.06283
-574,190,-34.3239,0.384583,-0.00162382,0.000983015,0.00108153,0.00137329,-0.0020141,1.22448,0.00196734,0.0128636,650,834,-34.3239,-0.384586
-567,190,-34.186,-0.401611,-0.00180422,0.000732338,0.000220945,0.00075144,-0.00182332,1.48456,0.00152888,0.0280342,657,834,-34.186,0.401627
-560,190,-33.9915,-1.23676,0,0,0,0,0,0,0,-1,664,834,-33.9915,1.23674
-553,190,-33.9625,-1.6355,0,0,0,0,0,0,0,-1,671,834,-33.9625,1.63552
-546,190,-33.7621,-2.04889,0,0,0,0,0,0,0,-1,678,834,-33.7621,2.04886
-539,190,-16.4624,-0.542542,0,0,0,0,0,0,0,-1,685,834,-16.4624,0.542527
-532,190,-21.6292,2.06122,0,0,0,0,0,0,0,-1,692,834,-21.6292,-2.06123
-525,190,-38.9377,1.03369,0,0,0,0,0,0,0,-1,699,834,-38.9377,-1.0337
-518,190,-46.342,0.969116,0,0,0,0,0,0,0,-1,706,834,-46.342,-0.969099
-511,190,-46.3842,0.829041,0.00122385,0.00280214,-0.00355397,0.00565352,-0.00162753,-0.894649,0.00441273,0.0407828,713,834,-46.3841,-0.829056
-504,190,-46.4213,0.784424,0.00276002,0.00336962,-0.0034293,0.00650764,-0.000378002,-0.829722,0.00446976,0.0403494,720,834,-46.4213,-0.78443
-497,190,-46.4606,0.72583,0.00537868,0.00361459,-0.00322744,0.00784243,0.00115083,-0.652008,0.00489003,0.0422593,727,834,-46.4606,-0.725854
-490,190,-46.4468,0.744995,0.00845195,0.0036162,-0.00256066,0.00955588,0.00251227,-0.407035,0.00572012,0.040255,734,834,-46.4468,-0.745013
-483,190,0,0,0,0,0,0,0,0,0,-1,741,834,0,0
-476,190,0,0,0,0,0,0,0,0,0,-1,748,834,0,0
-469,190,0,0,0,0,0,0,0,0,0,-1,755,834,0,0
-462,190,0,0,0,0,0,0,0,0,0,-1,762,834,0,0
-455,190,0,0,0,0,0,0,0,0,0,-1,769,834,0,0
-448,190,0,0,0,0,0,0,0,0,0,-1,776,834,0,0
-441,190,0,0,0,0,0,0,0,0,0,-1,783,834,0,0
-434,190,0,0,0,0,0,0,0,0,0,-1,790,834,0,0
-427,190,0,0,0,0,0,0,0,0,0,-1,797,834,0,0
-420,190,0,0,0,0,0,0,0,0,0,-1,804,834,0,0
-413,190,0,0,0,0,0,0,0,0,0,-1,811,834,0,0
-406,190,0,0,0,0,0,0,0,0,0,-1,818,834,0,0
-399,190,0,0,0,0,0,0,0,0,0,-1,825,834,0,0
-392,190,0,0,0,0,0,0,0,0,0,-1,832,834,0,0
-385,190,0,0,0,0,0,0,0,0,0,-1,839,834,0,0
-378,190,0,0,0,0,0,0,0,0,0,-1,846,834,0,0
-371,190,0,0,0,0,0,0,0,0,0,-1,853,834,0,0
-364,190,0,0,0,0,0,0,0,0,0,-1,860,834,0,0
-357,190,0,0,0,0,0,0,0,0,0,-1,867,834,0,0
-350,190,0,0,0,0,0,0,0,0,0,-1,874,834,0,0
-343,190,0,0,0,0,0,0,0,0,0,-1,881,834,0,0
-336,190,0,0,0,0,0,0,0,0,0,-1,888,834,0,0
-329,190,0,0,0,0,0,0,0,0,0,-1,895,834,0,0
-322,190,0,0,0,0,0,0,0,0,0,-1,902,834,0,0
-315,190,0,0,0,0,0,0,0,0,0,-1,909,834,0,0
-308,190,0,0,0,0,0,0,0,0,0,-1,916,834,0,0
-301,190,0,0,0,0,0,0,0,0,0,-1,923,834,0,0
-294,190,0,0,0,0,0,0,0,0,0,-1,930,834,0,0
-287,190,0,0,0,0,0,0,0,0,0,-1,937,834,0,0
-280,190,0,0,0,0,0,0,0,0,0,-1,944,834,0,0
-273,190,0,0,0,0,0,0,0,0,0,-1,951,834,0,0
-266,190,0,0,0,0,0,0,0,0,0,-1,958,834,0,0
-259,190,0,0,0,0,0,0,0,0,0,-1,965,834,0,0
-252,190,0,0,0,0,0,0,0,0,0,-1,972,834,0,0
-245,190,0,0,0,0,0,0,0,0,0,-1,979,834,0,0
-238,190,0,0,0,0,0,0,0,0,0,-1,986,834,0,0
-231,190,0,0,0,0,0,0,0,0,0,-1,993,834,0,0
-224,190,0,0,0,0,0,0,0,0,0,-1,1000,834,0,0
-217,190,0,0,0,0,0,0,0,0,0,-1,1007,834,0,0
-210,190,0,0,0,0,0,0,0,0,0,-1,1014,834,0,0
-203,190,0,0,0,0,0,0,0,0,0,-1,1021,834,0,0
-196,190,0,0,0,0,0,0,0,0,0,-1,1028,834,0,0
-189,190,0,0,0,0,0,0,0,0,0,-1,1035,834,0,0
-182,190,0,0,0,0,0,0,0,0,0,-1,1042,834,0,0
-175,190,0,0,0,0,0,0,0,0,0,-1,1049,834,0,0
-168,190,0,0,0,0,0,0,0,0,0,-1,1056,834,0,0
-161,190,0,0,0,0,0,0,0,0,0,-1,1063,834,0,0
-154,190,0,0,0,0,0,0,0,0,0,-1,1070,834,0,0
-147,190,0,0,0,0,0,0,0,0,0,-1,1077,834,0,0
-140,190,0,0,0,0,0,0,0,0,0,-1,1084,834,0,0
-133,190,0,0,0,0,0,0,0,0,0,-1,1091,834,0,0
-126,190,0,0,0,0,0,0,0,0,0,-1,1098,834,0,0
-119,190,0,0,0,0,0,0,0,0,0,-1,1105,834,0,0
-112,190,0,0,0,0,0,0,0,0,0,-1,1112,834,0,0
-105,190,0,0,0,0,0,0,0,0,0,-1,1119,834,0,0
-98,190,0,0,0,0,0,0,0,0,0,-1,1126,834,0,0
-91,190,0,0,0,0,0,0,0,0,0,-1,1133,834,0,0
-84,190,0,0,0,0,0,0,0,0,0,-1,1140,834,0,0
-77,190,0,0,0,0,0,0,0,0,0,-1,1147,834,0,0
-70,190,0,0,0,0,0,0,0,0,0,-1,1154,834,0,0
-63,190,0,0,0,0,0,0,0,0,0,-1,1161,834,0,0
-56,190,0,0,0,0,0,0,0,0,0,-1,1168,834,0,0
-49,190,0,0,0,0,0,0,0,0,0,-1,1175,834,0,0
-42,190,0,0,0,0,0,0,0,0,0,-1,1182,834,0,0
-35,190,0,0,0,0,0,0,0,0,0,-1,1189,834,0,0
-28,190,0,0,0,0,0,0,0,0,0,-1,1196,834,0,0
-21,190,0,0,0,0,0,0,0,0,0,-1,1203,834,0,0
-14,190,0,0,0,0,0,0,0,0,0,-1,1210,834,0,0
-7,190,0,0,0,0,0,0,0,0,0,-1,1217,834,0,0
0,190,0,0,0,0,0,0,0,0,0,-1,1224,834,0,0
7,190,0,0,0,0,0,0,0,0,0,-1,1231,834,0,0
14,190,0,0,0,0,0,0,0,0,0,-1,1238,834,0,0
21,190,0,0,0,0,0,0,0,0,0,-1,1245,834,0,0
28,190,0,0,0,0,0,0,0,0,0,-1,1252,834,0,0
35,190,0,0,0,0,0,0,0,0,0,-1,1259,834,0,0
42,190,0,0,0,0,0,0,0,0,0,-1,1266,834,0,0
49,190,0,0,0,0,0,0,0,0,0,-1,1273,834,0,0
56,190,0,0,0,0,0,0,0,0,0,-1,1280,834,0,0
63,190,0,0,0,0,0,0,0,0,0,-1,1287,834,0,0
70,190,0,0,0,0,0,0,0,0,0,-1,1294,834,0,0
77,190,0,0,0,0,0,0,0,0,0,-1,1301,834,0,0
84,190,0,0,0,0,0,0,0,0,0,-1,1308,834,0,0
91,190,0,0,0,0,0,0,0,0,0,-1,1315,834,0,0
98,190,0,0,0,0,0,0,0,0,0,-1,1322,834,0,0
105,190,0,0,0,0,0,0,0,0,0,-1,1329,834,0,0
112,190,0,0,0,0,0,0,0,0,0,-1,1336,834,0,0
119,190,0,0,0,0,0,0,0,0,0,-1,1343,834,0,0
126,190,0,0,0,0,0,0,0,0,0,-1,1350,834,0,0
133,190,0,0,0,0,0,0,0,0,0,-1,1357,834,0,0
140,190,0,0,0,0,0,0,0,0,0,-1,1364,834,0,0
147,190,0,0,0,0,0,0,0,0,0,-1,1371,834,0,0
154,190,0,0,0,0,0,0,0,0,0,-1,1378,834,0,0
161,190,0,0,0,0,0,0,0,0,0,-1,1385,834,0,0
168,190,0,0,0,0,0,0,0,0,0,-1,1392,834,0,0
175,190,0,0,0,0,0,0,0,0,0,-1,1399,834,0,0
182,190,0,0,0,0,0,0,0,0,0,-1,1406,834,0,0
189,190,0,0,0,0,0,0,0,0,0,-1,1413,834,0,0
196,190,0,0,0,0,0,0,0,0,0,-1,1420,834,0,0
203,190,0,0,0,0,0,0,0,0,0,-1,1427,834,0,0
210,190,0,0,0,0,0,0,0,0,0,-1,1434,834,0,0
217,190,0,0,0,0,0,0,0,0,0,-1,1441,834,0,0
224,190,0,0,0,0,0,0,0,0,0,-1,1448,834,0,0
231,190,0,0,0,0,0,0,0,0,0,-1,1455,834,0,0
238,190,0,0,0,0,0,0,0,0,0,-1,1462,834,0,0
245,190,0,0,0,0,0,0,0,0,0,-1,1469,834,0,0
252,190,0,0,0,0,0,0,0,0,0,-1,1476,834,0,0
259,190,0,0,0,0,0,0,0,0,0,-1,1483,834,0,0
266,190,0,0,0,0,0,0,0,0,0,-1,1490,834,0,0
273,190,0,0,0,0,0,0,0,0,0,-1,1497,834,0,0
280,190,0,0,0,0,0,0,0,0,0,-1,1504,834,0,0
287,190,0,0,0,0,0,0,0,0,0,-1,1511,834,0,0
294,190,0,0,0,0,0,0,0,0,0,-1,1518,834,0,0
301,190,0,0,0,0,0,0,0,0,0,-1,1525,834,0,0
308,190,0,0,0,0,0,0,0,0,0,-1,1532,834,0,0
315,190,0,0,0,0,0,0,0,0,0,-1,1539,834,0,0
322,190,0,0,0,0,0,0,0,0,0,-1,1546,834,0,0
329,190,0,0,0,0,0,0,0,0,0,-1,1553,834,0,0
336,190,0,0,0,0,0,0,0,0,0,-1,1560,834,0,0
343,190,0,0,0,0,0,0,0,0,0,-1,1567,834,0,0
350,190,0,0,0,0,0,0,0,0,0,-1,1574,834,0,0
357,190,0,0,0,0,0,0,0,0,0,-1,1581,834,0,0
364,190,0,0,0,0,0,0,0,0,0,-1,1588,834,0,0
371,190,0,0,0,0,0,0,0,0,0,-1,1595,834,0,0
378,190,0,0,0,0,0,0,0,0,0,-1,1602,834,0,0
385,190,0,0,0,0,0,0,0,0,0,-1,1609,834,0,0
392,190,0,0,0,0,0,0,0,0,0,-1,1616,834,0,0
399,190,0,0,0,0,0,0,0,0,0,-1,1623,834,0,0
406,190,0,0,0,0,0,0,0,0,0,-1,1630,834,0,0
413,190,0,0,0,0,0,0,0,0,0,-1,1637,834,0,0
420,190,0,0,0,0,0,0,0,0,0,-1,1644,834,0,0
427,190,0,0,0,0,0,0,0,0,0,-1,1651,834,0,0
434,190,0,0,0,0,0,0,0,0,0,-1,1658,834,0,0
441,190,0,0,0,0,0,0,0,0,0,-1,1665,834,0,0
448,190,0,0,0,0,0,0,0,0,0,-1,1672,834,0,0
455,190,0,0,0,0,0,0,0,0,0,-1,1679,834,0,0
462,190,0,0,0,0,0,0,0,0,0,-1,1686,834,0,0
469,190,0,0,0,0,0,0,0,0,0,-1,1693,834,0,0
476,190,0,0,0,0,0,0,0,0,0,-1,1700,834,0,0
483,190,0,0,0,0,0,0,0,0,0,-1,1707,834,0,0
490,190,0,0,0,0,0,0,0,0,0,-1,1714,834,0,0
497,190,0,0,0,0,0,0,0,0,0,-1,1721,834,0,0
504,190,0,0,0,0,0,0,0,0,0,-1,1728,834,0,0
511,190,0,0,0,0,0,0,0,0,0,-1,1735,834,0,0
518,190,0,0,0,0,0,0,0,0,0,-1,1742,834,0,0
525,190,0,0,0,0,0,0,0,0,0,-1,1749,834,0,0
532,190,0,0,0,0,0,0,0,0,0,-1,1756,834,0,0
539,190,0,0,0,0,0,0,0,0,0,-1,1763,834,0,0
546,190,0,0,0,0,0,0,0,0,0,-1,1770,834,0,0
553,190,0,0,0,0,0,0,0,0,0,-1,1777,834,0,0
560,190,0,0,0,0,0,0,0,0,0,-1,1784,834,0,0
567,190,0,0,0,0,0,0,0,0,0,-1,1791,834,0,0
574,190,0,0,0,0,0,0,0,0,0,-1,1798,834,0,0
581,190,0,0,0,0,0,0,0,0,0,-1,1805,834,0,0
588,190,0,0,0,0,0,0,0,0,0,-1,1812,834,0,0
595,190,0,0,0,0,0,0,0,0,0,-1,1819,834,0,0
602,190,60.8083,2.81494,0.00856177,-0.00284486,-0.00689564,0.0118071,-0.00609015,-0.439877,0.0105072,0.043177,1826,834,60.8083,-2.81495
609,190,60.7878,2.75104,0.00683451,-0.000794392,-0.00426812,0.0087443,-0.00270418,-0.420734,0.00690962,0.0408733,1833,834,60.7879,-2.75101
616,190,60.9917,2.59503,0.00502168,0.00127429,-0.00177661,0.00573005,0.000565915,-0.379404,0.00364606,0.0398269,1840,834,60.9917,-2.59502
623,190,61.0785,2.74274,0.00266618,0.00211076,-0.000298822,0.00279641,0.00198053,-0.411,0.00166053,0.0385924,1847,834,61.0785,-2.74273
630,190,61.1552,2.60052,0.000215053,0.00211749,0.000100364,0.00212277,0.000209773,1.51824,0.0013507,0.0407373,1854,834,61.1552,-2.60054
637,190,61.0579,2.5993,-0.00162886,0.00153314,-0.000168703,0.00154212,-0.00163783,-1.51764,0.00183622,0.0350763,1861,834,61.0578,-2.59932
644,190,60.9548,2.69708,-0.00278424,0.000776629,-0.000576383,0.000867601,-0.00287521,-1.41425,0.00226216,0.0281538,1868,834,60.9549,-2.69708
651,190,60.9031,2.88849,0,0,0,0,0,0,0,-1,1875,834,60.9031,-2.88849
658,190,54.0599,3.0943,0,0,0,0,0,0,0,-1,1882,834,54.0599,-3.09428
665,190,25.9916,3.05157,0,0,0,0,0,0,0,-1,1889,834,25.9916,-3.05156
672,190,27.2662,1.70862,0,0,0,0,0,0,0,-1,1896,834,27.2662,-1.70861
679,190,47.8015,0.0756836,0,0,0,0,0,0,0,-1,1903,834,47.8015,-0.0757033
686,190,47.7535,0.719177,-0.00568862,-0.00203203,-0.00274815,-0.000559573,-0.00716108,-1.07892,0.00459889,0.0285787,1910,834,47.7535,-0.719164
693,190,47.7701,1.39783,-0.00522493,-0.00227693,-0.00330735,-0.000129993,-0.00737187,-0.995024,0.00487183,0.0288503,1917,834,47.7701,-1.3978
700,190,47.5828,2.04791,-0.00460671,-0.00217751,-0.00347777,0.000291655,-0.00707588,-0.9534,0.00481742,0.0176592,1924,834,47.5828,-2.04789
707,190,47.597,2.74048,-0.0040093,-0.00184621,-0.003145,0.00039802,-0.00625353,-0.951011,0.00430782,0.0133898,1931,834,47.597,-2.74049
714,190,47.5935,3.40509,-0.00319788,-0.00145664,-0.00266635,0.000477634,-0.00513215,-0.943201,0.00359125,0.0125842,1938,834,47.5935,-3.40511
721,190,47.5461,4.08795,-0.00242551,-0.00126982,-0.00230661,0.000530223,-0.00422555,-0.908131,0.00300938,0.0117494,1945,834,47.5461,-4.08797
728,190,47.4976,4.79688,-0.00202516,-0.00160666,-0.00228726,0.000480899,-0.00411272,-0.831014,0.00291536,0.0135214,1952,834,47.4976,-4.79687
735,190,47.4758,5.49908,-0.00202583,-0.00246058,-0.00268967,0.000455235,-0.00494164,-0.745077,0.00345618,0.0127325,1959,834,47.4758,-5.49908
742,190,47.3982,6.23315,-0.00245557,-0.00406071,-0.00356976,0.000400723,-0.00691701,-0.674824,0.00475055,0.0176028,1966,834,47.3982,-6.23312
749,190,47.3563,7.08563,-0.0034352,-0.00680819,-0.00509333,0.000243586,-0.010487,-0.625521,0.00707391,0.0413428,1973,834,47.3563,-7.08563
756,190,47.3093,7.94269,0,0,0,0,0,0,0,-1,1980,834,47.3093,-7.94271
763,190,48.3154,9.1554,0,0,0,0,0,0,0,-1,1987,834,48.3154,-9.15541
770,190,45.1699,8.8703,0,0,0,0,0,0,0,-1,1994,834,45.17,-8.87029
777,190,40.5735,6.99371,0,0,0,0,0,0,0,-1,2001,834,40.5735,-6.99373
784,190,0,0,0,0,0,0,0,0,0,-1,2008,834,0,0
791,190,0,0,0,0,0,0,0,0,0,-1,2015,834,0,0
798,190,0,0,0,0,0,0,0,0,0,-1,2022,834,0,0
805,190,0,0,0,0,0,0,0,0,0,-1,2029,834,0,0
812,190,0,0,0,0,0,0,0,0,0,-1,2036,834,0,0
-700,183,0,0,0,0,0,0,0,0,0,-1,524,841,0,0
-693,183,0,0,0,0,0,0,0,0,0,-1,531,841,0,0
-686,183,0,0,0,0,0,0,0,0,0,-1,538,841,0,0
-679,183,0,0,0,0,0,0,0,0,0,-1,545,841,0,0
-672,183,0,0,0,0,0,0,0,0,0,-1,552,841,0,0
-665,183,0,0,0,0,0,0,0,0,0,-1,559,841,0,0
-658,183,-41.5034,4.79205,0,0,0,0,0,0,0,-1,566,841,-41.5033,-4.79207
-651,183,-40.3624,4.61908,0,0,0,0,0,0,0,-1,573,841,-40.3624,-4.61907
-644,183,-39.2515,4.24902,0,0,0,0,0,0,0,-1,580,841,-39.2515,-4.24905
-637,183,-34.0941,7.9043,0,0,0,0,0,0,0,-1,587,841,-34.0941,-7.90428
-630,183,-34.0764,6.62274,0,0,0,0,0,0,0,-1,594,841,-34.0764,-6.62277
-623,183,-34.1646,5.36694,-0.00649686,0.0100912,-0.000638184,0.0101157,-0.00652138,-1.5324,0.00967986,0.0463643,601,841,-34.1646,-5.36695
-616,183,-34.5396,4.57343,-0.00600014,0.00771045,-0.000404345,0.00772237,-0.00601206,-1.54134,0.00795004,0.0383391,608,841,-34.5396,-4.5734
-609,183,-34.8691,3.81165,-0.00517359,0.00583621,-0.000160446,0.00583855,-0.00517593,-1.55623,0.00636305,0.0178472,615,841,-34.8691,-3.81162
-602,183,-34.9063,3.12616,-0.00437463,0.00418691,0.000112646,0.00418839,-0.00437611,1.55764,0.00494512,0.0112869,622,841,-34.9063,-3.12613
-595,183,-34.9429,2.44446,-0.00373685,0.00281019,0.000429985,0.00283831,-0.00376497,1.50549,0.0038249,0.0115794,629,841,-34.943,-2.44447
-588,183,-34.9585,1.7663,-0.00326559,0.00157763,0.000798296,0.00170582,-0.00339377,1.41158,0.00299753,0.0141492,636,841,-34.9585,-1.76628
-581,183,-35.0156,1.11633,-0.00285331,0.000834853,0.00119215,0.00118665,-0.0032051,1.28385,0.00262332,0.0154834,643,841,-35.0156,-1.1163
-574,183,-35.0016,0.466736,-0.00246122,0.000857455,0.00132135,0.00131929,-0.00292305,1.23455,0.00250698,0.0182293,650,841,-35.0016,-0.466761
-567,183,-34.82,-0.472168,0,0,0,0,0,0,0,-1,657,841,-34.82,0.472152
-560,183,-34.0303,-1.05511,0,0,0,0,0,0,0,-1,664,841,-34.0303,1.05511
-553,183,-32.2224,-1.71942,0,0,0,0,0,0,0,-1,671,841,-32.2224,1.71944
-546,183,-27.8053,-1.91199,0,0,0,0,0,0,0,-1,678,841,-27.8053,1.91201
-539,183,-16.8032,-0.417297,0,0,0,0,0,0,0,-1,685,841,-16.8032,0.41732
-532,183,-29.9686,0.953613,0,0,0,0,0,0,0,-1,692,841,-29.9686,-0.953627
-525,183,-46.2152,1.16907,0,0,0,0,0,0,0,-1,699,841,-46.2152,-1.16909
-518,183,-46.3263,0.939087,0.000929161,0.00245129,-0.00437007,0.00612608,-0.00274562,-0.871611,0.00524456,0.0463293,706,841,-46.3263,-0.939104
-511,183,-46.3921,0.663818,0.00134107,0.00265677,-0.00431806,0.0063668,-0.00236896,-0.860992,0.00521668,0.0391527,713,841,-46.3921,-0.663828
-504,183,-46.4706,0.591431,0.003455,0.00248065,-0.00398216,0.00697967,-0.00104402,-0.724531,0.00503732,0.0412107,720,841,-46.4707,-0.59142
-497,183,-46.461,0.593994,0.00690075,0.00151035,-0.0032564,0.00843263,-2.15303e-05,-0.439707,0.00562895,0.043484,727,841,-46.461,-0.594003
-490,183,-46.2719,0.683777,0.010977,0.000119264,-0.00174607,0.0112509,-0.000154618,-0.155589,0.00755265,0.0396636,734,841,-46.2718,-0.683758
-483,183,0,0,0,0,0,0,0,0,0,-1,741,841,0,0
-476,183,0,0,0,0,0,0,0,0,0,-1,748,841,0,0
-469,183,0,0,0,0,0,0,0,0,0,-1,755,841,0,0
-462,183,0,0,0,0,0,0,0,0,0,-1,762,841,0,0
-455,183,0,0,0,0,0,0,0,0,0,-1,769,841,0,0
-448,183,0,0,0,0,0,0,0,0,0,-1,776,841,0,0
-441,183,0,0,0,0,0,0,0,0,0,-1,783,841,0,0
-434,183,0,0,0,0,0,0,0,0,0,-1,790,841,0,0
-427,183,0,0,0,0,0,0,0,0,0,-1,797,841,0,0
-420,183,0,0,0,0,0,0,0,0,0,-1,804,841,0,0
-413,183,0,0,0,0,0,0,0,0,0,-1,811,841,0,0
-406,183,0,0,0,0,0,0,0,0,0,-1,818,841,0,0
-399,183,0,0,0,0,0,0,0,0,0,-1,825,841,0,0
-392,183,0,0,0,0,0,0,0,0,0,-1,832,841,0,0
-385,183,0,0,0,0,0,0,0,0,0,-1,839,841,0,0
-378,183,0,0,0,0,0,0,0,0,0,-1,846,841,0,0
-371,183,0,0,0,0,0,0,0,0,0,-1,853,841,0,0
-364,183,0,0,0,0,0,0,0,0,0,-1,860,841,0,0
-357,183,0,0,0,0,0,0,0,0,0,-1,867,841,0,0
-350,183,0,0,0,0,0,0,0,0,0,-1,874,841,0,0
-343,183,0,0,0,0,0,0,0,0,0,-1,881,841,0,0
-336,183,0,0,0,0,0,0,0,0,0,-1,888,841,0,0
-329,183,0,0,0,0,0,0,0,0,0,-1,895,841,0,0
-322,183,0,0,0,0,0,0,0,0,0,-1,902,841,0,0
-315,183,0,0,0,0,0,0,0,0,0,-1,909,841,0,0
-308,183,0,0,0,0,0,0,0,0,0,-1,916,841,0,0
-301,183,0,0,0,0,0,0,0,0,0,-1,923,841,0,0
-294,183,0,0,0,0,0,0,0,0,0,-1,930,841,0,0
-287,183,0,0,0,0,0,0,0,0,0,-1,937,841,0,0
-280,183,0,0,0,0,0,0,0,0,0,-1,944,841,0,0
-273,183,0,0,0,0,0,0,0,0,0,-1,951,841,0,0
-266,183,0,0,0,0,0,0,0,0,0,-1,958,841,0,0
-259,183,0,0,0,0,0,0,0,0,0,-1,965,841,0,0
-252,183,0,0,0,0,0,0,0,0,0,-1,972,841,0,0
-245,183,0,0,0,0,0,0,0,0,0,-1,979,841,0,0
-238,183,0,0,0,0,0,0,0,0,0,-1,986,841,0,0
-231,183,0,0,0,0,0,0,0,0,0,-1,993,841,0,0
-224,183,0,0,0,0,0,0,0,0,0,-1,1000,841,0,0
-217,183,0,0,0,0,0,0,0,0,0,-1,1007,841,0,0
-210,183,0,0,0,0,0,0,0,0,0,-1,1014,841,0,0
-203,183,0,0,0,0,0,0,0,0,0,-1,1021,841,0,0
-196,183,0,0,0,0,0,0,0,0,0,-1,1028,841,0,0
-189,183,0,0,0,0,0,0,0,0,0,-1,1035,841,0,0
-182,183,0,0,0,0,0,0,0,0,0,-1,1042,841,0,0
-175,183,0,0,0,0,0,0,0,0,0,-1,1049,841,0,0
-168,183,0,0,0,0,0,0,0,0,0,-1,1056,841,0,0
-161,183,0,0,0,0,0,0,0,0,0,-1,1063,841,0,0
-154,183,0,0,0,0,0,0,0,0,0,-1,1070,841,0,0
-147,183,0,0,0,0,0,0,0,0,0,-1,1077,841,0,0
-140,183,0,0,0,0,0,0,0,0,0,-1,1084,841,0,0
-133,183,0,0,0,0,0,0,0,0,0,-1,1091,841,0,0
-126,183,0,0,0,0,0,0,0,0,0,-1,1098,841,0,0
-119,183,0,0,0,0,0,0,0,0,0,-1,1105,841,0,0
-112,183,0,0,0,0,0,0,0,0,0,-1,1112,841,0,0
-105,183,0,0,0,0,0,0,0,0,0,-1,1119,841,0,0
-98,183,0,0,0,0,0,0,0,0,0,-1,1126,841,0,0
-91,183,0,0,0,0,0,0,0,0,0,-1,1133,841,0,0
-84,183,0,0,0,0,0,0,0,0,0,-1,1140,841,0,0
-77,183,0,0,0,0,0,0,0,0,0,-1,1147,841,0,0
-70,183,0,0,0,0,0,0,0,0,0,-1,1154,841,0,0
-63,183,0,0,0,0,0,0,0,0,0,-1,1161,841,0,0
-56,183,0,0,0,0,0,0,0,0,0,-1,1168,841,0,0
-49,183,0,0,0,0,0,0,0,0,0,-1,1175,841,0,0
-42,183,0,0,0,0,0,0,0,0,0,-1,1182,841,0,0
-35,183,0,0,0,0,0,0,0,0,0,-1,1189,841,0,0
-28,183,0,0,0,0,0,0,0,0,0,-1,1196,841,0,0
-21,183,0,0,0,0,0,0,0,0,0,-1,1203,841,0,0
-14,183,0,0,0,0,0,0,0,0,0,-1,1210,841,0,0
-7,183,0,0,0,0,0,0,0,0,0,-1,1217,841,0,0
0,183,0,0,0,0,0,0,0,0,0,-1,1224,841,0,0
7,183,0,0,0,0,0,0,0,0,0,-1,1231,841,0,0
14,183,0,0,0,0,0,0,0,0,0,-1,1238,841,0,0
21,183,0,0,0,0,0,0,0,0,0,-1,1245,841,0,0
28,183,0,0,0,0,0,0,0,0,0,-1,1252,841,0,0
35,183,0,0,0,0,0,0,0,0,0,-1,1259,841,0,0
42,183,0,0,0,0,0,0,0,0,0,-1,1266,841,0,0
49,183,0,0,0,0,0,0,0,0,0,-1,1273,841,0,0
56,183,0,0,0,0,0,0,0,0,0,-1,1280,841,0,0
63,183,0,0,0,0,0,0,0,0,0,-1,1287,841,0,0
70,183,0,0,0,0,0,0,0,0,0,-1,1294,841,0,0
77,183,0,0,0,0,0,0,0,0,0,-1,1301,841,0,0
84,183,0,0,0,0,0,0,0,0,0,-1,1308,841,0,0
91,183,0,0,0,0,0,0,0,0,0,-1,1315,841,0,0
98,183,0,0,0,0,0,0,0,0,0,-1,1322,841,0,0
105,183,0,0,0,0,0,0,0,0,0,-1,1329,841,0,0
112,183,0,0,0,0,0,0,0,0,0,-1,1336,841,0,0
119,183,0,0,0,0,0,0,0,0,0,-1,1343,841,0,0
126,183,0,0,0,0,0,0,0,0,0,-1,1350,841,0,0
133,183,0,0,0,0,0,0,0,0,0,-1,1357,841,0,0
140,183,0,0,0,0,0,0,0,0,0,-1,1364,841,0,0
147,183,0,0,0,0,0,0,0,0,0,-1,1371,841,0,0
154,183,0,0,0,0,0,0,0,0,0,-1,1378,841,0,0
161,183,0,0,0,0,0,0,0,0,0,-1,1385,841,0,0
168,183,0,0,0,0,0,0,0,0,0,-1,1392,841,0,0
175,183,0,0,0,0,0,0,0,0,0,-1,1399,841,0,0
182,183,0,0,0,0,0,0,0,0,0,-1,1406,841,0,0
189,183,0,0,0,0,0,0,0,0,0,-1,1413,841,0,0
196,183,0,0,0,0,0,0,0,0,0,-1,1420,841,0,0
203,183,0,0,0,0,0,0,0,0,0,-1,1427,841,0,0
210,183,0,0,0,0,0,0,0,0,0,-1,1434,841,0,0
217,183,0,0,0,0,0,0,0,0,0,-1,1441,841,0,0
224,183,0,0,0,0,0,0,0,0,0,-1,1448,841,0,0
231,183,0,0,0,0,0,0,0,0,0,-1,1455,841,0,0
238,183,0,0,0,0,0,0,0,0,0,-1,1462,841,0,0
245,183,0,0,0,0,0,0,0,0,0,-1,1469,841,0,0
252,183,0,0,0,0,0,0,0,0,0,-1,1476,841,0,0
259,183,0,0,0,0,0,0,0,0,0,-1,1483,841,0,0
266,183,0,0,0,0,0,0,0,0,0,-1,1490,841,0,0
273,183,0,0,0,0,0,0,0,0,0,-1,1497,841,0,0
280,183,0,0,0,0,0,0,0,0,0,-1,1504,841,0,0
287,183,0,0,0,0,0,0,0,0,0,-1,1511,841,0,0
294,183,0,0,0,0,0,0,0,0,0,-1,1518,841,0,0
301,183,0,0,0,0,0,0,0,0,0,-1,1525,841,0,0
308,183,0,0,0,0,0,0,0,0,0,-1,1532,841,0,0
315,183,0,0,0,0,0,0,0,0,0,-1,1539,841,0,0
322,183,0,0,0,0,0,0,0,0,0,-1,1546,841,0,0
329,183,0,0,0,0,0,0,0,0,0,-1,1553,841,0,0
336,183,0,0,0,0,0,0,0,0,0,-1,1560,841,0,0
343,183,0,0,0,0,0,0,0,0,0,-1,1567,841,0,0
350,183,0,0,0,0,0,0,0,0,0,-1,1574,841,0,0
357,183,0,0,0,0,0,0,0,0,0,-1,1581,841,0,0
364,183,0,0,0,0,0,0,0,0,0,-1,1588,841,0,0
371,183,0,0,0,0,0,0,0,0,0,-1,1595,841,0,0
378,183,0,0,0,0,0,0,0,0,0,-1,1602,841,0,0
385,183,0,0,0,0,0,0,0,0,0,-1,1609,841,0,0
392,183,0,0,0,0,0,0,0,0,0,-1,1616,841,0,0
399,183,0,0,0,0,0,0,0,0,0,-1,1623,841,0,0
406,183,0,0,0,0,0,0,0,0,0,-1,1630,841,0,0
413,183,0,0,0,0,0,0,0,0,0,-1,1637,841,0,0
420,183,0,0,0,0,0,0,0,0,0,-1,1644,841,0,0
427,183,0,0,0,0,0,0,0,0,0,-1,1651,841,0,0
434,183,0,0,0,0,0,0,0,0,0,-1,1658,841,0,0
441,183,0,0,0,0,0,0,0,0,0,-1,1665,841,0,0
448,183,0,0,0,0,0,0,0,0,0,-1,1672,841,0,0
455,183,0,0,0,0,0,0,0,0,0,-1,1679,841,0,0
462,183,0,0,0,0,0,0,0,0,0,-1,1686,841,0,0
469,183,0,0,0,0,0,0,0,0,0,-1,1693,841,0,0
476,183,0,0,0,0,0,0,0,0,0,-1,1700,841,0,0
483,183,0,0,0,0,0,0,0,0,0,-1,1707,841,0,0
490,183,0,0,0,0,0,0,0,0,0,-1,1714,841,0,0
497,183,0,0,0,0,0,0,0,0,0,-1,1721,841,0,0
504,183,0,0,0,0,0,0,0,0,0,-1,1728,841,0,0
511,183,0,0,0,0,0,0,0,0,0,-1,1735,841,0,0
518,183,0,0,0,0,0,0,0,0,0,-1,1742,841,0,0
525,183,0,0,0,0,0,0,0,0,0,-1,1749,841,0,0
532,183,0,0,0,0,0,0,0,0,0,-1,1756,841,0,0
539,183,0,0,0,0,0,0,0,0,0,-1,1763,841,0,0
546,183,0,0,0,0,0,0,0,0,0,-1,1770,841,0,0
553,183,0,0,0,0,0,0,0,0,0,-1,1777,841,0,0
560,183,0,0,0,0,0,0,0,0,0,-1,1784,841,0,0
567,183,0,0,0,0,0,0,0,0,0,-1,1791,841,0,0
574,183,0,0,0,0,0,0,0,0,0,-1,1798,841,0,0
581,183,0,0,0,0,0,0,0,0,0,-1,1805,841,0,0
588,183,0,0,0,0,0,0,0,0,0,-1,1812,841,0,0
595,183,0,0,0,0,0,0,0,0,0,-1,1819,841,0,0
602,183,0,0,0,0,0,0,0,0,0,-1,1826,841,0,0
609,183,60.8175,2.75317,0.00754306,-0.0010002,-0.00443604,0.00942978,-0.00288692,-0.402139,0.00743798,0.041238,1833,841,60.8175,-2.75316
616,183,60.905,2.54327,0.00581477,0.000810949,-0.00204677,0.00654533,8.03936e-05,-0.342835,0.004337,0.0398363,1840,841,60.9051,-2.54327
623,183,61.0767,2.5683,0.00351262,0.00176835,-0.000380316,0.00359194,0.00168903,-0.205606,0.00207503,0.043144,1847,841,61.0767,-2.56832
630,183,61.1989,2.61597,0.000999369,0.00208339,0.000318751,0.00217017,0.000912589,1.30499,0.00125821,0.0422968,1854,841,61.1988,-2.61595
637,183,61.042,2.61481,-0.00106621,0.00173842,0.000213023,0.00175451,-0.0010823,1.49542,0.00165309,0.0350223,1861,841,61.042,-2.61478
644,183,60.8722,2.6972,-0.00238478,0.00106948,-0.000200666,0.0010811,-0.0023964,-1.51296,0.00205505,0.0280839,1868,841,60.8722,-2.69721
651,183,60.9012,2.77539,-0.00314768,0.000355071,-0.000696342,0.000488426,-0.00328103,-1.38158,0.00236702,0.0268849,1875,841,60.9013,-2.77539
658,183,61.0292,2.81311,0,0,0,0,0,0,0,-1,1882,841,61.0292,-2.81312
665,183,38.4337,2.66992,0,0,0,0,0,0,0,-1,1889,841,38.4337,-2.6699
672,183,29.168,1.54572,0,0,0,0,0,0,0,-1,1896,841,29.168,-1.54574
679,183,48.6267,0.189453,0,0,0,0,0,0,0,-1,1903,841,48.6267,-0.189439
686,183,48.557,0.804382,-0.00511045,-0.00149586,-0.00251624,-0.000205124,-0.00640118,-1.09683,0.00420075,0.0367227,1910,841,48.557,-0.804394
693,183,48.4894,1.40851,-0.00474238,-0.00177868,-0.00311323,0.000187386,-0.00670844,-1.00752,0.00453605,0.0336475,1917,841,48.4894,-1.4085
700,183,48.3379,2.0918,-0.00427915,-0.0018666,-0.00337554,0.000511729,-0.00665748,-0.957006,0.00461835,0.0347651,1924,841,48.3379,-2.09181
707,183,48.2792,2.76465,-0.00384652,-0.00173119,-0.00315596,0.000539616,-0.00611732,-0.947082,0.00426947,0.0130985,1931,841,48.2792,-2.76463
714,183,48.296,3.4245,-0.00314631,-0.00141555,-0.00274899,0.000601055,-0.00516292,-0.937888,0.00365879,0.0169573,1938,841,48.296,-3.42449
721,183,48.2345,4.10364,-0.00239092,-0.00113965,-0.0023666,0.000682611,-0.00421319,-0.914622,0.0030618,0.0153362,1945,841,48.2345,-4.10366
728,183,48.1959,4.80267,-0.00192205,-0.00122887,-0.00221848,0.000669927,-0.00382085,-0.862886,0.00279741,0.012859,1952,841,48.1959,-4.80265
735,183,48.196,5.49738,-0.00177716,-0.00167301,-0.0024124,0.000687872,-0.00413804,-0.79619,0.00301426,0.0122808,1959,841,48.196,-5.49739
742,183,48.1749,6.20837,-0.00200662,-0.00260189,-0.00298206,0.000692613,-0.00530113,-0.735659,0.00378613,0.0136155,1966,841,48.175,-6.20835
749,183,48.2195,7.09174,-0.00270488,-0.00425208,-0.00401182,0.000607246,-0.0075642,-0.690152,0.00525692,0.0362239,1973,841,48.2195,-7.09176
756,183,48.3364,7.98395,0,0,0,0,0,0,0,-1,1980,841,48.3364,-7.98395
763,183,48.3813,8.66003,0,0,0,0,0,0,0,-1,1987,841,48.3814,-8.66002
770,183,41.0603,7.72028,0,0,0,0,0,0,0,-1,1994,841,41.0603,-7.72026
777,183,42.1948,7.22906,0,0,0,0,0,0,0,-1,2001,841,42.1948,-7.22905
784,183,0,0,0,0,0,0,0,0,0,-1,2008,841,0,0
791,183,0,0,0,0,0,0,0,0,0,-1,2015,841,0,0
798,183,0,0,0,0,0,0,0,0,0,-1,2022,841,0,0
805,183,0,0,0,0,0,0,0,0,0,-1,2029,841,0,0
812,183,0,0,0,0,0,0,0,0,0,-1,2036,841,0,0
-700,176,0,0,0,0,0,0,0,0,0,-1,524,848,0,0
-693,176,0,0,0,0,0,0,0,0,0,-1,531,848,0,0
-686,176,0,0,0,0,0,0,0,0,0,-1,538,848,0,0
-679,176,0,0,0,0,0,0,0,0,0,-1,545,848,0,0
-672,176,0,0,0,0,0,0,0,0,0,-1,552,848,0,0
-665,176,-43.8984,7.03381,0,0,0,0,0,0,0,-1,559,848,-43.8983,-7.0338
-658,176,-43.8357,7.30511,0,0,0,0,0,0,0,-1,566,848,-43.8357,-7.30509
-651,176,-40.7421,5.14581,0,0,0,0,0,0,0,-1,573,848,-40.7421,-5.14583
-644,176,-39.772,4.98273,0,0,0,0,0,0,0,-1,580,848,-39.772,-4.98272
-637,176,-38.7249,4.75,0,0,0,0,0,0,0,-1,587,848,-38.7249,-4.74998
-630,176,-35.6042,5.96948,0,0,0,0,0,0,0,-1,594,848,-35.6042,-5.9695
-623,176,-35.577,5.21088,-0.00646441,0.0097814,-0.000495644,0.00979651,-0.00647952,-1.54033,0.00946179,0.0432637,601,848,-35.577,-5.21089
-616,176,-35.3987,4.54852,-0.00606942,0.00736428,-0.000143559,0.00736581,-0.00607095,-1.56011,0.00776971,0.0280731,608,848,-35.3987,-4.54853
-609,176,-35.5658,3.81482,-0.00544419,0.00541343,0.000177927,0.00541635,-0.00544711,1.55441,0.00627203,0.0116858,615,848,-35.5658,-3.81482
-602,176,-35.599,3.12646,-0.00488593,0.00368788,0.000507528,0.00371782,-0.00491587,1.51188,0.00500064,0.0118257,622,848,-35.599,-3.12646
-595,176,-35.636,2.44489,-0.00446706,0.00224894,0.000844525,0.00235351,-0.00457163,1.4476,0.00406602,0.0123819,629,848,-35.636,-2.44491
-588,176,-35.6277,1.79425,-0.0040688,0.000999527,0.00117848,0.00126014,-0.00432942,1.35315,0.00338543,0.0149991,636,848,-35.6278,-1.79426
-581,176,-35.6884,1.18622,-0.00351768,0.000415148,0.00147862,0.000909042,-0.00401157,1.24843,0.0030233,0.0137042,643,848,-35.6883,-1.18621
-574,176,-35.7622,0.548706,-0.00289882,0.000633469,0.00153544,0.00120759,-0.00347294,1.21298,0.00280583,0.0271584,650,848,-35.7622,-0.548689
-567,176,-35.7386,-0.214478,0,0,0,0,0,0,0,-1,657,848,-35.7386,0.214485
-560,176,-31.6935,-0.0994873,0,0,0,0,0,0,0,-1,664,848,-31.6936,0.0994584
-553,176,-29.4605,-1.50214,0,0,0,0,0,0,0,-1,671,848,-29.4605,1.50211
-546,176,-16.657,-0.403198,0,0,0,0,0,0,0,-1,678,848,-16.657,0.403182
-539,176,-22.7061,1.48657,0,0,0,0,0,0,0,-1,685,848,-22.7061,-1.48657
-532,176,-38.8326,1.29749,0,0,0,0,0,0,0,-1,692,848,-38.8326,-1.29747
-525,176,-46.1098,1.40906,0,0,0,0,0,0,0,-1,699,848,-46.1098,-1.40909
-518,176,-46.2687,0.957336,0.00127568,0.00209588,-0.00461838,0.00632234,-0.00295077,-0.829681,0.00547052,0.038913,706,848,-46.2688,-0.957343
-511,176,-46.3989,0.41803,0.0019055,0.00176922,-0.00450203,0.0063399,-0.00266519,-0.777831,0.00534144,0.0365153,713,848,-46.3989,-0.418008
-504,176,-46.5322,0.158936,0.00461133,0.000496358,-0.00380786,0.00688201,-0.00177433,-0.537706,0.00527979,0.0417279,720,848,-46.5321,-0.158907
-497,176,-46.4376,0.358215,0.00861107,-0.00163491,-0.00252949,0.00920151,-0.00222536,-0.229319,0.00699513,0.0437884,727,848,-46.4376,-0.35823
-490,176,-46.2454,0.678528,0.0133124,-0.00392507,-0.000397421,0.0133216,-0.00393423,-0.0230393,0.0104425,0.0407138,734,848,-46.2454,-0.67853
-483,176,0,0,0,0,0,0,0,0,0,-1,741,848,0,0
-476,176,0,0,0,0,0,0,0,0,0,-1,748,848,0,0
-469,176,0,0,0,0,0,0,0,0,0,-1,755,848,0,0
-462,176,0,0,0,0,0,0,0,0,0,-1,762,848,0,0
-455,176,0,0,0,0,0,0,0,0,0,-1,769,848,0,0
-448,176,0,0,0,0,0,0,0,0,0,-1,776,848,0,0
-441,176,0,0,0,0,0,0,0,0,0,-1,783,848,0,0
-434,176,0,0,0,0,0,0,0,0,0,-1,790,848,0,0
-427,176,0,0,0,0,0,0,0,0,0,-1,797,848,0,0
-420,176,0,0,0,0,0,0,0,0,0,-1,804,848,0,0
-413,176,0,0,0,0,0,0,0,0,0,-1,811,848,0,0
-406,176,0,0,0,0,0,0,0,0,0,-1,818,848,0,0
-399,176,0,0,0,0,0,0,0,0,0,-1,825,848,0,0
-392,176,0,0,0,0,0,0,0,0,0,-1,832,848,0,0
-385,176,0,0,0,0,0,0,0,0,0,-1,839,848,0,0
-378,176,0,0,0,0,0,0,0,0,0,-1,846,848,0,0
-371,176,0,0,0,0,0,0,0,0,0,-1,853,848,0,0
-364,176,0,0,0,0,0,0,0,0,0,-1,860,848,0,0
-357,176,0,0,0,0,0,0,0,0,0,-1,867,848,0,0
-350,176,0,0,0,0,0,0,0,0,0,-1,874,848,0,0
-343,176,0,0,0,0,0,0,0,0,0,-1,881,848,0,0
-336,176,0,0,0,0,0,0,0,0,0,-1,888,848,0,0
-329,176,0,0,0,0,0,0,0,0,0,-1,895,848,0,0
-322,176,0,0,0,0,0,0,0,0,0,-1,902,848,0,0
-315,176,0,0,0,0,0,0,0,0,0,-1,909,848,0,0
-308,176,0,0,0,0,0,0,0,0,0,-1,916,848,0,0
-301,176,0,0,0,0,0,0,0,0,0,-1,923,848,0,0
-294,176,0,0,0,0,0,0,0,0,0,-1,930,848,0,0
-287,176,0,0,0,0,0,0,0,0,0,-1,937,848,0,0
-280,176,0,0,0,0,0,0,0,0,0,-1,944,848,0,0
-273,176,0,0,0,0,0,0,0,0,0,-1,951,848,0,0
-266,176,0,0,0,0,0,0,0,0,0,-1,958,848,0,0
-259,176,0,0,0,0,0,0,0,0,0,-1,965,848,0,0
-252,176,0,0,0,0,0,0,0,0,0,-1,972,848,0,0
-245,176,0,0,0,0,0,0,0,0,0,-1,979,848,0,0
-238,176,0,0,0,0,0,0,0,0,0,-1,986,848,0,0
-231,176,0,0,0,0,0,0,0,0,0,-1,993,848,0,0
-224,176,0,0,0,0,0,0,0,0,0,-1,1000,848,0,0
-217,176,0,0,0,0,0,0,0,0,0,-1,1007,848,0,0
-210,176,0,0,0,0,0,0,0,0,0,-1,1014,848,0,0
-203,176,0,0,0,0,0,0,0,0,0,-1,1021,848,0,0
-196,176,0,0,0,0,0,0,0,0,0,-1,1028,848,0,0
-189,176,0,0,0,0,0,0,0,0,0,-1,1035,848,0,0
-182,176,0,0,0,0,0,0,0,0,0,-1,1042,848,0,0
-175,176,0,0,0,0,0,0,0,0,0,-1,1049,848,0,0
-168,176,0,0,0,0,0,0,0,0,0,-1,1056,848,0,0
-161,176,0,0,0,0,0,0,0,0,0,-1,1063,848,0,0
-154,176,0,0,0,0,0,0,0,0,0,-1,1070,848,0,0
-147,176,0,0,0,0,0,0,0,0,0,-1,1077,848,0,0
-140,176,0,0,0,0,0,0,0,0,0,-1,1084,848,0,0
-133,176,0,0,0,0,0,0,0,0,0,-1,1091,848,0,0
-126,176,0,0,0,0,0,0,0,0,0,-1,1098,848,0,0
-119,176,0,0,0,0,0,0,0,0,0,-1,1105,848,0,0
-112,176,0,0,0,0,0,0,0,0,0,-1,1112,848,0,0
-105,176,0,0,0,0,0,0,0,0,0,-1,1119,848,0,0
-98,176,0,0,0,0,0,0,0,0,0,-1,1126,848,0,0
-91,176,0,0,0,0,0,0,0,0,0,-1,1133,848,0,0
-84,176,0,0,0,0,0,0,0,0,0,-1,1140,848,0,0
-77,176,0,0,0,0,0,0,0,0,0,-1,1147,848,0,0
-70,176,0,0,0,0,0,0,0,0,0,-1,1154,848,0,0
-63,176,0,0,0,0,0,0,0,0,0,-1,1161,848,0,0
-56,176,0,0,0,0,0,0,0,0,0,-1,1168,848,0,0
-49,176,0,0,0,0,0,0,0,0,0,-1,1175,848,0,0
-42,176,0,0,0,0,0,0,0,0,0,-1,1182,848,0,0
-35,176,0,0,0,0,0,0,0,0,0,-1,1189,848,0,0
-28,176,0,0,0,0,0,0,0,0,0,-1,1196,848,0,0
-21,176,0,0,0,0,0,0,0,0,0,-1,1203,848,0,0
-14,176,0,0,0,0,0,0,0,0,0,-1,1210,848,0,0
-7,176,0,0,0,0,0,0,0,0,0,-1,1217,848,0,0
0,176,0,0,0,0,0,0,0,0,0,-1,1224,848,0,0
7,176,0,0,0,0,0,0,0,0,0,-1,1231,848,0,0
14,176,0,0,0,0,0,0,0,0,0,-1,1238,848,0,0
21,176,0,0,0,0,0,0,0,0,0,-1,1245,848,0,0
28,176,0,0,0,0,0,0,0,0,0,-1,1252,848,0,0
35,176,0,0,0,0,0,0,0,0,0,-1,1259,848,0,0
42,176,0,0,0,0,0,0,0,0,0,-1,1266,848,0,0
49,176,0,0,0,0,0,0,0,0,0,-1,1273,848,0,0
56,176,0,0,0,0,0,0,0,0,0,-1,1280,848,0,0
63,176,0,0,0,0,0,0,0,0,0,-1,1287,848,0,0
70,176,0,0,0,0,0,0,0,0,0,-1,1294,848,0,0
77,176,0,0,0,0,0,0,0,0,0,-1,1301,848,0,0
84,176,0,0,0,0,0,0,0,0,0,-1,1308,848,0,0
91,176,0,0,0,0,0,0,0,0,0,-1,1315,848,0,0
98,176,0,0,0,0,0,0,0,0,0,-1,1322,848,0,0
105,176,0,0,0,0,0,0,0,0,0,-1,1329,848,0,0
112,176,0,0,0,0,0,0,0,0,0,-1,1336,848,0,0
119,176,0,0,0,0,0,0,0,0,0,-1,1343,848,0,0
126,176,0,0,0,0,0,0,0,0,0,-1,1350,848,0,0
133,176,0,0,0,0,0,0,0,0,0,-1,1357,848,0,0
140,176,0,0,0,0,0,0,0,0,0,-1,1364,848,0,0
147,176,0,0,0,0,0,0,0,0,0,-1,1371,848,0,0
154,176,0,0,0,0,0,0,0,0,0,-1,1378,848,0,0
161,176,0,0,0,0,0,0,0,0,0,-1,1385,848,0,0
168,176,0,0,0,0,0,0,0,0,0,-1,1392,848,0,0
175,176,0,0,0,0,0,0,0,0,0,-1,1399,848,0,0
182,176,0,0,0,0,0,0,0,0,0,-1,1406,848,0,0
189,176,0,0,0,0,0,0,0,0,0,-1,1413,848,0,0
196,176,0,0,0,0,0,0,0,0,0,-1,1420,848,0,0
203,176,0,0,0,0,0,0,0,0,0,-1,1427,848,0,0
210,176,0,0,0,0,0,0,0,0,0,-1,1434,848,0,0
217,176,0,0,0,0,0,0,0,0,0,-1,1441,848,0,0
224,176,0,0,0,0,0,0,0,0,0,-1,1448,848,0,0
231,176,0,0,0,0,0,0,0,0,0,-1,1455,848,0,0
238,176,0,0,0,0,0,0,0,0,0,-1,1462,848,0,0
245,176,0,0,0,0,0,0,0,0,0,-1,1469,848,0,0
252,176,0,0,0,0,0,0,0,0,0,-1,1476,848,0,0
259,176,0,0,0,0,0,0,0,0,0,-1,1483,848,0,0
266,176,0,0,0,0,0,0,0,0,0,-1,1490,848,0,0
273,176,0,0,0,0,0,0,0,0,0,-1,1497,848,0,0
280,176,0,0,0,0,0,0,0,0,0,-1,1504,848,0,0
287,176,0,0,0,0,0,0,0,0,0,-1,1511,848,0,0
294,176,0,0,0,0,0,0,0,0,0,-1,1518,848,0,0
301,176,0,0,0,0,0,0,0,0,0,-1,1525,848,0,0
308,176,0,0,0,0,0,0,0,0,0,-1,1532,848,0,0
315,176,0,0,0,0,0,0,0,0,0,-1,1539,848,0,0
322,176,0,0,0,0,0,0,0,0,0,-1,1546,848,0,0
329,176,0,0,0,0,0,0,0,0,0,-1,1553,848,0,0
336,176,0,0,0,0,0,0,0,0,0,-1,1560,848,0,0
343,176,0,0,0,0,0,0,0,0,0,-1,1567,848,0,0
350,176,0,0,0,0,0,0,0,0,0,-1,1574,848,0,0
357,176,0,0,0,0,0,0,0,0,0,-1,1581,848,0,0
364,176,0,0,0,0,0,0,0,0,0,-1,1588,848,0,0
371,176,0,0,0,0,0,0,0,0,0,-1,1595,848,0,0
378,176,0,0,0,0,0,0,0,0,0,-1,1602,848,0,0
385,176,0,0,0,0,0,0,0,0,0,-1,1609,848,0,0
392,176,0,0,0,0,0,0,0,0,0,-1,1616,848,0,0
399,176,0,0,0,0,0,0,0,0,0,-1,1623,848,0,0
406,176,0,0,0,0,0,0,0,0,0,-1,1630,848,0,0
413,176,0,0,0,0,0,0,0,0,0,-1,1637,848,0,0
420,176,0,0,0,0,0,0,0,0,0,-1,1644,848,0,0
427,176,0,0,0,0,0,0,0,0,0,-1,1651,848,0,0
434,176,0,0,0,0,0,0,0,0,0,-1,1658,848,0,0
441,176,0,0,0,0,0,0,0,0,0,-1,1665,848,0,0
448,176,0,0,0,0,0,0,0,0,0,-1,1672,848,0,0
455,176,0,0,0,0,0,0,0,0,0,-1,1679,848,0,0
462,176,0,0,0,0,0,0,0,0,0,-1,1686,848,0,0
469,176,0,0,0,0,0,0,0,0,0,-1,1693,848,0,0
476,176,0,0,0,0,0,0,0,0,0,-1,1700,848,0,0
483,176,0,0,0,0,0,0,0,0,0,-1,1707,848,0,0
490,176,0,0,0,0,0,0,0,0,0,-1,1714,848,0,0
497,176,0,0,0,0,0,0,0,0,0,-1,1721,848,0,0
504,176,0,0,0,0,0,0,0,0,0,-1,1728,848,0,0
511,176,0,0,0,0,0,0,0,0,0,-1,1735,848,0,0
518,176,0,0,0,0,0,0,0,0,0,-1,1742,848,0,0
525,176,0,0,0,0,0,0,0,0,0,-1,1749,848,0,0
532,176,0,0,0,0,0,0,0,0,0,-1,1756,848,0,0
539,176,0,0,0,0,0,0,0,0,0,-1,1763,848,0,0
546,176,0,0,0,0,0,0,0,0,0,-1,1770,848,0,0
553,176,0,0,0,0,0,0,0,0,0,-1,1777,848,0,0
560,176,0,0,0,0,0,0,0,0,0,-1,1784,848,0,0
567,176,0,0,0,0,0,0,0,0,0,-1,1791,848,0,0
574,176,0,0,0,0,0,0,0,0,0,-1,1798,848,0,0
581,176,0,0,0,0,0,0,0,0,0,-1,1805,848,0,0
588,176,0,0,0,0,0,0,0,0,0,-1,1812,848,0,0
595,176,0,0,0,0,0,0,0,0,0,-1,1819,848,0,0
602,176,0,0,0,0,0,0,0,0,0,-1,1826,848,0,0
609,176,60.8707,2.69379,0.00873761,-0.00104403,-0.00483342,0.010723,-0.00302941,-0.389748,0.00834383,0.039627,1833,848,60.8707,-2.69379
616,176,60.9055,2.6579,0.00684972,0.000593345,-0.0025469,0.00775542,-0.000312354,-0.341663,0.00527748,0.0397321,1840,848,60.9055,-2.65789
623,176,61.1556,2.18469,0.00452695,0.00159483,-0.000706787,0.00468843,0.00143336,-0.224613,0.00277414,0.0444054,1847,848,61.1557,-2.1847
630,176,61.1836,2.45728,0.00203283,0.00211715,0.000332835,0.00241048,0.00173949,0.848395,0.00143655,0.0406115,1854,848,61.1836,-2.4573
637,176,61.0442,2.68243,-0.000199318,0.00206331,0.000518185,0.00217634,-0.000312346,1.35604,0.00156543,0.0334491,1861,848,61.0442,-2.68244
644,176,60.8252,2.77582,-0.00169161,0.00152616,0.00018864,0.00153718,-0.00170263,1.51244,0.00187132,0.0326977,1868,848,60.8252,-2.77581
651,176,60.8386,2.79822,-0.00258222,0.000836536,-0.000347269,0.000871454,-0.00261714,-1.47058,0.00209651,0.0331011,1875,848,60.8387,-2.79825
658,176,60.9402,2.76599,0,0,0,0,0,0,0,-1,1882,848,60.9402,-2.76602
665,176,54.3333,2.34277,0,0,0,0,0,0,0,-1,1889,848,54.3333,-2.34279
672,176,16.9304,2.80719,0,0,0,0,0,0,0,-1,1896,848,16.9305,-2.80719
679,176,49.0515,0.10675,0,0,0,0,0,0,0,-1,1903,848,49.0515,-0.106765
686,176,49.3976,0.940369,0,0,0,0,0,0,0,-1,1910,848,49.3976,-0.940346
693,176,49.2224,1.58191,-0.00396763,-0.00142275,-0.00279423,0.000375117,-0.0057655,-0.999058,0.00397461,0.0298379,1917,848,49.2224,-1.5819
700,176,49.0527,2.30634,-0.00359421,-0.00172688,-0.00309396,0.000571224,-0.00589232,-0.931938,0.0041318,0.0344094,1924,848,49.0527,-2.30636
707,176,49.0557,2.89728,-0.00324035,-0.00172272,-0.00301275,0.000625307,-0.00558838,-0.908765,0.00395055,0.0208881,1931,848,49.0557,-2.89726
714,176,48.9849,3.47803,-0.00271949,-0.00143707,-0.00272313,0.00071932,-0.00487588,-0.901026,0.00351498,0.0128106,1938,848,48.9849,-3.47802
721,176,48.9438,4.12201,-0.00216481,-0.00103599,-0.00235569,0.000821961,-0.00402276,-0.902979,0.00299368,0.0131814,1945,848,48.9438,-4.12202
728,176,48.8988,4.83881,-0.00182733,-0.000831494,-0.00211003,0.000838573,-0.0034974,-0.901267,0.00265563,0.0156805,1952,848,48.8988,-4.83881
735,176,48.869,5.53912,-0.00172821,-0.000814344,-0.00212792,0.000905155,-0.0034477,-0.891158,0.00265218,0.013961,1959,848,48.869,-5.53913
742,176,48.8472,6.22864,-0.00194049,-0.00105441,-0.0024453,0.000987664,-0.00398256,-0.875015,0.00303825,0.0240432,1966,848,48.8472,-6.22866
749,176,49.1284,7.1568,0,0,0,0,0,0,0,-1,1973,848,49.1284,-7.15681
756,176,49.4556,8.18182,0,0,0,0,0,0,0,-1,1980,848,49.4555,-8.18184
763,176,44.4343,7.70581,0,0,0,0,0,0,0,-1,1987,848,44.4343,-7.70578
770,176,36.4186,4.25641,0,0,0,0,0,0,0,-1,1994,848,36.4186,-4.25639
777,176,43.8328,7.50177,0,0,0,0,0,0,0,-1,2001,848,43.8328,-7.50178
784,176,0,0,0,0,0,0,0,0,0,-1,2008,848,0,0
791,176,0,0,0,0,0,0,0,0,0,-1,2015,848,0,0
798,176,0,0,0,0,0,0,0,0,0,-1,2022,848,0,0
805,176,0,0,0,0,0,0,0,0,0,-1,2029,848,0,0
812,176,0,0,0,0,0,0,0,0,0,-1,2036,848,0,0
-700,169,0,0,0,0,0,0,0,0,0,-1,524,855,0,0
-693,169,0,0,0,0,0,0,0,0,0,-1,531,855,0,0
-686,169,0,0,0,0,0,0,0,0,0,-1,538,855,0,0
-679,169,0,0,0,0,0,0,0,0,0,-1,545,855,0,0
-672,169,0,0,0,0,0,0,0,0,0,-1,552,855,0,0
-665,169,-43.2675,6.61096,0,0,0,0,0,0,0,-1,559,855,-43.2675,-6.61099
-658,169,-43.3649,6.99109,0,0,0,0,0,0,0,-1,566,855,-43.3649,-6.9911
-651,169,-40.8989,6.59399,0,0,0,0,0,0,0,-1,573,855,-40.8989,-6.59401
-644,169,-39.7435,6.11145,0,0,0,0,0,0,0,-1,580,855,-39.7435,-6.11147
-637,169,-38.7416,5.51343,0,0,0,0,0,0,0,-1,587,855,-38.7416,-5.51344
-630,169,-36.2154,6.02405,0,0,0,0,0,0,0,-1,594,855,-36.2154,-6.02408
-623,169,-36.2025,5.2597,-0.00663102,0.00960407,-0.000597253,0.00962601,-0.00665297,-1.53407,0.00945078,0.0414149,601,855,-36.2025,-5.25968
-616,169,-36.1939,4.50635,-0.0062636,0.00714002,-0.000129423,0.00714127,-0.00626485,-1.56114,0.00774554,0.0226638,608,855,-36.1939,-4.50633
-609,169,-36.2292,3.84338,-0.00576667,0.00507847,0.000298353,0.00508667,-0.00577488,1.54331,0.00627511,0.012857,615,855,-36.2292,-3.84338
-602,169,-36.2794,3.17004,-0.00537934,0.00322069,0.000730469,0.00328229,-0.00544094,1.48666,0.0050875,0.0130677,622,855,-36.2794,-3.17004
-595,169,-36.3145,2.47705,-0.0051241,0.00165391,0.00113731,0.00183965,-0.00530985,1.40891,0.00428678,0.0127006,629,855,-36.3145,-2.47708
-588,169,-36.3021,1.83612,-0.00482302,0.000326182,0.00150081,0.000731682,-0.00522853,1.30691,0.00375343,0.0114169,636,855,-36.3021,-1.83614
-581,169,-36.3536,1.24969,-0.00429644,-0.000176015,0.00177816,0.000485228,-0.00495769,1.21477,0.00347817,0.0204867,643,855,-36.3536,-1.24968
-574,169,-36.6752,0.556213,-0.00370115,0.00015675,0.00182748,0.000884968,-0.00442937,1.1916,0.00328784,0.0372764,650,855,-36.6752,-0.556198
-567,169,-36.4595,-0.0339355,0,0,0,0,0,0,0,-1,657,855,-36.4596,0.0339083
-560,169,-36.4872,-0.616882,0,0,0,0,0,0,0,-1,664,855,-36.4872,0.616861
-553,169,-32.1944,-0.787964,0,0,0,0,0,0,0,-1,671,855,-32.1944,0.787959
-546,169,-19.0852,-1.05609,0,0,0,0,0,0,0,-1,678,855,-19.0852,1.05612
-539,169,-33.2307,1.10706,0,0,0,0,0,0,0,-1,685,855,-33.2307,-1.10708
-532,169,-46.2537,0.928711,0,0,0,0,0,0,0,-1,692,855,-46.2537,-0.928731
-525,169,-46.2006,1.17548,0.000178085,0.000600457,-0.0034246,0.00382038,-0.00304183,-0.816193,0.00397039,0.0454599,699,855,-46.2005,-1.17546
-518,169,-46.2269,0.926758,0.000629558,0.00132434,-0.00430122,0.00529217,-0.00333828,-0.825693,0.00502518,0.0387306,706,855,-46.2269,-0.926752
-511,169,-46.273,0.455139,0.00190595,0.000468591,-0.00410723,0.0053569,-0.00298236,-0.698786,0.0048793,0.0389466,713,855,-46.273,-0.455112
-504,169,-46.3069,0.0216675,0.00555619,-0.00145841,-0.00327953,0.0068506,-0.00275282,-0.375925,0.00571031,0.0427066,720,855,-46.307,-0.0216919
-497,169,-46.2398,0.16925,0.0102294,-0.00397843,-0.00192677,0.0104861,-0.00423509,-0.132427,0.00875095,0.0428731,727,855,-46.2398,-0.169233
-490,169,0,0,0,0,0,0,0,0,0,-1,734,855,0,0
-483,169,0,0,0,0,0,0,0,0,0,-1,741,855,0,0
-476,169,0,0,0,0,0,0,0,0,0,-1,748,855,0,0
-469,169,0,0,0,0,0,0,0,0,0,-1,755,855,0,0
-462,169,0,0,0,0,0,0,0,0,0,-1,762,855,0,0
-455,169,0,0,0,0,0,0,0,0,0,-1,769,855,0,0
-448,169,0,0,0,0,0,0,0,0,0,-1,776,855,0,0
-441,169,0,0,0,0,0,0,0,0,0,-1,783,855,0,0
-434,169,0,0,0,0,0,0,0,0,0,-1,790,855,0,0
-427,169,0,0,0,0,0,0,0,0,0,-1,797,855,0,0
-420,169,0,0,0,0,0,0,0,0,0,-1,804,855,0,0
-413,169,0,0,0,0,0,0,0,0,0,-1,811,855,0,0
-406,169,0,0,0,0,0,0,0,0,0,-1,818,855,0,0
-399,169,0,0,0,0,0,0,0,0,0,-1,825,855,0,0
-392,169,0,0,0,0,0,0,0,0,0,-1,832,855,0,0
-385,169,0,0,0,0,0,0,0,0,0,-1,839,855,0,0
-378,169,0,0,0,0,0,0,0,0,0,-1,846,855,0,0
-371,169,0,0,0,0,0,0,0,0,0,-1,853,855,0,0
-364,169,0,0,0,0,0,0,0,0,0,-1,860,855,0,0
-357,169,0,0,0,0,0,0,0,0,0,-1,867,855,0,0
-350,169,0,0,0,0,0,0,0,0,0,-1,874,855,0,0
-343,169,0,0,0,0,0,0,0,0,0,-1,881,855,0,0
-336,169,0,0,0,0,0,0,0,0,0,-1,888,855,0,0
-329,169,0,0,0,0,0,0,0,0,0,-1,895,855,0,0
-322,169,0,0,0,0,0,0,0,0,0,-1,902,855,0,0
-315,169,0,0,0,0,0,0,0,0,0,-1,909,855,0,0
-308,169,0,0,0,0,0,0,0,0,0,-1,916,855,0,0
-301,169,0,0,0,0,0,0,0,0,0,-1,923,855,0,0
-294,169,0,0,0,0,0,0,0,0,0,-1,930,855,0,0
-287,169,0,0,0,0,0,0,0,0,0,-1,937,855,0,0
-280,169,0,0,0,0,0,0,0,0,0,-1,944,855,0,0
-273,169,0,0,0,0,0,0,0,0,0,-1,951,855,0,0
-266,169,0,0,0,0,0,0,0,0,0,-1,958,855,0,0
-259,169,0,0,0,0,0,0,0,0,0,-1,965,855,0,0
-252,169,0,0,0,0,0,0,0,0,0,-1,972,855,0,0
-245,169,0,0,0,0,0,0,0,0,0,-1,979,855,0,0
-238,169,0,0,0,0,0,0,0,0,0,-1,986,855,0,0
-231,169,0,0,0,0,0,0,0,0,0,-1,993,855,0,0
-224,169,0,0,0,0,0,0,0,0,0,-1,1000,855,0,0
-217,169,0,0,0,0,0,0,0,0,0,-1,1007,855,0,0
-210,169,0,0,0,0,0,0,0,0,0,-1,1014,855,0,0
-203,169,0,0,0,0,0,0,0,0,0,-1,1021,855,0,0
-196,169,0,0,0,0,0,0,0,0,0,-1,1028,855,0,0
-189,169,0,0,0,0,0,0,0,0,0,-1,1035,855,0,0
-182,169,0,0,0,0,0,0,0,0,0,-1,1042,855,0,0
-175,169,0,0,0,0,0,0,0,0,0,-1,1049,855,0,0
-168,169,0,0,0,0,0,0,0,0,0,-1,1056,855,0,0
-161,169,0,0,0,0,0,0,0,0,0,-1,1063,855,0,0
-154,169,0,0,0,0,0,0,0,0,0,-1,1070,855,0,0
-147,169,0,0,0,0,0,0,0,0,0,-1,1077,855,0,0
-140,169,0,0,0,0,0,0,0,0,0,-1,1084,855,0,0
-133,169,0,0,0,0,0,0,0,0,0,-1,1091,855,0,0
-126,169,0,0,0,0,0,0,0,0,0,-1,1098,855,0,0
-119,169,0,0,0,0,0,0,0,0,0,-1,1105,855,0,0
-112,169,0,0,0,0,0,0,0,0,0,-1,1112,855,0,0
-105,169,0,0,0,0,0,0,0,0,0,-1,1119,855,0,0
-98,169,0,0,0,0,0,0,0,0,0,-1,1126,855,0,0
-91,169,0,0,0,0,0,0,0,0,0,-1,1133,855,0,0
-84,169,0,0,0,0,0,0,0,0,0,-1,1140,855,0,0
-77,169,0,0,0,0,0,0,0,0,0,-1,1147,855,0,0
-70,169,0,0,0,0,0,0,0,0,0,-1,1154,855,0,0
-63,169,0,0,0,0,0,0,0,0,0,-1,1161,855,0,0
-56,169,0,0,0,0,0,0,0,0,0,-1,1168,855,0,0
-49,169,0,0,0,0,0,0,0,0,0,-1,1175,855,0,0
-42,169,0,0,0,0,0,0,0,0,0,-1,1182,855,0,0
-35,169,0,0,0,0,0,0,0,0,0,-1,1189,855,0,0
-28,169,0,0,0,0,0,0,0,0,0,-1,1196,855,0,0
-21,169,0,0,0,0,0,0,0,0,0,-1,1203,855,0,0
-14,169,0,0,0,0,0,0,0,0,0,-1,1210,855,0,0
-7,169,0,0,0,0,0,0,0,0,0,-1,1217,855,0,0
0,169,0,0,0,0,0,0,0,0,0,-1,1224,855,0,0
7,169,0,0,0,0,0,0,0,0,0,-1,1231,855,0,0
14,169,0,0,0,0,0,0,0,0,0,-1,1238,855,0,0
21,169,0,0,0,0,0,0,0,0,0,-1,1245,855,0,0
28,169,0,0,0,0,0,0,0,0,0,-1,1252,855,0,0
35,169,0,0,0,0,0,0,0,0,0,-1,1259,855,0,0
42,169,0,0,0,0,0,0,0,0,0,-1,1266,855,0,0
49,169,0,0,0,0,0,0,0,0,0,-1,1273,855,0,0
56,169,0,0,0,0,0,0,0,0,0,-1,1280,855,0,0
63,169,0,0,0,0,0,0,0,0,0,-1,1287,855,0,0
70,169,0,0,0,0,0,0,0,0,0,-1,1294,855,0,0
77,169,0,0,0,0,0,0,0,0,0,-1,1301,855,0,0
84,169,0,0,0,0,0,0,0,0,0,-1,1308,855,0,0
91,169,0,0,0,0,0,0,0,0,0,-1,1315,855,0,0
98,169,0,0,0,0,0,0,0,0,0,-1,1322,855,0,0
105,169,0,0,0,0,0,0,0,0,0,-1,1329,855,0,0
112,169,0,0,0,0,0,0,0,0,0,-1,1336,855,0,0
119,169,0,0,0,0,0,0,0,0,0,-1,1343,855,0,0
126,169,0,0,0,0,0,0,0,0,0,-1,1350,855,0,0
133,169,0,0,0,0,0,0,0,0,0,-1,1357,855,0,0
140,169,0,0,0,0,0,0,0,0,0,-1,1364,855,0,0
147,169,0,0,0,0,0,0,0,0,0,-1,1371,855,0,0
154,169,0,0,0,0,0,0,0,0,0,-1,1378,855,0,0
161,169,0,0,0,0,0,0,0,0,0,-1,1385,855,0,0
168,169,0,0,0,0,0,0,0,0,0,-1,1392,855,0,0
175,169,0,0,0,0,0,0,0,0,0,-1,1399,855,0,0
182,169,0,0,0,0,0,0,0,0,0,-1,1406,855,0,0
189,169,0,0,0,0,0,0,0,0,0,-1,1413,855,0,0
196,169,0,0,0,0,0,0,0,0,0,-1,1420,855,0,0
203,169,0,0,0,0,0,0,0,0,0,-1,1427,855,0,0
210,169,0,0,0,0,0,0,0,0,0,-1,1434,855,0,0
217,169,0,0,0,0,0,0,0,0,0,-1,1441,855,0,0
224,169,0,0,0,0,0,0,0,0,0,-1,1448,855,0,0
231,169,0,0,0,0,0,0,0,0,0,-1,1455,855,0,0
238,169,0,0,0,0,0,0,0,0,0,-1,1462,855,0,0
245,169,0,0,0,0,0,0,0,0,0,-1,1469,855,0,0
252,169,0,0,0,0,0,0,0,0,0,-1,1476,855,0,0
259,169,0,0,0,0,0,0,0,0,0,-1,1483,855,0,0
266,169,0,0,0,0,0,0,0,0,0,-1,1490,855,0,0
273,169,0,0,0,0,0,0,0,0,0,-1,1497,855,0,0
280,169,0,0,0,0,0,0,0,0,0,-1,1504,855,0,0
287,169,0,0,0,0,0,0,0,0,0,-1,1511,855,0,0
294,169,0,0,0,0,0,0,0,0,0,-1,1518,855,0,0
301,169,0,0,0,0,0,0,0,0,0,-1,1525,855,0,0
308,169,0,0,0,0,0,0,0,0,0,-1,1532,855,0,0
315,169,0,0,0,0,0,0,0,0,0,-1,1539,855,0,0
322,169,0,0,0,0,0,0,0,0,0,-1,1546,855,0,0
329,169,0,0,0,0,0,0,0,0,0,-1,1553,855,0,0
336,169,0,0,0,0,0,0,0,0,0,-1,1560,855,0,0
343,169,0,0,0,0,0,0,0,0,0,-1,1567,855,0,0
350,169,0,0,0,0,0,0,0,0,0,-1,1574,855,0,0
357,169,0,0,0,0,0,0,0,0,0,-1,1581,855,0,0
364,169,0,0,0,0,0,0,0,0,0,-1,1588,855,0,0
371,169,0,0,0,0,0,0,0,0,0,-1,1595,855,0,0
378,169,0,0,0,0,0,0,0,0,0,-1,1602,855,0,0
385,169,0,0,0,0,0,0,0,0,0,-1,1609,855,0,0
392,169,0,0,0,0,0,0,0,0,0,-1,1616,855,0,0
399,169,0,0,0,0,0,0,0,0,0,-1,1623,855,0,0
406,169,0,0,0,0,0,0,0,0,0,-1,1630,855,0,0
413,169,0,0,0,0,0,0,0,0,0,-1,1637,855,0,0
420,169,0,0,0,0,0,0,0,0,0,-1,1644,855,0,0
427,169,0,0,0,0,0,0,0,0,0,-1,1651,855,0,0
434,169,0,0,0,0,0,0,0,0,0,-1,1658,855,0,0
441,169,0,0,0,0,0,0,0,0,0,-1,1665,855,0,0
448,169,0,0,0,0,0,0,0,0,0,-1,1672,855,0,0
455,169,0,0,0,0,0,0,0,0,0,-1,1679,855,0,0
462,169,0,0,0,0,0,0,0,0,0,-1,1686,855,0,0
469,169,0,0,0,0,0,0,0,0,0,-1,1693,855,0,0
476,169,0,0,0,0,0,0,0,0,0,-1,1700,855,0,0
483,169,0,0,0,0,0,0,0,0,0,-1,1707,855,0,0
490,169,0,0,0,0,0,0,0,0,0,-1,1714,855,0,0
497,169,0,0,0,0,0,0,0,0,0,-1,1721,855,0,0
504,169,0,0,0,0,0,0,0,0,0,-1,1728,855,0,0
511,169,0,0,0,0,0,0,0,0,0,-1,1735,855,0,0
518,169,0,0,0,0,0,0,0,0,0,-1,1742,855,0,0
525,169,0,0,0,0,0,0,0,0,0,-1,1749,855,0,0
532,169,0,0,0,0,0,0,0,0,0,-1,1756,855,0,0
539,169,0,0,0,0,0,0,0,0,0,-1,1763,855,0,0
546,169,0,0,0,0,0,0,0,0,0,-1,1770,855,0,0
553,169,0,0,0,0,0,0,0,0,0,-1,1777,855,0,0
560,169,0,0,0,0,0,0,0,0,0,-1,1784,855,0,0
567,169,0,0,0,0,0,0,0,0,0,-1,1791,855,0,0
574,169,0,0,0,0,0,0,0,0,0,-1,1798,855,0,0
581,169,0,0,0,0,0,0,0,0,0,-1,1805,855,0,0
588,169,0,0,0,0,0,0,0,0,0,-1,1812,855,0,0
595,169,0,0,0,0,0,0,0,0,0,-1,1819,855,0,0
602,169,0,0,0,0,0,0,0,0,0,-1,1826,855,0,0
609,169,0,0,0,0,0,0,0,0,0,-1,1833,855,0,0
616,169,60.8821,2.6665,0.00765206,3.19883e-05,-0.00321214,0.00882541,-0.00114137,-0.350229,0.00629863,0.0412772,1840,855,60.8821,-2.66649
623,169,61.0529,2.23651,0.00532653,0.000965975,-0.00129222,0.0056807,0.000611802,-0.267512,0.00360057,0.0443537,1847,855,61.0528,-2.23649
630,169,61.0938,2.37701,0.0030725,0.00163463,7.57173e-05,0.00307648,0.00163065,0.0524658,0.00177727,0.0435636,1854,855,61.0938,-2.37703
637,169,61.0942,2.69489,0.000954114,0.00193664,0.000697445,0.00229847,0.000592283,1.09223,0.00137799,0.0399865,1861,855,61.0942,-2.69488
644,169,60.9258,2.79352,-0.000580792,0.00165256,0.000612101,0.00180932,-0.000737549,1.32009,0.00151321,0.0383269,1868,855,60.9258,-2.79352
651,169,60.8583,2.83154,-0.00156314,0.00107437,0.000135862,0.00108135,-0.00157012,1.51947,0.00153947,0.0376954,1875,855,60.8582,-2.83156
658,169,60.9525,2.75897,-0.00207903,0.000361352,-0.000557093,0.00048251,-0.00220019,-1.35665,0.0016513,0.0380582,1882,855,60.9525,-2.75895
665,169,61.072,2.62244,0,0,0,0,0,0,0,-1,1889,855,61.072,-2.62245
672,169,31.2465,2.96387,0,0,0,0,0,0,0,-1,1896,855,31.2464,-2.9639
679,169,38.4297,1.08197,0,0,0,0,0,0,0,-1,1903,855,38.4296,-1.08194
686,169,49.9468,0.909668,0,0,0,0,0,0,0,-1,1910,855,49.9468,-0.909684
693,169,49.9915,1.62341,-0.00313255,-0.00107077,-0.00233435,0.00045019,-0.00465351,-0.993329,0.00326277,0.0307792,1917,855,49.9915,-1.62342
700,169,49.9778,2.35645,-0.00292456,-0.00145301,-0.00267378,0.000584389,-0.00496196,-0.919666,0.00351898,0.0260582,1924,855,49.9778,-2.35647
707,169,49.886,2.99017,-0.00273543,-0.00150453,-0.00273424,0.00068267,-0.00492263,-0.896099,0.00353137,0.026618,1931,855,49.886,-2.99016
714,169,49.6616,3.50421,-0.00243551,-0.0012488,-0.00260434,0.000828917,-0.00451324,-0.897403,0.00331981,0.0166342,1938,855,49.6617,-3.50424
721,169,49.6343,4.17651,-0.00212155,-0.0008016,-0.00232647,0.000956693,-0.00387984,-0.923607,0.00295749,0.0180293,1945,855,49.6342,-4.17651
728,169,49.6042,4.88635,-0.00191107,-0.000367692,-0.00206702,0.001067,-0.00334576,-0.964052,0.00265853,0.0146682,1952,855,49.6042,-4.88636
735,169,49.5533,5.55847,-0.00184099,2.07492e-05,-0.00198581,0.00128304,-0.00310328,-1.00457,0.00260411,0.019431,1959,855,49.5534,-5.5585
742,169,49.5579,6.24622,-0.0020156,0.000304378,-0.00213225,0.00157175,-0.00328297,-1.03452,0.00286033,0.018793,1966,855,49.5579,-6.2462
749,169,49.5746,6.87177,-0.00250488,0.000425829,-0.0025315,0.0018855,-0.00396455,-1.04776,0.00344789,0.0290611,1973,855,49.5746,-6.87174
756,169,49.3668,7.60565,0,0,0,0,0,0,0,-1,1980,855,49.3669,-7.60567
763,169,45.1978,7.5675,0,0,0,0,0,0,0,-1,1987,855,45.1977,-7.56751
770,169,37.2059,3.97021,0,0,0,0,0,0,0,-1,1994,855,37.2059,-3.97022
777,169,41.7505,8.7085,0,0,0,0,0,0,0,-1,2001,855,41.7505,-8.70852
784,169,40.0581,9.47473,0,0,0,0,0,0,0,-1,2008,855,40.058,-9.47476
791,169,0,0,0,0,0,0,0,0,0,-1,2015,855,0,0
798,169,0,0,0,0,0,0,0,0,0,-1,2022,855,0,0
805,169,0,0,0,0,0,0,0,0,0,-1,2029,855,0,0
812,169,0,0,0,0,0,0,0,0,0,-1,2036,855,0,0
-700,162,0,0,0,0,0,0,0,0,0,-1,524,862,0,0
-693,162,0,0,0,0,0,0,0,0,0,-1,531,862,0,0
-686,162,0,0,0,0,0,0,0,0,0,-1,538,862,0,0
-679,162,0,0,0,0,0,0,0,0,0,-1,545,862,0,0
-672,162,0,0,0,0,0,0,0,0,0,-1,552,862,0,0
-665,162,-42.992,5.87714,0,0,0,0,0,0,0,-1,559,862,-42.992,-5.87712
-658,162,-41.2422,5.24969,0,0,0,0,0,0,0,-1,566,862,-41.2422,-5.24971
-651,162,-41.1621,7.83588,0,0,0,0,0,0,0,-1,573,862,-41.1621,-7.83586
-644,162,-39.6024,7.15338,0,0,0,0,0,0,0,-1,580,862,-39.6023,-7.15337
-637,162,-37.8028,4.83154,0,0,0,0,0,0,0,-1,587,862,-37.8028,-4.83156
-630,162,-36.8409,6.14923,0,0,0,0,0,0,0,-1,594,862,-36.841,-6.14925
-623,162,-36.8217,5.32324,-0.00680475,0.00936432,-0.000640785,0.00938967,-0.00683011,-1.53125,0.00940328,0.0345849,601,862,-36.8216,-5.32321
-616,162,-36.8329,4.51428,-0.00641415,0.0069691,-4.94509e-05,0.00696928,-0.00641434,-1.5671,0.00772925,0.0196667,608,862,-36.8329,-4.51427
-609,162,-36.9098,3.82208,-0.00600445,0.00488719,0.0004977,0.00490988,-0.00602714,1.52523,0.00632547,0.0133781,615,862,-36.9098,-3.8221
-602,162,-36.9583,3.17975,-0.00575741,0.00296731,0.00104878,0.00309161,-0.00588171,1.45283,0.00526357,0.0115677,622,862,-36.9582,-3.17972
-595,162,-36.9689,2.52393,-0.00558784,0.00136944,0.00153143,0.00169162,-0.00591002,1.36344,0.00460856,0.0114067,629,862,-36.969,-2.5239
-588,162,-36.9611,1.87787,-0.00526573,0.000118421,0.00190463,0.000724052,-0.00587137,1.26293,0.00417657,0.0139129,636,862,-36.9611,-1.87787
-581,162,-37.2054,1.23547,-0.0047089,-0.000233672,0.00210806,0.000602935,-0.00554551,1.193,0.0039135,0.0359448,643,862,-37.2054,-1.23549
-574,162,-37.5496,0.564209,-0.00415887,0.000153727,0.00214036,0.00103564,-0.00504079,1.17995,0.00375367,0.0498061,650,862,-37.5496,-0.564179
-567,162,-37.865,-0.24054,0,0,0,0,0,0,0,-1,657,862,-37.865,0.24054
-560,162,-36.5075,-0.831665,0,0,0,0,0,0,0,-1,664,862,-36.5075,0.831657
-553,162,-35.9823,-1.60956,0,0,0,0,0,0,0,-1,671,862,-35.9823,1.60954
-546,162,-22.8181,-1.51154,0,0,0,0,0,0,0,-1,678,862,-22.8181,1.51155
-539,162,-46.2986,0.834412,0,0,0,0,0,0,0,-1,685,862,-46.2986,-0.83439
-532,162,-46.2749,0.966187,-0.00111121,-0.000120008,-0.00181774,0.00126848,-0.00249969,-0.918487,0.00221393,0.0445204,692,862,-46.2749,-0.966198
-525,162,-46.2943,1.04877,-9.8261e-05,9.23362e-05,-0.00285673,0.00285536,-0.00286128,-0.802072,0.0033005,0.0402312,699,862,-46.2942,-1.04876
-518,162,-46.3256,0.968628,0.000598528,0.000594497,-0.00365659,0.00425311,-0.00306008,-0.785123,0.00424096,0.0401725,706,862,-46.3256,-0.968614
-511,162,-46.3113,0.784973,0.00243523,-0.000813882,-0.00331056,0.00449835,-0.002877,-0.5573,0.00429232,0.0436526,713,862,-46.3113,-0.784979
-504,162,-46.2448,0.559387,0.00625932,-0.00312863,-0.00238597,0.00683092,-0.00370023,-0.235135,0.00616907,0.0444606,720,862,-46.2447,-0.559406
-497,162,-46.1874,0.538757,0.0107085,-0.00574957,-0.000985228,0.0107672,-0.00580834,-0.0595795,0.00971161,0.0421861,727,862,-46.1874,-0.538734
-490,162,0,0,0,0,0,0,0,0,0,-1,734,862,0,0
-483,162,0,0,0,0,0,0,0,0,0,-1,741,862,0,0
-476,162,0,0,0,0,0,0,0,0,0,-1,748,862,0,0
-469,162,0,0,0,0,0,0,0,0,0,-1,755,862,0,0
-462,162,0,0,0,0,0,0,0,0,0,-1,762,862,0,0
-455,162,0,0,0,0,0,0,0,0,0,-1,769,862,0,0
-448,162,0,0,0,0,0,0,0,0,0,-1,776,862,0,0
-441,162,0,0,0,0,0,0,0,0,0,-1,783,862,0,0
-434,162,0,0,0,0,0,0,0,0,0,-1,790,862,0,0
-427,162,0,0,0,0,0,0,0,0,0,-1,797,862,0,0
-420,162,0,0,0,0,0,0,0,0,0,-1,804,862,0,0
-413,162,0,0,0,0,0,0,0,0,0,-1,811,862,0,0
-406,162,0,0,0,0,0,0,0,0,0,-1,818,862,0,0
-399,162,0,0,0,0,0,0,0,0,0,-1,825,862,0,0
-392,162,0,0,0,0,0,0,0,0,0,-1,832,862,0,0
-385,162,0,0,0,0,0,0,0,0,0,-1,839,862,0,0
-378,162,0,0,0,0,0,0,0,0,0,-1,846,862,0,0
-371,162,0,0,0,0,0,0,0,0,0,-1,853,862,0,0
-364,162,0,0,0,0,0,0,0,0,0,-1,860,862,0,0
-357,162,0,0,0,0,0,0,0,0,0,-1,867,862,0,0
-350,162,0,0,0,0,0,0,0,0,0,-1,874,862,0,0
-343,162,0,0,0,0,0,0,0,0,0,-1,881,862,0,0
-336,162,0,0,0,0,0,0,0,0,0,-1,888,862,0,0
-329,162,0,0,0,0,0,0,0,0,0,-1,895,862,0,0
-322,162,0,0,0,0,0,0,0,0,0,-1,902,862,0,0
-315,162,0,0,0,0,0,0,0,0,0,-1,909,862,0,0
-308,162,0,0,0,0,0,0,0,0,0,-1,916,862,0,0
-301,162,0,0,0,0,0,0,0,0,0,-1,923,862,0,0
-294,162,0,0,0,0,0,0,0,0,0,-1,930,862,0,0
-287,162,0,0,0,0,0,0,0,0,0,-1,937,862,0,0
-280,162,0,0,0,0,0,0,0,0,0,-1,944,862,0,0
-273,162,0,0,0,0,0,0,0,0,0,-1,951,862,0,0
-266,162,0,0,0,0,0,0,0,0,0,-1,958,862,0,0
-259,162,0,0,0,0,0,0,0,0,0,-1,965,862,0,0
-252,162,0,0,0,0,0,0,0,0,0,-1,972,862,0,0
-245,162,0,0,0,0,0,0,0,0,0,-1,979,862,0,0
-238,162,0,0,0,0,0,0,0,0,0,-1,986,862,0,0
-231,162,0,0,0,0,0,0,0,0,0,-1,993,862,0,0
-224,162,0,0,0,0,0,0,0,0,0,-1,1000,862,0,0
-217,162,0,0,0,0,0,0,0,0,0,-1,1007,862,0,0
-210,162,0,0,0,0,0,0,0,0,0,-1,1014,862,0,0
-203,162,0,0,0,0,0,0,0,0,0,-1,1021,862,0,0
-196,162,0,0,0,0,0,0,0,0,0,-1,1028,862,0,0
-189,162,0,0,0,0,0,0,0,0,0,-1,1035,862,0,0
-182,162,0,0,0,0,0,0,0,0,0,-1,1042,862,0,0
-175,162,0,0,0,0,0,0,0,0,0,-1,1049,862,0,0
-168,162,0,0,0,0,0,0,0,0,0,-1,1056,862,0,0
-161,162,0,0,0,0,0,0,0,0,0,-1,1063,862,0,0
-154,162,0,0,0,0,0,0,0,0,0,-1,1070,862,0,0
-147,162,0,0,0,0,0,0,0,0,0,-1,1077,862,0,0
-140,162,0,0,0,0,0,0,0,0,0,-1,1084,862,0,0
-133,162,0,0,0,0,0,0,0,0,0,-1,1091,862,0,0
-126,162,0,0,0,0,0,0,0,0,0,-1,1098,862,0,0
-119,162,0,0,0,0,0,0,0,0,0,-1,1105,862,0,0
-112,162,0,0,0,0,0,0,0,0,0,-1,1112,862,0,0
-105,162,0,0,0,0,0,0,0,0,0,-1,1119,862,0,0
-98,162,0,0,0,0,0,0,0,0,0,-1,1126,862,0,0
-91,162,0,0,0,0,0,0,0,0,0,-1,1133,862,0,0
-84,162,0,0,0,0,0,0,0,0,0,-1,1140,862,0,0
-77,162,0,0,0,0,0,0,0,0,0,-1,1147,862,0,0
-70,162,0,0,0,0,0,0,0,0,0,-1,1154,862,0,0
-63,162,0,0,0,0,0,0,0,0,0,-1,1161,862,0,0
-56,162,0,0,0,0,0,0,0,0,0,-1,1168,862,0,0
-49,162,0,0,0,0,0,0,0,0,0,-1,1175,862,0,0
-42,162,0,0,0,0,0,0,0,0,0,-1,1182,862,0,0
-35,162,0,0,0,0,0,0,0,0,0,-1,1189,862,0,0
-28,162,0,0,0,0,0,0,0,0,0,-1,1196,862,0,0
-21,162,0,0,0,0,0,0,0,0,0,-1,1203,862,0,0
-14,162,0,0,0,0,0,0,0,0,0,-1,1210,862,0,0
-7,162,0,0,0,0,0,0,0,0,0,-1,1217,862,0,0
0,162,0,0,0,0,0,0,0,0,0,-1,1224,862,0,0
7,162,0,0,0,0,0,0,0,0,0,-1,1231,862,0,0
14,162,0,0,0,0,0,0,0,0,0,-1,1238,862,0,0
21,162,0,0,0,0,0,0,0,0,0,-1,1245,862,0,0
28,162,0,0,0,0,0,0,0,0,0,-1,1252,862,0,0
35,162,0,0,0,0,0,0,0,0,0,-1,1259,862,0,0
42,162,0,0,0,0,0,0,0,0,0,-1,1266,862,0,0
49,162,0,0,0,0,0,0,0,0,0,-1,1273,862,0,0
56,162,0,0,0,0,0,0,0,0,0,-1,1280,862,0,0
63,162,0,0,0,0,0,0,0,0,0,-1,1287,862,0,0
70,162,0,0,0,0,0,0,0,0,0,-1,1294,862,0,0
77,162,0,0,0,0,0,0,0,0,0,-1,1301,862,0,0
84,162,0,0,0,0,0,0,0,0,0,-1,1308,862,0,0
91,162,0,0,0,0,0,0,0,0,0,-1,1315,862,0,0
98,162,0,0,0,0,0,0,0,0,0,-1,1322,862,0,0
105,162,0,0,0,0,0,0,0,0,0,-1,1329,862,0,0
112,162,0,0,0,0,0,0,0,0,0,-1,1336,862,0,0
119,162,0,0,0,0,0,0,0,0,0,-1,1343,862,0,0
126,162,0,0,0,0,0,0,0,0,0,-1,1350,862,0,0
133,162,0,0,0,0,0,0,0,0,0,-1,1357,862,0,0
140,162,0,0,0,0,0,0,0,0,0,-1,1364,862,0,0
147,162,0,0,0,0,0,0,0,0,0,-1,1371,862,0,0
154,162,0,0,0,0,0,0,0,0,0,-1,1378,862,0,0
161,162,0,0,0,0,0,0,0,0,0,-1,1385,862,0,0
168,162,0,0,0,0,0,0,0,0,0,-1,1392,862,0,0
175,162,0,0,0,0,0,0,0,0,0,-1,1399,862,0,0
182,162,0,0,0,0,0,0,0,0,0,-1,1406,862,0,0
189,162,0,0,0,0,0,0,0,0,0,-1,1413,862,0,0
196,162,0,0,0,0,0,0,0,0,0,-1,1420,862,0,0
203,162,0,0,0,0,0,0,0,0,0,-1,1427,862,0,0
210,162,0,0,0,0,0,0,0,0,0,-1,1434,862,0,0
217,162,0,0,0,0,0,0,0,0,0,-1,1441,862,0,0
224,162,0,0,0,0,0,0,0,0,0,-1,1448,862,0,0
231,162,0,0,0,0,0,0,0,0,0,-1,1455,862,0,0
238,162,0,0,0,0,0,0,0,0,0,-1,1462,862,0,0
245,162,0,0,0,0,0,0,0,0,0,-1,1469,862,0,0
252,162,0,0,0,0,0,0,0,0,0,-1,1476,862,0,0
259,162,0,0,0,0,0,0,0,0,0,-1,1483,862,0,0
266,162,0,0,0,0,0,0,0,0,0,-1,1490,862,0,0
273,162,0,0,0,0,0,0,0,0,0,-1,1497,862,0,0
280,162,0,0,0,0,0,0,0,0,0,-1,1504,862,0,0
287,162,0,0,0,0,0,0,0,0,0,-1,1511,862,0,0
294,162,0,0,0,0,0,0,0,0,0,-1,1518,862,0,0
301,162,0,0,0,0,0,0,0,0,0,-1,1525,862,0,0
308,162,0,0,0,0,0,0,0,0,0,-1,1532,862,0,0
315,162,0,0,0,0,0,0,0,0,0,-1,1539,862,0,0
322,162,0,0,0,0,0,0,0,0,0,-1,1546,862,0,0
329,162,0,0,0,0,0,0,0,0,0,-1,1553,862,0,0
336,162,0,0,0,0,0,0,0,0,0,-1,1560,862,0,0
343,162,0,0,0,0,0,0,0,0,0,-1,1567,862,0,0
350,162,0,0,0,0,0,0,0,0,0,-1,1574,862,0,0
357,162,0,0,0,0,0,0,0,0,0,-1,1581,862,0,0
364,162,0,0,0,0,0,0,0,0,0,-1,1588,862,0,0
371,162,0,0,0,0,0,0,0,0,0,-1,1595,862,0,0
378,162,0,0,0,0,0,0,0,0,0,-1,1602,862,0,0
385,162,0,0,0,0,0,0,0,0,0,-1,1609,862,0,0
392,162,0,0,0,0,0,0,0,0,0,-1,1616,862,0,0
399,162,0,0,0,0,0,0,0,0,0,-1,1623,862,0,0
406,162,0,0,0,0,0,0,0,0,0,-1,1630,862,0,0
413,162,0,0,0,0,0,0,0,0,0,-1,1637,862,0,0
420,162,0,0,0,0,0,0,0,0,0,-1,1644,862,0,0
427,162,0,0,0,0,0,0,0,0,0,-1,1651,862,0,0
434,162,0,0,0,0,0,0,0,0,0,-1,1658,862,0,0
441,162,0,0,0,0,0,0,0,0,0,-1,1665,862,0,0
448,162,0,0,0,0,0,0,0,0,0,-1,1672,862,0,0
455,162,0,0,0,0,0,0,0,0,0,-1,1679,862,0,0
462,162,0,0,0,0,0,0,0,0,0,-1,1686,862,0,0
469,162,0,0,0,0,0,0,0,0,0,-1,1693,862,0,0
476,162,0,0,0,0,0,0,0,0,0,-1,1700,862,0,0
483,162,0,0,0,0,0,0,0,0,0,-1,1707,862,0,0
490,162,0,0,0,0,0,0,0,0,0,-1,1714,862,0,0
497,162,0,0,0,0,0,0,0,0,0,-1,1721,862,0,0
504,162,0,0,0,0,0,0,0,0,0,-1,1728,862,0,0
511,162,0,0,0,0,0,0,0,0,0,-1,1735,862,0,0
518,162,0,0,0,0,0,0,0,0,0,-1,1742,862,0,0
525,162,0,0,0,0,0,0,0,0,0,-1,1749,862,0,0
532,162,0,0,0,0,0,0,0,0,0,-1,1756,862,0,0
539,162,0,0,0,0,0,0,0,0,0,-1,1763,862,0,0
546,162,0,0,0,0,0,0,0,0,0,-1,1770,862,0,0
553,162,0,0,0,0,0,0,0,0,0,-1,1777,862,0,0
560,162,0,0,0,0,0,0,0,0,0,-1,1784,862,0,0
567,162,0,0,0,0,0,0,0,0,0,-1,1791,862,0,0
574,162,0,0,0,0,0,0,0,0,0,-1,1798,862,0,0
581,162,0,0,0,0,0,0,0,0,0,-1,1805,862,0,0
588,162,0,0,0,0,0,0,0,0,0,-1,1812,862,0,0
595,162,0,0,0,0,0,0,0,0,0,-1,1819,862,0,0
602,162,0,0,0,0,0,0,0,0,0,-1,1826,862,0,0
609,162,0,0,0,0,0,0,0,0,0,-1,1833,862,0,0
616,162,60.7982,2.62341,0.00760804,-0.000753118,-0.00336949,0.00879689,-0.00194196,-0.33919,0.00660773,0.0443201,1840,862,60.7982,-2.62342
623,162,60.8953,2.56512,0.00523292,0.000135446,-0.0016158,0.00570194,-0.000333578,-0.282509,0.00391723,0.0444061,1847,862,60.8952,-2.56513
630,162,60.9647,2.43921,0.00315023,0.00086294,-0.000257609,0.00317889,0.000834286,-0.110777,0.00190313,0.0444561,1854,862,60.9647,-2.43924
637,162,61.0039,2.54132,0.00124993,0.00142171,0.000578528,0.00192069,0.000750951,0.859089,0.00111766,0.042943,1861,862,61.0039,-2.54133
644,162,61.0325,2.62183,-0.000210892,0.00141101,0.00073456,0.00169423,-0.000494117,1.20279,0.00132526,0.0392201,1868,862,61.0325,-2.62185
651,162,60.9541,2.69861,-0.00120484,0.000994734,0.000376781,0.00105749,-0.00126759,1.40576,0.00134421,0.0349396,1875,862,60.9541,-2.6986
658,162,60.9465,2.72198,-0.00171433,0.000290023,-0.000290512,0.000331281,-0.00175559,-1.42972,0.00129502,0.0328078,1882,862,60.9465,-2.72198
665,162,60.959,2.64661,0,0,0,0,0,0,0,-1,1889,862,60.959,-2.64662
672,162,56.9712,3.04034,0,0,0,0,0,0,0,-1,1896,862,56.9711,-3.04034
679,162,26.5077,2.54785,0,0,0,0,0,0,0,-1,1903,862,26.5077,-2.54787
686,162,50.317,0.810669,0,0,0,0,0,0,0,-1,1910,862,50.317,-0.81065
693,162,50.6997,1.71155,-0.00251922,-0.000837556,-0.00202621,0.000515358,-0.00387214,-0.982074,0.00276924,0.0371389,1917,862,50.6998,-1.71155
700,162,50.6757,2.35461,-0.00235836,-0.00118265,-0.00234373,0.00064582,-0.00418683,-0.908274,0.00302953,0.0327137,1924,862,50.6756,-2.35462
707,162,50.5446,2.97247,-0.0021925,-0.00120853,-0.00246661,0.000814678,-0.00421571,-0.883836,0.00311772,0.0239762,1931,862,50.5445,-2.97245
714,162,50.343,3.51532,-0.00199398,-0.000976531,-0.00245894,0.00102576,-0.00399627,-0.887403,0.00306388,0.0277654,1938,862,50.343,-3.51532
721,162,50.217,4.30145,-0.00182644,-0.000538678,-0.00226335,0.00117059,-0.00353571,-0.923978,0.00282924,0.0312692,1945,862,50.217,-4.30148
728,162,50.2223,4.94647,-0.00182072,1.97955e-05,-0.00203725,0.001335,-0.00313592,-0.997537,0.00265017,0.0251439,1952,862,50.2223,-4.94647
735,162,50.2473,5.59717,-0.00192701,0.000640448,-0.00189457,0.00164525,-0.00293181,-1.08316,0.00267714,0.0123033,1959,862,50.2474,-5.59718
742,162,50.2146,6.24359,-0.00221276,0.00127935,-0.00189992,0.00211368,-0.00304709,-1.15701,0.00299577,0.0146454,1966,862,50.2146,-6.24357
749,162,50.1266,6.90674,-0.00275683,0.00188597,-0.00208703,0.0026862,-0.00355706,-1.20465,0.00361622,0.0204625,1973,862,50.1266,-6.90672
756,162,50.0559,7.59204,-0.00363165,0.0024935,-0.0025909,0.00344242,-0.00458058,-1.21972,0.00464759,0.0457458,1980,862,50.0559,-7.59205
763,162,50.0485,8.30817,0,0,0,0,0,0,0,-1,1987,862,50.0484,-8.30814
770,162,48.002,9.22675,0,0,0,0,0,0,0,-1,1994,862,48.0019,-9.22675
777,162,47.9099,9.68317,0,0,0,0,0,0,0,-1,2001,862,47.91,-9.68317
784,162,48.532,10.3329,0,0,0,0,0,0,0,-1,2008,862,48.5321,-10.3329
791,162,0,0,0,0,0,0,0,0,0,-1,2015,862,0,0
798,162,0,0,0,0,0,0,0,0,0,-1,2022,862,0,0
805,162,0,0,0,0,0,0,0,0,0,-1,2029,862,0,0
812,162,0,0,0,0,0,0,0,0,0,-1,2036,862,0,0
-700,155,0,0,0,0,0,0,0,0,0,-1,524,869,0,0
-693,155,0,0,0,0,0,0,0,0,0,-1,531,869,0,0
-686,155,0,0,0,0,0,0,0,0,0,-1,538,869,0,0
-679,155,0,0,0,0,0,0,0,0,0,-1,545,869,0,0
-672,155,0,0,0,0,0,0,0,0,0,-1,552,869,0,0
-665,155,-49.7236,-5.71008,0,0,0,0,0,0,0,-1,559,869,-49.7236,5.71005
-658,155,-41.7332,4.93372,0,0,0,0,0,0,0,-1,566,869,-41.7332,-4.93369
-651,155,-48.6924,-4.29907,0,0,0,0,0,0,0,-1,573,869,-48.6924,4.29909
-644,155,-39.7001,8.02875,0,0,0,0,0,0,0,-1,580,869,-39.7001,-8.02874
-637,155,-36.8124,5.15515,0,0,0,0,0,0,0,-1,587,869,-36.8125,-5.15516
-630,155,-37.2837,5.99585,0,0,0,0,0,0,0,-1,594,869,-37.2837,-5.99586
-623,155,-37.3781,5.26843,-0.00734464,0.00920828,-0.000679806,0.00923615,-0.00737251,-1.52982,0.00960912,0.0274447,601,869,-37.3781,-5.26844
-616,155,-37.4899,4.53259,-0.00673862,0.00688378,2.11201e-05,0.00688381,-0.00673866,1.56925,0.00786509,0.0156459,608,869,-37.4898,-4.53261
-609,155,-37.5745,3.82574,-0.00622212,0.00478526,0.000677926,0.00482685,-0.00626372,1.50952,0.00642103,0.0140963,615,869,-37.5745,-3.82572
-602,155,-37.6127,3.1853,-0.0059124,0.00283245,0.00132051,0.0030275,-0.00610745,1.42415,0.00537306,0.0133681,622,869,-37.6127,-3.18529
-595,155,-37.6475,2.55817,-0.00567961,0.00131109,0.00180735,0.00175071,-0.00611923,1.33219,0.00477135,0.0129159,629,869,-37.6475,-2.5582
-588,155,-37.6267,1.95575,-0.00528196,0.000195662,0.00212638,0.000924211,-0.00601051,1.24071,0.00434794,0.0195236,636,869,-37.6267,-1.95574
-581,155,-37.929,1.45477,-0.00477265,-1.79022e-05,0.0022653,0.00088855,-0.0056791,1.19016,0.00411436,0.0388589,643,869,-37.9289,-1.45476
-574,155,-38.0311,0.861206,-0.00440483,0.000370611,0.00232061,0.00131252,-0.00534674,1.18522,0.00407311,0.042806,650,869,-38.0311,-0.861179
-567,155,-37.665,0.45459,0,0,0,0,0,0,0,-1,657,869,-37.6651,-0.454596
-560,155,-37.1416,-0.708008,0,0,0,0,0,0,0,-1,664,869,-37.1416,0.70801
-553,155,-36.7729,-1.71521,0,0,0,0,0,0,0,-1,671,869,-36.7729,1.71523
-546,155,-22.7988,0.873657,0,0,0,0,0,0,0,-1,678,869,-22.7988,-0.873645
-539,155,-46.3635,0.673035,0,0,0,0,0,0,0,-1,685,869,-46.3635,-0.673005
-532,155,-46.2688,0.951965,-0.00143657,-0.000358872,-0.00116661,0.00038732,-0.00218276,-1.00175,0.00159999,0.0346274,692,869,-46.2688,-0.951962
-525,155,-46.2917,1.06091,-0.000347536,-0.000391596,-0.00220314,0.00183368,-0.00257281,-0.780399,0.00255599,0.036648,699,869,-46.2917,-1.06093
-518,155,-46.368,1.20667,0.000686929,-0.000373258,-0.00284347,0.0030493,-0.00273563,-0.693244,0.00334156,0.0408108,706,869,-46.368,-1.20666
-511,155,-46.2934,1.10071,0.00282713,-0.00187784,-0.00251521,0.00391855,-0.00296925,-0.409408,0.00398924,0.0439594,713,869,-46.2934,-1.10069
-504,155,-46.2141,0.936096,0.00624218,-0.00387039,-0.00172685,0.00652893,-0.00415714,-0.164553,0.00622005,0.0431678,720,869,-46.2141,-0.936068
-497,155,0,0,0,0,0,0,0,0,0,-1,727,869,0,0
-490,155,0,0,0,0,0,0,0,0,0,-1,734,869,0,0
-483,155,0,0,0,0,0,0,0,0,0,-1,741,869,0,0
-476,155,0,0,0,0,0,0,0,0,0,-1,748,869,0,0
-469,155,0,0,0,0,0,0,0,0,0,-1,755,869,0,0
-462,155,0,0,0,0,0,0,0,0,0,-1,762,869,0,0
-455,155,0,0,0,0,0,0,0,0,0,-1,769,869,0,0
-448,155,0,0,0,0,0,0,0,0,0,-1,776,869,0,0
-441,155,0,0,0,0,0,0,0,0,0,-1,783,869,0,0
-434,155,0,0,0,0,0,0,0,0,0,-1,790,869,0,0
-427,155,0,0,0,0,0,0,0,0,0,-1,797,869,0,0
-420,155,0,0,0,0,0,0,0,0,0,-1,804,869,0,0
-413,155,0,0,0,0,0,0,0,0,0,-1,811,869,0,0
-406,155,0,0,0,0,0,0,0,0,0,-1,818,869,0,0
-399,155,0,0,0,0,0,0,0,0,0,-1,825,869,0,0
-392,155,0,0,0,0,0,0,0,0,0,-1,832,869,0,0
-385,155,0,0,0,0,0,0,0,0,0,-1,839,869,0,0
-378,155,0,0,0,0,0,0,0,0,0,-1,846,869,0,0
-371,155,0,0,0,0,0,0,0,0,0,-1,853,869,0,0
-364,155,0,0,0,0,0,0,0,0,0,-1,860,869,0,0
-357,155,0,0,0,0,0,0,0,0,0,-1,867,869,0,0
-350,155,0,0,0,0,0,0,0,0,0,-1,874,869,0,0
-343,155,0,0,0,0,0,0,0,0,0,-1,881,869,0,0
-336,155,0,0,0,0,0,0,0,0,0,-1,888,869,0,0
-329,155,0,0,0,0,0,0,0,0,0,-1,895,869,0,0
-322,155,0,0,0,0,0,0,0,0,0,-1,902,869,0,0
-315,155,0,0,0,0,0,0,0,0,0,-1,909,869,0,0
-308,155,0,0,0,0,0,0,0,0,0,-1,916,869,0,0
-301,155,0,0,0,0,0,0,0,0,0,-1,923,869,0,0
-294,155,0,0,0,0,0,0,0,0,0,-1,930,869,0,0
-287,155,0,0,0,0,0,0,0,0,0,-1,937,869,0,0
-280,155,0,0,0,0,0,0,0,0,0,-1,944,869,0,0
-273,155,0,0,0,0,0,0,0,0,0,-1,951,869,0,0
-266,155,0,0,0,0,0,0,0,0,0,-1,958,869,0,0
-259,155,0,0,0,0,0,0,0,0,0,-1,965,869,0,0
-252,155,0,0,0,0,0,0,0,0,0,-1,972,869,0,0
-245,155,0,0,0,0,0,0,0,0,0,-1,979,869,0,0
-238,155,0,0,0,0,0,0,0,0,0,-1,986,869,0,0
-231,155,0,0,0,0,0,0,0,0,0,-1,993,869,0,0
-224,155,0,0,0,0,0,0,0,0,0,-1,1000,869,0,0
-217,155,0,0,0,0,0,0,0,0,0,-1,1007,869,0,0
-210,155,0,0,0,0,0,0,0,0,0,-1,1014,869,0,0
-203,155,0,0,0,0,0,0,0,0,0,-1,1021,869,0,0
-196,155,0,0,0,0,0,0,0,0,0,-1,1028,869,0,0
-189,155,0,0,0,0,0,0,0,0,0,-1,1035,869,0,0
-182,155,0,0,0,0,0,0,0,0,0,-1,1042,869,0,0
-175,155,0,0,0,0,0,0,0,0,0,-1,1049,869,0,0
-168,155,0,0,0,0,0,0,0,0,0,-1,1056,869,0,0
-161,155,0,0,0,0,0,0,0,0,0,-1,1063,869,0,0
-154,155,0,0,0,0,0,0,0,0,0,-1,1070,869,0,0
-147,155,0,0,0,0,0,0,0,0,0,-1,1077,869,0,0
-140,155,0,0,0,0,0,0,0,0,0,-1,1084,869,0,0
-133,155,0,0,0,0,0,0,0,0,0,-1,1091,869,0,0
-126,155,0,0,0,0,0,0,0,0,0,-1,1098,869,0,0
-119,155,0,0,0,0,0,0,0,0,0,-1,1105,869,0,0
-112,155,0,0,0,0,0,0,0,0,0,-1,1112,869,0,0
-105,155,0,0,0,0,0,0,0,0,0,-1,1119,869,0,0
-98,155,0,0,0,0,0,0,0,0,0,-1,1126,869,0,0
-91,155,0,0,0,0,0,0,0,0,0,-1,1133,869,0,0
-84,155,0,0,0,0,0,0,0,0,0,-1,1140,869,0,0
-77,155,0,0,0,0,0,0,0,0,0,-1,1147,869,0,0
-70,155,0,0,0,0,0,0,0,0,0,-1,1154,869,0,0
-63,155,0,0,0,0,0,0,0,0,0,-1,1161,869,0,0
-56,155,0,0,0,0,0,0,0,0,0,-1,1168,869,0,0
-49,155,0,0,0,0,0,0,0,0,0,-1,1175,869,0,0
-42,155,0,0,0,0,0,0,0,0,0,-1,1182,869,0,0
-35,155,0,0,0,0,0,0,0,0,0,-1,1189,869,0,0
-28,155,0,0,0,0,0,0,0,0,0,-1,1196,869,0,0
-21,155,0,0,0,0,0,0,0,0,0,-1,1203,869,0,0
-14,155,0,0,0,0,0,0,0,0,0,-1,1210,869,0,0
-7,155,0,0,0,0,0,0,0,0,0,-1,1217,869,0,0
0,155,0,0,0,0,0,0,0,0,0,-1,1224,869,0,0
7,155,0,0,0,0,0,0,0,0,0,-1,1231,869,0,0
14,155,0,0,0,0,0,0,0,0,0,-1,1238,869,0,0
21,155,0,0,0,0,0,0,0,0,0,-1,1245,869,0,0
28,155,0,0,0,0,0,0,0,0,0,-1,1252,869,0,0
35,155,0,0,0,0,0,0,0,0,0,-1,1259,869,0,0
42,155,0,0,0,0,0,0,0,0,0,-1,1266,869,0,0
49,155,0,0,0,0,0,0,0,0,0,-1,1273,869,0,0
56,155,0,0,0,0,0,0,0,0,0,-1,1280,869,0,0
63,155,0,0,0,0,0,0,0,0,0,-1,1287,869,0,0
70,155,0,0,0,0,0,0,0,0,0,-1,1294,869,0,0
77,155,0,0,0,0,0,0,0,0,0,-1,1301,869,0,0
84,155,0,0,0,0,0,0,0,0,0,-1,1308,869,0,0
91,155,0,0,0,0,0,0,0,0,0,-1,1315,869,0,0
98,155,0,0,0,0,0,0,0,0,0,-1,1322,869,0,0
105,155,0,0,0,0,0,0,0,0,0,-1,1329,869,0,0
112,155,0,0,0,0,0,0,0,0,0,-1,1336,869,0,0
119,155,0,0,0,0,0,0,0,0,0,-1,1343,869,0,0
126,155,0,0,0,0,0,0,0,0,0,-1,1350,869,0,0
133,155,0,0,0,0,0,0,0,0,0,-1,1357,869,0,0
140,155,0,0,0,0,0,0,0,0,0,-1,1364,869,0,0
147,155,0,0,0,0,0,0,0,0,0,-1,1371,869,0,0
154,155,0,0,0,0,0,0,0,0,0,-1,1378,869,0,0
161,155,0,0,0,0,0,0,0,0,0,-1,1385,869,0,0
168,155,0,0,0,0,0,0,0,0,0,-1,1392,869,0,0
175,155,0,0,0,0,0,0,0,0,0,-1,1399,869,0,0
182,155,0,0,0,0,0,0,0,0,0,-1,1406,869,0,0
189,155,0,0,0,0,0,0,0,0,0,-1,1413,869,0,0
196,155,0,0,0,0,0,0,0,0,0,-1,1420,869,0,0
203,155,0,0,0,0,0,0,0,0,0,-1,1427,869,0,0
210,155,0,0,0,0,0,0,0,0,0,-1,1434,869,0,0
217,155,0,0,0,0,0,0,0,0,0,-1,1441,869,0,0
224,155,0,0,0,0,0,0,0,0,0,-1,1448,869,0,0
231,155,0,0,0,0,0,0,0,0,0,-1,1455,869,0,0
238,155,0,0,0,0,0,0,0,0,0,-1,1462,869,0,0
245,155,0,0,0,0,0,0,0,0,0,-1,1469,869,0,0
252,155,0,0,0,0,0,0,0,0,0,-1,1476,869,0,0
259,155,0,0,0,0,0,0,0,0,0,-1,1483,869,0,0
266,155,0,0,0,0,0,0,0,0,0,-1,1490,869,0,0
273,155,0,0,0,0,0,0,0,0,0,-1,1497,869,0,0
280,155,0,0,0,0,0,0,0,0,0,-1,1504,869,0,0
287,155,0,0,0,0,0,0,0,0,0,-1,1511,869,0,0
294,155,0,0,0,0,0,0,0,0,0,-1,1518,869,0,0
301,155,0,0,0,0,0,0,0,0,0,-1,1525,869,0,0
308,155,0,0,0,0,0,0,0,0,0,-1,1532,869,0,0
315,155,0,0,0,0,0,0,0,0,0,-1,1539,869,0,0
322,155,0,0,0,0,0,0,0,0,0,-1,1546,869,0,0
329,155,0,0,0,0,0,0,0,0,0,-1,1553,869,0,0
336,155,0,0,0,0,0,0,0,0,0,-1,1560,869,0,0
343,155,0,0,0,0,0,0,0,0,0,-1,1567,869,0,0
350,155,0,0,0,0,0,0,0,0,0,-1,1574,869,0,0
357,155,0,0,0,0,0,0,0,0,0,-1,1581,869,0,0
364,155,0,0,0,0,0,0,0,0,0,-1,1588,869,0,0
371,155,0,0,0,0,0,0,0,0,0,-1,1595,869,0,0
378,155,0,0,0,0,0,0,0,0,0,-1,1602,869,0,0
385,155,0,0,0,0,0,0,0,0,0,-1,1609,869,0,0
392,155,0,0,0,0,0,0,0,0,0,-1,1616,869,0,0
399,155,0,0,0,0,0,0,0,0,0,-1,1623,869,0,0
406,155,0,0,0,0,0,0,0,0,0,-1,1630,869,0,0
413,155,0,0,0,0,0,0,0,0,0,-1,1637,869,0,0
420,155,0,0,0,0,0,0,0,0,0,-1,1644,869,0,0
427,155,0,0,0,0,0,0,0,0,0,-1,1651,869,0,0
434,155,0,0,0,0,0,0,0,0,0,-1,1658,869,0,0
441,155,0,0,0,0,0,0,0,0,0,-1,1665,869,0,0
448,155,0,0,0,0,0,0,0,0,0,-1,1672,869,0,0
455,155,0,0,0,0,0,0,0,0,0,-1,1679,869,0,0
462,155,0,0,0,0,0,0,0,0,0,-1,1686,869,0,0
469,155,0,0,0,0,0,0,0,0,0,-1,1693,869,0,0
476,155,0,0,0,0,0,0,0,0,0,-1,1700,869,0,0
483,155,0,0,0,0,0,0,0,0,0,-1,1707,869,0,0
490,155,0,0,0,0,0,0,0,0,0,-1,1714,869,0,0
497,155,0,0,0,0,0,0,0,0,0,-1,1721,869,0,0
504,155,0,0,0,0,0,0,0,0,0,-1,1728,869,0,0
511,155,0,0,0,0,0,0,0,0,0,-1,1735,869,0,0
518,155,0,0,0,0,0,0,0,0,0,-1,1742,869,0,0
525,155,0,0,0,0,0,0,0,0,0,-1,1749,869,0,0
532,155,0,0,0,0,0,0,0,0,0,-1,1756,869,0,0
539,155,0,0,0,0,0,0,0,0,0,-1,1763,869,0,0
546,155,0,0,0,0,0,0,0,0,0,-1,1770,869,0,0
553,155,0,0,0,0,0,0,0,0,0,-1,1777,869,0,0
560,155,0,0,0,0,0,0,0,0,0,-1,1784,869,0,0
567,155,0,0,0,0,0,0,0,0,0,-1,1791,869,0,0
574,155,0,0,0,0,0,0,0,0,0,-1,1798,869,0,0
581,155,0,0,0,0,0,0,0,0,0,-1,1805,869,0,0
588,155,0,0,0,0,0,0,0,0,0,-1,1812,869,0,0
595,155,0,0,0,0,0,0,0,0,0,-1,1819,869,0,0
602,155,0,0,0,0,0,0,0,0,0,-1,1826,869,0,0
609,155,0,0,0,0,0,0,0,0,0,-1,1833,869,0,0
616,155,60.6823,2.62292,0,0,0,0,0,0,0,-1,1840,869,60.6823,-2.62293
623,155,60.8008,2.55005,0.00511475,-0.000773688,-0.00122487,0.00535938,-0.00101832,-0.197123,0.00395628,0.0447268,1847,869,60.8008,-2.55005
630,155,60.8855,2.31122,0.00325915,-5.56498e-05,-0.000145077,0.00326548,-6.19872e-05,-0.0436552,0.00219794,0.0446115,1854,869,60.8855,-2.3112
637,155,60.9103,2.42841,0.00169319,0.000640642,0.000560487,0.00193576,0.000398079,0.408434,0.0011804,0.0417786,1861,869,60.9102,-2.42843
644,155,61.0155,2.64081,0.000442833,0.000859608,0.000742397,0.00142231,-0.000119869,0.922225,0.000990584,0.0390933,1868,869,61.0155,-2.64081
651,155,60.9846,2.65936,-0.000499804,0.000631593,0.000438848,0.000781857,-0.000650068,1.2409,0.000827888,0.0347221,1875,869,60.9846,-2.65934
658,155,60.9495,2.66327,-0.000990274,-1.63329e-05,-0.000199229,2.28452e-05,-0.00102945,-1.37662,0.000694042,0.027402,1882,869,60.9495,-2.66324
665,155,60.9113,2.68939,-0.00140136,-0.00017703,-0.000533728,2.29699e-05,-0.00160136,-1.21227,0.00107531,0.0329471,1889,869,60.9113,-2.68939
672,155,60.8718,2.61829,0,0,0,0,0,0,0,-1,1896,869,60.8718,-2.61828
679,155,35.1565,2.78528,0,0,0,0,0,0,0,-1,1903,869,35.1565,-2.7853
686,155,43.6101,1.63361,0,0,0,0,0,0,0,-1,1910,869,43.6101,-1.63362
693,155,51.5094,1.83722,0,0,0,0,0,0,0,-1,1917,869,51.5094,-1.83721
700,155,51.3988,2.46173,-0.00160395,-0.00107883,-0.0021797,0.00085407,-0.00353685,-0.845339,0.0026882,0.0477416,1924,869,51.3988,-2.46173
707,155,51.3126,3.1109,-0.00148727,-0.00102076,-0.00229828,0.00105607,-0.0035641,-0.83597,0.0027954,0.0299213,1931,869,51.3126,-3.11088
714,155,51.0553,3.5321,0,0,0,0,0,0,0,-1,1938,869,51.0553,-3.53213
721,155,50.9469,4.31006,-0.00143657,-0.000234474,-0.00221048,0.00145522,-0.00312626,-0.918143,0.00270313,0.0397333,1945,869,50.9469,-4.31006
728,155,50.9329,4.98798,-0.00164901,0.000434316,-0.00202734,0.00167194,-0.00288664,-1.02271,0.00266286,0.0212484,1952,869,50.9329,-4.98797
735,155,50.9249,5.62317,-0.00200651,0.00124307,-0.00188583,0.00210752,-0.00287096,-1.14099,0.00288557,0.0178891,1959,869,50.9249,-5.62316
742,155,50.9091,6.26709,-0.00248742,0.00216545,-0.0018312,0.00279969,-0.00312166,-1.23738,0.00342038,0.0194939,1966,869,50.909,-6.2671
749,155,50.8044,6.90234,-0.00314598,0.00312259,-0.00190888,0.00365812,-0.00368151,-1.29728,0.00423755,0.0174404,1973,869,50.8044,-6.90237
756,155,50.7085,7.62469,-0.00408883,0.00419491,-0.00220594,0.00474572,-0.00463964,-1.32611,0.00541876,0.0289841,1980,869,50.7085,-7.62468
763,155,50.6217,8.39532,-0.00501046,0.00497631,-0.00291708,0.00576594,-0.00580009,-1.30644,0.00667766,0.0466516,1987,869,50.6217,-8.39532
770,155,50.4985,9.16278,0,0,0,0,0,0,0,-1,1994,869,50.4986,-9.16279
777,155,50.2205,9.64087,0,0,0,0,0,0,0,-1,2001,869,50.2204,-9.64088
784,155,48.3962,11.3304,0,0,0,0,0,0,0,-1,2008,869,48.3963,-11.3305
791,155,0,0,0,0,0,0,0,0,0,-1,2015,869,0,0
798,155,0,0,0,0,0,0,0,0,0,-1,2022,869,0,0
805,155,0,0,0,0,0,0,0,0,0,-1,2029,869,0,0
812,155,0,0,0,0,0,0,0,0,0,-1,2036,869,0,0
-700,148,0,0,0,0,0,0,0,0,0,-1,524,876,0,0
-693,148,0,0,0,0,0,0,0,0,0,-1,531,876,0,0
-686,148,0,0,0,0,0,0,0,0,0,-1,538,876,0,0
-679,148,0,0,0,0,0,0,0,0,0,-1,545,876,0,0
-672,148,-50.7983,-6.18927,0,0,0,0,0,0,0,-1,552,876,-50.7983,6.18924
-665,148,-49.6966,-5.40942,0,0,0,0,0,0,0,-1,559,876,-49.6966,5.40942
-658,148,-48.4429,-4.58167,0,0,0,0,0,0,0,-1,566,876,-48.4428,4.58164
-651,148,-48.2202,-3.84912,0,0,0,0,0,0,0,-1,573,876,-48.2202,3.84915
-644,148,-47.3098,-2.93317,0,0,0,0,0,0,0,-1,580,876,-47.3098,2.93315
-637,148,-43.4385,2.36011,0,0,0,0,0,0,0,-1,587,876,-43.4385,-2.36011
-630,148,-37.746,6.08295,0,0,0,0,0,0,0,-1,594,876,-37.746,-6.08293
-623,148,-37.9579,5.30139,-0.00795049,0.0095143,-0.000207382,0.00951676,-0.00795296,-1.55892,0.0100996,0.0284766,601,876,-37.9579,-5.30141
-616,148,-38.1334,4.55237,-0.00707405,0.00702121,0.000410668,0.00703316,-0.00708601,1.54169,0.00815173,0.0145104,608,876,-38.1334,-4.5524
-609,148,-38.2296,3.85754,-0.00639644,0.00475416,0.0010191,0.00484654,-0.00648881,1.4804,0.00656732,0.0129891,615,876,-38.2296,-3.85756
-602,148,-38.2941,3.21881,-0.00599393,0.00269921,0.0016118,0.00298843,-0.00628315,1.39324,0.00546445,0.0157418,622,876,-38.2941,-3.21881
-595,148,-38.316,2.59521,-0.00572458,0.00120527,0.00200955,0.00174584,-0.00626515,1.30802,0.00486429,0.013826,629,876,-38.316,-2.59522
-588,148,-38.3046,1.89191,-0.00531893,0.000163672,0.00223746,0.00096087,-0.00611613,1.22852,0.00443256,0.0288553,636,876,-38.3046,-1.89193
-581,148,-38.4876,1.42395,-0.00490648,2.97576e-05,0.00231946,0.000948603,-0.00582533,1.19362,0.00423531,0.0452109,643,876,-38.4876,-1.42396
-574,148,-38.2397,1.07983,0,0,0,0,0,0,0,-1,650,876,-38.2398,-1.07984
-567,148,-35.6293,0.615784,0,0,0,0,0,0,0,-1,657,876,-35.6293,-0.615792
-560,148,-37.7973,-0.588135,0,0,0,0,0,0,0,-1,664,876,-37.7973,0.588143
-553,148,-18.3896,-0.00280762,0,0,0,0,0,0,0,-1,671,876,-18.3897,0.00278524
-546,148,-46.4156,0.619507,0,0,0,0,0,0,0,-1,678,876,-46.4156,-0.619537
-539,148,-46.2229,0.74054,-0.00282268,-0.000525274,3.71698e-05,-0.000524673,-0.00282328,1.55462,0.00173396,0.0427496,685,876,-46.2229,-0.740525
-532,148,-46.2303,0.944397,-0.00184175,-0.000430303,-0.000556601,-0.000237222,-0.00203483,-1.23689,0.0012848,0.0356772,692,876,-46.2303,-0.944404
-525,148,-46.2487,1.06537,-0.0007301,-0.00060436,-0.00155069,0.000884738,-0.0022192,-0.805659,0.00184644,0.0380078,699,876,-46.2487,-1.06538
-518,148,-46.2931,1.17065,0.000472783,-0.000944312,-0.00206492,0.00194734,-0.00241887,-0.620125,0.00252573,0.0447793,706,876,-46.2931,-1.17064
-511,148,-46.3689,1.36523,0.00251482,-0.00235592,-0.00189625,0.003166,-0.00300709,-0.330786,0.00356443,0.0445459,713,876,-46.3689,-1.36521
-504,148,-46.1563,1.1994,0.00530383,-0.00412736,-0.00131141,0.00548278,-0.00430632,-0.135624,0.00566533,0.0431482,720,876,-46.1562,-1.19941
-497,148,0,0,0,0,0,0,0,0,0,-1,727,876,0,0
-490,148,0,0,0,0,0,0,0,0,0,-1,734,876,0,0
-483,148,0,0,0,0,0,0,0,0,0,-1,741,876,0,0
-476,148,0,0,0,0,0,0,0,0,0,-1,748,876,0,0
-469,148,0,0,0,0,0,0,0,0,0,-1,755,876,0,0
-462,148,0,0,0,0,0,0,0,0,0,-1,762,876,0,0
-455,148,0,0,0,0,0,0,0,0,0,-1,769,876,0,0
-448,148,0,0,0,0,0,0,0,0,0,-1,776,876,0,0
-441,148,0,0,0,0,0,0,0,0,0,-1,783,876,0,0
-434,148,0,0,0,0,0,0,0,0,0,-1,790,876,0,0
-427,148,0,0,0,0,0,0,0,0,0,-1,797,876,0,0
-420,148,0,0,0,0,0,0,0,0,0,-1,804,876,0,0
-413,148,0,0,0,0,0,0,0,0,0,-1,811,876,0,0
-406,148,0,0,0,0,0,0,0,0,0,-1,818,876,0,0
-399,148,0,0,0,0,0,0,0,0,0,-1,825,876,0,0
-392,148,0,0,0,0,0,0,0,0,0,-1,832,876,0,0
-385,148,0,0,0,0,0,0,0,0,0,-1,839,876,0,0
-378,148,0,0,0,0,0,0,0,0,0,-1,846,876,0,0
-371,148,0,0,0,0,0,0,0,0,0,-1,853,876,0,0
-364,148,0,0,0,0,0,0,0,0,0,-1,860,876,0,0
-357,148,0,0,0,0,0,0,0,0,0,-1,867,876,0,0
-350,148,0,0,0,0,0,0,0,0,0,-1,874,876,0,0
-343,148,0,0,0,0,0,0,0,0,0,-1,881,876,0,0
-336,148,0,0,0,0,0,0,0,0,0,-1,888,876,0,0
-329,148,0,0,0,0,0,0,0,0,0,-1,895,876,0,0
-322,148,0,0,0,0,0,0,0,0,0,-1,902,876,0,0
-315,148,0,0,0,0,0,0,0,0,0,-1,909,876,0,0
-308,148,0,0,0,0,0,0,0,0,0,-1,916,876,0,0
-301,148,0,0,0,0,0,0,0,0,0,-1,923,876,0,0
-294,148,0,0,0,0,0,0,0,0,0,-1,930,876,0,0
-287,148,0,0,0,0,0,0,0,0,0,-1,937,876,0,0
-280,148,0,0,0,0,0,0,0,0,0,-1,944,876,0,0
-273,148,0,0,0,0,0,0,0,0,0,-1,951,876,0,0
-266,148,0,0,0,0,0,0,0,0,0,-1,958,876,0,0
-259,148,0,0,0,0,0,0,0,0,0,-1,965,876,0,0
-252,148,0,0,0,0,0,0,0,0,0,-1,972,876,0,0
-245,148,0,0,0,0,0,0,0,0,0,-1,979,876,0,0
-238,148,0,0,0,0,0,0,0,0,0,-1,986,876,0,0
-231,148,0,0,0,0,0,0,0,0,0,-1,993,876,0,0
-224,148,0,0,0,0,0,0,0,0,0,-1,1000,876,0,0
-217,148,0,0,0,0,0,0,0,0,0,-1,1007,876,0,0
-210,148,0,0,0,0,0,0,0,0,0,-1,1014,876,0,0
-203,148,0,0,0,0,0,0,0,0,0,-1,1021,876,0,0
-196,148,0,0,0,0,0,0,0,0,0,-1,1028,876,0,0
-189,148,0,0,0,0,0,0,0,0,0,-1,1035,876,0,0
-182,148,0,0,0,0,0,0,0,0,0,-1,1042,876,0,0
-175,148,0,0,0,0,0,0,0,0,0,-1,1049,876,0,0
-168,148,0,0,0,0,0,0,0,0,0,-1,1056,876,0,0
-161,148,0,0,0,0,0,0,0,0,0,-1,1063,876,0,0
-154,148,0,0,0,0,0,0,0,0,0,-1,1070,876,0,0
-147,148,0,0,0,0,0,0,0,0,0,-1,1077,876,0,0
-140,148,0,0,0,0,0,0,0,0,0,-1,1084,876,0,0
-133,148,0,0,0,0,0,0,0,0,0,-1,1091,876,0,0
-126,148,0,0,0,0,0,0,0,0,0,-1,1098,876,0,0
-119,148,0,0,0,0,0,0,0,0,0,-1,1105,876,0,0
-112,148,0,0,0,0,0,0,0,0,0,-1,1112,876,0,0
-105,148,0,0,0,0,0,0,0,0,0,-1,1119,876,0,0
-98,148,0,0,0,0,0,0,0,0,0,-1,1126,876,0,0
-91,148,0,0,0,0,0,0,0,0,0,-1,1133,876,0,0
-84,148,0,0,0,0,0,0,0,0,0,-1,1140,876,0,0
-77,148,0,0,0,0,0,0,0,0,0,-1,1147,876,0,0
-70,148,0,0,0,0,0,0,0,0,0,-1,1154,876,0,0
-63,148,0,0,0,0,0,0,0,0,0,-1,1161,876,0,0
-56,148,0,0,0,0,0,0,0,0,0,-1,1168,876,0,0
-49,148,0,0,0,0,0,0,0,0,0,-1,1175,876,0,0
-42,148,0,0,0,0,0,0,0,0,0,-1,1182,876,0,0
-35,148,0,0,0,0,0,0,0,0,0,-1,1189,876,0,0
-28,148,0,0,0,0,0,0,0,0,0,-1,1196,876,0,0
-21,148,0,0,0,0,0,0,0,0,0,-1,1203,876,0,0
-14,148,0,0,0,0,0,0,0,0,0,-1,1210,876,0,0
-7,148,0,0,0,0,0,0,0,0,0,-1,1217,876,0,0
0,148,0,0,0,0,0,0,0,0,0,-1,1224,876,0,0
7,148,0,0,0,0,0,0,0,0,0,-1,1231,876,0,0
14,148,0,0,0,0,0,0,0,0,0,-1,1238,876,0,0
21,148,0,0,0,0,0,0,0,0,0,-1,1245,876,0,0
28,148,0,0,0,0,0,0,0,0,0,-1,1252,876,0,0
35,148,0,0,0,0,0,0,0,0,0,-1,1259,876,0,0
42,148,0,0,0,0,0,0,0,0,0,-1,1266,876,0,0
49,148,0,0,0,0,0,0,0,0,0,-1,1273,876,0,0
56,148,0,0,0,0,0,0,0,0,0,-1,1280,876,0,0
63,148,0,0,0,0,0,0,0,0,0,-1,1287,876,0,0
70,148,0,0,0,0,0,0,0,0,0,-1,1294,876,0,0
77,148,0,0,0,0,0,0,0,0,0,-1,1301,876,0,0
84,148,0,0,0,0,0,0,0,0,0,-1,1308,876,0,0
91,148,0,0,0,0,0,0,0,0,0,-1,1315,876,0,0
98,148,0,0,0,0,0,0,0,0,0,-1,1322,876,0,0
105,148,0,0,0,0,0,0,0,0,0,-1,1329,876,0,0
112,148,0,0,0,0,0,0,0,0,0,-1,1336,876,0,0
119,148,0,0,0,0,0,0,0,0,0,-1,1343,876,0,0
126,148,0,0,0,0,0,0,0,0,0,-1,1350,876,0,0
133,148,0,0,0,0,0,0,0,0,0,-1,1357,876,0,0
140,148,0,0,0,0,0,0,0,0,0,-1,1364,876,0,0
147,148,0,0,0,0,0,0,0,0,0,-1,1371,876,0,0
154,148,0,0,0,0,0,0,0,0,0,-1,1378,876,0,0
161,148,0,0,0,0,0,0,0,0,0,-1,1385,876,0,0
168,148,0,0,0,0,0,0,0,0,0,-1,1392,876,0,0
175,148,0,0,0,0,0,0,0,0,0,-1,1399,876,0,0
182,148,0,0,0,0,0,0,0,0,0,-1,1406,876,0,0
189,148,0,0,0,0,0,0,0,0,0,-1,1413,876,0,0
196,148,0,0,0,0,0,0,0,0,0,-1,1420,876,0,0
203,148,0,0,0,0,0,0,0,0,0,-1,1427,876,0,0
210,148,0,0,0,0,0,0,0,0,0,-1,1434,876,0,0
217,148,0,0,0,0,0,0,0,0,0,-1,1441,876,0,0
224,148,0,0,0,0,0,0,0,0,0,-1,1448,876,0,0
231,148,0,0,0,0,0,0,0,0,0,-1,1455,876,0,0
238,148,0,0,0,0,0,0,0,0,0,-1,1462,876,0,0
245,148,0,0,0,0,0,0,0,0,0,-1,1469,876,0,0
252,148,0,0,0,0,0,0,0,0,0,-1,1476,876,0,0
259,148,0,0,0,0,0,0,0,0,0,-1,1483,876,0,0
266,148,0,0,0,0,0,0,0,0,0,-1,1490,876,0,0
273,148,0,0,0,0,0,0,0,0,0,-1,1497,876,0,0
280,148,0,0,0,0,0,0,0,0,0,-1,1504,876,0,0
287,148,0,0,0,0,0,0,0,0,0,-1,1511,876,0,0
294,148,0,0,0,0,0,0,0,0,0,-1,1518,876,0,0
301,148,0,0,0,0,0,0,0,0,0,-1,1525,876,0,0
308,148,0,0,0,0,0,0,0,0,0,-1,1532,876,0,0
315,148,0,0,0,0,0,0,0,0,0,-1,1539,876,0,0
322,148,0,0,0,0,0,0,0,0,0,-1,1546,876,0,0
329,148,0,0,0,0,0,0,0,0,0,-1,1553,876,0,0
336,148,0,0,0,0,0,0,0,0,0,-1,1560,876,0,0
343,148,0,0,0,0,0,0,0,0,0,-1,1567,876,0,0
350,148,0,0,0,0,0,0,0,0,0,-1,1574,876,0,0
357,148,0,0,0,0,0,0,0,0,0,-1,1581,876,0,0
364,148,0,0,0,0,0,0,0,0,0,-1,1588,876,0,0
371,148,0,0,0,0,0,0,0,0,0,-1,1595,876,0,0
378,148,0,0,0,0,0,0,0,0,0,-1,1602,876,0,0
385,148,0,0,0,0,0,0,0,0,0,-1,1609,876,0,0
392,148,0,0,0,0,0,0,0,0,0,-1,1616,876,0,0
399,148,0,0,0,0,0,0,0,0,0,-1,1623,876,0,0
406,148,0,0,0,0,0,0,0,0,0,-1,1630,876,0,0
413,148,0,0,0,0,0,0,0,0,0,-1,1637,876,0,0
420,148,0,0,0,0,0,0,0,0,0,-1,1644,876,0,0
427,148,0,0,0,0,0,0,0,0,0,-1,1651,876,0,0
434,148,0,0,0,0,0,0,0,0,0,-1,1658,876,0,0
441,148,0,0,0,0,0,0,0,0,0,-1,1665,876,0,0
448,148,0,0,0,0,0,0,0,0,0,-1,1672,876,0,0
455,148,0,0,0,0,0,0,0,0,0,-1,1679,876,0,0
462,148,0,0,0,0,0,0,0,0,0,-1,1686,876,0,0
469,148,0,0,0,0,0,0,0,0,0,-1,1693,876,0,0
476,148,0,0,0,0,0,0,0,0,0,-1,1700,876,0,0
483,148,0,0,0,0,0,0,0,0,0,-1,1707,876,0,0
490,148,0,0,0,0,0,0,0,0,0,-1,1714,876,0,0
497,148,0,0,0,0,0,0,0,0,0,-1,1721,876,0,0
504,148,0,0,0,0,0,0,0,0,0,-1,1728,876,0,0
511,148,0,0,0,0,0,0,0,0,0,-1,1735,876,0,0
518,148,0,0,0,0,0,0,0,0,0,-1,1742,876,0,0
525,148,0,0,0,0,0,0,0,0,0,-1,1749,876,0,0
532,148,0,0,0,0,0,0,0,0,0,-1,1756,876,0,0
539,148,0,0,0,0,0,0,0,0,0,-1,1763,876,0,0
546,148,0,0,0,0,0,0,0,0,0,-1,1770,876,0,0
553,148,0,0,0,0,0,0,0,0,0,-1,1777,876,0,0
560,148,0,0,0,0,0,0,0,0,0,-1,1784,876,0,0
567,148,0,0,0,0,0,0,0,0,0,-1,1791,876,0,0
574,148,0,0,0,0,0,0,0,0,0,-1,1798,876,0,0
581,148,0,0,0,0,0,0,0,0,0,-1,1805,876,0,0
588,148,0,0,0,0,0,0,0,0,0,-1,1812,876,0,0
595,148,0,0,0,0,0,0,0,0,0,-1,1819,876,0,0
602,148,0,0,0,0,0,0,0,0,0,-1,1826,876,0,0
609,148,0,0,0,0,0,0,0,0,0,-1,1833,876,0,0
616,148,0,0,0,0,0,0,0,0,0,-1,1840,876,0,0
623,148,60.9503,2.68781,0.00479015,-0.00134913,-0.000844559,0.00490422,-0.0014632,-0.134245,0.00385101,0.0439468,1847,876,60.9503,-2.68781
630,148,60.8298,2.46033,0.00319557,-0.000725386,3.22412e-05,0.00319584,-0.000725651,0.00822205,0.00240915,0.0435094,1854,876,60.8298,-2.46031
637,148,60.8615,2.59161,0.0018623,-4.32114e-05,0.000564994,0.00201722,-0.000198139,0.267632,0.00141549,0.0401763,1861,876,60.8614,-2.59161
644,148,60.9467,2.70441,0.000792395,0.00032026,0.000702782,0.0012977,-0.000185044,0.623367,0.000932951,0.0389163,1868,876,60.9467,-2.70439
651,148,60.9767,2.72363,-8.45503e-05,0.000284649,0.000427646,0.000565837,-0.000365739,0.989149,0.000541966,0.0388093,1875,876,60.9767,-2.72364
658,148,60.9333,2.76105,-0.000532074,-0.000242613,-0.0001696,-0.000164383,-0.000610303,-1.13862,0.000364642,0.0328005,1882,876,60.9333,-2.76104
665,148,60.8802,2.79254,-0.000859973,-0.000319456,-0.000519243,-4.34875e-06,-0.00117508,-1.02535,0.000781941,0.0243245,1889,876,60.8803,-2.79254
672,148,60.8876,2.71912,-0.00106943,-0.000577911,-0.00080826,2.11268e-05,-0.00166847,-0.932986,0.00111942,0.0362582,1896,876,60.8875,-2.71914
679,148,60.7119,3.06091,0,0,0,0,0,0,0,-1,1903,876,60.7119,-3.06088
686,148,21.6195,2.40845,0,0,0,0,0,0,0,-1,1910,876,21.6196,-2.40846
693,148,48.1387,1.97351,0,0,0,0,0,0,0,-1,1917,876,48.1387,-1.97351
700,148,52.3059,2.55914,0,0,0,0,0,0,0,-1,1924,876,52.3059,-2.55913
707,148,52.0659,3.35614,-0.000823907,-0.000799821,-0.00206558,0.00125375,-0.00287748,-0.788313,0.0024458,0.0361959,1931,876,52.066,-3.35617
714,148,51.9509,3.8089,-0.000808442,-0.000363016,-0.0021377,0.00156355,-0.002735,-0.837303,0.0025123,0.0367379,1938,876,51.951,-3.80889
721,148,51.6489,4.39923,-0.000856032,0.000180954,-0.00201759,0.00174561,-0.00242069,-0.91117,0.00241591,0.0284821,1945,876,51.649,-4.39924
728,148,51.6295,5.02881,-0.00112603,0.00101017,-0.00183118,0.00206199,-0.00217785,-1.04942,0.00244817,0.022299,1952,876,51.6296,-5.02878
735,148,51.6244,5.66986,-0.00151174,0.00214661,-0.00156505,0.00272477,-0.00208991,-1.21693,0.0027878,0.021565,1959,876,51.6244,-5.66989
742,148,51.5626,6.30841,-0.00190137,0.0036169,-0.00124396,0.00388436,-0.00216882,-1.35902,0.00354128,0.022549,1966,876,51.5627,-6.3084
749,148,51.4596,6.92963,-0.00228153,0.00522577,-0.000961184,0.00534688,-0.00240264,-1.44546,0.00458056,0.0209993,1973,876,51.4596,-6.9296
756,148,51.399,7.61121,-0.00266742,0.00711969,-0.000697057,0.00716909,-0.00271682,-1.50005,0.00589742,0.0252423,1980,876,51.399,-7.6112
763,148,51.499,8.20422,-0.00252029,0.00910649,-0.00040445,0.00912055,-0.00253435,-1.53607,0.00707804,0.0416076,1987,876,51.499,-8.20422
770,148,51.5908,8.81244,0,0,0,0,0,0,0,-1,1994,876,51.5909,-8.81241
777,148,51.5088,9.58264,0,0,0,0,0,0,0,-1,2001,876,51.5087,-9.58261
784,148,52.2202,10.5543,0,0,0,0,0,0,0,-1,2008,876,52.2202,-10.5543
791,148,47.6521,12.6907,0,0,0,0,0,0,0,-1,2015,876,47.6521,-12.6908
798,148,0,0,0,0,0,0,0,0,0,-1,2022,876,0,0
805,148,0,0,0,0,0,0,0,0,0,-1,2029,876,0,0
812,148,0,0,0,0,0,0,0,0,0,-1,2036,876,0,0
-700,141,0,0,0,0,0,0,0,0,0,-1,524,883,0,0
-693,141,0,0,0,0,0,0,0,0,0,-1,531,883,0,0
-686,141,0,0,0,0,0,0,0,0,0,-1,538,883,0,0
-679,141,0,0,0,0,0,0,0,0,0,-1,545,883,0,0
-672,141,-51.007,-5.98566,0,0,0,0,0,0,0,-1,552,883,-51.0071,5.98564
-665,141,-49.7018,-5.10529,0,0,0,0,0,0,0,-1,559,883,-49.7018,5.1053
-658,141,-48.5284,-4.2605,0,0,0,0,0,0,0,-1,566,883,-48.5285,4.2605
-651,141,-47.783,-3.39136,0,0,0,0,0,0,0,-1,573,883,-47.7829,3.39134
-644,141,-46.86,-2.52283,0,0,0,0,0,0,0,-1,580,883,-46.86,2.52281
-637,141,-38.8842,6.77856,0,0,0,0,0,0,0,-1,587,883,-38.8842,-6.77857
-630,141,-38.3351,6.13837,0,0,0,0,0,0,0,-1,594,883,-38.3351,-6.13835
-623,141,-38.5681,5.26221,-0.00802289,0.0100887,0.00016553,0.0100902,-0.0080244,1.56166,0.0104811,0.0326913,601,883,-38.5681,-5.26221
-616,141,-38.8002,4.49628,-0.00704417,0.00730381,0.000759446,0.0073439,-0.00708425,1.51806,0.00833055,0.014557,608,883,-38.8002,-4.49626
-609,141,-38.8835,3.8548,-0.00637802,0.00477911,0.00134517,0.004939,-0.00653791,1.45249,0.00664759,0.0141805,615,883,-38.8835,-3.85477
-602,141,-38.9263,3.24207,-0.00608742,0.00261509,0.00185099,0.00299242,-0.00646476,1.3697,0.00558144,0.0160068,622,883,-38.9263,-3.24205
-595,141,-38.9061,2.60205,-0.00593667,0.0011737,0.00212606,0.00176091,-0.00652389,1.30132,0.00503984,0.0171099,629,883,-38.9061,-2.60204
-588,141,-39.2714,1.94946,-0.00557106,0.000213293,0.00222634,0.000970949,-0.00632872,1.24278,0.00457725,0.0339416,636,883,-39.2715,-1.94946
-581,141,-39.248,1.35425,-0.00519178,0.000104286,0.00221412,0.000907981,-0.00599548,1.2226,0.00433148,0.0454443,643,883,-39.248,-1.35424
-574,141,-38.9276,0.871155,0,0,0,0,0,0,0,-1,650,883,-38.9276,-0.871138
-567,141,-30.5335,0.480103,0,0,0,0,0,0,0,-1,657,883,-30.5335,-0.480081
-560,141,-30.5542,0.23175,0,0,0,0,0,0,0,-1,664,883,-30.5542,-0.231742
-553,141,-32.0876,1.39459,0,0,0,0,0,0,0,-1,671,883,-32.0876,-1.3946
-546,141,-46.2564,0.870056,0,0,0,0,0,0,0,-1,678,883,-46.2564,-0.870068
-539,141,-46.2675,0.856567,-0.00305393,-0.000500694,0.000443835,-0.000425742,-0.00312888,1.4035,0.00195949,0.0285246,685,883,-46.2675,-0.856556
-532,141,-46.2746,0.894592,-0.00195857,-0.000400614,-3.34052e-05,-0.000399899,-0.00195929,-1.54937,0.0011954,0.0297018,692,883,-46.2746,-0.894581
-525,141,-46.2663,0.9552,-0.000791573,-0.00069195,-0.000878821,0.00013847,-0.00162199,-0.813708,0.00113032,0.0390754,699,883,-46.2663,-0.955226
-518,141,-46.3303,1.10211,0.000290538,-0.00142304,-0.00117158,0.000885188,-0.00201769,-0.469681,0.00171797,0.0436574,706,883,-46.3303,-1.10208
-511,141,-46.4233,1.22479,0.00185748,-0.00293603,-0.00105248,0.00207839,-0.00315694,-0.206888,0.00304392,0.0418268,713,883,-46.4233,-1.22482
-504,141,-46.3454,1.19391,0.0039757,-0.00483822,-0.000617385,0.00401874,-0.00488126,-0.0695936,0.00514645,0.042831,720,883,-46.3454,-1.1939
-497,141,0,0,0,0,0,0,0,0,0,-1,727,883,0,0
-490,141,0,0,0,0,0,0,0,0,0,-1,734,883,0,0
-483,141,0,0,0,0,0,0,0,0,0,-1,741,883,0,0
-476,141,0,0,0,0,0,0,0,0,0,-1,748,883,0,0
-469,141,0,0,0,0,0,0,0,0,0,-1,755,883,0,0
-462,141,0,0,0,0,0,0,0,0,0,-1,762,883,0,0
-455,141,0,0,0,0,0,0,0,0,0,-1,769,883,0,0
-448,141,0,0,0,0,0,0,0,0,0,-1,776,883,0,0
-441,141,0,0,0,0,0,0,0,0,0,-1,783,883,0,0
-434,141,0,0,0,0,0,0,0,0,0,-1,790,883,0,0
-427,141,0,0,0,0,0,0,0,0,0,-1,797,883,0,0
-420,141,0,0,0,0,0,0,0,0,0,-1,804,883,0,0
-413,141,0,0,0,0,0,0,0,0,0,-1,811,883,0,0
-406,141,0,0,0,0,0,0,0,0,0,-1,818,883,0,0
-399,141,0,0,0,0,0,0,0,0,0,-1,825,883,0,0
-392,141,0,0,0,0,0,0,0,0,0,-1,832,883,0,0
-385,141,0,0,0,0,0,0,0,0,0,-1,839,883,0,0
-378,141,0,0,0,0,0,0,0,0,0,-1,846,883,0,0
-371,141,0,0,0,0,0,0,0,0,0,-1,853,883,0,0
-364,141,0,0,0,0,0,0,0,0,0,-1,860,883,0,0
-357,141,0,0,0,0,0,0,0,0,0,-1,867,883,0,0
-350,141,0,0,0,0,0,0,0,0,0,-1,874,883,0,0
-343,141,0,0,0,0,0,0,0,0,0,-1,881,883,0,0
-336,141,0,0,0,0,0,0,0,0,0,-1,888,883,0,0
-329,141,0,0,0,0,0,0,0,0,0,-1,895,883,0,0
-322,141,0,0,0,0,0,0,0,0,0,-1,902,883,0,0
-315,141,0,0,0,0,0,0,0,0,0,-1,909,883,0,0
-308,141,0,0,0,0,0,0,0,0,0,-1,916,883,0,0
-301,141,0,0,0,0,0,0,0,0,0,-1,923,883,0,0
-294,141,0,0,0,0,0,0,0,0,0,-1,930,883,0,0
-287,141,0,0,0,0,0,0,0,0,0,-1,937,883,0,0
-280,141,0,0,0,0,0,0,0,0,0,-1,944,883,0,0
-273,141,0,0,0,0,0,0,0,0,0,-1,951,883,0,0
-266,141,0,0,0,0,0,0,0,0,0,-1,958,883,0,0
-259,141,0,0,0,0,0,0,0,0,0,-1,965,883,0,0
-252,141,0,0,0,0,0,0,0,0,0,-1,972,883,0,0
-245,141,0,0,0,0,0,0,0,0,0,-1,979,883,0,0
-238,141,0,0,0,0,0,0,0,0,0,-1,986,883,0,0
-231,141,0,0,0,0,0,0,0,0,0,-1,993,883,0,0
-224,141,0,0,0,0,0,0,0,0,0,-1,1000,883,0,0
-217,141,0,0,0,0,0,0,0,0,0,-1,1007,883,0,0
-210,141,0,0,0,0,0,0,0,0,0,-1,1014,883,0,0
-203,141,0,0,0,0,0,0,0,0,0,-1,1021,883,0,0
-196,141,0,0,0,0,0,0,0,0,0,-1,1028,883,0,0
-189,141,0,0,0,0,0,0,0,0,0,-1,1035,883,0,0
-182,141,0,0,0,0,0,0,0,0,0,-1,1042,883,0,0
-175,141,0,0,0,0,0,0,0,0,0,-1,1049,883,0,0
-168,141,0,0,0,0,0,0,0,0,0,-1,1056,883,0,0
-161,141,0,0,0,0,0,0,0,0,0,-1,1063,883,0,0
-154,141,0,0,0,0,0,0,0,0,0,-1,1070,883,0,0
-147,141,0,0,0,0,0,0,0,0,0,-1,1077,883,0,0
-140,141,0,0,0,0,0,0,0,0,0,-1,1084,883,0,0
-133,141,0,0,0,0,0,0,0,0,0,-1,1091,883,0,0
-126,141,0,0,0,0,0,0,0,0,0,-1,1098,883,0,0
-119,141,0,0,0,0,0,0,0,0,0,-1,1105,883,0,0
-112,141,0,0,0,0,0,0,0,0,0,-1,1112,883,0,0
-105,141,0,0,0,0,0,0,0,0,0,-1,1119,883,0,0
-98,141,0,0,0,0,0,0,0,0,0,-1,1126,883,0,0
-91,141,0,0,0,0,0,0,0,0,0,-1,1133,883,0,0
-84,141,0,0,0,0,0,0,0,0,0,-1,1140,883,0,0
-77,141,0,0,0,0,0,0,0,0,0,-1,1147,883,0,0
-70,141,0,0,0,0,0,0,0,0,0,-1,1154,883,0,0
-63,141,0,0,0,0,0,0,0,0,0,-1,1161,883,0,0
-56,141,0,0,0,0,0,0,0,0,0,-1,1168,883,0,0
-49,141,0,0,0,0,0,0,0,0,0,-1,1175,883,0,0
-42,141,0,0,0,0,0,0,0,0,0,-1,1182,883,0,0
-35,141,0,0,0,0,0,0,0,0,0,-1,1189,883,0,0
-28,141,0,0,0,0,0,0,0,0,0,-1,1196,883,0,0
-21,141,0,0,0,0,0,0,0,0,0,-1,1203,883,0,0
-14,141,0,0,0,0,0,0,0,0,0,-1,1210,883,0,0
-7,141,0,0,0,0,0,0,0,0,0,-1,1217,883,0,0
0,141,0,0,0,0,0,0,0,0,0,-1,1224,883,0,0
7,141,0,0,0,0,0,0,0,0,0,-1,1231,883,0,0
14,141,0,0,0,0,0,0,0,0,0,-1,1238,883,0,0
21,141,0,0,0,0,0,0,0,0,0,-1,1245,883,0,0
28,141,0,0,0,0,0,0,0,0,0,-1,1252,883,0,0
35,141,0,0,0,0,0,0,0,0,0,-1,1259,883,0,0
42,141,0,0,0,0,0,0,0,0,0,-1,1266,883,0,0
49,141,0,0,0,0,0,0,0,0,0,-1,1273,883,0,0
56,141,0,0,0,0,0,0,0,0,0,-1,1280,883,0,0
63,141,0,0,0,0,0,0,0,0,0,-1,1287,883,0,0
70,141,0,0,0,0,0,0,0,0,0,-1,1294,883,0,0
77,141,0,0,0,0,0,0,0,0,0,-1,1301,883,0,0
84,141,0,0,0,0,0,0,0,0,0,-1,1308,883,0,0
91,141,0,0,0,0,0,0,0,0,0,-1,1315,883,0,0
98,141,0,0,0,0,0,0,0,0,0,-1,1322,883,0,0
105,141,0,0,0,0,0,0,0,0,0,-1,1329,883,0,0
112,141,0,0,0,0,0,0,0,0,0,-1,1336,883,0,0
119,141,0,0,0,0,0,0,0,0,0,-1,1343,883,0,0
126,141,0,0,0,0,0,0,0,0,0,-1,1350,883,0,0
133,141,0,0,0,0,0,0,0,0,0,-1,1357,883,0,0
140,141,0,0,0,0,0,0,0,0,0,-1,1364,883,0,0
147,141,0,0,0,0,0,0,0,0,0,-1,1371,883,0,0
154,141,0,0,0,0,0,0,0,0,0,-1,1378,883,0,0
161,141,0,0,0,0,0,0,0,0,0,-1,1385,883,0,0
168,141,0,0,0,0,0,0,0,0,0,-1,1392,883,0,0
175,141,0,0,0,0,0,0,0,0,0,-1,1399,883,0,0
182,141,0,0,0,0,0,0,0,0,0,-1,1406,883,0,0
189,141,0,0,0,0,0,0,0,0,0,-1,1413,883,0,0
196,141,0,0,0,0,0,0,0,0,0,-1,1420,883,0,0
203,141,0,0,0,0,0,0,0,0,0,-1,1427,883,0,0
210,141,0,0,0,0,0,0,0,0,0,-1,1434,883,0,0
217,141,0,0,0,0,0,0,0,0,0,-1,1441,883,0,0
224,141,0,0,0,0,0,0,0,0,0,-1,1448,883,0,0
231,141,0,0,0,0,0,0,0,0,0,-1,1455,883,0,0
238,141,0,0,0,0,0,0,0,0,0,-1,1462,883,0,0
245,141,0,0,0,0,0,0,0,0,0,-1,1469,883,0,0
252,141,0,0,0,0,0,0,0,0,0,-1,1476,883,0,0
259,141,0,0,0,0,0,0,0,0,0,-1,1483,883,0,0
266,141,0,0,0,0,0,0,0,0,0,-1,1490,883,0,0
273,141,0,0,0,0,0,0,0,0,0,-1,1497,883,0,0
280,141,0,0,0,0,0,0,0,0,0,-1,1504,883,0,0
287,141,0,0,0,0,0,0,0,0,0,-1,1511,883,0,0
294,141,0,0,0,0,0,0,0,0,0,-1,1518,883,0,0
301,141,0,0,0,0,0,0,0,0,0,-1,1525,883,0,0
308,141,0,0,0,0,0,0,0,0,0,-1,1532,883,0,0
315,141,0,0,0,0,0,0,0,0,0,-1,1539,883,0,0
322,141,0,0,0,0,0,0,0,0,0,-1,1546,883,0,0
329,141,0,0,0,0,0,0,0,0,0,-1,1553,883,0,0
336,141,0,0,0,0,0,0,0,0,0,-1,1560,883,0,0
343,141,0,0,0,0,0,0,0,0,0,-1,1567,883,0,0
350,141,0,0,0,0,0,0,0,0,0,-1,1574,883,0,0
357,141,0,0,0,0,0,0,0,0,0,-1,1581,883,0,0
364,141,0,0,0,0,0,0,0,0,0,-1,1588,883,0,0
371,141,0,0,0,0,0,0,0,0,0,-1,1595,883,0,0
378,141,0,0,0,0,0,0,0,0,0,-1,1602,883,0,0
385,141,0,0,0,0,0,0,0,0,0,-1,1609,883,0,0
392,141,0,0,0,0,0,0,0,0,0,-1,1616,883,0,0
399,141,0,0,0,0,0,0,0,0,0,-1,1623,883,0,0
406,141,0,0,0,0,0,0,0,0,0,-1,1630,883,0,0
413,141,0,0,0,0,0,0,0,0,0,-1,1637,883,0,0
420,141,0,0,0,0,0,0,0,0,0,-1,1644,883,0,0
427,141,0,0,0,0,0,0,0,0,0,-1,1651,883,0,0
434,141,0,0,0,0,0,0,0,0,0,-1,1658,883,0,0
441,141,0,0,0,0,0,0,0,0,0,-1,1665,883,0,0
448,141,0,0,0,0,0,0,0,0,0,-1,1672,883,0,0
455,141,0,0,0,0,0,0,0,0,0,-1,1679,883,0,0
462,141,0,0,0,0,0,0,0,0,0,-1,1686,883,0,0
469,141,0,0,0,0,0,0,0,0,0,-1,1693,883,0,0
476,141,0,0,0,0,0,0,0,0,0,-1,1700,883,0,0
483,141,0,0,0,0,0,0,0,0,0,-1,1707,883,0,0
490,141,0,0,0,0,0,0,0,0,0,-1,1714,883,0,0
497,141,0,0,0,0,0,0,0,0,0,-1,1721,883,0,0
504,141,0,0,0,0,0,0,0,0,0,-1,1728,883,0,0
511,141,0,0,0,0,0,0,0,0,0,-1,1735,883,0,0
518,141,0,0,0,0,0,0,0,0,0,-1,1742,883,0,0
525,141,0,0,0,0,0,0,0,0,0,-1,1749,883,0,0
532,141,0,0,0,0,0,0,0,0,0,-1,1756,883,0,0
539,141,0,0,0,0,0,0,0,0,0,-1,1763,883,0,0
546,141,0,0,0,0,0,0,0,0,0,-1,1770,883,0,0
553,141,0,0,0,0,0,0,0,0,0,-1,1777,883,0,0
560,141,0,0,0,0,0,0,0,0,0,-1,1784,883,0,0
567,141,0,0,0,0,0,0,0,0,0,-1,1791,883,0,0
574,141,0,0,0,0,0,0,0,0,0,-1,1798,883,0,0
581,141,0,0,0,0,0,0,0,0,0,-1,1805,883,0,0
588,141,0,0,0,0,0,0,0,0,0,-1,1812,883,0,0
595,141,0,0,0,0,0,0,0,0,0,-1,1819,883,0,0
602,141,0,0,0,0,0,0,0,0,0,-1,1826,883,0,0
609,141,0,0,0,0,0,0,0,0,0,-1,1833,883,0,0
616,141,0,0,0,0,0,0,0,0,0,-1,1840,883,0,0
623,141,60.9558,2.74634,0.00467148,-0.00149963,-0.00076221,0.00476423,-0.00159238,-0.121088,0.00381925,0.0454941,1847,883,60.9558,-2.74635
630,141,60.8148,2.82825,0.00326978,-0.00098975,6.73385e-06,0.00326979,-0.000989761,0.00158088,0.00257401,0.047892,1854,883,60.8148,-2.82824
637,141,60.8829,2.73993,0.00209008,-0.000391666,0.000440554,0.00216597,-0.000467551,0.170576,0.00162244,0.0459509,1861,883,60.8829,-2.73994
644,141,60.8909,2.77283,0.00115559,1.6165e-05,0.000558754,0.00138386,-0.000212107,0.387844,0.0010008,0.0402709,1868,883,60.8909,-2.77284
651,141,60.9978,2.87415,0.000356061,0.000108723,0.000347951,0.000601667,-0.000136883,0.614651,0.000453675,0.0391522,1875,883,60.9977,-2.87415
658,141,60.9951,2.78534,-4.6327e-05,-0.000297445,-0.00015203,2.52894e-05,-0.000369061,-0.440235,0.000254889,0.0379579,1882,883,60.9951,-2.78536
665,141,60.8914,2.76874,-0.000278403,-0.000296915,-0.000478445,0.000190876,-0.000766194,-0.775726,0.000584896,0.0288233,1889,883,60.8913,-2.76876
672,141,60.9113,2.72827,-0.000419478,-0.000535952,-0.000774681,0.000299152,-0.00125458,-0.747881,0.000951906,0.0209874,1896,883,60.9112,-2.72827
679,141,60.8802,2.74054,-0.000329974,-0.000627171,-0.00102232,0.000554494,-0.00151164,-0.713227,0.00123481,0.0416695,1903,883,60.8802,-2.74052
686,141,60.8047,2.73517,0,0,0,0,0,0,0,-1,1910,883,60.8047,-2.73516
693,141,51.7202,1.76593,0,0,0,0,0,0,0,-1,1917,883,51.7202,-1.76595
700,141,51.7233,2.5777,0,0,0,0,0,0,0,-1,1924,883,51.7232,-2.57769
707,141,52.6642,3.29486,0,0,0,0,0,0,0,-1,1931,883,52.6642,-3.29483
714,141,52.2501,3.82458,-0.000432254,-0.00013872,-0.00199517,0.00171507,-0.00228605,-0.822113,0.00231787,0.0345886,1938,883,52.2501,-3.82459
721,141,52.2279,4.38428,-0.000539671,0.000385847,-0.00194957,0.00192683,-0.00208066,-0.901924,0.00231429,0.019059,1945,883,52.2279,-4.38429
728,141,52.3118,4.96924,-0.000906818,0.00119397,-0.00186457,0.00228366,-0.0019965,-1.04191,0.00247301,0.0167239,1952,883,52.3117,-4.96924
735,141,52.2926,5.69464,-0.00137314,0.00243402,-0.00162586,0.00303385,-0.00197297,-1.21736,0.00291224,0.0198168,1959,883,52.2927,-5.69465
742,141,52.2072,6.33588,-0.00175071,0.0042258,-0.00122122,0.00446571,-0.00199062,-1.37682,0.00381777,0.0201624,1966,883,52.2071,-6.33586
749,141,52.1669,6.92493,-0.00197045,0.00625563,-0.00076434,0.00632605,-0.00204086,-1.47893,0.0050374,0.0152476,1973,883,52.1669,-6.92494
756,141,52.1428,7.57489,-0.00194865,0.00868113,-0.00013383,0.00868281,-0.00195033,-1.55821,0.00653637,0.0210552,1980,883,52.1428,-7.57487
763,141,52.0995,8.16437,-0.00105938,0.0114701,0.000864479,0.0115295,-0.00111875,1.50223,0.0080851,0.0421402,1987,883,52.0995,-8.16436
770,141,52.0237,8.75549,0,0,0,0,0,0,0,-1,1994,883,52.0236,-8.75549
777,141,52.7971,9.52435,0,0,0,0,0,0,0,-1,2001,883,52.797,-9.52434
784,141,47.7581,12.4807,0,0,0,0,0,0,0,-1,2008,883,47.7581,-12.4807
791,141,42.5815,7.74707,0,0,0,0,0,0,0,-1,2015,883,42.5815,-7.74706
798,141,0,0,0,0,0,0,0,0,0,-1,2022,883,0,0
805,141,0,0,0,0,0,0,0,0,0,-1,2029,883,0,0
812,141,0,0,0,0,0,0,0,0,0,-1,2036,883,0,0
-700,134,0,0,0,0,0,0,0,0,0,-1,524,890,0,0
-693,134,0,0,0,0,0,0,0,0,0,-1,531,890,0,0
-686,134,0,0,0,0,0,0,0,0,0,-1,538,890,0,0
-679,134,0,0,0,0,0,0,0,0,0,-1,545,890,0,0
-672,134,-50.5515,-5.10278,0,0,0,0,0,0,0,-1,552,890,-50.5515,5.10275
-665,134,-49.6353,-4.63837,0,0,0,0,0,0,0,-1,559,890,-49.6354,4.63839
-658,134,-48.6147,-4.05792,0,0,0,0,0,0,0,-1,566,890,-48.6147,4.05791
-651,134,-47.5334,-3.22351,0,0,0,0,0,0,0,-1,573,890,-47.5335,3.2235
-644,134,-46.2668,-2.43176,0,0,0,0,0,0,0,-1,580,890,-46.2668,2.43174
-637,134,-44.0023,1.39087,0,0,0,0,0,0,0,-1,587,890,-44.0023,-1.39087
-630,134,-39.1017,5.58636,0,0,0,0,0,0,0,-1,594,890,-39.1017,-5.58638
-623,134,-39.2452,5.0592,-0.00841828,0.0107927,0.000838959,0.0108293,-0.00845485,1.52724,0.0111618,0.0305104,601,890,-39.2452,-5.05923
-616,134,-39.455,4.44873,-0.00713619,0.00768027,0.0013131,0.00779574,-0.00725166,1.48308,0.00868951,0.013485,608,890,-39.455,-4.44876
-609,134,-39.5502,3.8587,-0.00624538,0.00485485,0.00179204,0.00513699,-0.00652752,1.41464,0.00675044,0.0118111,615,890,-39.5502,-3.85872
-602,134,-39.5535,3.24493,-0.0058369,0.00257473,0.00212598,0.00308152,-0.00634369,1.33678,0.00554923,0.0132804,622,890,-39.5535,-3.24493
-595,134,-39.4545,2.67865,-0.00567809,0.00120544,0.00224195,0.00187124,-0.00634389,1.28212,0.00497181,0.0256536,629,890,-39.4545,-2.67863
-588,134,-39.96,2.13165,-0.00531645,0.000302318,0.00221201,0.00106863,-0.00608277,1.2373,0.00445433,0.0417407,636,890,-39.96,-2.13162
-581,134,-40.0558,1.47046,0,0,0,0,0,0,0,-1,643,890,-40.0559,-1.47045
-574,134,-31.1517,0.757751,0,0,0,0,0,0,0,-1,650,890,-31.1517,-0.757758
-567,134,-30.9003,0.296326,0,0,0,0,0,0,0,-1,657,890,-30.9002,-0.296302
-560,134,-22.9123,0.106567,0,0,0,0,0,0,0,-1,664,890,-22.9123,-0.106594
-553,134,-46.2395,0.808289,0,0,0,0,0,0,0,-1,671,890,-46.2395,-0.808287
-546,134,-46.2342,0.869507,-0.00356572,-0.000614301,0.0010132,-0.000299954,-0.00388007,1.26996,0.00249275,0.034003,678,890,-46.2342,-0.869531
-539,134,-46.2549,0.886047,-0.003106,-0.000524126,0.000712633,-0.000340491,-0.00328964,1.3186,0.00208887,0.0167577,685,890,-46.2549,-0.886037
-532,134,-46.2692,0.901367,-0.00202268,-0.000437989,0.000357822,-0.00036094,-0.00209973,1.35871,0.00129637,0.0223264,692,890,-46.2692,-0.901397
-525,134,-46.2131,0.981628,-0.00098485,-0.000937524,-0.000248334,-0.000711728,-0.00121064,-0.832898,0.000702557,0.035287,699,890,-46.2132,-0.981616
-518,134,-46.1489,1.00262,-0.000211518,-0.00212506,-0.000249493,-0.000179523,-0.00215705,-0.127543,0.00138209,0.0416413,706,890,-46.1489,-1.0026
-511,134,-46.1942,0.943787,0.000840463,-0.00387886,1.16127e-05,0.000840492,-0.00387888,0.00246065,0.00290688,0.0442077,713,890,-46.1941,-0.943802
-504,134,0,0,0,0,0,0,0,0,0,-1,720,890,0,0
-497,134,0,0,0,0,0,0,0,0,0,-1,727,890,0,0
-490,134,0,0,0,0,0,0,0,0,0,-1,734,890,0,0
-483,134,0,0,0,0,0,0,0,0,0,-1,741,890,0,0
-476,134,0,0,0,0,0,0,0,0,0,-1,748,890,0,0
-469,134,0,0,0,0,0,0,0,0,0,-1,755,890,0,0
-462,134,0,0,0,0,0,0,0,0,0,-1,762,890,0,0
-455,134,0,0,0,0,0,0,0,0,0,-1,769,890,0,0
-448,134,0,0,0,0,0,0,0,0,0,-1,776,890,0,0
-441,134,0,0,0,0,0,0,0,0,0,-1,783,890,0,0
-434,134,0,0,0,0,0,0,0,0,0,-1,790,890,0,0
-427,134,0,0,0,0,0,0,0,0,0,-1,797,890,0,0
-420,134,0,0,0,0,0,0,0,0,0,-1,804,890,0,0
-413,134,0,0,0,0,0,0,0,0,0,-1,811,890,0,0
-406,134,0,0,0,0,0,0,0,0,0,-1,818,890,0,0
-399,134,0,0,0,0,0,0,0,0,0,-1,825,890,0,0
-392,134,0,0,0,0,0,0,0,0,0,-1,832,890,0,0
-385,134,0,0,0,0,0,0,0,0,0,-1,839,890,0,0
-378,134,0,0,0,0,0,0,0,0,0,-1,846,890,0,0
-371,134,0,0,0,0,0,0,0,0,0,-1,853,890,0,0
-364,134,0,0,0,0,0,0,0,0,0,-1,860,890,0,0
-357,134,0,0,0,0,0,0,0,0,0,-1,867,890,0,0
-350,134,0,0,0,0,0,0,0,0,0,-1,874,890,0,0
-343,134,0,0,0,0,0,0,0,0,0,-1,881,890,0,0
-336,134,0,0,0,0,0,0,0,0,0,-1,888,890,0,0
-329,134,0,0,0,0,0,0,0,0,0,-1,895,890,0,0
-322,134,0,0,0,0,0,0,0,0,0,-1,902,890,0,0
-315,134,0,0,0,0,0,0,0,0,0,-1,909,890,0,0
-308,134,0,0,0,0,0,0,0,0,0,-1,916,890,0,0
-301,134,0,0,0,0,0,0,0,0,0,-1,923,890,0,0
-294,134,0,0,0,0,0,0,0,0,0,-1,930,890,0,0
-287,134,0,0,0,0,0,0,0,0,0,-1,937,890,0,0
-280,134,0,0,0,0,0,0,0,0,0,-1,944,890,0,0
-273,134,0,0,0,0,0,0,0,0,0,-1,951,890,0,0
-266,134,0,0,0,0,0,0,0,0,0,-1,958,890,0,0
-259,134,0,0,0,0,0,0,0,0,0,-1,965,890,0,0
-252,134,0,0,0,0,0,0,0,0,0,-1,972,890,0,0
-245,134,0,0,0,0,0,0,0,0,0,-1,979,890,0,0
-238,134,0,0,0,0,0,0,0,0,0,-1,986,890,0,0
-231,134,0,0,0,0,0,0,0,0,0,-1,993,890,0,0
-224,134,0,0,0,0,0,0,0,0,0,-1,1000,890,0,0
-217,134,0,0,0,0,0,0,0,0,0,-1,1007,890,0,0
-210,134,0,0,0,0,0,0,0,0,0,-1,1014,890,0,0
-203,134,0,0,0,0,0,0,0,0,0,-1,1021,890,0,0
-196,134,0,0,0,0,0,0,0,0,0,-1,1028,890,0,0
-189,134,0,0,0,0,0,0,0,0,0,-1,1035,890,0,0
-182,134,0,0,0,0,0,0,0,0,0,-1,1042,890,0,0
-175,134,0,0,0,0,0,0,0,0,0,-1,1049,890,0,0
-168,134,0,0,0,0,0,0,0,0,0,-1,1056,890,0,0
-161,134,0,0,0,0,0,0,0,0,0,-1,1063,890,0,0
-154,134,0,0,0,0,0,0,0,0,0,-1,1070,890,0,0
-147,134,0,0,0,0,0,0,0,0,0,-1,1077,890,0,0
-140,134,0,0,0,0,0,0,0,0,0,-1,1084,890,0,0
-133,134,0,0,0,0,0,0,0,0,0,-1,1091,890,0,0
-126,134,0,0,0,0,0,0,0,0,0,-1,1098,890,0,0
-119,134,0,0,0,0,0,0,0,0,0,-1,1105,890,0,0
-112,134,0,0,0,0,0,0,0,0,0,-1,1112,890,0,0
-105,134,0,0,0,0,0,0,0,0,0,-1,1119,890,0,0
-98,134,0,0,0,0,0,0,0,0,0,-1,1126,890,0,0
-91,134,0,0,0,0,0,0,0,0,0,-1,1133,890,0,0
-84,134,0,0,0,0,0,0,0,0,0,-1,1140,890,0,0
-77,134,0,0,0,0,0,0,0,0,0,-1,1147,890,0,0
-70,134,0,0,0,0,0,0,0,0,0,-1,1154,890,0,0
-63,134,0,0,0,0,0,0,0,0,0,-1,1161,890,0,0
-56,134,0,0,0,0,0,0,0,0,0,-1,1168,890,0,0
-49,134,0,0,0,0,0,0,0,0,0,-1,1175,890,0,0
-42,134,0,0,0,0,0,0,0,0,0,-1,1182,890,0,0
-35,134,0,0,0,0,0,0,0,0,0,-1,1189,890,0,0
-28,134,0,0,0,0,0,0,0,0,0,-1,1196,890,0,0
-21,134,0,0,0,0,0,0,0,0,0,-1,1203,890,0,0
-14,134,0,0,0,0,0,0,0,0,0,-1,1210,890,0,0
-7,134,0,0,0,0,0,0,0,0,0,-1,1217,890,0,0
0,134,0,0,0,0,0,0,0,0,0,-1,1224,890,0,0
7,134,0,0,0,0,0,0,0,0,0,-1,1231,890,0,0
14,134,0,0,0,0,0,0,0,0,0,-1,1238,890,0,0
21,134,0,0,0,0,0,0,0,0,0,-1,1245,890,0,0
28,134,0,0,0,0,0,0,0,0,0,-1,1252,890,0,0
35,134,0,0,0,0,0,0,0,0,0,-1,1259,890,0,0
42,134,0,0,0,0,0,0,0,0,0,-1,1266,890,0,0
49,134,0,0,0,0,0,0,0,0,0,-1,1273,890,0,0
56,134,0,0,0,0,0,0,0,0,0,-1,1280,890,0,0
63,134,0,0,0,0,0,0,0,0,0,-1,1287,890,0,0
70,134,0,0,0,0,0,0,0,0,0,-1,1294,890,0,0
77,134,0,0,0,0,0,0,0,0,0,-1,1301,890,0,0
84,134,0,0,0,0,0,0,0,0,0,-1,1308,890,0,0
91,134,0,0,0,0,0,0,0,0,0,-1,1315,890,0,0
98,134,0,0,0,0,0,0,0,0,0,-1,1322,890,0,0
105,134,0,0,0,0,0,0,0,0,0,-1,1329,890,0,0
112,134,0,0,0,0,0,0,0,0,0,-1,1336,890,0,0
119,134,0,0,0,0,0,0,0,0,0,-1,1343,890,0,0
126,134,0,0,0,0,0,0,0,0,0,-1,1350,890,0,0
133,134,0,0,0,0,0,0,0,0,0,-1,1357,890,0,0
140,134,0,0,0,0,0,0,0,0,0,-1,1364,890,0,0
147,134,0,0,0,0,0,0,0,0,0,-1,1371,890,0,0
154,134,0,0,0,0,0,0,0,0,0,-1,1378,890,0,0
161,134,0,0,0,0,0,0,0,0,0,-1,1385,890,0,0
168,134,0,0,0,0,0,0,0,0,0,-1,1392,890,0,0
175,134,0,0,0,0,0,0,0,0,0,-1,1399,890,0,0
182,134,0,0,0,0,0,0,0,0,0,-1,1406,890,0,0
189,134,0,0,0,0,0,0,0,0,0,-1,1413,890,0,0
196,134,0,0,0,0,0,0,0,0,0,-1,1420,890,0,0
203,134,0,0,0,0,0,0,0,0,0,-1,1427,890,0,0
210,134,0,0,0,0,0,0,0,0,0,-1,1434,890,0,0
217,134,0,0,0,0,0,0,0,0,0,-1,1441,890,0,0
224,134,0,0,0,0,0,0,0,0,0,-1,1448,890,0,0
231,134,0,0,0,0,0,0,0,0,0,-1,1455,890,0,0
238,134,0,0,0,0,0,0,0,0,0,-1,1462,890,0,0
245,134,0,0,0,0,0,0,0,0,0,-1,1469,890,0,0
252,134,0,0,0,0,0,0,0,0,0,-1,1476,890,0,0
259,134,0,0,0,0,0,0,0,0,0,-1,1483,890,0,0
266,134,0,0,0,0,0,0,0,0,0,-1,1490,890,0,0
273,134,0,0,0,0,0,0,0,0,0,-1,1497,890,0,0
280,134,0,0,0,0,0,0,0,0,0,-1,1504,890,0,0
287,134,0,0,0,0,0,0,0,0,0,-1,1511,890,0,0
294,134,0,0,0,0,0,0,0,0,0,-1,1518,890,0,0
301,134,0,0,0,0,0,0,0,0,0,-1,1525,890,0,0
308,134,0,0,0,0,0,0,0,0,0,-1,1532,890,0,0
315,134,0,0,0,0,0,0,0,0,0,-1,1539,890,0,0
322,134,0,0,0,0,0,0,0,0,0,-1,1546,890,0,0
329,134,0,0,0,0,0,0,0,0,0,-1,1553,890,0,0
336,134,0,0,0,0,0,0,0,0,0,-1,1560,890,0,0
343,134,0,0,0,0,0,0,0,0,0,-1,1567,890,0,0
350,134,0,0,0,0,0,0,0,0,0,-1,1574,890,0,0
357,134,0,0,0,0,0,0,0,0,0,-1,1581,890,0,0
364,134,0,0,0,0,0,0,0,0,0,-1,1588,890,0,0
371,134,0,0,0,0,0,0,0,0,0,-1,1595,890,0,0
378,134,0,0,0,0,0,0,0,0,0,-1,1602,890,0,0
385,134,0,0,0,0,0,0,0,0,0,-1,1609,890,0,0
392,134,0,0,0,0,0,0,0,0,0,-1,1616,890,0,0
399,134,0,0,0,0,0,0,0,0,0,-1,1623,890,0,0
406,134,0,0,0,0,0,0,0,0,0,-1,1630,890,0,0
413,134,0,0,0,0,0,0,0,0,0,-1,1637,890,0,0
420,134,0,0,0,0,0,0,0,0,0,-1,1644,890,0,0
427,134,0,0,0,0,0,0,0,0,0,-1,1651,890,0,0
434,134,0,0,0,0,0,0,0,0,0,-1,1658,890,0,0
441,134,0,0,0,0,0,0,0,0,0,-1,1665,890,0,0
448,134,0,0,0,0,0,0,0,0,0,-1,1672,890,0,0
455,134,0,0,0,0,0,0,0,0,0,-1,1679,890,0,0
462,134,0,0,0,0,0,0,0,0,0,-1,1686,890,0,0
469,134,0,0,0,0,0,0,0,0,0,-1,1693,890,0,0
476,134,0,0,0,0,0,0,0,0,0,-1,1700,890,0,0
483,134,0,0,0,0,0,0,0,0,0,-1,1707,890,0,0
490,134,0,0,0,0,0,0,0,0,0,-1,1714,890,0,0
497,134,0,0,0,0,0,0,0,0,0,-1,1721,890,0,0
504,134,0,0,0,0,0,0,0,0,0,-1,1728,890,0,0
511,134,0,0,0,0,0,0,0,0,0,-1,1735,890,0,0
518,134,0,0,0,0,0,0,0,0,0,-1,1742,890,0,0
525,134,0,0,0,0,0,0,0,0,0,-1,1749,890,0,0
532,134,0,0,0,0,0,0,0,0,0,-1,1756,890,0,0
539,134,0,0,0,0,0,0,0,0,0,-1,1763,890,0,0
546,134,0,0,0,0,0,0,0,0,0,-1,1770,890,0,0
553,134,0,0,0,0,0,0,0,0,0,-1,1777,890,0,0
560,134,0,0,0,0,0,0,0,0,0,-1,1784,890,0,0
567,134,0,0,0,0,0,0,0,0,0,-1,1791,890,0,0
574,134,0,0,0,0,0,0,0,0,0,-1,1798,890,0,0
581,134,0,0,0,0,0,0,0,0,0,-1,1805,890,0,0
588,134,0,0,0,0,0,0,0,0,0,-1,1812,890,0,0
595,134,0,0,0,0,0,0,0,0,0,-1,1819,890,0,0
602,134,0,0,0,0,0,0,0,0,0,-1,1826,890,0,0
609,134,0,0,0,0,0,0,0,0,0,-1,1833,890,0,0
616,134,0,0,0,0,0,0,0,0,0,-1,1840,890,0,0
623,134,60.8901,2.74438,0.00396728,-0.00172902,7.94272e-05,0.00396839,-0.00173013,0.01394,0.00337357,0.0449978,1847,890,60.8902,-2.74437
630,134,60.7728,3.03668,0.00287974,-0.00131598,0.00056153,0.00295359,-0.00138983,0.130769,0.00256127,0.048636,1854,890,60.7728,-3.0367
637,134,60.8494,2.71454,0.00195898,-0.00077007,0.000737852,0.00214569,-0.000956788,0.247853,0.00183454,0.0475739,1861,890,60.8494,-2.71455
644,134,60.9139,2.87054,0.00122442,-0.000307848,0.000691442,0.0014903,-0.000573727,0.367099,0.00123021,0.042214,1868,890,60.9139,-2.87053
651,134,61.0155,2.70544,0.000583551,-9.04276e-05,0.000444023,0.000803982,-0.000310859,0.460797,0.000664311,0.0419931,1875,890,61.0155,-2.70547
658,134,60.9591,2.67426,0.000274645,-0.000331667,-1.70971e-06,0.00027465,-0.000331672,-0.00281982,0.000350576,0.0411923,1882,890,60.9591,-2.67424
665,134,60.8638,2.58551,0.000166877,-0.000234443,-0.00032404,0.000347355,-0.000414922,-0.508173,0.000440677,0.034857,1889,890,60.8638,-2.58549
672,134,60.9337,2.62793,7.48849e-05,-0.000425148,-0.000597191,0.000472283,-0.000822546,-0.587157,0.000756632,0.0223976,1896,890,60.9337,-2.62793
679,134,60.9376,2.5954,0.000177705,-0.000524097,-0.000828129,0.000726209,-0.0010726,-0.585002,0.00104494,0.0223241,1903,890,60.9377,-2.59541
686,134,60.8977,2.61066,0,0,0,0,0,0,0,-1,1910,890,60.8977,-2.61064
693,134,34.5778,2.48096,0,0,0,0,0,0,0,-1,1917,890,34.5777,-2.48099
700,134,52.7825,2.26569,0,0,0,0,0,0,0,-1,1924,890,52.7824,-2.26567
707,134,52.7358,2.85376,-0.000113992,-0.000423912,-0.00165173,0.00139003,-0.00192793,-0.738626,0.001924,0.0284845,1931,890,52.7358,-2.85374
714,134,52.7998,3.58337,-0.000228335,0.00012589,-0.00182473,0.00178208,-0.00188453,-0.833778,0.00211719,0.0271852,1938,890,52.7998,-3.58339
721,134,52.9423,4.28387,-0.000396387,0.00059348,-0.00182275,0.0019873,-0.0017902,-0.917967,0.00218193,0.0242513,1945,890,52.9423,-4.2839
728,134,53.0212,4.92249,-0.000827474,0.00130587,-0.00181017,0.00234027,-0.00186187,-1.05164,0.00243135,0.0205061,1952,890,53.0212,-4.92251
735,134,52.9821,5.70746,-0.00124828,0.0025123,-0.00157448,0.00308446,-0.00182043,-1.22224,0.00286301,0.0270684,1959,890,52.9821,-5.70749
742,134,52.9036,6.36597,-0.00150336,0.00442001,-0.00110184,0.00461833,-0.00170168,-1.39271,0.00377616,0.017976,1966,890,52.9036,-6.36598
749,134,52.8761,6.95081,-0.00141818,0.00670416,-0.000437035,0.00672761,-0.00144163,-1.5172,0.00503489,0.0132518,1973,890,52.8761,-6.9508
756,134,52.8192,7.55292,-0.000816826,0.00948782,0.000600135,0.00952265,-0.000851661,1.51282,0.00665052,0.0182502,1980,890,52.8193,-7.55293
763,134,52.6563,8.18329,0.000935663,0.0127836,0.00226364,0.0132013,0.000517905,1.3883,0.00863343,0.0387892,1987,890,52.6562,-8.18328
770,134,52.4861,8.79431,0,0,0,0,0,0,0,-1,1994,890,52.486,-8.7943
777,134,43.6969,5.94574,0,0,0,0,0,0,0,-1,2001,890,43.697,-5.94577
784,134,42.3352,7.4964,0,0,0,0,0,0,0,-1,2008,890,42.3352,-7.49641
791,134,64.4153,11.6803,0,0,0,0,0,0,0,-1,2015,890,64.4153,-11.6803
798,134,0,0,0,0,0,0,0,0,0,-1,2022,890,0,0
805,134,0,0,0,0,0,0,0,0,0,-1,2029,890,0,0
812,134,0,0,0,0,0,0,0,0,0,-1,2036,890,0,0
-700,127,0,0,0,0,0,0,0,0,0,-1,524,897,0,0
-693,127,0,0,0,0,0,0,0,0,0,-1,531,897,0,0
-686,127,0,0,0,0,0,0,0,0,0,-1,538,897,0,0
-679,127,-40.9533,5.45935,0,0,0,0,0,0,0,-1,545,897,-40.9533,-5.45936
-672,127,-49.9603,-4.22498,0,0,0,0,0,0,0,-1,552,897,-49.9603,4.22495
-665,127,-49.3783,-3.8269,0,0,0,0,0,0,0,-1,559,897,-49.3783,3.82691
-658,127,-49.1199,-3.05005,0,0,0,0,0,0,0,-1,566,897,-49.1199,3.05002
-651,127,-47.3047,-3.04736,0,0,0,0,0,0,0,-1,573,897,-47.3047,3.04734
-644,127,-44.5754,2.17377,0,0,0,0,0,0,0,-1,580,897,-44.5754,-2.17376
-637,127,-44.7166,1.10236,0,0,0,0,0,0,0,-1,587,897,-44.7166,-1.10233
-630,127,-39.9875,5.41602,0,0,0,0,0,0,0,-1,594,897,-39.9875,-5.41603
-623,127,-40.04,4.94293,-0.00870147,0.0106069,0.00122423,0.0106842,-0.00877879,1.50773,0.0112549,0.0185383,601,897,-40.04,-4.94296
-616,127,-40.1194,4.43481,-0.0070586,0.0074711,0.00166093,0.00765855,-0.00724605,1.45841,0.00860627,0.0106014,608,897,-40.1194,-4.43482
-609,127,-40.1927,3.87006,-0.005859,0.00463069,0.00206264,0.0050217,-0.00625001,1.38345,0.00652059,0.0140034,615,897,-40.1928,-3.87004
-602,127,-40.2141,3.28479,-0.00524117,0.00245331,0.00224598,0.00306092,-0.00584878,1.30659,0.00522728,0.0164483,622,897,-40.2141,-3.28476
-595,127,-40.1118,2.74786,-0.00497887,0.001233,0.00224538,0.00195963,-0.0057055,1.25782,0.00459824,0.0315961,629,897,-40.1118,-2.74786
-588,127,-40.188,2.04846,-0.00455959,0.00040103,0.00212189,0.00118482,-0.00534338,1.21696,0.00401589,0.0393502,636,897,-40.1881,-2.04847
-581,127,-39.8479,1.35071,0,0,0,0,0,0,0,-1,643,897,-39.8479,-1.35073
-574,127,-25.2603,0.511169,0,0,0,0,0,0,0,-1,650,897,-25.2603,-0.51117
-567,127,-24.5417,-0.0447388,0,0,0,0,0,0,0,-1,657,897,-24.5417,0.0447226
-560,127,-18.9678,1.21667,0,0,0,0,0,0,0,-1,664,897,-18.9677,-1.2167
-553,127,-46.243,0.853516,0,0,0,0,0,0,0,-1,671,897,-46.243,-0.853538
-546,127,-46.2255,0.854919,-0.00310137,-0.000607199,0.0010591,-0.000218159,-0.00349041,1.21877,0.00225774,0.0249542,678,897,-46.2255,-0.854949
-539,127,-46.2203,0.874634,-0.00270446,-0.000533724,0.000815458,-0.000261523,-0.00297666,1.24862,0.00190327,0.0211187,685,897,-46.2204,-0.874606
-532,127,-46.2473,0.87616,-0.0017804,-0.000547753,0.000592217,-0.000309339,-0.00201881,1.18807,0.00125553,0.0168034,692,897,-46.2472,-0.876149
-525,127,-46.221,0.973938,-0.00110899,-0.00132622,0.000264275,-0.000931878,-0.00150333,0.59042,0.000876223,0.0333313,699,897,-46.221,-0.973922
-518,127,-46.1484,1.06195,-0.000882517,-0.00287805,0.000439707,-0.000789926,-0.00297064,0.207543,0.00177665,0.0410121,706,897,-46.1484,-1.06195
-511,127,-46.0916,1.0625,-0.000369381,-0.0047705,0.000731448,-0.000251002,-0.00488888,0.160451,0.00317889,0.0445976,713,897,-46.0916,-1.06252
-504,127,0,0,0,0,0,0,0,0,0,-1,720,897,0,0
-497,127,0,0,0,0,0,0,0,0,0,-1,727,897,0,0
-490,127,0,0,0,0,0,0,0,0,0,-1,734,897,0,0
-483,127,0,0,0,0,0,0,0,0,0,-1,741,897,0,0
-476,127,0,0,0,0,0,0,0,0,0,-1,748,897,0,0
-469,127,0,0,0,0,0,0,0,0,0,-1,755,897,0,0
-462,127,0,0,0,0,0,0,0,0,0,-1,762,897,0,0
-455,127,0,0,0,0,0,0,0,0,0,-1,769,897,0,0
-448,127,0,0,0,0,0,0,0,0,0,-1,776,897,0,0
-441,127,0,0,0,0,0,0,0,0,0,-1,783,897,0,0
-434,127,0,0,0,0,0,0,0,0,0,-1,790,897,0,0
-427,127,0,0,0,0,0,0,0,0,0,-1,797,897,0,0
-420,127,0,0,0,0,0,0,0,0,0,-1,804,897,0,0
-413,127,0,0,0,0,0,0,0,0,0,-1,811,897,0,0
-406,127,0,0,0,0,0,0,0,0,0,-1,818,897,0,0
-399,127,0,0,0,0,0,0,0,0,0,-1,825,897,0,0
-392,127,0,0,0,0,0,0,0,0,0,-1,832,897,0,0
-385,127,0,0,0,0,0,0,0,0,0,-1,839,897,0,0
-378,127,0,0,0,0,0,0,0,0,0,-1,846,897,0,0
-371,127,0,0,0,0,0,0,0,0,0,-1,853,897,0,0
-364,127,0,0,0,0,0,0,0,0,0,-1,860,897,0,0
-357,127,0,0,0,0,0,0,0,0,0,-1,867,897,0,0
-350,127,0,0,0,0,0,0,0,0,0,-1,874,897,0,0
-343,127,0,0,0,0,0,0,0,0,0,-1,881,897,0,0
-336,127,0,0,0,0,0,0,0,0,0,-1,888,897,0,0
-329,127,0,0,0,0,0,0,0,0,0,-1,895,897,0,0
-322,127,0,0,0,0,0,0,0,0,0,-1,902,897,0,0
-315,127,0,0,0,0,0,0,0,0,0,-1,909,897,0,0
-308,127,0,0,0,0,0,0,0,0,0,-1,916,897,0,0
-301,127,0,0,0,0,0,0,0,0,0,-1,923,897,0,0
-294,127,0,0,0,0,0,0,0,0,0,-1,930,897,0,0
-287,127,0,0,0,0,0,0,0,0,0,-1,937,897,0,0
-280,127,0,0,0,0,0,0,0,0,0,-1,944,897,0,0
-273,127,0,0,0,0,0,0,0,0,0,-1,951,897,0,0
-266,127,0,0,0,0,0,0,0,0,0,-1,958,897,0,0
-259,127,0,0,0,0,0,0,0,0,0,-1,965,897,0,0
-252,127,0,0,0,0,0,0,0,0,0,-1,972,897,0,0
-245,127,0,0,0,0,0,0,0,0,0,-1,979,897,0,0
-238,127,0,0,0,0,0,0,0,0,0,-1,986,897,0,0
-231,127,0,0,0,0,0,0,0,0,0,-1,993,897,0,0
-224,127,0,0,0,0,0,0,0,0,0,-1,1000,897,0,0
-217,127,0,0,0,0,0,0,0,0,0,-1,1007,897,0,0
-210,127,0,0,0,0,0,0,0,0,0,-1,1014,897,0,0
-203,127,0,0,0,0,0,0,0,0,0,-1,1021,897,0,0
-196,127,0,0,0,0,0,0,0,0,0,-1,1028,897,0,0
-189,127,0,0,0,0,0,0,0,0,0,-1,1035,897,0,0
-182,127,0,0,0,0,0,0,0,0,0,-1,1042,897,0,0
-175,127,0,0,0,0,0,0,0,0,0,-1,1049,897,0,0
-168,127,0,0,0,0,0,0,0,0,0,-1,1056,897,0,0
-161,127,0,0,0,0,0,0,0,0,0,-1,1063,897,0,0
-154,127,0,0,0,0,0,0,0,0,0,-1,1070,897,0,0
-147,127,0,0,0,0,0,0,0,0,0,-1,1077,897,0,0
-140,127,0,0,0,0,0,0,0,0,0,-1,1084,897,0,0
-133,127,0,0,0,0,0,0,0,0,0,-1,1091,897,0,0
-126,127,0,0,0,0,0,0,0,0,0,-1,1098,897,0,0
-119,127,0,0,0,0,0,0,0,0,0,-1,1105,897,0,0
-112,127,0,0,0,0,0,0,0,0,0,-1,1112,897,0,0
-105,127,0,0,0,0,0,0,0,0,0,-1,1119,897,0,0
-98,127,0,0,0,0,0,0,0,0,0,-1,1126,897,0,0
-91,127,0,0,0,0,0,0,0,0,0,-1,1133,897,0,0
-84,127,0,0,0,0,0,0,0,0,0,-1,1140,897,0,0
-77,127,0,0,0,0,0,0,0,0,0,-1,1147,897,0,0
-70,127,0,0,0,0,0,0,0,0,0,-1,1154,897,0,0
-63,127,0,0,0,0,0,0,0,0,0,-1,1161,897,0,0
-56,127,0,0,0,0,0,0,0,0,0,-1,1168,897,0,0
-49,127,0,0,0,0,0,0,0,0,0,-1,1175,897,0,0
-42,127,0,0,0,0,0,0,0,0,0,-1,1182,897,0,0
-35,127,0,0,0,0,0,0,0,0,0,-1,1189,897,0,0
-28,127,0,0,0,0,0,0,0,0,0,-1,1196,897,0,0
-21,127,0,0,0,0,0,0,0,0,0,-1,1203,897,0,0
-14,127,0,0,0,0,0,0,0,0,0,-1,1210,897,0,0
-7,127,0,0,0,0,0,0,0,0,0,-1,1217,897,0,0
0,127,0,0,0,0,0,0,0,0,0,-1,1224,897,0,0
7,127,0,0,0,0,0,0,0,0,0,-1,1231,897,0,0
14,127,0,0,0,0,0,0,0,0,0,-1,1238,897,0,0
21,127,0,0,0,0,0,0,0,0,0,-1,1245,897,0,0
28,127,0,0,0,0,0,0,0,0,0,-1,1252,897,0,0
35,127,0,0,0,0,0,0,0,0,0,-1,1259,897,0,0
42,127,0,0,0,0,0,0,0,0,0,-1,1266,897,0,0
49,127,0,0,0,0,0,0,0,0,0,-1,1273,897,0,0
56,127,0,0,0,0,0,0,0,0,0,-1,1280,897,0,0
63,127,0,0,0,0,0,0,0,0,0,-1,1287,897,0,0
70,127,0,0,0,0,0,0,0,0,0,-1,1294,897,0,0
77,127,0,0,0,0,0,0,0,0,0,-1,1301,897,0,0
84,127,0,0,0,0,0,0,0,0,0,-1,1308,897,0,0
91,127,0,0,0,0,0,0,0,0,0,-1,1315,897,0,0
98,127,0,0,0,0,0,0,0,0,0,-1,1322,897,0,0
105,127,0,0,0,0,0,0,0,0,0,-1,1329,897,0,0
112,127,0,0,0,0,0,0,0,0,0,-1,1336,897,0,0
119,127,0,0,0,0,0,0,0,0,0,-1,1343,897,0,0
126,127,0,0,0,0,0,0,0,0,0,-1,1350,897,0,0
133,127,0,0,0,0,0,0,0,0,0,-1,1357,897,0,0
140,127,0,0,0,0,0,0,0,0,0,-1,1364,897,0,0
147,127,0,0,0,0,0,0,0,0,0,-1,1371,897,0,0
154,127,0,0,0,0,0,0,0,0,0,-1,1378,897,0,0
161,127,0,0,0,0,0,0,0,0,0,-1,1385,897,0,0
168,127,0,0,0,0,0,0,0,0,0,-1,1392,897,0,0
175,127,0,0,0,0,0,0,0,0,0,-1,1399,897,0,0
182,127,0,0,0,0,0,0,0,0,0,-1,1406,897,0,0
189,127,0,0,0,0,0,0,0,0,0,-1,1413,897,0,0
196,127,0,0,0,0,0,0,0,0,0,-1,1420,897,0,0
203,127,0,0,0,0,0,0,0,0,0,-1,1427,897,0,0
210,127,0,0,0,0,0,0,0,0,0,-1,1434,897,0,0
217,127,0,0,0,0,0,0,0,0,0,-1,1441,897,0,0
224,127,0,0,0,0,0,0,0,0,0,-1,1448,897,0,0
231,127,0,0,0,0,0,0,0,0,0,-1,1455,897,0,0
238,127,0,0,0,0,0,0,0,0,0,-1,1462,897,0,0
245,127,0,0,0,0,0,0,0,0,0,-1,1469,897,0,0
252,127,0,0,0,0,0,0,0,0,0,-1,1476,897,0,0
259,127,0,0,0,0,0,0,0,0,0,-1,1483,897,0,0
266,127,0,0,0,0,0,0,0,0,0,-1,1490,897,0,0
273,127,0,0,0,0,0,0,0,0,0,-1,1497,897,0,0
280,127,0,0,0,0,0,0,0,0,0,-1,1504,897,0,0
287,127,0,0,0,0,0,0,0,0,0,-1,1511,897,0,0
294,127,0,0,0,0,0,0,0,0,0,-1,1518,897,0,0
301,127,0,0,0,0,0,0,0,0,0,-1,1525,897,0,0
308,127,0,0,0,0,0,0,0,0,0,-1,1532,897,0,0
315,127,0,0,0,0,0,0,0,0,0,-1,1539,897,0,0
322,127,0,0,0,0,0,0,0,0,0,-1,1546,897,0,0
329,127,0,0,0,0,0,0,0,0,0,-1,1553,897,0,0
336,127,0,0,0,0,0,0,0,0,0,-1,1560,897,0,0
343,127,0,0,0,0,0,0,0,0,0,-1,1567,897,0,0
350,127,0,0,0,0,0,0,0,0,0,-1,1574,897,0,0
357,127,0,0,0,0,0,0,0,0,0,-1,1581,897,0,0
364,127,0,0,0,0,0,0,0,0,0,-1,1588,897,0,0
371,127,0,0,0,0,0,0,0,0,0,-1,1595,897,0,0
378,127,0,0,0,0,0,0,0,0,0,-1,1602,897,0,0
385,127,0,0,0,0,0,0,0,0,0,-1,1609,897,0,0
392,127,0,0,0,0,0,0,0,0,0,-1,1616,897,0,0
399,127,0,0,0,0,0,0,0,0,0,-1,1623,897,0,0
406,127,0,0,0,0,0,0,0,0,0,-1,1630,897,0,0
413,127,0,0,0,0,0,0,0,0,0,-1,1637,897,0,0
420,127,0,0,0,0,0,0,0,0,0,-1,1644,897,0,0
427,127,0,0,0,0,0,0,0,0,0,-1,1651,897,0,0
434,127,0,0,0,0,0,0,0,0,0,-1,1658,897,0,0
441,127,0,0,0,0,0,0,0,0,0,-1,1665,897,0,0
448,127,0,0,0,0,0,0,0,0,0,-1,1672,897,0,0
455,127,0,0,0,0,0,0,0,0,0,-1,1679,897,0,0
462,127,0,0,0,0,0,0,0,0,0,-1,1686,897,0,0
469,127,0,0,0,0,0,0,0,0,0,-1,1693,897,0,0
476,127,0,0,0,0,0,0,0,0,0,-1,1700,897,0,0
483,127,0,0,0,0,0,0,0,0,0,-1,1707,897,0,0
490,127,0,0,0,0,0,0,0,0,0,-1,1714,897,0,0
497,127,0,0,0,0,0,0,0,0,0,-1,1721,897,0,0
504,127,0,0,0,0,0,0,0,0,0,-1,1728,897,0,0
511,127,0,0,0,0,0,0,0,0,0,-1,1735,897,0,0
518,127,0,0,0,0,0,0,0,0,0,-1,1742,897,0,0
525,127,0,0,0,0,0,0,0,0,0,-1,1749,897,0,0
532,127,0,0,0,0,0,0,0,0,0,-1,1756,897,0,0
539,127,0,0,0,0,0,0,0,0,0,-1,1763,897,0,0
546,127,0,0,0,0,0,0,0,0,0,-1,1770,897,0,0
553,127,0,0,0,0,0,0,0,0,0,-1,1777,897,0,0
560,127,0,0,0,0,0,0,0,0,0,-1,1784,897,0,0
567,127,0,0,0,0,0,0,0,0,0,-1,1791,897,0,0
574,127,0,0,0,0,0,0,0,0,0,-1,1798,897,0,0
581,127,0,0,0,0,0,0,0,0,0,-1,1805,897,0,0
588,127,0,0,0,0,0,0,0,0,0,-1,1812,897,0,0
595,127,0,0,0,0,0,0,0,0,0,-1,1819,897,0,0
602,127,0,0,0,0,0,0,0,0,0,-1,1826,897,0,0
609,127,0,0,0,0,0,0,0,0,0,-1,1833,897,0,0
616,127,0,0,0,0,0,0,0,0,0,-1,1840,897,0,0
623,127,0,0,0,0,0,0,0,0,0,-1,1847,897,0,0
630,127,60.7805,2.53076,0.00247417,-0.0014628,0.00153212,0.00300014,-0.00198877,0.330692,0.00290001,0.0419524,1854,897,60.7805,-2.53074
637,127,60.8221,2.48608,0.00176829,-0.000932508,0.00132626,0.00231065,-0.00147487,0.388191,0.00220326,0.0447388,1861,897,60.8221,-2.4861
644,127,61.2244,2.48511,0.0012134,-0.000448334,0.00100458,0.0016862,-0.000921126,0.439881,0.00152679,0.0443793,1868,897,61.2243,-2.4851
651,127,60.9824,2.41223,0.00074398,-0.000148163,0.000612623,0.00105573,-0.000459909,0.470718,0.000897307,0.0428183,1875,897,60.9825,-2.41223
658,127,60.8116,2.56958,0.00055067,-0.000206703,0.000147039,0.000578215,-0.000234248,0.185185,0.000482885,0.0418674,1882,897,60.8116,-2.56956
665,127,60.8496,2.65021,0.000579009,-8.04531e-06,-0.00020516,0.0006436,-7.26364e-05,-0.305009,0.000455215,0.0397923,1889,897,60.8496,-2.65022
672,127,60.9098,2.61603,0.000539948,-0.00014776,-0.000450537,0.000762856,-0.000370668,-0.459447,0.00066737,0.0333474,1896,897,60.9098,-2.61602
679,127,60.9506,2.61621,0.000656566,-0.000229474,-0.000654054,0.00100352,-0.000576424,-0.487718,0.000923222,0.0244048,1903,897,60.9506,-2.61621
686,127,60.9167,2.61047,0,0,0,0,0,0,0,-1,1910,897,60.9168,-2.61046
693,127,59.2523,2.33673,0,0,0,0,0,0,0,-1,1917,897,59.2524,-2.33674
700,127,53.4084,2.23663,0,0,0,0,0,0,0,-1,1924,897,53.4085,-2.23665
707,127,53.3152,2.90521,0.000116789,-8.60993e-05,-0.00147604,0.00149487,-0.00146418,-0.751089,0.00170844,0.0381887,1931,897,53.3152,-2.90518
714,127,53.6626,3.64575,-8.1723e-05,0.000481756,-0.00168518,0.00190859,-0.00150856,-0.868225,0.00197739,0.0260728,1938,897,53.6625,-3.64577
721,127,53.7646,4.44153,-0.000316476,0.000899145,-0.00169818,0.00209501,-0.00151234,-0.957254,0.00209174,0.0242377,1945,897,53.7647,-4.44152
728,127,53.6827,5.05231,-0.000830262,0.00153635,-0.00172984,0.00244888,-0.0017428,-1.08537,0.00243148,0.0208538,1952,897,53.6827,-5.05228
735,127,53.6455,5.75256,-0.00124737,0.00270524,-0.00148732,0.00320238,-0.00174451,-1.24822,0.00289713,0.0209193,1959,897,53.6455,-5.75255
742,127,53.5911,6.37598,-0.00142632,0.00468371,-0.000957494,0.00483024,-0.00157286,-1.41894,0.00385299,0.0195221,1966,897,53.5911,-6.37601
749,127,53.5243,6.95459,-0.00113068,0.00721729,-9.41468e-05,0.00721836,-0.00113174,-1.55952,0.00523046,0.0131607,1973,897,53.5243,-6.95461
756,127,53.4559,7.52856,-0.000127101,0.0103704,0.00131963,0.0105337,-0.000290448,1.44764,0.00712129,0.0159451,1980,897,53.4559,-7.52856
763,127,53.3474,8.10846,0.0021203,0.0141214,0.00352105,0.0150782,0.00116352,1.30547,0.00968759,0.0254071,1987,897,53.3475,-8.10848
770,127,53.2781,8.65857,0,0,0,0,0,0,0,-1,1994,897,53.2781,-8.65857
777,127,42.703,5.33789,0,0,0,0,0,0,0,-1,2001,897,42.7031,-5.33791
784,127,60.9233,9.82471,0,0,0,0,0,0,0,-1,2008,897,60.9234,-9.8247
791,127,62.4458,10.6021,0,0,0,0,0,0,0,-1,2015,897,62.4457,-10.6021
798,127,0,0,0,0,0,0,0,0,0,-1,2022,897,0,0
805,127,0,0,0,0,0,0,0,0,0,-1,2029,897,0,0
812,127,0,0,0,0,0,0,0,0,0,-1,2036,897,0,0
-700,120,0,0,0,0,0,0,0,0,0,-1,524,904,0,0
-693,120,0,0,0,0,0,0,0,0,0,-1,531,904,0,0
-686,120,0,0,0,0,0,0,0,0,0,-1,538,904,0,0
-679,120,-41.0841,5.99487,0,0,0,0,0,0,0,-1,545,904,-41.0841,-5.99488
-672,120,-49.5787,-2.48511,0,0,0,0,0,0,0,-1,552,904,-49.5787,2.48509
-665,120,-49.3304,-3.02417,0,0,0,0,0,0,0,-1,559,904,-49.3304,3.02419
-658,120,-48.817,-2.37921,0,0,0,0,0,0,0,-1,566,904,-48.817,2.3792
-651,120,-48.2593,-1.74121,0,0,0,0,0,0,0,-1,573,904,-48.2593,1.74121
-644,120,-45.0175,2.1684,0,0,0,0,0,0,0,-1,580,904,-45.0175,-2.16837
-637,120,-40.6477,6.05029,0,0,0,0,0,0,0,-1,587,904,-40.6477,-6.05032
-630,120,-40.6279,5.51917,-0.0127021,0.0142806,0.00136972,0.01435,-0.0127714,1.52021,0.0156674,0.0335006,594,904,-40.6279,-5.51914
-623,120,-40.711,4.95844,-0.00987639,0.0107841,0.00173183,0.0109282,-0.0100206,1.48775,0.0120986,0.0120226,601,904,-40.711,-4.95846
-616,120,-40.7549,4.41913,-0.0075914,0.00745982,0.0020663,0.00773834,-0.00786992,1.43681,0.00901154,0.0107085,608,904,-40.755,-4.41914
-609,120,-40.7958,3.87384,-0.00585553,0.00447604,0.00233997,0.0049813,-0.00636079,1.35813,0.00656448,0.0147852,615,904,-40.7959,-3.87386
-602,120,-40.8278,3.31146,-0.00488142,0.00229653,0.00236288,0.00300453,-0.00558942,1.27968,0.00503598,0.0171846,622,904,-40.8278,-3.31146
-595,120,-40.7279,2.78748,-0.00441968,0.0011267,0.00227931,0.0019432,-0.00523618,1.22682,0.00428789,0.0329546,629,904,-40.7279,-2.78747
-588,120,-40.6518,2.07837,-0.00390443,0.000343449,0.00210646,0.00121088,-0.00477186,1.18016,0.0036524,0.0441228,636,904,-40.6518,-2.07838
-581,120,-40.9174,1.85931,0,0,0,0,0,0,0,-1,643,904,-40.9174,-1.85931
-574,120,-27.5438,0.505066,0,0,0,0,0,0,0,-1,650,904,-27.5438,-0.505085
-567,120,-25.2822,-0.410645,0,0,0,0,0,0,0,-1,657,904,-25.2821,0.410629
-560,120,-27.3358,1.10327,0,0,0,0,0,0,0,-1,664,904,-27.3358,-1.10324
-553,120,-46.1563,0.916626,0,0,0,0,0,0,0,-1,671,904,-46.1562,-0.916647
-546,120,-46.1165,0.872803,-0.00255542,-0.000634667,0.00116022,-8.89127e-05,-0.00310117,1.13112,0.00203846,0.0341105,678,904,-46.1165,-0.872815
-539,120,-46.1624,0.918213,-0.00226412,-0.000555368,0.000984336,-0.000106335,-0.00271316,1.14282,0.00177439,0.0267877,685,904,-46.1623,-0.918211
-532,120,-46.1883,0.930786,-0.00160414,-0.000644436,0.000905921,-9.9129e-05,-0.00214945,1.02895,0.00140109,0.0274899,692,904,-46.1883,-0.930757
-525,120,-46.2237,0.911926,-0.00139699,-0.00158675,0.00085822,-0.000628422,-0.00235532,0.730346,0.00140828,0.0352487,699,904,-46.2237,-0.911935
-518,120,-46.3961,1.02582,-0.00169171,-0.00328298,0.00111439,-0.00111808,-0.00385661,0.47538,0.0022912,0.0378294,706,904,-46.396,-1.02579
-511,120,-46.3716,0.929138,-0.00172283,-0.0052572,0.0013748,-0.00125104,-0.005729,0.330579,0.00347814,0.0404222,713,904,-46.3716,-0.929141
-504,120,0,0,0,0,0,0,0,0,0,-1,720,904,0,0
-497,120,0,0,0,0,0,0,0,0,0,-1,727,904,0,0
-490,120,0,0,0,0,0,0,0,0,0,-1,734,904,0,0
-483,120,0,0,0,0,0,0,0,0,0,-1,741,904,0,0
-476,120,0,0,0,0,0,0,0,0,0,-1,748,904,0,0
-469,120,0,0,0,0,0,0,0,0,0,-1,755,904,0,0
-462,120,0,0,0,0,0,0,0,0,0,-1,762,904,0,0
-455,120,0,0,0,0,0,0,0,0,0,-1,769,904,0,0
-448,120,0,0,0,0,0,0,0,0,0,-1,776,904,0,0
-441,120,0,0,0,0,0,0,0,0,0,-1,783,904,0,0
-434,120,0,0,0,0,0,0,0,0,0,-1,790,904,0,0
-427,120,0,0,0,0,0,0,0,0,0,-1,797,904,0,0
-420,120,0,0,0,0,0,0,0,0,0,-1,804,904,0,0
-413,120,0,0,0,0,0,0,0,0,0,-1,811,904,0,0
-406,120,0,0,0,0,0,0,0,0,0,-1,818,904,0,0
-399,120,0,0,0,0,0,0,0,0,0,-1,825,904,0,0
-392,120,0,0,0,0,0,0,0,0,0,-1,832,904,0,0
-385,120,0,0,0,0,0,0,0,0,0,-1,839,904,0,0
-378,120,0,0,0,0,0,0,0,0,0,-1,846,904,0,0
-371,120,0,0,0,0,0,0,0,0,0,-1,853,904,0,0
-364,120,0,0,0,0,0,0,0,0,0,-1,860,904,0,0
-357,120,0,0,0,0,0,0,0,0,0,-1,867,904,0,0
-350,120,0,0,0,0,0,0,0,0,0,-1,874,904,0,0
-343,120,0,0,0,0,0,0,0,0,0,-1,881,904,0,0
-336,120,0,0,0,0,0,0,0,0,0,-1,888,904,0,0
-329,120,0,0,0,0,0,0,0,0,0,-1,895,904,0,0
-322,120,0,0,0,0,0,0,0,0,0,-1,902,904,0,0
-315,120,0,0,0,0,0,0,0,0,0,-1,909,904,0,0
-308,120,0,0,0,0,0,0,0,0,0,-1,916,904,0,0
-301,120,0,0,0,0,0,0,0,0,0,-1,923,904,0,0
-294,120,0,0,0,0,0,0,0,0,0,-1,930,904,0,0
-287,120,0,0,0,0,0,0,0,0,0,-1,937,904,0,0
-280,120,0,0,0,0,0,0,0,0,0,-1,944,904,0,0
-273,120,0,0,0,0,0,0,0,0,0,-1,951,904,0,0
-266,120,0,0,0,0,0,0,0,0,0,-1,958,904,0,0
-259,120,0,0,0,0,0,0,0,0,0,-1,965,904,0,0
-252,120,0,0,0,0,0,0,0,0,0,-1,972,904,0,0
-245,120,0,0,0,0,0,0,0,0,0,-1,979,904,0,0
-238,120,0,0,0,0,0,0,0,0,0,-1,986,904,0,0
-231,120,0,0,0,0,0,0,0,0,0,-1,993,904,0,0
-224,120,0,0,0,0,0,0,0,0,0,-1,1000,904,0,0
-217,120,0,0,0,0,0,0,0,0,0,-1,1007,904,0,0
-210,120,0,0,0,0,0,0,0,0,0,-1,1014,904,0,0
-203,120,0,0,0,0,0,0,0,0,0,-1,1021,904,0,0
-196,120,0,0,0,0,0,0,0,0,0,-1,1028,904,0,0
-189,120,0,0,0,0,0,0,0,0,0,-1,1035,904,0,0
-182,120,0,0,0,0,0,0,0,0,0,-1,1042,904,0,0
-175,120,0,0,0,0,0,0,0,0,0,-1,1049,904,0,0
-168,120,0,0,0,0,0,0,0,0,0,-1,1056,904,0,0
-161,120,0,0,0,0,0,0,0,0,0,-1,1063,904,0,0
-154,120,0,0,0,0,0,0,0,0,0,-1,1070,904,0,0
-147,120,0,0,0,0,0,0,0,0,0,-1,1077,904,0,0
-140,120,0,0,0,0,0,0,0,0,0,-1,1084,904,0,0
-133,120,0,0,0,0,0,0,0,0,0,-1,1091,904,0,0
-126,120,0,0,0,0,0,0,0,0,0,-1,1098,904,0,0
-119,120,0,0,0,0,0,0,0,0,0,-1,1105,904,0,0
-112,120,0,0,0,0,0,0,0,0,0,-1,1112,904,0,0
-105,120,0,0,0,0,0,0,0,0,0,-1,1119,904,0,0
-98,120,0,0,0,0,0,0,0,0,0,-1,1126,904,0,0
-91,120,0,0,0,0,0,0,0,0,0,-1,1133,904,0,0
-84,120,0,0,0,0,0,0,0,0,0,-1,1140,904,0,0
-77,120,0,0,0,0,0,0,0,0,0,-1,1147,904,0,0
-70,120,0,0,0,0,0,0,0,0,0,-1,1154,904,0,0
-63,120,0,0,0,0,0,0,0,0,0,-1,1161,904,0,0
-56,120,0,0,0,0,0,0,0,0,0,-1,1168,904,0,0
-49,120,0,0,0,0,0,0,0,0,0,-1,1175,904,0,0
-42,120,0,0,0,0,0,0,0,0,0,-1,1182,904,0,0
-35,120,0,0,0,0,0,0,0,0,0,-1,1189,904,0,0
-28,120,0,0,0,0,0,0,0,0,0,-1,1196,904,0,0
-21,120,0,0,0,0,0,0,0,0,0,-1,1203,904,0,0
-14,120,0,0,0,0,0,0,0,0,0,-1,1210,904,0,0
-7,120,0,0,0,0,0,0,0,0,0,-1,1217,904,0,0
0,120,0,0,0,0,0,0,0,0,0,-1,1224,904,0,0
7,120,0,0,0,0,0,0,0,0,0,-1,1231,904,0,0
14,120,0,0,0,0,0,0,0,0,0,-1,1238,904,0,0
21,120,0,0,0,0,0,0,0,0,0,-1,1245,904,0,0
28,120,0,0,0,0,0,0,0,0,0,-1,1252,904,0,0
35,120,0,0,0,0,0,0,0,0,0,-1,1259,904,0,0
42,120,0,0,0,0,0,0,0,0,0,-1,1266,904,0,0
49,120,0,0,0,0,0,0,0,0,0,-1,1273,904,0,0
56,120,0,0,0,0,0,0,0,0,0,-1,1280,904,0,0
63,120,0,0,0,0,0,0,0,0,0,-1,1287,904,0,0
70,120,0,0,0,0,0,0,0,0,0,-1,1294,904,0,0
77,120,0,0,0,0,0,0,0,0,0,-1,1301,904,0,0
84,120,0,0,0,0,0,0,0,0,0,-1,1308,904,0,0
91,120,0,0,0,0,0,0,0,0,0,-1,1315,904,0,0
98,120,0,0,0,0,0,0,0,0,0,-1,1322,904,0,0
105,120,0,0,0,0,0,0,0,0,0,-1,1329,904,0,0
112,120,0,0,0,0,0,0,0,0,0,-1,1336,904,0,0
119,120,0,0,0,0,0,0,0,0,0,-1,1343,904,0,0
126,120,0,0,0,0,0,0,0,0,0,-1,1350,904,0,0
133,120,0,0,0,0,0,0,0,0,0,-1,1357,904,0,0
140,120,0,0,0,0,0,0,0,0,0,-1,1364,904,0,0
147,120,0,0,0,0,0,0,0,0,0,-1,1371,904,0,0
154,120,0,0,0,0,0,0,0,0,0,-1,1378,904,0,0
161,120,0,0,0,0,0,0,0,0,0,-1,1385,904,0,0
168,120,0,0,0,0,0,0,0,0,0,-1,1392,904,0,0
175,120,0,0,0,0,0,0,0,0,0,-1,1399,904,0,0
182,120,0,0,0,0,0,0,0,0,0,-1,1406,904,0,0
189,120,0,0,0,0,0,0,0,0,0,-1,1413,904,0,0
196,120,0,0,0,0,0,0,0,0,0,-1,1420,904,0,0
203,120,0,0,0,0,0,0,0,0,0,-1,1427,904,0,0
210,120,0,0,0,0,0,0,0,0,0,-1,1434,904,0,0
217,120,0,0,0,0,0,0,0,0,0,-1,1441,904,0,0
224,120,0,0,0,0,0,0,0,0,0,-1,1448,904,0,0
231,120,0,0,0,0,0,0,0,0,0,-1,1455,904,0,0
238,120,0,0,0,0,0,0,0,0,0,-1,1462,904,0,0
245,120,0,0,0,0,0,0,0,0,0,-1,1469,904,0,0
252,120,0,0,0,0,0,0,0,0,0,-1,1476,904,0,0
259,120,0,0,0,0,0,0,0,0,0,-1,1483,904,0,0
266,120,0,0,0,0,0,0,0,0,0,-1,1490,904,0,0
273,120,0,0,0,0,0,0,0,0,0,-1,1497,904,0,0
280,120,0,0,0,0,0,0,0,0,0,-1,1504,904,0,0
287,120,0,0,0,0,0,0,0,0,0,-1,1511,904,0,0
294,120,0,0,0,0,0,0,0,0,0,-1,1518,904,0,0
301,120,0,0,0,0,0,0,0,0,0,-1,1525,904,0,0
308,120,0,0,0,0,0,0,0,0,0,-1,1532,904,0,0
315,120,0,0,0,0,0,0,0,0,0,-1,1539,904,0,0
322,120,0,0,0,0,0,0,0,0,0,-1,1546,904,0,0
329,120,0,0,0,0,0,0,0,0,0,-1,1553,904,0,0
336,120,0,0,0,0,0,0,0,0,0,-1,1560,904,0,0
343,120,0,0,0,0,0,0,0,0,0,-1,1567,904,0,0
350,120,0,0,0,0,0,0,0,0,0,-1,1574,904,0,0
357,120,0,0,0,0,0,0,0,0,0,-1,1581,904,0,0
364,120,0,0,0,0,0,0,0,0,0,-1,1588,904,0,0
371,120,0,0,0,0,0,0,0,0,0,-1,1595,904,0,0
378,120,0,0,0,0,0,0,0,0,0,-1,1602,904,0,0
385,120,0,0,0,0,0,0,0,0,0,-1,1609,904,0,0
392,120,0,0,0,0,0,0,0,0,0,-1,1616,904,0,0
399,120,0,0,0,0,0,0,0,0,0,-1,1623,904,0,0
406,120,0,0,0,0,0,0,0,0,0,-1,1630,904,0,0
413,120,0,0,0,0,0,0,0,0,0,-1,1637,904,0,0
420,120,0,0,0,0,0,0,0,0,0,-1,1644,904,0,0
427,120,0,0,0,0,0,0,0,0,0,-1,1651,904,0,0
434,120,0,0,0,0,0,0,0,0,0,-1,1658,904,0,0
441,120,0,0,0,0,0,0,0,0,0,-1,1665,904,0,0
448,120,0,0,0,0,0,0,0,0,0,-1,1672,904,0,0
455,120,0,0,0,0,0,0,0,0,0,-1,1679,904,0,0
462,120,0,0,0,0,0,0,0,0,0,-1,1686,904,0,0
469,120,0,0,0,0,0,0,0,0,0,-1,1693,904,0,0
476,120,0,0,0,0,0,0,0,0,0,-1,1700,904,0,0
483,120,0,0,0,0,0,0,0,0,0,-1,1707,904,0,0
490,120,0,0,0,0,0,0,0,0,0,-1,1714,904,0,0
497,120,0,0,0,0,0,0,0,0,0,-1,1721,904,0,0
504,120,0,0,0,0,0,0,0,0,0,-1,1728,904,0,0
511,120,0,0,0,0,0,0,0,0,0,-1,1735,904,0,0
518,120,0,0,0,0,0,0,0,0,0,-1,1742,904,0,0
525,120,0,0,0,0,0,0,0,0,0,-1,1749,904,0,0
532,120,0,0,0,0,0,0,0,0,0,-1,1756,904,0,0
539,120,0,0,0,0,0,0,0,0,0,-1,1763,904,0,0
546,120,0,0,0,0,0,0,0,0,0,-1,1770,904,0,0
553,120,0,0,0,0,0,0,0,0,0,-1,1777,904,0,0
560,120,0,0,0,0,0,0,0,0,0,-1,1784,904,0,0
567,120,0,0,0,0,0,0,0,0,0,-1,1791,904,0,0
574,120,0,0,0,0,0,0,0,0,0,-1,1798,904,0,0
581,120,0,0,0,0,0,0,0,0,0,-1,1805,904,0,0
588,120,0,0,0,0,0,0,0,0,0,-1,1812,904,0,0
595,120,0,0,0,0,0,0,0,0,0,-1,1819,904,0,0
602,120,0,0,0,0,0,0,0,0,0,-1,1826,904,0,0
609,120,0,0,0,0,0,0,0,0,0,-1,1833,904,0,0
616,120,0,0,0,0,0,0,0,0,0,-1,1840,904,0,0
623,120,0,0,0,0,0,0,0,0,0,-1,1847,904,0,0
630,120,60.9532,2.45697,0.00226085,-0.0017101,0.00245117,0.0034298,-0.00287904,0.444991,0.00364703,0.036353,1854,904,60.9533,-2.457
637,120,61.0253,2.34839,0.00172073,-0.00119241,0.00193071,0.00268267,-0.00215436,0.462235,0.00279821,0.0429971,1861,904,61.0253,-2.34837
644,120,60.7797,2.65277,0,0,0,0,0,0,0,-1,1868,904,60.7797,-2.65275
651,120,60.7438,2.59473,0.000925264,-0.000381164,0.000796092,0.00130183,-0.000757732,0.441832,0.00120284,0.0435517,1875,904,60.7438,-2.59474
658,120,60.7421,2.67773,0.000792683,-0.00028544,0.00025941,0.000851853,-0.00034461,0.224258,0.00071117,0.0416996,1882,904,60.7421,-2.67773
665,120,60.8906,2.75427,0.000910208,2.50276e-06,-0.000148241,0.000933804,-2.10936e-05,-0.157852,0.000629685,0.0379719,1889,904,60.8906,-2.75428
672,120,60.938,2.66223,0.000865251,-7.50937e-05,-0.000390482,0.00100626,-0.000216099,-0.346534,0.000753275,0.0364839,1896,904,60.9379,-2.66224
679,120,60.8832,2.64551,0.000950071,-0.000139037,-0.00056512,0.00119031,-0.000379276,-0.401965,0.000945667,0.0308075,1903,904,60.8831,-2.64551
686,120,60.8916,2.63892,0.000888297,-0.000223745,-0.000758011,0.00127235,-0.000607799,-0.468961,0.00110788,0.0274974,1910,904,60.8916,-2.63894
693,120,60.9407,2.5827,0,0,0,0,0,0,0,-1,1917,904,60.9407,-2.58269
700,120,42.2007,3.00946,0,0,0,0,0,0,0,-1,1924,904,42.2007,-3.00944
707,120,54.0328,3.12341,0,0,0,0,0,0,0,-1,1931,904,54.0329,-3.12339
714,120,54.6934,3.72717,0,0,0,0,0,0,0,-1,1938,904,54.6934,-3.72718
721,120,54.4003,4.58887,-0.000438153,0.00111624,-0.00161653,0.0021327,-0.00145461,-1.00948,0.00208343,0.0215644,1945,904,54.4003,-4.58888
728,120,54.2827,5.17975,-0.000995856,0.00172441,-0.00164879,0.00250167,-0.00177312,-1.13028,0.00247997,0.0143263,1952,904,54.2828,-5.17976
735,120,54.248,5.7439,-0.0013685,0.00285962,-0.00139769,0.00327988,-0.00178876,-1.27871,0.00296829,0.0138217,1959,904,54.248,-5.74391
742,120,54.191,6.37396,-0.00141081,0.00488181,-0.000840861,0.00499223,-0.00152123,-1.44022,0.00393451,0.0151291,1966,904,54.191,-6.37393
749,120,54.1516,6.93597,-0.000872307,0.00764121,0.000142307,0.00764359,-0.000874686,1.55409,0.00541091,0.0109829,1973,904,54.1516,-6.93599
756,120,54.082,7.50299,0.000516588,0.0111316,0.00181341,0.0114328,0.000215345,1.40618,0.00755113,0.0137018,1980,904,54.0821,-7.50297
763,120,53.9601,8.06958,0.00313692,0.0152673,0.00435285,0.0166676,0.00173659,1.25955,0.0105805,0.0303975,1987,904,53.9601,-8.06957
770,120,53.8309,8.64819,0,0,0,0,0,0,0,-1,1994,904,53.8309,-8.64822
777,120,59.313,9.57587,0,0,0,0,0,0,0,-1,2001,904,59.3129,-9.57587
784,120,59.6865,9.48816,0,0,0,0,0,0,0,-1,2008,904,59.6864,-9.48817
791,120,59.6704,10.6207,0,0,0,0,0,0,0,-1,2015,904,59.6704,-10.6208
798,120,60.4915,9.83624,0,0,0,0,0,0,0,-1,2022,904,60.4915,-9.83625
805,120,0,0,0,0,0,0,0,0,0,-1,2029,904,0,0
812,120,0,0,0,0,0,0,0,0,0,-1,2036,904,0,0
-700,113,0,0,0,0,0,0,0,0,0,-1,524,911,0,0
-693,113,0,0,0,0,0,0,0,0,0,-1,531,911,0,0
-686,113,0,0,0,0,0,0,0,0,0,-1,538,911,0,0
-679,113,-49.5072,-2.05408,0,0,0,0,0,0,0,-1,545,911,-49.5072,2.05405
-672,113,-49.2308,-1.95569,0,0,0,0,0,0,0,-1,552,911,-49.2308,1.9557
-665,113,-49.0443,-1.85583,0,0,0,0,0,0,0,-1,559,911,-49.0443,1.85586
-658,113,-48.5634,-1.70172,0,0,0,0,0,0,0,-1,566,911,-48.5634,1.70171
-651,113,-48.0294,-1.11536,0,0,0,0,0,0,0,-1,573,911,-48.0294,1.11538
-644,113,-41.1011,6.74994,0,0,0,0,0,0,0,-1,580,911,-41.1011,-6.74993
-637,113,-41.246,6.04126,0,0,0,0,0,0,0,-1,587,911,-41.2459,-6.04123
-630,113,-41.2419,5.49347,-0.0136743,0.0162076,0.00241752,0.0164019,-0.0138686,1.49059,0.0174971,0.0228092,594,911,-41.242,-5.49345
-623,113,-41.3438,4.94586,-0.0103793,0.0119774,0.00256701,0.0122684,-0.0106703,1.45793,0.0132543,0.0124914,601,911,-41.3438,-4.94585
-616,113,-41.3658,4.40784,-0.00760037,0.00802262,0.00270803,0.0084787,-0.00805645,1.40394,0.00954761,0.0108922,608,911,-41.3659,-4.40784
-609,113,-41.3769,3.89899,-0.00551733,0.00459231,0.0027901,0.00531121,-0.00623623,1.31862,0.00667405,0.012097,615,911,-41.3769,-3.89901
-602,113,-41.4116,3.33081,-0.00436243,0.00222769,0.00263175,0.00314968,-0.00528442,1.23382,0.00492115,0.0195413,622,911,-41.4116,-3.3308
-595,113,-41.4276,2.88885,-0.00378886,0.000994977,0.00245224,0.00202866,-0.00482254,1.17187,0.0040637,0.0262159,629,911,-41.4276,-2.88887
-588,113,-41.3653,2.2948,-0.00320813,0.000215203,0.00221553,0.00130324,-0.00429617,1.1143,0.00338326,0.0333646,636,911,-41.3653,-2.2948
-581,113,-41.3928,1.7265,-0.00281988,-9.32332e-05,0.00184402,0.00083671,-0.00374982,1.10371,0.00282046,0.035114,643,911,-41.3927,-1.72648
-574,113,-41.3763,0.961487,0,0,0,0,0,0,0,-1,650,911,-41.3763,-0.961476
-567,113,-21.8396,0.437378,0,0,0,0,0,0,0,-1,657,911,-21.8396,-0.437351
-560,113,-46.2045,1.0318,0,0,0,0,0,0,0,-1,664,911,-46.2045,-1.03181
-553,113,-46.2036,0.935913,-0.00211509,-0.000733406,0.00135031,9.25229e-05,-0.00294102,1.02185,0.00199224,0.0440075,671,911,-46.2036,-0.935919
-546,113,-46.1588,0.85376,-0.00211874,-0.00066629,0.00114864,-3.35524e-05,-0.00275148,1.0673,0.00182324,0.0351242,678,911,-46.1588,-0.853737
-539,113,-46.1179,0.966675,-0.00194805,-0.000524116,0.00102998,1.60215e-05,-0.00248818,1.08781,0.00166416,0.0368086,685,911,-46.1179,-0.966671
-532,113,-46.027,0.84082,-0.00156779,-0.000592244,0.00106024,8.70475e-05,-0.00224708,1.00099,0.00152789,0.0368504,692,911,-46.027,-0.840818
-525,113,-46.1392,0.755554,-0.00170807,-0.0014456,0.00128108,-0.000289056,-0.00286462,0.83644,0.00182105,0.0366078,699,911,-46.1392,-0.755543
-518,113,-46.3256,0.860168,-0.00227665,-0.00291376,0.00166249,-0.000902472,-0.00428794,0.690739,0.00261033,0.038662,706,911,-46.3256,-0.860159
-511,113,-46.4698,0.93512,-0.00264994,-0.00458209,0.00212048,-0.00128584,-0.0059462,0.57165,0.00361262,0.0403723,713,911,-46.4699,-0.935091
-504,113,0,0,0,0,0,0,0,0,0,-1,720,911,0,0
-497,113,0,0,0,0,0,0,0,0,0,-1,727,911,0,0
-490,113,0,0,0,0,0,0,0,0,0,-1,734,911,0,0
-483,113,0,0,0,0,0,0,0,0,0,-1,741,911,0,0
-476,113,0,0,0,0,0,0,0,0,0,-1,748,911,0,0
-469,113,0,0,0,0,0,0,0,0,0,-1,755,911,0,0
-462,113,0,0,0,0,0,0,0,0,0,-1,762,911,0,0
-455,113,0,0,0,0,0,0,0,0,0,-1,769,911,0,0
-448,113,0,0,0,0,0,0,0,0,0,-1,776,911,0,0
-441,113,0,0,0,0,0,0,0,0,0,-1,783,911,0,0
-434,113,0,0,0,0,0,0,0,0,0,-1,790,911,0,0
-427,113,0,0,0,0,0,0,0,0,0,-1,797,911,0,0
-420,113,0,0,0,0,0,0,0,0,0,-1,804,911,0,0
-413,113,0,0,0,0,0,0,0,0,0,-1,811,911,0,0
-406,113,0,0,0,0,0,0,0,0,0,-1,818,911,0,0
-399,113,0,0,0,0,0,0,0,0,0,-1,825,911,0,0
-392,113,0,0,0,0,0,0,0,0,0,-1,832,911,0,0
-385,113,0,0,0,0,0,0,0,0,0,-1,839,911,0,0
-378,113,0,0,0,0,0,0,0,0,0,-1,846,911,0,0
-371,113,0,0,0,0,0,0,0,0,0,-1,853,911,0,0
-364,113,0,0,0,0,0,0,0,0,0,-1,860,911,0,0
-357,113,0,0,0,0,0,0,0,0,0,-1,867,911,0,0
-350,113,0,0,0,0,0,0,0,0,0,-1,874,911,0,0
-343,113,0,0,0,0,0,0,0,0,0,-1,881,911,0,0
-336,113,0,0,0,0,0,0,0,0,0,-1,888,911,0,0
-329,113,0,0,0,0,0,0,0,0,0,-1,895,911,0,0
-322,113,0,0,0,0,0,0,0,0,0,-1,902,911,0,0
-315,113,0,0,0,0,0,0,0,0,0,-1,909,911,0,0
-308,113,0,0,0,0,0,0,0,0,0,-1,916,911,0,0
-301,113,0,0,0,0,0,0,0,0,0,-1,923,911,0,0
-294,113,0,0,0,0,0,0,0,0,0,-1,930,911,0,0
-287,113,0,0,0,0,0,0,0,0,0,-1,937,911,0,0
-280,113,0,0,0,0,0,0,0,0,0,-1,944,911,0,0
-273,113,0,0,0,0,0,0,0,0,0,-1,951,911,0,0
-266,113,0,0,0,0,0,0,0,0,0,-1,958,911,0,0
-259,113,0,0,0,0,0,0,0,0,0,-1,965,911,0,0
-252,113,0,0,0,0,0,0,0,0,0,-1,972,911,0,0
-245,113,0,0,0,0,0,0,0,0,0,-1,979,911,0,0
-238,113,0,0,0,0,0,0,0,0,0,-1,986,911,0,0
-231,113,0,0,0,0,0,0,0,0,0,-1,993,911,0,0
-224,113,0,0,0,0,0,0,0,0,0,-1,1000,911,0,0
-217,113,0,0,0,0,0,0,0,0,0,-1,1007,911,0,0
-210,113,0,0,0,0,0,0,0,0,0,-1,1014,911,0,0
-203,113,0,0,0,0,0,0,0,0,0,-1,1021,911,0,0
-196,113,0,0,0,0,0,0,0,0,0,-1,1028,911,0,0
-189,113,0,0,0,0,0,0,0,0,0,-1,1035,911,0,0
-182,113,0,0,0,0,0,0,0,0,0,-1,1042,911,0,0
-175,113,0,0,0,0,0,0,0,0,0,-1,1049,911,0,0
-168,113,0,0,0,0,0,0,0,0,0,-1,1056,911,0,0
-161,113,0,0,0,0,0,0,0,0,0,-1,1063,911,0,0
-154,113,0,0,0,0,0,0,0,0,0,-1,1070,911,0,0
-147,113,0,0,0,0,0,0,0,0,0,-1,1077,911,0,0
-140,113,0,0,0,0,0,0,0,0,0,-1,1084,911,0,0
-133,113,0,0,0,0,0,0,0,0,0,-1,1091,911,0,0
-126,113,0,0,0,0,0,0,0,0,0,-1,1098,911,0,0
-119,113,0,0,0,0,0,0,0,0,0,-1,1105,911,0,0
-112,113,0,0,0,0,0,0,0,0,0,-1,1112,911,0,0
-105,113,0,0,0,0,0,0,0,0,0,-1,1119,911,0,0
-98,113,0,0,0,0,0,0,0,0,0,-1,1126,911,0,0
-91,113,0,0,0,0,0,0,0,0,0,-1,1133,911,0,0
-84,113,0,0,0,0,0,0,0,0,0,-1,1140,911,0,0
-77,113,0,0,0,0,0,0,0,0,0,-1,1147,911,0,0
-70,113,0,0,0,0,0,0,0,0,0,-1,1154,911,0,0
-63,113,0,0,0,0,0,0,0,0,0,-1,1161,911,0,0
-56,113,0,0,0,0,0,0,0,0,0,-1,1168,911,0,0
-49,113,0,0,0,0,0,0,0,0,0,-1,1175,911,0,0
-42,113,0,0,0,0,0,0,0,0,0,-1,1182,911,0,0
-35,113,0,0,0,0,0,0,0,0,0,-1,1189,911,0,0
-28,113,0,0,0,0,0,0,0,0,0,-1,1196,911,0,0
-21,113,0,0,0,0,0,0,0,0,0,-1,1203,911,0,0
-14,113,0,0,0,0,0,0,0,0,0,-1,1210,911,0,0
-7,113,0,0,0,0,0,0,0,0,0,-1,1217,911,0,0
0,113,0,0,0,0,0,0,0,0,0,-1,1224,911,0,0
7,113,0,0,0,0,0,0,0,0,0,-1,1231,911,0,0
14,113,0,0,0,0,0,0,0,0,0,-1,1238,911,0,0
21,113,0,0,0,0,0,0,0,0,0,-1,1245,911,0,0
28,113,0,0,0,0,0,0,0,0,0,-1,1252,911,0,0
35,113,0,0,0,0,0,0,0,0,0,-1,1259,911,0,0
42,113,0,0,0,0,0,0,0,0,0,-1,1266,911,0,0
49,113,0,0,0,0,0,0,0,0,0,-1,1273,911,0,0
56,113,0,0,0,0,0,0,0,0,0,-1,1280,911,0,0
63,113,0,0,0,0,0,0,0,0,0,-1,1287,911,0,0
70,113,0,0,0,0,0,0,0,0,0,-1,1294,911,0,0
77,113,0,0,0,0,0,0,0,0,0,-1,1301,911,0,0
84,113,0,0,0,0,0,0,0,0,0,-1,1308,911,0,0
91,113,0,0,0,0,0,0,0,0,0,-1,1315,911,0,0
98,113,0,0,0,0,0,0,0,0,0,-1,1322,911,0,0
105,113,0,0,0,0,0,0,0,0,0,-1,1329,911,0,0
112,113,0,0,0,0,0,0,0,0,0,-1,1336,911,0,0
119,113,0,0,0,0,0,0,0,0,0,-1,1343,911,0,0
126,113,0,0,0,0,0,0,0,0,0,-1,1350,911,0,0
133,113,0,0,0,0,0,0,0,0,0,-1,1357,911,0,0
140,113,0,0,0,0,0,0,0,0,0,-1,1364,911,0,0
147,113,0,0,0,0,0,0,0,0,0,-1,1371,911,0,0
154,113,0,0,0,0,0,0,0,0,0,-1,1378,911,0,0
161,113,0,0,0,0,0,0,0,0,0,-1,1385,911,0,0
168,113,0,0,0,0,0,0,0,0,0,-1,1392,911,0,0
175,113,0,0,0,0,0,0,0,0,0,-1,1399,911,0,0
182,113,0,0,0,0,0,0,0,0,0,-1,1406,911,0,0
189,113,0,0,0,0,0,0,0,0,0,-1,1413,911,0,0
196,113,0,0,0,0,0,0,0,0,0,-1,1420,911,0,0
203,113,0,0,0,0,0,0,0,0,0,-1,1427,911,0,0
210,113,0,0,0,0,0,0,0,0,0,-1,1434,911,0,0
217,113,0,0,0,0,0,0,0,0,0,-1,1441,911,0,0
224,113,0,0,0,0,0,0,0,0,0,-1,1448,911,0,0
231,113,0,0,0,0,0,0,0,0,0,-1,1455,911,0,0
238,113,0,0,0,0,0,0,0,0,0,-1,1462,911,0,0
245,113,0,0,0,0,0,0,0,0,0,-1,1469,911,0,0
252,113,0,0,0,0,0,0,0,0,0,-1,1476,911,0,0
259,113,0,0,0,0,0,0,0,0,0,-1,1483,911,0,0
266,113,0,0,0,0,0,0,0,0,0,-1,1490,911,0,0
273,113,0,0,0,0,0,0,0,0,0,-1,1497,911,0,0
280,113,0,0,0,0,0,0,0,0,0,-1,1504,911,0,0
287,113,0,0,0,0,0,0,0,0,0,-1,1511,911,0,0
294,113,0,0,0,0,0,0,0,0,0,-1,1518,911,0,0
301,113,0,0,0,0,0,0,0,0,0,-1,1525,911,0,0
308,113,0,0,0,0,0,0,0,0,0,-1,1532,911,0,0
315,113,0,0,0,0,0,0,0,0,0,-1,1539,911,0,0
322,113,0,0,0,0,0,0,0,0,0,-1,1546,911,0,0
329,113,0,0,0,0,0,0,0,0,0,-1,1553,911,0,0
336,113,0,0,0,0,0,0,0,0,0,-1,1560,911,0,0
343,113,0,0,0,0,0,0,0,0,0,-1,1567,911,0,0
350,113,0,0,0,0,0,0,0,0,0,-1,1574,911,0,0
357,113,0,0,0,0,0,0,0,0,0,-1,1581,911,0,0
364,113,0,0,0,0,0,0,0,0,0,-1,1588,911,0,0
371,113,0,0,0,0,0,0,0,0,0,-1,1595,911,0,0
378,113,0,0,0,0,0,0,0,0,0,-1,1602,911,0,0
385,113,0,0,0,0,0,0,0,0,0,-1,1609,911,0,0
392,113,0,0,0,0,0,0,0,0,0,-1,1616,911,0,0
399,113,0,0,0,0,0,0,0,0,0,-1,1623,911,0,0
406,113,0,0,0,0,0,0,0,0,0,-1,1630,911,0,0
413,113,0,0,0,0,0,0,0,0,0,-1,1637,911,0,0
420,113,0,0,0,0,0,0,0,0,0,-1,1644,911,0,0
427,113,0,0,0,0,0,0,0,0,0,-1,1651,911,0,0
434,113,0,0,0,0,0,0,0,0,0,-1,1658,911,0,0
441,113,0,0,0,0,0,0,0,0,0,-1,1665,911,0,0
448,113,0,0,0,0,0,0,0,0,0,-1,1672,911,0,0
455,113,0,0,0,0,0,0,0,0,0,-1,1679,911,0,0
462,113,0,0,0,0,0,0,0,0,0,-1,1686,911,0,0
469,113,0,0,0,0,0,0,0,0,0,-1,1693,911,0,0
476,113,0,0,0,0,0,0,0,0,0,-1,1700,911,0,0
483,113,0,0,0,0,0,0,0,0,0,-1,1707,911,0,0
490,113,0,0,0,0,0,0,0,0,0,-1,1714,911,0,0
497,113,0,0,0,0,0,0,0,0,0,-1,1721,911,0,0
504,113,0,0,0,0,0,0,0,0,0,-1,1728,911,0,0
511,113,0,0,0,0,0,0,0,0,0,-1,1735,911,0,0
518,113,0,0,0,0,0,0,0,0,0,-1,1742,911,0,0
525,113,0,0,0,0,0,0,0,0,0,-1,1749,911,0,0
532,113,0,0,0,0,0,0,0,0,0,-1,1756,911,0,0
539,113,0,0,0,0,0,0,0,0,0,-1,1763,911,0,0
546,113,0,0,0,0,0,0,0,0,0,-1,1770,911,0,0
553,113,0,0,0,0,0,0,0,0,0,-1,1777,911,0,0
560,113,0,0,0,0,0,0,0,0,0,-1,1784,911,0,0
567,113,0,0,0,0,0,0,0,0,0,-1,1791,911,0,0
574,113,0,0,0,0,0,0,0,0,0,-1,1798,911,0,0
581,113,0,0,0,0,0,0,0,0,0,-1,1805,911,0,0
588,113,0,0,0,0,0,0,0,0,0,-1,1812,911,0,0
595,113,0,0,0,0,0,0,0,0,0,-1,1819,911,0,0
602,113,0,0,0,0,0,0,0,0,0,-1,1826,911,0,0
609,113,0,0,0,0,0,0,0,0,0,-1,1833,911,0,0
616,113,0,0,0,0,0,0,0,0,0,-1,1840,911,0,0
623,113,0,0,0,0,0,0,0,0,0,-1,1847,911,0,0
630,113,61.161,2.43079,0.00216022,-0.00217175,0.00354401,0.00414773,-0.00415925,0.511103,0.00479604,0.0361467,1854,911,61.161,-2.43079
637,113,61.0829,2.5542,0.00171695,-0.00175815,0.00271296,0.00320108,-0.00324228,0.500577,0.0037201,0.0391169,1861,911,61.0829,-2.55417
644,113,60.8834,2.77051,0.00133076,-0.00128007,0.00189948,0.00233015,-0.00227946,0.48434,0.00266142,0.040161,1868,911,60.8834,-2.77053
651,113,60.8207,2.66504,0.00102047,-0.000929116,0.00115968,0.00156063,-0.00146928,0.435902,0.00174959,0.0429821,1875,911,60.8207,-2.66504
658,113,61.391,2.24292,0,0,0,0,0,0,0,-1,1882,911,61.391,-2.2429
665,113,61.0422,2.55078,0.00101915,-0.000331216,2.59126e-06,0.00101915,-0.000331221,0.00191893,0.000812661,0.0369812,1889,911,61.0423,-2.55078
672,113,60.866,2.65625,0.000963636,-0.000307328,-0.000274453,0.00102037,-0.000364061,-0.203842,0.000828699,0.0362773,1896,911,60.8659,-2.65627
679,113,60.8182,2.66736,0.00101228,-0.000357581,-0.00043747,0.00114007,-0.000485368,-0.284198,0.000963485,0.031819,1903,911,60.8183,-2.66738
686,113,60.8969,2.64081,0.000952608,-0.000424086,-0.000619912,0.0011906,-0.000662083,-0.366568,0.00108406,0.0264892,1910,911,60.8968,-2.64081
693,113,60.9845,2.53198,0,0,0,0,0,0,0,-1,1917,911,60.9845,-2.53199
700,113,43.897,2.79669,0,0,0,0,0,0,0,-1,1924,911,43.897,-2.79671
707,113,54.8575,3.37354,0,0,0,0,0,0,0,-1,1931,911,54.8576,-3.37354
714,113,54.9172,3.9483,-0.00032846,0.000734858,-0.00158647,0.00187638,-0.00146998,-0.947077,0.00193677,0.0271588,1938,911,54.9172,-3.94833
721,113,54.9058,4.52679,-0.000642739,0.00119626,-0.0015785,0.00210354,-0.00155002,-1.04913,0.00211744,0.0245714,1945,911,54.9058,-4.52677
728,113,54.9546,5.16815,-0.00121742,0.00182428,-0.00158921,0.00250311,-0.00189625,-1.16711,0.00254801,0.0253224,1952,911,54.9546,-5.16816
735,113,54.8728,5.76538,-0.00153753,0.0029469,-0.00131123,0.00330215,-0.00189279,-1.30622,0.00303587,0.0216772,1959,911,54.8728,-5.76537
742,113,54.7826,6.31934,-0.00149769,0.00498228,-0.000754392,0.00506895,-0.00158436,-1.45642,0.00401306,0.0133785,1966,911,54.7826,-6.31932
749,113,54.7954,6.91144,-0.000833955,0.00789711,0.000317006,0.0079086,-0.00084545,1.53455,0.00557562,0.0103525,1973,911,54.7954,-6.91142
756,113,54.7257,7.53174,0.000767755,0.0116038,0.00221302,0.0120384,0.000333222,1.37691,0.00791685,0.016095,1980,911,54.7257,-7.53175
763,113,54.569,8.27216,0.00353631,0.0159378,0.00501831,0.017714,0.00176005,1.2306,0.0112686,0.0377164,1987,911,54.569,-8.27216
770,113,54.467,9.00073,0,0,0,0,0,0,0,-1,1994,911,54.467,-9.00071
777,113,57.8459,8.4209,0,0,0,0,0,0,0,-1,2001,911,57.846,-8.42088
784,113,58.3684,8.81262,0,0,0,0,0,0,0,-1,2008,911,58.3684,-8.81265
791,113,59.0164,9.93365,0,0,0,0,0,0,0,-1,2015,911,59.0162,-9.93365
798,113,59.9446,9.07751,0,0,0,0,0,0,0,-1,2022,911,59.9446,-9.07749
805,113,0,0,0,0,0,0,0,0,0,-1,2029,911,0,0
812,113,0,0,0,0,0,0,0,0,0,-1,2036,911,0,0
-700,106,0,0,0,0,0,0,0,0,0,-1,524,918,0,0
-693,106,0,0,0,0,0,0,0,0,0,-1,531,918,0,0
-686,106,0,0,0,0,0,0,0,0,0,-1,538,918,0,0
-679,106,-48.6871,-1.56952,0,0,0,0,0,0,0,-1,545,918,-48.6871,1.56953
-672,106,-48.9176,-1.46484,0,0,0,0,0,0,0,-1,552,918,-48.9176,1.46485
-665,106,-48.6348,-1.3197,0,0,0,0,0,0,0,-1,559,918,-48.6348,1.3197
-658,106,-48.2582,-1.1676,0,0,0,0,0,0,0,-1,566,918,-48.2582,1.16757
-651,106,-47.8139,-0.917908,0,0,0,0,0,0,0,-1,573,918,-47.8139,0.917894
-644,106,-41.4625,6.93481,0,0,0,0,0,0,0,-1,580,918,-41.4625,-6.93484
-637,106,-41.5245,6.2226,0,0,0,0,0,0,0,-1,587,918,-41.5246,-6.22258
-630,106,-41.786,5.56512,-0.0128351,0.0176555,0.004226,0.0182304,-0.01341,1.43559,0.0183381,0.0166911,594,918,-41.786,-5.56514
-623,106,-41.964,4.90405,-0.00960352,0.0128807,0.00388055,0.0135316,-0.0102544,1.40461,0.0137762,0.0166255,601,918,-41.964,-4.90402
-616,106,-42.0056,4.36285,-0.00682033,0.00850864,0.00356205,0.00929594,-0.00760762,1.35327,0.00977549,0.0165601,608,918,-42.0056,-4.36283
-609,106,-41.9725,3.88123,-0.0047788,0.00486569,0.00323439,0.00584993,-0.00576304,1.27539,0.00670482,0.0124502,615,918,-41.9725,-3.88121
-602,106,-42.0115,3.33087,-0.00365191,0.00248014,0.00277542,0.00354974,-0.00472152,1.20295,0.00479136,0.0205656,622,918,-42.0115,-3.33087
-595,106,-42.1575,2.82849,-0.00304129,0.00122739,0.00245019,0.00234249,-0.00415638,1.1437,0.00380053,0.0248546,629,918,-42.1575,-2.82847
-588,106,-42.1428,2.25702,-0.00241246,0.000415794,0.00216443,0.00158711,-0.00358377,1.07476,0.0030587,0.0299554,636,918,-42.1428,-2.25703
-581,106,-41.9424,1.65906,-0.00199917,-4.85309e-06,0.0017277,0.000992801,-0.00299682,1.04713,0.00239832,0.0201007,643,918,-41.9424,-1.65904
-574,106,-42.0008,1.0899,0,0,0,0,0,0,0,-1,650,918,-42.0008,-1.08991
-567,106,-41.3706,0.420776,0,0,0,0,0,0,0,-1,657,918,-41.3706,-0.420794
-560,106,-46.2277,0.884277,0,0,0,0,0,0,0,-1,664,918,-46.2276,-0.884247
-553,106,-46.2728,0.84668,-0.00152537,-0.00063857,0.00100104,1.28723e-05,-0.00217681,0.993882,0.00145552,0.0343476,671,918,-46.2728,-0.846706
-546,106,-46.2925,0.755371,-0.00161695,-0.000488594,0.000802714,-7.16272e-05,-0.00203392,1.09171,0.00133271,0.0368159,678,918,-46.2925,-0.755401
-539,106,-46.1492,0.732544,-0.00158523,-0.000344613,0.000703264,-2.71783e-05,-0.00190267,1.1468,0.00125948,0.0397326,685,918,-46.1492,-0.732568
-532,106,-45.9611,0.694763,-0.00146066,-0.000502911,0.00080625,-4.40427e-05,-0.00191953,1.05338,0.00126526,0.0394118,692,918,-45.9611,-0.694767
-525,106,-46.1553,0.773315,-0.00186679,-0.00129068,0.00119681,-0.00034775,-0.00280971,0.903495,0.00176866,0.0380558,699,918,-46.1554,-0.773292
-518,106,-46.3249,0.81134,-0.00250426,-0.00240531,0.00168075,-0.000773309,-0.00413627,0.800112,0.0025393,0.0394669,706,918,-46.3249,-0.811352
-511,106,0,0,0,0,0,0,0,0,0,-1,713,918,0,0
-504,106,0,0,0,0,0,0,0,0,0,-1,720,918,0,0
-497,106,0,0,0,0,0,0,0,0,0,-1,727,918,0,0
-490,106,0,0,0,0,0,0,0,0,0,-1,734,918,0,0
-483,106,0,0,0,0,0,0,0,0,0,-1,741,918,0,0
-476,106,0,0,0,0,0,0,0,0,0,-1,748,918,0,0
-469,106,0,0,0,0,0,0,0,0,0,-1,755,918,0,0
-462,106,0,0,0,0,0,0,0,0,0,-1,762,918,0,0
-455,106,0,0,0,0,0,0,0,0,0,-1,769,918,0,0
-448,106,0,0,0,0,0,0,0,0,0,-1,776,918,0,0
-441,106,0,0,0,0,0,0,0,0,0,-1,783,918,0,0
-434,106,0,0,0,0,0,0,0,0,0,-1,790,918,0,0
-427,106,0,0,0,0,0,0,0,0,0,-1,797,918,0,0
-420,106,0,0,0,0,0,0,0,0,0,-1,804,918,0,0
-413,106,0,0,0,0,0,0,0,0,0,-1,811,918,0,0
-406,106,0,0,0,0,0,0,0,0,0,-1,818,918,0,0
-399,106,0,0,0,0,0,0,0,0,0,-1,825,918,0,0
-392,106,0,0,0,0,0,0,0,0,0,-1,832,918,0,0
-385,106,0,0,0,0,0,0,0,0,0,-1,839,918,0,0
-378,106,0,0,0,0,0,0,0,0,0,-1,846,918,0,0
-371,106,0,0,0,0,0,0,0,0,0,-1,853,918,0,0
-364,106,0,0,0,0,0,0,0,0,0,-1,860,918,0,0
-357,106,0,0,0,0,0,0,0,0,0,-1,867,918,0,0
-350,106,0,0,0,0,0,0,0,0,0,-1,874,918,0,0
-343,106,0,0,0,0,0,0,0,0,0,-1,881,918,0,0
-336,106,0,0,0,0,0,0,0,0,0,-1,888,918,0,0
-329,106,0,0,0,0,0,0,0,0,0,-1,895,918,0,0
-322,106,0,0,0,0,0,0,0,0,0,-1,902,918,0,0
-315,106,0,0,0,0,0,0,0,0,0,-1,909,918,0,0
-308,106,0,0,0,0,0,0,0,0,0,-1,916,918,0,0
-301,106,0,0,0,0,0,0,0,0,0,-1,923,918,0,0
-294,106,0,0,0,0,0,0,0,0,0,-1,930,918,0,0
-287,106,0,0,0,0,0,0,0,0,0,-1,937,918,0,0
-280,106,0,0,0,0,0,0,0,0,0,-1,944,918,0,0
-273,106,0,0,0,0,0,0,0,0,0,-1,951,918,0,0
-266,106,0,0,0,0,0,0,0,0,0,-1,958,918,0,0
-259,106,0,0,0,0,0,0,0,0,0,-1,965,918,0,0
-252,106,0,0,0,0,0,0,0,0,0,-1,972,918,0,0
-245,106,0,0,0,0,0,0,0,0,0,-1,979,918,0,0
-238,106,0,0,0,0,0,0,0,0,0,-1,986,918,0,0
-231,106,0,0,0,0,0,0,0,0,0,-1,993,918,0,0
-224,106,0,0,0,0,0,0,0,0,0,-1,1000,918,0,0
-217,106,0,0,0,0,0,0,0,0,0,-1,1007,918,0,0
-210,106,0,0,0,0,0,0,0,0,0,-1,1014,918,0,0
-203,106,0,0,0,0,0,0,0,0,0,-1,1021,918,0,0
-196,106,0,0,0,0,0,0,0,0,0,-1,1028,918,0,0
-189,106,0,0,0,0,0,0,0,0,0,-1,1035,918,0,0
-182,106,0,0,0,0,0,0,0,0,0,-1,1042,918,0,0
-175,106,0,0,0,0,0,0,0,0,0,-1,1049,918,0,0
-168,106,0,0,0,0,0,0,0,0,0,-1,1056,918,0,0
-161,106,0,0,0,0,0,0,0,0,0,-1,1063,918,0,0
-154,106,0,0,0,0,0,0,0,0,0,-1,1070,918,0,0
-147,106,0,0,0,0,0,0,0,0,0,-1,1077,918,0,0
-140,106,0,0,0,0,0,0,0,0,0,-1,1084,918,0,0
-133,106,0,0,0,0,0,0,0,0,0,-1,1091,918,0,0
-126,106,0,0,0,0,0,0,0,0,0,-1,1098,918,0,0
-119,106,0,0,0,0,0,0,0,0,0,-1,1105,918,0,0
-112,106,0,0,0,0,0,0,0,0,0,-1,1112,918,0,0
-105,106,0,0,0,0,0,0,0,0,0,-1,1119,918,0,0
-98,106,0,0,0,0,0,0,0,0,0,-1,1126,918,0,0
-91,106,0,0,0,0,0,0,0,0,0,-1,1133,918,0,0
-84,106,0,0,0,0,0,0,0,0,0,-1,1140,918,0,0
-77,106,0,0,0,0,0,0,0,0,0,-1,1147,918,0,0
-70,106,0,0,0,0,0,0,0,0,0,-1,1154,918,0,0
-63,106,0,0,0,0,0,0,0,0,0,-1,1161,918,0,0
-56,106,0,0,0,0,0,0,0,0,0,-1,1168,918,0,0
-49,106,0,0,0,0,0,0,0,0,0,-1,1175,918,0,0
-42,106,0,0,0,0,0,0,0,0,0,-1,1182,918,0,0
-35,106,0,0,0,0,0,0,0,0,0,-1,1189,918,0,0
-28,106,0,0,0,0,0,0,0,0,0,-1,1196,918,0,0
-21,106,0,0,0,0,0,0,0,0,0,-1,1203,918,0,0
-14,106,0,0,0,0,0,0,0,0,0,-1,1210,918,0,0
-7,106,0,0,0,0,0,0,0,0,0,-1,1217,918,0,0
0,106,0,0,0,0,0,0,0,0,0,-1,1224,918,0,0
7,106,0,0,0,0,0,0,0,0,0,-1,1231,918,0,0
14,106,0,0,0,0,0,0,0,0,0,-1,1238,918,0,0
21,106,0,0,0,0,0,0,0,0,0,-1,1245,918,0,0
28,106,0,0,0,0,0,0,0,0,0,-1,1252,918,0,0
35,106,0,0,0,0,0,0,0,0,0,-1,1259,918,0,0
42,106,0,0,0,0,0,0,0,0,0,-1,1266,918,0,0
49,106,0,0,0,0,0,0,0,0,0,-1,1273,918,0,0
56,106,0,0,0,0,0,0,0,0,0,-1,1280,918,0,0
63,106,0,0,0,0,0,0,0,0,0,-1,1287,918,0,0
70,106,0,0,0,0,0,0,0,0,0,-1,1294,918,0,0
77,106,0,0,0,0,0,0,0,0,0,-1,1301,918,0,0
84,106,0,0,0,0,0,0,0,0,0,-1,1308,918,0,0
91,106,0,0,0,0,0,0,0,0,0,-1,1315,918,0,0
98,106,0,0,0,0,0,0,0,0,0,-1,1322,918,0,0
105,106,0,0,0,0,0,0,0,0,0,-1,1329,918,0,0
112,106,0,0,0,0,0,0,0,0,0,-1,1336,918,0,0
119,106,0,0,0,0,0,0,0,0,0,-1,1343,918,0,0
126,106,0,0,0,0,0,0,0,0,0,-1,1350,918,0,0
133,106,0,0,0,0,0,0,0,0,0,-1,1357,918,0,0
140,106,0,0,0,0,0,0,0,0,0,-1,1364,918,0,0
147,106,0,0,0,0,0,0,0,0,0,-1,1371,918,0,0
154,106,0,0,0,0,0,0,0,0,0,-1,1378,918,0,0
161,106,0,0,0,0,0,0,0,0,0,-1,1385,918,0,0
168,106,0,0,0,0,0,0,0,0,0,-1,1392,918,0,0
175,106,0,0,0,0,0,0,0,0,0,-1,1399,918,0,0
182,106,0,0,0,0,0,0,0,0,0,-1,1406,918,0,0
189,106,0,0,0,0,0,0,0,0,0,-1,1413,918,0,0
196,106,0,0,0,0,0,0,0,0,0,-1,1420,918,0,0
203,106,0,0,0,0,0,0,0,0,0,-1,1427,918,0,0
210,106,0,0,0,0,0,0,0,0,0,-1,1434,918,0,0
217,106,0,0,0,0,0,0,0,0,0,-1,1441,918,0,0
224,106,0,0,0,0,0,0,0,0,0,-1,1448,918,0,0
231,106,0,0,0,0,0,0,0,0,0,-1,1455,918,0,0
238,106,0,0,0,0,0,0,0,0,0,-1,1462,918,0,0
245,106,0,0,0,0,0,0,0,0,0,-1,1469,918,0,0
252,106,0,0,0,0,0,0,0,0,0,-1,1476,918,0,0
259,106,0,0,0,0,0,0,0,0,0,-1,1483,918,0,0
266,106,0,0,0,0,0,0,0,0,0,-1,1490,918,0,0
273,106,0,0,0,0,0,0,0,0,0,-1,1497,918,0,0
280,106,0,0,0,0,0,0,0,0,0,-1,1504,918,0,0
287,106,0,0,0,0,0,0,0,0,0,-1,1511,918,0,0
294,106,0,0,0,0,0,0,0,0,0,-1,1518,918,0,0
301,106,0,0,0,0,0,0,0,0,0,-1,1525,918,0,0
308,106,0,0,0,0,0,0,0,0,0,-1,1532,918,0,0
315,106,0,0,0,0,0,0,0,0,0,-1,1539,918,0,0
322,106,0,0,0,0,0,0,0,0,0,-1,1546,918,0,0
329,106,0,0,0,0,0,0,0,0,0,-1,1553,918,0,0
336,106,0,0,0,0,0,0,0,0,0,-1,1560,918,0,0
343,106,0,0,0,0,0,0,0,0,0,-1,1567,918,0,0
350,106,0,0,0,0,0,0,0,0,0,-1,1574,918,0,0
357,106,0,0,0,0,0,0,0,0,0,-1,1581,918,0,0
364,106,0,0,0,0,0,0,0,0,0,-1,1588,918,0,0
371,106,0,0,0,0,0,0,0,0,0,-1,1595,918,0,0
378,106,0,0,0,0,0,0,0,0,0,-1,1602,918,0,0
385,106,0,0,0,0,0,0,0,0,0,-1,1609,918,0,0
392,106,0,0,0,0,0,0,0,0,0,-1,1616,918,0,0
399,106,0,0,0,0,0,0,0,0,0,-1,1623,918,0,0
406,106,0,0,0,0,0,0,0,0,0,-1,1630,918,0,0
413,106,0,0,0,0,0,0,0,0,0,-1,1637,918,0,0
420,106,0,0,0,0,0,0,0,0,0,-1,1644,918,0,0
427,106,0,0,0,0,0,0,0,0,0,-1,1651,918,0,0
434,106,0,0,0,0,0,0,0,0,0,-1,1658,918,0,0
441,106,0,0,0,0,0,0,0,0,0,-1,1665,918,0,0
448,106,0,0,0,0,0,0,0,0,0,-1,1672,918,0,0
455,106,0,0,0,0,0,0,0,0,0,-1,1679,918,0,0
462,106,0,0,0,0,0,0,0,0,0,-1,1686,918,0,0
469,106,0,0,0,0,0,0,0,0,0,-1,1693,918,0,0
476,106,0,0,0,0,0,0,0,0,0,-1,1700,918,0,0
483,106,0,0,0,0,0,0,0,0,0,-1,1707,918,0,0
490,106,0,0,0,0,0,0,0,0,0,-1,1714,918,0,0
497,106,0,0,0,0,0,0,0,0,0,-1,1721,918,0,0
504,106,0,0,0,0,0,0,0,0,0,-1,1728,918,0,0
511,106,0,0,0,0,0,0,0,0,0,-1,1735,918,0,0
518,106,0,0,0,0,0,0,0,0,0,-1,1742,918,0,0
525,106,0,0,0,0,0,0,0,0,0,-1,1749,918,0,0
532,106,0,0,0,0,0,0,0,0,0,-1,1756,918,0,0
539,106,0,0,0,0,0,0,0,0,0,-1,1763,918,0,0
546,106,0,0,0,0,0,0,0,0,0,-1,1770,918,0,0
553,106,0,0,0,0,0,0,0,0,0,-1,1777,918,0,0
560,106,0,0,0,0,0,0,0,0,0,-1,1784,918,0,0
567,106,0,0,0,0,0,0,0,0,0,-1,1791,918,0,0
574,106,0,0,0,0,0,0,0,0,0,-1,1798,918,0,0
581,106,0,0,0,0,0,0,0,0,0,-1,1805,918,0,0
588,106,0,0,0,0,0,0,0,0,0,-1,1812,918,0,0
595,106,0,0,0,0,0,0,0,0,0,-1,1819,918,0,0
602,106,0,0,0,0,0,0,0,0,0,-1,1826,918,0,0
609,106,0,0,0,0,0,0,0,0,0,-1,1833,918,0,0
616,106,0,0,0,0,0,0,0,0,0,-1,1840,918,0,0
623,106,0,0,0,0,0,0,0,0,0,-1,1847,918,0,0
630,106,61.0415,2.43872,0.00203909,-0.0025648,0.00459945,0.00488048,-0.00540619,0.553381,0.0059416,0.0414158,1854,918,61.0415,-2.43875
637,106,61.0114,2.79669,0.00166765,-0.00211792,0.0035128,0.00376515,-0.00421543,0.538286,0.00461003,0.039874,1861,918,61.0113,-2.79672
644,106,61.0063,2.94202,0.00132631,-0.00156227,0.00249796,0.00276746,-0.00300342,0.523285,0.00333275,0.0381473,1868,918,61.0064,-2.94203
651,106,60.9006,2.93799,0.00106317,-0.00116203,0.00161554,0.00191216,-0.00201103,0.483853,0.0022653,0.0413555,1875,918,60.9007,-2.93796
658,106,61.0612,2.59521,0.000907287,-0.000804987,0.000841105,0.00125133,-0.00114903,0.388271,0.00138627,0.0415022,1882,918,61.0611,-2.59519
665,106,61.2532,2.34253,0,0,0,0,0,0,0,-1,1889,918,61.2531,-2.34254
672,106,60.8569,2.68005,0.000987499,-0.000253727,-6.4099e-05,0.000990801,-0.000257029,-0.0514592,0.000760822,0.0386921,1896,918,60.8569,-2.68003
679,106,60.7999,2.74347,0.000981927,-0.000307255,-0.000227004,0.00102073,-0.000346058,-0.169302,0.000820537,0.0338809,1903,918,60.7999,-2.7435
686,106,60.8823,2.62512,0.000922713,-0.000377847,-0.000427308,0.00105054,-0.000505678,-0.29068,0.000916658,0.0298634,1910,918,60.8824,-2.62515
693,106,60.9407,2.50916,0.000562717,-0.000105608,-0.000710384,0.00101361,-0.0005565,-0.565555,0.000919219,0.0364703,1917,918,60.9407,-2.50917
700,106,61.0831,2.36011,0,0,0,0,0,0,0,-1,1924,918,61.0831,-2.36012
707,106,55.4834,3.19299,0,0,0,0,0,0,0,-1,1931,918,55.4834,-3.19297
714,106,55.6417,3.86987,-0.000565096,0.000844335,-0.00152241,0.00181722,-0.00153799,-1.00216,0.00193937,0.047507,1938,918,55.6418,-3.86987
721,106,55.5991,4.59015,-0.000893175,0.00130569,-0.00151718,0.00207991,-0.0016674,-1.09894,0.00216788,0.0311814,1945,918,55.5991,-4.59015
728,106,55.6326,5.23785,-0.0014721,0.00194283,-0.00151271,0.00251653,-0.00204581,-1.2083,0.00263874,0.0303709,1952,918,55.6326,-5.23784
735,106,55.5485,5.79877,-0.00175497,0.00306198,-0.00121668,0.00335185,-0.00204484,-1.33691,0.00314609,0.0269847,1959,918,55.5485,-5.79879
742,106,55.4395,6.32257,-0.00167458,0.00507645,-0.00069527,0.00514731,-0.00174544,-1.46923,0.00413793,0.0138311,1966,918,55.4394,-6.32259
749,106,55.4115,6.89575,-0.000977816,0.00809673,0.000421019,0.00811622,-0.000997308,1.52453,0.00577204,0.0107972,1973,918,55.4115,-6.89575
756,106,55.3523,7.49213,0.000720424,0.0120006,0.00250482,0.0125318,0.000189232,1.36182,0.00829217,0.0144919,1980,918,55.3523,-7.49213
763,106,55.2574,8.23376,0.00350573,0.0165262,0.00553137,0.0185587,0.00147318,1.21865,0.0119118,0.0319361,1987,918,55.2575,-8.23377
770,106,55.2087,8.95898,0,0,0,0,0,0,0,-1,1994,918,55.2089,-8.95899
777,106,56.0295,9.19397,0,0,0,0,0,0,0,-1,2001,918,56.0296,-9.19397
784,106,57.0244,11.062,0,0,0,0,0,0,0,-1,2008,918,57.0245,-11.0619
791,106,57.1736,11.6924,0,0,0,0,0,0,0,-1,2015,918,57.1736,-11.6924
798,106,59.2109,8.62177,0,0,0,0,0,0,0,-1,2022,918,59.2109,-8.62179
805,106,0,0,0,0,0,0,0,0,0,-1,2029,918,0,0
812,106,0,0,0,0,0,0,0,0,0,-1,2036,918,0,0
-700,99,0,0,0,0,0,0,0,0,0,-1,524,925,0,0
-693,99,0,0,0,0,0,0,0,0,0,-1,531,925,0,0
-686,99,0,0,0,0,0,0,0,0,0,-1,538,925,0,0
-679,99,-48.7447,-1.1261,0,0,0,0,0,0,0,-1,545,925,-48.7447,1.12608
-672,99,-48.4662,-0.952026,0,0,0,0,0,0,0,-1,552,925,-48.4662,0.952024
-665,99,-48.1783,-0.772156,0,0,0,0,0,0,0,-1,559,925,-48.1783,0.772174
-658,99,-47.8135,-0.513062,0,0,0,0,0,0,0,-1,566,925,-47.8134,0.513056
-651,99,-42.0496,7.40729,0,0,0,0,0,0,0,-1,573,925,-42.0496,-7.40728
-644,99,-42.1224,6.71356,-0.0137832,0.0397504,0.00546681,0.040303,-0.0143357,1.47006,0.0327116,0.0470448,580,925,-42.1224,-6.71359
-637,99,-42.1934,6.04065,-0.0129036,0.0287828,0.0055141,0.0294999,-0.0136207,1.44148,0.0254521,0.032017,587,925,-42.1934,-6.04062
-630,99,-42.3688,5.51392,-0.0119818,0.0181215,0.00571862,0.0191712,-0.0130316,1.38925,0.0187046,0.0172567,594,925,-42.3688,-5.51393
-623,99,-42.5826,4.92065,-0.00892064,0.013164,0.00485322,0.0141834,-0.0099401,1.36375,0.0139994,0.0119985,601,925,-42.5826,-4.92068
-616,99,-42.5934,4.36755,-0.00616125,0.00870736,0.00409267,0.00975944,-0.00721333,1.31918,0.00983592,0.0139282,608,925,-42.5934,-4.36756
-609,99,-42.5699,3.89081,-0.00420258,0.00510645,0.00337873,0.00620348,-0.00529961,1.25685,0.00664815,0.0122695,615,925,-42.57,-3.89082
-602,99,-42.5739,3.41718,-0.00313979,0.00281621,0.00266229,0.00383274,-0.00415632,1.20606,0.00461375,0.0168223,622,925,-42.5738,-3.41718
-595,99,-42.6873,2.92145,-0.00250885,0.00154404,0.00222973,0.00253059,-0.00349541,1.15423,0.00349395,0.023287,629,925,-42.6873,-2.92144
-588,99,-42.6826,2.35681,-0.00186807,0.000657307,0.00192544,0.00169716,-0.00290792,1.07562,0.0026892,0.0256787,636,925,-42.6826,-2.35684
-581,99,-42.681,1.69196,-0.00145466,0.000120451,0.00144776,0.000980999,-0.00231521,1.0345,0.00195434,0.0239567,643,925,-42.6811,-1.69197
-574,99,-42.8761,1.05511,0,0,0,0,0,0,0,-1,650,925,-42.8761,-1.0551
-567,99,-44.9067,0.938049,0,0,0,0,0,0,0,-1,657,925,-44.9067,-0.938032
-560,99,-46.1816,0.854797,0,0,0,0,0,0,0,-1,664,925,-46.1816,-0.85477
-553,99,-46.2137,0.837646,-0.00117364,-0.00061674,0.000521649,-0.000303877,-0.00148651,1.03055,0.000906845,0.0365955,671,925,-46.2137,-0.837633
-546,99,-46.2623,0.837952,-0.00129281,-0.000498716,0.000335705,-0.000375817,-0.00141571,1.21986,0.000846806,0.040272,678,925,-46.2623,-0.837972
-539,99,-46.2099,0.887146,-0.00131243,-0.000447772,0.000266843,-0.000372052,-0.00138815,1.2943,0.000829705,0.0392929,685,925,-46.2099,-0.887168
-532,99,-46.0984,0.678223,-0.00127983,-0.000822713,0.000410478,-0.00058145,-0.00152109,1.03943,0.00088628,0.0418583,692,925,-46.0984,-0.678244
-525,99,-46.272,0.682312,-0.00177094,-0.00163394,0.00077182,-0.000927582,-0.00247729,0.829658,0.00144522,0.0422264,699,925,-46.272,-0.682297
-518,99,-46.3728,0.629272,-0.00244276,-0.00250728,0.00119121,-0.00128337,-0.00366666,0.77186,0.00214846,0.0412386,706,925,-46.3728,-0.629253
-511,99,0,0,0,0,0,0,0,0,0,-1,713,925,0,0
-504,99,0,0,0,0,0,0,0,0,0,-1,720,925,0,0
-497,99,0,0,0,0,0,0,0,0,0,-1,727,925,0,0
-490,99,0,0,0,0,0,0,0,0,0,-1,734,925,0,0
-483,99,0,0,0,0,0,0,0,0,0,-1,741,925,0,0
-476,99,0,0,0,0,0,0,0,0,0,-1,748,925,0,0
-469,99,0,0,0,0,0,0,0,0,0,-1,755,925,0,0
-462,99,0,0,0,0,0,0,0,0,0,-1,762,925,0,0
-455,99,0,0,0,0,0,0,0,0,0,-1,769,925,0,0
-448,99,0,0,0,0,0,0,0,0,0,-1,776,925,0,0
-441,99,0,0,0,0,0,0,0,0,0,-1,783,925,0,0
-434,99,0,0,0,0,0,0,0,0,0,-1,790,925,0,0
-427,99,0,0,0,0,0,0,0,0,0,-1,797,925,0,0
-420,99,0,0,0,0,0,0,0,0,0,-1,804,925,0,0
-413,99,0,0,0,0,0,0,0,0,0,-1,811,925,0,0
-406,99,0,0,0,0,0,0,0,0,0,-1,818,925,0,0
-399,99,0,0,0,0,0,0,0,0,0,-1,825,925,0,0
-392,99,0,0,0,0,0,0,0,0,0,-1,832,925,0,0
-385,99,0,0,0,0,0,0,0,0,0,-1,839,925,0,0
-378,99,0,0,0,0,0,0,0,0,0,-1,846,925,0,0
-371,99,0,0,0,0,0,0,0,0,0,-1,853,925,0,0
-364,99,0,0,0,0,0,0,0,0,0,-1,860,925,0,0
-357,99,0,0,0,0,0,0,0,0,0,-1,867,925,0,0
-350,99,0,0,0,0,0,0,0,0,0,-1,874,925,0,0
-343,99,0,0,0,0,0,0,0,0,0,-1,881,925,0,0
-336,99,0,0,0,0,0,0,0,0,0,-1,888,925,0,0
-329,99,0,0,0,0,0,0,0,0,0,-1,895,925,0,0
-322,99,0,0,0,0,0,0,0,0,0,-1,902,925,0,0
-315,99,0,0,0,0,0,0,0,0,0,-1,909,925,0,0
-308,99,0,0,0,0,0,0,0,0,0,-1,916,925,0,0
-301,99,0,0,0,0,0,0,0,0,0,-1,923,925,0,0
-294,99,0,0,0,0,0,0,0,0,0,-1,930,925,0,0
-287,99,0,0,0,0,0,0,0,0,0,-1,937,925,0,0
-280,99,0,0,0,0,0,0,0,0,0,-1,944,925,0,0
-273,99,0,0,0,0,0,0,0,0,0,-1,951,925,0,0
-266,99,0,0,0,0,0,0,0,0,0,-1,958,925,0,0
-259,99,0,0,0,0,0,0,0,0,0,-1,965,925,0,0
-252,99,0,0,0,0,0,0,0,0,0,-1,972,925,0,0
-245,99,0,0,0,0,0,0,0,0,0,-1,979,925,0,0
-238,99,0,0,0,0,0,0,0,0,0,-1,986,925,0,0
-231,99,0,0,0,0,0,0,0,0,0,-1,993,925,0,0
-224,99,0,0,0,0,0,0,0,0,0,-1,1000,925,0,0
-217,99,0,0,0,0,0,0,0,0,0,-1,1007,925,0,0
-210,99,0,0,0,0,0,0,0,0,0,-1,1014,925,0,0
-203,99,0,0,0,0,0,0,0,0,0,-1,1021,925,0,0
-196,99,0,0,0,0,0,0,0,0,0,-1,1028,925,0,0
-189,99,0,0,0,0,0,0,0,0,0,-1,1035,925,0,0
-182,99,0,0,0,0,0,0,0,0,0,-1,1042,925,0,0
-175,99,0,0,0,0,0,0,0,0,0,-1,1049,925,0,0
-168,99,0,0,0,0,0,0,0,0,0,-1,1056,925,0,0
-161,99,0,0,0,0,0,0,0,0,0,-1,1063,925,0,0
-154,99,0,0,0,0,0,0,0,0,0,-1,1070,925,0,0
-147,99,0,0,0,0,0,0,0,0,0,-1,1077,925,0,0
-140,99,0,0,0,0,0,0,0,0,0,-1,1084,925,0,0
-133,99,0,0,0,0,0,0,0,0,0,-1,1091,925,0,0
-126,99,0,0,0,0,0,0,0,0,0,-1,1098,925,0,0
-119,99,0,0,0,0,0,0,0,0,0,-1,1105,925,0,0
-112,99,0,0,0,0,0,0,0,0,0,-1,1112,925,0,0
-105,99,0,0,0,0,0,0,0,0,0,-1,1119,925,0,0
-98,99,0,0,0,0,0,0,0,0,0,-1,1126,925,0,0
-91,99,0,0,0,0,0,0,0,0,0,-1,1133,925,0,0
-84,99,0,0,0,0,0,0,0,0,0,-1,1140,925,0,0
-77,99,0,0,0,0,0,0,0,0,0,-1,1147,925,0,0
-70,99,0,0,0,0,0,0,0,0,0,-1,1154,925,0,0
-63,99,0,0,0,0,0,0,0,0,0,-1,1161,925,0,0
-56,99,0,0,0,0,0,0,0,0,0,-1,1168,925,0,0
-49,99,0,0,0,0,0,0,0,0,0,-1,1175,925,0,0
-42,99,0,0,0,0,0,0,0,0,0,-1,1182,925,0,0
-35,99,0,0,0,0,0,0,0,0,0,-1,1189,925,0,0
-28,99,0,0,0,0,0,0,0,0,0,-1,1196,925,0,0
-21,99,0,0,0,0,0,0,0,0,0,-1,1203,925,0,0
-14,99,0,0,0,0,0,0,0,0,0,-1,1210,925,0,0
-7,99,0,0,0,0,0,0,0,0,0,-1,1217,925,0,0
0,99,0,0,0,0,0,0,0,0,0,-1,1224,925,0,0
7,99,0,0,0,0,0,0,0,0,0,-1,1231,925,0,0
14,99,0,0,0,0,0,0,0,0,0,-1,1238,925,0,0
21,99,0,0,0,0,0,0,0,0,0,-1,1245,925,0,0
28,99,0,0,0,0,0,0,0,0,0,-1,1252,925,0,0
35,99,0,0,0,0,0,0,0,0,0,-1,1259,925,0,0
42,99,0,0,0,0,0,0,0,0,0,-1,1266,925,0,0
49,99,0,0,0,0,0,0,0,0,0,-1,1273,925,0,0
56,99,0,0,0,0,0,0,0,0,0,-1,1280,925,0,0
63,99,0,0,0,0,0,0,0,0,0,-1,1287,925,0,0
70,99,0,0,0,0,0,0,0,0,0,-1,1294,925,0,0
77,99,0,0,0,0,0,0,0,0,0,-1,1301,925,0,0
84,99,0,0,0,0,0,0,0,0,0,-1,1308,925,0,0
91,99,0,0,0,0,0,0,0,0,0,-1,1315,925,0,0
98,99,0,0,0,0,0,0,0,0,0,-1,1322,925,0,0
105,99,0,0,0,0,0,0,0,0,0,-1,1329,925,0,0
112,99,0,0,0,0,0,0,0,0,0,-1,1336,925,0,0
119,99,0,0,0,0,0,0,0,0,0,-1,1343,925,0,0
126,99,0,0,0,0,0,0,0,0,0,-1,1350,925,0,0
133,99,0,0,0,0,0,0,0,0,0,-1,1357,925,0,0
140,99,0,0,0,0,0,0,0,0,0,-1,1364,925,0,0
147,99,0,0,0,0,0,0,0,0,0,-1,1371,925,0,0
154,99,0,0,0,0,0,0,0,0,0,-1,1378,925,0,0
161,99,0,0,0,0,0,0,0,0,0,-1,1385,925,0,0
168,99,0,0,0,0,0,0,0,0,0,-1,1392,925,0,0
175,99,0,0,0,0,0,0,0,0,0,-1,1399,925,0,0
182,99,0,0,0,0,0,0,0,0,0,-1,1406,925,0,0
189,99,0,0,0,0,0,0,0,0,0,-1,1413,925,0,0
196,99,0,0,0,0,0,0,0,0,0,-1,1420,925,0,0
203,99,0,0,0,0,0,0,0,0,0,-1,1427,925,0,0
210,99,0,0,0,0,0,0,0,0,0,-1,1434,925,0,0
217,99,0,0,0,0,0,0,0,0,0,-1,1441,925,0,0
224,99,0,0,0,0,0,0,0,0,0,-1,1448,925,0,0
231,99,0,0,0,0,0,0,0,0,0,-1,1455,925,0,0
238,99,0,0,0,0,0,0,0,0,0,-1,1462,925,0,0
245,99,0,0,0,0,0,0,0,0,0,-1,1469,925,0,0
252,99,0,0,0,0,0,0,0,0,0,-1,1476,925,0,0
259,99,0,0,0,0,0,0,0,0,0,-1,1483,925,0,0
266,99,0,0,0,0,0,0,0,0,0,-1,1490,925,0,0
273,99,0,0,0,0,0,0,0,0,0,-1,1497,925,0,0
280,99,0,0,0,0,0,0,0,0,0,-1,1504,925,0,0
287,99,0,0,0,0,0,0,0,0,0,-1,1511,925,0,0
294,99,0,0,0,0,0,0,0,0,0,-1,1518,925,0,0
301,99,0,0,0,0,0,0,0,0,0,-1,1525,925,0,0
308,99,0,0,0,0,0,0,0,0,0,-1,1532,925,0,0
315,99,0,0,0,0,0,0,0,0,0,-1,1539,925,0,0
322,99,0,0,0,0,0,0,0,0,0,-1,1546,925,0,0
329,99,0,0,0,0,0,0,0,0,0,-1,1553,925,0,0
336,99,0,0,0,0,0,0,0,0,0,-1,1560,925,0,0
343,99,0,0,0,0,0,0,0,0,0,-1,1567,925,0,0
350,99,0,0,0,0,0,0,0,0,0,-1,1574,925,0,0
357,99,0,0,0,0,0,0,0,0,0,-1,1581,925,0,0
364,99,0,0,0,0,0,0,0,0,0,-1,1588,925,0,0
371,99,0,0,0,0,0,0,0,0,0,-1,1595,925,0,0
378,99,0,0,0,0,0,0,0,0,0,-1,1602,925,0,0
385,99,0,0,0,0,0,0,0,0,0,-1,1609,925,0,0
392,99,0,0,0,0,0,0,0,0,0,-1,1616,925,0,0
399,99,0,0,0,0,0,0,0,0,0,-1,1623,925,0,0
406,99,0,0,0,0,0,0,0,0,0,-1,1630,925,0,0
413,99,0,0,0,0,0,0,0,0,0,-1,1637,925,0,0
420,99,0,0,0,0,0,0,0,0,0,-1,1644,925,0,0
427,99,0,0,0,0,0,0,0,0,0,-1,1651,925,0,0
434,99,0,0,0,0,0,0,0,0,0,-1,1658,925,0,0
441,99,0,0,0,0,0,0,0,0,0,-1,1665,925,0,0
448,99,0,0,0,0,0,0,0,0,0,-1,1672,925,0,0
455,99,0,0,0,0,0,0,0,0,0,-1,1679,925,0,0
462,99,0,0,0,0,0,0,0,0,0,-1,1686,925,0,0
469,99,0,0,0,0,0,0,0,0,0,-1,1693,925,0,0
476,99,0,0,0,0,0,0,0,0,0,-1,1700,925,0,0
483,99,0,0,0,0,0,0,0,0,0,-1,1707,925,0,0
490,99,0,0,0,0,0,0,0,0,0,-1,1714,925,0,0
497,99,0,0,0,0,0,0,0,0,0,-1,1721,925,0,0
504,99,0,0,0,0,0,0,0,0,0,-1,1728,925,0,0
511,99,0,0,0,0,0,0,0,0,0,-1,1735,925,0,0
518,99,0,0,0,0,0,0,0,0,0,-1,1742,925,0,0
525,99,0,0,0,0,0,0,0,0,0,-1,1749,925,0,0
532,99,0,0,0,0,0,0,0,0,0,-1,1756,925,0,0
539,99,0,0,0,0,0,0,0,0,0,-1,1763,925,0,0
546,99,0,0,0,0,0,0,0,0,0,-1,1770,925,0,0
553,99,0,0,0,0,0,0,0,0,0,-1,1777,925,0,0
560,99,0,0,0,0,0,0,0,0,0,-1,1784,925,0,0
567,99,0,0,0,0,0,0,0,0,0,-1,1791,925,0,0
574,99,0,0,0,0,0,0,0,0,0,-1,1798,925,0,0
581,99,0,0,0,0,0,0,0,0,0,-1,1805,925,0,0
588,99,0,0,0,0,0,0,0,0,0,-1,1812,925,0,0
595,99,0,0,0,0,0,0,0,0,0,-1,1819,925,0,0
602,99,0,0,0,0,0,0,0,0,0,-1,1826,925,0,0
609,99,0,0,0,0,0,0,0,0,0,-1,1833,925,0,0
616,99,0,0,0,0,0,0,0,0,0,-1,1840,925,0,0
623,99,0,0,0,0,0,0,0,0,0,-1,1847,925,0,0
630,99,0,0,0,0,0,0,0,0,0,-1,1854,925,0,0
637,99,60.8262,2.96783,0.0014904,-0.00220048,0.0041801,0.0042143,-0.00492438,0.577524,0.00528153,0.0431983,1861,925,60.8262,-2.9678
644,99,60.9469,3.07538,0.00117631,-0.0014712,0.00294815,0.00308426,-0.00337914,0.574382,0.00373294,0.0381454,1868,925,60.9469,-3.0754
651,99,60.9015,2.92072,0.000964594,-0.000995391,0.00194935,0.00216642,-0.00219722,0.552484,0.00251937,0.0383986,1875,925,60.9014,-2.92072
658,99,60.8677,2.86005,0.000824064,-0.000526879,0.00109465,0.00143487,-0.00113769,0.508961,0.00148857,0.040395,1882,925,60.8677,-2.86007
665,99,60.9557,2.59076,0.00096824,-1.86509e-05,0.000438624,0.00113501,-0.000185417,0.363325,0.000825448,0.0403854,1889,925,60.9556,-2.59075
672,99,60.9053,2.76178,0.000848479,0.000160362,0.000106025,0.000864444,0.000144396,0.149463,0.000534703,0.0417694,1896,925,60.9053,-2.76175
679,99,60.8354,2.80225,0.000779598,9.78534e-05,-5.55611e-05,0.000784097,9.33549e-05,-0.0807879,0.000494559,0.0379121,1903,925,60.8355,-2.80222
686,99,60.8264,2.63538,0.000711668,-9.86718e-06,-0.000261289,0.00079635,-9.45489e-05,-0.313411,0.000565059,0.0296612,1910,925,60.8265,-2.63539
693,99,60.892,2.60675,0.000351924,0.000208661,-0.000533738,0.000818816,-0.000258231,-0.718693,0.000649303,0.0326726,1917,925,60.8919,-2.60673
700,99,60.9275,2.59375,0,0,0,0,0,0,0,-1,1924,925,60.9276,-2.59377
707,99,47.9915,3.27429,0,0,0,0,0,0,0,-1,1931,925,47.9914,-3.27427
714,99,55.9612,3.8056,0,0,0,0,0,0,0,-1,1938,925,55.9612,-3.80562
721,99,56.1797,4.57172,-0.00127577,0.0015089,-0.0014324,0.00211415,-0.00188103,-1.17101,0.00230793,0.0357441,1945,925,56.1797,-4.57169
728,99,56.1892,5.18713,-0.00182206,0.00214538,-0.00140169,0.00259062,-0.00226731,-1.26323,0.0028068,0.0282122,1952,925,56.1892,-5.18711
735,99,56.1387,5.78479,-0.00202778,0.00326398,-0.00108124,0.00347638,-0.00224018,-1.37682,0.00332608,0.0231681,1959,925,56.1387,-5.78482
742,99,56.0562,6.34741,-0.0018926,0.00522105,-0.000622331,0.00527509,-0.00194664,-1.48419,0.00431455,0.0149112,1966,925,56.0561,-6.3474
749,99,55.9985,6.87549,-0.00116697,0.00834128,0.000343856,0.0083537,-0.00117939,1.5347,0.00600102,0.0131219,1973,925,55.9985,-6.87548
756,99,55.9552,7.40033,0.0006059,0.0124481,0.00216989,0.0128332,0.000220826,1.39516,0.00848282,0.0135062,1980,925,55.9552,-7.40035
763,99,55.9768,7.96051,0.00341717,0.0172934,0.0049107,0.0188554,0.00185515,1.26283,0.0119998,0.0178266,1987,925,55.9768,-7.96051
770,99,56.1965,8.44073,0.00745065,0.0229124,0.00845147,0.0266355,0.00372755,1.15585,0.0166541,0.032804,1994,925,56.1965,-8.44073
777,99,56.3926,8.69312,0,0,0,0,0,0,0,-1,2001,925,56.3927,-8.69313
784,99,57.2358,10.7028,0.0209234,0.0368216,0.0197989,0.0502075,0.00753743,0.976294,0.0312636,0.047222,2008,925,57.2357,-10.7027
791,99,57.4504,11.2115,0.0325632,0.0453718,0.0268664,0.0665866,0.0113484,0.902403,0.0411335,0.0496917,2015,925,57.4505,-11.2115
798,99,57.5659,11.6882,0,0,0,0,0,0,0,-1,2022,925,57.566,-11.6883
805,99,0,0,0,0,0,0,0,0,0,-1,2029,925,0,0
812,99,0,0,0,0,0,0,0,0,0,-1,2036,925,0,0
-700,92,0,0,0,0,0,0,0,0,0,-1,524,932,0,0
-693,92,0,0,0,0,0,0,0,0,0,-1,531,932,0,0
-686,92,-48.1857,-0.879883,0,0,0,0,0,0,0,-1,538,932,-48.1857,0.879868
-679,92,-47.9721,-0.680298,0,0,0,0,0,0,0,-1,545,932,-47.9721,0.680328
-672,92,-47.7079,-0.545288,0,0,0,0,0,0,0,-1,552,932,-47.7078,0.5453
-665,92,-47.7245,-0.270813,0,0,0,0,0,0,0,-1,559,932,-47.7244,0.27082
-658,92,-42.4628,7.70685,0,0,0,0,0,0,0,-1,566,932,-42.4628,-7.70687
-651,92,-42.6888,7.14001,0,0,0,0,0,0,0,-1,573,932,-42.6888,-7.14004
-644,92,-42.8512,6.54218,-0.00521264,0.0453294,0.00771577,0.046481,-0.00636429,1.42263,0.0333121,0.0434111,580,932,-42.8512,-6.54215
-637,92,-42.9838,5.85168,-0.0096675,0.032188,0.00870595,0.0339266,-0.0114061,1.37368,0.0272281,0.0266199,587,932,-42.9838,-5.85166
-630,92,-42.9902,5.38196,-0.010651,0.0184734,0.00810972,0.0205793,-0.0127569,1.31673,0.0194225,0.0141397,594,932,-42.9902,-5.38195
-623,92,-43.1056,4.91022,-0.00806759,0.013369,0.00591039,0.0148906,-0.00958917,1.31883,0.0142435,0.0103381,601,932,-43.1056,-4.91021
-616,92,-43.1157,4.40002,-0.00545831,0.00882811,0.00444159,0.0100964,-0.00672659,1.29265,0.00977749,0.00973075,608,932,-43.1157,-4.40002
-609,92,-43.1439,3.91321,-0.00357123,0.00532109,0.00323226,0.00637182,-0.00462196,1.25649,0.00637401,0.00937285,615,932,-43.1439,-3.91321
-602,92,-43.1326,3.39954,-0.00257246,0.00310234,0.00219079,0.00384969,-0.00331981,1.24204,0.00414307,0.0113437,622,932,-43.1326,-3.39951
-595,92,-43.0297,2.82617,-0.00192971,0.00173967,0.00161367,0.00234834,-0.00253838,1.2101,0.00282206,0.0243779,629,932,-43.0297,-2.82617
-588,92,-43.0441,2.3844,-0.00127883,0.000760601,0.00125897,0.00136102,-0.00187925,1.12579,0.00187873,0.0311177,636,932,-43.0441,-2.3844
-581,92,-43.6146,1.82037,-0.000866581,0.00010744,0.000734227,0.00050149,-0.00126063,1.07823,0.00104836,0.0397354,643,932,-43.6145,-1.82039
-574,92,-44.226,1.14203,0,0,0,0,0,0,0,-1,650,932,-44.226,-1.142
-567,92,-46.1534,0.921997,0,0,0,0,0,0,0,-1,657,932,-46.1534,-0.922007
-560,92,-46.0946,0.871033,-0.000660297,-0.00076292,-0.000126686,-0.000574926,-0.000848291,-0.592982,0.00049997,0.0407796,664,932,-46.0946,-0.871008
-553,92,-46.2159,0.866943,-0.000739666,-0.000757736,-0.000368194,-0.000380396,-0.00111701,-0.773131,0.000655744,0.0389965,671,932,-46.2159,-0.866959
-546,92,-46.2618,0.959961,-0.00085134,-0.00067016,-0.000520092,-0.000232827,-0.00128867,-0.871624,0.000792982,0.0397224,678,932,-46.2618,-0.959984
-539,92,-46.2115,0.883789,-0.000851863,-0.000700555,-0.000539935,-0.000231,-0.00132142,-0.855003,0.000814933,0.0390059,685,932,-46.2116,-0.883806
-532,92,-46.206,0.645935,-0.000786342,-0.00123083,-0.000394043,-0.00055619,-0.00146098,-0.528631,0.000851465,0.0430369,692,932,-46.206,-0.645906
-525,92,-46.2737,0.726135,-0.0012132,-0.00195592,-0.00034344,-0.00107873,-0.00209039,-0.373177,0.00120709,0.0402607,699,932,-46.2737,-0.726133
-518,92,-46.1599,0.985229,-0.00184941,-0.00275342,-0.000236988,-0.00179105,-0.00281178,-0.241449,0.00164357,0.0396066,706,932,-46.1599,-0.985233
-511,92,0,0,0,0,0,0,0,0,0,-1,713,932,0,0
-504,92,0,0,0,0,0,0,0,0,0,-1,720,932,0,0
-497,92,0,0,0,0,0,0,0,0,0,-1,727,932,0,0
-490,92,0,0,0,0,0,0,0,0,0,-1,734,932,0,0
-483,92,0,0,0,0,0,0,0,0,0,-1,741,932,0,0
-476,92,0,0,0,0,0,0,0,0,0,-1,748,932,0,0
-469,92,0,0,0,0,0,0,0,0,0,-1,755,932,0,0
-462,92,0,0,0,0,0,0,0,0,0,-1,762,932,0,0
-455,92,0,0,0,0,0,0,0,0,0,-1,769,932,0,0
-448,92,0,0,0,0,0,0,0,0,0,-1,776,932,0,0
-441,92,0,0,0,0,0,0,0,0,0,-1,783,932,0,0
-434,92,0,0,0,0,0,0,0,0,0,-1,790,932,0,0
-427,92,0,0,0,0,0,0,0,0,0,-1,797,932,0,0
-420,92,0,0,0,0,0,0,0,0,0,-1,804,932,0,0
-413,92,0,0,0,0,0,0,0,0,0,-1,811,932,0,0
-406,92,0,0,0,0,0,0,0,0,0,-1,818,932,0,0
-399,92,0,0,0,0,0,0,0,0,0,-1,825,932,0,0
-392,92,0,0,0,0,0,0,0,0,0,-1,832,932,0,0
-385,92,0,0,0,0,0,0,0,0,0,-1,839,932,0,0
-378,92,0,0,0,0,0,0,0,0,0,-1,846,932,0,0
-371,92,0,0,0,0,0,0,0,0,0,-1,853,932,0,0
-364,92,0,0,0,0,0,0,0,0,0,-1,860,932,0,0
-357,92,0,0,0,0,0,0,0,0,0,-1,867,932,0,0
-350,92,0,0,0,0,0,0,0,0,0,-1,874,932,0,0
-343,92,0,0,0,0,0,0,0,0,0,-1,881,932,0,0
-336,92,0,0,0,0,0,0,0,0,0,-1,888,932,0,0
-329,92,0,0,0,0,0,0,0,0,0,-1,895,932,0,0
-322,92,0,0,0,0,0,0,0,0,0,-1,902,932,0,0
-315,92,0,0,0,0,0,0,0,0,0,-1,909,932,0,0
-308,92,0,0,0,0,0,0,0,0,0,-1,916,932,0,0
-301,92,0,0,0,0,0,0,0,0,0,-1,923,932,0,0
-294,92,0,0,0,0,0,0,0,0,0,-1,930,932,0,0
-287,92,0,0,0,0,0,0,0,0,0,-1,937,932,0,0
-280,92,0,0,0,0,0,0,0,0,0,-1,944,932,0,0
-273,92,0,0,0,0,0,0,0,0,0,-1,951,932,0,0
-266,92,0,0,0,0,0,0,0,0,0,-1,958,932,0,0
-259,92,0,0,0,0,0,0,0,0,0,-1,965,932,0,0
-252,92,0,0,0,0,0,0,0,0,0,-1,972,932,0,0
-245,92,0,0,0,0,0,0,0,0,0,-1,979,932,0,0
-238,92,0,0,0,0,0,0,0,0,0,-1,986,932,0,0
-231,92,0,0,0,0,0,0,0,0,0,-1,993,932,0,0
-224,92,0,0,0,0,0,0,0,0,0,-1,1000,932,0,0
-217,92,0,0,0,0,0,0,0,0,0,-1,1007,932,0,0
-210,92,0,0,0,0,0,0,0,0,0,-1,1014,932,0,0
-203,92,0,0,0,0,0,0,0,0,0,-1,1021,932,0,0
-196,92,0,0,0,0,0,0,0,0,0,-1,1028,932,0,0
-189,92,0,0,0,0,0,0,0,0,0,-1,1035,932,0,0
-182,92,0,0,0,0,0,0,0,0,0,-1,1042,932,0,0
-175,92,0,0,0,0,0,0,0,0,0,-1,1049,932,0,0
-168,92,0,0,0,0,0,0,0,0,0,-1,1056,932,0,0
-161,92,0,0,0,0,0,0,0,0,0,-1,1063,932,0,0
-154,92,0,0,0,0,0,0,0,0,0,-1,1070,932,0,0
-147,92,0,0,0,0,0,0,0,0,0,-1,1077,932,0,0
-140,92,0,0,0,0,0,0,0,0,0,-1,1084,932,0,0
-133,92,0,0,0,0,0,0,0,0,0,-1,1091,932,0,0
-126,92,0,0,0,0,0,0,0,0,0,-1,1098,932,0,0
-119,92,0,0,0,0,0,0,0,0,0,-1,1105,932,0,0
-112,92,0,0,0,0,0,0,0,0,0,-1,1112,932,0,0
-105,92,0,0,0,0,0,0,0,0,0,-1,1119,932,0,0
-98,92,0,0,0,0,0,0,0,0,0,-1,1126,932,0,0
-91,92,0,0,0,0,0,0,0,0,0,-1,1133,932,0,0
-84,92,0,0,0,0,0,0,0,0,0,-1,1140,932,0,0
-77,92,0,0,0,0,0,0,0,0,0,-1,1147,932,0,0
-70,92,0,0,0,0,0,0,0,0,0,-1,1154,932,0,0
-63,92,0,0,0,0,0,0,0,0,0,-1,1161,932,0,0
-56,92,0,0,0,0,0,0,0,0,0,-1,1168,932,0,0
-49,92,0,0,0,0,0,0,0,0,0,-1,1175,932,0,0
-42,92,0,0,0,0,0,0,0,0,0,-1,1182,932,0,0
-35,92,0,0,0,0,0,0,0,0,0,-1,1189,932,0,0
-28,92,0,0,0,0,0,0,0,0,0,-1,1196,932,0,0
-21,92,0,0,0,0,0,0,0,0,0,-1,1203,932,0,0
-14,92,0,0,0,0,0,0,0,0,0,-1,1210,932,0,0
-7,92,0,0,0,0,0,0,0,0,0,-1,1217,932,0,0
0,92,0,0,0,0,0,0,0,0,0,-1,1224,932,0,0
7,92,0,0,0,0,0,0,0,0,0,-1,1231,932,0,0
14,92,0,0,0,0,0,0,0,0,0,-1,1238,932,0,0
21,92,0,0,0,0,0,0,0,0,0,-1,1245,932,0,0
28,92,0,0,0,0,0,0,0,0,0,-1,1252,932,0,0
35,92,0,0,0,0,0,0,0,0,0,-1,1259,932,0,0
42,92,0,0,0,0,0,0,0,0,0,-1,1266,932,0,0
49,92,0,0,0,0,0,0,0,0,0,-1,1273,932,0,0
56,92,0,0,0,0,0,0,0,0,0,-1,1280,932,0,0
63,92,0,0,0,0,0,0,0,0,0,-1,1287,932,0,0
70,92,0,0,0,0,0,0,0,0,0,-1,1294,932,0,0
77,92,0,0,0,0,0,0,0,0,0,-1,1301,932,0,0
84,92,0,0,0,0,0,0,0,0,0,-1,1308,932,0,0
91,92,0,0,0,0,0,0,0,0,0,-1,1315,932,0,0
98,92,0,0,0,0,0,0,0,0,0,-1,1322,932,0,0
105,92,0,0,0,0,0,0,0,0,0,-1,1329,932,0,0
112,92,0,0,0,0,0,0,0,0,0,-1,1336,932,0,0
119,92,0,0,0,0,0,0,0,0,0,-1,1343,932,0,0
126,92,0,0,0,0,0,0,0,0,0,-1,1350,932,0,0
133,92,0,0,0,0,0,0,0,0,0,-1,1357,932,0,0
140,92,0,0,0,0,0,0,0,0,0,-1,1364,932,0,0
147,92,0,0,0,0,0,0,0,0,0,-1,1371,932,0,0
154,92,0,0,0,0,0,0,0,0,0,-1,1378,932,0,0
161,92,0,0,0,0,0,0,0,0,0,-1,1385,932,0,0
168,92,0,0,0,0,0,0,0,0,0,-1,1392,932,0,0
175,92,0,0,0,0,0,0,0,0,0,-1,1399,932,0,0
182,92,0,0,0,0,0,0,0,0,0,-1,1406,932,0,0
189,92,0,0,0,0,0,0,0,0,0,-1,1413,932,0,0
196,92,0,0,0,0,0,0,0,0,0,-1,1420,932,0,0
203,92,0,0,0,0,0,0,0,0,0,-1,1427,932,0,0
210,92,0,0,0,0,0,0,0,0,0,-1,1434,932,0,0
217,92,0,0,0,0,0,0,0,0,0,-1,1441,932,0,0
224,92,0,0,0,0,0,0,0,0,0,-1,1448,932,0,0
231,92,0,0,0,0,0,0,0,0,0,-1,1455,932,0,0
238,92,0,0,0,0,0,0,0,0,0,-1,1462,932,0,0
245,92,0,0,0,0,0,0,0,0,0,-1,1469,932,0,0
252,92,0,0,0,0,0,0,0,0,0,-1,1476,932,0,0
259,92,0,0,0,0,0,0,0,0,0,-1,1483,932,0,0
266,92,0,0,0,0,0,0,0,0,0,-1,1490,932,0,0
273,92,0,0,0,0,0,0,0,0,0,-1,1497,932,0,0
280,92,0,0,0,0,0,0,0,0,0,-1,1504,932,0,0
287,92,0,0,0,0,0,0,0,0,0,-1,1511,932,0,0
294,92,0,0,0,0,0,0,0,0,0,-1,1518,932,0,0
301,92,0,0,0,0,0,0,0,0,0,-1,1525,932,0,0
308,92,0,0,0,0,0,0,0,0,0,-1,1532,932,0,0
315,92,0,0,0,0,0,0,0,0,0,-1,1539,932,0,0
322,92,0,0,0,0,0,0,0,0,0,-1,1546,932,0,0
329,92,0,0,0,0,0,0,0,0,0,-1,1553,932,0,0
336,92,0,0,0,0,0,0,0,0,0,-1,1560,932,0,0
343,92,0,0,0,0,0,0,0,0,0,-1,1567,932,0,0
350,92,0,0,0,0,0,0,0,0,0,-1,1574,932,0,0
357,92,0,0,0,0,0,0,0,0,0,-1,1581,932,0,0
364,92,0,0,0,0,0,0,0,0,0,-1,1588,932,0,0
371,92,0,0,0,0,0,0,0,0,0,-1,1595,932,0,0
378,92,0,0,0,0,0,0,0,0,0,-1,1602,932,0,0
385,92,0,0,0,0,0,0,0,0,0,-1,1609,932,0,0
392,92,0,0,0,0,0,0,0,0,0,-1,1616,932,0,0
399,92,0,0,0,0,0,0,0,0,0,-1,1623,932,0,0
406,92,0,0,0,0,0,0,0,0,0,-1,1630,932,0,0
413,92,0,0,0,0,0,0,0,0,0,-1,1637,932,0,0
420,92,0,0,0,0,0,0,0,0,0,-1,1644,932,0,0
427,92,0,0,0,0,0,0,0,0,0,-1,1651,932,0,0
434,92,0,0,0,0,0,0,0,0,0,-1,1658,932,0,0
441,92,0,0,0,0,0,0,0,0,0,-1,1665,932,0,0
448,92,0,0,0,0,0,0,0,0,0,-1,1672,932,0,0
455,92,0,0,0,0,0,0,0,0,0,-1,1679,932,0,0
462,92,0,0,0,0,0,0,0,0,0,-1,1686,932,0,0
469,92,0,0,0,0,0,0,0,0,0,-1,1693,932,0,0
476,92,0,0,0,0,0,0,0,0,0,-1,1700,932,0,0
483,92,0,0,0,0,0,0,0,0,0,-1,1707,932,0,0
490,92,0,0,0,0,0,0,0,0,0,-1,1714,932,0,0
497,92,0,0,0,0,0,0,0,0,0,-1,1721,932,0,0
504,92,0,0,0,0,0,0,0,0,0,-1,1728,932,0,0
511,92,0,0,0,0,0,0,0,0,0,-1,1735,932,0,0
518,92,0,0,0,0,0,0,0,0,0,-1,1742,932,0,0
525,92,0,0,0,0,0,0,0,0,0,-1,1749,932,0,0
532,92,0,0,0,0,0,0,0,0,0,-1,1756,932,0,0
539,92,0,0,0,0,0,0,0,0,0,-1,1763,932,0,0
546,92,0,0,0,0,0,0,0,0,0,-1,1770,932,0,0
553,92,0,0,0,0,0,0,0,0,0,-1,1777,932,0,0
560,92,0,0,0,0,0,0,0,0,0,-1,1784,932,0,0
567,92,0,0,0,0,0,0,0,0,0,-1,1791,932,0,0
574,92,0,0,0,0,0,0,0,0,0,-1,1798,932,0,0
581,92,0,0,0,0,0,0,0,0,0,-1,1805,932,0,0
588,92,0,0,0,0,0,0,0,0,0,-1,1812,932,0,0
595,92,0,0,0,0,0,0,0,0,0,-1,1819,932,0,0
602,92,0,0,0,0,0,0,0,0,0,-1,1826,932,0,0
609,92,0,0,0,0,0,0,0,0,0,-1,1833,932,0,0
616,92,0,0,0,0,0,0,0,0,0,-1,1840,932,0,0
623,92,0,0,0,0,0,0,0,0,0,-1,1847,932,0,0
630,92,0,0,0,0,0,0,0,0,0,-1,1854,932,0,0
637,92,60.6779,3.11731,0.00168335,-0.00280784,0.00483492,0.00476871,-0.00589321,0.567994,0.00616707,0.0496227,1861,932,60.6779,-3.11732
644,92,60.839,2.71393,0.00126093,-0.00187815,0.00336647,0.00340576,-0.00402298,0.567264,0.00429392,0.0389166,1868,932,60.839,-2.71394
651,92,60.9679,2.67731,0.000997327,-0.00127753,0.00224684,0.00237824,-0.00265844,0.551087,0.00290943,0.0381842,1875,932,60.968,-2.67733
658,92,60.9924,2.88574,0.000800634,-0.000677849,0.00132443,0.00157816,-0.00145538,0.530855,0.00175189,0.0418714,1882,932,60.9925,-2.88573
665,92,60.8763,2.81494,0.000885158,-6.27959e-05,0.000608509,0.0011825,-0.000360141,0.454523,0.000931876,0.0414901,1889,932,60.8764,-2.81492
672,92,60.823,2.80981,0.000733293,0.000224958,0.000234151,0.000824709,0.000133543,0.372215,0.00051114,0.0434521,1896,932,60.823,-2.80981
679,92,60.8765,2.80286,0.000605309,0.000182665,6.65407e-05,0.000615538,0.000172437,0.152525,0.000366654,0.0388514,1903,932,60.8765,-2.80287
686,92,60.8621,2.65961,0.000546356,4.5331e-05,-0.000144201,0.000584895,6.7924e-06,-0.261152,0.000387686,0.0289698,1910,932,60.8621,-2.6596
693,92,60.8926,2.73102,0.000212626,0.000211361,-0.000411188,0.000623182,-0.000199195,-0.784629,0.000495387,0.0221631,1917,932,60.8926,-2.73102
700,92,60.8708,2.77972,0,0,0,0,0,0,0,-1,1924,932,60.8708,-2.77971
707,92,32.9893,3.26874,0,0,0,0,0,0,0,-1,1931,932,32.9893,-3.26874
714,92,57.1348,4.07727,0,0,0,0,0,0,0,-1,1938,932,57.1348,-4.07728
721,92,56.924,4.75714,-0.00153673,0.00154009,-0.00137435,0.00206457,-0.00206122,-1.20623,0.00238202,0.0363566,1945,932,56.924,-4.75713
728,92,56.7004,5.3139,-0.00206273,0.002221,-0.00129171,0.00258035,-0.00242209,-1.29946,0.00288864,0.0280878,1952,932,56.7005,-5.31388
735,92,56.6918,5.8363,-0.00222746,0.00337085,-0.000949371,0.00352747,-0.00238407,-1.4073,0.00343424,0.0215644,1959,932,56.6917,-5.83633
742,92,56.698,6.33826,-0.00212101,0.00529681,-0.000574312,0.00534101,-0.00216521,-1.49398,0.00446114,0.0201335,1966,932,56.6981,-6.33827
749,92,56.6199,6.85864,-0.00148004,0.00851879,0.000188658,0.00852235,-0.0014836,1.55194,0.00623522,0.018567,1973,932,56.6199,-6.85863
756,92,56.5452,7.35297,0.000186645,0.0128143,0.0016455,0.0130252,-2.42572e-05,1.44332,0.00869154,0.0151837,1980,932,56.5452,-7.35296
763,92,56.5646,7.87103,0.0028286,0.018038,0.00377757,0.0189246,0.00194204,1.34028,0.0120214,0.0178052,1987,932,56.5646,-7.87101
770,92,56.624,8.3833,0.00655732,0.0239325,0.00643956,0.0260589,0.00443093,1.25186,0.0161002,0.0281608,1994,932,56.624,-8.38329
777,92,57.1665,9.84216,0,0,0,0,0,0,0,-1,2001,932,57.1666,-9.84218
784,92,57.2854,10.3817,0.0185369,0.0384322,0.0134858,0.0452423,0.0117268,1.10317,0.0271116,0.0497786,2008,932,57.2854,-10.3817
791,92,57.4932,10.8943,0.0285623,0.0471872,0.0165772,0.0568886,0.0188609,1.04131,0.0334602,0.0494615,2015,932,57.4932,-10.8943
798,92,57.7825,11.4261,0,0,0,0,0,0,0,-1,2022,932,57.7824,-11.4261
805,92,0,0,0,0,0,0,0,0,0,-1,2029,932,0,0
812,92,0,0,0,0,0,0,0,0,0,-1,2036,932,0,0
-700,85,0,0,0,0,0,0,0,0,0,-1,524,939,0,0
-693,85,0,0,0,0,0,0,0,0,0,-1,531,939,0,0
-686,85,-49.6577,0.259155,0,0,0,0,0,0,0,-1,538,939,-49.6577,-0.259167
-679,85,-48.7787,0.38147,0,0,0,0,0,0,0,-1,545,939,-48.7787,-0.381481
-672,85,-47.6981,0.380066,0,0,0,0,0,0,0,-1,552,939,-47.698,-0.38008
-665,85,-47.1371,0.25824,0,0,0,0,0,0,0,-1,559,939,-47.1371,-0.25827
-658,85,-46.1853,0.257019,0,0,0,0,0,0,0,-1,566,939,-46.1853,-0.257012
-651,85,-43.2856,6.65192,0,0,0,0,0,0,0,-1,573,939,-43.2856,-6.65189
-644,85,-43.3232,6.02789,-0.0024517,0.0470237,0.0126685,0.0500789,-0.00550691,1.33415,0.0353648,0.0343699,580,939,-43.3232,-6.02787
-637,85,-43.4653,5.73901,-0.00784356,0.0335126,0.0123077,0.0368982,-0.0112292,1.30235,0.029074,0.0216749,587,939,-43.4653,-5.739
-630,85,-43.5773,5.29883,-0.00946737,0.018882,0.0100116,0.0220611,-0.0126465,1.26332,0.0202827,0.0133331,594,939,-43.5773,-5.29883
-623,85,-43.6555,4.83374,-0.0071617,0.0136508,0.00664884,0.0155935,-0.00910442,1.28652,0.0144225,0.0103528,601,939,-43.6555,-4.83372
-616,85,-43.6495,4.38049,-0.0046538,0.00909052,0.00454213,0.0104559,-0.00601921,1.27878,0.00962621,0.0106704,608,939,-43.6495,-4.38048
-609,85,-43.7,3.90991,-0.0028234,0.00572887,0.00289558,0.00661701,-0.00371154,1.27318,0.00604133,0.0122349,615,939,-43.7,-3.90992
-602,85,-43.7098,3.43597,-0.00186977,0.0035658,0.00157681,0.0039901,-0.00229406,1.30794,0.00367195,0.0170714,622,939,-43.7099,-3.43598
-595,85,-43.6185,2.95068,-0.00120362,0.00210475,0.000831157,0.00230182,-0.00140069,1.33799,0.00215864,0.0217341,629,939,-43.6185,-2.95067
-588,85,-43.6021,2.49237,-0.000533873,0.00103764,0.000427116,0.00114622,-0.000642456,1.32185,0.00104626,0.0248729,636,939,-43.6021,-2.49237
-581,85,-44.6041,1.97662,0,0,0,0,0,0,0,-1,643,939,-44.6041,-1.97661
-574,85,-44.7797,1.43683,0,0,0,0,0,0,0,-1,650,939,-44.7797,-1.43681
-567,85,-46.1316,0.802673,0,0,0,0,0,0,0,-1,657,939,-46.1316,-0.802699
-560,85,-46.0543,0.877869,6.15948e-05,-0.00074237,-0.0010326,0.000767697,-0.00144847,-0.599778,0.00129947,0.0364348,664,939,-46.0542,-0.877892
-553,85,-46.0882,0.796387,-9.13212e-06,-0.000794534,-0.00121657,0.000876546,-0.00168021,-0.629281,0.00150026,0.0426582,671,939,-46.0882,-0.796387
-546,85,-46.238,0.805359,-3.84969e-05,-0.000810388,-0.00128692,0.000919105,-0.00176799,-0.639716,0.00157699,0.0424977,678,939,-46.238,-0.805368
-539,85,-46.2907,0.995178,9.22698e-05,-0.0010312,-0.00122203,0.000875487,-0.00181441,-0.569964,0.00158424,0.0393671,685,939,-46.2907,-0.995206
-532,85,-46.1432,0.815063,0.000427066,-0.0018108,-0.00113758,0.000903783,-0.00228751,-0.396831,0.00189935,0.0395888,692,939,-46.1432,-0.815051
-525,85,-46.0833,0.915466,0.000327545,-0.00252075,-0.00161775,0.0010587,-0.00325191,-0.424479,0.00259388,0.0364676,699,939,-46.0833,-0.915441
-518,85,-46.1686,1.24774,1.20848e-05,-0.00338148,-0.00199058,0.000930925,-0.00430032,-0.432454,0.00322233,0.0360564,706,939,-46.1687,-1.24772
-511,85,0,0,0,0,0,0,0,0,0,-1,713,939,0,0
-504,85,0,0,0,0,0,0,0,0,0,-1,720,939,0,0
-497,85,0,0,0,0,0,0,0,0,0,-1,727,939,0,0
-490,85,0,0,0,0,0,0,0,0,0,-1,734,939,0,0
-483,85,0,0,0,0,0,0,0,0,0,-1,741,939,0,0
-476,85,0,0,0,0,0,0,0,0,0,-1,748,939,0,0
-469,85,0,0,0,0,0,0,0,0,0,-1,755,939,0,0
-462,85,0,0,0,0,0,0,0,0,0,-1,762,939,0,0
-455,85,0,0,0,0,0,0,0,0,0,-1,769,939,0,0
-448,85,0,0,0,0,0,0,0,0,0,-1,776,939,0,0
-441,85,0,0,0,0,0,0,0,0,0,-1,783,939,0,0
-434,85,0,0,0,0,0,0,0,0,0,-1,790,939,0,0
-427,85,0,0,0,0,0,0,0,0,0,-1,797,939,0,0
-420,85,0,0,0,0,0,0,0,0,0,-1,804,939,0,0
-413,85,0,0,0,0,0,0,0,0,0,-1,811,939,0,0
-406,85,0,0,0,0,0,0,0,0,0,-1,818,939,0,0
-399,85,0,0,0,0,0,0,0,0,0,-1,825,939,0,0
-392,85,0,0,0,0,0,0,0,0,0,-1,832,939,0,0
-385,85,0,0,0,0,0,0,0,0,0,-1,839,939,0,0
-378,85,0,0,0,0,0,0,0,0,0,-1,846,939,0,0
-371,85,0,0,0,0,0,0,0,0,0,-1,853,939,0,0
-364,85,0,0,0,0,0,0,0,0,0,-1,860,939,0,0
-357,85,0,0,0,0,0,0,0,0,0,-1,867,939,0,0
-350,85,0,0,0,0,0,0,0,0,0,-1,874,939,0,0
-343,85,0,0,0,0,0,0,0,0,0,-1,881,939,0,0
-336,85,0,0,0,0,0,0,0,0,0,-1,888,939,0,0
-329,85,0,0,0,0,0,0,0,0,0,-1,895,939,0,0
-322,85,0,0,0,0,0,0,0,0,0,-1,902,939,0,0
-315,85,0,0,0,0,0,0,0,0,0,-1,909,939,0,0
-308,85,0,0,0,0,0,0,0,0,0,-1,916,939,0,0
-301,85,0,0,0,0,0,0,0,0,0,-1,923,939,0,0
-294,85,0,0,0,0,0,0,0,0,0,-1,930,939,0,0
-287,85,0,0,0,0,0,0,0,0,0,-1,937,939,0,0
-280,85,0,0,0,0,0,0,0,0,0,-1,944,939,0,0
-273,85,0,0,0,0,0,0,0,0,0,-1,951,939,0,0
-266,85,0,0,0,0,0,0,0,0,0,-1,958,939,0,0
-259,85,0,0,0,0,0,0,0,0,0,-1,965,939,0,0
-252,85,0,0,0,0,0,0,0,0,0,-1,972,939,0,0
-245,85,0,0,0,0,0,0,0,0,0,-1,979,939,0,0
-238,85,0,0,0,0,0,0,0,0,0,-1,986,939,0,0
-231,85,0,0,0,0,0,0,0,0,0,-1,993,939,0,0
-224,85,0,0,0,0,0,0,0,0,0,-1,1000,939,0,0
-217,85,0,0,0,0,0,0,0,0,0,-1,1007,939,0,0
-210,85,0,0,0,0,0,0,0,0,0,-1,1014,939,0,0
-203,85,0,0,0,0,0,0,0,0,0,-1,1021,939,0,0
-196,85,0,0,0,0,0,0,0,0,0,-1,1028,939,0,0
-189,85,0,0,0,0,0,0,0,0,0,-1,1035,939,0,0
-182,85,0,0,0,0,0,0,0,0,0,-1,1042,939,0,0
-175,85,0,0,0,0,0,0,0,0,0,-1,1049,939,0,0
-168,85,0,0,0,0,0,0,0,0,0,-1,1056,939,0,0
-161,85,0,0,0,0,0,0,0,0,0,-1,1063,939,0,0
-154,85,0,0,0,0,0,0,0,0,0,-1,1070,939,0,0
-147,85,0,0,0,0,0,0,0,0,0,-1,1077,939,0,0
-140,85,0,0,0,0,0,0,0,0,0,-1,1084,939,0,0
-133,85,0,0,0,0,0,0,0,0,0,-1,1091,939,0,0
-126,85,0,0,0,0,0,0,0,0,0,-1,1098,939,0,0
-119,85,0,0,0,0,0,0,0,0,0,-1,1105,939,0,0
-112,85,0,0,0,0,0,0,0,0,0,-1,1112,939,0,0
-105,85,0,0,0,0,0,0,0,0,0,-1,1119,939,0,0
-98,85,0,0,0,0,0,0,0,0,0,-1,1126,939,0,0
-91,85,0,0,0,0,0,0,0,0,0,-1,1133,939,0,0
-84,85,0,0,0,0,0,0,0,0,0,-1,1140,939,0,0
-77,85,0,0,0,0,0,0,0,0,0,-1,1147,939,0,0
-70,85,0,0,0,0,0,0,0,0,0,-1,1154,939,0,0
-63,85,0,0,0,0,0,0,0,0,0,-1,1161,939,0,0
-56,85,0,0,0,0,0,0,0,0,0,-1,1168,939,0,0
-49,85,0,0,0,0,0,0,0,0,0,-1,1175,939,0,0
-42,85,0,0,0,0,0,0,0,0,0,-1,1182,939,0,0
-35,85,0,0,0,0,0,0,0,0,0,-1,1189,939,0,0
-28,85,0,0,0,0,0,0,0,0,0,-1,1196,939,0,0
-21,85,0,0,0,0,0,0,0,0,0,-1,1203,939,0,0
-14,85,0,0,0,0,0,0,0,0,0,-1,1210,939,0,0
-7,85,0,0,0,0,0,0,0,0,0,-1,1217,939,0,0
0,85,0,0,0,0,0,0,0,0,0,-1,1224,939,0,0
7,85,0,0,0,0,0,0,0,0,0,-1,1231,939,0,0
14,85,0,0,0,0,0,0,0,0,0,-1,1238,939,0,0
21,85,0,0,0,0,0,0,0,0,0,-1,1245,939,0,0
28,85,0,0,0,0,0,0,0,0,0,-1,1252,939,0,0
35,85,0,0,0,0,0,0,0,0,0,-1,1259,939,0,0
42,85,0,0,0,0,0,0,0,0,0,-1,1266,939,0,0
49,85,0,0,0,0,0,0,0,0,0,-1,1273,939,0,0
56,85,0,0,0,0,0,0,0,0,0,-1,1280,939,0,0
63,85,0,0,0,0,0,0,0,0,0,-1,1287,939,0,0
70,85,0,0,0,0,0,0,0,0,0,-1,1294,939,0,0
77,85,0,0,0,0,0,0,0,0,0,-1,1301,939,0,0
84,85,0,0,0,0,0,0,0,0,0,-1,1308,939,0,0
91,85,0,0,0,0,0,0,0,0,0,-1,1315,939,0,0
98,85,0,0,0,0,0,0,0,0,0,-1,1322,939,0,0
105,85,0,0,0,0,0,0,0,0,0,-1,1329,939,0,0
112,85,0,0,0,0,0,0,0,0,0,-1,1336,939,0,0
119,85,0,0,0,0,0,0,0,0,0,-1,1343,939,0,0
126,85,0,0,0,0,0,0,0,0,0,-1,1350,939,0,0
133,85,0,0,0,0,0,0,0,0,0,-1,1357,939,0,0
140,85,0,0,0,0,0,0,0,0,0,-1,1364,939,0,0
147,85,0,0,0,0,0,0,0,0,0,-1,1371,939,0,0
154,85,0,0,0,0,0,0,0,0,0,-1,1378,939,0,0
161,85,0,0,0,0,0,0,0,0,0,-1,1385,939,0,0
168,85,0,0,0,0,0,0,0,0,0,-1,1392,939,0,0
175,85,0,0,0,0,0,0,0,0,0,-1,1399,939,0,0
182,85,0,0,0,0,0,0,0,0,0,-1,1406,939,0,0
189,85,0,0,0,0,0,0,0,0,0,-1,1413,939,0,0
196,85,0,0,0,0,0,0,0,0,0,-1,1420,939,0,0
203,85,0,0,0,0,0,0,0,0,0,-1,1427,939,0,0
210,85,0,0,0,0,0,0,0,0,0,-1,1434,939,0,0
217,85,0,0,0,0,0,0,0,0,0,-1,1441,939,0,0
224,85,0,0,0,0,0,0,0,0,0,-1,1448,939,0,0
231,85,0,0,0,0,0,0,0,0,0,-1,1455,939,0,0
238,85,0,0,0,0,0,0,0,0,0,-1,1462,939,0,0
245,85,0,0,0,0,0,0,0,0,0,-1,1469,939,0,0
252,85,0,0,0,0,0,0,0,0,0,-1,1476,939,0,0
259,85,0,0,0,0,0,0,0,0,0,-1,1483,939,0,0
266,85,0,0,0,0,0,0,0,0,0,-1,1490,939,0,0
273,85,0,0,0,0,0,0,0,0,0,-1,1497,939,0,0
280,85,0,0,0,0,0,0,0,0,0,-1,1504,939,0,0
287,85,0,0,0,0,0,0,0,0,0,-1,1511,939,0,0
294,85,0,0,0,0,0,0,0,0,0,-1,1518,939,0,0
301,85,0,0,0,0,0,0,0,0,0,-1,1525,939,0,0
308,85,0,0,0,0,0,0,0,0,0,-1,1532,939,0,0
315,85,0,0,0,0,0,0,0,0,0,-1,1539,939,0,0
322,85,0,0,0,0,0,0,0,0,0,-1,1546,939,0,0
329,85,0,0,0,0,0,0,0,0,0,-1,1553,939,0,0
336,85,0,0,0,0,0,0,0,0,0,-1,1560,939,0,0
343,85,0,0,0,0,0,0,0,0,0,-1,1567,939,0,0
350,85,0,0,0,0,0,0,0,0,0,-1,1574,939,0,0
357,85,0,0,0,0,0,0,0,0,0,-1,1581,939,0,0
364,85,0,0,0,0,0,0,0,0,0,-1,1588,939,0,0
371,85,0,0,0,0,0,0,0,0,0,-1,1595,939,0,0
378,85,0,0,0,0,0,0,0,0,0,-1,1602,939,0,0
385,85,0,0,0,0,0,0,0,0,0,-1,1609,939,0,0
392,85,0,0,0,0,0,0,0,0,0,-1,1616,939,0,0
399,85,0,0,0,0,0,0,0,0,0,-1,1623,939,0,0
406,85,0,0,0,0,0,0,0,0,0,-1,1630,939,0,0
413,85,0,0,0,0,0,0,0,0,0,-1,1637,939,0,0
420,85,0,0,0,0,0,0,0,0,0,-1,1644,939,0,0
427,85,0,0,0,0,0,0,0,0,0,-1,1651,939,0,0
434,85,0,0,0,0,0,0,0,0,0,-1,1658,939,0,0
441,85,0,0,0,0,0,0,0,0,0,-1,1665,939,0,0
448,85,0,0,0,0,0,0,0,0,0,-1,1672,939,0,0
455,85,0,0,0,0,0,0,0,0,0,-1,1679,939,0,0
462,85,0,0,0,0,0,0,0,0,0,-1,1686,939,0,0
469,85,0,0,0,0,0,0,0,0,0,-1,1693,939,0,0
476,85,0,0,0,0,0,0,0,0,0,-1,1700,939,0,0
483,85,0,0,0,0,0,0,0,0,0,-1,1707,939,0,0
490,85,0,0,0,0,0,0,0,0,0,-1,1714,939,0,0
497,85,0,0,0,0,0,0,0,0,0,-1,1721,939,0,0
504,85,0,0,0,0,0,0,0,0,0,-1,1728,939,0,0
511,85,0,0,0,0,0,0,0,0,0,-1,1735,939,0,0
518,85,0,0,0,0,0,0,0,0,0,-1,1742,939,0,0
525,85,0,0,0,0,0,0,0,0,0,-1,1749,939,0,0
532,85,0,0,0,0,0,0,0,0,0,-1,1756,939,0,0
539,85,0,0,0,0,0,0,0,0,0,-1,1763,939,0,0
546,85,0,0,0,0,0,0,0,0,0,-1,1770,939,0,0
553,85,0,0,0,0,0,0,0,0,0,-1,1777,939,0,0
560,85,0,0,0,0,0,0,0,0,0,-1,1784,939,0,0
567,85,0,0,0,0,0,0,0,0,0,-1,1791,939,0,0
574,85,0,0,0,0,0,0,0,0,0,-1,1798,939,0,0
581,85,0,0,0,0,0,0,0,0,0,-1,1805,939,0,0
588,85,0,0,0,0,0,0,0,0,0,-1,1812,939,0,0
595,85,0,0,0,0,0,0,0,0,0,-1,1819,939,0,0
602,85,0,0,0,0,0,0,0,0,0,-1,1826,939,0,0
609,85,0,0,0,0,0,0,0,0,0,-1,1833,939,0,0
616,85,0,0,0,0,0,0,0,0,0,-1,1840,939,0,0
623,85,0,0,0,0,0,0,0,0,0,-1,1847,939,0,0
630,85,0,0,0,0,0,0,0,0,0,-1,1854,939,0,0
637,85,60.6091,3.14484,0,0,0,0,0,0,0,-1,1861,939,60.6091,-3.14481
644,85,60.8514,2.18915,0,0,0,0,0,0,0,-1,1868,939,60.8515,-2.18915
651,85,60.951,2.59003,0.00101353,-0.00198031,0.00241376,0.00235685,-0.00332364,0.507842,0.00329543,0.0423864,1875,939,60.951,-2.59001
658,85,60.9257,3.10022,0.000783282,-0.00130332,0.00149643,0.0015642,-0.00208423,0.480978,0.00211354,0.0428061,1882,939,60.9257,-3.10021
665,85,60.7456,2.97778,0.000791491,-0.000623041,0.000769705,0.00112953,-0.000961084,0.413824,0.00120832,0.0422884,1889,939,60.7456,-2.9778
672,85,60.7601,2.66705,0.000563373,-0.000250144,0.000371726,0.000707643,-0.000394414,0.370214,0.000644783,0.0420871,1896,939,60.7602,-2.66708
679,85,60.9696,2.45001,0.000338046,-0.000269056,0.000217428,0.000407883,-0.000338893,0.310785,0.000431764,0.039269,1903,939,60.9695,-2.45002
686,85,60.8877,2.6615,0.000252065,-0.000423031,5.12528e-06,0.000252104,-0.00042307,0.00759135,0.000393955,0.0331892,1910,939,60.8877,-2.6615
693,85,60.8792,2.75421,-8.41049e-05,-0.000297982,-0.000255106,8.55696e-05,-0.000467657,-0.586927,0.000343862,0.0262211,1917,939,60.8791,-2.75418
700,85,60.8811,2.71252,-0.000522387,-0.00023811,-0.000423634,6.6595e-05,-0.000827092,-0.947257,0.00057488,0.0416998,1924,939,60.8812,-2.71252
707,85,60.9645,2.65137,0,0,0,0,0,0,0,-1,1931,939,60.9644,-2.65138
714,85,57.7699,4.1734,0,0,0,0,0,0,0,-1,1938,939,57.7699,-4.17337
721,85,57.5011,4.81757,-0.00194672,0.00121108,-0.0012708,0.00165896,-0.0023946,-1.23195,0.00235314,0.0349753,1945,939,57.5011,-4.81757
728,85,57.2288,5.49066,-0.00244087,0.00200223,-0.00112809,0.00227224,-0.00271088,-1.33586,0.00288072,0.0305164,1952,939,57.2288,-5.49065
735,85,57.2556,5.89984,-0.00255212,0.003239,-0.000789912,0.00334481,-0.00265793,-1.43764,0.00347324,0.0281593,1959,939,57.2556,-5.89984
742,85,57.3151,6.37299,-0.00244774,0.00516822,-0.000519177,0.00520345,-0.00248297,-1.50304,0.00452946,0.0194858,1966,939,57.3151,-6.37296
749,85,57.2256,6.87677,-0.00188489,0.00850562,9.06304e-06,0.00850563,-0.0018849,1.56992,0.00639203,0.014859,1973,939,57.2256,-6.87675
756,85,57.1033,7.33148,-0.000386353,0.0130125,0.00101351,0.0130888,-0.000462583,1.49572,0.00888405,0.0133035,1980,939,57.1032,-7.33149
763,85,57.0734,7.80188,0.00194527,0.0185624,0.00238598,0.0188982,0.00160947,1.43097,0.0120981,0.0139762,1987,939,57.0734,-7.80185
770,85,57.022,8.31042,0.00522609,0.0247464,0.00405987,0.0255571,0.00441538,1.3737,0.0157736,0.0203636,1994,939,57.0219,-8.31042
777,85,56.9204,9.0152,0.00931278,0.0317448,0.0056812,0.0331016,0.00795601,1.33637,0.0199517,0.0426204,2001,939,56.9203,-9.0152
784,85,57.4817,9.98322,0.015158,0.0396941,0.00700181,0.0415516,0.0133006,1.31148,0.024502,0.0498289,2008,939,57.4816,-9.9832
791,85,57.5691,10.5336,0,0,0,0,0,0,0,-1,2015,939,57.5691,-10.5336
798,85,56.2346,11.467,0,0,0,0,0,0,0,-1,2022,939,56.2346,-11.467
805,85,57.9341,10.3158,0,0,0,0,0,0,0,-1,2029,939,57.934,-10.3158
812,85,0,0,0,0,0,0,0,0,0,-1,2036,939,0,0
-700,78,0,0,0,0,0,0,0,0,0,-1,524,946,0,0
-693,78,0,0,0,0,0,0,0,0,0,-1,531,946,0,0
-686,78,-49.3812,0.384705,0.121888,0.197826,-0.0256367,0.205671,0.114043,-1.27385,0.118979,0.0446492,538,946,-49.3812,-0.384714
-679,78,-48.5165,0.52478,0,0,0,0,0,0,0,-1,545,946,-48.5165,-0.524786
-672,78,-48.8156,5.56024,0,0,0,0,0,0,0,-1,552,946,-48.8156,-5.56026
-665,78,-46.5701,0.544373,0,0,0,0,0,0,0,-1,559,946,-46.5701,-0.54437
-658,78,-43.0727,6.69049,0,0,0,0,0,0,0,-1,566,946,-43.0727,-6.6905
-651,78,-43.3741,6.33588,0.00823956,0.0661026,0.017884,0.0711838,0.0031583,1.29397,0.0464389,0.0458119,573,946,-43.3742,-6.33585
-644,78,-43.685,5.96191,-1.29773e-05,0.0482787,0.015446,0.0527964,-0.0045307,1.28625,0.0368009,0.0295564,580,946,-43.685,-5.9619
-637,78,-43.9584,5.61078,-0.00616108,0.0350812,0.0144056,0.0396147,-0.0106945,1.26591,0.030604,0.0192739,587,946,-43.9584,-5.61077
-630,78,-44.1333,5.20471,-0.00834425,0.0194181,0.0111504,0.023342,-0.0122681,1.23243,0.0208882,0.0171913,594,946,-44.1333,-5.20473
-623,78,-44.161,4.75574,-0.00635092,0.0140751,0.00700936,0.016249,-0.00852487,1.27005,0.0145331,0.013431,601,946,-44.161,-4.75571
-616,78,-44.1624,4.32782,-0.00403276,0.00951159,0.00448738,0.0108634,-0.00538456,1.2782,0.00955688,0.0123865,608,946,-44.1624,-4.32785
-609,78,-44.1669,3.93146,-0.00232947,0.00623955,0.0025849,0.00695891,-0.00304883,1.29937,0.00592314,0.0124058,615,946,-44.1669,-3.93146
-602,78,-44.1827,3.48035,-0.0014178,0.00408408,0.00108453,0.00429014,-0.00162386,1.38303,0.00352822,0.0168184,622,946,-44.1827,-3.48033
-595,78,-44.1138,2.98035,-0.000683729,0.0024677,0.000174033,0.00247729,-0.00069331,1.5158,0.00192471,0.0174299,629,946,-44.1138,-2.98033
-588,78,-44.1015,2.59845,4.70858e-05,0.00128902,-0.000285586,0.00135154,-1.54378e-05,-1.35527,0.000906219,0.0156437,636,946,-44.1015,-2.59842
-581,78,-44.0487,2.10059,0,0,0,0,0,0,0,-1,643,946,-44.0487,-2.10056
-574,78,-45.2114,1.47235,0,0,0,0,0,0,0,-1,650,946,-45.2114,-1.47233
-567,78,-46.1309,0.81311,0.000771829,-0.00050372,-0.00155027,0.00181039,-0.00154228,-0.590252,0.00193772,0.0354042,657,946,-46.1309,-0.8131
-560,78,-46.0768,0.885254,0.000711807,-0.000700519,-0.00174369,0.0018869,-0.00187561,-0.593002,0.00217229,0.0349102,664,946,-46.0768,-0.885269
-553,78,-46.0316,0.751404,0.000704888,-0.00080485,-0.00185037,0.00194844,-0.0020484,-0.591725,0.00230782,0.0431925,671,946,-46.0316,-0.751404
-546,78,-46.1133,0.771057,0.000807305,-0.000903372,-0.00184099,0.00198195,-0.00207802,-0.56793,0.00234425,0.0452012,678,946,-46.1134,-0.771059
-539,78,-46.1093,1.17249,0.00113188,-0.00125241,-0.00172463,0.0020363,-0.00215682,-0.482985,0.00242123,0.042085,685,946,-46.1093,-1.17249
-532,78,-45.9933,1.16302,0.00183713,-0.00212423,-0.00179252,0.00252782,-0.00281492,-0.367786,0.00308612,0.0399708,692,946,-45.9933,-1.163
-525,78,-45.8881,1.04736,0.0021621,-0.00257221,-0.00290548,0.00354264,-0.00395275,-0.443572,0.00432963,0.0391234,699,946,-45.8881,-1.04737
-518,78,-45.9038,1.15967,0,0,0,0,0,0,0,-1,706,946,-45.9038,-1.15967
-511,78,0,0,0,0,0,0,0,0,0,-1,713,946,0,0
-504,78,0,0,0,0,0,0,0,0,0,-1,720,946,0,0
-497,78,0,0,0,0,0,0,0,0,0,-1,727,946,0,0
-490,78,0,0,0,0,0,0,0,0,0,-1,734,946,0,0
-483,78,0,0,0,0,0,0,0,0,0,-1,741,946,0,0
-476,78,0,0,0,0,0,0,0,0,0,-1,748,946,0,0
-469,78,0,0,0,0,0,0,0,0,0,-1,755,946,0,0
-462,78,0,0,0,0,0,0,0,0,0,-1,762,946,0,0
-455,78,0,0,0,0,0,0,0,0,0,-1,769,946,0,0
-448,78,0,0,0,0,0,0,0,0,0,-1,776,946,0,0
-441,78,0,0,0,0,0,0,0,0,0,-1,783,946,0,0
-434,78,0,0,0,0,0,0,0,0,0,-1,790,946,0,0
-427,78,0,0,0,0,0,0,0,0,0,-1,797,946,0,0
-420,78,0,0,0,0,0,0,0,0,0,-1,804,946,0,0
-413,78,0,0,0,0,0,0,0,0,0,-1,811,946,0,0
-406,78,0,0,0,0,0,0,0,0,0,-1,818,946,0,0
-399,78,0,0,0,0,0,0,0,0,0,-1,825,946,0,0
-392,78,0,0,0,0,0,0,0,0,0,-1,832,946,0,0
-385,78,0,0,0,0,0,0,0,0,0,-1,839,946,0,0
-378,78,0,0,0,0,0,0,0,0,0,-1,846,946,0,0
-371,78,0,0,0,0,0,0,0,0,0,-1,853,946,0,0
-364,78,0,0,0,0,0,0,0,0,0,-1,860,946,0,0
-357,78,0,0,0,0,0,0,0,0,0,-1,867,946,0,0
-350,78,0,0,0,0,0,0,0,0,0,-1,874,946,0,0
-343,78,0,0,0,0,0,0,0,0,0,-1,881,946,0,0
-336,78,0,0,0,0,0,0,0,0,0,-1,888,946,0,0
-329,78,0,0,0,0,0,0,0,0,0,-1,895,946,0,0
-322,78,0,0,0,0,0,0,0,0,0,-1,902,946,0,0
-315,78,0,0,0,0,0,0,0,0,0,-1,909,946,0,0
-308,78,0,0,0,0,0,0,0,0,0,-1,916,946,0,0
-301,78,0,0,0,0,0,0,0,0,0,-1,923,946,0,0
-294,78,0,0,0,0,0,0,0,0,0,-1,930,946,0,0
-287,78,0,0,0,0,0,0,0,0,0,-1,937,946,0,0
-280,78,0,0,0,0,0,0,0,0,0,-1,944,946,0,0
-273,78,0,0,0,0,0,0,0,0,0,-1,951,946,0,0
-266,78,0,0,0,0,0,0,0,0,0,-1,958,946,0,0
-259,78,0,0,0,0,0,0,0,0,0,-1,965,946,0,0
-252,78,0,0,0,0,0,0,0,0,0,-1,972,946,0,0
-245,78,0,0,0,0,0,0,0,0,0,-1,979,946,0,0
-238,78,0,0,0,0,0,0,0,0,0,-1,986,946,0,0
-231,78,0,0,0,0,0,0,0,0,0,-1,993,946,0,0
-224,78,0,0,0,0,0,0,0,0,0,-1,1000,946,0,0
-217,78,0,0,0,0,0,0,0,0,0,-1,1007,946,0,0
-210,78,0,0,0,0,0,0,0,0,0,-1,1014,946,0,0
-203,78,0,0,0,0,0,0,0,0,0,-1,1021,946,0,0
-196,78,0,0,0,0,0,0,0,0,0,-1,1028,946,0,0
-189,78,0,0,0,0,0,0,0,0,0,-1,1035,946,0,0
-182,78,0,0,0,0,0,0,0,0,0,-1,1042,946,0,0
-175,78,0,0,0,0,0,0,0,0,0,-1,1049,946,0,0
-168,78,0,0,0,0,0,0,0,0,0,-1,1056,946,0,0
-161,78,0,0,0,0,0,0,0,0,0,-1,1063,946,0,0
-154,78,0,0,0,0,0,0,0,0,0,-1,1070,946,0,0
-147,78,0,0,0,0,0,0,0,0,0,-1,1077,946,0,0
-140,78,0,0,0,0,0,0,0,0,0,-1,1084,946,0,0
-133,78,0,0,0,0,0,0,0,0,0,-1,1091,946,0,0
-126,78,0,0,0,0,0,0,0,0,0,-1,1098,946,0,0
-119,78,0,0,0,0,0,0,0,0,0,-1,1105,946,0,0
-112,78,0,0,0,0,0,0,0,0,0,-1,1112,946,0,0
-105,78,0,0,0,0,0,0,0,0,0,-1,1119,946,0,0
-98,78,0,0,0,0,0,0,0,0,0,-1,1126,946,0,0
-91,78,0,0,0,0,0,0,0,0,0,-1,1133,946,0,0
-84,78,0,0,0,0,0,0,0,0,0,-1,1140,946,0,0
-77,78,0,0,0,0,0,0,0,0,0,-1,1147,946,0,0
-70,78,0,0,0,0,0,0,0,0,0,-1,1154,946,0,0
-63,78,0,0,0,0,0,0,0,0,0,-1,1161,946,0,0
-56,78,0,0,0,0,0,0,0,0,0,-1,1168,946,0,0
-49,78,0,0,0,0,0,0,0,0,0,-1,1175,946,0,0
-42,78,0,0,0,0,0,0,0,0,0,-1,1182,946,0,0
-35,78,0,0,0,0,0,0,0,0,0,-1,1189,946,0,0
-28,78,0,0,0,0,0,0,0,0,0,-1,1196,946,0,0
-21,78,0,0,0,0,0,0,0,0,0,-1,1203,946,0,0
-14,78,0,0,0,0,0,0,0,0,0,-1,1210,946,0,0
-7,78,0,0,0,0,0,0,0,0,0,-1,1217,946,0,0
0,78,0,0,0,0,0,0,0,0,0,-1,1224,946,0,0
7,78,0,0,0,0,0,0,0,0,0,-1,1231,946,0,0
14,78,0,0,0,0,0,0,0,0,0,-1,1238,946,0,0
21,78,0,0,0,0,0,0,0,0,0,-1,1245,946,0,0
28,78,0,0,0,0,0,0,0,0,0,-1,1252,946,0,0
35,78,0,0,0,0,0,0,0,0,0,-1,1259,946,0,0
42,78,0,0,0,0,0,0,0,0,0,-1,1266,946,0,0
49,78,0,0,0,0,0,0,0,0,0,-1,1273,946,0,0
56,78,0,0,0,0,0,0,0,0,0,-1,1280,946,0,0
63,78,0,0,0,0,0,0,0,0,0,-1,1287,946,0,0
70,78,0,0,0,0,0,0,0,0,0,-1,1294,946,0,0
77,78,0,0,0,0,0,0,0,0,0,-1,1301,946,0,0
84,78,0,0,0,0,0,0,0,0,0,-1,1308,946,0,0
91,78,0,0,0,0,0,0,0,0,0,-1,1315,946,0,0
98,78,0,0,0,0,0,0,0,0,0,-1,1322,946,0,0
105,78,0,0,0,0,0,0,0,0,0,-1,1329,946,0,0
112,78,0,0,0,0,0,0,0,0,0,-1,1336,946,0,0
119,78,0,0,0,0,0,0,0,0,0,-1,1343,946,0,0
126,78,0,0,0,0,0,0,0,0,0,-1,1350,946,0,0
133,78,0,0,0,0,0,0,0,0,0,-1,1357,946,0,0
140,78,0,0,0,0,0,0,0,0,0,-1,1364,946,0,0
147,78,0,0,0,0,0,0,0,0,0,-1,1371,946,0,0
154,78,0,0,0,0,0,0,0,0,0,-1,1378,946,0,0
161,78,0,0,0,0,0,0,0,0,0,-1,1385,946,0,0
168,78,0,0,0,0,0,0,0,0,0,-1,1392,946,0,0
175,78,0,0,0,0,0,0,0,0,0,-1,1399,946,0,0
182,78,0,0,0,0,0,0,0,0,0,-1,1406,946,0,0
189,78,0,0,0,0,0,0,0,0,0,-1,1413,946,0,0
196,78,0,0,0,0,0,0,0,0,0,-1,1420,946,0,0
203,78,0,0,0,0,0,0,0,0,0,-1,1427,946,0,0
210,78,0,0,0,0,0,0,0,0,0,-1,1434,946,0,0
217,78,0,0,0,0,0,0,0,0,0,-1,1441,946,0,0
224,78,0,0,0,0,0,0,0,0,0,-1,1448,946,0,0
231,78,0,0,0,0,0,0,0,0,0,-1,1455,946,0,0
238,78,0,0,0,0,0,0,0,0,0,-1,1462,946,0,0
245,78,0,0,0,0,0,0,0,0,0,-1,1469,946,0,0
252,78,0,0,0,0,0,0,0,0,0,-1,1476,946,0,0
259,78,0,0,0,0,0,0,0,0,0,-1,1483,946,0,0
266,78,0,0,0,0,0,0,0,0,0,-1,1490,946,0,0
273,78,0,0,0,0,0,0,0,0,0,-1,1497,946,0,0
280,78,0,0,0,0,0,0,0,0,0,-1,1504,946,0,0
287,78,0,0,0,0,0,0,0,0,0,-1,1511,946,0,0
294,78,0,0,0,0,0,0,0,0,0,-1,1518,946,0,0
301,78,0,0,0,0,0,0,0,0,0,-1,1525,946,0,0
308,78,0,0,0,0,0,0,0,0,0,-1,1532,946,0,0
315,78,0,0,0,0,0,0,0,0,0,-1,1539,946,0,0
322,78,0,0,0,0,0,0,0,0,0,-1,1546,946,0,0
329,78,0,0,0,0,0,0,0,0,0,-1,1553,946,0,0
336,78,0,0,0,0,0,0,0,0,0,-1,1560,946,0,0
343,78,0,0,0,0,0,0,0,0,0,-1,1567,946,0,0
350,78,0,0,0,0,0,0,0,0,0,-1,1574,946,0,0
357,78,0,0,0,0,0,0,0,0,0,-1,1581,946,0,0
364,78,0,0,0,0,0,0,0,0,0,-1,1588,946,0,0
371,78,0,0,0,0,0,0,0,0,0,-1,1595,946,0,0
378,78,0,0,0,0,0,0,0,0,0,-1,1602,946,0,0
385,78,0,0,0,0,0,0,0,0,0,-1,1609,946,0,0
392,78,0,0,0,0,0,0,0,0,0,-1,1616,946,0,0
399,78,0,0,0,0,0,0,0,0,0,-1,1623,946,0,0
406,78,0,0,0,0,0,0,0,0,0,-1,1630,946,0,0
413,78,0,0,0,0,0,0,0,0,0,-1,1637,946,0,0
420,78,0,0,0,0,0,0,0,0,0,-1,1644,946,0,0
427,78,0,0,0,0,0,0,0,0,0,-1,1651,946,0,0
434,78,0,0,0,0,0,0,0,0,0,-1,1658,946,0,0
441,78,0,0,0,0,0,0,0,0,0,-1,1665,946,0,0
448,78,0,0,0,0,0,0,0,0,0,-1,1672,946,0,0
455,78,0,0,0,0,0,0,0,0,0,-1,1679,946,0,0
462,78,0,0,0,0,0,0,0,0,0,-1,1686,946,0,0
469,78,0,0,0,0,0,0,0,0,0,-1,1693,946,0,0
476,78,0,0,0,0,0,0,0,0,0,-1,1700,946,0,0
483,78,0,0,0,0,0,0,0,0,0,-1,1707,946,0,0
490,78,0,0,0,0,0,0,0,0,0,-1,1714,946,0,0
497,78,0,0,0,0,0,0,0,0,0,-1,1721,946,0,0
504,78,0,0,0,0,0,0,0,0,0,-1,1728,946,0,0
511,78,0,0,0,0,0,0,0,0,0,-1,1735,946,0,0
518,78,0,0,0,0,0,0,0,0,0,-1,1742,946,0,0
525,78,0,0,0,0,0,0,0,0,0,-1,1749,946,0,0
532,78,0,0,0,0,0,0,0,0,0,-1,1756,946,0,0
539,78,0,0,0,0,0,0,0,0,0,-1,1763,946,0,0
546,78,0,0,0,0,0,0,0,0,0,-1,1770,946,0,0
553,78,0,0,0,0,0,0,0,0,0,-1,1777,946,0,0
560,78,0,0,0,0,0,0,0,0,0,-1,1784,946,0,0
567,78,0,0,0,0,0,0,0,0,0,-1,1791,946,0,0
574,78,0,0,0,0,0,0,0,0,0,-1,1798,946,0,0
581,78,0,0,0,0,0,0,0,0,0,-1,1805,946,0,0
588,78,0,0,0,0,0,0,0,0,0,-1,1812,946,0,0
595,78,0,0,0,0,0,0,0,0,0,-1,1819,946,0,0
602,78,0,0,0,0,0,0,0,0,0,-1,1826,946,0,0
609,78,0,0,0,0,0,0,0,0,0,-1,1833,946,0,0
616,78,0,0,0,0,0,0,0,0,0,-1,1840,946,0,0
623,78,0,0,0,0,0,0,0,0,0,-1,1847,946,0,0
630,78,0,0,0,0,0,0,0,0,0,-1,1854,946,0,0
637,78,60.802,2.74158,0,0,0,0,0,0,0,-1,1861,946,60.8021,-2.74158
644,78,60.9059,2.13849,0,0,0,0,0,0,0,-1,1868,946,60.9059,-2.13848
651,78,60.8831,2.5462,0.000682618,-0.00282346,0.00249933,0.00198241,-0.00412325,0.479564,0.00359661,0.0442144,1875,946,60.883,-2.54622
658,78,60.8486,3.00598,0.000511105,-0.00202198,0.00160582,0.00128975,-0.00280062,0.451486,0.00241468,0.0401101,1882,946,60.8487,-3.00599
665,78,60.7358,2.92853,0.000515212,-0.00121123,0.000880811,0.00088527,-0.00158129,0.397741,0.00144285,0.0400465,1889,946,60.7359,-2.92855
672,78,60.7061,2.62732,0.000262711,-0.000688484,0.000469422,0.000455357,-0.00088113,0.389432,0.000784565,0.039882,1896,946,60.7061,-2.62732
679,78,61.0005,2.43848,-1.1267e-05,-0.000634033,0.000335915,0.000135388,-0.000780688,0.41164,0.000570963,0.0390489,1903,946,61.0004,-2.43847
686,78,60.9331,2.55859,-0.000100687,-0.000754323,0.000132013,-7.50314e-05,-0.000779978,0.191946,0.000496867,0.0364788,1910,946,60.933,-2.55861
693,78,60.8622,2.6236,-0.000418081,-0.000660734,-0.000113362,-0.000373362,-0.000705453,-0.375736,0.000407526,0.0298975,1917,946,60.8622,-2.62358
700,78,60.8512,2.62885,-0.000844736,-0.000567839,-0.000288068,-0.000386677,-0.0010259,-1.00941,0.000598255,0.026249,1924,946,60.8511,-2.62886
707,78,60.9341,2.70209,0,0,0,0,0,0,0,-1,1931,946,60.9341,-2.70209
714,78,58.0748,4.31049,0,0,0,0,0,0,0,-1,1938,946,58.0749,-4.31051
721,78,57.9243,4.86749,-0.00229715,0.0010004,-0.00117025,0.00137349,-0.00267025,-1.26217,0.00237433,0.0329793,1945,946,57.9244,-4.86747
728,78,57.798,5.55237,-0.00275373,0.00189443,-0.000972011,0.0020895,-0.0029488,-1.37273,0.00292294,0.0357216,1952,946,57.798,-5.55238
735,78,57.8695,5.96527,-0.00286035,0.0031822,-0.000669537,0.0032555,-0.00293364,-1.46175,0.00357492,0.0257784,1959,946,57.8695,-5.96528
742,78,57.8917,6.40088,-0.00278571,0.00510457,-0.000578945,0.00514682,-0.00282796,-1.49794,0.00466867,0.0196973,1966,946,57.8918,-6.40086
749,78,57.7601,6.86694,-0.00232277,0.00847775,-0.000394012,0.00849211,-0.00233713,-1.53438,0.00658028,0.0158346,1973,946,57.7601,-6.86693
756,78,57.6963,7.27673,-0.00103213,0.0130697,-9.99019e-06,0.0130697,-0.00103214,-1.57009,0.00907678,0.0152623,1980,946,57.6963,-7.27671
763,78,57.5984,7.66888,0.000994985,0.0187872,0.000401236,0.0187962,0.00098594,1.54826,0.0122155,0.0173475,1987,946,57.5984,-7.66889
770,78,57.5122,8.09143,0.0038777,0.0251019,0.000859144,0.0251366,0.00384298,1.5304,0.015635,0.0233538,1994,946,57.5122,-8.09145
777,78,57.3904,8.82123,0.00737524,0.032074,0.000755368,0.032097,0.00735216,1.54025,0.019417,0.0419995,2001,946,57.3904,-8.82123
784,78,57.6519,9.66833,0.012206,0.0398347,-0.000236992,0.0398367,0.012204,-1.56222,0.0235677,0.0492005,2008,946,57.6519,-9.66832
791,78,57.6316,10.2905,0,0,0,0,0,0,0,-1,2015,946,57.6315,-10.2905
798,78,58.6025,9.51666,0,0,0,0,0,0,0,-1,2022,946,58.6025,-9.51663
805,78,50.8481,6.75513,0,0,0,0,0,0,0,-1,2029,946,50.848,-6.75512
812,78,0,0,0,0,0,0,0,0,0,-1,2036,946,0,0
-700,71,0,0,0,0,0,0,0,0,0,-1,524,953,0,0
-693,71,0,0,0,0,0,0,0,0,0,-1,531,953,0,0
-686,71,-49.0822,0.473816,0,0,0,0,0,0,0,-1,538,953,-49.0822,-0.473794
-679,71,-49.5477,3.64954,0,0,0,0,0,0,0,-1,545,953,-49.5477,-3.64957
-672,71,-48.461,4.26678,0,0,0,0,0,0,0,-1,552,953,-48.461,-4.2668
-665,71,-47.5378,3.81653,0,0,0,0,0,0,0,-1,559,953,-47.5378,-3.81656
-658,71,-43.611,6.72864,0,0,0,0,0,0,0,-1,566,953,-43.611,-6.72864
-651,71,-43.8923,6.35364,0.0108189,0.0650607,0.02192,0.0728114,0.0030682,1.23093,0.0475512,0.0478581,573,953,-43.8923,-6.35364
-644,71,-44.1964,5.96667,0.00241026,0.048129,0.0184767,0.0546625,-0.00412321,1.23091,0.0378909,0.0348382,580,953,-44.1964,-5.96668
-637,71,-44.459,5.55945,-0.00453279,0.0357873,0.0166546,0.0417769,-0.0105224,1.22556,0.0319418,0.0183683,587,953,-44.4591,-5.55944
-630,71,-44.5966,5.13562,-0.00740129,0.0196958,0.0122873,0.0244377,-0.0121432,1.20249,0.0215139,0.0167357,594,953,-44.5966,-5.13562
-623,71,-44.6298,4.70679,-0.00595221,0.0144847,0.00727791,0.0168115,-0.00827907,1.26135,0.0147626,0.0152037,601,953,-44.6298,-4.70679
-616,71,-44.6476,4.26184,-0.00386395,0.00994729,0.00436742,0.0112125,-0.00512913,1.28883,0.00965028,0.0149116,608,953,-44.6476,-4.26182
-609,71,-44.6218,3.8913,-0.00229549,0.00676933,0.00222408,0.00728561,-0.00281178,1.3427,0.00601744,0.0154564,615,953,-44.6217,-3.89128
-602,71,-44.5931,3.50854,-0.0014191,0.00464185,0.000532869,0.00468834,-0.00146559,1.48377,0.00371182,0.0167422,622,953,-44.5932,-3.50856
-595,71,-44.5917,3.10492,-0.000628343,0.00289437,-0.000552615,0.00297903,-0.000712998,-1.41879,0.00226147,0.0193101,629,953,-44.5917,-3.10489
-588,71,-44.5565,2.75177,0.000174605,0.00162289,-0.00109925,0.00221508,-0.000417586,-1.07665,0.0016338,0.0240814,636,953,-44.5565,-2.75174
-581,71,-44.3755,2.34674,0,0,0,0,0,0,0,-1,643,953,-44.3755,-2.34676
-574,71,-46.1652,0.725708,0,0,0,0,0,0,0,-1,650,953,-46.1652,-0.725686
-567,71,-46.1254,0.812439,0.0010734,-0.000275435,-0.00244811,0.00293829,-0.00214033,-0.65099,0.00294418,0.0211942,657,953,-46.1254,-0.812465
-560,71,-46.1086,0.875854,0.00108996,-0.000493145,-0.0025895,0.00300618,-0.00240937,-0.637069,0.00313299,0.030484,664,953,-46.1086,-0.875858
-553,71,-46.0976,0.798218,0.00119897,-0.000620249,-0.00263131,0.00307346,-0.00249474,-0.618985,0.00322058,0.0420625,671,953,-46.0976,-0.798236
-546,71,-46.0099,0.747864,0.00146241,-0.000762914,-0.00256639,0.00314696,-0.00244746,-0.580852,0.00323834,0.0438178,678,953,-46.0099,-0.747847
-539,71,-46,1.13434,0.00198549,-0.00117764,-0.00245384,0.00332329,-0.00251543,-0.49914,0.00338173,0.043135,685,953,-46,-1.13437
-532,71,-46.1044,1.28094,0.00297403,-0.00200676,-0.00279707,0.00422872,-0.00326145,-0.421667,0.00433646,0.0455728,692,953,-46.1044,-1.28094
-525,71,-46.0333,1.00751,0.00360805,-0.00200787,-0.00479587,0.00635752,-0.00475734,-0.520555,0.0064393,0.0457017,699,953,-46.0333,-1.00751
-518,71,0,0,0,0,0,0,0,0,0,-1,706,953,0,0
-511,71,0,0,0,0,0,0,0,0,0,-1,713,953,0,0
-504,71,0,0,0,0,0,0,0,0,0,-1,720,953,0,0
-497,71,0,0,0,0,0,0,0,0,0,-1,727,953,0,0
-490,71,0,0,0,0,0,0,0,0,0,-1,734,953,0,0
-483,71,0,0,0,0,0,0,0,0,0,-1,741,953,0,0
-476,71,0,0,0,0,0,0,0,0,0,-1,748,953,0,0
-469,71,0,0,0,0,0,0,0,0,0,-1,755,953,0,0
-462,71,0,0,0,0,0,0,0,0,0,-1,762,953,0,0
-455,71,0,0,0,0,0,0,0,0,0,-1,769,953,0,0
-448,71,0,0,0,0,0,0,0,0,0,-1,776,953,0,0
-441,71,0,0,0,0,0,0,0,0,0,-1,783,953,0,0
-434,71,0,0,0,0,0,0,0,0,0,-1,790,953,0,0
-427,71,0,0,0,0,0,0,0,0,0,-1,797,953,0,0
-420,71,0,0,0,0,0,0,0,0,0,-1,804,953,0,0
-413,71,0,0,0,0,0,0,0,0,0,-1,811,953,0,0
-406,71,0,0,0,0,0,0,0,0,0,-1,818,953,0,0
-399,71,0,0,0,0,0,0,0,0,0,-1,825,953,0,0
-392,71,0,0,0,0,0,0,0,0,0,-1,832,953,0,0
-385,71,0,0,0,0,0,0,0,0,0,-1,839,953,0,0
-378,71,0,0,0,0,0,0,0,0,0,-1,846,953,0,0
-371,71,0,0,0,0,0,0,0,0,0,-1,853,953,0,0
-364,71,0,0,0,0,0,0,0,0,0,-1,860,953,0,0
-357,71,0,0,0,0,0,0,0,0,0,-1,867,953,0,0
-350,71,0,0,0,0,0,0,0,0,0,-1,874,953,0,0
-343,71,0,0,0,0,0,0,0,0,0,-1,881,953,0,0
-336,71,0,0,0,0,0,0,0,0,0,-1,888,953,0,0
-329,71,0,0,0,0,0,0,0,0,0,-1,895,953,0,0
-322,71,0,0,0,0,0,0,0,0,0,-1,902,953,0,0
-315,71,0,0,0,0,0,0,0,0,0,-1,909,953,0,0
-308,71,0,0,0,0,0,0,0,0,0,-1,916,953,0,0
-301,71,0,0,0,0,0,0,0,0,0,-1,923,953,0,0
-294,71,0,0,0,0,0,0,0,0,0,-1,930,953,0,0
-287,71,0,0,0,0,0,0,0,0,0,-1,937,953,0,0
-280,71,0,0,0,0,0,0,0,0,0,-1,944,953,0,0
-273,71,0,0,0,0,0,0,0,0,0,-1,951,953,0,0
-266,71,0,0,0,0,0,0,0,0,0,-1,958,953,0,0
-259,71,0,0,0,0,0,0,0,0,0,-1,965,953,0,0
-252,71,0,0,0,0,0,0,0,0,0,-1,972,953,0,0
-245,71,0,0,0,0,0,0,0,0,0,-1,979,953,0,0
-238,71,0,0,0,0,0,0,0,0,0,-1,986,953,0,0
-231,71,0,0,0,0,0,0,0,0,0,-1,993,953,0,0
-224,71,0,0,0,0,0,0,0,0,0,-1,1000,953,0,0
-217,71,0,0,0,0,0,0,0,0,0,-1,1007,953,0,0
-210,71,0,0,0,0,0,0,0,0,0,-1,1014,953,0,0
-203,71,0,0,0,0,0,0,0,0,0,-1,1021,953,0,0
-196,71,0,0,0,0,0,0,0,0,0,-1,1028,953,0,0
-189,71,0,0,0,0,0,0,0,0,0,-1,1035,953,0,0
-182,71,0,0,0,0,0,0,0,0,0,-1,1042,953,0,0
-175,71,0,0,0,0,0,0,0,0,0,-1,1049,953,0,0
-168,71,0,0,0,0,0,0,0,0,0,-1,1056,953,0,0
-161,71,0,0,0,0,0,0,0,0,0,-1,1063,953,0,0
-154,71,0,0,0,0,0,0,0,0,0,-1,1070,953,0,0
-147,71,0,0,0,0,0,0,0,0,0,-1,1077,953,0,0
-140,71,0,0,0,0,0,0,0,0,0,-1,1084,953,0,0
-133,71,0,0,0,0,0,0,0,0,0,-1,1091,953,0,0
-126,71,0,0,0,0,0,0,0,0,0,-1,1098,953,0,0
-119,71,0,0,0,0,0,0,0,0,0,-1,1105,953,0,0
-112,71,0,0,0,0,0,0,0,0,0,-1,1112,953,0,0
-105,71,0,0,0,0,0,0,0,0,0,-1,1119,953,0,0
-98,71,0,0,0,0,0,0,0,0,0,-1,1126,953,0,0
-91,71,0,0,0,0,0,0,0,0,0,-1,1133,953,0,0
-84,71,0,0,0,0,0,0,0,0,0,-1,1140,953,0,0
-77,71,0,0,0,0,0,0,0,0,0,-1,1147,953,0,0
-70,71,0,0,0,0,0,0,0,0,0,-1,1154,953,0,0
-63,71,0,0,0,0,0,0,0,0,0,-1,1161,953,0,0
-56,71,0,0,0,0,0,0,0,0,0,-1,1168,953,0,0
-49,71,0,0,0,0,0,0,0,0,0,-1,1175,953,0,0
-42,71,0,0,0,0,0,0,0,0,0,-1,1182,953,0,0
-35,71,0,0,0,0,0,0,0,0,0,-1,1189,953,0,0
-28,71,0,0,0,0,0,0,0,0,0,-1,1196,953,0,0
-21,71,0,0,0,0,0,0,0,0,0,-1,1203,953,0,0
-14,71,0,0,0,0,0,0,0,0,0,-1,1210,953,0,0
-7,71,0,0,0,0,0,0,0,0,0,-1,1217,953,0,0
0,71,0,0,0,0,0,0,0,0,0,-1,1224,953,0,0
7,71,0,0,0,0,0,0,0,0,0,-1,1231,953,0,0
14,71,0,0,0,0,0,0,0,0,0,-1,1238,953,0,0
21,71,0,0,0,0,0,0,0,0,0,-1,1245,953,0,0
28,71,0,0,0,0,0,0,0,0,0,-1,1252,953,0,0
35,71,0,0,0,0,0,0,0,0,0,-1,1259,953,0,0
42,71,0,0,0,0,0,0,0,0,0,-1,1266,953,0,0
49,71,0,0,0,0,0,0,0,0,0,-1,1273,953,0,0
56,71,0,0,0,0,0,0,0,0,0,-1,1280,953,0,0
63,71,0,0,0,0,0,0,0,0,0,-1,1287,953,0,0
70,71,0,0,0,0,0,0,0,0,0,-1,1294,953,0,0
77,71,0,0,0,0,0,0,0,0,0,-1,1301,953,0,0
84,71,0,0,0,0,0,0,0,0,0,-1,1308,953,0,0
91,71,0,0,0,0,0,0,0,0,0,-1,1315,953,0,0
98,71,0,0,0,0,0,0,0,0,0,-1,1322,953,0,0
105,71,0,0,0,0,0,0,0,0,0,-1,1329,953,0,0
112,71,0,0,0,0,0,0,0,0,0,-1,1336,953,0,0
119,71,0,0,0,0,0,0,0,0,0,-1,1343,953,0,0
126,71,0,0,0,0,0,0,0,0,0,-1,1350,953,0,0
133,71,0,0,0,0,0,0,0,0,0,-1,1357,953,0,0
140,71,0,0,0,0,0,0,0,0,0,-1,1364,953,0,0
147,71,0,0,0,0,0,0,0,0,0,-1,1371,953,0,0
154,71,0,0,0,0,0,0,0,0,0,-1,1378,953,0,0
161,71,0,0,0,0,0,0,0,0,0,-1,1385,953,0,0
168,71,0,0,0,0,0,0,0,0,0,-1,1392,953,0,0
175,71,0,0,0,0,0,0,0,0,0,-1,1399,953,0,0
182,71,0,0,0,0,0,0,0,0,0,-1,1406,953,0,0
189,71,0,0,0,0,0,0,0,0,0,-1,1413,953,0,0
196,71,0,0,0,0,0,0,0,0,0,-1,1420,953,0,0
203,71,0,0,0,0,0,0,0,0,0,-1,1427,953,0,0
210,71,0,0,0,0,0,0,0,0,0,-1,1434,953,0,0
217,71,0,0,0,0,0,0,0,0,0,-1,1441,953,0,0
224,71,0,0,0,0,0,0,0,0,0,-1,1448,953,0,0
231,71,0,0,0,0,0,0,0,0,0,-1,1455,953,0,0
238,71,0,0,0,0,0,0,0,0,0,-1,1462,953,0,0
245,71,0,0,0,0,0,0,0,0,0,-1,1469,953,0,0
252,71,0,0,0,0,0,0,0,0,0,-1,1476,953,0,0
259,71,0,0,0,0,0,0,0,0,0,-1,1483,953,0,0
266,71,0,0,0,0,0,0,0,0,0,-1,1490,953,0,0
273,71,0,0,0,0,0,0,0,0,0,-1,1497,953,0,0
280,71,0,0,0,0,0,0,0,0,0,-1,1504,953,0,0
287,71,0,0,0,0,0,0,0,0,0,-1,1511,953,0,0
294,71,0,0,0,0,0,0,0,0,0,-1,1518,953,0,0
301,71,0,0,0,0,0,0,0,0,0,-1,1525,953,0,0
308,71,0,0,0,0,0,0,0,0,0,-1,1532,953,0,0
315,71,0,0,0,0,0,0,0,0,0,-1,1539,953,0,0
322,71,0,0,0,0,0,0,0,0,0,-1,1546,953,0,0
329,71,0,0,0,0,0,0,0,0,0,-1,1553,953,0,0
336,71,0,0,0,0,0,0,0,0,0,-1,1560,953,0,0
343,71,0,0,0,0,0,0,0,0,0,-1,1567,953,0,0
350,71,0,0,0,0,0,0,0,0,0,-1,1574,953,0,0
357,71,0,0,0,0,0,0,0,0,0,-1,1581,953,0,0
364,71,0,0,0,0,0,0,0,0,0,-1,1588,953,0,0
371,71,0,0,0,0,0,0,0,0,0,-1,1595,953,0,0
378,71,0,0,0,0,0,0,0,0,0,-1,1602,953,0,0
385,71,0,0,0,0,0,0,0,0,0,-1,1609,953,0,0
392,71,0,0,0,0,0,0,0,0,0,-1,1616,953,0,0
399,71,0,0,0,0,0,0,0,0,0,-1,1623,953,0,0
406,71,0,0,0,0,0,0,0,0,0,-1,1630,953,0,0
413,71,0,0,0,0,0,0,0,0,0,-1,1637,953,0,0
420,71,0,0,0,0,0,0,0,0,0,-1,1644,953,0,0
427,71,0,0,0,0,0,0,0,0,0,-1,1651,953,0,0
434,71,0,0,0,0,0,0,0,0,0,-1,1658,953,0,0
441,71,0,0,0,0,0,0,0,0,0,-1,1665,953,0,0
448,71,0,0,0,0,0,0,0,0,0,-1,1672,953,0,0
455,71,0,0,0,0,0,0,0,0,0,-1,1679,953,0,0
462,71,0,0,0,0,0,0,0,0,0,-1,1686,953,0,0
469,71,0,0,0,0,0,0,0,0,0,-1,1693,953,0,0
476,71,0,0,0,0,0,0,0,0,0,-1,1700,953,0,0
483,71,0,0,0,0,0,0,0,0,0,-1,1707,953,0,0
490,71,0,0,0,0,0,0,0,0,0,-1,1714,953,0,0
497,71,0,0,0,0,0,0,0,0,0,-1,1721,953,0,0
504,71,0,0,0,0,0,0,0,0,0,-1,1728,953,0,0
511,71,0,0,0,0,0,0,0,0,0,-1,1735,953,0,0
518,71,0,0,0,0,0,0,0,0,0,-1,1742,953,0,0
525,71,0,0,0,0,0,0,0,0,0,-1,1749,953,0,0
532,71,0,0,0,0,0,0,0,0,0,-1,1756,953,0,0
539,71,0,0,0,0,0,0,0,0,0,-1,1763,953,0,0
546,71,0,0,0,0,0,0,0,0,0,-1,1770,953,0,0
553,71,0,0,0,0,0,0,0,0,0,-1,1777,953,0,0
560,71,0,0,0,0,0,0,0,0,0,-1,1784,953,0,0
567,71,0,0,0,0,0,0,0,0,0,-1,1791,953,0,0
574,71,0,0,0,0,0,0,0,0,0,-1,1798,953,0,0
581,71,0,0,0,0,0,0,0,0,0,-1,1805,953,0,0
588,71,0,0,0,0,0,0,0,0,0,-1,1812,953,0,0
595,71,0,0,0,0,0,0,0,0,0,-1,1819,953,0,0
602,71,0,0,0,0,0,0,0,0,0,-1,1826,953,0,0
609,71,0,0,0,0,0,0,0,0,0,-1,1833,953,0,0
616,71,0,0,0,0,0,0,0,0,0,-1,1840,953,0,0
623,71,0,0,0,0,0,0,0,0,0,-1,1847,953,0,0
630,71,0,0,0,0,0,0,0,0,0,-1,1854,953,0,0
637,71,60.9192,2.56604,0,0,0,0,0,0,0,-1,1861,953,60.9192,-2.56602
644,71,60.8025,2.31793,0.000230073,-0.00415025,0.00408071,0.00267121,-0.0065914,0.539106,0.00550511,0.0447366,1868,953,60.8025,-2.31793
651,71,60.7388,2.19214,0.000127416,-0.00298359,0.00270352,0.00169098,-0.00454716,0.524344,0.0037253,0.0425734,1875,953,60.7387,-2.19215
658,71,60.8939,2.745,0.000106854,-0.0020608,0.00172814,0.00106292,-0.00301686,0.505322,0.00244385,0.0394899,1882,953,60.8939,-2.74497
665,71,60.8367,2.8241,0.000147741,-0.00118515,0.000949533,0.000641365,-0.00167878,0.479409,0.00138345,0.0406433,1889,953,60.8366,-2.82411
672,71,60.8298,2.6629,-8.94902e-05,-0.000589214,0.000498447,0.000218214,-0.000896919,0.553062,0.000682415,0.0402558,1896,953,60.8299,-2.66288
679,71,61.015,2.5141,-0.000363188,-0.000507651,0.000361837,-6.64436e-05,-0.000804395,0.686881,0.000515545,0.0394027,1903,953,61.015,-2.51408
686,71,60.973,2.54767,-0.000439597,-0.000646194,0.000177606,-0.000337434,-0.000748357,0.522001,0.000432758,0.0376763,1910,953,60.973,-2.54766
693,71,60.88,2.46155,-0.000713904,-0.00063755,-3.75751e-05,-0.000622161,-0.000729294,-1.18207,0.000454711,0.0329537,1917,953,60.88,-2.46158
700,71,60.85,2.46619,-0.00109831,-0.000550391,-0.000211237,-0.00047841,-0.00117029,-1.24238,0.000679406,0.0308672,1924,953,60.8499,-2.46619
707,71,60.9137,2.6167,0,0,0,0,0,0,0,-1,1931,953,60.9137,-2.61671
714,71,58.8441,4.50439,0,0,0,0,0,0,0,-1,1938,953,58.8442,-4.50438
721,71,58.5215,4.9917,-0.00259766,0.000966625,-0.00109063,0.00127386,-0.00290489,-1.29621,0.00247311,0.0409407,1945,953,58.5215,-4.99169
728,71,58.2771,5.57495,-0.00302592,0.00193016,-0.000843172,0.00206968,-0.00316544,-1.40681,0.00304448,0.0296512,1952,953,58.2771,-5.57498
735,71,58.3307,6.04706,-0.00315547,0.003248,-0.000579537,0.00330003,-0.0032075,-1.48126,0.00375725,0.0227894,1959,953,58.3306,-6.04705
742,71,58.3812,6.45569,-0.00317617,0.0051515,-0.000670776,0.00520518,-0.00322986,-1.49093,0.00491428,0.0225068,1966,953,58.3813,-6.45569
749,71,58.3141,6.86798,-0.00287596,0.00848848,-0.000827799,0.00854846,-0.00293594,-1.49846,0.0068894,0.0204783,1973,953,58.314,-6.86798
756,71,58.2487,7.22626,-0.00188465,0.0130016,-0.0010596,0.0130766,-0.00195969,-1.50009,0.00943904,0.0184481,1980,953,58.2487,-7.22624
763,71,58.1587,7.62506,-0.000245737,0.0186843,-0.00159923,0.0188184,-0.000379891,-1.48711,0.0126742,0.0220337,1987,953,58.1587,-7.62504
770,71,57.9124,7.95111,0.00220295,0.0249868,-0.0023065,0.0252179,0.0019718,-1.47091,0.0161947,0.0264141,1994,953,57.9124,-7.95108
777,71,57.8735,8.54419,0.00515681,0.0317713,-0.0038756,0.0323241,0.00460393,-1.4291,0.0201905,0.0457559,2001,953,57.8736,-8.54422
784,71,57.917,9.21503,0,0,0,0,0,0,0,-1,2008,953,57.9169,-9.21504
791,71,56.6904,8.60608,0,0,0,0,0,0,0,-1,2015,953,56.6905,-8.60608
798,71,59.2974,9.13574,0,0,0,0,0,0,0,-1,2022,953,59.2973,-9.13574
805,71,59.978,6.41992,0,0,0,0,0,0,0,-1,2029,953,59.9781,-6.41992
812,71,0,0,0,0,0,0,0,0,0,-1,2036,953,0,0
-700,64,0,0,0,0,0,0,0,0,0,-1,524,960,0,0
-693,64,0,0,0,0,0,0,0,0,0,-1,531,960,0,0
-686,64,-45.2951,5.68024,0,0,0,0,0,0,0,-1,538,960,-45.2951,-5.68021
-679,64,-49.2274,2.22168,0,0,0,0,0,0,0,-1,545,960,-49.2274,-2.22166
-672,64,-48.0488,2.95728,0,0,0,0,0,0,0,-1,552,960,-48.0488,-2.95728
-665,64,-47.275,3.63086,0,0,0,0,0,0,0,-1,559,960,-47.275,-3.63085
-658,64,-43.9119,6.85516,0,0,0,0,0,0,0,-1,566,960,-43.9118,-6.85519
-651,64,-44.4671,6.32172,0.0134138,0.0625194,0.0259952,0.073724,0.00220926,1.16383,0.0484297,0.047572,573,960,-44.4671,-6.32175
-644,64,-44.9782,5.70325,0.00476749,0.0468809,0.0215445,0.0559498,-0.00430139,1.17237,0.0388132,0.0360443,580,960,-44.9782,-5.70322
-637,64,-44.9537,5.34979,-0.00292444,0.0357668,0.0188847,0.0434561,-0.0106137,1.18413,0.0330811,0.018697,587,960,-44.9537,-5.34977
-630,64,-45.0238,5.01855,-0.00651212,0.0197816,0.0133574,0.0253767,-0.0121072,1.17413,0.0220887,0.0150063,594,960,-45.0238,-5.01855
-623,64,-45.0613,4.67133,-0.00568608,0.0148185,0.00748188,0.0172583,-0.00812583,1.25558,0.0149683,0.0148754,601,960,-45.0613,-4.67133
-616,64,-45.0991,4.27789,-0.00381107,0.010333,0.0041967,0.0114845,-0.00496253,1.30301,0.00974136,0.0175029,608,960,-45.099,-4.27789
-609,64,-45.0628,3.95123,-0.00234049,0.00725791,0.00180931,0.00758764,-0.00267022,1.39053,0.00614502,0.0171568,615,960,-45.0628,-3.95121
-602,64,-45.04,3.59222,-0.00146741,0.00516728,-8.66827e-05,0.00516841,-0.00146854,-1.55773,0.00402543,0.01724,622,960,-45.04,-3.59221
-595,64,-45.0383,3.24622,-0.000613836,0.0033325,-0.00136527,0.00375878,-0.00104012,-1.26816,0.00291509,0.0216676,629,960,-45.0383,-3.24623
-588,64,-44.9485,2.98608,0.000269379,0.00200856,-0.00204423,0.00336047,-0.00108253,-0.986498,0.00267519,0.0336089,636,960,-44.9486,-2.98608
-581,64,-44.774,2.7326,0,0,0,0,0,0,0,-1,643,960,-44.774,-2.73259
-574,64,-46.11,0.798401,0,0,0,0,0,0,0,-1,650,960,-46.11,-0.798406
-567,64,-46.0945,0.864441,0.00139408,9.10986e-05,-0.00346937,0.0042726,-0.00278742,-0.692587,0.00410606,0.0253332,657,960,-46.0945,-0.864429
-560,64,-46.1652,0.940125,0.00151859,-0.000121303,-0.00353551,0.00432799,-0.0029307,-0.671453,0.00421661,0.0345321,664,960,-46.1652,-0.940129
-553,64,-46.1962,0.953857,0.00175519,-0.000238676,-0.0034798,0.00437805,-0.00286154,-0.645889,0.00421024,0.0390584,671,960,-46.1962,-0.953845
-546,64,-46.1743,0.885254,0.002165,-0.000378638,-0.00332394,0.00445213,-0.00266577,-0.602679,0.00415243,0.0399487,678,960,-46.1743,-0.885241
-539,64,-46.0844,0.965149,0.00283357,-0.000787305,-0.00318525,0.00468695,-0.00264068,-0.526975,0.00428524,0.0417382,685,960,-46.0844,-0.965135
-532,64,-46.1273,1.06531,0.00401306,-0.00138611,-0.00384768,0.00601373,-0.00338678,-0.479494,0.00549757,0.043186,692,960,-46.1273,-1.0653
-525,64,-46.1432,0.769897,0.00486511,-0.000800094,-0.00678959,0.00938928,-0.00532427,-0.587776,0.00860226,0.0422209,699,960,-46.1432,-0.769892
-518,64,0,0,0,0,0,0,0,0,0,-1,706,960,0,0
-511,64,0,0,0,0,0,0,0,0,0,-1,713,960,0,0
-504,64,0,0,0,0,0,0,0,0,0,-1,720,960,0,0
-497,64,0,0,0,0,0,0,0,0,0,-1,727,960,0,0
-490,64,0,0,0,0,0,0,0,0,0,-1,734,960,0,0
-483,64,0,0,0,0,0,0,0,0,0,-1,741,960,0,0
-476,64,0,0,0,0,0,0,0,0,0,-1,748,960,0,0
-469,64,0,0,0,0,0,0,0,0,0,-1,755,960,0,0
-462,64,0,0,0,0,0,0,0,0,0,-1,762,960,0,0
-455,64,0,0,0,0,0,0,0,0,0,-1,769,960,0,0
-448,64,0,0,0,0,0,0,0,0,0,-1,776,960,0,0
-441,64,0,0,0,0,0,0,0,0,0,-1,783,960,0,0
-434,64,0,0,0,0,0,0,0,0,0,-1,790,960,0,0
-427,64,0,0,0,0,0,0,0,0,0,-1,797,960,0,0
-420,64,0,0,0,0,0,0,0,0,0,-1,804,960,0,0
-413,64,0,0,0,0,0,0,0,0,0,-1,811,960,0,0
-406,64,0,0,0,0,0,0,0,0,0,-1,818,960,0,0
-399,64,0,0,0,0,0,0,0,0,0,-1,825,960,0,0
-392,64,0,0,0,0,0,0,0,0,0,-1,832,960,0,0
-385,64,0,0,0,0,0,0,0,0,0,-1,839,960,0,0
-378,64,0,0,0,0,0,0,0,0,0,-1,846,960,0,0
-371,64,0,0,0,0,0,0,0,0,0,-1,853,960,0,0
-364,64,0,0,0,0,0,0,0,0,0,-1,860,960,0,0
-357,64,0,0,0,0,0,0,0,0,0,-1,867,960,0,0
-350,64,0,0,0,0,0,0,0,0,0,-1,874,960,0,0
-343,64,0,0,0,0,0,0,0,0,0,-1,881,960,0,0
-336,64,0,0,0,0,0,0,0,0,0,-1,888,960,0,0
-329,64,0,0,0,0,0,0,0,0,0,-1,895,960,0,0
-322,64,0,0,0,0,0,0,0,0,0,-1,902,960,0,0
-315,64,0,0,0,0,0,0,0,0,0,-1,909,960,0,0
-308,64,0,0,0,0,0,0,0,0,0,-1,916,960,0,0
-301,64,0,0,0,0,0,0,0,0,0,-1,923,960,0,0
-294,64,0,0,0,0,0,0,0,0,0,-1,930,960,0,0
-287,64,0,0,0,0,0,0,0,0,0,-1,937,960,0,0
-280,64,0,0,0,0,0,0,0,0,0,-1,944,960,0,0
-273,64,0,0,0,0,0,0,0,0,0,-1,951,960,0,0
-266,64,0,0,0,0,0,0,0,0,0,-1,958,960,0,0
-259,64,0,0,0,0,0,0,0,0,0,-1,965,960,0,0
-252,64,0,0,0,0,0,0,0,0,0,-1,972,960,0,0
-245,64,0,0,0,0,0,0,0,0,0,-1,979,960,0,0
-238,64,0,0,0,0,0,0,0,0,0,-1,986,960,0,0
-231,64,0,0,0,0,0,0,0,0,0,-1,993,960,0,0
-224,64,0,0,0,0,0,0,0,0,0,-1,1000,960,0,0
-217,64,0,0,0,0,0,0,0,0,0,-1,1007,960,0,0
-210,64,0,0,0,0,0,0,0,0,0,-1,1014,960,0,0
-203,64,0,0,0,0,0,0,0,0,0,-1,1021,960,0,0
-196,64,0,0,0,0,0,0,0,0,0,-1,1028,960,0,0
-189,64,0,0,0,0,0,0,0,0,0,-1,1035,960,0,0
-182,64,0,0,0,0,0,0,0,0,0,-1,1042,960,0,0
-175,64,0,0,0,0,0,0,0,0,0,-1,1049,960,0,0
-168,64,0,0,0,0,0,0,0,0,0,-1,1056,960,0,0
-161,64,0,0,0,0,0,0,0,0,0,-1,1063,960,0,0
-154,64,0,0,0,0,0,0,0,0,0,-1,1070,960,0,0
-147,64,0,0,0,0,0,0,0,0,0,-1,1077,960,0,0
-140,64,0,0,0,0,0,0,0,0,0,-1,1084,960,0,0
-133,64,0,0,0,0,0,0,0,0,0,-1,1091,960,0,0
-126,64,0,0,0,0,0,0,0,0,0,-1,1098,960,0,0
-119,64,0,0,0,0,0,0,0,0,0,-1,1105,960,0,0
-112,64,0,0,0,0,0,0,0,0,0,-1,1112,960,0,0
-105,64,0,0,0,0,0,0,0,0,0,-1,1119,960,0,0
-98,64,0,0,0,0,0,0,0,0,0,-1,1126,960,0,0
-91,64,0,0,0,0,0,0,0,0,0,-1,1133,960,0,0
-84,64,0,0,0,0,0,0,0,0,0,-1,1140,960,0,0
-77,64,0,0,0,0,0,0,0,0,0,-1,1147,960,0,0
-70,64,0,0,0,0,0,0,0,0,0,-1,1154,960,0,0
-63,64,0,0,0,0,0,0,0,0,0,-1,1161,960,0,0
-56,64,0,0,0,0,0,0,0,0,0,-1,1168,960,0,0
-49,64,0,0,0,0,0,0,0,0,0,-1,1175,960,0,0
-42,64,0,0,0,0,0,0,0,0,0,-1,1182,960,0,0
-35,64,0,0,0,0,0,0,0,0,0,-1,1189,960,0,0
-28,64,0,0,0,0,0,0,0,0,0,-1,1196,960,0,0
-21,64,0,0,0,0,0,0,0,0,0,-1,1203,960,0,0
-14,64,0,0,0,0,0,0,0,0,0,-1,1210,960,0,0
-7,64,0,0,0,0,0,0,0,0,0,-1,1217,960,0,0
0,64,0,0,0,0,0,0,0,0,0,-1,1224,960,0,0
7,64,0,0,0,0,0,0,0,0,0,-1,1231,960,0,0
14,64,0,0,0,0,0,0,0,0,0,-1,1238,960,0,0
21,64,0,0,0,0,0,0,0,0,0,-1,1245,960,0,0
28,64,0,0,0,0,0,0,0,0,0,-1,1252,960,0,0
35,64,0,0,0,0,0,0,0,0,0,-1,1259,960,0,0
42,64,0,0,0,0,0,0,0,0,0,-1,1266,960,0,0
49,64,0,0,0,0,0,0,0,0,0,-1,1273,960,0,0
56,64,0,0,0,0,0,0,0,0,0,-1,1280,960,0,0
63,64,0,0,0,0,0,0,0,0,0,-1,1287,960,0,0
70,64,0,0,0,0,0,0,0,0,0,-1,1294,960,0,0
77,64,0,0,0,0,0,0,0,0,0,-1,1301,960,0,0
84,64,0,0,0,0,0,0,0,0,0,-1,1308,960,0,0
91,64,0,0,0,0,0,0,0,0,0,-1,1315,960,0,0
98,64,0,0,0,0,0,0,0,0,0,-1,1322,960,0,0
105,64,0,0,0,0,0,0,0,0,0,-1,1329,960,0,0
112,64,0,0,0,0,0,0,0,0,0,-1,1336,960,0,0
119,64,0,0,0,0,0,0,0,0,0,-1,1343,960,0,0
126,64,0,0,0,0,0,0,0,0,0,-1,1350,960,0,0
133,64,0,0,0,0,0,0,0,0,0,-1,1357,960,0,0
140,64,0,0,0,0,0,0,0,0,0,-1,1364,960,0,0
147,64,0,0,0,0,0,0,0,0,0,-1,1371,960,0,0
154,64,0,0,0,0,0,0,0,0,0,-1,1378,960,0,0
161,64,0,0,0,0,0,0,0,0,0,-1,1385,960,0,0
168,64,0,0,0,0,0,0,0,0,0,-1,1392,960,0,0
175,64,0,0,0,0,0,0,0,0,0,-1,1399,960,0,0
182,64,0,0,0,0,0,0,0,0,0,-1,1406,960,0,0
189,64,0,0,0,0,0,0,0,0,0,-1,1413,960,0,0
196,64,0,0,0,0,0,0,0,0,0,-1,1420,960,0,0
203,64,0,0,0,0,0,0,0,0,0,-1,1427,960,0,0
210,64,0,0,0,0,0,0,0,0,0,-1,1434,960,0,0
217,64,0,0,0,0,0,0,0,0,0,-1,1441,960,0,0
224,64,0,0,0,0,0,0,0,0,0,-1,1448,960,0,0
231,64,0,0,0,0,0,0,0,0,0,-1,1455,960,0,0
238,64,0,0,0,0,0,0,0,0,0,-1,1462,960,0,0
245,64,0,0,0,0,0,0,0,0,0,-1,1469,960,0,0
252,64,0,0,0,0,0,0,0,0,0,-1,1476,960,0,0
259,64,0,0,0,0,0,0,0,0,0,-1,1483,960,0,0
266,64,0,0,0,0,0,0,0,0,0,-1,1490,960,0,0
273,64,0,0,0,0,0,0,0,0,0,-1,1497,960,0,0
280,64,0,0,0,0,0,0,0,0,0,-1,1504,960,0,0
287,64,0,0,0,0,0,0,0,0,0,-1,1511,960,0,0
294,64,0,0,0,0,0,0,0,0,0,-1,1518,960,0,0
301,64,0,0,0,0,0,0,0,0,0,-1,1525,960,0,0
308,64,0,0,0,0,0,0,0,0,0,-1,1532,960,0,0
315,64,0,0,0,0,0,0,0,0,0,-1,1539,960,0,0
322,64,0,0,0,0,0,0,0,0,0,-1,1546,960,0,0
329,64,0,0,0,0,0,0,0,0,0,-1,1553,960,0,0
336,64,0,0,0,0,0,0,0,0,0,-1,1560,960,0,0
343,64,0,0,0,0,0,0,0,0,0,-1,1567,960,0,0
350,64,0,0,0,0,0,0,0,0,0,-1,1574,960,0,0
357,64,0,0,0,0,0,0,0,0,0,-1,1581,960,0,0
364,64,0,0,0,0,0,0,0,0,0,-1,1588,960,0,0
371,64,0,0,0,0,0,0,0,0,0,-1,1595,960,0,0
378,64,0,0,0,0,0,0,0,0,0,-1,1602,960,0,0
385,64,0,0,0,0,0,0,0,0,0,-1,1609,960,0,0
392,64,0,0,0,0,0,0,0,0,0,-1,1616,960,0,0
399,64,0,0,0,0,0,0,0,0,0,-1,1623,960,0,0
406,64,0,0,0,0,0,0,0,0,0,-1,1630,960,0,0
413,64,0,0,0,0,0,0,0,0,0,-1,1637,960,0,0
420,64,0,0,0,0,0,0,0,0,0,-1,1644,960,0,0
427,64,0,0,0,0,0,0,0,0,0,-1,1651,960,0,0
434,64,0,0,0,0,0,0,0,0,0,-1,1658,960,0,0
441,64,0,0,0,0,0,0,0,0,0,-1,1665,960,0,0
448,64,0,0,0,0,0,0,0,0,0,-1,1672,960,0,0
455,64,0,0,0,0,0,0,0,0,0,-1,1679,960,0,0
462,64,0,0,0,0,0,0,0,0,0,-1,1686,960,0,0
469,64,0,0,0,0,0,0,0,0,0,-1,1693,960,0,0
476,64,0,0,0,0,0,0,0,0,0,-1,1700,960,0,0
483,64,0,0,0,0,0,0,0,0,0,-1,1707,960,0,0
490,64,0,0,0,0,0,0,0,0,0,-1,1714,960,0,0
497,64,0,0,0,0,0,0,0,0,0,-1,1721,960,0,0
504,64,0,0,0,0,0,0,0,0,0,-1,1728,960,0,0
511,64,0,0,0,0,0,0,0,0,0,-1,1735,960,0,0
518,64,0,0,0,0,0,0,0,0,0,-1,1742,960,0,0
525,64,0,0,0,0,0,0,0,0,0,-1,1749,960,0,0
532,64,0,0,0,0,0,0,0,0,0,-1,1756,960,0,0
539,64,0,0,0,0,0,0,0,0,0,-1,1763,960,0,0
546,64,0,0,0,0,0,0,0,0,0,-1,1770,960,0,0
553,64,0,0,0,0,0,0,0,0,0,-1,1777,960,0,0
560,64,0,0,0,0,0,0,0,0,0,-1,1784,960,0,0
567,64,0,0,0,0,0,0,0,0,0,-1,1791,960,0,0
574,64,0,0,0,0,0,0,0,0,0,-1,1798,960,0,0
581,64,0,0,0,0,0,0,0,0,0,-1,1805,960,0,0
588,64,0,0,0,0,0,0,0,0,0,-1,1812,960,0,0
595,64,0,0,0,0,0,0,0,0,0,-1,1819,960,0,0
602,64,0,0,0,0,0,0,0,0,0,-1,1826,960,0,0
609,64,0,0,0,0,0,0,0,0,0,-1,1833,960,0,0
616,64,0,0,0,0,0,0,0,0,0,-1,1840,960,0,0
623,64,0,0,0,0,0,0,0,0,0,-1,1847,960,0,0
630,64,0,0,0,0,0,0,0,0,0,-1,1854,960,0,0
637,64,0,0,0,0,0,0,0,0,0,-1,1861,960,0,0
644,64,60.8741,2.43799,-0.000750656,-0.00315007,0.004066,0.00228893,-0.00618966,0.64194,0.00506486,0.0426711,1868,960,60.8741,-2.43797
651,64,60.8646,2.41266,-0.000643912,-0.0020044,0.0026263,0.00138881,-0.00403712,0.658677,0.00325466,0.0395662,1875,960,60.8646,-2.41263
658,64,60.8706,2.83014,-0.000484447,-0.00123177,0.00166847,0.000851686,-0.00256791,0.675238,0.00205551,0.0381367,1882,960,60.8707,-2.83013
665,64,60.9165,3.0238,-0.000291792,-0.000540203,0.000934923,0.00052714,-0.00135913,0.719359,0.0011238,0.045338,1889,960,60.9165,-3.02382
672,64,60.9547,2.79022,-0.000349233,-9.60305e-05,0.00050968,0.000302537,-0.0007478,0.907131,0.000624311,0.0466584,1896,960,60.9547,-2.79024
679,64,61.0375,2.47144,-0.000473393,-0.000136996,0.000396094,0.000125132,-0.000735522,0.986182,0.000536941,0.0398664,1903,960,61.0375,-2.47144
686,64,60.9917,2.47247,-0.000437361,-0.000405743,0.000252191,-0.000168866,-0.000674238,0.816701,0.00040511,0.0353142,1910,960,60.9918,-2.47245
693,64,60.9006,2.4754,-0.000607896,-0.000565755,7.67457e-05,-0.00050724,-0.000666411,0.919372,0.000401866,0.0327139,1917,960,60.9007,-2.4754
700,64,60.8676,2.57379,-0.000901057,-0.00055462,-8.06485e-05,-0.000536765,-0.000918911,-1.35293,0.000533031,0.032542,1924,960,60.8675,-2.57376
707,64,60.9562,2.61438,0,0,0,0,0,0,0,-1,1931,960,60.9562,-2.6144
714,64,59.967,3.85602,0,0,0,0,0,0,0,-1,1938,960,59.967,-3.85601
721,64,58.8423,5.0863,0,0,0,0,0,0,0,-1,1945,960,58.8423,-5.08628
728,64,58.7059,5.61371,-0.00289885,0.00188902,-0.000702518,0.00198997,-0.0029998,-1.42807,0.00290044,0.0230144,1952,960,58.706,-5.61371
735,64,58.7092,6.10089,-0.00311781,0.00323396,-0.000496914,0.0032726,-0.00315645,-1.49319,0.00371202,0.0317893,1959,960,58.7092,-6.10092
742,64,58.83,6.4339,-0.00331085,0.00515393,-0.0007832,0.00522578,-0.0033827,-1.47931,0.00500794,0.0275671,1966,960,58.83,-6.43393
749,64,58.7754,6.84082,-0.00327696,0.00848544,-0.00128804,0.00862484,-0.00341636,-1.46299,0.0071655,0.0171243,1973,960,58.7754,-6.84082
756,64,58.7145,7.20361,-0.00273077,0.0129105,-0.00208521,0.0131837,-0.00300398,-1.44051,0.0099429,0.0158024,1980,960,58.7144,-7.20362
763,64,58.6803,7.57324,-0.00166309,0.0184729,-0.00347486,0.0190557,-0.00224587,-1.40463,0.0135148,0.0185727,1987,960,58.6804,-7.57326
770,64,58.4158,7.86127,0.000201623,0.0247233,-0.00522727,0.0257911,-0.000866172,-1.36929,0.0174899,0.0194506,1994,960,58.4158,-7.86125
777,64,58.2129,8.27142,0.00251789,0.0313103,-0.00797871,0.0333735,0.000454731,-1.31776,0.022099,0.0356786,2001,960,58.213,-8.27143
784,64,58.1416,8.87805,0.00549597,0.038289,-0.0121576,0.0423045,0.00148041,-1.25179,0.0277227,0.0423625,2008,960,58.1416,-8.87805
791,64,57.875,9.5354,0,0,0,0,0,0,0,-1,2015,960,57.875,-9.5354
798,64,60.4878,7.5744,0,0,0,0,0,0,0,-1,2022,960,60.4878,-7.57441
805,64,59.8613,6.30939,0,0,0,0,0,0,0,-1,2029,960,59.8613,-6.30941
812,64,0,0,0,0,0,0,0,0,0,-1,2036,960,0,0
-700,57,0,0,0,0,0,0,0,0,0,-1,524,967,0,0
-693,57,0,0,0,0,0,0,0,0,0,-1,531,967,0,0
-686,57,-45.6094,4.72693,0,0,0,0,0,0,0,-1,538,967,-45.6094,-4.72695
-679,57,-45.5983,4.65076,0,0,0,0,0,0,0,-1,545,967,-45.5983,-4.65074
-672,57,-47.1147,2.62976,0,0,0,0,0,0,0,-1,552,967,-47.1147,-2.62976
-665,57,-46.7627,3.4082,0,0,0,0,0,0,0,-1,559,967,-46.7627,-3.40823
-658,57,-46.2707,4.2298,0,0,0,0,0,0,0,-1,566,967,-46.2707,-4.22978
-651,57,-45.8395,4.81116,0.0154718,0.0583531,0.0297958,0.0736206,0.000204269,1.09727,0.0490125,0.0483785,573,967,-45.8396,-4.81118
-644,57,-45.4815,5.25397,0.00672511,0.0444268,0.024365,0.0563819,-0.00522998,1.11464,0.039447,0.0367547,580,967,-45.4815,-5.25399
-637,57,-45.3697,5.13873,-0.00143831,0.0349069,0.0208431,0.0443871,-0.0109185,1.14393,0.0338235,0.020546,587,967,-45.3697,-5.13874
-630,57,-45.4373,4.87628,-0.0056654,0.0195747,0.0141867,0.0259422,-0.0120329,1.14891,0.0224098,0.0147568,594,967,-45.4373,-4.8763
-623,57,-45.4691,4.61884,-0.00548044,0.0149655,0.00751695,0.0174317,-0.00794658,1.25378,0.0149894,0.0138748,601,967,-45.4691,-4.61884
-616,57,-45.4811,4.29688,-0.0037552,0.0105344,0.00391919,0.0115387,-0.00475953,1.31994,0.0096773,0.0152847,608,967,-45.4811,-4.29688
-609,57,-45.4883,3.96381,-0.00232307,0.00756884,0.00132504,0.00774326,-0.00249748,1.43992,0.00616564,0.0153834,615,967,-45.4884,-3.96378
-602,57,-45.4568,3.61786,-0.00141886,0.0055171,-0.000751725,0.00559763,-0.0014994,-1.46407,0.0043192,0.0116717,622,967,-45.4569,-3.61787
-595,57,-45.4224,3.31818,-0.000523467,0.00365484,-0.0022021,0.00460112,-0.00146974,-1.16494,0.00365713,0.015012,629,967,-45.4224,-3.3182
-588,57,-45.3317,3.11389,0.000412276,0.00231591,-0.00300961,0.00452063,-0.00179244,-0.938551,0.00375659,0.0259037,636,967,-45.3316,-3.1139
-581,57,-45.5896,1.97406,0.00106328,0.00141396,-0.00374166,0.00498439,-0.00250715,-0.808812,0.00440336,0.0382797,643,967,-45.5896,-1.97405
-574,57,-46.0447,0.793335,0,0,0,0,0,0,0,-1,650,967,-46.0447,-0.793335
-567,57,-46.0973,0.90332,0.0016977,0.000482047,-0.00451808,0.00564866,-0.00346891,-0.718533,0.00531394,0.0325803,657,967,-46.0973,-0.903322
-560,57,-46.1528,0.951721,0.00190488,0.000332394,-0.00451707,0.00570362,-0.00346635,-0.699231,0.00534655,0.0394113,664,967,-46.1528,-0.951735
-553,57,-46.1005,0.907471,0.00221991,0.000300036,-0.00437139,0.00573552,-0.00321558,-0.677316,0.00523574,0.038589,671,967,-46.1005,-0.907487
-546,57,-46.077,0.772705,0.00272134,0.000268185,-0.00413291,0.00580585,-0.00281632,-0.641147,0.00507677,0.0379677,678,967,-46.077,-0.772685
-539,57,-46.0749,0.867981,0.00350528,2.27071e-05,-0.00399091,0.00611824,-0.00259025,-0.579691,0.00516355,0.0401288,685,967,-46.0749,-0.867978
-532,57,-46.1435,1.11761,0.00494088,-8.26577e-05,-0.00506145,0.00807953,-0.00322131,-0.555075,0.00672251,0.0393416,692,967,-46.1435,-1.11761
-525,57,-46.0581,0.816772,0.00617482,0.00129463,-0.00896625,0.0130271,-0.00555762,-0.652544,0.011015,0.0400963,699,967,-46.0581,-0.816745
-518,57,0,0,0,0,0,0,0,0,0,-1,706,967,0,0
-511,57,0,0,0,0,0,0,0,0,0,-1,713,967,0,0
-504,57,0,0,0,0,0,0,0,0,0,-1,720,967,0,0
-497,57,0,0,0,0,0,0,0,0,0,-1,727,967,0,0
-490,57,0,0,0,0,0,0,0,0,0,-1,734,967,0,0
-483,57,0,0,0,0,0,0,0,0,0,-1,741,967,0,0
-476,57,0,0,0,0,0,0,0,0,0,-1,748,967,0,0
-469,57,0,0,0,0,0,0,0,0,0,-1,755,967,0,0
-462,57,0,0,0,0,0,0,0,0,0,-1,762,967,0,0
-455,57,0,0,0,0,0,0,0,0,0,-1,769,967,0,0
-448,57,0,0,0,0,0,0,0,0,0,-1,776,967,0,0
-441,57,0,0,0,0,0,0,0,0,0,-1,783,967,0,0
-434,57,0,0,0,0,0,0,0,0,0,-1,790,967,0,0
-427,57,0,0,0,0,0,0,0,0,0,-1,797,967,0,0
-420,57,0,0,0,0,0,0,0,0,0,-1,804,967,0,0
-413,57,0,0,0,0,0,0,0,0,0,-1,811,967,0,0
-406,57,0,0,0,0,0,0,0,0,0,-1,818,967,0,0
-399,57,0,0,0,0,0,0,0,0,0,-1,825,967,0,0
-392,57,0,0,0,0,0,0,0,0,0,-1,832,967,0,0
-385,57,0,0,0,0,0,0,0,0,0,-1,839,967,0,0
-378,57,0,0,0,0,0,0,0,0,0,-1,846,967,0,0
-371,57,0,0,0,0,0,0,0,0,0,-1,853,967,0,0
-364,57,0,0,0,0,0,0,0,0,0,-1,860,967,0,0
-357,57,0,0,0,0,0,0,0,0,0,-1,867,967,0,0
-350,57,0,0,0,0,0,0,0,0,0,-1,874,967,0,0
-343,57,0,0,0,0,0,0,0,0,0,-1,881,967,0,0
-336,57,0,0,0,0,0,0,0,0,0,-1,888,967,0,0
-329,57,0,0,0,0,0,0,0,0,0,-1,895,967,0,0
-322,57,0,0,0,0,0,0,0,0,0,-1,902,967,0,0
-315,57,0,0,0,0,0,0,0,0,0,-1,909,967,0,0
-308,57,0,0,0,0,0,0,0,0,0,-1,916,967,0,0
-301,57,0,0,0,0,0,0,0,0,0,-1,923,967,0,0
-294,57,0,0,0,0,0,0,0,0,0,-1,930,967,0,0
-287,57,0,0,0,0,0,0,0,0,0,-1,937,967,0,0
-280,57,0,0,0,0,0,0,0,0,0,-1,944,967,0,0
-273,57,0,0,0,0,0,0,0,0,0,-1,951,967,0,0
-266,57,0,0,0,0,0,0,0,0,0,-1,958,967,0,0
-259,57,0,0,0,0,0,0,0,0,0,-1,965,967,0,0
-252,57,0,0,0,0,0,0,0,0,0,-1,972,967,0,0
-245,57,0,0,0,0,0,0,0,0,0,-1,979,967,0,0
-238,57,0,0,0,0,0,0,0,0,0,-1,986,967,0,0
-231,57,0,0,0,0,0,0,0,0,0,-1,993,967,0,0
-224,57,0,0,0,0,0,0,0,0,0,-1,1000,967,0,0
-217,57,0,0,0,0,0,0,0,0,0,-1,1007,967,0,0
-210,57,0,0,0,0,0,0,0,0,0,-1,1014,967,0,0
-203,57,0,0,0,0,0,0,0,0,0,-1,1021,967,0,0
-196,57,0,0,0,0,0,0,0,0,0,-1,1028,967,0,0
-189,57,0,0,0,0,0,0,0,0,0,-1,1035,967,0,0
-182,57,0,0,0,0,0,0,0,0,0,-1,1042,967,0,0
-175,57,0,0,0,0,0,0,0,0,0,-1,1049,967,0,0
-168,57,0,0,0,0,0,0,0,0,0,-1,1056,967,0,0
-161,57,0,0,0,0,0,0,0,0,0,-1,1063,967,0,0
-154,57,0,0,0,0,0,0,0,0,0,-1,1070,967,0,0
-147,57,0,0,0,0,0,0,0,0,0,-1,1077,967,0,0
-140,57,0,0,0,0,0,0,0,0,0,-1,1084,967,0,0
-133,57,0,0,0,0,0,0,0,0,0,-1,1091,967,0,0
-126,57,0,0,0,0,0,0,0,0,0,-1,1098,967,0,0
-119,57,0,0,0,0,0,0,0,0,0,-1,1105,967,0,0
-112,57,0,0,0,0,0,0,0,0,0,-1,1112,967,0,0
-105,57,0,0,0,0,0,0,0,0,0,-1,1119,967,0,0
-98,57,0,0,0,0,0,0,0,0,0,-1,1126,967,0,0
-91,57,0,0,0,0,0,0,0,0,0,-1,1133,967,0,0
-84,57,0,0,0,0,0,0,0,0,0,-1,1140,967,0,0
-77,57,0,0,0,0,0,0,0,0,0,-1,1147,967,0,0
-70,57,0,0,0,0,0,0,0,0,0,-1,1154,967,0,0
-63,57,0,0,0,0,0,0,0,0,0,-1,1161,967,0,0
-56,57,0,0,0,0,0,0,0,0,0,-1,1168,967,0,0
-49,57,0,0,0,0,0,0,0,0,0,-1,1175,967,0,0
-42,57,0,0,0,0,0,0,0,0,0,-1,1182,967,0,0
-35,57,0,0,0,0,0,0,0,0,0,-1,1189,967,0,0
-28,57,0,0,0,0,0,0,0,0,0,-1,1196,967,0,0
-21,57,0,0,0,0,0,0,0,0,0,-1,1203,967,0,0
-14,57,0,0,0,0,0,0,0,0,0,-1,1210,967,0,0
-7,57,0,0,0,0,0,0,0,0,0,-1,1217,967,0,0
0,57,0,0,0,0,0,0,0,0,0,-1,1224,967,0,0
7,57,0,0,0,0,0,0,0,0,0,-1,1231,967,0,0
14,57,0,0,0,0,0,0,0,0,0,-1,1238,967,0,0
21,57,0,0,0,0,0,0,0,0,0,-1,1245,967,0,0
28,57,0,0,0,0,0,0,0,0,0,-1,1252,967,0,0
35,57,0,0,0,0,0,0,0,0,0,-1,1259,967,0,0
42,57,0,0,0,0,0,0,0,0,0,-1,1266,967,0,0
49,57,0,0,0,0,0,0,0,0,0,-1,1273,967,0,0
56,57,0,0,0,0,0,0,0,0,0,-1,1280,967,0,0
63,57,0,0,0,0,0,0,0,0,0,-1,1287,967,0,0
70,57,0,0,0,0,0,0,0,0,0,-1,1294,967,0,0
77,57,0,0,0,0,0,0,0,0,0,-1,1301,967,0,0
84,57,0,0,0,0,0,0,0,0,0,-1,1308,967,0,0
91,57,0,0,0,0,0,0,0,0,0,-1,1315,967,0,0
98,57,0,0,0,0,0,0,0,0,0,-1,1322,967,0,0
105,57,0,0,0,0,0,0,0,0,0,-1,1329,967,0,0
112,57,0,0,0,0,0,0,0,0,0,-1,1336,967,0,0
119,57,0,0,0,0,0,0,0,0,0,-1,1343,967,0,0
126,57,0,0,0,0,0,0,0,0,0,-1,1350,967,0,0
133,57,0,0,0,0,0,0,0,0,0,-1,1357,967,0,0
140,57,0,0,0,0,0,0,0,0,0,-1,1364,967,0,0
147,57,0,0,0,0,0,0,0,0,0,-1,1371,967,0,0
154,57,0,0,0,0,0,0,0,0,0,-1,1378,967,0,0
161,57,0,0,0,0,0,0,0,0,0,-1,1385,967,0,0
168,57,0,0,0,0,0,0,0,0,0,-1,1392,967,0,0
175,57,0,0,0,0,0,0,0,0,0,-1,1399,967,0,0
182,57,0,0,0,0,0,0,0,0,0,-1,1406,967,0,0
189,57,0,0,0,0,0,0,0,0,0,-1,1413,967,0,0
196,57,0,0,0,0,0,0,0,0,0,-1,1420,967,0,0
203,57,0,0,0,0,0,0,0,0,0,-1,1427,967,0,0
210,57,0,0,0,0,0,0,0,0,0,-1,1434,967,0,0
217,57,0,0,0,0,0,0,0,0,0,-1,1441,967,0,0
224,57,0,0,0,0,0,0,0,0,0,-1,1448,967,0,0
231,57,0,0,0,0,0,0,0,0,0,-1,1455,967,0,0
238,57,0,0,0,0,0,0,0,0,0,-1,1462,967,0,0
245,57,0,0,0,0,0,0,0,0,0,-1,1469,967,0,0
252,57,0,0,0,0,0,0,0,0,0,-1,1476,967,0,0
259,57,0,0,0,0,0,0,0,0,0,-1,1483,967,0,0
266,57,0,0,0,0,0,0,0,0,0,-1,1490,967,0,0
273,57,0,0,0,0,0,0,0,0,0,-1,1497,967,0,0
280,57,0,0,0,0,0,0,0,0,0,-1,1504,967,0,0
287,57,0,0,0,0,0,0,0,0,0,-1,1511,967,0,0
294,57,0,0,0,0,0,0,0,0,0,-1,1518,967,0,0
301,57,0,0,0,0,0,0,0,0,0,-1,1525,967,0,0
308,57,0,0,0,0,0,0,0,0,0,-1,1532,967,0,0
315,57,0,0,0,0,0,0,0,0,0,-1,1539,967,0,0
322,57,0,0,0,0,0,0,0,0,0,-1,1546,967,0,0
329,57,0,0,0,0,0,0,0,0,0,-1,1553,967,0,0
336,57,0,0,0,0,0,0,0,0,0,-1,1560,967,0,0
343,57,0,0,0,0,0,0,0,0,0,-1,1567,967,0,0
350,57,0,0,0,0,0,0,0,0,0,-1,1574,967,0,0
357,57,0,0,0,0,0,0,0,0,0,-1,1581,967,0,0
364,57,0,0,0,0,0,0,0,0,0,-1,1588,967,0,0
371,57,0,0,0,0,0,0,0,0,0,-1,1595,967,0,0
378,57,0,0,0,0,0,0,0,0,0,-1,1602,967,0,0
385,57,0,0,0,0,0,0,0,0,0,-1,1609,967,0,0
392,57,0,0,0,0,0,0,0,0,0,-1,1616,967,0,0
399,57,0,0,0,0,0,0,0,0,0,-1,1623,967,0,0
406,57,0,0,0,0,0,0,0,0,0,-1,1630,967,0,0
413,57,0,0,0,0,0,0,0,0,0,-1,1637,967,0,0
420,57,0,0,0,0,0,0,0,0,0,-1,1644,967,0,0
427,57,0,0,0,0,0,0,0,0,0,-1,1651,967,0,0
434,57,0,0,0,0,0,0,0,0,0,-1,1658,967,0,0
441,57,0,0,0,0,0,0,0,0,0,-1,1665,967,0,0
448,57,0,0,0,0,0,0,0,0,0,-1,1672,967,0,0
455,57,0,0,0,0,0,0,0,0,0,-1,1679,967,0,0
462,57,0,0,0,0,0,0,0,0,0,-1,1686,967,0,0
469,57,0,0,0,0,0,0,0,0,0,-1,1693,967,0,0
476,57,0,0,0,0,0,0,0,0,0,-1,1700,967,0,0
483,57,0,0,0,0,0,0,0,0,0,-1,1707,967,0,0
490,57,0,0,0,0,0,0,0,0,0,-1,1714,967,0,0
497,57,0,0,0,0,0,0,0,0,0,-1,1721,967,0,0
504,57,0,0,0,0,0,0,0,0,0,-1,1728,967,0,0
511,57,0,0,0,0,0,0,0,0,0,-1,1735,967,0,0
518,57,0,0,0,0,0,0,0,0,0,-1,1742,967,0,0
525,57,0,0,0,0,0,0,0,0,0,-1,1749,967,0,0
532,57,0,0,0,0,0,0,0,0,0,-1,1756,967,0,0
539,57,0,0,0,0,0,0,0,0,0,-1,1763,967,0,0
546,57,0,0,0,0,0,0,0,0,0,-1,1770,967,0,0
553,57,0,0,0,0,0,0,0,0,0,-1,1777,967,0,0
560,57,0,0,0,0,0,0,0,0,0,-1,1784,967,0,0
567,57,0,0,0,0,0,0,0,0,0,-1,1791,967,0,0
574,57,0,0,0,0,0,0,0,0,0,-1,1798,967,0,0
581,57,0,0,0,0,0,0,0,0,0,-1,1805,967,0,0
588,57,0,0,0,0,0,0,0,0,0,-1,1812,967,0,0
595,57,0,0,0,0,0,0,0,0,0,-1,1819,967,0,0
602,57,0,0,0,0,0,0,0,0,0,-1,1826,967,0,0
609,57,0,0,0,0,0,0,0,0,0,-1,1833,967,0,0
616,57,0,0,0,0,0,0,0,0,0,-1,1840,967,0,0
623,57,0,0,0,0,0,0,0,0,0,-1,1847,967,0,0
630,57,0,0,0,0,0,0,0,0,0,-1,1854,967,0,0
637,57,0,0,0,0,0,0,0,0,0,-1,1861,967,0,0
644,57,60.8704,2.67767,-0.000814838,-0.00182755,0.00351,0.00222514,-0.00486753,0.713762,0.00418861,0.0404763,1868,967,60.8703,-2.6777
651,57,60.8284,2.73895,-0.000746033,-0.000966302,0.00221925,0.00136581,-0.00307815,0.760605,0.00262845,0.0336629,1875,967,60.8284,-2.73896
658,57,60.8628,2.81274,-0.000576446,-0.000506822,0.001403,0.000861798,-0.00194507,0.797802,0.00166029,0.0343518,1882,967,60.8628,-2.81277
665,57,60.9244,2.87756,-0.000366413,-9.94554e-05,0.000801926,0.000580024,-0.00104589,0.867866,0.000951481,0.0462355,1889,967,60.9244,-2.87754
672,57,60.8643,2.73602,-0.000359319,0.000119678,0.000471137,0.000408695,-0.000648337,1.02055,0.000615483,0.0478941,1896,967,60.8643,-2.73599
679,57,60.916,2.54022,-0.000419087,-6.77616e-05,0.000413904,0.000206214,-0.000693062,0.986081,0.000543968,0.0402998,1903,967,60.916,-2.54023
686,57,60.8604,2.40985,-0.000339809,-0.000449039,0.000334161,-5.58296e-05,-0.000733018,0.704395,0.000471173,0.0369043,1910,967,60.8603,-2.40988
693,57,60.8173,2.57312,-0.000463027,-0.000738712,0.000211087,-0.000348762,-0.000852977,0.496153,0.000495185,0.0324908,1917,967,60.8172,-2.57311
700,57,60.8484,2.66815,-0.000711757,-0.000784598,6.31068e-05,-0.000675315,-0.00082104,0.523681,0.000505831,0.0265113,1924,967,60.8483,-2.66814
707,57,60.9398,2.70935,0,0,0,0,0,0,0,-1,1931,967,60.9398,-2.70934
714,57,60.0471,3.67883,0,0,0,0,0,0,0,-1,1938,967,60.0471,-3.67883
721,57,59.313,5.2796,0,0,0,0,0,0,0,-1,1945,967,59.313,-5.27962
728,57,59.1581,5.70258,-0.00289767,0.00184551,-0.000542013,0.00190666,-0.00295882,-1.45845,0.0028309,0.0244647,1952,967,59.158,-5.70257
735,57,59.1975,6.11438,-0.00321359,0.00323746,-0.000426078,0.00326548,-0.00324161,-1.50513,0.00375688,0.0304637,1959,967,59.1975,-6.11435
742,57,59.2605,6.39056,-0.0035878,0.00517971,-0.000962767,0.00528419,-0.00369228,-1.4627,0.00520966,0.0217933,1966,967,59.2604,-6.39057
749,57,59.1874,6.7851,-0.00380703,0.0084696,-0.00184273,0.00874023,-0.00407766,-1.42498,0.00756185,0.0144864,1973,967,59.1874,-6.78511
756,57,59.1183,7.1355,-0.0036413,0.0127395,-0.00315891,0.0133275,-0.00422936,-1.38674,0.0105804,0.0118092,1980,967,59.1183,-7.13548
763,57,59.0321,7.47192,-0.00302879,0.0181166,-0.00534988,0.0193931,-0.00430528,-1.33657,0.0145773,0.0128439,1987,967,59.0321,-7.47193
770,57,58.8933,7.76697,-0.00161628,0.0242875,-0.00813434,0.02663,-0.0039588,-1.2904,0.0192094,0.0124414,1994,967,58.8932,-7.76698
777,57,58.7466,8.12451,0.000253218,0.030724,-0.0120098,0.0348884,-0.00391117,-1.23702,0.0246663,0.0262048,2001,967,58.7465,-8.12453
784,57,58.408,9.00397,0.00259489,0.0374193,-0.0174014,0.0446241,-0.00460987,-1.17825,0.031399,0.0398384,2008,967,58.4081,-9.00397
791,57,58.1282,9.88361,0,0,0,0,0,0,0,-1,2015,967,58.1281,-9.88358
798,57,60.2061,8.2359,0,0,0,0,0,0,0,-1,2022,967,60.2059,-8.2359
805,57,59.7292,6.22009,0,0,0,0,0,0,0,-1,2029,967,59.7293,-6.22009
812,57,0,0,0,0,0,0,0,0,0,-1,2036,967,0,0
-700,50,0,0,0,0,0,0,0,0,0,-1,524,974,0,0
-693,50,-45.7726,3.16083,0.14209,0.213437,0.0177696,0.217618,0.137909,1.33973,0.127131,0.0464518,531,974,-45.7726,-3.16082
-686,50,-45.9155,3.72858,0.109077,0.168428,0.0363886,0.185708,0.0917976,1.12746,0.107221,0.0449677,538,974,-45.9155,-3.72859
-679,50,-45.7681,4.09125,0.0823306,0.133088,0.0441564,0.158639,0.0567792,1.04622,0.0928149,0.0476469,545,974,-45.7681,-4.09125
-672,50,-45.188,4.84625,0,0,0,0,0,0,0,-1,552,974,-45.188,-4.84625
-665,50,-46.054,3.17572,0,0,0,0,0,0,0,-1,559,974,-46.0539,-3.17572
-658,50,-45.4432,4.10754,0,0,0,0,0,0,0,-1,566,974,-45.4432,-4.10753
-651,50,-45.5809,4.55334,0.0170411,0.0526149,0.0331279,0.072429,-0.0027729,1.03177,0.0492363,0.0449667,573,974,-45.581,-4.55332
-644,50,-45.621,5.11707,0.0082814,0.0407395,0.0267556,0.0558034,-0.00678246,1.05801,0.0396569,0.033096,580,974,-45.621,-5.11707
-637,50,-45.7166,4.97449,-0.000105336,0.0330431,0.0223129,0.044264,-0.0113263,1.10484,0.033921,0.0189027,587,974,-45.7166,-4.97448
-630,50,-45.7839,4.76544,-0.00481188,0.0190222,0.0147408,0.0260605,-0.0118502,1.12533,0.0223944,0.0119171,594,974,-45.7839,-4.76543
-623,50,-45.809,4.56042,-0.00522648,0.014859,0.00751863,0.0173616,-0.00772911,1.24947,0.0148377,0.0129703,601,974,-45.809,-4.56044
-616,50,-45.8237,4.30035,-0.00364476,0.0105437,0.00373798,0.0114682,-0.0045693,1.32833,0.00954055,0.0132622,608,974,-45.8237,-4.30038
-609,50,-45.8443,3.93585,-0.00224598,0.00774608,0.00101732,0.0078486,-0.0023485,1.47036,0.00616616,0.0117372,615,974,-45.8443,-3.93587
-602,50,-45.8426,3.638,-0.00131862,0.0057845,-0.00118423,0.00597673,-0.00151085,-1.40987,0.00457209,0.0116064,622,974,-45.8426,-3.63802
-595,50,-45.8265,3.37311,-0.000418452,0.00397734,-0.00276643,0.0053127,-0.00175381,-1.12108,0.00424882,0.013515,629,974,-45.8265,-3.37308
-588,50,-45.8182,2.88641,0.000549699,0.00267608,-0.00369638,0.00545913,-0.00223335,-0.925433,0.00456957,0.0239809,636,974,-45.8181,-2.88638
-581,50,-45.9785,1.68939,0.00124156,0.00183554,-0.00449755,0.00604589,-0.0029688,-0.818367,0.00530474,0.0294322,643,974,-45.9785,-1.68939
-574,50,-46.1219,0.537964,0,0,0,0,0,0,0,-1,650,974,-46.122,-0.537975
-567,50,-46.0381,0.926453,0.00191648,0.00103383,-0.00531591,0.00680935,-0.00385904,-0.743983,0.00623741,0.0351286,657,974,-46.0381,-0.926453
-560,50,-46.0635,0.97644,0.00214193,0.000964063,-0.00527082,0.00685662,-0.00375062,-0.729761,0.00621099,0.0409283,664,974,-46.0635,-0.976415
-553,50,-46.1437,0.829224,0.00243984,0.0010184,-0.00507,0.00684869,-0.00339045,-0.715761,0.00602292,0.0392723,671,974,-46.1437,-0.829224
-546,50,-46.073,0.77356,0.00289229,0.001055,-0.00478603,0.00684704,-0.00289975,-0.69058,0.00577909,0.0374034,678,974,-46.073,-0.773538
-539,50,-45.9462,0.950439,0.00359056,0.000892434,-0.00466978,0.00710223,-0.00261924,-0.644781,0.00580822,0.0419676,685,974,-45.9462,-0.950454
-532,50,-46.0888,1.07184,0.00496259,0.00112695,-0.00610022,0.00943935,-0.00334981,-0.633097,0.00765775,0.0431852,692,974,-46.0888,-1.07184
-525,50,-46.0667,0.831604,0.0061649,0.00299166,-0.0107208,0.0154159,-0.00625934,-0.711935,0.012881,0.0422301,699,974,-46.0667,-0.831579
-518,50,0,0,0,0,0,0,0,0,0,-1,706,974,0,0
-511,50,0,0,0,0,0,0,0,0,0,-1,713,974,0,0
-504,50,0,0,0,0,0,0,0,0,0,-1,720,974,0,0
-497,50,0,0,0,0,0,0,0,0,0,-1,727,974,0,0
-490,50,0,0,0,0,0,0,0,0,0,-1,734,974,0,0
-483,50,0,0,0,0,0,0,0,0,0,-1,741,974,0,0
-476,50,0,0,0,0,0,0,0,0,0,-1,748,974,0,0
-469,50,0,0,0,0,0,0,0,0,0,-1,755,974,0,0
-462,50,0,0,0,0,0,0,0,0,0,-1,762,974,0,0
-455,50,0,0,0,0,0,0,0,0,0,-1,769,974,0,0
-448,50,0,0,0,0,0,0,0,0,0,-1,776,974,0,0
-441,50,0,0,0,0,0,0,0,0,0,-1,783,974,0,0
-434,50,0,0,0,0,0,0,0,0,0,-1,790,974,0,0
-427,50,0,0,0,0,0,0,0,0,0,-1,797,974,0,0
-420,50,0,0,0,0,0,0,0,0,0,-1,804,974,0,0
-413,50,0,0,0,0,0,0,0,0,0,-1,811,974,0,0
-406,50,0,0,0,0,0,0,0,0,0,-1,818,974,0,0
-399,50,0,0,0,0,0,0,0,0,0,-1,825,974,0,0
-392,50,0,0,0,0,0,0,0,0,0,-1,832,974,0,0
-385,50,0,0,0,0,0,0,0,0,0,-1,839,974,0,0
-378,50,0,0,0,0,0,0,0,0,0,-1,846,974,0,0
-371,50,0,0,0,0,0,0,0,0,0,-1,853,974,0,0
-364,50,0,0,0,0,0,0,0,0,0,-1,860,974,0,0
-357,50,0,0,0,0,0,0,0,0,0,-1,867,974,0,0
-350,50,0,0,0,0,0,0,0,0,0,-1,874,974,0,0
-343,50,0,0,0,0,0,0,0,0,0,-1,881,974,0,0
-336,50,0,0,0,0,0,0,0,0,0,-1,888,974,0,0
-329,50,0,0,0,0,0,0,0,0,0,-1,895,974,0,0
-322,50,0,0,0,0,0,0,0,0,0,-1,902,974,0,0
-315,50,0,0,0,0,0,0,0,0,0,-1,909,974,0,0
-308,50,0,0,0,0,0,0,0,0,0,-1,916,974,0,0
-301,50,0,0,0,0,0,0,0,0,0,-1,923,974,0,0
-294,50,0,0,0,0,0,0,0,0,0,-1,930,974,0,0
-287,50,0,0,0,0,0,0,0,0,0,-1,937,974,0,0
-280,50,0,0,0,0,0,0,0,0,0,-1,944,974,0,0
-273,50,0,0,0,0,0,0,0,0,0,-1,951,974,0,0
-266,50,0,0,0,0,0,0,0,0,0,-1,958,974,0,0
-259,50,0,0,0,0,0,0,0,0,0,-1,965,974,0,0
-252,50,0,0,0,0,0,0,0,0,0,-1,972,974,0,0
-245,50,0,0,0,0,0,0,0,0,0,-1,979,974,0,0
-238,50,0,0,0,0,0,0,0,0,0,-1,986,974,0,0
-231,50,0,0,0,0,0,0,0,0,0,-1,993,974,0,0
-224,50,0,0,0,0,0,0,0,0,0,-1,1000,974,0,0
-217,50,0,0,0,0,0,0,0,0,0,-1,1007,974,0,0
-210,50,0,0,0,0,0,0,0,0,0,-1,1014,974,0,0
-203,50,0,0,0,0,0,0,0,0,0,-1,1021,974,0,0
-196,50,0,0,0,0,0,0,0,0,0,-1,1028,974,0,0
-189,50,0,0,0,0,0,0,0,0,0,-1,1035,974,0,0
-182,50,0,0,0,0,0,0,0,0,0,-1,1042,974,0,0
-175,50,0,0,0,0,0,0,0,0,0,-1,1049,974,0,0
-168,50,0,0,0,0,0,0,0,0,0,-1,1056,974,0,0
-161,50,0,0,0,0,0,0,0,0,0,-1,1063,974,0,0
-154,50,0,0,0,0,0,0,0,0,0,-1,1070,974,0,0
-147,50,0,0,0,0,0,0,0,0,0,-1,1077,974,0,0
-140,50,0,0,0,0,0,0,0,0,0,-1,1084,974,0,0
-133,50,0,0,0,0,0,0,0,0,0,-1,1091,974,0,0
-126,50,0,0,0,0,0,0,0,0,0,-1,1098,974,0,0
-119,50,0,0,0,0,0,0,0,0,0,-1,1105,974,0,0
-112,50,0,0,0,0,0,0,0,0,0,-1,1112,974,0,0
-105,50,0,0,0,0,0,0,0,0,0,-1,1119,974,0,0
-98,50,0,0,0,0,0,0,0,0,0,-1,1126,974,0,0
-91,50,0,0,0,0,0,0,0,0,0,-1,1133,974,0,0
-84,50,0,0,0,0,0,0,0,0,0,-1,1140,974,0,0
-77,50,0,0,0,0,0,0,0,0,0,-1,1147,974,0,0
-70,50,0,0,0,0,0,0,0,0,0,-1,1154,974,0,0
-63,50,0,0,0,0,0,0,0,0,0,-1,1161,974,0,0
-56,50,0,0,0,0,0,0,0,0,0,-1,1168,974,0,0
-49,50,0,0,0,0,0,0,0,0,0,-1,1175,974,0,0
-42,50,0,0,0,0,0,0,0,0,0,-1,1182,974,0,0
-35,50,0,0,0,0,0,0,0,0,0,-1,1189,974,0,0
-28,50,0,0,0,0,0,0,0,0,0,-1,1196,974,0,0
-21,50,0,0,0,0,0,0,0,0,0,-1,1203,974,0,0
-14,50,0,0,0,0,0,0,0,0,0,-1,1210,974,0,0
-7,50,0,0,0,0,0,0,0,0,0,-1,1217,974,0,0
0,50,0,0,0,0,0,0,0,0,0,-1,1224,974,0,0
7,50,0,0,0,0,0,0,0,0,0,-1,1231,974,0,0
14,50,0,0,0,0,0,0,0,0,0,-1,1238,974,0,0
21,50,0,0,0,0,0,0,0,0,0,-1,1245,974,0,0
28,50,0,0,0,0,0,0,0,0,0,-1,1252,974,0,0
35,50,0,0,0,0,0,0,0,0,0,-1,1259,974,0,0
42,50,0,0,0,0,0,0,0,0,0,-1,1266,974,0,0
49,50,0,0,0,0,0,0,0,0,0,-1,1273,974,0,0
56,50,0,0,0,0,0,0,0,0,0,-1,1280,974,0,0
63,50,0,0,0,0,0,0,0,0,0,-1,1287,974,0,0
70,50,0,0,0,0,0,0,0,0,0,-1,1294,974,0,0
77,50,0,0,0,0,0,0,0,0,0,-1,1301,974,0,0
84,50,0,0,0,0,0,0,0,0,0,-1,1308,974,0,0
91,50,0,0,0,0,0,0,0,0,0,-1,1315,974,0,0
98,50,0,0,0,0,0,0,0,0,0,-1,1322,974,0,0
105,50,0,0,0,0,0,0,0,0,0,-1,1329,974,0,0
112,50,0,0,0,0,0,0,0,0,0,-1,1336,974,0,0
119,50,0,0,0,0,0,0,0,0,0,-1,1343,974,0,0
126,50,0,0,0,0,0,0,0,0,0,-1,1350,974,0,0
133,50,0,0,0,0,0,0,0,0,0,-1,1357,974,0,0
140,50,0,0,0,0,0,0,0,0,0,-1,1364,974,0,0
147,50,0,0,0,0,0,0,0,0,0,-1,1371,974,0,0
154,50,0,0,0,0,0,0,0,0,0,-1,1378,974,0,0
161,50,0,0,0,0,0,0,0,0,0,-1,1385,974,0,0
168,50,0,0,0,0,0,0,0,0,0,-1,1392,974,0,0
175,50,0,0,0,0,0,0,0,0,0,-1,1399,974,0,0
182,50,0,0,0,0,0,0,0,0,0,-1,1406,974,0,0
189,50,0,0,0,0,0,0,0,0,0,-1,1413,974,0,0
196,50,0,0,0,0,0,0,0,0,0,-1,1420,974,0,0
203,50,0,0,0,0,0,0,0,0,0,-1,1427,974,0,0
210,50,0,0,0,0,0,0,0,0,0,-1,1434,974,0,0
217,50,0,0,0,0,0,0,0,0,0,-1,1441,974,0,0
224,50,0,0,0,0,0,0,0,0,0,-1,1448,974,0,0
231,50,0,0,0,0,0,0,0,0,0,-1,1455,974,0,0
238,50,0,0,0,0,0,0,0,0,0,-1,1462,974,0,0
245,50,0,0,0,0,0,0,0,0,0,-1,1469,974,0,0
252,50,0,0,0,0,0,0,0,0,0,-1,1476,974,0,0
259,50,0,0,0,0,0,0,0,0,0,-1,1483,974,0,0
266,50,0,0,0,0,0,0,0,0,0,-1,1490,974,0,0
273,50,0,0,0,0,0,0,0,0,0,-1,1497,974,0,0
280,50,0,0,0,0,0,0,0,0,0,-1,1504,974,0,0
287,50,0,0,0,0,0,0,0,0,0,-1,1511,974,0,0
294,50,0,0,0,0,0,0,0,0,0,-1,1518,974,0,0
301,50,0,0,0,0,0,0,0,0,0,-1,1525,974,0,0
308,50,0,0,0,0,0,0,0,0,0,-1,1532,974,0,0
315,50,0,0,0,0,0,0,0,0,0,-1,1539,974,0,0
322,50,0,0,0,0,0,0,0,0,0,-1,1546,974,0,0
329,50,0,0,0,0,0,0,0,0,0,-1,1553,974,0,0
336,50,0,0,0,0,0,0,0,0,0,-1,1560,974,0,0
343,50,0,0,0,0,0,0,0,0,0,-1,1567,974,0,0
350,50,0,0,0,0,0,0,0,0,0,-1,1574,974,0,0
357,50,0,0,0,0,0,0,0,0,0,-1,1581,974,0,0
364,50,0,0,0,0,0,0,0,0,0,-1,1588,974,0,0
371,50,0,0,0,0,0,0,0,0,0,-1,1595,974,0,0
378,50,0,0,0,0,0,0,0,0,0,-1,1602,974,0,0
385,50,0,0,0,0,0,0,0,0,0,-1,1609,974,0,0
392,50,0,0,0,0,0,0,0,0,0,-1,1616,974,0,0
399,50,0,0,0,0,0,0,0,0,0,-1,1623,974,0,0
406,50,0,0,0,0,0,0,0,0,0,-1,1630,974,0,0
413,50,0,0,0,0,0,0,0,0,0,-1,1637,974,0,0
420,50,0,0,0,0,0,0,0,0,0,-1,1644,974,0,0
427,50,0,0,0,0,0,0,0,0,0,-1,1651,974,0,0
434,50,0,0,0,0,0,0,0,0,0,-1,1658,974,0,0
441,50,0,0,0,0,0,0,0,0,0,-1,1665,974,0,0
448,50,0,0,0,0,0,0,0,0,0,-1,1672,974,0,0
455,50,0,0,0,0,0,0,0,0,0,-1,1679,974,0,0
462,50,0,0,0,0,0,0,0,0,0,-1,1686,974,0,0
469,50,0,0,0,0,0,0,0,0,0,-1,1693,974,0,0
476,50,0,0,0,0,0,0,0,0,0,-1,1700,974,0,0
483,50,0,0,0,0,0,0,0,0,0,-1,1707,974,0,0
490,50,0,0,0,0,0,0,0,0,0,-1,1714,974,0,0
497,50,0,0,0,0,0,0,0,0,0,-1,1721,974,0,0
504,50,0,0,0,0,0,0,0,0,0,-1,1728,974,0,0
511,50,0,0,0,0,0,0,0,0,0,-1,1735,974,0,0
518,50,0,0,0,0,0,0,0,0,0,-1,1742,974,0,0
525,50,0,0,0,0,0,0,0,0,0,-1,1749,974,0,0
532,50,0,0,0,0,0,0,0,0,0,-1,1756,974,0,0
539,50,0,0,0,0,0,0,0,0,0,-1,1763,974,0,0
546,50,0,0,0,0,0,0,0,0,0,-1,1770,974,0,0
553,50,0,0,0,0,0,0,0,0,0,-1,1777,974,0,0
560,50,0,0,0,0,0,0,0,0,0,-1,1784,974,0,0
567,50,0,0,0,0,0,0,0,0,0,-1,1791,974,0,0
574,50,0,0,0,0,0,0,0,0,0,-1,1798,974,0,0
581,50,0,0,0,0,0,0,0,0,0,-1,1805,974,0,0
588,50,0,0,0,0,0,0,0,0,0,-1,1812,974,0,0
595,50,0,0,0,0,0,0,0,0,0,-1,1819,974,0,0
602,50,0,0,0,0,0,0,0,0,0,-1,1826,974,0,0
609,50,0,0,0,0,0,0,0,0,0,-1,1833,974,0,0
616,50,0,0,0,0,0,0,0,0,0,-1,1840,974,0,0
623,50,0,0,0,0,0,0,0,0,0,-1,1847,974,0,0
630,50,0,0,0,0,0,0,0,0,0,-1,1854,974,0,0
637,50,0,0,0,0,0,0,0,0,0,-1,1861,974,0,0
644,50,60.891,2.71326,-0.00157128,-0.00044458,0.00225282,0.00131426,-0.00333011,0.907918,0.00276434,0.0381393,1868,974,60.891,-2.71327
651,50,60.8439,2.63788,-0.00141936,0.00010682,0.0014055,0.000943023,-0.00225557,1.0341,0.00189783,0.0296394,1875,974,60.8439,-2.63785
658,50,60.8523,2.5965,-0.00113715,0.000261727,0.000899058,0.000701375,-0.0015768,1.11598,0.00134729,0.034494,1882,974,60.8523,-2.5965
665,50,60.889,2.50201,-0.000828999,0.000412879,0.00053728,0.000613058,-0.00102918,1.21415,0.000958237,0.0430762,1889,974,60.8891,-2.502
672,50,60.7378,2.57172,-0.000674114,0.000434824,0.000364981,0.000544167,-0.000783458,1.27972,0.000770644,0.0440312,1896,974,60.7378,-2.57173
679,50,60.6748,2.54126,-0.000590245,0.000120119,0.000385078,0.000288807,-0.000758933,1.15791,0.000624882,0.0436976,1903,974,60.6748,-2.54126
686,50,60.6589,2.40161,-0.000410812,-0.000363179,0.000373581,-1.26565e-05,-0.000761335,0.817231,0.000503391,0.0438012,1910,974,60.6589,-2.40158
693,50,60.7285,2.51959,-0.000437025,-0.000764501,0.00029278,-0.000265307,-0.000936218,0.530438,0.000557178,0.0400415,1917,974,60.7285,-2.51961
700,50,60.799,2.67322,-0.000603461,-0.000874702,0.000147425,-0.000538764,-0.000939399,0.41354,0.000544313,0.0227046,1924,974,60.799,-2.67322
707,50,60.8245,2.69049,-0.00101365,-0.000659626,-0.000308679,-0.000480807,-0.00119247,-1.04573,0.000692759,0.0348065,1931,974,60.8245,-2.6905
714,50,60.8044,2.73389,0,0,0,0,0,0,0,-1,1938,974,60.8044,-2.7339
721,50,59.6108,5.28607,0,0,0,0,0,0,0,-1,1945,974,59.6109,-5.28605
728,50,59.5881,5.72406,-0.00295495,0.0018825,-0.000462948,0.00192641,-0.00299886,-1.47624,0.00286599,0.0220606,1952,974,59.5881,-5.72404
735,50,59.6331,6.08868,-0.00338796,0.00332453,-0.000469952,0.00335728,-0.0034207,-1.50124,0.00391333,0.0214511,1959,974,59.633,-6.08868
742,50,59.6449,6.44781,-0.0039407,0.00524782,-0.00128179,0.00542328,-0.00411616,-1.43476,0.0055248,0.0157755,1966,974,59.6448,-6.44783
749,50,59.5935,6.73657,-0.00437053,0.00840958,-0.00253163,0.00889281,-0.00485375,-1.38219,0.00804997,0.0158507,1973,974,59.5935,-6.73656
756,50,59.507,7.04785,-0.00448781,0.0125597,-0.00434349,0.0136025,-0.00553068,-1.33516,0.0113695,0.0139452,1980,974,59.5069,-7.04784
763,50,59.4064,7.36859,-0.00416932,0.0179173,-0.00736061,0.0201455,-0.00639753,-1.27685,0.0159952,0.0136049,1987,974,59.4063,-7.36859
770,50,59.3101,7.64459,-0.00304365,0.0241771,-0.0112079,0.0281979,-0.00706447,-1.22635,0.0215431,0.0132354,1994,974,59.31,-7.64457
777,50,59.2837,7.95313,-0.00141245,0.0307764,-0.0162422,0.0375476,-0.00818369,-1.17581,0.0281589,0.0245268,2001,974,59.2837,-7.95313
784,50,59.2378,8.81964,0.000570902,0.0376224,-0.0227972,0.0484721,-0.0102788,-1.1266,0.0362303,0.0396246,2008,974,59.2378,-8.81967
791,50,59.2329,9.6189,0,0,0,0,0,0,0,-1,2015,974,59.233,-9.61891
798,50,59.949,7.4682,0.0055889,0.0518552,-0.0419262,0.0766068,-0.0191627,-1.03749,0.0585142,0.0478185,2022,974,59.9489,-7.46817
805,50,59.8933,6.01849,0.00765125,0.0590763,-0.0549905,0.0940687,-0.0273412,-1.00409,0.0735404,0.0449236,2029,974,59.8934,-6.0185
812,50,0,0,0,0,0,0,0,0,0,-1,2036,974,0,0
-700,43,0,0,0,0,0,0,0,0,0,-1,524,981,0,0
-693,43,-45.8134,2.82434,0.132391,0.168043,0.0388521,0.192963,0.10747,1.00048,0.111648,0.0445176,531,981,-45.8134,-2.82436
-686,43,-43.9614,-2.36993,0.10363,0.134906,0.0512342,0.172836,0.0657006,0.933521,0.100738,0.0439253,538,981,-43.9614,2.36994
-679,43,-45.8959,3.70435,0.079968,0.108517,0.0543405,0.150426,0.0380582,0.913837,0.0903119,0.0448591,545,981,-45.8959,-3.70437
-672,43,-45.6067,4.22314,0.0604936,0.0876824,0.0527122,0.128525,0.0196511,0.911597,0.0799421,0.0474654,552,981,-45.6067,-4.22314
-665,43,-45.805,3.9588,0,0,0,0,0,0,0,-1,559,981,-45.805,-3.95879
-658,43,-45.7697,4.13354,0.0304813,0.0577368,0.0422108,0.0884652,-0.00024705,0.941541,0.0590593,0.0485066,566,981,-45.7696,-4.13353
-651,43,-45.8175,4.59564,0.0191738,0.0465234,0.0353161,0.0707198,-0.00502256,0.970115,0.0489067,0.0406072,573,981,-45.8175,-4.59562
-644,43,-45.9303,5.01929,0.0101998,0.0367557,0.0282071,0.0546538,-0.00769826,1.00538,0.0392544,0.0253971,580,981,-45.9303,-5.01931
-637,43,-46.0551,4.84491,0.00140434,0.0308261,0.023028,0.043441,-0.0112106,1.06964,0.033332,0.018661,587,981,-46.0551,-4.84491
-630,43,-46.0792,4.65839,-0.00394283,0.0183667,0.0148447,0.0257805,-0.0113567,1.10761,0.0219736,0.014209,594,981,-46.0792,-4.65837
-623,43,-46.0978,4.47015,-0.00490095,0.0146084,0.00731292,0.0170452,-0.00733777,1.24915,0.0144446,0.0125899,601,981,-46.0979,-4.47012
-616,43,-46.1137,4.21112,-0.00347822,0.0104357,0.00347832,0.0112568,-0.00429931,1.33898,0.00927591,0.0120645,608,981,-46.1137,-4.21113
-609,43,-46.1361,3.93427,-0.00211002,0.00781556,0.000748482,0.00787168,-0.00216615,1.49595,0.00609943,0.0139843,615,981,-46.1361,-3.93428
-602,43,-46.1009,3.71649,-0.00118167,0.00596267,-0.00147387,0.00625478,-0.00147379,-1.37514,0.00473815,0.0163787,622,981,-46.1009,-3.71647
-595,43,-46.3506,3.94635,0,0,0,0,0,0,0,-1,629,981,-46.3506,-3.94637
-588,43,-46.1891,2.71521,0.000725686,0.00304562,-0.00409606,0.0061428,-0.00237149,-0.923381,0.00507392,0.0328132,636,981,-46.1891,-2.71518
-581,43,-46.1129,1.39063,0.00145564,0.00229854,-0.00491027,0.00680542,-0.00305124,-0.828209,0.00582671,0.0372652,643,981,-46.1129,-1.39063
-574,43,-45.9988,0.191467,0,0,0,0,0,0,0,-1,650,981,-45.9988,-0.191495
-567,43,-46.027,0.944397,0.00214418,0.00167231,-0.00568795,0.00760109,-0.0037846,-0.76467,0.0066955,0.0364096,657,981,-46.027,-0.944369
-560,43,-45.9647,1.03174,0.00234473,0.00169321,-0.0055909,0.00761935,-0.00358141,-0.756298,0.00660535,0.0404334,664,981,-45.9647,-1.03172
-553,43,-46.1772,0.779114,0.00254417,0.00182352,-0.00532605,0.00752207,-0.00315438,-0.751623,0.00633365,0.0394005,671,981,-46.1772,-0.779116
-546,43,-46.2685,0.876404,0.00281045,0.00188194,-0.00498096,0.00734874,-0.00265635,-0.73893,0.00598446,0.0411339,678,981,-46.2685,-0.876432
-539,43,-46.1296,1.07581,0.00319973,0.00172402,-0.004847,0.00736472,-0.00244097,-0.709864,0.00589442,0.047506,685,981,-46.1296,-1.07579
-532,43,-45.8576,0.931763,0.00421953,0.00215383,-0.00647434,0.00974288,-0.00336952,-0.7063,0.00786289,0.0483461,692,981,-45.8576,-0.931777
-525,43,-45.8789,0.69342,0.00514903,0.00426474,-0.0114999,0.0162152,-0.00680147,-0.766184,0.0136542,0.0445571,699,981,-45.8789,-0.693418
-518,43,0,0,0,0,0,0,0,0,0,-1,706,981,0,0
-511,43,0,0,0,0,0,0,0,0,0,-1,713,981,0,0
-504,43,0,0,0,0,0,0,0,0,0,-1,720,981,0,0
-497,43,0,0,0,0,0,0,0,0,0,-1,727,981,0,0
-490,43,0,0,0,0,0,0,0,0,0,-1,734,981,0,0
-483,43,0,0,0,0,0,0,0,0,0,-1,741,981,0,0
-476,43,0,0,0,0,0,0,0,0,0,-1,748,981,0,0
-469,43,0,0,0,0,0,0,0,0,0,-1,755,981,0,0
-462,43,0,0,0,0,0,0,0,0,0,-1,762,981,0,0
-455,43,0,0,0,0,0,0,0,0,0,-1,769,981,0,0
-448,43,0,0,0,0,0,0,0,0,0,-1,776,981,0,0
-441,43,0,0,0,0,0,0,0,0,0,-1,783,981,0,0
-434,43,0,0,0,0,0,0,0,0,0,-1,790,981,0,0
-427,43,0,0,0,0,0,0,0,0,0,-1,797,981,0,0
-420,43,0,0,0,0,0,0,0,0,0,-1,804,981,0,0
-413,43,0,0,0,0,0,0,0,0,0,-1,811,981,0,0
-406,43,0,0,0,0,0,0,0,0,0,-1,818,981,0,0
-399,43,0,0,0,0,0,0,0,0,0,-1,825,981,0,0
-392,43,0,0,0,0,0,0,0,0,0,-1,832,981,0,0
-385,43,0,0,0,0,0,0,0,0,0,-1,839,981,0,0
-378,43,0,0,0,0,0,0,0,0,0,-1,846,981,0,0
-371,43,0,0,0,0,0,0,0,0,0,-1,853,981,0,0
-364,43,0,0,0,0,0,0,0,0,0,-1,860,981,0,0
-357,43,0,0,0,0,0,0,0,0,0,-1,867,981,0,0
-350,43,0,0,0,0,0,0,0,0,0,-1,874,981,0,0
-343,43,0,0,0,0,0,0,0,0,0,-1,881,981,0,0
-336,43,0,0,0,0,0,0,0,0,0,-1,888,981,0,0
-329,43,0,0,0,0,0,0,0,0,0,-1,895,981,0,0
-322,43,0,0,0,0,0,0,0,0,0,-1,902,981,0,0
-315,43,0,0,0,0,0,0,0,0,0,-1,909,981,0,0
-308,43,0,0,0,0,0,0,0,0,0,-1,916,981,0,0
-301,43,0,0,0,0,0,0,0,0,0,-1,923,981,0,0
-294,43,0,0,0,0,0,0,0,0,0,-1,930,981,0,0
-287,43,0,0,0,0,0,0,0,0,0,-1,937,981,0,0
-280,43,0,0,0,0,0,0,0,0,0,-1,944,981,0,0
-273,43,0,0,0,0,0,0,0,0,0,-1,951,981,0,0
-266,43,0,0,0,0,0,0,0,0,0,-1,958,981,0,0
-259,43,0,0,0,0,0,0,0,0,0,-1,965,981,0,0
-252,43,0,0,0,0,0,0,0,0,0,-1,972,981,0,0
-245,43,0,0,0,0,0,0,0,0,0,-1,979,981,0,0
-238,43,0,0,0,0,0,0,0,0,0,-1,986,981,0,0
-231,43,0,0,0,0,0,0,0,0,0,-1,993,981,0,0
-224,43,0,0,0,0,0,0,0,0,0,-1,1000,981,0,0
-217,43,0,0,0,0,0,0,0,0,0,-1,1007,981,0,0
-210,43,0,0,0,0,0,0,0,0,0,-1,1014,981,0,0
-203,43,0,0,0,0,0,0,0,0,0,-1,1021,981,0,0
-196,43,0,0,0,0,0,0,0,0,0,-1,1028,981,0,0
-189,43,0,0,0,0,0,0,0,0,0,-1,1035,981,0,0
-182,43,0,0,0,0,0,0,0,0,0,-1,1042,981,0,0
-175,43,0,0,0,0,0,0,0,0,0,-1,1049,981,0,0
-168,43,0,0,0,0,0,0,0,0,0,-1,1056,981,0,0
-161,43,0,0,0,0,0,0,0,0,0,-1,1063,981,0,0
-154,43,0,0,0,0,0,0,0,0,0,-1,1070,981,0,0
-147,43,0,0,0,0,0,0,0,0,0,-1,1077,981,0,0
-140,43,0,0,0,0,0,0,0,0,0,-1,1084,981,0,0
-133,43,0,0,0,0,0,0,0,0,0,-1,1091,981,0,0
-126,43,0,0,0,0,0,0,0,0,0,-1,1098,981,0,0
-119,43,0,0,0,0,0,0,0,0,0,-1,1105,981,0,0
-112,43,0,0,0,0,0,0,0,0,0,-1,1112,981,0,0
-105,43,0,0,0,0,0,0,0,0,0,-1,1119,981,0,0
-98,43,0,0,0,0,0,0,0,0,0,-1,1126,981,0,0
-91,43,0,0,0,0,0,0,0,0,0,-1,1133,981,0,0
-84,43,0,0,0,0,0,0,0,0,0,-1,1140,981,0,0
-77,43,0,0,0,0,0,0,0,0,0,-1,1147,981,0,0
-70,43,0,0,0,0,0,0,0,0,0,-1,1154,981,0,0
-63,43,0,0,0,0,0,0,0,0,0,-1,1161,981,0,0
-56,43,0,0,0,0,0,0,0,0,0,-1,1168,981,0,0
-49,43,0,0,0,0,0,0,0,0,0,-1,1175,981,0,0
-42,43,0,0,0,0,0,0,0,0,0,-1,1182,981,0,0
-35,43,0,0,0,0,0,0,0,0,0,-1,1189,981,0,0
-28,43,0,0,0,0,0,0,0,0,0,-1,1196,981,0,0
-21,43,0,0,0,0,0,0,0,0,0,-1,1203,981,0,0
-14,43,0,0,0,0,0,0,0,0,0,-1,1210,981,0,0
-7,43,0,0,0,0,0,0,0,0,0,-1,1217,981,0,0
0,43,0,0,0,0,0,0,0,0,0,-1,1224,981,0,0
7,43,0,0,0,0,0,0,0,0,0,-1,1231,981,0,0
14,43,0,0,0,0,0,0,0,0,0,-1,1238,981,0,0
21,43,0,0,0,0,0,0,0,0,0,-1,1245,981,0,0
28,43,0,0,0,0,0,0,0,0,0,-1,1252,981,0,0
35,43,0,0,0,0,0,0,0,0,0,-1,1259,981,0,0
42,43,0,0,0,0,0,0,0,0,0,-1,1266,981,0,0
49,43,0,0,0,0,0,0,0,0,0,-1,1273,981,0,0
56,43,0,0,0,0,0,0,0,0,0,-1,1280,981,0,0
63,43,0,0,0,0,0,0,0,0,0,-1,1287,981,0,0
70,43,0,0,0,0,0,0,0,0,0,-1,1294,981,0,0
77,43,0,0,0,0,0,0,0,0,0,-1,1301,981,0,0
84,43,0,0,0,0,0,0,0,0,0,-1,1308,981,0,0
91,43,0,0,0,0,0,0,0,0,0,-1,1315,981,0,0
98,43,0,0,0,0,0,0,0,0,0,-1,1322,981,0,0
105,43,0,0,0,0,0,0,0,0,0,-1,1329,981,0,0
112,43,0,0,0,0,0,0,0,0,0,-1,1336,981,0,0
119,43,0,0,0,0,0,0,0,0,0,-1,1343,981,0,0
126,43,0,0,0,0,0,0,0,0,0,-1,1350,981,0,0
133,43,0,0,0,0,0,0,0,0,0,-1,1357,981,0,0
140,43,0,0,0,0,0,0,0,0,0,-1,1364,981,0,0
147,43,0,0,0,0,0,0,0,0,0,-1,1371,981,0,0
154,43,0,0,0,0,0,0,0,0,0,-1,1378,981,0,0
161,43,0,0,0,0,0,0,0,0,0,-1,1385,981,0,0
168,43,0,0,0,0,0,0,0,0,0,-1,1392,981,0,0
175,43,0,0,0,0,0,0,0,0,0,-1,1399,981,0,0
182,43,0,0,0,0,0,0,0,0,0,-1,1406,981,0,0
189,43,0,0,0,0,0,0,0,0,0,-1,1413,981,0,0
196,43,0,0,0,0,0,0,0,0,0,-1,1420,981,0,0
203,43,0,0,0,0,0,0,0,0,0,-1,1427,981,0,0
210,43,0,0,0,0,0,0,0,0,0,-1,1434,981,0,0
217,43,0,0,0,0,0,0,0,0,0,-1,1441,981,0,0
224,43,0,0,0,0,0,0,0,0,0,-1,1448,981,0,0
231,43,0,0,0,0,0,0,0,0,0,-1,1455,981,0,0
238,43,0,0,0,0,0,0,0,0,0,-1,1462,981,0,0
245,43,0,0,0,0,0,0,0,0,0,-1,1469,981,0,0
252,43,0,0,0,0,0,0,0,0,0,-1,1476,981,0,0
259,43,0,0,0,0,0,0,0,0,0,-1,1483,981,0,0
266,43,0,0,0,0,0,0,0,0,0,-1,1490,981,0,0
273,43,0,0,0,0,0,0,0,0,0,-1,1497,981,0,0
280,43,0,0,0,0,0,0,0,0,0,-1,1504,981,0,0
287,43,0,0,0,0,0,0,0,0,0,-1,1511,981,0,0
294,43,0,0,0,0,0,0,0,0,0,-1,1518,981,0,0
301,43,0,0,0,0,0,0,0,0,0,-1,1525,981,0,0
308,43,0,0,0,0,0,0,0,0,0,-1,1532,981,0,0
315,43,0,0,0,0,0,0,0,0,0,-1,1539,981,0,0
322,43,0,0,0,0,0,0,0,0,0,-1,1546,981,0,0
329,43,0,0,0,0,0,0,0,0,0,-1,1553,981,0,0
336,43,0,0,0,0,0,0,0,0,0,-1,1560,981,0,0
343,43,0,0,0,0,0,0,0,0,0,-1,1567,981,0,0
350,43,0,0,0,0,0,0,0,0,0,-1,1574,981,0,0
357,43,0,0,0,0,0,0,0,0,0,-1,1581,981,0,0
364,43,0,0,0,0,0,0,0,0,0,-1,1588,981,0,0
371,43,0,0,0,0,0,0,0,0,0,-1,1595,981,0,0
378,43,0,0,0,0,0,0,0,0,0,-1,1602,981,0,0
385,43,0,0,0,0,0,0,0,0,0,-1,1609,981,0,0
392,43,0,0,0,0,0,0,0,0,0,-1,1616,981,0,0
399,43,0,0,0,0,0,0,0,0,0,-1,1623,981,0,0
406,43,0,0,0,0,0,0,0,0,0,-1,1630,981,0,0
413,43,0,0,0,0,0,0,0,0,0,-1,1637,981,0,0
420,43,0,0,0,0,0,0,0,0,0,-1,1644,981,0,0
427,43,0,0,0,0,0,0,0,0,0,-1,1651,981,0,0
434,43,0,0,0,0,0,0,0,0,0,-1,1658,981,0,0
441,43,0,0,0,0,0,0,0,0,0,-1,1665,981,0,0
448,43,0,0,0,0,0,0,0,0,0,-1,1672,981,0,0
455,43,0,0,0,0,0,0,0,0,0,-1,1679,981,0,0
462,43,0,0,0,0,0,0,0,0,0,-1,1686,981,0,0
469,43,0,0,0,0,0,0,0,0,0,-1,1693,981,0,0
476,43,0,0,0,0,0,0,0,0,0,-1,1700,981,0,0
483,43,0,0,0,0,0,0,0,0,0,-1,1707,981,0,0
490,43,0,0,0,0,0,0,0,0,0,-1,1714,981,0,0
497,43,0,0,0,0,0,0,0,0,0,-1,1721,981,0,0
504,43,0,0,0,0,0,0,0,0,0,-1,1728,981,0,0
511,43,0,0,0,0,0,0,0,0,0,-1,1735,981,0,0
518,43,0,0,0,0,0,0,0,0,0,-1,1742,981,0,0
525,43,0,0,0,0,0,0,0,0,0,-1,1749,981,0,0
532,43,0,0,0,0,0,0,0,0,0,-1,1756,981,0,0
539,43,0,0,0,0,0,0,0,0,0,-1,1763,981,0,0
546,43,0,0,0,0,0,0,0,0,0,-1,1770,981,0,0
553,43,0,0,0,0,0,0,0,0,0,-1,1777,981,0,0
560,43,0,0,0,0,0,0,0,0,0,-1,1784,981,0,0
567,43,0,0,0,0,0,0,0,0,0,-1,1791,981,0,0
574,43,0,0,0,0,0,0,0,0,0,-1,1798,981,0,0
581,43,0,0,0,0,0,0,0,0,0,-1,1805,981,0,0
588,43,0,0,0,0,0,0,0,0,0,-1,1812,981,0,0
595,43,0,0,0,0,0,0,0,0,0,-1,1819,981,0,0
602,43,0,0,0,0,0,0,0,0,0,-1,1826,981,0,0
609,43,0,0,0,0,0,0,0,0,0,-1,1833,981,0,0
616,43,0,0,0,0,0,0,0,0,0,-1,1840,981,0,0
623,43,0,0,0,0,0,0,0,0,0,-1,1847,981,0,0
630,43,0,0,0,0,0,0,0,0,0,-1,1854,981,0,0
637,43,0,0,0,0,0,0,0,0,0,-1,1861,981,0,0
644,43,60.8949,2.71082,-0.00244641,0.000314591,0.0014279,0.000920214,-0.00305203,1.16966,0.00240095,0.0396968,1868,981,60.8949,-2.71082
651,43,60.9073,2.6687,-0.00211083,0.000694025,0.000849184,0.000931085,-0.00234789,1.29857,0.00195113,0.0360827,1875,981,60.9074,-2.66872
658,43,60.9075,2.72711,-0.00166859,0.000711864,0.000538261,0.000827916,-0.00178464,1.35844,0.00154171,0.0363009,1882,981,60.9075,-2.72711
665,43,60.9243,2.62048,-0.00124511,0.000756877,0.000332334,0.000810603,-0.00129884,1.41052,0.00122871,0.0373397,1889,981,60.9244,-2.6205
672,43,60.8573,2.44574,-0.000942733,0.00071675,0.000267823,0.000758903,-0.000984886,1.41469,0.00100959,0.0396405,1896,981,60.8573,-2.44576
679,43,60.7264,2.36914,-0.000713881,0.000387033,0.000336723,0.000481856,-0.000808704,1.2963,0.000753028,0.0419255,1903,981,60.7264,-2.36916
686,43,60.6725,2.48602,-0.000444637,-0.000120522,0.000363632,0.00011553,-0.000680688,0.995019,0.0004968,0.0411377,1910,981,60.6725,-2.48603
693,43,60.7788,2.59094,-0.000378441,-0.000589257,0.00031929,-0.00014761,-0.000820088,0.625965,0.000504769,0.0380085,1917,981,60.7788,-2.59092
700,43,60.7991,2.62524,-0.000462771,-0.000754368,0.000183155,-0.00037447,-0.00084267,0.449237,0.000487518,0.0343231,1924,981,60.7991,-2.62527
707,43,60.8495,2.55841,-0.000892217,-0.000527544,-0.000229615,-0.000416675,-0.00100309,-1.12096,0.000581889,0.0297526,1931,981,60.8495,-2.55843
714,43,60.8582,2.68896,0,0,0,0,0,0,0,-1,1938,981,60.8581,-2.68896
721,43,59.9532,5.36926,0,0,0,0,0,0,0,-1,1945,981,59.9533,-5.36926
728,43,59.9844,5.76184,-0.00311647,0.00216562,-0.000395876,0.00219513,-0.00314597,-1.4964,0.00309993,0.0195515,1952,981,59.9843,-5.76183
735,43,59.9949,6.12738,-0.00369165,0.00365323,-0.000538613,0.00369252,-0.00373094,-1.49798,0.00428595,0.0153344,1959,981,59.9949,-6.12735
742,43,59.9856,6.42456,-0.0044375,0.00554096,-0.0016429,0.0058045,-0.00470103,-1.41174,0.00607651,0.0165221,1966,981,59.9856,-6.42458
749,43,59.933,6.7171,-0.00510494,0.00853608,-0.00319198,0.00924605,-0.00581491,-1.35194,0.00877034,0.0180645,1973,981,59.933,-6.7171
756,43,59.8744,6.98413,-0.00544839,0.0126024,-0.00542097,0.0141053,-0.00695127,-1.30035,0.0123887,0.0210835,1980,981,59.8744,-6.98413
763,43,59.8043,7.23193,-0.00532741,0.0179954,-0.00915748,0.0211612,-0.00849327,-1.23795,0.0176341,0.0248745,1987,981,59.8043,-7.23194
770,43,59.7295,7.57269,-0.00441772,0.0243813,-0.0139747,0.0300476,-0.0100841,-1.18558,0.0241067,0.0208924,1994,981,59.7295,-7.57269
777,43,59.7698,7.82159,-0.00292388,0.031242,-0.0201634,0.0405862,-0.012268,-1.13684,0.031942,0.0259115,2001,981,59.7697,-7.82162
784,43,59.8264,8.12408,-0.00112009,0.0383418,-0.0278413,0.0527349,-0.0155131,-1.09367,0.0413103,0.045936,2008,981,59.8264,-8.12408
791,43,59.8904,8.43127,0,0,0,0,0,0,0,-1,2015,981,59.8903,-8.43126
798,43,59.6611,6.70532,0.00336126,0.0531196,-0.0490225,0.0832148,-0.0267339,-1.02022,0.066212,0.0421028,2022,981,59.6612,-6.70535
805,43,59.8914,5.75793,0.00520217,0.0605986,-0.0627243,0.101468,-0.0356673,-0.993316,0.0821571,0.0433089,2029,981,59.8913,-5.75795
812,43,59.6411,4.29865,0.00587452,0.0680646,-0.0787478,0.121634,-0.0476952,-0.973436,0.100821,0.0455688,2036,981,59.6411,-4.29862
-700,36,0,0,0,0,0,0,0,0,0,-1,524,988,0,0
-693,36,-44.5748,-2.55743,0,0,0,0,0,0,0,-1,531,988,-44.5748,2.55744
-686,36,-44.5457,-1.53467,0.100023,0.100906,0.0629676,0.163433,0.0374951,0.788902,0.0988566,0.0427479,538,988,-44.5457,1.5347
-679,36,-46.0433,3.36371,0.0787839,0.0839479,0.0621304,0.14355,0.0191818,0.806165,0.0899901,0.045622,545,988,-46.0433,-3.36372
-672,36,-46.0831,3.59381,0.0608727,0.0700858,0.0577715,0.123434,0.00752438,0.825182,0.0798995,0.0494149,552,988,-46.0831,-3.59379
-665,36,-46.0924,3.85388,0,0,0,0,0,0,0,-1,559,988,-46.0924,-3.85391
-658,36,-46.1007,4.13776,0.0322829,0.0490238,0.0442678,0.0857056,-0.00439889,0.878838,0.0586584,0.0463304,566,988,-46.1007,-4.13774
-651,36,-46.1325,4.44757,0.0210757,0.0405784,0.0366064,0.0687099,-0.00705586,0.915568,0.0483306,0.0409368,573,988,-46.1325,-4.44758
-644,36,-46.2086,4.75513,0.0117948,0.0328338,0.0289152,0.0530835,-0.00845499,0.959858,0.0385179,0.0274912,580,988,-46.2086,-4.75513
-637,36,-46.3499,4.62073,0.00266384,0.0284123,0.0230625,0.0419507,-0.0108745,1.03997,0.0322098,0.0216278,587,988,-46.3498,-4.62072
-630,36,-46.3483,4.56018,-0.0032699,0.0177415,0.0145188,0.0251569,-0.0106853,1.09859,0.0212483,0.0152396,594,988,-46.3483,-4.56018
-623,36,-46.3923,4.40924,-0.00485164,0.014283,0.00691585,0.0165209,-0.00708951,1.25784,0.0139893,0.0127599,601,988,-46.3923,-4.40922
-616,36,-46.3901,4.21631,-0.00346232,0.0102164,0.00313633,0.0109013,-0.00414715,1.35582,0.00897516,0.0108463,608,988,-46.39,-4.21633
-609,36,-46.3333,4.0351,-0.00203196,0.00768704,0.000474021,0.0077101,-0.00205502,1.52218,0.00594468,0.0154991,615,988,-46.3332,-4.03512
-602,36,-46.3582,3.81812,-0.00103498,0.00589675,-0.00168863,0.00628623,-0.00142446,-1.34411,0.00473757,0.0203712,622,988,-46.3582,-3.81811
-595,36,-46.7468,3.85144,0,0,0,0,0,0,0,-1,629,988,-46.7468,-3.85143
-588,36,-46.4448,2.44922,0.000945669,0.00310012,-0.00432115,0.00647629,-0.0024305,-0.907554,0.00531624,0.0430235,636,988,-46.4447,-2.44923
-581,36,-46.1104,1.16357,0.00172593,0.00237596,-0.00512386,0.0071851,-0.00308322,-0.817071,0.00608404,0.0387812,643,988,-46.1104,-1.16359
-574,36,-46.0528,0.782349,0.0021593,0.00201228,-0.00572126,0.00780752,-0.00363594,-0.778974,0.00675163,0.0253674,650,988,-46.0528,-0.782375
-567,36,-46.0535,0.77533,0.00237101,0.00187889,-0.00584491,0.00797504,-0.00372514,-0.764362,0.00690205,0.0337002,657,988,-46.0535,-0.77534
-560,36,-45.954,0.834045,0.00246313,0.00198238,-0.00571648,0.00794429,-0.00349877,-0.764386,0.0067708,0.0401609,664,988,-45.954,-0.834067
-553,36,-46.0438,0.865479,0.00243558,0.00219699,-0.00541973,0.00773733,-0.00310476,-0.774394,0.00644733,0.0435678,671,988,-46.0438,-0.865504
-546,36,-46.2303,0.921387,0.00231674,0.00231172,-0.00505323,0.00736746,-0.002739,-0.78515,0.00603549,0.0448962,678,988,-46.2303,-0.921403
-539,36,-45.9726,0.955627,0.00210915,0.00223825,-0.00495577,0.00712989,-0.00278249,-0.791911,0.00590354,0.0458568,685,988,-45.9726,-0.955622
-532,36,-45.6591,0.907043,0.00248523,0.00291637,-0.00676863,0.00947286,-0.00407127,-0.801317,0.00802432,0.04686,692,988,-45.6591,-0.907049
-525,36,-45.4057,0.898865,0,0,0,0,0,0,0,-1,699,988,-45.4057,-0.898845
-518,36,0,0,0,0,0,0,0,0,0,-1,706,988,0,0
-511,36,0,0,0,0,0,0,0,0,0,-1,713,988,0,0
-504,36,0,0,0,0,0,0,0,0,0,-1,720,988,0,0
-497,36,0,0,0,0,0,0,0,0,0,-1,727,988,0,0
-490,36,0,0,0,0,0,0,0,0,0,-1,734,988,0,0
-483,36,0,0,0,0,0,0,0,0,0,-1,741,988,0,0
-476,36,0,0,0,0,0,0,0,0,0,-1,748,988,0,0
-469,36,0,0,0,0,0,0,0,0,0,-1,755,988,0,0
-462,36,0,0,0,0,0,0,0,0,0,-1,762,988,0,0
-455,36,0,0,0,0,0,0,0,0,0,-1,769,988,0,0
-448,36,0,0,0,0,0,0,0,0,0,-1,776,988,0,0
-441,36,0,0,0,0,0,0,0,0,0,-1,783,988,0,0
-434,36,0,0,0,0,0,0,0,0,0,-1,790,988,0,0
-427,36,0,0,0,0,0,0,0,0,0,-1,797,988,0,0
-420,36,0,0,0,0,0,0,0,0,0,-1,804,988,0,0
-413,36,0,0,0,0,0,0,0,0,0,-1,811,988,0,0
-406,36,0,0,0,0,0,0,0,0,0,-1,818,988,0,0
-399,36,0,0,0,0,0,0,0,0,0,-1,825,988,0,0
-392,36,0,0,0,0,0,0,0,0,0,-1,832,988,0,0
-385,36,0,0,0,0,0,0,0,0,0,-1,839,988,0,0
-378,36,0,0,0,0,0,0,0,0,0,-1,846,988,0,0
-371,36,0,0,0,0,0,0,0,0,0,-1,853,988,0,0
-364,36,0,0,0,0,0,0,0,0,0,-1,860,988,0,0
-357,36,0,0,0,0,0,0,0,0,0,-1,867,988,0,0
-350,36,0,0,0,0,0,0,0,0,0,-1,874,988,0,0
-343,36,0,0,0,0,0,0,0,0,0,-1,881,988,0,0
-336,36,0,0,0,0,0,0,0,0,0,-1,888,988,0,0
-329,36,0,0,0,0,0,0,0,0,0,-1,895,988,0,0
-322,36,0,0,0,0,0,0,0,0,0,-1,902,988,0,0
-315,36,0,0,0,0,0,0,0,0,0,-1,909,988,0,0
-308,36,0,0,0,0,0,0,0,0,0,-1,916,988,0,0
-301,36,0,0,0,0,0,0,0,0,0,-1,923,988,0,0
-294,36,0,0,0,0,0,0,0,0,0,-1,930,988,0,0
-287,36,0,0,0,0,0,0,0,0,0,-1,937,988,0,0
-280,36,0,0,0,0,0,0,0,0,0,-1,944,988,0,0
-273,36,0,0,0,0,0,0,0,0,0,-1,951,988,0,0
-266,36,0,0,0,0,0,0,0,0,0,-1,958,988,0,0
-259,36,0,0,0,0,0,0,0,0,0,-1,965,988,0,0
-252,36,0,0,0,0,0,0,0,0,0,-1,972,988,0,0
-245,36,0,0,0,0,0,0,0,0,0,-1,979,988,0,0
-238,36,0,0,0,0,0,0,0,0,0,-1,986,988,0,0
-231,36,0,0,0,0,0,0,0,0,0,-1,993,988,0,0
-224,36,0,0,0,0,0,0,0,0,0,-1,1000,988,0,0
-217,36,0,0,0,0,0,0,0,0,0,-1,1007,988,0,0
-210,36,0,0,0,0,0,0,0,0,0,-1,1014,988,0,0
-203,36,0,0,0,0,0,0,0,0,0,-1,1021,988,0,0
-196,36,0,0,0,0,0,0,0,0,0,-1,1028,988,0,0
-189,36,0,0,0,0,0,0,0,0,0,-1,1035,988,0,0
-182,36,0,0,0,0,0,0,0,0,0,-1,1042,988,0,0
-175,36,0,0,0,0,0,0,0,0,0,-1,1049,988,0,0
-168,36,0,0,0,0,0,0,0,0,0,-1,1056,988,0,0
-161,36,0,0,0,0,0,0,0,0,0,-1,1063,988,0,0
-154,36,0,0,0,0,0,0,0,0,0,-1,1070,988,0,0
-147,36,0,0,0,0,0,0,0,0,0,-1,1077,988,0,0
-140,36,0,0,0,0,0,0,0,0,0,-1,1084,988,0,0
-133,36,0,0,0,0,0,0,0,0,0,-1,1091,988,0,0
-126,36,0,0,0,0,0,0,0,0,0,-1,1098,988,0,0
-119,36,0,0,0,0,0,0,0,0,0,-1,1105,988,0,0
-112,36,0,0,0,0,0,0,0,0,0,-1,1112,988,0,0
-105,36,0,0,0,0,0,0,0,0,0,-1,1119,988,0,0
-98,36,0,0,0,0,0,0,0,0,0,-1,1126,988,0,0
-91,36,0,0,0,0,0,0,0,0,0,-1,1133,988,0,0
-84,36,0,0,0,0,0,0,0,0,0,-1,1140,988,0,0
-77,36,0,0,0,0,0,0,0,0,0,-1,1147,988,0,0
-70,36,0,0,0,0,0,0,0,0,0,-1,1154,988,0,0
-63,36,0,0,0,0,0,0,0,0,0,-1,1161,988,0,0
-56,36,0,0,0,0,0,0,0,0,0,-1,1168,988,0,0
-49,36,0,0,0,0,0,0,0,0,0,-1,1175,988,0,0
-42,36,0,0,0,0,0,0,0,0,0,-1,1182,988,0,0
-35,36,0,0,0,0,0,0,0,0,0,-1,1189,988,0,0
-28,36,0,0,0,0,0,0,0,0,0,-1,1196,988,0,0
-21,36,0,0,0,0,0,0,0,0,0,-1,1203,988,0,0
-14,36,0,0,0,0,0,0,0,0,0,-1,1210,988,0,0
-7,36,0,0,0,0,0,0,0,0,0,-1,1217,988,0,0
0,36,0,0,0,0,0,0,0,0,0,-1,1224,988,0,0
7,36,0,0,0,0,0,0,0,0,0,-1,1231,988,0,0
14,36,0,0,0,0,0,0,0,0,0,-1,1238,988,0,0
21,36,0,0,0,0,0,0,0,0,0,-1,1245,988,0,0
28,36,0,0,0,0,0,0,0,0,0,-1,1252,988,0,0
35,36,0,0,0,0,0,0,0,0,0,-1,1259,988,0,0
42,36,0,0,0,0,0,0,0,0,0,-1,1266,988,0,0
49,36,0,0,0,0,0,0,0,0,0,-1,1273,988,0,0
56,36,0,0,0,0,0,0,0,0,0,-1,1280,988,0,0
63,36,0,0,0,0,0,0,0,0,0,-1,1287,988,0,0
70,36,0,0,0,0,0,0,0,0,0,-1,1294,988,0,0
77,36,0,0,0,0,0,0,0,0,0,-1,1301,988,0,0
84,36,0,0,0,0,0,0,0,0,0,-1,1308,988,0,0
91,36,0,0,0,0,0,0,0,0,0,-1,1315,988,0,0
98,36,0,0,0,0,0,0,0,0,0,-1,1322,988,0,0
105,36,0,0,0,0,0,0,0,0,0,-1,1329,988,0,0
112,36,0,0,0,0,0,0,0,0,0,-1,1336,988,0,0
119,36,0,0,0,0,0,0,0,0,0,-1,1343,988,0,0
126,36,0,0,0,0,0,0,0,0,0,-1,1350,988,0,0
133,36,0,0,0,0,0,0,0,0,0,-1,1357,988,0,0
140,36,0,0,0,0,0,0,0,0,0,-1,1364,988,0,0
147,36,0,0,0,0,0,0,0,0,0,-1,1371,988,0,0
154,36,0,0,0,0,0,0,0,0,0,-1,1378,988,0,0
161,36,0,0,0,0,0,0,0,0,0,-1,1385,988,0,0
168,36,0,0,0,0,0,0,0,0,0,-1,1392,988,0,0
175,36,0,0,0,0,0,0,0,0,0,-1,1399,988,0,0
182,36,0,0,0,0,0,0,0,0,0,-1,1406,988,0,0
189,36,0,0,0,0,0,0,0,0,0,-1,1413,988,0,0
196,36,0,0,0,0,0,0,0,0,0,-1,1420,988,0,0
203,36,0,0,0,0,0,0,0,0,0,-1,1427,988,0,0
210,36,0,0,0,0,0,0,0,0,0,-1,1434,988,0,0
217,36,0,0,0,0,0,0,0,0,0,-1,1441,988,0,0
224,36,0,0,0,0,0,0,0,0,0,-1,1448,988,0,0
231,36,0,0,0,0,0,0,0,0,0,-1,1455,988,0,0
238,36,0,0,0,0,0,0,0,0,0,-1,1462,988,0,0
245,36,0,0,0,0,0,0,0,0,0,-1,1469,988,0,0
252,36,0,0,0,0,0,0,0,0,0,-1,1476,988,0,0
259,36,0,0,0,0,0,0,0,0,0,-1,1483,988,0,0
266,36,0,0,0,0,0,0,0,0,0,-1,1490,988,0,0
273,36,0,0,0,0,0,0,0,0,0,-1,1497,988,0,0
280,36,0,0,0,0,0,0,0,0,0,-1,1504,988,0,0
287,36,0,0,0,0,0,0,0,0,0,-1,1511,988,0,0
294,36,0,0,0,0,0,0,0,0,0,-1,1518,988,0,0
301,36,0,0,0,0,0,0,0,0,0,-1,1525,988,0,0
308,36,0,0,0,0,0,0,0,0,0,-1,1532,988,0,0
315,36,0,0,0,0,0,0,0,0,0,-1,1539,988,0,0
322,36,0,0,0,0,0,0,0,0,0,-1,1546,988,0,0
329,36,0,0,0,0,0,0,0,0,0,-1,1553,988,0,0
336,36,0,0,0,0,0,0,0,0,0,-1,1560,988,0,0
343,36,0,0,0,0,0,0,0,0,0,-1,1567,988,0,0
350,36,0,0,0,0,0,0,0,0,0,-1,1574,988,0,0
357,36,0,0,0,0,0,0,0,0,0,-1,1581,988,0,0
364,36,0,0,0,0,0,0,0,0,0,-1,1588,988,0,0
371,36,0,0,0,0,0,0,0,0,0,-1,1595,988,0,0
378,36,0,0,0,0,0,0,0,0,0,-1,1602,988,0,0
385,36,0,0,0,0,0,0,0,0,0,-1,1609,988,0,0
392,36,0,0,0,0,0,0,0,0,0,-1,1616,988,0,0
399,36,0,0,0,0,0,0,0,0,0,-1,1623,988,0,0
406,36,0,0,0,0,0,0,0,0,0,-1,1630,988,0,0
413,36,0,0,0,0,0,0,0,0,0,-1,1637,988,0,0
420,36,0,0,0,0,0,0,0,0,0,-1,1644,988,0,0
427,36,0,0,0,0,0,0,0,0,0,-1,1651,988,0,0
434,36,0,0,0,0,0,0,0,0,0,-1,1658,988,0,0
441,36,0,0,0,0,0,0,0,0,0,-1,1665,988,0,0
448,36,0,0,0,0,0,0,0,0,0,-1,1672,988,0,0
455,36,0,0,0,0,0,0,0,0,0,-1,1679,988,0,0
462,36,0,0,0,0,0,0,0,0,0,-1,1686,988,0,0
469,36,0,0,0,0,0,0,0,0,0,-1,1693,988,0,0
476,36,0,0,0,0,0,0,0,0,0,-1,1700,988,0,0
483,36,0,0,0,0,0,0,0,0,0,-1,1707,988,0,0
490,36,0,0,0,0,0,0,0,0,0,-1,1714,988,0,0
497,36,0,0,0,0,0,0,0,0,0,-1,1721,988,0,0
504,36,0,0,0,0,0,0,0,0,0,-1,1728,988,0,0
511,36,0,0,0,0,0,0,0,0,0,-1,1735,988,0,0
518,36,0,0,0,0,0,0,0,0,0,-1,1742,988,0,0
525,36,0,0,0,0,0,0,0,0,0,-1,1749,988,0,0
532,36,0,0,0,0,0,0,0,0,0,-1,1756,988,0,0
539,36,0,0,0,0,0,0,0,0,0,-1,1763,988,0,0
546,36,0,0,0,0,0,0,0,0,0,-1,1770,988,0,0
553,36,0,0,0,0,0,0,0,0,0,-1,1777,988,0,0
560,36,0,0,0,0,0,0,0,0,0,-1,1784,988,0,0
567,36,0,0,0,0,0,0,0,0,0,-1,1791,988,0,0
574,36,0,0,0,0,0,0,0,0,0,-1,1798,988,0,0
581,36,0,0,0,0,0,0,0,0,0,-1,1805,988,0,0
588,36,0,0,0,0,0,0,0,0,0,-1,1812,988,0,0
595,36,0,0,0,0,0,0,0,0,0,-1,1819,988,0,0
602,36,0,0,0,0,0,0,0,0,0,-1,1826,988,0,0
609,36,0,0,0,0,0,0,0,0,0,-1,1833,988,0,0
616,36,0,0,0,0,0,0,0,0,0,-1,1840,988,0,0
623,36,0,0,0,0,0,0,0,0,0,-1,1847,988,0,0
630,36,0,0,0,0,0,0,0,0,0,-1,1854,988,0,0
637,36,0,0,0,0,0,0,0,0,0,-1,1861,988,0,0
644,36,60.8102,2.88696,-0.00348356,0.00104273,0.00115523,0.00132052,-0.00376135,1.33481,0.00304474,0.0444585,1868,988,60.8101,-2.88698
651,36,60.8015,2.93073,-0.00295145,0.00115333,0.000636269,0.0012497,-0.00304782,1.42049,0.00255254,0.0417495,1875,988,60.8015,-2.93072
658,36,60.8063,2.97491,-0.00232095,0.000985545,0.000380843,0.00102884,-0.00236425,1.45759,0.00200894,0.038433,1882,988,60.8063,-2.97494
665,36,60.8977,2.84967,-0.00175914,0.000883406,0.000233855,0.000903942,-0.00177968,1.48321,0.00157665,0.0360814,1889,988,60.8977,-2.84965
672,36,60.9043,2.55872,-0.00128445,0.000740998,0.000216519,0.000763885,-0.00130733,1.46548,0.00120946,0.0360628,1896,988,60.9043,-2.5587
679,36,60.8043,2.47876,-0.000871232,0.000394139,0.000312072,0.000466917,-0.000944011,1.34168,0.000829978,0.0386091,1903,988,60.8043,-2.47877
686,36,60.6639,2.71539,-0.000489992,-0.000110712,0.000365295,0.000111235,-0.000711939,1.02482,0.000515719,0.0370326,1910,988,60.664,-2.71537
693,36,60.743,2.77466,-0.000313748,-0.000586703,0.000356485,-6.85092e-05,-0.000831942,0.602584,0.00053326,0.0376911,1917,988,60.743,-2.77463
700,36,60.8142,2.7226,-0.000296743,-0.000757995,0.000245679,-0.000190403,-0.000864336,0.408496,0.000524408,0.0364887,1924,988,60.8143,-2.72262
707,36,60.9957,2.09668,0,0,0,0,0,0,0,-1,1931,988,60.9958,-2.09668
714,36,60.8215,2.98657,0,0,0,0,0,0,0,-1,1938,988,60.8215,-2.98659
721,36,60.3014,5.4751,0,0,0,0,0,0,0,-1,1945,988,60.3014,-5.47509
728,36,60.2565,5.86273,-0.00314371,0.00242303,-0.000297748,0.00243891,-0.00315959,-1.51751,0.00324121,0.021173,1952,988,60.2565,-5.86276
735,36,60.251,6.21606,-0.0038053,0.00396262,-0.000536333,0.00399948,-0.00384215,-1.50219,0.00452767,0.0195979,1959,988,60.251,-6.21608
742,36,60.2128,6.41455,-0.00467848,0.00582712,-0.00182799,0.00613611,-0.00498746,-1.40335,0.0064336,0.0163148,1966,988,60.2128,-6.41454
749,36,60.1833,6.6933,-0.00553688,0.00866917,-0.00356789,0.0095149,-0.00638261,-1.33805,0.00923763,0.0177158,1973,988,60.1833,-6.69328
756,36,60.1423,6.94,-0.00608724,0.0126078,-0.00603688,0.0143877,-0.00786717,-1.28408,0.0130314,0.0174833,1980,988,60.1424,-6.93998
763,36,60.041,7.13379,-0.00618241,0.0178706,-0.0102102,0.0216201,-0.00993197,-1.21885,0.0186286,0.0211068,1987,988,60.041,-7.13379
770,36,60.0034,7.38666,-0.00553866,0.0241798,-0.0157248,0.0309554,-0.0123143,-1.16395,0.0257429,0.0170092,1994,988,60.0035,-7.38666
777,36,60.0051,7.69171,-0.00426032,0.0311124,-0.0228674,0.042335,-0.0154829,-1.11456,0.0345604,0.025006,2001,988,60.0051,-7.6917
784,36,60.209,8.09198,-0.0026708,0.0382776,-0.0314414,0.0553234,-0.0197166,-1.074,0.0449208,0.0479674,2008,988,60.209,-8.092
791,36,60.3496,8.47504,0,0,0,0,0,0,0,-1,2015,988,60.3497,-8.47505
798,36,59.6316,5.72614,0.00142649,0.053382,-0.0542332,0.0875381,-0.0327296,-1.00875,0.0717998,0.0404561,2022,988,59.6317,-5.72612
805,36,59.7249,5.26215,0.00327133,0.0611951,-0.0684658,0.106573,-0.0421062,-0.985491,0.0884887,0.0457051,2029,988,59.725,-5.26216
812,36,59.2324,3.86169,0.00417375,0.0692191,-0.0848062,0.127525,-0.054132,-0.968497,0.107695,0.0473244,2036,988,59.2323,-3.86168
-700,29,0,0,0,0,0,0,0,0,0,-1,524,995,0,0
-693,29,-45.1492,-1.92694,0.12056,0.0812796,0.0695715,0.17321,0.0286291,0.647828,0.107212,0.0426119,531,995,-45.1492,1.92692
-686,29,-45.164,-1.12238,0.0983268,0.0713204,0.0712054,0.157298,0.0123491,0.691692,0.101001,0.045489,538,995,-45.164,1.12239
-679,29,-45.1426,0.364319,0,0,0,0,0,0,0,-1,545,995,-45.1426,-0.3643
-672,29,-46.1906,3.27521,0,0,0,0,0,0,0,-1,552,995,-46.1906,-3.27518
-665,29,-46.2081,3.59204,0,0,0,0,0,0,0,-1,559,995,-46.2081,-3.59204
-658,29,-46.3029,3.84259,0,0,0,0,0,0,0,-1,566,995,-46.3028,-3.84256
-651,29,-46.3532,4.2041,0,0,0,0,0,0,0,-1,573,995,-46.3532,-4.20413
-644,29,-46.3477,4.30615,0.0133482,0.0285002,0.0285242,0.0504374,-0.00858898,0.915201,0.0368233,0.0453814,580,995,-46.3477,-4.30618
-637,29,-46.5538,4.43781,0.00405212,0.0253526,0.0221145,0.0392479,-0.0098431,1.00981,0.0299896,0.0265257,587,995,-46.5538,-4.43782
-630,29,-46.5487,4.43329,-0.00243749,0.0164987,0.0135657,0.0235737,-0.00951247,1.09007,0.0196689,0.014099,594,995,-46.5487,-4.43326
-623,29,-46.5546,4.35016,-0.00469626,0.013351,0.00619633,0.0152736,-0.00661888,1.26993,0.0129647,0.0128335,601,995,-46.5546,-4.35013
-616,29,-46.5854,4.19666,-0.00345815,0.00949406,0.00266496,0.0100209,-0.00398504,1.3756,0.0083329,0.0149409,608,995,-46.5855,-4.19664
-609,29,-46.5584,4.11176,-0.00209403,0.00709928,0.000193751,0.00710337,-0.00209811,1.54973,0.0055683,0.0226153,615,995,-46.5584,-4.11173
-602,29,-46.662,3.94904,-0.00113785,0.00545013,-0.00180521,0.00591236,-0.00160008,-1.32013,0.0045693,0.0242411,622,995,-46.6621,-3.94905
-595,29,-46.834,3.65338,-0.000281677,0.0039105,-0.00329575,0.00572025,-0.00209143,-1.06863,0.00466947,0.0258406,629,995,-46.834,-3.65341
-588,29,-46.5217,2.18121,0,0,0,0,0,0,0,-1,636,995,-46.5217,-2.18123
-581,29,-46.0641,1.2666,0,0,0,0,0,0,0,-1,643,995,-46.0641,-1.26658
-574,29,-46.035,0.737183,0.00198613,0.00170965,-0.00558427,0.00743388,-0.00373809,-0.773023,0.00656673,0.0284164,650,995,-46.035,-0.737161
-567,29,-46.03,0.65686,0.00217238,0.00166986,-0.00570423,0.00763088,-0.00378864,-0.763389,0.00671631,0.0319372,657,995,-46.03,-0.656859
-560,29,-46.1837,0.989807,0.00218725,0.00186459,-0.00557809,0.00760635,-0.0035545,-0.770941,0.00658374,0.0385151,664,995,-46.1837,-0.989823
-553,29,-46.3688,1.28589,0.00199404,0.00216908,-0.00531266,0.00739494,-0.00323182,-0.793634,0.00629034,0.040953,671,995,-46.3689,-1.28589
-546,29,-46.0502,0.955872,0.00159527,0.00233766,-0.00501224,0.00699243,-0.00305951,-0.82236,0.00594972,0.0423382,678,995,-46.0502,-0.955848
-539,29,-45.8591,0.877686,0.00096266,0.0023031,-0.00504654,0.00672373,-0.00345797,-0.851416,0.00597835,0.0427029,685,995,-45.8591,-0.877674
-532,29,-45.3112,0.742249,0,0,0,0,0,0,0,-1,692,995,-45.3112,-0.742266
-525,29,-45.6906,0.867859,0,0,0,0,0,0,0,-1,699,995,-45.6905,-0.867838
-518,29,0,0,0,0,0,0,0,0,0,-1,706,995,0,0
-511,29,0,0,0,0,0,0,0,0,0,-1,713,995,0,0
-504,29,0,0,0,0,0,0,0,0,0,-1,720,995,0,0
-497,29,0,0,0,0,0,0,0,0,0,-1,727,995,0,0
-490,29,0,0,0,0,0,0,0,0,0,-1,734,995,0,0
-483,29,0,0,0,0,0,0,0,0,0,-1,741,995,0,0
-476,29,0,0,0,0,0,0,0,0,0,-1,748,995,0,0
-469,29,0,0,0,0,0,0,0,0,0,-1,755,995,0,0
-462,29,0,0,0,0,0,0,0,0,0,-1,762,995,0,0
-455,29,0,0,0,0,0,0,0,0,0,-1,769,995,0,0
-448,29,0,0,0,0,0,0,0,0,0,-1,776,995,0,0
-441,29,0,0,0,0,0,0,0,0,0,-1,783,995,0,0
-434,29,0,0,0,0,0,0,0,0,0,-1,790,995,0,0
-427,29,0,0,0,0,0,0,0,0,0,-1,797,995,0,0
-420,29,0,0,0,0,0,0,0,0,0,-1,804,995,0,0
-413,29,0,0,0,0,0,0,0,0,0,-1,811,995,0,0
-406,29,0,0,0,0,0,0,0,0,0,-1,818,995,0,0
-399,29,0,0,0,0,0,0,0,0,0,-1,825,995,0,0
-392,29,0,0,0,0,0,0,0,0,0,-1,832,995,0,0
-385,29,0,0,0,0,0,0,0,0,0,-1,839,995,0,0
-378,29,0,0,0,0,0,0,0,0,0,-1,846,995,0,0
-371,29,0,0,0,0,0,0,0,0,0,-1,853,995,0,0
-364,29,0,0,0,0,0,0,0,0,0,-1,860,995,0,0
-357,29,0,0,0,0,0,0,0,0,0,-1,867,995,0,0
-350,29,0,0,0,0,0,0,0,0,0,-1,874,995,0,0
-343,29,0,0,0,0,0,0,0,0,0,-1,881,995,0,0
-336,29,0,0,0,0,0,0,0,0,0,-1,888,995,0,0
-329,29,0,0,0,0,0,0,0,0,0,-1,895,995,0,0
-322,29,0,0,0,0,0,0,0,0,0,-1,902,995,0,0
-315,29,0,0,0,0,0,0,0,0,0,-1,909,995,0,0
-308,29,0,0,0,0,0,0,0,0,0,-1,916,995,0,0
-301,29,0,0,0,0,0,0,0,0,0,-1,923,995,0,0
-294,29,0,0,0,0,0,0,0,0,0,-1,930,995,0,0
-287,29,0,0,0,0,0,0,0,0,0,-1,937,995,0,0
-280,29,0,0,0,0,0,0,0,0,0,-1,944,995,0,0
-273,29,0,0,0,0,0,0,0,0,0,-1,951,995,0,0
-266,29,0,0,0,0,0,0,0,0,0,-1,958,995,0,0
-259,29,0,0,0,0,0,0,0,0,0,-1,965,995,0,0
-252,29,0,0,0,0,0,0,0,0,0,-1,972,995,0,0
-245,29,0,0,0,0,0,0,0,0,0,-1,979,995,0,0
-238,29,0,0,0,0,0,0,0,0,0,-1,986,995,0,0
-231,29,0,0,0,0,0,0,0,0,0,-1,993,995,0,0
-224,29,0,0,0,0,0,0,0,0,0,-1,1000,995,0,0
-217,29,0,0,0,0,0,0,0,0,0,-1,1007,995,0,0
-210,29,0,0,0,0,0,0,0,0,0,-1,1014,995,0,0
-203,29,0,0,0,0,0,0,0,0,0,-1,1021,995,0,0
-196,29,0,0,0,0,0,0,0,0,0,-1,1028,995,0,0
-189,29,0,0,0,0,0,0,0,0,0,-1,1035,995,0,0
-182,29,0,0,0,0,0,0,0,0,0,-1,1042,995,0,0
-175,29,0,0,0,0,0,0,0,0,0,-1,1049,995,0,0
-168,29,0,0,0,0,0,0,0,0,0,-1,1056,995,0,0
-161,29,0,0,0,0,0,0,0,0,0,-1,1063,995,0,0
-154,29,0,0,0,0,0,0,0,0,0,-1,1070,995,0,0
-147,29,0,0,0,0,0,0,0,0,0,-1,1077,995,0,0
-140,29,0,0,0,0,0,0,0,0,0,-1,1084,995,0,0
-133,29,0,0,0,0,0,0,0,0,0,-1,1091,995,0,0
-126,29,0,0,0,0,0,0,0,0,0,-1,1098,995,0,0
-119,29,0,0,0,0,0,0,0,0,0,-1,1105,995,0,0
-112,29,0,0,0,0,0,0,0,0,0,-1,1112,995,0,0
-105,29,0,0,0,0,0,0,0,0,0,-1,1119,995,0,0
-98,29,0,0,0,0,0,0,0,0,0,-1,1126,995,0,0
-91,29,0,0,0,0,0,0,0,0,0,-1,1133,995,0,0
-84,29,0,0,0,0,0,0,0,0,0,-1,1140,995,0,0
-77,29,0,0,0,0,0,0,0,0,0,-1,1147,995,0,0
-70,29,0,0,0,0,0,0,0,0,0,-1,1154,995,0,0
-63,29,0,0,0,0,0,0,0,0,0,-1,1161,995,0,0
-56,29,0,0,0,0,0,0,0,0,0,-1,1168,995,0,0
-49,29,0,0,0,0,0,0,0,0,0,-1,1175,995,0,0
-42,29,0,0,0,0,0,0,0,0,0,-1,1182,995,0,0
-35,29,0,0,0,0,0,0,0,0,0,-1,1189,995,0,0
-28,29,0,0,0,0,0,0,0,0,0,-1,1196,995,0,0
-21,29,0,0,0,0,0,0,0,0,0,-1,1203,995,0,0
-14,29,0,0,0,0,0,0,0,0,0,-1,1210,995,0,0
-7,29,0,0,0,0,0,0,0,0,0,-1,1217,995,0,0
0,29,0,0,0,0,0,0,0,0,0,-1,1224,995,0,0
7,29,0,0,0,0,0,0,0,0,0,-1,1231,995,0,0
14,29,0,0,0,0,0,0,0,0,0,-1,1238,995,0,0
21,29,0,0,0,0,0,0,0,0,0,-1,1245,995,0,0
28,29,0,0,0,0,0,0,0,0,0,-1,1252,995,0,0
35,29,0,0,0,0,0,0,0,0,0,-1,1259,995,0,0
42,29,0,0,0,0,0,0,0,0,0,-1,1266,995,0,0
49,29,0,0,0,0,0,0,0,0,0,-1,1273,995,0,0
56,29,0,0,0,0,0,0,0,0,0,-1,1280,995,0,0
63,29,0,0,0,0,0,0,0,0,0,-1,1287,995,0,0
70,29,0,0,0,0,0,0,0,0,0,-1,1294,995,0,0
77,29,0,0,0,0,0,0,0,0,0,-1,1301,995,0,0
84,29,0,0,0,0,0,0,0,0,0,-1,1308,995,0,0
91,29,0,0,0,0,0,0,0,0,0,-1,1315,995,0,0
98,29,0,0,0,0,0,0,0,0,0,-1,1322,995,0,0
105,29,0,0,0,0,0,0,0,0,0,-1,1329,995,0,0
112,29,0,0,0,0,0,0,0,0,0,-1,1336,995,0,0
119,29,0,0,0,0,0,0,0,0,0,-1,1343,995,0,0
126,29,0,0,0,0,0,0,0,0,0,-1,1350,995,0,0
133,29,0,0,0,0,0,0,0,0,0,-1,1357,995,0,0
140,29,0,0,0,0,0,0,0,0,0,-1,1364,995,0,0
147,29,0,0,0,0,0,0,0,0,0,-1,1371,995,0,0
154,29,0,0,0,0,0,0,0,0,0,-1,1378,995,0,0
161,29,0,0,0,0,0,0,0,0,0,-1,1385,995,0,0
168,29,0,0,0,0,0,0,0,0,0,-1,1392,995,0,0
175,29,0,0,0,0,0,0,0,0,0,-1,1399,995,0,0
182,29,0,0,0,0,0,0,0,0,0,-1,1406,995,0,0
189,29,0,0,0,0,0,0,0,0,0,-1,1413,995,0,0
196,29,0,0,0,0,0,0,0,0,0,-1,1420,995,0,0
203,29,0,0,0,0,0,0,0,0,0,-1,1427,995,0,0
210,29,0,0,0,0,0,0,0,0,0,-1,1434,995,0,0
217,29,0,0,0,0,0,0,0,0,0,-1,1441,995,0,0
224,29,0,0,0,0,0,0,0,0,0,-1,1448,995,0,0
231,29,0,0,0,0,0,0,0,0,0,-1,1455,995,0,0
238,29,0,0,0,0,0,0,0,0,0,-1,1462,995,0,0
245,29,0,0,0,0,0,0,0,0,0,-1,1469,995,0,0
252,29,0,0,0,0,0,0,0,0,0,-1,1476,995,0,0
259,29,0,0,0,0,0,0,0,0,0,-1,1483,995,0,0
266,29,0,0,0,0,0,0,0,0,0,-1,1490,995,0,0
273,29,0,0,0,0,0,0,0,0,0,-1,1497,995,0,0
280,29,0,0,0,0,0,0,0,0,0,-1,1504,995,0,0
287,29,0,0,0,0,0,0,0,0,0,-1,1511,995,0,0
294,29,0,0,0,0,0,0,0,0,0,-1,1518,995,0,0
301,29,0,0,0,0,0,0,0,0,0,-1,1525,995,0,0
308,29,0,0,0,0,0,0,0,0,0,-1,1532,995,0,0
315,29,0,0,0,0,0,0,0,0,0,-1,1539,995,0,0
322,29,0,0,0,0,0,0,0,0,0,-1,1546,995,0,0
329,29,0,0,0,0,0,0,0,0,0,-1,1553,995,0,0
336,29,0,0,0,0,0,0,0,0,0,-1,1560,995,0,0
343,29,0,0,0,0,0,0,0,0,0,-1,1567,995,0,0
350,29,0,0,0,0,0,0,0,0,0,-1,1574,995,0,0
357,29,0,0,0,0,0,0,0,0,0,-1,1581,995,0,0
364,29,0,0,0,0,0,0,0,0,0,-1,1588,995,0,0
371,29,0,0,0,0,0,0,0,0,0,-1,1595,995,0,0
378,29,0,0,0,0,0,0,0,0,0,-1,1602,995,0,0
385,29,0,0,0,0,0,0,0,0,0,-1,1609,995,0,0
392,29,0,0,0,0,0,0,0,0,0,-1,1616,995,0,0
399,29,0,0,0,0,0,0,0,0,0,-1,1623,995,0,0
406,29,0,0,0,0,0,0,0,0,0,-1,1630,995,0,0
413,29,0,0,0,0,0,0,0,0,0,-1,1637,995,0,0
420,29,0,0,0,0,0,0,0,0,0,-1,1644,995,0,0
427,29,0,0,0,0,0,0,0,0,0,-1,1651,995,0,0
434,29,0,0,0,0,0,0,0,0,0,-1,1658,995,0,0
441,29,0,0,0,0,0,0,0,0,0,-1,1665,995,0,0
448,29,0,0,0,0,0,0,0,0,0,-1,1672,995,0,0
455,29,0,0,0,0,0,0,0,0,0,-1,1679,995,0,0
462,29,0,0,0,0,0,0,0,0,0,-1,1686,995,0,0
469,29,0,0,0,0,0,0,0,0,0,-1,1693,995,0,0
476,29,0,0,0,0,0,0,0,0,0,-1,1700,995,0,0
483,29,0,0,0,0,0,0,0,0,0,-1,1707,995,0,0
490,29,0,0,0,0,0,0,0,0,0,-1,1714,995,0,0
497,29,0,0,0,0,0,0,0,0,0,-1,1721,995,0,0
504,29,0,0,0,0,0,0,0,0,0,-1,1728,995,0,0
511,29,0,0,0,0,0,0,0,0,0,-1,1735,995,0,0
518,29,0,0,0,0,0,0,0,0,0,-1,1742,995,0,0
525,29,0,0,0,0,0,0,0,0,0,-1,1749,995,0,0
532,29,0,0,0,0,0,0,0,0,0,-1,1756,995,0,0
539,29,0,0,0,0,0,0,0,0,0,-1,1763,995,0,0
546,29,0,0,0,0,0,0,0,0,0,-1,1770,995,0,0
553,29,0,0,0,0,0,0,0,0,0,-1,1777,995,0,0
560,29,0,0,0,0,0,0,0,0,0,-1,1784,995,0,0
567,29,0,0,0,0,0,0,0,0,0,-1,1791,995,0,0
574,29,0,0,0,0,0,0,0,0,0,-1,1798,995,0,0
581,29,0,0,0,0,0,0,0,0,0,-1,1805,995,0,0
588,29,0,0,0,0,0,0,0,0,0,-1,1812,995,0,0
595,29,0,0,0,0,0,0,0,0,0,-1,1819,995,0,0
602,29,0,0,0,0,0,0,0,0,0,-1,1826,995,0,0
609,29,0,0,0,0,0,0,0,0,0,-1,1833,995,0,0
616,29,0,0,0,0,0,0,0,0,0,-1,1840,995,0,0
623,29,0,0,0,0,0,0,0,0,0,-1,1847,995,0,0
630,29,0,0,0,0,0,0,0,0,0,-1,1854,995,0,0
637,29,0,0,0,0,0,0,0,0,0,-1,1861,995,0,0
644,29,60.915,2.79858,-0.0037818,0.00202099,0.000470333,0.00205887,-0.00381968,1.49044,0.00344436,0.0444155,1868,995,60.9151,-2.79858
651,29,60.7607,2.80798,-0.00331135,0.00172217,0.00020069,0.00173016,-0.00331934,1.53101,0.00296306,0.0427204,1875,995,60.7608,-2.80797
658,29,60.8262,3.1673,-0.00267451,0.00126293,0.000107913,0.00126589,-0.00267746,1.54342,0.00232481,0.043662,1882,995,60.8262,-3.16732
665,29,60.974,3.00079,-0.00209474,0.000946677,7.94691e-05,0.000948752,-0.00209681,1.54469,0.00179952,0.0424109,1889,995,60.974,-3.00079
672,29,60.7576,2.72833,-0.00154633,0.000652715,0.000135276,0.000661005,-0.00155462,1.50959,0.00131341,0.0394642,1896,995,60.7575,-2.72835
679,29,60.6644,2.62817,-0.00101891,0.00024176,0.000270241,0.000297247,-0.0010744,1.36829,0.000833213,0.037314,1903,995,60.6645,-2.62815
686,29,60.6605,2.6842,-0.000599959,-0.000286659,0.000351689,-5.83103e-05,-0.000828308,0.994918,0.000533831,0.0357149,1910,995,60.6605,-2.68423
693,29,60.7577,2.75891,-0.000380995,-0.000777238,0.000378658,-0.000151759,-0.00100647,0.544373,0.000626553,0.0379477,1917,995,60.7577,-2.75892
700,29,60.799,2.73303,-0.0003009,-0.000975994,0.000295181,-0.000190039,-0.00108686,0.35927,0.000670265,0.0350963,1924,995,60.7989,-2.73304
707,29,60.8608,2.31238,0,0,0,0,0,0,0,-1,1931,995,60.8608,-2.31236
714,29,60.76,3.08862,0,0,0,0,0,0,0,-1,1938,995,60.76,-3.08864
721,29,60.3407,5.6402,0,0,0,0,0,0,0,-1,1945,995,60.3406,-5.64019
728,29,60.4949,6.00568,-0.00338662,0.00248863,-0.000226272,0.00249733,-0.00339532,-1.53236,0.00341527,0.034176,1952,995,60.4948,-6.00565
735,29,60.483,6.29669,-0.00414228,0.0040559,-0.000540868,0.00409143,-0.00417781,-1.5052,0.00477433,0.0160508,1959,995,60.483,-6.29671
742,29,60.4454,6.45624,-0.00507075,0.00589422,-0.0019446,0.00622887,-0.0054054,-1.40037,0.00672266,0.0142963,1966,995,60.4455,-6.45626
749,29,60.4064,6.68109,-0.00603924,0.00856055,-0.00377916,0.00948078,-0.00695948,-1.33194,0.00952892,0.015599,1973,995,60.4063,-6.68108
756,29,60.3817,6.89001,-0.00671412,0.0123705,-0.00635191,0.0142912,-0.0086349,-1.27714,0.01337,0.0152915,1980,995,60.3817,-6.89001
763,29,60.329,7.02063,-0.0069153,0.0174645,-0.0107209,0.0215083,-0.0109591,-1.21011,0.019072,0.0130474,1987,995,60.3289,-7.02063
770,29,60.2278,7.14429,-0.00642005,0.0236279,-0.0166351,0.0310192,-0.0138114,-1.15267,0.0265109,0.0171305,1994,995,60.2277,-7.14429
777,29,60.1152,7.388,-0.00522804,0.0306345,-0.024477,0.0430455,-0.017639,-1.10153,0.0360452,0.0295616,2001,995,60.1151,-7.38801
784,29,60.343,7.89905,0,0,0,0,0,0,0,-1,2008,995,60.3431,-7.89906
791,29,59.5347,6.45056,-0.00173017,0.0456354,-0.0447755,0.0726055,-0.0287003,-1.02866,0.0602921,0.044096,2015,995,59.5346,-6.45054
798,29,59.8105,5.25494,0.000492377,0.0537528,-0.0577395,0.0907074,-0.0364622,-1.00147,0.0756151,0.0407331,2022,995,59.8105,-5.25494
805,29,59.8574,4.51025,0.00267962,0.0623691,-0.0725474,0.110971,-0.045922,-0.980538,0.0931411,0.0478281,2029,995,59.8575,-4.51026
812,29,59.5952,3.70422,0.00425771,0.0718083,-0.089546,0.133737,-0.057671,-0.96574,0.113381,0.0470031,2036,995,59.5952,-3.70424
-700,22,0,0,0,0,0,0,0,0,0,-1,524,1002,0,0
-693,22,-45.7513,-1.40283,0.118285,0.0502162,0.0796114,0.170832,-0.00233082,0.583404,0.114673,0.0427107,531,1002,-45.7513,1.40283
-686,22,-45.5801,-0.717651,0.0979506,0.0482317,0.0768742,0.153885,-0.0077026,0.629016,0.105251,0.0457556,538,1002,-45.5801,0.717626
-679,22,-45.2453,0.666199,0.0794674,0.0450965,0.0700977,0.134456,-0.00989166,0.665187,0.0931096,0.0498789,545,1002,-45.2453,-0.666229
-672,22,-44.6684,1.80725,0,0,0,0,0,0,0,-1,552,1002,-44.6684,-1.80727
-665,22,-44.0331,2.88354,0,0,0,0,0,0,0,-1,559,1002,-44.0331,-2.88354
-658,22,-46.4515,3.45886,0,0,0,0,0,0,0,-1,566,1002,-46.4516,-3.45889
-651,22,-45.738,3.68817,0,0,0,0,0,0,0,-1,573,1002,-45.738,-3.68818
-644,22,-46.3464,4.01062,0.0145571,0.0252738,0.0273242,0.04776,-0.00792918,0.882221,0.0347856,0.0412759,580,1002,-46.3464,-4.01063
-637,22,-46.7139,4.26227,0.00510285,0.02313,0.0204839,0.0364957,-0.00826287,0.992665,0.0275017,0.0259679,587,1002,-46.7139,-4.26229
-630,22,-46.6939,4.29193,-0.00166492,0.0157621,0.0120439,0.021914,-0.00781681,1.09855,0.0177967,0.0145237,594,1002,-46.6939,-4.29195
-623,22,-46.7183,4.22443,-0.00439642,0.01274,0.0051371,0.014162,-0.0058184,1.30075,0.0118662,0.0124494,601,1002,-46.7182,-4.22441
-616,22,-46.7345,4.10718,-0.0033287,0.00896382,0.00199989,0.009281,-0.00364589,1.41351,0.00769609,0.0195717,608,1002,-46.7345,-4.1072
-609,22,-46.7942,4.06091,-0.00206201,0.00662316,-0.00018054,0.00662692,-0.00206576,-1.55002,0.00524396,0.0311094,615,1002,-46.7942,-4.06091
-602,22,-46.9719,3.98004,-0.00118302,0.00502888,-0.00191383,0.00557118,-0.00172532,-1.29468,0.00440337,0.0300992,622,1002,-46.9719,-3.98005
-595,22,-47.0878,3.72046,-0.000415866,0.00359671,-0.00320531,0.00537185,-0.002191,-1.06503,0.0044933,0.0330725,629,1002,-47.0879,-3.72048
-588,22,-47.0538,3.38989,0,0,0,0,0,0,0,-1,636,1002,-47.0538,-3.38987
-581,22,-46.0576,0.707336,0,0,0,0,0,0,0,-1,643,1002,-46.0576,-0.70733
-574,22,-46.0299,0.76001,0.00173615,0.0015675,-0.00525654,0.00690904,-0.00360539,-0.777378,0.00616958,0.0328552,650,1002,-46.0299,-0.760028
-567,22,-45.9938,0.812073,0.00184956,0.00162058,-0.00533956,0.00707586,-0.00360571,-0.774679,0.00627455,0.0325303,657,1002,-45.9939,-0.812078
-560,22,-46.0888,0.963989,0.00173474,0.00190904,-0.00519627,0.00701889,-0.00337511,-0.793783,0.00612266,0.0384464,664,1002,-46.0888,-0.963986
-553,22,-46.1433,1.15558,0.00130615,0.00226574,-0.00493106,0.00674029,-0.00316841,-0.833896,0.00584337,0.0393768,671,1002,-46.1433,-1.15557
-546,22,-46.0281,1.164,0.000539405,0.00238444,-0.00463183,0.00618473,-0.00326088,-0.883697,0.00553983,0.0418467,678,1002,-46.0281,-1.16401
-539,22,-46.0552,0.995728,-0.000613122,0.00219822,-0.00465053,0.00565087,-0.00406578,-0.932163,0.00563474,0.0445377,685,1002,-46.0552,-0.995748
-532,22,-46.0755,0.865173,-0.00137652,0.00269264,-0.0063873,0.00736158,-0.00604546,-0.939585,0.00775297,0.0456667,692,1002,-46.0755,-0.865189
-525,22,0,0,0,0,0,0,0,0,0,-1,699,1002,0,0
-518,22,0,0,0,0,0,0,0,0,0,-1,706,1002,0,0
-511,22,0,0,0,0,0,0,0,0,0,-1,713,1002,0,0
-504,22,0,0,0,0,0,0,0,0,0,-1,720,1002,0,0
-497,22,0,0,0,0,0,0,0,0,0,-1,727,1002,0,0
-490,22,0,0,0,0,0,0,0,0,0,-1,734,1002,0,0
-483,22,0,0,0,0,0,0,0,0,0,-1,741,1002,0,0
-476,22,0,0,0,0,0,0,0,0,0,-1,748,1002,0,0
-469,22,0,0,0,0,0,0,0,0,0,-1,755,1002,0,0
-462,22,0,0,0,0,0,0,0,0,0,-1,762,1002,0,0
-455,22,0,0,0,0,0,0,0,0,0,-1,769,1002,0,0
-448,22,0,0,0,0,0,0,0,0,0,-1,776,1002,0,0
-441,22,0,0,0,0,0,0,0,0,0,-1,783,1002,0,0
-434,22,0,0,0,0,0,0,0,0,0,-1,790,1002,0,0
-427,22,0,0,0,0,0,0,0,0,0,-1,797,1002,0,0
-420,22,0,0,0,0,0,0,0,0,0,-1,804,1002,0,0
-413,22,0,0,0,0,0,0,0,0,0,-1,811,1002,0,0
-406,22,0,0,0,0,0,0,0,0,0,-1,818,1002,0,0
-399,22,0,0,0,0,0,0,0,0,0,-1,825,1002,0,0
-392,22,0,0,0,0,0,0,0,0,0,-1,832,1002,0,0
-385,22,0,0,0,0,0,0,0,0,0,-1,839,1002,0,0
-378,22,0,0,0,0,0,0,0,0,0,-1,846,1002,0,0
-371,22,0,0,0,0,0,0,0,0,0,-1,853,1002,0,0
-364,22,0,0,0,0,0,0,0,0,0,-1,860,1002,0,0
-357,22,0,0,0,0,0,0,0,0,0,-1,867,1002,0,0
-350,22,0,0,0,0,0,0,0,0,0,-1,874,1002,0,0
-343,22,0,0,0,0,0,0,0,0,0,-1,881,1002,0,0
-336,22,0,0,0,0,0,0,0,0,0,-1,888,1002,0,0
-329,22,0,0,0,0,0,0,0,0,0,-1,895,1002,0,0
-322,22,0,0,0,0,0,0,0,0,0,-1,902,1002,0,0
-315,22,0,0,0,0,0,0,0,0,0,-1,909,1002,0,0
-308,22,0,0,0,0,0,0,0,0,0,-1,916,1002,0,0
-301,22,0,0,0,0,0,0,0,0,0,-1,923,1002,0,0
-294,22,0,0,0,0,0,0,0,0,0,-1,930,1002,0,0
-287,22,0,0,0,0,0,0,0,0,0,-1,937,1002,0,0
-280,22,0,0,0,0,0,0,0,0,0,-1,944,1002,0,0
-273,22,0,0,0,0,0,0,0,0,0,-1,951,1002,0,0
-266,22,0,0,0,0,0,0,0,0,0,-1,958,1002,0,0
-259,22,0,0,0,0,0,0,0,0,0,-1,965,1002,0,0
-252,22,0,0,0,0,0,0,0,0,0,-1,972,1002,0,0
-245,22,0,0,0,0,0,0,0,0,0,-1,979,1002,0,0
-238,22,0,0,0,0,0,0,0,0,0,-1,986,1002,0,0
-231,22,0,0,0,0,0,0,0,0,0,-1,993,1002,0,0
-224,22,0,0,0,0,0,0,0,0,0,-1,1000,1002,0,0
-217,22,0,0,0,0,0,0,0,0,0,-1,1007,1002,0,0
-210,22,0,0,0,0,0,0,0,0,0,-1,1014,1002,0,0
-203,22,0,0,0,0,0,0,0,0,0,-1,1021,1002,0,0
-196,22,0,0,0,0,0,0,0,0,0,-1,1028,1002,0,0
-189,22,0,0,0,0,0,0,0,0,0,-1,1035,1002,0,0
-182,22,0,0,0,0,0,0,0,0,0,-1,1042,1002,0,0
-175,22,0,0,0,0,0,0,0,0,0,-1,1049,1002,0,0
-168,22,0,0,0,0,0,0,0,0,0,-1,1056,1002,0,0
-161,22,0,0,0,0,0,0,0,0,0,-1,1063,1002,0,0
-154,22,0,0,0,0,0,0,0,0,0,-1,1070,1002,0,0
-147,22,0,0,0,0,0,0,0,0,0,-1,1077,1002,0,0
-140,22,0,0,0,0,0,0,0,0,0,-1,1084,1002,0,0
-133,22,0,0,0,0,0,0,0,0,0,-1,1091,1002,0,0
-126,22,0,0,0,0,0,0,0,0,0,-1,1098,1002,0,0
-119,22,0,0,0,0,0,0,0,0,0,-1,1105,1002,0,0
-112,22,0,0,0,0,0,0,0,0,0,-1,1112,1002,0,0
-105,22,0,0,0,0,0,0,0,0,0,-1,1119,1002,0,0
-98,22,0,0,0,0,0,0,0,0,0,-1,1126,1002,0,0
-91,22,0,0,0,0,0,0,0,0,0,-1,1133,1002,0,0
-84,22,0,0,0,0,0,0,0,0,0,-1,1140,1002,0,0
-77,22,0,0,0,0,0,0,0,0,0,-1,1147,1002,0,0
-70,22,0,0,0,0,0,0,0,0,0,-1,1154,1002,0,0
-63,22,0,0,0,0,0,0,0,0,0,-1,1161,1002,0,0
-56,22,0,0,0,0,0,0,0,0,0,-1,1168,1002,0,0
-49,22,0,0,0,0,0,0,0,0,0,-1,1175,1002,0,0
-42,22,0,0,0,0,0,0,0,0,0,-1,1182,1002,0,0
-35,22,0,0,0,0,0,0,0,0,0,-1,1189,1002,0,0
-28,22,0,0,0,0,0,0,0,0,0,-1,1196,1002,0,0
-21,22,0,0,0,0,0,0,0,0,0,-1,1203,1002,0,0
-14,22,0,0,0,0,0,0,0,0,0,-1,1210,1002,0,0
-7,22,0,0,0,0,0,0,0,0,0,-1,1217,1002,0,0
0,22,0,0,0,0,0,0,0,0,0,-1,1224,1002,0,0
7,22,0,0,0,0,0,0,0,0,0,-1,1231,1002,0,0
14,22,0,0,0,0,0,0,0,0,0,-1,1238,1002,0,0
21,22,0,0,0,0,0,0,0,0,0,-1,1245,1002,0,0
28,22,0,0,0,0,0,0,0,0,0,-1,1252,1002,0,0
35,22,0,0,0,0,0,0,0,0,0,-1,1259,1002,0,0
42,22,0,0,0,0,0,0,0,0,0,-1,1266,1002,0,0
49,22,0,0,0,0,0,0,0,0,0,-1,1273,1002,0,0
56,22,0,0,0,0,0,0,0,0,0,-1,1280,1002,0,0
63,22,0,0,0,0,0,0,0,0,0,-1,1287,1002,0,0
70,22,0,0,0,0,0,0,0,0,0,-1,1294,1002,0,0
77,22,0,0,0,0,0,0,0,0,0,-1,1301,1002,0,0
84,22,0,0,0,0,0,0,0,0,0,-1,1308,1002,0,0
91,22,0,0,0,0,0,0,0,0,0,-1,1315,1002,0,0
98,22,0,0,0,0,0,0,0,0,0,-1,1322,1002,0,0
105,22,0,0,0,0,0,0,0,0,0,-1,1329,1002,0,0
112,22,0,0,0,0,0,0,0,0,0,-1,1336,1002,0,0
119,22,0,0,0,0,0,0,0,0,0,-1,1343,1002,0,0
126,22,0,0,0,0,0,0,0,0,0,-1,1350,1002,0,0
133,22,0,0,0,0,0,0,0,0,0,-1,1357,1002,0,0
140,22,0,0,0,0,0,0,0,0,0,-1,1364,1002,0,0
147,22,0,0,0,0,0,0,0,0,0,-1,1371,1002,0,0
154,22,0,0,0,0,0,0,0,0,0,-1,1378,1002,0,0
161,22,0,0,0,0,0,0,0,0,0,-1,1385,1002,0,0
168,22,0,0,0,0,0,0,0,0,0,-1,1392,1002,0,0
175,22,0,0,0,0,0,0,0,0,0,-1,1399,1002,0,0
182,22,0,0,0,0,0,0,0,0,0,-1,1406,1002,0,0
189,22,0,0,0,0,0,0,0,0,0,-1,1413,1002,0,0
196,22,0,0,0,0,0,0,0,0,0,-1,1420,1002,0,0
203,22,0,0,0,0,0,0,0,0,0,-1,1427,1002,0,0
210,22,0,0,0,0,0,0,0,0,0,-1,1434,1002,0,0
217,22,0,0,0,0,0,0,0,0,0,-1,1441,1002,0,0
224,22,0,0,0,0,0,0,0,0,0,-1,1448,1002,0,0
231,22,0,0,0,0,0,0,0,0,0,-1,1455,1002,0,0
238,22,0,0,0,0,0,0,0,0,0,-1,1462,1002,0,0
245,22,0,0,0,0,0,0,0,0,0,-1,1469,1002,0,0
252,22,0,0,0,0,0,0,0,0,0,-1,1476,1002,0,0
259,22,0,0,0,0,0,0,0,0,0,-1,1483,1002,0,0
266,22,0,0,0,0,0,0,0,0,0,-1,1490,1002,0,0
273,22,0,0,0,0,0,0,0,0,0,-1,1497,1002,0,0
280,22,0,0,0,0,0,0,0,0,0,-1,1504,1002,0,0
287,22,0,0,0,0,0,0,0,0,0,-1,1511,1002,0,0
294,22,0,0,0,0,0,0,0,0,0,-1,1518,1002,0,0
301,22,0,0,0,0,0,0,0,0,0,-1,1525,1002,0,0
308,22,0,0,0,0,0,0,0,0,0,-1,1532,1002,0,0
315,22,0,0,0,0,0,0,0,0,0,-1,1539,1002,0,0
322,22,0,0,0,0,0,0,0,0,0,-1,1546,1002,0,0
329,22,0,0,0,0,0,0,0,0,0,-1,1553,1002,0,0
336,22,0,0,0,0,0,0,0,0,0,-1,1560,1002,0,0
343,22,0,0,0,0,0,0,0,0,0,-1,1567,1002,0,0
350,22,0,0,0,0,0,0,0,0,0,-1,1574,1002,0,0
357,22,0,0,0,0,0,0,0,0,0,-1,1581,1002,0,0
364,22,0,0,0,0,0,0,0,0,0,-1,1588,1002,0,0
371,22,0,0,0,0,0,0,0,0,0,-1,1595,1002,0,0
378,22,0,0,0,0,0,0,0,0,0,-1,1602,1002,0,0
385,22,0,0,0,0,0,0,0,0,0,-1,1609,1002,0,0
392,22,0,0,0,0,0,0,0,0,0,-1,1616,1002,0,0
399,22,0,0,0,0,0,0,0,0,0,-1,1623,1002,0,0
406,22,0,0,0,0,0,0,0,0,0,-1,1630,1002,0,0
413,22,0,0,0,0,0,0,0,0,0,-1,1637,1002,0,0
420,22,0,0,0,0,0,0,0,0,0,-1,1644,1002,0,0
427,22,0,0,0,0,0,0,0,0,0,-1,1651,1002,0,0
434,22,0,0,0,0,0,0,0,0,0,-1,1658,1002,0,0
441,22,0,0,0,0,0,0,0,0,0,-1,1665,1002,0,0
448,22,0,0,0,0,0,0,0,0,0,-1,1672,1002,0,0
455,22,0,0,0,0,0,0,0,0,0,-1,1679,1002,0,0
462,22,0,0,0,0,0,0,0,0,0,-1,1686,1002,0,0
469,22,0,0,0,0,0,0,0,0,0,-1,1693,1002,0,0
476,22,0,0,0,0,0,0,0,0,0,-1,1700,1002,0,0
483,22,0,0,0,0,0,0,0,0,0,-1,1707,1002,0,0
490,22,0,0,0,0,0,0,0,0,0,-1,1714,1002,0,0
497,22,0,0,0,0,0,0,0,0,0,-1,1721,1002,0,0
504,22,0,0,0,0,0,0,0,0,0,-1,1728,1002,0,0
511,22,0,0,0,0,0,0,0,0,0,-1,1735,1002,0,0
518,22,0,0,0,0,0,0,0,0,0,-1,1742,1002,0,0
525,22,0,0,0,0,0,0,0,0,0,-1,1749,1002,0,0
532,22,0,0,0,0,0,0,0,0,0,-1,1756,1002,0,0
539,22,0,0,0,0,0,0,0,0,0,-1,1763,1002,0,0
546,22,0,0,0,0,0,0,0,0,0,-1,1770,1002,0,0
553,22,0,0,0,0,0,0,0,0,0,-1,1777,1002,0,0
560,22,0,0,0,0,0,0,0,0,0,-1,1784,1002,0,0
567,22,0,0,0,0,0,0,0,0,0,-1,1791,1002,0,0
574,22,0,0,0,0,0,0,0,0,0,-1,1798,1002,0,0
581,22,0,0,0,0,0,0,0,0,0,-1,1805,1002,0,0
588,22,0,0,0,0,0,0,0,0,0,-1,1812,1002,0,0
595,22,0,0,0,0,0,0,0,0,0,-1,1819,1002,0,0
602,22,0,0,0,0,0,0,0,0,0,-1,1826,1002,0,0
609,22,0,0,0,0,0,0,0,0,0,-1,1833,1002,0,0
616,22,0,0,0,0,0,0,0,0,0,-1,1840,1002,0,0
623,22,0,0,0,0,0,0,0,0,0,-1,1847,1002,0,0
630,22,0,0,0,0,0,0,0,0,0,-1,1854,1002,0,0
637,22,0,0,0,0,0,0,0,0,0,-1,1861,1002,0,0
644,22,60.873,2.5979,-0.00389354,0.00214278,5.51942e-05,0.00214329,-0.00389405,1.56165,0.00353417,0.04042,1868,1002,60.873,-2.59792
651,22,60.6914,2.58746,-0.00357298,0.00172455,-2.36027e-05,0.00172465,-0.00357309,-1.56634,0.00312009,0.0412055,1875,1002,60.6915,-2.58749
658,22,60.8583,3.11359,-0.00297965,0.00121065,-5.61489e-06,0.00121066,-0.00297965,-1.56946,0.0024901,0.0422551,1882,1002,60.8583,-3.11356
665,22,61.0072,3.02887,-0.00241104,0.000876883,4.22899e-05,0.000877427,-0.00241159,1.55794,0.00196657,0.0419746,1889,1002,61.0072,-3.02884
672,22,60.7554,2.72943,-0.00182518,0.000593867,0.000140901,0.000602046,-0.00183335,1.51281,0.00146476,0.0398766,1896,1002,60.7554,-2.72942
679,22,60.5969,2.62628,-0.00122148,0.000226089,0.000290512,0.000282216,-0.00127761,1.37995,0.000959742,0.0368607,1903,1002,60.5969,-2.62625
686,22,60.7252,2.81091,-0.000788032,-0.000272701,0.000390363,-6.2633e-05,-0.0009981,1.07711,0.000645536,0.0372984,1910,1002,60.7252,-2.81089
693,22,60.8118,2.82825,-0.000537035,-0.000764296,0.000441976,-0.000194316,-0.00110701,0.659575,0.000682521,0.0404788,1917,1002,60.8118,-2.82824
700,22,60.8217,2.75629,-0.000406312,-0.00100243,0.000382028,-0.000219825,-0.00118892,0.454123,0.000730446,0.0350793,1924,1002,60.8217,-2.75628
707,22,60.7625,2.72607,-0.000849729,-0.00068072,0.00015454,-0.000589089,-0.00094136,1.03559,0.000549198,0.0305563,1931,1002,60.7625,-2.72607
714,22,60.755,2.75806,-0.00173206,1.20637e-05,-9.82075e-05,1.75761e-05,-0.00173757,-1.51472,0.00116428,0.0430524,1938,1002,60.755,-2.75808
721,22,60.7372,3.18451,0,0,0,0,0,0,0,-1,1945,1002,60.7371,-3.18454
728,22,60.6559,6.26044,0,0,0,0,0,0,0,-1,1952,1002,60.6558,-6.26047
735,22,60.6597,6.37891,-0.0044856,0.00414697,-0.000434695,0.00416881,-0.00450744,-1.52061,0.0050105,0.0159278,1959,1002,60.6597,-6.37891
742,22,60.6482,6.49554,-0.0053997,0.00594496,-0.00188711,0.00625063,-0.00570537,-1.41021,0.00690519,0.0179239,1966,1002,60.6482,-6.49555
749,22,60.6007,6.65778,-0.00637882,0.00841523,-0.00373398,0.00930425,-0.00726784,-1.33706,0.00959195,0.0140651,1973,1002,60.6007,-6.65779
756,22,60.6077,6.76465,-0.00708421,0.0120909,-0.00629329,0.0139719,-0.00896517,-1.28036,0.0133474,0.0194173,1980,1002,60.6076,-6.76464
763,22,60.5155,6.92615,-0.00725443,0.0170304,-0.0106686,0.0210514,-0.0112755,-1.21036,0.0189463,0.0192818,1987,1002,60.5155,-6.92616
770,22,60.335,7.00922,-0.00671572,0.0230528,-0.0167369,0.0305664,-0.0142294,-1.14884,0.0264299,0.0195702,1994,1002,60.3349,-7.00919
777,22,60.019,7.03717,-0.00535431,0.0301708,-0.0250761,0.043138,-0.0183215,-1.09355,0.0364351,0.0406061,2001,1002,60.019,-7.03715
784,22,59.7244,7.08759,0,0,0,0,0,0,0,-1,2008,1002,59.7244,-7.08759
791,22,59.696,6.21942,-0.00131115,0.0457324,-0.0463492,0.0741868,-0.0297656,-1.02021,0.0618165,0.048274,2015,1002,59.696,-6.2194
798,22,59.833,5.32129,0.00137061,0.0544911,-0.0598563,0.0934153,-0.0375536,-0.994214,0.0778739,0.0453366,2022,1002,59.833,-5.32132
805,22,59.9275,4.39435,0.00427776,0.0641722,-0.0752738,0.115237,-0.0467872,-0.974721,0.0962873,0.0469612,2029,1002,59.9274,-4.39433
812,22,59.6816,3.40668,0.00694143,0.0754438,-0.0931019,0.140395,-0.0580098,-0.961659,0.117795,0.0427979,2036,1002,59.6816,-3.40669
-700,15,0,0,0,0,0,0,0,0,0,-1,524,1009,0,0
-693,15,-46.451,-1.10742,0.118166,0.0305155,0.082413,0.167682,-0.0190003,0.541026,0.11863,0.0461029,531,1009,-46.451,1.10743
-686,15,-46.0172,-0.113708,0.0988376,0.0355908,0.0771906,0.150631,-0.016203,0.590987,0.106235,0.0425529,538,1009,-46.0172,0.1137
-679,15,-45.3429,1.05914,0.0807729,0.036839,0.0692062,0.131415,-0.0138029,0.631721,0.0925545,0.046849,545,1009,-45.3429,-1.05914
-672,15,-44.7191,2.19336,0,0,0,0,0,0,0,-1,552,1009,-44.7191,-2.19336
-665,15,-44.1705,3.06555,0,0,0,0,0,0,0,-1,559,1009,-44.1705,-3.06557
-658,15,-47.2173,3.00482,0,0,0,0,0,0,0,-1,566,1009,-47.2173,-3.00483
-651,15,-45.9382,3.02948,0,0,0,0,0,0,0,-1,573,1009,-45.9382,-3.02948
-644,15,-46.4481,3.8205,0.0159558,0.024462,0.0256656,0.0462245,-0.00580667,0.867508,0.0329231,0.0479814,580,1009,-46.4481,-3.82051
-637,15,-46.7027,4.23364,0.00649264,0.0225464,0.0186293,0.0348045,-0.00576549,0.988816,0.0253444,0.0289939,587,1009,-46.7027,-4.23363
-630,15,-46.7472,4.20465,-0.000527318,0.0160054,0.0106855,0.0212488,-0.00577066,1.11462,0.0164307,0.0155167,594,1009,-46.7472,-4.20464
-623,15,-46.8157,4.15643,-0.00373487,0.0126385,0.00429076,0.0136948,-0.00479115,1.32942,0.0110778,0.0106757,601,1009,-46.8157,-4.15641
-616,15,-46.8261,4.10693,-0.00300658,0.00874447,0.00145592,0.00892217,-0.00318427,1.44935,0.00724662,0.0166799,608,1009,-46.8261,-4.10694
-609,15,-46.9119,4.09418,-0.00193662,0.00633595,-0.000498033,0.00636582,-0.00196649,-1.51088,0.00502921,0.0235892,615,1009,-46.9118,-4.09421
-602,15,-46.989,4.04492,-0.00117985,0.0047263,-0.00202728,0.0053552,-0.00180875,-1.26999,0.00430173,0.0238165,622,1009,-46.989,-4.04495
-595,15,-47.0121,3.93164,0,0,0,0,0,0,0,-1,629,1009,-47.0121,-3.93167
-588,15,-45.9905,0.770264,0,0,0,0,0,0,0,-1,636,1009,-45.9905,-0.770254
-581,15,-46.0228,0.829529,0.00114922,0.00176108,-0.0044916,0.00595716,-0.00304685,-0.819401,0.00528821,0.0373378,643,1009,-46.0227,-0.829513
-574,15,-46.0023,0.86322,0.00151102,0.00154617,-0.00485113,0.00637975,-0.00332256,-0.78721,0.00569358,0.0325228,650,1009,-46.0023,-0.863226
-567,15,-46.0588,0.968445,0.00155083,0.00165773,-0.00488112,0.00648569,-0.00327714,-0.790873,0.00573714,0.0349508,657,1009,-46.0588,-0.96843
-560,15,-46.006,1.06372,0.00131459,0.00198279,-0.00470584,0.00636637,-0.00306899,-0.820837,0.00555729,0.039975,664,1009,-46.006,-1.0637
-553,15,-45.8842,0.962341,0.000674597,0.00229851,-0.00442302,0.00598349,-0.00301038,-0.876175,0.00528634,0.041268,671,1009,-45.8842,-0.962324
-546,15,-45.8698,1.0542,-0.000407986,0.00222582,-0.00410735,0.00522222,-0.00340438,-0.940531,0.0050173,0.0422387,678,1009,-45.8698,-1.05422
-539,15,-45.9711,0.99231,-0.00198045,0.00170943,-0.00407966,0.00434193,-0.00461294,-0.997751,0.00517088,0.044161,685,1009,-45.9711,-0.992328
-532,15,-46.1208,0.854309,-0.00322992,0.00175226,-0.00547142,0.005273,-0.00675065,-0.999021,0.00695931,0.045384,692,1009,-46.1208,-0.854298
-525,15,0,0,0,0,0,0,0,0,0,-1,699,1009,0,0
-518,15,0,0,0,0,0,0,0,0,0,-1,706,1009,0,0
-511,15,0,0,0,0,0,0,0,0,0,-1,713,1009,0,0
-504,15,0,0,0,0,0,0,0,0,0,-1,720,1009,0,0
-497,15,0,0,0,0,0,0,0,0,0,-1,727,1009,0,0
-490,15,0,0,0,0,0,0,0,0,0,-1,734,1009,0,0
-483,15,0,0,0,0,0,0,0,0,0,-1,741,1009,0,0
-476,15,0,0,0,0,0,0,0,0,0,-1,748,1009,0,0
-469,15,0,0,0,0,0,0,0,0,0,-1,755,1009,0,0
-462,15,0,0,0,0,0,0,0,0,0,-1,762,1009,0,0
-455,15,0,0,0,0,0,0,0,0,0,-1,769,1009,0,0
-448,15,0,0,0,0,0,0,0,0,0,-1,776,1009,0,0
-441,15,0,0,0,0,0,0,0,0,0,-1,783,1009,0,0
-434,15,0,0,0,0,0,0,0,0,0,-1,790,1009,0,0
-427,15,0,0,0,0,0,0,0,0,0,-1,797,1009,0,0
-420,15,0,0,0,0,0,0,0,0,0,-1,804,1009,0,0
-413,15,0,0,0,0,0,0,0,0,0,-1,811,1009,0,0
-406,15,0,0,0,0,0,0,0,0,0,-1,818,1009,0,0
-399,15,0,0,0,0,0,0,0,0,0,-1,825,1009,0,0
-392,15,0,0,0,0,0,0,0,0,0,-1,832,1009,0,0
-385,15,0,0,0,0,0,0,0,0,0,-1,839,1009,0,0
-378,15,0,0,0,0,0,0,0,0,0,-1,846,1009,0,0
-371,15,0,0,0,0,0,0,0,0,0,-1,853,1009,0,0
-364,15,0,0,0,0,0,0,0,0,0,-1,860,1009,0,0
-357,15,0,0,0,0,0,0,0,0,0,-1,867,1009,0,0
-350,15,0,0,0,0,0,0,0,0,0,-1,874,1009,0,0
-343,15,0,0,0,0,0,0,0,0,0,-1,881,1009,0,0
-336,15,0,0,0,0,0,0,0,0,0,-1,888,1009,0,0
-329,15,0,0,0,0,0,0,0,0,0,-1,895,1009,0,0
-322,15,0,0,0,0,0,0,0,0,0,-1,902,1009,0,0
-315,15,0,0,0,0,0,0,0,0,0,-1,909,1009,0,0
-308,15,0,0,0,0,0,0,0,0,0,-1,916,1009,0,0
-301,15,0,0,0,0,0,0,0,0,0,-1,923,1009,0,0
-294,15,0,0,0,0,0,0,0,0,0,-1,930,1009,0,0
-287,15,0,0,0,0,0,0,0,0,0,-1,937,1009,0,0
-280,15,0,0,0,0,0,0,0,0,0,-1,944,1009,0,0
-273,15,0,0,0,0,0,0,0,0,0,-1,951,1009,0,0
-266,15,0,0,0,0,0,0,0,0,0,-1,958,1009,0,0
-259,15,0,0,0,0,0,0,0,0,0,-1,965,1009,0,0
-252,15,0,0,0,0,0,0,0,0,0,-1,972,1009,0,0
-245,15,0,0,0,0,0,0,0,0,0,-1,979,1009,0,0
-238,15,0,0,0,0,0,0,0,0,0,-1,986,1009,0,0
-231,15,0,0,0,0,0,0,0,0,0,-1,993,1009,0,0
-224,15,0,0,0,0,0,0,0,0,0,-1,1000,1009,0,0
-217,15,0,0,0,0,0,0,0,0,0,-1,1007,1009,0,0
-210,15,0,0,0,0,0,0,0,0,0,-1,1014,1009,0,0
-203,15,0,0,0,0,0,0,0,0,0,-1,1021,1009,0,0
-196,15,0,0,0,0,0,0,0,0,0,-1,1028,1009,0,0
-189,15,0,0,0,0,0,0,0,0,0,-1,1035,1009,0,0
-182,15,0,0,0,0,0,0,0,0,0,-1,1042,1009,0,0
-175,15,0,0,0,0,0,0,0,0,0,-1,1049,1009,0,0
-168,15,0,0,0,0,0,0,0,0,0,-1,1056,1009,0,0
-161,15,0,0,0,0,0,0,0,0,0,-1,1063,1009,0,0
-154,15,0,0,0,0,0,0,0,0,0,-1,1070,1009,0,0
-147,15,0,0,0,0,0,0,0,0,0,-1,1077,1009,0,0
-140,15,0,0,0,0,0,0,0,0,0,-1,1084,1009,0,0
-133,15,0,0,0,0,0,0,0,0,0,-1,1091,1009,0,0
-126,15,0,0,0,0,0,0,0,0,0,-1,1098,1009,0,0
-119,15,0,0,0,0,0,0,0,0,0,-1,1105,1009,0,0
-112,15,0,0,0,0,0,0,0,0,0,-1,1112,1009,0,0
-105,15,0,0,0,0,0,0,0,0,0,-1,1119,1009,0,0
-98,15,0,0,0,0,0,0,0,0,0,-1,1126,1009,0,0
-91,15,0,0,0,0,0,0,0,0,0,-1,1133,1009,0,0
-84,15,0,0,0,0,0,0,0,0,0,-1,1140,1009,0,0
-77,15,0,0,0,0,0,0,0,0,0,-1,1147,1009,0,0
-70,15,0,0,0,0,0,0,0,0,0,-1,1154,1009,0,0
-63,15,0,0,0,0,0,0,0,0,0,-1,1161,1009,0,0
-56,15,0,0,0,0,0,0,0,0,0,-1,1168,1009,0,0
-49,15,0,0,0,0,0,0,0,0,0,-1,1175,1009,0,0
-42,15,0,0,0,0,0,0,0,0,0,-1,1182,1009,0,0
-35,15,0,0,0,0,0,0,0,0,0,-1,1189,1009,0,0
-28,15,0,0,0,0,0,0,0,0,0,-1,1196,1009,0,0
-21,15,0,0,0,0,0,0,0,0,0,-1,1203,1009,0,0
-14,15,0,0,0,0,0,0,0,0,0,-1,1210,1009,0,0
-7,15,0,0,0,0,0,0,0,0,0,-1,1217,1009,0,0
0,15,0,0,0,0,0,0,0,0,0,-1,1224,1009,0,0
7,15,0,0,0,0,0,0,0,0,0,-1,1231,1009,0,0
14,15,0,0,0,0,0,0,0,0,0,-1,1238,1009,0,0
21,15,0,0,0,0,0,0,0,0,0,-1,1245,1009,0,0
28,15,0,0,0,0,0,0,0,0,0,-1,1252,1009,0,0
35,15,0,0,0,0,0,0,0,0,0,-1,1259,1009,0,0
42,15,0,0,0,0,0,0,0,0,0,-1,1266,1009,0,0
49,15,0,0,0,0,0,0,0,0,0,-1,1273,1009,0,0
56,15,0,0,0,0,0,0,0,0,0,-1,1280,1009,0,0
63,15,0,0,0,0,0,0,0,0,0,-1,1287,1009,0,0
70,15,0,0,0,0,0,0,0,0,0,-1,1294,1009,0,0
77,15,0,0,0,0,0,0,0,0,0,-1,1301,1009,0,0
84,15,0,0,0,0,0,0,0,0,0,-1,1308,1009,0,0
91,15,0,0,0,0,0,0,0,0,0,-1,1315,1009,0,0
98,15,0,0,0,0,0,0,0,0,0,-1,1322,1009,0,0
105,15,0,0,0,0,0,0,0,0,0,-1,1329,1009,0,0
112,15,0,0,0,0,0,0,0,0,0,-1,1336,1009,0,0
119,15,0,0,0,0,0,0,0,0,0,-1,1343,1009,0,0
126,15,0,0,0,0,0,0,0,0,0,-1,1350,1009,0,0
133,15,0,0,0,0,0,0,0,0,0,-1,1357,1009,0,0
140,15,0,0,0,0,0,0,0,0,0,-1,1364,1009,0,0
147,15,0,0,0,0,0,0,0,0,0,-1,1371,1009,0,0
154,15,0,0,0,0,0,0,0,0,0,-1,1378,1009,0,0
161,15,0,0,0,0,0,0,0,0,0,-1,1385,1009,0,0
168,15,0,0,0,0,0,0,0,0,0,-1,1392,1009,0,0
175,15,0,0,0,0,0,0,0,0,0,-1,1399,1009,0,0
182,15,0,0,0,0,0,0,0,0,0,-1,1406,1009,0,0
189,15,0,0,0,0,0,0,0,0,0,-1,1413,1009,0,0
196,15,0,0,0,0,0,0,0,0,0,-1,1420,1009,0,0
203,15,0,0,0,0,0,0,0,0,0,-1,1427,1009,0,0
210,15,0,0,0,0,0,0,0,0,0,-1,1434,1009,0,0
217,15,0,0,0,0,0,0,0,0,0,-1,1441,1009,0,0
224,15,0,0,0,0,0,0,0,0,0,-1,1448,1009,0,0
231,15,0,0,0,0,0,0,0,0,0,-1,1455,1009,0,0
238,15,0,0,0,0,0,0,0,0,0,-1,1462,1009,0,0
245,15,0,0,0,0,0,0,0,0,0,-1,1469,1009,0,0
252,15,0,0,0,0,0,0,0,0,0,-1,1476,1009,0,0
259,15,0,0,0,0,0,0,0,0,0,-1,1483,1009,0,0
266,15,0,0,0,0,0,0,0,0,0,-1,1490,1009,0,0
273,15,0,0,0,0,0,0,0,0,0,-1,1497,1009,0,0
280,15,0,0,0,0,0,0,0,0,0,-1,1504,1009,0,0
287,15,0,0,0,0,0,0,0,0,0,-1,1511,1009,0,0
294,15,0,0,0,0,0,0,0,0,0,-1,1518,1009,0,0
301,15,0,0,0,0,0,0,0,0,0,-1,1525,1009,0,0
308,15,0,0,0,0,0,0,0,0,0,-1,1532,1009,0,0
315,15,0,0,0,0,0,0,0,0,0,-1,1539,1009,0,0
322,15,0,0,0,0,0,0,0,0,0,-1,1546,1009,0,0
329,15,0,0,0,0,0,0,0,0,0,-1,1553,1009,0,0
336,15,0,0,0,0,0,0,0,0,0,-1,1560,1009,0,0
343,15,0,0,0,0,0,0,0,0,0,-1,1567,1009,0,0
350,15,0,0,0,0,0,0,0,0,0,-1,1574,1009,0,0
357,15,0,0,0,0,0,0,0,0,0,-1,1581,1009,0,0
364,15,0,0,0,0,0,0,0,0,0,-1,1588,1009,0,0
371,15,0,0,0,0,0,0,0,0,0,-1,1595,1009,0,0
378,15,0,0,0,0,0,0,0,0,0,-1,1602,1009,0,0
385,15,0,0,0,0,0,0,0,0,0,-1,1609,1009,0,0
392,15,0,0,0,0,0,0,0,0,0,-1,1616,1009,0,0
399,15,0,0,0,0,0,0,0,0,0,-1,1623,1009,0,0
406,15,0,0,0,0,0,0,0,0,0,-1,1630,1009,0,0
413,15,0,0,0,0,0,0,0,0,0,-1,1637,1009,0,0
420,15,0,0,0,0,0,0,0,0,0,-1,1644,1009,0,0
427,15,0,0,0,0,0,0,0,0,0,-1,1651,1009,0,0
434,15,0,0,0,0,0,0,0,0,0,-1,1658,1009,0,0
441,15,0,0,0,0,0,0,0,0,0,-1,1665,1009,0,0
448,15,0,0,0,0,0,0,0,0,0,-1,1672,1009,0,0
455,15,0,0,0,0,0,0,0,0,0,-1,1679,1009,0,0
462,15,0,0,0,0,0,0,0,0,0,-1,1686,1009,0,0
469,15,0,0,0,0,0,0,0,0,0,-1,1693,1009,0,0
476,15,0,0,0,0,0,0,0,0,0,-1,1700,1009,0,0
483,15,0,0,0,0,0,0,0,0,0,-1,1707,1009,0,0
490,15,0,0,0,0,0,0,0,0,0,-1,1714,1009,0,0
497,15,0,0,0,0,0,0,0,0,0,-1,1721,1009,0,0
504,15,0,0,0,0,0,0,0,0,0,-1,1728,1009,0,0
511,15,0,0,0,0,0,0,0,0,0,-1,1735,1009,0,0
518,15,0,0,0,0,0,0,0,0,0,-1,1742,1009,0,0
525,15,0,0,0,0,0,0,0,0,0,-1,1749,1009,0,0
532,15,0,0,0,0,0,0,0,0,0,-1,1756,1009,0,0
539,15,0,0,0,0,0,0,0,0,0,-1,1763,1009,0,0
546,15,0,0,0,0,0,0,0,0,0,-1,1770,1009,0,0
553,15,0,0,0,0,0,0,0,0,0,-1,1777,1009,0,0
560,15,0,0,0,0,0,0,0,0,0,-1,1784,1009,0,0
567,15,0,0,0,0,0,0,0,0,0,-1,1791,1009,0,0
574,15,0,0,0,0,0,0,0,0,0,-1,1798,1009,0,0
581,15,0,0,0,0,0,0,0,0,0,-1,1805,1009,0,0
588,15,0,0,0,0,0,0,0,0,0,-1,1812,1009,0,0
595,15,0,0,0,0,0,0,0,0,0,-1,1819,1009,0,0
602,15,0,0,0,0,0,0,0,0,0,-1,1826,1009,0,0
609,15,0,0,0,0,0,0,0,0,0,-1,1833,1009,0,0
616,15,0,0,0,0,0,0,0,0,0,-1,1840,1009,0,0
623,15,0,0,0,0,0,0,0,0,0,-1,1847,1009,0,0
630,15,0,0,0,0,0,0,0,0,0,-1,1854,1009,0,0
637,15,0,0,0,0,0,0,0,0,0,-1,1861,1009,0,0
644,15,60.9084,2.56525,-0.00403603,0.00250207,7.7407e-05,0.00250298,-0.00403694,1.55896,0.00381029,0.0405192,1868,1009,60.9085,-2.56523
651,15,60.6863,2.4353,-0.00385164,0.00200955,5.02352e-05,0.00200999,-0.00385207,1.56223,0.00343971,0.0402991,1875,1009,60.6863,-2.43529
658,15,60.8525,2.62946,-0.0032833,0.0014952,8.30591e-05,0.00149665,-0.00328474,1.55342,0.00282415,0.0401327,1882,1009,60.8526,-2.62945
665,15,60.8402,2.55927,-0.0027144,0.00118234,0.000145106,0.00118773,-0.0027198,1.53363,0.00231309,0.0399318,1889,1009,60.8402,-2.55924
672,15,60.7981,2.56842,-0.0020944,0.000937295,0.000256683,0.000958873,-0.00211598,1.48693,0.00181669,0.038062,1896,1009,60.7981,-2.56844
679,15,60.7786,2.66058,-0.00141306,0.000630489,0.000409972,0.000709669,-0.00149224,1.38001,0.00129776,0.0365844,1903,1009,60.7785,-2.66058
686,15,60.7933,2.72614,-0.000951097,0.000166345,0.000516995,0.000368842,-0.00115359,1.19748,0.000917077,0.0427836,1910,1009,60.7933,-2.72613
693,15,60.8024,2.7265,-0.000660782,-0.000327269,0.000589345,0.000118457,-0.00110651,0.92327,0.000780161,0.0448497,1917,1009,60.8024,-2.7265
700,15,60.8687,2.68878,-0.000475588,-0.000621577,0.0005549,1.10986e-05,-0.00110826,0.720001,0.000742569,0.0340853,1924,1009,60.8687,-2.68879
707,15,60.809,2.7655,-0.0009225,-0.000325537,0.000369147,-0.000149297,-0.00109874,1.12537,0.000688148,0.0281482,1931,1009,60.8089,-2.7655
714,15,60.7811,2.74579,-0.00179637,0.000368058,0.000164495,0.000380488,-0.0018088,1.49537,0.00135068,0.0315562,1938,1009,60.7812,-2.74581
721,15,60.771,2.65564,0,0,0,0,0,0,0,-1,1945,1009,60.771,-2.65564
728,15,60.8125,6.31696,0,0,0,0,0,0,0,-1,1952,1009,60.8125,-6.31693
735,15,60.7247,6.46887,-0.0047001,0.00445099,-0.000189464,0.00445491,-0.00470402,-1.5501,0.00528856,0.021128,1959,1009,60.7247,-6.46886
742,15,60.697,6.64459,-0.00557912,0.00620213,-0.00164585,0.00642773,-0.00580473,-1.43457,0.00706547,0.0403299,1966,1009,60.697,-6.64459
749,15,60.7496,6.68872,-0.00658897,0.00846428,-0.00343853,0.00921253,-0.00733722,-1.35653,0.00957543,0.025452,1973,1009,60.7496,-6.68873
756,15,60.7725,6.64868,-0.00730466,0.0119336,-0.00588307,0.0135901,-0.00896108,-1.29634,0.013111,0.0190039,1980,1009,60.7724,-6.64866
763,15,60.6707,6.78314,-0.00745942,0.0166933,-0.0100923,0.0203552,-0.0111213,-1.22273,0.0184318,0.0146712,1987,1009,60.6707,-6.78312
770,15,60.5059,6.81158,-0.00688144,0.0225323,-0.0160451,0.0295909,-0.0139401,-1.15635,0.0256684,0.0195426,1994,1009,60.5059,-6.81157
777,15,60.1167,6.90454,-0.00530248,0.0297068,-0.0245715,0.0423712,-0.0179669,-1.0949,0.0357734,0.0426004,2001,1009,60.1168,-6.90455
784,15,59.7715,6.69196,0,0,0,0,0,0,0,-1,2008,1009,59.7716,-6.69197
791,15,59.7068,5.96674,-0.000462025,0.0457228,-0.046265,0.0743383,-0.0290776,-1.01687,0.0615838,0.0483293,2015,1009,59.7068,-5.96673
798,15,59.696,5.13995,0.00287957,0.0550505,-0.0600752,0.0944591,-0.0365291,-0.990223,0.0780524,0.0476425,2022,1009,59.6961,-5.13995
805,15,59.248,4.29761,0.00675018,0.0656845,-0.0758966,0.117634,-0.0451989,-0.970568,0.0970625,0.0467377,2029,1009,59.248,-4.29761
812,15,58.9702,3.57159,0.0108295,0.078604,-0.0944064,0.145021,-0.0555874,-0.957711,0.119596,0.0452488,2036,1009,58.9702,-3.57162
-700,8,0,0,0,0,0,0,0,0,0,-1,524,1016,0,0
-693,8,-46.7004,-0.456055,0.115187,0.0289039,0.0827309,0.165349,-0.0212583,0.545061,0.117959,0.0436125,531,1016,-46.7004,0.456078
-686,8,-46.4677,0.552734,0.0974222,0.0346808,0.0762298,0.148484,-0.0163809,0.590196,0.104877,0.0436081,538,1016,-46.4677,-0.552726
-679,8,-45.8245,1.59021,0.0801517,0.0363823,0.0676439,0.129363,-0.012829,0.628948,0.0908209,0.0438225,545,1016,-45.8245,-1.59023
-672,8,-45.0785,2.54321,0,0,0,0,0,0,0,-1,552,1016,-45.0785,-2.54321
-665,8,-47.049,3.02466,0,0,0,0,0,0,0,-1,559,1016,-47.049,-3.02466
-658,8,-46.9003,3.2384,0,0,0,0,0,0,0,-1,566,1016,-46.9004,-3.23838
-651,8,-46.1907,3.71362,0,0,0,0,0,0,0,-1,573,1016,-46.1908,-3.71362
-644,8,-46.266,3.85858,0,0,0,0,0,0,0,-1,580,1016,-46.266,-3.8586
-637,8,-46.5656,3.94507,0.0074715,0.0220897,0.0167068,0.0330163,-0.00345507,0.991601,0.0232483,0.0428912,587,1016,-46.5655,-3.94506
-630,8,-46.7658,4.10828,0.000455273,0.0160463,0.00922182,0.0203261,-0.00382448,1.13629,0.0149891,0.0251494,594,1016,-46.7658,-4.10826
-623,8,-46.7668,4.15424,-0.00303335,0.0123024,0.00328494,0.0129764,-0.00370737,1.36842,0.0101158,0.0164747,601,1016,-46.7668,-4.15427
-616,8,-46.8091,4.12616,-0.00261853,0.00835552,0.000662415,0.00839536,-0.00265837,1.51073,0.00666223,0.0173355,608,1016,-46.8091,-4.12614
-609,8,-46.8848,4.04932,-0.00174154,0.00592904,-0.00112496,0.00609062,-0.00190312,-1.42814,0.00482165,0.0199904,615,1016,-46.8848,-4.04932
-602,8,-46.8561,4.10095,-0.00111134,0.00433236,-0.00247202,0.00528738,-0.00206635,-1.20213,0.00437933,0.0234569,622,1016,-46.8561,-4.10097
-595,8,-46.8994,4.03638,0,0,0,0,0,0,0,-1,629,1016,-46.8994,-4.03637
-588,8,-45.9643,0.673767,0,0,0,0,0,0,0,-1,636,1016,-45.9643,-0.673759
-581,8,-45.978,0.950256,0.00102884,0.00155712,-0.00435025,0.00565124,-0.00306528,-0.81572,0.00510577,0.0284398,643,1016,-45.978,-0.950268
-574,8,-45.9407,0.999573,0.00135675,0.00135797,-0.00453377,0.00589113,-0.00317641,-0.785466,0.00531278,0.0346239,650,1016,-45.9407,-0.999598
-567,8,-45.957,1.08649,0.00131574,0.00147326,-0.00440887,0.00580408,-0.00301508,-0.79433,0.00517592,0.0401398,657,1016,-45.9571,-1.08649
-560,8,-45.9003,1.01904,0.000951434,0.00176455,-0.00407057,0.00544882,-0.00273283,-0.835172,0.00480965,0.0409757,664,1016,-45.9003,-1.01904
-553,8,-45.7291,0.840332,9.9934e-05,0.00196198,-0.00360706,0.00475623,-0.00269431,-0.911698,0.00435614,0.0418925,671,1016,-45.7291,-0.840302
-546,8,-45.7851,0.939087,-0.00129049,0.00161609,-0.00308946,0.00357701,-0.0032514,-1.00524,0.00394388,0.0420656,678,1016,-45.7851,-0.939099
-539,8,-45.9845,0.796326,-0.00325112,0.0006624,-0.00292808,0.00222737,-0.00481609,-1.07996,0.00415708,0.041655,685,1016,-45.9845,-0.796344
-532,8,-46.0432,0.601807,-0.00494478,0.000125972,-0.00384398,0.00219541,-0.00701422,-1.07694,0.0055545,0.0445194,692,1016,-46.0432,-0.601816
-525,8,0,0,0,0,0,0,0,0,0,-1,699,1016,0,0
-518,8,0,0,0,0,0,0,0,0,0,-1,706,1016,0,0
-511,8,0,0,0,0,0,0,0,0,0,-1,713,1016,0,0
-504,8,0,0,0,0,0,0,0,0,0,-1,720,1016,0,0
-497,8,0,0,0,0,0,0,0,0,0,-1,727,1016,0,0
-490,8,0,0,0,0,0,0,0,0,0,-1,734,1016,0,0
-483,8,0,0,0,0,0,0,0,0,0,-1,741,1016,0,0
-476,8,0,0,0,0,0,0,0,0,0,-1,748,1016,0,0
-469,8,0,0,0,0,0,0,0,0,0,-1,755,1016,0,0
-462,8,0,0,0,0,0,0,0,0,0,-1,762,1016,0,0
-455,8,0,0,0,0,0,0,0,0,0,-1,769,1016,0,0
-448,8,0,0,0,0,0,0,0,0,0,-1,776,1016,0,0
-441,8,0,0,0,0,0,0,0,0,0,-1,783,1016,0,0
-434,8,0,0,0,0,0,0,0,0,0,-1,790,1016,0,0
-427,8,0,0,0,0,0,0,0,0,0,-1,797,1016,0,0
-420,8,0,0,0,0,0,0,0,0,0,-1,804,1016,0,0
-413,8,0,0,0,0,0,0,0,0,0,-1,811,1016,0,0
-406,8,0,0,0,0,0,0,0,0,0,-1,818,1016,0,0
-399,8,0,0,0,0,0,0,0,0,0,-1,825,1016,0,0
-392,8,0,0,0,0,0,0,0,0,0,-1,832,1016,0,0
-385,8,0,0,0,0,0,0,0,0,0,-1,839,1016,0,0
-378,8,0,0,0,0,0,0,0,0,0,-1,846,1016,0,0
-371,8,0,0,0,0,0,0,0,0,0,-1,853,1016,0,0
-364,8,0,0,0,0,0,0,0,0,0,-1,860,1016,0,0
-357,8,0,0,0,0,0,0,0,0,0,-1,867,1016,0,0
-350,8,0,0,0,0,0,0,0,0,0,-1,874,1016,0,0
-343,8,0,0,0,0,0,0,0,0,0,-1,881,1016,0,0
-336,8,0,0,0,0,0,0,0,0,0,-1,888,1016,0,0
-329,8,0,0,0,0,0,0,0,0,0,-1,895,1016,0,0
-322,8,0,0,0,0,0,0,0,0,0,-1,902,1016,0,0
-315,8,0,0,0,0,0,0,0,0,0,-1,909,1016,0,0
-308,8,0,0,0,0,0,0,0,0,0,-1,916,1016,0,0
-301,8,0,0,0,0,0,0,0,0,0,-1,923,1016,0,0
-294,8,0,0,0,0,0,0,0,0,0,-1,930,1016,0,0
-287,8,0,0,0,0,0,0,0,0,0,-1,937,1016,0,0
-280,8,0,0,0,0,0,0,0,0,0,-1,944,1016,0,0
-273,8,0,0,0,0,0,0,0,0,0,-1,951,1016,0,0
-266,8,0,0,0,0,0,0,0,0,0,-1,958,1016,0,0
-259,8,0,0,0,0,0,0,0,0,0,-1,965,1016,0,0
-252,8,0,0,0,0,0,0,0,0,0,-1,972,1016,0,0
-245,8,0,0,0,0,0,0,0,0,0,-1,979,1016,0,0
-238,8,0,0,0,0,0,0,0,0,0,-1,986,1016,0,0
-231,8,0,0,0,0,0,0,0,0,0,-1,993,1016,0,0
-224,8,0,0,0,0,0,0,0,0,0,-1,1000,1016,0,0
-217,8,0,0,0,0,0,0,0,0,0,-1,1007,1016,0,0
-210,8,0,0,0,0,0,0,0,0,0,-1,1014,1016,0,0
-203,8,0,0,0,0,0,0,0,0,0,-1,1021,1016,0,0
-196,8,0,0,0,0,0,0,0,0,0,-1,1028,1016,0,0
-189,8,0,0,0,0,0,0,0,0,0,-1,1035,1016,0,0
-182,8,0,0,0,0,0,0,0,0,0,-1,1042,1016,0,0
-175,8,0,0,0,0,0,0,0,0,0,-1,1049,1016,0,0
-168,8,0,0,0,0,0,0,0,0,0,-1,1056,1016,0,0
-161,8,0,0,0,0,0,0,0,0,0,-1,1063,1016,0,0
-154,8,0,0,0,0,0,0,0,0,0,-1,1070,1016,0,0
-147,8,0,0,0,0,0,0,0,0,0,-1,1077,1016,0,0
-140,8,0,0,0,0,0,0,0,0,0,-1,1084,1016,0,0
-133,8,0,0,0,0,0,0,0,0,0,-1,1091,1016,0,0
-126,8,0,0,0,0,0,0,0,0,0,-1,1098,1016,0,0
-119,8,0,0,0,0,0,0,0,0,0,-1,1105,1016,0,0
-112,8,0,0,0,0,0,0,0,0,0,-1,1112,1016,0,0
-105,8,0,0,0,0,0,0,0,0,0,-1,1119,1016,0,0
-98,8,0,0,0,0,0,0,0,0,0,-1,1126,1016,0,0
-91,8,0,0,0,0,0,0,0,0,0,-1,1133,1016,0,0
-84,8,0,0,0,0,0,0,0,0,0,-1,1140,1016,0,0
-77,8,0,0,0,0,0,0,0,0,0,-1,1147,1016,0,0
-70,8,0,0,0,0,0,0,0,0,0,-1,1154,1016,0,0
-63,8,0,0,0,0,0,0,0,0,0,-1,1161,1016,0,0
-56,8,0,0,0,0,0,0,0,0,0,-1,1168,1016,0,0
-49,8,0,0,0,0,0,0,0,0,0,-1,1175,1016,0,0
-42,8,0,0,0,0,0,0,0,0,0,-1,1182,1016,0,0
-35,8,0,0,0,0,0,0,0,0,0,-1,1189,1016,0,0
-28,8,0,0,0,0,0,0,0,0,0,-1,1196,1016,0,0
-21,8,0,0,0,0,0,0,0,0,0,-1,1203,1016,0,0
-14,8,0,0,0,0,0,0,0,0,0,-1,1210,1016,0,0
-7,8,0,0,0,0,0,0,0,0,0,-1,1217,1016,0,0
0,8,0,0,0,0,0,0,0,0,0,-1,1224,1016,0,0
7,8,0,0,0,0,0,0,0,0,0,-1,1231,1016,0,0
14,8,0,0,0,0,0,0,0,0,0,-1,1238,1016,0,0
21,8,0,0,0,0,0,0,0,0,0,-1,1245,1016,0,0
28,8,0,0,0,0,0,0,0,0,0,-1,1252,1016,0,0
35,8,0,0,0,0,0,0,0,0,0,-1,1259,1016,0,0
42,8,0,0,0,0,0,0,0,0,0,-1,1266,1016,0,0
49,8,0,0,0,0,0,0,0,0,0,-1,1273,1016,0,0
56,8,0,0,0,0,0,0,0,0,0,-1,1280,1016,0,0
63,8,0,0,0,0,0,0,0,0,0,-1,1287,1016,0,0
70,8,0,0,0,0,0,0,0,0,0,-1,1294,1016,0,0
77,8,0,0,0,0,0,0,0,0,0,-1,1301,1016,0,0
84,8,0,0,0,0,0,0,0,0,0,-1,1308,1016,0,0
91,8,0,0,0,0,0,0,0,0,0,-1,1315,1016,0,0
98,8,0,0,0,0,0,0,0,0,0,-1,1322,1016,0,0
105,8,0,0,0,0,0,0,0,0,0,-1,1329,1016,0,0
112,8,0,0,0,0,0,0,0,0,0,-1,1336,1016,0,0
119,8,0,0,0,0,0,0,0,0,0,-1,1343,1016,0,0
126,8,0,0,0,0,0,0,0,0,0,-1,1350,1016,0,0
133,8,0,0,0,0,0,0,0,0,0,-1,1357,1016,0,0
140,8,0,0,0,0,0,0,0,0,0,-1,1364,1016,0,0
147,8,0,0,0,0,0,0,0,0,0,-1,1371,1016,0,0
154,8,0,0,0,0,0,0,0,0,0,-1,1378,1016,0,0
161,8,0,0,0,0,0,0,0,0,0,-1,1385,1016,0,0
168,8,0,0,0,0,0,0,0,0,0,-1,1392,1016,0,0
175,8,0,0,0,0,0,0,0,0,0,-1,1399,1016,0,0
182,8,0,0,0,0,0,0,0,0,0,-1,1406,1016,0,0
189,8,0,0,0,0,0,0,0,0,0,-1,1413,1016,0,0
196,8,0,0,0,0,0,0,0,0,0,-1,1420,1016,0,0
203,8,0,0,0,0,0,0,0,0,0,-1,1427,1016,0,0
210,8,0,0,0,0,0,0,0,0,0,-1,1434,1016,0,0
217,8,0,0,0,0,0,0,0,0,0,-1,1441,1016,0,0
224,8,0,0,0,0,0,0,0,0,0,-1,1448,1016,0,0
231,8,0,0,0,0,0,0,0,0,0,-1,1455,1016,0,0
238,8,0,0,0,0,0,0,0,0,0,-1,1462,1016,0,0
245,8,0,0,0,0,0,0,0,0,0,-1,1469,1016,0,0
252,8,0,0,0,0,0,0,0,0,0,-1,1476,1016,0,0
259,8,0,0,0,0,0,0,0,0,0,-1,1483,1016,0,0
266,8,0,0,0,0,0,0,0,0,0,-1,1490,1016,0,0
273,8,0,0,0,0,0,0,0,0,0,-1,1497,1016,0,0
280,8,0,0,0,0,0,0,0,0,0,-1,1504,1016,0,0
287,8,0,0,0,0,0,0,0,0,0,-1,1511,1016,0,0
294,8,0,0,0,0,0,0,0,0,0,-1,1518,1016,0,0
301,8,0,0,0,0,0,0,0,0,0,-1,1525,1016,0,0
308,8,0,0,0,0,0,0,0,0,0,-1,1532,1016,0,0
315,8,0,0,0,0,0,0,0,0,0,-1,1539,1016,0,0
322,8,0,0,0,0,0,0,0,0,0,-1,1546,1016,0,0
329,8,0,0,0,0,0,0,0,0,0,-1,1553,1016,0,0
336,8,0,0,0,0,0,0,0,0,0,-1,1560,1016,0,0
343,8,0,0,0,0,0,0,0,0,0,-1,1567,1016,0,0
350,8,0,0,0,0,0,0,0,0,0,-1,1574,1016,0,0
357,8,0,0,0,0,0,0,0,0,0,-1,1581,1016,0,0
364,8,0,0,0,0,0,0,0,0,0,-1,1588,1016,0,0
371,8,0,0,0,0,0,0,0,0,0,-1,1595,1016,0,0
378,8,0,0,0,0,0,0,0,0,0,-1,1602,1016,0,0
385,8,0,0,0,0,0,0,0,0,0,-1,1609,1016,0,0
392,8,0,0,0,0,0,0,0,0,0,-1,1616,1016,0,0
399,8,0,0,0,0,0,0,0,0,0,-1,1623,1016,0,0
406,8,0,0,0,0,0,0,0,0,0,-1,1630,1016,0,0
413,8,0,0,0,0,0,0,0,0,0,-1,1637,1016,0,0
420,8,0,0,0,0,0,0,0,0,0,-1,1644,1016,0,0
427,8,0,0,0,0,0,0,0,0,0,-1,1651,1016,0,0
434,8,0,0,0,0,0,0,0,0,0,-1,1658,1016,0,0
441,8,0,0,0,0,0,0,0,0,0,-1,1665,1016,0,0
448,8,0,0,0,0,0,0,0,0,0,-1,1672,1016,0,0
455,8,0,0,0,0,0,0,0,0,0,-1,1679,1016,0,0
462,8,0,0,0,0,0,0,0,0,0,-1,1686,1016,0,0
469,8,0,0,0,0,0,0,0,0,0,-1,1693,1016,0,0
476,8,0,0,0,0,0,0,0,0,0,-1,1700,1016,0,0
483,8,0,0,0,0,0,0,0,0,0,-1,1707,1016,0,0
490,8,0,0,0,0,0,0,0,0,0,-1,1714,1016,0,0
497,8,0,0,0,0,0,0,0,0,0,-1,1721,1016,0,0
504,8,0,0,0,0,0,0,0,0,0,-1,1728,1016,0,0
511,8,0,0,0,0,0,0,0,0,0,-1,1735,1016,0,0
518,8,0,0,0,0,0,0,0,0,0,-1,1742,1016,0,0
525,8,0,0,0,0,0,0,0,0,0,-1,1749,1016,0,0
532,8,0,0,0,0,0,0,0,0,0,-1,1756,1016,0,0
539,8,0,0,0,0,0,0,0,0,0,-1,1763,1016,0,0
546,8,0,0,0,0,0,0,0,0,0,-1,1770,1016,0,0
553,8,0,0,0,0,0,0,0,0,0,-1,1777,1016,0,0
560,8,0,0,0,0,0,0,0,0,0,-1,1784,1016,0,0
567,8,0,0,0,0,0,0,0,0,0,-1,1791,1016,0,0
574,8,0,0,0,0,0,0,0,0,0,-1,1798,1016,0,0
581,8,0,0,0,0,0,0,0,0,0,-1,1805,1016,0,0
588,8,0,0,0,0,0,0,0,0,0,-1,1812,1016,0,0
595,8,0,0,0,0,0,0,0,0,0,-1,1819,1016,0,0
602,8,0,0,0,0,0,0,0,0,0,-1,1826,1016,0,0
609,8,0,0,0,0,0,0,0,0,0,-1,1833,1016,0,0
616,8,0,0,0,0,0,0,0,0,0,-1,1840,1016,0,0
623,8,0,0,0,0,0,0,0,0,0,-1,1847,1016,0,0
630,8,0,0,0,0,0,0,0,0,0,-1,1854,1016,0,0
637,8,0,0,0,0,0,0,0,0,0,-1,1861,1016,0,0
644,8,60.8534,2.50934,-0.00419096,0.00300079,0.00019398,0.00300602,-0.00419618,1.54385,0.00417707,0.0443147,1868,1016,60.8534,-2.50936
651,8,60.863,2.53632,-0.0041038,0.00237479,0.000190038,0.00238036,-0.00410936,1.5415,0.00379091,0.0434311,1875,1016,60.8631,-2.53629
658,8,60.798,2.52332,-0.00354236,0.00183777,0.000211588,0.00184608,-0.00355067,1.53155,0.0031672,0.0430674,1882,1016,60.798,-2.52333
665,8,60.764,2.48663,-0.0029634,0.00152851,0.000269158,0.00154458,-0.00297947,1.51116,0.00265539,0.0419683,1889,1016,60.7641,-2.48665
672,8,60.7972,2.37036,-0.00232612,0.00130495,0.000381263,0.00134455,-0.00236572,1.4673,0.002169,0.0388005,1896,1016,60.7972,-2.37038
679,8,60.7985,2.42767,-0.00161449,0.00105072,0.000534554,0.00115393,-0.00171771,1.38005,0.00166856,0.036364,1903,1016,60.7984,-2.4277
686,8,60.7653,2.71515,-0.00117155,0.000614414,0.000648806,0.000825228,-0.00138236,1.25663,0.00128801,0.0415408,1910,1016,60.7653,-2.71517
693,8,60.8053,2.77124,-0.000893972,0.000111742,0.00075049,0.000512268,-0.0012945,1.08056,0.00107523,0.0426493,1917,1016,60.8053,-2.77124
700,8,60.8987,2.72919,-0.000690421,-0.000246183,0.000756706,0.000320331,-0.00125693,0.928155,0.000962666,0.0324891,1924,1016,60.8987,-2.72922
707,8,60.8417,2.69257,-0.00115044,-1.8447e-05,0.000619164,0.000254434,-0.00142332,1.15568,0.00104408,0.0232658,1931,1016,60.8416,-2.69259
714,8,60.8025,2.64819,-0.00202173,0.000633733,0.000462574,0.000712005,-0.0021,1.40317,0.00168815,0.0278131,1938,1016,60.8025,-2.64817
721,8,60.8477,2.5307,0,0,0,0,0,0,0,-1,1945,1016,60.8476,-2.53071
728,8,52.1681,5.36774,0,0,0,0,0,0,0,-1,1952,1016,52.168,-5.36773
735,8,60.7719,6.5675,0,0,0,0,0,0,0,-1,1959,1016,60.7718,-6.56749
742,8,60.6886,6.8172,0,0,0,0,0,0,0,-1,1966,1016,60.6886,-6.8172
749,8,60.9913,6.65356,0,0,0,0,0,0,0,-1,1973,1016,60.9914,-6.65356
756,8,60.8085,6.53351,-0.00748146,0.011754,-0.00543016,0.0131811,-0.00890851,-1.31381,0.0128327,0.0364634,1980,1016,60.8085,-6.53354
763,8,60.7875,6.62634,-0.00756252,0.0164017,-0.00948296,0.0197002,-0.010861,-1.23605,0.0178889,0.0168519,1987,1016,60.7875,-6.62635
770,8,60.658,6.58051,-0.00687362,0.022136,-0.0152786,0.0286983,-0.0134359,-1.16511,0.0248525,0.0220002,1994,1016,60.6581,-6.58051
777,8,60.2979,6.59613,-0.00499828,0.0294384,-0.0238718,0.0416536,-0.0172135,-1.09783,0.0349497,0.0355169,2001,1016,60.2979,-6.59613
784,8,59.9536,6.38306,0,0,0,0,0,0,0,-1,2008,1016,59.9537,-6.38306
791,8,59.8152,5.87506,0.00080129,0.0461212,-0.0458314,0.0745884,-0.0276659,-1.01499,0.0610733,0.0479078,2015,1016,59.8153,-5.87507
798,8,59.6731,5.06757,0.0049125,0.0561621,-0.0598986,0.095687,-0.0346124,-0.987519,0.0779343,0.0485686,2022,1016,59.673,-5.06754
805,8,59.1648,4.17151,0,0,0,0,0,0,0,-1,2029,1016,59.1648,-4.17152
812,8,58.3486,3.51416,0,0,0,0,0,0,0,-1,2036,1016,58.3486,-3.51419
-700,1,0,0,0,0,0,0,0,0,0,-1,524,1023,0,0
-693,1,-47.1037,-0.283264,0.111734,0.0373947,0.0813597,0.164012,-0.0148839,0.571128,0.114625,0.042989,531,1023,-47.1037,0.283291
-686,1,-46.6762,0.758667,0.0955276,0.0406147,0.074193,0.147182,-0.0110393,0.608179,0.102,0.0475446,538,1023,-46.6762,-0.758657
-679,1,-46.1721,1.82349,0.0790129,0.0407629,0.0653242,0.127954,-0.0081783,0.642993,0.0881554,0.0488481,545,1023,-46.1721,-1.82348
-672,1,-45.9168,2.73236,0,0,0,0,0,0,0,-1,552,1023,-45.9168,-2.73233
-665,1,-45.8502,3.6181,0,0,0,0,0,0,0,-1,559,1023,-45.8502,-3.61807
-658,1,-46.5977,3.47095,0.0374448,0.0336038,0.0381401,0.0737128,-0.00266416,0.760242,0.0500535,0.0360884,566,1023,-46.5977,-3.47097
-651,1,-46.4863,3.71887,0.0265378,0.0296803,0.0298419,0.0579923,-0.00177418,0.8117,0.0392663,0.0278708,573,1023,-46.4863,-3.71885
-644,1,-46.193,3.97687,0,0,0,0,0,0,0,-1,580,1023,-46.193,-3.97686
-637,1,-46.5452,3.88916,0.00777722,0.0222008,0.014758,0.0314148,-0.00143685,1.01267,0.0214382,0.0399052,587,1023,-46.5451,-3.88916
-630,1,-46.8101,3.93756,0.000918137,0.0162129,0.00784198,0.019519,-0.00238798,1.17182,0.0138773,0.0351233,594,1023,-46.8101,-3.93755
-623,1,-46.7073,4.13611,-0.00260341,0.0120015,0.00248958,0.0124142,-0.00301613,1.40651,0.00944347,0.0170846,601,1023,-46.7073,-4.13612
-616,1,-46.8606,4.06055,-0.00237594,0.00785463,0.000117521,0.00785598,-0.00237729,1.55931,0.00618399,0.021108,608,1023,-46.8606,-4.06056
-609,1,-46.8748,4.1015,-0.00161354,0.00530237,-0.00145918,0.00559763,-0.0019088,-1.37114,0.0045049,0.0230154,615,1023,-46.8748,-4.10153
-602,1,-46.6727,4.19934,-0.00107712,0.00361856,-0.0025881,0.00476509,-0.00222365,-1.15378,0.00412292,0.0154954,622,1023,-46.6726,-4.19935
-595,1,-46.5007,4.24597,0,0,0,0,0,0,0,-1,629,1023,-46.5008,-4.246
-588,1,-46.4221,2.84222,0,0,0,0,0,0,0,-1,636,1023,-46.4221,-2.8422
-581,1,-45.9829,0.922485,0.000954737,0.000890141,-0.00373154,0.00465412,-0.00280924,-0.781071,0.00435263,0.0261628,643,1023,-45.9829,-0.92249
-574,1,-45.9506,1.03052,0.00123992,0.000708492,-0.00371082,0.00469453,-0.00274612,-0.749657,0.00434468,0.0351046,650,1023,-45.9506,-1.03054
-567,1,-45.9379,1.10657,0.00112322,0.000848424,-0.00341073,0.00439932,-0.00242767,-0.765267,0.00399598,0.0428488,657,1023,-45.9379,-1.10659
-560,1,-45.7479,0.847046,0.000637383,0.00116374,-0.00289268,0.0038052,-0.00200407,-0.830764,0.00340729,0.0421479,664,1023,-45.7479,-0.84703
-553,1,-45.5593,0.660278,-0.000385706,0.00136646,-0.00222757,0.00288403,-0.00190328,-0.972753,0.00278322,0.0405886,671,1023,-45.5593,-0.660274
-546,1,-45.6924,0.663879,-0.00199954,0.000966007,-0.00148116,0.00157905,-0.00261259,-1.17837,0.00244444,0.0423854,678,1023,-45.6924,-0.663882
-539,1,-45.911,0.58429,-0.00424207,-0.000155222,-0.0011278,0.000135347,-0.00453264,-1.31864,0.00306787,0.042074,685,1023,-45.911,-0.584264
-532,1,-46.0576,0.554321,-0.00620779,-0.000980682,-0.00147994,-0.000590757,-0.00659771,-1.31318,0.00421538,0.0429419,692,1023,-46.0576,-0.554332
-525,1,0,0,0,0,0,0,0,0,0,-1,699,1023,0,0
-518,1,0,0,0,0,0,0,0,0,0,-1,706,1023,0,0
-511,1,0,0,0,0,0,0,0,0,0,-1,713,1023,0,0
-504,1,0,0,0,0,0,0,0,0,0,-1,720,1023,0,0
-497,1,0,0,0,0,0,0,0,0,0,-1,727,1023,0,0
-490,1,0,0,0,0,0,0,0,0,0,-1,734,1023,0,0
-483,1,0,0,0,0,0,0,0,0,0,-1,741,1023,0,0
-476,1,0,0,0,0,0,0,0,0,0,-1,748,1023,0,0
-469,1,0,0,0,0,0,0,0,0,0,-1,755,1023,0,0
-462,1,0,0,0,0,0,0,0,0,0,-1,762,1023,0,0
-455,1,0,0,0,0,0,0,0,0,0,-1,769,1023,0,0
-448,1,0,0,0,0,0,0,0,0,0,-1,776,1023,0,0
-441,1,0,0,0,0,0,0,0,0,0,-1,783,1023,0,0
-434,1,0,0,0,0,0,0,0,0,0,-1,790,1023,0,0
-427,1,0,0,0,0,0,0,0,0,0,-1,797,1023,0,0
-420,1,0,0,0,0,0,0,0,0,0,-1,804,1023,0,0
-413,1,0,0,0,0,0,0,0,0,0,-1,811,1023,0,0
-406,1,0,0,0,0,0,0,0,0,0,-1,818,1023,0,0
-399,1,0,0,0,0,0,0,0,0,0,-1,825,1023,0,0
-392,1,0,0,0,0,0,0,0,0,0,-1,832,1023,0,0
-385,1,0,0,0,0,0,0,0,0,0,-1,839,1023,0,0
-378,1,0,0,0,0,0,0,0,0,0,-1,846,1023,0,0
-371,1,0,0,0,0,0,0,0,0,0,-1,853,1023,0,0
-364,1,0,0,0,0,0,0,0,0,0,-1,860,1023,0,0
-357,1,0,0,0,0,0,0,0,0,0,-1,867,1023,0,0
-350,1,0,0,0,0,0,0,0,0,0,-1,874,1023,0,0
-343,1,0,0,0,0,0,0,0,0,0,-1,881,1023,0,0
-336,1,0,0,0,0,0,0,0,0,0,-1,888,1023,0,0
-329,1,0,0,0,0,0,0,0,0,0,-1,895,1023,0,0
-322,1,0,0,0,0,0,0,0,0,0,-1,902,1023,0,0
-315,1,0,0,0,0,0,0,0,0,0,-1,909,1023,0,0
-308,1,0,0,0,0,0,0,0,0,0,-1,916,1023,0,0
-301,1,0,0,0,0,0,0,0,0,0,-1,923,1023,0,0
-294,1,0,0,0,0,0,0,0,0,0,-1,930,1023,0,0
-287,1,0,0,0,0,0,0,0,0,0,-1,937,1023,0,0
-280,1,0,0,0,0,0,0,0,0,0,-1,944,1023,0,0
-273,1,0,0,0,0,0,0,0,0,0,-1,951,1023,0,0
-266,1,0,0,0,0,0,0,0,0,0,-1,958,1023,0,0
-259,1,0,0,0,0,0,0,0,0,0,-1,965,1023,0,0
-252,1,0,0,0,0,0,0,0,0,0,-1,972,1023,0,0
-245,1,0,0,0,0,0,0,0,0,0,-1,979,1023,0,0
-238,1,0,0,0,0,0,0,0,0,0,-1,986,1023,0,0
-231,1,0,0,0,0,0,0,0,0,0,-1,993,1023,0,0
-224,1,0,0,0,0,0,0,0,0,0,-1,1000,1023,0,0
-217,1,0,0,0,0,0,0,0,0,0,-1,1007,1023,0,0
-210,1,0,0,0,0,0,0,0,0,0,-1,1014,1023,0,0
-203,1,0,0,0,0,0,0,0,0,0,-1,1021,1023,0,0
-196,1,0,0,0,0,0,0,0,0,0,-1,1028,1023,0,0
-189,1,0,0,0,0,0,0,0,0,0,-1,1035,1023,0,0
-182,1,0,0,0,0,0,0,0,0,0,-1,1042,1023,0,0
-175,1,0,0,0,0,0,0,0,0,0,-1,1049,1023,0,0
-168,1,0,0,0,0,0,0,0,0,0,-1,1056,1023,0,0
-161,1,0,0,0,0,0,0,0,0,0,-1,1063,1023,0,0
-154,1,0,0,0,0,0,0,0,0,0,-1,1070,1023,0,0
-147,1,0,0,0,0,0,0,0,0,0,-1,1077,1023,0,0
-140,1,0,0,0,0,0,0,0,0,0,-1,1084,1023,0,0
-133,1,0,0,0,0,0,0,0,0,0,-1,1091,1023,0,0
-126,1,0,0,0,0,0,0,0,0,0,-1,1098,1023,0,0
-119,1,0,0,0,0,0,0,0,0,0,-1,1105,1023,0,0
-112,1,0,0,0,0,0,0,0,0,0,-1,1112,1023,0,0
-105,1,0,0,0,0,0,0,0,0,0,-1,1119,1023,0,0
-98,1,0,0,0,0,0,0,0,0,0,-1,1126,1023,0,0
-91,1,0,0,0,0,0,0,0,0,0,-1,1133,1023,0,0
-84,1,0,0,0,0,0,0,0,0,0,-1,1140,1023,0,0
-77,1,0,0,0,0,0,0,0,0,0,-1,1147,1023,0,0
-70,1,0,0,0,0,0,0,0,0,0,-1,1154,1023,0,0
-63,1,0,0,0,0,0,0,0,0,0,-1,1161,1023,0,0
-56,1,0,0,0,0,0,0,0,0,0,-1,1168,1023,0,0
-49,1,0,0,0,0,0,0,0,0,0,-1,1175,1023,0,0
-42,1,0,0,0,0,0,0,0,0,0,-1,1182,1023,0,0
-35,1,0,0,0,0,0,0,0,0,0,-1,1189,1023,0,0
-28,1,0,0,0,0,0,0,0,0,0,-1,1196,1023,0,0
-21,1,0,0,0,0,0,0,0,0,0,-1,1203,1023,0,0
-14,1,0,0,0,0,0,0,0,0,0,-1,1210,1023,0,0
-7,1,0,0,0,0,0,0,0,0,0,-1,1217,1023,0,0
0,1,0,0,0,0,0,0,0,0,0,-1,1224,1023,0,0
7,1,0,0,0,0,0,0,0,0,0,-1,1231,1023,0,0
14,1,0,0,0,0,0,0,0,0,0,-1,1238,1023,0,0
21,1,0,0,0,0,0,0,0,0,0,-1,1245,1023,0,0
28,1,0,0,0,0,0,0,0,0,0,-1,1252,1023,0,0
35,1,0,0,0,0,0,0,0,0,0,-1,1259,1023,0,0
42,1,0,0,0,0,0,0,0,0,0,-1,1266,1023,0,0
49,1,0,0,0,0,0,0,0,0,0,-1,1273,1023,0,0
56,1,0,0,0,0,0,0,0,0,0,-1,1280,1023,0,0
63,1,0,0,0,0,0,0,0,0,0,-1,1287,1023,0,0
70,1,0,0,0,0,0,0,0,0,0,-1,1294,1023,0,0
77,1,0,0,0,0,0,0,0,0,0,-1,1301,1023,0,0
84,1,0,0,0,0,0,0,0,0,0,-1,1308,1023,0,0
91,1,0,0,0,0,0,0,0,0,0,-1,1315,1023,0,0
98,1,0,0,0,0,0,0,0,0,0,-1,1322,1023,0,0
105,1,0,0,0,0,0,0,0,0,0,-1,1329,1023,0,0
112,1,0,0,0,0,0,0,0,0,0,-1,1336,1023,0,0
119,1,0,0,0,0,0,0,0,0,0,-1,1343,1023,0,0
126,1,0,0,0,0,0,0,0,0,0,-1,1350,1023,0,0
133,1,0,0,0,0,0,0,0,0,0,-1,1357,1023,0,0
140,1,0,0,0,0,0,0,0,0,0,-1,1364,1023,0,0
147,1,0,0,0,0,0,0,0,0,0,-1,1371,1023,0,0
154,1,0,0,0,0,0,0,0,0,0,-1,1378,1023,0,0
161,1,0,0,0,0,0,0,0,0,0,-1,1385,1023,0,0
168,1,0,0,0,0,0,0,0,0,0,-1,1392,1023,0,0
175,1,0,0,0,0,0,0,0,0,0,-1,1399,1023,0,0
182,1,0,0,0,0,0,0,0,0,0,-1,1406,1023,0,0
189,1,0,0,0,0,0,0,0,0,0,-1,1413,1023,0,0
196,1,0,0,0,0,0,0,0,0,0,-1,1420,1023,0,0
203,1,0,0,0,0,0,0,0,0,0,-1,1427,1023,0,0
210,1,0,0,0,0,0,0,0,0,0,-1,1434,1023,0,0
217,1,0,0,0,0,0,0,0,0,0,-1,1441,1023,0,0
224,1,0,0,0,0,0,0,0,0,0,-1,1448,1023,0,0
231,1,0,0,0,0,0,0,0,0,0,-1,1455,1023,0,0
238,1,0,0,0,0,0,0,0,0,0,-1,1462,1023,0,0
245,1,0,0,0,0,0,0,0,0,0,-1,1469,1023,0,0
252,1,0,0,0,0,0,0,0,0,0,-1,1476,1023,0,0
259,1,0,0,0,0,0,0,0,0,0,-1,1483,1023,0,0
266,1,0,0,0,0,0,0,0,0,0,-1,1490,1023,0,0
273,1,0,0,0,0,0,0,0,0,0,-1,1497,1023,0,0
280,1,0,0,0,0,0,0,0,0,0,-1,1504,1023,0,0
287,1,0,0,0,0,0,0,0,0,0,-1,1511,1023,0,0
294,1,0,0,0,0,0,0,0,0,0,-1,1518,1023,0,0
301,1,0,0,0,0,0,0,0,0,0,-1,1525,1023,0,0
308,1,0,0,0,0,0,0,0,0,0,-1,1532,1023,0,0
315,1,0,0,0,0,0,0,0,0,0,-1,1539,1023,0,0
322,1,0,0,0,0,0,0,0,0,0,-1,1546,1023,0,0
329,1,0,0,0,0,0,0,0,0,0,-1,1553,1023,0,0
336,1,0,0,0,0,0,0,0,0,0,-1,1560,1023,0,0
343,1,0,0,0,0,0,0,0,0,0,-1,1567,1023,0,0
350,1,0,0,0,0,0,0,0,0,0,-1,1574,1023,0,0
357,1,0,0,0,0,0,0,0,0,0,-1,1581,1023,0,0
364,1,0,0,0,0,0,0,0,0,0,-1,1588,1023,0,0
371,1,0,0,0,0,0,0,0,0,0,-1,1595,1023,0,0
378,1,0,0,0,0,0,0,0,0,0,-1,1602,1023,0,0
385,1,0,0,0,0,0,0,0,0,0,-1,1609,1023,0,0
392,1,0,0,0,0,0,0,0,0,0,-1,1616,1023,0,0
399,1,0,0,0,0,0,0,0,0,0,-1,1623,1023,0,0
406,1,0,0,0,0,0,0,0,0,0,-1,1630,1023,0,0
413,1,0,0,0,0,0,0,0,0,0,-1,1637,1023,0,0
420,1,0,0,0,0,0,0,0,0,0,-1,1644,1023,0,0
427,1,0,0,0,0,0,0,0,0,0,-1,1651,1023,0,0
434,1,0,0,0,0,0,0,0,0,0,-1,1658,1023,0,0
441,1,0,0,0,0,0,0,0,0,0,-1,1665,1023,0,0
448,1,0,0,0,0,0,0,0,0,0,-1,1672,1023,0,0
455,1,0,0,0,0,0,0,0,0,0,-1,1679,1023,0,0
462,1,0,0,0,0,0,0,0,0,0,-1,1686,1023,0,0
469,1,0,0,0,0,0,0,0,0,0,-1,1693,1023,0,0
476,1,0,0,0,0,0,0,0,0,0,-1,1700,1023,0,0
483,1,0,0,0,0,0,0,0,0,0,-1,1707,1023,0,0
490,1,0,0,0,0,0,0,0,0,0,-1,1714,1023,0,0
497,1,0,0,0,0,0,0,0,0,0,-1,1721,1023,0,0
504,1,0,0,0,0,0,0,0,0,0,-1,1728,1023,0,0
511,1,0,0,0,0,0,0,0,0,0,-1,1735,1023,0,0
518,1,0,0,0,0,0,0,0,0,0,-1,1742,1023,0,0
525,1,0,0,0,0,0,0,0,0,0,-1,1749,1023,0,0
532,1,0,0,0,0,0,0,0,0,0,-1,1756,1023,0,0
539,1,0,0,0,0,0,0,0,0,0,-1,1763,1023,0,0
546,1,0,0,0,0,0,0,0,0,0,-1,1770,1023,0,0
553,1,0,0,0,0,0,0,0,0,0,-1,1777,1023,0,0
560,1,0,0,0,0,0,0,0,0,0,-1,1784,1023,0,0
567,1,0,0,0,0,0,0,0,0,0,-1,1791,1023,0,0
574,1,0,0,0,0,0,0,0,0,0,-1,1798,1023,0,0
581,1,0,0,0,0,0,0,0,0,0,-1,1805,1023,0,0
588,1,0,0,0,0,0,0,0,0,0,-1,1812,1023,0,0
595,1,0,0,0,0,0,0,0,0,0,-1,1819,1023,0,0
602,1,0,0,0,0,0,0,0,0,0,-1,1826,1023,0,0
609,1,0,0,0,0,0,0,0,0,0,-1,1833,1023,0,0
616,1,0,0,0,0,0,0,0,0,0,-1,1840,1023,0,0
623,1,0,0,0,0,0,0,0,0,0,-1,1847,1023,0,0
630,1,0,0,0,0,0,0,0,0,0,-1,1854,1023,0,0
637,1,0,0,0,0,0,0,0,0,0,-1,1861,1023,0,0
644,1,0,0,0,0,0,0,0,0,0,-1,1868,1023,0,0
651,1,60.8995,2.57428,-0.0042612,0.0018151,0.000484302,0.00185345,-0.00429956,1.49176,0.00364481,0.0417794,1875,1023,60.8995,-2.5743
658,1,61.0089,2.49225,-0.00372198,0.00133732,0.000403545,0.0013693,-0.00375397,1.4917,0.00306287,0.043941,1882,1023,61.009,-2.49225
665,1,60.9133,2.487,-0.00314138,0.00111264,0.000395503,0.0011491,-0.00317783,1.47887,0.00258807,0.043023,1889,1023,60.9133,-2.48702
672,1,60.8455,2.48572,-0.00249758,0.000983452,0.000474578,0.00104699,-0.00256112,1.4377,0.00214342,0.0392069,1896,1023,60.8455,-2.48569
679,1,60.7499,2.5307,-0.00177232,0.000855304,0.000613729,0.000991583,-0.0019086,1.35229,0.00170209,0.036874,1903,1023,60.7499,-2.53068
686,1,60.6484,2.79926,-0.00137052,0.000517989,0.000741476,0.000774319,-0.00162685,1.23796,0.00141514,0.0378343,1910,1023,60.6484,-2.79926
693,1,60.8232,2.92798,-0.00112539,8.60869e-05,0.000879871,0.000548567,-0.00158787,1.08686,0.0012812,0.0369164,1917,1023,60.8232,-2.92799
700,1,60.9037,2.78314,-0.00092441,-0.000261271,0.000940632,0.00040452,-0.0015902,0.954847,0.00121758,0.0310551,1924,1023,60.9037,-2.78313
707,1,60.817,2.67108,-0.0013934,-5.3567e-05,0.000862586,0.000368691,-0.00181565,1.11556,0.00135022,0.0256522,1931,1023,60.817,-2.6711
714,1,60.7736,2.55957,-0.00225257,0.000583072,0.000756922,0.000772468,-0.00244196,1.32561,0.00193749,0.0289757,1938,1023,60.7735,-2.55957
721,1,60.8706,2.46747,0,0,0,0,0,0,0,-1,1945,1023,60.8706,-2.46744
728,1,52.4639,5.59277,0,0,0,0,0,0,0,-1,1952,1023,52.4639,-5.59276
735,1,53.3617,6.10699,0,0,0,0,0,0,0,-1,1959,1023,53.3617,-6.10698
742,1,52.4393,5.81525,0,0,0,0,0,0,0,-1,1966,1023,52.4393,-5.81527
749,1,60.9047,6.4682,0,0,0,0,0,0,0,-1,1973,1023,60.9046,-6.46818
756,1,60.85,6.6189,-0.00756947,0.011311,-0.00480293,0.0124625,-0.00872103,-1.33548,0.0122938,0.0379233,1980,1023,60.85,-6.61888
763,1,60.7192,6.526,-0.00756557,0.0158174,-0.0086425,0.018665,-0.0104131,-1.25252,0.0170121,0.0175804,1987,1023,60.7192,-6.52599
770,1,60.6702,6.46698,-0.0067408,0.0213854,-0.0141506,0.0272725,-0.0126279,-1.17655,0.0235481,0.0198212,1994,1023,60.6702,-6.46701
777,1,60.3694,6.39404,-0.00454311,0.0286873,-0.0225379,0.0400725,-0.0159283,-1.10303,0.0333187,0.0272208,2001,1023,60.3693,-6.39405
784,1,60.1169,6.37439,-0.00159273,0.036697,-0.0324219,0.0552046,-0.0201003,-1.0521,0.0450244,0.0487815,2008,1023,60.1169,-6.37438
791,1,60.0527,5.96033,0.00226118,0.0457644,-0.0441791,0.0732563,-0.0252307,-1.01415,0.059072,0.0470634,2015,1023,60.0526,-5.96034
798,1,60.2603,5.10706,0.00718218,0.056379,-0.0582235,0.0949871,-0.0314258,-0.985267,0.0759976,0.0481256,2022,1023,60.2603,-5.10707
805,1,60.4055,4.04108,0.0133404,0.0691589,-0.0746154,0.120914,-0.0384145,-0.964363,0.0960109,0.0455765,2029,1023,60.4054,-4.04107
812,1,60.543,3.1626,0.0207606,0.0858967,-0.0945215,0.153304,-0.0466463,-0.951307,0.120792,0.0480607,2036,1023,60.5429,-3.16261
-700,-6,0,0,0,0,0,0,0,0,0,-1,524,1030,0,0
-693,-6,-48.2427,0.786743,0.11045,0.0425281,0.0802741,0.163652,-0.0106732,0.585283,0.112827,0.0450067,531,1030,-48.2427,-0.786745
-686,-6,-46.979,0.894287,0.095519,0.0419019,0.073197,0.146662,-0.00924145,0.609859,0.100996,0.0464706,538,1030,-46.979,-0.894253
-679,-6,-46.3733,2.04224,0,0,0,0,0,0,0,-1,545,1030,-46.3733,-2.04227
-672,-6,-46.4234,2.97107,0,0,0,0,0,0,0,-1,552,1030,-46.4234,-2.97111
-665,-6,-47.006,2.84692,0,0,0,0,0,0,0,-1,559,1030,-47.006,-2.84697
-658,-6,-46.852,3.09253,0.0378804,0.0331395,0.0368362,0.0724223,-0.00140246,0.753267,0.0487558,0.0404544,566,1030,-46.852,-3.09259
-651,-6,-46.5325,3.43457,0.0269125,0.0294958,0.0285228,0.0567562,-0.000347875,0.808025,0.037954,0.0441419,573,1030,-46.5325,-3.43452
-644,-6,-46.2286,4.25342,0,0,0,0,0,0,0,-1,580,1030,-46.2286,-4.25347
-637,-6,-46.5145,4.05383,0.00829678,0.0217653,0.0134739,0.0300941,-3.20235e-05,1.01714,0.0200734,0.045382,587,1030,-46.5144,-4.05382
-630,-6,-46.6611,3.96545,0.00160828,0.016666,0.0069712,0.0193978,-0.00112352,1.19732,0.0133222,0.0251844,594,1030,-46.6611,-3.96544
-623,-6,-46.6408,4.04675,-0.00182922,0.0118625,0.00211125,0.0121806,-0.00214738,1.42122,0.00892276,0.0186538,601,1030,-46.6408,-4.04675
-616,-6,-46.7108,4.05371,-0.00177402,0.00747845,-0.000130468,0.00748029,-0.00177586,-1.5567,0.00567225,0.0214815,608,1030,-46.7107,-4.05368
-609,-6,-46.6851,4.17017,-0.00114066,0.00472766,-0.00160505,0.00513797,-0.00155097,-1.32052,0.00404272,0.0215199,615,1030,-46.6851,-4.17011
-602,-6,-46.5616,4.30078,-0.000744095,0.00290566,-0.00259561,0.0042537,-0.00209213,-1.09179,0.00373395,0.0152754,622,1030,-46.5616,-4.30083
-595,-6,-46.5308,4.38831,0,0,0,0,0,0,0,-1,629,1030,-46.5308,-4.38832
-588,-6,-46.1879,2.40649,0,0,0,0,0,0,0,-1,636,1030,-46.1879,-2.40649
-581,-6,-45.9969,0.86792,0.000917649,0.000216913,-0.00315286,0.00373955,-0.00260499,-0.730062,0.0036825,0.0231175,643,1030,-45.9969,-0.867899
-574,-6,-46.0528,0.908203,0.00113084,6.79036e-05,-0.00295094,0.00359779,-0.00239904,-0.696302,0.00348525,0.031973,650,1030,-46.0528,-0.908261
-567,-6,-46.1124,0.962646,0.000916264,0.000249368,-0.00249233,0.00309736,-0.00193172,-0.718898,0.00292942,0.0421928,657,1030,-46.1124,-0.962662
-560,-6,-45.7739,0.577026,0.000296538,0.00060752,-0.00181364,0.00227232,-0.00136826,-0.828161,0.00212338,0.0421789,664,1030,-45.7739,-0.576998
-553,-6,-45.6482,0.685303,-0.000872167,0.000836486,-0.000976137,0.00127936,-0.00131504,-1.14487,0.00149792,0.0394764,671,1030,-45.6482,-0.685304
-546,-6,-45.7662,0.707886,-0.002626,0.000434648,-4.7829e-05,0.000435396,-0.00262675,-1.55517,0.00191289,0.0417461,678,1030,-45.7662,-0.707886
-539,-6,-45.8942,0.732422,-0.00501279,-0.000800374,0.00041926,-0.000759051,-0.00505411,1.47255,0.00314706,0.0427181,685,1030,-45.8942,-0.732396
-532,-6,-46.0665,0.723755,-0.00713919,-0.00184342,0.000489983,-0.00179847,-0.00718415,1.47931,0.00431669,0.0403164,692,1030,-46.0664,-0.723723
-525,-6,0,0,0,0,0,0,0,0,0,-1,699,1030,0,0
-518,-6,0,0,0,0,0,0,0,0,0,-1,706,1030,0,0
-511,-6,0,0,0,0,0,0,0,0,0,-1,713,1030,0,0
-504,-6,0,0,0,0,0,0,0,0,0,-1,720,1030,0,0
-497,-6,0,0,0,0,0,0,0,0,0,-1,727,1030,0,0
-490,-6,0,0,0,0,0,0,0,0,0,-1,734,1030,0,0
-483,-6,0,0,0,0,0,0,0,0,0,-1,741,1030,0,0
-476,-6,0,0,0,0,0,0,0,0,0,-1,748,1030,0,0
-469,-6,0,0,0,0,0,0,0,0,0,-1,755,1030,0,0
-462,-6,0,0,0,0,0,0,0,0,0,-1,762,1030,0,0
-455,-6,0,0,0,0,0,0,0,0,0,-1,769,1030,0,0
-448,-6,0,0,0,0,0,0,0,0,0,-1,776,1030,0,0
-441,-6,0,0,0,0,0,0,0,0,0,-1,783,1030,0,0
-434,-6,0,0,0,0,0,0,0,0,0,-1,790,1030,0,0
-427,-6,0,0,0,0,0,0,0,0,0,-1,797,1030,0,0
-420,-6,0,0,0,0,0,0,0,0,0,-1,804,1030,0,0
-413,-6,0,0,0,0,0,0,0,0,0,-1,811,1030,0,0
-406,-6,0,0,0,0,0,0,0,0,0,-1,818,1030,0,0
-399,-6,0,0,0,0,0,0,0,0,0,-1,825,1030,0,0
-392,-6,0,0,0,0,0,0,0,0,0,-1,832,1030,0,0
-385,-6,0,0,0,0,0,0,0,0,0,-1,839,1030,0,0
-378,-6,0,0,0,0,0,0,0,0,0,-1,846,1030,0,0
-371,-6,0,0,0,0,0,0,0,0,0,-1,853,1030,0,0
-364,-6,0,0,0,0,0,0,0,0,0,-1,860,1030,0,0
-357,-6,0,0,0,0,0,0,0,0,0,-1,867,1030,0,0
-350,-6,0,0,0,0,0,0,0,0,0,-1,874,1030,0,0
-343,-6,0,0,0,0,0,0,0,0,0,-1,881,1030,0,0
-336,-6,0,0,0,0,0,0,0,0,0,-1,888,1030,0,0
-329,-6,0,0,0,0,0,0,0,0,0,-1,895,1030,0,0
-322,-6,0,0,0,0,0,0,0,0,0,-1,902,1030,0,0
-315,-6,0,0,0,0,0,0,0,0,0,-1,909,1030,0,0
-308,-6,0,0,0,0,0,0,0,0,0,-1,916,1030,0,0
-301,-6,0,0,0,0,0,0,0,0,0,-1,923,1030,0,0
-294,-6,0,0,0,0,0,0,0,0,0,-1,930,1030,0,0
-287,-6,0,0,0,0,0,0,0,0,0,-1,937,1030,0,0
-280,-6,0,0,0,0,0,0,0,0,0,-1,944,1030,0,0
-273,-6,0,0,0,0,0,0,0,0,0,-1,951,1030,0,0
-266,-6,0,0,0,0,0,0,0,0,0,-1,958,1030,0,0
-259,-6,0,0,0,0,0,0,0,0,0,-1,965,1030,0,0
-252,-6,0,0,0,0,0,0,0,0,0,-1,972,1030,0,0
-245,-6,0,0,0,0,0,0,0,0,0,-1,979,1030,0,0
-238,-6,0,0,0,0,0,0,0,0,0,-1,986,1030,0,0
-231,-6,0,0,0,0,0,0,0,0,0,-1,993,1030,0,0
-224,-6,0,0,0,0,0,0,0,0,0,-1,1000,1030,0,0
-217,-6,0,0,0,0,0,0,0,0,0,-1,1007,1030,0,0
-210,-6,0,0,0,0,0,0,0,0,0,-1,1014,1030,0,0
-203,-6,0,0,0,0,0,0,0,0,0,-1,1021,1030,0,0
-196,-6,0,0,0,0,0,0,0,0,0,-1,1028,1030,0,0
-189,-6,0,0,0,0,0,0,0,0,0,-1,1035,1030,0,0
-182,-6,0,0,0,0,0,0,0,0,0,-1,1042,1030,0,0
-175,-6,0,0,0,0,0,0,0,0,0,-1,1049,1030,0,0
-168,-6,0,0,0,0,0,0,0,0,0,-1,1056,1030,0,0
-161,-6,0,0,0,0,0,0,0,0,0,-1,1063,1030,0,0
-154,-6,0,0,0,0,0,0,0,0,0,-1,1070,1030,0,0
-147,-6,0,0,0,0,0,0,0,0,0,-1,1077,1030,0,0
-140,-6,0,0,0,0,0,0,0,0,0,-1,1084,1030,0,0
-133,-6,0,0,0,0,0,0,0,0,0,-1,1091,1030,0,0
-126,-6,0,0,0,0,0,0,0,0,0,-1,1098,1030,0,0
-119,-6,0,0,0,0,0,0,0,0,0,-1,1105,1030,0,0
-112,-6,0,0,0,0,0,0,0,0,0,-1,1112,1030,0,0
-105,-6,0,0,0,0,0,0,0,0,0,-1,1119,1030,0,0
-98,-6,0,0,0,0,0,0,0,0,0,-1,1126,1030,0,0
-91,-6,0,0,0,0,0,0,0,0,0,-1,1133,1030,0,0
-84,-6,0,0,0,0,0,0,0,0,0,-1,1140,1030,0,0
-77,-6,0,0,0,0,0,0,0,0,0,-1,1147,1030,0,0
-70,-6,0,0,0,0,0,0,0,0,0,-1,1154,1030,0,0
-63,-6,0,0,0,0,0,0,0,0,0,-1,1161,1030,0,0
-56,-6,0,0,0,0,0,0,0,0,0,-1,1168,1030,0,0
-49,-6,0,0,0,0,0,0,0,0,0,-1,1175,1030,0,0
-42,-6,0,0,0,0,0,0,0,0,0,-1,1182,1030,0,0
-35,-6,0,0,0,0,0,0,0,0,0,-1,1189,1030,0,0
-28,-6,0,0,0,0,0,0,0,0,0,-1,1196,1030,0,0
-21,-6,0,0,0,0,0,0,0,0,0,-1,1203,1030,0,0
-14,-6,0,0,0,0,0,0,0,0,0,-1,1210,1030,0,0
-7,-6,0,0,0,0,0,0,0,0,0,-1,1217,1030,0,0
0,-6,0,0,0,0,0,0,0,0,0,-1,1224,1030,0,0
7,-6,0,0,0,0,0,0,0,0,0,-1,1231,1030,0,0
14,-6,0,0,0,0,0,0,0,0,0,-1,1238,1030,0,0
21,-6,0,0,0,0,0,0,0,0,0,-1,1245,1030,0,0
28,-6,0,0,0,0,0,0,0,0,0,-1,1252,1030,0,0
35,-6,0,0,0,0,0,0,0,0,0,-1,1259,1030,0,0
42,-6,0,0,0,0,0,0,0,0,0,-1,1266,1030,0,0
49,-6,0,0,0,0,0,0,0,0,0,-1,1273,1030,0,0
56,-6,0,0,0,0,0,0,0,0,0,-1,1280,1030,0,0
63,-6,0,0,0,0,0,0,0,0,0,-1,1287,1030,0,0
70,-6,0,0,0,0,0,0,0,0,0,-1,1294,1030,0,0
77,-6,0,0,0,0,0,0,0,0,0,-1,1301,1030,0,0
84,-6,0,0,0,0,0,0,0,0,0,-1,1308,1030,0,0
91,-6,0,0,0,0,0,0,0,0,0,-1,1315,1030,0,0
98,-6,0,0,0,0,0,0,0,0,0,-1,1322,1030,0,0
105,-6,0,0,0,0,0,0,0,0,0,-1,1329,1030,0,0
112,-6,0,0,0,0,0,0,0,0,0,-1,1336,1030,0,0
119,-6,0,0,0,0,0,0,0,0,0,-1,1343,1030,0,0
126,-6,0,0,0,0,0,0,0,0,0,-1,1350,1030,0,0
133,-6,0,0,0,0,0,0,0,0,0,-1,1357,1030,0,0
140,-6,0,0,0,0,0,0,0,0,0,-1,1364,1030,0,0
147,-6,0,0,0,0,0,0,0,0,0,-1,1371,1030,0,0
154,-6,0,0,0,0,0,0,0,0,0,-1,1378,1030,0,0
161,-6,0,0,0,0,0,0,0,0,0,-1,1385,1030,0,0
168,-6,0,0,0,0,0,0,0,0,0,-1,1392,1030,0,0
175,-6,0,0,0,0,0,0,0,0,0,-1,1399,1030,0,0
182,-6,0,0,0,0,0,0,0,0,0,-1,1406,1030,0,0
189,-6,0,0,0,0,0,0,0,0,0,-1,1413,1030,0,0
196,-6,0,0,0,0,0,0,0,0,0,-1,1420,1030,0,0
203,-6,0,0,0,0,0,0,0,0,0,-1,1427,1030,0,0
210,-6,0,0,0,0,0,0,0,0,0,-1,1434,1030,0,0
217,-6,0,0,0,0,0,0,0,0,0,-1,1441,1030,0,0
224,-6,0,0,0,0,0,0,0,0,0,-1,1448,1030,0,0
231,-6,0,0,0,0,0,0,0,0,0,-1,1455,1030,0,0
238,-6,0,0,0,0,0,0,0,0,0,-1,1462,1030,0,0
245,-6,0,0,0,0,0,0,0,0,0,-1,1469,1030,0,0
252,-6,0,0,0,0,0,0,0,0,0,-1,1476,1030,0,0
259,-6,0,0,0,0,0,0,0,0,0,-1,1483,1030,0,0
266,-6,0,0,0,0,0,0,0,0,0,-1,1490,1030,0,0
273,-6,0,0,0,0,0,0,0,0,0,-1,1497,1030,0,0
280,-6,0,0,0,0,0,0,0,0,0,-1,1504,1030,0,0
287,-6,0,0,0,0,0,0,0,0,0,-1,1511,1030,0,0
294,-6,0,0,0,0,0,0,0,0,0,-1,1518,1030,0,0
301,-6,0,0,0,0,0,0,0,0,0,-1,1525,1030,0,0
308,-6,0,0,0,0,0,0,0,0,0,-1,1532,1030,0,0
315,-6,0,0,0,0,0,0,0,0,0,-1,1539,1030,0,0
322,-6,0,0,0,0,0,0,0,0,0,-1,1546,1030,0,0
329,-6,0,0,0,0,0,0,0,0,0,-1,1553,1030,0,0
336,-6,0,0,0,0,0,0,0,0,0,-1,1560,1030,0,0
343,-6,0,0,0,0,0,0,0,0,0,-1,1567,1030,0,0
350,-6,0,0,0,0,0,0,0,0,0,-1,1574,1030,0,0
357,-6,0,0,0,0,0,0,0,0,0,-1,1581,1030,0,0
364,-6,0,0,0,0,0,0,0,0,0,-1,1588,1030,0,0
371,-6,0,0,0,0,0,0,0,0,0,-1,1595,1030,0,0
378,-6,0,0,0,0,0,0,0,0,0,-1,1602,1030,0,0
385,-6,0,0,0,0,0,0,0,0,0,-1,1609,1030,0,0
392,-6,0,0,0,0,0,0,0,0,0,-1,1616,1030,0,0
399,-6,0,0,0,0,0,0,0,0,0,-1,1623,1030,0,0
406,-6,0,0,0,0,0,0,0,0,0,-1,1630,1030,0,0
413,-6,0,0,0,0,0,0,0,0,0,-1,1637,1030,0,0
420,-6,0,0,0,0,0,0,0,0,0,-1,1644,1030,0,0
427,-6,0,0,0,0,0,0,0,0,0,-1,1651,1030,0,0
434,-6,0,0,0,0,0,0,0,0,0,-1,1658,1030,0,0
441,-6,0,0,0,0,0,0,0,0,0,-1,1665,1030,0,0
448,-6,0,0,0,0,0,0,0,0,0,-1,1672,1030,0,0
455,-6,0,0,0,0,0,0,0,0,0,-1,1679,1030,0,0
462,-6,0,0,0,0,0,0,0,0,0,-1,1686,1030,0,0
469,-6,0,0,0,0,0,0,0,0,0,-1,1693,1030,0,0
476,-6,0,0,0,0,0,0,0,0,0,-1,1700,1030,0,0
483,-6,0,0,0,0,0,0,0,0,0,-1,1707,1030,0,0
490,-6,0,0,0,0,0,0,0,0,0,-1,1714,1030,0,0
497,-6,0,0,0,0,0,0,0,0,0,-1,1721,1030,0,0
504,-6,0,0,0,0,0,0,0,0,0,-1,1728,1030,0,0
511,-6,0,0,0,0,0,0,0,0,0,-1,1735,1030,0,0
518,-6,0,0,0,0,0,0,0,0,0,-1,1742,1030,0,0
525,-6,0,0,0,0,0,0,0,0,0,-1,1749,1030,0,0
532,-6,0,0,0,0,0,0,0,0,0,-1,1756,1030,0,0
539,-6,0,0,0,0,0,0,0,0,0,-1,1763,1030,0,0
546,-6,0,0,0,0,0,0,0,0,0,-1,1770,1030,0,0
553,-6,0,0,0,0,0,0,0,0,0,-1,1777,1030,0,0
560,-6,0,0,0,0,0,0,0,0,0,-1,1784,1030,0,0
567,-6,0,0,0,0,0,0,0,0,0,-1,1791,1030,0,0
574,-6,0,0,0,0,0,0,0,0,0,-1,1798,1030,0,0
581,-6,0,0,0,0,0,0,0,0,0,-1,1805,1030,0,0
588,-6,0,0,0,0,0,0,0,0,0,-1,1812,1030,0,0
595,-6,0,0,0,0,0,0,0,0,0,-1,1819,1030,0,0
602,-6,0,0,0,0,0,0,0,0,0,-1,1826,1030,0,0
609,-6,0,0,0,0,0,0,0,0,0,-1,1833,1030,0,0
616,-6,0,0,0,0,0,0,0,0,0,-1,1840,1030,0,0
623,-6,0,0,0,0,0,0,0,0,0,-1,1847,1030,0,0
630,-6,0,0,0,0,0,0,0,0,0,-1,1854,1030,0,0
637,-6,0,0,0,0,0,0,0,0,0,-1,1861,1030,0,0
644,-6,0,0,0,0,0,0,0,0,0,-1,1868,1030,0,0
651,-6,60.9204,2.66235,-0.0042399,0.000809206,0.000887185,0.000960557,-0.00439126,1.40183,0.0032947,0.0382266,1875,1030,60.9205,-2.6624
658,-6,61.0596,2.58301,-0.0037436,0.000510741,0.000638343,0.000604457,-0.00383732,1.42503,0.00278167,0.041145,1882,1030,61.0595,-2.58299
665,-6,61.0537,2.46973,-0.00318109,0.000435872,0.000526789,0.000511034,-0.00325625,1.42907,0.0023597,0.0416885,1889,1030,61.0537,-2.46976
672,-6,60.896,2.55847,-0.00254836,0.000439686,0.000559336,0.000540957,-0.00264963,1.39168,0.00197163,0.0380744,1896,1030,60.896,-2.55844
679,-6,60.691,2.66943,-0.00183031,0.000457753,0.00067903,0.000644093,-0.00201665,1.30297,0.00160287,0.0381132,1903,1030,60.691,-2.66939
686,-6,60.564,2.62195,-0.00147692,0.000244587,0.000817968,0.000571254,-0.00180359,1.19084,0.00143133,0.035292,1910,1030,60.5639,-2.622
693,-6,60.7163,2.7196,-0.00127196,-8.62924e-05,0.000988274,0.000473322,-0.00183157,1.05556,0.00140564,0.0331974,1917,1030,60.7164,-2.71955
700,-6,60.8472,2.68604,-0.00109417,-0.000375393,0.00110449,0.00042671,-0.00189628,0.94269,0.00142783,0.0299651,1924,1030,60.8472,-2.68598
707,-6,60.7819,2.60486,-0.00157357,-0.000161179,0.00108335,0.000425823,-0.00216057,1.07424,0.0016013,0.0277845,1931,1030,60.7819,-2.60489
714,-6,60.7909,2.53113,-0.00240554,0.000456609,0.00103303,0.000790507,-0.00273944,1.25817,0.00213906,0.0383652,1938,1030,60.7909,-2.53108
721,-6,60.8207,2.44287,0,0,0,0,0,0,0,-1,1945,1030,60.8207,-2.44287
728,-6,53.1713,6.25494,0,0,0,0,0,0,0,-1,1952,1030,53.1713,-6.25495
735,-6,60.6805,6.72937,0,0,0,0,0,0,0,-1,1959,1030,60.6805,-6.72936
742,-6,60.7683,6.86322,0,0,0,0,0,0,0,-1,1966,1030,60.7684,-6.86325
749,-6,60.7396,6.4079,0,0,0,0,0,0,0,-1,1973,1030,60.7396,-6.40792
756,-6,60.781,6.48309,-0.00772008,0.010663,-0.00388426,0.01145,-0.00850712,-1.37088,0.0115639,0.0315038,1980,1030,60.781,-6.48312
763,-6,60.644,6.35168,-0.0076839,0.0150217,-0.00743864,0.0172416,-0.00990386,-1.28078,0.0158622,0.022099,1987,1030,60.6441,-6.35168
770,-6,60.5615,6.27789,-0.00678978,0.0203883,-0.0125502,0.0252971,-0.0116986,-1.19796,0.0218351,0.0193829,1994,1030,60.5614,-6.2779
777,-6,60.4297,6.28113,-0.00437509,0.0275317,-0.0204061,0.0374804,-0.0143238,-1.11717,0.0308892,0.0203925,2001,1030,60.4296,-6.28116
784,-6,60.3213,6.18988,-0.00108636,0.0354845,-0.0297627,0.05213,-0.0177319,-1.06086,0.0419329,0.0464739,2008,1030,60.3213,-6.18991
791,-6,60.2881,5.59241,0.00326898,0.0446702,-0.0410731,0.0699644,-0.0220252,-1.01882,0.0554621,0.0482633,2015,1030,60.2882,-5.59247
798,-6,60.2627,4.87073,0,0,0,0,0,0,0,-1,2022,1030,60.2626,-4.87074
805,-6,61.2954,2.80164,0.016377,0.0692507,-0.0710694,0.118641,-0.0330133,-0.963461,0.0920925,0.0451966,2029,1030,61.2954,-2.80162
812,-6,61.7659,1.68054,0.0256971,0.0875748,-0.0912965,0.153032,-0.0397604,-0.948767,0.117538,0.0451319,2036,1030,61.7658,-1.68049
-700,-13,0,0,0,0,0,0,0,0,0,-1,524,1037,0,0
-693,-13,-48.2929,0.059082,0.0992475,0.0633649,0.0800731,0.163365,-0.000752307,0.675188,0.109161,0.0485052,531,1037,-48.2929,-0.0590546
-686,-13,-47.3431,0.745728,0.0870917,0.0558447,0.072501,0.145633,-0.00269709,0.679274,0.0980004,0.0460456,538,1037,-47.3431,-0.745722
-679,-13,-46.3183,1.32239,0.0731261,0.0502745,0.0631711,0.125896,-0.00249575,0.69593,0.084775,0.0499088,545,1037,-46.3183,-1.32234
-672,-13,-45.3043,1.90869,0,0,0,0,0,0,0,-1,552,1037,-45.3043,-1.90864
-665,-13,-46.1409,2.53345,0,0,0,0,0,0,0,-1,559,1037,-46.1409,-2.5334
-658,-13,-46.0896,2.80884,0,0,0,0,0,0,0,-1,566,1037,-46.0896,-2.80878
-651,-13,-46.1604,3.12988,0.0253354,0.0323795,0.0266792,0.055768,0.00194678,0.851026,0.0365471,0.0469688,573,1037,-46.1604,-3.1299
-644,-13,-46.1763,3.52283,0.0164306,0.0270604,0.0190157,0.04149,0.00200098,0.921671,0.0270177,0.0356548,580,1037,-46.1763,-3.52284
-637,-13,-46.3049,3.72388,0.00850761,0.0225792,0.0116418,0.0291461,0.0019407,1.05721,0.0188172,0.0283146,587,1037,-46.3049,-3.72388
-630,-13,-46.4777,3.7627,0.00231548,0.0170154,0.00580976,0.0190343,0.000296594,1.23635,0.0125918,0.0170425,594,1037,-46.4776,-3.76275
-623,-13,-46.5067,3.94177,-0.00103051,0.011678,0.00163878,0.0118859,-0.00123843,1.4446,0.00836737,0.0145563,601,1037,-46.5067,-3.94182
-616,-13,-46.4895,4.11401,-0.00119944,0.00714218,-0.000427893,0.00716407,-0.00122133,-1.51968,0.0052309,0.013661,608,1037,-46.4895,-4.11402
-609,-13,-46.4391,4.26331,-0.000770747,0.00424126,-0.00178129,0.00480984,-0.00133932,-1.26182,0.00373394,0.0186966,615,1037,-46.4391,-4.26332
-602,-13,-46.4139,4.37146,-0.000522046,0.00230442,-0.00260878,0.00385816,-0.00207579,-1.03363,0.0034771,0.0149083,622,1037,-46.4139,-4.37149
-595,-13,-46.4309,4.46631,0,0,0,0,0,0,0,-1,629,1037,-46.4309,-4.46628
-588,-13,-45.947,0.91394,0,0,0,0,0,0,0,-1,636,1037,-45.947,-0.913983
-581,-13,-45.9722,0.795288,0.000735145,-0.000295267,-0.00266214,0.00293147,-0.00249159,-0.689814,0.00313444,0.0172523,643,1037,-45.9722,-0.795301
-574,-13,-45.9836,0.759766,0.000878509,-0.000438888,-0.0022943,0.0026068,-0.00216717,-0.645607,0.00276015,0.0329712,650,1037,-45.9836,-0.75979
-567,-13,-45.971,0.620117,0.000591887,-0.000260375,-0.00168777,0.00190649,-0.00157497,-0.661741,0.00201306,0.042509,657,1037,-45.971,-0.620161
-560,-13,-45.9394,0.598022,-0.000105501,8.37258e-05,-0.000852051,0.0008464,-0.000868176,-0.840693,0.000989937,0.0454156,664,1037,-45.9394,-0.597995
-553,-13,-45.8912,0.695923,-0.00132149,0.000280875,0.000159761,0.000296649,-0.00133726,1.47238,0.00100509,0.0419739,671,1037,-45.8913,-0.695863
-546,-13,-45.9628,0.702637,-0.003081,-0.000161635,0.00128262,0.000321822,-0.00356445,1.21034,0.00249052,0.0398194,678,1037,-45.9628,-0.702607
-539,-13,-46.0185,0.797729,-0.00549293,-0.00156007,0.00192796,-0.000772616,-0.00628038,1.18304,0.00395462,0.04131,685,1037,-46.0185,-0.797701
-532,-13,-46.1149,0.768188,-0.00774533,-0.0028396,0.00247399,-0.00180862,-0.00877631,1.17595,0.00535088,0.0424241,692,1037,-46.1149,-0.768172
-525,-13,0,0,0,0,0,0,0,0,0,-1,699,1037,0,0
-518,-13,0,0,0,0,0,0,0,0,0,-1,706,1037,0,0
-511,-13,0,0,0,0,0,0,0,0,0,-1,713,1037,0,0
-504,-13,0,0,0,0,0,0,0,0,0,-1,720,1037,0,0
-497,-13,0,0,0,0,0,0,0,0,0,-1,727,1037,0,0
-490,-13,0,0,0,0,0,0,0,0,0,-1,734,1037,0,0
-483,-13,0,0,0,0,0,0,0,0,0,-1,741,1037,0,0
-476,-13,0,0,0,0,0,0,0,0,0,-1,748,1037,0,0
-469,-13,0,0,0,0,0,0,0,0,0,-1,755,1037,0,0
-462,-13,0,0,0,0,0,0,0,0,0,-1,762,1037,0,0
-455,-13,0,0,0,0,0,0,0,0,0,-1,769,1037,0,0
-448,-13,0,0,0,0,0,0,0,0,0,-1,776,1037,0,0
-441,-13,0,0,0,0,0,0,0,0,0,-1,783,1037,0,0
-434,-13,0,0,0,0,0,0,0,0,0,-1,790,1037,0,0
-427,-13,0,0,0,0,0,0,0,0,0,-1,797,1037,0,0
-420,-13,0,0,0,0,0,0,0,0,0,-1,804,1037,0,0
-413,-13,0,0,0,0,0,0,0,0,0,-1,811,1037,0,0
-406,-13,0,0,0,0,0,0,0,0,0,-1,818,1037,0,0
-399,-13,0,0,0,0,0,0,0,0,0,-1,825,1037,0,0
-392,-13,0,0,0,0,0,0,0,0,0,-1,832,1037,0,0
-385,-13,0,0,0,0,0,0,0,0,0,-1,839,1037,0,0
-378,-13,0,0,0,0,0,0,0,0,0,-1,846,1037,0,0
-371,-13,0,0,0,0,0,0,0,0,0,-1,853,1037,0,0
-364,-13,0,0,0,0,0,0,0,0,0,-1,860,1037,0,0
-357,-13,0,0,0,0,0,0,0,0,0,-1,867,1037,0,0
-350,-13,0,0,0,0,0,0,0,0,0,-1,874,1037,0,0
-343,-13,0,0,0,0,0,0,0,0,0,-1,881,1037,0,0
-336,-13,0,0,0,0,0,0,0,0,0,-1,888,1037,0,0
-329,-13,0,0,0,0,0,0,0,0,0,-1,895,1037,0,0
-322,-13,0,0,0,0,0,0,0,0,0,-1,902,1037,0,0
-315,-13,0,0,0,0,0,0,0,0,0,-1,909,1037,0,0
-308,-13,0,0,0,0,0,0,0,0,0,-1,916,1037,0,0
-301,-13,0,0,0,0,0,0,0,0,0,-1,923,1037,0,0
-294,-13,0,0,0,0,0,0,0,0,0,-1,930,1037,0,0
-287,-13,0,0,0,0,0,0,0,0,0,-1,937,1037,0,0
-280,-13,0,0,0,0,0,0,0,0,0,-1,944,1037,0,0
-273,-13,0,0,0,0,0,0,0,0,0,-1,951,1037,0,0
-266,-13,0,0,0,0,0,0,0,0,0,-1,958,1037,0,0
-259,-13,0,0,0,0,0,0,0,0,0,-1,965,1037,0,0
-252,-13,0,0,0,0,0,0,0,0,0,-1,972,1037,0,0
-245,-13,0,0,0,0,0,0,0,0,0,-1,979,1037,0,0
-238,-13,0,0,0,0,0,0,0,0,0,-1,986,1037,0,0
-231,-13,0,0,0,0,0,0,0,0,0,-1,993,1037,0,0
-224,-13,0,0,0,0,0,0,0,0,0,-1,1000,1037,0,0
-217,-13,0,0,0,0,0,0,0,0,0,-1,1007,1037,0,0
-210,-13,0,0,0,0,0,0,0,0,0,-1,1014,1037,0,0
-203,-13,0,0,0,0,0,0,0,0,0,-1,1021,1037,0,0
-196,-13,0,0,0,0,0,0,0,0,0,-1,1028,1037,0,0
-189,-13,0,0,0,0,0,0,0,0,0,-1,1035,1037,0,0
-182,-13,0,0,0,0,0,0,0,0,0,-1,1042,1037,0,0
-175,-13,0,0,0,0,0,0,0,0,0,-1,1049,1037,0,0
-168,-13,0,0,0,0,0,0,0,0,0,-1,1056,1037,0,0
-161,-13,0,0,0,0,0,0,0,0,0,-1,1063,1037,0,0
-154,-13,0,0,0,0,0,0,0,0,0,-1,1070,1037,0,0
-147,-13,0,0,0,0,0,0,0,0,0,-1,1077,1037,0,0
-140,-13,0,0,0,0,0,0,0,0,0,-1,1084,1037,0,0
-133,-13,0,0,0,0,0,0,0,0,0,-1,1091,1037,0,0
-126,-13,0,0,0,0,0,0,0,0,0,-1,1098,1037,0,0
-119,-13,0,0,0,0,0,0,0,0,0,-1,1105,1037,0,0
-112,-13,0,0,0,0,0,0,0,0,0,-1,1112,1037,0,0
-105,-13,0,0,0,0,0,0,0,0,0,-1,1119,1037,0,0
-98,-13,0,0,0,0,0,0,0,0,0,-1,1126,1037,0,0
-91,-13,0,0,0,0,0,0,0,0,0,-1,1133,1037,0,0
-84,-13,0,0,0,0,0,0,0,0,0,-1,1140,1037,0,0
-77,-13,0,0,0,0,0,0,0,0,0,-1,1147,1037,0,0
-70,-13,0,0,0,0,0,0,0,0,0,-1,1154,1037,0,0
-63,-13,0,0,0,0,0,0,0,0,0,-1,1161,1037,0,0
-56,-13,0,0,0,0,0,0,0,0,0,-1,1168,1037,0,0
-49,-13,0,0,0,0,0,0,0,0,0,-1,1175,1037,0,0
-42,-13,0,0,0,0,0,0,0,0,0,-1,1182,1037,0,0
-35,-13,0,0,0,0,0,0,0,0,0,-1,1189,1037,0,0
-28,-13,0,0,0,0,0,0,0,0,0,-1,1196,1037,0,0
-21,-13,0,0,0,0,0,0,0,0,0,-1,1203,1037,0,0
-14,-13,0,0,0,0,0,0,0,0,0,-1,1210,1037,0,0
-7,-13,0,0,0,0,0,0,0,0,0,-1,1217,1037,0,0
0,-13,0,0,0,0,0,0,0,0,0,-1,1224,1037,0,0
7,-13,0,0,0,0,0,0,0,0,0,-1,1231,1037,0,0
14,-13,0,0,0,0,0,0,0,0,0,-1,1238,1037,0,0
21,-13,0,0,0,0,0,0,0,0,0,-1,1245,1037,0,0
28,-13,0,0,0,0,0,0,0,0,0,-1,1252,1037,0,0
35,-13,0,0,0,0,0,0,0,0,0,-1,1259,1037,0,0
42,-13,0,0,0,0,0,0,0,0,0,-1,1266,1037,0,0
49,-13,0,0,0,0,0,0,0,0,0,-1,1273,1037,0,0
56,-13,0,0,0,0,0,0,0,0,0,-1,1280,1037,0,0
63,-13,0,0,0,0,0,0,0,0,0,-1,1287,1037,0,0
70,-13,0,0,0,0,0,0,0,0,0,-1,1294,1037,0,0
77,-13,0,0,0,0,0,0,0,0,0,-1,1301,1037,0,0
84,-13,0,0,0,0,0,0,0,0,0,-1,1308,1037,0,0
91,-13,0,0,0,0,0,0,0,0,0,-1,1315,1037,0,0
98,-13,0,0,0,0,0,0,0,0,0,-1,1322,1037,0,0
105,-13,0,0,0,0,0,0,0,0,0,-1,1329,1037,0,0
112,-13,0,0,0,0,0,0,0,0,0,-1,1336,1037,0,0
119,-13,0,0,0,0,0,0,0,0,0,-1,1343,1037,0,0
126,-13,0,0,0,0,0,0,0,0,0,-1,1350,1037,0,0
133,-13,0,0,0,0,0,0,0,0,0,-1,1357,1037,0,0
140,-13,0,0,0,0,0,0,0,0,0,-1,1364,1037,0,0
147,-13,0,0,0,0,0,0,0,0,0,-1,1371,1037,0,0
154,-13,0,0,0,0,0,0,0,0,0,-1,1378,1037,0,0
161,-13,0,0,0,0,0,0,0,0,0,-1,1385,1037,0,0
168,-13,0,0,0,0,0,0,0,0,0,-1,1392,1037,0,0
175,-13,0,0,0,0,0,0,0,0,0,-1,1399,1037,0,0
182,-13,0,0,0,0,0,0,0,0,0,-1,1406,1037,0,0
189,-13,0,0,0,0,0,0,0,0,0,-1,1413,1037,0,0
196,-13,0,0,0,0,0,0,0,0,0,-1,1420,1037,0,0
203,-13,0,0,0,0,0,0,0,0,0,-1,1427,1037,0,0
210,-13,0,0,0,0,0,0,0,0,0,-1,1434,1037,0,0
217,-13,0,0,0,0,0,0,0,0,0,-1,1441,1037,0,0
224,-13,0,0,0,0,0,0,0,0,0,-1,1448,1037,0,0
231,-13,0,0,0,0,0,0,0,0,0,-1,1455,1037,0,0
238,-13,0,0,0,0,0,0,0,0,0,-1,1462,1037,0,0
245,-13,0,0,0,0,0,0,0,0,0,-1,1469,1037,0,0
252,-13,0,0,0,0,0,0,0,0,0,-1,1476,1037,0,0
259,-13,0,0,0,0,0,0,0,0,0,-1,1483,1037,0,0
266,-13,0,0,0,0,0,0,0,0,0,-1,1490,1037,0,0
273,-13,0,0,0,0,0,0,0,0,0,-1,1497,1037,0,0
280,-13,0,0,0,0,0,0,0,0,0,-1,1504,1037,0,0
287,-13,0,0,0,0,0,0,0,0,0,-1,1511,1037,0,0
294,-13,0,0,0,0,0,0,0,0,0,-1,1518,1037,0,0
301,-13,0,0,0,0,0,0,0,0,0,-1,1525,1037,0,0
308,-13,0,0,0,0,0,0,0,0,0,-1,1532,1037,0,0
315,-13,0,0,0,0,0,0,0,0,0,-1,1539,1037,0,0
322,-13,0,0,0,0,0,0,0,0,0,-1,1546,1037,0,0
329,-13,0,0,0,0,0,0,0,0,0,-1,1553,1037,0,0
336,-13,0,0,0,0,0,0,0,0,0,-1,1560,1037,0,0
343,-13,0,0,0,0,0,0,0,0,0,-1,1567,1037,0,0
350,-13,0,0,0,0,0,0,0,0,0,-1,1574,1037,0,0
357,-13,0,0,0,0,0,0,0,0,0,-1,1581,1037,0,0
364,-13,0,0,0,0,0,0,0,0,0,-1,1588,1037,0,0
371,-13,0,0,0,0,0,0,0,0,0,-1,1595,1037,0,0
378,-13,0,0,0,0,0,0,0,0,0,-1,1602,1037,0,0
385,-13,0,0,0,0,0,0,0,0,0,-1,1609,1037,0,0
392,-13,0,0,0,0,0,0,0,0,0,-1,1616,1037,0,0
399,-13,0,0,0,0,0,0,0,0,0,-1,1623,1037,0,0
406,-13,0,0,0,0,0,0,0,0,0,-1,1630,1037,0,0
413,-13,0,0,0,0,0,0,0,0,0,-1,1637,1037,0,0
420,-13,0,0,0,0,0,0,0,0,0,-1,1644,1037,0,0
427,-13,0,0,0,0,0,0,0,0,0,-1,1651,1037,0,0
434,-13,0,0,0,0,0,0,0,0,0,-1,1658,1037,0,0
441,-13,0,0,0,0,0,0,0,0,0,-1,1665,1037,0,0
448,-13,0,0,0,0,0,0,0,0,0,-1,1672,1037,0,0
455,-13,0,0,0,0,0,0,0,0,0,-1,1679,1037,0,0
462,-13,0,0,0,0,0,0,0,0,0,-1,1686,1037,0,0
469,-13,0,0,0,0,0,0,0,0,0,-1,1693,1037,0,0
476,-13,0,0,0,0,0,0,0,0,0,-1,1700,1037,0,0
483,-13,0,0,0,0,0,0,0,0,0,-1,1707,1037,0,0
490,-13,0,0,0,0,0,0,0,0,0,-1,1714,1037,0,0
497,-13,0,0,0,0,0,0,0,0,0,-1,1721,1037,0,0
504,-13,0,0,0,0,0,0,0,0,0,-1,1728,1037,0,0
511,-13,0,0,0,0,0,0,0,0,0,-1,1735,1037,0,0
518,-13,0,0,0,0,0,0,0,0,0,-1,1742,1037,0,0
525,-13,0,0,0,0,0,0,0,0,0,-1,1749,1037,0,0
532,-13,0,0,0,0,0,0,0,0,0,-1,1756,1037,0,0
539,-13,0,0,0,0,0,0,0,0,0,-1,1763,1037,0,0
546,-13,0,0,0,0,0,0,0,0,0,-1,1770,1037,0,0
553,-13,0,0,0,0,0,0,0,0,0,-1,1777,1037,0,0
560,-13,0,0,0,0,0,0,0,0,0,-1,1784,1037,0,0
567,-13,0,0,0,0,0,0,0,0,0,-1,1791,1037,0,0
574,-13,0,0,0,0,0,0,0,0,0,-1,1798,1037,0,0
581,-13,0,0,0,0,0,0,0,0,0,-1,1805,1037,0,0
588,-13,0,0,0,0,0,0,0,0,0,-1,1812,1037,0,0
595,-13,0,0,0,0,0,0,0,0,0,-1,1819,1037,0,0
602,-13,0,0,0,0,0,0,0,0,0,-1,1826,1037,0,0
609,-13,0,0,0,0,0,0,0,0,0,-1,1833,1037,0,0
616,-13,0,0,0,0,0,0,0,0,0,-1,1840,1037,0,0
623,-13,0,0,0,0,0,0,0,0,0,-1,1847,1037,0,0
630,-13,0,0,0,0,0,0,0,0,0,-1,1854,1037,0,0
637,-13,0,0,0,0,0,0,0,0,0,-1,1861,1037,0,0
644,-13,0,0,0,0,0,0,0,0,0,-1,1868,1037,0,0
651,-13,60.9756,2.58081,-0.0048324,0.00034028,0.00116007,0.000588533,-0.00508066,1.35998,0.00359936,0.0398824,1875,1037,60.9755,-2.58075
658,-13,60.9865,2.59399,-0.00422365,0.000233533,0.000776462,0.000364923,-0.00435504,1.40317,0.00303233,0.0436667,1882,1037,60.9865,-2.59398
665,-13,61.0682,2.60522,-0.00354885,0.000296234,0.000600406,0.000387806,-0.00364042,1.41945,0.002566,0.0425723,1889,1037,61.0683,-2.60524
672,-13,60.9041,2.59949,-0.00281679,0.000398322,0.000621566,0.000514303,-0.00293277,1.38632,0.00214725,0.0345992,1896,1037,60.9041,-2.59948
679,-13,60.6987,2.6969,-0.00200921,0.000517449,0.000751037,0.000723834,-0.00221559,1.30262,0.00176843,0.0355783,1903,1037,60.6987,-2.69686
686,-13,60.5573,2.51196,-0.00162958,0.000379456,0.000925155,0.000740576,-0.0019907,1.19865,0.00163104,0.0380331,1910,1037,60.5572,-2.51196
693,-13,60.6011,2.53406,-0.00142391,9.06985e-05,0.00114181,0.000703522,-0.00203673,1.07821,0.00164331,0.0364496,1917,1037,60.601,-2.53403
700,-13,60.7714,2.55579,-0.00125682,-0.000184692,0.00133027,0.000713465,-0.00215498,0.976932,0.00172439,0.0347002,1924,1037,60.7713,-2.55583
707,-13,60.8114,2.58472,-0.00173134,-1.99833e-05,0.00137131,0.000740718,-0.00249204,1.06433,0.0019556,0.0309893,1931,1037,60.8114,-2.58469
714,-13,60.7787,2.76221,-0.0025205,0.000515076,0.00137144,0.0010429,-0.00304832,1.2034,0.00245484,0.0360155,1938,1037,60.7787,-2.7622
721,-13,60.6278,2.91504,0,0,0,0,0,0,0,-1,1945,1037,60.6278,-2.91506
728,-13,60.7111,6.80005,0,0,0,0,0,0,0,-1,1952,1037,60.7111,-6.80002
735,-13,60.627,6.74377,-0.00559786,0.00414841,0.00124489,0.00430491,-0.00575435,1.44574,0.00582778,0.0344565,1959,1037,60.627,-6.74381
742,-13,60.5986,6.63782,-0.00633049,0.00564646,0.000213573,0.00565027,-0.00633429,1.55297,0.00692305,0.0223116,1966,1037,60.5987,-6.63785
749,-13,60.6595,6.50281,-0.00726721,0.00718718,-0.00104214,0.00726193,-0.00734196,-1.49919,0.00843161,0.0304922,1973,1037,60.6595,-6.50278
756,-13,60.6544,6.41992,-0.00787039,0.01004,-0.00288743,0.010494,-0.00832438,-1.41484,0.0108888,0.0208718,1980,1037,60.6544,-6.41987
763,-13,60.6063,6.28076,-0.00782322,0.0142509,-0.00612198,0.0158351,-0.00940739,-1.31758,0.0147304,0.030106,1987,1037,60.6063,-6.28072
770,-13,60.5044,6.18665,-0.00690548,0.0194146,-0.0107516,0.0232481,-0.0107391,-1.22829,0.0200607,0.0252333,1994,1037,60.5044,-6.1866
777,-13,60.3271,6.05627,-0.00436723,0.0263461,-0.0179042,0.0345773,-0.0125984,-1.13988,0.028205,0.0167103,2001,1037,60.3272,-6.0563
784,-13,60.3035,5.94531,-0.000863988,0.0341406,-0.0265435,0.0484328,-0.0151562,-1.07687,0.0383522,0.0367263,2008,1037,60.3035,-5.94537
791,-13,60.2979,5.83105,0,0,0,0,0,0,0,-1,2015,1037,60.2978,-5.83106
798,-13,60.7014,5.4292,0,0,0,0,0,0,0,-1,2022,1037,60.7015,-5.42926
805,-13,62.1555,1.59888,0,0,0,0,0,0,0,-1,2029,1037,62.1556,-1.59891
812,-13,62.4102,0.723755,0,0,0,0,0,0,0,-1,2036,1037,62.4102,-0.72373
-700,-20,-45.157,2.33008,0,0,0,0,0,0,0,-1,524,1044,-45.157,-2.33002
-693,-20,-48.3275,-0.696289,0,0,0,0,0,0,0,-1,531,1044,-48.3275,0.69627
-686,-20,-47.3135,-0.043457,0.0843322,0.0800431,0.0651121,0.147335,0.0170402,0.768936,0.0930648,0.0480537,538,1044,-47.3135,0.043462
-679,-20,-46.3678,0.574585,0.0719348,0.0687092,0.056483,0.126828,0.0138159,0.771125,0.0803436,0.0473624,545,1044,-46.3678,-0.574613
-672,-20,-45.389,1.21985,0,0,0,0,0,0,0,-1,552,1044,-45.389,-1.2199
-665,-20,-46.5269,2.25928,0,0,0,0,0,0,0,-1,559,1044,-46.5269,-2.25929
-658,-20,-46.2291,2.80029,0.0355527,0.0447931,0.0307953,0.0713129,0.00903296,0.859858,0.0448353,0.0489797,566,1044,-46.2291,-2.80028
-651,-20,-46.0746,3.10022,0.025542,0.0377983,0.023308,0.0557703,0.00756999,0.913948,0.0349314,0.0457354,573,1044,-46.0746,-3.10025
-644,-20,-46.0085,3.2583,0.0168192,0.0305801,0.0164253,0.0415078,0.0058915,0.983742,0.0259321,0.0314647,580,1044,-46.0085,-3.2583
-637,-20,-46.0874,3.40906,0.00903845,0.0243145,0.00974914,0.0290614,0.00429161,1.11768,0.018114,0.021595,587,1044,-46.0874,-3.40904
-630,-20,-46.1896,3.66199,0.00303063,0.0173582,0.00482376,0.0188309,0.00155796,1.27449,0.0120682,0.0172179,594,1044,-46.1895,-3.66198
-623,-20,-46.2592,3.90527,-0.000237802,0.0115187,0.00115105,0.0116304,-0.000349438,1.47411,0.00787264,0.0149575,601,1044,-46.2592,-3.90533
-616,-20,-46.2619,4.08521,-0.000662769,0.00688443,-0.000816797,0.00697182,-0.000750155,-1.46422,0.00491704,0.0147551,608,1044,-46.2619,-4.08516
-609,-20,-46.2786,4.26819,-0.000449769,0.00388476,-0.00209187,0.00472963,-0.00129464,-1.18695,0.00366174,0.0164721,615,1044,-46.2786,-4.26818
-602,-20,-46.2629,4.40393,-0.000358502,0.00185907,-0.00280387,0.00376542,-0.00226486,-0.973686,0.00351733,0.0155855,622,1044,-46.2629,-4.40393
-595,-20,-46.2344,4.49927,-0.000256282,0.00076435,-0.00293895,0.00323696,-0.00272889,-0.87136,0.00344855,0.0419547,629,1044,-46.2344,-4.49924
-588,-20,-45.9715,0.876343,0,0,0,0,0,0,0,-1,636,1044,-45.9715,-0.876389
-581,-20,-45.9349,0.793579,0.00056796,-0.000556375,-0.00238382,0.002455,-0.00244342,-0.669601,0.00282811,0.0242271,643,1044,-45.9349,-0.793613
-574,-20,-45.9525,0.887451,0.00066759,-0.000677328,-0.00186972,0.0019821,-0.00199184,-0.612772,0.00229436,0.0380214,650,1044,-45.9525,-0.88743
-567,-20,-45.8621,1.0625,0.000370435,-0.000495892,-0.00111369,0.00113223,-0.00125769,-0.599928,0.00138046,0.0451684,657,1044,-45.862,-1.06255
-560,-20,-45.8798,0.876709,-0.000301992,-0.000154289,-0.000108994,-9.64828e-05,-0.000359798,-1.08316,0.000215044,0.046235,664,1044,-45.8798,-0.876721
-553,-20,-45.9498,0.713013,-0.00141522,4.71801e-05,0.00110261,0.000639005,-0.00200704,1.07818,0.0015943,0.0429964,671,1044,-45.9499,-0.71306
-546,-20,-45.9218,0.821899,-0.00296257,-0.000363399,0.00246323,0.00112205,-0.00444802,1.02814,0.00340162,0.041493,678,1044,-45.9218,-0.821905
-539,-20,-45.925,0.99353,-0.00510877,-0.00180652,0.00334604,0.000273601,-0.00718889,1.0146,0.00488635,0.0433064,685,1044,-45.925,-0.993509
-532,-20,-46.0079,1.13391,-0.00721838,-0.00317273,0.00431871,-0.000426582,-0.00996453,1.00442,0.00650549,0.0446181,692,1044,-46.0079,-1.13387
-525,-20,0,0,0,0,0,0,0,0,0,-1,699,1044,0,0
-518,-20,0,0,0,0,0,0,0,0,0,-1,706,1044,0,0
-511,-20,0,0,0,0,0,0,0,0,0,-1,713,1044,0,0
-504,-20,0,0,0,0,0,0,0,0,0,-1,720,1044,0,0
-497,-20,0,0,0,0,0,0,0,0,0,-1,727,1044,0,0
-490,-20,0,0,0,0,0,0,0,0,0,-1,734,1044,0,0
-483,-20,0,0,0,0,0,0,0,0,0,-1,741,1044,0,0
-476,-20,0,0,0,0,0,0,0,0,0,-1,748,1044,0,0
-469,-20,0,0,0,0,0,0,0,0,0,-1,755,1044,0,0
-462,-20,0,0,0,0,0,0,0,0,0,-1,762,1044,0,0
-455,-20,0,0,0,0,0,0,0,0,0,-1,769,1044,0,0
-448,-20,0,0,0,0,0,0,0,0,0,-1,776,1044,0,0
-441,-20,0,0,0,0,0,0,0,0,0,-1,783,1044,0,0
-434,-20,0,0,0,0,0,0,0,0,0,-1,790,1044,0,0
-427,-20,0,0,0,0,0,0,0,0,0,-1,797,1044,0,0
-420,-20,0,0,0,0,0,0,0,0,0,-1,804,1044,0,0
-413,-20,0,0,0,0,0,0,0,0,0,-1,811,1044,0,0
-406,-20,0,0,0,0,0,0,0,0,0,-1,818,1044,0,0
-399,-20,0,0,0,0,0,0,0,0,0,-1,825,1044,0,0
-392,-20,0,0,0,0,0,0,0,0,0,-1,832,1044,0,0
-385,-20,0,0,0,0,0,0,0,0,0,-1,839,1044,0,0
-378,-20,0,0,0,0,0,0,0,0,0,-1,846,1044,0,0
-371,-20,0,0,0,0,0,0,0,0,0,-1,853,1044,0,0
-364,-20,0,0,0,0,0,0,0,0,0,-1,860,1044,0,0
-357,-20,0,0,0,0,0,0,0,0,0,-1,867,1044,0,0
-350,-20,0,0,0,0,0,0,0,0,0,-1,874,1044,0,0
-343,-20,0,0,0,0,0,0,0,0,0,-1,881,1044,0,0
-336,-20,0,0,0,0,0,0,0,0,0,-1,888,1044,0,0
-329,-20,0,0,0,0,0,0,0,0,0,-1,895,1044,0,0
-322,-20,0,0,0,0,0,0,0,0,0,-1,902,1044,0,0
-315,-20,0,0,0,0,0,0,0,0,0,-1,909,1044,0,0
-308,-20,0,0,0,0,0,0,0,0,0,-1,916,1044,0,0
-301,-20,0,0,0,0,0,0,0,0,0,-1,923,1044,0,0
-294,-20,0,0,0,0,0,0,0,0,0,-1,930,1044,0,0
-287,-20,0,0,0,0,0,0,0,0,0,-1,937,1044,0,0
-280,-20,0,0,0,0,0,0,0,0,0,-1,944,1044,0,0
-273,-20,0,0,0,0,0,0,0,0,0,-1,951,1044,0,0
-266,-20,0,0,0,0,0,0,0,0,0,-1,958,1044,0,0
-259,-20,0,0,0,0,0,0,0,0,0,-1,965,1044,0,0
-252,-20,0,0,0,0,0,0,0,0,0,-1,972,1044,0,0
-245,-20,0,0,0,0,0,0,0,0,0,-1,979,1044,0,0
-238,-20,0,0,0,0,0,0,0,0,0,-1,986,1044,0,0
-231,-20,0,0,0,0,0,0,0,0,0,-1,993,1044,0,0
-224,-20,0,0,0,0,0,0,0,0,0,-1,1000,1044,0,0
-217,-20,0,0,0,0,0,0,0,0,0,-1,1007,1044,0,0
-210,-20,0,0,0,0,0,0,0,0,0,-1,1014,1044,0,0
-203,-20,0,0,0,0,0,0,0,0,0,-1,1021,1044,0,0
-196,-20,0,0,0,0,0,0,0,0,0,-1,1028,1044,0,0
-189,-20,0,0,0,0,0,0,0,0,0,-1,1035,1044,0,0
-182,-20,0,0,0,0,0,0,0,0,0,-1,1042,1044,0,0
-175,-20,0,0,0,0,0,0,0,0,0,-1,1049,1044,0,0
-168,-20,0,0,0,0,0,0,0,0,0,-1,1056,1044,0,0
-161,-20,0,0,0,0,0,0,0,0,0,-1,1063,1044,0,0
-154,-20,0,0,0,0,0,0,0,0,0,-1,1070,1044,0,0
-147,-20,0,0,0,0,0,0,0,0,0,-1,1077,1044,0,0
-140,-20,0,0,0,0,0,0,0,0,0,-1,1084,1044,0,0
-133,-20,0,0,0,0,0,0,0,0,0,-1,1091,1044,0,0
-126,-20,0,0,0,0,0,0,0,0,0,-1,1098,1044,0,0
-119,-20,0,0,0,0,0,0,0,0,0,-1,1105,1044,0,0
-112,-20,0,0,0,0,0,0,0,0,0,-1,1112,1044,0,0
-105,-20,0,0,0,0,0,0,0,0,0,-1,1119,1044,0,0
-98,-20,0,0,0,0,0,0,0,0,0,-1,1126,1044,0,0
-91,-20,0,0,0,0,0,0,0,0,0,-1,1133,1044,0,0
-84,-20,0,0,0,0,0,0,0,0,0,-1,1140,1044,0,0
-77,-20,0,0,0,0,0,0,0,0,0,-1,1147,1044,0,0
-70,-20,0,0,0,0,0,0,0,0,0,-1,1154,1044,0,0
-63,-20,0,0,0,0,0,0,0,0,0,-1,1161,1044,0,0
-56,-20,0,0,0,0,0,0,0,0,0,-1,1168,1044,0,0
-49,-20,0,0,0,0,0,0,0,0,0,-1,1175,1044,0,0
-42,-20,0,0,0,0,0,0,0,0,0,-1,1182,1044,0,0
-35,-20,0,0,0,0,0,0,0,0,0,-1,1189,1044,0,0
-28,-20,0,0,0,0,0,0,0,0,0,-1,1196,1044,0,0
-21,-20,0,0,0,0,0,0,0,0,0,-1,1203,1044,0,0
-14,-20,0,0,0,0,0,0,0,0,0,-1,1210,1044,0,0
-7,-20,0,0,0,0,0,0,0,0,0,-1,1217,1044,0,0
0,-20,0,0,0,0,0,0,0,0,0,-1,1224,1044,0,0
7,-20,0,0,0,0,0,0,0,0,0,-1,1231,1044,0,0
14,-20,0,0,0,0,0,0,0,0,0,-1,1238,1044,0,0
21,-20,0,0,0,0,0,0,0,0,0,-1,1245,1044,0,0
28,-20,0,0,0,0,0,0,0,0,0,-1,1252,1044,0,0
35,-20,0,0,0,0,0,0,0,0,0,-1,1259,1044,0,0
42,-20,0,0,0,0,0,0,0,0,0,-1,1266,1044,0,0
49,-20,0,0,0,0,0,0,0,0,0,-1,1273,1044,0,0
56,-20,0,0,0,0,0,0,0,0,0,-1,1280,1044,0,0
63,-20,0,0,0,0,0,0,0,0,0,-1,1287,1044,0,0
70,-20,0,0,0,0,0,0,0,0,0,-1,1294,1044,0,0
77,-20,0,0,0,0,0,0,0,0,0,-1,1301,1044,0,0
84,-20,0,0,0,0,0,0,0,0,0,-1,1308,1044,0,0
91,-20,0,0,0,0,0,0,0,0,0,-1,1315,1044,0,0
98,-20,0,0,0,0,0,0,0,0,0,-1,1322,1044,0,0
105,-20,0,0,0,0,0,0,0,0,0,-1,1329,1044,0,0
112,-20,0,0,0,0,0,0,0,0,0,-1,1336,1044,0,0
119,-20,0,0,0,0,0,0,0,0,0,-1,1343,1044,0,0
126,-20,0,0,0,0,0,0,0,0,0,-1,1350,1044,0,0
133,-20,0,0,0,0,0,0,0,0,0,-1,1357,1044,0,0
140,-20,0,0,0,0,0,0,0,0,0,-1,1364,1044,0,0
147,-20,0,0,0,0,0,0,0,0,0,-1,1371,1044,0,0
154,-20,0,0,0,0,0,0,0,0,0,-1,1378,1044,0,0
161,-20,0,0,0,0,0,0,0,0,0,-1,1385,1044,0,0
168,-20,0,0,0,0,0,0,0,0,0,-1,1392,1044,0,0
175,-20,0,0,0,0,0,0,0,0,0,-1,1399,1044,0,0
182,-20,0,0,0,0,0,0,0,0,0,-1,1406,1044,0,0
189,-20,0,0,0,0,0,0,0,0,0,-1,1413,1044,0,0
196,-20,0,0,0,0,0,0,0,0,0,-1,1420,1044,0,0
203,-20,0,0,0,0,0,0,0,0,0,-1,1427,1044,0,0
210,-20,0,0,0,0,0,0,0,0,0,-1,1434,1044,0,0
217,-20,0,0,0,0,0,0,0,0,0,-1,1441,1044,0,0
224,-20,0,0,0,0,0,0,0,0,0,-1,1448,1044,0,0
231,-20,0,0,0,0,0,0,0,0,0,-1,1455,1044,0,0
238,-20,0,0,0,0,0,0,0,0,0,-1,1462,1044,0,0
245,-20,0,0,0,0,0,0,0,0,0,-1,1469,1044,0,0
252,-20,0,0,0,0,0,0,0,0,0,-1,1476,1044,0,0
259,-20,0,0,0,0,0,0,0,0,0,-1,1483,1044,0,0
266,-20,0,0,0,0,0,0,0,0,0,-1,1490,1044,0,0
273,-20,0,0,0,0,0,0,0,0,0,-1,1497,1044,0,0
280,-20,0,0,0,0,0,0,0,0,0,-1,1504,1044,0,0
287,-20,0,0,0,0,0,0,0,0,0,-1,1511,1044,0,0
294,-20,0,0,0,0,0,0,0,0,0,-1,1518,1044,0,0
301,-20,0,0,0,0,0,0,0,0,0,-1,1525,1044,0,0
308,-20,0,0,0,0,0,0,0,0,0,-1,1532,1044,0,0
315,-20,0,0,0,0,0,0,0,0,0,-1,1539,1044,0,0
322,-20,0,0,0,0,0,0,0,0,0,-1,1546,1044,0,0
329,-20,0,0,0,0,0,0,0,0,0,-1,1553,1044,0,0
336,-20,0,0,0,0,0,0,0,0,0,-1,1560,1044,0,0
343,-20,0,0,0,0,0,0,0,0,0,-1,1567,1044,0,0
350,-20,0,0,0,0,0,0,0,0,0,-1,1574,1044,0,0
357,-20,0,0,0,0,0,0,0,0,0,-1,1581,1044,0,0
364,-20,0,0,0,0,0,0,0,0,0,-1,1588,1044,0,0
371,-20,0,0,0,0,0,0,0,0,0,-1,1595,1044,0,0
378,-20,0,0,0,0,0,0,0,0,0,-1,1602,1044,0,0
385,-20,0,0,0,0,0,0,0,0,0,-1,1609,1044,0,0
392,-20,0,0,0,0,0,0,0,0,0,-1,1616,1044,0,0
399,-20,0,0,0,0,0,0,0,0,0,-1,1623,1044,0,0
406,-20,0,0,0,0,0,0,0,0,0,-1,1630,1044,0,0
413,-20,0,0,0,0,0,0,0,0,0,-1,1637,1044,0,0
420,-20,0,0,0,0,0,0,0,0,0,-1,1644,1044,0,0
427,-20,0,0,0,0,0,0,0,0,0,-1,1651,1044,0,0
434,-20,0,0,0,0,0,0,0,0,0,-1,1658,1044,0,0
441,-20,0,0,0,0,0,0,0,0,0,-1,1665,1044,0,0
448,-20,0,0,0,0,0,0,0,0,0,-1,1672,1044,0,0
455,-20,0,0,0,0,0,0,0,0,0,-1,1679,1044,0,0
462,-20,0,0,0,0,0,0,0,0,0,-1,1686,1044,0,0
469,-20,0,0,0,0,0,0,0,0,0,-1,1693,1044,0,0
476,-20,0,0,0,0,0,0,0,0,0,-1,1700,1044,0,0
483,-20,0,0,0,0,0,0,0,0,0,-1,1707,1044,0,0
490,-20,0,0,0,0,0,0,0,0,0,-1,1714,1044,0,0
497,-20,0,0,0,0,0,0,0,0,0,-1,1721,1044,0,0
504,-20,0,0,0,0,0,0,0,0,0,-1,1728,1044,0,0
511,-20,0,0,0,0,0,0,0,0,0,-1,1735,1044,0,0
518,-20,0,0,0,0,0,0,0,0,0,-1,1742,1044,0,0
525,-20,0,0,0,0,0,0,0,0,0,-1,1749,1044,0,0
532,-20,0,0,0,0,0,0,0,0,0,-1,1756,1044,0,0
539,-20,0,0,0,0,0,0,0,0,0,-1,1763,1044,0,0
546,-20,0,0,0,0,0,0,0,0,0,-1,1770,1044,0,0
553,-20,0,0,0,0,0,0,0,0,0,-1,1777,1044,0,0
560,-20,0,0,0,0,0,0,0,0,0,-1,1784,1044,0,0
567,-20,0,0,0,0,0,0,0,0,0,-1,1791,1044,0,0
574,-20,0,0,0,0,0,0,0,0,0,-1,1798,1044,0,0
581,-20,0,0,0,0,0,0,0,0,0,-1,1805,1044,0,0
588,-20,0,0,0,0,0,0,0,0,0,-1,1812,1044,0,0
595,-20,0,0,0,0,0,0,0,0,0,-1,1819,1044,0,0
602,-20,0,0,0,0,0,0,0,0,0,-1,1826,1044,0,0
609,-20,0,0,0,0,0,0,0,0,0,-1,1833,1044,0,0
616,-20,0,0,0,0,0,0,0,0,0,-1,1840,1044,0,0
623,-20,0,0,0,0,0,0,0,0,0,-1,1847,1044,0,0
630,-20,0,0,0,0,0,0,0,0,0,-1,1854,1044,0,0
637,-20,0,0,0,0,0,0,0,0,0,-1,1861,1044,0,0
644,-20,0,0,0,0,0,0,0,0,0,-1,1868,1044,0,0
651,-20,60.9795,2.49255,-0.00547465,-6.47051e-05,0.00138054,0.000267222,-0.00580658,1.33484,0.00396313,0.0429612,1875,1044,60.9795,-2.49253
658,-20,60.8638,2.58691,-0.00473,7.15412e-05,0.000807102,0.000203578,-0.00486203,1.40864,0.0033113,0.0436149,1882,1044,60.8637,-2.58697
665,-20,60.9595,2.83191,-0.00391614,0.000292085,0.000531957,0.000358288,-0.00398235,1.44698,0.00278203,0.0404534,1889,1044,60.9595,-2.83193
672,-20,60.8739,2.75134,-0.00306309,0.000485241,0.000525313,0.000561377,-0.00313923,1.42686,0.00230287,0.0255242,1896,1044,60.8739,-2.75136
679,-20,60.7778,2.64966,-0.00214605,0.000682968,0.000658828,0.000828873,-0.00229196,1.35285,0.00186665,0.0277923,1903,1044,60.7779,-2.6497
686,-20,60.7627,2.57263,-0.00171449,0.000582389,0.000895401,0.000890198,-0.00202229,1.23969,0.00172335,0.038874,1910,1044,60.7627,-2.5726
693,-20,60.6962,2.69226,-0.00150975,0.000303321,0.00118733,0.000890625,-0.00209705,1.11144,0.00177119,0.0419338,1917,1044,60.6962,-2.69224
700,-20,60.6769,2.66101,-0.00136855,2.32774e-05,0.00147502,0.000958313,-0.00230358,1.00581,0.00193591,0.0366346,1924,1044,60.6769,-2.66097
707,-20,60.7582,2.62146,-0.0018205,0.000131638,0.00160139,0.00103098,-0.00271984,1.05909,0.00223752,0.0320363,1931,1044,60.7582,-2.62141
714,-20,60.7811,2.83777,-0.00256191,0.000574549,0.00167633,0.00130184,-0.0032892,1.16145,0.00273217,0.0316947,1938,1044,60.7811,-2.83777
721,-20,60.6558,2.91418,0,0,0,0,0,0,0,-1,1945,1044,60.6557,-2.91419
728,-20,61.0111,6.84949,0,0,0,0,0,0,0,-1,1952,1044,61.0111,-6.84949
735,-20,60.6931,6.74866,-0.00561732,0.00386713,0.0016933,0.00416037,-0.00591057,1.39932,0.00584365,0.0319215,1959,1044,60.6931,-6.74866
742,-20,60.4408,6.55457,-0.0063252,0.00532831,0.000822916,0.00538613,-0.00638302,1.50064,0.00680305,0.0287447,1966,1044,60.4408,-6.55461
749,-20,60.5101,6.46106,-0.0071882,0.00673805,-0.000263698,0.00674304,-0.0071932,-1.55187,0.00804749,0.0307623,1973,1044,60.5101,-6.46107
756,-20,60.4962,6.36853,-0.0077139,0.00939944,-0.00192456,0.00961321,-0.00792767,-1.46018,0.0101428,0.0205678,1980,1044,60.4962,-6.36851
763,-20,60.4224,6.22034,-0.00756946,0.0134388,-0.00482466,0.0144939,-0.00862449,-1.35551,0.01349,0.0304141,1987,1044,60.4224,-6.22037
770,-20,60.3303,6.1543,-0.00647354,0.0184044,-0.00895649,0.0212934,-0.00936254,-1.25877,0.0181405,0.0257202,1994,1044,60.3302,-6.15431
777,-20,60.1841,5.92126,-0.00364172,0.0250501,-0.0152781,0.0316619,-0.0102536,-1.16237,0.0252301,0.0163455,2001,1044,60.184,-5.92123
784,-20,60.1687,5.78333,0.00023327,0.0325382,-0.0229963,0.0444879,-0.0117164,-1.09156,0.034239,0.0215963,2008,1044,60.1686,-5.78335
791,-20,60.2827,5.54712,0.00549958,0.041429,-0.0328396,0.0608965,-0.0139679,-1.03568,0.0459666,0.0392658,2015,1044,60.2827,-5.54711
798,-20,60.3833,5.33777,0.012776,0.0523859,-0.0453041,0.0820248,-0.016863,-0.991459,0.061085,0.0480484,2022,1044,60.3832,-5.33779
805,-20,60.4941,5.13647,0,0,0,0,0,0,0,-1,2029,1044,60.4941,-5.13651
812,-20,60.8643,2.80383,0,0,0,0,0,0,0,-1,2036,1044,60.8642,-2.80384
-700,-27,-47.3019,-3.37085,0,0,0,0,0,0,0,-1,524,1051,-47.3019,3.37089
-693,-27,-46.5883,3.3728,0,0,0,0,0,0,0,-1,531,1051,-46.5883,-3.3728
-686,-27,-47.4452,-1.13403,0,0,0,0,0,0,0,-1,538,1051,-47.4452,1.13398
-679,-27,-46.5134,-0.196655,0,0,0,0,0,0,0,-1,545,1051,-46.5134,0.196643
-672,-27,-47.0523,0.877319,0,0,0,0,0,0,0,-1,552,1051,-47.0523,-0.877268
-665,-27,-45.9675,4.05762,0,0,0,0,0,0,0,-1,559,1051,-45.9675,-4.05758
-658,-27,-45.8209,3.67371,0.0337847,0.0530111,0.0287644,0.0737262,0.0130696,0.946666,0.0454254,0.0444261,566,1051,-45.8209,-3.67371
-651,-27,-45.6388,3.13599,0.0242906,0.0433168,0.0216626,0.0574631,0.0101443,0.992295,0.035415,0.0362298,573,1051,-45.6388,-3.13599
-644,-27,-45.8065,3.10693,0.0161881,0.0339826,0.0151542,0.0426584,0.00751236,1.05084,0.026295,0.0190003,580,1051,-45.8064,-3.10688
-637,-27,-45.8688,3.26099,0.00900979,0.0257278,0.00889942,0.0295783,0.00515926,1.16245,0.0182439,0.0164701,587,1051,-45.8688,-3.26094
-630,-27,-45.9629,3.6366,0.00359238,0.0175792,0.00429344,0.018792,0.00237961,1.2955,0.0118149,0.0209447,594,1051,-45.9629,-3.63662
-623,-27,-46.0056,3.89758,0.000671307,0.0113882,0.000791353,0.0114463,0.000613188,1.49748,0.0074349,0.0175848,601,1051,-46.0056,-3.89763
-616,-27,-46.0009,4.10986,0.000122889,0.00671851,-0.0012389,0.00694354,-0.000102144,-1.39112,0.00466345,0.0148275,608,1051,-46.0009,-4.10991
-609,-27,-45.9954,4.33374,0.00020698,0.00368622,-0.00252768,0.00501506,-0.00112186,-1.08679,0.00377333,0.0147018,615,1051,-45.9954,-4.33369
-602,-27,-45.9503,4.55334,0.000166259,0.00157575,-0.00322747,0.00417453,-0.00243252,-0.89289,0.00385852,0.0146617,622,1051,-45.9503,-4.55333
-595,-27,-46.0101,4.71643,0.000130903,0.000544906,-0.00330446,0.00364884,-0.00297303,-0.816679,0.00382977,0.0193276,629,1051,-46.0101,-4.7164
-588,-27,-45.9632,0.835327,0,0,0,0,0,0,0,-1,636,1051,-45.9632,-0.835297
-581,-27,-45.9313,0.867188,0.000823191,-0.000611396,-0.00240581,0.00261636,-0.00240457,-0.640519,0.00289969,0.0231015,643,1051,-45.9314,-0.867144
-574,-27,-45.9222,0.968994,0.00088759,-0.000697156,-0.00171548,0.00198485,-0.00179442,-0.569046,0.00218288,0.0357333,650,1051,-45.9223,-0.968969
-567,-27,-45.8045,0.939331,0.00059826,-0.000513224,-0.000748357,0.000974659,-0.000889623,-0.466019,0.00107672,0.0439857,657,1051,-45.8045,-0.939381
-560,-27,-45.8763,0.68335,-1.99027e-05,-0.000185545,0.00052102,0.000424837,-0.000630285,0.706578,0.000613013,0.046124,664,1051,-45.8764,-0.683327
-553,-27,-45.8737,0.67627,-0.000953821,6.5259e-06,0.00206936,0.00165069,-0.00259799,0.899401,0.00247321,0.0436217,671,1051,-45.8737,-0.676224
-546,-27,-45.8062,0.917847,-0.00211966,-0.000368322,0.00383585,0.00269054,-0.00517853,0.897618,0.00461828,0.0444589,678,1051,-45.8062,-0.917831
-539,-27,-45.7991,1.23254,-0.00365176,-0.00176656,0.00514021,0.00251677,-0.00793508,0.876079,0.00629886,0.0445333,685,1051,-45.799,-1.23258
-532,-27,-45.8743,1.29749,-0.00507129,-0.0030401,0.00652217,0.00254507,-0.0106565,0.862635,0.00808727,0.0428118,692,1051,-45.8743,-1.29746
-525,-27,0,0,0,0,0,0,0,0,0,-1,699,1051,0,0
-518,-27,0,0,0,0,0,0,0,0,0,-1,706,1051,0,0
-511,-27,0,0,0,0,0,0,0,0,0,-1,713,1051,0,0
-504,-27,0,0,0,0,0,0,0,0,0,-1,720,1051,0,0
-497,-27,0,0,0,0,0,0,0,0,0,-1,727,1051,0,0
-490,-27,0,0,0,0,0,0,0,0,0,-1,734,1051,0,0
-483,-27,0,0,0,0,0,0,0,0,0,-1,741,1051,0,0
-476,-27,0,0,0,0,0,0,0,0,0,-1,748,1051,0,0
-469,-27,0,0,0,0,0,0,0,0,0,-1,755,1051,0,0
-462,-27,0,0,0,0,0,0,0,0,0,-1,762,1051,0,0
-455,-27,0,0,0,0,0,0,0,0,0,-1,769,1051,0,0
-448,-27,0,0,0,0,0,0,0,0,0,-1,776,1051,0,0
-441,-27,0,0,0,0,0,0,0,0,0,-1,783,1051,0,0
-434,-27,0,0,0,0,0,0,0,0,0,-1,790,1051,0,0
-427,-27,0,0,0,0,0,0,0,0,0,-1,797,1051,0,0
-420,-27,0,0,0,0,0,0,0,0,0,-1,804,1051,0,0
-413,-27,0,0,0,0,0,0,0,0,0,-1,811,1051,0,0
-406,-27,0,0,0,0,0,0,0,0,0,-1,818,1051,0,0
-399,-27,0,0,0,0,0,0,0,0,0,-1,825,1051,0,0
-392,-27,0,0,0,0,0,0,0,0,0,-1,832,1051,0,0
-385,-27,0,0,0,0,0,0,0,0,0,-1,839,1051,0,0
-378,-27,0,0,0,0,0,0,0,0,0,-1,846,1051,0,0
-371,-27,0,0,0,0,0,0,0,0,0,-1,853,1051,0,0
-364,-27,0,0,0,0,0,0,0,0,0,-1,860,1051,0,0
-357,-27,0,0,0,0,0,0,0,0,0,-1,867,1051,0,0
-350,-27,0,0,0,0,0,0,0,0,0,-1,874,1051,0,0
-343,-27,0,0,0,0,0,0,0,0,0,-1,881,1051,0,0
-336,-27,0,0,0,0,0,0,0,0,0,-1,888,1051,0,0
-329,-27,0,0,0,0,0,0,0,0,0,-1,895,1051,0,0
-322,-27,0,0,0,0,0,0,0,0,0,-1,902,1051,0,0
-315,-27,0,0,0,0,0,0,0,0,0,-1,909,1051,0,0
-308,-27,0,0,0,0,0,0,0,0,0,-1,916,1051,0,0
-301,-27,0,0,0,0,0,0,0,0,0,-1,923,1051,0,0
-294,-27,0,0,0,0,0,0,0,0,0,-1,930,1051,0,0
-287,-27,0,0,0,0,0,0,0,0,0,-1,937,1051,0,0
-280,-27,0,0,0,0,0,0,0,0,0,-1,944,1051,0,0
-273,-27,0,0,0,0,0,0,0,0,0,-1,951,1051,0,0
-266,-27,0,0,0,0,0,0,0,0,0,-1,958,1051,0,0
-259,-27,0,0,0,0,0,0,0,0,0,-1,965,1051,0,0
-252,-27,0,0,0,0,0,0,0,0,0,-1,972,1051,0,0
-245,-27,0,0,0,0,0,0,0,0,0,-1,979,1051,0,0
-238,-27,0,0,0,0,0,0,0,0,0,-1,986,1051,0,0
-231,-27,0,0,0,0,0,0,0,0,0,-1,993,1051,0,0
-224,-27,0,0,0,0,0,0,0,0,0,-1,1000,1051,0,0
-217,-27,0,0,0,0,0,0,0,0,0,-1,1007,1051,0,0
-210,-27,0,0,0,0,0,0,0,0,0,-1,1014,1051,0,0
-203,-27,0,0,0,0,0,0,0,0,0,-1,1021,1051,0,0
-196,-27,0,0,0,0,0,0,0,0,0,-1,1028,1051,0,0
-189,-27,0,0,0,0,0,0,0,0,0,-1,1035,1051,0,0
-182,-27,0,0,0,0,0,0,0,0,0,-1,1042,1051,0,0
-175,-27,0,0,0,0,0,0,0,0,0,-1,1049,1051,0,0
-168,-27,0,0,0,0,0,0,0,0,0,-1,1056,1051,0,0
-161,-27,0,0,0,0,0,0,0,0,0,-1,1063,1051,0,0
-154,-27,0,0,0,0,0,0,0,0,0,-1,1070,1051,0,0
-147,-27,0,0,0,0,0,0,0,0,0,-1,1077,1051,0,0
-140,-27,0,0,0,0,0,0,0,0,0,-1,1084,1051,0,0
-133,-27,0,0,0,0,0,0,0,0,0,-1,1091,1051,0,0
-126,-27,0,0,0,0,0,0,0,0,0,-1,1098,1051,0,0
-119,-27,0,0,0,0,0,0,0,0,0,-1,1105,1051,0,0
-112,-27,0,0,0,0,0,0,0,0,0,-1,1112,1051,0,0
-105,-27,0,0,0,0,0,0,0,0,0,-1,1119,1051,0,0
-98,-27,0,0,0,0,0,0,0,0,0,-1,1126,1051,0,0
-91,-27,0,0,0,0,0,0,0,0,0,-1,1133,1051,0,0
-84,-27,0,0,0,0,0,0,0,0,0,-1,1140,1051,0,0
-77,-27,0,0,0,0,0,0,0,0,0,-1,1147,1051,0,0
-70,-27,0,0,0,0,0,0,0,0,0,-1,1154,1051,0,0
-63,-27,0,0,0,0,0,0,0,0,0,-1,1161,1051,0,0
-56,-27,0,0,0,0,0,0,0,0,0,-1,1168,1051,0,0
-49,-27,0,0,0,0,0,0,0,0,0,-1,1175,1051,0,0
-42,-27,0,0,0,0,0,0,0,0,0,-1,1182,1051,0,0
-35,-27,0,0,0,0,0,0,0,0,0,-1,1189,1051,0,0
-28,-27,0,0,0,0,0,0,0,0,0,-1,1196,1051,0,0
-21,-27,0,0,0,0,0,0,0,0,0,-1,1203,1051,0,0
-14,-27,0,0,0,0,0,0,0,0,0,-1,1210,1051,0,0
-7,-27,0,0,0,0,0,0,0,0,0,-1,1217,1051,0,0
0,-27,0,0,0,0,0,0,0,0,0,-1,1224,1051,0,0
7,-27,0,0,0,0,0,0,0,0,0,-1,1231,1051,0,0
14,-27,0,0,0,0,0,0,0,0,0,-1,1238,1051,0,0
21,-27,0,0,0,0,0,0,0,0,0,-1,1245,1051,0,0
28,-27,0,0,0,0,0,0,0,0,0,-1,1252,1051,0,0
35,-27,0,0,0,0,0,0,0,0,0,-1,1259,1051,0,0
42,-27,0,0,0,0,0,0,0,0,0,-1,1266,1051,0,0
49,-27,0,0,0,0,0,0,0,0,0,-1,1273,1051,0,0
56,-27,0,0,0,0,0,0,0,0,0,-1,1280,1051,0,0
63,-27,0,0,0,0,0,0,0,0,0,-1,1287,1051,0,0
70,-27,0,0,0,0,0,0,0,0,0,-1,1294,1051,0,0
77,-27,0,0,0,0,0,0,0,0,0,-1,1301,1051,0,0
84,-27,0,0,0,0,0,0,0,0,0,-1,1308,1051,0,0
91,-27,0,0,0,0,0,0,0,0,0,-1,1315,1051,0,0
98,-27,0,0,0,0,0,0,0,0,0,-1,1322,1051,0,0
105,-27,0,0,0,0,0,0,0,0,0,-1,1329,1051,0,0
112,-27,0,0,0,0,0,0,0,0,0,-1,1336,1051,0,0
119,-27,0,0,0,0,0,0,0,0,0,-1,1343,1051,0,0
126,-27,0,0,0,0,0,0,0,0,0,-1,1350,1051,0,0
133,-27,0,0,0,0,0,0,0,0,0,-1,1357,1051,0,0
140,-27,0,0,0,0,0,0,0,0,0,-1,1364,1051,0,0
147,-27,0,0,0,0,0,0,0,0,0,-1,1371,1051,0,0
154,-27,0,0,0,0,0,0,0,0,0,-1,1378,1051,0,0
161,-27,0,0,0,0,0,0,0,0,0,-1,1385,1051,0,0
168,-27,0,0,0,0,0,0,0,0,0,-1,1392,1051,0,0
175,-27,0,0,0,0,0,0,0,0,0,-1,1399,1051,0,0
182,-27,0,0,0,0,0,0,0,0,0,-1,1406,1051,0,0
189,-27,0,0,0,0,0,0,0,0,0,-1,1413,1051,0,0
196,-27,0,0,0,0,0,0,0,0,0,-1,1420,1051,0,0
203,-27,0,0,0,0,0,0,0,0,0,-1,1427,1051,0,0
210,-27,0,0,0,0,0,0,0,0,0,-1,1434,1051,0,0
217,-27,0,0,0,0,0,0,0,0,0,-1,1441,1051,0,0
224,-27,0,0,0,0,0,0,0,0,0,-1,1448,1051,0,0
231,-27,0,0,0,0,0,0,0,0,0,-1,1455,1051,0,0
238,-27,0,0,0,0,0,0,0,0,0,-1,1462,1051,0,0
245,-27,0,0,0,0,0,0,0,0,0,-1,1469,1051,0,0
252,-27,0,0,0,0,0,0,0,0,0,-1,1476,1051,0,0
259,-27,0,0,0,0,0,0,0,0,0,-1,1483,1051,0,0
266,-27,0,0,0,0,0,0,0,0,0,-1,1490,1051,0,0
273,-27,0,0,0,0,0,0,0,0,0,-1,1497,1051,0,0
280,-27,0,0,0,0,0,0,0,0,0,-1,1504,1051,0,0
287,-27,0,0,0,0,0,0,0,0,0,-1,1511,1051,0,0
294,-27,0,0,0,0,0,0,0,0,0,-1,1518,1051,0,0
301,-27,0,0,0,0,0,0,0,0,0,-1,1525,1051,0,0
308,-27,0,0,0,0,0,0,0,0,0,-1,1532,1051,0,0
315,-27,0,0,0,0,0,0,0,0,0,-1,1539,1051,0,0
322,-27,0,0,0,0,0,0,0,0,0,-1,1546,1051,0,0
329,-27,0,0,0,0,0,0,0,0,0,-1,1553,1051,0,0
336,-27,0,0,0,0,0,0,0,0,0,-1,1560,1051,0,0
343,-27,0,0,0,0,0,0,0,0,0,-1,1567,1051,0,0
350,-27,0,0,0,0,0,0,0,0,0,-1,1574,1051,0,0
357,-27,0,0,0,0,0,0,0,0,0,-1,1581,1051,0,0
364,-27,0,0,0,0,0,0,0,0,0,-1,1588,1051,0,0
371,-27,0,0,0,0,0,0,0,0,0,-1,1595,1051,0,0
378,-27,0,0,0,0,0,0,0,0,0,-1,1602,1051,0,0
385,-27,0,0,0,0,0,0,0,0,0,-1,1609,1051,0,0
392,-27,0,0,0,0,0,0,0,0,0,-1,1616,1051,0,0
399,-27,0,0,0,0,0,0,0,0,0,-1,1623,1051,0,0
406,-27,0,0,0,0,0,0,0,0,0,-1,1630,1051,0,0
413,-27,0,0,0,0,0,0,0,0,0,-1,1637,1051,0,0
420,-27,0,0,0,0,0,0,0,0,0,-1,1644,1051,0,0
427,-27,0,0,0,0,0,0,0,0,0,-1,1651,1051,0,0
434,-27,0,0,0,0,0,0,0,0,0,-1,1658,1051,0,0
441,-27,0,0,0,0,0,0,0,0,0,-1,1665,1051,0,0
448,-27,0,0,0,0,0,0,0,0,0,-1,1672,1051,0,0
455,-27,0,0,0,0,0,0,0,0,0,-1,1679,1051,0,0
462,-27,0,0,0,0,0,0,0,0,0,-1,1686,1051,0,0
469,-27,0,0,0,0,0,0,0,0,0,-1,1693,1051,0,0
476,-27,0,0,0,0,0,0,0,0,0,-1,1700,1051,0,0
483,-27,0,0,0,0,0,0,0,0,0,-1,1707,1051,0,0
490,-27,0,0,0,0,0,0,0,0,0,-1,1714,1051,0,0
497,-27,0,0,0,0,0,0,0,0,0,-1,1721,1051,0,0
504,-27,0,0,0,0,0,0,0,0,0,-1,1728,1051,0,0
511,-27,0,0,0,0,0,0,0,0,0,-1,1735,1051,0,0
518,-27,0,0,0,0,0,0,0,0,0,-1,1742,1051,0,0
525,-27,0,0,0,0,0,0,0,0,0,-1,1749,1051,0,0
532,-27,0,0,0,0,0,0,0,0,0,-1,1756,1051,0,0
539,-27,0,0,0,0,0,0,0,0,0,-1,1763,1051,0,0
546,-27,0,0,0,0,0,0,0,0,0,-1,1770,1051,0,0
553,-27,0,0,0,0,0,0,0,0,0,-1,1777,1051,0,0
560,-27,0,0,0,0,0,0,0,0,0,-1,1784,1051,0,0
567,-27,0,0,0,0,0,0,0,0,0,-1,1791,1051,0,0
574,-27,0,0,0,0,0,0,0,0,0,-1,1798,1051,0,0
581,-27,0,0,0,0,0,0,0,0,0,-1,1805,1051,0,0
588,-27,0,0,0,0,0,0,0,0,0,-1,1812,1051,0,0
595,-27,0,0,0,0,0,0,0,0,0,-1,1819,1051,0,0
602,-27,0,0,0,0,0,0,0,0,0,-1,1826,1051,0,0
609,-27,0,0,0,0,0,0,0,0,0,-1,1833,1051,0,0
616,-27,0,0,0,0,0,0,0,0,0,-1,1840,1051,0,0
623,-27,0,0,0,0,0,0,0,0,0,-1,1847,1051,0,0
630,-27,0,0,0,0,0,0,0,0,0,-1,1854,1051,0,0
637,-27,0,0,0,0,0,0,0,0,0,-1,1861,1051,0,0
644,-27,0,0,0,0,0,0,0,0,0,-1,1868,1051,0,0
651,-27,60.9175,2.73901,-0.00560705,4.19439e-05,0.00131186,0.00033173,-0.00589683,1.35339,0.00404633,0.041659,1875,1051,60.9175,-2.73899
658,-27,60.9197,2.83289,-0.00479739,0.00026577,0.000638891,0.000345143,-0.00487676,1.44719,0.00337212,0.0411944,1882,1051,60.9197,-2.83293
665,-27,60.8613,2.83838,-0.00392113,0.000496692,0.000334755,0.000521914,-0.00394635,1.49559,0.00282101,0.0368723,1889,1051,60.8614,-2.83841
672,-27,60.7948,2.71252,-0.00302051,0.000666938,0.000347411,0.000699384,-0.00305296,1.47767,0.00230409,0.0283639,1896,1051,60.7948,-2.71253
679,-27,60.8187,2.61462,-0.00206986,0.000832186,0.00052305,0.00092358,-0.00216126,1.39781,0.00182819,0.0282479,1903,1051,60.8187,-2.61458
686,-27,60.7233,2.64099,-0.00160284,0.000679337,0.000853421,0.000963174,-0.00188668,1.24972,0.00167391,0.0404934,1910,1051,60.7233,-2.641
693,-27,60.6482,2.71155,-0.00139156,0.000354407,0.00124249,0.000999934,-0.00203709,1.09164,0.00178718,0.0424777,1917,1051,60.6482,-2.71152
700,-27,60.6571,2.729,-0.00127562,4.74597e-05,0.00163084,0.00114583,-0.00237399,0.978079,0.00207299,0.0359046,1924,1051,60.6571,-2.72901
707,-27,60.7142,2.68005,-0.00168292,0.000104924,0.00185091,0.00126648,-0.00284447,1.01036,0.00243104,0.0244344,1931,1051,60.7142,-2.68
714,-27,60.7985,2.79187,-0.00235352,0.000459434,0.00202106,0.00151524,-0.00340933,1.08939,0.00291246,0.0233099,1938,1051,60.7985,-2.79183
721,-27,60.7789,3.00635,0,0,0,0,0,0,0,-1,1945,1051,60.7789,-3.00638
728,-27,60.9502,6.92993,0,0,0,0,0,0,0,-1,1952,1051,60.9502,-6.9299
735,-27,60.4906,6.85229,-0.00523425,0.00339869,0.00221074,0.00393189,-0.00576745,1.33413,0.00563324,0.0335232,1959,1051,60.4906,-6.85235
742,-27,60.2943,6.71558,-0.00594281,0.0047946,0.00159134,0.00502548,-0.00617369,1.42672,0.00647716,0.0214748,1966,1051,60.2943,-6.71553
749,-27,60.347,6.50244,-0.00675892,0.0061374,0.000762164,0.00618229,-0.00680381,1.51197,0.00750039,0.0173369,1973,1051,60.347,-6.5025
756,-27,60.3014,6.30579,-0.00725583,0.00860804,-0.000622126,0.0086324,-0.00728019,-1.53166,0.00919819,0.0165232,1980,1051,60.3013,-6.30574
763,-27,60.2147,6.10522,-0.00713802,0.0124383,-0.00309412,0.0129156,-0.00761541,-1.41771,0.0119846,0.0157558,1987,1051,60.2147,-6.10523
770,-27,60.126,5.91016,-0.00609021,0.017176,-0.00660397,0.0189198,-0.00783401,-1.31264,0.0158822,0.0168357,1994,1051,60.126,-5.9102
777,-27,60.0352,5.81128,-0.00342562,0.0234016,-0.0118651,0.0278963,-0.00792024,-1.20869,0.0217243,0.0203556,2001,1051,60.0351,-5.81129
784,-27,59.9661,5.74731,0.000248993,0.0304026,-0.0183946,0.0391097,-0.00845805,-1.1287,0.0293022,0.0296968,2008,1051,59.9661,-5.74732
791,-27,59.9568,5.57532,0.00535694,0.0387511,-0.0270161,0.0538135,-0.00970546,-1.06219,0.0395102,0.0454036,2015,1051,59.9567,-5.57534
798,-27,60.4487,5.2915,0.0126392,0.0491056,-0.0382935,0.0732852,-0.0115403,-1.00759,0.053123,0.0483712,2022,1051,60.4486,-5.29156
805,-27,60.7703,5.18774,0,0,0,0,0,0,0,-1,2029,1051,60.7702,-5.18776
812,-27,60.6221,2.54688,0,0,0,0,0,0,0,-1,2036,1051,60.622,-2.5469
-700,-34,-46.5251,-4.6333,0,0,0,0,0,0,0,-1,524,1058,-46.5251,4.63328
-693,-34,-47.3984,-3.05078,0,0,0,0,0,0,0,-1,531,1058,-47.3985,3.05079
-686,-34,-47.0893,-2.14148,0.0700488,0.12538,0.0568748,0.160961,0.0344678,1.01176,0.0978627,0.0495454,538,1058,-47.0893,2.14149
-679,-34,-46.8058,-1.20667,0.0615571,0.105638,0.0494262,0.137715,0.0294799,0.99513,0.0837318,0.0454957,545,1058,-46.8058,1.20673
-672,-34,-46.528,0.0526123,0.0513236,0.0886737,0.041583,0.115583,0.0244146,0.996452,0.0703437,0.044708,552,1058,-46.528,-0.0525808
-665,-34,-46.0549,1.1709,0.0408589,0.0737427,0.0338633,0.0949446,0.019657,1.0114,0.0578679,0.0429091,559,1058,-46.0549,-1.17096
-658,-34,-45.6883,2.06274,0.0310099,0.0603253,0.0265669,0.0760098,0.0153254,1.03748,0.0464159,0.0407615,566,1058,-45.6883,-2.06275
-651,-34,-45.3831,2.78564,0.0223594,0.0481483,0.0199207,0.0589836,0.0115241,1.07263,0.0360995,0.0296379,573,1058,-45.3831,-2.78562
-644,-34,-45.6069,2.93835,0.0151165,0.0369509,0.0138591,0.0436762,0.00839108,1.119,0.0267626,0.0158902,580,1058,-45.6069,-2.93831
-637,-34,-45.6484,3.18005,0.00876553,0.0269847,0.00806833,0.030044,0.00570619,1.20837,0.0184242,0.0177292,587,1058,-45.6484,-3.18
-630,-34,-45.6793,3.56165,0.00402697,0.0177804,0.00376561,0.0187439,0.00306346,1.3203,0.0116103,0.0191861,594,1058,-45.6793,-3.56163
-623,-34,-45.6741,3.84265,0.00149317,0.0112247,0.000486984,0.011249,0.00146886,1.52092,0.00706084,0.0143684,601,1058,-45.6741,-3.84266
-616,-34,-45.6847,4.14063,0.000839684,0.00650114,-0.00155197,0.00689867,0.000442159,-1.32004,0.00445904,0.0217652,608,1058,-45.6847,-4.14068
-609,-34,-45.6766,4.42175,0.000807861,0.00338805,-0.00278425,0.00516657,-0.000970658,-1.00235,0.00380938,0.0211875,615,1058,-45.6766,-4.42176
-602,-34,-45.6614,4.64246,0.000652635,0.00115204,-0.00344157,0.00435295,-0.00254828,-0.821612,0.00402958,0.0166984,622,1058,-45.6615,-4.6424
-595,-34,-45.7676,4.83118,0.000491087,0.000148726,-0.00349278,0.00381688,-0.00317706,-0.760913,0.00404358,0.0186818,629,1058,-45.7676,-4.83121
-588,-34,-45.9221,0.829712,0,0,0,0,0,0,0,-1,636,1058,-45.9221,-0.829772
-581,-34,-45.9453,0.83606,0.00107423,-0.000900588,-0.00233026,0.00261764,-0.00244401,-0.585,0.00292292,0.0234241,643,1058,-45.9453,-0.836018
-574,-34,-45.8531,0.752319,0.00112573,-0.000976529,-0.00151361,0.0019174,-0.00176819,-0.481901,0.00212846,0.0364271,650,1058,-45.8532,-0.752356
-567,-34,-45.7645,0.634766,0.0008789,-0.000795966,-0.000402862,0.000970763,-0.000887829,-0.224194,0.00107342,0.0428917,657,1058,-45.7645,-0.63479
-560,-34,-45.9227,0.765015,0.000348402,-0.000464203,0.00103572,0.00105466,-0.00117047,0.598477,0.00128526,0.0423267,664,1058,-45.9227,-0.764963
-553,-34,-45.92,0.630981,-0.00037687,-0.000219488,0.00279614,0.00249907,-0.00309543,0.799466,0.0032361,0.043592,671,1058,-45.92,-0.631004
-546,-34,-45.8961,0.790161,-0.0011479,-0.000438061,0.00482621,0.00404626,-0.00563222,0.822102,0.00561283,0.0473726,678,1058,-45.8961,-0.790139
-539,-34,-45.9003,1.0802,-0.00204895,-0.00161309,0.006434,0.00460667,-0.00826871,0.802327,0.00753316,0.0450829,685,1058,-45.9003,-1.08023
-532,-34,-45.866,1.17273,-0.00280034,-0.00258654,0.00812128,0.00542854,-0.0108154,0.791979,0.00954881,0.0414768,692,1058,-45.866,-1.17269
-525,-34,0,0,0,0,0,0,0,0,0,-1,699,1058,0,0
-518,-34,0,0,0,0,0,0,0,0,0,-1,706,1058,0,0
-511,-34,0,0,0,0,0,0,0,0,0,-1,713,1058,0,0
-504,-34,0,0,0,0,0,0,0,0,0,-1,720,1058,0,0
-497,-34,0,0,0,0,0,0,0,0,0,-1,727,1058,0,0
-490,-34,0,0,0,0,0,0,0,0,0,-1,734,1058,0,0
-483,-34,0,0,0,0,0,0,0,0,0,-1,741,1058,0,0
-476,-34,0,0,0,0,0,0,0,0,0,-1,748,1058,0,0
-469,-34,0,0,0,0,0,0,0,0,0,-1,755,1058,0,0
-462,-34,0,0,0,0,0,0,0,0,0,-1,762,1058,0,0
-455,-34,0,0,0,0,0,0,0,0,0,-1,769,1058,0,0
-448,-34,0,0,0,0,0,0,0,0,0,-1,776,1058,0,0
-441,-34,0,0,0,0,0,0,0,0,0,-1,783,1058,0,0
-434,-34,0,0,0,0,0,0,0,0,0,-1,790,1058,0,0
-427,-34,0,0,0,0,0,0,0,0,0,-1,797,1058,0,0
-420,-34,0,0,0,0,0,0,0,0,0,-1,804,1058,0,0
-413,-34,0,0,0,0,0,0,0,0,0,-1,811,1058,0,0
-406,-34,0,0,0,0,0,0,0,0,0,-1,818,1058,0,0
-399,-34,0,0,0,0,0,0,0,0,0,-1,825,1058,0,0
-392,-34,0,0,0,0,0,0,0,0,0,-1,832,1058,0,0
-385,-34,0,0,0,0,0,0,0,0,0,-1,839,1058,0,0
-378,-34,0,0,0,0,0,0,0,0,0,-1,846,1058,0,0
-371,-34,0,0,0,0,0,0,0,0,0,-1,853,1058,0,0
-364,-34,0,0,0,0,0,0,0,0,0,-1,860,1058,0,0
-357,-34,0,0,0,0,0,0,0,0,0,-1,867,1058,0,0
-350,-34,0,0,0,0,0,0,0,0,0,-1,874,1058,0,0
-343,-34,0,0,0,0,0,0,0,0,0,-1,881,1058,0,0
-336,-34,0,0,0,0,0,0,0,0,0,-1,888,1058,0,0
-329,-34,0,0,0,0,0,0,0,0,0,-1,895,1058,0,0
-322,-34,0,0,0,0,0,0,0,0,0,-1,902,1058,0,0
-315,-34,0,0,0,0,0,0,0,0,0,-1,909,1058,0,0
-308,-34,0,0,0,0,0,0,0,0,0,-1,916,1058,0,0
-301,-34,0,0,0,0,0,0,0,0,0,-1,923,1058,0,0
-294,-34,0,0,0,0,0,0,0,0,0,-1,930,1058,0,0
-287,-34,0,0,0,0,0,0,0,0,0,-1,937,1058,0,0
-280,-34,0,0,0,0,0,0,0,0,0,-1,944,1058,0,0
-273,-34,0,0,0,0,0,0,0,0,0,-1,951,1058,0,0
-266,-34,0,0,0,0,0,0,0,0,0,-1,958,1058,0,0
-259,-34,0,0,0,0,0,0,0,0,0,-1,965,1058,0,0
-252,-34,0,0,0,0,0,0,0,0,0,-1,972,1058,0,0
-245,-34,0,0,0,0,0,0,0,0,0,-1,979,1058,0,0
-238,-34,0,0,0,0,0,0,0,0,0,-1,986,1058,0,0
-231,-34,0,0,0,0,0,0,0,0,0,-1,993,1058,0,0
-224,-34,0,0,0,0,0,0,0,0,0,-1,1000,1058,0,0
-217,-34,0,0,0,0,0,0,0,0,0,-1,1007,1058,0,0
-210,-34,0,0,0,0,0,0,0,0,0,-1,1014,1058,0,0
-203,-34,0,0,0,0,0,0,0,0,0,-1,1021,1058,0,0
-196,-34,0,0,0,0,0,0,0,0,0,-1,1028,1058,0,0
-189,-34,0,0,0,0,0,0,0,0,0,-1,1035,1058,0,0
-182,-34,0,0,0,0,0,0,0,0,0,-1,1042,1058,0,0
-175,-34,0,0,0,0,0,0,0,0,0,-1,1049,1058,0,0
-168,-34,0,0,0,0,0,0,0,0,0,-1,1056,1058,0,0
-161,-34,0,0,0,0,0,0,0,0,0,-1,1063,1058,0,0
-154,-34,0,0,0,0,0,0,0,0,0,-1,1070,1058,0,0
-147,-34,0,0,0,0,0,0,0,0,0,-1,1077,1058,0,0
-140,-34,0,0,0,0,0,0,0,0,0,-1,1084,1058,0,0
-133,-34,0,0,0,0,0,0,0,0,0,-1,1091,1058,0,0
-126,-34,0,0,0,0,0,0,0,0,0,-1,1098,1058,0,0
-119,-34,0,0,0,0,0,0,0,0,0,-1,1105,1058,0,0
-112,-34,0,0,0,0,0,0,0,0,0,-1,1112,1058,0,0
-105,-34,0,0,0,0,0,0,0,0,0,-1,1119,1058,0,0
-98,-34,0,0,0,0,0,0,0,0,0,-1,1126,1058,0,0
-91,-34,0,0,0,0,0,0,0,0,0,-1,1133,1058,0,0
-84,-34,0,0,0,0,0,0,0,0,0,-1,1140,1058,0,0
-77,-34,0,0,0,0,0,0,0,0,0,-1,1147,1058,0,0
-70,-34,0,0,0,0,0,0,0,0,0,-1,1154,1058,0,0
-63,-34,0,0,0,0,0,0,0,0,0,-1,1161,1058,0,0
-56,-34,0,0,0,0,0,0,0,0,0,-1,1168,1058,0,0
-49,-34,0,0,0,0,0,0,0,0,0,-1,1175,1058,0,0
-42,-34,0,0,0,0,0,0,0,0,0,-1,1182,1058,0,0
-35,-34,0,0,0,0,0,0,0,0,0,-1,1189,1058,0,0
-28,-34,0,0,0,0,0,0,0,0,0,-1,1196,1058,0,0
-21,-34,0,0,0,0,0,0,0,0,0,-1,1203,1058,0,0
-14,-34,0,0,0,0,0,0,0,0,0,-1,1210,1058,0,0
-7,-34,0,0,0,0,0,0,0,0,0,-1,1217,1058,0,0
0,-34,0,0,0,0,0,0,0,0,0,-1,1224,1058,0,0
7,-34,0,0,0,0,0,0,0,0,0,-1,1231,1058,0,0
14,-34,0,0,0,0,0,0,0,0,0,-1,1238,1058,0,0
21,-34,0,0,0,0,0,0,0,0,0,-1,1245,1058,0,0
28,-34,0,0,0,0,0,0,0,0,0,-1,1252,1058,0,0
35,-34,0,0,0,0,0,0,0,0,0,-1,1259,1058,0,0
42,-34,0,0,0,0,0,0,0,0,0,-1,1266,1058,0,0
49,-34,0,0,0,0,0,0,0,0,0,-1,1273,1058,0,0
56,-34,0,0,0,0,0,0,0,0,0,-1,1280,1058,0,0
63,-34,0,0,0,0,0,0,0,0,0,-1,1287,1058,0,0
70,-34,0,0,0,0,0,0,0,0,0,-1,1294,1058,0,0
77,-34,0,0,0,0,0,0,0,0,0,-1,1301,1058,0,0
84,-34,0,0,0,0,0,0,0,0,0,-1,1308,1058,0,0
91,-34,0,0,0,0,0,0,0,0,0,-1,1315,1058,0,0
98,-34,0,0,0,0,0,0,0,0,0,-1,1322,1058,0,0
105,-34,0,0,0,0,0,0,0,0,0,-1,1329,1058,0,0
112,-34,0,0,0,0,0,0,0,0,0,-1,1336,1058,0,0
119,-34,0,0,0,0,0,0,0,0,0,-1,1343,1058,0,0
126,-34,0,0,0,0,0,0,0,0,0,-1,1350,1058,0,0
133,-34,0,0,0,0,0,0,0,0,0,-1,1357,1058,0,0
140,-34,0,0,0,0,0,0,0,0,0,-1,1364,1058,0,0
147,-34,0,0,0,0,0,0,0,0,0,-1,1371,1058,0,0
154,-34,0,0,0,0,0,0,0,0,0,-1,1378,1058,0,0
161,-34,0,0,0,0,0,0,0,0,0,-1,1385,1058,0,0
168,-34,0,0,0,0,0,0,0,0,0,-1,1392,1058,0,0
175,-34,0,0,0,0,0,0,0,0,0,-1,1399,1058,0,0
182,-34,0,0,0,0,0,0,0,0,0,-1,1406,1058,0,0
189,-34,0,0,0,0,0,0,0,0,0,-1,1413,1058,0,0
196,-34,0,0,0,0,0,0,0,0,0,-1,1420,1058,0,0
203,-34,0,0,0,0,0,0,0,0,0,-1,1427,1058,0,0
210,-34,0,0,0,0,0,0,0,0,0,-1,1434,1058,0,0
217,-34,0,0,0,0,0,0,0,0,0,-1,1441,1058,0,0
224,-34,0,0,0,0,0,0,0,0,0,-1,1448,1058,0,0
231,-34,0,0,0,0,0,0,0,0,0,-1,1455,1058,0,0
238,-34,0,0,0,0,0,0,0,0,0,-1,1462,1058,0,0
245,-34,0,0,0,0,0,0,0,0,0,-1,1469,1058,0,0
252,-34,0,0,0,0,0,0,0,0,0,-1,1476,1058,0,0
259,-34,0,0,0,0,0,0,0,0,0,-1,1483,1058,0,0
266,-34,0,0,0,0,0,0,0,0,0,-1,1490,1058,0,0
273,-34,0,0,0,0,0,0,0,0,0,-1,1497,1058,0,0
280,-34,0,0,0,0,0,0,0,0,0,-1,1504,1058,0,0
287,-34,0,0,0,0,0,0,0,0,0,-1,1511,1058,0,0
294,-34,0,0,0,0,0,0,0,0,0,-1,1518,1058,0,0
301,-34,0,0,0,0,0,0,0,0,0,-1,1525,1058,0,0
308,-34,0,0,0,0,0,0,0,0,0,-1,1532,1058,0,0
315,-34,0,0,0,0,0,0,0,0,0,-1,1539,1058,0,0
322,-34,0,0,0,0,0,0,0,0,0,-1,1546,1058,0,0
329,-34,0,0,0,0,0,0,0,0,0,-1,1553,1058,0,0
336,-34,0,0,0,0,0,0,0,0,0,-1,1560,1058,0,0
343,-34,0,0,0,0,0,0,0,0,0,-1,1567,1058,0,0
350,-34,0,0,0,0,0,0,0,0,0,-1,1574,1058,0,0
357,-34,0,0,0,0,0,0,0,0,0,-1,1581,1058,0,0
364,-34,0,0,0,0,0,0,0,0,0,-1,1588,1058,0,0
371,-34,0,0,0,0,0,0,0,0,0,-1,1595,1058,0,0
378,-34,0,0,0,0,0,0,0,0,0,-1,1602,1058,0,0
385,-34,0,0,0,0,0,0,0,0,0,-1,1609,1058,0,0
392,-34,0,0,0,0,0,0,0,0,0,-1,1616,1058,0,0
399,-34,0,0,0,0,0,0,0,0,0,-1,1623,1058,0,0
406,-34,0,0,0,0,0,0,0,0,0,-1,1630,1058,0,0
413,-34,0,0,0,0,0,0,0,0,0,-1,1637,1058,0,0
420,-34,0,0,0,0,0,0,0,0,0,-1,1644,1058,0,0
427,-34,0,0,0,0,0,0,0,0,0,-1,1651,1058,0,0
434,-34,0,0,0,0,0,0,0,0,0,-1,1658,1058,0,0
441,-34,0,0,0,0,0,0,0,0,0,-1,1665,1058,0,0
448,-34,0,0,0,0,0,0,0,0,0,-1,1672,1058,0,0
455,-34,0,0,0,0,0,0,0,0,0,-1,1679,1058,0,0
462,-34,0,0,0,0,0,0,0,0,0,-1,1686,1058,0,0
469,-34,0,0,0,0,0,0,0,0,0,-1,1693,1058,0,0
476,-34,0,0,0,0,0,0,0,0,0,-1,1700,1058,0,0
483,-34,0,0,0,0,0,0,0,0,0,-1,1707,1058,0,0
490,-34,0,0,0,0,0,0,0,0,0,-1,1714,1058,0,0
497,-34,0,0,0,0,0,0,0,0,0,-1,1721,1058,0,0
504,-34,0,0,0,0,0,0,0,0,0,-1,1728,1058,0,0
511,-34,0,0,0,0,0,0,0,0,0,-1,1735,1058,0,0
518,-34,0,0,0,0,0,0,0,0,0,-1,1742,1058,0,0
525,-34,0,0,0,0,0,0,0,0,0,-1,1749,1058,0,0
532,-34,0,0,0,0,0,0,0,0,0,-1,1756,1058,0,0
539,-34,0,0,0,0,0,0,0,0,0,-1,1763,1058,0,0
546,-34,0,0,0,0,0,0,0,0,0,-1,1770,1058,0,0
553,-34,0,0,0,0,0,0,0,0,0,-1,1777,1058,0,0
560,-34,0,0,0,0,0,0,0,0,0,-1,1784,1058,0,0
567,-34,0,0,0,0,0,0,0,0,0,-1,1791,1058,0,0
574,-34,0,0,0,0,0,0,0,0,0,-1,1798,1058,0,0
581,-34,0,0,0,0,0,0,0,0,0,-1,1805,1058,0,0
588,-34,0,0,0,0,0,0,0,0,0,-1,1812,1058,0,0
595,-34,0,0,0,0,0,0,0,0,0,-1,1819,1058,0,0
602,-34,0,0,0,0,0,0,0,0,0,-1,1826,1058,0,0
609,-34,0,0,0,0,0,0,0,0,0,-1,1833,1058,0,0
616,-34,0,0,0,0,0,0,0,0,0,-1,1840,1058,0,0
623,-34,0,0,0,0,0,0,0,0,0,-1,1847,1058,0,0
630,-34,0,0,0,0,0,0,0,0,0,-1,1854,1058,0,0
637,-34,0,0,0,0,0,0,0,0,0,-1,1861,1058,0,0
644,-34,0,0,0,0,0,0,0,0,0,-1,1868,1058,0,0
651,-34,60.87,2.84729,-0.0054007,-0.000100813,0.000797894,1.67033e-05,-0.00551821,1.42456,0.00368439,0.0389823,1875,1058,60.87,-2.84725
658,-34,60.8464,2.92163,-0.00458639,8.03503e-05,0.000154679,8.54717e-05,-0.00459151,1.5377,0.00308989,0.0430928,1882,1058,60.8464,-2.92157
665,-34,60.6549,2.75183,-0.00369588,0.00028168,-7.77683e-05,0.0002832,-0.0036974,-1.55125,0.00256455,0.0404587,1889,1058,60.6549,-2.75183
672,-34,60.6805,2.60632,-0.00278085,0.000453256,2.26813e-05,0.000453416,-0.00278101,1.56378,0.00202216,0.0353978,1896,1058,60.6806,-2.60629
679,-34,60.9932,2.5155,-0.00183017,0.000628315,0.00029816,0.000663959,-0.00186581,1.45182,0.00151451,0.0383445,1903,1058,60.9932,-2.51552
686,-34,60.8627,2.61731,-0.00135079,0.00047432,0.000756755,0.000747276,-0.00162374,1.22463,0.00139974,0.0460502,1910,1058,60.8627,-2.61729
693,-34,60.7333,2.58484,-0.00113687,0.000161907,0.00126172,0.000931551,-0.00190651,1.02306,0.00167047,0.0446496,1917,1058,60.7333,-2.58486
700,-34,60.7104,2.61292,-0.00104211,-0.00011939,0.00174455,0.00122378,-0.00238528,0.914667,0.00211935,0.0379249,1924,1058,60.7104,-2.6129
707,-34,60.7119,2.66516,-0.00139973,-7.90916e-05,0.00205029,0.00141459,-0.00289342,0.941184,0.00253561,0.0245666,1931,1058,60.7119,-2.66517
714,-34,60.7521,2.78455,-0.00198744,0.000227632,0.00231556,0.00168689,-0.0034467,1.00847,0.00302137,0.0200928,1938,1058,60.752,-2.78455
721,-34,60.7634,2.95349,0,0,0,0,0,0,0,-1,1945,1058,60.7634,-2.95351
728,-34,60.3014,7.08594,0,0,0,0,0,0,0,-1,1952,1058,60.3013,-7.08597
735,-34,60.1118,6.94104,-0.00468344,0.00289874,0.00270227,0.00376325,-0.00554795,1.26117,0.00540864,0.0228229,1959,1058,60.1119,-6.94105
742,-34,60.0461,6.72607,-0.00538555,0.00419932,0.0022976,0.00472162,-0.00590785,1.34727,0.00614965,0.0180423,1966,1058,60.0462,-6.72607
749,-34,60.0812,6.50989,-0.00609594,0.00546398,0.00170791,0.00571103,-0.006343,1.42714,0.00696259,0.0164404,1973,1058,60.0812,-6.50988
756,-34,60.0801,6.26172,-0.00649006,0.00773019,0.00055752,0.00775201,-0.00651189,1.53167,0.00824563,0.0127694,1980,1058,60.08,-6.26178
763,-34,59.9841,6.04016,-0.0063296,0.0112606,-0.00152595,0.011392,-0.00646099,-1.4849,0.0104377,0.0129557,1987,1058,59.9841,-6.04012
770,-34,59.8623,5.81897,-0.00518306,0.0156207,-0.00449746,0.0165513,-0.00611371,-1.36675,0.0135403,0.0178506,1994,1058,59.8622,-5.81898
777,-34,59.7383,5.68787,-0.00243374,0.0211405,-0.00885633,0.0240969,-0.00539012,-1.24861,0.0181304,0.0217971,2001,1058,59.7382,-5.68788
784,-34,59.6284,5.51135,0.00145352,0.0272876,-0.0143641,0.0336883,-0.00494724,-1.1516,0.0242766,0.039673,2008,1058,59.6284,-5.5113
791,-34,59.5786,5.19519,0.00707994,0.0345856,-0.0218817,0.0466775,-0.00501196,-1.06596,0.0329164,0.0489155,2015,1058,59.5787,-5.19517
798,-34,59.822,4.91443,0,0,0,0,0,0,0,-1,2022,1058,59.822,-4.91438
805,-34,60.3215,2.89575,0.0273632,0.055531,-0.0457242,0.0892912,-0.00639708,-0.934797,0.0617704,0.0474387,2029,1058,60.3216,-2.89577
812,-34,60.5076,2.38489,0,0,0,0,0,0,0,-1,2036,1058,60.5076,-2.38484
-700,-41,-45.682,-5.95056,0,0,0,0,0,0,0,-1,524,1065,-45.682,5.95054
-693,-41,-45.6212,-4.98145,0.0593626,0.137999,0.061875,0.171991,0.0253702,1.06844,0.107209,0.0465707,531,1065,-45.6212,4.98144
-686,-41,-45.7451,-3.71045,0.0575181,0.121539,0.0553591,0.153476,0.0255807,1.04753,0.094946,0.0459605,538,1065,-45.7451,3.7105
-679,-41,-46.0343,-2.25195,0.0511739,0.105241,0.0476336,0.132977,0.0234372,1.0435,0.0819639,0.045836,545,1065,-46.0343,2.25195
-672,-41,-45.9431,-0.757568,0.0429475,0.0896074,0.0397871,0.1124,0.0201548,1.05057,0.0692006,0.0448429,552,1065,-45.9431,0.757524
-665,-41,-45.5644,0.389648,0.0342635,0.074836,0.0322252,0.0926286,0.016471,1.06632,0.05706,0.0424908,559,1065,-45.5644,-0.389686
-658,-41,-45.2133,1.47815,0.0260131,0.0610342,0.0251796,0.0741933,0.0128539,1.08922,0.0457831,0.0406409,566,1065,-45.2132,-1.47814
-651,-41,-45.0204,2.49487,0.0187859,0.048347,0.0188322,0.0575063,0.0096266,1.11812,0.0355656,0.0327978,573,1065,-45.0204,-2.49485
-644,-41,-45.2814,2.85144,0.0128388,0.036831,0.0131037,0.0426004,0.00706941,1.15605,0.0263617,0.0174786,580,1065,-45.2814,-2.8515
-637,-41,-45.3421,3.13135,0.00767803,0.0263595,0.00769203,0.029119,0.00491849,1.22635,0.0179986,0.0190235,587,1065,-45.3421,-3.13135
-630,-41,-45.3497,3.46814,0.00385887,0.0170393,0.00355556,0.0179373,0.00296089,1.32341,0.0111036,0.0160848,594,1065,-45.3497,-3.46817
-623,-41,-45.3343,3.79016,0.00183445,0.0106438,0.000441806,0.0106659,0.00181235,1.52081,0.00659006,0.0123953,601,1065,-45.3343,-3.79016
-616,-41,-45.3372,4.15881,0.00119698,0.0061167,-0.00159313,0.00658754,0.000726148,-1.28344,0.00417077,0.0173095,608,1065,-45.3372,-4.15878
-609,-41,-45.3458,4.45923,0.00113046,0.00301344,-0.00274175,0.00497084,-0.000826946,-0.950785,0.00362116,0.0235812,615,1065,-45.3458,-4.45919
-602,-41,-45.3697,4.69312,0.000932193,0.000717267,-0.00334799,0.00417444,-0.00252498,-0.769355,0.0039068,0.0145617,622,1065,-45.3697,-4.69314
-595,-41,-45.4967,4.89941,0.000709157,-0.000241056,-0.00337927,0.00364656,-0.00317846,-0.715559,0.00394351,0.0249144,629,1065,-45.4967,-4.89947
-588,-41,-45.7817,2.59937,0,0,0,0,0,0,0,-1,636,1065,-45.7817,-2.59935
-581,-41,-45.9203,0.655396,0.00126874,-0.00119124,-0.00201528,0.00239972,-0.00232223,-0.511407,0.00272634,0.0347089,643,1065,-45.9204,-0.655345
-574,-41,-45.843,0.574463,0.0013308,-0.00126864,-0.0011039,0.00173632,-0.00167417,-0.352054,0.00196916,0.0404463,650,1065,-45.843,-0.574498
-567,-41,-45.7546,0.620728,0.00116985,-0.00110532,0.000107064,0.00117488,-0.00111035,0.0469193,0.00131955,0.0435047,657,1065,-45.7546,-0.620675
-560,-41,-45.7392,0.731567,0.000792506,-0.000782297,0.00165603,0.0018388,-0.00182859,0.56348,0.00211738,0.0403258,664,1065,-45.7392,-0.731516
-553,-41,-45.804,0.631226,0.000364101,-0.000498372,0.00355071,0.00350967,-0.00364394,0.724969,0.00413038,0.0411102,671,1065,-45.804,-0.631275
-546,-41,-45.8698,0.692627,9.31243e-05,-0.00058655,0.00575968,0.00552299,-0.00601641,0.755931,0.00666431,0.042672,678,1065,-45.8698,-0.692596
-539,-41,-45.9211,0.999268,-1.09182e-05,-0.00156956,0.00761553,0.00686506,-0.00844554,0.734409,0.00885526,0.0441404,685,1065,-45.9211,-0.99926
-532,-41,-45.8798,1.21326,9.33133e-05,-0.00226399,0.00954896,0.00853609,-0.0107068,0.723993,0.0111334,0.0413545,692,1065,-45.8798,-1.21331
-525,-41,0,0,0,0,0,0,0,0,0,-1,699,1065,0,0
-518,-41,0,0,0,0,0,0,0,0,0,-1,706,1065,0,0
-511,-41,0,0,0,0,0,0,0,0,0,-1,713,1065,0,0
-504,-41,0,0,0,0,0,0,0,0,0,-1,720,1065,0,0
-497,-41,0,0,0,0,0,0,0,0,0,-1,727,1065,0,0
-490,-41,0,0,0,0,0,0,0,0,0,-1,734,1065,0,0
-483,-41,0,0,0,0,0,0,0,0,0,-1,741,1065,0,0
-476,-41,0,0,0,0,0,0,0,0,0,-1,748,1065,0,0
-469,-41,0,0,0,0,0,0,0,0,0,-1,755,1065,0,0
-462,-41,0,0,0,0,0,0,0,0,0,-1,762,1065,0,0
-455,-41,0,0,0,0,0,0,0,0,0,-1,769,1065,0,0
-448,-41,0,0,0,0,0,0,0,0,0,-1,776,1065,0,0
-441,-41,0,0,0,0,0,0,0,0,0,-1,783,1065,0,0
-434,-41,0,0,0,0,0,0,0,0,0,-1,790,1065,0,0
-427,-41,0,0,0,0,0,0,0,0,0,-1,797,1065,0,0
-420,-41,0,0,0,0,0,0,0,0,0,-1,804,1065,0,0
-413,-41,0,0,0,0,0,0,0,0,0,-1,811,1065,0,0
-406,-41,0,0,0,0,0,0,0,0,0,-1,818,1065,0,0
-399,-41,0,0,0,0,0,0,0,0,0,-1,825,1065,0,0
-392,-41,0,0,0,0,0,0,0,0,0,-1,832,1065,0,0
-385,-41,0,0,0,0,0,0,0,0,0,-1,839,1065,0,0
-378,-41,0,0,0,0,0,0,0,0,0,-1,846,1065,0,0
-371,-41,0,0,0,0,0,0,0,0,0,-1,853,1065,0,0
-364,-41,0,0,0,0,0,0,0,0,0,-1,860,1065,0,0
-357,-41,0,0,0,0,0,0,0,0,0,-1,867,1065,0,0
-350,-41,0,0,0,0,0,0,0,0,0,-1,874,1065,0,0
-343,-41,0,0,0,0,0,0,0,0,0,-1,881,1065,0,0
-336,-41,0,0,0,0,0,0,0,0,0,-1,888,1065,0,0
-329,-41,0,0,0,0,0,0,0,0,0,-1,895,1065,0,0
-322,-41,0,0,0,0,0,0,0,0,0,-1,902,1065,0,0
-315,-41,0,0,0,0,0,0,0,0,0,-1,909,1065,0,0
-308,-41,0,0,0,0,0,0,0,0,0,-1,916,1065,0,0
-301,-41,0,0,0,0,0,0,0,0,0,-1,923,1065,0,0
-294,-41,0,0,0,0,0,0,0,0,0,-1,930,1065,0,0
-287,-41,0,0,0,0,0,0,0,0,0,-1,937,1065,0,0
-280,-41,0,0,0,0,0,0,0,0,0,-1,944,1065,0,0
-273,-41,0,0,0,0,0,0,0,0,0,-1,951,1065,0,0
-266,-41,0,0,0,0,0,0,0,0,0,-1,958,1065,0,0
-259,-41,0,0,0,0,0,0,0,0,0,-1,965,1065,0,0
-252,-41,0,0,0,0,0,0,0,0,0,-1,972,1065,0,0
-245,-41,0,0,0,0,0,0,0,0,0,-1,979,1065,0,0
-238,-41,0,0,0,0,0,0,0,0,0,-1,986,1065,0,0
-231,-41,0,0,0,0,0,0,0,0,0,-1,993,1065,0,0
-224,-41,0,0,0,0,0,0,0,0,0,-1,1000,1065,0,0
-217,-41,0,0,0,0,0,0,0,0,0,-1,1007,1065,0,0
-210,-41,0,0,0,0,0,0,0,0,0,-1,1014,1065,0,0
-203,-41,0,0,0,0,0,0,0,0,0,-1,1021,1065,0,0
-196,-41,0,0,0,0,0,0,0,0,0,-1,1028,1065,0,0
-189,-41,0,0,0,0,0,0,0,0,0,-1,1035,1065,0,0
-182,-41,0,0,0,0,0,0,0,0,0,-1,1042,1065,0,0
-175,-41,0,0,0,0,0,0,0,0,0,-1,1049,1065,0,0
-168,-41,0,0,0,0,0,0,0,0,0,-1,1056,1065,0,0
-161,-41,0,0,0,0,0,0,0,0,0,-1,1063,1065,0,0
-154,-41,0,0,0,0,0,0,0,0,0,-1,1070,1065,0,0
-147,-41,0,0,0,0,0,0,0,0,0,-1,1077,1065,0,0
-140,-41,0,0,0,0,0,0,0,0,0,-1,1084,1065,0,0
-133,-41,0,0,0,0,0,0,0,0,0,-1,1091,1065,0,0
-126,-41,0,0,0,0,0,0,0,0,0,-1,1098,1065,0,0
-119,-41,0,0,0,0,0,0,0,0,0,-1,1105,1065,0,0
-112,-41,0,0,0,0,0,0,0,0,0,-1,1112,1065,0,0
-105,-41,0,0,0,0,0,0,0,0,0,-1,1119,1065,0,0
-98,-41,0,0,0,0,0,0,0,0,0,-1,1126,1065,0,0
-91,-41,0,0,0,0,0,0,0,0,0,-1,1133,1065,0,0
-84,-41,0,0,0,0,0,0,0,0,0,-1,1140,1065,0,0
-77,-41,0,0,0,0,0,0,0,0,0,-1,1147,1065,0,0
-70,-41,0,0,0,0,0,0,0,0,0,-1,1154,1065,0,0
-63,-41,0,0,0,0,0,0,0,0,0,-1,1161,1065,0,0
-56,-41,0,0,0,0,0,0,0,0,0,-1,1168,1065,0,0
-49,-41,0,0,0,0,0,0,0,0,0,-1,1175,1065,0,0
-42,-41,0,0,0,0,0,0,0,0,0,-1,1182,1065,0,0
-35,-41,0,0,0,0,0,0,0,0,0,-1,1189,1065,0,0
-28,-41,0,0,0,0,0,0,0,0,0,-1,1196,1065,0,0
-21,-41,0,0,0,0,0,0,0,0,0,-1,1203,1065,0,0
-14,-41,0,0,0,0,0,0,0,0,0,-1,1210,1065,0,0
-7,-41,0,0,0,0,0,0,0,0,0,-1,1217,1065,0,0
0,-41,0,0,0,0,0,0,0,0,0,-1,1224,1065,0,0
7,-41,0,0,0,0,0,0,0,0,0,-1,1231,1065,0,0
14,-41,0,0,0,0,0,0,0,0,0,-1,1238,1065,0,0
21,-41,0,0,0,0,0,0,0,0,0,-1,1245,1065,0,0
28,-41,0,0,0,0,0,0,0,0,0,-1,1252,1065,0,0
35,-41,0,0,0,0,0,0,0,0,0,-1,1259,1065,0,0
42,-41,0,0,0,0,0,0,0,0,0,-1,1266,1065,0,0
49,-41,0,0,0,0,0,0,0,0,0,-1,1273,1065,0,0
56,-41,0,0,0,0,0,0,0,0,0,-1,1280,1065,0,0
63,-41,0,0,0,0,0,0,0,0,0,-1,1287,1065,0,0
70,-41,0,0,0,0,0,0,0,0,0,-1,1294,1065,0,0
77,-41,0,0,0,0,0,0,0,0,0,-1,1301,1065,0,0
84,-41,0,0,0,0,0,0,0,0,0,-1,1308,1065,0,0
91,-41,0,0,0,0,0,0,0,0,0,-1,1315,1065,0,0
98,-41,0,0,0,0,0,0,0,0,0,-1,1322,1065,0,0
105,-41,0,0,0,0,0,0,0,0,0,-1,1329,1065,0,0
112,-41,0,0,0,0,0,0,0,0,0,-1,1336,1065,0,0
119,-41,0,0,0,0,0,0,0,0,0,-1,1343,1065,0,0
126,-41,0,0,0,0,0,0,0,0,0,-1,1350,1065,0,0
133,-41,0,0,0,0,0,0,0,0,0,-1,1357,1065,0,0
140,-41,0,0,0,0,0,0,0,0,0,-1,1364,1065,0,0
147,-41,0,0,0,0,0,0,0,0,0,-1,1371,1065,0,0
154,-41,0,0,0,0,0,0,0,0,0,-1,1378,1065,0,0
161,-41,0,0,0,0,0,0,0,0,0,-1,1385,1065,0,0
168,-41,0,0,0,0,0,0,0,0,0,-1,1392,1065,0,0
175,-41,0,0,0,0,0,0,0,0,0,-1,1399,1065,0,0
182,-41,0,0,0,0,0,0,0,0,0,-1,1406,1065,0,0
189,-41,0,0,0,0,0,0,0,0,0,-1,1413,1065,0,0
196,-41,0,0,0,0,0,0,0,0,0,-1,1420,1065,0,0
203,-41,0,0,0,0,0,0,0,0,0,-1,1427,1065,0,0
210,-41,0,0,0,0,0,0,0,0,0,-1,1434,1065,0,0
217,-41,0,0,0,0,0,0,0,0,0,-1,1441,1065,0,0
224,-41,0,0,0,0,0,0,0,0,0,-1,1448,1065,0,0
231,-41,0,0,0,0,0,0,0,0,0,-1,1455,1065,0,0
238,-41,0,0,0,0,0,0,0,0,0,-1,1462,1065,0,0
245,-41,0,0,0,0,0,0,0,0,0,-1,1469,1065,0,0
252,-41,0,0,0,0,0,0,0,0,0,-1,1476,1065,0,0
259,-41,0,0,0,0,0,0,0,0,0,-1,1483,1065,0,0
266,-41,0,0,0,0,0,0,0,0,0,-1,1490,1065,0,0
273,-41,0,0,0,0,0,0,0,0,0,-1,1497,1065,0,0
280,-41,0,0,0,0,0,0,0,0,0,-1,1504,1065,0,0
287,-41,0,0,0,0,0,0,0,0,0,-1,1511,1065,0,0
294,-41,0,0,0,0,0,0,0,0,0,-1,1518,1065,0,0
301,-41,0,0,0,0,0,0,0,0,0,-1,1525,1065,0,0
308,-41,0,0,0,0,0,0,0,0,0,-1,1532,1065,0,0
315,-41,0,0,0,0,0,0,0,0,0,-1,1539,1065,0,0
322,-41,0,0,0,0,0,0,0,0,0,-1,1546,1065,0,0
329,-41,0,0,0,0,0,0,0,0,0,-1,1553,1065,0,0
336,-41,0,0,0,0,0,0,0,0,0,-1,1560,1065,0,0
343,-41,0,0,0,0,0,0,0,0,0,-1,1567,1065,0,0
350,-41,0,0,0,0,0,0,0,0,0,-1,1574,1065,0,0
357,-41,0,0,0,0,0,0,0,0,0,-1,1581,1065,0,0
364,-41,0,0,0,0,0,0,0,0,0,-1,1588,1065,0,0
371,-41,0,0,0,0,0,0,0,0,0,-1,1595,1065,0,0
378,-41,0,0,0,0,0,0,0,0,0,-1,1602,1065,0,0
385,-41,0,0,0,0,0,0,0,0,0,-1,1609,1065,0,0
392,-41,0,0,0,0,0,0,0,0,0,-1,1616,1065,0,0
399,-41,0,0,0,0,0,0,0,0,0,-1,1623,1065,0,0
406,-41,0,0,0,0,0,0,0,0,0,-1,1630,1065,0,0
413,-41,0,0,0,0,0,0,0,0,0,-1,1637,1065,0,0
420,-41,0,0,0,0,0,0,0,0,0,-1,1644,1065,0,0
427,-41,0,0,0,0,0,0,0,0,0,-1,1651,1065,0,0
434,-41,0,0,0,0,0,0,0,0,0,-1,1658,1065,0,0
441,-41,0,0,0,0,0,0,0,0,0,-1,1665,1065,0,0
448,-41,0,0,0,0,0,0,0,0,0,-1,1672,1065,0,0
455,-41,0,0,0,0,0,0,0,0,0,-1,1679,1065,0,0
462,-41,0,0,0,0,0,0,0,0,0,-1,1686,1065,0,0
469,-41,0,0,0,0,0,0,0,0,0,-1,1693,1065,0,0
476,-41,0,0,0,0,0,0,0,0,0,-1,1700,1065,0,0
483,-41,0,0,0,0,0,0,0,0,0,-1,1707,1065,0,0
490,-41,0,0,0,0,0,0,0,0,0,-1,1714,1065,0,0
497,-41,0,0,0,0,0,0,0,0,0,-1,1721,1065,0,0
504,-41,0,0,0,0,0,0,0,0,0,-1,1728,1065,0,0
511,-41,0,0,0,0,0,0,0,0,0,-1,1735,1065,0,0
518,-41,0,0,0,0,0,0,0,0,0,-1,1742,1065,0,0
525,-41,0,0,0,0,0,0,0,0,0,-1,1749,1065,0,0
532,-41,0,0,0,0,0,0,0,0,0,-1,1756,1065,0,0
539,-41,0,0,0,0,0,0,0,0,0,-1,1763,1065,0,0
546,-41,0,0,0,0,0,0,0,0,0,-1,1770,1065,0,0
553,-41,0,0,0,0,0,0,0,0,0,-1,1777,1065,0,0
560,-41,0,0,0,0,0,0,0,0,0,-1,1784,1065,0,0
567,-41,0,0,0,0,0,0,0,0,0,-1,1791,1065,0,0
574,-41,0,0,0,0,0,0,0,0,0,-1,1798,1065,0,0
581,-41,0,0,0,0,0,0,0,0,0,-1,1805,1065,0,0
588,-41,0,0,0,0,0,0,0,0,0,-1,1812,1065,0,0
595,-41,0,0,0,0,0,0,0,0,0,-1,1819,1065,0,0
602,-41,0,0,0,0,0,0,0,0,0,-1,1826,1065,0,0
609,-41,0,0,0,0,0,0,0,0,0,-1,1833,1065,0,0
616,-41,0,0,0,0,0,0,0,0,0,-1,1840,1065,0,0
623,-41,0,0,0,0,0,0,0,0,0,-1,1847,1065,0,0
630,-41,0,0,0,0,0,0,0,0,0,-1,1854,1065,0,0
637,-41,0,0,0,0,0,0,0,0,0,-1,1861,1065,0,0
644,-41,0,0,0,0,0,0,0,0,0,-1,1868,1065,0,0
651,-41,60.7729,2.7218,-0.00475495,-6.27916e-05,0.000615077,1.64965e-05,-0.00483424,1.4426,0.00322834,0.0347724,1875,1065,60.773,-2.72178
658,-41,60.6354,2.75342,-0.00408738,6.15625e-05,-0.000120858,6.50804e-05,-0.0040909,-1.5417,0.00274922,0.0407062,1882,1065,60.6354,-2.75337
665,-41,60.6548,2.7854,-0.00329502,0.000189906,-0.000370201,0.000228798,-0.00333391,-1.46612,0.00230267,0.0437479,1889,1065,60.6548,-2.78543
672,-41,60.7672,2.59558,-0.00244237,0.000319419,-0.000255605,0.000342876,-0.00246583,-1.47928,0.00176929,0.0406453,1896,1065,60.7672,-2.59563
679,-41,60.8394,2.49475,-0.00158517,0.000458285,5.92552e-05,0.000460001,-0.00158689,1.54183,0.00124003,0.041997,1903,1065,60.8393,-2.49477
686,-41,60.7511,2.53186,-0.00117266,0.000281493,0.000582946,0.000486332,-0.00137749,1.23289,0.00111633,0.0450641,1910,1065,60.7511,-2.53189
693,-41,60.752,2.39331,-0.000977087,-2.14285e-05,0.00114335,0.000739922,-0.00173844,0.983328,0.00146908,0.0452622,1917,1065,60.752,-2.39337
700,-41,60.7374,2.47546,-0.000913304,-0.000269663,0.00168103,0.00112007,-0.00230304,0.879975,0.00201529,0.0399515,1924,1065,60.7375,-2.47544
707,-41,60.7438,2.58521,-0.00123554,-0.000244625,0.00204768,0.00136669,-0.00284686,0.904097,0.00248222,0.0283739,1931,1065,60.7438,-2.58522
714,-41,60.7402,2.70032,-0.00174627,1.65308e-05,0.00239542,0.00168757,-0.0034173,0.961687,0.00300317,0.025023,1938,1065,60.7403,-2.70029
721,-41,60.7559,2.8656,0,0,0,0,0,0,0,-1,1945,1065,60.7558,-2.86558
728,-41,59.9836,7.15613,0,0,0,0,0,0,0,-1,1952,1065,59.9837,-7.15607
735,-41,59.833,6.94629,-0.00423941,0.00244206,0.00300527,0.00359489,-0.00539225,1.2045,0.0052232,0.0215467,1959,1065,59.833,-6.94631
742,-41,59.7634,6.70337,-0.00492827,0.00366506,0.00276773,0.00447933,-0.00574254,1.28467,0.0059166,0.0173715,1966,1065,59.7634,-6.70342
749,-41,59.7689,6.49707,-0.00544356,0.00483706,0.00235347,0.00535021,-0.0059567,1.35612,0.00653118,0.0165465,1973,1065,59.7689,-6.49708
756,-41,59.7855,6.2644,-0.00552895,0.00688346,0.00137118,0.00703313,-0.00567862,1.46207,0.007353,0.0155897,1980,1065,59.7856,-6.26445
763,-41,59.671,5.96924,-0.0051039,0.0100685,-0.000422895,0.0100802,-0.00511568,-1.54295,0.00892807,0.0126129,1987,1065,59.671,-5.96921
770,-41,59.563,5.73401,-0.00344306,0.0139889,-0.00303396,0.0145019,-0.00395602,-1.40331,0.0112215,0.0132036,1994,1065,59.5629,-5.73397
777,-41,59.4399,5.50659,8.1166e-05,0.0187695,-0.00683265,0.0210011,-0.00215045,-1.25511,0.0147698,0.0170844,2001,1065,59.4399,-5.50654
784,-41,59.366,5.21216,0.00508501,0.0240635,-0.0117475,0.0296755,-0.000527019,-1.12513,0.0199617,0.02866,2008,1065,59.3659,-5.21211
791,-41,59.4575,4.67969,0.0125582,0.030321,-0.0186675,0.0421122,0.000767002,-1.00744,0.0278227,0.0440472,2015,1065,59.4575,-4.67963
798,-41,59.6855,4.11633,0,0,0,0,0,0,0,-1,2022,1065,59.6855,-4.11629
805,-41,59.7073,3.28833,0,0,0,0,0,0,0,-1,2029,1065,59.7074,-3.28829
812,-41,60.0239,2.67749,0,0,0,0,0,0,0,-1,2036,1065,60.024,-2.67752
-700,-48,-44.86,-7.24597,0,0,0,0,0,0,0,-1,524,1072,-44.86,7.24599
-693,-48,-45.0522,-6.02869,0.0491108,0.117642,0.0615801,0.153848,0.0129049,1.03929,0.0985459,0.0462581,531,1072,-45.0522,6.02874
-686,-48,-45.1055,-4.85413,0.0472679,0.107485,0.0543668,0.139524,0.0152293,1.03828,0.0883779,0.0488423,538,1072,-45.1055,4.85415
-679,-48,-45.6215,-2.92407,0,0,0,0,0,0,0,-1,545,1072,-45.6215,2.92405
-672,-48,-45.2387,-1.7168,0.0351471,0.0820611,0.0384053,0.103606,0.013602,1.05955,0.0650129,0.0477727,552,1072,-45.2387,1.71678
-665,-48,-44.9317,-0.345947,0.0279039,0.068916,0.0308971,0.0854927,0.0113272,1.07837,0.0536197,0.0464695,559,1072,-44.9317,0.345989
-658,-48,-44.8273,0.762817,0.0210753,0.0562467,0.0240168,0.0684278,0.00889415,1.10141,0.0429618,0.0475775,566,1072,-44.8273,-0.76282
-651,-48,-44.7257,1.99268,0.0151724,0.0444612,0.017904,0.0529471,0.00668652,1.12819,0.0332938,0.0411092,573,1072,-44.7257,-1.99264
-644,-48,-44.855,2.80908,0.0104282,0.0338087,0.0124683,0.03921,0.00502691,1.162,0.0246359,0.0230796,580,1072,-44.855,-2.80911
-637,-48,-44.8687,3.03394,0.00637378,0.0238902,0.00740337,0.0266,0.00366394,1.21991,0.016647,0.0236538,587,1072,-44.8687,-3.03389
-630,-48,-44.8741,3.3866,0.00342985,0.0152955,0.0034069,0.0162041,0.00252123,1.31016,0.0100681,0.0262875,594,1072,-44.8741,-3.38658
-623,-48,-45.016,3.73389,0.00188508,0.0095014,0.000451833,0.00952811,0.00185836,1.51175,0.00583216,0.0131297,601,1072,-45.016,-3.73387
-616,-48,-45.0288,4.07507,0.00133162,0.00537191,-0.00152989,0.00588584,0.000817694,-1.24671,0.00368172,0.0124044,608,1072,-45.0288,-4.07511
-609,-48,-44.9677,4.43054,0.00128556,0.00243274,-0.00256083,0.00448344,-0.00076513,-0.895573,0.00327394,0.0140608,615,1072,-44.9676,-4.43054
-602,-48,-44.9803,4.73328,0.00110425,0.000274853,-0.00309365,0.00381087,-0.00243177,-0.718772,0.00363339,0.0141319,622,1072,-44.9803,-4.73325
-595,-48,-45.0353,5.00476,0.000855794,-0.000541196,-0.00311456,0.00334923,-0.00303463,-0.67509,0.00368721,0.0341582,629,1072,-45.0353,-5.00478
-588,-48,-45.68,2.60413,0,0,0,0,0,0,0,-1,636,1072,-45.68,-2.60412
-581,-48,-45.8922,0.519165,0,0,0,0,0,0,0,-1,643,1072,-45.8922,-0.519168
-574,-48,-45.838,0.665527,0.00155585,-0.00127145,-0.000741581,0.00173856,-0.00145415,-0.241562,0.00184575,0.0434401,650,1072,-45.838,-0.66552
-567,-48,-45.791,0.721313,0.00151326,-0.00102882,0.000454312,0.00159201,-0.00110757,0.171641,0.00156695,0.042573,657,1072,-45.791,-0.721313
-560,-48,-45.7762,0.694092,0.0013127,-0.000592662,0.00195828,0.00253774,-0.0018177,0.559008,0.00252605,0.0405158,664,1072,-45.7762,-0.694048
-553,-48,-45.8353,0.635864,0.00116298,-0.000136572,0.00381034,0.00437855,-0.00335214,0.700946,0.00447641,0.0417694,671,1072,-45.8353,-0.635815
-546,-48,-45.9806,0.826782,0.00131313,3.61915e-05,0.00600634,0.00671484,-0.00536552,0.732448,0.00698909,0.0402146,678,1072,-45.9806,-0.826774
-539,-48,-46.0562,1.09216,0.00193147,-0.000660003,0.00794472,0.00868542,-0.00741396,0.704563,0.00930464,0.0420447,685,1072,-46.0562,-1.09216
-532,-48,-45.8751,1.45984,0.00276957,-0.00105155,0.00996389,0.0110044,-0.0092864,0.690674,0.0117289,0.0422076,692,1072,-45.8751,-1.45987
-525,-48,0,0,0,0,0,0,0,0,0,-1,699,1072,0,0
-518,-48,0,0,0,0,0,0,0,0,0,-1,706,1072,0,0
-511,-48,0,0,0,0,0,0,0,0,0,-1,713,1072,0,0
-504,-48,0,0,0,0,0,0,0,0,0,-1,720,1072,0,0
-497,-48,0,0,0,0,0,0,0,0,0,-1,727,1072,0,0
-490,-48,0,0,0,0,0,0,0,0,0,-1,734,1072,0,0
-483,-48,0,0,0,0,0,0,0,0,0,-1,741,1072,0,0
-476,-48,0,0,0,0,0,0,0,0,0,-1,748,1072,0,0
-469,-48,0,0,0,0,0,0,0,0,0,-1,755,1072,0,0
-462,-48,0,0,0,0,0,0,0,0,0,-1,762,1072,0,0
-455,-48,0,0,0,0,0,0,0,0,0,-1,769,1072,0,0
-448,-48,0,0,0,0,0,0,0,0,0,-1,776,1072,0,0
-441,-48,0,0,0,0,0,0,0,0,0,-1,783,1072,0,0
-434,-48,0,0,0,0,0,0,0,0,0,-1,790,1072,0,0
-427,-48,0,0,0,0,0,0,0,0,0,-1,797,1072,0,0
-420,-48,0,0,0,0,0,0,0,0,0,-1,804,1072,0,0
-413,-48,0,0,0,0,0,0,0,0,0,-1,811,1072,0,0
-406,-48,0,0,0,0,0,0,0,0,0,-1,818,1072,0,0
-399,-48,0,0,0,0,0,0,0,0,0,-1,825,1072,0,0
-392,-48,0,0,0,0,0,0,0,0,0,-1,832,1072,0,0
-385,-48,0,0,0,0,0,0,0,0,0,-1,839,1072,0,0
-378,-48,0,0,0,0,0,0,0,0,0,-1,846,1072,0,0
-371,-48,0,0,0,0,0,0,0,0,0,-1,853,1072,0,0
-364,-48,0,0,0,0,0,0,0,0,0,-1,860,1072,0,0
-357,-48,0,0,0,0,0,0,0,0,0,-1,867,1072,0,0
-350,-48,0,0,0,0,0,0,0,0,0,-1,874,1072,0,0
-343,-48,0,0,0,0,0,0,0,0,0,-1,881,1072,0,0
-336,-48,0,0,0,0,0,0,0,0,0,-1,888,1072,0,0
-329,-48,0,0,0,0,0,0,0,0,0,-1,895,1072,0,0
-322,-48,0,0,0,0,0,0,0,0,0,-1,902,1072,0,0
-315,-48,0,0,0,0,0,0,0,0,0,-1,909,1072,0,0
-308,-48,0,0,0,0,0,0,0,0,0,-1,916,1072,0,0
-301,-48,0,0,0,0,0,0,0,0,0,-1,923,1072,0,0
-294,-48,0,0,0,0,0,0,0,0,0,-1,930,1072,0,0
-287,-48,0,0,0,0,0,0,0,0,0,-1,937,1072,0,0
-280,-48,0,0,0,0,0,0,0,0,0,-1,944,1072,0,0
-273,-48,0,0,0,0,0,0,0,0,0,-1,951,1072,0,0
-266,-48,0,0,0,0,0,0,0,0,0,-1,958,1072,0,0
-259,-48,0,0,0,0,0,0,0,0,0,-1,965,1072,0,0
-252,-48,0,0,0,0,0,0,0,0,0,-1,972,1072,0,0
-245,-48,0,0,0,0,0,0,0,0,0,-1,979,1072,0,0
-238,-48,0,0,0,0,0,0,0,0,0,-1,986,1072,0,0
-231,-48,0,0,0,0,0,0,0,0,0,-1,993,1072,0,0
-224,-48,0,0,0,0,0,0,0,0,0,-1,1000,1072,0,0
-217,-48,0,0,0,0,0,0,0,0,0,-1,1007,1072,0,0
-210,-48,0,0,0,0,0,0,0,0,0,-1,1014,1072,0,0
-203,-48,0,0,0,0,0,0,0,0,0,-1,1021,1072,0,0
-196,-48,0,0,0,0,0,0,0,0,0,-1,1028,1072,0,0
-189,-48,0,0,0,0,0,0,0,0,0,-1,1035,1072,0,0
-182,-48,0,0,0,0,0,0,0,0,0,-1,1042,1072,0,0
-175,-48,0,0,0,0,0,0,0,0,0,-1,1049,1072,0,0
-168,-48,0,0,0,0,0,0,0,0,0,-1,1056,1072,0,0
-161,-48,0,0,0,0,0,0,0,0,0,-1,1063,1072,0,0
-154,-48,0,0,0,0,0,0,0,0,0,-1,1070,1072,0,0
-147,-48,0,0,0,0,0,0,0,0,0,-1,1077,1072,0,0
-140,-48,0,0,0,0,0,0,0,0,0,-1,1084,1072,0,0
-133,-48,0,0,0,0,0,0,0,0,0,-1,1091,1072,0,0
-126,-48,0,0,0,0,0,0,0,0,0,-1,1098,1072,0,0
-119,-48,0,0,0,0,0,0,0,0,0,-1,1105,1072,0,0
-112,-48,0,0,0,0,0,0,0,0,0,-1,1112,1072,0,0
-105,-48,0,0,0,0,0,0,0,0,0,-1,1119,1072,0,0
-98,-48,0,0,0,0,0,0,0,0,0,-1,1126,1072,0,0
-91,-48,0,0,0,0,0,0,0,0,0,-1,1133,1072,0,0
-84,-48,0,0,0,0,0,0,0,0,0,-1,1140,1072,0,0
-77,-48,0,0,0,0,0,0,0,0,0,-1,1147,1072,0,0
-70,-48,0,0,0,0,0,0,0,0,0,-1,1154,1072,0,0
-63,-48,0,0,0,0,0,0,0,0,0,-1,1161,1072,0,0
-56,-48,0,0,0,0,0,0,0,0,0,-1,1168,1072,0,0
-49,-48,0,0,0,0,0,0,0,0,0,-1,1175,1072,0,0
-42,-48,0,0,0,0,0,0,0,0,0,-1,1182,1072,0,0
-35,-48,0,0,0,0,0,0,0,0,0,-1,1189,1072,0,0
-28,-48,0,0,0,0,0,0,0,0,0,-1,1196,1072,0,0
-21,-48,0,0,0,0,0,0,0,0,0,-1,1203,1072,0,0
-14,-48,0,0,0,0,0,0,0,0,0,-1,1210,1072,0,0
-7,-48,0,0,0,0,0,0,0,0,0,-1,1217,1072,0,0
0,-48,0,0,0,0,0,0,0,0,0,-1,1224,1072,0,0
7,-48,0,0,0,0,0,0,0,0,0,-1,1231,1072,0,0
14,-48,0,0,0,0,0,0,0,0,0,-1,1238,1072,0,0
21,-48,0,0,0,0,0,0,0,0,0,-1,1245,1072,0,0
28,-48,0,0,0,0,0,0,0,0,0,-1,1252,1072,0,0
35,-48,0,0,0,0,0,0,0,0,0,-1,1259,1072,0,0
42,-48,0,0,0,0,0,0,0,0,0,-1,1266,1072,0,0
49,-48,0,0,0,0,0,0,0,0,0,-1,1273,1072,0,0
56,-48,0,0,0,0,0,0,0,0,0,-1,1280,1072,0,0
63,-48,0,0,0,0,0,0,0,0,0,-1,1287,1072,0,0
70,-48,0,0,0,0,0,0,0,0,0,-1,1294,1072,0,0
77,-48,0,0,0,0,0,0,0,0,0,-1,1301,1072,0,0
84,-48,0,0,0,0,0,0,0,0,0,-1,1308,1072,0,0
91,-48,0,0,0,0,0,0,0,0,0,-1,1315,1072,0,0
98,-48,0,0,0,0,0,0,0,0,0,-1,1322,1072,0,0
105,-48,0,0,0,0,0,0,0,0,0,-1,1329,1072,0,0
112,-48,0,0,0,0,0,0,0,0,0,-1,1336,1072,0,0
119,-48,0,0,0,0,0,0,0,0,0,-1,1343,1072,0,0
126,-48,0,0,0,0,0,0,0,0,0,-1,1350,1072,0,0
133,-48,0,0,0,0,0,0,0,0,0,-1,1357,1072,0,0
140,-48,0,0,0,0,0,0,0,0,0,-1,1364,1072,0,0
147,-48,0,0,0,0,0,0,0,0,0,-1,1371,1072,0,0
154,-48,0,0,0,0,0,0,0,0,0,-1,1378,1072,0,0
161,-48,0,0,0,0,0,0,0,0,0,-1,1385,1072,0,0
168,-48,0,0,0,0,0,0,0,0,0,-1,1392,1072,0,0
175,-48,0,0,0,0,0,0,0,0,0,-1,1399,1072,0,0
182,-48,0,0,0,0,0,0,0,0,0,-1,1406,1072,0,0
189,-48,0,0,0,0,0,0,0,0,0,-1,1413,1072,0,0
196,-48,0,0,0,0,0,0,0,0,0,-1,1420,1072,0,0
203,-48,0,0,0,0,0,0,0,0,0,-1,1427,1072,0,0
210,-48,0,0,0,0,0,0,0,0,0,-1,1434,1072,0,0
217,-48,0,0,0,0,0,0,0,0,0,-1,1441,1072,0,0
224,-48,0,0,0,0,0,0,0,0,0,-1,1448,1072,0,0
231,-48,0,0,0,0,0,0,0,0,0,-1,1455,1072,0,0
238,-48,0,0,0,0,0,0,0,0,0,-1,1462,1072,0,0
245,-48,0,0,0,0,0,0,0,0,0,-1,1469,1072,0,0
252,-48,0,0,0,0,0,0,0,0,0,-1,1476,1072,0,0
259,-48,0,0,0,0,0,0,0,0,0,-1,1483,1072,0,0
266,-48,0,0,0,0,0,0,0,0,0,-1,1490,1072,0,0
273,-48,0,0,0,0,0,0,0,0,0,-1,1497,1072,0,0
280,-48,0,0,0,0,0,0,0,0,0,-1,1504,1072,0,0
287,-48,0,0,0,0,0,0,0,0,0,-1,1511,1072,0,0
294,-48,0,0,0,0,0,0,0,0,0,-1,1518,1072,0,0
301,-48,0,0,0,0,0,0,0,0,0,-1,1525,1072,0,0
308,-48,0,0,0,0,0,0,0,0,0,-1,1532,1072,0,0
315,-48,0,0,0,0,0,0,0,0,0,-1,1539,1072,0,0
322,-48,0,0,0,0,0,0,0,0,0,-1,1546,1072,0,0
329,-48,0,0,0,0,0,0,0,0,0,-1,1553,1072,0,0
336,-48,0,0,0,0,0,0,0,0,0,-1,1560,1072,0,0
343,-48,0,0,0,0,0,0,0,0,0,-1,1567,1072,0,0
350,-48,0,0,0,0,0,0,0,0,0,-1,1574,1072,0,0
357,-48,0,0,0,0,0,0,0,0,0,-1,1581,1072,0,0
364,-48,0,0,0,0,0,0,0,0,0,-1,1588,1072,0,0
371,-48,0,0,0,0,0,0,0,0,0,-1,1595,1072,0,0
378,-48,0,0,0,0,0,0,0,0,0,-1,1602,1072,0,0
385,-48,0,0,0,0,0,0,0,0,0,-1,1609,1072,0,0
392,-48,0,0,0,0,0,0,0,0,0,-1,1616,1072,0,0
399,-48,0,0,0,0,0,0,0,0,0,-1,1623,1072,0,0
406,-48,0,0,0,0,0,0,0,0,0,-1,1630,1072,0,0
413,-48,0,0,0,0,0,0,0,0,0,-1,1637,1072,0,0
420,-48,0,0,0,0,0,0,0,0,0,-1,1644,1072,0,0
427,-48,0,0,0,0,0,0,0,0,0,-1,1651,1072,0,0
434,-48,0,0,0,0,0,0,0,0,0,-1,1658,1072,0,0
441,-48,0,0,0,0,0,0,0,0,0,-1,1665,1072,0,0
448,-48,0,0,0,0,0,0,0,0,0,-1,1672,1072,0,0
455,-48,0,0,0,0,0,0,0,0,0,-1,1679,1072,0,0
462,-48,0,0,0,0,0,0,0,0,0,-1,1686,1072,0,0
469,-48,0,0,0,0,0,0,0,0,0,-1,1693,1072,0,0
476,-48,0,0,0,0,0,0,0,0,0,-1,1700,1072,0,0
483,-48,0,0,0,0,0,0,0,0,0,-1,1707,1072,0,0
490,-48,0,0,0,0,0,0,0,0,0,-1,1714,1072,0,0
497,-48,0,0,0,0,0,0,0,0,0,-1,1721,1072,0,0
504,-48,0,0,0,0,0,0,0,0,0,-1,1728,1072,0,0
511,-48,0,0,0,0,0,0,0,0,0,-1,1735,1072,0,0
518,-48,0,0,0,0,0,0,0,0,0,-1,1742,1072,0,0
525,-48,0,0,0,0,0,0,0,0,0,-1,1749,1072,0,0
532,-48,0,0,0,0,0,0,0,0,0,-1,1756,1072,0,0
539,-48,0,0,0,0,0,0,0,0,0,-1,1763,1072,0,0
546,-48,0,0,0,0,0,0,0,0,0,-1,1770,1072,0,0
553,-48,0,0,0,0,0,0,0,0,0,-1,1777,1072,0,0
560,-48,0,0,0,0,0,0,0,0,0,-1,1784,1072,0,0
567,-48,0,0,0,0,0,0,0,0,0,-1,1791,1072,0,0
574,-48,0,0,0,0,0,0,0,0,0,-1,1798,1072,0,0
581,-48,0,0,0,0,0,0,0,0,0,-1,1805,1072,0,0
588,-48,0,0,0,0,0,0,0,0,0,-1,1812,1072,0,0
595,-48,0,0,0,0,0,0,0,0,0,-1,1819,1072,0,0
602,-48,0,0,0,0,0,0,0,0,0,-1,1826,1072,0,0
609,-48,0,0,0,0,0,0,0,0,0,-1,1833,1072,0,0
616,-48,0,0,0,0,0,0,0,0,0,-1,1840,1072,0,0
623,-48,0,0,0,0,0,0,0,0,0,-1,1847,1072,0,0
630,-48,0,0,0,0,0,0,0,0,0,-1,1854,1072,0,0
637,-48,0,0,0,0,0,0,0,0,0,-1,1861,1072,0,0
644,-48,0,0,0,0,0,0,0,0,0,-1,1868,1072,0,0
651,-48,60.7625,2.59607,-0.00404185,0.000679355,-2.6832e-05,0.000679507,-0.004042,-1.56511,0.0029474,0.0304955,1875,1072,60.7624,-2.59609
658,-48,60.7036,2.73499,-0.00348061,0.000714439,-0.000672222,0.000819525,-0.0035857,-1.41573,0.00270534,0.0364586,1882,1072,60.7036,-2.73498
665,-48,60.6675,2.79761,-0.00279464,0.000705464,-0.000820091,0.000888086,-0.00297726,-1.35169,0.00233779,0.0444259,1889,1072,60.6674,-2.79757
672,-48,60.6022,2.61719,-0.00202792,0.000702014,-0.000630189,0.000840467,-0.00216637,-1.35453,0.00179137,0.0411992,1896,1072,60.6022,-2.61717
679,-48,60.6125,2.56885,-0.00128142,0.000704545,-0.000247242,0.000734862,-0.00131174,-1.44878,0.00119715,0.0390839,1903,1072,60.6126,-2.56884
686,-48,60.665,2.4679,-0.000929473,0.000431129,0.00032742,0.00050582,-0.00100416,1.34651,0.000887475,0.0408879,1910,1072,60.665,-2.46791
693,-48,60.7321,2.45984,-0.00074273,6.77353e-05,0.000915297,0.000663493,-0.00133849,0.993795,0.00117754,0.0409101,1917,1072,60.732,-2.45988
700,-48,60.748,2.54736,-0.000680077,-0.000206421,0.00147531,0.00105095,-0.00193745,0.864983,0.00175047,0.034877,1924,1072,60.7481,-2.54742
707,-48,60.7759,2.59143,-0.000948413,-0.000235554,0.0018815,0.00132298,-0.00250694,0.879009,0.00224615,0.0279013,1931,1072,60.7759,-2.59137
714,-48,60.7327,2.74976,-0.00138242,-7.69723e-05,0.00229228,0.0016537,-0.00311309,0.924102,0.00279477,0.0411639,1938,1072,60.7326,-2.74975
721,-48,60.733,3.00732,0,0,0,0,0,0,0,-1,1945,1072,60.7331,-3.00728
728,-48,59.677,7.35474,0,0,0,0,0,0,0,-1,1952,1072,59.677,-7.35475
735,-48,59.5428,7.09082,-0.00362484,0.00197853,0.00309756,0.00335348,-0.00499979,1.15304,0.00485389,0.0223502,1959,1072,59.5428,-7.09082
742,-48,59.4081,6.78625,-0.0042505,0.00312513,0.00301346,0.00419976,-0.00532514,1.22824,0.00551198,0.0178948,1966,1072,59.4081,-6.78626
749,-48,59.4336,6.48096,-0.00453845,0.00422789,0.00278737,0.0050391,-0.00534967,1.28759,0.00599885,0.0157035,1973,1072,59.4336,-6.481
756,-48,59.4087,6.21472,-0.00428901,0.00610857,0.00197599,0.00647143,-0.00465187,1.38918,0.00645062,0.0140329,1980,1072,59.4087,-6.21466
763,-48,59.3239,5.93799,-0.00350864,0.00900865,0.000511244,0.00902949,-0.00352948,1.53004,0.00747911,0.0131799,1987,1072,59.3239,-5.93796
770,-48,59.2832,5.6665,-0.00128648,0.0126298,-0.00165478,0.0128238,-0.00148055,-1.45406,0.00908305,0.0138336,1994,1072,59.2832,-5.66645
777,-48,59.146,5.37769,0.00300919,0.0169172,-0.00478289,0.0184033,0.00152316,-1.26955,0.0117939,0.0135306,2001,1072,59.146,-5.37771
784,-48,59.0393,5.07239,0.00905175,0.0216167,-0.00890344,0.0262311,0.00443741,-1.09264,0.016212,0.0258874,2008,1072,59.0392,-5.0724
791,-48,59.0449,4.71667,0.0180866,0.0270498,-0.014762,0.0379955,0.00714089,-0.932773,0.0233174,0.0421806,2015,1072,59.045,-4.71667
798,-48,58.9932,4.33984,0,0,0,0,0,0,0,-1,2022,1072,58.9933,-4.33979
805,-48,58.9685,3.77368,0,0,0,0,0,0,0,-1,2029,1072,58.9686,-3.77364
812,-48,59.1306,3.13843,0,0,0,0,0,0,0,-1,2036,1072,59.1306,-3.13839
-700,-55,-44.418,-8.41919,0,0,0,0,0,0,0,-1,524,1079,-44.418,8.41914
-693,-55,-44.5041,-7.14001,0,0,0,0,0,0,0,-1,531,1079,-44.5041,7.14003
-686,-55,-43.1158,-3.16431,0,0,0,0,0,0,0,-1,538,1079,-43.1158,3.16432
-679,-55,-43.5485,-2.38782,0,0,0,0,0,0,0,-1,545,1079,-43.5485,2.38776
-672,-55,-44.6382,-2.49744,0,0,0,0,0,0,0,-1,552,1079,-44.6382,2.49741
-665,-55,-44.2171,-0.776611,0.0223096,0.0605012,0.0289749,0.0761069,0.0067039,1.07675,0.0486575,0.0453039,559,1079,-44.2171,0.776582
-658,-55,-44.7087,0.276611,0.0166486,0.0497204,0.0223115,0.0609557,0.00541329,1.1043,0.0389583,0.0498275,566,1079,-44.7087,-0.276564
-651,-55,-44.5997,1.53064,0.0118377,0.0394777,0.0164872,0.047171,0.00414443,1.13421,0.0301609,0.0424334,573,1079,-44.5997,-1.53069
-644,-55,-44.5272,2.67688,0.00808727,0.0301279,0.0114122,0.0349722,0.00324296,1.16936,0.0223125,0.0266827,580,1079,-44.5272,-2.67687
-637,-55,-44.533,2.96191,0.00495383,0.0212575,0.00676219,0.0236972,0.00251418,1.22455,0.0150303,0.0212265,587,1079,-44.533,-2.96197
-630,-55,-44.5284,3.35559,0.00275255,0.0136532,0.00299152,0.0144202,0.00198554,1.31981,0.00902474,0.0233828,594,1079,-44.5284,-3.35561
-623,-55,-44.7135,3.77771,0.00164815,0.00840073,0.00028658,0.00841287,0.00163601,1.52846,0.0051506,0.0195303,601,1079,-44.7135,-3.77771
-616,-55,-44.7422,4.09949,0.00125335,0.00463682,-0.0015277,0.00522452,0.000665652,-1.20355,0.0032837,0.0188564,608,1079,-44.7422,-4.09943
-609,-55,-44.6502,4.4895,0.00126459,0.00184613,-0.00237936,0.00395242,-0.000841702,-0.846199,0.00295574,0.0191456,615,1079,-44.6502,-4.48956
-602,-55,-44.5999,4.82837,0.00112787,-0.00013262,-0.00279406,0.00336189,-0.00236664,-0.674471,0.00332396,0.0159694,622,1079,-44.5999,-4.82832
-595,-55,-44.4771,5.19897,0.000880817,-0.00078907,-0.00280078,0.00296846,-0.00287671,-0.640537,0.00337485,0.0335539,629,1079,-44.4771,-5.19892
-588,-55,-44.4926,5.64563,0,0,0,0,0,0,0,-1,636,1079,-44.4925,-5.64564
-581,-55,-45.4407,0.632324,0,0,0,0,0,0,0,-1,643,1079,-45.4407,-0.632295
-574,-55,-45.7968,0.858887,0,0,0,0,0,0,0,-1,650,1079,-45.7968,-0.858871
-567,-55,-45.8289,0.851929,0,0,0,0,0,0,0,-1,657,1079,-45.8288,-0.851948
-560,-55,-45.9279,0.873169,0.00185583,-0.000157957,0.00190257,0.00300152,-0.00130365,0.542021,0.00254921,0.0406735,664,1079,-45.9279,-0.873142
-553,-55,-45.954,0.803589,0.00199867,0.000563414,0.00361931,0.00497081,-0.00240873,0.687529,0.00434533,0.0414736,671,1079,-45.954,-0.803545
-546,-55,-46.0895,0.950439,0.00264914,0.00113854,0.00568324,0.00762705,-0.00383937,0.719335,0.00673946,0.0381301,678,1079,-46.0895,-0.950489
-539,-55,-46.1487,1.12036,0.00427589,0.000986187,0.00758803,0.0103953,-0.00513322,0.678665,0.00913537,0.0381344,685,1079,-46.1487,-1.1204
-532,-55,-46.1506,1.03064,0.0061516,0.00113911,0.00957418,0.0135421,-0.00625142,0.657385,0.0116834,0.0394464,692,1079,-46.1506,-1.03061
-525,-55,0,0,0,0,0,0,0,0,0,-1,699,1079,0,0
-518,-55,0,0,0,0,0,0,0,0,0,-1,706,1079,0,0
-511,-55,0,0,0,0,0,0,0,0,0,-1,713,1079,0,0
-504,-55,0,0,0,0,0,0,0,0,0,-1,720,1079,0,0
-497,-55,0,0,0,0,0,0,0,0,0,-1,727,1079,0,0
-490,-55,0,0,0,0,0,0,0,0,0,-1,734,1079,0,0
-483,-55,0,0,0,0,0,0,0,0,0,-1,741,1079,0,0
-476,-55,0,0,0,0,0,0,0,0,0,-1,748,1079,0,0
-469,-55,0,0,0,0,0,0,0,0,0,-1,755,1079,0,0
-462,-55,0,0,0,0,0,0,0,0,0,-1,762,1079,0,0
-455,-55,0,0,0,0,0,0,0,0,0,-1,769,1079,0,0
-448,-55,0,0,0,0,0,0,0,0,0,-1,776,1079,0,0
-441,-55,0,0,0,0,0,0,0,0,0,-1,783,1079,0,0
-434,-55,0,0,0,0,0,0,0,0,0,-1,790,1079,0,0
-427,-55,0,0,0,0,0,0,0,0,0,-1,797,1079,0,0
-420,-55,0,0,0,0,0,0,0,0,0,-1,804,1079,0,0
-413,-55,0,0,0,0,0,0,0,0,0,-1,811,1079,0,0
-406,-55,0,0,0,0,0,0,0,0,0,-1,818,1079,0,0
-399,-55,0,0,0,0,0,0,0,0,0,-1,825,1079,0,0
-392,-55,0,0,0,0,0,0,0,0,0,-1,832,1079,0,0
-385,-55,0,0,0,0,0,0,0,0,0,-1,839,1079,0,0
-378,-55,0,0,0,0,0,0,0,0,0,-1,846,1079,0,0
-371,-55,0,0,0,0,0,0,0,0,0,-1,853,1079,0,0
-364,-55,0,0,0,0,0,0,0,0,0,-1,860,1079,0,0
-357,-55,0,0,0,0,0,0,0,0,0,-1,867,1079,0,0
-350,-55,0,0,0,0,0,0,0,0,0,-1,874,1079,0,0
-343,-55,0,0,0,0,0,0,0,0,0,-1,881,1079,0,0
-336,-55,0,0,0,0,0,0,0,0,0,-1,888,1079,0,0
-329,-55,0,0,0,0,0,0,0,0,0,-1,895,1079,0,0
-322,-55,0,0,0,0,0,0,0,0,0,-1,902,1079,0,0
-315,-55,0,0,0,0,0,0,0,0,0,-1,909,1079,0,0
-308,-55,0,0,0,0,0,0,0,0,0,-1,916,1079,0,0
-301,-55,0,0,0,0,0,0,0,0,0,-1,923,1079,0,0
-294,-55,0,0,0,0,0,0,0,0,0,-1,930,1079,0,0
-287,-55,0,0,0,0,0,0,0,0,0,-1,937,1079,0,0
-280,-55,0,0,0,0,0,0,0,0,0,-1,944,1079,0,0
-273,-55,0,0,0,0,0,0,0,0,0,-1,951,1079,0,0
-266,-55,0,0,0,0,0,0,0,0,0,-1,958,1079,0,0
-259,-55,0,0,0,0,0,0,0,0,0,-1,965,1079,0,0
-252,-55,0,0,0,0,0,0,0,0,0,-1,972,1079,0,0
-245,-55,0,0,0,0,0,0,0,0,0,-1,979,1079,0,0
-238,-55,0,0,0,0,0,0,0,0,0,-1,986,1079,0,0
-231,-55,0,0,0,0,0,0,0,0,0,-1,993,1079,0,0
-224,-55,0,0,0,0,0,0,0,0,0,-1,1000,1079,0,0
-217,-55,0,0,0,0,0,0,0,0,0,-1,1007,1079,0,0
-210,-55,0,0,0,0,0,0,0,0,0,-1,1014,1079,0,0
-203,-55,0,0,0,0,0,0,0,0,0,-1,1021,1079,0,0
-196,-55,0,0,0,0,0,0,0,0,0,-1,1028,1079,0,0
-189,-55,0,0,0,0,0,0,0,0,0,-1,1035,1079,0,0
-182,-55,0,0,0,0,0,0,0,0,0,-1,1042,1079,0,0
-175,-55,0,0,0,0,0,0,0,0,0,-1,1049,1079,0,0
-168,-55,0,0,0,0,0,0,0,0,0,-1,1056,1079,0,0
-161,-55,0,0,0,0,0,0,0,0,0,-1,1063,1079,0,0
-154,-55,0,0,0,0,0,0,0,0,0,-1,1070,1079,0,0
-147,-55,0,0,0,0,0,0,0,0,0,-1,1077,1079,0,0
-140,-55,0,0,0,0,0,0,0,0,0,-1,1084,1079,0,0
-133,-55,0,0,0,0,0,0,0,0,0,-1,1091,1079,0,0
-126,-55,0,0,0,0,0,0,0,0,0,-1,1098,1079,0,0
-119,-55,0,0,0,0,0,0,0,0,0,-1,1105,1079,0,0
-112,-55,0,0,0,0,0,0,0,0,0,-1,1112,1079,0,0
-105,-55,0,0,0,0,0,0,0,0,0,-1,1119,1079,0,0
-98,-55,0,0,0,0,0,0,0,0,0,-1,1126,1079,0,0
-91,-55,0,0,0,0,0,0,0,0,0,-1,1133,1079,0,0
-84,-55,0,0,0,0,0,0,0,0,0,-1,1140,1079,0,0
-77,-55,0,0,0,0,0,0,0,0,0,-1,1147,1079,0,0
-70,-55,0,0,0,0,0,0,0,0,0,-1,1154,1079,0,0
-63,-55,0,0,0,0,0,0,0,0,0,-1,1161,1079,0,0
-56,-55,0,0,0,0,0,0,0,0,0,-1,1168,1079,0,0
-49,-55,0,0,0,0,0,0,0,0,0,-1,1175,1079,0,0
-42,-55,0,0,0,0,0,0,0,0,0,-1,1182,1079,0,0
-35,-55,0,0,0,0,0,0,0,0,0,-1,1189,1079,0,0
-28,-55,0,0,0,0,0,0,0,0,0,-1,1196,1079,0,0
-21,-55,0,0,0,0,0,0,0,0,0,-1,1203,1079,0,0
-14,-55,0,0,0,0,0,0,0,0,0,-1,1210,1079,0,0
-7,-55,0,0,0,0,0,0,0,0,0,-1,1217,1079,0,0
0,-55,0,0,0,0,0,0,0,0,0,-1,1224,1079,0,0
7,-55,0,0,0,0,0,0,0,0,0,-1,1231,1079,0,0
14,-55,0,0,0,0,0,0,0,0,0,-1,1238,1079,0,0
21,-55,0,0,0,0,0,0,0,0,0,-1,1245,1079,0,0
28,-55,0,0,0,0,0,0,0,0,0,-1,1252,1079,0,0
35,-55,0,0,0,0,0,0,0,0,0,-1,1259,1079,0,0
42,-55,0,0,0,0,0,0,0,0,0,-1,1266,1079,0,0
49,-55,0,0,0,0,0,0,0,0,0,-1,1273,1079,0,0
56,-55,0,0,0,0,0,0,0,0,0,-1,1280,1079,0,0
63,-55,0,0,0,0,0,0,0,0,0,-1,1287,1079,0,0
70,-55,0,0,0,0,0,0,0,0,0,-1,1294,1079,0,0
77,-55,0,0,0,0,0,0,0,0,0,-1,1301,1079,0,0
84,-55,0,0,0,0,0,0,0,0,0,-1,1308,1079,0,0
91,-55,0,0,0,0,0,0,0,0,0,-1,1315,1079,0,0
98,-55,0,0,0,0,0,0,0,0,0,-1,1322,1079,0,0
105,-55,0,0,0,0,0,0,0,0,0,-1,1329,1079,0,0
112,-55,0,0,0,0,0,0,0,0,0,-1,1336,1079,0,0
119,-55,0,0,0,0,0,0,0,0,0,-1,1343,1079,0,0
126,-55,0,0,0,0,0,0,0,0,0,-1,1350,1079,0,0
133,-55,0,0,0,0,0,0,0,0,0,-1,1357,1079,0,0
140,-55,0,0,0,0,0,0,0,0,0,-1,1364,1079,0,0
147,-55,0,0,0,0,0,0,0,0,0,-1,1371,1079,0,0
154,-55,0,0,0,0,0,0,0,0,0,-1,1378,1079,0,0
161,-55,0,0,0,0,0,0,0,0,0,-1,1385,1079,0,0
168,-55,0,0,0,0,0,0,0,0,0,-1,1392,1079,0,0
175,-55,0,0,0,0,0,0,0,0,0,-1,1399,1079,0,0
182,-55,0,0,0,0,0,0,0,0,0,-1,1406,1079,0,0
189,-55,0,0,0,0,0,0,0,0,0,-1,1413,1079,0,0
196,-55,0,0,0,0,0,0,0,0,0,-1,1420,1079,0,0
203,-55,0,0,0,0,0,0,0,0,0,-1,1427,1079,0,0
210,-55,0,0,0,0,0,0,0,0,0,-1,1434,1079,0,0
217,-55,0,0,0,0,0,0,0,0,0,-1,1441,1079,0,0
224,-55,0,0,0,0,0,0,0,0,0,-1,1448,1079,0,0
231,-55,0,0,0,0,0,0,0,0,0,-1,1455,1079,0,0
238,-55,0,0,0,0,0,0,0,0,0,-1,1462,1079,0,0
245,-55,0,0,0,0,0,0,0,0,0,-1,1469,1079,0,0
252,-55,0,0,0,0,0,0,0,0,0,-1,1476,1079,0,0
259,-55,0,0,0,0,0,0,0,0,0,-1,1483,1079,0,0
266,-55,0,0,0,0,0,0,0,0,0,-1,1490,1079,0,0
273,-55,0,0,0,0,0,0,0,0,0,-1,1497,1079,0,0
280,-55,0,0,0,0,0,0,0,0,0,-1,1504,1079,0,0
287,-55,0,0,0,0,0,0,0,0,0,-1,1511,1079,0,0
294,-55,0,0,0,0,0,0,0,0,0,-1,1518,1079,0,0
301,-55,0,0,0,0,0,0,0,0,0,-1,1525,1079,0,0
308,-55,0,0,0,0,0,0,0,0,0,-1,1532,1079,0,0
315,-55,0,0,0,0,0,0,0,0,0,-1,1539,1079,0,0
322,-55,0,0,0,0,0,0,0,0,0,-1,1546,1079,0,0
329,-55,0,0,0,0,0,0,0,0,0,-1,1553,1079,0,0
336,-55,0,0,0,0,0,0,0,0,0,-1,1560,1079,0,0
343,-55,0,0,0,0,0,0,0,0,0,-1,1567,1079,0,0
350,-55,0,0,0,0,0,0,0,0,0,-1,1574,1079,0,0
357,-55,0,0,0,0,0,0,0,0,0,-1,1581,1079,0,0
364,-55,0,0,0,0,0,0,0,0,0,-1,1588,1079,0,0
371,-55,0,0,0,0,0,0,0,0,0,-1,1595,1079,0,0
378,-55,0,0,0,0,0,0,0,0,0,-1,1602,1079,0,0
385,-55,0,0,0,0,0,0,0,0,0,-1,1609,1079,0,0
392,-55,0,0,0,0,0,0,0,0,0,-1,1616,1079,0,0
399,-55,0,0,0,0,0,0,0,0,0,-1,1623,1079,0,0
406,-55,0,0,0,0,0,0,0,0,0,-1,1630,1079,0,0
413,-55,0,0,0,0,0,0,0,0,0,-1,1637,1079,0,0
420,-55,0,0,0,0,0,0,0,0,0,-1,1644,1079,0,0
427,-55,0,0,0,0,0,0,0,0,0,-1,1651,1079,0,0
434,-55,0,0,0,0,0,0,0,0,0,-1,1658,1079,0,0
441,-55,0,0,0,0,0,0,0,0,0,-1,1665,1079,0,0
448,-55,0,0,0,0,0,0,0,0,0,-1,1672,1079,0,0
455,-55,0,0,0,0,0,0,0,0,0,-1,1679,1079,0,0
462,-55,0,0,0,0,0,0,0,0,0,-1,1686,1079,0,0
469,-55,0,0,0,0,0,0,0,0,0,-1,1693,1079,0,0
476,-55,0,0,0,0,0,0,0,0,0,-1,1700,1079,0,0
483,-55,0,0,0,0,0,0,0,0,0,-1,1707,1079,0,0
490,-55,0,0,0,0,0,0,0,0,0,-1,1714,1079,0,0
497,-55,0,0,0,0,0,0,0,0,0,-1,1721,1079,0,0
504,-55,0,0,0,0,0,0,0,0,0,-1,1728,1079,0,0
511,-55,0,0,0,0,0,0,0,0,0,-1,1735,1079,0,0
518,-55,0,0,0,0,0,0,0,0,0,-1,1742,1079,0,0
525,-55,0,0,0,0,0,0,0,0,0,-1,1749,1079,0,0
532,-55,0,0,0,0,0,0,0,0,0,-1,1756,1079,0,0
539,-55,0,0,0,0,0,0,0,0,0,-1,1763,1079,0,0
546,-55,0,0,0,0,0,0,0,0,0,-1,1770,1079,0,0
553,-55,0,0,0,0,0,0,0,0,0,-1,1777,1079,0,0
560,-55,0,0,0,0,0,0,0,0,0,-1,1784,1079,0,0
567,-55,0,0,0,0,0,0,0,0,0,-1,1791,1079,0,0
574,-55,0,0,0,0,0,0,0,0,0,-1,1798,1079,0,0
581,-55,0,0,0,0,0,0,0,0,0,-1,1805,1079,0,0
588,-55,0,0,0,0,0,0,0,0,0,-1,1812,1079,0,0
595,-55,0,0,0,0,0,0,0,0,0,-1,1819,1079,0,0
602,-55,0,0,0,0,0,0,0,0,0,-1,1826,1079,0,0
609,-55,0,0,0,0,0,0,0,0,0,-1,1833,1079,0,0
616,-55,0,0,0,0,0,0,0,0,0,-1,1840,1079,0,0
623,-55,0,0,0,0,0,0,0,0,0,-1,1847,1079,0,0
630,-55,0,0,0,0,0,0,0,0,0,-1,1854,1079,0,0
637,-55,0,0,0,0,0,0,0,0,0,-1,1861,1079,0,0
644,-55,0,0,0,0,0,0,0,0,0,-1,1868,1079,0,0
651,-55,60.7979,2.66455,-0.00284981,0.00201317,-0.000735114,0.00212186,-0.00295851,-1.424,0.00294638,0.032273,1875,1079,60.7979,-2.66451
658,-55,60.8875,2.80615,-0.00251613,0.00167621,-0.00121329,0.00200202,-0.00284194,-1.30845,0.00281064,0.0331608,1882,1079,60.8875,-2.80611
665,-55,60.6411,2.72363,-0.00203014,0.00136327,-0.00123319,0.00176408,-0.00243095,-1.25655,0.00243218,0.0384057,1889,1079,60.6411,-2.7236
672,-55,60.5328,2.75049,-0.00143168,0.00110503,-0.000962411,0.00142883,-0.00175548,-1.24625,0.00184169,0.0394831,1896,1079,60.5329,-2.75052
679,-55,60.5756,2.73096,-0.000867475,0.000881487,-0.000515025,0.00102188,-0.00100787,-1.30467,0.00117188,0.0381641,1903,1079,60.5755,-2.73099
686,-55,60.7334,2.61804,-0.000609793,0.000463317,0.000112011,0.000474884,-0.00062136,1.46789,0.000634797,0.0402047,1910,1079,60.7334,-2.61805
693,-55,60.8545,2.61084,-0.000460229,2.31691e-05,0.000727101,0.000547691,-0.000984751,0.94586,0.00089667,0.0390244,1917,1079,60.8545,-2.61087
700,-55,60.7936,2.59961,-0.000428375,-0.000283876,0.00130223,0.000948104,-0.00166035,0.813111,0.00152459,0.0333998,1924,1079,60.7936,-2.5996
707,-55,60.7755,2.64148,-0.000647719,-0.000345006,0.00175566,0.00126581,-0.00225853,0.828397,0.00206151,0.027073,1931,1079,60.7755,-2.64142
714,-55,60.7806,2.68872,0,0,0,0,0,0,0,-1,1938,1079,60.7807,-2.68873
721,-55,59.0815,2.79382,0,0,0,0,0,0,0,-1,1945,1079,59.0815,-2.79382
728,-55,59.2551,7.47485,0,0,0,0,0,0,0,-1,1952,1079,59.2551,-7.47486
735,-55,59.1337,7.14697,-0.00305421,0.001539,0.0031721,0.00315859,-0.0046738,1.09872,0.00455015,0.0219248,1959,1079,59.1336,-7.14697
742,-55,59.1312,6.83069,-0.00365878,0.00264122,0.00322619,0.00400019,-0.00501775,1.17212,0.00521755,0.020952,1966,1079,59.1312,-6.83071
749,-55,59.1371,6.49023,-0.00382302,0.00373747,0.00320584,0.0049138,-0.00499936,1.21912,0.00572344,0.0140191,1973,1079,59.1371,-6.49024
756,-55,59.0292,6.18848,-0.0033894,0.00544216,0.00263626,0.00616923,-0.00411648,1.30169,0.00597775,0.0121812,1980,1079,59.0292,-6.18846
763,-55,58.9846,5.91394,-0.00250834,0.00797386,0.00166318,0.00823142,-0.0027659,1.41715,0.00660551,0.0150918,1987,1079,58.9846,-5.91389
770,-55,58.9583,5.60559,-0.000113489,0.0111757,0.000200782,0.0111793,-0.000117059,1.55302,0.00749218,0.0170806,1994,1079,58.9582,-5.60561
777,-55,58.8372,5.30615,0.00436156,0.0147712,-0.00185327,0.0150913,0.00404146,-1.39976,0.0090207,0.0144531,2001,1079,58.8372,-5.30618
784,-55,58.677,5.01355,0.0107043,0.0184899,-0.00456369,0.0205955,0.00859866,-1.13851,0.0119447,0.028618,2008,1079,58.677,-5.01358
791,-55,58.5125,4.76392,0.0203616,0.0223817,-0.00839437,0.0298266,0.0129168,-0.845273,0.0172718,0.0422299,2015,1079,58.5125,-4.76387
798,-55,58.6609,4.64172,0,0,0,0,0,0,0,-1,2022,1079,58.661,-4.64166
805,-55,58.9114,3.96887,0,0,0,0,0,0,0,-1,2029,1079,58.9113,-3.96885
812,-55,59.0059,3.39343,0,0,0,0,0,0,0,-1,2036,1079,59.0059,-3.3934
-700,-62,-44.1301,-9.23608,0,0,0,0,0,0,0,-1,524,1086,-44.1301,9.2361
-693,-62,-44.0072,-8.18896,0,0,0,0,0,0,0,-1,531,1086,-44.0072,8.18901
-686,-62,-42.5605,-3.96973,0,0,0,0,0,0,0,-1,538,1086,-42.5604,3.96977
-679,-62,-43.0182,-3.18066,0,0,0,0,0,0,0,-1,545,1086,-43.0181,3.18071
-672,-62,-43.5469,-2.49121,0,0,0,0,0,0,0,-1,552,1086,-43.5469,2.49119
-665,-62,-43.8976,-1.50537,0,0,0,0,0,0,0,-1,559,1086,-43.8976,1.50542
-658,-62,-44.5681,-0.0220947,0,0,0,0,0,0,0,-1,566,1086,-44.5681,0.0220786
-651,-62,-44.2123,1.70752,0.00877495,0.0312648,0.0157762,0.0393935,0.000646226,1.09502,0.0260496,0.0424312,573,1086,-44.2123,-1.70749
-644,-62,-44.1485,2.55688,0.00595099,0.0242899,0.0107917,0.0292817,0.000959278,1.13755,0.0192093,0.0167709,580,1086,-44.1485,-2.55691
-637,-62,-44.1857,2.99207,0.0036813,0.0174232,0.0063041,0.0198771,0.00122747,1.1996,0.0128618,0.0147504,587,1086,-44.1857,-2.9921
-630,-62,-44.2457,3.37109,0.00218107,0.01148,0.00264297,0.0121787,0.00148238,1.31235,0.00767288,0.0159128,594,1086,-44.2457,-3.37115
-623,-62,-44.3265,3.80469,0.00143609,0.00713905,0.000148362,0.00714291,0.00143224,1.5448,0.00436359,0.0189679,601,1086,-44.3265,-3.80468
-616,-62,-44.3334,4.21069,0.00122367,0.00388364,-0.00147941,0.004543,0.000564308,-1.15153,0.00285919,0.0191816,608,1086,-44.3334,-4.21071
-609,-62,-44.272,4.55444,0.00134282,0.00127136,-0.00215794,0.00346533,-0.000851151,-0.77712,0.00264007,0.0185554,615,1086,-44.272,-4.55446
-602,-62,-44.1824,4.89783,0.0012703,-0.000556826,-0.00249842,0.00301695,-0.00230347,-0.610121,0.00308094,0.0163983,622,1086,-44.1824,-4.89786
-595,-62,-44.0654,5.30701,0.00101771,-0.00109795,-0.00253354,0.00270539,-0.00278563,-0.587635,0.00317036,0.0377017,629,1086,-44.0654,-5.30699
-588,-62,-43.9914,5.7384,0,0,0,0,0,0,0,-1,636,1086,-43.9914,-5.73842
-581,-62,-45.8861,1.02612,0,0,0,0,0,0,0,-1,643,1086,-45.8861,-1.02616
-574,-62,-45.9443,1.01367,0.00193567,-0.00129514,-0.000538936,0.0020232,-0.00138267,-0.161006,0.00197793,0.036993,650,1086,-45.9443,-1.01363
-567,-62,-46.0945,0.773315,0.00207099,-0.000881779,0.000391024,0.0021219,-0.000932683,0.129454,0.00180756,0.0389534,657,1086,-46.0945,-0.773368
-560,-62,-46.0861,0.88208,0.00215984,-0.000193032,0.00154796,0.00292768,-0.000960866,0.460466,0.00233882,0.0409031,664,1086,-46.086,-0.882097
-553,-62,-45.9371,1.04675,0.00240166,0.000702336,0.00304274,0.00471114,-0.00160715,0.649246,0.00379176,0.0379164,671,1086,-45.9371,-1.04678
-546,-62,-45.9539,0.885254,0.00329826,0.00164626,0.00487227,0.00741405,-0.00246953,0.701431,0.00593954,0.0319606,678,1086,-45.9539,-0.88521
-539,-62,-46.0369,1.02295,0.00571109,0.00213887,0.00665224,0.0108128,-0.00296287,0.654243,0.00837278,0.0368558,685,1086,-46.0368,-1.023
-532,-62,-46.0676,0.993286,0.00840725,0.00294487,0.00856039,0.0146616,-0.00330947,0.630978,0.0110441,0.040307,692,1086,-46.0675,-0.993226
-525,-62,0,0,0,0,0,0,0,0,0,-1,699,1086,0,0
-518,-62,0,0,0,0,0,0,0,0,0,-1,706,1086,0,0
-511,-62,0,0,0,0,0,0,0,0,0,-1,713,1086,0,0
-504,-62,0,0,0,0,0,0,0,0,0,-1,720,1086,0,0
-497,-62,0,0,0,0,0,0,0,0,0,-1,727,1086,0,0
-490,-62,0,0,0,0,0,0,0,0,0,-1,734,1086,0,0
-483,-62,0,0,0,0,0,0,0,0,0,-1,741,1086,0,0
-476,-62,0,0,0,0,0,0,0,0,0,-1,748,1086,0,0
-469,-62,0,0,0,0,0,0,0,0,0,-1,755,1086,0,0
-462,-62,0,0,0,0,0,0,0,0,0,-1,762,1086,0,0
-455,-62,0,0,0,0,0,0,0,0,0,-1,769,1086,0,0
-448,-62,0,0,0,0,0,0,0,0,0,-1,776,1086,0,0
-441,-62,0,0,0,0,0,0,0,0,0,-1,783,1086,0,0
-434,-62,0,0,0,0,0,0,0,0,0,-1,790,1086,0,0
-427,-62,0,0,0,0,0,0,0,0,0,-1,797,1086,0,0
-420,-62,0,0,0,0,0,0,0,0,0,-1,804,1086,0,0
-413,-62,0,0,0,0,0,0,0,0,0,-1,811,1086,0,0
-406,-62,0,0,0,0,0,0,0,0,0,-1,818,1086,0,0
-399,-62,0,0,0,0,0,0,0,0,0,-1,825,1086,0,0
-392,-62,0,0,0,0,0,0,0,0,0,-1,832,1086,0,0
-385,-62,0,0,0,0,0,0,0,0,0,-1,839,1086,0,0
-378,-62,0,0,0,0,0,0,0,0,0,-1,846,1086,0,0
-371,-62,0,0,0,0,0,0,0,0,0,-1,853,1086,0,0
-364,-62,0,0,0,0,0,0,0,0,0,-1,860,1086,0,0
-357,-62,0,0,0,0,0,0,0,0,0,-1,867,1086,0,0
-350,-62,0,0,0,0,0,0,0,0,0,-1,874,1086,0,0
-343,-62,0,0,0,0,0,0,0,0,0,-1,881,1086,0,0
-336,-62,0,0,0,0,0,0,0,0,0,-1,888,1086,0,0
-329,-62,0,0,0,0,0,0,0,0,0,-1,895,1086,0,0
-322,-62,0,0,0,0,0,0,0,0,0,-1,902,1086,0,0
-315,-62,0,0,0,0,0,0,0,0,0,-1,909,1086,0,0
-308,-62,0,0,0,0,0,0,0,0,0,-1,916,1086,0,0
-301,-62,0,0,0,0,0,0,0,0,0,-1,923,1086,0,0
-294,-62,0,0,0,0,0,0,0,0,0,-1,930,1086,0,0
-287,-62,0,0,0,0,0,0,0,0,0,-1,937,1086,0,0
-280,-62,0,0,0,0,0,0,0,0,0,-1,944,1086,0,0
-273,-62,0,0,0,0,0,0,0,0,0,-1,951,1086,0,0
-266,-62,0,0,0,0,0,0,0,0,0,-1,958,1086,0,0
-259,-62,0,0,0,0,0,0,0,0,0,-1,965,1086,0,0
-252,-62,0,0,0,0,0,0,0,0,0,-1,972,1086,0,0
-245,-62,0,0,0,0,0,0,0,0,0,-1,979,1086,0,0
-238,-62,0,0,0,0,0,0,0,0,0,-1,986,1086,0,0
-231,-62,0,0,0,0,0,0,0,0,0,-1,993,1086,0,0
-224,-62,0,0,0,0,0,0,0,0,0,-1,1000,1086,0,0
-217,-62,0,0,0,0,0,0,0,0,0,-1,1007,1086,0,0
-210,-62,0,0,0,0,0,0,0,0,0,-1,1014,1086,0,0
-203,-62,0,0,0,0,0,0,0,0,0,-1,1021,1086,0,0
-196,-62,0,0,0,0,0,0,0,0,0,-1,1028,1086,0,0
-189,-62,0,0,0,0,0,0,0,0,0,-1,1035,1086,0,0
-182,-62,0,0,0,0,0,0,0,0,0,-1,1042,1086,0,0
-175,-62,0,0,0,0,0,0,0,0,0,-1,1049,1086,0,0
-168,-62,0,0,0,0,0,0,0,0,0,-1,1056,1086,0,0
-161,-62,0,0,0,0,0,0,0,0,0,-1,1063,1086,0,0
-154,-62,0,0,0,0,0,0,0,0,0,-1,1070,1086,0,0
-147,-62,0,0,0,0,0,0,0,0,0,-1,1077,1086,0,0
-140,-62,0,0,0,0,0,0,0,0,0,-1,1084,1086,0,0
-133,-62,0,0,0,0,0,0,0,0,0,-1,1091,1086,0,0
-126,-62,0,0,0,0,0,0,0,0,0,-1,1098,1086,0,0
-119,-62,0,0,0,0,0,0,0,0,0,-1,1105,1086,0,0
-112,-62,0,0,0,0,0,0,0,0,0,-1,1112,1086,0,0
-105,-62,0,0,0,0,0,0,0,0,0,-1,1119,1086,0,0
-98,-62,0,0,0,0,0,0,0,0,0,-1,1126,1086,0,0
-91,-62,0,0,0,0,0,0,0,0,0,-1,1133,1086,0,0
-84,-62,0,0,0,0,0,0,0,0,0,-1,1140,1086,0,0
-77,-62,0,0,0,0,0,0,0,0,0,-1,1147,1086,0,0
-70,-62,0,0,0,0,0,0,0,0,0,-1,1154,1086,0,0
-63,-62,0,0,0,0,0,0,0,0,0,-1,1161,1086,0,0
-56,-62,0,0,0,0,0,0,0,0,0,-1,1168,1086,0,0
-49,-62,0,0,0,0,0,0,0,0,0,-1,1175,1086,0,0
-42,-62,0,0,0,0,0,0,0,0,0,-1,1182,1086,0,0
-35,-62,0,0,0,0,0,0,0,0,0,-1,1189,1086,0,0
-28,-62,0,0,0,0,0,0,0,0,0,-1,1196,1086,0,0
-21,-62,0,0,0,0,0,0,0,0,0,-1,1203,1086,0,0
-14,-62,0,0,0,0,0,0,0,0,0,-1,1210,1086,0,0
-7,-62,0,0,0,0,0,0,0,0,0,-1,1217,1086,0,0
0,-62,0,0,0,0,0,0,0,0,0,-1,1224,1086,0,0
7,-62,0,0,0,0,0,0,0,0,0,-1,1231,1086,0,0
14,-62,0,0,0,0,0,0,0,0,0,-1,1238,1086,0,0
21,-62,0,0,0,0,0,0,0,0,0,-1,1245,1086,0,0
28,-62,0,0,0,0,0,0,0,0,0,-1,1252,1086,0,0
35,-62,0,0,0,0,0,0,0,0,0,-1,1259,1086,0,0
42,-62,0,0,0,0,0,0,0,0,0,-1,1266,1086,0,0
49,-62,0,0,0,0,0,0,0,0,0,-1,1273,1086,0,0
56,-62,0,0,0,0,0,0,0,0,0,-1,1280,1086,0,0
63,-62,0,0,0,0,0,0,0,0,0,-1,1287,1086,0,0
70,-62,0,0,0,0,0,0,0,0,0,-1,1294,1086,0,0
77,-62,0,0,0,0,0,0,0,0,0,-1,1301,1086,0,0
84,-62,0,0,0,0,0,0,0,0,0,-1,1308,1086,0,0
91,-62,0,0,0,0,0,0,0,0,0,-1,1315,1086,0,0
98,-62,0,0,0,0,0,0,0,0,0,-1,1322,1086,0,0
105,-62,0,0,0,0,0,0,0,0,0,-1,1329,1086,0,0
112,-62,0,0,0,0,0,0,0,0,0,-1,1336,1086,0,0
119,-62,0,0,0,0,0,0,0,0,0,-1,1343,1086,0,0
126,-62,0,0,0,0,0,0,0,0,0,-1,1350,1086,0,0
133,-62,0,0,0,0,0,0,0,0,0,-1,1357,1086,0,0
140,-62,0,0,0,0,0,0,0,0,0,-1,1364,1086,0,0
147,-62,0,0,0,0,0,0,0,0,0,-1,1371,1086,0,0
154,-62,0,0,0,0,0,0,0,0,0,-1,1378,1086,0,0
161,-62,0,0,0,0,0,0,0,0,0,-1,1385,1086,0,0
168,-62,0,0,0,0,0,0,0,0,0,-1,1392,1086,0,0
175,-62,0,0,0,0,0,0,0,0,0,-1,1399,1086,0,0
182,-62,0,0,0,0,0,0,0,0,0,-1,1406,1086,0,0
189,-62,0,0,0,0,0,0,0,0,0,-1,1413,1086,0,0
196,-62,0,0,0,0,0,0,0,0,0,-1,1420,1086,0,0
203,-62,0,0,0,0,0,0,0,0,0,-1,1427,1086,0,0
210,-62,0,0,0,0,0,0,0,0,0,-1,1434,1086,0,0
217,-62,0,0,0,0,0,0,0,0,0,-1,1441,1086,0,0
224,-62,0,0,0,0,0,0,0,0,0,-1,1448,1086,0,0
231,-62,0,0,0,0,0,0,0,0,0,-1,1455,1086,0,0
238,-62,0,0,0,0,0,0,0,0,0,-1,1462,1086,0,0
245,-62,0,0,0,0,0,0,0,0,0,-1,1469,1086,0,0
252,-62,0,0,0,0,0,0,0,0,0,-1,1476,1086,0,0
259,-62,0,0,0,0,0,0,0,0,0,-1,1483,1086,0,0
266,-62,0,0,0,0,0,0,0,0,0,-1,1490,1086,0,0
273,-62,0,0,0,0,0,0,0,0,0,-1,1497,1086,0,0
280,-62,0,0,0,0,0,0,0,0,0,-1,1504,1086,0,0
287,-62,0,0,0,0,0,0,0,0,0,-1,1511,1086,0,0
294,-62,0,0,0,0,0,0,0,0,0,-1,1518,1086,0,0
301,-62,0,0,0,0,0,0,0,0,0,-1,1525,1086,0,0
308,-62,0,0,0,0,0,0,0,0,0,-1,1532,1086,0,0
315,-62,0,0,0,0,0,0,0,0,0,-1,1539,1086,0,0
322,-62,0,0,0,0,0,0,0,0,0,-1,1546,1086,0,0
329,-62,0,0,0,0,0,0,0,0,0,-1,1553,1086,0,0
336,-62,0,0,0,0,0,0,0,0,0,-1,1560,1086,0,0
343,-62,0,0,0,0,0,0,0,0,0,-1,1567,1086,0,0
350,-62,0,0,0,0,0,0,0,0,0,-1,1574,1086,0,0
357,-62,0,0,0,0,0,0,0,0,0,-1,1581,1086,0,0
364,-62,0,0,0,0,0,0,0,0,0,-1,1588,1086,0,0
371,-62,0,0,0,0,0,0,0,0,0,-1,1595,1086,0,0
378,-62,0,0,0,0,0,0,0,0,0,-1,1602,1086,0,0
385,-62,0,0,0,0,0,0,0,0,0,-1,1609,1086,0,0
392,-62,0,0,0,0,0,0,0,0,0,-1,1616,1086,0,0
399,-62,0,0,0,0,0,0,0,0,0,-1,1623,1086,0,0
406,-62,0,0,0,0,0,0,0,0,0,-1,1630,1086,0,0
413,-62,0,0,0,0,0,0,0,0,0,-1,1637,1086,0,0
420,-62,0,0,0,0,0,0,0,0,0,-1,1644,1086,0,0
427,-62,0,0,0,0,0,0,0,0,0,-1,1651,1086,0,0
434,-62,0,0,0,0,0,0,0,0,0,-1,1658,1086,0,0
441,-62,0,0,0,0,0,0,0,0,0,-1,1665,1086,0,0
448,-62,0,0,0,0,0,0,0,0,0,-1,1672,1086,0,0
455,-62,0,0,0,0,0,0,0,0,0,-1,1679,1086,0,0
462,-62,0,0,0,0,0,0,0,0,0,-1,1686,1086,0,0
469,-62,0,0,0,0,0,0,0,0,0,-1,1693,1086,0,0
476,-62,0,0,0,0,0,0,0,0,0,-1,1700,1086,0,0
483,-62,0,0,0,0,0,0,0,0,0,-1,1707,1086,0,0
490,-62,0,0,0,0,0,0,0,0,0,-1,1714,1086,0,0
497,-62,0,0,0,0,0,0,0,0,0,-1,1721,1086,0,0
504,-62,0,0,0,0,0,0,0,0,0,-1,1728,1086,0,0
511,-62,0,0,0,0,0,0,0,0,0,-1,1735,1086,0,0
518,-62,0,0,0,0,0,0,0,0,0,-1,1742,1086,0,0
525,-62,0,0,0,0,0,0,0,0,0,-1,1749,1086,0,0
532,-62,0,0,0,0,0,0,0,0,0,-1,1756,1086,0,0
539,-62,0,0,0,0,0,0,0,0,0,-1,1763,1086,0,0
546,-62,0,0,0,0,0,0,0,0,0,-1,1770,1086,0,0
553,-62,0,0,0,0,0,0,0,0,0,-1,1777,1086,0,0
560,-62,0,0,0,0,0,0,0,0,0,-1,1784,1086,0,0
567,-62,0,0,0,0,0,0,0,0,0,-1,1791,1086,0,0
574,-62,0,0,0,0,0,0,0,0,0,-1,1798,1086,0,0
581,-62,0,0,0,0,0,0,0,0,0,-1,1805,1086,0,0
588,-62,0,0,0,0,0,0,0,0,0,-1,1812,1086,0,0
595,-62,0,0,0,0,0,0,0,0,0,-1,1819,1086,0,0
602,-62,0,0,0,0,0,0,0,0,0,-1,1826,1086,0,0
609,-62,0,0,0,0,0,0,0,0,0,-1,1833,1086,0,0
616,-62,0,0,0,0,0,0,0,0,0,-1,1840,1086,0,0
623,-62,0,0,0,0,0,0,0,0,0,-1,1847,1086,0,0
630,-62,0,0,0,0,0,0,0,0,0,-1,1854,1086,0,0
637,-62,0,0,0,0,0,0,0,0,0,-1,1861,1086,0,0
644,-62,0,0,0,0,0,0,0,0,0,-1,1868,1086,0,0
651,-62,60.8602,2.26404,0,0,0,0,0,0,0,-1,1875,1086,60.8602,-2.264
658,-62,61.0662,2.69055,-0.00129903,0.00216955,-0.00132198,0.00261594,-0.00174543,-1.24514,0.00253471,0.0400279,1882,1086,61.0662,-2.69056
665,-62,60.8811,2.77722,-0.0010769,0.00162979,-0.0012879,0.00214466,-0.00159176,-1.19048,0.00216508,0.0389564,1889,1086,60.8811,-2.77717
672,-62,60.6252,2.92395,-0.000715196,0.00117934,-0.00100586,0.00161376,-0.00114962,-1.1631,0.00160292,0.0379806,1896,1086,60.6253,-2.92397
679,-62,60.5846,2.75574,-0.000394022,0.000781088,-0.000566708,0.00100985,-0.000622787,-1.18713,0.000951395,0.0385149,1903,1086,60.5846,-2.75571
686,-62,60.7496,2.62427,-0.000262826,0.000259667,5.02474e-05,0.000264455,-0.000267614,1.47579,0.000307192,0.0391626,1910,1086,60.7496,-2.62429
693,-62,60.8458,2.6333,-0.000164688,-0.000220565,0.000639882,0.000447865,-0.000833118,0.763581,0.000750642,0.0372592,1917,1086,60.8458,-2.63325
700,-62,60.7844,2.54285,-0.000170507,-0.000533521,0.00117906,0.000840937,-0.00154496,0.709027,0.00139735,0.0319069,1924,1086,60.7844,-2.5428
707,-62,60.7657,2.65796,-0.000359473,-0.00060225,0.00163219,0.00115584,-0.00211756,0.748281,0.00191689,0.0236784,1931,1086,60.7657,-2.65791
714,-62,60.7793,2.62817,-0.000676133,-0.00052063,0.00211872,0.00152176,-0.00271853,0.803739,0.00248042,0.0401651,1938,1086,60.7794,-2.62814
721,-62,60.8387,2.70618,0,0,0,0,0,0,0,-1,1945,1086,60.8388,-2.70617
728,-62,58.8749,7.59729,0,0,0,0,0,0,0,-1,1952,1086,58.8748,-7.59727
735,-62,58.8136,7.13928,-0.002568,0.00106263,0.00309324,0.00283388,-0.00433925,1.05075,0.0041717,0.0291095,1959,1086,58.8137,-7.1393
742,-62,58.7437,6.86523,-0.00313989,0.00211252,0.0032241,0.00364466,-0.00467203,1.12717,0.00481384,0.0283731,1966,1086,58.7436,-6.86526
749,-62,58.7136,6.49658,-0.0031653,0.00316777,0.00328936,0.00456707,-0.0045646,1.16859,0.00527217,0.0212599,1973,1086,58.7136,-6.49658
756,-62,58.6307,6.2251,-0.0025158,0.00471752,0.0028293,0.00569272,-0.003491,1.23887,0.00535277,0.0151892,1980,1086,58.6308,-6.22513
763,-62,58.6058,5.88757,-0.00143566,0.00687904,0.00213075,0.00739327,-0.00194989,1.33399,0.00569126,0.0175649,1987,1086,58.6059,-5.88753
770,-62,58.5774,5.52185,0.00128676,0.00957189,0.00106966,0.00970776,0.00115089,1.44445,0.00612436,0.014993,1994,1086,58.5774,-5.52188
777,-62,58.4199,5.1554,0.00614459,0.012405,-0.000360763,0.0124257,0.00612387,-1.51342,0.00717423,0.0157541,2001,1086,58.42,-5.15541
784,-62,58.2815,4.85754,0.0130331,0.0150762,-0.00218519,0.0164669,0.0116425,-1.00405,0.00977503,0.0271777,2008,1086,58.2814,-4.85756
791,-62,58.0425,4.63306,0.0235266,0.0173922,-0.00463701,0.0260191,0.0148998,-0.493202,0.0150749,0.042654,2015,1086,58.0424,-4.63303
798,-62,57.8445,4.37964,0,0,0,0,0,0,0,-1,2022,1086,57.8444,-4.37967
805,-62,59.0437,4.07068,0,0,0,0,0,0,0,-1,2029,1086,59.0438,-4.07067
812,-62,59.2446,3.5835,0,0,0,0,0,0,0,-1,2036,1086,59.2446,-3.58349
-700,-69,-47.1294,-1.07898,0,0,0,0,0,0,0,-1,524,1093,-47.1294,1.07898
-693,-69,-46.3602,-0.0546875,0,0,0,0,0,0,0,-1,531,1093,-46.3602,0.0546377
-686,-69,-45.6732,1.82446,0,0,0,0,0,0,0,-1,538,1093,-45.6732,-1.82445
-679,-69,-42.5013,-3.91858,0,0,0,0,0,0,0,-1,545,1093,-42.5013,3.9186
-672,-69,-43.2871,-3.2677,0,0,0,0,0,0,0,-1,552,1093,-43.2871,3.2677
-665,-69,-43.6052,-2.23682,0,0,0,0,0,0,0,-1,559,1093,-43.6052,2.23686
-658,-69,-43.8442,2.08447,0.00913861,0.0255398,0.0206001,0.0395116,-0.00483317,0.974825,0.028091,0.0476188,566,1093,-43.8442,-2.08452
-651,-69,-43.6823,2.13562,0.00627181,0.0215961,0.0146877,0.0305001,-0.00263218,1.02582,0.0212652,0.0365159,573,1093,-43.6823,-2.1356
-644,-69,-43.6846,2.53479,0.00420191,0.0174041,0.00985333,0.0226631,-0.00105713,1.08053,0.0154732,0.0113768,580,1093,-43.6847,-2.53477
-637,-69,-43.7239,2.97363,0.00258388,0.0129192,0.00558358,0.0153595,0.000143585,1.15876,0.0101922,0.0128627,587,1093,-43.7239,-2.97362
-630,-69,-43.7729,3.34888,0.00162188,0.00891957,0.0021033,0.00948237,0.00105908,1.30934,0.00599979,0.0165434,594,1093,-43.7729,-3.34883
-623,-69,-43.7817,3.7478,0.00117304,0.00567428,-0.000147166,0.00567908,0.00116823,-1.53815,0.00346296,0.0192371,601,1093,-43.7817,-3.74781
-616,-69,-43.7856,4.12549,0.00108007,0.00305843,-0.00154284,0.00390196,0.000236534,-1.07046,0.00252616,0.0221001,608,1093,-43.7856,-4.1255
-609,-69,-43.8013,4.51721,0.00129853,0.000693242,-0.00201258,0.00303109,-0.00103932,-0.710769,0.00244204,0.0191262,615,1093,-43.8013,-4.51721
-602,-69,-43.7585,4.94568,0.00129662,-0.000949041,-0.00223551,0.00267544,-0.00232786,-0.552667,0.00289098,0.020166,622,1093,-43.7585,-4.94568
-595,-69,-43.6514,5.30554,0.00103662,-0.0014102,-0.00226051,0.00238355,-0.00275713,-0.537364,0.00297058,0.0416204,629,1093,-43.6514,-5.3056
-588,-69,-43.6474,5.65906,0,0,0,0,0,0,0,-1,636,1093,-43.6474,-5.65901
-581,-69,-45.8582,0.939453,0,0,0,0,0,0,0,-1,643,1093,-45.8581,-0.939478
-574,-69,-45.9398,0.834106,0.00197122,-0.00161787,-0.000464524,0.00203037,-0.00167702,-0.126647,0.0021437,0.0343726,650,1093,-45.9397,-0.834094
-567,-69,-46.0129,0.897583,0.00213847,-0.00125918,0.000323468,0.00216899,-0.0012897,0.0940773,0.00201827,0.0390108,657,1093,-46.0129,-0.897629
-560,-69,-46.0702,1.01538,0.00229565,-0.000604898,0.00128997,0.00278633,-0.00109558,0.363483,0.002311,0.0427397,664,1093,-46.0702,-1.0154
-553,-69,-46.0163,1.08423,0.0025771,0.000329777,0.00253271,0.00422422,-0.00131734,0.576614,0.00334293,0.0427397,671,1093,-46.0163,-1.08424
-546,-69,-45.9052,0.669678,0.00360999,0.00148402,0.00405361,0.00673768,-0.00164366,0.65717,0.00512824,0.0364473,678,1093,-45.9052,-0.669731
-539,-69,-45.8956,0.831543,0.00658666,0.00246393,0.00555198,0.0104476,-0.00139701,0.607643,0.00747438,0.0383242,685,1093,-45.8956,-0.831509
-532,-69,-45.6617,1.15234,0.00982061,0.00377715,0.00721976,0.0146255,-0.00102773,0.587207,0.0101103,0.0425666,692,1093,-45.6617,-1.15239
-525,-69,0,0,0,0,0,0,0,0,0,-1,699,1093,0,0
-518,-69,0,0,0,0,0,0,0,0,0,-1,706,1093,0,0
-511,-69,0,0,0,0,0,0,0,0,0,-1,713,1093,0,0
-504,-69,0,0,0,0,0,0,0,0,0,-1,720,1093,0,0
-497,-69,0,0,0,0,0,0,0,0,0,-1,727,1093,0,0
-490,-69,0,0,0,0,0,0,0,0,0,-1,734,1093,0,0
-483,-69,0,0,0,0,0,0,0,0,0,-1,741,1093,0,0
-476,-69,0,0,0,0,0,0,0,0,0,-1,748,1093,0,0
-469,-69,0,0,0,0,0,0,0,0,0,-1,755,1093,0,0
-462,-69,0,0,0,0,0,0,0,0,0,-1,762,1093,0,0
-455,-69,0,0,0,0,0,0,0,0,0,-1,769,1093,0,0
-448,-69,0,0,0,0,0,0,0,0,0,-1,776,1093,0,0
-441,-69,0,0,0,0,0,0,0,0,0,-1,783,1093,0,0
-434,-69,0,0,0,0,0,0,0,0,0,-1,790,1093,0,0
-427,-69,0,0,0,0,0,0,0,0,0,-1,797,1093,0,0
-420,-69,0,0,0,0,0,0,0,0,0,-1,804,1093,0,0
-413,-69,0,0,0,0,0,0,0,0,0,-1,811,1093,0,0
-406,-69,0,0,0,0,0,0,0,0,0,-1,818,1093,0,0
-399,-69,0,0,0,0,0,0,0,0,0,-1,825,1093,0,0
-392,-69,0,0,0,0,0,0,0,0,0,-1,832,1093,0,0
-385,-69,0,0,0,0,0,0,0,0,0,-1,839,1093,0,0
-378,-69,0,0,0,0,0,0,0,0,0,-1,846,1093,0,0
-371,-69,0,0,0,0,0,0,0,0,0,-1,853,1093,0,0
-364,-69,0,0,0,0,0,0,0,0,0,-1,860,1093,0,0
-357,-69,0,0,0,0,0,0,0,0,0,-1,867,1093,0,0
-350,-69,0,0,0,0,0,0,0,0,0,-1,874,1093,0,0
-343,-69,0,0,0,0,0,0,0,0,0,-1,881,1093,0,0
-336,-69,0,0,0,0,0,0,0,0,0,-1,888,1093,0,0
-329,-69,0,0,0,0,0,0,0,0,0,-1,895,1093,0,0
-322,-69,0,0,0,0,0,0,0,0,0,-1,902,1093,0,0
-315,-69,0,0,0,0,0,0,0,0,0,-1,909,1093,0,0
-308,-69,0,0,0,0,0,0,0,0,0,-1,916,1093,0,0
-301,-69,0,0,0,0,0,0,0,0,0,-1,923,1093,0,0
-294,-69,0,0,0,0,0,0,0,0,0,-1,930,1093,0,0
-287,-69,0,0,0,0,0,0,0,0,0,-1,937,1093,0,0
-280,-69,0,0,0,0,0,0,0,0,0,-1,944,1093,0,0
-273,-69,0,0,0,0,0,0,0,0,0,-1,951,1093,0,0
-266,-69,0,0,0,0,0,0,0,0,0,-1,958,1093,0,0
-259,-69,0,0,0,0,0,0,0,0,0,-1,965,1093,0,0
-252,-69,0,0,0,0,0,0,0,0,0,-1,972,1093,0,0
-245,-69,0,0,0,0,0,0,0,0,0,-1,979,1093,0,0
-238,-69,0,0,0,0,0,0,0,0,0,-1,986,1093,0,0
-231,-69,0,0,0,0,0,0,0,0,0,-1,993,1093,0,0
-224,-69,0,0,0,0,0,0,0,0,0,-1,1000,1093,0,0
-217,-69,0,0,0,0,0,0,0,0,0,-1,1007,1093,0,0
-210,-69,0,0,0,0,0,0,0,0,0,-1,1014,1093,0,0
-203,-69,0,0,0,0,0,0,0,0,0,-1,1021,1093,0,0
-196,-69,0,0,0,0,0,0,0,0,0,-1,1028,1093,0,0
-189,-69,0,0,0,0,0,0,0,0,0,-1,1035,1093,0,0
-182,-69,0,0,0,0,0,0,0,0,0,-1,1042,1093,0,0
-175,-69,0,0,0,0,0,0,0,0,0,-1,1049,1093,0,0
-168,-69,0,0,0,0,0,0,0,0,0,-1,1056,1093,0,0
-161,-69,0,0,0,0,0,0,0,0,0,-1,1063,1093,0,0
-154,-69,0,0,0,0,0,0,0,0,0,-1,1070,1093,0,0
-147,-69,0,0,0,0,0,0,0,0,0,-1,1077,1093,0,0
-140,-69,0,0,0,0,0,0,0,0,0,-1,1084,1093,0,0
-133,-69,0,0,0,0,0,0,0,0,0,-1,1091,1093,0,0
-126,-69,0,0,0,0,0,0,0,0,0,-1,1098,1093,0,0
-119,-69,0,0,0,0,0,0,0,0,0,-1,1105,1093,0,0
-112,-69,0,0,0,0,0,0,0,0,0,-1,1112,1093,0,0
-105,-69,0,0,0,0,0,0,0,0,0,-1,1119,1093,0,0
-98,-69,0,0,0,0,0,0,0,0,0,-1,1126,1093,0,0
-91,-69,0,0,0,0,0,0,0,0,0,-1,1133,1093,0,0
-84,-69,0,0,0,0,0,0,0,0,0,-1,1140,1093,0,0
-77,-69,0,0,0,0,0,0,0,0,0,-1,1147,1093,0,0
-70,-69,0,0,0,0,0,0,0,0,0,-1,1154,1093,0,0
-63,-69,0,0,0,0,0,0,0,0,0,-1,1161,1093,0,0
-56,-69,0,0,0,0,0,0,0,0,0,-1,1168,1093,0,0
-49,-69,0,0,0,0,0,0,0,0,0,-1,1175,1093,0,0
-42,-69,0,0,0,0,0,0,0,0,0,-1,1182,1093,0,0
-35,-69,0,0,0,0,0,0,0,0,0,-1,1189,1093,0,0
-28,-69,0,0,0,0,0,0,0,0,0,-1,1196,1093,0,0
-21,-69,0,0,0,0,0,0,0,0,0,-1,1203,1093,0,0
-14,-69,0,0,0,0,0,0,0,0,0,-1,1210,1093,0,0
-7,-69,0,0,0,0,0,0,0,0,0,-1,1217,1093,0,0
0,-69,0,0,0,0,0,0,0,0,0,-1,1224,1093,0,0
7,-69,0,0,0,0,0,0,0,0,0,-1,1231,1093,0,0
14,-69,0,0,0,0,0,0,0,0,0,-1,1238,1093,0,0
21,-69,0,0,0,0,0,0,0,0,0,-1,1245,1093,0,0
28,-69,0,0,0,0,0,0,0,0,0,-1,1252,1093,0,0
35,-69,0,0,0,0,0,0,0,0,0,-1,1259,1093,0,0
42,-69,0,0,0,0,0,0,0,0,0,-1,1266,1093,0,0
49,-69,0,0,0,0,0,0,0,0,0,-1,1273,1093,0,0
56,-69,0,0,0,0,0,0,0,0,0,-1,1280,1093,0,0
63,-69,0,0,0,0,0,0,0,0,0,-1,1287,1093,0,0
70,-69,0,0,0,0,0,0,0,0,0,-1,1294,1093,0,0
77,-69,0,0,0,0,0,0,0,0,0,-1,1301,1093,0,0
84,-69,0,0,0,0,0,0,0,0,0,-1,1308,1093,0,0
91,-69,0,0,0,0,0,0,0,0,0,-1,1315,1093,0,0
98,-69,0,0,0,0,0,0,0,0,0,-1,1322,1093,0,0
105,-69,0,0,0,0,0,0,0,0,0,-1,1329,1093,0,0
112,-69,0,0,0,0,0,0,0,0,0,-1,1336,1093,0,0
119,-69,0,0,0,0,0,0,0,0,0,-1,1343,1093,0,0
126,-69,0,0,0,0,0,0,0,0,0,-1,1350,1093,0,0
133,-69,0,0,0,0,0,0,0,0,0,-1,1357,1093,0,0
140,-69,0,0,0,0,0,0,0,0,0,-1,1364,1093,0,0
147,-69,0,0,0,0,0,0,0,0,0,-1,1371,1093,0,0
154,-69,0,0,0,0,0,0,0,0,0,-1,1378,1093,0,0
161,-69,0,0,0,0,0,0,0,0,0,-1,1385,1093,0,0
168,-69,0,0,0,0,0,0,0,0,0,-1,1392,1093,0,0
175,-69,0,0,0,0,0,0,0,0,0,-1,1399,1093,0,0
182,-69,0,0,0,0,0,0,0,0,0,-1,1406,1093,0,0
189,-69,0,0,0,0,0,0,0,0,0,-1,1413,1093,0,0
196,-69,0,0,0,0,0,0,0,0,0,-1,1420,1093,0,0
203,-69,0,0,0,0,0,0,0,0,0,-1,1427,1093,0,0
210,-69,0,0,0,0,0,0,0,0,0,-1,1434,1093,0,0
217,-69,0,0,0,0,0,0,0,0,0,-1,1441,1093,0,0
224,-69,0,0,0,0,0,0,0,0,0,-1,1448,1093,0,0
231,-69,0,0,0,0,0,0,0,0,0,-1,1455,1093,0,0
238,-69,0,0,0,0,0,0,0,0,0,-1,1462,1093,0,0
245,-69,0,0,0,0,0,0,0,0,0,-1,1469,1093,0,0
252,-69,0,0,0,0,0,0,0,0,0,-1,1476,1093,0,0
259,-69,0,0,0,0,0,0,0,0,0,-1,1483,1093,0,0
266,-69,0,0,0,0,0,0,0,0,0,-1,1490,1093,0,0
273,-69,0,0,0,0,0,0,0,0,0,-1,1497,1093,0,0
280,-69,0,0,0,0,0,0,0,0,0,-1,1504,1093,0,0
287,-69,0,0,0,0,0,0,0,0,0,-1,1511,1093,0,0
294,-69,0,0,0,0,0,0,0,0,0,-1,1518,1093,0,0
301,-69,0,0,0,0,0,0,0,0,0,-1,1525,1093,0,0
308,-69,0,0,0,0,0,0,0,0,0,-1,1532,1093,0,0
315,-69,0,0,0,0,0,0,0,0,0,-1,1539,1093,0,0
322,-69,0,0,0,0,0,0,0,0,0,-1,1546,1093,0,0
329,-69,0,0,0,0,0,0,0,0,0,-1,1553,1093,0,0
336,-69,0,0,0,0,0,0,0,0,0,-1,1560,1093,0,0
343,-69,0,0,0,0,0,0,0,0,0,-1,1567,1093,0,0
350,-69,0,0,0,0,0,0,0,0,0,-1,1574,1093,0,0
357,-69,0,0,0,0,0,0,0,0,0,-1,1581,1093,0,0
364,-69,0,0,0,0,0,0,0,0,0,-1,1588,1093,0,0
371,-69,0,0,0,0,0,0,0,0,0,-1,1595,1093,0,0
378,-69,0,0,0,0,0,0,0,0,0,-1,1602,1093,0,0
385,-69,0,0,0,0,0,0,0,0,0,-1,1609,1093,0,0
392,-69,0,0,0,0,0,0,0,0,0,-1,1616,1093,0,0
399,-69,0,0,0,0,0,0,0,0,0,-1,1623,1093,0,0
406,-69,0,0,0,0,0,0,0,0,0,-1,1630,1093,0,0
413,-69,0,0,0,0,0,0,0,0,0,-1,1637,1093,0,0
420,-69,0,0,0,0,0,0,0,0,0,-1,1644,1093,0,0
427,-69,0,0,0,0,0,0,0,0,0,-1,1651,1093,0,0
434,-69,0,0,0,0,0,0,0,0,0,-1,1658,1093,0,0
441,-69,0,0,0,0,0,0,0,0,0,-1,1665,1093,0,0
448,-69,0,0,0,0,0,0,0,0,0,-1,1672,1093,0,0
455,-69,0,0,0,0,0,0,0,0,0,-1,1679,1093,0,0
462,-69,0,0,0,0,0,0,0,0,0,-1,1686,1093,0,0
469,-69,0,0,0,0,0,0,0,0,0,-1,1693,1093,0,0
476,-69,0,0,0,0,0,0,0,0,0,-1,1700,1093,0,0
483,-69,0,0,0,0,0,0,0,0,0,-1,1707,1093,0,0
490,-69,0,0,0,0,0,0,0,0,0,-1,1714,1093,0,0
497,-69,0,0,0,0,0,0,0,0,0,-1,1721,1093,0,0
504,-69,0,0,0,0,0,0,0,0,0,-1,1728,1093,0,0
511,-69,0,0,0,0,0,0,0,0,0,-1,1735,1093,0,0
518,-69,0,0,0,0,0,0,0,0,0,-1,1742,1093,0,0
525,-69,0,0,0,0,0,0,0,0,0,-1,1749,1093,0,0
532,-69,0,0,0,0,0,0,0,0,0,-1,1756,1093,0,0
539,-69,0,0,0,0,0,0,0,0,0,-1,1763,1093,0,0
546,-69,0,0,0,0,0,0,0,0,0,-1,1770,1093,0,0
553,-69,0,0,0,0,0,0,0,0,0,-1,1777,1093,0,0
560,-69,0,0,0,0,0,0,0,0,0,-1,1784,1093,0,0
567,-69,0,0,0,0,0,0,0,0,0,-1,1791,1093,0,0
574,-69,0,0,0,0,0,0,0,0,0,-1,1798,1093,0,0
581,-69,0,0,0,0,0,0,0,0,0,-1,1805,1093,0,0
588,-69,0,0,0,0,0,0,0,0,0,-1,1812,1093,0,0
595,-69,0,0,0,0,0,0,0,0,0,-1,1819,1093,0,0
602,-69,0,0,0,0,0,0,0,0,0,-1,1826,1093,0,0
609,-69,0,0,0,0,0,0,0,0,0,-1,1833,1093,0,0
616,-69,0,0,0,0,0,0,0,0,0,-1,1840,1093,0,0
623,-69,0,0,0,0,0,0,0,0,0,-1,1847,1093,0,0
630,-69,0,0,0,0,0,0,0,0,0,-1,1854,1093,0,0
637,-69,0,0,0,0,0,0,0,0,0,-1,1861,1093,0,0
644,-69,0,0,0,0,0,0,0,0,0,-1,1868,1093,0,0
651,-69,60.6447,2.48816,0,0,0,0,0,0,0,-1,1875,1093,60.6447,-2.4881
658,-69,60.3984,2.96594,0,0,0,0,0,0,0,-1,1882,1093,60.3984,-2.96598
665,-69,60.8162,2.92883,0.000150321,0.0015879,-0.00124762,0.00230897,-0.000570754,-1.04674,0.00176068,0.0439238,1889,1093,60.8162,-2.92883
672,-69,60.5968,2.90649,0.000188052,0.00113119,-0.00092463,0.00169756,-0.000378317,-1.02121,0.00127664,0.0391435,1896,1093,60.5968,-2.90649
679,-69,60.6665,2.64099,0.000192177,0.000713988,-0.00049597,0.00101349,-0.000107326,-1.02753,0.00071413,0.0383404,1903,1093,60.6665,-2.64097
686,-69,60.7788,2.53748,0.000155692,0.000179882,9.32218e-05,0.00026179,7.3784e-05,0.849909,0.000155866,0.0378905,1910,1093,60.7788,-2.53742
693,-69,60.7725,2.54956,0.000174652,-0.000304171,0.000629869,0.000609075,-0.000738595,0.603782,0.000779274,0.0343272,1917,1093,60.7725,-2.54959
700,-69,60.74,2.54871,0.000109251,-0.000615999,0.00111007,0.000914424,-0.00142117,0.627528,0.001359,0.0283031,1924,1093,60.74,-2.54869
707,-69,60.7444,2.59985,-8.86831e-05,-0.000685765,0.00152682,0.00116851,-0.00194295,0.68885,0.00181486,0.0227156,1931,1093,60.7443,-2.59987
714,-69,60.782,2.58179,-0.000393462,-0.000611968,0.0020042,0.00150446,-0.00250989,0.758169,0.00234179,0.0331317,1938,1093,60.782,-2.5818
721,-69,60.8186,2.61096,0,0,0,0,0,0,0,-1,1945,1093,60.8186,-2.61096
728,-69,58.0857,7.73755,0,0,0,0,0,0,0,-1,1952,1093,58.0856,-7.73752
735,-69,58.4182,7.30591,-0.00220269,0.000758383,0.00291115,0.00254386,-0.00398816,1.02064,0.00380187,0.0405361,1959,1093,58.4182,-7.30586
742,-69,58.3402,7.01062,-0.00273863,0.00173434,0.00307055,0.00329655,-0.00430085,1.10015,0.00439912,0.0310101,1966,1093,58.3402,-7.01064
749,-69,58.1482,6.57739,-0.00267445,0.00273768,0.00318308,0.00420951,-0.00414627,1.13769,0.00482426,0.0319189,1973,1093,58.1482,-6.57736
756,-69,58.2213,6.22168,-0.00183572,0.00424019,0.00272101,0.0052806,-0.00287613,1.20559,0.004777,0.0169883,1980,1093,58.2214,-6.22168
763,-69,58.1869,5.85498,-0.000452607,0.00633706,0.00199863,0.0068817,-0.000997244,1.30475,0.00495379,0.0191462,1987,1093,58.1869,-5.85497
770,-69,58.1064,5.51538,0.00277425,0.00898062,0.000876541,0.00910204,0.00265283,1.43315,0.00540528,0.0210228,1994,1093,58.1065,-5.51542
777,-69,57.9836,5.17432,0.00831209,0.0118101,-0.000670699,0.0119343,0.0081879,-1.38771,0.00704754,0.0252128,2001,1093,57.9836,-5.17429
784,-69,57.9702,4.75867,0.0161658,0.0145667,-0.00267124,0.0181546,0.0125779,-0.639981,0.0107382,0.0338751,2008,1093,57.9703,-4.75861
791,-69,58.2415,3.89819,0.0280059,0.0171387,-0.00538323,0.030221,0.0149236,-0.390371,0.0174486,0.0424489,2015,1093,58.2414,-3.89819
798,-69,58.4783,3.18933,0.0457672,0.0194144,-0.00927113,0.048702,0.0164795,-0.306574,0.0286036,0.0436279,2022,1093,58.4782,-3.18938
805,-69,58.6707,2.53638,0,0,0,0,0,0,0,-1,2029,1093,58.6706,-2.53635
812,-69,58.8489,1.86914,0,0,0,0,0,0,0,-1,2036,1093,58.8489,-1.86914
-700,-76,0,0,0,0,0,0,0,0,0,-1,524,1100,0,0
-693,-76,-44.7328,0.166992,0,0,0,0,0,0,0,-1,531,1100,-44.7328,-0.166934
-686,-76,-44.3602,1.22437,0,0,0,0,0,0,0,-1,538,1100,-44.3602,-1.22434
-679,-76,-44.0884,1.12866,0,0,0,0,0,0,0,-1,545,1100,-44.0884,-1.12871
-672,-76,-42.9365,1.4259,0,0,0,0,0,0,0,-1,552,1100,-42.9365,-1.42595
-665,-76,-43.1459,1.48303,0.0100013,0.0118292,0.0267324,0.0376633,-0.0158328,0.802487,0.0317316,0.0455856,559,1100,-43.1459,-1.48302
-658,-76,-43.3722,1.47803,0.00703895,0.0127064,0.0195077,0.0295851,-0.00983978,0.857524,0.0236944,0.0458804,566,1100,-43.3722,-1.47807
-651,-76,-43.1283,2.01221,0.00462046,0.0123942,0.0136054,0.022657,-0.0056424,0.924534,0.0172951,0.0319128,573,1100,-43.1283,-2.01222
-644,-76,-43.1377,2.49768,0.0029612,0.0110614,0.00890404,0.0167932,-0.00277059,0.998842,0.0122241,0.0120757,580,1100,-43.1377,-2.49771
-637,-76,-43.2318,2.89844,0.00158113,0.00902831,0.00482203,0.0113971,-0.00078766,1.11418,0.00787377,0.0151594,587,1100,-43.2318,-2.8984
-630,-76,-43.283,3.30042,0.0010248,0.00693031,0.00150395,0.00729126,0.000663855,1.33525,0.00465536,0.0165363,594,1100,-43.2829,-3.30039
-623,-76,-43.3226,3.71313,0.000810177,0.004619,-0.000509794,0.00468605,0.000743124,-1.44002,0.00290815,0.0198648,601,1100,-43.3226,-3.71315
-616,-76,-43.3742,4.16199,0.000836752,0.00253431,-0.00169264,0.00357907,-0.000208001,-1.0178,0.00245831,0.019618,608,1100,-43.3742,-4.16204
-609,-76,-43.3799,4.58777,0.0011491,0.000404656,-0.00194356,0.00275576,-0.001202,-0.690786,0.00234297,0.019371,615,1100,-43.3799,-4.5878
-602,-76,-43.3088,5.00305,0.00122649,-0.00105389,-0.00203208,0.00241641,-0.00224381,-0.529737,0.00269119,0.0210813,622,1100,-43.3088,-5.00311
-595,-76,-43.2832,5.3562,0.000968213,-0.0014616,-0.00202696,0.00211647,-0.00260986,-0.515418,0.0027337,0.0386231,629,1100,-43.2832,-5.35618
-588,-76,-43.3287,5.69226,0,0,0,0,0,0,0,-1,636,1100,-43.3287,-5.6923
-581,-76,-45.8237,0.800781,0,0,0,0,0,0,0,-1,643,1100,-45.8237,-0.800752
-574,-76,-45.8834,0.647827,0.00196629,-0.00172768,-0.000557444,0.00204858,-0.00180997,-0.14656,0.00222915,0.0347525,650,1100,-45.8834,-0.647829
-567,-76,-45.8885,0.711304,0.00218637,-0.00143304,4.57354e-05,0.00218695,-0.00143362,0.0126335,0.00210536,0.0416071,657,1100,-45.8885,-0.711304
-560,-76,-46.0462,1.03149,0.00241597,-0.000843445,0.000763141,0.0025858,-0.00101327,0.218971,0.00214302,0.0458335,664,1100,-46.0462,-1.03145
-553,-76,-46.1092,0.938721,0,0,0,0,0,0,0,-1,671,1100,-46.1092,-0.93866
-546,-76,-45.8819,0.434326,0,0,0,0,0,0,0,-1,678,1100,-45.8819,-0.434372
-539,-76,-45.842,0.777588,0.00708206,0.0026634,0.00368518,0.00916944,0.000576026,0.515366,0.00593028,0.0411612,685,1100,-45.842,-0.777566
-532,-76,-45.5266,1.13916,0.0105784,0.00426643,0.00472372,0.0131034,0.0017414,0.490898,0.00821687,0.0432433,692,1100,-45.5266,-1.13911
-525,-76,0,0,0,0,0,0,0,0,0,-1,699,1100,0,0
-518,-76,0,0,0,0,0,0,0,0,0,-1,706,1100,0,0
-511,-76,0,0,0,0,0,0,0,0,0,-1,713,1100,0,0
-504,-76,0,0,0,0,0,0,0,0,0,-1,720,1100,0,0
-497,-76,0,0,0,0,0,0,0,0,0,-1,727,1100,0,0
-490,-76,0,0,0,0,0,0,0,0,0,-1,734,1100,0,0
-483,-76,0,0,0,0,0,0,0,0,0,-1,741,1100,0,0
-476,-76,0,0,0,0,0,0,0,0,0,-1,748,1100,0,0
-469,-76,0,0,0,0,0,0,0,0,0,-1,755,1100,0,0
-462,-76,0,0,0,0,0,0,0,0,0,-1,762,1100,0,0
-455,-76,0,0,0,0,0,0,0,0,0,-1,769,1100,0,0
-448,-76,0,0,0,0,0,0,0,0,0,-1,776,1100,0,0
-441,-76,0,0,0,0,0,0,0,0,0,-1,783,1100,0,0
-434,-76,0,0,0,0,0,0,0,0,0,-1,790,1100,0,0
-427,-76,0,0,0,0,0,0,0,0,0,-1,797,1100,0,0
-420,-76,0,0,0,0,0,0,0,0,0,-1,804,1100,0,0
-413,-76,0,0,0,0,0,0,0,0,0,-1,811,1100,0,0
-406,-76,0,0,0,0,0,0,0,0,0,-1,818,1100,0,0
-399,-76,0,0,0,0,0,0,0,0,0,-1,825,1100,0,0
-392,-76,0,0,0,0,0,0,0,0,0,-1,832,1100,0,0
-385,-76,0,0,0,0,0,0,0,0,0,-1,839,1100,0,0
-378,-76,0,0,0,0,0,0,0,0,0,-1,846,1100,0,0
-371,-76,0,0,0,0,0,0,0,0,0,-1,853,1100,0,0
-364,-76,0,0,0,0,0,0,0,0,0,-1,860,1100,0,0
-357,-76,0,0,0,0,0,0,0,0,0,-1,867,1100,0,0
-350,-76,0,0,0,0,0,0,0,0,0,-1,874,1100,0,0
-343,-76,0,0,0,0,0,0,0,0,0,-1,881,1100,0,0
-336,-76,0,0,0,0,0,0,0,0,0,-1,888,1100,0,0
-329,-76,0,0,0,0,0,0,0,0,0,-1,895,1100,0,0
-322,-76,0,0,0,0,0,0,0,0,0,-1,902,1100,0,0
-315,-76,0,0,0,0,0,0,0,0,0,-1,909,1100,0,0
-308,-76,0,0,0,0,0,0,0,0,0,-1,916,1100,0,0
-301,-76,0,0,0,0,0,0,0,0,0,-1,923,1100,0,0
-294,-76,0,0,0,0,0,0,0,0,0,-1,930,1100,0,0
-287,-76,0,0,0,0,0,0,0,0,0,-1,937,1100,0,0
-280,-76,0,0,0,0,0,0,0,0,0,-1,944,1100,0,0
-273,-76,0,0,0,0,0,0,0,0,0,-1,951,1100,0,0
-266,-76,0,0,0,0,0,0,0,0,0,-1,958,1100,0,0
-259,-76,0,0,0,0,0,0,0,0,0,-1,965,1100,0,0
-252,-76,0,0,0,0,0,0,0,0,0,-1,972,1100,0,0
-245,-76,0,0,0,0,0,0,0,0,0,-1,979,1100,0,0
-238,-76,0,0,0,0,0,0,0,0,0,-1,986,1100,0,0
-231,-76,0,0,0,0,0,0,0,0,0,-1,993,1100,0,0
-224,-76,0,0,0,0,0,0,0,0,0,-1,1000,1100,0,0
-217,-76,0,0,0,0,0,0,0,0,0,-1,1007,1100,0,0
-210,-76,0,0,0,0,0,0,0,0,0,-1,1014,1100,0,0
-203,-76,0,0,0,0,0,0,0,0,0,-1,1021,1100,0,0
-196,-76,0,0,0,0,0,0,0,0,0,-1,1028,1100,0,0
-189,-76,0,0,0,0,0,0,0,0,0,-1,1035,1100,0,0
-182,-76,0,0,0,0,0,0,0,0,0,-1,1042,1100,0,0
-175,-76,0,0,0,0,0,0,0,0,0,-1,1049,1100,0,0
-168,-76,0,0,0,0,0,0,0,0,0,-1,1056,1100,0,0
-161,-76,0,0,0,0,0,0,0,0,0,-1,1063,1100,0,0
-154,-76,0,0,0,0,0,0,0,0,0,-1,1070,1100,0,0
-147,-76,0,0,0,0,0,0,0,0,0,-1,1077,1100,0,0
-140,-76,0,0,0,0,0,0,0,0,0,-1,1084,1100,0,0
-133,-76,0,0,0,0,0,0,0,0,0,-1,1091,1100,0,0
-126,-76,0,0,0,0,0,0,0,0,0,-1,1098,1100,0,0
-119,-76,0,0,0,0,0,0,0,0,0,-1,1105,1100,0,0
-112,-76,0,0,0,0,0,0,0,0,0,-1,1112,1100,0,0
-105,-76,0,0,0,0,0,0,0,0,0,-1,1119,1100,0,0
-98,-76,0,0,0,0,0,0,0,0,0,-1,1126,1100,0,0
-91,-76,0,0,0,0,0,0,0,0,0,-1,1133,1100,0,0
-84,-76,0,0,0,0,0,0,0,0,0,-1,1140,1100,0,0
-77,-76,0,0,0,0,0,0,0,0,0,-1,1147,1100,0,0
-70,-76,0,0,0,0,0,0,0,0,0,-1,1154,1100,0,0
-63,-76,0,0,0,0,0,0,0,0,0,-1,1161,1100,0,0
-56,-76,0,0,0,0,0,0,0,0,0,-1,1168,1100,0,0
-49,-76,0,0,0,0,0,0,0,0,0,-1,1175,1100,0,0
-42,-76,0,0,0,0,0,0,0,0,0,-1,1182,1100,0,0
-35,-76,0,0,0,0,0,0,0,0,0,-1,1189,1100,0,0
-28,-76,0,0,0,0,0,0,0,0,0,-1,1196,1100,0,0
-21,-76,0,0,0,0,0,0,0,0,0,-1,1203,1100,0,0
-14,-76,0,0,0,0,0,0,0,0,0,-1,1210,1100,0,0
-7,-76,0,0,0,0,0,0,0,0,0,-1,1217,1100,0,0
0,-76,0,0,0,0,0,0,0,0,0,-1,1224,1100,0,0
7,-76,0,0,0,0,0,0,0,0,0,-1,1231,1100,0,0
14,-76,0,0,0,0,0,0,0,0,0,-1,1238,1100,0,0
21,-76,0,0,0,0,0,0,0,0,0,-1,1245,1100,0,0
28,-76,0,0,0,0,0,0,0,0,0,-1,1252,1100,0,0
35,-76,0,0,0,0,0,0,0,0,0,-1,1259,1100,0,0
42,-76,0,0,0,0,0,0,0,0,0,-1,1266,1100,0,0
49,-76,0,0,0,0,0,0,0,0,0,-1,1273,1100,0,0
56,-76,0,0,0,0,0,0,0,0,0,-1,1280,1100,0,0
63,-76,0,0,0,0,0,0,0,0,0,-1,1287,1100,0,0
70,-76,0,0,0,0,0,0,0,0,0,-1,1294,1100,0,0
77,-76,0,0,0,0,0,0,0,0,0,-1,1301,1100,0,0
84,-76,0,0,0,0,0,0,0,0,0,-1,1308,1100,0,0
91,-76,0,0,0,0,0,0,0,0,0,-1,1315,1100,0,0
98,-76,0,0,0,0,0,0,0,0,0,-1,1322,1100,0,0
105,-76,0,0,0,0,0,0,0,0,0,-1,1329,1100,0,0
112,-76,0,0,0,0,0,0,0,0,0,-1,1336,1100,0,0
119,-76,0,0,0,0,0,0,0,0,0,-1,1343,1100,0,0
126,-76,0,0,0,0,0,0,0,0,0,-1,1350,1100,0,0
133,-76,0,0,0,0,0,0,0,0,0,-1,1357,1100,0,0
140,-76,0,0,0,0,0,0,0,0,0,-1,1364,1100,0,0
147,-76,0,0,0,0,0,0,0,0,0,-1,1371,1100,0,0
154,-76,0,0,0,0,0,0,0,0,0,-1,1378,1100,0,0
161,-76,0,0,0,0,0,0,0,0,0,-1,1385,1100,0,0
168,-76,0,0,0,0,0,0,0,0,0,-1,1392,1100,0,0
175,-76,0,0,0,0,0,0,0,0,0,-1,1399,1100,0,0
182,-76,0,0,0,0,0,0,0,0,0,-1,1406,1100,0,0
189,-76,0,0,0,0,0,0,0,0,0,-1,1413,1100,0,0
196,-76,0,0,0,0,0,0,0,0,0,-1,1420,1100,0,0
203,-76,0,0,0,0,0,0,0,0,0,-1,1427,1100,0,0
210,-76,0,0,0,0,0,0,0,0,0,-1,1434,1100,0,0
217,-76,0,0,0,0,0,0,0,0,0,-1,1441,1100,0,0
224,-76,0,0,0,0,0,0,0,0,0,-1,1448,1100,0,0
231,-76,0,0,0,0,0,0,0,0,0,-1,1455,1100,0,0
238,-76,0,0,0,0,0,0,0,0,0,-1,1462,1100,0,0
245,-76,0,0,0,0,0,0,0,0,0,-1,1469,1100,0,0
252,-76,0,0,0,0,0,0,0,0,0,-1,1476,1100,0,0
259,-76,0,0,0,0,0,0,0,0,0,-1,1483,1100,0,0
266,-76,0,0,0,0,0,0,0,0,0,-1,1490,1100,0,0
273,-76,0,0,0,0,0,0,0,0,0,-1,1497,1100,0,0
280,-76,0,0,0,0,0,0,0,0,0,-1,1504,1100,0,0
287,-76,0,0,0,0,0,0,0,0,0,-1,1511,1100,0,0
294,-76,0,0,0,0,0,0,0,0,0,-1,1518,1100,0,0
301,-76,0,0,0,0,0,0,0,0,0,-1,1525,1100,0,0
308,-76,0,0,0,0,0,0,0,0,0,-1,1532,1100,0,0
315,-76,0,0,0,0,0,0,0,0,0,-1,1539,1100,0,0
322,-76,0,0,0,0,0,0,0,0,0,-1,1546,1100,0,0
329,-76,0,0,0,0,0,0,0,0,0,-1,1553,1100,0,0
336,-76,0,0,0,0,0,0,0,0,0,-1,1560,1100,0,0
343,-76,0,0,0,0,0,0,0,0,0,-1,1567,1100,0,0
350,-76,0,0,0,0,0,0,0,0,0,-1,1574,1100,0,0
357,-76,0,0,0,0,0,0,0,0,0,-1,1581,1100,0,0
364,-76,0,0,0,0,0,0,0,0,0,-1,1588,1100,0,0
371,-76,0,0,0,0,0,0,0,0,0,-1,1595,1100,0,0
378,-76,0,0,0,0,0,0,0,0,0,-1,1602,1100,0,0
385,-76,0,0,0,0,0,0,0,0,0,-1,1609,1100,0,0
392,-76,0,0,0,0,0,0,0,0,0,-1,1616,1100,0,0
399,-76,0,0,0,0,0,0,0,0,0,-1,1623,1100,0,0
406,-76,0,0,0,0,0,0,0,0,0,-1,1630,1100,0,0
413,-76,0,0,0,0,0,0,0,0,0,-1,1637,1100,0,0
420,-76,0,0,0,0,0,0,0,0,0,-1,1644,1100,0,0
427,-76,0,0,0,0,0,0,0,0,0,-1,1651,1100,0,0
434,-76,0,0,0,0,0,0,0,0,0,-1,1658,1100,0,0
441,-76,0,0,0,0,0,0,0,0,0,-1,1665,1100,0,0
448,-76,0,0,0,0,0,0,0,0,0,-1,1672,1100,0,0
455,-76,0,0,0,0,0,0,0,0,0,-1,1679,1100,0,0
462,-76,0,0,0,0,0,0,0,0,0,-1,1686,1100,0,0
469,-76,0,0,0,0,0,0,0,0,0,-1,1693,1100,0,0
476,-76,0,0,0,0,0,0,0,0,0,-1,1700,1100,0,0
483,-76,0,0,0,0,0,0,0,0,0,-1,1707,1100,0,0
490,-76,0,0,0,0,0,0,0,0,0,-1,1714,1100,0,0
497,-76,0,0,0,0,0,0,0,0,0,-1,1721,1100,0,0
504,-76,0,0,0,0,0,0,0,0,0,-1,1728,1100,0,0
511,-76,0,0,0,0,0,0,0,0,0,-1,1735,1100,0,0
518,-76,0,0,0,0,0,0,0,0,0,-1,1742,1100,0,0
525,-76,0,0,0,0,0,0,0,0,0,-1,1749,1100,0,0
532,-76,0,0,0,0,0,0,0,0,0,-1,1756,1100,0,0
539,-76,0,0,0,0,0,0,0,0,0,-1,1763,1100,0,0
546,-76,0,0,0,0,0,0,0,0,0,-1,1770,1100,0,0
553,-76,0,0,0,0,0,0,0,0,0,-1,1777,1100,0,0
560,-76,0,0,0,0,0,0,0,0,0,-1,1784,1100,0,0
567,-76,0,0,0,0,0,0,0,0,0,-1,1791,1100,0,0
574,-76,0,0,0,0,0,0,0,0,0,-1,1798,1100,0,0
581,-76,0,0,0,0,0,0,0,0,0,-1,1805,1100,0,0
588,-76,0,0,0,0,0,0,0,0,0,-1,1812,1100,0,0
595,-76,0,0,0,0,0,0,0,0,0,-1,1819,1100,0,0
602,-76,0,0,0,0,0,0,0,0,0,-1,1826,1100,0,0
609,-76,0,0,0,0,0,0,0,0,0,-1,1833,1100,0,0
616,-76,0,0,0,0,0,0,0,0,0,-1,1840,1100,0,0
623,-76,0,0,0,0,0,0,0,0,0,-1,1847,1100,0,0
630,-76,0,0,0,0,0,0,0,0,0,-1,1854,1100,0,0
637,-76,0,0,0,0,0,0,0,0,0,-1,1861,1100,0,0
644,-76,0,0,0,0,0,0,0,0,0,-1,1868,1100,0,0
651,-76,60.6128,2.60376,0.00253753,0.00252073,-0.00175531,0.00428446,0.000773803,-0.783005,0.0026365,0.0414651,1875,1100,60.6128,-2.60381
658,-76,60.547,2.59888,0.0017637,0.00199073,-0.00162173,0.00350291,0.000251517,-0.82034,0.00225611,0.0413402,1882,1100,60.547,-2.59883
665,-76,60.7231,2.57458,0.00129836,0.00150217,-0.00129483,0.0026991,0.00010143,-0.824667,0.00176656,0.0399233,1889,1100,60.7231,-2.57456
672,-76,60.7006,2.64124,0.00103239,0.00104277,-0.000878166,0.00191576,0.000159394,-0.788353,0.00122749,0.0401433,1896,1100,60.7006,-2.64118
679,-76,60.7411,2.55042,0.000735836,0.000617138,-0.000429294,0.00110986,0.00024311,-0.716709,0.000673657,0.0387523,1903,1100,60.7411,-2.55036
686,-76,60.8093,2.58447,0.000563583,9.02662e-05,0.000132186,0.000597997,5.58519e-05,0.254693,0.000381413,0.036596,1910,1100,60.8093,-2.58449
693,-76,60.765,2.55334,0.000522527,-0.000358539,0.000610677,0.000834985,-0.000670997,0.472931,0.000871196,0.0371414,1917,1100,60.7651,-2.5534
700,-76,60.7252,2.6156,0.000418964,-0.000632379,0.00102803,0.00104792,-0.00126134,0.549059,0.00133515,0.0319746,1924,1100,60.7252,-2.61566
707,-76,60.7383,2.66772,0.000213182,-0.000690807,0.00139495,0.00122754,-0.00170516,0.628724,0.00170066,0.0238291,1931,1100,60.7382,-2.66772
714,-76,60.7865,2.67737,0,0,0,0,0,0,0,-1,1938,1100,60.7864,-2.67743
721,-76,45.1713,3.04919,0,0,0,0,0,0,0,-1,1945,1100,45.1713,-3.04915
728,-76,57.1201,7.78137,0,0,0,0,0,0,0,-1,1952,1100,57.1201,-7.78143
735,-76,57.5942,7.49036,-0.00177459,0.000608451,0.00265446,0.00232655,-0.00349269,0.996357,0.00338215,0.0468941,1959,1100,57.5942,-7.49031
742,-76,57.8568,7.08643,-0.0022607,0.00151848,0.00284219,0.00304189,-0.00378411,1.07876,0.00394875,0.0316094,1966,1100,57.8568,-7.08645
749,-76,57.7295,6.60535,-0.00214961,0.00249688,0.00299274,0.00396229,-0.00361502,1.11546,0.0043763,0.0303353,1973,1100,57.7295,-6.60533
756,-76,57.7871,6.22058,-0.00116082,0.00397833,0.00253876,0.00502096,-0.00220345,1.18111,0.00427544,0.0166645,1980,1100,57.7872,-6.22054
763,-76,57.7711,5.8219,0.000551454,0.00605608,0.00181638,0.00660142,6.12135e-06,1.27913,0.0043989,0.0185586,1987,1100,57.7711,-5.82188
770,-76,57.6658,5.49744,0.00426775,0.00870399,0.000676692,0.00880492,0.00416683,1.42274,0.00508595,0.0205771,1994,1100,57.6657,-5.49749
777,-76,57.5398,5.2179,0.0104202,0.0115751,-0.000929076,0.0120915,0.00990371,-1.06346,0.00743977,0.0231829,2001,1100,57.5398,-5.2179
784,-76,57.624,4.51355,0.0191762,0.0144827,-0.00305759,0.0206838,0.0129751,-0.458088,0.0120701,0.0309893,2008,1100,57.6241,-4.51351
791,-76,57.8354,3.6189,0.0323211,0.0173821,-0.00598567,0.0344236,0.0152797,-0.337781,0.0199161,0.0391624,2015,1100,57.8354,-3.61892
798,-76,57.4458,3.11987,0.0518441,0.0202547,-0.0102119,0.0548578,0.017241,-0.286969,0.0323922,0.0404086,2022,1100,57.4459,-3.11989
805,-76,57.4805,4.18445,0,0,0,0,0,0,0,-1,2029,1100,57.4804,-4.18443
812,-76,57.9219,3.05261,0,0,0,0,0,0,0,-1,2036,1100,57.9219,-3.05258
-700,-83,0,0,0,0,0,0,0,0,0,-1,524,1107,0,0
-693,-83,-43.3744,0.283203,0,0,0,0,0,0,0,-1,531,1107,-43.3744,-0.283245
-686,-83,-40.9184,-3.56543,0,0,0,0,0,0,0,-1,538,1107,-40.9184,3.56547
-679,-83,-41.231,-2.31665,0,0,0,0,0,0,0,-1,545,1107,-41.2311,2.31664
-672,-83,-42.7469,1.05554,0,0,0,0,0,0,0,-1,552,1107,-42.7469,-1.05551
-665,-83,-42.9203,1.19238,0.00963302,-0.00543749,0.0259966,0.0291644,-0.0249689,0.644336,0.0312852,0.042498,559,1107,-42.9203,-1.19232
-658,-83,-43.037,1.24768,0.00661556,-0.000162433,0.0186713,0.0222029,-0.0157498,0.695621,0.0220173,0.0433595,566,1107,-43.037,-1.24766
-651,-83,-42.7164,1.83643,0.00419554,0.00315878,0.0127491,0.0164368,-0.00908244,0.765079,0.0149361,0.0344378,573,1107,-42.7164,-1.83644
-644,-83,-42.6333,2.41565,0.00257042,0.00467702,0.00812849,0.0118202,-0.00457273,0.84983,0.0097679,0.0183783,580,1107,-42.6333,-2.41569
-637,-83,-42.7387,2.8429,0.00115399,0.0050417,0.00415349,0.0076837,-0.00148801,1.00426,0.00568377,0.0134961,587,1107,-42.7387,-2.84288
-630,-83,-42.7867,3.30334,0.000659522,0.00485411,0.000943683,0.00505664,0.000456995,1.35939,0.00322956,0.0180699,594,1107,-42.7867,-3.30331
-623,-83,-42.8582,3.71606,0.000488241,0.00350568,-0.000891223,0.00374925,0.000244673,-1.30401,0.00242207,0.0188803,601,1107,-42.8582,-3.71602
-616,-83,-42.9412,4.17053,0.000571947,0.00191851,-0.00188992,0.0032515,-0.000761038,-0.956514,0.00246089,0.0164403,608,1107,-42.9412,-4.17054
-609,-83,-42.9063,4.59692,0.000907773,1.08675e-05,-0.00194529,0.00245563,-0.00153699,-0.672111,0.00232539,0.0202127,615,1107,-42.9063,-4.59692
-602,-83,-42.8923,5.0603,0.00100277,-0.00124838,-0.00191689,0.00210012,-0.00234572,-0.519926,0.00256811,0.0194035,622,1107,-42.8923,-5.06026
-595,-83,-42.8148,5.4585,0.000722309,-0.00169835,-0.00188682,0.00175363,-0.00272967,-0.500222,0.0026088,0.0281431,629,1107,-42.8148,-5.45848
-588,-83,-42.8514,5.74329,0,0,0,0,0,0,0,-1,636,1107,-42.8514,-5.74334
-581,-83,-45.853,0.83606,0,0,0,0,0,0,0,-1,643,1107,-45.8531,-0.836029
-574,-83,-45.768,0.695313,0.00175502,-0.00221332,-0.000798571,0.00190969,-0.00236799,-0.191317,0.00247444,0.0362088,650,1107,-45.768,-0.695301
-567,-83,-45.8661,0.85437,0.00202875,-0.00203978,-0.00037789,0.00206355,-0.00207458,-0.0918346,0.00238915,0.0423628,657,1107,-45.8662,-0.854315
-560,-83,-45.695,0.997803,0.00232806,-0.00157314,8.86942e-05,0.00233007,-0.00157516,0.0227195,0.00226868,0.0445955,664,1107,-45.695,-0.997824
-553,-83,-45.6958,1.04944,0,0,0,0,0,0,0,-1,671,1107,-45.6958,-1.0494
-546,-83,-45.822,1.12195,0.00378379,0.000561366,0.00119336,0.0041776,0.000167557,0.318748,0.00273093,0.0440057,678,1107,-45.822,-1.12199
-539,-83,-45.8901,0.875854,0.00734377,0.00212945,0.00147677,0.00773297,0.00174025,0.257685,0.00468425,0.0436791,685,1107,-45.8901,-0.875912
-532,-83,-45.8174,1.01453,0.0110987,0.00391361,0.00176256,0.0115078,0.00350453,0.228055,0.00681115,0.0456693,692,1107,-45.8174,-1.01458
-525,-83,0,0,0,0,0,0,0,0,0,-1,699,1107,0,0
-518,-83,0,0,0,0,0,0,0,0,0,-1,706,1107,0,0
-511,-83,0,0,0,0,0,0,0,0,0,-1,713,1107,0,0
-504,-83,0,0,0,0,0,0,0,0,0,-1,720,1107,0,0
-497,-83,0,0,0,0,0,0,0,0,0,-1,727,1107,0,0
-490,-83,0,0,0,0,0,0,0,0,0,-1,734,1107,0,0
-483,-83,0,0,0,0,0,0,0,0,0,-1,741,1107,0,0
-476,-83,0,0,0,0,0,0,0,0,0,-1,748,1107,0,0
-469,-83,0,0,0,0,0,0,0,0,0,-1,755,1107,0,0
-462,-83,0,0,0,0,0,0,0,0,0,-1,762,1107,0,0
-455,-83,0,0,0,0,0,0,0,0,0,-1,769,1107,0,0
-448,-83,0,0,0,0,0,0,0,0,0,-1,776,1107,0,0
-441,-83,0,0,0,0,0,0,0,0,0,-1,783,1107,0,0
-434,-83,0,0,0,0,0,0,0,0,0,-1,790,1107,0,0
-427,-83,0,0,0,0,0,0,0,0,0,-1,797,1107,0,0
-420,-83,0,0,0,0,0,0,0,0,0,-1,804,1107,0,0
-413,-83,0,0,0,0,0,0,0,0,0,-1,811,1107,0,0
-406,-83,0,0,0,0,0,0,0,0,0,-1,818,1107,0,0
-399,-83,0,0,0,0,0,0,0,0,0,-1,825,1107,0,0
-392,-83,0,0,0,0,0,0,0,0,0,-1,832,1107,0,0
-385,-83,0,0,0,0,0,0,0,0,0,-1,839,1107,0,0
-378,-83,0,0,0,0,0,0,0,0,0,-1,846,1107,0,0
-371,-83,0,0,0,0,0,0,0,0,0,-1,853,1107,0,0
-364,-83,0,0,0,0,0,0,0,0,0,-1,860,1107,0,0
-357,-83,0,0,0,0,0,0,0,0,0,-1,867,1107,0,0
-350,-83,0,0,0,0,0,0,0,0,0,-1,874,1107,0,0
-343,-83,0,0,0,0,0,0,0,0,0,-1,881,1107,0,0
-336,-83,0,0,0,0,0,0,0,0,0,-1,888,1107,0,0
-329,-83,0,0,0,0,0,0,0,0,0,-1,895,1107,0,0
-322,-83,0,0,0,0,0,0,0,0,0,-1,902,1107,0,0
-315,-83,0,0,0,0,0,0,0,0,0,-1,909,1107,0,0
-308,-83,0,0,0,0,0,0,0,0,0,-1,916,1107,0,0
-301,-83,0,0,0,0,0,0,0,0,0,-1,923,1107,0,0
-294,-83,0,0,0,0,0,0,0,0,0,-1,930,1107,0,0
-287,-83,0,0,0,0,0,0,0,0,0,-1,937,1107,0,0
-280,-83,0,0,0,0,0,0,0,0,0,-1,944,1107,0,0
-273,-83,0,0,0,0,0,0,0,0,0,-1,951,1107,0,0
-266,-83,0,0,0,0,0,0,0,0,0,-1,958,1107,0,0
-259,-83,0,0,0,0,0,0,0,0,0,-1,965,1107,0,0
-252,-83,0,0,0,0,0,0,0,0,0,-1,972,1107,0,0
-245,-83,0,0,0,0,0,0,0,0,0,-1,979,1107,0,0
-238,-83,0,0,0,0,0,0,0,0,0,-1,986,1107,0,0
-231,-83,0,0,0,0,0,0,0,0,0,-1,993,1107,0,0
-224,-83,0,0,0,0,0,0,0,0,0,-1,1000,1107,0,0
-217,-83,0,0,0,0,0,0,0,0,0,-1,1007,1107,0,0
-210,-83,0,0,0,0,0,0,0,0,0,-1,1014,1107,0,0
-203,-83,0,0,0,0,0,0,0,0,0,-1,1021,1107,0,0
-196,-83,0,0,0,0,0,0,0,0,0,-1,1028,1107,0,0
-189,-83,0,0,0,0,0,0,0,0,0,-1,1035,1107,0,0
-182,-83,0,0,0,0,0,0,0,0,0,-1,1042,1107,0,0
-175,-83,0,0,0,0,0,0,0,0,0,-1,1049,1107,0,0
-168,-83,0,0,0,0,0,0,0,0,0,-1,1056,1107,0,0
-161,-83,0,0,0,0,0,0,0,0,0,-1,1063,1107,0,0
-154,-83,0,0,0,0,0,0,0,0,0,-1,1070,1107,0,0
-147,-83,0,0,0,0,0,0,0,0,0,-1,1077,1107,0,0
-140,-83,0,0,0,0,0,0,0,0,0,-1,1084,1107,0,0
-133,-83,0,0,0,0,0,0,0,0,0,-1,1091,1107,0,0
-126,-83,0,0,0,0,0,0,0,0,0,-1,1098,1107,0,0
-119,-83,0,0,0,0,0,0,0,0,0,-1,1105,1107,0,0
-112,-83,0,0,0,0,0,0,0,0,0,-1,1112,1107,0,0
-105,-83,0,0,0,0,0,0,0,0,0,-1,1119,1107,0,0
-98,-83,0,0,0,0,0,0,0,0,0,-1,1126,1107,0,0
-91,-83,0,0,0,0,0,0,0,0,0,-1,1133,1107,0,0
-84,-83,0,0,0,0,0,0,0,0,0,-1,1140,1107,0,0
-77,-83,0,0,0,0,0,0,0,0,0,-1,1147,1107,0,0
-70,-83,0,0,0,0,0,0,0,0,0,-1,1154,1107,0,0
-63,-83,0,0,0,0,0,0,0,0,0,-1,1161,1107,0,0
-56,-83,0,0,0,0,0,0,0,0,0,-1,1168,1107,0,0
-49,-83,0,0,0,0,0,0,0,0,0,-1,1175,1107,0,0
-42,-83,0,0,0,0,0,0,0,0,0,-1,1182,1107,0,0
-35,-83,0,0,0,0,0,0,0,0,0,-1,1189,1107,0,0
-28,-83,0,0,0,0,0,0,0,0,0,-1,1196,1107,0,0
-21,-83,0,0,0,0,0,0,0,0,0,-1,1203,1107,0,0
-14,-83,0,0,0,0,0,0,0,0,0,-1,1210,1107,0,0
-7,-83,0,0,0,0,0,0,0,0,0,-1,1217,1107,0,0
0,-83,0,0,0,0,0,0,0,0,0,-1,1224,1107,0,0
7,-83,0,0,0,0,0,0,0,0,0,-1,1231,1107,0,0
14,-83,0,0,0,0,0,0,0,0,0,-1,1238,1107,0,0
21,-83,0,0,0,0,0,0,0,0,0,-1,1245,1107,0,0
28,-83,0,0,0,0,0,0,0,0,0,-1,1252,1107,0,0
35,-83,0,0,0,0,0,0,0,0,0,-1,1259,1107,0,0
42,-83,0,0,0,0,0,0,0,0,0,-1,1266,1107,0,0
49,-83,0,0,0,0,0,0,0,0,0,-1,1273,1107,0,0
56,-83,0,0,0,0,0,0,0,0,0,-1,1280,1107,0,0
63,-83,0,0,0,0,0,0,0,0,0,-1,1287,1107,0,0
70,-83,0,0,0,0,0,0,0,0,0,-1,1294,1107,0,0
77,-83,0,0,0,0,0,0,0,0,0,-1,1301,1107,0,0
84,-83,0,0,0,0,0,0,0,0,0,-1,1308,1107,0,0
91,-83,0,0,0,0,0,0,0,0,0,-1,1315,1107,0,0
98,-83,0,0,0,0,0,0,0,0,0,-1,1322,1107,0,0
105,-83,0,0,0,0,0,0,0,0,0,-1,1329,1107,0,0
112,-83,0,0,0,0,0,0,0,0,0,-1,1336,1107,0,0
119,-83,0,0,0,0,0,0,0,0,0,-1,1343,1107,0,0
126,-83,0,0,0,0,0,0,0,0,0,-1,1350,1107,0,0
133,-83,0,0,0,0,0,0,0,0,0,-1,1357,1107,0,0
140,-83,0,0,0,0,0,0,0,0,0,-1,1364,1107,0,0
147,-83,0,0,0,0,0,0,0,0,0,-1,1371,1107,0,0
154,-83,0,0,0,0,0,0,0,0,0,-1,1378,1107,0,0
161,-83,0,0,0,0,0,0,0,0,0,-1,1385,1107,0,0
168,-83,0,0,0,0,0,0,0,0,0,-1,1392,1107,0,0
175,-83,0,0,0,0,0,0,0,0,0,-1,1399,1107,0,0
182,-83,0,0,0,0,0,0,0,0,0,-1,1406,1107,0,0
189,-83,0,0,0,0,0,0,0,0,0,-1,1413,1107,0,0
196,-83,0,0,0,0,0,0,0,0,0,-1,1420,1107,0,0
203,-83,0,0,0,0,0,0,0,0,0,-1,1427,1107,0,0
210,-83,0,0,0,0,0,0,0,0,0,-1,1434,1107,0,0
217,-83,0,0,0,0,0,0,0,0,0,-1,1441,1107,0,0
224,-83,0,0,0,0,0,0,0,0,0,-1,1448,1107,0,0
231,-83,0,0,0,0,0,0,0,0,0,-1,1455,1107,0,0
238,-83,0,0,0,0,0,0,0,0,0,-1,1462,1107,0,0
245,-83,0,0,0,0,0,0,0,0,0,-1,1469,1107,0,0
252,-83,0,0,0,0,0,0,0,0,0,-1,1476,1107,0,0
259,-83,0,0,0,0,0,0,0,0,0,-1,1483,1107,0,0
266,-83,0,0,0,0,0,0,0,0,0,-1,1490,1107,0,0
273,-83,0,0,0,0,0,0,0,0,0,-1,1497,1107,0,0
280,-83,0,0,0,0,0,0,0,0,0,-1,1504,1107,0,0
287,-83,0,0,0,0,0,0,0,0,0,-1,1511,1107,0,0
294,-83,0,0,0,0,0,0,0,0,0,-1,1518,1107,0,0
301,-83,0,0,0,0,0,0,0,0,0,-1,1525,1107,0,0
308,-83,0,0,0,0,0,0,0,0,0,-1,1532,1107,0,0
315,-83,0,0,0,0,0,0,0,0,0,-1,1539,1107,0,0
322,-83,0,0,0,0,0,0,0,0,0,-1,1546,1107,0,0
329,-83,0,0,0,0,0,0,0,0,0,-1,1553,1107,0,0
336,-83,0,0,0,0,0,0,0,0,0,-1,1560,1107,0,0
343,-83,0,0,0,0,0,0,0,0,0,-1,1567,1107,0,0
350,-83,0,0,0,0,0,0,0,0,0,-1,1574,1107,0,0
357,-83,0,0,0,0,0,0,0,0,0,-1,1581,1107,0,0
364,-83,0,0,0,0,0,0,0,0,0,-1,1588,1107,0,0
371,-83,0,0,0,0,0,0,0,0,0,-1,1595,1107,0,0
378,-83,0,0,0,0,0,0,0,0,0,-1,1602,1107,0,0
385,-83,0,0,0,0,0,0,0,0,0,-1,1609,1107,0,0
392,-83,0,0,0,0,0,0,0,0,0,-1,1616,1107,0,0
399,-83,0,0,0,0,0,0,0,0,0,-1,1623,1107,0,0
406,-83,0,0,0,0,0,0,0,0,0,-1,1630,1107,0,0
413,-83,0,0,0,0,0,0,0,0,0,-1,1637,1107,0,0
420,-83,0,0,0,0,0,0,0,0,0,-1,1644,1107,0,0
427,-83,0,0,0,0,0,0,0,0,0,-1,1651,1107,0,0
434,-83,0,0,0,0,0,0,0,0,0,-1,1658,1107,0,0
441,-83,0,0,0,0,0,0,0,0,0,-1,1665,1107,0,0
448,-83,0,0,0,0,0,0,0,0,0,-1,1672,1107,0,0
455,-83,0,0,0,0,0,0,0,0,0,-1,1679,1107,0,0
462,-83,0,0,0,0,0,0,0,0,0,-1,1686,1107,0,0
469,-83,0,0,0,0,0,0,0,0,0,-1,1693,1107,0,0
476,-83,0,0,0,0,0,0,0,0,0,-1,1700,1107,0,0
483,-83,0,0,0,0,0,0,0,0,0,-1,1707,1107,0,0
490,-83,0,0,0,0,0,0,0,0,0,-1,1714,1107,0,0
497,-83,0,0,0,0,0,0,0,0,0,-1,1721,1107,0,0
504,-83,0,0,0,0,0,0,0,0,0,-1,1728,1107,0,0
511,-83,0,0,0,0,0,0,0,0,0,-1,1735,1107,0,0
518,-83,0,0,0,0,0,0,0,0,0,-1,1742,1107,0,0
525,-83,0,0,0,0,0,0,0,0,0,-1,1749,1107,0,0
532,-83,0,0,0,0,0,0,0,0,0,-1,1756,1107,0,0
539,-83,0,0,0,0,0,0,0,0,0,-1,1763,1107,0,0
546,-83,0,0,0,0,0,0,0,0,0,-1,1770,1107,0,0
553,-83,0,0,0,0,0,0,0,0,0,-1,1777,1107,0,0
560,-83,0,0,0,0,0,0,0,0,0,-1,1784,1107,0,0
567,-83,0,0,0,0,0,0,0,0,0,-1,1791,1107,0,0
574,-83,0,0,0,0,0,0,0,0,0,-1,1798,1107,0,0
581,-83,0,0,0,0,0,0,0,0,0,-1,1805,1107,0,0
588,-83,0,0,0,0,0,0,0,0,0,-1,1812,1107,0,0
595,-83,0,0,0,0,0,0,0,0,0,-1,1819,1107,0,0
602,-83,0,0,0,0,0,0,0,0,0,-1,1826,1107,0,0
609,-83,0,0,0,0,0,0,0,0,0,-1,1833,1107,0,0
616,-83,0,0,0,0,0,0,0,0,0,-1,1840,1107,0,0
623,-83,0,0,0,0,0,0,0,0,0,-1,1847,1107,0,0
630,-83,0,0,0,0,0,0,0,0,0,-1,1854,1107,0,0
637,-83,0,0,0,0,0,0,0,0,0,-1,1861,1107,0,0
644,-83,60.6661,2.62671,0.00553796,0.00288459,-0.00276761,0.00728043,0.00114212,-0.561897,0.00452126,0.0341265,1868,1107,60.6661,-2.62673
651,-83,60.6766,2.58008,0.00391535,0.00238752,-0.00233302,0.00560633,0.000696536,-0.627182,0.00352837,0.0392534,1875,1107,60.6767,-2.58005
658,-83,60.7678,2.38562,0.00288837,0.00176845,-0.00190102,0.00431019,0.00034664,-0.64217,0.00276516,0.0430514,1882,1107,60.7678,-2.38558
665,-83,60.7198,2.13794,0,0,0,0,0,0,0,-1,1889,1107,60.7199,-2.13792
672,-83,60.6343,2.48083,0.0016484,0.000676988,-0.000844748,0.00213712,0.000188266,-0.524492,0.00136632,0.038331,1896,1107,60.6343,-2.48086
679,-83,60.771,2.61255,0.00105744,0.000202668,-0.000350073,0.00118251,7.75953e-05,-0.343141,0.00076379,0.038238,1903,1107,60.771,-2.61251
686,-83,60.7921,2.49951,0.0007247,-0.000317595,0.000180939,0.000755217,-0.000348112,0.167086,0.000651301,0.0343412,1910,1107,60.7921,-2.49948
693,-83,60.7599,2.55786,0.000590844,-0.000703396,0.00059732,0.00082438,-0.000936932,0.372701,0.00101759,0.0360854,1917,1107,60.7599,-2.55781
700,-83,60.7407,2.66675,0.000434827,-0.000900693,0.000962042,0.000938147,-0.00140401,0.482018,0.00136113,0.032515,1924,1107,60.7407,-2.66679
707,-83,60.729,2.68872,0.000208965,-0.000918618,0.00129006,0.00105305,-0.0017627,0.579391,0.00164279,0.0238994,1931,1107,60.729,-2.68876
714,-83,60.7521,2.65442,0,0,0,0,0,0,0,-1,1938,1107,60.7521,-2.65445
721,-83,49.1162,7.36719,0,0,0,0,0,0,0,-1,1945,1107,49.1162,-7.36721
728,-83,56.9426,7.85437,0,0,0,0,0,0,0,-1,1952,1107,56.9426,-7.85433
735,-83,57.1039,7.48669,-0.00162211,0.000401713,0.00238927,0.00198452,-0.00320492,0.985708,0.00302361,0.0456726,1959,1107,57.1039,-7.48667
742,-83,57.2775,7.08069,-0.0020353,0.00127715,0.00260641,0.00270905,-0.00346719,1.06843,0.0035748,0.0268196,1966,1107,57.2775,-7.08063
749,-83,57.3737,6.64917,-0.00199561,0.0022797,0.00290315,0.0037473,-0.00346322,1.10274,0.00416407,0.0183136,1973,1107,57.3737,-6.64916
756,-83,57.3864,6.2229,-0.00109538,0.00386058,0.00266308,0.00502023,-0.00225504,1.1601,0.00430032,0.0170806,1980,1107,57.3864,-6.22286
763,-83,57.3628,5.79602,0.000619748,0.00601988,0.00222348,0.00681756,-0.000177932,1.22635,0.00460549,0.0136132,1987,1107,57.3628,-5.79605
770,-83,57.2588,5.45996,0.00412238,0.00883723,0.00159903,0.00932837,0.00363123,1.27279,0.00542958,0.0164774,1994,1107,57.2589,-5.45995
777,-83,57.1211,5.09058,0.00978965,0.0119953,0.000709253,0.0122037,0.00958127,1.28504,0.00741782,0.0183071,2001,1107,57.1211,-5.09053
784,-83,56.9297,4.70044,0.0179464,0.0153806,-0.00055716,0.0180622,0.0152648,-0.204858,0.0112258,0.0281794,2008,1107,56.9297,-4.70047
791,-83,56.6304,3.9519,0.0302342,0.019054,-0.00237296,0.030717,0.0185712,-0.200721,0.0178633,0.0400014,2015,1107,56.6304,-3.95195
798,-83,56.1855,3.36829,0.048508,0.0231207,-0.00517781,0.0495234,0.0221053,-0.193651,0.0286472,0.0450691,2022,1107,56.1856,-3.36826
805,-83,57.8545,3.75842,0.0748593,0.0276503,-0.00944841,0.0766801,0.0258295,-0.190374,0.04505,0.0482455,2029,1107,57.8546,-3.75848
812,-83,58.2559,2.50964,0,0,0,0,0,0,0,-1,2036,1107,58.2558,-2.5096
-700,-90,0,0,0,0,0,0,0,0,0,-1,524,1114,0,0
-693,-90,-41.0921,-3.21973,0,0,0,0,0,0,0,-1,531,1114,-41.0921,3.21969
-686,-90,-40.9988,-2.56079,0.019977,-0.0624846,0.0571515,0.049218,-0.0917256,0.472916,0.0825982,0.0478591,538,1114,-40.9988,2.5608
-679,-90,-41.3269,-1.45789,0.0158019,-0.0473215,0.0446788,0.0389424,-0.0704621,0.47789,0.0640326,0.0454735,545,1114,-41.3269,1.45787
-672,-90,-41.4158,-0.813843,0.0121663,-0.0335083,0.0338494,0.0301619,-0.0515039,0.488636,0.0476834,0.0466731,552,1114,-41.4158,0.813879
-665,-90,-41.6103,0.139771,0.00884003,-0.021752,0.0247217,0.0226151,-0.0355271,0.50836,0.0338432,0.0478212,559,1114,-41.6103,-0.139763
-658,-90,-41.9157,1.02454,0.00583031,-0.0124456,0.0172645,0.016226,-0.0228413,0.541995,0.0226631,0.0469991,566,1114,-41.9157,-1.02451
-651,-90,-42.0549,1.63464,0.00343688,-0.00573509,0.0113355,0.0110789,-0.0133771,0.593178,0.0141405,0.0363225,573,1114,-42.055,-1.63461
-644,-90,-42.2096,2.26941,0.0018492,-0.00153766,0.00684464,0.00720678,-0.00689524,0.664129,0.00814247,0.0181089,580,1114,-42.2096,-2.26947
-637,-90,-42.2695,2.81677,0.000403547,0.00110517,0.00305272,0.00382717,-0.00231846,0.842606,0.00358364,0.0141526,587,1114,-42.2695,-2.81681
-630,-90,-42.2942,3.28662,-1.78161e-05,0.00279202,6.3104e-05,0.00279343,-1.92326e-05,1.54835,0.00186873,0.0124061,594,1114,-42.2942,-3.28658
-623,-90,-42.3263,3.76453,-0.00013175,0.00238951,-0.00146383,0.00306071,-0.000802959,-1.14087,0.00235423,0.0121448,601,1114,-42.3263,-3.76455
-616,-90,-42.3728,4.24377,8.89375e-06,0.00120387,-0.00220666,0.0028925,-0.00167974,-0.917611,0.00267056,0.0145617,608,1114,-42.3728,-4.24382
-609,-90,-42.3605,4.69177,0.000350601,-0.000485364,-0.00203114,0.00200632,-0.00214108,-0.683921,0.00239493,0.0215023,615,1114,-42.3605,-4.69173
-602,-90,-42.4392,5.13721,0.000454744,-0.00154684,-0.00184118,0.00154955,-0.00264165,-0.536455,0.00244702,0.0219984,622,1114,-42.4392,-5.13721
-595,-90,-42.351,5.63281,0.000192507,-0.00204304,-0.00177245,0.00117021,-0.00302074,-0.504077,0.00249703,0.0200891,629,1114,-42.351,-5.63283
-588,-90,-42.4177,6.00208,0,0,0,0,0,0,0,-1,636,1114,-42.4177,-6.0021
-581,-90,-45.9011,0.977539,0,0,0,0,0,0,0,-1,643,1114,-45.9011,-0.977478
-574,-90,-45.7902,0.870972,0.00129862,-0.00280867,-0.00105887,0.00155553,-0.00306558,-0.238027,0.00271506,0.0394764,650,1114,-45.7902,-0.871023
-567,-90,-45.8719,0.962891,0.0016445,-0.00274725,-0.000800673,0.00178592,-0.00288867,-0.174822,0.00272379,0.0367958,657,1114,-45.8719,-0.962838
-560,-90,-45.7365,1.0509,0.00204495,-0.00239479,-0.000558247,0.00211406,-0.00246391,-0.123184,0.00264566,0.0417572,664,1114,-45.7365,-1.05085
-553,-90,-45.6928,1.3302,0,0,0,0,0,0,0,-1,671,1114,-45.6928,-1.33026
-546,-90,-45.8143,1.20386,0,0,0,0,0,0,0,-1,678,1114,-45.8142,-1.20385
-539,-90,-45.8631,0.628662,0,0,0,0,0,0,0,-1,685,1114,-45.8631,-0.628604
-532,-90,-45.9146,0.828491,0,0,0,0,0,0,0,-1,692,1114,-45.9146,-0.828492
-525,-90,0,0,0,0,0,0,0,0,0,-1,699,1114,0,0
-518,-90,0,0,0,0,0,0,0,0,0,-1,706,1114,0,0
-511,-90,0,0,0,0,0,0,0,0,0,-1,713,1114,0,0
-504,-90,0,0,0,0,0,0,0,0,0,-1,720,1114,0,0
-497,-90,0,0,0,0,0,0,0,0,0,-1,727,1114,0,0
-490,-90,0,0,0,0,0,0,0,0,0,-1,734,1114,0,0
-483,-90,0,0,0,0,0,0,0,0,0,-1,741,1114,0,0
-476,-90,0,0,0,0,0,0,0,0,0,-1,748,1114,0,0
-469,-90,0,0,0,0,0,0,0,0,0,-1,755,1114,0,0
-462,-90,0,0,0,0,0,0,0,0,0,-1,762,1114,0,0
-455,-90,0,0,0,0,0,0,0,0,0,-1,769,1114,0,0
-448,-90,0,0,0,0,0,0,0,0,0,-1,776,1114,0,0
-441,-90,0,0,0,0,0,0,0,0,0,-1,783,1114,0,0
-434,-90,0,0,0,0,0,0,0,0,0,-1,790,1114,0,0
-427,-90,0,0,0,0,0,0,0,0,0,-1,797,1114,0,0
-420,-90,0,0,0,0,0,0,0,0,0,-1,804,1114,0,0
-413,-90,0,0,0,0,0,0,0,0,0,-1,811,1114,0,0
-406,-90,0,0,0,0,0,0,0,0,0,-1,818,1114,0,0
-399,-90,0,0,0,0,0,0,0,0,0,-1,825,1114,0,0
-392,-90,0,0,0,0,0,0,0,0,0,-1,832,1114,0,0
-385,-90,0,0,0,0,0,0,0,0,0,-1,839,1114,0,0
-378,-90,0,0,0,0,0,0,0,0,0,-1,846,1114,0,0
-371,-90,0,0,0,0,0,0,0,0,0,-1,853,1114,0,0
-364,-90,0,0,0,0,0,0,0,0,0,-1,860,1114,0,0
-357,-90,0,0,0,0,0,0,0,0,0,-1,867,1114,0,0
-350,-90,0,0,0,0,0,0,0,0,0,-1,874,1114,0,0
-343,-90,0,0,0,0,0,0,0,0,0,-1,881,1114,0,0
-336,-90,0,0,0,0,0,0,0,0,0,-1,888,1114,0,0
-329,-90,0,0,0,0,0,0,0,0,0,-1,895,1114,0,0
-322,-90,0,0,0,0,0,0,0,0,0,-1,902,1114,0,0
-315,-90,0,0,0,0,0,0,0,0,0,-1,909,1114,0,0
-308,-90,0,0,0,0,0,0,0,0,0,-1,916,1114,0,0
-301,-90,0,0,0,0,0,0,0,0,0,-1,923,1114,0,0
-294,-90,0,0,0,0,0,0,0,0,0,-1,930,1114,0,0
-287,-90,0,0,0,0,0,0,0,0,0,-1,937,1114,0,0
-280,-90,0,0,0,0,0,0,0,0,0,-1,944,1114,0,0
-273,-90,0,0,0,0,0,0,0,0,0,-1,951,1114,0,0
-266,-90,0,0,0,0,0,0,0,0,0,-1,958,1114,0,0
-259,-90,0,0,0,0,0,0,0,0,0,-1,965,1114,0,0
-252,-90,0,0,0,0,0,0,0,0,0,-1,972,1114,0,0
-245,-90,0,0,0,0,0,0,0,0,0,-1,979,1114,0,0
-238,-90,0,0,0,0,0,0,0,0,0,-1,986,1114,0,0
-231,-90,0,0,0,0,0,0,0,0,0,-1,993,1114,0,0
-224,-90,0,0,0,0,0,0,0,0,0,-1,1000,1114,0,0
-217,-90,0,0,0,0,0,0,0,0,0,-1,1007,1114,0,0
-210,-90,0,0,0,0,0,0,0,0,0,-1,1014,1114,0,0
-203,-90,0,0,0,0,0,0,0,0,0,-1,1021,1114,0,0
-196,-90,0,0,0,0,0,0,0,0,0,-1,1028,1114,0,0
-189,-90,0,0,0,0,0,0,0,0,0,-1,1035,1114,0,0
-182,-90,0,0,0,0,0,0,0,0,0,-1,1042,1114,0,0
-175,-90,0,0,0,0,0,0,0,0,0,-1,1049,1114,0,0
-168,-90,0,0,0,0,0,0,0,0,0,-1,1056,1114,0,0
-161,-90,0,0,0,0,0,0,0,0,0,-1,1063,1114,0,0
-154,-90,0,0,0,0,0,0,0,0,0,-1,1070,1114,0,0
-147,-90,0,0,0,0,0,0,0,0,0,-1,1077,1114,0,0
-140,-90,0,0,0,0,0,0,0,0,0,-1,1084,1114,0,0
-133,-90,0,0,0,0,0,0,0,0,0,-1,1091,1114,0,0
-126,-90,0,0,0,0,0,0,0,0,0,-1,1098,1114,0,0
-119,-90,0,0,0,0,0,0,0,0,0,-1,1105,1114,0,0
-112,-90,0,0,0,0,0,0,0,0,0,-1,1112,1114,0,0
-105,-90,0,0,0,0,0,0,0,0,0,-1,1119,1114,0,0
-98,-90,0,0,0,0,0,0,0,0,0,-1,1126,1114,0,0
-91,-90,0,0,0,0,0,0,0,0,0,-1,1133,1114,0,0
-84,-90,0,0,0,0,0,0,0,0,0,-1,1140,1114,0,0
-77,-90,0,0,0,0,0,0,0,0,0,-1,1147,1114,0,0
-70,-90,0,0,0,0,0,0,0,0,0,-1,1154,1114,0,0
-63,-90,0,0,0,0,0,0,0,0,0,-1,1161,1114,0,0
-56,-90,0,0,0,0,0,0,0,0,0,-1,1168,1114,0,0
-49,-90,0,0,0,0,0,0,0,0,0,-1,1175,1114,0,0
-42,-90,0,0,0,0,0,0,0,0,0,-1,1182,1114,0,0
-35,-90,0,0,0,0,0,0,0,0,0,-1,1189,1114,0,0
-28,-90,0,0,0,0,0,0,0,0,0,-1,1196,1114,0,0
-21,-90,0,0,0,0,0,0,0,0,0,-1,1203,1114,0,0
-14,-90,0,0,0,0,0,0,0,0,0,-1,1210,1114,0,0
-7,-90,0,0,0,0,0,0,0,0,0,-1,1217,1114,0,0
0,-90,0,0,0,0,0,0,0,0,0,-1,1224,1114,0,0
7,-90,0,0,0,0,0,0,0,0,0,-1,1231,1114,0,0
14,-90,0,0,0,0,0,0,0,0,0,-1,1238,1114,0,0
21,-90,0,0,0,0,0,0,0,0,0,-1,1245,1114,0,0
28,-90,0,0,0,0,0,0,0,0,0,-1,1252,1114,0,0
35,-90,0,0,0,0,0,0,0,0,0,-1,1259,1114,0,0
42,-90,0,0,0,0,0,0,0,0,0,-1,1266,1114,0,0
49,-90,0,0,0,0,0,0,0,0,0,-1,1273,1114,0,0
56,-90,0,0,0,0,0,0,0,0,0,-1,1280,1114,0,0
63,-90,0,0,0,0,0,0,0,0,0,-1,1287,1114,0,0
70,-90,0,0,0,0,0,0,0,0,0,-1,1294,1114,0,0
77,-90,0,0,0,0,0,0,0,0,0,-1,1301,1114,0,0
84,-90,0,0,0,0,0,0,0,0,0,-1,1308,1114,0,0
91,-90,0,0,0,0,0,0,0,0,0,-1,1315,1114,0,0
98,-90,0,0,0,0,0,0,0,0,0,-1,1322,1114,0,0
105,-90,0,0,0,0,0,0,0,0,0,-1,1329,1114,0,0
112,-90,0,0,0,0,0,0,0,0,0,-1,1336,1114,0,0
119,-90,0,0,0,0,0,0,0,0,0,-1,1343,1114,0,0
126,-90,0,0,0,0,0,0,0,0,0,-1,1350,1114,0,0
133,-90,0,0,0,0,0,0,0,0,0,-1,1357,1114,0,0
140,-90,0,0,0,0,0,0,0,0,0,-1,1364,1114,0,0
147,-90,0,0,0,0,0,0,0,0,0,-1,1371,1114,0,0
154,-90,0,0,0,0,0,0,0,0,0,-1,1378,1114,0,0
161,-90,0,0,0,0,0,0,0,0,0,-1,1385,1114,0,0
168,-90,0,0,0,0,0,0,0,0,0,-1,1392,1114,0,0
175,-90,0,0,0,0,0,0,0,0,0,-1,1399,1114,0,0
182,-90,0,0,0,0,0,0,0,0,0,-1,1406,1114,0,0
189,-90,0,0,0,0,0,0,0,0,0,-1,1413,1114,0,0
196,-90,0,0,0,0,0,0,0,0,0,-1,1420,1114,0,0
203,-90,0,0,0,0,0,0,0,0,0,-1,1427,1114,0,0
210,-90,0,0,0,0,0,0,0,0,0,-1,1434,1114,0,0
217,-90,0,0,0,0,0,0,0,0,0,-1,1441,1114,0,0
224,-90,0,0,0,0,0,0,0,0,0,-1,1448,1114,0,0
231,-90,0,0,0,0,0,0,0,0,0,-1,1455,1114,0,0
238,-90,0,0,0,0,0,0,0,0,0,-1,1462,1114,0,0
245,-90,0,0,0,0,0,0,0,0,0,-1,1469,1114,0,0
252,-90,0,0,0,0,0,0,0,0,0,-1,1476,1114,0,0
259,-90,0,0,0,0,0,0,0,0,0,-1,1483,1114,0,0
266,-90,0,0,0,0,0,0,0,0,0,-1,1490,1114,0,0
273,-90,0,0,0,0,0,0,0,0,0,-1,1497,1114,0,0
280,-90,0,0,0,0,0,0,0,0,0,-1,1504,1114,0,0
287,-90,0,0,0,0,0,0,0,0,0,-1,1511,1114,0,0
294,-90,0,0,0,0,0,0,0,0,0,-1,1518,1114,0,0
301,-90,0,0,0,0,0,0,0,0,0,-1,1525,1114,0,0
308,-90,0,0,0,0,0,0,0,0,0,-1,1532,1114,0,0
315,-90,0,0,0,0,0,0,0,0,0,-1,1539,1114,0,0
322,-90,0,0,0,0,0,0,0,0,0,-1,1546,1114,0,0
329,-90,0,0,0,0,0,0,0,0,0,-1,1553,1114,0,0
336,-90,0,0,0,0,0,0,0,0,0,-1,1560,1114,0,0
343,-90,0,0,0,0,0,0,0,0,0,-1,1567,1114,0,0
350,-90,0,0,0,0,0,0,0,0,0,-1,1574,1114,0,0
357,-90,0,0,0,0,0,0,0,0,0,-1,1581,1114,0,0
364,-90,0,0,0,0,0,0,0,0,0,-1,1588,1114,0,0
371,-90,0,0,0,0,0,0,0,0,0,-1,1595,1114,0,0
378,-90,0,0,0,0,0,0,0,0,0,-1,1602,1114,0,0
385,-90,0,0,0,0,0,0,0,0,0,-1,1609,1114,0,0
392,-90,0,0,0,0,0,0,0,0,0,-1,1616,1114,0,0
399,-90,0,0,0,0,0,0,0,0,0,-1,1623,1114,0,0
406,-90,0,0,0,0,0,0,0,0,0,-1,1630,1114,0,0
413,-90,0,0,0,0,0,0,0,0,0,-1,1637,1114,0,0
420,-90,0,0,0,0,0,0,0,0,0,-1,1644,1114,0,0
427,-90,0,0,0,0,0,0,0,0,0,-1,1651,1114,0,0
434,-90,0,0,0,0,0,0,0,0,0,-1,1658,1114,0,0
441,-90,0,0,0,0,0,0,0,0,0,-1,1665,1114,0,0
448,-90,0,0,0,0,0,0,0,0,0,-1,1672,1114,0,0
455,-90,0,0,0,0,0,0,0,0,0,-1,1679,1114,0,0
462,-90,0,0,0,0,0,0,0,0,0,-1,1686,1114,0,0
469,-90,0,0,0,0,0,0,0,0,0,-1,1693,1114,0,0
476,-90,0,0,0,0,0,0,0,0,0,-1,1700,1114,0,0
483,-90,0,0,0,0,0,0,0,0,0,-1,1707,1114,0,0
490,-90,0,0,0,0,0,0,0,0,0,-1,1714,1114,0,0
497,-90,0,0,0,0,0,0,0,0,0,-1,1721,1114,0,0
504,-90,0,0,0,0,0,0,0,0,0,-1,1728,1114,0,0
511,-90,0,0,0,0,0,0,0,0,0,-1,1735,1114,0,0
518,-90,0,0,0,0,0,0,0,0,0,-1,1742,1114,0,0
525,-90,0,0,0,0,0,0,0,0,0,-1,1749,1114,0,0
532,-90,0,0,0,0,0,0,0,0,0,-1,1756,1114,0,0
539,-90,0,0,0,0,0,0,0,0,0,-1,1763,1114,0,0
546,-90,0,0,0,0,0,0,0,0,0,-1,1770,1114,0,0
553,-90,0,0,0,0,0,0,0,0,0,-1,1777,1114,0,0
560,-90,0,0,0,0,0,0,0,0,0,-1,1784,1114,0,0
567,-90,0,0,0,0,0,0,0,0,0,-1,1791,1114,0,0
574,-90,0,0,0,0,0,0,0,0,0,-1,1798,1114,0,0
581,-90,0,0,0,0,0,0,0,0,0,-1,1805,1114,0,0
588,-90,0,0,0,0,0,0,0,0,0,-1,1812,1114,0,0
595,-90,0,0,0,0,0,0,0,0,0,-1,1819,1114,0,0
602,-90,0,0,0,0,0,0,0,0,0,-1,1826,1114,0,0
609,-90,0,0,0,0,0,0,0,0,0,-1,1833,1114,0,0
616,-90,0,0,0,0,0,0,0,0,0,-1,1840,1114,0,0
623,-90,0,0,0,0,0,0,0,0,0,-1,1847,1114,0,0
630,-90,0,0,0,0,0,0,0,0,0,-1,1854,1114,0,0
637,-90,0,0,0,0,0,0,0,0,0,-1,1861,1114,0,0
644,-90,60.5903,2.58826,0.00700967,0.00226286,-0.00335452,0.00874551,0.000527028,-0.477519,0.00566284,0.0341521,1868,1114,60.5903,-2.5883
651,-90,60.6936,2.54041,0.00502854,0.00176483,-0.00260459,0.00647026,0.00032311,-0.505549,0.00420994,0.0387585,1875,1114,60.6936,-2.54038
658,-90,60.8098,2.47473,0.0037705,0.00113391,-0.00197054,0.00482306,8.13578e-05,-0.49059,0.0031886,0.0429576,1882,1114,60.8098,-2.47473
665,-90,60.722,2.41248,0.00283799,0.000572841,-0.0013281,0.00345086,-4.00278e-05,-0.432345,0.00231403,0.0422765,1889,1114,60.722,-2.41251
672,-90,60.7065,2.5282,0.0020802,5.3688e-05,-0.000728969,0.00231518,-0.000181288,-0.311824,0.00160729,0.0411546,1896,1114,60.7065,-2.52821
679,-90,60.8351,2.7218,0.00125331,-0.0004038,-0.000211766,0.00127995,-0.000430434,-0.125114,0.00102729,0.0378998,1903,1114,60.8351,-2.72176
686,-90,60.844,2.62195,0.000786518,-0.000859815,0.000278222,0.000832265,-0.000905562,0.162968,0.00100363,0.0328424,1910,1114,60.8439,-2.6219
693,-90,60.7571,2.57605,0.00057391,-0.00116591,0.000625498,0.000775444,-0.00136744,0.311694,0.00125284,0.0331652,1917,1114,60.7571,-2.57604
700,-90,60.7089,2.58655,0.00036579,-0.00129696,0.00094542,0.000793383,-0.00172456,0.424747,0.0014865,0.0298933,1924,1114,60.7088,-2.5866
707,-90,60.717,2.6217,0.000106343,-0.0012606,0.00124022,0.000838948,-0.00199321,0.533558,0.0016798,0.0245589,1931,1114,60.717,-2.62168
714,-90,60.7693,2.66187,0,0,0,0,0,0,0,-1,1938,1114,60.7693,-2.66192
721,-90,56.9265,8.31335,0,0,0,0,0,0,0,-1,1945,1114,56.9265,-8.31338
728,-90,56.9518,7.96643,-0.00111037,-0.000476728,0.00203511,0.00126608,-0.00285318,0.862617,0.00243638,0.0414266,1952,1114,56.9517,-7.96646
735,-90,56.6035,7.55127,-0.00156078,0.000121128,0.0021871,0.00162338,-0.00306303,0.968937,0.00274793,0.0370044,1959,1114,56.6035,-7.55122
742,-90,56.7598,7.0387,-0.00186805,0.000961273,0.00245394,0.00237911,-0.00328589,1.04687,0.00328463,0.0320634,1966,1114,56.7598,-7.03874
749,-90,57.099,6.51392,-0.00185511,0.00198416,0.00287893,0.00352476,-0.00339571,1.07944,0.00399577,0.0208292,1973,1114,57.099,-6.51387
756,-90,57.0201,6.14026,-0.00106106,0.00370152,0.00288327,0.00505971,-0.00241926,1.13057,0.00440678,0.0184027,1980,1114,57.0202,-6.14023
763,-90,56.9414,5.74609,0.0006601,0.0059788,0.00280143,0.00718211,-0.000543214,1.16509,0.00497903,0.0139415,1987,1114,56.9413,-5.74613
770,-90,56.8721,5.33386,0.00388202,0.00899738,0.00279878,0.0102311,0.00264827,1.15561,0.00613168,0.0175838,1994,1114,56.872,-5.33384
777,-90,56.7578,4.99133,0.00893864,0.012479,0.00273427,0.0139661,0.00745155,1.07267,0.00806936,0.0169601,2001,1114,56.7577,-4.99135
784,-90,56.6106,4.79712,0.0162569,0.0164021,0.00247189,0.0188024,0.0138565,0.800086,0.0112546,0.0305315,2008,1114,56.6105,-4.7971
791,-90,56.4185,4.61743,0.0272828,0.0209378,0.00192536,0.0278213,0.0203993,0.272738,0.0166349,0.0454998,2015,1114,56.4185,-4.61747
798,-90,56.2993,4.13086,0.0437116,0.0263109,0.000698318,0.0437396,0.0262829,0.0400457,0.0254239,0.0488419,2022,1114,56.2994,-4.1309
805,-90,58.344,3.56934,0.0674496,0.0327296,-0.00167222,0.0675299,0.0326493,-0.0480149,0.0389955,0.0470007,2029,1114,58.344,-3.56932
812,-90,59.1597,2.83801,0,0,0,0,0,0,0,-1,2036,1114,59.1596,-2.83805
-700,-97,0,0,0,0,0,0,0,0,0,-1,524,1121,0,0
-693,-97,-41.4828,-1.94873,0,0,0,0,0,0,0,-1,531,1121,-41.4828,1.94876
-686,-97,-41.3623,-1.33105,0.0231301,-0.093543,0.0555005,0.0453135,-0.115726,0.380245,0.0958932,0.0488671,538,1121,-41.3623,1.331
-679,-97,-41.4786,-0.499878,0.0181032,-0.0718451,0.0428288,0.0352337,-0.0889755,0.380485,0.0739158,0.0454395,545,1121,-41.4786,0.499844
-672,-97,-41.4318,0.262085,0.0137673,-0.0525281,0.0320056,0.0266971,-0.0654578,0.383935,0.0547519,0.0454287,552,1121,-41.4318,-0.26207
-665,-97,-41.5203,0.973511,0.00987805,-0.0361666,0.0229705,0.0193776,-0.0456661,0.392135,0.0385618,0.0499705,559,1121,-41.5203,-0.973561
-658,-97,-41.5132,1.39282,0.00640356,-0.0230463,0.0156382,0.0131583,-0.0298011,0.407733,0.0254154,0.0462393,566,1121,-41.5132,-1.39287
-651,-97,-41.6523,1.76392,0.00363984,-0.0132014,0.00985173,0.00817929,-0.0177409,0.431779,0.0153007,0.0356068,573,1121,-41.6523,-1.76387
-644,-97,-41.7419,2.28101,0.00177493,-0.00660819,0.00557084,0.00455499,-0.00938825,0.462877,0.00820976,0.0143763,580,1121,-41.7419,-2.28104
-637,-97,-41.7741,2.80151,6.66444e-05,-0.00192557,0.00202753,0.00132955,-0.00318847,0.557071,0.00268107,0.0142053,587,1121,-41.7741,-2.80151
-630,-97,-41.7911,3.2793,-0.000480332,0.0012064,-0.000667022,0.00143829,-0.000712227,-1.23621,0.00126497,0.0107524,594,1121,-41.7911,-3.27934
-623,-97,-41.8292,3.73035,-0.000645176,0.00156955,-0.00187578,0.00264044,-0.00171607,-1.05204,0.00253404,0.0134183,601,1121,-41.8292,-3.73039
-616,-97,-41.9058,4.23059,-0.000511185,0.000706911,-0.00237608,0.00255075,-0.00235503,-0.91086,0.00283311,0.0210227,608,1121,-41.9058,-4.2306
-609,-97,-42.0009,4.7533,-0.000216211,-0.000817482,-0.00200686,0.0015124,-0.0025461,-0.711049,0.00236837,0.0290269,615,1121,-42.0009,-4.75332
-602,-97,-42.0482,5.16077,-0.000106614,-0.00163241,-0.00168982,0.000984544,-0.00272357,-0.573362,0.00221797,0.0286772,622,1121,-42.0481,-5.16074
-595,-97,-41.9334,5.65454,-0.000353826,-0.0020511,-0.00160058,0.000609175,-0.0030141,-0.541638,0.00224024,0.0206619,629,1121,-41.9334,-5.6545
-588,-97,-42.0616,6.11011,0,0,0,0,0,0,0,-1,636,1121,-42.0616,-6.11008
-581,-97,-44.5069,2.86658,0,0,0,0,0,0,0,-1,643,1121,-44.5069,-2.86655
-574,-97,-45.7983,0.87854,0,0,0,0,0,0,0,-1,650,1121,-45.7984,-0.878521
-567,-97,-45.6874,0.734375,0,0,0,0,0,0,0,-1,657,1121,-45.6875,-0.734321
-560,-97,-46.012,1.18359,0,0,0,0,0,0,0,-1,664,1121,-46.012,-1.18361
-553,-97,-45.9604,1.05981,0.00197161,-0.001567,-0.00126659,0.00237824,-0.00197363,-0.310649,0.00251617,0.0460389,671,1121,-45.9604,-1.05985
-546,-97,-45.9023,0.848999,0.00304431,-0.000201337,-0.00171009,0.00377902,-0.000936043,-0.405787,0.00288247,0.0441593,678,1121,-45.9023,-0.849046
-539,-97,-45.9091,0.645264,0.00665854,0.00178096,-0.00285191,0.00797223,0.000467272,-0.431662,0.00516611,0.0420699,685,1121,-45.9091,-0.645289
-532,-97,-45.882,0.686279,0.0105231,0.00387372,-0.00409815,0.0124755,0.00192125,-0.444613,0.00775633,0.0404399,692,1121,-45.882,-0.686331
-525,-97,0,0,0,0,0,0,0,0,0,-1,699,1121,0,0
-518,-97,0,0,0,0,0,0,0,0,0,-1,706,1121,0,0
-511,-97,0,0,0,0,0,0,0,0,0,-1,713,1121,0,0
-504,-97,0,0,0,0,0,0,0,0,0,-1,720,1121,0,0
-497,-97,0,0,0,0,0,0,0,0,0,-1,727,1121,0,0
-490,-97,0,0,0,0,0,0,0,0,0,-1,734,1121,0,0
-483,-97,0,0,0,0,0,0,0,0,0,-1,741,1121,0,0
-476,-97,0,0,0,0,0,0,0,0,0,-1,748,1121,0,0
-469,-97,0,0,0,0,0,0,0,0,0,-1,755,1121,0,0
-462,-97,0,0,0,0,0,0,0,0,0,-1,762,1121,0,0
-455,-97,0,0,0,0,0,0,0,0,0,-1,769,1121,0,0
-448,-97,0,0,0,0,0,0,0,0,0,-1,776,1121,0,0
-441,-97,0,0,0,0,0,0,0,0,0,-1,783,1121,0,0
-434,-97,0,0,0,0,0,0,0,0,0,-1,790,1121,0,0
-427,-97,0,0,0,0,0,0,0,0,0,-1,797,1121,0,0
-420,-97,0,0,0,0,0,0,0,0,0,-1,804,1121,0,0
-413,-97,0,0,0,0,0,0,0,0,0,-1,811,1121,0,0
-406,-97,0,0,0,0,0,0,0,0,0,-1,818,1121,0,0
-399,-97,0,0,0,0,0,0,0,0,0,-1,825,1121,0,0
-392,-97,0,0,0,0,0,0,0,0,0,-1,832,1121,0,0
-385,-97,0,0,0,0,0,0,0,0,0,-1,839,1121,0,0
-378,-97,0,0,0,0,0,0,0,0,0,-1,846,1121,0,0
-371,-97,0,0,0,0,0,0,0,0,0,-1,853,1121,0,0
-364,-97,0,0,0,0,0,0,0,0,0,-1,860,1121,0,0
-357,-97,0,0,0,0,0,0,0,0,0,-1,867,1121,0,0
-350,-97,0,0,0,0,0,0,0,0,0,-1,874,1121,0,0
-343,-97,0,0,0,0,0,0,0,0,0,-1,881,1121,0,0
-336,-97,0,0,0,0,0,0,0,0,0,-1,888,1121,0,0
-329,-97,0,0,0,0,0,0,0,0,0,-1,895,1121,0,0
-322,-97,0,0,0,0,0,0,0,0,0,-1,902,1121,0,0
-315,-97,0,0,0,0,0,0,0,0,0,-1,909,1121,0,0
-308,-97,0,0,0,0,0,0,0,0,0,-1,916,1121,0,0
-301,-97,0,0,0,0,0,0,0,0,0,-1,923,1121,0,0
-294,-97,0,0,0,0,0,0,0,0,0,-1,930,1121,0,0
-287,-97,0,0,0,0,0,0,0,0,0,-1,937,1121,0,0
-280,-97,0,0,0,0,0,0,0,0,0,-1,944,1121,0,0
-273,-97,0,0,0,0,0,0,0,0,0,-1,951,1121,0,0
-266,-97,0,0,0,0,0,0,0,0,0,-1,958,1121,0,0
-259,-97,0,0,0,0,0,0,0,0,0,-1,965,1121,0,0
-252,-97,0,0,0,0,0,0,0,0,0,-1,972,1121,0,0
-245,-97,0,0,0,0,0,0,0,0,0,-1,979,1121,0,0
-238,-97,0,0,0,0,0,0,0,0,0,-1,986,1121,0,0
-231,-97,0,0,0,0,0,0,0,0,0,-1,993,1121,0,0
-224,-97,0,0,0,0,0,0,0,0,0,-1,1000,1121,0,0
-217,-97,0,0,0,0,0,0,0,0,0,-1,1007,1121,0,0
-210,-97,0,0,0,0,0,0,0,0,0,-1,1014,1121,0,0
-203,-97,0,0,0,0,0,0,0,0,0,-1,1021,1121,0,0
-196,-97,0,0,0,0,0,0,0,0,0,-1,1028,1121,0,0
-189,-97,0,0,0,0,0,0,0,0,0,-1,1035,1121,0,0
-182,-97,0,0,0,0,0,0,0,0,0,-1,1042,1121,0,0
-175,-97,0,0,0,0,0,0,0,0,0,-1,1049,1121,0,0
-168,-97,0,0,0,0,0,0,0,0,0,-1,1056,1121,0,0
-161,-97,0,0,0,0,0,0,0,0,0,-1,1063,1121,0,0
-154,-97,0,0,0,0,0,0,0,0,0,-1,1070,1121,0,0
-147,-97,0,0,0,0,0,0,0,0,0,-1,1077,1121,0,0
-140,-97,0,0,0,0,0,0,0,0,0,-1,1084,1121,0,0
-133,-97,0,0,0,0,0,0,0,0,0,-1,1091,1121,0,0
-126,-97,0,0,0,0,0,0,0,0,0,-1,1098,1121,0,0
-119,-97,0,0,0,0,0,0,0,0,0,-1,1105,1121,0,0
-112,-97,0,0,0,0,0,0,0,0,0,-1,1112,1121,0,0
-105,-97,0,0,0,0,0,0,0,0,0,-1,1119,1121,0,0
-98,-97,0,0,0,0,0,0,0,0,0,-1,1126,1121,0,0
-91,-97,0,0,0,0,0,0,0,0,0,-1,1133,1121,0,0
-84,-97,0,0,0,0,0,0,0,0,0,-1,1140,1121,0,0
-77,-97,0,0,0,0,0,0,0,0,0,-1,1147,1121,0,0
-70,-97,0,0,0,0,0,0,0,0,0,-1,1154,1121,0,0
-63,-97,0,0,0,0,0,0,0,0,0,-1,1161,1121,0,0
-56,-97,0,0,0,0,0,0,0,0,0,-1,1168,1121,0,0
-49,-97,0,0,0,0,0,0,0,0,0,-1,1175,1121,0,0
-42,-97,0,0,0,0,0,0,0,0,0,-1,1182,1121,0,0
-35,-97,0,0,0,0,0,0,0,0,0,-1,1189,1121,0,0
-28,-97,0,0,0,0,0,0,0,0,0,-1,1196,1121,0,0
-21,-97,0,0,0,0,0,0,0,0,0,-1,1203,1121,0,0
-14,-97,0,0,0,0,0,0,0,0,0,-1,1210,1121,0,0
-7,-97,0,0,0,0,0,0,0,0,0,-1,1217,1121,0,0
0,-97,0,0,0,0,0,0,0,0,0,-1,1224,1121,0,0
7,-97,0,0,0,0,0,0,0,0,0,-1,1231,1121,0,0
14,-97,0,0,0,0,0,0,0,0,0,-1,1238,1121,0,0
21,-97,0,0,0,0,0,0,0,0,0,-1,1245,1121,0,0
28,-97,0,0,0,0,0,0,0,0,0,-1,1252,1121,0,0
35,-97,0,0,0,0,0,0,0,0,0,-1,1259,1121,0,0
42,-97,0,0,0,0,0,0,0,0,0,-1,1266,1121,0,0
49,-97,0,0,0,0,0,0,0,0,0,-1,1273,1121,0,0
56,-97,0,0,0,0,0,0,0,0,0,-1,1280,1121,0,0
63,-97,0,0,0,0,0,0,0,0,0,-1,1287,1121,0,0
70,-97,0,0,0,0,0,0,0,0,0,-1,1294,1121,0,0
77,-97,0,0,0,0,0,0,0,0,0,-1,1301,1121,0,0
84,-97,0,0,0,0,0,0,0,0,0,-1,1308,1121,0,0
91,-97,0,0,0,0,0,0,0,0,0,-1,1315,1121,0,0
98,-97,0,0,0,0,0,0,0,0,0,-1,1322,1121,0,0
105,-97,0,0,0,0,0,0,0,0,0,-1,1329,1121,0,0
112,-97,0,0,0,0,0,0,0,0,0,-1,1336,1121,0,0
119,-97,0,0,0,0,0,0,0,0,0,-1,1343,1121,0,0
126,-97,0,0,0,0,0,0,0,0,0,-1,1350,1121,0,0
133,-97,0,0,0,0,0,0,0,0,0,-1,1357,1121,0,0
140,-97,0,0,0,0,0,0,0,0,0,-1,1364,1121,0,0
147,-97,0,0,0,0,0,0,0,0,0,-1,1371,1121,0,0
154,-97,0,0,0,0,0,0,0,0,0,-1,1378,1121,0,0
161,-97,0,0,0,0,0,0,0,0,0,-1,1385,1121,0,0
168,-97,0,0,0,0,0,0,0,0,0,-1,1392,1121,0,0
175,-97,0,0,0,0,0,0,0,0,0,-1,1399,1121,0,0
182,-97,0,0,0,0,0,0,0,0,0,-1,1406,1121,0,0
189,-97,0,0,0,0,0,0,0,0,0,-1,1413,1121,0,0
196,-97,0,0,0,0,0,0,0,0,0,-1,1420,1121,0,0
203,-97,0,0,0,0,0,0,0,0,0,-1,1427,1121,0,0
210,-97,0,0,0,0,0,0,0,0,0,-1,1434,1121,0,0
217,-97,0,0,0,0,0,0,0,0,0,-1,1441,1121,0,0
224,-97,0,0,0,0,0,0,0,0,0,-1,1448,1121,0,0
231,-97,0,0,0,0,0,0,0,0,0,-1,1455,1121,0,0
238,-97,0,0,0,0,0,0,0,0,0,-1,1462,1121,0,0
245,-97,0,0,0,0,0,0,0,0,0,-1,1469,1121,0,0
252,-97,0,0,0,0,0,0,0,0,0,-1,1476,1121,0,0
259,-97,0,0,0,0,0,0,0,0,0,-1,1483,1121,0,0
266,-97,0,0,0,0,0,0,0,0,0,-1,1490,1121,0,0
273,-97,0,0,0,0,0,0,0,0,0,-1,1497,1121,0,0
280,-97,0,0,0,0,0,0,0,0,0,-1,1504,1121,0,0
287,-97,0,0,0,0,0,0,0,0,0,-1,1511,1121,0,0
294,-97,0,0,0,0,0,0,0,0,0,-1,1518,1121,0,0
301,-97,0,0,0,0,0,0,0,0,0,-1,1525,1121,0,0
308,-97,0,0,0,0,0,0,0,0,0,-1,1532,1121,0,0
315,-97,0,0,0,0,0,0,0,0,0,-1,1539,1121,0,0
322,-97,0,0,0,0,0,0,0,0,0,-1,1546,1121,0,0
329,-97,0,0,0,0,0,0,0,0,0,-1,1553,1121,0,0
336,-97,0,0,0,0,0,0,0,0,0,-1,1560,1121,0,0
343,-97,0,0,0,0,0,0,0,0,0,-1,1567,1121,0,0
350,-97,0,0,0,0,0,0,0,0,0,-1,1574,1121,0,0
357,-97,0,0,0,0,0,0,0,0,0,-1,1581,1121,0,0
364,-97,0,0,0,0,0,0,0,0,0,-1,1588,1121,0,0
371,-97,0,0,0,0,0,0,0,0,0,-1,1595,1121,0,0
378,-97,0,0,0,0,0,0,0,0,0,-1,1602,1121,0,0
385,-97,0,0,0,0,0,0,0,0,0,-1,1609,1121,0,0
392,-97,0,0,0,0,0,0,0,0,0,-1,1616,1121,0,0
399,-97,0,0,0,0,0,0,0,0,0,-1,1623,1121,0,0
406,-97,0,0,0,0,0,0,0,0,0,-1,1630,1121,0,0
413,-97,0,0,0,0,0,0,0,0,0,-1,1637,1121,0,0
420,-97,0,0,0,0,0,0,0,0,0,-1,1644,1121,0,0
427,-97,0,0,0,0,0,0,0,0,0,-1,1651,1121,0,0
434,-97,0,0,0,0,0,0,0,0,0,-1,1658,1121,0,0
441,-97,0,0,0,0,0,0,0,0,0,-1,1665,1121,0,0
448,-97,0,0,0,0,0,0,0,0,0,-1,1672,1121,0,0
455,-97,0,0,0,0,0,0,0,0,0,-1,1679,1121,0,0
462,-97,0,0,0,0,0,0,0,0,0,-1,1686,1121,0,0
469,-97,0,0,0,0,0,0,0,0,0,-1,1693,1121,0,0
476,-97,0,0,0,0,0,0,0,0,0,-1,1700,1121,0,0
483,-97,0,0,0,0,0,0,0,0,0,-1,1707,1121,0,0
490,-97,0,0,0,0,0,0,0,0,0,-1,1714,1121,0,0
497,-97,0,0,0,0,0,0,0,0,0,-1,1721,1121,0,0
504,-97,0,0,0,0,0,0,0,0,0,-1,1728,1121,0,0
511,-97,0,0,0,0,0,0,0,0,0,-1,1735,1121,0,0
518,-97,0,0,0,0,0,0,0,0,0,-1,1742,1121,0,0
525,-97,0,0,0,0,0,0,0,0,0,-1,1749,1121,0,0
532,-97,0,0,0,0,0,0,0,0,0,-1,1756,1121,0,0
539,-97,0,0,0,0,0,0,0,0,0,-1,1763,1121,0,0
546,-97,0,0,0,0,0,0,0,0,0,-1,1770,1121,0,0
553,-97,0,0,0,0,0,0,0,0,0,-1,1777,1121,0,0
560,-97,0,0,0,0,0,0,0,0,0,-1,1784,1121,0,0
567,-97,0,0,0,0,0,0,0,0,0,-1,1791,1121,0,0
574,-97,0,0,0,0,0,0,0,0,0,-1,1798,1121,0,0
581,-97,0,0,0,0,0,0,0,0,0,-1,1805,1121,0,0
588,-97,0,0,0,0,0,0,0,0,0,-1,1812,1121,0,0
595,-97,0,0,0,0,0,0,0,0,0,-1,1819,1121,0,0
602,-97,0,0,0,0,0,0,0,0,0,-1,1826,1121,0,0
609,-97,0,0,0,0,0,0,0,0,0,-1,1833,1121,0,0
616,-97,0,0,0,0,0,0,0,0,0,-1,1840,1121,0,0
623,-97,0,0,0,0,0,0,0,0,0,-1,1847,1121,0,0
630,-97,0,0,0,0,0,0,0,0,0,-1,1854,1121,0,0
637,-97,0,0,0,0,0,0,0,0,0,-1,1861,1121,0,0
644,-97,60.5831,2.73169,0.00785653,0.000861323,-0.00314572,0.00906305,-0.000345198,-0.36624,0.00616032,0.037856,1868,1121,60.5832,-2.73174
651,-97,60.7148,2.55005,0.00573246,0.00068921,-0.00233857,0.00664995,-0.000228278,-0.373876,0.00451132,0.0375953,1875,1121,60.7149,-2.55004
658,-97,60.7559,2.47754,0.00435771,0.000295348,-0.00168703,0.00496694,-0.000313879,-0.346551,0.00342072,0.0387843,1882,1121,60.7559,-2.47755
665,-97,60.7465,2.46155,0.00327467,-7.61095e-05,-0.00106378,0.00358386,-0.000385298,-0.282858,0.00252748,0.0403072,1889,1121,60.7465,-2.46156
672,-97,60.7487,2.4491,0.00234297,-0.000431075,-0.000515018,0.0024355,-0.000523605,-0.177767,0.00182343,0.0413406,1896,1121,60.7487,-2.44907
679,-97,60.8125,2.70972,0.00136128,-0.000787371,-5.93028e-05,0.00136292,-0.000789006,-0.027572,0.00125706,0.0405227,1903,1121,60.8126,-2.70966
686,-97,60.7546,2.64868,0.000831469,-0.00111581,0.00034039,0.000889255,-0.00117359,0.168162,0.00119475,0.0359263,1910,1121,60.7546,-2.64864
693,-97,60.7302,2.55164,0.000579137,-0.00132269,0.000598884,0.000752011,-0.00149556,0.281021,0.0013211,0.0325119,1917,1121,60.7302,-2.55164
700,-97,60.701,2.53772,0.000340584,-0.0014001,0.000864659,0.000697079,-0.0017566,0.391062,0.00145999,0.026117,1924,1121,60.7011,-2.53775
707,-97,60.71,2.58228,5.40012e-05,-0.0013217,0.00111242,0.000674053,-0.00194175,0.508501,0.00156824,0.0262326,1931,1121,60.71,-2.58226
714,-97,60.7433,2.63281,0,0,0,0,0,0,0,-1,1938,1121,60.7433,-2.63276
721,-97,56.5685,8.24353,0,0,0,0,0,0,0,-1,1945,1121,56.5685,-8.2435
728,-97,56.4871,7.97583,-0.00111799,-0.000512837,0.00178783,0.000997843,-0.00262867,0.869225,0.00216319,0.0300693,1952,1121,56.4871,-7.97577
735,-97,56.4547,7.45862,-0.00147858,1.7098e-05,0.00193476,0.00134352,-0.002805,0.969818,0.00244419,0.0289904,1959,1121,56.4547,-7.45865
742,-97,56.4469,7.00562,-0.00171912,0.000796051,0.00227055,0.00213403,-0.00305709,1.0383,0.00301285,0.0235647,1966,1121,56.4469,-7.00559
749,-97,56.5374,6.55786,-0.00182777,0.00179997,0.00284315,0.00335858,-0.00338638,1.06934,0.00389422,0.0236086,1973,1121,56.5373,-6.55792
756,-97,56.5566,6.13831,-0.00125278,0.00363001,0.00313939,0.00516557,-0.00278834,1.11589,0.00466005,0.0170896,1980,1121,56.5567,-6.13827
763,-97,56.4574,5.74841,0.000261332,0.00602695,0.00348949,0.00767041,-0.00138213,1.13064,0.00563114,0.0138379,1987,1121,56.4574,-5.74843
770,-97,56.3877,5.34692,0.00291965,0.00923522,0.00416709,0.0113058,0.000849024,1.10963,0.00727076,0.0128681,1994,1121,56.3876,-5.34691
777,-97,56.3232,4.9425,0.00706142,0.013019,0.00497541,0.0158392,0.00424126,1.05513,0.00946785,0.0173974,2001,1121,56.3233,-4.94254
784,-97,56.3262,4.66016,0.0131311,0.0174448,0.0058145,0.0214896,0.00908628,0.963002,0.0124562,0.0354338,2008,1121,56.3262,-4.66014
791,-97,56.6348,4.44116,0.0223402,0.0227878,0.00669278,0.0292605,0.0158674,0.802112,0.0169137,0.0431112,2015,1121,56.6348,-4.44122
798,-97,57.3757,4.02209,0.0361208,0.0293547,0.00732373,0.0408051,0.0246704,0.569033,0.02373,0.0450927,2022,1121,57.3758,-4.02208
805,-97,58.3047,3.29846,0.0560677,0.0374465,0.00735151,0.0586201,0.034894,0.334179,0.0340485,0.0461746,2029,1121,58.3048,-3.2985
812,-97,59.2002,2.4613,0.0845705,0.0475895,0.00615428,0.0855677,0.0465922,0.160651,0.0494678,0.0479791,2036,1121,59.2001,-2.46129
-700,-104,0,0,0,0,0,0,0,0,0,-1,524,1128,0,0
-693,-104,-42.0598,0.0772705,0.0334637,-0.14212,0.0682119,0.0568486,-0.165505,0.330271,0.133387,0.04705,531,1128,-42.0598,-0.0772793
-686,-104,-41.6823,0.0727539,0.0276121,-0.11257,0.0534244,0.0456512,-0.130609,0.325637,0.105631,0.0459714,538,1128,-41.6823,-0.0727072
-679,-104,-41.5446,0.555054,0,0,0,0,0,0,0,-1,545,1128,-41.5446,-0.555096
-672,-104,-41.6755,1.14954,0,0,0,0,0,0,0,-1,552,1128,-41.6755,-1.14954
-665,-104,-40.5597,1.74927,0,0,0,0,0,0,0,-1,559,1128,-40.5597,-1.74925
-658,-104,-41.0141,1.88782,0.00766934,-0.029708,0.0143249,0.0125278,-0.0345665,0.326989,0.0281649,0.047937,566,1128,-41.0141,-1.88786
-651,-104,-41.222,1.80225,0.00438214,-0.0179182,0.00863454,0.00733451,-0.0208705,0.329464,0.0168977,0.0450006,573,1128,-41.222,-1.80227
-644,-104,-41.2276,2.26575,0.0020951,-0.00977089,0.00447095,0.00359109,-0.0112669,0.322892,0.0089517,0.0177288,580,1128,-41.2276,-2.26575
-637,-104,-41.2322,2.77612,2.83835e-05,-0.0037188,0.00108042,0.000317581,-0.00400799,0.26154,0.0027839,0.0130609,587,1128,-41.2322,-2.77613
-630,-104,-41.2604,3.20923,-0.000732428,0.000311286,-0.00141595,0.00129849,-0.00171963,-0.961953,0.00174815,0.0170106,594,1128,-41.2604,-3.20921
-623,-104,-41.3231,3.7196,-0.0010324,0.00118265,-0.00242897,0.00274468,-0.00259443,-0.9993,0.00308294,0.0190639,601,1128,-41.3231,-3.71963
-616,-104,-41.619,4.28516,-0.000963224,0.000509156,-0.00276358,0.00263293,-0.00308699,-0.91557,0.00330586,0.0262087,608,1128,-41.619,-4.2851
-609,-104,-42.1332,4.66724,0,0,0,0,0,0,0,-1,615,1128,-42.1332,-4.66729
-602,-104,-41.5814,5.21436,-0.000664786,-0.00146256,-0.00191524,0.000892663,-0.00302001,-0.682731,0.00236767,0.0314069,622,1128,-41.5814,-5.21437
-595,-104,-41.361,5.76758,-0.00092291,-0.00177453,-0.00180623,0.000507019,-0.00320446,-0.669639,0.00232382,0.0215772,629,1128,-41.361,-5.76758
-588,-104,-41.3549,6.36487,0,0,0,0,0,0,0,-1,636,1128,-41.3549,-6.3649
-581,-104,-23.9373,2.85864,0,0,0,0,0,0,0,-1,643,1128,-23.9373,-2.85861
-574,-104,-45.764,0.877441,0,0,0,0,0,0,0,-1,650,1128,-45.764,-0.877424
-567,-104,-45.6687,0.77356,0.000352536,-0.00235846,-0.00187414,0.00131,-0.00331593,-0.472314,0.00275321,0.0371217,657,1128,-45.6687,-0.773549
-560,-104,-45.704,0.544312,0.000833981,-0.00205058,-0.00198239,0.00184324,-0.00305983,-0.47091,0.00285969,0.0414459,664,1128,-45.704,-0.544361
-553,-104,-46.0323,0.57312,0.00111935,-0.0012865,-0.00236183,0.00256695,-0.0027341,-0.54986,0.00306107,0.0474894,671,1128,-46.0323,-0.573125
-546,-104,-46.0333,0.694702,0.00202388,2.41568e-06,-0.00323153,0.00439905,-0.00237276,-0.633832,0.00396762,0.0479753,678,1128,-46.0333,-0.694666
-539,-104,-45.9812,0.646606,0.00531432,0.00182928,-0.00517506,0.00903235,-0.00188876,-0.623003,0.00673995,0.0427865,685,1128,-45.9812,-0.646621
-532,-104,-45.6946,0.592407,0.00893355,0.00370449,-0.00730073,0.0140738,-0.00143575,-0.613454,0.00989589,0.0413598,692,1128,-45.6946,-0.592373
-525,-104,-45.3182,0.759766,0,0,0,0,0,0,0,-1,699,1128,-45.3182,-0.759718
-518,-104,0,0,0,0,0,0,0,0,0,-1,706,1128,0,0
-511,-104,0,0,0,0,0,0,0,0,0,-1,713,1128,0,0
-504,-104,0,0,0,0,0,0,0,0,0,-1,720,1128,0,0
-497,-104,0,0,0,0,0,0,0,0,0,-1,727,1128,0,0
-490,-104,0,0,0,0,0,0,0,0,0,-1,734,1128,0,0
-483,-104,0,0,0,0,0,0,0,0,0,-1,741,1128,0,0
-476,-104,0,0,0,0,0,0,0,0,0,-1,748,1128,0,0
-469,-104,0,0,0,0,0,0,0,0,0,-1,755,1128,0,0
-462,-104,0,0,0,0,0,0,0,0,0,-1,762,1128,0,0
-455,-104,0,0,0,0,0,0,0,0,0,-1,769,1128,0,0
-448,-104,0,0,0,0,0,0,0,0,0,-1,776,1128,0,0
-441,-104,0,0,0,0,0,0,0,0,0,-1,783,1128,0,0
-434,-104,0,0,0,0,0,0,0,0,0,-1,790,1128,0,0
-427,-104,0,0,0,0,0,0,0,0,0,-1,797,1128,0,0
-420,-104,0,0,0,0,0,0,0,0,0,-1,804,1128,0,0
-413,-104,0,0,0,0,0,0,0,0,0,-1,811,1128,0,0
-406,-104,0,0,0,0,0,0,0,0,0,-1,818,1128,0,0
-399,-104,0,0,0,0,0,0,0,0,0,-1,825,1128,0,0
-392,-104,0,0,0,0,0,0,0,0,0,-1,832,1128,0,0
-385,-104,0,0,0,0,0,0,0,0,0,-1,839,1128,0,0
-378,-104,0,0,0,0,0,0,0,0,0,-1,846,1128,0,0
-371,-104,0,0,0,0,0,0,0,0,0,-1,853,1128,0,0
-364,-104,0,0,0,0,0,0,0,0,0,-1,860,1128,0,0
-357,-104,0,0,0,0,0,0,0,0,0,-1,867,1128,0,0
-350,-104,0,0,0,0,0,0,0,0,0,-1,874,1128,0,0
-343,-104,0,0,0,0,0,0,0,0,0,-1,881,1128,0,0
-336,-104,0,0,0,0,0,0,0,0,0,-1,888,1128,0,0
-329,-104,0,0,0,0,0,0,0,0,0,-1,895,1128,0,0
-322,-104,0,0,0,0,0,0,0,0,0,-1,902,1128,0,0
-315,-104,0,0,0,0,0,0,0,0,0,-1,909,1128,0,0
-308,-104,0,0,0,0,0,0,0,0,0,-1,916,1128,0,0
-301,-104,0,0,0,0,0,0,0,0,0,-1,923,1128,0,0
-294,-104,0,0,0,0,0,0,0,0,0,-1,930,1128,0,0
-287,-104,0,0,0,0,0,0,0,0,0,-1,937,1128,0,0
-280,-104,0,0,0,0,0,0,0,0,0,-1,944,1128,0,0
-273,-104,0,0,0,0,0,0,0,0,0,-1,951,1128,0,0
-266,-104,0,0,0,0,0,0,0,0,0,-1,958,1128,0,0
-259,-104,0,0,0,0,0,0,0,0,0,-1,965,1128,0,0
-252,-104,0,0,0,0,0,0,0,0,0,-1,972,1128,0,0
-245,-104,0,0,0,0,0,0,0,0,0,-1,979,1128,0,0
-238,-104,0,0,0,0,0,0,0,0,0,-1,986,1128,0,0
-231,-104,0,0,0,0,0,0,0,0,0,-1,993,1128,0,0
-224,-104,0,0,0,0,0,0,0,0,0,-1,1000,1128,0,0
-217,-104,0,0,0,0,0,0,0,0,0,-1,1007,1128,0,0
-210,-104,0,0,0,0,0,0,0,0,0,-1,1014,1128,0,0
-203,-104,0,0,0,0,0,0,0,0,0,-1,1021,1128,0,0
-196,-104,0,0,0,0,0,0,0,0,0,-1,1028,1128,0,0
-189,-104,0,0,0,0,0,0,0,0,0,-1,1035,1128,0,0
-182,-104,0,0,0,0,0,0,0,0,0,-1,1042,1128,0,0
-175,-104,0,0,0,0,0,0,0,0,0,-1,1049,1128,0,0
-168,-104,0,0,0,0,0,0,0,0,0,-1,1056,1128,0,0
-161,-104,0,0,0,0,0,0,0,0,0,-1,1063,1128,0,0
-154,-104,0,0,0,0,0,0,0,0,0,-1,1070,1128,0,0
-147,-104,0,0,0,0,0,0,0,0,0,-1,1077,1128,0,0
-140,-104,0,0,0,0,0,0,0,0,0,-1,1084,1128,0,0
-133,-104,0,0,0,0,0,0,0,0,0,-1,1091,1128,0,0
-126,-104,0,0,0,0,0,0,0,0,0,-1,1098,1128,0,0
-119,-104,0,0,0,0,0,0,0,0,0,-1,1105,1128,0,0
-112,-104,0,0,0,0,0,0,0,0,0,-1,1112,1128,0,0
-105,-104,0,0,0,0,0,0,0,0,0,-1,1119,1128,0,0
-98,-104,0,0,0,0,0,0,0,0,0,-1,1126,1128,0,0
-91,-104,0,0,0,0,0,0,0,0,0,-1,1133,1128,0,0
-84,-104,0,0,0,0,0,0,0,0,0,-1,1140,1128,0,0
-77,-104,0,0,0,0,0,0,0,0,0,-1,1147,1128,0,0
-70,-104,0,0,0,0,0,0,0,0,0,-1,1154,1128,0,0
-63,-104,0,0,0,0,0,0,0,0,0,-1,1161,1128,0,0
-56,-104,0,0,0,0,0,0,0,0,0,-1,1168,1128,0,0
-49,-104,0,0,0,0,0,0,0,0,0,-1,1175,1128,0,0
-42,-104,0,0,0,0,0,0,0,0,0,-1,1182,1128,0,0
-35,-104,0,0,0,0,0,0,0,0,0,-1,1189,1128,0,0
-28,-104,0,0,0,0,0,0,0,0,0,-1,1196,1128,0,0
-21,-104,0,0,0,0,0,0,0,0,0,-1,1203,1128,0,0
-14,-104,0,0,0,0,0,0,0,0,0,-1,1210,1128,0,0
-7,-104,0,0,0,0,0,0,0,0,0,-1,1217,1128,0,0
0,-104,0,0,0,0,0,0,0,0,0,-1,1224,1128,0,0
7,-104,0,0,0,0,0,0,0,0,0,-1,1231,1128,0,0
14,-104,0,0,0,0,0,0,0,0,0,-1,1238,1128,0,0
21,-104,0,0,0,0,0,0,0,0,0,-1,1245,1128,0,0
28,-104,0,0,0,0,0,0,0,0,0,-1,1252,1128,0,0
35,-104,0,0,0,0,0,0,0,0,0,-1,1259,1128,0,0
42,-104,0,0,0,0,0,0,0,0,0,-1,1266,1128,0,0
49,-104,0,0,0,0,0,0,0,0,0,-1,1273,1128,0,0
56,-104,0,0,0,0,0,0,0,0,0,-1,1280,1128,0,0
63,-104,0,0,0,0,0,0,0,0,0,-1,1287,1128,0,0
70,-104,0,0,0,0,0,0,0,0,0,-1,1294,1128,0,0
77,-104,0,0,0,0,0,0,0,0,0,-1,1301,1128,0,0
84,-104,0,0,0,0,0,0,0,0,0,-1,1308,1128,0,0
91,-104,0,0,0,0,0,0,0,0,0,-1,1315,1128,0,0
98,-104,0,0,0,0,0,0,0,0,0,-1,1322,1128,0,0
105,-104,0,0,0,0,0,0,0,0,0,-1,1329,1128,0,0
112,-104,0,0,0,0,0,0,0,0,0,-1,1336,1128,0,0
119,-104,0,0,0,0,0,0,0,0,0,-1,1343,1128,0,0
126,-104,0,0,0,0,0,0,0,0,0,-1,1350,1128,0,0
133,-104,0,0,0,0,0,0,0,0,0,-1,1357,1128,0,0
140,-104,0,0,0,0,0,0,0,0,0,-1,1364,1128,0,0
147,-104,0,0,0,0,0,0,0,0,0,-1,1371,1128,0,0
154,-104,0,0,0,0,0,0,0,0,0,-1,1378,1128,0,0
161,-104,0,0,0,0,0,0,0,0,0,-1,1385,1128,0,0
168,-104,0,0,0,0,0,0,0,0,0,-1,1392,1128,0,0
175,-104,0,0,0,0,0,0,0,0,0,-1,1399,1128,0,0
182,-104,0,0,0,0,0,0,0,0,0,-1,1406,1128,0,0
189,-104,0,0,0,0,0,0,0,0,0,-1,1413,1128,0,0
196,-104,0,0,0,0,0,0,0,0,0,-1,1420,1128,0,0
203,-104,0,0,0,0,0,0,0,0,0,-1,1427,1128,0,0
210,-104,0,0,0,0,0,0,0,0,0,-1,1434,1128,0,0
217,-104,0,0,0,0,0,0,0,0,0,-1,1441,1128,0,0
224,-104,0,0,0,0,0,0,0,0,0,-1,1448,1128,0,0
231,-104,0,0,0,0,0,0,0,0,0,-1,1455,1128,0,0
238,-104,0,0,0,0,0,0,0,0,0,-1,1462,1128,0,0
245,-104,0,0,0,0,0,0,0,0,0,-1,1469,1128,0,0
252,-104,0,0,0,0,0,0,0,0,0,-1,1476,1128,0,0
259,-104,0,0,0,0,0,0,0,0,0,-1,1483,1128,0,0
266,-104,0,0,0,0,0,0,0,0,0,-1,1490,1128,0,0
273,-104,0,0,0,0,0,0,0,0,0,-1,1497,1128,0,0
280,-104,0,0,0,0,0,0,0,0,0,-1,1504,1128,0,0
287,-104,0,0,0,0,0,0,0,0,0,-1,1511,1128,0,0
294,-104,0,0,0,0,0,0,0,0,0,-1,1518,1128,0,0
301,-104,0,0,0,0,0,0,0,0,0,-1,1525,1128,0,0
308,-104,0,0,0,0,0,0,0,0,0,-1,1532,1128,0,0
315,-104,0,0,0,0,0,0,0,0,0,-1,1539,1128,0,0
322,-104,0,0,0,0,0,0,0,0,0,-1,1546,1128,0,0
329,-104,0,0,0,0,0,0,0,0,0,-1,1553,1128,0,0
336,-104,0,0,0,0,0,0,0,0,0,-1,1560,1128,0,0
343,-104,0,0,0,0,0,0,0,0,0,-1,1567,1128,0,0
350,-104,0,0,0,0,0,0,0,0,0,-1,1574,1128,0,0
357,-104,0,0,0,0,0,0,0,0,0,-1,1581,1128,0,0
364,-104,0,0,0,0,0,0,0,0,0,-1,1588,1128,0,0
371,-104,0,0,0,0,0,0,0,0,0,-1,1595,1128,0,0
378,-104,0,0,0,0,0,0,0,0,0,-1,1602,1128,0,0
385,-104,0,0,0,0,0,0,0,0,0,-1,1609,1128,0,0
392,-104,0,0,0,0,0,0,0,0,0,-1,1616,1128,0,0
399,-104,0,0,0,0,0,0,0,0,0,-1,1623,1128,0,0
406,-104,0,0,0,0,0,0,0,0,0,-1,1630,1128,0,0
413,-104,0,0,0,0,0,0,0,0,0,-1,1637,1128,0,0
420,-104,0,0,0,0,0,0,0,0,0,-1,1644,1128,0,0
427,-104,0,0,0,0,0,0,0,0,0,-1,1651,1128,0,0
434,-104,0,0,0,0,0,0,0,0,0,-1,1658,1128,0,0
441,-104,0,0,0,0,0,0,0,0,0,-1,1665,1128,0,0
448,-104,0,0,0,0,0,0,0,0,0,-1,1672,1128,0,0
455,-104,0,0,0,0,0,0,0,0,0,-1,1679,1128,0,0
462,-104,0,0,0,0,0,0,0,0,0,-1,1686,1128,0,0
469,-104,0,0,0,0,0,0,0,0,0,-1,1693,1128,0,0
476,-104,0,0,0,0,0,0,0,0,0,-1,1700,1128,0,0
483,-104,0,0,0,0,0,0,0,0,0,-1,1707,1128,0,0
490,-104,0,0,0,0,0,0,0,0,0,-1,1714,1128,0,0
497,-104,0,0,0,0,0,0,0,0,0,-1,1721,1128,0,0
504,-104,0,0,0,0,0,0,0,0,0,-1,1728,1128,0,0
511,-104,0,0,0,0,0,0,0,0,0,-1,1735,1128,0,0
518,-104,0,0,0,0,0,0,0,0,0,-1,1742,1128,0,0
525,-104,0,0,0,0,0,0,0,0,0,-1,1749,1128,0,0
532,-104,0,0,0,0,0,0,0,0,0,-1,1756,1128,0,0
539,-104,0,0,0,0,0,0,0,0,0,-1,1763,1128,0,0
546,-104,0,0,0,0,0,0,0,0,0,-1,1770,1128,0,0
553,-104,0,0,0,0,0,0,0,0,0,-1,1777,1128,0,0
560,-104,0,0,0,0,0,0,0,0,0,-1,1784,1128,0,0
567,-104,0,0,0,0,0,0,0,0,0,-1,1791,1128,0,0
574,-104,0,0,0,0,0,0,0,0,0,-1,1798,1128,0,0
581,-104,0,0,0,0,0,0,0,0,0,-1,1805,1128,0,0
588,-104,0,0,0,0,0,0,0,0,0,-1,1812,1128,0,0
595,-104,0,0,0,0,0,0,0,0,0,-1,1819,1128,0,0
602,-104,0,0,0,0,0,0,0,0,0,-1,1826,1128,0,0
609,-104,0,0,0,0,0,0,0,0,0,-1,1833,1128,0,0
616,-104,0,0,0,0,0,0,0,0,0,-1,1840,1128,0,0
623,-104,0,0,0,0,0,0,0,0,0,-1,1847,1128,0,0
630,-104,0,0,0,0,0,0,0,0,0,-1,1854,1128,0,0
637,-104,0,0,0,0,0,0,0,0,0,-1,1861,1128,0,0
644,-104,60.5906,2.64172,0.0081882,-0.0002501,-0.0030991,0.00920409,-0.00126599,-0.316764,0.00659866,0.0384638,1868,1128,60.5906,-2.64168
651,-104,60.7435,2.48486,0.00609212,-3.64756e-05,-0.00216467,0.00677959,-0.000723939,-0.30751,0.00477935,0.0378073,1875,1128,60.7435,-2.48487
658,-104,60.8125,2.43042,0.00469211,-0.000148821,-0.00144475,0.00509051,-0.000547213,-0.269065,0.00359,0.039485,1882,1128,60.8126,-2.4304
665,-104,60.854,2.46448,0.00353051,-0.000298459,-0.00081118,0.00369527,-0.000463221,-0.200388,0.00263154,0.042504,1889,1128,60.8541,-2.46452
672,-104,60.8645,2.61462,0.00248054,-0.000471768,-0.000294712,0.00250967,-0.0005009,-0.0985288,0.00186267,0.0441596,1896,1128,60.8646,-2.61458
679,-104,60.8407,2.81689,0.0013964,-0.000745847,0.000117898,0.00140287,-0.000752316,0.054814,0.00126305,0.0438613,1903,1128,60.8407,-2.81695
686,-104,60.6902,2.65771,0.000820999,-0.00100696,0.000445351,0.000923727,-0.00110969,0.226704,0.00117563,0.0403021,1910,1128,60.6902,-2.65776
693,-104,60.6637,2.59741,0.000529892,-0.00116333,0.000637828,0.000743269,-0.00137671,0.322834,0.00124205,0.0353078,1917,1128,60.6637,-2.59743
700,-104,60.7249,2.56604,0.000269011,-0.00122107,0.000871514,0.00067054,-0.0016226,0.431738,0.00136145,0.0278682,1924,1128,60.7249,-2.566
707,-104,60.7136,2.59973,0,0,0,0,0,0,0,-1,1931,1128,60.7137,-2.59969
714,-104,45.5221,2.32166,0,0,0,0,0,0,0,-1,1938,1128,45.5221,-2.3216
721,-104,55.9779,8.40247,0,0,0,0,0,0,0,-1,1945,1128,55.9779,-8.40251
728,-104,56.1489,7.90259,0,0,0,0,0,0,0,-1,1952,1128,56.1489,-7.90263
735,-104,56.292,7.29346,0,0,0,0,0,0,0,-1,1959,1128,56.292,-7.29347
742,-104,56.085,6.99878,-0.0015852,0.000705138,0.00213002,0.00197831,-0.00285838,1.03205,0.00280783,0.0226345,1966,1128,56.085,-6.99877
749,-104,55.9895,6.59888,-0.0018182,0.0016701,0.00279555,0.00322097,-0.00336907,1.0643,0.00380508,0.0217053,1973,1128,55.9895,-6.59885
756,-104,56.0006,6.16309,-0.00150694,0.00368812,0.00330153,0.00529145,-0.00311027,1.11871,0.00490492,0.0172054,1980,1128,56.0006,-6.16306
763,-104,55.9631,5.7439,-0.000270966,0.00631031,0.00395425,0.00816403,-0.00212468,1.13243,0.00627204,0.0174053,1987,1128,55.9632,-5.74393
770,-104,55.9004,5.34229,0.00173979,0.00985166,0.00505454,0.0122764,-0.000684937,1.12351,0.00842186,0.0158005,1994,1128,55.9005,-5.34234
777,-104,55.7791,4.87256,0.00486427,0.0141195,0.00638845,0.0173803,0.00160348,1.09885,0.0110911,0.024418,2001,1128,55.7791,-4.87259
784,-104,55.8237,4.49109,0.00948095,0.019277,0.00792462,0.0236951,0.00506284,1.0622,0.0144087,0.0410511,2008,1128,55.8238,-4.49114
791,-104,55.7083,3.9325,0.0165303,0.0256955,0.00972243,0.0318612,0.0103646,1.00563,0.0187656,0.0438642,2015,1128,55.7082,-3.93245
798,-104,55.4756,3.75549,0.0271547,0.0338087,0.0115946,0.0425441,0.0184192,0.925116,0.0246364,0.048932,2022,1128,55.4757,-3.75545
805,-104,58.2527,3.01917,0,0,0,0,0,0,0,-1,2029,1128,58.2527,-3.01918
812,-104,59.0415,2.15808,0,0,0,0,0,0,0,-1,2036,1128,59.0415,-2.15803
-700,-111,0,0,0,0,0,0,0,0,0,-1,524,1135,0,0
-693,-111,-42.9016,0.759888,0.0426035,-0.138663,0.0648632,0.0634226,-0.159482,0.310582,0.132618,0.0457766,531,1135,-42.9016,-0.759883
-686,-111,-42.6213,1.06616,0.0345913,-0.111419,0.0513812,0.0508598,-0.127687,0.306637,0.106218,0.046945,538,1135,-42.6213,-1.06618
-679,-111,-42.3511,1.31116,0.0269866,-0.086949,0.0397189,0.0394661,-0.0994284,0.304428,0.0826442,0.0443387,545,1135,-42.3511,-1.31116
-672,-111,-42.0056,1.77771,0.0204974,-0.0652605,0.0295213,0.0296772,-0.0744403,0.301476,0.0619365,0.0457535,552,1135,-42.0056,-1.77768
-665,-111,-40.9545,0.857788,0,0,0,0,0,0,0,-1,559,1135,-40.9545,-0.857757
-658,-111,-40.8857,1.37524,0.00995463,-0.0311794,0.0136249,0.0140583,-0.0352831,0.292544,0.0293526,0.0474565,566,1135,-40.8857,-1.37524
-651,-111,-40.6558,1.75366,0.00590541,-0.0190651,0.00791138,0.00820094,-0.0213606,0.282401,0.017622,0.0455826,573,1135,-40.6558,-1.75362
-644,-111,-40.6184,2.26697,0.002968,-0.0105209,0.00374661,0.00393878,-0.0114916,0.253533,0.00925766,0.0283804,580,1135,-40.6184,-2.26693
-637,-111,-40.7209,2.77759,0.000370371,-0.00408719,0.000404594,0.000406797,-0.00412361,0.0897882,0.00289422,0.0123732,587,1135,-40.7209,-2.77763
-630,-111,-40.7686,3.18237,-0.00080146,0.000157892,-0.00197101,0.00170675,-0.00235032,-0.904761,0.00235216,0.0238441,594,1135,-40.7686,-3.18238
-623,-111,-40.7911,3.72839,-0.00142009,0.00120921,-0.0028426,0.00302644,-0.00323732,-1.00199,0.00361707,0.0200271,601,1135,-40.7911,-3.72845
-616,-111,-41.0734,4.22717,-0.00153975,0.000502819,-0.00304226,0.00269064,-0.00372758,-0.947337,0.00372165,0.0221749,608,1135,-41.0734,-4.22714
-609,-111,-41.3113,4.67529,-0.00149963,-0.000869527,-0.0024601,0.00129562,-0.00366477,-0.849083,0.00297077,0.0338504,615,1135,-41.3113,-4.67534
-602,-111,-41.1965,5.23486,-0.00144228,-0.00129659,-0.00206572,0.00069757,-0.00343644,-0.803023,0.00255542,0.0416191,622,1135,-41.1965,-5.23481
-595,-111,-40.8804,5.802,-0.00169938,-0.00161453,-0.00192982,0.000273334,-0.00358724,-0.796388,0.00248761,0.0202556,629,1135,-40.8804,-5.80196
-588,-111,-40.611,6.48364,0,0,0,0,0,0,0,-1,636,1135,-40.611,-6.48368
-581,-111,-21.0555,3.14551,0,0,0,0,0,0,0,-1,643,1135,-21.0555,-3.14548
-574,-111,-45.7539,0.828491,0,0,0,0,0,0,0,-1,650,1135,-45.7539,-0.828487
-567,-111,-45.6772,0.74231,-0.000434269,-0.00277881,-0.00224219,0.000923604,-0.00413668,-0.544528,0.00311169,0.0388263,657,1135,-45.6772,-0.742365
-560,-111,-45.685,0.559326,0.000147079,-0.00271525,-0.0023772,0.00149068,-0.00405885,-0.51444,0.00331641,0.038151,664,1135,-45.685,-0.559333
-553,-111,-45.7934,0.522827,0.000533005,-0.00223952,-0.00287917,0.00234226,-0.00404878,-0.561037,0.00373346,0.0427562,671,1135,-45.7934,-0.522842
-546,-111,-45.9195,0.618164,0.00149154,-0.00130682,-0.00395491,0.00428748,-0.00410276,-0.615377,0.0048445,0.0415168,678,1135,-45.9195,-0.618204
-539,-111,-46.0248,0.550293,0.00463245,-5.69643e-05,-0.00636712,0.00907286,-0.00449738,-0.608977,0.00798185,0.0431725,685,1135,-46.0248,-0.550232
-532,-111,-45.4501,0.363037,0,0,0,0,0,0,0,-1,692,1135,-45.4501,-0.363031
-525,-111,-45.6974,0.785522,0,0,0,0,0,0,0,-1,699,1135,-45.6975,-0.785506
-518,-111,0,0,0,0,0,0,0,0,0,-1,706,1135,0,0
-511,-111,0,0,0,0,0,0,0,0,0,-1,713,1135,0,0
-504,-111,0,0,0,0,0,0,0,0,0,-1,720,1135,0,0
-497,-111,0,0,0,0,0,0,0,0,0,-1,727,1135,0,0
-490,-111,0,0,0,0,0,0,0,0,0,-1,734,1135,0,0
-483,-111,0,0,0,0,0,0,0,0,0,-1,741,1135,0,0
-476,-111,0,0,0,0,0,0,0,0,0,-1,748,1135,0,0
-469,-111,0,0,0,0,0,0,0,0,0,-1,755,1135,0,0
-462,-111,0,0,0,0,0,0,0,0,0,-1,762,1135,0,0
-455,-111,0,0,0,0,0,0,0,0,0,-1,769,1135,0,0
-448,-111,0,0,0,0,0,0,0,0,0,-1,776,1135,0,0
-441,-111,0,0,0,0,0,0,0,0,0,-1,783,1135,0,0
-434,-111,0,0,0,0,0,0,0,0,0,-1,790,1135,0,0
-427,-111,0,0,0,0,0,0,0,0,0,-1,797,1135,0,0
-420,-111,0,0,0,0,0,0,0,0,0,-1,804,1135,0,0
-413,-111,0,0,0,0,0,0,0,0,0,-1,811,1135,0,0
-406,-111,0,0,0,0,0,0,0,0,0,-1,818,1135,0,0
-399,-111,0,0,0,0,0,0,0,0,0,-1,825,1135,0,0
-392,-111,0,0,0,0,0,0,0,0,0,-1,832,1135,0,0
-385,-111,0,0,0,0,0,0,0,0,0,-1,839,1135,0,0
-378,-111,0,0,0,0,0,0,0,0,0,-1,846,1135,0,0
-371,-111,0,0,0,0,0,0,0,0,0,-1,853,1135,0,0
-364,-111,0,0,0,0,0,0,0,0,0,-1,860,1135,0,0
-357,-111,0,0,0,0,0,0,0,0,0,-1,867,1135,0,0
-350,-111,0,0,0,0,0,0,0,0,0,-1,874,1135,0,0
-343,-111,0,0,0,0,0,0,0,0,0,-1,881,1135,0,0
-336,-111,0,0,0,0,0,0,0,0,0,-1,888,1135,0,0
-329,-111,0,0,0,0,0,0,0,0,0,-1,895,1135,0,0
-322,-111,0,0,0,0,0,0,0,0,0,-1,902,1135,0,0
-315,-111,0,0,0,0,0,0,0,0,0,-1,909,1135,0,0
-308,-111,0,0,0,0,0,0,0,0,0,-1,916,1135,0,0
-301,-111,0,0,0,0,0,0,0,0,0,-1,923,1135,0,0
-294,-111,0,0,0,0,0,0,0,0,0,-1,930,1135,0,0
-287,-111,0,0,0,0,0,0,0,0,0,-1,937,1135,0,0
-280,-111,0,0,0,0,0,0,0,0,0,-1,944,1135,0,0
-273,-111,0,0,0,0,0,0,0,0,0,-1,951,1135,0,0
-266,-111,0,0,0,0,0,0,0,0,0,-1,958,1135,0,0
-259,-111,0,0,0,0,0,0,0,0,0,-1,965,1135,0,0
-252,-111,0,0,0,0,0,0,0,0,0,-1,972,1135,0,0
-245,-111,0,0,0,0,0,0,0,0,0,-1,979,1135,0,0
-238,-111,0,0,0,0,0,0,0,0,0,-1,986,1135,0,0
-231,-111,0,0,0,0,0,0,0,0,0,-1,993,1135,0,0
-224,-111,0,0,0,0,0,0,0,0,0,-1,1000,1135,0,0
-217,-111,0,0,0,0,0,0,0,0,0,-1,1007,1135,0,0
-210,-111,0,0,0,0,0,0,0,0,0,-1,1014,1135,0,0
-203,-111,0,0,0,0,0,0,0,0,0,-1,1021,1135,0,0
-196,-111,0,0,0,0,0,0,0,0,0,-1,1028,1135,0,0
-189,-111,0,0,0,0,0,0,0,0,0,-1,1035,1135,0,0
-182,-111,0,0,0,0,0,0,0,0,0,-1,1042,1135,0,0
-175,-111,0,0,0,0,0,0,0,0,0,-1,1049,1135,0,0
-168,-111,0,0,0,0,0,0,0,0,0,-1,1056,1135,0,0
-161,-111,0,0,0,0,0,0,0,0,0,-1,1063,1135,0,0
-154,-111,0,0,0,0,0,0,0,0,0,-1,1070,1135,0,0
-147,-111,0,0,0,0,0,0,0,0,0,-1,1077,1135,0,0
-140,-111,0,0,0,0,0,0,0,0,0,-1,1084,1135,0,0
-133,-111,0,0,0,0,0,0,0,0,0,-1,1091,1135,0,0
-126,-111,0,0,0,0,0,0,0,0,0,-1,1098,1135,0,0
-119,-111,0,0,0,0,0,0,0,0,0,-1,1105,1135,0,0
-112,-111,0,0,0,0,0,0,0,0,0,-1,1112,1135,0,0
-105,-111,0,0,0,0,0,0,0,0,0,-1,1119,1135,0,0
-98,-111,0,0,0,0,0,0,0,0,0,-1,1126,1135,0,0
-91,-111,0,0,0,0,0,0,0,0,0,-1,1133,1135,0,0
-84,-111,0,0,0,0,0,0,0,0,0,-1,1140,1135,0,0
-77,-111,0,0,0,0,0,0,0,0,0,-1,1147,1135,0,0
-70,-111,0,0,0,0,0,0,0,0,0,-1,1154,1135,0,0
-63,-111,0,0,0,0,0,0,0,0,0,-1,1161,1135,0,0
-56,-111,0,0,0,0,0,0,0,0,0,-1,1168,1135,0,0
-49,-111,0,0,0,0,0,0,0,0,0,-1,1175,1135,0,0
-42,-111,0,0,0,0,0,0,0,0,0,-1,1182,1135,0,0
-35,-111,0,0,0,0,0,0,0,0,0,-1,1189,1135,0,0
-28,-111,0,0,0,0,0,0,0,0,0,-1,1196,1135,0,0
-21,-111,0,0,0,0,0,0,0,0,0,-1,1203,1135,0,0
-14,-111,0,0,0,0,0,0,0,0,0,-1,1210,1135,0,0
-7,-111,0,0,0,0,0,0,0,0,0,-1,1217,1135,0,0
0,-111,0,0,0,0,0,0,0,0,0,-1,1224,1135,0,0
7,-111,0,0,0,0,0,0,0,0,0,-1,1231,1135,0,0
14,-111,0,0,0,0,0,0,0,0,0,-1,1238,1135,0,0
21,-111,0,0,0,0,0,0,0,0,0,-1,1245,1135,0,0
28,-111,0,0,0,0,0,0,0,0,0,-1,1252,1135,0,0
35,-111,0,0,0,0,0,0,0,0,0,-1,1259,1135,0,0
42,-111,0,0,0,0,0,0,0,0,0,-1,1266,1135,0,0
49,-111,0,0,0,0,0,0,0,0,0,-1,1273,1135,0,0
56,-111,0,0,0,0,0,0,0,0,0,-1,1280,1135,0,0
63,-111,0,0,0,0,0,0,0,0,0,-1,1287,1135,0,0
70,-111,0,0,0,0,0,0,0,0,0,-1,1294,1135,0,0
77,-111,0,0,0,0,0,0,0,0,0,-1,1301,1135,0,0
84,-111,0,0,0,0,0,0,0,0,0,-1,1308,1135,0,0
91,-111,0,0,0,0,0,0,0,0,0,-1,1315,1135,0,0
98,-111,0,0,0,0,0,0,0,0,0,-1,1322,1135,0,0
105,-111,0,0,0,0,0,0,0,0,0,-1,1329,1135,0,0
112,-111,0,0,0,0,0,0,0,0,0,-1,1336,1135,0,0
119,-111,0,0,0,0,0,0,0,0,0,-1,1343,1135,0,0
126,-111,0,0,0,0,0,0,0,0,0,-1,1350,1135,0,0
133,-111,0,0,0,0,0,0,0,0,0,-1,1357,1135,0,0
140,-111,0,0,0,0,0,0,0,0,0,-1,1364,1135,0,0
147,-111,0,0,0,0,0,0,0,0,0,-1,1371,1135,0,0
154,-111,0,0,0,0,0,0,0,0,0,-1,1378,1135,0,0
161,-111,0,0,0,0,0,0,0,0,0,-1,1385,1135,0,0
168,-111,0,0,0,0,0,0,0,0,0,-1,1392,1135,0,0
175,-111,0,0,0,0,0,0,0,0,0,-1,1399,1135,0,0
182,-111,0,0,0,0,0,0,0,0,0,-1,1406,1135,0,0
189,-111,0,0,0,0,0,0,0,0,0,-1,1413,1135,0,0
196,-111,0,0,0,0,0,0,0,0,0,-1,1420,1135,0,0
203,-111,0,0,0,0,0,0,0,0,0,-1,1427,1135,0,0
210,-111,0,0,0,0,0,0,0,0,0,-1,1434,1135,0,0
217,-111,0,0,0,0,0,0,0,0,0,-1,1441,1135,0,0
224,-111,0,0,0,0,0,0,0,0,0,-1,1448,1135,0,0
231,-111,0,0,0,0,0,0,0,0,0,-1,1455,1135,0,0
238,-111,0,0,0,0,0,0,0,0,0,-1,1462,1135,0,0
245,-111,0,0,0,0,0,0,0,0,0,-1,1469,1135,0,0
252,-111,0,0,0,0,0,0,0,0,0,-1,1476,1135,0,0
259,-111,0,0,0,0,0,0,0,0,0,-1,1483,1135,0,0
266,-111,0,0,0,0,0,0,0,0,0,-1,1490,1135,0,0
273,-111,0,0,0,0,0,0,0,0,0,-1,1497,1135,0,0
280,-111,0,0,0,0,0,0,0,0,0,-1,1504,1135,0,0
287,-111,0,0,0,0,0,0,0,0,0,-1,1511,1135,0,0
294,-111,0,0,0,0,0,0,0,0,0,-1,1518,1135,0,0
301,-111,0,0,0,0,0,0,0,0,0,-1,1525,1135,0,0
308,-111,0,0,0,0,0,0,0,0,0,-1,1532,1135,0,0
315,-111,0,0,0,0,0,0,0,0,0,-1,1539,1135,0,0
322,-111,0,0,0,0,0,0,0,0,0,-1,1546,1135,0,0
329,-111,0,0,0,0,0,0,0,0,0,-1,1553,1135,0,0
336,-111,0,0,0,0,0,0,0,0,0,-1,1560,1135,0,0
343,-111,0,0,0,0,0,0,0,0,0,-1,1567,1135,0,0
350,-111,0,0,0,0,0,0,0,0,0,-1,1574,1135,0,0
357,-111,0,0,0,0,0,0,0,0,0,-1,1581,1135,0,0
364,-111,0,0,0,0,0,0,0,0,0,-1,1588,1135,0,0
371,-111,0,0,0,0,0,0,0,0,0,-1,1595,1135,0,0
378,-111,0,0,0,0,0,0,0,0,0,-1,1602,1135,0,0
385,-111,0,0,0,0,0,0,0,0,0,-1,1609,1135,0,0
392,-111,0,0,0,0,0,0,0,0,0,-1,1616,1135,0,0
399,-111,0,0,0,0,0,0,0,0,0,-1,1623,1135,0,0
406,-111,0,0,0,0,0,0,0,0,0,-1,1630,1135,0,0
413,-111,0,0,0,0,0,0,0,0,0,-1,1637,1135,0,0
420,-111,0,0,0,0,0,0,0,0,0,-1,1644,1135,0,0
427,-111,0,0,0,0,0,0,0,0,0,-1,1651,1135,0,0
434,-111,0,0,0,0,0,0,0,0,0,-1,1658,1135,0,0
441,-111,0,0,0,0,0,0,0,0,0,-1,1665,1135,0,0
448,-111,0,0,0,0,0,0,0,0,0,-1,1672,1135,0,0
455,-111,0,0,0,0,0,0,0,0,0,-1,1679,1135,0,0
462,-111,0,0,0,0,0,0,0,0,0,-1,1686,1135,0,0
469,-111,0,0,0,0,0,0,0,0,0,-1,1693,1135,0,0
476,-111,0,0,0,0,0,0,0,0,0,-1,1700,1135,0,0
483,-111,0,0,0,0,0,0,0,0,0,-1,1707,1135,0,0
490,-111,0,0,0,0,0,0,0,0,0,-1,1714,1135,0,0
497,-111,0,0,0,0,0,0,0,0,0,-1,1721,1135,0,0
504,-111,0,0,0,0,0,0,0,0,0,-1,1728,1135,0,0
511,-111,0,0,0,0,0,0,0,0,0,-1,1735,1135,0,0
518,-111,0,0,0,0,0,0,0,0,0,-1,1742,1135,0,0
525,-111,0,0,0,0,0,0,0,0,0,-1,1749,1135,0,0
532,-111,0,0,0,0,0,0,0,0,0,-1,1756,1135,0,0
539,-111,0,0,0,0,0,0,0,0,0,-1,1763,1135,0,0
546,-111,0,0,0,0,0,0,0,0,0,-1,1770,1135,0,0
553,-111,0,0,0,0,0,0,0,0,0,-1,1777,1135,0,0
560,-111,0,0,0,0,0,0,0,0,0,-1,1784,1135,0,0
567,-111,0,0,0,0,0,0,0,0,0,-1,1791,1135,0,0
574,-111,0,0,0,0,0,0,0,0,0,-1,1798,1135,0,0
581,-111,0,0,0,0,0,0,0,0,0,-1,1805,1135,0,0
588,-111,0,0,0,0,0,0,0,0,0,-1,1812,1135,0,0
595,-111,0,0,0,0,0,0,0,0,0,-1,1819,1135,0,0
602,-111,0,0,0,0,0,0,0,0,0,-1,1826,1135,0,0
609,-111,0,0,0,0,0,0,0,0,0,-1,1833,1135,0,0
616,-111,0,0,0,0,0,0,0,0,0,-1,1840,1135,0,0
623,-111,0,0,0,0,0,0,0,0,0,-1,1847,1135,0,0
630,-111,0,0,0,0,0,0,0,0,0,-1,1854,1135,0,0
637,-111,0,0,0,0,0,0,0,0,0,-1,1861,1135,0,0
644,-111,60.5731,2.35889,0.00773762,-0.00102441,-0.00324378,0.00880779,-0.00209457,-0.31867,0.00668042,0.0385874,1868,1135,60.5731,-2.35891
651,-111,60.6959,2.45117,0.00584848,-0.000552602,-0.00210547,0.00647893,-0.00118305,-0.290937,0.00476287,0.0392043,1875,1135,60.696,-2.45116
658,-111,60.8556,2.69739,0.00456123,-0.000462883,-0.00126332,0.004861,-0.000762658,-0.232983,0.00352252,0.0431905,1882,1135,60.8556,-2.69733
665,-111,60.8921,2.63452,0.0034497,-0.000448397,-0.000576287,0.00353311,-0.00053181,-0.143742,0.00255122,0.0459571,1889,1135,60.8921,-2.63452
672,-111,60.8202,2.64001,0.0023862,-0.000489307,-5.2669e-05,0.00238716,-0.000490271,-0.0183082,0.00177755,0.0466299,1896,1135,60.8202,-2.64006
679,-111,60.7631,2.84949,0.00128043,-0.00072442,0.000351201,0.00134018,-0.000784161,0.168494,0.00124041,0.0433426,1903,1135,60.7631,-2.84945
686,-111,60.67,2.79272,0.000672762,-0.000987023,0.000629499,0.000884498,-0.00119876,0.324469,0.00120732,0.0405212,1910,1135,60.67,-2.79272
693,-111,60.6417,2.66248,0.000326574,-0.00113231,0.000774775,0.000661256,-0.001467,0.407762,0.00125776,0.0380868,1917,1135,60.6417,-2.66249
700,-111,60.7351,2.61829,4.87986e-05,-0.00118478,0.000996936,0.000604319,-0.0017403,0.508375,0.00140563,0.0282788,1924,1135,60.7351,-2.61834
707,-111,60.7338,2.64087,0,0,0,0,0,0,0,-1,1931,1135,60.7337,-2.64084
714,-111,45.1654,7.39746,0,0,0,0,0,0,0,-1,1938,1135,45.1654,-7.39745
721,-111,55.5226,8.58081,0,0,0,0,0,0,0,-1,1945,1135,55.5226,-8.58085
728,-111,55.6429,7.96851,-0.00143424,-0.000540216,0.0016058,0.000679625,-0.00265409,0.921149,0.00203414,0.0256881,1952,1135,55.6429,-7.9685
735,-111,55.7052,7.54175,-0.00153229,-0.000195719,0.00168253,0.000946383,-0.00267439,0.97444,0.00216836,0.0289063,1959,1135,55.7052,-7.5417
742,-111,55.5879,7.10876,-0.00153476,0.000393347,0.00205673,0.00170075,-0.00284216,1.00456,0.0026503,0.01858,1966,1135,55.5879,-7.10878
749,-111,55.5065,6.64331,-0.00182511,0.00133436,0.00275586,0.00293115,-0.0034219,1.04565,0.00367158,0.0185225,1973,1135,55.5065,-6.64337
756,-111,55.4917,6.16052,-0.00171265,0.00352016,0.00345721,0.0052394,-0.00343189,1.10932,0.0050425,0.0172218,1980,1135,55.4917,-6.16052
763,-111,55.4872,5.73035,-0.000697558,0.00632404,0.00438759,0.00843255,-0.00280607,1.12282,0.00675423,0.0155905,1987,1135,55.4872,-5.7303
770,-111,55.46,5.30017,0.000750634,0.0100771,0.00586631,0.0129078,-0.00208008,1.12122,0.00937582,0.0137772,1994,1135,55.46,-5.30018
777,-111,55.2529,4.79541,0.0029196,0.0146596,0.00771903,0.018487,-0.000907839,1.11048,0.0126382,0.0285903,2001,1135,55.2528,-4.79538
784,-111,55.2854,4.32983,0,0,0,0,0,0,0,-1,2008,1135,55.2853,-4.3298
791,-111,55.1467,2.93176,0,0,0,0,0,0,0,-1,2015,1135,55.1466,-2.93182
798,-111,54.8044,2.61035,0,0,0,0,0,0,0,-1,2022,1135,54.8045,-2.61038
805,-111,54.8418,2.34473,0,0,0,0,0,0,0,-1,2029,1135,54.8418,-2.34478
812,-111,58.8918,1.90527,0,0,0,0,0,0,0,-1,2036,1135,58.8918,-1.9053
-700,-118,0,0,0,0,0,0,0,0,0,-1,524,1142,0,0
-693,-118,-43.7322,1.27161,0,0,0,0,0,0,0,-1,531,1142,-43.7322,-1.27161
-686,-118,-43.4227,1.53723,0,0,0,0,0,0,0,-1,538,1142,-43.4227,-1.53726
-679,-118,-42.4578,2.13757,0.031983,-0.0844559,0.0386965,0.0436701,-0.0961429,0.293308,0.0825943,0.0443658,545,1142,-42.4578,-2.13762
-672,-118,-42.1187,2.56995,0.0243202,-0.0636912,0.0290058,0.0330197,-0.0723907,0.291386,0.0622577,0.0474013,552,1142,-42.1187,-2.56997
-665,-118,-41.9848,3.00696,0,0,0,0,0,0,0,-1,559,1142,-41.9848,-3.007
-658,-118,-40.3481,1.46826,0,0,0,0,0,0,0,-1,566,1142,-40.3481,-1.46829
-651,-118,-40.1042,1.87793,0.00735174,-0.0184536,0.00774434,0.00949745,-0.0205993,0.270288,0.0177661,0.0454547,573,1142,-40.1042,-1.87788
-644,-118,-39.9971,2.26111,0.00380013,-0.009943,0.00354537,0.00466084,-0.0108037,0.238163,0.00916025,0.0323967,580,1142,-39.9971,-2.26106
-637,-118,-40.1973,2.80652,0.000746179,-0.00358777,0.000216015,0.000756919,-0.00359851,0.0496785,0.00268709,0.017989,587,1142,-40.1973,-2.80656
-630,-118,-40.249,3.27234,-0.000800971,0.000423281,-0.00211487,0.00201283,-0.00239052,-0.926268,0.0025454,0.0248336,594,1142,-40.249,-3.27233
-623,-118,-40.2408,3.77319,-0.00172505,0.00131639,-0.00297953,0.00314084,-0.0035495,-1.02136,0.00386507,0.0198285,601,1142,-40.2408,-3.77316
-616,-118,-40.3595,4.27319,-0.00202017,0.000404104,-0.0031461,0.00256349,-0.00417956,-0.969276,0.0039302,0.0272276,608,1142,-40.3595,-4.2732
-609,-118,-40.6053,4.573,-0.00213714,-0.000999062,-0.00252374,0.001019,-0.0041552,-0.896281,0.00316496,0.0420013,615,1142,-40.6053,-4.57294
-602,-118,-40.4521,5.38208,-0.00210882,-0.00134935,-0.00209123,0.000396349,-0.00385451,-0.875211,0.00271147,0.0441526,622,1142,-40.4522,-5.38204
-595,-118,-40.4952,5.74622,-0.00235468,-0.00166405,-0.00192921,-4.94937e-05,-0.00396924,-0.873956,0.00262982,0.0330847,629,1142,-40.4952,-5.7462
-588,-118,-39.9149,6.59436,0,0,0,0,0,0,0,-1,636,1142,-39.9149,-6.59431
-581,-118,-24.6116,3.89648,0,0,0,0,0,0,0,-1,643,1142,-24.6116,-3.89645
-574,-118,-45.7344,0.778687,0,0,0,0,0,0,0,-1,650,1142,-45.7344,-0.778671
-567,-118,-45.756,0.853027,-0.000908541,-0.00333214,-0.00243583,0.000600273,-0.00484095,-0.55458,0.00344487,0.0419308,657,1142,-45.756,-0.853053
-560,-118,-45.8256,0.926392,-0.000200555,-0.00348472,-0.00255392,0.00119363,-0.00487891,-0.499691,0.00371496,0.0346439,664,1142,-45.8255,-0.926394
-553,-118,-45.7445,0.942993,0.000361442,-0.00326044,-0.00313823,0.00217376,-0.00507276,-0.523708,0.00429393,0.0378791,671,1142,-45.7445,-0.942985
-546,-118,-45.661,0.942505,0.00150876,-0.00258306,-0.00439972,0.004315,-0.00538929,-0.567766,0.00561421,0.0400857,678,1142,-45.661,-0.942452
-539,-118,-45.892,0.895874,0.00478352,-0.00166217,-0.00741392,0.0096448,-0.00652344,-0.580369,0.00939254,0.0441721,685,1142,-45.8921,-0.895831
-532,-118,-46.1246,0.858521,0,0,0,0,0,0,0,-1,692,1142,-46.1246,-0.858507
-525,-118,-45.9706,0.739746,0,0,0,0,0,0,0,-1,699,1142,-45.9706,-0.739731
-518,-118,0,0,0,0,0,0,0,0,0,-1,706,1142,0,0
-511,-118,0,0,0,0,0,0,0,0,0,-1,713,1142,0,0
-504,-118,0,0,0,0,0,0,0,0,0,-1,720,1142,0,0
-497,-118,0,0,0,0,0,0,0,0,0,-1,727,1142,0,0
-490,-118,0,0,0,0,0,0,0,0,0,-1,734,1142,0,0
-483,-118,0,0,0,0,0,0,0,0,0,-1,741,1142,0,0
-476,-118,0,0,0,0,0,0,0,0,0,-1,748,1142,0,0
-469,-118,0,0,0,0,0,0,0,0,0,-1,755,1142,0,0
-462,-118,0,0,0,0,0,0,0,0,0,-1,762,1142,0,0
-455,-118,0,0,0,0,0,0,0,0,0,-1,769,1142,0,0
-448,-118,0,0,0,0,0,0,0,0,0,-1,776,1142,0,0
-441,-118,0,0,0,0,0,0,0,0,0,-1,783,1142,0,0
-434,-118,0,0,0,0,0,0,0,0,0,-1,790,1142,0,0
-427,-118,0,0,0,0,0,0,0,0,0,-1,797,1142,0,0
-420,-118,0,0,0,0,0,0,0,0,0,-1,804,1142,0,0
-413,-118,0,0,0,0,0,0,0,0,0,-1,811,1142,0,0
-406,-118,0,0,0,0,0,0,0,0,0,-1,818,1142,0,0
-399,-118,0,0,0,0,0,0,0,0,0,-1,825,1142,0,0
-392,-118,0,0,0,0,0,0,0,0,0,-1,832,1142,0,0
-385,-118,0,0,0,0,0,0,0,0,0,-1,839,1142,0,0
-378,-118,0,0,0,0,0,0,0,0,0,-1,846,1142,0,0
-371,-118,0,0,0,0,0,0,0,0,0,-1,853,1142,0,0
-364,-118,0,0,0,0,0,0,0,0,0,-1,860,1142,0,0
-357,-118,0,0,0,0,0,0,0,0,0,-1,867,1142,0,0
-350,-118,0,0,0,0,0,0,0,0,0,-1,874,1142,0,0
-343,-118,0,0,0,0,0,0,0,0,0,-1,881,1142,0,0
-336,-118,0,0,0,0,0,0,0,0,0,-1,888,1142,0,0
-329,-118,0,0,0,0,0,0,0,0,0,-1,895,1142,0,0
-322,-118,0,0,0,0,0,0,0,0,0,-1,902,1142,0,0
-315,-118,0,0,0,0,0,0,0,0,0,-1,909,1142,0,0
-308,-118,0,0,0,0,0,0,0,0,0,-1,916,1142,0,0
-301,-118,0,0,0,0,0,0,0,0,0,-1,923,1142,0,0
-294,-118,0,0,0,0,0,0,0,0,0,-1,930,1142,0,0
-287,-118,0,0,0,0,0,0,0,0,0,-1,937,1142,0,0
-280,-118,0,0,0,0,0,0,0,0,0,-1,944,1142,0,0
-273,-118,0,0,0,0,0,0,0,0,0,-1,951,1142,0,0
-266,-118,0,0,0,0,0,0,0,0,0,-1,958,1142,0,0
-259,-118,0,0,0,0,0,0,0,0,0,-1,965,1142,0,0
-252,-118,0,0,0,0,0,0,0,0,0,-1,972,1142,0,0
-245,-118,0,0,0,0,0,0,0,0,0,-1,979,1142,0,0
-238,-118,0,0,0,0,0,0,0,0,0,-1,986,1142,0,0
-231,-118,0,0,0,0,0,0,0,0,0,-1,993,1142,0,0
-224,-118,0,0,0,0,0,0,0,0,0,-1,1000,1142,0,0
-217,-118,0,0,0,0,0,0,0,0,0,-1,1007,1142,0,0
-210,-118,0,0,0,0,0,0,0,0,0,-1,1014,1142,0,0
-203,-118,0,0,0,0,0,0,0,0,0,-1,1021,1142,0,0
-196,-118,0,0,0,0,0,0,0,0,0,-1,1028,1142,0,0
-189,-118,0,0,0,0,0,0,0,0,0,-1,1035,1142,0,0
-182,-118,0,0,0,0,0,0,0,0,0,-1,1042,1142,0,0
-175,-118,0,0,0,0,0,0,0,0,0,-1,1049,1142,0,0
-168,-118,0,0,0,0,0,0,0,0,0,-1,1056,1142,0,0
-161,-118,0,0,0,0,0,0,0,0,0,-1,1063,1142,0,0
-154,-118,0,0,0,0,0,0,0,0,0,-1,1070,1142,0,0
-147,-118,0,0,0,0,0,0,0,0,0,-1,1077,1142,0,0
-140,-118,0,0,0,0,0,0,0,0,0,-1,1084,1142,0,0
-133,-118,0,0,0,0,0,0,0,0,0,-1,1091,1142,0,0
-126,-118,0,0,0,0,0,0,0,0,0,-1,1098,1142,0,0
-119,-118,0,0,0,0,0,0,0,0,0,-1,1105,1142,0,0
-112,-118,0,0,0,0,0,0,0,0,0,-1,1112,1142,0,0
-105,-118,0,0,0,0,0,0,0,0,0,-1,1119,1142,0,0
-98,-118,0,0,0,0,0,0,0,0,0,-1,1126,1142,0,0
-91,-118,0,0,0,0,0,0,0,0,0,-1,1133,1142,0,0
-84,-118,0,0,0,0,0,0,0,0,0,-1,1140,1142,0,0
-77,-118,0,0,0,0,0,0,0,0,0,-1,1147,1142,0,0
-70,-118,0,0,0,0,0,0,0,0,0,-1,1154,1142,0,0
-63,-118,0,0,0,0,0,0,0,0,0,-1,1161,1142,0,0
-56,-118,0,0,0,0,0,0,0,0,0,-1,1168,1142,0,0
-49,-118,0,0,0,0,0,0,0,0,0,-1,1175,1142,0,0
-42,-118,0,0,0,0,0,0,0,0,0,-1,1182,1142,0,0
-35,-118,0,0,0,0,0,0,0,0,0,-1,1189,1142,0,0
-28,-118,0,0,0,0,0,0,0,0,0,-1,1196,1142,0,0
-21,-118,0,0,0,0,0,0,0,0,0,-1,1203,1142,0,0
-14,-118,0,0,0,0,0,0,0,0,0,-1,1210,1142,0,0
-7,-118,0,0,0,0,0,0,0,0,0,-1,1217,1142,0,0
0,-118,0,0,0,0,0,0,0,0,0,-1,1224,1142,0,0
7,-118,0,0,0,0,0,0,0,0,0,-1,1231,1142,0,0
14,-118,0,0,0,0,0,0,0,0,0,-1,1238,1142,0,0
21,-118,0,0,0,0,0,0,0,0,0,-1,1245,1142,0,0
28,-118,0,0,0,0,0,0,0,0,0,-1,1252,1142,0,0
35,-118,0,0,0,0,0,0,0,0,0,-1,1259,1142,0,0
42,-118,0,0,0,0,0,0,0,0,0,-1,1266,1142,0,0
49,-118,0,0,0,0,0,0,0,0,0,-1,1273,1142,0,0
56,-118,0,0,0,0,0,0,0,0,0,-1,1280,1142,0,0
63,-118,0,0,0,0,0,0,0,0,0,-1,1287,1142,0,0
70,-118,0,0,0,0,0,0,0,0,0,-1,1294,1142,0,0
77,-118,0,0,0,0,0,0,0,0,0,-1,1301,1142,0,0
84,-118,0,0,0,0,0,0,0,0,0,-1,1308,1142,0,0
91,-118,0,0,0,0,0,0,0,0,0,-1,1315,1142,0,0
98,-118,0,0,0,0,0,0,0,0,0,-1,1322,1142,0,0
105,-118,0,0,0,0,0,0,0,0,0,-1,1329,1142,0,0
112,-118,0,0,0,0,0,0,0,0,0,-1,1336,1142,0,0
119,-118,0,0,0,0,0,0,0,0,0,-1,1343,1142,0,0
126,-118,0,0,0,0,0,0,0,0,0,-1,1350,1142,0,0
133,-118,0,0,0,0,0,0,0,0,0,-1,1357,1142,0,0
140,-118,0,0,0,0,0,0,0,0,0,-1,1364,1142,0,0
147,-118,0,0,0,0,0,0,0,0,0,-1,1371,1142,0,0
154,-118,0,0,0,0,0,0,0,0,0,-1,1378,1142,0,0
161,-118,0,0,0,0,0,0,0,0,0,-1,1385,1142,0,0
168,-118,0,0,0,0,0,0,0,0,0,-1,1392,1142,0,0
175,-118,0,0,0,0,0,0,0,0,0,-1,1399,1142,0,0
182,-118,0,0,0,0,0,0,0,0,0,-1,1406,1142,0,0
189,-118,0,0,0,0,0,0,0,0,0,-1,1413,1142,0,0
196,-118,0,0,0,0,0,0,0,0,0,-1,1420,1142,0,0
203,-118,0,0,0,0,0,0,0,0,0,-1,1427,1142,0,0
210,-118,0,0,0,0,0,0,0,0,0,-1,1434,1142,0,0
217,-118,0,0,0,0,0,0,0,0,0,-1,1441,1142,0,0
224,-118,0,0,0,0,0,0,0,0,0,-1,1448,1142,0,0
231,-118,0,0,0,0,0,0,0,0,0,-1,1455,1142,0,0
238,-118,0,0,0,0,0,0,0,0,0,-1,1462,1142,0,0
245,-118,0,0,0,0,0,0,0,0,0,-1,1469,1142,0,0
252,-118,0,0,0,0,0,0,0,0,0,-1,1476,1142,0,0
259,-118,0,0,0,0,0,0,0,0,0,-1,1483,1142,0,0
266,-118,0,0,0,0,0,0,0,0,0,-1,1490,1142,0,0
273,-118,0,0,0,0,0,0,0,0,0,-1,1497,1142,0,0
280,-118,0,0,0,0,0,0,0,0,0,-1,1504,1142,0,0
287,-118,0,0,0,0,0,0,0,0,0,-1,1511,1142,0,0
294,-118,0,0,0,0,0,0,0,0,0,-1,1518,1142,0,0
301,-118,0,0,0,0,0,0,0,0,0,-1,1525,1142,0,0
308,-118,0,0,0,0,0,0,0,0,0,-1,1532,1142,0,0
315,-118,0,0,0,0,0,0,0,0,0,-1,1539,1142,0,0
322,-118,0,0,0,0,0,0,0,0,0,-1,1546,1142,0,0
329,-118,0,0,0,0,0,0,0,0,0,-1,1553,1142,0,0
336,-118,0,0,0,0,0,0,0,0,0,-1,1560,1142,0,0
343,-118,0,0,0,0,0,0,0,0,0,-1,1567,1142,0,0
350,-118,0,0,0,0,0,0,0,0,0,-1,1574,1142,0,0
357,-118,0,0,0,0,0,0,0,0,0,-1,1581,1142,0,0
364,-118,0,0,0,0,0,0,0,0,0,-1,1588,1142,0,0
371,-118,0,0,0,0,0,0,0,0,0,-1,1595,1142,0,0
378,-118,0,0,0,0,0,0,0,0,0,-1,1602,1142,0,0
385,-118,0,0,0,0,0,0,0,0,0,-1,1609,1142,0,0
392,-118,0,0,0,0,0,0,0,0,0,-1,1616,1142,0,0
399,-118,0,0,0,0,0,0,0,0,0,-1,1623,1142,0,0
406,-118,0,0,0,0,0,0,0,0,0,-1,1630,1142,0,0
413,-118,0,0,0,0,0,0,0,0,0,-1,1637,1142,0,0
420,-118,0,0,0,0,0,0,0,0,0,-1,1644,1142,0,0
427,-118,0,0,0,0,0,0,0,0,0,-1,1651,1142,0,0
434,-118,0,0,0,0,0,0,0,0,0,-1,1658,1142,0,0
441,-118,0,0,0,0,0,0,0,0,0,-1,1665,1142,0,0
448,-118,0,0,0,0,0,0,0,0,0,-1,1672,1142,0,0
455,-118,0,0,0,0,0,0,0,0,0,-1,1679,1142,0,0
462,-118,0,0,0,0,0,0,0,0,0,-1,1686,1142,0,0
469,-118,0,0,0,0,0,0,0,0,0,-1,1693,1142,0,0
476,-118,0,0,0,0,0,0,0,0,0,-1,1700,1142,0,0
483,-118,0,0,0,0,0,0,0,0,0,-1,1707,1142,0,0
490,-118,0,0,0,0,0,0,0,0,0,-1,1714,1142,0,0
497,-118,0,0,0,0,0,0,0,0,0,-1,1721,1142,0,0
504,-118,0,0,0,0,0,0,0,0,0,-1,1728,1142,0,0
511,-118,0,0,0,0,0,0,0,0,0,-1,1735,1142,0,0
518,-118,0,0,0,0,0,0,0,0,0,-1,1742,1142,0,0
525,-118,0,0,0,0,0,0,0,0,0,-1,1749,1142,0,0
532,-118,0,0,0,0,0,0,0,0,0,-1,1756,1142,0,0
539,-118,0,0,0,0,0,0,0,0,0,-1,1763,1142,0,0
546,-118,0,0,0,0,0,0,0,0,0,-1,1770,1142,0,0
553,-118,0,0,0,0,0,0,0,0,0,-1,1777,1142,0,0
560,-118,0,0,0,0,0,0,0,0,0,-1,1784,1142,0,0
567,-118,0,0,0,0,0,0,0,0,0,-1,1791,1142,0,0
574,-118,0,0,0,0,0,0,0,0,0,-1,1798,1142,0,0
581,-118,0,0,0,0,0,0,0,0,0,-1,1805,1142,0,0
588,-118,0,0,0,0,0,0,0,0,0,-1,1812,1142,0,0
595,-118,0,0,0,0,0,0,0,0,0,-1,1819,1142,0,0
602,-118,0,0,0,0,0,0,0,0,0,-1,1826,1142,0,0
609,-118,0,0,0,0,0,0,0,0,0,-1,1833,1142,0,0
616,-118,0,0,0,0,0,0,0,0,0,-1,1840,1142,0,0
623,-118,0,0,0,0,0,0,0,0,0,-1,1847,1142,0,0
630,-118,0,0,0,0,0,0,0,0,0,-1,1854,1142,0,0
637,-118,0,0,0,0,0,0,0,0,0,-1,1861,1142,0,0
644,-118,60.4309,2.50818,0.00687726,-0.00176508,-0.00309005,0.00786843,-0.00275624,-0.310393,0.00636645,0.0402666,1868,1142,60.431,-2.50817
651,-118,60.5708,2.58105,0.00535503,-0.0011566,-0.00190938,0.00587361,-0.00167518,-0.265199,0.00457748,0.0402447,1875,1142,60.5708,-2.58106
658,-118,60.6476,2.90955,0.00427891,-0.000922299,-0.00104591,0.00448135,-0.00112474,-0.191192,0.00342461,0.0413702,1882,1142,60.6475,-2.90959
665,-118,60.7388,2.54651,0.00329752,-0.000779112,-0.000369494,0.00333073,-0.000812331,-0.0896635,0.00253503,0.0435927,1889,1142,60.7388,-2.54655
672,-118,60.7261,2.55188,0.00226579,-0.000704947,0.000119806,0.00227062,-0.000709771,0.0402415,0.00179767,0.0479534,1896,1142,60.726,-2.55189
679,-118,60.7068,2.83948,0.00115378,-0.000897025,0.000494943,0.00126698,-0.00101023,0.224849,0.00131753,0.0447891,1903,1142,60.7067,-2.83945
686,-118,60.6548,2.85132,0.000534137,-0.00112148,0.000711809,0.000798088,-0.00138543,0.355098,0.00127577,0.0393685,1910,1142,60.6548,-2.85137
693,-118,60.5901,2.70276,0.000151482,-0.00122144,0.000795904,0.000516064,-0.00158602,0.429547,0.00126496,0.0363214,1917,1142,60.5901,-2.70277
700,-118,60.7246,2.68372,-0.000114824,-0.00124091,0.00100191,0.000471407,-0.00182714,0.529403,0.0014019,0.0226933,1924,1142,60.7246,-2.68375
707,-118,60.8264,2.80042,0,0,0,0,0,0,0,-1,1931,1142,60.8265,-2.80042
714,-118,50.4819,8.53809,0,0,0,0,0,0,0,-1,1938,1142,50.4819,-8.53809
721,-118,55.1422,8.61389,0,0,0,0,0,0,0,-1,1945,1142,55.1422,-8.61385
728,-118,55.147,8.09473,-0.00152687,-0.000657149,0.0014698,0.000440774,-0.00262479,0.929226,0.00191378,0.0220269,1952,1142,55.147,-8.09475
735,-118,55.1244,7.65125,-0.00143913,-0.000382961,0.00148478,0.000664851,-0.00248694,0.956255,0.00191837,0.02246,1959,1142,55.1244,-7.65124
742,-118,55.0851,7.20068,-0.00131055,9.47921e-05,0.00184921,0.00137033,-0.0025861,0.966965,0.00231992,0.0320338,1966,1142,55.085,-7.20072
749,-118,55.0034,6.7052,-0.00159645,0.000991097,0.00254372,0.00255116,-0.00315651,1.02066,0.0033015,0.0236406,1973,1142,55.0035,-6.7052
756,-118,55.0155,6.18689,-0.00162377,0.00329048,0.00342745,0.00505056,-0.00338386,1.09639,0.0049012,0.0184918,1980,1142,55.0156,-6.18692
763,-118,55.0333,5.7157,-0.000837207,0.00621646,0.00464663,0.00852312,-0.00314387,1.11002,0.00697052,0.0107917,1987,1142,55.0334,-5.71568
770,-118,54.9492,5.29736,4.48125e-05,0.0101052,0.00650759,0.0133001,-0.00315004,1.11442,0.0100821,0.014619,1994,1142,54.9492,-5.29742
777,-118,54.8049,4.85315,0.00121774,0.0149132,0.00889116,0.0192879,-0.00315701,1.11354,0.0140299,0.0324781,2001,1142,54.805,-4.85314
784,-118,54.698,4.42456,0.00274495,0.0209861,0.0119567,0.0269038,-0.0031727,1.11122,0.0190816,0.0476864,2008,1142,54.698,-4.42458
791,-118,54.4302,3.8147,0,0,0,0,0,0,0,-1,2015,1142,54.4302,-3.81471
798,-118,54.2312,1.42529,0,0,0,0,0,0,0,-1,2022,1142,54.2313,-1.42535
805,-118,55.2483,4.33447,0,0,0,0,0,0,0,-1,2029,1142,55.2482,-4.33446
812,-118,52.4636,4.84033,0,0,0,0,0,0,0,-1,2036,1142,52.4635,-4.84033
-700,-125,0,0,0,0,0,0,0,0,0,-1,524,1149,0,0
-693,-125,-43.5297,2.32056,0.05945,-0.12059,0.0556152,0.0752442,-0.136384,0.276706,0.123872,0.0486246,531,1149,-43.5297,-2.32061
-686,-125,-42.9114,2.67261,0,0,0,0,0,0,0,-1,538,1149,-42.9114,-2.67264
-679,-125,-42.2778,2.97229,0,0,0,0,0,0,0,-1,545,1149,-42.2778,-2.97225
-672,-125,-42.1436,3.30737,0,0,0,0,0,0,0,-1,552,1149,-42.1436,-3.3074
-665,-125,-44.3093,1.92566,0,0,0,0,0,0,0,-1,559,1149,-44.3092,-1.92561
-658,-125,-40.1172,1.5863,0,0,0,0,0,0,0,-1,566,1149,-40.1173,-1.58634
-651,-125,-39.7554,1.95679,0.00872022,-0.0174167,0.00766221,0.0108008,-0.0194973,0.265148,0.0177312,0.0402729,573,1149,-39.7554,-1.95678
-644,-125,-39.479,2.26343,0.00457653,-0.00916827,0.00351043,0.00542118,-0.0100129,0.236126,0.00904139,0.0300062,580,1149,-39.479,-2.26347
-637,-125,-39.6422,2.79529,0.0011066,-0.00305985,0.000238801,0.00112024,-0.0030735,0.0570662,0.00250727,0.0149837,587,1149,-39.6422,-2.79525
-630,-125,-39.6688,3.30005,-0.000782884,0.000611512,-0.00205771,0.00208692,-0.0022583,-0.94874,0.00250936,0.015392,594,1149,-39.6688,-3.30002
-623,-125,-39.6697,3.81653,-0.00202182,0.00133034,-0.00299853,0.00308944,-0.00378091,-1.04025,0.00397329,0.0139486,601,1149,-39.6698,-3.81654
-616,-125,-39.7128,4.29138,-0.00252704,0.000232062,-0.00324079,0.00237471,-0.00466969,-0.986623,0.00413841,0.0282661,608,1149,-39.7128,-4.2914
-609,-125,-39.6671,4.78015,0,0,0,0,0,0,0,-1,615,1149,-39.6671,-4.78019
-602,-125,-39.8428,5.41101,-0.00277506,-0.00144207,-0.0021442,0.00013683,-0.00435397,-0.936082,0.00294931,0.0430243,622,1149,-39.8428,-5.41099
-595,-125,-39.9887,5.86792,-0.00300546,-0.00165192,-0.00194739,-0.000267054,-0.00439032,-0.952632,0.00284205,0.0383224,629,1149,-39.9887,-5.86792
-588,-125,-39.1723,6.54187,0,0,0,0,0,0,0,-1,636,1149,-39.1723,-6.54185
-581,-125,-26.4055,4.83203,0,0,0,0,0,0,0,-1,643,1149,-26.4055,-4.83204
-574,-125,-37.674,0.655151,0,0,0,0,0,0,0,-1,650,1149,-37.674,-0.655195
-567,-125,-45.7391,0.854492,0,0,0,0,0,0,0,-1,657,1149,-45.7391,-0.854436
-560,-125,-45.9323,1.09229,-0.000719057,-0.00372641,-0.00277348,0.000932145,-0.00537761,-0.536996,0.00393279,0.0384332,664,1149,-45.9323,-1.09226
-553,-125,-45.8807,1.27075,-0.000115477,-0.0037535,-0.00338179,0.00190547,-0.00577445,-0.538651,0.00461775,0.040788,671,1149,-45.8807,-1.27077
-546,-125,-45.7543,1.05933,0.00102137,-0.00338635,-0.00472774,0.00403369,-0.00639868,-0.567295,0.0060745,0.0418267,678,1149,-45.7542,-1.05932
-539,-125,-45.809,1.0802,0.0040024,-0.00294947,-0.0081965,0.00942954,-0.00837661,-0.584854,0.0102864,0.0413898,685,1149,-45.809,-1.08019
-532,-125,-45.9191,0.848877,0.00789918,-0.00261402,-0.0123675,0.0160808,-0.0107957,-0.584448,0.0156168,0.0383732,692,1149,-45.919,-0.848821
-525,-125,-45.8558,0.543335,0.0121545,-0.0023349,-0.0166928,0.0231069,-0.0132873,-0.580663,0.0212657,0.0396165,699,1149,-45.8558,-0.543313
-518,-125,0,0,0,0,0,0,0,0,0,-1,706,1149,0,0
-511,-125,0,0,0,0,0,0,0,0,0,-1,713,1149,0,0
-504,-125,0,0,0,0,0,0,0,0,0,-1,720,1149,0,0
-497,-125,0,0,0,0,0,0,0,0,0,-1,727,1149,0,0
-490,-125,0,0,0,0,0,0,0,0,0,-1,734,1149,0,0
-483,-125,0,0,0,0,0,0,0,0,0,-1,741,1149,0,0
-476,-125,0,0,0,0,0,0,0,0,0,-1,748,1149,0,0
-469,-125,0,0,0,0,0,0,0,0,0,-1,755,1149,0,0
-462,-125,0,0,0,0,0,0,0,0,0,-1,762,1149,0,0
-455,-125,0,0,0,0,0,0,0,0,0,-1,769,1149,0,0
-448,-125,0,0,0,0,0,0,0,0,0,-1,776,1149,0,0
-441,-125,0,0,0,0,0,0,0,0,0,-1,783,1149,0,0
-434,-125,0,0,0,0,0,0,0,0,0,-1,790,1149,0,0
-427,-125,0,0,0,0,0,0,0,0,0,-1,797,1149,0,0
-420,-125,0,0,0,0,0,0,0,0,0,-1,804,1149,0,0
-413,-125,0,0,0,0,0,0,0,0,0,-1,811,1149,0,0
-406,-125,0,0,0,0,0,0,0,0,0,-1,818,1149,0,0
-399,-125,0,0,0,0,0,0,0,0,0,-1,825,1149,0,0
-392,-125,0,0,0,0,0,0,0,0,0,-1,832,1149,0,0
-385,-125,0,0,0,0,0,0,0,0,0,-1,839,1149,0,0
-378,-125,0,0,0,0,0,0,0,0,0,-1,846,1149,0,0
-371,-125,0,0,0,0,0,0,0,0,0,-1,853,1149,0,0
-364,-125,0,0,0,0,0,0,0,0,0,-1,860,1149,0,0
-357,-125,0,0,0,0,0,0,0,0,0,-1,867,1149,0,0
-350,-125,0,0,0,0,0,0,0,0,0,-1,874,1149,0,0
-343,-125,0,0,0,0,0,0,0,0,0,-1,881,1149,0,0
-336,-125,0,0,0,0,0,0,0,0,0,-1,888,1149,0,0
-329,-125,0,0,0,0,0,0,0,0,0,-1,895,1149,0,0
-322,-125,0,0,0,0,0,0,0,0,0,-1,902,1149,0,0
-315,-125,0,0,0,0,0,0,0,0,0,-1,909,1149,0,0
-308,-125,0,0,0,0,0,0,0,0,0,-1,916,1149,0,0
-301,-125,0,0,0,0,0,0,0,0,0,-1,923,1149,0,0
-294,-125,0,0,0,0,0,0,0,0,0,-1,930,1149,0,0
-287,-125,0,0,0,0,0,0,0,0,0,-1,937,1149,0,0
-280,-125,0,0,0,0,0,0,0,0,0,-1,944,1149,0,0
-273,-125,0,0,0,0,0,0,0,0,0,-1,951,1149,0,0
-266,-125,0,0,0,0,0,0,0,0,0,-1,958,1149,0,0
-259,-125,0,0,0,0,0,0,0,0,0,-1,965,1149,0,0
-252,-125,0,0,0,0,0,0,0,0,0,-1,972,1149,0,0
-245,-125,0,0,0,0,0,0,0,0,0,-1,979,1149,0,0
-238,-125,0,0,0,0,0,0,0,0,0,-1,986,1149,0,0
-231,-125,0,0,0,0,0,0,0,0,0,-1,993,1149,0,0
-224,-125,0,0,0,0,0,0,0,0,0,-1,1000,1149,0,0
-217,-125,0,0,0,0,0,0,0,0,0,-1,1007,1149,0,0
-210,-125,0,0,0,0,0,0,0,0,0,-1,1014,1149,0,0
-203,-125,0,0,0,0,0,0,0,0,0,-1,1021,1149,0,0
-196,-125,0,0,0,0,0,0,0,0,0,-1,1028,1149,0,0
-189,-125,0,0,0,0,0,0,0,0,0,-1,1035,1149,0,0
-182,-125,0,0,0,0,0,0,0,0,0,-1,1042,1149,0,0
-175,-125,0,0,0,0,0,0,0,0,0,-1,1049,1149,0,0
-168,-125,0,0,0,0,0,0,0,0,0,-1,1056,1149,0,0
-161,-125,0,0,0,0,0,0,0,0,0,-1,1063,1149,0,0
-154,-125,0,0,0,0,0,0,0,0,0,-1,1070,1149,0,0
-147,-125,0,0,0,0,0,0,0,0,0,-1,1077,1149,0,0
-140,-125,0,0,0,0,0,0,0,0,0,-1,1084,1149,0,0
-133,-125,0,0,0,0,0,0,0,0,0,-1,1091,1149,0,0
-126,-125,0,0,0,0,0,0,0,0,0,-1,1098,1149,0,0
-119,-125,0,0,0,0,0,0,0,0,0,-1,1105,1149,0,0
-112,-125,0,0,0,0,0,0,0,0,0,-1,1112,1149,0,0
-105,-125,0,0,0,0,0,0,0,0,0,-1,1119,1149,0,0
-98,-125,0,0,0,0,0,0,0,0,0,-1,1126,1149,0,0
-91,-125,0,0,0,0,0,0,0,0,0,-1,1133,1149,0,0
-84,-125,0,0,0,0,0,0,0,0,0,-1,1140,1149,0,0
-77,-125,0,0,0,0,0,0,0,0,0,-1,1147,1149,0,0
-70,-125,0,0,0,0,0,0,0,0,0,-1,1154,1149,0,0
-63,-125,0,0,0,0,0,0,0,0,0,-1,1161,1149,0,0
-56,-125,0,0,0,0,0,0,0,0,0,-1,1168,1149,0,0
-49,-125,0,0,0,0,0,0,0,0,0,-1,1175,1149,0,0
-42,-125,0,0,0,0,0,0,0,0,0,-1,1182,1149,0,0
-35,-125,0,0,0,0,0,0,0,0,0,-1,1189,1149,0,0
-28,-125,0,0,0,0,0,0,0,0,0,-1,1196,1149,0,0
-21,-125,0,0,0,0,0,0,0,0,0,-1,1203,1149,0,0
-14,-125,0,0,0,0,0,0,0,0,0,-1,1210,1149,0,0
-7,-125,0,0,0,0,0,0,0,0,0,-1,1217,1149,0,0
0,-125,0,0,0,0,0,0,0,0,0,-1,1224,1149,0,0
7,-125,0,0,0,0,0,0,0,0,0,-1,1231,1149,0,0
14,-125,0,0,0,0,0,0,0,0,0,-1,1238,1149,0,0
21,-125,0,0,0,0,0,0,0,0,0,-1,1245,1149,0,0
28,-125,0,0,0,0,0,0,0,0,0,-1,1252,1149,0,0
35,-125,0,0,0,0,0,0,0,0,0,-1,1259,1149,0,0
42,-125,0,0,0,0,0,0,0,0,0,-1,1266,1149,0,0
49,-125,0,0,0,0,0,0,0,0,0,-1,1273,1149,0,0
56,-125,0,0,0,0,0,0,0,0,0,-1,1280,1149,0,0
63,-125,0,0,0,0,0,0,0,0,0,-1,1287,1149,0,0
70,-125,0,0,0,0,0,0,0,0,0,-1,1294,1149,0,0
77,-125,0,0,0,0,0,0,0,0,0,-1,1301,1149,0,0
84,-125,0,0,0,0,0,0,0,0,0,-1,1308,1149,0,0
91,-125,0,0,0,0,0,0,0,0,0,-1,1315,1149,0,0
98,-125,0,0,0,0,0,0,0,0,0,-1,1322,1149,0,0
105,-125,0,0,0,0,0,0,0,0,0,-1,1329,1149,0,0
112,-125,0,0,0,0,0,0,0,0,0,-1,1336,1149,0,0
119,-125,0,0,0,0,0,0,0,0,0,-1,1343,1149,0,0
126,-125,0,0,0,0,0,0,0,0,0,-1,1350,1149,0,0
133,-125,0,0,0,0,0,0,0,0,0,-1,1357,1149,0,0
140,-125,0,0,0,0,0,0,0,0,0,-1,1364,1149,0,0
147,-125,0,0,0,0,0,0,0,0,0,-1,1371,1149,0,0
154,-125,0,0,0,0,0,0,0,0,0,-1,1378,1149,0,0
161,-125,0,0,0,0,0,0,0,0,0,-1,1385,1149,0,0
168,-125,0,0,0,0,0,0,0,0,0,-1,1392,1149,0,0
175,-125,0,0,0,0,0,0,0,0,0,-1,1399,1149,0,0
182,-125,0,0,0,0,0,0,0,0,0,-1,1406,1149,0,0
189,-125,0,0,0,0,0,0,0,0,0,-1,1413,1149,0,0
196,-125,0,0,0,0,0,0,0,0,0,-1,1420,1149,0,0
203,-125,0,0,0,0,0,0,0,0,0,-1,1427,1149,0,0
210,-125,0,0,0,0,0,0,0,0,0,-1,1434,1149,0,0
217,-125,0,0,0,0,0,0,0,0,0,-1,1441,1149,0,0
224,-125,0,0,0,0,0,0,0,0,0,-1,1448,1149,0,0
231,-125,0,0,0,0,0,0,0,0,0,-1,1455,1149,0,0
238,-125,0,0,0,0,0,0,0,0,0,-1,1462,1149,0,0
245,-125,0,0,0,0,0,0,0,0,0,-1,1469,1149,0,0
252,-125,0,0,0,0,0,0,0,0,0,-1,1476,1149,0,0
259,-125,0,0,0,0,0,0,0,0,0,-1,1483,1149,0,0
266,-125,0,0,0,0,0,0,0,0,0,-1,1490,1149,0,0
273,-125,0,0,0,0,0,0,0,0,0,-1,1497,1149,0,0
280,-125,0,0,0,0,0,0,0,0,0,-1,1504,1149,0,0
287,-125,0,0,0,0,0,0,0,0,0,-1,1511,1149,0,0
294,-125,0,0,0,0,0,0,0,0,0,-1,1518,1149,0,0
301,-125,0,0,0,0,0,0,0,0,0,-1,1525,1149,0,0
308,-125,0,0,0,0,0,0,0,0,0,-1,1532,1149,0,0
315,-125,0,0,0,0,0,0,0,0,0,-1,1539,1149,0,0
322,-125,0,0,0,0,0,0,0,0,0,-1,1546,1149,0,0
329,-125,0,0,0,0,0,0,0,0,0,-1,1553,1149,0,0
336,-125,0,0,0,0,0,0,0,0,0,-1,1560,1149,0,0
343,-125,0,0,0,0,0,0,0,0,0,-1,1567,1149,0,0
350,-125,0,0,0,0,0,0,0,0,0,-1,1574,1149,0,0
357,-125,0,0,0,0,0,0,0,0,0,-1,1581,1149,0,0
364,-125,0,0,0,0,0,0,0,0,0,-1,1588,1149,0,0
371,-125,0,0,0,0,0,0,0,0,0,-1,1595,1149,0,0
378,-125,0,0,0,0,0,0,0,0,0,-1,1602,1149,0,0
385,-125,0,0,0,0,0,0,0,0,0,-1,1609,1149,0,0
392,-125,0,0,0,0,0,0,0,0,0,-1,1616,1149,0,0
399,-125,0,0,0,0,0,0,0,0,0,-1,1623,1149,0,0
406,-125,0,0,0,0,0,0,0,0,0,-1,1630,1149,0,0
413,-125,0,0,0,0,0,0,0,0,0,-1,1637,1149,0,0
420,-125,0,0,0,0,0,0,0,0,0,-1,1644,1149,0,0
427,-125,0,0,0,0,0,0,0,0,0,-1,1651,1149,0,0
434,-125,0,0,0,0,0,0,0,0,0,-1,1658,1149,0,0
441,-125,0,0,0,0,0,0,0,0,0,-1,1665,1149,0,0
448,-125,0,0,0,0,0,0,0,0,0,-1,1672,1149,0,0
455,-125,0,0,0,0,0,0,0,0,0,-1,1679,1149,0,0
462,-125,0,0,0,0,0,0,0,0,0,-1,1686,1149,0,0
469,-125,0,0,0,0,0,0,0,0,0,-1,1693,1149,0,0
476,-125,0,0,0,0,0,0,0,0,0,-1,1700,1149,0,0
483,-125,0,0,0,0,0,0,0,0,0,-1,1707,1149,0,0
490,-125,0,0,0,0,0,0,0,0,0,-1,1714,1149,0,0
497,-125,0,0,0,0,0,0,0,0,0,-1,1721,1149,0,0
504,-125,0,0,0,0,0,0,0,0,0,-1,1728,1149,0,0
511,-125,0,0,0,0,0,0,0,0,0,-1,1735,1149,0,0
518,-125,0,0,0,0,0,0,0,0,0,-1,1742,1149,0,0
525,-125,0,0,0,0,0,0,0,0,0,-1,1749,1149,0,0
532,-125,0,0,0,0,0,0,0,0,0,-1,1756,1149,0,0
539,-125,0,0,0,0,0,0,0,0,0,-1,1763,1149,0,0
546,-125,0,0,0,0,0,0,0,0,0,-1,1770,1149,0,0
553,-125,0,0,0,0,0,0,0,0,0,-1,1777,1149,0,0
560,-125,0,0,0,0,0,0,0,0,0,-1,1784,1149,0,0
567,-125,0,0,0,0,0,0,0,0,0,-1,1791,1149,0,0
574,-125,0,0,0,0,0,0,0,0,0,-1,1798,1149,0,0
581,-125,0,0,0,0,0,0,0,0,0,-1,1805,1149,0,0
588,-125,0,0,0,0,0,0,0,0,0,-1,1812,1149,0,0
595,-125,0,0,0,0,0,0,0,0,0,-1,1819,1149,0,0
602,-125,0,0,0,0,0,0,0,0,0,-1,1826,1149,0,0
609,-125,0,0,0,0,0,0,0,0,0,-1,1833,1149,0,0
616,-125,0,0,0,0,0,0,0,0,0,-1,1840,1149,0,0
623,-125,0,0,0,0,0,0,0,0,0,-1,1847,1149,0,0
630,-125,0,0,0,0,0,0,0,0,0,-1,1854,1149,0,0
637,-125,0,0,0,0,0,0,0,0,0,-1,1861,1149,0,0
644,-125,60.4744,2.72754,0.0054277,-0.00204856,-0.00308305,0.00653507,-0.00315593,-0.344828,0.00570735,0.0432582,1868,1149,60.4743,-2.7275
651,-125,60.4315,2.70947,0.00436875,-0.00146615,-0.00185005,0.0049059,-0.0020033,-0.28257,0.00410469,0.0429594,1875,1149,60.4315,-2.70952
658,-125,60.5387,2.91052,0.00360926,-0.00118738,-0.000948133,0.00378987,-0.00136799,-0.188238,0.00308538,0.0424371,1882,1149,60.5387,-2.91055
665,-125,60.5649,2.80701,0.00287795,-0.00098135,-0.000259559,0.00289532,-0.000998729,-0.0668542,0.00233543,0.0432533,1889,1149,60.565,-2.80701
672,-125,60.6395,2.50208,0.00197511,-0.000826989,0.000218201,0.001992,-0.000843879,0.0772498,0.00168143,0.0460226,1896,1149,60.6395,-2.50212
679,-125,60.7103,2.70667,0.000918088,-0.000975797,0.000580198,0.0010817,-0.00113941,0.274855,0.0012825,0.0427963,1903,1149,60.7104,-2.70666
686,-125,60.6382,2.62915,0.000345588,-0.00112458,0.00073074,0.000647004,-0.00142599,0.391218,0.00122469,0.0389415,1910,1149,60.6381,-2.62911
693,-125,60.5692,2.7041,-1.66819e-05,-0.00116203,0.000761757,0.000363655,-0.00154236,0.463079,0.00116848,0.0334785,1917,1149,60.5692,-2.70407
700,-125,60.7268,2.75256,-0.000231184,-0.00114833,0.000964088,0.000377837,-0.00175735,0.563408,0.00131572,0.0185579,1924,1149,60.7268,-2.75252
707,-125,60.9263,2.93445,0,0,0,0,0,0,0,-1,1931,1149,60.9263,-2.93439
714,-125,54.8745,9.21375,0,0,0,0,0,0,0,-1,1938,1149,54.8746,-9.21371
721,-125,54.6846,8.66321,-0.00152729,-0.000773007,0.00134451,0.000246252,-0.00254655,0.922137,0.00178546,0.049481,1945,1149,54.6846,-8.66325
728,-125,54.5906,8.18982,-0.00150076,-0.000544687,0.00129472,0.000357423,-0.00240287,0.962246,0.00173338,0.0207937,1952,1149,54.5905,-8.18986
735,-125,54.5853,7.73682,-0.00128868,-0.000334843,0.00127716,0.000551539,-0.00217506,0.964091,0.00166463,0.0222001,1959,1149,54.5854,-7.73677
742,-125,54.5411,7.22424,-0.00109967,4.04473e-05,0.0016334,0.0012004,-0.00225963,0.953291,0.00202861,0.0296143,1966,1149,54.5412,-7.22427
749,-125,54.4825,6.7677,-0.0013985,0.00086746,0.00230662,0.00230433,-0.00283537,1.01368,0.00297268,0.027796,1973,1149,54.4826,-6.76768
756,-125,54.5149,6.20801,-0.00164915,0.00324868,0.00339814,0.00498838,-0.00338886,1.09763,0.0048659,0.0229313,1980,1149,54.5148,-6.20804
763,-125,54.4999,5.71729,-0.0012985,0.00627848,0.00494603,0.00872022,-0.00374025,1.11222,0.00738309,0.0133346,1987,1149,54.4998,-5.71725
770,-125,54.4436,5.24365,-0.0011907,0.01029,0.00721581,0.0137703,-0.00467095,1.1214,0.0110706,0.0171641,1994,1149,54.4436,-5.2437
777,-125,54.3677,4.87476,-0.00121184,0.0153187,0.0101468,0.0201405,-0.00603366,1.12718,0.0158263,0.0335818,2001,1149,54.3678,-4.87473
784,-125,54.365,4.4502,-0.00146525,0.0217835,0.0139789,0.0283398,-0.00802156,1.13224,0.0220587,0.0484276,2008,1149,54.365,-4.45023
791,-125,54.4758,4.005,0,0,0,0,0,0,0,-1,2015,1149,54.4758,-4.00502
798,-125,56.22,3.53064,0,0,0,0,0,0,0,-1,2022,1149,56.2201,-3.53059
805,-125,52.4324,7.22009,0,0,0,0,0,0,0,-1,2029,1149,52.4324,-7.22005
812,-125,51.4773,-0.254395,0,0,0,0,0,0,0,-1,2036,1149,51.4773,0.254409
-700,-132,0,0,0,0,0,0,0,0,0,-1,524,1156,0,0
-693,-132,-43.3401,3.19714,0,0,0,0,0,0,0,-1,531,1156,-43.3401,-3.1972
-686,-132,-42.7233,3.50415,0,0,0,0,0,0,0,-1,538,1156,-42.7233,-3.50417
-679,-132,-42.1228,3.76721,0,0,0,0,0,0,0,-1,545,1156,-42.1228,-3.76722
-672,-132,-39.8412,0.394531,0,0,0,0,0,0,0,-1,552,1156,-39.8413,-0.394507
-665,-132,-39.7745,0.787842,0,0,0,0,0,0,0,-1,559,1156,-39.7746,-0.787876
-658,-132,-39.5253,1.18494,0,0,0,0,0,0,0,-1,566,1156,-39.5253,-1.18496
-651,-132,-39.2746,1.78979,0.00978067,-0.0158426,0.00757713,0.0118536,-0.0179155,0.267046,0.0173056,0.0421546,573,1156,-39.2746,-1.78982
-644,-132,-38.9822,2.2146,0.00520416,-0.00809487,0.00349651,0.00606741,-0.00895812,0.242049,0.00872835,0.0241949,580,1156,-38.9823,-2.21454
-637,-132,-39.0826,2.76575,0.00144447,-0.00239435,0.000313146,0.00146984,-0.00241973,0.0808611,0.00226786,0.0129924,587,1156,-39.0827,-2.7657
-630,-132,-39.0926,3.29236,-0.000698451,0.000835504,-0.00192314,0.00213897,-0.00200192,-0.97514,0.00239118,0.0101931,594,1156,-39.0926,-3.29242
-623,-132,-39.1169,3.83984,-0.00220288,0.00135366,-0.00291094,0.00298652,-0.00383575,-1.05959,0.003949,0.0161335,601,1156,-39.1169,-3.83983
-616,-132,-39.1702,4.18396,-0.0029113,0.00013101,-0.00322666,0.0021771,-0.00495739,-1.00567,0.00422207,0.0371557,608,1156,-39.1702,-4.18402
-609,-132,-39.0394,4.79272,0,0,0,0,0,0,0,-1,615,1156,-39.0394,-4.79278
-602,-132,-39.1553,5.41492,-0.00317615,-0.00145929,-0.00209215,-5.63045e-05,-0.00457914,-0.980079,0.00303416,0.0350679,622,1156,-39.1553,-5.41496
-595,-132,-39.3265,5.90112,-0.00333517,-0.0014802,-0.00188028,-0.000311096,-0.00450426,-1.01452,0.0029047,0.0489817,629,1156,-39.3265,-5.90117
-588,-132,-39.3792,6.49072,0,0,0,0,0,0,0,-1,636,1156,-39.3792,-6.49078
-581,-132,-35.9343,6.42957,0,0,0,0,0,0,0,-1,643,1156,-35.9342,-6.42957
-574,-132,-33.2071,2.86963,0,0,0,0,0,0,0,-1,650,1156,-33.2071,-2.86963
-567,-132,-45.6721,0.721802,0,0,0,0,0,0,0,-1,657,1156,-45.6721,-0.721763
-560,-132,-45.8598,0.998047,-0.000966874,-0.0036278,-0.00279453,0.000797747,-0.00539242,-0.563227,0.00388824,0.0361105,664,1156,-45.8598,-0.998094
-553,-132,-45.9337,1.2821,-0.000347928,-0.00383371,-0.00338362,0.0017153,-0.00589694,-0.547572,0.00461067,0.0395718,671,1156,-45.9337,-1.28206
-546,-132,-45.9503,1.1842,0.000789149,-0.00375441,-0.00477712,0.00380716,-0.00677242,-0.563448,0.00618758,0.0424293,678,1156,-45.9503,-1.1842
-539,-132,-45.8178,1.11462,0.00352103,-0.0038738,-0.00877405,0.0093449,-0.00969767,-0.585988,0.0109949,0.042188,685,1156,-45.8178,-1.11465
-532,-132,-45.7738,0.822266,0.00725445,-0.00423571,-0.0137945,0.0164524,-0.0134337,-0.588084,0.017284,0.0395574,692,1156,-45.7738,-0.822313
-525,-132,-45.7295,0.581421,0.0113783,-0.00469041,-0.0189551,0.0239315,-0.0172436,-0.584945,0.0238768,0.0398132,699,1156,-45.7295,-0.581393
-518,-132,0,0,0,0,0,0,0,0,0,-1,706,1156,0,0
-511,-132,0,0,0,0,0,0,0,0,0,-1,713,1156,0,0
-504,-132,0,0,0,0,0,0,0,0,0,-1,720,1156,0,0
-497,-132,0,0,0,0,0,0,0,0,0,-1,727,1156,0,0
-490,-132,0,0,0,0,0,0,0,0,0,-1,734,1156,0,0
-483,-132,0,0,0,0,0,0,0,0,0,-1,741,1156,0,0
-476,-132,0,0,0,0,0,0,0,0,0,-1,748,1156,0,0
-469,-132,0,0,0,0,0,0,0,0,0,-1,755,1156,0,0
-462,-132,0,0,0,0,0,0,0,0,0,-1,762,1156,0,0
-455,-132,0,0,0,0,0,0,0,0,0,-1,769,1156,0,0
-448,-132,0,0,0,0,0,0,0,0,0,-1,776,1156,0,0
-441,-132,0,0,0,0,0,0,0,0,0,-1,783,1156,0,0
-434,-132,0,0,0,0,0,0,0,0,0,-1,790,1156,0,0
-427,-132,0,0,0,0,0,0,0,0,0,-1,797,1156,0,0
-420,-132,0,0,0,0,0,0,0,0,0,-1,804,1156,0,0
-413,-132,0,0,0,0,0,0,0,0,0,-1,811,1156,0,0
-406,-132,0,0,0,0,0,0,0,0,0,-1,818,1156,0,0
-399,-132,0,0,0,0,0,0,0,0,0,-1,825,1156,0,0
-392,-132,0,0,0,0,0,0,0,0,0,-1,832,1156,0,0
-385,-132,0,0,0,0,0,0,0,0,0,-1,839,1156,0,0
-378,-132,0,0,0,0,0,0,0,0,0,-1,846,1156,0,0
-371,-132,0,0,0,0,0,0,0,0,0,-1,853,1156,0,0
-364,-132,0,0,0,0,0,0,0,0,0,-1,860,1156,0,0
-357,-132,0,0,0,0,0,0,0,0,0,-1,867,1156,0,0
-350,-132,0,0,0,0,0,0,0,0,0,-1,874,1156,0,0
-343,-132,0,0,0,0,0,0,0,0,0,-1,881,1156,0,0
-336,-132,0,0,0,0,0,0,0,0,0,-1,888,1156,0,0
-329,-132,0,0,0,0,0,0,0,0,0,-1,895,1156,0,0
-322,-132,0,0,0,0,0,0,0,0,0,-1,902,1156,0,0
-315,-132,0,0,0,0,0,0,0,0,0,-1,909,1156,0,0
-308,-132,0,0,0,0,0,0,0,0,0,-1,916,1156,0,0
-301,-132,0,0,0,0,0,0,0,0,0,-1,923,1156,0,0
-294,-132,0,0,0,0,0,0,0,0,0,-1,930,1156,0,0
-287,-132,0,0,0,0,0,0,0,0,0,-1,937,1156,0,0
-280,-132,0,0,0,0,0,0,0,0,0,-1,944,1156,0,0
-273,-132,0,0,0,0,0,0,0,0,0,-1,951,1156,0,0
-266,-132,0,0,0,0,0,0,0,0,0,-1,958,1156,0,0
-259,-132,0,0,0,0,0,0,0,0,0,-1,965,1156,0,0
-252,-132,0,0,0,0,0,0,0,0,0,-1,972,1156,0,0
-245,-132,0,0,0,0,0,0,0,0,0,-1,979,1156,0,0
-238,-132,0,0,0,0,0,0,0,0,0,-1,986,1156,0,0
-231,-132,0,0,0,0,0,0,0,0,0,-1,993,1156,0,0
-224,-132,0,0,0,0,0,0,0,0,0,-1,1000,1156,0,0
-217,-132,0,0,0,0,0,0,0,0,0,-1,1007,1156,0,0
-210,-132,0,0,0,0,0,0,0,0,0,-1,1014,1156,0,0
-203,-132,0,0,0,0,0,0,0,0,0,-1,1021,1156,0,0
-196,-132,0,0,0,0,0,0,0,0,0,-1,1028,1156,0,0
-189,-132,0,0,0,0,0,0,0,0,0,-1,1035,1156,0,0
-182,-132,0,0,0,0,0,0,0,0,0,-1,1042,1156,0,0
-175,-132,0,0,0,0,0,0,0,0,0,-1,1049,1156,0,0
-168,-132,0,0,0,0,0,0,0,0,0,-1,1056,1156,0,0
-161,-132,0,0,0,0,0,0,0,0,0,-1,1063,1156,0,0
-154,-132,0,0,0,0,0,0,0,0,0,-1,1070,1156,0,0
-147,-132,0,0,0,0,0,0,0,0,0,-1,1077,1156,0,0
-140,-132,0,0,0,0,0,0,0,0,0,-1,1084,1156,0,0
-133,-132,0,0,0,0,0,0,0,0,0,-1,1091,1156,0,0
-126,-132,0,0,0,0,0,0,0,0,0,-1,1098,1156,0,0
-119,-132,0,0,0,0,0,0,0,0,0,-1,1105,1156,0,0
-112,-132,0,0,0,0,0,0,0,0,0,-1,1112,1156,0,0
-105,-132,0,0,0,0,0,0,0,0,0,-1,1119,1156,0,0
-98,-132,0,0,0,0,0,0,0,0,0,-1,1126,1156,0,0
-91,-132,0,0,0,0,0,0,0,0,0,-1,1133,1156,0,0
-84,-132,0,0,0,0,0,0,0,0,0,-1,1140,1156,0,0
-77,-132,0,0,0,0,0,0,0,0,0,-1,1147,1156,0,0
-70,-132,0,0,0,0,0,0,0,0,0,-1,1154,1156,0,0
-63,-132,0,0,0,0,0,0,0,0,0,-1,1161,1156,0,0
-56,-132,0,0,0,0,0,0,0,0,0,-1,1168,1156,0,0
-49,-132,0,0,0,0,0,0,0,0,0,-1,1175,1156,0,0
-42,-132,0,0,0,0,0,0,0,0,0,-1,1182,1156,0,0
-35,-132,0,0,0,0,0,0,0,0,0,-1,1189,1156,0,0
-28,-132,0,0,0,0,0,0,0,0,0,-1,1196,1156,0,0
-21,-132,0,0,0,0,0,0,0,0,0,-1,1203,1156,0,0
-14,-132,0,0,0,0,0,0,0,0,0,-1,1210,1156,0,0
-7,-132,0,0,0,0,0,0,0,0,0,-1,1217,1156,0,0
0,-132,0,0,0,0,0,0,0,0,0,-1,1224,1156,0,0
7,-132,0,0,0,0,0,0,0,0,0,-1,1231,1156,0,0
14,-132,0,0,0,0,0,0,0,0,0,-1,1238,1156,0,0
21,-132,0,0,0,0,0,0,0,0,0,-1,1245,1156,0,0
28,-132,0,0,0,0,0,0,0,0,0,-1,1252,1156,0,0
35,-132,0,0,0,0,0,0,0,0,0,-1,1259,1156,0,0
42,-132,0,0,0,0,0,0,0,0,0,-1,1266,1156,0,0
49,-132,0,0,0,0,0,0,0,0,0,-1,1273,1156,0,0
56,-132,0,0,0,0,0,0,0,0,0,-1,1280,1156,0,0
63,-132,0,0,0,0,0,0,0,0,0,-1,1287,1156,0,0
70,-132,0,0,0,0,0,0,0,0,0,-1,1294,1156,0,0
77,-132,0,0,0,0,0,0,0,0,0,-1,1301,1156,0,0
84,-132,0,0,0,0,0,0,0,0,0,-1,1308,1156,0,0
91,-132,0,0,0,0,0,0,0,0,0,-1,1315,1156,0,0
98,-132,0,0,0,0,0,0,0,0,0,-1,1322,1156,0,0
105,-132,0,0,0,0,0,0,0,0,0,-1,1329,1156,0,0
112,-132,0,0,0,0,0,0,0,0,0,-1,1336,1156,0,0
119,-132,0,0,0,0,0,0,0,0,0,-1,1343,1156,0,0
126,-132,0,0,0,0,0,0,0,0,0,-1,1350,1156,0,0
133,-132,0,0,0,0,0,0,0,0,0,-1,1357,1156,0,0
140,-132,0,0,0,0,0,0,0,0,0,-1,1364,1156,0,0
147,-132,0,0,0,0,0,0,0,0,0,-1,1371,1156,0,0
154,-132,0,0,0,0,0,0,0,0,0,-1,1378,1156,0,0
161,-132,0,0,0,0,0,0,0,0,0,-1,1385,1156,0,0
168,-132,0,0,0,0,0,0,0,0,0,-1,1392,1156,0,0
175,-132,0,0,0,0,0,0,0,0,0,-1,1399,1156,0,0
182,-132,0,0,0,0,0,0,0,0,0,-1,1406,1156,0,0
189,-132,0,0,0,0,0,0,0,0,0,-1,1413,1156,0,0
196,-132,0,0,0,0,0,0,0,0,0,-1,1420,1156,0,0
203,-132,0,0,0,0,0,0,0,0,0,-1,1427,1156,0,0
210,-132,0,0,0,0,0,0,0,0,0,-1,1434,1156,0,0
217,-132,0,0,0,0,0,0,0,0,0,-1,1441,1156,0,0
224,-132,0,0,0,0,0,0,0,0,0,-1,1448,1156,0,0
231,-132,0,0,0,0,0,0,0,0,0,-1,1455,1156,0,0
238,-132,0,0,0,0,0,0,0,0,0,-1,1462,1156,0,0
245,-132,0,0,0,0,0,0,0,0,0,-1,1469,1156,0,0
252,-132,0,0,0,0,0,0,0,0,0,-1,1476,1156,0,0
259,-132,0,0,0,0,0,0,0,0,0,-1,1483,1156,0,0
266,-132,0,0,0,0,0,0,0,0,0,-1,1490,1156,0,0
273,-132,0,0,0,0,0,0,0,0,0,-1,1497,1156,0,0
280,-132,0,0,0,0,0,0,0,0,0,-1,1504,1156,0,0
287,-132,0,0,0,0,0,0,0,0,0,-1,1511,1156,0,0
294,-132,0,0,0,0,0,0,0,0,0,-1,1518,1156,0,0
301,-132,0,0,0,0,0,0,0,0,0,-1,1525,1156,0,0
308,-132,0,0,0,0,0,0,0,0,0,-1,1532,1156,0,0
315,-132,0,0,0,0,0,0,0,0,0,-1,1539,1156,0,0
322,-132,0,0,0,0,0,0,0,0,0,-1,1546,1156,0,0
329,-132,0,0,0,0,0,0,0,0,0,-1,1553,1156,0,0
336,-132,0,0,0,0,0,0,0,0,0,-1,1560,1156,0,0
343,-132,0,0,0,0,0,0,0,0,0,-1,1567,1156,0,0
350,-132,0,0,0,0,0,0,0,0,0,-1,1574,1156,0,0
357,-132,0,0,0,0,0,0,0,0,0,-1,1581,1156,0,0
364,-132,0,0,0,0,0,0,0,0,0,-1,1588,1156,0,0
371,-132,0,0,0,0,0,0,0,0,0,-1,1595,1156,0,0
378,-132,0,0,0,0,0,0,0,0,0,-1,1602,1156,0,0
385,-132,0,0,0,0,0,0,0,0,0,-1,1609,1156,0,0
392,-132,0,0,0,0,0,0,0,0,0,-1,1616,1156,0,0
399,-132,0,0,0,0,0,0,0,0,0,-1,1623,1156,0,0
406,-132,0,0,0,0,0,0,0,0,0,-1,1630,1156,0,0
413,-132,0,0,0,0,0,0,0,0,0,-1,1637,1156,0,0
420,-132,0,0,0,0,0,0,0,0,0,-1,1644,1156,0,0
427,-132,0,0,0,0,0,0,0,0,0,-1,1651,1156,0,0
434,-132,0,0,0,0,0,0,0,0,0,-1,1658,1156,0,0
441,-132,0,0,0,0,0,0,0,0,0,-1,1665,1156,0,0
448,-132,0,0,0,0,0,0,0,0,0,-1,1672,1156,0,0
455,-132,0,0,0,0,0,0,0,0,0,-1,1679,1156,0,0
462,-132,0,0,0,0,0,0,0,0,0,-1,1686,1156,0,0
469,-132,0,0,0,0,0,0,0,0,0,-1,1693,1156,0,0
476,-132,0,0,0,0,0,0,0,0,0,-1,1700,1156,0,0
483,-132,0,0,0,0,0,0,0,0,0,-1,1707,1156,0,0
490,-132,0,0,0,0,0,0,0,0,0,-1,1714,1156,0,0
497,-132,0,0,0,0,0,0,0,0,0,-1,1721,1156,0,0
504,-132,0,0,0,0,0,0,0,0,0,-1,1728,1156,0,0
511,-132,0,0,0,0,0,0,0,0,0,-1,1735,1156,0,0
518,-132,0,0,0,0,0,0,0,0,0,-1,1742,1156,0,0
525,-132,0,0,0,0,0,0,0,0,0,-1,1749,1156,0,0
532,-132,0,0,0,0,0,0,0,0,0,-1,1756,1156,0,0
539,-132,0,0,0,0,0,0,0,0,0,-1,1763,1156,0,0
546,-132,0,0,0,0,0,0,0,0,0,-1,1770,1156,0,0
553,-132,0,0,0,0,0,0,0,0,0,-1,1777,1156,0,0
560,-132,0,0,0,0,0,0,0,0,0,-1,1784,1156,0,0
567,-132,0,0,0,0,0,0,0,0,0,-1,1791,1156,0,0
574,-132,0,0,0,0,0,0,0,0,0,-1,1798,1156,0,0
581,-132,0,0,0,0,0,0,0,0,0,-1,1805,1156,0,0
588,-132,0,0,0,0,0,0,0,0,0,-1,1812,1156,0,0
595,-132,0,0,0,0,0,0,0,0,0,-1,1819,1156,0,0
602,-132,0,0,0,0,0,0,0,0,0,-1,1826,1156,0,0
609,-132,0,0,0,0,0,0,0,0,0,-1,1833,1156,0,0
616,-132,0,0,0,0,0,0,0,0,0,-1,1840,1156,0,0
623,-132,0,0,0,0,0,0,0,0,0,-1,1847,1156,0,0
630,-132,0,0,0,0,0,0,0,0,0,-1,1854,1156,0,0
637,-132,0,0,0,0,0,0,0,0,0,-1,1861,1156,0,0
644,-132,60.6051,3.06384,0.00397401,-0.00184248,-0.0030264,0.00526303,-0.0031315,-0.402652,0.00489839,0.0433322,1868,1156,60.6051,-3.06381
651,-132,60.4377,2.81677,0.00329283,-0.00145325,-0.00183347,0.00391862,-0.00207904,-0.328913,0.00351662,0.0432481,1875,1156,60.4377,-2.81681
658,-132,60.5061,2.62769,0.00282345,-0.00122363,-0.000942041,0.00303198,-0.00143217,-0.217851,0.00263197,0.0415034,1882,1156,60.5061,-2.62774
665,-132,60.6034,2.57153,0.002364,-0.00100439,-0.000269832,0.00238548,-0.00102587,-0.0794321,0.00202101,0.0409281,1889,1156,60.6034,-2.57149
672,-132,60.567,2.6571,0.001636,-0.00078282,0.000185868,0.0016502,-0.000797019,0.076246,0.00144124,0.040938,1896,1156,60.5671,-2.65712
679,-132,60.6235,2.72449,0.000679119,-0.000862757,0.000536706,0.000847541,-0.00103118,0.304076,0.00108641,0.0407065,1903,1156,60.6235,-2.72445
686,-132,60.6672,2.67102,0.000129372,-0.000967757,0.000638865,0.000422871,-0.00126126,0.43065,0.0010117,0.0368205,1910,1156,60.6672,-2.67099
693,-132,60.6272,2.72546,-0.000235073,-0.000989512,0.000640601,0.000131122,-0.00135571,0.519307,0.000950531,0.0296307,1917,1156,60.6272,-2.72543
700,-132,60.6995,2.69385,0,0,0,0,0,0,0,-1,1924,1156,60.6995,-2.69381
707,-132,57.9275,3.01367,0,0,0,0,0,0,0,-1,1931,1156,57.9275,-3.01369
714,-132,54.4473,9.20325,0,0,0,0,0,0,0,-1,1938,1156,54.4472,-9.20323
721,-132,54.3351,8.68713,-0.0015937,-0.000578504,0.00116357,0.000183365,-0.00235557,0.991075,0.00163493,0.04256,1945,1156,54.3351,-8.68714
728,-132,54.0719,8.24487,-0.00141333,-0.000381125,0.00109816,0.000316161,-0.00211062,1.00507,0.00152344,0.0306197,1952,1156,54.0719,-8.24484
735,-132,54.0208,7.76147,-0.00113538,-0.000239847,0.00106924,0.000471593,-0.00184682,0.983691,0.00141486,0.0310425,1959,1156,54.0208,-7.7615
742,-132,54.0333,7.18311,-0.000921784,2.55851e-05,0.00140725,0.00103673,-0.00193293,0.947744,0.00174036,0.0227594,1966,1156,54.0334,-7.18305
749,-132,53.9966,6.71765,-0.00111035,0.000766434,0.00198972,0.00202794,-0.00237185,1.00574,0.00254281,0.0261879,1973,1156,53.9966,-6.71764
756,-132,54.0024,6.21362,-0.00135301,0.00321674,0.0031709,0.00484022,-0.00297649,1.0976,0.00455554,0.0258837,1980,1156,54.0025,-6.21358
763,-132,53.9613,5.73425,-0.00117736,0.00637436,0.0048697,0.00876057,-0.00356357,1.11517,0.00732319,0.0156389,1987,1156,53.9613,-5.73427
770,-132,53.9656,5.26929,-0.00150313,0.0105363,0.00730878,0.0139852,-0.00495206,1.12989,0.0113405,0.0154799,1994,1156,53.9656,-5.26929
777,-132,53.9177,4.81091,-0.00233241,0.0158207,0.0105063,0.0206281,-0.00713986,1.14166,0.0166504,0.0264209,2001,1156,53.9178,-4.81085
784,-132,53.9792,4.38916,-0.00390728,0.0226809,0.0147469,0.0292414,-0.0104677,1.15222,0.0237648,0.0471595,2008,1156,53.9793,-4.38912
791,-132,54.1523,3.96863,0,0,0,0,0,0,0,-1,2015,1156,54.1523,-3.96857
798,-132,54.9446,3.70056,-0.00944701,0.0440098,0.0274631,0.0556041,-0.0210413,1.17132,0.0457264,0.0462823,2022,1156,54.9445,-3.7005
805,-132,52.3713,6.10364,-0.0138933,0.0604202,0.0366777,0.0754734,-0.0289465,1.18134,0.0622497,0.0480795,2029,1156,52.3713,-6.10358
812,-132,52.6497,7.24219,0,0,0,0,0,0,0,-1,2036,1156,52.6498,-7.24217
-700,-139,0,0,0,0,0,0,0,0,0,-1,524,1163,0,0
-693,-139,-43.1668,4.06165,0,0,0,0,0,0,0,-1,531,1163,-43.1668,-4.0616
-686,-139,-43.6044,-0.154419,0,0,0,0,0,0,0,-1,538,1163,-43.6044,0.154469
-679,-139,-38.3399,-1.12402,0,0,0,0,0,0,0,-1,545,1163,-38.3399,1.12401
-672,-139,-38.6049,-0.273926,0.0303179,-0.0459094,0.0258777,0.0382727,-0.0538643,0.298233,0.0534486,0.0475961,552,1163,-38.6049,0.273957
-665,-139,-38.6614,0.597412,0,0,0,0,0,0,0,-1,559,1163,-38.6614,-0.597417
-658,-139,-38.5012,1.08423,0,0,0,0,0,0,0,-1,566,1163,-38.5012,-1.08418
-651,-139,-38.4087,1.62891,0.0097537,-0.0124909,0.00794728,0.0123013,-0.0150384,0.310208,0.0158109,0.0469403,573,1163,-38.4087,-1.6289
-644,-139,-38.4312,2.2218,0.00517243,-0.00587773,0.00391189,0.00641709,-0.00712239,0.308046,0.00782056,0.0265532,580,1163,-38.4312,-2.22182
-637,-139,-38.5159,2.73657,0.00139568,-0.00103078,0.00076201,0.00161513,-0.00125024,0.280407,0.00165879,0.0144481,587,1163,-38.5159,-2.73661
-630,-139,-38.533,3.28516,-0.000815318,0.00140995,-0.00150316,0.00216746,-0.00157283,-1.104,0.00216854,0.0103495,594,1163,-38.533,-3.28517
-623,-139,-38.5387,3.81921,-0.00246376,0.00150787,-0.00266369,0.00284451,-0.0038004,-1.10571,0.00384965,0.0167181,601,1163,-38.5387,-3.81924
-616,-139,-38.5875,4.3468,-0.00339706,0.000138294,-0.00320704,0.00203256,-0.00529132,-1.03727,0.00436574,0.019992,608,1163,-38.5875,-4.34682
-609,-139,-38.4217,4.87207,0,0,0,0,0,0,0,-1,615,1163,-38.4217,-4.87202
-602,-139,-38.4984,5.51672,-0.00377033,-0.00148041,-0.00211734,-0.000218284,-0.00503245,-1.03326,0.00328462,0.0372142,622,1163,-38.4983,-5.51677
-595,-139,-38.7349,6.01074,-0.00382747,-0.00140951,-0.00186853,-0.000392951,-0.00484403,-1.07254,0.00310667,0.0476901,629,1163,-38.7349,-6.01074
-588,-139,-39.0425,6.43579,0,0,0,0,0,0,0,-1,636,1163,-39.0425,-6.43578
-581,-139,-34.4892,6.72473,0,0,0,0,0,0,0,-1,643,1163,-34.4892,-6.72476
-574,-139,-23.0725,2.4043,0,0,0,0,0,0,0,-1,650,1163,-23.0725,-2.40433
-567,-139,-45.6516,0.716797,0,0,0,0,0,0,0,-1,657,1163,-45.6516,-0.71678
-560,-139,-45.7767,1.0144,-0.00133741,-0.00344442,-0.00268388,0.000492325,-0.00527416,-0.598373,0.00369118,0.0362839,664,1163,-45.7767,-1.01442
-553,-139,-45.8749,1.36426,-0.00061082,-0.00365463,-0.00306648,0.00129065,-0.0055561,-0.555055,0.0042009,0.03853,671,1163,-45.8749,-1.36426
-546,-139,-45.9294,1.38318,0.000784347,-0.00369443,-0.00415571,0.00326564,-0.00617572,-0.538269,0.00553661,0.0435861,678,1163,-45.9294,-1.3832
-539,-139,-45.7972,1.16443,0.00374409,-0.00417915,-0.00801116,0.00871965,-0.00915471,-0.555774,0.0103208,0.0447301,685,1163,-45.7972,-1.16446
-532,-139,-45.7195,0.842651,0.00781609,-0.00516568,-0.0134864,0.0162923,-0.0136419,-0.561113,0.0173051,0.0421159,692,1163,-45.7195,-0.842698
-525,-139,-45.7137,0.549072,0,0,0,0,0,0,0,-1,699,1163,-45.7137,-0.549065
-518,-139,0,0,0,0,0,0,0,0,0,-1,706,1163,0,0
-511,-139,0,0,0,0,0,0,0,0,0,-1,713,1163,0,0
-504,-139,0,0,0,0,0,0,0,0,0,-1,720,1163,0,0
-497,-139,0,0,0,0,0,0,0,0,0,-1,727,1163,0,0
-490,-139,0,0,0,0,0,0,0,0,0,-1,734,1163,0,0
-483,-139,0,0,0,0,0,0,0,0,0,-1,741,1163,0,0
-476,-139,0,0,0,0,0,0,0,0,0,-1,748,1163,0,0
-469,-139,0,0,0,0,0,0,0,0,0,-1,755,1163,0,0
-462,-139,0,0,0,0,0,0,0,0,0,-1,762,1163,0,0
-455,-139,0,0,0,0,0,0,0,0,0,-1,769,1163,0,0
-448,-139,0,0,0,0,0,0,0,0,0,-1,776,1163,0,0
-441,-139,0,0,0,0,0,0,0,0,0,-1,783,1163,0,0
-434,-139,0,0,0,0,0,0,0,0,0,-1,790,1163,0,0
-427,-139,0,0,0,0,0,0,0,0,0,-1,797,1163,0,0
-420,-139,0,0,0,0,0,0,0,0,0,-1,804,1163,0,0
-413,-139,0,0,0,0,0,0,0,0,0,-1,811,1163,0,0
-406,-139,0,0,0,0,0,0,0,0,0,-1,818,1163,0,0
-399,-139,0,0,0,0,0,0,0,0,0,-1,825,1163,0,0
-392,-139,0,0,0,0,0,0,0,0,0,-1,832,1163,0,0
-385,-139,0,0,0,0,0,0,0,0,0,-1,839,1163,0,0
-378,-139,0,0,0,0,0,0,0,0,0,-1,846,1163,0,0
-371,-139,0,0,0,0,0,0,0,0,0,-1,853,1163,0,0
-364,-139,0,0,0,0,0,0,0,0,0,-1,860,1163,0,0
-357,-139,0,0,0,0,0,0,0,0,0,-1,867,1163,0,0
-350,-139,0,0,0,0,0,0,0,0,0,-1,874,1163,0,0
-343,-139,0,0,0,0,0,0,0,0,0,-1,881,1163,0,0
-336,-139,0,0,0,0,0,0,0,0,0,-1,888,1163,0,0
-329,-139,0,0,0,0,0,0,0,0,0,-1,895,1163,0,0
-322,-139,0,0,0,0,0,0,0,0,0,-1,902,1163,0,0
-315,-139,0,0,0,0,0,0,0,0,0,-1,909,1163,0,0
-308,-139,0,0,0,0,0,0,0,0,0,-1,916,1163,0,0
-301,-139,0,0,0,0,0,0,0,0,0,-1,923,1163,0,0
-294,-139,0,0,0,0,0,0,0,0,0,-1,930,1163,0,0
-287,-139,0,0,0,0,0,0,0,0,0,-1,937,1163,0,0
-280,-139,0,0,0,0,0,0,0,0,0,-1,944,1163,0,0
-273,-139,0,0,0,0,0,0,0,0,0,-1,951,1163,0,0
-266,-139,0,0,0,0,0,0,0,0,0,-1,958,1163,0,0
-259,-139,0,0,0,0,0,0,0,0,0,-1,965,1163,0,0
-252,-139,0,0,0,0,0,0,0,0,0,-1,972,1163,0,0
-245,-139,0,0,0,0,0,0,0,0,0,-1,979,1163,0,0
-238,-139,0,0,0,0,0,0,0,0,0,-1,986,1163,0,0
-231,-139,0,0,0,0,0,0,0,0,0,-1,993,1163,0,0
-224,-139,0,0,0,0,0,0,0,0,0,-1,1000,1163,0,0
-217,-139,0,0,0,0,0,0,0,0,0,-1,1007,1163,0,0
-210,-139,0,0,0,0,0,0,0,0,0,-1,1014,1163,0,0
-203,-139,0,0,0,0,0,0,0,0,0,-1,1021,1163,0,0
-196,-139,0,0,0,0,0,0,0,0,0,-1,1028,1163,0,0
-189,-139,0,0,0,0,0,0,0,0,0,-1,1035,1163,0,0
-182,-139,0,0,0,0,0,0,0,0,0,-1,1042,1163,0,0
-175,-139,0,0,0,0,0,0,0,0,0,-1,1049,1163,0,0
-168,-139,0,0,0,0,0,0,0,0,0,-1,1056,1163,0,0
-161,-139,0,0,0,0,0,0,0,0,0,-1,1063,1163,0,0
-154,-139,0,0,0,0,0,0,0,0,0,-1,1070,1163,0,0
-147,-139,0,0,0,0,0,0,0,0,0,-1,1077,1163,0,0
-140,-139,0,0,0,0,0,0,0,0,0,-1,1084,1163,0,0
-133,-139,0,0,0,0,0,0,0,0,0,-1,1091,1163,0,0
-126,-139,0,0,0,0,0,0,0,0,0,-1,1098,1163,0,0
-119,-139,0,0,0,0,0,0,0,0,0,-1,1105,1163,0,0
-112,-139,0,0,0,0,0,0,0,0,0,-1,1112,1163,0,0
-105,-139,0,0,0,0,0,0,0,0,0,-1,1119,1163,0,0
-98,-139,0,0,0,0,0,0,0,0,0,-1,1126,1163,0,0
-91,-139,0,0,0,0,0,0,0,0,0,-1,1133,1163,0,0
-84,-139,0,0,0,0,0,0,0,0,0,-1,1140,1163,0,0
-77,-139,0,0,0,0,0,0,0,0,0,-1,1147,1163,0,0
-70,-139,0,0,0,0,0,0,0,0,0,-1,1154,1163,0,0
-63,-139,0,0,0,0,0,0,0,0,0,-1,1161,1163,0,0
-56,-139,0,0,0,0,0,0,0,0,0,-1,1168,1163,0,0
-49,-139,0,0,0,0,0,0,0,0,0,-1,1175,1163,0,0
-42,-139,0,0,0,0,0,0,0,0,0,-1,1182,1163,0,0
-35,-139,0,0,0,0,0,0,0,0,0,-1,1189,1163,0,0
-28,-139,0,0,0,0,0,0,0,0,0,-1,1196,1163,0,0
-21,-139,0,0,0,0,0,0,0,0,0,-1,1203,1163,0,0
-14,-139,0,0,0,0,0,0,0,0,0,-1,1210,1163,0,0
-7,-139,0,0,0,0,0,0,0,0,0,-1,1217,1163,0,0
0,-139,0,0,0,0,0,0,0,0,0,-1,1224,1163,0,0
7,-139,0,0,0,0,0,0,0,0,0,-1,1231,1163,0,0
14,-139,0,0,0,0,0,0,0,0,0,-1,1238,1163,0,0
21,-139,0,0,0,0,0,0,0,0,0,-1,1245,1163,0,0
28,-139,0,0,0,0,0,0,0,0,0,-1,1252,1163,0,0
35,-139,0,0,0,0,0,0,0,0,0,-1,1259,1163,0,0
42,-139,0,0,0,0,0,0,0,0,0,-1,1266,1163,0,0
49,-139,0,0,0,0,0,0,0,0,0,-1,1273,1163,0,0
56,-139,0,0,0,0,0,0,0,0,0,-1,1280,1163,0,0
63,-139,0,0,0,0,0,0,0,0,0,-1,1287,1163,0,0
70,-139,0,0,0,0,0,0,0,0,0,-1,1294,1163,0,0
77,-139,0,0,0,0,0,0,0,0,0,-1,1301,1163,0,0
84,-139,0,0,0,0,0,0,0,0,0,-1,1308,1163,0,0
91,-139,0,0,0,0,0,0,0,0,0,-1,1315,1163,0,0
98,-139,0,0,0,0,0,0,0,0,0,-1,1322,1163,0,0
105,-139,0,0,0,0,0,0,0,0,0,-1,1329,1163,0,0
112,-139,0,0,0,0,0,0,0,0,0,-1,1336,1163,0,0
119,-139,0,0,0,0,0,0,0,0,0,-1,1343,1163,0,0
126,-139,0,0,0,0,0,0,0,0,0,-1,1350,1163,0,0
133,-139,0,0,0,0,0,0,0,0,0,-1,1357,1163,0,0
140,-139,0,0,0,0,0,0,0,0,0,-1,1364,1163,0,0
147,-139,0,0,0,0,0,0,0,0,0,-1,1371,1163,0,0
154,-139,0,0,0,0,0,0,0,0,0,-1,1378,1163,0,0
161,-139,0,0,0,0,0,0,0,0,0,-1,1385,1163,0,0
168,-139,0,0,0,0,0,0,0,0,0,-1,1392,1163,0,0
175,-139,0,0,0,0,0,0,0,0,0,-1,1399,1163,0,0
182,-139,0,0,0,0,0,0,0,0,0,-1,1406,1163,0,0
189,-139,0,0,0,0,0,0,0,0,0,-1,1413,1163,0,0
196,-139,0,0,0,0,0,0,0,0,0,-1,1420,1163,0,0
203,-139,0,0,0,0,0,0,0,0,0,-1,1427,1163,0,0
210,-139,0,0,0,0,0,0,0,0,0,-1,1434,1163,0,0
217,-139,0,0,0,0,0,0,0,0,0,-1,1441,1163,0,0
224,-139,0,0,0,0,0,0,0,0,0,-1,1448,1163,0,0
231,-139,0,0,0,0,0,0,0,0,0,-1,1455,1163,0,0
238,-139,0,0,0,0,0,0,0,0,0,-1,1462,1163,0,0
245,-139,0,0,0,0,0,0,0,0,0,-1,1469,1163,0,0
252,-139,0,0,0,0,0,0,0,0,0,-1,1476,1163,0,0
259,-139,0,0,0,0,0,0,0,0,0,-1,1483,1163,0,0
266,-139,0,0,0,0,0,0,0,0,0,-1,1490,1163,0,0
273,-139,0,0,0,0,0,0,0,0,0,-1,1497,1163,0,0
280,-139,0,0,0,0,0,0,0,0,0,-1,1504,1163,0,0
287,-139,0,0,0,0,0,0,0,0,0,-1,1511,1163,0,0
294,-139,0,0,0,0,0,0,0,0,0,-1,1518,1163,0,0
301,-139,0,0,0,0,0,0,0,0,0,-1,1525,1163,0,0
308,-139,0,0,0,0,0,0,0,0,0,-1,1532,1163,0,0
315,-139,0,0,0,0,0,0,0,0,0,-1,1539,1163,0,0
322,-139,0,0,0,0,0,0,0,0,0,-1,1546,1163,0,0
329,-139,0,0,0,0,0,0,0,0,0,-1,1553,1163,0,0
336,-139,0,0,0,0,0,0,0,0,0,-1,1560,1163,0,0
343,-139,0,0,0,0,0,0,0,0,0,-1,1567,1163,0,0
350,-139,0,0,0,0,0,0,0,0,0,-1,1574,1163,0,0
357,-139,0,0,0,0,0,0,0,0,0,-1,1581,1163,0,0
364,-139,0,0,0,0,0,0,0,0,0,-1,1588,1163,0,0
371,-139,0,0,0,0,0,0,0,0,0,-1,1595,1163,0,0
378,-139,0,0,0,0,0,0,0,0,0,-1,1602,1163,0,0
385,-139,0,0,0,0,0,0,0,0,0,-1,1609,1163,0,0
392,-139,0,0,0,0,0,0,0,0,0,-1,1616,1163,0,0
399,-139,0,0,0,0,0,0,0,0,0,-1,1623,1163,0,0
406,-139,0,0,0,0,0,0,0,0,0,-1,1630,1163,0,0
413,-139,0,0,0,0,0,0,0,0,0,-1,1637,1163,0,0
420,-139,0,0,0,0,0,0,0,0,0,-1,1644,1163,0,0
427,-139,0,0,0,0,0,0,0,0,0,-1,1651,1163,0,0
434,-139,0,0,0,0,0,0,0,0,0,-1,1658,1163,0,0
441,-139,0,0,0,0,0,0,0,0,0,-1,1665,1163,0,0
448,-139,0,0,0,0,0,0,0,0,0,-1,1672,1163,0,0
455,-139,0,0,0,0,0,0,0,0,0,-1,1679,1163,0,0
462,-139,0,0,0,0,0,0,0,0,0,-1,1686,1163,0,0
469,-139,0,0,0,0,0,0,0,0,0,-1,1693,1163,0,0
476,-139,0,0,0,0,0,0,0,0,0,-1,1700,1163,0,0
483,-139,0,0,0,0,0,0,0,0,0,-1,1707,1163,0,0
490,-139,0,0,0,0,0,0,0,0,0,-1,1714,1163,0,0
497,-139,0,0,0,0,0,0,0,0,0,-1,1721,1163,0,0
504,-139,0,0,0,0,0,0,0,0,0,-1,1728,1163,0,0
511,-139,0,0,0,0,0,0,0,0,0,-1,1735,1163,0,0
518,-139,0,0,0,0,0,0,0,0,0,-1,1742,1163,0,0
525,-139,0,0,0,0,0,0,0,0,0,-1,1749,1163,0,0
532,-139,0,0,0,0,0,0,0,0,0,-1,1756,1163,0,0
539,-139,0,0,0,0,0,0,0,0,0,-1,1763,1163,0,0
546,-139,0,0,0,0,0,0,0,0,0,-1,1770,1163,0,0
553,-139,0,0,0,0,0,0,0,0,0,-1,1777,1163,0,0
560,-139,0,0,0,0,0,0,0,0,0,-1,1784,1163,0,0
567,-139,0,0,0,0,0,0,0,0,0,-1,1791,1163,0,0
574,-139,0,0,0,0,0,0,0,0,0,-1,1798,1163,0,0
581,-139,0,0,0,0,0,0,0,0,0,-1,1805,1163,0,0
588,-139,0,0,0,0,0,0,0,0,0,-1,1812,1163,0,0
595,-139,0,0,0,0,0,0,0,0,0,-1,1819,1163,0,0
602,-139,0,0,0,0,0,0,0,0,0,-1,1826,1163,0,0
609,-139,0,0,0,0,0,0,0,0,0,-1,1833,1163,0,0
616,-139,0,0,0,0,0,0,0,0,0,-1,1840,1163,0,0
623,-139,0,0,0,0,0,0,0,0,0,-1,1847,1163,0,0
630,-139,0,0,0,0,0,0,0,0,0,-1,1854,1163,0,0
637,-139,0,0,0,0,0,0,0,0,0,-1,1861,1163,0,0
644,-139,60.7122,2.87488,0.00252416,-0.00122258,-0.00276824,0.00399335,-0.00269177,-0.487928,0.00388396,0.0402629,1868,1163,60.7121,-2.87491
651,-139,60.5955,2.65796,0.00220237,-0.000932632,-0.0016595,0.00291763,-0.00164789,-0.40695,0.00266967,0.0399157,1875,1163,60.5955,-2.65791
658,-139,60.629,2.52734,0.00202125,-0.000744183,-0.000823829,0.00224807,-0.000971001,-0.268665,0.00190666,0.0390057,1882,1163,60.6291,-2.52731
665,-139,60.6689,2.61267,0.00188524,-0.000563989,-0.000209506,0.00190304,-0.00058178,-0.0847193,0.00150069,0.0374956,1889,1163,60.6689,-2.61269
672,-139,60.6613,2.8075,0.00140498,-0.000363022,0.000194827,0.0014262,-0.000384237,0.108462,0.00110145,0.0388143,1896,1163,60.6613,-2.80747
679,-139,60.7166,2.78638,0.000663821,-0.0004876,0.000507102,0.00085531,-0.000679088,0.361061,0.000887831,0.0384035,1903,1163,60.7165,-2.78639
686,-139,60.6356,2.73621,0.000222747,-0.00064424,0.000569304,0.000504811,-0.000926305,0.460005,0.000838115,0.0347842,1910,1163,60.6356,-2.73617
693,-139,60.6719,2.75916,-0.000103147,-0.000723034,0.00054072,0.000210162,-0.00103634,0.525156,0.000770562,0.0240766,1917,1163,60.6719,-2.75909
700,-139,60.7719,2.63525,0,0,0,0,0,0,0,-1,1924,1163,60.7718,-2.6352
707,-139,32.116,6.54346,0,0,0,0,0,0,0,-1,1931,1163,32.116,-6.54343
714,-139,53.5397,9.35986,0,0,0,0,0,0,0,-1,1938,1163,53.5396,-9.35981
721,-139,53.7294,8.67334,-0.00131392,-0.000418504,0.00098078,0.000211922,-0.00194434,0.999513,0.00137233,0.0384334,1945,1163,53.7293,-8.67332
728,-139,53.5388,8.33264,-0.00101378,-0.000302374,0.00091912,0.000327473,-0.00164362,0.970024,0.00121965,0.0487793,1952,1163,53.5388,-8.33264
735,-139,53.4141,7.92322,-0.000747274,-0.000240352,0.00091012,0.000450941,-0.00143857,0.921203,0.0011395,0.0358839,1959,1163,53.4141,-7.92326
742,-139,53.5348,7.20544,-0.000583218,-8.30791e-05,0.00123942,0.000931249,-0.00159755,0.884943,0.0014768,0.0240663,1966,1163,53.5348,-7.20548
749,-139,53.5004,6.66187,-0.000581816,0.000585887,0.00170945,0.00180844,-0.00180437,0.949959,0.00208586,0.0196294,1973,1163,53.5003,-6.66186
756,-139,53.4427,6.20911,-0.000732684,0.00310638,0.00288234,0.00464987,-0.00227617,1.07916,0.00407628,0.0119674,1980,1163,53.4428,-6.20908
763,-139,53.4155,5.71729,-0.000732553,0.00638743,0.00458784,0.00863449,-0.00297961,1.11535,0.00696531,0.0120857,1987,1163,53.4156,-5.71726
770,-139,53.4281,5.23901,-0.00145893,0.0107257,0.00705822,0.0139573,-0.00469049,1.14144,0.0112007,0.0136821,1994,1163,53.4281,-5.23904
777,-139,53.4431,4.79968,-0.00306781,0.0162943,0.0103567,0.0207901,-0.00756362,1.16124,0.0169533,0.0267596,2001,1163,53.443,-4.79968
784,-139,53.3928,4.37488,-0.00591188,0.0235579,0.0147878,0.0296987,-0.0120527,1.1772,0.0248124,0.0447765,2008,1163,53.3929,-4.37491
791,-139,53.6187,3.88074,-0.0102211,0.033249,0.0206697,0.0415081,-0.0184802,1.19066,0.0354747,0.0482005,2015,1163,53.6188,-3.88071
798,-139,53.7839,3.60071,-0.0165498,0.0463755,0.0284301,0.0573177,-0.027492,1.20339,0.049964,0.0491207,2022,1163,53.7839,-3.60074
805,-139,52.238,4.97717,-0.0255399,0.0640797,0.0386653,0.0784554,-0.0399156,1.21484,0.0695385,0.0460739,2029,1163,52.238,-4.97713
812,-139,0,0,0,0,0,0,0,0,0,-1,2036,1163,0,0
-700,-146,0,0,0,0,0,0,0,0,0,-1,524,1170,0,0
-693,-146,-36.7423,-2.15393,0,0,0,0,0,0,0,-1,531,1170,-36.7423,2.15394
-686,-146,-44.4008,-1.33594,0,0,0,0,0,0,0,-1,538,1170,-44.4008,1.33594
-679,-146,-37.5782,-2.1405,0,0,0,0,0,0,0,-1,545,1170,-37.5782,2.14051
-672,-146,-37.3632,-1.04138,0,0,0,0,0,0,0,-1,552,1170,-37.3632,1.04144
-665,-146,-37.5482,0.406982,0,0,0,0,0,0,0,-1,559,1170,-37.5482,-0.406957
-658,-146,-37.4771,0.983398,0,0,0,0,0,0,0,-1,566,1170,-37.4771,-0.983401
-651,-146,-37.7574,1.57532,0.0115669,-0.00689422,0.0077805,0.0144086,-0.00973593,0.350181,0.0140266,0.0451288,573,1170,-37.7574,-1.57529
-644,-146,-37.8441,2.19092,0.00664403,-0.00201985,0.0039618,0.00818249,-0.00355831,0.3704,0.00695159,0.0249594,580,1170,-37.844,-2.1909
-637,-146,-37.9164,2.74707,0.00252748,0.00148551,0.000990912,0.00312602,0.000886973,0.543377,0.00186023,0.0121929,587,1170,-37.9164,-2.74702
-630,-146,-37.9496,3.29077,-0.000105317,0.00250439,-0.00109257,0.00290141,-0.000502334,-1.22225,0.00212163,0.010451,594,1170,-37.9497,-3.29074
-623,-146,-37.983,3.82532,-0.00214797,0.00180596,-0.00232502,0.0028809,-0.00322291,-1.13773,0.00352588,0.0131791,601,1170,-37.983,-3.82535
-616,-146,-38.0367,4.36206,-0.00348786,0.000120711,-0.00306992,0.00187731,-0.00524446,-1.05107,0.00426219,0.020385,608,1170,-38.0368,-4.36204
-609,-146,-38.0815,4.9054,0,0,0,0,0,0,0,-1,615,1170,-38.0815,-4.90536
-602,-146,-37.8557,5.67175,0,0,0,0,0,0,0,-1,622,1170,-37.8557,-5.67172
-595,-146,-38.1624,6.09021,0,0,0,0,0,0,0,-1,629,1170,-38.1624,-6.09023
-588,-146,-38.4691,6.50879,0,0,0,0,0,0,0,-1,636,1170,-38.4691,-6.50874
-581,-146,-31.7815,6.30347,0,0,0,0,0,0,0,-1,643,1170,-31.7815,-6.3035
-574,-146,-17.9915,3.79114,0,0,0,0,0,0,0,-1,650,1170,-17.9915,-3.79118
-567,-146,-44.4572,0.6604,0,0,0,0,0,0,0,-1,657,1170,-44.4572,-0.660404
-560,-146,-45.7853,1.01733,0,0,0,0,0,0,0,-1,664,1170,-45.7853,-1.01728
-553,-146,-45.7546,1.12451,-0.000647355,-0.00334446,-0.00287336,0.00117818,-0.00516999,-0.565993,0.00389918,0.037668,671,1170,-45.7546,-1.12451
-546,-146,-45.7697,1.19604,0.000910115,-0.00339778,-0.00351811,0.00288128,-0.00536895,-0.510711,0.00483491,0.0422789,678,1170,-45.7697,-1.1961
-539,-146,-45.8868,1.13171,0.0040887,-0.00394796,-0.00676983,0.00794296,-0.00780222,-0.517561,0.0090906,0.0445823,685,1170,-45.8867,-1.13172
-532,-146,-45.8645,0.909424,0.00855203,-0.00514245,-0.0121079,0.0156147,-0.0122051,-0.528058,0.016102,0.0411982,692,1170,-45.8645,-0.909438
-525,-146,-45.9031,0.969971,0.0132798,-0.00620011,-0.0174419,0.0235171,-0.0164373,-0.530755,0.0231881,0.0427063,699,1170,-45.9031,-0.970015
-518,-146,0,0,0,0,0,0,0,0,0,-1,706,1170,0,0
-511,-146,0,0,0,0,0,0,0,0,0,-1,713,1170,0,0
-504,-146,0,0,0,0,0,0,0,0,0,-1,720,1170,0,0
-497,-146,0,0,0,0,0,0,0,0,0,-1,727,1170,0,0
-490,-146,0,0,0,0,0,0,0,0,0,-1,734,1170,0,0
-483,-146,0,0,0,0,0,0,0,0,0,-1,741,1170,0,0
-476,-146,0,0,0,0,0,0,0,0,0,-1,748,1170,0,0
-469,-146,0,0,0,0,0,0,0,0,0,-1,755,1170,0,0
-462,-146,0,0,0,0,0,0,0,0,0,-1,762,1170,0,0
-455,-146,0,0,0,0,0,0,0,0,0,-1,769,1170,0,0
-448,-146,0,0,0,0,0,0,0,0,0,-1,776,1170,0,0
-441,-146,0,0,0,0,0,0,0,0,0,-1,783,1170,0,0
-434,-146,0,0,0,0,0,0,0,0,0,-1,790,1170,0,0
-427,-146,0,0,0,0,0,0,0,0,0,-1,797,1170,0,0
-420,-146,0,0,0,0,0,0,0,0,0,-1,804,1170,0,0
-413,-146,0,0,0,0,0,0,0,0,0,-1,811,1170,0,0
-406,-146,0,0,0,0,0,0,0,0,0,-1,818,1170,0,0
-399,-146,0,0,0,0,0,0,0,0,0,-1,825,1170,0,0
-392,-146,0,0,0,0,0,0,0,0,0,-1,832,1170,0,0
-385,-146,0,0,0,0,0,0,0,0,0,-1,839,1170,0,0
-378,-146,0,0,0,0,0,0,0,0,0,-1,846,1170,0,0
-371,-146,0,0,0,0,0,0,0,0,0,-1,853,1170,0,0
-364,-146,0,0,0,0,0,0,0,0,0,-1,860,1170,0,0
-357,-146,0,0,0,0,0,0,0,0,0,-1,867,1170,0,0
-350,-146,0,0,0,0,0,0,0,0,0,-1,874,1170,0,0
-343,-146,0,0,0,0,0,0,0,0,0,-1,881,1170,0,0
-336,-146,0,0,0,0,0,0,0,0,0,-1,888,1170,0,0
-329,-146,0,0,0,0,0,0,0,0,0,-1,895,1170,0,0
-322,-146,0,0,0,0,0,0,0,0,0,-1,902,1170,0,0
-315,-146,0,0,0,0,0,0,0,0,0,-1,909,1170,0,0
-308,-146,0,0,0,0,0,0,0,0,0,-1,916,1170,0,0
-301,-146,0,0,0,0,0,0,0,0,0,-1,923,1170,0,0
-294,-146,0,0,0,0,0,0,0,0,0,-1,930,1170,0,0
-287,-146,0,0,0,0,0,0,0,0,0,-1,937,1170,0,0
-280,-146,0,0,0,0,0,0,0,0,0,-1,944,1170,0,0
-273,-146,0,0,0,0,0,0,0,0,0,-1,951,1170,0,0
-266,-146,0,0,0,0,0,0,0,0,0,-1,958,1170,0,0
-259,-146,0,0,0,0,0,0,0,0,0,-1,965,1170,0,0
-252,-146,0,0,0,0,0,0,0,0,0,-1,972,1170,0,0
-245,-146,0,0,0,0,0,0,0,0,0,-1,979,1170,0,0
-238,-146,0,0,0,0,0,0,0,0,0,-1,986,1170,0,0
-231,-146,0,0,0,0,0,0,0,0,0,-1,993,1170,0,0
-224,-146,0,0,0,0,0,0,0,0,0,-1,1000,1170,0,0
-217,-146,0,0,0,0,0,0,0,0,0,-1,1007,1170,0,0
-210,-146,0,0,0,0,0,0,0,0,0,-1,1014,1170,0,0
-203,-146,0,0,0,0,0,0,0,0,0,-1,1021,1170,0,0
-196,-146,0,0,0,0,0,0,0,0,0,-1,1028,1170,0,0
-189,-146,0,0,0,0,0,0,0,0,0,-1,1035,1170,0,0
-182,-146,0,0,0,0,0,0,0,0,0,-1,1042,1170,0,0
-175,-146,0,0,0,0,0,0,0,0,0,-1,1049,1170,0,0
-168,-146,0,0,0,0,0,0,0,0,0,-1,1056,1170,0,0
-161,-146,0,0,0,0,0,0,0,0,0,-1,1063,1170,0,0
-154,-146,0,0,0,0,0,0,0,0,0,-1,1070,1170,0,0
-147,-146,0,0,0,0,0,0,0,0,0,-1,1077,1170,0,0
-140,-146,0,0,0,0,0,0,0,0,0,-1,1084,1170,0,0
-133,-146,0,0,0,0,0,0,0,0,0,-1,1091,1170,0,0
-126,-146,0,0,0,0,0,0,0,0,0,-1,1098,1170,0,0
-119,-146,0,0,0,0,0,0,0,0,0,-1,1105,1170,0,0
-112,-146,0,0,0,0,0,0,0,0,0,-1,1112,1170,0,0
-105,-146,0,0,0,0,0,0,0,0,0,-1,1119,1170,0,0
-98,-146,0,0,0,0,0,0,0,0,0,-1,1126,1170,0,0
-91,-146,0,0,0,0,0,0,0,0,0,-1,1133,1170,0,0
-84,-146,0,0,0,0,0,0,0,0,0,-1,1140,1170,0,0
-77,-146,0,0,0,0,0,0,0,0,0,-1,1147,1170,0,0
-70,-146,0,0,0,0,0,0,0,0,0,-1,1154,1170,0,0
-63,-146,0,0,0,0,0,0,0,0,0,-1,1161,1170,0,0
-56,-146,0,0,0,0,0,0,0,0,0,-1,1168,1170,0,0
-49,-146,0,0,0,0,0,0,0,0,0,-1,1175,1170,0,0
-42,-146,0,0,0,0,0,0,0,0,0,-1,1182,1170,0,0
-35,-146,0,0,0,0,0,0,0,0,0,-1,1189,1170,0,0
-28,-146,0,0,0,0,0,0,0,0,0,-1,1196,1170,0,0
-21,-146,0,0,0,0,0,0,0,0,0,-1,1203,1170,0,0
-14,-146,0,0,0,0,0,0,0,0,0,-1,1210,1170,0,0
-7,-146,0,0,0,0,0,0,0,0,0,-1,1217,1170,0,0
0,-146,0,0,0,0,0,0,0,0,0,-1,1224,1170,0,0
7,-146,0,0,0,0,0,0,0,0,0,-1,1231,1170,0,0
14,-146,0,0,0,0,0,0,0,0,0,-1,1238,1170,0,0
21,-146,0,0,0,0,0,0,0,0,0,-1,1245,1170,0,0
28,-146,0,0,0,0,0,0,0,0,0,-1,1252,1170,0,0
35,-146,0,0,0,0,0,0,0,0,0,-1,1259,1170,0,0
42,-146,0,0,0,0,0,0,0,0,0,-1,1266,1170,0,0
49,-146,0,0,0,0,0,0,0,0,0,-1,1273,1170,0,0
56,-146,0,0,0,0,0,0,0,0,0,-1,1280,1170,0,0
63,-146,0,0,0,0,0,0,0,0,0,-1,1287,1170,0,0
70,-146,0,0,0,0,0,0,0,0,0,-1,1294,1170,0,0
77,-146,0,0,0,0,0,0,0,0,0,-1,1301,1170,0,0
84,-146,0,0,0,0,0,0,0,0,0,-1,1308,1170,0,0
91,-146,0,0,0,0,0,0,0,0,0,-1,1315,1170,0,0
98,-146,0,0,0,0,0,0,0,0,0,-1,1322,1170,0,0
105,-146,0,0,0,0,0,0,0,0,0,-1,1329,1170,0,0
112,-146,0,0,0,0,0,0,0,0,0,-1,1336,1170,0,0
119,-146,0,0,0,0,0,0,0,0,0,-1,1343,1170,0,0
126,-146,0,0,0,0,0,0,0,0,0,-1,1350,1170,0,0
133,-146,0,0,0,0,0,0,0,0,0,-1,1357,1170,0,0
140,-146,0,0,0,0,0,0,0,0,0,-1,1364,1170,0,0
147,-146,0,0,0,0,0,0,0,0,0,-1,1371,1170,0,0
154,-146,0,0,0,0,0,0,0,0,0,-1,1378,1170,0,0
161,-146,0,0,0,0,0,0,0,0,0,-1,1385,1170,0,0
168,-146,0,0,0,0,0,0,0,0,0,-1,1392,1170,0,0
175,-146,0,0,0,0,0,0,0,0,0,-1,1399,1170,0,0
182,-146,0,0,0,0,0,0,0,0,0,-1,1406,1170,0,0
189,-146,0,0,0,0,0,0,0,0,0,-1,1413,1170,0,0
196,-146,0,0,0,0,0,0,0,0,0,-1,1420,1170,0,0
203,-146,0,0,0,0,0,0,0,0,0,-1,1427,1170,0,0
210,-146,0,0,0,0,0,0,0,0,0,-1,1434,1170,0,0
217,-146,0,0,0,0,0,0,0,0,0,-1,1441,1170,0,0
224,-146,0,0,0,0,0,0,0,0,0,-1,1448,1170,0,0
231,-146,0,0,0,0,0,0,0,0,0,-1,1455,1170,0,0
238,-146,0,0,0,0,0,0,0,0,0,-1,1462,1170,0,0
245,-146,0,0,0,0,0,0,0,0,0,-1,1469,1170,0,0
252,-146,0,0,0,0,0,0,0,0,0,-1,1476,1170,0,0
259,-146,0,0,0,0,0,0,0,0,0,-1,1483,1170,0,0
266,-146,0,0,0,0,0,0,0,0,0,-1,1490,1170,0,0
273,-146,0,0,0,0,0,0,0,0,0,-1,1497,1170,0,0
280,-146,0,0,0,0,0,0,0,0,0,-1,1504,1170,0,0
287,-146,0,0,0,0,0,0,0,0,0,-1,1511,1170,0,0
294,-146,0,0,0,0,0,0,0,0,0,-1,1518,1170,0,0
301,-146,0,0,0,0,0,0,0,0,0,-1,1525,1170,0,0
308,-146,0,0,0,0,0,0,0,0,0,-1,1532,1170,0,0
315,-146,0,0,0,0,0,0,0,0,0,-1,1539,1170,0,0
322,-146,0,0,0,0,0,0,0,0,0,-1,1546,1170,0,0
329,-146,0,0,0,0,0,0,0,0,0,-1,1553,1170,0,0
336,-146,0,0,0,0,0,0,0,0,0,-1,1560,1170,0,0
343,-146,0,0,0,0,0,0,0,0,0,-1,1567,1170,0,0
350,-146,0,0,0,0,0,0,0,0,0,-1,1574,1170,0,0
357,-146,0,0,0,0,0,0,0,0,0,-1,1581,1170,0,0
364,-146,0,0,0,0,0,0,0,0,0,-1,1588,1170,0,0
371,-146,0,0,0,0,0,0,0,0,0,-1,1595,1170,0,0
378,-146,0,0,0,0,0,0,0,0,0,-1,1602,1170,0,0
385,-146,0,0,0,0,0,0,0,0,0,-1,1609,1170,0,0
392,-146,0,0,0,0,0,0,0,0,0,-1,1616,1170,0,0
399,-146,0,0,0,0,0,0,0,0,0,-1,1623,1170,0,0
406,-146,0,0,0,0,0,0,0,0,0,-1,1630,1170,0,0
413,-146,0,0,0,0,0,0,0,0,0,-1,1637,1170,0,0
420,-146,0,0,0,0,0,0,0,0,0,-1,1644,1170,0,0
427,-146,0,0,0,0,0,0,0,0,0,-1,1651,1170,0,0
434,-146,0,0,0,0,0,0,0,0,0,-1,1658,1170,0,0
441,-146,0,0,0,0,0,0,0,0,0,-1,1665,1170,0,0
448,-146,0,0,0,0,0,0,0,0,0,-1,1672,1170,0,0
455,-146,0,0,0,0,0,0,0,0,0,-1,1679,1170,0,0
462,-146,0,0,0,0,0,0,0,0,0,-1,1686,1170,0,0
469,-146,0,0,0,0,0,0,0,0,0,-1,1693,1170,0,0
476,-146,0,0,0,0,0,0,0,0,0,-1,1700,1170,0,0
483,-146,0,0,0,0,0,0,0,0,0,-1,1707,1170,0,0
490,-146,0,0,0,0,0,0,0,0,0,-1,1714,1170,0,0
497,-146,0,0,0,0,0,0,0,0,0,-1,1721,1170,0,0
504,-146,0,0,0,0,0,0,0,0,0,-1,1728,1170,0,0
511,-146,0,0,0,0,0,0,0,0,0,-1,1735,1170,0,0
518,-146,0,0,0,0,0,0,0,0,0,-1,1742,1170,0,0
525,-146,0,0,0,0,0,0,0,0,0,-1,1749,1170,0,0
532,-146,0,0,0,0,0,0,0,0,0,-1,1756,1170,0,0
539,-146,0,0,0,0,0,0,0,0,0,-1,1763,1170,0,0
546,-146,0,0,0,0,0,0,0,0,0,-1,1770,1170,0,0
553,-146,0,0,0,0,0,0,0,0,0,-1,1777,1170,0,0
560,-146,0,0,0,0,0,0,0,0,0,-1,1784,1170,0,0
567,-146,0,0,0,0,0,0,0,0,0,-1,1791,1170,0,0
574,-146,0,0,0,0,0,0,0,0,0,-1,1798,1170,0,0
581,-146,0,0,0,0,0,0,0,0,0,-1,1805,1170,0,0
588,-146,0,0,0,0,0,0,0,0,0,-1,1812,1170,0,0
595,-146,0,0,0,0,0,0,0,0,0,-1,1819,1170,0,0
602,-146,0,0,0,0,0,0,0,0,0,-1,1826,1170,0,0
609,-146,0,0,0,0,0,0,0,0,0,-1,1833,1170,0,0
616,-146,0,0,0,0,0,0,0,0,0,-1,1840,1170,0,0
623,-146,0,0,0,0,0,0,0,0,0,-1,1847,1170,0,0
630,-146,0,0,0,0,0,0,0,0,0,-1,1854,1170,0,0
637,-146,60.7518,2.60339,0.00109495,-0.000466043,-0.00431431,0.00469879,-0.00406989,-0.695912,0.00506694,0.0399711,1861,1170,60.7518,-2.60344
644,-146,60.7209,2.62524,0.00117815,-0.000491372,-0.00277847,0.00324454,-0.00255777,-0.639469,0.00335778,0.0364898,1868,1170,60.7209,-2.62525
651,-146,60.6793,2.58911,0.00125908,-0.000335056,-0.00172965,0.00236648,-0.00144246,-0.569488,0.00222055,0.0339915,1875,1170,60.6793,-2.58917
658,-146,60.6677,2.53748,0.00141633,-0.000241335,-0.000922563,0.0018277,-0.000652698,-0.419432,0.00148465,0.0374394,1882,1170,60.6677,-2.53751
665,-146,60.7935,2.72791,0.00160384,-0.00014478,-0.000333286,0.00166521,-0.00020615,-0.182097,0.00118485,0.0386114,1889,1170,60.7935,-2.72792
672,-146,60.8048,2.87476,0.00137442,-1.77426e-05,4.47941e-05,0.00137586,-1.91825e-05,0.0321317,0.000923698,0.0393366,1896,1170,60.8048,-2.87478
679,-146,60.7473,2.75964,0.000892494,-0.000223136,0.000321733,0.000978628,-0.000309269,0.261583,0.000776322,0.0327299,1903,1170,60.7474,-2.75964
686,-146,60.6224,2.6626,0.000564965,-0.00043416,0.00036212,0.000682406,-0.000551601,0.313613,0.000713787,0.0250024,1910,1170,60.6224,-2.6626
693,-146,60.6992,2.62537,0.000240388,-0.00054823,0.000333502,0.000362512,-0.000670354,0.351022,0.00060509,0.0183119,1917,1170,60.6993,-2.62536
700,-146,60.8077,2.44177,0,0,0,0,0,0,0,-1,1924,1170,60.8078,-2.44183
707,-146,29.9441,6.94653,0,0,0,0,0,0,0,-1,1931,1170,29.9441,-6.94652
714,-146,31.325,6.13245,0,0,0,0,0,0,0,-1,1938,1170,31.325,-6.1325
721,-146,53.1758,8.50989,0,0,0,0,0,0,0,-1,1945,1170,53.1758,-8.5099
728,-146,53.0295,8.50977,0,0,0,0,0,0,0,-1,1952,1170,53.0295,-8.50981
735,-146,52.9684,7.74377,-0.000304015,-0.000281447,0.000768248,0.0004756,-0.00106106,0.792742,0.000908402,0.0368486,1959,1170,52.9684,-7.74377
742,-146,53.0454,7.22168,-0.000190474,-0.000205118,0.00111447,0.000916695,-0.00131229,0.782113,0.00129364,0.0179667,1966,1170,53.0454,-7.22173
749,-146,52.9635,6.71558,5.46261e-05,0.00040015,0.00146609,0.00170362,-0.00124885,0.844047,0.00171134,0.0149453,1973,1170,52.9635,-6.71552
756,-146,52.9082,6.19299,6.17744e-05,0.0028854,0.00255357,0.00439146,-0.00144428,1.03792,0.00350956,0.0119781,1980,1170,52.9082,-6.19303
763,-146,52.8821,5.69189,-3.25088e-05,0.00613512,0.00415104,0.00822247,-0.00211987,1.10487,0.00630814,0.0117953,1987,1170,52.882,-5.69188
770,-146,52.8763,5.21265,-0.00102252,0.0104419,0.00648773,0.013367,-0.00394762,1.14722,0.0104781,0.0137351,1994,1170,52.8764,-5.21263
777,-146,52.9214,4.87292,-0.00316879,0.0160358,0.00964883,0.0200462,-0.00717914,1.17689,0.0162932,0.0249909,2001,1170,52.9213,-4.87293
784,-146,52.7637,4.40002,-0.00684634,0.0233597,0.0139113,0.0287902,-0.0122768,1.19862,0.0243406,0.0425739,2008,1170,52.7637,-4.40008
791,-146,52.7522,3.83826,-0.0125161,0.0332206,0.0196268,0.0404882,-0.0197836,1.21616,0.0354757,0.0455447,2015,1170,52.7522,-3.83822
798,-146,52.1067,3.87158,-0.0210985,0.0466863,0.0272523,0.056284,-0.0306961,1.23218,0.0509372,0.0469951,2022,1170,52.1067,-3.87157
805,-146,52.2048,4.50378,-0.0335498,0.0650075,0.0374645,0.0776317,-0.0461741,1.24578,0.0722444,0.046088,2029,1170,52.2048,-4.50381
812,-146,0,0,0,0,0,0,0,0,0,-1,2036,1170,0,0
-700,-153,0,0,0,0,0,0,0,0,0,-1,524,1177,0,0
-693,-153,0,0,0,0,0,0,0,0,0,-1,531,1177,0,0
-686,-153,-36.5762,-2.08337,0,0,0,0,0,0,0,-1,538,1177,-36.5762,2.08333
-679,-153,-36.4394,-2.61829,0,0,0,0,0,0,0,-1,545,1177,-36.4394,2.61831
-672,-153,-36.0394,-1.44324,0,0,0,0,0,0,0,-1,552,1177,-36.0394,1.44323
-665,-153,-35.6287,-0.23938,0,0,0,0,0,0,0,-1,559,1177,-35.6287,0.23941
-658,-153,-35.178,0.940308,0,0,0,0,0,0,0,-1,566,1177,-35.178,-0.940321
-651,-153,-37.254,1.50073,0,0,0,0,0,0,0,-1,573,1177,-37.254,-1.50069
-644,-153,-37.2749,2.13599,0.00744112,0.00298543,0.00397377,0.00976894,0.000657606,0.529912,0.00630487,0.03043,580,1177,-37.2749,-2.13594
-637,-153,-37.3187,2.76135,0.00322048,0.00469343,0.00127112,0.00542602,0.0024879,1.04796,0.00313631,0.0122137,587,1177,-37.3187,-2.7614
-630,-153,-37.3644,3.30383,0.000433591,0.00393621,-0.000637026,0.00404847,0.000321332,-1.39636,0.0025985,0.0100207,594,1177,-37.3644,-3.3038
-623,-153,-37.4202,3.84875,-0.00177815,0.00226111,-0.00196372,0.00305841,-0.00257545,-1.18511,0.00325669,0.0107589,601,1177,-37.4202,-3.84881
-616,-153,-37.4498,4.37976,-0.00336415,0.000168159,-0.0029342,0.00182674,-0.00502273,-1.05631,0.00409553,0.0142565,608,1177,-37.4498,-4.37981
-609,-153,-37.4152,4.8894,-0.00430546,-0.00145323,-0.00276245,0.000229505,-0.00598819,-1.02368,0.00407079,0.0327073,615,1177,-37.4151,-4.88935
-602,-153,-37.351,5.31824,0,0,0,0,0,0,0,-1,622,1177,-37.3509,-5.31825
-595,-153,-37.6293,6.18616,0,0,0,0,0,0,0,-1,629,1177,-37.6294,-6.18615
-588,-153,-32.348,5.51038,0,0,0,0,0,0,0,-1,636,1177,-32.348,-5.51034
-581,-153,-33.4568,6.41492,0,0,0,0,0,0,0,-1,643,1177,-33.4568,-6.41497
-574,-153,-25.4814,5.16956,0,0,0,0,0,0,0,-1,650,1177,-25.4814,-5.16961
-567,-153,-35.3121,1.09485,0,0,0,0,0,0,0,-1,657,1177,-35.3121,-1.09482
-560,-153,-45.557,0.482178,0,0,0,0,0,0,0,-1,664,1177,-45.557,-0.482127
-553,-153,-45.5898,0.70752,-0.000598095,-0.00325852,-0.00270556,0.00108657,-0.00494319,-0.556922,0.00371106,0.0371841,671,1177,-45.5898,-0.707509
-546,-153,-45.5248,0.648071,0.00100591,-0.00332543,-0.00300609,0.0025452,-0.00486471,-0.473246,0.00434742,0.0390568,678,1177,-45.5248,-0.648085
-539,-153,-45.9309,0.83313,0.0042542,-0.00387909,-0.00565539,0.00715326,-0.00677815,-0.473692,0.00804428,0.0413864,685,1177,-45.9309,-0.833106
-532,-153,-45.5799,0.0809326,0,0,0,0,0,0,0,-1,692,1177,-45.5799,-0.0809381
-525,-153,-45.7918,0.724854,0,0,0,0,0,0,0,-1,699,1177,-45.7918,-0.724885
-518,-153,0,0,0,0,0,0,0,0,0,-1,706,1177,0,0
-511,-153,0,0,0,0,0,0,0,0,0,-1,713,1177,0,0
-504,-153,0,0,0,0,0,0,0,0,0,-1,720,1177,0,0
-497,-153,0,0,0,0,0,0,0,0,0,-1,727,1177,0,0
-490,-153,0,0,0,0,0,0,0,0,0,-1,734,1177,0,0
-483,-153,0,0,0,0,0,0,0,0,0,-1,741,1177,0,0
-476,-153,0,0,0,0,0,0,0,0,0,-1,748,1177,0,0
-469,-153,0,0,0,0,0,0,0,0,0,-1,755,1177,0,0
-462,-153,0,0,0,0,0,0,0,0,0,-1,762,1177,0,0
-455,-153,0,0,0,0,0,0,0,0,0,-1,769,1177,0,0
-448,-153,0,0,0,0,0,0,0,0,0,-1,776,1177,0,0
-441,-153,0,0,0,0,0,0,0,0,0,-1,783,1177,0,0
-434,-153,0,0,0,0,0,0,0,0,0,-1,790,1177,0,0
-427,-153,0,0,0,0,0,0,0,0,0,-1,797,1177,0,0
-420,-153,0,0,0,0,0,0,0,0,0,-1,804,1177,0,0
-413,-153,0,0,0,0,0,0,0,0,0,-1,811,1177,0,0
-406,-153,0,0,0,0,0,0,0,0,0,-1,818,1177,0,0
-399,-153,0,0,0,0,0,0,0,0,0,-1,825,1177,0,0
-392,-153,0,0,0,0,0,0,0,0,0,-1,832,1177,0,0
-385,-153,0,0,0,0,0,0,0,0,0,-1,839,1177,0,0
-378,-153,0,0,0,0,0,0,0,0,0,-1,846,1177,0,0
-371,-153,0,0,0,0,0,0,0,0,0,-1,853,1177,0,0
-364,-153,0,0,0,0,0,0,0,0,0,-1,860,1177,0,0
-357,-153,0,0,0,0,0,0,0,0,0,-1,867,1177,0,0
-350,-153,0,0,0,0,0,0,0,0,0,-1,874,1177,0,0
-343,-153,0,0,0,0,0,0,0,0,0,-1,881,1177,0,0
-336,-153,0,0,0,0,0,0,0,0,0,-1,888,1177,0,0
-329,-153,0,0,0,0,0,0,0,0,0,-1,895,1177,0,0
-322,-153,0,0,0,0,0,0,0,0,0,-1,902,1177,0,0
-315,-153,0,0,0,0,0,0,0,0,0,-1,909,1177,0,0
-308,-153,0,0,0,0,0,0,0,0,0,-1,916,1177,0,0
-301,-153,0,0,0,0,0,0,0,0,0,-1,923,1177,0,0
-294,-153,0,0,0,0,0,0,0,0,0,-1,930,1177,0,0
-287,-153,0,0,0,0,0,0,0,0,0,-1,937,1177,0,0
-280,-153,0,0,0,0,0,0,0,0,0,-1,944,1177,0,0
-273,-153,0,0,0,0,0,0,0,0,0,-1,951,1177,0,0
-266,-153,0,0,0,0,0,0,0,0,0,-1,958,1177,0,0
-259,-153,0,0,0,0,0,0,0,0,0,-1,965,1177,0,0
-252,-153,0,0,0,0,0,0,0,0,0,-1,972,1177,0,0
-245,-153,0,0,0,0,0,0,0,0,0,-1,979,1177,0,0
-238,-153,0,0,0,0,0,0,0,0,0,-1,986,1177,0,0
-231,-153,0,0,0,0,0,0,0,0,0,-1,993,1177,0,0
-224,-153,0,0,0,0,0,0,0,0,0,-1,1000,1177,0,0
-217,-153,0,0,0,0,0,0,0,0,0,-1,1007,1177,0,0
-210,-153,0,0,0,0,0,0,0,0,0,-1,1014,1177,0,0
-203,-153,0,0,0,0,0,0,0,0,0,-1,1021,1177,0,0
-196,-153,0,0,0,0,0,0,0,0,0,-1,1028,1177,0,0
-189,-153,0,0,0,0,0,0,0,0,0,-1,1035,1177,0,0
-182,-153,0,0,0,0,0,0,0,0,0,-1,1042,1177,0,0
-175,-153,0,0,0,0,0,0,0,0,0,-1,1049,1177,0,0
-168,-153,0,0,0,0,0,0,0,0,0,-1,1056,1177,0,0
-161,-153,0,0,0,0,0,0,0,0,0,-1,1063,1177,0,0
-154,-153,0,0,0,0,0,0,0,0,0,-1,1070,1177,0,0
-147,-153,0,0,0,0,0,0,0,0,0,-1,1077,1177,0,0
-140,-153,0,0,0,0,0,0,0,0,0,-1,1084,1177,0,0
-133,-153,0,0,0,0,0,0,0,0,0,-1,1091,1177,0,0
-126,-153,0,0,0,0,0,0,0,0,0,-1,1098,1177,0,0
-119,-153,0,0,0,0,0,0,0,0,0,-1,1105,1177,0,0
-112,-153,0,0,0,0,0,0,0,0,0,-1,1112,1177,0,0
-105,-153,0,0,0,0,0,0,0,0,0,-1,1119,1177,0,0
-98,-153,0,0,0,0,0,0,0,0,0,-1,1126,1177,0,0
-91,-153,0,0,0,0,0,0,0,0,0,-1,1133,1177,0,0
-84,-153,0,0,0,0,0,0,0,0,0,-1,1140,1177,0,0
-77,-153,0,0,0,0,0,0,0,0,0,-1,1147,1177,0,0
-70,-153,0,0,0,0,0,0,0,0,0,-1,1154,1177,0,0
-63,-153,0,0,0,0,0,0,0,0,0,-1,1161,1177,0,0
-56,-153,0,0,0,0,0,0,0,0,0,-1,1168,1177,0,0
-49,-153,0,0,0,0,0,0,0,0,0,-1,1175,1177,0,0
-42,-153,0,0,0,0,0,0,0,0,0,-1,1182,1177,0,0
-35,-153,0,0,0,0,0,0,0,0,0,-1,1189,1177,0,0
-28,-153,0,0,0,0,0,0,0,0,0,-1,1196,1177,0,0
-21,-153,0,0,0,0,0,0,0,0,0,-1,1203,1177,0,0
-14,-153,0,0,0,0,0,0,0,0,0,-1,1210,1177,0,0
-7,-153,0,0,0,0,0,0,0,0,0,-1,1217,1177,0,0
0,-153,0,0,0,0,0,0,0,0,0,-1,1224,1177,0,0
7,-153,0,0,0,0,0,0,0,0,0,-1,1231,1177,0,0
14,-153,0,0,0,0,0,0,0,0,0,-1,1238,1177,0,0
21,-153,0,0,0,0,0,0,0,0,0,-1,1245,1177,0,0
28,-153,0,0,0,0,0,0,0,0,0,-1,1252,1177,0,0
35,-153,0,0,0,0,0,0,0,0,0,-1,1259,1177,0,0
42,-153,0,0,0,0,0,0,0,0,0,-1,1266,1177,0,0
49,-153,0,0,0,0,0,0,0,0,0,-1,1273,1177,0,0
56,-153,0,0,0,0,0,0,0,0,0,-1,1280,1177,0,0
63,-153,0,0,0,0,0,0,0,0,0,-1,1287,1177,0,0
70,-153,0,0,0,0,0,0,0,0,0,-1,1294,1177,0,0
77,-153,0,0,0,0,0,0,0,0,0,-1,1301,1177,0,0
84,-153,0,0,0,0,0,0,0,0,0,-1,1308,1177,0,0
91,-153,0,0,0,0,0,0,0,0,0,-1,1315,1177,0,0
98,-153,0,0,0,0,0,0,0,0,0,-1,1322,1177,0,0
105,-153,0,0,0,0,0,0,0,0,0,-1,1329,1177,0,0
112,-153,0,0,0,0,0,0,0,0,0,-1,1336,1177,0,0
119,-153,0,0,0,0,0,0,0,0,0,-1,1343,1177,0,0
126,-153,0,0,0,0,0,0,0,0,0,-1,1350,1177,0,0
133,-153,0,0,0,0,0,0,0,0,0,-1,1357,1177,0,0
140,-153,0,0,0,0,0,0,0,0,0,-1,1364,1177,0,0
147,-153,0,0,0,0,0,0,0,0,0,-1,1371,1177,0,0
154,-153,0,0,0,0,0,0,0,0,0,-1,1378,1177,0,0
161,-153,0,0,0,0,0,0,0,0,0,-1,1385,1177,0,0
168,-153,0,0,0,0,0,0,0,0,0,-1,1392,1177,0,0
175,-153,0,0,0,0,0,0,0,0,0,-1,1399,1177,0,0
182,-153,0,0,0,0,0,0,0,0,0,-1,1406,1177,0,0
189,-153,0,0,0,0,0,0,0,0,0,-1,1413,1177,0,0
196,-153,0,0,0,0,0,0,0,0,0,-1,1420,1177,0,0
203,-153,0,0,0,0,0,0,0,0,0,-1,1427,1177,0,0
210,-153,0,0,0,0,0,0,0,0,0,-1,1434,1177,0,0
217,-153,0,0,0,0,0,0,0,0,0,-1,1441,1177,0,0
224,-153,0,0,0,0,0,0,0,0,0,-1,1448,1177,0,0
231,-153,0,0,0,0,0,0,0,0,0,-1,1455,1177,0,0
238,-153,0,0,0,0,0,0,0,0,0,-1,1462,1177,0,0
245,-153,0,0,0,0,0,0,0,0,0,-1,1469,1177,0,0
252,-153,0,0,0,0,0,0,0,0,0,-1,1476,1177,0,0
259,-153,0,0,0,0,0,0,0,0,0,-1,1483,1177,0,0
266,-153,0,0,0,0,0,0,0,0,0,-1,1490,1177,0,0
273,-153,0,0,0,0,0,0,0,0,0,-1,1497,1177,0,0
280,-153,0,0,0,0,0,0,0,0,0,-1,1504,1177,0,0
287,-153,0,0,0,0,0,0,0,0,0,-1,1511,1177,0,0
294,-153,0,0,0,0,0,0,0,0,0,-1,1518,1177,0,0
301,-153,0,0,0,0,0,0,0,0,0,-1,1525,1177,0,0
308,-153,0,0,0,0,0,0,0,0,0,-1,1532,1177,0,0
315,-153,0,0,0,0,0,0,0,0,0,-1,1539,1177,0,0
322,-153,0,0,0,0,0,0,0,0,0,-1,1546,1177,0,0
329,-153,0,0,0,0,0,0,0,0,0,-1,1553,1177,0,0
336,-153,0,0,0,0,0,0,0,0,0,-1,1560,1177,0,0
343,-153,0,0,0,0,0,0,0,0,0,-1,1567,1177,0,0
350,-153,0,0,0,0,0,0,0,0,0,-1,1574,1177,0,0
357,-153,0,0,0,0,0,0,0,0,0,-1,1581,1177,0,0
364,-153,0,0,0,0,0,0,0,0,0,-1,1588,1177,0,0
371,-153,0,0,0,0,0,0,0,0,0,-1,1595,1177,0,0
378,-153,0,0,0,0,0,0,0,0,0,-1,1602,1177,0,0
385,-153,0,0,0,0,0,0,0,0,0,-1,1609,1177,0,0
392,-153,0,0,0,0,0,0,0,0,0,-1,1616,1177,0,0
399,-153,0,0,0,0,0,0,0,0,0,-1,1623,1177,0,0
406,-153,0,0,0,0,0,0,0,0,0,-1,1630,1177,0,0
413,-153,0,0,0,0,0,0,0,0,0,-1,1637,1177,0,0
420,-153,0,0,0,0,0,0,0,0,0,-1,1644,1177,0,0
427,-153,0,0,0,0,0,0,0,0,0,-1,1651,1177,0,0
434,-153,0,0,0,0,0,0,0,0,0,-1,1658,1177,0,0
441,-153,0,0,0,0,0,0,0,0,0,-1,1665,1177,0,0
448,-153,0,0,0,0,0,0,0,0,0,-1,1672,1177,0,0
455,-153,0,0,0,0,0,0,0,0,0,-1,1679,1177,0,0
462,-153,0,0,0,0,0,0,0,0,0,-1,1686,1177,0,0
469,-153,0,0,0,0,0,0,0,0,0,-1,1693,1177,0,0
476,-153,0,0,0,0,0,0,0,0,0,-1,1700,1177,0,0
483,-153,0,0,0,0,0,0,0,0,0,-1,1707,1177,0,0
490,-153,0,0,0,0,0,0,0,0,0,-1,1714,1177,0,0
497,-153,0,0,0,0,0,0,0,0,0,-1,1721,1177,0,0
504,-153,0,0,0,0,0,0,0,0,0,-1,1728,1177,0,0
511,-153,0,0,0,0,0,0,0,0,0,-1,1735,1177,0,0
518,-153,0,0,0,0,0,0,0,0,0,-1,1742,1177,0,0
525,-153,0,0,0,0,0,0,0,0,0,-1,1749,1177,0,0
532,-153,0,0,0,0,0,0,0,0,0,-1,1756,1177,0,0
539,-153,0,0,0,0,0,0,0,0,0,-1,1763,1177,0,0
546,-153,0,0,0,0,0,0,0,0,0,-1,1770,1177,0,0
553,-153,0,0,0,0,0,0,0,0,0,-1,1777,1177,0,0
560,-153,0,0,0,0,0,0,0,0,0,-1,1784,1177,0,0
567,-153,0,0,0,0,0,0,0,0,0,-1,1791,1177,0,0
574,-153,0,0,0,0,0,0,0,0,0,-1,1798,1177,0,0
581,-153,0,0,0,0,0,0,0,0,0,-1,1805,1177,0,0
588,-153,0,0,0,0,0,0,0,0,0,-1,1812,1177,0,0
595,-153,0,0,0,0,0,0,0,0,0,-1,1819,1177,0,0
602,-153,0,0,0,0,0,0,0,0,0,-1,1826,1177,0,0
609,-153,0,0,0,0,0,0,0,0,0,-1,1833,1177,0,0
616,-153,0,0,0,0,0,0,0,0,0,-1,1840,1177,0,0
623,-153,0,0,0,0,0,0,0,0,0,-1,1847,1177,0,0
630,-153,0,0,0,0,0,0,0,0,0,-1,1854,1177,0,0
637,-153,60.6483,2.76001,-1.36383e-05,0.000860316,-0.00338974,0.00384113,-0.00299445,-0.8495,0.0039566,0.0424433,1861,1177,60.6483,-2.76006
644,-153,60.6865,2.70007,0.000312963,0.000487642,-0.00223993,0.00264194,-0.00184133,-0.804884,0.00260214,0.0374797,1868,1177,60.6865,-2.70008
651,-153,60.6647,2.53503,0.000656841,0.000384213,-0.00141919,0.00194625,-0.000905198,-0.73752,0.00168246,0.0301341,1875,1177,60.6647,-2.53502
658,-153,60.6866,2.48096,0.00109766,0.000273461,-0.000800853,0.00158622,-0.000215101,-0.547778,0.00113599,0.035366,1882,1177,60.6866,-2.481
665,-153,60.8662,2.62476,0.00157848,0.000148098,-0.000360276,0.0016641,6.2479e-05,-0.233321,0.00108917,0.0393903,1889,1177,60.8662,-2.62482
672,-153,60.7727,2.73145,0.00162592,7.6102e-05,-8.25031e-05,0.0016303,7.17224e-05,-0.0530343,0.00106376,0.0385349,1896,1177,60.7728,-2.73139
679,-153,60.6367,2.71973,0.00138461,-0.000282363,0.000129327,0.00139458,-0.000292337,0.0769682,0.00104094,0.0298957,1903,1177,60.6367,-2.71969
686,-153,60.6449,2.65857,0.00107594,-0.000562948,0.000173226,0.00109405,-0.000581057,0.104164,0.000982124,0.0191599,1910,1177,60.6449,-2.65856
693,-153,60.7355,2.59875,0.000723642,-0.000701706,0.000159364,0.000741243,-0.000719307,0.109997,0.00084328,0.0414423,1917,1177,60.7355,-2.59876
700,-153,60.8323,2.51611,0,0,0,0,0,0,0,-1,1924,1177,60.8322,-2.51613
707,-153,29.6483,6.6842,0,0,0,0,0,0,0,-1,1931,1177,29.6483,-6.68415
714,-153,36.0046,6.78418,0,0,0,0,0,0,0,-1,1938,1177,36.0046,-6.78418
721,-153,36.4866,6.47595,0,0,0,0,0,0,0,-1,1945,1177,36.4866,-6.47593
728,-153,47.7305,7.37024,0,0,0,0,0,0,0,-1,1952,1177,47.7304,-7.37022
735,-153,52.3634,7.48535,0,0,0,0,0,0,0,-1,1959,1177,52.3634,-7.48533
742,-153,52.4686,7.25476,0.000179702,-0.00031216,0.00108059,0.00104199,-0.00117445,0.673509,0.00128042,0.0162787,1966,1177,52.4686,-7.25472
749,-153,52.4508,6.75366,0.000659109,0.000291948,0.00132427,0.00181246,-0.000861406,0.716523,0.00157597,0.0164282,1973,1177,52.4508,-6.75363
756,-153,52.421,6.21399,0.000962875,0.00268179,0.00214903,0.00413685,-0.000492187,0.97562,0.00293575,0.0115722,1980,1177,52.421,-6.21396
763,-153,52.3834,5.70923,0.00105397,0.00570647,0.0033833,0.00748609,-0.000725649,1.08657,0.00524935,0.0118857,1987,1177,52.3834,-5.70921
770,-153,52.3698,5.2312,0.000244032,0.00973919,0.00526624,0.0120819,-0.00209872,1.15222,0.00883766,0.0128893,1994,1177,52.3698,-5.23121
777,-153,52.377,4.7876,-0.00182858,0.0150726,0.0078983,0.018189,-0.004945,1.19498,0.0140671,0.0252206,2001,1177,52.377,-4.78755
784,-153,52.4402,4.44849,-0.00546949,0.0221076,0.0114915,0.0262684,-0.00963025,1.22341,0.0214553,0.0419228,2008,1177,52.4403,-4.44848
791,-153,52.5569,4.05334,-0.0112665,0.0317477,0.0163972,0.0372854,-0.0168043,1.2451,0.0319662,0.0445376,2015,1177,52.5569,-4.05339
798,-153,52.6423,3.69446,-0.020308,0.0451398,0.0230179,0.0524243,-0.0275926,1.2643,0.0469334,0.0451693,2022,1177,52.6422,-3.6944
805,-153,52.7019,3.35266,-0.03387,0.0637071,0.032107,0.0733239,-0.0434868,1.27978,0.0681701,0.047506,2029,1177,52.7018,-3.3527
812,-153,0,0,0,0,0,0,0,0,0,-1,2036,1177,0,0
-700,-160,0,0,0,0,0,0,0,0,0,-1,524,1184,0,0
-693,-160,0,0,0,0,0,0,0,0,0,-1,531,1184,0,0
-686,-160,-36.3273,-2.66882,0,0,0,0,0,0,0,-1,538,1184,-36.3273,2.66881
-679,-160,-36.7976,-1.39331,0,0,0,0,0,0,0,-1,545,1184,-36.7976,1.39326
-672,-160,-34.7708,-1.72791,0,0,0,0,0,0,0,-1,552,1184,-34.7708,1.72787
-665,-160,-34.3464,-0.583496,0,0,0,0,0,0,0,-1,559,1184,-34.3464,0.58351
-658,-160,-36.1546,-1.63403,0,0,0,0,0,0,0,-1,566,1184,-36.1546,1.63409
-651,-160,-36.901,1.29785,0,0,0,0,0,0,0,-1,573,1184,-36.901,-1.29781
-644,-160,-36.7664,2.02869,0.00741415,0.00644838,0.00491035,0.0118653,0.00199723,0.736386,0.00733565,0.0405147,580,1184,-36.7664,-2.02874
-637,-160,-36.7247,2.76196,0.00352008,0.00642502,0.00235318,0.0077379,0.00220721,1.0619,0.00460279,0.0155129,587,1184,-36.7247,-2.76196
-630,-160,-36.8043,3.27942,0.000871154,0.0045511,0.000293498,0.00457436,0.000847893,1.49171,0.00280992,0.00869562,594,1184,-36.8042,-3.27943
-623,-160,-36.8735,3.82202,-0.00139517,0.00249265,-0.0013523,0.00291675,-0.00181928,-1.26689,0.00275871,0.0137372,601,1184,-36.8735,-3.82206
-616,-160,-36.9064,4.38708,-0.00320208,0.000205398,-0.00265771,0.00165858,-0.00465526,-1.07043,0.00377968,0.0124862,608,1184,-36.9064,-4.3871
-609,-160,-36.9336,4.96741,-0.00436722,-0.00151547,-0.00282055,0.00021913,-0.00610182,-1.01943,0.00414286,0.0192864,615,1184,-36.9336,-4.96745
-602,-160,-36.9708,5.56396,0,0,0,0,0,0,0,-1,622,1184,-36.9708,-5.56399
-595,-160,-33.0669,5.93445,0,0,0,0,0,0,0,-1,629,1184,-33.0669,-5.93446
-588,-160,-33.4845,5.66699,0,0,0,0,0,0,0,-1,636,1184,-33.4845,-5.66697
-581,-160,-33.1338,6.41174,0,0,0,0,0,0,0,-1,643,1184,-33.1338,-6.41176
-574,-160,-32.7831,7.15649,0,0,0,0,0,0,0,-1,650,1184,-32.7831,-7.15655
-567,-160,-29.5828,0.643921,0,0,0,0,0,0,0,-1,657,1184,-29.5828,-0.643968
-560,-160,-45.55,0.471558,0,0,0,0,0,0,0,-1,664,1184,-45.55,-0.471509
-553,-160,-45.5535,0.609741,-0.000378717,-0.00328566,-0.00272901,0.00125975,-0.00492412,-0.540705,0.00377342,0.0395561,671,1184,-45.5535,-0.609743
-546,-160,-45.6057,0.675415,0.00117575,-0.00333078,-0.00277233,0.00249502,-0.00465005,-0.444159,0.00418729,0.0365281,678,1184,-45.6056,-0.675423
-539,-160,-45.5759,0.520264,0.00415833,-0.00377384,-0.00475382,0.00638326,-0.00599876,-0.437745,0.00714991,0.0413901,685,1184,-45.5758,-0.520267
-532,-160,-45.5357,0.253418,0.00855272,-0.00503378,-0.00934773,0.0133149,-0.00979597,-0.471179,0.0133945,0.0472383,692,1184,-45.5357,-0.253418
-525,-160,-45.4352,0.416382,0.0132907,-0.00611438,-0.0142435,0.0208223,-0.013646,-0.486404,0.0200436,0.0449885,699,1184,-45.4352,-0.416398
-518,-160,-45.4203,0.697021,0,0,0,0,0,0,0,-1,706,1184,-45.4203,-0.697071
-511,-160,0,0,0,0,0,0,0,0,0,-1,713,1184,0,0
-504,-160,0,0,0,0,0,0,0,0,0,-1,720,1184,0,0
-497,-160,0,0,0,0,0,0,0,0,0,-1,727,1184,0,0
-490,-160,0,0,0,0,0,0,0,0,0,-1,734,1184,0,0
-483,-160,0,0,0,0,0,0,0,0,0,-1,741,1184,0,0
-476,-160,0,0,0,0,0,0,0,0,0,-1,748,1184,0,0
-469,-160,0,0,0,0,0,0,0,0,0,-1,755,1184,0,0
-462,-160,0,0,0,0,0,0,0,0,0,-1,762,1184,0,0
-455,-160,0,0,0,0,0,0,0,0,0,-1,769,1184,0,0
-448,-160,0,0,0,0,0,0,0,0,0,-1,776,1184,0,0
-441,-160,0,0,0,0,0,0,0,0,0,-1,783,1184,0,0
-434,-160,0,0,0,0,0,0,0,0,0,-1,790,1184,0,0
-427,-160,0,0,0,0,0,0,0,0,0,-1,797,1184,0,0
-420,-160,0,0,0,0,0,0,0,0,0,-1,804,1184,0,0
-413,-160,0,0,0,0,0,0,0,0,0,-1,811,1184,0,0
-406,-160,0,0,0,0,0,0,0,0,0,-1,818,1184,0,0
-399,-160,0,0,0,0,0,0,0,0,0,-1,825,1184,0,0
-392,-160,0,0,0,0,0,0,0,0,0,-1,832,1184,0,0
-385,-160,0,0,0,0,0,0,0,0,0,-1,839,1184,0,0
-378,-160,0,0,0,0,0,0,0,0,0,-1,846,1184,0,0
-371,-160,0,0,0,0,0,0,0,0,0,-1,853,1184,0,0
-364,-160,0,0,0,0,0,0,0,0,0,-1,860,1184,0,0
-357,-160,0,0,0,0,0,0,0,0,0,-1,867,1184,0,0
-350,-160,0,0,0,0,0,0,0,0,0,-1,874,1184,0,0
-343,-160,0,0,0,0,0,0,0,0,0,-1,881,1184,0,0
-336,-160,0,0,0,0,0,0,0,0,0,-1,888,1184,0,0
-329,-160,0,0,0,0,0,0,0,0,0,-1,895,1184,0,0
-322,-160,0,0,0,0,0,0,0,0,0,-1,902,1184,0,0
-315,-160,0,0,0,0,0,0,0,0,0,-1,909,1184,0,0
-308,-160,0,0,0,0,0,0,0,0,0,-1,916,1184,0,0
-301,-160,0,0,0,0,0,0,0,0,0,-1,923,1184,0,0
-294,-160,0,0,0,0,0,0,0,0,0,-1,930,1184,0,0
-287,-160,0,0,0,0,0,0,0,0,0,-1,937,1184,0,0
-280,-160,0,0,0,0,0,0,0,0,0,-1,944,1184,0,0
-273,-160,0,0,0,0,0,0,0,0,0,-1,951,1184,0,0
-266,-160,0,0,0,0,0,0,0,0,0,-1,958,1184,0,0
-259,-160,0,0,0,0,0,0,0,0,0,-1,965,1184,0,0
-252,-160,0,0,0,0,0,0,0,0,0,-1,972,1184,0,0
-245,-160,0,0,0,0,0,0,0,0,0,-1,979,1184,0,0
-238,-160,0,0,0,0,0,0,0,0,0,-1,986,1184,0,0
-231,-160,0,0,0,0,0,0,0,0,0,-1,993,1184,0,0
-224,-160,0,0,0,0,0,0,0,0,0,-1,1000,1184,0,0
-217,-160,0,0,0,0,0,0,0,0,0,-1,1007,1184,0,0
-210,-160,0,0,0,0,0,0,0,0,0,-1,1014,1184,0,0
-203,-160,0,0,0,0,0,0,0,0,0,-1,1021,1184,0,0
-196,-160,0,0,0,0,0,0,0,0,0,-1,1028,1184,0,0
-189,-160,0,0,0,0,0,0,0,0,0,-1,1035,1184,0,0
-182,-160,0,0,0,0,0,0,0,0,0,-1,1042,1184,0,0
-175,-160,0,0,0,0,0,0,0,0,0,-1,1049,1184,0,0
-168,-160,0,0,0,0,0,0,0,0,0,-1,1056,1184,0,0
-161,-160,0,0,0,0,0,0,0,0,0,-1,1063,1184,0,0
-154,-160,0,0,0,0,0,0,0,0,0,-1,1070,1184,0,0
-147,-160,0,0,0,0,0,0,0,0,0,-1,1077,1184,0,0
-140,-160,0,0,0,0,0,0,0,0,0,-1,1084,1184,0,0
-133,-160,0,0,0,0,0,0,0,0,0,-1,1091,1184,0,0
-126,-160,0,0,0,0,0,0,0,0,0,-1,1098,1184,0,0
-119,-160,0,0,0,0,0,0,0,0,0,-1,1105,1184,0,0
-112,-160,0,0,0,0,0,0,0,0,0,-1,1112,1184,0,0
-105,-160,0,0,0,0,0,0,0,0,0,-1,1119,1184,0,0
-98,-160,0,0,0,0,0,0,0,0,0,-1,1126,1184,0,0
-91,-160,0,0,0,0,0,0,0,0,0,-1,1133,1184,0,0
-84,-160,0,0,0,0,0,0,0,0,0,-1,1140,1184,0,0
-77,-160,0,0,0,0,0,0,0,0,0,-1,1147,1184,0,0
-70,-160,0,0,0,0,0,0,0,0,0,-1,1154,1184,0,0
-63,-160,0,0,0,0,0,0,0,0,0,-1,1161,1184,0,0
-56,-160,0,0,0,0,0,0,0,0,0,-1,1168,1184,0,0
-49,-160,0,0,0,0,0,0,0,0,0,-1,1175,1184,0,0
-42,-160,0,0,0,0,0,0,0,0,0,-1,1182,1184,0,0
-35,-160,0,0,0,0,0,0,0,0,0,-1,1189,1184,0,0
-28,-160,0,0,0,0,0,0,0,0,0,-1,1196,1184,0,0
-21,-160,0,0,0,0,0,0,0,0,0,-1,1203,1184,0,0
-14,-160,0,0,0,0,0,0,0,0,0,-1,1210,1184,0,0
-7,-160,0,0,0,0,0,0,0,0,0,-1,1217,1184,0,0
0,-160,0,0,0,0,0,0,0,0,0,-1,1224,1184,0,0
7,-160,0,0,0,0,0,0,0,0,0,-1,1231,1184,0,0
14,-160,0,0,0,0,0,0,0,0,0,-1,1238,1184,0,0
21,-160,0,0,0,0,0,0,0,0,0,-1,1245,1184,0,0
28,-160,0,0,0,0,0,0,0,0,0,-1,1252,1184,0,0
35,-160,0,0,0,0,0,0,0,0,0,-1,1259,1184,0,0
42,-160,0,0,0,0,0,0,0,0,0,-1,1266,1184,0,0
49,-160,0,0,0,0,0,0,0,0,0,-1,1273,1184,0,0
56,-160,0,0,0,0,0,0,0,0,0,-1,1280,1184,0,0
63,-160,0,0,0,0,0,0,0,0,0,-1,1287,1184,0,0
70,-160,0,0,0,0,0,0,0,0,0,-1,1294,1184,0,0
77,-160,0,0,0,0,0,0,0,0,0,-1,1301,1184,0,0
84,-160,0,0,0,0,0,0,0,0,0,-1,1308,1184,0,0
91,-160,0,0,0,0,0,0,0,0,0,-1,1315,1184,0,0
98,-160,0,0,0,0,0,0,0,0,0,-1,1322,1184,0,0
105,-160,0,0,0,0,0,0,0,0,0,-1,1329,1184,0,0
112,-160,0,0,0,0,0,0,0,0,0,-1,1336,1184,0,0
119,-160,0,0,0,0,0,0,0,0,0,-1,1343,1184,0,0
126,-160,0,0,0,0,0,0,0,0,0,-1,1350,1184,0,0
133,-160,0,0,0,0,0,0,0,0,0,-1,1357,1184,0,0
140,-160,0,0,0,0,0,0,0,0,0,-1,1364,1184,0,0
147,-160,0,0,0,0,0,0,0,0,0,-1,1371,1184,0,0
154,-160,0,0,0,0,0,0,0,0,0,-1,1378,1184,0,0
161,-160,0,0,0,0,0,0,0,0,0,-1,1385,1184,0,0
168,-160,0,0,0,0,0,0,0,0,0,-1,1392,1184,0,0
175,-160,0,0,0,0,0,0,0,0,0,-1,1399,1184,0,0
182,-160,0,0,0,0,0,0,0,0,0,-1,1406,1184,0,0
189,-160,0,0,0,0,0,0,0,0,0,-1,1413,1184,0,0
196,-160,0,0,0,0,0,0,0,0,0,-1,1420,1184,0,0
203,-160,0,0,0,0,0,0,0,0,0,-1,1427,1184,0,0
210,-160,0,0,0,0,0,0,0,0,0,-1,1434,1184,0,0
217,-160,0,0,0,0,0,0,0,0,0,-1,1441,1184,0,0
224,-160,0,0,0,0,0,0,0,0,0,-1,1448,1184,0,0
231,-160,0,0,0,0,0,0,0,0,0,-1,1455,1184,0,0
238,-160,0,0,0,0,0,0,0,0,0,-1,1462,1184,0,0
245,-160,0,0,0,0,0,0,0,0,0,-1,1469,1184,0,0
252,-160,0,0,0,0,0,0,0,0,0,-1,1476,1184,0,0
259,-160,0,0,0,0,0,0,0,0,0,-1,1483,1184,0,0
266,-160,0,0,0,0,0,0,0,0,0,-1,1490,1184,0,0
273,-160,0,0,0,0,0,0,0,0,0,-1,1497,1184,0,0
280,-160,0,0,0,0,0,0,0,0,0,-1,1504,1184,0,0
287,-160,0,0,0,0,0,0,0,0,0,-1,1511,1184,0,0
294,-160,0,0,0,0,0,0,0,0,0,-1,1518,1184,0,0
301,-160,0,0,0,0,0,0,0,0,0,-1,1525,1184,0,0
308,-160,0,0,0,0,0,0,0,0,0,-1,1532,1184,0,0
315,-160,0,0,0,0,0,0,0,0,0,-1,1539,1184,0,0
322,-160,0,0,0,0,0,0,0,0,0,-1,1546,1184,0,0
329,-160,0,0,0,0,0,0,0,0,0,-1,1553,1184,0,0
336,-160,0,0,0,0,0,0,0,0,0,-1,1560,1184,0,0
343,-160,0,0,0,0,0,0,0,0,0,-1,1567,1184,0,0
350,-160,0,0,0,0,0,0,0,0,0,-1,1574,1184,0,0
357,-160,0,0,0,0,0,0,0,0,0,-1,1581,1184,0,0
364,-160,0,0,0,0,0,0,0,0,0,-1,1588,1184,0,0
371,-160,0,0,0,0,0,0,0,0,0,-1,1595,1184,0,0
378,-160,0,0,0,0,0,0,0,0,0,-1,1602,1184,0,0
385,-160,0,0,0,0,0,0,0,0,0,-1,1609,1184,0,0
392,-160,0,0,0,0,0,0,0,0,0,-1,1616,1184,0,0
399,-160,0,0,0,0,0,0,0,0,0,-1,1623,1184,0,0
406,-160,0,0,0,0,0,0,0,0,0,-1,1630,1184,0,0
413,-160,0,0,0,0,0,0,0,0,0,-1,1637,1184,0,0
420,-160,0,0,0,0,0,0,0,0,0,-1,1644,1184,0,0
427,-160,0,0,0,0,0,0,0,0,0,-1,1651,1184,0,0
434,-160,0,0,0,0,0,0,0,0,0,-1,1658,1184,0,0
441,-160,0,0,0,0,0,0,0,0,0,-1,1665,1184,0,0
448,-160,0,0,0,0,0,0,0,0,0,-1,1672,1184,0,0
455,-160,0,0,0,0,0,0,0,0,0,-1,1679,1184,0,0
462,-160,0,0,0,0,0,0,0,0,0,-1,1686,1184,0,0
469,-160,0,0,0,0,0,0,0,0,0,-1,1693,1184,0,0
476,-160,0,0,0,0,0,0,0,0,0,-1,1700,1184,0,0
483,-160,0,0,0,0,0,0,0,0,0,-1,1707,1184,0,0
490,-160,0,0,0,0,0,0,0,0,0,-1,1714,1184,0,0
497,-160,0,0,0,0,0,0,0,0,0,-1,1721,1184,0,0
504,-160,0,0,0,0,0,0,0,0,0,-1,1728,1184,0,0
511,-160,0,0,0,0,0,0,0,0,0,-1,1735,1184,0,0
518,-160,0,0,0,0,0,0,0,0,0,-1,1742,1184,0,0
525,-160,0,0,0,0,0,0,0,0,0,-1,1749,1184,0,0
532,-160,0,0,0,0,0,0,0,0,0,-1,1756,1184,0,0
539,-160,0,0,0,0,0,0,0,0,0,-1,1763,1184,0,0
546,-160,0,0,0,0,0,0,0,0,0,-1,1770,1184,0,0
553,-160,0,0,0,0,0,0,0,0,0,-1,1777,1184,0,0
560,-160,0,0,0,0,0,0,0,0,0,-1,1784,1184,0,0
567,-160,0,0,0,0,0,0,0,0,0,-1,1791,1184,0,0
574,-160,0,0,0,0,0,0,0,0,0,-1,1798,1184,0,0
581,-160,0,0,0,0,0,0,0,0,0,-1,1805,1184,0,0
588,-160,0,0,0,0,0,0,0,0,0,-1,1812,1184,0,0
595,-160,0,0,0,0,0,0,0,0,0,-1,1819,1184,0,0
602,-160,0,0,0,0,0,0,0,0,0,-1,1826,1184,0,0
609,-160,0,0,0,0,0,0,0,0,0,-1,1833,1184,0,0
616,-160,0,0,0,0,0,0,0,0,0,-1,1840,1184,0,0
623,-160,0,0,0,0,0,0,0,0,0,-1,1847,1184,0,0
630,-160,0,0,0,0,0,0,0,0,0,-1,1854,1184,0,0
637,-160,60.7623,2.87805,-0.000784155,0.00146043,-0.00243701,0.00302115,-0.00234487,-1.00118,0.00310626,0.0443639,1861,1184,60.7623,-2.87803
644,-160,60.8755,2.69934,-0.000244243,0.00101018,-0.00164582,0.00214425,-0.00137831,-0.96745,0.00204971,0.0420406,1868,1184,60.8755,-2.6993
651,-160,60.6838,2.41858,0.000349457,0.000799741,-0.00105697,0.00165528,-0.000506086,-0.890333,0.00130534,0.0378781,1875,1184,60.6838,-2.41856
658,-160,60.5115,2.36975,0.00105203,0.000582131,-0.00063221,0.00149154,0.000142626,-0.607489,0.000950392,0.0379078,1882,1184,60.5114,-2.36981
665,-160,60.7563,2.4762,0.00178307,0.00032003,-0.000342325,0.00185921,0.000243894,-0.218846,0.0011667,0.038678,1889,1184,60.7564,-2.47624
672,-160,60.7115,2.61816,0.00208524,0.000125522,-0.000166173,0.00209923,0.000111531,-0.0839948,0.00136383,0.0338564,1896,1184,60.7115,-2.6182
679,-160,60.6196,2.67798,0.00205792,-0.000285607,-3.44217e-05,0.00205843,-0.000286113,-0.0146838,0.00147692,0.0269068,1903,1184,60.6196,-2.67799
686,-160,60.6699,2.63965,0.00173809,-0.000558201,-2.9363e-05,0.00173847,-0.000558577,-0.0127844,0.00138329,0.018358,1910,1184,60.6699,-2.63963
693,-160,60.7598,2.59961,0,0,0,0,0,0,0,-1,1917,1184,60.7598,-2.59959
700,-160,42.8784,2.44617,0,0,0,0,0,0,0,-1,1924,1184,42.8785,-2.4462
707,-160,24.5115,6.27405,0,0,0,0,0,0,0,-1,1931,1184,24.5115,-6.27401
714,-160,35.6892,6.8905,0,0,0,0,0,0,0,-1,1938,1184,35.6892,-6.89048
721,-160,36.2388,6.37878,0,0,0,0,0,0,0,-1,1945,1184,36.2388,-6.37876
728,-160,51.7601,8.45093,0,0,0,0,0,0,0,-1,1952,1184,51.7601,-8.45093
735,-160,52.0414,7.73901,0.000505003,-0.000431024,0.000586542,0.000787369,-0.000713389,0.448663,0.000866814,0.0483998,1959,1184,52.0414,-7.73899
742,-160,51.928,7.22412,0.000720178,-0.000263493,0.000874294,0.00123148,-0.000774798,0.529184,0.00116829,0.017881,1966,1184,51.928,-7.22409
749,-160,51.9108,6.71033,0.00148841,0.000290109,0.00103264,0.00208313,-0.000304615,0.522528,0.00150064,0.0184906,1973,1184,51.9108,-6.71033
756,-160,51.8943,6.21924,0.00222678,0.00254444,0.00157884,0.00397241,0.000798801,0.83553,0.00242624,0.0117529,1980,1184,51.8943,-6.21921
763,-160,51.8265,5.7439,0.002938,0.00524684,0.00231148,0.00667614,0.0015087,1.01699,0.00404281,0.0129897,1987,1184,51.8266,-5.74394
770,-160,51.7272,5.20288,0.00298779,0.00891068,0.00348025,0.010519,0.00137952,1.13791,0.00660102,0.0264541,1994,1184,51.7271,-5.20287
777,-160,51.8701,4.73901,0.00199193,0.0138728,0.00513509,0.0157846,8.01058e-05,1.21439,0.0104965,0.0373762,2001,1184,51.87,-4.73898
784,-160,52.3608,4.44653,-0.000190276,0.0204919,0.00735666,0.0228417,-0.00254007,1.26163,0.0161413,0.0411078,2008,1184,52.3609,-4.44648
791,-160,52.6238,4.01953,-0.00399206,0.0297834,0.010282,0.0326672,-0.00687593,1.29735,0.0243953,0.0461371,2015,1184,52.6237,-4.0195
798,-160,52.9197,3.59741,-0.0102401,0.0428375,0.0140064,0.0463068,-0.0137094,1.32799,0.0363141,0.0479732,2022,1184,52.9196,-3.59743
805,-160,53.1543,3.17419,0,0,0,0,0,0,0,-1,2029,1184,53.1544,-3.17421
812,-160,0,0,0,0,0,0,0,0,0,-1,2036,1184,0,0
-700,-167,0,0,0,0,0,0,0,0,0,-1,524,1191,0,0
-693,-167,0,0,0,0,0,0,0,0,0,-1,531,1191,0,0
-686,-167,-37.1346,-1.51758,0,0,0,0,0,0,0,-1,538,1191,-37.1346,1.51756
-679,-167,-37.0384,-1.42102,0,0,0,0,0,0,0,-1,545,1191,-37.0384,1.42105
-672,-167,-37.0532,-0.785889,0,0,0,0,0,0,0,-1,552,1191,-37.0532,0.785909
-665,-167,-36.8231,-0.00793457,0,0,0,0,0,0,0,-1,559,1191,-36.8231,0.00793821
-658,-167,-36.5266,0.359375,0,0,0,0,0,0,0,-1,566,1191,-36.5265,-0.359385
-651,-167,-36.4169,1.354,0,0,0,0,0,0,0,-1,573,1191,-36.4169,-1.35402
-644,-167,-36.2419,2.08044,0.00646426,0.0110777,0.0050365,0.0143106,0.00323137,1.00014,0.00866647,0.0442649,580,1191,-36.242,-2.0804
-637,-167,-36.1207,2.79163,0.00314761,0.00863889,0.00303295,0.00998438,0.00180212,1.15326,0.00614428,0.0188628,587,1191,-36.1207,-2.79162
-630,-167,-36.2251,3.26624,0.000890725,0.00542629,0.0011227,0.00568898,0.000628035,1.34095,0.00360161,0.00941123,594,1191,-36.2251,-3.26623
-623,-167,-36.2597,3.80798,-0.00112615,0.00279325,-0.000590182,0.00288019,-0.00121309,-1.42454,0.00242771,0.0135197,601,1191,-36.2597,-3.808
-616,-167,-36.2844,4.39526,-0.00289286,0.000351192,-0.00202142,0.00132091,-0.00386257,-1.1235,0.0031103,0.017597,608,1191,-36.2843,-4.39521
-609,-167,-36.3184,5.00708,-0.00419313,-0.00131246,-0.00246876,0.000105409,-0.005611,-1.04947,0.0037763,0.0159298,615,1191,-36.3184,-5.00706
-602,-167,-36.3817,5.55286,-0.00408971,-0.00154273,-0.00186328,-0.000559323,-0.00507312,-1.08517,0.00321191,0.0223736,622,1191,-36.3817,-5.55281
-595,-167,-36.2785,6.02759,0,0,0,0,0,0,0,-1,629,1191,-36.2785,-6.02754
-588,-167,-36.4938,6.64746,0,0,0,0,0,0,0,-1,636,1191,-36.4938,-6.64747
-581,-167,-32.8646,6.30542,0,0,0,0,0,0,0,-1,643,1191,-32.8646,-6.30537
-574,-167,-32.4808,7.37524,0,0,0,0,0,0,0,-1,650,1191,-32.4808,-7.37525
-567,-167,-27.3643,2.55859,0,0,0,0,0,0,0,-1,657,1191,-27.3643,-2.55864
-560,-167,-45.6657,1.0304,0,0,0,0,0,0,0,-1,664,1191,-45.6657,-1.03036
-553,-167,-45.6995,0.890259,0.000237111,-0.00255812,-0.00227472,0.00150926,-0.00383027,-0.509923,0.00317838,0.0453643,671,1191,-45.6995,-0.890272
-546,-167,-45.6662,0.877808,0.00171559,-0.00261496,-0.00224166,0.00266696,-0.00356633,-0.401365,0.00361126,0.0344584,678,1191,-45.6662,-0.877788
-539,-167,-45.7287,1.0155,0.00427531,-0.00294674,-0.00361111,0.00577111,-0.00444254,-0.392705,0.00591346,0.041162,685,1191,-45.7287,-1.01551
-532,-167,-45.7979,1.10693,0.00786393,-0.00405337,-0.00709966,0.0111741,-0.00736352,-0.436277,0.0107778,0.0488793,692,1191,-45.7979,-1.10688
-525,-167,-45.1169,0.536987,0.0122992,-0.00522523,-0.0113713,0.0178926,-0.0108186,-0.457134,0.0167433,0.0478065,699,1191,-45.117,-0.536957
-518,-167,-44.6853,0.828369,0,0,0,0,0,0,0,-1,706,1191,-44.6853,-0.828425
-511,-167,0,0,0,0,0,0,0,0,0,-1,713,1191,0,0
-504,-167,0,0,0,0,0,0,0,0,0,-1,720,1191,0,0
-497,-167,0,0,0,0,0,0,0,0,0,-1,727,1191,0,0
-490,-167,0,0,0,0,0,0,0,0,0,-1,734,1191,0,0
-483,-167,0,0,0,0,0,0,0,0,0,-1,741,1191,0,0
-476,-167,0,0,0,0,0,0,0,0,0,-1,748,1191,0,0
-469,-167,0,0,0,0,0,0,0,0,0,-1,755,1191,0,0
-462,-167,0,0,0,0,0,0,0,0,0,-1,762,1191,0,0
-455,-167,0,0,0,0,0,0,0,0,0,-1,769,1191,0,0
-448,-167,0,0,0,0,0,0,0,0,0,-1,776,1191,0,0
-441,-167,0,0,0,0,0,0,0,0,0,-1,783,1191,0,0
-434,-167,0,0,0,0,0,0,0,0,0,-1,790,1191,0,0
-427,-167,0,0,0,0,0,0,0,0,0,-1,797,1191,0,0
-420,-167,0,0,0,0,0,0,0,0,0,-1,804,1191,0,0
-413,-167,0,0,0,0,0,0,0,0,0,-1,811,1191,0,0
-406,-167,0,0,0,0,0,0,0,0,0,-1,818,1191,0,0
-399,-167,0,0,0,0,0,0,0,0,0,-1,825,1191,0,0
-392,-167,0,0,0,0,0,0,0,0,0,-1,832,1191,0,0
-385,-167,0,0,0,0,0,0,0,0,0,-1,839,1191,0,0
-378,-167,0,0,0,0,0,0,0,0,0,-1,846,1191,0,0
-371,-167,0,0,0,0,0,0,0,0,0,-1,853,1191,0,0
-364,-167,0,0,0,0,0,0,0,0,0,-1,860,1191,0,0
-357,-167,0,0,0,0,0,0,0,0,0,-1,867,1191,0,0
-350,-167,0,0,0,0,0,0,0,0,0,-1,874,1191,0,0
-343,-167,0,0,0,0,0,0,0,0,0,-1,881,1191,0,0
-336,-167,0,0,0,0,0,0,0,0,0,-1,888,1191,0,0
-329,-167,0,0,0,0,0,0,0,0,0,-1,895,1191,0,0
-322,-167,0,0,0,0,0,0,0,0,0,-1,902,1191,0,0
-315,-167,0,0,0,0,0,0,0,0,0,-1,909,1191,0,0
-308,-167,0,0,0,0,0,0,0,0,0,-1,916,1191,0,0
-301,-167,0,0,0,0,0,0,0,0,0,-1,923,1191,0,0
-294,-167,0,0,0,0,0,0,0,0,0,-1,930,1191,0,0
-287,-167,0,0,0,0,0,0,0,0,0,-1,937,1191,0,0
-280,-167,0,0,0,0,0,0,0,0,0,-1,944,1191,0,0
-273,-167,0,0,0,0,0,0,0,0,0,-1,951,1191,0,0
-266,-167,0,0,0,0,0,0,0,0,0,-1,958,1191,0,0
-259,-167,0,0,0,0,0,0,0,0,0,-1,965,1191,0,0
-252,-167,0,0,0,0,0,0,0,0,0,-1,972,1191,0,0
-245,-167,0,0,0,0,0,0,0,0,0,-1,979,1191,0,0
-238,-167,0,0,0,0,0,0,0,0,0,-1,986,1191,0,0
-231,-167,0,0,0,0,0,0,0,0,0,-1,993,1191,0,0
-224,-167,0,0,0,0,0,0,0,0,0,-1,1000,1191,0,0
-217,-167,0,0,0,0,0,0,0,0,0,-1,1007,1191,0,0
-210,-167,0,0,0,0,0,0,0,0,0,-1,1014,1191,0,0
-203,-167,0,0,0,0,0,0,0,0,0,-1,1021,1191,0,0
-196,-167,0,0,0,0,0,0,0,0,0,-1,1028,1191,0,0
-189,-167,0,0,0,0,0,0,0,0,0,-1,1035,1191,0,0
-182,-167,0,0,0,0,0,0,0,0,0,-1,1042,1191,0,0
-175,-167,0,0,0,0,0,0,0,0,0,-1,1049,1191,0,0
-168,-167,0,0,0,0,0,0,0,0,0,-1,1056,1191,0,0
-161,-167,0,0,0,0,0,0,0,0,0,-1,1063,1191,0,0
-154,-167,0,0,0,0,0,0,0,0,0,-1,1070,1191,0,0
-147,-167,0,0,0,0,0,0,0,0,0,-1,1077,1191,0,0
-140,-167,0,0,0,0,0,0,0,0,0,-1,1084,1191,0,0
-133,-167,0,0,0,0,0,0,0,0,0,-1,1091,1191,0,0
-126,-167,0,0,0,0,0,0,0,0,0,-1,1098,1191,0,0
-119,-167,0,0,0,0,0,0,0,0,0,-1,1105,1191,0,0
-112,-167,0,0,0,0,0,0,0,0,0,-1,1112,1191,0,0
-105,-167,0,0,0,0,0,0,0,0,0,-1,1119,1191,0,0
-98,-167,0,0,0,0,0,0,0,0,0,-1,1126,1191,0,0
-91,-167,0,0,0,0,0,0,0,0,0,-1,1133,1191,0,0
-84,-167,0,0,0,0,0,0,0,0,0,-1,1140,1191,0,0
-77,-167,0,0,0,0,0,0,0,0,0,-1,1147,1191,0,0
-70,-167,0,0,0,0,0,0,0,0,0,-1,1154,1191,0,0
-63,-167,0,0,0,0,0,0,0,0,0,-1,1161,1191,0,0
-56,-167,0,0,0,0,0,0,0,0,0,-1,1168,1191,0,0
-49,-167,0,0,0,0,0,0,0,0,0,-1,1175,1191,0,0
-42,-167,0,0,0,0,0,0,0,0,0,-1,1182,1191,0,0
-35,-167,0,0,0,0,0,0,0,0,0,-1,1189,1191,0,0
-28,-167,0,0,0,0,0,0,0,0,0,-1,1196,1191,0,0
-21,-167,0,0,0,0,0,0,0,0,0,-1,1203,1191,0,0
-14,-167,0,0,0,0,0,0,0,0,0,-1,1210,1191,0,0
-7,-167,0,0,0,0,0,0,0,0,0,-1,1217,1191,0,0
0,-167,0,0,0,0,0,0,0,0,0,-1,1224,1191,0,0
7,-167,0,0,0,0,0,0,0,0,0,-1,1231,1191,0,0
14,-167,0,0,0,0,0,0,0,0,0,-1,1238,1191,0,0
21,-167,0,0,0,0,0,0,0,0,0,-1,1245,1191,0,0
28,-167,0,0,0,0,0,0,0,0,0,-1,1252,1191,0,0
35,-167,0,0,0,0,0,0,0,0,0,-1,1259,1191,0,0
42,-167,0,0,0,0,0,0,0,0,0,-1,1266,1191,0,0
49,-167,0,0,0,0,0,0,0,0,0,-1,1273,1191,0,0
56,-167,0,0,0,0,0,0,0,0,0,-1,1280,1191,0,0
63,-167,0,0,0,0,0,0,0,0,0,-1,1287,1191,0,0
70,-167,0,0,0,0,0,0,0,0,0,-1,1294,1191,0,0
77,-167,0,0,0,0,0,0,0,0,0,-1,1301,1191,0,0
84,-167,0,0,0,0,0,0,0,0,0,-1,1308,1191,0,0
91,-167,0,0,0,0,0,0,0,0,0,-1,1315,1191,0,0
98,-167,0,0,0,0,0,0,0,0,0,-1,1322,1191,0,0
105,-167,0,0,0,0,0,0,0,0,0,-1,1329,1191,0,0
112,-167,0,0,0,0,0,0,0,0,0,-1,1336,1191,0,0
119,-167,0,0,0,0,0,0,0,0,0,-1,1343,1191,0,0
126,-167,0,0,0,0,0,0,0,0,0,-1,1350,1191,0,0
133,-167,0,0,0,0,0,0,0,0,0,-1,1357,1191,0,0
140,-167,0,0,0,0,0,0,0,0,0,-1,1364,1191,0,0
147,-167,0,0,0,0,0,0,0,0,0,-1,1371,1191,0,0
154,-167,0,0,0,0,0,0,0,0,0,-1,1378,1191,0,0
161,-167,0,0,0,0,0,0,0,0,0,-1,1385,1191,0,0
168,-167,0,0,0,0,0,0,0,0,0,-1,1392,1191,0,0
175,-167,0,0,0,0,0,0,0,0,0,-1,1399,1191,0,0
182,-167,0,0,0,0,0,0,0,0,0,-1,1406,1191,0,0
189,-167,0,0,0,0,0,0,0,0,0,-1,1413,1191,0,0
196,-167,0,0,0,0,0,0,0,0,0,-1,1420,1191,0,0
203,-167,0,0,0,0,0,0,0,0,0,-1,1427,1191,0,0
210,-167,0,0,0,0,0,0,0,0,0,-1,1434,1191,0,0
217,-167,0,0,0,0,0,0,0,0,0,-1,1441,1191,0,0
224,-167,0,0,0,0,0,0,0,0,0,-1,1448,1191,0,0
231,-167,0,0,0,0,0,0,0,0,0,-1,1455,1191,0,0
238,-167,0,0,0,0,0,0,0,0,0,-1,1462,1191,0,0
245,-167,0,0,0,0,0,0,0,0,0,-1,1469,1191,0,0
252,-167,0,0,0,0,0,0,0,0,0,-1,1476,1191,0,0
259,-167,0,0,0,0,0,0,0,0,0,-1,1483,1191,0,0
266,-167,0,0,0,0,0,0,0,0,0,-1,1490,1191,0,0
273,-167,0,0,0,0,0,0,0,0,0,-1,1497,1191,0,0
280,-167,0,0,0,0,0,0,0,0,0,-1,1504,1191,0,0
287,-167,0,0,0,0,0,0,0,0,0,-1,1511,1191,0,0
294,-167,0,0,0,0,0,0,0,0,0,-1,1518,1191,0,0
301,-167,0,0,0,0,0,0,0,0,0,-1,1525,1191,0,0
308,-167,0,0,0,0,0,0,0,0,0,-1,1532,1191,0,0
315,-167,0,0,0,0,0,0,0,0,0,-1,1539,1191,0,0
322,-167,0,0,0,0,0,0,0,0,0,-1,1546,1191,0,0
329,-167,0,0,0,0,0,0,0,0,0,-1,1553,1191,0,0
336,-167,0,0,0,0,0,0,0,0,0,-1,1560,1191,0,0
343,-167,0,0,0,0,0,0,0,0,0,-1,1567,1191,0,0
350,-167,0,0,0,0,0,0,0,0,0,-1,1574,1191,0,0
357,-167,0,0,0,0,0,0,0,0,0,-1,1581,1191,0,0
364,-167,0,0,0,0,0,0,0,0,0,-1,1588,1191,0,0
371,-167,0,0,0,0,0,0,0,0,0,-1,1595,1191,0,0
378,-167,0,0,0,0,0,0,0,0,0,-1,1602,1191,0,0
385,-167,0,0,0,0,0,0,0,0,0,-1,1609,1191,0,0
392,-167,0,0,0,0,0,0,0,0,0,-1,1616,1191,0,0
399,-167,0,0,0,0,0,0,0,0,0,-1,1623,1191,0,0
406,-167,0,0,0,0,0,0,0,0,0,-1,1630,1191,0,0
413,-167,0,0,0,0,0,0,0,0,0,-1,1637,1191,0,0
420,-167,0,0,0,0,0,0,0,0,0,-1,1644,1191,0,0
427,-167,0,0,0,0,0,0,0,0,0,-1,1651,1191,0,0
434,-167,0,0,0,0,0,0,0,0,0,-1,1658,1191,0,0
441,-167,0,0,0,0,0,0,0,0,0,-1,1665,1191,0,0
448,-167,0,0,0,0,0,0,0,0,0,-1,1672,1191,0,0
455,-167,0,0,0,0,0,0,0,0,0,-1,1679,1191,0,0
462,-167,0,0,0,0,0,0,0,0,0,-1,1686,1191,0,0
469,-167,0,0,0,0,0,0,0,0,0,-1,1693,1191,0,0
476,-167,0,0,0,0,0,0,0,0,0,-1,1700,1191,0,0
483,-167,0,0,0,0,0,0,0,0,0,-1,1707,1191,0,0
490,-167,0,0,0,0,0,0,0,0,0,-1,1714,1191,0,0
497,-167,0,0,0,0,0,0,0,0,0,-1,1721,1191,0,0
504,-167,0,0,0,0,0,0,0,0,0,-1,1728,1191,0,0
511,-167,0,0,0,0,0,0,0,0,0,-1,1735,1191,0,0
518,-167,0,0,0,0,0,0,0,0,0,-1,1742,1191,0,0
525,-167,0,0,0,0,0,0,0,0,0,-1,1749,1191,0,0
532,-167,0,0,0,0,0,0,0,0,0,-1,1756,1191,0,0
539,-167,0,0,0,0,0,0,0,0,0,-1,1763,1191,0,0
546,-167,0,0,0,0,0,0,0,0,0,-1,1770,1191,0,0
553,-167,0,0,0,0,0,0,0,0,0,-1,1777,1191,0,0
560,-167,0,0,0,0,0,0,0,0,0,-1,1784,1191,0,0
567,-167,0,0,0,0,0,0,0,0,0,-1,1791,1191,0,0
574,-167,0,0,0,0,0,0,0,0,0,-1,1798,1191,0,0
581,-167,0,0,0,0,0,0,0,0,0,-1,1805,1191,0,0
588,-167,0,0,0,0,0,0,0,0,0,-1,1812,1191,0,0
595,-167,0,0,0,0,0,0,0,0,0,-1,1819,1191,0,0
602,-167,0,0,0,0,0,0,0,0,0,-1,1826,1191,0,0
609,-167,0,0,0,0,0,0,0,0,0,-1,1833,1191,0,0
616,-167,0,0,0,0,0,0,0,0,0,-1,1840,1191,0,0
623,-167,0,0,0,0,0,0,0,0,0,-1,1847,1191,0,0
630,-167,0,0,0,0,0,0,0,0,0,-1,1854,1191,0,0
637,-167,60.7677,2.81433,-0.000992666,0.00201072,-0.00184686,0.00288936,-0.0018713,-1.12674,0.00276944,0.0413994,1861,1191,60.7677,-2.81437
644,-167,60.8538,2.84546,-0.000289628,0.00145162,-0.00134017,0.00217914,-0.00101714,-1.07346,0.00188558,0.0433866,1868,1191,60.8538,-2.84542
651,-167,60.4818,2.45667,0.000521942,0.00107156,-0.000928924,0.00176547,-0.000171968,-0.929215,0.00123829,0.0406055,1875,1191,60.4819,-2.45671
658,-167,60.4622,2.4624,0.00143542,0.000697892,-0.000652216,0.0018159,0.000317407,-0.528104,0.00111989,0.0415895,1882,1191,60.4621,-2.46239
665,-167,60.7611,2.58105,0.00231241,0.000295426,-0.000475681,0.00241896,0.000188872,-0.220367,0.00155351,0.0396865,1889,1191,60.7612,-2.58104
672,-167,60.72,2.69824,0.00274775,1.7116e-05,-0.000368166,0.00279652,-3.16522e-05,-0.131696,0.00187499,0.0293248,1896,1191,60.72,-2.69822
679,-167,60.6553,2.69226,0.00279687,-0.000346249,-0.000294586,0.00282424,-0.00037362,-0.0926488,0.00201893,0.0230126,1903,1191,60.6553,-2.69221
686,-167,60.6718,2.62451,0.00240199,-0.000538551,-0.000308438,0.00243399,-0.000570555,-0.103392,0.00184253,0.0344641,1910,1191,60.6718,-2.62457
693,-167,60.6501,2.57422,0,0,0,0,0,0,0,-1,1917,1191,60.6501,-2.57426
700,-167,28.0459,2.70508,0,0,0,0,0,0,0,-1,1924,1191,28.0459,-2.70513
707,-167,29.4708,7.10168,0,0,0,0,0,0,0,-1,1931,1191,29.4708,-7.10172
714,-167,35.9202,6.84668,0,0,0,0,0,0,0,-1,1938,1191,35.9202,-6.84664
721,-167,36.2072,6.38892,0,0,0,0,0,0,0,-1,1945,1191,36.2072,-6.38891
728,-167,51.3162,8.47888,0,0,0,0,0,0,0,-1,1952,1191,51.3162,-8.47888
735,-167,51.4554,7.98059,0.000847114,-0.000273821,0.000463307,0.00101382,-0.000440524,0.345388,0.000861135,0.0271514,1959,1191,51.4555,-7.98057
742,-167,51.3682,7.31055,0.00117732,-8.68686e-05,0.000719911,0.00150325,-0.000412801,0.42513,0.00116442,0.0162149,1966,1191,51.3681,-7.31061
749,-167,51.3497,6.75098,0.00217717,0.000442675,0.00086949,0.00253798,8.18622e-05,0.393345,0.00166537,0.0144218,1973,1191,51.3497,-6.75093
756,-167,51.3596,6.25452,0.00324709,0.00260032,0.00127142,0.00423561,0.0016118,0.660866,0.00246859,0.0109591,1980,1191,51.3597,-6.25454
763,-167,51.2767,5.74573,0.00446179,0.00507016,0.00167334,0.00646674,0.00306521,0.875308,0.00373526,0.0136244,1987,1191,51.2767,-5.74576
770,-167,51.0825,5.32654,0.00524012,0.00848061,0.00230132,0.00967484,0.00404589,1.09212,0.00561064,0.0335132,1994,1191,51.0825,-5.3265
777,-167,51.5249,4.79175,0.00517042,0.0132001,0.00316277,0.0142963,0.00407429,1.23718,0.00850454,0.0483376,2001,1191,51.525,-4.7918
784,-167,52.665,4.35156,0.00416946,0.0195313,0.00424353,0.0206256,0.00307519,1.31843,0.0128486,0.0476523,2008,1191,52.6651,-4.35156
791,-167,52.6257,4.03577,0.00194549,0.0286604,0.00547053,0.0297372,0.000868671,1.37644,0.0195417,0.0495926,2015,1191,52.6258,-4.03579
798,-167,52.9407,3.65051,0,0,0,0,0,0,0,-1,2022,1191,52.9407,-3.65053
805,-167,52.0903,2.1167,0,0,0,0,0,0,0,-1,2029,1191,52.0903,-2.11668
812,-167,0,0,0,0,0,0,0,0,0,-1,2036,1191,0,0
-700,-174,0,0,0,0,0,0,0,0,0,-1,524,1198,0,0
-693,-174,0,0,0,0,0,0,0,0,0,-1,531,1198,0,0
-686,-174,-36.7636,-1.11877,0,0,0,0,0,0,0,-1,538,1198,-36.7636,1.11876
-679,-174,-37.1981,-1.27368,0,0,0,0,0,0,0,-1,545,1198,-37.1981,1.27371
-672,-174,-37.4064,-1.18018,0,0,0,0,0,0,0,-1,552,1198,-37.4064,1.1802
-665,-174,-37.5867,-1.09045,0,0,0,0,0,0,0,-1,559,1198,-37.5867,1.0905
-658,-174,-36.9077,0.208374,0,0,0,0,0,0,0,-1,566,1198,-36.9077,-0.208422
-651,-174,-36.3233,1.44238,0,0,0,0,0,0,0,-1,573,1198,-36.3233,-1.44236
-644,-174,-35.9184,2.09448,0,0,0,0,0,0,0,-1,580,1198,-35.9184,-2.09442
-637,-174,-35.5135,2.74646,0,0,0,0,0,0,0,-1,587,1198,-35.5135,-2.74649
-630,-174,-35.6165,3.28882,0.00120541,0.00655993,0.00204741,0.00725307,0.000512269,1.24436,0.00467399,0.0135093,594,1198,-35.6165,-3.28885
-623,-174,-35.6634,3.84009,-0.000580399,0.0033329,0.000237058,0.0033472,-0.000594708,1.51051,0.00245385,0.0159473,601,1198,-35.6634,-3.84005
-616,-174,-35.6545,4.45337,-0.00220251,0.000717123,-0.00131313,0.00122082,-0.0027062,-1.20452,0.0023207,0.0216773,608,1198,-35.6545,-4.45341
-609,-174,-35.6966,5.05029,-0.00356099,-0.000932292,-0.00213487,0.000260385,-0.00475367,-1.06132,0.00325937,0.0226113,615,1198,-35.6966,-5.05028
-602,-174,-35.7784,5.56628,-0.00372056,-0.00112773,-0.00182147,-0.00018842,-0.00465987,-1.09468,0.00304572,0.0203938,622,1198,-35.7784,-5.56628
-595,-174,-36.0991,5.95691,0,0,0,0,0,0,0,-1,629,1198,-36.0991,-5.95685
-588,-174,-36.1588,6.64014,0,0,0,0,0,0,0,-1,636,1198,-36.1588,-6.64015
-581,-174,-36.2184,7.32349,0,0,0,0,0,0,0,-1,643,1198,-36.2184,-7.32345
-574,-174,-31.7448,7.09595,0,0,0,0,0,0,0,-1,650,1198,-31.7448,-7.09599
-567,-174,-26.6597,3.04041,0,0,0,0,0,0,0,-1,657,1198,-26.6597,-3.04039
-560,-174,-42.6953,1.07178,0,0,0,0,0,0,0,-1,664,1198,-42.6953,-1.07181
-553,-174,-45.6284,0.811401,0,0,0,0,0,0,0,-1,671,1198,-45.6284,-0.811353
-546,-174,-45.6455,0.939087,0.00233376,-0.00162295,-0.00235709,0.00343271,-0.0027219,-0.436268,0.00356125,0.0316753,678,1198,-45.6455,-0.939043
-539,-174,-45.6861,1.07983,0.00445943,-0.00179397,-0.00325388,0.00584538,-0.00317992,-0.402664,0.00528596,0.0375528,685,1198,-45.6861,-1.07981
-532,-174,-45.4746,0.74292,0.00729079,-0.00248188,-0.00544284,0.00971888,-0.00490997,-0.419611,0.00859674,0.0460542,692,1198,-45.4746,-0.742959
-525,-174,-45.0363,0.791992,0.0113281,-0.00340372,-0.00879235,0.0154322,-0.00750786,-0.436724,0.0135053,0.0480731,699,1198,-45.0363,-0.792031
-518,-174,-45.3433,0.930298,0,0,0,0,0,0,0,-1,706,1198,-45.3433,-0.930312
-511,-174,0,0,0,0,0,0,0,0,0,-1,713,1198,0,0
-504,-174,0,0,0,0,0,0,0,0,0,-1,720,1198,0,0
-497,-174,0,0,0,0,0,0,0,0,0,-1,727,1198,0,0
-490,-174,0,0,0,0,0,0,0,0,0,-1,734,1198,0,0
-483,-174,0,0,0,0,0,0,0,0,0,-1,741,1198,0,0
-476,-174,0,0,0,0,0,0,0,0,0,-1,748,1198,0,0
-469,-174,0,0,0,0,0,0,0,0,0,-1,755,1198,0,0
-462,-174,0,0,0,0,0,0,0,0,0,-1,762,1198,0,0
-455,-174,0,0,0,0,0,0,0,0,0,-1,769,1198,0,0
-448,-174,0,0,0,0,0,0,0,0,0,-1,776,1198,0,0
-441,-174,0,0,0,0,0,0,0,0,0,-1,783,1198,0,0
-434,-174,0,0,0,0,0,0,0,0,0,-1,790,1198,0,0
-427,-174,0,0,0,0,0,0,0,0,0,-1,797,1198,0,0
-420,-174,0,0,0,0,0,0,0,0,0,-1,804,1198,0,0
-413,-174,0,0,0,0,0,0,0,0,0,-1,811,1198,0,0
-406,-174,0,0,0,0,0,0,0,0,0,-1,818,1198,0,0
-399,-174,0,0,0,0,0,0,0,0,0,-1,825,1198,0,0
-392,-174,0,0,0,0,0,0,0,0,0,-1,832,1198,0,0
-385,-174,0,0,0,0,0,0,0,0,0,-1,839,1198,0,0
-378,-174,0,0,0,0,0,0,0,0,0,-1,846,1198,0,0
-371,-174,0,0,0,0,0,0,0,0,0,-1,853,1198,0,0
-364,-174,0,0,0,0,0,0,0,0,0,-1,860,1198,0,0
-357,-174,0,0,0,0,0,0,0,0,0,-1,867,1198,0,0
-350,-174,0,0,0,0,0,0,0,0,0,-1,874,1198,0,0
-343,-174,0,0,0,0,0,0,0,0,0,-1,881,1198,0,0
-336,-174,0,0,0,0,0,0,0,0,0,-1,888,1198,0,0
-329,-174,0,0,0,0,0,0,0,0,0,-1,895,1198,0,0
-322,-174,0,0,0,0,0,0,0,0,0,-1,902,1198,0,0
-315,-174,0,0,0,0,0,0,0,0,0,-1,909,1198,0,0
-308,-174,0,0,0,0,0,0,0,0,0,-1,916,1198,0,0
-301,-174,0,0,0,0,0,0,0,0,0,-1,923,1198,0,0
-294,-174,0,0,0,0,0,0,0,0,0,-1,930,1198,0,0
-287,-174,0,0,0,0,0,0,0,0,0,-1,937,1198,0,0
-280,-174,0,0,0,0,0,0,0,0,0,-1,944,1198,0,0
-273,-174,0,0,0,0,0,0,0,0,0,-1,951,1198,0,0
-266,-174,0,0,0,0,0,0,0,0,0,-1,958,1198,0,0
-259,-174,0,0,0,0,0,0,0,0,0,-1,965,1198,0,0
-252,-174,0,0,0,0,0,0,0,0,0,-1,972,1198,0,0
-245,-174,0,0,0,0,0,0,0,0,0,-1,979,1198,0,0
-238,-174,0,0,0,0,0,0,0,0,0,-1,986,1198,0,0
-231,-174,0,0,0,0,0,0,0,0,0,-1,993,1198,0,0
-224,-174,0,0,0,0,0,0,0,0,0,-1,1000,1198,0,0
-217,-174,0,0,0,0,0,0,0,0,0,-1,1007,1198,0,0
-210,-174,0,0,0,0,0,0,0,0,0,-1,1014,1198,0,0
-203,-174,0,0,0,0,0,0,0,0,0,-1,1021,1198,0,0
-196,-174,0,0,0,0,0,0,0,0,0,-1,1028,1198,0,0
-189,-174,0,0,0,0,0,0,0,0,0,-1,1035,1198,0,0
-182,-174,0,0,0,0,0,0,0,0,0,-1,1042,1198,0,0
-175,-174,0,0,0,0,0,0,0,0,0,-1,1049,1198,0,0
-168,-174,0,0,0,0,0,0,0,0,0,-1,1056,1198,0,0
-161,-174,0,0,0,0,0,0,0,0,0,-1,1063,1198,0,0
-154,-174,0,0,0,0,0,0,0,0,0,-1,1070,1198,0,0
-147,-174,0,0,0,0,0,0,0,0,0,-1,1077,1198,0,0
-140,-174,0,0,0,0,0,0,0,0,0,-1,1084,1198,0,0
-133,-174,0,0,0,0,0,0,0,0,0,-1,1091,1198,0,0
-126,-174,0,0,0,0,0,0,0,0,0,-1,1098,1198,0,0
-119,-174,0,0,0,0,0,0,0,0,0,-1,1105,1198,0,0
-112,-174,0,0,0,0,0,0,0,0,0,-1,1112,1198,0,0
-105,-174,0,0,0,0,0,0,0,0,0,-1,1119,1198,0,0
-98,-174,0,0,0,0,0,0,0,0,0,-1,1126,1198,0,0
-91,-174,0,0,0,0,0,0,0,0,0,-1,1133,1198,0,0
-84,-174,0,0,0,0,0,0,0,0,0,-1,1140,1198,0,0
-77,-174,0,0,0,0,0,0,0,0,0,-1,1147,1198,0,0
-70,-174,0,0,0,0,0,0,0,0,0,-1,1154,1198,0,0
-63,-174,0,0,0,0,0,0,0,0,0,-1,1161,1198,0,0
-56,-174,0,0,0,0,0,0,0,0,0,-1,1168,1198,0,0
-49,-174,0,0,0,0,0,0,0,0,0,-1,1175,1198,0,0
-42,-174,0,0,0,0,0,0,0,0,0,-1,1182,1198,0,0
-35,-174,0,0,0,0,0,0,0,0,0,-1,1189,1198,0,0
-28,-174,0,0,0,0,0,0,0,0,0,-1,1196,1198,0,0
-21,-174,0,0,0,0,0,0,0,0,0,-1,1203,1198,0,0
-14,-174,0,0,0,0,0,0,0,0,0,-1,1210,1198,0,0
-7,-174,0,0,0,0,0,0,0,0,0,-1,1217,1198,0,0
0,-174,0,0,0,0,0,0,0,0,0,-1,1224,1198,0,0
7,-174,0,0,0,0,0,0,0,0,0,-1,1231,1198,0,0
14,-174,0,0,0,0,0,0,0,0,0,-1,1238,1198,0,0
21,-174,0,0,0,0,0,0,0,0,0,-1,1245,1198,0,0
28,-174,0,0,0,0,0,0,0,0,0,-1,1252,1198,0,0
35,-174,0,0,0,0,0,0,0,0,0,-1,1259,1198,0,0
42,-174,0,0,0,0,0,0,0,0,0,-1,1266,1198,0,0
49,-174,0,0,0,0,0,0,0,0,0,-1,1273,1198,0,0
56,-174,0,0,0,0,0,0,0,0,0,-1,1280,1198,0,0
63,-174,0,0,0,0,0,0,0,0,0,-1,1287,1198,0,0
70,-174,0,0,0,0,0,0,0,0,0,-1,1294,1198,0,0
77,-174,0,0,0,0,0,0,0,0,0,-1,1301,1198,0,0
84,-174,0,0,0,0,0,0,0,0,0,-1,1308,1198,0,0
91,-174,0,0,0,0,0,0,0,0,0,-1,1315,1198,0,0
98,-174,0,0,0,0,0,0,0,0,0,-1,1322,1198,0,0
105,-174,0,0,0,0,0,0,0,0,0,-1,1329,1198,0,0
112,-174,0,0,0,0,0,0,0,0,0,-1,1336,1198,0,0
119,-174,0,0,0,0,0,0,0,0,0,-1,1343,1198,0,0
126,-174,0,0,0,0,0,0,0,0,0,-1,1350,1198,0,0
133,-174,0,0,0,0,0,0,0,0,0,-1,1357,1198,0,0
140,-174,0,0,0,0,0,0,0,0,0,-1,1364,1198,0,0
147,-174,0,0,0,0,0,0,0,0,0,-1,1371,1198,0,0
154,-174,0,0,0,0,0,0,0,0,0,-1,1378,1198,0,0
161,-174,0,0,0,0,0,0,0,0,0,-1,1385,1198,0,0
168,-174,0,0,0,0,0,0,0,0,0,-1,1392,1198,0,0
175,-174,0,0,0,0,0,0,0,0,0,-1,1399,1198,0,0
182,-174,0,0,0,0,0,0,0,0,0,-1,1406,1198,0,0
189,-174,0,0,0,0,0,0,0,0,0,-1,1413,1198,0,0
196,-174,0,0,0,0,0,0,0,0,0,-1,1420,1198,0,0
203,-174,0,0,0,0,0,0,0,0,0,-1,1427,1198,0,0
210,-174,0,0,0,0,0,0,0,0,0,-1,1434,1198,0,0
217,-174,0,0,0,0,0,0,0,0,0,-1,1441,1198,0,0
224,-174,0,0,0,0,0,0,0,0,0,-1,1448,1198,0,0
231,-174,0,0,0,0,0,0,0,0,0,-1,1455,1198,0,0
238,-174,0,0,0,0,0,0,0,0,0,-1,1462,1198,0,0
245,-174,0,0,0,0,0,0,0,0,0,-1,1469,1198,0,0
252,-174,0,0,0,0,0,0,0,0,0,-1,1476,1198,0,0
259,-174,0,0,0,0,0,0,0,0,0,-1,1483,1198,0,0
266,-174,0,0,0,0,0,0,0,0,0,-1,1490,1198,0,0
273,-174,0,0,0,0,0,0,0,0,0,-1,1497,1198,0,0
280,-174,0,0,0,0,0,0,0,0,0,-1,1504,1198,0,0
287,-174,0,0,0,0,0,0,0,0,0,-1,1511,1198,0,0
294,-174,0,0,0,0,0,0,0,0,0,-1,1518,1198,0,0
301,-174,0,0,0,0,0,0,0,0,0,-1,1525,1198,0,0
308,-174,0,0,0,0,0,0,0,0,0,-1,1532,1198,0,0
315,-174,0,0,0,0,0,0,0,0,0,-1,1539,1198,0,0
322,-174,0,0,0,0,0,0,0,0,0,-1,1546,1198,0,0
329,-174,0,0,0,0,0,0,0,0,0,-1,1553,1198,0,0
336,-174,0,0,0,0,0,0,0,0,0,-1,1560,1198,0,0
343,-174,0,0,0,0,0,0,0,0,0,-1,1567,1198,0,0
350,-174,0,0,0,0,0,0,0,0,0,-1,1574,1198,0,0
357,-174,0,0,0,0,0,0,0,0,0,-1,1581,1198,0,0
364,-174,0,0,0,0,0,0,0,0,0,-1,1588,1198,0,0
371,-174,0,0,0,0,0,0,0,0,0,-1,1595,1198,0,0
378,-174,0,0,0,0,0,0,0,0,0,-1,1602,1198,0,0
385,-174,0,0,0,0,0,0,0,0,0,-1,1609,1198,0,0
392,-174,0,0,0,0,0,0,0,0,0,-1,1616,1198,0,0
399,-174,0,0,0,0,0,0,0,0,0,-1,1623,1198,0,0
406,-174,0,0,0,0,0,0,0,0,0,-1,1630,1198,0,0
413,-174,0,0,0,0,0,0,0,0,0,-1,1637,1198,0,0
420,-174,0,0,0,0,0,0,0,0,0,-1,1644,1198,0,0
427,-174,0,0,0,0,0,0,0,0,0,-1,1651,1198,0,0
434,-174,0,0,0,0,0,0,0,0,0,-1,1658,1198,0,0
441,-174,0,0,0,0,0,0,0,0,0,-1,1665,1198,0,0
448,-174,0,0,0,0,0,0,0,0,0,-1,1672,1198,0,0
455,-174,0,0,0,0,0,0,0,0,0,-1,1679,1198,0,0
462,-174,0,0,0,0,0,0,0,0,0,-1,1686,1198,0,0
469,-174,0,0,0,0,0,0,0,0,0,-1,1693,1198,0,0
476,-174,0,0,0,0,0,0,0,0,0,-1,1700,1198,0,0
483,-174,0,0,0,0,0,0,0,0,0,-1,1707,1198,0,0
490,-174,0,0,0,0,0,0,0,0,0,-1,1714,1198,0,0
497,-174,0,0,0,0,0,0,0,0,0,-1,1721,1198,0,0
504,-174,0,0,0,0,0,0,0,0,0,-1,1728,1198,0,0
511,-174,0,0,0,0,0,0,0,0,0,-1,1735,1198,0,0
518,-174,0,0,0,0,0,0,0,0,0,-1,1742,1198,0,0
525,-174,0,0,0,0,0,0,0,0,0,-1,1749,1198,0,0
532,-174,0,0,0,0,0,0,0,0,0,-1,1756,1198,0,0
539,-174,0,0,0,0,0,0,0,0,0,-1,1763,1198,0,0
546,-174,0,0,0,0,0,0,0,0,0,-1,1770,1198,0,0
553,-174,0,0,0,0,0,0,0,0,0,-1,1777,1198,0,0
560,-174,0,0,0,0,0,0,0,0,0,-1,1784,1198,0,0
567,-174,0,0,0,0,0,0,0,0,0,-1,1791,1198,0,0
574,-174,0,0,0,0,0,0,0,0,0,-1,1798,1198,0,0
581,-174,0,0,0,0,0,0,0,0,0,-1,1805,1198,0,0
588,-174,0,0,0,0,0,0,0,0,0,-1,1812,1198,0,0
595,-174,0,0,0,0,0,0,0,0,0,-1,1819,1198,0,0
602,-174,0,0,0,0,0,0,0,0,0,-1,1826,1198,0,0
609,-174,0,0,0,0,0,0,0,0,0,-1,1833,1198,0,0
616,-174,0,0,0,0,0,0,0,0,0,-1,1840,1198,0,0
623,-174,0,0,0,0,0,0,0,0,0,-1,1847,1198,0,0
630,-174,0,0,0,0,0,0,0,0,0,-1,1854,1198,0,0
637,-174,60.6283,2.83484,-0.000912722,0.00278631,-0.00128076,0.00318648,-0.00131289,-1.26796,0.00267173,0.0395332,1861,1198,60.6284,-2.83489
644,-174,60.631,2.79968,-0.000117018,0.00201647,-0.00100711,0.00241677,-0.000517314,-1.19247,0.00180845,0.0394296,1868,1198,60.6309,-2.79969
651,-174,60.2737,2.55774,0.000840504,0.00137926,-0.000779298,0.00193443,0.000285341,-0.951804,0.00120581,0.0411541,1875,1198,60.2737,-2.55774
658,-174,60.5166,2.61707,0.00182207,0.000748273,-0.000656657,0.00213338,0.000436963,-0.442701,0.00130129,0.0391921,1882,1198,60.5166,-2.61707
665,-174,60.7108,2.70935,0.00264276,0.000120707,-0.000580945,0.00277015,-6.67712e-06,-0.215855,0.001849,0.0343273,1889,1198,60.7108,-2.70938
672,-174,60.6294,2.69019,0.00303125,-0.000282563,-0.000528876,0.00311361,-0.000364924,-0.154486,0.00220746,0.0267782,1896,1198,60.6294,-2.69013
679,-174,60.6439,2.70178,0.00305515,-0.000629469,-0.000487263,0.0031185,-0.000692817,-0.129282,0.00234432,0.0246191,1903,1198,60.6439,-2.70174
686,-174,60.6735,2.62781,0,0,0,0,0,0,0,-1,1910,1198,60.6734,-2.62782
693,-174,51.1324,2.57349,0,0,0,0,0,0,0,-1,1917,1198,51.1325,-2.57343
700,-174,25.4004,6.11792,0,0,0,0,0,0,0,-1,1924,1198,25.4004,-6.11797
707,-174,34.7908,7.34473,0,0,0,0,0,0,0,-1,1931,1198,34.7908,-7.34475
714,-174,40.1135,7.79871,0,0,0,0,0,0,0,-1,1938,1198,40.1135,-7.79875
721,-174,40.8693,7.59863,0,0,0,0,0,0,0,-1,1945,1198,40.8693,-7.59859
728,-174,50.7118,8.42236,0,0,0,0,0,0,0,-1,1952,1198,50.7118,-8.4224
735,-174,50.8147,7.90906,0.00114432,-0.000293619,0.000418922,0.00125747,-0.000406762,0.26379,0.00100181,0.0175362,1959,1198,50.8147,-7.90906
742,-174,50.8154,7.32031,0.00166091,-1.7343e-05,0.000643787,0.00187942,-0.000235853,0.327213,0.00133851,0.0207707,1966,1198,50.8154,-7.32029
749,-174,50.8163,6.77759,0.00285269,0.000525688,0.000826197,0.0031162,0.000262187,0.308734,0.00199582,0.0179311,1973,1198,50.8163,-6.77758
756,-174,50.8052,6.26074,0.00414155,0.00260024,0.00117111,0.00477282,0.00196897,0.49439,0.00276961,0.0110111,1980,1198,50.8051,-6.2607
763,-174,50.7793,5.75989,0.00572781,0.00483886,0.00139073,0.00674336,0.00382331,0.630729,0.00390491,0.0168588,1987,1198,50.7793,-5.75986
770,-174,50.937,5.25171,0.00704047,0.00797206,0.00167661,0.00924638,0.00576615,0.920891,0.0053925,0.0395312,1994,1198,50.937,-5.25173
777,-174,51.2849,4.76892,0,0,0,0,0,0,0,-1,2001,1198,51.2849,-4.7689
784,-174,52.9006,4.08057,0,0,0,0,0,0,0,-1,2008,1198,52.9006,-4.08057
791,-174,52.6746,4.07471,0,0,0,0,0,0,0,-1,2015,1198,52.6744,-4.07477
798,-174,52.5671,1.77576,0,0,0,0,0,0,0,-1,2022,1198,52.5672,-1.77572
805,-174,51.9089,1.68689,0,0,0,0,0,0,0,-1,2029,1198,51.909,-1.68694
812,-174,0,0,0,0,0,0,0,0,0,-1,2036,1198,0,0
-700,-181,0,0,0,0,0,0,0,0,0,-1,524,1205,0,0
-693,-181,0,0,0,0,0,0,0,0,0,-1,531,1205,0,0
-686,-181,-36.5191,-0.866211,0,0,0,0,0,0,0,-1,538,1205,-36.5191,0.866242
-679,-181,-36.9184,-1.21667,0,0,0,0,0,0,0,-1,545,1205,-36.9184,1.21669
-672,-181,-37.4685,-0.945068,0,0,0,0,0,0,0,-1,552,1205,-37.4685,0.945122
-665,-181,-37.6966,-1.28857,0,0,0,0,0,0,0,-1,559,1205,-37.6966,1.28854
-658,-181,-34.1887,1.68726,0,0,0,0,0,0,0,-1,566,1205,-34.1887,-1.68731
-651,-181,-34.4416,2.03394,0,0,0,0,0,0,0,-1,573,1205,-34.4416,-2.03398
-644,-181,-35.3768,2.02612,0,0,0,0,0,0,0,-1,580,1205,-35.3768,-2.02614
-637,-181,-34.8764,2.73926,0.00361534,0.0109565,0.00535414,0.0137775,0.000794406,1.08588,0.00893197,0.0272413,587,1205,-34.8764,-2.7392
-630,-181,-35.0401,3.30591,0.00167084,0.00692234,0.00299013,0.00827596,0.000317211,1.1457,0.00541467,0.0138324,594,1205,-35.0401,-3.30595
-623,-181,-35.1199,3.85486,1.03831e-05,0.00372129,0.00101934,0.00398286,-0.000251182,1.31961,0.0027428,0.0159878,601,1205,-35.1199,-3.85486
-616,-181,-35.1038,4.47107,-0.00140817,0.00113836,-0.0005884,0.00126774,-0.00153755,-1.35435,0.00162213,0.0153962,608,1205,-35.1037,-4.47111
-609,-181,-35.1082,5.07483,-0.00264799,-0.000608076,-0.00166251,0.000322417,-0.00357849,-1.06054,0.00250007,0.0146931,615,1205,-35.1082,-5.07487
-602,-181,-35.0958,5.65552,-0.00301237,-0.00106081,-0.00170731,-7.01037e-05,-0.00400307,-1.04501,0.00264566,0.0181488,622,1205,-35.0957,-5.65553
-595,-181,-35.624,5.9425,0,0,0,0,0,0,0,-1,629,1205,-35.624,-5.94247
-588,-181,-35.636,6.73584,0,0,0,0,0,0,0,-1,636,1205,-35.636,-6.73585
-581,-181,-35.648,7.52917,0,0,0,0,0,0,0,-1,643,1205,-35.648,-7.52923
-574,-181,-31.4653,6.98145,0,0,0,0,0,0,0,-1,650,1205,-31.4653,-6.98148
-567,-181,-25.8839,3.34485,0,0,0,0,0,0,0,-1,657,1205,-25.8839,-3.3449
-560,-181,-31.7396,1.63306,0,0,0,0,0,0,0,-1,664,1205,-31.7396,-1.63303
-553,-181,-45.605,0.711914,0,0,0,0,0,0,0,-1,671,1205,-45.605,-0.711964
-546,-181,-45.5963,0.839722,0.00273146,-0.00135901,-0.00249187,0.00390995,-0.00253749,-0.441761,0.00375044,0.0379986,678,1205,-45.5963,-0.839689
-539,-181,-45.6025,0.980103,0.00431988,-0.00133959,-0.00309991,0.00568739,-0.0027071,-0.415465,0.00494733,0.0411315,685,1205,-45.6025,-0.980143
-532,-181,-45.4719,0.919067,0.00622315,-0.00156353,-0.00426541,0.00810491,-0.00344529,-0.415485,0.00684701,0.0442413,692,1205,-45.4719,-0.919087
-525,-181,-44.8861,0.780029,0,0,0,0,0,0,0,-1,699,1205,-44.8861,-0.780082
-518,-181,-45.9325,1.25708,0,0,0,0,0,0,0,-1,706,1205,-45.9325,-1.25707
-511,-181,0,0,0,0,0,0,0,0,0,-1,713,1205,0,0
-504,-181,0,0,0,0,0,0,0,0,0,-1,720,1205,0,0
-497,-181,0,0,0,0,0,0,0,0,0,-1,727,1205,0,0
-490,-181,0,0,0,0,0,0,0,0,0,-1,734,1205,0,0
-483,-181,0,0,0,0,0,0,0,0,0,-1,741,1205,0,0
-476,-181,0,0,0,0,0,0,0,0,0,-1,748,1205,0,0
-469,-181,0,0,0,0,0,0,0,0,0,-1,755,1205,0,0
-462,-181,0,0,0,0,0,0,0,0,0,-1,762,1205,0,0
-455,-181,0,0,0,0,0,0,0,0,0,-1,769,1205,0,0
-448,-181,0,0,0,0,0,0,0,0,0,-1,776,1205,0,0
-441,-181,0,0,0,0,0,0,0,0,0,-1,783,1205,0,0
-434,-181,0,0,0,0,0,0,0,0,0,-1,790,1205,0,0
-427,-181,0,0,0,0,0,0,0,0,0,-1,797,1205,0,0
-420,-181,0,0,0,0,0,0,0,0,0,-1,804,1205,0,0
-413,-181,0,0,0,0,0,0,0,0,0,-1,811,1205,0,0
-406,-181,0,0,0,0,0,0,0,0,0,-1,818,1205,0,0
-399,-181,0,0,0,0,0,0,0,0,0,-1,825,1205,0,0
-392,-181,0,0,0,0,0,0,0,0,0,-1,832,1205,0,0
-385,-181,0,0,0,0,0,0,0,0,0,-1,839,1205,0,0
-378,-181,0,0,0,0,0,0,0,0,0,-1,846,1205,0,0
-371,-181,0,0,0,0,0,0,0,0,0,-1,853,1205,0,0
-364,-181,0,0,0,0,0,0,0,0,0,-1,860,1205,0,0
-357,-181,0,0,0,0,0,0,0,0,0,-1,867,1205,0,0
-350,-181,0,0,0,0,0,0,0,0,0,-1,874,1205,0,0
-343,-181,0,0,0,0,0,0,0,0,0,-1,881,1205,0,0
-336,-181,0,0,0,0,0,0,0,0,0,-1,888,1205,0,0
-329,-181,0,0,0,0,0,0,0,0,0,-1,895,1205,0,0
-322,-181,0,0,0,0,0,0,0,0,0,-1,902,1205,0,0
-315,-181,0,0,0,0,0,0,0,0,0,-1,909,1205,0,0
-308,-181,0,0,0,0,0,0,0,0,0,-1,916,1205,0,0
-301,-181,0,0,0,0,0,0,0,0,0,-1,923,1205,0,0
-294,-181,0,0,0,0,0,0,0,0,0,-1,930,1205,0,0
-287,-181,0,0,0,0,0,0,0,0,0,-1,937,1205,0,0
-280,-181,0,0,0,0,0,0,0,0,0,-1,944,1205,0,0
-273,-181,0,0,0,0,0,0,0,0,0,-1,951,1205,0,0
-266,-181,0,0,0,0,0,0,0,0,0,-1,958,1205,0,0
-259,-181,0,0,0,0,0,0,0,0,0,-1,965,1205,0,0
-252,-181,0,0,0,0,0,0,0,0,0,-1,972,1205,0,0
-245,-181,0,0,0,0,0,0,0,0,0,-1,979,1205,0,0
-238,-181,0,0,0,0,0,0,0,0,0,-1,986,1205,0,0
-231,-181,0,0,0,0,0,0,0,0,0,-1,993,1205,0,0
-224,-181,0,0,0,0,0,0,0,0,0,-1,1000,1205,0,0
-217,-181,0,0,0,0,0,0,0,0,0,-1,1007,1205,0,0
-210,-181,0,0,0,0,0,0,0,0,0,-1,1014,1205,0,0
-203,-181,0,0,0,0,0,0,0,0,0,-1,1021,1205,0,0
-196,-181,0,0,0,0,0,0,0,0,0,-1,1028,1205,0,0
-189,-181,0,0,0,0,0,0,0,0,0,-1,1035,1205,0,0
-182,-181,0,0,0,0,0,0,0,0,0,-1,1042,1205,0,0
-175,-181,0,0,0,0,0,0,0,0,0,-1,1049,1205,0,0
-168,-181,0,0,0,0,0,0,0,0,0,-1,1056,1205,0,0
-161,-181,0,0,0,0,0,0,0,0,0,-1,1063,1205,0,0
-154,-181,0,0,0,0,0,0,0,0,0,-1,1070,1205,0,0
-147,-181,0,0,0,0,0,0,0,0,0,-1,1077,1205,0,0
-140,-181,0,0,0,0,0,0,0,0,0,-1,1084,1205,0,0
-133,-181,0,0,0,0,0,0,0,0,0,-1,1091,1205,0,0
-126,-181,0,0,0,0,0,0,0,0,0,-1,1098,1205,0,0
-119,-181,0,0,0,0,0,0,0,0,0,-1,1105,1205,0,0
-112,-181,0,0,0,0,0,0,0,0,0,-1,1112,1205,0,0
-105,-181,0,0,0,0,0,0,0,0,0,-1,1119,1205,0,0
-98,-181,0,0,0,0,0,0,0,0,0,-1,1126,1205,0,0
-91,-181,0,0,0,0,0,0,0,0,0,-1,1133,1205,0,0
-84,-181,0,0,0,0,0,0,0,0,0,-1,1140,1205,0,0
-77,-181,0,0,0,0,0,0,0,0,0,-1,1147,1205,0,0
-70,-181,0,0,0,0,0,0,0,0,0,-1,1154,1205,0,0
-63,-181,0,0,0,0,0,0,0,0,0,-1,1161,1205,0,0
-56,-181,0,0,0,0,0,0,0,0,0,-1,1168,1205,0,0
-49,-181,0,0,0,0,0,0,0,0,0,-1,1175,1205,0,0
-42,-181,0,0,0,0,0,0,0,0,0,-1,1182,1205,0,0
-35,-181,0,0,0,0,0,0,0,0,0,-1,1189,1205,0,0
-28,-181,0,0,0,0,0,0,0,0,0,-1,1196,1205,0,0
-21,-181,0,0,0,0,0,0,0,0,0,-1,1203,1205,0,0
-14,-181,0,0,0,0,0,0,0,0,0,-1,1210,1205,0,0
-7,-181,0,0,0,0,0,0,0,0,0,-1,1217,1205,0,0
0,-181,0,0,0,0,0,0,0,0,0,-1,1224,1205,0,0
7,-181,0,0,0,0,0,0,0,0,0,-1,1231,1205,0,0
14,-181,0,0,0,0,0,0,0,0,0,-1,1238,1205,0,0
21,-181,0,0,0,0,0,0,0,0,0,-1,1245,1205,0,0
28,-181,0,0,0,0,0,0,0,0,0,-1,1252,1205,0,0
35,-181,0,0,0,0,0,0,0,0,0,-1,1259,1205,0,0
42,-181,0,0,0,0,0,0,0,0,0,-1,1266,1205,0,0
49,-181,0,0,0,0,0,0,0,0,0,-1,1273,1205,0,0
56,-181,0,0,0,0,0,0,0,0,0,-1,1280,1205,0,0
63,-181,0,0,0,0,0,0,0,0,0,-1,1287,1205,0,0
70,-181,0,0,0,0,0,0,0,0,0,-1,1294,1205,0,0
77,-181,0,0,0,0,0,0,0,0,0,-1,1301,1205,0,0
84,-181,0,0,0,0,0,0,0,0,0,-1,1308,1205,0,0
91,-181,0,0,0,0,0,0,0,0,0,-1,1315,1205,0,0
98,-181,0,0,0,0,0,0,0,0,0,-1,1322,1205,0,0
105,-181,0,0,0,0,0,0,0,0,0,-1,1329,1205,0,0
112,-181,0,0,0,0,0,0,0,0,0,-1,1336,1205,0,0
119,-181,0,0,0,0,0,0,0,0,0,-1,1343,1205,0,0
126,-181,0,0,0,0,0,0,0,0,0,-1,1350,1205,0,0
133,-181,0,0,0,0,0,0,0,0,0,-1,1357,1205,0,0
140,-181,0,0,0,0,0,0,0,0,0,-1,1364,1205,0,0
147,-181,0,0,0,0,0,0,0,0,0,-1,1371,1205,0,0
154,-181,0,0,0,0,0,0,0,0,0,-1,1378,1205,0,0
161,-181,0,0,0,0,0,0,0,0,0,-1,1385,1205,0,0
168,-181,0,0,0,0,0,0,0,0,0,-1,1392,1205,0,0
175,-181,0,0,0,0,0,0,0,0,0,-1,1399,1205,0,0
182,-181,0,0,0,0,0,0,0,0,0,-1,1406,1205,0,0
189,-181,0,0,0,0,0,0,0,0,0,-1,1413,1205,0,0
196,-181,0,0,0,0,0,0,0,0,0,-1,1420,1205,0,0
203,-181,0,0,0,0,0,0,0,0,0,-1,1427,1205,0,0
210,-181,0,0,0,0,0,0,0,0,0,-1,1434,1205,0,0
217,-181,0,0,0,0,0,0,0,0,0,-1,1441,1205,0,0
224,-181,0,0,0,0,0,0,0,0,0,-1,1448,1205,0,0
231,-181,0,0,0,0,0,0,0,0,0,-1,1455,1205,0,0
238,-181,0,0,0,0,0,0,0,0,0,-1,1462,1205,0,0
245,-181,0,0,0,0,0,0,0,0,0,-1,1469,1205,0,0
252,-181,0,0,0,0,0,0,0,0,0,-1,1476,1205,0,0
259,-181,0,0,0,0,0,0,0,0,0,-1,1483,1205,0,0
266,-181,0,0,0,0,0,0,0,0,0,-1,1490,1205,0,0
273,-181,0,0,0,0,0,0,0,0,0,-1,1497,1205,0,0
280,-181,0,0,0,0,0,0,0,0,0,-1,1504,1205,0,0
287,-181,0,0,0,0,0,0,0,0,0,-1,1511,1205,0,0
294,-181,0,0,0,0,0,0,0,0,0,-1,1518,1205,0,0
301,-181,0,0,0,0,0,0,0,0,0,-1,1525,1205,0,0
308,-181,0,0,0,0,0,0,0,0,0,-1,1532,1205,0,0
315,-181,0,0,0,0,0,0,0,0,0,-1,1539,1205,0,0
322,-181,0,0,0,0,0,0,0,0,0,-1,1546,1205,0,0
329,-181,0,0,0,0,0,0,0,0,0,-1,1553,1205,0,0
336,-181,0,0,0,0,0,0,0,0,0,-1,1560,1205,0,0
343,-181,0,0,0,0,0,0,0,0,0,-1,1567,1205,0,0
350,-181,0,0,0,0,0,0,0,0,0,-1,1574,1205,0,0
357,-181,0,0,0,0,0,0,0,0,0,-1,1581,1205,0,0
364,-181,0,0,0,0,0,0,0,0,0,-1,1588,1205,0,0
371,-181,0,0,0,0,0,0,0,0,0,-1,1595,1205,0,0
378,-181,0,0,0,0,0,0,0,0,0,-1,1602,1205,0,0
385,-181,0,0,0,0,0,0,0,0,0,-1,1609,1205,0,0
392,-181,0,0,0,0,0,0,0,0,0,-1,1616,1205,0,0
399,-181,0,0,0,0,0,0,0,0,0,-1,1623,1205,0,0
406,-181,0,0,0,0,0,0,0,0,0,-1,1630,1205,0,0
413,-181,0,0,0,0,0,0,0,0,0,-1,1637,1205,0,0
420,-181,0,0,0,0,0,0,0,0,0,-1,1644,1205,0,0
427,-181,0,0,0,0,0,0,0,0,0,-1,1651,1205,0,0
434,-181,0,0,0,0,0,0,0,0,0,-1,1658,1205,0,0
441,-181,0,0,0,0,0,0,0,0,0,-1,1665,1205,0,0
448,-181,0,0,0,0,0,0,0,0,0,-1,1672,1205,0,0
455,-181,0,0,0,0,0,0,0,0,0,-1,1679,1205,0,0
462,-181,0,0,0,0,0,0,0,0,0,-1,1686,1205,0,0
469,-181,0,0,0,0,0,0,0,0,0,-1,1693,1205,0,0
476,-181,0,0,0,0,0,0,0,0,0,-1,1700,1205,0,0
483,-181,0,0,0,0,0,0,0,0,0,-1,1707,1205,0,0
490,-181,0,0,0,0,0,0,0,0,0,-1,1714,1205,0,0
497,-181,0,0,0,0,0,0,0,0,0,-1,1721,1205,0,0
504,-181,0,0,0,0,0,0,0,0,0,-1,1728,1205,0,0
511,-181,0,0,0,0,0,0,0,0,0,-1,1735,1205,0,0
518,-181,0,0,0,0,0,0,0,0,0,-1,1742,1205,0,0
525,-181,0,0,0,0,0,0,0,0,0,-1,1749,1205,0,0
532,-181,0,0,0,0,0,0,0,0,0,-1,1756,1205,0,0
539,-181,0,0,0,0,0,0,0,0,0,-1,1763,1205,0,0
546,-181,0,0,0,0,0,0,0,0,0,-1,1770,1205,0,0
553,-181,0,0,0,0,0,0,0,0,0,-1,1777,1205,0,0
560,-181,0,0,0,0,0,0,0,0,0,-1,1784,1205,0,0
567,-181,0,0,0,0,0,0,0,0,0,-1,1791,1205,0,0
574,-181,0,0,0,0,0,0,0,0,0,-1,1798,1205,0,0
581,-181,0,0,0,0,0,0,0,0,0,-1,1805,1205,0,0
588,-181,0,0,0,0,0,0,0,0,0,-1,1812,1205,0,0
595,-181,0,0,0,0,0,0,0,0,0,-1,1819,1205,0,0
602,-181,0,0,0,0,0,0,0,0,0,-1,1826,1205,0,0
609,-181,0,0,0,0,0,0,0,0,0,-1,1833,1205,0,0
616,-181,0,0,0,0,0,0,0,0,0,-1,1840,1205,0,0
623,-181,0,0,0,0,0,0,0,0,0,-1,1847,1205,0,0
630,-181,60.6764,2.72083,-0.00093384,0.00389522,-0.000235869,0.00390672,-0.000945333,-1.52211,0.00297017,0.0374197,1854,1205,60.6764,-2.72087
637,-181,60.6869,2.70056,-0.000389307,0.0030523,-0.000289588,0.0030765,-0.000413503,-1.48743,0.00220181,0.0361133,1861,1205,60.6869,-2.70056
644,-181,60.6411,2.59753,0.000375113,0.00221878,-0.000343424,0.00228067,0.000313221,-1.39249,0.00142754,0.0396199,1868,1205,60.6411,-2.59758
651,-181,60.2689,2.41052,0,0,0,0,0,0,0,-1,1875,1205,60.269,-2.41058
658,-181,60.6566,2.75879,0.00224132,0.000666594,-0.000521997,0.00239864,0.000509276,-0.292719,0.00145926,0.0355111,1882,1205,60.6566,-2.75878
665,-181,60.6781,2.76355,0.00289084,-8.17068e-05,-0.000580031,0.00300001,-0.000190878,-0.18604,0.00206658,0.0316184,1889,1205,60.6781,-2.7636
672,-181,60.6152,2.7113,0.00318636,-0.000536725,-0.000586386,0.00327653,-0.000626897,-0.152581,0.00242053,0.0242623,1896,1205,60.6152,-2.71133
679,-181,60.7103,2.79065,0.00317597,-0.00086475,-0.000567795,0.00325424,-0.00094302,-0.136985,0.00254281,0.0319162,1903,1205,60.7103,-2.79065
686,-181,60.8893,2.90515,0,0,0,0,0,0,0,-1,1910,1205,60.8892,-2.90518
693,-181,36.1301,2.91016,0,0,0,0,0,0,0,-1,1917,1205,36.1302,-2.9102
700,-181,29.5845,6.58398,0,0,0,0,0,0,0,-1,1924,1205,29.5844,-6.58395
707,-181,50.8789,9.94153,0,0,0,0,0,0,0,-1,1931,1205,50.8789,-9.94152
714,-181,51.0674,9.70471,0,0,0,0,0,0,0,-1,1938,1205,51.0673,-9.70466
721,-181,46.834,8.7926,0,0,0,0,0,0,0,-1,1945,1205,46.834,-8.79256
728,-181,50.3445,8.39087,0,0,0,0,0,0,0,-1,1952,1205,50.3445,-8.39084
735,-181,50.339,7.86731,0.0015305,-0.000432372,0.000370038,0.00159794,-0.000499814,0.180277,0.00126525,0.0142155,1959,1205,50.339,-7.86736
742,-181,50.3052,7.34998,0.00214971,-7.45337e-05,0.000587007,0.00229512,-0.000219946,0.24283,0.00160842,0.0177524,1966,1205,50.3052,-7.34998
749,-181,50.2772,6.78064,0.00337885,0.000503435,0.000806377,0.00358955,0.000292735,0.255578,0.00230167,0.0161221,1973,1205,50.2772,-6.78059
756,-181,50.2648,6.24792,0.0047179,0.00248219,0.00110907,0.00517473,0.00202536,0.390726,0.00301103,0.0121337,1980,1205,50.2647,-6.24793
763,-181,50.2789,5.72815,0.0065161,0.00451375,0.00120898,0.00708463,0.00394522,0.439572,0.00409912,0.0168706,1987,1205,50.279,-5.7281
770,-181,50.5089,5.04272,0.00818269,0.00737873,0.00126042,0.00910368,0.00645773,0.631034,0.00540741,0.0466024,1994,1205,50.5089,-5.04272
777,-181,50.8669,4.19031,0,0,0,0,0,0,0,-1,2001,1205,50.8669,-4.19029
784,-181,49.4673,-0.801392,0,0,0,0,0,0,0,-1,2008,1205,49.4674,0.801388
791,-181,51.4558,0.762085,0,0,0,0,0,0,0,-1,2015,1205,51.4558,-0.762099
798,-181,45.8289,4.4198,0,0,0,0,0,0,0,-1,2022,1205,45.8288,-4.41985
805,-181,0,0,0,0,0,0,0,0,0,-1,2029,1205,0,0
812,-181,0,0,0,0,0,0,0,0,0,-1,2036,1205,0,0
-700,-188,0,0,0,0,0,0,0,0,0,-1,524,1212,0,0
-693,-188,0,0,0,0,0,0,0,0,0,-1,531,1212,0,0
-686,-188,0,0,0,0,0,0,0,0,0,-1,538,1212,0,0
-679,-188,-36.5822,-1.40405,0,0,0,0,0,0,0,-1,545,1212,-36.5822,1.40411
-672,-188,-37.6707,-0.718018,0,0,0,0,0,0,0,-1,552,1212,-37.6706,0.718002
-665,-188,-38.6347,-0.669922,0,0,0,0,0,0,0,-1,559,1212,-38.6347,0.66989
-658,-188,-33.9095,1.36597,0,0,0,0,0,0,0,-1,566,1212,-33.9095,-1.36598
-651,-188,-34.1896,1.69409,0.00913904,0.0229296,0.0133938,0.0310988,0.000969846,1.02311,0.0204169,0.0463291,573,1212,-34.1896,-1.69406
-644,-188,-34.3153,2.14966,0.00649236,0.0162485,0.00952644,0.0220731,0.000667674,1.02202,0.014498,0.0443688,580,1212,-34.3153,-2.14961
-637,-188,-34.3884,2.74731,0.00401628,0.0111298,0.00641634,0.0149092,0.000236824,1.03848,0.00986149,0.0238389,587,1212,-34.3884,-2.74734
-630,-188,-34.4706,3.32568,0.00206036,0.00722617,0.00381957,0.00925418,3.23546e-05,1.08269,0.0061587,0.0112879,594,1212,-34.4707,-3.32572
-623,-188,-34.5073,3.90906,0.000474066,0.00412202,0.00173425,0.00481488,-0.000218801,1.1907,0.00328529,0.0111209,601,1212,-34.5073,-3.90902
-616,-188,-34.5023,4.49438,-0.000780025,0.00165221,0.000127655,0.00165889,-0.000786707,1.5185,0.00144159,0.0106774,608,1212,-34.5023,-4.49438
-609,-188,-34.4808,5.09192,-0.001814,-0.000119736,-0.0010493,0.000381712,-0.00231544,-1.12499,0.00168534,0.0138054,615,1212,-34.4808,-5.09194
-602,-188,-34.4753,5.70923,-0.00220042,-0.000880666,-0.0013843,-7.00797e-06,-0.00307408,-1.00781,0.00204705,0.0195676,622,1212,-34.4753,-5.7092
-595,-188,-34.6304,6.21411,-0.00231261,-0.000436918,-0.000811851,-0.000134339,-0.00261519,-1.21404,0.00170045,0.0343202,629,1212,-34.6304,-6.21406
-588,-188,-34.8903,6.82129,-0.00234768,5.55678e-05,-0.000933288,0.000375432,-0.00266755,-1.24061,0.00191581,0.0285112,636,1212,-34.8903,-6.82125
-581,-188,-34.8594,7.36023,0,0,0,0,0,0,0,-1,643,1212,-34.8595,-7.36027
-574,-188,-35.0789,7.80969,0,0,0,0,0,0,0,-1,650,1212,-35.0789,-7.80971
-567,-188,-19.5786,4.10388,0,0,0,0,0,0,0,-1,657,1212,-19.5785,-4.10383
-560,-188,-23.9507,0.416626,0,0,0,0,0,0,0,-1,664,1212,-23.9508,-0.416602
-553,-188,-45.5684,0.783936,0,0,0,0,0,0,0,-1,671,1212,-45.5684,-0.783989
-546,-188,-45.5952,0.887939,0.00287474,-0.00121062,-0.00240107,0.00398447,-0.00232035,-0.432937,0.00368211,0.0485835,678,1212,-45.5952,-0.887997
-539,-188,-45.6631,0.998047,0.00388808,-0.00113214,-0.00287634,0.00519556,-0.00243962,-0.426643,0.00450288,0.0396635,685,1212,-45.6631,-0.997989
-532,-188,-45.5947,0.946411,0.00487567,-0.00114988,-0.00350211,0.0064826,-0.0027568,-0.430184,0.00547703,0.0416709,692,1212,-45.5947,-0.946355
-525,-188,-45.5823,1.06592,0.00690481,-0.00148383,-0.00480032,0.00908508,-0.0036641,-0.426335,0.0075793,0.0415956,699,1212,-45.5823,-1.06592
-518,-188,-45.5864,1.09387,0.0109718,-0.00131263,-0.00609757,0.0134845,-0.0038253,-0.390874,0.0104997,0.0426687,706,1212,-45.5864,-1.09386
-511,-188,-45.5389,0.820923,0,0,0,0,0,0,0,-1,713,1212,-45.5389,-0.820922
-504,-188,0,0,0,0,0,0,0,0,0,-1,720,1212,0,0
-497,-188,0,0,0,0,0,0,0,0,0,-1,727,1212,0,0
-490,-188,0,0,0,0,0,0,0,0,0,-1,734,1212,0,0
-483,-188,0,0,0,0,0,0,0,0,0,-1,741,1212,0,0
-476,-188,0,0,0,0,0,0,0,0,0,-1,748,1212,0,0
-469,-188,0,0,0,0,0,0,0,0,0,-1,755,1212,0,0
-462,-188,0,0,0,0,0,0,0,0,0,-1,762,1212,0,0
-455,-188,0,0,0,0,0,0,0,0,0,-1,769,1212,0,0
-448,-188,0,0,0,0,0,0,0,0,0,-1,776,1212,0,0
-441,-188,0,0,0,0,0,0,0,0,0,-1,783,1212,0,0
-434,-188,0,0,0,0,0,0,0,0,0,-1,790,1212,0,0
-427,-188,0,0,0,0,0,0,0,0,0,-1,797,1212,0,0
-420,-188,0,0,0,0,0,0,0,0,0,-1,804,1212,0,0
-413,-188,0,0,0,0,0,0,0,0,0,-1,811,1212,0,0
-406,-188,0,0,0,0,0,0,0,0,0,-1,818,1212,0,0
-399,-188,0,0,0,0,0,0,0,0,0,-1,825,1212,0,0
-392,-188,0,0,0,0,0,0,0,0,0,-1,832,1212,0,0
-385,-188,0,0,0,0,0,0,0,0,0,-1,839,1212,0,0
-378,-188,0,0,0,0,0,0,0,0,0,-1,846,1212,0,0
-371,-188,0,0,0,0,0,0,0,0,0,-1,853,1212,0,0
-364,-188,0,0,0,0,0,0,0,0,0,-1,860,1212,0,0
-357,-188,0,0,0,0,0,0,0,0,0,-1,867,1212,0,0
-350,-188,0,0,0,0,0,0,0,0,0,-1,874,1212,0,0
-343,-188,0,0,0,0,0,0,0,0,0,-1,881,1212,0,0
-336,-188,0,0,0,0,0,0,0,0,0,-1,888,1212,0,0
-329,-188,0,0,0,0,0,0,0,0,0,-1,895,1212,0,0
-322,-188,0,0,0,0,0,0,0,0,0,-1,902,1212,0,0
-315,-188,0,0,0,0,0,0,0,0,0,-1,909,1212,0,0
-308,-188,0,0,0,0,0,0,0,0,0,-1,916,1212,0,0
-301,-188,0,0,0,0,0,0,0,0,0,-1,923,1212,0,0
-294,-188,0,0,0,0,0,0,0,0,0,-1,930,1212,0,0
-287,-188,0,0,0,0,0,0,0,0,0,-1,937,1212,0,0
-280,-188,0,0,0,0,0,0,0,0,0,-1,944,1212,0,0
-273,-188,0,0,0,0,0,0,0,0,0,-1,951,1212,0,0
-266,-188,0,0,0,0,0,0,0,0,0,-1,958,1212,0,0
-259,-188,0,0,0,0,0,0,0,0,0,-1,965,1212,0,0
-252,-188,0,0,0,0,0,0,0,0,0,-1,972,1212,0,0
-245,-188,0,0,0,0,0,0,0,0,0,-1,979,1212,0,0
-238,-188,0,0,0,0,0,0,0,0,0,-1,986,1212,0,0
-231,-188,0,0,0,0,0,0,0,0,0,-1,993,1212,0,0
-224,-188,0,0,0,0,0,0,0,0,0,-1,1000,1212,0,0
-217,-188,0,0,0,0,0,0,0,0,0,-1,1007,1212,0,0
-210,-188,0,0,0,0,0,0,0,0,0,-1,1014,1212,0,0
-203,-188,0,0,0,0,0,0,0,0,0,-1,1021,1212,0,0
-196,-188,0,0,0,0,0,0,0,0,0,-1,1028,1212,0,0
-189,-188,0,0,0,0,0,0,0,0,0,-1,1035,1212,0,0
-182,-188,0,0,0,0,0,0,0,0,0,-1,1042,1212,0,0
-175,-188,0,0,0,0,0,0,0,0,0,-1,1049,1212,0,0
-168,-188,0,0,0,0,0,0,0,0,0,-1,1056,1212,0,0
-161,-188,0,0,0,0,0,0,0,0,0,-1,1063,1212,0,0
-154,-188,0,0,0,0,0,0,0,0,0,-1,1070,1212,0,0
-147,-188,0,0,0,0,0,0,0,0,0,-1,1077,1212,0,0
-140,-188,0,0,0,0,0,0,0,0,0,-1,1084,1212,0,0
-133,-188,0,0,0,0,0,0,0,0,0,-1,1091,1212,0,0
-126,-188,0,0,0,0,0,0,0,0,0,-1,1098,1212,0,0
-119,-188,0,0,0,0,0,0,0,0,0,-1,1105,1212,0,0
-112,-188,0,0,0,0,0,0,0,0,0,-1,1112,1212,0,0
-105,-188,0,0,0,0,0,0,0,0,0,-1,1119,1212,0,0
-98,-188,0,0,0,0,0,0,0,0,0,-1,1126,1212,0,0
-91,-188,0,0,0,0,0,0,0,0,0,-1,1133,1212,0,0
-84,-188,0,0,0,0,0,0,0,0,0,-1,1140,1212,0,0
-77,-188,0,0,0,0,0,0,0,0,0,-1,1147,1212,0,0
-70,-188,0,0,0,0,0,0,0,0,0,-1,1154,1212,0,0
-63,-188,0,0,0,0,0,0,0,0,0,-1,1161,1212,0,0
-56,-188,0,0,0,0,0,0,0,0,0,-1,1168,1212,0,0
-49,-188,0,0,0,0,0,0,0,0,0,-1,1175,1212,0,0
-42,-188,0,0,0,0,0,0,0,0,0,-1,1182,1212,0,0
-35,-188,0,0,0,0,0,0,0,0,0,-1,1189,1212,0,0
-28,-188,0,0,0,0,0,0,0,0,0,-1,1196,1212,0,0
-21,-188,0,0,0,0,0,0,0,0,0,-1,1203,1212,0,0
-14,-188,0,0,0,0,0,0,0,0,0,-1,1210,1212,0,0
-7,-188,0,0,0,0,0,0,0,0,0,-1,1217,1212,0,0
0,-188,0,0,0,0,0,0,0,0,0,-1,1224,1212,0,0
7,-188,0,0,0,0,0,0,0,0,0,-1,1231,1212,0,0
14,-188,0,0,0,0,0,0,0,0,0,-1,1238,1212,0,0
21,-188,0,0,0,0,0,0,0,0,0,-1,1245,1212,0,0
28,-188,0,0,0,0,0,0,0,0,0,-1,1252,1212,0,0
35,-188,0,0,0,0,0,0,0,0,0,-1,1259,1212,0,0
42,-188,0,0,0,0,0,0,0,0,0,-1,1266,1212,0,0
49,-188,0,0,0,0,0,0,0,0,0,-1,1273,1212,0,0
56,-188,0,0,0,0,0,0,0,0,0,-1,1280,1212,0,0
63,-188,0,0,0,0,0,0,0,0,0,-1,1287,1212,0,0
70,-188,0,0,0,0,0,0,0,0,0,-1,1294,1212,0,0
77,-188,0,0,0,0,0,0,0,0,0,-1,1301,1212,0,0
84,-188,0,0,0,0,0,0,0,0,0,-1,1308,1212,0,0
91,-188,0,0,0,0,0,0,0,0,0,-1,1315,1212,0,0
98,-188,0,0,0,0,0,0,0,0,0,-1,1322,1212,0,0
105,-188,0,0,0,0,0,0,0,0,0,-1,1329,1212,0,0
112,-188,0,0,0,0,0,0,0,0,0,-1,1336,1212,0,0
119,-188,0,0,0,0,0,0,0,0,0,-1,1343,1212,0,0
126,-188,0,0,0,0,0,0,0,0,0,-1,1350,1212,0,0
133,-188,0,0,0,0,0,0,0,0,0,-1,1357,1212,0,0
140,-188,0,0,0,0,0,0,0,0,0,-1,1364,1212,0,0
147,-188,0,0,0,0,0,0,0,0,0,-1,1371,1212,0,0
154,-188,0,0,0,0,0,0,0,0,0,-1,1378,1212,0,0
161,-188,0,0,0,0,0,0,0,0,0,-1,1385,1212,0,0
168,-188,0,0,0,0,0,0,0,0,0,-1,1392,1212,0,0
175,-188,0,0,0,0,0,0,0,0,0,-1,1399,1212,0,0
182,-188,0,0,0,0,0,0,0,0,0,-1,1406,1212,0,0
189,-188,0,0,0,0,0,0,0,0,0,-1,1413,1212,0,0
196,-188,0,0,0,0,0,0,0,0,0,-1,1420,1212,0,0
203,-188,0,0,0,0,0,0,0,0,0,-1,1427,1212,0,0
210,-188,0,0,0,0,0,0,0,0,0,-1,1434,1212,0,0
217,-188,0,0,0,0,0,0,0,0,0,-1,1441,1212,0,0
224,-188,0,0,0,0,0,0,0,0,0,-1,1448,1212,0,0
231,-188,0,0,0,0,0,0,0,0,0,-1,1455,1212,0,0
238,-188,0,0,0,0,0,0,0,0,0,-1,1462,1212,0,0
245,-188,0,0,0,0,0,0,0,0,0,-1,1469,1212,0,0
252,-188,0,0,0,0,0,0,0,0,0,-1,1476,1212,0,0
259,-188,0,0,0,0,0,0,0,0,0,-1,1483,1212,0,0
266,-188,0,0,0,0,0,0,0,0,0,-1,1490,1212,0,0
273,-188,0,0,0,0,0,0,0,0,0,-1,1497,1212,0,0
280,-188,0,0,0,0,0,0,0,0,0,-1,1504,1212,0,0
287,-188,0,0,0,0,0,0,0,0,0,-1,1511,1212,0,0
294,-188,0,0,0,0,0,0,0,0,0,-1,1518,1212,0,0
301,-188,0,0,0,0,0,0,0,0,0,-1,1525,1212,0,0
308,-188,0,0,0,0,0,0,0,0,0,-1,1532,1212,0,0
315,-188,0,0,0,0,0,0,0,0,0,-1,1539,1212,0,0
322,-188,0,0,0,0,0,0,0,0,0,-1,1546,1212,0,0
329,-188,0,0,0,0,0,0,0,0,0,-1,1553,1212,0,0
336,-188,0,0,0,0,0,0,0,0,0,-1,1560,1212,0,0
343,-188,0,0,0,0,0,0,0,0,0,-1,1567,1212,0,0
350,-188,0,0,0,0,0,0,0,0,0,-1,1574,1212,0,0
357,-188,0,0,0,0,0,0,0,0,0,-1,1581,1212,0,0
364,-188,0,0,0,0,0,0,0,0,0,-1,1588,1212,0,0
371,-188,0,0,0,0,0,0,0,0,0,-1,1595,1212,0,0
378,-188,0,0,0,0,0,0,0,0,0,-1,1602,1212,0,0
385,-188,0,0,0,0,0,0,0,0,0,-1,1609,1212,0,0
392,-188,0,0,0,0,0,0,0,0,0,-1,1616,1212,0,0
399,-188,0,0,0,0,0,0,0,0,0,-1,1623,1212,0,0
406,-188,0,0,0,0,0,0,0,0,0,-1,1630,1212,0,0
413,-188,0,0,0,0,0,0,0,0,0,-1,1637,1212,0,0
420,-188,0,0,0,0,0,0,0,0,0,-1,1644,1212,0,0
427,-188,0,0,0,0,0,0,0,0,0,-1,1651,1212,0,0
434,-188,0,0,0,0,0,0,0,0,0,-1,1658,1212,0,0
441,-188,0,0,0,0,0,0,0,0,0,-1,1665,1212,0,0
448,-188,0,0,0,0,0,0,0,0,0,-1,1672,1212,0,0
455,-188,0,0,0,0,0,0,0,0,0,-1,1679,1212,0,0
462,-188,0,0,0,0,0,0,0,0,0,-1,1686,1212,0,0
469,-188,0,0,0,0,0,0,0,0,0,-1,1693,1212,0,0
476,-188,0,0,0,0,0,0,0,0,0,-1,1700,1212,0,0
483,-188,0,0,0,0,0,0,0,0,0,-1,1707,1212,0,0
490,-188,0,0,0,0,0,0,0,0,0,-1,1714,1212,0,0
497,-188,0,0,0,0,0,0,0,0,0,-1,1721,1212,0,0
504,-188,0,0,0,0,0,0,0,0,0,-1,1728,1212,0,0
511,-188,0,0,0,0,0,0,0,0,0,-1,1735,1212,0,0
518,-188,0,0,0,0,0,0,0,0,0,-1,1742,1212,0,0
525,-188,0,0,0,0,0,0,0,0,0,-1,1749,1212,0,0
532,-188,0,0,0,0,0,0,0,0,0,-1,1756,1212,0,0
539,-188,0,0,0,0,0,0,0,0,0,-1,1763,1212,0,0
546,-188,0,0,0,0,0,0,0,0,0,-1,1770,1212,0,0
553,-188,0,0,0,0,0,0,0,0,0,-1,1777,1212,0,0
560,-188,0,0,0,0,0,0,0,0,0,-1,1784,1212,0,0
567,-188,0,0,0,0,0,0,0,0,0,-1,1791,1212,0,0
574,-188,0,0,0,0,0,0,0,0,0,-1,1798,1212,0,0
581,-188,0,0,0,0,0,0,0,0,0,-1,1805,1212,0,0
588,-188,0,0,0,0,0,0,0,0,0,-1,1812,1212,0,0
595,-188,0,0,0,0,0,0,0,0,0,-1,1819,1212,0,0
602,-188,0,0,0,0,0,0,0,0,0,-1,1826,1212,0,0
609,-188,0,0,0,0,0,0,0,0,0,-1,1833,1212,0,0
616,-188,0,0,0,0,0,0,0,0,0,-1,1840,1212,0,0
623,-188,0,0,0,0,0,0,0,0,0,-1,1847,1212,0,0
630,-188,60.608,2.58679,-1.0329e-05,0.00322304,0.00137176,0.00372659,-0.000513879,1.21898,0.00267221,0.0384095,1854,1212,60.6081,-2.58685
637,-188,60.5642,2.49707,0.000328071,0.00260817,0.000886208,0.0029121,2.41407e-05,1.24041,0.0019334,0.0382743,1861,1212,60.5642,-2.49713
644,-188,60.5316,2.56006,0.000987688,0.00193823,0.000415321,0.00209413,0.00083179,1.2117,0.00121753,0.0367133,1868,1212,60.5316,-2.56012
651,-188,60.5031,2.70056,0.00186629,0.00125462,-5.08134e-05,0.00187048,0.00125043,-0.082321,0.00110018,0.0333662,1875,1212,60.5031,-2.7006
658,-188,60.6361,2.76038,0.00265118,0.000508326,-0.00037008,0.0027133,0.000446212,-0.166289,0.00168,0.0312316,1882,1212,60.6361,-2.76036
665,-188,60.626,2.75403,0.00312776,-0.000217995,-0.000516563,0.0032057,-0.000295934,-0.149749,0.00224229,0.0295543,1889,1212,60.626,-2.75409
672,-188,60.6361,2.69995,0.00339008,-0.000654802,-0.000551643,0.00346396,-0.000728686,-0.133142,0.00258665,0.0254987,1896,1212,60.6361,-2.69994
679,-188,60.6766,2.61499,0,0,0,0,0,0,0,-1,1903,1212,60.6766,-2.61498
686,-188,60.1007,2.41321,0,0,0,0,0,0,0,-1,1910,1212,60.1007,-2.41325
693,-188,35.9054,2.18042,0,0,0,0,0,0,0,-1,1917,1212,35.9054,-2.18038
700,-188,49.8562,10.5465,0,0,0,0,0,0,0,-1,1924,1212,49.8562,-10.5465
707,-188,49.9558,10.1106,0.00293381,-0.00126233,-0.000112405,0.00293682,-0.00126534,-0.0267621,0.00248927,0.0491315,1931,1212,49.9558,-10.1106
714,-188,50.1322,9.56177,0,0,0,0,0,0,0,-1,1938,1212,50.1322,-9.56174
721,-188,49.5436,9.1416,0,0,0,0,0,0,0,-1,1945,1212,49.5435,-9.14157
728,-188,49.7493,8.4624,0.00199229,-0.000990283,0.000162499,0.00200112,-0.00099911,0.0542688,0.00176409,0.0238606,1952,1212,49.7493,-8.46239
735,-188,49.7754,7.89514,0.00217069,-0.000567556,0.000364043,0.00221827,-0.000615128,0.129941,0.00172093,0.0145761,1959,1212,49.7754,-7.89511
742,-188,49.738,7.3584,0.00270272,-0.000180367,0.000642905,0.00283959,-0.000317233,0.209754,0.00200718,0.015832,1966,1212,49.738,-7.35838
749,-188,49.7343,6.81042,0.00389781,0.000384538,0.000817279,0.00407863,0.000203724,0.217732,0.00265379,0.0145683,1973,1212,49.7342,-6.81048
756,-188,49.7146,6.25317,0.00550563,0.00200102,0.00084961,0.00570074,0.00180592,0.225728,0.00336417,0.0133426,1980,1212,49.7147,-6.25314
763,-188,49.713,5.70898,0.00785966,0.00359558,0.000572414,0.00793516,0.00352007,0.131148,0.00459107,0.0182256,1987,1212,49.713,-5.70901
770,-188,49.7062,5.08716,0.0104888,0.00587602,-6.16847e-05,0.0104896,0.00587519,-0.0133694,0.00607074,0.0401481,1994,1212,49.7062,-5.08714
777,-188,49.8088,4.46191,0,0,0,0,0,0,0,-1,2001,1212,49.8087,-4.46187
784,-188,50.2876,-0.510742,0,0,0,0,0,0,0,-1,2008,1212,50.2875,0.510762
791,-188,51.6936,0.835083,0,0,0,0,0,0,0,-1,2015,1212,51.6937,-0.835076
798,-188,52.3022,2.24426,0,0,0,0,0,0,0,-1,2022,1212,52.3023,-2.24429
805,-188,0,0,0,0,0,0,0,0,0,-1,2029,1212,0,0
812,-188,0,0,0,0,0,0,0,0,0,-1,2036,1212,0,0
-700,-195,0,0,0,0,0,0,0,0,0,-1,524,1219,0,0
-693,-195,0,0,0,0,0,0,0,0,0,-1,531,1219,0,0
-686,-195,0,0,0,0,0,0,0,0,0,-1,538,1219,0,0
-679,-195,-36.2287,-1.37939,0,0,0,0,0,0,0,-1,545,1219,-36.2287,1.37945
-672,-195,-38.7916,0.643799,0,0,0,0,0,0,0,-1,552,1219,-38.7916,-0.643769
-665,-195,-39.5106,0.0283203,0,0,0,0,0,0,0,-1,559,1219,-39.5106,-0.0282618
-658,-195,-34.412,0.433105,0,0,0,0,0,0,0,-1,566,1219,-34.412,-0.433089
-651,-195,-34.1508,1.12439,0.0109682,0.0209087,0.0157963,0.0324982,-0.00062136,0.937818,0.0218755,0.0441182,573,1219,-34.1508,-1.12441
-644,-195,-33.8283,1.99231,0.00770599,0.0153011,0.0110316,0.0231704,-0.000163374,0.951167,0.0155017,0.0398824,580,1219,-33.8283,-1.99225
-637,-195,-33.731,2.75903,0.00487498,0.0108124,0.00740379,0.0158205,-0.000133097,0.976071,0.0105917,0.0234337,587,1219,-33.731,-2.75906
-630,-195,-33.8623,3.34888,0.0027706,0.00731801,0.00454491,0.0101262,-3.76152e-05,1.01733,0.00676339,0.00898737,594,1219,-33.8623,-3.34889
-623,-195,-33.8996,3.93518,0.00115387,0.00446612,0.00232853,0.00566741,-4.74181e-05,1.09451,0.00379418,0.008479,601,1219,-33.8996,-3.93512
-616,-195,-33.9095,4.53015,-8.62244e-06,0.00229178,0.000692664,0.00248424,-0.000201085,1.29977,0.00172709,0.0102977,608,1219,-33.9095,-4.53016
-609,-195,-33.8658,5.15466,-0.00085977,0.000583901,-0.000525188,0.000754741,-0.00103061,-1.2563,0.00103487,0.0183538,615,1219,-33.8658,-5.15472
-602,-195,-33.9207,5.74622,-0.00120805,-0.000428542,-0.00109103,0.000340258,-0.00197685,-0.956952,0.00144474,0.0219597,622,1219,-33.9206,-5.74626
-595,-195,-33.9987,6.32495,-0.00138767,-0.000340978,-0.000701708,1.10522e-05,-0.0017397,-1.10581,0.0011635,0.0290491,629,1219,-33.9987,-6.32499
-588,-195,-34.0651,7.02075,-0.00153494,8.37468e-05,-0.000789542,0.000405073,-0.00185626,-1.18429,0.00139232,0.0287901,636,1219,-34.0651,-7.02075
-581,-195,-33.806,7.65881,0,0,0,0,0,0,0,-1,643,1219,-33.806,-7.65876
-574,-195,-34.2657,7.45642,0,0,0,0,0,0,0,-1,650,1219,-34.2657,-7.45643
-567,-195,-20.6388,3.78369,0,0,0,0,0,0,0,-1,657,1219,-20.6388,-3.78369
-560,-195,-20.878,2.10388,0,0,0,0,0,0,0,-1,664,1219,-20.878,-2.10385
-553,-195,-41.595,0.613281,0,0,0,0,0,0,0,-1,671,1219,-41.595,-0.61334
-546,-195,-45.6616,1.15808,0,0,0,0,0,0,0,-1,678,1219,-45.6616,-1.15805
-539,-195,-45.6214,1.01001,0.00339168,-0.00079162,-0.00276185,0.00476454,-0.00216448,-0.461308,0.00409327,0.0401772,685,1219,-45.6214,-1.01007
-532,-195,-45.6345,0.902588,0.0037176,-0.000643544,-0.00313308,0.00535424,-0.00228018,-0.481385,0.00452527,0.0349995,692,1219,-45.6345,-0.902562
-525,-195,-45.5688,1.02063,0.00454958,-0.000684306,-0.00388579,0.00661748,-0.00275221,-0.489051,0.00556091,0.0405224,699,1219,-45.5688,-1.02057
-518,-195,-45.4859,0.958008,0.00720568,-0.000406281,-0.00449338,0.00928832,-0.00248893,-0.434018,0.00716739,0.0427859,706,1219,-45.4859,-0.958048
-511,-195,-45.3803,0.784912,0.0138173,0.0001976,-0.00588494,0.0160078,-0.00199291,-0.356334,0.0113944,0.0430243,713,1219,-45.3803,-0.78497
-504,-195,0,0,0,0,0,0,0,0,0,-1,720,1219,0,0
-497,-195,0,0,0,0,0,0,0,0,0,-1,727,1219,0,0
-490,-195,0,0,0,0,0,0,0,0,0,-1,734,1219,0,0
-483,-195,0,0,0,0,0,0,0,0,0,-1,741,1219,0,0
-476,-195,0,0,0,0,0,0,0,0,0,-1,748,1219,0,0
-469,-195,0,0,0,0,0,0,0,0,0,-1,755,1219,0,0
-462,-195,0,0,0,0,0,0,0,0,0,-1,762,1219,0,0
-455,-195,0,0,0,0,0,0,0,0,0,-1,769,1219,0,0
-448,-195,0,0,0,0,0,0,0,0,0,-1,776,1219,0,0
-441,-195,0,0,0,0,0,0,0,0,0,-1,783,1219,0,0
-434,-195,0,0,0,0,0,0,0,0,0,-1,790,1219,0,0
-427,-195,0,0,0,0,0,0,0,0,0,-1,797,1219,0,0
-420,-195,0,0,0,0,0,0,0,0,0,-1,804,1219,0,0
-413,-195,0,0,0,0,0,0,0,0,0,-1,811,1219,0,0
-406,-195,0,0,0,0,0,0,0,0,0,-1,818,1219,0,0
-399,-195,0,0,0,0,0,0,0,0,0,-1,825,1219,0,0
-392,-195,0,0,0,0,0,0,0,0,0,-1,832,1219,0,0
-385,-195,0,0,0,0,0,0,0,0,0,-1,839,1219,0,0
-378,-195,0,0,0,0,0,0,0,0,0,-1,846,1219,0,0
-371,-195,0,0,0,0,0,0,0,0,0,-1,853,1219,0,0
-364,-195,0,0,0,0,0,0,0,0,0,-1,860,1219,0,0
-357,-195,0,0,0,0,0,0,0,0,0,-1,867,1219,0,0
-350,-195,0,0,0,0,0,0,0,0,0,-1,874,1219,0,0
-343,-195,0,0,0,0,0,0,0,0,0,-1,881,1219,0,0
-336,-195,0,0,0,0,0,0,0,0,0,-1,888,1219,0,0
-329,-195,0,0,0,0,0,0,0,0,0,-1,895,1219,0,0
-322,-195,0,0,0,0,0,0,0,0,0,-1,902,1219,0,0
-315,-195,0,0,0,0,0,0,0,0,0,-1,909,1219,0,0
-308,-195,0,0,0,0,0,0,0,0,0,-1,916,1219,0,0
-301,-195,0,0,0,0,0,0,0,0,0,-1,923,1219,0,0
-294,-195,0,0,0,0,0,0,0,0,0,-1,930,1219,0,0
-287,-195,0,0,0,0,0,0,0,0,0,-1,937,1219,0,0
-280,-195,0,0,0,0,0,0,0,0,0,-1,944,1219,0,0
-273,-195,0,0,0,0,0,0,0,0,0,-1,951,1219,0,0
-266,-195,0,0,0,0,0,0,0,0,0,-1,958,1219,0,0
-259,-195,0,0,0,0,0,0,0,0,0,-1,965,1219,0,0
-252,-195,0,0,0,0,0,0,0,0,0,-1,972,1219,0,0
-245,-195,0,0,0,0,0,0,0,0,0,-1,979,1219,0,0
-238,-195,0,0,0,0,0,0,0,0,0,-1,986,1219,0,0
-231,-195,0,0,0,0,0,0,0,0,0,-1,993,1219,0,0
-224,-195,0,0,0,0,0,0,0,0,0,-1,1000,1219,0,0
-217,-195,0,0,0,0,0,0,0,0,0,-1,1007,1219,0,0
-210,-195,0,0,0,0,0,0,0,0,0,-1,1014,1219,0,0
-203,-195,0,0,0,0,0,0,0,0,0,-1,1021,1219,0,0
-196,-195,0,0,0,0,0,0,0,0,0,-1,1028,1219,0,0
-189,-195,0,0,0,0,0,0,0,0,0,-1,1035,1219,0,0
-182,-195,0,0,0,0,0,0,0,0,0,-1,1042,1219,0,0
-175,-195,0,0,0,0,0,0,0,0,0,-1,1049,1219,0,0
-168,-195,0,0,0,0,0,0,0,0,0,-1,1056,1219,0,0
-161,-195,0,0,0,0,0,0,0,0,0,-1,1063,1219,0,0
-154,-195,0,0,0,0,0,0,0,0,0,-1,1070,1219,0,0
-147,-195,0,0,0,0,0,0,0,0,0,-1,1077,1219,0,0
-140,-195,0,0,0,0,0,0,0,0,0,-1,1084,1219,0,0
-133,-195,0,0,0,0,0,0,0,0,0,-1,1091,1219,0,0
-126,-195,0,0,0,0,0,0,0,0,0,-1,1098,1219,0,0
-119,-195,0,0,0,0,0,0,0,0,0,-1,1105,1219,0,0
-112,-195,0,0,0,0,0,0,0,0,0,-1,1112,1219,0,0
-105,-195,0,0,0,0,0,0,0,0,0,-1,1119,1219,0,0
-98,-195,0,0,0,0,0,0,0,0,0,-1,1126,1219,0,0
-91,-195,0,0,0,0,0,0,0,0,0,-1,1133,1219,0,0
-84,-195,0,0,0,0,0,0,0,0,0,-1,1140,1219,0,0
-77,-195,0,0,0,0,0,0,0,0,0,-1,1147,1219,0,0
-70,-195,0,0,0,0,0,0,0,0,0,-1,1154,1219,0,0
-63,-195,0,0,0,0,0,0,0,0,0,-1,1161,1219,0,0
-56,-195,0,0,0,0,0,0,0,0,0,-1,1168,1219,0,0
-49,-195,0,0,0,0,0,0,0,0,0,-1,1175,1219,0,0
-42,-195,0,0,0,0,0,0,0,0,0,-1,1182,1219,0,0
-35,-195,0,0,0,0,0,0,0,0,0,-1,1189,1219,0,0
-28,-195,0,0,0,0,0,0,0,0,0,-1,1196,1219,0,0
-21,-195,0,0,0,0,0,0,0,0,0,-1,1203,1219,0,0
-14,-195,0,0,0,0,0,0,0,0,0,-1,1210,1219,0,0
-7,-195,0,0,0,0,0,0,0,0,0,-1,1217,1219,0,0
0,-195,0,0,0,0,0,0,0,0,0,-1,1224,1219,0,0
7,-195,0,0,0,0,0,0,0,0,0,-1,1231,1219,0,0
14,-195,0,0,0,0,0,0,0,0,0,-1,1238,1219,0,0
21,-195,0,0,0,0,0,0,0,0,0,-1,1245,1219,0,0
28,-195,0,0,0,0,0,0,0,0,0,-1,1252,1219,0,0
35,-195,0,0,0,0,0,0,0,0,0,-1,1259,1219,0,0
42,-195,0,0,0,0,0,0,0,0,0,-1,1266,1219,0,0
49,-195,0,0,0,0,0,0,0,0,0,-1,1273,1219,0,0
56,-195,0,0,0,0,0,0,0,0,0,-1,1280,1219,0,0
63,-195,0,0,0,0,0,0,0,0,0,-1,1287,1219,0,0
70,-195,0,0,0,0,0,0,0,0,0,-1,1294,1219,0,0
77,-195,0,0,0,0,0,0,0,0,0,-1,1301,1219,0,0
84,-195,0,0,0,0,0,0,0,0,0,-1,1308,1219,0,0
91,-195,0,0,0,0,0,0,0,0,0,-1,1315,1219,0,0
98,-195,0,0,0,0,0,0,0,0,0,-1,1322,1219,0,0
105,-195,0,0,0,0,0,0,0,0,0,-1,1329,1219,0,0
112,-195,0,0,0,0,0,0,0,0,0,-1,1336,1219,0,0
119,-195,0,0,0,0,0,0,0,0,0,-1,1343,1219,0,0
126,-195,0,0,0,0,0,0,0,0,0,-1,1350,1219,0,0
133,-195,0,0,0,0,0,0,0,0,0,-1,1357,1219,0,0
140,-195,0,0,0,0,0,0,0,0,0,-1,1364,1219,0,0
147,-195,0,0,0,0,0,0,0,0,0,-1,1371,1219,0,0
154,-195,0,0,0,0,0,0,0,0,0,-1,1378,1219,0,0
161,-195,0,0,0,0,0,0,0,0,0,-1,1385,1219,0,0
168,-195,0,0,0,0,0,0,0,0,0,-1,1392,1219,0,0
175,-195,0,0,0,0,0,0,0,0,0,-1,1399,1219,0,0
182,-195,0,0,0,0,0,0,0,0,0,-1,1406,1219,0,0
189,-195,0,0,0,0,0,0,0,0,0,-1,1413,1219,0,0
196,-195,0,0,0,0,0,0,0,0,0,-1,1420,1219,0,0
203,-195,0,0,0,0,0,0,0,0,0,-1,1427,1219,0,0
210,-195,0,0,0,0,0,0,0,0,0,-1,1434,1219,0,0
217,-195,0,0,0,0,0,0,0,0,0,-1,1441,1219,0,0
224,-195,0,0,0,0,0,0,0,0,0,-1,1448,1219,0,0
231,-195,0,0,0,0,0,0,0,0,0,-1,1455,1219,0,0
238,-195,0,0,0,0,0,0,0,0,0,-1,1462,1219,0,0
245,-195,0,0,0,0,0,0,0,0,0,-1,1469,1219,0,0
252,-195,0,0,0,0,0,0,0,0,0,-1,1476,1219,0,0
259,-195,0,0,0,0,0,0,0,0,0,-1,1483,1219,0,0
266,-195,0,0,0,0,0,0,0,0,0,-1,1490,1219,0,0
273,-195,0,0,0,0,0,0,0,0,0,-1,1497,1219,0,0
280,-195,0,0,0,0,0,0,0,0,0,-1,1504,1219,0,0
287,-195,0,0,0,0,0,0,0,0,0,-1,1511,1219,0,0
294,-195,0,0,0,0,0,0,0,0,0,-1,1518,1219,0,0
301,-195,0,0,0,0,0,0,0,0,0,-1,1525,1219,0,0
308,-195,0,0,0,0,0,0,0,0,0,-1,1532,1219,0,0
315,-195,0,0,0,0,0,0,0,0,0,-1,1539,1219,0,0
322,-195,0,0,0,0,0,0,0,0,0,-1,1546,1219,0,0
329,-195,0,0,0,0,0,0,0,0,0,-1,1553,1219,0,0
336,-195,0,0,0,0,0,0,0,0,0,-1,1560,1219,0,0
343,-195,0,0,0,0,0,0,0,0,0,-1,1567,1219,0,0
350,-195,0,0,0,0,0,0,0,0,0,-1,1574,1219,0,0
357,-195,0,0,0,0,0,0,0,0,0,-1,1581,1219,0,0
364,-195,0,0,0,0,0,0,0,0,0,-1,1588,1219,0,0
371,-195,0,0,0,0,0,0,0,0,0,-1,1595,1219,0,0
378,-195,0,0,0,0,0,0,0,0,0,-1,1602,1219,0,0
385,-195,0,0,0,0,0,0,0,0,0,-1,1609,1219,0,0
392,-195,0,0,0,0,0,0,0,0,0,-1,1616,1219,0,0
399,-195,0,0,0,0,0,0,0,0,0,-1,1623,1219,0,0
406,-195,0,0,0,0,0,0,0,0,0,-1,1630,1219,0,0
413,-195,0,0,0,0,0,0,0,0,0,-1,1637,1219,0,0
420,-195,0,0,0,0,0,0,0,0,0,-1,1644,1219,0,0
427,-195,0,0,0,0,0,0,0,0,0,-1,1651,1219,0,0
434,-195,0,0,0,0,0,0,0,0,0,-1,1658,1219,0,0
441,-195,0,0,0,0,0,0,0,0,0,-1,1665,1219,0,0
448,-195,0,0,0,0,0,0,0,0,0,-1,1672,1219,0,0
455,-195,0,0,0,0,0,0,0,0,0,-1,1679,1219,0,0
462,-195,0,0,0,0,0,0,0,0,0,-1,1686,1219,0,0
469,-195,0,0,0,0,0,0,0,0,0,-1,1693,1219,0,0
476,-195,0,0,0,0,0,0,0,0,0,-1,1700,1219,0,0
483,-195,0,0,0,0,0,0,0,0,0,-1,1707,1219,0,0
490,-195,0,0,0,0,0,0,0,0,0,-1,1714,1219,0,0
497,-195,0,0,0,0,0,0,0,0,0,-1,1721,1219,0,0
504,-195,0,0,0,0,0,0,0,0,0,-1,1728,1219,0,0
511,-195,0,0,0,0,0,0,0,0,0,-1,1735,1219,0,0
518,-195,0,0,0,0,0,0,0,0,0,-1,1742,1219,0,0
525,-195,0,0,0,0,0,0,0,0,0,-1,1749,1219,0,0
532,-195,0,0,0,0,0,0,0,0,0,-1,1756,1219,0,0
539,-195,0,0,0,0,0,0,0,0,0,-1,1763,1219,0,0
546,-195,0,0,0,0,0,0,0,0,0,-1,1770,1219,0,0
553,-195,0,0,0,0,0,0,0,0,0,-1,1777,1219,0,0
560,-195,0,0,0,0,0,0,0,0,0,-1,1784,1219,0,0
567,-195,0,0,0,0,0,0,0,0,0,-1,1791,1219,0,0
574,-195,0,0,0,0,0,0,0,0,0,-1,1798,1219,0,0
581,-195,0,0,0,0,0,0,0,0,0,-1,1805,1219,0,0
588,-195,0,0,0,0,0,0,0,0,0,-1,1812,1219,0,0
595,-195,0,0,0,0,0,0,0,0,0,-1,1819,1219,0,0
602,-195,0,0,0,0,0,0,0,0,0,-1,1826,1219,0,0
609,-195,0,0,0,0,0,0,0,0,0,-1,1833,1219,0,0
616,-195,0,0,0,0,0,0,0,0,0,-1,1840,1219,0,0
623,-195,0,0,0,0,0,0,0,0,0,-1,1847,1219,0,0
630,-195,60.6316,2.56946,0,0,0,0,0,0,0,-1,1854,1219,60.6316,-2.56947
637,-195,60.5284,2.32117,0,0,0,0,0,0,0,-1,1861,1219,60.5284,-2.32117
644,-195,60.6021,2.67969,0.00115066,0.00164207,0.000695984,0.00213444,0.000658282,0.955084,0.00126212,0.033736,1868,1219,60.6021,-2.67973
651,-195,60.5385,2.71472,0.00176617,0.00116589,-0.000116103,0.00178785,0.00114421,-0.184548,0.00104561,0.0272753,1875,1219,60.5385,-2.71468
658,-195,60.5913,2.72595,0.00242555,0.000496481,-0.000542291,0.00256755,0.000354487,-0.256092,0.00160662,0.0243729,1882,1219,60.5913,-2.72596
665,-195,60.6487,2.72388,0.00285451,-0.000199627,-0.000677826,0.00299819,-0.000343303,-0.208874,0.0021225,0.0235149,1889,1219,60.6486,-2.72385
672,-195,60.6764,2.59033,0.00319306,-0.000646637,-0.000698602,0.00331622,-0.000769792,-0.174495,0.00250712,0.0366293,1896,1219,60.6764,-2.59035
679,-195,60.6653,2.44666,0,0,0,0,0,0,0,-1,1903,1219,60.6653,-2.44662
686,-195,51.2117,1.94312,0,0,0,0,0,0,0,-1,1910,1219,51.2117,-1.9431
693,-195,24.4368,5.68298,0,0,0,0,0,0,0,-1,1917,1219,24.4368,-5.68293
700,-195,49.5396,10.7764,0,0,0,0,0,0,0,-1,1924,1219,49.5395,-10.7764
707,-195,49.3636,10.1476,0,0,0,0,0,0,0,-1,1931,1219,49.3637,-10.1476
714,-195,49.3612,9.54285,0,0,0,0,0,0,0,-1,1938,1219,49.3612,-9.54281
721,-195,49.1936,9.0802,0.00217801,-0.00134835,-0.000116815,0.00218188,-0.00135222,-0.0330778,0.00205907,0.0344296,1945,1219,49.1936,-9.08019
728,-195,49.2223,8.51086,0.00235438,-0.00129082,0.000114081,0.00235795,-0.00129438,0.0312554,0.00213827,0.0115719,1952,1219,49.2223,-8.51085
735,-195,49.212,7.90332,0.00242231,-0.000803342,0.000409504,0.00247348,-0.000854517,0.124325,0.00199577,0.0130081,1959,1219,49.212,-7.90327
742,-195,49.1888,7.37683,0.00267286,-0.000392727,0.00087857,0.0029068,-0.000626666,0.260234,0.00217703,0.0161035,1966,1219,49.1889,-7.37684
749,-195,49.1633,6.84119,0.0035247,0.000122069,0.00121906,0.00391637,-0.000269601,0.310871,0.00270526,0.0152873,1973,1219,49.1634,-6.84118
756,-195,49.1548,6.2926,0.00505853,0.00134665,0.00128442,0.00545964,0.00094555,0.302688,0.0033691,0.0146859,1980,1219,49.1547,-6.29263
763,-195,49.158,5.71802,0.00752256,0.00250759,0.000971034,0.00770401,0.00232614,0.184735,0.00456275,0.0210579,1987,1219,49.158,-5.71798
770,-195,49.0775,5.2489,0.0106471,0.00421882,2.09848e-05,0.0106471,0.00421875,0.00326441,0.0061911,0.0417239,1994,1219,49.0775,-5.24886
777,-195,49.082,4.92297,0,0,0,0,0,0,0,-1,2001,1219,49.082,-4.92297
784,-195,51.2444,-0.069458,0,0,0,0,0,0,0,-1,2008,1219,51.2443,0.0694704
791,-195,50.6421,1.65222,0,0,0,0,0,0,0,-1,2015,1219,50.6422,-1.65218
798,-195,53.3943,2.08484,0,0,0,0,0,0,0,-1,2022,1219,53.3943,-2.08489
805,-195,0,0,0,0,0,0,0,0,0,-1,2029,1219,0,0
812,-195,0,0,0,0,0,0,0,0,0,-1,2036,1219,0,0
-700,-202,0,0,0,0,0,0,0,0,0,-1,524,1226,0,0
-693,-202,0,0,0,0,0,0,0,0,0,-1,531,1226,0,0
-686,-202,0,0,0,0,0,0,0,0,0,-1,538,1226,0,0
-679,-202,-35.6099,-1.17578,0,0,0,0,0,0,0,-1,545,1226,-35.6099,1.17576
-672,-202,-39.5427,1.41809,0,0,0,0,0,0,0,-1,552,1226,-39.5427,-1.41805
-665,-202,-40.3221,0.686279,0,0,0,0,0,0,0,-1,559,1226,-40.3221,-0.686296
-658,-202,-33.4346,0.249146,0,0,0,0,0,0,0,-1,566,1226,-33.4346,-0.24918
-651,-202,-33.4052,1.11987,0.0124551,0.0217213,0.0166987,0.0344177,-0.000241352,0.92072,0.023026,0.0496221,573,1226,-33.4052,-1.11989
-644,-202,-33.3624,2.01697,0.00873406,0.0159867,0.0116537,0.0245652,0.000155523,0.936236,0.0163252,0.0487241,580,1226,-33.3623,-2.01694
-637,-202,-33.1033,2.76758,0.00558954,0.0114252,0.00788554,0.0169154,9.92995e-05,0.962597,0.011244,0.0449682,587,1226,-33.1033,-2.76754
-630,-202,-33.249,3.34204,0.0033335,0.00792533,0.0049677,0.011102,0.000156827,1.00186,0.00734962,0.0196316,594,1226,-33.249,-3.34208
-623,-202,-33.2673,3.93958,0.0016393,0.00504407,0.00272643,0.00655596,0.000127419,1.06448,0.00432879,0.00878656,601,1226,-33.2673,-3.93962
-616,-202,-33.2867,4.53174,0.000482147,0.00289323,0.00113479,0.00334331,3.20697e-05,1.19321,0.00221826,0.00864878,608,1226,-33.2868,-4.5317
-609,-202,-33.2687,5.1355,-0.000313107,0.00122108,-3.23384e-05,0.00122176,-0.000313788,-1.54973,0.000936785,0.0206292,615,1226,-33.2687,-5.13546
-602,-202,-33.3442,5.74756,-0.000706162,-3.58294e-05,-0.000686982,0.000393387,-0.00113538,-1.01235,0.000916631,0.0213124,622,1226,-33.3442,-5.74761
-595,-202,-33.4203,6.38306,-0.000904937,-0.000533583,-0.000511622,-0.000174988,-0.00126353,-0.959467,0.000790508,0.0160573,629,1226,-33.4203,-6.3831
-588,-202,-33.3915,6.92676,-0.00101821,-0.0003543,-0.000573952,-2.3221e-05,-0.00134929,-1.04758,0.000891889,0.0205347,636,1226,-33.3915,-6.92675
-581,-202,-33.2639,7.47766,0,0,0,0,0,0,0,-1,643,1226,-33.2639,-7.47771
-574,-202,-26.922,5.99512,0,0,0,0,0,0,0,-1,650,1226,-26.922,-5.99512
-567,-202,-22.1768,4.56995,0,0,0,0,0,0,0,-1,657,1226,-22.1768,-4.56991
-560,-202,-10.929,2.73096,0,0,0,0,0,0,0,-1,664,1226,-10.929,-2.73092
-553,-202,-30.2701,1.474,0,0,0,0,0,0,0,-1,671,1226,-30.2701,-1.47395
-546,-202,-45.4317,0.772461,0,0,0,0,0,0,0,-1,678,1226,-45.4317,-0.772492
-539,-202,-45.4868,0.897217,0.00265295,-0.000838246,-0.00265408,0.00408402,-0.00226932,-0.494513,0.00371765,0.042832,685,1226,-45.4868,-0.897277
-532,-202,-45.6056,0.931641,0.00245327,-0.00055206,-0.00292146,0.00423587,-0.00233466,-0.547866,0.00384607,0.0295415,692,1226,-45.6056,-0.931611
-525,-202,-45.5835,0.935303,0.00233788,-0.000393098,-0.00337898,0.00461685,-0.00267206,-0.593375,0.00425789,0.0367921,699,1226,-45.5835,-0.935268
-518,-202,-45.4889,0.830078,0.00363113,-0.000263176,-0.00365868,0.00582854,-0.00246058,-0.54086,0.00491564,0.0428005,706,1226,-45.4889,-0.830031
-511,-202,-45.3503,0.701416,0.0105314,7.09799e-05,-0.0044555,0.0121719,-0.00156951,-0.352791,0.00868518,0.0435219,713,1226,-45.3503,-0.701437
-504,-202,0,0,0,0,0,0,0,0,0,-1,720,1226,0,0
-497,-202,0,0,0,0,0,0,0,0,0,-1,727,1226,0,0
-490,-202,0,0,0,0,0,0,0,0,0,-1,734,1226,0,0
-483,-202,0,0,0,0,0,0,0,0,0,-1,741,1226,0,0
-476,-202,0,0,0,0,0,0,0,0,0,-1,748,1226,0,0
-469,-202,0,0,0,0,0,0,0,0,0,-1,755,1226,0,0
-462,-202,0,0,0,0,0,0,0,0,0,-1,762,1226,0,0
-455,-202,0,0,0,0,0,0,0,0,0,-1,769,1226,0,0
-448,-202,0,0,0,0,0,0,0,0,0,-1,776,1226,0,0
-441,-202,0,0,0,0,0,0,0,0,0,-1,783,1226,0,0
-434,-202,0,0,0,0,0,0,0,0,0,-1,790,1226,0,0
-427,-202,0,0,0,0,0,0,0,0,0,-1,797,1226,0,0
-420,-202,0,0,0,0,0,0,0,0,0,-1,804,1226,0,0
-413,-202,0,0,0,0,0,0,0,0,0,-1,811,1226,0,0
-406,-202,0,0,0,0,0,0,0,0,0,-1,818,1226,0,0
-399,-202,0,0,0,0,0,0,0,0,0,-1,825,1226,0,0
-392,-202,0,0,0,0,0,0,0,0,0,-1,832,1226,0,0
-385,-202,0,0,0,0,0,0,0,0,0,-1,839,1226,0,0
-378,-202,0,0,0,0,0,0,0,0,0,-1,846,1226,0,0
-371,-202,0,0,0,0,0,0,0,0,0,-1,853,1226,0,0
-364,-202,0,0,0,0,0,0,0,0,0,-1,860,1226,0,0
-357,-202,0,0,0,0,0,0,0,0,0,-1,867,1226,0,0
-350,-202,0,0,0,0,0,0,0,0,0,-1,874,1226,0,0
-343,-202,0,0,0,0,0,0,0,0,0,-1,881,1226,0,0
-336,-202,0,0,0,0,0,0,0,0,0,-1,888,1226,0,0
-329,-202,0,0,0,0,0,0,0,0,0,-1,895,1226,0,0
-322,-202,0,0,0,0,0,0,0,0,0,-1,902,1226,0,0
-315,-202,0,0,0,0,0,0,0,0,0,-1,909,1226,0,0
-308,-202,0,0,0,0,0,0,0,0,0,-1,916,1226,0,0
-301,-202,0,0,0,0,0,0,0,0,0,-1,923,1226,0,0
-294,-202,0,0,0,0,0,0,0,0,0,-1,930,1226,0,0
-287,-202,0,0,0,0,0,0,0,0,0,-1,937,1226,0,0
-280,-202,0,0,0,0,0,0,0,0,0,-1,944,1226,0,0
-273,-202,0,0,0,0,0,0,0,0,0,-1,951,1226,0,0
-266,-202,0,0,0,0,0,0,0,0,0,-1,958,1226,0,0
-259,-202,0,0,0,0,0,0,0,0,0,-1,965,1226,0,0
-252,-202,0,0,0,0,0,0,0,0,0,-1,972,1226,0,0
-245,-202,0,0,0,0,0,0,0,0,0,-1,979,1226,0,0
-238,-202,0,0,0,0,0,0,0,0,0,-1,986,1226,0,0
-231,-202,0,0,0,0,0,0,0,0,0,-1,993,1226,0,0
-224,-202,0,0,0,0,0,0,0,0,0,-1,1000,1226,0,0
-217,-202,0,0,0,0,0,0,0,0,0,-1,1007,1226,0,0
-210,-202,0,0,0,0,0,0,0,0,0,-1,1014,1226,0,0
-203,-202,0,0,0,0,0,0,0,0,0,-1,1021,1226,0,0
-196,-202,0,0,0,0,0,0,0,0,0,-1,1028,1226,0,0
-189,-202,0,0,0,0,0,0,0,0,0,-1,1035,1226,0,0
-182,-202,0,0,0,0,0,0,0,0,0,-1,1042,1226,0,0
-175,-202,0,0,0,0,0,0,0,0,0,-1,1049,1226,0,0
-168,-202,0,0,0,0,0,0,0,0,0,-1,1056,1226,0,0
-161,-202,0,0,0,0,0,0,0,0,0,-1,1063,1226,0,0
-154,-202,0,0,0,0,0,0,0,0,0,-1,1070,1226,0,0
-147,-202,0,0,0,0,0,0,0,0,0,-1,1077,1226,0,0
-140,-202,0,0,0,0,0,0,0,0,0,-1,1084,1226,0,0
-133,-202,0,0,0,0,0,0,0,0,0,-1,1091,1226,0,0
-126,-202,0,0,0,0,0,0,0,0,0,-1,1098,1226,0,0
-119,-202,0,0,0,0,0,0,0,0,0,-1,1105,1226,0,0
-112,-202,0,0,0,0,0,0,0,0,0,-1,1112,1226,0,0
-105,-202,0,0,0,0,0,0,0,0,0,-1,1119,1226,0,0
-98,-202,0,0,0,0,0,0,0,0,0,-1,1126,1226,0,0
-91,-202,0,0,0,0,0,0,0,0,0,-1,1133,1226,0,0
-84,-202,0,0,0,0,0,0,0,0,0,-1,1140,1226,0,0
-77,-202,0,0,0,0,0,0,0,0,0,-1,1147,1226,0,0
-70,-202,0,0,0,0,0,0,0,0,0,-1,1154,1226,0,0
-63,-202,0,0,0,0,0,0,0,0,0,-1,1161,1226,0,0
-56,-202,0,0,0,0,0,0,0,0,0,-1,1168,1226,0,0
-49,-202,0,0,0,0,0,0,0,0,0,-1,1175,1226,0,0
-42,-202,0,0,0,0,0,0,0,0,0,-1,1182,1226,0,0
-35,-202,0,0,0,0,0,0,0,0,0,-1,1189,1226,0,0
-28,-202,0,0,0,0,0,0,0,0,0,-1,1196,1226,0,0
-21,-202,0,0,0,0,0,0,0,0,0,-1,1203,1226,0,0
-14,-202,0,0,0,0,0,0,0,0,0,-1,1210,1226,0,0
-7,-202,0,0,0,0,0,0,0,0,0,-1,1217,1226,0,0
0,-202,0,0,0,0,0,0,0,0,0,-1,1224,1226,0,0
7,-202,0,0,0,0,0,0,0,0,0,-1,1231,1226,0,0
14,-202,0,0,0,0,0,0,0,0,0,-1,1238,1226,0,0
21,-202,0,0,0,0,0,0,0,0,0,-1,1245,1226,0,0
28,-202,0,0,0,0,0,0,0,0,0,-1,1252,1226,0,0
35,-202,0,0,0,0,0,0,0,0,0,-1,1259,1226,0,0
42,-202,0,0,0,0,0,0,0,0,0,-1,1266,1226,0,0
49,-202,0,0,0,0,0,0,0,0,0,-1,1273,1226,0,0
56,-202,0,0,0,0,0,0,0,0,0,-1,1280,1226,0,0
63,-202,0,0,0,0,0,0,0,0,0,-1,1287,1226,0,0
70,-202,0,0,0,0,0,0,0,0,0,-1,1294,1226,0,0
77,-202,0,0,0,0,0,0,0,0,0,-1,1301,1226,0,0
84,-202,0,0,0,0,0,0,0,0,0,-1,1308,1226,0,0
91,-202,0,0,0,0,0,0,0,0,0,-1,1315,1226,0,0
98,-202,0,0,0,0,0,0,0,0,0,-1,1322,1226,0,0
105,-202,0,0,0,0,0,0,0,0,0,-1,1329,1226,0,0
112,-202,0,0,0,0,0,0,0,0,0,-1,1336,1226,0,0
119,-202,0,0,0,0,0,0,0,0,0,-1,1343,1226,0,0
126,-202,0,0,0,0,0,0,0,0,0,-1,1350,1226,0,0
133,-202,0,0,0,0,0,0,0,0,0,-1,1357,1226,0,0
140,-202,0,0,0,0,0,0,0,0,0,-1,1364,1226,0,0
147,-202,0,0,0,0,0,0,0,0,0,-1,1371,1226,0,0
154,-202,0,0,0,0,0,0,0,0,0,-1,1378,1226,0,0
161,-202,0,0,0,0,0,0,0,0,0,-1,1385,1226,0,0
168,-202,0,0,0,0,0,0,0,0,0,-1,1392,1226,0,0
175,-202,0,0,0,0,0,0,0,0,0,-1,1399,1226,0,0
182,-202,0,0,0,0,0,0,0,0,0,-1,1406,1226,0,0
189,-202,0,0,0,0,0,0,0,0,0,-1,1413,1226,0,0
196,-202,0,0,0,0,0,0,0,0,0,-1,1420,1226,0,0
203,-202,0,0,0,0,0,0,0,0,0,-1,1427,1226,0,0
210,-202,0,0,0,0,0,0,0,0,0,-1,1434,1226,0,0
217,-202,0,0,0,0,0,0,0,0,0,-1,1441,1226,0,0
224,-202,0,0,0,0,0,0,0,0,0,-1,1448,1226,0,0
231,-202,0,0,0,0,0,0,0,0,0,-1,1455,1226,0,0
238,-202,0,0,0,0,0,0,0,0,0,-1,1462,1226,0,0
245,-202,0,0,0,0,0,0,0,0,0,-1,1469,1226,0,0
252,-202,0,0,0,0,0,0,0,0,0,-1,1476,1226,0,0
259,-202,0,0,0,0,0,0,0,0,0,-1,1483,1226,0,0
266,-202,0,0,0,0,0,0,0,0,0,-1,1490,1226,0,0
273,-202,0,0,0,0,0,0,0,0,0,-1,1497,1226,0,0
280,-202,0,0,0,0,0,0,0,0,0,-1,1504,1226,0,0
287,-202,0,0,0,0,0,0,0,0,0,-1,1511,1226,0,0
294,-202,0,0,0,0,0,0,0,0,0,-1,1518,1226,0,0
301,-202,0,0,0,0,0,0,0,0,0,-1,1525,1226,0,0
308,-202,0,0,0,0,0,0,0,0,0,-1,1532,1226,0,0
315,-202,0,0,0,0,0,0,0,0,0,-1,1539,1226,0,0
322,-202,0,0,0,0,0,0,0,0,0,-1,1546,1226,0,0
329,-202,0,0,0,0,0,0,0,0,0,-1,1553,1226,0,0
336,-202,0,0,0,0,0,0,0,0,0,-1,1560,1226,0,0
343,-202,0,0,0,0,0,0,0,0,0,-1,1567,1226,0,0
350,-202,0,0,0,0,0,0,0,0,0,-1,1574,1226,0,0
357,-202,0,0,0,0,0,0,0,0,0,-1,1581,1226,0,0
364,-202,0,0,0,0,0,0,0,0,0,-1,1588,1226,0,0
371,-202,0,0,0,0,0,0,0,0,0,-1,1595,1226,0,0
378,-202,0,0,0,0,0,0,0,0,0,-1,1602,1226,0,0
385,-202,0,0,0,0,0,0,0,0,0,-1,1609,1226,0,0
392,-202,0,0,0,0,0,0,0,0,0,-1,1616,1226,0,0
399,-202,0,0,0,0,0,0,0,0,0,-1,1623,1226,0,0
406,-202,0,0,0,0,0,0,0,0,0,-1,1630,1226,0,0
413,-202,0,0,0,0,0,0,0,0,0,-1,1637,1226,0,0
420,-202,0,0,0,0,0,0,0,0,0,-1,1644,1226,0,0
427,-202,0,0,0,0,0,0,0,0,0,-1,1651,1226,0,0
434,-202,0,0,0,0,0,0,0,0,0,-1,1658,1226,0,0
441,-202,0,0,0,0,0,0,0,0,0,-1,1665,1226,0,0
448,-202,0,0,0,0,0,0,0,0,0,-1,1672,1226,0,0
455,-202,0,0,0,0,0,0,0,0,0,-1,1679,1226,0,0
462,-202,0,0,0,0,0,0,0,0,0,-1,1686,1226,0,0
469,-202,0,0,0,0,0,0,0,0,0,-1,1693,1226,0,0
476,-202,0,0,0,0,0,0,0,0,0,-1,1700,1226,0,0
483,-202,0,0,0,0,0,0,0,0,0,-1,1707,1226,0,0
490,-202,0,0,0,0,0,0,0,0,0,-1,1714,1226,0,0
497,-202,0,0,0,0,0,0,0,0,0,-1,1721,1226,0,0
504,-202,0,0,0,0,0,0,0,0,0,-1,1728,1226,0,0
511,-202,0,0,0,0,0,0,0,0,0,-1,1735,1226,0,0
518,-202,0,0,0,0,0,0,0,0,0,-1,1742,1226,0,0
525,-202,0,0,0,0,0,0,0,0,0,-1,1749,1226,0,0
532,-202,0,0,0,0,0,0,0,0,0,-1,1756,1226,0,0
539,-202,0,0,0,0,0,0,0,0,0,-1,1763,1226,0,0
546,-202,0,0,0,0,0,0,0,0,0,-1,1770,1226,0,0
553,-202,0,0,0,0,0,0,0,0,0,-1,1777,1226,0,0
560,-202,0,0,0,0,0,0,0,0,0,-1,1784,1226,0,0
567,-202,0,0,0,0,0,0,0,0,0,-1,1791,1226,0,0
574,-202,0,0,0,0,0,0,0,0,0,-1,1798,1226,0,0
581,-202,0,0,0,0,0,0,0,0,0,-1,1805,1226,0,0
588,-202,0,0,0,0,0,0,0,0,0,-1,1812,1226,0,0
595,-202,0,0,0,0,0,0,0,0,0,-1,1819,1226,0,0
602,-202,0,0,0,0,0,0,0,0,0,-1,1826,1226,0,0
609,-202,0,0,0,0,0,0,0,0,0,-1,1833,1226,0,0
616,-202,0,0,0,0,0,0,0,0,0,-1,1840,1226,0,0
623,-202,0,0,0,0,0,0,0,0,0,-1,1847,1226,0,0
630,-202,60.655,2.55493,0.00163675,0.0016601,0.00282943,0.00447787,-0.00118102,0.787461,0.00344704,0.0386315,1854,1226,60.655,-2.55496
637,-202,60.795,2.77356,0.00113566,0.00182933,0.00157619,0.0030964,-0.00013141,0.893695,0.00210943,0.035937,1861,1226,60.7951,-2.77359
644,-202,60.7548,2.7998,0.00119347,0.00174634,0.000381199,0.00194078,0.000999025,1.09911,0.00112068,0.0321466,1868,1226,60.7548,-2.79986
651,-202,60.6777,2.67981,0.001642,0.00134508,-0.000500387,0.00201548,0.000971593,-0.641192,0.00116389,0.0264396,1875,1226,60.6778,-2.67976
658,-202,60.6483,2.67627,0.00219956,0.000656191,-0.000842713,0.00257053,0.000285219,-0.414684,0.00162697,0.0236649,1882,1226,60.6483,-2.67624
665,-202,60.6957,2.65283,0.00256534,-5.63491e-05,-0.000874501,0.00283027,-0.000321279,-0.294161,0.00200255,0.022735,1889,1226,60.6957,-2.65279
672,-202,60.7754,2.6438,0.00286568,-0.00051897,-0.000833814,0.00305994,-0.000713232,-0.228897,0.00231463,0.0435113,1896,1226,60.7753,-2.64381
679,-202,60.8718,2.6311,0,0,0,0,0,0,0,-1,1903,1226,60.8718,-2.63105
686,-202,49.1708,2.15198,0,0,0,0,0,0,0,-1,1910,1226,49.1708,-2.15195
693,-202,48.5131,11.4894,0,0,0,0,0,0,0,-1,1917,1226,48.5131,-11.4894
700,-202,48.668,10.8035,0.00307451,-0.00185925,-0.000404417,0.00310744,-0.00189218,-0.0812465,0.00291482,0.0476144,1924,1226,48.6679,-10.8035
707,-202,48.7498,10.0349,0.00325738,-0.00197708,-0.000203503,0.00326528,-0.00198498,-0.0387994,0.00306114,0.0336341,1931,1226,48.7497,-10.035
714,-202,48.667,9.54272,0.00261865,-0.0018443,-0.00010734,0.00262123,-0.00184688,-0.0240329,0.00259255,0.0326473,1938,1226,48.667,-9.54276
721,-202,48.6862,9.12012,0.00205283,-0.0017926,7.27409e-05,0.0020542,-0.00179398,0.0189072,0.00222344,0.0187643,1945,1226,48.6862,-9.12017
728,-202,48.7091,8.51843,0.0020568,-0.00161209,0.000419566,0.00210417,-0.00165946,0.112424,0.00217798,0.0108901,1952,1226,48.7091,-8.51849
735,-202,48.6719,7.94556,0.00195662,-0.00104958,0.000872613,0.00219156,-0.00128451,0.262995,0.00202956,0.0112211,1959,1226,48.6719,-7.94556
742,-202,48.6288,7.38416,0.00205135,-0.000585221,0.00150815,0.00273616,-0.00127003,0.426236,0.00236404,0.0130241,1966,1226,48.6287,-7.38415
749,-202,48.572,6.83948,0.00269592,-9.22517e-05,0.0020273,0.00376221,-0.00115854,0.484202,0.0029706,0.0133247,1973,1226,48.572,-6.83954
756,-202,48.5804,6.30298,0.00400648,0.000754957,0.00229457,0.00519287,-0.000431428,0.477186,0.00361431,0.0128603,1980,1226,48.5805,-6.30296
763,-202,48.6604,5.81433,0.00639574,0.00151154,0.00221448,0.00725027,0.000657003,0.368278,0.00463008,0.023922,1987,1226,48.6604,-5.81437
770,-202,48.7289,5.50085,0,0,0,0,0,0,0,-1,1994,1226,48.7288,-5.5009
777,-202,53.3003,-4.00098,0,0,0,0,0,0,0,-1,2001,1226,53.3002,4.00099
784,-202,52.9231,-1.28162,0,0,0,0,0,0,0,-1,2008,1226,52.9232,1.28167
791,-202,52.2668,1.22656,0,0,0,0,0,0,0,-1,2015,1226,52.2668,-1.22651
798,-202,51.8999,3.58789,0,0,0,0,0,0,0,-1,2022,1226,51.9,-3.58791
805,-202,0,0,0,0,0,0,0,0,0,-1,2029,1226,0,0
812,-202,0,0,0,0,0,0,0,0,0,-1,2036,1226,0,0
-700,-209,0,0,0,0,0,0,0,0,0,-1,524,1233,0,0
-693,-209,0,0,0,0,0,0,0,0,0,-1,531,1233,0,0
-686,-209,0,0,0,0,0,0,0,0,0,-1,538,1233,0,0
-679,-209,-39.7174,2.927,0,0,0,0,0,0,0,-1,545,1233,-39.7174,-2.92705
-672,-209,-40.5507,2.13843,0,0,0,0,0,0,0,-1,552,1233,-40.5507,-2.13847
-665,-209,-41.2851,1.39392,0,0,0,0,0,0,0,-1,559,1233,-41.2851,-1.39397
-658,-209,-41.8462,0.642456,0,0,0,0,0,0,0,-1,566,1233,-41.8462,-0.642448
-651,-209,-33.0721,1.27344,0,0,0,0,0,0,0,-1,573,1233,-33.0722,-1.27338
-644,-209,-33.08,2.16418,0,0,0,0,0,0,0,-1,580,1233,-33.08,-2.16422
-637,-209,-32.6375,2.77576,0,0,0,0,0,0,0,-1,587,1233,-32.6375,-2.7758
-630,-209,-32.5591,3.32642,0.00365477,0.0085372,0.00516099,0.0118052,0.00038675,1.00631,0.00774445,0.0332432,594,1233,-32.5591,-3.32648
-623,-209,-32.6387,3.95166,0.00190751,0.00561003,0.00292759,0.00722257,0.000294963,1.06733,0.0047198,0.0144199,601,1233,-32.6387,-3.95172
-616,-209,-32.6624,4.55566,0.000769604,0.00347088,0.00141364,0.00407539,0.000165096,1.1667,0.0026636,0.0112064,608,1233,-32.6623,-4.55572
-609,-209,-32.6989,5.17041,4.08706e-05,0.00181819,0.000329284,0.00187723,-1.81745e-05,1.39337,0.00125759,0.013388,615,1233,-32.6989,-5.17038
-602,-209,-32.7399,5.76904,-0.000349956,0.000476075,-0.000322909,0.000587323,-0.000461204,-1.23901,0.000606825,0.0170706,622,1233,-32.7399,-5.76909
-595,-209,-32.756,6.35876,-0.000511881,-0.000395912,-0.000343806,-0.000105235,-0.000802558,-0.868939,0.000503639,0.012813,629,1233,-32.756,-6.35875
-588,-209,-32.7766,6.99573,-0.000454001,-0.000529624,-0.000416314,-7.37847e-05,-0.00090984,-0.74011,0.000583522,0.0243419,636,1233,-32.7766,-6.99575
-581,-209,-32.2778,7.71899,0,0,0,0,0,0,0,-1,643,1233,-32.2778,-7.719
-574,-209,-32.2852,9.09314,0,0,0,0,0,0,0,-1,650,1233,-32.2852,-9.09316
-567,-209,-26.2951,6.92981,0,0,0,0,0,0,0,-1,657,1233,-26.2951,-6.92986
-560,-209,-13.9294,4.16626,0,0,0,0,0,0,0,-1,664,1233,-13.9294,-4.16621
-553,-209,-22.7542,0.748779,0,0,0,0,0,0,0,-1,671,1233,-22.7541,-0.748796
-546,-209,-44.691,0.142822,0,0,0,0,0,0,0,-1,678,1233,-44.6911,-0.142844
-539,-209,-45.5817,1.16235,0,0,0,0,0,0,0,-1,685,1233,-45.5817,-1.16235
-532,-209,-45.5291,1.07617,0.000952506,-0.000366475,-0.00265492,0.00302862,-0.00244259,-0.663661,0.00316484,0.0346989,692,1233,-45.5291,-1.0762
-525,-209,-45.4816,0.845093,-1.81685e-05,-9.40015e-05,-0.00288893,0.0028331,-0.00294527,-0.778836,0.00333635,0.0361012,699,1233,-45.4816,-0.845057
-518,-209,-45.4702,0.664917,-0.000405398,3.74068e-05,-0.00297901,0.00280323,-0.00317122,-0.82249,0.00345153,0.0451881,706,1233,-45.4702,-0.664968
-511,-209,-45.5107,0.622925,0.00336839,0.000760563,-0.00302311,0.0053568,-0.00122785,-0.581795,0.00404312,0.0458725,713,1233,-45.5107,-0.622945
-504,-209,0,0,0,0,0,0,0,0,0,-1,720,1233,0,0
-497,-209,0,0,0,0,0,0,0,0,0,-1,727,1233,0,0
-490,-209,0,0,0,0,0,0,0,0,0,-1,734,1233,0,0
-483,-209,0,0,0,0,0,0,0,0,0,-1,741,1233,0,0
-476,-209,0,0,0,0,0,0,0,0,0,-1,748,1233,0,0
-469,-209,0,0,0,0,0,0,0,0,0,-1,755,1233,0,0
-462,-209,0,0,0,0,0,0,0,0,0,-1,762,1233,0,0
-455,-209,0,0,0,0,0,0,0,0,0,-1,769,1233,0,0
-448,-209,0,0,0,0,0,0,0,0,0,-1,776,1233,0,0
-441,-209,0,0,0,0,0,0,0,0,0,-1,783,1233,0,0
-434,-209,0,0,0,0,0,0,0,0,0,-1,790,1233,0,0
-427,-209,0,0,0,0,0,0,0,0,0,-1,797,1233,0,0
-420,-209,0,0,0,0,0,0,0,0,0,-1,804,1233,0,0
-413,-209,0,0,0,0,0,0,0,0,0,-1,811,1233,0,0
-406,-209,0,0,0,0,0,0,0,0,0,-1,818,1233,0,0
-399,-209,0,0,0,0,0,0,0,0,0,-1,825,1233,0,0
-392,-209,0,0,0,0,0,0,0,0,0,-1,832,1233,0,0
-385,-209,0,0,0,0,0,0,0,0,0,-1,839,1233,0,0
-378,-209,0,0,0,0,0,0,0,0,0,-1,846,1233,0,0
-371,-209,0,0,0,0,0,0,0,0,0,-1,853,1233,0,0
-364,-209,0,0,0,0,0,0,0,0,0,-1,860,1233,0,0
-357,-209,0,0,0,0,0,0,0,0,0,-1,867,1233,0,0
-350,-209,0,0,0,0,0,0,0,0,0,-1,874,1233,0,0
-343,-209,0,0,0,0,0,0,0,0,0,-1,881,1233,0,0
-336,-209,0,0,0,0,0,0,0,0,0,-1,888,1233,0,0
-329,-209,0,0,0,0,0,0,0,0,0,-1,895,1233,0,0
-322,-209,0,0,0,0,0,0,0,0,0,-1,902,1233,0,0
-315,-209,0,0,0,0,0,0,0,0,0,-1,909,1233,0,0
-308,-209,0,0,0,0,0,0,0,0,0,-1,916,1233,0,0
-301,-209,0,0,0,0,0,0,0,0,0,-1,923,1233,0,0
-294,-209,0,0,0,0,0,0,0,0,0,-1,930,1233,0,0
-287,-209,0,0,0,0,0,0,0,0,0,-1,937,1233,0,0
-280,-209,0,0,0,0,0,0,0,0,0,-1,944,1233,0,0
-273,-209,0,0,0,0,0,0,0,0,0,-1,951,1233,0,0
-266,-209,0,0,0,0,0,0,0,0,0,-1,958,1233,0,0
-259,-209,0,0,0,0,0,0,0,0,0,-1,965,1233,0,0
-252,-209,0,0,0,0,0,0,0,0,0,-1,972,1233,0,0
-245,-209,0,0,0,0,0,0,0,0,0,-1,979,1233,0,0
-238,-209,0,0,0,0,0,0,0,0,0,-1,986,1233,0,0
-231,-209,0,0,0,0,0,0,0,0,0,-1,993,1233,0,0
-224,-209,0,0,0,0,0,0,0,0,0,-1,1000,1233,0,0
-217,-209,0,0,0,0,0,0,0,0,0,-1,1007,1233,0,0
-210,-209,0,0,0,0,0,0,0,0,0,-1,1014,1233,0,0
-203,-209,0,0,0,0,0,0,0,0,0,-1,1021,1233,0,0
-196,-209,0,0,0,0,0,0,0,0,0,-1,1028,1233,0,0
-189,-209,0,0,0,0,0,0,0,0,0,-1,1035,1233,0,0
-182,-209,0,0,0,0,0,0,0,0,0,-1,1042,1233,0,0
-175,-209,0,0,0,0,0,0,0,0,0,-1,1049,1233,0,0
-168,-209,0,0,0,0,0,0,0,0,0,-1,1056,1233,0,0
-161,-209,0,0,0,0,0,0,0,0,0,-1,1063,1233,0,0
-154,-209,0,0,0,0,0,0,0,0,0,-1,1070,1233,0,0
-147,-209,0,0,0,0,0,0,0,0,0,-1,1077,1233,0,0
-140,-209,0,0,0,0,0,0,0,0,0,-1,1084,1233,0,0
-133,-209,0,0,0,0,0,0,0,0,0,-1,1091,1233,0,0
-126,-209,0,0,0,0,0,0,0,0,0,-1,1098,1233,0,0
-119,-209,0,0,0,0,0,0,0,0,0,-1,1105,1233,0,0
-112,-209,0,0,0,0,0,0,0,0,0,-1,1112,1233,0,0
-105,-209,0,0,0,0,0,0,0,0,0,-1,1119,1233,0,0
-98,-209,0,0,0,0,0,0,0,0,0,-1,1126,1233,0,0
-91,-209,0,0,0,0,0,0,0,0,0,-1,1133,1233,0,0
-84,-209,0,0,0,0,0,0,0,0,0,-1,1140,1233,0,0
-77,-209,0,0,0,0,0,0,0,0,0,-1,1147,1233,0,0
-70,-209,0,0,0,0,0,0,0,0,0,-1,1154,1233,0,0
-63,-209,0,0,0,0,0,0,0,0,0,-1,1161,1233,0,0
-56,-209,0,0,0,0,0,0,0,0,0,-1,1168,1233,0,0
-49,-209,0,0,0,0,0,0,0,0,0,-1,1175,1233,0,0
-42,-209,0,0,0,0,0,0,0,0,0,-1,1182,1233,0,0
-35,-209,0,0,0,0,0,0,0,0,0,-1,1189,1233,0,0
-28,-209,0,0,0,0,0,0,0,0,0,-1,1196,1233,0,0
-21,-209,0,0,0,0,0,0,0,0,0,-1,1203,1233,0,0
-14,-209,0,0,0,0,0,0,0,0,0,-1,1210,1233,0,0
-7,-209,0,0,0,0,0,0,0,0,0,-1,1217,1233,0,0
0,-209,0,0,0,0,0,0,0,0,0,-1,1224,1233,0,0
7,-209,0,0,0,0,0,0,0,0,0,-1,1231,1233,0,0
14,-209,0,0,0,0,0,0,0,0,0,-1,1238,1233,0,0
21,-209,0,0,0,0,0,0,0,0,0,-1,1245,1233,0,0
28,-209,0,0,0,0,0,0,0,0,0,-1,1252,1233,0,0
35,-209,0,0,0,0,0,0,0,0,0,-1,1259,1233,0,0
42,-209,0,0,0,0,0,0,0,0,0,-1,1266,1233,0,0
49,-209,0,0,0,0,0,0,0,0,0,-1,1273,1233,0,0
56,-209,0,0,0,0,0,0,0,0,0,-1,1280,1233,0,0
63,-209,0,0,0,0,0,0,0,0,0,-1,1287,1233,0,0
70,-209,0,0,0,0,0,0,0,0,0,-1,1294,1233,0,0
77,-209,0,0,0,0,0,0,0,0,0,-1,1301,1233,0,0
84,-209,0,0,0,0,0,0,0,0,0,-1,1308,1233,0,0
91,-209,0,0,0,0,0,0,0,0,0,-1,1315,1233,0,0
98,-209,0,0,0,0,0,0,0,0,0,-1,1322,1233,0,0
105,-209,0,0,0,0,0,0,0,0,0,-1,1329,1233,0,0
112,-209,0,0,0,0,0,0,0,0,0,-1,1336,1233,0,0
119,-209,0,0,0,0,0,0,0,0,0,-1,1343,1233,0,0
126,-209,0,0,0,0,0,0,0,0,0,-1,1350,1233,0,0
133,-209,0,0,0,0,0,0,0,0,0,-1,1357,1233,0,0
140,-209,0,0,0,0,0,0,0,0,0,-1,1364,1233,0,0
147,-209,0,0,0,0,0,0,0,0,0,-1,1371,1233,0,0
154,-209,0,0,0,0,0,0,0,0,0,-1,1378,1233,0,0
161,-209,0,0,0,0,0,0,0,0,0,-1,1385,1233,0,0
168,-209,0,0,0,0,0,0,0,0,0,-1,1392,1233,0,0
175,-209,0,0,0,0,0,0,0,0,0,-1,1399,1233,0,0
182,-209,0,0,0,0,0,0,0,0,0,-1,1406,1233,0,0
189,-209,0,0,0,0,0,0,0,0,0,-1,1413,1233,0,0
196,-209,0,0,0,0,0,0,0,0,0,-1,1420,1233,0,0
203,-209,0,0,0,0,0,0,0,0,0,-1,1427,1233,0,0
210,-209,0,0,0,0,0,0,0,0,0,-1,1434,1233,0,0
217,-209,0,0,0,0,0,0,0,0,0,-1,1441,1233,0,0
224,-209,0,0,0,0,0,0,0,0,0,-1,1448,1233,0,0
231,-209,0,0,0,0,0,0,0,0,0,-1,1455,1233,0,0
238,-209,0,0,0,0,0,0,0,0,0,-1,1462,1233,0,0
245,-209,0,0,0,0,0,0,0,0,0,-1,1469,1233,0,0
252,-209,0,0,0,0,0,0,0,0,0,-1,1476,1233,0,0
259,-209,0,0,0,0,0,0,0,0,0,-1,1483,1233,0,0
266,-209,0,0,0,0,0,0,0,0,0,-1,1490,1233,0,0
273,-209,0,0,0,0,0,0,0,0,0,-1,1497,1233,0,0
280,-209,0,0,0,0,0,0,0,0,0,-1,1504,1233,0,0
287,-209,0,0,0,0,0,0,0,0,0,-1,1511,1233,0,0
294,-209,0,0,0,0,0,0,0,0,0,-1,1518,1233,0,0
301,-209,0,0,0,0,0,0,0,0,0,-1,1525,1233,0,0
308,-209,0,0,0,0,0,0,0,0,0,-1,1532,1233,0,0
315,-209,0,0,0,0,0,0,0,0,0,-1,1539,1233,0,0
322,-209,0,0,0,0,0,0,0,0,0,-1,1546,1233,0,0
329,-209,0,0,0,0,0,0,0,0,0,-1,1553,1233,0,0
336,-209,0,0,0,0,0,0,0,0,0,-1,1560,1233,0,0
343,-209,0,0,0,0,0,0,0,0,0,-1,1567,1233,0,0
350,-209,0,0,0,0,0,0,0,0,0,-1,1574,1233,0,0
357,-209,0,0,0,0,0,0,0,0,0,-1,1581,1233,0,0
364,-209,0,0,0,0,0,0,0,0,0,-1,1588,1233,0,0
371,-209,0,0,0,0,0,0,0,0,0,-1,1595,1233,0,0
378,-209,0,0,0,0,0,0,0,0,0,-1,1602,1233,0,0
385,-209,0,0,0,0,0,0,0,0,0,-1,1609,1233,0,0
392,-209,0,0,0,0,0,0,0,0,0,-1,1616,1233,0,0
399,-209,0,0,0,0,0,0,0,0,0,-1,1623,1233,0,0
406,-209,0,0,0,0,0,0,0,0,0,-1,1630,1233,0,0
413,-209,0,0,0,0,0,0,0,0,0,-1,1637,1233,0,0
420,-209,0,0,0,0,0,0,0,0,0,-1,1644,1233,0,0
427,-209,0,0,0,0,0,0,0,0,0,-1,1651,1233,0,0
434,-209,0,0,0,0,0,0,0,0,0,-1,1658,1233,0,0
441,-209,0,0,0,0,0,0,0,0,0,-1,1665,1233,0,0
448,-209,0,0,0,0,0,0,0,0,0,-1,1672,1233,0,0
455,-209,0,0,0,0,0,0,0,0,0,-1,1679,1233,0,0
462,-209,0,0,0,0,0,0,0,0,0,-1,1686,1233,0,0
469,-209,0,0,0,0,0,0,0,0,0,-1,1693,1233,0,0
476,-209,0,0,0,0,0,0,0,0,0,-1,1700,1233,0,0
483,-209,0,0,0,0,0,0,0,0,0,-1,1707,1233,0,0
490,-209,0,0,0,0,0,0,0,0,0,-1,1714,1233,0,0
497,-209,0,0,0,0,0,0,0,0,0,-1,1721,1233,0,0
504,-209,0,0,0,0,0,0,0,0,0,-1,1728,1233,0,0
511,-209,0,0,0,0,0,0,0,0,0,-1,1735,1233,0,0
518,-209,0,0,0,0,0,0,0,0,0,-1,1742,1233,0,0
525,-209,0,0,0,0,0,0,0,0,0,-1,1749,1233,0,0
532,-209,0,0,0,0,0,0,0,0,0,-1,1756,1233,0,0
539,-209,0,0,0,0,0,0,0,0,0,-1,1763,1233,0,0
546,-209,0,0,0,0,0,0,0,0,0,-1,1770,1233,0,0
553,-209,0,0,0,0,0,0,0,0,0,-1,1777,1233,0,0
560,-209,0,0,0,0,0,0,0,0,0,-1,1784,1233,0,0
567,-209,0,0,0,0,0,0,0,0,0,-1,1791,1233,0,0
574,-209,0,0,0,0,0,0,0,0,0,-1,1798,1233,0,0
581,-209,0,0,0,0,0,0,0,0,0,-1,1805,1233,0,0
588,-209,0,0,0,0,0,0,0,0,0,-1,1812,1233,0,0
595,-209,0,0,0,0,0,0,0,0,0,-1,1819,1233,0,0
602,-209,0,0,0,0,0,0,0,0,0,-1,1826,1233,0,0
609,-209,0,0,0,0,0,0,0,0,0,-1,1833,1233,0,0
616,-209,0,0,0,0,0,0,0,0,0,-1,1840,1233,0,0
623,-209,60.5946,2.59326,0.00370307,-6.24002e-05,0.00492932,0.00709697,-0.0034563,0.602975,0.00621261,0.037374,1847,1233,60.5946,-2.5933
630,-209,60.6261,2.47559,0.00189107,0.00105515,0.00292013,0.00442301,-0.00147678,0.714315,0.00354499,0.0375655,1854,1233,60.6261,-2.47557
637,-209,60.6943,2.66028,0.000859163,0.00160514,0.00112471,0.00241709,4.72086e-05,0.945507,0.00159589,0.0355802,1861,1233,60.6944,-2.66033
644,-209,60.7239,2.67896,0.000532977,0.0018157,-0.000508713,0.00199296,0.000355722,-1.23551,0.00122737,0.0291918,1868,1233,60.7239,-2.67894
651,-209,60.6803,2.60571,0.000837227,0.00145621,-0.00133699,0.00251907,-0.000225631,-0.899136,0.00175942,0.0247291,1875,1233,60.6803,-2.60569
658,-209,60.6578,2.6554,0.00138501,0.000766777,-0.00146771,0.00257581,-0.000424018,-0.681609,0.0018746,0.023346,1882,1233,60.6578,-2.65543
665,-209,60.792,2.65063,0.00179295,8.36887e-05,-0.00131327,0.00250518,-0.000628547,-0.496942,0.00191435,0.0395027,1889,1233,60.792,-2.65064
672,-209,60.8026,2.61035,0,0,0,0,0,0,0,-1,1896,1233,60.8026,-2.61032
679,-209,55.2465,2.78674,0,0,0,0,0,0,0,-1,1903,1233,55.2464,-2.78678
686,-209,33.3711,3.89856,0,0,0,0,0,0,0,-1,1910,1233,33.3711,-3.89855
693,-209,47.9347,11.5707,0,0,0,0,0,0,0,-1,1917,1233,47.9347,-11.5706
700,-209,48.046,10.8431,0.00285474,-0.0020384,-0.000499262,0.00290517,-0.00208882,-0.100651,0.00289609,0.0439534,1924,1233,48.046,-10.8431
707,-209,48.0981,10.1927,0.00308546,-0.00221586,-0.000268715,0.00309904,-0.00222944,-0.0505158,0.00309003,0.0361975,1931,1233,48.0981,-10.1928
714,-209,48.0984,9.68152,0.00241869,-0.00206616,-8.29472e-05,0.00242023,-0.00206769,-0.0184865,0.00259377,0.0226462,1938,1233,48.0983,-9.68157
721,-209,48.149,9.07825,0.00173914,-0.00192425,0.000261436,0.0017577,-0.00194281,0.0708858,0.00213738,0.0129107,1945,1233,48.149,-9.07822
728,-209,48.1736,8.53601,0.00149652,-0.00161094,0.000785296,0.0016837,-0.00179812,0.23399,0.00201059,0.0124167,1952,1233,48.1736,-8.53605
735,-209,48.1438,7.97913,0.00118192,-0.00104965,0.00144635,0.00189285,-0.00176059,0.456855,0.00210977,0.0153323,1959,1233,48.1438,-7.97915
742,-209,48.0878,7.40466,0.00103814,-0.000609888,0.0022965,0.00265398,-0.00222573,0.613146,0.00282092,0.015537,1966,1233,48.0878,-7.40467
749,-209,48.0155,6.85352,0.00134121,-0.000214437,0.00317297,0.0038303,-0.00270353,0.665199,0.00379096,0.0136276,1973,1233,48.0155,-6.85355
756,-209,47.9972,6.3269,0.00226454,8.55639e-05,0.00405393,0.00537283,-0.00302273,0.654126,0.00491007,0.0124421,1980,1233,47.9972,-6.32695
763,-209,47.979,5.91357,0.00424948,0.000214475,0.00484715,0.00748223,-0.00301827,0.588191,0.0062424,0.0235845,1987,1233,47.979,-5.91355
770,-209,48.0583,5.6698,0,0,0,0,0,0,0,-1,1994,1233,48.0584,-5.66982
777,-209,49.8105,-3.45435,0,0,0,0,0,0,0,-1,2001,1233,49.8106,3.45429
784,-209,53.6729,-0.603394,0,0,0,0,0,0,0,-1,2008,1233,53.6728,0.603386
791,-209,53.6887,1.53479,0,0,0,0,0,0,0,-1,2015,1233,53.6887,-1.53478
798,-209,53.6404,3.71179,0,0,0,0,0,0,0,-1,2022,1233,53.6404,-3.71185
805,-209,0,0,0,0,0,0,0,0,0,-1,2029,1233,0,0
812,-209,0,0,0,0,0,0,0,0,0,-1,2036,1233,0,0
-700,-216,0,0,0,0,0,0,0,0,0,-1,524,1240,0,0
-693,-216,0,0,0,0,0,0,0,0,0,-1,531,1240,0,0
-686,-216,0,0,0,0,0,0,0,0,0,-1,538,1240,0,0
-679,-216,-40.8773,3.28052,0,0,0,0,0,0,0,-1,545,1240,-40.8773,-3.28054
-672,-216,-41.6474,2.85388,0,0,0,0,0,0,0,-1,552,1240,-41.6474,-2.85392
-665,-216,-42.4839,2.03894,0,0,0,0,0,0,0,-1,559,1240,-42.4839,-2.03899
-658,-216,-43.703,1.24719,0,0,0,0,0,0,0,-1,566,1240,-43.703,-1.24716
-651,-216,-44.6378,0.500122,0,0,0,0,0,0,0,-1,573,1240,-44.6378,-0.500092
-644,-216,-45.1311,-0.217285,0,0,0,0,0,0,0,-1,580,1240,-45.1311,0.217258
-637,-216,-31.925,2.55432,0,0,0,0,0,0,0,-1,587,1240,-31.9251,-2.55435
-630,-216,-31.9194,3.32288,0.00356689,0.0093293,0.00543942,0.0126035,0.000292722,1.02896,0.00830646,0.040798,594,1240,-31.9195,-3.32291
-623,-216,-32.0135,4.03308,0.00186298,0.00628056,0.00318884,0.00795088,0.000192667,1.08829,0.00523755,0.0184736,601,1240,-32.0135,-4.0331
-616,-216,-32.0757,4.58472,0.000823863,0.00409734,0.00172742,0.00484029,8.09201e-05,1.16462,0.00320023,0.0134731,608,1240,-32.0757,-4.58466
-609,-216,-32.0958,5.22058,0.000223308,0.00241447,0.000684456,0.0026107,2.70767e-05,1.29159,0.00173151,0.013858,615,1240,-32.0957,-5.22054
-602,-216,-32.1097,5.77869,-5.90494e-05,0.00107256,-5.47072e-06,0.00107258,-5.90759e-05,-1.56596,0.000735539,0.014112,622,1240,-32.1097,-5.7787
-595,-216,-32.1272,6.33325,-0.000171793,0.000107515,-0.000233914,0.000240293,-0.00030457,-1.05452,0.000315305,0.0183631,629,1240,-32.1272,-6.33321
-588,-216,-32.1498,6.95996,-0.00012708,-7.5225e-05,-0.00030099,0.000200952,-0.000403257,-0.828363,0.000355299,0.020652,636,1240,-32.1498,-6.95999
-581,-216,-32.139,7.61621,0.000610521,-0.000566674,-0.000500941,0.000794833,-0.000750985,-0.352559,0.000892598,0.0443174,643,1240,-32.139,-7.61626
-574,-216,-32.0745,8.41443,0.00156372,-0.000491307,-0.000934249,0.00192495,-0.000852535,-0.368946,0.00164294,0.0490293,650,1240,-32.0745,-8.41446
-567,-216,-32.2125,9.11792,0,0,0,0,0,0,0,-1,657,1240,-32.2125,-9.11794
-560,-216,-16.5087,5.4574,0,0,0,0,0,0,0,-1,664,1240,-16.5087,-5.45746
-553,-216,-16.2355,1.22351,0,0,0,0,0,0,0,-1,671,1240,-16.2356,-1.22356
-546,-216,-37.1617,-0.25415,0,0,0,0,0,0,0,-1,678,1240,-37.1618,0.254161
-539,-216,-45.7053,1.65613,0,0,0,0,0,0,0,-1,685,1240,-45.7053,-1.65616
-532,-216,-45.4951,1.28552,0,0,0,0,0,0,0,-1,692,1240,-45.4951,-1.28547
-525,-216,-45.327,0.572266,0,0,0,0,0,0,0,-1,699,1240,-45.327,-0.572281
-518,-216,-45.4149,0.72998,-0.00399063,-0.000598573,-0.00229485,0.000558964,-0.00514817,-1.10363,0.0036328,0.0450794,706,1240,-45.4148,-0.730003
-511,-216,-45.6813,0.917603,-0.00342355,4.82375e-05,-0.00194701,0.000920828,-0.00429614,-1.14947,0.00321529,0.0444269,713,1240,-45.6813,-0.917563
-504,-216,-45.6442,1.03076,0.00307749,0.00261381,-0.00115493,0.00402362,0.00166768,-0.686346,0.00233434,0.0435541,720,1240,-45.6443,-1.03071
-497,-216,0,0,0,0,0,0,0,0,0,-1,727,1240,0,0
-490,-216,0,0,0,0,0,0,0,0,0,-1,734,1240,0,0
-483,-216,0,0,0,0,0,0,0,0,0,-1,741,1240,0,0
-476,-216,0,0,0,0,0,0,0,0,0,-1,748,1240,0,0
-469,-216,0,0,0,0,0,0,0,0,0,-1,755,1240,0,0
-462,-216,0,0,0,0,0,0,0,0,0,-1,762,1240,0,0
-455,-216,0,0,0,0,0,0,0,0,0,-1,769,1240,0,0
-448,-216,0,0,0,0,0,0,0,0,0,-1,776,1240,0,0
-441,-216,0,0,0,0,0,0,0,0,0,-1,783,1240,0,0
-434,-216,0,0,0,0,0,0,0,0,0,-1,790,1240,0,0
-427,-216,0,0,0,0,0,0,0,0,0,-1,797,1240,0,0
-420,-216,0,0,0,0,0,0,0,0,0,-1,804,1240,0,0
-413,-216,0,0,0,0,0,0,0,0,0,-1,811,1240,0,0
-406,-216,0,0,0,0,0,0,0,0,0,-1,818,1240,0,0
-399,-216,0,0,0,0,0,0,0,0,0,-1,825,1240,0,0
-392,-216,0,0,0,0,0,0,0,0,0,-1,832,1240,0,0
-385,-216,0,0,0,0,0,0,0,0,0,-1,839,1240,0,0
-378,-216,0,0,0,0,0,0,0,0,0,-1,846,1240,0,0
-371,-216,0,0,0,0,0,0,0,0,0,-1,853,1240,0,0
-364,-216,0,0,0,0,0,0,0,0,0,-1,860,1240,0,0
-357,-216,0,0,0,0,0,0,0,0,0,-1,867,1240,0,0
-350,-216,0,0,0,0,0,0,0,0,0,-1,874,1240,0,0
-343,-216,0,0,0,0,0,0,0,0,0,-1,881,1240,0,0
-336,-216,0,0,0,0,0,0,0,0,0,-1,888,1240,0,0
-329,-216,0,0,0,0,0,0,0,0,0,-1,895,1240,0,0
-322,-216,0,0,0,0,0,0,0,0,0,-1,902,1240,0,0
-315,-216,0,0,0,0,0,0,0,0,0,-1,909,1240,0,0
-308,-216,0,0,0,0,0,0,0,0,0,-1,916,1240,0,0
-301,-216,0,0,0,0,0,0,0,0,0,-1,923,1240,0,0
-294,-216,0,0,0,0,0,0,0,0,0,-1,930,1240,0,0
-287,-216,0,0,0,0,0,0,0,0,0,-1,937,1240,0,0
-280,-216,0,0,0,0,0,0,0,0,0,-1,944,1240,0,0
-273,-216,0,0,0,0,0,0,0,0,0,-1,951,1240,0,0
-266,-216,0,0,0,0,0,0,0,0,0,-1,958,1240,0,0
-259,-216,0,0,0,0,0,0,0,0,0,-1,965,1240,0,0
-252,-216,0,0,0,0,0,0,0,0,0,-1,972,1240,0,0
-245,-216,0,0,0,0,0,0,0,0,0,-1,979,1240,0,0
-238,-216,0,0,0,0,0,0,0,0,0,-1,986,1240,0,0
-231,-216,0,0,0,0,0,0,0,0,0,-1,993,1240,0,0
-224,-216,0,0,0,0,0,0,0,0,0,-1,1000,1240,0,0
-217,-216,0,0,0,0,0,0,0,0,0,-1,1007,1240,0,0
-210,-216,0,0,0,0,0,0,0,0,0,-1,1014,1240,0,0
-203,-216,0,0,0,0,0,0,0,0,0,-1,1021,1240,0,0
-196,-216,0,0,0,0,0,0,0,0,0,-1,1028,1240,0,0
-189,-216,0,0,0,0,0,0,0,0,0,-1,1035,1240,0,0
-182,-216,0,0,0,0,0,0,0,0,0,-1,1042,1240,0,0
-175,-216,0,0,0,0,0,0,0,0,0,-1,1049,1240,0,0
-168,-216,0,0,0,0,0,0,0,0,0,-1,1056,1240,0,0
-161,-216,0,0,0,0,0,0,0,0,0,-1,1063,1240,0,0
-154,-216,0,0,0,0,0,0,0,0,0,-1,1070,1240,0,0
-147,-216,0,0,0,0,0,0,0,0,0,-1,1077,1240,0,0
-140,-216,0,0,0,0,0,0,0,0,0,-1,1084,1240,0,0
-133,-216,0,0,0,0,0,0,0,0,0,-1,1091,1240,0,0
-126,-216,0,0,0,0,0,0,0,0,0,-1,1098,1240,0,0
-119,-216,0,0,0,0,0,0,0,0,0,-1,1105,1240,0,0
-112,-216,0,0,0,0,0,0,0,0,0,-1,1112,1240,0,0
-105,-216,0,0,0,0,0,0,0,0,0,-1,1119,1240,0,0
-98,-216,0,0,0,0,0,0,0,0,0,-1,1126,1240,0,0
-91,-216,0,0,0,0,0,0,0,0,0,-1,1133,1240,0,0
-84,-216,0,0,0,0,0,0,0,0,0,-1,1140,1240,0,0
-77,-216,0,0,0,0,0,0,0,0,0,-1,1147,1240,0,0
-70,-216,0,0,0,0,0,0,0,0,0,-1,1154,1240,0,0
-63,-216,0,0,0,0,0,0,0,0,0,-1,1161,1240,0,0
-56,-216,0,0,0,0,0,0,0,0,0,-1,1168,1240,0,0
-49,-216,0,0,0,0,0,0,0,0,0,-1,1175,1240,0,0
-42,-216,0,0,0,0,0,0,0,0,0,-1,1182,1240,0,0
-35,-216,0,0,0,0,0,0,0,0,0,-1,1189,1240,0,0
-28,-216,0,0,0,0,0,0,0,0,0,-1,1196,1240,0,0
-21,-216,0,0,0,0,0,0,0,0,0,-1,1203,1240,0,0
-14,-216,0,0,0,0,0,0,0,0,0,-1,1210,1240,0,0
-7,-216,0,0,0,0,0,0,0,0,0,-1,1217,1240,0,0
0,-216,0,0,0,0,0,0,0,0,0,-1,1224,1240,0,0
7,-216,0,0,0,0,0,0,0,0,0,-1,1231,1240,0,0
14,-216,0,0,0,0,0,0,0,0,0,-1,1238,1240,0,0
21,-216,0,0,0,0,0,0,0,0,0,-1,1245,1240,0,0
28,-216,0,0,0,0,0,0,0,0,0,-1,1252,1240,0,0
35,-216,0,0,0,0,0,0,0,0,0,-1,1259,1240,0,0
42,-216,0,0,0,0,0,0,0,0,0,-1,1266,1240,0,0
49,-216,0,0,0,0,0,0,0,0,0,-1,1273,1240,0,0
56,-216,0,0,0,0,0,0,0,0,0,-1,1280,1240,0,0
63,-216,0,0,0,0,0,0,0,0,0,-1,1287,1240,0,0
70,-216,0,0,0,0,0,0,0,0,0,-1,1294,1240,0,0
77,-216,0,0,0,0,0,0,0,0,0,-1,1301,1240,0,0
84,-216,0,0,0,0,0,0,0,0,0,-1,1308,1240,0,0
91,-216,0,0,0,0,0,0,0,0,0,-1,1315,1240,0,0
98,-216,0,0,0,0,0,0,0,0,0,-1,1322,1240,0,0
105,-216,0,0,0,0,0,0,0,0,0,-1,1329,1240,0,0
112,-216,0,0,0,0,0,0,0,0,0,-1,1336,1240,0,0
119,-216,0,0,0,0,0,0,0,0,0,-1,1343,1240,0,0
126,-216,0,0,0,0,0,0,0,0,0,-1,1350,1240,0,0
133,-216,0,0,0,0,0,0,0,0,0,-1,1357,1240,0,0
140,-216,0,0,0,0,0,0,0,0,0,-1,1364,1240,0,0
147,-216,0,0,0,0,0,0,0,0,0,-1,1371,1240,0,0
154,-216,0,0,0,0,0,0,0,0,0,-1,1378,1240,0,0
161,-216,0,0,0,0,0,0,0,0,0,-1,1385,1240,0,0
168,-216,0,0,0,0,0,0,0,0,0,-1,1392,1240,0,0
175,-216,0,0,0,0,0,0,0,0,0,-1,1399,1240,0,0
182,-216,0,0,0,0,0,0,0,0,0,-1,1406,1240,0,0
189,-216,0,0,0,0,0,0,0,0,0,-1,1413,1240,0,0
196,-216,0,0,0,0,0,0,0,0,0,-1,1420,1240,0,0
203,-216,0,0,0,0,0,0,0,0,0,-1,1427,1240,0,0
210,-216,0,0,0,0,0,0,0,0,0,-1,1434,1240,0,0
217,-216,0,0,0,0,0,0,0,0,0,-1,1441,1240,0,0
224,-216,0,0,0,0,0,0,0,0,0,-1,1448,1240,0,0
231,-216,0,0,0,0,0,0,0,0,0,-1,1455,1240,0,0
238,-216,0,0,0,0,0,0,0,0,0,-1,1462,1240,0,0
245,-216,0,0,0,0,0,0,0,0,0,-1,1469,1240,0,0
252,-216,0,0,0,0,0,0,0,0,0,-1,1476,1240,0,0
259,-216,0,0,0,0,0,0,0,0,0,-1,1483,1240,0,0
266,-216,0,0,0,0,0,0,0,0,0,-1,1490,1240,0,0
273,-216,0,0,0,0,0,0,0,0,0,-1,1497,1240,0,0
280,-216,0,0,0,0,0,0,0,0,0,-1,1504,1240,0,0
287,-216,0,0,0,0,0,0,0,0,0,-1,1511,1240,0,0
294,-216,0,0,0,0,0,0,0,0,0,-1,1518,1240,0,0
301,-216,0,0,0,0,0,0,0,0,0,-1,1525,1240,0,0
308,-216,0,0,0,0,0,0,0,0,0,-1,1532,1240,0,0
315,-216,0,0,0,0,0,0,0,0,0,-1,1539,1240,0,0
322,-216,0,0,0,0,0,0,0,0,0,-1,1546,1240,0,0
329,-216,0,0,0,0,0,0,0,0,0,-1,1553,1240,0,0
336,-216,0,0,0,0,0,0,0,0,0,-1,1560,1240,0,0
343,-216,0,0,0,0,0,0,0,0,0,-1,1567,1240,0,0
350,-216,0,0,0,0,0,0,0,0,0,-1,1574,1240,0,0
357,-216,0,0,0,0,0,0,0,0,0,-1,1581,1240,0,0
364,-216,0,0,0,0,0,0,0,0,0,-1,1588,1240,0,0
371,-216,0,0,0,0,0,0,0,0,0,-1,1595,1240,0,0
378,-216,0,0,0,0,0,0,0,0,0,-1,1602,1240,0,0
385,-216,0,0,0,0,0,0,0,0,0,-1,1609,1240,0,0
392,-216,0,0,0,0,0,0,0,0,0,-1,1616,1240,0,0
399,-216,0,0,0,0,0,0,0,0,0,-1,1623,1240,0,0
406,-216,0,0,0,0,0,0,0,0,0,-1,1630,1240,0,0
413,-216,0,0,0,0,0,0,0,0,0,-1,1637,1240,0,0
420,-216,0,0,0,0,0,0,0,0,0,-1,1644,1240,0,0
427,-216,0,0,0,0,0,0,0,0,0,-1,1651,1240,0,0
434,-216,0,0,0,0,0,0,0,0,0,-1,1658,1240,0,0
441,-216,0,0,0,0,0,0,0,0,0,-1,1665,1240,0,0
448,-216,0,0,0,0,0,0,0,0,0,-1,1672,1240,0,0
455,-216,0,0,0,0,0,0,0,0,0,-1,1679,1240,0,0
462,-216,0,0,0,0,0,0,0,0,0,-1,1686,1240,0,0
469,-216,0,0,0,0,0,0,0,0,0,-1,1693,1240,0,0
476,-216,0,0,0,0,0,0,0,0,0,-1,1700,1240,0,0
483,-216,0,0,0,0,0,0,0,0,0,-1,1707,1240,0,0
490,-216,0,0,0,0,0,0,0,0,0,-1,1714,1240,0,0
497,-216,0,0,0,0,0,0,0,0,0,-1,1721,1240,0,0
504,-216,0,0,0,0,0,0,0,0,0,-1,1728,1240,0,0
511,-216,0,0,0,0,0,0,0,0,0,-1,1735,1240,0,0
518,-216,0,0,0,0,0,0,0,0,0,-1,1742,1240,0,0
525,-216,0,0,0,0,0,0,0,0,0,-1,1749,1240,0,0
532,-216,0,0,0,0,0,0,0,0,0,-1,1756,1240,0,0
539,-216,0,0,0,0,0,0,0,0,0,-1,1763,1240,0,0
546,-216,0,0,0,0,0,0,0,0,0,-1,1770,1240,0,0
553,-216,0,0,0,0,0,0,0,0,0,-1,1777,1240,0,0
560,-216,0,0,0,0,0,0,0,0,0,-1,1784,1240,0,0
567,-216,0,0,0,0,0,0,0,0,0,-1,1791,1240,0,0
574,-216,0,0,0,0,0,0,0,0,0,-1,1798,1240,0,0
581,-216,0,0,0,0,0,0,0,0,0,-1,1805,1240,0,0
588,-216,0,0,0,0,0,0,0,0,0,-1,1812,1240,0,0
595,-216,0,0,0,0,0,0,0,0,0,-1,1819,1240,0,0
602,-216,0,0,0,0,0,0,0,0,0,-1,1826,1240,0,0
609,-216,0,0,0,0,0,0,0,0,0,-1,1833,1240,0,0
616,-216,0,0,0,0,0,0,0,0,0,-1,1840,1240,0,0
623,-216,60.464,2.70166,0.00432463,-0.000469209,0.00550872,0.0079353,-0.00407989,0.580195,0.00705501,0.0432648,1847,1240,60.464,-2.70167
630,-216,60.5688,2.60706,0.00192502,0.00068124,0.0027426,0.00411535,-0.00150909,0.673907,0.00336147,0.0392662,1854,1240,60.5688,-2.60704
637,-216,60.6038,2.69739,0.000279695,0.00138759,0.000203292,0.00142372,0.00024357,1.39493,0.000879273,0.0326357,1861,1240,60.6037,-2.69734
644,-216,60.6154,2.67908,-0.00035702,0.00170019,-0.00177051,0.0027192,-0.00137603,-1.04855,0.0024064,0.0258032,1868,1240,60.6154,-2.67908
651,-216,60.6573,2.6582,-6.04286e-05,0.00131742,-0.00230548,0.0030347,-0.00177771,-0.930585,0.00280987,0.0235982,1875,1240,60.6573,-2.65815
658,-216,60.6903,2.70288,0.000531098,0.00069718,-0.00215544,0.00277118,-0.0015429,-0.804652,0.00252416,0.0355915,1882,1240,60.6904,-2.70291
665,-216,60.9061,2.67468,0.000989172,0.000142757,-0.00181191,0.00242664,-0.00129471,-0.67067,0.0021814,0.0498616,1889,1240,60.9062,-2.67464
672,-216,61.1779,2.61499,0,0,0,0,0,0,0,-1,1896,1240,61.1779,-2.61496
679,-216,47.3159,3.82703,0,0,0,0,0,0,0,-1,1903,1240,47.316,-3.82708
686,-216,21.5172,6.19458,0,0,0,0,0,0,0,-1,1910,1240,21.5172,-6.19453
693,-216,47.2822,10.9481,0,0,0,0,0,0,0,-1,1917,1240,47.2822,-10.9482
700,-216,47.4644,10.5662,0,0,0,0,0,0,0,-1,1924,1240,47.4644,-10.5662
707,-216,47.5691,10.2303,0.00287131,-0.00216717,-0.000328299,0.00289262,-0.00218847,-0.0647931,0.00294294,0.0432542,1931,1240,47.569,-10.2303
714,-216,47.5747,9.66418,0.00213922,-0.00199222,-3.20097e-05,0.00213947,-0.00199247,-0.00774719,0.00238608,0.0177371,1938,1240,47.5747,-9.66421
721,-216,47.5945,9.13867,0.00136019,-0.0017811,0.000492767,0.00143568,-0.00185658,0.152005,0.00190596,0.0134933,1945,1240,47.5945,-9.13863
728,-216,47.6235,8.573,0.000870056,-0.00141697,0.00120336,0.00138657,-0.00193348,0.405446,0.00192548,0.012831,1952,1240,47.6235,-8.573
735,-216,47.6252,8.01257,0.000301336,-0.000948656,0.00208387,0.00185192,-0.00249924,0.639706,0.00252139,0.0146411,1959,1240,47.6252,-8.01262
742,-216,47.5341,7.4668,-0.000170984,-0.000622248,0.00317832,0.00278971,-0.00358294,0.749962,0.00368874,0.0162632,1966,1240,47.5341,-7.4668
749,-216,47.4885,6.87903,-0.000363256,-0.000383556,0.00444011,0.00406672,-0.00481353,0.784255,0.00513305,0.0122585,1973,1240,47.4885,-6.87908
756,-216,47.4521,6.32922,-0.000116039,-0.000271951,0.00586986,0.00567639,-0.00606438,0.778758,0.00677977,0.0112444,1980,1240,47.4522,-6.32924
763,-216,47.4227,5.86755,0.00089296,-0.000392649,0.00756675,0.00784416,-0.00734385,0.743024,0.00877039,0.0200078,1987,1240,47.4227,-5.86749
770,-216,47.4174,5.61572,0.00275816,-0.000632902,0.00934779,0.0105629,-0.00843768,0.695682,0.0109929,0.0416544,1994,1240,47.4174,-5.61575
777,-216,47.4697,5.33276,0,0,0,0,0,0,0,-1,2001,1240,47.4697,-5.33273
784,-216,51.8208,-0.443726,0,0,0,0,0,0,0,-1,2008,1240,51.8208,0.443779
791,-216,55.1682,1.76636,0,0,0,0,0,0,0,-1,2015,1240,55.1682,-1.76635
798,-216,0,0,0,0,0,0,0,0,0,-1,2022,1240,0,0
805,-216,0,0,0,0,0,0,0,0,0,-1,2029,1240,0,0
812,-216,0,0,0,0,0,0,0,0,0,-1,2036,1240,0,0
-700,-223,0,0,0,0,0,0,0,0,0,-1,524,1247,0,0
-693,-223,0,0,0,0,0,0,0,0,0,-1,531,1247,0,0
-686,-223,0,0,0,0,0,0,0,0,0,-1,538,1247,0,0
-679,-223,0,0,0,0,0,0,0,0,0,-1,545,1247,0,0
-672,-223,-44.9912,3.75146,0,0,0,0,0,0,0,-1,552,1247,-44.9912,-3.75143
-665,-223,-43.3776,2.73401,0,0,0,0,0,0,0,-1,559,1247,-43.3776,-2.73397
-658,-223,-44.6705,1.65955,0,0,0,0,0,0,0,-1,566,1247,-44.6705,-1.65959
-651,-223,-45.6436,0.58606,0,0,0,0,0,0,0,-1,573,1247,-45.6436,-0.586086
-644,-223,-46.2908,-0.212891,0,0,0,0,0,0,0,-1,580,1247,-46.2908,0.212852
-637,-223,-46.7499,-0.944946,0,0,0,0,0,0,0,-1,587,1247,-46.7499,0.944886
-630,-223,-31.4357,3.3833,0,0,0,0,0,0,0,-1,594,1247,-31.4356,-3.38325
-623,-223,-31.4897,4.12305,0.00154674,0.00674041,0.00316264,0.00823574,5.14025e-05,1.12913,0.00547344,0.0308995,601,1247,-31.4897,-4.1231
-616,-223,-31.4792,4.59802,0.000642151,0.00454483,0.00181299,0.00525707,-7.00881e-05,1.19647,0.00352831,0.0168516,608,1247,-31.4792,-4.59797
-609,-223,-31.47,5.2301,0.000196255,0.00287786,0.000865974,0.00313319,-5.90824e-05,1.28407,0.00210877,0.0132153,615,1247,-31.47,-5.23015
-602,-223,-31.5027,5.77612,5.32255e-05,0.0015878,0.000233407,0.00162252,1.85099e-05,1.42314,0.00107556,0.0151482,622,1247,-31.5027,-5.77616
-595,-223,-31.5281,6.41602,4.19997e-05,0.000616827,-9.72935e-05,0.000632848,2.59786e-05,-1.40759,0.000413511,0.0202741,629,1247,-31.5281,-6.41599
-588,-223,-31.5311,7.03748,0.000173946,0.00044722,-0.000252792,0.000597939,2.32277e-05,-1.03316,0.000391113,0.0235179,636,1247,-31.5311,-7.0375
-581,-223,-31.6178,7.64429,0.000687624,9.00211e-05,-0.000442083,0.000922414,-0.000144769,-0.488216,0.000668445,0.0287871,643,1247,-31.6178,-7.64427
-574,-223,-31.7303,8.19604,0.00121412,0.000312207,-0.000753351,0.00164117,-0.000114846,-0.515704,0.00113434,0.0327126,650,1247,-31.7303,-8.19602
-567,-223,-31.7212,8.83984,0.00124113,0.000844238,-0.0011257,0.00218574,-0.000100374,-0.698151,0.00149175,0.0487905,657,1247,-31.7212,-8.8398
-560,-223,-31.8748,9.50732,0,0,0,0,0,0,0,-1,664,1247,-31.8748,-9.50735
-553,-223,-11.4025,4.14722,0,0,0,0,0,0,0,-1,671,1247,-11.4025,-4.14719
-546,-223,-26.9034,-0.148682,0,0,0,0,0,0,0,-1,678,1247,-26.9034,0.14867
-539,-223,-36.7405,0.35376,0,0,0,0,0,0,0,-1,685,1247,-36.7405,-0.353807
-532,-223,-45.3862,1.28455,0,0,0,0,0,0,0,-1,692,1247,-45.3862,-1.28458
-525,-223,-44.841,0.599609,0,0,0,0,0,0,0,-1,699,1247,-44.841,-0.599644
-518,-223,-45.3992,0.766357,0,0,0,0,0,0,0,-1,706,1247,-45.3992,-0.766418
-511,-223,-45.7179,1.01379,-0.0080106,-0.00279549,-0.00116866,-0.00254557,-0.00826051,-1.36012,0.00488482,0.0403871,713,1247,-45.7179,-1.01382
-504,-223,-45.6512,1.00439,-0.00644011,-0.00128295,0.000169319,-0.0012774,-0.00644566,1.53801,0.00394093,0.0428519,720,1247,-45.6512,-1.00439
-497,-223,0,0,0,0,0,0,0,0,0,-1,727,1247,0,0
-490,-223,0,0,0,0,0,0,0,0,0,-1,734,1247,0,0
-483,-223,0,0,0,0,0,0,0,0,0,-1,741,1247,0,0
-476,-223,0,0,0,0,0,0,0,0,0,-1,748,1247,0,0
-469,-223,0,0,0,0,0,0,0,0,0,-1,755,1247,0,0
-462,-223,0,0,0,0,0,0,0,0,0,-1,762,1247,0,0
-455,-223,0,0,0,0,0,0,0,0,0,-1,769,1247,0,0
-448,-223,0,0,0,0,0,0,0,0,0,-1,776,1247,0,0
-441,-223,0,0,0,0,0,0,0,0,0,-1,783,1247,0,0
-434,-223,0,0,0,0,0,0,0,0,0,-1,790,1247,0,0
-427,-223,0,0,0,0,0,0,0,0,0,-1,797,1247,0,0
-420,-223,0,0,0,0,0,0,0,0,0,-1,804,1247,0,0
-413,-223,0,0,0,0,0,0,0,0,0,-1,811,1247,0,0
-406,-223,0,0,0,0,0,0,0,0,0,-1,818,1247,0,0
-399,-223,0,0,0,0,0,0,0,0,0,-1,825,1247,0,0
-392,-223,0,0,0,0,0,0,0,0,0,-1,832,1247,0,0
-385,-223,0,0,0,0,0,0,0,0,0,-1,839,1247,0,0
-378,-223,0,0,0,0,0,0,0,0,0,-1,846,1247,0,0
-371,-223,0,0,0,0,0,0,0,0,0,-1,853,1247,0,0
-364,-223,0,0,0,0,0,0,0,0,0,-1,860,1247,0,0
-357,-223,0,0,0,0,0,0,0,0,0,-1,867,1247,0,0
-350,-223,0,0,0,0,0,0,0,0,0,-1,874,1247,0,0
-343,-223,0,0,0,0,0,0,0,0,0,-1,881,1247,0,0
-336,-223,0,0,0,0,0,0,0,0,0,-1,888,1247,0,0
-329,-223,0,0,0,0,0,0,0,0,0,-1,895,1247,0,0
-322,-223,0,0,0,0,0,0,0,0,0,-1,902,1247,0,0
-315,-223,0,0,0,0,0,0,0,0,0,-1,909,1247,0,0
-308,-223,0,0,0,0,0,0,0,0,0,-1,916,1247,0,0
-301,-223,0,0,0,0,0,0,0,0,0,-1,923,1247,0,0
-294,-223,0,0,0,0,0,0,0,0,0,-1,930,1247,0,0
-287,-223,0,0,0,0,0,0,0,0,0,-1,937,1247,0,0
-280,-223,0,0,0,0,0,0,0,0,0,-1,944,1247,0,0
-273,-223,0,0,0,0,0,0,0,0,0,-1,951,1247,0,0
-266,-223,0,0,0,0,0,0,0,0,0,-1,958,1247,0,0
-259,-223,0,0,0,0,0,0,0,0,0,-1,965,1247,0,0
-252,-223,0,0,0,0,0,0,0,0,0,-1,972,1247,0,0
-245,-223,0,0,0,0,0,0,0,0,0,-1,979,1247,0,0
-238,-223,0,0,0,0,0,0,0,0,0,-1,986,1247,0,0
-231,-223,0,0,0,0,0,0,0,0,0,-1,993,1247,0,0
-224,-223,0,0,0,0,0,0,0,0,0,-1,1000,1247,0,0
-217,-223,0,0,0,0,0,0,0,0,0,-1,1007,1247,0,0
-210,-223,0,0,0,0,0,0,0,0,0,-1,1014,1247,0,0
-203,-223,0,0,0,0,0,0,0,0,0,-1,1021,1247,0,0
-196,-223,0,0,0,0,0,0,0,0,0,-1,1028,1247,0,0
-189,-223,0,0,0,0,0,0,0,0,0,-1,1035,1247,0,0
-182,-223,0,0,0,0,0,0,0,0,0,-1,1042,1247,0,0
-175,-223,0,0,0,0,0,0,0,0,0,-1,1049,1247,0,0
-168,-223,0,0,0,0,0,0,0,0,0,-1,1056,1247,0,0
-161,-223,0,0,0,0,0,0,0,0,0,-1,1063,1247,0,0
-154,-223,0,0,0,0,0,0,0,0,0,-1,1070,1247,0,0
-147,-223,0,0,0,0,0,0,0,0,0,-1,1077,1247,0,0
-140,-223,0,0,0,0,0,0,0,0,0,-1,1084,1247,0,0
-133,-223,0,0,0,0,0,0,0,0,0,-1,1091,1247,0,0
-126,-223,0,0,0,0,0,0,0,0,0,-1,1098,1247,0,0
-119,-223,0,0,0,0,0,0,0,0,0,-1,1105,1247,0,0
-112,-223,0,0,0,0,0,0,0,0,0,-1,1112,1247,0,0
-105,-223,0,0,0,0,0,0,0,0,0,-1,1119,1247,0,0
-98,-223,0,0,0,0,0,0,0,0,0,-1,1126,1247,0,0
-91,-223,0,0,0,0,0,0,0,0,0,-1,1133,1247,0,0
-84,-223,0,0,0,0,0,0,0,0,0,-1,1140,1247,0,0
-77,-223,0,0,0,0,0,0,0,0,0,-1,1147,1247,0,0
-70,-223,0,0,0,0,0,0,0,0,0,-1,1154,1247,0,0
-63,-223,0,0,0,0,0,0,0,0,0,-1,1161,1247,0,0
-56,-223,0,0,0,0,0,0,0,0,0,-1,1168,1247,0,0
-49,-223,0,0,0,0,0,0,0,0,0,-1,1175,1247,0,0
-42,-223,0,0,0,0,0,0,0,0,0,-1,1182,1247,0,0
-35,-223,0,0,0,0,0,0,0,0,0,-1,1189,1247,0,0
-28,-223,0,0,0,0,0,0,0,0,0,-1,1196,1247,0,0
-21,-223,0,0,0,0,0,0,0,0,0,-1,1203,1247,0,0
-14,-223,0,0,0,0,0,0,0,0,0,-1,1210,1247,0,0
-7,-223,0,0,0,0,0,0,0,0,0,-1,1217,1247,0,0
0,-223,0,0,0,0,0,0,0,0,0,-1,1224,1247,0,0
7,-223,0,0,0,0,0,0,0,0,0,-1,1231,1247,0,0
14,-223,0,0,0,0,0,0,0,0,0,-1,1238,1247,0,0
21,-223,0,0,0,0,0,0,0,0,0,-1,1245,1247,0,0
28,-223,0,0,0,0,0,0,0,0,0,-1,1252,1247,0,0
35,-223,0,0,0,0,0,0,0,0,0,-1,1259,1247,0,0
42,-223,0,0,0,0,0,0,0,0,0,-1,1266,1247,0,0
49,-223,0,0,0,0,0,0,0,0,0,-1,1273,1247,0,0
56,-223,0,0,0,0,0,0,0,0,0,-1,1280,1247,0,0
63,-223,0,0,0,0,0,0,0,0,0,-1,1287,1247,0,0
70,-223,0,0,0,0,0,0,0,0,0,-1,1294,1247,0,0
77,-223,0,0,0,0,0,0,0,0,0,-1,1301,1247,0,0
84,-223,0,0,0,0,0,0,0,0,0,-1,1308,1247,0,0
91,-223,0,0,0,0,0,0,0,0,0,-1,1315,1247,0,0
98,-223,0,0,0,0,0,0,0,0,0,-1,1322,1247,0,0
105,-223,0,0,0,0,0,0,0,0,0,-1,1329,1247,0,0
112,-223,0,0,0,0,0,0,0,0,0,-1,1336,1247,0,0
119,-223,0,0,0,0,0,0,0,0,0,-1,1343,1247,0,0
126,-223,0,0,0,0,0,0,0,0,0,-1,1350,1247,0,0
133,-223,0,0,0,0,0,0,0,0,0,-1,1357,1247,0,0
140,-223,0,0,0,0,0,0,0,0,0,-1,1364,1247,0,0
147,-223,0,0,0,0,0,0,0,0,0,-1,1371,1247,0,0
154,-223,0,0,0,0,0,0,0,0,0,-1,1378,1247,0,0
161,-223,0,0,0,0,0,0,0,0,0,-1,1385,1247,0,0
168,-223,0,0,0,0,0,0,0,0,0,-1,1392,1247,0,0
175,-223,0,0,0,0,0,0,0,0,0,-1,1399,1247,0,0
182,-223,0,0,0,0,0,0,0,0,0,-1,1406,1247,0,0
189,-223,0,0,0,0,0,0,0,0,0,-1,1413,1247,0,0
196,-223,0,0,0,0,0,0,0,0,0,-1,1420,1247,0,0
203,-223,0,0,0,0,0,0,0,0,0,-1,1427,1247,0,0
210,-223,0,0,0,0,0,0,0,0,0,-1,1434,1247,0,0
217,-223,0,0,0,0,0,0,0,0,0,-1,1441,1247,0,0
224,-223,0,0,0,0,0,0,0,0,0,-1,1448,1247,0,0
231,-223,0,0,0,0,0,0,0,0,0,-1,1455,1247,0,0
238,-223,0,0,0,0,0,0,0,0,0,-1,1462,1247,0,0
245,-223,0,0,0,0,0,0,0,0,0,-1,1469,1247,0,0
252,-223,0,0,0,0,0,0,0,0,0,-1,1476,1247,0,0
259,-223,0,0,0,0,0,0,0,0,0,-1,1483,1247,0,0
266,-223,0,0,0,0,0,0,0,0,0,-1,1490,1247,0,0
273,-223,0,0,0,0,0,0,0,0,0,-1,1497,1247,0,0
280,-223,0,0,0,0,0,0,0,0,0,-1,1504,1247,0,0
287,-223,0,0,0,0,0,0,0,0,0,-1,1511,1247,0,0
294,-223,0,0,0,0,0,0,0,0,0,-1,1518,1247,0,0
301,-223,0,0,0,0,0,0,0,0,0,-1,1525,1247,0,0
308,-223,0,0,0,0,0,0,0,0,0,-1,1532,1247,0,0
315,-223,0,0,0,0,0,0,0,0,0,-1,1539,1247,0,0
322,-223,0,0,0,0,0,0,0,0,0,-1,1546,1247,0,0
329,-223,0,0,0,0,0,0,0,0,0,-1,1553,1247,0,0
336,-223,0,0,0,0,0,0,0,0,0,-1,1560,1247,0,0
343,-223,0,0,0,0,0,0,0,0,0,-1,1567,1247,0,0
350,-223,0,0,0,0,0,0,0,0,0,-1,1574,1247,0,0
357,-223,0,0,0,0,0,0,0,0,0,-1,1581,1247,0,0
364,-223,0,0,0,0,0,0,0,0,0,-1,1588,1247,0,0
371,-223,0,0,0,0,0,0,0,0,0,-1,1595,1247,0,0
378,-223,0,0,0,0,0,0,0,0,0,-1,1602,1247,0,0
385,-223,0,0,0,0,0,0,0,0,0,-1,1609,1247,0,0
392,-223,0,0,0,0,0,0,0,0,0,-1,1616,1247,0,0
399,-223,0,0,0,0,0,0,0,0,0,-1,1623,1247,0,0
406,-223,0,0,0,0,0,0,0,0,0,-1,1630,1247,0,0
413,-223,0,0,0,0,0,0,0,0,0,-1,1637,1247,0,0
420,-223,0,0,0,0,0,0,0,0,0,-1,1644,1247,0,0
427,-223,0,0,0,0,0,0,0,0,0,-1,1651,1247,0,0
434,-223,0,0,0,0,0,0,0,0,0,-1,1658,1247,0,0
441,-223,0,0,0,0,0,0,0,0,0,-1,1665,1247,0,0
448,-223,0,0,0,0,0,0,0,0,0,-1,1672,1247,0,0
455,-223,0,0,0,0,0,0,0,0,0,-1,1679,1247,0,0
462,-223,0,0,0,0,0,0,0,0,0,-1,1686,1247,0,0
469,-223,0,0,0,0,0,0,0,0,0,-1,1693,1247,0,0
476,-223,0,0,0,0,0,0,0,0,0,-1,1700,1247,0,0
483,-223,0,0,0,0,0,0,0,0,0,-1,1707,1247,0,0
490,-223,0,0,0,0,0,0,0,0,0,-1,1714,1247,0,0
497,-223,0,0,0,0,0,0,0,0,0,-1,1721,1247,0,0
504,-223,0,0,0,0,0,0,0,0,0,-1,1728,1247,0,0
511,-223,0,0,0,0,0,0,0,0,0,-1,1735,1247,0,0
518,-223,0,0,0,0,0,0,0,0,0,-1,1742,1247,0,0
525,-223,0,0,0,0,0,0,0,0,0,-1,1749,1247,0,0
532,-223,0,0,0,0,0,0,0,0,0,-1,1756,1247,0,0
539,-223,0,0,0,0,0,0,0,0,0,-1,1763,1247,0,0
546,-223,0,0,0,0,0,0,0,0,0,-1,1770,1247,0,0
553,-223,0,0,0,0,0,0,0,0,0,-1,1777,1247,0,0
560,-223,0,0,0,0,0,0,0,0,0,-1,1784,1247,0,0
567,-223,0,0,0,0,0,0,0,0,0,-1,1791,1247,0,0
574,-223,0,0,0,0,0,0,0,0,0,-1,1798,1247,0,0
581,-223,0,0,0,0,0,0,0,0,0,-1,1805,1247,0,0
588,-223,0,0,0,0,0,0,0,0,0,-1,1812,1247,0,0
595,-223,0,0,0,0,0,0,0,0,0,-1,1819,1247,0,0
602,-223,0,0,0,0,0,0,0,0,0,-1,1826,1247,0,0
609,-223,0,0,0,0,0,0,0,0,0,-1,1833,1247,0,0
616,-223,0,0,0,0,0,0,0,0,0,-1,1840,1247,0,0
623,-223,60.3505,2.79199,0,0,0,0,0,0,0,-1,1847,1247,60.3504,-2.79198
630,-223,60.5168,2.78125,0.00151148,0.00123521,0.00187114,0.00324958,-0.000502887,0.748553,0.00235201,0.0373738,1854,1247,60.5169,-2.78122
637,-223,60.5643,2.65833,-0.000668469,0.00203457,-0.000883126,0.00229752,-0.000931421,-1.2814,0.00191904,0.0299519,1861,1247,60.5644,-2.65829
644,-223,60.5848,2.66296,-0.00135252,0.002304,-0.00262391,0.00367378,-0.0027223,-1.08968,0.00370637,0.0235895,1868,1247,60.5848,-2.66294
651,-223,60.6133,2.63477,-0.000928138,0.00175181,-0.00273815,0.00346028,-0.00263661,-1.01295,0.00353073,0.0312029,1875,1247,60.6133,-2.63474
658,-223,60.7449,2.72083,0,0,0,0,0,0,0,-1,1882,1247,60.7449,-2.7208
665,-223,60.9586,2.62878,0,0,0,0,0,0,0,-1,1889,1247,60.9586,-2.62881
672,-223,56.4625,2.72424,0,0,0,0,0,0,0,-1,1896,1247,56.4626,-2.72418
679,-223,43.2783,2.46973,0,0,0,0,0,0,0,-1,1903,1247,43.2784,-2.46978
686,-223,40.7926,10.0316,0,0,0,0,0,0,0,-1,1910,1247,40.7926,-10.0316
693,-223,47.6456,11.113,0,0,0,0,0,0,0,-1,1917,1247,47.6457,-11.1131
700,-223,47.2167,10.7365,0.00231512,-0.00167566,-0.000600029,0.00240338,-0.00176393,-0.146053,0.00241542,0.0380906,1924,1247,47.2166,-10.7364
707,-223,47.0927,10.1937,0.00255538,-0.00196113,-0.000280718,0.00257276,-0.00197851,-0.0618366,0.00263513,0.0361726,1931,1247,47.0926,-10.1937
714,-223,47.0399,9.70313,0.00173244,-0.00183412,0.00014615,0.00173842,-0.0018401,0.0408864,0.00206634,0.014961,1938,1247,47.04,-9.70314
721,-223,47.0194,9.15295,0.000819827,-0.00163944,0.000858021,0.00108959,-0.00190921,0.304619,0.00175278,0.0157499,1945,1247,47.0193,-9.15301
728,-223,46.9979,8.58984,3.92123e-05,-0.00130313,0.00175081,0.00124309,-0.00250701,0.602362,0.00220573,0.0191615,1952,1247,46.998,-8.58981
735,-223,46.9891,8.05908,-0.000840907,-0.000956751,0.00284378,0.00194554,-0.0037432,0.775216,0.00333861,0.0182564,1959,1247,46.9892,-8.0591
742,-223,46.9225,7.52637,-0.00165324,-0.000735833,0.00416755,0.00299818,-0.00538725,0.84021,0.00490639,0.0163362,1966,1247,46.9225,-7.52635
749,-223,46.9119,6.88403,-0.00231899,-0.000598727,0.00570555,0.00431116,-0.00722888,0.860212,0.00673325,0.0129373,1973,1247,46.9119,-6.88407
756,-223,46.8607,6.32874,-0.00279148,-0.000623604,0.0075995,0.00596887,-0.00938395,0.856237,0.00893675,0.0155878,1980,1247,46.8607,-6.32873
763,-223,46.8389,5.87842,-0.0028573,-0.000901836,0.0100486,0.00821646,-0.0119756,0.833896,0.011725,0.0216798,1987,1247,46.8388,-5.87841
770,-223,46.9148,5.62256,-0.00247299,-0.00129663,0.013046,0.0111744,-0.014944,0.807925,0.0151318,0.0481388,1994,1247,46.9148,-5.62255
777,-223,46.9885,5.33948,0,0,0,0,0,0,0,-1,2001,1247,46.9886,-5.33942
784,-223,54.1208,-0.293457,0,0,0,0,0,0,0,-1,2008,1247,54.1208,0.293477
791,-223,34.7136,2.92554,0,0,0,0,0,0,0,-1,2015,1247,34.7137,-2.92555
798,-223,0,0,0,0,0,0,0,0,0,-1,2022,1247,0,0
805,-223,0,0,0,0,0,0,0,0,0,-1,2029,1247,0,0
812,-223,0,0,0,0,0,0,0,0,0,-1,2036,1247,0,0
-700,-230,0,0,0,0,0,0,0,0,0,-1,524,1254,0,0
-693,-230,0,0,0,0,0,0,0,0,0,-1,531,1254,0,0
-686,-230,0,0,0,0,0,0,0,0,0,-1,538,1254,0,0
-679,-230,0,0,0,0,0,0,0,0,0,-1,545,1254,0,0
-672,-230,-45.5126,3.94531,0,0,0,0,0,0,0,-1,552,1254,-45.5126,-3.94529
-665,-230,-45.7233,2.76086,0,0,0,0,0,0,0,-1,559,1254,-45.7233,-2.76091
-658,-230,-45.9288,1.59399,0,0,0,0,0,0,0,-1,566,1254,-45.9288,-1.59395
-651,-230,-46.3187,0.471313,0,0,0,0,0,0,0,-1,573,1254,-46.3187,-0.471282
-644,-230,-46.6829,-0.736084,0,0,0,0,0,0,0,-1,580,1254,-46.6828,0.736121
-637,-230,-47.2576,-2.08752,0,0,0,0,0,0,0,-1,587,1254,-47.2576,2.08754
-630,-230,-31.0086,3.32715,0,0,0,0,0,0,0,-1,594,1254,-31.0086,-3.3271
-623,-230,-30.8882,4.03137,0.0011043,0.00729852,0.00326,0.00869804,-0.000295222,1.16529,0.00589956,0.0347514,601,1254,-30.8882,-4.03133
-616,-230,-30.8349,4.62671,0.000339766,0.00507535,0.00198102,0.00579477,-0.000379657,1.22245,0.00399575,0.0175445,608,1254,-30.8349,-4.62673
-609,-230,-30.8424,5.25464,3.56352e-05,0.00339119,0.00108076,0.00370915,-0.000282326,1.28467,0.00257205,0.0123511,615,1254,-30.8424,-5.25469
-602,-230,-30.8544,5.82874,1.66556e-05,0.00206608,0.000482495,0.00217399,-9.1256e-05,1.35076,0.00148068,0.0110736,622,1254,-30.8544,-5.82868
-595,-230,-30.9316,6.48108,0.000126739,0.000986345,9.22529e-05,0.000996134,0.00011695,1.46508,0.000628742,0.0188178,629,1254,-30.9316,-6.48107
-588,-230,-30.9454,7.14282,0.000335277,0.00056571,-8.32359e-05,0.000592631,0.000308356,-1.25798,0.00034225,0.0274462,636,1254,-30.9454,-7.14278
-581,-230,-30.9733,7.75708,0.000709108,5.11388e-05,-0.00022289,0.000777503,-1.72563e-05,-0.297735,0.000524182,0.0266597,643,1254,-30.9733,-7.75713
-574,-230,-30.9554,8.27356,0.00112654,0.000211078,-0.000523955,0.00136455,-2.69258e-05,-0.426377,0.000918804,0.0306212,650,1254,-30.9554,-8.27359
-567,-230,-30.9503,8.78455,0.00105653,0.000695005,-0.000866674,0.00176109,-9.55677e-06,-0.682587,0.00117726,0.0432521,657,1254,-30.9503,-8.78459
-560,-230,-31.1587,9.224,0,0,0,0,0,0,0,-1,664,1254,-31.1587,-9.22404
-553,-230,-13.1939,4.9718,0,0,0,0,0,0,0,-1,671,1254,-13.1939,-4.97175
-546,-230,-15.23,0.453979,0,0,0,0,0,0,0,-1,678,1254,-15.23,-0.453996
-539,-230,-25.8232,0.512817,0,0,0,0,0,0,0,-1,685,1254,-25.8232,-0.512878
-532,-230,-21.1644,1.52966,0,0,0,0,0,0,0,-1,692,1254,-21.1644,-1.52969
-525,-230,-29.4775,0.731445,0,0,0,0,0,0,0,-1,699,1254,-29.4775,-0.731432
-518,-230,-45.3577,0.826416,0,0,0,0,0,0,0,-1,706,1254,-45.3577,-0.826435
-511,-230,-45.5151,0.778564,-0.0100049,-0.00488396,-0.000584557,-0.00481808,-0.0100707,-1.45857,0.00581615,0.042763,713,1254,-45.5151,-0.778553
-504,-230,-45.6247,0.765869,-0.0118306,-0.00544578,0.00032846,-0.00542893,-0.0118475,1.51953,0.00684808,0.0409614,720,1254,-45.6247,-0.765828
-497,-230,0,0,0,0,0,0,0,0,0,-1,727,1254,0,0
-490,-230,0,0,0,0,0,0,0,0,0,-1,734,1254,0,0
-483,-230,0,0,0,0,0,0,0,0,0,-1,741,1254,0,0
-476,-230,0,0,0,0,0,0,0,0,0,-1,748,1254,0,0
-469,-230,0,0,0,0,0,0,0,0,0,-1,755,1254,0,0
-462,-230,0,0,0,0,0,0,0,0,0,-1,762,1254,0,0
-455,-230,0,0,0,0,0,0,0,0,0,-1,769,1254,0,0
-448,-230,0,0,0,0,0,0,0,0,0,-1,776,1254,0,0
-441,-230,0,0,0,0,0,0,0,0,0,-1,783,1254,0,0
-434,-230,0,0,0,0,0,0,0,0,0,-1,790,1254,0,0
-427,-230,0,0,0,0,0,0,0,0,0,-1,797,1254,0,0
-420,-230,0,0,0,0,0,0,0,0,0,-1,804,1254,0,0
-413,-230,0,0,0,0,0,0,0,0,0,-1,811,1254,0,0
-406,-230,0,0,0,0,0,0,0,0,0,-1,818,1254,0,0
-399,-230,0,0,0,0,0,0,0,0,0,-1,825,1254,0,0
-392,-230,0,0,0,0,0,0,0,0,0,-1,832,1254,0,0
-385,-230,0,0,0,0,0,0,0,0,0,-1,839,1254,0,0
-378,-230,0,0,0,0,0,0,0,0,0,-1,846,1254,0,0
-371,-230,0,0,0,0,0,0,0,0,0,-1,853,1254,0,0
-364,-230,0,0,0,0,0,0,0,0,0,-1,860,1254,0,0
-357,-230,0,0,0,0,0,0,0,0,0,-1,867,1254,0,0
-350,-230,0,0,0,0,0,0,0,0,0,-1,874,1254,0,0
-343,-230,0,0,0,0,0,0,0,0,0,-1,881,1254,0,0
-336,-230,0,0,0,0,0,0,0,0,0,-1,888,1254,0,0
-329,-230,0,0,0,0,0,0,0,0,0,-1,895,1254,0,0
-322,-230,0,0,0,0,0,0,0,0,0,-1,902,1254,0,0
-315,-230,0,0,0,0,0,0,0,0,0,-1,909,1254,0,0
-308,-230,0,0,0,0,0,0,0,0,0,-1,916,1254,0,0
-301,-230,0,0,0,0,0,0,0,0,0,-1,923,1254,0,0
-294,-230,0,0,0,0,0,0,0,0,0,-1,930,1254,0,0
-287,-230,0,0,0,0,0,0,0,0,0,-1,937,1254,0,0
-280,-230,0,0,0,0,0,0,0,0,0,-1,944,1254,0,0
-273,-230,0,0,0,0,0,0,0,0,0,-1,951,1254,0,0
-266,-230,0,0,0,0,0,0,0,0,0,-1,958,1254,0,0
-259,-230,0,0,0,0,0,0,0,0,0,-1,965,1254,0,0
-252,-230,0,0,0,0,0,0,0,0,0,-1,972,1254,0,0
-245,-230,0,0,0,0,0,0,0,0,0,-1,979,1254,0,0
-238,-230,0,0,0,0,0,0,0,0,0,-1,986,1254,0,0
-231,-230,0,0,0,0,0,0,0,0,0,-1,993,1254,0,0
-224,-230,0,0,0,0,0,0,0,0,0,-1,1000,1254,0,0
-217,-230,0,0,0,0,0,0,0,0,0,-1,1007,1254,0,0
-210,-230,0,0,0,0,0,0,0,0,0,-1,1014,1254,0,0
-203,-230,0,0,0,0,0,0,0,0,0,-1,1021,1254,0,0
-196,-230,0,0,0,0,0,0,0,0,0,-1,1028,1254,0,0
-189,-230,0,0,0,0,0,0,0,0,0,-1,1035,1254,0,0
-182,-230,0,0,0,0,0,0,0,0,0,-1,1042,1254,0,0
-175,-230,0,0,0,0,0,0,0,0,0,-1,1049,1254,0,0
-168,-230,0,0,0,0,0,0,0,0,0,-1,1056,1254,0,0
-161,-230,0,0,0,0,0,0,0,0,0,-1,1063,1254,0,0
-154,-230,0,0,0,0,0,0,0,0,0,-1,1070,1254,0,0
-147,-230,0,0,0,0,0,0,0,0,0,-1,1077,1254,0,0
-140,-230,0,0,0,0,0,0,0,0,0,-1,1084,1254,0,0
-133,-230,0,0,0,0,0,0,0,0,0,-1,1091,1254,0,0
-126,-230,0,0,0,0,0,0,0,0,0,-1,1098,1254,0,0
-119,-230,0,0,0,0,0,0,0,0,0,-1,1105,1254,0,0
-112,-230,0,0,0,0,0,0,0,0,0,-1,1112,1254,0,0
-105,-230,0,0,0,0,0,0,0,0,0,-1,1119,1254,0,0
-98,-230,0,0,0,0,0,0,0,0,0,-1,1126,1254,0,0
-91,-230,0,0,0,0,0,0,0,0,0,-1,1133,1254,0,0
-84,-230,0,0,0,0,0,0,0,0,0,-1,1140,1254,0,0
-77,-230,0,0,0,0,0,0,0,0,0,-1,1147,1254,0,0
-70,-230,0,0,0,0,0,0,0,0,0,-1,1154,1254,0,0
-63,-230,0,0,0,0,0,0,0,0,0,-1,1161,1254,0,0
-56,-230,0,0,0,0,0,0,0,0,0,-1,1168,1254,0,0
-49,-230,0,0,0,0,0,0,0,0,0,-1,1175,1254,0,0
-42,-230,0,0,0,0,0,0,0,0,0,-1,1182,1254,0,0
-35,-230,0,0,0,0,0,0,0,0,0,-1,1189,1254,0,0
-28,-230,0,0,0,0,0,0,0,0,0,-1,1196,1254,0,0
-21,-230,0,0,0,0,0,0,0,0,0,-1,1203,1254,0,0
-14,-230,0,0,0,0,0,0,0,0,0,-1,1210,1254,0,0
-7,-230,0,0,0,0,0,0,0,0,0,-1,1217,1254,0,0
0,-230,0,0,0,0,0,0,0,0,0,-1,1224,1254,0,0
7,-230,0,0,0,0,0,0,0,0,0,-1,1231,1254,0,0
14,-230,0,0,0,0,0,0,0,0,0,-1,1238,1254,0,0
21,-230,0,0,0,0,0,0,0,0,0,-1,1245,1254,0,0
28,-230,0,0,0,0,0,0,0,0,0,-1,1252,1254,0,0
35,-230,0,0,0,0,0,0,0,0,0,-1,1259,1254,0,0
42,-230,0,0,0,0,0,0,0,0,0,-1,1266,1254,0,0
49,-230,0,0,0,0,0,0,0,0,0,-1,1273,1254,0,0
56,-230,0,0,0,0,0,0,0,0,0,-1,1280,1254,0,0
63,-230,0,0,0,0,0,0,0,0,0,-1,1287,1254,0,0
70,-230,0,0,0,0,0,0,0,0,0,-1,1294,1254,0,0
77,-230,0,0,0,0,0,0,0,0,0,-1,1301,1254,0,0
84,-230,0,0,0,0,0,0,0,0,0,-1,1308,1254,0,0
91,-230,0,0,0,0,0,0,0,0,0,-1,1315,1254,0,0
98,-230,0,0,0,0,0,0,0,0,0,-1,1322,1254,0,0
105,-230,0,0,0,0,0,0,0,0,0,-1,1329,1254,0,0
112,-230,0,0,0,0,0,0,0,0,0,-1,1336,1254,0,0
119,-230,0,0,0,0,0,0,0,0,0,-1,1343,1254,0,0
126,-230,0,0,0,0,0,0,0,0,0,-1,1350,1254,0,0
133,-230,0,0,0,0,0,0,0,0,0,-1,1357,1254,0,0
140,-230,0,0,0,0,0,0,0,0,0,-1,1364,1254,0,0
147,-230,0,0,0,0,0,0,0,0,0,-1,1371,1254,0,0
154,-230,0,0,0,0,0,0,0,0,0,-1,1378,1254,0,0
161,-230,0,0,0,0,0,0,0,0,0,-1,1385,1254,0,0
168,-230,0,0,0,0,0,0,0,0,0,-1,1392,1254,0,0
175,-230,0,0,0,0,0,0,0,0,0,-1,1399,1254,0,0
182,-230,0,0,0,0,0,0,0,0,0,-1,1406,1254,0,0
189,-230,0,0,0,0,0,0,0,0,0,-1,1413,1254,0,0
196,-230,0,0,0,0,0,0,0,0,0,-1,1420,1254,0,0
203,-230,0,0,0,0,0,0,0,0,0,-1,1427,1254,0,0
210,-230,0,0,0,0,0,0,0,0,0,-1,1434,1254,0,0
217,-230,0,0,0,0,0,0,0,0,0,-1,1441,1254,0,0
224,-230,0,0,0,0,0,0,0,0,0,-1,1448,1254,0,0
231,-230,0,0,0,0,0,0,0,0,0,-1,1455,1254,0,0
238,-230,0,0,0,0,0,0,0,0,0,-1,1462,1254,0,0
245,-230,0,0,0,0,0,0,0,0,0,-1,1469,1254,0,0
252,-230,0,0,0,0,0,0,0,0,0,-1,1476,1254,0,0
259,-230,0,0,0,0,0,0,0,0,0,-1,1483,1254,0,0
266,-230,0,0,0,0,0,0,0,0,0,-1,1490,1254,0,0
273,-230,0,0,0,0,0,0,0,0,0,-1,1497,1254,0,0
280,-230,0,0,0,0,0,0,0,0,0,-1,1504,1254,0,0
287,-230,0,0,0,0,0,0,0,0,0,-1,1511,1254,0,0
294,-230,0,0,0,0,0,0,0,0,0,-1,1518,1254,0,0
301,-230,0,0,0,0,0,0,0,0,0,-1,1525,1254,0,0
308,-230,0,0,0,0,0,0,0,0,0,-1,1532,1254,0,0
315,-230,0,0,0,0,0,0,0,0,0,-1,1539,1254,0,0
322,-230,0,0,0,0,0,0,0,0,0,-1,1546,1254,0,0
329,-230,0,0,0,0,0,0,0,0,0,-1,1553,1254,0,0
336,-230,0,0,0,0,0,0,0,0,0,-1,1560,1254,0,0
343,-230,0,0,0,0,0,0,0,0,0,-1,1567,1254,0,0
350,-230,0,0,0,0,0,0,0,0,0,-1,1574,1254,0,0
357,-230,0,0,0,0,0,0,0,0,0,-1,1581,1254,0,0
364,-230,0,0,0,0,0,0,0,0,0,-1,1588,1254,0,0
371,-230,0,0,0,0,0,0,0,0,0,-1,1595,1254,0,0
378,-230,0,0,0,0,0,0,0,0,0,-1,1602,1254,0,0
385,-230,0,0,0,0,0,0,0,0,0,-1,1609,1254,0,0
392,-230,0,0,0,0,0,0,0,0,0,-1,1616,1254,0,0
399,-230,0,0,0,0,0,0,0,0,0,-1,1623,1254,0,0
406,-230,0,0,0,0,0,0,0,0,0,-1,1630,1254,0,0
413,-230,0,0,0,0,0,0,0,0,0,-1,1637,1254,0,0
420,-230,0,0,0,0,0,0,0,0,0,-1,1644,1254,0,0
427,-230,0,0,0,0,0,0,0,0,0,-1,1651,1254,0,0
434,-230,0,0,0,0,0,0,0,0,0,-1,1658,1254,0,0
441,-230,0,0,0,0,0,0,0,0,0,-1,1665,1254,0,0
448,-230,0,0,0,0,0,0,0,0,0,-1,1672,1254,0,0
455,-230,0,0,0,0,0,0,0,0,0,-1,1679,1254,0,0
462,-230,0,0,0,0,0,0,0,0,0,-1,1686,1254,0,0
469,-230,0,0,0,0,0,0,0,0,0,-1,1693,1254,0,0
476,-230,0,0,0,0,0,0,0,0,0,-1,1700,1254,0,0
483,-230,0,0,0,0,0,0,0,0,0,-1,1707,1254,0,0
490,-230,0,0,0,0,0,0,0,0,0,-1,1714,1254,0,0
497,-230,0,0,0,0,0,0,0,0,0,-1,1721,1254,0,0
504,-230,0,0,0,0,0,0,0,0,0,-1,1728,1254,0,0
511,-230,0,0,0,0,0,0,0,0,0,-1,1735,1254,0,0
518,-230,0,0,0,0,0,0,0,0,0,-1,1742,1254,0,0
525,-230,0,0,0,0,0,0,0,0,0,-1,1749,1254,0,0
532,-230,0,0,0,0,0,0,0,0,0,-1,1756,1254,0,0
539,-230,0,0,0,0,0,0,0,0,0,-1,1763,1254,0,0
546,-230,0,0,0,0,0,0,0,0,0,-1,1770,1254,0,0
553,-230,0,0,0,0,0,0,0,0,0,-1,1777,1254,0,0
560,-230,0,0,0,0,0,0,0,0,0,-1,1784,1254,0,0
567,-230,0,0,0,0,0,0,0,0,0,-1,1791,1254,0,0
574,-230,0,0,0,0,0,0,0,0,0,-1,1798,1254,0,0
581,-230,0,0,0,0,0,0,0,0,0,-1,1805,1254,0,0
588,-230,0,0,0,0,0,0,0,0,0,-1,1812,1254,0,0
595,-230,0,0,0,0,0,0,0,0,0,-1,1819,1254,0,0
602,-230,0,0,0,0,0,0,0,0,0,-1,1826,1254,0,0
609,-230,0,0,0,0,0,0,0,0,0,-1,1833,1254,0,0
616,-230,60.5995,2.52576,0.00765391,-0.00100425,0.00624531,0.0109238,-0.00427417,0.482333,0.0090502,0.0378799,1840,1254,60.5994,-2.52577
623,-230,60.6647,2.74036,0.00375342,0.000740136,0.00368658,0.00622935,-0.00173579,0.591414,0.00483646,0.0368644,1847,1254,60.6647,-2.7404
630,-230,60.6735,2.83044,0.000456876,0.00204128,0.0010845,0.0025921,-9.39498e-05,1.10084,0.00176022,0.0316343,1854,1254,60.6735,-2.8304
637,-230,60.5782,2.67419,-0.00201523,0.00284374,-0.00128036,0.00316048,-0.00233196,-1.32829,0.00318306,0.0279465,1861,1254,60.5782,-2.67419
644,-230,60.5282,2.61035,-0.00241255,0.00291331,-0.00251265,0.00391161,-0.00341085,-1.19261,0.00423092,0.0236367,1868,1254,60.5282,-2.61034
651,-230,60.5082,2.57654,-0.0017876,0.00217589,-0.00240745,0.00331234,-0.00292406,-1.12975,0.00360291,0.0499318,1875,1254,60.5082,-2.57649
658,-230,60.5155,2.58813,0,0,0,0,0,0,0,-1,1882,1254,60.5155,-2.58808
665,-230,56.2585,2.51587,0,0,0,0,0,0,0,-1,1889,1254,56.2586,-2.51586
672,-230,43.0962,2.78699,0,0,0,0,0,0,0,-1,1896,1254,43.0962,-2.78698
679,-230,27.9967,2.37708,0,0,0,0,0,0,0,-1,1903,1254,27.9967,-2.3771
686,-230,40.8854,10.1788,0,0,0,0,0,0,0,-1,1910,1254,40.8853,-10.1788
693,-230,46.8116,11.4635,0,0,0,0,0,0,0,-1,1917,1254,46.8117,-11.4635
700,-230,46.6006,10.8873,0.00193476,-0.00138223,-0.000575597,0.00203181,-0.00147928,-0.167026,0.00203547,0.0405807,1924,1254,46.6006,-10.8873
707,-230,46.4989,10.3107,0.00217422,-0.0017228,-0.000182438,0.00218274,-0.00173132,-0.0466786,0.00226479,0.0201681,1931,1254,46.4989,-10.3107
714,-230,46.4574,9.75037,0.00122225,-0.00166023,0.000367848,0.00126845,-0.00170643,0.124948,0.00172374,0.015105,1938,1254,46.4574,-9.7504
721,-230,46.4469,9.17834,0.000148452,-0.00151542,0.00122769,0.000799529,-0.0021665,0.487616,0.00177202,0.0141838,1945,1254,46.4469,-9.17831
728,-230,46.3947,8.62817,-0.000821905,-0.00126544,0.00224484,0.0012121,-0.00329945,0.736163,0.00269607,0.0147818,1952,1254,46.3946,-8.62815
735,-230,46.3707,8.09412,-0.00185072,-0.00105236,0.00344582,0.00201732,-0.00492041,0.843064,0.00412073,0.0148475,1959,1254,46.3707,-8.09415
742,-230,46.349,7.50049,-0.00284087,-0.000942863,0.0048671,0.00306689,-0.00685062,0.881682,0.00586314,0.0114695,1966,1254,46.349,-7.50046
749,-230,46.339,6.87976,-0.00372705,-0.000902808,0.00652365,0.0043598,-0.00898966,0.891985,0.00786031,0.0113702,1973,1254,46.3389,-6.87975
756,-230,46.2944,6.36194,-0.00451856,-0.00106209,0.00862671,0.00600779,-0.0115884,0.884257,0.0103281,0.0170216,1980,1254,46.2944,-6.36193
763,-230,46.2814,5.82825,-0.00500327,-0.00147906,0.0113624,0.00825701,-0.0147393,0.862327,0.0134516,0.0377001,1987,1254,46.2814,-5.82824
770,-230,46.4249,5.59473,0,0,0,0,0,0,0,-1,1994,1254,46.425,-5.59476
777,-230,41.8693,3.74707,0,0,0,0,0,0,0,-1,2001,1254,41.8692,-3.74713
784,-230,35.8896,1.80334,0,0,0,0,0,0,0,-1,2008,1254,35.8897,-1.80338
791,-230,35.6028,2.20642,0,0,0,0,0,0,0,-1,2015,1254,35.6027,-2.2064
798,-230,0,0,0,0,0,0,0,0,0,-1,2022,1254,0,0
805,-230,0,0,0,0,0,0,0,0,0,-1,2029,1254,0,0
812,-230,0,0,0,0,0,0,0,0,0,-1,2036,1254,0,0
-700,-237,0,0,0,0,0,0,0,0,0,-1,524,1261,0,0
-693,-237,0,0,0,0,0,0,0,0,0,-1,531,1261,0,0
-686,-237,0,0,0,0,0,0,0,0,0,-1,538,1261,0,0
-679,-237,0,0,0,0,0,0,0,0,0,-1,545,1261,0,0
-672,-237,-46.0028,4.15186,0,0,0,0,0,0,0,-1,552,1261,-46.0028,-4.15186
-665,-237,-46.0415,2.72217,0,0,0,0,0,0,0,-1,559,1261,-46.0415,-2.7222
-658,-237,-46.5731,1.78918,0,0,0,0,0,0,0,-1,566,1261,-46.5731,-1.78917
-651,-237,-46.7432,0.650757,0,0,0,0,0,0,0,-1,573,1261,-46.7432,-0.650708
-644,-237,-46.5833,-0.659302,0,0,0,0,0,0,0,-1,580,1261,-46.5832,0.659344
-637,-237,-46.2443,-2.69543,0,0,0,0,0,0,0,-1,587,1261,-46.2443,2.69545
-630,-237,-30.0013,3.24658,0,0,0,0,0,0,0,-1,594,1261,-30.0013,-3.24653
-623,-237,-30.091,3.9447,0.000750162,0.00792355,0.00344823,0.00931226,-0.000638549,1.18794,0.0064316,0.0340348,601,1261,-30.091,-3.94468
-616,-237,-30.1497,4.63257,6.59963e-05,0.00562213,0.00219751,0.00638619,-0.00069807,1.23618,0.0045082,0.0146519,608,1261,-30.1497,-4.63263
-609,-237,-30.1961,5.26074,-0.000161174,0.00387907,0.00130574,0.00426433,-0.000546431,1.28389,0.00304144,0.0153972,615,1261,-30.1961,-5.26073
-602,-237,-30.2156,5.86523,-0.000118197,0.00248951,0.000710073,0.00267032,-0.000299011,1.32145,0.00188779,0.0119381,622,1261,-30.2156,-5.86518
-595,-237,-30.2971,6.50146,5.94174e-05,0.00132072,0.000279395,0.00137984,2.99071e-07,1.36228,0.000919795,0.0160394,629,1261,-30.297,-6.50148
-588,-237,-30.3211,7.16382,0.000346257,0.000668042,5.16951e-05,0.000676143,0.000338156,1.41535,0.000390371,0.0272933,636,1261,-30.3211,-7.16386
-581,-237,-30.3567,7.7876,0.000733966,5.57927e-05,-0.000124576,0.000756126,3.3633e-05,-0.17604,0.000493255,0.0251075,643,1261,-30.3567,-7.78762
-574,-237,-30.2991,8.328,0.00116742,2.36198e-05,-0.000431335,0.00131184,-0.000120805,-0.323097,0.000917483,0.0224258,650,1261,-30.2991,-8.32801
-567,-237,-30.3383,8.98071,0.0011208,0.000397109,-0.00075186,0.00159335,-7.54471e-05,-0.561124,0.00108826,0.0369903,657,1261,-30.3383,-8.98077
-560,-237,-30.3076,9.36145,0,0,0,0,0,0,0,-1,664,1261,-30.3076,-9.36147
-553,-237,-20.6102,6.92139,0,0,0,0,0,0,0,-1,671,1261,-20.6102,-6.92138
-546,-237,-11.192,1.14014,0,0,0,0,0,0,0,-1,678,1261,-11.192,-1.14011
-539,-237,-16.512,1.53455,0,0,0,0,0,0,0,-1,685,1261,-16.512,-1.53457
-532,-237,-29.7025,1.23621,0,0,0,0,0,0,0,-1,692,1261,-29.7025,-1.23618
-525,-237,-37.9338,0.75708,0,0,0,0,0,0,0,-1,699,1261,-37.9339,-0.757056
-518,-237,-45.2555,0.932007,0,0,0,0,0,0,0,-1,706,1261,-45.2555,-0.932061
-511,-237,-45.4346,0.95813,-0.0116523,-0.00674588,0.000419192,-0.00671032,-0.0116878,1.48618,0.00677266,0.047234,713,1261,-45.4346,-0.95812
-504,-237,-45.6581,0.993896,-0.0149678,-0.00857293,0.00132023,-0.00831108,-0.0152297,1.37501,0.00880509,0.0430382,720,1261,-45.6581,-0.993867
-497,-237,-45.8789,1.18127,0,0,0,0,0,0,0,-1,727,1261,-45.8789,-1.18121
-490,-237,0,0,0,0,0,0,0,0,0,-1,734,1261,0,0
-483,-237,0,0,0,0,0,0,0,0,0,-1,741,1261,0,0
-476,-237,0,0,0,0,0,0,0,0,0,-1,748,1261,0,0
-469,-237,0,0,0,0,0,0,0,0,0,-1,755,1261,0,0
-462,-237,0,0,0,0,0,0,0,0,0,-1,762,1261,0,0
-455,-237,0,0,0,0,0,0,0,0,0,-1,769,1261,0,0
-448,-237,0,0,0,0,0,0,0,0,0,-1,776,1261,0,0
-441,-237,0,0,0,0,0,0,0,0,0,-1,783,1261,0,0
-434,-237,0,0,0,0,0,0,0,0,0,-1,790,1261,0,0
-427,-237,0,0,0,0,0,0,0,0,0,-1,797,1261,0,0
-420,-237,0,0,0,0,0,0,0,0,0,-1,804,1261,0,0
-413,-237,0,0,0,0,0,0,0,0,0,-1,811,1261,0,0
-406,-237,0,0,0,0,0,0,0,0,0,-1,818,1261,0,0
-399,-237,0,0,0,0,0,0,0,0,0,-1,825,1261,0,0
-392,-237,0,0,0,0,0,0,0,0,0,-1,832,1261,0,0
-385,-237,0,0,0,0,0,0,0,0,0,-1,839,1261,0,0
-378,-237,0,0,0,0,0,0,0,0,0,-1,846,1261,0,0
-371,-237,0,0,0,0,0,0,0,0,0,-1,853,1261,0,0
-364,-237,0,0,0,0,0,0,0,0,0,-1,860,1261,0,0
-357,-237,0,0,0,0,0,0,0,0,0,-1,867,1261,0,0
-350,-237,0,0,0,0,0,0,0,0,0,-1,874,1261,0,0
-343,-237,0,0,0,0,0,0,0,0,0,-1,881,1261,0,0
-336,-237,0,0,0,0,0,0,0,0,0,-1,888,1261,0,0
-329,-237,0,0,0,0,0,0,0,0,0,-1,895,1261,0,0
-322,-237,0,0,0,0,0,0,0,0,0,-1,902,1261,0,0
-315,-237,0,0,0,0,0,0,0,0,0,-1,909,1261,0,0
-308,-237,0,0,0,0,0,0,0,0,0,-1,916,1261,0,0
-301,-237,0,0,0,0,0,0,0,0,0,-1,923,1261,0,0
-294,-237,0,0,0,0,0,0,0,0,0,-1,930,1261,0,0
-287,-237,0,0,0,0,0,0,0,0,0,-1,937,1261,0,0
-280,-237,0,0,0,0,0,0,0,0,0,-1,944,1261,0,0
-273,-237,0,0,0,0,0,0,0,0,0,-1,951,1261,0,0
-266,-237,0,0,0,0,0,0,0,0,0,-1,958,1261,0,0
-259,-237,0,0,0,0,0,0,0,0,0,-1,965,1261,0,0
-252,-237,0,0,0,0,0,0,0,0,0,-1,972,1261,0,0
-245,-237,0,0,0,0,0,0,0,0,0,-1,979,1261,0,0
-238,-237,0,0,0,0,0,0,0,0,0,-1,986,1261,0,0
-231,-237,0,0,0,0,0,0,0,0,0,-1,993,1261,0,0
-224,-237,0,0,0,0,0,0,0,0,0,-1,1000,1261,0,0
-217,-237,0,0,0,0,0,0,0,0,0,-1,1007,1261,0,0
-210,-237,0,0,0,0,0,0,0,0,0,-1,1014,1261,0,0
-203,-237,0,0,0,0,0,0,0,0,0,-1,1021,1261,0,0
-196,-237,0,0,0,0,0,0,0,0,0,-1,1028,1261,0,0
-189,-237,0,0,0,0,0,0,0,0,0,-1,1035,1261,0,0
-182,-237,0,0,0,0,0,0,0,0,0,-1,1042,1261,0,0
-175,-237,0,0,0,0,0,0,0,0,0,-1,1049,1261,0,0
-168,-237,0,0,0,0,0,0,0,0,0,-1,1056,1261,0,0
-161,-237,0,0,0,0,0,0,0,0,0,-1,1063,1261,0,0
-154,-237,0,0,0,0,0,0,0,0,0,-1,1070,1261,0,0
-147,-237,0,0,0,0,0,0,0,0,0,-1,1077,1261,0,0
-140,-237,0,0,0,0,0,0,0,0,0,-1,1084,1261,0,0
-133,-237,0,0,0,0,0,0,0,0,0,-1,1091,1261,0,0
-126,-237,0,0,0,0,0,0,0,0,0,-1,1098,1261,0,0
-119,-237,0,0,0,0,0,0,0,0,0,-1,1105,1261,0,0
-112,-237,0,0,0,0,0,0,0,0,0,-1,1112,1261,0,0
-105,-237,0,0,0,0,0,0,0,0,0,-1,1119,1261,0,0
-98,-237,0,0,0,0,0,0,0,0,0,-1,1126,1261,0,0
-91,-237,0,0,0,0,0,0,0,0,0,-1,1133,1261,0,0
-84,-237,0,0,0,0,0,0,0,0,0,-1,1140,1261,0,0
-77,-237,0,0,0,0,0,0,0,0,0,-1,1147,1261,0,0
-70,-237,0,0,0,0,0,0,0,0,0,-1,1154,1261,0,0
-63,-237,0,0,0,0,0,0,0,0,0,-1,1161,1261,0,0
-56,-237,0,0,0,0,0,0,0,0,0,-1,1168,1261,0,0
-49,-237,0,0,0,0,0,0,0,0,0,-1,1175,1261,0,0
-42,-237,0,0,0,0,0,0,0,0,0,-1,1182,1261,0,0
-35,-237,0,0,0,0,0,0,0,0,0,-1,1189,1261,0,0
-28,-237,0,0,0,0,0,0,0,0,0,-1,1196,1261,0,0
-21,-237,0,0,0,0,0,0,0,0,0,-1,1203,1261,0,0
-14,-237,0,0,0,0,0,0,0,0,0,-1,1210,1261,0,0
-7,-237,0,0,0,0,0,0,0,0,0,-1,1217,1261,0,0
0,-237,0,0,0,0,0,0,0,0,0,-1,1224,1261,0,0
7,-237,0,0,0,0,0,0,0,0,0,-1,1231,1261,0,0
14,-237,0,0,0,0,0,0,0,0,0,-1,1238,1261,0,0
21,-237,0,0,0,0,0,0,0,0,0,-1,1245,1261,0,0
28,-237,0,0,0,0,0,0,0,0,0,-1,1252,1261,0,0
35,-237,0,0,0,0,0,0,0,0,0,-1,1259,1261,0,0
42,-237,0,0,0,0,0,0,0,0,0,-1,1266,1261,0,0
49,-237,0,0,0,0,0,0,0,0,0,-1,1273,1261,0,0
56,-237,0,0,0,0,0,0,0,0,0,-1,1280,1261,0,0
63,-237,0,0,0,0,0,0,0,0,0,-1,1287,1261,0,0
70,-237,0,0,0,0,0,0,0,0,0,-1,1294,1261,0,0
77,-237,0,0,0,0,0,0,0,0,0,-1,1301,1261,0,0
84,-237,0,0,0,0,0,0,0,0,0,-1,1308,1261,0,0
91,-237,0,0,0,0,0,0,0,0,0,-1,1315,1261,0,0
98,-237,0,0,0,0,0,0,0,0,0,-1,1322,1261,0,0
105,-237,0,0,0,0,0,0,0,0,0,-1,1329,1261,0,0
112,-237,0,0,0,0,0,0,0,0,0,-1,1336,1261,0,0
119,-237,0,0,0,0,0,0,0,0,0,-1,1343,1261,0,0
126,-237,0,0,0,0,0,0,0,0,0,-1,1350,1261,0,0
133,-237,0,0,0,0,0,0,0,0,0,-1,1357,1261,0,0
140,-237,0,0,0,0,0,0,0,0,0,-1,1364,1261,0,0
147,-237,0,0,0,0,0,0,0,0,0,-1,1371,1261,0,0
154,-237,0,0,0,0,0,0,0,0,0,-1,1378,1261,0,0
161,-237,0,0,0,0,0,0,0,0,0,-1,1385,1261,0,0
168,-237,0,0,0,0,0,0,0,0,0,-1,1392,1261,0,0
175,-237,0,0,0,0,0,0,0,0,0,-1,1399,1261,0,0
182,-237,0,0,0,0,0,0,0,0,0,-1,1406,1261,0,0
189,-237,0,0,0,0,0,0,0,0,0,-1,1413,1261,0,0
196,-237,0,0,0,0,0,0,0,0,0,-1,1420,1261,0,0
203,-237,0,0,0,0,0,0,0,0,0,-1,1427,1261,0,0
210,-237,0,0,0,0,0,0,0,0,0,-1,1434,1261,0,0
217,-237,0,0,0,0,0,0,0,0,0,-1,1441,1261,0,0
224,-237,0,0,0,0,0,0,0,0,0,-1,1448,1261,0,0
231,-237,0,0,0,0,0,0,0,0,0,-1,1455,1261,0,0
238,-237,0,0,0,0,0,0,0,0,0,-1,1462,1261,0,0
245,-237,0,0,0,0,0,0,0,0,0,-1,1469,1261,0,0
252,-237,0,0,0,0,0,0,0,0,0,-1,1476,1261,0,0
259,-237,0,0,0,0,0,0,0,0,0,-1,1483,1261,0,0
266,-237,0,0,0,0,0,0,0,0,0,-1,1490,1261,0,0
273,-237,0,0,0,0,0,0,0,0,0,-1,1497,1261,0,0
280,-237,0,0,0,0,0,0,0,0,0,-1,1504,1261,0,0
287,-237,0,0,0,0,0,0,0,0,0,-1,1511,1261,0,0
294,-237,0,0,0,0,0,0,0,0,0,-1,1518,1261,0,0
301,-237,0,0,0,0,0,0,0,0,0,-1,1525,1261,0,0
308,-237,0,0,0,0,0,0,0,0,0,-1,1532,1261,0,0
315,-237,0,0,0,0,0,0,0,0,0,-1,1539,1261,0,0
322,-237,0,0,0,0,0,0,0,0,0,-1,1546,1261,0,0
329,-237,0,0,0,0,0,0,0,0,0,-1,1553,1261,0,0
336,-237,0,0,0,0,0,0,0,0,0,-1,1560,1261,0,0
343,-237,0,0,0,0,0,0,0,0,0,-1,1567,1261,0,0
350,-237,0,0,0,0,0,0,0,0,0,-1,1574,1261,0,0
357,-237,0,0,0,0,0,0,0,0,0,-1,1581,1261,0,0
364,-237,0,0,0,0,0,0,0,0,0,-1,1588,1261,0,0
371,-237,0,0,0,0,0,0,0,0,0,-1,1595,1261,0,0
378,-237,0,0,0,0,0,0,0,0,0,-1,1602,1261,0,0
385,-237,0,0,0,0,0,0,0,0,0,-1,1609,1261,0,0
392,-237,0,0,0,0,0,0,0,0,0,-1,1616,1261,0,0
399,-237,0,0,0,0,0,0,0,0,0,-1,1623,1261,0,0
406,-237,0,0,0,0,0,0,0,0,0,-1,1630,1261,0,0
413,-237,0,0,0,0,0,0,0,0,0,-1,1637,1261,0,0
420,-237,0,0,0,0,0,0,0,0,0,-1,1644,1261,0,0
427,-237,0,0,0,0,0,0,0,0,0,-1,1651,1261,0,0
434,-237,0,0,0,0,0,0,0,0,0,-1,1658,1261,0,0
441,-237,0,0,0,0,0,0,0,0,0,-1,1665,1261,0,0
448,-237,0,0,0,0,0,0,0,0,0,-1,1672,1261,0,0
455,-237,0,0,0,0,0,0,0,0,0,-1,1679,1261,0,0
462,-237,0,0,0,0,0,0,0,0,0,-1,1686,1261,0,0
469,-237,0,0,0,0,0,0,0,0,0,-1,1693,1261,0,0
476,-237,0,0,0,0,0,0,0,0,0,-1,1700,1261,0,0
483,-237,0,0,0,0,0,0,0,0,0,-1,1707,1261,0,0
490,-237,0,0,0,0,0,0,0,0,0,-1,1714,1261,0,0
497,-237,0,0,0,0,0,0,0,0,0,-1,1721,1261,0,0
504,-237,0,0,0,0,0,0,0,0,0,-1,1728,1261,0,0
511,-237,0,0,0,0,0,0,0,0,0,-1,1735,1261,0,0
518,-237,0,0,0,0,0,0,0,0,0,-1,1742,1261,0,0
525,-237,0,0,0,0,0,0,0,0,0,-1,1749,1261,0,0
532,-237,0,0,0,0,0,0,0,0,0,-1,1756,1261,0,0
539,-237,0,0,0,0,0,0,0,0,0,-1,1763,1261,0,0
546,-237,0,0,0,0,0,0,0,0,0,-1,1770,1261,0,0
553,-237,0,0,0,0,0,0,0,0,0,-1,1777,1261,0,0
560,-237,0,0,0,0,0,0,0,0,0,-1,1784,1261,0,0
567,-237,0,0,0,0,0,0,0,0,0,-1,1791,1261,0,0
574,-237,0,0,0,0,0,0,0,0,0,-1,1798,1261,0,0
581,-237,0,0,0,0,0,0,0,0,0,-1,1805,1261,0,0
588,-237,0,0,0,0,0,0,0,0,0,-1,1812,1261,0,0
595,-237,0,0,0,0,0,0,0,0,0,-1,1819,1261,0,0
602,-237,0,0,0,0,0,0,0,0,0,-1,1826,1261,0,0
609,-237,0,0,0,0,0,0,0,0,0,-1,1833,1261,0,0
616,-237,60.6238,2.58179,0.00688598,0.000216202,0.00505509,0.00960711,-0.00250493,0.493813,0.00738275,0.0379518,1840,1261,60.6238,-2.58181
623,-237,60.7446,2.70386,0.00291184,0.00222873,0.00247265,0.00506642,7.41514e-05,0.716766,0.00335317,0.0340161,1847,1261,60.7446,-2.70391
630,-237,60.6766,2.77637,-0.000772526,0.00380989,-0.000225767,0.00382098,-0.000783622,-1.52169,0.00284474,0.026017,1854,1261,60.6766,-2.7764
637,-237,60.5341,2.66858,-0.00321834,0.00445865,-0.00232619,0.00510849,-0.00386819,-1.29838,0.00519915,0.022642,1861,1261,60.5341,-2.66857
644,-237,60.4319,2.51001,-0.00315781,0.00398196,-0.00301192,0.0050828,-0.00425866,-1.22038,0.00540029,0.046613,1868,1261,60.4319,-2.51001
651,-237,60.3187,2.32947,0,0,0,0,0,0,0,-1,1875,1261,60.3187,-2.32947
658,-237,57.7922,3.16138,0,0,0,0,0,0,0,-1,1882,1261,57.7922,-3.16132
665,-237,57.9302,3.30676,0,0,0,0,0,0,0,-1,1889,1261,57.9302,-3.30671
672,-237,45.3922,1.95618,0,0,0,0,0,0,0,-1,1896,1261,45.3922,-1.95623
679,-237,23.1501,7.37488,0,0,0,0,0,0,0,-1,1903,1261,23.1502,-7.37493
686,-237,36.8348,9.99426,0,0,0,0,0,0,0,-1,1910,1261,36.8349,-9.99424
693,-237,45.693,11.6687,0,0,0,0,0,0,0,-1,1917,1261,45.693,-11.6687
700,-237,45.9286,10.934,0.00164037,-0.0011801,-0.000543059,0.00174131,-0.00128104,-0.183791,0.00175169,0.0192213,1924,1261,45.9286,-10.9339
707,-237,45.8954,10.3582,0.00187322,-0.00149336,-9.61836e-05,0.00187597,-0.00149611,-0.028539,0.00195098,0.0118994,1931,1261,45.8954,-10.3581
714,-237,45.8677,9.76868,0.00077015,-0.00144032,0.000565822,0.000906567,-0.00157674,0.23658,0.00145103,0.0157276,1938,1261,45.8677,-9.76873
721,-237,45.8182,9.21741,-0.000415163,-0.0013216,0.00151873,0.000716528,-0.00245329,0.640395,0.00191948,0.0170095,1945,1261,45.8183,-9.21746
728,-237,45.8251,8.63184,-0.00151586,-0.00115531,0.00260575,0.00127639,-0.00394757,0.819935,0.00314474,0.0142397,1952,1261,45.8251,-8.63182
735,-237,45.7993,8.03198,-0.00267941,-0.00105067,0.00386608,0.00208588,-0.00581596,0.889203,0.00472853,0.0183022,1959,1261,45.7993,-8.032
742,-237,45.7809,7.48975,-0.00385431,-0.00103638,0.00534546,0.00308268,-0.00797337,0.914258,0.0065881,0.01522,1966,1261,45.7809,-7.48974
749,-237,45.7324,6.94348,-0.00498598,-0.00108423,0.00707429,0.00430325,-0.0103735,0.919939,0.00871184,0.011064,1973,1261,45.7325,-6.94342
756,-237,45.6729,6.41089,-0.00615108,-0.00137912,0.0093337,0.00586874,-0.0133989,0.910534,0.0114039,0.0186993,1980,1261,45.6729,-6.41086
763,-237,45.6648,5.86609,0,0,0,0,0,0,0,-1,1987,1261,45.6648,-5.86605
770,-237,45.5526,4.63416,0,0,0,0,0,0,0,-1,1994,1261,45.5526,-4.63416
777,-237,46.1018,3.53772,0,0,0,0,0,0,0,-1,2001,1261,46.1018,-3.53767
784,-237,36.3441,1.68591,0,0,0,0,0,0,0,-1,2008,1261,36.3441,-1.68592
791,-237,32.3025,6.03235,0,0,0,0,0,0,0,-1,2015,1261,32.3025,-6.03229
798,-237,0,0,0,0,0,0,0,0,0,-1,2022,1261,0,0
805,-237,0,0,0,0,0,0,0,0,0,-1,2029,1261,0,0
812,-237,0,0,0,0,0,0,0,0,0,-1,2036,1261,0,0
-700,-244,0,0,0,0,0,0,0,0,0,-1,524,1268,0,0
-693,-244,0,0,0,0,0,0,0,0,0,-1,531,1268,0,0
-686,-244,0,0,0,0,0,0,0,0,0,-1,538,1268,0,0
-679,-244,0,0,0,0,0,0,0,0,0,-1,545,1268,0,0
-672,-244,-46.5594,4.42163,0,0,0,0,0,0,0,-1,552,1268,-46.5594,-4.42164
-665,-244,-46.3803,2.63867,0,0,0,0,0,0,0,-1,559,1268,-46.3803,-2.63873
-658,-244,-47.1508,1.63855,0,0,0,0,0,0,0,-1,566,1268,-47.1508,-1.63861
-651,-244,-46.9415,0.578247,0,0,0,0,0,0,0,-1,573,1268,-46.9415,-0.578211
-644,-244,-47.0084,-0.652344,0,0,0,0,0,0,0,-1,580,1268,-47.0083,0.652373
-637,-244,-29.8231,1.77478,0,0,0,0,0,0,0,-1,587,1268,-29.8231,-1.77482
-630,-244,-29.4321,3.13672,0,0,0,0,0,0,0,-1,594,1268,-29.4321,-3.13666
-623,-244,-29.5118,3.90247,0.000234317,0.00781461,0.00345787,0.00915497,-0.00110604,1.201,0.00650342,0.0368643,601,1268,-29.5118,-3.90244
-616,-244,-29.5262,4.65015,-0.000317291,0.00571358,0.00230629,0.00649444,-0.00109815,1.24433,0.00473828,0.0164331,608,1268,-29.5262,-4.65017
-609,-244,-29.5721,5.28076,-0.000415344,0.00408084,0.00146742,0.00451737,-0.000851882,1.28165,0.00333204,0.0143533,615,1268,-29.5721,-5.28076
-602,-244,-29.5936,5.88086,-0.000254635,0.00275115,0.000913571,0.00300703,-0.00051052,1.2977,0.00219474,0.0166436,622,1268,-29.5936,-5.88082
-595,-244,-29.657,6.49915,4.39905e-05,0.00165464,0.000517523,0.00180659,-0.000107961,1.28521,0.00124195,0.0172498,629,1268,-29.657,-6.49913
-588,-244,-29.6734,7.15454,0.00049602,0.000899586,0.000278494,0.00104171,0.000353892,1.0989,0.000611648,0.0201302,636,1268,-29.6734,-7.15449
-581,-244,-29.7095,7.77148,0.00102576,0.000217321,7.83311e-05,0.00103328,0.000209801,0.0957052,0.000630663,0.0176329,643,1268,-29.7096,-7.77147
-574,-244,-29.7305,8.38574,0.00160238,-1.72914e-05,-0.000240935,0.00163746,-5.23719e-05,-0.144586,0.00110951,0.0148185,650,1268,-29.7305,-8.38579
-567,-244,-29.7506,9.00073,0.00171848,0.000127037,-0.000560422,0.00189602,-5.05066e-05,-0.306801,0.00128118,0.0247869,657,1268,-29.7506,-9.0007
-560,-244,-29.6666,9.55737,0,0,0,0,0,0,0,-1,664,1268,-29.6666,-9.55739
-553,-244,-29.5112,10.1075,0,0,0,0,0,0,0,-1,671,1268,-29.5111,-10.1075
-546,-244,-11.2686,4.41772,0,0,0,0,0,0,0,-1,678,1268,-11.2686,-4.41767
-539,-244,-12.8706,0.3302,0,0,0,0,0,0,0,-1,685,1268,-12.8706,-0.330156
-532,-244,-18.1502,0.816528,0,0,0,0,0,0,0,-1,692,1268,-18.1502,-0.816514
-525,-244,-33.0835,0.693604,0,0,0,0,0,0,0,-1,699,1268,-33.0835,-0.69365
-518,-244,-38.1713,0.902832,0,0,0,0,0,0,0,-1,706,1268,-38.1713,-0.902888
-511,-244,-45.5411,1.24158,0,0,0,0,0,0,0,-1,713,1268,-45.5411,-1.24156
-504,-244,-45.7501,1.2146,0,0,0,0,0,0,0,-1,720,1268,-45.7501,-1.21458
-497,-244,-45.5983,1.38525,0,0,0,0,0,0,0,-1,727,1268,-45.5982,-1.38522
-490,-244,0,0,0,0,0,0,0,0,0,-1,734,1268,0,0
-483,-244,0,0,0,0,0,0,0,0,0,-1,741,1268,0,0
-476,-244,0,0,0,0,0,0,0,0,0,-1,748,1268,0,0
-469,-244,0,0,0,0,0,0,0,0,0,-1,755,1268,0,0
-462,-244,0,0,0,0,0,0,0,0,0,-1,762,1268,0,0
-455,-244,0,0,0,0,0,0,0,0,0,-1,769,1268,0,0
-448,-244,0,0,0,0,0,0,0,0,0,-1,776,1268,0,0
-441,-244,0,0,0,0,0,0,0,0,0,-1,783,1268,0,0
-434,-244,0,0,0,0,0,0,0,0,0,-1,790,1268,0,0
-427,-244,0,0,0,0,0,0,0,0,0,-1,797,1268,0,0
-420,-244,0,0,0,0,0,0,0,0,0,-1,804,1268,0,0
-413,-244,0,0,0,0,0,0,0,0,0,-1,811,1268,0,0
-406,-244,0,0,0,0,0,0,0,0,0,-1,818,1268,0,0
-399,-244,0,0,0,0,0,0,0,0,0,-1,825,1268,0,0
-392,-244,0,0,0,0,0,0,0,0,0,-1,832,1268,0,0
-385,-244,0,0,0,0,0,0,0,0,0,-1,839,1268,0,0
-378,-244,0,0,0,0,0,0,0,0,0,-1,846,1268,0,0
-371,-244,0,0,0,0,0,0,0,0,0,-1,853,1268,0,0
-364,-244,0,0,0,0,0,0,0,0,0,-1,860,1268,0,0
-357,-244,0,0,0,0,0,0,0,0,0,-1,867,1268,0,0
-350,-244,0,0,0,0,0,0,0,0,0,-1,874,1268,0,0
-343,-244,0,0,0,0,0,0,0,0,0,-1,881,1268,0,0
-336,-244,0,0,0,0,0,0,0,0,0,-1,888,1268,0,0
-329,-244,0,0,0,0,0,0,0,0,0,-1,895,1268,0,0
-322,-244,0,0,0,0,0,0,0,0,0,-1,902,1268,0,0
-315,-244,0,0,0,0,0,0,0,0,0,-1,909,1268,0,0
-308,-244,0,0,0,0,0,0,0,0,0,-1,916,1268,0,0
-301,-244,0,0,0,0,0,0,0,0,0,-1,923,1268,0,0
-294,-244,0,0,0,0,0,0,0,0,0,-1,930,1268,0,0
-287,-244,0,0,0,0,0,0,0,0,0,-1,937,1268,0,0
-280,-244,0,0,0,0,0,0,0,0,0,-1,944,1268,0,0
-273,-244,0,0,0,0,0,0,0,0,0,-1,951,1268,0,0
-266,-244,0,0,0,0,0,0,0,0,0,-1,958,1268,0,0
-259,-244,0,0,0,0,0,0,0,0,0,-1,965,1268,0,0
-252,-244,0,0,0,0,0,0,0,0,0,-1,972,1268,0,0
-245,-244,0,0,0,0,0,0,0,0,0,-1,979,1268,0,0
-238,-244,0,0,0,0,0,0,0,0,0,-1,986,1268,0,0
-231,-244,0,0,0,0,0,0,0,0,0,-1,993,1268,0,0
-224,-244,0,0,0,0,0,0,0,0,0,-1,1000,1268,0,0
-217,-244,0,0,0,0,0,0,0,0,0,-1,1007,1268,0,0
-210,-244,0,0,0,0,0,0,0,0,0,-1,1014,1268,0,0
-203,-244,0,0,0,0,0,0,0,0,0,-1,1021,1268,0,0
-196,-244,0,0,0,0,0,0,0,0,0,-1,1028,1268,0,0
-189,-244,0,0,0,0,0,0,0,0,0,-1,1035,1268,0,0
-182,-244,0,0,0,0,0,0,0,0,0,-1,1042,1268,0,0
-175,-244,0,0,0,0,0,0,0,0,0,-1,1049,1268,0,0
-168,-244,0,0,0,0,0,0,0,0,0,-1,1056,1268,0,0
-161,-244,0,0,0,0,0,0,0,0,0,-1,1063,1268,0,0
-154,-244,0,0,0,0,0,0,0,0,0,-1,1070,1268,0,0
-147,-244,0,0,0,0,0,0,0,0,0,-1,1077,1268,0,0
-140,-244,0,0,0,0,0,0,0,0,0,-1,1084,1268,0,0
-133,-244,0,0,0,0,0,0,0,0,0,-1,1091,1268,0,0
-126,-244,0,0,0,0,0,0,0,0,0,-1,1098,1268,0,0
-119,-244,0,0,0,0,0,0,0,0,0,-1,1105,1268,0,0
-112,-244,0,0,0,0,0,0,0,0,0,-1,1112,1268,0,0
-105,-244,0,0,0,0,0,0,0,0,0,-1,1119,1268,0,0
-98,-244,0,0,0,0,0,0,0,0,0,-1,1126,1268,0,0
-91,-244,0,0,0,0,0,0,0,0,0,-1,1133,1268,0,0
-84,-244,0,0,0,0,0,0,0,0,0,-1,1140,1268,0,0
-77,-244,0,0,0,0,0,0,0,0,0,-1,1147,1268,0,0
-70,-244,0,0,0,0,0,0,0,0,0,-1,1154,1268,0,0
-63,-244,0,0,0,0,0,0,0,0,0,-1,1161,1268,0,0
-56,-244,0,0,0,0,0,0,0,0,0,-1,1168,1268,0,0
-49,-244,0,0,0,0,0,0,0,0,0,-1,1175,1268,0,0
-42,-244,0,0,0,0,0,0,0,0,0,-1,1182,1268,0,0
-35,-244,0,0,0,0,0,0,0,0,0,-1,1189,1268,0,0
-28,-244,0,0,0,0,0,0,0,0,0,-1,1196,1268,0,0
-21,-244,0,0,0,0,0,0,0,0,0,-1,1203,1268,0,0
-14,-244,0,0,0,0,0,0,0,0,0,-1,1210,1268,0,0
-7,-244,0,0,0,0,0,0,0,0,0,-1,1217,1268,0,0
0,-244,0,0,0,0,0,0,0,0,0,-1,1224,1268,0,0
7,-244,0,0,0,0,0,0,0,0,0,-1,1231,1268,0,0
14,-244,0,0,0,0,0,0,0,0,0,-1,1238,1268,0,0
21,-244,0,0,0,0,0,0,0,0,0,-1,1245,1268,0,0
28,-244,0,0,0,0,0,0,0,0,0,-1,1252,1268,0,0
35,-244,0,0,0,0,0,0,0,0,0,-1,1259,1268,0,0
42,-244,0,0,0,0,0,0,0,0,0,-1,1266,1268,0,0
49,-244,0,0,0,0,0,0,0,0,0,-1,1273,1268,0,0
56,-244,0,0,0,0,0,0,0,0,0,-1,1280,1268,0,0
63,-244,0,0,0,0,0,0,0,0,0,-1,1287,1268,0,0
70,-244,0,0,0,0,0,0,0,0,0,-1,1294,1268,0,0
77,-244,0,0,0,0,0,0,0,0,0,-1,1301,1268,0,0
84,-244,0,0,0,0,0,0,0,0,0,-1,1308,1268,0,0
91,-244,0,0,0,0,0,0,0,0,0,-1,1315,1268,0,0
98,-244,0,0,0,0,0,0,0,0,0,-1,1322,1268,0,0
105,-244,0,0,0,0,0,0,0,0,0,-1,1329,1268,0,0
112,-244,0,0,0,0,0,0,0,0,0,-1,1336,1268,0,0
119,-244,0,0,0,0,0,0,0,0,0,-1,1343,1268,0,0
126,-244,0,0,0,0,0,0,0,0,0,-1,1350,1268,0,0
133,-244,0,0,0,0,0,0,0,0,0,-1,1357,1268,0,0
140,-244,0,0,0,0,0,0,0,0,0,-1,1364,1268,0,0
147,-244,0,0,0,0,0,0,0,0,0,-1,1371,1268,0,0
154,-244,0,0,0,0,0,0,0,0,0,-1,1378,1268,0,0
161,-244,0,0,0,0,0,0,0,0,0,-1,1385,1268,0,0
168,-244,0,0,0,0,0,0,0,0,0,-1,1392,1268,0,0
175,-244,0,0,0,0,0,0,0,0,0,-1,1399,1268,0,0
182,-244,0,0,0,0,0,0,0,0,0,-1,1406,1268,0,0
189,-244,0,0,0,0,0,0,0,0,0,-1,1413,1268,0,0
196,-244,0,0,0,0,0,0,0,0,0,-1,1420,1268,0,0
203,-244,0,0,0,0,0,0,0,0,0,-1,1427,1268,0,0
210,-244,0,0,0,0,0,0,0,0,0,-1,1434,1268,0,0
217,-244,0,0,0,0,0,0,0,0,0,-1,1441,1268,0,0
224,-244,0,0,0,0,0,0,0,0,0,-1,1448,1268,0,0
231,-244,0,0,0,0,0,0,0,0,0,-1,1455,1268,0,0
238,-244,0,0,0,0,0,0,0,0,0,-1,1462,1268,0,0
245,-244,0,0,0,0,0,0,0,0,0,-1,1469,1268,0,0
252,-244,0,0,0,0,0,0,0,0,0,-1,1476,1268,0,0
259,-244,0,0,0,0,0,0,0,0,0,-1,1483,1268,0,0
266,-244,0,0,0,0,0,0,0,0,0,-1,1490,1268,0,0
273,-244,0,0,0,0,0,0,0,0,0,-1,1497,1268,0,0
280,-244,0,0,0,0,0,0,0,0,0,-1,1504,1268,0,0
287,-244,0,0,0,0,0,0,0,0,0,-1,1511,1268,0,0
294,-244,0,0,0,0,0,0,0,0,0,-1,1518,1268,0,0
301,-244,0,0,0,0,0,0,0,0,0,-1,1525,1268,0,0
308,-244,0,0,0,0,0,0,0,0,0,-1,1532,1268,0,0
315,-244,0,0,0,0,0,0,0,0,0,-1,1539,1268,0,0
322,-244,0,0,0,0,0,0,0,0,0,-1,1546,1268,0,0
329,-244,0,0,0,0,0,0,0,0,0,-1,1553,1268,0,0
336,-244,0,0,0,0,0,0,0,0,0,-1,1560,1268,0,0
343,-244,0,0,0,0,0,0,0,0,0,-1,1567,1268,0,0
350,-244,0,0,0,0,0,0,0,0,0,-1,1574,1268,0,0
357,-244,0,0,0,0,0,0,0,0,0,-1,1581,1268,0,0
364,-244,0,0,0,0,0,0,0,0,0,-1,1588,1268,0,0
371,-244,0,0,0,0,0,0,0,0,0,-1,1595,1268,0,0
378,-244,0,0,0,0,0,0,0,0,0,-1,1602,1268,0,0
385,-244,0,0,0,0,0,0,0,0,0,-1,1609,1268,0,0
392,-244,0,0,0,0,0,0,0,0,0,-1,1616,1268,0,0
399,-244,0,0,0,0,0,0,0,0,0,-1,1623,1268,0,0
406,-244,0,0,0,0,0,0,0,0,0,-1,1630,1268,0,0
413,-244,0,0,0,0,0,0,0,0,0,-1,1637,1268,0,0
420,-244,0,0,0,0,0,0,0,0,0,-1,1644,1268,0,0
427,-244,0,0,0,0,0,0,0,0,0,-1,1651,1268,0,0
434,-244,0,0,0,0,0,0,0,0,0,-1,1658,1268,0,0
441,-244,0,0,0,0,0,0,0,0,0,-1,1665,1268,0,0
448,-244,0,0,0,0,0,0,0,0,0,-1,1672,1268,0,0
455,-244,0,0,0,0,0,0,0,0,0,-1,1679,1268,0,0
462,-244,0,0,0,0,0,0,0,0,0,-1,1686,1268,0,0
469,-244,0,0,0,0,0,0,0,0,0,-1,1693,1268,0,0
476,-244,0,0,0,0,0,0,0,0,0,-1,1700,1268,0,0
483,-244,0,0,0,0,0,0,0,0,0,-1,1707,1268,0,0
490,-244,0,0,0,0,0,0,0,0,0,-1,1714,1268,0,0
497,-244,0,0,0,0,0,0,0,0,0,-1,1721,1268,0,0
504,-244,0,0,0,0,0,0,0,0,0,-1,1728,1268,0,0
511,-244,0,0,0,0,0,0,0,0,0,-1,1735,1268,0,0
518,-244,0,0,0,0,0,0,0,0,0,-1,1742,1268,0,0
525,-244,0,0,0,0,0,0,0,0,0,-1,1749,1268,0,0
532,-244,0,0,0,0,0,0,0,0,0,-1,1756,1268,0,0
539,-244,0,0,0,0,0,0,0,0,0,-1,1763,1268,0,0
546,-244,0,0,0,0,0,0,0,0,0,-1,1770,1268,0,0
553,-244,0,0,0,0,0,0,0,0,0,-1,1777,1268,0,0
560,-244,0,0,0,0,0,0,0,0,0,-1,1784,1268,0,0
567,-244,0,0,0,0,0,0,0,0,0,-1,1791,1268,0,0
574,-244,0,0,0,0,0,0,0,0,0,-1,1798,1268,0,0
581,-244,0,0,0,0,0,0,0,0,0,-1,1805,1268,0,0
588,-244,0,0,0,0,0,0,0,0,0,-1,1812,1268,0,0
595,-244,0,0,0,0,0,0,0,0,0,-1,1819,1268,0,0
602,-244,0,0,0,0,0,0,0,0,0,-1,1826,1268,0,0
609,-244,0,0,0,0,0,0,0,0,0,-1,1833,1268,0,0
616,-244,60.5802,2.6217,0.00563345,0.00267253,0.00374926,0.00818396,0.000122027,0.597361,0.00541576,0.0348697,1840,1268,60.5801,-2.62174
623,-244,60.6847,2.74292,0.00154295,0.00447952,0.00131568,0.00498275,0.00103972,1.20548,0.00303521,0.0287647,1847,1268,60.6847,-2.74294
630,-244,60.6577,2.76331,-0.00244677,0.00578693,-0.00124758,0.00597181,-0.00263166,-1.42367,0.00509047,0.0255214,1854,1268,60.6578,-2.76325
637,-244,60.5214,2.62122,-0.00425111,0.00552321,-0.00268013,0.00620987,-0.00493776,-1.31999,0.00645004,0.0414298,1861,1268,60.5214,-2.62127
644,-244,60.3667,2.40198,-0.00369016,0.00445375,-0.00295003,0.00541007,-0.00464647,-1.25731,0.00581172,0.0493349,1868,1268,60.3667,-2.40204
651,-244,59.9373,2.27173,-0.00286659,0.0032576,-0.00253475,0.0041706,-0.00377959,-1.22507,0.00459189,0.0449862,1875,1268,59.9372,-2.27168
658,-244,59.2913,2.07898,0,0,0,0,0,0,0,-1,1882,1268,59.2913,-2.07902
665,-244,50.7988,1.09888,0,0,0,0,0,0,0,-1,1889,1268,50.7989,-1.09893
672,-244,32.224,3.6123,0,0,0,0,0,0,0,-1,1896,1268,32.224,-3.6123
679,-244,27.2593,7.90649,0,0,0,0,0,0,0,-1,1903,1268,27.2592,-7.9065
686,-244,45.2621,12.2224,0,0,0,0,0,0,0,-1,1910,1268,45.2621,-12.2224
693,-244,45.241,11.6218,0.00046447,-0.000335863,-0.000854273,0.00100766,-0.00087905,-0.566361,0.00109013,0.0314656,1917,1268,45.241,-11.6218
700,-244,45.2941,10.9822,0.00129999,-0.0011205,-0.000518848,0.00140652,-0.00122703,-0.202506,0.00152166,0.0109427,1924,1268,45.2941,-10.9822
707,-244,45.3057,10.3956,0.00145496,-0.00133833,1.3239e-05,0.00145502,-0.00133839,0.00473944,0.00161324,0.0110315,1931,1268,45.3056,-10.3956
714,-244,45.337,9.80298,0.000291622,-0.00121943,0.000759865,0.000607644,-0.00153545,0.394131,0.00127538,0.0143179,1938,1268,45.337,-9.80297
721,-244,45.2603,9.25439,-0.000906237,-0.00107964,0.0017441,0.000753317,-0.00273919,0.760563,0.00212228,0.0200747,1945,1268,45.2603,-9.25444
728,-244,45.2391,8.63062,-0.00205163,-0.000948949,0.00285178,0.0014043,-0.00440488,0.880886,0.00349989,0.0259019,1952,1268,45.2391,-8.63056
735,-244,45.1909,7.9563,-0.00327327,-0.000900777,0.00413867,0.0022183,-0.00639234,0.924969,0.00516238,0.0269864,1959,1268,45.1909,-7.95625
742,-244,45.1379,7.50989,-0.00454822,-0.000944274,0.00565961,0.0031933,-0.0086858,0.93952,0.00709857,0.0175722,1966,1268,45.1379,-7.50983
749,-244,45.0013,7.07703,-0.00583792,-0.00104065,0.00744421,0.00438182,-0.0112604,0.941254,0.00931755,0.0261452,1973,1268,45.0013,-7.07708
756,-244,44.722,6.61414,-0.00727263,-0.00143419,0.0098457,0.00591594,-0.0146228,0.929518,0.012208,0.0354447,1980,1268,44.7221,-6.61416
763,-244,44.5922,5.98572,0,0,0,0,0,0,0,-1,1987,1268,44.5921,-5.98569
770,-244,45.5964,4.37244,0,0,0,0,0,0,0,-1,1994,1268,45.5964,-4.37247
777,-244,45.5345,4.51587,0,0,0,0,0,0,0,-1,2001,1268,45.5346,-4.51589
784,-244,31.7908,5.20081,0,0,0,0,0,0,0,-1,2008,1268,31.7907,-5.20083
791,-244,0,0,0,0,0,0,0,0,0,-1,2015,1268,0,0
798,-244,0,0,0,0,0,0,0,0,0,-1,2022,1268,0,0
805,-244,0,0,0,0,0,0,0,0,0,-1,2029,1268,0,0
812,-244,0,0,0,0,0,0,0,0,0,-1,2036,1268,0,0
-700,-251,0,0,0,0,0,0,0,0,0,-1,524,1275,0,0
-693,-251,0,0,0,0,0,0,0,0,0,-1,531,1275,0,0
-686,-251,0,0,0,0,0,0,0,0,0,-1,538,1275,0,0
-679,-251,0,0,0,0,0,0,0,0,0,-1,545,1275,0,0
-672,-251,0,0,0,0,0,0,0,0,0,-1,552,1275,0,0
-665,-251,-47.0169,2.80054,0,0,0,0,0,0,0,-1,559,1275,-47.0169,-2.80051
-658,-251,-47.0667,0.771729,0,0,0,0,0,0,0,-1,566,1275,-47.0667,-0.771698
-651,-251,-47.1705,0.542725,0,0,0,0,0,0,0,-1,573,1275,-47.1705,-0.54271
-644,-251,-47.6946,-0.211792,0,0,0,0,0,0,0,-1,580,1275,-47.6946,0.211738
-637,-251,-48.0686,-1.51526,0,0,0,0,0,0,0,-1,587,1275,-48.0686,1.51526
-630,-251,-28.7449,3.01099,0,0,0,0,0,0,0,-1,594,1275,-28.7449,-3.01099
-623,-251,-28.8283,3.802,-0.00133725,0.00826209,0.00345988,0.00937914,-0.0024543,1.2585,0.00721145,0.0438186,601,1275,-28.8283,-3.80205
-616,-251,-28.8947,4.60925,-0.00123958,0.00606083,0.00241427,0.00678701,-0.00196575,1.27862,0.0053028,0.0209671,608,1275,-28.8947,-4.60924
-609,-251,-28.9691,5.26782,-0.000974366,0.00434996,0.00160887,0.00479835,-0.00142276,1.29899,0.00376388,0.0205339,615,1275,-28.9691,-5.26784
-602,-251,-28.9972,5.88794,-0.000597165,0.00296292,0.0010666,0.00325801,-0.000892257,1.30088,0.00252259,0.0158445,622,1275,-28.9972,-5.88796
-595,-251,-29.0063,6.5105,-0.000122314,0.00184739,0.000687066,0.00206337,-0.000338292,1.26623,0.0015011,0.0137319,629,1275,-29.0063,-6.51049
-588,-251,-29.0352,7.14136,0.000438315,0.000989376,0.000453894,0.00124482,0.000182869,1.05819,0.00077614,0.0146024,636,1275,-29.0352,-7.14136
-581,-251,-29.0743,7.78577,0.00104388,0.00024767,0.000285896,0.0011359,0.000155649,0.311398,0.000711087,0.0139407,643,1275,-29.0744,-7.78572
-574,-251,-29.0922,8.44421,0.00169983,-0.000175178,6.63839e-05,0.00170218,-0.000177526,0.0353456,0.00119835,0.0129503,650,1275,-29.0922,-8.44421
-567,-251,-29.1142,9.08765,0.00198205,-0.000285924,-9.34245e-05,0.00198589,-0.000289766,-0.0411001,0.00143033,0.0193929,657,1275,-29.1142,-9.08762
-560,-251,-29.0853,9.73035,0,0,0,0,0,0,0,-1,664,1275,-29.0854,-9.73036
-553,-251,-28.5822,10.3124,0,0,0,0,0,0,0,-1,671,1275,-28.5822,-10.3124
-546,-251,-12.995,4.5675,0,0,0,0,0,0,0,-1,678,1275,-12.995,-4.56745
-539,-251,-10.7916,0.366333,0,0,0,0,0,0,0,-1,685,1275,-10.7916,-0.366282
-532,-251,-10.7391,-0.00769043,0,0,0,0,0,0,0,-1,692,1275,-10.7391,0.00773227
-525,-251,-29.4286,-0.250244,0,0,0,0,0,0,0,-1,699,1275,-29.4286,0.250266
-518,-251,-32.6981,0.678833,0,0,0,0,0,0,0,-1,706,1275,-32.6981,-0.678787
-511,-251,-29.4731,0.637085,0,0,0,0,0,0,0,-1,713,1275,-29.4731,-0.637025
-504,-251,-30.6428,0.792358,0,0,0,0,0,0,0,-1,720,1275,-30.6427,-0.792335
-497,-251,-43.2418,1.24744,0,0,0,0,0,0,0,-1,727,1275,-43.2418,-1.24738
-490,-251,0,0,0,0,0,0,0,0,0,-1,734,1275,0,0
-483,-251,0,0,0,0,0,0,0,0,0,-1,741,1275,0,0
-476,-251,0,0,0,0,0,0,0,0,0,-1,748,1275,0,0
-469,-251,0,0,0,0,0,0,0,0,0,-1,755,1275,0,0
-462,-251,0,0,0,0,0,0,0,0,0,-1,762,1275,0,0
-455,-251,0,0,0,0,0,0,0,0,0,-1,769,1275,0,0
-448,-251,0,0,0,0,0,0,0,0,0,-1,776,1275,0,0
-441,-251,0,0,0,0,0,0,0,0,0,-1,783,1275,0,0
-434,-251,0,0,0,0,0,0,0,0,0,-1,790,1275,0,0
-427,-251,0,0,0,0,0,0,0,0,0,-1,797,1275,0,0
-420,-251,0,0,0,0,0,0,0,0,0,-1,804,1275,0,0
-413,-251,0,0,0,0,0,0,0,0,0,-1,811,1275,0,0
-406,-251,0,0,0,0,0,0,0,0,0,-1,818,1275,0,0
-399,-251,0,0,0,0,0,0,0,0,0,-1,825,1275,0,0
-392,-251,0,0,0,0,0,0,0,0,0,-1,832,1275,0,0
-385,-251,0,0,0,0,0,0,0,0,0,-1,839,1275,0,0
-378,-251,0,0,0,0,0,0,0,0,0,-1,846,1275,0,0
-371,-251,0,0,0,0,0,0,0,0,0,-1,853,1275,0,0
-364,-251,0,0,0,0,0,0,0,0,0,-1,860,1275,0,0
-357,-251,0,0,0,0,0,0,0,0,0,-1,867,1275,0,0
-350,-251,0,0,0,0,0,0,0,0,0,-1,874,1275,0,0
-343,-251,0,0,0,0,0,0,0,0,0,-1,881,1275,0,0
-336,-251,0,0,0,0,0,0,0,0,0,-1,888,1275,0,0
-329,-251,0,0,0,0,0,0,0,0,0,-1,895,1275,0,0
-322,-251,0,0,0,0,0,0,0,0,0,-1,902,1275,0,0
-315,-251,0,0,0,0,0,0,0,0,0,-1,909,1275,0,0
-308,-251,0,0,0,0,0,0,0,0,0,-1,916,1275,0,0
-301,-251,0,0,0,0,0,0,0,0,0,-1,923,1275,0,0
-294,-251,0,0,0,0,0,0,0,0,0,-1,930,1275,0,0
-287,-251,0,0,0,0,0,0,0,0,0,-1,937,1275,0,0
-280,-251,0,0,0,0,0,0,0,0,0,-1,944,1275,0,0
-273,-251,0,0,0,0,0,0,0,0,0,-1,951,1275,0,0
-266,-251,0,0,0,0,0,0,0,0,0,-1,958,1275,0,0
-259,-251,0,0,0,0,0,0,0,0,0,-1,965,1275,0,0
-252,-251,0,0,0,0,0,0,0,0,0,-1,972,1275,0,0
-245,-251,0,0,0,0,0,0,0,0,0,-1,979,1275,0,0
-238,-251,0,0,0,0,0,0,0,0,0,-1,986,1275,0,0
-231,-251,0,0,0,0,0,0,0,0,0,-1,993,1275,0,0
-224,-251,0,0,0,0,0,0,0,0,0,-1,1000,1275,0,0
-217,-251,0,0,0,0,0,0,0,0,0,-1,1007,1275,0,0
-210,-251,0,0,0,0,0,0,0,0,0,-1,1014,1275,0,0
-203,-251,0,0,0,0,0,0,0,0,0,-1,1021,1275,0,0
-196,-251,0,0,0,0,0,0,0,0,0,-1,1028,1275,0,0
-189,-251,0,0,0,0,0,0,0,0,0,-1,1035,1275,0,0
-182,-251,0,0,0,0,0,0,0,0,0,-1,1042,1275,0,0
-175,-251,0,0,0,0,0,0,0,0,0,-1,1049,1275,0,0
-168,-251,0,0,0,0,0,0,0,0,0,-1,1056,1275,0,0
-161,-251,0,0,0,0,0,0,0,0,0,-1,1063,1275,0,0
-154,-251,0,0,0,0,0,0,0,0,0,-1,1070,1275,0,0
-147,-251,0,0,0,0,0,0,0,0,0,-1,1077,1275,0,0
-140,-251,0,0,0,0,0,0,0,0,0,-1,1084,1275,0,0
-133,-251,0,0,0,0,0,0,0,0,0,-1,1091,1275,0,0
-126,-251,0,0,0,0,0,0,0,0,0,-1,1098,1275,0,0
-119,-251,0,0,0,0,0,0,0,0,0,-1,1105,1275,0,0
-112,-251,0,0,0,0,0,0,0,0,0,-1,1112,1275,0,0
-105,-251,0,0,0,0,0,0,0,0,0,-1,1119,1275,0,0
-98,-251,0,0,0,0,0,0,0,0,0,-1,1126,1275,0,0
-91,-251,0,0,0,0,0,0,0,0,0,-1,1133,1275,0,0
-84,-251,0,0,0,0,0,0,0,0,0,-1,1140,1275,0,0
-77,-251,0,0,0,0,0,0,0,0,0,-1,1147,1275,0,0
-70,-251,0,0,0,0,0,0,0,0,0,-1,1154,1275,0,0
-63,-251,0,0,0,0,0,0,0,0,0,-1,1161,1275,0,0
-56,-251,0,0,0,0,0,0,0,0,0,-1,1168,1275,0,0
-49,-251,0,0,0,0,0,0,0,0,0,-1,1175,1275,0,0
-42,-251,0,0,0,0,0,0,0,0,0,-1,1182,1275,0,0
-35,-251,0,0,0,0,0,0,0,0,0,-1,1189,1275,0,0
-28,-251,0,0,0,0,0,0,0,0,0,-1,1196,1275,0,0
-21,-251,0,0,0,0,0,0,0,0,0,-1,1203,1275,0,0
-14,-251,0,0,0,0,0,0,0,0,0,-1,1210,1275,0,0
-7,-251,0,0,0,0,0,0,0,0,0,-1,1217,1275,0,0
0,-251,0,0,0,0,0,0,0,0,0,-1,1224,1275,0,0
7,-251,0,0,0,0,0,0,0,0,0,-1,1231,1275,0,0
14,-251,0,0,0,0,0,0,0,0,0,-1,1238,1275,0,0
21,-251,0,0,0,0,0,0,0,0,0,-1,1245,1275,0,0
28,-251,0,0,0,0,0,0,0,0,0,-1,1252,1275,0,0
35,-251,0,0,0,0,0,0,0,0,0,-1,1259,1275,0,0
42,-251,0,0,0,0,0,0,0,0,0,-1,1266,1275,0,0
49,-251,0,0,0,0,0,0,0,0,0,-1,1273,1275,0,0
56,-251,0,0,0,0,0,0,0,0,0,-1,1280,1275,0,0
63,-251,0,0,0,0,0,0,0,0,0,-1,1287,1275,0,0
70,-251,0,0,0,0,0,0,0,0,0,-1,1294,1275,0,0
77,-251,0,0,0,0,0,0,0,0,0,-1,1301,1275,0,0
84,-251,0,0,0,0,0,0,0,0,0,-1,1308,1275,0,0
91,-251,0,0,0,0,0,0,0,0,0,-1,1315,1275,0,0
98,-251,0,0,0,0,0,0,0,0,0,-1,1322,1275,0,0
105,-251,0,0,0,0,0,0,0,0,0,-1,1329,1275,0,0
112,-251,0,0,0,0,0,0,0,0,0,-1,1336,1275,0,0
119,-251,0,0,0,0,0,0,0,0,0,-1,1343,1275,0,0
126,-251,0,0,0,0,0,0,0,0,0,-1,1350,1275,0,0
133,-251,0,0,0,0,0,0,0,0,0,-1,1357,1275,0,0
140,-251,0,0,0,0,0,0,0,0,0,-1,1364,1275,0,0
147,-251,0,0,0,0,0,0,0,0,0,-1,1371,1275,0,0
154,-251,0,0,0,0,0,0,0,0,0,-1,1378,1275,0,0
161,-251,0,0,0,0,0,0,0,0,0,-1,1385,1275,0,0
168,-251,0,0,0,0,0,0,0,0,0,-1,1392,1275,0,0
175,-251,0,0,0,0,0,0,0,0,0,-1,1399,1275,0,0
182,-251,0,0,0,0,0,0,0,0,0,-1,1406,1275,0,0
189,-251,0,0,0,0,0,0,0,0,0,-1,1413,1275,0,0
196,-251,0,0,0,0,0,0,0,0,0,-1,1420,1275,0,0
203,-251,0,0,0,0,0,0,0,0,0,-1,1427,1275,0,0
210,-251,0,0,0,0,0,0,0,0,0,-1,1434,1275,0,0
217,-251,0,0,0,0,0,0,0,0,0,-1,1441,1275,0,0
224,-251,0,0,0,0,0,0,0,0,0,-1,1448,1275,0,0
231,-251,0,0,0,0,0,0,0,0,0,-1,1455,1275,0,0
238,-251,0,0,0,0,0,0,0,0,0,-1,1462,1275,0,0
245,-251,0,0,0,0,0,0,0,0,0,-1,1469,1275,0,0
252,-251,0,0,0,0,0,0,0,0,0,-1,1476,1275,0,0
259,-251,0,0,0,0,0,0,0,0,0,-1,1483,1275,0,0
266,-251,0,0,0,0,0,0,0,0,0,-1,1490,1275,0,0
273,-251,0,0,0,0,0,0,0,0,0,-1,1497,1275,0,0
280,-251,0,0,0,0,0,0,0,0,0,-1,1504,1275,0,0
287,-251,0,0,0,0,0,0,0,0,0,-1,1511,1275,0,0
294,-251,0,0,0,0,0,0,0,0,0,-1,1518,1275,0,0
301,-251,0,0,0,0,0,0,0,0,0,-1,1525,1275,0,0
308,-251,0,0,0,0,0,0,0,0,0,-1,1532,1275,0,0
315,-251,0,0,0,0,0,0,0,0,0,-1,1539,1275,0,0
322,-251,0,0,0,0,0,0,0,0,0,-1,1546,1275,0,0
329,-251,0,0,0,0,0,0,0,0,0,-1,1553,1275,0,0
336,-251,0,0,0,0,0,0,0,0,0,-1,1560,1275,0,0
343,-251,0,0,0,0,0,0,0,0,0,-1,1567,1275,0,0
350,-251,0,0,0,0,0,0,0,0,0,-1,1574,1275,0,0
357,-251,0,0,0,0,0,0,0,0,0,-1,1581,1275,0,0
364,-251,0,0,0,0,0,0,0,0,0,-1,1588,1275,0,0
371,-251,0,0,0,0,0,0,0,0,0,-1,1595,1275,0,0
378,-251,0,0,0,0,0,0,0,0,0,-1,1602,1275,0,0
385,-251,0,0,0,0,0,0,0,0,0,-1,1609,1275,0,0
392,-251,0,0,0,0,0,0,0,0,0,-1,1616,1275,0,0
399,-251,0,0,0,0,0,0,0,0,0,-1,1623,1275,0,0
406,-251,0,0,0,0,0,0,0,0,0,-1,1630,1275,0,0
413,-251,0,0,0,0,0,0,0,0,0,-1,1637,1275,0,0
420,-251,0,0,0,0,0,0,0,0,0,-1,1644,1275,0,0
427,-251,0,0,0,0,0,0,0,0,0,-1,1651,1275,0,0
434,-251,0,0,0,0,0,0,0,0,0,-1,1658,1275,0,0
441,-251,0,0,0,0,0,0,0,0,0,-1,1665,1275,0,0
448,-251,0,0,0,0,0,0,0,0,0,-1,1672,1275,0,0
455,-251,0,0,0,0,0,0,0,0,0,-1,1679,1275,0,0
462,-251,0,0,0,0,0,0,0,0,0,-1,1686,1275,0,0
469,-251,0,0,0,0,0,0,0,0,0,-1,1693,1275,0,0
476,-251,0,0,0,0,0,0,0,0,0,-1,1700,1275,0,0
483,-251,0,0,0,0,0,0,0,0,0,-1,1707,1275,0,0
490,-251,0,0,0,0,0,0,0,0,0,-1,1714,1275,0,0
497,-251,0,0,0,0,0,0,0,0,0,-1,1721,1275,0,0
504,-251,0,0,0,0,0,0,0,0,0,-1,1728,1275,0,0
511,-251,0,0,0,0,0,0,0,0,0,-1,1735,1275,0,0
518,-251,0,0,0,0,0,0,0,0,0,-1,1742,1275,0,0
525,-251,0,0,0,0,0,0,0,0,0,-1,1749,1275,0,0
532,-251,0,0,0,0,0,0,0,0,0,-1,1756,1275,0,0
539,-251,0,0,0,0,0,0,0,0,0,-1,1763,1275,0,0
546,-251,0,0,0,0,0,0,0,0,0,-1,1770,1275,0,0
553,-251,0,0,0,0,0,0,0,0,0,-1,1777,1275,0,0
560,-251,0,0,0,0,0,0,0,0,0,-1,1784,1275,0,0
567,-251,0,0,0,0,0,0,0,0,0,-1,1791,1275,0,0
574,-251,0,0,0,0,0,0,0,0,0,-1,1798,1275,0,0
581,-251,0,0,0,0,0,0,0,0,0,-1,1805,1275,0,0
588,-251,0,0,0,0,0,0,0,0,0,-1,1812,1275,0,0
595,-251,0,0,0,0,0,0,0,0,0,-1,1819,1275,0,0
602,-251,0,0,0,0,0,0,0,0,0,-1,1826,1275,0,0
609,-251,60.5945,2.61365,0.00763463,0.00472135,0.00411152,0.0105399,0.00181606,0.615156,0.0065063,0.0293856,1833,1275,60.5945,-2.61364
616,-251,60.5576,2.61877,0.00366496,0.0064602,0.00239239,0.0078333,0.00229186,1.04976,0.00465047,0.0273402,1840,1275,60.5576,-2.61882
623,-251,60.6072,2.6897,-0.000249058,0.00769197,0.000339915,0.00770649,-0.000263582,1.5281,0.00522774,0.025546,1847,1275,60.6071,-2.68965
630,-251,60.6309,2.72058,-0.00372648,0.00794015,-0.00166834,0.00817404,-0.00396037,-1.43151,0.00714521,0.037495,1854,1275,60.6308,-2.72062
637,-251,60.4799,2.38782,-0.00450464,0.00650858,-0.00239041,0.00700503,-0.00500109,-1.36602,0.00696385,0.0419165,1861,1275,60.4798,-2.38778
644,-251,60.358,2.32959,0,0,0,0,0,0,0,-1,1868,1275,60.3581,-2.32956
651,-251,60.1112,2.27234,0,0,0,0,0,0,0,-1,1875,1275,60.1112,-2.27236
658,-251,59.4865,2.03418,0,0,0,0,0,0,0,-1,1882,1275,59.4864,-2.03415
665,-251,32.9579,2.60229,0,0,0,0,0,0,0,-1,1889,1275,32.9579,-2.60231
672,-251,26.0721,4.53064,0,0,0,0,0,0,0,-1,1896,1275,26.0721,-4.53063
679,-251,29.1344,8.63782,0,0,0,0,0,0,0,-1,1903,1275,29.1344,-8.63778
686,-251,44.8522,12.1578,0,0,0,0,0,0,0,-1,1910,1275,44.8522,-12.1578
693,-251,44.7676,11.5992,0.00030101,-0.00026417,-0.00074631,0.00081644,-0.0007796,-0.604415,0.000921556,0.0194755,1917,1275,44.7676,-11.5992
700,-251,44.7318,11.0081,0.0011293,-0.00102089,-0.000370463,0.00119134,-0.00108293,-0.165922,0.00131355,0.00966435,1924,1275,44.7319,-11.0081
707,-251,44.7333,10.4095,0.00117345,-0.00113989,0.000209743,0.00119231,-0.00115875,0.089692,0.00135743,0.0119711,1931,1275,44.7333,-10.4096
714,-251,44.7415,9.82959,1.41616e-05,-0.00100094,0.000970054,0.000601423,-0.0015882,0.544374,0.00130627,0.0146658,1938,1275,44.7415,-9.82955
721,-251,44.6582,9.29163,-0.0011646,-0.000883868,0.0019214,0.000902286,-0.00295075,0.82186,0.00232699,0.022837,1945,1275,44.6582,-9.29164
728,-251,44.647,8.74927,-0.00235303,-0.000819875,0.0029984,0.00150839,-0.00468129,0.910549,0.00372684,0.0274096,1952,1275,44.6469,-8.7493
735,-251,44.618,8.05627,-0.00364381,-0.000827321,0.00426234,0.00225338,-0.00672452,0.944949,0.0053934,0.0224661,1959,1275,44.618,-8.05622
742,-251,44.5444,7.59229,-0.00502617,-0.000920085,0.00577755,0.00315836,-0.00910462,0.956114,0.00735224,0.0192676,1966,1275,44.5444,-7.59233
749,-251,44.2676,7.29663,-0.00648712,-0.00104152,0.00756776,0.00427835,-0.011807,0.958083,0.00961997,0.0382151,1973,1275,44.2676,-7.29659
756,-251,43.9733,6.93091,0,0,0,0,0,0,0,-1,1980,1275,43.9732,-6.93087
763,-251,43.3652,5.7583,0,0,0,0,0,0,0,-1,1987,1275,43.3653,-5.75827
770,-251,45.2444,5.30237,0,0,0,0,0,0,0,-1,1994,1275,45.2444,-5.30239
777,-251,31.5731,4.33252,0,0,0,0,0,0,0,-1,2001,1275,31.5731,-4.33251
784,-251,32.0776,5.78247,0,0,0,0,0,0,0,-1,2008,1275,32.0776,-5.78247
791,-251,0,0,0,0,0,0,0,0,0,-1,2015,1275,0,0
798,-251,0,0,0,0,0,0,0,0,0,-1,2022,1275,0,0
805,-251,0,0,0,0,0,0,0,0,0,-1,2029,1275,0,0
812,-251,0,0,0,0,0,0,0,0,0,-1,2036,1275,0,0
-700,-258,0,0,0,0,0,0,0,0,0,-1,524,1282,0,0
-693,-258,0,0,0,0,0,0,0,0,0,-1,531,1282,0,0
-686,-258,0,0,0,0,0,0,0,0,0,-1,538,1282,0,0
-679,-258,0,0,0,0,0,0,0,0,0,-1,545,1282,0,0
-672,-258,0,0,0,0,0,0,0,0,0,-1,552,1282,0,0
-665,-258,-47.4511,2.94031,0,0,0,0,0,0,0,-1,559,1282,-47.4511,-2.94029
-658,-258,-47.2729,1.10986,0,0,0,0,0,0,0,-1,566,1282,-47.2729,-1.10984
-651,-258,-47.8791,2.18286,0,0,0,0,0,0,0,-1,573,1282,-47.8791,-2.18289
-644,-258,-48.3217,0.615601,0,0,0,0,0,0,0,-1,580,1282,-48.3217,-0.615579
-637,-258,-48.7546,-0.999756,0,0,0,0,0,0,0,-1,587,1282,-48.7546,0.999774
-630,-258,-49.2488,-2.7572,0,0,0,0,0,0,0,-1,594,1282,-49.2488,2.7572
-623,-258,-28.1486,3.69092,0,0,0,0,0,0,0,-1,601,1282,-28.1486,-3.69092
-616,-258,-28.2583,4.56689,-0.00186286,0.00678152,0.00268718,0.00754876,-0.0026301,1.29268,0.00610119,0.0363288,608,1282,-28.2583,-4.56686
-609,-258,-28.329,5.29419,-0.00135642,0.00479276,0.00182644,0.00529434,-0.001858,1.30278,0.00428533,0.0174729,615,1282,-28.329,-5.29421
-602,-258,-28.3781,5.92883,-0.000860306,0.0032483,0.00125035,0.00359889,-0.0012109,1.29742,0.00288877,0.0143156,622,1282,-28.3781,-5.92889
-595,-258,-28.3792,6.55847,-0.000306014,0.00203356,0.000850948,0.00231033,-0.000582779,1.25634,0.00176681,0.0120926,629,1282,-28.3792,-6.55849
-588,-258,-28.3937,7.20947,0.000317315,0.00108729,0.00061424,0.00142722,-2.26158e-05,1.06533,0.000959107,0.0128421,636,1282,-28.3937,-7.20946
-581,-258,-28.4344,7.81897,0.000992968,0.00030994,0.000467331,0.00123027,7.26362e-05,0.469856,0.000797073,0.0151293,643,1282,-28.4344,-7.81894
-574,-258,-28.4363,8.44104,0.00174892,-0.000253201,0.000352054,0.00180902,-0.000313302,0.169085,0.00132288,0.015146,650,1282,-28.4363,-8.44101
-567,-258,-28.4879,9.10828,0.00227246,-0.000609664,0.000345819,0.00231337,-0.000650578,0.117761,0.00179876,0.0150612,657,1282,-28.4879,-9.1083
-560,-258,-28.4971,9.79077,0.00168716,-0.00106454,0.000352873,0.0017317,-0.00110907,0.125532,0.0016532,0.044282,664,1282,-28.4972,-9.79075
-553,-258,-28.4169,10.4961,0,0,0,0,0,0,0,-1,671,1282,-28.4169,-10.4961
-546,-258,-14.2231,5.92029,0,0,0,0,0,0,0,-1,678,1282,-14.2231,-5.92028
-539,-258,-10.2228,4.05823,0,0,0,0,0,0,0,-1,685,1282,-10.2228,-4.05823
-532,-258,-10.2173,-0.353882,0,0,0,0,0,0,0,-1,692,1282,-10.2173,0.353836
-525,-258,-21.8661,-1.5929,0,0,0,0,0,0,0,-1,699,1282,-21.8661,1.59285
-518,-258,-29.2484,0.123169,0,0,0,0,0,0,0,-1,706,1282,-29.2484,-0.123186
-511,-258,-23.5061,1.16833,0,0,0,0,0,0,0,-1,713,1282,-23.5061,-1.16833
-504,-258,-22.9178,0.484131,0,0,0,0,0,0,0,-1,720,1282,-22.9178,-0.484106
-497,-258,-17.8047,0.730469,0,0,0,0,0,0,0,-1,727,1282,-17.8048,-0.730489
-490,-258,-15.4346,0.632935,0,0,0,0,0,0,0,-1,734,1282,-15.4346,-0.632917
-483,-258,0,0,0,0,0,0,0,0,0,-1,741,1282,0,0
-476,-258,0,0,0,0,0,0,0,0,0,-1,748,1282,0,0
-469,-258,0,0,0,0,0,0,0,0,0,-1,755,1282,0,0
-462,-258,0,0,0,0,0,0,0,0,0,-1,762,1282,0,0
-455,-258,0,0,0,0,0,0,0,0,0,-1,769,1282,0,0
-448,-258,0,0,0,0,0,0,0,0,0,-1,776,1282,0,0
-441,-258,0,0,0,0,0,0,0,0,0,-1,783,1282,0,0
-434,-258,0,0,0,0,0,0,0,0,0,-1,790,1282,0,0
-427,-258,0,0,0,0,0,0,0,0,0,-1,797,1282,0,0
-420,-258,0,0,0,0,0,0,0,0,0,-1,804,1282,0,0
-413,-258,0,0,0,0,0,0,0,0,0,-1,811,1282,0,0
-406,-258,0,0,0,0,0,0,0,0,0,-1,818,1282,0,0
-399,-258,0,0,0,0,0,0,0,0,0,-1,825,1282,0,0
-392,-258,0,0,0,0,0,0,0,0,0,-1,832,1282,0,0
-385,-258,0,0,0,0,0,0,0,0,0,-1,839,1282,0,0
-378,-258,0,0,0,0,0,0,0,0,0,-1,846,1282,0,0
-371,-258,0,0,0,0,0,0,0,0,0,-1,853,1282,0,0
-364,-258,0,0,0,0,0,0,0,0,0,-1,860,1282,0,0
-357,-258,0,0,0,0,0,0,0,0,0,-1,867,1282,0,0
-350,-258,0,0,0,0,0,0,0,0,0,-1,874,1282,0,0
-343,-258,0,0,0,0,0,0,0,0,0,-1,881,1282,0,0
-336,-258,0,0,0,0,0,0,0,0,0,-1,888,1282,0,0
-329,-258,0,0,0,0,0,0,0,0,0,-1,895,1282,0,0
-322,-258,0,0,0,0,0,0,0,0,0,-1,902,1282,0,0
-315,-258,0,0,0,0,0,0,0,0,0,-1,909,1282,0,0
-308,-258,0,0,0,0,0,0,0,0,0,-1,916,1282,0,0
-301,-258,0,0,0,0,0,0,0,0,0,-1,923,1282,0,0
-294,-258,0,0,0,0,0,0,0,0,0,-1,930,1282,0,0
-287,-258,0,0,0,0,0,0,0,0,0,-1,937,1282,0,0
-280,-258,0,0,0,0,0,0,0,0,0,-1,944,1282,0,0
-273,-258,0,0,0,0,0,0,0,0,0,-1,951,1282,0,0
-266,-258,0,0,0,0,0,0,0,0,0,-1,958,1282,0,0
-259,-258,0,0,0,0,0,0,0,0,0,-1,965,1282,0,0
-252,-258,0,0,0,0,0,0,0,0,0,-1,972,1282,0,0
-245,-258,0,0,0,0,0,0,0,0,0,-1,979,1282,0,0
-238,-258,0,0,0,0,0,0,0,0,0,-1,986,1282,0,0
-231,-258,0,0,0,0,0,0,0,0,0,-1,993,1282,0,0
-224,-258,0,0,0,0,0,0,0,0,0,-1,1000,1282,0,0
-217,-258,0,0,0,0,0,0,0,0,0,-1,1007,1282,0,0
-210,-258,0,0,0,0,0,0,0,0,0,-1,1014,1282,0,0
-203,-258,0,0,0,0,0,0,0,0,0,-1,1021,1282,0,0
-196,-258,0,0,0,0,0,0,0,0,0,-1,1028,1282,0,0
-189,-258,0,0,0,0,0,0,0,0,0,-1,1035,1282,0,0
-182,-258,0,0,0,0,0,0,0,0,0,-1,1042,1282,0,0
-175,-258,0,0,0,0,0,0,0,0,0,-1,1049,1282,0,0
-168,-258,0,0,0,0,0,0,0,0,0,-1,1056,1282,0,0
-161,-258,0,0,0,0,0,0,0,0,0,-1,1063,1282,0,0
-154,-258,0,0,0,0,0,0,0,0,0,-1,1070,1282,0,0
-147,-258,0,0,0,0,0,0,0,0,0,-1,1077,1282,0,0
-140,-258,0,0,0,0,0,0,0,0,0,-1,1084,1282,0,0
-133,-258,0,0,0,0,0,0,0,0,0,-1,1091,1282,0,0
-126,-258,0,0,0,0,0,0,0,0,0,-1,1098,1282,0,0
-119,-258,0,0,0,0,0,0,0,0,0,-1,1105,1282,0,0
-112,-258,0,0,0,0,0,0,0,0,0,-1,1112,1282,0,0
-105,-258,0,0,0,0,0,0,0,0,0,-1,1119,1282,0,0
-98,-258,0,0,0,0,0,0,0,0,0,-1,1126,1282,0,0
-91,-258,0,0,0,0,0,0,0,0,0,-1,1133,1282,0,0
-84,-258,0,0,0,0,0,0,0,0,0,-1,1140,1282,0,0
-77,-258,0,0,0,0,0,0,0,0,0,-1,1147,1282,0,0
-70,-258,0,0,0,0,0,0,0,0,0,-1,1154,1282,0,0
-63,-258,0,0,0,0,0,0,0,0,0,-1,1161,1282,0,0
-56,-258,0,0,0,0,0,0,0,0,0,-1,1168,1282,0,0
-49,-258,0,0,0,0,0,0,0,0,0,-1,1175,1282,0,0
-42,-258,0,0,0,0,0,0,0,0,0,-1,1182,1282,0,0
-35,-258,0,0,0,0,0,0,0,0,0,-1,1189,1282,0,0
-28,-258,0,0,0,0,0,0,0,0,0,-1,1196,1282,0,0
-21,-258,0,0,0,0,0,0,0,0,0,-1,1203,1282,0,0
-14,-258,0,0,0,0,0,0,0,0,0,-1,1210,1282,0,0
-7,-258,0,0,0,0,0,0,0,0,0,-1,1217,1282,0,0
0,-258,0,0,0,0,0,0,0,0,0,-1,1224,1282,0,0
7,-258,0,0,0,0,0,0,0,0,0,-1,1231,1282,0,0
14,-258,0,0,0,0,0,0,0,0,0,-1,1238,1282,0,0
21,-258,0,0,0,0,0,0,0,0,0,-1,1245,1282,0,0
28,-258,0,0,0,0,0,0,0,0,0,-1,1252,1282,0,0
35,-258,0,0,0,0,0,0,0,0,0,-1,1259,1282,0,0
42,-258,0,0,0,0,0,0,0,0,0,-1,1266,1282,0,0
49,-258,0,0,0,0,0,0,0,0,0,-1,1273,1282,0,0
56,-258,0,0,0,0,0,0,0,0,0,-1,1280,1282,0,0
63,-258,0,0,0,0,0,0,0,0,0,-1,1287,1282,0,0
70,-258,0,0,0,0,0,0,0,0,0,-1,1294,1282,0,0
77,-258,0,0,0,0,0,0,0,0,0,-1,1301,1282,0,0
84,-258,0,0,0,0,0,0,0,0,0,-1,1308,1282,0,0
91,-258,0,0,0,0,0,0,0,0,0,-1,1315,1282,0,0
98,-258,0,0,0,0,0,0,0,0,0,-1,1322,1282,0,0
105,-258,0,0,0,0,0,0,0,0,0,-1,1329,1282,0,0
112,-258,0,0,0,0,0,0,0,0,0,-1,1336,1282,0,0
119,-258,0,0,0,0,0,0,0,0,0,-1,1343,1282,0,0
126,-258,0,0,0,0,0,0,0,0,0,-1,1350,1282,0,0
133,-258,0,0,0,0,0,0,0,0,0,-1,1357,1282,0,0
140,-258,0,0,0,0,0,0,0,0,0,-1,1364,1282,0,0
147,-258,0,0,0,0,0,0,0,0,0,-1,1371,1282,0,0
154,-258,0,0,0,0,0,0,0,0,0,-1,1378,1282,0,0
161,-258,0,0,0,0,0,0,0,0,0,-1,1385,1282,0,0
168,-258,0,0,0,0,0,0,0,0,0,-1,1392,1282,0,0
175,-258,0,0,0,0,0,0,0,0,0,-1,1399,1282,0,0
182,-258,0,0,0,0,0,0,0,0,0,-1,1406,1282,0,0
189,-258,0,0,0,0,0,0,0,0,0,-1,1413,1282,0,0
196,-258,0,0,0,0,0,0,0,0,0,-1,1420,1282,0,0
203,-258,0,0,0,0,0,0,0,0,0,-1,1427,1282,0,0
210,-258,0,0,0,0,0,0,0,0,0,-1,1434,1282,0,0
217,-258,0,0,0,0,0,0,0,0,0,-1,1441,1282,0,0
224,-258,0,0,0,0,0,0,0,0,0,-1,1448,1282,0,0
231,-258,0,0,0,0,0,0,0,0,0,-1,1455,1282,0,0
238,-258,0,0,0,0,0,0,0,0,0,-1,1462,1282,0,0
245,-258,0,0,0,0,0,0,0,0,0,-1,1469,1282,0,0
252,-258,0,0,0,0,0,0,0,0,0,-1,1476,1282,0,0
259,-258,0,0,0,0,0,0,0,0,0,-1,1483,1282,0,0
266,-258,0,0,0,0,0,0,0,0,0,-1,1490,1282,0,0
273,-258,0,0,0,0,0,0,0,0,0,-1,1497,1282,0,0
280,-258,0,0,0,0,0,0,0,0,0,-1,1504,1282,0,0
287,-258,0,0,0,0,0,0,0,0,0,-1,1511,1282,0,0
294,-258,0,0,0,0,0,0,0,0,0,-1,1518,1282,0,0
301,-258,0,0,0,0,0,0,0,0,0,-1,1525,1282,0,0
308,-258,0,0,0,0,0,0,0,0,0,-1,1532,1282,0,0
315,-258,0,0,0,0,0,0,0,0,0,-1,1539,1282,0,0
322,-258,0,0,0,0,0,0,0,0,0,-1,1546,1282,0,0
329,-258,0,0,0,0,0,0,0,0,0,-1,1553,1282,0,0
336,-258,0,0,0,0,0,0,0,0,0,-1,1560,1282,0,0
343,-258,0,0,0,0,0,0,0,0,0,-1,1567,1282,0,0
350,-258,0,0,0,0,0,0,0,0,0,-1,1574,1282,0,0
357,-258,0,0,0,0,0,0,0,0,0,-1,1581,1282,0,0
364,-258,0,0,0,0,0,0,0,0,0,-1,1588,1282,0,0
371,-258,0,0,0,0,0,0,0,0,0,-1,1595,1282,0,0
378,-258,0,0,0,0,0,0,0,0,0,-1,1602,1282,0,0
385,-258,0,0,0,0,0,0,0,0,0,-1,1609,1282,0,0
392,-258,0,0,0,0,0,0,0,0,0,-1,1616,1282,0,0
399,-258,0,0,0,0,0,0,0,0,0,-1,1623,1282,0,0
406,-258,0,0,0,0,0,0,0,0,0,-1,1630,1282,0,0
413,-258,0,0,0,0,0,0,0,0,0,-1,1637,1282,0,0
420,-258,0,0,0,0,0,0,0,0,0,-1,1644,1282,0,0
427,-258,0,0,0,0,0,0,0,0,0,-1,1651,1282,0,0
434,-258,0,0,0,0,0,0,0,0,0,-1,1658,1282,0,0
441,-258,0,0,0,0,0,0,0,0,0,-1,1665,1282,0,0
448,-258,0,0,0,0,0,0,0,0,0,-1,1672,1282,0,0
455,-258,0,0,0,0,0,0,0,0,0,-1,1679,1282,0,0
462,-258,0,0,0,0,0,0,0,0,0,-1,1686,1282,0,0
469,-258,0,0,0,0,0,0,0,0,0,-1,1693,1282,0,0
476,-258,0,0,0,0,0,0,0,0,0,-1,1700,1282,0,0
483,-258,0,0,0,0,0,0,0,0,0,-1,1707,1282,0,0
490,-258,0,0,0,0,0,0,0,0,0,-1,1714,1282,0,0
497,-258,0,0,0,0,0,0,0,0,0,-1,1721,1282,0,0
504,-258,0,0,0,0,0,0,0,0,0,-1,1728,1282,0,0
511,-258,0,0,0,0,0,0,0,0,0,-1,1735,1282,0,0
518,-258,0,0,0,0,0,0,0,0,0,-1,1742,1282,0,0
525,-258,0,0,0,0,0,0,0,0,0,-1,1749,1282,0,0
532,-258,0,0,0,0,0,0,0,0,0,-1,1756,1282,0,0
539,-258,0,0,0,0,0,0,0,0,0,-1,1763,1282,0,0
546,-258,0,0,0,0,0,0,0,0,0,-1,1770,1282,0,0
553,-258,0,0,0,0,0,0,0,0,0,-1,1777,1282,0,0
560,-258,0,0,0,0,0,0,0,0,0,-1,1784,1282,0,0
567,-258,0,0,0,0,0,0,0,0,0,-1,1791,1282,0,0
574,-258,0,0,0,0,0,0,0,0,0,-1,1798,1282,0,0
581,-258,0,0,0,0,0,0,0,0,0,-1,1805,1282,0,0
588,-258,0,0,0,0,0,0,0,0,0,-1,1812,1282,0,0
595,-258,0,0,0,0,0,0,0,0,0,-1,1819,1282,0,0
602,-258,0,0,0,0,0,0,0,0,0,-1,1826,1282,0,0
609,-258,60.6123,2.68311,0.00158869,0.00830486,0.00274879,0.00928643,0.000607116,1.22782,0.00599883,0.0247063,1833,1282,60.6124,-2.68315
616,-258,60.6002,2.69861,-0.000395114,0.00992174,0.00156545,0.010154,-0.00062742,1.42348,0.0069879,0.0248952,1840,1282,60.6003,-2.6986
623,-258,60.6034,2.6853,-0.00292567,0.0106303,8.72977e-05,0.0106308,-0.00292624,1.56436,0.00823773,0.0384155,1847,1282,60.6034,-2.68526
630,-258,60.6945,2.63818,-0.00490547,0.00968738,-0.00125294,0.00979417,-0.00501227,-1.48577,0.00869584,0.0461822,1854,1282,60.6945,-2.63821
637,-258,60.2407,1.97095,-0.0046277,0.00738756,-0.0016252,0.00760351,-0.00484364,-1.4387,0.00724501,0.0430571,1861,1282,60.2408,-1.9709
644,-258,60.1492,1.59827,0,0,0,0,0,0,0,-1,1868,1282,60.1492,-1.59828
651,-258,60.2836,2.30359,0,0,0,0,0,0,0,-1,1875,1282,60.2836,-2.30355
658,-258,45.4424,3.1405,0,0,0,0,0,0,0,-1,1882,1282,45.4423,-3.14046
665,-258,35.4747,1.1864,0,0,0,0,0,0,0,-1,1889,1282,35.4747,-1.18637
672,-258,22.703,2.80957,0,0,0,0,0,0,0,-1,1896,1282,22.703,-2.80962
679,-258,26.8693,8.19543,0,0,0,0,0,0,0,-1,1903,1282,26.8692,-8.19548
686,-258,44.2775,12.2484,0,0,0,0,0,0,0,-1,1910,1282,44.2775,-12.2484
693,-258,44.2142,11.6266,9.98753e-05,-0.000158987,-0.000579687,0.000564405,-0.000623517,-0.675561,0.00068613,0.0165447,1917,1282,44.2142,-11.6266
700,-258,44.1626,11.0129,0.000884501,-0.000791861,-0.000189489,0.000905653,-0.000813013,-0.111167,0.000992753,0.00933485,1924,1282,44.1626,-11.0129
707,-258,44.1489,10.4365,0.000845104,-0.000858425,0.000411956,0.000939496,-0.000952816,0.225241,0.00109254,0.0116189,1931,1282,44.1489,-10.4365
714,-258,44.1384,9.86267,-0.000232552,-0.000795384,0.0011678,0.000687259,-0.00171519,0.667162,0.00142875,0.0119407,1938,1282,44.1384,-9.86264
721,-258,44.0951,9.27417,-0.00134491,-0.000792129,0.00209024,0.00103992,-0.00317695,0.851131,0.00253669,0.0210024,1945,1282,44.0951,-9.27421
728,-258,44.0428,8.72607,-0.00254196,-0.000856307,0.00313892,0.00155097,-0.00494924,0.916559,0.00392012,0.0207197,1952,1282,44.0428,-8.72607
735,-258,44.0588,8.12427,-0.00389611,-0.000976971,0.00437289,0.0021735,-0.00704658,0.946473,0.00556554,0.0179533,1959,1282,44.0589,-8.12422
742,-258,44.0304,7.60291,-0.00540562,-0.00118243,0.00587481,0.00294874,-0.0095368,0.957925,0.00753561,0.0183329,1966,1282,44.0305,-7.60296
749,-258,43.8911,7.26123,-0.00709245,-0.00140091,0.00765067,0.00391611,-0.0124095,0.963451,0.00984159,0.040942,1973,1282,43.8912,-7.26125
756,-258,43.7393,6.79187,0,0,0,0,0,0,0,-1,1980,1282,43.7392,-6.79192
763,-258,39.3638,5.09753,0,0,0,0,0,0,0,-1,1987,1282,39.3638,-5.09751
770,-258,40.3713,4.08325,0,0,0,0,0,0,0,-1,1994,1282,40.3713,-4.08323
777,-258,31.912,4.83093,0,0,0,0,0,0,0,-1,2001,1282,31.912,-4.8309
784,-258,32.6525,6.43091,0,0,0,0,0,0,0,-1,2008,1282,32.6525,-6.43091
791,-258,0,0,0,0,0,0,0,0,0,-1,2015,1282,0,0
798,-258,0,0,0,0,0,0,0,0,0,-1,2022,1282,0,0
805,-258,0,0,0,0,0,0,0,0,0,-1,2029,1282,0,0
812,-258,0,0,0,0,0,0,0,0,0,-1,2036,1282,0,0
-700,-265,0,0,0,0,0,0,0,0,0,-1,524,1289,0,0
-693,-265,0,0,0,0,0,0,0,0,0,-1,531,1289,0,0
-686,-265,0,0,0,0,0,0,0,0,0,-1,538,1289,0,0
-679,-265,0,0,0,0,0,0,0,0,0,-1,545,1289,0,0
-672,-265,0,0,0,0,0,0,0,0,0,-1,552,1289,0,0
-665,-265,-47.8207,3.03528,0,0,0,0,0,0,0,-1,559,1289,-47.8207,-3.0353
-658,-265,-50.1454,1.76343,0,0,0,0,0,0,0,-1,566,1289,-50.1454,-1.76341
-651,-265,-48.5339,3.28699,0,0,0,0,0,0,0,-1,573,1289,-48.5339,-3.28697
-644,-265,-49.3502,1.65283,0,0,0,0,0,0,0,-1,580,1289,-49.3501,-1.65288
-637,-265,-50.1664,0.0187988,0,0,0,0,0,0,0,-1,587,1289,-50.1664,-0.0187813
-630,-265,-50.0026,-2.48242,0,0,0,0,0,0,0,-1,594,1289,-50.0026,2.48242
-623,-265,-27.4306,3.47571,0,0,0,0,0,0,0,-1,601,1289,-27.4306,-3.47572
-616,-265,-27.5519,4.34424,-0.0016538,0.00733217,0.00324256,0.00838005,-0.00270167,1.25823,0.00667214,0.0472901,608,1289,-27.5519,-4.34426
-609,-265,-27.687,5.28406,-0.00115034,0.00516796,0.00220823,0.00586323,-0.0018456,1.26577,0.00464781,0.0196901,615,1289,-27.687,-5.28403
-602,-265,-27.7263,5.96558,-0.000702724,0.00352699,0.00152835,0.00402144,-0.00119717,1.25791,0.00315662,0.0151971,622,1289,-27.7262,-5.96563
-595,-265,-27.7372,6.61865,-0.000204447,0.00225011,0.00105645,0.00264218,-0.000596518,1.21543,0.00199032,0.012871,629,1289,-27.7372,-6.61866
-588,-265,-27.7529,7.25647,0.00035574,0.00126585,0.000768985,0.00170433,-8.27453e-05,1.05257,0.00116478,0.0116125,636,1289,-27.7529,-7.25645
-581,-265,-27.7714,7.86243,0.000965684,0.000492857,0.000622595,0.00139524,6.33011e-05,0.603946,0.000909794,0.0138375,643,1289,-27.7714,-7.86241
-574,-265,-27.8293,8.50989,0.00166417,-0.000104688,0.0006055,0.00185159,-0.000292101,0.300165,0.00134239,0.014663,650,1289,-27.8293,-8.50991
-567,-265,-27.9039,9.18042,0.00229996,-0.00053235,0.000771552,0.0024965,-0.000728891,0.24943,0.00195317,0.0198135,657,1289,-27.904,-9.18044
-560,-265,-27.9413,9.84753,0.0021138,-0.000871521,0.000950992,0.00239101,-0.00114872,0.283631,0.0020852,0.0258635,664,1289,-27.9414,-9.84748
-553,-265,-27.9663,10.5048,0,0,0,0,0,0,0,-1,671,1289,-27.9663,-10.5047
-546,-265,-24.2283,10.2581,0,0,0,0,0,0,0,-1,678,1289,-24.2283,-10.258
-539,-265,-13.7668,6.39917,0,0,0,0,0,0,0,-1,685,1289,-13.7668,-6.39915
-532,-265,-8.53998,3.41467,0,0,0,0,0,0,0,-1,692,1289,-8.53996,-3.41473
-525,-265,-12.1317,0.514648,0,0,0,0,0,0,0,-1,699,1289,-12.1317,-0.514634
-518,-265,-24.1604,0.712402,0,0,0,0,0,0,0,-1,706,1289,-24.1604,-0.712425
-511,-265,-23.233,0.791626,0,0,0,0,0,0,0,-1,713,1289,-23.233,-0.791617
-504,-265,-22.3056,0.87085,0,0,0,0,0,0,0,-1,720,1289,-22.3056,-0.87081
-497,-265,-18.689,-0.278442,0,0,0,0,0,0,0,-1,727,1289,-18.689,0.278423
-490,-265,-15.1696,0.492676,0,0,0,0,0,0,0,-1,734,1289,-15.1696,-0.492688
-483,-265,0,0,0,0,0,0,0,0,0,-1,741,1289,0,0
-476,-265,0,0,0,0,0,0,0,0,0,-1,748,1289,0,0
-469,-265,0,0,0,0,0,0,0,0,0,-1,755,1289,0,0
-462,-265,0,0,0,0,0,0,0,0,0,-1,762,1289,0,0
-455,-265,0,0,0,0,0,0,0,0,0,-1,769,1289,0,0
-448,-265,0,0,0,0,0,0,0,0,0,-1,776,1289,0,0
-441,-265,0,0,0,0,0,0,0,0,0,-1,783,1289,0,0
-434,-265,0,0,0,0,0,0,0,0,0,-1,790,1289,0,0
-427,-265,0,0,0,0,0,0,0,0,0,-1,797,1289,0,0
-420,-265,0,0,0,0,0,0,0,0,0,-1,804,1289,0,0
-413,-265,0,0,0,0,0,0,0,0,0,-1,811,1289,0,0
-406,-265,0,0,0,0,0,0,0,0,0,-1,818,1289,0,0
-399,-265,0,0,0,0,0,0,0,0,0,-1,825,1289,0,0
-392,-265,0,0,0,0,0,0,0,0,0,-1,832,1289,0,0
-385,-265,0,0,0,0,0,0,0,0,0,-1,839,1289,0,0
-378,-265,0,0,0,0,0,0,0,0,0,-1,846,1289,0,0
-371,-265,0,0,0,0,0,0,0,0,0,-1,853,1289,0,0
-364,-265,0,0,0,0,0,0,0,0,0,-1,860,1289,0,0
-357,-265,0,0,0,0,0,0,0,0,0,-1,867,1289,0,0
-350,-265,0,0,0,0,0,0,0,0,0,-1,874,1289,0,0
-343,-265,0,0,0,0,0,0,0,0,0,-1,881,1289,0,0
-336,-265,0,0,0,0,0,0,0,0,0,-1,888,1289,0,0
-329,-265,0,0,0,0,0,0,0,0,0,-1,895,1289,0,0
-322,-265,0,0,0,0,0,0,0,0,0,-1,902,1289,0,0
-315,-265,0,0,0,0,0,0,0,0,0,-1,909,1289,0,0
-308,-265,0,0,0,0,0,0,0,0,0,-1,916,1289,0,0
-301,-265,0,0,0,0,0,0,0,0,0,-1,923,1289,0,0
-294,-265,0,0,0,0,0,0,0,0,0,-1,930,1289,0,0
-287,-265,0,0,0,0,0,0,0,0,0,-1,937,1289,0,0
-280,-265,0,0,0,0,0,0,0,0,0,-1,944,1289,0,0
-273,-265,0,0,0,0,0,0,0,0,0,-1,951,1289,0,0
-266,-265,0,0,0,0,0,0,0,0,0,-1,958,1289,0,0
-259,-265,0,0,0,0,0,0,0,0,0,-1,965,1289,0,0
-252,-265,0,0,0,0,0,0,0,0,0,-1,972,1289,0,0
-245,-265,0,0,0,0,0,0,0,0,0,-1,979,1289,0,0
-238,-265,0,0,0,0,0,0,0,0,0,-1,986,1289,0,0
-231,-265,0,0,0,0,0,0,0,0,0,-1,993,1289,0,0
-224,-265,0,0,0,0,0,0,0,0,0,-1,1000,1289,0,0
-217,-265,0,0,0,0,0,0,0,0,0,-1,1007,1289,0,0
-210,-265,0,0,0,0,0,0,0,0,0,-1,1014,1289,0,0
-203,-265,0,0,0,0,0,0,0,0,0,-1,1021,1289,0,0
-196,-265,0,0,0,0,0,0,0,0,0,-1,1028,1289,0,0
-189,-265,0,0,0,0,0,0,0,0,0,-1,1035,1289,0,0
-182,-265,0,0,0,0,0,0,0,0,0,-1,1042,1289,0,0
-175,-265,0,0,0,0,0,0,0,0,0,-1,1049,1289,0,0
-168,-265,0,0,0,0,0,0,0,0,0,-1,1056,1289,0,0
-161,-265,0,0,0,0,0,0,0,0,0,-1,1063,1289,0,0
-154,-265,0,0,0,0,0,0,0,0,0,-1,1070,1289,0,0
-147,-265,0,0,0,0,0,0,0,0,0,-1,1077,1289,0,0
-140,-265,0,0,0,0,0,0,0,0,0,-1,1084,1289,0,0
-133,-265,0,0,0,0,0,0,0,0,0,-1,1091,1289,0,0
-126,-265,0,0,0,0,0,0,0,0,0,-1,1098,1289,0,0
-119,-265,0,0,0,0,0,0,0,0,0,-1,1105,1289,0,0
-112,-265,0,0,0,0,0,0,0,0,0,-1,1112,1289,0,0
-105,-265,0,0,0,0,0,0,0,0,0,-1,1119,1289,0,0
-98,-265,0,0,0,0,0,0,0,0,0,-1,1126,1289,0,0
-91,-265,0,0,0,0,0,0,0,0,0,-1,1133,1289,0,0
-84,-265,0,0,0,0,0,0,0,0,0,-1,1140,1289,0,0
-77,-265,0,0,0,0,0,0,0,0,0,-1,1147,1289,0,0
-70,-265,0,0,0,0,0,0,0,0,0,-1,1154,1289,0,0
-63,-265,0,0,0,0,0,0,0,0,0,-1,1161,1289,0,0
-56,-265,0,0,0,0,0,0,0,0,0,-1,1168,1289,0,0
-49,-265,0,0,0,0,0,0,0,0,0,-1,1175,1289,0,0
-42,-265,0,0,0,0,0,0,0,0,0,-1,1182,1289,0,0
-35,-265,0,0,0,0,0,0,0,0,0,-1,1189,1289,0,0
-28,-265,0,0,0,0,0,0,0,0,0,-1,1196,1289,0,0
-21,-265,0,0,0,0,0,0,0,0,0,-1,1203,1289,0,0
-14,-265,0,0,0,0,0,0,0,0,0,-1,1210,1289,0,0
-7,-265,0,0,0,0,0,0,0,0,0,-1,1217,1289,0,0
0,-265,0,0,0,0,0,0,0,0,0,-1,1224,1289,0,0
7,-265,0,0,0,0,0,0,0,0,0,-1,1231,1289,0,0
14,-265,0,0,0,0,0,0,0,0,0,-1,1238,1289,0,0
21,-265,0,0,0,0,0,0,0,0,0,-1,1245,1289,0,0
28,-265,0,0,0,0,0,0,0,0,0,-1,1252,1289,0,0
35,-265,0,0,0,0,0,0,0,0,0,-1,1259,1289,0,0
42,-265,0,0,0,0,0,0,0,0,0,-1,1266,1289,0,0
49,-265,0,0,0,0,0,0,0,0,0,-1,1273,1289,0,0
56,-265,0,0,0,0,0,0,0,0,0,-1,1280,1289,0,0
63,-265,0,0,0,0,0,0,0,0,0,-1,1287,1289,0,0
70,-265,0,0,0,0,0,0,0,0,0,-1,1294,1289,0,0
77,-265,0,0,0,0,0,0,0,0,0,-1,1301,1289,0,0
84,-265,0,0,0,0,0,0,0,0,0,-1,1308,1289,0,0
91,-265,0,0,0,0,0,0,0,0,0,-1,1315,1289,0,0
98,-265,0,0,0,0,0,0,0,0,0,-1,1322,1289,0,0
105,-265,0,0,0,0,0,0,0,0,0,-1,1329,1289,0,0
112,-265,0,0,0,0,0,0,0,0,0,-1,1336,1289,0,0
119,-265,0,0,0,0,0,0,0,0,0,-1,1343,1289,0,0
126,-265,0,0,0,0,0,0,0,0,0,-1,1350,1289,0,0
133,-265,0,0,0,0,0,0,0,0,0,-1,1357,1289,0,0
140,-265,0,0,0,0,0,0,0,0,0,-1,1364,1289,0,0
147,-265,0,0,0,0,0,0,0,0,0,-1,1371,1289,0,0
154,-265,0,0,0,0,0,0,0,0,0,-1,1378,1289,0,0
161,-265,0,0,0,0,0,0,0,0,0,-1,1385,1289,0,0
168,-265,0,0,0,0,0,0,0,0,0,-1,1392,1289,0,0
175,-265,0,0,0,0,0,0,0,0,0,-1,1399,1289,0,0
182,-265,0,0,0,0,0,0,0,0,0,-1,1406,1289,0,0
189,-265,0,0,0,0,0,0,0,0,0,-1,1413,1289,0,0
196,-265,0,0,0,0,0,0,0,0,0,-1,1420,1289,0,0
203,-265,0,0,0,0,0,0,0,0,0,-1,1427,1289,0,0
210,-265,0,0,0,0,0,0,0,0,0,-1,1434,1289,0,0
217,-265,0,0,0,0,0,0,0,0,0,-1,1441,1289,0,0
224,-265,0,0,0,0,0,0,0,0,0,-1,1448,1289,0,0
231,-265,0,0,0,0,0,0,0,0,0,-1,1455,1289,0,0
238,-265,0,0,0,0,0,0,0,0,0,-1,1462,1289,0,0
245,-265,0,0,0,0,0,0,0,0,0,-1,1469,1289,0,0
252,-265,0,0,0,0,0,0,0,0,0,-1,1476,1289,0,0
259,-265,0,0,0,0,0,0,0,0,0,-1,1483,1289,0,0
266,-265,0,0,0,0,0,0,0,0,0,-1,1490,1289,0,0
273,-265,0,0,0,0,0,0,0,0,0,-1,1497,1289,0,0
280,-265,0,0,0,0,0,0,0,0,0,-1,1504,1289,0,0
287,-265,0,0,0,0,0,0,0,0,0,-1,1511,1289,0,0
294,-265,0,0,0,0,0,0,0,0,0,-1,1518,1289,0,0
301,-265,0,0,0,0,0,0,0,0,0,-1,1525,1289,0,0
308,-265,0,0,0,0,0,0,0,0,0,-1,1532,1289,0,0
315,-265,0,0,0,0,0,0,0,0,0,-1,1539,1289,0,0
322,-265,0,0,0,0,0,0,0,0,0,-1,1546,1289,0,0
329,-265,0,0,0,0,0,0,0,0,0,-1,1553,1289,0,0
336,-265,0,0,0,0,0,0,0,0,0,-1,1560,1289,0,0
343,-265,0,0,0,0,0,0,0,0,0,-1,1567,1289,0,0
350,-265,0,0,0,0,0,0,0,0,0,-1,1574,1289,0,0
357,-265,0,0,0,0,0,0,0,0,0,-1,1581,1289,0,0
364,-265,0,0,0,0,0,0,0,0,0,-1,1588,1289,0,0
371,-265,0,0,0,0,0,0,0,0,0,-1,1595,1289,0,0
378,-265,0,0,0,0,0,0,0,0,0,-1,1602,1289,0,0
385,-265,0,0,0,0,0,0,0,0,0,-1,1609,1289,0,0
392,-265,0,0,0,0,0,0,0,0,0,-1,1616,1289,0,0
399,-265,0,0,0,0,0,0,0,0,0,-1,1623,1289,0,0
406,-265,0,0,0,0,0,0,0,0,0,-1,1630,1289,0,0
413,-265,0,0,0,0,0,0,0,0,0,-1,1637,1289,0,0
420,-265,0,0,0,0,0,0,0,0,0,-1,1644,1289,0,0
427,-265,0,0,0,0,0,0,0,0,0,-1,1651,1289,0,0
434,-265,0,0,0,0,0,0,0,0,0,-1,1658,1289,0,0
441,-265,0,0,0,0,0,0,0,0,0,-1,1665,1289,0,0
448,-265,0,0,0,0,0,0,0,0,0,-1,1672,1289,0,0
455,-265,0,0,0,0,0,0,0,0,0,-1,1679,1289,0,0
462,-265,0,0,0,0,0,0,0,0,0,-1,1686,1289,0,0
469,-265,0,0,0,0,0,0,0,0,0,-1,1693,1289,0,0
476,-265,0,0,0,0,0,0,0,0,0,-1,1700,1289,0,0
483,-265,0,0,0,0,0,0,0,0,0,-1,1707,1289,0,0
490,-265,0,0,0,0,0,0,0,0,0,-1,1714,1289,0,0
497,-265,0,0,0,0,0,0,0,0,0,-1,1721,1289,0,0
504,-265,0,0,0,0,0,0,0,0,0,-1,1728,1289,0,0
511,-265,0,0,0,0,0,0,0,0,0,-1,1735,1289,0,0
518,-265,0,0,0,0,0,0,0,0,0,-1,1742,1289,0,0
525,-265,0,0,0,0,0,0,0,0,0,-1,1749,1289,0,0
532,-265,0,0,0,0,0,0,0,0,0,-1,1756,1289,0,0
539,-265,0,0,0,0,0,0,0,0,0,-1,1763,1289,0,0
546,-265,0,0,0,0,0,0,0,0,0,-1,1770,1289,0,0
553,-265,0,0,0,0,0,0,0,0,0,-1,1777,1289,0,0
560,-265,0,0,0,0,0,0,0,0,0,-1,1784,1289,0,0
567,-265,0,0,0,0,0,0,0,0,0,-1,1791,1289,0,0
574,-265,0,0,0,0,0,0,0,0,0,-1,1798,1289,0,0
581,-265,0,0,0,0,0,0,0,0,0,-1,1805,1289,0,0
588,-265,0,0,0,0,0,0,0,0,0,-1,1812,1289,0,0
595,-265,0,0,0,0,0,0,0,0,0,-1,1819,1289,0,0
602,-265,60.6337,2.74878,-0.00521247,0.00910817,0.00233466,0.00947917,-0.00558347,1.4132,0.00879284,0.0279409,1826,1289,60.6336,-2.74881
609,-265,60.6045,2.70203,-0.00419042,0.0118441,0.00194254,0.0120761,-0.0044224,1.45194,0.00986112,0.0282327,1833,1289,60.6045,-2.70208
616,-265,60.6488,2.75122,-0.00456296,0.0134646,0.00134136,0.0135639,-0.00466222,1.49693,0.0109332,0.0360993,1840,1289,60.6487,-2.75128
623,-265,60.6462,2.6875,0,0,0,0,0,0,0,-1,1847,1289,60.6462,-2.68752
630,-265,60.7936,2.60669,-0.00539839,0.0109257,-0.000377441,0.0109344,-0.00540712,-1.54769,0.00961301,0.048207,1854,1289,60.7935,-2.60669
637,-265,60.702,2.2688,-0.00448042,0.00825933,-0.000744063,0.00830263,-0.00452373,-1.51266,0.00751167,0.0471245,1861,1289,60.702,-2.26885
644,-265,60.6063,1.83386,0,0,0,0,0,0,0,-1,1868,1289,60.6064,-1.83392
651,-265,53.6781,1.57166,0,0,0,0,0,0,0,-1,1875,1289,53.6781,-1.57167
658,-265,41.7163,3.71619,0,0,0,0,0,0,0,-1,1882,1289,41.7163,-3.71624
665,-265,34.7902,1.43164,0,0,0,0,0,0,0,-1,1889,1289,34.7901,-1.43162
672,-265,20.0045,6.62671,0,0,0,0,0,0,0,-1,1896,1289,20.0045,-6.62668
679,-265,43.5686,12.8616,0,0,0,0,0,0,0,-1,1903,1289,43.5686,-12.8615
686,-265,43.5782,12.2408,-0.00219782,0.000622305,-0.00269417,0.0022531,-0.00382862,-1.02648,0.00355034,0.042727,1910,1289,43.5782,-12.2408
693,-265,43.5955,11.6526,-1.62845e-05,-0.000154793,-0.000516812,0.000435893,-0.00060697,-0.718794,0.000604792,0.0104093,1917,1289,43.5954,-11.6526
700,-265,43.5753,11.0422,0.000673534,-0.000643609,-4.73906e-05,0.000675237,-0.000645312,-0.0359179,0.000762484,0.0106351,1924,1289,43.5754,-11.0423
707,-265,43.5693,10.4481,0.0005571,-0.000692496,0.000601993,0.000799924,-0.00093532,0.383405,0.00100286,0.0102009,1931,1289,43.5694,-10.4481
714,-265,43.5367,9.88647,-0.000376027,-0.00067338,0.00133969,0.000823207,-0.00187261,0.730135,0.00159526,0.0125568,1938,1289,43.5368,-9.88643
721,-265,43.4806,9.29639,-0.00137844,-0.000715766,0.00220719,0.00118481,-0.00327902,0.859901,0.00267006,0.0150547,1945,1289,43.4806,-9.29639
728,-265,43.427,8.73425,-0.00252688,-0.000823271,0.00319594,0.00163243,-0.00498258,0.915634,0.00397909,0.0155061,1952,1289,43.427,-8.73428
735,-265,43.4602,8.16296,-0.00386844,-0.000989914,0.0043569,0.00215929,-0.00701765,0.944926,0.00554028,0.0156241,1959,1289,43.4602,-8.16295
742,-265,43.474,7.61938,-0.0054227,-0.00125878,0.00579439,0.00281633,-0.00949781,0.957869,0.00745025,0.0198207,1966,1289,43.474,-7.61935
749,-265,43.662,7.30176,0,0,0,0,0,0,0,-1,1973,1289,43.662,-7.30173
756,-265,43.1897,6.19714,0,0,0,0,0,0,0,-1,1980,1289,43.1897,-6.1972
763,-265,39.1299,4.9679,0,0,0,0,0,0,0,-1,1987,1289,39.1299,-4.96791
770,-265,35.1674,5.07715,0,0,0,0,0,0,0,-1,1994,1289,35.1673,-5.07718
777,-265,32.1664,5.3457,0,0,0,0,0,0,0,-1,2001,1289,32.1664,-5.34568
784,-265,0,0,0,0,0,0,0,0,0,-1,2008,1289,0,0
791,-265,0,0,0,0,0,0,0,0,0,-1,2015,1289,0,0
798,-265,0,0,0,0,0,0,0,0,0,-1,2022,1289,0,0
805,-265,0,0,0,0,0,0,0,0,0,-1,2029,1289,0,0
812,-265,0,0,0,0,0,0,0,0,0,-1,2036,1289,0,0
-700,-272,0,0,0,0,0,0,0,0,0,-1,524,1296,0,0
-693,-272,0,0,0,0,0,0,0,0,0,-1,531,1296,0,0
-686,-272,0,0,0,0,0,0,0,0,0,-1,538,1296,0,0
-679,-272,0,0,0,0,0,0,0,0,0,-1,545,1296,0,0
-672,-272,0,0,0,0,0,0,0,0,0,-1,552,1296,0,0
-665,-272,0,0,0,0,0,0,0,0,0,-1,559,1296,0,0
-658,-272,-50.4721,3.74414,0,0,0,0,0,0,0,-1,566,1296,-50.4721,-3.74413
-651,-272,-49.3028,4.22571,0,0,0,0,0,0,0,-1,573,1296,-49.3028,-4.22573
-644,-272,-50.2842,2.66602,0,0,0,0,0,0,0,-1,580,1296,-50.2842,-2.66602
-637,-272,-51.2656,1.10632,0,0,0,0,0,0,0,-1,587,1296,-51.2656,-1.10631
-630,-272,-50.7759,-2.20715,0,0,0,0,0,0,0,-1,594,1296,-50.7759,2.20711
-623,-272,-26.0651,3.34204,0,0,0,0,0,0,0,-1,601,1296,-26.0651,-3.34206
-616,-272,-26.7462,4.36841,0,0,0,0,0,0,0,-1,608,1296,-26.7462,-4.36846
-609,-272,-26.9824,5.48279,-0.000774609,0.00558878,0.00269421,0.00657625,-0.00176208,1.21948,0.00507455,0.0275157,615,1296,-26.9823,-5.48277
-602,-272,-27.0459,5.99707,-0.000452853,0.00381282,0.00185373,0.00450581,-0.00114585,1.21305,0.00344985,0.0163391,622,1296,-27.0459,-5.99705
-595,-272,-27.0903,6.64417,-7.15239e-05,0.0024426,0.00125013,0.00295839,-0.000587318,1.17948,0.00219439,0.0118479,629,1296,-27.0904,-6.64418
-588,-272,-27.1205,7.26221,0.000379852,0.00139362,0.000848861,0.00187542,-0.000101947,1.05455,0.00128561,0.0109065,636,1296,-27.1205,-7.26227
-581,-272,-27.1473,7.86963,0.00090849,0.000562129,0.000608168,0.00136765,0.000102965,0.646691,0.00087946,0.0106243,643,1296,-27.1473,-7.86959
-574,-272,-27.2107,8.52686,0.00153609,-9.1818e-05,0.000507455,0.00168132,-0.000237047,0.27874,0.00120768,0.0152399,650,1296,-27.2107,-8.5269
-567,-272,-27.2736,9.18347,0.0023091,-0.000590495,0.00054668,0.00240874,-0.00069014,0.180294,0.00187862,0.0205261,657,1296,-27.2736,-9.18342
-560,-272,-27.3102,9.84839,0.0026737,-0.000845032,0.000624677,0.00278131,-0.00095264,0.170587,0.00224031,0.0205059,664,1296,-27.3103,-9.84845
-553,-272,-27.2267,10.4736,0.00248446,-0.00141089,0.000751751,0.0026245,-0.00155094,0.184178,0.00243711,0.0274553,671,1296,-27.2267,-10.4737
-546,-272,-27.1998,11.2041,0,0,0,0,0,0,0,-1,678,1296,-27.1998,-11.2041
-539,-272,-24.1416,11.0325,0,0,0,0,0,0,0,-1,685,1296,-24.1416,-11.0324
-532,-272,-10.5572,4.53943,0,0,0,0,0,0,0,-1,692,1296,-10.5572,-4.53943
-525,-272,-11.9599,0.0393066,0,0,0,0,0,0,0,-1,699,1296,-11.9599,-0.0393577
-518,-272,-21.1357,-1.41382,0,0,0,0,0,0,0,-1,706,1296,-21.1357,1.41379
-511,-272,-23.2565,0.226318,0,0,0,0,0,0,0,-1,713,1296,-23.2565,-0.22626
-504,-272,-19.7397,0.114746,0,0,0,0,0,0,0,-1,720,1296,-19.7397,-0.114701
-497,-272,-19.2225,1.71301,0,0,0,0,0,0,0,-1,727,1296,-19.2225,-1.71302
-490,-272,-20.1948,2.4032,0,0,0,0,0,0,0,-1,734,1296,-20.1948,-2.40322
-483,-272,-15.3736,0.792603,0,0,0,0,0,0,0,-1,741,1296,-15.3736,-0.79263
-476,-272,0,0,0,0,0,0,0,0,0,-1,748,1296,0,0
-469,-272,0,0,0,0,0,0,0,0,0,-1,755,1296,0,0
-462,-272,0,0,0,0,0,0,0,0,0,-1,762,1296,0,0
-455,-272,0,0,0,0,0,0,0,0,0,-1,769,1296,0,0
-448,-272,0,0,0,0,0,0,0,0,0,-1,776,1296,0,0
-441,-272,0,0,0,0,0,0,0,0,0,-1,783,1296,0,0
-434,-272,0,0,0,0,0,0,0,0,0,-1,790,1296,0,0
-427,-272,0,0,0,0,0,0,0,0,0,-1,797,1296,0,0
-420,-272,0,0,0,0,0,0,0,0,0,-1,804,1296,0,0
-413,-272,0,0,0,0,0,0,0,0,0,-1,811,1296,0,0
-406,-272,0,0,0,0,0,0,0,0,0,-1,818,1296,0,0
-399,-272,0,0,0,0,0,0,0,0,0,-1,825,1296,0,0
-392,-272,0,0,0,0,0,0,0,0,0,-1,832,1296,0,0
-385,-272,0,0,0,0,0,0,0,0,0,-1,839,1296,0,0
-378,-272,0,0,0,0,0,0,0,0,0,-1,846,1296,0,0
-371,-272,0,0,0,0,0,0,0,0,0,-1,853,1296,0,0
-364,-272,0,0,0,0,0,0,0,0,0,-1,860,1296,0,0
-357,-272,0,0,0,0,0,0,0,0,0,-1,867,1296,0,0
-350,-272,0,0,0,0,0,0,0,0,0,-1,874,1296,0,0
-343,-272,0,0,0,0,0,0,0,0,0,-1,881,1296,0,0
-336,-272,0,0,0,0,0,0,0,0,0,-1,888,1296,0,0
-329,-272,0,0,0,0,0,0,0,0,0,-1,895,1296,0,0
-322,-272,0,0,0,0,0,0,0,0,0,-1,902,1296,0,0
-315,-272,0,0,0,0,0,0,0,0,0,-1,909,1296,0,0
-308,-272,0,0,0,0,0,0,0,0,0,-1,916,1296,0,0
-301,-272,0,0,0,0,0,0,0,0,0,-1,923,1296,0,0
-294,-272,0,0,0,0,0,0,0,0,0,-1,930,1296,0,0
-287,-272,0,0,0,0,0,0,0,0,0,-1,937,1296,0,0
-280,-272,0,0,0,0,0,0,0,0,0,-1,944,1296,0,0
-273,-272,0,0,0,0,0,0,0,0,0,-1,951,1296,0,0
-266,-272,0,0,0,0,0,0,0,0,0,-1,958,1296,0,0
-259,-272,0,0,0,0,0,0,0,0,0,-1,965,1296,0,0
-252,-272,0,0,0,0,0,0,0,0,0,-1,972,1296,0,0
-245,-272,0,0,0,0,0,0,0,0,0,-1,979,1296,0,0
-238,-272,0,0,0,0,0,0,0,0,0,-1,986,1296,0,0
-231,-272,0,0,0,0,0,0,0,0,0,-1,993,1296,0,0
-224,-272,0,0,0,0,0,0,0,0,0,-1,1000,1296,0,0
-217,-272,0,0,0,0,0,0,0,0,0,-1,1007,1296,0,0
-210,-272,0,0,0,0,0,0,0,0,0,-1,1014,1296,0,0
-203,-272,0,0,0,0,0,0,0,0,0,-1,1021,1296,0,0
-196,-272,0,0,0,0,0,0,0,0,0,-1,1028,1296,0,0
-189,-272,0,0,0,0,0,0,0,0,0,-1,1035,1296,0,0
-182,-272,0,0,0,0,0,0,0,0,0,-1,1042,1296,0,0
-175,-272,0,0,0,0,0,0,0,0,0,-1,1049,1296,0,0
-168,-272,0,0,0,0,0,0,0,0,0,-1,1056,1296,0,0
-161,-272,0,0,0,0,0,0,0,0,0,-1,1063,1296,0,0
-154,-272,0,0,0,0,0,0,0,0,0,-1,1070,1296,0,0
-147,-272,0,0,0,0,0,0,0,0,0,-1,1077,1296,0,0
-140,-272,0,0,0,0,0,0,0,0,0,-1,1084,1296,0,0
-133,-272,0,0,0,0,0,0,0,0,0,-1,1091,1296,0,0
-126,-272,0,0,0,0,0,0,0,0,0,-1,1098,1296,0,0
-119,-272,0,0,0,0,0,0,0,0,0,-1,1105,1296,0,0
-112,-272,0,0,0,0,0,0,0,0,0,-1,1112,1296,0,0
-105,-272,0,0,0,0,0,0,0,0,0,-1,1119,1296,0,0
-98,-272,0,0,0,0,0,0,0,0,0,-1,1126,1296,0,0
-91,-272,0,0,0,0,0,0,0,0,0,-1,1133,1296,0,0
-84,-272,0,0,0,0,0,0,0,0,0,-1,1140,1296,0,0
-77,-272,0,0,0,0,0,0,0,0,0,-1,1147,1296,0,0
-70,-272,0,0,0,0,0,0,0,0,0,-1,1154,1296,0,0
-63,-272,0,0,0,0,0,0,0,0,0,-1,1161,1296,0,0
-56,-272,0,0,0,0,0,0,0,0,0,-1,1168,1296,0,0
-49,-272,0,0,0,0,0,0,0,0,0,-1,1175,1296,0,0
-42,-272,0,0,0,0,0,0,0,0,0,-1,1182,1296,0,0
-35,-272,0,0,0,0,0,0,0,0,0,-1,1189,1296,0,0
-28,-272,0,0,0,0,0,0,0,0,0,-1,1196,1296,0,0
-21,-272,0,0,0,0,0,0,0,0,0,-1,1203,1296,0,0
-14,-272,0,0,0,0,0,0,0,0,0,-1,1210,1296,0,0
-7,-272,0,0,0,0,0,0,0,0,0,-1,1217,1296,0,0
0,-272,0,0,0,0,0,0,0,0,0,-1,1224,1296,0,0
7,-272,0,0,0,0,0,0,0,0,0,-1,1231,1296,0,0
14,-272,0,0,0,0,0,0,0,0,0,-1,1238,1296,0,0
21,-272,0,0,0,0,0,0,0,0,0,-1,1245,1296,0,0
28,-272,0,0,0,0,0,0,0,0,0,-1,1252,1296,0,0
35,-272,0,0,0,0,0,0,0,0,0,-1,1259,1296,0,0
42,-272,0,0,0,0,0,0,0,0,0,-1,1266,1296,0,0
49,-272,0,0,0,0,0,0,0,0,0,-1,1273,1296,0,0
56,-272,0,0,0,0,0,0,0,0,0,-1,1280,1296,0,0
63,-272,0,0,0,0,0,0,0,0,0,-1,1287,1296,0,0
70,-272,0,0,0,0,0,0,0,0,0,-1,1294,1296,0,0
77,-272,0,0,0,0,0,0,0,0,0,-1,1301,1296,0,0
84,-272,0,0,0,0,0,0,0,0,0,-1,1308,1296,0,0
91,-272,0,0,0,0,0,0,0,0,0,-1,1315,1296,0,0
98,-272,0,0,0,0,0,0,0,0,0,-1,1322,1296,0,0
105,-272,0,0,0,0,0,0,0,0,0,-1,1329,1296,0,0
112,-272,0,0,0,0,0,0,0,0,0,-1,1336,1296,0,0
119,-272,0,0,0,0,0,0,0,0,0,-1,1343,1296,0,0
126,-272,0,0,0,0,0,0,0,0,0,-1,1350,1296,0,0
133,-272,0,0,0,0,0,0,0,0,0,-1,1357,1296,0,0
140,-272,0,0,0,0,0,0,0,0,0,-1,1364,1296,0,0
147,-272,0,0,0,0,0,0,0,0,0,-1,1371,1296,0,0
154,-272,0,0,0,0,0,0,0,0,0,-1,1378,1296,0,0
161,-272,0,0,0,0,0,0,0,0,0,-1,1385,1296,0,0
168,-272,0,0,0,0,0,0,0,0,0,-1,1392,1296,0,0
175,-272,0,0,0,0,0,0,0,0,0,-1,1399,1296,0,0
182,-272,0,0,0,0,0,0,0,0,0,-1,1406,1296,0,0
189,-272,0,0,0,0,0,0,0,0,0,-1,1413,1296,0,0
196,-272,0,0,0,0,0,0,0,0,0,-1,1420,1296,0,0
203,-272,0,0,0,0,0,0,0,0,0,-1,1427,1296,0,0
210,-272,0,0,0,0,0,0,0,0,0,-1,1434,1296,0,0
217,-272,0,0,0,0,0,0,0,0,0,-1,1441,1296,0,0
224,-272,0,0,0,0,0,0,0,0,0,-1,1448,1296,0,0
231,-272,0,0,0,0,0,0,0,0,0,-1,1455,1296,0,0
238,-272,0,0,0,0,0,0,0,0,0,-1,1462,1296,0,0
245,-272,0,0,0,0,0,0,0,0,0,-1,1469,1296,0,0
252,-272,0,0,0,0,0,0,0,0,0,-1,1476,1296,0,0
259,-272,0,0,0,0,0,0,0,0,0,-1,1483,1296,0,0
266,-272,0,0,0,0,0,0,0,0,0,-1,1490,1296,0,0
273,-272,0,0,0,0,0,0,0,0,0,-1,1497,1296,0,0
280,-272,0,0,0,0,0,0,0,0,0,-1,1504,1296,0,0
287,-272,0,0,0,0,0,0,0,0,0,-1,1511,1296,0,0
294,-272,0,0,0,0,0,0,0,0,0,-1,1518,1296,0,0
301,-272,0,0,0,0,0,0,0,0,0,-1,1525,1296,0,0
308,-272,0,0,0,0,0,0,0,0,0,-1,1532,1296,0,0
315,-272,0,0,0,0,0,0,0,0,0,-1,1539,1296,0,0
322,-272,0,0,0,0,0,0,0,0,0,-1,1546,1296,0,0
329,-272,0,0,0,0,0,0,0,0,0,-1,1553,1296,0,0
336,-272,0,0,0,0,0,0,0,0,0,-1,1560,1296,0,0
343,-272,0,0,0,0,0,0,0,0,0,-1,1567,1296,0,0
350,-272,0,0,0,0,0,0,0,0,0,-1,1574,1296,0,0
357,-272,0,0,0,0,0,0,0,0,0,-1,1581,1296,0,0
364,-272,0,0,0,0,0,0,0,0,0,-1,1588,1296,0,0
371,-272,0,0,0,0,0,0,0,0,0,-1,1595,1296,0,0
378,-272,0,0,0,0,0,0,0,0,0,-1,1602,1296,0,0
385,-272,0,0,0,0,0,0,0,0,0,-1,1609,1296,0,0
392,-272,0,0,0,0,0,0,0,0,0,-1,1616,1296,0,0
399,-272,0,0,0,0,0,0,0,0,0,-1,1623,1296,0,0
406,-272,0,0,0,0,0,0,0,0,0,-1,1630,1296,0,0
413,-272,0,0,0,0,0,0,0,0,0,-1,1637,1296,0,0
420,-272,0,0,0,0,0,0,0,0,0,-1,1644,1296,0,0
427,-272,0,0,0,0,0,0,0,0,0,-1,1651,1296,0,0
434,-272,0,0,0,0,0,0,0,0,0,-1,1658,1296,0,0
441,-272,0,0,0,0,0,0,0,0,0,-1,1665,1296,0,0
448,-272,0,0,0,0,0,0,0,0,0,-1,1672,1296,0,0
455,-272,0,0,0,0,0,0,0,0,0,-1,1679,1296,0,0
462,-272,0,0,0,0,0,0,0,0,0,-1,1686,1296,0,0
469,-272,0,0,0,0,0,0,0,0,0,-1,1693,1296,0,0
476,-272,0,0,0,0,0,0,0,0,0,-1,1700,1296,0,0
483,-272,0,0,0,0,0,0,0,0,0,-1,1707,1296,0,0
490,-272,0,0,0,0,0,0,0,0,0,-1,1714,1296,0,0
497,-272,0,0,0,0,0,0,0,0,0,-1,1721,1296,0,0
504,-272,0,0,0,0,0,0,0,0,0,-1,1728,1296,0,0
511,-272,0,0,0,0,0,0,0,0,0,-1,1735,1296,0,0
518,-272,0,0,0,0,0,0,0,0,0,-1,1742,1296,0,0
525,-272,0,0,0,0,0,0,0,0,0,-1,1749,1296,0,0
532,-272,0,0,0,0,0,0,0,0,0,-1,1756,1296,0,0
539,-272,0,0,0,0,0,0,0,0,0,-1,1763,1296,0,0
546,-272,0,0,0,0,0,0,0,0,0,-1,1770,1296,0,0
553,-272,0,0,0,0,0,0,0,0,0,-1,1777,1296,0,0
560,-272,0,0,0,0,0,0,0,0,0,-1,1784,1296,0,0
567,-272,0,0,0,0,0,0,0,0,0,-1,1791,1296,0,0
574,-272,0,0,0,0,0,0,0,0,0,-1,1798,1296,0,0
581,-272,0,0,0,0,0,0,0,0,0,-1,1805,1296,0,0
588,-272,0,0,0,0,0,0,0,0,0,-1,1812,1296,0,0
595,-272,0,0,0,0,0,0,0,0,0,-1,1819,1296,0,0
602,-272,60.579,2.69397,-0.011757,0.013119,0.00135208,0.0131923,-0.0118302,1.51666,0.0144539,0.0324275,1826,1296,60.579,-2.69403
609,-272,60.5011,2.59656,-0.00915922,0.0159059,0.00162019,0.0160102,-0.00926351,1.50651,0.0147641,0.0391294,1833,1296,60.5011,-2.5965
616,-272,60.6215,2.62329,-0.00777322,0.0170475,0.00174153,0.0171691,-0.00789482,1.50109,0.0147972,0.0472515,1840,1296,60.6214,-2.6233
623,-272,60.5903,2.69226,-0.00646519,0.0154081,0.00133903,0.0154898,-0.00654686,1.50988,0.0130674,0.0468005,1847,1296,60.5904,-2.69232
630,-272,60.725,3.23145,-0.00535679,0.0123154,0.000649574,0.0123393,-0.00538063,1.53411,0.0104903,0.0467602,1854,1296,60.725,-3.23148
637,-272,60.8385,2.00537,0,0,0,0,0,0,0,-1,1861,1296,60.8385,-2.00539
644,-272,53.563,1.44336,0,0,0,0,0,0,0,-1,1868,1296,53.5629,-1.4433
651,-272,41.9225,4.27161,0,0,0,0,0,0,0,-1,1875,1296,41.9225,-4.27157
658,-272,35.1527,2.10571,0,0,0,0,0,0,0,-1,1882,1296,35.1527,-2.10573
665,-272,22.0238,4.14417,0,0,0,0,0,0,0,-1,1889,1296,22.0238,-4.14421
672,-272,22.661,7.21765,0,0,0,0,0,0,0,-1,1896,1296,22.661,-7.21761
679,-272,43.0131,12.942,0,0,0,0,0,0,0,-1,1903,1296,43.013,-12.942
686,-272,42.9703,12.3149,-0.00230732,0.00052209,-0.00270289,0.00215812,-0.00394335,-1.0265,0.00357259,0.0304362,1910,1296,42.9703,-12.315
693,-272,42.9764,11.6918,-8.17108e-05,-0.000162293,-0.000418618,0.000298551,-0.000542554,-0.737422,0.000492376,0.0122673,1917,1296,42.9764,-11.6917
700,-272,42.9727,11.0892,0.0005383,-0.000556575,0.000107304,0.000548717,-0.000566993,0.0967784,0.000644184,0.0123953,1924,1296,42.9726,-11.0892
707,-272,42.9651,10.4771,0.000381533,-0.000604826,0.000762112,0.00079612,-0.00101941,0.498224,0.00105084,0.0110458,1931,1296,42.9651,-10.477
714,-272,42.9305,9.89868,-0.000423944,-0.000606803,0.00144837,0.000935875,-0.00196662,0.753877,0.00171062,0.0136132,1938,1296,42.9305,-9.89863
721,-272,42.8794,9.36584,-0.00136145,-0.000657474,0.00223757,0.00125562,-0.00327455,0.863413,0.00270069,0.0178106,1945,1296,42.8794,-9.36586
728,-272,42.8593,8.76306,-0.00248501,-0.000766529,0.00314335,0.0016329,-0.00488444,0.918815,0.00391578,0.0195112,1952,1296,42.8592,-8.76301
735,-272,42.8556,8.20654,-0.00383657,-0.000945474,0.00420849,0.00205881,-0.00684085,0.950827,0.0053798,0.0167782,1959,1296,42.8556,-8.20653
742,-272,42.809,7.68481,-0.00546664,-0.00125656,0.005556,0.0025798,-0.00930301,0.966481,0.0072173,0.0262077,1966,1296,42.809,-7.6848
749,-272,42.798,7.13086,0,0,0,0,0,0,0,-1,1973,1296,42.798,-7.13084
756,-272,42.3118,6.27112,0,0,0,0,0,0,0,-1,1980,1296,42.3117,-6.2711
763,-272,34.3995,5.88416,0,0,0,0,0,0,0,-1,1987,1296,34.3996,-5.88419
770,-272,25.9485,3.67749,0,0,0,0,0,0,0,-1,1994,1296,25.9485,-3.67744
777,-272,32.3619,6.13257,0,0,0,0,0,0,0,-1,2001,1296,32.362,-6.1326
784,-272,0,0,0,0,0,0,0,0,0,-1,2008,1296,0,0
791,-272,0,0,0,0,0,0,0,0,0,-1,2015,1296,0,0
798,-272,0,0,0,0,0,0,0,0,0,-1,2022,1296,0,0
805,-272,0,0,0,0,0,0,0,0,0,-1,2029,1296,0,0
812,-272,0,0,0,0,0,0,0,0,0,-1,2036,1296,0,0
-700,-279,0,0,0,0,0,0,0,0,0,-1,524,1303,0,0
-693,-279,0,0,0,0,0,0,0,0,0,-1,531,1303,0,0
-686,-279,0,0,0,0,0,0,0,0,0,-1,538,1303,0,0
-679,-279,0,0,0,0,0,0,0,0,0,-1,545,1303,0,0
-672,-279,0,0,0,0,0,0,0,0,0,-1,552,1303,0,0
-665,-279,0,0,0,0,0,0,0,0,0,-1,559,1303,0,0
-658,-279,-50.8646,5.87878,0,0,0,0,0,0,0,-1,566,1303,-50.8646,-5.8788
-651,-279,-50.2,5.19824,0,0,0,0,0,0,0,-1,573,1303,-50.2,-5.19819
-644,-279,-51.201,3.71008,0,0,0,0,0,0,0,-1,580,1303,-51.201,-3.71005
-637,-279,-52.202,2.22192,0,0,0,0,0,0,0,-1,587,1303,-52.202,-2.22192
-630,-279,-37.8927,-1.96741,0,0,0,0,0,0,0,-1,594,1303,-37.8927,1.96745
-623,-279,-22.2665,2.68457,0,0,0,0,0,0,0,-1,601,1303,-22.2665,-2.68451
-616,-279,-25.9256,4.78198,0,0,0,0,0,0,0,-1,608,1303,-25.9256,-4.78194
-609,-279,-26.4215,5.34741,0,0,0,0,0,0,0,-1,615,1303,-26.4215,-5.34739
-602,-279,-26.3908,6.02991,-0.000122185,0.0039783,0.00213913,0.00489105,-0.00103494,1.16749,0.00365486,0.0166281,622,1303,-26.3908,-6.02997
-595,-279,-26.4554,6.65137,0.000195284,0.0026057,0.00146587,0.0032982,-0.000497217,1.12946,0.0023819,0.0105753,629,1303,-26.4554,-6.65132
-588,-279,-26.4992,7.26355,0.000572747,0.00156305,0.00101792,0.00219986,-6.40603e-05,1.01177,0.00148839,0.0101984,636,1303,-26.4992,-7.26351
-581,-279,-26.5331,7.87219,0.00104854,0.000732659,0.000762889,0.00166967,0.000111533,0.683326,0.00107786,0.0122267,643,1303,-26.5331,-7.87219
-574,-279,-26.5698,8.52368,0.00161526,6.54283e-05,0.00065575,0.00185548,-0.000174792,0.351148,0.00129918,0.0133008,650,1303,-26.5698,-8.52367
-567,-279,-26.6058,9.17297,0.00231839,-0.000486223,0.000685025,0.00247677,-0.000644596,0.227202,0.00190279,0.0180169,657,1303,-26.6058,-9.17292
-560,-279,-26.6219,9.85913,0.00282199,-0.000896695,0.000812322,0.00299169,-0.0010664,0.205948,0.00242924,0.0174599,664,1303,-26.6219,-9.85919
-553,-279,-26.6382,10.5255,0.00292813,-0.00159638,0.00101932,0.00314717,-0.00181542,0.211667,0.00289934,0.0149041,671,1303,-26.6382,-10.5255
-546,-279,-26.6199,11.165,0.00296096,-0.00222282,0.00127102,0.00325583,-0.00251769,0.227962,0.00334241,0.0315739,678,1303,-26.6199,-11.1651
-539,-279,-26.9051,11.8993,0,0,0,0,0,0,0,-1,685,1303,-26.9051,-11.8993
-532,-279,-14.9813,7.89917,0,0,0,0,0,0,0,-1,692,1303,-14.9813,-7.89918
-525,-279,-11.7063,-0.539185,0,0,0,0,0,0,0,-1,699,1303,-11.7063,0.539166
-518,-279,-16.8138,1.11963,0,0,0,0,0,0,0,-1,706,1303,-16.8138,-1.11968
-511,-279,-20.1063,-1.37915,0,0,0,0,0,0,0,-1,713,1303,-20.1062,1.37918
-504,-279,-18.3766,1.04578,0,0,0,0,0,0,0,-1,720,1303,-18.3767,-1.04577
-497,-279,-19.0046,2.08911,0,0,0,0,0,0,0,-1,727,1303,-19.0046,-2.08905
-490,-279,-20.0176,2.55188,0,0,0,0,0,0,0,-1,734,1303,-20.0176,-2.55183
-483,-279,-20.8064,2.99792,0,0,0,0,0,0,0,-1,741,1303,-20.8064,-2.99797
-476,-279,0,0,0,0,0,0,0,0,0,-1,748,1303,0,0
-469,-279,0,0,0,0,0,0,0,0,0,-1,755,1303,0,0
-462,-279,0,0,0,0,0,0,0,0,0,-1,762,1303,0,0
-455,-279,0,0,0,0,0,0,0,0,0,-1,769,1303,0,0
-448,-279,0,0,0,0,0,0,0,0,0,-1,776,1303,0,0
-441,-279,0,0,0,0,0,0,0,0,0,-1,783,1303,0,0
-434,-279,0,0,0,0,0,0,0,0,0,-1,790,1303,0,0
-427,-279,0,0,0,0,0,0,0,0,0,-1,797,1303,0,0
-420,-279,0,0,0,0,0,0,0,0,0,-1,804,1303,0,0
-413,-279,0,0,0,0,0,0,0,0,0,-1,811,1303,0,0
-406,-279,0,0,0,0,0,0,0,0,0,-1,818,1303,0,0
-399,-279,0,0,0,0,0,0,0,0,0,-1,825,1303,0,0
-392,-279,0,0,0,0,0,0,0,0,0,-1,832,1303,0,0
-385,-279,0,0,0,0,0,0,0,0,0,-1,839,1303,0,0
-378,-279,0,0,0,0,0,0,0,0,0,-1,846,1303,0,0
-371,-279,0,0,0,0,0,0,0,0,0,-1,853,1303,0,0
-364,-279,0,0,0,0,0,0,0,0,0,-1,860,1303,0,0
-357,-279,0,0,0,0,0,0,0,0,0,-1,867,1303,0,0
-350,-279,0,0,0,0,0,0,0,0,0,-1,874,1303,0,0
-343,-279,0,0,0,0,0,0,0,0,0,-1,881,1303,0,0
-336,-279,0,0,0,0,0,0,0,0,0,-1,888,1303,0,0
-329,-279,0,0,0,0,0,0,0,0,0,-1,895,1303,0,0
-322,-279,0,0,0,0,0,0,0,0,0,-1,902,1303,0,0
-315,-279,0,0,0,0,0,0,0,0,0,-1,909,1303,0,0
-308,-279,0,0,0,0,0,0,0,0,0,-1,916,1303,0,0
-301,-279,0,0,0,0,0,0,0,0,0,-1,923,1303,0,0
-294,-279,0,0,0,0,0,0,0,0,0,-1,930,1303,0,0
-287,-279,0,0,0,0,0,0,0,0,0,-1,937,1303,0,0
-280,-279,0,0,0,0,0,0,0,0,0,-1,944,1303,0,0
-273,-279,0,0,0,0,0,0,0,0,0,-1,951,1303,0,0
-266,-279,0,0,0,0,0,0,0,0,0,-1,958,1303,0,0
-259,-279,0,0,0,0,0,0,0,0,0,-1,965,1303,0,0
-252,-279,0,0,0,0,0,0,0,0,0,-1,972,1303,0,0
-245,-279,0,0,0,0,0,0,0,0,0,-1,979,1303,0,0
-238,-279,0,0,0,0,0,0,0,0,0,-1,986,1303,0,0
-231,-279,0,0,0,0,0,0,0,0,0,-1,993,1303,0,0
-224,-279,0,0,0,0,0,0,0,0,0,-1,1000,1303,0,0
-217,-279,0,0,0,0,0,0,0,0,0,-1,1007,1303,0,0
-210,-279,0,0,0,0,0,0,0,0,0,-1,1014,1303,0,0
-203,-279,0,0,0,0,0,0,0,0,0,-1,1021,1303,0,0
-196,-279,0,0,0,0,0,0,0,0,0,-1,1028,1303,0,0
-189,-279,0,0,0,0,0,0,0,0,0,-1,1035,1303,0,0
-182,-279,0,0,0,0,0,0,0,0,0,-1,1042,1303,0,0
-175,-279,0,0,0,0,0,0,0,0,0,-1,1049,1303,0,0
-168,-279,0,0,0,0,0,0,0,0,0,-1,1056,1303,0,0
-161,-279,0,0,0,0,0,0,0,0,0,-1,1063,1303,0,0
-154,-279,0,0,0,0,0,0,0,0,0,-1,1070,1303,0,0
-147,-279,0,0,0,0,0,0,0,0,0,-1,1077,1303,0,0
-140,-279,0,0,0,0,0,0,0,0,0,-1,1084,1303,0,0
-133,-279,0,0,0,0,0,0,0,0,0,-1,1091,1303,0,0
-126,-279,0,0,0,0,0,0,0,0,0,-1,1098,1303,0,0
-119,-279,0,0,0,0,0,0,0,0,0,-1,1105,1303,0,0
-112,-279,0,0,0,0,0,0,0,0,0,-1,1112,1303,0,0
-105,-279,0,0,0,0,0,0,0,0,0,-1,1119,1303,0,0
-98,-279,0,0,0,0,0,0,0,0,0,-1,1126,1303,0,0
-91,-279,0,0,0,0,0,0,0,0,0,-1,1133,1303,0,0
-84,-279,0,0,0,0,0,0,0,0,0,-1,1140,1303,0,0
-77,-279,0,0,0,0,0,0,0,0,0,-1,1147,1303,0,0
-70,-279,0,0,0,0,0,0,0,0,0,-1,1154,1303,0,0
-63,-279,0,0,0,0,0,0,0,0,0,-1,1161,1303,0,0
-56,-279,0,0,0,0,0,0,0,0,0,-1,1168,1303,0,0
-49,-279,0,0,0,0,0,0,0,0,0,-1,1175,1303,0,0
-42,-279,0,0,0,0,0,0,0,0,0,-1,1182,1303,0,0
-35,-279,0,0,0,0,0,0,0,0,0,-1,1189,1303,0,0
-28,-279,0,0,0,0,0,0,0,0,0,-1,1196,1303,0,0
-21,-279,0,0,0,0,0,0,0,0,0,-1,1203,1303,0,0
-14,-279,0,0,0,0,0,0,0,0,0,-1,1210,1303,0,0
-7,-279,0,0,0,0,0,0,0,0,0,-1,1217,1303,0,0
0,-279,0,0,0,0,0,0,0,0,0,-1,1224,1303,0,0
7,-279,0,0,0,0,0,0,0,0,0,-1,1231,1303,0,0
14,-279,0,0,0,0,0,0,0,0,0,-1,1238,1303,0,0
21,-279,0,0,0,0,0,0,0,0,0,-1,1245,1303,0,0
28,-279,0,0,0,0,0,0,0,0,0,-1,1252,1303,0,0
35,-279,0,0,0,0,0,0,0,0,0,-1,1259,1303,0,0
42,-279,0,0,0,0,0,0,0,0,0,-1,1266,1303,0,0
49,-279,0,0,0,0,0,0,0,0,0,-1,1273,1303,0,0
56,-279,0,0,0,0,0,0,0,0,0,-1,1280,1303,0,0
63,-279,0,0,0,0,0,0,0,0,0,-1,1287,1303,0,0
70,-279,0,0,0,0,0,0,0,0,0,-1,1294,1303,0,0
77,-279,0,0,0,0,0,0,0,0,0,-1,1301,1303,0,0
84,-279,0,0,0,0,0,0,0,0,0,-1,1308,1303,0,0
91,-279,0,0,0,0,0,0,0,0,0,-1,1315,1303,0,0
98,-279,0,0,0,0,0,0,0,0,0,-1,1322,1303,0,0
105,-279,0,0,0,0,0,0,0,0,0,-1,1329,1303,0,0
112,-279,0,0,0,0,0,0,0,0,0,-1,1336,1303,0,0
119,-279,0,0,0,0,0,0,0,0,0,-1,1343,1303,0,0
126,-279,0,0,0,0,0,0,0,0,0,-1,1350,1303,0,0
133,-279,0,0,0,0,0,0,0,0,0,-1,1357,1303,0,0
140,-279,0,0,0,0,0,0,0,0,0,-1,1364,1303,0,0
147,-279,0,0,0,0,0,0,0,0,0,-1,1371,1303,0,0
154,-279,0,0,0,0,0,0,0,0,0,-1,1378,1303,0,0
161,-279,0,0,0,0,0,0,0,0,0,-1,1385,1303,0,0
168,-279,0,0,0,0,0,0,0,0,0,-1,1392,1303,0,0
175,-279,0,0,0,0,0,0,0,0,0,-1,1399,1303,0,0
182,-279,0,0,0,0,0,0,0,0,0,-1,1406,1303,0,0
189,-279,0,0,0,0,0,0,0,0,0,-1,1413,1303,0,0
196,-279,0,0,0,0,0,0,0,0,0,-1,1420,1303,0,0
203,-279,0,0,0,0,0,0,0,0,0,-1,1427,1303,0,0
210,-279,0,0,0,0,0,0,0,0,0,-1,1434,1303,0,0
217,-279,0,0,0,0,0,0,0,0,0,-1,1441,1303,0,0
224,-279,0,0,0,0,0,0,0,0,0,-1,1448,1303,0,0
231,-279,0,0,0,0,0,0,0,0,0,-1,1455,1303,0,0
238,-279,0,0,0,0,0,0,0,0,0,-1,1462,1303,0,0
245,-279,0,0,0,0,0,0,0,0,0,-1,1469,1303,0,0
252,-279,0,0,0,0,0,0,0,0,0,-1,1476,1303,0,0
259,-279,0,0,0,0,0,0,0,0,0,-1,1483,1303,0,0
266,-279,0,0,0,0,0,0,0,0,0,-1,1490,1303,0,0
273,-279,0,0,0,0,0,0,0,0,0,-1,1497,1303,0,0
280,-279,0,0,0,0,0,0,0,0,0,-1,1504,1303,0,0
287,-279,0,0,0,0,0,0,0,0,0,-1,1511,1303,0,0
294,-279,0,0,0,0,0,0,0,0,0,-1,1518,1303,0,0
301,-279,0,0,0,0,0,0,0,0,0,-1,1525,1303,0,0
308,-279,0,0,0,0,0,0,0,0,0,-1,1532,1303,0,0
315,-279,0,0,0,0,0,0,0,0,0,-1,1539,1303,0,0
322,-279,0,0,0,0,0,0,0,0,0,-1,1546,1303,0,0
329,-279,0,0,0,0,0,0,0,0,0,-1,1553,1303,0,0
336,-279,0,0,0,0,0,0,0,0,0,-1,1560,1303,0,0
343,-279,0,0,0,0,0,0,0,0,0,-1,1567,1303,0,0
350,-279,0,0,0,0,0,0,0,0,0,-1,1574,1303,0,0
357,-279,0,0,0,0,0,0,0,0,0,-1,1581,1303,0,0
364,-279,0,0,0,0,0,0,0,0,0,-1,1588,1303,0,0
371,-279,0,0,0,0,0,0,0,0,0,-1,1595,1303,0,0
378,-279,0,0,0,0,0,0,0,0,0,-1,1602,1303,0,0
385,-279,0,0,0,0,0,0,0,0,0,-1,1609,1303,0,0
392,-279,0,0,0,0,0,0,0,0,0,-1,1616,1303,0,0
399,-279,0,0,0,0,0,0,0,0,0,-1,1623,1303,0,0
406,-279,0,0,0,0,0,0,0,0,0,-1,1630,1303,0,0
413,-279,0,0,0,0,0,0,0,0,0,-1,1637,1303,0,0
420,-279,0,0,0,0,0,0,0,0,0,-1,1644,1303,0,0
427,-279,0,0,0,0,0,0,0,0,0,-1,1651,1303,0,0
434,-279,0,0,0,0,0,0,0,0,0,-1,1658,1303,0,0
441,-279,0,0,0,0,0,0,0,0,0,-1,1665,1303,0,0
448,-279,0,0,0,0,0,0,0,0,0,-1,1672,1303,0,0
455,-279,0,0,0,0,0,0,0,0,0,-1,1679,1303,0,0
462,-279,0,0,0,0,0,0,0,0,0,-1,1686,1303,0,0
469,-279,0,0,0,0,0,0,0,0,0,-1,1693,1303,0,0
476,-279,0,0,0,0,0,0,0,0,0,-1,1700,1303,0,0
483,-279,0,0,0,0,0,0,0,0,0,-1,1707,1303,0,0
490,-279,0,0,0,0,0,0,0,0,0,-1,1714,1303,0,0
497,-279,0,0,0,0,0,0,0,0,0,-1,1721,1303,0,0
504,-279,0,0,0,0,0,0,0,0,0,-1,1728,1303,0,0
511,-279,0,0,0,0,0,0,0,0,0,-1,1735,1303,0,0
518,-279,0,0,0,0,0,0,0,0,0,-1,1742,1303,0,0
525,-279,0,0,0,0,0,0,0,0,0,-1,1749,1303,0,0
532,-279,0,0,0,0,0,0,0,0,0,-1,1756,1303,0,0
539,-279,0,0,0,0,0,0,0,0,0,-1,1763,1303,0,0
546,-279,0,0,0,0,0,0,0,0,0,-1,1770,1303,0,0
553,-279,0,0,0,0,0,0,0,0,0,-1,1777,1303,0,0
560,-279,0,0,0,0,0,0,0,0,0,-1,1784,1303,0,0
567,-279,0,0,0,0,0,0,0,0,0,-1,1791,1303,0,0
574,-279,0,0,0,0,0,0,0,0,0,-1,1798,1303,0,0
581,-279,0,0,0,0,0,0,0,0,0,-1,1805,1303,0,0
588,-279,0,0,0,0,0,0,0,0,0,-1,1812,1303,0,0
595,-279,0,0,0,0,0,0,0,0,0,-1,1819,1303,0,0
602,-279,60.5092,2.5769,0,0,0,0,0,0,0,-1,1826,1303,60.5092,-2.57691
609,-279,60.3739,2.43921,0,0,0,0,0,0,0,-1,1833,1303,60.3739,-2.43926
616,-279,60.5795,2.21118,-0.0112328,0.0196867,0.00250939,0.019889,-0.0114352,1.49034,0.0183032,0.0471848,1840,1303,60.5795,-2.21116
623,-279,60.6503,1.97363,-0.00809917,0.0170494,0.00221553,0.0172431,-0.00829287,1.48359,0.015042,0.0471315,1847,1303,60.6503,-1.97362
630,-279,60.5522,3.67712,-0.00583871,0.0136439,0.00162142,0.013778,-0.00597273,1.48833,0.0116961,0.0475261,1854,1303,60.5523,-3.67712
637,-279,60.8157,3.09143,0,0,0,0,0,0,0,-1,1861,1303,60.8157,-3.0914
644,-279,33.5021,3.40234,0,0,0,0,0,0,0,-1,1868,1303,33.5021,-3.40237
651,-279,29.8456,2.3562,0,0,0,0,0,0,0,-1,1875,1303,29.8455,-2.35615
658,-279,21.5076,7.65649,0,0,0,0,0,0,0,-1,1882,1303,21.5076,-7.65648
665,-279,18.9794,6.09607,0,0,0,0,0,0,0,-1,1889,1303,18.9793,-6.09601
672,-279,23.5206,8.32507,0,0,0,0,0,0,0,-1,1896,1303,23.5206,-8.32512
679,-279,42.2996,12.8403,0,0,0,0,0,0,0,-1,1903,1303,42.2996,-12.8403
686,-279,42.3414,12.2687,-0.00160364,0.000293365,-0.00255526,0.00207049,-0.00338076,-0.963114,0.00317744,0.0294456,1910,1303,42.3414,-12.2687
693,-279,42.3511,11.7133,0.00041652,-0.000187881,-0.000396431,0.0006128,-0.000384161,-0.459734,0.000580619,0.0178486,1917,1303,42.3511,-11.7132
700,-279,42.3668,11.1392,0.000780673,-0.000450825,0.000167681,0.000803096,-0.000473248,0.132936,0.000745055,0.0130984,1924,1303,42.3668,-11.1391
707,-279,42.3469,10.5116,0.000483866,-0.000502126,0.000819691,0.000947394,-0.000965654,0.514659,0.00110452,0.0103994,1931,1303,42.3469,-10.5115
714,-279,42.3015,9.92529,-0.000290566,-0.000548173,0.00147247,0.00105873,-0.00189746,0.741772,0.0017295,0.011516,1938,1303,42.3016,-9.92529
721,-279,42.3011,9.35681,-0.00122273,-0.000641249,0.00220499,0.00129208,-0.00315606,0.850948,0.00264223,0.0155843,1945,1303,42.3011,-9.35682
728,-279,42.3127,8.79297,-0.00236211,-0.00078402,0.00304155,0.00156917,-0.00471529,0.912311,0.00377685,0.0174357,1952,1303,42.3127,-8.79301
735,-279,42.2639,8.24719,-0.00379019,-0.00100888,0.00402308,0.00185712,-0.00665619,0.951804,0.00516893,0.0166573,1959,1303,42.264,-8.2472
742,-279,42.1669,7.69629,-0.00561496,-0.00139924,0.00528632,0.00218397,-0.00919817,0.975107,0.00697502,0.028999,1966,1303,42.1668,-7.69626
749,-279,42.1366,7.12219,0,0,0,0,0,0,0,-1,1973,1303,42.1366,-7.12216
756,-279,23.2091,4.43433,0,0,0,0,0,0,0,-1,1980,1303,23.2092,-4.43432
763,-279,27.1613,3.46265,0,0,0,0,0,0,0,-1,1987,1303,27.1613,-3.4627
770,-279,21.5828,3.54199,0,0,0,0,0,0,0,-1,1994,1303,21.5827,-3.54198
777,-279,32.5369,6.99609,0,0,0,0,0,0,0,-1,2001,1303,32.5369,-6.99608
784,-279,0,0,0,0,0,0,0,0,0,-1,2008,1303,0,0
791,-279,0,0,0,0,0,0,0,0,0,-1,2015,1303,0,0
798,-279,0,0,0,0,0,0,0,0,0,-1,2022,1303,0,0
805,-279,0,0,0,0,0,0,0,0,0,-1,2029,1303,0,0
812,-279,0,0,0,0,0,0,0,0,0,-1,2036,1303,0,0
-700,-286,0,0,0,0,0,0,0,0,0,-1,524,1310,0,0
-693,-286,0,0,0,0,0,0,0,0,0,-1,531,1310,0,0
-686,-286,0,0,0,0,0,0,0,0,0,-1,538,1310,0,0
-679,-286,0,0,0,0,0,0,0,0,0,-1,545,1310,0,0
-672,-286,0,0,0,0,0,0,0,0,0,-1,552,1310,0,0
-665,-286,0,0,0,0,0,0,0,0,0,-1,559,1310,0,0
-658,-286,-51.1878,7.67065,0,0,0,0,0,0,0,-1,566,1310,-51.1878,-7.67065
-651,-286,-51.5525,6.18335,0,0,0,0,0,0,0,-1,573,1310,-51.5525,-6.1833
-644,-286,-52.0189,4.6803,0,0,0,0,0,0,0,-1,580,1310,-52.0189,-4.6803
-637,-286,-52.4854,3.03357,0,0,0,0,0,0,0,-1,587,1310,-52.4854,-3.03361
-630,-286,-53.0779,1.25867,0,0,0,0,0,0,0,-1,594,1310,-53.0779,-1.25867
-623,-286,-20.1415,-1.72998,0,0,0,0,0,0,0,-1,601,1310,-20.1415,1.72995
-616,-286,-22.0634,2.37744,0,0,0,0,0,0,0,-1,608,1310,-22.0633,-2.37746
-609,-286,-25.9893,5.18909,0,0,0,0,0,0,0,-1,615,1310,-25.9893,-5.18903
-602,-286,-25.8232,5.98413,0.000446273,0.00377608,0.0022077,0.00487629,-0.000653935,1.10847,0.00348933,0.0229227,622,1310,-25.8232,-5.98415
-595,-286,-25.8405,6.67493,0.000612866,0.0025196,0.00152919,0.00336827,-0.000235804,1.06414,0.0023281,0.0123609,629,1310,-25.8405,-6.67495
-588,-286,-25.8694,7.28589,0.000835378,0.00159545,0.00108737,0.00236728,6.35441e-05,0.953512,0.00155744,0.012948,636,1310,-25.8694,-7.28584
-581,-286,-25.8658,7.91296,0.0012011,0.000884552,0.000872033,0.00192911,0.000156548,0.695625,0.00123719,0.0147596,643,1310,-25.8658,-7.913
-574,-286,-25.9083,8.56116,0.00166725,0.000317777,0.000803167,0.00204149,-5.64608e-05,0.43604,0.0013802,0.0148141,650,1310,-25.9083,-8.5611
-567,-286,-25.9496,9.21814,0.00227536,-0.000160685,0.000857153,0.00254673,-0.000432055,0.306611,0.00185865,0.0150033,657,1310,-25.9496,-9.21809
-560,-286,-25.9553,9.88232,0.0029138,-0.000574224,0.00104135,0.00320104,-0.000861463,0.269141,0.00247174,0.0147643,664,1310,-25.9553,-9.88235
-553,-286,-25.973,10.5367,0.00346249,-0.00117209,0.00133117,0.00381762,-0.00152722,0.26071,0.00317889,0.0104919,671,1310,-25.9729,-10.5367
-546,-286,-25.9728,11.2109,0.00407932,-0.00177581,0.00172025,0.00454733,-0.00224382,0.265627,0.00399535,0.0236239,678,1310,-25.9728,-11.2109
-539,-286,-26.0654,11.9674,0,0,0,0,0,0,0,-1,685,1310,-26.0654,-11.9674
-532,-286,-21.6771,10.4924,0,0,0,0,0,0,0,-1,692,1310,-21.6771,-10.4924
-525,-286,-11.4528,-1.11768,0,0,0,0,0,0,0,-1,699,1310,-11.4528,1.11769
-518,-286,-11.0701,1.37329,0,0,0,0,0,0,0,-1,706,1310,-11.0701,-1.37332
-511,-286,-17.7545,-0.0791016,0,0,0,0,0,0,0,-1,713,1310,-17.7544,0.0791606
-504,-286,-18.0455,1.29602,0,0,0,0,0,0,0,-1,720,1310,-18.0455,-1.29601
-497,-286,-18.3367,2.67114,0,0,0,0,0,0,0,-1,727,1310,-18.3366,-2.67118
-490,-286,-19.5795,2.47266,0,0,0,0,0,0,0,-1,734,1310,-19.5795,-2.4727
-483,-286,-19.7277,2.74744,0,0,0,0,0,0,0,-1,741,1310,-19.7277,-2.74747
-476,-286,-20.0391,3.06177,0,0,0,0,0,0,0,-1,748,1310,-20.0391,-3.06178
-469,-286,0,0,0,0,0,0,0,0,0,-1,755,1310,0,0
-462,-286,0,0,0,0,0,0,0,0,0,-1,762,1310,0,0
-455,-286,0,0,0,0,0,0,0,0,0,-1,769,1310,0,0
-448,-286,0,0,0,0,0,0,0,0,0,-1,776,1310,0,0
-441,-286,0,0,0,0,0,0,0,0,0,-1,783,1310,0,0
-434,-286,0,0,0,0,0,0,0,0,0,-1,790,1310,0,0
-427,-286,0,0,0,0,0,0,0,0,0,-1,797,1310,0,0
-420,-286,0,0,0,0,0,0,0,0,0,-1,804,1310,0,0
-413,-286,0,0,0,0,0,0,0,0,0,-1,811,1310,0,0
-406,-286,0,0,0,0,0,0,0,0,0,-1,818,1310,0,0
-399,-286,0,0,0,0,0,0,0,0,0,-1,825,1310,0,0
-392,-286,0,0,0,0,0,0,0,0,0,-1,832,1310,0,0
-385,-286,0,0,0,0,0,0,0,0,0,-1,839,1310,0,0
-378,-286,0,0,0,0,0,0,0,0,0,-1,846,1310,0,0
-371,-286,0,0,0,0,0,0,0,0,0,-1,853,1310,0,0
-364,-286,0,0,0,0,0,0,0,0,0,-1,860,1310,0,0
-357,-286,0,0,0,0,0,0,0,0,0,-1,867,1310,0,0
-350,-286,0,0,0,0,0,0,0,0,0,-1,874,1310,0,0
-343,-286,0,0,0,0,0,0,0,0,0,-1,881,1310,0,0
-336,-286,0,0,0,0,0,0,0,0,0,-1,888,1310,0,0
-329,-286,0,0,0,0,0,0,0,0,0,-1,895,1310,0,0
-322,-286,0,0,0,0,0,0,0,0,0,-1,902,1310,0,0
-315,-286,0,0,0,0,0,0,0,0,0,-1,909,1310,0,0
-308,-286,0,0,0,0,0,0,0,0,0,-1,916,1310,0,0
-301,-286,0,0,0,0,0,0,0,0,0,-1,923,1310,0,0
-294,-286,0,0,0,0,0,0,0,0,0,-1,930,1310,0,0
-287,-286,0,0,0,0,0,0,0,0,0,-1,937,1310,0,0
-280,-286,0,0,0,0,0,0,0,0,0,-1,944,1310,0,0
-273,-286,0,0,0,0,0,0,0,0,0,-1,951,1310,0,0
-266,-286,0,0,0,0,0,0,0,0,0,-1,958,1310,0,0
-259,-286,0,0,0,0,0,0,0,0,0,-1,965,1310,0,0
-252,-286,0,0,0,0,0,0,0,0,0,-1,972,1310,0,0
-245,-286,0,0,0,0,0,0,0,0,0,-1,979,1310,0,0
-238,-286,0,0,0,0,0,0,0,0,0,-1,986,1310,0,0
-231,-286,0,0,0,0,0,0,0,0,0,-1,993,1310,0,0
-224,-286,0,0,0,0,0,0,0,0,0,-1,1000,1310,0,0
-217,-286,0,0,0,0,0,0,0,0,0,-1,1007,1310,0,0
-210,-286,0,0,0,0,0,0,0,0,0,-1,1014,1310,0,0
-203,-286,0,0,0,0,0,0,0,0,0,-1,1021,1310,0,0
-196,-286,0,0,0,0,0,0,0,0,0,-1,1028,1310,0,0
-189,-286,0,0,0,0,0,0,0,0,0,-1,1035,1310,0,0
-182,-286,0,0,0,0,0,0,0,0,0,-1,1042,1310,0,0
-175,-286,0,0,0,0,0,0,0,0,0,-1,1049,1310,0,0
-168,-286,0,0,0,0,0,0,0,0,0,-1,1056,1310,0,0
-161,-286,0,0,0,0,0,0,0,0,0,-1,1063,1310,0,0
-154,-286,0,0,0,0,0,0,0,0,0,-1,1070,1310,0,0
-147,-286,0,0,0,0,0,0,0,0,0,-1,1077,1310,0,0
-140,-286,0,0,0,0,0,0,0,0,0,-1,1084,1310,0,0
-133,-286,0,0,0,0,0,0,0,0,0,-1,1091,1310,0,0
-126,-286,0,0,0,0,0,0,0,0,0,-1,1098,1310,0,0
-119,-286,0,0,0,0,0,0,0,0,0,-1,1105,1310,0,0
-112,-286,0,0,0,0,0,0,0,0,0,-1,1112,1310,0,0
-105,-286,0,0,0,0,0,0,0,0,0,-1,1119,1310,0,0
-98,-286,0,0,0,0,0,0,0,0,0,-1,1126,1310,0,0
-91,-286,0,0,0,0,0,0,0,0,0,-1,1133,1310,0,0
-84,-286,0,0,0,0,0,0,0,0,0,-1,1140,1310,0,0
-77,-286,0,0,0,0,0,0,0,0,0,-1,1147,1310,0,0
-70,-286,0,0,0,0,0,0,0,0,0,-1,1154,1310,0,0
-63,-286,0,0,0,0,0,0,0,0,0,-1,1161,1310,0,0
-56,-286,0,0,0,0,0,0,0,0,0,-1,1168,1310,0,0
-49,-286,0,0,0,0,0,0,0,0,0,-1,1175,1310,0,0
-42,-286,0,0,0,0,0,0,0,0,0,-1,1182,1310,0,0
-35,-286,0,0,0,0,0,0,0,0,0,-1,1189,1310,0,0
-28,-286,0,0,0,0,0,0,0,0,0,-1,1196,1310,0,0
-21,-286,0,0,0,0,0,0,0,0,0,-1,1203,1310,0,0
-14,-286,0,0,0,0,0,0,0,0,0,-1,1210,1310,0,0
-7,-286,0,0,0,0,0,0,0,0,0,-1,1217,1310,0,0
0,-286,0,0,0,0,0,0,0,0,0,-1,1224,1310,0,0
7,-286,0,0,0,0,0,0,0,0,0,-1,1231,1310,0,0
14,-286,0,0,0,0,0,0,0,0,0,-1,1238,1310,0,0
21,-286,0,0,0,0,0,0,0,0,0,-1,1245,1310,0,0
28,-286,0,0,0,0,0,0,0,0,0,-1,1252,1310,0,0
35,-286,0,0,0,0,0,0,0,0,0,-1,1259,1310,0,0
42,-286,0,0,0,0,0,0,0,0,0,-1,1266,1310,0,0
49,-286,0,0,0,0,0,0,0,0,0,-1,1273,1310,0,0
56,-286,0,0,0,0,0,0,0,0,0,-1,1280,1310,0,0
63,-286,0,0,0,0,0,0,0,0,0,-1,1287,1310,0,0
70,-286,0,0,0,0,0,0,0,0,0,-1,1294,1310,0,0
77,-286,0,0,0,0,0,0,0,0,0,-1,1301,1310,0,0
84,-286,0,0,0,0,0,0,0,0,0,-1,1308,1310,0,0
91,-286,0,0,0,0,0,0,0,0,0,-1,1315,1310,0,0
98,-286,0,0,0,0,0,0,0,0,0,-1,1322,1310,0,0
105,-286,0,0,0,0,0,0,0,0,0,-1,1329,1310,0,0
112,-286,0,0,0,0,0,0,0,0,0,-1,1336,1310,0,0
119,-286,0,0,0,0,0,0,0,0,0,-1,1343,1310,0,0
126,-286,0,0,0,0,0,0,0,0,0,-1,1350,1310,0,0
133,-286,0,0,0,0,0,0,0,0,0,-1,1357,1310,0,0
140,-286,0,0,0,0,0,0,0,0,0,-1,1364,1310,0,0
147,-286,0,0,0,0,0,0,0,0,0,-1,1371,1310,0,0
154,-286,0,0,0,0,0,0,0,0,0,-1,1378,1310,0,0
161,-286,0,0,0,0,0,0,0,0,0,-1,1385,1310,0,0
168,-286,0,0,0,0,0,0,0,0,0,-1,1392,1310,0,0
175,-286,0,0,0,0,0,0,0,0,0,-1,1399,1310,0,0
182,-286,0,0,0,0,0,0,0,0,0,-1,1406,1310,0,0
189,-286,0,0,0,0,0,0,0,0,0,-1,1413,1310,0,0
196,-286,0,0,0,0,0,0,0,0,0,-1,1420,1310,0,0
203,-286,0,0,0,0,0,0,0,0,0,-1,1427,1310,0,0
210,-286,0,0,0,0,0,0,0,0,0,-1,1434,1310,0,0
217,-286,0,0,0,0,0,0,0,0,0,-1,1441,1310,0,0
224,-286,0,0,0,0,0,0,0,0,0,-1,1448,1310,0,0
231,-286,0,0,0,0,0,0,0,0,0,-1,1455,1310,0,0
238,-286,0,0,0,0,0,0,0,0,0,-1,1462,1310,0,0
245,-286,0,0,0,0,0,0,0,0,0,-1,1469,1310,0,0
252,-286,0,0,0,0,0,0,0,0,0,-1,1476,1310,0,0
259,-286,0,0,0,0,0,0,0,0,0,-1,1483,1310,0,0
266,-286,0,0,0,0,0,0,0,0,0,-1,1490,1310,0,0
273,-286,0,0,0,0,0,0,0,0,0,-1,1497,1310,0,0
280,-286,0,0,0,0,0,0,0,0,0,-1,1504,1310,0,0
287,-286,0,0,0,0,0,0,0,0,0,-1,1511,1310,0,0
294,-286,0,0,0,0,0,0,0,0,0,-1,1518,1310,0,0
301,-286,0,0,0,0,0,0,0,0,0,-1,1525,1310,0,0
308,-286,0,0,0,0,0,0,0,0,0,-1,1532,1310,0,0
315,-286,0,0,0,0,0,0,0,0,0,-1,1539,1310,0,0
322,-286,0,0,0,0,0,0,0,0,0,-1,1546,1310,0,0
329,-286,0,0,0,0,0,0,0,0,0,-1,1553,1310,0,0
336,-286,0,0,0,0,0,0,0,0,0,-1,1560,1310,0,0
343,-286,0,0,0,0,0,0,0,0,0,-1,1567,1310,0,0
350,-286,0,0,0,0,0,0,0,0,0,-1,1574,1310,0,0
357,-286,0,0,0,0,0,0,0,0,0,-1,1581,1310,0,0
364,-286,0,0,0,0,0,0,0,0,0,-1,1588,1310,0,0
371,-286,0,0,0,0,0,0,0,0,0,-1,1595,1310,0,0
378,-286,0,0,0,0,0,0,0,0,0,-1,1602,1310,0,0
385,-286,0,0,0,0,0,0,0,0,0,-1,1609,1310,0,0
392,-286,0,0,0,0,0,0,0,0,0,-1,1616,1310,0,0
399,-286,0,0,0,0,0,0,0,0,0,-1,1623,1310,0,0
406,-286,0,0,0,0,0,0,0,0,0,-1,1630,1310,0,0
413,-286,0,0,0,0,0,0,0,0,0,-1,1637,1310,0,0
420,-286,0,0,0,0,0,0,0,0,0,-1,1644,1310,0,0
427,-286,0,0,0,0,0,0,0,0,0,-1,1651,1310,0,0
434,-286,0,0,0,0,0,0,0,0,0,-1,1658,1310,0,0
441,-286,0,0,0,0,0,0,0,0,0,-1,1665,1310,0,0
448,-286,0,0,0,0,0,0,0,0,0,-1,1672,1310,0,0
455,-286,0,0,0,0,0,0,0,0,0,-1,1679,1310,0,0
462,-286,0,0,0,0,0,0,0,0,0,-1,1686,1310,0,0
469,-286,0,0,0,0,0,0,0,0,0,-1,1693,1310,0,0
476,-286,0,0,0,0,0,0,0,0,0,-1,1700,1310,0,0
483,-286,0,0,0,0,0,0,0,0,0,-1,1707,1310,0,0
490,-286,0,0,0,0,0,0,0,0,0,-1,1714,1310,0,0
497,-286,0,0,0,0,0,0,0,0,0,-1,1721,1310,0,0
504,-286,0,0,0,0,0,0,0,0,0,-1,1728,1310,0,0
511,-286,0,0,0,0,0,0,0,0,0,-1,1735,1310,0,0
518,-286,0,0,0,0,0,0,0,0,0,-1,1742,1310,0,0
525,-286,0,0,0,0,0,0,0,0,0,-1,1749,1310,0,0
532,-286,0,0,0,0,0,0,0,0,0,-1,1756,1310,0,0
539,-286,0,0,0,0,0,0,0,0,0,-1,1763,1310,0,0
546,-286,0,0,0,0,0,0,0,0,0,-1,1770,1310,0,0
553,-286,0,0,0,0,0,0,0,0,0,-1,1777,1310,0,0
560,-286,0,0,0,0,0,0,0,0,0,-1,1784,1310,0,0
567,-286,0,0,0,0,0,0,0,0,0,-1,1791,1310,0,0
574,-286,0,0,0,0,0,0,0,0,0,-1,1798,1310,0,0
581,-286,0,0,0,0,0,0,0,0,0,-1,1805,1310,0,0
588,-286,0,0,0,0,0,0,0,0,0,-1,1812,1310,0,0
595,-286,58.9567,2.65564,0,0,0,0,0,0,0,-1,1819,1310,58.9567,-2.65569
602,-286,60.4727,2.42249,0,0,0,0,0,0,0,-1,1826,1310,60.4727,-2.42251
609,-286,60.3877,1.94141,-0.0205651,0.0221548,0.00257269,0.0223092,-0.0207194,1.51086,0.0248482,0.0482845,1833,1310,60.3877,-1.94137
616,-286,60.5787,1.76147,-0.0149546,0.0209753,0.00304627,0.0212318,-0.015211,1.48681,0.0211358,0.0438589,1840,1310,60.5787,-1.76153
623,-286,60.724,1.48193,-0.0103995,0.0179693,0.00263162,0.0182113,-0.0106415,1.47907,0.0168482,0.0489322,1847,1310,60.724,-1.48199
630,-286,60.7965,1.38013,0,0,0,0,0,0,0,-1,1854,1310,60.7966,-1.38008
637,-286,47.8409,3.69824,0,0,0,0,0,0,0,-1,1861,1310,47.841,-3.69823
644,-286,25.6433,1.33862,0,0,0,0,0,0,0,-1,1868,1310,25.6433,-1.33858
651,-286,25.2507,1.88245,0,0,0,0,0,0,0,-1,1875,1310,25.2508,-1.88245
658,-286,25.9475,9.43689,0,0,0,0,0,0,0,-1,1882,1310,25.9475,-9.43693
665,-286,24.9838,8.03101,0,0,0,0,0,0,0,-1,1889,1310,24.9837,-8.03104
672,-286,40.2175,12.9626,0,0,0,0,0,0,0,-1,1896,1310,40.2175,-12.9627
679,-286,41.7917,12.9229,0,0,0,0,0,0,0,-1,1903,1310,41.7918,-12.9228
686,-286,41.7725,12.3361,-0.000713941,4.02182e-05,-0.0022747,0.00196888,-0.0026426,-0.867537,0.00267189,0.0218921,1910,1310,41.7725,-12.336
693,-286,41.7542,11.7499,0.000836382,-0.000265865,-0.000350524,0.000938408,-0.000367891,-0.283241,0.000777799,0.0163862,1917,1310,41.7542,-11.7498
700,-286,41.7639,11.1437,0.000923824,-0.000416574,0.000225876,0.000960864,-0.000453613,0.162536,0.000833969,0.0122928,1924,1310,41.7639,-11.1437
707,-286,41.7362,10.5616,0.00053465,-0.000462859,0.000850907,0.0010222,-0.00095041,0.520313,0.00113914,0.00970429,1931,1310,41.7362,-10.5617
714,-286,41.7072,9.97729,-0.000172629,-0.000531212,0.00147359,0.00113254,-0.00183638,0.724861,0.00173008,0.00970218,1938,1310,41.7072,-9.97724
721,-286,41.7258,9.3949,-0.00103043,-0.000633278,0.00216757,0.0013448,-0.00300851,0.831077,0.00257384,0.0128488,1945,1310,41.7258,-9.39486
728,-286,41.7177,8.8208,-0.00211009,-0.000775226,0.00295877,0.00159046,-0.00447578,0.89633,0.003632,0.016138,1952,1310,41.7177,-8.82075
735,-286,41.7075,8.24658,-0.0035146,-0.00101914,0.00390047,0.00182831,-0.00636206,0.9402,0.00496433,0.0195848,1959,1310,41.7075,-8.24659
742,-286,41.6688,7.69031,-0.0053784,-0.00145908,0.00514507,0.0020869,-0.00892437,0.967357,0.00675356,0.0411958,1966,1310,41.6688,-7.6903
749,-286,41.7385,7.08472,0,0,0,0,0,0,0,-1,1973,1310,41.7385,-7.08472
756,-286,24.8226,4.43481,0,0,0,0,0,0,0,-1,1980,1310,24.8227,-4.43479
763,-286,20.6671,3.99683,0,0,0,0,0,0,0,-1,1987,1310,20.6671,-3.99683
770,-286,23.9147,4.45679,0,0,0,0,0,0,0,-1,1994,1310,23.9146,-4.45675
777,-286,0,0,0,0,0,0,0,0,0,-1,2001,1310,0,0
784,-286,0,0,0,0,0,0,0,0,0,-1,2008,1310,0,0
791,-286,0,0,0,0,0,0,0,0,0,-1,2015,1310,0,0
798,-286,0,0,0,0,0,0,0,0,0,-1,2022,1310,0,0
805,-286,0,0,0,0,0,0,0,0,0,-1,2029,1310,0,0
812,-286,0,0,0,0,0,0,0,0,0,-1,2036,1310,0,0
-700,-293,0,0,0,0,0,0,0,0,0,-1,524,1317,0,0
-693,-293,0,0,0,0,0,0,0,0,0,-1,531,1317,0,0
-686,-293,0,0,0,0,0,0,0,0,0,-1,538,1317,0,0
-679,-293,0,0,0,0,0,0,0,0,0,-1,545,1317,0,0
-672,-293,0,0,0,0,0,0,0,0,0,-1,552,1317,0,0
-665,-293,0,0,0,0,0,0,0,0,0,-1,559,1317,0,0
-658,-293,0,0,0,0,0,0,0,0,0,-1,566,1317,0,0
-651,-293,-52.3254,7.26721,0,0,0,0,0,0,0,-1,573,1317,-52.3254,-7.26722
-644,-293,-52.6753,5.53198,0,0,0,0,0,0,0,-1,580,1317,-52.6753,-5.53193
-637,-293,-53.3887,3.75928,0,0,0,0,0,0,0,-1,587,1317,-53.3887,-3.75922
-630,-293,-24.5684,-3.7887,0,0,0,0,0,0,0,-1,594,1317,-24.5684,3.78869
-623,-293,-15.6058,0.229614,0,0,0,0,0,0,0,-1,601,1317,-15.6058,-0.229666
-616,-293,-15.5056,2.17737,0,0,0,0,0,0,0,-1,608,1317,-15.5055,-2.17742
-609,-293,-22.9199,4.26501,0,0,0,0,0,0,0,-1,615,1317,-22.9199,-4.26502
-602,-293,-25.2883,5.91394,0,0,0,0,0,0,0,-1,622,1317,-25.2882,-5.91395
-595,-293,-25.2293,6.68445,0.00135583,0.0024738,0.0016468,0.00365389,0.000175733,0.949015,0.00237951,0.0211394,629,1317,-25.2293,-6.68439
-588,-293,-25.2153,7.32996,0.00132727,0.00162407,0.00114459,0.00262984,0.000321503,0.849865,0.00165649,0.0164008,636,1317,-25.2153,-7.32996
-581,-293,-25.2137,7.95862,0.00152287,0.00100279,0.000905833,0.00220525,0.00032041,0.645621,0.00137585,0.0183131,643,1317,-25.2138,-7.95865
-574,-293,-25.249,8.62439,0.00184207,0.00050994,0.000812298,0.00222647,0.000125543,0.441997,0.00144428,0.0169951,650,1317,-25.249,-8.62443
-567,-293,-25.3028,9.28735,0.00231558,9.4247e-05,0.00083637,0.00259528,-0.000185444,0.32272,0.00179519,0.0161873,657,1317,-25.3028,-9.28732
-560,-293,-25.3231,9.93127,0.00298804,-0.000233663,0.000987368,0.00326656,-0.000512187,0.274943,0.00236698,0.0165984,664,1317,-25.323,-9.93124
-553,-293,-25.3188,10.5623,0.0038635,-0.00050887,0.00125973,0.00420048,-0.000845845,0.261377,0.00312071,0.0116938,671,1317,-25.3188,-10.5622
-546,-293,-25.3325,11.2374,0.00500244,-0.000744348,0.00165486,0.00544491,-0.00118682,0.261265,0.00408345,0.0148699,678,1317,-25.3325,-11.2374
-539,-293,-25.2218,11.9102,0.00665356,-0.000994258,0.00222385,0.0072532,-0.0015939,0.263376,0.00544509,0.0440906,685,1317,-25.2218,-11.9101
-532,-293,-25.0242,12.5397,0,0,0,0,0,0,0,-1,692,1317,-25.0242,-12.5396
-525,-293,-8.20642,3.62256,0,0,0,0,0,0,0,-1,699,1317,-8.20639,-3.6226
-518,-293,-10.1053,0.314209,0,0,0,0,0,0,0,-1,706,1317,-10.1053,-0.314234
-511,-293,-11.6276,0.235352,0,0,0,0,0,0,0,-1,713,1317,-11.6276,-0.235372
-504,-293,-17.9086,1.25427,0,0,0,0,0,0,0,-1,720,1317,-17.9086,-1.25423
-497,-293,-18.8006,1.62122,0,0,0,0,0,0,0,-1,727,1317,-18.8006,-1.62119
-490,-293,-18.8961,1.99255,0,0,0,0,0,0,0,-1,734,1317,-18.8961,-1.99251
-483,-293,-19.0831,2.35498,0,0,0,0,0,0,0,-1,741,1317,-19.0831,-2.35497
-476,-293,-19.5228,2.61243,0,0,0,0,0,0,0,-1,748,1317,-19.5228,-2.61237
-469,-293,0,0,0,0,0,0,0,0,0,-1,755,1317,0,0
-462,-293,0,0,0,0,0,0,0,0,0,-1,762,1317,0,0
-455,-293,0,0,0,0,0,0,0,0,0,-1,769,1317,0,0
-448,-293,0,0,0,0,0,0,0,0,0,-1,776,1317,0,0
-441,-293,0,0,0,0,0,0,0,0,0,-1,783,1317,0,0
-434,-293,0,0,0,0,0,0,0,0,0,-1,790,1317,0,0
-427,-293,0,0,0,0,0,0,0,0,0,-1,797,1317,0,0
-420,-293,0,0,0,0,0,0,0,0,0,-1,804,1317,0,0
-413,-293,0,0,0,0,0,0,0,0,0,-1,811,1317,0,0
-406,-293,0,0,0,0,0,0,0,0,0,-1,818,1317,0,0
-399,-293,0,0,0,0,0,0,0,0,0,-1,825,1317,0,0
-392,-293,0,0,0,0,0,0,0,0,0,-1,832,1317,0,0
-385,-293,0,0,0,0,0,0,0,0,0,-1,839,1317,0,0
-378,-293,0,0,0,0,0,0,0,0,0,-1,846,1317,0,0
-371,-293,0,0,0,0,0,0,0,0,0,-1,853,1317,0,0
-364,-293,0,0,0,0,0,0,0,0,0,-1,860,1317,0,0
-357,-293,0,0,0,0,0,0,0,0,0,-1,867,1317,0,0
-350,-293,0,0,0,0,0,0,0,0,0,-1,874,1317,0,0
-343,-293,0,0,0,0,0,0,0,0,0,-1,881,1317,0,0
-336,-293,0,0,0,0,0,0,0,0,0,-1,888,1317,0,0
-329,-293,0,0,0,0,0,0,0,0,0,-1,895,1317,0,0
-322,-293,0,0,0,0,0,0,0,0,0,-1,902,1317,0,0
-315,-293,0,0,0,0,0,0,0,0,0,-1,909,1317,0,0
-308,-293,0,0,0,0,0,0,0,0,0,-1,916,1317,0,0
-301,-293,0,0,0,0,0,0,0,0,0,-1,923,1317,0,0
-294,-293,0,0,0,0,0,0,0,0,0,-1,930,1317,0,0
-287,-293,0,0,0,0,0,0,0,0,0,-1,937,1317,0,0
-280,-293,0,0,0,0,0,0,0,0,0,-1,944,1317,0,0
-273,-293,0,0,0,0,0,0,0,0,0,-1,951,1317,0,0
-266,-293,0,0,0,0,0,0,0,0,0,-1,958,1317,0,0
-259,-293,0,0,0,0,0,0,0,0,0,-1,965,1317,0,0
-252,-293,0,0,0,0,0,0,0,0,0,-1,972,1317,0,0
-245,-293,0,0,0,0,0,0,0,0,0,-1,979,1317,0,0
-238,-293,0,0,0,0,0,0,0,0,0,-1,986,1317,0,0
-231,-293,0,0,0,0,0,0,0,0,0,-1,993,1317,0,0
-224,-293,0,0,0,0,0,0,0,0,0,-1,1000,1317,0,0
-217,-293,0,0,0,0,0,0,0,0,0,-1,1007,1317,0,0
-210,-293,0,0,0,0,0,0,0,0,0,-1,1014,1317,0,0
-203,-293,0,0,0,0,0,0,0,0,0,-1,1021,1317,0,0
-196,-293,0,0,0,0,0,0,0,0,0,-1,1028,1317,0,0
-189,-293,0,0,0,0,0,0,0,0,0,-1,1035,1317,0,0
-182,-293,0,0,0,0,0,0,0,0,0,-1,1042,1317,0,0
-175,-293,0,0,0,0,0,0,0,0,0,-1,1049,1317,0,0
-168,-293,0,0,0,0,0,0,0,0,0,-1,1056,1317,0,0
-161,-293,0,0,0,0,0,0,0,0,0,-1,1063,1317,0,0
-154,-293,0,0,0,0,0,0,0,0,0,-1,1070,1317,0,0
-147,-293,0,0,0,0,0,0,0,0,0,-1,1077,1317,0,0
-140,-293,0,0,0,0,0,0,0,0,0,-1,1084,1317,0,0
-133,-293,0,0,0,0,0,0,0,0,0,-1,1091,1317,0,0
-126,-293,0,0,0,0,0,0,0,0,0,-1,1098,1317,0,0
-119,-293,0,0,0,0,0,0,0,0,0,-1,1105,1317,0,0
-112,-293,0,0,0,0,0,0,0,0,0,-1,1112,1317,0,0
-105,-293,0,0,0,0,0,0,0,0,0,-1,1119,1317,0,0
-98,-293,0,0,0,0,0,0,0,0,0,-1,1126,1317,0,0
-91,-293,0,0,0,0,0,0,0,0,0,-1,1133,1317,0,0
-84,-293,0,0,0,0,0,0,0,0,0,-1,1140,1317,0,0
-77,-293,0,0,0,0,0,0,0,0,0,-1,1147,1317,0,0
-70,-293,0,0,0,0,0,0,0,0,0,-1,1154,1317,0,0
-63,-293,0,0,0,0,0,0,0,0,0,-1,1161,1317,0,0
-56,-293,0,0,0,0,0,0,0,0,0,-1,1168,1317,0,0
-49,-293,0,0,0,0,0,0,0,0,0,-1,1175,1317,0,0
-42,-293,0,0,0,0,0,0,0,0,0,-1,1182,1317,0,0
-35,-293,0,0,0,0,0,0,0,0,0,-1,1189,1317,0,0
-28,-293,0,0,0,0,0,0,0,0,0,-1,1196,1317,0,0
-21,-293,0,0,0,0,0,0,0,0,0,-1,1203,1317,0,0
-14,-293,0,0,0,0,0,0,0,0,0,-1,1210,1317,0,0
-7,-293,0,0,0,0,0,0,0,0,0,-1,1217,1317,0,0
0,-293,0,0,0,0,0,0,0,0,0,-1,1224,1317,0,0
7,-293,0,0,0,0,0,0,0,0,0,-1,1231,1317,0,0
14,-293,0,0,0,0,0,0,0,0,0,-1,1238,1317,0,0
21,-293,0,0,0,0,0,0,0,0,0,-1,1245,1317,0,0
28,-293,0,0,0,0,0,0,0,0,0,-1,1252,1317,0,0
35,-293,0,0,0,0,0,0,0,0,0,-1,1259,1317,0,0
42,-293,0,0,0,0,0,0,0,0,0,-1,1266,1317,0,0
49,-293,0,0,0,0,0,0,0,0,0,-1,1273,1317,0,0
56,-293,0,0,0,0,0,0,0,0,0,-1,1280,1317,0,0
63,-293,0,0,0,0,0,0,0,0,0,-1,1287,1317,0,0
70,-293,0,0,0,0,0,0,0,0,0,-1,1294,1317,0,0
77,-293,0,0,0,0,0,0,0,0,0,-1,1301,1317,0,0
84,-293,0,0,0,0,0,0,0,0,0,-1,1308,1317,0,0
91,-293,0,0,0,0,0,0,0,0,0,-1,1315,1317,0,0
98,-293,0,0,0,0,0,0,0,0,0,-1,1322,1317,0,0
105,-293,0,0,0,0,0,0,0,0,0,-1,1329,1317,0,0
112,-293,0,0,0,0,0,0,0,0,0,-1,1336,1317,0,0
119,-293,0,0,0,0,0,0,0,0,0,-1,1343,1317,0,0
126,-293,0,0,0,0,0,0,0,0,0,-1,1350,1317,0,0
133,-293,0,0,0,0,0,0,0,0,0,-1,1357,1317,0,0
140,-293,0,0,0,0,0,0,0,0,0,-1,1364,1317,0,0
147,-293,0,0,0,0,0,0,0,0,0,-1,1371,1317,0,0
154,-293,0,0,0,0,0,0,0,0,0,-1,1378,1317,0,0
161,-293,0,0,0,0,0,0,0,0,0,-1,1385,1317,0,0
168,-293,0,0,0,0,0,0,0,0,0,-1,1392,1317,0,0
175,-293,0,0,0,0,0,0,0,0,0,-1,1399,1317,0,0
182,-293,0,0,0,0,0,0,0,0,0,-1,1406,1317,0,0
189,-293,0,0,0,0,0,0,0,0,0,-1,1413,1317,0,0
196,-293,0,0,0,0,0,0,0,0,0,-1,1420,1317,0,0
203,-293,0,0,0,0,0,0,0,0,0,-1,1427,1317,0,0
210,-293,0,0,0,0,0,0,0,0,0,-1,1434,1317,0,0
217,-293,0,0,0,0,0,0,0,0,0,-1,1441,1317,0,0
224,-293,0,0,0,0,0,0,0,0,0,-1,1448,1317,0,0
231,-293,0,0,0,0,0,0,0,0,0,-1,1455,1317,0,0
238,-293,0,0,0,0,0,0,0,0,0,-1,1462,1317,0,0
245,-293,0,0,0,0,0,0,0,0,0,-1,1469,1317,0,0
252,-293,0,0,0,0,0,0,0,0,0,-1,1476,1317,0,0
259,-293,0,0,0,0,0,0,0,0,0,-1,1483,1317,0,0
266,-293,0,0,0,0,0,0,0,0,0,-1,1490,1317,0,0
273,-293,0,0,0,0,0,0,0,0,0,-1,1497,1317,0,0
280,-293,0,0,0,0,0,0,0,0,0,-1,1504,1317,0,0
287,-293,0,0,0,0,0,0,0,0,0,-1,1511,1317,0,0
294,-293,0,0,0,0,0,0,0,0,0,-1,1518,1317,0,0
301,-293,0,0,0,0,0,0,0,0,0,-1,1525,1317,0,0
308,-293,0,0,0,0,0,0,0,0,0,-1,1532,1317,0,0
315,-293,0,0,0,0,0,0,0,0,0,-1,1539,1317,0,0
322,-293,0,0,0,0,0,0,0,0,0,-1,1546,1317,0,0
329,-293,0,0,0,0,0,0,0,0,0,-1,1553,1317,0,0
336,-293,0,0,0,0,0,0,0,0,0,-1,1560,1317,0,0
343,-293,0,0,0,0,0,0,0,0,0,-1,1567,1317,0,0
350,-293,0,0,0,0,0,0,0,0,0,-1,1574,1317,0,0
357,-293,0,0,0,0,0,0,0,0,0,-1,1581,1317,0,0
364,-293,0,0,0,0,0,0,0,0,0,-1,1588,1317,0,0
371,-293,0,0,0,0,0,0,0,0,0,-1,1595,1317,0,0
378,-293,0,0,0,0,0,0,0,0,0,-1,1602,1317,0,0
385,-293,0,0,0,0,0,0,0,0,0,-1,1609,1317,0,0
392,-293,0,0,0,0,0,0,0,0,0,-1,1616,1317,0,0
399,-293,0,0,0,0,0,0,0,0,0,-1,1623,1317,0,0
406,-293,0,0,0,0,0,0,0,0,0,-1,1630,1317,0,0
413,-293,0,0,0,0,0,0,0,0,0,-1,1637,1317,0,0
420,-293,0,0,0,0,0,0,0,0,0,-1,1644,1317,0,0
427,-293,0,0,0,0,0,0,0,0,0,-1,1651,1317,0,0
434,-293,0,0,0,0,0,0,0,0,0,-1,1658,1317,0,0
441,-293,0,0,0,0,0,0,0,0,0,-1,1665,1317,0,0
448,-293,0,0,0,0,0,0,0,0,0,-1,1672,1317,0,0
455,-293,0,0,0,0,0,0,0,0,0,-1,1679,1317,0,0
462,-293,0,0,0,0,0,0,0,0,0,-1,1686,1317,0,0
469,-293,0,0,0,0,0,0,0,0,0,-1,1693,1317,0,0
476,-293,0,0,0,0,0,0,0,0,0,-1,1700,1317,0,0
483,-293,0,0,0,0,0,0,0,0,0,-1,1707,1317,0,0
490,-293,0,0,0,0,0,0,0,0,0,-1,1714,1317,0,0
497,-293,0,0,0,0,0,0,0,0,0,-1,1721,1317,0,0
504,-293,0,0,0,0,0,0,0,0,0,-1,1728,1317,0,0
511,-293,0,0,0,0,0,0,0,0,0,-1,1735,1317,0,0
518,-293,0,0,0,0,0,0,0,0,0,-1,1742,1317,0,0
525,-293,0,0,0,0,0,0,0,0,0,-1,1749,1317,0,0
532,-293,0,0,0,0,0,0,0,0,0,-1,1756,1317,0,0
539,-293,0,0,0,0,0,0,0,0,0,-1,1763,1317,0,0
546,-293,0,0,0,0,0,0,0,0,0,-1,1770,1317,0,0
553,-293,0,0,0,0,0,0,0,0,0,-1,1777,1317,0,0
560,-293,0,0,0,0,0,0,0,0,0,-1,1784,1317,0,0
567,-293,0,0,0,0,0,0,0,0,0,-1,1791,1317,0,0
574,-293,0,0,0,0,0,0,0,0,0,-1,1798,1317,0,0
581,-293,0,0,0,0,0,0,0,0,0,-1,1805,1317,0,0
588,-293,0,0,0,0,0,0,0,0,0,-1,1812,1317,0,0
595,-293,59.283,2.56763,0,0,0,0,0,0,0,-1,1819,1317,59.2829,-2.56765
602,-293,60.4449,1.62744,0,0,0,0,0,0,0,-1,1826,1317,60.4449,-1.6274
609,-293,60.5278,1.4292,0,0,0,0,0,0,0,-1,1833,1317,60.5279,-1.42921
616,-293,60.6252,1.49255,0,0,0,0,0,0,0,-1,1840,1317,60.6252,-1.4926
623,-293,60.7842,1.27625,0,0,0,0,0,0,0,-1,1847,1317,60.7842,-1.27625
630,-293,46.6716,3.21558,0,0,0,0,0,0,0,-1,1854,1317,46.6716,-3.2156
637,-293,42.7729,4.95544,0,0,0,0,0,0,0,-1,1861,1317,42.773,-4.95546
644,-293,24.4565,0.520752,0,0,0,0,0,0,0,-1,1868,1317,24.4566,-0.520709
651,-293,25.8926,9.51245,0,0,0,0,0,0,0,-1,1875,1317,25.8926,-9.51246
658,-293,25.4904,9.10205,0,0,0,0,0,0,0,-1,1882,1317,25.4904,-9.10209
665,-293,39.7999,13.4221,0,0,0,0,0,0,0,-1,1889,1317,39.8,-13.4221
672,-293,41.2888,13.5914,0,0,0,0,0,0,0,-1,1896,1317,41.2888,-13.5914
679,-293,41.252,12.9679,-0.000542095,-0.00226766,-0.000580347,-0.000365071,-0.00244468,-0.296066,0.00152275,0.016506,1903,1317,41.2519,-12.9679
686,-293,41.2325,12.3796,6.51726e-05,-0.000167763,-0.00175266,0.00170523,-0.00180782,-0.752221,0.00202855,0.0169968,1910,1317,41.2325,-12.3797
693,-293,41.2064,11.7887,0.00103596,-0.000342767,-0.000207398,0.00106649,-0.000373289,-0.14612,0.000862772,0.0123546,1917,1317,41.2064,-11.7886
700,-293,41.163,11.1632,0.000914497,-0.000432105,0.000306856,0.000981125,-0.000498732,0.213812,0.000869396,0.0106758,1924,1317,41.163,-11.1632
707,-293,41.1348,10.5833,0.000507796,-0.000482347,0.000857935,0.00100325,-0.000977805,0.523711,0.0011438,0.0107034,1931,1317,41.1348,-10.5833
714,-293,41.1268,9.99658,-0.000102457,-0.000542486,0.00142331,0.00111774,-0.00176268,0.708715,0.00167685,0.00760813,1938,1317,41.1268,-9.99652
721,-293,41.1324,9.39648,-0.000845275,-0.000615058,0.00204622,0.00131928,-0.00277962,0.813496,0.00241605,0.0098241,1945,1317,41.1325,-9.3965
728,-293,41.1205,8.80396,-0.00180534,-0.000693687,0.00274426,0.00155047,-0.0040495,0.885318,0.00333873,0.0131522,1952,1317,41.1205,-8.80395
735,-293,41.0991,8.21338,-0.00309507,-0.000868394,0.00357313,0.00176083,-0.0057243,0.936424,0.00451898,0.0250904,1959,1317,41.0992,-8.21338
742,-293,41.2422,7.68665,0,0,0,0,0,0,0,-1,1966,1317,41.2422,-7.68665
749,-293,29.439,5.35339,0,0,0,0,0,0,0,-1,1973,1317,29.4389,-5.35334
756,-293,24.978,3.9718,0,0,0,0,0,0,0,-1,1980,1317,24.978,-3.97186
763,-293,26.6713,4.74097,0,0,0,0,0,0,0,-1,1987,1317,26.6713,-4.74098
770,-293,24.1349,4.69153,0,0,0,0,0,0,0,-1,1994,1317,24.1348,-4.69159
777,-293,0,0,0,0,0,0,0,0,0,-1,2001,1317,0,0
784,-293,0,0,0,0,0,0,0,0,0,-1,2008,1317,0,0
791,-293,0,0,0,0,0,0,0,0,0,-1,2015,1317,0,0
798,-293,0,0,0,0,0,0,0,0,0,-1,2022,1317,0,0
805,-293,0,0,0,0,0,0,0,0,0,-1,2029,1317,0,0
812,-293,0,0,0,0,0,0,0,0,0,-1,2036,1317,0,0
-700,-300,0,0,0,0,0,0,0,0,0,-1,524,1324,0,0
-693,-300,0,0,0,0,0,0,0,0,0,-1,531,1324,0,0
-686,-300,0,0,0,0,0,0,0,0,0,-1,538,1324,0,0
-679,-300,0,0,0,0,0,0,0,0,0,-1,545,1324,0,0
-672,-300,0,0,0,0,0,0,0,0,0,-1,552,1324,0,0
-665,-300,0,0,0,0,0,0,0,0,0,-1,559,1324,0,0
-658,-300,0,0,0,0,0,0,0,0,0,-1,566,1324,0,0
-651,-300,-53.5255,8.18042,0,0,0,0,0,0,0,-1,573,1324,-53.5255,-8.18036
-644,-300,-53.5926,6.62146,0,0,0,0,0,0,0,-1,580,1324,-53.5926,-6.62144
-637,-300,-24.088,-5.12695,0,0,0,0,0,0,0,-1,587,1324,-24.088,5.12694
-630,-300,-21.1108,2.26306,0,0,0,0,0,0,0,-1,594,1324,-21.1109,-2.2631
-623,-300,-12.7067,1.48462,0,0,0,0,0,0,0,-1,601,1324,-12.7067,-1.48462
-616,-300,-14.9988,1.68628,0,0,0,0,0,0,0,-1,608,1324,-14.9988,-1.68627
-609,-300,-15.5027,3.29907,0,0,0,0,0,0,0,-1,615,1324,-15.5027,-3.29902
-602,-300,-24.593,5.85229,0,0,0,0,0,0,0,-1,622,1324,-24.593,-5.85229
-595,-300,-24.6207,6.69092,0.00205428,0.00251384,0.00172574,0.00402504,0.000543085,0.851584,0.0025219,0.037236,629,1324,-24.6206,-6.69091
-588,-300,-24.5757,7.38452,0.00176736,0.00169565,0.00117379,0.00290584,0.000557169,0.770131,0.0017808,0.0207522,636,1324,-24.5757,-7.38457
-581,-300,-24.6006,8.03979,0.00180063,0.00112348,0.000921256,0.00244355,0.000480552,0.609303,0.00149483,0.0202742,643,1324,-24.6007,-8.03977
-574,-300,-24.5938,8.68542,0.00198252,0.000654772,0.000811409,0.00236704,0.00027026,0.442535,0.0014961,0.0165925,650,1324,-24.5938,-8.68539
-567,-300,-24.6287,9.3147,0.00233023,0.000258486,0.000817115,0.00261372,-2.5001e-05,0.333943,0.00175087,0.0165247,657,1324,-24.6287,-9.31468
-560,-300,-24.6765,9.9563,0.00287868,-9.32611e-05,0.000925962,0.00314357,-0.000358152,0.278629,0.00222473,0.015353,664,1324,-24.6765,-9.95635
-553,-300,-24.6801,10.5963,0.00362788,-0.000361791,0.00116165,0.00394146,-0.000675375,0.263663,0.00287929,0.0111657,671,1324,-24.68,-10.5963
-546,-300,-24.704,11.2509,0.00461341,-0.000628197,0.00150327,0.00501394,-0.00102872,0.260387,0.00373308,0.00980392,678,1324,-24.704,-11.2508
-539,-300,-24.6465,11.9399,0.00600577,-0.00090029,0.00199505,0.00654068,-0.0014352,0.261956,0.00490929,0.0246248,685,1324,-24.6465,-11.9399
-532,-300,-24.5557,12.609,0,0,0,0,0,0,0,-1,692,1324,-24.5557,-12.609
-525,-300,-13.5115,6.27783,0,0,0,0,0,0,0,-1,699,1324,-13.5115,-6.2778
-518,-300,-9.8349,-0.537109,0,0,0,0,0,0,0,-1,706,1324,-9.83487,0.537068
-511,-300,-12.8644,0.081665,0,0,0,0,0,0,0,-1,713,1324,-12.8644,-0.0817016
-504,-300,-13.4829,-0.165527,0,0,0,0,0,0,0,-1,720,1324,-13.4829,0.165544
-497,-300,-18.1063,0.956543,0,0,0,0,0,0,0,-1,727,1324,-18.1063,-0.9565
-490,-300,-18.2293,1.53625,0,0,0,0,0,0,0,-1,734,1324,-18.2293,-1.53626
-483,-300,-18.3522,1.61084,0,0,0,0,0,0,0,-1,741,1324,-18.3522,-1.6108
-476,-300,-18.7489,1.96387,0,0,0,0,0,0,0,-1,748,1324,-18.7489,-1.96387
-469,-300,0,0,0,0,0,0,0,0,0,-1,755,1324,0,0
-462,-300,0,0,0,0,0,0,0,0,0,-1,762,1324,0,0
-455,-300,0,0,0,0,0,0,0,0,0,-1,769,1324,0,0
-448,-300,0,0,0,0,0,0,0,0,0,-1,776,1324,0,0
-441,-300,0,0,0,0,0,0,0,0,0,-1,783,1324,0,0
-434,-300,0,0,0,0,0,0,0,0,0,-1,790,1324,0,0
-427,-300,0,0,0,0,0,0,0,0,0,-1,797,1324,0,0
-420,-300,0,0,0,0,0,0,0,0,0,-1,804,1324,0,0
-413,-300,0,0,0,0,0,0,0,0,0,-1,811,1324,0,0
-406,-300,0,0,0,0,0,0,0,0,0,-1,818,1324,0,0
-399,-300,0,0,0,0,0,0,0,0,0,-1,825,1324,0,0
-392,-300,0,0,0,0,0,0,0,0,0,-1,832,1324,0,0
-385,-300,0,0,0,0,0,0,0,0,0,-1,839,1324,0,0
-378,-300,0,0,0,0,0,0,0,0,0,-1,846,1324,0,0
-371,-300,0,0,0,0,0,0,0,0,0,-1,853,1324,0,0
-364,-300,0,0,0,0,0,0,0,0,0,-1,860,1324,0,0
-357,-300,0,0,0,0,0,0,0,0,0,-1,867,1324,0,0
-350,-300,0,0,0,0,0,0,0,0,0,-1,874,1324,0,0
-343,-300,0,0,0,0,0,0,0,0,0,-1,881,1324,0,0
-336,-300,0,0,0,0,0,0,0,0,0,-1,888,1324,0,0
-329,-300,0,0,0,0,0,0,0,0,0,-1,895,1324,0,0
-322,-300,0,0,0,0,0,0,0,0,0,-1,902,1324,0,0
-315,-300,0,0,0,0,0,0,0,0,0,-1,909,1324,0,0
-308,-300,0,0,0,0,0,0,0,0,0,-1,916,1324,0,0
-301,-300,0,0,0,0,0,0,0,0,0,-1,923,1324,0,0
-294,-300,0,0,0,0,0,0,0,0,0,-1,930,1324,0,0
-287,-300,0,0,0,0,0,0,0,0,0,-1,937,1324,0,0
-280,-300,0,0,0,0,0,0,0,0,0,-1,944,1324,0,0
-273,-300,0,0,0,0,0,0,0,0,0,-1,951,1324,0,0
-266,-300,0,0,0,0,0,0,0,0,0,-1,958,1324,0,0
-259,-300,0,0,0,0,0,0,0,0,0,-1,965,1324,0,0
-252,-300,0,0,0,0,0,0,0,0,0,-1,972,1324,0,0
-245,-300,0,0,0,0,0,0,0,0,0,-1,979,1324,0,0
-238,-300,0,0,0,0,0,0,0,0,0,-1,986,1324,0,0
-231,-300,0,0,0,0,0,0,0,0,0,-1,993,1324,0,0
-224,-300,0,0,0,0,0,0,0,0,0,-1,1000,1324,0,0
-217,-300,0,0,0,0,0,0,0,0,0,-1,1007,1324,0,0
-210,-300,0,0,0,0,0,0,0,0,0,-1,1014,1324,0,0
-203,-300,0,0,0,0,0,0,0,0,0,-1,1021,1324,0,0
-196,-300,0,0,0,0,0,0,0,0,0,-1,1028,1324,0,0
-189,-300,0,0,0,0,0,0,0,0,0,-1,1035,1324,0,0
-182,-300,0,0,0,0,0,0,0,0,0,-1,1042,1324,0,0
-175,-300,0,0,0,0,0,0,0,0,0,-1,1049,1324,0,0
-168,-300,0,0,0,0,0,0,0,0,0,-1,1056,1324,0,0
-161,-300,0,0,0,0,0,0,0,0,0,-1,1063,1324,0,0
-154,-300,0,0,0,0,0,0,0,0,0,-1,1070,1324,0,0
-147,-300,0,0,0,0,0,0,0,0,0,-1,1077,1324,0,0
-140,-300,0,0,0,0,0,0,0,0,0,-1,1084,1324,0,0
-133,-300,0,0,0,0,0,0,0,0,0,-1,1091,1324,0,0
-126,-300,0,0,0,0,0,0,0,0,0,-1,1098,1324,0,0
-119,-300,0,0,0,0,0,0,0,0,0,-1,1105,1324,0,0
-112,-300,0,0,0,0,0,0,0,0,0,-1,1112,1324,0,0
-105,-300,0,0,0,0,0,0,0,0,0,-1,1119,1324,0,0
-98,-300,0,0,0,0,0,0,0,0,0,-1,1126,1324,0,0
-91,-300,0,0,0,0,0,0,0,0,0,-1,1133,1324,0,0
-84,-300,0,0,0,0,0,0,0,0,0,-1,1140,1324,0,0
-77,-300,0,0,0,0,0,0,0,0,0,-1,1147,1324,0,0
-70,-300,0,0,0,0,0,0,0,0,0,-1,1154,1324,0,0
-63,-300,0,0,0,0,0,0,0,0,0,-1,1161,1324,0,0
-56,-300,0,0,0,0,0,0,0,0,0,-1,1168,1324,0,0
-49,-300,0,0,0,0,0,0,0,0,0,-1,1175,1324,0,0
-42,-300,0,0,0,0,0,0,0,0,0,-1,1182,1324,0,0
-35,-300,0,0,0,0,0,0,0,0,0,-1,1189,1324,0,0
-28,-300,0,0,0,0,0,0,0,0,0,-1,1196,1324,0,0
-21,-300,0,0,0,0,0,0,0,0,0,-1,1203,1324,0,0
-14,-300,0,0,0,0,0,0,0,0,0,-1,1210,1324,0,0
-7,-300,0,0,0,0,0,0,0,0,0,-1,1217,1324,0,0
0,-300,0,0,0,0,0,0,0,0,0,-1,1224,1324,0,0
7,-300,0,0,0,0,0,0,0,0,0,-1,1231,1324,0,0
14,-300,0,0,0,0,0,0,0,0,0,-1,1238,1324,0,0
21,-300,0,0,0,0,0,0,0,0,0,-1,1245,1324,0,0
28,-300,0,0,0,0,0,0,0,0,0,-1,1252,1324,0,0
35,-300,0,0,0,0,0,0,0,0,0,-1,1259,1324,0,0
42,-300,0,0,0,0,0,0,0,0,0,-1,1266,1324,0,0
49,-300,0,0,0,0,0,0,0,0,0,-1,1273,1324,0,0
56,-300,0,0,0,0,0,0,0,0,0,-1,1280,1324,0,0
63,-300,0,0,0,0,0,0,0,0,0,-1,1287,1324,0,0
70,-300,0,0,0,0,0,0,0,0,0,-1,1294,1324,0,0
77,-300,0,0,0,0,0,0,0,0,0,-1,1301,1324,0,0
84,-300,0,0,0,0,0,0,0,0,0,-1,1308,1324,0,0
91,-300,0,0,0,0,0,0,0,0,0,-1,1315,1324,0,0
98,-300,0,0,0,0,0,0,0,0,0,-1,1322,1324,0,0
105,-300,0,0,0,0,0,0,0,0,0,-1,1329,1324,0,0
112,-300,0,0,0,0,0,0,0,0,0,-1,1336,1324,0,0
119,-300,0,0,0,0,0,0,0,0,0,-1,1343,1324,0,0
126,-300,0,0,0,0,0,0,0,0,0,-1,1350,1324,0,0
133,-300,0,0,0,0,0,0,0,0,0,-1,1357,1324,0,0
140,-300,0,0,0,0,0,0,0,0,0,-1,1364,1324,0,0
147,-300,0,0,0,0,0,0,0,0,0,-1,1371,1324,0,0
154,-300,0,0,0,0,0,0,0,0,0,-1,1378,1324,0,0
161,-300,0,0,0,0,0,0,0,0,0,-1,1385,1324,0,0
168,-300,0,0,0,0,0,0,0,0,0,-1,1392,1324,0,0
175,-300,0,0,0,0,0,0,0,0,0,-1,1399,1324,0,0
182,-300,0,0,0,0,0,0,0,0,0,-1,1406,1324,0,0
189,-300,0,0,0,0,0,0,0,0,0,-1,1413,1324,0,0
196,-300,0,0,0,0,0,0,0,0,0,-1,1420,1324,0,0
203,-300,0,0,0,0,0,0,0,0,0,-1,1427,1324,0,0
210,-300,0,0,0,0,0,0,0,0,0,-1,1434,1324,0,0
217,-300,0,0,0,0,0,0,0,0,0,-1,1441,1324,0,0
224,-300,0,0,0,0,0,0,0,0,0,-1,1448,1324,0,0
231,-300,0,0,0,0,0,0,0,0,0,-1,1455,1324,0,0
238,-300,0,0,0,0,0,0,0,0,0,-1,1462,1324,0,0
245,-300,0,0,0,0,0,0,0,0,0,-1,1469,1324,0,0
252,-300,0,0,0,0,0,0,0,0,0,-1,1476,1324,0,0
259,-300,0,0,0,0,0,0,0,0,0,-1,1483,1324,0,0
266,-300,0,0,0,0,0,0,0,0,0,-1,1490,1324,0,0
273,-300,0,0,0,0,0,0,0,0,0,-1,1497,1324,0,0
280,-300,0,0,0,0,0,0,0,0,0,-1,1504,1324,0,0
287,-300,0,0,0,0,0,0,0,0,0,-1,1511,1324,0,0
294,-300,0,0,0,0,0,0,0,0,0,-1,1518,1324,0,0
301,-300,0,0,0,0,0,0,0,0,0,-1,1525,1324,0,0
308,-300,0,0,0,0,0,0,0,0,0,-1,1532,1324,0,0
315,-300,0,0,0,0,0,0,0,0,0,-1,1539,1324,0,0
322,-300,0,0,0,0,0,0,0,0,0,-1,1546,1324,0,0
329,-300,0,0,0,0,0,0,0,0,0,-1,1553,1324,0,0
336,-300,0,0,0,0,0,0,0,0,0,-1,1560,1324,0,0
343,-300,0,0,0,0,0,0,0,0,0,-1,1567,1324,0,0
350,-300,0,0,0,0,0,0,0,0,0,-1,1574,1324,0,0
357,-300,0,0,0,0,0,0,0,0,0,-1,1581,1324,0,0
364,-300,0,0,0,0,0,0,0,0,0,-1,1588,1324,0,0
371,-300,0,0,0,0,0,0,0,0,0,-1,1595,1324,0,0
378,-300,0,0,0,0,0,0,0,0,0,-1,1602,1324,0,0
385,-300,0,0,0,0,0,0,0,0,0,-1,1609,1324,0,0
392,-300,0,0,0,0,0,0,0,0,0,-1,1616,1324,0,0
399,-300,0,0,0,0,0,0,0,0,0,-1,1623,1324,0,0
406,-300,0,0,0,0,0,0,0,0,0,-1,1630,1324,0,0
413,-300,0,0,0,0,0,0,0,0,0,-1,1637,1324,0,0
420,-300,0,0,0,0,0,0,0,0,0,-1,1644,1324,0,0
427,-300,0,0,0,0,0,0,0,0,0,-1,1651,1324,0,0
434,-300,0,0,0,0,0,0,0,0,0,-1,1658,1324,0,0
441,-300,0,0,0,0,0,0,0,0,0,-1,1665,1324,0,0
448,-300,0,0,0,0,0,0,0,0,0,-1,1672,1324,0,0
455,-300,0,0,0,0,0,0,0,0,0,-1,1679,1324,0,0
462,-300,0,0,0,0,0,0,0,0,0,-1,1686,1324,0,0
469,-300,0,0,0,0,0,0,0,0,0,-1,1693,1324,0,0
476,-300,0,0,0,0,0,0,0,0,0,-1,1700,1324,0,0
483,-300,0,0,0,0,0,0,0,0,0,-1,1707,1324,0,0
490,-300,0,0,0,0,0,0,0,0,0,-1,1714,1324,0,0
497,-300,0,0,0,0,0,0,0,0,0,-1,1721,1324,0,0
504,-300,0,0,0,0,0,0,0,0,0,-1,1728,1324,0,0
511,-300,0,0,0,0,0,0,0,0,0,-1,1735,1324,0,0
518,-300,0,0,0,0,0,0,0,0,0,-1,1742,1324,0,0
525,-300,0,0,0,0,0,0,0,0,0,-1,1749,1324,0,0
532,-300,0,0,0,0,0,0,0,0,0,-1,1756,1324,0,0
539,-300,0,0,0,0,0,0,0,0,0,-1,1763,1324,0,0
546,-300,0,0,0,0,0,0,0,0,0,-1,1770,1324,0,0
553,-300,0,0,0,0,0,0,0,0,0,-1,1777,1324,0,0
560,-300,0,0,0,0,0,0,0,0,0,-1,1784,1324,0,0
567,-300,0,0,0,0,0,0,0,0,0,-1,1791,1324,0,0
574,-300,0,0,0,0,0,0,0,0,0,-1,1798,1324,0,0
581,-300,0,0,0,0,0,0,0,0,0,-1,1805,1324,0,0
588,-300,61.3982,2.35547,0,0,0,0,0,0,0,-1,1812,1324,61.3981,-2.3555
595,-300,61.2064,1.96851,0,0,0,0,0,0,0,-1,1819,1324,61.2064,-1.96853
602,-300,60.8494,1.61389,-0.0423118,0.0223778,0.00290461,0.0225079,-0.0424419,1.52602,0.038083,0.0475991,1826,1324,60.8494,-1.61385
609,-300,60.4249,1.20483,0,0,0,0,0,0,0,-1,1833,1324,60.4249,-1.20486
616,-300,60.4126,1.02698,0,0,0,0,0,0,0,-1,1840,1324,60.4126,-1.02699
623,-300,47.4474,2.43188,0,0,0,0,0,0,0,-1,1847,1324,47.4474,-2.43194
630,-300,42.4099,3.9165,0,0,0,0,0,0,0,-1,1854,1324,42.4099,-3.91649
637,-300,31.1719,4.6366,0,0,0,0,0,0,0,-1,1861,1324,31.1718,-4.63665
644,-300,22.9836,3.44934,0,0,0,0,0,0,0,-1,1868,1324,22.9836,-3.4493
651,-300,25.5004,9.11853,0,0,0,0,0,0,0,-1,1875,1324,25.5004,-9.11851
658,-300,25.4012,9.20032,0,0,0,0,0,0,0,-1,1882,1324,25.4012,-9.20036
665,-300,40.8214,14.215,0,0,0,0,0,0,0,-1,1889,1324,40.8214,-14.215
672,-300,40.6617,13.6694,0.00103908,0.000841914,0.000977634,0.00192309,-4.20934e-05,0.735148,0.00129632,0.0292476,1896,1324,40.6618,-13.6694
679,-300,40.6538,13.0111,0.00060409,-0.00228155,5.54998e-05,0.000605157,-0.00228262,0.0192236,0.00175852,0.0121855,1903,1324,40.6538,-13.0111
686,-300,40.6343,12.4136,0.000799263,-0.000371235,-0.00105051,0.00141655,-0.000988518,-0.531255,0.00139588,0.0136475,1910,1324,40.6343,-12.4135
693,-300,40.5983,11.8191,0.00119097,-0.000402136,5.49074e-05,0.00119286,-0.000404026,0.0344111,0.000958729,0.0119995,1917,1324,40.5983,-11.819
700,-300,40.5673,11.1907,0.000927837,-0.000434408,0.00042968,0.00105204,-0.000558613,0.281394,0.000944346,0.0128578,1924,1324,40.5672,-11.1907
707,-300,40.5649,10.5707,0.000622091,-0.000452933,0.000836333,0.00107875,-0.00090959,0.499785,0.00114935,0.00863577,1931,1324,40.5649,-10.5707
714,-300,40.5538,9.9967,0.000221274,-0.000467676,0.0012863,0.00120843,-0.00145483,0.654567,0.00153982,0.0105193,1938,1324,40.5538,-9.99668
721,-300,40.5342,9.41797,-0.000279212,-0.000473673,0.00177338,0.0013996,-0.00215248,0.758012,0.00206609,0.0134494,1945,1324,40.5342,-9.41802
728,-300,40.5408,8.79529,-0.000962471,-0.000445311,0.00229618,0.0016068,-0.00301458,0.841469,0.00270911,0.0181322,1952,1324,40.5408,-8.79534
735,-300,40.5837,8.20239,0,0,0,0,0,0,0,-1,1959,1324,40.5837,-8.20234
742,-300,39.5627,7.83118,0,0,0,0,0,0,0,-1,1966,1324,39.5627,-7.83112
749,-300,27.4065,5.9718,0,0,0,0,0,0,0,-1,1973,1324,27.4065,-5.97181
756,-300,22.1423,3.45642,0,0,0,0,0,0,0,-1,1980,1324,22.1423,-3.45638
763,-300,22.6136,5.1571,0,0,0,0,0,0,0,-1,1987,1324,22.6136,-5.15706
770,-300,24.859,4.77979,0,0,0,0,0,0,0,-1,1994,1324,24.859,-4.77972
777,-300,0,0,0,0,0,0,0,0,0,-1,2001,1324,0,0
784,-300,0,0,0,0,0,0,0,0,0,-1,2008,1324,0,0
791,-300,0,0,0,0,0,0,0,0,0,-1,2015,1324,0,0
798,-300,0,0,0,0,0,0,0,0,0,-1,2022,1324,0,0
805,-300,0,0,0,0,0,0,0,0,0,-1,2029,1324,0,0
812,-300,0,0,0,0,0,0,0,0,0,-1,2036,1324,0,0
-700,-307,0,0,0,0,0,0,0,0,0,-1,524,1331,0,0
-693,-307,0,0,0,0,0,0,0,0,0,-1,531,1331,0,0
-686,-307,0,0,0,0,0,0,0,0,0,-1,538,1331,0,0
-679,-307,0,0,0,0,0,0,0,0,0,-1,545,1331,0,0
-672,-307,0,0,0,0,0,0,0,0,0,-1,552,1331,0,0
-665,-307,0,0,0,0,0,0,0,0,0,-1,559,1331,0,0
-658,-307,0,0,0,0,0,0,0,0,0,-1,566,1331,0,0
-651,-307,-54.7367,9.00867,0,0,0,0,0,0,0,-1,573,1331,-54.7367,-9.00861
-644,-307,-55.8599,7.91187,0,0,0,0,0,0,0,-1,580,1331,-55.8599,-7.91183
-637,-307,-56.9963,6.80457,0,0,0,0,0,0,0,-1,587,1331,-56.9963,-6.80456
-630,-307,-12.0005,0.767212,0,0,0,0,0,0,0,-1,594,1331,-12.0005,-0.767266
-623,-307,-12.2128,2.93811,0,0,0,0,0,0,0,-1,601,1331,-12.2128,-2.93813
-616,-307,-12.6612,2.08289,0,0,0,0,0,0,0,-1,608,1331,-12.6612,-2.08293
-609,-307,-12.2767,1.83228,0,0,0,0,0,0,0,-1,615,1331,-12.2768,-1.83224
-602,-307,-22.8475,5.62708,0,0,0,0,0,0,0,-1,622,1331,-22.8476,-5.6271
-595,-307,-24.1075,6.69458,0,0,0,0,0,0,0,-1,629,1331,-24.1075,-6.69463
-588,-307,-23.9467,7.44299,0.00239737,0.00178424,0.00123781,0.00336601,0.000815597,0.664006,0.00202758,0.0229298,636,1331,-23.9466,-7.44298
-581,-307,-23.9266,8.08411,0.00221255,0.00128606,0.000961698,0.00281676,0.000681851,0.560948,0.00169685,0.0172158,643,1331,-23.9266,-8.0841
-574,-307,-23.9484,8.69629,0.00221746,0.00084191,0.000825522,0.00260417,0.000455198,0.438086,0.00160603,0.0137853,650,1331,-23.9484,-8.69631
-567,-307,-23.9953,9.32776,0.00240394,0.000461053,0.000799742,0.00269078,0.000174207,0.34438,0.0017387,0.013834,657,1331,-23.9953,-9.32775
-560,-307,-24.0254,9.97961,0.00279695,8.63564e-05,0.000858784,0.00304613,-0.000162821,0.282398,0.00208715,0.0140756,664,1331,-24.0254,-9.97956
-553,-307,-24.053,10.6268,0.00339117,-0.000202872,0.0010381,0.00366947,-0.000481167,0.261922,0.00262146,0.0114819,671,1331,-24.053,-10.6268
-546,-307,-24.0693,11.2754,0.00420411,-0.000509438,0.00130745,0.00454248,-0.000847811,0.253247,0.00334691,0.0104264,678,1331,-24.0693,-11.2753
-539,-307,-24.0612,11.953,0.00534324,-0.000811751,0.00170269,0.00578286,-0.00125137,0.252675,0.00433302,0.0171676,685,1331,-24.0612,-11.953
-532,-307,-24.0391,12.6355,0,0,0,0,0,0,0,-1,692,1331,-24.0391,-12.6355
-525,-307,-13.2009,6.91309,0,0,0,0,0,0,0,-1,699,1331,-13.2009,-6.9131
-518,-307,-9.77777,-1.56653,0,0,0,0,0,0,0,-1,706,1331,-9.77777,1.56651
-511,-307,-12.5226,0.26709,0,0,0,0,0,0,0,-1,713,1331,-12.5226,-0.267038
-504,-307,-12.5913,-0.308105,0,0,0,0,0,0,0,-1,720,1331,-12.5913,0.308124
-497,-307,-13.8586,-0.115845,0,0,0,0,0,0,0,-1,727,1331,-13.8587,0.115861
-490,-307,-17.9429,0.982178,0,0,0,0,0,0,0,-1,734,1331,-17.9429,-0.982198
-483,-307,-18.1066,0.927612,0,0,0,0,0,0,0,-1,741,1331,-18.1066,-0.927609
-476,-307,-18.1288,1.1228,0,0,0,0,0,0,0,-1,748,1331,-18.1289,-1.12286
-469,-307,-18.2028,0.798584,0,0,0,0,0,0,0,-1,755,1331,-18.2027,-0.798546
-462,-307,0,0,0,0,0,0,0,0,0,-1,762,1331,0,0
-455,-307,0,0,0,0,0,0,0,0,0,-1,769,1331,0,0
-448,-307,0,0,0,0,0,0,0,0,0,-1,776,1331,0,0
-441,-307,0,0,0,0,0,0,0,0,0,-1,783,1331,0,0
-434,-307,0,0,0,0,0,0,0,0,0,-1,790,1331,0,0
-427,-307,0,0,0,0,0,0,0,0,0,-1,797,1331,0,0
-420,-307,0,0,0,0,0,0,0,0,0,-1,804,1331,0,0
-413,-307,0,0,0,0,0,0,0,0,0,-1,811,1331,0,0
-406,-307,0,0,0,0,0,0,0,0,0,-1,818,1331,0,0
-399,-307,0,0,0,0,0,0,0,0,0,-1,825,1331,0,0
-392,-307,0,0,0,0,0,0,0,0,0,-1,832,1331,0,0
-385,-307,0,0,0,0,0,0,0,0,0,-1,839,1331,0,0
-378,-307,0,0,0,0,0,0,0,0,0,-1,846,1331,0,0
-371,-307,0,0,0,0,0,0,0,0,0,-1,853,1331,0,0
-364,-307,0,0,0,0,0,0,0,0,0,-1,860,1331,0,0
-357,-307,0,0,0,0,0,0,0,0,0,-1,867,1331,0,0
-350,-307,0,0,0,0,0,0,0,0,0,-1,874,1331,0,0
-343,-307,0,0,0,0,0,0,0,0,0,-1,881,1331,0,0
-336,-307,0,0,0,0,0,0,0,0,0,-1,888,1331,0,0
-329,-307,0,0,0,0,0,0,0,0,0,-1,895,1331,0,0
-322,-307,0,0,0,0,0,0,0,0,0,-1,902,1331,0,0
-315,-307,0,0,0,0,0,0,0,0,0,-1,909,1331,0,0
-308,-307,0,0,0,0,0,0,0,0,0,-1,916,1331,0,0
-301,-307,0,0,0,0,0,0,0,0,0,-1,923,1331,0,0
-294,-307,0,0,0,0,0,0,0,0,0,-1,930,1331,0,0
-287,-307,0,0,0,0,0,0,0,0,0,-1,937,1331,0,0
-280,-307,0,0,0,0,0,0,0,0,0,-1,944,1331,0,0
-273,-307,0,0,0,0,0,0,0,0,0,-1,951,1331,0,0
-266,-307,0,0,0,0,0,0,0,0,0,-1,958,1331,0,0
-259,-307,0,0,0,0,0,0,0,0,0,-1,965,1331,0,0
-252,-307,0,0,0,0,0,0,0,0,0,-1,972,1331,0,0
-245,-307,0,0,0,0,0,0,0,0,0,-1,979,1331,0,0
-238,-307,0,0,0,0,0,0,0,0,0,-1,986,1331,0,0
-231,-307,0,0,0,0,0,0,0,0,0,-1,993,1331,0,0
-224,-307,0,0,0,0,0,0,0,0,0,-1,1000,1331,0,0
-217,-307,0,0,0,0,0,0,0,0,0,-1,1007,1331,0,0
-210,-307,0,0,0,0,0,0,0,0,0,-1,1014,1331,0,0
-203,-307,0,0,0,0,0,0,0,0,0,-1,1021,1331,0,0
-196,-307,0,0,0,0,0,0,0,0,0,-1,1028,1331,0,0
-189,-307,0,0,0,0,0,0,0,0,0,-1,1035,1331,0,0
-182,-307,0,0,0,0,0,0,0,0,0,-1,1042,1331,0,0
-175,-307,0,0,0,0,0,0,0,0,0,-1,1049,1331,0,0
-168,-307,0,0,0,0,0,0,0,0,0,-1,1056,1331,0,0
-161,-307,0,0,0,0,0,0,0,0,0,-1,1063,1331,0,0
-154,-307,0,0,0,0,0,0,0,0,0,-1,1070,1331,0,0
-147,-307,0,0,0,0,0,0,0,0,0,-1,1077,1331,0,0
-140,-307,0,0,0,0,0,0,0,0,0,-1,1084,1331,0,0
-133,-307,0,0,0,0,0,0,0,0,0,-1,1091,1331,0,0
-126,-307,0,0,0,0,0,0,0,0,0,-1,1098,1331,0,0
-119,-307,0,0,0,0,0,0,0,0,0,-1,1105,1331,0,0
-112,-307,0,0,0,0,0,0,0,0,0,-1,1112,1331,0,0
-105,-307,0,0,0,0,0,0,0,0,0,-1,1119,1331,0,0
-98,-307,0,0,0,0,0,0,0,0,0,-1,1126,1331,0,0
-91,-307,0,0,0,0,0,0,0,0,0,-1,1133,1331,0,0
-84,-307,0,0,0,0,0,0,0,0,0,-1,1140,1331,0,0
-77,-307,0,0,0,0,0,0,0,0,0,-1,1147,1331,0,0
-70,-307,0,0,0,0,0,0,0,0,0,-1,1154,1331,0,0
-63,-307,0,0,0,0,0,0,0,0,0,-1,1161,1331,0,0
-56,-307,0,0,0,0,0,0,0,0,0,-1,1168,1331,0,0
-49,-307,0,0,0,0,0,0,0,0,0,-1,1175,1331,0,0
-42,-307,0,0,0,0,0,0,0,0,0,-1,1182,1331,0,0
-35,-307,0,0,0,0,0,0,0,0,0,-1,1189,1331,0,0
-28,-307,0,0,0,0,0,0,0,0,0,-1,1196,1331,0,0
-21,-307,0,0,0,0,0,0,0,0,0,-1,1203,1331,0,0
-14,-307,0,0,0,0,0,0,0,0,0,-1,1210,1331,0,0
-7,-307,0,0,0,0,0,0,0,0,0,-1,1217,1331,0,0
0,-307,0,0,0,0,0,0,0,0,0,-1,1224,1331,0,0
7,-307,0,0,0,0,0,0,0,0,0,-1,1231,1331,0,0
14,-307,0,0,0,0,0,0,0,0,0,-1,1238,1331,0,0
21,-307,0,0,0,0,0,0,0,0,0,-1,1245,1331,0,0
28,-307,0,0,0,0,0,0,0,0,0,-1,1252,1331,0,0
35,-307,0,0,0,0,0,0,0,0,0,-1,1259,1331,0,0
42,-307,0,0,0,0,0,0,0,0,0,-1,1266,1331,0,0
49,-307,0,0,0,0,0,0,0,0,0,-1,1273,1331,0,0
56,-307,0,0,0,0,0,0,0,0,0,-1,1280,1331,0,0
63,-307,0,0,0,0,0,0,0,0,0,-1,1287,1331,0,0
70,-307,0,0,0,0,0,0,0,0,0,-1,1294,1331,0,0
77,-307,0,0,0,0,0,0,0,0,0,-1,1301,1331,0,0
84,-307,0,0,0,0,0,0,0,0,0,-1,1308,1331,0,0
91,-307,0,0,0,0,0,0,0,0,0,-1,1315,1331,0,0
98,-307,0,0,0,0,0,0,0,0,0,-1,1322,1331,0,0
105,-307,0,0,0,0,0,0,0,0,0,-1,1329,1331,0,0
112,-307,0,0,0,0,0,0,0,0,0,-1,1336,1331,0,0
119,-307,0,0,0,0,0,0,0,0,0,-1,1343,1331,0,0
126,-307,0,0,0,0,0,0,0,0,0,-1,1350,1331,0,0
133,-307,0,0,0,0,0,0,0,0,0,-1,1357,1331,0,0
140,-307,0,0,0,0,0,0,0,0,0,-1,1364,1331,0,0
147,-307,0,0,0,0,0,0,0,0,0,-1,1371,1331,0,0
154,-307,0,0,0,0,0,0,0,0,0,-1,1378,1331,0,0
161,-307,0,0,0,0,0,0,0,0,0,-1,1385,1331,0,0
168,-307,0,0,0,0,0,0,0,0,0,-1,1392,1331,0,0
175,-307,0,0,0,0,0,0,0,0,0,-1,1399,1331,0,0
182,-307,0,0,0,0,0,0,0,0,0,-1,1406,1331,0,0
189,-307,0,0,0,0,0,0,0,0,0,-1,1413,1331,0,0
196,-307,0,0,0,0,0,0,0,0,0,-1,1420,1331,0,0
203,-307,0,0,0,0,0,0,0,0,0,-1,1427,1331,0,0
210,-307,0,0,0,0,0,0,0,0,0,-1,1434,1331,0,0
217,-307,0,0,0,0,0,0,0,0,0,-1,1441,1331,0,0
224,-307,0,0,0,0,0,0,0,0,0,-1,1448,1331,0,0
231,-307,0,0,0,0,0,0,0,0,0,-1,1455,1331,0,0
238,-307,0,0,0,0,0,0,0,0,0,-1,1462,1331,0,0
245,-307,0,0,0,0,0,0,0,0,0,-1,1469,1331,0,0
252,-307,0,0,0,0,0,0,0,0,0,-1,1476,1331,0,0
259,-307,0,0,0,0,0,0,0,0,0,-1,1483,1331,0,0
266,-307,0,0,0,0,0,0,0,0,0,-1,1490,1331,0,0
273,-307,0,0,0,0,0,0,0,0,0,-1,1497,1331,0,0
280,-307,0,0,0,0,0,0,0,0,0,-1,1504,1331,0,0
287,-307,0,0,0,0,0,0,0,0,0,-1,1511,1331,0,0
294,-307,0,0,0,0,0,0,0,0,0,-1,1518,1331,0,0
301,-307,0,0,0,0,0,0,0,0,0,-1,1525,1331,0,0
308,-307,0,0,0,0,0,0,0,0,0,-1,1532,1331,0,0
315,-307,0,0,0,0,0,0,0,0,0,-1,1539,1331,0,0
322,-307,0,0,0,0,0,0,0,0,0,-1,1546,1331,0,0
329,-307,0,0,0,0,0,0,0,0,0,-1,1553,1331,0,0
336,-307,0,0,0,0,0,0,0,0,0,-1,1560,1331,0,0
343,-307,0,0,0,0,0,0,0,0,0,-1,1567,1331,0,0
350,-307,0,0,0,0,0,0,0,0,0,-1,1574,1331,0,0
357,-307,0,0,0,0,0,0,0,0,0,-1,1581,1331,0,0
364,-307,0,0,0,0,0,0,0,0,0,-1,1588,1331,0,0
371,-307,0,0,0,0,0,0,0,0,0,-1,1595,1331,0,0
378,-307,0,0,0,0,0,0,0,0,0,-1,1602,1331,0,0
385,-307,0,0,0,0,0,0,0,0,0,-1,1609,1331,0,0
392,-307,0,0,0,0,0,0,0,0,0,-1,1616,1331,0,0
399,-307,0,0,0,0,0,0,0,0,0,-1,1623,1331,0,0
406,-307,0,0,0,0,0,0,0,0,0,-1,1630,1331,0,0
413,-307,0,0,0,0,0,0,0,0,0,-1,1637,1331,0,0
420,-307,0,0,0,0,0,0,0,0,0,-1,1644,1331,0,0
427,-307,0,0,0,0,0,0,0,0,0,-1,1651,1331,0,0
434,-307,0,0,0,0,0,0,0,0,0,-1,1658,1331,0,0
441,-307,0,0,0,0,0,0,0,0,0,-1,1665,1331,0,0
448,-307,0,0,0,0,0,0,0,0,0,-1,1672,1331,0,0
455,-307,0,0,0,0,0,0,0,0,0,-1,1679,1331,0,0
462,-307,0,0,0,0,0,0,0,0,0,-1,1686,1331,0,0
469,-307,0,0,0,0,0,0,0,0,0,-1,1693,1331,0,0
476,-307,0,0,0,0,0,0,0,0,0,-1,1700,1331,0,0
483,-307,0,0,0,0,0,0,0,0,0,-1,1707,1331,0,0
490,-307,0,0,0,0,0,0,0,0,0,-1,1714,1331,0,0
497,-307,0,0,0,0,0,0,0,0,0,-1,1721,1331,0,0
504,-307,0,0,0,0,0,0,0,0,0,-1,1728,1331,0,0
511,-307,0,0,0,0,0,0,0,0,0,-1,1735,1331,0,0
518,-307,0,0,0,0,0,0,0,0,0,-1,1742,1331,0,0
525,-307,0,0,0,0,0,0,0,0,0,-1,1749,1331,0,0
532,-307,0,0,0,0,0,0,0,0,0,-1,1756,1331,0,0
539,-307,0,0,0,0,0,0,0,0,0,-1,1763,1331,0,0
546,-307,0,0,0,0,0,0,0,0,0,-1,1770,1331,0,0
553,-307,0,0,0,0,0,0,0,0,0,-1,1777,1331,0,0
560,-307,0,0,0,0,0,0,0,0,0,-1,1784,1331,0,0
567,-307,0,0,0,0,0,0,0,0,0,-1,1791,1331,0,0
574,-307,0,0,0,0,0,0,0,0,0,-1,1798,1331,0,0
581,-307,0,0,0,0,0,0,0,0,0,-1,1805,1331,0,0
588,-307,61.8744,1.92188,-0.0689198,0.0135386,0.00152672,0.0135668,-0.0689481,1.55229,0.0510916,0.045248,1812,1331,61.8744,-1.92191
595,-307,61.3059,1.68066,-0.0600601,0.0188982,0.00255561,0.0189808,-0.0601427,1.53847,0.047698,0.0429063,1819,1331,61.3059,-1.68071
602,-307,60.7374,1.60144,-0.0499507,0.0210432,0.00360436,0.0212258,-0.0501332,1.5202,0.0423109,0.047467,1826,1331,60.7374,-1.60147
609,-307,60.4161,1.03345,0,0,0,0,0,0,0,-1,1833,1331,60.4161,-1.03344
616,-307,53.2878,0.135498,0,0,0,0,0,0,0,-1,1840,1331,53.2878,-0.135477
623,-307,44.3966,2.84888,0,0,0,0,0,0,0,-1,1847,1331,44.3966,-2.84884
630,-307,29.8116,1.51184,0,0,0,0,0,0,0,-1,1854,1331,29.8116,-1.51188
637,-307,24.6407,4.09106,0,0,0,0,0,0,0,-1,1861,1331,24.6407,-4.09103
644,-307,22.6885,5.80408,0,0,0,0,0,0,0,-1,1868,1331,22.6884,-5.80408
651,-307,17.5013,5.80078,0,0,0,0,0,0,0,-1,1875,1331,17.5014,-5.80072
658,-307,37.4427,13.9775,0,0,0,0,0,0,0,-1,1882,1331,37.4427,-13.9776
665,-307,40.1832,14.266,0,0,0,0,0,0,0,-1,1889,1331,40.1832,-14.266
672,-307,40.0781,13.6433,0.00129849,0.000378933,0.00115952,0.00208606,-0.000408643,0.596645,0.00154504,0.0179255,1896,1331,40.0781,-13.6433
679,-307,40.036,13.0377,0.000883061,-0.00207616,0.000298321,0.000912835,-0.00210594,0.0994771,0.00178769,0.0102997,1903,1331,40.036,-13.0377
686,-307,40.0149,12.4454,0.000947437,-0.000514662,-0.000605451,0.0011656,-0.000732825,-0.345849,0.00110551,0.0098863,1910,1331,40.0149,-12.4454
693,-307,40.0009,11.829,0.00113209,-0.000412609,0.000135339,0.00114386,-0.000424377,0.0867347,0.000936646,0.0121036,1917,1331,40.0008,-11.829
700,-307,39.993,11.1952,0.000981841,-0.000416529,0.000452334,0.0011154,-0.00055009,0.287112,0.000979862,0.0144688,1924,1331,39.9931,-11.1951
707,-307,39.9739,10.5847,0.00079274,-0.000403815,0.000801719,0.00119481,-0.000805882,0.464852,0.00116235,0.0144239,1931,1331,39.9738,-10.5848
714,-307,39.9579,10.046,0.000519369,-0.000375394,0.00119284,0.00134597,-0.00120199,0.605989,0.00147185,0.0130813,1938,1331,39.9579,-10.0461
721,-307,39.9713,9.46826,0.000175031,-0.000338596,0.00162503,0.00156341,-0.00172698,0.707028,0.00190049,0.018211,1945,1331,39.9714,-9.46827
728,-307,39.9294,9.05334,-0.000337537,-0.000255211,0.00209235,0.00179638,-0.00238913,0.795233,0.00242457,0.0486888,1952,1331,39.9295,-9.05332
735,-307,40.0029,8.33789,0,0,0,0,0,0,0,-1,1959,1331,40.0029,-8.33793
742,-307,26.677,6.09192,0,0,0,0,0,0,0,-1,1966,1331,26.677,-6.0919
749,-307,26.7727,5.9032,0,0,0,0,0,0,0,-1,1973,1331,26.7727,-5.90323
756,-307,27.1556,5.74756,0,0,0,0,0,0,0,-1,1980,1331,27.1557,-5.7475
763,-307,18.7522,3.55298,0,0,0,0,0,0,0,-1,1987,1331,18.7522,-3.55301
770,-307,0,0,0,0,0,0,0,0,0,-1,1994,1331,0,0
777,-307,0,0,0,0,0,0,0,0,0,-1,2001,1331,0,0
784,-307,0,0,0,0,0,0,0,0,0,-1,2008,1331,0,0
791,-307,0,0,0,0,0,0,0,0,0,-1,2015,1331,0,0
798,-307,0,0,0,0,0,0,0,0,0,-1,2022,1331,0,0
805,-307,0,0,0,0,0,0,0,0,0,-1,2029,1331,0,0
812,-307,0,0,0,0,0,0,0,0,0,-1,2036,1331,0,0
-700,-314,0,0,0,0,0,0,0,0,0,-1,524,1338,0,0
-693,-314,0,0,0,0,0,0,0,0,0,-1,531,1338,0,0
-686,-314,0,0,0,0,0,0,0,0,0,-1,538,1338,0,0
-679,-314,0,0,0,0,0,0,0,0,0,-1,545,1338,0,0
-672,-314,0,0,0,0,0,0,0,0,0,-1,552,1338,0,0
-665,-314,0,0,0,0,0,0,0,0,0,-1,559,1338,0,0
-658,-314,0,0,0,0,0,0,0,0,0,-1,566,1338,0,0
-651,-314,0,0,0,0,0,0,0,0,0,-1,573,1338,0,0
-644,-314,-57.1674,9.05884,0,0,0,0,0,0,0,-1,580,1338,-57.1674,-9.05884
-637,-314,-58.369,7.97375,0,0,0,0,0,0,0,-1,587,1338,-58.369,-7.97376
-630,-314,-59.7463,6.72742,0,0,0,0,0,0,0,-1,594,1338,-59.7463,-6.72739
-623,-314,-13.3542,3.00903,0,0,0,0,0,0,0,-1,601,1338,-13.3542,-3.00907
-616,-314,-9.93311,1.15088,0,0,0,0,0,0,0,-1,608,1338,-9.93308,-1.15093
-609,-314,-9.4361,2.86292,0,0,0,0,0,0,0,-1,615,1338,-9.43612,-2.86286
-602,-314,-11.8027,2.42798,0,0,0,0,0,0,0,-1,622,1338,-11.8027,-2.42802
-595,-314,-23.4893,6.64844,0,0,0,0,0,0,0,-1,629,1338,-23.4893,-6.64848
-588,-314,-23.3661,7.38269,0.00303663,0.00189969,0.00143866,0.00401506,0.000921257,0.597245,0.00242858,0.0345462,636,1338,-23.3662,-7.38272
-581,-314,-23.2567,8.06702,0.00260095,0.0014885,0.00108689,0.00326567,0.00082377,0.548893,0.00196107,0.0147074,643,1338,-23.2566,-8.06707
-574,-314,-23.3174,8.68591,0.0024168,0.00106923,0.000888426,0.00285805,0.000627987,0.460968,0.00173436,0.0131173,650,1338,-23.3174,-8.68597
-567,-314,-23.3455,9.34766,0.00245188,0.000692453,0.000798693,0.00276036,0.000383972,0.368583,0.00172654,0.0143236,657,1338,-23.3454,-9.34763
-560,-314,-23.361,10.0259,0.00271323,0.000322791,0.000802605,0.00295771,7.83148e-05,0.295675,0.00194623,0.0151363,664,1338,-23.361,-10.0258
-553,-314,-23.4083,10.6637,0.00318799,1.52901e-05,0.000921686,0.00343631,-0.000233029,0.26317,0.00237237,0.017812,671,1338,-23.4083,-10.6637
-546,-314,-23.4346,11.3103,0.003887,-0.00031356,0.00112602,0.00416981,-0.000596367,0.246066,0.0029985,0.0186808,678,1338,-23.4346,-11.3103
-539,-314,-23.4202,11.9745,0.0048732,-0.000623247,0.00144755,0.00523112,-0.000981166,0.242398,0.0038563,0.0188872,685,1338,-23.4202,-11.9745
-532,-314,-23.3646,12.5974,0,0,0,0,0,0,0,-1,692,1338,-23.3646,-12.5975
-525,-314,-13.3017,7.50671,0,0,0,0,0,0,0,-1,699,1338,-13.3017,-7.50669
-518,-314,-8.52753,4.70032,0,0,0,0,0,0,0,-1,706,1338,-8.52755,-4.70034
-511,-314,-11.8597,0.384888,0,0,0,0,0,0,0,-1,713,1338,-11.8597,-0.384927
-504,-314,-11.4322,-0.187378,0,0,0,0,0,0,0,-1,720,1338,-11.4322,0.187381
-497,-314,-11.0047,-0.759644,0,0,0,0,0,0,0,-1,727,1338,-11.0047,0.759689
-490,-314,-18.5143,0.471069,0,0,0,0,0,0,0,-1,734,1338,-18.5143,-0.47103
-483,-314,-17.8528,0.577271,0,0,0,0,0,0,0,-1,741,1338,-17.8528,-0.577327
-476,-314,-17.714,0.665405,0,0,0,0,0,0,0,-1,748,1338,-17.714,-0.665388
-469,-314,-17.7246,0.794678,0,0,0,0,0,0,0,-1,755,1338,-17.7246,-0.794645
-462,-314,0,0,0,0,0,0,0,0,0,-1,762,1338,0,0
-455,-314,0,0,0,0,0,0,0,0,0,-1,769,1338,0,0
-448,-314,0,0,0,0,0,0,0,0,0,-1,776,1338,0,0
-441,-314,0,0,0,0,0,0,0,0,0,-1,783,1338,0,0
-434,-314,0,0,0,0,0,0,0,0,0,-1,790,1338,0,0
-427,-314,0,0,0,0,0,0,0,0,0,-1,797,1338,0,0
-420,-314,0,0,0,0,0,0,0,0,0,-1,804,1338,0,0
-413,-314,0,0,0,0,0,0,0,0,0,-1,811,1338,0,0
-406,-314,0,0,0,0,0,0,0,0,0,-1,818,1338,0,0
-399,-314,0,0,0,0,0,0,0,0,0,-1,825,1338,0,0
-392,-314,0,0,0,0,0,0,0,0,0,-1,832,1338,0,0
-385,-314,0,0,0,0,0,0,0,0,0,-1,839,1338,0,0
-378,-314,0,0,0,0,0,0,0,0,0,-1,846,1338,0,0
-371,-314,0,0,0,0,0,0,0,0,0,-1,853,1338,0,0
-364,-314,0,0,0,0,0,0,0,0,0,-1,860,1338,0,0
-357,-314,0,0,0,0,0,0,0,0,0,-1,867,1338,0,0
-350,-314,0,0,0,0,0,0,0,0,0,-1,874,1338,0,0
-343,-314,0,0,0,0,0,0,0,0,0,-1,881,1338,0,0
-336,-314,0,0,0,0,0,0,0,0,0,-1,888,1338,0,0
-329,-314,0,0,0,0,0,0,0,0,0,-1,895,1338,0,0
-322,-314,0,0,0,0,0,0,0,0,0,-1,902,1338,0,0
-315,-314,0,0,0,0,0,0,0,0,0,-1,909,1338,0,0
-308,-314,0,0,0,0,0,0,0,0,0,-1,916,1338,0,0
-301,-314,0,0,0,0,0,0,0,0,0,-1,923,1338,0,0
-294,-314,0,0,0,0,0,0,0,0,0,-1,930,1338,0,0
-287,-314,0,0,0,0,0,0,0,0,0,-1,937,1338,0,0
-280,-314,0,0,0,0,0,0,0,0,0,-1,944,1338,0,0
-273,-314,0,0,0,0,0,0,0,0,0,-1,951,1338,0,0
-266,-314,0,0,0,0,0,0,0,0,0,-1,958,1338,0,0
-259,-314,0,0,0,0,0,0,0,0,0,-1,965,1338,0,0
-252,-314,0,0,0,0,0,0,0,0,0,-1,972,1338,0,0
-245,-314,0,0,0,0,0,0,0,0,0,-1,979,1338,0,0
-238,-314,0,0,0,0,0,0,0,0,0,-1,986,1338,0,0
-231,-314,0,0,0,0,0,0,0,0,0,-1,993,1338,0,0
-224,-314,0,0,0,0,0,0,0,0,0,-1,1000,1338,0,0
-217,-314,0,0,0,0,0,0,0,0,0,-1,1007,1338,0,0
-210,-314,0,0,0,0,0,0,0,0,0,-1,1014,1338,0,0
-203,-314,0,0,0,0,0,0,0,0,0,-1,1021,1338,0,0
-196,-314,0,0,0,0,0,0,0,0,0,-1,1028,1338,0,0
-189,-314,0,0,0,0,0,0,0,0,0,-1,1035,1338,0,0
-182,-314,0,0,0,0,0,0,0,0,0,-1,1042,1338,0,0
-175,-314,0,0,0,0,0,0,0,0,0,-1,1049,1338,0,0
-168,-314,0,0,0,0,0,0,0,0,0,-1,1056,1338,0,0
-161,-314,0,0,0,0,0,0,0,0,0,-1,1063,1338,0,0
-154,-314,0,0,0,0,0,0,0,0,0,-1,1070,1338,0,0
-147,-314,0,0,0,0,0,0,0,0,0,-1,1077,1338,0,0
-140,-314,0,0,0,0,0,0,0,0,0,-1,1084,1338,0,0
-133,-314,0,0,0,0,0,0,0,0,0,-1,1091,1338,0,0
-126,-314,0,0,0,0,0,0,0,0,0,-1,1098,1338,0,0
-119,-314,0,0,0,0,0,0,0,0,0,-1,1105,1338,0,0
-112,-314,0,0,0,0,0,0,0,0,0,-1,1112,1338,0,0
-105,-314,0,0,0,0,0,0,0,0,0,-1,1119,1338,0,0
-98,-314,0,0,0,0,0,0,0,0,0,-1,1126,1338,0,0
-91,-314,0,0,0,0,0,0,0,0,0,-1,1133,1338,0,0
-84,-314,0,0,0,0,0,0,0,0,0,-1,1140,1338,0,0
-77,-314,0,0,0,0,0,0,0,0,0,-1,1147,1338,0,0
-70,-314,0,0,0,0,0,0,0,0,0,-1,1154,1338,0,0
-63,-314,0,0,0,0,0,0,0,0,0,-1,1161,1338,0,0
-56,-314,0,0,0,0,0,0,0,0,0,-1,1168,1338,0,0
-49,-314,0,0,0,0,0,0,0,0,0,-1,1175,1338,0,0
-42,-314,0,0,0,0,0,0,0,0,0,-1,1182,1338,0,0
-35,-314,0,0,0,0,0,0,0,0,0,-1,1189,1338,0,0
-28,-314,0,0,0,0,0,0,0,0,0,-1,1196,1338,0,0
-21,-314,0,0,0,0,0,0,0,0,0,-1,1203,1338,0,0
-14,-314,0,0,0,0,0,0,0,0,0,-1,1210,1338,0,0
-7,-314,0,0,0,0,0,0,0,0,0,-1,1217,1338,0,0
0,-314,0,0,0,0,0,0,0,0,0,-1,1224,1338,0,0
7,-314,0,0,0,0,0,0,0,0,0,-1,1231,1338,0,0
14,-314,0,0,0,0,0,0,0,0,0,-1,1238,1338,0,0
21,-314,0,0,0,0,0,0,0,0,0,-1,1245,1338,0,0
28,-314,0,0,0,0,0,0,0,0,0,-1,1252,1338,0,0
35,-314,0,0,0,0,0,0,0,0,0,-1,1259,1338,0,0
42,-314,0,0,0,0,0,0,0,0,0,-1,1266,1338,0,0
49,-314,0,0,0,0,0,0,0,0,0,-1,1273,1338,0,0
56,-314,0,0,0,0,0,0,0,0,0,-1,1280,1338,0,0
63,-314,0,0,0,0,0,0,0,0,0,-1,1287,1338,0,0
70,-314,0,0,0,0,0,0,0,0,0,-1,1294,1338,0,0
77,-314,0,0,0,0,0,0,0,0,0,-1,1301,1338,0,0
84,-314,0,0,0,0,0,0,0,0,0,-1,1308,1338,0,0
91,-314,0,0,0,0,0,0,0,0,0,-1,1315,1338,0,0
98,-314,0,0,0,0,0,0,0,0,0,-1,1322,1338,0,0
105,-314,0,0,0,0,0,0,0,0,0,-1,1329,1338,0,0
112,-314,0,0,0,0,0,0,0,0,0,-1,1336,1338,0,0
119,-314,0,0,0,0,0,0,0,0,0,-1,1343,1338,0,0
126,-314,0,0,0,0,0,0,0,0,0,-1,1350,1338,0,0
133,-314,0,0,0,0,0,0,0,0,0,-1,1357,1338,0,0
140,-314,0,0,0,0,0,0,0,0,0,-1,1364,1338,0,0
147,-314,0,0,0,0,0,0,0,0,0,-1,1371,1338,0,0
154,-314,0,0,0,0,0,0,0,0,0,-1,1378,1338,0,0
161,-314,0,0,0,0,0,0,0,0,0,-1,1385,1338,0,0
168,-314,0,0,0,0,0,0,0,0,0,-1,1392,1338,0,0
175,-314,0,0,0,0,0,0,0,0,0,-1,1399,1338,0,0
182,-314,0,0,0,0,0,0,0,0,0,-1,1406,1338,0,0
189,-314,0,0,0,0,0,0,0,0,0,-1,1413,1338,0,0
196,-314,0,0,0,0,0,0,0,0,0,-1,1420,1338,0,0
203,-314,0,0,0,0,0,0,0,0,0,-1,1427,1338,0,0
210,-314,0,0,0,0,0,0,0,0,0,-1,1434,1338,0,0
217,-314,0,0,0,0,0,0,0,0,0,-1,1441,1338,0,0
224,-314,0,0,0,0,0,0,0,0,0,-1,1448,1338,0,0
231,-314,0,0,0,0,0,0,0,0,0,-1,1455,1338,0,0
238,-314,0,0,0,0,0,0,0,0,0,-1,1462,1338,0,0
245,-314,0,0,0,0,0,0,0,0,0,-1,1469,1338,0,0
252,-314,0,0,0,0,0,0,0,0,0,-1,1476,1338,0,0
259,-314,0,0,0,0,0,0,0,0,0,-1,1483,1338,0,0
266,-314,0,0,0,0,0,0,0,0,0,-1,1490,1338,0,0
273,-314,0,0,0,0,0,0,0,0,0,-1,1497,1338,0,0
280,-314,0,0,0,0,0,0,0,0,0,-1,1504,1338,0,0
287,-314,0,0,0,0,0,0,0,0,0,-1,1511,1338,0,0
294,-314,0,0,0,0,0,0,0,0,0,-1,1518,1338,0,0
301,-314,0,0,0,0,0,0,0,0,0,-1,1525,1338,0,0
308,-314,0,0,0,0,0,0,0,0,0,-1,1532,1338,0,0
315,-314,0,0,0,0,0,0,0,0,0,-1,1539,1338,0,0
322,-314,0,0,0,0,0,0,0,0,0,-1,1546,1338,0,0
329,-314,0,0,0,0,0,0,0,0,0,-1,1553,1338,0,0
336,-314,0,0,0,0,0,0,0,0,0,-1,1560,1338,0,0
343,-314,0,0,0,0,0,0,0,0,0,-1,1567,1338,0,0
350,-314,0,0,0,0,0,0,0,0,0,-1,1574,1338,0,0
357,-314,0,0,0,0,0,0,0,0,0,-1,1581,1338,0,0
364,-314,0,0,0,0,0,0,0,0,0,-1,1588,1338,0,0
371,-314,0,0,0,0,0,0,0,0,0,-1,1595,1338,0,0
378,-314,0,0,0,0,0,0,0,0,0,-1,1602,1338,0,0
385,-314,0,0,0,0,0,0,0,0,0,-1,1609,1338,0,0
392,-314,0,0,0,0,0,0,0,0,0,-1,1616,1338,0,0
399,-314,0,0,0,0,0,0,0,0,0,-1,1623,1338,0,0
406,-314,0,0,0,0,0,0,0,0,0,-1,1630,1338,0,0
413,-314,0,0,0,0,0,0,0,0,0,-1,1637,1338,0,0
420,-314,0,0,0,0,0,0,0,0,0,-1,1644,1338,0,0
427,-314,0,0,0,0,0,0,0,0,0,-1,1651,1338,0,0
434,-314,0,0,0,0,0,0,0,0,0,-1,1658,1338,0,0
441,-314,0,0,0,0,0,0,0,0,0,-1,1665,1338,0,0
448,-314,0,0,0,0,0,0,0,0,0,-1,1672,1338,0,0
455,-314,0,0,0,0,0,0,0,0,0,-1,1679,1338,0,0
462,-314,0,0,0,0,0,0,0,0,0,-1,1686,1338,0,0
469,-314,0,0,0,0,0,0,0,0,0,-1,1693,1338,0,0
476,-314,0,0,0,0,0,0,0,0,0,-1,1700,1338,0,0
483,-314,0,0,0,0,0,0,0,0,0,-1,1707,1338,0,0
490,-314,0,0,0,0,0,0,0,0,0,-1,1714,1338,0,0
497,-314,0,0,0,0,0,0,0,0,0,-1,1721,1338,0,0
504,-314,0,0,0,0,0,0,0,0,0,-1,1728,1338,0,0
511,-314,0,0,0,0,0,0,0,0,0,-1,1735,1338,0,0
518,-314,0,0,0,0,0,0,0,0,0,-1,1742,1338,0,0
525,-314,0,0,0,0,0,0,0,0,0,-1,1749,1338,0,0
532,-314,0,0,0,0,0,0,0,0,0,-1,1756,1338,0,0
539,-314,0,0,0,0,0,0,0,0,0,-1,1763,1338,0,0
546,-314,0,0,0,0,0,0,0,0,0,-1,1770,1338,0,0
553,-314,0,0,0,0,0,0,0,0,0,-1,1777,1338,0,0
560,-314,0,0,0,0,0,0,0,0,0,-1,1784,1338,0,0
567,-314,0,0,0,0,0,0,0,0,0,-1,1791,1338,0,0
574,-314,0,0,0,0,0,0,0,0,0,-1,1798,1338,0,0
581,-314,61.8267,2.02466,0,0,0,0,0,0,0,-1,1805,1338,61.8267,-2.02467
588,-314,61.4409,1.81555,-0.0798424,0.0125178,0.00253328,0.0125872,-0.0799118,1.5434,0.057928,0.0471487,1812,1338,61.441,-1.81552
595,-314,61.0155,1.63379,-0.0692958,0.0163319,0.00286994,0.016428,-0.0693919,1.53733,0.0525994,0.0466273,1819,1338,61.0155,-1.63379
602,-314,60.5292,1.44434,-0.0563564,0.0172202,0.00247776,0.0173035,-0.0564397,1.53717,0.0445294,0.0477499,1826,1338,60.5292,-1.44435
609,-314,60.2225,1.27014,0,0,0,0,0,0,0,-1,1833,1338,60.2225,-1.27017
616,-314,48.1149,3.005,0,0,0,0,0,0,0,-1,1840,1338,48.1149,-3.00505
623,-314,38.7728,2.71741,0,0,0,0,0,0,0,-1,1847,1338,38.7728,-2.71737
630,-314,29.4308,6.23206,0,0,0,0,0,0,0,-1,1854,1338,29.4308,-6.23202
637,-314,22.1349,5.16418,0,0,0,0,0,0,0,-1,1861,1338,22.1349,-5.16414
644,-314,18.7517,6.2605,0,0,0,0,0,0,0,-1,1868,1338,18.7517,-6.26053
651,-314,23.1317,8.005,0,0,0,0,0,0,0,-1,1875,1338,23.1317,-8.00506
658,-314,39.5261,14.8583,0,0,0,0,0,0,0,-1,1882,1338,39.5261,-14.8582
665,-314,39.4475,14.3085,0.00258144,0.0031934,0.00199961,0.00491031,0.000864534,0.861319,0.0030268,0.0320394,1889,1338,39.4475,-14.3085
672,-314,39.4661,13.7086,0.00174344,0.000279626,0.00146694,0.00265092,-0.000627858,0.554001,0.00200953,0.013127,1896,1338,39.4661,-13.7087
679,-314,39.4395,13.0764,0.0012513,-0.00155646,0.000540737,0.00135184,-0.001657,0.18383,0.00174013,0.0108182,1903,1338,39.4394,-13.0764
686,-314,39.399,12.4729,0.00115297,-0.000452844,-0.000272392,0.00119791,-0.000497791,-0.163536,0.00100645,0.0123868,1910,1338,39.399,-12.4729
693,-314,39.3762,11.8557,0.00119868,-0.000369542,0.000107718,0.00120604,-0.000376907,0.0682609,0.000954791,0.0127546,1917,1338,39.3762,-11.8557
700,-314,39.3732,11.226,0.00116843,-0.000357169,0.000364746,0.00125115,-0.000439889,0.223014,0.00101308,0.0148636,1924,1338,39.3732,-11.2259
707,-314,39.3723,10.6294,0.00108837,-0.000318003,0.000654114,0.00134557,-0.0005752,0.37463,0.0011383,0.0131568,1931,1338,39.3724,-10.6294
714,-314,39.3297,10.0764,0.000923121,-0.000254386,0.000988432,0.00148486,-0.000816123,0.516793,0.00134704,0.0111115,1938,1338,39.3297,-10.0764
721,-314,39.313,9.52893,0.000690257,-0.000201411,0.00139171,0.0017058,-0.00121696,0.630388,0.0016953,0.0268718,1945,1338,39.313,-9.52888
728,-314,39.5981,9.28345,0,0,0,0,0,0,0,-1,1952,1338,39.5981,-9.28342
735,-314,26.3665,6.21582,0,0,0,0,0,0,0,-1,1959,1338,26.3664,-6.21581
742,-314,26.2235,6.0166,0,0,0,0,0,0,0,-1,1966,1338,26.2235,-6.01662
749,-314,26.2223,5.47046,0,0,0,0,0,0,0,-1,1973,1338,26.2223,-5.47041
756,-314,24.2521,5.93408,0,0,0,0,0,0,0,-1,1980,1338,24.252,-5.93413
763,-314,19.2207,4.07239,0,0,0,0,0,0,0,-1,1987,1338,19.2206,-4.07239
770,-314,0,0,0,0,0,0,0,0,0,-1,1994,1338,0,0
777,-314,0,0,0,0,0,0,0,0,0,-1,2001,1338,0,0
784,-314,0,0,0,0,0,0,0,0,0,-1,2008,1338,0,0
791,-314,0,0,0,0,0,0,0,0,0,-1,2015,1338,0,0
798,-314,0,0,0,0,0,0,0,0,0,-1,2022,1338,0,0
805,-314,0,0,0,0,0,0,0,0,0,-1,2029,1338,0,0
812,-314,0,0,0,0,0,0,0,0,0,-1,2036,1338,0,0
-700,-321,0,0,0,0,0,0,0,0,0,-1,524,1345,0,0
-693,-321,0,0,0,0,0,0,0,0,0,-1,531,1345,0,0
-686,-321,0,0,0,0,0,0,0,0,0,-1,538,1345,0,0
-679,-321,0,0,0,0,0,0,0,0,0,-1,545,1345,0,0
-672,-321,0,0,0,0,0,0,0,0,0,-1,552,1345,0,0
-665,-321,0,0,0,0,0,0,0,0,0,-1,559,1345,0,0
-658,-321,0,0,0,0,0,0,0,0,0,-1,566,1345,0,0
-651,-321,0,0,0,0,0,0,0,0,0,-1,573,1345,0,0
-644,-321,-58.7329,10.2313,0,0,0,0,0,0,0,-1,580,1345,-58.7329,-10.2313
-637,-321,-59.9981,9.06421,0,0,0,0,0,0,0,-1,587,1345,-59.9981,-9.06417
-630,-321,-61.377,8.07166,0,0,0,0,0,0,0,-1,594,1345,-61.3769,-8.07168
-623,-321,-13.2242,3.14148,0,0,0,0,0,0,0,-1,601,1345,-13.2243,-3.14146
-616,-321,-11.6754,3.13794,0,0,0,0,0,0,0,-1,608,1345,-11.6754,-3.13789
-609,-321,-7.95209,1.14758,0,0,0,0,0,0,0,-1,615,1345,-7.95208,-1.14757
-602,-321,-8.85791,2.50049,0,0,0,0,0,0,0,-1,622,1345,-8.85791,-2.50048
-595,-321,-19.8463,5.36584,0,0,0,0,0,0,0,-1,629,1345,-19.8462,-5.36589
-588,-321,-22.7974,7.34924,0,0,0,0,0,0,0,-1,636,1345,-22.7974,-7.34926
-581,-321,-22.6392,8.08215,0.00316417,0.00169692,0.00122002,0.00385416,0.00100694,0.514703,0.0023082,0.0155375,643,1345,-22.6392,-8.08218
-574,-321,-22.6951,8.74377,0.00276914,0.00129608,0.00100455,0.00327824,0.00078698,0.469069,0.00197611,0.0157557,650,1345,-22.6951,-8.74373
-567,-321,-22.7158,9.40222,0.00263672,0.000913863,0.000872574,0.00300144,0.000549141,0.395914,0.00184535,0.0230809,657,1345,-22.7157,-9.40217
-560,-321,-22.7104,10.0894,0.00273624,0.000553527,0.000836948,0.00302021,0.00026955,0.327112,0.00192991,0.0272498,664,1345,-22.7104,-10.0894
-553,-321,-22.7579,10.6992,0.00305653,0.000214052,0.000888723,0.00331152,-4.094e-05,0.279413,0.00222145,0.0277476,671,1345,-22.758,-10.6992
-546,-321,-22.7692,11.3347,0.00359481,-0.000130569,0.00101422,0.00385303,-0.000388789,0.249303,0.0027076,0.0279861,678,1345,-22.7691,-11.3347
-539,-321,-22.7919,11.9773,0.00437833,-0.000442128,0.00124548,0.00468111,-0.000744907,0.238477,0.00339638,0.026268,685,1345,-22.7919,-11.9773
-532,-321,-22.7371,12.6113,0.00555199,-0.000688674,0.00161047,0.00594308,-0.00107976,0.23823,0.0043667,0.0360357,692,1345,-22.737,-12.6113
-525,-321,-22.7124,13.2402,0,0,0,0,0,0,0,-1,699,1345,-22.7124,-13.2402
-518,-321,-10.3564,6.75696,0,0,0,0,0,0,0,-1,706,1345,-10.3564,-6.75694
-511,-321,-9.3302,5.29297,0,0,0,0,0,0,0,-1,713,1345,-9.33023,-5.29294
-504,-321,-10.4713,0.0145264,0,0,0,0,0,0,0,-1,720,1345,-10.4713,-0.0145296
-497,-321,-9.96771,0.313599,0,0,0,0,0,0,0,-1,727,1345,-9.96769,-0.313618
-490,-321,-10.7631,0.973511,0,0,0,0,0,0,0,-1,734,1345,-10.7631,-0.97353
-483,-321,-17.5908,0.2323,0,0,0,0,0,0,0,-1,741,1345,-17.5908,-0.232355
-476,-321,-17.2915,0.297363,0,0,0,0,0,0,0,-1,748,1345,-17.2915,-0.297342
-469,-321,-17.2441,0.478027,0,0,0,0,0,0,0,-1,755,1345,-17.2441,-0.477994
-462,-321,-17.1672,0.526489,0,0,0,0,0,0,0,-1,762,1345,-17.1672,-0.526533
-455,-321,0,0,0,0,0,0,0,0,0,-1,769,1345,0,0
-448,-321,0,0,0,0,0,0,0,0,0,-1,776,1345,0,0
-441,-321,0,0,0,0,0,0,0,0,0,-1,783,1345,0,0
-434,-321,0,0,0,0,0,0,0,0,0,-1,790,1345,0,0
-427,-321,0,0,0,0,0,0,0,0,0,-1,797,1345,0,0
-420,-321,0,0,0,0,0,0,0,0,0,-1,804,1345,0,0
-413,-321,0,0,0,0,0,0,0,0,0,-1,811,1345,0,0
-406,-321,0,0,0,0,0,0,0,0,0,-1,818,1345,0,0
-399,-321,0,0,0,0,0,0,0,0,0,-1,825,1345,0,0
-392,-321,0,0,0,0,0,0,0,0,0,-1,832,1345,0,0
-385,-321,0,0,0,0,0,0,0,0,0,-1,839,1345,0,0
-378,-321,0,0,0,0,0,0,0,0,0,-1,846,1345,0,0
-371,-321,0,0,0,0,0,0,0,0,0,-1,853,1345,0,0
-364,-321,0,0,0,0,0,0,0,0,0,-1,860,1345,0,0
-357,-321,0,0,0,0,0,0,0,0,0,-1,867,1345,0,0
-350,-321,0,0,0,0,0,0,0,0,0,-1,874,1345,0,0
-343,-321,0,0,0,0,0,0,0,0,0,-1,881,1345,0,0
-336,-321,0,0,0,0,0,0,0,0,0,-1,888,1345,0,0
-329,-321,0,0,0,0,0,0,0,0,0,-1,895,1345,0,0
-322,-321,0,0,0,0,0,0,0,0,0,-1,902,1345,0,0
-315,-321,0,0,0,0,0,0,0,0,0,-1,909,1345,0,0
-308,-321,0,0,0,0,0,0,0,0,0,-1,916,1345,0,0
-301,-321,0,0,0,0,0,0,0,0,0,-1,923,1345,0,0
-294,-321,0,0,0,0,0,0,0,0,0,-1,930,1345,0,0
-287,-321,0,0,0,0,0,0,0,0,0,-1,937,1345,0,0
-280,-321,0,0,0,0,0,0,0,0,0,-1,944,1345,0,0
-273,-321,0,0,0,0,0,0,0,0,0,-1,951,1345,0,0
-266,-321,0,0,0,0,0,0,0,0,0,-1,958,1345,0,0
-259,-321,0,0,0,0,0,0,0,0,0,-1,965,1345,0,0
-252,-321,0,0,0,0,0,0,0,0,0,-1,972,1345,0,0
-245,-321,0,0,0,0,0,0,0,0,0,-1,979,1345,0,0
-238,-321,0,0,0,0,0,0,0,0,0,-1,986,1345,0,0
-231,-321,0,0,0,0,0,0,0,0,0,-1,993,1345,0,0
-224,-321,0,0,0,0,0,0,0,0,0,-1,1000,1345,0,0
-217,-321,0,0,0,0,0,0,0,0,0,-1,1007,1345,0,0
-210,-321,0,0,0,0,0,0,0,0,0,-1,1014,1345,0,0
-203,-321,0,0,0,0,0,0,0,0,0,-1,1021,1345,0,0
-196,-321,0,0,0,0,0,0,0,0,0,-1,1028,1345,0,0
-189,-321,0,0,0,0,0,0,0,0,0,-1,1035,1345,0,0
-182,-321,0,0,0,0,0,0,0,0,0,-1,1042,1345,0,0
-175,-321,0,0,0,0,0,0,0,0,0,-1,1049,1345,0,0
-168,-321,0,0,0,0,0,0,0,0,0,-1,1056,1345,0,0
-161,-321,0,0,0,0,0,0,0,0,0,-1,1063,1345,0,0
-154,-321,0,0,0,0,0,0,0,0,0,-1,1070,1345,0,0
-147,-321,0,0,0,0,0,0,0,0,0,-1,1077,1345,0,0
-140,-321,0,0,0,0,0,0,0,0,0,-1,1084,1345,0,0
-133,-321,0,0,0,0,0,0,0,0,0,-1,1091,1345,0,0
-126,-321,0,0,0,0,0,0,0,0,0,-1,1098,1345,0,0
-119,-321,0,0,0,0,0,0,0,0,0,-1,1105,1345,0,0
-112,-321,0,0,0,0,0,0,0,0,0,-1,1112,1345,0,0
-105,-321,0,0,0,0,0,0,0,0,0,-1,1119,1345,0,0
-98,-321,0,0,0,0,0,0,0,0,0,-1,1126,1345,0,0
-91,-321,0,0,0,0,0,0,0,0,0,-1,1133,1345,0,0
-84,-321,0,0,0,0,0,0,0,0,0,-1,1140,1345,0,0
-77,-321,0,0,0,0,0,0,0,0,0,-1,1147,1345,0,0
-70,-321,0,0,0,0,0,0,0,0,0,-1,1154,1345,0,0
-63,-321,0,0,0,0,0,0,0,0,0,-1,1161,1345,0,0
-56,-321,0,0,0,0,0,0,0,0,0,-1,1168,1345,0,0
-49,-321,0,0,0,0,0,0,0,0,0,-1,1175,1345,0,0
-42,-321,0,0,0,0,0,0,0,0,0,-1,1182,1345,0,0
-35,-321,0,0,0,0,0,0,0,0,0,-1,1189,1345,0,0
-28,-321,0,0,0,0,0,0,0,0,0,-1,1196,1345,0,0
-21,-321,0,0,0,0,0,0,0,0,0,-1,1203,1345,0,0
-14,-321,0,0,0,0,0,0,0,0,0,-1,1210,1345,0,0
-7,-321,0,0,0,0,0,0,0,0,0,-1,1217,1345,0,0
0,-321,0,0,0,0,0,0,0,0,0,-1,1224,1345,0,0
7,-321,0,0,0,0,0,0,0,0,0,-1,1231,1345,0,0
14,-321,0,0,0,0,0,0,0,0,0,-1,1238,1345,0,0
21,-321,0,0,0,0,0,0,0,0,0,-1,1245,1345,0,0
28,-321,0,0,0,0,0,0,0,0,0,-1,1252,1345,0,0
35,-321,0,0,0,0,0,0,0,0,0,-1,1259,1345,0,0
42,-321,0,0,0,0,0,0,0,0,0,-1,1266,1345,0,0
49,-321,0,0,0,0,0,0,0,0,0,-1,1273,1345,0,0
56,-321,0,0,0,0,0,0,0,0,0,-1,1280,1345,0,0
63,-321,0,0,0,0,0,0,0,0,0,-1,1287,1345,0,0
70,-321,0,0,0,0,0,0,0,0,0,-1,1294,1345,0,0
77,-321,0,0,0,0,0,0,0,0,0,-1,1301,1345,0,0
84,-321,0,0,0,0,0,0,0,0,0,-1,1308,1345,0,0
91,-321,0,0,0,0,0,0,0,0,0,-1,1315,1345,0,0
98,-321,0,0,0,0,0,0,0,0,0,-1,1322,1345,0,0
105,-321,0,0,0,0,0,0,0,0,0,-1,1329,1345,0,0
112,-321,0,0,0,0,0,0,0,0,0,-1,1336,1345,0,0
119,-321,0,0,0,0,0,0,0,0,0,-1,1343,1345,0,0
126,-321,0,0,0,0,0,0,0,0,0,-1,1350,1345,0,0
133,-321,0,0,0,0,0,0,0,0,0,-1,1357,1345,0,0
140,-321,0,0,0,0,0,0,0,0,0,-1,1364,1345,0,0
147,-321,0,0,0,0,0,0,0,0,0,-1,1371,1345,0,0
154,-321,0,0,0,0,0,0,0,0,0,-1,1378,1345,0,0
161,-321,0,0,0,0,0,0,0,0,0,-1,1385,1345,0,0
168,-321,0,0,0,0,0,0,0,0,0,-1,1392,1345,0,0
175,-321,0,0,0,0,0,0,0,0,0,-1,1399,1345,0,0
182,-321,0,0,0,0,0,0,0,0,0,-1,1406,1345,0,0
189,-321,0,0,0,0,0,0,0,0,0,-1,1413,1345,0,0
196,-321,0,0,0,0,0,0,0,0,0,-1,1420,1345,0,0
203,-321,0,0,0,0,0,0,0,0,0,-1,1427,1345,0,0
210,-321,0,0,0,0,0,0,0,0,0,-1,1434,1345,0,0
217,-321,0,0,0,0,0,0,0,0,0,-1,1441,1345,0,0
224,-321,0,0,0,0,0,0,0,0,0,-1,1448,1345,0,0
231,-321,0,0,0,0,0,0,0,0,0,-1,1455,1345,0,0
238,-321,0,0,0,0,0,0,0,0,0,-1,1462,1345,0,0
245,-321,0,0,0,0,0,0,0,0,0,-1,1469,1345,0,0
252,-321,0,0,0,0,0,0,0,0,0,-1,1476,1345,0,0
259,-321,0,0,0,0,0,0,0,0,0,-1,1483,1345,0,0
266,-321,0,0,0,0,0,0,0,0,0,-1,1490,1345,0,0
273,-321,0,0,0,0,0,0,0,0,0,-1,1497,1345,0,0
280,-321,0,0,0,0,0,0,0,0,0,-1,1504,1345,0,0
287,-321,0,0,0,0,0,0,0,0,0,-1,1511,1345,0,0
294,-321,0,0,0,0,0,0,0,0,0,-1,1518,1345,0,0
301,-321,0,0,0,0,0,0,0,0,0,-1,1525,1345,0,0
308,-321,0,0,0,0,0,0,0,0,0,-1,1532,1345,0,0
315,-321,0,0,0,0,0,0,0,0,0,-1,1539,1345,0,0
322,-321,0,0,0,0,0,0,0,0,0,-1,1546,1345,0,0
329,-321,0,0,0,0,0,0,0,0,0,-1,1553,1345,0,0
336,-321,0,0,0,0,0,0,0,0,0,-1,1560,1345,0,0
343,-321,0,0,0,0,0,0,0,0,0,-1,1567,1345,0,0
350,-321,0,0,0,0,0,0,0,0,0,-1,1574,1345,0,0
357,-321,0,0,0,0,0,0,0,0,0,-1,1581,1345,0,0
364,-321,0,0,0,0,0,0,0,0,0,-1,1588,1345,0,0
371,-321,0,0,0,0,0,0,0,0,0,-1,1595,1345,0,0
378,-321,0,0,0,0,0,0,0,0,0,-1,1602,1345,0,0
385,-321,0,0,0,0,0,0,0,0,0,-1,1609,1345,0,0
392,-321,0,0,0,0,0,0,0,0,0,-1,1616,1345,0,0
399,-321,0,0,0,0,0,0,0,0,0,-1,1623,1345,0,0
406,-321,0,0,0,0,0,0,0,0,0,-1,1630,1345,0,0
413,-321,0,0,0,0,0,0,0,0,0,-1,1637,1345,0,0
420,-321,0,0,0,0,0,0,0,0,0,-1,1644,1345,0,0
427,-321,0,0,0,0,0,0,0,0,0,-1,1651,1345,0,0
434,-321,0,0,0,0,0,0,0,0,0,-1,1658,1345,0,0
441,-321,0,0,0,0,0,0,0,0,0,-1,1665,1345,0,0
448,-321,0,0,0,0,0,0,0,0,0,-1,1672,1345,0,0
455,-321,0,0,0,0,0,0,0,0,0,-1,1679,1345,0,0
462,-321,0,0,0,0,0,0,0,0,0,-1,1686,1345,0,0
469,-321,0,0,0,0,0,0,0,0,0,-1,1693,1345,0,0
476,-321,0,0,0,0,0,0,0,0,0,-1,1700,1345,0,0
483,-321,0,0,0,0,0,0,0,0,0,-1,1707,1345,0,0
490,-321,0,0,0,0,0,0,0,0,0,-1,1714,1345,0,0
497,-321,0,0,0,0,0,0,0,0,0,-1,1721,1345,0,0
504,-321,0,0,0,0,0,0,0,0,0,-1,1728,1345,0,0
511,-321,0,0,0,0,0,0,0,0,0,-1,1735,1345,0,0
518,-321,0,0,0,0,0,0,0,0,0,-1,1742,1345,0,0
525,-321,0,0,0,0,0,0,0,0,0,-1,1749,1345,0,0
532,-321,0,0,0,0,0,0,0,0,0,-1,1756,1345,0,0
539,-321,0,0,0,0,0,0,0,0,0,-1,1763,1345,0,0
546,-321,0,0,0,0,0,0,0,0,0,-1,1770,1345,0,0
553,-321,0,0,0,0,0,0,0,0,0,-1,1777,1345,0,0
560,-321,0,0,0,0,0,0,0,0,0,-1,1784,1345,0,0
567,-321,0,0,0,0,0,0,0,0,0,-1,1791,1345,0,0
574,-321,0,0,0,0,0,0,0,0,0,-1,1798,1345,0,0
581,-321,59.2018,1.7915,0,0,0,0,0,0,0,-1,1805,1345,59.2017,-1.79155
588,-321,61.1644,1.78894,0,0,0,0,0,0,0,-1,1812,1345,61.1644,-1.78899
595,-321,60.7913,1.61035,0,0,0,0,0,0,0,-1,1819,1345,60.7913,-1.61039
602,-321,60.3523,1.24133,0,0,0,0,0,0,0,-1,1826,1345,60.3523,-1.2413
609,-321,48.311,3.39575,0,0,0,0,0,0,0,-1,1833,1345,48.311,-3.39571
616,-321,37.8107,2.58704,0,0,0,0,0,0,0,-1,1840,1345,37.8106,-2.58705
623,-321,37.6854,3.68933,0,0,0,0,0,0,0,-1,1847,1345,37.6854,-3.68931
630,-321,23.6674,4.34106,0,0,0,0,0,0,0,-1,1854,1345,23.6674,-4.34112
637,-321,21.7925,6.79224,0,0,0,0,0,0,0,-1,1861,1345,21.7925,-6.7922
644,-321,16.8844,6.71973,0,0,0,0,0,0,0,-1,1868,1345,16.8844,-6.71971
651,-321,27.4924,10.0319,0,0,0,0,0,0,0,-1,1875,1345,27.4924,-10.0319
658,-321,38.792,14.9232,0,0,0,0,0,0,0,-1,1882,1345,38.792,-14.9232
665,-321,38.8431,14.3441,0.00212744,0.00348892,0.00221553,0.00512593,0.000490429,0.93445,0.0032661,0.0242232,1889,1345,38.8431,-14.3441
672,-321,38.8649,13.7261,0.00142249,0.000792154,0.00143838,0.00257982,-0.000365176,0.677545,0.00185364,0.0139098,1896,1345,38.8649,-13.726
679,-321,38.8309,13.1195,0.00113323,-0.00072636,0.000543657,0.00128051,-0.000873636,0.264549,0.00125107,0.0117525,1903,1345,38.8309,-13.1195
686,-321,38.7761,12.5105,0.00120657,-0.000218001,-0.000155152,0.00122328,-0.000234703,-0.107236,0.000903965,0.0121421,1910,1345,38.7761,-12.5105
693,-321,38.7554,11.9093,0.00140954,-0.000217665,-2.19843e-05,0.00140984,-0.000217962,-0.0135072,0.00102034,0.0132654,1917,1345,38.7554,-11.9093
700,-321,38.7595,11.2887,0.00156744,-0.000176475,0.000140698,0.00157872,-0.000187753,0.0799898,0.00112032,0.0136095,1924,1345,38.7595,-11.2886
707,-321,38.7512,10.6798,0.00165011,-9.72832e-05,0.000340895,0.00171426,-0.000161433,0.186004,0.00120027,0.0145268,1931,1345,38.7512,-10.6799
714,-321,38.7159,10.0823,0.00162916,2.79685e-05,0.000584603,0.00181988,-0.000162755,0.315357,0.00127099,0.013541,1938,1345,38.7159,-10.0822
721,-321,38.6167,9.48132,0.00151336,0.000127676,0.000932374,0.00198213,-0.000341098,0.465865,0.00144857,0.042018,1945,1345,38.6167,-9.48137
728,-321,38.6146,8.95117,0,0,0,0,0,0,0,-1,1952,1345,38.6147,-8.95119
735,-321,22.0081,5.65479,0,0,0,0,0,0,0,-1,1959,1345,22.008,-5.65481
742,-321,24.5398,5.05725,0,0,0,0,0,0,0,-1,1966,1345,24.5398,-5.05729
749,-321,24.0675,5.4458,0,0,0,0,0,0,0,-1,1973,1345,24.0675,-5.44581
756,-321,19.6251,4.98315,0,0,0,0,0,0,0,-1,1980,1345,19.6251,-4.98311
763,-321,19.6747,4.61438,0,0,0,0,0,0,0,-1,1987,1345,19.6747,-4.61436
770,-321,0,0,0,0,0,0,0,0,0,-1,1994,1345,0,0
777,-321,0,0,0,0,0,0,0,0,0,-1,2001,1345,0,0
784,-321,0,0,0,0,0,0,0,0,0,-1,2008,1345,0,0
791,-321,0,0,0,0,0,0,0,0,0,-1,2015,1345,0,0
798,-321,0,0,0,0,0,0,0,0,0,-1,2022,1345,0,0
805,-321,0,0,0,0,0,0,0,0,0,-1,2029,1345,0,0
812,-321,0,0,0,0,0,0,0,0,0,-1,2036,1345,0,0
-700,-328,0,0,0,0,0,0,0,0,0,-1,524,1352,0,0
-693,-328,0,0,0,0,0,0,0,0,0,-1,531,1352,0,0
-686,-328,0,0,0,0,0,0,0,0,0,-1,538,1352,0,0
-679,-328,0,0,0,0,0,0,0,0,0,-1,545,1352,0,0
-672,-328,0,0,0,0,0,0,0,0,0,-1,552,1352,0,0
-665,-328,0,0,0,0,0,0,0,0,0,-1,559,1352,0,0
-658,-328,0,0,0,0,0,0,0,0,0,-1,566,1352,0,0
-651,-328,0,0,0,0,0,0,0,0,0,-1,573,1352,0,0
-644,-328,0,0,0,0,0,0,0,0,0,-1,580,1352,0,0
-637,-328,-61.3883,10.1125,0,0,0,0,0,0,0,-1,587,1352,-61.3883,-10.1126
-630,-328,-62.8012,9.14563,0,0,0,0,0,0,0,-1,594,1352,-62.8012,-9.14564
-623,-328,-10.7739,4.55042,0,0,0,0,0,0,0,-1,601,1352,-10.7739,-4.55041
-616,-328,-8.22198,-0.25708,0,0,0,0,0,0,0,-1,608,1352,-8.22201,0.257067
-609,-328,-7.87439,0.192871,0,0,0,0,0,0,0,-1,615,1352,-7.87441,-0.192822
-602,-328,-7.63062,1.31665,0,0,0,0,0,0,0,-1,622,1352,-7.63064,-1.3166
-595,-328,-9.42639,2.93494,0,0,0,0,0,0,0,-1,629,1352,-9.42638,-2.93499
-588,-328,-22.119,7.22217,0,0,0,0,0,0,0,-1,636,1352,-22.119,-7.22218
-581,-328,-22.0223,8.05298,0.00381517,0.00221929,0.00166651,0.00486492,0.00116954,0.562122,0.00293224,0.0271046,643,1352,-22.0223,-8.05299
-574,-328,-22.026,8.75879,0.00315464,0.00168239,0.00132185,0.00393151,0.000905519,0.53134,0.00237736,0.0152436,650,1352,-22.026,-8.75875
-567,-328,-22.0357,9.427,0.00282005,0.00120726,0.00108484,0.00336538,0.000661929,0.465789,0.00205872,0.0217561,657,1352,-22.0357,-9.42705
-560,-328,-22.0251,10.1566,0.00274013,0.000786177,0.000963266,0.00313514,0.00039116,0.389166,0.00197268,0.0303102,664,1352,-22.0251,-10.1566
-553,-328,-22.0526,10.7729,0.00287968,0.000399259,0.00093307,0.00319148,8.74575e-05,0.322501,0.00209911,0.0311068,671,1352,-22.0526,-10.773
-546,-328,-22.1098,11.384,0.00324116,4.01234e-05,0.000987604,0.00352134,-0.000240055,0.276432,0.00243153,0.0288072,678,1352,-22.1098,-11.384
-539,-328,-22.1587,12.0369,0.00382365,-0.000276592,0.00114133,0.00411994,-0.000572877,0.253991,0.00295615,0.0243614,685,1352,-22.1587,-12.0368
-532,-328,-22.1385,12.6892,0.00471621,-0.000528205,0.00141354,0.00507294,-0.000884937,0.247205,0.00371227,0.0192316,692,1352,-22.1385,-12.6892
-525,-328,-22.16,13.3729,0.00586502,-0.000865145,0.00175501,0.00629517,-0.0012953,0.240364,0.00468858,0.0335492,699,1352,-22.16,-13.3729
-518,-328,-22.2552,14.0581,0,0,0,0,0,0,0,-1,706,1352,-22.2553,-14.0581
-511,-328,-9.39868,7.16113,0,0,0,0,0,0,0,-1,713,1352,-9.39869,-7.16113
-504,-328,-8.60626,-0.905762,0,0,0,0,0,0,0,-1,720,1352,-8.60623,0.905787
-497,-328,-9.29102,-0.0517578,0,0,0,0,0,0,0,-1,727,1352,-9.29104,0.0518175
-490,-328,-10.0663,0.882813,0,0,0,0,0,0,0,-1,734,1352,-10.0663,-0.882795
-483,-328,-10.8181,1.72375,0,0,0,0,0,0,0,-1,741,1352,-10.8181,-1.72374
-476,-328,-16.8951,-0.150757,0,0,0,0,0,0,0,-1,748,1352,-16.8951,0.150795
-469,-328,-16.8412,0.00158691,0,0,0,0,0,0,0,-1,755,1352,-16.8412,-0.00161515
-462,-328,-16.3546,-0.203491,0,0,0,0,0,0,0,-1,762,1352,-16.3545,0.203532
-455,-328,0,0,0,0,0,0,0,0,0,-1,769,1352,0,0
-448,-328,0,0,0,0,0,0,0,0,0,-1,776,1352,0,0
-441,-328,0,0,0,0,0,0,0,0,0,-1,783,1352,0,0
-434,-328,0,0,0,0,0,0,0,0,0,-1,790,1352,0,0
-427,-328,0,0,0,0,0,0,0,0,0,-1,797,1352,0,0
-420,-328,0,0,0,0,0,0,0,0,0,-1,804,1352,0,0
-413,-328,0,0,0,0,0,0,0,0,0,-1,811,1352,0,0
-406,-328,0,0,0,0,0,0,0,0,0,-1,818,1352,0,0
-399,-328,0,0,0,0,0,0,0,0,0,-1,825,1352,0,0
-392,-328,0,0,0,0,0,0,0,0,0,-1,832,1352,0,0
-385,-328,0,0,0,0,0,0,0,0,0,-1,839,1352,0,0
-378,-328,0,0,0,0,0,0,0,0,0,-1,846,1352,0,0
-371,-328,0,0,0,0,0,0,0,0,0,-1,853,1352,0,0
-364,-328,0,0,0,0,0,0,0,0,0,-1,860,1352,0,0
-357,-328,0,0,0,0,0,0,0,0,0,-1,867,1352,0,0
-350,-328,0,0,0,0,0,0,0,0,0,-1,874,1352,0,0
-343,-328,0,0,0,0,0,0,0,0,0,-1,881,1352,0,0
-336,-328,0,0,0,0,0,0,0,0,0,-1,888,1352,0,0
-329,-328,0,0,0,0,0,0,0,0,0,-1,895,1352,0,0
-322,-328,0,0,0,0,0,0,0,0,0,-1,902,1352,0,0
-315,-328,0,0,0,0,0,0,0,0,0,-1,909,1352,0,0
-308,-328,0,0,0,0,0,0,0,0,0,-1,916,1352,0,0
-301,-328,0,0,0,0,0,0,0,0,0,-1,923,1352,0,0
-294,-328,0,0,0,0,0,0,0,0,0,-1,930,1352,0,0
-287,-328,0,0,0,0,0,0,0,0,0,-1,937,1352,0,0
-280,-328,0,0,0,0,0,0,0,0,0,-1,944,1352,0,0
-273,-328,0,0,0,0,0,0,0,0,0,-1,951,1352,0,0
-266,-328,0,0,0,0,0,0,0,0,0,-1,958,1352,0,0
-259,-328,0,0,0,0,0,0,0,0,0,-1,965,1352,0,0
-252,-328,0,0,0,0,0,0,0,0,0,-1,972,1352,0,0
-245,-328,0,0,0,0,0,0,0,0,0,-1,979,1352,0,0
-238,-328,0,0,0,0,0,0,0,0,0,-1,986,1352,0,0
-231,-328,0,0,0,0,0,0,0,0,0,-1,993,1352,0,0
-224,-328,0,0,0,0,0,0,0,0,0,-1,1000,1352,0,0
-217,-328,0,0,0,0,0,0,0,0,0,-1,1007,1352,0,0
-210,-328,0,0,0,0,0,0,0,0,0,-1,1014,1352,0,0
-203,-328,0,0,0,0,0,0,0,0,0,-1,1021,1352,0,0
-196,-328,0,0,0,0,0,0,0,0,0,-1,1028,1352,0,0
-189,-328,0,0,0,0,0,0,0,0,0,-1,1035,1352,0,0
-182,-328,0,0,0,0,0,0,0,0,0,-1,1042,1352,0,0
-175,-328,0,0,0,0,0,0,0,0,0,-1,1049,1352,0,0
-168,-328,0,0,0,0,0,0,0,0,0,-1,1056,1352,0,0
-161,-328,0,0,0,0,0,0,0,0,0,-1,1063,1352,0,0
-154,-328,0,0,0,0,0,0,0,0,0,-1,1070,1352,0,0
-147,-328,0,0,0,0,0,0,0,0,0,-1,1077,1352,0,0
-140,-328,0,0,0,0,0,0,0,0,0,-1,1084,1352,0,0
-133,-328,0,0,0,0,0,0,0,0,0,-1,1091,1352,0,0
-126,-328,0,0,0,0,0,0,0,0,0,-1,1098,1352,0,0
-119,-328,0,0,0,0,0,0,0,0,0,-1,1105,1352,0,0
-112,-328,0,0,0,0,0,0,0,0,0,-1,1112,1352,0,0
-105,-328,0,0,0,0,0,0,0,0,0,-1,1119,1352,0,0
-98,-328,0,0,0,0,0,0,0,0,0,-1,1126,1352,0,0
-91,-328,0,0,0,0,0,0,0,0,0,-1,1133,1352,0,0
-84,-328,0,0,0,0,0,0,0,0,0,-1,1140,1352,0,0
-77,-328,0,0,0,0,0,0,0,0,0,-1,1147,1352,0,0
-70,-328,0,0,0,0,0,0,0,0,0,-1,1154,1352,0,0
-63,-328,0,0,0,0,0,0,0,0,0,-1,1161,1352,0,0
-56,-328,0,0,0,0,0,0,0,0,0,-1,1168,1352,0,0
-49,-328,0,0,0,0,0,0,0,0,0,-1,1175,1352,0,0
-42,-328,0,0,0,0,0,0,0,0,0,-1,1182,1352,0,0
-35,-328,0,0,0,0,0,0,0,0,0,-1,1189,1352,0,0
-28,-328,0,0,0,0,0,0,0,0,0,-1,1196,1352,0,0
-21,-328,0,0,0,0,0,0,0,0,0,-1,1203,1352,0,0
-14,-328,0,0,0,0,0,0,0,0,0,-1,1210,1352,0,0
-7,-328,0,0,0,0,0,0,0,0,0,-1,1217,1352,0,0
0,-328,0,0,0,0,0,0,0,0,0,-1,1224,1352,0,0
7,-328,0,0,0,0,0,0,0,0,0,-1,1231,1352,0,0
14,-328,0,0,0,0,0,0,0,0,0,-1,1238,1352,0,0
21,-328,0,0,0,0,0,0,0,0,0,-1,1245,1352,0,0
28,-328,0,0,0,0,0,0,0,0,0,-1,1252,1352,0,0
35,-328,0,0,0,0,0,0,0,0,0,-1,1259,1352,0,0
42,-328,0,0,0,0,0,0,0,0,0,-1,1266,1352,0,0
49,-328,0,0,0,0,0,0,0,0,0,-1,1273,1352,0,0
56,-328,0,0,0,0,0,0,0,0,0,-1,1280,1352,0,0
63,-328,0,0,0,0,0,0,0,0,0,-1,1287,1352,0,0
70,-328,0,0,0,0,0,0,0,0,0,-1,1294,1352,0,0
77,-328,0,0,0,0,0,0,0,0,0,-1,1301,1352,0,0
84,-328,0,0,0,0,0,0,0,0,0,-1,1308,1352,0,0
91,-328,0,0,0,0,0,0,0,0,0,-1,1315,1352,0,0
98,-328,0,0,0,0,0,0,0,0,0,-1,1322,1352,0,0
105,-328,0,0,0,0,0,0,0,0,0,-1,1329,1352,0,0
112,-328,0,0,0,0,0,0,0,0,0,-1,1336,1352,0,0
119,-328,0,0,0,0,0,0,0,0,0,-1,1343,1352,0,0
126,-328,0,0,0,0,0,0,0,0,0,-1,1350,1352,0,0
133,-328,0,0,0,0,0,0,0,0,0,-1,1357,1352,0,0
140,-328,0,0,0,0,0,0,0,0,0,-1,1364,1352,0,0
147,-328,0,0,0,0,0,0,0,0,0,-1,1371,1352,0,0
154,-328,0,0,0,0,0,0,0,0,0,-1,1378,1352,0,0
161,-328,0,0,0,0,0,0,0,0,0,-1,1385,1352,0,0
168,-328,0,0,0,0,0,0,0,0,0,-1,1392,1352,0,0
175,-328,0,0,0,0,0,0,0,0,0,-1,1399,1352,0,0
182,-328,0,0,0,0,0,0,0,0,0,-1,1406,1352,0,0
189,-328,0,0,0,0,0,0,0,0,0,-1,1413,1352,0,0
196,-328,0,0,0,0,0,0,0,0,0,-1,1420,1352,0,0
203,-328,0,0,0,0,0,0,0,0,0,-1,1427,1352,0,0
210,-328,0,0,0,0,0,0,0,0,0,-1,1434,1352,0,0
217,-328,0,0,0,0,0,0,0,0,0,-1,1441,1352,0,0
224,-328,0,0,0,0,0,0,0,0,0,-1,1448,1352,0,0
231,-328,0,0,0,0,0,0,0,0,0,-1,1455,1352,0,0
238,-328,0,0,0,0,0,0,0,0,0,-1,1462,1352,0,0
245,-328,0,0,0,0,0,0,0,0,0,-1,1469,1352,0,0
252,-328,0,0,0,0,0,0,0,0,0,-1,1476,1352,0,0
259,-328,0,0,0,0,0,0,0,0,0,-1,1483,1352,0,0
266,-328,0,0,0,0,0,0,0,0,0,-1,1490,1352,0,0
273,-328,0,0,0,0,0,0,0,0,0,-1,1497,1352,0,0
280,-328,0,0,0,0,0,0,0,0,0,-1,1504,1352,0,0
287,-328,0,0,0,0,0,0,0,0,0,-1,1511,1352,0,0
294,-328,0,0,0,0,0,0,0,0,0,-1,1518,1352,0,0
301,-328,0,0,0,0,0,0,0,0,0,-1,1525,1352,0,0
308,-328,0,0,0,0,0,0,0,0,0,-1,1532,1352,0,0
315,-328,0,0,0,0,0,0,0,0,0,-1,1539,1352,0,0
322,-328,0,0,0,0,0,0,0,0,0,-1,1546,1352,0,0
329,-328,0,0,0,0,0,0,0,0,0,-1,1553,1352,0,0
336,-328,0,0,0,0,0,0,0,0,0,-1,1560,1352,0,0
343,-328,0,0,0,0,0,0,0,0,0,-1,1567,1352,0,0
350,-328,0,0,0,0,0,0,0,0,0,-1,1574,1352,0,0
357,-328,0,0,0,0,0,0,0,0,0,-1,1581,1352,0,0
364,-328,0,0,0,0,0,0,0,0,0,-1,1588,1352,0,0
371,-328,0,0,0,0,0,0,0,0,0,-1,1595,1352,0,0
378,-328,0,0,0,0,0,0,0,0,0,-1,1602,1352,0,0
385,-328,0,0,0,0,0,0,0,0,0,-1,1609,1352,0,0
392,-328,0,0,0,0,0,0,0,0,0,-1,1616,1352,0,0
399,-328,0,0,0,0,0,0,0,0,0,-1,1623,1352,0,0
406,-328,0,0,0,0,0,0,0,0,0,-1,1630,1352,0,0
413,-328,0,0,0,0,0,0,0,0,0,-1,1637,1352,0,0
420,-328,0,0,0,0,0,0,0,0,0,-1,1644,1352,0,0
427,-328,0,0,0,0,0,0,0,0,0,-1,1651,1352,0,0
434,-328,0,0,0,0,0,0,0,0,0,-1,1658,1352,0,0
441,-328,0,0,0,0,0,0,0,0,0,-1,1665,1352,0,0
448,-328,0,0,0,0,0,0,0,0,0,-1,1672,1352,0,0
455,-328,0,0,0,0,0,0,0,0,0,-1,1679,1352,0,0
462,-328,0,0,0,0,0,0,0,0,0,-1,1686,1352,0,0
469,-328,0,0,0,0,0,0,0,0,0,-1,1693,1352,0,0
476,-328,0,0,0,0,0,0,0,0,0,-1,1700,1352,0,0
483,-328,0,0,0,0,0,0,0,0,0,-1,1707,1352,0,0
490,-328,0,0,0,0,0,0,0,0,0,-1,1714,1352,0,0
497,-328,0,0,0,0,0,0,0,0,0,-1,1721,1352,0,0
504,-328,0,0,0,0,0,0,0,0,0,-1,1728,1352,0,0
511,-328,0,0,0,0,0,0,0,0,0,-1,1735,1352,0,0
518,-328,0,0,0,0,0,0,0,0,0,-1,1742,1352,0,0
525,-328,0,0,0,0,0,0,0,0,0,-1,1749,1352,0,0
532,-328,0,0,0,0,0,0,0,0,0,-1,1756,1352,0,0
539,-328,0,0,0,0,0,0,0,0,0,-1,1763,1352,0,0
546,-328,0,0,0,0,0,0,0,0,0,-1,1770,1352,0,0
553,-328,0,0,0,0,0,0,0,0,0,-1,1777,1352,0,0
560,-328,0,0,0,0,0,0,0,0,0,-1,1784,1352,0,0
567,-328,0,0,0,0,0,0,0,0,0,-1,1791,1352,0,0
574,-328,58.4558,1.34363,0,0,0,0,0,0,0,-1,1798,1352,58.4558,-1.34364
581,-328,58.6575,1.03662,0,0,0,0,0,0,0,-1,1805,1352,58.6575,-1.03663
588,-328,58.8262,0.918213,0,0,0,0,0,0,0,-1,1812,1352,58.8262,-0.918189
595,-328,60.5831,1.52856,0,0,0,0,0,0,0,-1,1819,1352,60.5832,-1.52861
602,-328,48.7734,3.66785,0,0,0,0,0,0,0,-1,1826,1352,48.7734,-3.66782
609,-328,37.0468,1.17407,0,0,0,0,0,0,0,-1,1833,1352,37.0468,-1.17407
616,-328,36.999,2.42859,0,0,0,0,0,0,0,-1,1840,1352,36.999,-2.42862
623,-328,34.345,5.14722,0,0,0,0,0,0,0,-1,1847,1352,34.3449,-5.14718
630,-328,22.0211,5.026,0,0,0,0,0,0,0,-1,1854,1352,22.0212,-5.02603
637,-328,21.15,5.53699,0,0,0,0,0,0,0,-1,1861,1352,21.15,-5.53704
644,-328,16.9579,6.3396,0,0,0,0,0,0,0,-1,1868,1352,16.9579,-6.33959
651,-328,36.2629,14.6906,0,0,0,0,0,0,0,-1,1875,1352,36.263,-14.6905
658,-328,38.2487,14.9813,0,0,0,0,0,0,0,-1,1882,1352,38.2486,-14.9813
665,-328,38.2686,14.3615,0.00134242,0.00242879,0.000886325,0.00292514,0.000846075,1.06031,0.00173812,0.0147271,1889,1352,38.2686,-14.3614
672,-328,38.2345,13.7642,0.00102603,0.000585081,0.000514003,0.00136485,0.000246262,0.582799,0.000839931,0.0128818,1896,1352,38.2345,-13.7642
679,-328,38.2201,13.1479,0.00108751,-0.000234514,9.45198e-05,0.00109423,-0.000241237,0.071015,0.000821788,0.0154485,1903,1352,38.2201,-13.148
686,-328,38.1788,12.5344,0.00141453,-0.000103866,-0.00022179,0.00144626,-0.000135599,-0.142114,0.0010124,0.0149991,1910,1352,38.1789,-12.5344
693,-328,38.1578,11.9369,0.00176892,-7.61047e-05,-0.000173887,0.00178516,-9.23499e-05,-0.0931537,0.00122206,0.0103166,1917,1352,38.1578,-11.9369
700,-328,38.1489,11.3182,0.00211165,1.02106e-05,-0.000119807,0.00211846,3.40212e-06,-0.056767,0.00141117,0.0151572,1924,1352,38.1489,-11.3182
707,-328,38.145,10.7128,0.00237056,0.000146224,-2.79185e-05,0.00237091,0.000145873,-0.0125488,0.00153429,0.0174235,1931,1352,38.145,-10.7128
714,-328,38.1259,10.108,0.00253429,0.000362479,8.87331e-05,0.00253791,0.00035886,0.0407662,0.00158591,0.017015,1938,1352,38.1259,-10.108
721,-328,38.1279,9.38428,0,0,0,0,0,0,0,-1,1945,1352,38.1279,-9.38427
728,-328,29.2787,6.74695,0,0,0,0,0,0,0,-1,1952,1352,29.2787,-6.74693
735,-328,20.8927,5.23523,0,0,0,0,0,0,0,-1,1959,1352,20.8927,-5.23528
742,-328,20.3547,4.11316,0,0,0,0,0,0,0,-1,1966,1352,20.3547,-4.11321
749,-328,20.0669,5.66321,0,0,0,0,0,0,0,-1,1973,1352,20.0669,-5.66319
756,-328,19.9543,5.50464,0,0,0,0,0,0,0,-1,1980,1352,19.9543,-5.50463
763,-328,0,0,0,0,0,0,0,0,0,-1,1987,1352,0,0
770,-328,0,0,0,0,0,0,0,0,0,-1,1994,1352,0,0
777,-328,0,0,0,0,0,0,0,0,0,-1,2001,1352,0,0
784,-328,0,0,0,0,0,0,0,0,0,-1,2008,1352,0,0
791,-328,0,0,0,0,0,0,0,0,0,-1,2015,1352,0,0
798,-328,0,0,0,0,0,0,0,0,0,-1,2022,1352,0,0
805,-328,0,0,0,0,0,0,0,0,0,-1,2029,1352,0,0
812,-328,0,0,0,0,0,0,0,0,0,-1,2036,1352,0,0
-700,-335,0,0,0,0,0,0,0,0,0,-1,524,1359,0,0
-693,-335,0,0,0,0,0,0,0,0,0,-1,531,1359,0,0
-686,-335,0,0,0,0,0,0,0,0,0,-1,538,1359,0,0
-679,-335,0,0,0,0,0,0,0,0,0,-1,545,1359,0,0
-672,-335,0,0,0,0,0,0,0,0,0,-1,552,1359,0,0
-665,-335,0,0,0,0,0,0,0,0,0,-1,559,1359,0,0
-658,-335,0,0,0,0,0,0,0,0,0,-1,566,1359,0,0
-651,-335,0,0,0,0,0,0,0,0,0,-1,573,1359,0,0
-644,-335,0,0,0,0,0,0,0,0,0,-1,580,1359,0,0
-637,-335,-62.7114,11.0491,0,0,0,0,0,0,0,-1,587,1359,-62.7114,-11.0491
-630,-335,-64.2532,9.91284,0,0,0,0,0,0,0,-1,594,1359,-64.2532,-9.91285
-623,-335,-8.43304,1.09509,0,0,0,0,0,0,0,-1,601,1359,-8.43301,-1.09507
-616,-335,-7.80927,-0.485352,0,0,0,0,0,0,0,-1,608,1359,-7.80926,0.485291
-609,-335,-7.12256,-2.03601,0,0,0,0,0,0,0,-1,615,1359,-7.12253,2.03601
-602,-335,-9.39935,2.25146,0,0,0,0,0,0,0,-1,622,1359,-9.39935,-2.25145
-595,-335,-9.54767,3.01917,0,0,0,0,0,0,0,-1,629,1359,-9.54768,-3.01911
-588,-335,-21.4738,7.25208,0,0,0,0,0,0,0,-1,636,1359,-21.4737,-7.25203
-581,-335,-21.3635,8.15649,0.00452185,0.00256888,0.00202267,0.00579141,0.00129933,0.560513,0.00350896,0.0442688,643,1359,-21.3634,-8.15646
-574,-335,-21.3716,8.74548,0.00361735,0.00198383,0.00161714,0.00461229,0.000988891,0.551552,0.00280397,0.0134135,650,1359,-21.3716,-8.74545
-567,-335,-21.3587,9.45239,0.00310463,0.00146006,0.00130942,0.00382854,0.000736153,0.505029,0.0023458,0.0175932,657,1359,-21.3587,-9.45239
-560,-335,-21.332,10.1084,0.00286768,0.000999348,0.00111725,0.00338984,0.000477181,0.437204,0.00211882,0.0264627,664,1359,-21.332,-10.1084
-553,-335,-21.3901,10.7787,0.00285261,0.000584403,0.00102023,0.00324398,0.000193036,0.366295,0.00210126,0.0296722,671,1359,-21.3901,-10.7787
-546,-335,-21.4712,11.4791,0.00304733,0.000206151,0.00100532,0.00336707,-0.000113586,0.30793,0.00228352,0.0258455,678,1359,-21.4712,-11.4791
-539,-335,-21.5119,12.0944,0.00344423,-0.000120623,0.00108422,0.00374809,-0.000424479,0.273244,0.00265157,0.0204132,685,1359,-21.5119,-12.0944
-532,-335,-21.5266,12.7478,0.00408995,-0.000376784,0.00127314,0.00442735,-0.000714178,0.259054,0.00321616,0.0160696,692,1359,-21.5266,-12.7478
-525,-335,-21.4824,13.4124,0.00495073,-0.000658579,0.00154151,0.00534644,-0.00105429,0.251278,0.00396275,0.0127824,699,1359,-21.4824,-13.4123
-518,-335,-21.5809,14.0184,0,0,0,0,0,0,0,-1,706,1359,-21.5809,-14.0185
-511,-335,-17.3098,11.6718,0,0,0,0,0,0,0,-1,713,1359,-17.3097,-11.6717
-504,-335,-9.35767,5.99695,0,0,0,0,0,0,0,-1,720,1359,-9.35767,-5.99694
-497,-335,-8.75024,-0.650513,0,0,0,0,0,0,0,-1,727,1359,-8.75024,0.650521
-490,-335,-9.51971,0.417603,0,0,0,0,0,0,0,-1,734,1359,-9.51974,-0.41765
-483,-335,-10.2883,1.29224,0,0,0,0,0,0,0,-1,741,1359,-10.2883,-1.2922
-476,-335,-11.9938,-0.173462,0,0,0,0,0,0,0,-1,748,1359,-11.9938,0.173429
-469,-335,-12.8704,-0.204102,0,0,0,0,0,0,0,-1,755,1359,-12.8704,0.204117
-462,-335,-13.486,0.0218506,0,0,0,0,0,0,0,-1,762,1359,-13.4859,-0.0217908
-455,-335,-14.1504,0.549561,0,0,0,0,0,0,0,-1,769,1359,-14.1504,-0.549583
-448,-335,0,0,0,0,0,0,0,0,0,-1,776,1359,0,0
-441,-335,0,0,0,0,0,0,0,0,0,-1,783,1359,0,0
-434,-335,0,0,0,0,0,0,0,0,0,-1,790,1359,0,0
-427,-335,0,0,0,0,0,0,0,0,0,-1,797,1359,0,0
-420,-335,0,0,0,0,0,0,0,0,0,-1,804,1359,0,0
-413,-335,0,0,0,0,0,0,0,0,0,-1,811,1359,0,0
-406,-335,0,0,0,0,0,0,0,0,0,-1,818,1359,0,0
-399,-335,0,0,0,0,0,0,0,0,0,-1,825,1359,0,0
-392,-335,0,0,0,0,0,0,0,0,0,-1,832,1359,0,0
-385,-335,0,0,0,0,0,0,0,0,0,-1,839,1359,0,0
-378,-335,0,0,0,0,0,0,0,0,0,-1,846,1359,0,0
-371,-335,0,0,0,0,0,0,0,0,0,-1,853,1359,0,0
-364,-335,0,0,0,0,0,0,0,0,0,-1,860,1359,0,0
-357,-335,0,0,0,0,0,0,0,0,0,-1,867,1359,0,0
-350,-335,0,0,0,0,0,0,0,0,0,-1,874,1359,0,0
-343,-335,0,0,0,0,0,0,0,0,0,-1,881,1359,0,0
-336,-335,0,0,0,0,0,0,0,0,0,-1,888,1359,0,0
-329,-335,0,0,0,0,0,0,0,0,0,-1,895,1359,0,0
-322,-335,0,0,0,0,0,0,0,0,0,-1,902,1359,0,0
-315,-335,0,0,0,0,0,0,0,0,0,-1,909,1359,0,0
-308,-335,0,0,0,0,0,0,0,0,0,-1,916,1359,0,0
-301,-335,0,0,0,0,0,0,0,0,0,-1,923,1359,0,0
-294,-335,0,0,0,0,0,0,0,0,0,-1,930,1359,0,0
-287,-335,0,0,0,0,0,0,0,0,0,-1,937,1359,0,0
-280,-335,0,0,0,0,0,0,0,0,0,-1,944,1359,0,0
-273,-335,0,0,0,0,0,0,0,0,0,-1,951,1359,0,0
-266,-335,0,0,0,0,0,0,0,0,0,-1,958,1359,0,0
-259,-335,0,0,0,0,0,0,0,0,0,-1,965,1359,0,0
-252,-335,0,0,0,0,0,0,0,0,0,-1,972,1359,0,0
-245,-335,0,0,0,0,0,0,0,0,0,-1,979,1359,0,0
-238,-335,0,0,0,0,0,0,0,0,0,-1,986,1359,0,0
-231,-335,0,0,0,0,0,0,0,0,0,-1,993,1359,0,0
-224,-335,0,0,0,0,0,0,0,0,0,-1,1000,1359,0,0
-217,-335,0,0,0,0,0,0,0,0,0,-1,1007,1359,0,0
-210,-335,0,0,0,0,0,0,0,0,0,-1,1014,1359,0,0
-203,-335,0,0,0,0,0,0,0,0,0,-1,1021,1359,0,0
-196,-335,0,0,0,0,0,0,0,0,0,-1,1028,1359,0,0
-189,-335,0,0,0,0,0,0,0,0,0,-1,1035,1359,0,0
-182,-335,0,0,0,0,0,0,0,0,0,-1,1042,1359,0,0
-175,-335,0,0,0,0,0,0,0,0,0,-1,1049,1359,0,0
-168,-335,0,0,0,0,0,0,0,0,0,-1,1056,1359,0,0
-161,-335,0,0,0,0,0,0,0,0,0,-1,1063,1359,0,0
-154,-335,0,0,0,0,0,0,0,0,0,-1,1070,1359,0,0
-147,-335,0,0,0,0,0,0,0,0,0,-1,1077,1359,0,0
-140,-335,0,0,0,0,0,0,0,0,0,-1,1084,1359,0,0
-133,-335,0,0,0,0,0,0,0,0,0,-1,1091,1359,0,0
-126,-335,0,0,0,0,0,0,0,0,0,-1,1098,1359,0,0
-119,-335,0,0,0,0,0,0,0,0,0,-1,1105,1359,0,0
-112,-335,0,0,0,0,0,0,0,0,0,-1,1112,1359,0,0
-105,-335,0,0,0,0,0,0,0,0,0,-1,1119,1359,0,0
-98,-335,0,0,0,0,0,0,0,0,0,-1,1126,1359,0,0
-91,-335,0,0,0,0,0,0,0,0,0,-1,1133,1359,0,0
-84,-335,0,0,0,0,0,0,0,0,0,-1,1140,1359,0,0
-77,-335,0,0,0,0,0,0,0,0,0,-1,1147,1359,0,0
-70,-335,0,0,0,0,0,0,0,0,0,-1,1154,1359,0,0
-63,-335,0,0,0,0,0,0,0,0,0,-1,1161,1359,0,0
-56,-335,0,0,0,0,0,0,0,0,0,-1,1168,1359,0,0
-49,-335,0,0,0,0,0,0,0,0,0,-1,1175,1359,0,0
-42,-335,0,0,0,0,0,0,0,0,0,-1,1182,1359,0,0
-35,-335,0,0,0,0,0,0,0,0,0,-1,1189,1359,0,0
-28,-335,0,0,0,0,0,0,0,0,0,-1,1196,1359,0,0
-21,-335,0,0,0,0,0,0,0,0,0,-1,1203,1359,0,0
-14,-335,0,0,0,0,0,0,0,0,0,-1,1210,1359,0,0
-7,-335,0,0,0,0,0,0,0,0,0,-1,1217,1359,0,0
0,-335,0,0,0,0,0,0,0,0,0,-1,1224,1359,0,0
7,-335,0,0,0,0,0,0,0,0,0,-1,1231,1359,0,0
14,-335,0,0,0,0,0,0,0,0,0,-1,1238,1359,0,0
21,-335,0,0,0,0,0,0,0,0,0,-1,1245,1359,0,0
28,-335,0,0,0,0,0,0,0,0,0,-1,1252,1359,0,0
35,-335,0,0,0,0,0,0,0,0,0,-1,1259,1359,0,0
42,-335,0,0,0,0,0,0,0,0,0,-1,1266,1359,0,0
49,-335,0,0,0,0,0,0,0,0,0,-1,1273,1359,0,0
56,-335,0,0,0,0,0,0,0,0,0,-1,1280,1359,0,0
63,-335,0,0,0,0,0,0,0,0,0,-1,1287,1359,0,0
70,-335,0,0,0,0,0,0,0,0,0,-1,1294,1359,0,0
77,-335,0,0,0,0,0,0,0,0,0,-1,1301,1359,0,0
84,-335,0,0,0,0,0,0,0,0,0,-1,1308,1359,0,0
91,-335,0,0,0,0,0,0,0,0,0,-1,1315,1359,0,0
98,-335,0,0,0,0,0,0,0,0,0,-1,1322,1359,0,0
105,-335,0,0,0,0,0,0,0,0,0,-1,1329,1359,0,0
112,-335,0,0,0,0,0,0,0,0,0,-1,1336,1359,0,0
119,-335,0,0,0,0,0,0,0,0,0,-1,1343,1359,0,0
126,-335,0,0,0,0,0,0,0,0,0,-1,1350,1359,0,0
133,-335,0,0,0,0,0,0,0,0,0,-1,1357,1359,0,0
140,-335,0,0,0,0,0,0,0,0,0,-1,1364,1359,0,0
147,-335,0,0,0,0,0,0,0,0,0,-1,1371,1359,0,0
154,-335,0,0,0,0,0,0,0,0,0,-1,1378,1359,0,0
161,-335,0,0,0,0,0,0,0,0,0,-1,1385,1359,0,0
168,-335,0,0,0,0,0,0,0,0,0,-1,1392,1359,0,0
175,-335,0,0,0,0,0,0,0,0,0,-1,1399,1359,0,0
182,-335,0,0,0,0,0,0,0,0,0,-1,1406,1359,0,0
189,-335,0,0,0,0,0,0,0,0,0,-1,1413,1359,0,0
196,-335,0,0,0,0,0,0,0,0,0,-1,1420,1359,0,0
203,-335,0,0,0,0,0,0,0,0,0,-1,1427,1359,0,0
210,-335,0,0,0,0,0,0,0,0,0,-1,1434,1359,0,0
217,-335,0,0,0,0,0,0,0,0,0,-1,1441,1359,0,0
224,-335,0,0,0,0,0,0,0,0,0,-1,1448,1359,0,0
231,-335,0,0,0,0,0,0,0,0,0,-1,1455,1359,0,0
238,-335,0,0,0,0,0,0,0,0,0,-1,1462,1359,0,0
245,-335,0,0,0,0,0,0,0,0,0,-1,1469,1359,0,0
252,-335,0,0,0,0,0,0,0,0,0,-1,1476,1359,0,0
259,-335,0,0,0,0,0,0,0,0,0,-1,1483,1359,0,0
266,-335,0,0,0,0,0,0,0,0,0,-1,1490,1359,0,0
273,-335,0,0,0,0,0,0,0,0,0,-1,1497,1359,0,0
280,-335,0,0,0,0,0,0,0,0,0,-1,1504,1359,0,0
287,-335,0,0,0,0,0,0,0,0,0,-1,1511,1359,0,0
294,-335,0,0,0,0,0,0,0,0,0,-1,1518,1359,0,0
301,-335,0,0,0,0,0,0,0,0,0,-1,1525,1359,0,0
308,-335,0,0,0,0,0,0,0,0,0,-1,1532,1359,0,0
315,-335,0,0,0,0,0,0,0,0,0,-1,1539,1359,0,0
322,-335,0,0,0,0,0,0,0,0,0,-1,1546,1359,0,0
329,-335,0,0,0,0,0,0,0,0,0,-1,1553,1359,0,0
336,-335,0,0,0,0,0,0,0,0,0,-1,1560,1359,0,0
343,-335,0,0,0,0,0,0,0,0,0,-1,1567,1359,0,0
350,-335,0,0,0,0,0,0,0,0,0,-1,1574,1359,0,0
357,-335,0,0,0,0,0,0,0,0,0,-1,1581,1359,0,0
364,-335,0,0,0,0,0,0,0,0,0,-1,1588,1359,0,0
371,-335,0,0,0,0,0,0,0,0,0,-1,1595,1359,0,0
378,-335,0,0,0,0,0,0,0,0,0,-1,1602,1359,0,0
385,-335,0,0,0,0,0,0,0,0,0,-1,1609,1359,0,0
392,-335,0,0,0,0,0,0,0,0,0,-1,1616,1359,0,0
399,-335,0,0,0,0,0,0,0,0,0,-1,1623,1359,0,0
406,-335,0,0,0,0,0,0,0,0,0,-1,1630,1359,0,0
413,-335,0,0,0,0,0,0,0,0,0,-1,1637,1359,0,0
420,-335,0,0,0,0,0,0,0,0,0,-1,1644,1359,0,0
427,-335,0,0,0,0,0,0,0,0,0,-1,1651,1359,0,0
434,-335,0,0,0,0,0,0,0,0,0,-1,1658,1359,0,0
441,-335,0,0,0,0,0,0,0,0,0,-1,1665,1359,0,0
448,-335,0,0,0,0,0,0,0,0,0,-1,1672,1359,0,0
455,-335,0,0,0,0,0,0,0,0,0,-1,1679,1359,0,0
462,-335,0,0,0,0,0,0,0,0,0,-1,1686,1359,0,0
469,-335,0,0,0,0,0,0,0,0,0,-1,1693,1359,0,0
476,-335,0,0,0,0,0,0,0,0,0,-1,1700,1359,0,0
483,-335,0,0,0,0,0,0,0,0,0,-1,1707,1359,0,0
490,-335,0,0,0,0,0,0,0,0,0,-1,1714,1359,0,0
497,-335,0,0,0,0,0,0,0,0,0,-1,1721,1359,0,0
504,-335,0,0,0,0,0,0,0,0,0,-1,1728,1359,0,0
511,-335,0,0,0,0,0,0,0,0,0,-1,1735,1359,0,0
518,-335,0,0,0,0,0,0,0,0,0,-1,1742,1359,0,0
525,-335,0,0,0,0,0,0,0,0,0,-1,1749,1359,0,0
532,-335,0,0,0,0,0,0,0,0,0,-1,1756,1359,0,0
539,-335,0,0,0,0,0,0,0,0,0,-1,1763,1359,0,0
546,-335,0,0,0,0,0,0,0,0,0,-1,1770,1359,0,0
553,-335,0,0,0,0,0,0,0,0,0,-1,1777,1359,0,0
560,-335,0,0,0,0,0,0,0,0,0,-1,1784,1359,0,0
567,-335,0,0,0,0,0,0,0,0,0,-1,1791,1359,0,0
574,-335,58.0887,0.573853,0,0,0,0,0,0,0,-1,1798,1359,58.0887,-0.573905
581,-335,57.8474,0.28833,0,0,0,0,0,0,0,-1,1805,1359,57.8474,-0.28839
588,-335,58.4113,0.081665,0,0,0,0,0,0,0,-1,1812,1359,58.4113,-0.0816863
595,-335,49.984,3.76465,0,0,0,0,0,0,0,-1,1819,1359,49.984,-3.76467
602,-335,36.5643,0.0861816,0,0,0,0,0,0,0,-1,1826,1359,36.5643,-0.0862283
609,-335,36.2933,0.993896,0,0,0,0,0,0,0,-1,1833,1359,36.2934,-0.993911
616,-335,34.6969,4.82666,0,0,0,0,0,0,0,-1,1840,1359,34.6969,-4.82667
623,-335,26.6051,6.54333,0,0,0,0,0,0,0,-1,1847,1359,26.6051,-6.54339
630,-335,19.1707,1.00952,0,0,0,0,0,0,0,-1,1854,1359,19.1707,-1.00953
637,-335,18.2009,6.65454,0,0,0,0,0,0,0,-1,1861,1359,18.2009,-6.6546
644,-335,28.1042,12.067,0,0,0,0,0,0,0,-1,1868,1359,28.1042,-12.067
651,-335,37.5688,15.8074,0,0,0,0,0,0,0,-1,1875,1359,37.5689,-15.8073
658,-335,37.6556,15.0767,0.000918864,0.00361269,-0.0015037,0.00428451,0.000247045,-1.15062,0.00277765,0.0337587,1882,1359,37.6556,-15.0766
665,-335,37.6689,14.4045,0.000604438,0.00143525,-0.000751004,0.00187808,0.000161608,-1.03802,0.00120181,0.0148093,1889,1359,37.6689,-14.4046
672,-335,37.6213,13.7959,0.00078376,0.000426536,-0.000451665,0.00109085,0.000119449,-0.597109,0.000690865,0.0179839,1896,1359,37.6214,-13.7959
679,-335,37.6075,13.2065,0.00119582,-6.08225e-06,-0.000302645,0.00126773,-7.79879e-05,-0.233265,0.000872311,0.0161929,1903,1359,37.6075,-13.2066
686,-335,37.6094,12.578,0.00175717,-5.20048e-05,-0.000307099,0.00180788,-0.000102712,-0.163641,0.00124091,0.0134452,1910,1359,37.6093,-12.578
693,-335,37.5765,11.9609,0.00232331,-1.95351e-05,-0.00033974,0.00237158,-6.78066e-05,-0.141139,0.00160414,0.0111752,1917,1359,37.5766,-11.9609
700,-335,37.5347,11.3654,0.0028994,9.06315e-05,-0.000386688,0.00295166,3.83679e-05,-0.134343,0.00195511,0.0125314,1924,1359,37.5347,-11.3653
707,-335,37.5023,10.7697,0.00338467,0.000264103,-0.000391206,0.00343296,0.000215807,-0.122832,0.0022202,0.0162242,1931,1359,37.5023,-10.7697
714,-335,37.5176,10.058,0.00381984,0.000561565,-0.000397943,0.00386774,0.000513667,-0.119787,0.00242547,0.0347277,1938,1359,37.5176,-10.058
721,-335,37.4401,9.26099,0,0,0,0,0,0,0,-1,1945,1359,37.44,-9.26093
728,-335,20.8126,5.21167,0,0,0,0,0,0,0,-1,1952,1359,20.8127,-5.21172
735,-335,20.2725,5.34729,0,0,0,0,0,0,0,-1,1959,1359,20.2724,-5.34734
742,-335,19.8624,4.72229,0,0,0,0,0,0,0,-1,1966,1359,19.8624,-4.72225
749,-335,20.5887,6.05322,0,0,0,0,0,0,0,-1,1973,1359,20.5887,-6.05322
756,-335,20.7832,6.00452,0,0,0,0,0,0,0,-1,1980,1359,20.7832,-6.00447
763,-335,0,0,0,0,0,0,0,0,0,-1,1987,1359,0,0
770,-335,0,0,0,0,0,0,0,0,0,-1,1994,1359,0,0
777,-335,0,0,0,0,0,0,0,0,0,-1,2001,1359,0,0
784,-335,0,0,0,0,0,0,0,0,0,-1,2008,1359,0,0
791,-335,0,0,0,0,0,0,0,0,0,-1,2015,1359,0,0
798,-335,0,0,0,0,0,0,0,0,0,-1,2022,1359,0,0
805,-335,0,0,0,0,0,0,0,0,0,-1,2029,1359,0,0
812,-335,0,0,0,0,0,0,0,0,0,-1,2036,1359,0,0
-700,-342,0,0,0,0,0,0,0,0,0,-1,524,1366,0,0
-693,-342,0,0,0,0,0,0,0,0,0,-1,531,1366,0,0
-686,-342,0,0,0,0,0,0,0,0,0,-1,538,1366,0,0
-679,-342,0,0,0,0,0,0,0,0,0,-1,545,1366,0,0
-672,-342,0,0,0,0,0,0,0,0,0,-1,552,1366,0,0
-665,-342,0,0,0,0,0,0,0,0,0,-1,559,1366,0,0
-658,-342,0,0,0,0,0,0,0,0,0,-1,566,1366,0,0
-651,-342,0,0,0,0,0,0,0,0,0,-1,573,1366,0,0
-644,-342,0,0,0,0,0,0,0,0,0,-1,580,1366,0,0
-637,-342,-63.7546,12.2344,0,0,0,0,0,0,0,-1,587,1366,-63.7546,-12.2343
-630,-342,-8.60132,2.71777,0,0,0,0,0,0,0,-1,594,1366,-8.60135,-2.71779
-623,-342,-8.41168,0.662476,0,0,0,0,0,0,0,-1,601,1366,-8.41168,-0.662442
-616,-342,-6.625,-1.28015,0,0,0,0,0,0,0,-1,608,1366,-6.62499,1.28011
-609,-342,-7.83154,0.674561,0,0,0,0,0,0,0,-1,615,1366,-7.83155,-0.674598
-602,-342,-9.65765,2.25195,0,0,0,0,0,0,0,-1,622,1366,-9.65767,-2.25192
-595,-342,-9.47687,3.00671,0,0,0,0,0,0,0,-1,629,1366,-9.47686,-3.00668
-588,-342,-9.78467,3.57727,0,0,0,0,0,0,0,-1,636,1366,-9.78468,-3.57723
-581,-342,-20.8467,8.17798,0,0,0,0,0,0,0,-1,643,1366,-20.8467,-8.17798
-574,-342,-20.7698,8.81055,0.00409667,0.0022835,0.00193153,0.00532379,0.00105639,0.565979,0.00325472,0.0158335,650,1366,-20.7697,-8.81052
-567,-342,-20.7174,9.49744,0.0034312,0.001709,0.00155952,0.00435156,0.000788642,0.53315,0.00267716,0.0176808,657,1366,-20.7174,-9.49744
-560,-342,-20.76,10.0979,0.00305498,0.00120714,0.00129332,0.00372049,0.000541619,0.475243,0.00232095,0.0270749,664,1366,-20.76,-10.098
-553,-342,-20.7783,10.6833,0.00290061,0.000767236,0.00112862,0.00338686,0.000280988,0.406801,0.00217031,0.0297919,671,1366,-20.7783,-10.6834
-546,-342,-20.8262,11.3792,0.00293638,0.00038164,0.00104482,0.00330926,8.75827e-06,0.342795,0.00220326,0.0282087,678,1366,-20.8262,-11.3791
-539,-342,-20.8741,12.0931,0.0031518,5.65639e-05,0.00104602,0.00347214,-0.000263778,0.29718,0.00240751,0.023501,685,1366,-20.8742,-12.0931
-532,-342,-20.8766,12.777,0.00356723,-0.000185231,0.00114984,0.00389154,-0.000509537,0.274905,0.00277981,0.0189298,692,1366,-20.8766,-12.7769
-525,-342,-20.838,13.447,0.00416587,-0.000393974,0.0013417,0.00453136,-0.000759464,0.265955,0.00330329,0.0137812,699,1366,-20.838,-13.447
-518,-342,-20.822,14.1029,0.00501265,-0.000345472,0.00170516,0.00550926,-0.000842091,0.283405,0.00398332,0.0375909,706,1366,-20.822,-14.1029
-511,-342,-20.8345,14.746,0,0,0,0,0,0,0,-1,713,1366,-20.8345,-14.746
-504,-342,-8.95709,6.5719,0,0,0,0,0,0,0,-1,720,1366,-8.95707,-6.57192
-497,-342,-8.26587,-0.943604,0,0,0,0,0,0,0,-1,727,1366,-8.26586,0.943543
-490,-342,-9.07153,-0.0227051,0,0,0,0,0,0,0,-1,734,1366,-9.07155,0.0227087
-483,-342,-9.87726,0.898071,0,0,0,0,0,0,0,-1,741,1366,-9.87724,-0.898125
-476,-342,-11.6371,-0.736328,0,0,0,0,0,0,0,-1,748,1366,-11.6371,0.736281
-469,-342,-12.6245,-0.987549,0,0,0,0,0,0,0,-1,755,1366,-12.6245,0.987553
-462,-342,-13.0912,-0.533203,0,0,0,0,0,0,0,-1,762,1366,-13.0912,0.533224
-455,-342,-13.7612,0.122925,0,0,0,0,0,0,0,-1,769,1366,-13.7612,-0.122896
-448,-342,-14.5278,0.826904,0,0,0,0,0,0,0,-1,776,1366,-14.5277,-0.826861
-441,-342,0,0,0,0,0,0,0,0,0,-1,783,1366,0,0
-434,-342,0,0,0,0,0,0,0,0,0,-1,790,1366,0,0
-427,-342,0,0,0,0,0,0,0,0,0,-1,797,1366,0,0
-420,-342,0,0,0,0,0,0,0,0,0,-1,804,1366,0,0
-413,-342,0,0,0,0,0,0,0,0,0,-1,811,1366,0,0
-406,-342,0,0,0,0,0,0,0,0,0,-1,818,1366,0,0
-399,-342,0,0,0,0,0,0,0,0,0,-1,825,1366,0,0
-392,-342,0,0,0,0,0,0,0,0,0,-1,832,1366,0,0
-385,-342,0,0,0,0,0,0,0,0,0,-1,839,1366,0,0
-378,-342,0,0,0,0,0,0,0,0,0,-1,846,1366,0,0
-371,-342,0,0,0,0,0,0,0,0,0,-1,853,1366,0,0
-364,-342,0,0,0,0,0,0,0,0,0,-1,860,1366,0,0
-357,-342,0,0,0,0,0,0,0,0,0,-1,867,1366,0,0
-350,-342,0,0,0,0,0,0,0,0,0,-1,874,1366,0,0
-343,-342,0,0,0,0,0,0,0,0,0,-1,881,1366,0,0
-336,-342,0,0,0,0,0,0,0,0,0,-1,888,1366,0,0
-329,-342,0,0,0,0,0,0,0,0,0,-1,895,1366,0,0
-322,-342,0,0,0,0,0,0,0,0,0,-1,902,1366,0,0
-315,-342,0,0,0,0,0,0,0,0,0,-1,909,1366,0,0
-308,-342,0,0,0,0,0,0,0,0,0,-1,916,1366,0,0
-301,-342,0,0,0,0,0,0,0,0,0,-1,923,1366,0,0
-294,-342,0,0,0,0,0,0,0,0,0,-1,930,1366,0,0
-287,-342,0,0,0,0,0,0,0,0,0,-1,937,1366,0,0
-280,-342,0,0,0,0,0,0,0,0,0,-1,944,1366,0,0
-273,-342,0,0,0,0,0,0,0,0,0,-1,951,1366,0,0
-266,-342,0,0,0,0,0,0,0,0,0,-1,958,1366,0,0
-259,-342,0,0,0,0,0,0,0,0,0,-1,965,1366,0,0
-252,-342,0,0,0,0,0,0,0,0,0,-1,972,1366,0,0
-245,-342,0,0,0,0,0,0,0,0,0,-1,979,1366,0,0
-238,-342,0,0,0,0,0,0,0,0,0,-1,986,1366,0,0
-231,-342,0,0,0,0,0,0,0,0,0,-1,993,1366,0,0
-224,-342,0,0,0,0,0,0,0,0,0,-1,1000,1366,0,0
-217,-342,0,0,0,0,0,0,0,0,0,-1,1007,1366,0,0
-210,-342,0,0,0,0,0,0,0,0,0,-1,1014,1366,0,0
-203,-342,0,0,0,0,0,0,0,0,0,-1,1021,1366,0,0
-196,-342,0,0,0,0,0,0,0,0,0,-1,1028,1366,0,0
-189,-342,0,0,0,0,0,0,0,0,0,-1,1035,1366,0,0
-182,-342,0,0,0,0,0,0,0,0,0,-1,1042,1366,0,0
-175,-342,0,0,0,0,0,0,0,0,0,-1,1049,1366,0,0
-168,-342,0,0,0,0,0,0,0,0,0,-1,1056,1366,0,0
-161,-342,0,0,0,0,0,0,0,0,0,-1,1063,1366,0,0
-154,-342,0,0,0,0,0,0,0,0,0,-1,1070,1366,0,0
-147,-342,0,0,0,0,0,0,0,0,0,-1,1077,1366,0,0
-140,-342,0,0,0,0,0,0,0,0,0,-1,1084,1366,0,0
-133,-342,0,0,0,0,0,0,0,0,0,-1,1091,1366,0,0
-126,-342,0,0,0,0,0,0,0,0,0,-1,1098,1366,0,0
-119,-342,0,0,0,0,0,0,0,0,0,-1,1105,1366,0,0
-112,-342,0,0,0,0,0,0,0,0,0,-1,1112,1366,0,0
-105,-342,0,0,0,0,0,0,0,0,0,-1,1119,1366,0,0
-98,-342,0,0,0,0,0,0,0,0,0,-1,1126,1366,0,0
-91,-342,0,0,0,0,0,0,0,0,0,-1,1133,1366,0,0
-84,-342,0,0,0,0,0,0,0,0,0,-1,1140,1366,0,0
-77,-342,0,0,0,0,0,0,0,0,0,-1,1147,1366,0,0
-70,-342,0,0,0,0,0,0,0,0,0,-1,1154,1366,0,0
-63,-342,0,0,0,0,0,0,0,0,0,-1,1161,1366,0,0
-56,-342,0,0,0,0,0,0,0,0,0,-1,1168,1366,0,0
-49,-342,0,0,0,0,0,0,0,0,0,-1,1175,1366,0,0
-42,-342,0,0,0,0,0,0,0,0,0,-1,1182,1366,0,0
-35,-342,0,0,0,0,0,0,0,0,0,-1,1189,1366,0,0
-28,-342,0,0,0,0,0,0,0,0,0,-1,1196,1366,0,0
-21,-342,0,0,0,0,0,0,0,0,0,-1,1203,1366,0,0
-14,-342,0,0,0,0,0,0,0,0,0,-1,1210,1366,0,0
-7,-342,0,0,0,0,0,0,0,0,0,-1,1217,1366,0,0
0,-342,0,0,0,0,0,0,0,0,0,-1,1224,1366,0,0
7,-342,0,0,0,0,0,0,0,0,0,-1,1231,1366,0,0
14,-342,0,0,0,0,0,0,0,0,0,-1,1238,1366,0,0
21,-342,0,0,0,0,0,0,0,0,0,-1,1245,1366,0,0
28,-342,0,0,0,0,0,0,0,0,0,-1,1252,1366,0,0
35,-342,0,0,0,0,0,0,0,0,0,-1,1259,1366,0,0
42,-342,0,0,0,0,0,0,0,0,0,-1,1266,1366,0,0
49,-342,0,0,0,0,0,0,0,0,0,-1,1273,1366,0,0
56,-342,0,0,0,0,0,0,0,0,0,-1,1280,1366,0,0
63,-342,0,0,0,0,0,0,0,0,0,-1,1287,1366,0,0
70,-342,0,0,0,0,0,0,0,0,0,-1,1294,1366,0,0
77,-342,0,0,0,0,0,0,0,0,0,-1,1301,1366,0,0
84,-342,0,0,0,0,0,0,0,0,0,-1,1308,1366,0,0
91,-342,0,0,0,0,0,0,0,0,0,-1,1315,1366,0,0
98,-342,0,0,0,0,0,0,0,0,0,-1,1322,1366,0,0
105,-342,0,0,0,0,0,0,0,0,0,-1,1329,1366,0,0
112,-342,0,0,0,0,0,0,0,0,0,-1,1336,1366,0,0
119,-342,0,0,0,0,0,0,0,0,0,-1,1343,1366,0,0
126,-342,0,0,0,0,0,0,0,0,0,-1,1350,1366,0,0
133,-342,0,0,0,0,0,0,0,0,0,-1,1357,1366,0,0
140,-342,0,0,0,0,0,0,0,0,0,-1,1364,1366,0,0
147,-342,0,0,0,0,0,0,0,0,0,-1,1371,1366,0,0
154,-342,0,0,0,0,0,0,0,0,0,-1,1378,1366,0,0
161,-342,0,0,0,0,0,0,0,0,0,-1,1385,1366,0,0
168,-342,0,0,0,0,0,0,0,0,0,-1,1392,1366,0,0
175,-342,0,0,0,0,0,0,0,0,0,-1,1399,1366,0,0
182,-342,0,0,0,0,0,0,0,0,0,-1,1406,1366,0,0
189,-342,0,0,0,0,0,0,0,0,0,-1,1413,1366,0,0
196,-342,0,0,0,0,0,0,0,0,0,-1,1420,1366,0,0
203,-342,0,0,0,0,0,0,0,0,0,-1,1427,1366,0,0
210,-342,0,0,0,0,0,0,0,0,0,-1,1434,1366,0,0
217,-342,0,0,0,0,0,0,0,0,0,-1,1441,1366,0,0
224,-342,0,0,0,0,0,0,0,0,0,-1,1448,1366,0,0
231,-342,0,0,0,0,0,0,0,0,0,-1,1455,1366,0,0
238,-342,0,0,0,0,0,0,0,0,0,-1,1462,1366,0,0
245,-342,0,0,0,0,0,0,0,0,0,-1,1469,1366,0,0
252,-342,0,0,0,0,0,0,0,0,0,-1,1476,1366,0,0
259,-342,0,0,0,0,0,0,0,0,0,-1,1483,1366,0,0
266,-342,0,0,0,0,0,0,0,0,0,-1,1490,1366,0,0
273,-342,0,0,0,0,0,0,0,0,0,-1,1497,1366,0,0
280,-342,0,0,0,0,0,0,0,0,0,-1,1504,1366,0,0
287,-342,0,0,0,0,0,0,0,0,0,-1,1511,1366,0,0
294,-342,0,0,0,0,0,0,0,0,0,-1,1518,1366,0,0
301,-342,0,0,0,0,0,0,0,0,0,-1,1525,1366,0,0
308,-342,0,0,0,0,0,0,0,0,0,-1,1532,1366,0,0
315,-342,0,0,0,0,0,0,0,0,0,-1,1539,1366,0,0
322,-342,0,0,0,0,0,0,0,0,0,-1,1546,1366,0,0
329,-342,0,0,0,0,0,0,0,0,0,-1,1553,1366,0,0
336,-342,0,0,0,0,0,0,0,0,0,-1,1560,1366,0,0
343,-342,0,0,0,0,0,0,0,0,0,-1,1567,1366,0,0
350,-342,0,0,0,0,0,0,0,0,0,-1,1574,1366,0,0
357,-342,0,0,0,0,0,0,0,0,0,-1,1581,1366,0,0
364,-342,0,0,0,0,0,0,0,0,0,-1,1588,1366,0,0
371,-342,0,0,0,0,0,0,0,0,0,-1,1595,1366,0,0
378,-342,0,0,0,0,0,0,0,0,0,-1,1602,1366,0,0
385,-342,0,0,0,0,0,0,0,0,0,-1,1609,1366,0,0
392,-342,0,0,0,0,0,0,0,0,0,-1,1616,1366,0,0
399,-342,0,0,0,0,0,0,0,0,0,-1,1623,1366,0,0
406,-342,0,0,0,0,0,0,0,0,0,-1,1630,1366,0,0
413,-342,0,0,0,0,0,0,0,0,0,-1,1637,1366,0,0
420,-342,0,0,0,0,0,0,0,0,0,-1,1644,1366,0,0
427,-342,0,0,0,0,0,0,0,0,0,-1,1651,1366,0,0
434,-342,0,0,0,0,0,0,0,0,0,-1,1658,1366,0,0
441,-342,0,0,0,0,0,0,0,0,0,-1,1665,1366,0,0
448,-342,0,0,0,0,0,0,0,0,0,-1,1672,1366,0,0
455,-342,0,0,0,0,0,0,0,0,0,-1,1679,1366,0,0
462,-342,0,0,0,0,0,0,0,0,0,-1,1686,1366,0,0
469,-342,0,0,0,0,0,0,0,0,0,-1,1693,1366,0,0
476,-342,0,0,0,0,0,0,0,0,0,-1,1700,1366,0,0
483,-342,0,0,0,0,0,0,0,0,0,-1,1707,1366,0,0
490,-342,0,0,0,0,0,0,0,0,0,-1,1714,1366,0,0
497,-342,0,0,0,0,0,0,0,0,0,-1,1721,1366,0,0
504,-342,0,0,0,0,0,0,0,0,0,-1,1728,1366,0,0
511,-342,0,0,0,0,0,0,0,0,0,-1,1735,1366,0,0
518,-342,0,0,0,0,0,0,0,0,0,-1,1742,1366,0,0
525,-342,0,0,0,0,0,0,0,0,0,-1,1749,1366,0,0
532,-342,0,0,0,0,0,0,0,0,0,-1,1756,1366,0,0
539,-342,0,0,0,0,0,0,0,0,0,-1,1763,1366,0,0
546,-342,0,0,0,0,0,0,0,0,0,-1,1770,1366,0,0
553,-342,0,0,0,0,0,0,0,0,0,-1,1777,1366,0,0
560,-342,0,0,0,0,0,0,0,0,0,-1,1784,1366,0,0
567,-342,42.6652,5.53748,0,0,0,0,0,0,0,-1,1791,1366,42.6652,-5.53752
574,-342,57.798,-0.27356,0,0,0,0,0,0,0,-1,1798,1366,57.798,0.273534
581,-342,57.0219,-0.327759,0,0,0,0,0,0,0,-1,1805,1366,57.0219,0.327814
588,-342,43.9108,7.22559,0,0,0,0,0,0,0,-1,1812,1366,43.9107,-7.22554
595,-342,35.7993,0.709961,0,0,0,0,0,0,0,-1,1819,1366,35.7993,-0.709913
602,-342,36.3618,3.28723,0,0,0,0,0,0,0,-1,1826,1366,36.3619,-3.28719
609,-342,35.3777,4.14978,0,0,0,0,0,0,0,-1,1833,1366,35.3777,-4.14976
616,-342,34.199,5.8158,0,0,0,0,0,0,0,-1,1840,1366,34.199,-5.81579
623,-342,26.0299,6.86865,0,0,0,0,0,0,0,-1,1847,1366,26.0299,-6.86863
630,-342,17.3431,0.773071,0,0,0,0,0,0,0,-1,1854,1366,17.3432,-0.773095
637,-342,16.196,6.76172,0,0,0,0,0,0,0,-1,1861,1366,16.1961,-6.76174
644,-342,31.8916,14.0614,0,0,0,0,0,0,0,-1,1868,1366,31.8916,-14.0613
651,-342,37.031,15.6912,0,0,0,0,0,0,0,-1,1875,1366,37.031,-15.6912
658,-342,37.068,15.0475,-0.000387847,0.000878073,-0.000568692,0.00109602,-0.000605797,-1.20481,0.000996042,0.0213953,1882,1366,37.0679,-15.0475
665,-342,37.0564,14.3802,0.000166458,0.000410721,-0.000345046,0.000654613,-7.74335e-05,-0.955496,0.000464377,0.0173073,1889,1366,37.0564,-14.3803
672,-342,37.012,13.8302,0.000802709,0.000152081,-0.000257233,0.000892121,6.26683e-05,-0.334529,0.000574998,0.0140845,1896,1366,37.012,-13.8302
679,-342,36.9971,13.2517,0.00148871,-1.88223e-05,-0.000220984,0.00152044,-5.05481e-05,-0.142591,0.00103089,0.0141176,1903,1366,36.9971,-13.2517
686,-342,37.0156,12.6357,0.00223763,-8.31524e-05,-0.000254393,0.00226518,-0.000110711,-0.107908,0.00154835,0.0123967,1910,1366,37.0157,-12.6358
693,-342,36.9706,12.0154,0.00300608,-8.19193e-05,-0.000317721,0.00303843,-0.00011427,-0.101472,0.00206477,0.0128405,1917,1366,36.9706,-12.0154
700,-342,36.9424,11.4325,0.00380828,1.08525e-05,-0.00042453,0.00385516,-3.60288e-05,-0.109985,0.0025822,0.0147509,1924,1366,36.9424,-11.4325
707,-342,36.9048,10.7534,0.00450215,0.000173723,-0.000492097,0.00455739,0.000118482,-0.111789,0.00299955,0.0148073,1931,1366,36.9048,-10.7534
714,-342,36.8754,10.0432,0,0,0,0,0,0,0,-1,1938,1366,36.8753,-10.0432
721,-342,22.4666,6.08679,0,0,0,0,0,0,0,-1,1945,1366,22.4666,-6.08678
728,-342,19.8912,5.26636,0,0,0,0,0,0,0,-1,1952,1366,19.8913,-5.26636
735,-342,19.481,4.41968,0,0,0,0,0,0,0,-1,1959,1366,19.4809,-4.41962
742,-342,19.309,2.66943,0,0,0,0,0,0,0,-1,1966,1366,19.3089,-2.66948
749,-342,21.0934,6.47729,0,0,0,0,0,0,0,-1,1973,1366,21.0934,-6.4773
756,-342,0,0,0,0,0,0,0,0,0,-1,1980,1366,0,0
763,-342,0,0,0,0,0,0,0,0,0,-1,1987,1366,0,0
770,-342,0,0,0,0,0,0,0,0,0,-1,1994,1366,0,0
777,-342,0,0,0,0,0,0,0,0,0,-1,2001,1366,0,0
784,-342,0,0,0,0,0,0,0,0,0,-1,2008,1366,0,0
791,-342,0,0,0,0,0,0,0,0,0,-1,2015,1366,0,0
798,-342,0,0,0,0,0,0,0,0,0,-1,2022,1366,0,0
805,-342,0,0,0,0,0,0,0,0,0,-1,2029,1366,0,0
812,-342,0,0,0,0,0,0,0,0,0,-1,2036,1366,0,0
-700,-349,0,0,0,0,0,0,0,0,0,-1,524,1373,0,0
-693,-349,0,0,0,0,0,0,0,0,0,-1,531,1373,0,0
-686,-349,0,0,0,0,0,0,0,0,0,-1,538,1373,0,0
-679,-349,0,0,0,0,0,0,0,0,0,-1,545,1373,0,0
-672,-349,0,0,0,0,0,0,0,0,0,-1,552,1373,0,0
-665,-349,0,0,0,0,0,0,0,0,0,-1,559,1373,0,0
-658,-349,0,0,0,0,0,0,0,0,0,-1,566,1373,0,0
-651,-349,0,0,0,0,0,0,0,0,0,-1,573,1373,0,0
-644,-349,0,0,0,0,0,0,0,0,0,-1,580,1373,0,0
-637,-349,0,0,0,0,0,0,0,0,0,-1,587,1373,0,0
-630,-349,-7.64117,-5.06177,0,0,0,0,0,0,0,-1,594,1373,-7.64118,5.0618
-623,-349,-8.63507,0.51123,0,0,0,0,0,0,0,-1,601,1373,-8.63505,-0.511275
-616,-349,-5.2066,-0.188232,0,0,0,0,0,0,0,-1,608,1373,-5.20659,0.188211
-609,-349,-7.12073,1.37048,0,0,0,0,0,0,0,-1,615,1373,-7.12072,-1.37044
-602,-349,-9.00623,3.39587,0,0,0,0,0,0,0,-1,622,1373,-9.0062,-3.39591
-595,-349,-9.50568,2.96912,0,0,0,0,0,0,0,-1,629,1373,-9.50569,-2.96906
-588,-349,-8.60046,3.56042,0,0,0,0,0,0,0,-1,636,1373,-8.60046,-3.56047
-581,-349,-20.0035,8.16492,0,0,0,0,0,0,0,-1,643,1373,-20.0035,-8.16496
-574,-349,-20.0602,8.77246,0.00487151,0.00273282,0.00247494,0.00649824,0.00110609,0.581477,0.00401458,0.0371867,650,1373,-20.0602,-8.77246
-567,-349,-20.0989,9.51819,0.00399704,0.00206222,0.00198071,0.00523397,0.000825289,0.558229,0.00324934,0.0184422,657,1373,-20.0989,-9.51818
-560,-349,-20.1242,10.166,0.00342455,0.0014894,0.00159228,0.00432019,0.000593762,0.512379,0.00270403,0.022093,664,1373,-20.1242,-10.1661
-553,-349,-20.1279,10.7332,0.00308015,0.00100639,0.00132753,0.00372774,0.000358801,0.453856,0.00237461,0.0270705,671,1373,-20.1278,-10.7332
-546,-349,-20.1452,11.3811,0.00290622,0.000593668,0.00114371,0.00337631,0.000123585,0.389967,0.00221083,0.0289006,678,1373,-20.1452,-11.3811
-539,-349,-20.209,12.087,0.0028947,0.000255323,0.00104412,0.00325779,-0.00010777,0.334671,0.00220866,0.0233336,685,1373,-20.209,-12.087
-532,-349,-20.2203,12.7783,0.00305088,3.77735e-06,0.00104033,0.00337219,-0.00031753,0.299556,0.0023611,0.0177525,692,1373,-20.2203,-12.7783
-525,-349,-20.2066,13.4714,0.00337286,-0.000179327,0.00112811,0.00370085,-0.000507313,0.282938,0.00265256,0.0148031,699,1373,-20.2066,-13.4714
-518,-349,-20.2117,14.1366,0.00388622,-0.000152154,0.00135205,0.00429709,-0.000563017,0.295015,0.00306966,0.0235651,706,1373,-20.2117,-14.1366
-511,-349,-20.2029,14.8024,0,0,0,0,0,0,0,-1,713,1373,-20.2029,-14.8024
-504,-349,-9.60516,7.88831,0,0,0,0,0,0,0,-1,720,1373,-9.60519,-7.88825
-497,-349,-7.9339,5.58789,0,0,0,0,0,0,0,-1,727,1373,-7.93388,-5.58785
-490,-349,-8.73969,-0.503784,0,0,0,0,0,0,0,-1,734,1373,-8.73966,0.503752
-483,-349,-5.66974,3.7395,0,0,0,0,0,0,0,-1,741,1373,-5.66975,-3.73949
-476,-349,-10.8496,1.15759,0,0,0,0,0,0,0,-1,748,1373,-10.8496,-1.15756
-469,-349,-12.3314,-1.74878,0,0,0,0,0,0,0,-1,755,1373,-12.3314,1.74882
-462,-349,-12.6559,-0.995361,0,0,0,0,0,0,0,-1,762,1373,-12.656,0.995351
-455,-349,-13.2897,-0.234253,0,0,0,0,0,0,0,-1,769,1373,-13.2897,0.234261
-448,-349,-14.045,0.712891,0,0,0,0,0,0,0,-1,776,1373,-14.045,-0.712838
-441,-349,0,0,0,0,0,0,0,0,0,-1,783,1373,0,0
-434,-349,0,0,0,0,0,0,0,0,0,-1,790,1373,0,0
-427,-349,0,0,0,0,0,0,0,0,0,-1,797,1373,0,0
-420,-349,0,0,0,0,0,0,0,0,0,-1,804,1373,0,0
-413,-349,0,0,0,0,0,0,0,0,0,-1,811,1373,0,0
-406,-349,0,0,0,0,0,0,0,0,0,-1,818,1373,0,0
-399,-349,0,0,0,0,0,0,0,0,0,-1,825,1373,0,0
-392,-349,0,0,0,0,0,0,0,0,0,-1,832,1373,0,0
-385,-349,0,0,0,0,0,0,0,0,0,-1,839,1373,0,0
-378,-349,0,0,0,0,0,0,0,0,0,-1,846,1373,0,0
-371,-349,0,0,0,0,0,0,0,0,0,-1,853,1373,0,0
-364,-349,0,0,0,0,0,0,0,0,0,-1,860,1373,0,0
-357,-349,0,0,0,0,0,0,0,0,0,-1,867,1373,0,0
-350,-349,0,0,0,0,0,0,0,0,0,-1,874,1373,0,0
-343,-349,0,0,0,0,0,0,0,0,0,-1,881,1373,0,0
-336,-349,0,0,0,0,0,0,0,0,0,-1,888,1373,0,0
-329,-349,0,0,0,0,0,0,0,0,0,-1,895,1373,0,0
-322,-349,0,0,0,0,0,0,0,0,0,-1,902,1373,0,0
-315,-349,0,0,0,0,0,0,0,0,0,-1,909,1373,0,0
-308,-349,0,0,0,0,0,0,0,0,0,-1,916,1373,0,0
-301,-349,0,0,0,0,0,0,0,0,0,-1,923,1373,0,0
-294,-349,0,0,0,0,0,0,0,0,0,-1,930,1373,0,0
-287,-349,0,0,0,0,0,0,0,0,0,-1,937,1373,0,0
-280,-349,0,0,0,0,0,0,0,0,0,-1,944,1373,0,0
-273,-349,0,0,0,0,0,0,0,0,0,-1,951,1373,0,0
-266,-349,0,0,0,0,0,0,0,0,0,-1,958,1373,0,0
-259,-349,0,0,0,0,0,0,0,0,0,-1,965,1373,0,0
-252,-349,0,0,0,0,0,0,0,0,0,-1,972,1373,0,0
-245,-349,0,0,0,0,0,0,0,0,0,-1,979,1373,0,0
-238,-349,0,0,0,0,0,0,0,0,0,-1,986,1373,0,0
-231,-349,0,0,0,0,0,0,0,0,0,-1,993,1373,0,0
-224,-349,0,0,0,0,0,0,0,0,0,-1,1000,1373,0,0
-217,-349,0,0,0,0,0,0,0,0,0,-1,1007,1373,0,0
-210,-349,0,0,0,0,0,0,0,0,0,-1,1014,1373,0,0
-203,-349,0,0,0,0,0,0,0,0,0,-1,1021,1373,0,0
-196,-349,0,0,0,0,0,0,0,0,0,-1,1028,1373,0,0
-189,-349,0,0,0,0,0,0,0,0,0,-1,1035,1373,0,0
-182,-349,0,0,0,0,0,0,0,0,0,-1,1042,1373,0,0
-175,-349,0,0,0,0,0,0,0,0,0,-1,1049,1373,0,0
-168,-349,0,0,0,0,0,0,0,0,0,-1,1056,1373,0,0
-161,-349,0,0,0,0,0,0,0,0,0,-1,1063,1373,0,0
-154,-349,0,0,0,0,0,0,0,0,0,-1,1070,1373,0,0
-147,-349,0,0,0,0,0,0,0,0,0,-1,1077,1373,0,0
-140,-349,0,0,0,0,0,0,0,0,0,-1,1084,1373,0,0
-133,-349,0,0,0,0,0,0,0,0,0,-1,1091,1373,0,0
-126,-349,0,0,0,0,0,0,0,0,0,-1,1098,1373,0,0
-119,-349,0,0,0,0,0,0,0,0,0,-1,1105,1373,0,0
-112,-349,0,0,0,0,0,0,0,0,0,-1,1112,1373,0,0
-105,-349,0,0,0,0,0,0,0,0,0,-1,1119,1373,0,0
-98,-349,0,0,0,0,0,0,0,0,0,-1,1126,1373,0,0
-91,-349,0,0,0,0,0,0,0,0,0,-1,1133,1373,0,0
-84,-349,0,0,0,0,0,0,0,0,0,-1,1140,1373,0,0
-77,-349,0,0,0,0,0,0,0,0,0,-1,1147,1373,0,0
-70,-349,0,0,0,0,0,0,0,0,0,-1,1154,1373,0,0
-63,-349,0,0,0,0,0,0,0,0,0,-1,1161,1373,0,0
-56,-349,0,0,0,0,0,0,0,0,0,-1,1168,1373,0,0
-49,-349,0,0,0,0,0,0,0,0,0,-1,1175,1373,0,0
-42,-349,0,0,0,0,0,0,0,0,0,-1,1182,1373,0,0
-35,-349,0,0,0,0,0,0,0,0,0,-1,1189,1373,0,0
-28,-349,0,0,0,0,0,0,0,0,0,-1,1196,1373,0,0
-21,-349,0,0,0,0,0,0,0,0,0,-1,1203,1373,0,0
-14,-349,0,0,0,0,0,0,0,0,0,-1,1210,1373,0,0
-7,-349,0,0,0,0,0,0,0,0,0,-1,1217,1373,0,0
0,-349,0,0,0,0,0,0,0,0,0,-1,1224,1373,0,0
7,-349,0,0,0,0,0,0,0,0,0,-1,1231,1373,0,0
14,-349,0,0,0,0,0,0,0,0,0,-1,1238,1373,0,0
21,-349,0,0,0,0,0,0,0,0,0,-1,1245,1373,0,0
28,-349,0,0,0,0,0,0,0,0,0,-1,1252,1373,0,0
35,-349,0,0,0,0,0,0,0,0,0,-1,1259,1373,0,0
42,-349,0,0,0,0,0,0,0,0,0,-1,1266,1373,0,0
49,-349,0,0,0,0,0,0,0,0,0,-1,1273,1373,0,0
56,-349,0,0,0,0,0,0,0,0,0,-1,1280,1373,0,0
63,-349,0,0,0,0,0,0,0,0,0,-1,1287,1373,0,0
70,-349,0,0,0,0,0,0,0,0,0,-1,1294,1373,0,0
77,-349,0,0,0,0,0,0,0,0,0,-1,1301,1373,0,0
84,-349,0,0,0,0,0,0,0,0,0,-1,1308,1373,0,0
91,-349,0,0,0,0,0,0,0,0,0,-1,1315,1373,0,0
98,-349,0,0,0,0,0,0,0,0,0,-1,1322,1373,0,0
105,-349,0,0,0,0,0,0,0,0,0,-1,1329,1373,0,0
112,-349,0,0,0,0,0,0,0,0,0,-1,1336,1373,0,0
119,-349,0,0,0,0,0,0,0,0,0,-1,1343,1373,0,0
126,-349,0,0,0,0,0,0,0,0,0,-1,1350,1373,0,0
133,-349,0,0,0,0,0,0,0,0,0,-1,1357,1373,0,0
140,-349,0,0,0,0,0,0,0,0,0,-1,1364,1373,0,0
147,-349,0,0,0,0,0,0,0,0,0,-1,1371,1373,0,0
154,-349,0,0,0,0,0,0,0,0,0,-1,1378,1373,0,0
161,-349,0,0,0,0,0,0,0,0,0,-1,1385,1373,0,0
168,-349,0,0,0,0,0,0,0,0,0,-1,1392,1373,0,0
175,-349,0,0,0,0,0,0,0,0,0,-1,1399,1373,0,0
182,-349,0,0,0,0,0,0,0,0,0,-1,1406,1373,0,0
189,-349,0,0,0,0,0,0,0,0,0,-1,1413,1373,0,0
196,-349,0,0,0,0,0,0,0,0,0,-1,1420,1373,0,0
203,-349,0,0,0,0,0,0,0,0,0,-1,1427,1373,0,0
210,-349,0,0,0,0,0,0,0,0,0,-1,1434,1373,0,0
217,-349,0,0,0,0,0,0,0,0,0,-1,1441,1373,0,0
224,-349,0,0,0,0,0,0,0,0,0,-1,1448,1373,0,0
231,-349,0,0,0,0,0,0,0,0,0,-1,1455,1373,0,0
238,-349,0,0,0,0,0,0,0,0,0,-1,1462,1373,0,0
245,-349,0,0,0,0,0,0,0,0,0,-1,1469,1373,0,0
252,-349,0,0,0,0,0,0,0,0,0,-1,1476,1373,0,0
259,-349,0,0,0,0,0,0,0,0,0,-1,1483,1373,0,0
266,-349,0,0,0,0,0,0,0,0,0,-1,1490,1373,0,0
273,-349,0,0,0,0,0,0,0,0,0,-1,1497,1373,0,0
280,-349,0,0,0,0,0,0,0,0,0,-1,1504,1373,0,0
287,-349,0,0,0,0,0,0,0,0,0,-1,1511,1373,0,0
294,-349,0,0,0,0,0,0,0,0,0,-1,1518,1373,0,0
301,-349,0,0,0,0,0,0,0,0,0,-1,1525,1373,0,0
308,-349,0,0,0,0,0,0,0,0,0,-1,1532,1373,0,0
315,-349,0,0,0,0,0,0,0,0,0,-1,1539,1373,0,0
322,-349,0,0,0,0,0,0,0,0,0,-1,1546,1373,0,0
329,-349,0,0,0,0,0,0,0,0,0,-1,1553,1373,0,0
336,-349,0,0,0,0,0,0,0,0,0,-1,1560,1373,0,0
343,-349,0,0,0,0,0,0,0,0,0,-1,1567,1373,0,0
350,-349,0,0,0,0,0,0,0,0,0,-1,1574,1373,0,0
357,-349,0,0,0,0,0,0,0,0,0,-1,1581,1373,0,0
364,-349,0,0,0,0,0,0,0,0,0,-1,1588,1373,0,0
371,-349,0,0,0,0,0,0,0,0,0,-1,1595,1373,0,0
378,-349,0,0,0,0,0,0,0,0,0,-1,1602,1373,0,0
385,-349,0,0,0,0,0,0,0,0,0,-1,1609,1373,0,0
392,-349,0,0,0,0,0,0,0,0,0,-1,1616,1373,0,0
399,-349,0,0,0,0,0,0,0,0,0,-1,1623,1373,0,0
406,-349,0,0,0,0,0,0,0,0,0,-1,1630,1373,0,0
413,-349,0,0,0,0,0,0,0,0,0,-1,1637,1373,0,0
420,-349,0,0,0,0,0,0,0,0,0,-1,1644,1373,0,0
427,-349,0,0,0,0,0,0,0,0,0,-1,1651,1373,0,0
434,-349,0,0,0,0,0,0,0,0,0,-1,1658,1373,0,0
441,-349,0,0,0,0,0,0,0,0,0,-1,1665,1373,0,0
448,-349,0,0,0,0,0,0,0,0,0,-1,1672,1373,0,0
455,-349,0,0,0,0,0,0,0,0,0,-1,1679,1373,0,0
462,-349,0,0,0,0,0,0,0,0,0,-1,1686,1373,0,0
469,-349,0,0,0,0,0,0,0,0,0,-1,1693,1373,0,0
476,-349,0,0,0,0,0,0,0,0,0,-1,1700,1373,0,0
483,-349,0,0,0,0,0,0,0,0,0,-1,1707,1373,0,0
490,-349,0,0,0,0,0,0,0,0,0,-1,1714,1373,0,0
497,-349,0,0,0,0,0,0,0,0,0,-1,1721,1373,0,0
504,-349,0,0,0,0,0,0,0,0,0,-1,1728,1373,0,0
511,-349,0,0,0,0,0,0,0,0,0,-1,1735,1373,0,0
518,-349,0,0,0,0,0,0,0,0,0,-1,1742,1373,0,0
525,-349,0,0,0,0,0,0,0,0,0,-1,1749,1373,0,0
532,-349,0,0,0,0,0,0,0,0,0,-1,1756,1373,0,0
539,-349,0,0,0,0,0,0,0,0,0,-1,1763,1373,0,0
546,-349,0,0,0,0,0,0,0,0,0,-1,1770,1373,0,0
553,-349,0,0,0,0,0,0,0,0,0,-1,1777,1373,0,0
560,-349,45.6893,3.53845,0,0,0,0,0,0,0,-1,1784,1373,45.6893,-3.5385
567,-349,41.9424,6.03833,0,0,0,0,0,0,0,-1,1791,1373,41.9423,-6.03834
574,-349,42.4165,6.17078,0,0,0,0,0,0,0,-1,1798,1373,42.4165,-6.17072
581,-349,42.8947,6.78381,0,0,0,0,0,0,0,-1,1805,1373,42.8946,-6.78376
588,-349,44.8121,5.06213,0,0,0,0,0,0,0,-1,1812,1373,44.8121,-5.06215
595,-349,44.4338,6.14099,0,0,0,0,0,0,0,-1,1819,1373,44.4338,-6.14095
602,-349,35.6641,3.26465,0,0,0,0,0,0,0,-1,1826,1373,35.6641,-3.26468
609,-349,34.7175,4.401,0,0,0,0,0,0,0,-1,1833,1373,34.7175,-4.40096
616,-349,27.1451,6.68274,0,0,0,0,0,0,0,-1,1840,1373,27.1451,-6.6828
623,-349,18.8478,2.75769,0,0,0,0,0,0,0,-1,1847,1373,18.8478,-2.75774
630,-349,15.4948,6.47644,0,0,0,0,0,0,0,-1,1854,1373,15.4947,-6.4765
637,-349,16.5161,6.92639,0,0,0,0,0,0,0,-1,1861,1373,16.5161,-6.92636
644,-349,36.5682,16.3458,0,0,0,0,0,0,0,-1,1868,1373,36.5683,-16.3458
651,-349,36.5909,15.6816,-0.00290475,0.00148385,-0.000964817,0.00168659,-0.0031075,-1.36367,0.0028081,0.0423791,1875,1373,36.5909,-15.6816
658,-349,36.4598,15.0408,-7.30077e-05,0.000693807,-0.000539104,0.000971939,-0.000351139,-1.0945,0.000791412,0.0263195,1882,1373,36.4598,-15.0408
665,-349,36.4579,14.4072,0.000446747,0.000314351,-0.000287905,0.000675966,8.51315e-05,-0.672397,0.000425118,0.0204443,1889,1373,36.4579,-14.4073
672,-349,36.3977,13.8413,0.00107526,7.04071e-05,-0.000136782,0.00109355,5.21209e-05,-0.132901,0.000712294,0.0151639,1896,1373,36.3977,-13.8413
679,-349,36.3784,13.2623,0.00179254,-0.000122792,-4.61159e-05,0.00179365,-0.000123902,-0.0240587,0.00123913,0.0153339,1903,1373,36.3784,-13.2623
686,-349,36.4193,12.6436,0.00261455,-0.000231848,-3.59219e-05,0.002615,-0.000232302,-0.0126174,0.0018257,0.0164994,1910,1373,36.4194,-12.6435
693,-349,36.3514,12.0267,0.00349441,-0.000277045,-7.25711e-05,0.00349581,-0.000278441,-0.0192327,0.00242868,0.0188951,1917,1373,36.3514,-12.0267
700,-349,36.3289,11.4463,0.00445559,-0.000220527,-0.000184749,0.00446288,-0.000227814,-0.0394271,0.00305403,0.0181858,1924,1373,36.3288,-11.4463
707,-349,36.4049,10.8121,0.00530642,-9.17509e-05,-0.000270445,0.00531993,-0.000105266,-0.0499328,0.00358223,0.0351013,1931,1373,36.4049,-10.8121
714,-349,36.4991,10.0288,0,0,0,0,0,0,0,-1,1938,1373,36.4992,-10.0288
721,-349,19.6688,5.93604,0,0,0,0,0,0,0,-1,1945,1373,19.6688,-5.93606
728,-349,18.6333,3.73218,0,0,0,0,0,0,0,-1,1952,1373,18.6333,-3.73214
735,-349,18.1918,3.39954,0,0,0,0,0,0,0,-1,1959,1373,18.1918,-3.3995
742,-349,20.7345,2.07483,0,0,0,0,0,0,0,-1,1966,1373,20.7345,-2.07485
749,-349,21.9037,1.45789,0,0,0,0,0,0,0,-1,1973,1373,21.9037,-1.45788
756,-349,0,0,0,0,0,0,0,0,0,-1,1980,1373,0,0
763,-349,0,0,0,0,0,0,0,0,0,-1,1987,1373,0,0
770,-349,0,0,0,0,0,0,0,0,0,-1,1994,1373,0,0
777,-349,0,0,0,0,0,0,0,0,0,-1,2001,1373,0,0
784,-349,0,0,0,0,0,0,0,0,0,-1,2008,1373,0,0
791,-349,0,0,0,0,0,0,0,0,0,-1,2015,1373,0,0
798,-349,0,0,0,0,0,0,0,0,0,-1,2022,1373,0,0
805,-349,0,0,0,0,0,0,0,0,0,-1,2029,1373,0,0
812,-349,0,0,0,0,0,0,0,0,0,-1,2036,1373,0,0
-700,-356,0,0,0,0,0,0,0,0,0,-1,524,1380,0,0
-693,-356,0,0,0,0,0,0,0,0,0,-1,531,1380,0,0
-686,-356,0,0,0,0,0,0,0,0,0,-1,538,1380,0,0
-679,-356,0,0,0,0,0,0,0,0,0,-1,545,1380,0,0
-672,-356,0,0,0,0,0,0,0,0,0,-1,552,1380,0,0
-665,-356,0,0,0,0,0,0,0,0,0,-1,559,1380,0,0
-658,-356,0,0,0,0,0,0,0,0,0,-1,566,1380,0,0
-651,-356,0,0,0,0,0,0,0,0,0,-1,573,1380,0,0
-644,-356,0,0,0,0,0,0,0,0,0,-1,580,1380,0,0
-637,-356,0,0,0,0,0,0,0,0,0,-1,587,1380,0,0
-630,-356,-8.23126,-5.01917,0,0,0,0,0,0,0,-1,594,1380,-8.23124,5.0192
-623,-356,-0.263855,-0.675781,0,0,0,0,0,0,0,-1,601,1380,-0.263835,0.675841
-616,-356,-8.26532,-3.43945,0,0,0,0,0,0,0,-1,608,1380,-8.2653,3.43948
-609,-356,-4.88483,0.734497,0,0,0,0,0,0,0,-1,615,1380,-4.88485,-0.734532
-602,-356,-9.06635,2.4021,0,0,0,0,0,0,0,-1,622,1380,-9.06634,-2.40206
-595,-356,-8.45703,3.61853,0,0,0,0,0,0,0,-1,629,1380,-8.45706,-3.61848
-588,-356,-9.31738,4.14258,0,0,0,0,0,0,0,-1,636,1380,-9.31736,-4.14255
-581,-356,-16.5185,7.32312,0,0,0,0,0,0,0,-1,643,1380,-16.5185,-7.32306
-574,-356,-19.4987,8.78174,0,0,0,0,0,0,0,-1,650,1380,-19.4987,-8.78173
-567,-356,-19.4697,9.47021,0.00452068,0.00252,0.0024493,0.00616604,0.000874638,0.591527,0.00385239,0.0223173,657,1380,-19.4698,-9.47022
-560,-356,-19.4273,10.1986,0.00379821,0.00183628,0.00192605,0.00497871,0.000655771,0.549862,0.00312358,0.0174628,664,1380,-19.4273,-10.1986
-553,-356,-19.4622,10.8412,0.00332649,0.00128135,0.00156367,0.00417227,0.000435575,0.495823,0.00264829,0.0196972,671,1380,-19.4622,-10.8412
-546,-356,-19.5057,11.4752,0.00300747,0.000816007,0.00128731,0.00360224,0.000221236,0.43281,0.00233125,0.0215137,678,1380,-19.5058,-11.4752
-539,-356,-19.5276,12.1444,0.0028455,0.000439162,0.00110208,0.00327395,1.07075e-05,0.370787,0.00217908,0.0151097,685,1380,-19.5276,-12.1444
-532,-356,-19.5836,12.8282,0.00284709,0.00018077,0.00103268,0.00320027,-0.000172407,0.329532,0.00219324,0.0144912,692,1380,-19.5836,-12.8282
-525,-356,-19.588,13.5009,0.0030071,1.5785e-05,0.00106459,0.00334729,-0.000324406,0.309296,0.00234715,0.0134329,699,1380,-19.588,-13.5009
-518,-356,-19.5935,14.144,0.00334487,3.60758e-05,0.00123563,0.00375537,-0.000374426,0.320749,0.00263726,0.0138383,706,1380,-19.5935,-14.1441
-511,-356,-19.6042,14.8014,0,0,0,0,0,0,0,-1,713,1380,-19.6042,-14.8014
-504,-356,-14.3925,12.3971,0,0,0,0,0,0,0,-1,720,1380,-14.3925,-12.3971
-497,-356,-5.68604,4.96387,0,0,0,0,0,0,0,-1,727,1380,-5.68605,-4.96385
-490,-356,-7.95288,5.5625,0,0,0,0,0,0,0,-1,734,1380,-7.95285,-5.56246
-483,-356,-7.2627,4.07446,0,0,0,0,0,0,0,-1,741,1380,-7.2627,-4.07441
-476,-356,-5.1936,4.16016,0,0,0,0,0,0,0,-1,748,1380,-5.1936,-4.16012
-469,-356,-10.0883,0.536011,0,0,0,0,0,0,0,-1,755,1380,-10.0883,-0.535989
-462,-356,-12.3481,-0.215698,0,0,0,0,0,0,0,-1,762,1380,-12.3481,0.215641
-455,-356,-13.1367,-0.264648,0,0,0,0,0,0,0,-1,769,1380,-13.1367,0.264647
-448,-356,-13.9116,-0.310181,0,0,0,0,0,0,0,-1,776,1380,-13.9115,0.310207
-441,-356,-13.1602,3.05603,0,0,0,0,0,0,0,-1,783,1380,-13.1602,-3.05609
-434,-356,0,0,0,0,0,0,0,0,0,-1,790,1380,0,0
-427,-356,0,0,0,0,0,0,0,0,0,-1,797,1380,0,0
-420,-356,0,0,0,0,0,0,0,0,0,-1,804,1380,0,0
-413,-356,0,0,0,0,0,0,0,0,0,-1,811,1380,0,0
-406,-356,0,0,0,0,0,0,0,0,0,-1,818,1380,0,0
-399,-356,0,0,0,0,0,0,0,0,0,-1,825,1380,0,0
-392,-356,0,0,0,0,0,0,0,0,0,-1,832,1380,0,0
-385,-356,0,0,0,0,0,0,0,0,0,-1,839,1380,0,0
-378,-356,0,0,0,0,0,0,0,0,0,-1,846,1380,0,0
-371,-356,0,0,0,0,0,0,0,0,0,-1,853,1380,0,0
-364,-356,0,0,0,0,0,0,0,0,0,-1,860,1380,0,0
-357,-356,0,0,0,0,0,0,0,0,0,-1,867,1380,0,0
-350,-356,0,0,0,0,0,0,0,0,0,-1,874,1380,0,0
-343,-356,0,0,0,0,0,0,0,0,0,-1,881,1380,0,0
-336,-356,0,0,0,0,0,0,0,0,0,-1,888,1380,0,0
-329,-356,0,0,0,0,0,0,0,0,0,-1,895,1380,0,0
-322,-356,0,0,0,0,0,0,0,0,0,-1,902,1380,0,0
-315,-356,0,0,0,0,0,0,0,0,0,-1,909,1380,0,0
-308,-356,0,0,0,0,0,0,0,0,0,-1,916,1380,0,0
-301,-356,0,0,0,0,0,0,0,0,0,-1,923,1380,0,0
-294,-356,0,0,0,0,0,0,0,0,0,-1,930,1380,0,0
-287,-356,0,0,0,0,0,0,0,0,0,-1,937,1380,0,0
-280,-356,0,0,0,0,0,0,0,0,0,-1,944,1380,0,0
-273,-356,0,0,0,0,0,0,0,0,0,-1,951,1380,0,0
-266,-356,0,0,0,0,0,0,0,0,0,-1,958,1380,0,0
-259,-356,0,0,0,0,0,0,0,0,0,-1,965,1380,0,0
-252,-356,0,0,0,0,0,0,0,0,0,-1,972,1380,0,0
-245,-356,0,0,0,0,0,0,0,0,0,-1,979,1380,0,0
-238,-356,0,0,0,0,0,0,0,0,0,-1,986,1380,0,0
-231,-356,0,0,0,0,0,0,0,0,0,-1,993,1380,0,0
-224,-356,0,0,0,0,0,0,0,0,0,-1,1000,1380,0,0
-217,-356,0,0,0,0,0,0,0,0,0,-1,1007,1380,0,0
-210,-356,0,0,0,0,0,0,0,0,0,-1,1014,1380,0,0
-203,-356,0,0,0,0,0,0,0,0,0,-1,1021,1380,0,0
-196,-356,0,0,0,0,0,0,0,0,0,-1,1028,1380,0,0
-189,-356,0,0,0,0,0,0,0,0,0,-1,1035,1380,0,0
-182,-356,0,0,0,0,0,0,0,0,0,-1,1042,1380,0,0
-175,-356,0,0,0,0,0,0,0,0,0,-1,1049,1380,0,0
-168,-356,0,0,0,0,0,0,0,0,0,-1,1056,1380,0,0
-161,-356,0,0,0,0,0,0,0,0,0,-1,1063,1380,0,0
-154,-356,0,0,0,0,0,0,0,0,0,-1,1070,1380,0,0
-147,-356,0,0,0,0,0,0,0,0,0,-1,1077,1380,0,0
-140,-356,0,0,0,0,0,0,0,0,0,-1,1084,1380,0,0
-133,-356,0,0,0,0,0,0,0,0,0,-1,1091,1380,0,0
-126,-356,0,0,0,0,0,0,0,0,0,-1,1098,1380,0,0
-119,-356,0,0,0,0,0,0,0,0,0,-1,1105,1380,0,0
-112,-356,0,0,0,0,0,0,0,0,0,-1,1112,1380,0,0
-105,-356,0,0,0,0,0,0,0,0,0,-1,1119,1380,0,0
-98,-356,0,0,0,0,0,0,0,0,0,-1,1126,1380,0,0
-91,-356,0,0,0,0,0,0,0,0,0,-1,1133,1380,0,0
-84,-356,0,0,0,0,0,0,0,0,0,-1,1140,1380,0,0
-77,-356,0,0,0,0,0,0,0,0,0,-1,1147,1380,0,0
-70,-356,0,0,0,0,0,0,0,0,0,-1,1154,1380,0,0
-63,-356,0,0,0,0,0,0,0,0,0,-1,1161,1380,0,0
-56,-356,0,0,0,0,0,0,0,0,0,-1,1168,1380,0,0
-49,-356,0,0,0,0,0,0,0,0,0,-1,1175,1380,0,0
-42,-356,0,0,0,0,0,0,0,0,0,-1,1182,1380,0,0
-35,-356,0,0,0,0,0,0,0,0,0,-1,1189,1380,0,0
-28,-356,0,0,0,0,0,0,0,0,0,-1,1196,1380,0,0
-21,-356,0,0,0,0,0,0,0,0,0,-1,1203,1380,0,0
-14,-356,0,0,0,0,0,0,0,0,0,-1,1210,1380,0,0
-7,-356,0,0,0,0,0,0,0,0,0,-1,1217,1380,0,0
0,-356,0,0,0,0,0,0,0,0,0,-1,1224,1380,0,0
7,-356,0,0,0,0,0,0,0,0,0,-1,1231,1380,0,0
14,-356,0,0,0,0,0,0,0,0,0,-1,1238,1380,0,0
21,-356,0,0,0,0,0,0,0,0,0,-1,1245,1380,0,0
28,-356,0,0,0,0,0,0,0,0,0,-1,1252,1380,0,0
35,-356,0,0,0,0,0,0,0,0,0,-1,1259,1380,0,0
42,-356,0,0,0,0,0,0,0,0,0,-1,1266,1380,0,0
49,-356,0,0,0,0,0,0,0,0,0,-1,1273,1380,0,0
56,-356,0,0,0,0,0,0,0,0,0,-1,1280,1380,0,0
63,-356,0,0,0,0,0,0,0,0,0,-1,1287,1380,0,0
70,-356,0,0,0,0,0,0,0,0,0,-1,1294,1380,0,0
77,-356,0,0,0,0,0,0,0,0,0,-1,1301,1380,0,0
84,-356,0,0,0,0,0,0,0,0,0,-1,1308,1380,0,0
91,-356,0,0,0,0,0,0,0,0,0,-1,1315,1380,0,0
98,-356,0,0,0,0,0,0,0,0,0,-1,1322,1380,0,0
105,-356,0,0,0,0,0,0,0,0,0,-1,1329,1380,0,0
112,-356,0,0,0,0,0,0,0,0,0,-1,1336,1380,0,0
119,-356,0,0,0,0,0,0,0,0,0,-1,1343,1380,0,0
126,-356,0,0,0,0,0,0,0,0,0,-1,1350,1380,0,0
133,-356,0,0,0,0,0,0,0,0,0,-1,1357,1380,0,0
140,-356,0,0,0,0,0,0,0,0,0,-1,1364,1380,0,0
147,-356,0,0,0,0,0,0,0,0,0,-1,1371,1380,0,0
154,-356,0,0,0,0,0,0,0,0,0,-1,1378,1380,0,0
161,-356,0,0,0,0,0,0,0,0,0,-1,1385,1380,0,0
168,-356,0,0,0,0,0,0,0,0,0,-1,1392,1380,0,0
175,-356,0,0,0,0,0,0,0,0,0,-1,1399,1380,0,0
182,-356,0,0,0,0,0,0,0,0,0,-1,1406,1380,0,0
189,-356,0,0,0,0,0,0,0,0,0,-1,1413,1380,0,0
196,-356,0,0,0,0,0,0,0,0,0,-1,1420,1380,0,0
203,-356,0,0,0,0,0,0,0,0,0,-1,1427,1380,0,0
210,-356,0,0,0,0,0,0,0,0,0,-1,1434,1380,0,0
217,-356,0,0,0,0,0,0,0,0,0,-1,1441,1380,0,0
224,-356,0,0,0,0,0,0,0,0,0,-1,1448,1380,0,0
231,-356,0,0,0,0,0,0,0,0,0,-1,1455,1380,0,0
238,-356,0,0,0,0,0,0,0,0,0,-1,1462,1380,0,0
245,-356,0,0,0,0,0,0,0,0,0,-1,1469,1380,0,0
252,-356,0,0,0,0,0,0,0,0,0,-1,1476,1380,0,0
259,-356,0,0,0,0,0,0,0,0,0,-1,1483,1380,0,0
266,-356,0,0,0,0,0,0,0,0,0,-1,1490,1380,0,0
273,-356,0,0,0,0,0,0,0,0,0,-1,1497,1380,0,0
280,-356,0,0,0,0,0,0,0,0,0,-1,1504,1380,0,0
287,-356,0,0,0,0,0,0,0,0,0,-1,1511,1380,0,0
294,-356,0,0,0,0,0,0,0,0,0,-1,1518,1380,0,0
301,-356,0,0,0,0,0,0,0,0,0,-1,1525,1380,0,0
308,-356,0,0,0,0,0,0,0,0,0,-1,1532,1380,0,0
315,-356,0,0,0,0,0,0,0,0,0,-1,1539,1380,0,0
322,-356,0,0,0,0,0,0,0,0,0,-1,1546,1380,0,0
329,-356,0,0,0,0,0,0,0,0,0,-1,1553,1380,0,0
336,-356,0,0,0,0,0,0,0,0,0,-1,1560,1380,0,0
343,-356,0,0,0,0,0,0,0,0,0,-1,1567,1380,0,0
350,-356,0,0,0,0,0,0,0,0,0,-1,1574,1380,0,0
357,-356,0,0,0,0,0,0,0,0,0,-1,1581,1380,0,0
364,-356,0,0,0,0,0,0,0,0,0,-1,1588,1380,0,0
371,-356,0,0,0,0,0,0,0,0,0,-1,1595,1380,0,0
378,-356,0,0,0,0,0,0,0,0,0,-1,1602,1380,0,0
385,-356,0,0,0,0,0,0,0,0,0,-1,1609,1380,0,0
392,-356,0,0,0,0,0,0,0,0,0,-1,1616,1380,0,0
399,-356,0,0,0,0,0,0,0,0,0,-1,1623,1380,0,0
406,-356,0,0,0,0,0,0,0,0,0,-1,1630,1380,0,0
413,-356,0,0,0,0,0,0,0,0,0,-1,1637,1380,0,0
420,-356,0,0,0,0,0,0,0,0,0,-1,1644,1380,0,0
427,-356,0,0,0,0,0,0,0,0,0,-1,1651,1380,0,0
434,-356,0,0,0,0,0,0,0,0,0,-1,1658,1380,0,0
441,-356,0,0,0,0,0,0,0,0,0,-1,1665,1380,0,0
448,-356,0,0,0,0,0,0,0,0,0,-1,1672,1380,0,0
455,-356,0,0,0,0,0,0,0,0,0,-1,1679,1380,0,0
462,-356,0,0,0,0,0,0,0,0,0,-1,1686,1380,0,0
469,-356,0,0,0,0,0,0,0,0,0,-1,1693,1380,0,0
476,-356,0,0,0,0,0,0,0,0,0,-1,1700,1380,0,0
483,-356,0,0,0,0,0,0,0,0,0,-1,1707,1380,0,0
490,-356,0,0,0,0,0,0,0,0,0,-1,1714,1380,0,0
497,-356,0,0,0,0,0,0,0,0,0,-1,1721,1380,0,0
504,-356,0,0,0,0,0,0,0,0,0,-1,1728,1380,0,0
511,-356,0,0,0,0,0,0,0,0,0,-1,1735,1380,0,0
518,-356,0,0,0,0,0,0,0,0,0,-1,1742,1380,0,0
525,-356,0,0,0,0,0,0,0,0,0,-1,1749,1380,0,0
532,-356,0,0,0,0,0,0,0,0,0,-1,1756,1380,0,0
539,-356,0,0,0,0,0,0,0,0,0,-1,1763,1380,0,0
546,-356,0,0,0,0,0,0,0,0,0,-1,1770,1380,0,0
553,-356,0,0,0,0,0,0,0,0,0,-1,1777,1380,0,0
560,-356,45.7938,3.65295,0,0,0,0,0,0,0,-1,1784,1380,45.7938,-3.65294
567,-356,45.6788,3.51428,0,0,0,0,0,0,0,-1,1791,1380,45.6788,-3.51422
574,-356,45.5742,3.39575,0,0,0,0,0,0,0,-1,1798,1380,45.5742,-3.39574
581,-356,45.6708,3.64172,0,0,0,0,0,0,0,-1,1805,1380,45.6707,-3.64175
588,-356,44.4739,4.87085,0,0,0,0,0,0,0,-1,1812,1380,44.4739,-4.87086
595,-356,32.0834,5.86084,0,0,0,0,0,0,0,-1,1819,1380,32.0834,-5.86079
602,-356,30.1604,6.07104,0,0,0,0,0,0,0,-1,1826,1380,30.1604,-6.07104
609,-356,28.3435,6.48901,0,0,0,0,0,0,0,-1,1833,1380,28.3435,-6.48899
616,-356,26.9358,6.80872,0,0,0,0,0,0,0,-1,1840,1380,26.9358,-6.80877
623,-356,16.1803,1.07532,0,0,0,0,0,0,0,-1,1847,1380,16.1803,-1.07529
630,-356,16.4138,6.91553,0,0,0,0,0,0,0,-1,1854,1380,16.4138,-6.9155
637,-356,24.8021,12.0151,0,0,0,0,0,0,0,-1,1861,1380,24.8022,-12.0151
644,-356,35.9309,16.3833,0,0,0,0,0,0,0,-1,1868,1380,35.9309,-16.3834
651,-356,35.9015,15.6893,-0.00135584,0.00104837,-0.00070838,0.00124156,-0.00154904,-1.30455,0.00161441,0.0199638,1875,1380,35.9015,-15.6893
658,-356,35.8525,15.0441,0.000224801,0.000465467,-0.000413893,0.000776165,-8.5897e-05,-0.926866,0.000548323,0.0148187,1882,1380,35.8526,-15.0441
665,-356,35.843,14.4725,0.000704154,0.000161289,-0.000145924,0.000740892,0.00012455,-0.24664,0.000458091,0.0142065,1889,1380,35.843,-14.4725
672,-356,35.7673,13.9183,0.00131123,-6.4727e-05,4.42992e-05,0.00131265,-6.61518e-05,0.0321509,0.000897966,0.01519,1896,1380,35.7673,-13.9183
679,-356,35.7614,13.2939,0.00203645,-0.000256537,0.000169182,0.00204886,-0.000268952,0.073254,0.00146382,0.0174532,1903,1380,35.7614,-13.2939
686,-356,35.7478,12.639,0.00290424,-0.000383823,0.000206712,0.00291719,-0.000396768,0.0625392,0.00208964,0.0186704,1910,1380,35.7478,-12.639
693,-356,35.7192,12.051,0.00388373,-0.000434806,0.000170557,0.00389046,-0.000441531,0.0394124,0.00275265,0.0161759,1917,1380,35.7193,-12.051
700,-356,35.745,11.4744,0.00501578,-0.00035439,2.45052e-05,0.00501589,-0.000354502,0.00456308,0.00346814,0.0224891,1924,1380,35.745,-11.4743
707,-356,35.9194,10.7194,0,0,0,0,0,0,0,-1,1931,1380,35.9194,-10.7194
714,-356,19.6907,5.82129,0,0,0,0,0,0,0,-1,1938,1380,19.6907,-5.82132
721,-356,17.2948,4.1958,0,0,0,0,0,0,0,-1,1945,1380,17.2948,-4.19584
728,-356,19.1846,2.31519,0,0,0,0,0,0,0,-1,1952,1380,19.1846,-2.31514
735,-356,20.0731,2.50842,0,0,0,0,0,0,0,-1,1959,1380,20.0731,-2.50844
742,-356,21.0111,2.43762,0,0,0,0,0,0,0,-1,1966,1380,21.0112,-2.43762
749,-356,22.1411,1.83276,0,0,0,0,0,0,0,-1,1973,1380,22.1411,-1.83275
756,-356,0,0,0,0,0,0,0,0,0,-1,1980,1380,0,0
763,-356,0,0,0,0,0,0,0,0,0,-1,1987,1380,0,0
770,-356,0,0,0,0,0,0,0,0,0,-1,1994,1380,0,0
777,-356,0,0,0,0,0,0,0,0,0,-1,2001,1380,0,0
784,-356,0,0,0,0,0,0,0,0,0,-1,2008,1380,0,0
791,-356,0,0,0,0,0,0,0,0,0,-1,2015,1380,0,0
798,-356,0,0,0,0,0,0,0,0,0,-1,2022,1380,0,0
805,-356,0,0,0,0,0,0,0,0,0,-1,2029,1380,0,0
812,-356,0,0,0,0,0,0,0,0,0,-1,2036,1380,0,0
-700,-363,0,0,0,0,0,0,0,0,0,-1,524,1387,0,0
-693,-363,0,0,0,0,0,0,0,0,0,-1,531,1387,0,0
-686,-363,0,0,0,0,0,0,0,0,0,-1,538,1387,0,0
-679,-363,0,0,0,0,0,0,0,0,0,-1,545,1387,0,0
-672,-363,0,0,0,0,0,0,0,0,0,-1,552,1387,0,0
-665,-363,0,0,0,0,0,0,0,0,0,-1,559,1387,0,0
-658,-363,0,0,0,0,0,0,0,0,0,-1,566,1387,0,0
-651,-363,0,0,0,0,0,0,0,0,0,-1,573,1387,0,0
-644,-363,0,0,0,0,0,0,0,0,0,-1,580,1387,0,0
-637,-363,0,0,0,0,0,0,0,0,0,-1,587,1387,0,0
-630,-363,0,0,0,0,0,0,0,0,0,-1,594,1387,0,0
-623,-363,-9.67566,-5.91846,0,0,0,0,0,0,0,-1,601,1387,-9.67563,5.91847
-616,-363,-9.02985,-2.98083,0,0,0,0,0,0,0,-1,608,1387,-9.02987,2.98079
-609,-363,-4.90265,0.195679,0,0,0,0,0,0,0,-1,615,1387,-4.90263,-0.195721
-602,-363,-9.65009,3.5321,0,0,0,0,0,0,0,-1,622,1387,-9.65007,-3.53211
-595,-363,-8.00256,3.48853,0,0,0,0,0,0,0,-1,629,1387,-8.00256,-3.48855
-588,-363,-10.8846,4.49768,0,0,0,0,0,0,0,-1,636,1387,-10.8846,-4.49773
-581,-363,-11.7469,5.15161,0,0,0,0,0,0,0,-1,643,1387,-11.747,-5.15167
-574,-363,-17.8334,8.33801,0,0,0,0,0,0,0,-1,650,1387,-17.8334,-8.33804
-567,-363,-18.7769,9.50769,0,0,0,0,0,0,0,-1,657,1387,-18.7769,-9.50775
-560,-363,-18.7834,10.1887,0.00424689,0.0021224,0.00235747,0.00577038,0.000598914,0.573727,0.00366364,0.0132298,664,1387,-18.7835,-10.1887
-553,-363,-18.8058,10.8695,0.00364635,0.00150621,0.0018724,0.00473288,0.000419684,0.525799,0.00302508,0.0125446,671,1387,-18.8058,-10.8695
-546,-363,-18.84,11.5092,0.00319006,0.000999156,0.00149013,0.00394407,0.000245146,0.468438,0.00255159,0.0128402,678,1387,-18.84,-11.5092
-539,-363,-18.8319,12.1769,0.00288517,0.000593008,0.00120694,0.00340348,7.46963e-05,0.405628,0.0022445,0.0144837,685,1387,-18.8319,-12.1769
-532,-363,-18.9025,12.8622,0.00274328,0.000326275,0.00105413,0.00313841,-6.88623e-05,0.358638,0.0021156,0.0129568,692,1387,-18.9025,-12.8622
-525,-363,-18.9326,13.5168,0.00275526,0.000168222,0.0010123,0.00310428,-0.0001808,0.332018,0.00213234,0.0112378,699,1387,-18.9326,-13.5168
-518,-363,-18.9152,14.1644,0.00292923,0.000171669,0.00110697,0.00331861,-0.000217716,0.338241,0.00228844,0.0101392,706,1387,-18.9152,-14.1644
-511,-363,-18.856,14.8833,0.00332374,0.0004004,0.00140754,0.00389128,-0.000167131,0.383268,0.00265165,0.0288562,713,1387,-18.856,-14.8833
-504,-363,-18.7603,15.6544,0,0,0,0,0,0,0,-1,720,1387,-18.7603,-15.6544
-497,-363,-7.18842,7.29944,0,0,0,0,0,0,0,-1,727,1387,-7.18839,-7.29945
-490,-363,-5.42413,4.6958,0,0,0,0,0,0,0,-1,734,1387,-5.42412,-4.69583
-483,-363,-6.28375,4.1394,0,0,0,0,0,0,0,-1,741,1387,-6.28374,-4.13944
-476,-363,-5.83807,4.31018,0,0,0,0,0,0,0,-1,748,1387,-5.8381,-4.31013
-469,-363,-10.7125,0.697754,0,0,0,0,0,0,0,-1,755,1387,-10.7125,-0.697811
-462,-363,-9.55951,-0.0830078,0,0,0,0,0,0,0,-1,762,1387,-9.55949,0.0830163
-455,-363,-13.1008,-0.290894,0,0,0,0,0,0,0,-1,769,1387,-13.1008,0.290921
-448,-363,-11.7324,2.46606,0,0,0,0,0,0,0,-1,776,1387,-11.7324,-2.46605
-441,-363,-12.4464,2.5354,0,0,0,0,0,0,0,-1,783,1387,-12.4463,-2.53537
-434,-363,-13.6918,2.14661,0,0,0,0,0,0,0,-1,790,1387,-13.6918,-2.14662
-427,-363,0,0,0,0,0,0,0,0,0,-1,797,1387,0,0
-420,-363,0,0,0,0,0,0,0,0,0,-1,804,1387,0,0
-413,-363,0,0,0,0,0,0,0,0,0,-1,811,1387,0,0
-406,-363,0,0,0,0,0,0,0,0,0,-1,818,1387,0,0
-399,-363,0,0,0,0,0,0,0,0,0,-1,825,1387,0,0
-392,-363,0,0,0,0,0,0,0,0,0,-1,832,1387,0,0
-385,-363,0,0,0,0,0,0,0,0,0,-1,839,1387,0,0
-378,-363,0,0,0,0,0,0,0,0,0,-1,846,1387,0,0
-371,-363,0,0,0,0,0,0,0,0,0,-1,853,1387,0,0
-364,-363,0,0,0,0,0,0,0,0,0,-1,860,1387,0,0
-357,-363,0,0,0,0,0,0,0,0,0,-1,867,1387,0,0
-350,-363,0,0,0,0,0,0,0,0,0,-1,874,1387,0,0
-343,-363,0,0,0,0,0,0,0,0,0,-1,881,1387,0,0
-336,-363,0,0,0,0,0,0,0,0,0,-1,888,1387,0,0
-329,-363,0,0,0,0,0,0,0,0,0,-1,895,1387,0,0
-322,-363,0,0,0,0,0,0,0,0,0,-1,902,1387,0,0
-315,-363,0,0,0,0,0,0,0,0,0,-1,909,1387,0,0
-308,-363,0,0,0,0,0,0,0,0,0,-1,916,1387,0,0
-301,-363,0,0,0,0,0,0,0,0,0,-1,923,1387,0,0
-294,-363,0,0,0,0,0,0,0,0,0,-1,930,1387,0,0
-287,-363,0,0,0,0,0,0,0,0,0,-1,937,1387,0,0
-280,-363,0,0,0,0,0,0,0,0,0,-1,944,1387,0,0
-273,-363,0,0,0,0,0,0,0,0,0,-1,951,1387,0,0
-266,-363,0,0,0,0,0,0,0,0,0,-1,958,1387,0,0
-259,-363,0,0,0,0,0,0,0,0,0,-1,965,1387,0,0
-252,-363,0,0,0,0,0,0,0,0,0,-1,972,1387,0,0
-245,-363,0,0,0,0,0,0,0,0,0,-1,979,1387,0,0
-238,-363,0,0,0,0,0,0,0,0,0,-1,986,1387,0,0
-231,-363,0,0,0,0,0,0,0,0,0,-1,993,1387,0,0
-224,-363,0,0,0,0,0,0,0,0,0,-1,1000,1387,0,0
-217,-363,0,0,0,0,0,0,0,0,0,-1,1007,1387,0,0
-210,-363,0,0,0,0,0,0,0,0,0,-1,1014,1387,0,0
-203,-363,0,0,0,0,0,0,0,0,0,-1,1021,1387,0,0
-196,-363,0,0,0,0,0,0,0,0,0,-1,1028,1387,0,0
-189,-363,0,0,0,0,0,0,0,0,0,-1,1035,1387,0,0
-182,-363,0,0,0,0,0,0,0,0,0,-1,1042,1387,0,0
-175,-363,0,0,0,0,0,0,0,0,0,-1,1049,1387,0,0
-168,-363,0,0,0,0,0,0,0,0,0,-1,1056,1387,0,0
-161,-363,0,0,0,0,0,0,0,0,0,-1,1063,1387,0,0
-154,-363,0,0,0,0,0,0,0,0,0,-1,1070,1387,0,0
-147,-363,0,0,0,0,0,0,0,0,0,-1,1077,1387,0,0
-140,-363,0,0,0,0,0,0,0,0,0,-1,1084,1387,0,0
-133,-363,0,0,0,0,0,0,0,0,0,-1,1091,1387,0,0
-126,-363,0,0,0,0,0,0,0,0,0,-1,1098,1387,0,0
-119,-363,0,0,0,0,0,0,0,0,0,-1,1105,1387,0,0
-112,-363,0,0,0,0,0,0,0,0,0,-1,1112,1387,0,0
-105,-363,0,0,0,0,0,0,0,0,0,-1,1119,1387,0,0
-98,-363,0,0,0,0,0,0,0,0,0,-1,1126,1387,0,0
-91,-363,0,0,0,0,0,0,0,0,0,-1,1133,1387,0,0
-84,-363,0,0,0,0,0,0,0,0,0,-1,1140,1387,0,0
-77,-363,0,0,0,0,0,0,0,0,0,-1,1147,1387,0,0
-70,-363,0,0,0,0,0,0,0,0,0,-1,1154,1387,0,0
-63,-363,0,0,0,0,0,0,0,0,0,-1,1161,1387,0,0
-56,-363,0,0,0,0,0,0,0,0,0,-1,1168,1387,0,0
-49,-363,0,0,0,0,0,0,0,0,0,-1,1175,1387,0,0
-42,-363,0,0,0,0,0,0,0,0,0,-1,1182,1387,0,0
-35,-363,0,0,0,0,0,0,0,0,0,-1,1189,1387,0,0
-28,-363,0,0,0,0,0,0,0,0,0,-1,1196,1387,0,0
-21,-363,0,0,0,0,0,0,0,0,0,-1,1203,1387,0,0
-14,-363,0,0,0,0,0,0,0,0,0,-1,1210,1387,0,0
-7,-363,0,0,0,0,0,0,0,0,0,-1,1217,1387,0,0
0,-363,0,0,0,0,0,0,0,0,0,-1,1224,1387,0,0
7,-363,0,0,0,0,0,0,0,0,0,-1,1231,1387,0,0
14,-363,0,0,0,0,0,0,0,0,0,-1,1238,1387,0,0
21,-363,0,0,0,0,0,0,0,0,0,-1,1245,1387,0,0
28,-363,0,0,0,0,0,0,0,0,0,-1,1252,1387,0,0
35,-363,0,0,0,0,0,0,0,0,0,-1,1259,1387,0,0
42,-363,0,0,0,0,0,0,0,0,0,-1,1266,1387,0,0
49,-363,0,0,0,0,0,0,0,0,0,-1,1273,1387,0,0
56,-363,0,0,0,0,0,0,0,0,0,-1,1280,1387,0,0
63,-363,0,0,0,0,0,0,0,0,0,-1,1287,1387,0,0
70,-363,0,0,0,0,0,0,0,0,0,-1,1294,1387,0,0
77,-363,0,0,0,0,0,0,0,0,0,-1,1301,1387,0,0
84,-363,0,0,0,0,0,0,0,0,0,-1,1308,1387,0,0
91,-363,0,0,0,0,0,0,0,0,0,-1,1315,1387,0,0
98,-363,0,0,0,0,0,0,0,0,0,-1,1322,1387,0,0
105,-363,0,0,0,0,0,0,0,0,0,-1,1329,1387,0,0
112,-363,0,0,0,0,0,0,0,0,0,-1,1336,1387,0,0
119,-363,0,0,0,0,0,0,0,0,0,-1,1343,1387,0,0
126,-363,0,0,0,0,0,0,0,0,0,-1,1350,1387,0,0
133,-363,0,0,0,0,0,0,0,0,0,-1,1357,1387,0,0
140,-363,0,0,0,0,0,0,0,0,0,-1,1364,1387,0,0
147,-363,0,0,0,0,0,0,0,0,0,-1,1371,1387,0,0
154,-363,0,0,0,0,0,0,0,0,0,-1,1378,1387,0,0
161,-363,0,0,0,0,0,0,0,0,0,-1,1385,1387,0,0
168,-363,0,0,0,0,0,0,0,0,0,-1,1392,1387,0,0
175,-363,0,0,0,0,0,0,0,0,0,-1,1399,1387,0,0
182,-363,0,0,0,0,0,0,0,0,0,-1,1406,1387,0,0
189,-363,0,0,0,0,0,0,0,0,0,-1,1413,1387,0,0
196,-363,0,0,0,0,0,0,0,0,0,-1,1420,1387,0,0
203,-363,0,0,0,0,0,0,0,0,0,-1,1427,1387,0,0
210,-363,0,0,0,0,0,0,0,0,0,-1,1434,1387,0,0
217,-363,0,0,0,0,0,0,0,0,0,-1,1441,1387,0,0
224,-363,0,0,0,0,0,0,0,0,0,-1,1448,1387,0,0
231,-363,0,0,0,0,0,0,0,0,0,-1,1455,1387,0,0
238,-363,0,0,0,0,0,0,0,0,0,-1,1462,1387,0,0
245,-363,0,0,0,0,0,0,0,0,0,-1,1469,1387,0,0
252,-363,0,0,0,0,0,0,0,0,0,-1,1476,1387,0,0
259,-363,0,0,0,0,0,0,0,0,0,-1,1483,1387,0,0
266,-363,0,0,0,0,0,0,0,0,0,-1,1490,1387,0,0
273,-363,0,0,0,0,0,0,0,0,0,-1,1497,1387,0,0
280,-363,0,0,0,0,0,0,0,0,0,-1,1504,1387,0,0
287,-363,0,0,0,0,0,0,0,0,0,-1,1511,1387,0,0
294,-363,0,0,0,0,0,0,0,0,0,-1,1518,1387,0,0
301,-363,0,0,0,0,0,0,0,0,0,-1,1525,1387,0,0
308,-363,0,0,0,0,0,0,0,0,0,-1,1532,1387,0,0
315,-363,0,0,0,0,0,0,0,0,0,-1,1539,1387,0,0
322,-363,0,0,0,0,0,0,0,0,0,-1,1546,1387,0,0
329,-363,0,0,0,0,0,0,0,0,0,-1,1553,1387,0,0
336,-363,0,0,0,0,0,0,0,0,0,-1,1560,1387,0,0
343,-363,0,0,0,0,0,0,0,0,0,-1,1567,1387,0,0
350,-363,0,0,0,0,0,0,0,0,0,-1,1574,1387,0,0
357,-363,0,0,0,0,0,0,0,0,0,-1,1581,1387,0,0
364,-363,0,0,0,0,0,0,0,0,0,-1,1588,1387,0,0
371,-363,0,0,0,0,0,0,0,0,0,-1,1595,1387,0,0
378,-363,0,0,0,0,0,0,0,0,0,-1,1602,1387,0,0
385,-363,0,0,0,0,0,0,0,0,0,-1,1609,1387,0,0
392,-363,0,0,0,0,0,0,0,0,0,-1,1616,1387,0,0
399,-363,0,0,0,0,0,0,0,0,0,-1,1623,1387,0,0
406,-363,0,0,0,0,0,0,0,0,0,-1,1630,1387,0,0
413,-363,0,0,0,0,0,0,0,0,0,-1,1637,1387,0,0
420,-363,0,0,0,0,0,0,0,0,0,-1,1644,1387,0,0
427,-363,0,0,0,0,0,0,0,0,0,-1,1651,1387,0,0
434,-363,0,0,0,0,0,0,0,0,0,-1,1658,1387,0,0
441,-363,0,0,0,0,0,0,0,0,0,-1,1665,1387,0,0
448,-363,0,0,0,0,0,0,0,0,0,-1,1672,1387,0,0
455,-363,0,0,0,0,0,0,0,0,0,-1,1679,1387,0,0
462,-363,0,0,0,0,0,0,0,0,0,-1,1686,1387,0,0
469,-363,0,0,0,0,0,0,0,0,0,-1,1693,1387,0,0
476,-363,0,0,0,0,0,0,0,0,0,-1,1700,1387,0,0
483,-363,0,0,0,0,0,0,0,0,0,-1,1707,1387,0,0
490,-363,0,0,0,0,0,0,0,0,0,-1,1714,1387,0,0
497,-363,0,0,0,0,0,0,0,0,0,-1,1721,1387,0,0
504,-363,0,0,0,0,0,0,0,0,0,-1,1728,1387,0,0
511,-363,0,0,0,0,0,0,0,0,0,-1,1735,1387,0,0
518,-363,0,0,0,0,0,0,0,0,0,-1,1742,1387,0,0
525,-363,0,0,0,0,0,0,0,0,0,-1,1749,1387,0,0
532,-363,0,0,0,0,0,0,0,0,0,-1,1756,1387,0,0
539,-363,0,0,0,0,0,0,0,0,0,-1,1763,1387,0,0
546,-363,0,0,0,0,0,0,0,0,0,-1,1770,1387,0,0
553,-363,45.9076,3.64331,0,0,0,0,0,0,0,-1,1777,1387,45.9076,-3.64336
560,-363,45.9459,3.6875,0,0,0,0,0,0,0,-1,1784,1387,45.9459,-3.68756
567,-363,45.9266,3.32825,0,0,0,0,0,0,0,-1,1791,1387,45.9266,-3.32824
574,-363,45.7261,2.8075,0,0,0,0,0,0,0,-1,1798,1387,45.7261,-2.80754
581,-363,39.2413,1.97632,0,0,0,0,0,0,0,-1,1805,1387,39.2413,-1.97636
588,-363,32.5608,6.72131,0,0,0,0,0,0,0,-1,1812,1387,32.5608,-6.72131
595,-363,31.4688,6.95435,0,0,0,0,0,0,0,-1,1819,1387,31.4688,-6.95431
602,-363,25.7437,5.33667,0,0,0,0,0,0,0,-1,1826,1387,25.7437,-5.33667
609,-363,27.7048,7.06885,0,0,0,0,0,0,0,-1,1833,1387,27.7048,-7.06882
616,-363,16.229,1.08704,0,0,0,0,0,0,0,-1,1840,1387,16.229,-1.08706
623,-363,15.7283,7.16663,0,0,0,0,0,0,0,-1,1847,1387,15.7282,-7.16665
630,-363,18.3192,9.27844,0,0,0,0,0,0,0,-1,1854,1387,18.3192,-9.27843
637,-363,35.2017,17.1809,0,0,0,0,0,0,0,-1,1861,1387,35.2017,-17.181
644,-363,35.2457,16.412,-0.00115214,0.00101016,-0.00104222,0.00143071,-0.00157269,-1.18726,0.00173466,0.0182208,1868,1387,35.2458,-16.412
651,-363,35.2607,15.7197,-0.000255143,0.000545081,-0.000614261,0.000878049,-0.00058811,-1.07407,0.000851987,0.0115767,1875,1387,35.2607,-15.7198
658,-363,35.248,15.1046,0.00049,0.000221515,-0.000282453,0.000668489,4.30259e-05,-0.563562,0.000432032,0.0120659,1882,1387,35.2481,-15.1046
665,-363,35.2103,14.5448,0.000988986,2.24644e-05,-1.42064e-05,0.000989195,2.22557e-05,-0.0146942,0.000652171,0.0121844,1889,1387,35.2103,-14.5448
672,-363,35.1674,13.9346,0.00163932,-0.000148023,0.000198424,0.00166108,-0.000169786,0.109244,0.0011681,0.0138748,1896,1387,35.1674,-13.9345
679,-363,35.1595,13.3107,0.00243766,-0.00028644,0.000344911,0.00248065,-0.000329432,0.124008,0.0017738,0.0150462,1903,1387,35.1596,-13.3106
686,-363,35.1287,12.6997,0.00339805,-0.000394294,0.000414115,0.00344275,-0.000438988,0.10751,0.00245461,0.0150114,1910,1387,35.1287,-12.6997
693,-363,35.0906,12.0712,0.0045304,-0.000404881,0.000370248,0.00455802,-0.000432502,0.0744652,0.00319263,0.0135857,1917,1387,35.0906,-12.0712
700,-363,35.2183,11.4048,0.00590661,-0.000248073,0.00016473,0.00591102,-0.000252479,0.0267395,0.00402748,0.0265887,1924,1387,35.2183,-11.4048
707,-363,35.4801,10.8002,0,0,0,0,0,0,0,-1,1931,1387,35.4801,-10.8002
714,-363,16.5782,5.3147,0,0,0,0,0,0,0,-1,1938,1387,16.5783,-5.31472
721,-363,14.4045,4.51685,0,0,0,0,0,0,0,-1,1945,1387,14.4045,-4.51685
728,-363,19.9756,0.853027,0,0,0,0,0,0,0,-1,1952,1387,19.9756,-0.853059
735,-363,21.4297,1.2981,0,0,0,0,0,0,0,-1,1959,1387,21.4297,-1.29811
742,-363,21.3621,2.79663,0,0,0,0,0,0,0,-1,1966,1387,21.362,-2.7966
749,-363,0,0,0,0,0,0,0,0,0,-1,1973,1387,0,0
756,-363,0,0,0,0,0,0,0,0,0,-1,1980,1387,0,0
763,-363,0,0,0,0,0,0,0,0,0,-1,1987,1387,0,0
770,-363,0,0,0,0,0,0,0,0,0,-1,1994,1387,0,0
777,-363,0,0,0,0,0,0,0,0,0,-1,2001,1387,0,0
784,-363,0,0,0,0,0,0,0,0,0,-1,2008,1387,0,0
791,-363,0,0,0,0,0,0,0,0,0,-1,2015,1387,0,0
798,-363,0,0,0,0,0,0,0,0,0,-1,2022,1387,0,0
805,-363,0,0,0,0,0,0,0,0,0,-1,2029,1387,0,0
812,-363,0,0,0,0,0,0,0,0,0,-1,2036,1387,0,0
-700,-370,0,0,0,0,0,0,0,0,0,-1,524,1394,0,0
-693,-370,0,0,0,0,0,0,0,0,0,-1,531,1394,0,0
-686,-370,0,0,0,0,0,0,0,0,0,-1,538,1394,0,0
-679,-370,0,0,0,0,0,0,0,0,0,-1,545,1394,0,0
-672,-370,0,0,0,0,0,0,0,0,0,-1,552,1394,0,0
-665,-370,0,0,0,0,0,0,0,0,0,-1,559,1394,0,0
-658,-370,0,0,0,0,0,0,0,0,0,-1,566,1394,0,0
-651,-370,0,0,0,0,0,0,0,0,0,-1,573,1394,0,0
-644,-370,0,0,0,0,0,0,0,0,0,-1,580,1394,0,0
-637,-370,0,0,0,0,0,0,0,0,0,-1,587,1394,0,0
-630,-370,0,0,0,0,0,0,0,0,0,-1,594,1394,0,0
-623,-370,-10.1758,-7.10486,0,0,0,0,0,0,0,-1,601,1394,-10.1758,7.10483
-616,-370,-8.85925,-1.61475,0,0,0,0,0,0,0,-1,608,1394,-8.85925,1.61476
-609,-370,-5.39325,0.0421143,0,0,0,0,0,0,0,-1,615,1394,-5.39328,-0.0421372
-602,-370,-12.3151,3.44592,0,0,0,0,0,0,0,-1,622,1394,-12.3151,-3.44595
-595,-370,-7.53284,5.44214,0,0,0,0,0,0,0,-1,629,1394,-7.53284,-5.44216
-588,-370,-11.2422,4.50598,0,0,0,0,0,0,0,-1,636,1394,-11.2422,-4.50596
-581,-370,-13.1575,5.84888,0,0,0,0,0,0,0,-1,643,1394,-13.1575,-5.84887
-574,-370,-13.0107,6.69861,0,0,0,0,0,0,0,-1,650,1394,-13.0108,-6.69866
-567,-370,-18.1872,9.43835,0,0,0,0,0,0,0,-1,657,1394,-18.1872,-9.4384
-560,-370,-18.2196,10.178,0.00474902,0.00245563,0.00278433,0.00661354,0.00059111,0.590063,0.0042258,0.0302014,664,1394,-18.2196,-10.178
-553,-370,-18.1703,10.8995,0.00403881,0.00178151,0.00219042,0.00537426,0.000446066,0.547505,0.0034438,0.0109036,671,1394,-18.1704,-10.8995
-546,-370,-18.1542,11.5701,0.0034508,0.00122997,0.0017148,0.00438331,0.000297459,0.498074,0.00282828,0.0139951,678,1394,-18.1542,-11.57
-539,-370,-18.1443,12.2673,0.00300035,0.000784706,0.00134213,0.00363282,0.000152243,0.440373,0.00237276,0.0173922,685,1394,-18.1444,-12.2673
-532,-370,-18.2233,12.9237,0.00271885,0.00048582,0.00111147,0.00317776,2.69072e-05,0.391567,0.00210959,0.020463,692,1394,-18.2233,-12.9237
-525,-370,-18.2651,13.5397,0.00259294,0.000314715,0.00101125,0.00297705,-6.93966e-05,0.363005,0.00200823,0.0178926,699,1394,-18.2651,-13.5397
-518,-370,-18.2571,14.1725,0.00262347,0.000279236,0.00104569,0.00302212,-0.000119421,0.364228,0.00205571,0.0130908,706,1394,-18.2572,-14.1724
-511,-370,-18.2527,14.8772,0.00286796,0.000454522,0.00127362,0.00341574,-9.32609e-05,0.406182,0.00230888,0.0157496,713,1394,-18.2527,-14.8773
-504,-370,-18.257,15.5923,0,0,0,0,0,0,0,-1,720,1394,-18.2569,-15.5923
-497,-370,-12.3546,11.7982,0,0,0,0,0,0,0,-1,727,1394,-12.3546,-11.7983
-490,-370,-5.30695,4.5271,0,0,0,0,0,0,0,-1,734,1394,-5.30698,-4.52704
-483,-370,-6.02997,4.59253,0,0,0,0,0,0,0,-1,741,1394,-6.02994,-4.5925
-476,-370,-6.75293,4.65796,0,0,0,0,0,0,0,-1,748,1394,-6.7529,-4.65795
-469,-370,-10.584,1.14294,0,0,0,0,0,0,0,-1,755,1394,-10.584,-1.14293
-462,-370,-9.54462,0.387207,0,0,0,0,0,0,0,-1,762,1394,-9.5446,-0.387176
-455,-370,-8.50525,-0.36853,0,0,0,0,0,0,0,-1,769,1394,-8.50523,0.368582
-448,-370,-10.9543,2.28833,0,0,0,0,0,0,0,-1,776,1394,-10.9543,-2.28835
-441,-370,-11.8699,1.8313,0,0,0,0,0,0,0,-1,783,1394,-11.8699,-1.83127
-434,-370,-12.7855,1.37415,0,0,0,0,0,0,0,-1,790,1394,-12.7855,-1.37419
-427,-370,0,0,0,0,0,0,0,0,0,-1,797,1394,0,0
-420,-370,0,0,0,0,0,0,0,0,0,-1,804,1394,0,0
-413,-370,0,0,0,0,0,0,0,0,0,-1,811,1394,0,0
-406,-370,0,0,0,0,0,0,0,0,0,-1,818,1394,0,0
-399,-370,0,0,0,0,0,0,0,0,0,-1,825,1394,0,0
-392,-370,0,0,0,0,0,0,0,0,0,-1,832,1394,0,0
-385,-370,0,0,0,0,0,0,0,0,0,-1,839,1394,0,0
-378,-370,0,0,0,0,0,0,0,0,0,-1,846,1394,0,0
-371,-370,0,0,0,0,0,0,0,0,0,-1,853,1394,0,0
-364,-370,0,0,0,0,0,0,0,0,0,-1,860,1394,0,0
-357,-370,0,0,0,0,0,0,0,0,0,-1,867,1394,0,0
-350,-370,0,0,0,0,0,0,0,0,0,-1,874,1394,0,0
-343,-370,0,0,0,0,0,0,0,0,0,-1,881,1394,0,0
-336,-370,0,0,0,0,0,0,0,0,0,-1,888,1394,0,0
-329,-370,0,0,0,0,0,0,0,0,0,-1,895,1394,0,0
-322,-370,0,0,0,0,0,0,0,0,0,-1,902,1394,0,0
-315,-370,0,0,0,0,0,0,0,0,0,-1,909,1394,0,0
-308,-370,0,0,0,0,0,0,0,0,0,-1,916,1394,0,0
-301,-370,0,0,0,0,0,0,0,0,0,-1,923,1394,0,0
-294,-370,0,0,0,0,0,0,0,0,0,-1,930,1394,0,0
-287,-370,0,0,0,0,0,0,0,0,0,-1,937,1394,0,0
-280,-370,0,0,0,0,0,0,0,0,0,-1,944,1394,0,0
-273,-370,0,0,0,0,0,0,0,0,0,-1,951,1394,0,0
-266,-370,0,0,0,0,0,0,0,0,0,-1,958,1394,0,0
-259,-370,0,0,0,0,0,0,0,0,0,-1,965,1394,0,0
-252,-370,0,0,0,0,0,0,0,0,0,-1,972,1394,0,0
-245,-370,0,0,0,0,0,0,0,0,0,-1,979,1394,0,0
-238,-370,0,0,0,0,0,0,0,0,0,-1,986,1394,0,0
-231,-370,0,0,0,0,0,0,0,0,0,-1,993,1394,0,0
-224,-370,0,0,0,0,0,0,0,0,0,-1,1000,1394,0,0
-217,-370,0,0,0,0,0,0,0,0,0,-1,1007,1394,0,0
-210,-370,0,0,0,0,0,0,0,0,0,-1,1014,1394,0,0
-203,-370,0,0,0,0,0,0,0,0,0,-1,1021,1394,0,0
-196,-370,0,0,0,0,0,0,0,0,0,-1,1028,1394,0,0
-189,-370,0,0,0,0,0,0,0,0,0,-1,1035,1394,0,0
-182,-370,0,0,0,0,0,0,0,0,0,-1,1042,1394,0,0
-175,-370,0,0,0,0,0,0,0,0,0,-1,1049,1394,0,0
-168,-370,0,0,0,0,0,0,0,0,0,-1,1056,1394,0,0
-161,-370,0,0,0,0,0,0,0,0,0,-1,1063,1394,0,0
-154,-370,0,0,0,0,0,0,0,0,0,-1,1070,1394,0,0
-147,-370,0,0,0,0,0,0,0,0,0,-1,1077,1394,0,0
-140,-370,0,0,0,0,0,0,0,0,0,-1,1084,1394,0,0
-133,-370,0,0,0,0,0,0,0,0,0,-1,1091,1394,0,0
-126,-370,0,0,0,0,0,0,0,0,0,-1,1098,1394,0,0
-119,-370,0,0,0,0,0,0,0,0,0,-1,1105,1394,0,0
-112,-370,0,0,0,0,0,0,0,0,0,-1,1112,1394,0,0
-105,-370,0,0,0,0,0,0,0,0,0,-1,1119,1394,0,0
-98,-370,0,0,0,0,0,0,0,0,0,-1,1126,1394,0,0
-91,-370,0,0,0,0,0,0,0,0,0,-1,1133,1394,0,0
-84,-370,0,0,0,0,0,0,0,0,0,-1,1140,1394,0,0
-77,-370,0,0,0,0,0,0,0,0,0,-1,1147,1394,0,0
-70,-370,0,0,0,0,0,0,0,0,0,-1,1154,1394,0,0
-63,-370,0,0,0,0,0,0,0,0,0,-1,1161,1394,0,0
-56,-370,0,0,0,0,0,0,0,0,0,-1,1168,1394,0,0
-49,-370,0,0,0,0,0,0,0,0,0,-1,1175,1394,0,0
-42,-370,0,0,0,0,0,0,0,0,0,-1,1182,1394,0,0
-35,-370,0,0,0,0,0,0,0,0,0,-1,1189,1394,0,0
-28,-370,0,0,0,0,0,0,0,0,0,-1,1196,1394,0,0
-21,-370,0,0,0,0,0,0,0,0,0,-1,1203,1394,0,0
-14,-370,0,0,0,0,0,0,0,0,0,-1,1210,1394,0,0
-7,-370,0,0,0,0,0,0,0,0,0,-1,1217,1394,0,0
0,-370,0,0,0,0,0,0,0,0,0,-1,1224,1394,0,0
7,-370,0,0,0,0,0,0,0,0,0,-1,1231,1394,0,0
14,-370,0,0,0,0,0,0,0,0,0,-1,1238,1394,0,0
21,-370,0,0,0,0,0,0,0,0,0,-1,1245,1394,0,0
28,-370,0,0,0,0,0,0,0,0,0,-1,1252,1394,0,0
35,-370,0,0,0,0,0,0,0,0,0,-1,1259,1394,0,0
42,-370,0,0,0,0,0,0,0,0,0,-1,1266,1394,0,0
49,-370,0,0,0,0,0,0,0,0,0,-1,1273,1394,0,0
56,-370,0,0,0,0,0,0,0,0,0,-1,1280,1394,0,0
63,-370,0,0,0,0,0,0,0,0,0,-1,1287,1394,0,0
70,-370,0,0,0,0,0,0,0,0,0,-1,1294,1394,0,0
77,-370,0,0,0,0,0,0,0,0,0,-1,1301,1394,0,0
84,-370,0,0,0,0,0,0,0,0,0,-1,1308,1394,0,0
91,-370,0,0,0,0,0,0,0,0,0,-1,1315,1394,0,0
98,-370,0,0,0,0,0,0,0,0,0,-1,1322,1394,0,0
105,-370,0,0,0,0,0,0,0,0,0,-1,1329,1394,0,0
112,-370,0,0,0,0,0,0,0,0,0,-1,1336,1394,0,0
119,-370,0,0,0,0,0,0,0,0,0,-1,1343,1394,0,0
126,-370,0,0,0,0,0,0,0,0,0,-1,1350,1394,0,0
133,-370,0,0,0,0,0,0,0,0,0,-1,1357,1394,0,0
140,-370,0,0,0,0,0,0,0,0,0,-1,1364,1394,0,0
147,-370,0,0,0,0,0,0,0,0,0,-1,1371,1394,0,0
154,-370,0,0,0,0,0,0,0,0,0,-1,1378,1394,0,0
161,-370,0,0,0,0,0,0,0,0,0,-1,1385,1394,0,0
168,-370,0,0,0,0,0,0,0,0,0,-1,1392,1394,0,0
175,-370,0,0,0,0,0,0,0,0,0,-1,1399,1394,0,0
182,-370,0,0,0,0,0,0,0,0,0,-1,1406,1394,0,0
189,-370,0,0,0,0,0,0,0,0,0,-1,1413,1394,0,0
196,-370,0,0,0,0,0,0,0,0,0,-1,1420,1394,0,0
203,-370,0,0,0,0,0,0,0,0,0,-1,1427,1394,0,0
210,-370,0,0,0,0,0,0,0,0,0,-1,1434,1394,0,0
217,-370,0,0,0,0,0,0,0,0,0,-1,1441,1394,0,0
224,-370,0,0,0,0,0,0,0,0,0,-1,1448,1394,0,0
231,-370,0,0,0,0,0,0,0,0,0,-1,1455,1394,0,0
238,-370,0,0,0,0,0,0,0,0,0,-1,1462,1394,0,0
245,-370,0,0,0,0,0,0,0,0,0,-1,1469,1394,0,0
252,-370,0,0,0,0,0,0,0,0,0,-1,1476,1394,0,0
259,-370,0,0,0,0,0,0,0,0,0,-1,1483,1394,0,0
266,-370,0,0,0,0,0,0,0,0,0,-1,1490,1394,0,0
273,-370,0,0,0,0,0,0,0,0,0,-1,1497,1394,0,0
280,-370,0,0,0,0,0,0,0,0,0,-1,1504,1394,0,0
287,-370,0,0,0,0,0,0,0,0,0,-1,1511,1394,0,0
294,-370,0,0,0,0,0,0,0,0,0,-1,1518,1394,0,0
301,-370,0,0,0,0,0,0,0,0,0,-1,1525,1394,0,0
308,-370,0,0,0,0,0,0,0,0,0,-1,1532,1394,0,0
315,-370,0,0,0,0,0,0,0,0,0,-1,1539,1394,0,0
322,-370,0,0,0,0,0,0,0,0,0,-1,1546,1394,0,0
329,-370,0,0,0,0,0,0,0,0,0,-1,1553,1394,0,0
336,-370,0,0,0,0,0,0,0,0,0,-1,1560,1394,0,0
343,-370,0,0,0,0,0,0,0,0,0,-1,1567,1394,0,0
350,-370,0,0,0,0,0,0,0,0,0,-1,1574,1394,0,0
357,-370,0,0,0,0,0,0,0,0,0,-1,1581,1394,0,0
364,-370,0,0,0,0,0,0,0,0,0,-1,1588,1394,0,0
371,-370,0,0,0,0,0,0,0,0,0,-1,1595,1394,0,0
378,-370,0,0,0,0,0,0,0,0,0,-1,1602,1394,0,0
385,-370,0,0,0,0,0,0,0,0,0,-1,1609,1394,0,0
392,-370,0,0,0,0,0,0,0,0,0,-1,1616,1394,0,0
399,-370,0,0,0,0,0,0,0,0,0,-1,1623,1394,0,0
406,-370,0,0,0,0,0,0,0,0,0,-1,1630,1394,0,0
413,-370,0,0,0,0,0,0,0,0,0,-1,1637,1394,0,0
420,-370,0,0,0,0,0,0,0,0,0,-1,1644,1394,0,0
427,-370,0,0,0,0,0,0,0,0,0,-1,1651,1394,0,0
434,-370,0,0,0,0,0,0,0,0,0,-1,1658,1394,0,0
441,-370,0,0,0,0,0,0,0,0,0,-1,1665,1394,0,0
448,-370,0,0,0,0,0,0,0,0,0,-1,1672,1394,0,0
455,-370,0,0,0,0,0,0,0,0,0,-1,1679,1394,0,0
462,-370,0,0,0,0,0,0,0,0,0,-1,1686,1394,0,0
469,-370,0,0,0,0,0,0,0,0,0,-1,1693,1394,0,0
476,-370,0,0,0,0,0,0,0,0,0,-1,1700,1394,0,0
483,-370,0,0,0,0,0,0,0,0,0,-1,1707,1394,0,0
490,-370,0,0,0,0,0,0,0,0,0,-1,1714,1394,0,0
497,-370,0,0,0,0,0,0,0,0,0,-1,1721,1394,0,0
504,-370,0,0,0,0,0,0,0,0,0,-1,1728,1394,0,0
511,-370,0,0,0,0,0,0,0,0,0,-1,1735,1394,0,0
518,-370,0,0,0,0,0,0,0,0,0,-1,1742,1394,0,0
525,-370,0,0,0,0,0,0,0,0,0,-1,1749,1394,0,0
532,-370,0,0,0,0,0,0,0,0,0,-1,1756,1394,0,0
539,-370,0,0,0,0,0,0,0,0,0,-1,1763,1394,0,0
546,-370,27.4949,2.81201,0,0,0,0,0,0,0,-1,1770,1394,27.4948,-2.81198
553,-370,26.5985,1.99329,0,0,0,0,0,0,0,-1,1777,1394,26.5985,-1.99327
560,-370,46.0132,3.65686,0,0,0,0,0,0,0,-1,1784,1394,46.0132,-3.65689
567,-370,46.1089,3.11719,0,0,0,0,0,0,0,-1,1791,1394,46.1089,-3.1172
574,-370,38.8953,1.49353,0,0,0,0,0,0,0,-1,1798,1394,38.8952,-1.49348
581,-370,39.178,2.86145,0,0,0,0,0,0,0,-1,1805,1394,39.1779,-2.86145
588,-370,39.2102,4.27661,0,0,0,0,0,0,0,-1,1812,1394,39.2102,-4.27657
595,-370,25.793,4.5271,0,0,0,0,0,0,0,-1,1819,1394,25.793,-4.52711
602,-370,25.1077,5.34937,0,0,0,0,0,0,0,-1,1826,1394,25.1077,-5.34932
609,-370,16.712,0.993286,0,0,0,0,0,0,0,-1,1833,1394,16.7121,-0.99323
616,-370,16.7764,7.23315,0,0,0,0,0,0,0,-1,1840,1394,16.7764,-7.23313
623,-370,17.6625,8.94263,0,0,0,0,0,0,0,-1,1847,1394,17.6624,-8.94258
630,-370,20.9681,11.1785,0,0,0,0,0,0,0,-1,1854,1394,20.9681,-11.1784
637,-370,34.6466,17.0393,0,0,0,0,0,0,0,-1,1861,1394,34.6466,-17.0393
644,-370,34.6694,16.389,0.000336211,0.000275885,-0.000840686,0.00114728,-0.00053518,-0.767466,0.000992563,0.0148756,1868,1394,34.6694,-16.3891
651,-370,34.6575,15.7502,0.000327764,0.00013202,-0.000413265,0.000654588,-0.000194804,-0.669127,0.000513788,0.0127693,1875,1394,34.6575,-15.7503
658,-370,34.6227,15.1655,0.000695636,3.42484e-05,-0.000115259,0.000715146,1.47378e-05,-0.167686,0.000471928,0.012674,1882,1394,34.6227,-15.1655
665,-370,34.5782,14.5804,0.00120952,-8.82989e-05,0.00014515,0.00122555,-0.000104335,0.11003,0.000853941,0.0143686,1889,1394,34.5782,-14.5804
672,-370,34.5353,13.9545,0.00188183,-0.000230351,0.000381087,0.00194849,-0.000297005,0.173152,0.00140847,0.0156609,1896,1394,34.5353,-13.9545
679,-370,34.541,13.3108,0.00271434,-0.000383846,0.000583977,0.00282076,-0.000490264,0.180253,0.00206343,0.0143931,1903,1394,34.5411,-13.3108
686,-370,34.5262,12.7175,0.00372459,-0.000562746,0.000742915,0.00384967,-0.00068783,0.166805,0.00282379,0.0150426,1910,1394,34.5263,-12.7175
693,-370,34.4957,12.0798,0.00496611,-0.000667154,0.00077712,0.00507135,-0.000772393,0.134603,0.00366559,0.014054,1917,1394,34.4957,-12.0799
700,-370,34.6841,11.3662,0.00654714,-0.000654547,0.000647459,0.00660488,-0.000712293,0.0889533,0.00465887,0.0420079,1924,1394,34.6841,-11.3661
707,-370,35.052,10.5627,0,0,0,0,0,0,0,-1,1931,1394,35.052,-10.5628
714,-370,16.9116,5.93018,0,0,0,0,0,0,0,-1,1938,1394,16.9116,-5.93014
721,-370,17.2007,4.69153,0,0,0,0,0,0,0,-1,1945,1394,17.2007,-4.69158
728,-370,20.5315,-0.313354,0,0,0,0,0,0,0,-1,1952,1394,20.5315,0.313332
735,-370,22.3652,0.233398,0,0,0,0,0,0,0,-1,1959,1394,22.3652,-0.233355
742,-370,24.1989,0.780029,0,0,0,0,0,0,0,-1,1966,1394,24.1989,-0.780041
749,-370,0,0,0,0,0,0,0,0,0,-1,1973,1394,0,0
756,-370,0,0,0,0,0,0,0,0,0,-1,1980,1394,0,0
763,-370,0,0,0,0,0,0,0,0,0,-1,1987,1394,0,0
770,-370,0,0,0,0,0,0,0,0,0,-1,1994,1394,0,0
777,-370,0,0,0,0,0,0,0,0,0,-1,2001,1394,0,0
784,-370,0,0,0,0,0,0,0,0,0,-1,2008,1394,0,0
791,-370,0,0,0,0,0,0,0,0,0,-1,2015,1394,0,0
798,-370,0,0,0,0,0,0,0,0,0,-1,2022,1394,0,0
805,-370,0,0,0,0,0,0,0,0,0,-1,2029,1394,0,0
812,-370,0,0,0,0,0,0,0,0,0,-1,2036,1394,0,0
-700,-377,0,0,0,0,0,0,0,0,0,-1,524,1401,0,0
-693,-377,0,0,0,0,0,0,0,0,0,-1,531,1401,0,0
-686,-377,0,0,0,0,0,0,0,0,0,-1,538,1401,0,0
-679,-377,0,0,0,0,0,0,0,0,0,-1,545,1401,0,0
-672,-377,0,0,0,0,0,0,0,0,0,-1,552,1401,0,0
-665,-377,0,0,0,0,0,0,0,0,0,-1,559,1401,0,0
-658,-377,0,0,0,0,0,0,0,0,0,-1,566,1401,0,0
-651,-377,0,0,0,0,0,0,0,0,0,-1,573,1401,0,0
-644,-377,0,0,0,0,0,0,0,0,0,-1,580,1401,0,0
-637,-377,0,0,0,0,0,0,0,0,0,-1,587,1401,0,0
-630,-377,0,0,0,0,0,0,0,0,0,-1,594,1401,0,0
-623,-377,0,0,0,0,0,0,0,0,0,-1,601,1401,0,0
-616,-377,-9.43915,-2.4906,0,0,0,0,0,0,0,-1,608,1401,-9.43915,2.49062
-609,-377,-7.2821,-1.35278,0,0,0,0,0,0,0,-1,615,1401,-7.28208,1.35279
-602,-377,-14.9736,3.98279,0,0,0,0,0,0,0,-1,622,1401,-14.9737,-3.98276
-595,-377,-6.9082,1.18201,0,0,0,0,0,0,0,-1,629,1401,-6.90822,-1.18204
-588,-377,-12.8003,3.44751,0,0,0,0,0,0,0,-1,636,1401,-12.8003,-3.44754
-581,-377,-11.8243,6.21521,0,0,0,0,0,0,0,-1,643,1401,-11.8244,-6.21519
-574,-377,-12.2761,6.60547,0,0,0,0,0,0,0,-1,650,1401,-12.2761,-6.60552
-567,-377,-13.4844,7.41931,0,0,0,0,0,0,0,-1,657,1401,-13.4845,-7.41926
-560,-377,-17.5645,10.0997,0,0,0,0,0,0,0,-1,664,1401,-17.5645,-10.0997
-553,-377,-17.5357,10.9037,0.00468571,0.00220641,0.00261596,0.00634088,0.000551247,0.564131,0.00405601,0.016262,671,1401,-17.5357,-10.9036
-546,-377,-17.5356,11.6354,0.00388509,0.00159507,0.00204166,0.0050809,0.000399259,0.529841,0.00326233,0.015981,678,1401,-17.5356,-11.6354
-539,-377,-17.5018,12.2926,0.00323523,0.00109839,0.00157419,0.00406934,0.000264287,0.487251,0.00262923,0.0200993,685,1401,-17.5018,-12.2925
-532,-377,-17.574,12.8931,0.00277011,0.000744173,0.00125164,0.00336733,0.000146953,0.445201,0.00219754,0.0196722,692,1401,-17.5739,-12.8931
-525,-377,-17.5496,13.571,0.00247953,0.000535804,0.00107505,0.00295689,5.84434e-05,0.417883,0.00195207,0.0230067,699,1401,-17.5496,-13.5711
-518,-377,-17.6115,14.21,0.00235218,0.000433931,0.00102768,0.00279877,-1.26637e-05,0.409945,0.00187009,0.0157511,706,1401,-17.6115,-14.21
-511,-377,-17.6306,14.8927,0.00242836,0.000517806,0.00115246,0.00296999,-2.3819e-05,0.439339,0.00198798,0.0126087,713,1401,-17.6305,-14.8927
-504,-377,-17.6744,15.5876,0.00275353,0.00080363,0.00151094,0.00357677,-1.96069e-05,0.49888,0.00239108,0.0157164,720,1401,-17.6744,-15.5877
-497,-377,-17.6964,16.2477,0,0,0,0,0,0,0,-1,727,1401,-17.6963,-16.2477
-490,-377,-8.88409,10.1245,0,0,0,0,0,0,0,-1,734,1401,-8.8841,-10.1245
-483,-377,-5.6524,5.07324,0,0,0,0,0,0,0,-1,741,1401,-5.6524,-5.07325
-476,-377,-6.11682,5.10535,0,0,0,0,0,0,0,-1,748,1401,-6.11681,-5.10537
-469,-377,-10.3211,1.9281,0,0,0,0,0,0,0,-1,755,1401,-10.3211,-1.92808
-462,-377,-9.2204,1.0022,0,0,0,0,0,0,0,-1,762,1401,-9.22039,-1.00218
-455,-377,-8.11969,0.0762939,0,0,0,0,0,0,0,-1,769,1401,-8.11968,-0.0762759
-448,-377,-9.05334,0.877319,0,0,0,0,0,0,0,-1,776,1401,-9.05332,-0.877324
-441,-377,-11.212,0.763428,0,0,0,0,0,0,0,-1,783,1401,-11.212,-0.763415
-434,-377,-11.0984,0.996216,0,0,0,0,0,0,0,-1,790,1401,-11.0984,-0.996265
-427,-377,-11.1733,1.25732,0,0,0,0,0,0,0,-1,797,1401,-11.1733,-1.25732
-420,-377,0,0,0,0,0,0,0,0,0,-1,804,1401,0,0
-413,-377,0,0,0,0,0,0,0,0,0,-1,811,1401,0,0
-406,-377,0,0,0,0,0,0,0,0,0,-1,818,1401,0,0
-399,-377,0,0,0,0,0,0,0,0,0,-1,825,1401,0,0
-392,-377,0,0,0,0,0,0,0,0,0,-1,832,1401,0,0
-385,-377,0,0,0,0,0,0,0,0,0,-1,839,1401,0,0
-378,-377,0,0,0,0,0,0,0,0,0,-1,846,1401,0,0
-371,-377,0,0,0,0,0,0,0,0,0,-1,853,1401,0,0
-364,-377,0,0,0,0,0,0,0,0,0,-1,860,1401,0,0
-357,-377,0,0,0,0,0,0,0,0,0,-1,867,1401,0,0
-350,-377,0,0,0,0,0,0,0,0,0,-1,874,1401,0,0
-343,-377,0,0,0,0,0,0,0,0,0,-1,881,1401,0,0
-336,-377,0,0,0,0,0,0,0,0,0,-1,888,1401,0,0
-329,-377,0,0,0,0,0,0,0,0,0,-1,895,1401,0,0
-322,-377,0,0,0,0,0,0,0,0,0,-1,902,1401,0,0
-315,-377,0,0,0,0,0,0,0,0,0,-1,909,1401,0,0
-308,-377,0,0,0,0,0,0,0,0,0,-1,916,1401,0,0
-301,-377,0,0,0,0,0,0,0,0,0,-1,923,1401,0,0
-294,-377,0,0,0,0,0,0,0,0,0,-1,930,1401,0,0
-287,-377,0,0,0,0,0,0,0,0,0,-1,937,1401,0,0
-280,-377,0,0,0,0,0,0,0,0,0,-1,944,1401,0,0
-273,-377,0,0,0,0,0,0,0,0,0,-1,951,1401,0,0
-266,-377,0,0,0,0,0,0,0,0,0,-1,958,1401,0,0
-259,-377,0,0,0,0,0,0,0,0,0,-1,965,1401,0,0
-252,-377,0,0,0,0,0,0,0,0,0,-1,972,1401,0,0
-245,-377,0,0,0,0,0,0,0,0,0,-1,979,1401,0,0
-238,-377,0,0,0,0,0,0,0,0,0,-1,986,1401,0,0
-231,-377,0,0,0,0,0,0,0,0,0,-1,993,1401,0,0
-224,-377,0,0,0,0,0,0,0,0,0,-1,1000,1401,0,0
-217,-377,0,0,0,0,0,0,0,0,0,-1,1007,1401,0,0
-210,-377,0,0,0,0,0,0,0,0,0,-1,1014,1401,0,0
-203,-377,0,0,0,0,0,0,0,0,0,-1,1021,1401,0,0
-196,-377,0,0,0,0,0,0,0,0,0,-1,1028,1401,0,0
-189,-377,0,0,0,0,0,0,0,0,0,-1,1035,1401,0,0
-182,-377,0,0,0,0,0,0,0,0,0,-1,1042,1401,0,0
-175,-377,0,0,0,0,0,0,0,0,0,-1,1049,1401,0,0
-168,-377,0,0,0,0,0,0,0,0,0,-1,1056,1401,0,0
-161,-377,0,0,0,0,0,0,0,0,0,-1,1063,1401,0,0
-154,-377,0,0,0,0,0,0,0,0,0,-1,1070,1401,0,0
-147,-377,0,0,0,0,0,0,0,0,0,-1,1077,1401,0,0
-140,-377,0,0,0,0,0,0,0,0,0,-1,1084,1401,0,0
-133,-377,0,0,0,0,0,0,0,0,0,-1,1091,1401,0,0
-126,-377,0,0,0,0,0,0,0,0,0,-1,1098,1401,0,0
-119,-377,0,0,0,0,0,0,0,0,0,-1,1105,1401,0,0
-112,-377,0,0,0,0,0,0,0,0,0,-1,1112,1401,0,0
-105,-377,0,0,0,0,0,0,0,0,0,-1,1119,1401,0,0
-98,-377,0,0,0,0,0,0,0,0,0,-1,1126,1401,0,0
-91,-377,0,0,0,0,0,0,0,0,0,-1,1133,1401,0,0
-84,-377,0,0,0,0,0,0,0,0,0,-1,1140,1401,0,0
-77,-377,0,0,0,0,0,0,0,0,0,-1,1147,1401,0,0
-70,-377,0,0,0,0,0,0,0,0,0,-1,1154,1401,0,0
-63,-377,0,0,0,0,0,0,0,0,0,-1,1161,1401,0,0
-56,-377,0,0,0,0,0,0,0,0,0,-1,1168,1401,0,0
-49,-377,0,0,0,0,0,0,0,0,0,-1,1175,1401,0,0
-42,-377,0,0,0,0,0,0,0,0,0,-1,1182,1401,0,0
-35,-377,0,0,0,0,0,0,0,0,0,-1,1189,1401,0,0
-28,-377,0,0,0,0,0,0,0,0,0,-1,1196,1401,0,0
-21,-377,0,0,0,0,0,0,0,0,0,-1,1203,1401,0,0
-14,-377,0,0,0,0,0,0,0,0,0,-1,1210,1401,0,0
-7,-377,0,0,0,0,0,0,0,0,0,-1,1217,1401,0,0
0,-377,0,0,0,0,0,0,0,0,0,-1,1224,1401,0,0
7,-377,0,0,0,0,0,0,0,0,0,-1,1231,1401,0,0
14,-377,0,0,0,0,0,0,0,0,0,-1,1238,1401,0,0
21,-377,0,0,0,0,0,0,0,0,0,-1,1245,1401,0,0
28,-377,0,0,0,0,0,0,0,0,0,-1,1252,1401,0,0
35,-377,0,0,0,0,0,0,0,0,0,-1,1259,1401,0,0
42,-377,0,0,0,0,0,0,0,0,0,-1,1266,1401,0,0
49,-377,0,0,0,0,0,0,0,0,0,-1,1273,1401,0,0
56,-377,0,0,0,0,0,0,0,0,0,-1,1280,1401,0,0
63,-377,0,0,0,0,0,0,0,0,0,-1,1287,1401,0,0
70,-377,0,0,0,0,0,0,0,0,0,-1,1294,1401,0,0
77,-377,0,0,0,0,0,0,0,0,0,-1,1301,1401,0,0
84,-377,0,0,0,0,0,0,0,0,0,-1,1308,1401,0,0
91,-377,0,0,0,0,0,0,0,0,0,-1,1315,1401,0,0
98,-377,0,0,0,0,0,0,0,0,0,-1,1322,1401,0,0
105,-377,0,0,0,0,0,0,0,0,0,-1,1329,1401,0,0
112,-377,0,0,0,0,0,0,0,0,0,-1,1336,1401,0,0
119,-377,0,0,0,0,0,0,0,0,0,-1,1343,1401,0,0
126,-377,0,0,0,0,0,0,0,0,0,-1,1350,1401,0,0
133,-377,0,0,0,0,0,0,0,0,0,-1,1357,1401,0,0
140,-377,0,0,0,0,0,0,0,0,0,-1,1364,1401,0,0
147,-377,0,0,0,0,0,0,0,0,0,-1,1371,1401,0,0
154,-377,0,0,0,0,0,0,0,0,0,-1,1378,1401,0,0
161,-377,0,0,0,0,0,0,0,0,0,-1,1385,1401,0,0
168,-377,0,0,0,0,0,0,0,0,0,-1,1392,1401,0,0
175,-377,0,0,0,0,0,0,0,0,0,-1,1399,1401,0,0
182,-377,0,0,0,0,0,0,0,0,0,-1,1406,1401,0,0
189,-377,0,0,0,0,0,0,0,0,0,-1,1413,1401,0,0
196,-377,0,0,0,0,0,0,0,0,0,-1,1420,1401,0,0
203,-377,0,0,0,0,0,0,0,0,0,-1,1427,1401,0,0
210,-377,0,0,0,0,0,0,0,0,0,-1,1434,1401,0,0
217,-377,0,0,0,0,0,0,0,0,0,-1,1441,1401,0,0
224,-377,0,0,0,0,0,0,0,0,0,-1,1448,1401,0,0
231,-377,0,0,0,0,0,0,0,0,0,-1,1455,1401,0,0
238,-377,0,0,0,0,0,0,0,0,0,-1,1462,1401,0,0
245,-377,0,0,0,0,0,0,0,0,0,-1,1469,1401,0,0
252,-377,0,0,0,0,0,0,0,0,0,-1,1476,1401,0,0
259,-377,0,0,0,0,0,0,0,0,0,-1,1483,1401,0,0
266,-377,0,0,0,0,0,0,0,0,0,-1,1490,1401,0,0
273,-377,0,0,0,0,0,0,0,0,0,-1,1497,1401,0,0
280,-377,0,0,0,0,0,0,0,0,0,-1,1504,1401,0,0
287,-377,0,0,0,0,0,0,0,0,0,-1,1511,1401,0,0
294,-377,0,0,0,0,0,0,0,0,0,-1,1518,1401,0,0
301,-377,0,0,0,0,0,0,0,0,0,-1,1525,1401,0,0
308,-377,0,0,0,0,0,0,0,0,0,-1,1532,1401,0,0
315,-377,0,0,0,0,0,0,0,0,0,-1,1539,1401,0,0
322,-377,0,0,0,0,0,0,0,0,0,-1,1546,1401,0,0
329,-377,0,0,0,0,0,0,0,0,0,-1,1553,1401,0,0
336,-377,0,0,0,0,0,0,0,0,0,-1,1560,1401,0,0
343,-377,0,0,0,0,0,0,0,0,0,-1,1567,1401,0,0
350,-377,0,0,0,0,0,0,0,0,0,-1,1574,1401,0,0
357,-377,0,0,0,0,0,0,0,0,0,-1,1581,1401,0,0
364,-377,0,0,0,0,0,0,0,0,0,-1,1588,1401,0,0
371,-377,0,0,0,0,0,0,0,0,0,-1,1595,1401,0,0
378,-377,0,0,0,0,0,0,0,0,0,-1,1602,1401,0,0
385,-377,0,0,0,0,0,0,0,0,0,-1,1609,1401,0,0
392,-377,0,0,0,0,0,0,0,0,0,-1,1616,1401,0,0
399,-377,0,0,0,0,0,0,0,0,0,-1,1623,1401,0,0
406,-377,0,0,0,0,0,0,0,0,0,-1,1630,1401,0,0
413,-377,0,0,0,0,0,0,0,0,0,-1,1637,1401,0,0
420,-377,0,0,0,0,0,0,0,0,0,-1,1644,1401,0,0
427,-377,0,0,0,0,0,0,0,0,0,-1,1651,1401,0,0
434,-377,0,0,0,0,0,0,0,0,0,-1,1658,1401,0,0
441,-377,0,0,0,0,0,0,0,0,0,-1,1665,1401,0,0
448,-377,0,0,0,0,0,0,0,0,0,-1,1672,1401,0,0
455,-377,0,0,0,0,0,0,0,0,0,-1,1679,1401,0,0
462,-377,0,0,0,0,0,0,0,0,0,-1,1686,1401,0,0
469,-377,0,0,0,0,0,0,0,0,0,-1,1693,1401,0,0
476,-377,0,0,0,0,0,0,0,0,0,-1,1700,1401,0,0
483,-377,0,0,0,0,0,0,0,0,0,-1,1707,1401,0,0
490,-377,0,0,0,0,0,0,0,0,0,-1,1714,1401,0,0
497,-377,0,0,0,0,0,0,0,0,0,-1,1721,1401,0,0
504,-377,0,0,0,0,0,0,0,0,0,-1,1728,1401,0,0
511,-377,0,0,0,0,0,0,0,0,0,-1,1735,1401,0,0
518,-377,0,0,0,0,0,0,0,0,0,-1,1742,1401,0,0
525,-377,0,0,0,0,0,0,0,0,0,-1,1749,1401,0,0
532,-377,0,0,0,0,0,0,0,0,0,-1,1756,1401,0,0
539,-377,0,0,0,0,0,0,0,0,0,-1,1763,1401,0,0
546,-377,27.8485,2.34094,0,0,0,0,0,0,0,-1,1770,1401,27.8486,-2.34091
553,-377,27.2189,2.42493,0,0,0,0,0,0,0,-1,1777,1401,27.2188,-2.42498
560,-377,38.3577,-2.15015,0,0,0,0,0,0,0,-1,1784,1401,38.3576,2.1501
567,-377,38.4889,-0.285645,0,0,0,0,0,0,0,-1,1791,1401,38.4889,0.2857
574,-377,38.6221,1.61694,0,0,0,0,0,0,0,-1,1798,1401,38.6221,-1.61689
581,-377,39.1818,3.76367,0,0,0,0,0,0,0,-1,1805,1401,39.1818,-3.76366
588,-377,25.882,4.35217,0,0,0,0,0,0,0,-1,1812,1401,25.8819,-4.3522
595,-377,25.5392,5.11804,0,0,0,0,0,0,0,-1,1819,1401,25.5392,-5.11808
602,-377,24.816,5.79126,0,0,0,0,0,0,0,-1,1826,1401,24.816,-5.79124
609,-377,15.0223,4.76135,0,0,0,0,0,0,0,-1,1833,1401,15.0224,-4.76129
616,-377,14.1842,5.78992,0,0,0,0,0,0,0,-1,1840,1401,14.1842,-5.78987
623,-377,15.8248,8.76721,0,0,0,0,0,0,0,-1,1847,1401,15.8248,-8.76725
630,-377,33.5471,18.0294,0,0,0,0,0,0,0,-1,1854,1401,33.5471,-18.0294
637,-377,33.9293,17.0944,0.000705681,-0.00052354,-0.000458617,0.000857931,-0.000675791,-0.320529,0.000887573,0.0420908,1861,1401,33.9294,-17.0943
644,-377,34.0559,16.412,0.000518324,-0.000140622,-0.000499528,0.00078725,-0.000409547,-0.493862,0.000702347,0.0139232,1868,1401,34.0559,-16.412
651,-377,34.0267,15.7744,0.000582846,-0.000124862,-0.000198421,0.000634681,-0.000176697,-0.255527,0.000492697,0.0144993,1875,1401,34.0268,-15.7744
658,-377,33.9813,15.1785,0.000910991,-0.000129388,5.55975e-05,0.000913953,-0.00013235,0.0532376,0.000657872,0.0158673,1882,1401,33.9814,-15.1784
665,-377,33.9658,14.5565,0.00141065,-0.000184291,0.000316525,0.00147117,-0.000244811,0.18892,0.00107174,0.0197391,1889,1401,33.9659,-14.5565
672,-377,33.9495,13.932,0.00208754,-0.000305962,0.000597726,0.0022285,-0.00044693,0.231607,0.00165489,0.0192887,1896,1401,33.9495,-13.932
679,-377,33.8821,13.3446,0.00292781,-0.00048853,0.000894001,0.00314761,-0.000708333,0.241083,0.00237007,0.0176163,1903,1401,33.8821,-13.3446
686,-377,33.89,12.7634,0.00395261,-0.000770712,0.0012104,0.00424472,-0.00106282,0.236807,0.00324268,0.0157776,1910,1401,33.89,-12.7635
693,-377,33.9496,12.1042,0.00527105,-0.00101798,0.00141961,0.00557665,-0.00132358,0.212032,0.00422858,0.0194062,1917,1401,33.9495,-12.1042
700,-377,34.3202,11.5024,0,0,0,0,0,0,0,-1,1924,1401,34.3202,-11.5024
707,-377,28.6234,9.18152,0,0,0,0,0,0,0,-1,1931,1401,28.6234,-9.18151
714,-377,16.5369,5.45959,0,0,0,0,0,0,0,-1,1938,1401,16.5369,-5.4596
721,-377,17.0913,5.42529,0,0,0,0,0,0,0,-1,1945,1401,17.0914,-5.42529
728,-377,14.5396,2.79724,0,0,0,0,0,0,0,-1,1952,1401,14.5396,-2.7972
735,-377,23.2977,-0.991089,0,0,0,0,0,0,0,-1,1959,1401,23.2978,0.991076
742,-377,0,0,0,0,0,0,0,0,0,-1,1966,1401,0,0
749,-377,0,0,0,0,0,0,0,0,0,-1,1973,1401,0,0
756,-377,0,0,0,0,0,0,0,0,0,-1,1980,1401,0,0
763,-377,0,0,0,0,0,0,0,0,0,-1,1987,1401,0,0
770,-377,0,0,0,0,0,0,0,0,0,-1,1994,1401,0,0
777,-377,0,0,0,0,0,0,0,0,0,-1,2001,1401,0,0
784,-377,0,0,0,0,0,0,0,0,0,-1,2008,1401,0,0
791,-377,0,0,0,0,0,0,0,0,0,-1,2015,1401,0,0
798,-377,0,0,0,0,0,0,0,0,0,-1,2022,1401,0,0
805,-377,0,0,0,0,0,0,0,0,0,-1,2029,1401,0,0
812,-377,0,0,0,0,0,0,0,0,0,-1,2036,1401,0,0
-700,-384,0,0,0,0,0,0,0,0,0,-1,524,1408,0,0
-693,-384,0,0,0,0,0,0,0,0,0,-1,531,1408,0,0
-686,-384,0,0,0,0,0,0,0,0,0,-1,538,1408,0,0
-679,-384,0,0,0,0,0,0,0,0,0,-1,545,1408,0,0
-672,-384,0,0,0,0,0,0,0,0,0,-1,552,1408,0,0
-665,-384,0,0,0,0,0,0,0,0,0,-1,559,1408,0,0
-658,-384,0,0,0,0,0,0,0,0,0,-1,566,1408,0,0
-651,-384,0,0,0,0,0,0,0,0,0,-1,573,1408,0,0
-644,-384,0,0,0,0,0,0,0,0,0,-1,580,1408,0,0
-637,-384,0,0,0,0,0,0,0,0,0,-1,587,1408,0,0
-630,-384,0,0,0,0,0,0,0,0,0,-1,594,1408,0,0
-623,-384,0,0,0,0,0,0,0,0,0,-1,601,1408,0,0
-616,-384,-10.019,-3.36646,0,0,0,0,0,0,0,-1,608,1408,-10.019,3.36648
-609,-384,-7.72357,-2.3418,0,0,0,0,0,0,0,-1,615,1408,-7.72358,2.34182
-602,-384,-11.7632,-2.85156,0,0,0,0,0,0,0,-1,622,1408,-11.7632,2.85157
-595,-384,-10.2217,2.8855,0,0,0,0,0,0,0,-1,629,1408,-10.2218,-2.88548
-588,-384,-12.1653,2.29041,0,0,0,0,0,0,0,-1,636,1408,-12.1654,-2.29038
-581,-384,-11.9297,3.60376,0,0,0,0,0,0,0,-1,643,1408,-11.9298,-3.6038
-574,-384,-11.8677,6.02722,0,0,0,0,0,0,0,-1,650,1408,-11.8677,-6.02722
-567,-384,-12.0743,7.04639,0,0,0,0,0,0,0,-1,657,1408,-12.0743,-7.04641
-560,-384,-17.1161,10.1173,0,0,0,0,0,0,0,-1,664,1408,-17.1161,-10.1174
-553,-384,-16.918,10.9164,0.00522044,0.00268811,0.00307109,0.00727614,0.000632408,0.589873,0.0046543,0.0443588,671,1408,-16.918,-10.9164
-546,-384,-16.8798,11.6409,0.00425622,0.002005,0.00238267,0.00576578,0.000495446,0.564729,0.00368981,0.0140154,678,1408,-16.8797,-11.6408
-539,-384,-16.9084,12.2839,0.00345417,0.00145423,0.00181218,0.00452397,0.000384434,0.533284,0.00289635,0.0154991,685,1408,-16.9085,-12.2839
-532,-384,-16.884,12.9193,0.00285303,0.00103889,0.00139295,0.00360821,0.000283713,0.496794,0.0023167,0.021686,692,1408,-16.884,-12.9193
-525,-384,-16.8433,13.6621,0.00245669,0.000788602,0.00114522,0.00303939,0.000205906,0.470669,0.00196123,0.0228189,699,1408,-16.8433,-13.6621
-518,-384,-16.9588,14.2615,0.00223538,0.000639075,0.00103207,0.00274192,0.000132535,0.456259,0.00178541,0.0141379,706,1408,-16.9588,-14.2614
-511,-384,-16.9916,14.9323,0.00221715,0.00065488,0.00108245,0.00277089,0.000101146,0.472849,0.00181448,0.0113011,713,1408,-16.9917,-14.9323
-504,-384,-17.0064,15.6183,0.00243783,0.000848982,0.00134347,0.00320418,8.2633e-05,0.51839,0.00210912,0.0125786,720,1408,-17.0064,-15.6182
-497,-384,-17.03,16.3051,0,0,0,0,0,0,0,-1,727,1408,-17.0301,-16.3051
-490,-384,-16.4548,16.7072,0,0,0,0,0,0,0,-1,734,1408,-16.4548,-16.7072
-483,-384,-6.26471,7.61194,0,0,0,0,0,0,0,-1,741,1408,-6.26469,-7.61191
-476,-384,-6.02734,5.67761,0,0,0,0,0,0,0,-1,748,1408,-6.02736,-5.6776
-469,-384,-10.206,2.63721,0,0,0,0,0,0,0,-1,755,1408,-10.206,-2.6372
-462,-384,-9.04291,1.43542,0,0,0,0,0,0,0,-1,762,1408,-9.04293,-1.43545
-455,-384,-7.87988,0.233765,0,0,0,0,0,0,0,-1,769,1408,-7.87986,-0.233709
-448,-384,-9.35529,7.19226,0,0,0,0,0,0,0,-1,776,1408,-9.35531,-7.19226
-441,-384,-10.4697,1.79004,0,0,0,0,0,0,0,-1,783,1408,-10.4697,-1.79003
-434,-384,-10.6449,0.552246,0,0,0,0,0,0,0,-1,790,1408,-10.6449,-0.552216
-427,-384,-10.968,1.10583,0,0,0,0,0,0,0,-1,797,1408,-10.968,-1.10588
-420,-384,-12.5607,4.54858,0,0,0,0,0,0,0,-1,804,1408,-12.5607,-4.54859
-413,-384,0,0,0,0,0,0,0,0,0,-1,811,1408,0,0
-406,-384,0,0,0,0,0,0,0,0,0,-1,818,1408,0,0
-399,-384,0,0,0,0,0,0,0,0,0,-1,825,1408,0,0
-392,-384,0,0,0,0,0,0,0,0,0,-1,832,1408,0,0
-385,-384,0,0,0,0,0,0,0,0,0,-1,839,1408,0,0
-378,-384,0,0,0,0,0,0,0,0,0,-1,846,1408,0,0
-371,-384,0,0,0,0,0,0,0,0,0,-1,853,1408,0,0
-364,-384,0,0,0,0,0,0,0,0,0,-1,860,1408,0,0
-357,-384,0,0,0,0,0,0,0,0,0,-1,867,1408,0,0
-350,-384,0,0,0,0,0,0,0,0,0,-1,874,1408,0,0
-343,-384,0,0,0,0,0,0,0,0,0,-1,881,1408,0,0
-336,-384,0,0,0,0,0,0,0,0,0,-1,888,1408,0,0
-329,-384,0,0,0,0,0,0,0,0,0,-1,895,1408,0,0
-322,-384,0,0,0,0,0,0,0,0,0,-1,902,1408,0,0
-315,-384,0,0,0,0,0,0,0,0,0,-1,909,1408,0,0
-308,-384,0,0,0,0,0,0,0,0,0,-1,916,1408,0,0
-301,-384,0,0,0,0,0,0,0,0,0,-1,923,1408,0,0
-294,-384,0,0,0,0,0,0,0,0,0,-1,930,1408,0,0
-287,-384,0,0,0,0,0,0,0,0,0,-1,937,1408,0,0
-280,-384,0,0,0,0,0,0,0,0,0,-1,944,1408,0,0
-273,-384,0,0,0,0,0,0,0,0,0,-1,951,1408,0,0
-266,-384,0,0,0,0,0,0,0,0,0,-1,958,1408,0,0
-259,-384,0,0,0,0,0,0,0,0,0,-1,965,1408,0,0
-252,-384,0,0,0,0,0,0,0,0,0,-1,972,1408,0,0
-245,-384,0,0,0,0,0,0,0,0,0,-1,979,1408,0,0
-238,-384,0,0,0,0,0,0,0,0,0,-1,986,1408,0,0
-231,-384,0,0,0,0,0,0,0,0,0,-1,993,1408,0,0
-224,-384,0,0,0,0,0,0,0,0,0,-1,1000,1408,0,0
-217,-384,0,0,0,0,0,0,0,0,0,-1,1007,1408,0,0
-210,-384,0,0,0,0,0,0,0,0,0,-1,1014,1408,0,0
-203,-384,0,0,0,0,0,0,0,0,0,-1,1021,1408,0,0
-196,-384,0,0,0,0,0,0,0,0,0,-1,1028,1408,0,0
-189,-384,0,0,0,0,0,0,0,0,0,-1,1035,1408,0,0
-182,-384,0,0,0,0,0,0,0,0,0,-1,1042,1408,0,0
-175,-384,0,0,0,0,0,0,0,0,0,-1,1049,1408,0,0
-168,-384,0,0,0,0,0,0,0,0,0,-1,1056,1408,0,0
-161,-384,0,0,0,0,0,0,0,0,0,-1,1063,1408,0,0
-154,-384,0,0,0,0,0,0,0,0,0,-1,1070,1408,0,0
-147,-384,0,0,0,0,0,0,0,0,0,-1,1077,1408,0,0
-140,-384,0,0,0,0,0,0,0,0,0,-1,1084,1408,0,0
-133,-384,0,0,0,0,0,0,0,0,0,-1,1091,1408,0,0
-126,-384,0,0,0,0,0,0,0,0,0,-1,1098,1408,0,0
-119,-384,0,0,0,0,0,0,0,0,0,-1,1105,1408,0,0
-112,-384,0,0,0,0,0,0,0,0,0,-1,1112,1408,0,0
-105,-384,0,0,0,0,0,0,0,0,0,-1,1119,1408,0,0
-98,-384,0,0,0,0,0,0,0,0,0,-1,1126,1408,0,0
-91,-384,0,0,0,0,0,0,0,0,0,-1,1133,1408,0,0
-84,-384,0,0,0,0,0,0,0,0,0,-1,1140,1408,0,0
-77,-384,0,0,0,0,0,0,0,0,0,-1,1147,1408,0,0
-70,-384,0,0,0,0,0,0,0,0,0,-1,1154,1408,0,0
-63,-384,0,0,0,0,0,0,0,0,0,-1,1161,1408,0,0
-56,-384,0,0,0,0,0,0,0,0,0,-1,1168,1408,0,0
-49,-384,0,0,0,0,0,0,0,0,0,-1,1175,1408,0,0
-42,-384,0,0,0,0,0,0,0,0,0,-1,1182,1408,0,0
-35,-384,0,0,0,0,0,0,0,0,0,-1,1189,1408,0,0
-28,-384,0,0,0,0,0,0,0,0,0,-1,1196,1408,0,0
-21,-384,0,0,0,0,0,0,0,0,0,-1,1203,1408,0,0
-14,-384,0,0,0,0,0,0,0,0,0,-1,1210,1408,0,0
-7,-384,0,0,0,0,0,0,0,0,0,-1,1217,1408,0,0
0,-384,0,0,0,0,0,0,0,0,0,-1,1224,1408,0,0
7,-384,0,0,0,0,0,0,0,0,0,-1,1231,1408,0,0
14,-384,0,0,0,0,0,0,0,0,0,-1,1238,1408,0,0
21,-384,0,0,0,0,0,0,0,0,0,-1,1245,1408,0,0
28,-384,0,0,0,0,0,0,0,0,0,-1,1252,1408,0,0
35,-384,0,0,0,0,0,0,0,0,0,-1,1259,1408,0,0
42,-384,0,0,0,0,0,0,0,0,0,-1,1266,1408,0,0
49,-384,0,0,0,0,0,0,0,0,0,-1,1273,1408,0,0
56,-384,0,0,0,0,0,0,0,0,0,-1,1280,1408,0,0
63,-384,0,0,0,0,0,0,0,0,0,-1,1287,1408,0,0
70,-384,0,0,0,0,0,0,0,0,0,-1,1294,1408,0,0
77,-384,0,0,0,0,0,0,0,0,0,-1,1301,1408,0,0
84,-384,0,0,0,0,0,0,0,0,0,-1,1308,1408,0,0
91,-384,0,0,0,0,0,0,0,0,0,-1,1315,1408,0,0
98,-384,0,0,0,0,0,0,0,0,0,-1,1322,1408,0,0
105,-384,0,0,0,0,0,0,0,0,0,-1,1329,1408,0,0
112,-384,0,0,0,0,0,0,0,0,0,-1,1336,1408,0,0
119,-384,0,0,0,0,0,0,0,0,0,-1,1343,1408,0,0
126,-384,0,0,0,0,0,0,0,0,0,-1,1350,1408,0,0
133,-384,0,0,0,0,0,0,0,0,0,-1,1357,1408,0,0
140,-384,0,0,0,0,0,0,0,0,0,-1,1364,1408,0,0
147,-384,0,0,0,0,0,0,0,0,0,-1,1371,1408,0,0
154,-384,0,0,0,0,0,0,0,0,0,-1,1378,1408,0,0
161,-384,0,0,0,0,0,0,0,0,0,-1,1385,1408,0,0
168,-384,0,0,0,0,0,0,0,0,0,-1,1392,1408,0,0
175,-384,0,0,0,0,0,0,0,0,0,-1,1399,1408,0,0
182,-384,0,0,0,0,0,0,0,0,0,-1,1406,1408,0,0
189,-384,0,0,0,0,0,0,0,0,0,-1,1413,1408,0,0
196,-384,0,0,0,0,0,0,0,0,0,-1,1420,1408,0,0
203,-384,0,0,0,0,0,0,0,0,0,-1,1427,1408,0,0
210,-384,0,0,0,0,0,0,0,0,0,-1,1434,1408,0,0
217,-384,0,0,0,0,0,0,0,0,0,-1,1441,1408,0,0
224,-384,0,0,0,0,0,0,0,0,0,-1,1448,1408,0,0
231,-384,0,0,0,0,0,0,0,0,0,-1,1455,1408,0,0
238,-384,0,0,0,0,0,0,0,0,0,-1,1462,1408,0,0
245,-384,0,0,0,0,0,0,0,0,0,-1,1469,1408,0,0
252,-384,0,0,0,0,0,0,0,0,0,-1,1476,1408,0,0
259,-384,0,0,0,0,0,0,0,0,0,-1,1483,1408,0,0
266,-384,0,0,0,0,0,0,0,0,0,-1,1490,1408,0,0
273,-384,0,0,0,0,0,0,0,0,0,-1,1497,1408,0,0
280,-384,0,0,0,0,0,0,0,0,0,-1,1504,1408,0,0
287,-384,0,0,0,0,0,0,0,0,0,-1,1511,1408,0,0
294,-384,0,0,0,0,0,0,0,0,0,-1,1518,1408,0,0
301,-384,0,0,0,0,0,0,0,0,0,-1,1525,1408,0,0
308,-384,0,0,0,0,0,0,0,0,0,-1,1532,1408,0,0
315,-384,0,0,0,0,0,0,0,0,0,-1,1539,1408,0,0
322,-384,0,0,0,0,0,0,0,0,0,-1,1546,1408,0,0
329,-384,0,0,0,0,0,0,0,0,0,-1,1553,1408,0,0
336,-384,0,0,0,0,0,0,0,0,0,-1,1560,1408,0,0
343,-384,0,0,0,0,0,0,0,0,0,-1,1567,1408,0,0
350,-384,0,0,0,0,0,0,0,0,0,-1,1574,1408,0,0
357,-384,0,0,0,0,0,0,0,0,0,-1,1581,1408,0,0
364,-384,0,0,0,0,0,0,0,0,0,-1,1588,1408,0,0
371,-384,0,0,0,0,0,0,0,0,0,-1,1595,1408,0,0
378,-384,0,0,0,0,0,0,0,0,0,-1,1602,1408,0,0
385,-384,0,0,0,0,0,0,0,0,0,-1,1609,1408,0,0
392,-384,0,0,0,0,0,0,0,0,0,-1,1616,1408,0,0
399,-384,0,0,0,0,0,0,0,0,0,-1,1623,1408,0,0
406,-384,0,0,0,0,0,0,0,0,0,-1,1630,1408,0,0
413,-384,0,0,0,0,0,0,0,0,0,-1,1637,1408,0,0
420,-384,0,0,0,0,0,0,0,0,0,-1,1644,1408,0,0
427,-384,0,0,0,0,0,0,0,0,0,-1,1651,1408,0,0
434,-384,0,0,0,0,0,0,0,0,0,-1,1658,1408,0,0
441,-384,0,0,0,0,0,0,0,0,0,-1,1665,1408,0,0
448,-384,0,0,0,0,0,0,0,0,0,-1,1672,1408,0,0
455,-384,0,0,0,0,0,0,0,0,0,-1,1679,1408,0,0
462,-384,0,0,0,0,0,0,0,0,0,-1,1686,1408,0,0
469,-384,0,0,0,0,0,0,0,0,0,-1,1693,1408,0,0
476,-384,0,0,0,0,0,0,0,0,0,-1,1700,1408,0,0
483,-384,0,0,0,0,0,0,0,0,0,-1,1707,1408,0,0
490,-384,0,0,0,0,0,0,0,0,0,-1,1714,1408,0,0
497,-384,0,0,0,0,0,0,0,0,0,-1,1721,1408,0,0
504,-384,0,0,0,0,0,0,0,0,0,-1,1728,1408,0,0
511,-384,0,0,0,0,0,0,0,0,0,-1,1735,1408,0,0
518,-384,0,0,0,0,0,0,0,0,0,-1,1742,1408,0,0
525,-384,0,0,0,0,0,0,0,0,0,-1,1749,1408,0,0
532,-384,0,0,0,0,0,0,0,0,0,-1,1756,1408,0,0
539,-384,27.6886,2.85803,0,0,0,0,0,0,0,-1,1763,1408,27.6886,-2.85807
546,-384,27.5044,2.9425,0,0,0,0,0,0,0,-1,1770,1408,27.5044,-2.94255
553,-384,27.3052,2.78394,0,0,0,0,0,0,0,-1,1777,1408,27.3051,-2.78394
560,-384,26.833,3.19812,0,0,0,0,0,0,0,-1,1784,1408,26.833,-3.19816
567,-384,38.2566,0.109985,0,0,0,0,0,0,0,-1,1791,1408,38.2566,-0.110044
574,-384,38.4003,2.05945,0,0,0,0,0,0,0,-1,1798,1408,38.4003,-2.05949
581,-384,25.819,3.91846,0,0,0,0,0,0,0,-1,1805,1408,25.8189,-3.91848
588,-384,23.3721,4.25439,0,0,0,0,0,0,0,-1,1812,1408,23.3721,-4.25442
595,-384,24.981,5.59595,0,0,0,0,0,0,0,-1,1819,1408,24.981,-5.59598
602,-384,20.6605,4.17261,0,0,0,0,0,0,0,-1,1826,1408,20.6606,-4.17265
609,-384,14.158,5.49475,0,0,0,0,0,0,0,-1,1833,1408,14.158,-5.49474
616,-384,14.7997,7.6908,0,0,0,0,0,0,0,-1,1840,1408,14.7996,-7.69079
623,-384,16.4293,9.58899,0,0,0,0,0,0,0,-1,1847,1408,16.4294,-9.58901
630,-384,33.4434,17.6285,0,0,0,0,0,0,0,-1,1854,1408,33.4433,-17.6285
637,-384,33.4509,17.0537,0.000853874,-0.000784587,-0.000217579,0.000882275,-0.000812988,-0.129798,0.000979032,0.0230727,1861,1408,33.451,-17.0538
644,-384,33.3984,16.4779,0.000701335,-0.000410948,-0.00025594,0.000757402,-0.000467014,-0.215655,0.000713513,0.0170849,1868,1408,33.3985,-16.4779
651,-384,33.3671,15.8325,0.000799222,-0.000293817,-3.26728e-05,0.000800198,-0.000294793,-0.0298562,0.000654255,0.0166809,1875,1408,33.3671,-15.8325
658,-384,33.3344,15.1877,0.00107316,-0.000237036,0.000208362,0.0011055,-0.000269374,0.153972,0.000841292,0.016909,1882,1408,33.3343,-15.1878
665,-384,33.3483,14.5931,0.00152237,-0.000251287,0.000491256,0.00164934,-0.000378261,0.252934,0.00124495,0.0190065,1889,1408,33.3482,-14.5931
672,-384,33.3481,13.9686,0.00214018,-0.000359468,0.000844834,0.00239893,-0.000618221,0.297205,0.00184031,0.0161705,1896,1408,33.3481,-13.9686
679,-384,33.2964,13.3552,0.00291455,-0.000580159,0.0012711,0.00332797,-0.000993579,0.314454,0.00261357,0.0151881,1903,1408,33.2964,-13.3552
686,-384,33.2645,12.7694,0.00384093,-0.000974137,0.00180858,0.00444457,-0.00157778,0.322139,0.00360593,0.0125927,1910,1408,33.2645,-12.7694
693,-384,33.3264,12.17,0.00506635,-0.00136833,0.00229573,0.00580144,-0.00210341,0.309881,0.00472741,0.0296625,1917,1408,33.3264,-12.17
700,-384,33.4438,11.58,0,0,0,0,0,0,0,-1,1924,1408,33.4439,-11.5799
707,-384,17.0566,6.62842,0,0,0,0,0,0,0,-1,1931,1408,17.0567,-6.62848
714,-384,16.038,5.0282,0,0,0,0,0,0,0,-1,1938,1408,16.038,-5.02819
721,-384,13.8843,2.8717,0,0,0,0,0,0,0,-1,1945,1408,13.8843,-2.87171
728,-384,15.4409,6.25745,0,0,0,0,0,0,0,-1,1952,1408,15.4409,-6.2574
735,-384,16.7598,6.71289,0,0,0,0,0,0,0,-1,1959,1408,16.7598,-6.71287
742,-384,0,0,0,0,0,0,0,0,0,-1,1966,1408,0,0
749,-384,0,0,0,0,0,0,0,0,0,-1,1973,1408,0,0
756,-384,0,0,0,0,0,0,0,0,0,-1,1980,1408,0,0
763,-384,0,0,0,0,0,0,0,0,0,-1,1987,1408,0,0
770,-384,0,0,0,0,0,0,0,0,0,-1,1994,1408,0,0
777,-384,0,0,0,0,0,0,0,0,0,-1,2001,1408,0,0
784,-384,0,0,0,0,0,0,0,0,0,-1,2008,1408,0,0
791,-384,0,0,0,0,0,0,0,0,0,-1,2015,1408,0,0
798,-384,0,0,0,0,0,0,0,0,0,-1,2022,1408,0,0
805,-384,0,0,0,0,0,0,0,0,0,-1,2029,1408,0,0
812,-384,0,0,0,0,0,0,0,0,0,-1,2036,1408,0,0
-700,-391,0,0,0,0,0,0,0,0,0,-1,524,1415,0,0
-693,-391,0,0,0,0,0,0,0,0,0,-1,531,1415,0,0
-686,-391,0,0,0,0,0,0,0,0,0,-1,538,1415,0,0
-679,-391,0,0,0,0,0,0,0,0,0,-1,545,1415,0,0
-672,-391,0,0,0,0,0,0,0,0,0,-1,552,1415,0,0
-665,-391,0,0,0,0,0,0,0,0,0,-1,559,1415,0,0
-658,-391,0,0,0,0,0,0,0,0,0,-1,566,1415,0,0
-651,-391,0,0,0,0,0,0,0,0,0,-1,573,1415,0,0
-644,-391,0,0,0,0,0,0,0,0,0,-1,580,1415,0,0
-637,-391,0,0,0,0,0,0,0,0,0,-1,587,1415,0,0
-630,-391,0,0,0,0,0,0,0,0,0,-1,594,1415,0,0
-623,-391,0,0,0,0,0,0,0,0,0,-1,601,1415,0,0
-616,-391,0,0,0,0,0,0,0,0,0,-1,608,1415,0,0
-609,-391,-7.71753,-3.69763,0,0,0,0,0,0,0,-1,615,1415,-7.71751,3.69759
-602,-391,-13.9493,-4.12805,0,0,0,0,0,0,0,-1,622,1415,-13.9493,4.12803
-595,-391,-10.8315,1.76172,0,0,0,0,0,0,0,-1,629,1415,-10.8315,-1.76171
-588,-391,-10.265,2.16431,0,0,0,0,0,0,0,-1,636,1415,-10.265,-2.16431
-581,-391,-11.3325,2.44836,0,0,0,0,0,0,0,-1,643,1415,-11.3325,-2.44842
-574,-391,-11.1471,6.19983,0,0,0,0,0,0,0,-1,650,1415,-11.1471,-6.19981
-567,-391,-11.5172,6.82458,0,0,0,0,0,0,0,-1,657,1415,-11.5171,-6.82454
-560,-391,-11.2459,7.37195,0,0,0,0,0,0,0,-1,664,1415,-11.2459,-7.37191
-553,-391,-16.3066,10.9531,0,0,0,0,0,0,0,-1,671,1415,-16.3066,-10.9531
-546,-391,-16.2403,11.6499,0.00475,0.00261259,0.00283547,0.00671148,0.000651106,0.605178,0.00427385,0.0166377,678,1415,-16.2403,-11.6499
-539,-391,-16.2038,12.3373,0.00376826,0.00191954,0.00213736,0.00517258,0.000515221,0.581305,0.00329012,0.0139708,685,1415,-16.2038,-12.3373
-532,-391,-16.1681,13.027,0.00300356,0.00137143,0.00160099,0.00398448,0.000390517,0.549699,0.00253619,0.0247568,692,1415,-16.1681,-13.0269
-525,-391,-16.165,13.7263,0.00248009,0.00102778,0.00126465,0.00321223,0.000295635,0.524784,0.00205006,0.0238872,699,1415,-16.1651,-13.7264
-518,-391,-16.3299,14.3116,0.00214501,0.000809974,0.0010779,0.00274534,0.000209639,0.508162,0.00176451,0.015038,706,1415,-16.3299,-14.3116
-511,-391,-16.3474,14.9669,0.00200376,0.000749167,0.00103917,0.00259029,0.000162637,0.513848,0.00167528,0.0139651,713,1415,-16.3474,-14.967
-504,-391,-16.3598,15.63,0.00208288,0.000862688,0.00118582,0.00280634,0.000139226,0.54781,0.00182626,0.0128813,720,1415,-16.3598,-15.63
-497,-391,-16.3792,16.2946,0.00242121,0.00114835,0.00154943,0.00345982,0.000109735,0.590529,0.00227086,0.0142832,727,1415,-16.3792,-16.2946
-490,-391,-16.3521,17.007,0,0,0,0,0,0,0,-1,734,1415,-16.352,-17.0069
-483,-391,-11.1018,12.9382,0,0,0,0,0,0,0,-1,741,1415,-11.1018,-12.9382
-476,-391,-6.05731,6.85303,0,0,0,0,0,0,0,-1,748,1415,-6.05728,-6.85304
-469,-391,-3.88953,5.0979,0,0,0,0,0,0,0,-1,755,1415,-3.88955,-5.09794
-462,-391,-8.67688,2.03125,0,0,0,0,0,0,0,-1,762,1415,-8.67685,-2.03121
-455,-391,-8.65576,6.46997,0,0,0,0,0,0,0,-1,769,1415,-8.65579,-6.46999
-448,-391,-8.39618,4.38403,0,0,0,0,0,0,0,-1,776,1415,-8.39617,-4.38405
-441,-391,-9.77704,2.5946,0,0,0,0,0,0,0,-1,783,1415,-9.77702,-2.5946
-434,-391,-11.5403,2.12878,0,0,0,0,0,0,0,-1,790,1415,-11.5403,-2.12881
-427,-391,-10.5311,2.50403,0,0,0,0,0,0,0,-1,797,1415,-10.5311,-2.504
-420,-391,-14.7087,1.24365,0,0,0,0,0,0,0,-1,804,1415,-14.7088,-1.24365
-413,-391,0,0,0,0,0,0,0,0,0,-1,811,1415,0,0
-406,-391,0,0,0,0,0,0,0,0,0,-1,818,1415,0,0
-399,-391,0,0,0,0,0,0,0,0,0,-1,825,1415,0,0
-392,-391,0,0,0,0,0,0,0,0,0,-1,832,1415,0,0
-385,-391,0,0,0,0,0,0,0,0,0,-1,839,1415,0,0
-378,-391,0,0,0,0,0,0,0,0,0,-1,846,1415,0,0
-371,-391,0,0,0,0,0,0,0,0,0,-1,853,1415,0,0
-364,-391,0,0,0,0,0,0,0,0,0,-1,860,1415,0,0
-357,-391,0,0,0,0,0,0,0,0,0,-1,867,1415,0,0
-350,-391,0,0,0,0,0,0,0,0,0,-1,874,1415,0,0
-343,-391,0,0,0,0,0,0,0,0,0,-1,881,1415,0,0
-336,-391,0,0,0,0,0,0,0,0,0,-1,888,1415,0,0
-329,-391,0,0,0,0,0,0,0,0,0,-1,895,1415,0,0
-322,-391,0,0,0,0,0,0,0,0,0,-1,902,1415,0,0
-315,-391,0,0,0,0,0,0,0,0,0,-1,909,1415,0,0
-308,-391,0,0,0,0,0,0,0,0,0,-1,916,1415,0,0
-301,-391,0,0,0,0,0,0,0,0,0,-1,923,1415,0,0
-294,-391,0,0,0,0,0,0,0,0,0,-1,930,1415,0,0
-287,-391,0,0,0,0,0,0,0,0,0,-1,937,1415,0,0
-280,-391,0,0,0,0,0,0,0,0,0,-1,944,1415,0,0
-273,-391,0,0,0,0,0,0,0,0,0,-1,951,1415,0,0
-266,-391,0,0,0,0,0,0,0,0,0,-1,958,1415,0,0
-259,-391,0,0,0,0,0,0,0,0,0,-1,965,1415,0,0
-252,-391,0,0,0,0,0,0,0,0,0,-1,972,1415,0,0
-245,-391,0,0,0,0,0,0,0,0,0,-1,979,1415,0,0
-238,-391,0,0,0,0,0,0,0,0,0,-1,986,1415,0,0
-231,-391,0,0,0,0,0,0,0,0,0,-1,993,1415,0,0
-224,-391,0,0,0,0,0,0,0,0,0,-1,1000,1415,0,0
-217,-391,0,0,0,0,0,0,0,0,0,-1,1007,1415,0,0
-210,-391,0,0,0,0,0,0,0,0,0,-1,1014,1415,0,0
-203,-391,0,0,0,0,0,0,0,0,0,-1,1021,1415,0,0
-196,-391,0,0,0,0,0,0,0,0,0,-1,1028,1415,0,0
-189,-391,0,0,0,0,0,0,0,0,0,-1,1035,1415,0,0
-182,-391,0,0,0,0,0,0,0,0,0,-1,1042,1415,0,0
-175,-391,0,0,0,0,0,0,0,0,0,-1,1049,1415,0,0
-168,-391,0,0,0,0,0,0,0,0,0,-1,1056,1415,0,0
-161,-391,0,0,0,0,0,0,0,0,0,-1,1063,1415,0,0
-154,-391,0,0,0,0,0,0,0,0,0,-1,1070,1415,0,0
-147,-391,0,0,0,0,0,0,0,0,0,-1,1077,1415,0,0
-140,-391,0,0,0,0,0,0,0,0,0,-1,1084,1415,0,0
-133,-391,0,0,0,0,0,0,0,0,0,-1,1091,1415,0,0
-126,-391,0,0,0,0,0,0,0,0,0,-1,1098,1415,0,0
-119,-391,0,0,0,0,0,0,0,0,0,-1,1105,1415,0,0
-112,-391,0,0,0,0,0,0,0,0,0,-1,1112,1415,0,0
-105,-391,0,0,0,0,0,0,0,0,0,-1,1119,1415,0,0
-98,-391,0,0,0,0,0,0,0,0,0,-1,1126,1415,0,0
-91,-391,0,0,0,0,0,0,0,0,0,-1,1133,1415,0,0
-84,-391,0,0,0,0,0,0,0,0,0,-1,1140,1415,0,0
-77,-391,0,0,0,0,0,0,0,0,0,-1,1147,1415,0,0
-70,-391,0,0,0,0,0,0,0,0,0,-1,1154,1415,0,0
-63,-391,0,0,0,0,0,0,0,0,0,-1,1161,1415,0,0
-56,-391,0,0,0,0,0,0,0,0,0,-1,1168,1415,0,0
-49,-391,0,0,0,0,0,0,0,0,0,-1,1175,1415,0,0
-42,-391,0,0,0,0,0,0,0,0,0,-1,1182,1415,0,0
-35,-391,0,0,0,0,0,0,0,0,0,-1,1189,1415,0,0
-28,-391,0,0,0,0,0,0,0,0,0,-1,1196,1415,0,0
-21,-391,0,0,0,0,0,0,0,0,0,-1,1203,1415,0,0
-14,-391,0,0,0,0,0,0,0,0,0,-1,1210,1415,0,0
-7,-391,0,0,0,0,0,0,0,0,0,-1,1217,1415,0,0
0,-391,0,0,0,0,0,0,0,0,0,-1,1224,1415,0,0
7,-391,0,0,0,0,0,0,0,0,0,-1,1231,1415,0,0
14,-391,0,0,0,0,0,0,0,0,0,-1,1238,1415,0,0
21,-391,0,0,0,0,0,0,0,0,0,-1,1245,1415,0,0
28,-391,0,0,0,0,0,0,0,0,0,-1,1252,1415,0,0
35,-391,0,0,0,0,0,0,0,0,0,-1,1259,1415,0,0
42,-391,0,0,0,0,0,0,0,0,0,-1,1266,1415,0,0
49,-391,0,0,0,0,0,0,0,0,0,-1,1273,1415,0,0
56,-391,0,0,0,0,0,0,0,0,0,-1,1280,1415,0,0
63,-391,0,0,0,0,0,0,0,0,0,-1,1287,1415,0,0
70,-391,0,0,0,0,0,0,0,0,0,-1,1294,1415,0,0
77,-391,0,0,0,0,0,0,0,0,0,-1,1301,1415,0,0
84,-391,0,0,0,0,0,0,0,0,0,-1,1308,1415,0,0
91,-391,0,0,0,0,0,0,0,0,0,-1,1315,1415,0,0
98,-391,0,0,0,0,0,0,0,0,0,-1,1322,1415,0,0
105,-391,0,0,0,0,0,0,0,0,0,-1,1329,1415,0,0
112,-391,0,0,0,0,0,0,0,0,0,-1,1336,1415,0,0
119,-391,0,0,0,0,0,0,0,0,0,-1,1343,1415,0,0
126,-391,0,0,0,0,0,0,0,0,0,-1,1350,1415,0,0
133,-391,0,0,0,0,0,0,0,0,0,-1,1357,1415,0,0
140,-391,0,0,0,0,0,0,0,0,0,-1,1364,1415,0,0
147,-391,0,0,0,0,0,0,0,0,0,-1,1371,1415,0,0
154,-391,0,0,0,0,0,0,0,0,0,-1,1378,1415,0,0
161,-391,0,0,0,0,0,0,0,0,0,-1,1385,1415,0,0
168,-391,0,0,0,0,0,0,0,0,0,-1,1392,1415,0,0
175,-391,0,0,0,0,0,0,0,0,0,-1,1399,1415,0,0
182,-391,0,0,0,0,0,0,0,0,0,-1,1406,1415,0,0
189,-391,0,0,0,0,0,0,0,0,0,-1,1413,1415,0,0
196,-391,0,0,0,0,0,0,0,0,0,-1,1420,1415,0,0
203,-391,0,0,0,0,0,0,0,0,0,-1,1427,1415,0,0
210,-391,0,0,0,0,0,0,0,0,0,-1,1434,1415,0,0
217,-391,0,0,0,0,0,0,0,0,0,-1,1441,1415,0,0
224,-391,0,0,0,0,0,0,0,0,0,-1,1448,1415,0,0
231,-391,0,0,0,0,0,0,0,0,0,-1,1455,1415,0,0
238,-391,0,0,0,0,0,0,0,0,0,-1,1462,1415,0,0
245,-391,0,0,0,0,0,0,0,0,0,-1,1469,1415,0,0
252,-391,0,0,0,0,0,0,0,0,0,-1,1476,1415,0,0
259,-391,0,0,0,0,0,0,0,0,0,-1,1483,1415,0,0
266,-391,0,0,0,0,0,0,0,0,0,-1,1490,1415,0,0
273,-391,0,0,0,0,0,0,0,0,0,-1,1497,1415,0,0
280,-391,0,0,0,0,0,0,0,0,0,-1,1504,1415,0,0
287,-391,0,0,0,0,0,0,0,0,0,-1,1511,1415,0,0
294,-391,0,0,0,0,0,0,0,0,0,-1,1518,1415,0,0
301,-391,0,0,0,0,0,0,0,0,0,-1,1525,1415,0,0
308,-391,0,0,0,0,0,0,0,0,0,-1,1532,1415,0,0
315,-391,0,0,0,0,0,0,0,0,0,-1,1539,1415,0,0
322,-391,0,0,0,0,0,0,0,0,0,-1,1546,1415,0,0
329,-391,0,0,0,0,0,0,0,0,0,-1,1553,1415,0,0
336,-391,0,0,0,0,0,0,0,0,0,-1,1560,1415,0,0
343,-391,0,0,0,0,0,0,0,0,0,-1,1567,1415,0,0
350,-391,0,0,0,0,0,0,0,0,0,-1,1574,1415,0,0
357,-391,0,0,0,0,0,0,0,0,0,-1,1581,1415,0,0
364,-391,0,0,0,0,0,0,0,0,0,-1,1588,1415,0,0
371,-391,0,0,0,0,0,0,0,0,0,-1,1595,1415,0,0
378,-391,0,0,0,0,0,0,0,0,0,-1,1602,1415,0,0
385,-391,0,0,0,0,0,0,0,0,0,-1,1609,1415,0,0
392,-391,0,0,0,0,0,0,0,0,0,-1,1616,1415,0,0
399,-391,0,0,0,0,0,0,0,0,0,-1,1623,1415,0,0
406,-391,0,0,0,0,0,0,0,0,0,-1,1630,1415,0,0
413,-391,0,0,0,0,0,0,0,0,0,-1,1637,1415,0,0
420,-391,0,0,0,0,0,0,0,0,0,-1,1644,1415,0,0
427,-391,0,0,0,0,0,0,0,0,0,-1,1651,1415,0,0
434,-391,0,0,0,0,0,0,0,0,0,-1,1658,1415,0,0
441,-391,0,0,0,0,0,0,0,0,0,-1,1665,1415,0,0
448,-391,0,0,0,0,0,0,0,0,0,-1,1672,1415,0,0
455,-391,0,0,0,0,0,0,0,0,0,-1,1679,1415,0,0
462,-391,0,0,0,0,0,0,0,0,0,-1,1686,1415,0,0
469,-391,0,0,0,0,0,0,0,0,0,-1,1693,1415,0,0
476,-391,0,0,0,0,0,0,0,0,0,-1,1700,1415,0,0
483,-391,0,0,0,0,0,0,0,0,0,-1,1707,1415,0,0
490,-391,0,0,0,0,0,0,0,0,0,-1,1714,1415,0,0
497,-391,0,0,0,0,0,0,0,0,0,-1,1721,1415,0,0
504,-391,0,0,0,0,0,0,0,0,0,-1,1728,1415,0,0
511,-391,0,0,0,0,0,0,0,0,0,-1,1735,1415,0,0
518,-391,0,0,0,0,0,0,0,0,0,-1,1742,1415,0,0
525,-391,0,0,0,0,0,0,0,0,0,-1,1749,1415,0,0
532,-391,28.5959,3.02356,0,0,0,0,0,0,0,-1,1756,1415,28.596,-3.02358
539,-391,27.5881,3.25012,0,0,0,0,0,0,0,-1,1763,1415,27.5882,-3.25016
546,-391,27.2837,3.28064,0,0,0,0,0,0,0,-1,1770,1415,27.2837,-3.28064
553,-391,32.5952,5.04553,0,0,0,0,0,0,0,-1,1777,1415,32.5952,-5.04551
560,-391,31.2947,5.67017,0,0,0,0,0,0,0,-1,1784,1415,31.2947,-5.67011
567,-391,30.1473,6.17603,0,0,0,0,0,0,0,-1,1791,1415,30.1473,-6.17602
574,-391,27.5656,5.6842,0,0,0,0,0,0,0,-1,1798,1415,27.5655,-5.68422
581,-391,25.8883,5.76123,0,0,0,0,0,0,0,-1,1805,1415,25.8883,-5.76124
588,-391,24.2717,5.47986,0,0,0,0,0,0,0,-1,1812,1415,24.2717,-5.47982
595,-391,22.8827,6.1991,0,0,0,0,0,0,0,-1,1819,1415,22.8827,-6.19909
602,-391,15.1635,5.69849,0,0,0,0,0,0,0,-1,1826,1415,15.1635,-5.69847
609,-391,14.8285,7.50476,0,0,0,0,0,0,0,-1,1833,1415,14.8285,-7.50479
616,-391,20.7952,12.0503,0,0,0,0,0,0,0,-1,1840,1415,20.7952,-12.0503
623,-391,32.809,18.223,0,0,0,0,0,0,0,-1,1847,1415,32.809,-18.223
630,-391,32.9583,17.5802,0.00109503,-0.00136738,-1.12784e-06,0.00109503,-0.00136738,-0.000458021,0.00142457,0.0470169,1854,1415,32.9583,-17.5802
637,-391,32.823,17.0795,0.00093368,-0.00090762,-7.30494e-05,0.000936573,-0.000910513,-0.0395898,0.00106645,0.0170245,1861,1415,32.823,-17.0795
644,-391,32.7681,16.4907,0.00082051,-0.000566633,-7.75865e-05,0.000824836,-0.000570959,-0.055701,0.000810294,0.0170381,1868,1415,32.768,-16.4908
651,-391,32.7451,15.895,0.000934661,-0.000380497,9.72201e-05,0.000941809,-0.000387645,0.0733911,0.000789475,0.0185531,1875,1415,32.7451,-15.895
658,-391,32.7275,15.2552,0.00118333,-0.000253696,0.000316604,0.00124999,-0.000320358,0.207521,0.000958136,0.0192244,1882,1415,32.7275,-15.2553
665,-391,32.7133,14.6294,0.0016006,-0.000216855,0.000616045,0.00178974,-0.000405987,0.297876,0.00134901,0.0156753,1889,1415,32.7133,-14.6293
672,-391,32.7067,14.0176,0.00215746,-0.000298507,0.00104161,0.00253973,-0.000680772,0.351733,0.00195989,0.0127229,1896,1415,32.7066,-14.0175
679,-391,32.6758,13.3986,0.00284812,-0.000551295,0.00161257,0.00349135,-0.00119453,0.379548,0.00281164,0.01152,1903,1415,32.6758,-13.3986
686,-391,32.6561,12.7815,0.00362321,-0.00107094,0.00242182,0.00464867,-0.0020964,0.400536,0.00398611,0.0128736,1910,1415,32.6561,-12.7815
693,-391,32.6985,12.4146,0.00465452,-0.00164742,0.00328942,0.00605865,-0.00305155,0.403446,0.00535443,0.0369199,1917,1415,32.6985,-12.4145
700,-391,32.8922,12.0305,0,0,0,0,0,0,0,-1,1924,1415,32.8922,-12.0306
707,-391,12.9524,5.96851,0,0,0,0,0,0,0,-1,1931,1415,12.9524,-5.96849
714,-391,15.6875,7.67896,0,0,0,0,0,0,0,-1,1938,1415,15.6875,-7.67893
721,-391,14.1808,8.08435,0,0,0,0,0,0,0,-1,1945,1415,14.1808,-8.08439
728,-391,13.8102,7.28174,0,0,0,0,0,0,0,-1,1952,1415,13.8102,-7.28174
735,-391,0,0,0,0,0,0,0,0,0,-1,1959,1415,0,0
742,-391,0,0,0,0,0,0,0,0,0,-1,1966,1415,0,0
749,-391,0,0,0,0,0,0,0,0,0,-1,1973,1415,0,0
756,-391,0,0,0,0,0,0,0,0,0,-1,1980,1415,0,0
763,-391,0,0,0,0,0,0,0,0,0,-1,1987,1415,0,0
770,-391,0,0,0,0,0,0,0,0,0,-1,1994,1415,0,0
777,-391,0,0,0,0,0,0,0,0,0,-1,2001,1415,0,0
784,-391,0,0,0,0,0,0,0,0,0,-1,2008,1415,0,0
791,-391,0,0,0,0,0,0,0,0,0,-1,2015,1415,0,0
798,-391,0,0,0,0,0,0,0,0,0,-1,2022,1415,0,0
805,-391,0,0,0,0,0,0,0,0,0,-1,2029,1415,0,0
812,-391,0,0,0,0,0,0,0,0,0,-1,2036,1415,0,0
-700,-398,0,0,0,0,0,0,0,0,0,-1,524,1422,0,0
-693,-398,0,0,0,0,0,0,0,0,0,-1,531,1422,0,0
-686,-398,0,0,0,0,0,0,0,0,0,-1,538,1422,0,0
-679,-398,0,0,0,0,0,0,0,0,0,-1,545,1422,0,0
-672,-398,0,0,0,0,0,0,0,0,0,-1,552,1422,0,0
-665,-398,0,0,0,0,0,0,0,0,0,-1,559,1422,0,0
-658,-398,0,0,0,0,0,0,0,0,0,-1,566,1422,0,0
-651,-398,0,0,0,0,0,0,0,0,0,-1,573,1422,0,0
-644,-398,0,0,0,0,0,0,0,0,0,-1,580,1422,0,0
-637,-398,0,0,0,0,0,0,0,0,0,-1,587,1422,0,0
-630,-398,0,0,0,0,0,0,0,0,0,-1,594,1422,0,0
-623,-398,0,0,0,0,0,0,0,0,0,-1,601,1422,0,0
-616,-398,0,0,0,0,0,0,0,0,0,-1,608,1422,0,0
-609,-398,-7.47125,-4.05322,0,0,0,0,0,0,0,-1,615,1422,-7.47128,4.05317
-602,-398,-4.58868,-2.77026,0,0,0,0,0,0,0,-1,622,1422,-4.58869,2.77023
-595,-398,-12.2224,-1.82007,0,0,0,0,0,0,0,-1,629,1422,-12.2224,1.82006
-588,-398,-10.6939,1.32336,0,0,0,0,0,0,0,-1,636,1422,-10.6939,-1.32337
-581,-398,-10.433,3.1123,0,0,0,0,0,0,0,-1,643,1422,-10.433,-3.11233
-574,-398,-10.4475,5.89807,0,0,0,0,0,0,0,-1,650,1422,-10.4475,-5.89802
-567,-398,-10.4904,6.80115,0,0,0,0,0,0,0,-1,657,1422,-10.4904,-6.80115
-560,-398,-10.5333,7.70435,0,0,0,0,0,0,0,-1,664,1422,-10.5333,-7.70429
-553,-398,-15.5995,10.8901,0,0,0,0,0,0,0,-1,671,1422,-15.5995,-10.8902
-546,-398,-15.5984,11.6783,0.00522207,0.00336105,0.00338944,0.0078064,0.000776713,0.651433,0.00496565,0.0297752,678,1422,-15.5984,-11.6784
-539,-398,-15.5361,12.4037,0.00406463,0.00248603,0.00255297,0.00594753,0.000603126,0.635474,0.00378005,0.0140424,685,1422,-15.536,-12.4036
-532,-398,-15.5452,13.0703,0.00314097,0.00175671,0.00187629,0.00444872,0.000448959,0.6087,0.00282807,0.0218107,692,1422,-15.5452,-13.0704
-525,-398,-15.5861,13.6967,0.00251081,0.00129113,0.00143928,0.00346412,0.000337827,0.585009,0.00220545,0.0195527,699,1422,-15.586,-13.6966
-518,-398,-15.6409,14.3655,0.00209147,0.000983174,0.00116453,0.00282698,0.000247662,0.563326,0.00180776,0.0174883,706,1422,-15.641,-14.3654
-511,-398,-15.671,14.9905,0.00186242,0.000839275,0.00103143,0.00250217,0.000199522,0.555184,0.00160574,0.0140701,713,1422,-15.6709,-14.9905
-504,-398,-15.6993,15.6521,0.00184524,0.000872531,0.00106637,0.00253093,0.000186839,0.571448,0.00162858,0.0144911,720,1422,-15.6993,-15.6521
-497,-398,-15.7155,16.311,0.00205582,0.00109225,0.00129044,0.00295148,0.000196589,0.606738,0.00190551,0.0105773,727,1422,-15.7155,-16.3111
-490,-398,-15.737,16.9841,0.00260808,0.00155466,0.00171093,0.00387153,0.000291201,0.636076,0.00248964,0.0197193,734,1422,-15.737,-16.9841
-483,-398,-15.7295,17.679,0,0,0,0,0,0,0,-1,741,1422,-15.7295,-17.6789
-476,-398,-8.64392,11.9448,0,0,0,0,0,0,0,-1,748,1422,-8.6439,-11.9448
-469,-398,-8.91699,10.6276,0,0,0,0,0,0,0,-1,755,1422,-8.91697,-10.6275
-462,-398,-9.59753,9.32532,0,0,0,0,0,0,0,-1,762,1422,-9.59753,-9.32531
-455,-398,-8.08331,6.75024,0,0,0,0,0,0,0,-1,769,1422,-8.08333,-6.75022
-448,-398,-7.4505,5.25293,0,0,0,0,0,0,0,-1,776,1422,-7.4505,-5.25291
-441,-398,-7.61639,3.32141,0,0,0,0,0,0,0,-1,783,1422,-7.61637,-3.32145
-434,-398,-10.7618,3.297,0,0,0,0,0,0,0,-1,790,1422,-10.7618,-3.29704
-427,-398,-11.9061,2.24939,0,0,0,0,0,0,0,-1,797,1422,-11.9061,-2.24941
-420,-398,-13.467,2.32788,0,0,0,0,0,0,0,-1,804,1422,-13.467,-2.32787
-413,-398,-14.7983,2.15515,0,0,0,0,0,0,0,-1,811,1422,-14.7983,-2.15516
-406,-398,0,0,0,0,0,0,0,0,0,-1,818,1422,0,0
-399,-398,0,0,0,0,0,0,0,0,0,-1,825,1422,0,0
-392,-398,0,0,0,0,0,0,0,0,0,-1,832,1422,0,0
-385,-398,0,0,0,0,0,0,0,0,0,-1,839,1422,0,0
-378,-398,0,0,0,0,0,0,0,0,0,-1,846,1422,0,0
-371,-398,0,0,0,0,0,0,0,0,0,-1,853,1422,0,0
-364,-398,0,0,0,0,0,0,0,0,0,-1,860,1422,0,0
-357,-398,0,0,0,0,0,0,0,0,0,-1,867,1422,0,0
-350,-398,0,0,0,0,0,0,0,0,0,-1,874,1422,0,0
-343,-398,0,0,0,0,0,0,0,0,0,-1,881,1422,0,0
-336,-398,0,0,0,0,0,0,0,0,0,-1,888,1422,0,0
-329,-398,0,0,0,0,0,0,0,0,0,-1,895,1422,0,0
-322,-398,0,0,0,0,0,0,0,0,0,-1,902,1422,0,0
-315,-398,0,0,0,0,0,0,0,0,0,-1,909,1422,0,0
-308,-398,0,0,0,0,0,0,0,0,0,-1,916,1422,0,0
-301,-398,0,0,0,0,0,0,0,0,0,-1,923,1422,0,0
-294,-398,0,0,0,0,0,0,0,0,0,-1,930,1422,0,0
-287,-398,0,0,0,0,0,0,0,0,0,-1,937,1422,0,0
-280,-398,0,0,0,0,0,0,0,0,0,-1,944,1422,0,0
-273,-398,0,0,0,0,0,0,0,0,0,-1,951,1422,0,0
-266,-398,0,0,0,0,0,0,0,0,0,-1,958,1422,0,0
-259,-398,0,0,0,0,0,0,0,0,0,-1,965,1422,0,0
-252,-398,0,0,0,0,0,0,0,0,0,-1,972,1422,0,0
-245,-398,0,0,0,0,0,0,0,0,0,-1,979,1422,0,0
-238,-398,0,0,0,0,0,0,0,0,0,-1,986,1422,0,0
-231,-398,0,0,0,0,0,0,0,0,0,-1,993,1422,0,0
-224,-398,0,0,0,0,0,0,0,0,0,-1,1000,1422,0,0
-217,-398,0,0,0,0,0,0,0,0,0,-1,1007,1422,0,0
-210,-398,0,0,0,0,0,0,0,0,0,-1,1014,1422,0,0
-203,-398,0,0,0,0,0,0,0,0,0,-1,1021,1422,0,0
-196,-398,0,0,0,0,0,0,0,0,0,-1,1028,1422,0,0
-189,-398,0,0,0,0,0,0,0,0,0,-1,1035,1422,0,0
-182,-398,0,0,0,0,0,0,0,0,0,-1,1042,1422,0,0
-175,-398,0,0,0,0,0,0,0,0,0,-1,1049,1422,0,0
-168,-398,0,0,0,0,0,0,0,0,0,-1,1056,1422,0,0
-161,-398,0,0,0,0,0,0,0,0,0,-1,1063,1422,0,0
-154,-398,0,0,0,0,0,0,0,0,0,-1,1070,1422,0,0
-147,-398,0,0,0,0,0,0,0,0,0,-1,1077,1422,0,0
-140,-398,0,0,0,0,0,0,0,0,0,-1,1084,1422,0,0
-133,-398,0,0,0,0,0,0,0,0,0,-1,1091,1422,0,0
-126,-398,0,0,0,0,0,0,0,0,0,-1,1098,1422,0,0
-119,-398,0,0,0,0,0,0,0,0,0,-1,1105,1422,0,0
-112,-398,0,0,0,0,0,0,0,0,0,-1,1112,1422,0,0
-105,-398,0,0,0,0,0,0,0,0,0,-1,1119,1422,0,0
-98,-398,0,0,0,0,0,0,0,0,0,-1,1126,1422,0,0
-91,-398,0,0,0,0,0,0,0,0,0,-1,1133,1422,0,0
-84,-398,0,0,0,0,0,0,0,0,0,-1,1140,1422,0,0
-77,-398,0,0,0,0,0,0,0,0,0,-1,1147,1422,0,0
-70,-398,0,0,0,0,0,0,0,0,0,-1,1154,1422,0,0
-63,-398,0,0,0,0,0,0,0,0,0,-1,1161,1422,0,0
-56,-398,0,0,0,0,0,0,0,0,0,-1,1168,1422,0,0
-49,-398,0,0,0,0,0,0,0,0,0,-1,1175,1422,0,0
-42,-398,0,0,0,0,0,0,0,0,0,-1,1182,1422,0,0
-35,-398,0,0,0,0,0,0,0,0,0,-1,1189,1422,0,0
-28,-398,0,0,0,0,0,0,0,0,0,-1,1196,1422,0,0
-21,-398,0,0,0,0,0,0,0,0,0,-1,1203,1422,0,0
-14,-398,0,0,0,0,0,0,0,0,0,-1,1210,1422,0,0
-7,-398,0,0,0,0,0,0,0,0,0,-1,1217,1422,0,0
0,-398,0,0,0,0,0,0,0,0,0,-1,1224,1422,0,0
7,-398,0,0,0,0,0,0,0,0,0,-1,1231,1422,0,0
14,-398,0,0,0,0,0,0,0,0,0,-1,1238,1422,0,0
21,-398,0,0,0,0,0,0,0,0,0,-1,1245,1422,0,0
28,-398,0,0,0,0,0,0,0,0,0,-1,1252,1422,0,0
35,-398,0,0,0,0,0,0,0,0,0,-1,1259,1422,0,0
42,-398,0,0,0,0,0,0,0,0,0,-1,1266,1422,0,0
49,-398,0,0,0,0,0,0,0,0,0,-1,1273,1422,0,0
56,-398,0,0,0,0,0,0,0,0,0,-1,1280,1422,0,0
63,-398,0,0,0,0,0,0,0,0,0,-1,1287,1422,0,0
70,-398,0,0,0,0,0,0,0,0,0,-1,1294,1422,0,0
77,-398,0,0,0,0,0,0,0,0,0,-1,1301,1422,0,0
84,-398,0,0,0,0,0,0,0,0,0,-1,1308,1422,0,0
91,-398,0,0,0,0,0,0,0,0,0,-1,1315,1422,0,0
98,-398,0,0,0,0,0,0,0,0,0,-1,1322,1422,0,0
105,-398,0,0,0,0,0,0,0,0,0,-1,1329,1422,0,0
112,-398,0,0,0,0,0,0,0,0,0,-1,1336,1422,0,0
119,-398,0,0,0,0,0,0,0,0,0,-1,1343,1422,0,0
126,-398,0,0,0,0,0,0,0,0,0,-1,1350,1422,0,0
133,-398,0,0,0,0,0,0,0,0,0,-1,1357,1422,0,0
140,-398,0,0,0,0,0,0,0,0,0,-1,1364,1422,0,0
147,-398,0,0,0,0,0,0,0,0,0,-1,1371,1422,0,0
154,-398,0,0,0,0,0,0,0,0,0,-1,1378,1422,0,0
161,-398,0,0,0,0,0,0,0,0,0,-1,1385,1422,0,0
168,-398,0,0,0,0,0,0,0,0,0,-1,1392,1422,0,0
175,-398,0,0,0,0,0,0,0,0,0,-1,1399,1422,0,0
182,-398,0,0,0,0,0,0,0,0,0,-1,1406,1422,0,0
189,-398,0,0,0,0,0,0,0,0,0,-1,1413,1422,0,0
196,-398,0,0,0,0,0,0,0,0,0,-1,1420,1422,0,0
203,-398,0,0,0,0,0,0,0,0,0,-1,1427,1422,0,0
210,-398,0,0,0,0,0,0,0,0,0,-1,1434,1422,0,0
217,-398,0,0,0,0,0,0,0,0,0,-1,1441,1422,0,0
224,-398,0,0,0,0,0,0,0,0,0,-1,1448,1422,0,0
231,-398,0,0,0,0,0,0,0,0,0,-1,1455,1422,0,0
238,-398,0,0,0,0,0,0,0,0,0,-1,1462,1422,0,0
245,-398,0,0,0,0,0,0,0,0,0,-1,1469,1422,0,0
252,-398,0,0,0,0,0,0,0,0,0,-1,1476,1422,0,0
259,-398,0,0,0,0,0,0,0,0,0,-1,1483,1422,0,0
266,-398,0,0,0,0,0,0,0,0,0,-1,1490,1422,0,0
273,-398,0,0,0,0,0,0,0,0,0,-1,1497,1422,0,0
280,-398,0,0,0,0,0,0,0,0,0,-1,1504,1422,0,0
287,-398,0,0,0,0,0,0,0,0,0,-1,1511,1422,0,0
294,-398,0,0,0,0,0,0,0,0,0,-1,1518,1422,0,0
301,-398,0,0,0,0,0,0,0,0,0,-1,1525,1422,0,0
308,-398,0,0,0,0,0,0,0,0,0,-1,1532,1422,0,0
315,-398,0,0,0,0,0,0,0,0,0,-1,1539,1422,0,0
322,-398,0,0,0,0,0,0,0,0,0,-1,1546,1422,0,0
329,-398,0,0,0,0,0,0,0,0,0,-1,1553,1422,0,0
336,-398,0,0,0,0,0,0,0,0,0,-1,1560,1422,0,0
343,-398,0,0,0,0,0,0,0,0,0,-1,1567,1422,0,0
350,-398,0,0,0,0,0,0,0,0,0,-1,1574,1422,0,0
357,-398,0,0,0,0,0,0,0,0,0,-1,1581,1422,0,0
364,-398,0,0,0,0,0,0,0,0,0,-1,1588,1422,0,0
371,-398,0,0,0,0,0,0,0,0,0,-1,1595,1422,0,0
378,-398,0,0,0,0,0,0,0,0,0,-1,1602,1422,0,0
385,-398,0,0,0,0,0,0,0,0,0,-1,1609,1422,0,0
392,-398,0,0,0,0,0,0,0,0,0,-1,1616,1422,0,0
399,-398,0,0,0,0,0,0,0,0,0,-1,1623,1422,0,0
406,-398,0,0,0,0,0,0,0,0,0,-1,1630,1422,0,0
413,-398,0,0,0,0,0,0,0,0,0,-1,1637,1422,0,0
420,-398,0,0,0,0,0,0,0,0,0,-1,1644,1422,0,0
427,-398,0,0,0,0,0,0,0,0,0,-1,1651,1422,0,0
434,-398,0,0,0,0,0,0,0,0,0,-1,1658,1422,0,0
441,-398,0,0,0,0,0,0,0,0,0,-1,1665,1422,0,0
448,-398,0,0,0,0,0,0,0,0,0,-1,1672,1422,0,0
455,-398,0,0,0,0,0,0,0,0,0,-1,1679,1422,0,0
462,-398,0,0,0,0,0,0,0,0,0,-1,1686,1422,0,0
469,-398,0,0,0,0,0,0,0,0,0,-1,1693,1422,0,0
476,-398,0,0,0,0,0,0,0,0,0,-1,1700,1422,0,0
483,-398,0,0,0,0,0,0,0,0,0,-1,1707,1422,0,0
490,-398,0,0,0,0,0,0,0,0,0,-1,1714,1422,0,0
497,-398,0,0,0,0,0,0,0,0,0,-1,1721,1422,0,0
504,-398,0,0,0,0,0,0,0,0,0,-1,1728,1422,0,0
511,-398,0,0,0,0,0,0,0,0,0,-1,1735,1422,0,0
518,-398,0,0,0,0,0,0,0,0,0,-1,1742,1422,0,0
525,-398,0,0,0,0,0,0,0,0,0,-1,1749,1422,0,0
532,-398,28.4558,3.84094,0,0,0,0,0,0,0,-1,1756,1422,28.4558,-3.8409
539,-398,27.0594,3.33887,0,0,0,0,0,0,0,-1,1763,1422,27.0595,-3.3389
546,-398,31.6873,5.58582,0,0,0,0,0,0,0,-1,1770,1422,31.6872,-5.58585
553,-398,30.4392,5.92383,0,0,0,0,0,0,0,-1,1777,1422,30.4392,-5.92386
560,-398,29.1621,6.30469,0,0,0,0,0,0,0,-1,1784,1422,29.1621,-6.30469
567,-398,27.8411,6.55029,0,0,0,0,0,0,0,-1,1791,1422,27.8411,-6.55033
574,-398,26.411,6.8916,0,0,0,0,0,0,0,-1,1798,1422,26.411,-6.8916
581,-398,24.75,7.11145,0,0,0,0,0,0,0,-1,1805,1422,24.7499,-7.11142
588,-398,23.1649,7.67969,0,0,0,0,0,0,0,-1,1812,1422,23.1649,-7.67975
595,-398,21.4253,7.86023,0,0,0,0,0,0,0,-1,1819,1422,21.4253,-7.86029
602,-398,19.6857,8.04077,0,0,0,0,0,0,0,-1,1826,1422,19.6856,-8.04083
609,-398,21.1835,13.2628,0,0,0,0,0,0,0,-1,1833,1422,21.1835,-13.2628
616,-398,32.0402,19.1842,0,0,0,0,0,0,0,-1,1840,1422,32.0402,-19.1842
623,-398,32.2463,18.3445,0.00179028,-0.00136486,-0.000210621,0.00180428,-0.00137885,-0.0663624,0.00184325,0.044433,1847,1422,32.2463,-18.3444
630,-398,32.2654,17.6886,0.00117798,-0.00123246,-2.60433e-05,0.00117826,-0.00123274,-0.0108027,0.00139211,0.0140708,1854,1422,32.2653,-17.6886
637,-398,32.2267,17.0985,0.00101438,-0.000844287,-7.06517e-05,0.00101706,-0.000846968,-0.0379391,0.00107769,0.0142693,1861,1422,32.2267,-17.0985
644,-398,32.1185,16.5154,0.00095722,-0.00056006,-3.78736e-05,0.000958164,-0.000561004,-0.0249408,0.000887027,0.0214609,1868,1422,32.1186,-16.5154
651,-398,32.1803,15.9098,0.00110694,-0.000319368,8.48024e-05,0.00111196,-0.000324392,0.059178,0.000869842,0.0317315,1875,1422,32.1803,-15.9098
658,-398,32.1671,15.339,0.00135237,-0.000124293,0.000280094,0.00140371,-0.000175636,0.181294,0.00099951,0.0265729,1882,1422,32.1671,-15.339
665,-398,32.1056,14.676,0.00174397,-2.08948e-05,0.000584301,0.00191988,-0.000196808,0.292434,0.00135031,0.0170974,1889,1422,32.1056,-14.6761
672,-398,32.0945,14.0607,0.0022292,-5.15118e-05,0.00107457,0.00265572,-0.000478039,0.377854,0.00194946,0.013867,1896,1422,32.0945,-14.0607
679,-398,32.0811,13.4584,0.00281339,-0.000300379,0.00178778,0.00362717,-0.00111416,0.427162,0.00286271,0.0129451,1903,1422,32.081,-13.4583
686,-398,32.0483,12.8259,0.00337683,-0.00090147,0.00289159,0.00483451,-0.00235916,0.466933,0.00423444,0.0194114,1910,1422,32.0483,-12.8259
693,-398,31.9114,12.5026,0.00408601,-0.00159554,0.00419904,0.00631495,-0.00382447,0.487998,0.00591256,0.0443151,1917,1422,31.9114,-12.5026
700,-398,31.9049,12.2878,0,0,0,0,0,0,0,-1,1924,1422,31.9049,-12.2879
707,-398,10.9731,5.479,0,0,0,0,0,0,0,-1,1931,1422,10.9732,-5.47896
714,-398,11.7313,6.17346,0,0,0,0,0,0,0,-1,1938,1422,11.7313,-6.17348
721,-398,13.9371,8.05103,0,0,0,0,0,0,0,-1,1945,1422,13.9372,-8.05102
728,-398,14.786,7.0282,0,0,0,0,0,0,0,-1,1952,1422,14.786,-7.0282
735,-398,0,0,0,0,0,0,0,0,0,-1,1959,1422,0,0
742,-398,0,0,0,0,0,0,0,0,0,-1,1966,1422,0,0
749,-398,0,0,0,0,0,0,0,0,0,-1,1973,1422,0,0
756,-398,0,0,0,0,0,0,0,0,0,-1,1980,1422,0,0
763,-398,0,0,0,0,0,0,0,0,0,-1,1987,1422,0,0
770,-398,0,0,0,0,0,0,0,0,0,-1,1994,1422,0,0
777,-398,0,0,0,0,0,0,0,0,0,-1,2001,1422,0,0
784,-398,0,0,0,0,0,0,0,0,0,-1,2008,1422,0,0
791,-398,0,0,0,0,0,0,0,0,0,-1,2015,1422,0,0
798,-398,0,0,0,0,0,0,0,0,0,-1,2022,1422,0,0
805,-398,0,0,0,0,0,0,0,0,0,-1,2029,1422,0,0
812,-398,0,0,0,0,0,0,0,0,0,-1,2036,1422,0,0
-700,-405,0,0,0,0,0,0,0,0,0,-1,524,1429,0,0
-693,-405,0,0,0,0,0,0,0,0,0,-1,531,1429,0,0
-686,-405,0,0,0,0,0,0,0,0,0,-1,538,1429,0,0
-679,-405,0,0,0,0,0,0,0,0,0,-1,545,1429,0,0
-672,-405,0,0,0,0,0,0,0,0,0,-1,552,1429,0,0
-665,-405,0,0,0,0,0,0,0,0,0,-1,559,1429,0,0
-658,-405,0,0,0,0,0,0,0,0,0,-1,566,1429,0,0
-651,-405,0,0,0,0,0,0,0,0,0,-1,573,1429,0,0
-644,-405,0,0,0,0,0,0,0,0,0,-1,580,1429,0,0
-637,-405,0,0,0,0,0,0,0,0,0,-1,587,1429,0,0
-630,-405,0,0,0,0,0,0,0,0,0,-1,594,1429,0,0
-623,-405,0,0,0,0,0,0,0,0,0,-1,601,1429,0,0
-616,-405,0,0,0,0,0,0,0,0,0,-1,608,1429,0,0
-609,-405,0,0,0,0,0,0,0,0,0,-1,615,1429,0,0
-602,-405,-5.80988,-3.46594,0,0,0,0,0,0,0,-1,622,1429,-5.80987,3.46592
-595,-405,-9.35413,2.01477,0,0,0,0,0,0,0,-1,629,1429,-9.35411,-2.01476
-588,-405,-7.35693,0.507202,0,0,0,0,0,0,0,-1,636,1429,-7.35696,-0.507187
-581,-405,-10.1284,1.62927,0,0,0,0,0,0,0,-1,643,1429,-10.1284,-1.62922
-574,-405,-9.32074,3.05896,0,0,0,0,0,0,0,-1,650,1429,-9.32077,-3.0589
-567,-405,-9.68781,6.92163,0,0,0,0,0,0,0,-1,657,1429,-9.68782,-6.92166
-560,-405,-9.28674,7.20886,0,0,0,0,0,0,0,-1,664,1429,-9.28675,-7.20885
-553,-405,-14.8967,10.9496,0,0,0,0,0,0,0,-1,671,1429,-14.8968,-10.9496
-546,-405,-14.9141,11.6626,0.00575668,0.0043017,0.00405889,0.00915276,0.000905622,0.696722,0.00582349,0.0436318,678,1429,-14.9141,-11.6626
-539,-405,-14.937,12.3574,0.00439464,0.00326752,0.00307116,0.00695352,0.000708639,0.694657,0.00441845,0.0141786,685,1429,-14.937,-12.3574
-532,-405,-14.9656,13.0229,0.00329968,0.00234391,0.00223225,0.00510463,0.000538961,0.679949,0.00323842,0.0172796,692,1429,-14.9656,-13.0229
-525,-405,-14.9752,13.7083,0.00257311,0.00173399,0.00168177,0.00388686,0.000420241,0.663155,0.00246314,0.0146224,699,1429,-14.9752,-13.7083
-518,-405,-14.9681,14.3926,0.00208219,0.00131567,0.00131497,0.00306861,0.000329241,0.643597,0.0019453,0.0151908,706,1429,-14.9681,-14.3926
-511,-405,-15.0135,15.0243,0.00178696,0.00105658,0.00109176,0.00257299,0.000270547,0.624,0.00163263,0.0158034,713,1429,-15.0135,-15.0243
-504,-405,-15.0327,15.6666,0.00169962,0.00096892,0.00102754,0.00242483,0.000243708,0.614589,0.00154175,0.017694,720,1429,-15.0327,-15.6666
-497,-405,-15.0326,16.3523,0.00182521,0.00107424,0.00114372,0.00265351,0.000245939,0.626789,0.00169299,0.0138852,727,1429,-15.0326,-16.3522
-490,-405,-15.0679,17.0188,0.00220511,0.00139107,0.00143914,0.00329368,0.000302502,0.647586,0.00210222,0.0122365,734,1429,-15.0679,-17.0188
-483,-405,-15.0056,17.7739,0.00275957,0.00199536,0.00192718,0.00434216,0.000412774,0.687532,0.00276746,0.0297042,741,1429,-15.0056,-17.7739
-476,-405,-14.8029,18.7271,0,0,0,0,0,0,0,-1,748,1429,-14.8029,-18.727
-469,-405,-9.65692,12.8171,0,0,0,0,0,0,0,-1,755,1429,-9.65691,-12.8172
-462,-405,-9.14862,11.3597,0,0,0,0,0,0,0,-1,762,1429,-9.14865,-11.3597
-455,-405,-9.021,9.51111,0,0,0,0,0,0,0,-1,769,1429,-9.021,-9.51109
-448,-405,-8.4649,6.82813,0,0,0,0,0,0,0,-1,776,1429,-8.46492,-6.82817
-441,-405,-6.6712,4.23767,0,0,0,0,0,0,0,-1,783,1429,-6.67121,-4.23764
-434,-405,-9.62549,3.94189,0,0,0,0,0,0,0,-1,790,1429,-9.62546,-3.94191
-427,-405,-10.9764,3.73926,0,0,0,0,0,0,0,-1,797,1429,-10.9764,-3.73923
-420,-405,-12.1187,3.68506,0,0,0,0,0,0,0,-1,804,1429,-12.1187,-3.68512
-413,-405,-13.5353,3.75659,0,0,0,0,0,0,0,-1,811,1429,-13.5353,-3.75655
-406,-405,-14.7374,3.99817,0,0,0,0,0,0,0,-1,818,1429,-14.7374,-3.99814
-399,-405,0,0,0,0,0,0,0,0,0,-1,825,1429,0,0
-392,-405,0,0,0,0,0,0,0,0,0,-1,832,1429,0,0
-385,-405,0,0,0,0,0,0,0,0,0,-1,839,1429,0,0
-378,-405,0,0,0,0,0,0,0,0,0,-1,846,1429,0,0
-371,-405,0,0,0,0,0,0,0,0,0,-1,853,1429,0,0
-364,-405,0,0,0,0,0,0,0,0,0,-1,860,1429,0,0
-357,-405,0,0,0,0,0,0,0,0,0,-1,867,1429,0,0
-350,-405,0,0,0,0,0,0,0,0,0,-1,874,1429,0,0
-343,-405,0,0,0,0,0,0,0,0,0,-1,881,1429,0,0
-336,-405,0,0,0,0,0,0,0,0,0,-1,888,1429,0,0
-329,-405,0,0,0,0,0,0,0,0,0,-1,895,1429,0,0
-322,-405,0,0,0,0,0,0,0,0,0,-1,902,1429,0,0
-315,-405,0,0,0,0,0,0,0,0,0,-1,909,1429,0,0
-308,-405,0,0,0,0,0,0,0,0,0,-1,916,1429,0,0
-301,-405,0,0,0,0,0,0,0,0,0,-1,923,1429,0,0
-294,-405,0,0,0,0,0,0,0,0,0,-1,930,1429,0,0
-287,-405,0,0,0,0,0,0,0,0,0,-1,937,1429,0,0
-280,-405,0,0,0,0,0,0,0,0,0,-1,944,1429,0,0
-273,-405,0,0,0,0,0,0,0,0,0,-1,951,1429,0,0
-266,-405,0,0,0,0,0,0,0,0,0,-1,958,1429,0,0
-259,-405,0,0,0,0,0,0,0,0,0,-1,965,1429,0,0
-252,-405,0,0,0,0,0,0,0,0,0,-1,972,1429,0,0
-245,-405,0,0,0,0,0,0,0,0,0,-1,979,1429,0,0
-238,-405,0,0,0,0,0,0,0,0,0,-1,986,1429,0,0
-231,-405,0,0,0,0,0,0,0,0,0,-1,993,1429,0,0
-224,-405,0,0,0,0,0,0,0,0,0,-1,1000,1429,0,0
-217,-405,0,0,0,0,0,0,0,0,0,-1,1007,1429,0,0
-210,-405,0,0,0,0,0,0,0,0,0,-1,1014,1429,0,0
-203,-405,0,0,0,0,0,0,0,0,0,-1,1021,1429,0,0
-196,-405,0,0,0,0,0,0,0,0,0,-1,1028,1429,0,0
-189,-405,0,0,0,0,0,0,0,0,0,-1,1035,1429,0,0
-182,-405,0,0,0,0,0,0,0,0,0,-1,1042,1429,0,0
-175,-405,0,0,0,0,0,0,0,0,0,-1,1049,1429,0,0
-168,-405,0,0,0,0,0,0,0,0,0,-1,1056,1429,0,0
-161,-405,0,0,0,0,0,0,0,0,0,-1,1063,1429,0,0
-154,-405,0,0,0,0,0,0,0,0,0,-1,1070,1429,0,0
-147,-405,0,0,0,0,0,0,0,0,0,-1,1077,1429,0,0
-140,-405,0,0,0,0,0,0,0,0,0,-1,1084,1429,0,0
-133,-405,0,0,0,0,0,0,0,0,0,-1,1091,1429,0,0
-126,-405,0,0,0,0,0,0,0,0,0,-1,1098,1429,0,0
-119,-405,0,0,0,0,0,0,0,0,0,-1,1105,1429,0,0
-112,-405,0,0,0,0,0,0,0,0,0,-1,1112,1429,0,0
-105,-405,0,0,0,0,0,0,0,0,0,-1,1119,1429,0,0
-98,-405,0,0,0,0,0,0,0,0,0,-1,1126,1429,0,0
-91,-405,0,0,0,0,0,0,0,0,0,-1,1133,1429,0,0
-84,-405,0,0,0,0,0,0,0,0,0,-1,1140,1429,0,0
-77,-405,0,0,0,0,0,0,0,0,0,-1,1147,1429,0,0
-70,-405,0,0,0,0,0,0,0,0,0,-1,1154,1429,0,0
-63,-405,0,0,0,0,0,0,0,0,0,-1,1161,1429,0,0
-56,-405,0,0,0,0,0,0,0,0,0,-1,1168,1429,0,0
-49,-405,0,0,0,0,0,0,0,0,0,-1,1175,1429,0,0
-42,-405,0,0,0,0,0,0,0,0,0,-1,1182,1429,0,0
-35,-405,0,0,0,0,0,0,0,0,0,-1,1189,1429,0,0
-28,-405,0,0,0,0,0,0,0,0,0,-1,1196,1429,0,0
-21,-405,0,0,0,0,0,0,0,0,0,-1,1203,1429,0,0
-14,-405,0,0,0,0,0,0,0,0,0,-1,1210,1429,0,0
-7,-405,0,0,0,0,0,0,0,0,0,-1,1217,1429,0,0
0,-405,0,0,0,0,0,0,0,0,0,-1,1224,1429,0,0
7,-405,0,0,0,0,0,0,0,0,0,-1,1231,1429,0,0
14,-405,0,0,0,0,0,0,0,0,0,-1,1238,1429,0,0
21,-405,0,0,0,0,0,0,0,0,0,-1,1245,1429,0,0
28,-405,0,0,0,0,0,0,0,0,0,-1,1252,1429,0,0
35,-405,0,0,0,0,0,0,0,0,0,-1,1259,1429,0,0
42,-405,0,0,0,0,0,0,0,0,0,-1,1266,1429,0,0
49,-405,0,0,0,0,0,0,0,0,0,-1,1273,1429,0,0
56,-405,0,0,0,0,0,0,0,0,0,-1,1280,1429,0,0
63,-405,0,0,0,0,0,0,0,0,0,-1,1287,1429,0,0
70,-405,0,0,0,0,0,0,0,0,0,-1,1294,1429,0,0
77,-405,0,0,0,0,0,0,0,0,0,-1,1301,1429,0,0
84,-405,0,0,0,0,0,0,0,0,0,-1,1308,1429,0,0
91,-405,0,0,0,0,0,0,0,0,0,-1,1315,1429,0,0
98,-405,0,0,0,0,0,0,0,0,0,-1,1322,1429,0,0
105,-405,0,0,0,0,0,0,0,0,0,-1,1329,1429,0,0
112,-405,0,0,0,0,0,0,0,0,0,-1,1336,1429,0,0
119,-405,0,0,0,0,0,0,0,0,0,-1,1343,1429,0,0
126,-405,0,0,0,0,0,0,0,0,0,-1,1350,1429,0,0
133,-405,0,0,0,0,0,0,0,0,0,-1,1357,1429,0,0
140,-405,0,0,0,0,0,0,0,0,0,-1,1364,1429,0,0
147,-405,0,0,0,0,0,0,0,0,0,-1,1371,1429,0,0
154,-405,0,0,0,0,0,0,0,0,0,-1,1378,1429,0,0
161,-405,0,0,0,0,0,0,0,0,0,-1,1385,1429,0,0
168,-405,0,0,0,0,0,0,0,0,0,-1,1392,1429,0,0
175,-405,0,0,0,0,0,0,0,0,0,-1,1399,1429,0,0
182,-405,0,0,0,0,0,0,0,0,0,-1,1406,1429,0,0
189,-405,0,0,0,0,0,0,0,0,0,-1,1413,1429,0,0
196,-405,0,0,0,0,0,0,0,0,0,-1,1420,1429,0,0
203,-405,0,0,0,0,0,0,0,0,0,-1,1427,1429,0,0
210,-405,0,0,0,0,0,0,0,0,0,-1,1434,1429,0,0
217,-405,0,0,0,0,0,0,0,0,0,-1,1441,1429,0,0
224,-405,0,0,0,0,0,0,0,0,0,-1,1448,1429,0,0
231,-405,0,0,0,0,0,0,0,0,0,-1,1455,1429,0,0
238,-405,0,0,0,0,0,0,0,0,0,-1,1462,1429,0,0
245,-405,0,0,0,0,0,0,0,0,0,-1,1469,1429,0,0
252,-405,0,0,0,0,0,0,0,0,0,-1,1476,1429,0,0
259,-405,0,0,0,0,0,0,0,0,0,-1,1483,1429,0,0
266,-405,0,0,0,0,0,0,0,0,0,-1,1490,1429,0,0
273,-405,0,0,0,0,0,0,0,0,0,-1,1497,1429,0,0
280,-405,0,0,0,0,0,0,0,0,0,-1,1504,1429,0,0
287,-405,0,0,0,0,0,0,0,0,0,-1,1511,1429,0,0
294,-405,0,0,0,0,0,0,0,0,0,-1,1518,1429,0,0
301,-405,0,0,0,0,0,0,0,0,0,-1,1525,1429,0,0
308,-405,0,0,0,0,0,0,0,0,0,-1,1532,1429,0,0
315,-405,0,0,0,0,0,0,0,0,0,-1,1539,1429,0,0
322,-405,0,0,0,0,0,0,0,0,0,-1,1546,1429,0,0
329,-405,0,0,0,0,0,0,0,0,0,-1,1553,1429,0,0
336,-405,0,0,0,0,0,0,0,0,0,-1,1560,1429,0,0
343,-405,0,0,0,0,0,0,0,0,0,-1,1567,1429,0,0
350,-405,0,0,0,0,0,0,0,0,0,-1,1574,1429,0,0
357,-405,0,0,0,0,0,0,0,0,0,-1,1581,1429,0,0
364,-405,0,0,0,0,0,0,0,0,0,-1,1588,1429,0,0
371,-405,0,0,0,0,0,0,0,0,0,-1,1595,1429,0,0
378,-405,0,0,0,0,0,0,0,0,0,-1,1602,1429,0,0
385,-405,0,0,0,0,0,0,0,0,0,-1,1609,1429,0,0
392,-405,0,0,0,0,0,0,0,0,0,-1,1616,1429,0,0
399,-405,0,0,0,0,0,0,0,0,0,-1,1623,1429,0,0
406,-405,0,0,0,0,0,0,0,0,0,-1,1630,1429,0,0
413,-405,0,0,0,0,0,0,0,0,0,-1,1637,1429,0,0
420,-405,0,0,0,0,0,0,0,0,0,-1,1644,1429,0,0
427,-405,0,0,0,0,0,0,0,0,0,-1,1651,1429,0,0
434,-405,0,0,0,0,0,0,0,0,0,-1,1658,1429,0,0
441,-405,0,0,0,0,0,0,0,0,0,-1,1665,1429,0,0
448,-405,0,0,0,0,0,0,0,0,0,-1,1672,1429,0,0
455,-405,0,0,0,0,0,0,0,0,0,-1,1679,1429,0,0
462,-405,0,0,0,0,0,0,0,0,0,-1,1686,1429,0,0
469,-405,0,0,0,0,0,0,0,0,0,-1,1693,1429,0,0
476,-405,0,0,0,0,0,0,0,0,0,-1,1700,1429,0,0
483,-405,0,0,0,0,0,0,0,0,0,-1,1707,1429,0,0
490,-405,0,0,0,0,0,0,0,0,0,-1,1714,1429,0,0
497,-405,0,0,0,0,0,0,0,0,0,-1,1721,1429,0,0
504,-405,0,0,0,0,0,0,0,0,0,-1,1728,1429,0,0
511,-405,0,0,0,0,0,0,0,0,0,-1,1735,1429,0,0
518,-405,0,0,0,0,0,0,0,0,0,-1,1742,1429,0,0
525,-405,31.1563,-1.40942,0,0,0,0,0,0,0,-1,1749,1429,31.1563,1.40937
532,-405,28.156,4.8783,0,0,0,0,0,0,0,-1,1756,1429,28.1561,-4.87833
539,-405,26.5133,3.02454,0,0,0,0,0,0,0,-1,1763,1429,26.5133,-3.0246
546,-405,29.5735,6.53052,0,0,0,0,0,0,0,-1,1770,1429,29.5735,-6.53049
553,-405,28.2911,6.70654,0,0,0,0,0,0,0,-1,1777,1429,28.2912,-6.70656
560,-405,26.9299,7.08472,0,0,0,0,0,0,0,-1,1784,1429,26.9299,-7.08469
567,-405,25.804,7.14661,0,0,0,0,0,0,0,-1,1791,1429,25.8039,-7.14665
574,-405,25.1151,8.07971,0,0,0,0,0,0,0,-1,1798,1429,25.1151,-8.07965
581,-405,23.5055,8.505,0,0,0,0,0,0,0,-1,1805,1429,23.5054,-8.50501
588,-405,21.7491,8.98254,0,0,0,0,0,0,0,-1,1812,1429,21.7491,-8.98254
595,-405,21.6327,10.7795,0,0,0,0,0,0,0,-1,1819,1429,21.6327,-10.7796
602,-405,21.6461,13.9199,0,0,0,0,0,0,0,-1,1826,1429,21.6461,-13.92
609,-405,31.5706,19.8083,0,0,0,0,0,0,0,-1,1833,1429,31.5706,-19.8084
616,-405,31.6166,19.1254,0,0,0,0,0,0,0,-1,1840,1429,31.6166,-19.1254
623,-405,31.611,18.4475,0.00192686,-0.000958003,-0.000380192,0.00197612,-0.00100727,-0.128858,0.00175247,0.0146235,1847,1429,31.611,-18.4475
630,-405,31.6229,17.771,0.0014195,-0.000954252,-0.00019216,0.00143495,-0.000969707,-0.0802557,0.00139696,0.0114842,1854,1429,31.623,-17.771
637,-405,31.5994,17.1411,0.00123364,-0.000670699,-0.00019639,0.00125368,-0.000690741,-0.101701,0.00113819,0.0113116,1861,1429,31.5994,-17.1412
644,-405,31.5262,16.5392,0.00119942,-0.000438657,-0.00013694,0.00121079,-0.000450026,-0.0828316,0.00099184,0.0295523,1868,1429,31.5263,-16.5391
651,-405,31.4723,15.9183,0.00134682,-0.000161441,-6.26707e-05,0.00134942,-0.00016404,-0.0414563,0.000958984,0.0367055,1875,1429,31.4723,-15.9183
658,-405,31.4702,15.3617,0.0015546,0.000100069,0.00010154,0.00156166,9.30144e-05,0.0693611,0.00101153,0.0266407,1882,1429,31.4703,-15.3617
665,-405,31.4655,14.7158,0.00188368,0.000282265,0.000398876,0.00197753,0.000188414,0.231085,0.00126025,0.0194622,1889,1429,31.4655,-14.7158
672,-405,31.4835,14.0983,0.00224116,0.000329564,0.000937939,0.00262449,-5.37721e-05,0.387984,0.00176786,0.0231755,1896,1429,31.4835,-14.0982
679,-405,31.5757,13.5287,0.00264474,0.000123314,0.00177596,0.00356197,-0.000793915,0.476736,0.00267879,0.0255901,1903,1429,31.5757,-13.5287
686,-405,31.3448,12.9706,0.00287199,-0.000519592,0.00318322,0.00478295,-0.00243055,0.540655,0.00423789,0.0399701,1910,1429,31.3449,-12.9706
693,-405,31.2196,12.562,0,0,0,0,0,0,0,-1,1917,1429,31.2196,-12.562
700,-405,9.1958,4.02026,0,0,0,0,0,0,0,-1,1924,1429,9.19579,-4.02025
707,-405,7.40308,3.83191,0,0,0,0,0,0,0,-1,1931,1429,7.40311,-3.83194
714,-405,7.33252,3.47388,0,0,0,0,0,0,0,-1,1938,1429,7.33255,-3.47383
721,-405,9.23523,0.993896,0,0,0,0,0,0,0,-1,1945,1429,9.23523,-0.993884
728,-405,0,0,0,0,0,0,0,0,0,-1,1952,1429,0,0
735,-405,0,0,0,0,0,0,0,0,0,-1,1959,1429,0,0
742,-405,0,0,0,0,0,0,0,0,0,-1,1966,1429,0,0
749,-405,0,0,0,0,0,0,0,0,0,-1,1973,1429,0,0
756,-405,0,0,0,0,0,0,0,0,0,-1,1980,1429,0,0
763,-405,0,0,0,0,0,0,0,0,0,-1,1987,1429,0,0
770,-405,0,0,0,0,0,0,0,0,0,-1,1994,1429,0,0
777,-405,0,0,0,0,0,0,0,0,0,-1,2001,1429,0,0
784,-405,0,0,0,0,0,0,0,0,0,-1,2008,1429,0,0
791,-405,0,0,0,0,0,0,0,0,0,-1,2015,1429,0,0
798,-405,0,0,0,0,0,0,0,0,0,-1,2022,1429,0,0
805,-405,0,0,0,0,0,0,0,0,0,-1,2029,1429,0,0
812,-405,0,0,0,0,0,0,0,0,0,-1,2036,1429,0,0
-700,-412,0,0,0,0,0,0,0,0,0,-1,524,1436,0,0
-693,-412,0,0,0,0,0,0,0,0,0,-1,531,1436,0,0
-686,-412,0,0,0,0,0,0,0,0,0,-1,538,1436,0,0
-679,-412,0,0,0,0,0,0,0,0,0,-1,545,1436,0,0
-672,-412,0,0,0,0,0,0,0,0,0,-1,552,1436,0,0
-665,-412,0,0,0,0,0,0,0,0,0,-1,559,1436,0,0
-658,-412,0,0,0,0,0,0,0,0,0,-1,566,1436,0,0
-651,-412,0,0,0,0,0,0,0,0,0,-1,573,1436,0,0
-644,-412,0,0,0,0,0,0,0,0,0,-1,580,1436,0,0
-637,-412,0,0,0,0,0,0,0,0,0,-1,587,1436,0,0
-630,-412,0,0,0,0,0,0,0,0,0,-1,594,1436,0,0
-623,-412,0,0,0,0,0,0,0,0,0,-1,601,1436,0,0
-616,-412,0,0,0,0,0,0,0,0,0,-1,608,1436,0,0
-609,-412,0,0,0,0,0,0,0,0,0,-1,615,1436,0,0
-602,-412,-3.72766,-3.50012,0,0,0,0,0,0,0,-1,622,1436,-3.72764,3.50017
-595,-412,-10.3706,0.65564,0,0,0,0,0,0,0,-1,629,1436,-10.3706,-0.655672
-588,-412,-8.17957,1.94934,0,0,0,0,0,0,0,-1,636,1436,-8.17956,-1.94939
-581,-412,-6.60065,-0.0554199,0,0,0,0,0,0,0,-1,643,1436,-6.60063,0.0554733
-574,-412,-8.34131,5.25012,0,0,0,0,0,0,0,-1,650,1436,-8.34129,-5.25012
-567,-412,-7.50354,3.65454,0,0,0,0,0,0,0,-1,657,1436,-7.50356,-3.65452
-560,-412,-8.52448,7.39014,0,0,0,0,0,0,0,-1,664,1436,-8.52447,-7.39019
-553,-412,-7.36761,6.54651,0,0,0,0,0,0,0,-1,671,1436,-7.36763,-6.54654
-546,-412,-14.2196,11.7238,0,0,0,0,0,0,0,-1,678,1436,-14.2196,-11.7237
-539,-412,-14.2294,12.3208,0.00475732,0.00425442,0.00371237,0.00822675,0.000784995,0.751583,0.00524246,0.0268992,685,1436,-14.2294,-12.3208
-532,-412,-14.2837,13.0764,0.00355112,0.00310506,0.00273293,0.00607011,0.000586073,0.744684,0.00386621,0.0148242,692,1436,-14.2837,-13.0764
-525,-412,-14.3121,13.7744,0.00276102,0.00232606,0.00207927,0.00463415,0.000452928,0.733291,0.00295007,0.0148266,699,1436,-14.3121,-13.7744
-518,-412,-14.3118,14.4401,0.0022129,0.00177375,0.00162138,0.00362951,0.000357146,0.718094,0.00230984,0.0159211,706,1436,-14.3118,-14.4401
-511,-412,-14.3564,15.0499,0.00184065,0.00138492,0.00129923,0.00293185,0.000293723,0.698587,0.00186439,0.0201784,713,1436,-14.3564,-15.0499
-504,-412,-14.3943,15.6956,0.00164422,0.00115782,0.00111347,0.00254074,0.0002613,0.677879,0.00161379,0.0202753,720,1436,-14.3943,-15.6955
-497,-412,-14.4022,16.3795,0.00164421,0.00111742,0.00109076,0.00250292,0.000258709,0.666925,0.00158941,0.0148198,727,1436,-14.4022,-16.3795
-490,-412,-14.4255,17.0443,0.00186732,0.00130489,0.00125897,0.00287611,0.000296107,0.675518,0.00182672,0.0124661,734,1436,-14.4255,-17.0443
-483,-412,-14.4391,17.6907,0.00224439,0.00172,0.00158107,0.00358487,0.000379532,0.703229,0.00227398,0.0107085,741,1436,-14.4391,-17.6906
-476,-412,-14.4196,18.4227,0,0,0,0,0,0,0,-1,748,1436,-14.4196,-18.4228
-469,-412,-12.7646,18.4785,0,0,0,0,0,0,0,-1,755,1436,-12.7647,-18.4785
-462,-412,-8.94659,13.3385,0,0,0,0,0,0,0,-1,762,1436,-8.94657,-13.3385
-455,-412,-8.25006,11.2572,0,0,0,0,0,0,0,-1,769,1436,-8.25007,-11.2572
-448,-412,-7.38086,8.78186,0,0,0,0,0,0,0,-1,776,1436,-7.38088,-8.78183
-441,-412,-8.79523,9.05286,0,0,0,0,0,0,0,-1,783,1436,-8.79521,-9.0529
-434,-412,-10.6305,8.03577,0,0,0,0,0,0,0,-1,790,1436,-10.6305,-8.0358
-427,-412,-10.0004,5.15271,0,0,0,0,0,0,0,-1,797,1436,-10.0004,-5.15266
-420,-412,-10.4468,4.9043,0,0,0,0,0,0,0,-1,804,1436,-10.4468,-4.90429
-413,-412,-11.5704,4.97766,0,0,0,0,0,0,0,-1,811,1436,-11.5704,-4.97771
-406,-412,-13.1968,5.70093,0,0,0,0,0,0,0,-1,818,1436,-13.1968,-5.70096
-399,-412,-10.5506,0.771973,0,0,0,0,0,0,0,-1,825,1436,-10.5506,-0.771954
-392,-412,0,0,0,0,0,0,0,0,0,-1,832,1436,0,0
-385,-412,0,0,0,0,0,0,0,0,0,-1,839,1436,0,0
-378,-412,0,0,0,0,0,0,0,0,0,-1,846,1436,0,0
-371,-412,0,0,0,0,0,0,0,0,0,-1,853,1436,0,0
-364,-412,0,0,0,0,0,0,0,0,0,-1,860,1436,0,0
-357,-412,0,0,0,0,0,0,0,0,0,-1,867,1436,0,0
-350,-412,0,0,0,0,0,0,0,0,0,-1,874,1436,0,0
-343,-412,0,0,0,0,0,0,0,0,0,-1,881,1436,0,0
-336,-412,0,0,0,0,0,0,0,0,0,-1,888,1436,0,0
-329,-412,0,0,0,0,0,0,0,0,0,-1,895,1436,0,0
-322,-412,0,0,0,0,0,0,0,0,0,-1,902,1436,0,0
-315,-412,0,0,0,0,0,0,0,0,0,-1,909,1436,0,0
-308,-412,0,0,0,0,0,0,0,0,0,-1,916,1436,0,0
-301,-412,0,0,0,0,0,0,0,0,0,-1,923,1436,0,0
-294,-412,0,0,0,0,0,0,0,0,0,-1,930,1436,0,0
-287,-412,0,0,0,0,0,0,0,0,0,-1,937,1436,0,0
-280,-412,0,0,0,0,0,0,0,0,0,-1,944,1436,0,0
-273,-412,0,0,0,0,0,0,0,0,0,-1,951,1436,0,0
-266,-412,0,0,0,0,0,0,0,0,0,-1,958,1436,0,0
-259,-412,0,0,0,0,0,0,0,0,0,-1,965,1436,0,0
-252,-412,0,0,0,0,0,0,0,0,0,-1,972,1436,0,0
-245,-412,0,0,0,0,0,0,0,0,0,-1,979,1436,0,0
-238,-412,0,0,0,0,0,0,0,0,0,-1,986,1436,0,0
-231,-412,0,0,0,0,0,0,0,0,0,-1,993,1436,0,0
-224,-412,0,0,0,0,0,0,0,0,0,-1,1000,1436,0,0
-217,-412,0,0,0,0,0,0,0,0,0,-1,1007,1436,0,0
-210,-412,0,0,0,0,0,0,0,0,0,-1,1014,1436,0,0
-203,-412,0,0,0,0,0,0,0,0,0,-1,1021,1436,0,0
-196,-412,0,0,0,0,0,0,0,0,0,-1,1028,1436,0,0
-189,-412,0,0,0,0,0,0,0,0,0,-1,1035,1436,0,0
-182,-412,0,0,0,0,0,0,0,0,0,-1,1042,1436,0,0
-175,-412,0,0,0,0,0,0,0,0,0,-1,1049,1436,0,0
-168,-412,0,0,0,0,0,0,0,0,0,-1,1056,1436,0,0
-161,-412,0,0,0,0,0,0,0,0,0,-1,1063,1436,0,0
-154,-412,0,0,0,0,0,0,0,0,0,-1,1070,1436,0,0
-147,-412,0,0,0,0,0,0,0,0,0,-1,1077,1436,0,0
-140,-412,0,0,0,0,0,0,0,0,0,-1,1084,1436,0,0
-133,-412,0,0,0,0,0,0,0,0,0,-1,1091,1436,0,0
-126,-412,0,0,0,0,0,0,0,0,0,-1,1098,1436,0,0
-119,-412,0,0,0,0,0,0,0,0,0,-1,1105,1436,0,0
-112,-412,0,0,0,0,0,0,0,0,0,-1,1112,1436,0,0
-105,-412,0,0,0,0,0,0,0,0,0,-1,1119,1436,0,0
-98,-412,0,0,0,0,0,0,0,0,0,-1,1126,1436,0,0
-91,-412,0,0,0,0,0,0,0,0,0,-1,1133,1436,0,0
-84,-412,0,0,0,0,0,0,0,0,0,-1,1140,1436,0,0
-77,-412,0,0,0,0,0,0,0,0,0,-1,1147,1436,0,0
-70,-412,0,0,0,0,0,0,0,0,0,-1,1154,1436,0,0
-63,-412,0,0,0,0,0,0,0,0,0,-1,1161,1436,0,0
-56,-412,0,0,0,0,0,0,0,0,0,-1,1168,1436,0,0
-49,-412,0,0,0,0,0,0,0,0,0,-1,1175,1436,0,0
-42,-412,0,0,0,0,0,0,0,0,0,-1,1182,1436,0,0
-35,-412,0,0,0,0,0,0,0,0,0,-1,1189,1436,0,0
-28,-412,0,0,0,0,0,0,0,0,0,-1,1196,1436,0,0
-21,-412,0,0,0,0,0,0,0,0,0,-1,1203,1436,0,0
-14,-412,0,0,0,0,0,0,0,0,0,-1,1210,1436,0,0
-7,-412,0,0,0,0,0,0,0,0,0,-1,1217,1436,0,0
0,-412,0,0,0,0,0,0,0,0,0,-1,1224,1436,0,0
7,-412,0,0,0,0,0,0,0,0,0,-1,1231,1436,0,0
14,-412,0,0,0,0,0,0,0,0,0,-1,1238,1436,0,0
21,-412,0,0,0,0,0,0,0,0,0,-1,1245,1436,0,0
28,-412,0,0,0,0,0,0,0,0,0,-1,1252,1436,0,0
35,-412,0,0,0,0,0,0,0,0,0,-1,1259,1436,0,0
42,-412,0,0,0,0,0,0,0,0,0,-1,1266,1436,0,0
49,-412,0,0,0,0,0,0,0,0,0,-1,1273,1436,0,0
56,-412,0,0,0,0,0,0,0,0,0,-1,1280,1436,0,0
63,-412,0,0,0,0,0,0,0,0,0,-1,1287,1436,0,0
70,-412,0,0,0,0,0,0,0,0,0,-1,1294,1436,0,0
77,-412,0,0,0,0,0,0,0,0,0,-1,1301,1436,0,0
84,-412,0,0,0,0,0,0,0,0,0,-1,1308,1436,0,0
91,-412,0,0,0,0,0,0,0,0,0,-1,1315,1436,0,0
98,-412,0,0,0,0,0,0,0,0,0,-1,1322,1436,0,0
105,-412,0,0,0,0,0,0,0,0,0,-1,1329,1436,0,0
112,-412,0,0,0,0,0,0,0,0,0,-1,1336,1436,0,0
119,-412,0,0,0,0,0,0,0,0,0,-1,1343,1436,0,0
126,-412,0,0,0,0,0,0,0,0,0,-1,1350,1436,0,0
133,-412,0,0,0,0,0,0,0,0,0,-1,1357,1436,0,0
140,-412,0,0,0,0,0,0,0,0,0,-1,1364,1436,0,0
147,-412,0,0,0,0,0,0,0,0,0,-1,1371,1436,0,0
154,-412,0,0,0,0,0,0,0,0,0,-1,1378,1436,0,0
161,-412,0,0,0,0,0,0,0,0,0,-1,1385,1436,0,0
168,-412,0,0,0,0,0,0,0,0,0,-1,1392,1436,0,0
175,-412,0,0,0,0,0,0,0,0,0,-1,1399,1436,0,0
182,-412,0,0,0,0,0,0,0,0,0,-1,1406,1436,0,0
189,-412,0,0,0,0,0,0,0,0,0,-1,1413,1436,0,0
196,-412,0,0,0,0,0,0,0,0,0,-1,1420,1436,0,0
203,-412,0,0,0,0,0,0,0,0,0,-1,1427,1436,0,0
210,-412,0,0,0,0,0,0,0,0,0,-1,1434,1436,0,0
217,-412,0,0,0,0,0,0,0,0,0,-1,1441,1436,0,0
224,-412,0,0,0,0,0,0,0,0,0,-1,1448,1436,0,0
231,-412,0,0,0,0,0,0,0,0,0,-1,1455,1436,0,0
238,-412,0,0,0,0,0,0,0,0,0,-1,1462,1436,0,0
245,-412,0,0,0,0,0,0,0,0,0,-1,1469,1436,0,0
252,-412,0,0,0,0,0,0,0,0,0,-1,1476,1436,0,0
259,-412,0,0,0,0,0,0,0,0,0,-1,1483,1436,0,0
266,-412,0,0,0,0,0,0,0,0,0,-1,1490,1436,0,0
273,-412,0,0,0,0,0,0,0,0,0,-1,1497,1436,0,0
280,-412,0,0,0,0,0,0,0,0,0,-1,1504,1436,0,0
287,-412,0,0,0,0,0,0,0,0,0,-1,1511,1436,0,0
294,-412,0,0,0,0,0,0,0,0,0,-1,1518,1436,0,0
301,-412,0,0,0,0,0,0,0,0,0,-1,1525,1436,0,0
308,-412,0,0,0,0,0,0,0,0,0,-1,1532,1436,0,0
315,-412,0,0,0,0,0,0,0,0,0,-1,1539,1436,0,0
322,-412,0,0,0,0,0,0,0,0,0,-1,1546,1436,0,0
329,-412,0,0,0,0,0,0,0,0,0,-1,1553,1436,0,0
336,-412,0,0,0,0,0,0,0,0,0,-1,1560,1436,0,0
343,-412,0,0,0,0,0,0,0,0,0,-1,1567,1436,0,0
350,-412,0,0,0,0,0,0,0,0,0,-1,1574,1436,0,0
357,-412,0,0,0,0,0,0,0,0,0,-1,1581,1436,0,0
364,-412,0,0,0,0,0,0,0,0,0,-1,1588,1436,0,0
371,-412,0,0,0,0,0,0,0,0,0,-1,1595,1436,0,0
378,-412,0,0,0,0,0,0,0,0,0,-1,1602,1436,0,0
385,-412,0,0,0,0,0,0,0,0,0,-1,1609,1436,0,0
392,-412,0,0,0,0,0,0,0,0,0,-1,1616,1436,0,0
399,-412,0,0,0,0,0,0,0,0,0,-1,1623,1436,0,0
406,-412,0,0,0,0,0,0,0,0,0,-1,1630,1436,0,0
413,-412,0,0,0,0,0,0,0,0,0,-1,1637,1436,0,0
420,-412,0,0,0,0,0,0,0,0,0,-1,1644,1436,0,0
427,-412,0,0,0,0,0,0,0,0,0,-1,1651,1436,0,0
434,-412,0,0,0,0,0,0,0,0,0,-1,1658,1436,0,0
441,-412,0,0,0,0,0,0,0,0,0,-1,1665,1436,0,0
448,-412,0,0,0,0,0,0,0,0,0,-1,1672,1436,0,0
455,-412,0,0,0,0,0,0,0,0,0,-1,1679,1436,0,0
462,-412,0,0,0,0,0,0,0,0,0,-1,1686,1436,0,0
469,-412,0,0,0,0,0,0,0,0,0,-1,1693,1436,0,0
476,-412,0,0,0,0,0,0,0,0,0,-1,1700,1436,0,0
483,-412,0,0,0,0,0,0,0,0,0,-1,1707,1436,0,0
490,-412,0,0,0,0,0,0,0,0,0,-1,1714,1436,0,0
497,-412,0,0,0,0,0,0,0,0,0,-1,1721,1436,0,0
504,-412,0,0,0,0,0,0,0,0,0,-1,1728,1436,0,0
511,-412,0,0,0,0,0,0,0,0,0,-1,1735,1436,0,0
518,-412,30.1038,-2.43384,0,0,0,0,0,0,0,-1,1742,1436,30.1038,2.43383
525,-412,29.5283,-1.42493,0,0,0,0,0,0,0,-1,1749,1436,29.5283,1.42495
532,-412,28.8533,-0.386597,0,0,0,0,0,0,0,-1,1756,1436,28.8533,0.386632
539,-412,25.8654,2.74683,0,0,0,0,0,0,0,-1,1763,1436,25.8654,-2.74685
546,-412,25.4265,2.4342,0,0,0,0,0,0,0,-1,1770,1436,25.4265,-2.4342
553,-412,26.3595,7.49255,0,0,0,0,0,0,0,-1,1777,1436,26.3595,-7.4925
560,-412,24.9116,7.94324,0,0,0,0,0,0,0,-1,1784,1436,24.9116,-7.94327
567,-412,23.668,7.94531,0,0,0,0,0,0,0,-1,1791,1436,23.6679,-7.94534
574,-412,23.0142,9.17236,0,0,0,0,0,0,0,-1,1798,1436,23.0141,-9.17235
581,-412,22.2615,10.0349,0,0,0,0,0,0,0,-1,1805,1436,22.2615,-10.0349
588,-412,21.6893,10.8069,0,0,0,0,0,0,0,-1,1812,1436,21.6893,-10.8069
595,-412,21.5137,14.3157,0,0,0,0,0,0,0,-1,1819,1436,21.5137,-14.3157
602,-412,30.9938,20.3931,0,0,0,0,0,0,0,-1,1826,1436,30.9938,-20.3931
609,-412,31.0444,19.6661,0.00381007,0.00034193,-0.00169535,0.00450112,-0.000349121,-0.387054,0.00312363,0.0425934,1833,1436,31.0444,-19.6662
616,-412,31.054,19.0493,0.00271486,-0.000310887,-0.000946912,0.00298677,-0.00058279,-0.279624,0.00221119,0.013132,1840,1436,31.0539,-19.0493
623,-412,31.007,18.4478,0.00193814,-0.000554948,-0.000583129,0.00206779,-0.000684599,-0.218777,0.00165463,0.00915004,1847,1436,31.007,-18.4477
630,-412,31.0055,17.7991,0.0015525,-0.000611462,-0.000406636,0.00162639,-0.000685351,-0.179747,0.00137105,0.0122197,1854,1436,31.0055,-17.7991
637,-412,30.9934,17.1599,0.00138758,-0.000403129,-0.000376081,0.00146336,-0.000478906,-0.198829,0.00116839,0.0146346,1861,1436,30.9934,-17.1599
644,-412,30.9508,16.5625,0.00140036,-0.000201119,-0.000295296,0.00145308,-0.000253833,-0.176652,0.00106348,0.0154305,1868,1436,30.9508,-16.5625
651,-412,30.9178,15.9353,0.00157889,0.000102736,-0.000259306,0.00162312,5.85103e-05,-0.168928,0.00106311,0.0259817,1875,1436,30.9179,-15.9353
658,-412,30.8715,15.348,0.00182043,0.000421282,-0.000147775,0.00183586,0.000405844,-0.104088,0.00111356,0.0184204,1882,1436,30.8715,-15.3481
665,-412,30.8514,14.7169,0.00215533,0.000683857,0.000111738,0.00216377,0.00067542,0.0753601,0.0012783,0.0225715,1889,1436,30.8515,-14.7169
672,-412,30.8729,14.0746,0.00244934,0.000817547,0.000649613,0.00267636,0.000590523,0.336208,0.0016236,0.0303536,1896,1436,30.873,-14.0745
679,-412,30.9746,13.4285,0.00274587,0.00067289,0.00153242,0.00355941,-0.000140654,0.488052,0.00242119,0.0493575,1903,1436,30.9746,-13.4285
686,-412,30.9054,12.6583,0,0,0,0,0,0,0,-1,1910,1436,30.9054,-12.6583
693,-412,11.9346,6.02344,0,0,0,0,0,0,0,-1,1917,1436,11.9346,-6.02343
700,-412,8.82764,5.8844,0,0,0,0,0,0,0,-1,1924,1436,8.82761,-5.88444
707,-412,6.59998,1.68994,0,0,0,0,0,0,0,-1,1931,1436,6.60002,-1.68995
714,-412,4.77283,-2.39832,0,0,0,0,0,0,0,-1,1938,1436,4.77288,2.39835
721,-412,0,0,0,0,0,0,0,0,0,-1,1945,1436,0,0
728,-412,0,0,0,0,0,0,0,0,0,-1,1952,1436,0,0
735,-412,0,0,0,0,0,0,0,0,0,-1,1959,1436,0,0
742,-412,0,0,0,0,0,0,0,0,0,-1,1966,1436,0,0
749,-412,0,0,0,0,0,0,0,0,0,-1,1973,1436,0,0
756,-412,0,0,0,0,0,0,0,0,0,-1,1980,1436,0,0
763,-412,0,0,0,0,0,0,0,0,0,-1,1987,1436,0,0
770,-412,0,0,0,0,0,0,0,0,0,-1,1994,1436,0,0
777,-412,0,0,0,0,0,0,0,0,0,-1,2001,1436,0,0
784,-412,0,0,0,0,0,0,0,0,0,-1,2008,1436,0,0
791,-412,0,0,0,0,0,0,0,0,0,-1,2015,1436,0,0
798,-412,0,0,0,0,0,0,0,0,0,-1,2022,1436,0,0
805,-412,0,0,0,0,0,0,0,0,0,-1,2029,1436,0,0
812,-412,0,0,0,0,0,0,0,0,0,-1,2036,1436,0,0
-700,-419,0,0,0,0,0,0,0,0,0,-1,524,1443,0,0
-693,-419,0,0,0,0,0,0,0,0,0,-1,531,1443,0,0
-686,-419,0,0,0,0,0,0,0,0,0,-1,538,1443,0,0
-679,-419,0,0,0,0,0,0,0,0,0,-1,545,1443,0,0
-672,-419,0,0,0,0,0,0,0,0,0,-1,552,1443,0,0
-665,-419,0,0,0,0,0,0,0,0,0,-1,559,1443,0,0
-658,-419,0,0,0,0,0,0,0,0,0,-1,566,1443,0,0
-651,-419,0,0,0,0,0,0,0,0,0,-1,573,1443,0,0
-644,-419,0,0,0,0,0,0,0,0,0,-1,580,1443,0,0
-637,-419,0,0,0,0,0,0,0,0,0,-1,587,1443,0,0
-630,-419,0,0,0,0,0,0,0,0,0,-1,594,1443,0,0
-623,-419,0,0,0,0,0,0,0,0,0,-1,601,1443,0,0
-616,-419,0,0,0,0,0,0,0,0,0,-1,608,1443,0,0
-609,-419,0,0,0,0,0,0,0,0,0,-1,615,1443,0,0
-602,-419,0,0,0,0,0,0,0,0,0,-1,622,1443,0,0
-595,-419,-11.4904,-0.622681,0,0,0,0,0,0,0,-1,629,1443,-11.4903,0.622714
-588,-419,-9.09369,0.742432,0,0,0,0,0,0,0,-1,636,1443,-9.09366,-0.742482
-581,-419,-6.39172,2.14673,0,0,0,0,0,0,0,-1,643,1443,-6.39175,-2.14668
-574,-419,-4.09772,3.54773,0,0,0,0,0,0,0,-1,650,1443,-4.09772,-3.54767
-567,-419,-6.14038,3.22498,0,0,0,0,0,0,0,-1,657,1443,-6.14037,-3.22497
-560,-419,-4.52814,5.22253,0,0,0,0,0,0,0,-1,664,1443,-4.52816,-5.22251
-553,-419,-5.08331,6.11829,0,0,0,0,0,0,0,-1,671,1443,-5.08331,-6.1183
-546,-419,-10.3732,9.23279,0,0,0,0,0,0,0,-1,678,1443,-10.3732,-9.23275
-539,-419,-13.5546,12.2321,0,0,0,0,0,0,0,-1,685,1443,-13.5546,-12.2321
-532,-419,-13.6147,13.083,0.00393518,0.00388084,0.00336696,0.00727508,0.000540948,0.781364,0.00468017,0.0262868,692,1443,-13.6148,-13.083
-525,-419,-13.6236,13.8138,0.00301475,0.00287,0.00256781,0.0055112,0.000373549,0.771309,0.00355616,0.0135317,699,1443,-13.6236,-13.8138
-518,-419,-13.6178,14.4746,0.00237307,0.00216304,0.00199352,0.00426434,0.000271771,0.759083,0.00275677,0.0180589,706,1443,-13.6178,-14.4746
-511,-419,-13.639,15.1086,0.0019035,0.00164194,0.00155525,0.00333346,0.000211982,0.743453,0.00215513,0.0217824,713,1443,-13.639,-15.1086
-504,-419,-13.704,15.7579,0.0015985,0.00130333,0.00124589,0.00270551,0.000196308,0.726445,0.00174193,0.0206618,720,1443,-13.704,-15.7579
-497,-419,-13.7504,16.4026,0.00148176,0.00116257,0.0010891,0.0024229,0.000221429,0.712647,0.00154675,0.0137326,727,1443,-13.7504,-16.4026
-490,-419,-13.767,17.0562,0.00156291,0.00126963,0.00112863,0.00255439,0.000278155,0.720797,0.0016182,0.0110815,734,1443,-13.7669,-17.0561
-483,-419,-13.7836,17.7228,0.00180616,0.00160516,0.00131942,0.0030289,0.000382418,0.747386,0.00190463,0.00944215,741,1443,-13.7836,-17.7227
-476,-419,-13.759,18.4457,0.00220312,0.00211528,0.00169169,0.00385146,0.000466945,0.77242,0.00242701,0.0183543,748,1443,-13.7589,-18.4457
-469,-419,-13.7712,19.1898,0,0,0,0,0,0,0,-1,755,1443,-13.7712,-19.1899
-462,-419,-11.5347,18.1563,0,0,0,0,0,0,0,-1,762,1443,-11.5347,-18.1562
-455,-419,-7.35645,11.9451,0,0,0,0,0,0,0,-1,769,1443,-7.35646,-11.9451
-448,-419,-7.49109,9.92444,0,0,0,0,0,0,0,-1,776,1443,-7.49109,-9.92442
-441,-419,-7.65527,8.75574,0,0,0,0,0,0,0,-1,783,1443,-7.65525,-8.75568
-434,-419,-11.3724,12.3643,0,0,0,0,0,0,0,-1,790,1443,-11.3724,-12.3643
-427,-419,-8.23193,7.89404,0,0,0,0,0,0,0,-1,797,1443,-8.23193,-7.89404
-420,-419,-8.74091,6.36597,0,0,0,0,0,0,0,-1,804,1443,-8.74089,-6.366
-413,-419,-9.88391,6.53955,0,0,0,0,0,0,0,-1,811,1443,-9.8839,-6.53955
-406,-419,-10.3372,2.75195,0,0,0,0,0,0,0,-1,818,1443,-10.3372,-2.75201
-399,-419,-11.5999,1.40002,0,0,0,0,0,0,0,-1,825,1443,-11.5999,-1.39998
-392,-419,0,0,0,0,0,0,0,0,0,-1,832,1443,0,0
-385,-419,0,0,0,0,0,0,0,0,0,-1,839,1443,0,0
-378,-419,0,0,0,0,0,0,0,0,0,-1,846,1443,0,0
-371,-419,0,0,0,0,0,0,0,0,0,-1,853,1443,0,0
-364,-419,0,0,0,0,0,0,0,0,0,-1,860,1443,0,0
-357,-419,0,0,0,0,0,0,0,0,0,-1,867,1443,0,0
-350,-419,0,0,0,0,0,0,0,0,0,-1,874,1443,0,0
-343,-419,0,0,0,0,0,0,0,0,0,-1,881,1443,0,0
-336,-419,0,0,0,0,0,0,0,0,0,-1,888,1443,0,0
-329,-419,0,0,0,0,0,0,0,0,0,-1,895,1443,0,0
-322,-419,0,0,0,0,0,0,0,0,0,-1,902,1443,0,0
-315,-419,0,0,0,0,0,0,0,0,0,-1,909,1443,0,0
-308,-419,0,0,0,0,0,0,0,0,0,-1,916,1443,0,0
-301,-419,0,0,0,0,0,0,0,0,0,-1,923,1443,0,0
-294,-419,0,0,0,0,0,0,0,0,0,-1,930,1443,0,0
-287,-419,0,0,0,0,0,0,0,0,0,-1,937,1443,0,0
-280,-419,0,0,0,0,0,0,0,0,0,-1,944,1443,0,0
-273,-419,0,0,0,0,0,0,0,0,0,-1,951,1443,0,0
-266,-419,0,0,0,0,0,0,0,0,0,-1,958,1443,0,0
-259,-419,0,0,0,0,0,0,0,0,0,-1,965,1443,0,0
-252,-419,0,0,0,0,0,0,0,0,0,-1,972,1443,0,0
-245,-419,0,0,0,0,0,0,0,0,0,-1,979,1443,0,0
-238,-419,0,0,0,0,0,0,0,0,0,-1,986,1443,0,0
-231,-419,0,0,0,0,0,0,0,0,0,-1,993,1443,0,0
-224,-419,0,0,0,0,0,0,0,0,0,-1,1000,1443,0,0
-217,-419,0,0,0,0,0,0,0,0,0,-1,1007,1443,0,0
-210,-419,0,0,0,0,0,0,0,0,0,-1,1014,1443,0,0
-203,-419,0,0,0,0,0,0,0,0,0,-1,1021,1443,0,0
-196,-419,0,0,0,0,0,0,0,0,0,-1,1028,1443,0,0
-189,-419,0,0,0,0,0,0,0,0,0,-1,1035,1443,0,0
-182,-419,0,0,0,0,0,0,0,0,0,-1,1042,1443,0,0
-175,-419,0,0,0,0,0,0,0,0,0,-1,1049,1443,0,0
-168,-419,0,0,0,0,0,0,0,0,0,-1,1056,1443,0,0
-161,-419,0,0,0,0,0,0,0,0,0,-1,1063,1443,0,0
-154,-419,0,0,0,0,0,0,0,0,0,-1,1070,1443,0,0
-147,-419,0,0,0,0,0,0,0,0,0,-1,1077,1443,0,0
-140,-419,0,0,0,0,0,0,0,0,0,-1,1084,1443,0,0
-133,-419,0,0,0,0,0,0,0,0,0,-1,1091,1443,0,0
-126,-419,0,0,0,0,0,0,0,0,0,-1,1098,1443,0,0
-119,-419,0,0,0,0,0,0,0,0,0,-1,1105,1443,0,0
-112,-419,0,0,0,0,0,0,0,0,0,-1,1112,1443,0,0
-105,-419,0,0,0,0,0,0,0,0,0,-1,1119,1443,0,0
-98,-419,0,0,0,0,0,0,0,0,0,-1,1126,1443,0,0
-91,-419,0,0,0,0,0,0,0,0,0,-1,1133,1443,0,0
-84,-419,0,0,0,0,0,0,0,0,0,-1,1140,1443,0,0
-77,-419,0,0,0,0,0,0,0,0,0,-1,1147,1443,0,0
-70,-419,0,0,0,0,0,0,0,0,0,-1,1154,1443,0,0
-63,-419,0,0,0,0,0,0,0,0,0,-1,1161,1443,0,0
-56,-419,0,0,0,0,0,0,0,0,0,-1,1168,1443,0,0
-49,-419,0,0,0,0,0,0,0,0,0,-1,1175,1443,0,0
-42,-419,0,0,0,0,0,0,0,0,0,-1,1182,1443,0,0
-35,-419,0,0,0,0,0,0,0,0,0,-1,1189,1443,0,0
-28,-419,0,0,0,0,0,0,0,0,0,-1,1196,1443,0,0
-21,-419,0,0,0,0,0,0,0,0,0,-1,1203,1443,0,0
-14,-419,0,0,0,0,0,0,0,0,0,-1,1210,1443,0,0
-7,-419,0,0,0,0,0,0,0,0,0,-1,1217,1443,0,0
0,-419,0,0,0,0,0,0,0,0,0,-1,1224,1443,0,0
7,-419,0,0,0,0,0,0,0,0,0,-1,1231,1443,0,0
14,-419,0,0,0,0,0,0,0,0,0,-1,1238,1443,0,0
21,-419,0,0,0,0,0,0,0,0,0,-1,1245,1443,0,0
28,-419,0,0,0,0,0,0,0,0,0,-1,1252,1443,0,0
35,-419,0,0,0,0,0,0,0,0,0,-1,1259,1443,0,0
42,-419,0,0,0,0,0,0,0,0,0,-1,1266,1443,0,0
49,-419,0,0,0,0,0,0,0,0,0,-1,1273,1443,0,0
56,-419,0,0,0,0,0,0,0,0,0,-1,1280,1443,0,0
63,-419,0,0,0,0,0,0,0,0,0,-1,1287,1443,0,0
70,-419,0,0,0,0,0,0,0,0,0,-1,1294,1443,0,0
77,-419,0,0,0,0,0,0,0,0,0,-1,1301,1443,0,0
84,-419,0,0,0,0,0,0,0,0,0,-1,1308,1443,0,0
91,-419,0,0,0,0,0,0,0,0,0,-1,1315,1443,0,0
98,-419,0,0,0,0,0,0,0,0,0,-1,1322,1443,0,0
105,-419,0,0,0,0,0,0,0,0,0,-1,1329,1443,0,0
112,-419,0,0,0,0,0,0,0,0,0,-1,1336,1443,0,0
119,-419,0,0,0,0,0,0,0,0,0,-1,1343,1443,0,0
126,-419,0,0,0,0,0,0,0,0,0,-1,1350,1443,0,0
133,-419,0,0,0,0,0,0,0,0,0,-1,1357,1443,0,0
140,-419,0,0,0,0,0,0,0,0,0,-1,1364,1443,0,0
147,-419,0,0,0,0,0,0,0,0,0,-1,1371,1443,0,0
154,-419,0,0,0,0,0,0,0,0,0,-1,1378,1443,0,0
161,-419,0,0,0,0,0,0,0,0,0,-1,1385,1443,0,0
168,-419,0,0,0,0,0,0,0,0,0,-1,1392,1443,0,0
175,-419,0,0,0,0,0,0,0,0,0,-1,1399,1443,0,0
182,-419,0,0,0,0,0,0,0,0,0,-1,1406,1443,0,0
189,-419,0,0,0,0,0,0,0,0,0,-1,1413,1443,0,0
196,-419,0,0,0,0,0,0,0,0,0,-1,1420,1443,0,0
203,-419,0,0,0,0,0,0,0,0,0,-1,1427,1443,0,0
210,-419,0,0,0,0,0,0,0,0,0,-1,1434,1443,0,0
217,-419,0,0,0,0,0,0,0,0,0,-1,1441,1443,0,0
224,-419,0,0,0,0,0,0,0,0,0,-1,1448,1443,0,0
231,-419,0,0,0,0,0,0,0,0,0,-1,1455,1443,0,0
238,-419,0,0,0,0,0,0,0,0,0,-1,1462,1443,0,0
245,-419,0,0,0,0,0,0,0,0,0,-1,1469,1443,0,0
252,-419,0,0,0,0,0,0,0,0,0,-1,1476,1443,0,0
259,-419,0,0,0,0,0,0,0,0,0,-1,1483,1443,0,0
266,-419,0,0,0,0,0,0,0,0,0,-1,1490,1443,0,0
273,-419,0,0,0,0,0,0,0,0,0,-1,1497,1443,0,0
280,-419,0,0,0,0,0,0,0,0,0,-1,1504,1443,0,0
287,-419,0,0,0,0,0,0,0,0,0,-1,1511,1443,0,0
294,-419,0,0,0,0,0,0,0,0,0,-1,1518,1443,0,0
301,-419,0,0,0,0,0,0,0,0,0,-1,1525,1443,0,0
308,-419,0,0,0,0,0,0,0,0,0,-1,1532,1443,0,0
315,-419,0,0,0,0,0,0,0,0,0,-1,1539,1443,0,0
322,-419,0,0,0,0,0,0,0,0,0,-1,1546,1443,0,0
329,-419,0,0,0,0,0,0,0,0,0,-1,1553,1443,0,0
336,-419,0,0,0,0,0,0,0,0,0,-1,1560,1443,0,0
343,-419,0,0,0,0,0,0,0,0,0,-1,1567,1443,0,0
350,-419,0,0,0,0,0,0,0,0,0,-1,1574,1443,0,0
357,-419,0,0,0,0,0,0,0,0,0,-1,1581,1443,0,0
364,-419,0,0,0,0,0,0,0,0,0,-1,1588,1443,0,0
371,-419,0,0,0,0,0,0,0,0,0,-1,1595,1443,0,0
378,-419,0,0,0,0,0,0,0,0,0,-1,1602,1443,0,0
385,-419,0,0,0,0,0,0,0,0,0,-1,1609,1443,0,0
392,-419,0,0,0,0,0,0,0,0,0,-1,1616,1443,0,0
399,-419,0,0,0,0,0,0,0,0,0,-1,1623,1443,0,0
406,-419,0,0,0,0,0,0,0,0,0,-1,1630,1443,0,0
413,-419,0,0,0,0,0,0,0,0,0,-1,1637,1443,0,0
420,-419,0,0,0,0,0,0,0,0,0,-1,1644,1443,0,0
427,-419,0,0,0,0,0,0,0,0,0,-1,1651,1443,0,0
434,-419,0,0,0,0,0,0,0,0,0,-1,1658,1443,0,0
441,-419,0,0,0,0,0,0,0,0,0,-1,1665,1443,0,0
448,-419,0,0,0,0,0,0,0,0,0,-1,1672,1443,0,0
455,-419,0,0,0,0,0,0,0,0,0,-1,1679,1443,0,0
462,-419,0,0,0,0,0,0,0,0,0,-1,1686,1443,0,0
469,-419,0,0,0,0,0,0,0,0,0,-1,1693,1443,0,0
476,-419,0,0,0,0,0,0,0,0,0,-1,1700,1443,0,0
483,-419,0,0,0,0,0,0,0,0,0,-1,1707,1443,0,0
490,-419,0,0,0,0,0,0,0,0,0,-1,1714,1443,0,0
497,-419,0,0,0,0,0,0,0,0,0,-1,1721,1443,0,0
504,-419,0,0,0,0,0,0,0,0,0,-1,1728,1443,0,0
511,-419,20.3005,3.7959,0,0,0,0,0,0,0,-1,1735,1443,20.3005,-3.79584
518,-419,21.3154,2.03027,0,0,0,0,0,0,0,-1,1742,1443,21.3155,-2.03029
525,-419,28.3439,-1.24475,0,0,0,0,0,0,0,-1,1749,1443,28.3438,1.24471
532,-419,27.5902,-0.272583,0,0,0,0,0,0,0,-1,1756,1443,27.5902,0.272526
539,-419,26.5278,1.60583,0,0,0,0,0,0,0,-1,1763,1443,26.5279,-1.60579
546,-419,24.9509,2.77539,0,0,0,0,0,0,0,-1,1770,1443,24.9509,-2.77537
553,-419,24.118,3.75525,0,0,0,0,0,0,0,-1,1777,1443,24.1181,-3.75526
560,-419,11.8199,8.26343,0,0,0,0,0,0,0,-1,1784,1443,11.82,-8.26341
567,-419,21.5143,8.74719,0,0,0,0,0,0,0,-1,1791,1443,21.5143,-8.74722
574,-419,19.5886,6.46155,0,0,0,0,0,0,0,-1,1798,1443,19.5886,-6.46157
581,-419,20.7926,11.4265,0,0,0,0,0,0,0,-1,1805,1443,20.7926,-11.4265
588,-419,19.4242,12.5363,0,0,0,0,0,0,0,-1,1812,1443,19.4242,-12.5362
595,-419,22.9375,16.0151,0,0,0,0,0,0,0,-1,1819,1443,22.9375,-16.0152
602,-419,30.4558,20.3989,0,0,0,0,0,0,0,-1,1826,1443,30.4559,-20.3989
609,-419,30.458,19.6958,0.00331709,0.000404036,-0.00160087,0.00402487,-0.000303748,-0.416287,0.00279001,0.0231165,1833,1443,30.458,-19.6958
616,-419,30.4233,19.0779,0.00248834,-5.09779e-05,-0.00103403,0.00285613,-0.000418772,-0.341735,0.00205793,0.0124322,1840,1443,30.4233,-19.0779
623,-419,30.3979,18.4683,0.00192012,-0.000250966,-0.000713268,0.00213348,-0.000464328,-0.290661,0.00159972,0.0101381,1847,1443,30.3979,-18.4682
630,-419,30.4025,17.8285,0.00165906,-0.000317342,-0.000550966,0.00180228,-0.000460558,-0.254308,0.00138088,0.0128689,1854,1443,30.4025,-17.8284
637,-419,30.3787,17.2123,0.00155303,-0.000143008,-0.000507501,0.00169329,-0.000283267,-0.269642,0.00123416,0.0145941,1861,1443,30.3787,-17.2123
644,-419,30.3341,16.6238,0.00163849,6.54124e-05,-0.000429199,0.00174797,-4.40708e-05,-0.249761,0.00118028,0.0124541,1868,1443,30.3342,-16.6238
651,-419,30.297,16.0271,0.00187721,0.000418094,-0.000441889,0.0020006,0.000294704,-0.272297,0.00124716,0.0117418,1875,1443,30.297,-16.0271
658,-419,30.2607,15.3779,0.00221405,0.000820649,-0.000410361,0.00232592,0.000708778,-0.266148,0.00137659,0.0134125,1882,1443,30.2607,-15.3779
665,-419,30.2449,14.7402,0.00261842,0.00120278,-0.000221636,0.0026523,0.0011689,-0.151728,0.00153489,0.0204022,1889,1443,30.2449,-14.7403
672,-419,30.2729,14.0159,0.00289906,0.0014733,0.000274346,0.00295003,0.00142233,0.183686,0.00170356,0.0341299,1896,1443,30.273,-14.0159
679,-419,30.4673,13.3701,0,0,0,0,0,0,0,-1,1903,1443,30.4673,-13.3702
686,-419,17.4127,8.03076,0,0,0,0,0,0,0,-1,1910,1443,17.4127,-8.03071
693,-419,8.76086,5.60535,0,0,0,0,0,0,0,-1,1917,1443,8.76091,-5.6054
700,-419,11.0498,4.85156,0,0,0,0,0,0,0,-1,1924,1443,11.0498,-4.85153
707,-419,9.5752,1.80042,0,0,0,0,0,0,0,-1,1931,1443,9.57523,-1.80037
714,-419,5.77576,-1.25061,0,0,0,0,0,0,0,-1,1938,1443,5.7757,1.25056
721,-419,0,0,0,0,0,0,0,0,0,-1,1945,1443,0,0
728,-419,0,0,0,0,0,0,0,0,0,-1,1952,1443,0,0
735,-419,0,0,0,0,0,0,0,0,0,-1,1959,1443,0,0
742,-419,0,0,0,0,0,0,0,0,0,-1,1966,1443,0,0
749,-419,0,0,0,0,0,0,0,0,0,-1,1973,1443,0,0
756,-419,0,0,0,0,0,0,0,0,0,-1,1980,1443,0,0
763,-419,0,0,0,0,0,0,0,0,0,-1,1987,1443,0,0
770,-419,0,0,0,0,0,0,0,0,0,-1,1994,1443,0,0
777,-419,0,0,0,0,0,0,0,0,0,-1,2001,1443,0,0
784,-419,0,0,0,0,0,0,0,0,0,-1,2008,1443,0,0
791,-419,0,0,0,0,0,0,0,0,0,-1,2015,1443,0,0
798,-419,0,0,0,0,0,0,0,0,0,-1,2022,1443,0,0
805,-419,0,0,0,0,0,0,0,0,0,-1,2029,1443,0,0
812,-419,0,0,0,0,0,0,0,0,0,-1,2036,1443,0,0
-700,-426,0,0,0,0,0,0,0,0,0,-1,524,1450,0,0
-693,-426,0,0,0,0,0,0,0,0,0,-1,531,1450,0,0
-686,-426,0,0,0,0,0,0,0,0,0,-1,538,1450,0,0
-679,-426,0,0,0,0,0,0,0,0,0,-1,545,1450,0,0
-672,-426,0,0,0,0,0,0,0,0,0,-1,552,1450,0,0
-665,-426,0,0,0,0,0,0,0,0,0,-1,559,1450,0,0
-658,-426,0,0,0,0,0,0,0,0,0,-1,566,1450,0,0
-651,-426,0,0,0,0,0,0,0,0,0,-1,573,1450,0,0
-644,-426,0,0,0,0,0,0,0,0,0,-1,580,1450,0,0
-637,-426,0,0,0,0,0,0,0,0,0,-1,587,1450,0,0
-630,-426,0,0,0,0,0,0,0,0,0,-1,594,1450,0,0
-623,-426,0,0,0,0,0,0,0,0,0,-1,601,1450,0,0
-616,-426,0,0,0,0,0,0,0,0,0,-1,608,1450,0,0
-609,-426,0,0,0,0,0,0,0,0,0,-1,615,1450,0,0
-602,-426,0,0,0,0,0,0,0,0,0,-1,622,1450,0,0
-595,-426,0,0,0,0,0,0,0,0,0,-1,629,1450,0,0
-588,-426,-10.184,-0.554321,0,0,0,0,0,0,0,-1,636,1450,-10.184,0.554321
-581,-426,-7.3349,1.48157,0,0,0,0,0,0,0,-1,643,1450,-7.33491,-1.48152
-574,-426,-5.02856,2.89319,0,0,0,0,0,0,0,-1,650,1450,-5.02858,-2.89319
-567,-426,-3.04797,1.72644,0,0,0,0,0,0,0,-1,657,1450,-3.04797,-1.72639
-560,-426,-5.55682,3.44397,0,0,0,0,0,0,0,-1,664,1450,-5.55684,-3.44399
-553,-426,-4.67017,6.66614,0,0,0,0,0,0,0,-1,671,1450,-4.67015,-6.66619
-546,-426,-7.58752,8.28882,0,0,0,0,0,0,0,-1,678,1450,-7.58752,-8.28878
-539,-426,-10.436,10.7441,0,0,0,0,0,0,0,-1,685,1450,-10.436,-10.7441
-532,-426,-12.9872,13.0317,0,0,0,0,0,0,0,-1,692,1450,-12.9872,-13.0317
-525,-426,-13.0015,13.7501,0.00324976,0.00326364,0.00300733,0.00626403,0.000249367,0.786552,0.00409543,0.0209468,699,1450,-13.0015,-13.7502
-518,-426,-12.9719,14.4852,0.0025784,0.00241109,0.00233168,0.00482792,0.000161569,0.767467,0.00316613,0.0181012,706,1450,-12.9719,-14.4853
-511,-426,-12.9872,15.1621,0.00206471,0.00178264,0.00180792,0.00373709,0.00011026,0.746473,0.00245546,0.0177981,713,1450,-12.9872,-15.1621
-504,-426,-13.0307,15.8065,0.00169308,0.00136376,0.00141206,0.00295005,0.000106795,0.727355,0.00193208,0.015592,720,1450,-13.0307,-15.8066
-497,-426,-13.0704,16.4442,0.00148284,0.00115861,0.0011612,0.00249318,0.000148266,0.716039,0.00161497,0.0121962,727,1450,-13.0704,-16.4442
-490,-426,-13.111,17.1007,0.00144677,0.00121075,0.00110993,0.00244494,0.000212576,0.732434,0.00156393,0.0122108,734,1450,-13.111,-17.1007
-483,-426,-13.1375,17.7579,0.00158079,0.00149278,0.00121478,0.00275237,0.000321204,0.767294,0.00173777,0.0114961,741,1450,-13.1375,-17.758
-476,-426,-13.1569,18.4082,0.00188646,0.00201278,0.00152536,0.00347629,0.000422953,0.80609,0.0021902,0.00926404,748,1450,-13.1569,-18.4081
-469,-426,-13.1899,19.0558,0.00242348,0.00282515,0.00204881,0.00468295,0.000565683,0.834254,0.00295153,0.0124415,755,1450,-13.19,-19.0558
-462,-426,-13.1232,19.7677,0,0,0,0,0,0,0,-1,762,1450,-13.1232,-19.7677
-455,-426,-10.215,17.7007,0,0,0,0,0,0,0,-1,769,1450,-10.215,-17.7007
-448,-426,-6.46545,10.1322,0,0,0,0,0,0,0,-1,776,1450,-6.46543,-10.1322
-441,-426,-10.9547,11.4747,0,0,0,0,0,0,0,-1,783,1450,-10.9546,-11.4748
-434,-426,-10.4998,13.6189,0,0,0,0,0,0,0,-1,790,1450,-10.4997,-13.6189
-427,-426,-9.36627,13.7396,0,0,0,0,0,0,0,-1,797,1450,-9.36628,-13.7396
-420,-426,-5.33765,7.95044,0,0,0,0,0,0,0,-1,804,1450,-5.33766,-7.95041
-413,-426,-10.1148,5.0415,0,0,0,0,0,0,0,-1,811,1450,-10.1148,-5.04152
-406,-426,-11.4199,3.6438,0,0,0,0,0,0,0,-1,818,1450,-11.4198,-3.64382
-399,-426,-12.7595,2.29004,0,0,0,0,0,0,0,-1,825,1450,-12.7595,-2.29003
-392,-426,-12.4147,0.537354,0,0,0,0,0,0,0,-1,832,1450,-12.4147,-0.53731
-385,-426,0,0,0,0,0,0,0,0,0,-1,839,1450,0,0
-378,-426,0,0,0,0,0,0,0,0,0,-1,846,1450,0,0
-371,-426,0,0,0,0,0,0,0,0,0,-1,853,1450,0,0
-364,-426,0,0,0,0,0,0,0,0,0,-1,860,1450,0,0
-357,-426,0,0,0,0,0,0,0,0,0,-1,867,1450,0,0
-350,-426,0,0,0,0,0,0,0,0,0,-1,874,1450,0,0
-343,-426,0,0,0,0,0,0,0,0,0,-1,881,1450,0,0
-336,-426,0,0,0,0,0,0,0,0,0,-1,888,1450,0,0
-329,-426,0,0,0,0,0,0,0,0,0,-1,895,1450,0,0
-322,-426,0,0,0,0,0,0,0,0,0,-1,902,1450,0,0
-315,-426,0,0,0,0,0,0,0,0,0,-1,909,1450,0,0
-308,-426,0,0,0,0,0,0,0,0,0,-1,916,1450,0,0
-301,-426,0,0,0,0,0,0,0,0,0,-1,923,1450,0,0
-294,-426,0,0,0,0,0,0,0,0,0,-1,930,1450,0,0
-287,-426,0,0,0,0,0,0,0,0,0,-1,937,1450,0,0
-280,-426,0,0,0,0,0,0,0,0,0,-1,944,1450,0,0
-273,-426,0,0,0,0,0,0,0,0,0,-1,951,1450,0,0
-266,-426,0,0,0,0,0,0,0,0,0,-1,958,1450,0,0
-259,-426,0,0,0,0,0,0,0,0,0,-1,965,1450,0,0
-252,-426,0,0,0,0,0,0,0,0,0,-1,972,1450,0,0
-245,-426,0,0,0,0,0,0,0,0,0,-1,979,1450,0,0
-238,-426,0,0,0,0,0,0,0,0,0,-1,986,1450,0,0
-231,-426,0,0,0,0,0,0,0,0,0,-1,993,1450,0,0
-224,-426,0,0,0,0,0,0,0,0,0,-1,1000,1450,0,0
-217,-426,0,0,0,0,0,0,0,0,0,-1,1007,1450,0,0
-210,-426,0,0,0,0,0,0,0,0,0,-1,1014,1450,0,0
-203,-426,0,0,0,0,0,0,0,0,0,-1,1021,1450,0,0
-196,-426,0,0,0,0,0,0,0,0,0,-1,1028,1450,0,0
-189,-426,0,0,0,0,0,0,0,0,0,-1,1035,1450,0,0
-182,-426,0,0,0,0,0,0,0,0,0,-1,1042,1450,0,0
-175,-426,0,0,0,0,0,0,0,0,0,-1,1049,1450,0,0
-168,-426,0,0,0,0,0,0,0,0,0,-1,1056,1450,0,0
-161,-426,0,0,0,0,0,0,0,0,0,-1,1063,1450,0,0
-154,-426,0,0,0,0,0,0,0,0,0,-1,1070,1450,0,0
-147,-426,0,0,0,0,0,0,0,0,0,-1,1077,1450,0,0
-140,-426,0,0,0,0,0,0,0,0,0,-1,1084,1450,0,0
-133,-426,0,0,0,0,0,0,0,0,0,-1,1091,1450,0,0
-126,-426,0,0,0,0,0,0,0,0,0,-1,1098,1450,0,0
-119,-426,0,0,0,0,0,0,0,0,0,-1,1105,1450,0,0
-112,-426,0,0,0,0,0,0,0,0,0,-1,1112,1450,0,0
-105,-426,0,0,0,0,0,0,0,0,0,-1,1119,1450,0,0
-98,-426,0,0,0,0,0,0,0,0,0,-1,1126,1450,0,0
-91,-426,0,0,0,0,0,0,0,0,0,-1,1133,1450,0,0
-84,-426,0,0,0,0,0,0,0,0,0,-1,1140,1450,0,0
-77,-426,0,0,0,0,0,0,0,0,0,-1,1147,1450,0,0
-70,-426,0,0,0,0,0,0,0,0,0,-1,1154,1450,0,0
-63,-426,0,0,0,0,0,0,0,0,0,-1,1161,1450,0,0
-56,-426,0,0,0,0,0,0,0,0,0,-1,1168,1450,0,0
-49,-426,0,0,0,0,0,0,0,0,0,-1,1175,1450,0,0
-42,-426,0,0,0,0,0,0,0,0,0,-1,1182,1450,0,0
-35,-426,0,0,0,0,0,0,0,0,0,-1,1189,1450,0,0
-28,-426,0,0,0,0,0,0,0,0,0,-1,1196,1450,0,0
-21,-426,0,0,0,0,0,0,0,0,0,-1,1203,1450,0,0
-14,-426,0,0,0,0,0,0,0,0,0,-1,1210,1450,0,0
-7,-426,0,0,0,0,0,0,0,0,0,-1,1217,1450,0,0
0,-426,0,0,0,0,0,0,0,0,0,-1,1224,1450,0,0
7,-426,0,0,0,0,0,0,0,0,0,-1,1231,1450,0,0
14,-426,0,0,0,0,0,0,0,0,0,-1,1238,1450,0,0
21,-426,0,0,0,0,0,0,0,0,0,-1,1245,1450,0,0
28,-426,0,0,0,0,0,0,0,0,0,-1,1252,1450,0,0
35,-426,0,0,0,0,0,0,0,0,0,-1,1259,1450,0,0
42,-426,0,0,0,0,0,0,0,0,0,-1,1266,1450,0,0
49,-426,0,0,0,0,0,0,0,0,0,-1,1273,1450,0,0
56,-426,0,0,0,0,0,0,0,0,0,-1,1280,1450,0,0
63,-426,0,0,0,0,0,0,0,0,0,-1,1287,1450,0,0
70,-426,0,0,0,0,0,0,0,0,0,-1,1294,1450,0,0
77,-426,0,0,0,0,0,0,0,0,0,-1,1301,1450,0,0
84,-426,0,0,0,0,0,0,0,0,0,-1,1308,1450,0,0
91,-426,0,0,0,0,0,0,0,0,0,-1,1315,1450,0,0
98,-426,0,0,0,0,0,0,0,0,0,-1,1322,1450,0,0
105,-426,0,0,0,0,0,0,0,0,0,-1,1329,1450,0,0
112,-426,0,0,0,0,0,0,0,0,0,-1,1336,1450,0,0
119,-426,0,0,0,0,0,0,0,0,0,-1,1343,1450,0,0
126,-426,0,0,0,0,0,0,0,0,0,-1,1350,1450,0,0
133,-426,0,0,0,0,0,0,0,0,0,-1,1357,1450,0,0
140,-426,0,0,0,0,0,0,0,0,0,-1,1364,1450,0,0
147,-426,0,0,0,0,0,0,0,0,0,-1,1371,1450,0,0
154,-426,0,0,0,0,0,0,0,0,0,-1,1378,1450,0,0
161,-426,0,0,0,0,0,0,0,0,0,-1,1385,1450,0,0
168,-426,0,0,0,0,0,0,0,0,0,-1,1392,1450,0,0
175,-426,0,0,0,0,0,0,0,0,0,-1,1399,1450,0,0
182,-426,0,0,0,0,0,0,0,0,0,-1,1406,1450,0,0
189,-426,0,0,0,0,0,0,0,0,0,-1,1413,1450,0,0
196,-426,0,0,0,0,0,0,0,0,0,-1,1420,1450,0,0
203,-426,0,0,0,0,0,0,0,0,0,-1,1427,1450,0,0
210,-426,0,0,0,0,0,0,0,0,0,-1,1434,1450,0,0
217,-426,0,0,0,0,0,0,0,0,0,-1,1441,1450,0,0
224,-426,0,0,0,0,0,0,0,0,0,-1,1448,1450,0,0
231,-426,0,0,0,0,0,0,0,0,0,-1,1455,1450,0,0
238,-426,0,0,0,0,0,0,0,0,0,-1,1462,1450,0,0
245,-426,0,0,0,0,0,0,0,0,0,-1,1469,1450,0,0
252,-426,0,0,0,0,0,0,0,0,0,-1,1476,1450,0,0
259,-426,0,0,0,0,0,0,0,0,0,-1,1483,1450,0,0
266,-426,0,0,0,0,0,0,0,0,0,-1,1490,1450,0,0
273,-426,0,0,0,0,0,0,0,0,0,-1,1497,1450,0,0
280,-426,0,0,0,0,0,0,0,0,0,-1,1504,1450,0,0
287,-426,0,0,0,0,0,0,0,0,0,-1,1511,1450,0,0
294,-426,0,0,0,0,0,0,0,0,0,-1,1518,1450,0,0
301,-426,0,0,0,0,0,0,0,0,0,-1,1525,1450,0,0
308,-426,0,0,0,0,0,0,0,0,0,-1,1532,1450,0,0
315,-426,0,0,0,0,0,0,0,0,0,-1,1539,1450,0,0
322,-426,0,0,0,0,0,0,0,0,0,-1,1546,1450,0,0
329,-426,0,0,0,0,0,0,0,0,0,-1,1553,1450,0,0
336,-426,0,0,0,0,0,0,0,0,0,-1,1560,1450,0,0
343,-426,0,0,0,0,0,0,0,0,0,-1,1567,1450,0,0
350,-426,0,0,0,0,0,0,0,0,0,-1,1574,1450,0,0
357,-426,0,0,0,0,0,0,0,0,0,-1,1581,1450,0,0
364,-426,0,0,0,0,0,0,0,0,0,-1,1588,1450,0,0
371,-426,0,0,0,0,0,0,0,0,0,-1,1595,1450,0,0
378,-426,0,0,0,0,0,0,0,0,0,-1,1602,1450,0,0
385,-426,0,0,0,0,0,0,0,0,0,-1,1609,1450,0,0
392,-426,0,0,0,0,0,0,0,0,0,-1,1616,1450,0,0
399,-426,0,0,0,0,0,0,0,0,0,-1,1623,1450,0,0
406,-426,0,0,0,0,0,0,0,0,0,-1,1630,1450,0,0
413,-426,0,0,0,0,0,0,0,0,0,-1,1637,1450,0,0
420,-426,0,0,0,0,0,0,0,0,0,-1,1644,1450,0,0
427,-426,0,0,0,0,0,0,0,0,0,-1,1651,1450,0,0
434,-426,0,0,0,0,0,0,0,0,0,-1,1658,1450,0,0
441,-426,0,0,0,0,0,0,0,0,0,-1,1665,1450,0,0
448,-426,0,0,0,0,0,0,0,0,0,-1,1672,1450,0,0
455,-426,0,0,0,0,0,0,0,0,0,-1,1679,1450,0,0
462,-426,0,0,0,0,0,0,0,0,0,-1,1686,1450,0,0
469,-426,0,0,0,0,0,0,0,0,0,-1,1693,1450,0,0
476,-426,0,0,0,0,0,0,0,0,0,-1,1700,1450,0,0
483,-426,0,0,0,0,0,0,0,0,0,-1,1707,1450,0,0
490,-426,0,0,0,0,0,0,0,0,0,-1,1714,1450,0,0
497,-426,0,0,0,0,0,0,0,0,0,-1,1721,1450,0,0
504,-426,20.6873,3.38367,0,0,0,0,0,0,0,-1,1728,1450,20.6873,-3.38361
511,-426,19.6676,3.53748,0,0,0,0,0,0,0,-1,1735,1450,19.6676,-3.53749
518,-426,18.6853,3.32288,0,0,0,0,0,0,0,-1,1742,1450,18.6853,-3.3229
525,-426,18.9552,2.71033,0,0,0,0,0,0,0,-1,1749,1450,18.9552,-2.71034
532,-426,19.4333,2.70764,0,0,0,0,0,0,0,-1,1756,1450,19.4334,-2.70764
539,-426,25.1482,2.56287,0,0,0,0,0,0,0,-1,1763,1450,25.1482,-2.56286
546,-426,24.1136,3.75659,0,0,0,0,0,0,0,-1,1770,1450,24.1136,-3.7566
553,-426,23.0791,4.95032,0,0,0,0,0,0,0,-1,1777,1450,23.0791,-4.95034
560,-426,12.9688,11.8289,0,0,0,0,0,0,0,-1,1784,1450,12.9688,-11.8288
567,-426,13.6388,11.5623,0,0,0,0,0,0,0,-1,1791,1450,13.6388,-11.5623
574,-426,14.3943,11.0286,0,0,0,0,0,0,0,-1,1798,1450,14.3942,-11.0285
581,-426,16.3879,11.4653,0,0,0,0,0,0,0,-1,1805,1450,16.3879,-11.4653
588,-426,18.1212,12.5547,0,0,0,0,0,0,0,-1,1812,1450,18.1212,-12.5547
595,-426,29.4993,20.9407,0,0,0,0,0,0,0,-1,1819,1450,29.4992,-20.9407
602,-426,29.7241,20.3451,0.00398967,0.00117426,-0.00222232,0.00521262,-4.86884e-05,-0.503075,0.00349142,0.0480234,1826,1450,29.7241,-20.3451
609,-426,29.8357,19.7179,0.00314244,0.000617351,-0.00158089,0.00390307,-0.000143277,-0.448446,0.0026511,0.0143918,1833,1450,29.8356,-19.7179
616,-426,29.8101,19.0999,0.00242426,0.000222255,-0.00110465,0.00288289,-0.000236376,-0.393526,0.00200536,0.015654,1840,1450,29.8101,-19.0998
623,-426,29.7914,18.4927,0.0019921,1.32994e-05,-0.000821069,0.00228841,-0.000283017,-0.346345,0.00162817,0.0121916,1847,1450,29.7914,-18.4927
630,-426,29.7924,17.8828,0.00182864,-7.96707e-05,-0.000685149,0.00204915,-0.000300182,-0.311375,0.00147637,0.0126336,1854,1450,29.7924,-17.8828
637,-426,29.7565,17.2611,0.00177023,5.11334e-05,-0.000652974,0.00199012,-0.000168762,-0.324832,0.00138643,0.0139616,1861,1450,29.7565,-17.2611
644,-426,29.7015,16.6438,0.00190434,0.000264398,-0.000599509,0.00210013,6.86118e-05,-0.315659,0.00137778,0.013318,1868,1450,29.7015,-16.6438
651,-426,29.6554,16.0425,0.00217998,0.000667742,-0.000669699,0.00243391,0.000413806,-0.362431,0.00150377,0.0126248,1875,1450,29.6554,-16.0425
658,-426,29.647,15.3978,0.00261379,0.00116505,-0.000729067,0.00291716,0.000861679,-0.394314,0.0017306,0.0129445,1882,1450,29.647,-15.3978
665,-426,29.6548,14.6453,0.00308988,0.00170417,-0.000616179,0.00332424,0.00146981,-0.363445,0.00192353,0.0294446,1889,1450,29.6547,-14.6453
672,-426,29.7322,13.8855,0,0,0,0,0,0,0,-1,1896,1450,29.7322,-13.8855
679,-426,17.1522,8.15784,0,0,0,0,0,0,0,-1,1903,1450,17.1522,-8.15784
686,-426,13.5326,8.03711,0,0,0,0,0,0,0,-1,1910,1450,13.5326,-8.03717
693,-426,11.8607,6.45215,0,0,0,0,0,0,0,-1,1917,1450,11.8607,-6.45215
700,-426,9.24304,2.95447,0,0,0,0,0,0,0,-1,1924,1450,9.24305,-2.95442
707,-426,8.44519,-1.21448,0,0,0,0,0,0,0,-1,1931,1450,8.44514,1.21454
714,-426,0,0,0,0,0,0,0,0,0,-1,1938,1450,0,0
721,-426,0,0,0,0,0,0,0,0,0,-1,1945,1450,0,0
728,-426,0,0,0,0,0,0,0,0,0,-1,1952,1450,0,0
735,-426,0,0,0,0,0,0,0,0,0,-1,1959,1450,0,0
742,-426,0,0,0,0,0,0,0,0,0,-1,1966,1450,0,0
749,-426,0,0,0,0,0,0,0,0,0,-1,1973,1450,0,0
756,-426,0,0,0,0,0,0,0,0,0,-1,1980,1450,0,0
763,-426,0,0,0,0,0,0,0,0,0,-1,1987,1450,0,0
770,-426,0,0,0,0,0,0,0,0,0,-1,1994,1450,0,0
777,-426,0,0,0,0,0,0,0,0,0,-1,2001,1450,0,0
784,-426,0,0,0,0,0,0,0,0,0,-1,2008,1450,0,0
791,-426,0,0,0,0,0,0,0,0,0,-1,2015,1450,0,0
798,-426,0,0,0,0,0,0,0,0,0,-1,2022,1450,0,0
805,-426,0,0,0,0,0,0,0,0,0,-1,2029,1450,0,0
812,-426,0,0,0,0,0,0,0,0,0,-1,2036,1450,0,0
-700,-433,0,0,0,0,0,0,0,0,0,-1,524,1457,0,0
-693,-433,0,0,0,0,0,0,0,0,0,-1,531,1457,0,0
-686,-433,0,0,0,0,0,0,0,0,0,-1,538,1457,0,0
-679,-433,0,0,0,0,0,0,0,0,0,-1,545,1457,0,0
-672,-433,0,0,0,0,0,0,0,0,0,-1,552,1457,0,0
-665,-433,0,0,0,0,0,0,0,0,0,-1,559,1457,0,0
-658,-433,0,0,0,0,0,0,0,0,0,-1,566,1457,0,0
-651,-433,0,0,0,0,0,0,0,0,0,-1,573,1457,0,0
-644,-433,0,0,0,0,0,0,0,0,0,-1,580,1457,0,0
-637,-433,0,0,0,0,0,0,0,0,0,-1,587,1457,0,0
-630,-433,0,0,0,0,0,0,0,0,0,-1,594,1457,0,0
-623,-433,0,0,0,0,0,0,0,0,0,-1,601,1457,0,0
-616,-433,0,0,0,0,0,0,0,0,0,-1,608,1457,0,0
-609,-433,0,0,0,0,0,0,0,0,0,-1,615,1457,0,0
-602,-433,0,0,0,0,0,0,0,0,0,-1,622,1457,0,0
-595,-433,0,0,0,0,0,0,0,0,0,-1,629,1457,0,0
-588,-433,-10.3756,-0.467041,0,0,0,0,0,0,0,-1,636,1457,-10.3756,0.467081
-581,-433,-8.12201,0.884033,0,0,0,0,0,0,0,-1,643,1457,-8.12204,-0.884056
-574,-433,-5.86847,2.23523,0,0,0,0,0,0,0,-1,650,1457,-5.86844,-2.23519
-567,-433,-5.42255,1.16833,0,0,0,0,0,0,0,-1,657,1457,-5.42254,-1.1683
-560,-433,-6.84027,1.86414,0,0,0,0,0,0,0,-1,664,1457,-6.84026,-1.86412
-553,-433,-5.74017,1.79163,0,0,0,0,0,0,0,-1,671,1457,-5.74015,-1.79166
-546,-433,-8.12451,7.35095,0,0,0,0,0,0,0,-1,678,1457,-8.12451,-7.35097
-539,-433,-7.3136,8.75659,0,0,0,0,0,0,0,-1,685,1457,-7.31362,-8.75659
-532,-433,-12.0881,12.7223,0,0,0,0,0,0,0,-1,692,1457,-12.0881,-12.7223
-525,-433,-12.3708,13.7693,0,0,0,0,0,0,0,-1,699,1457,-12.3708,-13.7693
-518,-433,-12.3228,14.506,0.00295054,0.00279264,0.00288676,0.00575943,-1.62418e-05,0.771727,0.00384504,0.0183194,706,1457,-12.3228,-14.506
-511,-433,-12.3676,15.1632,0.00239078,0.00205333,0.00225209,0.00448045,-3.63442e-05,0.748009,0.00299916,0.0178242,713,1457,-12.3676,-15.1632
-504,-433,-12.3909,15.811,0.00194238,0.00153528,0.00173587,0.00348659,-8.93034e-06,0.727034,0.00232738,0.0138231,720,1457,-12.3909,-15.811
-497,-433,-12.4231,16.4653,0.0016338,0.00123215,0.00136528,0.00281295,5.30031e-05,0.712375,0.00185788,0.0138731,727,1457,-12.4231,-16.4653
-490,-433,-12.4799,17.1104,0.00148461,0.00118142,0.00118801,0.00253065,0.000135371,0.721939,0.00164384,0.0160356,734,1457,-12.4799,-17.1103
-483,-433,-12.4948,17.7896,0.00150291,0.00134889,0.00116599,0.00259443,0.000257373,0.752423,0.00165053,0.0164413,741,1457,-12.4948,-17.7895
-476,-433,-12.5134,18.4523,0.00168666,0.0017743,0.00135195,0.00308314,0.000377813,0.8016,0.00194178,0.0108796,748,1457,-12.5134,-18.4523
-469,-433,-12.5509,19.1056,0.00205851,0.00242485,0.00171755,0.00396897,0.000514382,0.83852,0.00249228,0.011016,755,1457,-12.5509,-19.1056
-462,-433,-12.5872,19.7653,0,0,0,0,0,0,0,-1,762,1457,-12.5872,-19.7653
-455,-433,-11.9183,20.3514,0,0,0,0,0,0,0,-1,769,1457,-11.9184,-20.3514
-448,-433,-6.94812,14.5563,0,0,0,0,0,0,0,-1,776,1457,-6.94809,-14.5562
-441,-433,-9.97485,14.0258,0,0,0,0,0,0,0,-1,783,1457,-9.97488,-14.0257
-434,-433,-9.41205,14.2297,0,0,0,0,0,0,0,-1,790,1457,-9.41205,-14.2297
-427,-433,-8.67419,13.6827,0,0,0,0,0,0,0,-1,797,1457,-8.67422,-13.6827
-420,-433,-5.74658,9.49121,0,0,0,0,0,0,0,-1,804,1457,-5.7466,-9.49119
-413,-433,-3.63074,5.5813,0,0,0,0,0,0,0,-1,811,1457,-3.63072,-5.58129
-406,-433,-12.3472,4.69373,0,0,0,0,0,0,0,-1,818,1457,-12.3472,-4.69374
-399,-433,-12.055,2.83594,0,0,0,0,0,0,0,-1,825,1457,-12.055,-2.83594
-392,-433,-12.9772,1.6228,0,0,0,0,0,0,0,-1,832,1457,-12.9772,-1.62282
-385,-433,-13.7999,0.514771,0,0,0,0,0,0,0,-1,839,1457,-13.7999,-0.514788
-378,-433,0,0,0,0,0,0,0,0,0,-1,846,1457,0,0
-371,-433,0,0,0,0,0,0,0,0,0,-1,853,1457,0,0
-364,-433,0,0,0,0,0,0,0,0,0,-1,860,1457,0,0
-357,-433,0,0,0,0,0,0,0,0,0,-1,867,1457,0,0
-350,-433,0,0,0,0,0,0,0,0,0,-1,874,1457,0,0
-343,-433,0,0,0,0,0,0,0,0,0,-1,881,1457,0,0
-336,-433,0,0,0,0,0,0,0,0,0,-1,888,1457,0,0
-329,-433,0,0,0,0,0,0,0,0,0,-1,895,1457,0,0
-322,-433,0,0,0,0,0,0,0,0,0,-1,902,1457,0,0
-315,-433,0,0,0,0,0,0,0,0,0,-1,909,1457,0,0
-308,-433,0,0,0,0,0,0,0,0,0,-1,916,1457,0,0
-301,-433,0,0,0,0,0,0,0,0,0,-1,923,1457,0,0
-294,-433,0,0,0,0,0,0,0,0,0,-1,930,1457,0,0
-287,-433,0,0,0,0,0,0,0,0,0,-1,937,1457,0,0
-280,-433,0,0,0,0,0,0,0,0,0,-1,944,1457,0,0
-273,-433,0,0,0,0,0,0,0,0,0,-1,951,1457,0,0
-266,-433,0,0,0,0,0,0,0,0,0,-1,958,1457,0,0
-259,-433,0,0,0,0,0,0,0,0,0,-1,965,1457,0,0
-252,-433,0,0,0,0,0,0,0,0,0,-1,972,1457,0,0
-245,-433,0,0,0,0,0,0,0,0,0,-1,979,1457,0,0
-238,-433,0,0,0,0,0,0,0,0,0,-1,986,1457,0,0
-231,-433,0,0,0,0,0,0,0,0,0,-1,993,1457,0,0
-224,-433,0,0,0,0,0,0,0,0,0,-1,1000,1457,0,0
-217,-433,0,0,0,0,0,0,0,0,0,-1,1007,1457,0,0
-210,-433,0,0,0,0,0,0,0,0,0,-1,1014,1457,0,0
-203,-433,0,0,0,0,0,0,0,0,0,-1,1021,1457,0,0
-196,-433,0,0,0,0,0,0,0,0,0,-1,1028,1457,0,0
-189,-433,0,0,0,0,0,0,0,0,0,-1,1035,1457,0,0
-182,-433,0,0,0,0,0,0,0,0,0,-1,1042,1457,0,0
-175,-433,0,0,0,0,0,0,0,0,0,-1,1049,1457,0,0
-168,-433,0,0,0,0,0,0,0,0,0,-1,1056,1457,0,0
-161,-433,0,0,0,0,0,0,0,0,0,-1,1063,1457,0,0
-154,-433,0,0,0,0,0,0,0,0,0,-1,1070,1457,0,0
-147,-433,0,0,0,0,0,0,0,0,0,-1,1077,1457,0,0
-140,-433,0,0,0,0,0,0,0,0,0,-1,1084,1457,0,0
-133,-433,0,0,0,0,0,0,0,0,0,-1,1091,1457,0,0
-126,-433,0,0,0,0,0,0,0,0,0,-1,1098,1457,0,0
-119,-433,0,0,0,0,0,0,0,0,0,-1,1105,1457,0,0
-112,-433,0,0,0,0,0,0,0,0,0,-1,1112,1457,0,0
-105,-433,0,0,0,0,0,0,0,0,0,-1,1119,1457,0,0
-98,-433,0,0,0,0,0,0,0,0,0,-1,1126,1457,0,0
-91,-433,0,0,0,0,0,0,0,0,0,-1,1133,1457,0,0
-84,-433,0,0,0,0,0,0,0,0,0,-1,1140,1457,0,0
-77,-433,0,0,0,0,0,0,0,0,0,-1,1147,1457,0,0
-70,-433,0,0,0,0,0,0,0,0,0,-1,1154,1457,0,0
-63,-433,0,0,0,0,0,0,0,0,0,-1,1161,1457,0,0
-56,-433,0,0,0,0,0,0,0,0,0,-1,1168,1457,0,0
-49,-433,0,0,0,0,0,0,0,0,0,-1,1175,1457,0,0
-42,-433,0,0,0,0,0,0,0,0,0,-1,1182,1457,0,0
-35,-433,0,0,0,0,0,0,0,0,0,-1,1189,1457,0,0
-28,-433,0,0,0,0,0,0,0,0,0,-1,1196,1457,0,0
-21,-433,0,0,0,0,0,0,0,0,0,-1,1203,1457,0,0
-14,-433,0,0,0,0,0,0,0,0,0,-1,1210,1457,0,0
-7,-433,0,0,0,0,0,0,0,0,0,-1,1217,1457,0,0
0,-433,0,0,0,0,0,0,0,0,0,-1,1224,1457,0,0
7,-433,0,0,0,0,0,0,0,0,0,-1,1231,1457,0,0
14,-433,0,0,0,0,0,0,0,0,0,-1,1238,1457,0,0
21,-433,0,0,0,0,0,0,0,0,0,-1,1245,1457,0,0
28,-433,0,0,0,0,0,0,0,0,0,-1,1252,1457,0,0
35,-433,0,0,0,0,0,0,0,0,0,-1,1259,1457,0,0
42,-433,0,0,0,0,0,0,0,0,0,-1,1266,1457,0,0
49,-433,0,0,0,0,0,0,0,0,0,-1,1273,1457,0,0
56,-433,0,0,0,0,0,0,0,0,0,-1,1280,1457,0,0
63,-433,0,0,0,0,0,0,0,0,0,-1,1287,1457,0,0
70,-433,0,0,0,0,0,0,0,0,0,-1,1294,1457,0,0
77,-433,0,0,0,0,0,0,0,0,0,-1,1301,1457,0,0
84,-433,0,0,0,0,0,0,0,0,0,-1,1308,1457,0,0
91,-433,0,0,0,0,0,0,0,0,0,-1,1315,1457,0,0
98,-433,0,0,0,0,0,0,0,0,0,-1,1322,1457,0,0
105,-433,0,0,0,0,0,0,0,0,0,-1,1329,1457,0,0
112,-433,0,0,0,0,0,0,0,0,0,-1,1336,1457,0,0
119,-433,0,0,0,0,0,0,0,0,0,-1,1343,1457,0,0
126,-433,0,0,0,0,0,0,0,0,0,-1,1350,1457,0,0
133,-433,0,0,0,0,0,0,0,0,0,-1,1357,1457,0,0
140,-433,0,0,0,0,0,0,0,0,0,-1,1364,1457,0,0
147,-433,0,0,0,0,0,0,0,0,0,-1,1371,1457,0,0
154,-433,0,0,0,0,0,0,0,0,0,-1,1378,1457,0,0
161,-433,0,0,0,0,0,0,0,0,0,-1,1385,1457,0,0
168,-433,0,0,0,0,0,0,0,0,0,-1,1392,1457,0,0
175,-433,0,0,0,0,0,0,0,0,0,-1,1399,1457,0,0
182,-433,0,0,0,0,0,0,0,0,0,-1,1406,1457,0,0
189,-433,0,0,0,0,0,0,0,0,0,-1,1413,1457,0,0
196,-433,0,0,0,0,0,0,0,0,0,-1,1420,1457,0,0
203,-433,0,0,0,0,0,0,0,0,0,-1,1427,1457,0,0
210,-433,0,0,0,0,0,0,0,0,0,-1,1434,1457,0,0
217,-433,0,0,0,0,0,0,0,0,0,-1,1441,1457,0,0
224,-433,0,0,0,0,0,0,0,0,0,-1,1448,1457,0,0
231,-433,0,0,0,0,0,0,0,0,0,-1,1455,1457,0,0
238,-433,0,0,0,0,0,0,0,0,0,-1,1462,1457,0,0
245,-433,0,0,0,0,0,0,0,0,0,-1,1469,1457,0,0
252,-433,0,0,0,0,0,0,0,0,0,-1,1476,1457,0,0
259,-433,0,0,0,0,0,0,0,0,0,-1,1483,1457,0,0
266,-433,0,0,0,0,0,0,0,0,0,-1,1490,1457,0,0
273,-433,0,0,0,0,0,0,0,0,0,-1,1497,1457,0,0
280,-433,0,0,0,0,0,0,0,0,0,-1,1504,1457,0,0
287,-433,0,0,0,0,0,0,0,0,0,-1,1511,1457,0,0
294,-433,0,0,0,0,0,0,0,0,0,-1,1518,1457,0,0
301,-433,0,0,0,0,0,0,0,0,0,-1,1525,1457,0,0
308,-433,0,0,0,0,0,0,0,0,0,-1,1532,1457,0,0
315,-433,0,0,0,0,0,0,0,0,0,-1,1539,1457,0,0
322,-433,0,0,0,0,0,0,0,0,0,-1,1546,1457,0,0
329,-433,0,0,0,0,0,0,0,0,0,-1,1553,1457,0,0
336,-433,0,0,0,0,0,0,0,0,0,-1,1560,1457,0,0
343,-433,0,0,0,0,0,0,0,0,0,-1,1567,1457,0,0
350,-433,0,0,0,0,0,0,0,0,0,-1,1574,1457,0,0
357,-433,0,0,0,0,0,0,0,0,0,-1,1581,1457,0,0
364,-433,0,0,0,0,0,0,0,0,0,-1,1588,1457,0,0
371,-433,0,0,0,0,0,0,0,0,0,-1,1595,1457,0,0
378,-433,0,0,0,0,0,0,0,0,0,-1,1602,1457,0,0
385,-433,0,0,0,0,0,0,0,0,0,-1,1609,1457,0,0
392,-433,0,0,0,0,0,0,0,0,0,-1,1616,1457,0,0
399,-433,0,0,0,0,0,0,0,0,0,-1,1623,1457,0,0
406,-433,0,0,0,0,0,0,0,0,0,-1,1630,1457,0,0
413,-433,0,0,0,0,0,0,0,0,0,-1,1637,1457,0,0
420,-433,0,0,0,0,0,0,0,0,0,-1,1644,1457,0,0
427,-433,0,0,0,0,0,0,0,0,0,-1,1651,1457,0,0
434,-433,0,0,0,0,0,0,0,0,0,-1,1658,1457,0,0
441,-433,0,0,0,0,0,0,0,0,0,-1,1665,1457,0,0
448,-433,0,0,0,0,0,0,0,0,0,-1,1672,1457,0,0
455,-433,0,0,0,0,0,0,0,0,0,-1,1679,1457,0,0
462,-433,0,0,0,0,0,0,0,0,0,-1,1686,1457,0,0
469,-433,0,0,0,0,0,0,0,0,0,-1,1693,1457,0,0
476,-433,0,0,0,0,0,0,0,0,0,-1,1700,1457,0,0
483,-433,0,0,0,0,0,0,0,0,0,-1,1707,1457,0,0
490,-433,0,0,0,0,0,0,0,0,0,-1,1714,1457,0,0
497,-433,0,0,0,0,0,0,0,0,0,-1,1721,1457,0,0
504,-433,19.9058,3.03662,0,0,0,0,0,0,0,-1,1728,1457,19.9058,-3.03656
511,-433,19.0145,3.07837,0,0,0,0,0,0,0,-1,1735,1457,19.0146,-3.07834
518,-433,18.071,3.06433,0,0,0,0,0,0,0,-1,1742,1457,18.071,-3.06432
525,-433,17.2048,3.37085,0,0,0,0,0,0,0,-1,1749,1457,17.2049,-3.37083
532,-433,16.5637,3.36646,0,0,0,0,0,0,0,-1,1756,1457,16.5637,-3.36643
539,-433,15.9193,3.30396,0,0,0,0,0,0,0,-1,1763,1457,15.9193,-3.30394
546,-433,23.1903,4.81775,0,0,0,0,0,0,0,-1,1770,1457,23.1903,-4.81775
553,-433,13.9674,11.5781,0,0,0,0,0,0,0,-1,1777,1457,13.9674,-11.5781
560,-433,13.9855,11.7341,0,0,0,0,0,0,0,-1,1784,1457,13.9855,-11.7341
567,-433,13.9264,11.3364,0,0,0,0,0,0,0,-1,1791,1457,13.9263,-11.3364
574,-433,15.5305,12.3673,0,0,0,0,0,0,0,-1,1798,1457,15.5305,-12.3673
581,-433,16.6405,12.1898,0,0,0,0,0,0,0,-1,1805,1457,16.6405,-12.1898
588,-433,26.4386,19.7478,0,0,0,0,0,0,0,-1,1812,1457,26.4386,-19.7478
595,-433,29.0389,21.1819,0,0,0,0,0,0,0,-1,1819,1457,29.039,-21.1819
602,-433,29.1973,20.3706,0.00357628,0.00126722,-0.00205366,0.00477769,6.58114e-05,-0.529324,0.00316342,0.0282861,1826,1457,29.1972,-20.3706
609,-433,29.2322,19.7134,0.00283539,0.000734147,-0.0014843,0.00360327,-3.37341e-05,-0.47742,0.0024135,0.017576,1833,1457,29.2321,-19.7133
616,-433,29.2356,19.1307,0.00223058,0.000368267,-0.00106513,0.00271418,-0.00011534,-0.426205,0.0018491,0.0142749,1840,1457,29.2356,-19.1308
623,-433,29.177,18.5189,0.00193209,0.000152956,-0.000808449,0.00224457,-0.000159524,-0.368831,0.00155229,0.0110374,1847,1457,29.177,-18.5189
630,-433,29.1572,17.9187,0.00189111,4.19064e-05,-0.000691493,0.00212109,-0.00018807,-0.321072,0.00148073,0.0144045,1854,1457,29.1572,-17.9187
637,-433,29.1412,17.3015,0.00193606,0.00013879,-0.00068072,0.00216478,-8.99269e-05,-0.324143,0.00147408,0.0162608,1861,1457,29.1412,-17.3016
644,-433,29.0956,16.702,0.00218653,0.000368941,-0.00067963,0.00241255,0.000142921,-0.321058,0.0015629,0.0172476,1868,1457,29.0955,-16.7021
651,-433,29.0729,16.0704,0.00262642,0.000842744,-0.000855644,0.0029705,0.000498661,-0.382345,0.00183682,0.0136154,1875,1457,29.0728,-16.0704
658,-433,29.0048,15.411,0.0033111,0.0014541,-0.00106727,0.00379723,0.000967967,-0.427409,0.00227843,0.034786,1882,1457,29.0048,-15.411
665,-433,29.2173,14.5751,0,0,0,0,0,0,0,-1,1889,1457,29.2172,-14.575
672,-433,18.115,8.7207,0,0,0,0,0,0,0,-1,1896,1457,18.115,-8.72074
679,-433,17.2969,9.6355,0,0,0,0,0,0,0,-1,1903,1457,17.2968,-9.63548
686,-433,13.6356,8.61694,0,0,0,0,0,0,0,-1,1910,1457,13.6356,-8.61694
693,-433,13.4081,8.39624,0,0,0,0,0,0,0,-1,1917,1457,13.4081,-8.39624
700,-433,7.16809,-1.5166,0,0,0,0,0,0,0,-1,1924,1457,7.16806,1.51656
707,-433,8.68359,-2.82202,0,0,0,0,0,0,0,-1,1931,1457,8.68359,2.82197
714,-433,0,0,0,0,0,0,0,0,0,-1,1938,1457,0,0
721,-433,0,0,0,0,0,0,0,0,0,-1,1945,1457,0,0
728,-433,0,0,0,0,0,0,0,0,0,-1,1952,1457,0,0
735,-433,0,0,0,0,0,0,0,0,0,-1,1959,1457,0,0
742,-433,0,0,0,0,0,0,0,0,0,-1,1966,1457,0,0
749,-433,0,0,0,0,0,0,0,0,0,-1,1973,1457,0,0
756,-433,0,0,0,0,0,0,0,0,0,-1,1980,1457,0,0
763,-433,0,0,0,0,0,0,0,0,0,-1,1987,1457,0,0
770,-433,0,0,0,0,0,0,0,0,0,-1,1994,1457,0,0
777,-433,0,0,0,0,0,0,0,0,0,-1,2001,1457,0,0
784,-433,0,0,0,0,0,0,0,0,0,-1,2008,1457,0,0
791,-433,0,0,0,0,0,0,0,0,0,-1,2015,1457,0,0
798,-433,0,0,0,0,0,0,0,0,0,-1,2022,1457,0,0
805,-433,0,0,0,0,0,0,0,0,0,-1,2029,1457,0,0
812,-433,0,0,0,0,0,0,0,0,0,-1,2036,1457,0,0
-700,-440,0,0,0,0,0,0,0,0,0,-1,524,1464,0,0
-693,-440,0,0,0,0,0,0,0,0,0,-1,531,1464,0,0
-686,-440,0,0,0,0,0,0,0,0,0,-1,538,1464,0,0
-679,-440,0,0,0,0,0,0,0,0,0,-1,545,1464,0,0
-672,-440,0,0,0,0,0,0,0,0,0,-1,552,1464,0,0
-665,-440,0,0,0,0,0,0,0,0,0,-1,559,1464,0,0
-658,-440,0,0,0,0,0,0,0,0,0,-1,566,1464,0,0
-651,-440,0,0,0,0,0,0,0,0,0,-1,573,1464,0,0
-644,-440,0,0,0,0,0,0,0,0,0,-1,580,1464,0,0
-637,-440,0,0,0,0,0,0,0,0,0,-1,587,1464,0,0
-630,-440,0,0,0,0,0,0,0,0,0,-1,594,1464,0,0
-623,-440,0,0,0,0,0,0,0,0,0,-1,601,1464,0,0
-616,-440,0,0,0,0,0,0,0,0,0,-1,608,1464,0,0
-609,-440,0,0,0,0,0,0,0,0,0,-1,615,1464,0,0
-602,-440,0,0,0,0,0,0,0,0,0,-1,622,1464,0,0
-595,-440,0,0,0,0,0,0,0,0,0,-1,629,1464,0,0
-588,-440,0,0,0,0,0,0,0,0,0,-1,636,1464,0,0
-581,-440,-8.97278,0.254517,0,0,0,0,0,0,0,-1,643,1464,-8.97276,-0.254526
-574,-440,-7.00818,-0.918579,0,0,0,0,0,0,0,-1,650,1464,-7.00817,0.918538
-567,-440,-6.12152,-0.0766602,0,0,0,0,0,0,0,-1,657,1464,-6.12151,0.0767097
-560,-440,-5.46747,0.82251,0,0,0,0,0,0,0,-1,664,1464,-5.46748,-0.822551
-553,-440,-6.84729,0.0831299,0,0,0,0,0,0,0,-1,671,1464,-6.84732,-0.083136
-546,-440,-5.63446,-0.153198,0,0,0,0,0,0,0,-1,678,1464,-5.63447,0.153147
-539,-440,-6.80017,8.58252,0,0,0,0,0,0,0,-1,685,1464,-6.80015,-8.58257
-532,-440,-9.69647,11.3262,0,0,0,0,0,0,0,-1,692,1464,-9.69649,-11.3262
-525,-440,-11.7691,13.7028,0,0,0,0,0,0,0,-1,699,1464,-11.7691,-13.7027
-518,-440,-11.7203,14.4451,0.00339858,0.00305268,0.00351811,0.00674799,-0.000296724,0.760838,0.00460076,0.0262041,706,1464,-11.7203,-14.445
-511,-440,-11.6953,15.1836,0.0027892,0.00220155,0.00276794,0.00527887,-0.000288121,0.73252,0.00361911,0.0175336,713,1464,-11.6953,-15.1836
-504,-440,-11.7269,15.8534,0.00226017,0.00158808,0.00212902,0.0040795,-0.000231252,0.707124,0.00279994,0.0200605,720,1464,-11.7269,-15.8533
-497,-440,-11.7852,16.4791,0.00185356,0.00119623,0.00163924,0.00319676,-0.000146964,0.68646,0.00218181,0.0222427,727,1464,-11.7852,-16.4791
-490,-440,-11.8185,17.0563,0.00159717,0.00106717,0.00134118,0.00269928,-3.49318e-05,0.687861,0.00181127,0.0229909,734,1464,-11.8185,-17.0563
-483,-440,-11.8354,17.7842,0.00151528,0.00116869,0.00121127,0.00256559,0.000118376,0.714348,0.00167233,0.0211159,741,1464,-11.8354,-17.7842
-476,-440,-11.8608,18.4468,0.00160365,0.00154286,0.00130266,0.00287626,0.00027024,0.773734,0.00183408,0.0135011,748,1464,-11.8608,-18.4467
-469,-440,-11.8963,19.1168,0.00184653,0.00216268,0.00157529,0.00358781,0.000421404,0.835404,0.00226451,0.0122143,755,1464,-11.8963,-19.1168
-462,-440,-11.9503,19.7633,0.00233153,0.00310339,0.00211427,0.00486666,0.000568256,0.875672,0.00307259,0.0176149,762,1464,-11.9503,-19.7633
-455,-440,-11.9423,20.4551,0,0,0,0,0,0,0,-1,769,1464,-11.9422,-20.455
-448,-440,-10.9966,21.0752,0,0,0,0,0,0,0,-1,776,1464,-10.9966,-21.0752
-441,-440,-7.28583,14.7465,0,0,0,0,0,0,0,-1,783,1464,-7.28584,-14.7464
-434,-440,-8.33636,14.5024,0,0,0,0,0,0,0,-1,790,1464,-8.33638,-14.5025
-427,-440,-8.28094,14.2512,0,0,0,0,0,0,0,-1,797,1464,-8.28094,-14.2512
-420,-440,-6.86603,8.09216,0,0,0,0,0,0,0,-1,804,1464,-6.86602,-8.09222
-413,-440,-3.46796,5.72278,0,0,0,0,0,0,0,-1,811,1464,-3.46797,-5.72276
-406,-440,-5.2887,5.20264,0,0,0,0,0,0,0,-1,818,1464,-5.2887,-5.20261
-399,-440,-12.7318,3.94421,0,0,0,0,0,0,0,-1,825,1464,-12.7318,-3.94419
-392,-440,-13.5565,2.51855,0,0,0,0,0,0,0,-1,832,1464,-13.5565,-2.51861
-385,-440,-14.6741,1.39795,0,0,0,0,0,0,0,-1,839,1464,-14.6741,-1.39801
-378,-440,-15.8063,0.293457,0,0,0,0,0,0,0,-1,846,1464,-15.8063,-0.293412
-371,-440,0,0,0,0,0,0,0,0,0,-1,853,1464,0,0
-364,-440,0,0,0,0,0,0,0,0,0,-1,860,1464,0,0
-357,-440,0,0,0,0,0,0,0,0,0,-1,867,1464,0,0
-350,-440,0,0,0,0,0,0,0,0,0,-1,874,1464,0,0
-343,-440,0,0,0,0,0,0,0,0,0,-1,881,1464,0,0
-336,-440,0,0,0,0,0,0,0,0,0,-1,888,1464,0,0
-329,-440,0,0,0,0,0,0,0,0,0,-1,895,1464,0,0
-322,-440,0,0,0,0,0,0,0,0,0,-1,902,1464,0,0
-315,-440,0,0,0,0,0,0,0,0,0,-1,909,1464,0,0
-308,-440,0,0,0,0,0,0,0,0,0,-1,916,1464,0,0
-301,-440,0,0,0,0,0,0,0,0,0,-1,923,1464,0,0
-294,-440,0,0,0,0,0,0,0,0,0,-1,930,1464,0,0
-287,-440,0,0,0,0,0,0,0,0,0,-1,937,1464,0,0
-280,-440,0,0,0,0,0,0,0,0,0,-1,944,1464,0,0
-273,-440,0,0,0,0,0,0,0,0,0,-1,951,1464,0,0
-266,-440,0,0,0,0,0,0,0,0,0,-1,958,1464,0,0
-259,-440,0,0,0,0,0,0,0,0,0,-1,965,1464,0,0
-252,-440,0,0,0,0,0,0,0,0,0,-1,972,1464,0,0
-245,-440,0,0,0,0,0,0,0,0,0,-1,979,1464,0,0
-238,-440,0,0,0,0,0,0,0,0,0,-1,986,1464,0,0
-231,-440,0,0,0,0,0,0,0,0,0,-1,993,1464,0,0
-224,-440,0,0,0,0,0,0,0,0,0,-1,1000,1464,0,0
-217,-440,0,0,0,0,0,0,0,0,0,-1,1007,1464,0,0
-210,-440,0,0,0,0,0,0,0,0,0,-1,1014,1464,0,0
-203,-440,0,0,0,0,0,0,0,0,0,-1,1021,1464,0,0
-196,-440,0,0,0,0,0,0,0,0,0,-1,1028,1464,0,0
-189,-440,0,0,0,0,0,0,0,0,0,-1,1035,1464,0,0
-182,-440,0,0,0,0,0,0,0,0,0,-1,1042,1464,0,0
-175,-440,0,0,0,0,0,0,0,0,0,-1,1049,1464,0,0
-168,-440,0,0,0,0,0,0,0,0,0,-1,1056,1464,0,0
-161,-440,0,0,0,0,0,0,0,0,0,-1,1063,1464,0,0
-154,-440,0,0,0,0,0,0,0,0,0,-1,1070,1464,0,0
-147,-440,0,0,0,0,0,0,0,0,0,-1,1077,1464,0,0
-140,-440,0,0,0,0,0,0,0,0,0,-1,1084,1464,0,0
-133,-440,0,0,0,0,0,0,0,0,0,-1,1091,1464,0,0
-126,-440,0,0,0,0,0,0,0,0,0,-1,1098,1464,0,0
-119,-440,0,0,0,0,0,0,0,0,0,-1,1105,1464,0,0
-112,-440,0,0,0,0,0,0,0,0,0,-1,1112,1464,0,0
-105,-440,0,0,0,0,0,0,0,0,0,-1,1119,1464,0,0
-98,-440,0,0,0,0,0,0,0,0,0,-1,1126,1464,0,0
-91,-440,0,0,0,0,0,0,0,0,0,-1,1133,1464,0,0
-84,-440,0,0,0,0,0,0,0,0,0,-1,1140,1464,0,0
-77,-440,0,0,0,0,0,0,0,0,0,-1,1147,1464,0,0
-70,-440,0,0,0,0,0,0,0,0,0,-1,1154,1464,0,0
-63,-440,0,0,0,0,0,0,0,0,0,-1,1161,1464,0,0
-56,-440,0,0,0,0,0,0,0,0,0,-1,1168,1464,0,0
-49,-440,0,0,0,0,0,0,0,0,0,-1,1175,1464,0,0
-42,-440,0,0,0,0,0,0,0,0,0,-1,1182,1464,0,0
-35,-440,0,0,0,0,0,0,0,0,0,-1,1189,1464,0,0
-28,-440,0,0,0,0,0,0,0,0,0,-1,1196,1464,0,0
-21,-440,0,0,0,0,0,0,0,0,0,-1,1203,1464,0,0
-14,-440,0,0,0,0,0,0,0,0,0,-1,1210,1464,0,0
-7,-440,0,0,0,0,0,0,0,0,0,-1,1217,1464,0,0
0,-440,0,0,0,0,0,0,0,0,0,-1,1224,1464,0,0
7,-440,0,0,0,0,0,0,0,0,0,-1,1231,1464,0,0
14,-440,0,0,0,0,0,0,0,0,0,-1,1238,1464,0,0
21,-440,0,0,0,0,0,0,0,0,0,-1,1245,1464,0,0
28,-440,0,0,0,0,0,0,0,0,0,-1,1252,1464,0,0
35,-440,0,0,0,0,0,0,0,0,0,-1,1259,1464,0,0
42,-440,0,0,0,0,0,0,0,0,0,-1,1266,1464,0,0
49,-440,0,0,0,0,0,0,0,0,0,-1,1273,1464,0,0
56,-440,0,0,0,0,0,0,0,0,0,-1,1280,1464,0,0
63,-440,0,0,0,0,0,0,0,0,0,-1,1287,1464,0,0
70,-440,0,0,0,0,0,0,0,0,0,-1,1294,1464,0,0
77,-440,0,0,0,0,0,0,0,0,0,-1,1301,1464,0,0
84,-440,0,0,0,0,0,0,0,0,0,-1,1308,1464,0,0
91,-440,0,0,0,0,0,0,0,0,0,-1,1315,1464,0,0
98,-440,0,0,0,0,0,0,0,0,0,-1,1322,1464,0,0
105,-440,0,0,0,0,0,0,0,0,0,-1,1329,1464,0,0
112,-440,0,0,0,0,0,0,0,0,0,-1,1336,1464,0,0
119,-440,0,0,0,0,0,0,0,0,0,-1,1343,1464,0,0
126,-440,0,0,0,0,0,0,0,0,0,-1,1350,1464,0,0
133,-440,0,0,0,0,0,0,0,0,0,-1,1357,1464,0,0
140,-440,0,0,0,0,0,0,0,0,0,-1,1364,1464,0,0
147,-440,0,0,0,0,0,0,0,0,0,-1,1371,1464,0,0
154,-440,0,0,0,0,0,0,0,0,0,-1,1378,1464,0,0
161,-440,0,0,0,0,0,0,0,0,0,-1,1385,1464,0,0
168,-440,0,0,0,0,0,0,0,0,0,-1,1392,1464,0,0
175,-440,0,0,0,0,0,0,0,0,0,-1,1399,1464,0,0
182,-440,0,0,0,0,0,0,0,0,0,-1,1406,1464,0,0
189,-440,0,0,0,0,0,0,0,0,0,-1,1413,1464,0,0
196,-440,0,0,0,0,0,0,0,0,0,-1,1420,1464,0,0
203,-440,0,0,0,0,0,0,0,0,0,-1,1427,1464,0,0
210,-440,0,0,0,0,0,0,0,0,0,-1,1434,1464,0,0
217,-440,0,0,0,0,0,0,0,0,0,-1,1441,1464,0,0
224,-440,0,0,0,0,0,0,0,0,0,-1,1448,1464,0,0
231,-440,0,0,0,0,0,0,0,0,0,-1,1455,1464,0,0
238,-440,0,0,0,0,0,0,0,0,0,-1,1462,1464,0,0
245,-440,0,0,0,0,0,0,0,0,0,-1,1469,1464,0,0
252,-440,0,0,0,0,0,0,0,0,0,-1,1476,1464,0,0
259,-440,0,0,0,0,0,0,0,0,0,-1,1483,1464,0,0
266,-440,0,0,0,0,0,0,0,0,0,-1,1490,1464,0,0
273,-440,0,0,0,0,0,0,0,0,0,-1,1497,1464,0,0
280,-440,0,0,0,0,0,0,0,0,0,-1,1504,1464,0,0
287,-440,0,0,0,0,0,0,0,0,0,-1,1511,1464,0,0
294,-440,0,0,0,0,0,0,0,0,0,-1,1518,1464,0,0
301,-440,0,0,0,0,0,0,0,0,0,-1,1525,1464,0,0
308,-440,0,0,0,0,0,0,0,0,0,-1,1532,1464,0,0
315,-440,0,0,0,0,0,0,0,0,0,-1,1539,1464,0,0
322,-440,0,0,0,0,0,0,0,0,0,-1,1546,1464,0,0
329,-440,0,0,0,0,0,0,0,0,0,-1,1553,1464,0,0
336,-440,0,0,0,0,0,0,0,0,0,-1,1560,1464,0,0
343,-440,0,0,0,0,0,0,0,0,0,-1,1567,1464,0,0
350,-440,0,0,0,0,0,0,0,0,0,-1,1574,1464,0,0
357,-440,0,0,0,0,0,0,0,0,0,-1,1581,1464,0,0
364,-440,0,0,0,0,0,0,0,0,0,-1,1588,1464,0,0
371,-440,0,0,0,0,0,0,0,0,0,-1,1595,1464,0,0
378,-440,0,0,0,0,0,0,0,0,0,-1,1602,1464,0,0
385,-440,0,0,0,0,0,0,0,0,0,-1,1609,1464,0,0
392,-440,0,0,0,0,0,0,0,0,0,-1,1616,1464,0,0
399,-440,0,0,0,0,0,0,0,0,0,-1,1623,1464,0,0
406,-440,0,0,0,0,0,0,0,0,0,-1,1630,1464,0,0
413,-440,0,0,0,0,0,0,0,0,0,-1,1637,1464,0,0
420,-440,0,0,0,0,0,0,0,0,0,-1,1644,1464,0,0
427,-440,0,0,0,0,0,0,0,0,0,-1,1651,1464,0,0
434,-440,0,0,0,0,0,0,0,0,0,-1,1658,1464,0,0
441,-440,0,0,0,0,0,0,0,0,0,-1,1665,1464,0,0
448,-440,0,0,0,0,0,0,0,0,0,-1,1672,1464,0,0
455,-440,0,0,0,0,0,0,0,0,0,-1,1679,1464,0,0
462,-440,0,0,0,0,0,0,0,0,0,-1,1686,1464,0,0
469,-440,0,0,0,0,0,0,0,0,0,-1,1693,1464,0,0
476,-440,0,0,0,0,0,0,0,0,0,-1,1700,1464,0,0
483,-440,0,0,0,0,0,0,0,0,0,-1,1707,1464,0,0
490,-440,0,0,0,0,0,0,0,0,0,-1,1714,1464,0,0
497,-440,16.965,-0.528442,0,0,0,0,0,0,0,-1,1721,1464,16.965,0.528492
504,-440,15.8052,0.670166,0,0,0,0,0,0,0,-1,1728,1464,15.8052,-0.670145
511,-440,17.5754,2.77832,0,0,0,0,0,0,0,-1,1735,1464,17.5754,-2.77826
518,-440,16.9017,3.07861,0,0,0,0,0,0,0,-1,1742,1464,16.9018,-3.07859
525,-440,18.4495,12.0867,0,0,0,0,0,0,0,-1,1749,1464,18.4495,-12.0867
532,-440,15.4319,3.64392,0,0,0,0,0,0,0,-1,1756,1464,15.4318,-3.64391
539,-440,14.8214,3.41321,0,0,0,0,0,0,0,-1,1763,1464,14.8214,-3.4132
546,-440,14.8651,10.7683,0,0,0,0,0,0,0,-1,1770,1464,14.8651,-10.7683
553,-440,15.1213,11.4121,0,0,0,0,0,0,0,-1,1777,1464,15.1213,-11.4121
560,-440,17.4325,12.5394,0,0,0,0,0,0,0,-1,1784,1464,17.4325,-12.5394
567,-440,16.9025,12.4249,0,0,0,0,0,0,0,-1,1791,1464,16.9025,-12.425
574,-440,19.2841,14.8679,0,0,0,0,0,0,0,-1,1798,1464,19.2841,-14.868
581,-440,26.4432,21.3477,0,0,0,0,0,0,0,-1,1805,1464,26.4432,-21.3476
588,-440,28.4937,21.8145,0,0,0,0,0,0,0,-1,1812,1464,28.4936,-21.8144
595,-440,28.5417,21.0895,0.00415108,0.00176966,-0.00242987,0.0056663,0.000254437,-0.557579,0.00369564,0.0305394,1819,1464,28.5418,-21.0895
602,-440,28.6328,20.3755,0.00331421,0.00120238,-0.00183236,0.00437313,0.000143468,-0.524007,0.00286879,0.0212968,1826,1464,28.6328,-20.3755
609,-440,28.6331,19.7756,0.00268199,0.000731584,-0.00134922,0.00337155,4.20298e-05,-0.472469,0.00223382,0.0180202,1833,1464,28.633,-19.7757
616,-440,28.6047,19.177,0.00217895,0.000436093,-0.00100908,0.0026408,-2.57528e-05,-0.429232,0.00176918,0.0177283,1840,1464,28.6047,-19.177
623,-440,28.5696,18.5389,0.00198662,0.000246744,-0.000799671,0.00229832,-6.49556e-05,-0.371669,0.00155431,0.0143072,1847,1464,28.5696,-18.539
630,-440,28.5233,17.9114,0.00203791,0.0001497,-0.000710902,0.00227563,-8.80222e-05,-0.322706,0.00154726,0.0117661,1854,1464,28.5233,-17.9114
637,-440,28.5134,17.345,0.00216264,0.000237142,-0.000726881,0.00240622,-6.44347e-06,-0.323349,0.0016063,0.0162368,1861,1464,28.5134,-17.345
644,-440,28.5029,16.7477,0.00248841,0.000512505,-0.000784728,0.00276214,0.000238773,-0.335627,0.00176722,0.0165684,1868,1464,28.503,-16.7477
651,-440,28.5186,16.0758,0.00304663,0.00107,-0.00106058,0.00350801,0.000608622,-0.410327,0.00216451,0.0210525,1875,1464,28.5185,-16.0758
658,-440,28.6318,15.3226,0,0,0,0,0,0,0,-1,1882,1464,28.6319,-15.3226
665,-440,24.2067,12.5813,0,0,0,0,0,0,0,-1,1889,1464,24.2067,-12.5813
672,-440,18.9385,9.6394,0,0,0,0,0,0,0,-1,1896,1464,18.9384,-9.63939
679,-440,16.9508,10.2336,0,0,0,0,0,0,0,-1,1903,1464,16.9508,-10.2337
686,-440,15.2556,8.44177,0,0,0,0,0,0,0,-1,1910,1464,15.2556,-8.44177
693,-440,9.88635,2.89795,0,0,0,0,0,0,0,-1,1917,1464,9.88638,-2.89798
700,-440,7.07825,-2.62061,0,0,0,0,0,0,0,-1,1924,1464,7.07829,2.62057
707,-440,0,0,0,0,0,0,0,0,0,-1,1931,1464,0,0
714,-440,0,0,0,0,0,0,0,0,0,-1,1938,1464,0,0
721,-440,0,0,0,0,0,0,0,0,0,-1,1945,1464,0,0
728,-440,0,0,0,0,0,0,0,0,0,-1,1952,1464,0,0
735,-440,0,0,0,0,0,0,0,0,0,-1,1959,1464,0,0
742,-440,0,0,0,0,0,0,0,0,0,-1,1966,1464,0,0
749,-440,0,0,0,0,0,0,0,0,0,-1,1973,1464,0,0
756,-440,0,0,0,0,0,0,0,0,0,-1,1980,1464,0,0
763,-440,0,0,0,0,0,0,0,0,0,-1,1987,1464,0,0
770,-440,0,0,0,0,0,0,0,0,0,-1,1994,1464,0,0
777,-440,0,0,0,0,0,0,0,0,0,-1,2001,1464,0,0
784,-440,0,0,0,0,0,0,0,0,0,-1,2008,1464,0,0
791,-440,0,0,0,0,0,0,0,0,0,-1,2015,1464,0,0
798,-440,0,0,0,0,0,0,0,0,0,-1,2022,1464,0,0
805,-440,0,0,0,0,0,0,0,0,0,-1,2029,1464,0,0
812,-440,0,0,0,0,0,0,0,0,0,-1,2036,1464,0,0
-700,-447,0,0,0,0,0,0,0,0,0,-1,524,1471,0,0
-693,-447,0,0,0,0,0,0,0,0,0,-1,531,1471,0,0
-686,-447,0,0,0,0,0,0,0,0,0,-1,538,1471,0,0
-679,-447,0,0,0,0,0,0,0,0,0,-1,545,1471,0,0
-672,-447,0,0,0,0,0,0,0,0,0,-1,552,1471,0,0
-665,-447,0,0,0,0,0,0,0,0,0,-1,559,1471,0,0
-658,-447,0,0,0,0,0,0,0,0,0,-1,566,1471,0,0
-651,-447,0,0,0,0,0,0,0,0,0,-1,573,1471,0,0
-644,-447,0,0,0,0,0,0,0,0,0,-1,580,1471,0,0
-637,-447,0,0,0,0,0,0,0,0,0,-1,587,1471,0,0
-630,-447,0,0,0,0,0,0,0,0,0,-1,594,1471,0,0
-623,-447,0,0,0,0,0,0,0,0,0,-1,601,1471,0,0
-616,-447,0,0,0,0,0,0,0,0,0,-1,608,1471,0,0
-609,-447,0,0,0,0,0,0,0,0,0,-1,615,1471,0,0
-602,-447,0,0,0,0,0,0,0,0,0,-1,622,1471,0,0
-595,-447,0,0,0,0,0,0,0,0,0,-1,629,1471,0,0
-588,-447,0,0,0,0,0,0,0,0,0,-1,636,1471,0,0
-581,-447,-7.06482,-1.50476,0,0,0,0,0,0,0,-1,643,1471,-7.0648,1.50474
-574,-447,-6.88092,-0.00585938,0,0,0,0,0,0,0,-1,650,1471,-6.88095,0.00589852
-567,-447,-6.8205,-1.32178,0,0,0,0,0,0,0,-1,657,1471,-6.82047,1.32172
-560,-447,-8.85748,2.80774,0,0,0,0,0,0,0,-1,664,1471,-8.85748,-2.80775
-553,-447,-7.60486,3.26794,0,0,0,0,0,0,0,-1,671,1471,-7.60487,-3.26799
-546,-447,-3.94501,1.8656,0,0,0,0,0,0,0,-1,678,1471,-3.945,-1.86554
-539,-447,-5.35492,4.50024,0,0,0,0,0,0,0,-1,685,1471,-5.35492,-4.50018
-532,-447,-6.12781,8.81091,0,0,0,0,0,0,0,-1,692,1471,-6.12781,-8.81094
-525,-447,-9.44501,12.098,0,0,0,0,0,0,0,-1,699,1471,-9.44502,-12.098
-518,-447,-11.1163,14.288,0,0,0,0,0,0,0,-1,706,1471,-11.1163,-14.2879
-511,-447,-11.0774,15.181,0.00311063,0.00202862,0.00311706,0.00573328,-0.000594035,0.699473,0.0040348,0.0243327,713,1471,-11.0774,-15.181
-504,-447,-11.0729,15.953,0.00250002,0.00132085,0.00236225,0.00434515,-0.000524278,0.663103,0.0030864,0.0210478,720,1471,-11.073,-15.953
-497,-447,-11.1717,16.5685,0.00199582,0.000864944,0.00176911,0.00328766,-0.000426889,0.63072,0.00234704,0.0247985,727,1471,-11.1717,-16.5684
-490,-447,-11.1864,17.1206,0.00166451,0.000695148,0.0013872,0.00264926,-0.00028961,0.617331,0.0018702,0.0244815,734,1471,-11.1864,-17.1206
-483,-447,-11.18,17.7771,0.00153236,0.00079997,0.00120955,0.00242993,-9.76021e-05,0.638408,0.00165345,0.0228174,741,1471,-11.18,-17.7771
-476,-447,-11.2111,18.4313,0.00158746,0.00120772,0.00127406,0.00268572,0.000109457,0.711428,0.00175513,0.0147235,748,1471,-11.2111,-18.4312
-469,-447,-11.2301,19.1305,0.00180212,0.00188949,0.00152356,0.00336999,0.00032162,0.799731,0.0021475,0.0131907,755,1471,-11.2301,-19.1305
-462,-447,-11.2627,19.8021,0.00228109,0.00286361,0.00203032,0.00462346,0.000521243,0.856639,0.00292408,0.0137744,762,1471,-11.2627,-19.8022
-455,-447,-11.2821,20.4299,0.00302305,0.00414017,0.00281685,0.00645331,0.000709914,0.883275,0.00408618,0.0242751,769,1471,-11.2821,-20.43
-448,-447,-11.2625,21.1268,0,0,0,0,0,0,0,-1,776,1471,-11.2625,-21.1268
-441,-447,-8.68506,19.0931,0,0,0,0,0,0,0,-1,783,1471,-8.68504,-19.0932
-434,-447,-7.43402,15.6273,0,0,0,0,0,0,0,-1,790,1471,-7.43404,-15.6274
-427,-447,-7.21832,14.691,0,0,0,0,0,0,0,-1,797,1471,-7.21834,-14.6911
-420,-447,-8.0545,12.8055,0,0,0,0,0,0,0,-1,804,1471,-8.05452,-12.8055
-413,-447,-4.27393,6.59705,0,0,0,0,0,0,0,-1,811,1471,-4.27392,-6.59707
-406,-447,-1.04279,6.18591,0,0,0,0,0,0,0,-1,818,1471,-1.04276,-6.18586
-399,-447,0.0134888,0.687622,0,0,0,0,0,0,0,-1,825,1471,0.0134841,-0.68767
-392,-447,-14.0646,3.76147,0,0,0,0,0,0,0,-1,832,1471,-14.0646,-3.7615
-385,-447,-15.1695,2.61865,0,0,0,0,0,0,0,-1,839,1471,-15.1695,-2.61871
-378,-447,-15.9424,1.49316,0,0,0,0,0,0,0,-1,846,1471,-15.9424,-1.49313
-371,-447,-17.3655,0.73291,0,0,0,0,0,0,0,-1,853,1471,-17.3655,-0.732946
-364,-447,0,0,0,0,0,0,0,0,0,-1,860,1471,0,0
-357,-447,0,0,0,0,0,0,0,0,0,-1,867,1471,0,0
-350,-447,0,0,0,0,0,0,0,0,0,-1,874,1471,0,0
-343,-447,0,0,0,0,0,0,0,0,0,-1,881,1471,0,0
-336,-447,0,0,0,0,0,0,0,0,0,-1,888,1471,0,0
-329,-447,0,0,0,0,0,0,0,0,0,-1,895,1471,0,0
-322,-447,0,0,0,0,0,0,0,0,0,-1,902,1471,0,0
-315,-447,0,0,0,0,0,0,0,0,0,-1,909,1471,0,0
-308,-447,0,0,0,0,0,0,0,0,0,-1,916,1471,0,0
-301,-447,0,0,0,0,0,0,0,0,0,-1,923,1471,0,0
-294,-447,0,0,0,0,0,0,0,0,0,-1,930,1471,0,0
-287,-447,0,0,0,0,0,0,0,0,0,-1,937,1471,0,0
-280,-447,0,0,0,0,0,0,0,0,0,-1,944,1471,0,0
-273,-447,0,0,0,0,0,0,0,0,0,-1,951,1471,0,0
-266,-447,0,0,0,0,0,0,0,0,0,-1,958,1471,0,0
-259,-447,0,0,0,0,0,0,0,0,0,-1,965,1471,0,0
-252,-447,0,0,0,0,0,0,0,0,0,-1,972,1471,0,0
-245,-447,0,0,0,0,0,0,0,0,0,-1,979,1471,0,0
-238,-447,0,0,0,0,0,0,0,0,0,-1,986,1471,0,0
-231,-447,0,0,0,0,0,0,0,0,0,-1,993,1471,0,0
-224,-447,0,0,0,0,0,0,0,0,0,-1,1000,1471,0,0
-217,-447,0,0,0,0,0,0,0,0,0,-1,1007,1471,0,0
-210,-447,0,0,0,0,0,0,0,0,0,-1,1014,1471,0,0
-203,-447,0,0,0,0,0,0,0,0,0,-1,1021,1471,0,0
-196,-447,0,0,0,0,0,0,0,0,0,-1,1028,1471,0,0
-189,-447,0,0,0,0,0,0,0,0,0,-1,1035,1471,0,0
-182,-447,0,0,0,0,0,0,0,0,0,-1,1042,1471,0,0
-175,-447,0,0,0,0,0,0,0,0,0,-1,1049,1471,0,0
-168,-447,0,0,0,0,0,0,0,0,0,-1,1056,1471,0,0
-161,-447,0,0,0,0,0,0,0,0,0,-1,1063,1471,0,0
-154,-447,0,0,0,0,0,0,0,0,0,-1,1070,1471,0,0
-147,-447,0,0,0,0,0,0,0,0,0,-1,1077,1471,0,0
-140,-447,0,0,0,0,0,0,0,0,0,-1,1084,1471,0,0
-133,-447,0,0,0,0,0,0,0,0,0,-1,1091,1471,0,0
-126,-447,0,0,0,0,0,0,0,0,0,-1,1098,1471,0,0
-119,-447,0,0,0,0,0,0,0,0,0,-1,1105,1471,0,0
-112,-447,0,0,0,0,0,0,0,0,0,-1,1112,1471,0,0
-105,-447,0,0,0,0,0,0,0,0,0,-1,1119,1471,0,0
-98,-447,0,0,0,0,0,0,0,0,0,-1,1126,1471,0,0
-91,-447,0,0,0,0,0,0,0,0,0,-1,1133,1471,0,0
-84,-447,0,0,0,0,0,0,0,0,0,-1,1140,1471,0,0
-77,-447,0,0,0,0,0,0,0,0,0,-1,1147,1471,0,0
-70,-447,0,0,0,0,0,0,0,0,0,-1,1154,1471,0,0
-63,-447,0,0,0,0,0,0,0,0,0,-1,1161,1471,0,0
-56,-447,0,0,0,0,0,0,0,0,0,-1,1168,1471,0,0
-49,-447,0,0,0,0,0,0,0,0,0,-1,1175,1471,0,0
-42,-447,0,0,0,0,0,0,0,0,0,-1,1182,1471,0,0
-35,-447,0,0,0,0,0,0,0,0,0,-1,1189,1471,0,0
-28,-447,0,0,0,0,0,0,0,0,0,-1,1196,1471,0,0
-21,-447,0,0,0,0,0,0,0,0,0,-1,1203,1471,0,0
-14,-447,0,0,0,0,0,0,0,0,0,-1,1210,1471,0,0
-7,-447,0,0,0,0,0,0,0,0,0,-1,1217,1471,0,0
0,-447,0,0,0,0,0,0,0,0,0,-1,1224,1471,0,0
7,-447,0,0,0,0,0,0,0,0,0,-1,1231,1471,0,0
14,-447,0,0,0,0,0,0,0,0,0,-1,1238,1471,0,0
21,-447,0,0,0,0,0,0,0,0,0,-1,1245,1471,0,0
28,-447,0,0,0,0,0,0,0,0,0,-1,1252,1471,0,0
35,-447,0,0,0,0,0,0,0,0,0,-1,1259,1471,0,0
42,-447,0,0,0,0,0,0,0,0,0,-1,1266,1471,0,0
49,-447,0,0,0,0,0,0,0,0,0,-1,1273,1471,0,0
56,-447,0,0,0,0,0,0,0,0,0,-1,1280,1471,0,0
63,-447,0,0,0,0,0,0,0,0,0,-1,1287,1471,0,0
70,-447,0,0,0,0,0,0,0,0,0,-1,1294,1471,0,0
77,-447,0,0,0,0,0,0,0,0,0,-1,1301,1471,0,0
84,-447,0,0,0,0,0,0,0,0,0,-1,1308,1471,0,0
91,-447,0,0,0,0,0,0,0,0,0,-1,1315,1471,0,0
98,-447,0,0,0,0,0,0,0,0,0,-1,1322,1471,0,0
105,-447,0,0,0,0,0,0,0,0,0,-1,1329,1471,0,0
112,-447,0,0,0,0,0,0,0,0,0,-1,1336,1471,0,0
119,-447,0,0,0,0,0,0,0,0,0,-1,1343,1471,0,0
126,-447,0,0,0,0,0,0,0,0,0,-1,1350,1471,0,0
133,-447,0,0,0,0,0,0,0,0,0,-1,1357,1471,0,0
140,-447,0,0,0,0,0,0,0,0,0,-1,1364,1471,0,0
147,-447,0,0,0,0,0,0,0,0,0,-1,1371,1471,0,0
154,-447,0,0,0,0,0,0,0,0,0,-1,1378,1471,0,0
161,-447,0,0,0,0,0,0,0,0,0,-1,1385,1471,0,0
168,-447,0,0,0,0,0,0,0,0,0,-1,1392,1471,0,0
175,-447,0,0,0,0,0,0,0,0,0,-1,1399,1471,0,0
182,-447,0,0,0,0,0,0,0,0,0,-1,1406,1471,0,0
189,-447,0,0,0,0,0,0,0,0,0,-1,1413,1471,0,0
196,-447,0,0,0,0,0,0,0,0,0,-1,1420,1471,0,0
203,-447,0,0,0,0,0,0,0,0,0,-1,1427,1471,0,0
210,-447,0,0,0,0,0,0,0,0,0,-1,1434,1471,0,0
217,-447,0,0,0,0,0,0,0,0,0,-1,1441,1471,0,0
224,-447,0,0,0,0,0,0,0,0,0,-1,1448,1471,0,0
231,-447,0,0,0,0,0,0,0,0,0,-1,1455,1471,0,0
238,-447,0,0,0,0,0,0,0,0,0,-1,1462,1471,0,0
245,-447,0,0,0,0,0,0,0,0,0,-1,1469,1471,0,0
252,-447,0,0,0,0,0,0,0,0,0,-1,1476,1471,0,0
259,-447,0,0,0,0,0,0,0,0,0,-1,1483,1471,0,0
266,-447,0,0,0,0,0,0,0,0,0,-1,1490,1471,0,0
273,-447,0,0,0,0,0,0,0,0,0,-1,1497,1471,0,0
280,-447,0,0,0,0,0,0,0,0,0,-1,1504,1471,0,0
287,-447,0,0,0,0,0,0,0,0,0,-1,1511,1471,0,0
294,-447,0,0,0,0,0,0,0,0,0,-1,1518,1471,0,0
301,-447,0,0,0,0,0,0,0,0,0,-1,1525,1471,0,0
308,-447,0,0,0,0,0,0,0,0,0,-1,1532,1471,0,0
315,-447,0,0,0,0,0,0,0,0,0,-1,1539,1471,0,0
322,-447,0,0,0,0,0,0,0,0,0,-1,1546,1471,0,0
329,-447,0,0,0,0,0,0,0,0,0,-1,1553,1471,0,0
336,-447,0,0,0,0,0,0,0,0,0,-1,1560,1471,0,0
343,-447,0,0,0,0,0,0,0,0,0,-1,1567,1471,0,0
350,-447,0,0,0,0,0,0,0,0,0,-1,1574,1471,0,0
357,-447,0,0,0,0,0,0,0,0,0,-1,1581,1471,0,0
364,-447,0,0,0,0,0,0,0,0,0,-1,1588,1471,0,0
371,-447,0,0,0,0,0,0,0,0,0,-1,1595,1471,0,0
378,-447,0,0,0,0,0,0,0,0,0,-1,1602,1471,0,0
385,-447,0,0,0,0,0,0,0,0,0,-1,1609,1471,0,0
392,-447,0,0,0,0,0,0,0,0,0,-1,1616,1471,0,0
399,-447,0,0,0,0,0,0,0,0,0,-1,1623,1471,0,0
406,-447,0,0,0,0,0,0,0,0,0,-1,1630,1471,0,0
413,-447,0,0,0,0,0,0,0,0,0,-1,1637,1471,0,0
420,-447,0,0,0,0,0,0,0,0,0,-1,1644,1471,0,0
427,-447,0,0,0,0,0,0,0,0,0,-1,1651,1471,0,0
434,-447,0,0,0,0,0,0,0,0,0,-1,1658,1471,0,0
441,-447,0,0,0,0,0,0,0,0,0,-1,1665,1471,0,0
448,-447,0,0,0,0,0,0,0,0,0,-1,1672,1471,0,0
455,-447,0,0,0,0,0,0,0,0,0,-1,1679,1471,0,0
462,-447,0,0,0,0,0,0,0,0,0,-1,1686,1471,0,0
469,-447,0,0,0,0,0,0,0,0,0,-1,1693,1471,0,0
476,-447,0,0,0,0,0,0,0,0,0,-1,1700,1471,0,0
483,-447,0,0,0,0,0,0,0,0,0,-1,1707,1471,0,0
490,-447,18.2214,-0.810303,0,0,0,0,0,0,0,-1,1714,1471,18.2215,0.810307
497,-447,17.0237,0.352417,0,0,0,0,0,0,0,-1,1721,1471,17.0237,-0.352442
504,-447,15.8998,1.53479,0,0,0,0,0,0,0,-1,1728,1471,15.8997,-1.53478
511,-447,14.7201,2.76111,0,0,0,0,0,0,0,-1,1735,1471,14.7201,-2.76107
518,-447,17.7618,13.2864,0,0,0,0,0,0,0,-1,1742,1471,17.7619,-13.2863
525,-447,17.1191,11.9014,0,0,0,0,0,0,0,-1,1749,1471,17.1191,-11.9013
532,-447,16.3959,10.0455,0,0,0,0,0,0,0,-1,1756,1471,16.3959,-10.0456
539,-447,14.1699,10.0204,0,0,0,0,0,0,0,-1,1763,1471,14.1699,-10.0204
546,-447,16.3715,11.8046,0,0,0,0,0,0,0,-1,1770,1471,16.3714,-11.8046
553,-447,17.5106,13.4012,0,0,0,0,0,0,0,-1,1777,1471,17.5107,-13.4012
560,-447,17.0187,13.168,0,0,0,0,0,0,0,-1,1784,1471,17.0187,-13.168
567,-447,18.9286,15.1703,0,0,0,0,0,0,0,-1,1791,1471,18.9286,-15.1703
574,-447,27.774,23.3972,0,0,0,0,0,0,0,-1,1798,1471,27.774,-23.3972
581,-447,27.8496,22.3325,0,0,0,0,0,0,0,-1,1805,1471,27.8496,-22.3325
588,-447,28.0198,21.6707,0.00471191,0.00205213,-0.00248181,0.00619769,0.000566354,-0.539438,0.00395654,0.030415,1812,1471,28.0198,-21.6706
595,-447,28.0347,21.0193,0.00371803,0.00160508,-0.00204973,0.00496753,0.000355574,-0.547444,0.00319976,0.0131439,1819,1471,28.0346,-21.0193
602,-447,28.0093,20.3917,0.00305254,0.00110065,-0.00161379,0.00396253,0.000190652,-0.513444,0.00258049,0.0123065,1826,1471,28.0093,-20.3917
609,-447,27.9996,19.7887,0.00256029,0.000706925,-0.00123578,0.00317824,8.89698e-05,-0.463688,0.0020898,0.0141718,1833,1471,27.9997,-19.7887
616,-447,27.989,19.1774,0.00219558,0.000473103,-0.000977044,0.00263678,3.19032e-05,-0.424156,0.00174732,0.0153568,1840,1471,27.989,-19.1773
623,-447,27.9529,18.5667,0.00212661,0.000300309,-0.000808723,0.00243324,-6.32682e-06,-0.362413,0.00162427,0.016808,1847,1471,27.9529,-18.5667
630,-447,27.9141,17.9529,0.00227513,0.000217481,-0.00073405,0.00251016,-1.75417e-05,-0.309859,0.00167931,0.00989513,1854,1471,27.914,-17.9529
637,-447,27.8973,17.35,0.00248676,0.000290059,-0.000762944,0.00272574,5.10775e-05,-0.303556,0.00180038,0.0106184,1861,1471,27.8973,-17.35
644,-447,27.8948,16.7396,0.00288667,0.000598052,-0.000894781,0.00319497,0.000289751,-0.331815,0.00204027,0.0121606,1868,1471,27.8947,-16.7396
651,-447,27.9635,16.0771,0.00355228,0.00122902,-0.00128352,0.00412178,0.000659518,-0.417604,0.00255653,0.048461,1875,1471,27.9636,-16.0772
658,-447,28.1959,15.3085,0,0,0,0,0,0,0,-1,1882,1471,28.1959,-15.3085
665,-447,18.4946,9.79919,0,0,0,0,0,0,0,-1,1889,1471,18.4946,-9.79922
672,-447,18.9784,9.66077,0,0,0,0,0,0,0,-1,1896,1471,18.9784,-9.66081
679,-447,14.844,7.4248,0,0,0,0,0,0,0,-1,1903,1471,14.844,-7.42477
686,-447,9.81079,4.30859,0,0,0,0,0,0,0,-1,1910,1471,9.8108,-4.30864
693,-447,10.48,2.08643,0,0,0,0,0,0,0,-1,1917,1471,10.48,-2.08642
700,-447,0,0,0,0,0,0,0,0,0,-1,1924,1471,0,0
707,-447,0,0,0,0,0,0,0,0,0,-1,1931,1471,0,0
714,-447,0,0,0,0,0,0,0,0,0,-1,1938,1471,0,0
721,-447,0,0,0,0,0,0,0,0,0,-1,1945,1471,0,0
728,-447,0,0,0,0,0,0,0,0,0,-1,1952,1471,0,0
735,-447,0,0,0,0,0,0,0,0,0,-1,1959,1471,0,0
742,-447,0,0,0,0,0,0,0,0,0,-1,1966,1471,0,0
749,-447,0,0,0,0,0,0,0,0,0,-1,1973,1471,0,0
756,-447,0,0,0,0,0,0,0,0,0,-1,1980,1471,0,0
763,-447,0,0,0,0,0,0,0,0,0,-1,1987,1471,0,0
770,-447,0,0,0,0,0,0,0,0,0,-1,1994,1471,0,0
777,-447,0,0,0,0,0,0,0,0,0,-1,2001,1471,0,0
784,-447,0,0,0,0,0,0,0,0,0,-1,2008,1471,0,0
791,-447,0,0,0,0,0,0,0,0,0,-1,2015,1471,0,0
798,-447,0,0,0,0,0,0,0,0,0,-1,2022,1471,0,0
805,-447,0,0,0,0,0,0,0,0,0,-1,2029,1471,0,0
812,-447,0,0,0,0,0,0,0,0,0,-1,2036,1471,0,0
-700,-454,0,0,0,0,0,0,0,0,0,-1,524,1478,0,0
-693,-454,0,0,0,0,0,0,0,0,0,-1,531,1478,0,0
-686,-454,0,0,0,0,0,0,0,0,0,-1,538,1478,0,0
-679,-454,0,0,0,0,0,0,0,0,0,-1,545,1478,0,0
-672,-454,0,0,0,0,0,0,0,0,0,-1,552,1478,0,0
-665,-454,0,0,0,0,0,0,0,0,0,-1,559,1478,0,0
-658,-454,0,0,0,0,0,0,0,0,0,-1,566,1478,0,0
-651,-454,0,0,0,0,0,0,0,0,0,-1,573,1478,0,0
-644,-454,0,0,0,0,0,0,0,0,0,-1,580,1478,0,0
-637,-454,0,0,0,0,0,0,0,0,0,-1,587,1478,0,0
-630,-454,0,0,0,0,0,0,0,0,0,-1,594,1478,0,0
-623,-454,0,0,0,0,0,0,0,0,0,-1,601,1478,0,0
-616,-454,0,0,0,0,0,0,0,0,0,-1,608,1478,0,0
-609,-454,0,0,0,0,0,0,0,0,0,-1,615,1478,0,0
-602,-454,0,0,0,0,0,0,0,0,0,-1,622,1478,0,0
-595,-454,0,0,0,0,0,0,0,0,0,-1,629,1478,0,0
-588,-454,0,0,0,0,0,0,0,0,0,-1,636,1478,0,0
-581,-454,0,0,0,0,0,0,0,0,0,-1,643,1478,0,0
-574,-454,-8.4881,-0.465942,0,0,0,0,0,0,0,-1,650,1478,-8.4881,0.465885
-567,-454,-8.10046,0.922974,0,0,0,0,0,0,0,-1,657,1478,-8.10047,-0.923034
-560,-454,-10.656,3.51172,0,0,0,0,0,0,0,-1,664,1478,-10.656,-3.51176
-553,-454,-9.01129,3.95251,0,0,0,0,0,0,0,-1,671,1478,-9.0113,-3.95256
-546,-454,-9.61896,6.05237,0,0,0,0,0,0,0,-1,678,1478,-9.61897,-6.05239
-539,-454,-7.72589,4.96533,0,0,0,0,0,0,0,-1,685,1478,-7.72592,-4.96532
-532,-454,-7.03931,7.59985,0,0,0,0,0,0,0,-1,692,1478,-7.03929,-7.59981
-525,-454,-5.78723,9.677,0,0,0,0,0,0,0,-1,699,1478,-5.78722,-9.67703
-518,-454,-9.82098,13.8295,0,0,0,0,0,0,0,-1,706,1478,-9.82098,-13.8295
-511,-454,-10.5101,15.1873,0,0,0,0,0,0,0,-1,713,1478,-10.5101,-15.1872
-504,-454,-10.4717,15.9371,0.00274939,0.00107884,0.00254806,0.00459559,-0.000767359,0.627014,0.00334895,0.0188478,720,1478,-10.4717,-15.9372
-497,-454,-10.5073,16.6096,0.00211907,0.000571324,0.00184441,0.00334538,-0.000654982,0.586764,0.00247761,0.0194096,727,1478,-10.5073,-16.6096
-490,-454,-10.5021,17.2289,0.00169464,0.000343842,0.0013692,0.00254596,-0.000507483,0.556271,0.00188933,0.018233,734,1478,-10.5022,-17.2289
-483,-454,-10.5355,17.8569,0.0014986,0.000425206,0.00114311,0.00222473,-0.000300931,0.565921,0.00159297,0.0166391,741,1478,-10.5355,-17.8569
-476,-454,-10.5892,18.4749,0.00151268,0.000815154,0.0011755,0.00239006,-6.22267e-05,0.641187,0.00161452,0.0130543,748,1478,-10.5892,-18.4748
-469,-454,-10.6011,19.1517,0.00170655,0.00147553,0.00140562,0.0030014,0.000180684,0.744401,0.00194351,0.00975387,755,1478,-10.6012,-19.1517
-462,-454,-10.6259,19.8208,0.00216522,0.00238402,0.00187794,0.00415574,0.000393497,0.814493,0.00264909,0.0111541,762,1478,-10.6258,-19.8208
-455,-454,-10.6605,20.4634,0.00290038,0.00357592,0.00262443,0.00588422,0.000592072,0.849398,0.00374111,0.0124708,769,1478,-10.6605,-20.4634
-448,-454,-10.647,21.1466,0.004041,0.00532789,0.00383649,0.00857452,0.000794376,0.868484,0.00547081,0.0239784,776,1478,-10.647,-21.1466
-441,-454,-10.4962,21.9722,0,0,0,0,0,0,0,-1,783,1478,-10.4962,-21.9722
-434,-454,-7.55743,19.4857,0,0,0,0,0,0,0,-1,790,1478,-7.55746,-19.4858
-427,-454,-6.00183,15.8636,0,0,0,0,0,0,0,-1,797,1478,-6.00184,-15.8637
-420,-454,-6.28088,15.2135,0,0,0,0,0,0,0,-1,804,1478,-6.28087,-15.2135
-413,-454,-5.4408,13.674,0,0,0,0,0,0,0,-1,811,1478,-5.44079,-13.6739
-406,-454,-2.38208,10.0308,0,0,0,0,0,0,0,-1,818,1478,-2.38209,-10.0308
-399,-454,-1.21033,6.95447,0,0,0,0,0,0,0,-1,825,1478,-1.21035,-6.95452
-392,-454,0.0967407,0.985474,0,0,0,0,0,0,0,-1,832,1478,0.0967364,-0.985529
-385,-454,2.38629,3.297,0,0,0,0,0,0,0,-1,839,1478,2.38629,-3.29702
-378,-454,-15.9756,2.83997,0,0,0,0,0,0,0,-1,846,1478,-15.9756,-2.83994
-371,-454,-17.2753,2.01453,0,0,0,0,0,0,0,-1,853,1478,-17.2753,-2.01455
-364,-454,1.08124,0.819458,0,0,0,0,0,0,0,-1,860,1478,1.08124,-0.819513
-357,-454,0,0,0,0,0,0,0,0,0,-1,867,1478,0,0
-350,-454,0,0,0,0,0,0,0,0,0,-1,874,1478,0,0
-343,-454,0,0,0,0,0,0,0,0,0,-1,881,1478,0,0
-336,-454,0,0,0,0,0,0,0,0,0,-1,888,1478,0,0
-329,-454,0,0,0,0,0,0,0,0,0,-1,895,1478,0,0
-322,-454,0,0,0,0,0,0,0,0,0,-1,902,1478,0,0
-315,-454,0,0,0,0,0,0,0,0,0,-1,909,1478,0,0
-308,-454,0,0,0,0,0,0,0,0,0,-1,916,1478,0,0
-301,-454,0,0,0,0,0,0,0,0,0,-1,923,1478,0,0
-294,-454,0,0,0,0,0,0,0,0,0,-1,930,1478,0,0
-287,-454,0,0,0,0,0,0,0,0,0,-1,937,1478,0,0
-280,-454,0,0,0,0,0,0,0,0,0,-1,944,1478,0,0
-273,-454,0,0,0,0,0,0,0,0,0,-1,951,1478,0,0
-266,-454,0,0,0,0,0,0,0,0,0,-1,958,1478,0,0
-259,-454,0,0,0,0,0,0,0,0,0,-1,965,1478,0,0
-252,-454,0,0,0,0,0,0,0,0,0,-1,972,1478,0,0
-245,-454,0,0,0,0,0,0,0,0,0,-1,979,1478,0,0
-238,-454,0,0,0,0,0,0,0,0,0,-1,986,1478,0,0
-231,-454,0,0,0,0,0,0,0,0,0,-1,993,1478,0,0
-224,-454,0,0,0,0,0,0,0,0,0,-1,1000,1478,0,0
-217,-454,0,0,0,0,0,0,0,0,0,-1,1007,1478,0,0
-210,-454,0,0,0,0,0,0,0,0,0,-1,1014,1478,0,0
-203,-454,0,0,0,0,0,0,0,0,0,-1,1021,1478,0,0
-196,-454,0,0,0,0,0,0,0,0,0,-1,1028,1478,0,0
-189,-454,0,0,0,0,0,0,0,0,0,-1,1035,1478,0,0
-182,-454,0,0,0,0,0,0,0,0,0,-1,1042,1478,0,0
-175,-454,0,0,0,0,0,0,0,0,0,-1,1049,1478,0,0
-168,-454,0,0,0,0,0,0,0,0,0,-1,1056,1478,0,0
-161,-454,0,0,0,0,0,0,0,0,0,-1,1063,1478,0,0
-154,-454,0,0,0,0,0,0,0,0,0,-1,1070,1478,0,0
-147,-454,0,0,0,0,0,0,0,0,0,-1,1077,1478,0,0
-140,-454,0,0,0,0,0,0,0,0,0,-1,1084,1478,0,0
-133,-454,0,0,0,0,0,0,0,0,0,-1,1091,1478,0,0
-126,-454,0,0,0,0,0,0,0,0,0,-1,1098,1478,0,0
-119,-454,0,0,0,0,0,0,0,0,0,-1,1105,1478,0,0
-112,-454,0,0,0,0,0,0,0,0,0,-1,1112,1478,0,0
-105,-454,0,0,0,0,0,0,0,0,0,-1,1119,1478,0,0
-98,-454,0,0,0,0,0,0,0,0,0,-1,1126,1478,0,0
-91,-454,0,0,0,0,0,0,0,0,0,-1,1133,1478,0,0
-84,-454,0,0,0,0,0,0,0,0,0,-1,1140,1478,0,0
-77,-454,0,0,0,0,0,0,0,0,0,-1,1147,1478,0,0
-70,-454,0,0,0,0,0,0,0,0,0,-1,1154,1478,0,0
-63,-454,0,0,0,0,0,0,0,0,0,-1,1161,1478,0,0
-56,-454,0,0,0,0,0,0,0,0,0,-1,1168,1478,0,0
-49,-454,0,0,0,0,0,0,0,0,0,-1,1175,1478,0,0
-42,-454,0,0,0,0,0,0,0,0,0,-1,1182,1478,0,0
-35,-454,0,0,0,0,0,0,0,0,0,-1,1189,1478,0,0
-28,-454,0,0,0,0,0,0,0,0,0,-1,1196,1478,0,0
-21,-454,0,0,0,0,0,0,0,0,0,-1,1203,1478,0,0
-14,-454,0,0,0,0,0,0,0,0,0,-1,1210,1478,0,0
-7,-454,0,0,0,0,0,0,0,0,0,-1,1217,1478,0,0
0,-454,0,0,0,0,0,0,0,0,0,-1,1224,1478,0,0
7,-454,0,0,0,0,0,0,0,0,0,-1,1231,1478,0,0
14,-454,0,0,0,0,0,0,0,0,0,-1,1238,1478,0,0
21,-454,0,0,0,0,0,0,0,0,0,-1,1245,1478,0,0
28,-454,0,0,0,0,0,0,0,0,0,-1,1252,1478,0,0
35,-454,0,0,0,0,0,0,0,0,0,-1,1259,1478,0,0
42,-454,0,0,0,0,0,0,0,0,0,-1,1266,1478,0,0
49,-454,0,0,0,0,0,0,0,0,0,-1,1273,1478,0,0
56,-454,0,0,0,0,0,0,0,0,0,-1,1280,1478,0,0
63,-454,0,0,0,0,0,0,0,0,0,-1,1287,1478,0,0
70,-454,0,0,0,0,0,0,0,0,0,-1,1294,1478,0,0
77,-454,0,0,0,0,0,0,0,0,0,-1,1301,1478,0,0
84,-454,0,0,0,0,0,0,0,0,0,-1,1308,1478,0,0
91,-454,0,0,0,0,0,0,0,0,0,-1,1315,1478,0,0
98,-454,0,0,0,0,0,0,0,0,0,-1,1322,1478,0,0
105,-454,0,0,0,0,0,0,0,0,0,-1,1329,1478,0,0
112,-454,0,0,0,0,0,0,0,0,0,-1,1336,1478,0,0
119,-454,0,0,0,0,0,0,0,0,0,-1,1343,1478,0,0
126,-454,0,0,0,0,0,0,0,0,0,-1,1350,1478,0,0
133,-454,0,0,0,0,0,0,0,0,0,-1,1357,1478,0,0
140,-454,0,0,0,0,0,0,0,0,0,-1,1364,1478,0,0
147,-454,0,0,0,0,0,0,0,0,0,-1,1371,1478,0,0
154,-454,0,0,0,0,0,0,0,0,0,-1,1378,1478,0,0
161,-454,0,0,0,0,0,0,0,0,0,-1,1385,1478,0,0
168,-454,0,0,0,0,0,0,0,0,0,-1,1392,1478,0,0
175,-454,0,0,0,0,0,0,0,0,0,-1,1399,1478,0,0
182,-454,0,0,0,0,0,0,0,0,0,-1,1406,1478,0,0
189,-454,0,0,0,0,0,0,0,0,0,-1,1413,1478,0,0
196,-454,0,0,0,0,0,0,0,0,0,-1,1420,1478,0,0
203,-454,0,0,0,0,0,0,0,0,0,-1,1427,1478,0,0
210,-454,0,0,0,0,0,0,0,0,0,-1,1434,1478,0,0
217,-454,0,0,0,0,0,0,0,0,0,-1,1441,1478,0,0
224,-454,0,0,0,0,0,0,0,0,0,-1,1448,1478,0,0
231,-454,0,0,0,0,0,0,0,0,0,-1,1455,1478,0,0
238,-454,0,0,0,0,0,0,0,0,0,-1,1462,1478,0,0
245,-454,0,0,0,0,0,0,0,0,0,-1,1469,1478,0,0
252,-454,0,0,0,0,0,0,0,0,0,-1,1476,1478,0,0
259,-454,0,0,0,0,0,0,0,0,0,-1,1483,1478,0,0
266,-454,0,0,0,0,0,0,0,0,0,-1,1490,1478,0,0
273,-454,0,0,0,0,0,0,0,0,0,-1,1497,1478,0,0
280,-454,0,0,0,0,0,0,0,0,0,-1,1504,1478,0,0
287,-454,0,0,0,0,0,0,0,0,0,-1,1511,1478,0,0
294,-454,0,0,0,0,0,0,0,0,0,-1,1518,1478,0,0
301,-454,0,0,0,0,0,0,0,0,0,-1,1525,1478,0,0
308,-454,0,0,0,0,0,0,0,0,0,-1,1532,1478,0,0
315,-454,0,0,0,0,0,0,0,0,0,-1,1539,1478,0,0
322,-454,0,0,0,0,0,0,0,0,0,-1,1546,1478,0,0
329,-454,0,0,0,0,0,0,0,0,0,-1,1553,1478,0,0
336,-454,0,0,0,0,0,0,0,0,0,-1,1560,1478,0,0
343,-454,0,0,0,0,0,0,0,0,0,-1,1567,1478,0,0
350,-454,0,0,0,0,0,0,0,0,0,-1,1574,1478,0,0
357,-454,0,0,0,0,0,0,0,0,0,-1,1581,1478,0,0
364,-454,0,0,0,0,0,0,0,0,0,-1,1588,1478,0,0
371,-454,0,0,0,0,0,0,0,0,0,-1,1595,1478,0,0
378,-454,0,0,0,0,0,0,0,0,0,-1,1602,1478,0,0
385,-454,0,0,0,0,0,0,0,0,0,-1,1609,1478,0,0
392,-454,0,0,0,0,0,0,0,0,0,-1,1616,1478,0,0
399,-454,0,0,0,0,0,0,0,0,0,-1,1623,1478,0,0
406,-454,0,0,0,0,0,0,0,0,0,-1,1630,1478,0,0
413,-454,0,0,0,0,0,0,0,0,0,-1,1637,1478,0,0
420,-454,0,0,0,0,0,0,0,0,0,-1,1644,1478,0,0
427,-454,0,0,0,0,0,0,0,0,0,-1,1651,1478,0,0
434,-454,0,0,0,0,0,0,0,0,0,-1,1658,1478,0,0
441,-454,0,0,0,0,0,0,0,0,0,-1,1665,1478,0,0
448,-454,0,0,0,0,0,0,0,0,0,-1,1672,1478,0,0
455,-454,0,0,0,0,0,0,0,0,0,-1,1679,1478,0,0
462,-454,0,0,0,0,0,0,0,0,0,-1,1686,1478,0,0
469,-454,0,0,0,0,0,0,0,0,0,-1,1693,1478,0,0
476,-454,0,0,0,0,0,0,0,0,0,-1,1700,1478,0,0
483,-454,14.2399,3.97498,0,0,0,0,0,0,0,-1,1707,1478,14.2399,-3.97502
490,-454,18.1821,-0.175781,0,0,0,0,0,0,0,-1,1714,1478,18.1821,0.175822
497,-454,16.8854,1.01208,0,0,0,0,0,0,0,-1,1721,1478,16.8854,-1.01209
504,-454,15.587,2.05994,0,0,0,0,0,0,0,-1,1728,1478,15.5871,-2.05998
511,-454,17.0273,14.5258,0,0,0,0,0,0,0,-1,1735,1478,17.0273,-14.5258
518,-454,16.4158,13.1039,0,0,0,0,0,0,0,-1,1742,1478,16.4157,-13.1038
525,-454,15.7842,11.6628,0,0,0,0,0,0,0,-1,1749,1478,15.7841,-11.6629
532,-454,15.1094,10.2476,0,0,0,0,0,0,0,-1,1756,1478,15.1094,-10.2475
539,-454,13.7905,10.9373,0,0,0,0,0,0,0,-1,1763,1478,13.7906,-10.9372
546,-454,16.2002,13.2458,0,0,0,0,0,0,0,-1,1770,1478,16.2002,-13.2459
553,-454,15.6747,12.1868,0,0,0,0,0,0,0,-1,1777,1478,15.6747,-12.1868
560,-454,16.3895,14.0527,0,0,0,0,0,0,0,-1,1784,1478,16.3895,-14.0528
567,-454,27.5768,23.4535,0,0,0,0,0,0,0,-1,1791,1478,27.5768,-23.4535
574,-454,27.4618,22.9766,0.00606984,0.00267744,-0.00264522,0.00751598,0.0012313,-0.500305,0.00465482,0.0456611,1798,1478,27.4617,-22.9766
581,-454,27.421,22.2848,0.00498029,0.00231718,-0.00237689,0.00637319,0.000924278,-0.530074,0.00397667,0.0273502,1805,1478,27.421,-22.2847
588,-454,27.4824,21.624,0.00403125,0.00185803,-0.002037,0.00525334,0.000635941,-0.540379,0.00331067,0.0138788,1812,1478,27.4824,-21.6241
595,-454,27.4181,21.0231,0.00324323,0.00143758,-0.00169253,0.00425867,0.000422137,-0.540386,0.00270939,0.0121082,1819,1478,27.4181,-21.0231
602,-454,27.3926,20.4116,0.00270981,0.000997783,-0.0013735,0.00347221,0.000235387,-0.506733,0.00224047,0.00913057,1826,1478,27.3926,-20.4117
609,-454,27.3845,19.8058,0.00233838,0.00066478,-0.00108197,0.00286938,0.000133776,-0.456242,0.00186993,0.0111602,1833,1478,27.3846,-19.8057
616,-454,27.3573,19.1862,0.00210254,0.000459226,-0.000879519,0.00248449,7.72744e-05,-0.409699,0.00163118,0.013785,1840,1478,27.3573,-19.1861
623,-454,27.3389,18.5895,0.00215693,0.000273657,-0.000735944,0.00241041,2.01818e-05,-0.331697,0.00160025,0.0140089,1847,1478,27.3389,-18.5895
630,-454,27.3374,17.999,0.00242687,0.000189245,-0.000665624,0.00260991,6.21437e-06,-0.268344,0.00173787,0.0136537,1854,1478,27.3374,-17.9991
637,-454,27.2795,17.3998,0.00280578,0.000235332,-0.000710922,0.0029893,5.18112e-05,-0.252629,0.00197582,0.0120537,1861,1478,27.2795,-17.3998
644,-454,27.334,16.7428,0.00344759,0.00053274,-0.000947254,0.00372838,0.000251954,-0.28817,0.002406,0.0223347,1868,1478,27.334,-16.7427
651,-454,27.4752,15.9802,0,0,0,0,0,0,0,-1,1875,1478,27.4752,-15.9803
658,-454,17.2583,10.0765,0,0,0,0,0,0,0,-1,1882,1478,17.2583,-10.0765
665,-454,17.683,9.67566,0,0,0,0,0,0,0,-1,1889,1478,17.683,-9.67572
672,-454,16.5476,6.41931,0,0,0,0,0,0,0,-1,1896,1478,16.5476,-6.41929
679,-454,14.2161,5.45007,0,0,0,0,0,0,0,-1,1903,1478,14.2161,-5.45013
686,-454,10.3767,2.12842,0,0,0,0,0,0,0,-1,1910,1478,10.3767,-2.12839
693,-454,11.1857,1.48486,0,0,0,0,0,0,0,-1,1917,1478,11.1857,-1.48487
700,-454,0,0,0,0,0,0,0,0,0,-1,1924,1478,0,0
707,-454,0,0,0,0,0,0,0,0,0,-1,1931,1478,0,0
714,-454,0,0,0,0,0,0,0,0,0,-1,1938,1478,0,0
721,-454,0,0,0,0,0,0,0,0,0,-1,1945,1478,0,0
728,-454,0,0,0,0,0,0,0,0,0,-1,1952,1478,0,0
735,-454,0,0,0,0,0,0,0,0,0,-1,1959,1478,0,0
742,-454,0,0,0,0,0,0,0,0,0,-1,1966,1478,0,0
749,-454,0,0,0,0,0,0,0,0,0,-1,1973,1478,0,0
756,-454,0,0,0,0,0,0,0,0,0,-1,1980,1478,0,0
763,-454,0,0,0,0,0,0,0,0,0,-1,1987,1478,0,0
770,-454,0,0,0,0,0,0,0,0,0,-1,1994,1478,0,0
777,-454,0,0,0,0,0,0,0,0,0,-1,2001,1478,0,0
784,-454,0,0,0,0,0,0,0,0,0,-1,2008,1478,0,0
791,-454,0,0,0,0,0,0,0,0,0,-1,2015,1478,0,0
798,-454,0,0,0,0,0,0,0,0,0,-1,2022,1478,0,0
805,-454,0,0,0,0,0,0,0,0,0,-1,2029,1478,0,0
812,-454,0,0,0,0,0,0,0,0,0,-1,2036,1478,0,0
-700,-461,0,0,0,0,0,0,0,0,0,-1,524,1485,0,0
-693,-461,0,0,0,0,0,0,0,0,0,-1,531,1485,0,0
-686,-461,0,0,0,0,0,0,0,0,0,-1,538,1485,0,0
-679,-461,0,0,0,0,0,0,0,0,0,-1,545,1485,0,0
-672,-461,0,0,0,0,0,0,0,0,0,-1,552,1485,0,0
-665,-461,0,0,0,0,0,0,0,0,0,-1,559,1485,0,0
-658,-461,0,0,0,0,0,0,0,0,0,-1,566,1485,0,0
-651,-461,0,0,0,0,0,0,0,0,0,-1,573,1485,0,0
-644,-461,0,0,0,0,0,0,0,0,0,-1,580,1485,0,0
-637,-461,0,0,0,0,0,0,0,0,0,-1,587,1485,0,0
-630,-461,0,0,0,0,0,0,0,0,0,-1,594,1485,0,0
-623,-461,0,0,0,0,0,0,0,0,0,-1,601,1485,0,0
-616,-461,0,0,0,0,0,0,0,0,0,-1,608,1485,0,0
-609,-461,0,0,0,0,0,0,0,0,0,-1,615,1485,0,0
-602,-461,0,0,0,0,0,0,0,0,0,-1,622,1485,0,0
-595,-461,0,0,0,0,0,0,0,0,0,-1,629,1485,0,0
-588,-461,0,0,0,0,0,0,0,0,0,-1,636,1485,0,0
-581,-461,0,0,0,0,0,0,0,0,0,-1,643,1485,0,0
-574,-461,0,0,0,0,0,0,0,0,0,-1,650,1485,0,0
-567,-461,-9.69031,0.513306,0,0,0,0,0,0,0,-1,657,1485,-9.69032,-0.513305
-560,-461,-7.28815,1.54004,0,0,0,0,0,0,0,-1,664,1485,-7.28817,-1.54005
-553,-461,-11.9607,5.27783,0,0,0,0,0,0,0,-1,671,1485,-11.9607,-5.27778
-546,-461,-11.4215,4.44666,0,0,0,0,0,0,0,-1,678,1485,-11.4215,-4.4467
-539,-461,-9.36493,5.23438,0,0,0,0,0,0,0,-1,685,1485,-9.3649,-5.23432
-532,-461,-7.82898,6.78357,0,0,0,0,0,0,0,-1,692,1485,-7.829,-6.78363
-525,-461,-6.37878,8.75659,0,0,0,0,0,0,0,-1,699,1485,-6.3788,-8.75659
-518,-461,-6.49695,10.886,0,0,0,0,0,0,0,-1,706,1485,-6.49696,-10.8859
-511,-461,-10.1459,15.1021,0,0,0,0,0,0,0,-1,713,1485,-10.1459,-15.102
-504,-461,-9.91803,15.8373,0.00271891,0.000956299,0.00279195,0.00476535,-0.00109013,0.632517,0.00359579,0.034978,720,1485,-9.91801,-15.8373
-497,-461,-9.83368,16.6147,0.00188306,0.000378494,0.00191014,0.00318372,-0.000922164,0.597807,0.00248751,0.0109052,727,1485,-9.8337,-16.6148
-490,-461,-9.85254,17.2632,0.00132902,6.26838e-05,0.00129414,0.00213658,-0.000744878,0.55789,0.00172708,0.0127814,734,1485,-9.85253,-17.2632
-483,-461,-9.89728,17.8987,0.00109381,8.93853e-05,0.000993778,0.00170506,-0.000521872,0.551437,0.00134485,0.0128588,741,1485,-9.89727,-17.8987
-476,-461,-9.94934,18.535,0.00112673,0.000407317,0.000969003,0.00180064,-0.000266588,0.607674,0.00129844,0.0107188,748,1485,-9.94936,-18.535
-469,-461,-9.9588,19.1865,0.00138527,0.000986209,0.0011642,0.00236691,4.56849e-06,0.700529,0.00157642,0.0121811,755,1485,-9.95882,-19.1865
-462,-461,-9.97174,19.8457,0.00190897,0.00178111,0.00158602,0.00343235,0.000257733,0.765255,0.00220734,0.0188014,762,1485,-9.97173,-19.8457
-455,-461,-10.0392,20.485,0.00268957,0.00283055,0.00225278,0.00501394,0.000506178,0.801038,0.00318733,0.023579,769,1485,-10.0392,-20.485
-448,-461,-10.0273,21.1394,0.00386726,0.00436892,0.00334712,0.0074746,0.000761585,0.822798,0.0047496,0.0210531,776,1485,-10.0273,-21.1394
-441,-461,-9.93823,21.9104,0.00546891,0.0061047,0.00475553,0.010553,0.00102066,0.818772,0.00672096,0.0377413,783,1485,-9.93824,-21.9104
-434,-461,-9.74213,22.8811,0,0,0,0,0,0,0,-1,790,1485,-9.74215,-22.8811
-427,-461,-8.26154,21.546,0,0,0,0,0,0,0,-1,797,1485,-8.26153,-21.5461
-420,-461,-5.70355,16.6116,0,0,0,0,0,0,0,-1,804,1485,-5.70353,-16.6115
-413,-461,-5.98798,16.0605,0,0,0,0,0,0,0,-1,811,1485,-5.98796,-16.0605
-406,-461,-5.52667,14.839,0,0,0,0,0,0,0,-1,818,1485,-5.52666,-14.839
-399,-461,-1.93439,9.82849,0,0,0,0,0,0,0,-1,825,1485,-1.9344,-9.82846
-392,-461,-0.357544,5.55225,0,0,0,0,0,0,0,-1,832,1485,-0.357536,-5.55228
-385,-461,1.71509,3.35254,0,0,0,0,0,0,0,-1,839,1485,1.71511,-3.35255
-378,-461,1.95996,3.01111,0,0,0,0,0,0,0,-1,846,1485,1.95993,-3.01111
-371,-461,0.702881,2.33459,0,0,0,0,0,0,0,-1,853,1485,0.702859,-2.33459
-364,-461,-1.93097,2.56458,0,0,0,0,0,0,0,-1,860,1485,-1.93095,-2.56456
-357,-461,-2.41516,3.49487,0,0,0,0,0,0,0,-1,867,1485,-2.41517,-3.49487
-350,-461,0,0,0,0,0,0,0,0,0,-1,874,1485,0,0
-343,-461,0,0,0,0,0,0,0,0,0,-1,881,1485,0,0
-336,-461,0,0,0,0,0,0,0,0,0,-1,888,1485,0,0
-329,-461,0,0,0,0,0,0,0,0,0,-1,895,1485,0,0
-322,-461,0,0,0,0,0,0,0,0,0,-1,902,1485,0,0
-315,-461,0,0,0,0,0,0,0,0,0,-1,909,1485,0,0
-308,-461,0,0,0,0,0,0,0,0,0,-1,916,1485,0,0
-301,-461,0,0,0,0,0,0,0,0,0,-1,923,1485,0,0
-294,-461,0,0,0,0,0,0,0,0,0,-1,930,1485,0,0
-287,-461,0,0,0,0,0,0,0,0,0,-1,937,1485,0,0
-280,-461,0,0,0,0,0,0,0,0,0,-1,944,1485,0,0
-273,-461,0,0,0,0,0,0,0,0,0,-1,951,1485,0,0
-266,-461,0,0,0,0,0,0,0,0,0,-1,958,1485,0,0
-259,-461,0,0,0,0,0,0,0,0,0,-1,965,1485,0,0
-252,-461,0,0,0,0,0,0,0,0,0,-1,972,1485,0,0
-245,-461,0,0,0,0,0,0,0,0,0,-1,979,1485,0,0
-238,-461,0,0,0,0,0,0,0,0,0,-1,986,1485,0,0
-231,-461,0,0,0,0,0,0,0,0,0,-1,993,1485,0,0
-224,-461,0,0,0,0,0,0,0,0,0,-1,1000,1485,0,0
-217,-461,0,0,0,0,0,0,0,0,0,-1,1007,1485,0,0
-210,-461,0,0,0,0,0,0,0,0,0,-1,1014,1485,0,0
-203,-461,0,0,0,0,0,0,0,0,0,-1,1021,1485,0,0
-196,-461,0,0,0,0,0,0,0,0,0,-1,1028,1485,0,0
-189,-461,0,0,0,0,0,0,0,0,0,-1,1035,1485,0,0
-182,-461,0,0,0,0,0,0,0,0,0,-1,1042,1485,0,0
-175,-461,0,0,0,0,0,0,0,0,0,-1,1049,1485,0,0
-168,-461,0,0,0,0,0,0,0,0,0,-1,1056,1485,0,0
-161,-461,0,0,0,0,0,0,0,0,0,-1,1063,1485,0,0
-154,-461,0,0,0,0,0,0,0,0,0,-1,1070,1485,0,0
-147,-461,0,0,0,0,0,0,0,0,0,-1,1077,1485,0,0
-140,-461,0,0,0,0,0,0,0,0,0,-1,1084,1485,0,0
-133,-461,0,0,0,0,0,0,0,0,0,-1,1091,1485,0,0
-126,-461,0,0,0,0,0,0,0,0,0,-1,1098,1485,0,0
-119,-461,0,0,0,0,0,0,0,0,0,-1,1105,1485,0,0
-112,-461,0,0,0,0,0,0,0,0,0,-1,1112,1485,0,0
-105,-461,0,0,0,0,0,0,0,0,0,-1,1119,1485,0,0
-98,-461,0,0,0,0,0,0,0,0,0,-1,1126,1485,0,0
-91,-461,0,0,0,0,0,0,0,0,0,-1,1133,1485,0,0
-84,-461,0,0,0,0,0,0,0,0,0,-1,1140,1485,0,0
-77,-461,0,0,0,0,0,0,0,0,0,-1,1147,1485,0,0
-70,-461,0,0,0,0,0,0,0,0,0,-1,1154,1485,0,0
-63,-461,0,0,0,0,0,0,0,0,0,-1,1161,1485,0,0
-56,-461,0,0,0,0,0,0,0,0,0,-1,1168,1485,0,0
-49,-461,0,0,0,0,0,0,0,0,0,-1,1175,1485,0,0
-42,-461,0,0,0,0,0,0,0,0,0,-1,1182,1485,0,0
-35,-461,0,0,0,0,0,0,0,0,0,-1,1189,1485,0,0
-28,-461,0,0,0,0,0,0,0,0,0,-1,1196,1485,0,0
-21,-461,0,0,0,0,0,0,0,0,0,-1,1203,1485,0,0
-14,-461,0,0,0,0,0,0,0,0,0,-1,1210,1485,0,0
-7,-461,0,0,0,0,0,0,0,0,0,-1,1217,1485,0,0
0,-461,0,0,0,0,0,0,0,0,0,-1,1224,1485,0,0
7,-461,0,0,0,0,0,0,0,0,0,-1,1231,1485,0,0
14,-461,0,0,0,0,0,0,0,0,0,-1,1238,1485,0,0
21,-461,0,0,0,0,0,0,0,0,0,-1,1245,1485,0,0
28,-461,0,0,0,0,0,0,0,0,0,-1,1252,1485,0,0
35,-461,0,0,0,0,0,0,0,0,0,-1,1259,1485,0,0
42,-461,0,0,0,0,0,0,0,0,0,-1,1266,1485,0,0
49,-461,0,0,0,0,0,0,0,0,0,-1,1273,1485,0,0
56,-461,0,0,0,0,0,0,0,0,0,-1,1280,1485,0,0
63,-461,0,0,0,0,0,0,0,0,0,-1,1287,1485,0,0
70,-461,0,0,0,0,0,0,0,0,0,-1,1294,1485,0,0
77,-461,0,0,0,0,0,0,0,0,0,-1,1301,1485,0,0
84,-461,0,0,0,0,0,0,0,0,0,-1,1308,1485,0,0
91,-461,0,0,0,0,0,0,0,0,0,-1,1315,1485,0,0
98,-461,0,0,0,0,0,0,0,0,0,-1,1322,1485,0,0
105,-461,0,0,0,0,0,0,0,0,0,-1,1329,1485,0,0
112,-461,0,0,0,0,0,0,0,0,0,-1,1336,1485,0,0
119,-461,0,0,0,0,0,0,0,0,0,-1,1343,1485,0,0
126,-461,0,0,0,0,0,0,0,0,0,-1,1350,1485,0,0
133,-461,0,0,0,0,0,0,0,0,0,-1,1357,1485,0,0
140,-461,0,0,0,0,0,0,0,0,0,-1,1364,1485,0,0
147,-461,0,0,0,0,0,0,0,0,0,-1,1371,1485,0,0
154,-461,0,0,0,0,0,0,0,0,0,-1,1378,1485,0,0
161,-461,0,0,0,0,0,0,0,0,0,-1,1385,1485,0,0
168,-461,0,0,0,0,0,0,0,0,0,-1,1392,1485,0,0
175,-461,0,0,0,0,0,0,0,0,0,-1,1399,1485,0,0
182,-461,0,0,0,0,0,0,0,0,0,-1,1406,1485,0,0
189,-461,0,0,0,0,0,0,0,0,0,-1,1413,1485,0,0
196,-461,0,0,0,0,0,0,0,0,0,-1,1420,1485,0,0
203,-461,0,0,0,0,0,0,0,0,0,-1,1427,1485,0,0
210,-461,0,0,0,0,0,0,0,0,0,-1,1434,1485,0,0
217,-461,0,0,0,0,0,0,0,0,0,-1,1441,1485,0,0
224,-461,0,0,0,0,0,0,0,0,0,-1,1448,1485,0,0
231,-461,0,0,0,0,0,0,0,0,0,-1,1455,1485,0,0
238,-461,0,0,0,0,0,0,0,0,0,-1,1462,1485,0,0
245,-461,0,0,0,0,0,0,0,0,0,-1,1469,1485,0,0
252,-461,0,0,0,0,0,0,0,0,0,-1,1476,1485,0,0
259,-461,0,0,0,0,0,0,0,0,0,-1,1483,1485,0,0
266,-461,0,0,0,0,0,0,0,0,0,-1,1490,1485,0,0
273,-461,0,0,0,0,0,0,0,0,0,-1,1497,1485,0,0
280,-461,0,0,0,0,0,0,0,0,0,-1,1504,1485,0,0
287,-461,0,0,0,0,0,0,0,0,0,-1,1511,1485,0,0
294,-461,0,0,0,0,0,0,0,0,0,-1,1518,1485,0,0
301,-461,0,0,0,0,0,0,0,0,0,-1,1525,1485,0,0
308,-461,0,0,0,0,0,0,0,0,0,-1,1532,1485,0,0
315,-461,0,0,0,0,0,0,0,0,0,-1,1539,1485,0,0
322,-461,0,0,0,0,0,0,0,0,0,-1,1546,1485,0,0
329,-461,0,0,0,0,0,0,0,0,0,-1,1553,1485,0,0
336,-461,0,0,0,0,0,0,0,0,0,-1,1560,1485,0,0
343,-461,0,0,0,0,0,0,0,0,0,-1,1567,1485,0,0
350,-461,0,0,0,0,0,0,0,0,0,-1,1574,1485,0,0
357,-461,0,0,0,0,0,0,0,0,0,-1,1581,1485,0,0
364,-461,0,0,0,0,0,0,0,0,0,-1,1588,1485,0,0
371,-461,0,0,0,0,0,0,0,0,0,-1,1595,1485,0,0
378,-461,0,0,0,0,0,0,0,0,0,-1,1602,1485,0,0
385,-461,0,0,0,0,0,0,0,0,0,-1,1609,1485,0,0
392,-461,0,0,0,0,0,0,0,0,0,-1,1616,1485,0,0
399,-461,0,0,0,0,0,0,0,0,0,-1,1623,1485,0,0
406,-461,0,0,0,0,0,0,0,0,0,-1,1630,1485,0,0
413,-461,0,0,0,0,0,0,0,0,0,-1,1637,1485,0,0
420,-461,0,0,0,0,0,0,0,0,0,-1,1644,1485,0,0
427,-461,0,0,0,0,0,0,0,0,0,-1,1651,1485,0,0
434,-461,0,0,0,0,0,0,0,0,0,-1,1658,1485,0,0
441,-461,0,0,0,0,0,0,0,0,0,-1,1665,1485,0,0
448,-461,0,0,0,0,0,0,0,0,0,-1,1672,1485,0,0
455,-461,0,0,0,0,0,0,0,0,0,-1,1679,1485,0,0
462,-461,0,0,0,0,0,0,0,0,0,-1,1686,1485,0,0
469,-461,0,0,0,0,0,0,0,0,0,-1,1693,1485,0,0
476,-461,14.1906,0.690552,0,0,0,0,0,0,0,-1,1700,1485,14.1906,-0.690525
483,-461,10.6361,3.09106,0,0,0,0,0,0,0,-1,1707,1485,10.6361,-3.091
490,-461,17.9972,0.665894,0,0,0,0,0,0,0,-1,1714,1485,17.9972,-0.665876
497,-461,16.6829,1.87732,0,0,0,0,0,0,0,-1,1721,1485,16.6828,-1.87736
504,-461,15.3884,3.09216,0,0,0,0,0,0,0,-1,1728,1485,15.3885,-3.09212
511,-461,15.4292,14.3512,0,0,0,0,0,0,0,-1,1735,1485,15.4292,-14.3512
518,-461,14.8081,10.0085,0,0,0,0,0,0,0,-1,1742,1485,14.8081,-10.0086
525,-461,14.0022,10.8033,0,0,0,0,0,0,0,-1,1749,1485,14.0022,-10.8033
532,-461,17.1704,14.077,0,0,0,0,0,0,0,-1,1756,1485,17.1704,-14.077
539,-461,17.0229,14.7386,0,0,0,0,0,0,0,-1,1763,1485,17.0229,-14.7387
546,-461,16.2106,14.1372,0,0,0,0,0,0,0,-1,1770,1485,16.2106,-14.1372
553,-461,25.9354,24.2889,0,0,0,0,0,0,0,-1,1777,1485,25.9354,-24.2889
560,-461,26.9019,24.0526,0,0,0,0,0,0,0,-1,1784,1485,26.9018,-24.0526
567,-461,26.9141,23.3835,0.00628281,0.00302002,-0.00247916,0.00761919,0.00168364,-0.494394,0.00462163,0.0345546,1791,1485,26.914,-23.3835
574,-461,26.9126,22.8639,0.00513759,0.00240906,-0.00218029,0.00634526,0.00120138,-0.505837,0.00389202,0.0304932,1798,1485,26.9127,-22.8638
581,-461,26.8951,22.2527,0.00421226,0.00201916,-0.00194399,0.00534764,0.000883778,-0.528607,0.00331007,0.017664,1805,1485,26.8951,-22.2527
588,-461,26.871,21.6742,0.00344073,0.0015879,-0.00166733,0.00442174,0.000606902,-0.531821,0.00276779,0.0113447,1812,1485,26.871,-21.6742
595,-461,26.8164,21.0712,0.00286915,0.00120086,-0.00140366,0.00366781,0.000402199,-0.517303,0.00232278,0.00932917,1819,1485,26.8164,-21.0712
602,-461,26.8002,20.4414,0.00248775,0.000826239,-0.0011844,0.0031037,0.000210288,-0.479561,0.00200272,0.00999663,1826,1485,26.8001,-20.4413
609,-461,26.7864,19.8203,0.00224083,0.000549512,-0.00096953,0.00268169,0.000108653,-0.426766,0.0017527,0.0113107,1833,1485,26.7863,-19.8203
616,-461,26.7611,19.1958,0.00213262,0.000365112,-0.000812307,0.00244923,4.85065e-05,-0.371648,0.00161689,0.0131627,1840,1485,26.7612,-19.1959
623,-461,26.7482,18.623,0.00229289,0.000165871,-0.000687355,0.00249568,-3.69162e-05,-0.286887,0.00167623,0.0155373,1847,1485,26.7481,-18.623
630,-461,26.7318,18.0619,0.00266712,7.75132e-05,-0.000622922,0.00280917,-6.45367e-05,-0.224204,0.00189466,0.0154771,1854,1485,26.7318,-18.0619
637,-461,26.6873,17.4448,0.00323381,9.83389e-05,-0.000678701,0.00337441,-4.22669e-05,-0.204279,0.00226383,0.0145501,1861,1485,26.6873,-17.4449
644,-461,26.7446,16.8887,0.00407449,0.000345062,-0.000915491,0.0042871,0.00013245,-0.228193,0.00281496,0.0289207,1868,1485,26.7447,-16.8887
651,-461,26.8352,16.3027,0,0,0,0,0,0,0,-1,1875,1485,26.8352,-16.3027
658,-461,16.8987,10.1084,0,0,0,0,0,0,0,-1,1882,1485,16.8986,-10.1084
665,-461,17.2638,9.81384,0,0,0,0,0,0,0,-1,1889,1485,17.2638,-9.81385
672,-461,14.4877,6.89429,0,0,0,0,0,0,0,-1,1896,1485,14.4876,-6.89431
679,-461,10.0535,2.16321,0,0,0,0,0,0,0,-1,1903,1485,10.0535,-2.16317
686,-461,10.8195,1.84192,0,0,0,0,0,0,0,-1,1910,1485,10.8194,-1.84195
693,-461,0,0,0,0,0,0,0,0,0,-1,1917,1485,0,0
700,-461,0,0,0,0,0,0,0,0,0,-1,1924,1485,0,0
707,-461,0,0,0,0,0,0,0,0,0,-1,1931,1485,0,0
714,-461,0,0,0,0,0,0,0,0,0,-1,1938,1485,0,0
721,-461,0,0,0,0,0,0,0,0,0,-1,1945,1485,0,0
728,-461,0,0,0,0,0,0,0,0,0,-1,1952,1485,0,0
735,-461,0,0,0,0,0,0,0,0,0,-1,1959,1485,0,0
742,-461,0,0,0,0,0,0,0,0,0,-1,1966,1485,0,0
749,-461,0,0,0,0,0,0,0,0,0,-1,1973,1485,0,0
756,-461,0,0,0,0,0,0,0,0,0,-1,1980,1485,0,0
763,-461,0,0,0,0,0,0,0,0,0,-1,1987,1485,0,0
770,-461,0,0,0,0,0,0,0,0,0,-1,1994,1485,0,0
777,-461,0,0,0,0,0,0,0,0,0,-1,2001,1485,0,0
784,-461,0,0,0,0,0,0,0,0,0,-1,2008,1485,0,0
791,-461,0,0,0,0,0,0,0,0,0,-1,2015,1485,0,0
798,-461,0,0,0,0,0,0,0,0,0,-1,2022,1485,0,0
805,-461,0,0,0,0,0,0,0,0,0,-1,2029,1485,0,0
812,-461,0,0,0,0,0,0,0,0,0,-1,2036,1485,0,0
-700,-468,0,0,0,0,0,0,0,0,0,-1,524,1492,0,0
-693,-468,0,0,0,0,0,0,0,0,0,-1,531,1492,0,0
-686,-468,0,0,0,0,0,0,0,0,0,-1,538,1492,0,0
-679,-468,0,0,0,0,0,0,0,0,0,-1,545,1492,0,0
-672,-468,0,0,0,0,0,0,0,0,0,-1,552,1492,0,0
-665,-468,0,0,0,0,0,0,0,0,0,-1,559,1492,0,0
-658,-468,0,0,0,0,0,0,0,0,0,-1,566,1492,0,0
-651,-468,0,0,0,0,0,0,0,0,0,-1,573,1492,0,0
-644,-468,0,0,0,0,0,0,0,0,0,-1,580,1492,0,0
-637,-468,0,0,0,0,0,0,0,0,0,-1,587,1492,0,0
-630,-468,0,0,0,0,0,0,0,0,0,-1,594,1492,0,0
-623,-468,0,0,0,0,0,0,0,0,0,-1,601,1492,0,0
-616,-468,0,0,0,0,0,0,0,0,0,-1,608,1492,0,0
-609,-468,0,0,0,0,0,0,0,0,0,-1,615,1492,0,0
-602,-468,0,0,0,0,0,0,0,0,0,-1,622,1492,0,0
-595,-468,0,0,0,0,0,0,0,0,0,-1,629,1492,0,0
-588,-468,0,0,0,0,0,0,0,0,0,-1,636,1492,0,0
-581,-468,0,0,0,0,0,0,0,0,0,-1,643,1492,0,0
-574,-468,0,0,0,0,0,0,0,0,0,-1,650,1492,0,0
-567,-468,-11.2603,1.8042,0,0,0,0,0,0,0,-1,657,1492,-11.2603,-1.80424
-560,-468,-8.77441,2.23694,0,0,0,0,0,0,0,-1,664,1492,-8.77443,-2.23692
-553,-468,-5.94061,9.26318,0,0,0,0,0,0,0,-1,671,1492,-5.94062,-9.26322
-546,-468,-10.47,5.43237,0,0,0,0,0,0,0,-1,678,1492,-10.47,-5.4324
-539,-468,-10.2468,5.45203,0,0,0,0,0,0,0,-1,685,1492,-10.2468,-5.45197
-532,-468,-8.39795,6.02783,0,0,0,0,0,0,0,-1,692,1492,-8.39793,-6.02789
-525,-468,-6.59332,7.15405,0,0,0,0,0,0,0,-1,699,1492,-6.59331,-7.15411
-518,-468,-6.33588,8.65393,0,0,0,0,0,0,0,-1,706,1492,-6.33588,-8.65397
-511,-468,-8.05835,13.8282,0,0,0,0,0,0,0,-1,713,1492,-8.05835,-13.8283
-504,-468,-9.33167,15.7843,0,0,0,0,0,0,0,-1,720,1492,-9.33167,-15.7843
-497,-468,-9.21289,16.5681,0.00157658,-0.000187807,0.00186344,0.00275611,-0.00136733,0.564318,0.00242526,0.0241189,727,1492,-9.21289,-16.5681
-490,-468,-9.20605,17.2931,0.000903152,-0.000554097,0.00114955,0.00153554,-0.00118648,0.502934,0.00157586,0.00801546,734,1492,-9.20604,-17.2931
-483,-468,-9.25043,17.9323,0.000628193,-0.000514527,0.000806716,0.00104539,-0.000931723,0.477276,0.00114211,0.00879002,741,1492,-9.25042,-17.9322
-476,-468,-9.28369,18.585,0.000665383,-0.00019513,0.000740936,0.00109193,-0.000621674,0.522347,0.00100169,0.00942936,748,1492,-9.28366,-18.5849
-469,-468,-9.29199,19.238,0.000959918,0.000392859,0.000912657,0.00163207,-0.000279295,0.634793,0.0011921,0.0127119,755,1492,-9.29202,-19.2381
-462,-468,-9.28027,19.8739,0.00150818,0.00118914,0.00129398,0.00265243,4.48872e-05,0.724068,0.00175352,0.0232987,762,1492,-9.28029,-19.8739
-455,-468,-9.33966,20.4709,0.00228718,0.00221352,0.00189016,0.00414087,0.000359836,0.775656,0.00264879,0.0249355,769,1492,-9.33963,-20.4709
-448,-468,-9.36371,21.1433,0.00341388,0.00364939,0.0028573,0.00639136,0.000671915,0.805992,0.00405553,0.0142661,776,1492,-9.36374,-21.1433
-441,-468,-9.4021,21.7874,0.00491438,0.00536523,0.0041754,0.00932128,0.000958328,0.812366,0.00592066,0.0151883,783,1492,-9.40209,-21.7874
-434,-468,-9.38293,22.5035,0.00677663,0.00770192,0.00595469,0.0132119,0.00126665,0.824167,0.00841755,0.0293731,790,1492,-9.38294,-22.5036
-427,-468,-9.36737,23.2443,0,0,0,0,0,0,0,-1,797,1492,-9.36737,-23.2443
-420,-468,-7.57581,22.0538,0,0,0,0,0,0,0,-1,804,1492,-7.57582,-22.0538
-413,-468,-5.30328,17.3519,0,0,0,0,0,0,0,-1,811,1492,-5.30329,-17.352
-406,-468,-2.2356,9.396,0,0,0,0,0,0,0,-1,818,1492,-2.2356,-9.396
-399,-468,-0.940369,8.1936,0,0,0,0,0,0,0,-1,825,1492,-0.940365,-8.19357
-392,-468,-0.35144,8.14673,0,0,0,0,0,0,0,-1,832,1492,-0.351449,-8.14674
-385,-468,0.465759,5.35864,0,0,0,0,0,0,0,-1,839,1492,0.465732,-5.35864
-378,-468,1.99835,3.25391,0,0,0,0,0,0,0,-1,846,1492,1.99837,-3.2539
-371,-468,-0.31842,3.1532,0,0,0,0,0,0,0,-1,853,1492,-0.318441,-3.15324
-364,-468,-0.966736,2.14563,0,0,0,0,0,0,0,-1,860,1492,-0.966735,-2.14557
-357,-468,-3.06787,3.22742,0,0,0,0,0,0,0,-1,867,1492,-3.06784,-3.2274
-350,-468,-3.18658,4.12659,0,0,0,0,0,0,0,-1,874,1492,-3.18659,-4.12658
-343,-468,0,0,0,0,0,0,0,0,0,-1,881,1492,0,0
-336,-468,0,0,0,0,0,0,0,0,0,-1,888,1492,0,0
-329,-468,0,0,0,0,0,0,0,0,0,-1,895,1492,0,0
-322,-468,0,0,0,0,0,0,0,0,0,-1,902,1492,0,0
-315,-468,0,0,0,0,0,0,0,0,0,-1,909,1492,0,0
-308,-468,0,0,0,0,0,0,0,0,0,-1,916,1492,0,0
-301,-468,0,0,0,0,0,0,0,0,0,-1,923,1492,0,0
-294,-468,0,0,0,0,0,0,0,0,0,-1,930,1492,0,0
-287,-468,0,0,0,0,0,0,0,0,0,-1,937,1492,0,0
-280,-468,0,0,0,0,0,0,0,0,0,-1,944,1492,0,0
-273,-468,0,0,0,0,0,0,0,0,0,-1,951,1492,0,0
-266,-468,0,0,0,0,0,0,0,0,0,-1,958,1492,0,0
-259,-468,0,0,0,0,0,0,0,0,0,-1,965,1492,0,0
-252,-468,0,0,0,0,0,0,0,0,0,-1,972,1492,0,0
-245,-468,0,0,0,0,0,0,0,0,0,-1,979,1492,0,0
-238,-468,0,0,0,0,0,0,0,0,0,-1,986,1492,0,0
-231,-468,0,0,0,0,0,0,0,0,0,-1,993,1492,0,0
-224,-468,0,0,0,0,0,0,0,0,0,-1,1000,1492,0,0
-217,-468,0,0,0,0,0,0,0,0,0,-1,1007,1492,0,0
-210,-468,0,0,0,0,0,0,0,0,0,-1,1014,1492,0,0
-203,-468,0,0,0,0,0,0,0,0,0,-1,1021,1492,0,0
-196,-468,0,0,0,0,0,0,0,0,0,-1,1028,1492,0,0
-189,-468,0,0,0,0,0,0,0,0,0,-1,1035,1492,0,0
-182,-468,0,0,0,0,0,0,0,0,0,-1,1042,1492,0,0
-175,-468,0,0,0,0,0,0,0,0,0,-1,1049,1492,0,0
-168,-468,0,0,0,0,0,0,0,0,0,-1,1056,1492,0,0
-161,-468,0,0,0,0,0,0,0,0,0,-1,1063,1492,0,0
-154,-468,0,0,0,0,0,0,0,0,0,-1,1070,1492,0,0
-147,-468,0,0,0,0,0,0,0,0,0,-1,1077,1492,0,0
-140,-468,0,0,0,0,0,0,0,0,0,-1,1084,1492,0,0
-133,-468,0,0,0,0,0,0,0,0,0,-1,1091,1492,0,0
-126,-468,0,0,0,0,0,0,0,0,0,-1,1098,1492,0,0
-119,-468,0,0,0,0,0,0,0,0,0,-1,1105,1492,0,0
-112,-468,0,0,0,0,0,0,0,0,0,-1,1112,1492,0,0
-105,-468,0,0,0,0,0,0,0,0,0,-1,1119,1492,0,0
-98,-468,0,0,0,0,0,0,0,0,0,-1,1126,1492,0,0
-91,-468,0,0,0,0,0,0,0,0,0,-1,1133,1492,0,0
-84,-468,0,0,0,0,0,0,0,0,0,-1,1140,1492,0,0
-77,-468,0,0,0,0,0,0,0,0,0,-1,1147,1492,0,0
-70,-468,0,0,0,0,0,0,0,0,0,-1,1154,1492,0,0
-63,-468,0,0,0,0,0,0,0,0,0,-1,1161,1492,0,0
-56,-468,0,0,0,0,0,0,0,0,0,-1,1168,1492,0,0
-49,-468,0,0,0,0,0,0,0,0,0,-1,1175,1492,0,0
-42,-468,0,0,0,0,0,0,0,0,0,-1,1182,1492,0,0
-35,-468,0,0,0,0,0,0,0,0,0,-1,1189,1492,0,0
-28,-468,0,0,0,0,0,0,0,0,0,-1,1196,1492,0,0
-21,-468,0,0,0,0,0,0,0,0,0,-1,1203,1492,0,0
-14,-468,0,0,0,0,0,0,0,0,0,-1,1210,1492,0,0
-7,-468,0,0,0,0,0,0,0,0,0,-1,1217,1492,0,0
0,-468,0,0,0,0,0,0,0,0,0,-1,1224,1492,0,0
7,-468,0,0,0,0,0,0,0,0,0,-1,1231,1492,0,0
14,-468,0,0,0,0,0,0,0,0,0,-1,1238,1492,0,0
21,-468,0,0,0,0,0,0,0,0,0,-1,1245,1492,0,0
28,-468,0,0,0,0,0,0,0,0,0,-1,1252,1492,0,0
35,-468,0,0,0,0,0,0,0,0,0,-1,1259,1492,0,0
42,-468,0,0,0,0,0,0,0,0,0,-1,1266,1492,0,0
49,-468,0,0,0,0,0,0,0,0,0,-1,1273,1492,0,0
56,-468,0,0,0,0,0,0,0,0,0,-1,1280,1492,0,0
63,-468,0,0,0,0,0,0,0,0,0,-1,1287,1492,0,0
70,-468,0,0,0,0,0,0,0,0,0,-1,1294,1492,0,0
77,-468,0,0,0,0,0,0,0,0,0,-1,1301,1492,0,0
84,-468,0,0,0,0,0,0,0,0,0,-1,1308,1492,0,0
91,-468,0,0,0,0,0,0,0,0,0,-1,1315,1492,0,0
98,-468,0,0,0,0,0,0,0,0,0,-1,1322,1492,0,0
105,-468,0,0,0,0,0,0,0,0,0,-1,1329,1492,0,0
112,-468,0,0,0,0,0,0,0,0,0,-1,1336,1492,0,0
119,-468,0,0,0,0,0,0,0,0,0,-1,1343,1492,0,0
126,-468,0,0,0,0,0,0,0,0,0,-1,1350,1492,0,0
133,-468,0,0,0,0,0,0,0,0,0,-1,1357,1492,0,0
140,-468,0,0,0,0,0,0,0,0,0,-1,1364,1492,0,0
147,-468,0,0,0,0,0,0,0,0,0,-1,1371,1492,0,0
154,-468,0,0,0,0,0,0,0,0,0,-1,1378,1492,0,0
161,-468,0,0,0,0,0,0,0,0,0,-1,1385,1492,0,0
168,-468,0,0,0,0,0,0,0,0,0,-1,1392,1492,0,0
175,-468,0,0,0,0,0,0,0,0,0,-1,1399,1492,0,0
182,-468,0,0,0,0,0,0,0,0,0,-1,1406,1492,0,0
189,-468,0,0,0,0,0,0,0,0,0,-1,1413,1492,0,0
196,-468,0,0,0,0,0,0,0,0,0,-1,1420,1492,0,0
203,-468,0,0,0,0,0,0,0,0,0,-1,1427,1492,0,0
210,-468,0,0,0,0,0,0,0,0,0,-1,1434,1492,0,0
217,-468,0,0,0,0,0,0,0,0,0,-1,1441,1492,0,0
224,-468,0,0,0,0,0,0,0,0,0,-1,1448,1492,0,0
231,-468,0,0,0,0,0,0,0,0,0,-1,1455,1492,0,0
238,-468,0,0,0,0,0,0,0,0,0,-1,1462,1492,0,0
245,-468,0,0,0,0,0,0,0,0,0,-1,1469,1492,0,0
252,-468,0,0,0,0,0,0,0,0,0,-1,1476,1492,0,0
259,-468,0,0,0,0,0,0,0,0,0,-1,1483,1492,0,0
266,-468,0,0,0,0,0,0,0,0,0,-1,1490,1492,0,0
273,-468,0,0,0,0,0,0,0,0,0,-1,1497,1492,0,0
280,-468,0,0,0,0,0,0,0,0,0,-1,1504,1492,0,0
287,-468,0,0,0,0,0,0,0,0,0,-1,1511,1492,0,0
294,-468,0,0,0,0,0,0,0,0,0,-1,1518,1492,0,0
301,-468,0,0,0,0,0,0,0,0,0,-1,1525,1492,0,0
308,-468,0,0,0,0,0,0,0,0,0,-1,1532,1492,0,0
315,-468,0,0,0,0,0,0,0,0,0,-1,1539,1492,0,0
322,-468,0,0,0,0,0,0,0,0,0,-1,1546,1492,0,0
329,-468,0,0,0,0,0,0,0,0,0,-1,1553,1492,0,0
336,-468,0,0,0,0,0,0,0,0,0,-1,1560,1492,0,0
343,-468,0,0,0,0,0,0,0,0,0,-1,1567,1492,0,0
350,-468,0,0,0,0,0,0,0,0,0,-1,1574,1492,0,0
357,-468,0,0,0,0,0,0,0,0,0,-1,1581,1492,0,0
364,-468,0,0,0,0,0,0,0,0,0,-1,1588,1492,0,0
371,-468,0,0,0,0,0,0,0,0,0,-1,1595,1492,0,0
378,-468,0,0,0,0,0,0,0,0,0,-1,1602,1492,0,0
385,-468,0,0,0,0,0,0,0,0,0,-1,1609,1492,0,0
392,-468,0,0,0,0,0,0,0,0,0,-1,1616,1492,0,0
399,-468,0,0,0,0,0,0,0,0,0,-1,1623,1492,0,0
406,-468,0,0,0,0,0,0,0,0,0,-1,1630,1492,0,0
413,-468,0,0,0,0,0,0,0,0,0,-1,1637,1492,0,0
420,-468,0,0,0,0,0,0,0,0,0,-1,1644,1492,0,0
427,-468,0,0,0,0,0,0,0,0,0,-1,1651,1492,0,0
434,-468,0,0,0,0,0,0,0,0,0,-1,1658,1492,0,0
441,-468,0,0,0,0,0,0,0,0,0,-1,1665,1492,0,0
448,-468,0,0,0,0,0,0,0,0,0,-1,1672,1492,0,0
455,-468,0,0,0,0,0,0,0,0,0,-1,1679,1492,0,0
462,-468,0,0,0,0,0,0,0,0,0,-1,1686,1492,0,0
469,-468,15.6879,1.2677,0,0,0,0,0,0,0,-1,1693,1492,15.6879,-1.26772
476,-468,14.9318,1.61865,0,0,0,0,0,0,0,-1,1700,1492,14.9318,-1.61869
483,-468,11.265,4.64795,0,0,0,0,0,0,0,-1,1707,1492,11.265,-4.64798
490,-468,12.1316,3.51624,0,0,0,0,0,0,0,-1,1714,1492,12.1316,-3.51628
497,-468,16.5355,3.14587,0,0,0,0,0,0,0,-1,1721,1492,16.5356,-3.14583
504,-468,15.0642,4.10437,0,0,0,0,0,0,0,-1,1728,1492,15.0643,-4.10431
511,-468,15.6877,9.4801,0,0,0,0,0,0,0,-1,1735,1492,15.6878,-9.48007
518,-468,13.759,11.0887,0,0,0,0,0,0,0,-1,1742,1492,13.759,-11.0887
525,-468,16.6531,14.2238,0,0,0,0,0,0,0,-1,1749,1492,16.653,-14.2237
532,-468,16.9696,15.9641,0,0,0,0,0,0,0,-1,1756,1492,16.9696,-15.9641
539,-468,21.5308,20.7551,0,0,0,0,0,0,0,-1,1763,1492,21.5308,-20.7551
546,-468,25.5796,25.0283,0,0,0,0,0,0,0,-1,1770,1492,25.5796,-25.0284
553,-468,26.0886,24.6804,0,0,0,0,0,0,0,-1,1777,1492,26.0886,-24.6804
560,-468,26.2709,24.0802,0.00696021,0.00396414,-0.00302614,0.0088388,0.00208555,-0.555566,0.00533501,0.0412909,1784,1492,26.2709,-24.0803
567,-468,26.2759,23.5106,0.005546,0.00287935,-0.00229875,0.00687012,0.00155523,-0.522597,0.00415973,0.021305,1791,1492,26.2759,-23.5106
574,-468,26.3047,22.8701,0.00451106,0.00220734,-0.00194997,0.00562396,0.00109443,-0.51862,0.00344298,0.0160494,1798,1492,26.3047,-22.8701
581,-468,26.2947,22.2921,0.00367121,0.00175235,-0.00168168,0.0046479,0.000775663,-0.526169,0.00287514,0.0162599,1805,1492,26.2946,-22.2921
588,-468,26.2461,21.7157,0.00303504,0.00133562,-0.0014488,0.00386492,0.000505733,-0.520184,0.00242568,0.0132416,1812,1492,26.2461,-21.7157
595,-468,26.2238,21.0887,0.00263919,0.000969005,-0.00124402,0.00330241,0.00030578,-0.489801,0.00210709,0.011418,1819,1492,26.2238,-21.0887
602,-468,26.2062,20.4604,0.00239018,0.000645074,-0.00109332,0.00291644,0.000118811,-0.448614,0.00190593,0.00986081,1826,1492,26.2062,-20.4605
609,-468,26.1769,19.8472,0.00226041,0.000419834,-0.000934782,0.00265189,2.83497e-05,-0.396606,0.00175856,0.0103831,1833,1492,26.1769,-19.8471
616,-468,26.1445,19.2313,0.00228182,0.000253356,-0.000805683,0.00256288,-2.77081e-05,-0.335652,0.0017179,0.0105617,1840,1492,26.1446,-19.2313
623,-468,26.1293,18.6523,0.00254606,3.98748e-05,-0.000676031,0.00271678,-0.000130851,-0.247369,0.00185634,0.0115444,1847,1492,26.1293,-18.6524
630,-468,26.1234,18.0591,0.00297629,-5.72338e-05,-0.000585353,0.00308533,-0.000166265,-0.184156,0.00211449,0.0119999,1854,1492,26.1234,-18.0591
637,-468,26.0884,17.4277,0.00360082,-0.000123029,-0.000580884,0.00368932,-0.000211538,-0.151206,0.00253301,0.0142213,1861,1492,26.0884,-17.4277
644,-468,26.1469,16.9108,0.00447915,-3.16321e-05,-0.000721615,0.00459178,-0.00014426,-0.154829,0.00311039,0.0359871,1868,1492,26.1469,-16.9108
651,-468,26.3337,16.4034,0,0,0,0,0,0,0,-1,1875,1492,26.3337,-16.4034
658,-468,16.4969,10.0774,0,0,0,0,0,0,0,-1,1882,1492,16.497,-10.0774
665,-468,15.4673,8.59546,0,0,0,0,0,0,0,-1,1889,1492,15.4672,-8.59548
672,-468,9.96814,3.61133,0,0,0,0,0,0,0,-1,1896,1492,9.96817,-3.61139
679,-468,11.2191,1.91968,0,0,0,0,0,0,0,-1,1903,1492,11.2191,-1.91965
686,-468,11.9252,1.42285,0,0,0,0,0,0,0,-1,1910,1492,11.9252,-1.42291
693,-468,0,0,0,0,0,0,0,0,0,-1,1917,1492,0,0
700,-468,0,0,0,0,0,0,0,0,0,-1,1924,1492,0,0
707,-468,0,0,0,0,0,0,0,0,0,-1,1931,1492,0,0
714,-468,0,0,0,0,0,0,0,0,0,-1,1938,1492,0,0
721,-468,0,0,0,0,0,0,0,0,0,-1,1945,1492,0,0
728,-468,0,0,0,0,0,0,0,0,0,-1,1952,1492,0,0
735,-468,0,0,0,0,0,0,0,0,0,-1,1959,1492,0,0
742,-468,0,0,0,0,0,0,0,0,0,-1,1966,1492,0,0
749,-468,0,0,0,0,0,0,0,0,0,-1,1973,1492,0,0
756,-468,0,0,0,0,0,0,0,0,0,-1,1980,1492,0,0
763,-468,0,0,0,0,0,0,0,0,0,-1,1987,1492,0,0
770,-468,0,0,0,0,0,0,0,0,0,-1,1994,1492,0,0
777,-468,0,0,0,0,0,0,0,0,0,-1,2001,1492,0,0
784,-468,0,0,0,0,0,0,0,0,0,-1,2008,1492,0,0
791,-468,0,0,0,0,0,0,0,0,0,-1,2015,1492,0,0
798,-468,0,0,0,0,0,0,0,0,0,-1,2022,1492,0,0
805,-468,0,0,0,0,0,0,0,0,0,-1,2029,1492,0,0
812,-468,0,0,0,0,0,0,0,0,0,-1,2036,1492,0,0
-700,-475,0,0,0,0,0,0,0,0,0,-1,524,1499,0,0
-693,-475,0,0,0,0,0,0,0,0,0,-1,531,1499,0,0
-686,-475,0,0,0,0,0,0,0,0,0,-1,538,1499,0,0
-679,-475,0,0,0,0,0,0,0,0,0,-1,545,1499,0,0
-672,-475,0,0,0,0,0,0,0,0,0,-1,552,1499,0,0
-665,-475,0,0,0,0,0,0,0,0,0,-1,559,1499,0,0
-658,-475,0,0,0,0,0,0,0,0,0,-1,566,1499,0,0
-651,-475,0,0,0,0,0,0,0,0,0,-1,573,1499,0,0
-644,-475,0,0,0,0,0,0,0,0,0,-1,580,1499,0,0
-637,-475,0,0,0,0,0,0,0,0,0,-1,587,1499,0,0
-630,-475,0,0,0,0,0,0,0,0,0,-1,594,1499,0,0
-623,-475,0,0,0,0,0,0,0,0,0,-1,601,1499,0,0
-616,-475,0,0,0,0,0,0,0,0,0,-1,608,1499,0,0
-609,-475,0,0,0,0,0,0,0,0,0,-1,615,1499,0,0
-602,-475,0,0,0,0,0,0,0,0,0,-1,622,1499,0,0
-595,-475,0,0,0,0,0,0,0,0,0,-1,629,1499,0,0
-588,-475,0,0,0,0,0,0,0,0,0,-1,636,1499,0,0
-581,-475,0,0,0,0,0,0,0,0,0,-1,643,1499,0,0
-574,-475,0,0,0,0,0,0,0,0,0,-1,650,1499,0,0
-567,-475,0,0,0,0,0,0,0,0,0,-1,657,1499,0,0
-560,-475,-9.42731,9.29517,0,0,0,0,0,0,0,-1,664,1499,-9.42731,-9.29519
-553,-475,-8.15131,8.78369,0,0,0,0,0,0,0,-1,671,1499,-8.15131,-8.78367
-546,-475,-8.41254,8.20654,0,0,0,0,0,0,0,-1,678,1499,-8.41251,-8.20655
-539,-475,-4.7345,4.17419,0,0,0,0,0,0,0,-1,685,1499,-4.73449,-4.17418
-532,-475,-7.07379,4.25024,0,0,0,0,0,0,0,-1,692,1499,-7.07378,-4.2503
-525,-475,-6.13147,5.82166,0,0,0,0,0,0,0,-1,699,1499,-6.1315,-5.8216
-518,-475,-7.28784,9.31506,0,0,0,0,0,0,0,-1,706,1499,-7.28782,-9.315
-511,-475,-6.84851,12.4244,0,0,0,0,0,0,0,-1,713,1499,-6.84851,-12.4244
-504,-475,-8.56067,15.9026,0,0,0,0,0,0,0,-1,720,1499,-8.56066,-15.9026
-497,-475,-8.58826,16.7578,0.00112858,-0.000749,0.00128443,0.00178073,-0.00140115,0.469816,0.00184141,0.0485529,727,1499,-8.58826,-16.7578
-490,-475,-8.586,17.2999,0.000350751,-0.00114767,0.000510533,0.000508161,-0.00130508,0.299076,0.00108005,0.0151124,734,1499,-8.58601,-17.2999
-483,-475,-8.59454,17.9934,5.21573e-05,-0.00110871,0.000176858,7.85034e-05,-0.00113506,0.147881,0.000784185,0.00899002,741,1499,-8.59453,-17.9934
-476,-475,-8.62524,18.636,8.95373e-05,-0.00080306,0.000131044,0.000108378,-0.000821901,0.142798,0.000587402,0.0102097,748,1499,-8.62526,-18.636
-469,-475,-8.63824,19.2736,0.000401638,-0.000233881,0.000356344,0.000561322,-0.000393565,0.421287,0.000554133,0.0124252,755,1499,-8.63824,-19.2735
-462,-475,-8.61664,19.9202,0.000948131,0.00053316,0.000784922,0.00155253,-7.12368e-05,0.656184,0.00105956,0.018184,762,1499,-8.61665,-19.9201
-455,-475,-8.66095,20.5439,0.00169499,0.00149948,0.00140993,0.00301055,0.000183921,0.750786,0.00194862,0.0164251,769,1499,-8.66095,-20.5439
-448,-475,-8.73419,21.1766,0.00273684,0.0028218,0.00235832,0.00513802,0.000420611,0.794403,0.00329411,0.0135244,776,1499,-8.73421,-21.1766
-441,-475,-8.7868,21.8076,0.00408895,0.00445875,0.00364356,0.0079221,0.000625605,0.81075,0.00508571,0.0159489,783,1499,-8.78683,-21.8076
-434,-475,-8.77783,22.4409,0.00570586,0.0066352,0.00530551,0.0114963,0.000844704,0.829078,0.00739875,0.011394,790,1499,-8.77784,-22.4409
-427,-475,-8.7041,23.2104,0.00761748,0.0089932,0.00727951,0.0156173,0.000993401,0.832505,0.0100967,0.0321849,797,1499,-8.70409,-23.2104
-420,-475,-8.58087,23.9478,0,0,0,0,0,0,0,-1,804,1499,-8.58085,-23.9478
-413,-475,-6.46777,20.8481,0,0,0,0,0,0,0,-1,811,1499,-6.46776,-20.8481
-406,-475,-2.56116,12.4956,0,0,0,0,0,0,0,-1,818,1499,-2.56116,-12.4956
-399,-475,-1.39667,6.1615,0,0,0,0,0,0,0,-1,825,1499,-1.39664,-6.16155
-392,-475,0.217163,8.61389,0,0,0,0,0,0,0,-1,832,1499,0.217167,-8.6139
-385,-475,1.18372,2.73999,0,0,0,0,0,0,0,-1,839,1499,1.18372,-2.73995
-378,-475,1.31409,2.90149,0,0,0,0,0,0,0,-1,846,1499,1.31411,-2.90151
-371,-475,2.3476,3.31116,0,0,0,0,0,0,0,-1,853,1499,2.34761,-3.31121
-364,-475,1.04462,9.05823,0,0,0,0,0,0,0,-1,860,1499,1.04461,-9.05825
-357,-475,-0.262756,7.97205,0,0,0,0,0,0,0,-1,867,1499,-0.262784,-7.97205
-350,-475,-2.77173,4.35486,0,0,0,0,0,0,0,-1,874,1499,-2.77175,-4.35491
-343,-475,-6.38824,-1.48096,0,0,0,0,0,0,0,-1,881,1499,-6.38827,1.48097
-336,-475,0,0,0,0,0,0,0,0,0,-1,888,1499,0,0
-329,-475,0,0,0,0,0,0,0,0,0,-1,895,1499,0,0
-322,-475,0,0,0,0,0,0,0,0,0,-1,902,1499,0,0
-315,-475,0,0,0,0,0,0,0,0,0,-1,909,1499,0,0
-308,-475,0,0,0,0,0,0,0,0,0,-1,916,1499,0,0
-301,-475,0,0,0,0,0,0,0,0,0,-1,923,1499,0,0
-294,-475,0,0,0,0,0,0,0,0,0,-1,930,1499,0,0
-287,-475,0,0,0,0,0,0,0,0,0,-1,937,1499,0,0
-280,-475,0,0,0,0,0,0,0,0,0,-1,944,1499,0,0
-273,-475,0,0,0,0,0,0,0,0,0,-1,951,1499,0,0
-266,-475,0,0,0,0,0,0,0,0,0,-1,958,1499,0,0
-259,-475,0,0,0,0,0,0,0,0,0,-1,965,1499,0,0
-252,-475,0,0,0,0,0,0,0,0,0,-1,972,1499,0,0
-245,-475,0,0,0,0,0,0,0,0,0,-1,979,1499,0,0
-238,-475,0,0,0,0,0,0,0,0,0,-1,986,1499,0,0
-231,-475,0,0,0,0,0,0,0,0,0,-1,993,1499,0,0
-224,-475,0,0,0,0,0,0,0,0,0,-1,1000,1499,0,0
-217,-475,0,0,0,0,0,0,0,0,0,-1,1007,1499,0,0
-210,-475,0,0,0,0,0,0,0,0,0,-1,1014,1499,0,0
-203,-475,0,0,0,0,0,0,0,0,0,-1,1021,1499,0,0
-196,-475,0,0,0,0,0,0,0,0,0,-1,1028,1499,0,0
-189,-475,0,0,0,0,0,0,0,0,0,-1,1035,1499,0,0
-182,-475,0,0,0,0,0,0,0,0,0,-1,1042,1499,0,0
-175,-475,0,0,0,0,0,0,0,0,0,-1,1049,1499,0,0
-168,-475,0,0,0,0,0,0,0,0,0,-1,1056,1499,0,0
-161,-475,0,0,0,0,0,0,0,0,0,-1,1063,1499,0,0
-154,-475,0,0,0,0,0,0,0,0,0,-1,1070,1499,0,0
-147,-475,0,0,0,0,0,0,0,0,0,-1,1077,1499,0,0
-140,-475,0,0,0,0,0,0,0,0,0,-1,1084,1499,0,0
-133,-475,0,0,0,0,0,0,0,0,0,-1,1091,1499,0,0
-126,-475,0,0,0,0,0,0,0,0,0,-1,1098,1499,0,0
-119,-475,0,0,0,0,0,0,0,0,0,-1,1105,1499,0,0
-112,-475,0,0,0,0,0,0,0,0,0,-1,1112,1499,0,0
-105,-475,0,0,0,0,0,0,0,0,0,-1,1119,1499,0,0
-98,-475,0,0,0,0,0,0,0,0,0,-1,1126,1499,0,0
-91,-475,0,0,0,0,0,0,0,0,0,-1,1133,1499,0,0
-84,-475,0,0,0,0,0,0,0,0,0,-1,1140,1499,0,0
-77,-475,0,0,0,0,0,0,0,0,0,-1,1147,1499,0,0
-70,-475,0,0,0,0,0,0,0,0,0,-1,1154,1499,0,0
-63,-475,0,0,0,0,0,0,0,0,0,-1,1161,1499,0,0
-56,-475,0,0,0,0,0,0,0,0,0,-1,1168,1499,0,0
-49,-475,0,0,0,0,0,0,0,0,0,-1,1175,1499,0,0
-42,-475,0,0,0,0,0,0,0,0,0,-1,1182,1499,0,0
-35,-475,0,0,0,0,0,0,0,0,0,-1,1189,1499,0,0
-28,-475,0,0,0,0,0,0,0,0,0,-1,1196,1499,0,0
-21,-475,0,0,0,0,0,0,0,0,0,-1,1203,1499,0,0
-14,-475,0,0,0,0,0,0,0,0,0,-1,1210,1499,0,0
-7,-475,0,0,0,0,0,0,0,0,0,-1,1217,1499,0,0
0,-475,0,0,0,0,0,0,0,0,0,-1,1224,1499,0,0
7,-475,0,0,0,0,0,0,0,0,0,-1,1231,1499,0,0
14,-475,0,0,0,0,0,0,0,0,0,-1,1238,1499,0,0
21,-475,0,0,0,0,0,0,0,0,0,-1,1245,1499,0,0
28,-475,0,0,0,0,0,0,0,0,0,-1,1252,1499,0,0
35,-475,0,0,0,0,0,0,0,0,0,-1,1259,1499,0,0
42,-475,0,0,0,0,0,0,0,0,0,-1,1266,1499,0,0
49,-475,0,0,0,0,0,0,0,0,0,-1,1273,1499,0,0
56,-475,0,0,0,0,0,0,0,0,0,-1,1280,1499,0,0
63,-475,0,0,0,0,0,0,0,0,0,-1,1287,1499,0,0
70,-475,0,0,0,0,0,0,0,0,0,-1,1294,1499,0,0
77,-475,0,0,0,0,0,0,0,0,0,-1,1301,1499,0,0
84,-475,0,0,0,0,0,0,0,0,0,-1,1308,1499,0,0
91,-475,0,0,0,0,0,0,0,0,0,-1,1315,1499,0,0
98,-475,0,0,0,0,0,0,0,0,0,-1,1322,1499,0,0
105,-475,0,0,0,0,0,0,0,0,0,-1,1329,1499,0,0
112,-475,0,0,0,0,0,0,0,0,0,-1,1336,1499,0,0
119,-475,0,0,0,0,0,0,0,0,0,-1,1343,1499,0,0
126,-475,0,0,0,0,0,0,0,0,0,-1,1350,1499,0,0
133,-475,0,0,0,0,0,0,0,0,0,-1,1357,1499,0,0
140,-475,0,0,0,0,0,0,0,0,0,-1,1364,1499,0,0
147,-475,0,0,0,0,0,0,0,0,0,-1,1371,1499,0,0
154,-475,0,0,0,0,0,0,0,0,0,-1,1378,1499,0,0
161,-475,0,0,0,0,0,0,0,0,0,-1,1385,1499,0,0
168,-475,0,0,0,0,0,0,0,0,0,-1,1392,1499,0,0
175,-475,0,0,0,0,0,0,0,0,0,-1,1399,1499,0,0
182,-475,0,0,0,0,0,0,0,0,0,-1,1406,1499,0,0
189,-475,0,0,0,0,0,0,0,0,0,-1,1413,1499,0,0
196,-475,0,0,0,0,0,0,0,0,0,-1,1420,1499,0,0
203,-475,0,0,0,0,0,0,0,0,0,-1,1427,1499,0,0
210,-475,0,0,0,0,0,0,0,0,0,-1,1434,1499,0,0
217,-475,0,0,0,0,0,0,0,0,0,-1,1441,1499,0,0
224,-475,0,0,0,0,0,0,0,0,0,-1,1448,1499,0,0
231,-475,0,0,0,0,0,0,0,0,0,-1,1455,1499,0,0
238,-475,0,0,0,0,0,0,0,0,0,-1,1462,1499,0,0
245,-475,0,0,0,0,0,0,0,0,0,-1,1469,1499,0,0
252,-475,0,0,0,0,0,0,0,0,0,-1,1476,1499,0,0
259,-475,0,0,0,0,0,0,0,0,0,-1,1483,1499,0,0
266,-475,0,0,0,0,0,0,0,0,0,-1,1490,1499,0,0
273,-475,0,0,0,0,0,0,0,0,0,-1,1497,1499,0,0
280,-475,0,0,0,0,0,0,0,0,0,-1,1504,1499,0,0
287,-475,0,0,0,0,0,0,0,0,0,-1,1511,1499,0,0
294,-475,0,0,0,0,0,0,0,0,0,-1,1518,1499,0,0
301,-475,0,0,0,0,0,0,0,0,0,-1,1525,1499,0,0
308,-475,0,0,0,0,0,0,0,0,0,-1,1532,1499,0,0
315,-475,0,0,0,0,0,0,0,0,0,-1,1539,1499,0,0
322,-475,0,0,0,0,0,0,0,0,0,-1,1546,1499,0,0
329,-475,0,0,0,0,0,0,0,0,0,-1,1553,1499,0,0
336,-475,0,0,0,0,0,0,0,0,0,-1,1560,1499,0,0
343,-475,0,0,0,0,0,0,0,0,0,-1,1567,1499,0,0
350,-475,0,0,0,0,0,0,0,0,0,-1,1574,1499,0,0
357,-475,0,0,0,0,0,0,0,0,0,-1,1581,1499,0,0
364,-475,0,0,0,0,0,0,0,0,0,-1,1588,1499,0,0
371,-475,0,0,0,0,0,0,0,0,0,-1,1595,1499,0,0
378,-475,0,0,0,0,0,0,0,0,0,-1,1602,1499,0,0
385,-475,0,0,0,0,0,0,0,0,0,-1,1609,1499,0,0
392,-475,0,0,0,0,0,0,0,0,0,-1,1616,1499,0,0
399,-475,0,0,0,0,0,0,0,0,0,-1,1623,1499,0,0
406,-475,0,0,0,0,0,0,0,0,0,-1,1630,1499,0,0
413,-475,0,0,0,0,0,0,0,0,0,-1,1637,1499,0,0
420,-475,0,0,0,0,0,0,0,0,0,-1,1644,1499,0,0
427,-475,0,0,0,0,0,0,0,0,0,-1,1651,1499,0,0
434,-475,0,0,0,0,0,0,0,0,0,-1,1658,1499,0,0
441,-475,0,0,0,0,0,0,0,0,0,-1,1665,1499,0,0
448,-475,0,0,0,0,0,0,0,0,0,-1,1672,1499,0,0
455,-475,0,0,0,0,0,0,0,0,0,-1,1679,1499,0,0
462,-475,12.6372,0.275391,0,0,0,0,0,0,0,-1,1686,1499,12.6372,-0.27536
469,-475,15.6437,2.28296,0,0,0,0,0,0,0,-1,1693,1499,15.6437,-2.28293
476,-475,15.3302,2.71436,0,0,0,0,0,0,0,-1,1700,1499,15.3303,-2.7143
483,-475,10.7461,5.91479,0,0,0,0,0,0,0,-1,1707,1499,10.7461,-5.91476
490,-475,11.9305,4.4364,0,0,0,0,0,0,0,-1,1714,1499,11.9305,-4.43644
497,-475,15.3451,4.3479,0,0,0,0,0,0,0,-1,1721,1499,15.3451,-4.34789
504,-475,16.9646,7.71265,0,0,0,0,0,0,0,-1,1728,1499,16.9646,-7.71265
511,-475,18.941,12.7572,0,0,0,0,0,0,0,-1,1735,1499,18.941,-12.7572
518,-475,17.0021,13.8564,0,0,0,0,0,0,0,-1,1742,1499,17.0021,-13.8564
525,-475,17.5637,15.2103,0,0,0,0,0,0,0,-1,1749,1499,17.5637,-15.2103
532,-475,20.8623,20.8413,0,0,0,0,0,0,0,-1,1756,1499,20.8623,-20.8413
539,-475,20.5494,20.8519,0,0,0,0,0,0,0,-1,1763,1499,20.5494,-20.852
546,-475,20.4524,19.8799,0,0,0,0,0,0,0,-1,1770,1499,20.4524,-19.8798
553,-475,25.4131,24.9655,0,0,0,0,0,0,0,-1,1777,1499,25.4131,-24.9655
560,-475,25.5577,24.2531,0.00609286,0.00361776,-0.00277998,0.00789831,0.00181232,-0.575986,0.00477742,0.0299782,1784,1499,25.5578,-24.253
567,-475,25.707,23.5132,0.00489644,0.00258457,-0.00210328,0.0061405,0.00134051,-0.534136,0.00372805,0.0152682,1791,1499,25.7071,-23.5132
574,-475,25.6671,22.8939,0.0040278,0.00194187,-0.00176999,0.00503926,0.000930412,-0.519161,0.00309632,0.015144,1798,1499,25.6671,-22.8939
581,-475,25.6498,22.3274,0.00331736,0.0014758,-0.0015112,0.0041662,0.000626953,-0.511782,0.00259386,0.0126278,1805,1499,25.6498,-22.3274
588,-475,25.6202,21.7181,0.00281085,0.00110756,-0.00133363,0.00354157,0.00037684,-0.501241,0.002246,0.0103897,1812,1499,25.6202,-21.7181
595,-475,25.6168,21.0994,0.00255924,0.000788536,-0.00119551,0.00316154,0.000186241,-0.46668,0.00204844,0.0115107,1819,1499,25.6168,-21.0993
602,-475,25.6116,20.49,0.00242239,0.000537501,-0.00112187,0.00294514,1.47534e-05,-0.436048,0.00195853,0.012563,1826,1499,25.6116,-20.49
609,-475,25.5758,19.8938,0.00239473,0.000384432,-0.00103082,0.00282934,-5.01771e-05,-0.399002,0.00190317,0.0120358,1833,1499,25.5758,-19.8939
616,-475,25.5289,19.3044,0.00254658,0.00024001,-0.000937735,0.0028797,-9.31148e-05,-0.341339,0.00195158,0.0124349,1840,1499,25.5289,-19.3045
623,-475,25.5194,18.6732,0.0029091,7.38676e-06,-0.000796707,0.00311346,-0.000196969,-0.251087,0.00214431,0.0122455,1847,1499,25.5194,-18.6732
630,-475,25.5178,18.0663,0.00340017,-6.15367e-05,-0.000666797,0.00352417,-0.000185534,-0.18386,0.00241367,0.0143573,1854,1499,25.5178,-18.0663
637,-475,25.4857,17.4487,0.00407587,-0.000208391,-0.000554131,0.00414639,-0.000278902,-0.126566,0.00286176,0.0250368,1861,1499,25.4858,-17.4487
644,-475,25.4423,16.8363,0,0,0,0,0,0,0,-1,1868,1499,25.4422,-16.8362
651,-475,11.7965,7.57593,0,0,0,0,0,0,0,-1,1875,1499,11.7965,-7.5759
658,-475,14.6708,8.80322,0,0,0,0,0,0,0,-1,1882,1499,14.6708,-8.8032
665,-475,9.33435,5.43335,0,0,0,0,0,0,0,-1,1889,1499,9.33439,-5.43332
672,-475,9.38635,1.10474,0,0,0,0,0,0,0,-1,1896,1499,9.38629,-1.10475
679,-475,12.2594,1.31079,0,0,0,0,0,0,0,-1,1903,1499,12.2594,-1.31077
686,-475,0,0,0,0,0,0,0,0,0,-1,1910,1499,0,0
693,-475,0,0,0,0,0,0,0,0,0,-1,1917,1499,0,0
700,-475,0,0,0,0,0,0,0,0,0,-1,1924,1499,0,0
707,-475,0,0,0,0,0,0,0,0,0,-1,1931,1499,0,0
714,-475,0,0,0,0,0,0,0,0,0,-1,1938,1499,0,0
721,-475,0,0,0,0,0,0,0,0,0,-1,1945,1499,0,0
728,-475,0,0,0,0,0,0,0,0,0,-1,1952,1499,0,0
735,-475,0,0,0,0,0,0,0,0,0,-1,1959,1499,0,0
742,-475,0,0,0,0,0,0,0,0,0,-1,1966,1499,0,0
749,-475,0,0,0,0,0,0,0,0,0,-1,1973,1499,0,0
756,-475,0,0,0,0,0,0,0,0,0,-1,1980,1499,0,0
763,-475,0,0,0,0,0,0,0,0,0,-1,1987,1499,0,0
770,-475,0,0,0,0,0,0,0,0,0,-1,1994,1499,0,0
777,-475,0,0,0,0,0,0,0,0,0,-1,2001,1499,0,0
784,-475,0,0,0,0,0,0,0,0,0,-1,2008,1499,0,0
791,-475,0,0,0,0,0,0,0,0,0,-1,2015,1499,0,0
798,-475,0,0,0,0,0,0,0,0,0,-1,2022,1499,0,0
805,-475,0,0,0,0,0,0,0,0,0,-1,2029,1499,0,0
812,-475,0,0,0,0,0,0,0,0,0,-1,2036,1499,0,0
-700,-482,0,0,0,0,0,0,0,0,0,-1,524,1506,0,0
-693,-482,0,0,0,0,0,0,0,0,0,-1,531,1506,0,0
-686,-482,0,0,0,0,0,0,0,0,0,-1,538,1506,0,0
-679,-482,0,0,0,0,0,0,0,0,0,-1,545,1506,0,0
-672,-482,0,0,0,0,0,0,0,0,0,-1,552,1506,0,0
-665,-482,0,0,0,0,0,0,0,0,0,-1,559,1506,0,0
-658,-482,0,0,0,0,0,0,0,0,0,-1,566,1506,0,0
-651,-482,0,0,0,0,0,0,0,0,0,-1,573,1506,0,0
-644,-482,0,0,0,0,0,0,0,0,0,-1,580,1506,0,0
-637,-482,0,0,0,0,0,0,0,0,0,-1,587,1506,0,0
-630,-482,0,0,0,0,0,0,0,0,0,-1,594,1506,0,0
-623,-482,0,0,0,0,0,0,0,0,0,-1,601,1506,0,0
-616,-482,0,0,0,0,0,0,0,0,0,-1,608,1506,0,0
-609,-482,0,0,0,0,0,0,0,0,0,-1,615,1506,0,0
-602,-482,0,0,0,0,0,0,0,0,0,-1,622,1506,0,0
-595,-482,0,0,0,0,0,0,0,0,0,-1,629,1506,0,0
-588,-482,0,0,0,0,0,0,0,0,0,-1,636,1506,0,0
-581,-482,0,0,0,0,0,0,0,0,0,-1,643,1506,0,0
-574,-482,0,0,0,0,0,0,0,0,0,-1,650,1506,0,0
-567,-482,0,0,0,0,0,0,0,0,0,-1,657,1506,0,0
-560,-482,0,0,0,0,0,0,0,0,0,-1,664,1506,0,0
-553,-482,-9.06055,9.34314,0,0,0,0,0,0,0,-1,671,1506,-9.06056,-9.34312
-546,-482,-4.08624,8.34241,0,0,0,0,0,0,0,-1,678,1506,-4.08624,-8.3424
-539,-482,-4.29877,2.73499,0,0,0,0,0,0,0,-1,685,1506,-4.29879,-2.73494
-532,-482,-3.63611,4.23987,0,0,0,0,0,0,0,-1,692,1506,-3.63609,-4.23983
-525,-482,-6.19116,5.24927,0,0,0,0,0,0,0,-1,699,1506,-6.19117,-5.24927
-518,-482,-5.92957,6.39807,0,0,0,0,0,0,0,-1,706,1506,-5.92958,-6.39806
-511,-482,-7.74634,11.9137,0,0,0,0,0,0,0,-1,713,1506,-7.74633,-11.9137
-504,-482,-6.42358,13.4211,0,0,0,0,0,0,0,-1,720,1506,-6.42356,-13.4212
-497,-482,-8.03046,16.4696,0,0,0,0,0,0,0,-1,727,1506,-8.03044,-16.4696
-490,-482,-8.00555,17.27,-0.00146447,-0.000814415,-0.000234916,-0.000738409,-0.00154048,-1.25788,0.00088965,0.0445773,734,1506,-8.00554,-17.27
-483,-482,-7.96722,17.9915,-0.00157831,-0.000850756,-0.000485907,-0.000607541,-0.00182152,-1.10672,0.00107091,0.0105577,741,1506,-7.96721,-17.9915
-476,-482,-7.98712,18.6693,-0.00133594,-0.000688794,-0.000486962,-0.000427705,-0.00159703,-1.07864,0.000954612,0.00972318,748,1506,-7.9871,-18.6693
-469,-482,-8.0116,19.3153,-0.000800385,-0.000298147,-0.000208244,-0.000223036,-0.000875497,-1.22463,0.000525346,0.0114261,755,1506,-8.01162,-19.3153
-462,-482,-8.01923,19.939,-5.28813e-05,0.000257782,0.000243729,0.000391468,-0.000186568,1.0691,0.000340647,0.0127433,762,1506,-8.01923,-19.939
-455,-482,-8.06079,20.5472,0.00086553,0.000976254,0.000857194,0.00177987,6.19119e-05,0.817646,0.00116649,0.0131511,769,1506,-8.06078,-20.5473
-448,-482,-8.10303,21.205,0.00202545,0.00200496,0.00173809,0.00375332,0.000277085,0.782451,0.00241516,0.0134124,776,1506,-8.103,-21.205
-441,-482,-8.14154,21.8435,0.00343061,0.00337037,0.00292622,0.00632687,0.000474112,0.780251,0.00406909,0.0130046,783,1506,-8.14152,-21.8435
-434,-482,-8.1441,22.4657,0.00500542,0.00519536,0.0044052,0.00950661,0.000694172,0.796175,0.00611949,0.0157397,790,1506,-8.14408,-22.4657
-427,-482,-8.15002,23.1316,0.00677869,0.00717826,0.00609655,0.0130783,0.000878648,0.801777,0.00844124,0.0189535,797,1506,-8.15001,-23.1316
-420,-482,-8.18066,23.835,0,0,0,0,0,0,0,-1,804,1506,-8.18064,-23.835
-413,-482,-6.56415,22.3163,0,0,0,0,0,0,0,-1,811,1506,-6.56417,-22.3163
-406,-482,-2.51373,12.7556,0,0,0,0,0,0,0,-1,818,1506,-2.51376,-12.7556
-399,-482,-1.3822,9.22595,0,0,0,0,0,0,0,-1,825,1506,-1.38221,-9.22598
-392,-482,-1.06836,9.22729,0,0,0,0,0,0,0,-1,832,1506,-1.06835,-9.2273
-385,-482,0.0647583,8.90649,0,0,0,0,0,0,0,-1,839,1506,0.0647778,-8.90644
-378,-482,0.215698,5.96948,0,0,0,0,0,0,0,-1,846,1506,0.215681,-5.9695
-371,-482,-0.10907,8.10437,0,0,0,0,0,0,0,-1,853,1506,-0.109063,-8.10433
-364,-482,-0.154968,10.5032,0,0,0,0,0,0,0,-1,860,1506,-0.154976,-10.5032
-357,-482,2.14807,4.60144,0,0,0,0,0,0,0,-1,867,1506,2.14807,-4.60144
-350,-482,-7.5813,-1.45935,0,0,0,0,0,0,0,-1,874,1506,-7.58133,1.45937
-343,-482,-7.19983,-1.26416,0,0,0,0,0,0,0,-1,881,1506,-7.19981,1.26414
-336,-482,-0.693604,-0.505981,0,0,0,0,0,0,0,-1,888,1506,-0.693583,0.50597
-329,-482,0,0,0,0,0,0,0,0,0,-1,895,1506,0,0
-322,-482,0,0,0,0,0,0,0,0,0,-1,902,1506,0,0
-315,-482,0,0,0,0,0,0,0,0,0,-1,909,1506,0,0
-308,-482,0,0,0,0,0,0,0,0,0,-1,916,1506,0,0
-301,-482,0,0,0,0,0,0,0,0,0,-1,923,1506,0,0
-294,-482,0,0,0,0,0,0,0,0,0,-1,930,1506,0,0
-287,-482,0,0,0,0,0,0,0,0,0,-1,937,1506,0,0
-280,-482,0,0,0,0,0,0,0,0,0,-1,944,1506,0,0
-273,-482,0,0,0,0,0,0,0,0,0,-1,951,1506,0,0
-266,-482,0,0,0,0,0,0,0,0,0,-1,958,1506,0,0
-259,-482,0,0,0,0,0,0,0,0,0,-1,965,1506,0,0
-252,-482,0,0,0,0,0,0,0,0,0,-1,972,1506,0,0
-245,-482,0,0,0,0,0,0,0,0,0,-1,979,1506,0,0
-238,-482,0,0,0,0,0,0,0,0,0,-1,986,1506,0,0
-231,-482,0,0,0,0,0,0,0,0,0,-1,993,1506,0,0
-224,-482,0,0,0,0,0,0,0,0,0,-1,1000,1506,0,0
-217,-482,0,0,0,0,0,0,0,0,0,-1,1007,1506,0,0
-210,-482,0,0,0,0,0,0,0,0,0,-1,1014,1506,0,0
-203,-482,0,0,0,0,0,0,0,0,0,-1,1021,1506,0,0
-196,-482,0,0,0,0,0,0,0,0,0,-1,1028,1506,0,0
-189,-482,0,0,0,0,0,0,0,0,0,-1,1035,1506,0,0
-182,-482,0,0,0,0,0,0,0,0,0,-1,1042,1506,0,0
-175,-482,0,0,0,0,0,0,0,0,0,-1,1049,1506,0,0
-168,-482,0,0,0,0,0,0,0,0,0,-1,1056,1506,0,0
-161,-482,0,0,0,0,0,0,0,0,0,-1,1063,1506,0,0
-154,-482,0,0,0,0,0,0,0,0,0,-1,1070,1506,0,0
-147,-482,0,0,0,0,0,0,0,0,0,-1,1077,1506,0,0
-140,-482,0,0,0,0,0,0,0,0,0,-1,1084,1506,0,0
-133,-482,0,0,0,0,0,0,0,0,0,-1,1091,1506,0,0
-126,-482,0,0,0,0,0,0,0,0,0,-1,1098,1506,0,0
-119,-482,0,0,0,0,0,0,0,0,0,-1,1105,1506,0,0
-112,-482,0,0,0,0,0,0,0,0,0,-1,1112,1506,0,0
-105,-482,0,0,0,0,0,0,0,0,0,-1,1119,1506,0,0
-98,-482,0,0,0,0,0,0,0,0,0,-1,1126,1506,0,0
-91,-482,0,0,0,0,0,0,0,0,0,-1,1133,1506,0,0
-84,-482,0,0,0,0,0,0,0,0,0,-1,1140,1506,0,0
-77,-482,0,0,0,0,0,0,0,0,0,-1,1147,1506,0,0
-70,-482,0,0,0,0,0,0,0,0,0,-1,1154,1506,0,0
-63,-482,0,0,0,0,0,0,0,0,0,-1,1161,1506,0,0
-56,-482,0,0,0,0,0,0,0,0,0,-1,1168,1506,0,0
-49,-482,0,0,0,0,0,0,0,0,0,-1,1175,1506,0,0
-42,-482,0,0,0,0,0,0,0,0,0,-1,1182,1506,0,0
-35,-482,0,0,0,0,0,0,0,0,0,-1,1189,1506,0,0
-28,-482,0,0,0,0,0,0,0,0,0,-1,1196,1506,0,0
-21,-482,0,0,0,0,0,0,0,0,0,-1,1203,1506,0,0
-14,-482,0,0,0,0,0,0,0,0,0,-1,1210,1506,0,0
-7,-482,0,0,0,0,0,0,0,0,0,-1,1217,1506,0,0
0,-482,0,0,0,0,0,0,0,0,0,-1,1224,1506,0,0
7,-482,0,0,0,0,0,0,0,0,0,-1,1231,1506,0,0
14,-482,0,0,0,0,0,0,0,0,0,-1,1238,1506,0,0
21,-482,0,0,0,0,0,0,0,0,0,-1,1245,1506,0,0
28,-482,0,0,0,0,0,0,0,0,0,-1,1252,1506,0,0
35,-482,0,0,0,0,0,0,0,0,0,-1,1259,1506,0,0
42,-482,0,0,0,0,0,0,0,0,0,-1,1266,1506,0,0
49,-482,0,0,0,0,0,0,0,0,0,-1,1273,1506,0,0
56,-482,0,0,0,0,0,0,0,0,0,-1,1280,1506,0,0
63,-482,0,0,0,0,0,0,0,0,0,-1,1287,1506,0,0
70,-482,0,0,0,0,0,0,0,0,0,-1,1294,1506,0,0
77,-482,0,0,0,0,0,0,0,0,0,-1,1301,1506,0,0
84,-482,0,0,0,0,0,0,0,0,0,-1,1308,1506,0,0
91,-482,0,0,0,0,0,0,0,0,0,-1,1315,1506,0,0
98,-482,0,0,0,0,0,0,0,0,0,-1,1322,1506,0,0
105,-482,0,0,0,0,0,0,0,0,0,-1,1329,1506,0,0
112,-482,0,0,0,0,0,0,0,0,0,-1,1336,1506,0,0
119,-482,0,0,0,0,0,0,0,0,0,-1,1343,1506,0,0
126,-482,0,0,0,0,0,0,0,0,0,-1,1350,1506,0,0
133,-482,0,0,0,0,0,0,0,0,0,-1,1357,1506,0,0
140,-482,0,0,0,0,0,0,0,0,0,-1,1364,1506,0,0
147,-482,0,0,0,0,0,0,0,0,0,-1,1371,1506,0,0
154,-482,0,0,0,0,0,0,0,0,0,-1,1378,1506,0,0
161,-482,0,0,0,0,0,0,0,0,0,-1,1385,1506,0,0
168,-482,0,0,0,0,0,0,0,0,0,-1,1392,1506,0,0
175,-482,0,0,0,0,0,0,0,0,0,-1,1399,1506,0,0
182,-482,0,0,0,0,0,0,0,0,0,-1,1406,1506,0,0
189,-482,0,0,0,0,0,0,0,0,0,-1,1413,1506,0,0
196,-482,0,0,0,0,0,0,0,0,0,-1,1420,1506,0,0
203,-482,0,0,0,0,0,0,0,0,0,-1,1427,1506,0,0
210,-482,0,0,0,0,0,0,0,0,0,-1,1434,1506,0,0
217,-482,0,0,0,0,0,0,0,0,0,-1,1441,1506,0,0
224,-482,0,0,0,0,0,0,0,0,0,-1,1448,1506,0,0
231,-482,0,0,0,0,0,0,0,0,0,-1,1455,1506,0,0
238,-482,0,0,0,0,0,0,0,0,0,-1,1462,1506,0,0
245,-482,0,0,0,0,0,0,0,0,0,-1,1469,1506,0,0
252,-482,0,0,0,0,0,0,0,0,0,-1,1476,1506,0,0
259,-482,0,0,0,0,0,0,0,0,0,-1,1483,1506,0,0
266,-482,0,0,0,0,0,0,0,0,0,-1,1490,1506,0,0
273,-482,0,0,0,0,0,0,0,0,0,-1,1497,1506,0,0
280,-482,0,0,0,0,0,0,0,0,0,-1,1504,1506,0,0
287,-482,0,0,0,0,0,0,0,0,0,-1,1511,1506,0,0
294,-482,0,0,0,0,0,0,0,0,0,-1,1518,1506,0,0
301,-482,0,0,0,0,0,0,0,0,0,-1,1525,1506,0,0
308,-482,0,0,0,0,0,0,0,0,0,-1,1532,1506,0,0
315,-482,0,0,0,0,0,0,0,0,0,-1,1539,1506,0,0
322,-482,0,0,0,0,0,0,0,0,0,-1,1546,1506,0,0
329,-482,0,0,0,0,0,0,0,0,0,-1,1553,1506,0,0
336,-482,0,0,0,0,0,0,0,0,0,-1,1560,1506,0,0
343,-482,0,0,0,0,0,0,0,0,0,-1,1567,1506,0,0
350,-482,0,0,0,0,0,0,0,0,0,-1,1574,1506,0,0
357,-482,0,0,0,0,0,0,0,0,0,-1,1581,1506,0,0
364,-482,0,0,0,0,0,0,0,0,0,-1,1588,1506,0,0
371,-482,0,0,0,0,0,0,0,0,0,-1,1595,1506,0,0
378,-482,0,0,0,0,0,0,0,0,0,-1,1602,1506,0,0
385,-482,0,0,0,0,0,0,0,0,0,-1,1609,1506,0,0
392,-482,0,0,0,0,0,0,0,0,0,-1,1616,1506,0,0
399,-482,0,0,0,0,0,0,0,0,0,-1,1623,1506,0,0
406,-482,0,0,0,0,0,0,0,0,0,-1,1630,1506,0,0
413,-482,0,0,0,0,0,0,0,0,0,-1,1637,1506,0,0
420,-482,0,0,0,0,0,0,0,0,0,-1,1644,1506,0,0
427,-482,0,0,0,0,0,0,0,0,0,-1,1651,1506,0,0
434,-482,0,0,0,0,0,0,0,0,0,-1,1658,1506,0,0
441,-482,0,0,0,0,0,0,0,0,0,-1,1665,1506,0,0
448,-482,4.24146,1.55383,0,0,0,0,0,0,0,-1,1672,1506,4.24149,-1.55381
455,-482,12.4122,1.09729,0,0,0,0,0,0,0,-1,1679,1506,12.4122,-1.09734
462,-482,15.0673,3.13135,0,0,0,0,0,0,0,-1,1686,1506,15.0672,-3.13134
469,-482,15.3793,3.46301,0,0,0,0,0,0,0,-1,1693,1506,15.3793,-3.46307
476,-482,8.69751,9.18738,0,0,0,0,0,0,0,-1,1700,1506,8.69753,-9.18739
483,-482,10.0902,7.17432,0,0,0,0,0,0,0,-1,1707,1506,10.0902,-7.1743
490,-482,11.6289,5.4928,0,0,0,0,0,0,0,-1,1714,1506,11.6289,-5.49283
497,-482,15.9539,7.40222,0,0,0,0,0,0,0,-1,1721,1506,15.9538,-7.40219
504,-482,20.4233,12.006,0,0,0,0,0,0,0,-1,1728,1506,20.4233,-12.006
511,-482,18.4937,12.9175,0,0,0,0,0,0,0,-1,1735,1506,18.4936,-12.9174
518,-482,16.6002,13.9679,0,0,0,0,0,0,0,-1,1742,1506,16.6003,-13.9679
525,-482,18.495,15.9618,0,0,0,0,0,0,0,-1,1749,1506,18.495,-15.9618
532,-482,19.9375,21.0775,0,0,0,0,0,0,0,-1,1756,1506,19.9375,-21.0775
539,-482,20.2291,20.5577,0,0,0,0,0,0,0,-1,1763,1506,20.2291,-20.5578
546,-482,25.0503,25.6775,0,0,0,0,0,0,0,-1,1770,1506,25.0503,-25.6775
553,-482,24.9362,24.8395,0,0,0,0,0,0,0,-1,1777,1506,24.9362,-24.8395
560,-482,25.0374,24.1537,0.00528826,0.00327337,-0.00254036,0.00701365,0.00154798,-0.596622,0.0042547,0.015962,1784,1506,25.0373,-24.1537
567,-482,25.1145,23.5011,0.00428215,0.0023112,-0.00193792,0.00547077,0.00112258,-0.550178,0.00333654,0.0148578,1791,1506,25.1145,-23.5011
574,-482,25.0989,22.9369,0.00358137,0.00170573,-0.00164,0.00453276,0.000754344,-0.525669,0.00280441,0.014631,1798,1506,25.0989,-22.9369
581,-482,25.059,22.3477,0.00302184,0.00124076,-0.00141354,0.00380197,0.000460619,-0.504303,0.00239591,0.0104991,1805,1506,25.059,-22.3477
588,-482,25.0175,21.7335,0.00267055,0.000917797,-0.00130082,0.00336266,0.000225684,-0.488966,0.00217046,0.0104144,1812,1506,25.0175,-21.7336
595,-482,25.0123,21.1115,0.00258724,0.000655188,-0.00123958,0.00319276,4.96628e-05,-0.454398,0.00211215,0.0159265,1819,1506,25.0123,-21.1115
602,-482,25.0204,20.504,0.00260177,0.000487657,-0.00125674,0.0031869,-9.74671e-05,-0.435742,0.00215782,0.0196468,1826,1506,25.0203,-20.5041
609,-482,24.9849,19.9191,0.00272325,0.000410974,-0.00125525,0.00327366,-0.000139433,-0.413237,0.00223037,0.0158492,1833,1506,24.9849,-19.9191
616,-482,24.9241,19.3149,0.00308211,0.000289228,-0.00121809,0.00353872,-0.000167379,-0.358644,0.00241687,0.0124589,1840,1506,24.9241,-19.315
623,-482,24.8798,18.7191,0.00362346,6.28148e-05,-0.00109832,0.00393499,-0.000248719,-0.276385,0.00271004,0.0179666,1847,1506,24.8797,-18.7191
630,-482,24.884,18.1758,0.00422806,4.7269e-05,-0.000958241,0.00443722,-0.000161896,-0.214909,0.00301357,0.0386794,1854,1506,24.884,-18.1758
637,-482,24.8987,17.4521,0,0,0,0,0,0,0,-1,1861,1506,24.8986,-17.4522
644,-482,17.5909,11.6163,0,0,0,0,0,0,0,-1,1868,1506,17.5909,-11.6163
651,-482,4.03845,7.05273,0,0,0,0,0,0,0,-1,1875,1506,4.03843,-7.05279
658,-482,10.0278,5.87903,0,0,0,0,0,0,0,-1,1882,1506,10.0279,-5.87902
665,-482,8.15198,3.22229,0,0,0,0,0,0,0,-1,1889,1506,8.15199,-3.22232
672,-482,9.87415,1.3147,0,0,0,0,0,0,0,-1,1896,1506,9.87416,-1.31473
679,-482,0,0,0,0,0,0,0,0,0,-1,1903,1506,0,0
686,-482,0,0,0,0,0,0,0,0,0,-1,1910,1506,0,0
693,-482,0,0,0,0,0,0,0,0,0,-1,1917,1506,0,0
700,-482,0,0,0,0,0,0,0,0,0,-1,1924,1506,0,0
707,-482,0,0,0,0,0,0,0,0,0,-1,1931,1506,0,0
714,-482,0,0,0,0,0,0,0,0,0,-1,1938,1506,0,0
721,-482,0,0,0,0,0,0,0,0,0,-1,1945,1506,0,0
728,-482,0,0,0,0,0,0,0,0,0,-1,1952,1506,0,0
735,-482,0,0,0,0,0,0,0,0,0,-1,1959,1506,0,0
742,-482,0,0,0,0,0,0,0,0,0,-1,1966,1506,0,0
749,-482,0,0,0,0,0,0,0,0,0,-1,1973,1506,0,0
756,-482,0,0,0,0,0,0,0,0,0,-1,1980,1506,0,0
763,-482,0,0,0,0,0,0,0,0,0,-1,1987,1506,0,0
770,-482,0,0,0,0,0,0,0,0,0,-1,1994,1506,0,0
777,-482,0,0,0,0,0,0,0,0,0,-1,2001,1506,0,0
784,-482,0,0,0,0,0,0,0,0,0,-1,2008,1506,0,0
791,-482,0,0,0,0,0,0,0,0,0,-1,2015,1506,0,0
798,-482,0,0,0,0,0,0,0,0,0,-1,2022,1506,0,0
805,-482,0,0,0,0,0,0,0,0,0,-1,2029,1506,0,0
812,-482,0,0,0,0,0,0,0,0,0,-1,2036,1506,0,0
-700,-489,0,0,0,0,0,0,0,0,0,-1,524,1513,0,0
-693,-489,0,0,0,0,0,0,0,0,0,-1,531,1513,0,0
-686,-489,0,0,0,0,0,0,0,0,0,-1,538,1513,0,0
-679,-489,0,0,0,0,0,0,0,0,0,-1,545,1513,0,0
-672,-489,0,0,0,0,0,0,0,0,0,-1,552,1513,0,0
-665,-489,0,0,0,0,0,0,0,0,0,-1,559,1513,0,0
-658,-489,0,0,0,0,0,0,0,0,0,-1,566,1513,0,0
-651,-489,0,0,0,0,0,0,0,0,0,-1,573,1513,0,0
-644,-489,0,0,0,0,0,0,0,0,0,-1,580,1513,0,0
-637,-489,0,0,0,0,0,0,0,0,0,-1,587,1513,0,0
-630,-489,0,0,0,0,0,0,0,0,0,-1,594,1513,0,0
-623,-489,0,0,0,0,0,0,0,0,0,-1,601,1513,0,0
-616,-489,0,0,0,0,0,0,0,0,0,-1,608,1513,0,0
-609,-489,0,0,0,0,0,0,0,0,0,-1,615,1513,0,0
-602,-489,0,0,0,0,0,0,0,0,0,-1,622,1513,0,0
-595,-489,0,0,0,0,0,0,0,0,0,-1,629,1513,0,0
-588,-489,0,0,0,0,0,0,0,0,0,-1,636,1513,0,0
-581,-489,0,0,0,0,0,0,0,0,0,-1,643,1513,0,0
-574,-489,0,0,0,0,0,0,0,0,0,-1,650,1513,0,0
-567,-489,0,0,0,0,0,0,0,0,0,-1,657,1513,0,0
-560,-489,0,0,0,0,0,0,0,0,0,-1,664,1513,0,0
-553,-489,-9.42206,8.5116,0,0,0,0,0,0,0,-1,671,1513,-9.42205,-8.51158
-546,-489,-7.80951,8.18506,0,0,0,0,0,0,0,-1,678,1513,-7.8095,-8.18503
-539,-489,-3.06879,2.82349,0,0,0,0,0,0,0,-1,685,1513,-3.06881,-2.82354
-532,-489,-3.14215,2.5835,0,0,0,0,0,0,0,-1,692,1513,-3.14213,-2.58353
-525,-489,-2.604,4.06274,0,0,0,0,0,0,0,-1,699,1513,-2.60399,-4.06274
-518,-489,-5.43774,7.48059,0,0,0,0,0,0,0,-1,706,1513,-5.43777,-7.48058
-511,-489,-7.52856,10.951,0,0,0,0,0,0,0,-1,713,1513,-7.52857,-10.951
-504,-489,-7.17352,12.8508,0,0,0,0,0,0,0,-1,720,1513,-7.17352,-12.8508
-497,-489,-5.51678,14.9254,0,0,0,0,0,0,0,-1,727,1513,-5.51681,-14.9254
-490,-489,-7.36945,17.0059,0,0,0,0,0,0,0,-1,734,1513,-7.36945,-17.0058
-483,-489,-7.36005,17.9254,-0.00271935,-6.26284e-05,-0.000794664,0.000156923,-0.0029389,-1.30124,0.00201361,0.0246319,741,1513,-7.36004,-17.9255
-476,-489,-7.35876,18.6639,-0.00234502,-7.56799e-05,-0.000797407,0.000176493,-0.00259719,-1.26451,0.00179319,0.00988686,748,1513,-7.35876,-18.664
-469,-489,-7.38379,19.3226,-0.00170937,8.56717e-05,-0.000535953,0.000233517,-0.00185721,-1.30164,0.00132287,0.0104377,755,1513,-7.38381,-19.3226
-462,-489,-7.41382,19.9568,-0.000906864,0.000400416,-0.000134416,0.000414094,-0.000920542,-1.46939,0.000788828,0.0156828,762,1513,-7.41379,-19.9568
-455,-489,-7.4588,20.5928,2.7138e-05,0.000830413,0.00038896,0.000987884,-0.000130334,1.18611,0.000706055,0.019264,769,1513,-7.4588,-20.5927
-448,-489,-7.50189,21.2172,0.00114347,0.00151862,0.00112827,0.0024748,0.000187283,0.867769,0.00159112,0.017209,776,1513,-7.50188,-21.2172
-441,-489,-7.49194,21.8699,0.00244913,0.00255228,0.00215016,0.00465149,0.000349922,0.797389,0.00299118,0.0152666,783,1513,-7.49194,-21.8698
-434,-489,-7.52374,22.4977,0.00385983,0.00399909,0.0034082,0.00733837,0.000520553,0.795612,0.00472829,0.0174599,790,1513,-7.52375,-22.4977
-427,-489,-7.56543,23.1362,0.0054047,0.0056033,0.00482668,0.0103317,0.000676294,0.795683,0.0066738,0.0182302,797,1513,-7.56542,-23.1362
-420,-489,-7.60358,23.9149,0.00704349,0.00785755,0.00657003,0.0140331,0.000867889,0.816335,0.00907997,0.02517,804,1513,-7.60357,-23.915
-413,-489,-7.20367,24.6746,0,0,0,0,0,0,0,-1,811,1513,-7.2037,-24.6745
-406,-489,-3.10559,15.8143,0,0,0,0,0,0,0,-1,818,1513,-3.10556,-15.8143
-399,-489,-1.41241,9.10718,0,0,0,0,0,0,0,-1,825,1513,-1.41244,-9.10722
-392,-489,-1.0368,9.30469,0,0,0,0,0,0,0,-1,832,1513,-1.03682,-9.30466
-385,-489,-1.75165,10.6559,0,0,0,0,0,0,0,-1,839,1513,-1.75165,-10.6559
-378,-489,-0.401428,9.87048,0,0,0,0,0,0,0,-1,846,1513,-0.401415,-9.87047
-371,-489,-1.11633,10.6606,0,0,0,0,0,0,0,-1,853,1513,-1.11633,-10.6606
-364,-489,-0.503113,8.98486,0,0,0,0,0,0,0,-1,860,1513,-0.503097,-8.98482
-357,-489,-0.609924,10.9606,0,0,0,0,0,0,0,-1,867,1513,-0.609947,-10.9605
-350,-489,-7.94659,-0.358887,0,0,0,0,0,0,0,-1,874,1513,-7.94657,0.358912
-343,-489,-7.49323,-0.437866,0,0,0,0,0,0,0,-1,881,1513,-7.49322,0.437823
-336,-489,-7.02332,-0.53125,0,0,0,0,0,0,0,-1,888,1513,-7.0233,0.531295
-329,-489,-12.7423,4.73523,0,0,0,0,0,0,0,-1,895,1513,-12.7423,-4.73521
-322,-489,0,0,0,0,0,0,0,0,0,-1,902,1513,0,0
-315,-489,0,0,0,0,0,0,0,0,0,-1,909,1513,0,0
-308,-489,0,0,0,0,0,0,0,0,0,-1,916,1513,0,0
-301,-489,0,0,0,0,0,0,0,0,0,-1,923,1513,0,0
-294,-489,0,0,0,0,0,0,0,0,0,-1,930,1513,0,0
-287,-489,0,0,0,0,0,0,0,0,0,-1,937,1513,0,0
-280,-489,0,0,0,0,0,0,0,0,0,-1,944,1513,0,0
-273,-489,0,0,0,0,0,0,0,0,0,-1,951,1513,0,0
-266,-489,0,0,0,0,0,0,0,0,0,-1,958,1513,0,0
-259,-489,0,0,0,0,0,0,0,0,0,-1,965,1513,0,0
-252,-489,0,0,0,0,0,0,0,0,0,-1,972,1513,0,0
-245,-489,0,0,0,0,0,0,0,0,0,-1,979,1513,0,0
-238,-489,0,0,0,0,0,0,0,0,0,-1,986,1513,0,0
-231,-489,0,0,0,0,0,0,0,0,0,-1,993,1513,0,0
-224,-489,0,0,0,0,0,0,0,0,0,-1,1000,1513,0,0
-217,-489,0,0,0,0,0,0,0,0,0,-1,1007,1513,0,0
-210,-489,0,0,0,0,0,0,0,0,0,-1,1014,1513,0,0
-203,-489,0,0,0,0,0,0,0,0,0,-1,1021,1513,0,0
-196,-489,0,0,0,0,0,0,0,0,0,-1,1028,1513,0,0
-189,-489,0,0,0,0,0,0,0,0,0,-1,1035,1513,0,0
-182,-489,0,0,0,0,0,0,0,0,0,-1,1042,1513,0,0
-175,-489,0,0,0,0,0,0,0,0,0,-1,1049,1513,0,0
-168,-489,0,0,0,0,0,0,0,0,0,-1,1056,1513,0,0
-161,-489,0,0,0,0,0,0,0,0,0,-1,1063,1513,0,0
-154,-489,0,0,0,0,0,0,0,0,0,-1,1070,1513,0,0
-147,-489,0,0,0,0,0,0,0,0,0,-1,1077,1513,0,0
-140,-489,0,0,0,0,0,0,0,0,0,-1,1084,1513,0,0
-133,-489,0,0,0,0,0,0,0,0,0,-1,1091,1513,0,0
-126,-489,0,0,0,0,0,0,0,0,0,-1,1098,1513,0,0
-119,-489,0,0,0,0,0,0,0,0,0,-1,1105,1513,0,0
-112,-489,0,0,0,0,0,0,0,0,0,-1,1112,1513,0,0
-105,-489,0,0,0,0,0,0,0,0,0,-1,1119,1513,0,0
-98,-489,0,0,0,0,0,0,0,0,0,-1,1126,1513,0,0
-91,-489,0,0,0,0,0,0,0,0,0,-1,1133,1513,0,0
-84,-489,0,0,0,0,0,0,0,0,0,-1,1140,1513,0,0
-77,-489,0,0,0,0,0,0,0,0,0,-1,1147,1513,0,0
-70,-489,0,0,0,0,0,0,0,0,0,-1,1154,1513,0,0
-63,-489,0,0,0,0,0,0,0,0,0,-1,1161,1513,0,0
-56,-489,0,0,0,0,0,0,0,0,0,-1,1168,1513,0,0
-49,-489,0,0,0,0,0,0,0,0,0,-1,1175,1513,0,0
-42,-489,0,0,0,0,0,0,0,0,0,-1,1182,1513,0,0
-35,-489,0,0,0,0,0,0,0,0,0,-1,1189,1513,0,0
-28,-489,0,0,0,0,0,0,0,0,0,-1,1196,1513,0,0
-21,-489,0,0,0,0,0,0,0,0,0,-1,1203,1513,0,0
-14,-489,0,0,0,0,0,0,0,0,0,-1,1210,1513,0,0
-7,-489,0,0,0,0,0,0,0,0,0,-1,1217,1513,0,0
0,-489,0,0,0,0,0,0,0,0,0,-1,1224,1513,0,0
7,-489,0,0,0,0,0,0,0,0,0,-1,1231,1513,0,0
14,-489,0,0,0,0,0,0,0,0,0,-1,1238,1513,0,0
21,-489,0,0,0,0,0,0,0,0,0,-1,1245,1513,0,0
28,-489,0,0,0,0,0,0,0,0,0,-1,1252,1513,0,0
35,-489,0,0,0,0,0,0,0,0,0,-1,1259,1513,0,0
42,-489,0,0,0,0,0,0,0,0,0,-1,1266,1513,0,0
49,-489,0,0,0,0,0,0,0,0,0,-1,1273,1513,0,0
56,-489,0,0,0,0,0,0,0,0,0,-1,1280,1513,0,0
63,-489,0,0,0,0,0,0,0,0,0,-1,1287,1513,0,0
70,-489,0,0,0,0,0,0,0,0,0,-1,1294,1513,0,0
77,-489,0,0,0,0,0,0,0,0,0,-1,1301,1513,0,0
84,-489,0,0,0,0,0,0,0,0,0,-1,1308,1513,0,0
91,-489,0,0,0,0,0,0,0,0,0,-1,1315,1513,0,0
98,-489,0,0,0,0,0,0,0,0,0,-1,1322,1513,0,0
105,-489,0,0,0,0,0,0,0,0,0,-1,1329,1513,0,0
112,-489,0,0,0,0,0,0,0,0,0,-1,1336,1513,0,0
119,-489,0,0,0,0,0,0,0,0,0,-1,1343,1513,0,0
126,-489,0,0,0,0,0,0,0,0,0,-1,1350,1513,0,0
133,-489,0,0,0,0,0,0,0,0,0,-1,1357,1513,0,0
140,-489,0,0,0,0,0,0,0,0,0,-1,1364,1513,0,0
147,-489,0,0,0,0,0,0,0,0,0,-1,1371,1513,0,0
154,-489,0,0,0,0,0,0,0,0,0,-1,1378,1513,0,0
161,-489,0,0,0,0,0,0,0,0,0,-1,1385,1513,0,0
168,-489,0,0,0,0,0,0,0,0,0,-1,1392,1513,0,0
175,-489,0,0,0,0,0,0,0,0,0,-1,1399,1513,0,0
182,-489,0,0,0,0,0,0,0,0,0,-1,1406,1513,0,0
189,-489,0,0,0,0,0,0,0,0,0,-1,1413,1513,0,0
196,-489,0,0,0,0,0,0,0,0,0,-1,1420,1513,0,0
203,-489,0,0,0,0,0,0,0,0,0,-1,1427,1513,0,0
210,-489,0,0,0,0,0,0,0,0,0,-1,1434,1513,0,0
217,-489,0,0,0,0,0,0,0,0,0,-1,1441,1513,0,0
224,-489,0,0,0,0,0,0,0,0,0,-1,1448,1513,0,0
231,-489,0,0,0,0,0,0,0,0,0,-1,1455,1513,0,0
238,-489,0,0,0,0,0,0,0,0,0,-1,1462,1513,0,0
245,-489,0,0,0,0,0,0,0,0,0,-1,1469,1513,0,0
252,-489,0,0,0,0,0,0,0,0,0,-1,1476,1513,0,0
259,-489,0,0,0,0,0,0,0,0,0,-1,1483,1513,0,0
266,-489,0,0,0,0,0,0,0,0,0,-1,1490,1513,0,0
273,-489,0,0,0,0,0,0,0,0,0,-1,1497,1513,0,0
280,-489,0,0,0,0,0,0,0,0,0,-1,1504,1513,0,0
287,-489,0,0,0,0,0,0,0,0,0,-1,1511,1513,0,0
294,-489,0,0,0,0,0,0,0,0,0,-1,1518,1513,0,0
301,-489,0,0,0,0,0,0,0,0,0,-1,1525,1513,0,0
308,-489,0,0,0,0,0,0,0,0,0,-1,1532,1513,0,0
315,-489,0,0,0,0,0,0,0,0,0,-1,1539,1513,0,0
322,-489,0,0,0,0,0,0,0,0,0,-1,1546,1513,0,0
329,-489,0,0,0,0,0,0,0,0,0,-1,1553,1513,0,0
336,-489,0,0,0,0,0,0,0,0,0,-1,1560,1513,0,0
343,-489,0,0,0,0,0,0,0,0,0,-1,1567,1513,0,0
350,-489,0,0,0,0,0,0,0,0,0,-1,1574,1513,0,0
357,-489,0,0,0,0,0,0,0,0,0,-1,1581,1513,0,0
364,-489,0,0,0,0,0,0,0,0,0,-1,1588,1513,0,0
371,-489,0,0,0,0,0,0,0,0,0,-1,1595,1513,0,0
378,-489,0,0,0,0,0,0,0,0,0,-1,1602,1513,0,0
385,-489,0,0,0,0,0,0,0,0,0,-1,1609,1513,0,0
392,-489,0,0,0,0,0,0,0,0,0,-1,1616,1513,0,0
399,-489,0,0,0,0,0,0,0,0,0,-1,1623,1513,0,0
406,-489,0,0,0,0,0,0,0,0,0,-1,1630,1513,0,0
413,-489,0,0,0,0,0,0,0,0,0,-1,1637,1513,0,0
420,-489,0,0,0,0,0,0,0,0,0,-1,1644,1513,0,0
427,-489,0,0,0,0,0,0,0,0,0,-1,1651,1513,0,0
434,-489,0,0,0,0,0,0,0,0,0,-1,1658,1513,0,0
441,-489,11.4602,2.56787,0,0,0,0,0,0,0,-1,1665,1513,11.4602,-2.56786
448,-489,12.4425,1.72351,0,0,0,0,0,0,0,-1,1672,1513,12.4425,-1.72349
455,-489,12.5575,1.37463,0,0,0,0,0,0,0,-1,1679,1513,12.5575,-1.37469
462,-489,14.9784,3.84888,0,0,0,0,0,0,0,-1,1686,1513,14.9784,-3.84892
469,-489,15.1367,4.53101,0,0,0,0,0,0,0,-1,1693,1513,15.1368,-4.531
476,-489,15.5536,5.09338,0,0,0,0,0,0,0,-1,1700,1513,15.5536,-5.09339
483,-489,8.96912,8.37805,0,0,0,0,0,0,0,-1,1707,1513,8.96909,-8.37809
490,-489,10.5366,7.49561,0,0,0,0,0,0,0,-1,1714,1513,10.5367,-7.49558
497,-489,14.6051,11.8397,0,0,0,0,0,0,0,-1,1721,1513,14.6051,-11.8397
504,-489,16.7527,14.1735,0,0,0,0,0,0,0,-1,1728,1513,16.7527,-14.1735
511,-489,17.83,17.7993,0,0,0,0,0,0,0,-1,1735,1513,17.83,-17.7993
518,-489,16.4751,14.3682,0,0,0,0,0,0,0,-1,1742,1513,16.4751,-14.3682
525,-489,17.2606,17.4949,0,0,0,0,0,0,0,-1,1749,1513,17.2606,-17.4949
532,-489,19.397,21.0182,0,0,0,0,0,0,0,-1,1756,1513,19.397,-21.0182
539,-489,24.3712,26.3431,0,0,0,0,0,0,0,-1,1763,1513,24.3712,-26.3432
546,-489,24.5165,25.5546,0.00720518,0.00567552,-0.00433713,0.0108444,0.0020363,-0.698123,0.00665549,0.0349625,1770,1513,24.5165,-25.5546
553,-489,24.4792,24.8223,0.0057617,0.00414944,-0.00317214,0.00822854,0.0016826,-0.660968,0.00501972,0.0222656,1777,1513,24.4793,-24.8222
560,-489,24.506,24.1392,0.00464333,0.00293583,-0.00232559,0.00626693,0.00131222,-0.60948,0.0038165,0.0139069,1784,1513,24.506,-24.1392
567,-489,24.5439,23.5282,0.00384071,0.00205446,-0.00180347,0.00496009,0.000935077,-0.555487,0.0030433,0.0148785,1791,1513,24.5439,-23.5282
574,-489,24.4884,22.9821,0.00330953,0.00148349,-0.0015399,0.00418673,0.000606283,-0.517804,0.00261261,0.0155221,1798,1513,24.4884,-22.982
581,-489,24.483,22.3774,0.00291164,0.0010186,-0.0013489,0.00361297,0.000317266,-0.479465,0.00231017,0.0113282,1805,1513,24.483,-22.3774
588,-489,24.4537,21.7665,0.00272272,0.000732703,-0.00130437,0.00336826,8.71572e-05,-0.459568,0.00221703,0.0127549,1812,1513,24.4538,-21.7664
595,-489,24.4375,21.1487,0.00280438,0.000528126,-0.0013261,0.00341379,-8.12822e-05,-0.430766,0.00230343,0.0181722,1819,1513,24.4375,-21.1487
602,-489,24.4066,20.5476,0.00298036,0.000455433,-0.00143941,0.0036325,-0.000196708,-0.425397,0.00248983,0.0233898,1826,1513,24.4066,-20.5476
609,-489,24.3716,19.9536,0.00326934,0.000454744,-0.00155093,0.00395629,-0.000232203,-0.416956,0.00271823,0.0171381,1833,1513,24.3715,-19.9536
616,-489,24.3553,19.3187,0.0038791,0.00038319,-0.00162165,0.00451549,-0.000253198,-0.373966,0.00309817,0.0195609,1840,1513,24.3553,-19.3188
623,-489,24.3167,18.6954,0.00464055,0.000216046,-0.00157377,0.00514323,-0.000286625,-0.309164,0.00352824,0.0419289,1847,1513,24.3167,-18.6955
630,-489,24.3031,17.9077,0,0,0,0,0,0,0,-1,1854,1513,24.3031,-17.9077
637,-489,17.2048,11.8091,0,0,0,0,0,0,0,-1,1861,1513,17.2048,-11.8091
644,-489,9.67578,8.45874,0,0,0,0,0,0,0,-1,1868,1513,9.67576,-8.45879
651,-489,6.13818,6.85095,0,0,0,0,0,0,0,-1,1875,1513,6.13823,-6.85097
658,-489,5.43848,7.75513,0,0,0,0,0,0,0,-1,1882,1513,5.43844,-7.75509
665,-489,5.48438,8.59912,0,0,0,0,0,0,0,-1,1889,1513,5.48434,-8.59907
672,-489,0,0,0,0,0,0,0,0,0,-1,1896,1513,0,0
679,-489,0,0,0,0,0,0,0,0,0,-1,1903,1513,0,0
686,-489,0,0,0,0,0,0,0,0,0,-1,1910,1513,0,0
693,-489,0,0,0,0,0,0,0,0,0,-1,1917,1513,0,0
700,-489,0,0,0,0,0,0,0,0,0,-1,1924,1513,0,0
707,-489,0,0,0,0,0,0,0,0,0,-1,1931,1513,0,0
714,-489,0,0,0,0,0,0,0,0,0,-1,1938,1513,0,0
721,-489,0,0,0,0,0,0,0,0,0,-1,1945,1513,0,0
728,-489,0,0,0,0,0,0,0,0,0,-1,1952,1513,0,0
735,-489,0,0,0,0,0,0,0,0,0,-1,1959,1513,0,0
742,-489,0,0,0,0,0,0,0,0,0,-1,1966,1513,0,0
749,-489,0,0,0,0,0,0,0,0,0,-1,1973,1513,0,0
756,-489,0,0,0,0,0,0,0,0,0,-1,1980,1513,0,0
763,-489,0,0,0,0,0,0,0,0,0,-1,1987,1513,0,0
770,-489,0,0,0,0,0,0,0,0,0,-1,1994,1513,0,0
777,-489,0,0,0,0,0,0,0,0,0,-1,2001,1513,0,0
784,-489,0,0,0,0,0,0,0,0,0,-1,2008,1513,0,0
791,-489,0,0,0,0,0,0,0,0,0,-1,2015,1513,0,0
798,-489,0,0,0,0,0,0,0,0,0,-1,2022,1513,0,0
805,-489,0,0,0,0,0,0,0,0,0,-1,2029,1513,0,0
812,-489,0,0,0,0,0,0,0,0,0,-1,2036,1513,0,0
-700,-496,0,0,0,0,0,0,0,0,0,-1,524,1520,0,0
-693,-496,0,0,0,0,0,0,0,0,0,-1,531,1520,0,0
-686,-496,0,0,0,0,0,0,0,0,0,-1,538,1520,0,0
-679,-496,0,0,0,0,0,0,0,0,0,-1,545,1520,0,0
-672,-496,0,0,0,0,0,0,0,0,0,-1,552,1520,0,0
-665,-496,0,0,0,0,0,0,0,0,0,-1,559,1520,0,0
-658,-496,0,0,0,0,0,0,0,0,0,-1,566,1520,0,0
-651,-496,0,0,0,0,0,0,0,0,0,-1,573,1520,0,0
-644,-496,0,0,0,0,0,0,0,0,0,-1,580,1520,0,0
-637,-496,0,0,0,0,0,0,0,0,0,-1,587,1520,0,0
-630,-496,0,0,0,0,0,0,0,0,0,-1,594,1520,0,0
-623,-496,0,0,0,0,0,0,0,0,0,-1,601,1520,0,0
-616,-496,0,0,0,0,0,0,0,0,0,-1,608,1520,0,0
-609,-496,0,0,0,0,0,0,0,0,0,-1,615,1520,0,0
-602,-496,0,0,0,0,0,0,0,0,0,-1,622,1520,0,0
-595,-496,0,0,0,0,0,0,0,0,0,-1,629,1520,0,0
-588,-496,0,0,0,0,0,0,0,0,0,-1,636,1520,0,0
-581,-496,0,0,0,0,0,0,0,0,0,-1,643,1520,0,0
-574,-496,0,0,0,0,0,0,0,0,0,-1,650,1520,0,0
-567,-496,0,0,0,0,0,0,0,0,0,-1,657,1520,0,0
-560,-496,0,0,0,0,0,0,0,0,0,-1,664,1520,0,0
-553,-496,0,0,0,0,0,0,0,0,0,-1,671,1520,0,0
-546,-496,-8.09711,7.94836,0,0,0,0,0,0,0,-1,678,1520,-8.09712,-7.94842
-539,-496,-3.20129,1.16052,0,0,0,0,0,0,0,-1,685,1520,-3.20131,-1.16054
-532,-496,-2.98279,2.62146,0,0,0,0,0,0,0,-1,692,1520,-2.98278,-2.62151
-525,-496,-2.75201,4.08032,0,0,0,0,0,0,0,-1,699,1520,-2.75201,-4.08031
-518,-496,-2.6333,5.36072,0,0,0,0,0,0,0,-1,706,1520,-2.63328,-5.36077
-511,-496,-7.92126,9.68604,0,0,0,0,0,0,0,-1,713,1520,-7.92127,-9.68598
-504,-496,-7.51044,11.6274,0,0,0,0,0,0,0,-1,720,1520,-7.51042,-11.6275
-497,-496,-5.30933,14.4291,0,0,0,0,0,0,0,-1,727,1520,-5.30932,-14.4291
-490,-496,-6.57764,17.4556,0,0,0,0,0,0,0,-1,734,1520,-6.57761,-17.4556
-483,-496,-6.61902,18.202,-0.00469499,0.000934869,-0.00148134,0.00130085,-0.00506097,-1.32858,0.00388097,0.0416768,741,1520,-6.61904,-18.202
-476,-496,-6.73688,18.707,-0.00404085,0.00073066,-0.00138801,0.00110505,-0.00441524,-1.30733,0.00337274,0.0180816,748,1520,-6.7369,-18.7071
-469,-496,-6.75543,19.3612,-0.00318564,0.000661846,-0.00106545,0.000937186,-0.00346098,-1.3179,0.00267501,0.0102004,755,1520,-6.75542,-19.3612
-462,-496,-6.79791,20.0066,-0.00220151,0.000761399,-0.000637302,0.000892663,-0.00233277,-1.36767,0.00192308,0.0155174,762,1520,-6.79789,-20.0067
-455,-496,-6.85938,20.6484,-0.00112953,0.00094441,-0.000133053,0.000952911,-0.00113803,-1.50699,0.00120878,0.0207967,769,1520,-6.85938,-20.6485
-448,-496,-6.87885,21.2937,6.65879e-05,0.00134306,0.000531845,0.00153561,-0.000125961,1.22344,0.00106821,0.0195913,776,1520,-6.87883,-21.2938
-441,-496,-6.85205,21.9097,0.00141234,0.00209681,0.00145405,0.00324836,0.000260795,0.900979,0.00208409,0.0152945,783,1520,-6.85204,-21.9097
-434,-496,-6.88043,22.5366,0.00282128,0.00323771,0.002577,0.00561489,0.000444101,0.825709,0.00360436,0.0139916,790,1520,-6.88041,-22.5366
-427,-496,-6.92181,23.1769,0.00431529,0.00454745,0.0038311,0.00826423,0.000598511,0.800544,0.00532122,0.0174656,797,1520,-6.92183,-23.1769
-420,-496,-6.94794,23.7987,0.00590536,0.00632348,0.00534967,0.0114682,0.000760664,0.804928,0.00740493,0.0182867,804,1520,-6.94793,-23.7987
-413,-496,-6.87445,24.4871,0.00764324,0.00886179,0.0072017,0.0154799,0.00102509,0.827599,0.0099958,0.031564,811,1520,-6.87446,-24.4871
-406,-496,-6.73328,25.3937,0,0,0,0,0,0,0,-1,818,1520,-6.7333,-25.3936
-399,-496,-6.38513,26.3455,0,0,0,0,0,0,0,-1,825,1520,-6.38514,-26.3455
-392,-496,-1.49786,12.387,0,0,0,0,0,0,0,-1,832,1520,-1.49788,-12.387
-385,-496,-1.72437,11.4985,0,0,0,0,0,0,0,-1,839,1520,-1.72436,-11.4985
-378,-496,-1.45532,14.0719,0,0,0,0,0,0,0,-1,846,1520,-1.45533,-14.0719
-371,-496,0.0877075,12.5299,0,0,0,0,0,0,0,-1,853,1520,0.0876896,-12.5299
-364,-496,0.0881348,10.6422,0,0,0,0,0,0,0,-1,860,1520,0.0881368,-10.6423
-357,-496,0.323792,7.56812,0,0,0,0,0,0,0,-1,867,1520,0.323782,-7.56806
-350,-496,2.1535,7.18945,0,0,0,0,0,0,0,-1,874,1520,2.15348,-7.1894
-343,-496,-7.56244,0.335327,0,0,0,0,0,0,0,-1,881,1520,-7.56242,-0.335322
-336,-496,-3.99249,6.02222,0,0,0,0,0,0,0,-1,888,1520,-3.99246,-6.0222
-329,-496,-6.93689,-0.100342,0,0,0,0,0,0,0,-1,895,1520,-6.93686,0.1003
-322,-496,-6.17505,0.494385,0,0,0,0,0,0,0,-1,902,1520,-6.17507,-0.49437
-315,-496,-7.539,5.78638,0,0,0,0,0,0,0,-1,909,1520,-7.53898,-5.78633
-308,-496,0,0,0,0,0,0,0,0,0,-1,916,1520,0,0
-301,-496,0,0,0,0,0,0,0,0,0,-1,923,1520,0,0
-294,-496,0,0,0,0,0,0,0,0,0,-1,930,1520,0,0
-287,-496,0,0,0,0,0,0,0,0,0,-1,937,1520,0,0
-280,-496,0,0,0,0,0,0,0,0,0,-1,944,1520,0,0
-273,-496,0,0,0,0,0,0,0,0,0,-1,951,1520,0,0
-266,-496,0,0,0,0,0,0,0,0,0,-1,958,1520,0,0
-259,-496,0,0,0,0,0,0,0,0,0,-1,965,1520,0,0
-252,-496,0,0,0,0,0,0,0,0,0,-1,972,1520,0,0
-245,-496,0,0,0,0,0,0,0,0,0,-1,979,1520,0,0
-238,-496,0,0,0,0,0,0,0,0,0,-1,986,1520,0,0
-231,-496,0,0,0,0,0,0,0,0,0,-1,993,1520,0,0
-224,-496,0,0,0,0,0,0,0,0,0,-1,1000,1520,0,0
-217,-496,0,0,0,0,0,0,0,0,0,-1,1007,1520,0,0
-210,-496,0,0,0,0,0,0,0,0,0,-1,1014,1520,0,0
-203,-496,0,0,0,0,0,0,0,0,0,-1,1021,1520,0,0
-196,-496,0,0,0,0,0,0,0,0,0,-1,1028,1520,0,0
-189,-496,0,0,0,0,0,0,0,0,0,-1,1035,1520,0,0
-182,-496,0,0,0,0,0,0,0,0,0,-1,1042,1520,0,0
-175,-496,0,0,0,0,0,0,0,0,0,-1,1049,1520,0,0
-168,-496,0,0,0,0,0,0,0,0,0,-1,1056,1520,0,0
-161,-496,0,0,0,0,0,0,0,0,0,-1,1063,1520,0,0
-154,-496,0,0,0,0,0,0,0,0,0,-1,1070,1520,0,0
-147,-496,0,0,0,0,0,0,0,0,0,-1,1077,1520,0,0
-140,-496,0,0,0,0,0,0,0,0,0,-1,1084,1520,0,0
-133,-496,0,0,0,0,0,0,0,0,0,-1,1091,1520,0,0
-126,-496,0,0,0,0,0,0,0,0,0,-1,1098,1520,0,0
-119,-496,0,0,0,0,0,0,0,0,0,-1,1105,1520,0,0
-112,-496,0,0,0,0,0,0,0,0,0,-1,1112,1520,0,0
-105,-496,0,0,0,0,0,0,0,0,0,-1,1119,1520,0,0
-98,-496,0,0,0,0,0,0,0,0,0,-1,1126,1520,0,0
-91,-496,0,0,0,0,0,0,0,0,0,-1,1133,1520,0,0
-84,-496,0,0,0,0,0,0,0,0,0,-1,1140,1520,0,0
-77,-496,0,0,0,0,0,0,0,0,0,-1,1147,1520,0,0
-70,-496,0,0,0,0,0,0,0,0,0,-1,1154,1520,0,0
-63,-496,0,0,0,0,0,0,0,0,0,-1,1161,1520,0,0
-56,-496,0,0,0,0,0,0,0,0,0,-1,1168,1520,0,0
-49,-496,0,0,0,0,0,0,0,0,0,-1,1175,1520,0,0
-42,-496,0,0,0,0,0,0,0,0,0,-1,1182,1520,0,0
-35,-496,0,0,0,0,0,0,0,0,0,-1,1189,1520,0,0
-28,-496,0,0,0,0,0,0,0,0,0,-1,1196,1520,0,0
-21,-496,0,0,0,0,0,0,0,0,0,-1,1203,1520,0,0
-14,-496,0,0,0,0,0,0,0,0,0,-1,1210,1520,0,0
-7,-496,0,0,0,0,0,0,0,0,0,-1,1217,1520,0,0
0,-496,0,0,0,0,0,0,0,0,0,-1,1224,1520,0,0
7,-496,0,0,0,0,0,0,0,0,0,-1,1231,1520,0,0
14,-496,0,0,0,0,0,0,0,0,0,-1,1238,1520,0,0
21,-496,0,0,0,0,0,0,0,0,0,-1,1245,1520,0,0
28,-496,0,0,0,0,0,0,0,0,0,-1,1252,1520,0,0
35,-496,0,0,0,0,0,0,0,0,0,-1,1259,1520,0,0
42,-496,0,0,0,0,0,0,0,0,0,-1,1266,1520,0,0
49,-496,0,0,0,0,0,0,0,0,0,-1,1273,1520,0,0
56,-496,0,0,0,0,0,0,0,0,0,-1,1280,1520,0,0
63,-496,0,0,0,0,0,0,0,0,0,-1,1287,1520,0,0
70,-496,0,0,0,0,0,0,0,0,0,-1,1294,1520,0,0
77,-496,0,0,0,0,0,0,0,0,0,-1,1301,1520,0,0
84,-496,0,0,0,0,0,0,0,0,0,-1,1308,1520,0,0
91,-496,0,0,0,0,0,0,0,0,0,-1,1315,1520,0,0
98,-496,0,0,0,0,0,0,0,0,0,-1,1322,1520,0,0
105,-496,0,0,0,0,0,0,0,0,0,-1,1329,1520,0,0
112,-496,0,0,0,0,0,0,0,0,0,-1,1336,1520,0,0
119,-496,0,0,0,0,0,0,0,0,0,-1,1343,1520,0,0
126,-496,0,0,0,0,0,0,0,0,0,-1,1350,1520,0,0
133,-496,0,0,0,0,0,0,0,0,0,-1,1357,1520,0,0
140,-496,0,0,0,0,0,0,0,0,0,-1,1364,1520,0,0
147,-496,0,0,0,0,0,0,0,0,0,-1,1371,1520,0,0
154,-496,0,0,0,0,0,0,0,0,0,-1,1378,1520,0,0
161,-496,0,0,0,0,0,0,0,0,0,-1,1385,1520,0,0
168,-496,0,0,0,0,0,0,0,0,0,-1,1392,1520,0,0
175,-496,0,0,0,0,0,0,0,0,0,-1,1399,1520,0,0
182,-496,0,0,0,0,0,0,0,0,0,-1,1406,1520,0,0
189,-496,0,0,0,0,0,0,0,0,0,-1,1413,1520,0,0
196,-496,0,0,0,0,0,0,0,0,0,-1,1420,1520,0,0
203,-496,0,0,0,0,0,0,0,0,0,-1,1427,1520,0,0
210,-496,0,0,0,0,0,0,0,0,0,-1,1434,1520,0,0
217,-496,0,0,0,0,0,0,0,0,0,-1,1441,1520,0,0
224,-496,0,0,0,0,0,0,0,0,0,-1,1448,1520,0,0
231,-496,0,0,0,0,0,0,0,0,0,-1,1455,1520,0,0
238,-496,0,0,0,0,0,0,0,0,0,-1,1462,1520,0,0
245,-496,0,0,0,0,0,0,0,0,0,-1,1469,1520,0,0
252,-496,0,0,0,0,0,0,0,0,0,-1,1476,1520,0,0
259,-496,0,0,0,0,0,0,0,0,0,-1,1483,1520,0,0
266,-496,0,0,0,0,0,0,0,0,0,-1,1490,1520,0,0
273,-496,0,0,0,0,0,0,0,0,0,-1,1497,1520,0,0
280,-496,0,0,0,0,0,0,0,0,0,-1,1504,1520,0,0
287,-496,0,0,0,0,0,0,0,0,0,-1,1511,1520,0,0
294,-496,0,0,0,0,0,0,0,0,0,-1,1518,1520,0,0
301,-496,0,0,0,0,0,0,0,0,0,-1,1525,1520,0,0
308,-496,0,0,0,0,0,0,0,0,0,-1,1532,1520,0,0
315,-496,0,0,0,0,0,0,0,0,0,-1,1539,1520,0,0
322,-496,0,0,0,0,0,0,0,0,0,-1,1546,1520,0,0
329,-496,0,0,0,0,0,0,0,0,0,-1,1553,1520,0,0
336,-496,0,0,0,0,0,0,0,0,0,-1,1560,1520,0,0
343,-496,0,0,0,0,0,0,0,0,0,-1,1567,1520,0,0
350,-496,0,0,0,0,0,0,0,0,0,-1,1574,1520,0,0
357,-496,0,0,0,0,0,0,0,0,0,-1,1581,1520,0,0
364,-496,0,0,0,0,0,0,0,0,0,-1,1588,1520,0,0
371,-496,0,0,0,0,0,0,0,0,0,-1,1595,1520,0,0
378,-496,0,0,0,0,0,0,0,0,0,-1,1602,1520,0,0
385,-496,0,0,0,0,0,0,0,0,0,-1,1609,1520,0,0
392,-496,0,0,0,0,0,0,0,0,0,-1,1616,1520,0,0
399,-496,0,0,0,0,0,0,0,0,0,-1,1623,1520,0,0
406,-496,0,0,0,0,0,0,0,0,0,-1,1630,1520,0,0
413,-496,0,0,0,0,0,0,0,0,0,-1,1637,1520,0,0
420,-496,0,0,0,0,0,0,0,0,0,-1,1644,1520,0,0
427,-496,0,0,0,0,0,0,0,0,0,-1,1651,1520,0,0
434,-496,11.0457,3.37732,0,0,0,0,0,0,0,-1,1658,1520,11.0456,-3.37736
441,-496,11.788,2.75488,0,0,0,0,0,0,0,-1,1665,1520,11.7879,-2.75485
448,-496,12.2146,2.18494,0,0,0,0,0,0,0,-1,1672,1520,12.2146,-2.18489
455,-496,12.3489,1.65173,0,0,0,0,0,0,0,-1,1679,1520,12.3489,-1.65178
462,-496,12.1912,1.32361,0,0,0,0,0,0,0,-1,1686,1520,12.1911,-1.32357
469,-496,14.8138,5.77954,0,0,0,0,0,0,0,-1,1693,1520,14.8138,-5.77958
476,-496,15.2449,6.27942,0,0,0,0,0,0,0,-1,1700,1520,15.2449,-6.27936
483,-496,9.19812,6.88367,0,0,0,0,0,0,0,-1,1707,1520,9.19812,-6.88361
490,-496,10.2123,7.97144,0,0,0,0,0,0,0,-1,1714,1520,10.2122,-7.97145
497,-496,13.9297,12.2981,0,0,0,0,0,0,0,-1,1721,1520,13.9297,-12.2982
504,-496,16.3271,16.6501,0,0,0,0,0,0,0,-1,1728,1520,16.3272,-16.6502
511,-496,17.6753,18.0685,0,0,0,0,0,0,0,-1,1735,1520,17.6753,-18.0685
518,-496,17.0537,17.3118,0,0,0,0,0,0,0,-1,1742,1520,17.0538,-17.3118
525,-496,18.2721,19.3259,0,0,0,0,0,0,0,-1,1749,1520,18.2721,-19.3259
532,-496,24.0371,26.2012,0,0,0,0,0,0,0,-1,1756,1520,24.0371,-26.2012
539,-496,23.6349,26.1936,0,0,0,0,0,0,0,-1,1763,1520,23.6348,-26.1936
546,-496,23.8419,25.442,0.00622962,0.00499104,-0.0039077,0.0095668,0.00165386,-0.706812,0.0059043,0.020922,1770,1520,23.8419,-25.4421
553,-496,23.9288,24.7646,0.00498442,0.00361153,-0.00282886,0.00720893,0.00138702,-0.66637,0.00441681,0.0164066,1777,1520,23.9288,-24.7646
560,-496,23.9502,24.1797,0.0040601,0.00250767,-0.00205469,0.00548031,0.00108747,-0.604797,0.0033504,0.0155435,1784,1520,23.9502,-24.1797
567,-496,23.9257,23.5677,0.00347222,0.00173758,-0.00163279,0.00445375,0.000756043,-0.541255,0.00275199,0.0123624,1791,1520,23.9257,-23.5678
574,-496,23.8926,22.984,0.00312622,0.00123103,-0.00143274,0.00389638,0.000460876,-0.493229,0.0024584,0.0118697,1798,1520,23.8926,-22.9841
581,-496,23.8687,22.4147,0.00292049,0.00080472,-0.00131328,0.00354897,0.00017624,-0.446346,0.00230948,0.0134694,1805,1520,23.8686,-22.4147
588,-496,23.8683,21.7931,0.00292583,0.000583629,-0.00137132,0.00355806,-4.85989e-05,-0.431994,0.0023884,0.0155937,1812,1520,23.8682,-21.793
595,-496,23.8276,21.1984,0.00319869,0.000468497,-0.00151471,0.00387267,-0.000205487,-0.418653,0.00265293,0.0166746,1819,1520,23.8277,-21.1984
602,-496,23.7875,20.6031,0.003574,0.000532634,-0.0017641,0.00438238,-0.000275744,-0.429684,0.0030177,0.0174372,1826,1520,23.7875,-20.6031
609,-496,23.7777,19.9681,0.00406893,0.000645374,-0.00203629,0.00501735,-0.00030305,-0.435882,0.00345036,0.0173942,1833,1520,23.7778,-19.9682
616,-496,23.8619,19.2334,0.00500596,0.000667086,-0.00228581,0.00598793,-0.000314887,-0.405756,0.00410095,0.0416138,1840,1520,23.8619,-19.2334
623,-496,23.8619,18.6141,0,0,0,0,0,0,0,-1,1847,1520,23.8619,-18.6142
630,-496,18.5656,13.8966,0,0,0,0,0,0,0,-1,1854,1520,18.5655,-13.8967
637,-496,14.6411,10.1016,0,0,0,0,0,0,0,-1,1861,1520,14.6411,-10.1016
644,-496,12.4537,10.087,0,0,0,0,0,0,0,-1,1868,1520,12.4537,-10.0871
651,-496,8.18506,5.47803,0,0,0,0,0,0,0,-1,1875,1520,8.18505,-5.47806
658,-496,7.79993,4.02563,0,0,0,0,0,0,0,-1,1882,1520,7.79997,-4.02568
665,-496,5.47583,7.90625,0,0,0,0,0,0,0,-1,1889,1520,5.47581,-7.90628
672,-496,0,0,0,0,0,0,0,0,0,-1,1896,1520,0,0
679,-496,0,0,0,0,0,0,0,0,0,-1,1903,1520,0,0
686,-496,0,0,0,0,0,0,0,0,0,-1,1910,1520,0,0
693,-496,0,0,0,0,0,0,0,0,0,-1,1917,1520,0,0
700,-496,0,0,0,0,0,0,0,0,0,-1,1924,1520,0,0
707,-496,0,0,0,0,0,0,0,0,0,-1,1931,1520,0,0
714,-496,0,0,0,0,0,0,0,0,0,-1,1938,1520,0,0
721,-496,0,0,0,0,0,0,0,0,0,-1,1945,1520,0,0
728,-496,0,0,0,0,0,0,0,0,0,-1,1952,1520,0,0
735,-496,0,0,0,0,0,0,0,0,0,-1,1959,1520,0,0
742,-496,0,0,0,0,0,0,0,0,0,-1,1966,1520,0,0
749,-496,0,0,0,0,0,0,0,0,0,-1,1973,1520,0,0
756,-496,0,0,0,0,0,0,0,0,0,-1,1980,1520,0,0
763,-496,0,0,0,0,0,0,0,0,0,-1,1987,1520,0,0
770,-496,0,0,0,0,0,0,0,0,0,-1,1994,1520,0,0
777,-496,0,0,0,0,0,0,0,0,0,-1,2001,1520,0,0
784,-496,0,0,0,0,0,0,0,0,0,-1,2008,1520,0,0
791,-496,0,0,0,0,0,0,0,0,0,-1,2015,1520,0,0
798,-496,0,0,0,0,0,0,0,0,0,-1,2022,1520,0,0
805,-496,0,0,0,0,0,0,0,0,0,-1,2029,1520,0,0
812,-496,0,0,0,0,0,0,0,0,0,-1,2036,1520,0,0
-700,-503,0,0,0,0,0,0,0,0,0,-1,524,1527,0,0
-693,-503,0,0,0,0,0,0,0,0,0,-1,531,1527,0,0
-686,-503,0,0,0,0,0,0,0,0,0,-1,538,1527,0,0
-679,-503,0,0,0,0,0,0,0,0,0,-1,545,1527,0,0
-672,-503,0,0,0,0,0,0,0,0,0,-1,552,1527,0,0
-665,-503,0,0,0,0,0,0,0,0,0,-1,559,1527,0,0
-658,-503,0,0,0,0,0,0,0,0,0,-1,566,1527,0,0
-651,-503,0,0,0,0,0,0,0,0,0,-1,573,1527,0,0
-644,-503,0,0,0,0,0,0,0,0,0,-1,580,1527,0,0
-637,-503,0,0,0,0,0,0,0,0,0,-1,587,1527,0,0
-630,-503,0,0,0,0,0,0,0,0,0,-1,594,1527,0,0
-623,-503,0,0,0,0,0,0,0,0,0,-1,601,1527,0,0
-616,-503,0,0,0,0,0,0,0,0,0,-1,608,1527,0,0
-609,-503,0,0,0,0,0,0,0,0,0,-1,615,1527,0,0
-602,-503,0,0,0,0,0,0,0,0,0,-1,622,1527,0,0
-595,-503,0,0,0,0,0,0,0,0,0,-1,629,1527,0,0
-588,-503,0,0,0,0,0,0,0,0,0,-1,636,1527,0,0
-581,-503,0,0,0,0,0,0,0,0,0,-1,643,1527,0,0
-574,-503,0,0,0,0,0,0,0,0,0,-1,650,1527,0,0
-567,-503,0,0,0,0,0,0,0,0,0,-1,657,1527,0,0
-560,-503,0,0,0,0,0,0,0,0,0,-1,664,1527,0,0
-553,-503,0,0,0,0,0,0,0,0,0,-1,671,1527,0,0
-546,-503,0,0,0,0,0,0,0,0,0,-1,678,1527,0,0
-539,-503,3.50177,4.26428,0,0,0,0,0,0,0,-1,685,1527,3.50177,-4.26424
-532,-503,-3.13196,1.05298,0,0,0,0,0,0,0,-1,692,1527,-3.13194,-1.05299
-525,-503,-2.94293,2.59314,0,0,0,0,0,0,0,-1,699,1527,-2.94296,-2.59314
-518,-503,-2.7395,4.05872,0,0,0,0,0,0,0,-1,706,1527,-2.73948,-4.05871
-511,-503,-1.60022,7.23877,0,0,0,0,0,0,0,-1,713,1527,-1.60023,-7.23872
-504,-503,-8.1402,10.1541,0,0,0,0,0,0,0,-1,720,1527,-8.14017,-10.1541
-497,-503,-4.51758,14.0781,0,0,0,0,0,0,0,-1,727,1527,-4.5176,-14.0782
-490,-503,-4.24194,16.1982,0,0,0,0,0,0,0,-1,734,1527,-4.24196,-16.1982
-483,-503,-5.99585,18.4861,0,0,0,0,0,0,0,-1,741,1527,-5.99584,-18.486
-476,-503,-6.00244,18.832,-0.00612557,0.00216799,-0.0020481,0.0026462,-0.00660378,-1.34142,0.005501,0.0318484,748,1527,-6.00247,-18.832
-469,-503,-6.12042,19.3861,-0.00503027,0.00174971,-0.00167069,0.00213904,-0.0054196,-1.34185,0.0044989,0.0126207,755,1527,-6.12042,-19.3861
-462,-503,-6.1543,20.0398,-0.00385604,0.00152833,-0.0012292,0.00179567,-0.00412338,-1.35664,0.00350434,0.0123373,762,1527,-6.15431,-20.0397
-455,-503,-6.20563,20.6921,-0.00262248,0.00140933,-0.000730936,0.00153775,-0.0027509,-1.39688,0.00250886,0.0185808,769,1527,-6.20562,-20.6922
-448,-503,-6.20819,21.3409,-0.0013213,0.00147896,-0.000124466,0.00148448,-0.00132682,-1.52646,0.00162396,0.0170577,776,1527,-6.2082,-21.3409
-441,-503,-6.2074,21.9553,0.000101643,0.0019195,0.000718385,0.00216911,-0.000147974,1.23638,0.00149784,0.0136231,783,1527,-6.20739,-21.9553
-434,-503,-6.22754,22.5547,0.00156884,0.00274297,0.00174607,0.00399802,0.000313791,0.947571,0.00256715,0.0113964,790,1527,-6.22756,-22.5547
-427,-503,-6.29456,23.1377,0.00308917,0.00376147,0.00288987,0.00633467,0.000515964,0.843298,0.00406206,0.0175326,797,1527,-6.29453,-23.1377
-420,-503,-6.28741,23.7694,0.00471669,0.00512001,0.0042566,0.00917972,0.000656975,0.809069,0.005913,0.0182176,804,1527,-6.28743,-23.7694
-413,-503,-6.30664,24.4358,0.00642951,0.00710081,0.00586603,0.0126408,0.000889536,0.813977,0.00814688,0.0163177,811,1527,-6.30664,-24.4358
-406,-503,-6.29675,25.0897,0.00843455,0.00978997,0.00818749,0.0173278,0.000896767,0.826691,0.0112648,0.0263596,818,1527,-6.29674,-25.0897
-399,-503,-6.17603,25.9253,0.0108884,0.0129266,0.0107501,0.0227058,0.00110923,0.832657,0.0147813,0.0428479,825,1527,-6.17604,-25.9252
-392,-503,-5.84412,27.0349,0,0,0,0,0,0,0,-1,832,1527,-5.8441,-27.035
-385,-503,-2.00403,14.1218,0,0,0,0,0,0,0,-1,839,1527,-2.00403,-14.1218
-378,-503,-2.07043,13.8632,0,0,0,0,0,0,0,-1,846,1527,-2.07043,-13.8631
-371,-503,-1.67285,13.8081,0,0,0,0,0,0,0,-1,853,1527,-1.67285,-13.8081
-364,-503,0.181396,12.3768,0,0,0,0,0,0,0,-1,860,1527,0.18138,-12.3768
-357,-503,0.558533,9.25452,0,0,0,0,0,0,0,-1,867,1527,0.558542,-9.25446
-350,-503,0.219971,6.84827,0,0,0,0,0,0,0,-1,874,1527,0.21996,-6.84831
-343,-503,-3.5802,4.43274,0,0,0,0,0,0,0,-1,881,1527,-3.58018,-4.43276
-336,-503,-3.2384,6.40637,0,0,0,0,0,0,0,-1,888,1527,-3.2384,-6.40643
-329,-503,-1.70691,11.886,0,0,0,0,0,0,0,-1,895,1527,-1.70689,-11.886
-322,-503,-3.31317,8.81519,0,0,0,0,0,0,0,-1,902,1527,-3.31315,-8.81524
-315,-503,-3.90265,7.73853,0,0,0,0,0,0,0,-1,909,1527,-3.90264,-7.73854
-308,-503,-1.70264,7.35413,0,0,0,0,0,0,0,-1,916,1527,-1.70262,-7.35416
-301,-503,0,0,0,0,0,0,0,0,0,-1,923,1527,0,0
-294,-503,0,0,0,0,0,0,0,0,0,-1,930,1527,0,0
-287,-503,0,0,0,0,0,0,0,0,0,-1,937,1527,0,0
-280,-503,0,0,0,0,0,0,0,0,0,-1,944,1527,0,0
-273,-503,0,0,0,0,0,0,0,0,0,-1,951,1527,0,0
-266,-503,0,0,0,0,0,0,0,0,0,-1,958,1527,0,0
-259,-503,0,0,0,0,0,0,0,0,0,-1,965,1527,0,0
-252,-503,0,0,0,0,0,0,0,0,0,-1,972,1527,0,0
-245,-503,0,0,0,0,0,0,0,0,0,-1,979,1527,0,0
-238,-503,0,0,0,0,0,0,0,0,0,-1,986,1527,0,0
-231,-503,0,0,0,0,0,0,0,0,0,-1,993,1527,0,0
-224,-503,0,0,0,0,0,0,0,0,0,-1,1000,1527,0,0
-217,-503,0,0,0,0,0,0,0,0,0,-1,1007,1527,0,0
-210,-503,0,0,0,0,0,0,0,0,0,-1,1014,1527,0,0
-203,-503,0,0,0,0,0,0,0,0,0,-1,1021,1527,0,0
-196,-503,0,0,0,0,0,0,0,0,0,-1,1028,1527,0,0
-189,-503,0,0,0,0,0,0,0,0,0,-1,1035,1527,0,0
-182,-503,0,0,0,0,0,0,0,0,0,-1,1042,1527,0,0
-175,-503,0,0,0,0,0,0,0,0,0,-1,1049,1527,0,0
-168,-503,0,0,0,0,0,0,0,0,0,-1,1056,1527,0,0
-161,-503,0,0,0,0,0,0,0,0,0,-1,1063,1527,0,0
-154,-503,0,0,0,0,0,0,0,0,0,-1,1070,1527,0,0
-147,-503,0,0,0,0,0,0,0,0,0,-1,1077,1527,0,0
-140,-503,0,0,0,0,0,0,0,0,0,-1,1084,1527,0,0
-133,-503,0,0,0,0,0,0,0,0,0,-1,1091,1527,0,0
-126,-503,0,0,0,0,0,0,0,0,0,-1,1098,1527,0,0
-119,-503,0,0,0,0,0,0,0,0,0,-1,1105,1527,0,0
-112,-503,0,0,0,0,0,0,0,0,0,-1,1112,1527,0,0
-105,-503,0,0,0,0,0,0,0,0,0,-1,1119,1527,0,0
-98,-503,0,0,0,0,0,0,0,0,0,-1,1126,1527,0,0
-91,-503,0,0,0,0,0,0,0,0,0,-1,1133,1527,0,0
-84,-503,0,0,0,0,0,0,0,0,0,-1,1140,1527,0,0
-77,-503,0,0,0,0,0,0,0,0,0,-1,1147,1527,0,0
-70,-503,0,0,0,0,0,0,0,0,0,-1,1154,1527,0,0
-63,-503,0,0,0,0,0,0,0,0,0,-1,1161,1527,0,0
-56,-503,0,0,0,0,0,0,0,0,0,-1,1168,1527,0,0
-49,-503,0,0,0,0,0,0,0,0,0,-1,1175,1527,0,0
-42,-503,0,0,0,0,0,0,0,0,0,-1,1182,1527,0,0
-35,-503,0,0,0,0,0,0,0,0,0,-1,1189,1527,0,0
-28,-503,0,0,0,0,0,0,0,0,0,-1,1196,1527,0,0
-21,-503,0,0,0,0,0,0,0,0,0,-1,1203,1527,0,0
-14,-503,0,0,0,0,0,0,0,0,0,-1,1210,1527,0,0
-7,-503,0,0,0,0,0,0,0,0,0,-1,1217,1527,0,0
0,-503,0,0,0,0,0,0,0,0,0,-1,1224,1527,0,0
7,-503,0,0,0,0,0,0,0,0,0,-1,1231,1527,0,0
14,-503,0,0,0,0,0,0,0,0,0,-1,1238,1527,0,0
21,-503,0,0,0,0,0,0,0,0,0,-1,1245,1527,0,0
28,-503,0,0,0,0,0,0,0,0,0,-1,1252,1527,0,0
35,-503,0,0,0,0,0,0,0,0,0,-1,1259,1527,0,0
42,-503,0,0,0,0,0,0,0,0,0,-1,1266,1527,0,0
49,-503,0,0,0,0,0,0,0,0,0,-1,1273,1527,0,0
56,-503,0,0,0,0,0,0,0,0,0,-1,1280,1527,0,0
63,-503,0,0,0,0,0,0,0,0,0,-1,1287,1527,0,0
70,-503,0,0,0,0,0,0,0,0,0,-1,1294,1527,0,0
77,-503,0,0,0,0,0,0,0,0,0,-1,1301,1527,0,0
84,-503,0,0,0,0,0,0,0,0,0,-1,1308,1527,0,0
91,-503,0,0,0,0,0,0,0,0,0,-1,1315,1527,0,0
98,-503,0,0,0,0,0,0,0,0,0,-1,1322,1527,0,0
105,-503,0,0,0,0,0,0,0,0,0,-1,1329,1527,0,0
112,-503,0,0,0,0,0,0,0,0,0,-1,1336,1527,0,0
119,-503,0,0,0,0,0,0,0,0,0,-1,1343,1527,0,0
126,-503,0,0,0,0,0,0,0,0,0,-1,1350,1527,0,0
133,-503,0,0,0,0,0,0,0,0,0,-1,1357,1527,0,0
140,-503,0,0,0,0,0,0,0,0,0,-1,1364,1527,0,0
147,-503,0,0,0,0,0,0,0,0,0,-1,1371,1527,0,0
154,-503,0,0,0,0,0,0,0,0,0,-1,1378,1527,0,0
161,-503,0,0,0,0,0,0,0,0,0,-1,1385,1527,0,0
168,-503,0,0,0,0,0,0,0,0,0,-1,1392,1527,0,0
175,-503,0,0,0,0,0,0,0,0,0,-1,1399,1527,0,0
182,-503,0,0,0,0,0,0,0,0,0,-1,1406,1527,0,0
189,-503,0,0,0,0,0,0,0,0,0,-1,1413,1527,0,0
196,-503,0,0,0,0,0,0,0,0,0,-1,1420,1527,0,0
203,-503,0,0,0,0,0,0,0,0,0,-1,1427,1527,0,0
210,-503,0,0,0,0,0,0,0,0,0,-1,1434,1527,0,0
217,-503,0,0,0,0,0,0,0,0,0,-1,1441,1527,0,0
224,-503,0,0,0,0,0,0,0,0,0,-1,1448,1527,0,0
231,-503,0,0,0,0,0,0,0,0,0,-1,1455,1527,0,0
238,-503,0,0,0,0,0,0,0,0,0,-1,1462,1527,0,0
245,-503,0,0,0,0,0,0,0,0,0,-1,1469,1527,0,0
252,-503,0,0,0,0,0,0,0,0,0,-1,1476,1527,0,0
259,-503,0,0,0,0,0,0,0,0,0,-1,1483,1527,0,0
266,-503,0,0,0,0,0,0,0,0,0,-1,1490,1527,0,0
273,-503,0,0,0,0,0,0,0,0,0,-1,1497,1527,0,0
280,-503,0,0,0,0,0,0,0,0,0,-1,1504,1527,0,0
287,-503,0,0,0,0,0,0,0,0,0,-1,1511,1527,0,0
294,-503,0,0,0,0,0,0,0,0,0,-1,1518,1527,0,0
301,-503,0,0,0,0,0,0,0,0,0,-1,1525,1527,0,0
308,-503,0,0,0,0,0,0,0,0,0,-1,1532,1527,0,0
315,-503,0,0,0,0,0,0,0,0,0,-1,1539,1527,0,0
322,-503,0,0,0,0,0,0,0,0,0,-1,1546,1527,0,0
329,-503,0,0,0,0,0,0,0,0,0,-1,1553,1527,0,0
336,-503,0,0,0,0,0,0,0,0,0,-1,1560,1527,0,0
343,-503,0,0,0,0,0,0,0,0,0,-1,1567,1527,0,0
350,-503,0,0,0,0,0,0,0,0,0,-1,1574,1527,0,0
357,-503,0,0,0,0,0,0,0,0,0,-1,1581,1527,0,0
364,-503,0,0,0,0,0,0,0,0,0,-1,1588,1527,0,0
371,-503,0,0,0,0,0,0,0,0,0,-1,1595,1527,0,0
378,-503,0,0,0,0,0,0,0,0,0,-1,1602,1527,0,0
385,-503,0,0,0,0,0,0,0,0,0,-1,1609,1527,0,0
392,-503,0,0,0,0,0,0,0,0,0,-1,1616,1527,0,0
399,-503,0,0,0,0,0,0,0,0,0,-1,1623,1527,0,0
406,-503,0,0,0,0,0,0,0,0,0,-1,1630,1527,0,0
413,-503,0,0,0,0,0,0,0,0,0,-1,1637,1527,0,0
420,-503,0,0,0,0,0,0,0,0,0,-1,1644,1527,0,0
427,-503,10.5968,4.9856,0,0,0,0,0,0,0,-1,1651,1527,10.5969,-4.98563
434,-503,11.4329,3.97217,0,0,0,0,0,0,0,-1,1658,1527,11.4328,-3.97222
441,-503,12.0957,2.96509,0,0,0,0,0,0,0,-1,1665,1527,12.0957,-2.96512
448,-503,12.3259,2.53894,0,0,0,0,0,0,0,-1,1672,1527,12.326,-2.53895
455,-503,12.1669,2.18762,0,0,0,0,0,0,0,-1,1679,1527,12.1668,-2.18767
462,-503,11.59,2.60791,0,0,0,0,0,0,0,-1,1686,1527,11.5899,-2.60794
469,-503,11.1625,1.61853,0,0,0,0,0,0,0,-1,1693,1527,11.1625,-1.61856
476,-503,9.07703,5.81042,0,0,0,0,0,0,0,-1,1700,1527,9.07699,-5.81047
483,-503,9.74414,6.92432,0,0,0,0,0,0,0,-1,1707,1527,9.74417,-6.9243
490,-503,10.5033,10.1071,0,0,0,0,0,0,0,-1,1714,1527,10.5032,-10.107
497,-503,15.0057,17.9476,0,0,0,0,0,0,0,-1,1721,1527,15.0058,-17.9476
504,-503,16.4764,18.4486,0,0,0,0,0,0,0,-1,1728,1527,16.4764,-18.4486
511,-503,16.8276,18.3271,0,0,0,0,0,0,0,-1,1735,1527,16.8276,-18.3272
518,-503,17.2533,18.2738,0,0,0,0,0,0,0,-1,1742,1527,17.2533,-18.2738
525,-503,21.2887,26.5785,0,0,0,0,0,0,0,-1,1749,1527,21.2887,-26.5785
532,-503,23.3065,26.6641,0,0,0,0,0,0,0,-1,1756,1527,23.3065,-26.6641
539,-503,23.3009,26.0492,0.00688552,0.00572916,-0.00464033,0.0109836,0.00163113,-0.723418,0.00684376,0.0263102,1763,1527,23.3009,-26.0492
546,-503,23.3259,25.3533,0.00536962,0.00427951,-0.0034006,0.00826857,0.00138056,-0.705933,0.00511469,0.0138896,1770,1527,23.326,-25.3532
553,-503,23.3555,24.7825,0.00430904,0.00303092,-0.00245564,0.00620741,0.00113255,-0.658101,0.00381718,0.0143562,1777,1527,23.3554,-24.7824
560,-503,23.314,24.2137,0.00356979,0.0020221,-0.0017807,0.00473753,0.000854364,-0.580422,0.00291559,0.0140332,1784,1527,23.314,-24.2138
567,-503,23.3054,23.601,0.00318142,0.00135326,-0.00146599,0.00399496,0.000539719,-0.50663,0.00250288,0.0132536,1791,1527,23.3055,-23.601
574,-503,23.2987,23.019,0.0030194,0.000911032,-0.00133979,0.00367001,0.000260419,-0.452069,0.00236465,0.0126815,1798,1527,23.2987,-23.0191
581,-503,23.2571,22.4607,0.00302134,0.000544492,-0.00130733,0.00358369,-1.78657e-05,-0.40623,0.00239511,0.0142913,1805,1527,23.257,-22.4607
588,-503,23.2361,21.8765,0.00324152,0.000408187,-0.00147549,0.00387034,-0.000220636,-0.402868,0.00265683,0.0183146,1812,1527,23.2361,-21.8764
595,-503,23.2168,21.2389,0.00371536,0.000412247,-0.00174971,0.00446986,-0.000342255,-0.407124,0.0031003,0.0137988,1819,1527,23.2168,-21.2388
602,-503,23.2458,20.5829,0.00430198,0.000659466,-0.00214643,0.00529571,-0.000334261,-0.433585,0.003647,0.0254965,1826,1527,23.2459,-20.5829
609,-503,23.2358,19.954,0,0,0,0,0,0,0,-1,1833,1527,23.2359,-19.954
616,-503,23.3661,19.3191,0,0,0,0,0,0,0,-1,1840,1527,23.3661,-19.3191
623,-503,18.7351,15.5999,0,0,0,0,0,0,0,-1,1847,1527,18.7351,-15.5999
630,-503,20.6721,13.9077,0,0,0,0,0,0,0,-1,1854,1527,20.6721,-13.9077
637,-503,14.5564,9.20496,0,0,0,0,0,0,0,-1,1861,1527,14.5564,-9.2049
644,-503,11.4802,7.57214,0,0,0,0,0,0,0,-1,1868,1527,11.4802,-7.57215
651,-503,11.5718,6.5448,0,0,0,0,0,0,0,-1,1875,1527,11.5718,-6.54476
658,-503,8.25635,3.10498,0,0,0,0,0,0,0,-1,1882,1527,8.2563,-3.10493
665,-503,0,0,0,0,0,0,0,0,0,-1,1889,1527,0,0
672,-503,0,0,0,0,0,0,0,0,0,-1,1896,1527,0,0
679,-503,0,0,0,0,0,0,0,0,0,-1,1903,1527,0,0
686,-503,0,0,0,0,0,0,0,0,0,-1,1910,1527,0,0
693,-503,0,0,0,0,0,0,0,0,0,-1,1917,1527,0,0
700,-503,0,0,0,0,0,0,0,0,0,-1,1924,1527,0,0
707,-503,0,0,0,0,0,0,0,0,0,-1,1931,1527,0,0
714,-503,0,0,0,0,0,0,0,0,0,-1,1938,1527,0,0
721,-503,0,0,0,0,0,0,0,0,0,-1,1945,1527,0,0
728,-503,0,0,0,0,0,0,0,0,0,-1,1952,1527,0,0
735,-503,0,0,0,0,0,0,0,0,0,-1,1959,1527,0,0
742,-503,0,0,0,0,0,0,0,0,0,-1,1966,1527,0,0
749,-503,0,0,0,0,0,0,0,0,0,-1,1973,1527,0,0
756,-503,0,0,0,0,0,0,0,0,0,-1,1980,1527,0,0
763,-503,0,0,0,0,0,0,0,0,0,-1,1987,1527,0,0
770,-503,0,0,0,0,0,0,0,0,0,-1,1994,1527,0,0
777,-503,0,0,0,0,0,0,0,0,0,-1,2001,1527,0,0
784,-503,0,0,0,0,0,0,0,0,0,-1,2008,1527,0,0
791,-503,0,0,0,0,0,0,0,0,0,-1,2015,1527,0,0
798,-503,0,0,0,0,0,0,0,0,0,-1,2022,1527,0,0
805,-503,0,0,0,0,0,0,0,0,0,-1,2029,1527,0,0
812,-503,0,0,0,0,0,0,0,0,0,-1,2036,1527,0,0
-700,-510,0,0,0,0,0,0,0,0,0,-1,524,1534,0,0
-693,-510,0,0,0,0,0,0,0,0,0,-1,531,1534,0,0
-686,-510,0,0,0,0,0,0,0,0,0,-1,538,1534,0,0
-679,-510,0,0,0,0,0,0,0,0,0,-1,545,1534,0,0
-672,-510,0,0,0,0,0,0,0,0,0,-1,552,1534,0,0
-665,-510,0,0,0,0,0,0,0,0,0,-1,559,1534,0,0
-658,-510,0,0,0,0,0,0,0,0,0,-1,566,1534,0,0
-651,-510,0,0,0,0,0,0,0,0,0,-1,573,1534,0,0
-644,-510,0,0,0,0,0,0,0,0,0,-1,580,1534,0,0
-637,-510,0,0,0,0,0,0,0,0,0,-1,587,1534,0,0
-630,-510,0,0,0,0,0,0,0,0,0,-1,594,1534,0,0
-623,-510,0,0,0,0,0,0,0,0,0,-1,601,1534,0,0
-616,-510,0,0,0,0,0,0,0,0,0,-1,608,1534,0,0
-609,-510,0,0,0,0,0,0,0,0,0,-1,615,1534,0,0
-602,-510,0,0,0,0,0,0,0,0,0,-1,622,1534,0,0
-595,-510,0,0,0,0,0,0,0,0,0,-1,629,1534,0,0
-588,-510,0,0,0,0,0,0,0,0,0,-1,636,1534,0,0
-581,-510,0,0,0,0,0,0,0,0,0,-1,643,1534,0,0
-574,-510,0,0,0,0,0,0,0,0,0,-1,650,1534,0,0
-567,-510,0,0,0,0,0,0,0,0,0,-1,657,1534,0,0
-560,-510,0,0,0,0,0,0,0,0,0,-1,664,1534,0,0
-553,-510,0,0,0,0,0,0,0,0,0,-1,671,1534,0,0
-546,-510,0,0,0,0,0,0,0,0,0,-1,678,1534,0,0
-539,-510,0,0,0,0,0,0,0,0,0,-1,685,1534,0,0
-532,-510,-3.95129,4.52014,0,0,0,0,0,0,0,-1,692,1534,-3.95131,-4.5202
-525,-510,-2.77411,0.316772,0,0,0,0,0,0,0,-1,699,1534,-2.77409,-0.3168
-518,-510,-2.86847,2.71423,0,0,0,0,0,0,0,-1,706,1534,-2.86849,-2.71424
-511,-510,-2.28571,4.48083,0,0,0,0,0,0,0,-1,713,1534,-2.28571,-4.48086
-504,-510,-4.86731,10.8224,0,0,0,0,0,0,0,-1,720,1534,-4.8673,-10.8224
-497,-510,-3.42352,15.5178,0,0,0,0,0,0,0,-1,727,1534,-3.42352,-15.5178
-490,-510,-4.72717,16.8805,0,0,0,0,0,0,0,-1,734,1534,-4.7272,-16.8805
-483,-510,-5.04559,17.9304,0,0,0,0,0,0,0,-1,741,1534,-5.04557,-17.9304
-476,-510,-5.17157,18.7393,-0.0083598,0.00437794,-0.00252219,0.00485917,-0.00884103,-1.38226,0.0080204,0.044112,748,1534,-5.1716,-18.7393
-469,-510,-5.48267,19.4209,-0.00695644,0.00346924,-0.00211624,0.00388243,-0.00736962,-1.37798,0.00659955,0.0173751,755,1534,-5.48268,-19.4209
-462,-510,-5.51715,20.0525,-0.00554638,0.00280176,-0.0016824,0.00312806,-0.00587268,-1.37923,0.0052765,0.0120679,762,1534,-5.51715,-20.0524
-455,-510,-5.5661,20.7253,-0.00413547,0.00227463,-0.00121873,0.00249853,-0.00435936,-1.38911,0.00400769,0.0143057,769,1534,-5.56611,-20.7253
-448,-510,-5.56976,21.3739,-0.0027288,0.00193596,-0.000690792,0.00203611,-0.00282895,-1.42682,0.00282125,0.0131438,776,1534,-5.56974,-21.3739
-441,-510,-5.57751,21.9918,-0.00125116,0.00199018,4.40874e-05,0.00199078,-0.00125176,1.5572,0.00188822,0.0136726,783,1534,-5.57753,-21.9918
-434,-510,-5.62463,22.5782,0.000233244,0.00244965,0.000948781,0.00280032,-0.000117422,1.21677,0.00190723,0.0147442,790,1534,-5.62461,-22.5782
-427,-510,-5.6814,23.1345,0.00172652,0.00315093,0.00195661,0.00452092,0.000356525,0.959943,0.00290242,0.0227982,797,1534,-5.68141,-23.1345
-420,-510,-5.67554,23.78,0.00331812,0.00412873,0.00315155,0.00690094,0.000545918,0.849349,0.00442988,0.0222953,804,1534,-5.67552,-23.7801
-413,-510,-5.67755,24.4663,0.00493643,0.00565074,0.00453352,0.00984115,0.000746016,0.824707,0.00632677,0.0118525,811,1534,-5.67756,-24.4663
-406,-510,-5.72455,25.0743,0.00672109,0.00781232,0.00640538,0.0136953,0.000838125,0.827886,0.00886403,0.010954,818,1534,-5.72457,-25.0744
-399,-510,-5.7442,25.6876,0.00877361,0.0103843,0.00845382,0.0180711,0.00108688,0.832888,0.0117019,0.0152629,825,1534,-5.7442,-25.6876
-392,-510,-5.56018,26.5854,0.0109648,0.0135462,0.0106353,0.0229688,0.0015422,0.845783,0.0148252,0.0491986,832,1534,-5.56018,-26.5854
-385,-510,-5.22137,27.5688,0,0,0,0,0,0,0,-1,839,1534,-5.22139,-27.5688
-378,-510,-1.78308,13.8044,0,0,0,0,0,0,0,-1,846,1534,-1.78309,-13.8044
-371,-510,-1.74982,13.8027,0,0,0,0,0,0,0,-1,853,1534,-1.74981,-13.8028
-364,-510,-1.3479,13.7771,0,0,0,0,0,0,0,-1,860,1534,-1.34791,-13.7771
-357,-510,-0.254395,8.89575,0,0,0,0,0,0,0,-1,867,1534,-0.254397,-8.89569
-350,-510,0.471191,6.06458,0,0,0,0,0,0,0,-1,874,1534,0.47118,-6.06453
-343,-510,-6.96869,26.3074,0,0,0,0,0,0,0,-1,881,1534,-6.9687,-26.3074
-336,-510,-5.60437,29.5996,0,0,0,0,0,0,0,-1,888,1534,-5.60435,-29.5996
-329,-510,-4.87781,20.6893,0,0,0,0,0,0,0,-1,895,1534,-4.87782,-20.6894
-322,-510,-0.251526,11.973,0,0,0,0,0,0,0,-1,902,1534,-0.251497,-11.9731
-315,-510,-1.73047,10.9796,0,0,0,0,0,0,0,-1,909,1534,-1.73049,-10.9796
-308,-510,-2.05328,9.72034,0,0,0,0,0,0,0,-1,916,1534,-2.05327,-9.72036
-301,-510,-1.85437,11.5869,0,0,0,0,0,0,0,-1,923,1534,-1.85437,-11.5869
-294,-510,0,0,0,0,0,0,0,0,0,-1,930,1534,0,0
-287,-510,0,0,0,0,0,0,0,0,0,-1,937,1534,0,0
-280,-510,0,0,0,0,0,0,0,0,0,-1,944,1534,0,0
-273,-510,0,0,0,0,0,0,0,0,0,-1,951,1534,0,0
-266,-510,0,0,0,0,0,0,0,0,0,-1,958,1534,0,0
-259,-510,0,0,0,0,0,0,0,0,0,-1,965,1534,0,0
-252,-510,0,0,0,0,0,0,0,0,0,-1,972,1534,0,0
-245,-510,0,0,0,0,0,0,0,0,0,-1,979,1534,0,0
-238,-510,0,0,0,0,0,0,0,0,0,-1,986,1534,0,0
-231,-510,0,0,0,0,0,0,0,0,0,-1,993,1534,0,0
-224,-510,0,0,0,0,0,0,0,0,0,-1,1000,1534,0,0
-217,-510,0,0,0,0,0,0,0,0,0,-1,1007,1534,0,0
-210,-510,0,0,0,0,0,0,0,0,0,-1,1014,1534,0,0
-203,-510,0,0,0,0,0,0,0,0,0,-1,1021,1534,0,0
-196,-510,0,0,0,0,0,0,0,0,0,-1,1028,1534,0,0
-189,-510,0,0,0,0,0,0,0,0,0,-1,1035,1534,0,0
-182,-510,0,0,0,0,0,0,0,0,0,-1,1042,1534,0,0
-175,-510,0,0,0,0,0,0,0,0,0,-1,1049,1534,0,0
-168,-510,0,0,0,0,0,0,0,0,0,-1,1056,1534,0,0
-161,-510,0,0,0,0,0,0,0,0,0,-1,1063,1534,0,0
-154,-510,0,0,0,0,0,0,0,0,0,-1,1070,1534,0,0
-147,-510,0,0,0,0,0,0,0,0,0,-1,1077,1534,0,0
-140,-510,0,0,0,0,0,0,0,0,0,-1,1084,1534,0,0
-133,-510,0,0,0,0,0,0,0,0,0,-1,1091,1534,0,0
-126,-510,0,0,0,0,0,0,0,0,0,-1,1098,1534,0,0
-119,-510,0,0,0,0,0,0,0,0,0,-1,1105,1534,0,0
-112,-510,0,0,0,0,0,0,0,0,0,-1,1112,1534,0,0
-105,-510,0,0,0,0,0,0,0,0,0,-1,1119,1534,0,0
-98,-510,0,0,0,0,0,0,0,0,0,-1,1126,1534,0,0
-91,-510,0,0,0,0,0,0,0,0,0,-1,1133,1534,0,0
-84,-510,0,0,0,0,0,0,0,0,0,-1,1140,1534,0,0
-77,-510,0,0,0,0,0,0,0,0,0,-1,1147,1534,0,0
-70,-510,0,0,0,0,0,0,0,0,0,-1,1154,1534,0,0
-63,-510,0,0,0,0,0,0,0,0,0,-1,1161,1534,0,0
-56,-510,0,0,0,0,0,0,0,0,0,-1,1168,1534,0,0
-49,-510,0,0,0,0,0,0,0,0,0,-1,1175,1534,0,0
-42,-510,0,0,0,0,0,0,0,0,0,-1,1182,1534,0,0
-35,-510,0,0,0,0,0,0,0,0,0,-1,1189,1534,0,0
-28,-510,0,0,0,0,0,0,0,0,0,-1,1196,1534,0,0
-21,-510,0,0,0,0,0,0,0,0,0,-1,1203,1534,0,0
-14,-510,0,0,0,0,0,0,0,0,0,-1,1210,1534,0,0
-7,-510,0,0,0,0,0,0,0,0,0,-1,1217,1534,0,0
0,-510,0,0,0,0,0,0,0,0,0,-1,1224,1534,0,0
7,-510,0,0,0,0,0,0,0,0,0,-1,1231,1534,0,0
14,-510,0,0,0,0,0,0,0,0,0,-1,1238,1534,0,0
21,-510,0,0,0,0,0,0,0,0,0,-1,1245,1534,0,0
28,-510,0,0,0,0,0,0,0,0,0,-1,1252,1534,0,0
35,-510,0,0,0,0,0,0,0,0,0,-1,1259,1534,0,0
42,-510,0,0,0,0,0,0,0,0,0,-1,1266,1534,0,0
49,-510,0,0,0,0,0,0,0,0,0,-1,1273,1534,0,0
56,-510,0,0,0,0,0,0,0,0,0,-1,1280,1534,0,0
63,-510,0,0,0,0,0,0,0,0,0,-1,1287,1534,0,0
70,-510,0,0,0,0,0,0,0,0,0,-1,1294,1534,0,0
77,-510,0,0,0,0,0,0,0,0,0,-1,1301,1534,0,0
84,-510,0,0,0,0,0,0,0,0,0,-1,1308,1534,0,0
91,-510,0,0,0,0,0,0,0,0,0,-1,1315,1534,0,0
98,-510,0,0,0,0,0,0,0,0,0,-1,1322,1534,0,0
105,-510,0,0,0,0,0,0,0,0,0,-1,1329,1534,0,0
112,-510,0,0,0,0,0,0,0,0,0,-1,1336,1534,0,0
119,-510,0,0,0,0,0,0,0,0,0,-1,1343,1534,0,0
126,-510,0,0,0,0,0,0,0,0,0,-1,1350,1534,0,0
133,-510,0,0,0,0,0,0,0,0,0,-1,1357,1534,0,0
140,-510,0,0,0,0,0,0,0,0,0,-1,1364,1534,0,0
147,-510,0,0,0,0,0,0,0,0,0,-1,1371,1534,0,0
154,-510,0,0,0,0,0,0,0,0,0,-1,1378,1534,0,0
161,-510,0,0,0,0,0,0,0,0,0,-1,1385,1534,0,0
168,-510,0,0,0,0,0,0,0,0,0,-1,1392,1534,0,0
175,-510,0,0,0,0,0,0,0,0,0,-1,1399,1534,0,0
182,-510,0,0,0,0,0,0,0,0,0,-1,1406,1534,0,0
189,-510,0,0,0,0,0,0,0,0,0,-1,1413,1534,0,0
196,-510,0,0,0,0,0,0,0,0,0,-1,1420,1534,0,0
203,-510,0,0,0,0,0,0,0,0,0,-1,1427,1534,0,0
210,-510,0,0,0,0,0,0,0,0,0,-1,1434,1534,0,0
217,-510,0,0,0,0,0,0,0,0,0,-1,1441,1534,0,0
224,-510,0,0,0,0,0,0,0,0,0,-1,1448,1534,0,0
231,-510,0,0,0,0,0,0,0,0,0,-1,1455,1534,0,0
238,-510,0,0,0,0,0,0,0,0,0,-1,1462,1534,0,0
245,-510,0,0,0,0,0,0,0,0,0,-1,1469,1534,0,0
252,-510,0,0,0,0,0,0,0,0,0,-1,1476,1534,0,0
259,-510,0,0,0,0,0,0,0,0,0,-1,1483,1534,0,0
266,-510,0,0,0,0,0,0,0,0,0,-1,1490,1534,0,0
273,-510,0,0,0,0,0,0,0,0,0,-1,1497,1534,0,0
280,-510,0,0,0,0,0,0,0,0,0,-1,1504,1534,0,0
287,-510,0,0,0,0,0,0,0,0,0,-1,1511,1534,0,0
294,-510,0,0,0,0,0,0,0,0,0,-1,1518,1534,0,0
301,-510,0,0,0,0,0,0,0,0,0,-1,1525,1534,0,0
308,-510,0,0,0,0,0,0,0,0,0,-1,1532,1534,0,0
315,-510,0,0,0,0,0,0,0,0,0,-1,1539,1534,0,0
322,-510,0,0,0,0,0,0,0,0,0,-1,1546,1534,0,0
329,-510,0,0,0,0,0,0,0,0,0,-1,1553,1534,0,0
336,-510,0,0,0,0,0,0,0,0,0,-1,1560,1534,0,0
343,-510,0,0,0,0,0,0,0,0,0,-1,1567,1534,0,0
350,-510,0,0,0,0,0,0,0,0,0,-1,1574,1534,0,0
357,-510,0,0,0,0,0,0,0,0,0,-1,1581,1534,0,0
364,-510,0,0,0,0,0,0,0,0,0,-1,1588,1534,0,0
371,-510,0,0,0,0,0,0,0,0,0,-1,1595,1534,0,0
378,-510,0,0,0,0,0,0,0,0,0,-1,1602,1534,0,0
385,-510,0,0,0,0,0,0,0,0,0,-1,1609,1534,0,0
392,-510,0,0,0,0,0,0,0,0,0,-1,1616,1534,0,0
399,-510,0,0,0,0,0,0,0,0,0,-1,1623,1534,0,0
406,-510,0,0,0,0,0,0,0,0,0,-1,1630,1534,0,0
413,-510,0,0,0,0,0,0,0,0,0,-1,1637,1534,0,0
420,-510,14.1888,6.71936,0,0,0,0,0,0,0,-1,1644,1534,14.1889,-6.71939
427,-510,10.2134,5.59485,0,0,0,0,0,0,0,-1,1651,1534,10.2134,-5.59485
434,-510,11.8219,4.07898,0,0,0,0,0,0,0,-1,1658,1534,11.8219,-4.07895
441,-510,12.6812,3.02991,0,0,0,0,0,0,0,-1,1665,1534,12.6811,-3.0299
448,-510,13.2379,2.2804,0,0,0,0,0,0,0,-1,1672,1534,13.2379,-2.28037
455,-510,9.76892,2.20642,0,0,0,0,0,0,0,-1,1679,1534,9.76894,-2.20647
462,-510,9.84692,2.49182,0,0,0,0,0,0,0,-1,1686,1534,9.84695,-2.49185
469,-510,16.6072,7.26941,0,0,0,0,0,0,0,-1,1693,1534,16.6072,-7.26945
476,-510,15.9199,7.8645,0,0,0,0,0,0,0,-1,1700,1534,15.9199,-7.86455
483,-510,13.0833,8.10938,0,0,0,0,0,0,0,-1,1707,1534,13.0833,-8.10932
490,-510,13.0841,15.3286,0,0,0,0,0,0,0,-1,1714,1534,13.0841,-15.3286
497,-510,15.5652,18.823,0,0,0,0,0,0,0,-1,1721,1534,15.5652,-18.823
504,-510,15.998,18.7478,0,0,0,0,0,0,0,-1,1728,1534,15.998,-18.7478
511,-510,15.9443,18.0476,0,0,0,0,0,0,0,-1,1735,1534,15.9443,-18.0476
518,-510,21.5343,27.1368,0,0,0,0,0,0,0,-1,1742,1534,21.5342,-27.1368
525,-510,22.4734,27.4387,0,0,0,0,0,0,0,-1,1749,1534,22.4734,-27.4388
532,-510,22.7518,26.6196,0.00739332,0.00658144,-0.00517332,0.0121766,0.00179817,-0.746244,0.00758969,0.0263749,1756,1534,22.7518,-26.6196
539,-510,22.8107,25.9336,0.00579237,0.00489205,-0.00385705,0.00922544,0.00145898,-0.727306,0.00572626,0.0136994,1763,1534,22.8107,-25.9335
546,-510,22.7631,25.41,0.00458922,0.00352001,-0.00283403,0.00693863,0.0011706,-0.692175,0.00428913,0.0136639,1770,1534,22.7631,-25.41
553,-510,22.7462,24.8204,0.00371255,0.00233663,-0.00201791,0.00515655,0.000892636,-0.621113,0.00318216,0.013564,1777,1534,22.7462,-24.8204
560,-510,22.7178,24.2036,0.00315119,0.00137855,-0.0014402,0.00395595,0.000573793,-0.50956,0.00246837,0.0139319,1784,1534,22.7177,-24.2036
567,-510,22.6917,23.6034,0.00294325,0.000774779,-0.00122312,0.00349351,0.000224518,-0.422758,0.00225789,0.0136071,1791,1534,22.6917,-23.6034
574,-510,22.6774,23.0439,0.00295281,0.000381253,-0.00117458,0.00340855,-7.44833e-05,-0.370117,0.0022976,0.0142002,1798,1534,22.6774,-23.044
581,-510,22.6564,22.5061,0.00317341,8.90021e-05,-0.0012548,0.0036194,-0.000356987,-0.341501,0.00254031,0.0127931,1805,1534,22.6564,-22.5061
588,-510,22.6376,21.8976,0.0036315,6.52589e-05,-0.00156062,0.00421799,-0.000521233,-0.359477,0.00300086,0.0138278,1812,1534,22.6376,-21.8976
595,-510,22.7574,21.1506,0.00432863,0.000247977,-0.00200198,0.00514677,-0.000570165,-0.387956,0.00363617,0.0212637,1819,1534,22.7574,-21.1506
602,-510,22.7723,20.4089,0,0,0,0,0,0,0,-1,1826,1534,22.7724,-20.4089
609,-510,21.259,19.222,0,0,0,0,0,0,0,-1,1833,1534,21.259,-19.222
616,-510,18.7024,16.2474,0,0,0,0,0,0,0,-1,1840,1534,18.7024,-16.2474
623,-510,19.6013,14.6211,0,0,0,0,0,0,0,-1,1847,1534,19.6013,-14.6211
630,-510,13.7461,9.30334,0,0,0,0,0,0,0,-1,1854,1534,13.7461,-9.30335
637,-510,11.0155,7.38464,0,0,0,0,0,0,0,-1,1861,1534,11.0155,-7.38463
644,-510,11.5809,7.17126,0,0,0,0,0,0,0,-1,1868,1534,11.5809,-7.17123
651,-510,8.70471,3.5061,0,0,0,0,0,0,0,-1,1875,1534,8.70475,-3.50611
658,-510,0,0,0,0,0,0,0,0,0,-1,1882,1534,0,0
665,-510,0,0,0,0,0,0,0,0,0,-1,1889,1534,0,0
672,-510,0,0,0,0,0,0,0,0,0,-1,1896,1534,0,0
679,-510,0,0,0,0,0,0,0,0,0,-1,1903,1534,0,0
686,-510,0,0,0,0,0,0,0,0,0,-1,1910,1534,0,0
693,-510,0,0,0,0,0,0,0,0,0,-1,1917,1534,0,0
700,-510,0,0,0,0,0,0,0,0,0,-1,1924,1534,0,0
707,-510,0,0,0,0,0,0,0,0,0,-1,1931,1534,0,0
714,-510,0,0,0,0,0,0,0,0,0,-1,1938,1534,0,0
721,-510,0,0,0,0,0,0,0,0,0,-1,1945,1534,0,0
728,-510,0,0,0,0,0,0,0,0,0,-1,1952,1534,0,0
735,-510,0,0,0,0,0,0,0,0,0,-1,1959,1534,0,0
742,-510,0,0,0,0,0,0,0,0,0,-1,1966,1534,0,0
749,-510,0,0,0,0,0,0,0,0,0,-1,1973,1534,0,0
756,-510,0,0,0,0,0,0,0,0,0,-1,1980,1534,0,0
763,-510,0,0,0,0,0,0,0,0,0,-1,1987,1534,0,0
770,-510,0,0,0,0,0,0,0,0,0,-1,1994,1534,0,0
777,-510,0,0,0,0,0,0,0,0,0,-1,2001,1534,0,0
784,-510,0,0,0,0,0,0,0,0,0,-1,2008,1534,0,0
791,-510,0,0,0,0,0,0,0,0,0,-1,2015,1534,0,0
798,-510,0,0,0,0,0,0,0,0,0,-1,2022,1534,0,0
805,-510,0,0,0,0,0,0,0,0,0,-1,2029,1534,0,0
812,-510,0,0,0,0,0,0,0,0,0,-1,2036,1534,0,0
-700,-517,0,0,0,0,0,0,0,0,0,-1,524,1541,0,0
-693,-517,0,0,0,0,0,0,0,0,0,-1,531,1541,0,0
-686,-517,0,0,0,0,0,0,0,0,0,-1,538,1541,0,0
-679,-517,0,0,0,0,0,0,0,0,0,-1,545,1541,0,0
-672,-517,0,0,0,0,0,0,0,0,0,-1,552,1541,0,0
-665,-517,0,0,0,0,0,0,0,0,0,-1,559,1541,0,0
-658,-517,0,0,0,0,0,0,0,0,0,-1,566,1541,0,0
-651,-517,0,0,0,0,0,0,0,0,0,-1,573,1541,0,0
-644,-517,0,0,0,0,0,0,0,0,0,-1,580,1541,0,0
-637,-517,0,0,0,0,0,0,0,0,0,-1,587,1541,0,0
-630,-517,0,0,0,0,0,0,0,0,0,-1,594,1541,0,0
-623,-517,0,0,0,0,0,0,0,0,0,-1,601,1541,0,0
-616,-517,0,0,0,0,0,0,0,0,0,-1,608,1541,0,0
-609,-517,0,0,0,0,0,0,0,0,0,-1,615,1541,0,0
-602,-517,0,0,0,0,0,0,0,0,0,-1,622,1541,0,0
-595,-517,0,0,0,0,0,0,0,0,0,-1,629,1541,0,0
-588,-517,0,0,0,0,0,0,0,0,0,-1,636,1541,0,0
-581,-517,0,0,0,0,0,0,0,0,0,-1,643,1541,0,0
-574,-517,0,0,0,0,0,0,0,0,0,-1,650,1541,0,0
-567,-517,0,0,0,0,0,0,0,0,0,-1,657,1541,0,0
-560,-517,0,0,0,0,0,0,0,0,0,-1,664,1541,0,0
-553,-517,0,0,0,0,0,0,0,0,0,-1,671,1541,0,0
-546,-517,0,0,0,0,0,0,0,0,0,-1,678,1541,0,0
-539,-517,0,0,0,0,0,0,0,0,0,-1,685,1541,0,0
-532,-517,0,0,0,0,0,0,0,0,0,-1,692,1541,0,0
-525,-517,-3.62903,4.3606,0,0,0,0,0,0,0,-1,699,1541,-3.62904,-4.36056
-518,-517,-1.664,2.27209,0,0,0,0,0,0,0,-1,706,1541,-1.66399,-2.27207
-511,-517,-0.999146,5.52063,0,0,0,0,0,0,0,-1,713,1541,-0.999126,-5.52059
-504,-517,-1.06946,8.67432,0,0,0,0,0,0,0,-1,720,1541,-1.06947,-8.6743
-497,-517,-3.87305,15.0215,0,0,0,0,0,0,0,-1,727,1541,-3.87307,-15.0215
-490,-517,-3.70679,18.0737,0,0,0,0,0,0,0,-1,734,1541,-3.70681,-18.0738
-483,-517,-4.04028,18.2849,0,0,0,0,0,0,0,-1,741,1541,-4.04026,-18.285
-476,-517,-4.6402,18.7808,0,0,0,0,0,0,0,-1,748,1541,-4.64017,-18.7807
-469,-517,-4.7655,19.4764,-0.00913152,0.00603133,-0.00243196,0.00641184,-0.00951203,-1.41559,0.00925155,0.0221184,755,1541,-4.76549,-19.4764
-462,-517,-4.91132,20.0734,-0.00742554,0.00472348,-0.00201582,0.00504922,-0.00775128,-1.41059,0.00744506,0.020905,762,1541,-4.91133,-20.0733
-455,-517,-4.93378,20.7538,-0.00580294,0.00364479,-0.00160473,0.00390992,-0.00606807,-1.40706,0.00580554,0.0152547,769,1541,-4.93379,-20.7538
-448,-517,-4.92706,21.4081,-0.00426268,0.00277661,-0.00117311,0.00296697,-0.00445303,-1.40993,0.00431248,0.013889,776,1541,-4.92706,-21.408
-441,-517,-4.96124,22.0106,-0.00271819,0.00234882,-0.000567505,0.0024116,-0.00278098,-1.46062,0.00300046,0.0121757,783,1541,-4.96124,-22.0106
-434,-517,-4.98505,22.6086,-0.00119988,0.0023732,0.000201049,0.00238448,-0.00121116,1.51476,0.00211246,0.014543,790,1541,-4.98506,-22.6086
-427,-517,-5.02002,23.2206,0.000287255,0.00271092,0.00107069,0.00311616,-0.000117985,1.20898,0.00211787,0.0140493,797,1541,-5.02003,-23.2205
-420,-517,-5.06738,23.8685,0.00185251,0.003302,0.00209656,0.00479554,0.000358962,0.95181,0.00308434,0.0205667,804,1541,-5.06735,-23.8685
-413,-517,-5.07983,24.4844,0.00340153,0.00436451,0.00327757,0.00719576,0.000570274,0.858329,0.00461883,0.011636,811,1541,-5.07983,-24.4844
-406,-517,-5.10199,25.104,0.00500068,0.00600562,0.00474225,0.0102719,0.000734356,0.838179,0.00661677,0.011664,818,1541,-5.102,-25.104
-399,-517,-5.10742,25.7349,0.00671511,0.00804531,0.00636612,0.013781,0.00097944,0.837447,0.00887887,0.0114245,825,1541,-5.10744,-25.7349
-392,-517,-5.11182,26.3754,0.00842248,0.0104722,0.00802944,0.0175419,0.00135275,0.848873,0.0112708,0.0179698,832,1541,-5.11182,-26.3753
-385,-517,-5.0108,27.3119,0.00981376,0.0127631,0.00971709,0.0211168,0.00146009,0.860704,0.0136173,0.0443116,839,1541,-5.01081,-27.3119
-378,-517,-4.83063,28.4161,0,0,0,0,0,0,0,-1,846,1541,-4.83062,-28.4162
-371,-517,-1.37585,13.2646,0,0,0,0,0,0,0,-1,853,1541,-1.37586,-13.2647
-364,-517,-1.26245,12.6289,0,0,0,0,0,0,0,-1,860,1541,-1.26243,-12.6289
-357,-517,-1.23889,12.979,0,0,0,0,0,0,0,-1,867,1541,-1.23891,-12.979
-350,-517,-5.40198,23.8954,0,0,0,0,0,0,0,-1,874,1541,-5.40196,-23.8954
-343,-517,-5.45844,29.2598,0,0,0,0,0,0,0,-1,881,1541,-5.45842,-29.2598
-336,-517,-4.53223,29.6708,0,0,0,0,0,0,0,-1,888,1541,-4.53221,-29.6708
-329,-517,-3.60602,30.0817,0,0,0,0,0,0,0,-1,895,1541,-3.60601,-30.0817
-322,-517,-4.21246,19.5819,0,0,0,0,0,0,0,-1,902,1541,-4.21244,-19.5819
-315,-517,-0.987976,7.29749,0,0,0,0,0,0,0,-1,909,1541,-0.987993,-7.29743
-308,-517,3.27911,17.621,0,0,0,0,0,0,0,-1,916,1541,3.27913,-17.621
-301,-517,-1.69141,8.87488,0,0,0,0,0,0,0,-1,923,1541,-1.69141,-8.87485
-294,-517,-1.72583,9.92566,0,0,0,0,0,0,0,-1,930,1541,-1.72584,-9.92571
-287,-517,-3.09045,12.1472,0,0,0,0,0,0,0,-1,937,1541,-3.09043,-12.1472
-280,-517,0,0,0,0,0,0,0,0,0,-1,944,1541,0,0
-273,-517,0,0,0,0,0,0,0,0,0,-1,951,1541,0,0
-266,-517,0,0,0,0,0,0,0,0,0,-1,958,1541,0,0
-259,-517,0,0,0,0,0,0,0,0,0,-1,965,1541,0,0
-252,-517,0,0,0,0,0,0,0,0,0,-1,972,1541,0,0
-245,-517,0,0,0,0,0,0,0,0,0,-1,979,1541,0,0
-238,-517,0,0,0,0,0,0,0,0,0,-1,986,1541,0,0
-231,-517,0,0,0,0,0,0,0,0,0,-1,993,1541,0,0
-224,-517,0,0,0,0,0,0,0,0,0,-1,1000,1541,0,0
-217,-517,0,0,0,0,0,0,0,0,0,-1,1007,1541,0,0
-210,-517,0,0,0,0,0,0,0,0,0,-1,1014,1541,0,0
-203,-517,0,0,0,0,0,0,0,0,0,-1,1021,1541,0,0
-196,-517,0,0,0,0,0,0,0,0,0,-1,1028,1541,0,0
-189,-517,0,0,0,0,0,0,0,0,0,-1,1035,1541,0,0
-182,-517,0,0,0,0,0,0,0,0,0,-1,1042,1541,0,0
-175,-517,0,0,0,0,0,0,0,0,0,-1,1049,1541,0,0
-168,-517,0,0,0,0,0,0,0,0,0,-1,1056,1541,0,0
-161,-517,0,0,0,0,0,0,0,0,0,-1,1063,1541,0,0
-154,-517,0,0,0,0,0,0,0,0,0,-1,1070,1541,0,0
-147,-517,0,0,0,0,0,0,0,0,0,-1,1077,1541,0,0
-140,-517,0,0,0,0,0,0,0,0,0,-1,1084,1541,0,0
-133,-517,0,0,0,0,0,0,0,0,0,-1,1091,1541,0,0
-126,-517,0,0,0,0,0,0,0,0,0,-1,1098,1541,0,0
-119,-517,0,0,0,0,0,0,0,0,0,-1,1105,1541,0,0
-112,-517,0,0,0,0,0,0,0,0,0,-1,1112,1541,0,0
-105,-517,0,0,0,0,0,0,0,0,0,-1,1119,1541,0,0
-98,-517,0,0,0,0,0,0,0,0,0,-1,1126,1541,0,0
-91,-517,0,0,0,0,0,0,0,0,0,-1,1133,1541,0,0
-84,-517,0,0,0,0,0,0,0,0,0,-1,1140,1541,0,0
-77,-517,0,0,0,0,0,0,0,0,0,-1,1147,1541,0,0
-70,-517,0,0,0,0,0,0,0,0,0,-1,1154,1541,0,0
-63,-517,0,0,0,0,0,0,0,0,0,-1,1161,1541,0,0
-56,-517,0,0,0,0,0,0,0,0,0,-1,1168,1541,0,0
-49,-517,0,0,0,0,0,0,0,0,0,-1,1175,1541,0,0
-42,-517,0,0,0,0,0,0,0,0,0,-1,1182,1541,0,0
-35,-517,0,0,0,0,0,0,0,0,0,-1,1189,1541,0,0
-28,-517,0,0,0,0,0,0,0,0,0,-1,1196,1541,0,0
-21,-517,0,0,0,0,0,0,0,0,0,-1,1203,1541,0,0
-14,-517,0,0,0,0,0,0,0,0,0,-1,1210,1541,0,0
-7,-517,0,0,0,0,0,0,0,0,0,-1,1217,1541,0,0
0,-517,0,0,0,0,0,0,0,0,0,-1,1224,1541,0,0
7,-517,0,0,0,0,0,0,0,0,0,-1,1231,1541,0,0
14,-517,0,0,0,0,0,0,0,0,0,-1,1238,1541,0,0
21,-517,0,0,0,0,0,0,0,0,0,-1,1245,1541,0,0
28,-517,0,0,0,0,0,0,0,0,0,-1,1252,1541,0,0
35,-517,0,0,0,0,0,0,0,0,0,-1,1259,1541,0,0
42,-517,0,0,0,0,0,0,0,0,0,-1,1266,1541,0,0
49,-517,0,0,0,0,0,0,0,0,0,-1,1273,1541,0,0
56,-517,0,0,0,0,0,0,0,0,0,-1,1280,1541,0,0
63,-517,0,0,0,0,0,0,0,0,0,-1,1287,1541,0,0
70,-517,0,0,0,0,0,0,0,0,0,-1,1294,1541,0,0
77,-517,0,0,0,0,0,0,0,0,0,-1,1301,1541,0,0
84,-517,0,0,0,0,0,0,0,0,0,-1,1308,1541,0,0
91,-517,0,0,0,0,0,0,0,0,0,-1,1315,1541,0,0
98,-517,0,0,0,0,0,0,0,0,0,-1,1322,1541,0,0
105,-517,0,0,0,0,0,0,0,0,0,-1,1329,1541,0,0
112,-517,0,0,0,0,0,0,0,0,0,-1,1336,1541,0,0
119,-517,0,0,0,0,0,0,0,0,0,-1,1343,1541,0,0
126,-517,0,0,0,0,0,0,0,0,0,-1,1350,1541,0,0
133,-517,0,0,0,0,0,0,0,0,0,-1,1357,1541,0,0
140,-517,0,0,0,0,0,0,0,0,0,-1,1364,1541,0,0
147,-517,0,0,0,0,0,0,0,0,0,-1,1371,1541,0,0
154,-517,0,0,0,0,0,0,0,0,0,-1,1378,1541,0,0
161,-517,0,0,0,0,0,0,0,0,0,-1,1385,1541,0,0
168,-517,0,0,0,0,0,0,0,0,0,-1,1392,1541,0,0
175,-517,0,0,0,0,0,0,0,0,0,-1,1399,1541,0,0
182,-517,0,0,0,0,0,0,0,0,0,-1,1406,1541,0,0
189,-517,0,0,0,0,0,0,0,0,0,-1,1413,1541,0,0
196,-517,0,0,0,0,0,0,0,0,0,-1,1420,1541,0,0
203,-517,0,0,0,0,0,0,0,0,0,-1,1427,1541,0,0
210,-517,0,0,0,0,0,0,0,0,0,-1,1434,1541,0,0
217,-517,0,0,0,0,0,0,0,0,0,-1,1441,1541,0,0
224,-517,0,0,0,0,0,0,0,0,0,-1,1448,1541,0,0
231,-517,0,0,0,0,0,0,0,0,0,-1,1455,1541,0,0
238,-517,0,0,0,0,0,0,0,0,0,-1,1462,1541,0,0
245,-517,0,0,0,0,0,0,0,0,0,-1,1469,1541,0,0
252,-517,0,0,0,0,0,0,0,0,0,-1,1476,1541,0,0
259,-517,0,0,0,0,0,0,0,0,0,-1,1483,1541,0,0
266,-517,0,0,0,0,0,0,0,0,0,-1,1490,1541,0,0
273,-517,0,0,0,0,0,0,0,0,0,-1,1497,1541,0,0
280,-517,0,0,0,0,0,0,0,0,0,-1,1504,1541,0,0
287,-517,0,0,0,0,0,0,0,0,0,-1,1511,1541,0,0
294,-517,0,0,0,0,0,0,0,0,0,-1,1518,1541,0,0
301,-517,0,0,0,0,0,0,0,0,0,-1,1525,1541,0,0
308,-517,0,0,0,0,0,0,0,0,0,-1,1532,1541,0,0
315,-517,0,0,0,0,0,0,0,0,0,-1,1539,1541,0,0
322,-517,0,0,0,0,0,0,0,0,0,-1,1546,1541,0,0
329,-517,0,0,0,0,0,0,0,0,0,-1,1553,1541,0,0
336,-517,0,0,0,0,0,0,0,0,0,-1,1560,1541,0,0
343,-517,0,0,0,0,0,0,0,0,0,-1,1567,1541,0,0
350,-517,0,0,0,0,0,0,0,0,0,-1,1574,1541,0,0
357,-517,0,0,0,0,0,0,0,0,0,-1,1581,1541,0,0
364,-517,0,0,0,0,0,0,0,0,0,-1,1588,1541,0,0
371,-517,0,0,0,0,0,0,0,0,0,-1,1595,1541,0,0
378,-517,0,0,0,0,0,0,0,0,0,-1,1602,1541,0,0
385,-517,0,0,0,0,0,0,0,0,0,-1,1609,1541,0,0
392,-517,0,0,0,0,0,0,0,0,0,-1,1616,1541,0,0
399,-517,0,0,0,0,0,0,0,0,0,-1,1623,1541,0,0
406,-517,13.1395,7.01978,0,0,0,0,0,0,0,-1,1630,1541,13.1396,-7.01981
413,-517,12.8859,6.31592,0,0,0,0,0,0,0,-1,1637,1541,12.8858,-6.31588
420,-517,12.4789,6.20337,0,0,0,0,0,0,0,-1,1644,1541,12.4789,-6.20333
427,-517,11.647,4.66516,0,0,0,0,0,0,0,-1,1651,1541,11.647,-4.66519
434,-517,12.3719,3.92773,0,0,0,0,0,0,0,-1,1658,1541,12.3719,-3.92776
441,-517,13.146,3.14124,0,0,0,0,0,0,0,-1,1665,1541,13.146,-3.14121
448,-517,13.8861,2.36682,0,0,0,0,0,0,0,-1,1672,1541,13.8861,-2.36684
455,-517,13.6012,4.06335,0,0,0,0,0,0,0,-1,1679,1541,13.6012,-4.06335
462,-517,14.8956,7.0752,0,0,0,0,0,0,0,-1,1686,1541,14.8956,-7.07525
469,-517,13.6292,6.87744,0,0,0,0,0,0,0,-1,1693,1541,13.6292,-6.87739
476,-517,17.1632,14.1487,0,0,0,0,0,0,0,-1,1700,1541,17.1632,-14.1487
483,-517,16.5157,15.0776,0,0,0,0,0,0,0,-1,1707,1541,16.5157,-15.0777
490,-517,15.5439,18.0258,0,0,0,0,0,0,0,-1,1714,1541,15.5439,-18.0258
497,-517,16.0292,18.7786,0,0,0,0,0,0,0,-1,1721,1541,16.0291,-18.7786
504,-517,17.3815,22.3873,0,0,0,0,0,0,0,-1,1728,1541,17.3814,-22.3873
511,-517,16.9674,21.8491,0,0,0,0,0,0,0,-1,1735,1541,16.9674,-21.8491
518,-517,22.2721,27.7462,0,0,0,0,0,0,0,-1,1742,1541,22.2721,-27.7462
525,-517,22.079,27.2319,0.0078268,0.00737471,-0.00583432,0.0134395,0.00176206,-0.766036,0.00843387,0.0250561,1749,1541,22.079,-27.2319
532,-517,22.2336,26.5183,0.0061336,0.00561387,-0.00444445,0.0103258,0.0014217,-0.756197,0.00646229,0.0125082,1756,1541,22.2337,-26.5183
539,-517,22.2457,25.9421,0.00483835,0.00411084,-0.0032999,0.00779448,0.00115471,-0.730504,0.00485739,0.0136387,1763,1541,22.2458,-25.9421
546,-517,22.2153,25.4193,0.00384673,0.00277537,-0.00236238,0.0057334,0.000888697,-0.673907,0.00356317,0.0149431,1770,1541,22.2153,-25.4194
553,-517,22.1703,24.8413,0.00308907,0.00160187,-0.00156966,0.00408235,0.000608586,-0.564191,0.00254309,0.0181508,1777,1541,22.1703,-24.8413
560,-517,22.1663,24.2518,0.00265057,0.000635605,-0.000996672,0.00306026,0.000225915,-0.390002,0.00196919,0.0180883,1784,1541,22.1662,-24.2518
567,-517,22.14,23.6683,0.00256752,1.45568e-05,-0.000776028,0.0027849,-0.000202824,-0.273119,0.00192777,0.0147185,1791,1541,22.1401,-23.6684
574,-517,22.1125,23.0615,0.00271028,-0.000413464,-0.00071789,0.00286737,-0.000570548,-0.215418,0.00212742,0.0152238,1798,1541,22.1126,-23.0615
581,-517,22.0546,22.4812,0.0031408,-0.000703743,-0.000848418,0.0033197,-0.000882648,-0.207824,0.00255861,0.0157841,1805,1541,22.0546,-22.4812
588,-517,22.0531,21.8826,0.00385249,-0.000694051,-0.00123641,0.00416697,-0.00100853,-0.249069,0.00316813,0.0173939,1812,1541,22.0531,-21.8826
595,-517,22.1542,21.2766,0.00479001,-0.000395968,-0.00181686,0.00536318,-0.000969138,-0.305592,0.00393845,0.047993,1819,1541,22.1542,-21.2766
602,-517,22.6058,20.4243,0,0,0,0,0,0,0,-1,1826,1541,22.6058,-20.4243
609,-517,12.6417,10.8751,0,0,0,0,0,0,0,-1,1833,1541,12.6417,-10.8751
616,-517,14.205,10.3193,0,0,0,0,0,0,0,-1,1840,1541,14.205,-10.3194
623,-517,12.578,10.0779,0,0,0,0,0,0,0,-1,1847,1541,12.578,-10.0779
630,-517,11.7035,7.47815,0,0,0,0,0,0,0,-1,1854,1541,11.7035,-7.47812
637,-517,11.5172,5.79822,0,0,0,0,0,0,0,-1,1861,1541,11.5173,-5.79825
644,-517,11.4232,3.30579,0,0,0,0,0,0,0,-1,1868,1541,11.4232,-3.30574
651,-517,0,0,0,0,0,0,0,0,0,-1,1875,1541,0,0
658,-517,0,0,0,0,0,0,0,0,0,-1,1882,1541,0,0
665,-517,0,0,0,0,0,0,0,0,0,-1,1889,1541,0,0
672,-517,0,0,0,0,0,0,0,0,0,-1,1896,1541,0,0
679,-517,0,0,0,0,0,0,0,0,0,-1,1903,1541,0,0
686,-517,0,0,0,0,0,0,0,0,0,-1,1910,1541,0,0
693,-517,0,0,0,0,0,0,0,0,0,-1,1917,1541,0,0
700,-517,0,0,0,0,0,0,0,0,0,-1,1924,1541,0,0
707,-517,0,0,0,0,0,0,0,0,0,-1,1931,1541,0,0
714,-517,0,0,0,0,0,0,0,0,0,-1,1938,1541,0,0
721,-517,0,0,0,0,0,0,0,0,0,-1,1945,1541,0,0
728,-517,0,0,0,0,0,0,0,0,0,-1,1952,1541,0,0
735,-517,0,0,0,0,0,0,0,0,0,-1,1959,1541,0,0
742,-517,0,0,0,0,0,0,0,0,0,-1,1966,1541,0,0
749,-517,0,0,0,0,0,0,0,0,0,-1,1973,1541,0,0
756,-517,0,0,0,0,0,0,0,0,0,-1,1980,1541,0,0
763,-517,0,0,0,0,0,0,0,0,0,-1,1987,1541,0,0
770,-517,0,0,0,0,0,0,0,0,0,-1,1994,1541,0,0
777,-517,0,0,0,0,0,0,0,0,0,-1,2001,1541,0,0
784,-517,0,0,0,0,0,0,0,0,0,-1,2008,1541,0,0
791,-517,0,0,0,0,0,0,0,0,0,-1,2015,1541,0,0
798,-517,0,0,0,0,0,0,0,0,0,-1,2022,1541,0,0
805,-517,0,0,0,0,0,0,0,0,0,-1,2029,1541,0,0
812,-517,0,0,0,0,0,0,0,0,0,-1,2036,1541,0,0
-700,-524,0,0,0,0,0,0,0,0,0,-1,524,1548,0,0
-693,-524,0,0,0,0,0,0,0,0,0,-1,531,1548,0,0
-686,-524,0,0,0,0,0,0,0,0,0,-1,538,1548,0,0
-679,-524,0,0,0,0,0,0,0,0,0,-1,545,1548,0,0
-672,-524,0,0,0,0,0,0,0,0,0,-1,552,1548,0,0
-665,-524,0,0,0,0,0,0,0,0,0,-1,559,1548,0,0
-658,-524,0,0,0,0,0,0,0,0,0,-1,566,1548,0,0
-651,-524,0,0,0,0,0,0,0,0,0,-1,573,1548,0,0
-644,-524,0,0,0,0,0,0,0,0,0,-1,580,1548,0,0
-637,-524,0,0,0,0,0,0,0,0,0,-1,587,1548,0,0
-630,-524,0,0,0,0,0,0,0,0,0,-1,594,1548,0,0
-623,-524,0,0,0,0,0,0,0,0,0,-1,601,1548,0,0
-616,-524,0,0,0,0,0,0,0,0,0,-1,608,1548,0,0
-609,-524,0,0,0,0,0,0,0,0,0,-1,615,1548,0,0
-602,-524,0,0,0,0,0,0,0,0,0,-1,622,1548,0,0
-595,-524,0,0,0,0,0,0,0,0,0,-1,629,1548,0,0
-588,-524,0,0,0,0,0,0,0,0,0,-1,636,1548,0,0
-581,-524,0,0,0,0,0,0,0,0,0,-1,643,1548,0,0
-574,-524,0,0,0,0,0,0,0,0,0,-1,650,1548,0,0
-567,-524,0,0,0,0,0,0,0,0,0,-1,657,1548,0,0
-560,-524,0,0,0,0,0,0,0,0,0,-1,664,1548,0,0
-553,-524,0,0,0,0,0,0,0,0,0,-1,671,1548,0,0
-546,-524,0,0,0,0,0,0,0,0,0,-1,678,1548,0,0
-539,-524,0,0,0,0,0,0,0,0,0,-1,685,1548,0,0
-532,-524,0,0,0,0,0,0,0,0,0,-1,692,1548,0,0
-525,-524,-0.215515,3.97131,0,0,0,0,0,0,0,-1,699,1548,-0.215501,-3.97136
-518,-524,-0.806274,4.35632,0,0,0,0,0,0,0,-1,706,1548,-0.806259,-4.35633
-511,-524,-1.08301,4.29004,0,0,0,0,0,0,0,-1,713,1548,-1.08301,-4.29006
-504,-524,-1.28821,3.98145,0,0,0,0,0,0,0,-1,720,1548,-1.28822,-3.98151
-497,-524,-0.328491,8.63416,0,0,0,0,0,0,0,-1,727,1548,-0.328487,-8.63411
-490,-524,-3.28113,17.4874,0,0,0,0,0,0,0,-1,734,1548,-3.28115,-17.4875
-483,-524,-4.03192,18.6517,0,0,0,0,0,0,0,-1,741,1548,-4.03189,-18.6518
-476,-524,-4.16522,19.2753,0,0,0,0,0,0,0,-1,748,1548,-4.16521,-19.2753
-469,-524,-4.22034,19.8042,-0.0115166,0.00980231,-0.00249058,0.0100894,-0.0118037,-1.45603,0.0126529,0.0388563,755,1548,-4.22032,-19.8042
-462,-524,-4.17432,20.2949,-0.00949751,0.00753762,-0.00215701,0.0078065,-0.00976639,-1.44678,0.0101667,0.0326224,762,1548,-4.17434,-20.2949
-455,-524,-4.33911,20.8157,-0.00763496,0.0057004,-0.00183012,0.00594701,-0.00788157,-1.43686,0.00800993,0.026577,769,1548,-4.33912,-20.8156
-448,-524,-4.3009,21.4314,-0.00594495,0.00412948,-0.00152829,0.00435622,-0.00617169,-1.42351,0.00610834,0.0144715,776,1548,-4.30093,-21.4314
-441,-524,-4.32587,22.0378,-0.00429343,0.0031029,-0.0010612,0.00325215,-0.00444267,-1.43107,0.0044603,0.0110035,783,1548,-4.32584,-22.0378
-434,-524,-4.3335,22.6244,-0.00269327,0.00261304,-0.000428747,0.00264746,-0.00272769,-1.49069,0.00310346,0.0129154,790,1548,-4.33348,-22.6243
-427,-524,-4.36292,23.2542,-0.00115991,0.00254126,0.000314613,0.00256781,-0.00118646,1.4866,0.0022159,0.0131303,797,1548,-4.36293,-23.2541
-420,-524,-4.42291,23.9038,0.00041911,0.0027375,0.00118715,0.00323754,-8.09302e-05,1.17214,0.00218583,0.0109801,804,1548,-4.42292,-23.9038
-413,-524,-4.44196,24.5203,0.001949,0.00334667,0.0021989,0.00495512,0.00034056,0.939256,0.00319595,0.0112879,811,1548,-4.44194,-24.5203
-406,-524,-4.47211,25.1377,0.00343148,0.00449387,0.00330847,0.00731352,0.000611829,0.864997,0.00468507,0.0119769,818,1548,-4.4721,-25.1377
-399,-524,-4.49548,25.7561,0.00491486,0.00606287,0.00459808,0.0101226,0.0008551,0.847495,0.00648222,0.00950994,825,1548,-4.49551,-25.7561
-392,-524,-4.5119,26.3536,0.00630457,0.00788048,0.00586436,0.0130096,0.00117547,0.85218,0.00830899,0.0106955,832,1548,-4.51192,-26.3537
-385,-524,-4.53387,26.9799,0.00747158,0.00957253,0.00709469,0.0156941,0.00135002,0.858896,0.010043,0.016752,839,1548,-4.5339,-26.9799
-378,-524,-4.50031,27.6444,0,0,0,0,0,0,0,-1,846,1548,-4.50032,-27.6444
-371,-524,-3.9671,28.1908,0,0,0,0,0,0,0,-1,853,1548,-3.96709,-28.1908
-364,-524,-0.712097,14.9871,0,0,0,0,0,0,0,-1,860,1548,-0.712116,-14.9871
-357,-524,-1.34052,14.7448,0,0,0,0,0,0,0,-1,867,1548,-1.34054,-14.7447
-350,-524,-4.31909,25.032,0,0,0,0,0,0,0,-1,874,1548,-4.31906,-25.0319
-343,-524,-3.69696,28.6923,0,0,0,0,0,0,0,-1,881,1548,-3.69694,-28.6922
-336,-524,-3.4873,29.655,0,0,0,0,0,0,0,-1,888,1548,-3.48728,-29.6551
-329,-524,-3.21936,30.5509,0,0,0,0,0,0,0,-1,895,1548,-3.21933,-30.5509
-322,-524,-4.31378,25.6389,0,0,0,0,0,0,0,-1,902,1548,-4.31379,-25.639
-315,-524,-1.90839,19.4824,0,0,0,0,0,0,0,-1,909,1548,-1.90838,-19.4824
-308,-524,-2.36938,19.3059,0,0,0,0,0,0,0,-1,916,1548,-2.3694,-19.3058
-301,-524,2.72394,17.7618,0,0,0,0,0,0,0,-1,923,1548,2.72396,-17.7619
-294,-524,-1.52515,9.05408,0,0,0,0,0,0,0,-1,930,1548,-1.52512,-9.05411
-287,-524,-0.962219,10.3199,0,0,0,0,0,0,0,-1,937,1548,-0.962241,-10.32
-280,-524,-1.36255,10.3859,0,0,0,0,0,0,0,-1,944,1548,-1.36253,-10.3859
-273,-524,0,0,0,0,0,0,0,0,0,-1,951,1548,0,0
-266,-524,0,0,0,0,0,0,0,0,0,-1,958,1548,0,0
-259,-524,0,0,0,0,0,0,0,0,0,-1,965,1548,0,0
-252,-524,0,0,0,0,0,0,0,0,0,-1,972,1548,0,0
-245,-524,0,0,0,0,0,0,0,0,0,-1,979,1548,0,0
-238,-524,0,0,0,0,0,0,0,0,0,-1,986,1548,0,0
-231,-524,0,0,0,0,0,0,0,0,0,-1,993,1548,0,0
-224,-524,0,0,0,0,0,0,0,0,0,-1,1000,1548,0,0
-217,-524,0,0,0,0,0,0,0,0,0,-1,1007,1548,0,0
-210,-524,0,0,0,0,0,0,0,0,0,-1,1014,1548,0,0
-203,-524,0,0,0,0,0,0,0,0,0,-1,1021,1548,0,0
-196,-524,0,0,0,0,0,0,0,0,0,-1,1028,1548,0,0
-189,-524,0,0,0,0,0,0,0,0,0,-1,1035,1548,0,0
-182,-524,0,0,0,0,0,0,0,0,0,-1,1042,1548,0,0
-175,-524,0,0,0,0,0,0,0,0,0,-1,1049,1548,0,0
-168,-524,0,0,0,0,0,0,0,0,0,-1,1056,1548,0,0
-161,-524,0,0,0,0,0,0,0,0,0,-1,1063,1548,0,0
-154,-524,0,0,0,0,0,0,0,0,0,-1,1070,1548,0,0
-147,-524,0,0,0,0,0,0,0,0,0,-1,1077,1548,0,0
-140,-524,0,0,0,0,0,0,0,0,0,-1,1084,1548,0,0
-133,-524,0,0,0,0,0,0,0,0,0,-1,1091,1548,0,0
-126,-524,0,0,0,0,0,0,0,0,0,-1,1098,1548,0,0
-119,-524,0,0,0,0,0,0,0,0,0,-1,1105,1548,0,0
-112,-524,0,0,0,0,0,0,0,0,0,-1,1112,1548,0,0
-105,-524,0,0,0,0,0,0,0,0,0,-1,1119,1548,0,0
-98,-524,0,0,0,0,0,0,0,0,0,-1,1126,1548,0,0
-91,-524,0,0,0,0,0,0,0,0,0,-1,1133,1548,0,0
-84,-524,0,0,0,0,0,0,0,0,0,-1,1140,1548,0,0
-77,-524,0,0,0,0,0,0,0,0,0,-1,1147,1548,0,0
-70,-524,0,0,0,0,0,0,0,0,0,-1,1154,1548,0,0
-63,-524,0,0,0,0,0,0,0,0,0,-1,1161,1548,0,0
-56,-524,0,0,0,0,0,0,0,0,0,-1,1168,1548,0,0
-49,-524,0,0,0,0,0,0,0,0,0,-1,1175,1548,0,0
-42,-524,0,0,0,0,0,0,0,0,0,-1,1182,1548,0,0
-35,-524,0,0,0,0,0,0,0,0,0,-1,1189,1548,0,0
-28,-524,0,0,0,0,0,0,0,0,0,-1,1196,1548,0,0
-21,-524,0,0,0,0,0,0,0,0,0,-1,1203,1548,0,0
-14,-524,0,0,0,0,0,0,0,0,0,-1,1210,1548,0,0
-7,-524,0,0,0,0,0,0,0,0,0,-1,1217,1548,0,0
0,-524,0,0,0,0,0,0,0,0,0,-1,1224,1548,0,0
7,-524,0,0,0,0,0,0,0,0,0,-1,1231,1548,0,0
14,-524,0,0,0,0,0,0,0,0,0,-1,1238,1548,0,0
21,-524,0,0,0,0,0,0,0,0,0,-1,1245,1548,0,0
28,-524,0,0,0,0,0,0,0,0,0,-1,1252,1548,0,0
35,-524,0,0,0,0,0,0,0,0,0,-1,1259,1548,0,0
42,-524,0,0,0,0,0,0,0,0,0,-1,1266,1548,0,0
49,-524,0,0,0,0,0,0,0,0,0,-1,1273,1548,0,0
56,-524,0,0,0,0,0,0,0,0,0,-1,1280,1548,0,0
63,-524,0,0,0,0,0,0,0,0,0,-1,1287,1548,0,0
70,-524,0,0,0,0,0,0,0,0,0,-1,1294,1548,0,0
77,-524,0,0,0,0,0,0,0,0,0,-1,1301,1548,0,0
84,-524,0,0,0,0,0,0,0,0,0,-1,1308,1548,0,0
91,-524,0,0,0,0,0,0,0,0,0,-1,1315,1548,0,0
98,-524,0,0,0,0,0,0,0,0,0,-1,1322,1548,0,0
105,-524,0,0,0,0,0,0,0,0,0,-1,1329,1548,0,0
112,-524,0,0,0,0,0,0,0,0,0,-1,1336,1548,0,0
119,-524,0,0,0,0,0,0,0,0,0,-1,1343,1548,0,0
126,-524,0,0,0,0,0,0,0,0,0,-1,1350,1548,0,0
133,-524,0,0,0,0,0,0,0,0,0,-1,1357,1548,0,0
140,-524,0,0,0,0,0,0,0,0,0,-1,1364,1548,0,0
147,-524,0,0,0,0,0,0,0,0,0,-1,1371,1548,0,0
154,-524,0,0,0,0,0,0,0,0,0,-1,1378,1548,0,0
161,-524,0,0,0,0,0,0,0,0,0,-1,1385,1548,0,0
168,-524,0,0,0,0,0,0,0,0,0,-1,1392,1548,0,0
175,-524,0,0,0,0,0,0,0,0,0,-1,1399,1548,0,0
182,-524,0,0,0,0,0,0,0,0,0,-1,1406,1548,0,0
189,-524,0,0,0,0,0,0,0,0,0,-1,1413,1548,0,0
196,-524,0,0,0,0,0,0,0,0,0,-1,1420,1548,0,0
203,-524,0,0,0,0,0,0,0,0,0,-1,1427,1548,0,0
210,-524,0,0,0,0,0,0,0,0,0,-1,1434,1548,0,0
217,-524,0,0,0,0,0,0,0,0,0,-1,1441,1548,0,0
224,-524,0,0,0,0,0,0,0,0,0,-1,1448,1548,0,0
231,-524,0,0,0,0,0,0,0,0,0,-1,1455,1548,0,0
238,-524,0,0,0,0,0,0,0,0,0,-1,1462,1548,0,0
245,-524,0,0,0,0,0,0,0,0,0,-1,1469,1548,0,0
252,-524,0,0,0,0,0,0,0,0,0,-1,1476,1548,0,0
259,-524,0,0,0,0,0,0,0,0,0,-1,1483,1548,0,0
266,-524,0,0,0,0,0,0,0,0,0,-1,1490,1548,0,0
273,-524,0,0,0,0,0,0,0,0,0,-1,1497,1548,0,0
280,-524,0,0,0,0,0,0,0,0,0,-1,1504,1548,0,0
287,-524,0,0,0,0,0,0,0,0,0,-1,1511,1548,0,0
294,-524,0,0,0,0,0,0,0,0,0,-1,1518,1548,0,0
301,-524,0,0,0,0,0,0,0,0,0,-1,1525,1548,0,0
308,-524,0,0,0,0,0,0,0,0,0,-1,1532,1548,0,0
315,-524,0,0,0,0,0,0,0,0,0,-1,1539,1548,0,0
322,-524,0,0,0,0,0,0,0,0,0,-1,1546,1548,0,0
329,-524,0,0,0,0,0,0,0,0,0,-1,1553,1548,0,0
336,-524,0,0,0,0,0,0,0,0,0,-1,1560,1548,0,0
343,-524,0,0,0,0,0,0,0,0,0,-1,1567,1548,0,0
350,-524,0,0,0,0,0,0,0,0,0,-1,1574,1548,0,0
357,-524,0,0,0,0,0,0,0,0,0,-1,1581,1548,0,0
364,-524,0,0,0,0,0,0,0,0,0,-1,1588,1548,0,0
371,-524,0,0,0,0,0,0,0,0,0,-1,1595,1548,0,0
378,-524,0,0,0,0,0,0,0,0,0,-1,1602,1548,0,0
385,-524,0,0,0,0,0,0,0,0,0,-1,1609,1548,0,0
392,-524,0,0,0,0,0,0,0,0,0,-1,1616,1548,0,0
399,-524,8.81848,5.05774,0,0,0,0,0,0,0,-1,1623,1548,8.81843,-5.05769
406,-524,8.64294,6.06799,0,0,0,0,0,0,0,-1,1630,1548,8.6429,-6.06805
413,-524,11.677,6.41858,0,0,0,0,0,0,0,-1,1637,1548,11.677,-6.41864
420,-524,11.4913,6.36401,0,0,0,0,0,0,0,-1,1644,1548,11.4913,-6.36402
427,-524,7.68335,6.17249,0,0,0,0,0,0,0,-1,1651,1548,7.68341,-6.17245
434,-524,10.432,11.6801,0,0,0,0,0,0,0,-1,1658,1548,10.432,-11.68
441,-524,8.78552,4.12305,0,0,0,0,0,0,0,-1,1665,1548,8.78553,-4.12301
448,-524,14.1854,4.78674,0,0,0,0,0,0,0,-1,1672,1548,14.1854,-4.78674
455,-524,12.4784,3.65576,0,0,0,0,0,0,0,-1,1679,1548,12.4784,-3.65572
462,-524,14.7551,9.29395,0,0,0,0,0,0,0,-1,1686,1548,14.7552,-9.29397
469,-524,16.3314,14.3779,0,0,0,0,0,0,0,-1,1693,1548,16.3314,-14.3779
476,-524,15.9106,15.1875,0,0,0,0,0,0,0,-1,1700,1548,15.9107,-15.1876
483,-524,15.2776,16.2268,0,0,0,0,0,0,0,-1,1707,1548,15.2776,-16.2269
490,-524,15.2563,18.5848,0,0,0,0,0,0,0,-1,1714,1548,15.2564,-18.5848
497,-524,17.5173,22.6123,0,0,0,0,0,0,0,-1,1721,1548,17.5174,-22.6123
504,-524,21.2455,29.4159,0,0,0,0,0,0,0,-1,1728,1548,21.2455,-29.4159
511,-524,21.6935,28.3335,0,0,0,0,0,0,0,-1,1735,1548,21.6934,-28.3335
518,-524,21.6934,27.7169,0.00754967,0.00774564,-0.00617346,0.0138219,0.00147342,-0.793334,0.00876484,0.0265847,1742,1548,21.6934,-27.717
525,-524,21.6819,27.1678,0.00606212,0.00605763,-0.00482619,0.0108861,0.00123368,-0.785166,0.0068831,0.0151269,1749,1548,21.6819,-27.1678
532,-524,21.6647,26.5677,0.00475211,0.00451696,-0.00361057,0.00824702,0.00102205,-0.769122,0.00519098,0.0111902,1756,1548,21.6647,-26.5677
539,-524,21.642,25.9694,0.0037908,0.00318283,-0.00259031,0.0060949,0.000878734,-0.726988,0.00380433,0.0118605,1763,1548,21.6419,-25.9694
546,-524,21.615,25.4337,0.00307395,0.00188765,-0.00169528,0.00427685,0.000684746,-0.617113,0.00265261,0.0157553,1770,1548,21.615,-25.4337
553,-524,21.605,24.8765,0.00254181,0.000717406,-0.000895308,0.00290777,0.00035145,-0.388026,0.00183263,0.0255328,1777,1548,21.6049,-24.8764
560,-524,21.6034,24.2878,0.00233494,-0.000277367,-0.000293717,0.00236756,-0.000309984,-0.110596,0.0016912,0.0344197,1784,1548,21.6034,-24.2879
567,-524,21.5416,23.6884,0.00247087,-0.000968192,-1.40655e-05,0.00247093,-0.000968249,-0.00408983,0.00204781,0.0204086,1791,1548,21.5416,-23.6883
574,-524,21.5323,23.0717,0.00283453,-0.00150021,0.000110754,0.00283736,-0.00150304,0.0255282,0.0025451,0.0148466,1798,1548,21.5323,-23.0716
581,-524,21.5009,22.4727,0.00356502,-0.0018567,-2.5712e-05,0.00356514,-0.00185682,-0.00474227,0.00318174,0.0157834,1805,1548,21.5008,-22.4727
588,-524,21.5483,21.8807,0.00463315,-0.00189006,-0.000459245,0.00466532,-0.00192223,-0.0699419,0.0039117,0.0274154,1812,1548,21.5484,-21.8808
595,-524,21.8733,21.365,0,0,0,0,0,0,0,-1,1819,1548,21.8733,-21.365
602,-524,13.837,12.0682,0,0,0,0,0,0,0,-1,1826,1548,13.837,-12.0683
609,-524,13.0056,10.5138,0,0,0,0,0,0,0,-1,1833,1548,13.0056,-10.5138
616,-524,11.6941,8.65515,0,0,0,0,0,0,0,-1,1840,1548,11.6941,-8.65514
623,-524,9.38452,5.15356,0,0,0,0,0,0,0,-1,1847,1548,9.38456,-5.15359
630,-524,11.0541,3.57434,0,0,0,0,0,0,0,-1,1854,1548,11.0541,-3.57438
637,-524,11.6067,3.20728,0,0,0,0,0,0,0,-1,1861,1548,11.6067,-3.20724
644,-524,12.2134,0.727173,0,0,0,0,0,0,0,-1,1868,1548,12.2134,-0.727222
651,-524,0,0,0,0,0,0,0,0,0,-1,1875,1548,0,0
658,-524,0,0,0,0,0,0,0,0,0,-1,1882,1548,0,0
665,-524,0,0,0,0,0,0,0,0,0,-1,1889,1548,0,0
672,-524,0,0,0,0,0,0,0,0,0,-1,1896,1548,0,0
679,-524,0,0,0,0,0,0,0,0,0,-1,1903,1548,0,0
686,-524,0,0,0,0,0,0,0,0,0,-1,1910,1548,0,0
693,-524,0,0,0,0,0,0,0,0,0,-1,1917,1548,0,0
700,-524,0,0,0,0,0,0,0,0,0,-1,1924,1548,0,0
707,-524,0,0,0,0,0,0,0,0,0,-1,1931,1548,0,0
714,-524,0,0,0,0,0,0,0,0,0,-1,1938,1548,0,0
721,-524,0,0,0,0,0,0,0,0,0,-1,1945,1548,0,0
728,-524,0,0,0,0,0,0,0,0,0,-1,1952,1548,0,0
735,-524,0,0,0,0,0,0,0,0,0,-1,1959,1548,0,0
742,-524,0,0,0,0,0,0,0,0,0,-1,1966,1548,0,0
749,-524,0,0,0,0,0,0,0,0,0,-1,1973,1548,0,0
756,-524,0,0,0,0,0,0,0,0,0,-1,1980,1548,0,0
763,-524,0,0,0,0,0,0,0,0,0,-1,1987,1548,0,0
770,-524,0,0,0,0,0,0,0,0,0,-1,1994,1548,0,0
777,-524,0,0,0,0,0,0,0,0,0,-1,2001,1548,0,0
784,-524,0,0,0,0,0,0,0,0,0,-1,2008,1548,0,0
791,-524,0,0,0,0,0,0,0,0,0,-1,2015,1548,0,0
798,-524,0,0,0,0,0,0,0,0,0,-1,2022,1548,0,0
805,-524,0,0,0,0,0,0,0,0,0,-1,2029,1548,0,0
812,-524,0,0,0,0,0,0,0,0,0,-1,2036,1548,0,0
-700,-531,0,0,0,0,0,0,0,0,0,-1,524,1555,0,0
-693,-531,0,0,0,0,0,0,0,0,0,-1,531,1555,0,0
-686,-531,0,0,0,0,0,0,0,0,0,-1,538,1555,0,0
-679,-531,0,0,0,0,0,0,0,0,0,-1,545,1555,0,0
-672,-531,0,0,0,0,0,0,0,0,0,-1,552,1555,0,0
-665,-531,0,0,0,0,0,0,0,0,0,-1,559,1555,0,0
-658,-531,0,0,0,0,0,0,0,0,0,-1,566,1555,0,0
-651,-531,0,0,0,0,0,0,0,0,0,-1,573,1555,0,0
-644,-531,0,0,0,0,0,0,0,0,0,-1,580,1555,0,0
-637,-531,0,0,0,0,0,0,0,0,0,-1,587,1555,0,0
-630,-531,0,0,0,0,0,0,0,0,0,-1,594,1555,0,0
-623,-531,0,0,0,0,0,0,0,0,0,-1,601,1555,0,0
-616,-531,0,0,0,0,0,0,0,0,0,-1,608,1555,0,0
-609,-531,0,0,0,0,0,0,0,0,0,-1,615,1555,0,0
-602,-531,0,0,0,0,0,0,0,0,0,-1,622,1555,0,0
-595,-531,0,0,0,0,0,0,0,0,0,-1,629,1555,0,0
-588,-531,0,0,0,0,0,0,0,0,0,-1,636,1555,0,0
-581,-531,0,0,0,0,0,0,0,0,0,-1,643,1555,0,0
-574,-531,0,0,0,0,0,0,0,0,0,-1,650,1555,0,0
-567,-531,0,0,0,0,0,0,0,0,0,-1,657,1555,0,0
-560,-531,0,0,0,0,0,0,0,0,0,-1,664,1555,0,0
-553,-531,0,0,0,0,0,0,0,0,0,-1,671,1555,0,0
-546,-531,0,0,0,0,0,0,0,0,0,-1,678,1555,0,0
-539,-531,0,0,0,0,0,0,0,0,0,-1,685,1555,0,0
-532,-531,0,0,0,0,0,0,0,0,0,-1,692,1555,0,0
-525,-531,0,0,0,0,0,0,0,0,0,-1,699,1555,0,0
-518,-531,-1.63983,4.03821,0,0,0,0,0,0,0,-1,706,1555,-1.63982,-4.03821
-511,-531,-2.9682,8.07483,0,0,0,0,0,0,0,-1,713,1555,-2.9682,-8.07479
-504,-531,-2.95978,0.557861,0,0,0,0,0,0,0,-1,720,1555,-2.95978,-0.557917
-497,-531,-2.46039,8.07422,0,0,0,0,0,0,0,-1,727,1555,-2.46039,-8.07423
-490,-531,-0.423462,7.92065,0,0,0,0,0,0,0,-1,734,1555,-0.42344,-7.92066
-483,-531,-3.8501,17.6864,0,0,0,0,0,0,0,-1,741,1555,-3.85008,-17.6864
-476,-531,-2.59778,18.6545,0,0,0,0,0,0,0,-1,748,1555,-2.59778,-18.6545
-469,-531,-2.98468,19.4661,-0.0141277,0.0148827,-0.00210197,0.0150342,-0.0142792,-1.49884,0.016926,0.044105,755,1555,-2.98467,-19.466
-462,-531,-3.36371,20.3845,-0.0117809,0.0112878,-0.00200137,0.0114601,-0.0119533,-1.48489,0.0135187,0.0420769,762,1555,-3.36369,-20.3845
-455,-531,-3.74237,21.0525,-0.00966488,0.00844783,-0.00185821,0.0086365,-0.00985355,-1.46961,0.0106829,0.0408757,769,1555,-3.74239,-21.0524
-448,-531,-3.62567,21.4362,-0.00780022,0.00597791,-0.00175318,0.00619749,-0.0080198,-1.4462,0.0082308,0.0203246,776,1555,-3.62569,-21.4362
-441,-531,-3.72668,22.0405,-0.00601693,0.00421824,-0.00148445,0.00442918,-0.00622788,-1.42964,0.006182,0.0125421,783,1555,-3.72671,-22.0406
-434,-531,-3.74078,22.6875,-0.00429752,0.00312242,-0.00100894,0.00325717,-0.00443227,-1.43803,0.00445674,0.0114616,790,1555,-3.74077,-22.6874
-427,-531,-3.76508,23.3228,-0.00267646,0.00259889,-0.000384908,0.00262683,-0.0027044,-1.49834,0.00307809,0.0130686,797,1555,-3.76508,-23.3227
-420,-531,-3.78638,23.9471,-0.0010547,0.00239718,0.000354066,0.00243313,-0.00109064,1.46963,0.00208308,0.0122759,804,1555,-3.78635,-23.9471
-413,-531,-3.81012,24.5438,0.000492552,0.00257264,0.00123236,0.00314517,-7.99798e-05,1.13588,0.00212394,0.0111166,811,1555,-3.81012,-24.5438
-406,-531,-3.86755,25.1501,0.00190571,0.00326736,0.00205644,0.00475275,0.000420329,0.945254,0.0030381,0.0117184,818,1555,-3.86758,-25.1502
-399,-531,-3.88867,25.7477,0.00323416,0.00443557,0.00311595,0.00700819,0.000661543,0.880622,0.00446796,0.0127382,825,1555,-3.88869,-25.7476
-392,-531,-3.87842,26.3564,0.00442776,0.00576946,0.00411544,0.00926837,0.000928849,0.866191,0.00589375,0.0174674,832,1555,-3.87841,-26.3565
-385,-531,-3.91473,26.9702,0.00549666,0.00703035,0.00505959,0.0113809,0.00114612,0.860607,0.00723553,0.0155131,839,1555,-3.91473,-26.9702
-378,-531,-3.95746,27.5272,0.00672937,0.00864809,0.00611113,0.0138747,0.00150275,0.863255,0.0087918,0.0183583,846,1555,-3.95748,-27.5272
-371,-531,-3.96838,28.2025,0,0,0,0,0,0,0,-1,853,1555,-3.96839,-28.2025
-364,-531,-3.73615,29.0155,0,0,0,0,0,0,0,-1,860,1555,-3.73614,-29.0155
-357,-531,-3.7962,29.7301,0,0,0,0,0,0,0,-1,867,1555,-3.79622,-29.7301
-350,-531,-3.16101,27.5791,0,0,0,0,0,0,0,-1,874,1555,-3.16099,-27.5791
-343,-531,-2.90552,28.561,0,0,0,0,0,0,0,-1,881,1555,-2.90549,-28.5611
-336,-531,-2.6698,29.5398,0,0,0,0,0,0,0,-1,888,1555,-2.66983,-29.5398
-329,-531,-2.45148,30.4781,0,0,0,0,0,0,0,-1,895,1555,-2.45148,-30.4781
-322,-531,-3.25092,28.4921,0,0,0,0,0,0,0,-1,902,1555,-3.25092,-28.4921
-315,-531,-5.51929,31.7814,0,0,0,0,0,0,0,-1,909,1555,-5.51928,-31.7813
-308,-531,-1.66455,19.0624,0,0,0,0,0,0,0,-1,916,1555,-1.66455,-19.0623
-301,-531,-2.02405,18.8912,0,0,0,0,0,0,0,-1,923,1555,-2.02407,-18.8913
-294,-531,-1.3244,8.1825,0,0,0,0,0,0,0,-1,930,1555,-1.3244,-8.18251
-287,-531,-1.78192,10.1661,0,0,0,0,0,0,0,-1,937,1555,-1.78192,-10.1661
-280,-531,-2.14508,10.3945,0,0,0,0,0,0,0,-1,944,1555,-2.14506,-10.3945
-273,-531,-2.50818,10.6229,0,0,0,0,0,0,0,-1,951,1555,-2.5082,-10.6229
-266,-531,-4.97742,17.9215,0,0,0,0,0,0,0,-1,958,1555,-4.97744,-17.9215
-259,-531,0,0,0,0,0,0,0,0,0,-1,965,1555,0,0
-252,-531,0,0,0,0,0,0,0,0,0,-1,972,1555,0,0
-245,-531,0,0,0,0,0,0,0,0,0,-1,979,1555,0,0
-238,-531,0,0,0,0,0,0,0,0,0,-1,986,1555,0,0
-231,-531,0,0,0,0,0,0,0,0,0,-1,993,1555,0,0
-224,-531,0,0,0,0,0,0,0,0,0,-1,1000,1555,0,0
-217,-531,0,0,0,0,0,0,0,0,0,-1,1007,1555,0,0
-210,-531,0,0,0,0,0,0,0,0,0,-1,1014,1555,0,0
-203,-531,0,0,0,0,0,0,0,0,0,-1,1021,1555,0,0
-196,-531,0,0,0,0,0,0,0,0,0,-1,1028,1555,0,0
-189,-531,0,0,0,0,0,0,0,0,0,-1,1035,1555,0,0
-182,-531,0,0,0,0,0,0,0,0,0,-1,1042,1555,0,0
-175,-531,0,0,0,0,0,0,0,0,0,-1,1049,1555,0,0
-168,-531,0,0,0,0,0,0,0,0,0,-1,1056,1555,0,0
-161,-531,0,0,0,0,0,0,0,0,0,-1,1063,1555,0,0
-154,-531,0,0,0,0,0,0,0,0,0,-1,1070,1555,0,0
-147,-531,0,0,0,0,0,0,0,0,0,-1,1077,1555,0,0
-140,-531,0,0,0,0,0,0,0,0,0,-1,1084,1555,0,0
-133,-531,0,0,0,0,0,0,0,0,0,-1,1091,1555,0,0
-126,-531,0,0,0,0,0,0,0,0,0,-1,1098,1555,0,0
-119,-531,0,0,0,0,0,0,0,0,0,-1,1105,1555,0,0
-112,-531,0,0,0,0,0,0,0,0,0,-1,1112,1555,0,0
-105,-531,0,0,0,0,0,0,0,0,0,-1,1119,1555,0,0
-98,-531,0,0,0,0,0,0,0,0,0,-1,1126,1555,0,0
-91,-531,0,0,0,0,0,0,0,0,0,-1,1133,1555,0,0
-84,-531,0,0,0,0,0,0,0,0,0,-1,1140,1555,0,0
-77,-531,0,0,0,0,0,0,0,0,0,-1,1147,1555,0,0
-70,-531,0,0,0,0,0,0,0,0,0,-1,1154,1555,0,0
-63,-531,0,0,0,0,0,0,0,0,0,-1,1161,1555,0,0
-56,-531,0,0,0,0,0,0,0,0,0,-1,1168,1555,0,0
-49,-531,0,0,0,0,0,0,0,0,0,-1,1175,1555,0,0
-42,-531,0,0,0,0,0,0,0,0,0,-1,1182,1555,0,0
-35,-531,0,0,0,0,0,0,0,0,0,-1,1189,1555,0,0
-28,-531,0,0,0,0,0,0,0,0,0,-1,1196,1555,0,0
-21,-531,0,0,0,0,0,0,0,0,0,-1,1203,1555,0,0
-14,-531,0,0,0,0,0,0,0,0,0,-1,1210,1555,0,0
-7,-531,0,0,0,0,0,0,0,0,0,-1,1217,1555,0,0
0,-531,0,0,0,0,0,0,0,0,0,-1,1224,1555,0,0
7,-531,0,0,0,0,0,0,0,0,0,-1,1231,1555,0,0
14,-531,0,0,0,0,0,0,0,0,0,-1,1238,1555,0,0
21,-531,0,0,0,0,0,0,0,0,0,-1,1245,1555,0,0
28,-531,0,0,0,0,0,0,0,0,0,-1,1252,1555,0,0
35,-531,0,0,0,0,0,0,0,0,0,-1,1259,1555,0,0
42,-531,0,0,0,0,0,0,0,0,0,-1,1266,1555,0,0
49,-531,0,0,0,0,0,0,0,0,0,-1,1273,1555,0,0
56,-531,0,0,0,0,0,0,0,0,0,-1,1280,1555,0,0
63,-531,0,0,0,0,0,0,0,0,0,-1,1287,1555,0,0
70,-531,0,0,0,0,0,0,0,0,0,-1,1294,1555,0,0
77,-531,0,0,0,0,0,0,0,0,0,-1,1301,1555,0,0
84,-531,0,0,0,0,0,0,0,0,0,-1,1308,1555,0,0
91,-531,0,0,0,0,0,0,0,0,0,-1,1315,1555,0,0
98,-531,0,0,0,0,0,0,0,0,0,-1,1322,1555,0,0
105,-531,0,0,0,0,0,0,0,0,0,-1,1329,1555,0,0
112,-531,0,0,0,0,0,0,0,0,0,-1,1336,1555,0,0
119,-531,0,0,0,0,0,0,0,0,0,-1,1343,1555,0,0
126,-531,0,0,0,0,0,0,0,0,0,-1,1350,1555,0,0
133,-531,0,0,0,0,0,0,0,0,0,-1,1357,1555,0,0
140,-531,0,0,0,0,0,0,0,0,0,-1,1364,1555,0,0
147,-531,0,0,0,0,0,0,0,0,0,-1,1371,1555,0,0
154,-531,0,0,0,0,0,0,0,0,0,-1,1378,1555,0,0
161,-531,0,0,0,0,0,0,0,0,0,-1,1385,1555,0,0
168,-531,0,0,0,0,0,0,0,0,0,-1,1392,1555,0,0
175,-531,0,0,0,0,0,0,0,0,0,-1,1399,1555,0,0
182,-531,0,0,0,0,0,0,0,0,0,-1,1406,1555,0,0
189,-531,0,0,0,0,0,0,0,0,0,-1,1413,1555,0,0
196,-531,0,0,0,0,0,0,0,0,0,-1,1420,1555,0,0
203,-531,0,0,0,0,0,0,0,0,0,-1,1427,1555,0,0
210,-531,0,0,0,0,0,0,0,0,0,-1,1434,1555,0,0
217,-531,0,0,0,0,0,0,0,0,0,-1,1441,1555,0,0
224,-531,0,0,0,0,0,0,0,0,0,-1,1448,1555,0,0
231,-531,0,0,0,0,0,0,0,0,0,-1,1455,1555,0,0
238,-531,0,0,0,0,0,0,0,0,0,-1,1462,1555,0,0
245,-531,0,0,0,0,0,0,0,0,0,-1,1469,1555,0,0
252,-531,0,0,0,0,0,0,0,0,0,-1,1476,1555,0,0
259,-531,0,0,0,0,0,0,0,0,0,-1,1483,1555,0,0
266,-531,0,0,0,0,0,0,0,0,0,-1,1490,1555,0,0
273,-531,0,0,0,0,0,0,0,0,0,-1,1497,1555,0,0
280,-531,0,0,0,0,0,0,0,0,0,-1,1504,1555,0,0
287,-531,0,0,0,0,0,0,0,0,0,-1,1511,1555,0,0
294,-531,0,0,0,0,0,0,0,0,0,-1,1518,1555,0,0
301,-531,0,0,0,0,0,0,0,0,0,-1,1525,1555,0,0
308,-531,0,0,0,0,0,0,0,0,0,-1,1532,1555,0,0
315,-531,0,0,0,0,0,0,0,0,0,-1,1539,1555,0,0
322,-531,0,0,0,0,0,0,0,0,0,-1,1546,1555,0,0
329,-531,0,0,0,0,0,0,0,0,0,-1,1553,1555,0,0
336,-531,0,0,0,0,0,0,0,0,0,-1,1560,1555,0,0
343,-531,0,0,0,0,0,0,0,0,0,-1,1567,1555,0,0
350,-531,0,0,0,0,0,0,0,0,0,-1,1574,1555,0,0
357,-531,0,0,0,0,0,0,0,0,0,-1,1581,1555,0,0
364,-531,0,0,0,0,0,0,0,0,0,-1,1588,1555,0,0
371,-531,0,0,0,0,0,0,0,0,0,-1,1595,1555,0,0
378,-531,0,0,0,0,0,0,0,0,0,-1,1602,1555,0,0
385,-531,3.48169,1.78625,0,0,0,0,0,0,0,-1,1609,1555,3.48165,-1.78624
392,-531,10.8781,9.09204,0,0,0,0,0,0,0,-1,1616,1555,10.8781,-9.09205
399,-531,8.26306,5.29602,0,0,0,0,0,0,0,-1,1623,1555,8.26302,-5.29607
406,-531,8.26147,5.42712,0,0,0,0,0,0,0,-1,1630,1555,8.26145,-5.42716
413,-531,8.20618,5.75012,0,0,0,0,0,0,0,-1,1637,1555,8.20619,-5.75017
420,-531,7.64868,7.09558,0,0,0,0,0,0,0,-1,1644,1555,7.64867,-7.09564
427,-531,9.93054,11.8412,0,0,0,0,0,0,0,-1,1651,1555,9.93059,-11.8412
434,-531,10.244,11.7072,0,0,0,0,0,0,0,-1,1658,1555,10.244,-11.7071
441,-531,11.4528,12.9397,0,0,0,0,0,0,0,-1,1665,1555,11.4528,-12.9397
448,-531,11.928,18.8029,0,0,0,0,0,0,0,-1,1672,1555,11.928,-18.8028
455,-531,14.4877,9.67065,0,0,0,0,0,0,0,-1,1679,1555,14.4876,-9.67066
462,-531,13.5253,12.2002,0,0,0,0,0,0,0,-1,1686,1555,13.5252,-12.2002
469,-531,15.5087,15.7894,0,0,0,0,0,0,0,-1,1693,1555,15.5086,-15.7895
476,-531,14.6582,16.2264,0,0,0,0,0,0,0,-1,1700,1555,14.6582,-16.2264
483,-531,14.755,18.5994,0,0,0,0,0,0,0,-1,1707,1555,14.7551,-18.5994
490,-531,16.9362,25.4943,0,0,0,0,0,0,0,-1,1714,1555,16.9362,-25.4942
497,-531,20.8051,29.9722,0,0,0,0,0,0,0,-1,1721,1555,20.8051,-29.9721
504,-531,20.9636,29.066,0.00905248,0.0098646,-0.00772997,0.0171992,0.00171792,-0.811639,0.0109385,0.0438644,1728,1555,20.9636,-29.0661
511,-531,21.0873,28.3678,0.00727922,0.00804685,-0.00622676,0.0139016,0.00142446,-0.816179,0.0088313,0.0164795,1735,1555,21.0873,-28.3678
518,-531,21.1007,27.7686,0.00587512,0.00609527,-0.00475779,0.0107443,0.00122614,-0.796964,0.00679112,0.0144126,1742,1555,21.1007,-27.7686
525,-531,21.1019,27.1943,0.00462777,0.00458168,-0.00358599,0.00819079,0.00101867,-0.782185,0.00515463,0.0144569,1749,1555,21.1019,-27.1944
532,-531,21.1078,26.6073,0.00356365,0.00316829,-0.0025224,0.00589611,0.000835834,-0.746293,0.00368387,0.0112386,1756,1555,21.1078,-26.6073
539,-531,21.0629,26.0265,0.00281516,0.0019423,-0.00162307,0.00405946,0.000698007,-0.65406,0.00250625,0.012588,1763,1555,21.0629,-26.0265
546,-531,21.0129,25.4465,0.00228418,0.000681523,-0.00079285,0.00261012,0.000355581,-0.39004,0.0016345,0.0160297,1770,1555,21.0129,-25.4465
553,-531,21.0446,24.9434,0.00193307,-0.000468471,-3.14541e-05,0.00193348,-0.000468883,-0.0130945,0.00147042,0.03124,1777,1555,21.0445,-24.9434
560,-531,20.996,24.3809,0.0019315,-0.0014584,0.000545399,0.00201709,-0.00154399,0.155657,0.00206203,0.0328534,1784,1555,20.996,-24.3809
567,-531,20.9208,23.7009,0.00227577,-0.00219279,0.000844828,0.00243016,-0.00234718,0.180752,0.00275834,0.0202187,1791,1555,20.9208,-23.701
574,-531,20.9019,23.1058,0.00288073,-0.00280152,0.00100134,0.00305202,-0.00297281,0.169425,0.00347854,0.0159029,1798,1555,20.9018,-23.1058
581,-531,20.9517,22.4839,0.0039819,-0.00316594,0.00081111,0.00407279,-0.00325683,0.111586,0.00424049,0.0237309,1805,1555,20.9516,-22.4839
588,-531,20.9811,21.8538,0.00556083,-0.00319078,0.000291009,0.0055705,-0.00320045,0.0332032,0.00512516,0.0398165,1812,1555,20.9811,-21.8538
595,-531,20.9232,21.199,0,0,0,0,0,0,0,-1,1819,1555,20.9232,-21.1989
602,-531,13.701,11.8346,0,0,0,0,0,0,0,-1,1826,1555,13.701,-11.8347
609,-531,10.9072,8.50903,0,0,0,0,0,0,0,-1,1833,1555,10.9073,-8.50902
616,-531,10.5723,7.17859,0,0,0,0,0,0,0,-1,1840,1555,10.5723,-7.17855
623,-531,10.0674,5.08984,0,0,0,0,0,0,0,-1,1847,1555,10.0674,-5.08981
630,-531,11.672,3.18909,0,0,0,0,0,0,0,-1,1854,1555,11.672,-3.18904
637,-531,13.2546,1.38965,0,0,0,0,0,0,0,-1,1861,1555,13.2547,-1.3896
644,-531,0,0,0,0,0,0,0,0,0,-1,1868,1555,0,0
651,-531,0,0,0,0,0,0,0,0,0,-1,1875,1555,0,0
658,-531,0,0,0,0,0,0,0,0,0,-1,1882,1555,0,0
665,-531,0,0,0,0,0,0,0,0,0,-1,1889,1555,0,0
672,-531,0,0,0,0,0,0,0,0,0,-1,1896,1555,0,0
679,-531,0,0,0,0,0,0,0,0,0,-1,1903,1555,0,0
686,-531,0,0,0,0,0,0,0,0,0,-1,1910,1555,0,0
693,-531,0,0,0,0,0,0,0,0,0,-1,1917,1555,0,0
700,-531,0,0,0,0,0,0,0,0,0,-1,1924,1555,0,0
707,-531,0,0,0,0,0,0,0,0,0,-1,1931,1555,0,0
714,-531,0,0,0,0,0,0,0,0,0,-1,1938,1555,0,0
721,-531,0,0,0,0,0,0,0,0,0,-1,1945,1555,0,0
728,-531,0,0,0,0,0,0,0,0,0,-1,1952,1555,0,0
735,-531,0,0,0,0,0,0,0,0,0,-1,1959,1555,0,0
742,-531,0,0,0,0,0,0,0,0,0,-1,1966,1555,0,0
749,-531,0,0,0,0,0,0,0,0,0,-1,1973,1555,0,0
756,-531,0,0,0,0,0,0,0,0,0,-1,1980,1555,0,0
763,-531,0,0,0,0,0,0,0,0,0,-1,1987,1555,0,0
770,-531,0,0,0,0,0,0,0,0,0,-1,1994,1555,0,0
777,-531,0,0,0,0,0,0,0,0,0,-1,2001,1555,0,0
784,-531,0,0,0,0,0,0,0,0,0,-1,2008,1555,0,0
791,-531,0,0,0,0,0,0,0,0,0,-1,2015,1555,0,0
798,-531,0,0,0,0,0,0,0,0,0,-1,2022,1555,0,0
805,-531,0,0,0,0,0,0,0,0,0,-1,2029,1555,0,0
812,-531,0,0,0,0,0,0,0,0,0,-1,2036,1555,0,0
-700,-538,0,0,0,0,0,0,0,0,0,-1,524,1562,0,0
-693,-538,0,0,0,0,0,0,0,0,0,-1,531,1562,0,0
-686,-538,0,0,0,0,0,0,0,0,0,-1,538,1562,0,0
-679,-538,0,0,0,0,0,0,0,0,0,-1,545,1562,0,0
-672,-538,0,0,0,0,0,0,0,0,0,-1,552,1562,0,0
-665,-538,0,0,0,0,0,0,0,0,0,-1,559,1562,0,0
-658,-538,0,0,0,0,0,0,0,0,0,-1,566,1562,0,0
-651,-538,0,0,0,0,0,0,0,0,0,-1,573,1562,0,0
-644,-538,0,0,0,0,0,0,0,0,0,-1,580,1562,0,0
-637,-538,0,0,0,0,0,0,0,0,0,-1,587,1562,0,0
-630,-538,0,0,0,0,0,0,0,0,0,-1,594,1562,0,0
-623,-538,0,0,0,0,0,0,0,0,0,-1,601,1562,0,0
-616,-538,0,0,0,0,0,0,0,0,0,-1,608,1562,0,0
-609,-538,0,0,0,0,0,0,0,0,0,-1,615,1562,0,0
-602,-538,0,0,0,0,0,0,0,0,0,-1,622,1562,0,0
-595,-538,0,0,0,0,0,0,0,0,0,-1,629,1562,0,0
-588,-538,0,0,0,0,0,0,0,0,0,-1,636,1562,0,0
-581,-538,0,0,0,0,0,0,0,0,0,-1,643,1562,0,0
-574,-538,0,0,0,0,0,0,0,0,0,-1,650,1562,0,0
-567,-538,0,0,0,0,0,0,0,0,0,-1,657,1562,0,0
-560,-538,0,0,0,0,0,0,0,0,0,-1,664,1562,0,0
-553,-538,0,0,0,0,0,0,0,0,0,-1,671,1562,0,0
-546,-538,0,0,0,0,0,0,0,0,0,-1,678,1562,0,0
-539,-538,0,0,0,0,0,0,0,0,0,-1,685,1562,0,0
-532,-538,0,0,0,0,0,0,0,0,0,-1,692,1562,0,0
-525,-538,0,0,0,0,0,0,0,0,0,-1,699,1562,0,0
-518,-538,0,0,0,0,0,0,0,0,0,-1,706,1562,0,0
-511,-538,-2.6582,-1.54321,0,0,0,0,0,0,0,-1,713,1562,-2.65821,1.54327
-504,-538,-2.66455,-0.71167,0,0,0,0,0,0,0,-1,720,1562,-2.66456,0.711667
-497,-538,-0.763855,6.77747,0,0,0,0,0,0,0,-1,727,1562,-0.76385,-6.77743
-490,-538,-2.70453,8.01465,0,0,0,0,0,0,0,-1,734,1562,-2.70451,-8.0147
-483,-538,-0.933533,7.84644,0,0,0,0,0,0,0,-1,741,1562,-0.933548,-7.84638
-476,-538,-3.29962,15.8307,0,0,0,0,0,0,0,-1,748,1562,-3.29962,-15.8306
-469,-538,-3.09393,18.98,0,0,0,0,0,0,0,-1,755,1562,-3.09394,-18.98
-462,-538,-3.12848,19.9418,-0.0144263,0.0157919,-0.0016797,0.015885,-0.0145194,-1.51544,0.0175598,0.0481816,762,1562,-3.12849,-19.9418
-455,-538,-3.02063,20.8292,-0.0120129,0.0117527,-0.00176667,0.0118833,-0.0121435,-1.497,0.0138722,0.0442311,769,1562,-3.02065,-20.8292
-448,-538,-2.94104,21.5801,-0.00991795,0.00823152,-0.00188591,0.00842541,-0.0101118,-1.46834,0.0107172,0.0233189,776,1562,-2.94105,-21.5801
-441,-538,-3.08289,22.1785,-0.00800197,0.00567358,-0.00183906,0.00591658,-0.00824497,-1.43943,0.00821293,0.0259355,783,1562,-3.08292,-22.1784
-434,-538,-3.16608,22.7081,-0.00611784,0.0038628,-0.00151315,0.00408716,-0.00634221,-1.42359,0.00606813,0.0131545,790,1562,-3.1661,-22.7082
-427,-538,-3.19678,23.3696,-0.00434372,0.00286234,-0.000976556,0.00299234,-0.00447372,-1.43846,0.00433872,0.0134728,797,1562,-3.19677,-23.3696
-420,-538,-3.20837,23.9783,-0.00262792,0.00226818,-0.000338325,0.00229145,-0.00265118,-1.50213,0.00285615,0.0174579,804,1562,-3.20839,-23.9783
-413,-538,-3.23541,24.5795,-0.00101011,0.00203333,0.000439298,0.00209547,-0.00107225,1.43027,0.00186042,0.0176519,811,1562,-3.23543,-24.5795
-406,-538,-3.26294,25.1831,0.000400028,0.00230471,0.00103457,0.00275853,-5.37894e-05,1.15742,0.00185721,0.0145515,818,1562,-3.26295,-25.183
-399,-538,-3.27368,25.7943,0.00167802,0.00311906,0.00193195,0.00446048,0.000336607,0.963884,0.00286804,0.0133259,825,1562,-3.27367,-25.7943
-392,-538,-3.26843,26.4054,0.00281884,0.00406231,0.00274625,0.00625633,0.000624821,0.896718,0.003979,0.0156609,832,1562,-3.26846,-26.4054
-385,-538,-3.30487,27.0013,0.00392819,0.00501378,0.00350461,0.00801739,0.000924587,0.862228,0.00506494,0.0136495,839,1562,-3.30484,-27.0014
-378,-538,-3.33569,27.5927,0.00512506,0.00633591,0.00434489,0.0101174,0.00134362,0.854623,0.00634463,0.0108436,846,1562,-3.33571,-27.5927
-371,-538,-3.37958,28.1741,0.00639703,0.00766097,0.00523486,0.0123019,0.00175613,0.845469,0.00768306,0.0138532,853,1562,-3.37961,-28.174
-364,-538,-3.29883,28.8584,0.00785543,0.00921682,0.00626811,0.0148411,0.00223117,0.839484,0.00924056,0.0193093,860,1562,-3.29882,-28.8584
-357,-538,-3.25244,29.6044,0.00949038,0.0110145,0.00745478,0.017746,0.0027588,0.836332,0.0110267,0.0461786,867,1562,-3.25241,-29.6043
-350,-538,-3.21368,30.3912,0,0,0,0,0,0,0,-1,874,1562,-3.21369,-30.3912
-343,-538,-2.47339,28.3082,0,0,0,0,0,0,0,-1,881,1562,-2.47341,-28.3083
-336,-538,-2.40161,28.5409,0,0,0,0,0,0,0,-1,888,1562,-2.40163,-28.541
-329,-538,-2.57159,28.4905,0,0,0,0,0,0,0,-1,895,1562,-2.57161,-28.4905
-322,-538,-2.83783,28.2308,0,0,0,0,0,0,0,-1,902,1562,-2.83783,-28.2308
-315,-538,-2.91827,27.7609,0,0,0,0,0,0,0,-1,909,1562,-2.91829,-27.7608
-308,-538,-4.37433,31.7996,0,0,0,0,0,0,0,-1,916,1562,-4.3743,-31.7995
-301,-538,-0.452393,18.5101,0,0,0,0,0,0,0,-1,923,1562,-0.452367,-18.5102
-294,-538,1.23138,14.0757,0,0,0,0,0,0,0,-1,930,1562,1.23137,-14.0757
-287,-538,-2.60419,10.2361,0,0,0,0,0,0,0,-1,937,1562,-2.6042,-10.2361
-280,-538,-2.93475,10.5106,0,0,0,0,0,0,0,-1,944,1562,-2.93475,-10.5106
-273,-538,-3.26532,10.785,0,0,0,0,0,0,0,-1,951,1562,-3.26531,-10.785
-266,-538,-5.03412,15.9951,0,0,0,0,0,0,0,-1,958,1562,-5.03409,-15.9951
-259,-538,-5.89642,16.5184,0,0,0,0,0,0,0,-1,965,1562,-5.89644,-16.5184
-252,-538,0,0,0,0,0,0,0,0,0,-1,972,1562,0,0
-245,-538,0,0,0,0,0,0,0,0,0,-1,979,1562,0,0
-238,-538,0,0,0,0,0,0,0,0,0,-1,986,1562,0,0
-231,-538,0,0,0,0,0,0,0,0,0,-1,993,1562,0,0
-224,-538,0,0,0,0,0,0,0,0,0,-1,1000,1562,0,0
-217,-538,0,0,0,0,0,0,0,0,0,-1,1007,1562,0,0
-210,-538,0,0,0,0,0,0,0,0,0,-1,1014,1562,0,0
-203,-538,0,0,0,0,0,0,0,0,0,-1,1021,1562,0,0
-196,-538,0,0,0,0,0,0,0,0,0,-1,1028,1562,0,0
-189,-538,0,0,0,0,0,0,0,0,0,-1,1035,1562,0,0
-182,-538,0,0,0,0,0,0,0,0,0,-1,1042,1562,0,0
-175,-538,0,0,0,0,0,0,0,0,0,-1,1049,1562,0,0
-168,-538,0,0,0,0,0,0,0,0,0,-1,1056,1562,0,0
-161,-538,0,0,0,0,0,0,0,0,0,-1,1063,1562,0,0
-154,-538,0,0,0,0,0,0,0,0,0,-1,1070,1562,0,0
-147,-538,0,0,0,0,0,0,0,0,0,-1,1077,1562,0,0
-140,-538,0,0,0,0,0,0,0,0,0,-1,1084,1562,0,0
-133,-538,0,0,0,0,0,0,0,0,0,-1,1091,1562,0,0
-126,-538,0,0,0,0,0,0,0,0,0,-1,1098,1562,0,0
-119,-538,0,0,0,0,0,0,0,0,0,-1,1105,1562,0,0
-112,-538,0,0,0,0,0,0,0,0,0,-1,1112,1562,0,0
-105,-538,0,0,0,0,0,0,0,0,0,-1,1119,1562,0,0
-98,-538,0,0,0,0,0,0,0,0,0,-1,1126,1562,0,0
-91,-538,0,0,0,0,0,0,0,0,0,-1,1133,1562,0,0
-84,-538,0,0,0,0,0,0,0,0,0,-1,1140,1562,0,0
-77,-538,0,0,0,0,0,0,0,0,0,-1,1147,1562,0,0
-70,-538,0,0,0,0,0,0,0,0,0,-1,1154,1562,0,0
-63,-538,0,0,0,0,0,0,0,0,0,-1,1161,1562,0,0
-56,-538,0,0,0,0,0,0,0,0,0,-1,1168,1562,0,0
-49,-538,0,0,0,0,0,0,0,0,0,-1,1175,1562,0,0
-42,-538,0,0,0,0,0,0,0,0,0,-1,1182,1562,0,0
-35,-538,0,0,0,0,0,0,0,0,0,-1,1189,1562,0,0
-28,-538,0,0,0,0,0,0,0,0,0,-1,1196,1562,0,0
-21,-538,0,0,0,0,0,0,0,0,0,-1,1203,1562,0,0
-14,-538,0,0,0,0,0,0,0,0,0,-1,1210,1562,0,0
-7,-538,0,0,0,0,0,0,0,0,0,-1,1217,1562,0,0
0,-538,0,0,0,0,0,0,0,0,0,-1,1224,1562,0,0
7,-538,0,0,0,0,0,0,0,0,0,-1,1231,1562,0,0
14,-538,0,0,0,0,0,0,0,0,0,-1,1238,1562,0,0
21,-538,0,0,0,0,0,0,0,0,0,-1,1245,1562,0,0
28,-538,0,0,0,0,0,0,0,0,0,-1,1252,1562,0,0
35,-538,0,0,0,0,0,0,0,0,0,-1,1259,1562,0,0
42,-538,0,0,0,0,0,0,0,0,0,-1,1266,1562,0,0
49,-538,0,0,0,0,0,0,0,0,0,-1,1273,1562,0,0
56,-538,0,0,0,0,0,0,0,0,0,-1,1280,1562,0,0
63,-538,0,0,0,0,0,0,0,0,0,-1,1287,1562,0,0
70,-538,0,0,0,0,0,0,0,0,0,-1,1294,1562,0,0
77,-538,0,0,0,0,0,0,0,0,0,-1,1301,1562,0,0
84,-538,0,0,0,0,0,0,0,0,0,-1,1308,1562,0,0
91,-538,0,0,0,0,0,0,0,0,0,-1,1315,1562,0,0
98,-538,0,0,0,0,0,0,0,0,0,-1,1322,1562,0,0
105,-538,0,0,0,0,0,0,0,0,0,-1,1329,1562,0,0
112,-538,0,0,0,0,0,0,0,0,0,-1,1336,1562,0,0
119,-538,0,0,0,0,0,0,0,0,0,-1,1343,1562,0,0
126,-538,0,0,0,0,0,0,0,0,0,-1,1350,1562,0,0
133,-538,0,0,0,0,0,0,0,0,0,-1,1357,1562,0,0
140,-538,0,0,0,0,0,0,0,0,0,-1,1364,1562,0,0
147,-538,0,0,0,0,0,0,0,0,0,-1,1371,1562,0,0
154,-538,0,0,0,0,0,0,0,0,0,-1,1378,1562,0,0
161,-538,0,0,0,0,0,0,0,0,0,-1,1385,1562,0,0
168,-538,0,0,0,0,0,0,0,0,0,-1,1392,1562,0,0
175,-538,0,0,0,0,0,0,0,0,0,-1,1399,1562,0,0
182,-538,0,0,0,0,0,0,0,0,0,-1,1406,1562,0,0
189,-538,0,0,0,0,0,0,0,0,0,-1,1413,1562,0,0
196,-538,0,0,0,0,0,0,0,0,0,-1,1420,1562,0,0
203,-538,0,0,0,0,0,0,0,0,0,-1,1427,1562,0,0
210,-538,0,0,0,0,0,0,0,0,0,-1,1434,1562,0,0
217,-538,0,0,0,0,0,0,0,0,0,-1,1441,1562,0,0
224,-538,0,0,0,0,0,0,0,0,0,-1,1448,1562,0,0
231,-538,0,0,0,0,0,0,0,0,0,-1,1455,1562,0,0
238,-538,0,0,0,0,0,0,0,0,0,-1,1462,1562,0,0
245,-538,0,0,0,0,0,0,0,0,0,-1,1469,1562,0,0
252,-538,0,0,0,0,0,0,0,0,0,-1,1476,1562,0,0
259,-538,0,0,0,0,0,0,0,0,0,-1,1483,1562,0,0
266,-538,0,0,0,0,0,0,0,0,0,-1,1490,1562,0,0
273,-538,0,0,0,0,0,0,0,0,0,-1,1497,1562,0,0
280,-538,0,0,0,0,0,0,0,0,0,-1,1504,1562,0,0
287,-538,0,0,0,0,0,0,0,0,0,-1,1511,1562,0,0
294,-538,0,0,0,0,0,0,0,0,0,-1,1518,1562,0,0
301,-538,0,0,0,0,0,0,0,0,0,-1,1525,1562,0,0
308,-538,0,0,0,0,0,0,0,0,0,-1,1532,1562,0,0
315,-538,0,0,0,0,0,0,0,0,0,-1,1539,1562,0,0
322,-538,0,0,0,0,0,0,0,0,0,-1,1546,1562,0,0
329,-538,0,0,0,0,0,0,0,0,0,-1,1553,1562,0,0
336,-538,0,0,0,0,0,0,0,0,0,-1,1560,1562,0,0
343,-538,0,0,0,0,0,0,0,0,0,-1,1567,1562,0,0
350,-538,0,0,0,0,0,0,0,0,0,-1,1574,1562,0,0
357,-538,0,0,0,0,0,0,0,0,0,-1,1581,1562,0,0
364,-538,0,0,0,0,0,0,0,0,0,-1,1588,1562,0,0
371,-538,0,0,0,0,0,0,0,0,0,-1,1595,1562,0,0
378,-538,9.65479,5.82434,0,0,0,0,0,0,0,-1,1602,1562,9.6548,-5.82439
385,-538,10.5449,7.9502,0,0,0,0,0,0,0,-1,1609,1562,10.5449,-7.95014
392,-538,8.20361,7.07214,0,0,0,0,0,0,0,-1,1616,1562,8.20362,-7.07211
399,-538,7.85425,4.70508,0,0,0,0,0,0,0,-1,1623,1562,7.85425,-4.70512
406,-538,7.77734,4.96094,0,0,0,0,0,0,0,-1,1630,1562,7.77729,-4.96097
413,-538,13.0446,13.1765,0,0,0,0,0,0,0,-1,1637,1562,13.0446,-13.1765
420,-538,9.96216,12.7653,0,0,0,0,0,0,0,-1,1644,1562,9.96221,-12.7653
427,-538,10.1732,14.5863,0,0,0,0,0,0,0,-1,1651,1562,10.1732,-14.5863
434,-538,9.64331,14.7745,0,0,0,0,0,0,0,-1,1658,1562,9.64326,-14.7746
441,-538,11.5039,20.5195,0,0,0,0,0,0,0,-1,1665,1562,11.5039,-20.5195
448,-538,12.8766,22.4932,0,0,0,0,0,0,0,-1,1672,1562,12.8766,-22.4932
455,-538,12.5693,17.4128,0,0,0,0,0,0,0,-1,1679,1562,12.5694,-17.4128
462,-538,12.1389,17.017,0,0,0,0,0,0,0,-1,1686,1562,12.1389,-17.017
469,-538,14.3802,16.6945,0,0,0,0,0,0,0,-1,1693,1562,14.3803,-16.6945
476,-538,13.724,19.0608,0,0,0,0,0,0,0,-1,1700,1562,13.724,-19.0608
483,-538,17.088,25.2936,0,0,0,0,0,0,0,-1,1707,1562,17.088,-25.2936
490,-538,20.1882,30.6206,0,0,0,0,0,0,0,-1,1714,1562,20.1882,-30.6206
497,-538,20.4403,29.6439,0.00869113,0.0103936,-0.00734114,0.0169327,0.00215201,-0.843116,0.0106439,0.0427195,1721,1562,20.4403,-29.6439
504,-538,20.5514,28.894,0.00708847,0.00790401,-0.00597908,0.0134892,0.00150327,-0.819445,0.00853595,0.0176278,1728,1562,20.5514,-28.8941
511,-538,20.5181,28.3433,0.00564002,0.00625873,-0.00472548,0.010685,0.00121378,-0.818084,0.00675517,0.0106129,1735,1562,20.5181,-28.3432
518,-538,20.5042,27.7854,0.00445873,0.00449031,-0.00346936,0.00794392,0.00100512,-0.787674,0.00499473,0.0117543,1742,1562,20.5042,-27.7854
525,-538,20.4932,27.2012,0.0034492,0.00313778,-0.00244883,0.00574727,0.000839719,-0.753648,0.00358454,0.0122387,1749,1562,20.4931,-27.2012
532,-538,20.4994,26.635,0.00261926,0.00183103,-0.00150142,0.00377743,0.000672857,-0.657048,0.00232666,0.0132806,1756,1562,20.4993,-26.635
539,-538,20.4865,26.0698,0.00205701,0.000675062,-0.000675043,0.00233202,0.000400051,-0.386868,0.00143998,0.0161067,1763,1562,20.4864,-26.0698
546,-538,20.4464,25.4723,0.00168277,-0.000578203,0.000135888,0.00169091,-0.000586341,0.0598146,0.00136535,0.0169304,1770,1562,20.4464,-25.4722
553,-538,20.467,24.9052,0.00149355,-0.00174458,0.000900533,0.00172714,-0.00197817,0.253797,0.0021409,0.0279533,1777,1562,20.467,-24.9051
560,-538,20.4159,24.397,0.00166626,-0.00277387,0.00150336,0.00212738,-0.003235,0.297619,0.00311791,0.0301289,1784,1562,20.4159,-24.3969
567,-538,20.3318,23.7635,0.00217898,-0.00361526,0.00189168,0.00274188,-0.00417816,0.289223,0.00402387,0.0244237,1791,1562,20.3318,-23.7635
574,-538,20.2288,23.147,0.00299053,-0.00437687,0.00214577,0.00356992,-0.00495627,0.263728,0.00494424,0.0306445,1798,1562,20.2288,-23.147
581,-538,20.3171,22.567,0.00444996,-0.00481175,0.00193765,0.004839,-0.00520079,0.198143,0.00579773,0.04363,1805,1562,20.3171,-22.567
588,-538,20.6061,21.99,0,0,0,0,0,0,0,-1,1812,1562,20.6061,-21.99
595,-538,15.9808,16.0894,0,0,0,0,0,0,0,-1,1819,1562,15.9808,-16.0893
602,-538,10.314,8.94238,0,0,0,0,0,0,0,-1,1826,1562,10.314,-8.94238
609,-538,10.1046,7.05713,0,0,0,0,0,0,0,-1,1833,1562,10.1046,-7.05719
616,-538,9.92249,5.43506,0,0,0,0,0,0,0,-1,1840,1562,9.92254,-5.43507
623,-538,11.1711,4.31604,0,0,0,0,0,0,0,-1,1847,1562,11.1711,-4.316
630,-538,12.6112,2.61633,0,0,0,0,0,0,0,-1,1854,1562,12.6112,-2.61637
637,-538,0,0,0,0,0,0,0,0,0,-1,1861,1562,0,0
644,-538,0,0,0,0,0,0,0,0,0,-1,1868,1562,0,0
651,-538,0,0,0,0,0,0,0,0,0,-1,1875,1562,0,0
658,-538,0,0,0,0,0,0,0,0,0,-1,1882,1562,0,0
665,-538,0,0,0,0,0,0,0,0,0,-1,1889,1562,0,0
672,-538,0,0,0,0,0,0,0,0,0,-1,1896,1562,0,0
679,-538,0,0,0,0,0,0,0,0,0,-1,1903,1562,0,0
686,-538,0,0,0,0,0,0,0,0,0,-1,1910,1562,0,0
693,-538,0,0,0,0,0,0,0,0,0,-1,1917,1562,0,0
700,-538,0,0,0,0,0,0,0,0,0,-1,1924,1562,0,0
707,-538,0,0,0,0,0,0,0,0,0,-1,1931,1562,0,0
714,-538,0,0,0,0,0,0,0,0,0,-1,1938,1562,0,0
721,-538,0,0,0,0,0,0,0,0,0,-1,1945,1562,0,0
728,-538,0,0,0,0,0,0,0,0,0,-1,1952,1562,0,0
735,-538,0,0,0,0,0,0,0,0,0,-1,1959,1562,0,0
742,-538,0,0,0,0,0,0,0,0,0,-1,1966,1562,0,0
749,-538,0,0,0,0,0,0,0,0,0,-1,1973,1562,0,0
756,-538,0,0,0,0,0,0,0,0,0,-1,1980,1562,0,0
763,-538,0,0,0,0,0,0,0,0,0,-1,1987,1562,0,0
770,-538,0,0,0,0,0,0,0,0,0,-1,1994,1562,0,0
777,-538,0,0,0,0,0,0,0,0,0,-1,2001,1562,0,0
784,-538,0,0,0,0,0,0,0,0,0,-1,2008,1562,0,0
791,-538,0,0,0,0,0,0,0,0,0,-1,2015,1562,0,0
798,-538,0,0,0,0,0,0,0,0,0,-1,2022,1562,0,0
805,-538,0,0,0,0,0,0,0,0,0,-1,2029,1562,0,0
812,-538,0,0,0,0,0,0,0,0,0,-1,2036,1562,0,0
-700,-545,0,0,0,0,0,0,0,0,0,-1,524,1569,0,0
-693,-545,0,0,0,0,0,0,0,0,0,-1,531,1569,0,0
-686,-545,0,0,0,0,0,0,0,0,0,-1,538,1569,0,0
-679,-545,0,0,0,0,0,0,0,0,0,-1,545,1569,0,0
-672,-545,0,0,0,0,0,0,0,0,0,-1,552,1569,0,0
-665,-545,0,0,0,0,0,0,0,0,0,-1,559,1569,0,0
-658,-545,0,0,0,0,0,0,0,0,0,-1,566,1569,0,0
-651,-545,0,0,0,0,0,0,0,0,0,-1,573,1569,0,0
-644,-545,0,0,0,0,0,0,0,0,0,-1,580,1569,0,0
-637,-545,0,0,0,0,0,0,0,0,0,-1,587,1569,0,0
-630,-545,0,0,0,0,0,0,0,0,0,-1,594,1569,0,0
-623,-545,0,0,0,0,0,0,0,0,0,-1,601,1569,0,0
-616,-545,0,0,0,0,0,0,0,0,0,-1,608,1569,0,0
-609,-545,0,0,0,0,0,0,0,0,0,-1,615,1569,0,0
-602,-545,0,0,0,0,0,0,0,0,0,-1,622,1569,0,0
-595,-545,0,0,0,0,0,0,0,0,0,-1,629,1569,0,0
-588,-545,0,0,0,0,0,0,0,0,0,-1,636,1569,0,0
-581,-545,0,0,0,0,0,0,0,0,0,-1,643,1569,0,0
-574,-545,0,0,0,0,0,0,0,0,0,-1,650,1569,0,0
-567,-545,0,0,0,0,0,0,0,0,0,-1,657,1569,0,0
-560,-545,0,0,0,0,0,0,0,0,0,-1,664,1569,0,0
-553,-545,0,0,0,0,0,0,0,0,0,-1,671,1569,0,0
-546,-545,0,0,0,0,0,0,0,0,0,-1,678,1569,0,0
-539,-545,0,0,0,0,0,0,0,0,0,-1,685,1569,0,0
-532,-545,0,0,0,0,0,0,0,0,0,-1,692,1569,0,0
-525,-545,0,0,0,0,0,0,0,0,0,-1,699,1569,0,0
-518,-545,0,0,0,0,0,0,0,0,0,-1,706,1569,0,0
-511,-545,0,0,0,0,0,0,0,0,0,-1,713,1569,0,0
-504,-545,-3.55237,-2.5354,0,0,0,0,0,0,0,-1,720,1569,-3.55236,2.53545
-497,-545,2.26575,5.69214,0,0,0,0,0,0,0,-1,727,1569,2.26573,-5.6922
-490,-545,-2.17334,7.81396,0,0,0,0,0,0,0,-1,734,1569,-2.17334,-7.81399
-483,-545,-1.88336,5.8446,0,0,0,0,0,0,0,-1,741,1569,-1.88334,-5.84466
-476,-545,-1.13147,6.5741,0,0,0,0,0,0,0,-1,748,1569,-1.13149,-6.57405
-469,-545,-1.03412,15.8353,0,0,0,0,0,0,0,-1,755,1569,-1.03414,-15.8353
-462,-545,-2.57898,19.5947,0,0,0,0,0,0,0,-1,762,1569,-2.57899,-19.5947
-455,-545,-1.91937,20.3855,0,0,0,0,0,0,0,-1,769,1569,-1.9194,-20.3855
-448,-545,-2.08826,21.3492,-0.0123524,0.0110678,-0.00177493,0.0112016,-0.0124862,-1.49558,0.0136828,0.035017,776,1569,-2.08827,-21.3493
-441,-545,-2.28363,22.316,-0.010211,0.00752521,-0.0020281,0.00775416,-0.01044,-1.45838,0.0105425,0.0316639,783,1569,-2.28363,-22.3161
-434,-545,-2.61041,22.7982,-0.0080955,0.00476849,-0.0019412,0.00505503,-0.00838205,-1.42424,0.00783677,0.0277934,790,1569,-2.61044,-22.7983
-427,-545,-2.58496,23.4012,-0.00608196,0.00321774,-0.00150275,0.00345454,-0.00631876,-1.4145,0.00572282,0.0214536,797,1569,-2.58497,-23.4013
-420,-545,-2.58966,23.9988,-0.00419941,0.00221669,-0.000957013,0.00235639,-0.00433912,-1.42584,0.00392174,0.0243733,804,1569,-2.58969,-23.9988
-413,-545,-2.59802,24.5784,-0.00246422,0.00158349,-0.000269621,0.00160137,-0.0024821,-1.50458,0.0023758,0.0224037,811,1569,-2.59802,-24.5784
-406,-545,-2.61688,25.2051,-0.00102054,0.00145729,0.000140978,0.00146529,-0.00102854,1.51414,0.00144715,0.017156,818,1569,-2.61687,-25.2051
-399,-545,-2.63928,25.8156,0.000247719,0.00196503,0.000928096,0.00237075,-0.000158004,1.15867,0.00163571,0.0125743,825,1569,-2.63927,-25.8155
-392,-545,-2.67706,26.4088,0.00137918,0.00261165,0.00163298,0.0037408,0.000250029,0.965822,0.00241484,0.0131841,832,1569,-2.67707,-26.4088
-385,-545,-2.70599,27.0138,0.00253562,0.00337173,0.00230227,0.00529359,0.000613756,0.875211,0.00334331,0.0111908,839,1569,-2.70599,-27.0138
-378,-545,-2.74451,27.6185,0.00369025,0.00450679,0.00303681,0.00716265,0.00103438,0.852217,0.00447038,0.0121378,846,1569,-2.74453,-27.6185
-371,-545,-2.77386,28.2369,0.00481991,0.00557582,0.00375908,0.0089759,0.00141983,0.835502,0.00557129,0.0143991,853,1569,-2.77387,-28.237
-364,-545,-2.76971,28.8114,0.00608907,0.00695624,0.00462495,0.0111679,0.00187743,0.832136,0.00690506,0.0109733,860,1569,-2.7697,-28.8114
-357,-545,-2.68127,29.5298,0.00751034,0.00850828,0.00559334,0.0136249,0.00239376,0.829884,0.00839979,0.0206374,867,1569,-2.6813,-29.5298
-350,-545,-2.6236,30.1897,0.00915322,0.0103441,0.00675069,0.0165256,0.00297175,0.829386,0.0101722,0.0328367,874,1569,-2.62362,-30.1896
-343,-545,-2.63416,30.9919,0,0,0,0,0,0,0,-1,881,1569,-2.63415,-30.9919
-336,-545,-2.45911,30.9979,0,0,0,0,0,0,0,-1,888,1569,-2.45913,-30.9979
-329,-545,-2.03595,27.8694,0,0,0,0,0,0,0,-1,895,1569,-2.03592,-27.8694
-322,-545,-2.42474,27.9695,0,0,0,0,0,0,0,-1,902,1569,-2.42474,-27.9695
-315,-545,-2.52954,30.1711,0,0,0,0,0,0,0,-1,909,1569,-2.52951,-30.1712
-308,-545,-1.54358,21.4457,0,0,0,0,0,0,0,-1,916,1569,-1.54357,-21.4457
-301,-545,1.52191,17.5009,0,0,0,0,0,0,0,-1,923,1569,1.52192,-17.5008
-294,-545,-2.69287,8.42102,0,0,0,0,0,0,0,-1,930,1569,-2.69287,-8.42097
-287,-545,-3.47784,9.96021,0,0,0,0,0,0,0,-1,937,1569,-3.47785,-9.96021
-280,-545,-3.7879,10.5448,0,0,0,0,0,0,0,-1,944,1569,-3.78793,-10.5448
-273,-545,-5.10333,12.864,0,0,0,0,0,0,0,-1,951,1569,-5.10331,-12.864
-266,-545,-5.78955,13.3704,0,0,0,0,0,0,0,-1,958,1569,-5.78952,-13.3703
-259,-545,-6.32184,13.8101,0,0,0,0,0,0,0,-1,965,1569,-6.32182,-13.81
-252,-545,0.369263,7.54053,0,0,0,0,0,0,0,-1,972,1569,0.369276,-7.54056
-245,-545,-0.236633,6.65564,0,0,0,0,0,0,0,-1,979,1569,-0.236605,-6.65566
-238,-545,0,0,0,0,0,0,0,0,0,-1,986,1569,0,0
-231,-545,0,0,0,0,0,0,0,0,0,-1,993,1569,0,0
-224,-545,0,0,0,0,0,0,0,0,0,-1,1000,1569,0,0
-217,-545,0,0,0,0,0,0,0,0,0,-1,1007,1569,0,0
-210,-545,0,0,0,0,0,0,0,0,0,-1,1014,1569,0,0
-203,-545,0,0,0,0,0,0,0,0,0,-1,1021,1569,0,0
-196,-545,0,0,0,0,0,0,0,0,0,-1,1028,1569,0,0
-189,-545,0,0,0,0,0,0,0,0,0,-1,1035,1569,0,0
-182,-545,0,0,0,0,0,0,0,0,0,-1,1042,1569,0,0
-175,-545,0,0,0,0,0,0,0,0,0,-1,1049,1569,0,0
-168,-545,0,0,0,0,0,0,0,0,0,-1,1056,1569,0,0
-161,-545,0,0,0,0,0,0,0,0,0,-1,1063,1569,0,0
-154,-545,0,0,0,0,0,0,0,0,0,-1,1070,1569,0,0
-147,-545,0,0,0,0,0,0,0,0,0,-1,1077,1569,0,0
-140,-545,0,0,0,0,0,0,0,0,0,-1,1084,1569,0,0
-133,-545,0,0,0,0,0,0,0,0,0,-1,1091,1569,0,0
-126,-545,0,0,0,0,0,0,0,0,0,-1,1098,1569,0,0
-119,-545,0,0,0,0,0,0,0,0,0,-1,1105,1569,0,0
-112,-545,0,0,0,0,0,0,0,0,0,-1,1112,1569,0,0
-105,-545,0,0,0,0,0,0,0,0,0,-1,1119,1569,0,0
-98,-545,0,0,0,0,0,0,0,0,0,-1,1126,1569,0,0
-91,-545,0,0,0,0,0,0,0,0,0,-1,1133,1569,0,0
-84,-545,0,0,0,0,0,0,0,0,0,-1,1140,1569,0,0
-77,-545,0,0,0,0,0,0,0,0,0,-1,1147,1569,0,0
-70,-545,0,0,0,0,0,0,0,0,0,-1,1154,1569,0,0
-63,-545,0,0,0,0,0,0,0,0,0,-1,1161,1569,0,0
-56,-545,0,0,0,0,0,0,0,0,0,-1,1168,1569,0,0
-49,-545,0,0,0,0,0,0,0,0,0,-1,1175,1569,0,0
-42,-545,0,0,0,0,0,0,0,0,0,-1,1182,1569,0,0
-35,-545,0,0,0,0,0,0,0,0,0,-1,1189,1569,0,0
-28,-545,0,0,0,0,0,0,0,0,0,-1,1196,1569,0,0
-21,-545,0,0,0,0,0,0,0,0,0,-1,1203,1569,0,0
-14,-545,0,0,0,0,0,0,0,0,0,-1,1210,1569,0,0
-7,-545,0,0,0,0,0,0,0,0,0,-1,1217,1569,0,0
0,-545,0,0,0,0,0,0,0,0,0,-1,1224,1569,0,0
7,-545,0,0,0,0,0,0,0,0,0,-1,1231,1569,0,0
14,-545,0,0,0,0,0,0,0,0,0,-1,1238,1569,0,0
21,-545,0,0,0,0,0,0,0,0,0,-1,1245,1569,0,0
28,-545,0,0,0,0,0,0,0,0,0,-1,1252,1569,0,0
35,-545,0,0,0,0,0,0,0,0,0,-1,1259,1569,0,0
42,-545,0,0,0,0,0,0,0,0,0,-1,1266,1569,0,0
49,-545,0,0,0,0,0,0,0,0,0,-1,1273,1569,0,0
56,-545,0,0,0,0,0,0,0,0,0,-1,1280,1569,0,0
63,-545,0,0,0,0,0,0,0,0,0,-1,1287,1569,0,0
70,-545,0,0,0,0,0,0,0,0,0,-1,1294,1569,0,0
77,-545,0,0,0,0,0,0,0,0,0,-1,1301,1569,0,0
84,-545,0,0,0,0,0,0,0,0,0,-1,1308,1569,0,0
91,-545,0,0,0,0,0,0,0,0,0,-1,1315,1569,0,0
98,-545,0,0,0,0,0,0,0,0,0,-1,1322,1569,0,0
105,-545,0,0,0,0,0,0,0,0,0,-1,1329,1569,0,0
112,-545,0,0,0,0,0,0,0,0,0,-1,1336,1569,0,0
119,-545,0,0,0,0,0,0,0,0,0,-1,1343,1569,0,0
126,-545,0,0,0,0,0,0,0,0,0,-1,1350,1569,0,0
133,-545,0,0,0,0,0,0,0,0,0,-1,1357,1569,0,0
140,-545,0,0,0,0,0,0,0,0,0,-1,1364,1569,0,0
147,-545,0,0,0,0,0,0,0,0,0,-1,1371,1569,0,0
154,-545,0,0,0,0,0,0,0,0,0,-1,1378,1569,0,0
161,-545,0,0,0,0,0,0,0,0,0,-1,1385,1569,0,0
168,-545,0,0,0,0,0,0,0,0,0,-1,1392,1569,0,0
175,-545,0,0,0,0,0,0,0,0,0,-1,1399,1569,0,0
182,-545,0,0,0,0,0,0,0,0,0,-1,1406,1569,0,0
189,-545,0,0,0,0,0,0,0,0,0,-1,1413,1569,0,0
196,-545,0,0,0,0,0,0,0,0,0,-1,1420,1569,0,0
203,-545,0,0,0,0,0,0,0,0,0,-1,1427,1569,0,0
210,-545,0,0,0,0,0,0,0,0,0,-1,1434,1569,0,0
217,-545,0,0,0,0,0,0,0,0,0,-1,1441,1569,0,0
224,-545,0,0,0,0,0,0,0,0,0,-1,1448,1569,0,0
231,-545,0,0,0,0,0,0,0,0,0,-1,1455,1569,0,0
238,-545,0,0,0,0,0,0,0,0,0,-1,1462,1569,0,0
245,-545,0,0,0,0,0,0,0,0,0,-1,1469,1569,0,0
252,-545,0,0,0,0,0,0,0,0,0,-1,1476,1569,0,0
259,-545,0,0,0,0,0,0,0,0,0,-1,1483,1569,0,0
266,-545,0,0,0,0,0,0,0,0,0,-1,1490,1569,0,0
273,-545,0,0,0,0,0,0,0,0,0,-1,1497,1569,0,0
280,-545,0,0,0,0,0,0,0,0,0,-1,1504,1569,0,0
287,-545,0,0,0,0,0,0,0,0,0,-1,1511,1569,0,0
294,-545,0,0,0,0,0,0,0,0,0,-1,1518,1569,0,0
301,-545,0,0,0,0,0,0,0,0,0,-1,1525,1569,0,0
308,-545,0,0,0,0,0,0,0,0,0,-1,1532,1569,0,0
315,-545,0,0,0,0,0,0,0,0,0,-1,1539,1569,0,0
322,-545,0,0,0,0,0,0,0,0,0,-1,1546,1569,0,0
329,-545,0,0,0,0,0,0,0,0,0,-1,1553,1569,0,0
336,-545,0,0,0,0,0,0,0,0,0,-1,1560,1569,0,0
343,-545,0,0,0,0,0,0,0,0,0,-1,1567,1569,0,0
350,-545,0,0,0,0,0,0,0,0,0,-1,1574,1569,0,0
357,-545,0,0,0,0,0,0,0,0,0,-1,1581,1569,0,0
364,-545,7.19495,4.88098,0,0,0,0,0,0,0,-1,1588,1569,7.19497,-4.88095
371,-545,7.82324,3.84302,0,0,0,0,0,0,0,-1,1595,1569,7.82324,-3.84307
378,-545,7.65674,5.52673,0,0,0,0,0,0,0,-1,1602,1569,7.6567,-5.52667
385,-545,8.58447,1.16125,0,0,0,0,0,0,0,-1,1609,1569,8.5845,-1.1612
392,-545,12.5654,3.89526,0,0,0,0,0,0,0,-1,1616,1569,12.5655,-3.89532
399,-545,11.5869,5.6333,0,0,0,0,0,0,0,-1,1623,1569,11.5869,-5.63326
406,-545,11.234,6.36414,0,0,0,0,0,0,0,-1,1630,1569,11.234,-6.3641
413,-545,12.1521,13.4817,0,0,0,0,0,0,0,-1,1637,1569,12.1521,-13.4817
420,-545,11.1954,13.6047,0,0,0,0,0,0,0,-1,1644,1569,11.1954,-13.6047
427,-545,9.61072,14.9135,0,0,0,0,0,0,0,-1,1651,1569,9.61076,-14.9134
434,-545,13.1598,23.9921,0,0,0,0,0,0,0,-1,1658,1569,13.1598,-23.992
441,-545,12.2833,22.2238,0,0,0,0,0,0,0,-1,1665,1569,12.2833,-22.2237
448,-545,13.0082,21.941,0,0,0,0,0,0,0,-1,1672,1569,13.0082,-21.941
455,-545,13.733,21.6583,0,0,0,0,0,0,0,-1,1679,1569,13.733,-21.6583
462,-545,12.449,20.7413,0,0,0,0,0,0,0,-1,1686,1569,12.4489,-20.7413
469,-545,12.7837,17.7919,0,0,0,0,0,0,0,-1,1693,1569,12.7837,-17.7919
476,-545,15.7562,24.8708,0,0,0,0,0,0,0,-1,1700,1569,15.7563,-24.8709
483,-545,19.8998,30.7662,0,0,0,0,0,0,0,-1,1707,1569,19.8997,-30.7662
490,-545,19.9336,30.1166,0.00831272,0.0109801,-0.0076257,0.0173879,0.00190498,-0.871971,0.011012,0.0294151,1714,1569,19.9336,-30.1166
497,-545,19.9644,29.5247,0.00691963,0.00829984,-0.00574704,0.0133981,0.00182141,-0.845152,0.00839106,0.0231907,1721,1569,19.9643,-29.5246
504,-545,20.0393,28.9165,0.0055866,0.0061247,-0.00455852,0.0104221,0.0012892,-0.814874,0.0065607,0.0161476,1728,1569,20.0393,-28.9165
511,-545,19.9825,28.3456,0.00435721,0.00464492,-0.00347308,0.00797712,0.00102501,-0.806097,0.00501147,0.0125578,1735,1569,19.9825,-28.3456
518,-545,19.9655,27.7914,0.00332572,0.00306266,-0.00237044,0.00556827,0.0008201,-0.757683,0.00347126,0.0144438,1742,1569,19.9654,-27.7913
525,-545,19.9249,27.2087,0.00247377,0.00184737,-0.00144229,0.00363647,0.000684667,-0.67848,0.00223139,0.0143162,1749,1569,19.925,-27.2088
532,-545,19.895,26.6599,0.00180449,0.000624492,-0.00054954,0.00202078,0.000408208,-0.374954,0.00123383,0.0142183,1756,1569,19.8951,-26.6599
539,-545,19.8794,26.093,0.0013698,-0.000503225,0.000273748,0.00140898,-0.000542414,0.142192,0.00116308,0.0173734,1763,1569,19.8794,-26.093
546,-545,19.861,25.5061,0.00111551,-0.0017819,0.00113196,0.0015053,-0.0021717,0.331635,0.0021345,0.0191134,1770,1569,19.861,-25.5061
553,-545,19.8851,24.9073,0.00107329,-0.00301513,0.00196533,0.00186481,-0.00380664,0.382864,0.00333778,0.0273259,1777,1569,19.8851,-24.9073
560,-545,19.8954,24.321,0.00139995,-0.00415825,0.00266993,0.00247467,-0.00523297,0.382683,0.004544,0.0281886,1784,1569,19.8954,-24.321
567,-545,19.8726,23.6891,0,0,0,0,0,0,0,-1,1791,1569,19.8725,-23.6891
574,-545,19.8192,22.9629,0,0,0,0,0,0,0,-1,1798,1569,19.8192,-22.9629
581,-545,19.8252,22.4799,0,0,0,0,0,0,0,-1,1805,1569,19.8252,-22.4798
588,-545,15.4786,16.7035,0,0,0,0,0,0,0,-1,1812,1569,15.4786,-16.7035
595,-545,10.2859,9.11218,0,0,0,0,0,0,0,-1,1819,1569,10.2858,-9.11215
602,-545,8.82117,6.32214,0,0,0,0,0,0,0,-1,1826,1569,8.82121,-6.32217
609,-545,10.2406,5.22351,0,0,0,0,0,0,0,-1,1833,1569,10.2406,-5.22353
616,-545,11.701,3.93188,0,0,0,0,0,0,0,-1,1840,1569,11.701,-3.93191
623,-545,13.2139,2.32043,0,0,0,0,0,0,0,-1,1847,1569,13.2139,-2.32042
630,-545,0,0,0,0,0,0,0,0,0,-1,1854,1569,0,0
637,-545,0,0,0,0,0,0,0,0,0,-1,1861,1569,0,0
644,-545,0,0,0,0,0,0,0,0,0,-1,1868,1569,0,0
651,-545,0,0,0,0,0,0,0,0,0,-1,1875,1569,0,0
658,-545,0,0,0,0,0,0,0,0,0,-1,1882,1569,0,0
665,-545,0,0,0,0,0,0,0,0,0,-1,1889,1569,0,0
672,-545,0,0,0,0,0,0,0,0,0,-1,1896,1569,0,0
679,-545,0,0,0,0,0,0,0,0,0,-1,1903,1569,0,0
686,-545,0,0,0,0,0,0,0,0,0,-1,1910,1569,0,0
693,-545,0,0,0,0,0,0,0,0,0,-1,1917,1569,0,0
700,-545,0,0,0,0,0,0,0,0,0,-1,1924,1569,0,0
707,-545,0,0,0,0,0,0,0,0,0,-1,1931,1569,0,0
714,-545,0,0,0,0,0,0,0,0,0,-1,1938,1569,0,0
721,-545,0,0,0,0,0,0,0,0,0,-1,1945,1569,0,0
728,-545,0,0,0,0,0,0,0,0,0,-1,1952,1569,0,0
735,-545,0,0,0,0,0,0,0,0,0,-1,1959,1569,0,0
742,-545,0,0,0,0,0,0,0,0,0,-1,1966,1569,0,0
749,-545,0,0,0,0,0,0,0,0,0,-1,1973,1569,0,0
756,-545,0,0,0,0,0,0,0,0,0,-1,1980,1569,0,0
763,-545,0,0,0,0,0,0,0,0,0,-1,1987,1569,0,0
770,-545,0,0,0,0,0,0,0,0,0,-1,1994,1569,0,0
777,-545,0,0,0,0,0,0,0,0,0,-1,2001,1569,0,0
784,-545,0,0,0,0,0,0,0,0,0,-1,2008,1569,0,0
791,-545,0,0,0,0,0,0,0,0,0,-1,2015,1569,0,0
798,-545,0,0,0,0,0,0,0,0,0,-1,2022,1569,0,0
805,-545,0,0,0,0,0,0,0,0,0,-1,2029,1569,0,0
812,-545,0,0,0,0,0,0,0,0,0,-1,2036,1569,0,0
-700,-552,0,0,0,0,0,0,0,0,0,-1,524,1576,0,0
-693,-552,0,0,0,0,0,0,0,0,0,-1,531,1576,0,0
-686,-552,0,0,0,0,0,0,0,0,0,-1,538,1576,0,0
-679,-552,0,0,0,0,0,0,0,0,0,-1,545,1576,0,0
-672,-552,0,0,0,0,0,0,0,0,0,-1,552,1576,0,0
-665,-552,0,0,0,0,0,0,0,0,0,-1,559,1576,0,0
-658,-552,0,0,0,0,0,0,0,0,0,-1,566,1576,0,0
-651,-552,0,0,0,0,0,0,0,0,0,-1,573,1576,0,0
-644,-552,0,0,0,0,0,0,0,0,0,-1,580,1576,0,0
-637,-552,0,0,0,0,0,0,0,0,0,-1,587,1576,0,0
-630,-552,0,0,0,0,0,0,0,0,0,-1,594,1576,0,0
-623,-552,0,0,0,0,0,0,0,0,0,-1,601,1576,0,0
-616,-552,0,0,0,0,0,0,0,0,0,-1,608,1576,0,0
-609,-552,0,0,0,0,0,0,0,0,0,-1,615,1576,0,0
-602,-552,0,0,0,0,0,0,0,0,0,-1,622,1576,0,0
-595,-552,0,0,0,0,0,0,0,0,0,-1,629,1576,0,0
-588,-552,0,0,0,0,0,0,0,0,0,-1,636,1576,0,0
-581,-552,0,0,0,0,0,0,0,0,0,-1,643,1576,0,0
-574,-552,0,0,0,0,0,0,0,0,0,-1,650,1576,0,0
-567,-552,0,0,0,0,0,0,0,0,0,-1,657,1576,0,0
-560,-552,0,0,0,0,0,0,0,0,0,-1,664,1576,0,0
-553,-552,0,0,0,0,0,0,0,0,0,-1,671,1576,0,0
-546,-552,0,0,0,0,0,0,0,0,0,-1,678,1576,0,0
-539,-552,0,0,0,0,0,0,0,0,0,-1,685,1576,0,0
-532,-552,0,0,0,0,0,0,0,0,0,-1,692,1576,0,0
-525,-552,0,0,0,0,0,0,0,0,0,-1,699,1576,0,0
-518,-552,0,0,0,0,0,0,0,0,0,-1,706,1576,0,0
-511,-552,0,0,0,0,0,0,0,0,0,-1,713,1576,0,0
-504,-552,0,0,0,0,0,0,0,0,0,-1,720,1576,0,0
-497,-552,1.51282,3.96924,0,0,0,0,0,0,0,-1,727,1576,1.5128,-3.96924
-490,-552,-3.82312,6.32104,0,0,0,0,0,0,0,-1,734,1576,-3.82314,-6.3211
-483,-552,-3.50586,6.47986,0,0,0,0,0,0,0,-1,741,1576,-3.50587,-6.47983
-476,-552,-1.95129,4.43054,0,0,0,0,0,0,0,-1,748,1576,-1.95128,-4.43054
-469,-552,-1.40491,7.9895,0,0,0,0,0,0,0,-1,755,1576,-1.40491,-7.98947
-462,-552,0.0459595,16.3469,0,0,0,0,0,0,0,-1,762,1576,0.0459611,-16.3469
-455,-552,-1.9527,19.385,0,0,0,0,0,0,0,-1,769,1576,-1.95269,-19.385
-448,-552,-0.929382,21.2808,0,0,0,0,0,0,0,-1,776,1576,-0.929356,-21.2807
-441,-552,-1.37201,22.2772,-0.0125131,0.00982914,-0.00214547,0.0100333,-0.0127172,-1.47592,0.0131655,0.0491953,783,1576,-1.37199,-22.2773
-434,-552,-1.72461,22.9734,-0.0101095,0.00598273,-0.00227685,0.00629868,-0.0104254,-1.43291,0.00975314,0.0405852,790,1576,-1.72461,-22.9734
-427,-552,-2.01855,23.3029,-0.00781914,0.00383277,-0.00190262,0.00413558,-0.00812194,-1.41297,0.00720055,0.0348957,797,1576,-2.01855,-23.3029
-420,-552,-1.96887,24.0131,-0.00573522,0.00243062,-0.00140502,0.0026656,-0.00597021,-1.40508,0.00510612,0.0238189,804,1576,-1.96887,-24.013
-413,-552,-1.96667,24.6118,-0.00386768,0.00142335,-0.000778829,0.00153561,-0.00397994,-1.42764,0.00328698,0.0176269,811,1576,-1.96665,-24.6119
-406,-552,-2.00134,25.2227,-0.00237526,0.00091797,-0.000505241,0.00099374,-0.00245103,-1.42194,0.0020473,0.0134608,818,1576,-2.00133,-25.2227
-399,-552,-2.04675,25.8151,-0.00108701,0.00113266,0.000201771,0.00115085,-0.0011052,1.48088,0.00130262,0.0144974,825,1576,-2.04677,-25.815
-392,-552,-2.086,26.4111,7.12352e-05,0.00151207,0.000826831,0.00188831,-0.000305002,1.14376,0.00137189,0.0169041,832,1576,-2.08597,-26.4111
-385,-552,-2.11896,27.0339,0.00128445,0.00209633,0.00142653,0.00317355,0.000207228,0.924016,0.00205012,0.0154184,839,1576,-2.11895,-27.0339
-378,-552,-2.15021,27.6272,0.00240484,0.0030249,0.00206184,0.00479989,0.000629853,0.860021,0.00301201,0.0158934,846,1576,-2.15022,-27.6272
-371,-552,-2.16388,28.2386,0.00342757,0.00384619,0.00263214,0.00627733,0.000996428,0.825075,0.00389546,0.0179434,853,1576,-2.16386,-28.2387
-364,-552,-2.16577,28.8392,0.00456318,0.00500242,0.00334185,0.00813186,0.00143374,0.81821,0.00501216,0.0141775,860,1576,-2.16575,-28.8393
-357,-552,-2.15991,29.407,0.00582646,0.00629037,0.00413271,0.0101976,0.00191921,0.813432,0.00625757,0.0106973,867,1576,-2.15993,-29.407
-350,-552,-2.14319,30.0505,0.00727415,0.00777438,0.00507442,0.0126048,0.00244369,0.810023,0.0077187,0.0144923,874,1576,-2.14321,-30.0506
-343,-552,-2.15985,30.6063,0.00878829,0.00947621,0.00618065,0.0153225,0.00294203,0.813195,0.00938922,0.0225884,881,1576,-2.15985,-30.6063
-336,-552,-2.11859,31.0219,0.0105984,0.0118385,0.00758008,0.0188238,0.00361303,0.826207,0.0115351,0.0422479,888,1576,-2.11856,-31.0219
-329,-552,-1.9519,31.6852,0,0,0,0,0,0,0,-1,895,1576,-1.95193,-31.6852
-322,-552,-1.23962,28.5371,0,0,0,0,0,0,0,-1,902,1576,-1.23964,-28.5371
-315,-552,-0.605347,28.994,0,0,0,0,0,0,0,-1,909,1576,-0.605331,-28.9941
-308,-552,-1.01624,30.3169,0,0,0,0,0,0,0,-1,916,1576,-1.01624,-30.3169
-301,-552,1.39453,18.4995,0,0,0,0,0,0,0,-1,923,1576,1.3945,-18.4995
-294,-552,0.842163,13.7863,0,0,0,0,0,0,0,-1,930,1576,0.842149,-13.7863
-287,-552,-0.663757,13.3474,0,0,0,0,0,0,0,-1,937,1576,-0.663744,-13.3474
-280,-552,-5.47241,8.96765,0,0,0,0,0,0,0,-1,944,1576,-5.47239,-8.96766
-273,-552,1.64587,10.6685,0,0,0,0,0,0,0,-1,951,1576,1.6459,-10.6685
-266,-552,-1.32678,8.05688,0,0,0,0,0,0,0,-1,958,1576,-1.32677,-8.05683
-259,-552,-5.54321,8.31213,0,0,0,0,0,0,0,-1,965,1576,-5.54324,-8.31214
-252,-552,-1.93445,7.81543,0,0,0,0,0,0,0,-1,972,1576,-1.93445,-7.81546
-245,-552,-2.53613,6.92212,0,0,0,0,0,0,0,-1,979,1576,-2.53614,-6.92216
-238,-552,-6.5365,2.81885,0,0,0,0,0,0,0,-1,986,1576,-6.53649,-2.8188
-231,-552,-4.32239,4.34583,0,0,0,0,0,0,0,-1,993,1576,-4.32239,-4.34587
-224,-552,0,0,0,0,0,0,0,0,0,-1,1000,1576,0,0
-217,-552,0,0,0,0,0,0,0,0,0,-1,1007,1576,0,0
-210,-552,0,0,0,0,0,0,0,0,0,-1,1014,1576,0,0
-203,-552,0,0,0,0,0,0,0,0,0,-1,1021,1576,0,0
-196,-552,0,0,0,0,0,0,0,0,0,-1,1028,1576,0,0
-189,-552,0,0,0,0,0,0,0,0,0,-1,1035,1576,0,0
-182,-552,0,0,0,0,0,0,0,0,0,-1,1042,1576,0,0
-175,-552,0,0,0,0,0,0,0,0,0,-1,1049,1576,0,0
-168,-552,0,0,0,0,0,0,0,0,0,-1,1056,1576,0,0
-161,-552,0,0,0,0,0,0,0,0,0,-1,1063,1576,0,0
-154,-552,0,0,0,0,0,0,0,0,0,-1,1070,1576,0,0
-147,-552,0,0,0,0,0,0,0,0,0,-1,1077,1576,0,0
-140,-552,0,0,0,0,0,0,0,0,0,-1,1084,1576,0,0
-133,-552,0,0,0,0,0,0,0,0,0,-1,1091,1576,0,0
-126,-552,0,0,0,0,0,0,0,0,0,-1,1098,1576,0,0
-119,-552,0,0,0,0,0,0,0,0,0,-1,1105,1576,0,0
-112,-552,0,0,0,0,0,0,0,0,0,-1,1112,1576,0,0
-105,-552,0,0,0,0,0,0,0,0,0,-1,1119,1576,0,0
-98,-552,0,0,0,0,0,0,0,0,0,-1,1126,1576,0,0
-91,-552,0,0,0,0,0,0,0,0,0,-1,1133,1576,0,0
-84,-552,0,0,0,0,0,0,0,0,0,-1,1140,1576,0,0
-77,-552,0,0,0,0,0,0,0,0,0,-1,1147,1576,0,0
-70,-552,0,0,0,0,0,0,0,0,0,-1,1154,1576,0,0
-63,-552,0,0,0,0,0,0,0,0,0,-1,1161,1576,0,0
-56,-552,0,0,0,0,0,0,0,0,0,-1,1168,1576,0,0
-49,-552,0,0,0,0,0,0,0,0,0,-1,1175,1576,0,0
-42,-552,0,0,0,0,0,0,0,0,0,-1,1182,1576,0,0
-35,-552,0,0,0,0,0,0,0,0,0,-1,1189,1576,0,0
-28,-552,0,0,0,0,0,0,0,0,0,-1,1196,1576,0,0
-21,-552,0,0,0,0,0,0,0,0,0,-1,1203,1576,0,0
-14,-552,0,0,0,0,0,0,0,0,0,-1,1210,1576,0,0
-7,-552,0,0,0,0,0,0,0,0,0,-1,1217,1576,0,0
0,-552,0,0,0,0,0,0,0,0,0,-1,1224,1576,0,0
7,-552,0,0,0,0,0,0,0,0,0,-1,1231,1576,0,0
14,-552,0,0,0,0,0,0,0,0,0,-1,1238,1576,0,0
21,-552,0,0,0,0,0,0,0,0,0,-1,1245,1576,0,0
28,-552,0,0,0,0,0,0,0,0,0,-1,1252,1576,0,0
35,-552,0,0,0,0,0,0,0,0,0,-1,1259,1576,0,0
42,-552,0,0,0,0,0,0,0,0,0,-1,1266,1576,0,0
49,-552,0,0,0,0,0,0,0,0,0,-1,1273,1576,0,0
56,-552,0,0,0,0,0,0,0,0,0,-1,1280,1576,0,0
63,-552,0,0,0,0,0,0,0,0,0,-1,1287,1576,0,0
70,-552,0,0,0,0,0,0,0,0,0,-1,1294,1576,0,0
77,-552,0,0,0,0,0,0,0,0,0,-1,1301,1576,0,0
84,-552,0,0,0,0,0,0,0,0,0,-1,1308,1576,0,0
91,-552,0,0,0,0,0,0,0,0,0,-1,1315,1576,0,0
98,-552,0,0,0,0,0,0,0,0,0,-1,1322,1576,0,0
105,-552,0,0,0,0,0,0,0,0,0,-1,1329,1576,0,0
112,-552,0,0,0,0,0,0,0,0,0,-1,1336,1576,0,0
119,-552,0,0,0,0,0,0,0,0,0,-1,1343,1576,0,0
126,-552,0,0,0,0,0,0,0,0,0,-1,1350,1576,0,0
133,-552,0,0,0,0,0,0,0,0,0,-1,1357,1576,0,0
140,-552,0,0,0,0,0,0,0,0,0,-1,1364,1576,0,0
147,-552,0,0,0,0,0,0,0,0,0,-1,1371,1576,0,0
154,-552,0,0,0,0,0,0,0,0,0,-1,1378,1576,0,0
161,-552,0,0,0,0,0,0,0,0,0,-1,1385,1576,0,0
168,-552,0,0,0,0,0,0,0,0,0,-1,1392,1576,0,0
175,-552,0,0,0,0,0,0,0,0,0,-1,1399,1576,0,0
182,-552,0,0,0,0,0,0,0,0,0,-1,1406,1576,0,0
189,-552,0,0,0,0,0,0,0,0,0,-1,1413,1576,0,0
196,-552,0,0,0,0,0,0,0,0,0,-1,1420,1576,0,0
203,-552,0,0,0,0,0,0,0,0,0,-1,1427,1576,0,0
210,-552,0,0,0,0,0,0,0,0,0,-1,1434,1576,0,0
217,-552,0,0,0,0,0,0,0,0,0,-1,1441,1576,0,0
224,-552,0,0,0,0,0,0,0,0,0,-1,1448,1576,0,0
231,-552,0,0,0,0,0,0,0,0,0,-1,1455,1576,0,0
238,-552,0,0,0,0,0,0,0,0,0,-1,1462,1576,0,0
245,-552,0,0,0,0,0,0,0,0,0,-1,1469,1576,0,0
252,-552,0,0,0,0,0,0,0,0,0,-1,1476,1576,0,0
259,-552,0,0,0,0,0,0,0,0,0,-1,1483,1576,0,0
266,-552,0,0,0,0,0,0,0,0,0,-1,1490,1576,0,0
273,-552,0,0,0,0,0,0,0,0,0,-1,1497,1576,0,0
280,-552,0,0,0,0,0,0,0,0,0,-1,1504,1576,0,0
287,-552,0,0,0,0,0,0,0,0,0,-1,1511,1576,0,0
294,-552,0,0,0,0,0,0,0,0,0,-1,1518,1576,0,0
301,-552,0,0,0,0,0,0,0,0,0,-1,1525,1576,0,0
308,-552,0,0,0,0,0,0,0,0,0,-1,1532,1576,0,0
315,-552,0,0,0,0,0,0,0,0,0,-1,1539,1576,0,0
322,-552,0,0,0,0,0,0,0,0,0,-1,1546,1576,0,0
329,-552,0,0,0,0,0,0,0,0,0,-1,1553,1576,0,0
336,-552,0,0,0,0,0,0,0,0,0,-1,1560,1576,0,0
343,-552,0,0,0,0,0,0,0,0,0,-1,1567,1576,0,0
350,-552,4.97876,4.09888,0,0,0,0,0,0,0,-1,1574,1576,4.97875,-4.09883
357,-552,5.18469,4.10706,0,0,0,0,0,0,0,-1,1581,1576,5.1847,-4.10702
364,-552,5.80872,5.07031,0,0,0,0,0,0,0,-1,1588,1576,5.80874,-5.07037
371,-552,7.10657,5.64783,0,0,0,0,0,0,0,-1,1595,1576,7.10651,-5.64786
378,-552,6.44446,4.91492,0,0,0,0,0,0,0,-1,1602,1576,6.44448,-4.91496
385,-552,12.8276,3.16504,0,0,0,0,0,0,0,-1,1609,1576,12.8276,-3.16503
392,-552,12.1301,4.3363,0,0,0,0,0,0,0,-1,1616,1576,12.1302,-4.33631
399,-552,11.3486,5.6012,0,0,0,0,0,0,0,-1,1623,1576,11.3486,-5.60115
406,-552,10.7863,6.42542,0,0,0,0,0,0,0,-1,1630,1576,10.7863,-6.42536
413,-552,8.39307,10.365,0,0,0,0,0,0,0,-1,1637,1576,8.3931,-10.365
420,-552,10.2306,12.7225,0,0,0,0,0,0,0,-1,1644,1576,10.2305,-12.7226
427,-552,9.73267,14.783,0,0,0,0,0,0,0,-1,1651,1576,9.73269,-14.783
434,-552,12.0377,20.1364,0,0,0,0,0,0,0,-1,1658,1576,12.0377,-20.1364
441,-552,12.4963,21.5277,0,0,0,0,0,0,0,-1,1665,1576,12.4964,-21.5277
448,-552,12.9141,21.5482,0,0,0,0,0,0,0,-1,1672,1576,12.9141,-21.5482
455,-552,13.3318,21.5687,0,0,0,0,0,0,0,-1,1679,1576,13.3317,-21.5687
462,-552,12.745,20.5947,0,0,0,0,0,0,0,-1,1686,1576,12.745,-20.5947
469,-552,17.7067,29.6902,0,0,0,0,0,0,0,-1,1693,1576,17.7067,-29.6902
476,-552,19.3553,31.4019,0,0,0,0,0,0,0,-1,1700,1576,19.3553,-31.4018
483,-552,19.4846,30.5492,0.00692964,0.0125472,-0.00847148,0.0186634,0.000813428,-0.945473,0.0121802,0.0343322,1707,1576,19.4846,-30.5492
490,-552,19.4432,30.0281,0.00660093,0.00906106,-0.00599063,0.0139466,0.00171538,-0.886657,0.00878197,0.0153713,1714,1576,19.4432,-30.0281
497,-552,19.5314,29.478,0.00540178,0.00671501,-0.00447902,0.0105853,0.0015315,-0.858178,0.0066058,0.0225644,1721,1576,19.5314,-29.4781
504,-552,19.4856,28.9341,0.00421677,0.00474183,-0.00340043,0.00788985,0.00106875,-0.823925,0.00494232,0.0245447,1728,1576,19.4856,-28.9341
511,-552,19.4377,28.3552,0.00314664,0.0033144,-0.00241901,0.00565098,0.000810051,-0.802729,0.00352844,0.0170495,1735,1576,19.4378,-28.3553
518,-552,19.421,27.7886,0.00222594,0.00183741,-0.00142245,0.00346733,0.000596024,-0.717532,0.00214072,0.0147627,1742,1576,19.421,-27.7886
525,-552,19.3761,27.2251,0.00149531,0.000670279,-0.000544208,0.00176568,0.000399909,-0.461095,0.00106905,0.0151803,1749,1576,19.3761,-27.2251
532,-552,19.3484,26.6726,0.000962383,-0.000547826,0.000339787,0.00103531,-0.000620754,0.211421,0.000966063,0.0155466,1756,1576,19.3484,-26.6726
539,-552,19.3159,26.0989,0.000644937,-0.00173381,0.00121758,0.00115765,-0.00224652,0.398558,0.00199863,0.0187072,1763,1576,19.3159,-26.0988
546,-552,19.2771,25.5204,0.000525576,-0.00310834,0.00218623,0.00155132,-0.00413408,0.438692,0.00339349,0.0225216,1770,1576,19.2771,-25.5204
553,-552,19.3076,24.9001,0.000667352,-0.00449144,0.00317035,0.00217506,-0.00599915,0.443909,0.0048885,0.0261533,1777,1576,19.3077,-24.9002
560,-552,19.2495,24.3503,0.00118624,-0.00585097,0.00408788,0.00306128,-0.007726,0.43005,0.0064192,0.0428282,1784,1576,19.2495,-24.3503
567,-552,19.1921,23.4978,0,0,0,0,0,0,0,-1,1791,1576,19.1921,-23.4978
574,-552,12.8835,14.8463,0,0,0,0,0,0,0,-1,1798,1576,12.8836,-14.8463
581,-552,9.74841,9.98645,0,0,0,0,0,0,0,-1,1805,1576,9.74847,-9.9864
588,-552,10.5619,9.34924,0,0,0,0,0,0,0,-1,1812,1576,10.5619,-9.34921
595,-552,5.36194,6.62744,0,0,0,0,0,0,0,-1,1819,1576,5.36193,-6.62742
602,-552,10.6863,4.31616,0,0,0,0,0,0,0,-1,1826,1576,10.6862,-4.31619
609,-552,12.146,3.18286,0,0,0,0,0,0,0,-1,1833,1576,12.1459,-3.18281
616,-552,13.8762,2.08167,0,0,0,0,0,0,0,-1,1840,1576,13.8763,-2.08167
623,-552,0,0,0,0,0,0,0,0,0,-1,1847,1576,0,0
630,-552,0,0,0,0,0,0,0,0,0,-1,1854,1576,0,0
637,-552,0,0,0,0,0,0,0,0,0,-1,1861,1576,0,0
644,-552,0,0,0,0,0,0,0,0,0,-1,1868,1576,0,0
651,-552,0,0,0,0,0,0,0,0,0,-1,1875,1576,0,0
658,-552,0,0,0,0,0,0,0,0,0,-1,1882,1576,0,0
665,-552,0,0,0,0,0,0,0,0,0,-1,1889,1576,0,0
672,-552,0,0,0,0,0,0,0,0,0,-1,1896,1576,0,0
679,-552,0,0,0,0,0,0,0,0,0,-1,1903,1576,0,0
686,-552,0,0,0,0,0,0,0,0,0,-1,1910,1576,0,0
693,-552,0,0,0,0,0,0,0,0,0,-1,1917,1576,0,0
700,-552,0,0,0,0,0,0,0,0,0,-1,1924,1576,0,0
707,-552,0,0,0,0,0,0,0,0,0,-1,1931,1576,0,0
714,-552,0,0,0,0,0,0,0,0,0,-1,1938,1576,0,0
721,-552,0,0,0,0,0,0,0,0,0,-1,1945,1576,0,0
728,-552,0,0,0,0,0,0,0,0,0,-1,1952,1576,0,0
735,-552,0,0,0,0,0,0,0,0,0,-1,1959,1576,0,0
742,-552,0,0,0,0,0,0,0,0,0,-1,1966,1576,0,0
749,-552,0,0,0,0,0,0,0,0,0,-1,1973,1576,0,0
756,-552,0,0,0,0,0,0,0,0,0,-1,1980,1576,0,0
763,-552,0,0,0,0,0,0,0,0,0,-1,1987,1576,0,0
770,-552,0,0,0,0,0,0,0,0,0,-1,1994,1576,0,0
777,-552,0,0,0,0,0,0,0,0,0,-1,2001,1576,0,0
784,-552,0,0,0,0,0,0,0,0,0,-1,2008,1576,0,0
791,-552,0,0,0,0,0,0,0,0,0,-1,2015,1576,0,0
798,-552,0,0,0,0,0,0,0,0,0,-1,2022,1576,0,0
805,-552,0,0,0,0,0,0,0,0,0,-1,2029,1576,0,0
812,-552,0,0,0,0,0,0,0,0,0,-1,2036,1576,0,0
-700,-559,0,0,0,0,0,0,0,0,0,-1,524,1583,0,0
-693,-559,0,0,0,0,0,0,0,0,0,-1,531,1583,0,0
-686,-559,0,0,0,0,0,0,0,0,0,-1,538,1583,0,0
-679,-559,0,0,0,0,0,0,0,0,0,-1,545,1583,0,0
-672,-559,0,0,0,0,0,0,0,0,0,-1,552,1583,0,0
-665,-559,0,0,0,0,0,0,0,0,0,-1,559,1583,0,0
-658,-559,0,0,0,0,0,0,0,0,0,-1,566,1583,0,0
-651,-559,0,0,0,0,0,0,0,0,0,-1,573,1583,0,0
-644,-559,0,0,0,0,0,0,0,0,0,-1,580,1583,0,0
-637,-559,0,0,0,0,0,0,0,0,0,-1,587,1583,0,0
-630,-559,0,0,0,0,0,0,0,0,0,-1,594,1583,0,0
-623,-559,0,0,0,0,0,0,0,0,0,-1,601,1583,0,0
-616,-559,0,0,0,0,0,0,0,0,0,-1,608,1583,0,0
-609,-559,0,0,0,0,0,0,0,0,0,-1,615,1583,0,0
-602,-559,0,0,0,0,0,0,0,0,0,-1,622,1583,0,0
-595,-559,0,0,0,0,0,0,0,0,0,-1,629,1583,0,0
-588,-559,0,0,0,0,0,0,0,0,0,-1,636,1583,0,0
-581,-559,0,0,0,0,0,0,0,0,0,-1,643,1583,0,0
-574,-559,0,0,0,0,0,0,0,0,0,-1,650,1583,0,0
-567,-559,0,0,0,0,0,0,0,0,0,-1,657,1583,0,0
-560,-559,0,0,0,0,0,0,0,0,0,-1,664,1583,0,0
-553,-559,0,0,0,0,0,0,0,0,0,-1,671,1583,0,0
-546,-559,0,0,0,0,0,0,0,0,0,-1,678,1583,0,0
-539,-559,0,0,0,0,0,0,0,0,0,-1,685,1583,0,0
-532,-559,0,0,0,0,0,0,0,0,0,-1,692,1583,0,0
-525,-559,0,0,0,0,0,0,0,0,0,-1,699,1583,0,0
-518,-559,0,0,0,0,0,0,0,0,0,-1,706,1583,0,0
-511,-559,0,0,0,0,0,0,0,0,0,-1,713,1583,0,0
-504,-559,0,0,0,0,0,0,0,0,0,-1,720,1583,0,0
-497,-559,0,0,0,0,0,0,0,0,0,-1,727,1583,0,0
-490,-559,-5.49835,4.47424,0,0,0,0,0,0,0,-1,734,1583,-5.49833,-4.4743
-483,-559,-5.24078,4.74561,0,0,0,0,0,0,0,-1,741,1583,-5.24079,-4.74563
-476,-559,-4.98022,4.99316,0,0,0,0,0,0,0,-1,748,1583,-4.98024,-4.99321
-469,-559,-4.6424,5.38062,0,0,0,0,0,0,0,-1,755,1583,-4.64237,-5.38058
-462,-559,-0.161865,6.49438,0,0,0,0,0,0,0,-1,762,1583,-0.161835,-6.49444
-455,-559,1.08826,7.02527,0,0,0,0,0,0,0,-1,769,1583,1.08823,-7.02529
-448,-559,-2.86023,20.0852,0,0,0,0,0,0,0,-1,776,1583,-2.86025,-20.0852
-441,-559,-0.569763,22.1427,0,0,0,0,0,0,0,-1,783,1583,-0.569766,-22.1427
-434,-559,-0.796509,23.0845,0,0,0,0,0,0,0,-1,790,1583,-0.796508,-23.0845
-427,-559,-1.3609,23.162,0,0,0,0,0,0,0,-1,797,1583,-1.36087,-23.1619
-420,-559,-1.34943,23.9227,0,0,0,0,0,0,0,-1,804,1583,-1.34945,-23.9227
-413,-559,-1.40601,24.6495,-0.00520194,0.00148184,-0.00103301,0.00163786,-0.00535796,-1.4209,0.0042251,0.0181772,811,1583,-1.40602,-24.6496
-406,-559,-1.42712,25.275,-0.00367103,0.000535205,-0.000913578,0.000725061,-0.00386089,-1.3659,0.00284656,0.00992754,818,1583,-1.4271,-25.2751
-399,-559,-1.44135,25.8715,-0.00235752,0.000426304,-0.000305626,0.000459463,-0.00239068,-1.46273,0.00176697,0.0129281,825,1583,-1.44135,-25.8715
-392,-559,-1.48535,26.4539,-0.00116008,0.000555485,0.000240826,0.00058865,-0.00119324,1.43394,0.00104833,0.0176838,832,1583,-1.48535,-26.4539
-385,-559,-1.52423,27.0649,9.97129e-05,0.000993814,0.000773842,0.00144046,-0.000346928,1.04733,0.00109443,0.0176888,839,1583,-1.52424,-27.065
-378,-559,-1.54529,27.6578,0.00118803,0.00174323,0.00131415,0.00280878,0.000122483,0.889486,0.00183306,0.0157081,846,1583,-1.54529,-27.6579
-371,-559,-1.56732,28.2738,0.00214777,0.00239486,0.00176214,0.00403779,0.00050485,0.820396,0.00254035,0.0214467,853,1583,-1.56731,-28.2738
-364,-559,-1.57587,28.8453,0.00320456,0.00338889,0.00234821,0.00564674,0.000946709,0.805012,0.00349197,0.0193161,860,1583,-1.57585,-28.8453
-357,-559,-1.58875,29.4147,0.00436791,0.00451085,0.00299806,0.0074383,0.00144047,0.797315,0.00455527,0.0127663,867,1583,-1.58873,-29.4147
-350,-559,-1.58344,29.9943,0.00571372,0.00576727,0.00377487,0.00951546,0.00196553,0.788945,0.00580055,0.0112338,874,1583,-1.58346,-29.9943
-343,-559,-1.59991,30.5754,0.0071252,0.00731934,0.00473916,0.0119624,0.00248211,0.795638,0.00728983,0.0119866,881,1583,-1.5999,-30.5754
-336,-559,-1.70148,31.0894,0.0088127,0.00940584,0.00596254,0.0150792,0.00313936,0.810247,0.0091869,0.0258837,888,1583,-1.70148,-31.0894
-329,-559,-1.54895,31.9495,0.0113552,0.0125663,0.00817545,0.0201586,0.0037629,0.822364,0.0123769,0.0473271,895,1583,-1.54895,-31.9495
-322,-559,-1.08197,32.915,0,0,0,0,0,0,0,-1,902,1583,-1.08197,-32.9151
-315,-559,-0.659607,29.1698,0,0,0,0,0,0,0,-1,909,1583,-0.659577,-29.1698
-308,-559,-0.755493,30.4624,0,0,0,0,0,0,0,-1,916,1583,-0.755509,-30.4625
-301,-559,-1.22174,31.0372,0,0,0,0,0,0,0,-1,923,1583,-1.22176,-31.0372
-294,-559,0.945129,18.5165,0,0,0,0,0,0,0,-1,930,1583,0.945117,-18.5165
-287,-559,-0.11792,15.4912,0,0,0,0,0,0,0,-1,937,1583,-0.117939,-15.4912
-280,-559,0.191467,13.5093,0,0,0,0,0,0,0,-1,944,1583,0.191441,-13.5093
-273,-559,2.12836,10.3059,0,0,0,0,0,0,0,-1,951,1583,2.12839,-10.3059
-266,-559,-0.597046,6.68933,0,0,0,0,0,0,0,-1,958,1583,-0.597031,-6.68937
-259,-559,-7.00311,8.62756,0,0,0,0,0,0,0,-1,965,1583,-7.00312,-8.6275
-252,-559,-9.4483,2.87805,0,0,0,0,0,0,0,-1,972,1583,-9.44829,-2.87805
-245,-559,-4.80804,7.1803,0,0,0,0,0,0,0,-1,979,1583,-4.80804,-7.18027
-238,-559,-8.45764,2.54858,0,0,0,0,0,0,0,-1,986,1583,-8.45763,-2.54862
-231,-559,-5.86914,4.34021,0,0,0,0,0,0,0,-1,993,1583,-5.86914,-4.34019
-224,-559,-3.30505,6.22864,0,0,0,0,0,0,0,-1,1000,1583,-3.30505,-6.22859
-217,-559,0,0,0,0,0,0,0,0,0,-1,1007,1583,0,0
-210,-559,0,0,0,0,0,0,0,0,0,-1,1014,1583,0,0
-203,-559,0,0,0,0,0,0,0,0,0,-1,1021,1583,0,0
-196,-559,0,0,0,0,0,0,0,0,0,-1,1028,1583,0,0
-189,-559,0,0,0,0,0,0,0,0,0,-1,1035,1583,0,0
-182,-559,0,0,0,0,0,0,0,0,0,-1,1042,1583,0,0
-175,-559,0,0,0,0,0,0,0,0,0,-1,1049,1583,0,0
-168,-559,0,0,0,0,0,0,0,0,0,-1,1056,1583,0,0
-161,-559,0,0,0,0,0,0,0,0,0,-1,1063,1583,0,0
-154,-559,0,0,0,0,0,0,0,0,0,-1,1070,1583,0,0
-147,-559,0,0,0,0,0,0,0,0,0,-1,1077,1583,0,0
-140,-559,0,0,0,0,0,0,0,0,0,-1,1084,1583,0,0
-133,-559,0,0,0,0,0,0,0,0,0,-1,1091,1583,0,0
-126,-559,0,0,0,0,0,0,0,0,0,-1,1098,1583,0,0
-119,-559,0,0,0,0,0,0,0,0,0,-1,1105,1583,0,0
-112,-559,0,0,0,0,0,0,0,0,0,-1,1112,1583,0,0
-105,-559,0,0,0,0,0,0,0,0,0,-1,1119,1583,0,0
-98,-559,0,0,0,0,0,0,0,0,0,-1,1126,1583,0,0
-91,-559,0,0,0,0,0,0,0,0,0,-1,1133,1583,0,0
-84,-559,0,0,0,0,0,0,0,0,0,-1,1140,1583,0,0
-77,-559,0,0,0,0,0,0,0,0,0,-1,1147,1583,0,0
-70,-559,0,0,0,0,0,0,0,0,0,-1,1154,1583,0,0
-63,-559,0,0,0,0,0,0,0,0,0,-1,1161,1583,0,0
-56,-559,0,0,0,0,0,0,0,0,0,-1,1168,1583,0,0
-49,-559,0,0,0,0,0,0,0,0,0,-1,1175,1583,0,0
-42,-559,0,0,0,0,0,0,0,0,0,-1,1182,1583,0,0
-35,-559,0,0,0,0,0,0,0,0,0,-1,1189,1583,0,0
-28,-559,0,0,0,0,0,0,0,0,0,-1,1196,1583,0,0
-21,-559,0,0,0,0,0,0,0,0,0,-1,1203,1583,0,0
-14,-559,0,0,0,0,0,0,0,0,0,-1,1210,1583,0,0
-7,-559,0,0,0,0,0,0,0,0,0,-1,1217,1583,0,0
0,-559,0,0,0,0,0,0,0,0,0,-1,1224,1583,0,0
7,-559,0,0,0,0,0,0,0,0,0,-1,1231,1583,0,0
14,-559,0,0,0,0,0,0,0,0,0,-1,1238,1583,0,0
21,-559,0,0,0,0,0,0,0,0,0,-1,1245,1583,0,0
28,-559,0,0,0,0,0,0,0,0,0,-1,1252,1583,0,0
35,-559,0,0,0,0,0,0,0,0,0,-1,1259,1583,0,0
42,-559,0,0,0,0,0,0,0,0,0,-1,1266,1583,0,0
49,-559,0,0,0,0,0,0,0,0,0,-1,1273,1583,0,0
56,-559,0,0,0,0,0,0,0,0,0,-1,1280,1583,0,0
63,-559,0,0,0,0,0,0,0,0,0,-1,1287,1583,0,0
70,-559,0,0,0,0,0,0,0,0,0,-1,1294,1583,0,0
77,-559,0,0,0,0,0,0,0,0,0,-1,1301,1583,0,0
84,-559,0,0,0,0,0,0,0,0,0,-1,1308,1583,0,0
91,-559,0,0,0,0,0,0,0,0,0,-1,1315,1583,0,0
98,-559,0,0,0,0,0,0,0,0,0,-1,1322,1583,0,0
105,-559,0,0,0,0,0,0,0,0,0,-1,1329,1583,0,0
112,-559,0,0,0,0,0,0,0,0,0,-1,1336,1583,0,0
119,-559,0,0,0,0,0,0,0,0,0,-1,1343,1583,0,0
126,-559,0,0,0,0,0,0,0,0,0,-1,1350,1583,0,0
133,-559,0,0,0,0,0,0,0,0,0,-1,1357,1583,0,0
140,-559,0,0,0,0,0,0,0,0,0,-1,1364,1583,0,0
147,-559,0,0,0,0,0,0,0,0,0,-1,1371,1583,0,0
154,-559,0,0,0,0,0,0,0,0,0,-1,1378,1583,0,0
161,-559,0,0,0,0,0,0,0,0,0,-1,1385,1583,0,0
168,-559,0,0,0,0,0,0,0,0,0,-1,1392,1583,0,0
175,-559,0,0,0,0,0,0,0,0,0,-1,1399,1583,0,0
182,-559,0,0,0,0,0,0,0,0,0,-1,1406,1583,0,0
189,-559,0,0,0,0,0,0,0,0,0,-1,1413,1583,0,0
196,-559,0,0,0,0,0,0,0,0,0,-1,1420,1583,0,0
203,-559,0,0,0,0,0,0,0,0,0,-1,1427,1583,0,0
210,-559,0,0,0,0,0,0,0,0,0,-1,1434,1583,0,0
217,-559,0,0,0,0,0,0,0,0,0,-1,1441,1583,0,0
224,-559,0,0,0,0,0,0,0,0,0,-1,1448,1583,0,0
231,-559,0,0,0,0,0,0,0,0,0,-1,1455,1583,0,0
238,-559,0,0,0,0,0,0,0,0,0,-1,1462,1583,0,0
245,-559,0,0,0,0,0,0,0,0,0,-1,1469,1583,0,0
252,-559,0,0,0,0,0,0,0,0,0,-1,1476,1583,0,0
259,-559,0,0,0,0,0,0,0,0,0,-1,1483,1583,0,0
266,-559,0,0,0,0,0,0,0,0,0,-1,1490,1583,0,0
273,-559,0,0,0,0,0,0,0,0,0,-1,1497,1583,0,0
280,-559,0,0,0,0,0,0,0,0,0,-1,1504,1583,0,0
287,-559,0,0,0,0,0,0,0,0,0,-1,1511,1583,0,0
294,-559,0,0,0,0,0,0,0,0,0,-1,1518,1583,0,0
301,-559,0,0,0,0,0,0,0,0,0,-1,1525,1583,0,0
308,-559,0,0,0,0,0,0,0,0,0,-1,1532,1583,0,0
315,-559,0,0,0,0,0,0,0,0,0,-1,1539,1583,0,0
322,-559,0,0,0,0,0,0,0,0,0,-1,1546,1583,0,0
329,-559,0,0,0,0,0,0,0,0,0,-1,1553,1583,0,0
336,-559,5.97668,3.09827,0,0,0,0,0,0,0,-1,1560,1583,5.97667,-3.09824
343,-559,5.44824,2.88696,0,0,0,0,0,0,0,-1,1567,1583,5.44819,-2.88693
350,-559,4.69775,3.27051,0,0,0,0,0,0,0,-1,1574,1583,4.69771,-3.27048
357,-559,3.88025,3.60999,0,0,0,0,0,0,0,-1,1581,1583,3.88027,-3.60998
364,-559,5.00928,5.32605,0,0,0,0,0,0,0,-1,1588,1583,5.00928,-5.32607
371,-559,1.84436,2.52441,0,0,0,0,0,0,0,-1,1595,1583,1.84441,-2.52447
378,-559,6.34753,1.53137,0,0,0,0,0,0,0,-1,1602,1583,6.34752,-1.53139
385,-559,6.95911,1.48181,0,0,0,0,0,0,0,-1,1609,1583,6.95916,-1.48175
392,-559,11.6949,4.77734,0,0,0,0,0,0,0,-1,1616,1583,11.6949,-4.77731
399,-559,11.1104,5.56909,0,0,0,0,0,0,0,-1,1623,1583,11.1103,-5.56905
406,-559,10.3385,6.48657,0,0,0,0,0,0,0,-1,1630,1583,10.3385,-6.48661
413,-559,9.76147,6.97571,0,0,0,0,0,0,0,-1,1637,1583,9.76143,-6.97574
420,-559,7.77124,10.5851,0,0,0,0,0,0,0,-1,1644,1583,7.77128,-10.585
427,-559,10.1022,12.5565,0,0,0,0,0,0,0,-1,1651,1583,10.1021,-12.5565
434,-559,9.62769,14.6309,0,0,0,0,0,0,0,-1,1658,1583,9.62771,-14.6309
441,-559,12.6149,21.3678,0,0,0,0,0,0,0,-1,1665,1583,12.6149,-21.3678
448,-559,13.7046,22.6677,0,0,0,0,0,0,0,-1,1672,1583,13.7046,-22.6677
455,-559,13.9427,23.0509,0,0,0,0,0,0,0,-1,1679,1583,13.9427,-23.0509
462,-559,18.6382,32.9501,0,0,0,0,0,0,0,-1,1686,1583,18.6382,-32.95
469,-559,18.5897,32.0845,0,0,0,0,0,0,0,-1,1693,1583,18.5897,-32.0844
476,-559,18.8574,31.2491,0.00470347,0.0168108,-0.00968814,0.0221811,-0.000666833,-1.06464,0.0150146,0.0227565,1700,1583,18.8574,-31.2492
483,-559,18.9097,30.5798,0.00536544,0.0103044,-0.00679097,0.015061,0.000608887,-0.959786,0.00984396,0.0130423,1707,1583,18.9097,-30.5798
490,-559,18.912,30.0203,0.00509606,0.00726733,-0.00467804,0.0109841,0.00137933,-0.899415,0.00690898,0.0152423,1714,1583,18.912,-30.0203
497,-559,18.9387,29.4944,0.00403088,0.00524214,-0.00342371,0.00811337,0.00115965,-0.872939,0.00506679,0.0185774,1721,1583,18.9387,-29.4944
504,-559,18.8796,28.965,0.00295359,0.00346306,-0.00239541,0.00561724,0.000799407,-0.838371,0.00350885,0.023905,1728,1583,18.8796,-28.9649
511,-559,18.8445,28.3865,0.00202193,0.00207293,-0.00145793,0.00350558,0.000589278,-0.794142,0.0021675,0.0196184,1735,1583,18.8445,-28.3865
518,-559,18.8566,27.8112,0.00120121,0.000696993,-0.000525617,0.00153205,0.00036615,-0.561784,0.00092383,0.0129459,1742,1583,18.8565,-27.8111
525,-559,18.8203,27.2555,0.000577642,-0.000443517,0.000339631,0.000680284,-0.000546159,0.293489,0.000709497,0.0129567,1749,1583,18.8203,-27.2555
532,-559,18.7917,26.7041,0.000167389,-0.0016803,0.00125231,0.000799748,-0.00231266,0.467603,0.00186638,0.014448,1756,1583,18.7918,-26.7042
539,-559,18.7766,26.1488,-4.57651e-05,-0.00297295,0.00223065,0.00115858,-0.0041773,0.495062,0.00324084,0.0182662,1763,1583,18.7766,-26.1488
546,-559,18.7261,25.5652,-4.02933e-05,-0.00450011,0.00336762,0.00176877,-0.00630918,0.492959,0.00490323,0.0165823,1770,1583,18.7261,-25.5651
553,-559,18.8057,24.9393,0.000279533,-0.00611054,0.00457781,0.00266702,-0.00849803,0.480727,0.00673281,0.020221,1777,1583,18.8057,-24.9393
560,-559,18.7366,24.469,0.000997357,-0.00779919,0.00579584,0.00387484,-0.0106767,0.460822,0.00870188,0.0390821,1784,1583,18.7366,-24.469
567,-559,18.5887,23.8923,0,0,0,0,0,0,0,-1,1791,1583,18.5888,-23.8923
574,-559,10.5109,10.7317,0,0,0,0,0,0,0,-1,1798,1583,10.5108,-10.7317
581,-559,5.97095,5.96179,0,0,0,0,0,0,0,-1,1805,1583,5.97093,-5.96181
588,-559,5.79102,5.89954,0,0,0,0,0,0,0,-1,1812,1583,5.79098,-5.89949
595,-559,5.79089,6.24231,0,0,0,0,0,0,0,-1,1819,1583,5.7909,-6.24227
602,-559,12.478,2.35669,0,0,0,0,0,0,0,-1,1826,1583,12.4781,-2.35675
609,-559,14.0479,1.22681,0,0,0,0,0,0,0,-1,1833,1583,14.0479,-1.22681
616,-559,0,0,0,0,0,0,0,0,0,-1,1840,1583,0,0
623,-559,0,0,0,0,0,0,0,0,0,-1,1847,1583,0,0
630,-559,0,0,0,0,0,0,0,0,0,-1,1854,1583,0,0
637,-559,0,0,0,0,0,0,0,0,0,-1,1861,1583,0,0
644,-559,0,0,0,0,0,0,0,0,0,-1,1868,1583,0,0
651,-559,0,0,0,0,0,0,0,0,0,-1,1875,1583,0,0
658,-559,0,0,0,0,0,0,0,0,0,-1,1882,1583,0,0
665,-559,0,0,0,0,0,0,0,0,0,-1,1889,1583,0,0
672,-559,0,0,0,0,0,0,0,0,0,-1,1896,1583,0,0
679,-559,0,0,0,0,0,0,0,0,0,-1,1903,1583,0,0
686,-559,0,0,0,0,0,0,0,0,0,-1,1910,1583,0,0
693,-559,0,0,0,0,0,0,0,0,0,-1,1917,1583,0,0
700,-559,0,0,0,0,0,0,0,0,0,-1,1924,1583,0,0
707,-559,0,0,0,0,0,0,0,0,0,-1,1931,1583,0,0
714,-559,0,0,0,0,0,0,0,0,0,-1,1938,1583,0,0
721,-559,0,0,0,0,0,0,0,0,0,-1,1945,1583,0,0
728,-559,0,0,0,0,0,0,0,0,0,-1,1952,1583,0,0
735,-559,0,0,0,0,0,0,0,0,0,-1,1959,1583,0,0
742,-559,0,0,0,0,0,0,0,0,0,-1,1966,1583,0,0
749,-559,0,0,0,0,0,0,0,0,0,-1,1973,1583,0,0
756,-559,0,0,0,0,0,0,0,0,0,-1,1980,1583,0,0
763,-559,0,0,0,0,0,0,0,0,0,-1,1987,1583,0,0
770,-559,0,0,0,0,0,0,0,0,0,-1,1994,1583,0,0
777,-559,0,0,0,0,0,0,0,0,0,-1,2001,1583,0,0
784,-559,0,0,0,0,0,0,0,0,0,-1,2008,1583,0,0
791,-559,0,0,0,0,0,0,0,0,0,-1,2015,1583,0,0
798,-559,0,0,0,0,0,0,0,0,0,-1,2022,1583,0,0
805,-559,0,0,0,0,0,0,0,0,0,-1,2029,1583,0,0
812,-559,0,0,0,0,0,0,0,0,0,-1,2036,1583,0,0
-700,-566,0,0,0,0,0,0,0,0,0,-1,524,1590,0,0
-693,-566,0,0,0,0,0,0,0,0,0,-1,531,1590,0,0
-686,-566,0,0,0,0,0,0,0,0,0,-1,538,1590,0,0
-679,-566,0,0,0,0,0,0,0,0,0,-1,545,1590,0,0
-672,-566,0,0,0,0,0,0,0,0,0,-1,552,1590,0,0
-665,-566,0,0,0,0,0,0,0,0,0,-1,559,1590,0,0
-658,-566,0,0,0,0,0,0,0,0,0,-1,566,1590,0,0
-651,-566,0,0,0,0,0,0,0,0,0,-1,573,1590,0,0
-644,-566,0,0,0,0,0,0,0,0,0,-1,580,1590,0,0
-637,-566,0,0,0,0,0,0,0,0,0,-1,587,1590,0,0
-630,-566,0,0,0,0,0,0,0,0,0,-1,594,1590,0,0
-623,-566,0,0,0,0,0,0,0,0,0,-1,601,1590,0,0
-616,-566,0,0,0,0,0,0,0,0,0,-1,608,1590,0,0
-609,-566,0,0,0,0,0,0,0,0,0,-1,615,1590,0,0
-602,-566,0,0,0,0,0,0,0,0,0,-1,622,1590,0,0
-595,-566,0,0,0,0,0,0,0,0,0,-1,629,1590,0,0
-588,-566,0,0,0,0,0,0,0,0,0,-1,636,1590,0,0
-581,-566,0,0,0,0,0,0,0,0,0,-1,643,1590,0,0
-574,-566,0,0,0,0,0,0,0,0,0,-1,650,1590,0,0
-567,-566,0,0,0,0,0,0,0,0,0,-1,657,1590,0,0
-560,-566,0,0,0,0,0,0,0,0,0,-1,664,1590,0,0
-553,-566,0,0,0,0,0,0,0,0,0,-1,671,1590,0,0
-546,-566,0,0,0,0,0,0,0,0,0,-1,678,1590,0,0
-539,-566,0,0,0,0,0,0,0,0,0,-1,685,1590,0,0
-532,-566,0,0,0,0,0,0,0,0,0,-1,692,1590,0,0
-525,-566,0,0,0,0,0,0,0,0,0,-1,699,1590,0,0
-518,-566,0,0,0,0,0,0,0,0,0,-1,706,1590,0,0
-511,-566,0,0,0,0,0,0,0,0,0,-1,713,1590,0,0
-504,-566,0,0,0,0,0,0,0,0,0,-1,720,1590,0,0
-497,-566,0,0,0,0,0,0,0,0,0,-1,727,1590,0,0
-490,-566,0,0,0,0,0,0,0,0,0,-1,734,1590,0,0
-483,-566,-7.17084,2.78613,0,0,0,0,0,0,0,-1,741,1590,-7.17083,-2.78618
-476,-566,-7.13971,2.87183,0,0,0,0,0,0,0,-1,748,1590,-7.13971,-2.87184
-469,-566,-6.43829,3.2998,0,0,0,0,0,0,0,-1,755,1590,-6.43829,-3.2998
-462,-566,-0.459106,3.89343,0,0,0,0,0,0,0,-1,762,1590,-0.459095,-3.89341
-455,-566,0.280212,4.74023,0,0,0,0,0,0,0,-1,769,1590,0.280207,-4.74023
-448,-566,0.436951,5.51306,0,0,0,0,0,0,0,-1,776,1590,0.436971,-5.51301
-441,-566,-0.440735,12.4063,0,0,0,0,0,0,0,-1,783,1590,-0.440753,-12.4062
-434,-566,-0.20105,23.3428,0,0,0,0,0,0,0,-1,790,1590,-0.201054,-23.3428
-427,-566,-0.675049,23.8071,0,0,0,0,0,0,0,-1,797,1590,-0.675033,-23.8072
-420,-566,-0.967102,23.9398,0,0,0,0,0,0,0,-1,804,1590,-0.967073,-23.9399
-413,-566,-0.834045,24.6597,-0.00633702,0.00163459,-0.000990897,0.00175591,-0.00645835,-1.44896,0.00499483,0.031064,811,1590,-0.834073,-24.6596
-406,-566,-0.835876,25.2865,-0.00475119,0.000172403,-0.00104814,0.000386244,-0.00496503,-1.36954,0.00344599,0.0127965,818,1590,-0.835847,-25.2865
-399,-566,-0.857666,25.9014,-0.00341458,-0.000288857,-0.000562884,-0.000190582,-0.00351285,-1.39795,0.00228103,0.0101625,825,1590,-0.857636,-25.9014
-392,-566,-0.89093,26.5026,-0.0021692,-0.000401041,-9.76426e-05,-0.000395665,-0.00217458,-1.5158,0.00133748,0.0140045,832,1590,-0.890955,-26.5026
-385,-566,-0.898071,27.1224,-0.000891996,-9.33467e-05,0.00035958,4.46903e-05,-0.00103003,1.20426,0.00070206,0.016649,839,1590,-0.898093,-27.1224
-378,-566,-0.92572,27.6991,0.000132704,0.000480551,0.00079436,0.0011198,-0.000506549,0.893172,0.000960969,0.0167794,846,1590,-0.9257,-27.6991
-371,-566,-0.981995,28.2834,0.00101745,0.00100918,0.00113502,0.00214834,-0.000121708,0.783577,0.00147447,0.0230351,853,1590,-0.982007,-28.2835
-364,-566,-1.00256,28.8607,0.00197988,0.00189198,0.00161843,0.00355495,0.000316902,0.771824,0.00227171,0.023797,860,1590,-1.00257,-28.8608
-357,-566,-1.01166,29.4235,0.00302779,0.00292777,0.0021596,0.00513796,0.000817593,0.773822,0.00318792,0.0195074,867,1590,-1.01165,-29.4234
-350,-566,-1.00525,30.0278,0.0042371,0.00406932,0.00280495,0.00695942,0.001347,0.770449,0.00426216,0.0219256,874,1590,-1.00525,-30.0278
-343,-566,-1.01367,30.5709,0.00549745,0.00551699,0.00362943,0.00913666,0.00187778,0.786745,0.00557167,0.0261694,881,1590,-1.01368,-30.571
-336,-566,-1.16364,31.1194,0.00705294,0.00743576,0.00473762,0.0119858,0.00250287,0.805588,0.00730071,0.0280273,888,1590,-1.16364,-31.1194
-329,-566,-1.0528,31.6503,0.00926698,0.010387,0.00667071,0.0165211,0.0031328,0.827274,0.0101326,0.0275155,895,1590,-1.05278,-31.6503
-322,-566,-0.969116,32.3928,0.0115733,0.013701,0.00888273,0.0215834,0.00369094,0.844997,0.01333,0.0356545,902,1590,-0.969092,-32.3928
-315,-566,-0.882813,33.3098,0,0,0,0,0,0,0,-1,909,1590,-0.882825,-33.3099
-308,-566,-0.127258,29.7607,0,0,0,0,0,0,0,-1,916,1590,-0.12725,-29.7608
-301,-566,0.424011,30.6545,0,0,0,0,0,0,0,-1,923,1590,0.424036,-30.6546
-294,-566,0.741455,25.3229,0,0,0,0,0,0,0,-1,930,1590,0.741475,-25.3229
-287,-566,1.25391,23.4589,0,0,0,0,0,0,0,-1,937,1590,1.2539,-23.4589
-280,-566,1.59406,17.8762,0,0,0,0,0,0,0,-1,944,1590,1.59405,-17.8762
-273,-566,0.49762,11.2427,0,0,0,0,0,0,0,-1,951,1590,0.497591,-11.2426
-266,-566,0.392151,6.90295,0,0,0,0,0,0,0,-1,958,1590,0.392151,-6.90294
-259,-566,0.343628,6.47437,0,0,0,0,0,0,0,-1,965,1590,0.34363,-6.47438
-252,-566,-7.68311,1.01343,0,0,0,0,0,0,0,-1,972,1590,-7.68308,-1.01348
-245,-566,-11.1835,1.97522,0,0,0,0,0,0,0,-1,979,1590,-11.1835,-1.97527
-238,-566,-10.4883,2.40491,0,0,0,0,0,0,0,-1,986,1590,-10.4883,-2.40487
-231,-566,-7.41827,4.22803,0,0,0,0,0,0,0,-1,993,1590,-7.41827,-4.22803
-224,-566,-4.67188,6.30859,0,0,0,0,0,0,0,-1,1000,1590,-4.67185,-6.30853
-217,-566,-2.82867,7.52527,0,0,0,0,0,0,0,-1,1007,1590,-2.82869,-7.52531
-210,-566,-1.03436,8.67737,0,0,0,0,0,0,0,-1,1014,1590,-1.03439,-8.67733
-203,-566,0,0,0,0,0,0,0,0,0,-1,1021,1590,0,0
-196,-566,0,0,0,0,0,0,0,0,0,-1,1028,1590,0,0
-189,-566,0,0,0,0,0,0,0,0,0,-1,1035,1590,0,0
-182,-566,0,0,0,0,0,0,0,0,0,-1,1042,1590,0,0
-175,-566,0,0,0,0,0,0,0,0,0,-1,1049,1590,0,0
-168,-566,0,0,0,0,0,0,0,0,0,-1,1056,1590,0,0
-161,-566,0,0,0,0,0,0,0,0,0,-1,1063,1590,0,0
-154,-566,0,0,0,0,0,0,0,0,0,-1,1070,1590,0,0
-147,-566,0,0,0,0,0,0,0,0,0,-1,1077,1590,0,0
-140,-566,0,0,0,0,0,0,0,0,0,-1,1084,1590,0,0
-133,-566,0,0,0,0,0,0,0,0,0,-1,1091,1590,0,0
-126,-566,0,0,0,0,0,0,0,0,0,-1,1098,1590,0,0
-119,-566,0,0,0,0,0,0,0,0,0,-1,1105,1590,0,0
-112,-566,0,0,0,0,0,0,0,0,0,-1,1112,1590,0,0
-105,-566,0,0,0,0,0,0,0,0,0,-1,1119,1590,0,0
-98,-566,0,0,0,0,0,0,0,0,0,-1,1126,1590,0,0
-91,-566,0,0,0,0,0,0,0,0,0,-1,1133,1590,0,0
-84,-566,0,0,0,0,0,0,0,0,0,-1,1140,1590,0,0
-77,-566,0,0,0,0,0,0,0,0,0,-1,1147,1590,0,0
-70,-566,0,0,0,0,0,0,0,0,0,-1,1154,1590,0,0
-63,-566,0,0,0,0,0,0,0,0,0,-1,1161,1590,0,0
-56,-566,0,0,0,0,0,0,0,0,0,-1,1168,1590,0,0
-49,-566,0,0,0,0,0,0,0,0,0,-1,1175,1590,0,0
-42,-566,0,0,0,0,0,0,0,0,0,-1,1182,1590,0,0
-35,-566,0,0,0,0,0,0,0,0,0,-1,1189,1590,0,0
-28,-566,0,0,0,0,0,0,0,0,0,-1,1196,1590,0,0
-21,-566,0,0,0,0,0,0,0,0,0,-1,1203,1590,0,0
-14,-566,0,0,0,0,0,0,0,0,0,-1,1210,1590,0,0
-7,-566,0,0,0,0,0,0,0,0,0,-1,1217,1590,0,0
0,-566,0,0,0,0,0,0,0,0,0,-1,1224,1590,0,0
7,-566,0,0,0,0,0,0,0,0,0,-1,1231,1590,0,0
14,-566,0,0,0,0,0,0,0,0,0,-1,1238,1590,0,0
21,-566,0,0,0,0,0,0,0,0,0,-1,1245,1590,0,0
28,-566,0,0,0,0,0,0,0,0,0,-1,1252,1590,0,0
35,-566,0,0,0,0,0,0,0,0,0,-1,1259,1590,0,0
42,-566,0,0,0,0,0,0,0,0,0,-1,1266,1590,0,0
49,-566,0,0,0,0,0,0,0,0,0,-1,1273,1590,0,0
56,-566,0,0,0,0,0,0,0,0,0,-1,1280,1590,0,0
63,-566,0,0,0,0,0,0,0,0,0,-1,1287,1590,0,0
70,-566,0,0,0,0,0,0,0,0,0,-1,1294,1590,0,0
77,-566,0,0,0,0,0,0,0,0,0,-1,1301,1590,0,0
84,-566,0,0,0,0,0,0,0,0,0,-1,1308,1590,0,0
91,-566,0,0,0,0,0,0,0,0,0,-1,1315,1590,0,0
98,-566,0,0,0,0,0,0,0,0,0,-1,1322,1590,0,0
105,-566,0,0,0,0,0,0,0,0,0,-1,1329,1590,0,0
112,-566,0,0,0,0,0,0,0,0,0,-1,1336,1590,0,0
119,-566,0,0,0,0,0,0,0,0,0,-1,1343,1590,0,0
126,-566,0,0,0,0,0,0,0,0,0,-1,1350,1590,0,0
133,-566,0,0,0,0,0,0,0,0,0,-1,1357,1590,0,0
140,-566,0,0,0,0,0,0,0,0,0,-1,1364,1590,0,0
147,-566,0,0,0,0,0,0,0,0,0,-1,1371,1590,0,0
154,-566,0,0,0,0,0,0,0,0,0,-1,1378,1590,0,0
161,-566,0,0,0,0,0,0,0,0,0,-1,1385,1590,0,0
168,-566,0,0,0,0,0,0,0,0,0,-1,1392,1590,0,0
175,-566,0,0,0,0,0,0,0,0,0,-1,1399,1590,0,0
182,-566,0,0,0,0,0,0,0,0,0,-1,1406,1590,0,0
189,-566,0,0,0,0,0,0,0,0,0,-1,1413,1590,0,0
196,-566,0,0,0,0,0,0,0,0,0,-1,1420,1590,0,0
203,-566,0,0,0,0,0,0,0,0,0,-1,1427,1590,0,0
210,-566,0,0,0,0,0,0,0,0,0,-1,1434,1590,0,0
217,-566,0,0,0,0,0,0,0,0,0,-1,1441,1590,0,0
224,-566,0,0,0,0,0,0,0,0,0,-1,1448,1590,0,0
231,-566,0,0,0,0,0,0,0,0,0,-1,1455,1590,0,0
238,-566,0,0,0,0,0,0,0,0,0,-1,1462,1590,0,0
245,-566,0,0,0,0,0,0,0,0,0,-1,1469,1590,0,0
252,-566,0,0,0,0,0,0,0,0,0,-1,1476,1590,0,0
259,-566,0,0,0,0,0,0,0,0,0,-1,1483,1590,0,0
266,-566,0,0,0,0,0,0,0,0,0,-1,1490,1590,0,0
273,-566,0,0,0,0,0,0,0,0,0,-1,1497,1590,0,0
280,-566,0,0,0,0,0,0,0,0,0,-1,1504,1590,0,0
287,-566,0,0,0,0,0,0,0,0,0,-1,1511,1590,0,0
294,-566,0,0,0,0,0,0,0,0,0,-1,1518,1590,0,0
301,-566,0,0,0,0,0,0,0,0,0,-1,1525,1590,0,0
308,-566,0,0,0,0,0,0,0,0,0,-1,1532,1590,0,0
315,-566,0,0,0,0,0,0,0,0,0,-1,1539,1590,0,0
322,-566,6.07983,4.44873,0,0,0,0,0,0,0,-1,1546,1590,6.07983,-4.44873
329,-566,5.77026,3.47534,0,0,0,0,0,0,0,-1,1553,1590,5.77026,-3.47535
336,-566,5.41138,2.62915,0,0,0,0,0,0,0,-1,1560,1590,5.41138,-2.62909
343,-566,4.81873,1.79089,0,0,0,0,0,0,0,-1,1567,1590,4.81878,-1.79095
350,-566,4.41663,2.44214,0,0,0,0,0,0,0,-1,1574,1590,4.41666,-2.44214
357,-566,6.34058,5.18579,0,0,0,0,0,0,0,-1,1581,1590,6.34059,-5.1858
364,-566,6.06262,4.20251,0,0,0,0,0,0,0,-1,1588,1590,6.06259,-4.20246
371,-566,5.78455,3.21912,0,0,0,0,0,0,0,-1,1595,1590,5.7846,-3.21912
378,-566,5.7439,0.695557,0,0,0,0,0,0,0,-1,1602,1590,5.74392,-0.695531
385,-566,5.67615,-0.573975,0,0,0,0,0,0,0,-1,1609,1590,5.67612,0.573956
392,-566,5.78638,1.82434,0,0,0,0,0,0,0,-1,1616,1590,5.78637,-1.82439
399,-566,18.3279,36.4055,0,0,0,0,0,0,0,-1,1623,1590,18.3279,-36.4056
406,-566,4.30359,5.26868,0,0,0,0,0,0,0,-1,1630,1590,4.30364,-5.26867
413,-566,4.27124,5.79492,0,0,0,0,0,0,0,-1,1637,1590,4.27123,-5.7949
420,-566,18.0121,32.5314,0,0,0,0,0,0,0,-1,1644,1590,18.0121,-32.5313
427,-566,19.3444,37.7699,0,0,0,0,0,0,0,-1,1651,1590,19.3443,-37.7699
434,-566,18.6196,35.473,0,0,0,0,0,0,0,-1,1658,1590,18.6196,-35.473
441,-566,15.5841,27.5869,0,0,0,0,0,0,0,-1,1665,1590,15.5842,-27.587
448,-566,18.3118,34.2681,0,0,0,0,0,0,0,-1,1672,1590,18.3118,-34.2681
455,-566,18.1237,33.2791,0,0,0,0,0,0,0,-1,1679,1590,18.1237,-33.2791
462,-566,18.1875,32.6079,0.0017115,0.0245463,-0.0131011,0.0305069,-0.00424913,-1.14382,0.0218922,0.0414574,1686,1590,18.1875,-32.6079
469,-566,18.2858,31.7666,0.00289714,0.0184304,-0.010176,0.0234651,-0.00213749,-1.11135,0.0164024,0.0188181,1693,1590,18.2858,-31.7666
476,-566,18.353,31.165,0.00346506,0.0136135,-0.00766727,0.0177335,-0.000655002,-1.07771,0.0120466,0.0105096,1700,1590,18.3531,-31.1651
483,-566,18.3579,30.6007,0.0039433,0.00816611,-0.00529666,0.0117567,0.000352717,-0.975061,0.00772291,0.0102892,1707,1590,18.358,-30.6007
490,-566,18.3457,30.0393,0.00367974,0.00556842,-0.00352022,0.00826876,0.000979398,-0.916444,0.00521678,0.0116373,1714,1590,18.3457,-30.0393
497,-566,18.3849,29.4991,0.0027178,0.00384808,-0.00248718,0.00583352,0.000732356,-0.897112,0.00366934,0.0152214,1721,1590,18.3849,-29.4991
504,-566,18.3396,28.9801,0.00173099,0.00227713,-0.00150508,0.00353371,0.000474416,-0.875139,0.00221467,0.0198865,1728,1590,18.3396,-28.98
511,-566,18.3014,28.432,0.000935824,0.000942593,-0.000602141,0.00154136,0.000337058,-0.788208,0.00093568,0.0185409,1735,1590,18.3014,-28.4319
518,-566,18.2833,27.86,0.00022207,-0.000310344,0.000272624,0.000336901,-0.000425175,0.398653,0.000440968,0.0116232,1742,1590,18.2834,-27.86
525,-566,18.2543,27.2731,-0.000296905,-0.00142775,0.00114182,0.000411823,-0.00213648,0.555501,0.00157959,0.0118203,1749,1590,18.2543,-27.273
532,-566,18.2236,26.7128,-0.000591986,-0.00269398,0.00211715,0.00072068,-0.00400665,0.555008,0.00294091,0.014183,1756,1590,18.2237,-26.7127
539,-566,18.2119,26.1508,-0.000713287,-0.00414436,0.00325274,0.0012486,-0.00610624,0.54273,0.00454456,0.0180905,1763,1590,18.2119,-26.1508
546,-566,18.2434,25.522,-0.000592982,-0.00587684,0.00463073,0.00209645,-0.00856628,0.526167,0.00652295,0.020949,1770,1590,18.2434,-25.522
553,-566,18.2535,25.1166,-8.48429e-05,-0.00776266,0.00614174,0.00331906,-0.0111666,0.50608,0.00876281,0.0329051,1777,1590,18.2535,-25.1166
560,-566,18.0636,24.8959,0.000797014,-0.00991525,0.00781599,0.004916,-0.0140342,0.485009,0.0113553,0.0389197,1784,1590,18.0636,-24.8959
567,-566,17.9714,24.5741,0,0,0,0,0,0,0,-1,1791,1590,17.9714,-24.5741
574,-566,7.99548,3.14514,0,0,0,0,0,0,0,-1,1798,1590,7.99543,-3.14511
581,-566,2.54102,5.1311,0,0,0,0,0,0,0,-1,1805,1590,2.54099,-5.13111
588,-566,-1.91321,8.39197,0,0,0,0,0,0,0,-1,1812,1590,-1.91316,-8.39199
595,-566,9.0271,4.66467,0,0,0,0,0,0,0,-1,1819,1590,9.02705,-4.66468
602,-566,9.953,3.54895,0,0,0,0,0,0,0,-1,1826,1590,9.953,-3.54898
609,-566,0,0,0,0,0,0,0,0,0,-1,1833,1590,0,0
616,-566,0,0,0,0,0,0,0,0,0,-1,1840,1590,0,0
623,-566,0,0,0,0,0,0,0,0,0,-1,1847,1590,0,0
630,-566,0,0,0,0,0,0,0,0,0,-1,1854,1590,0,0
637,-566,0,0,0,0,0,0,0,0,0,-1,1861,1590,0,0
644,-566,0,0,0,0,0,0,0,0,0,-1,1868,1590,0,0
651,-566,0,0,0,0,0,0,0,0,0,-1,1875,1590,0,0
658,-566,0,0,0,0,0,0,0,0,0,-1,1882,1590,0,0
665,-566,0,0,0,0,0,0,0,0,0,-1,1889,1590,0,0
672,-566,0,0,0,0,0,0,0,0,0,-1,1896,1590,0,0
679,-566,0,0,0,0,0,0,0,0,0,-1,1903,1590,0,0
686,-566,0,0,0,0,0,0,0,0,0,-1,1910,1590,0,0
693,-566,0,0,0,0,0,0,0,0,0,-1,1917,1590,0,0
700,-566,0,0,0,0,0,0,0,0,0,-1,1924,1590,0,0
707,-566,0,0,0,0,0,0,0,0,0,-1,1931,1590,0,0
714,-566,0,0,0,0,0,0,0,0,0,-1,1938,1590,0,0
721,-566,0,0,0,0,0,0,0,0,0,-1,1945,1590,0,0
728,-566,0,0,0,0,0,0,0,0,0,-1,1952,1590,0,0
735,-566,0,0,0,0,0,0,0,0,0,-1,1959,1590,0,0
742,-566,0,0,0,0,0,0,0,0,0,-1,1966,1590,0,0
749,-566,0,0,0,0,0,0,0,0,0,-1,1973,1590,0,0
756,-566,0,0,0,0,0,0,0,0,0,-1,1980,1590,0,0
763,-566,0,0,0,0,0,0,0,0,0,-1,1987,1590,0,0
770,-566,0,0,0,0,0,0,0,0,0,-1,1994,1590,0,0
777,-566,0,0,0,0,0,0,0,0,0,-1,2001,1590,0,0
784,-566,0,0,0,0,0,0,0,0,0,-1,2008,1590,0,0
791,-566,0,0,0,0,0,0,0,0,0,-1,2015,1590,0,0
798,-566,0,0,0,0,0,0,0,0,0,-1,2022,1590,0,0
805,-566,0,0,0,0,0,0,0,0,0,-1,2029,1590,0,0
812,-566,0,0,0,0,0,0,0,0,0,-1,2036,1590,0,0
-700,-573,0,0,0,0,0,0,0,0,0,-1,524,1597,0,0
-693,-573,0,0,0,0,0,0,0,0,0,-1,531,1597,0,0
-686,-573,0,0,0,0,0,0,0,0,0,-1,538,1597,0,0
-679,-573,0,0,0,0,0,0,0,0,0,-1,545,1597,0,0
-672,-573,0,0,0,0,0,0,0,0,0,-1,552,1597,0,0
-665,-573,0,0,0,0,0,0,0,0,0,-1,559,1597,0,0
-658,-573,0,0,0,0,0,0,0,0,0,-1,566,1597,0,0
-651,-573,0,0,0,0,0,0,0,0,0,-1,573,1597,0,0
-644,-573,0,0,0,0,0,0,0,0,0,-1,580,1597,0,0
-637,-573,0,0,0,0,0,0,0,0,0,-1,587,1597,0,0
-630,-573,0,0,0,0,0,0,0,0,0,-1,594,1597,0,0
-623,-573,0,0,0,0,0,0,0,0,0,-1,601,1597,0,0
-616,-573,0,0,0,0,0,0,0,0,0,-1,608,1597,0,0
-609,-573,0,0,0,0,0,0,0,0,0,-1,615,1597,0,0
-602,-573,0,0,0,0,0,0,0,0,0,-1,622,1597,0,0
-595,-573,0,0,0,0,0,0,0,0,0,-1,629,1597,0,0
-588,-573,0,0,0,0,0,0,0,0,0,-1,636,1597,0,0
-581,-573,0,0,0,0,0,0,0,0,0,-1,643,1597,0,0
-574,-573,0,0,0,0,0,0,0,0,0,-1,650,1597,0,0
-567,-573,0,0,0,0,0,0,0,0,0,-1,657,1597,0,0
-560,-573,0,0,0,0,0,0,0,0,0,-1,664,1597,0,0
-553,-573,0,0,0,0,0,0,0,0,0,-1,671,1597,0,0
-546,-573,0,0,0,0,0,0,0,0,0,-1,678,1597,0,0
-539,-573,0,0,0,0,0,0,0,0,0,-1,685,1597,0,0
-532,-573,0,0,0,0,0,0,0,0,0,-1,692,1597,0,0
-525,-573,0,0,0,0,0,0,0,0,0,-1,699,1597,0,0
-518,-573,0,0,0,0,0,0,0,0,0,-1,706,1597,0,0
-511,-573,0,0,0,0,0,0,0,0,0,-1,713,1597,0,0
-504,-573,0,0,0,0,0,0,0,0,0,-1,720,1597,0,0
-497,-573,0,0,0,0,0,0,0,0,0,-1,727,1597,0,0
-490,-573,0,0,0,0,0,0,0,0,0,-1,734,1597,0,0
-483,-573,0,0,0,0,0,0,0,0,0,-1,741,1597,0,0
-476,-573,-9.3327,0.972778,0,0,0,0,0,0,0,-1,748,1597,-9.33268,-0.972776
-469,-573,-1.41681,1.13379,0,0,0,0,0,0,0,-1,755,1597,-1.41681,-1.13382
-462,-573,-0.748535,2.02588,0,0,0,0,0,0,0,-1,762,1597,-0.748533,-2.02584
-455,-573,-0.112976,2.70703,0,0,0,0,0,0,0,-1,769,1597,-0.112988,-2.70697
-448,-573,-1.26172,3.33252,0,0,0,0,0,0,0,-1,776,1597,-1.26173,-3.33248
-441,-573,0.108582,5.06726,0,0,0,0,0,0,0,-1,783,1597,0.108584,-5.06721
-434,-573,1.61768,7.05444,0,0,0,0,0,0,0,-1,790,1597,1.61767,-7.05446
-427,-573,-0.339539,22.1222,0,0,0,0,0,0,0,-1,797,1597,-0.339546,-22.1222
-420,-573,0.300354,22.3167,0,0,0,0,0,0,0,-1,804,1597,0.300329,-22.3166
-413,-573,-0.233459,24.4395,0,0,0,0,0,0,0,-1,811,1597,-0.233486,-24.4394
-406,-573,-0.214844,25.2224,-0.00585592,9.26935e-05,-0.000923149,0.000232661,-0.00599589,-1.42032,0.00407703,0.0345827,818,1597,-0.214873,-25.2224
-399,-573,-0.27832,25.9288,-0.00444756,-0.000771976,-0.00058797,-0.000680212,-0.00453933,-1.41598,0.00282689,0.0146867,825,1597,-0.278344,-25.9289
-392,-573,-0.282043,26.5408,-0.0031074,-0.0011409,-0.000208008,-0.00111914,-0.00312917,-1.46656,0.00183087,0.012599,832,1597,-0.282044,-26.5407
-385,-573,-0.31134,27.1326,-0.00180018,-0.000986908,0.00015656,-0.00095781,-0.00182928,1.38704,0.00105653,0.0149932,839,1597,-0.311326,-27.1326
-378,-573,-0.347473,27.7115,-0.000830027,-0.000633989,0.000465709,-0.000256095,-0.00120792,0.889121,0.000734942,0.0164986,846,1597,-0.34747,-27.7115
-371,-573,-0.35907,28.3003,2.23698e-06,-0.0002489,0.000697558,0.000585438,-0.000832101,0.696346,0.000822536,0.0177758,853,1597,-0.359092,-28.3003
-364,-573,-0.397217,28.8721,0.000894688,0.000485743,0.00107322,0.00178274,-0.000402307,0.691265,0.00134284,0.0208271,860,1597,-0.39722,-28.8721
-357,-573,-0.42572,29.4521,0.00186205,0.00140364,0.00151338,0.00316348,0.000102205,0.710243,0.00207576,0.0238457,867,1597,-0.42575,-29.4521
-350,-573,-0.419861,30.0649,0.00297189,0.00241415,0.00204596,0.0047579,0.000628138,0.717663,0.00298467,0.0177506,874,1597,-0.41986,-30.065
-343,-573,-0.419861,30.6003,0.00410024,0.00372029,0.0027345,0.00665135,0.00116918,0.750717,0.00410045,0.0210065,881,1597,-0.419835,-30.6004
-336,-573,-0.465881,31.192,0.00550493,0.00542771,0.00369932,0.00916584,0.0017668,0.78018,0.00561506,0.0169096,888,1597,-0.465901,-31.192
-329,-573,-0.448364,31.7573,0.00745813,0.00816885,0.00540198,0.0132271,0.00239984,0.818242,0.00813698,0.0171675,895,1597,-0.44835,-31.7574
-322,-573,-0.461426,32.3528,0.0093689,0.0109828,0.00720281,0.0174237,0.00292798,0.841182,0.0107733,0.0159723,902,1597,-0.461432,-32.3528
-315,-573,-0.324158,33.1372,0.0116043,0.0148152,0.00953761,0.0228815,0.00353796,0.868779,0.0142225,0.0370828,909,1597,-0.324178,-33.1372
-308,-573,-0.411133,34.0131,0,0,0,0,0,0,0,-1,916,1597,-0.411149,-34.0131
-301,-573,-0.177429,34.3215,0,0,0,0,0,0,0,-1,923,1597,-0.177445,-34.3216
-294,-573,1.00702,24.802,0,0,0,0,0,0,0,-1,930,1597,1.00701,-24.802
-287,-573,1.27222,30.7164,0,0,0,0,0,0,0,-1,937,1597,1.27222,-30.7164
-280,-573,1.19684,26.4906,0,0,0,0,0,0,0,-1,944,1597,1.19685,-26.4906
-273,-573,2.24805,25.4375,0,0,0,0,0,0,0,-1,951,1597,2.24803,-25.4374
-266,-573,1.31116,7.1814,0,0,0,0,0,0,0,-1,958,1597,1.31118,-7.18142
-259,-573,1.2514,6.70959,0,0,0,0,0,0,0,-1,965,1597,1.25137,-6.70965
-252,-573,2.07874,5.27161,0,0,0,0,0,0,0,-1,972,1597,2.07875,-5.27157
-245,-573,-10.2592,1.09827,0,0,0,0,0,0,0,-1,979,1597,-10.2592,-1.09823
-238,-573,-11.5463,4.44141,0,0,0,0,0,0,0,-1,986,1597,-11.5463,-4.44146
-231,-573,-9.23431,4.14539,0,0,0,0,0,0,0,-1,993,1597,-9.23431,-4.14534
-224,-573,-6.70044,7.40857,0,0,0,0,0,0,0,-1,1000,1597,-6.70045,-7.40851
-217,-573,-4.25824,8.59119,0,0,0,0,0,0,0,-1,1007,1597,-4.25824,-8.59122
-210,-573,-2.39661,9.73914,0,0,0,0,0,0,0,-1,1014,1597,-2.39658,-9.73915
-203,-573,-0.557373,10.9005,0,0,0,0,0,0,0,-1,1021,1597,-0.557387,-10.9006
-196,-573,-1.65344,9.02246,0,0,0,0,0,0,0,-1,1028,1597,-1.65349,-9.02241
-189,-573,-6.12915,6.66882,0,0,0,0,0,0,0,-1,1035,1597,-6.12913,-6.66884
-182,-573,0,0,0,0,0,0,0,0,0,-1,1042,1597,0,0
-175,-573,0,0,0,0,0,0,0,0,0,-1,1049,1597,0,0
-168,-573,0,0,0,0,0,0,0,0,0,-1,1056,1597,0,0
-161,-573,0,0,0,0,0,0,0,0,0,-1,1063,1597,0,0
-154,-573,0,0,0,0,0,0,0,0,0,-1,1070,1597,0,0
-147,-573,0,0,0,0,0,0,0,0,0,-1,1077,1597,0,0
-140,-573,0,0,0,0,0,0,0,0,0,-1,1084,1597,0,0
-133,-573,0,0,0,0,0,0,0,0,0,-1,1091,1597,0,0
-126,-573,0,0,0,0,0,0,0,0,0,-1,1098,1597,0,0
-119,-573,0,0,0,0,0,0,0,0,0,-1,1105,1597,0,0
-112,-573,0,0,0,0,0,0,0,0,0,-1,1112,1597,0,0
-105,-573,0,0,0,0,0,0,0,0,0,-1,1119,1597,0,0
-98,-573,0,0,0,0,0,0,0,0,0,-1,1126,1597,0,0
-91,-573,0,0,0,0,0,0,0,0,0,-1,1133,1597,0,0
-84,-573,0,0,0,0,0,0,0,0,0,-1,1140,1597,0,0
-77,-573,0,0,0,0,0,0,0,0,0,-1,1147,1597,0,0
-70,-573,0,0,0,0,0,0,0,0,0,-1,1154,1597,0,0
-63,-573,0,0,0,0,0,0,0,0,0,-1,1161,1597,0,0
-56,-573,0,0,0,0,0,0,0,0,0,-1,1168,1597,0,0
-49,-573,0,0,0,0,0,0,0,0,0,-1,1175,1597,0,0
-42,-573,0,0,0,0,0,0,0,0,0,-1,1182,1597,0,0
-35,-573,0,0,0,0,0,0,0,0,0,-1,1189,1597,0,0
-28,-573,0,0,0,0,0,0,0,0,0,-1,1196,1597,0,0
-21,-573,0,0,0,0,0,0,0,0,0,-1,1203,1597,0,0
-14,-573,0,0,0,0,0,0,0,0,0,-1,1210,1597,0,0
-7,-573,0,0,0,0,0,0,0,0,0,-1,1217,1597,0,0
0,-573,0,0,0,0,0,0,0,0,0,-1,1224,1597,0,0
7,-573,0,0,0,0,0,0,0,0,0,-1,1231,1597,0,0
14,-573,0,0,0,0,0,0,0,0,0,-1,1238,1597,0,0
21,-573,0,0,0,0,0,0,0,0,0,-1,1245,1597,0,0
28,-573,0,0,0,0,0,0,0,0,0,-1,1252,1597,0,0
35,-573,0,0,0,0,0,0,0,0,0,-1,1259,1597,0,0
42,-573,0,0,0,0,0,0,0,0,0,-1,1266,1597,0,0
49,-573,0,0,0,0,0,0,0,0,0,-1,1273,1597,0,0
56,-573,0,0,0,0,0,0,0,0,0,-1,1280,1597,0,0
63,-573,0,0,0,0,0,0,0,0,0,-1,1287,1597,0,0
70,-573,0,0,0,0,0,0,0,0,0,-1,1294,1597,0,0
77,-573,0,0,0,0,0,0,0,0,0,-1,1301,1597,0,0
84,-573,0,0,0,0,0,0,0,0,0,-1,1308,1597,0,0
91,-573,0,0,0,0,0,0,0,0,0,-1,1315,1597,0,0
98,-573,0,0,0,0,0,0,0,0,0,-1,1322,1597,0,0
105,-573,0,0,0,0,0,0,0,0,0,-1,1329,1597,0,0
112,-573,0,0,0,0,0,0,0,0,0,-1,1336,1597,0,0
119,-573,0,0,0,0,0,0,0,0,0,-1,1343,1597,0,0
126,-573,0,0,0,0,0,0,0,0,0,-1,1350,1597,0,0
133,-573,0,0,0,0,0,0,0,0,0,-1,1357,1597,0,0
140,-573,0,0,0,0,0,0,0,0,0,-1,1364,1597,0,0
147,-573,0,0,0,0,0,0,0,0,0,-1,1371,1597,0,0
154,-573,0,0,0,0,0,0,0,0,0,-1,1378,1597,0,0
161,-573,0,0,0,0,0,0,0,0,0,-1,1385,1597,0,0
168,-573,0,0,0,0,0,0,0,0,0,-1,1392,1597,0,0
175,-573,0,0,0,0,0,0,0,0,0,-1,1399,1597,0,0
182,-573,0,0,0,0,0,0,0,0,0,-1,1406,1597,0,0
189,-573,0,0,0,0,0,0,0,0,0,-1,1413,1597,0,0
196,-573,0,0,0,0,0,0,0,0,0,-1,1420,1597,0,0
203,-573,0,0,0,0,0,0,0,0,0,-1,1427,1597,0,0
210,-573,0,0,0,0,0,0,0,0,0,-1,1434,1597,0,0
217,-573,0,0,0,0,0,0,0,0,0,-1,1441,1597,0,0
224,-573,0,0,0,0,0,0,0,0,0,-1,1448,1597,0,0
231,-573,0,0,0,0,0,0,0,0,0,-1,1455,1597,0,0
238,-573,0,0,0,0,0,0,0,0,0,-1,1462,1597,0,0
245,-573,0,0,0,0,0,0,0,0,0,-1,1469,1597,0,0
252,-573,0,0,0,0,0,0,0,0,0,-1,1476,1597,0,0
259,-573,0,0,0,0,0,0,0,0,0,-1,1483,1597,0,0
266,-573,0,0,0,0,0,0,0,0,0,-1,1490,1597,0,0
273,-573,0,0,0,0,0,0,0,0,0,-1,1497,1597,0,0
280,-573,0,0,0,0,0,0,0,0,0,-1,1504,1597,0,0
287,-573,0,0,0,0,0,0,0,0,0,-1,1511,1597,0,0
294,-573,0,0,0,0,0,0,0,0,0,-1,1518,1597,0,0
301,-573,0,0,0,0,0,0,0,0,0,-1,1525,1597,0,0
308,-573,5.93042,9.71143,0,0,0,0,0,0,0,-1,1532,1597,5.93046,-9.71144
315,-573,4.34204,11.719,0,0,0,0,0,0,0,-1,1539,1597,4.34205,-11.719
322,-573,10.3269,7.77563,0,0,0,0,0,0,0,-1,1546,1597,10.327,-7.77565
329,-573,4.99573,3.80273,0,0,0,0,0,0,0,-1,1553,1597,4.9957,-3.80273
336,-573,4.85693,2.53455,0,0,0,0,0,0,0,-1,1560,1597,4.8569,-2.53459
343,-573,5.5946,2.15894,0,0,0,0,0,0,0,-1,1567,1597,5.59456,-2.1589
350,-573,2.53748,1.56433,0,0,0,0,0,0,0,-1,1574,1597,2.53753,-1.5643
357,-573,7.40247,4.03613,0,0,0,0,0,0,0,-1,1581,1597,7.40244,-4.03614
364,-573,7.14551,3.02087,0,0,0,0,0,0,0,-1,1588,1597,7.14556,-3.02084
371,-573,6.88867,2.00549,0,0,0,0,0,0,0,-1,1595,1597,6.88868,-2.00553
378,-573,8.62012,6.09106,0,0,0,0,0,0,0,-1,1602,1597,8.62012,-6.09103
385,-573,6.54346,-0.951904,0,0,0,0,0,0,0,-1,1609,1597,6.54349,0.951901
392,-573,17.795,36.7909,0,0,0,0,0,0,0,-1,1616,1597,17.7951,-36.7909
399,-573,17.6506,36.3021,0,0,0,0,0,0,0,-1,1623,1597,17.6506,-36.3021
406,-573,18.5344,36.6213,0,0,0,0,0,0,0,-1,1630,1597,18.5345,-36.6213
413,-573,18.2855,33.5858,0,0,0,0,0,0,0,-1,1637,1597,18.2855,-33.5858
420,-573,18.7875,37.4666,0,0,0,0,0,0,0,-1,1644,1597,18.7874,-37.4665
427,-573,18.5831,36.6025,-0.00999204,0.0534572,-0.0238031,0.0613941,-0.017929,-1.24895,0.0480343,0.0498009,1651,1597,18.5831,-36.6026
434,-573,18.0465,35.0313,-0.00745687,0.0458002,-0.0208287,0.0529787,-0.0146353,-1.2389,0.041076,0.048923,1658,1597,18.0465,-35.0313
441,-573,17.7721,34.3727,0,0,0,0,0,0,0,-1,1665,1597,17.7721,-34.3727
448,-573,17.7164,33.6971,-0.00203043,0.0313051,-0.0147901,0.036921,-0.00764631,-1.20791,0.0275192,0.0444143,1672,1597,17.7165,-33.6972
455,-573,17.7739,32.9391,-0.00035556,0.0250972,-0.0123347,0.0300939,-0.00535219,-1.18591,0.0220641,0.0328262,1679,1597,17.774,-32.9391
462,-573,17.8822,32.192,0.00102987,0.0194797,-0.0101243,0.0239515,-0.00344197,-1.15487,0.01723,0.0220936,1686,1597,17.8822,-32.192
469,-573,17.8344,31.6602,0.00195925,0.0145739,-0.00789126,0.0183688,-0.00183562,-1.12255,0.0129013,0.015482,1693,1597,17.8343,-31.6602
476,-573,17.8197,31.1317,0.00235893,0.0106684,-0.00586159,0.0136984,-0.000671046,-1.0937,0.00936394,0.0142536,1700,1597,17.8196,-31.1317
483,-573,17.8447,30.6078,0.00265597,0.00616542,-0.00394772,0.00873083,9.05562e-05,-0.99453,0.0057906,0.0127262,1707,1597,17.8448,-30.6077
490,-573,17.8146,30.0624,0.00236189,0.00395904,-0.00248293,0.00576866,0.000552278,-0.940987,0.00367554,0.0125035,1714,1597,17.8146,-30.0624
497,-573,17.8295,29.4994,0.00147149,0.00250135,-0.00164352,0.00370872,0.000264117,-0.937209,0.00238931,0.0193399,1721,1597,17.8294,-29.4994
504,-573,17.7916,28.9688,0.00055354,0.00114056,-0.000713693,0.00161874,7.53601e-05,-0.980484,0.00105494,0.0190459,1728,1597,17.7916,-28.9687
511,-573,17.7512,28.4083,-0.000124318,-0.000121861,0.000151975,2.88901e-05,-0.000275069,0.789441,0.000193729,0.0191631,1735,1597,17.7512,-28.4083
518,-573,17.7118,27.8706,-0.00074306,-0.00122824,0.000967105,1.14177e-05,-0.00198272,0.662513,0.00132563,0.0143883,1742,1597,17.7118,-27.8706
525,-573,17.6948,27.2925,-0.00116697,-0.0023188,0.00184813,0.000192905,-0.00367867,0.634356,0.00251921,0.0169305,1749,1597,17.6949,-27.2925
532,-573,17.6973,26.7214,-0.00135036,-0.00360623,0.0029107,0.000643306,-0.0055999,0.60055,0.00396513,0.0169636,1756,1597,17.6973,-26.7214
539,-573,17.6342,26.1831,-0.00133873,-0.00524828,0.00423449,0.00137041,-0.00795741,0.569156,0.00581582,0.0264819,1763,1597,17.6342,-26.1831
546,-573,17.7682,25.646,-0.00102779,-0.00722412,0.00588878,0.00252809,-0.01078,0.543238,0.00816095,0.0399241,1770,1597,17.7682,-25.646
553,-573,17.2935,25.2963,-0.000226508,-0.00947339,0.00778397,0.00420358,-0.0139035,0.517411,0.0109427,0.0457345,1777,1597,17.2935,-25.2962
560,-573,17.6448,25.0645,0.000963379,-0.0122447,0.0100433,0.00637941,-0.0176607,0.494565,0.01438,0.0472438,1784,1597,17.6448,-25.0645
567,-573,17.7714,24.8821,0,0,0,0,0,0,0,-1,1791,1597,17.7714,-24.8821
574,-573,0.83374,5.7041,0,0,0,0,0,0,0,-1,1798,1597,0.833718,-5.70405
581,-573,-0.224854,7.41602,0,0,0,0,0,0,0,-1,1805,1597,-0.224904,-7.41596
588,-573,-0.134033,7.67065,0,0,0,0,0,0,0,-1,1812,1597,-0.134037,-7.67063
595,-573,-0.0825195,8.35083,0,0,0,0,0,0,0,-1,1819,1597,-0.0824684,-8.35088
602,-573,0,0,0,0,0,0,0,0,0,-1,1826,1597,0,0
609,-573,0,0,0,0,0,0,0,0,0,-1,1833,1597,0,0
616,-573,0,0,0,0,0,0,0,0,0,-1,1840,1597,0,0
623,-573,0,0,0,0,0,0,0,0,0,-1,1847,1597,0,0
630,-573,0,0,0,0,0,0,0,0,0,-1,1854,1597,0,0
637,-573,0,0,0,0,0,0,0,0,0,-1,1861,1597,0,0
644,-573,0,0,0,0,0,0,0,0,0,-1,1868,1597,0,0
651,-573,0,0,0,0,0,0,0,0,0,-1,1875,1597,0,0
658,-573,0,0,0,0,0,0,0,0,0,-1,1882,1597,0,0
665,-573,0,0,0,0,0,0,0,0,0,-1,1889,1597,0,0
672,-573,0,0,0,0,0,0,0,0,0,-1,1896,1597,0,0
679,-573,0,0,0,0,0,0,0,0,0,-1,1903,1597,0,0
686,-573,0,0,0,0,0,0,0,0,0,-1,1910,1597,0,0
693,-573,0,0,0,0,0,0,0,0,0,-1,1917,1597,0,0
700,-573,0,0,0,0,0,0,0,0,0,-1,1924,1597,0,0
707,-573,0,0,0,0,0,0,0,0,0,-1,1931,1597,0,0
714,-573,0,0,0,0,0,0,0,0,0,-1,1938,1597,0,0
721,-573,0,0,0,0,0,0,0,0,0,-1,1945,1597,0,0
728,-573,0,0,0,0,0,0,0,0,0,-1,1952,1597,0,0
735,-573,0,0,0,0,0,0,0,0,0,-1,1959,1597,0,0
742,-573,0,0,0,0,0,0,0,0,0,-1,1966,1597,0,0
749,-573,0,0,0,0,0,0,0,0,0,-1,1973,1597,0,0
756,-573,0,0,0,0,0,0,0,0,0,-1,1980,1597,0,0
763,-573,0,0,0,0,0,0,0,0,0,-1,1987,1597,0,0
770,-573,0,0,0,0,0,0,0,0,0,-1,1994,1597,0,0
777,-573,0,0,0,0,0,0,0,0,0,-1,2001,1597,0,0
784,-573,0,0,0,0,0,0,0,0,0,-1,2008,1597,0,0
791,-573,0,0,0,0,0,0,0,0,0,-1,2015,1597,0,0
798,-573,0,0,0,0,0,0,0,0,0,-1,2022,1597,0,0
805,-573,0,0,0,0,0,0,0,0,0,-1,2029,1597,0,0
812,-573,0,0,0,0,0,0,0,0,0,-1,2036,1597,0,0
-700,-580,0,0,0,0,0,0,0,0,0,-1,524,1604,0,0
-693,-580,0,0,0,0,0,0,0,0,0,-1,531,1604,0,0
-686,-580,0,0,0,0,0,0,0,0,0,-1,538,1604,0,0
-679,-580,0,0,0,0,0,0,0,0,0,-1,545,1604,0,0
-672,-580,0,0,0,0,0,0,0,0,0,-1,552,1604,0,0
-665,-580,0,0,0,0,0,0,0,0,0,-1,559,1604,0,0
-658,-580,0,0,0,0,0,0,0,0,0,-1,566,1604,0,0
-651,-580,0,0,0,0,0,0,0,0,0,-1,573,1604,0,0
-644,-580,0,0,0,0,0,0,0,0,0,-1,580,1604,0,0
-637,-580,0,0,0,0,0,0,0,0,0,-1,587,1604,0,0
-630,-580,0,0,0,0,0,0,0,0,0,-1,594,1604,0,0
-623,-580,0,0,0,0,0,0,0,0,0,-1,601,1604,0,0
-616,-580,0,0,0,0,0,0,0,0,0,-1,608,1604,0,0
-609,-580,0,0,0,0,0,0,0,0,0,-1,615,1604,0,0
-602,-580,0,0,0,0,0,0,0,0,0,-1,622,1604,0,0
-595,-580,0,0,0,0,0,0,0,0,0,-1,629,1604,0,0
-588,-580,0,0,0,0,0,0,0,0,0,-1,636,1604,0,0
-581,-580,0,0,0,0,0,0,0,0,0,-1,643,1604,0,0
-574,-580,0,0,0,0,0,0,0,0,0,-1,650,1604,0,0
-567,-580,0,0,0,0,0,0,0,0,0,-1,657,1604,0,0
-560,-580,0,0,0,0,0,0,0,0,0,-1,664,1604,0,0
-553,-580,0,0,0,0,0,0,0,0,0,-1,671,1604,0,0
-546,-580,0,0,0,0,0,0,0,0,0,-1,678,1604,0,0
-539,-580,0,0,0,0,0,0,0,0,0,-1,685,1604,0,0
-532,-580,0,0,0,0,0,0,0,0,0,-1,692,1604,0,0
-525,-580,0,0,0,0,0,0,0,0,0,-1,699,1604,0,0
-518,-580,0,0,0,0,0,0,0,0,0,-1,706,1604,0,0
-511,-580,0,0,0,0,0,0,0,0,0,-1,713,1604,0,0
-504,-580,0,0,0,0,0,0,0,0,0,-1,720,1604,0,0
-497,-580,0,0,0,0,0,0,0,0,0,-1,727,1604,0,0
-490,-580,0,0,0,0,0,0,0,0,0,-1,734,1604,0,0
-483,-580,0,0,0,0,0,0,0,0,0,-1,741,1604,0,0
-476,-580,0,0,0,0,0,0,0,0,0,-1,748,1604,0,0
-469,-580,-1.69189,-0.38916,0,0,0,0,0,0,0,-1,755,1604,-1.69192,0.389188
-462,-580,-0.859863,0.675293,0,0,0,0,0,0,0,-1,762,1604,-0.859834,-0.675245
-455,-580,-0.730164,0.651978,0,0,0,0,0,0,0,-1,769,1604,-0.730153,-0.651957
-448,-580,-3.31891,2.07544,0,0,0,0,0,0,0,-1,776,1604,-3.3189,-2.07539
-441,-580,-1.63843,3.9469,0,0,0,0,0,0,0,-1,783,1604,-1.63842,-3.94695
-434,-580,0.23291,5.97876,0,0,0,0,0,0,0,-1,790,1604,0.232901,-5.97878
-427,-580,1.62756,8.05493,0,0,0,0,0,0,0,-1,797,1604,1.62758,-8.05488
-420,-580,0.986572,11.2383,0,0,0,0,0,0,0,-1,804,1604,0.986544,-11.2382
-413,-580,0.922913,21.5701,0,0,0,0,0,0,0,-1,811,1604,0.922905,-21.5701
-406,-580,0.336914,25.3096,0,0,0,0,0,0,0,-1,818,1604,0.336937,-25.3096
-399,-580,0.324524,25.9596,-0.00566489,-0.00144664,-0.000704716,-0.00133202,-0.00577951,-1.40956,0.00349467,0.0359944,825,1604,0.324502,-25.9596
-392,-580,0.294006,26.5703,-0.0040515,-0.0019603,-0.000313073,-0.00191444,-0.00409737,-1.42533,0.00236731,0.0176318,832,1604,0.293999,-26.5704
-385,-580,0.277405,27.1516,-0.00261272,-0.00186966,4.51826e-05,-0.00186692,-0.00261545,1.51029,0.00155537,0.012919,839,1604,0.277392,-27.1516
-378,-580,0.233643,27.7473,-0.00163672,-0.00167858,0.000281902,-0.00137497,-0.00194033,0.748348,0.0011523,0.0159909,846,1604,0.23362,-27.7473
-371,-580,0.216919,28.3586,-0.00081193,-0.00136949,0.000444629,-0.000565912,-0.00161551,0.505381,0.000946547,0.0147687,853,1604,0.216908,-28.3586
-364,-580,0.190002,28.9424,3.80637e-05,-0.000748234,0.000727574,0.000471916,-0.00118209,0.537694,0.000983842,0.0203737,860,1604,0.190032,-28.9424
-357,-580,0.176086,29.4639,0.000940975,7.46502e-05,0.00107735,0.00166898,-0.000653357,0.594257,0.00138288,0.0141309,867,1604,0.176058,-29.4638
-350,-580,0.146973,30.0824,0.00194938,0.000982619,0.00150404,0.00304581,-0.000113812,0.629918,0.00206952,0.0107578,874,1604,0.146957,-30.0824
-343,-580,0.150452,30.666,0.00293737,0.00216164,0.00206177,0.00464745,0.00045157,0.692424,0.00295928,0.0115551,881,1604,0.150423,-30.666
-336,-580,0.159424,31.1869,0.00415507,0.00364929,0.00286072,0.00677406,0.0010303,0.741313,0.00421479,0.0205006,888,1604,0.159397,-31.1868
-329,-580,0.126526,31.7792,0.00579809,0.00609631,0.00428384,0.0102336,0.00166077,0.802795,0.00634174,0.0180451,895,1604,0.126551,-31.7792
-322,-580,0.0947876,32.3557,0.0073456,0.00848327,0.00574029,0.0136828,0.00214603,0.834784,0.00849736,0.0200362,902,1604,0.0947667,-32.3558
-315,-580,0.12207,32.899,0.00913272,0.0116826,0.00762112,0.0181347,0.00268063,0.868276,0.0113027,0.0214139,909,1604,0.122043,-32.899
-308,-580,0.176941,33.6106,0.0112141,0.0151479,0.00988152,0.0232564,0.00310562,0.883638,0.0145797,0.0315336,916,1604,0.176945,-33.6106
-301,-580,0.270508,34.0732,0.0136254,0.0190726,0.012651,0.0292898,0.00340819,0.891423,0.0184954,0.0309754,923,1604,0.270533,-34.0733
-294,-580,0.337158,34.8582,0,0,0,0,0,0,0,-1,930,1604,0.337185,-34.8582
-287,-580,0.51062,35.9276,0,0,0,0,0,0,0,-1,937,1604,0.510624,-35.9276
-280,-580,1.11133,37.2659,0,0,0,0,0,0,0,-1,944,1604,1.11136,-37.2659
-273,-580,1.39575,28.6672,0,0,0,0,0,0,0,-1,951,1604,1.39577,-28.6672
-266,-580,1.71777,25.6515,0,0,0,0,0,0,0,-1,958,1604,1.71775,-25.6515
-259,-580,1.31091,9.11536,0,0,0,0,0,0,0,-1,965,1604,1.31092,-9.11539
-252,-580,1.07629,7.74097,0,0,0,0,0,0,0,-1,972,1604,1.07627,-7.74101
-245,-580,3.80304,9.16028,0,0,0,0,0,0,0,-1,979,1604,3.80306,-9.16034
-238,-580,-10.3588,1.57556,0,0,0,0,0,0,0,-1,986,1604,-10.3588,-1.5755
-231,-580,-10.576,6.43787,0,0,0,0,0,0,0,-1,993,1604,-10.576,-6.43783
-224,-580,-8.27435,7.58972,0,0,0,0,0,0,0,-1,1000,1604,-8.27435,-7.5897
-217,-580,-5.85632,9.51221,0,0,0,0,0,0,0,-1,1007,1604,-5.85632,-9.5122
-210,-580,-3.6684,11.1569,0,0,0,0,0,0,0,-1,1014,1604,-3.66839,-11.1569
-203,-580,-1.92474,12.7845,0,0,0,0,0,0,0,-1,1021,1604,-1.92477,-12.7845
-196,-580,-2.28552,10.3289,0,0,0,0,0,0,0,-1,1028,1604,-2.28552,-10.3288
-189,-580,-4.58252,7.59058,0,0,0,0,0,0,0,-1,1035,1604,-4.58256,-7.59057
-182,-580,-5.45874,7.65942,0,0,0,0,0,0,0,-1,1042,1604,-5.45876,-7.65939
-175,-580,-6.38977,7.55005,0,0,0,0,0,0,0,-1,1049,1604,-6.38981,-7.5501
-168,-580,0,0,0,0,0,0,0,0,0,-1,1056,1604,0,0
-161,-580,0,0,0,0,0,0,0,0,0,-1,1063,1604,0,0
-154,-580,0,0,0,0,0,0,0,0,0,-1,1070,1604,0,0
-147,-580,0,0,0,0,0,0,0,0,0,-1,1077,1604,0,0
-140,-580,0,0,0,0,0,0,0,0,0,-1,1084,1604,0,0
-133,-580,0,0,0,0,0,0,0,0,0,-1,1091,1604,0,0
-126,-580,0,0,0,0,0,0,0,0,0,-1,1098,1604,0,0
-119,-580,0,0,0,0,0,0,0,0,0,-1,1105,1604,0,0
-112,-580,0,0,0,0,0,0,0,0,0,-1,1112,1604,0,0
-105,-580,0,0,0,0,0,0,0,0,0,-1,1119,1604,0,0
-98,-580,0,0,0,0,0,0,0,0,0,-1,1126,1604,0,0
-91,-580,0,0,0,0,0,0,0,0,0,-1,1133,1604,0,0
-84,-580,0,0,0,0,0,0,0,0,0,-1,1140,1604,0,0
-77,-580,0,0,0,0,0,0,0,0,0,-1,1147,1604,0,0
-70,-580,0,0,0,0,0,0,0,0,0,-1,1154,1604,0,0
-63,-580,0,0,0,0,0,0,0,0,0,-1,1161,1604,0,0
-56,-580,0,0,0,0,0,0,0,0,0,-1,1168,1604,0,0
-49,-580,0,0,0,0,0,0,0,0,0,-1,1175,1604,0,0
-42,-580,0,0,0,0,0,0,0,0,0,-1,1182,1604,0,0
-35,-580,0,0,0,0,0,0,0,0,0,-1,1189,1604,0,0
-28,-580,0,0,0,0,0,0,0,0,0,-1,1196,1604,0,0
-21,-580,0,0,0,0,0,0,0,0,0,-1,1203,1604,0,0
-14,-580,0,0,0,0,0,0,0,0,0,-1,1210,1604,0,0
-7,-580,0,0,0,0,0,0,0,0,0,-1,1217,1604,0,0
0,-580,0,0,0,0,0,0,0,0,0,-1,1224,1604,0,0
7,-580,0,0,0,0,0,0,0,0,0,-1,1231,1604,0,0
14,-580,0,0,0,0,0,0,0,0,0,-1,1238,1604,0,0
21,-580,0,0,0,0,0,0,0,0,0,-1,1245,1604,0,0
28,-580,0,0,0,0,0,0,0,0,0,-1,1252,1604,0,0
35,-580,0,0,0,0,0,0,0,0,0,-1,1259,1604,0,0
42,-580,0,0,0,0,0,0,0,0,0,-1,1266,1604,0,0
49,-580,0,0,0,0,0,0,0,0,0,-1,1273,1604,0,0
56,-580,0,0,0,0,0,0,0,0,0,-1,1280,1604,0,0
63,-580,0,0,0,0,0,0,0,0,0,-1,1287,1604,0,0
70,-580,0,0,0,0,0,0,0,0,0,-1,1294,1604,0,0
77,-580,0,0,0,0,0,0,0,0,0,-1,1301,1604,0,0
84,-580,0,0,0,0,0,0,0,0,0,-1,1308,1604,0,0
91,-580,0,0,0,0,0,0,0,0,0,-1,1315,1604,0,0
98,-580,0,0,0,0,0,0,0,0,0,-1,1322,1604,0,0
105,-580,0,0,0,0,0,0,0,0,0,-1,1329,1604,0,0
112,-580,0,0,0,0,0,0,0,0,0,-1,1336,1604,0,0
119,-580,0,0,0,0,0,0,0,0,0,-1,1343,1604,0,0
126,-580,0,0,0,0,0,0,0,0,0,-1,1350,1604,0,0
133,-580,0,0,0,0,0,0,0,0,0,-1,1357,1604,0,0
140,-580,0,0,0,0,0,0,0,0,0,-1,1364,1604,0,0
147,-580,0,0,0,0,0,0,0,0,0,-1,1371,1604,0,0
154,-580,0,0,0,0,0,0,0,0,0,-1,1378,1604,0,0
161,-580,0,0,0,0,0,0,0,0,0,-1,1385,1604,0,0
168,-580,0,0,0,0,0,0,0,0,0,-1,1392,1604,0,0
175,-580,0,0,0,0,0,0,0,0,0,-1,1399,1604,0,0
182,-580,0,0,0,0,0,0,0,0,0,-1,1406,1604,0,0
189,-580,0,0,0,0,0,0,0,0,0,-1,1413,1604,0,0
196,-580,0,0,0,0,0,0,0,0,0,-1,1420,1604,0,0
203,-580,0,0,0,0,0,0,0,0,0,-1,1427,1604,0,0
210,-580,0,0,0,0,0,0,0,0,0,-1,1434,1604,0,0
217,-580,0,0,0,0,0,0,0,0,0,-1,1441,1604,0,0
224,-580,0,0,0,0,0,0,0,0,0,-1,1448,1604,0,0
231,-580,0,0,0,0,0,0,0,0,0,-1,1455,1604,0,0
238,-580,0,0,0,0,0,0,0,0,0,-1,1462,1604,0,0
245,-580,0,0,0,0,0,0,0,0,0,-1,1469,1604,0,0
252,-580,0,0,0,0,0,0,0,0,0,-1,1476,1604,0,0
259,-580,0,0,0,0,0,0,0,0,0,-1,1483,1604,0,0
266,-580,0,0,0,0,0,0,0,0,0,-1,1490,1604,0,0
273,-580,0,0,0,0,0,0,0,0,0,-1,1497,1604,0,0
280,-580,0,0,0,0,0,0,0,0,0,-1,1504,1604,0,0
287,-580,0,0,0,0,0,0,0,0,0,-1,1511,1604,0,0
294,-580,4.0437,0.177368,0,0,0,0,0,0,0,-1,1518,1604,4.04369,-0.177371
301,-580,7.55164,8.05798,0,0,0,0,0,0,0,-1,1525,1604,7.55158,-8.05802
308,-580,5.9126,9.99341,0,0,0,0,0,0,0,-1,1532,1604,5.91255,-9.99337
315,-580,4.27356,11.9287,0,0,0,0,0,0,0,-1,1539,1604,4.27352,-11.9287
322,-580,10.2366,7.50281,0,0,0,0,0,0,0,-1,1546,1604,10.2366,-7.50282
329,-580,10.5962,8.69641,0,0,0,0,0,0,0,-1,1553,1604,10.5962,-8.69642
336,-580,3.66431,1.58862,0,0,0,0,0,0,0,-1,1560,1604,3.6643,-1.58864
343,-580,3.32227,1.39636,0,0,0,0,0,0,0,-1,1567,1604,3.32222,-1.39633
350,-580,8.71277,4.0564,0,0,0,0,0,0,0,-1,1574,1604,8.71271,-4.05638
357,-580,8.52332,3.08154,0,0,0,0,0,0,0,-1,1581,1604,8.52332,-3.08157
364,-580,8.25818,2.07605,0,0,0,0,0,0,0,-1,1588,1604,8.25812,-2.07608
371,-580,7.42114,7.14282,0,0,0,0,0,0,0,-1,1595,1604,7.42119,-7.14281
378,-580,7.9718,6.6731,0,0,0,0,0,0,0,-1,1602,1604,7.9718,-6.67307
385,-580,8.52246,6.20337,0,0,0,0,0,0,0,-1,1609,1604,8.52241,-6.20334
392,-580,16.9742,36.5361,0,0,0,0,0,0,0,-1,1616,1604,16.9743,-36.5361
399,-580,17.9883,37.3344,0,0,0,0,0,0,0,-1,1623,1604,17.9883,-37.3343
406,-580,17.9071,36.6821,0,0,0,0,0,0,0,-1,1630,1604,17.9071,-36.6822
413,-580,17.4049,36.3135,0,0,0,0,0,0,0,-1,1637,1604,17.4049,-36.3135
420,-580,17.9578,36.314,0,0,0,0,0,0,0,-1,1644,1604,17.9578,-36.3139
427,-580,17.7765,35.5636,-0.00644547,0.038966,-0.0166134,0.0443948,-0.0118743,-1.25496,0.0342479,0.0437911,1651,1604,17.7765,-35.5636
434,-580,17.4222,34.7749,-0.00504744,0.0338721,-0.0147507,0.0388308,-0.0100062,-1.24649,0.0297882,0.0417176,1658,1604,17.4223,-34.7749
441,-580,17.2015,33.9346,-0.00318822,0.0286416,-0.0128204,0.0331631,-0.00770973,-1.23174,0.0250768,0.0239998,1665,1604,17.2015,-33.9346
448,-580,17.2848,33.2894,-0.0015032,0.0238217,-0.0108352,0.0278248,-0.00550624,-1.2169,0.0206317,0.0175832,1672,1604,17.2848,-33.2895
455,-580,17.3529,32.7783,-0.00040211,0.0192042,-0.00916154,0.0228188,-0.00401669,-1.19501,0.0167131,0.0206398,1679,1604,17.3529,-32.7783
462,-580,17.321,32.2202,0.000576145,0.0148221,-0.00757775,0.0180991,-0.00270084,-1.16263,0.0130598,0.0229905,1686,1604,17.321,-32.2202
469,-580,17.3002,31.6604,0.00127636,0.0109458,-0.00591006,0.0137467,-0.00152459,-1.12822,0.00971264,0.0207212,1693,1604,17.3002,-31.6604
476,-580,17.2899,31.1243,0.00155905,0.0078288,-0.00431006,0.0100235,-0.000635619,-1.09982,0.00690395,0.0153842,1700,1604,17.2899,-31.1243
483,-580,17.2777,30.6187,0.00169031,0.0042284,-0.00280319,0.00603643,-0.000117716,-0.997952,0.00406409,0.0140003,1707,1604,17.2777,-30.6187
490,-580,17.243,30.1102,0.00133681,0.00239212,-0.00161678,0.00356518,0.000163762,-0.94313,0.00232412,0.0171436,1714,1604,17.243,-30.1102
497,-580,17.2314,29.5546,0.00048169,0.00116993,-0.000931643,0.00181897,-0.000167356,-0.96231,0.00127211,0.0137968,1721,1604,17.2315,-29.5546
504,-580,17.1935,28.9775,-0.000411396,2.3174e-05,-4.30401e-05,2.73957e-05,-0.000415618,-1.47302,0.000286647,0.0190151,1728,1604,17.1934,-28.9776
511,-580,17.1776,28.4177,-0.00103322,-0.00115486,0.00080274,-0.000288995,-0.00189908,0.747588,0.00118156,0.0187584,1735,1604,17.1776,-28.4177
518,-580,17.1388,27.874,-0.00163191,-0.00210736,0.00158041,-0.000271448,-0.00346783,0.710748,0.00222692,0.0168308,1742,1604,17.1388,-27.874
525,-580,17.137,27.3113,-0.00207078,-0.00318365,0.0025081,-5.81332e-05,-0.0051963,0.676239,0.00344499,0.0210606,1749,1604,17.137,-27.3113
532,-580,17.0907,26.7985,-0.00228907,-0.00448202,0.00371385,0.000486786,-0.00725787,0.641856,0.00500873,0.0307813,1756,1604,17.0908,-26.7984
539,-580,17.077,26.2421,0,0,0,0,0,0,0,-1,1763,1604,17.0771,-26.2421
546,-580,17.6906,25.5475,0,0,0,0,0,0,0,-1,1770,1604,17.6905,-25.5475
553,-580,18.2737,24.7345,0,0,0,0,0,0,0,-1,1777,1604,18.2737,-24.7345
560,-580,17.2449,25.2213,0,0,0,0,0,0,0,-1,1784,1604,17.2448,-25.2213
567,-580,3.87708,4.0647,0,0,0,0,0,0,0,-1,1791,1604,3.87711,-4.06471
574,-580,2.31653,5.62952,0,0,0,0,0,0,0,-1,1798,1604,2.31654,-5.62947
581,-580,1.60876,6.67664,0,0,0,0,0,0,0,-1,1805,1604,1.60873,-6.67667
588,-580,1.38684,7.14441,0,0,0,0,0,0,0,-1,1812,1604,1.38689,-7.14443
595,-580,0,0,0,0,0,0,0,0,0,-1,1819,1604,0,0
602,-580,0,0,0,0,0,0,0,0,0,-1,1826,1604,0,0
609,-580,0,0,0,0,0,0,0,0,0,-1,1833,1604,0,0
616,-580,0,0,0,0,0,0,0,0,0,-1,1840,1604,0,0
623,-580,0,0,0,0,0,0,0,0,0,-1,1847,1604,0,0
630,-580,0,0,0,0,0,0,0,0,0,-1,1854,1604,0,0
637,-580,0,0,0,0,0,0,0,0,0,-1,1861,1604,0,0
644,-580,0,0,0,0,0,0,0,0,0,-1,1868,1604,0,0
651,-580,0,0,0,0,0,0,0,0,0,-1,1875,1604,0,0
658,-580,0,0,0,0,0,0,0,0,0,-1,1882,1604,0,0
665,-580,0,0,0,0,0,0,0,0,0,-1,1889,1604,0,0
672,-580,0,0,0,0,0,0,0,0,0,-1,1896,1604,0,0
679,-580,0,0,0,0,0,0,0,0,0,-1,1903,1604,0,0
686,-580,0,0,0,0,0,0,0,0,0,-1,1910,1604,0,0
693,-580,0,0,0,0,0,0,0,0,0,-1,1917,1604,0,0
700,-580,0,0,0,0,0,0,0,0,0,-1,1924,1604,0,0
707,-580,0,0,0,0,0,0,0,0,0,-1,1931,1604,0,0
714,-580,0,0,0,0,0,0,0,0,0,-1,1938,1604,0,0
721,-580,0,0,0,0,0,0,0,0,0,-1,1945,1604,0,0
728,-580,0,0,0,0,0,0,0,0,0,-1,1952,1604,0,0
735,-580,0,0,0,0,0,0,0,0,0,-1,1959,1604,0,0
742,-580,0,0,0,0,0,0,0,0,0,-1,1966,1604,0,0
749,-580,0,0,0,0,0,0,0,0,0,-1,1973,1604,0,0
756,-580,0,0,0,0,0,0,0,0,0,-1,1980,1604,0,0
763,-580,0,0,0,0,0,0,0,0,0,-1,1987,1604,0,0
770,-580,0,0,0,0,0,0,0,0,0,-1,1994,1604,0,0
777,-580,0,0,0,0,0,0,0,0,0,-1,2001,1604,0,0
784,-580,0,0,0,0,0,0,0,0,0,-1,2008,1604,0,0
791,-580,0,0,0,0,0,0,0,0,0,-1,2015,1604,0,0
798,-580,0,0,0,0,0,0,0,0,0,-1,2022,1604,0,0
805,-580,0,0,0,0,0,0,0,0,0,-1,2029,1604,0,0
812,-580,0,0,0,0,0,0,0,0,0,-1,2036,1604,0,0
-700,-587,0,0,0,0,0,0,0,0,0,-1,524,1611,0,0
-693,-587,0,0,0,0,0,0,0,0,0,-1,531,1611,0,0
-686,-587,0,0,0,0,0,0,0,0,0,-1,538,1611,0,0
-679,-587,0,0,0,0,0,0,0,0,0,-1,545,1611,0,0
-672,-587,0,0,0,0,0,0,0,0,0,-1,552,1611,0,0
-665,-587,0,0,0,0,0,0,0,0,0,-1,559,1611,0,0
-658,-587,0,0,0,0,0,0,0,0,0,-1,566,1611,0,0
-651,-587,0,0,0,0,0,0,0,0,0,-1,573,1611,0,0
-644,-587,0,0,0,0,0,0,0,0,0,-1,580,1611,0,0
-637,-587,0,0,0,0,0,0,0,0,0,-1,587,1611,0,0
-630,-587,0,0,0,0,0,0,0,0,0,-1,594,1611,0,0
-623,-587,0,0,0,0,0,0,0,0,0,-1,601,1611,0,0
-616,-587,0,0,0,0,0,0,0,0,0,-1,608,1611,0,0
-609,-587,0,0,0,0,0,0,0,0,0,-1,615,1611,0,0
-602,-587,0,0,0,0,0,0,0,0,0,-1,622,1611,0,0
-595,-587,0,0,0,0,0,0,0,0,0,-1,629,1611,0,0
-588,-587,0,0,0,0,0,0,0,0,0,-1,636,1611,0,0
-581,-587,0,0,0,0,0,0,0,0,0,-1,643,1611,0,0
-574,-587,0,0,0,0,0,0,0,0,0,-1,650,1611,0,0
-567,-587,0,0,0,0,0,0,0,0,0,-1,657,1611,0,0
-560,-587,0,0,0,0,0,0,0,0,0,-1,664,1611,0,0
-553,-587,0,0,0,0,0,0,0,0,0,-1,671,1611,0,0
-546,-587,0,0,0,0,0,0,0,0,0,-1,678,1611,0,0
-539,-587,0,0,0,0,0,0,0,0,0,-1,685,1611,0,0
-532,-587,0,0,0,0,0,0,0,0,0,-1,692,1611,0,0
-525,-587,0,0,0,0,0,0,0,0,0,-1,699,1611,0,0
-518,-587,0,0,0,0,0,0,0,0,0,-1,706,1611,0,0
-511,-587,0,0,0,0,0,0,0,0,0,-1,713,1611,0,0
-504,-587,0,0,0,0,0,0,0,0,0,-1,720,1611,0,0
-497,-587,0,0,0,0,0,0,0,0,0,-1,727,1611,0,0
-490,-587,0,0,0,0,0,0,0,0,0,-1,734,1611,0,0
-483,-587,0,0,0,0,0,0,0,0,0,-1,741,1611,0,0
-476,-587,0,0,0,0,0,0,0,0,0,-1,748,1611,0,0
-469,-587,0,0,0,0,0,0,0,0,0,-1,755,1611,0,0
-462,-587,-0.714355,-0.418457,0,0,0,0,0,0,0,-1,762,1611,-0.714359,0.418483
-455,-587,-0.619812,-0.522461,0,0,0,0,0,0,0,-1,769,1611,-0.619802,0.522515
-448,-587,-0.461731,-0.686523,0,0,0,0,0,0,0,-1,776,1611,-0.461739,0.686559
-441,-587,-3.56555,2.72253,0,0,0,0,0,0,0,-1,783,1611,-3.56555,-2.72259
-434,-587,-1.77319,4.76318,0,0,0,0,0,0,0,-1,790,1611,-1.77318,-4.76323
-427,-587,0.0346069,6.92944,0,0,0,0,0,0,0,-1,797,1611,0.034587,-6.92941
-420,-587,-0.647156,10.1157,0,0,0,0,0,0,0,-1,804,1611,-0.647128,-10.1158
-413,-587,2.13971,10.3901,0,0,0,0,0,0,0,-1,811,1611,2.13971,-10.3902
-406,-587,2.2525,19.7814,0,0,0,0,0,0,0,-1,818,1611,2.25253,-19.7814
-399,-587,0.846069,25.9077,0,0,0,0,0,0,0,-1,825,1611,0.846088,-25.9077
-392,-587,1.02661,26.5065,-0.00512017,-0.00308292,-0.000552073,-0.00294293,-0.00526015,-1.32246,0.0030441,0.0471937,832,1611,1.02659,-26.5065
-385,-587,0.787476,27.1268,-0.00351793,-0.00289391,-0.000133647,-0.00286649,-0.00354535,-1.36845,0.00217292,0.0235532,839,1611,0.787483,-27.1268
-378,-587,0.783325,27.7823,-0.00250068,-0.00275073,7.74142e-05,-0.00247866,-0.00277276,0.277204,0.00175869,0.0144971,846,1611,0.783299,-27.7823
-371,-587,0.759949,28.3943,-0.00165444,-0.00242762,0.000204568,-0.00160365,-0.00247841,0.243352,0.00145139,0.0150183,853,1611,0.759959,-28.3942
-364,-587,0.755249,28.9631,-0.000816588,-0.00186369,0.000419386,-0.000669326,-0.00201095,0.337687,0.00118245,0.0179309,860,1611,0.755276,-28.9631
-357,-587,0.736511,29.4856,5.82575e-05,-0.00109205,0.000704158,0.000392301,-0.0014261,0.442948,0.00110496,0.0157117,867,1611,0.736536,-29.4857
-350,-587,0.697449,30.1056,0.00100329,-0.000242137,0.00104978,0.00160116,-0.000840002,0.517701,0.00143206,0.00968646,874,1611,0.697461,-30.1055
-343,-587,0.670166,30.6891,0.00190538,0.000836138,0.00150041,0.00296357,-0.000222051,0.614253,0.00205373,0.0127147,881,1611,0.670144,-30.689
-336,-587,0.655029,31.2092,0.00298848,0.00213008,0.00215038,0.00475207,0.000366489,0.686896,0.00305323,0.0129844,888,1611,0.655037,-31.2092
-329,-587,0.628235,31.7573,0.00438417,0.00425935,0.00330019,0.00762254,0.00102098,0.775944,0.00477787,0.0147493,895,1611,0.628258,-31.7573
-322,-587,0.645813,32.3518,0.00565625,0.00627205,0.00445106,0.0104258,0.00150246,0.819931,0.00650782,0.0185378,902,1611,0.645816,-32.3518
-315,-587,0.631104,32.8857,0.00710363,0.00892371,0.00593875,0.0140217,0.0020056,0.861426,0.0087562,0.01505,909,1611,0.63112,-32.8857
-308,-587,0.613708,33.4525,0.00875358,0.0117351,0.00767645,0.0180642,0.0024245,0.881305,0.0113215,0.0145218,916,1611,0.613692,-33.4525
-301,-587,0.677734,34.0526,0.0106399,0.0148625,0.00979564,0.0227718,0.00273064,0.891541,0.0143578,0.0152555,923,1611,0.677723,-34.0527
-294,-587,0.74762,34.666,0.0127714,0.0186717,0.0123568,0.0284256,0.0030175,0.90258,0.0180289,0.0282893,930,1611,0.747615,-34.666
-287,-587,0.765198,35.355,0.0153517,0.0234454,0.0154218,0.0353425,0.00345465,0.913711,0.0224987,0.0428935,937,1611,0.765193,-35.355
-280,-587,1.22906,36.3779,0.0181463,0.0289689,0.0189765,0.0432906,0.00382463,0.92429,0.0276738,0.0494033,944,1611,1.22909,-36.378
-273,-587,0.998413,36.8,0,0,0,0,0,0,0,-1,951,1611,0.998424,-36.8001
-266,-587,1.03076,37.6383,0,0,0,0,0,0,0,-1,958,1611,1.03076,-37.6383
-259,-587,1.76306,28.5784,0,0,0,0,0,0,0,-1,965,1611,1.76307,-28.5784
-252,-587,1.30188,10.3103,0,0,0,0,0,0,0,-1,972,1611,1.30188,-10.3104
-245,-587,1.52075,27.4791,0,0,0,0,0,0,0,-1,979,1611,1.52076,-27.4791
-238,-587,2.87799,9.53821,0,0,0,0,0,0,0,-1,986,1611,2.87797,-9.53823
-231,-587,2.49548,9.14465,0,0,0,0,0,0,0,-1,993,1611,2.49551,-9.14468
-224,-587,-9.72528,9.21069,0,0,0,0,0,0,0,-1,1000,1611,-9.72529,-9.21072
-217,-587,-7.07495,10.7847,0,0,0,0,0,0,0,-1,1007,1611,-7.07495,-10.7847
-210,-587,-4.72308,12.5889,0,0,0,0,0,0,0,-1,1014,1611,-4.72307,-12.5888
-203,-587,-3.2583,13.7289,0,0,0,0,0,0,0,-1,1021,1611,-3.25828,-13.7289
-196,-587,-1.953,14.8145,0,0,0,0,0,0,0,-1,1028,1611,-1.95302,-14.8144
-189,-587,-3.04138,8.66638,0,0,0,0,0,0,0,-1,1035,1611,-3.04136,-8.66635
-182,-587,-3.97095,9.7146,0,0,0,0,0,0,0,-1,1042,1611,-3.97093,-9.71461
-175,-587,-4.80969,8.37878,0,0,0,0,0,0,0,-1,1049,1611,-4.80964,-8.37883
-168,-587,-5.91394,8.72546,0,0,0,0,0,0,0,-1,1056,1611,-5.91398,-8.72542
-161,-587,-7.06946,8.88501,0,0,0,0,0,0,0,-1,1063,1611,-7.06947,-8.885
-154,-587,-2.24731,6.56519,0,0,0,0,0,0,0,-1,1070,1611,-2.24728,-6.56517
-147,-587,0,0,0,0,0,0,0,0,0,-1,1077,1611,0,0
-140,-587,0,0,0,0,0,0,0,0,0,-1,1084,1611,0,0
-133,-587,0,0,0,0,0,0,0,0,0,-1,1091,1611,0,0
-126,-587,0,0,0,0,0,0,0,0,0,-1,1098,1611,0,0
-119,-587,0,0,0,0,0,0,0,0,0,-1,1105,1611,0,0
-112,-587,0,0,0,0,0,0,0,0,0,-1,1112,1611,0,0
-105,-587,0,0,0,0,0,0,0,0,0,-1,1119,1611,0,0
-98,-587,0,0,0,0,0,0,0,0,0,-1,1126,1611,0,0
-91,-587,0,0,0,0,0,0,0,0,0,-1,1133,1611,0,0
-84,-587,0,0,0,0,0,0,0,0,0,-1,1140,1611,0,0
-77,-587,0,0,0,0,0,0,0,0,0,-1,1147,1611,0,0
-70,-587,0,0,0,0,0,0,0,0,0,-1,1154,1611,0,0
-63,-587,0,0,0,0,0,0,0,0,0,-1,1161,1611,0,0
-56,-587,0,0,0,0,0,0,0,0,0,-1,1168,1611,0,0
-49,-587,0,0,0,0,0,0,0,0,0,-1,1175,1611,0,0
-42,-587,0,0,0,0,0,0,0,0,0,-1,1182,1611,0,0
-35,-587,0,0,0,0,0,0,0,0,0,-1,1189,1611,0,0
-28,-587,0,0,0,0,0,0,0,0,0,-1,1196,1611,0,0
-21,-587,0,0,0,0,0,0,0,0,0,-1,1203,1611,0,0
-14,-587,0,0,0,0,0,0,0,0,0,-1,1210,1611,0,0
-7,-587,0,0,0,0,0,0,0,0,0,-1,1217,1611,0,0
0,-587,0,0,0,0,0,0,0,0,0,-1,1224,1611,0,0
7,-587,0,0,0,0,0,0,0,0,0,-1,1231,1611,0,0
14,-587,0,0,0,0,0,0,0,0,0,-1,1238,1611,0,0
21,-587,0,0,0,0,0,0,0,0,0,-1,1245,1611,0,0
28,-587,0,0,0,0,0,0,0,0,0,-1,1252,1611,0,0
35,-587,0,0,0,0,0,0,0,0,0,-1,1259,1611,0,0
42,-587,0,0,0,0,0,0,0,0,0,-1,1266,1611,0,0
49,-587,0,0,0,0,0,0,0,0,0,-1,1273,1611,0,0
56,-587,0,0,0,0,0,0,0,0,0,-1,1280,1611,0,0
63,-587,0,0,0,0,0,0,0,0,0,-1,1287,1611,0,0
70,-587,0,0,0,0,0,0,0,0,0,-1,1294,1611,0,0
77,-587,0,0,0,0,0,0,0,0,0,-1,1301,1611,0,0
84,-587,0,0,0,0,0,0,0,0,0,-1,1308,1611,0,0
91,-587,0,0,0,0,0,0,0,0,0,-1,1315,1611,0,0
98,-587,0,0,0,0,0,0,0,0,0,-1,1322,1611,0,0
105,-587,0,0,0,0,0,0,0,0,0,-1,1329,1611,0,0
112,-587,0,0,0,0,0,0,0,0,0,-1,1336,1611,0,0
119,-587,0,0,0,0,0,0,0,0,0,-1,1343,1611,0,0
126,-587,0,0,0,0,0,0,0,0,0,-1,1350,1611,0,0
133,-587,0,0,0,0,0,0,0,0,0,-1,1357,1611,0,0
140,-587,0,0,0,0,0,0,0,0,0,-1,1364,1611,0,0
147,-587,0,0,0,0,0,0,0,0,0,-1,1371,1611,0,0
154,-587,0,0,0,0,0,0,0,0,0,-1,1378,1611,0,0
161,-587,0,0,0,0,0,0,0,0,0,-1,1385,1611,0,0
168,-587,0,0,0,0,0,0,0,0,0,-1,1392,1611,0,0
175,-587,0,0,0,0,0,0,0,0,0,-1,1399,1611,0,0
182,-587,0,0,0,0,0,0,0,0,0,-1,1406,1611,0,0
189,-587,0,0,0,0,0,0,0,0,0,-1,1413,1611,0,0
196,-587,0,0,0,0,0,0,0,0,0,-1,1420,1611,0,0
203,-587,0,0,0,0,0,0,0,0,0,-1,1427,1611,0,0
210,-587,0,0,0,0,0,0,0,0,0,-1,1434,1611,0,0
217,-587,0,0,0,0,0,0,0,0,0,-1,1441,1611,0,0
224,-587,0,0,0,0,0,0,0,0,0,-1,1448,1611,0,0
231,-587,0,0,0,0,0,0,0,0,0,-1,1455,1611,0,0
238,-587,0,0,0,0,0,0,0,0,0,-1,1462,1611,0,0
245,-587,0,0,0,0,0,0,0,0,0,-1,1469,1611,0,0
252,-587,0,0,0,0,0,0,0,0,0,-1,1476,1611,0,0
259,-587,0,0,0,0,0,0,0,0,0,-1,1483,1611,0,0
266,-587,0,0,0,0,0,0,0,0,0,-1,1490,1611,0,0
273,-587,10.2936,6.35083,0,0,0,0,0,0,0,-1,1497,1611,10.2936,-6.35087
280,-587,2.09204,1.1217,0,0,0,0,0,0,0,-1,1504,1611,2.092,-1.12176
287,-587,3.2865,0.671509,0,0,0,0,0,0,0,-1,1511,1611,3.28656,-0.671538
294,-587,4.24646,1.58765,0,0,0,0,0,0,0,-1,1518,1611,4.24648,-1.58761
301,-587,7.60474,8.37085,0,0,0,0,0,0,0,-1,1525,1611,7.60478,-8.37084
308,-587,5.99316,10.2291,0,0,0,0,0,0,0,-1,1532,1611,5.99315,-10.2291
315,-587,4.34558,12.3289,0,0,0,0,0,0,0,-1,1539,1611,4.34556,-12.3288
322,-587,10.4526,6.38245,0,0,0,0,0,0,0,-1,1546,1611,10.4526,-6.38245
329,-587,10.7738,8.42444,0,0,0,0,0,0,0,-1,1553,1611,10.7738,-8.42438
336,-587,7.5531,5.96619,0,0,0,0,0,0,0,-1,1560,1611,7.55311,-5.96617
343,-587,9.57495,4.38391,0,0,0,0,0,0,0,-1,1567,1611,9.57494,-4.38397
350,-587,9.50378,3.45093,0,0,0,0,0,0,0,-1,1574,1611,9.50376,-3.4509
357,-587,9.40027,2.50806,0,0,0,0,0,0,0,-1,1581,1611,9.40022,-2.50803
364,-587,9.26477,1.34131,0,0,0,0,0,0,0,-1,1588,1611,9.26479,-1.34126
371,-587,6.98926,7.87561,0,0,0,0,0,0,0,-1,1595,1611,6.98928,-7.87564
378,-587,9.25146,13.8358,0,0,0,0,0,0,0,-1,1602,1611,9.2515,-13.8359
385,-587,15.0664,38.1605,0,0,0,0,0,0,0,-1,1609,1611,15.0664,-38.1606
392,-587,17.2643,36.8208,0,0,0,0,0,0,0,-1,1616,1611,17.2643,-36.8208
399,-587,17.0172,37.069,0,0,0,0,0,0,0,-1,1623,1611,17.0173,-37.0689
406,-587,16.9791,36.6547,-0.00341261,0.0367806,-0.0149824,0.0417508,-0.00838284,-1.25048,0.0310082,0.0417683,1630,1611,16.9791,-36.6547
413,-587,16.905,36.1312,-0.00387213,0.0342736,-0.0139077,0.0388058,-0.00840432,-1.25577,0.0290796,0.0414237,1637,1611,16.905,-36.1312
420,-587,16.7328,35.4304,-0.00410406,0.0310669,-0.0127139,0.0351815,-0.00821863,-1.25781,0.0266202,0.0387738,1644,1611,16.7327,-35.4304
427,-587,16.9974,34.5822,0,0,0,0,0,0,0,-1,1651,1611,16.9975,-34.5822
434,-587,16.7858,34.2908,-0.00311036,0.0244891,-0.0103146,0.027918,-0.00653923,-1.24986,0.0211317,0.0226092,1658,1611,16.7857,-34.2907
441,-587,16.783,33.6909,-0.00193572,0.0208593,-0.00909177,0.0240413,-0.00511777,-1.23413,0.017978,0.0249351,1665,1611,16.783,-33.6909
448,-587,16.7957,33.2913,-0.000849982,0.0174693,-0.00774846,0.020307,-0.00368774,-1.21973,0.01492,0.0167335,1672,1611,16.7956,-33.2913
455,-587,16.795,32.7887,-0.000204635,0.0140465,-0.0066044,0.0166365,-0.0027946,-1.19707,0.0121303,0.0148706,1679,1611,16.795,-32.7887
462,-587,16.7839,32.2631,0.000395729,0.0106559,-0.00546223,0.0130194,-0.00196777,-1.16242,0.00940438,0.01882,1686,1611,16.7839,-32.2631
469,-587,16.7635,31.7449,0.000829769,0.00761045,-0.0042059,0.00962233,-0.00118211,-1.12462,0.00684304,0.0175306,1693,1611,16.7635,-31.7449
476,-587,16.7485,31.2086,0.000933695,0.00516339,-0.00295249,0.00668031,-0.000583228,-1.09619,0.00466013,0.011192,1700,1611,16.7485,-31.2086
483,-587,16.7006,30.6615,0.000840449,0.0024016,-0.00179093,0.00357466,-0.000332618,-0.99091,0.00250136,0.0136663,1707,1611,16.7006,-30.6616
490,-587,16.6749,30.1267,0.000358116,0.000913175,-0.000849161,0.00152901,-0.000257717,-0.94334,0.00111521,0.0169414,1714,1611,16.6749,-30.1267
497,-587,16.6558,29.5938,-0.000514144,-0.000100338,-0.000287357,4.68533e-05,-0.000661336,-1.09742,0.000457309,0.0138566,1721,1611,16.6557,-29.5938
504,-587,16.6401,29.0435,-0.00141046,-0.00103414,0.00055225,-0.000638877,-0.00180572,0.949585,0.00105729,0.0141508,1728,1611,16.6402,-29.0435
511,-587,16.6044,28.4935,-0.00199543,-0.00211282,0.00137122,-0.000681655,-0.0034266,0.764007,0.00209449,0.0162142,1735,1611,16.6044,-28.4935
518,-587,16.6138,27.9355,-0.0025891,-0.00289565,0.00211428,-0.000622542,-0.00486221,0.749213,0.00305517,0.0158016,1742,1611,16.6137,-27.9356
525,-587,16.6632,27.4293,-0.00305972,-0.00392188,0.00309868,-0.000362283,-0.00661932,0.716283,0.00429721,0.0272934,1749,1611,16.6632,-27.4294
532,-587,16.6361,26.8207,-0.00330242,-0.00517934,0.00445844,0.000315259,-0.00879702,0.681667,0.00597254,0.0404001,1756,1611,16.6361,-26.8206
539,-587,16.6531,25.9608,0,0,0,0,0,0,0,-1,1763,1611,16.6531,-25.9609
546,-587,17.6716,25.2673,0,0,0,0,0,0,0,-1,1770,1611,17.6716,-25.2674
553,-587,7.5813,8.45068,0,0,0,0,0,0,0,-1,1777,1611,7.58125,-8.45068
560,-587,4.21179,5.23547,0,0,0,0,0,0,0,-1,1784,1611,4.21185,-5.23553
567,-587,4.03711,5.46387,0,0,0,0,0,0,0,-1,1791,1611,4.03715,-5.46382
574,-587,3.83142,5.68884,0,0,0,0,0,0,0,-1,1798,1611,3.83141,-5.68881
581,-587,3.47168,6.00977,0,0,0,0,0,0,0,-1,1805,1611,3.47167,-6.00983
588,-587,0,0,0,0,0,0,0,0,0,-1,1812,1611,0,0
595,-587,0,0,0,0,0,0,0,0,0,-1,1819,1611,0,0
602,-587,0,0,0,0,0,0,0,0,0,-1,1826,1611,0,0
609,-587,0,0,0,0,0,0,0,0,0,-1,1833,1611,0,0
616,-587,0,0,0,0,0,0,0,0,0,-1,1840,1611,0,0
623,-587,0,0,0,0,0,0,0,0,0,-1,1847,1611,0,0
630,-587,0,0,0,0,0,0,0,0,0,-1,1854,1611,0,0
637,-587,0,0,0,0,0,0,0,0,0,-1,1861,1611,0,0
644,-587,0,0,0,0,0,0,0,0,0,-1,1868,1611,0,0
651,-587,0,0,0,0,0,0,0,0,0,-1,1875,1611,0,0
658,-587,0,0,0,0,0,0,0,0,0,-1,1882,1611,0,0
665,-587,0,0,0,0,0,0,0,0,0,-1,1889,1611,0,0
672,-587,0,0,0,0,0,0,0,0,0,-1,1896,1611,0,0
679,-587,0,0,0,0,0,0,0,0,0,-1,1903,1611,0,0
686,-587,0,0,0,0,0,0,0,0,0,-1,1910,1611,0,0
693,-587,0,0,0,0,0,0,0,0,0,-1,1917,1611,0,0
700,-587,0,0,0,0,0,0,0,0,0,-1,1924,1611,0,0
707,-587,0,0,0,0,0,0,0,0,0,-1,1931,1611,0,0
714,-587,0,0,0,0,0,0,0,0,0,-1,1938,1611,0,0
721,-587,0,0,0,0,0,0,0,0,0,-1,1945,1611,0,0
728,-587,0,0,0,0,0,0,0,0,0,-1,1952,1611,0,0
735,-587,0,0,0,0,0,0,0,0,0,-1,1959,1611,0,0
742,-587,0,0,0,0,0,0,0,0,0,-1,1966,1611,0,0
749,-587,0,0,0,0,0,0,0,0,0,-1,1973,1611,0,0
756,-587,0,0,0,0,0,0,0,0,0,-1,1980,1611,0,0
763,-587,0,0,0,0,0,0,0,0,0,-1,1987,1611,0,0
770,-587,0,0,0,0,0,0,0,0,0,-1,1994,1611,0,0
777,-587,0,0,0,0,0,0,0,0,0,-1,2001,1611,0,0
784,-587,0,0,0,0,0,0,0,0,0,-1,2008,1611,0,0
791,-587,0,0,0,0,0,0,0,0,0,-1,2015,1611,0,0
798,-587,0,0,0,0,0,0,0,0,0,-1,2022,1611,0,0
805,-587,0,0,0,0,0,0,0,0,0,-1,2029,1611,0,0
812,-587,0,0,0,0,0,0,0,0,0,-1,2036,1611,0,0
-700,-594,0,0,0,0,0,0,0,0,0,-1,524,1618,0,0
-693,-594,0,0,0,0,0,0,0,0,0,-1,531,1618,0,0
-686,-594,0,0,0,0,0,0,0,0,0,-1,538,1618,0,0
-679,-594,0,0,0,0,0,0,0,0,0,-1,545,1618,0,0
-672,-594,0,0,0,0,0,0,0,0,0,-1,552,1618,0,0
-665,-594,0,0,0,0,0,0,0,0,0,-1,559,1618,0,0
-658,-594,0,0,0,0,0,0,0,0,0,-1,566,1618,0,0
-651,-594,0,0,0,0,0,0,0,0,0,-1,573,1618,0,0
-644,-594,0,0,0,0,0,0,0,0,0,-1,580,1618,0,0
-637,-594,0,0,0,0,0,0,0,0,0,-1,587,1618,0,0
-630,-594,0,0,0,0,0,0,0,0,0,-1,594,1618,0,0
-623,-594,0,0,0,0,0,0,0,0,0,-1,601,1618,0,0
-616,-594,0,0,0,0,0,0,0,0,0,-1,608,1618,0,0
-609,-594,0,0,0,0,0,0,0,0,0,-1,615,1618,0,0
-602,-594,0,0,0,0,0,0,0,0,0,-1,622,1618,0,0
-595,-594,0,0,0,0,0,0,0,0,0,-1,629,1618,0,0
-588,-594,0,0,0,0,0,0,0,0,0,-1,636,1618,0,0
-581,-594,0,0,0,0,0,0,0,0,0,-1,643,1618,0,0
-574,-594,0,0,0,0,0,0,0,0,0,-1,650,1618,0,0
-567,-594,0,0,0,0,0,0,0,0,0,-1,657,1618,0,0
-560,-594,0,0,0,0,0,0,0,0,0,-1,664,1618,0,0
-553,-594,0,0,0,0,0,0,0,0,0,-1,671,1618,0,0
-546,-594,0,0,0,0,0,0,0,0,0,-1,678,1618,0,0
-539,-594,0,0,0,0,0,0,0,0,0,-1,685,1618,0,0
-532,-594,0,0,0,0,0,0,0,0,0,-1,692,1618,0,0
-525,-594,0,0,0,0,0,0,0,0,0,-1,699,1618,0,0
-518,-594,0,0,0,0,0,0,0,0,0,-1,706,1618,0,0
-511,-594,0,0,0,0,0,0,0,0,0,-1,713,1618,0,0
-504,-594,0,0,0,0,0,0,0,0,0,-1,720,1618,0,0
-497,-594,0,0,0,0,0,0,0,0,0,-1,727,1618,0,0
-490,-594,0,0,0,0,0,0,0,0,0,-1,734,1618,0,0
-483,-594,0,0,0,0,0,0,0,0,0,-1,741,1618,0,0
-476,-594,0,0,0,0,0,0,0,0,0,-1,748,1618,0,0
-469,-594,0,0,0,0,0,0,0,0,0,-1,755,1618,0,0
-462,-594,0,0,0,0,0,0,0,0,0,-1,762,1618,0,0
-455,-594,-0.509216,-1.58411,0,0,0,0,0,0,0,-1,769,1618,-0.509245,1.58415
-448,-594,-7.71887,-0.0559082,0,0,0,0,0,0,0,-1,776,1618,-7.71885,0.055939
-441,-594,-5.78473,1.18298,0,0,0,0,0,0,0,-1,783,1618,-5.78474,-1.18295
-434,-594,-3.93628,3.06213,0,0,0,0,0,0,0,-1,790,1618,-3.93631,-3.06208
-427,-594,-3.97693,6.77759,0,0,0,0,0,0,0,-1,797,1618,-3.97695,-6.77764
-420,-594,-2.53046,7.71606,0,0,0,0,0,0,0,-1,804,1618,-2.53047,-7.71609
-413,-594,-0.860413,8.00391,0,0,0,0,0,0,0,-1,811,1618,-0.860423,-8.00389
-406,-594,2.45746,13.6218,0,0,0,0,0,0,0,-1,818,1618,2.45747,-13.6218
-399,-594,1.30414,24.9963,0,0,0,0,0,0,0,-1,825,1618,1.30415,-24.9963
-392,-594,1.88434,26.4602,0,0,0,0,0,0,0,-1,832,1618,1.88435,-26.4602
-385,-594,1.43665,27.395,-0.0042733,-0.00420177,-0.00016273,-0.00407092,-0.00440415,-0.893578,0.00283157,0.0363955,839,1618,1.43667,-27.395
-378,-594,1.31873,27.8096,-0.00321849,-0.00404724,-1.52479e-05,-0.00321821,-0.00404752,-0.0183904,0.00246878,0.0172133,846,1618,1.31875,-27.8096
-371,-594,1.33868,28.4229,-0.00236149,-0.00367092,6.41153e-05,-0.00235836,-0.00367406,0.0488085,0.0021495,0.0130948,853,1618,1.33869,-28.4229
-364,-594,1.32758,28.9808,-0.00154332,-0.00311376,0.000200575,-0.00151811,-0.00313897,0.125045,0.00181261,0.0109757,860,1618,1.32758,-28.9808
-357,-594,1.30634,29.5486,-0.000692435,-0.00233818,0.00041625,-0.000593145,-0.00243747,0.234158,0.00146777,0.0104771,867,1618,1.30635,-29.5486
-350,-594,1.26251,30.1484,0.000191801,-0.00148598,0.000685968,0.000436557,-0.00173074,0.342723,0.00132356,0.0151327,874,1618,1.26253,-30.1485
-343,-594,1.22089,30.728,0.00102014,-0.00044864,0.00104106,0.00155978,-0.000988276,0.47822,0.0014834,0.0173953,881,1618,1.22091,-30.728
-336,-594,1.18915,31.2495,0.00197686,0.000723657,0.00155485,0.00302663,-0.000326106,0.593854,0.00213477,0.0141764,888,1618,1.18914,-31.2495
-329,-594,1.19037,31.8088,0.00314366,0.0025978,0.00244973,0.00533562,0.000405839,0.729921,0.00342981,0.0142623,895,1618,1.19035,-31.8088
-322,-594,1.22552,32.4027,0.00418775,0.00435001,0.00334425,0.00761411,0.000923641,0.797526,0.00479792,0.0173923,902,1618,1.22552,-32.4027
-315,-594,1.22485,32.9263,0.00535457,0.00657884,0.00449903,0.0105072,0.00142622,0.853012,0.0065811,0.0175843,909,1618,1.22484,-32.9263
-308,-594,1.19086,33.4648,0.00666377,0.00891587,0.00581678,0.0137146,0.00186505,0.881008,0.00858914,0.0148375,916,1618,1.19085,-33.4648
-301,-594,1.16675,33.991,0.00814614,0.011445,0.00742582,0.0174024,0.00218877,0.894684,0.0109452,0.0120296,923,1618,1.16673,-33.991
-294,-594,1.198,34.5215,0.009784,0.0144335,0.00932468,0.0217189,0.00249867,0.907565,0.0137224,0.0143588,930,1618,1.198,-34.5214
-287,-594,1.14093,35.0425,0.0116586,0.0180085,0.011492,0.026756,0.00291102,0.920174,0.0169505,0.0236592,937,1618,1.14096,-35.0425
-280,-594,1.26855,35.644,0.0136555,0.0219283,0.0139502,0.0323425,0.00324137,0.929525,0.0205665,0.0279111,944,1618,1.26856,-35.6441
-273,-594,1.28259,36.3331,0.0155487,0.0253894,0.016372,0.0375644,0.0033737,0.931373,0.0239976,0.0334268,951,1618,1.28259,-36.3331
-266,-594,1.35529,37.1099,0.0173579,0.0291404,0.0188593,0.0430072,0.00349113,0.936786,0.0275815,0.0407509,958,1618,1.35531,-37.1099
-259,-594,1.40985,37.726,0,0,0,0,0,0,0,-1,965,1618,1.40988,-37.726
-252,-594,2.15692,38.1925,0,0,0,0,0,0,0,-1,972,1618,2.15695,-38.1925
-245,-594,2.27759,35.1766,0,0,0,0,0,0,0,-1,979,1618,2.27756,-35.1766
-238,-594,2.09015,28.0121,0,0,0,0,0,0,0,-1,986,1618,2.09012,-28.0121
-231,-594,1.93774,9.35388,0,0,0,0,0,0,0,-1,993,1618,1.93776,-9.35393
-224,-594,1.81824,8.62744,0,0,0,0,0,0,0,-1,1000,1618,1.81822,-8.62745
-217,-594,-8.24066,12.0752,0,0,0,0,0,0,0,-1,1007,1618,-8.24068,-12.0751
-210,-594,-5.61438,14.2119,0,0,0,0,0,0,0,-1,1014,1618,-5.6144,-14.212
-203,-594,-3.94507,15.5768,0,0,0,0,0,0,0,-1,1021,1618,-3.94506,-15.5768
-196,-594,2.78613,10.5815,0,0,0,0,0,0,0,-1,1028,1618,2.78612,-10.5815
-189,-594,2.60913,9.48865,0,0,0,0,0,0,0,-1,1035,1618,2.6091,-9.48871
-182,-594,1.2395,9.38806,0,0,0,0,0,0,0,-1,1042,1618,1.23951,-9.38804
-175,-594,0.234863,8.73792,0,0,0,0,0,0,0,-1,1049,1618,0.234812,-8.73786
-168,-594,-0.495483,8.46289,0,0,0,0,0,0,0,-1,1056,1618,-0.495513,-8.46285
-161,-594,-1.39734,8.28699,0,0,0,0,0,0,0,-1,1063,1618,-1.39729,-8.28699
-154,-594,-0.000854492,7.68445,0,0,0,0,0,0,0,-1,1070,1618,-0.000805755,-7.6845
-147,-594,0.348267,9.3385,0,0,0,0,0,0,0,-1,1077,1618,0.348237,-9.33849
-140,-594,0.675171,11.5884,0,0,0,0,0,0,0,-1,1084,1618,0.675204,-11.5884
-133,-594,0,0,0,0,0,0,0,0,0,-1,1091,1618,0,0
-126,-594,0,0,0,0,0,0,0,0,0,-1,1098,1618,0,0
-119,-594,0,0,0,0,0,0,0,0,0,-1,1105,1618,0,0
-112,-594,0,0,0,0,0,0,0,0,0,-1,1112,1618,0,0
-105,-594,0,0,0,0,0,0,0,0,0,-1,1119,1618,0,0
-98,-594,0,0,0,0,0,0,0,0,0,-1,1126,1618,0,0
-91,-594,0,0,0,0,0,0,0,0,0,-1,1133,1618,0,0
-84,-594,0,0,0,0,0,0,0,0,0,-1,1140,1618,0,0
-77,-594,0,0,0,0,0,0,0,0,0,-1,1147,1618,0,0
-70,-594,0,0,0,0,0,0,0,0,0,-1,1154,1618,0,0
-63,-594,0,0,0,0,0,0,0,0,0,-1,1161,1618,0,0
-56,-594,0,0,0,0,0,0,0,0,0,-1,1168,1618,0,0
-49,-594,0,0,0,0,0,0,0,0,0,-1,1175,1618,0,0
-42,-594,0,0,0,0,0,0,0,0,0,-1,1182,1618,0,0
-35,-594,0,0,0,0,0,0,0,0,0,-1,1189,1618,0,0
-28,-594,0,0,0,0,0,0,0,0,0,-1,1196,1618,0,0
-21,-594,0,0,0,0,0,0,0,0,0,-1,1203,1618,0,0
-14,-594,0,0,0,0,0,0,0,0,0,-1,1210,1618,0,0
-7,-594,0,0,0,0,0,0,0,0,0,-1,1217,1618,0,0
0,-594,0,0,0,0,0,0,0,0,0,-1,1224,1618,0,0
7,-594,0,0,0,0,0,0,0,0,0,-1,1231,1618,0,0
14,-594,0,0,0,0,0,0,0,0,0,-1,1238,1618,0,0
21,-594,0,0,0,0,0,0,0,0,0,-1,1245,1618,0,0
28,-594,0,0,0,0,0,0,0,0,0,-1,1252,1618,0,0
35,-594,0,0,0,0,0,0,0,0,0,-1,1259,1618,0,0
42,-594,0,0,0,0,0,0,0,0,0,-1,1266,1618,0,0
49,-594,0,0,0,0,0,0,0,0,0,-1,1273,1618,0,0
56,-594,0,0,0,0,0,0,0,0,0,-1,1280,1618,0,0
63,-594,0,0,0,0,0,0,0,0,0,-1,1287,1618,0,0
70,-594,0,0,0,0,0,0,0,0,0,-1,1294,1618,0,0
77,-594,0,0,0,0,0,0,0,0,0,-1,1301,1618,0,0
84,-594,0,0,0,0,0,0,0,0,0,-1,1308,1618,0,0
91,-594,0,0,0,0,0,0,0,0,0,-1,1315,1618,0,0
98,-594,0,0,0,0,0,0,0,0,0,-1,1322,1618,0,0
105,-594,0,0,0,0,0,0,0,0,0,-1,1329,1618,0,0
112,-594,0,0,0,0,0,0,0,0,0,-1,1336,1618,0,0
119,-594,0,0,0,0,0,0,0,0,0,-1,1343,1618,0,0
126,-594,0,0,0,0,0,0,0,0,0,-1,1350,1618,0,0
133,-594,0,0,0,0,0,0,0,0,0,-1,1357,1618,0,0
140,-594,0,0,0,0,0,0,0,0,0,-1,1364,1618,0,0
147,-594,0,0,0,0,0,0,0,0,0,-1,1371,1618,0,0
154,-594,0,0,0,0,0,0,0,0,0,-1,1378,1618,0,0
161,-594,0,0,0,0,0,0,0,0,0,-1,1385,1618,0,0
168,-594,0,0,0,0,0,0,0,0,0,-1,1392,1618,0,0
175,-594,0,0,0,0,0,0,0,0,0,-1,1399,1618,0,0
182,-594,0,0,0,0,0,0,0,0,0,-1,1406,1618,0,0
189,-594,0,0,0,0,0,0,0,0,0,-1,1413,1618,0,0
196,-594,0,0,0,0,0,0,0,0,0,-1,1420,1618,0,0
203,-594,0,0,0,0,0,0,0,0,0,-1,1427,1618,0,0
210,-594,0,0,0,0,0,0,0,0,0,-1,1434,1618,0,0
217,-594,0,0,0,0,0,0,0,0,0,-1,1441,1618,0,0
224,-594,0,0,0,0,0,0,0,0,0,-1,1448,1618,0,0
231,-594,0,0,0,0,0,0,0,0,0,-1,1455,1618,0,0
238,-594,0,0,0,0,0,0,0,0,0,-1,1462,1618,0,0
245,-594,0,0,0,0,0,0,0,0,0,-1,1469,1618,0,0
252,-594,3.03674,1.20996,0,0,0,0,0,0,0,-1,1476,1618,3.0368,-1.20999
259,-594,4.79834,1.53113,0,0,0,0,0,0,0,-1,1483,1618,4.79837,-1.53118
266,-594,3.71606,2.68152,0,0,0,0,0,0,0,-1,1490,1618,3.71609,-2.68149
273,-594,9.7655,6.33557,0,0,0,0,0,0,0,-1,1497,1618,9.76555,-6.33554
280,-594,3.13281,0.911255,0,0,0,0,0,0,0,-1,1504,1618,3.13277,-0.911207
287,-594,4.42749,1.51563,0,0,0,0,0,0,0,-1,1511,1618,4.42747,-1.51564
294,-594,5.36475,3.34937,0,0,0,0,0,0,0,-1,1518,1618,5.36475,-3.3494
301,-594,7.97144,9.04333,0,0,0,0,0,0,0,-1,1525,1618,7.9714,-9.04328
308,-594,6.30347,10.4633,0,0,0,0,0,0,0,-1,1532,1618,6.30351,-10.4633
315,-594,4.62012,11.934,0,0,0,0,0,0,0,-1,1539,1618,4.62006,-11.934
322,-594,2.91528,13.3134,0,0,0,0,0,0,0,-1,1546,1618,2.91523,-13.3133
329,-594,4.19861,9.77258,0,0,0,0,0,0,0,-1,1553,1618,4.19865,-9.77264
336,-594,10.1353,4.66528,0,0,0,0,0,0,0,-1,1560,1618,10.1353,-4.66533
343,-594,10.5729,3.71228,0,0,0,0,0,0,0,-1,1567,1618,10.5729,-3.71232
350,-594,10.219,2.98792,0,0,0,0,0,0,0,-1,1574,1618,10.219,-2.98797
357,-594,9.83154,1.96326,0,0,0,0,0,0,0,-1,1581,1618,9.8315,-1.96321
364,-594,9.74939,0.700562,0,0,0,0,0,0,0,-1,1588,1618,9.74939,-0.700615
371,-594,8.54297,14.3988,0,0,0,0,0,0,0,-1,1595,1618,8.54296,-14.3989
378,-594,16.1564,39.1158,0,0,0,0,0,0,0,-1,1602,1618,16.1563,-39.1158
385,-594,16.3105,38.397,0,0,0,0,0,0,0,-1,1609,1618,16.3106,-38.397
392,-594,15.7123,37.1038,0,0,0,0,0,0,0,-1,1616,1618,15.7123,-37.1038
399,-594,16.2062,36.9171,0.000704455,0.0310683,-0.0128503,0.0357766,-0.00400386,-1.21959,0.0252915,0.0435335,1623,1618,16.2061,-36.9172
406,-594,16.2885,36.5129,-0.000578836,0.0271893,-0.011062,0.0310573,-0.0044468,-1.23442,0.0223352,0.0268129,1630,1618,16.2884,-36.5129
413,-594,16.3356,36.0195,-0.0013577,0.0247911,-0.00994649,0.0281445,-0.0047111,-1.24562,0.0205145,0.0196075,1637,1618,16.3356,-36.0196
420,-594,16.3204,35.5018,-0.00190404,0.022144,-0.00889526,0.0250767,-0.00483671,-1.25233,0.0185415,0.0179973,1644,1618,16.3205,-35.5019
427,-594,16.3252,34.9366,-0.00200584,0.0198087,-0.00798815,0.022421,-0.00461816,-1.25474,0.0167009,0.0143405,1651,1618,16.3252,-34.9367
434,-594,16.2866,34.3939,-0.00170726,0.0173408,-0.0071598,0.0197319,-0.00409834,-1.24848,0.0147122,0.018679,1658,1618,16.2867,-34.3939
441,-594,16.2633,33.8473,-0.000963908,0.0147781,-0.00636455,0.0170294,-0.00321517,-1.23081,0.0125625,0.0167667,1665,1618,16.2633,-33.8473
448,-594,16.2866,33.321,-0.000282553,0.0123798,-0.00542515,0.0143863,-0.002289,-1.21656,0.0104379,0.016407,1672,1618,16.2867,-33.3211
455,-594,16.2646,32.7935,9.43439e-05,0.00983547,-0.00462376,0.0116807,-0.00175086,-1.19109,0.00843156,0.0122095,1679,1618,16.2646,-32.7934
462,-594,16.2502,32.2821,0.000438138,0.00720533,-0.00376705,0.00888527,-0.0012418,-1.15131,0.00637787,0.0137571,1686,1618,16.2503,-32.2821
469,-594,16.2356,31.7778,0.000668418,0.00482046,-0.00280109,0.00623097,-0.000742101,-1.1043,0.00442215,0.01254,1693,1618,16.2355,-31.7778
476,-594,16.2102,31.2482,0.000622716,0.00291241,-0.0018117,0.00391067,-0.000375548,-1.06718,0.00274089,0.0126801,1700,1618,16.2102,-31.2482
483,-594,16.1821,30.705,0.000313275,0.000900558,-0.0009332,0.00158523,-0.000371392,-0.937824,0.00119993,0.0152804,1707,1618,16.1822,-30.7049
490,-594,16.1499,30.1516,-0.000332833,-0.000288968,-0.000203059,-0.000106661,-0.00051514,-0.839194,0.000313971,0.0143342,1714,1618,16.1498,-30.1517
497,-594,16.1344,29.608,-0.00126736,-0.00114594,0.000267488,-0.000932358,-0.00148094,0.896983,0.000864538,0.011221,1721,1618,16.1344,-29.608
504,-594,16.1237,29.0593,-0.00221804,-0.00189935,0.00105675,-0.000989998,-0.00312739,0.86023,0.00184566,0.0117641,1728,1618,16.1236,-29.0594
511,-594,16.1068,28.4907,-0.00287106,-0.00296056,0.00183869,-0.00107658,-0.00475504,0.773231,0.00287906,0.0178297,1735,1618,16.1068,-28.4908
518,-594,16.0292,27.9047,-0.00361766,-0.00361701,0.00258096,-0.00103638,-0.0061983,0.785461,0.00383372,0.0242651,1742,1618,16.0292,-27.9046
525,-594,15.9448,27.2576,-0.00422112,-0.0045684,0.00362935,-0.000761263,-0.00802826,0.761495,0.00511733,0.0419209,1749,1618,15.9449,-27.2576
532,-594,15.9768,26.6334,0,0,0,0,0,0,0,-1,1756,1618,15.9768,-26.6335
539,-594,19.1785,24.6809,0,0,0,0,0,0,0,-1,1763,1618,19.1785,-24.681
546,-594,7.48645,8.54785,0,0,0,0,0,0,0,-1,1770,1618,7.48639,-8.54789
553,-594,3.69714,5.68762,0,0,0,0,0,0,0,-1,1777,1618,3.69715,-5.68764
560,-594,6.06616,4.44482,0,0,0,0,0,0,0,-1,1784,1618,6.06621,-4.44477
567,-594,5.97266,4.73303,0,0,0,0,0,0,0,-1,1791,1618,5.97271,-4.73309
574,-594,5.9906,4.96326,0,0,0,0,0,0,0,-1,1798,1618,5.99065,-4.96326
581,-594,0,0,0,0,0,0,0,0,0,-1,1805,1618,0,0
588,-594,0,0,0,0,0,0,0,0,0,-1,1812,1618,0,0
595,-594,0,0,0,0,0,0,0,0,0,-1,1819,1618,0,0
602,-594,0,0,0,0,0,0,0,0,0,-1,1826,1618,0,0
609,-594,0,0,0,0,0,0,0,0,0,-1,1833,1618,0,0
616,-594,0,0,0,0,0,0,0,0,0,-1,1840,1618,0,0
623,-594,0,0,0,0,0,0,0,0,0,-1,1847,1618,0,0
630,-594,0,0,0,0,0,0,0,0,0,-1,1854,1618,0,0
637,-594,0,0,0,0,0,0,0,0,0,-1,1861,1618,0,0
644,-594,0,0,0,0,0,0,0,0,0,-1,1868,1618,0,0
651,-594,0,0,0,0,0,0,0,0,0,-1,1875,1618,0,0
658,-594,0,0,0,0,0,0,0,0,0,-1,1882,1618,0,0
665,-594,0,0,0,0,0,0,0,0,0,-1,1889,1618,0,0
672,-594,0,0,0,0,0,0,0,0,0,-1,1896,1618,0,0
679,-594,0,0,0,0,0,0,0,0,0,-1,1903,1618,0,0
686,-594,0,0,0,0,0,0,0,0,0,-1,1910,1618,0,0
693,-594,0,0,0,0,0,0,0,0,0,-1,1917,1618,0,0
700,-594,0,0,0,0,0,0,0,0,0,-1,1924,1618,0,0
707,-594,0,0,0,0,0,0,0,0,0,-1,1931,1618,0,0
714,-594,0,0,0,0,0,0,0,0,0,-1,1938,1618,0,0
721,-594,0,0,0,0,0,0,0,0,0,-1,1945,1618,0,0
728,-594,0,0,0,0,0,0,0,0,0,-1,1952,1618,0,0
735,-594,0,0,0,0,0,0,0,0,0,-1,1959,1618,0,0
742,-594,0,0,0,0,0,0,0,0,0,-1,1966,1618,0,0
749,-594,0,0,0,0,0,0,0,0,0,-1,1973,1618,0,0
756,-594,0,0,0,0,0,0,0,0,0,-1,1980,1618,0,0
763,-594,0,0,0,0,0,0,0,0,0,-1,1987,1618,0,0
770,-594,0,0,0,0,0,0,0,0,0,-1,1994,1618,0,0
777,-594,0,0,0,0,0,0,0,0,0,-1,2001,1618,0,0
784,-594,0,0,0,0,0,0,0,0,0,-1,2008,1618,0,0
791,-594,0,0,0,0,0,0,0,0,0,-1,2015,1618,0,0
798,-594,0,0,0,0,0,0,0,0,0,-1,2022,1618,0,0
805,-594,0,0,0,0,0,0,0,0,0,-1,2029,1618,0,0
812,-594,0,0,0,0,0,0,0,0,0,-1,2036,1618,0,0
-700,-601,0,0,0,0,0,0,0,0,0,-1,524,1625,0,0
-693,-601,0,0,0,0,0,0,0,0,0,-1,531,1625,0,0
-686,-601,0,0,0,0,0,0,0,0,0,-1,538,1625,0,0
-679,-601,0,0,0,0,0,0,0,0,0,-1,545,1625,0,0
-672,-601,0,0,0,0,0,0,0,0,0,-1,552,1625,0,0
-665,-601,0,0,0,0,0,0,0,0,0,-1,559,1625,0,0
-658,-601,0,0,0,0,0,0,0,0,0,-1,566,1625,0,0
-651,-601,0,0,0,0,0,0,0,0,0,-1,573,1625,0,0
-644,-601,0,0,0,0,0,0,0,0,0,-1,580,1625,0,0
-637,-601,0,0,0,0,0,0,0,0,0,-1,587,1625,0,0
-630,-601,0,0,0,0,0,0,0,0,0,-1,594,1625,0,0
-623,-601,0,0,0,0,0,0,0,0,0,-1,601,1625,0,0
-616,-601,0,0,0,0,0,0,0,0,0,-1,608,1625,0,0
-609,-601,0,0,0,0,0,0,0,0,0,-1,615,1625,0,0
-602,-601,0,0,0,0,0,0,0,0,0,-1,622,1625,0,0
-595,-601,0,0,0,0,0,0,0,0,0,-1,629,1625,0,0
-588,-601,0,0,0,0,0,0,0,0,0,-1,636,1625,0,0
-581,-601,0,0,0,0,0,0,0,0,0,-1,643,1625,0,0
-574,-601,0,0,0,0,0,0,0,0,0,-1,650,1625,0,0
-567,-601,0,0,0,0,0,0,0,0,0,-1,657,1625,0,0
-560,-601,0,0,0,0,0,0,0,0,0,-1,664,1625,0,0
-553,-601,0,0,0,0,0,0,0,0,0,-1,671,1625,0,0
-546,-601,0,0,0,0,0,0,0,0,0,-1,678,1625,0,0
-539,-601,0,0,0,0,0,0,0,0,0,-1,685,1625,0,0
-532,-601,0,0,0,0,0,0,0,0,0,-1,692,1625,0,0
-525,-601,0,0,0,0,0,0,0,0,0,-1,699,1625,0,0
-518,-601,0,0,0,0,0,0,0,0,0,-1,706,1625,0,0
-511,-601,0,0,0,0,0,0,0,0,0,-1,713,1625,0,0
-504,-601,0,0,0,0,0,0,0,0,0,-1,720,1625,0,0
-497,-601,0,0,0,0,0,0,0,0,0,-1,727,1625,0,0
-490,-601,0,0,0,0,0,0,0,0,0,-1,734,1625,0,0
-483,-601,0,0,0,0,0,0,0,0,0,-1,741,1625,0,0
-476,-601,0,0,0,0,0,0,0,0,0,-1,748,1625,0,0
-469,-601,0,0,0,0,0,0,0,0,0,-1,755,1625,0,0
-462,-601,0,0,0,0,0,0,0,0,0,-1,762,1625,0,0
-455,-601,0,0,0,0,0,0,0,0,0,-1,769,1625,0,0
-448,-601,-7.07623,2.7616,0,0,0,0,0,0,0,-1,776,1625,-7.07626,-2.76161
-441,-601,-6.06689,3.33447,0,0,0,0,0,0,0,-1,783,1625,-6.06691,-3.33448
-434,-601,-5.02655,3.8468,0,0,0,0,0,0,0,-1,790,1625,-5.02657,-3.84674
-427,-601,-5.78601,4.2406,0,0,0,0,0,0,0,-1,797,1625,-5.786,-4.24058
-420,-601,-5.5191,5.60364,0,0,0,0,0,0,0,-1,804,1625,-5.51907,-5.60368
-413,-601,-4.30756,5.86047,0,0,0,0,0,0,0,-1,811,1625,-4.30757,-5.86046
-406,-601,-1.67493,7.20422,0,0,0,0,0,0,0,-1,818,1625,-1.67493,-7.20428
-399,-601,1.40094,15.3108,0,0,0,0,0,0,0,-1,825,1625,1.40096,-15.3107
-392,-601,2.39362,26.1361,0,0,0,0,0,0,0,-1,832,1625,2.39363,-26.1361
-385,-601,2.08923,27.814,0,0,0,0,0,0,0,-1,839,1625,2.08922,-27.814
-378,-601,1.81946,27.7494,0,0,0,0,0,0,0,-1,846,1625,1.81948,-27.7494
-371,-601,1.89594,28.3882,-0.00290858,-0.00498812,-3.11935e-05,-0.00290812,-0.00498859,-0.0149957,0.00289334,0.0263078,853,1625,1.89591,-28.3881
-364,-601,1.89038,28.9834,-0.00208345,-0.00449238,2.81678e-06,-0.00208345,-0.00449238,0.0011693,0.00259595,0.0140667,860,1625,1.89037,-28.9834
-357,-601,1.84869,29.5869,-0.0012283,-0.00374406,0.000161181,-0.00121802,-0.00375435,0.0637214,0.00221167,0.0108385,867,1625,1.8487,-29.5869
-350,-601,1.84052,30.2087,-0.000398762,-0.00288595,0.000372096,-0.000344287,-0.00294042,0.145366,0.00185619,0.0214657,874,1625,1.84049,-30.2087
-343,-601,1.77875,30.8044,0.000369251,-0.0018832,0.000649413,0.000543072,-0.00205702,0.261528,0.00158372,0.0232067,881,1625,1.77877,-30.8044
-336,-601,1.71832,31.3385,0.00120913,-0.000808794,0.00104957,0.00165605,-0.00125572,0.402562,0.0016864,0.0198367,888,1625,1.71829,-31.3386
-329,-601,1.74548,31.8959,0.00216363,0.000839584,0.00172411,0.00334845,-0.000345236,0.602089,0.00235582,0.0168627,895,1625,1.74549,-31.8959
-322,-601,1.77216,32.4338,0.00301147,0.00241188,0.00242099,0.00515116,0.000272184,0.723796,0.00334707,0.0135783,902,1625,1.77216,-32.4338
-315,-601,1.76758,32.9265,0.00393273,0.00434232,0.0033157,0.00745955,0.000815503,0.816242,0.00472472,0.0138471,909,1625,1.76758,-32.9266
-308,-601,1.7384,33.467,0.00494943,0.00637368,0.00430916,0.0100292,0.00129395,0.867288,0.00629924,0.0122853,916,1625,1.73842,-33.4671
-301,-601,1.72375,34.0063,0.00609969,0.00852432,0.00553503,0.0129782,0.00164576,0.893209,0.00815909,0.0105224,923,1625,1.72373,-34.0063
-294,-601,1.69788,34.5359,0.00734875,0.0109778,0.00695027,0.0163465,0.00198005,0.913085,0.0103013,0.0106527,930,1625,1.69785,-34.5359
-287,-601,1.6546,35.0948,0.00870213,0.0137578,0.00848741,0.0200858,0.00237414,0.930133,0.0126735,0.0112483,937,1625,1.65461,-35.0948
-280,-601,1.67126,35.6405,0.010148,0.0166625,0.0101928,0.0241059,0.00270467,0.940052,0.0152492,0.0147076,944,1625,1.67128,-35.6405
-273,-601,1.68713,36.1946,0.0115362,0.0191726,0.0118353,0.0277903,0.00291843,0.941433,0.0176348,0.0154486,951,1625,1.68711,-36.1945
-266,-601,1.74249,36.743,0.0128604,0.0217732,0.0135045,0.0315376,0.003096,0.944768,0.0200728,0.0183617,958,1625,1.74249,-36.743
-259,-601,1.9425,37.1183,0,0,0,0,0,0,0,-1,965,1625,1.94253,-37.1183
-252,-601,2.30902,37.9934,0,0,0,0,0,0,0,-1,972,1625,2.30905,-37.9934
-245,-601,2.03809,38.5527,0,0,0,0,0,0,0,-1,979,1625,2.03808,-38.5527
-238,-601,2.75482,35.777,0,0,0,0,0,0,0,-1,986,1625,2.75481,-35.777
-231,-601,2.66772,13.7051,0,0,0,0,0,0,0,-1,993,1625,2.6677,-13.7051
-224,-601,-0.0305176,9.13684,0,0,0,0,0,0,0,-1,1000,1625,-0.030498,-9.13681
-217,-601,3.39429,10.3898,0,0,0,0,0,0,0,-1,1007,1625,3.39431,-10.3898
-210,-601,-6.53699,15.7931,0,0,0,0,0,0,0,-1,1014,1625,-6.53697,-15.7931
-203,-601,2.69348,15.9099,0,0,0,0,0,0,0,-1,1021,1625,2.69351,-15.91
-196,-601,2.66992,16.1815,0,0,0,0,0,0,0,-1,1028,1625,2.66995,-16.1815
-189,-601,2.849,16.6105,0,0,0,0,0,0,0,-1,1035,1625,2.84902,-16.6104
-182,-601,1.82153,13.9752,0,0,0,0,0,0,0,-1,1042,1625,1.82155,-13.9752
-175,-601,0.544922,9.28687,0,0,0,0,0,0,0,-1,1049,1625,0.544879,-9.28685
-168,-601,-0.247559,8.97461,0,0,0,0,0,0,0,-1,1056,1625,-0.247598,-8.97466
-161,-601,-1.16833,8.80078,0,0,0,0,0,0,0,-1,1063,1625,-1.16837,-8.80081
-154,-601,1.12756,7.94861,0,0,0,0,0,0,0,-1,1070,1625,1.12762,-7.94855
-147,-601,1.35352,9.55432,0,0,0,0,0,0,0,-1,1077,1625,1.35351,-9.55429
-140,-601,1.72437,11.1498,0,0,0,0,0,0,0,-1,1084,1625,1.72432,-11.1498
-133,-601,2.13281,12.8347,0,0,0,0,0,0,0,-1,1091,1625,2.13287,-12.8348
-126,-601,3.09534,15.427,0,0,0,0,0,0,0,-1,1098,1625,3.0953,-15.4271
-119,-601,1.22485,9.43457,0,0,0,0,0,0,0,-1,1105,1625,1.22489,-9.43456
-112,-601,0,0,0,0,0,0,0,0,0,-1,1112,1625,0,0
-105,-601,0,0,0,0,0,0,0,0,0,-1,1119,1625,0,0
-98,-601,0,0,0,0,0,0,0,0,0,-1,1126,1625,0,0
-91,-601,0,0,0,0,0,0,0,0,0,-1,1133,1625,0,0
-84,-601,0,0,0,0,0,0,0,0,0,-1,1140,1625,0,0
-77,-601,0,0,0,0,0,0,0,0,0,-1,1147,1625,0,0
-70,-601,0,0,0,0,0,0,0,0,0,-1,1154,1625,0,0
-63,-601,0,0,0,0,0,0,0,0,0,-1,1161,1625,0,0
-56,-601,0,0,0,0,0,0,0,0,0,-1,1168,1625,0,0
-49,-601,0,0,0,0,0,0,0,0,0,-1,1175,1625,0,0
-42,-601,0,0,0,0,0,0,0,0,0,-1,1182,1625,0,0
-35,-601,0,0,0,0,0,0,0,0,0,-1,1189,1625,0,0
-28,-601,0,0,0,0,0,0,0,0,0,-1,1196,1625,0,0
-21,-601,0,0,0,0,0,0,0,0,0,-1,1203,1625,0,0
-14,-601,0,0,0,0,0,0,0,0,0,-1,1210,1625,0,0
-7,-601,0,0,0,0,0,0,0,0,0,-1,1217,1625,0,0
0,-601,0,0,0,0,0,0,0,0,0,-1,1224,1625,0,0
7,-601,0,0,0,0,0,0,0,0,0,-1,1231,1625,0,0
14,-601,0,0,0,0,0,0,0,0,0,-1,1238,1625,0,0
21,-601,0,0,0,0,0,0,0,0,0,-1,1245,1625,0,0
28,-601,0,0,0,0,0,0,0,0,0,-1,1252,1625,0,0
35,-601,0,0,0,0,0,0,0,0,0,-1,1259,1625,0,0
42,-601,0,0,0,0,0,0,0,0,0,-1,1266,1625,0,0
49,-601,0,0,0,0,0,0,0,0,0,-1,1273,1625,0,0
56,-601,0,0,0,0,0,0,0,0,0,-1,1280,1625,0,0
63,-601,0,0,0,0,0,0,0,0,0,-1,1287,1625,0,0
70,-601,0,0,0,0,0,0,0,0,0,-1,1294,1625,0,0
77,-601,0,0,0,0,0,0,0,0,0,-1,1301,1625,0,0
84,-601,0,0,0,0,0,0,0,0,0,-1,1308,1625,0,0
91,-601,0,0,0,0,0,0,0,0,0,-1,1315,1625,0,0
98,-601,0,0,0,0,0,0,0,0,0,-1,1322,1625,0,0
105,-601,0,0,0,0,0,0,0,0,0,-1,1329,1625,0,0
112,-601,0,0,0,0,0,0,0,0,0,-1,1336,1625,0,0
119,-601,0,0,0,0,0,0,0,0,0,-1,1343,1625,0,0
126,-601,0,0,0,0,0,0,0,0,0,-1,1350,1625,0,0
133,-601,0,0,0,0,0,0,0,0,0,-1,1357,1625,0,0
140,-601,0,0,0,0,0,0,0,0,0,-1,1364,1625,0,0
147,-601,0,0,0,0,0,0,0,0,0,-1,1371,1625,0,0
154,-601,0,0,0,0,0,0,0,0,0,-1,1378,1625,0,0
161,-601,0,0,0,0,0,0,0,0,0,-1,1385,1625,0,0
168,-601,0,0,0,0,0,0,0,0,0,-1,1392,1625,0,0
175,-601,0,0,0,0,0,0,0,0,0,-1,1399,1625,0,0
182,-601,0,0,0,0,0,0,0,0,0,-1,1406,1625,0,0
189,-601,0,0,0,0,0,0,0,0,0,-1,1413,1625,0,0
196,-601,0,0,0,0,0,0,0,0,0,-1,1420,1625,0,0
203,-601,0,0,0,0,0,0,0,0,0,-1,1427,1625,0,0
210,-601,0,0,0,0,0,0,0,0,0,-1,1434,1625,0,0
217,-601,0,0,0,0,0,0,0,0,0,-1,1441,1625,0,0
224,-601,0,0,0,0,0,0,0,0,0,-1,1448,1625,0,0
231,-601,-0.0371094,0.525879,0,0,0,0,0,0,0,-1,1455,1625,-0.0371518,-0.525824
238,-601,2.03369,-1.32861,0,0,0,0,0,0,0,-1,1462,1625,2.03364,1.32858
245,-601,2.71375,2.44983,0,0,0,0,0,0,0,-1,1469,1625,2.71371,-2.44979
252,-601,4.66943,2.28381,0,0,0,0,0,0,0,-1,1476,1625,4.66947,-2.28376
259,-601,6.42712,2.61987,0,0,0,0,0,0,0,-1,1483,1625,6.42711,-2.61985
266,-601,6.75317,1.68701,0,0,0,0,0,0,0,-1,1490,1625,6.75323,-1.687
273,-601,5.4314,2.92053,0,0,0,0,0,0,0,-1,1497,1625,5.43144,-2.92051
280,-601,4.64722,1.17786,0,0,0,0,0,0,0,-1,1504,1625,4.64722,-1.1779
287,-601,5.32532,2.6217,0,0,0,0,0,0,0,-1,1511,1625,5.32535,-2.62171
294,-601,5.97693,4.22693,0,0,0,0,0,0,0,-1,1518,1625,5.97697,-4.22694
301,-601,7.28162,9.50024,0,0,0,0,0,0,0,-1,1525,1625,7.28162,-9.50025
308,-601,6.53528,10.3927,0,0,0,0,0,0,0,-1,1532,1625,6.53529,-10.3927
315,-601,4.88013,11.7184,0,0,0,0,0,0,0,-1,1539,1625,4.88015,-11.7184
322,-601,3.38098,12.7864,0,0,0,0,0,0,0,-1,1546,1625,3.38104,-12.7864
329,-601,1.8772,13.8768,0,0,0,0,0,0,0,-1,1553,1625,1.87716,-13.8768
336,-601,4.67847,9.53308,0,0,0,0,0,0,0,-1,1560,1625,4.67848,-9.53309
343,-601,11.1404,3.14575,0,0,0,0,0,0,0,-1,1567,1625,11.1404,-3.1458
350,-601,10.9462,2.37769,0,0,0,0,0,0,0,-1,1574,1625,10.9461,-2.37764
357,-601,10.7518,1.6095,0,0,0,0,0,0,0,-1,1581,1625,10.7518,-1.60948
364,-601,5.33643,9.74426,0,0,0,0,0,0,0,-1,1588,1625,5.33637,-9.74429
371,-601,15.6792,39.3608,0,0,0,0,0,0,0,-1,1595,1625,15.6793,-39.3609
378,-601,15.7463,38.8253,0.00845693,0.0387256,-0.0176066,0.0468085,0.000374017,-1.14041,0.0310818,0.0470122,1602,1625,15.7464,-38.8253
385,-601,15.7997,38.1903,0.00573948,0.0326401,-0.0146624,0.039087,-0.00070736,-1.15655,0.0262969,0.0475384,1609,1625,15.7997,-38.1903
392,-601,15.4208,37.2871,0.00375139,0.0276114,-0.0119665,0.0325788,-0.00121604,-1.17733,0.0221357,0.0407855,1616,1625,15.4208,-37.2872
399,-601,15.6721,36.9626,0.00228486,0.0238513,-0.00986493,0.027683,-0.00154679,-1.20032,0.0189919,0.0217939,1623,1625,15.6721,-36.9626
406,-601,15.8187,36.407,0.00114883,0.0200842,-0.00815919,0.0231149,-0.00188186,-1.21515,0.016074,0.0139793,1630,1625,15.8187,-36.407
413,-601,15.8069,35.9053,0.000294194,0.017926,-0.00711542,0.0204392,-0.00221904,-1.23126,0.0144228,0.013251,1637,1625,15.8069,-35.9053
420,-601,15.8043,35.3866,-0.000397051,0.0156817,-0.00618824,0.0177876,-0.00250291,-1.24279,0.0127747,0.0123334,1644,1625,15.8043,-35.3866
427,-601,15.7972,34.8944,-0.00071522,0.0138417,-0.0054827,0.0156756,-0.00254917,-1.248,0.0113956,0.0162098,1651,1625,15.7973,-34.8943
434,-601,15.7815,34.366,-0.000690418,0.0120589,-0.00492062,0.0137371,-0.00236864,-1.24211,0.0100412,0.0160941,1658,1625,15.7815,-34.3659
441,-601,15.7799,33.8517,-0.000283457,0.0102378,-0.00443121,0.0118554,-0.00190105,-1.22078,0.00860752,0.0169788,1665,1625,15.7799,-33.8517
448,-601,15.7579,33.3478,9.91084e-05,0.00850302,-0.00379596,0.00996373,-0.0013616,-1.20346,0.00713976,0.0149319,1672,1625,15.758,-33.3478
455,-601,15.7476,32.8085,0.000270108,0.00658538,-0.00324924,0.00795856,-0.00110306,-1.17095,0.00570903,0.0136615,1679,1625,15.7476,-32.8085
462,-601,15.7437,32.2952,0.000393142,0.00451775,-0.00259543,0.00577047,-0.000859576,-1.12111,0.00416319,0.0120567,1686,1625,15.7436,-32.2952
469,-601,15.7229,31.7997,0.000436054,0.00262971,-0.00184696,0.00368097,-0.000615204,-1.05334,0.00268267,0.0116698,1693,1625,15.7229,-31.7996
476,-601,15.6761,31.2732,0.000250569,0.00111941,-0.00105724,0.001828,-0.000458019,-0.980333,0.0013966,0.0137673,1700,1625,15.6762,-31.2732
483,-601,15.6289,30.7313,-0.000255183,-0.000258383,-0.000390082,0.000133303,-0.000646869,-0.783347,0.000481866,0.0167391,1707,1625,15.6289,-30.7313
490,-601,15.6152,30.1866,-0.00106718,-0.00120981,0.00018737,-0.000938008,-0.00133897,0.603557,0.000793513,0.0132169,1714,1625,15.6153,-30.1866
497,-601,15.6208,29.6351,-0.00206835,-0.00196159,0.000632359,-0.00138036,-0.00264958,0.827505,0.00153018,0.0111505,1721,1625,15.6208,-29.6351
504,-601,15.6636,29.0764,-0.00306447,-0.00256867,0.00144407,-0.00135138,-0.00428177,0.870402,0.00252749,0.0213795,1728,1625,15.6636,-29.0764
511,-601,15.5303,28.5886,-0.00379506,-0.00380396,0.00228701,-0.0015125,-0.00608653,0.784425,0.00365924,0.0371473,1735,1625,15.5302,-28.5886
518,-601,15.3727,27.9751,-0.00484713,-0.00434327,0.00305818,-0.00152666,-0.00766374,0.826495,0.00468395,0.0465972,1742,1625,15.3727,-27.9751
525,-601,15.1583,26.9891,0,0,0,0,0,0,0,-1,1749,1625,15.1583,-26.9892
532,-601,16.1193,20.8458,0,0,0,0,0,0,0,-1,1756,1625,16.1192,-20.8458
539,-601,7.77112,11.4299,0,0,0,0,0,0,0,-1,1763,1625,7.77116,-11.4299
546,-601,6.56873,3.62354,0,0,0,0,0,0,0,-1,1770,1625,6.56867,-3.62352
553,-601,7.03015,4.25049,0,0,0,0,0,0,0,-1,1777,1625,7.03011,-4.25048
560,-601,7.50745,4.83374,0,0,0,0,0,0,0,-1,1784,1625,7.50744,-4.83376
567,-601,7.82043,3.83301,0,0,0,0,0,0,0,-1,1791,1625,7.82041,-3.83303
574,-601,0,0,0,0,0,0,0,0,0,-1,1798,1625,0,0
581,-601,0,0,0,0,0,0,0,0,0,-1,1805,1625,0,0
588,-601,0,0,0,0,0,0,0,0,0,-1,1812,1625,0,0
595,-601,0,0,0,0,0,0,0,0,0,-1,1819,1625,0,0
602,-601,0,0,0,0,0,0,0,0,0,-1,1826,1625,0,0
609,-601,0,0,0,0,0,0,0,0,0,-1,1833,1625,0,0
616,-601,0,0,0,0,0,0,0,0,0,-1,1840,1625,0,0
623,-601,0,0,0,0,0,0,0,0,0,-1,1847,1625,0,0
630,-601,0,0,0,0,0,0,0,0,0,-1,1854,1625,0,0
637,-601,0,0,0,0,0,0,0,0,0,-1,1861,1625,0,0
644,-601,0,0,0,0,0,0,0,0,0,-1,1868,1625,0,0
651,-601,0,0,0,0,0,0,0,0,0,-1,1875,1625,0,0
658,-601,0,0,0,0,0,0,0,0,0,-1,1882,1625,0,0
665,-601,0,0,0,0,0,0,0,0,0,-1,1889,1625,0,0
672,-601,0,0,0,0,0,0,0,0,0,-1,1896,1625,0,0
679,-601,0,0,0,0,0,0,0,0,0,-1,1903,1625,0,0
686,-601,0,0,0,0,0,0,0,0,0,-1,1910,1625,0,0
693,-601,0,0,0,0,0,0,0,0,0,-1,1917,1625,0,0
700,-601,0,0,0,0,0,0,0,0,0,-1,1924,1625,0,0
707,-601,0,0,0,0,0,0,0,0,0,-1,1931,1625,0,0
714,-601,0,0,0,0,0,0,0,0,0,-1,1938,1625,0,0
721,-601,0,0,0,0,0,0,0,0,0,-1,1945,1625,0,0
728,-601,0,0,0,0,0,0,0,0,0,-1,1952,1625,0,0
735,-601,0,0,0,0,0,0,0,0,0,-1,1959,1625,0,0
742,-601,0,0,0,0,0,0,0,0,0,-1,1966,1625,0,0
749,-601,0,0,0,0,0,0,0,0,0,-1,1973,1625,0,0
756,-601,0,0,0,0,0,0,0,0,0,-1,1980,1625,0,0
763,-601,0,0,0,0,0,0,0,0,0,-1,1987,1625,0,0
770,-601,0,0,0,0,0,0,0,0,0,-1,1994,1625,0,0
777,-601,0,0,0,0,0,0,0,0,0,-1,2001,1625,0,0
784,-601,0,0,0,0,0,0,0,0,0,-1,2008,1625,0,0
791,-601,0,0,0,0,0,0,0,0,0,-1,2015,1625,0,0
798,-601,0,0,0,0,0,0,0,0,0,-1,2022,1625,0,0
805,-601,0,0,0,0,0,0,0,0,0,-1,2029,1625,0,0
812,-601,0,0,0,0,0,0,0,0,0,-1,2036,1625,0,0
-700,-608,0,0,0,0,0,0,0,0,0,-1,524,1632,0,0
-693,-608,0,0,0,0,0,0,0,0,0,-1,531,1632,0,0
-686,-608,0,0,0,0,0,0,0,0,0,-1,538,1632,0,0
-679,-608,0,0,0,0,0,0,0,0,0,-1,545,1632,0,0
-672,-608,0,0,0,0,0,0,0,0,0,-1,552,1632,0,0
-665,-608,0,0,0,0,0,0,0,0,0,-1,559,1632,0,0
-658,-608,0,0,0,0,0,0,0,0,0,-1,566,1632,0,0
-651,-608,0,0,0,0,0,0,0,0,0,-1,573,1632,0,0
-644,-608,0,0,0,0,0,0,0,0,0,-1,580,1632,0,0
-637,-608,0,0,0,0,0,0,0,0,0,-1,587,1632,0,0
-630,-608,0,0,0,0,0,0,0,0,0,-1,594,1632,0,0
-623,-608,0,0,0,0,0,0,0,0,0,-1,601,1632,0,0
-616,-608,0,0,0,0,0,0,0,0,0,-1,608,1632,0,0
-609,-608,0,0,0,0,0,0,0,0,0,-1,615,1632,0,0
-602,-608,0,0,0,0,0,0,0,0,0,-1,622,1632,0,0
-595,-608,0,0,0,0,0,0,0,0,0,-1,629,1632,0,0
-588,-608,0,0,0,0,0,0,0,0,0,-1,636,1632,0,0
-581,-608,0,0,0,0,0,0,0,0,0,-1,643,1632,0,0
-574,-608,0,0,0,0,0,0,0,0,0,-1,650,1632,0,0
-567,-608,0,0,0,0,0,0,0,0,0,-1,657,1632,0,0
-560,-608,0,0,0,0,0,0,0,0,0,-1,664,1632,0,0
-553,-608,0,0,0,0,0,0,0,0,0,-1,671,1632,0,0
-546,-608,0,0,0,0,0,0,0,0,0,-1,678,1632,0,0
-539,-608,0,0,0,0,0,0,0,0,0,-1,685,1632,0,0
-532,-608,0,0,0,0,0,0,0,0,0,-1,692,1632,0,0
-525,-608,0,0,0,0,0,0,0,0,0,-1,699,1632,0,0
-518,-608,0,0,0,0,0,0,0,0,0,-1,706,1632,0,0
-511,-608,0,0,0,0,0,0,0,0,0,-1,713,1632,0,0
-504,-608,0,0,0,0,0,0,0,0,0,-1,720,1632,0,0
-497,-608,0,0,0,0,0,0,0,0,0,-1,727,1632,0,0
-490,-608,0,0,0,0,0,0,0,0,0,-1,734,1632,0,0
-483,-608,0,0,0,0,0,0,0,0,0,-1,741,1632,0,0
-476,-608,0,0,0,0,0,0,0,0,0,-1,748,1632,0,0
-469,-608,0,0,0,0,0,0,0,0,0,-1,755,1632,0,0
-462,-608,0,0,0,0,0,0,0,0,0,-1,762,1632,0,0
-455,-608,0,0,0,0,0,0,0,0,0,-1,769,1632,0,0
-448,-608,0,0,0,0,0,0,0,0,0,-1,776,1632,0,0
-441,-608,-7.34601,2.78052,0,0,0,0,0,0,0,-1,783,1632,-7.346,-2.78056
-434,-608,-6.34558,3.27405,0,0,0,0,0,0,0,-1,790,1632,-6.34555,-3.27406
-427,-608,-7.74335,4.17688,0,0,0,0,0,0,0,-1,797,1632,-7.74334,-4.17693
-420,-608,-6.82794,4.34839,0,0,0,0,0,0,0,-1,804,1632,-6.82794,-4.34838
-413,-608,-5.41919,5.66138,0,0,0,0,0,0,0,-1,811,1632,-5.41917,-5.66133
-406,-608,-4.79681,4.98999,0,0,0,0,0,0,0,-1,818,1632,-4.79684,-4.98997
-399,-608,-2.60645,6.34167,0,0,0,0,0,0,0,-1,825,1632,-2.60643,-6.34169
-392,-608,2.08356,15.437,0,0,0,0,0,0,0,-1,832,1632,2.08354,-15.437
-385,-608,2.96106,26.924,0,0,0,0,0,0,0,-1,839,1632,2.96105,-26.924
-378,-608,2.50873,27.6262,0,0,0,0,0,0,0,-1,846,1632,2.50873,-27.6262
-371,-608,2.42957,28.2139,0,0,0,0,0,0,0,-1,853,1632,2.42955,-28.2138
-364,-608,2.53278,28.9175,-0.00253786,-0.0061244,-0.000359897,-0.0025021,-0.00616016,-0.0990309,0.00357738,0.0303691,860,1632,2.53276,-28.9175
-357,-608,2.40057,29.5573,-0.00165262,-0.00543448,-0.000221289,-0.00163972,-0.00544739,-0.0582481,0.00322701,0.0190676,867,1632,2.40055,-29.5572
-350,-608,2.38446,30.1873,-0.000853181,-0.00453648,-4.11723e-05,-0.000852721,-0.00453694,-0.0111762,0.00278426,0.018361,874,1632,2.38446,-30.1873
-343,-608,2.35095,30.7842,-0.000124656,-0.00354848,0.000185967,-0.000114585,-0.00355855,0.0541036,0.00233511,0.0245699,881,1632,2.35095,-30.7841
-336,-608,2.30695,31.3757,0.000608682,-0.00254984,0.000497696,0.000685249,-0.0026264,0.152646,0.0020185,0.0176747,888,1632,2.30693,-31.3757
-329,-608,2.27881,31.9283,0.00137508,-0.00110593,0.000988573,0.0017208,-0.00145166,0.336427,0.00183382,0.0161367,895,1632,2.27879,-31.9284
-322,-608,2.2746,32.4443,0.00207003,0.00033386,0.00154068,0.00297036,-0.000566465,0.528845,0.00219358,0.015946,902,1632,2.2746,-32.4444
-315,-608,2.29474,32.9648,0.00280182,0.00204207,0.0022487,0.00470251,0.000141383,0.701723,0.00308896,0.014686,909,1632,2.29476,-32.9649
-308,-608,2.26801,33.5155,0.0035954,0.00387576,0.00301922,0.00675805,0.000713102,0.808596,0.00428748,0.014718,916,1632,2.26802,-33.5155
-301,-608,2.24255,34.0435,0.00449491,0.00578195,0.00398768,0.0091777,0.00109916,0.865397,0.00578698,0.0105279,923,1632,2.24257,-34.0435
-294,-608,2.23212,34.5559,0.0054661,0.00788154,0.00508497,0.0119002,0.00144739,0.901992,0.00749774,0.0111022,930,1632,2.23213,-34.556
-287,-608,2.19806,35.0966,0.00645757,0.010134,0.0062178,0.0147796,0.00181196,0.929123,0.00930807,0.0107824,937,1632,2.19807,-35.0966
-280,-608,2.2077,35.6025,0.00752508,0.0123818,0.00743919,0.0177789,0.00212793,0.943159,0.0112108,0.00873932,944,1632,2.20768,-35.6025
-273,-608,2.19305,36.1229,0.00857014,0.014313,0.00860131,0.0205095,0.00237361,0.946499,0.0129545,0.00988734,951,1632,2.19304,-36.123
-266,-608,2.21637,36.6788,0.00954044,0.0162288,0.00973193,0.0231751,0.00259416,0.950893,0.0146621,0.0110512,958,1632,2.21639,-36.6788
-259,-608,2.27942,37.2041,0.0105205,0.0177696,0.0107097,0.0254515,0.00283864,0.948566,0.016105,0.0156027,965,1632,2.2794,-37.2041
-252,-608,2.38898,37.7377,0.0115573,0.0192008,0.0116904,0.0276783,0.00307979,0.943377,0.0175161,0.0311452,972,1632,2.38899,-37.7377
-245,-608,2.43597,38.5204,0.0124549,0.0207593,0.0124888,0.029768,0.0034462,0.945887,0.0188022,0.0451517,979,1632,2.43596,-38.5204
-238,-608,2.45032,39.4017,0,0,0,0,0,0,0,-1,986,1632,2.45031,-39.4018
-231,-608,3.26025,27.5262,0,0,0,0,0,0,0,-1,993,1632,3.26023,-27.5263
-224,-608,2.51642,15.3452,0,0,0,0,0,0,0,-1,1000,1632,2.5164,-15.3452
-217,-608,1.04419,12.8451,0,0,0,0,0,0,0,-1,1007,1632,1.04418,-12.8451
-210,-608,2.75903,15.9414,0,0,0,0,0,0,0,-1,1014,1632,2.75903,-15.9414
-203,-608,2.76776,16.217,0,0,0,0,0,0,0,-1,1021,1632,2.76773,-16.217
-196,-608,1.53955,18.6058,0,0,0,0,0,0,0,-1,1028,1632,1.53959,-18.6058
-189,-608,1.37634,19.119,0,0,0,0,0,0,0,-1,1035,1632,1.37634,-19.1191
-182,-608,2.89221,16.7092,0,0,0,0,0,0,0,-1,1042,1632,2.89224,-16.7093
-175,-608,0.219116,15.1643,0,0,0,0,0,0,0,-1,1049,1632,0.219173,-15.1644
-168,-608,0.000366211,9.48645,0,0,0,0,0,0,0,-1,1056,1632,0.000317105,-9.48648
-161,-608,2.27832,15.4423,0,0,0,0,0,0,0,-1,1063,1632,2.27826,-15.4423
-154,-608,1.3999,16.4037,0,0,0,0,0,0,0,-1,1070,1632,1.39987,-16.4037
-147,-608,2.4386,9.50317,0,0,0,0,0,0,0,-1,1077,1632,2.43858,-9.50313
-140,-608,2.60132,10.8401,0,0,0,0,0,0,0,-1,1084,1632,2.60134,-10.8401
-133,-608,3.2312,12.4738,0,0,0,0,0,0,0,-1,1091,1632,3.23116,-12.4738
-126,-608,3.76465,13.9644,0,0,0,0,0,0,0,-1,1098,1632,3.76466,-13.9644
-119,-608,4.28906,15.4196,0,0,0,0,0,0,0,-1,1105,1632,4.28911,-15.4195
-112,-608,0.745117,10.5587,0,0,0,0,0,0,0,-1,1112,1632,0.745145,-10.5587
-105,-608,-0.252319,1.42419,0,0,0,0,0,0,0,-1,1119,1632,-0.252331,-1.42418
-98,-608,-2.8595,3.0863,0,0,0,0,0,0,0,-1,1126,1632,-2.85948,-3.08625
-91,-608,-3.71948,1.73608,0,0,0,0,0,0,0,-1,1133,1632,-3.7195,-1.73607
-84,-608,0,0,0,0,0,0,0,0,0,-1,1140,1632,0,0
-77,-608,0,0,0,0,0,0,0,0,0,-1,1147,1632,0,0
-70,-608,0,0,0,0,0,0,0,0,0,-1,1154,1632,0,0
-63,-608,0,0,0,0,0,0,0,0,0,-1,1161,1632,0,0
-56,-608,0,0,0,0,0,0,0,0,0,-1,1168,1632,0,0
-49,-608,0,0,0,0,0,0,0,0,0,-1,1175,1632,0,0
-42,-608,0,0,0,0,0,0,0,0,0,-1,1182,1632,0,0
-35,-608,0,0,0,0,0,0,0,0,0,-1,1189,1632,0,0
-28,-608,0,0,0,0,0,0,0,0,0,-1,1196,1632,0,0
-21,-608,0,0,0,0,0,0,0,0,0,-1,1203,1632,0,0
-14,-608,0,0,0,0,0,0,0,0,0,-1,1210,1632,0,0
-7,-608,0,0,0,0,0,0,0,0,0,-1,1217,1632,0,0
0,-608,0,0,0,0,0,0,0,0,0,-1,1224,1632,0,0
7,-608,0,0,0,0,0,0,0,0,0,-1,1231,1632,0,0
14,-608,0,0,0,0,0,0,0,0,0,-1,1238,1632,0,0
21,-608,0,0,0,0,0,0,0,0,0,-1,1245,1632,0,0
28,-608,0,0,0,0,0,0,0,0,0,-1,1252,1632,0,0
35,-608,0,0,0,0,0,0,0,0,0,-1,1259,1632,0,0
42,-608,0,0,0,0,0,0,0,0,0,-1,1266,1632,0,0
49,-608,0,0,0,0,0,0,0,0,0,-1,1273,1632,0,0
56,-608,0,0,0,0,0,0,0,0,0,-1,1280,1632,0,0
63,-608,0,0,0,0,0,0,0,0,0,-1,1287,1632,0,0
70,-608,0,0,0,0,0,0,0,0,0,-1,1294,1632,0,0
77,-608,0,0,0,0,0,0,0,0,0,-1,1301,1632,0,0
84,-608,0,0,0,0,0,0,0,0,0,-1,1308,1632,0,0
91,-608,0,0,0,0,0,0,0,0,0,-1,1315,1632,0,0
98,-608,0,0,0,0,0,0,0,0,0,-1,1322,1632,0,0
105,-608,0,0,0,0,0,0,0,0,0,-1,1329,1632,0,0
112,-608,0,0,0,0,0,0,0,0,0,-1,1336,1632,0,0
119,-608,0,0,0,0,0,0,0,0,0,-1,1343,1632,0,0
126,-608,0,0,0,0,0,0,0,0,0,-1,1350,1632,0,0
133,-608,0,0,0,0,0,0,0,0,0,-1,1357,1632,0,0
140,-608,0,0,0,0,0,0,0,0,0,-1,1364,1632,0,0
147,-608,0,0,0,0,0,0,0,0,0,-1,1371,1632,0,0
154,-608,0,0,0,0,0,0,0,0,0,-1,1378,1632,0,0
161,-608,0,0,0,0,0,0,0,0,0,-1,1385,1632,0,0
168,-608,0,0,0,0,0,0,0,0,0,-1,1392,1632,0,0
175,-608,0,0,0,0,0,0,0,0,0,-1,1399,1632,0,0
182,-608,0,0,0,0,0,0,0,0,0,-1,1406,1632,0,0
189,-608,0,0,0,0,0,0,0,0,0,-1,1413,1632,0,0
196,-608,0,0,0,0,0,0,0,0,0,-1,1420,1632,0,0
203,-608,0,0,0,0,0,0,0,0,0,-1,1427,1632,0,0
210,-608,5.7157,-0.333008,0,0,0,0,0,0,0,-1,1434,1632,5.71566,0.333004
217,-608,4.49402,-0.831787,0,0,0,0,0,0,0,-1,1441,1632,4.49396,0.831738
224,-608,4.18018,-1.11792,0,0,0,0,0,0,0,-1,1448,1632,4.1802,1.11796
231,-608,0.361816,0.825195,0,0,0,0,0,0,0,-1,1455,1632,0.36185,-0.825226
238,-608,2.85388,-0.28833,0,0,0,0,0,0,0,-1,1462,1632,2.85391,0.288282
245,-608,3.87537,4.02173,0,0,0,0,0,0,0,-1,1469,1632,3.87538,-4.02168
252,-608,5.66956,3.5282,0,0,0,0,0,0,0,-1,1476,1632,5.6696,-3.52815
259,-608,7.47437,3.07178,0,0,0,0,0,0,0,-1,1483,1632,7.4744,-3.07172
266,-608,9.46936,2.34766,0,0,0,0,0,0,0,-1,1490,1632,9.46932,-2.34764
273,-608,6.03003,3.34241,0,0,0,0,0,0,0,-1,1497,1632,6.02997,-3.34245
280,-608,5.72461,2.0769,0,0,0,0,0,0,0,-1,1504,1632,5.72457,-2.07688
287,-608,6.20581,3.59338,0,0,0,0,0,0,0,-1,1511,1632,6.20585,-3.59341
294,-608,6.94922,5.17151,0,0,0,0,0,0,0,-1,1518,1632,6.94925,-5.17151
301,-608,7.60083,6.68018,0,0,0,0,0,0,0,-1,1525,1632,7.60086,-6.68013
308,-608,7.64746,9.93848,0,0,0,0,0,0,0,-1,1532,1632,7.64745,-9.93842
315,-608,5.30688,11.2054,0,0,0,0,0,0,0,-1,1539,1632,5.30694,-11.2054
322,-608,5.32617,13.7581,0,0,0,0,0,0,0,-1,1546,1632,5.32613,-13.758
329,-608,7.12231,13.9607,0,0,0,0,0,0,0,-1,1553,1632,7.12231,-13.9607
336,-608,5.48633,7.82446,0,0,0,0,0,0,0,-1,1560,1632,5.48634,-7.82446
343,-608,5.47192,5.61047,0,0,0,0,0,0,0,-1,1567,1632,5.47192,-5.61045
350,-608,11.6957,1.71387,0,0,0,0,0,0,0,-1,1574,1632,11.6957,-1.71388
357,-608,3.77002,5.10046,0,0,0,0,0,0,0,-1,1581,1632,3.77002,-5.10043
364,-608,15.0952,40.4746,0,0,0,0,0,0,0,-1,1588,1632,15.0953,-40.4746
371,-608,15.1752,39.5508,0.00993851,0.0370856,-0.017137,0.0453734,0.00165075,-1.12034,0.029714,0.0469828,1595,1632,15.1751,-39.5508
378,-608,15.2688,38.6575,0.00768362,0.0316387,-0.0141263,0.0381818,0.00114055,-1.13703,0.025083,0.0390036,1602,1632,15.2688,-38.6575
385,-608,15.2616,38.0049,0.00568171,0.0262092,-0.0116502,0.031472,0.000418954,-1.1465,0.0208431,0.0336357,1609,1632,15.2616,-38.0048
392,-608,15.2002,37.4331,0.00410652,0.0217273,-0.00941943,0.0258145,1.92858e-05,-1.1614,0.0172032,0.0237085,1616,1632,15.2001,-37.4331
399,-608,15.2688,36.8606,0.00284475,0.0182506,-0.00763325,0.0213921,-0.000296747,-1.18037,0.0143613,0.0111697,1623,1632,15.2688,-36.8606
406,-608,15.3198,36.3444,0.0018282,0.0148687,-0.006135,0.0173012,-0.000604309,-1.19331,0.0117408,0.00952948,1630,1632,15.3199,-36.3444
413,-608,15.3087,35.8546,0.00101858,0.0129405,-0.00519451,0.0148863,-0.000927161,-1.2124,0.0102472,0.0110121,1637,1632,15.3088,-35.8546
420,-608,15.2478,35.3953,0.000324733,0.0110099,-0.00437974,0.0125756,-0.00124104,-1.22745,0.00882657,0.0195883,1644,1632,15.2478,-35.3953
427,-608,15.2443,34.9159,-3.89387e-05,0.00950255,-0.00381262,0.0108389,-0.00137525,-1.23368,0.00772524,0.0200175,1651,1632,15.2443,-34.9159
434,-608,15.2457,34.3998,-0.000117551,0.00819571,-0.00342748,0.00942658,-0.00134842,-1.22602,0.00677872,0.0150649,1658,1632,15.2458,-34.3998
441,-608,15.2539,33.8745,0.000130847,0.00686558,-0.00312235,0.0080904,-0.00109398,-1.19697,0.0057928,0.0135565,1665,1632,15.2539,-33.8745
448,-608,15.2462,33.3566,0.000379321,0.00555763,-0.00268383,0.00669764,-0.000760684,-1.16912,0.00473905,0.0164696,1672,1632,15.2462,-33.3566
455,-608,15.2504,32.8225,0.000490094,0.00406454,-0.00228942,0.00518173,-0.000627091,-1.11681,0.00368136,0.0130364,1679,1632,15.2504,-32.8225
462,-608,15.2323,32.3154,0.00050928,0.00239939,-0.00175149,0.00344452,-0.000535849,-1.0328,0.00249423,0.0120522,1686,1632,15.2323,-32.3154
469,-608,15.189,31.8264,0.000444855,0.000867412,-0.00114083,0.00181636,-0.000504094,-0.87696,0.00140932,0.00916424,1693,1632,15.1889,-31.8265
476,-608,15.152,31.2899,0.000163014,-0.000376894,-0.000481237,0.000444843,-0.000658723,-0.529789,0.00064112,0.00977311,1700,1632,15.1519,-31.2899
483,-608,15.1271,30.7406,-0.000518121,-0.00123901,4.74856e-05,-0.000515006,-0.00124213,0.0654933,0.000720621,0.00945698,1707,1632,15.127,-30.7406
490,-608,15.1226,30.2012,-0.00152661,-0.0020313,0.000529168,-0.0011927,-0.00236521,0.562912,0.00136557,0.0107346,1714,1632,15.1226,-30.2012
497,-608,15.1302,29.645,-0.00266757,-0.00271845,0.00100711,-0.00168557,-0.00370044,0.772771,0.00213927,0.0227471,1721,1632,15.1303,-29.645
504,-608,15.066,29.1655,-0.00379927,-0.0032462,0.00190708,-0.0015957,-0.00544976,0.857398,0.00323522,0.0498363,1728,1632,15.066,-29.1655
511,-608,14.8915,28.7396,-0.00475093,-0.00475285,0.00288111,-0.00187078,-0.007633,0.785232,0.00459385,0.04922,1735,1632,14.8915,-28.7396
518,-608,14.8431,28.02,0,0,0,0,0,0,0,-1,1742,1632,14.8431,-28.02
525,-608,11.2109,16.2579,0,0,0,0,0,0,0,-1,1749,1632,11.2109,-16.2579
532,-608,8.27917,11.6693,0,0,0,0,0,0,0,-1,1756,1632,8.27919,-11.6694
539,-608,9.40796,1.43457,0,0,0,0,0,0,0,-1,1763,1632,9.40801,-1.43463
546,-608,9.94031,2.1134,0,0,0,0,0,0,0,-1,1770,1632,9.94031,-2.11346
553,-608,10.363,2.81335,0,0,0,0,0,0,0,-1,1777,1632,10.3631,-2.81333
560,-608,9.23999,4.5636,0,0,0,0,0,0,0,-1,1784,1632,9.24,-4.56354
567,-608,0,0,0,0,0,0,0,0,0,-1,1791,1632,0,0
574,-608,0,0,0,0,0,0,0,0,0,-1,1798,1632,0,0
581,-608,0,0,0,0,0,0,0,0,0,-1,1805,1632,0,0
588,-608,0,0,0,0,0,0,0,0,0,-1,1812,1632,0,0
595,-608,0,0,0,0,0,0,0,0,0,-1,1819,1632,0,0
602,-608,0,0,0,0,0,0,0,0,0,-1,1826,1632,0,0
609,-608,0,0,0,0,0,0,0,0,0,-1,1833,1632,0,0
616,-608,0,0,0,0,0,0,0,0,0,-1,1840,1632,0,0
623,-608,0,0,0,0,0,0,0,0,0,-1,1847,1632,0,0
630,-608,0,0,0,0,0,0,0,0,0,-1,1854,1632,0,0
637,-608,0,0,0,0,0,0,0,0,0,-1,1861,1632,0,0
644,-608,0,0,0,0,0,0,0,0,0,-1,1868,1632,0,0
651,-608,0,0,0,0,0,0,0,0,0,-1,1875,1632,0,0
658,-608,0,0,0,0,0,0,0,0,0,-1,1882,1632,0,0
665,-608,0,0,0,0,0,0,0,0,0,-1,1889,1632,0,0
672,-608,0,0,0,0,0,0,0,0,0,-1,1896,1632,0,0
679,-608,0,0,0,0,0,0,0,0,0,-1,1903,1632,0,0
686,-608,0,0,0,0,0,0,0,0,0,-1,1910,1632,0,0
693,-608,0,0,0,0,0,0,0,0,0,-1,1917,1632,0,0
700,-608,0,0,0,0,0,0,0,0,0,-1,1924,1632,0,0
707,-608,0,0,0,0,0,0,0,0,0,-1,1931,1632,0,0
714,-608,0,0,0,0,0,0,0,0,0,-1,1938,1632,0,0
721,-608,0,0,0,0,0,0,0,0,0,-1,1945,1632,0,0
728,-608,0,0,0,0,0,0,0,0,0,-1,1952,1632,0,0
735,-608,0,0,0,0,0,0,0,0,0,-1,1959,1632,0,0
742,-608,0,0,0,0,0,0,0,0,0,-1,1966,1632,0,0
749,-608,0,0,0,0,0,0,0,0,0,-1,1973,1632,0,0
756,-608,0,0,0,0,0,0,0,0,0,-1,1980,1632,0,0
763,-608,0,0,0,0,0,0,0,0,0,-1,1987,1632,0,0
770,-608,0,0,0,0,0,0,0,0,0,-1,1994,1632,0,0
777,-608,0,0,0,0,0,0,0,0,0,-1,2001,1632,0,0
784,-608,0,0,0,0,0,0,0,0,0,-1,2008,1632,0,0
791,-608,0,0,0,0,0,0,0,0,0,-1,2015,1632,0,0
798,-608,0,0,0,0,0,0,0,0,0,-1,2022,1632,0,0
805,-608,0,0,0,0,0,0,0,0,0,-1,2029,1632,0,0
812,-608,0,0,0,0,0,0,0,0,0,-1,2036,1632,0,0
-700,-615,0,0,0,0,0,0,0,0,0,-1,524,1639,0,0
-693,-615,0,0,0,0,0,0,0,0,0,-1,531,1639,0,0
-686,-615,0,0,0,0,0,0,0,0,0,-1,538,1639,0,0
-679,-615,0,0,0,0,0,0,0,0,0,-1,545,1639,0,0
-672,-615,0,0,0,0,0,0,0,0,0,-1,552,1639,0,0
-665,-615,0,0,0,0,0,0,0,0,0,-1,559,1639,0,0
-658,-615,0,0,0,0,0,0,0,0,0,-1,566,1639,0,0
-651,-615,0,0,0,0,0,0,0,0,0,-1,573,1639,0,0
-644,-615,0,0,0,0,0,0,0,0,0,-1,580,1639,0,0
-637,-615,0,0,0,0,0,0,0,0,0,-1,587,1639,0,0
-630,-615,0,0,0,0,0,0,0,0,0,-1,594,1639,0,0
-623,-615,0,0,0,0,0,0,0,0,0,-1,601,1639,0,0
-616,-615,0,0,0,0,0,0,0,0,0,-1,608,1639,0,0
-609,-615,0,0,0,0,0,0,0,0,0,-1,615,1639,0,0
-602,-615,0,0,0,0,0,0,0,0,0,-1,622,1639,0,0
-595,-615,0,0,0,0,0,0,0,0,0,-1,629,1639,0,0
-588,-615,0,0,0,0,0,0,0,0,0,-1,636,1639,0,0
-581,-615,0,0,0,0,0,0,0,0,0,-1,643,1639,0,0
-574,-615,0,0,0,0,0,0,0,0,0,-1,650,1639,0,0
-567,-615,0,0,0,0,0,0,0,0,0,-1,657,1639,0,0
-560,-615,0,0,0,0,0,0,0,0,0,-1,664,1639,0,0
-553,-615,0,0,0,0,0,0,0,0,0,-1,671,1639,0,0
-546,-615,0,0,0,0,0,0,0,0,0,-1,678,1639,0,0
-539,-615,0,0,0,0,0,0,0,0,0,-1,685,1639,0,0
-532,-615,0,0,0,0,0,0,0,0,0,-1,692,1639,0,0
-525,-615,0,0,0,0,0,0,0,0,0,-1,699,1639,0,0
-518,-615,0,0,0,0,0,0,0,0,0,-1,706,1639,0,0
-511,-615,0,0,0,0,0,0,0,0,0,-1,713,1639,0,0
-504,-615,0,0,0,0,0,0,0,0,0,-1,720,1639,0,0
-497,-615,0,0,0,0,0,0,0,0,0,-1,727,1639,0,0
-490,-615,0,0,0,0,0,0,0,0,0,-1,734,1639,0,0
-483,-615,0,0,0,0,0,0,0,0,0,-1,741,1639,0,0
-476,-615,0,0,0,0,0,0,0,0,0,-1,748,1639,0,0
-469,-615,0,0,0,0,0,0,0,0,0,-1,755,1639,0,0
-462,-615,0,0,0,0,0,0,0,0,0,-1,762,1639,0,0
-455,-615,0,0,0,0,0,0,0,0,0,-1,769,1639,0,0
-448,-615,0,0,0,0,0,0,0,0,0,-1,776,1639,0,0
-441,-615,0,0,0,0,0,0,0,0,0,-1,783,1639,0,0
-434,-615,-7.64508,2.98596,0,0,0,0,0,0,0,-1,790,1639,-7.64505,-2.98594
-427,-615,-9.0011,2.89404,0,0,0,0,0,0,0,-1,797,1639,-9.00107,-2.89399
-420,-615,-8.07568,3.0752,0,0,0,0,0,0,0,-1,804,1639,-8.07569,-3.07514
-413,-615,-7.09149,3.396,0,0,0,0,0,0,0,-1,811,1639,-7.09147,-3.39599
-406,-615,-6.21368,3.7312,0,0,0,0,0,0,0,-1,818,1639,-6.21366,-3.73114
-399,-615,-4.84875,3.91907,0,0,0,0,0,0,0,-1,825,1639,-4.84877,-3.91901
-392,-615,1.7395,13.3127,0,0,0,0,0,0,0,-1,832,1639,1.73953,-13.3128
-385,-615,3.42297,14.9401,0,0,0,0,0,0,0,-1,839,1639,3.42296,-14.94
-378,-615,2.54102,17.2609,0,0,0,0,0,0,0,-1,846,1639,2.54099,-17.2608
-371,-615,3.11017,28.4579,0,0,0,0,0,0,0,-1,853,1639,3.1102,-28.4578
-364,-615,2.98834,29.2069,-0.00155848,-0.00881098,-0.00375534,3.56417e-05,-0.0104051,-0.401442,0.00694865,0.0398405,860,1639,2.98831,-29.207
-357,-615,3.03668,29.7972,-0.000732432,-0.00813992,-0.00344342,0.000620986,-0.00949334,-0.374496,0.00654571,0.0384686,867,1639,3.03667,-29.7972
-350,-615,2.91351,30.2593,-8.40006e-05,-0.00718744,-0.00304465,0.00104238,-0.00831382,-0.354339,0.00592067,0.0293002,874,1639,2.91354,-30.2592
-343,-615,2.88849,30.7758,0.000473266,-0.00618128,-0.00257943,0.001356,-0.00706402,-0.329729,0.00522039,0.019471,881,1639,2.88849,-30.7757
-336,-615,2.87256,31.3423,0.000946142,-0.00518678,-0.00202134,0.00155242,-0.00579306,-0.2914,0.00447029,0.0112175,888,1639,2.87255,-31.3423
-329,-615,2.83148,31.9023,0.00138507,-0.0038377,-0.00134024,0.00170891,-0.00416154,-0.237087,0.00348651,0.011372,895,1639,2.83147,-31.9023
-322,-615,2.828,32.4706,0.00179044,-0.00240556,-0.000555744,0.0018628,-0.00247791,-0.129473,0.00251449,0.0124128,902,1639,2.82798,-32.4706
-315,-615,2.82416,33.0327,0.002219,-0.000768171,0.000326742,0.00225432,-0.000803493,0.107685,0.00183047,0.0150278,909,1639,2.82417,-33.0327
-308,-615,2.76331,33.5532,0.00270733,0.0010237,0.00121635,0.00334476,0.000386273,0.482703,0.00211289,0.0223479,916,1639,2.76332,-33.5533
-301,-615,2.77173,34.0461,0.00330313,0.00284576,0.00223449,0.00532061,0.000828278,0.734404,0.00330575,0.013219,923,1639,2.77171,-34.0462
-294,-615,2.76874,34.571,0.00398949,0.00476893,0.00328735,0.00768958,0.00106884,0.844398,0.00480986,0.0106605,930,1639,2.76876,-34.5711
-287,-615,2.72998,35.1011,0.00467237,0.00672771,0.00429115,0.0101125,0.00128756,0.902928,0.00635612,0.00813817,937,1639,2.72998,-35.1011
-280,-615,2.72754,35.6182,0.00545974,0.00863197,0.00528182,0.0125607,0.00153102,0.931263,0.00791298,0.00958544,944,1639,2.72757,-35.6182
-273,-615,2.71259,36.1362,0.00628894,0.0102495,0.00615071,0.0147308,0.00180758,0.941136,0.00927691,0.0110704,951,1639,2.71257,-36.1362
-266,-615,2.69751,36.6417,0.00705453,0.0117529,0.00691834,0.01671,0.00209742,0.949071,0.0105109,0.0116598,958,1639,2.69749,-36.6417
-259,-615,2.71899,37.1492,0.00784245,0.0129532,0.00753289,0.0183523,0.00244329,0.94892,0.0115072,0.0132455,965,1639,2.71898,-37.1491
-252,-615,2.72388,37.7174,0.00864384,0.0140673,0.00815618,0.0199508,0.00276043,0.945888,0.0124825,0.0177394,972,1639,2.72387,-37.7174
-245,-615,2.84875,38.3695,0.00937834,0.015224,0.00860839,0.0213922,0.00321012,0.949059,0.013321,0.0291971,979,1639,2.84875,-38.3695
-238,-615,2.86798,38.9045,0.0100748,0.0160269,0.00886931,0.0224062,0.00369557,0.947268,0.0138707,0.0436081,986,1639,2.868,-38.9045
-231,-615,2.91339,39.5424,0,0,0,0,0,0,0,-1,993,1639,2.91341,-39.5423
-224,-615,3.18042,39.6483,0,0,0,0,0,0,0,-1,1000,1639,3.18043,-39.6483
-217,-615,3.99097,27.3737,0,0,0,0,0,0,0,-1,1007,1639,3.99096,-27.3736
-210,-615,2.48901,18.9324,0,0,0,0,0,0,0,-1,1014,1639,2.48902,-18.9323
-203,-615,2.13684,18.6173,0,0,0,0,0,0,0,-1,1021,1639,2.13683,-18.6173
-196,-615,4.27161,21.3264,0,0,0,0,0,0,0,-1,1028,1639,4.27165,-21.3264
-189,-615,1.8269,19.6761,0,0,0,0,0,0,0,-1,1035,1639,1.82691,-19.6761
-182,-615,1.63489,20.2278,0,0,0,0,0,0,0,-1,1042,1639,1.63492,-20.2277
-175,-615,-0.609985,13.8434,0,0,0,0,0,0,0,-1,1049,1639,-0.610016,-13.8434
-168,-615,3.85754,15.472,0,0,0,0,0,0,0,-1,1056,1639,3.85757,-15.472
-161,-615,6.29199,42.7927,0,0,0,0,0,0,0,-1,1063,1639,6.29198,-42.7928
-154,-615,4.9292,45.1368,0,0,0,0,0,0,0,-1,1070,1639,4.92924,-45.1368
-147,-615,1.52502,17.3442,0,0,0,0,0,0,0,-1,1077,1639,1.52501,-17.3442
-140,-615,3.73401,10.2349,0,0,0,0,0,0,0,-1,1084,1639,3.73402,-10.2348
-133,-615,2.6178,17.45,0,0,0,0,0,0,0,-1,1091,1639,2.61776,-17.4499
-126,-615,4.43408,12.5017,0,0,0,0,0,0,0,-1,1098,1639,4.43403,-12.5018
-119,-615,4.82983,13.9279,0,0,0,0,0,0,0,-1,1105,1639,4.82986,-13.9278
-112,-615,3.65698,14.4874,0,0,0,0,0,0,0,-1,1112,1639,3.65695,-14.4875
-105,-615,0.958496,2.45398,0,0,0,0,0,0,0,-1,1119,1639,0.958452,-2.45398
-98,-615,-0.647705,2.12109,0,0,0,0,0,0,0,-1,1126,1639,-0.647756,-2.12105
-91,-615,-3.07983,2.97375,0,0,0,0,0,0,0,-1,1133,1639,-3.07989,-2.97376
-84,-615,-2.46509,0.703247,0,0,0,0,0,0,0,-1,1140,1639,-2.46505,-0.703273
-77,-615,-3.17859,1.23755,0,0,0,0,0,0,0,-1,1147,1639,-3.17865,-1.23752
-70,-615,-4.03943,1.43335,0,0,0,0,0,0,0,-1,1154,1639,-4.03942,-1.43339
-63,-615,-4.8877,1.45544,0,0,0,0,0,0,0,-1,1161,1639,-4.88766,-1.45549
-56,-615,0,0,0,0,0,0,0,0,0,-1,1168,1639,0,0
-49,-615,0,0,0,0,0,0,0,0,0,-1,1175,1639,0,0
-42,-615,0,0,0,0,0,0,0,0,0,-1,1182,1639,0,0
-35,-615,0,0,0,0,0,0,0,0,0,-1,1189,1639,0,0
-28,-615,0,0,0,0,0,0,0,0,0,-1,1196,1639,0,0
-21,-615,0,0,0,0,0,0,0,0,0,-1,1203,1639,0,0
-14,-615,0,0,0,0,0,0,0,0,0,-1,1210,1639,0,0
-7,-615,0,0,0,0,0,0,0,0,0,-1,1217,1639,0,0
0,-615,0,0,0,0,0,0,0,0,0,-1,1224,1639,0,0
7,-615,0,0,0,0,0,0,0,0,0,-1,1231,1639,0,0
14,-615,0,0,0,0,0,0,0,0,0,-1,1238,1639,0,0
21,-615,0,0,0,0,0,0,0,0,0,-1,1245,1639,0,0
28,-615,0,0,0,0,0,0,0,0,0,-1,1252,1639,0,0
35,-615,0,0,0,0,0,0,0,0,0,-1,1259,1639,0,0
42,-615,0,0,0,0,0,0,0,0,0,-1,1266,1639,0,0
49,-615,0,0,0,0,0,0,0,0,0,-1,1273,1639,0,0
56,-615,0,0,0,0,0,0,0,0,0,-1,1280,1639,0,0
63,-615,0,0,0,0,0,0,0,0,0,-1,1287,1639,0,0
70,-615,0,0,0,0,0,0,0,0,0,-1,1294,1639,0,0
77,-615,0,0,0,0,0,0,0,0,0,-1,1301,1639,0,0
84,-615,0,0,0,0,0,0,0,0,0,-1,1308,1639,0,0
91,-615,0,0,0,0,0,0,0,0,0,-1,1315,1639,0,0
98,-615,0,0,0,0,0,0,0,0,0,-1,1322,1639,0,0
105,-615,0,0,0,0,0,0,0,0,0,-1,1329,1639,0,0
112,-615,0,0,0,0,0,0,0,0,0,-1,1336,1639,0,0
119,-615,0,0,0,0,0,0,0,0,0,-1,1343,1639,0,0
126,-615,0,0,0,0,0,0,0,0,0,-1,1350,1639,0,0
133,-615,0,0,0,0,0,0,0,0,0,-1,1357,1639,0,0
140,-615,0,0,0,0,0,0,0,0,0,-1,1364,1639,0,0
147,-615,0,0,0,0,0,0,0,0,0,-1,1371,1639,0,0
154,-615,0,0,0,0,0,0,0,0,0,-1,1378,1639,0,0
161,-615,0,0,0,0,0,0,0,0,0,-1,1385,1639,0,0
168,-615,0,0,0,0,0,0,0,0,0,-1,1392,1639,0,0
175,-615,5.39648,-2.00879,0,0,0,0,0,0,0,-1,1399,1639,5.3965,2.00881
182,-615,5.65393,-1.51025,0,0,0,0,0,0,0,-1,1406,1639,5.65388,1.51028
189,-615,5.58972,-1.35608,0,0,0,0,0,0,0,-1,1413,1639,5.58967,1.35607
196,-615,5.49915,-0.693604,0,0,0,0,0,0,0,-1,1420,1639,5.4991,0.693602
203,-615,5.33411,-0.226685,0,0,0,0,0,0,0,-1,1427,1639,5.33414,0.226689
210,-615,5.60278,0.108276,0,0,0,0,0,0,0,-1,1434,1639,5.60284,-0.10831
217,-615,6.26331,-0.307373,0,0,0,0,0,0,0,-1,1441,1639,6.26331,0.307372
224,-615,5.45422,-0.333984,0,0,0,0,0,0,0,-1,1448,1639,5.45422,0.333992
231,-615,4.92542,1.80298,0,0,0,0,0,0,0,-1,1455,1639,4.92537,-1.80297
238,-615,4.76355,1.96729,0,0,0,0,0,0,0,-1,1462,1639,4.76357,-1.96734
245,-615,4.08643,3.15906,0,0,0,0,0,0,0,-1,1469,1639,4.08638,-3.159
252,-615,6.37805,3.73889,0,0,0,0,0,0,0,-1,1476,1639,6.37806,-3.73891
259,-615,8.35974,3.16443,0,0,0,0,0,0,0,-1,1483,1639,8.35975,-3.16444
266,-615,10.3414,2.58997,0,0,0,0,0,0,0,-1,1490,1639,10.3414,-2.58996
273,-615,6.57043,1.84766,0,0,0,0,0,0,0,-1,1497,1639,6.5704,-1.84771
280,-615,7.10449,3.23438,0,0,0,0,0,0,0,-1,1504,1639,7.10447,-3.23435
287,-615,7.35779,4.68542,0,0,0,0,0,0,0,-1,1511,1639,7.35776,-4.68546
294,-615,7.63733,6.29114,0,0,0,0,0,0,0,-1,1518,1639,7.63735,-6.29109
301,-615,8.47925,11.452,0,0,0,0,0,0,0,-1,1525,1639,8.47922,-11.452
308,-615,6.8114,10.9059,0,0,0,0,0,0,0,-1,1532,1639,6.81137,-10.9058
315,-615,5.1427,14.7251,0,0,0,0,0,0,0,-1,1539,1639,5.14269,-14.7251
322,-615,7.17981,17.6864,0,0,0,0,0,0,0,-1,1546,1639,7.17985,-17.6864
329,-615,7.62134,20.4354,0,0,0,0,0,0,0,-1,1553,1639,7.62139,-20.4354
336,-615,6.45007,14.1138,0,0,0,0,0,0,0,-1,1560,1639,6.45011,-14.1138
343,-615,2.40491,6.50134,0,0,0,0,0,0,0,-1,1567,1639,2.40489,-6.50137
350,-615,14.7924,41.8153,0,0,0,0,0,0,0,-1,1574,1639,14.7923,-41.8153
357,-615,14.2963,40.8221,0,0,0,0,0,0,0,-1,1581,1639,14.2963,-40.8221
364,-615,14.4037,40.1748,0.00953293,0.0368281,-0.0160611,0.0442569,0.00210406,-1.13757,0.0288289,0.0496265,1588,1639,14.4037,-40.1749
371,-615,14.6797,39.3464,0.00822805,0.0302493,-0.0134539,0.0366237,0.00185359,-1.12833,0.023822,0.0411594,1595,1639,14.6797,-39.3464
378,-615,14.7953,38.3387,0.00662332,0.0254725,-0.0111156,0.0306212,0.00147468,-1.13703,0.0199407,0.0215599,1602,1639,14.7953,-38.3387
385,-615,14.7863,37.8014,0.00515987,0.0208447,-0.00912409,0.0250336,0.000970968,-1.1404,0.016375,0.0127402,1609,1639,14.7862,-37.8014
392,-615,14.7982,37.3274,0.00393631,0.0169936,-0.00736061,0.0203037,0.000626159,-1.14818,0.013332,0.0106892,1616,1639,14.7982,-37.3274
399,-615,14.8042,36.844,0.00286574,0.0138665,-0.00589996,0.0164323,0.00029991,-1.16058,0.0108563,0.0109774,1623,1639,14.8042,-36.844
406,-615,14.8054,36.3654,0.00197664,0.0109093,-0.00463959,0.012883,2.94903e-06,-1.16859,0.0085877,0.0108001,1630,1639,14.8054,-36.3653
413,-615,14.7928,35.8899,0.0012586,0.0092149,-0.0038434,0.0107682,-0.000294745,-1.18671,0.00727907,0.0126577,1637,1639,14.7928,-35.8899
420,-615,14.7805,35.4059,0.000621212,0.00756467,-0.00316666,0.00879194,-0.000606061,-1.20106,0.0060734,0.0139392,1644,1639,14.7806,-35.4059
427,-615,14.7639,34.9114,0.000276355,0.00632477,-0.00273454,0.00737776,-0.000776631,-1.20323,0.00519676,0.0151501,1651,1639,14.7639,-34.9114
434,-615,14.7606,34.3998,0.000157504,0.00536694,-0.00248707,0.00636362,-0.000839176,-1.18965,0.00454802,0.0142347,1658,1639,14.7607,-34.3998
441,-615,14.7631,33.8834,0.000314853,0.0044146,-0.00232184,0.00546197,-0.000732521,-1.14703,0.00390844,0.0146578,1665,1639,14.763,-33.8834
448,-615,14.7585,33.3694,0.000495371,0.00342419,-0.0020392,0.00447033,-0.000550761,-1.09679,0.00317974,0.016011,1672,1639,14.7586,-33.3694
455,-615,14.7509,32.844,0.000608168,0.00226975,-0.00175445,0.00338017,-0.000502257,-1.00652,0.00243817,0.0155379,1679,1639,14.7508,-32.8439
462,-615,14.6996,32.3384,0.000592896,0.000938372,-0.00129582,0.00207292,-0.000541652,-0.851659,0.00159348,0.0154337,1686,1639,14.6996,-32.3384
469,-615,14.6632,31.83,0.000485148,-0.000302412,-0.000782207,0.000967103,-0.000784366,-0.552208,0.00101304,0.0130784,1693,1639,14.6632,-31.8299
476,-615,14.6439,31.2813,0.000173088,-0.00134282,-0.000222288,0.000205011,-0.00137475,-0.142637,0.000991922,0.012439,1700,1639,14.6439,-31.2812
483,-615,14.6583,30.6743,-0.000601076,-0.00177369,0.000216732,-0.0005623,-0.00181247,0.177039,0.00107125,0.0248299,1707,1639,14.6583,-30.6744
490,-615,14.6248,30.1815,-0.00174676,-0.00248875,0.000662532,-0.00135842,-0.00287709,0.530169,0.00166194,0.0377076,1714,1639,14.6247,-30.1815
497,-615,14.5249,29.7827,-0.00298659,-0.00317038,0.00120616,-0.00186883,-0.00428815,0.747378,0.00248255,0.0466174,1721,1639,14.5249,-29.7827
504,-615,14.1677,29.2266,0,0,0,0,0,0,0,-1,1728,1639,14.1678,-29.2266
511,-615,14.3379,28.8369,0,0,0,0,0,0,0,-1,1735,1639,14.3378,-28.8369
518,-615,13.2416,9.81812,0,0,0,0,0,0,0,-1,1742,1639,13.2416,-9.81813
525,-615,4.37524,3.90491,0,0,0,0,0,0,0,-1,1749,1639,4.37518,-3.90495
532,-615,7.3645,0.848145,0,0,0,0,0,0,0,-1,1756,1639,7.36451,-0.848093
539,-615,12.8112,-0.0476074,0,0,0,0,0,0,0,-1,1763,1639,12.8111,0.0475553
546,-615,8.33813,2.94556,0,0,0,0,0,0,0,-1,1770,1639,8.33813,-2.9455
553,-615,5.82532,-2.04199,0,0,0,0,0,0,0,-1,1777,1639,5.82534,2.04195
560,-615,0,0,0,0,0,0,0,0,0,-1,1784,1639,0,0
567,-615,0,0,0,0,0,0,0,0,0,-1,1791,1639,0,0
574,-615,0,0,0,0,0,0,0,0,0,-1,1798,1639,0,0
581,-615,0,0,0,0,0,0,0,0,0,-1,1805,1639,0,0
588,-615,0,0,0,0,0,0,0,0,0,-1,1812,1639,0,0
595,-615,0,0,0,0,0,0,0,0,0,-1,1819,1639,0,0
602,-615,0,0,0,0,0,0,0,0,0,-1,1826,1639,0,0
609,-615,0,0,0,0,0,0,0,0,0,-1,1833,1639,0,0
616,-615,0,0,0,0,0,0,0,0,0,-1,1840,1639,0,0
623,-615,0,0,0,0,0,0,0,0,0,-1,1847,1639,0,0
630,-615,0,0,0,0,0,0,0,0,0,-1,1854,1639,0,0
637,-615,0,0,0,0,0,0,0,0,0,-1,1861,1639,0,0
644,-615,0,0,0,0,0,0,0,0,0,-1,1868,1639,0,0
651,-615,0,0,0,0,0,0,0,0,0,-1,1875,1639,0,0
658,-615,0,0,0,0,0,0,0,0,0,-1,1882,1639,0,0
665,-615,0,0,0,0,0,0,0,0,0,-1,1889,1639,0,0
672,-615,0,0,0,0,0,0,0,0,0,-1,1896,1639,0,0
679,-615,0,0,0,0,0,0,0,0,0,-1,1903,1639,0,0
686,-615,0,0,0,0,0,0,0,0,0,-1,1910,1639,0,0
693,-615,0,0,0,0,0,0,0,0,0,-1,1917,1639,0,0
700,-615,0,0,0,0,0,0,0,0,0,-1,1924,1639,0,0
707,-615,0,0,0,0,0,0,0,0,0,-1,1931,1639,0,0
714,-615,0,0,0,0,0,0,0,0,0,-1,1938,1639,0,0
721,-615,0,0,0,0,0,0,0,0,0,-1,1945,1639,0,0
728,-615,0,0,0,0,0,0,0,0,0,-1,1952,1639,0,0
735,-615,0,0,0,0,0,0,0,0,0,-1,1959,1639,0,0
742,-615,0,0,0,0,0,0,0,0,0,-1,1966,1639,0,0
749,-615,0,0,0,0,0,0,0,0,0,-1,1973,1639,0,0
756,-615,0,0,0,0,0,0,0,0,0,-1,1980,1639,0,0
763,-615,0,0,0,0,0,0,0,0,0,-1,1987,1639,0,0
770,-615,0,0,0,0,0,0,0,0,0,-1,1994,1639,0,0
777,-615,0,0,0,0,0,0,0,0,0,-1,2001,1639,0,0
784,-615,0,0,0,0,0,0,0,0,0,-1,2008,1639,0,0
791,-615,0,0,0,0,0,0,0,0,0,-1,2015,1639,0,0
798,-615,0,0,0,0,0,0,0,0,0,-1,2022,1639,0,0
805,-615,0,0,0,0,0,0,0,0,0,-1,2029,1639,0,0
812,-615,0,0,0,0,0,0,0,0,0,-1,2036,1639,0,0
-700,-622,0,0,0,0,0,0,0,0,0,-1,524,1646,0,0
-693,-622,0,0,0,0,0,0,0,0,0,-1,531,1646,0,0
-686,-622,0,0,0,0,0,0,0,0,0,-1,538,1646,0,0
-679,-622,0,0,0,0,0,0,0,0,0,-1,545,1646,0,0
-672,-622,0,0,0,0,0,0,0,0,0,-1,552,1646,0,0
-665,-622,0,0,0,0,0,0,0,0,0,-1,559,1646,0,0
-658,-622,0,0,0,0,0,0,0,0,0,-1,566,1646,0,0
-651,-622,0,0,0,0,0,0,0,0,0,-1,573,1646,0,0
-644,-622,0,0,0,0,0,0,0,0,0,-1,580,1646,0,0
-637,-622,0,0,0,0,0,0,0,0,0,-1,587,1646,0,0
-630,-622,0,0,0,0,0,0,0,0,0,-1,594,1646,0,0
-623,-622,0,0,0,0,0,0,0,0,0,-1,601,1646,0,0
-616,-622,0,0,0,0,0,0,0,0,0,-1,608,1646,0,0
-609,-622,0,0,0,0,0,0,0,0,0,-1,615,1646,0,0
-602,-622,0,0,0,0,0,0,0,0,0,-1,622,1646,0,0
-595,-622,0,0,0,0,0,0,0,0,0,-1,629,1646,0,0
-588,-622,0,0,0,0,0,0,0,0,0,-1,636,1646,0,0
-581,-622,0,0,0,0,0,0,0,0,0,-1,643,1646,0,0
-574,-622,0,0,0,0,0,0,0,0,0,-1,650,1646,0,0
-567,-622,0,0,0,0,0,0,0,0,0,-1,657,1646,0,0
-560,-622,0,0,0,0,0,0,0,0,0,-1,664,1646,0,0
-553,-622,0,0,0,0,0,0,0,0,0,-1,671,1646,0,0
-546,-622,0,0,0,0,0,0,0,0,0,-1,678,1646,0,0
-539,-622,0,0,0,0,0,0,0,0,0,-1,685,1646,0,0
-532,-622,0,0,0,0,0,0,0,0,0,-1,692,1646,0,0
-525,-622,0,0,0,0,0,0,0,0,0,-1,699,1646,0,0
-518,-622,0,0,0,0,0,0,0,0,0,-1,706,1646,0,0
-511,-622,0,0,0,0,0,0,0,0,0,-1,713,1646,0,0
-504,-622,0,0,0,0,0,0,0,0,0,-1,720,1646,0,0
-497,-622,0,0,0,0,0,0,0,0,0,-1,727,1646,0,0
-490,-622,0,0,0,0,0,0,0,0,0,-1,734,1646,0,0
-483,-622,0,0,0,0,0,0,0,0,0,-1,741,1646,0,0
-476,-622,0,0,0,0,0,0,0,0,0,-1,748,1646,0,0
-469,-622,0,0,0,0,0,0,0,0,0,-1,755,1646,0,0
-462,-622,0,0,0,0,0,0,0,0,0,-1,762,1646,0,0
-455,-622,0,0,0,0,0,0,0,0,0,-1,769,1646,0,0
-448,-622,0,0,0,0,0,0,0,0,0,-1,776,1646,0,0
-441,-622,0,0,0,0,0,0,0,0,0,-1,783,1646,0,0
-434,-622,0,0,0,0,0,0,0,0,0,-1,790,1646,0,0
-427,-622,-7.62891,3.48096,0,0,0,0,0,0,0,-1,797,1646,-7.62892,-3.48092
-420,-622,-9.35791,1.77185,0,0,0,0,0,0,0,-1,804,1646,-9.35789,-1.77183
-413,-622,-8.46075,1.96777,0,0,0,0,0,0,0,-1,811,1646,-8.46074,-1.96774
-406,-622,-4.44318,2.16858,0,0,0,0,0,0,0,-1,818,1646,-4.44315,-2.16859
-399,-622,-7.06976,1.51001,0,0,0,0,0,0,0,-1,825,1646,-7.06976,-1.51005
-392,-622,3.89551,5.85376,0,0,0,0,0,0,0,-1,832,1646,3.8955,-5.85379
-385,-622,2.00543,14.0448,0,0,0,0,0,0,0,-1,839,1646,2.00544,-14.0448
-378,-622,1.49036,15.3436,0,0,0,0,0,0,0,-1,846,1646,1.49033,-15.3436
-371,-622,3.23883,20.4496,0,0,0,0,0,0,0,-1,853,1646,3.23886,-20.4496
-364,-622,3.27771,29.1754,0,0,0,0,0,0,0,-1,860,1646,3.27774,-29.1754
-357,-622,3.49396,29.7686,0,0,0,0,0,0,0,-1,867,1646,3.49396,-29.7685
-350,-622,3.45697,30.369,0.000839846,-0.0108561,-0.00785592,0.00478546,-0.0148017,-0.465444,0.0117912,0.0486264,874,1646,3.45696,-30.3691
-343,-622,3.40839,30.834,0.00126848,-0.00970902,-0.00681938,0.0045336,-0.0129741,-0.446545,0.0104924,0.0250942,881,1646,3.4084,-30.8339
-336,-622,3.42871,31.3591,0.00153321,-0.0086062,-0.00573003,0.00411433,-0.0111873,-0.423233,0.0091436,0.010297,888,1646,3.42874,-31.3592
-329,-622,3.37341,31.9098,0.00169894,-0.00723679,-0.00459894,0.00364294,-0.00918079,-0.399927,0.00763044,0.0095373,895,1646,3.3734,-31.9098
-322,-622,3.34344,32.4766,0.001856,-0.00572771,-0.00338161,0.00314484,-0.00701655,-0.364135,0.00600695,0.0105698,902,1646,3.34346,-32.4766
-315,-622,3.32281,33.0111,0.00201656,-0.00406351,-0.0021466,0.00269804,-0.00474499,-0.307408,0.00435107,0.0140851,909,1646,3.32281,-33.0111
-308,-622,3.30383,33.5354,0.00223088,-0.00222319,-0.000973786,0.00243447,-0.00242678,-0.206103,0.00280665,0.0154044,916,1646,3.30381,-33.5354
-301,-622,3.3139,34.0573,0.00254805,-0.000376708,0.000251873,0.00256958,-0.00039824,0.0852809,0.00186006,0.0144583,923,1646,3.31388,-34.0572
-294,-622,3.30182,34.5911,0.00297255,0.00150688,0.00141964,0.00383735,0.000642084,0.547131,0.00237333,0.0108339,930,1646,3.30183,-34.5911
-287,-622,3.26508,35.1108,0.00339426,0.00335222,0.00245942,0.00583275,0.000913731,0.781125,0.00362254,0.00822743,937,1646,3.26508,-35.1109
-280,-622,3.23975,35.6139,0.00391556,0.00511716,0.00343578,0.00800428,0.00102845,0.871956,0.00502855,0.00945104,944,1646,3.23974,-35.6139
-273,-622,3.24664,36.1046,0.00451525,0.00666487,0.004207,0.00993218,0.00124794,0.910463,0.00624717,0.0142611,951,1646,3.24664,-36.1046
-266,-622,3.22253,36.616,0.00510815,0.00806598,0.00481051,0.0116198,0.00155436,0.93453,0.00728389,0.0135756,958,1646,3.22253,-36.616
-259,-622,3.22198,37.1537,0.00576133,0.00921159,0.00524465,0.0130075,0.00196537,0.94429,0.00809648,0.0117965,965,1646,3.222,-37.1536
-252,-622,3.20996,37.6398,0.00639159,0.0102396,0.00564588,0.0142803,0.00235087,0.949616,0.00884136,0.0123773,972,1646,3.20998,-37.6398
-245,-622,3.27014,38.1179,0.00698393,0.0112406,0.00589014,0.0153751,0.00284939,0.958768,0.00944467,0.0116305,979,1646,3.27014,-38.118
-238,-622,3.27966,38.6047,0.00758857,0.0119316,0.00600369,0.0161444,0.00337575,0.958926,0.00983279,0.0163452,986,1646,3.27966,-38.6048
-231,-622,3.38043,39.2018,0.00877117,0.0126273,0.00610534,0.0171018,0.00429668,0.938342,0.010273,0.0294033,993,1646,3.38042,-39.2017
-224,-622,3.46716,39.5743,0.00979505,0.0128285,0.00673527,0.0182157,0.00440782,0.896145,0.0109737,0.04397,1000,1646,3.46718,-39.5743
-217,-622,3.57965,40.1571,0,0,0,0,0,0,0,-1,1007,1646,3.57962,-40.1571
-210,-622,3.87927,28.0903,0,0,0,0,0,0,0,-1,1014,1646,3.87925,-28.0903
-203,-622,4.21375,20.9574,0,0,0,0,0,0,0,-1,1021,1646,4.21375,-20.9574
-196,-622,4.18518,21.2491,0,0,0,0,0,0,0,-1,1028,1646,4.18521,-21.2491
-189,-622,4.98254,25.8979,0,0,0,0,0,0,0,-1,1035,1646,4.98255,-25.8979
-182,-622,2.21411,20.6752,0,0,0,0,0,0,0,-1,1042,1646,2.21416,-20.6751
-175,-622,3.69177,41.6937,0,0,0,0,0,0,0,-1,1049,1646,3.69179,-41.6937
-168,-622,4.20679,44.5179,0,0,0,0,0,0,0,-1,1056,1646,4.2068,-44.5179
-161,-622,5.16284,44.9662,0,0,0,0,0,0,0,-1,1063,1646,5.16288,-44.9662
-154,-622,5.6377,45.4104,0,0,0,0,0,0,0,-1,1070,1646,5.6377,-45.4104
-147,-622,5.69165,45.774,0,0,0,0,0,0,0,-1,1077,1646,5.69163,-45.774
-140,-622,3.27515,16.0353,0,0,0,0,0,0,0,-1,1084,1646,3.27519,-16.0353
-133,-622,3.09644,17.677,0,0,0,0,0,0,0,-1,1091,1646,3.09638,-17.677
-126,-622,3.5061,19.5251,0,0,0,0,0,0,0,-1,1098,1646,3.50616,-19.5252
-119,-622,4.06384,13.1715,0,0,0,0,0,0,0,-1,1105,1646,4.06379,-13.1716
-112,-622,4.33276,14.6605,0,0,0,0,0,0,0,-1,1112,1646,4.33281,-14.6605
-105,-622,0.306519,4.38159,0,0,0,0,0,0,0,-1,1119,1646,0.306536,-4.38159
-98,-622,-0.510376,3.5033,0,0,0,0,0,0,0,-1,1126,1646,-0.510393,-3.50324
-91,-622,-1.146,0.975952,0,0,0,0,0,0,0,-1,1133,1646,-1.14599,-0.97597
-84,-622,-2.04895,1.31787,0,0,0,0,0,0,0,-1,1140,1646,-2.0489,-1.31781
-77,-622,-1.80627,0.332275,0,0,0,0,0,0,0,-1,1147,1646,-1.80622,-0.33223
-70,-622,-3.65588,2.28149,0,0,0,0,0,0,0,-1,1154,1646,-3.65589,-2.28155
-63,-622,-2.49683,1.27087,0,0,0,0,0,0,0,-1,1161,1646,-2.49679,-1.27093
-56,-622,-2.44238,-0.575562,0,0,0,0,0,0,0,-1,1168,1646,-2.44242,0.575508
-49,-622,-2.41089,1.38818,0,0,0,0,0,0,0,-1,1175,1646,-2.41088,-1.38815
-42,-622,-2.71497,2.85242,0,0,0,0,0,0,0,-1,1182,1646,-2.71491,-2.85247
-35,-622,-3.0177,4.25842,0,0,0,0,0,0,0,-1,1189,1646,-3.01773,-4.25838
-28,-622,-0.896606,0.678833,0,0,0,0,0,0,0,-1,1196,1646,-0.89661,-0.678835
-21,-622,16.4141,36.2849,0,0,0,0,0,0,0,-1,1203,1646,16.4141,-36.285
-14,-622,12.7726,35.3608,0,0,0,0,0,0,0,-1,1210,1646,12.7726,-35.3609
-7,-622,5.90784,51.5118,0,0,0,0,0,0,0,-1,1217,1646,5.90783,-51.5119
0,-622,0,0,0,0,0,0,0,0,0,-1,1224,1646,0,0
7,-622,0,0,0,0,0,0,0,0,0,-1,1231,1646,0,0
14,-622,0,0,0,0,0,0,0,0,0,-1,1238,1646,0,0
21,-622,0,0,0,0,0,0,0,0,0,-1,1245,1646,0,0
28,-622,0,0,0,0,0,0,0,0,0,-1,1252,1646,0,0
35,-622,0,0,0,0,0,0,0,0,0,-1,1259,1646,0,0
42,-622,0,0,0,0,0,0,0,0,0,-1,1266,1646,0,0
49,-622,0,0,0,0,0,0,0,0,0,-1,1273,1646,0,0
56,-622,0,0,0,0,0,0,0,0,0,-1,1280,1646,0,0
63,-622,0,0,0,0,0,0,0,0,0,-1,1287,1646,0,0
70,-622,0,0,0,0,0,0,0,0,0,-1,1294,1646,0,0
77,-622,0,0,0,0,0,0,0,0,0,-1,1301,1646,0,0
84,-622,0,0,0,0,0,0,0,0,0,-1,1308,1646,0,0
91,-622,0,0,0,0,0,0,0,0,0,-1,1315,1646,0,0
98,-622,0,0,0,0,0,0,0,0,0,-1,1322,1646,0,0
105,-622,0,0,0,0,0,0,0,0,0,-1,1329,1646,0,0
112,-622,0,0,0,0,0,0,0,0,0,-1,1336,1646,0,0
119,-622,0,0,0,0,0,0,0,0,0,-1,1343,1646,0,0
126,-622,16.7639,56.3384,0.0431486,0.117622,0.0887019,0.176586,-0.0158154,0.984126,0.123334,0.0457369,1350,1646,16.764,-56.3384
133,-622,17.1285,56.2102,0,0,0,0,0,0,0,-1,1357,1646,17.1286,-56.2102
140,-622,17.675,56.0713,0,0,0,0,0,0,0,-1,1364,1646,17.6751,-56.0712
147,-622,18.2594,55.9216,0,0,0,0,0,0,0,-1,1371,1646,18.2594,-55.9216
154,-622,4.68335,31.5724,0,0,0,0,0,0,0,-1,1378,1646,4.68332,-31.5723
161,-622,10.6884,6.46448,0,0,0,0,0,0,0,-1,1385,1646,10.6883,-6.46442
168,-622,12.2402,5.18091,0,0,0,0,0,0,0,-1,1392,1646,12.2403,-5.1809
175,-622,5.64355,-1.77075,0,0,0,0,0,0,0,-1,1399,1646,5.64351,1.77077
182,-622,5.88586,-1.32251,0,0,0,0,0,0,0,-1,1406,1646,5.88587,1.32256
189,-622,5.97986,-1.18005,0,0,0,0,0,0,0,-1,1413,1646,5.97986,1.18003
196,-622,5.85022,-0.244507,0,0,0,0,0,0,0,-1,1420,1646,5.85026,0.244478
203,-622,5.25159,0.138794,0,0,0,0,0,0,0,-1,1427,1646,5.25162,-0.138822
210,-622,6.66833,0.0397949,0,0,0,0,0,0,0,-1,1434,1646,6.6684,-0.0398278
217,-622,6.12061,0.0506592,0,0,0,0,0,0,0,-1,1441,1646,6.12058,-0.0507181
224,-622,5.57275,0.0616455,0,0,0,0,0,0,0,-1,1448,1646,5.57276,-0.0616084
231,-622,5.31348,1.3949,0,0,0,0,0,0,0,-1,1455,1646,5.31342,-1.39495
238,-622,3.76477,2.90686,0,0,0,0,0,0,0,-1,1462,1646,3.7648,-2.90686
245,-622,5.13794,2.67993,0,0,0,0,0,0,0,-1,1469,1646,5.13796,-2.67992
252,-622,6.66528,2.53992,0,0,0,0,0,0,0,-1,1476,1646,6.66522,-2.53991
259,-622,8.93787,3.31458,0,0,0,0,0,0,0,-1,1483,1646,8.93791,-3.31454
266,-622,5.72644,3.11926,0,0,0,0,0,0,0,-1,1490,1646,5.72647,-3.1192
273,-622,7.28076,3.61218,0,0,0,0,0,0,0,-1,1497,1646,7.28071,-3.61212
280,-622,8.43127,4.4447,0,0,0,0,0,0,0,-1,1504,1646,8.43123,-4.44467
287,-622,8.60315,5.94617,0,0,0,0,0,0,0,-1,1511,1646,8.60319,-5.94622
294,-622,7.62756,11.5143,0,0,0,0,0,0,0,-1,1518,1646,7.62762,-11.5143
301,-622,7.36548,11.6569,0,0,0,0,0,0,0,-1,1525,1646,7.36549,-11.6569
308,-622,7.10339,11.7994,0,0,0,0,0,0,0,-1,1532,1646,7.10335,-11.7995
315,-622,8.28687,16.5842,0,0,0,0,0,0,0,-1,1539,1646,8.28689,-16.5843
322,-622,7.43689,20.5786,0,0,0,0,0,0,0,-1,1546,1646,7.43685,-20.5786
329,-622,9.76477,26.4202,0,0,0,0,0,0,0,-1,1553,1646,9.7648,-26.4202
336,-622,10.4526,28.8552,0,0,0,0,0,0,0,-1,1560,1646,10.4526,-28.8552
343,-622,14.2068,41.1268,0,0,0,0,0,0,0,-1,1567,1646,14.2068,-41.1268
350,-622,14.3159,41.1702,0.00998578,0.0386543,-0.0158407,0.0456835,0.00295654,-1.15316,0.0295196,0.0463553,1574,1646,14.3159,-41.1701
357,-622,14.2258,40.0785,0.00872868,0.0339027,-0.0139624,0.0401141,0.00251726,-1.15222,0.0259444,0.0421505,1581,1646,14.2259,-40.0785
364,-622,14.2704,39.5131,0.00764723,0.0290111,-0.0121493,0.0345066,0.00215173,-1.14601,0.0223218,0.0355942,1588,1646,14.2703,-39.5131
371,-622,14.2896,38.8469,0.00664645,0.0240547,-0.0103168,0.0288486,0.00185253,-1.13581,0.0186456,0.0230304,1595,1646,14.2896,-38.847
378,-622,14.3033,38.2865,0.00549652,0.0201218,-0.00860285,0.0241,0.00151829,-1.13765,0.0155852,0.0117774,1602,1646,14.3033,-38.2865
385,-622,14.3048,37.7855,0.00443001,0.0163341,-0.00709318,0.0196417,0.00112247,-1.13447,0.0127368,0.0102465,1609,1646,14.3049,-37.7855
392,-622,14.3014,37.333,0.00347086,0.0130745,-0.00572734,0.0157466,0.000798733,-1.13426,0.0102419,0.0113469,1616,1646,14.3014,-37.333
399,-622,14.2927,36.8657,0.00255497,0.0103126,-0.00455902,0.0124196,0.000447986,-1.13788,0.00813453,0.0104977,1623,1646,14.2928,-36.8657
406,-622,14.2957,36.3804,0.00177345,0.00779737,-0.00352491,0.00942189,0.000148929,-1.13894,0.00623221,0.0136597,1630,1646,14.2956,-36.3804
413,-622,14.2892,35.9058,0.00114007,0.00631317,-0.00285059,0.00757579,-0.000122548,-1.15384,0.00509187,0.0157207,1637,1646,14.2891,-35.9058
420,-622,14.2806,35.4521,0.0005664,0.00492342,-0.00229543,0.00590955,-0.000419726,-1.16503,0.0040868,0.0156456,1644,1646,14.2807,-35.4521
427,-622,14.2726,34.9266,0.000275884,0.00390187,-0.00197864,0.00477252,-0.000594774,-1.15627,0.00339734,0.0130284,1651,1646,14.2726,-34.9266
434,-622,14.2672,34.4025,0.000156728,0.00321631,-0.0018377,0.00407763,-0.000704591,-1.13251,0.00298117,0.013874,1658,1646,14.2672,-34.4024
441,-622,14.2576,33.8966,0.000265333,0.00257694,-0.00178078,0.00354412,-0.000701845,-1.07325,0.00262812,0.0152248,1665,1646,14.2576,-33.8966
448,-622,14.2216,33.4045,0.000426793,0.00186093,-0.00163721,0.00293122,-0.000643492,-0.991806,0.00220024,0.0142057,1672,1646,14.2215,-33.4045
455,-622,14.1802,32.8667,0.00060624,0.00104124,-0.0014666,0.00230638,-0.000658898,-0.859013,0.00179792,0.0161408,1679,1646,14.1802,-32.8667
462,-622,14.177,32.3456,0.000648732,6.90624e-05,-0.00112381,0.00151948,-0.000801681,-0.659196,0.00136131,0.016637,1686,1646,14.1771,-32.3456
469,-622,14.1404,31.8312,0.000603945,-0.000829065,-0.000763404,0.00093442,-0.00115954,-0.408539,0.00121127,0.0188676,1693,1646,14.1403,-31.8312
476,-622,14.2244,31.3125,0.000381584,-0.00156058,-0.000387657,0.000456102,-0.00163509,-0.189909,0.0012697,0.0315528,1700,1646,14.2244,-31.3125
483,-622,14.1908,30.6207,0,0,0,0,0,0,0,-1,1707,1646,14.1908,-30.6208
490,-622,14.1498,30.2385,0,0,0,0,0,0,0,-1,1714,1646,14.1498,-30.2385
497,-622,14.1311,30.087,0,0,0,0,0,0,0,-1,1721,1646,14.1311,-30.087
504,-622,10.8306,19.8021,0,0,0,0,0,0,0,-1,1728,1646,10.8306,-19.8022
511,-622,5.29004,4.14587,0,0,0,0,0,0,0,-1,1735,1646,5.29008,-4.14589
518,-622,5.6001,1.55359,0,0,0,0,0,0,0,-1,1742,1646,5.60015,-1.5536
525,-622,5.83093,2.01807,0,0,0,0,0,0,0,-1,1749,1646,5.83097,-2.01802
532,-622,5.44202,0.57373,0,0,0,0,0,0,0,-1,1756,1646,5.44196,-0.573705
539,-622,9.32129,1.06116,0,0,0,0,0,0,0,-1,1763,1646,9.32131,-1.0612
546,-622,6.50977,-3.45618,0,0,0,0,0,0,0,-1,1770,1646,6.50981,3.4562
553,-622,0,0,0,0,0,0,0,0,0,-1,1777,1646,0,0
560,-622,0,0,0,0,0,0,0,0,0,-1,1784,1646,0,0
567,-622,0,0,0,0,0,0,0,0,0,-1,1791,1646,0,0
574,-622,0,0,0,0,0,0,0,0,0,-1,1798,1646,0,0
581,-622,0,0,0,0,0,0,0,0,0,-1,1805,1646,0,0
588,-622,0,0,0,0,0,0,0,0,0,-1,1812,1646,0,0
595,-622,0,0,0,0,0,0,0,0,0,-1,1819,1646,0,0
602,-622,0,0,0,0,0,0,0,0,0,-1,1826,1646,0,0
609,-622,0,0,0,0,0,0,0,0,0,-1,1833,1646,0,0
616,-622,0,0,0,0,0,0,0,0,0,-1,1840,1646,0,0
623,-622,0,0,0,0,0,0,0,0,0,-1,1847,1646,0,0
630,-622,0,0,0,0,0,0,0,0,0,-1,1854,1646,0,0
637,-622,0,0,0,0,0,0,0,0,0,-1,1861,1646,0,0
644,-622,0,0,0,0,0,0,0,0,0,-1,1868,1646,0,0
651,-622,0,0,0,0,0,0,0,0,0,-1,1875,1646,0,0
658,-622,0,0,0,0,0,0,0,0,0,-1,1882,1646,0,0
665,-622,0,0,0,0,0,0,0,0,0,-1,1889,1646,0,0
672,-622,0,0,0,0,0,0,0,0,0,-1,1896,1646,0,0
679,-622,0,0,0,0,0,0,0,0,0,-1,1903,1646,0,0
686,-622,0,0,0,0,0,0,0,0,0,-1,1910,1646,0,0
693,-622,0,0,0,0,0,0,0,0,0,-1,1917,1646,0,0
700,-622,0,0,0,0,0,0,0,0,0,-1,1924,1646,0,0
707,-622,0,0,0,0,0,0,0,0,0,-1,1931,1646,0,0
714,-622,0,0,0,0,0,0,0,0,0,-1,1938,1646,0,0
721,-622,0,0,0,0,0,0,0,0,0,-1,1945,1646,0,0
728,-622,0,0,0,0,0,0,0,0,0,-1,1952,1646,0,0
735,-622,0,0,0,0,0,0,0,0,0,-1,1959,1646,0,0
742,-622,0,0,0,0,0,0,0,0,0,-1,1966,1646,0,0
749,-622,0,0,0,0,0,0,0,0,0,-1,1973,1646,0,0
756,-622,0,0,0,0,0,0,0,0,0,-1,1980,1646,0,0
763,-622,0,0,0,0,0,0,0,0,0,-1,1987,1646,0,0
770,-622,0,0,0,0,0,0,0,0,0,-1,1994,1646,0,0
777,-622,0,0,0,0,0,0,0,0,0,-1,2001,1646,0,0
784,-622,0,0,0,0,0,0,0,0,0,-1,2008,1646,0,0
791,-622,0,0,0,0,0,0,0,0,0,-1,2015,1646,0,0
798,-622,0,0,0,0,0,0,0,0,0,-1,2022,1646,0,0
805,-622,0,0,0,0,0,0,0,0,0,-1,2029,1646,0,0
812,-622,0,0,0,0,0,0,0,0,0,-1,2036,1646,0,0
-700,-629,0,0,0,0,0,0,0,0,0,-1,524,1653,0,0
-693,-629,0,0,0,0,0,0,0,0,0,-1,531,1653,0,0
-686,-629,0,0,0,0,0,0,0,0,0,-1,538,1653,0,0
-679,-629,0,0,0,0,0,0,0,0,0,-1,545,1653,0,0
-672,-629,0,0,0,0,0,0,0,0,0,-1,552,1653,0,0
-665,-629,0,0,0,0,0,0,0,0,0,-1,559,1653,0,0
-658,-629,0,0,0,0,0,0,0,0,0,-1,566,1653,0,0
-651,-629,0,0,0,0,0,0,0,0,0,-1,573,1653,0,0
-644,-629,0,0,0,0,0,0,0,0,0,-1,580,1653,0,0
-637,-629,0,0,0,0,0,0,0,0,0,-1,587,1653,0,0
-630,-629,0,0,0,0,0,0,0,0,0,-1,594,1653,0,0
-623,-629,0,0,0,0,0,0,0,0,0,-1,601,1653,0,0
-616,-629,0,0,0,0,0,0,0,0,0,-1,608,1653,0,0
-609,-629,0,0,0,0,0,0,0,0,0,-1,615,1653,0,0
-602,-629,0,0,0,0,0,0,0,0,0,-1,622,1653,0,0
-595,-629,0,0,0,0,0,0,0,0,0,-1,629,1653,0,0
-588,-629,0,0,0,0,0,0,0,0,0,-1,636,1653,0,0
-581,-629,0,0,0,0,0,0,0,0,0,-1,643,1653,0,0
-574,-629,0,0,0,0,0,0,0,0,0,-1,650,1653,0,0
-567,-629,0,0,0,0,0,0,0,0,0,-1,657,1653,0,0
-560,-629,0,0,0,0,0,0,0,0,0,-1,664,1653,0,0
-553,-629,0,0,0,0,0,0,0,0,0,-1,671,1653,0,0
-546,-629,0,0,0,0,0,0,0,0,0,-1,678,1653,0,0
-539,-629,0,0,0,0,0,0,0,0,0,-1,685,1653,0,0
-532,-629,0,0,0,0,0,0,0,0,0,-1,692,1653,0,0
-525,-629,0,0,0,0,0,0,0,0,0,-1,699,1653,0,0
-518,-629,0,0,0,0,0,0,0,0,0,-1,706,1653,0,0
-511,-629,0,0,0,0,0,0,0,0,0,-1,713,1653,0,0
-504,-629,0,0,0,0,0,0,0,0,0,-1,720,1653,0,0
-497,-629,0,0,0,0,0,0,0,0,0,-1,727,1653,0,0
-490,-629,0,0,0,0,0,0,0,0,0,-1,734,1653,0,0
-483,-629,0,0,0,0,0,0,0,0,0,-1,741,1653,0,0
-476,-629,0,0,0,0,0,0,0,0,0,-1,748,1653,0,0
-469,-629,0,0,0,0,0,0,0,0,0,-1,755,1653,0,0
-462,-629,0,0,0,0,0,0,0,0,0,-1,762,1653,0,0
-455,-629,0,0,0,0,0,0,0,0,0,-1,769,1653,0,0
-448,-629,0,0,0,0,0,0,0,0,0,-1,776,1653,0,0
-441,-629,0,0,0,0,0,0,0,0,0,-1,783,1653,0,0
-434,-629,0,0,0,0,0,0,0,0,0,-1,790,1653,0,0
-427,-629,0,0,0,0,0,0,0,0,0,-1,797,1653,0,0
-420,-629,-3.87103,3.37634,0,0,0,0,0,0,0,-1,804,1653,-3.87101,-3.37633
-413,-629,-5.69751,1.33582,0,0,0,0,0,0,0,-1,811,1653,-5.69754,-1.3358
-406,-629,2.85406,6.01501,0,0,0,0,0,0,0,-1,818,1653,2.85405,-6.01507
-399,-629,-0.455627,10.8687,0,0,0,0,0,0,0,-1,825,1653,-0.455625,-10.8687
-392,-629,1.15369,11.1295,0,0,0,0,0,0,0,-1,832,1653,1.1537,-11.1295
-385,-629,1.81976,11.6935,0,0,0,0,0,0,0,-1,839,1653,1.81975,-11.6935
-378,-629,2.19452,14.7941,0,0,0,0,0,0,0,-1,846,1653,2.19451,-14.7941
-371,-629,3.60114,14.7299,0,0,0,0,0,0,0,-1,853,1653,3.60113,-14.7299
-364,-629,3.26898,21.0801,0,0,0,0,0,0,0,-1,860,1653,3.26895,-21.08
-357,-629,4.38782,16.3444,0,0,0,0,0,0,0,-1,867,1653,4.38783,-16.3443
-350,-629,4.03271,30.4642,0,0,0,0,0,0,0,-1,874,1653,4.03269,-30.4642
-343,-629,3.83044,30.8983,0.00240898,-0.0133834,-0.0113214,0.00831582,-0.0192903,-0.480889,0.0163528,0.0390862,881,1653,3.83042,-30.8983
-336,-629,3.94501,31.3954,0.00234935,-0.0121472,-0.00954833,0.0070889,-0.0168868,-0.460743,0.0142224,0.0197623,888,1653,3.94498,-31.3954
-329,-629,3.93701,31.9429,0.0021604,-0.0107257,-0.00786695,0.00588601,-0.0144513,-0.442287,0.0120839,0.0118008,895,1653,3.93701,-31.9428
-322,-629,3.88879,32.483,0.00203472,-0.00912818,-0.00617033,0.00477346,-0.0118669,-0.417733,0.00989402,0.011578,902,1653,3.88877,-32.4831
-315,-629,3.84052,33.0175,0.00190917,-0.00742026,-0.00456462,0.00377096,-0.00928206,-0.387277,0.00775683,0.0152163,909,1653,3.84052,-33.0175
-308,-629,3.82153,33.5612,0.00185345,-0.00551468,-0.0031085,0.00298967,-0.00665089,-0.350432,0.0056982,0.0133117,916,1653,3.82153,-33.5612
-301,-629,3.84259,34.1133,0.00191951,-0.0036075,-0.0016811,0.00239068,-0.00407866,-0.273258,0.00377722,0.0119144,923,1653,3.84262,-34.1133
-294,-629,3.82935,34.6364,0.00212387,-0.0017098,-0.000390325,0.0021632,-0.00174913,-0.100442,0.002263,0.0128318,930,1653,3.82935,-34.6364
-287,-629,3.78375,35.1418,0.0023534,9.47298e-05,0.000713939,0.00256014,-0.000112014,0.281872,0.0017453,0.0100092,937,1653,3.78373,-35.1419
-280,-629,3.75958,35.6377,0.00267744,0.00179699,0.00175196,0.00404363,0.000430795,0.662309,0.00256425,0.0102643,944,1653,3.75961,-35.6377
-273,-629,3.75854,36.1265,0.00309863,0.00337413,0.00253159,0.00577172,0.000701045,0.812578,0.00363672,0.0137676,951,1653,3.75857,-36.1265
-266,-629,3.74854,36.6472,0.00355864,0.00481066,0.00310979,0.00735682,0.00101248,0.884722,0.00460431,0.0136418,958,1653,3.74853,-36.6472
-259,-629,3.73035,37.1689,0.00409765,0.00601994,0.00356259,0.00874876,0.00136883,0.917156,0.005434,0.0141368,965,1653,3.73036,-37.1689
-252,-629,3.72864,37.6517,0.00461052,0.0070245,0.00388327,0.00988403,0.00175098,0.936074,0.00609018,0.0109842,972,1653,3.72865,-37.6517
-245,-629,3.74225,38.1442,0.00511202,0.00794924,0.00408409,0.0108541,0.00220719,0.952554,0.00662406,0.00795205,979,1653,3.74222,-38.1442
-238,-629,3.74384,38.6198,0.00565942,0.00860447,0.00419599,0.0115788,0.00268507,0.954153,0.00699805,0.0108526,986,1653,3.74382,-38.6197
-231,-629,3.711,39.0907,0.0066769,0.00927313,0.00430404,0.0124705,0.00347948,0.931862,0.00743058,0.0175566,993,1653,3.71102,-39.0907
-224,-629,3.81641,39.6808,0.00761285,0.00968884,0.00486658,0.0136269,0.00367479,0.890469,0.00814099,0.0219725,1000,1653,3.81641,-39.6808
-217,-629,3.77588,40.0852,0.0112918,0.0123102,0.00625623,0.018078,0.00552412,0.826004,0.0106971,0.0369984,1007,1653,3.77588,-40.0853
-210,-629,3.60211,40.9015,0,0,0,0,0,0,0,-1,1014,1653,3.60212,-40.9015
-203,-629,4.10999,41.1306,0,0,0,0,0,0,0,-1,1021,1653,4.11003,-41.1306
-196,-629,4.27747,41.5654,0,0,0,0,0,0,0,-1,1028,1653,4.27752,-41.5654
-189,-629,4.14844,41.2664,0,0,0,0,0,0,0,-1,1035,1653,4.14845,-41.2664
-182,-629,4.22827,42.7013,0,0,0,0,0,0,0,-1,1042,1653,4.22829,-42.7013
-175,-629,4.86072,43.1406,0,0,0,0,0,0,0,-1,1049,1653,4.8607,-43.1406
-168,-629,4.63574,44.1659,0.0601793,0.0338641,0.0335577,0.0830667,0.0109767,0.598564,0.0521058,0.0488937,1056,1653,4.63569,-44.1659
-161,-629,5.58118,44.7009,0.0676654,0.0363595,0.0381941,0.0932896,0.0107353,0.590924,0.0589414,0.0466941,1063,1653,5.58121,-44.7009
-154,-629,6.12598,45.4464,0,0,0,0,0,0,0,-1,1070,1653,6.12597,-45.4464
-147,-629,6.61719,46.0029,0,0,0,0,0,0,0,-1,1077,1653,6.6172,-46.0029
-140,-629,2.10181,41.6577,0,0,0,0,0,0,0,-1,1084,1653,2.10175,-41.6577
-133,-629,3.41248,17.6686,0,0,0,0,0,0,0,-1,1091,1653,3.41243,-17.6686
-126,-629,4.01025,19.5328,0,0,0,0,0,0,0,-1,1098,1653,4.01022,-19.5328
-119,-629,4.94177,13.5525,0,0,0,0,0,0,0,-1,1105,1653,4.94172,-13.5525
-112,-629,5.63123,15.9187,0,0,0,0,0,0,0,-1,1112,1653,5.63118,-15.9187
-105,-629,2.15881,4.38342,0,0,0,0,0,0,0,-1,1119,1653,2.15878,-4.38347
-98,-629,0.825806,4.19385,0,0,0,0,0,0,0,-1,1126,1653,0.825779,-4.1939
-91,-629,-0.452271,3.64465,0,0,0,0,0,0,0,-1,1133,1653,-0.452278,-3.6446
-84,-629,-2.6084,0.466797,0,0,0,0,0,0,0,-1,1140,1653,-2.6084,-0.466786
-77,-629,-3.50903,2.10706,0,0,0,0,0,0,0,-1,1147,1653,-3.509,-2.10707
-70,-629,-1.20886,2.52502,0,0,0,0,0,0,0,-1,1154,1653,-1.20886,-2.525
-63,-629,-0.960693,4.30212,0,0,0,0,0,0,0,-1,1161,1653,-0.960691,-4.30215
-56,-629,-1.31934,5.64343,0,0,0,0,0,0,0,-1,1168,1653,-1.31928,-5.6434
-49,-629,-2.15662,2.57458,0,0,0,0,0,0,0,-1,1175,1653,-2.15656,-2.57459
-42,-629,-2.46326,3.91467,0,0,0,0,0,0,0,-1,1182,1653,-2.4633,-3.91466
-35,-629,-2.67261,5.24292,0,0,0,0,0,0,0,-1,1189,1653,-2.67257,-5.24298
-28,-629,-0.402954,-0.866577,0,0,0,0,0,0,0,-1,1196,1653,-0.402943,0.866612
-21,-629,3.45508,27.0596,0,0,0,0,0,0,0,-1,1203,1653,3.45508,-27.0596
-14,-629,6.25012,50.6627,0,0,0,0,0,0,0,-1,1210,1653,6.25017,-50.6627
-7,-629,7.92249,56.0343,0,0,0,0,0,0,0,-1,1217,1653,7.92248,-56.0342
0,-629,6.33484,48.2867,0,0,0,0,0,0,0,-1,1224,1653,6.33481,-48.2868
7,-629,8.87317,56.6356,0,0,0,0,0,0,0,-1,1231,1653,8.87319,-56.6356
14,-629,9.34167,56.8004,0,0,0,0,0,0,0,-1,1238,1653,9.34167,-56.8004
21,-629,9.67749,57.1106,0,0,0,0,0,0,0,-1,1245,1653,9.67745,-57.1105
28,-629,10.1265,57.2892,0,0,0,0,0,0,0,-1,1252,1653,10.1264,-57.2892
35,-629,10.9525,58.3802,0,0,0,0,0,0,0,-1,1259,1653,10.9525,-58.3802
42,-629,3.5376,55.5764,0,0,0,0,0,0,0,-1,1266,1653,3.53763,-55.5764
49,-629,4.67261,54.8146,0.369811,0.118636,-0.137137,0.430177,0.0582694,-0.414666,0.26947,0.0491605,1273,1653,4.67265,-54.8145
56,-629,8.66333,53.2755,0.348707,0.100477,-0.120642,0.397679,0.0515049,-0.385605,0.249728,0.0484993,1280,1653,8.66336,-53.2755
63,-629,9.81592,52.2241,0,0,0,0,0,0,0,-1,1287,1653,9.8159,-52.2241
70,-629,10.6069,47.0986,0,0,0,0,0,0,0,-1,1294,1653,10.6069,-47.0987
77,-629,10.2743,47.401,0,0,0,0,0,0,0,-1,1301,1653,10.2743,-47.401
84,-629,9.94165,47.7034,0,0,0,0,0,0,0,-1,1308,1653,9.94169,-47.7033
91,-629,10.2057,48.0658,0.132223,0.0675316,0.0261953,0.1415,0.0582547,0.340361,0.0821184,0.0444573,1315,1653,10.2057,-48.0659
98,-629,10.3087,49.0812,0.102134,0.0636709,0.0496993,0.136193,0.0296119,0.600792,0.0827108,0.0451441,1322,1653,10.3087,-49.0811
105,-629,10.7344,49.7631,0,0,0,0,0,0,0,-1,1329,1653,10.7344,-49.7631
112,-629,15.3492,55.5713,0.0451392,0.0747148,0.0917493,0.15286,-0.0330064,0.865299,0.114506,0.0457841,1336,1653,15.3492,-55.5712
119,-629,15.3131,55.932,0.0534042,0.0955035,0.0968532,0.173568,-0.0246604,0.892402,0.124747,0.0412687,1343,1653,15.3132,-55.932
126,-629,15.3466,55.8501,0.060245,0.110622,0.0983851,0.186992,-0.0161247,0.910716,0.130369,0.0443557,1350,1653,15.3465,-55.8501
133,-629,15.3767,55.7776,0,0,0,0,0,0,0,-1,1357,1653,15.3767,-55.7775
140,-629,16.8634,55.7643,0,0,0,0,0,0,0,-1,1364,1653,16.8634,-55.7643
147,-629,17.5652,55.8311,0,0,0,0,0,0,0,-1,1371,1653,17.5652,-55.831
154,-629,1.58569,52.5651,0,0,0,0,0,0,0,-1,1378,1653,1.58564,-52.5651
161,-629,10.5461,6.83752,0,0,0,0,0,0,0,-1,1385,1653,10.5461,-6.83758
168,-629,12.0059,5.56348,0,0,0,0,0,0,0,-1,1392,1653,12.0059,-5.56352
175,-629,5.84485,-1.78845,0,0,0,0,0,0,0,-1,1399,1653,5.84479,1.7884
182,-629,5.99036,-1.27783,0,0,0,0,0,0,0,-1,1406,1653,5.99041,1.27778
189,-629,5.97668,-0.748535,0,0,0,0,0,0,0,-1,1413,1653,5.97671,0.748544
196,-629,4.52869,9.24695,0,0,0,0,0,0,0,-1,1420,1653,4.52869,-9.2469
203,-629,3.75085,6.88037,0,0,0,0,0,0,0,-1,1427,1653,3.75087,-6.88032
210,-629,3.5907,6.52637,0,0,0,0,0,0,0,-1,1434,1653,3.59067,-6.52642
217,-629,2.4585,4.84448,0,0,0,0,0,0,0,-1,1441,1653,2.45855,-4.84448
224,-629,1.31982,3.68481,0,0,0,0,0,0,0,-1,1448,1653,1.31986,-3.68487
231,-629,3.63025,1.73499,0,0,0,0,0,0,0,-1,1455,1653,3.6303,-1.735
238,-629,4.26428,2.11255,0,0,0,0,0,0,0,-1,1462,1653,4.26429,-2.11253
245,-629,5.61816,1.95361,0,0,0,0,0,0,0,-1,1469,1653,5.61815,-1.95359
252,-629,7.27136,2.18982,0,0,0,0,0,0,0,-1,1476,1653,7.27131,-2.18985
259,-629,8.67334,2.18628,0,0,0,0,0,0,0,-1,1483,1653,8.6733,-2.18633
266,-629,6.86475,3.72058,0,0,0,0,0,0,0,-1,1490,1653,6.86479,-3.72063
273,-629,7.9021,3.8717,0,0,0,0,0,0,0,-1,1497,1653,7.90205,-3.87171
280,-629,9.70837,4.39087,0,0,0,0,0,0,0,-1,1504,1653,9.7084,-4.39082
287,-629,9.82947,7.19348,0,0,0,0,0,0,0,-1,1511,1653,9.8295,-7.19347
294,-629,6.56555,11.6359,0,0,0,0,0,0,0,-1,1518,1653,6.5656,-11.6358
301,-629,14.6523,43.5507,0,0,0,0,0,0,0,-1,1525,1653,14.6523,-43.5507
308,-629,6.08264,12.1423,0,0,0,0,0,0,0,-1,1532,1653,6.08263,-12.1423
315,-629,6.82043,18.2764,0,0,0,0,0,0,0,-1,1539,1653,6.82049,-18.2764
322,-629,10.3922,29.9829,0,0,0,0,0,0,0,-1,1546,1653,10.3922,-29.9829
329,-629,13.7332,41.6432,0,0,0,0,0,0,0,-1,1553,1653,13.7331,-41.6432
336,-629,13.7417,41.4127,0,0,0,0,0,0,0,-1,1560,1653,13.7417,-41.4127
343,-629,13.7708,40.8566,0.00865077,0.0321918,-0.0122687,0.0374233,0.00341933,-1.16774,0.0238908,0.0426284,1567,1653,13.7708,-40.8565
350,-629,13.8514,40.2155,0.0078089,0.0292319,-0.0113012,0.0340913,0.00294948,-1.16471,0.021811,0.0282032,1574,1653,13.8515,-40.2155
357,-629,13.8821,39.6681,0.0068368,0.0258552,-0.0100939,0.0302137,0.00247835,-1.16319,0.0193693,0.0165937,1581,1653,13.8821,-39.668
364,-629,13.8292,39.2031,0.00598887,0.0222701,-0.00891528,0.0262023,0.00205671,-1.1554,0.0168246,0.0141839,1588,1653,13.8292,-39.2032
371,-629,13.8175,38.7312,0.00522012,0.0185975,-0.00769089,0.0221014,0.00171625,-1.14331,0.0141968,0.0124174,1595,1653,13.8175,-38.7312
378,-629,13.8378,38.2422,0.00443364,0.0153227,-0.00644427,0.0183145,0.00144184,-1.13615,0.0117585,0.0113713,1602,1653,13.8377,-38.2421
385,-629,13.8462,37.7976,0.00370254,0.0122328,-0.00530273,0.0147728,0.00116251,-1.12409,0.00948484,0.0133218,1609,1653,13.8463,-37.7976
392,-629,13.8318,37.3447,0.00296563,0.00947697,-0.00427312,0.0115934,0.000849245,-1.11093,0.00746195,0.0118465,1616,1653,13.8317,-37.3448
399,-629,13.8202,36.8782,0.00218539,0.00703075,-0.00335703,0.008748,0.00046814,-1.09796,0.00568239,0.011399,1623,1653,13.8202,-36.8782
406,-629,13.8152,36.3776,0.00149002,0.004949,-0.00253179,0.00628563,0.000153387,-1.08505,0.00414024,0.0144288,1630,1653,13.8151,-36.3775
413,-629,13.7939,35.936,0.000948433,0.00371786,-0.00201462,0.00477776,-0.000111465,-1.08648,0.00322297,0.0236063,1637,1653,13.794,-35.9361
420,-629,13.7605,35.4674,0.000448121,0.00263108,-0.00162318,0.00349562,-0.000416423,-1.08139,0.0024809,0.022606,1644,1653,13.7605,-35.4674
427,-629,13.7814,34.964,0.000206393,0.00189189,-0.00146939,0.00274305,-0.000644773,-1.04576,0.00207725,0.0142932,1651,1653,13.7814,-34.964
434,-629,13.7699,34.4506,6.97276e-05,0.00156036,-0.00150307,0.00249275,-0.000862665,-1.01556,0.00201201,0.0111646,1658,1653,13.7699,-34.4505
441,-629,13.7487,33.949,0.00010168,0.00136485,-0.00164889,0.00249897,-0.00103244,-0.968297,0.00209665,0.0159208,1665,1653,13.7486,-33.949
448,-629,13.7214,33.4232,0.000206244,0.0010997,-0.00176621,0.00247481,-0.00116886,-0.909266,0.00214824,0.0160621,1672,1653,13.7214,-33.4232
455,-629,13.683,32.8861,0.000431134,0.000825143,-0.00184301,0.00248165,-0.00122537,-0.838642,0.00218083,0.0150408,1679,1653,13.683,-32.8861
462,-629,13.6819,32.4016,0.000537712,0.000459268,-0.00174017,0.0022391,-0.00124212,-0.774131,0.00203717,0.0172895,1686,1653,13.6818,-32.4016
469,-629,13.6488,31.8662,0.000552181,0.000114374,-0.00165451,0.00200221,-0.00133565,-0.719627,0.00193988,0.0233337,1693,1653,13.6488,-31.8663
476,-629,13.8541,31.4932,0.000415721,-0.000127402,-0.00154863,0.00171642,-0.0014281,-0.698602,0.00181803,0.0497713,1700,1653,13.8542,-31.4931
483,-629,14.0381,30.967,0,0,0,0,0,0,0,-1,1707,1653,14.0381,-30.9671
490,-629,13.9072,28.8588,0,0,0,0,0,0,0,-1,1714,1653,13.9072,-28.8587
497,-629,10.3662,19.8605,0,0,0,0,0,0,0,-1,1721,1653,10.3662,-19.8605
504,-629,7.89453,15.5316,0,0,0,0,0,0,0,-1,1728,1653,7.89447,-15.5316
511,-629,6.29138,3.40295,0,0,0,0,0,0,0,-1,1735,1653,6.29137,-3.403
518,-629,5.84387,1.41858,0,0,0,0,0,0,0,-1,1742,1653,5.84391,-1.4186
525,-629,6.4729,1.02319,0,0,0,0,0,0,0,-1,1749,1653,6.47284,-1.02316
532,-629,6.86511,0.903687,0,0,0,0,0,0,0,-1,1756,1653,6.86514,-0.903691
539,-629,6.60803,0.746704,0,0,0,0,0,0,0,-1,1763,1653,6.60809,-0.746691
546,-629,0,0,0,0,0,0,0,0,0,-1,1770,1653,0,0
553,-629,0,0,0,0,0,0,0,0,0,-1,1777,1653,0,0
560,-629,0,0,0,0,0,0,0,0,0,-1,1784,1653,0,0
567,-629,0,0,0,0,0,0,0,0,0,-1,1791,1653,0,0
574,-629,0,0,0,0,0,0,0,0,0,-1,1798,1653,0,0
581,-629,0,0,0,0,0,0,0,0,0,-1,1805,1653,0,0
588,-629,0,0,0,0,0,0,0,0,0,-1,1812,1653,0,0
595,-629,0,0,0,0,0,0,0,0,0,-1,1819,1653,0,0
602,-629,0,0,0,0,0,0,0,0,0,-1,1826,1653,0,0
609,-629,0,0,0,0,0,0,0,0,0,-1,1833,1653,0,0
616,-629,0,0,0,0,0,0,0,0,0,-1,1840,1653,0,0
623,-629,0,0,0,0,0,0,0,0,0,-1,1847,1653,0,0
630,-629,0,0,0,0,0,0,0,0,0,-1,1854,1653,0,0
637,-629,0,0,0,0,0,0,0,0,0,-1,1861,1653,0,0
644,-629,0,0,0,0,0,0,0,0,0,-1,1868,1653,0,0
651,-629,0,0,0,0,0,0,0,0,0,-1,1875,1653,0,0
658,-629,0,0,0,0,0,0,0,0,0,-1,1882,1653,0,0
665,-629,0,0,0,0,0,0,0,0,0,-1,1889,1653,0,0
672,-629,0,0,0,0,0,0,0,0,0,-1,1896,1653,0,0
679,-629,0,0,0,0,0,0,0,0,0,-1,1903,1653,0,0
686,-629,0,0,0,0,0,0,0,0,0,-1,1910,1653,0,0
693,-629,0,0,0,0,0,0,0,0,0,-1,1917,1653,0,0
700,-629,0,0,0,0,0,0,0,0,0,-1,1924,1653,0,0
707,-629,0,0,0,0,0,0,0,0,0,-1,1931,1653,0,0
714,-629,0,0,0,0,0,0,0,0,0,-1,1938,1653,0,0
721,-629,0,0,0,0,0,0,0,0,0,-1,1945,1653,0,0
728,-629,0,0,0,0,0,0,0,0,0,-1,1952,1653,0,0
735,-629,0,0,0,0,0,0,0,0,0,-1,1959,1653,0,0
742,-629,0,0,0,0,0,0,0,0,0,-1,1966,1653,0,0
749,-629,0,0,0,0,0,0,0,0,0,-1,1973,1653,0,0
756,-629,0,0,0,0,0,0,0,0,0,-1,1980,1653,0,0
763,-629,0,0,0,0,0,0,0,0,0,-1,1987,1653,0,0
770,-629,0,0,0,0,0,0,0,0,0,-1,1994,1653,0,0
777,-629,0,0,0,0,0,0,0,0,0,-1,2001,1653,0,0
784,-629,0,0,0,0,0,0,0,0,0,-1,2008,1653,0,0
791,-629,0,0,0,0,0,0,0,0,0,-1,2015,1653,0,0
798,-629,0,0,0,0,0,0,0,0,0,-1,2022,1653,0,0
805,-629,0,0,0,0,0,0,0,0,0,-1,2029,1653,0,0
812,-629,0,0,0,0,0,0,0,0,0,-1,2036,1653,0,0
-700,-636,0,0,0,0,0,0,0,0,0,-1,524,1660,0,0
-693,-636,0,0,0,0,0,0,0,0,0,-1,531,1660,0,0
-686,-636,0,0,0,0,0,0,0,0,0,-1,538,1660,0,0
-679,-636,0,0,0,0,0,0,0,0,0,-1,545,1660,0,0
-672,-636,0,0,0,0,0,0,0,0,0,-1,552,1660,0,0
-665,-636,0,0,0,0,0,0,0,0,0,-1,559,1660,0,0
-658,-636,0,0,0,0,0,0,0,0,0,-1,566,1660,0,0
-651,-636,0,0,0,0,0,0,0,0,0,-1,573,1660,0,0
-644,-636,0,0,0,0,0,0,0,0,0,-1,580,1660,0,0
-637,-636,0,0,0,0,0,0,0,0,0,-1,587,1660,0,0
-630,-636,0,0,0,0,0,0,0,0,0,-1,594,1660,0,0
-623,-636,0,0,0,0,0,0,0,0,0,-1,601,1660,0,0
-616,-636,0,0,0,0,0,0,0,0,0,-1,608,1660,0,0
-609,-636,0,0,0,0,0,0,0,0,0,-1,615,1660,0,0
-602,-636,0,0,0,0,0,0,0,0,0,-1,622,1660,0,0
-595,-636,0,0,0,0,0,0,0,0,0,-1,629,1660,0,0
-588,-636,0,0,0,0,0,0,0,0,0,-1,636,1660,0,0
-581,-636,0,0,0,0,0,0,0,0,0,-1,643,1660,0,0
-574,-636,0,0,0,0,0,0,0,0,0,-1,650,1660,0,0
-567,-636,0,0,0,0,0,0,0,0,0,-1,657,1660,0,0
-560,-636,0,0,0,0,0,0,0,0,0,-1,664,1660,0,0
-553,-636,0,0,0,0,0,0,0,0,0,-1,671,1660,0,0
-546,-636,0,0,0,0,0,0,0,0,0,-1,678,1660,0,0
-539,-636,0,0,0,0,0,0,0,0,0,-1,685,1660,0,0
-532,-636,0,0,0,0,0,0,0,0,0,-1,692,1660,0,0
-525,-636,0,0,0,0,0,0,0,0,0,-1,699,1660,0,0
-518,-636,0,0,0,0,0,0,0,0,0,-1,706,1660,0,0
-511,-636,0,0,0,0,0,0,0,0,0,-1,713,1660,0,0
-504,-636,0,0,0,0,0,0,0,0,0,-1,720,1660,0,0
-497,-636,0,0,0,0,0,0,0,0,0,-1,727,1660,0,0
-490,-636,0,0,0,0,0,0,0,0,0,-1,734,1660,0,0
-483,-636,0,0,0,0,0,0,0,0,0,-1,741,1660,0,0
-476,-636,0,0,0,0,0,0,0,0,0,-1,748,1660,0,0
-469,-636,0,0,0,0,0,0,0,0,0,-1,755,1660,0,0
-462,-636,0,0,0,0,0,0,0,0,0,-1,762,1660,0,0
-455,-636,0,0,0,0,0,0,0,0,0,-1,769,1660,0,0
-448,-636,0,0,0,0,0,0,0,0,0,-1,776,1660,0,0
-441,-636,0,0,0,0,0,0,0,0,0,-1,783,1660,0,0
-434,-636,0,0,0,0,0,0,0,0,0,-1,790,1660,0,0
-427,-636,0,0,0,0,0,0,0,0,0,-1,797,1660,0,0
-420,-636,0,0,0,0,0,0,0,0,0,-1,804,1660,0,0
-413,-636,0,0,0,0,0,0,0,0,0,-1,811,1660,0,0
-406,-636,-0.591125,10.6943,0,0,0,0,0,0,0,-1,818,1660,-0.59115,-10.6943
-399,-636,0.0766602,11.2408,0,0,0,0,0,0,0,-1,825,1660,0.076685,-11.2409
-392,-636,0.75946,11.9233,0,0,0,0,0,0,0,-1,832,1660,0.759481,-11.9233
-385,-636,1.68878,12.517,0,0,0,0,0,0,0,-1,839,1660,1.6888,-12.5169
-378,-636,2.22107,13.0013,0,0,0,0,0,0,0,-1,846,1660,2.22107,-13.0014
-371,-636,2.52185,11.9684,0,0,0,0,0,0,0,-1,853,1660,2.52184,-11.9684
-364,-636,4.51947,14.8503,0,0,0,0,0,0,0,-1,860,1660,4.51949,-14.8504
-357,-636,4.55682,15.8809,0,0,0,0,0,0,0,-1,867,1660,4.55681,-15.8808
-350,-636,4.40942,30.4238,0,0,0,0,0,0,0,-1,874,1660,4.4094,-30.4239
-343,-636,4.52435,30.8694,0.00415892,-0.0180343,-0.0180219,0.0142265,-0.0281019,-0.509445,0.0248721,0.0463948,881,1660,4.52432,-30.8693
-336,-636,4.44293,31.3846,0.00368678,-0.0165739,-0.0151485,0.0117801,-0.0246672,-0.490683,0.0214769,0.0340871,888,1660,4.44296,-31.3847
-329,-636,4.4668,31.9685,0.00306876,-0.0149217,-0.01253,0.00949801,-0.0213509,-0.47408,0.0182436,0.0186097,895,1660,4.46682,-31.9685
-322,-636,4.44299,32.4943,0.00260131,-0.0130661,-0.010028,0.00749268,-0.0179575,-0.453817,0.0151021,0.0118305,902,1660,4.44297,-32.4942
-315,-636,4.38568,33.0336,0.00213358,-0.0111282,-0.00778885,0.00573181,-0.0147265,-0.432764,0.0121862,0.0137517,909,1660,4.38569,-33.0336
-308,-636,4.3609,33.5824,0.00174334,-0.00898611,-0.00584768,0.00431434,-0.0115571,-0.414222,0.00947609,0.0124534,916,1660,4.36088,-33.5824
-301,-636,4.36511,34.127,0.00150562,-0.00684336,-0.00405246,0.0031491,-0.00848685,-0.385283,0.00694964,0.0114123,923,1660,4.36512,-34.127
-294,-636,4.32953,34.6572,0.00145445,-0.00476536,-0.00249093,0.00232905,-0.00563996,-0.337665,0.00473142,0.0144968,930,1660,4.32954,-34.6573
-287,-636,4.29431,35.1571,0.00148108,-0.00285695,-0.00120137,0.00179157,-0.00316743,-0.252907,0.00289958,0.0128985,937,1660,4.29433,-35.1572
-280,-636,4.26666,35.6494,0.00160398,-0.00111212,2.46875e-05,0.00160421,-0.00111234,0.00908831,0.00157695,0.012215,944,1660,4.26667,-35.6494
-273,-636,4.26923,36.1633,0.00185293,0.00059341,0.000921902,0.00233964,0.000106701,0.485749,0.00152544,0.0120083,951,1660,4.2692,-36.1634
-266,-636,4.27069,36.6854,0.00219495,0.00212264,0.00157053,0.00372974,0.000587846,0.77389,0.00231555,0.0130894,958,1660,4.2707,-36.6855
-259,-636,4.26019,37.1957,0.00264108,0.00340119,0.00212634,0.00518118,0.000861096,0.873832,0.00320587,0.0150966,965,1660,4.26017,-37.1957
-252,-636,4.23694,37.6659,0.00309317,0.00437851,0.00245789,0.00627636,0.00119531,0.913271,0.00384819,0.0116165,972,1660,4.23694,-37.6659
-245,-636,4.23938,38.1749,0.00355978,0.00520658,0.00268594,0.00719249,0.00157387,0.93413,0.00436598,0.0101711,979,1660,4.23938,-38.175
-238,-636,4.25488,38.6475,0.00410383,0.0058372,0.00285661,0.00795571,0.00198532,0.932682,0.00478145,0.0115207,986,1660,4.25487,-38.6475
-231,-636,4.2464,39.1101,0.00503002,0.00649913,0.00301119,0.00886407,0.00266508,0.905032,0.00525149,0.0111105,993,1660,4.24639,-39.1101
-224,-636,4.25354,39.5652,0.00589493,0.00707133,0.00351671,0.0100487,0.00291757,0.86826,0.0059692,0.0104495,1000,1660,4.25353,-39.5652
-217,-636,4.23932,40.0873,0.00862996,0.0091795,0.00455258,0.0134656,0.00434386,0.815539,0.00793581,0.0197589,1007,1660,4.23929,-40.0873
-210,-636,4.22064,40.5293,0.0124561,0.0106641,0.00656667,0.0181876,0.00493256,0.717591,0.0108609,0.03276,1014,1660,4.22063,-40.5293
-203,-636,4.19495,41.0283,0,0,0,0,0,0,0,-1,1021,1660,4.19498,-41.0283
-196,-636,4.4292,41.3949,0,0,0,0,0,0,0,-1,1028,1660,4.42914,-41.3948
-189,-636,4.45313,41.9283,0,0,0,0,0,0,0,-1,1035,1660,4.45307,-41.9284
-182,-636,4.55737,42.4589,0.0314918,0.0197537,0.0168581,0.0434733,0.00777228,0.617888,0.0267702,0.0416384,1042,1660,4.55731,-42.4589
-175,-636,4.98523,42.9419,0.0373576,0.0225683,0.020429,0.0516891,0.00823682,0.61175,0.0320684,0.0463015,1049,1660,4.98525,-42.9419
-168,-636,4.90393,43.8146,0.043266,0.0255137,0.0241345,0.0601048,0.00867492,0.609185,0.0375141,0.047791,1056,1660,4.90397,-43.8146
-161,-636,5.31177,44.4924,0.0487188,0.027474,0.0275404,0.0676144,0.00857846,0.601338,0.0425063,0.0480791,1063,1660,5.31172,-44.4925
-154,-636,5.6626,45.0662,0,0,0,0,0,0,0,-1,1070,1660,5.66259,-45.0662
-147,-636,3.18225,41.7345,0,0,0,0,0,0,0,-1,1077,1660,3.18228,-41.7345
-140,-636,3.4729,27.1271,0,0,0,0,0,0,0,-1,1084,1660,3.47287,-27.1271
-133,-636,4.68311,18.0922,0,0,0,0,0,0,0,-1,1091,1660,4.68316,-18.0921
-126,-636,3.79028,18.2225,0,0,0,0,0,0,0,-1,1098,1660,3.79025,-18.2226
-119,-636,1.8667,13.8916,0,0,0,0,0,0,0,-1,1105,1660,1.86668,-13.8916
-112,-636,-1.24963,9.7998,0,0,0,0,0,0,0,-1,1112,1660,-1.24968,-9.79978
-105,-636,3.51624,4.72791,0,0,0,0,0,0,0,-1,1119,1660,3.51618,-4.7279
-98,-636,1.54504,5.11914,0,0,0,0,0,0,0,-1,1126,1660,1.54503,-5.11912
-91,-636,-1.87964,-2.25012,0,0,0,0,0,0,0,-1,1133,1660,-1.87966,2.25016
-84,-636,-2.84143,0.133667,0,0,0,0,0,0,0,-1,1140,1660,-2.84144,-0.133701
-77,-636,-3.57349,2.45935,0,0,0,0,0,0,0,-1,1147,1660,-3.57345,-2.45939
-70,-636,-4.23682,4.82312,0,0,0,0,0,0,0,-1,1154,1660,-4.23681,-4.82307
-63,-636,-2.21033,6.97168,0,0,0,0,0,0,0,-1,1161,1660,-2.21034,-6.97165
-56,-636,-2.51917,8.80359,0,0,0,0,0,0,0,-1,1168,1660,-2.51916,-8.80361
-49,-636,-3.13,10.4113,0,0,0,0,0,0,0,-1,1175,1660,-3.12996,-10.4112
-42,-636,-2.27771,4.90173,0,0,0,0,0,0,0,-1,1182,1660,-2.27775,-4.90173
-35,-636,-2.27698,5.89685,0,0,0,0,0,0,0,-1,1189,1660,-2.27695,-5.89686
-28,-636,-1.70654,4.83936,0,0,0,0,0,0,0,-1,1196,1660,-1.70656,-4.8393
-21,-636,4.24683,27.7834,0,0,0,0,0,0,0,-1,1203,1660,4.24687,-27.7835
-14,-636,7.79773,56.9213,0,0,0,0,0,0,0,-1,1210,1660,7.79773,-56.9212
-7,-636,7.88867,55.7574,0,0,0,0,0,0,0,-1,1217,1660,7.88872,-55.7575
0,-636,7.46021,55.125,0,0,0,0,0,0,0,-1,1224,1660,7.46018,-55.125
7,-636,7.28088,54.8009,0,0,0,0,0,0,0,-1,1231,1660,7.28086,-54.8009
14,-636,8.99951,55.5814,0,0,0,0,0,0,0,-1,1238,1660,8.99948,-55.5815
21,-636,8.24121,55.3094,0,0,0,0,0,0,0,-1,1245,1660,8.24115,-55.3094
28,-636,9.89697,56.0933,0,0,0,0,0,0,0,-1,1252,1660,9.89694,-56.0933
35,-636,2.94739,55.3573,0,0,0,0,0,0,0,-1,1259,1660,2.94742,-55.3573
42,-636,4.36694,54.8793,0.297755,0.122281,-0.120436,0.359024,0.0610126,-0.470602,0.221827,0.0482244,1266,1660,4.3669,-54.8793
49,-636,5.479,54.1394,0.284433,0.107128,-0.107433,0.335069,0.0564926,-0.440443,0.207132,0.0495354,1273,1660,5.47905,-54.1394
56,-636,8.52563,52.3835,0.271635,0.0907506,-0.0942481,0.311816,0.0505693,-0.403001,0.193239,0.0469509,1280,1660,8.52561,-52.3835
63,-636,9.19031,51.3599,0,0,0,0,0,0,0,-1,1287,1660,9.1903,-51.3599
70,-636,10.462,46.9733,0,0,0,0,0,0,0,-1,1294,1660,10.462,-46.9732
77,-636,10.3766,47.3657,0,0,0,0,0,0,0,-1,1301,1660,10.3766,-47.3657
84,-636,10.1371,47.3071,0,0,0,0,0,0,0,-1,1308,1660,10.1371,-47.3072
91,-636,10.3958,48.2728,0.117246,0.0561278,0.0370677,0.134727,0.0386465,0.440673,0.0801061,0.0424932,1315,1660,10.3958,-48.2729
98,-636,10.6152,49.2889,0.094155,0.0545312,0.0600983,0.137623,0.0110634,0.626178,0.0882921,0.048397,1322,1660,10.6152,-49.289
105,-636,10.7578,50.2739,0,0,0,0,0,0,0,-1,1329,1660,10.7578,-50.2739
112,-636,14.4149,54.8475,0.0570251,0.0737602,0.0988529,0.164599,-0.0338138,0.827621,0.122569,0.0487553,1336,1660,14.415,-54.8476
119,-636,14.319,55.1536,0.0665623,0.0964934,0.104466,0.18706,-0.0240043,0.856543,0.13343,0.0454498,1343,1660,14.319,-55.1535
126,-636,14.184,56.2645,0,0,0,0,0,0,0,-1,1350,1660,14.184,-56.2645
133,-636,15.9128,54.8984,0,0,0,0,0,0,0,-1,1357,1660,15.9129,-54.8984
140,-636,16.3096,55.4193,0.0858188,0.126966,0.0938129,0.202435,0.0103499,0.893341,0.131642,0.0426998,1364,1660,16.3096,-55.4194
147,-636,16.7642,55.9177,0.0836656,0.112548,0.0705551,0.170124,0.0260888,0.886342,0.105798,0.044019,1371,1660,16.7642,-55.9177
154,-636,17.1605,56.4409,0,0,0,0,0,0,0,-1,1378,1660,17.1606,-56.4409
161,-636,10.2961,7.13025,0,0,0,0,0,0,0,-1,1385,1660,10.2961,-7.13021
168,-636,11.7659,5.83899,0,0,0,0,0,0,0,-1,1392,1660,11.7658,-5.83899
175,-636,5.94592,-1.72888,0,0,0,0,0,0,0,-1,1399,1660,5.94598,1.72886
182,-636,5.93994,-1.11938,0,0,0,0,0,0,0,-1,1406,1660,5.93998,1.11936
189,-636,5.32544,11.9595,0,0,0,0,0,0,0,-1,1413,1660,5.32542,-11.9595
196,-636,5.3623,9.38025,0,0,0,0,0,0,0,-1,1420,1660,5.36225,-9.38027
203,-636,5.18542,9.02429,0,0,0,0,0,0,0,-1,1427,1660,5.18547,-9.0243
210,-636,4.09167,7.17041,0,0,0,0,0,0,0,-1,1434,1660,4.09173,-7.17041
217,-636,2.94897,5.28992,0,0,0,0,0,0,0,-1,1441,1660,2.94899,-5.28991
224,-636,1.49194,3.63916,0,0,0,0,0,0,0,-1,1448,1660,1.49197,-3.63918
231,-636,0.17749,2.24854,0,0,0,0,0,0,0,-1,1455,1660,0.177501,-2.24855
238,-636,-0.764648,1.00598,0,0,0,0,0,0,0,-1,1462,1660,-0.764704,-1.00595
245,-636,6.21204,1.18005,0,0,0,0,0,0,0,-1,1469,1660,6.21206,-1.18001
252,-636,7.70251,0.865723,0,0,0,0,0,0,0,-1,1476,1660,7.7025,-0.865692
259,-636,9.03601,0.787231,0,0,0,0,0,0,0,-1,1483,1660,9.03598,-0.787243
266,-636,10.1071,3.24109,0,0,0,0,0,0,0,-1,1490,1660,10.1071,-3.24103
273,-636,8.48535,5.02466,0,0,0,0,0,0,0,-1,1497,1660,8.48533,-5.02472
280,-636,11.908,32.0698,0,0,0,0,0,0,0,-1,1504,1660,11.9079,-32.0698
287,-636,12.1218,36.4158,0,0,0,0,0,0,0,-1,1511,1660,12.1218,-36.4158
294,-636,13.7479,43.4808,0,0,0,0,0,0,0,-1,1518,1660,13.7479,-43.4809
301,-636,13.0781,43.3094,0,0,0,0,0,0,0,-1,1525,1660,13.0781,-43.3094
308,-636,13.2281,42.8789,0,0,0,0,0,0,0,-1,1532,1660,13.2281,-42.8789
315,-636,13.1804,42.4948,0,0,0,0,0,0,0,-1,1539,1660,13.1804,-42.4947
322,-636,13.3937,41.9747,0,0,0,0,0,0,0,-1,1546,1660,13.3937,-41.9748
329,-636,13.3148,41.4795,0.00898465,0.0258192,-0.00893994,0.0296809,0.00512296,-1.16305,0.01832,0.0348881,1553,1660,13.3149,-41.4794
336,-636,13.2975,41.0034,0.0077911,0.0248742,-0.00870166,0.0285259,0.00413932,-1.17345,0.0177987,0.0240289,1560,1660,13.2975,-41.0035
343,-636,13.3491,40.5873,0.00671674,0.0234243,-0.00845542,0.0269566,0.0031844,-1.17507,0.0170093,0.0198825,1567,1660,13.3491,-40.5873
350,-636,13.3351,40.1119,0.00596465,0.0214614,-0.00788083,0.0247649,0.00266111,-1.17386,0.0156983,0.0130491,1574,1660,13.3351,-40.112
357,-636,13.3724,39.6371,0.00517641,0.0191352,-0.00715421,0.0221505,0.00216107,-1.17191,0.0141019,0.0108585,1581,1660,13.3724,-39.6371
364,-636,13.3744,39.1937,0.00453238,0.0166166,-0.00645069,0.019413,0.00173602,-1.16175,0.0124039,0.0111275,1588,1660,13.3744,-39.1937
371,-636,13.3696,38.733,0.00397129,0.0139393,-0.00567464,0.0165079,0.00140269,-1.14574,0.0105688,0.0101675,1595,1660,13.3697,-38.7331
378,-636,13.3857,38.2567,0.00345566,0.0113261,-0.00487581,0.0136567,0.00112515,-1.12492,0.00875352,0.0104628,1602,1660,13.3857,-38.2567
385,-636,13.3918,37.8016,0.00297825,0.00886013,-0.00412749,0.0109873,0.000851125,-1.09494,0.00705826,0.0160023,1609,1660,13.3918,-37.8016
392,-636,13.3655,37.3392,0.00244321,0.00655456,-0.00341723,0.00848677,0.000510997,-1.05618,0.00549544,0.0171026,1616,1660,13.3655,-37.3392
399,-636,13.3411,36.882,0.00179584,0.0044503,-0.00278303,0.00620638,3.97619e-05,-1.0079,0.00412439,0.0131155,1623,1660,13.341,-36.8819
406,-636,13.3579,36.3916,0.00118384,0.00282438,-0.00221224,0.00436353,-0.000355307,-0.962934,0.0030344,0.0145659,1630,1660,13.3579,-36.3916
413,-636,13.3466,35.8984,0.000725929,0.00187554,-0.00188855,0.00327482,-0.000673347,-0.933127,0.00243885,0.0229433,1637,1660,13.3466,-35.8985
420,-636,13.2983,35.4462,0.000281607,0.00112338,-0.00167637,0.00243089,-0.0010259,-0.908391,0.00205,0.0246005,1644,1660,13.2983,-35.4462
427,-636,13.3046,34.9716,6.74926e-05,0.000711517,-0.00167256,0.00209278,-0.00131377,-0.880498,0.00198384,0.0150862,1651,1660,13.3046,-34.9715
434,-636,13.2703,34.4701,-0.000106144,0.000776293,-0.00184107,0.00222827,-0.00155813,-0.903007,0.00219746,0.0117319,1658,1660,13.2703,-34.47
441,-636,13.2438,33.9485,-0.000176594,0.00108463,-0.0021129,0.00265901,-0.00175098,-0.930419,0.00256404,0.0121911,1665,1660,13.2438,-33.9485
448,-636,13.2695,33.459,-0.000170088,0.00134363,-0.00238822,0.00309205,-0.00191851,-0.938848,0.00291918,0.0147073,1672,1660,13.2696,-33.459
455,-636,13.2164,32.9502,4.96407e-05,0.00166809,-0.00257773,0.00356064,-0.0018429,-0.937492,0.00317184,0.0146547,1679,1660,13.2164,-32.9502
462,-636,13.213,32.4391,0.000178066,0.00208709,-0.00259377,0.00389641,-0.00163125,-0.961709,0.0032795,0.0190207,1686,1660,13.213,-32.439
469,-636,13.2313,31.901,0.000247391,0.0024082,-0.00268797,0.00422476,-0.00156918,-0.976487,0.00346027,0.0352862,1693,1660,13.2314,-31.901
476,-636,13.4192,31.6243,0,0,0,0,0,0,0,-1,1700,1660,13.4192,-31.6243
483,-636,11.3833,24.3958,0,0,0,0,0,0,0,-1,1707,1660,11.3833,-24.3957
490,-636,10.8951,23.9569,0,0,0,0,0,0,0,-1,1714,1660,10.8951,-23.9569
497,-636,9.55579,18.0111,0,0,0,0,0,0,0,-1,1721,1660,9.55574,-18.0111
504,-636,6.26428,19.4268,0,0,0,0,0,0,0,-1,1728,1660,6.26433,-19.4268
511,-636,5.65466,9.23218,0,0,0,0,0,0,0,-1,1735,1660,5.65461,-9.23216
518,-636,6.72791,1.07605,0,0,0,0,0,0,0,-1,1742,1660,6.7279,-1.0761
525,-636,7.04309,0.93335,0,0,0,0,0,0,0,-1,1749,1660,7.04308,-0.933298
532,-636,0,0,0,0,0,0,0,0,0,-1,1756,1660,0,0
539,-636,0,0,0,0,0,0,0,0,0,-1,1763,1660,0,0
546,-636,0,0,0,0,0,0,0,0,0,-1,1770,1660,0,0
553,-636,0,0,0,0,0,0,0,0,0,-1,1777,1660,0,0
560,-636,0,0,0,0,0,0,0,0,0,-1,1784,1660,0,0
567,-636,0,0,0,0,0,0,0,0,0,-1,1791,1660,0,0
574,-636,0,0,0,0,0,0,0,0,0,-1,1798,1660,0,0
581,-636,0,0,0,0,0,0,0,0,0,-1,1805,1660,0,0
588,-636,0,0,0,0,0,0,0,0,0,-1,1812,1660,0,0
595,-636,0,0,0,0,0,0,0,0,0,-1,1819,1660,0,0
602,-636,0,0,0,0,0,0,0,0,0,-1,1826,1660,0,0
609,-636,0,0,0,0,0,0,0,0,0,-1,1833,1660,0,0
616,-636,0,0,0,0,0,0,0,0,0,-1,1840,1660,0,0
623,-636,0,0,0,0,0,0,0,0,0,-1,1847,1660,0,0
630,-636,0,0,0,0,0,0,0,0,0,-1,1854,1660,0,0
637,-636,0,0,0,0,0,0,0,0,0,-1,1861,1660,0,0
644,-636,0,0,0,0,0,0,0,0,0,-1,1868,1660,0,0
651,-636,0,0,0,0,0,0,0,0,0,-1,1875,1660,0,0
658,-636,0,0,0,0,0,0,0,0,0,-1,1882,1660,0,0
665,-636,0,0,0,0,0,0,0,0,0,-1,1889,1660,0,0
672,-636,0,0,0,0,0,0,0,0,0,-1,1896,1660,0,0
679,-636,0,0,0,0,0,0,0,0,0,-1,1903,1660,0,0
686,-636,0,0,0,0,0,0,0,0,0,-1,1910,1660,0,0
693,-636,0,0,0,0,0,0,0,0,0,-1,1917,1660,0,0
700,-636,0,0,0,0,0,0,0,0,0,-1,1924,1660,0,0
707,-636,0,0,0,0,0,0,0,0,0,-1,1931,1660,0,0
714,-636,0,0,0,0,0,0,0,0,0,-1,1938,1660,0,0
721,-636,0,0,0,0,0,0,0,0,0,-1,1945,1660,0,0
728,-636,0,0,0,0,0,0,0,0,0,-1,1952,1660,0,0
735,-636,0,0,0,0,0,0,0,0,0,-1,1959,1660,0,0
742,-636,0,0,0,0,0,0,0,0,0,-1,1966,1660,0,0
749,-636,0,0,0,0,0,0,0,0,0,-1,1973,1660,0,0
756,-636,0,0,0,0,0,0,0,0,0,-1,1980,1660,0,0
763,-636,0,0,0,0,0,0,0,0,0,-1,1987,1660,0,0
770,-636,0,0,0,0,0,0,0,0,0,-1,1994,1660,0,0
777,-636,0,0,0,0,0,0,0,0,0,-1,2001,1660,0,0
784,-636,0,0,0,0,0,0,0,0,0,-1,2008,1660,0,0
791,-636,0,0,0,0,0,0,0,0,0,-1,2015,1660,0,0
798,-636,0,0,0,0,0,0,0,0,0,-1,2022,1660,0,0
805,-636,0,0,0,0,0,0,0,0,0,-1,2029,1660,0,0
812,-636,0,0,0,0,0,0,0,0,0,-1,2036,1660,0,0
-700,-643,0,0,0,0,0,0,0,0,0,-1,524,1667,0,0
-693,-643,0,0,0,0,0,0,0,0,0,-1,531,1667,0,0
-686,-643,0,0,0,0,0,0,0,0,0,-1,538,1667,0,0
-679,-643,0,0,0,0,0,0,0,0,0,-1,545,1667,0,0
-672,-643,0,0,0,0,0,0,0,0,0,-1,552,1667,0,0
-665,-643,0,0,0,0,0,0,0,0,0,-1,559,1667,0,0
-658,-643,0,0,0,0,0,0,0,0,0,-1,566,1667,0,0
-651,-643,0,0,0,0,0,0,0,0,0,-1,573,1667,0,0
-644,-643,0,0,0,0,0,0,0,0,0,-1,580,1667,0,0
-637,-643,0,0,0,0,0,0,0,0,0,-1,587,1667,0,0
-630,-643,0,0,0,0,0,0,0,0,0,-1,594,1667,0,0
-623,-643,0,0,0,0,0,0,0,0,0,-1,601,1667,0,0
-616,-643,0,0,0,0,0,0,0,0,0,-1,608,1667,0,0
-609,-643,0,0,0,0,0,0,0,0,0,-1,615,1667,0,0
-602,-643,0,0,0,0,0,0,0,0,0,-1,622,1667,0,0
-595,-643,0,0,0,0,0,0,0,0,0,-1,629,1667,0,0
-588,-643,0,0,0,0,0,0,0,0,0,-1,636,1667,0,0
-581,-643,0,0,0,0,0,0,0,0,0,-1,643,1667,0,0
-574,-643,0,0,0,0,0,0,0,0,0,-1,650,1667,0,0
-567,-643,0,0,0,0,0,0,0,0,0,-1,657,1667,0,0
-560,-643,0,0,0,0,0,0,0,0,0,-1,664,1667,0,0
-553,-643,0,0,0,0,0,0,0,0,0,-1,671,1667,0,0
-546,-643,0,0,0,0,0,0,0,0,0,-1,678,1667,0,0
-539,-643,0,0,0,0,0,0,0,0,0,-1,685,1667,0,0
-532,-643,0,0,0,0,0,0,0,0,0,-1,692,1667,0,0
-525,-643,0,0,0,0,0,0,0,0,0,-1,699,1667,0,0
-518,-643,0,0,0,0,0,0,0,0,0,-1,706,1667,0,0
-511,-643,0,0,0,0,0,0,0,0,0,-1,713,1667,0,0
-504,-643,0,0,0,0,0,0,0,0,0,-1,720,1667,0,0
-497,-643,0,0,0,0,0,0,0,0,0,-1,727,1667,0,0
-490,-643,0,0,0,0,0,0,0,0,0,-1,734,1667,0,0
-483,-643,0,0,0,0,0,0,0,0,0,-1,741,1667,0,0
-476,-643,0,0,0,0,0,0,0,0,0,-1,748,1667,0,0
-469,-643,0,0,0,0,0,0,0,0,0,-1,755,1667,0,0
-462,-643,0,0,0,0,0,0,0,0,0,-1,762,1667,0,0
-455,-643,0,0,0,0,0,0,0,0,0,-1,769,1667,0,0
-448,-643,0,0,0,0,0,0,0,0,0,-1,776,1667,0,0
-441,-643,0,0,0,0,0,0,0,0,0,-1,783,1667,0,0
-434,-643,0,0,0,0,0,0,0,0,0,-1,790,1667,0,0
-427,-643,0,0,0,0,0,0,0,0,0,-1,797,1667,0,0
-420,-643,0,0,0,0,0,0,0,0,0,-1,804,1667,0,0
-413,-643,0,0,0,0,0,0,0,0,0,-1,811,1667,0,0
-406,-643,0,0,0,0,0,0,0,0,0,-1,818,1667,0,0
-399,-643,0.589417,11.6465,0,0,0,0,0,0,0,-1,825,1667,0.58939,-11.6465
-392,-643,0.865295,12.6523,0,0,0,0,0,0,0,-1,832,1667,0.865315,-12.6523
-385,-643,1.72968,13.2692,0,0,0,0,0,0,0,-1,839,1667,1.72967,-13.2692
-378,-643,2.66522,13.8193,0,0,0,0,0,0,0,-1,846,1667,2.66524,-13.8193
-371,-643,0.466125,3.35095,0,0,0,0,0,0,0,-1,853,1667,0.466148,-3.351
-364,-643,1.69513,9.922,0,0,0,0,0,0,0,-1,860,1667,1.69511,-9.92205
-357,-643,1.14227,10.8429,0,0,0,0,0,0,0,-1,867,1667,1.14228,-10.8429
-350,-643,2.50061,9.96948,0,0,0,0,0,0,0,-1,874,1667,2.50059,-9.96954
-343,-643,5.32477,30.7362,0,0,0,0,0,0,0,-1,881,1667,5.32478,-30.7362
-336,-643,4.90808,31.5704,0,0,0,0,0,0,0,-1,888,1667,4.90806,-31.5705
-329,-643,4.92957,32.0388,0.00464746,-0.0197336,-0.0187588,0.0148289,-0.029915,-0.497262,0.0263178,0.0435067,895,1667,4.92955,-32.0388
-322,-643,4.9848,32.5873,0.00367523,-0.0175008,-0.0151144,0.0115413,-0.0253669,-0.479859,0.0218016,0.0277166,902,1667,4.98483,-32.5872
-315,-643,4.90088,33.0792,0.00272526,-0.0151971,-0.0119786,0.00872368,-0.0211955,-0.464256,0.0177671,0.0202496,909,1667,4.90085,-33.0793
-308,-643,4.8905,33.5826,0.0018921,-0.0127152,-0.00935788,0.00645913,-0.0172823,-0.454035,0.0141739,0.0144999,916,1667,4.89049,-33.5827
-301,-643,4.88153,34.124,0.00125721,-0.0102622,-0.00705771,0.00460713,-0.0136122,-0.44316,0.0109388,0.0143396,923,1667,4.88152,-34.124
-294,-643,4.84198,34.6495,0.000900474,-0.00791014,-0.00509973,0.00323415,-0.0102438,-0.429163,0.00812474,0.0125632,930,1667,4.84201,-34.6495
-287,-643,4.81287,35.1548,0.000698338,-0.00581198,-0.0035224,0.00223936,-0.007353,-0.412404,0.00579453,0.0104721,937,1667,4.81284,-35.1548
-280,-643,4.78906,35.6569,0.000607726,-0.003959,-0.00199736,0.00135804,-0.00470931,-0.359342,0.00367679,0.0143031,944,1667,4.78906,-35.6568
-273,-643,4.76044,36.1748,0.000686687,-0.00203775,-0.000884882,0.000948862,-0.00229993,-0.288043,0.001929,0.0126473,951,1667,4.76042,-36.1748
-266,-643,4.7514,36.6973,0.000922359,-0.00032729,-7.36681e-05,0.000926687,-0.000331618,-0.0586802,0.000753075,0.011876,958,1667,4.75139,-36.6972
-259,-643,4.74725,37.1954,0.00128911,0.00109646,0.000664288,0.00186402,0.00052155,0.713395,0.00111044,0.0116992,965,1667,4.74727,-37.1954
-252,-643,4.72394,37.6953,0.00169672,0.00211348,0.00107273,0.00299789,0.000812317,0.881329,0.00179034,0.0128025,972,1667,4.72394,-37.6953
-245,-643,4.7179,38.1923,0.00213115,0.00293478,0.00138433,0.00397443,0.00109149,0.926647,0.00237107,0.0120558,979,1667,4.71787,-38.1923
-238,-643,4.76062,38.6615,0.00265477,0.00360319,0.00163952,0.0048357,0.00142225,0.926175,0.00286971,0.0155811,986,1667,4.7606,-38.6614
-231,-643,4.73248,39.1182,0.0035144,0.00429447,0.00187092,0.00581557,0.00199329,0.888163,0.00341252,0.0113132,993,1667,4.73251,-39.1181
-224,-643,4.71539,39.5636,0.00432139,0.00498275,0.00236853,0.00704357,0.00226057,0.854757,0.00415262,0.0100823,1000,1667,4.71541,-39.5635
-217,-643,4.70538,39.9885,0.00629584,0.00665974,0.00316647,0.00964948,0.0033061,0.814097,0.00566238,0.0100713,1007,1667,4.70541,-39.9885
-210,-643,4.70239,40.4636,0.00909184,0.00788137,0.0046354,0.0131613,0.00381186,0.720482,0.00781969,0.0130487,1014,1667,4.70238,-40.4636
-203,-643,4.69434,40.9977,0.0116905,0.00919864,0.00586702,0.0164424,0.0044467,0.680773,0.00982087,0.0169682,1021,1667,4.69436,-40.9976
-196,-643,4.7063,41.4244,0.0147332,0.0109445,0.0074679,0.0205433,0.00513441,0.661183,0.0123452,0.0171108,1028,1667,4.70635,-41.4245
-189,-643,4.80981,41.7878,0.0184027,0.0127582,0.00946734,0.0254595,0.00570139,0.640541,0.0154278,0.0154624,1035,1667,4.80983,-41.7878
-182,-643,4.9043,42.2882,0.0225426,0.0146383,0.0118704,0.0311015,0.00607935,0.624698,0.0190343,0.0214689,1042,1667,4.90425,-42.2882
-175,-643,5.01782,42.8558,0.0266361,0.0166492,0.0143729,0.0368583,0.00642704,0.618209,0.0227347,0.0325877,1049,1667,5.01777,-42.8559
-168,-643,5.07507,43.3741,0.0307505,0.0188007,0.0169526,0.0427503,0.00680084,0.615972,0.0265255,0.0411021,1056,1667,5.07511,-43.3742
-161,-643,5.12695,43.8911,0,0,0,0,0,0,0,-1,1063,1667,5.12699,-43.8912
-154,-643,5.06824,43.6169,0,0,0,0,0,0,0,-1,1070,1667,5.06824,-43.617
-147,-643,4.16162,42.2175,0,0,0,0,0,0,0,-1,1077,1667,4.16159,-42.2175
-140,-643,4.30322,22.9166,0,0,0,0,0,0,0,-1,1084,1667,4.30327,-22.9167
-133,-643,3.66748,21.6034,0,0,0,0,0,0,0,-1,1091,1667,3.66743,-21.6034
-126,-643,3.13904,17.689,0,0,0,0,0,0,0,-1,1098,1667,3.13909,-17.689
-119,-643,3.76282,14.1458,0,0,0,0,0,0,0,-1,1105,1667,3.76283,-14.1458
-112,-643,3.81458,16.2069,0,0,0,0,0,0,0,-1,1112,1667,3.81463,-16.2069
-105,-643,-2.23413,10.0996,0,0,0,0,0,0,0,-1,1119,1667,-2.23415,-10.0996
-98,-643,3.11035,4.68066,0,0,0,0,0,0,0,-1,1126,1667,3.11041,-4.68071
-91,-643,-1.74146,-2.5885,0,0,0,0,0,0,0,-1,1133,1667,-1.74146,2.58856
-84,-643,-3.07446,-0.199341,0,0,0,0,0,0,0,-1,1140,1667,-3.07449,0.199383
-77,-643,-3.63794,2.81165,0,0,0,0,0,0,0,-1,1147,1667,-3.63791,-2.8117
-70,-643,-3.36938,4.45203,0,0,0,0,0,0,0,-1,1154,1667,-3.36941,-4.452
-63,-643,-3.67822,6.26855,0,0,0,0,0,0,0,-1,1161,1667,-3.67823,-6.26856
-56,-643,-3.95142,8.1073,0,0,0,0,0,0,0,-1,1168,1667,-3.95139,-8.10732
-49,-643,-4.23535,9.90552,0,0,0,0,0,0,0,-1,1175,1667,-4.23537,-9.90557
-42,-643,-4.25195,10.7059,0,0,0,0,0,0,0,-1,1182,1667,-4.25192,-10.706
-35,-643,-4.10986,11.6588,0,0,0,0,0,0,0,-1,1189,1667,-4.10982,-11.6589
-28,-643,-1.38513,5.604,0,0,0,0,0,0,0,-1,1196,1667,-1.3851,-5.60403
-21,-643,1.61011,23.1276,0,0,0,0,0,0,0,-1,1203,1667,1.61011,-23.1275
-14,-643,7.56348,55.9336,0,0,0,0,0,0,0,-1,1210,1667,7.56353,-55.9336
-7,-643,7.52429,55.2834,0,0,0,0,0,0,0,-1,1217,1667,7.52423,-55.2835
0,-643,7.448,54.2921,0.0852641,0.104601,-0.0268087,0.123431,0.0664337,-0.958462,0.0713326,0.0465865,1224,1667,7.44794,-54.2921
7,-643,7.25171,53.9589,0,0,0,0,0,0,0,-1,1231,1667,7.25168,-53.9588
14,-643,8.03687,54.7634,0,0,0,0,0,0,0,-1,1238,1667,8.03683,-54.7634
21,-643,8.21338,54.5372,0,0,0,0,0,0,0,-1,1245,1667,8.21333,-54.5372
28,-643,3.01843,54.6832,0,0,0,0,0,0,0,-1,1252,1667,3.01837,-54.6833
35,-643,4.20728,54.4249,0,0,0,0,0,0,0,-1,1259,1667,4.20731,-54.425
42,-643,5.44006,54.0963,0.222651,0.11156,-0.091285,0.273962,0.0602492,-0.51208,0.166238,0.0456697,1266,1667,5.44005,-54.0963
49,-643,6.77905,53.4861,0.213563,0.0971229,-0.0807202,0.254868,0.0558175,-0.472973,0.1547,0.0455859,1273,1667,6.77902,-53.4861
56,-643,8.22998,51.7833,0.205716,0.0820818,-0.0699085,0.237218,0.0505792,-0.423375,0.144272,0.0472494,1280,1667,8.22992,-51.7833
63,-643,9.05444,50.2866,0,0,0,0,0,0,0,-1,1287,1667,9.05449,-50.2866
70,-643,10.4541,47.3594,0,0,0,0,0,0,0,-1,1294,1667,10.4542,-47.3594
77,-643,10.4136,47.5959,0,0,0,0,0,0,0,-1,1301,1667,10.4136,-47.5959
84,-643,10.3488,47.8141,0.122834,0.0509101,0.0205292,0.128281,0.0454629,0.259359,0.0751023,0.0440942,1308,1667,10.3487,-47.8141
91,-643,10.4562,48.5706,0.101347,0.0493282,0.0447768,0.12712,0.0235548,0.522284,0.0780883,0.0459147,1315,1667,10.4562,-48.5706
98,-643,10.6716,49.4944,0.0847379,0.0508008,0.0670452,0.136928,-0.00138978,0.661455,0.0917524,0.048694,1322,1667,10.6716,-49.4943
105,-643,10.8951,50.4015,0.0679627,0.059521,0.0889301,0.152772,-0.0252884,0.761685,0.11124,0.0496956,1329,1667,10.8951,-50.4015
112,-643,11.0591,51.0654,0.0643331,0.0766782,0.10185,0.172542,-0.0315311,0.815663,0.126852,0.0480989,1336,1667,11.059,-51.0654
119,-643,13.3923,54.6993,0.0737541,0.0984312,0.10702,0.193821,-0.0216359,0.842791,0.136997,0.0462486,1343,1667,13.3923,-54.6993
126,-643,13.6581,55.6577,0.081791,0.115402,0.108715,0.208602,-0.0114094,0.862083,0.143023,0.0484919,1350,1667,13.6581,-55.6578
133,-643,14.0834,56.5361,0,0,0,0,0,0,0,-1,1357,1667,14.0834,-56.5361
140,-643,16.6039,55.047,0.0911134,0.126949,0.0958623,0.206554,0.0115089,0.877789,0.134031,0.0414798,1364,1667,16.6038,-55.047
147,-643,16.7505,55.5294,0.0843247,0.109351,0.0739563,0.171845,0.0218305,0.869203,0.108025,0.0422506,1371,1667,16.7504,-55.5295
154,-643,16.7194,56.146,0,0,0,0,0,0,0,-1,1378,1667,16.7194,-56.146
161,-643,5.57935,26.2754,0,0,0,0,0,0,0,-1,1385,1667,5.57931,-26.2754
168,-643,10.5563,10.9818,0,0,0,0,0,0,0,-1,1392,1667,10.5562,-10.9819
175,-643,5.88525,-1.1698,0,0,0,0,0,0,0,-1,1399,1667,5.88526,1.16977
182,-643,5.80945,-0.418701,0,0,0,0,0,0,0,-1,1406,1667,5.80949,0.418712
189,-643,5.42297,12.9208,0,0,0,0,0,0,0,-1,1413,1667,5.42298,-12.9208
196,-643,5.51953,11.2415,0,0,0,0,0,0,0,-1,1420,1667,5.51948,-11.2414
203,-643,5.60828,9.82153,0,0,0,0,0,0,0,-1,1427,1667,5.60833,-9.82148
210,-643,4.73218,7.58728,0,0,0,0,0,0,0,-1,1434,1667,4.73222,-7.58728
217,-643,3.8031,5.28955,0,0,0,0,0,0,0,-1,1441,1667,3.80305,-5.28955
224,-643,2.96436,2.97095,0,0,0,0,0,0,0,-1,1448,1667,2.96432,-2.97095
231,-643,2.13403,1.08472,0,0,0,0,0,0,0,-1,1455,1667,2.13403,-1.08467
238,-643,1.18152,-0.261963,0,0,0,0,0,0,0,-1,1462,1667,1.18152,0.26192
245,-643,-0.157471,-1.79016,0,0,0,0,0,0,0,-1,1469,1667,-0.157517,1.7901
252,-643,8.08789,0.0202637,0,0,0,0,0,0,0,-1,1476,1667,8.08791,-0.0203056
259,-643,9.02979,-0.46936,0,0,0,0,0,0,0,-1,1483,1667,9.02974,0.46933
266,-643,4.55066,5.17554,0,0,0,0,0,0,0,-1,1490,1667,4.55063,-5.17556
273,-643,10.74,31.432,0,0,0,0,0,0,0,-1,1497,1667,10.7399,-31.4319
280,-643,12.1675,42.5023,0,0,0,0,0,0,0,-1,1504,1667,12.1675,-42.5023
287,-643,12.4429,43.5996,0,0,0,0,0,0,0,-1,1511,1667,12.4429,-43.5996
294,-643,12.453,43.7458,0,0,0,0,0,0,0,-1,1518,1667,12.453,-43.7458
301,-643,12.6337,43.1936,0.0114795,0.0154873,-0.00508525,0.0189493,0.00801759,-0.973085,0.0109834,0.0400208,1525,1667,12.6337,-43.1936
308,-643,12.8083,42.7181,0.00998513,0.0163293,-0.00510228,0.0191652,0.00714928,-1.06351,0.0111833,0.0364695,1532,1667,12.8084,-42.7182
315,-643,12.8148,42.3033,0.00889399,0.0176723,-0.00553241,0.0203452,0.00622111,-1.12074,0.0120381,0.0289655,1539,1667,12.8148,-42.3034
322,-643,12.8857,41.7893,0.00797298,0.0182135,-0.00586417,0.0208782,0.00530828,-1.14429,0.0125299,0.01752,1546,1667,12.8858,-41.7893
329,-643,12.9047,41.3378,0.00706405,0.0180778,-0.00598998,0.0207076,0.00443424,-1.1571,0.01259,0.0126242,1553,1667,12.9047,-41.3378
336,-643,12.863,40.9559,0.00610131,0.0175427,-0.00587535,0.0200224,0.00362164,-1.17143,0.0123198,0.0117914,1560,1667,12.8631,-40.956
343,-643,12.8771,40.5432,0.0052122,0.0166956,-0.00574571,0.0190767,0.00283107,-1.17792,0.011887,0.014154,1567,1667,12.8771,-40.5432
350,-643,12.9227,40.0712,0.00456836,0.0154133,-0.00545293,0.0176809,0.00230073,-1.1767,0.0111001,0.0128461,1574,1667,12.9227,-40.0711
357,-643,12.9207,39.645,0.00393577,0.0138295,-0.00508549,0.0159773,0.00178802,-1.17119,0.0101084,0.0107102,1581,1667,12.9206,-39.645
364,-643,12.9167,39.2073,0.00341626,0.0120852,-0.00467904,0.0141289,0.00137256,-1.15899,0.00899671,0.00994057,1588,1667,12.9168,-39.2073
371,-643,12.9098,38.7632,0.00297414,0.0101594,-0.00416953,0.0120706,0.00106296,-1.14101,0.00771719,0.00839453,1595,1667,12.9098,-38.7632
378,-643,12.9105,38.3103,0.00256517,0.00820277,-0.00364901,0.00999493,0.000773014,-1.11427,0.00642114,0.0100009,1602,1667,12.9105,-38.3103
385,-643,12.9221,37.8373,0.0021874,0.00632151,-0.00316403,0.00803385,0.000475066,-1.07474,0.00520478,0.01614,1609,1667,12.9221,-37.8373
392,-643,12.8928,37.3977,0.00173642,0.00447369,-0.00268278,0.00611677,9.33339e-05,-1.02127,0.0040471,0.0175452,1616,1667,12.8928,-37.3977
399,-643,12.874,36.9575,0.00114132,0.00275469,-0.00226414,0.00435156,-0.000455542,-0.956531,0.00306419,0.0153332,1623,1667,12.874,-36.9575
406,-643,12.8947,36.4198,0.000545232,0.00160372,-0.0019048,0.00305144,-0.000902483,-0.920904,0.00239255,0.0133478,1630,1667,12.8946,-36.4198
413,-643,12.903,35.907,0.000115546,0.000931127,-0.00175149,0.00232167,-0.00127499,-0.899773,0.00210564,0.0188026,1637,1667,12.903,-35.907
420,-643,12.8555,35.4445,-0.000310662,0.000490888,-0.00172512,0.00186117,-0.00168095,-0.899532,0.00204593,0.0188834,1644,1667,12.8555,-35.4445
427,-643,12.823,34.9807,-0.000515651,0.000344244,-0.00188585,0.00184853,-0.00201994,-0.897476,0.00223419,0.0159926,1651,1667,12.823,-34.9807
434,-643,12.7988,34.4794,-0.000712905,0.0006926,-0.00220758,0.00230658,-0.00232689,-0.939495,0.00267514,0.0157549,1658,1667,12.7988,-34.4794
441,-643,12.7759,33.9579,-0.000850392,0.0013462,-0.00260988,0.00307946,-0.00258365,-0.984562,0.00327377,0.0154845,1665,1667,12.7759,-33.9579
448,-643,12.7223,33.4479,-0.00088949,0.00194257,-0.00304368,0.00388349,-0.00283041,-1.00312,0.00389213,0.0190043,1672,1667,12.7223,-33.4479
455,-643,12.615,32.8593,-0.000568408,0.00256104,-0.00336717,0.00470929,-0.00271667,-1.0029,0.00433853,0.0279246,1679,1667,12.615,-32.8592
462,-643,12.7913,32.2651,-0.00026724,0.00362263,-0.00358137,0.0057531,-0.00239771,-1.03415,0.00483696,0.0414555,1686,1667,12.7913,-32.2651
469,-643,12.8003,31.9475,0,0,0,0,0,0,0,-1,1693,1667,12.8003,-31.9475
476,-643,10.5598,24.5066,0,0,0,0,0,0,0,-1,1700,1667,10.5598,-24.5065
483,-643,10.4502,24.3062,0,0,0,0,0,0,0,-1,1707,1667,10.4502,-24.3062
490,-643,10.6885,24.1522,0,0,0,0,0,0,0,-1,1714,1667,10.6884,-24.1522
497,-643,10.9073,23.9465,0,0,0,0,0,0,0,-1,1721,1667,10.9074,-23.9465
504,-643,8.05591,19.0656,0,0,0,0,0,0,0,-1,1728,1667,8.0559,-19.0655
511,-643,7.74719,18.1564,0,0,0,0,0,0,0,-1,1735,1667,7.74724,-18.1563
518,-643,7.40564,0.922607,0,0,0,0,0,0,0,-1,1742,1667,7.4057,-0.922598
525,-643,0,0,0,0,0,0,0,0,0,-1,1749,1667,0,0
532,-643,0,0,0,0,0,0,0,0,0,-1,1756,1667,0,0
539,-643,0,0,0,0,0,0,0,0,0,-1,1763,1667,0,0
546,-643,0,0,0,0,0,0,0,0,0,-1,1770,1667,0,0
553,-643,0,0,0,0,0,0,0,0,0,-1,1777,1667,0,0
560,-643,0,0,0,0,0,0,0,0,0,-1,1784,1667,0,0
567,-643,0,0,0,0,0,0,0,0,0,-1,1791,1667,0,0
574,-643,0,0,0,0,0,0,0,0,0,-1,1798,1667,0,0
581,-643,0,0,0,0,0,0,0,0,0,-1,1805,1667,0,0
588,-643,0,0,0,0,0,0,0,0,0,-1,1812,1667,0,0
595,-643,0,0,0,0,0,0,0,0,0,-1,1819,1667,0,0
602,-643,0,0,0,0,0,0,0,0,0,-1,1826,1667,0,0
609,-643,0,0,0,0,0,0,0,0,0,-1,1833,1667,0,0
616,-643,0,0,0,0,0,0,0,0,0,-1,1840,1667,0,0
623,-643,0,0,0,0,0,0,0,0,0,-1,1847,1667,0,0
630,-643,0,0,0,0,0,0,0,0,0,-1,1854,1667,0,0
637,-643,0,0,0,0,0,0,0,0,0,-1,1861,1667,0,0
644,-643,0,0,0,0,0,0,0,0,0,-1,1868,1667,0,0
651,-643,0,0,0,0,0,0,0,0,0,-1,1875,1667,0,0
658,-643,0,0,0,0,0,0,0,0,0,-1,1882,1667,0,0
665,-643,0,0,0,0,0,0,0,0,0,-1,1889,1667,0,0
672,-643,0,0,0,0,0,0,0,0,0,-1,1896,1667,0,0
679,-643,0,0,0,0,0,0,0,0,0,-1,1903,1667,0,0
686,-643,0,0,0,0,0,0,0,0,0,-1,1910,1667,0,0
693,-643,0,0,0,0,0,0,0,0,0,-1,1917,1667,0,0
700,-643,0,0,0,0,0,0,0,0,0,-1,1924,1667,0,0
707,-643,0,0,0,0,0,0,0,0,0,-1,1931,1667,0,0
714,-643,0,0,0,0,0,0,0,0,0,-1,1938,1667,0,0
721,-643,0,0,0,0,0,0,0,0,0,-1,1945,1667,0,0
728,-643,0,0,0,0,0,0,0,0,0,-1,1952,1667,0,0
735,-643,0,0,0,0,0,0,0,0,0,-1,1959,1667,0,0
742,-643,0,0,0,0,0,0,0,0,0,-1,1966,1667,0,0
749,-643,0,0,0,0,0,0,0,0,0,-1,1973,1667,0,0
756,-643,0,0,0,0,0,0,0,0,0,-1,1980,1667,0,0
763,-643,0,0,0,0,0,0,0,0,0,-1,1987,1667,0,0
770,-643,0,0,0,0,0,0,0,0,0,-1,1994,1667,0,0
777,-643,0,0,0,0,0,0,0,0,0,-1,2001,1667,0,0
784,-643,0,0,0,0,0,0,0,0,0,-1,2008,1667,0,0
791,-643,0,0,0,0,0,0,0,0,0,-1,2015,1667,0,0
798,-643,0,0,0,0,0,0,0,0,0,-1,2022,1667,0,0
805,-643,0,0,0,0,0,0,0,0,0,-1,2029,1667,0,0
812,-643,0,0,0,0,0,0,0,0,0,-1,2036,1667,0,0
-700,-650,0,0,0,0,0,0,0,0,0,-1,524,1674,0,0
-693,-650,0,0,0,0,0,0,0,0,0,-1,531,1674,0,0
-686,-650,0,0,0,0,0,0,0,0,0,-1,538,1674,0,0
-679,-650,0,0,0,0,0,0,0,0,0,-1,545,1674,0,0
-672,-650,0,0,0,0,0,0,0,0,0,-1,552,1674,0,0
-665,-650,0,0,0,0,0,0,0,0,0,-1,559,1674,0,0
-658,-650,0,0,0,0,0,0,0,0,0,-1,566,1674,0,0
-651,-650,0,0,0,0,0,0,0,0,0,-1,573,1674,0,0
-644,-650,0,0,0,0,0,0,0,0,0,-1,580,1674,0,0
-637,-650,0,0,0,0,0,0,0,0,0,-1,587,1674,0,0
-630,-650,0,0,0,0,0,0,0,0,0,-1,594,1674,0,0
-623,-650,0,0,0,0,0,0,0,0,0,-1,601,1674,0,0
-616,-650,0,0,0,0,0,0,0,0,0,-1,608,1674,0,0
-609,-650,0,0,0,0,0,0,0,0,0,-1,615,1674,0,0
-602,-650,0,0,0,0,0,0,0,0,0,-1,622,1674,0,0
-595,-650,0,0,0,0,0,0,0,0,0,-1,629,1674,0,0
-588,-650,0,0,0,0,0,0,0,0,0,-1,636,1674,0,0
-581,-650,0,0,0,0,0,0,0,0,0,-1,643,1674,0,0
-574,-650,0,0,0,0,0,0,0,0,0,-1,650,1674,0,0
-567,-650,0,0,0,0,0,0,0,0,0,-1,657,1674,0,0
-560,-650,0,0,0,0,0,0,0,0,0,-1,664,1674,0,0
-553,-650,0,0,0,0,0,0,0,0,0,-1,671,1674,0,0
-546,-650,0,0,0,0,0,0,0,0,0,-1,678,1674,0,0
-539,-650,0,0,0,0,0,0,0,0,0,-1,685,1674,0,0
-532,-650,0,0,0,0,0,0,0,0,0,-1,692,1674,0,0
-525,-650,0,0,0,0,0,0,0,0,0,-1,699,1674,0,0
-518,-650,0,0,0,0,0,0,0,0,0,-1,706,1674,0,0
-511,-650,0,0,0,0,0,0,0,0,0,-1,713,1674,0,0
-504,-650,0,0,0,0,0,0,0,0,0,-1,720,1674,0,0
-497,-650,0,0,0,0,0,0,0,0,0,-1,727,1674,0,0
-490,-650,0,0,0,0,0,0,0,0,0,-1,734,1674,0,0
-483,-650,0,0,0,0,0,0,0,0,0,-1,741,1674,0,0
-476,-650,0,0,0,0,0,0,0,0,0,-1,748,1674,0,0
-469,-650,0,0,0,0,0,0,0,0,0,-1,755,1674,0,0
-462,-650,0,0,0,0,0,0,0,0,0,-1,762,1674,0,0
-455,-650,0,0,0,0,0,0,0,0,0,-1,769,1674,0,0
-448,-650,0,0,0,0,0,0,0,0,0,-1,776,1674,0,0
-441,-650,0,0,0,0,0,0,0,0,0,-1,783,1674,0,0
-434,-650,0,0,0,0,0,0,0,0,0,-1,790,1674,0,0
-427,-650,0,0,0,0,0,0,0,0,0,-1,797,1674,0,0
-420,-650,0,0,0,0,0,0,0,0,0,-1,804,1674,0,0
-413,-650,0,0,0,0,0,0,0,0,0,-1,811,1674,0,0
-406,-650,0,0,0,0,0,0,0,0,0,-1,818,1674,0,0
-399,-650,0,0,0,0,0,0,0,0,0,-1,825,1674,0,0
-392,-650,5.44415,6.85669,0,0,0,0,0,0,0,-1,832,1674,5.44414,-6.85674
-385,-650,1.74451,14.0183,0,0,0,0,0,0,0,-1,839,1674,1.74453,-14.0183
-378,-650,0.997986,4.11108,0,0,0,0,0,0,0,-1,846,1674,0.998006,-4.11113
-371,-650,-1.80096,3.78625,0,0,0,0,0,0,0,-1,853,1674,-1.80094,-3.78625
-364,-650,-2.95679,2.57507,0,0,0,0,0,0,0,-1,860,1674,-2.95681,-2.57506
-357,-650,1.97833,10.8362,0,0,0,0,0,0,0,-1,867,1674,1.97835,-10.8362
-350,-650,-5.30243,0.159912,0,0,0,0,0,0,0,-1,874,1674,-5.30244,-0.159866
-343,-650,-6.21338,-1.4425,0,0,0,0,0,0,0,-1,881,1674,-6.21341,1.44248
-336,-650,5.01526,30.5874,0,0,0,0,0,0,0,-1,888,1674,5.01526,-30.5874
-329,-650,5.39838,32.0996,0,0,0,0,0,0,0,-1,895,1674,5.3984,-32.0996
-322,-650,5.22229,32.7966,0.00501371,-0.0228781,-0.0216284,0.0168025,-0.0346669,-0.499044,0.0303066,0.0481812,902,1674,5.22231,-32.7967
-315,-650,5.22961,33.0322,0.00359916,-0.0199446,-0.0171353,0.0126166,-0.028962,-0.484427,0.024616,0.0444598,909,1674,5.2296,-33.0322
-308,-650,5.39093,33.5236,0.00232106,-0.0168997,-0.0134515,0.00924256,-0.0238212,-0.475221,0.0196982,0.0278425,916,1674,5.39095,-33.5235
-301,-650,5.40723,34.1532,0.00130073,-0.0139227,-0.0103489,0.00653575,-0.0191578,-0.468317,0.0154193,0.015019,923,1674,5.40721,-34.1532
-294,-650,5.34735,34.6561,0.000646998,-0.0111196,-0.00778334,0.00452042,-0.014993,-0.46177,0.0117945,0.0108856,930,1674,5.34733,-34.6562
-287,-650,5.3208,35.1803,0.000232151,-0.00868044,-0.00577641,0.00307143,-0.0115197,-0.456849,0.00888244,0.0127883,937,1674,5.32078,-35.1803
-280,-650,5.29333,35.6744,-6.13535e-05,-0.00660706,-0.00385177,0.00172027,-0.00838868,-0.433238,0.00624535,0.0144674,944,1674,5.29335,-35.6745
-273,-650,5.25525,36.1909,-0.000147082,-0.00435942,-0.0024763,0.000997598,-0.0055041,-0.432997,0.00404317,0.0144255,951,1674,5.25523,-36.1909
-266,-650,5.22772,36.7067,-2.28066e-05,-0.00238304,-0.00148845,0.000696594,-0.00310244,-0.450216,0.00233538,0.0115777,958,1674,5.22771,-36.7067
-259,-650,5.2204,37.1969,0.000253962,-0.000753218,-0.000572278,0.000512674,-0.00101193,-0.424578,0.000895825,0.0140128,965,1674,5.22038,-37.1969
-252,-650,5.19482,37.6864,0.00061323,0.000344128,-0.000104266,0.000648901,0.000308457,-0.32963,0.000374795,0.0128681,972,1674,5.1948,-37.6864
-245,-650,5.19165,38.1749,0.001008,0.00121254,0.000281117,0.00140941,0.000811127,0.959852,0.00081681,0.0118313,979,1674,5.19165,-38.1749
-238,-650,5.17987,38.6869,0.00150571,0.00196465,0.0006286,0.00240436,0.00106601,0.960408,0.00139112,0.012972,986,1674,5.1799,-38.6869
-231,-650,5.15576,39.1566,0.00228208,0.00270194,0.000974618,0.00348898,0.00149504,0.891476,0.00202122,0.0177928,993,1674,5.15573,-39.1566
-224,-650,5.14764,39.606,0.00296863,0.00336847,0.00149222,0.0046741,0.001663,0.851989,0.00273575,0.0155738,1000,1674,5.14764,-39.606
-217,-650,5.14801,40.0402,0.00437757,0.00472808,0.00216123,0.00672115,0.00238449,0.825855,0.00393464,0.0109605,1007,1674,5.14803,-40.0402
-210,-650,5.17175,40.4567,0.00642774,0.00576676,0.00327251,0.0093864,0.00280809,0.735074,0.00556305,0.0101829,1014,1674,5.17174,-40.4566
-203,-650,5.19617,40.911,0.00836155,0.00673263,0.00415665,0.0117828,0.00331139,0.688653,0.00701687,0.0147502,1021,1674,5.19619,-40.911
-196,-650,5.18066,41.3384,0.010523,0.00797352,0.00526933,0.0146696,0.00382695,0.666718,0.00878643,0.0141347,1028,1674,5.18062,-41.3383
-189,-650,5.19568,41.735,0.013046,0.00925661,0.00659934,0.0180172,0.00428536,0.645607,0.0108684,0.0114719,1035,1674,5.19571,-41.735
-182,-650,5.25916,42.2225,0.0158854,0.01057,0.00819386,0.0218418,0.00461361,0.628574,0.013293,0.0112695,1042,1674,5.2591,-42.2226
-175,-650,5.28149,42.6158,0.0187281,0.0119705,0.00988813,0.0257988,0.00489985,0.620767,0.0158209,0.0178158,1049,1674,5.28155,-42.6158
-168,-650,5.25232,43.0167,0.0215756,0.0135433,0.0116313,0.0298647,0.00525428,0.619164,0.01841,0.0230408,1056,1674,5.2523,-43.0167
-161,-650,5.23547,43.371,0.0242649,0.0146624,0.0132432,0.0335503,0.00537701,0.611495,0.0208074,0.0322145,1063,1674,5.23545,-43.3709
-154,-650,5.37537,43.6608,0.0266317,0.015547,0.0146293,0.0367333,0.00544535,0.604327,0.0228907,0.0385357,1070,1674,5.37537,-43.6608
-147,-650,5.53979,44.0956,0,0,0,0,0,0,0,-1,1077,1674,5.53982,-44.0956
-140,-650,4.9696,36.0964,0,0,0,0,0,0,0,-1,1084,1674,4.96957,-36.0964
-133,-650,4.69751,37.2125,0,0,0,0,0,0,0,-1,1091,1674,4.69756,-37.2125
-126,-650,4.56946,39.0813,0,0,0,0,0,0,0,-1,1098,1674,4.5695,-39.0813
-119,-650,5.16663,20.6232,0,0,0,0,0,0,0,-1,1105,1674,5.16665,-20.6232
-112,-650,3.86292,14.4513,0,0,0,0,0,0,0,-1,1112,1674,3.8629,-14.4513
-105,-650,7.92102,38.1313,0,0,0,0,0,0,0,-1,1119,1674,7.92104,-38.1314
-98,-650,3.3761,6.78003,0,0,0,0,0,0,0,-1,1126,1674,3.37611,-6.78009
-91,-650,3.66809,7.04443,0,0,0,0,0,0,0,-1,1133,1674,3.66806,-7.04439
-84,-650,-3.82666,-1.59521,0,0,0,0,0,0,0,-1,1140,1674,-3.82661,1.59517
-77,-650,-4.70557,1.90198,0,0,0,0,0,0,0,-1,1147,1674,-4.7056,-1.90194
-70,-650,-4.88171,3.81653,0,0,0,0,0,0,0,-1,1154,1674,-4.88176,-3.81651
-63,-650,-5.14612,5.56543,0,0,0,0,0,0,0,-1,1161,1674,-5.14612,-5.56547
-56,-650,-5.38367,7.41101,0,0,0,0,0,0,0,-1,1168,1674,-5.38361,-7.41102
-49,-650,-5.11316,8.23706,0,0,0,0,0,0,0,-1,1175,1674,-5.11317,-8.23708
-42,-650,-4.99487,9.6792,0,0,0,0,0,0,0,-1,1182,1674,-4.99484,-9.67921
-35,-650,-4.77771,11.3369,0,0,0,0,0,0,0,-1,1189,1674,-4.77769,-11.3369
-28,-650,-4.1936,13.1501,0,0,0,0,0,0,0,-1,1196,1674,-4.19358,-13.1501
-21,-650,7.49512,36.2162,0,0,0,0,0,0,0,-1,1203,1674,7.49515,-36.2162
-14,-650,6.00903,50.444,0,0,0,0,0,0,0,-1,1210,1674,6.00903,-50.444
-7,-650,7.47681,53.5153,0,0,0,0,0,0,0,-1,1217,1674,7.47682,-53.5153
0,-650,7.46423,53.5399,0,0,0,0,0,0,0,-1,1224,1674,7.46423,-53.54
7,-650,7.7843,54.2139,0,0,0,0,0,0,0,-1,1231,1674,7.78432,-54.2138
14,-650,7.97498,53.9653,0.118665,0.119941,-0.0472407,0.166548,0.072058,-0.792154,0.0964469,0.0412118,1238,1674,7.97503,-53.9654
21,-650,8.17004,53.7422,0.140145,0.123032,-0.0613456,0.193528,0.0696494,-0.716106,0.113186,0.0461163,1245,1674,8.17002,-53.7422
28,-650,7.76672,53.5518,0,0,0,0,0,0,0,-1,1252,1674,7.76672,-53.5518
35,-650,6.24036,53.6674,0,0,0,0,0,0,0,-1,1259,1674,6.24035,-53.6674
42,-650,6.73267,52.9314,0,0,0,0,0,0,0,-1,1266,1674,6.73271,-52.9314
49,-650,7.59021,51.986,0,0,0,0,0,0,0,-1,1273,1674,7.59017,-51.9859
56,-650,8.34937,50.9985,0,0,0,0,0,0,0,-1,1280,1674,8.34936,-50.9986
63,-650,9.1001,49.8878,0,0,0,0,0,0,0,-1,1287,1674,9.1001,-49.8878
70,-650,10.6957,47.4646,0,0,0,0,0,0,0,-1,1294,1674,10.6956,-47.4646
77,-650,10.6151,46.9476,0,0,0,0,0,0,0,-1,1301,1674,10.6151,-46.9477
84,-650,10.5582,47.8873,0.101326,0.043477,0.0259356,0.111251,0.033552,0.365485,0.065895,0.0475983,1308,1674,10.5583,-47.8874
91,-650,10.6104,48.7637,0.0862526,0.0433576,0.0477786,0.117177,0.0124334,0.574431,0.0743208,0.0477117,1315,1674,10.6103,-48.7637
98,-650,10.6444,49.6622,0.0748896,0.0467162,0.0680455,0.130291,-0.0086854,0.683331,0.0898959,0.0479098,1322,1674,10.6444,-49.6622
105,-650,11.0494,50.4935,0.0649913,0.0570625,0.0870281,0.148145,-0.0260914,0.762637,0.108511,0.0494729,1329,1674,11.0494,-50.4935
112,-650,11.2864,51.3143,0.0651682,0.0742765,0.0981792,0.168007,-0.0285624,0.808575,0.122639,0.0469967,1336,1674,11.2864,-51.3143
119,-650,11.218,52.3292,0.0739621,0.0940683,0.102934,0.187439,-0.0194087,0.834076,0.131906,0.0431372,1343,1674,11.218,-52.3292
126,-650,13.0861,55.0311,0.0811633,0.10927,0.104235,0.200395,-0.00996156,0.852406,0.137038,0.0481254,1350,1674,13.0861,-55.0311
133,-650,13.4717,56.0071,0,0,0,0,0,0,0,-1,1357,1674,13.4717,-56.0071
140,-650,13.9147,57.0581,0,0,0,0,0,0,0,-1,1364,1674,13.9147,-57.0582
147,-650,16.9524,55.1987,0,0,0,0,0,0,0,-1,1371,1674,16.9524,-55.1987
154,-650,16.5883,55.7573,0,0,0,0,0,0,0,-1,1378,1674,16.5882,-55.7573
161,-650,4.09106,30.3021,0,0,0,0,0,0,0,-1,1385,1674,4.09104,-30.3021
168,-650,11.2113,7.87231,0,0,0,0,0,0,0,-1,1392,1674,11.2113,-7.87236
175,-650,5.62537,-0.230713,0,0,0,0,0,0,0,-1,1399,1674,5.62538,0.230745
182,-650,5.56006,0.421631,0,0,0,0,0,0,0,-1,1406,1674,5.56,-0.421652
189,-650,4.81543,11.0654,0,0,0,0,0,0,0,-1,1413,1674,4.81542,-11.0654
196,-650,5.39575,11.9077,0,0,0,0,0,0,0,-1,1420,1674,5.39575,-11.9078
203,-650,3.93628,11.8215,0,0,0,0,0,0,0,-1,1427,1674,3.93624,-11.8216
210,-650,5.40955,8.08594,0,0,0,0,0,0,0,-1,1434,1674,5.40958,-8.086
217,-650,5.12451,4.69739,0,0,0,0,0,0,0,-1,1441,1674,5.12451,-4.69738
224,-650,4.79041,1.45813,0,0,0,0,0,0,0,-1,1448,1674,4.79046,-1.45816
231,-650,4.04102,-0.642212,0,0,0,0,0,0,0,-1,1455,1674,4.04101,0.642209
238,-650,3.23022,-1.43396,0,0,0,0,0,0,0,-1,1462,1674,3.23023,1.43394
245,-650,1.65894,-2.55042,0,0,0,0,0,0,0,-1,1469,1674,1.65889,2.55036
252,-650,8.75342,0.355103,0,0,0,0,0,0,0,-1,1476,1674,8.75337,-0.355147
259,-650,5.61255,3.17566,0,0,0,0,0,0,0,-1,1483,1674,5.61257,-3.17572
266,-650,4.00403,6.10229,0,0,0,0,0,0,0,-1,1490,1674,4.00401,-6.10225
273,-650,11.9524,42.7109,0,0,0,0,0,0,0,-1,1497,1674,11.9524,-42.7109
280,-650,11.9475,44.1957,0,0,0,0,0,0,0,-1,1504,1674,11.9475,-44.1957
287,-650,12.1429,43.7261,0.0112615,0.009503,-0.00382404,0.0143061,0.00645844,-0.672397,0.00827259,0.0493805,1511,1674,12.143,-43.726
294,-650,12.2205,43.3257,0.010307,0.00965712,-0.00351478,0.0135118,0.00645231,-0.739301,0.00780369,0.0441864,1518,1674,12.2204,-43.3256
301,-650,12.2784,43.0288,0.00919838,0.0108362,-0.0035227,0.013634,0.00640068,-0.899606,0.00787646,0.0325594,1525,1674,12.2785,-43.0288
308,-650,12.3807,42.5918,0.00808935,0.0113006,-0.00347873,0.0135264,0.00586358,-1.00161,0.00783245,0.018076,1532,1674,12.3807,-42.5918
315,-650,12.448,42.1722,0.00719421,0.01212,-0.00373225,0.0141287,0.00518546,-1.07705,0.00825283,0.0117521,1539,1674,12.4481,-42.1723
322,-650,12.4492,41.7439,0.00634191,0.0125265,-0.00391747,0.0144251,0.00444332,-1.11951,0.00853048,0.0107467,1546,1674,12.4492,-41.7439
329,-650,12.4821,41.282,0.00551636,0.0125121,-0.00401079,0.014336,0.00369243,-1.144,0.00859512,0.0159846,1553,1674,12.482,-41.282
336,-650,12.4691,40.9141,0.00468847,0.0121746,-0.00392988,0.0138587,0.00300433,-1.16593,0.00841834,0.0148731,1560,1674,12.4691,-40.9141
343,-650,12.4758,40.5179,0.00391434,0.0116562,-0.00383673,0.0132354,0.00233507,-1.18031,0.00815745,0.0145871,1567,1674,12.4758,-40.5179
350,-650,12.4818,40.085,0.00331133,0.0108812,-0.00371373,0.0123989,0.00179366,-1.18284,0.00773762,0.0165641,1574,1674,12.4818,-40.085
357,-650,12.4629,39.6475,0.00273773,0.00974464,-0.00354288,0.0112238,0.0012586,-1.1753,0.00710027,0.013489,1581,1674,12.4629,-39.6474
364,-650,12.4608,39.2068,0.00226875,0.00849545,-0.00332292,0.00993564,0.000828555,-1.16182,0.00636557,0.0092681,1588,1674,12.4609,-39.2067
371,-650,12.4504,38.7531,0.00188176,0.00705134,-0.00300788,0.00843247,0.000500637,-1.14034,0.00546242,0.0115037,1595,1674,12.4505,-38.753
378,-650,12.4442,38.3079,0.00155377,0.00555237,-0.00270954,0.00692039,0.000185756,-1.10325,0.00455294,0.0127374,1602,1674,12.4443,-38.3079
385,-650,12.4493,37.8611,0.00126521,0.0041249,-0.00245025,0.00553198,-0.000141875,-1.04952,0.00373618,0.013723,1609,1674,12.4494,-37.8611
392,-650,12.4454,37.4366,0.000903784,0.00263472,-0.00217952,0.00411432,-0.000575815,-0.974397,0.00295359,0.0182355,1616,1674,12.4455,-37.4366
399,-650,12.4271,36.9833,0.000384303,0.00125219,-0.00196569,0.00283127,-0.00119478,-0.894035,0.00238759,0.0173821,1623,1674,12.4272,-36.9833
406,-650,12.4082,36.4756,-0.000160613,0.000531285,-0.00181582,0.00203382,-0.00166315,-0.87953,0.00213802,0.0150996,1630,1674,12.4083,-36.4755
413,-650,12.4031,35.9811,-0.000512965,0.00011286,-0.00182929,0.00165581,-0.00205591,-0.870107,0.00214711,0.0155745,1637,1674,12.4031,-35.981
420,-650,12.3499,35.5153,-0.000866185,-1.09706e-05,-0.00199947,0.0016061,-0.00248326,-0.890742,0.00237903,0.0165616,1644,1674,12.3498,-35.5153
427,-650,12.3192,35.0325,-0.00105147,0.000112877,-0.00230353,0.00190667,-0.00284526,-0.909171,0.0027613,0.0153481,1651,1674,12.3192,-35.0325
434,-650,12.2836,34.5497,-0.00125947,0.000744923,-0.00275818,0.00267734,-0.00319189,-0.959659,0.00339294,0.0176338,1658,1674,12.2835,-34.5497
441,-650,12.257,34.0726,-0.00146147,0.00176626,-0.00327793,0.00380608,-0.00350129,-1.01415,0.00422013,0.02698,1665,1674,12.2569,-34.0726
448,-650,12.1042,33.5577,-0.00156567,0.00275067,-0.00387394,0.00502704,-0.00384204,-1.03954,0.00513578,0.0383718,1672,1674,12.1042,-33.5577
455,-650,11.739,32.4432,-0.00120217,0.00371136,-0.00436022,0.00625932,-0.00375013,-1.04195,0.00583917,0.0469902,1679,1674,11.739,-32.4432
462,-650,11.5382,31.6664,0,0,0,0,0,0,0,-1,1686,1674,11.5382,-31.6664
469,-650,11.3628,29.8889,0,0,0,0,0,0,0,-1,1693,1674,11.3628,-29.8889
476,-650,10.9189,27.1289,0,0,0,0,0,0,0,-1,1700,1674,10.919,-27.1289
483,-650,10.2426,24.5127,0,0,0,0,0,0,0,-1,1707,1674,10.2425,-24.5127
490,-650,10.4818,24.3475,0,0,0,0,0,0,0,-1,1714,1674,10.4818,-24.3475
497,-650,10.4985,20.1362,0,0,0,0,0,0,0,-1,1721,1674,10.4986,-20.1362
504,-650,9.69458,18.7721,0,0,0,0,0,0,0,-1,1728,1674,9.6946,-18.772
511,-650,9.37158,17.7506,0,0,0,0,0,0,0,-1,1735,1674,9.37159,-17.7506
518,-650,0,0,0,0,0,0,0,0,0,-1,1742,1674,0,0
525,-650,0,0,0,0,0,0,0,0,0,-1,1749,1674,0,0
532,-650,0,0,0,0,0,0,0,0,0,-1,1756,1674,0,0
539,-650,0,0,0,0,0,0,0,0,0,-1,1763,1674,0,0
546,-650,0,0,0,0,0,0,0,0,0,-1,1770,1674,0,0
553,-650,0,0,0,0,0,0,0,0,0,-1,1777,1674,0,0
560,-650,0,0,0,0,0,0,0,0,0,-1,1784,1674,0,0
567,-650,0,0,0,0,0,0,0,0,0,-1,1791,1674,0,0
574,-650,0,0,0,0,0,0,0,0,0,-1,1798,1674,0,0
581,-650,0,0,0,0,0,0,0,0,0,-1,1805,1674,0,0
588,-650,0,0,0,0,0,0,0,0,0,-1,1812,1674,0,0
595,-650,0,0,0,0,0,0,0,0,0,-1,1819,1674,0,0
602,-650,0,0,0,0,0,0,0,0,0,-1,1826,1674,0,0
609,-650,0,0,0,0,0,0,0,0,0,-1,1833,1674,0,0
616,-650,0,0,0,0,0,0,0,0,0,-1,1840,1674,0,0
623,-650,0,0,0,0,0,0,0,0,0,-1,1847,1674,0,0
630,-650,0,0,0,0,0,0,0,0,0,-1,1854,1674,0,0
637,-650,0,0,0,0,0,0,0,0,0,-1,1861,1674,0,0
644,-650,0,0,0,0,0,0,0,0,0,-1,1868,1674,0,0
651,-650,0,0,0,0,0,0,0,0,0,-1,1875,1674,0,0
658,-650,0,0,0,0,0,0,0,0,0,-1,1882,1674,0,0
665,-650,0,0,0,0,0,0,0,0,0,-1,1889,1674,0,0
672,-650,0,0,0,0,0,0,0,0,0,-1,1896,1674,0,0
679,-650,0,0,0,0,0,0,0,0,0,-1,1903,1674,0,0
686,-650,0,0,0,0,0,0,0,0,0,-1,1910,1674,0,0
693,-650,0,0,0,0,0,0,0,0,0,-1,1917,1674,0,0
700,-650,0,0,0,0,0,0,0,0,0,-1,1924,1674,0,0
707,-650,0,0,0,0,0,0,0,0,0,-1,1931,1674,0,0
714,-650,0,0,0,0,0,0,0,0,0,-1,1938,1674,0,0
721,-650,0,0,0,0,0,0,0,0,0,-1,1945,1674,0,0
728,-650,0,0,0,0,0,0,0,0,0,-1,1952,1674,0,0
735,-650,0,0,0,0,0,0,0,0,0,-1,1959,1674,0,0
742,-650,0,0,0,0,0,0,0,0,0,-1,1966,1674,0,0
749,-650,0,0,0,0,0,0,0,0,0,-1,1973,1674,0,0
756,-650,0,0,0,0,0,0,0,0,0,-1,1980,1674,0,0
763,-650,0,0,0,0,0,0,0,0,0,-1,1987,1674,0,0
770,-650,0,0,0,0,0,0,0,0,0,-1,1994,1674,0,0
777,-650,0,0,0,0,0,0,0,0,0,-1,2001,1674,0,0
784,-650,0,0,0,0,0,0,0,0,0,-1,2008,1674,0,0
791,-650,0,0,0,0,0,0,0,0,0,-1,2015,1674,0,0
798,-650,0,0,0,0,0,0,0,0,0,-1,2022,1674,0,0
805,-650,0,0,0,0,0,0,0,0,0,-1,2029,1674,0,0
812,-650,0,0,0,0,0,0,0,0,0,-1,2036,1674,0,0
-700,-657,0,0,0,0,0,0,0,0,0,-1,524,1681,0,0
-693,-657,0,0,0,0,0,0,0,0,0,-1,531,1681,0,0
-686,-657,0,0,0,0,0,0,0,0,0,-1,538,1681,0,0
-679,-657,0,0,0,0,0,0,0,0,0,-1,545,1681,0,0
-672,-657,0,0,0,0,0,0,0,0,0,-1,552,1681,0,0
-665,-657,0,0,0,0,0,0,0,0,0,-1,559,1681,0,0
-658,-657,0,0,0,0,0,0,0,0,0,-1,566,1681,0,0
-651,-657,0,0,0,0,0,0,0,0,0,-1,573,1681,0,0
-644,-657,0,0,0,0,0,0,0,0,0,-1,580,1681,0,0
-637,-657,0,0,0,0,0,0,0,0,0,-1,587,1681,0,0
-630,-657,0,0,0,0,0,0,0,0,0,-1,594,1681,0,0
-623,-657,0,0,0,0,0,0,0,0,0,-1,601,1681,0,0
-616,-657,0,0,0,0,0,0,0,0,0,-1,608,1681,0,0
-609,-657,0,0,0,0,0,0,0,0,0,-1,615,1681,0,0
-602,-657,0,0,0,0,0,0,0,0,0,-1,622,1681,0,0
-595,-657,0,0,0,0,0,0,0,0,0,-1,629,1681,0,0
-588,-657,0,0,0,0,0,0,0,0,0,-1,636,1681,0,0
-581,-657,0,0,0,0,0,0,0,0,0,-1,643,1681,0,0
-574,-657,0,0,0,0,0,0,0,0,0,-1,650,1681,0,0
-567,-657,0,0,0,0,0,0,0,0,0,-1,657,1681,0,0
-560,-657,0,0,0,0,0,0,0,0,0,-1,664,1681,0,0
-553,-657,0,0,0,0,0,0,0,0,0,-1,671,1681,0,0
-546,-657,0,0,0,0,0,0,0,0,0,-1,678,1681,0,0
-539,-657,0,0,0,0,0,0,0,0,0,-1,685,1681,0,0
-532,-657,0,0,0,0,0,0,0,0,0,-1,692,1681,0,0
-525,-657,0,0,0,0,0,0,0,0,0,-1,699,1681,0,0
-518,-657,0,0,0,0,0,0,0,0,0,-1,706,1681,0,0
-511,-657,0,0,0,0,0,0,0,0,0,-1,713,1681,0,0
-504,-657,0,0,0,0,0,0,0,0,0,-1,720,1681,0,0
-497,-657,0,0,0,0,0,0,0,0,0,-1,727,1681,0,0
-490,-657,0,0,0,0,0,0,0,0,0,-1,734,1681,0,0
-483,-657,0,0,0,0,0,0,0,0,0,-1,741,1681,0,0
-476,-657,0,0,0,0,0,0,0,0,0,-1,748,1681,0,0
-469,-657,0,0,0,0,0,0,0,0,0,-1,755,1681,0,0
-462,-657,0,0,0,0,0,0,0,0,0,-1,762,1681,0,0
-455,-657,0,0,0,0,0,0,0,0,0,-1,769,1681,0,0
-448,-657,0,0,0,0,0,0,0,0,0,-1,776,1681,0,0
-441,-657,0,0,0,0,0,0,0,0,0,-1,783,1681,0,0
-434,-657,0,0,0,0,0,0,0,0,0,-1,790,1681,0,0
-427,-657,0,0,0,0,0,0,0,0,0,-1,797,1681,0,0
-420,-657,0,0,0,0,0,0,0,0,0,-1,804,1681,0,0
-413,-657,0,0,0,0,0,0,0,0,0,-1,811,1681,0,0
-406,-657,0,0,0,0,0,0,0,0,0,-1,818,1681,0,0
-399,-657,0,0,0,0,0,0,0,0,0,-1,825,1681,0,0
-392,-657,0,0,0,0,0,0,0,0,0,-1,832,1681,0,0
-385,-657,1.09814,6.18896,0,0,0,0,0,0,0,-1,839,1681,1.09814,-6.18894
-378,-657,0.31488,4.46753,0,0,0,0,0,0,0,-1,846,1681,0.31487,-4.46755
-371,-657,-0.519043,2.69421,0,0,0,0,0,0,0,-1,853,1681,-0.519064,-2.69422
-364,-657,-3.42017,4.18323,0,0,0,0,0,0,0,-1,860,1681,-3.42019,-4.18319
-357,-657,-4.41913,2.97168,0,0,0,0,0,0,0,-1,867,1681,-4.41913,-2.97165
-350,-657,-5.42291,1.70276,0,0,0,0,0,0,0,-1,874,1681,-5.42291,-1.70277
-343,-657,-6.51294,0.397339,0,0,0,0,0,0,0,-1,881,1681,-6.51295,-0.397335
-336,-657,4.92999,34.4938,0,0,0,0,0,0,0,-1,888,1681,4.92997,-34.4938
-329,-657,5.31921,33.8669,0,0,0,0,0,0,0,-1,895,1681,5.3192,-33.8669
-322,-657,5.46564,33.1552,0,0,0,0,0,0,0,-1,902,1681,5.46562,-33.1552
-315,-657,5.81989,33.662,0.00461618,-0.0253914,-0.0236234,0.0175977,-0.038373,-0.502475,0.0330484,0.046905,909,1681,5.81986,-33.662
-308,-657,5.74036,33.9277,0.00283273,-0.0215179,-0.0185483,0.0128447,-0.0315299,-0.494963,0.0263659,0.0398708,916,1681,5.74038,-33.9277
-301,-657,5.85071,34.2146,0.00138878,-0.0177717,-0.0143804,0.00908789,-0.0254708,-0.491558,0.0206863,0.0336796,923,1681,5.85072,-34.2146
-294,-657,5.85492,34.7245,0.000425872,-0.0142972,-0.0109848,0.00628776,-0.0201591,-0.490191,0.0159538,0.0179801,930,1681,5.85489,-34.7245
-287,-657,5.79858,35.2422,-0.000199305,-0.0113356,-0.00837424,0.00428901,-0.0158239,-0.492005,0.0122322,0.0118614,937,1681,5.79855,-35.2422
-280,-657,5.75,35.7124,-0.000683024,-0.00893201,-0.00590778,0.00239757,-0.0120126,-0.480658,0.00891571,0.0138713,944,1681,5.75,-35.7124
-273,-657,5.74158,36.2327,-0.000918335,-0.00626703,-0.00415713,0.00135038,-0.00853574,-0.499567,0.00618992,0.010404,951,1681,5.74158,-36.2327
-266,-657,5.72937,36.7346,-0.000896236,-0.00396116,-0.00289485,0.000846758,-0.00570415,-0.541963,0.00411417,0.0147349,958,1681,5.72935,-36.7346
-259,-657,5.70081,37.1959,-0.000695607,-0.00209805,-0.00172394,0.000464272,-0.00325792,-0.592241,0.0023421,0.0184226,965,1681,5.70081,-37.1959
-252,-657,5.66962,37.6622,-0.000364557,-0.000910816,-0.00113559,0.000530286,-0.00180566,-0.667381,0.00141408,0.0131749,972,1681,5.66964,-37.6623
-245,-657,5.66473,38.1604,-8.88495e-06,9.56516e-06,-0.000619925,0.000620334,-0.000619654,-0.792838,0.000715907,0.0149395,979,1681,5.66473,-38.1604
-238,-657,5.66034,38.7059,0.0004539,0.000857587,-0.000132159,0.000897004,0.000414483,-1.28094,0.000518382,0.0191559,986,1681,5.66032,-38.706
-231,-657,5.6452,39.1758,0.00115439,0.00165089,0.000372011,0.00184987,0.000955404,1.07962,0.00106822,0.0205447,993,1681,5.64521,-39.1758
-224,-657,5.62036,39.6268,0.00172692,0.00225955,0.000931026,0.0029616,0.00102487,0.924701,0.00173669,0.0170114,1000,1681,5.62038,-39.6268
-217,-657,5.61035,40.0868,0.00268781,0.00337224,0.00149257,0.00456132,0.00149873,0.898089,0.00268458,0.0108217,1007,1681,5.61035,-40.0868
-210,-657,5.61993,40.5016,0.00418374,0.00423379,0.00232108,0.00652998,0.00188754,0.790789,0.00388031,0.011388,1014,1681,5.61994,-40.5016
-203,-657,5.6239,40.9517,0.00566027,0.00494343,0.00295561,0.00827911,0.00232459,0.725059,0.00493071,0.0137659,1021,1681,5.62388,-40.9516
-196,-657,5.6156,41.3726,0.00722507,0.00579348,0.00369988,0.0102778,0.00274079,0.689847,0.00614546,0.0139295,1028,1681,5.61558,-41.3726
-189,-657,5.63843,41.7679,0.00898138,0.00664669,0.00452843,0.0124905,0.00313756,0.659254,0.00750311,0.00993573,1035,1681,5.63842,-41.768
-182,-657,5.64209,42.2072,0.0109574,0.00750476,0.00553639,0.0150303,0.00343177,0.634271,0.00909475,0.00850147,1042,1681,5.64213,-42.2071
-175,-657,5.65942,42.6217,0.0129455,0.00841197,0.00662371,0.0176796,0.00367788,0.620536,0.0107718,0.0115812,1049,1681,5.65938,-42.6217
-168,-657,5.63232,43.038,0.0149087,0.00949914,0.00773352,0.0203968,0.00401105,0.617173,0.0124776,0.0147308,1056,1681,5.63234,-43.038
-161,-657,5.65833,43.4408,0.016757,0.0102642,0.00874215,0.0228361,0.00418513,0.607613,0.0140385,0.0143395,1063,1681,5.65829,-43.4408
-154,-657,5.73706,43.7736,0.018407,0.0108943,0.00959294,0.0249529,0.00434852,0.598788,0.0153919,0.0172232,1070,1681,5.73704,-43.7736
-147,-657,5.755,44.1727,0.0198829,0.0114692,0.0102363,0.0267431,0.00460896,0.590434,0.0165083,0.0341577,1077,1681,5.75506,-44.1727
-140,-657,5.75696,44.8965,0,0,0,0,0,0,0,-1,1084,1681,5.75698,-44.8965
-133,-657,5.65381,44.6499,0,0,0,0,0,0,0,-1,1091,1681,5.65383,-44.6499
-126,-657,5.75061,45.0548,0,0,0,0,0,0,0,-1,1098,1681,5.75067,-45.0548
-119,-657,5.86487,45.1371,0,0,0,0,0,0,0,-1,1105,1681,5.86487,-45.1371
-112,-657,6.24219,42.9092,0,0,0,0,0,0,0,-1,1112,1681,6.24217,-42.9092
-105,-657,7.37256,41.0361,0,0,0,0,0,0,0,-1,1119,1681,7.37254,-41.0362
-98,-657,8.14404,38.4435,0,0,0,0,0,0,0,-1,1126,1681,8.14405,-38.4435
-91,-657,3.6521,16.6017,0,0,0,0,0,0,0,-1,1133,1681,3.65215,-16.6017
-84,-657,4.08008,10.4579,0,0,0,0,0,0,0,-1,1140,1681,4.08006,-10.4579
-77,-657,-5.29846,0.396606,0,0,0,0,0,0,0,-1,1147,1681,-5.29842,-0.396573
-70,-657,-4.14893,2.14575,0,0,0,0,0,0,0,-1,1154,1681,-4.14893,-2.1458
-63,-657,-4.1239,3.177,0,0,0,0,0,0,0,-1,1161,1681,-4.12391,-3.17698
-56,-657,-6.40576,5.73987,0,0,0,0,0,0,0,-1,1168,1681,-6.40577,-5.7399
-49,-657,-5.98462,7.54053,0,0,0,0,0,0,0,-1,1175,1681,-5.98466,-7.5405
-42,-657,-5.71948,9.28955,0,0,0,0,0,0,0,-1,1182,1681,-5.71951,-9.2895
-35,-657,-5.44556,11.015,0,0,0,0,0,0,0,-1,1189,1681,-5.44555,-11.015
-28,-657,-1.3446,8.92847,0,0,0,0,0,0,0,-1,1196,1681,-1.34459,-8.92848
-21,-657,6.02917,50.0658,0,0,0,0,0,0,0,-1,1203,1681,6.02913,-50.0658
-14,-657,6.36536,50.219,0,0,0,0,0,0,0,-1,1210,1681,6.3653,-50.219
-7,-657,6.70142,50.3722,0,0,0,0,0,0,0,-1,1217,1681,6.70146,-50.3721
0,-657,7.58044,53.1602,0,0,0,0,0,0,0,-1,1224,1681,7.58044,-53.1602
7,-657,7.65771,53.3566,0,0,0,0,0,0,0,-1,1231,1681,7.65775,-53.3566
14,-657,7.90222,53.1174,0.0927427,0.111709,-0.0360998,0.139551,0.0649013,-0.913843,0.080635,0.041614,1238,1681,7.90223,-53.1174
21,-657,8.20349,53.0338,0.108744,0.114075,-0.0478724,0.159356,0.0634629,-0.813212,0.0926371,0.0437343,1245,1681,8.20355,-53.0338
28,-657,6.0033,53.675,0,0,0,0,0,0,0,-1,1252,1681,6.00334,-53.6751
35,-657,6.64514,52.8059,0.12962,0.101398,-0.0567355,0.173973,0.0570451,-0.663513,0.102408,0.0438092,1259,1681,6.64512,-52.806
42,-657,7.29443,51.9688,0.127991,0.0891994,-0.0509144,0.163079,0.0541115,-0.60341,0.0959127,0.0409586,1266,1681,7.29445,-51.9688
49,-657,7.93188,51.1357,0.123243,0.0766367,-0.043768,0.149525,0.0503547,-0.540775,0.0878483,0.0424289,1273,1681,7.93193,-51.1357
56,-657,8.50024,50.2305,0,0,0,0,0,0,0,-1,1280,1681,8.50025,-50.2305
63,-657,9.25488,49.2731,0,0,0,0,0,0,0,-1,1287,1681,9.25487,-49.273
70,-657,10.3494,46.399,0,0,0,0,0,0,0,-1,1294,1681,10.3494,-46.3991
77,-657,10.4066,47.228,0.0956353,0.0410088,0.00843863,0.0969092,0.0397349,0.149827,0.0562517,0.0472094,1301,1681,10.4066,-47.228
84,-657,10.4696,48.0885,0.0825723,0.0369901,0.0286943,0.0964254,0.0231369,0.449779,0.058127,0.0446003,1308,1681,10.4695,-48.0886
91,-657,10.5476,48.9819,0.0724567,0.0380116,0.047623,0.105876,0.00459258,0.611893,0.0691039,0.0432519,1315,1681,10.5476,-48.982
98,-657,10.6593,49.8303,0.0651864,0.0424904,0.0652592,0.120077,-0.0124,0.699313,0.0844885,0.0464932,1322,1681,10.6593,-49.8304
105,-657,10.7762,50.687,0,0,0,0,0,0,0,-1,1329,1681,10.7763,-50.687
112,-657,11.3811,51.3629,0,0,0,0,0,0,0,-1,1336,1681,11.3812,-51.363
119,-657,12.2461,53.2804,0.0701655,0.0865161,0.0951174,0.173809,-0.0171273,0.828268,0.121983,0.0463739,1343,1681,12.2461,-53.2804
126,-657,12.5944,54.3528,0.0767254,0.0999882,0.0964729,0.185528,-0.00881471,0.845392,0.126726,0.0489195,1350,1681,12.5944,-54.3528
133,-657,12.9888,55.3781,0,0,0,0,0,0,0,-1,1357,1681,12.9888,-55.378
140,-657,13.4564,56.3907,0,0,0,0,0,0,0,-1,1364,1681,13.4564,-56.3907
147,-657,13.9148,57.412,0,0,0,0,0,0,0,-1,1371,1681,13.9148,-57.4119
154,-657,11.218,41.4247,0,0,0,0,0,0,0,-1,1378,1681,11.218,-41.4247
161,-657,4.2926,24.9226,0,0,0,0,0,0,0,-1,1385,1681,4.29264,-24.9226
168,-657,5.21643,0.70105,0,0,0,0,0,0,0,-1,1392,1681,5.21648,-0.7011
175,-657,5.52771,0.649048,0,0,0,0,0,0,0,-1,1399,1681,5.52774,-0.649019
182,-657,5.73999,1.02612,0,0,0,0,0,0,0,-1,1406,1681,5.73995,-1.02611
189,-657,5.92126,1.44116,0,0,0,0,0,0,0,-1,1413,1681,5.92126,-1.44115
196,-657,4.92834,9.59021,0,0,0,0,0,0,0,-1,1420,1681,4.9284,-9.59018
203,-657,6.26343,5.16492,0,0,0,0,0,0,0,-1,1427,1681,6.26345,-5.16488
210,-657,3.9856,5.28088,0,0,0,0,0,0,0,-1,1434,1681,3.98555,-5.28084
217,-657,3.95178,5.2843,0,0,0,0,0,0,0,-1,1441,1681,3.95174,-5.28431
224,-657,6.66736,-0.250244,0,0,0,0,0,0,0,-1,1448,1681,6.66737,0.250229
231,-657,6.85498,-1.70752,0,0,0,0,0,0,0,-1,1455,1681,6.855,1.70758
238,-657,5.34143,-2.89819,0,0,0,0,0,0,0,-1,1462,1681,5.34143,2.89813
245,-657,8.66003,-0.102783,0,0,0,0,0,0,0,-1,1469,1681,8.66,0.102824
252,-657,4.78955,0.623779,0,0,0,0,0,0,0,-1,1476,1681,4.7895,-0.623826
259,-657,2.61523,4.31909,0,0,0,0,0,0,0,-1,1483,1681,2.61523,-4.31908
266,-657,5.35437,11.4742,0,0,0,0,0,0,0,-1,1490,1681,5.35441,-11.4742
273,-657,11.6058,43.7333,0,0,0,0,0,0,0,-1,1497,1681,11.6058,-43.7333
280,-657,11.6428,44.1467,0,0,0,0,0,0,0,-1,1504,1681,11.6428,-44.1467
287,-657,11.8383,43.7365,0.0088157,0.00665589,-0.00255932,0.0105136,0.00495797,-0.585755,0.00607331,0.037198,1511,1681,11.8383,-43.7364
294,-657,11.9003,43.3765,0.00810779,0.00674157,-0.00239086,0.00991121,0.00493815,-0.646247,0.00572225,0.0318858,1518,1681,11.9002,-43.3764
301,-657,11.9799,43.001,0.00721083,0.00732042,-0.00241144,0.00967769,0.00485356,-0.796758,0.00558742,0.0231146,1525,1681,11.9799,-43.001
308,-657,11.9984,42.5759,0.00630231,0.00763874,-0.00239553,0.00945751,0.00448354,-0.921412,0.00546274,0.0154596,1532,1681,11.9984,-42.576
315,-657,12.0305,42.1525,0.00553508,0.00817279,-0.00254386,0.00971935,0.00398852,-1.02455,0.00564145,0.0119578,1539,1681,12.0306,-42.1524
322,-657,12.073,41.7084,0.00477919,0.00850274,-0.0026507,0.00988016,0.00340177,-1.09156,0.00579577,0.0133974,1546,1681,12.073,-41.7084
329,-657,12.0674,41.2865,0.0040535,0.00855958,-0.00270889,0.00982994,0.00278315,-1.13229,0.00585056,0.0201694,1553,1681,12.0674,-41.2865
336,-657,12.0575,40.8995,0.00338159,0.00833944,-0.00262747,0.0094728,0.00224823,-1.16356,0.00571515,0.0182222,1560,1681,12.0575,-40.8996
343,-657,12.0752,40.5123,0.00276306,0.00804048,-0.00252716,0.00905544,0.0017481,-1.18889,0.00554686,0.0138459,1567,1681,12.0752,-40.5123
350,-657,12.0602,40.0946,0.0022513,0.00758684,-0.00247826,0.00856033,0.00127781,-1.1965,0.00533223,0.0157034,1574,1681,12.0602,-40.0946
357,-657,12.0343,39.6558,0.0017789,0.00672479,-0.00240386,0.00770062,0.000803072,-1.18518,0.00488809,0.0147112,1581,1681,12.0343,-39.6557
364,-657,12.0466,39.2162,0.00139039,0.00581098,-0.0022846,0.00677949,0.000421877,-1.16983,0.0043858,0.0107978,1588,1681,12.0466,-39.2161
371,-657,12.0369,38.792,0.00106896,0.00469273,-0.00209215,0.00564851,0.000113174,-1.14226,0.00372852,0.015253,1595,1681,12.0369,-38.792
378,-657,11.9938,38.3381,0.000807633,0.00349884,-0.00194548,0.00451873,-0.000212254,-1.08795,0.00308567,0.0150424,1602,1681,11.9937,-38.3381
385,-657,11.9554,37.8794,0.000579556,0.0024096,-0.00186095,0.00356831,-0.000579163,-1.01389,0.00259358,0.0129165,1609,1681,11.9554,-37.8794
392,-657,11.9624,37.4209,0.000282896,0.00117003,-0.00177159,0.00255274,-0.00109982,-0.908065,0.0021637,0.0130693,1616,1681,11.9624,-37.421
399,-657,11.99,36.9648,-0.000186024,6.58566e-05,-0.00176661,0.00171101,-0.00183118,-0.820982,0.00204548,0.0133271,1623,1681,11.99,-36.9649
406,-657,11.9679,36.4891,-0.00072352,-0.000300279,-0.00185558,0.00135571,-0.00237951,-0.842176,0.00218337,0.0142736,1630,1681,11.9679,-36.4892
413,-657,11.9298,36.0034,-0.00104917,-0.000496675,-0.00205971,0.00130523,-0.00285108,-0.85206,0.00245435,0.0137716,1637,1681,11.9298,-36.0034
420,-657,11.8879,35.5094,-0.00135753,-0.000316922,-0.00245821,0.00167544,-0.0033499,-0.889689,0.00295458,0.0155224,1644,1681,11.8879,-35.5094
427,-657,11.8423,35.0134,-0.00154822,9.23987e-05,-0.00294638,0.00233053,-0.00378635,-0.921166,0.00356477,0.0192819,1651,1681,11.8422,-35.0135
434,-657,11.8503,34.5583,-0.00180228,0.00100178,-0.00355379,0.0034201,-0.00422061,-0.973284,0.00441943,0.0272311,1658,1681,11.8504,-34.5584
441,-657,11.8665,34.2167,-0.00206587,0.00240169,-0.00416692,0.0048958,-0.00455999,-1.03144,0.00546045,0.0421127,1665,1681,11.8664,-34.2167
448,-657,11.4906,33.6948,0,0,0,0,0,0,0,-1,1672,1681,11.4907,-33.6948
455,-657,10.995,32.109,0,0,0,0,0,0,0,-1,1679,1681,10.995,-32.109
462,-657,10.2832,30.1719,0,0,0,0,0,0,0,-1,1686,1681,10.2831,-30.1718
469,-657,9.22205,26.4175,0,0,0,0,0,0,0,-1,1693,1681,9.2221,-26.4175
476,-657,8.9519,20.5712,0,0,0,0,0,0,0,-1,1700,1681,8.95194,-20.5712
483,-657,10.0663,21.8628,0,0,0,0,0,0,0,-1,1707,1681,10.0663,-21.8628
490,-657,11.6039,21.2185,0,0,0,0,0,0,0,-1,1714,1681,11.6038,-21.2185
497,-657,9.20862,17.8127,0,0,0,0,0,0,0,-1,1721,1681,9.2086,-17.8127
504,-657,0,0,0,0,0,0,0,0,0,-1,1728,1681,0,0
511,-657,0,0,0,0,0,0,0,0,0,-1,1735,1681,0,0
518,-657,0,0,0,0,0,0,0,0,0,-1,1742,1681,0,0
525,-657,0,0,0,0,0,0,0,0,0,-1,1749,1681,0,0
532,-657,0,0,0,0,0,0,0,0,0,-1,1756,1681,0,0
539,-657,0,0,0,0,0,0,0,0,0,-1,1763,1681,0,0
546,-657,0,0,0,0,0,0,0,0,0,-1,1770,1681,0,0
553,-657,0,0,0,0,0,0,0,0,0,-1,1777,1681,0,0
560,-657,0,0,0,0,0,0,0,0,0,-1,1784,1681,0,0
567,-657,0,0,0,0,0,0,0,0,0,-1,1791,1681,0,0
574,-657,0,0,0,0,0,0,0,0,0,-1,1798,1681,0,0
581,-657,0,0,0,0,0,0,0,0,0,-1,1805,1681,0,0
588,-657,0,0,0,0,0,0,0,0,0,-1,1812,1681,0,0
595,-657,0,0,0,0,0,0,0,0,0,-1,1819,1681,0,0
602,-657,0,0,0,0,0,0,0,0,0,-1,1826,1681,0,0
609,-657,0,0,0,0,0,0,0,0,0,-1,1833,1681,0,0
616,-657,0,0,0,0,0,0,0,0,0,-1,1840,1681,0,0
623,-657,0,0,0,0,0,0,0,0,0,-1,1847,1681,0,0
630,-657,0,0,0,0,0,0,0,0,0,-1,1854,1681,0,0
637,-657,0,0,0,0,0,0,0,0,0,-1,1861,1681,0,0
644,-657,0,0,0,0,0,0,0,0,0,-1,1868,1681,0,0
651,-657,0,0,0,0,0,0,0,0,0,-1,1875,1681,0,0
658,-657,0,0,0,0,0,0,0,0,0,-1,1882,1681,0,0
665,-657,0,0,0,0,0,0,0,0,0,-1,1889,1681,0,0
672,-657,0,0,0,0,0,0,0,0,0,-1,1896,1681,0,0
679,-657,0,0,0,0,0,0,0,0,0,-1,1903,1681,0,0
686,-657,0,0,0,0,0,0,0,0,0,-1,1910,1681,0,0
693,-657,0,0,0,0,0,0,0,0,0,-1,1917,1681,0,0
700,-657,0,0,0,0,0,0,0,0,0,-1,1924,1681,0,0
707,-657,0,0,0,0,0,0,0,0,0,-1,1931,1681,0,0
714,-657,0,0,0,0,0,0,0,0,0,-1,1938,1681,0,0
721,-657,0,0,0,0,0,0,0,0,0,-1,1945,1681,0,0
728,-657,0,0,0,0,0,0,0,0,0,-1,1952,1681,0,0
735,-657,0,0,0,0,0,0,0,0,0,-1,1959,1681,0,0
742,-657,0,0,0,0,0,0,0,0,0,-1,1966,1681,0,0
749,-657,0,0,0,0,0,0,0,0,0,-1,1973,1681,0,0
756,-657,0,0,0,0,0,0,0,0,0,-1,1980,1681,0,0
763,-657,0,0,0,0,0,0,0,0,0,-1,1987,1681,0,0
770,-657,0,0,0,0,0,0,0,0,0,-1,1994,1681,0,0
777,-657,0,0,0,0,0,0,0,0,0,-1,2001,1681,0,0
784,-657,0,0,0,0,0,0,0,0,0,-1,2008,1681,0,0
791,-657,0,0,0,0,0,0,0,0,0,-1,2015,1681,0,0
798,-657,0,0,0,0,0,0,0,0,0,-1,2022,1681,0,0
805,-657,0,0,0,0,0,0,0,0,0,-1,2029,1681,0,0
812,-657,0,0,0,0,0,0,0,0,0,-1,2036,1681,0,0
-700,-664,0,0,0,0,0,0,0,0,0,-1,524,1688,0,0
-693,-664,0,0,0,0,0,0,0,0,0,-1,531,1688,0,0
-686,-664,0,0,0,0,0,0,0,0,0,-1,538,1688,0,0
-679,-664,0,0,0,0,0,0,0,0,0,-1,545,1688,0,0
-672,-664,0,0,0,0,0,0,0,0,0,-1,552,1688,0,0
-665,-664,0,0,0,0,0,0,0,0,0,-1,559,1688,0,0
-658,-664,0,0,0,0,0,0,0,0,0,-1,566,1688,0,0
-651,-664,0,0,0,0,0,0,0,0,0,-1,573,1688,0,0
-644,-664,0,0,0,0,0,0,0,0,0,-1,580,1688,0,0
-637,-664,0,0,0,0,0,0,0,0,0,-1,587,1688,0,0
-630,-664,0,0,0,0,0,0,0,0,0,-1,594,1688,0,0
-623,-664,0,0,0,0,0,0,0,0,0,-1,601,1688,0,0
-616,-664,0,0,0,0,0,0,0,0,0,-1,608,1688,0,0
-609,-664,0,0,0,0,0,0,0,0,0,-1,615,1688,0,0
-602,-664,0,0,0,0,0,0,0,0,0,-1,622,1688,0,0
-595,-664,0,0,0,0,0,0,0,0,0,-1,629,1688,0,0
-588,-664,0,0,0,0,0,0,0,0,0,-1,636,1688,0,0
-581,-664,0,0,0,0,0,0,0,0,0,-1,643,1688,0,0
-574,-664,0,0,0,0,0,0,0,0,0,-1,650,1688,0,0
-567,-664,0,0,0,0,0,0,0,0,0,-1,657,1688,0,0
-560,-664,0,0,0,0,0,0,0,0,0,-1,664,1688,0,0
-553,-664,0,0,0,0,0,0,0,0,0,-1,671,1688,0,0
-546,-664,0,0,0,0,0,0,0,0,0,-1,678,1688,0,0
-539,-664,0,0,0,0,0,0,0,0,0,-1,685,1688,0,0
-532,-664,0,0,0,0,0,0,0,0,0,-1,692,1688,0,0
-525,-664,0,0,0,0,0,0,0,0,0,-1,699,1688,0,0
-518,-664,0,0,0,0,0,0,0,0,0,-1,706,1688,0,0
-511,-664,0,0,0,0,0,0,0,0,0,-1,713,1688,0,0
-504,-664,0,0,0,0,0,0,0,0,0,-1,720,1688,0,0
-497,-664,0,0,0,0,0,0,0,0,0,-1,727,1688,0,0
-490,-664,0,0,0,0,0,0,0,0,0,-1,734,1688,0,0
-483,-664,0,0,0,0,0,0,0,0,0,-1,741,1688,0,0
-476,-664,0,0,0,0,0,0,0,0,0,-1,748,1688,0,0
-469,-664,0,0,0,0,0,0,0,0,0,-1,755,1688,0,0
-462,-664,0,0,0,0,0,0,0,0,0,-1,762,1688,0,0
-455,-664,0,0,0,0,0,0,0,0,0,-1,769,1688,0,0
-448,-664,0,0,0,0,0,0,0,0,0,-1,776,1688,0,0
-441,-664,0,0,0,0,0,0,0,0,0,-1,783,1688,0,0
-434,-664,0,0,0,0,0,0,0,0,0,-1,790,1688,0,0
-427,-664,0,0,0,0,0,0,0,0,0,-1,797,1688,0,0
-420,-664,0,0,0,0,0,0,0,0,0,-1,804,1688,0,0
-413,-664,0,0,0,0,0,0,0,0,0,-1,811,1688,0,0
-406,-664,0,0,0,0,0,0,0,0,0,-1,818,1688,0,0
-399,-664,0,0,0,0,0,0,0,0,0,-1,825,1688,0,0
-392,-664,0,0,0,0,0,0,0,0,0,-1,832,1688,0,0
-385,-664,0,0,0,0,0,0,0,0,0,-1,839,1688,0,0
-378,-664,0,0,0,0,0,0,0,0,0,-1,846,1688,0,0
-371,-664,-1.61676,5.92737,0,0,0,0,0,0,0,-1,853,1688,-1.61675,-5.92735
-364,-664,-3.901,5.87024,0,0,0,0,0,0,0,-1,860,1688,-3.90097,-5.87027
-357,-664,-4.81012,4.53479,0,0,0,0,0,0,0,-1,867,1688,-4.81012,-4.5348
-350,-664,-5.7193,3.19934,0,0,0,0,0,0,0,-1,874,1688,-5.71927,-3.19932
-343,-664,5.97418,34.5831,0,0,0,0,0,0,0,-1,881,1688,5.97418,-34.5831
-336,-664,6.15826,34.5829,0.014138,-0.0440738,-0.059856,0.0515896,-0.0815253,-0.559098,0.077499,0.0473145,888,1688,6.15826,-34.5828
-329,-664,6.41309,34.3175,0.0110777,-0.0403833,-0.0492014,0.0408704,-0.070176,-0.544474,0.0648526,0.047432,895,1688,6.41311,-34.3174
-322,-664,6.70099,34.1044,0.00827635,-0.0359919,-0.0396253,0.0315303,-0.0592459,-0.530692,0.0532177,0.0493346,902,1688,6.701,-34.1044
-315,-664,6.70154,34.2468,0.00572013,-0.0312237,-0.0314772,0.0237451,-0.0492487,-0.520056,0.0429919,0.0477864,909,1688,6.70153,-34.2468
-308,-664,6.39557,33.7228,0,0,0,0,0,0,0,-1,916,1688,6.39559,-33.7227
-301,-664,6.42346,34.3014,0.00146744,-0.021768,-0.0193342,0.0124059,-0.0327065,-0.514861,0.0269104,0.0465423,923,1688,6.42344,-34.3014
-294,-664,6.44391,34.7988,0.000181174,-0.0174695,-0.0149101,0.00868203,-0.0259704,-0.518175,0.02082,0.039208,930,1688,6.44388,-34.7989
-287,-664,6.35254,35.3236,-0.000662344,-0.0138547,-0.0115367,0.00603074,-0.0205478,-0.525701,0.01609,0.0285206,937,1688,6.35253,-35.3236
-280,-664,6.24432,35.7817,-0.00133278,-0.0110476,-0.00840408,0.00351665,-0.0158971,-0.523362,0.0119441,0.0195576,944,1688,6.24434,-35.7818
-273,-664,6.23999,36.2537,-0.00170594,-0.00790308,-0.00617851,0.00210744,-0.0117165,-0.552972,0.00859997,0.0150385,951,1688,6.24,-36.2536
-266,-664,6.20184,36.7357,-0.00176994,-0.00524914,-0.00455826,0.0013694,-0.00838847,-0.60311,0.00610023,0.0209844,958,1688,6.20184,-36.7357
-259,-664,6.16431,37.2047,-0.00163001,-0.00315995,-0.00307038,0.000769258,-0.00555923,-0.663311,0.00398738,0.018737,965,1688,6.16429,-37.2047
-252,-664,6.14563,37.6908,-0.00130947,-0.00188545,-0.00229869,0.000719205,-0.00391412,-0.723081,0.00287925,0.0171438,972,1688,6.1456,-37.6908
-245,-664,6.14807,38.1847,-0.000981335,-0.000915674,-0.00157596,0.000627793,-0.0025248,-0.795813,0.00192686,0.0204468,979,1688,6.14806,-38.1847
-238,-664,6.13971,38.7045,-0.00053964,4.00654e-05,-0.000880021,0.000676739,-0.00117631,-0.944488,0.00108274,0.0227864,986,1688,6.13972,-38.7045
-231,-664,6.11359,39.171,0.000130346,0.000883404,-0.00012429,0.000903388,0.000110362,-1.41138,0.00056905,0.0203044,993,1688,6.1136,-39.1711
-224,-664,6.09058,39.6497,0.000634399,0.00141218,0.000578094,0.00172002,0.000326563,1.08149,0.00105481,0.0145126,1000,1688,6.0906,-39.6497
-217,-664,6.06635,40.1022,0.00125394,0.00232501,0.00112602,0.00303636,0.000542588,1.00737,0.00186981,0.0100882,1007,1688,6.06637,-40.1022
-210,-664,6.06543,40.5198,0.00234193,0.00304762,0.00181129,0.00454011,0.000849442,0.881595,0.00278708,0.011918,1014,1688,6.0654,-40.5198
-203,-664,6.05505,40.9659,0.00350477,0.00359063,0.00231297,0.00586107,0.00123433,0.794677,0.00356784,0.0150552,1021,1688,6.05501,-40.966
-196,-664,6.04126,41.386,0.00466165,0.00415992,0.00282212,0.00724404,0.00157754,0.741069,0.00439884,0.0147156,1028,1688,6.04126,-41.386
-189,-664,6.04272,41.7957,0.0058921,0.00471218,0.0033056,0.00865997,0.00194431,0.697092,0.0052467,0.00966369,1035,1688,6.04277,-41.7957
-182,-664,6.04187,42.226,0.00728456,0.00525893,0.00388858,0.0102901,0.00225343,0.657999,0.0062459,0.00945031,1042,1688,6.04181,-42.226
-175,-664,6.05627,42.592,0.00869709,0.00584764,0.00452218,0.0120137,0.00253107,0.632794,0.00731291,0.0131489,1049,1688,6.05626,-42.592
-168,-664,6.07727,42.9751,0.010053,0.00662615,0.00514373,0.0137612,0.00291797,0.624623,0.00837271,0.0147187,1056,1688,6.07731,-42.9751
-161,-664,6.07385,43.3691,0.0112829,0.00714654,0.00564093,0.0152229,0.00320661,0.609688,0.00926652,0.0110892,1063,1688,6.07381,-43.3692
-154,-664,6.12769,43.7488,0.0123832,0.00761011,0.00600372,0.0164573,0.00353599,0.596218,0.0100034,0.0112168,1070,1688,6.12766,-43.7487
-147,-664,6.12524,44.1257,0.0133591,0.00804515,0.00620522,0.0174523,0.00395199,0.583116,0.0105668,0.0198733,1077,1688,6.12529,-44.1258
-140,-664,6.12708,44.5123,0.0141351,0.00831285,0.00645573,0.0183057,0.00414224,0.573581,0.0110842,0.0257458,1084,1688,6.1271,-44.5123
-133,-664,6.17407,44.8239,0,0,0,0,0,0,0,-1,1091,1688,6.17406,-44.8239
-126,-664,6.21094,45.3566,0,0,0,0,0,0,0,-1,1098,1688,6.21093,-45.3566
-119,-664,6.34399,44.8781,0,0,0,0,0,0,0,-1,1105,1688,6.34403,-44.878
-112,-664,6.51074,45.4307,0,0,0,0,0,0,0,-1,1112,1688,6.51074,-45.4307
-105,-664,6.87256,43.2527,0,0,0,0,0,0,0,-1,1119,1688,6.87258,-43.2527
-98,-664,7.69324,41.3359,0,0,0,0,0,0,0,-1,1126,1688,7.69321,-41.3359
-91,-664,5.41931,25.6302,0,0,0,0,0,0,0,-1,1133,1688,5.41932,-25.6302
-84,-664,3.48389,16.6913,0,0,0,0,0,0,0,-1,1140,1688,3.4839,-16.6913
-77,-664,4.52014,11.2122,0,0,0,0,0,0,0,-1,1147,1688,4.5202,-11.2122
-70,-664,4.20374,8.24524,0,0,0,0,0,0,0,-1,1154,1688,4.20379,-8.24519
-63,-664,-4.677,2.40503,0,0,0,0,0,0,0,-1,1161,1688,-4.67702,-2.40498
-56,-664,-4.66504,3.32727,0,0,0,0,0,0,0,-1,1168,1688,-4.6651,-3.32724
-49,-664,-2.54297,3.31848,0,0,0,0,0,0,0,-1,1175,1688,-2.54297,-3.31852
-42,-664,-0.359253,4.38684,0,0,0,0,0,0,0,-1,1182,1688,-0.359261,-4.38685
-35,-664,-0.705566,3.55017,0,0,0,0,0,0,0,-1,1189,1688,-0.705567,-3.55023
-28,-664,-1.54236,10.2538,0,0,0,0,0,0,0,-1,1196,1688,-1.54236,-10.2538
-21,-664,6.41418,49.7694,0,0,0,0,0,0,0,-1,1203,1688,6.41413,-49.7694
-14,-664,6.69263,49.9508,0.0394143,0.078235,0.00218783,0.0783579,0.0392914,1.51468,0.04524,0.0465563,1210,1688,6.69264,-49.9508
-7,-664,7.0769,49.9893,0.0412349,0.0849467,-0.00209686,0.0850471,0.0411346,-1.52297,0.0491107,0.0470754,1217,1688,7.07694,-49.9893
0,-664,7.30151,52.5299,0.050609,0.0907977,-0.0100122,0.0931539,0.0482528,-1.33967,0.053794,0.0489529,1224,1688,7.30151,-52.5299
7,-664,7.69946,52.4574,0.0620426,0.0956869,-0.0179082,0.103435,0.0542947,-1.16247,0.0597428,0.0498504,1231,1688,7.69941,-52.4574
14,-664,7.97937,52.2515,0.0717206,0.0995891,-0.026526,0.115618,0.0556917,-1.02724,0.066767,0.0447929,1238,1688,7.9794,-52.2514
21,-664,8.37195,52.3052,0.0831841,0.101666,-0.0358967,0.129492,0.055358,-0.91138,0.0750239,0.0454037,1245,1688,8.37193,-52.3051
28,-664,6.08936,53.2461,0,0,0,0,0,0,0,-1,1252,1688,6.0894,-53.2461
35,-664,7.07715,51.9209,0.0976897,0.0887308,-0.0417729,0.135223,0.0511978,-0.731985,0.078834,0.0448347,1259,1688,7.07715,-51.9209
42,-664,7.70691,51.0531,0.0965704,0.0776379,-0.0369164,0.125215,0.0489935,-0.65989,0.0728604,0.0421974,1266,1688,7.70688,-51.053
49,-664,8.23767,50.1204,0.0932604,0.0663455,-0.0312048,0.113786,0.04582,-0.581817,0.0661078,0.0403061,1273,1688,8.23767,-50.1204
56,-664,8.67322,49.4349,0,0,0,0,0,0,0,-1,1280,1688,8.67324,-49.435
63,-664,8.21436,51.1182,0,0,0,0,0,0,0,-1,1287,1688,8.21435,-51.1182
70,-664,9.78687,48.1824,0,0,0,0,0,0,0,-1,1294,1688,9.7869,-48.1823
77,-664,10.1414,47.9692,0.0751341,0.0344134,0.0127957,0.0788211,0.0307264,0.280543,0.0458741,0.0433065,1301,1688,10.1414,-47.9693
84,-664,10.3297,48.4076,0.0664737,0.0313285,0.0294407,0.0831874,0.0146148,0.516337,0.0512856,0.0427568,1308,1688,10.3297,-48.4076
91,-664,10.7802,49.0708,0.0601301,0.0332261,0.0452713,0.0939057,-0.000549495,0.640982,0.0627878,0.0371195,1315,1688,10.7801,-49.0708
98,-664,10.6989,49.9923,0.0559151,0.0382203,0.0600181,0.107734,-0.013599,0.712219,0.0767585,0.0484678,1322,1688,10.6989,-49.9923
105,-664,10.9972,50.6023,0.0538148,0.0482836,0.0730497,0.124151,-0.0220528,0.766478,0.0910134,0.0472932,1329,1688,10.9973,-50.6023
112,-664,11.2592,51.6913,0.0569155,0.0622633,0.0809561,0.14059,-0.0214109,0.801907,0.101618,0.0425684,1336,1688,11.2592,-51.6913
119,-664,11.6508,52.9714,0.0639116,0.0771442,0.0850533,0.155838,-0.0147824,0.824215,0.109154,0.0471918,1343,1688,11.6508,-52.9714
126,-664,12.1023,53.9613,0,0,0,0,0,0,0,-1,1350,1688,12.1022,-53.9613
133,-664,12.536,54.7104,0,0,0,0,0,0,0,-1,1357,1688,12.536,-54.7105
140,-664,13.4602,57.0759,0,0,0,0,0,0,0,-1,1364,1688,13.4603,-57.076
147,-664,14.4056,58.1705,0,0,0,0,0,0,0,-1,1371,1688,14.4057,-58.1705
154,-664,11.4288,51.0769,0,0,0,0,0,0,0,-1,1378,1688,11.4288,-51.0769
161,-664,4.60132,1.56238,0,0,0,0,0,0,0,-1,1385,1688,4.60134,-1.56233
168,-664,5.172,1.25488,0,0,0,0,0,0,0,-1,1392,1688,5.17203,-1.25484
175,-664,5.58313,1.16467,0,0,0,0,0,0,0,-1,1399,1688,5.58317,-1.16466
182,-664,5.74268,1.41113,0,0,0,0,0,0,0,-1,1406,1688,5.74263,-1.41115
189,-664,5.87744,1.87061,0,0,0,0,0,0,0,-1,1413,1688,5.87745,-1.87065
196,-664,6.7594,5.97473,0,0,0,0,0,0,0,-1,1420,1688,6.75943,-5.97478
203,-664,5.38452,5.22034,0,0,0,0,0,0,0,-1,1427,1688,5.38453,-5.2203
210,-664,5.25549,6.45715,0,0,0,0,0,0,0,-1,1434,1688,5.25549,-6.45721
217,-664,5.72009,6.73975,0,0,0,0,0,0,0,-1,1441,1688,5.72014,-6.73972
224,-664,5.05725,7.42908,0,0,0,0,0,0,0,-1,1448,1688,5.05723,-7.42912
231,-664,5.13318,7.60864,0,0,0,0,0,0,0,-1,1455,1688,5.13313,-7.60862
238,-664,4.23193,6.45471,0,0,0,0,0,0,0,-1,1462,1688,4.23197,-6.45476
245,-664,4.42004,6.80896,0,0,0,0,0,0,0,-1,1469,1688,4.4201,-6.80901
252,-664,3.67346,6.85461,0,0,0,0,0,0,0,-1,1476,1688,3.6734,-6.85462
259,-664,4.55823,11.7435,0,0,0,0,0,0,0,-1,1483,1688,4.55826,-11.7435
266,-664,11.2478,44.4626,0,0,0,0,0,0,0,-1,1490,1688,11.2478,-44.4626
273,-664,11.4777,44.3729,0,0,0,0,0,0,0,-1,1497,1688,11.4777,-44.3729
280,-664,11.4822,44.1964,0.00700016,0.00482287,-0.00174551,0.00796869,0.00385435,-0.506572,0.00460154,0.0303139,1504,1688,11.4822,-44.1964
287,-664,11.4717,43.7535,0.00651948,0.00458765,-0.00162399,0.00744309,0.00366403,-0.517113,0.00429744,0.0291945,1511,1688,11.4716,-43.7535
294,-664,11.5537,43.337,0.0060351,0.00466816,-0.00160843,0.00709925,0.00360401,-0.584492,0.00409892,0.0208529,1518,1688,11.5537,-43.3371
301,-664,11.6091,42.927,0.00540553,0.00499229,-0.00170411,0.0069155,0.00348232,-0.725069,0.0039927,0.0130535,1525,1688,11.6091,-42.927
308,-664,11.6385,42.5326,0.00474633,0.00526059,-0.00179065,0.00681248,0.00319444,-0.85671,0.00393572,0.0125347,1532,1688,11.6385,-42.5326
315,-664,11.6572,42.1313,0.00414289,0.00562154,-0.00192375,0.00694315,0.00282129,-0.968855,0.004032,0.0130354,1539,1688,11.6572,-42.1313
322,-664,11.6803,41.7428,0.00351156,0.0058675,-0.00198843,0.00700069,0.00237837,-1.05281,0.00411048,0.0157607,1546,1688,11.6803,-41.7428
329,-664,11.6545,41.3629,0.00288816,0.00589623,-0.00200272,0.00689679,0.00188759,-1.10747,0.00411558,0.0190614,1553,1688,11.6545,-41.3629
336,-664,11.6455,40.9402,0.00231113,0.00567639,-0.00189882,0.00653084,0.00145668,-1.14795,0.0039587,0.0156463,1560,1688,11.6455,-40.9402
343,-664,11.6539,40.5172,0.00179289,0.00540967,-0.00176366,0.0061273,0.00107526,-1.18436,0.0037778,0.011556,1567,1688,11.6539,-40.5172
350,-664,11.6326,40.1105,0.00134265,0.00512888,-0.00171724,0.0057917,0.000679831,-1.20244,0.00365565,0.0135884,1574,1688,11.6325,-40.1105
357,-664,11.6079,39.6686,0.000928494,0.00440056,-0.00167305,0.00507553,0.000253532,-1.18733,0.00330242,0.0131332,1581,1688,11.6079,-39.6686
364,-664,11.62,39.2229,0.000583208,0.00373059,-0.00160011,0.00440119,-8.73934e-05,-1.17394,0.00296369,0.0114833,1588,1688,11.62,-39.223
371,-664,11.6154,38.8221,0.000290215,0.00286199,-0.00147383,0.00353204,-0.000379833,-1.1441,0.00249098,0.0143565,1595,1688,11.6153,-38.8221
378,-664,11.5753,38.3757,5.96662e-05,0.00187367,-0.00140557,0.00263948,-0.000706142,-1.07193,0.00203626,0.0134302,1602,1688,11.5753,-38.3757
385,-664,11.5348,37.895,-9.40734e-05,0.0010964,-0.00149175,0.00210729,-0.00110496,-0.975229,0.00188445,0.0141931,1609,1688,11.5348,-37.895
392,-664,11.4934,37.4492,-0.000307598,0.000104951,-0.00158424,0.00149628,-0.00169893,-0.850136,0.001846,0.0164567,1616,1688,11.4934,-37.4492
399,-664,11.5159,36.9797,-0.000698127,-0.000716783,-0.00178755,0.00108012,-0.00249503,-0.782789,0.00211731,0.0139223,1623,1688,11.5158,-36.9798
406,-664,11.5126,36.5073,-0.00120378,-0.00075286,-0.00211603,0.00114969,-0.00310633,-0.838472,0.0025423,0.011796,1630,1688,11.5126,-36.5073
413,-664,11.4861,35.9987,-0.00149396,-0.000748148,-0.0025163,0.00142272,-0.00366483,-0.858961,0.00303089,0.0104274,1637,1688,11.486,-35.9987
420,-664,11.4753,35.4915,-0.00176543,-0.000278424,-0.00315916,0.00222355,-0.0042674,-0.900969,0.00380897,0.0252019,1644,1688,11.4754,-35.4914
427,-664,11.4237,35.1115,-0.00203941,0.000339433,-0.00377789,0.00311071,-0.00481069,-0.937905,0.0046084,0.0410343,1651,1688,11.4237,-35.1114
434,-664,11.4132,34.4652,-0.00240899,0.00142867,-0.00449513,0.00439738,-0.00537771,-0.987124,0.0056531,0.0436388,1658,1688,11.4132,-34.4652
441,-664,11.3762,34.2625,0,0,0,0,0,0,0,-1,1665,1688,11.3762,-34.2625
448,-664,11.9281,34.1836,0,0,0,0,0,0,0,-1,1672,1688,11.9281,-34.1836
455,-664,7.53198,11.3838,0,0,0,0,0,0,0,-1,1679,1688,7.53195,-11.3838
462,-664,4.3147,4.25439,0,0,0,0,0,0,0,-1,1686,1688,4.31467,-4.25435
469,-664,6.05469,7.49341,0,0,0,0,0,0,0,-1,1693,1688,6.05474,-7.49339
476,-664,10.2377,22.7128,0,0,0,0,0,0,0,-1,1700,1688,10.2377,-22.7128
483,-664,8.41895,10.9768,0,0,0,0,0,0,0,-1,1707,1688,8.41897,-10.9769
490,-664,3.90771,13.2842,0,0,0,0,0,0,0,-1,1714,1688,3.90776,-13.2841
497,-664,0,0,0,0,0,0,0,0,0,-1,1721,1688,0,0
504,-664,0,0,0,0,0,0,0,0,0,-1,1728,1688,0,0
511,-664,0,0,0,0,0,0,0,0,0,-1,1735,1688,0,0
518,-664,0,0,0,0,0,0,0,0,0,-1,1742,1688,0,0
525,-664,0,0,0,0,0,0,0,0,0,-1,1749,1688,0,0
532,-664,0,0,0,0,0,0,0,0,0,-1,1756,1688,0,0
539,-664,0,0,0,0,0,0,0,0,0,-1,1763,1688,0,0
546,-664,0,0,0,0,0,0,0,0,0,-1,1770,1688,0,0
553,-664,0,0,0,0,0,0,0,0,0,-1,1777,1688,0,0
560,-664,0,0,0,0,0,0,0,0,0,-1,1784,1688,0,0
567,-664,0,0,0,0,0,0,0,0,0,-1,1791,1688,0,0
574,-664,0,0,0,0,0,0,0,0,0,-1,1798,1688,0,0
581,-664,0,0,0,0,0,0,0,0,0,-1,1805,1688,0,0
588,-664,0,0,0,0,0,0,0,0,0,-1,1812,1688,0,0
595,-664,0,0,0,0,0,0,0,0,0,-1,1819,1688,0,0
602,-664,0,0,0,0,0,0,0,0,0,-1,1826,1688,0,0
609,-664,0,0,0,0,0,0,0,0,0,-1,1833,1688,0,0
616,-664,0,0,0,0,0,0,0,0,0,-1,1840,1688,0,0
623,-664,0,0,0,0,0,0,0,0,0,-1,1847,1688,0,0
630,-664,0,0,0,0,0,0,0,0,0,-1,1854,1688,0,0
637,-664,0,0,0,0,0,0,0,0,0,-1,1861,1688,0,0
644,-664,0,0,0,0,0,0,0,0,0,-1,1868,1688,0,0
651,-664,0,0,0,0,0,0,0,0,0,-1,1875,1688,0,0
658,-664,0,0,0,0,0,0,0,0,0,-1,1882,1688,0,0
665,-664,0,0,0,0,0,0,0,0,0,-1,1889,1688,0,0
672,-664,0,0,0,0,0,0,0,0,0,-1,1896,1688,0,0
679,-664,0,0,0,0,0,0,0,0,0,-1,1903,1688,0,0
686,-664,0,0,0,0,0,0,0,0,0,-1,1910,1688,0,0
693,-664,0,0,0,0,0,0,0,0,0,-1,1917,1688,0,0
700,-664,0,0,0,0,0,0,0,0,0,-1,1924,1688,0,0
707,-664,0,0,0,0,0,0,0,0,0,-1,1931,1688,0,0
714,-664,0,0,0,0,0,0,0,0,0,-1,1938,1688,0,0
721,-664,0,0,0,0,0,0,0,0,0,-1,1945,1688,0,0
728,-664,0,0,0,0,0,0,0,0,0,-1,1952,1688,0,0
735,-664,0,0,0,0,0,0,0,0,0,-1,1959,1688,0,0
742,-664,0,0,0,0,0,0,0,0,0,-1,1966,1688,0,0
749,-664,0,0,0,0,0,0,0,0,0,-1,1973,1688,0,0
756,-664,0,0,0,0,0,0,0,0,0,-1,1980,1688,0,0
763,-664,0,0,0,0,0,0,0,0,0,-1,1987,1688,0,0
770,-664,0,0,0,0,0,0,0,0,0,-1,1994,1688,0,0
777,-664,0,0,0,0,0,0,0,0,0,-1,2001,1688,0,0
784,-664,0,0,0,0,0,0,0,0,0,-1,2008,1688,0,0
791,-664,0,0,0,0,0,0,0,0,0,-1,2015,1688,0,0
798,-664,0,0,0,0,0,0,0,0,0,-1,2022,1688,0,0
805,-664,0,0,0,0,0,0,0,0,0,-1,2029,1688,0,0
812,-664,0,0,0,0,0,0,0,0,0,-1,2036,1688,0,0
-700,-671,0,0,0,0,0,0,0,0,0,-1,524,1695,0,0
-693,-671,0,0,0,0,0,0,0,0,0,-1,531,1695,0,0
-686,-671,0,0,0,0,0,0,0,0,0,-1,538,1695,0,0
-679,-671,0,0,0,0,0,0,0,0,0,-1,545,1695,0,0
-672,-671,0,0,0,0,0,0,0,0,0,-1,552,1695,0,0
-665,-671,0,0,0,0,0,0,0,0,0,-1,559,1695,0,0
-658,-671,0,0,0,0,0,0,0,0,0,-1,566,1695,0,0
-651,-671,0,0,0,0,0,0,0,0,0,-1,573,1695,0,0
-644,-671,0,0,0,0,0,0,0,0,0,-1,580,1695,0,0
-637,-671,0,0,0,0,0,0,0,0,0,-1,587,1695,0,0
-630,-671,0,0,0,0,0,0,0,0,0,-1,594,1695,0,0
-623,-671,0,0,0,0,0,0,0,0,0,-1,601,1695,0,0
-616,-671,0,0,0,0,0,0,0,0,0,-1,608,1695,0,0
-609,-671,0,0,0,0,0,0,0,0,0,-1,615,1695,0,0
-602,-671,0,0,0,0,0,0,0,0,0,-1,622,1695,0,0
-595,-671,0,0,0,0,0,0,0,0,0,-1,629,1695,0,0
-588,-671,0,0,0,0,0,0,0,0,0,-1,636,1695,0,0
-581,-671,0,0,0,0,0,0,0,0,0,-1,643,1695,0,0
-574,-671,0,0,0,0,0,0,0,0,0,-1,650,1695,0,0
-567,-671,0,0,0,0,0,0,0,0,0,-1,657,1695,0,0
-560,-671,0,0,0,0,0,0,0,0,0,-1,664,1695,0,0
-553,-671,0,0,0,0,0,0,0,0,0,-1,671,1695,0,0
-546,-671,0,0,0,0,0,0,0,0,0,-1,678,1695,0,0
-539,-671,0,0,0,0,0,0,0,0,0,-1,685,1695,0,0
-532,-671,0,0,0,0,0,0,0,0,0,-1,692,1695,0,0
-525,-671,0,0,0,0,0,0,0,0,0,-1,699,1695,0,0
-518,-671,0,0,0,0,0,0,0,0,0,-1,706,1695,0,0
-511,-671,0,0,0,0,0,0,0,0,0,-1,713,1695,0,0
-504,-671,0,0,0,0,0,0,0,0,0,-1,720,1695,0,0
-497,-671,0,0,0,0,0,0,0,0,0,-1,727,1695,0,0
-490,-671,0,0,0,0,0,0,0,0,0,-1,734,1695,0,0
-483,-671,0,0,0,0,0,0,0,0,0,-1,741,1695,0,0
-476,-671,0,0,0,0,0,0,0,0,0,-1,748,1695,0,0
-469,-671,0,0,0,0,0,0,0,0,0,-1,755,1695,0,0
-462,-671,0,0,0,0,0,0,0,0,0,-1,762,1695,0,0
-455,-671,0,0,0,0,0,0,0,0,0,-1,769,1695,0,0
-448,-671,0,0,0,0,0,0,0,0,0,-1,776,1695,0,0
-441,-671,0,0,0,0,0,0,0,0,0,-1,783,1695,0,0
-434,-671,0,0,0,0,0,0,0,0,0,-1,790,1695,0,0
-427,-671,0,0,0,0,0,0,0,0,0,-1,797,1695,0,0
-420,-671,0,0,0,0,0,0,0,0,0,-1,804,1695,0,0
-413,-671,0,0,0,0,0,0,0,0,0,-1,811,1695,0,0
-406,-671,0,0,0,0,0,0,0,0,0,-1,818,1695,0,0
-399,-671,0,0,0,0,0,0,0,0,0,-1,825,1695,0,0
-392,-671,0,0,0,0,0,0,0,0,0,-1,832,1695,0,0
-385,-671,0,0,0,0,0,0,0,0,0,-1,839,1695,0,0
-378,-671,0,0,0,0,0,0,0,0,0,-1,846,1695,0,0
-371,-671,0,0,0,0,0,0,0,0,0,-1,853,1695,0,0
-364,-671,-4.18738,7.51416,0,0,0,0,0,0,0,-1,860,1695,-4.18739,-7.51419
-357,-671,-5.02393,6.07129,0,0,0,0,0,0,0,-1,867,1695,-5.0239,-6.07135
-350,-671,6.93323,33.8943,0,0,0,0,0,0,0,-1,874,1695,6.93325,-33.8943
-343,-671,7.216,34.2831,0,0,0,0,0,0,0,-1,881,1695,7.21599,-34.2831
-336,-671,7.48438,34.6631,0.0173003,-0.0519244,-0.0763491,0.0665163,-0.10114,-0.572583,0.0974823,0.0445516,888,1695,7.4844,-34.663
-329,-671,7.40845,34.9694,0.0134162,-0.0478389,-0.0629262,0.0527726,-0.0871953,-0.558914,0.081621,0.0443764,895,1695,7.40843,-34.9694
-322,-671,7.50861,34.8223,0.00987338,-0.0426424,-0.0508678,0.0408606,-0.0736297,-0.547137,0.0669975,0.0499968,902,1695,7.50861,-34.8223
-315,-671,7.79181,34.8252,0.00669215,-0.0368874,-0.0406113,0.03099,-0.0611852,-0.539171,0.0541608,0.0495045,909,1695,7.79179,-34.8252
-308,-671,6.95172,33.8921,0,0,0,0,0,0,0,-1,916,1695,6.95173,-33.8921
-301,-671,6.93726,34.4365,0.001401,-0.0254985,-0.0252988,0.0166031,-0.0407005,-0.541081,0.0340454,0.0441922,923,1695,6.93728,-34.4365
-294,-671,6.86566,34.9432,-0.000178467,-0.0202987,-0.0197109,0.0118912,-0.0323683,-0.549439,0.0264492,0.046512,930,1695,6.86564,-34.9432
-287,-671,6.78479,35.4633,-0.00120609,-0.0159582,-0.0154449,0.00853366,-0.0256979,-0.562626,0.0205751,0.0438752,937,1695,6.78477,-35.4633
-280,-671,6.67828,35.9006,-0.00202913,-0.0127377,-0.011509,0.00531011,-0.0200769,-0.567677,0.0154616,0.0358362,944,1695,6.67827,-35.9006
-273,-671,6.65344,36.3187,-0.00250015,-0.00910536,-0.00867508,0.00347972,-0.0150852,-0.603519,0.0113952,0.0312738,951,1695,6.65342,-36.3187
-266,-671,6.71979,36.8013,-0.00261837,-0.00611461,-0.00655907,0.00242154,-0.0111545,-0.655166,0.00836124,0.0245262,958,1695,6.71976,-36.8013
-259,-671,6.63165,37.2225,-0.00251265,-0.0038275,-0.00463668,0.00151298,-0.00785313,-0.714974,0.00580584,0.0227537,965,1695,6.63166,-37.2226
-252,-671,6.61914,37.7178,-0.00217494,-0.00248715,-0.00356436,0.00123673,-0.00589882,-0.763514,0.00440307,0.0181086,972,1695,6.61914,-37.7178
-245,-671,6.58765,38.2384,-0.00186473,-0.00148692,-0.00254725,0.000878413,-0.00423007,-0.822411,0.00315389,0.0202518,979,1695,6.58764,-38.2384
-238,-671,6.59149,38.7291,-0.0014505,-0.000446558,-0.00157766,0.000707063,-0.00260413,-0.939422,0.00201359,0.0205795,986,1695,6.59152,-38.7291
-231,-671,6.57269,39.1885,-0.000734059,0.000365664,-0.000459013,0.000532071,-0.000900466,-1.223,0.000836142,0.0163122,993,1695,6.57268,-39.1885
-224,-671,6.53174,39.6385,-0.000216582,0.000682617,0.000481403,0.00089172,-0.000425685,1.16102,0.000776306,0.012265,1000,1695,6.53171,-39.6386
-217,-671,6.51202,40.0737,0.000188957,0.00133297,0.0010916,0.00199335,-0.00047143,1.02673,0.00151077,0.0107068,1007,1695,6.512,-40.0737
-210,-671,6.50983,40.5304,0.00102866,0.00185946,0.00175261,0.00324523,-0.000357103,0.901759,0.00229181,0.011234,1014,1695,6.5098,-40.5303
-203,-671,6.47607,40.951,0.00202282,0.00221545,0.00221666,0.00433789,-9.96166e-05,0.80711,0.00292569,0.0204368,1021,1695,6.47608,-40.951
-196,-671,6.47668,41.3726,0.00293957,0.0025228,0.00259042,0.00532997,0.0001324,0.745263,0.00351001,0.0170517,1028,1695,6.47669,-41.3726
-189,-671,6.48816,41.8442,0.00384031,0.00282894,0.00285167,0.00623079,0.000438465,0.697646,0.00401569,0.012402,1035,1695,6.4882,-41.8442
-182,-671,6.45288,42.2438,0.00484492,0.0031858,0.00316853,0.00729069,0.00074004,0.657365,0.00463352,0.0104477,1042,1695,6.4529,-42.2437
-175,-671,6.45471,42.6097,0.00586411,0.00360777,0.00349941,0.00841271,0.00105917,0.629464,0.00529087,0.0136734,1049,1695,6.45474,-42.6097
-168,-671,6.45679,42.9796,0.00677243,0.00426444,0.00378073,0.0095017,0.00153517,0.625267,0.00588981,0.015085,1056,1695,6.45682,-42.9796
-161,-671,6.44336,43.3726,0.00751691,0.00476363,0.00391169,0.0102871,0.00199341,0.616201,0.00629964,0.0104052,1063,1695,6.44338,-43.3725
-154,-671,6.47778,43.7433,0.00815856,0.00530116,0.0039196,0.0109017,0.002558,0.610631,0.00658295,0.00855745,1070,1695,6.4778,-43.7433
-147,-671,6.4873,44.1365,0.00871103,0.00584601,0.0038064,0.0113456,0.00321149,0.605425,0.00675275,0.00990256,1077,1695,6.48728,-44.1365
-140,-671,6.51611,44.4867,0.00910439,0.00621486,0.00373002,0.0116597,0.00365957,0.600628,0.00688544,0.0136141,1084,1695,6.5161,-44.4867
-133,-671,6.53833,44.8055,0.0094291,0.00665686,0.00371856,0.0120115,0.00407448,0.606996,0.00705334,0.0188929,1091,1695,6.53837,-44.8056
-126,-671,6.60327,45.2876,0.00985714,0.00667763,0.00382496,0.0124096,0.00412521,0.588446,0.00729757,0.0296941,1098,1695,6.60327,-45.2876
-119,-671,6.6532,46.1747,0,0,0,0,0,0,0,-1,1105,1695,6.65319,-46.1747
-112,-671,6.58704,44.6255,0,0,0,0,0,0,0,-1,1112,1695,6.58701,-44.6255
-105,-671,7.33252,41.3418,0,0,0,0,0,0,0,-1,1119,1695,7.33247,-41.3418
-98,-671,6.34534,45.6299,0,0,0,0,0,0,0,-1,1126,1695,6.34533,-45.6299
-91,-671,6.40063,38.2443,0,0,0,0,0,0,0,-1,1133,1695,6.40059,-38.2442
-84,-671,5.4209,26.2415,0,0,0,0,0,0,0,-1,1140,1695,5.42096,-26.2414
-77,-671,4.31763,16.489,0,0,0,0,0,0,0,-1,1147,1695,4.31757,-16.489
-70,-671,3.06067,10.7737,0,0,0,0,0,0,0,-1,1154,1695,3.0607,-10.7737
-63,-671,2.94592,6.90198,0,0,0,0,0,0,0,-1,1161,1695,2.94594,-6.90198
-56,-671,-3.07678,2.87976,0,0,0,0,0,0,0,-1,1168,1695,-3.07675,-2.87979
-49,-671,-1.05957,4.76917,0,0,0,0,0,0,0,-1,1175,1695,-1.05958,-4.76921
-42,-671,0.539307,3.7865,0,0,0,0,0,0,0,-1,1182,1695,0.539266,-3.78648
-35,-671,-0.272461,0.347534,0,0,0,0,0,0,0,-1,1189,1695,-0.272434,-0.347569
-28,-671,-10.4878,17.2009,0,0,0,0,0,0,0,-1,1196,1695,-10.4878,-17.2009
-21,-671,6.87292,49.489,0,0,0,0,0,0,0,-1,1203,1695,6.87293,-49.489
-14,-671,6.96399,49.6837,0.0339045,0.066993,0.00204937,0.0671194,0.0337781,1.50917,0.0387517,0.0417026,1210,1695,6.96403,-49.6837
-7,-671,7.4469,49.837,0.0352819,0.0727031,-0.00105986,0.072733,0.0352519,-1.5425,0.041999,0.0456894,1217,1695,7.44695,-49.837
0,-671,7.56873,51.8289,0.0411838,0.0779993,-0.00662332,0.0791546,0.0400285,-1.3981,0.0457009,0.046705,1224,1695,7.56875,-51.8289
7,-671,7.84253,51.6248,0.0484745,0.0822907,-0.0122438,0.0862584,0.0445069,-1.25742,0.0498098,0.0456512,1231,1695,7.84247,-51.6248
14,-671,8.09961,51.4849,0.0547829,0.0856172,-0.0186174,0.0943722,0.0460279,-1.13122,0.0544913,0.0458283,1238,1695,8.0996,-51.4848
21,-671,8.30859,51.9343,0.0626086,0.0875525,-0.0257025,0.103649,0.0465119,-1.01128,0.0599466,0.0457376,1245,1695,8.30864,-51.9343
28,-671,9.23694,52.6183,0,0,0,0,0,0,0,-1,1252,1695,9.23694,-52.6183
35,-671,7.51526,51.0648,0,0,0,0,0,0,0,-1,1259,1695,7.51528,-51.0648
42,-671,8.42517,51.4279,0,0,0,0,0,0,0,-1,1266,1695,8.42516,-51.4278
49,-671,8.5332,50.7983,0,0,0,0,0,0,0,-1,1273,1695,8.53323,-50.7984
56,-671,8.35376,50.6365,0,0,0,0,0,0,0,-1,1280,1695,8.35375,-50.6365
63,-671,8.4281,50.7192,0,0,0,0,0,0,0,-1,1287,1695,8.42809,-50.7192
70,-671,9.36328,48.3397,0,0,0,0,0,0,0,-1,1294,1695,9.36332,-48.3397
77,-671,9.74109,48.4794,0.0581663,0.0285758,0.0152252,0.0646009,0.0221412,0.399859,0.0379073,0.0460893,1301,1695,9.74108,-48.4794
84,-671,10.1772,48.8425,0.05282,0.0263912,0.0285314,0.0710486,0.00816268,0.568529,0.0448929,0.0457209,1308,1695,10.1772,-48.8425
91,-671,10.1099,49.4937,0.0492578,0.0288807,0.0413199,0.0816267,-0.00348821,0.664521,0.055617,0.0435022,1315,1695,10.1098,-49.4937
98,-671,10.0978,49.9294,0.0471882,0.0338867,0.0531909,0.0941425,-0.0130676,0.723203,0.0675403,0.042374,1322,1695,10.0978,-49.9294
105,-671,10.298,50.1321,0.0469455,0.0428206,0.0635226,0.108439,-0.018673,0.76917,0.0792537,0.0438911,1329,1695,10.298,-50.1321
112,-671,10.734,51.0929,0.0502645,0.0545409,0.0699675,0.122403,-0.0175975,0.800673,0.0880558,0.0428191,1336,1695,10.734,-51.0929
119,-671,11.0078,52.1157,0.0561801,0.0668163,0.0736496,0.13534,-0.0123431,0.821439,0.0946095,0.0459516,1343,1695,11.0078,-52.1157
126,-671,11.5905,53.202,0.0613826,0.0767342,0.0752555,0.144704,-0.00658751,0.836221,0.0987387,0.0492995,1350,1695,11.5905,-53.202
133,-671,12.2267,54.5349,0.0650046,0.0827805,0.074804,0.149223,-0.00143766,0.844529,0.0999645,0.0486776,1357,1695,12.2267,-54.5349
140,-671,13.1292,55.5737,0.0665145,0.0841127,0.0723409,0.148188,0.00243953,0.845918,0.0979887,0.046964,1364,1695,13.1291,-55.5738
147,-671,14.1036,56.5637,0,0,0,0,0,0,0,-1,1371,1695,14.1037,-56.5637
154,-671,15.2456,57.922,0,0,0,0,0,0,0,-1,1378,1695,15.2456,-57.922
161,-671,4.49292,4.91272,0,0,0,0,0,0,0,-1,1385,1695,4.49297,-4.91273
168,-671,5.17639,6.1416,0,0,0,0,0,0,0,-1,1392,1695,5.1764,-6.14164
175,-671,5.6731,1.64685,0,0,0,0,0,0,0,-1,1399,1695,5.67313,-1.64691
182,-671,5.56812,1.71692,0,0,0,0,0,0,0,-1,1406,1695,5.56809,-1.71686
189,-671,6.98315,6.36169,0,0,0,0,0,0,0,-1,1413,1695,6.98312,-6.36175
196,-671,5.38123,5.69775,0,0,0,0,0,0,0,-1,1420,1695,5.38125,-5.69769
203,-671,5.95117,8.11658,0,0,0,0,0,0,0,-1,1427,1695,5.9512,-8.11662
210,-671,4.73596,8.39624,0,0,0,0,0,0,0,-1,1434,1695,4.736,-8.39618
217,-671,5.37097,11.863,0,0,0,0,0,0,0,-1,1441,1695,5.37094,-11.863
224,-671,5.08167,13.6694,0,0,0,0,0,0,0,-1,1448,1695,5.08165,-13.6695
231,-671,5.66663,15.3348,0,0,0,0,0,0,0,-1,1455,1695,5.66667,-15.3349
238,-671,6.32959,16.2036,0,0,0,0,0,0,0,-1,1462,1695,6.32961,-16.2037
245,-671,11.2893,45.2676,0,0,0,0,0,0,0,-1,1469,1695,11.2893,-45.2676
252,-671,11.0569,45.1904,0,0,0,0,0,0,0,-1,1476,1695,11.0569,-45.1904
259,-671,10.9923,44.8149,0,0,0,0,0,0,0,-1,1483,1695,10.9924,-44.815
266,-671,11.1091,44.6836,0.00585934,0.00380502,-0.00154072,0.00668391,0.00298046,-0.491394,0.00386647,0.0346512,1490,1695,11.1091,-44.6836
273,-671,11.178,44.3917,0.00554068,0.00347699,-0.00139954,0.00624763,0.00277004,-0.467744,0.00361478,0.0105872,1497,1695,11.178,-44.3917
280,-671,11.1794,44.0413,0.00520976,0.00342289,-0.00139374,0.00597185,0.0026608,-0.500375,0.00345465,0.00991833,1504,1695,11.1795,-44.0413
287,-671,11.1875,43.6095,0.00485404,0.00329113,-0.00136258,0.00564335,0.00250182,-0.525041,0.00326516,0.0114502,1511,1695,11.1875,-43.6094
294,-671,11.1849,43.2402,0.00450109,0.00334387,-0.00140537,0.0054423,0.00240266,-0.590116,0.00314928,0.0116865,1518,1695,11.1849,-43.2402
301,-671,11.2063,42.9108,0.00403164,0.00351373,-0.0015075,0.00530226,0.00224311,-0.700339,0.00307332,0.0107398,1525,1695,11.2063,-42.9107
308,-671,11.2349,42.5471,0.00351648,0.00372778,-0.00161995,0.00524552,0.00199874,-0.817962,0.00305694,0.0117997,1532,1695,11.2349,-42.5471
315,-671,11.2617,42.1671,0.00297162,0.00389097,-0.0016578,0.00515164,0.00171095,-0.92064,0.00302967,0.0131386,1539,1695,11.2617,-42.1671
322,-671,11.2513,41.8022,0.00240276,0.00402463,-0.00164866,0.005051,0.00137639,-1.01396,0.00301514,0.0149122,1546,1695,11.2513,-41.8023
329,-671,11.203,41.4222,0.0018297,0.00399846,-0.0015862,0.00483551,0.000992646,-1.08523,0.00294902,0.0147269,1553,1695,11.203,-41.4222
336,-671,11.2119,40.9825,0.0012989,0.00375851,-0.00143666,0.00441984,0.000637566,-1.13939,0.00275871,0.0116894,1560,1695,11.2119,-40.9826
343,-671,11.2289,40.5383,0.000847492,0.00347819,-0.00126512,0.00398785,0.000337826,-1.18783,0.00255342,0.0115944,1567,1695,11.2289,-40.5384
350,-671,11.2139,40.1404,0.000446803,0.00335601,-0.00121788,0.00379854,4.27349e-06,-1.22227,0.00253094,0.0124326,1574,1695,11.2139,-40.1404
357,-671,11.1793,39.6694,9.37872e-05,0.00273451,-0.00120546,0.00320202,-0.000373721,-1.20083,0.00226953,0.0114047,1581,1695,11.1794,-39.6694
364,-671,11.1721,39.2251,-0.000194998,0.00232695,-0.00119268,0.00280165,-0.000669691,-1.19201,0.00212644,0.0136161,1588,1695,11.1721,-39.2251
371,-671,11.1473,38.8302,-0.00043276,0.00170365,-0.00113412,0.00219342,-0.000922535,-1.16314,0.0018482,0.0162493,1595,1695,11.1474,-38.8303
378,-671,11.126,38.3779,-0.000603429,0.000921834,-0.00114564,0.00153546,-0.00121706,-1.07906,0.00159271,0.013503,1602,1695,11.126,-38.3779
385,-671,11.0885,37.9028,-0.000664058,0.000445197,-0.00139099,0.00138805,-0.00160691,-0.975103,0.00173068,0.0154107,1609,1695,11.0885,-37.9029
392,-671,11.0691,37.4595,-0.000768471,-0.000305977,-0.00165706,0.0011359,-0.00221034,-0.854727,0.00196487,0.020038,1616,1695,11.069,-37.4595
399,-671,11.0588,37.0156,-0.00104997,-0.000834397,-0.00206362,0.00112425,-0.00300861,-0.81149,0.0024674,0.0150386,1623,1695,11.0588,-37.0157
406,-671,11.04,36.5188,-0.00150364,-0.000588766,-0.00262817,0.00162147,-0.00371388,-0.871561,0.00315834,0.0174998,1630,1695,11.04,-36.5188
413,-671,11.0123,36.0176,-0.00175114,-0.000420377,-0.00320685,0.00218939,-0.00436091,-0.887691,0.00385046,0.0252559,1637,1695,11.0123,-36.0175
420,-671,10.9686,35.6591,-0.00205874,0.000109601,-0.00397403,0.00314469,-0.00509384,-0.918565,0.00480069,0.0449996,1644,1695,10.9686,-35.659
427,-671,11.0521,35.3052,0,0,0,0,0,0,0,-1,1651,1695,11.0521,-35.3051
434,-671,11.0326,34.5658,0,0,0,0,0,0,0,-1,1658,1695,11.0325,-34.5658
441,-671,11.9645,34.5192,0,0,0,0,0,0,0,-1,1665,1695,11.9645,-34.5192
448,-671,7.44873,20.2306,0,0,0,0,0,0,0,-1,1672,1695,7.44872,-20.2306
455,-671,6.62805,19.8612,0,0,0,0,0,0,0,-1,1679,1695,6.62811,-19.8612
462,-671,5.86255,4.47961,0,0,0,0,0,0,0,-1,1686,1695,5.8625,-4.4796
469,-671,3.71301,3.76978,0,0,0,0,0,0,0,-1,1693,1695,3.71297,-3.76974
476,-671,3.75574,3.18848,0,0,0,0,0,0,0,-1,1700,1695,3.7558,-3.18847
483,-671,7.81824,12.1041,0,0,0,0,0,0,0,-1,1707,1695,7.81826,-12.1041
490,-671,0,0,0,0,0,0,0,0,0,-1,1714,1695,0,0
497,-671,0,0,0,0,0,0,0,0,0,-1,1721,1695,0,0
504,-671,0,0,0,0,0,0,0,0,0,-1,1728,1695,0,0
511,-671,0,0,0,0,0,0,0,0,0,-1,1735,1695,0,0
518,-671,0,0,0,0,0,0,0,0,0,-1,1742,1695,0,0
525,-671,0,0,0,0,0,0,0,0,0,-1,1749,1695,0,0
532,-671,0,0,0,0,0,0,0,0,0,-1,1756,1695,0,0
539,-671,0,0,0,0,0,0,0,0,0,-1,1763,1695,0,0
546,-671,0,0,0,0,0,0,0,0,0,-1,1770,1695,0,0
553,-671,0,0,0,0,0,0,0,0,0,-1,1777,1695,0,0
560,-671,0,0,0,0,0,0,0,0,0,-1,1784,1695,0,0
567,-671,0,0,0,0,0,0,0,0,0,-1,1791,1695,0,0
574,-671,0,0,0,0,0,0,0,0,0,-1,1798,1695,0,0
581,-671,0,0,0,0,0,0,0,0,0,-1,1805,1695,0,0
588,-671,0,0,0,0,0,0,0,0,0,-1,1812,1695,0,0
595,-671,0,0,0,0,0,0,0,0,0,-1,1819,1695,0,0
602,-671,0,0,0,0,0,0,0,0,0,-1,1826,1695,0,0
609,-671,0,0,0,0,0,0,0,0,0,-1,1833,1695,0,0
616,-671,0,0,0,0,0,0,0,0,0,-1,1840,1695,0,0
623,-671,0,0,0,0,0,0,0,0,0,-1,1847,1695,0,0
630,-671,0,0,0,0,0,0,0,0,0,-1,1854,1695,0,0
637,-671,0,0,0,0,0,0,0,0,0,-1,1861,1695,0,0
644,-671,0,0,0,0,0,0,0,0,0,-1,1868,1695,0,0
651,-671,0,0,0,0,0,0,0,0,0,-1,1875,1695,0,0
658,-671,0,0,0,0,0,0,0,0,0,-1,1882,1695,0,0
665,-671,0,0,0,0,0,0,0,0,0,-1,1889,1695,0,0
672,-671,0,0,0,0,0,0,0,0,0,-1,1896,1695,0,0
679,-671,0,0,0,0,0,0,0,0,0,-1,1903,1695,0,0
686,-671,0,0,0,0,0,0,0,0,0,-1,1910,1695,0,0
693,-671,0,0,0,0,0,0,0,0,0,-1,1917,1695,0,0
700,-671,0,0,0,0,0,0,0,0,0,-1,1924,1695,0,0
707,-671,0,0,0,0,0,0,0,0,0,-1,1931,1695,0,0
714,-671,0,0,0,0,0,0,0,0,0,-1,1938,1695,0,0
721,-671,0,0,0,0,0,0,0,0,0,-1,1945,1695,0,0
728,-671,0,0,0,0,0,0,0,0,0,-1,1952,1695,0,0
735,-671,0,0,0,0,0,0,0,0,0,-1,1959,1695,0,0
742,-671,0,0,0,0,0,0,0,0,0,-1,1966,1695,0,0
749,-671,0,0,0,0,0,0,0,0,0,-1,1973,1695,0,0
756,-671,0,0,0,0,0,0,0,0,0,-1,1980,1695,0,0
763,-671,0,0,0,0,0,0,0,0,0,-1,1987,1695,0,0
770,-671,0,0,0,0,0,0,0,0,0,-1,1994,1695,0,0
777,-671,0,0,0,0,0,0,0,0,0,-1,2001,1695,0,0
784,-671,0,0,0,0,0,0,0,0,0,-1,2008,1695,0,0
791,-671,0,0,0,0,0,0,0,0,0,-1,2015,1695,0,0
798,-671,0,0,0,0,0,0,0,0,0,-1,2022,1695,0,0
805,-671,0,0,0,0,0,0,0,0,0,-1,2029,1695,0,0
812,-671,0,0,0,0,0,0,0,0,0,-1,2036,1695,0,0
-700,-678,0,0,0,0,0,0,0,0,0,-1,524,1702,0,0
-693,-678,0,0,0,0,0,0,0,0,0,-1,531,1702,0,0
-686,-678,0,0,0,0,0,0,0,0,0,-1,538,1702,0,0
-679,-678,0,0,0,0,0,0,0,0,0,-1,545,1702,0,0
-672,-678,0,0,0,0,0,0,0,0,0,-1,552,1702,0,0
-665,-678,0,0,0,0,0,0,0,0,0,-1,559,1702,0,0
-658,-678,0,0,0,0,0,0,0,0,0,-1,566,1702,0,0
-651,-678,0,0,0,0,0,0,0,0,0,-1,573,1702,0,0
-644,-678,0,0,0,0,0,0,0,0,0,-1,580,1702,0,0
-637,-678,0,0,0,0,0,0,0,0,0,-1,587,1702,0,0
-630,-678,0,0,0,0,0,0,0,0,0,-1,594,1702,0,0
-623,-678,0,0,0,0,0,0,0,0,0,-1,601,1702,0,0
-616,-678,0,0,0,0,0,0,0,0,0,-1,608,1702,0,0
-609,-678,0,0,0,0,0,0,0,0,0,-1,615,1702,0,0
-602,-678,0,0,0,0,0,0,0,0,0,-1,622,1702,0,0
-595,-678,0,0,0,0,0,0,0,0,0,-1,629,1702,0,0
-588,-678,0,0,0,0,0,0,0,0,0,-1,636,1702,0,0
-581,-678,0,0,0,0,0,0,0,0,0,-1,643,1702,0,0
-574,-678,0,0,0,0,0,0,0,0,0,-1,650,1702,0,0
-567,-678,0,0,0,0,0,0,0,0,0,-1,657,1702,0,0
-560,-678,0,0,0,0,0,0,0,0,0,-1,664,1702,0,0
-553,-678,0,0,0,0,0,0,0,0,0,-1,671,1702,0,0
-546,-678,0,0,0,0,0,0,0,0,0,-1,678,1702,0,0
-539,-678,0,0,0,0,0,0,0,0,0,-1,685,1702,0,0
-532,-678,0,0,0,0,0,0,0,0,0,-1,692,1702,0,0
-525,-678,0,0,0,0,0,0,0,0,0,-1,699,1702,0,0
-518,-678,0,0,0,0,0,0,0,0,0,-1,706,1702,0,0
-511,-678,0,0,0,0,0,0,0,0,0,-1,713,1702,0,0
-504,-678,0,0,0,0,0,0,0,0,0,-1,720,1702,0,0
-497,-678,0,0,0,0,0,0,0,0,0,-1,727,1702,0,0
-490,-678,0,0,0,0,0,0,0,0,0,-1,734,1702,0,0
-483,-678,0,0,0,0,0,0,0,0,0,-1,741,1702,0,0
-476,-678,0,0,0,0,0,0,0,0,0,-1,748,1702,0,0
-469,-678,0,0,0,0,0,0,0,0,0,-1,755,1702,0,0
-462,-678,0,0,0,0,0,0,0,0,0,-1,762,1702,0,0
-455,-678,0,0,0,0,0,0,0,0,0,-1,769,1702,0,0
-448,-678,0,0,0,0,0,0,0,0,0,-1,776,1702,0,0
-441,-678,0,0,0,0,0,0,0,0,0,-1,783,1702,0,0
-434,-678,0,0,0,0,0,0,0,0,0,-1,790,1702,0,0
-427,-678,0,0,0,0,0,0,0,0,0,-1,797,1702,0,0
-420,-678,0,0,0,0,0,0,0,0,0,-1,804,1702,0,0
-413,-678,0,0,0,0,0,0,0,0,0,-1,811,1702,0,0
-406,-678,0,0,0,0,0,0,0,0,0,-1,818,1702,0,0
-399,-678,0,0,0,0,0,0,0,0,0,-1,825,1702,0,0
-392,-678,0,0,0,0,0,0,0,0,0,-1,832,1702,0,0
-385,-678,0,0,0,0,0,0,0,0,0,-1,839,1702,0,0
-378,-678,0,0,0,0,0,0,0,0,0,-1,846,1702,0,0
-371,-678,0,0,0,0,0,0,0,0,0,-1,853,1702,0,0
-364,-678,0,0,0,0,0,0,0,0,0,-1,860,1702,0,0
-357,-678,0,0,0,0,0,0,0,0,0,-1,867,1702,0,0
-350,-678,-5.79944,6.11865,0,0,0,0,0,0,0,-1,874,1702,-5.79942,-6.11864
-343,-678,8.79578,34.4388,0,0,0,0,0,0,0,-1,881,1702,8.79579,-34.4388
-336,-678,9.06317,34.813,0,0,0,0,0,0,0,-1,888,1702,9.06318,-34.8129
-329,-678,8.68359,35.6151,0,0,0,0,0,0,0,-1,895,1702,8.68362,-35.6152
-322,-678,8.50494,35.5048,0,0,0,0,0,0,0,-1,902,1702,8.50495,-35.5047
-315,-678,8.74017,35.6564,0,0,0,0,0,0,0,-1,909,1702,8.74018,-35.6563
-308,-678,7.52808,33.8403,0,0,0,0,0,0,0,-1,916,1702,7.52811,-33.8404
-301,-678,7.49603,34.4764,0.0010486,-0.0284346,-0.0324042,0.0219068,-0.0492929,-0.571926,0.0421086,0.0453995,923,1702,7.49604,-34.4764
-294,-678,7.44232,35.1818,-0.000763695,-0.0223425,-0.0255737,0.0162034,-0.0393096,-0.58578,0.0329629,0.0497508,930,1702,7.4423,-35.1817
-287,-678,7.30804,35.8306,-0.00191143,-0.0172976,-0.0203225,0.0121254,-0.0313344,-0.604459,0.0258956,0.0473225,937,1702,7.30805,-35.8306
-280,-678,6.96655,36.2909,-0.00281532,-0.0137221,-0.0154795,0.0081433,-0.0246807,-0.616038,0.0197364,0.0453092,944,1702,6.96658,-36.2909
-273,-678,7.12244,36.5902,-0.00331775,-0.00967854,-0.0119115,0.00583063,-0.0188269,-0.65494,0.0148806,0.0419587,951,1702,7.12244,-36.5902
-266,-678,7.25006,36.99,-0.0034532,-0.00639382,-0.00912223,0.00431645,-0.0141635,-0.705496,0.0111629,0.037591,958,1702,7.25008,-36.99
-259,-678,7.10126,37.3708,-0.00335427,-0.00395317,-0.00660715,0.00296022,-0.0102677,-0.762753,0.00801615,0.0247971,965,1702,7.10125,-37.3708
-252,-678,7.07965,37.7837,-0.00297713,-0.00256631,-0.0050751,0.00230753,-0.00785097,-0.805624,0.00614921,0.0181935,972,1702,7.07967,-37.7837
-245,-678,7.03424,38.2655,-0.00268397,-0.00155455,-0.00361088,0.00153551,-0.00577403,-0.862965,0.00445038,0.0190281,979,1702,7.03423,-38.2655
-238,-678,7.00824,38.7418,-0.0023048,-0.000438193,-0.00224796,0.00106251,-0.0038055,-0.982159,0.00295553,0.0163483,986,1702,7.00824,-38.7418
-231,-678,6.97791,39.181,-0.0015384,0.00032237,-0.000670991,0.000539087,-0.00175512,-1.25839,0.0013852,0.0131601,993,1702,6.97789,-39.181
-224,-678,6.94287,39.6129,-0.000938448,0.000227968,0.000579152,0.000466678,-0.00117716,1.17984,0.000978171,0.0127153,1000,1702,6.94284,-39.613
-217,-678,6.94263,40.0712,-0.000651677,0.000476482,0.00129076,0.00132103,-0.00149623,0.9914,0.00162759,0.0136924,1007,1702,6.94262,-40.0712
-210,-678,6.92059,40.5739,4.52221e-05,0.000662911,0.00200629,0.00238399,-0.00167586,0.861768,0.00235581,0.0146491,1014,1702,6.9206,-40.5738
-203,-678,6.90161,40.9802,0.000974362,0.000737627,0.00248493,0.00334374,-0.00163175,0.761599,0.00292874,0.0192964,1021,1702,6.90164,-40.9802
-196,-678,6.88416,41.384,0.00177776,0.000702807,0.00278682,0.00407846,-0.0015979,0.690136,0.00337995,0.018629,1028,1702,6.88421,-41.384
-189,-678,6.88831,41.8351,0.00250324,0.000711561,0.00290911,0.00465133,-0.00143652,0.636034,0.00367455,0.0111302,1035,1702,6.88829,-41.835
-182,-678,6.88269,42.2612,0.00329258,0.000862638,0.0030673,0.00537677,-0.00122156,0.596827,0.00405353,0.0106439,1042,1702,6.88264,-42.2612
-175,-678,6.85071,42.6508,0.00408257,0.00116999,0.00322017,0.00616044,-0.000907877,0.573041,0.00444063,0.0118735,1049,1702,6.85076,-42.6507
-168,-678,6.83191,43.0322,0.00471403,0.00177045,0.00328903,0.00684555,-0.000361073,0.575018,0.00468869,0.0113613,1056,1702,6.83194,-43.0322
-161,-678,6.83069,43.3956,0.00515652,0.00235828,0.00319795,0.00724802,0.000266786,0.57919,0.00474558,0.00925404,1063,1702,6.83067,-43.3957
-154,-678,6.85327,43.7629,0.00552164,0.00308948,0.00300129,0.00754386,0.00106726,0.592914,0.00471393,0.00836706,1070,1702,6.85323,-43.763
-147,-678,6.84277,44.1433,0.00583256,0.00386396,0.00271858,0.00773955,0.00195697,0.611707,0.00464683,0.0103392,1077,1702,6.84275,-44.1433
-140,-678,6.87073,44.5112,0.00602709,0.00444816,0.00244577,0.00780766,0.00266759,0.629283,0.00458247,0.0116714,1084,1702,6.87069,-44.5112
-133,-678,6.90857,44.8406,0.00620064,0.00500535,0.00224061,0.00792194,0.00328405,0.655066,0.00459594,0.012578,1091,1702,6.90853,-44.8405
-126,-678,6.92078,45.2219,0.00651765,0.00513502,0.00212813,0.00806394,0.00358874,0.628352,0.00466508,0.0139324,1098,1702,6.92075,-45.2219
-119,-678,6.99426,45.8583,0.00722805,0.00461665,0.00178053,0.00813032,0.00371438,0.469027,0.00469986,0.0397825,1105,1702,6.9943,-45.8582
-112,-678,7.01062,45.7511,0,0,0,0,0,0,0,-1,1112,1702,7.01061,-45.7511
-105,-678,6.98035,46.1447,0,0,0,0,0,0,0,-1,1119,1702,6.98029,-46.1446
-98,-678,7.02246,46.5491,0,0,0,0,0,0,0,-1,1126,1702,7.02247,-46.5491
-91,-678,7.14929,46.6805,0,0,0,0,0,0,0,-1,1133,1702,7.14929,-46.6805
-84,-678,6.58545,36.5073,0,0,0,0,0,0,0,-1,1140,1702,6.58544,-36.5073
-77,-678,5.95154,29.1879,0,0,0,0,0,0,0,-1,1147,1702,5.95156,-29.1878
-70,-678,4.75891,19.6552,0,0,0,0,0,0,0,-1,1154,1702,4.75895,-19.6551
-63,-678,3.41687,11.0365,0,0,0,0,0,0,0,-1,1161,1702,3.41682,-11.0365
-56,-678,1.72388,6.13159,0,0,0,0,0,0,0,-1,1168,1702,1.72388,-6.13157
-49,-678,-0.241699,5.29895,0,0,0,0,0,0,0,-1,1175,1702,-0.241682,-5.29897
-42,-678,0.297119,3.90649,0,0,0,0,0,0,0,-1,1182,1702,0.297139,-3.90655
-35,-678,0.498413,3.64038,0,0,0,0,0,0,0,-1,1189,1702,0.498471,-3.64038
-28,-678,0.132446,3.55994,0,0,0,0,0,0,0,-1,1196,1702,0.132432,-3.55993
-21,-678,7.5415,49.0775,0,0,0,0,0,0,0,-1,1203,1702,7.54152,-49.0776
-14,-678,7.53467,49.2874,0.0280571,0.0549489,0.00176186,0.0550638,0.0279422,1.50565,0.0317923,0.0400843,1210,1702,7.53462,-49.2874
-7,-678,7.76453,49.4296,0.0291644,0.0598443,-0.000358922,0.0598485,0.0291602,-1.5591,0.0345573,0.0448956,1217,1702,7.76455,-49.4296
0,-678,7.92004,50.9352,0,0,0,0,0,0,0,-1,1224,1702,7.92007,-50.9352
7,-678,8.10376,50.854,0.0373448,0.0682525,-0.00788208,0.0701466,0.0354508,-1.33497,0.0404999,0.0446745,1231,1702,8.10378,-50.854
14,-678,8.29028,50.755,0.0412864,0.0710566,-0.012381,0.0755327,0.0368104,-1.22389,0.0436135,0.0445696,1238,1702,8.2903,-50.755
21,-678,8.32532,50.9965,0.046338,0.0728297,-0.0174369,0.0814813,0.0376865,-1.11022,0.0470873,0.0436626,1245,1702,8.32536,-50.9965
28,-678,8.92334,51.3933,0.0506155,0.0695946,-0.0200783,0.082313,0.0378972,-1.00615,0.0475731,0.0465039,1252,1702,8.9234,-51.3933
35,-678,8.16943,50.386,0,0,0,0,0,0,0,-1,1259,1702,8.16948,-50.386
42,-678,8.83997,50.4208,0,0,0,0,0,0,0,-1,1266,1702,8.84002,-50.4208
49,-678,8.85095,50.4479,0,0,0,0,0,0,0,-1,1273,1702,8.85096,-50.4479
56,-678,8.68152,50.3612,0.0502497,0.0384372,-0.00928778,0.0553501,0.0333368,-0.502193,0.0321785,0.0452647,1280,1702,8.68157,-50.3612
63,-678,8.64453,50.3218,0.0478297,0.031894,-0.00144272,0.0479592,0.0317645,-0.0895637,0.0281715,0.047401,1287,1702,8.64449,-50.3218
70,-678,9.28589,48.1605,0,0,0,0,0,0,0,-1,1294,1702,9.28589,-48.1605
77,-678,9.59094,48.7484,0.0443582,0.0233494,0.0159038,0.0529135,0.0147941,0.493539,0.0315235,0.0454742,1301,1702,9.59095,-48.7485
84,-678,9.70886,49.1555,0.0414155,0.0219552,0.0262907,0.0597188,0.00365187,0.608165,0.0386528,0.0463217,1308,1702,9.70888,-49.1556
91,-678,9.80823,49.6232,0.0398288,0.0247647,0.0363031,0.069373,-0.00477953,0.683111,0.0479213,0.0466358,1315,1702,9.80824,-49.6231
98,-678,9.30298,49.6495,0,0,0,0,0,0,0,-1,1322,1702,9.30302,-49.6495
105,-678,9.70349,49.8628,0.0399574,0.0370167,0.0535462,0.0920535,-0.0150793,0.771672,0.0669638,0.0409907,1329,1702,9.70345,-49.8628
112,-678,10.3107,50.3796,0.043126,0.0465369,0.0587073,0.103563,-0.0139006,0.799919,0.0741117,0.0414304,1336,1702,10.3107,-50.3797
119,-678,10.3419,51.0132,0.0479897,0.0564119,0.0619349,0.114279,-0.00987711,0.819342,0.0796825,0.0422623,1343,1702,10.3419,-51.0132
126,-678,10.6029,52.1971,0.0524126,0.0645968,0.0634776,0.122274,-0.00526457,0.833238,0.0833262,0.0443785,1350,1702,10.6028,-52.1972
133,-678,11.0363,53.6066,0.0556686,0.0701463,0.0635775,0.126896,-0.0010808,0.842083,0.0849597,0.0491624,1357,1702,11.0362,-53.6066
140,-678,12.903,53.9412,0.0574861,0.0723754,0.0622868,0.127661,0.00220061,0.844877,0.0843833,0.0476107,1364,1702,12.9029,-53.9412
147,-678,13.923,54.9769,0,0,0,0,0,0,0,-1,1371,1702,13.9229,-54.9769
154,-678,11.7048,52.324,0,0,0,0,0,0,0,-1,1378,1702,11.7048,-52.3239
161,-678,8.81226,34.8624,0,0,0,0,0,0,0,-1,1385,1702,8.81229,-34.8624
168,-678,4.21863,5.25781,0,0,0,0,0,0,0,-1,1392,1702,4.21865,-5.25781
175,-678,5.21899,5.9635,0,0,0,0,0,0,0,-1,1399,1702,5.21894,-5.96346
182,-678,7.31262,6.75122,0,0,0,0,0,0,0,-1,1406,1702,7.3126,-6.75123
189,-678,5.96021,6.36853,0,0,0,0,0,0,0,-1,1413,1702,5.96018,-6.36851
196,-678,5.01599,8.15771,0,0,0,0,0,0,0,-1,1420,1702,5.01596,-8.15767
203,-678,4.64771,13.0559,0,0,0,0,0,0,0,-1,1427,1702,4.64766,-13.0559
210,-678,5.6532,18.5957,0,0,0,0,0,0,0,-1,1434,1702,5.65318,-18.5958
217,-678,6.88049,23.4835,0,0,0,0,0,0,0,-1,1441,1702,6.88047,-23.4835
224,-678,8.521,32.0977,0,0,0,0,0,0,0,-1,1448,1702,8.52098,-32.0977
231,-678,9.96838,42.3734,0,0,0,0,0,0,0,-1,1455,1702,9.96844,-42.3734
238,-678,10.7012,46.3396,0,0,0,0,0,0,0,-1,1462,1702,10.7012,-46.3396
245,-678,10.7463,45.8324,0.00520784,0.00204404,-0.000126254,0.00521287,0.00203901,-0.0398214,0.00303333,0.0366974,1469,1702,10.7464,-45.8324
252,-678,10.7806,45.3853,0.00509517,0.00231154,-0.000552163,0.00520069,0.00220601,-0.188838,0.00301411,0.0271735,1476,1702,10.7806,-45.3853
259,-678,10.8058,45.0837,0.00479596,0.00264161,-0.000900864,0.00512302,0.00231456,-0.348249,0.00296235,0.0176454,1483,1702,10.8058,-45.0838
266,-678,10.8191,44.7374,0.00443853,0.00275244,-0.00111638,0.00499442,0.00219655,-0.461999,0.00289049,0.0122535,1490,1702,10.8192,-44.7374
273,-678,10.837,44.4091,0.00410081,0.0025383,-0.00112236,0.00468705,0.00195206,-0.481352,0.00271863,0.0112546,1497,1702,10.8371,-44.4091
280,-678,10.8304,44.0703,0.00377062,0.00246656,-0.00120414,0.00448793,0.00174925,-0.537255,0.00261201,0.0110772,1504,1702,10.8305,-44.0703
287,-678,10.8412,43.6772,0.0034432,0.00238688,-0.00126549,0.00428632,0.00154376,-0.587709,0.00250676,0.0113258,1511,1702,10.8411,-43.6773
294,-678,10.8386,43.2944,0.00314972,0.00240152,-0.0013816,0.00420697,0.00134426,-0.653181,0.00248107,0.0125583,1518,1702,10.8386,-43.2945
301,-678,10.8281,42.9323,0.00279794,0.0024041,-0.00148593,0.00409994,0.00110209,-0.71952,0.00245,0.0121634,1525,1702,10.8281,-42.9323
308,-678,10.8378,42.5623,0.00239896,0.00254678,-0.00161978,0.00409434,0.000851402,-0.808196,0.00249467,0.0131964,1532,1702,10.8378,-42.5623
315,-678,10.8416,42.1952,0.00194345,0.00262074,-0.00162776,0.0039447,0.00061948,-0.887957,0.00244956,0.0135645,1539,1702,10.8415,-42.1952
322,-678,10.8064,41.8375,0.00148349,0.00273099,-0.00160398,0.00382823,0.000386256,-0.970839,0.00243364,0.0164146,1546,1702,10.8064,-41.8375
329,-678,10.787,41.3986,0.00100686,0.00273928,-0.00151435,0.00361765,0.00012848,-1.04519,0.0023701,0.0153824,1553,1702,10.787,-41.3985
336,-678,10.7771,40.9667,0.00056632,0.00257955,-0.00136523,0.00326915,-0.000123277,-1.10307,0.00222167,0.0129952,1560,1702,10.7771,-40.9666
343,-678,10.7793,40.5574,0.000183031,0.00238171,-0.0011912,0.00290332,-0.000338587,-1.15806,0.00205772,0.013371,1567,1702,10.7793,-40.5574
350,-678,10.7769,40.1373,-0.000179844,0.00251932,-0.00116004,0.00294936,-0.000609889,-1.21579,0.00219793,0.0136543,1574,1702,10.7769,-40.1373
357,-678,10.7609,39.7059,-0.000497349,0.00206501,-0.00117221,0.00252034,-0.000952687,-1.20029,0.00207213,0.0102879,1581,1702,10.7609,-39.7059
364,-678,10.7402,39.2716,-0.000765562,0.00197429,-0.00120451,0.00242852,-0.00121979,-1.21018,0.00214454,0.0122004,1588,1702,10.7403,-39.2716
371,-678,10.7019,38.8434,-0.00100216,0.0016291,-0.0011795,0.00208042,-0.00145347,-1.20535,0.00205097,0.0137618,1595,1702,10.7019,-38.8433
378,-678,10.6685,38.3778,-0.00118781,0.00102435,-0.00119999,0.00155026,-0.00171372,-1.15775,0.00188525,0.0140376,1602,1702,10.6684,-38.3778
385,-678,10.6576,37.9202,-0.00120992,0.000829791,-0.00156015,0.00167385,-0.00205398,-1.07488,0.00215599,0.0139614,1609,1702,10.6576,-37.9202
392,-678,10.6976,37.5328,-0.00125096,0.000272373,-0.00195344,0.00160739,-0.00258597,-0.971287,0.00244291,0.0239491,1616,1702,10.6976,-37.5328
399,-678,10.7422,37.1394,-0.00146217,-3.22802e-06,-0.00251985,0.00189062,-0.00335602,-0.926291,0.00306828,0.0344017,1623,1702,10.7422,-37.1394
406,-678,10.5759,36.5355,-0.00190312,0.00016885,-0.0031862,0.00248326,-0.00421753,-0.942581,0.00391165,0.0370101,1630,1702,10.576,-36.5355
413,-678,10.5332,35.9691,-0.00214966,0.000264949,-0.00379987,0.00304469,-0.00492941,-0.939216,0.00464652,0.0413813,1637,1702,10.5333,-35.9692
420,-678,10.4417,35.7489,0,0,0,0,0,0,0,-1,1644,1702,10.4416,-35.7489
427,-678,4.57483,10.1555,0,0,0,0,0,0,0,-1,1651,1702,4.57485,-10.1555
434,-678,9.48169,21.6665,0,0,0,0,0,0,0,-1,1658,1702,9.48169,-21.6665
441,-678,8.64539,21.1864,0,0,0,0,0,0,0,-1,1665,1702,8.64536,-21.1865
448,-678,7.62244,20.7195,0,0,0,0,0,0,0,-1,1672,1702,7.6224,-20.7195
455,-678,5.44678,5.54297,0,0,0,0,0,0,0,-1,1679,1702,5.44676,-5.54294
462,-678,3.86792,2.87402,0,0,0,0,0,0,0,-1,1686,1702,3.86796,-2.87406
469,-678,2.26587,1.98755,0,0,0,0,0,0,0,-1,1693,1702,2.26592,-1.98755
476,-678,0,0,0,0,0,0,0,0,0,-1,1700,1702,0,0
483,-678,0,0,0,0,0,0,0,0,0,-1,1707,1702,0,0
490,-678,0,0,0,0,0,0,0,0,0,-1,1714,1702,0,0
497,-678,0,0,0,0,0,0,0,0,0,-1,1721,1702,0,0
504,-678,0,0,0,0,0,0,0,0,0,-1,1728,1702,0,0
511,-678,0,0,0,0,0,0,0,0,0,-1,1735,1702,0,0
518,-678,0,0,0,0,0,0,0,0,0,-1,1742,1702,0,0
525,-678,0,0,0,0,0,0,0,0,0,-1,1749,1702,0,0
532,-678,0,0,0,0,0,0,0,0,0,-1,1756,1702,0,0
539,-678,0,0,0,0,0,0,0,0,0,-1,1763,1702,0,0
546,-678,0,0,0,0,0,0,0,0,0,-1,1770,1702,0,0
553,-678,0,0,0,0,0,0,0,0,0,-1,1777,1702,0,0
560,-678,0,0,0,0,0,0,0,0,0,-1,1784,1702,0,0
567,-678,0,0,0,0,0,0,0,0,0,-1,1791,1702,0,0
574,-678,0,0,0,0,0,0,0,0,0,-1,1798,1702,0,0
581,-678,0,0,0,0,0,0,0,0,0,-1,1805,1702,0,0
588,-678,0,0,0,0,0,0,0,0,0,-1,1812,1702,0,0
595,-678,0,0,0,0,0,0,0,0,0,-1,1819,1702,0,0
602,-678,0,0,0,0,0,0,0,0,0,-1,1826,1702,0,0
609,-678,0,0,0,0,0,0,0,0,0,-1,1833,1702,0,0
616,-678,0,0,0,0,0,0,0,0,0,-1,1840,1702,0,0
623,-678,0,0,0,0,0,0,0,0,0,-1,1847,1702,0,0
630,-678,0,0,0,0,0,0,0,0,0,-1,1854,1702,0,0
637,-678,0,0,0,0,0,0,0,0,0,-1,1861,1702,0,0
644,-678,0,0,0,0,0,0,0,0,0,-1,1868,1702,0,0
651,-678,0,0,0,0,0,0,0,0,0,-1,1875,1702,0,0
658,-678,0,0,0,0,0,0,0,0,0,-1,1882,1702,0,0
665,-678,0,0,0,0,0,0,0,0,0,-1,1889,1702,0,0
672,-678,0,0,0,0,0,0,0,0,0,-1,1896,1702,0,0
679,-678,0,0,0,0,0,0,0,0,0,-1,1903,1702,0,0
686,-678,0,0,0,0,0,0,0,0,0,-1,1910,1702,0,0
693,-678,0,0,0,0,0,0,0,0,0,-1,1917,1702,0,0
700,-678,0,0,0,0,0,0,0,0,0,-1,1924,1702,0,0
707,-678,0,0,0,0,0,0,0,0,0,-1,1931,1702,0,0
714,-678,0,0,0,0,0,0,0,0,0,-1,1938,1702,0,0
721,-678,0,0,0,0,0,0,0,0,0,-1,1945,1702,0,0
728,-678,0,0,0,0,0,0,0,0,0,-1,1952,1702,0,0
735,-678,0,0,0,0,0,0,0,0,0,-1,1959,1702,0,0
742,-678,0,0,0,0,0,0,0,0,0,-1,1966,1702,0,0
749,-678,0,0,0,0,0,0,0,0,0,-1,1973,1702,0,0
756,-678,0,0,0,0,0,0,0,0,0,-1,1980,1702,0,0
763,-678,0,0,0,0,0,0,0,0,0,-1,1987,1702,0,0
770,-678,0,0,0,0,0,0,0,0,0,-1,1994,1702,0,0
777,-678,0,0,0,0,0,0,0,0,0,-1,2001,1702,0,0
784,-678,0,0,0,0,0,0,0,0,0,-1,2008,1702,0,0
791,-678,0,0,0,0,0,0,0,0,0,-1,2015,1702,0,0
798,-678,0,0,0,0,0,0,0,0,0,-1,2022,1702,0,0
805,-678,0,0,0,0,0,0,0,0,0,-1,2029,1702,0,0
812,-678,0,0,0,0,0,0,0,0,0,-1,2036,1702,0,0
-700,-685,0,0,0,0,0,0,0,0,0,-1,524,1709,0,0
-693,-685,0,0,0,0,0,0,0,0,0,-1,531,1709,0,0
-686,-685,0,0,0,0,0,0,0,0,0,-1,538,1709,0,0
-679,-685,0,0,0,0,0,0,0,0,0,-1,545,1709,0,0
-672,-685,0,0,0,0,0,0,0,0,0,-1,552,1709,0,0
-665,-685,0,0,0,0,0,0,0,0,0,-1,559,1709,0,0
-658,-685,0,0,0,0,0,0,0,0,0,-1,566,1709,0,0
-651,-685,0,0,0,0,0,0,0,0,0,-1,573,1709,0,0
-644,-685,0,0,0,0,0,0,0,0,0,-1,580,1709,0,0
-637,-685,0,0,0,0,0,0,0,0,0,-1,587,1709,0,0
-630,-685,0,0,0,0,0,0,0,0,0,-1,594,1709,0,0
-623,-685,0,0,0,0,0,0,0,0,0,-1,601,1709,0,0
-616,-685,0,0,0,0,0,0,0,0,0,-1,608,1709,0,0
-609,-685,0,0,0,0,0,0,0,0,0,-1,615,1709,0,0
-602,-685,0,0,0,0,0,0,0,0,0,-1,622,1709,0,0
-595,-685,0,0,0,0,0,0,0,0,0,-1,629,1709,0,0
-588,-685,0,0,0,0,0,0,0,0,0,-1,636,1709,0,0
-581,-685,0,0,0,0,0,0,0,0,0,-1,643,1709,0,0
-574,-685,0,0,0,0,0,0,0,0,0,-1,650,1709,0,0
-567,-685,0,0,0,0,0,0,0,0,0,-1,657,1709,0,0
-560,-685,0,0,0,0,0,0,0,0,0,-1,664,1709,0,0
-553,-685,0,0,0,0,0,0,0,0,0,-1,671,1709,0,0
-546,-685,0,0,0,0,0,0,0,0,0,-1,678,1709,0,0
-539,-685,0,0,0,0,0,0,0,0,0,-1,685,1709,0,0
-532,-685,0,0,0,0,0,0,0,0,0,-1,692,1709,0,0
-525,-685,0,0,0,0,0,0,0,0,0,-1,699,1709,0,0
-518,-685,0,0,0,0,0,0,0,0,0,-1,706,1709,0,0
-511,-685,0,0,0,0,0,0,0,0,0,-1,713,1709,0,0
-504,-685,0,0,0,0,0,0,0,0,0,-1,720,1709,0,0
-497,-685,0,0,0,0,0,0,0,0,0,-1,727,1709,0,0
-490,-685,0,0,0,0,0,0,0,0,0,-1,734,1709,0,0
-483,-685,0,0,0,0,0,0,0,0,0,-1,741,1709,0,0
-476,-685,0,0,0,0,0,0,0,0,0,-1,748,1709,0,0
-469,-685,0,0,0,0,0,0,0,0,0,-1,755,1709,0,0
-462,-685,0,0,0,0,0,0,0,0,0,-1,762,1709,0,0
-455,-685,0,0,0,0,0,0,0,0,0,-1,769,1709,0,0
-448,-685,0,0,0,0,0,0,0,0,0,-1,776,1709,0,0
-441,-685,0,0,0,0,0,0,0,0,0,-1,783,1709,0,0
-434,-685,0,0,0,0,0,0,0,0,0,-1,790,1709,0,0
-427,-685,0,0,0,0,0,0,0,0,0,-1,797,1709,0,0
-420,-685,0,0,0,0,0,0,0,0,0,-1,804,1709,0,0
-413,-685,0,0,0,0,0,0,0,0,0,-1,811,1709,0,0
-406,-685,0,0,0,0,0,0,0,0,0,-1,818,1709,0,0
-399,-685,0,0,0,0,0,0,0,0,0,-1,825,1709,0,0
-392,-685,0,0,0,0,0,0,0,0,0,-1,832,1709,0,0
-385,-685,0,0,0,0,0,0,0,0,0,-1,839,1709,0,0
-378,-685,0,0,0,0,0,0,0,0,0,-1,846,1709,0,0
-371,-685,0,0,0,0,0,0,0,0,0,-1,853,1709,0,0
-364,-685,0,0,0,0,0,0,0,0,0,-1,860,1709,0,0
-357,-685,0,0,0,0,0,0,0,0,0,-1,867,1709,0,0
-350,-685,0,0,0,0,0,0,0,0,0,-1,874,1709,0,0
-343,-685,-5.98505,6.56335,0,0,0,0,0,0,0,-1,881,1709,-5.98505,-6.56329
-336,-685,-6.51312,5.10571,0,0,0,0,0,0,0,-1,888,1709,-6.51311,-5.10575
-329,-685,9.98907,36.2474,0,0,0,0,0,0,0,-1,895,1709,9.98909,-36.2475
-322,-685,3.83191,16.7219,0,0,0,0,0,0,0,-1,902,1709,3.8319,-16.7219
-315,-685,5.15784,21.4388,0,0,0,0,0,0,0,-1,909,1709,5.15783,-21.4389
-308,-685,6.36969,21.0303,0,0,0,0,0,0,0,-1,916,1709,6.36968,-21.0302
-301,-685,8.19476,34.6066,0,0,0,0,0,0,0,-1,923,1709,8.19479,-34.6066
-294,-685,8.07019,35.3505,0,0,0,0,0,0,0,-1,930,1709,8.07018,-35.3505
-287,-685,7.98975,35.8679,-0.00287156,-0.0174539,-0.0263698,0.0171964,-0.0375219,-0.650519,0.03231,0.0492989,937,1709,7.98977,-35.8679
-280,-685,7.74377,36.1248,-0.00378288,-0.0137358,-0.0205579,0.0123923,-0.029911,-0.666648,0.0251122,0.0469943,944,1709,7.74377,-36.1247
-273,-685,7.86395,36.6332,-0.00423908,-0.00945471,-0.0161252,0.00948784,-0.0231816,-0.705231,0.0194062,0.0462522,951,1709,7.86397,-36.6332
-266,-685,8.15833,37.2079,-0.00435988,-0.00603288,-0.0124894,0.00732098,-0.0177137,-0.75196,0.0148632,0.047282,958,1709,8.15832,-37.2079
-259,-685,7.83899,37.5399,-0.00424104,-0.00354571,-0.0091833,0.0052965,-0.0130833,-0.804319,0.0109244,0.0468152,965,1709,7.839,-37.54
-252,-685,7.63,37.7699,-0.00379968,-0.00216786,-0.00699308,0.00405675,-0.0100243,-0.843473,0.00836951,0.0383389,972,1709,7.63003,-37.7699
-245,-685,7.51697,38.283,-0.00351536,-0.00118805,-0.00487609,0.00266131,-0.00736472,-0.90253,0.00599709,0.0341017,979,1709,7.51699,-38.283
-238,-685,7.48645,38.7809,-0.00315812,-1.29476e-05,-0.00295745,0.00176403,-0.0049351,-1.02975,0.00400958,0.0274344,986,1709,7.48648,-38.7808
-231,-685,7.43347,39.2307,-0.00225191,0.000619392,-0.000746941,0.000802078,-0.0024346,-1.33093,0.00194632,0.0172466,993,1709,7.43345,-39.2307
-224,-685,7.37372,39.6365,-0.00137724,-0.000242608,0.000890621,0.000246038,-0.00186588,1.06898,0.00133352,0.0148302,1000,1709,7.37371,-39.6365
-217,-685,7.36993,40.1061,-0.000950499,-0.000618364,0.00172134,0.0009449,-0.00251376,0.833487,0.0020642,0.0122615,1007,1709,7.36996,-40.1061
-210,-685,7.3468,40.6008,-0.000248311,-0.00086271,0.00255288,0.00201579,-0.00312681,0.725519,0.00299208,0.0165702,1014,1709,7.3468,-40.6009
-203,-685,7.33081,41.0171,0.000688738,-0.00118051,0.0030565,0.00295031,-0.00344209,0.637021,0.00369429,0.0159843,1021,1709,7.33082,-41.0171
-196,-685,7.30786,41.4115,0.00142146,-0.0016515,0.00329554,0.00352109,-0.00375113,0.567263,0.00419932,0.0141872,1028,1709,7.30785,-41.4115
-189,-685,7.29248,41.8325,0.0019511,-0.00199744,0.00327175,0.0037981,-0.00384444,0.513929,0.00441245,0.00987843,1035,1709,7.29253,-41.8325
-182,-685,7.271,42.2367,0.00245704,-0.00206034,0.00326955,0.00417222,-0.00377552,0.483127,0.00459053,0.0142083,1042,1709,7.27103,-42.2367
-175,-685,7.24976,42.6436,0.00293175,-0.00183481,0.00325624,0.00458371,-0.00348677,0.469486,0.00467382,0.014677,1049,1709,7.24975,-42.6435
-168,-685,7.22546,43.0599,0.00319953,-0.00122603,0.0031443,0.00483162,-0.00285812,0.478782,0.00448815,0.0112537,1056,1709,7.22542,-43.06
-161,-685,7.23401,43.4374,0.00325928,-0.000500918,0.00287316,0.00481281,-0.00205445,0.495679,0.00407003,0.0115008,1063,1709,7.23396,-43.4373
-154,-685,7.24744,43.8177,0.00327689,0.000473264,0.00253131,0.00476862,-0.00101847,0.532524,0.00356736,0.0104282,1070,1709,7.24749,-43.8178
-147,-685,7.22559,44.1775,0.00331533,0.00151603,0.00214943,0.00474579,8.55753e-05,0.587199,0.00313573,0.00954939,1077,1709,7.22556,-44.1775
-140,-685,7.22839,44.5076,0.00334274,0.00236177,0.00176552,0.00468465,0.00101987,0.649908,0.00284475,0.0125651,1084,1709,7.2284,-44.5076
-133,-685,7.26538,44.8481,0.00343883,0.00310485,0.00146268,0.00474402,0.00179966,0.72856,0.00276541,0.0119877,1091,1709,7.26544,-44.8482
-126,-685,7.27783,45.2092,0.00372847,0.00345445,0.00123287,0.00483192,0.002351,0.730059,0.00279005,0.00944736,1098,1709,7.27784,-45.2092
-119,-685,7.30383,45.5374,0.0044275,0.00308727,0.000894175,0.00487479,0.00263998,0.463833,0.0028177,0.0128813,1105,1709,7.30377,-45.5374
-112,-685,7.3031,45.8235,0.00512355,0.0021953,0.000503797,0.0052078,0.00211105,0.165702,0.00302463,0.0135514,1112,1709,7.30308,-45.8235
-105,-685,7.29285,46.1263,0.00538031,0.00161546,0.000225357,0.00539375,0.00160202,0.0595746,0.00319848,0.0152456,1119,1709,7.29285,-46.1263
-98,-685,7.37219,46.4149,0.0057841,0.00143015,3.18444e-05,0.00578434,0.00142992,0.00731338,0.00347896,0.0213559,1126,1709,7.37216,-46.4149
-91,-685,7.42444,46.589,0.00640005,0.00100713,-0.000285552,0.00641513,0.000992056,-0.0527527,0.00398742,0.0395736,1133,1709,7.4244,-46.589
-84,-685,7.40894,46.916,0,0,0,0,0,0,0,-1,1140,1709,7.40889,-46.9161
-77,-685,7.41516,47.3082,0,0,0,0,0,0,0,-1,1147,1709,7.41519,-47.3082
-70,-685,7.57495,47.6058,0,0,0,0,0,0,0,-1,1154,1709,7.57489,-47.6059
-63,-685,6.03015,29.7728,0,0,0,0,0,0,0,-1,1161,1709,6.0302,-29.7728
-56,-685,3.93909,15.8704,0,0,0,0,0,0,0,-1,1168,1709,3.93905,-15.8704
-49,-685,3.07471,9.86011,0,0,0,0,0,0,0,-1,1175,1709,3.07467,-9.86009
-42,-685,2.70618,7.54504,0,0,0,0,0,0,0,-1,1182,1709,2.7062,-7.54504
-35,-685,2.95264,7.91516,0,0,0,0,0,0,0,-1,1189,1709,2.95262,-7.91517
-28,-685,7.80615,48.8583,0,0,0,0,0,0,0,-1,1196,1709,7.8061,-48.8583
-21,-685,8.02271,48.7722,0,0,0,0,0,0,0,-1,1203,1709,8.02269,-48.7722
-14,-685,8.08374,48.9281,0.0224497,0.0432455,0.00145341,0.0433466,0.0223486,1.50136,0.0250302,0.0313199,1210,1709,8.08373,-48.9282
-7,-685,8.05591,49.1365,0.0233443,0.047388,8.90462e-05,0.0473883,0.023344,1.56709,0.0273607,0.0450937,1217,1709,8.05595,-49.1364
0,-685,8.09204,49.3645,0.0248156,0.0515064,-0.00204574,0.0516623,0.0246597,-1.49474,0.0298375,0.0471666,1224,1709,8.09202,-49.3645
7,-685,8.23914,49.4102,0.0266713,0.0547309,-0.00431277,0.0553788,0.0260234,-1.42168,0.0319922,0.0443906,1231,1709,8.23911,-49.4101
14,-685,8.474,50.0991,0.0284179,0.0570934,-0.0072388,0.0588171,0.0266942,-1.33703,0.0340062,0.0478723,1238,1709,8.47397,-50.0992
21,-685,8.63123,50.3872,0.0307152,0.0587065,-0.0105135,0.0622155,0.0272062,-1.24866,0.0360142,0.0443715,1245,1709,8.63118,-50.3872
28,-685,8.74683,50.4476,0.0327325,0.0561983,-0.0121006,0.0613202,0.0276106,-1.17039,0.0354616,0.0477844,1252,1709,8.74677,-50.4476
35,-685,8.66614,49.9403,0,0,0,0,0,0,0,-1,1259,1709,8.6661,-49.9403
42,-685,9.25488,49.4138,0,0,0,0,0,0,0,-1,1266,1709,9.25489,-49.4138
49,-685,8.68896,49.6956,0,0,0,0,0,0,0,-1,1273,1709,8.68893,-49.6956
56,-685,8.76038,49.9248,0.0323667,0.030891,-0.00390936,0.0356072,0.0276505,-0.692124,0.0215805,0.0470617,1280,1709,8.76041,-49.9248
63,-685,8.80151,49.9293,0.0313881,0.0250792,0.00216708,0.0320608,0.0244066,0.300972,0.0193343,0.0453766,1287,1709,8.80154,-49.9293
70,-685,9.28259,50.422,0,0,0,0,0,0,0,-1,1294,1709,9.28253,-50.4221
77,-685,9.48621,50.3068,0,0,0,0,0,0,0,-1,1301,1709,9.48623,-50.3068
84,-685,9.3291,49.6316,0,0,0,0,0,0,0,-1,1308,1709,9.32913,-49.6316
91,-685,9.47192,49.6533,0.030822,0.0207881,0.0315493,0.0577508,-0.00614069,0.706549,0.0407021,0.0459515,1315,1709,9.47194,-49.6534
98,-685,9.29492,49.5366,0.0315765,0.0249717,0.0385002,0.0669156,-0.0103675,0.742615,0.0484375,0.0402409,1322,1709,9.29496,-49.5366
105,-685,9.36975,49.4628,0,0,0,0,0,0,0,-1,1329,1709,9.36972,-49.4628
112,-685,9.3728,49.4917,0,0,0,0,0,0,0,-1,1336,1709,9.37282,-49.4917
119,-685,9.75586,49.324,0.0406892,0.0465864,0.0509302,0.0946532,-0.00737767,0.814313,0.0656996,0.0438963,1343,1709,9.7559,-49.3239
126,-685,9.89136,48.9274,0.0443179,0.0530691,0.0521779,0.101055,-0.00366748,0.82723,0.0686249,0.0480958,1350,1709,9.8914,-48.9273
133,-685,9.88757,48.968,0,0,0,0,0,0,0,-1,1357,1709,9.88755,-48.968
140,-685,9.77625,49.0215,0,0,0,0,0,0,0,-1,1364,1709,9.77627,-49.0215
147,-685,9.84387,48.8813,0,0,0,0,0,0,0,-1,1371,1709,9.8439,-48.8814
154,-685,9.79675,48.6967,0,0,0,0,0,0,0,-1,1378,1709,9.79672,-48.6967
161,-685,10.0736,48.7275,0,0,0,0,0,0,0,-1,1385,1709,10.0736,-48.7276
168,-685,4.37524,10.8778,0,0,0,0,0,0,0,-1,1392,1709,4.37525,-10.8778
175,-685,3.97522,8.94324,0,0,0,0,0,0,0,-1,1399,1709,3.97519,-8.94328
182,-685,3.98218,9.19739,0,0,0,0,0,0,0,-1,1406,1709,3.98221,-9.1974
189,-685,4.53479,15.2343,0,0,0,0,0,0,0,-1,1413,1709,4.53474,-15.2343
196,-685,10.1802,47.8585,0,0,0,0,0,0,0,-1,1420,1709,10.1802,-47.8585
203,-685,10.2372,47.4325,0,0,0,0,0,0,0,-1,1427,1709,10.2372,-47.4324
210,-685,10.446,47.0831,0,0,0,0,0,0,0,-1,1434,1709,10.446,-47.0831
217,-685,10.3533,46.7627,0,0,0,0,0,0,0,-1,1441,1709,10.3533,-46.7626
224,-685,10.2865,46.5789,0,0,0,0,0,0,0,-1,1448,1709,10.2865,-46.5789
231,-685,10.2612,46.5356,0,0,0,0,0,0,0,-1,1455,1709,10.2612,-46.5357
238,-685,10.4224,46.0125,0.00398139,0.00134658,0.000356508,0.00402877,0.0012992,0.132142,0.00237438,0.0250155,1462,1709,10.4223,-46.0124
245,-685,10.4113,45.6858,0.00376137,0.0014271,-3.09386e-06,0.00376138,0.0014271,-0.00132541,0.00219258,0.0189197,1469,1709,10.4113,-45.6858
252,-685,10.4453,45.4108,0.00357216,0.00166504,-0.00039575,0.00365103,0.00158618,-0.196694,0.00211395,0.0142712,1476,1709,10.4453,-45.4108
259,-685,10.4652,45.0925,0.00328013,0.00191185,-0.000722974,0.00359135,0.00160063,-0.406496,0.00207754,0.0104949,1483,1709,10.4652,-45.0925
266,-685,10.4695,44.7478,0.00296624,0.00196968,-0.000952709,0.00354311,0.00139281,-0.544453,0.00206114,0.0126502,1490,1709,10.4694,-44.7479
273,-685,10.4689,44.4063,0.00270125,0.00187204,-0.00107496,0.00343879,0.0011345,-0.601343,0.00202332,0.0147257,1497,1709,10.4689,-44.4062
280,-685,10.4641,44.0658,0.00243854,0.00180298,-0.00122344,0.00338479,0.000856729,-0.658335,0.00203207,0.0151724,1504,1709,10.4641,-44.0658
287,-685,10.4762,43.717,0.00218534,0.0017932,-0.00136609,0.00336936,0.000609183,-0.714121,0.00207323,0.0124135,1511,1709,10.4762,-43.717
294,-685,10.4644,43.3472,0.00197959,0.00178065,-0.00154784,0.00343115,0.000329088,-0.75331,0.00218601,0.01141,1518,1709,10.4644,-43.3471
301,-685,10.4584,42.9652,0.00175376,0.00179219,-0.00171341,0.00348649,5.94509e-05,-0.791005,0.00230477,0.0135605,1525,1709,10.4584,-42.9652
308,-685,10.4603,42.5859,0.00146675,0.00196461,-0.00192791,0.0036596,-0.000228236,-0.849603,0.00251926,0.0145472,1532,1709,10.4603,-42.586
315,-685,10.4574,42.2139,0.00108342,0.00209366,-0.00196669,0.00361907,-0.000441981,-0.9111,0.00257273,0.0129745,1539,1709,10.4574,-42.2139
322,-685,10.4301,41.8013,0.000722441,0.00232768,-0.00198589,0.00366701,-0.000616893,-0.977442,0.00267413,0.0208524,1546,1709,10.43,-41.8013
329,-685,10.4036,41.3982,0.000333266,0.00247575,-0.0019073,0.00359205,-0.000783041,-1.04127,0.00269392,0.0201651,1553,1709,10.4035,-41.3982
336,-685,10.3958,40.9733,-3.05247e-05,0.00248687,-0.00178082,0.00340892,-0.000952572,-1.09304,0.00264788,0.0136987,1560,1709,10.3957,-40.9732
343,-685,10.3699,40.5682,-0.000361326,0.00242846,-0.00160072,0.00315678,-0.00108965,-1.1438,0.00254667,0.0126824,1567,1709,10.3699,-40.5683
350,-685,10.3623,40.1329,-0.000705949,0.00285313,-0.00154343,0.00342921,-0.00128203,-1.21357,0.00281262,0.0136159,1574,1709,10.3623,-40.1329
357,-685,10.3436,39.7246,-0.00100874,0.00253975,-0.00150845,0.00309431,-0.00156331,-1.21849,0.00273708,0.0107127,1581,1709,10.3436,-39.7246
364,-685,10.3096,39.3197,-0.00127956,0.00273942,-0.00149981,0.00323742,-0.00177755,-1.25021,0.002936,0.0120834,1588,1709,10.3096,-39.3196
371,-685,10.2797,38.8636,-0.00155251,0.00259412,-0.0013893,0.00301656,-0.00197495,-1.27561,0.00290269,0.0204609,1595,1709,10.2797,-38.8636
378,-685,10.2677,38.391,-0.00181275,0.0020058,-0.0012574,0.00238266,-0.0021896,-1.27961,0.00264058,0.0227566,1602,1709,10.2677,-38.3911
385,-685,10.2655,37.998,-0.00182076,0.00198567,-0.00163365,0.00259065,-0.00242574,-1.21613,0.00289674,0.033422,1609,1709,10.2655,-37.998
392,-685,10.3396,37.5493,-0.0018125,0.00150488,-0.00207108,0.00249961,-0.00280723,-1.12304,0.00306562,0.0372216,1616,1709,10.3396,-37.5493
399,-685,10.4917,37.0562,-0.001994,0.00132389,-0.0026978,0.002832,-0.00350211,-1.06106,0.00366381,0.0407678,1623,1709,10.4917,-37.0561
406,-685,10.6182,36.6858,-0.0024814,0.00124363,-0.0034721,0.00332122,-0.00455899,-1.03158,0.00456831,0.0456485,1630,1709,10.6181,-36.6858
413,-685,10.7247,36.2902,0,0,0,0,0,0,0,-1,1637,1709,10.7247,-36.2902
420,-685,4.84631,10.3781,0,0,0,0,0,0,0,-1,1644,1709,4.84634,-10.378
427,-685,6.05151,9.21155,0,0,0,0,0,0,0,-1,1651,1709,6.05156,-9.21156
434,-685,4.87769,8.91418,0,0,0,0,0,0,0,-1,1658,1709,4.87768,-8.91413
441,-685,5.62,8.75549,0,0,0,0,0,0,0,-1,1665,1709,5.61996,-8.75545
448,-685,6.4043,8.58972,0,0,0,0,0,0,0,-1,1672,1709,6.40435,-8.58971
455,-685,2.31958,4.09802,0,0,0,0,0,0,0,-1,1679,1709,2.31957,-4.09803
462,-685,0,0,0,0,0,0,0,0,0,-1,1686,1709,0,0
469,-685,0,0,0,0,0,0,0,0,0,-1,1693,1709,0,0
476,-685,0,0,0,0,0,0,0,0,0,-1,1700,1709,0,0
483,-685,0,0,0,0,0,0,0,0,0,-1,1707,1709,0,0
490,-685,0,0,0,0,0,0,0,0,0,-1,1714,1709,0,0
497,-685,0,0,0,0,0,0,0,0,0,-1,1721,1709,0,0
504,-685,0,0,0,0,0,0,0,0,0,-1,1728,1709,0,0
511,-685,0,0,0,0,0,0,0,0,0,-1,1735,1709,0,0
518,-685,0,0,0,0,0,0,0,0,0,-1,1742,1709,0,0
525,-685,0,0,0,0,0,0,0,0,0,-1,1749,1709,0,0
532,-685,0,0,0,0,0,0,0,0,0,-1,1756,1709,0,0
539,-685,0,0,0,0,0,0,0,0,0,-1,1763,1709,0,0
546,-685,0,0,0,0,0,0,0,0,0,-1,1770,1709,0,0
553,-685,0,0,0,0,0,0,0,0,0,-1,1777,1709,0,0
560,-685,0,0,0,0,0,0,0,0,0,-1,1784,1709,0,0
567,-685,0,0,0,0,0,0,0,0,0,-1,1791,1709,0,0
574,-685,0,0,0,0,0,0,0,0,0,-1,1798,1709,0,0
581,-685,0,0,0,0,0,0,0,0,0,-1,1805,1709,0,0
588,-685,0,0,0,0,0,0,0,0,0,-1,1812,1709,0,0
595,-685,0,0,0,0,0,0,0,0,0,-1,1819,1709,0,0
602,-685,0,0,0,0,0,0,0,0,0,-1,1826,1709,0,0
609,-685,0,0,0,0,0,0,0,0,0,-1,1833,1709,0,0
616,-685,0,0,0,0,0,0,0,0,0,-1,1840,1709,0,0
623,-685,0,0,0,0,0,0,0,0,0,-1,1847,1709,0,0
630,-685,0,0,0,0,0,0,0,0,0,-1,1854,1709,0,0
637,-685,0,0,0,0,0,0,0,0,0,-1,1861,1709,0,0
644,-685,0,0,0,0,0,0,0,0,0,-1,1868,1709,0,0
651,-685,0,0,0,0,0,0,0,0,0,-1,1875,1709,0,0
658,-685,0,0,0,0,0,0,0,0,0,-1,1882,1709,0,0
665,-685,0,0,0,0,0,0,0,0,0,-1,1889,1709,0,0
672,-685,0,0,0,0,0,0,0,0,0,-1,1896,1709,0,0
679,-685,0,0,0,0,0,0,0,0,0,-1,1903,1709,0,0
686,-685,0,0,0,0,0,0,0,0,0,-1,1910,1709,0,0
693,-685,0,0,0,0,0,0,0,0,0,-1,1917,1709,0,0
700,-685,0,0,0,0,0,0,0,0,0,-1,1924,1709,0,0
707,-685,0,0,0,0,0,0,0,0,0,-1,1931,1709,0,0
714,-685,0,0,0,0,0,0,0,0,0,-1,1938,1709,0,0
721,-685,0,0,0,0,0,0,0,0,0,-1,1945,1709,0,0
728,-685,0,0,0,0,0,0,0,0,0,-1,1952,1709,0,0
735,-685,0,0,0,0,0,0,0,0,0,-1,1959,1709,0,0
742,-685,0,0,0,0,0,0,0,0,0,-1,1966,1709,0,0
749,-685,0,0,0,0,0,0,0,0,0,-1,1973,1709,0,0
756,-685,0,0,0,0,0,0,0,0,0,-1,1980,1709,0,0
763,-685,0,0,0,0,0,0,0,0,0,-1,1987,1709,0,0
770,-685,0,0,0,0,0,0,0,0,0,-1,1994,1709,0,0
777,-685,0,0,0,0,0,0,0,0,0,-1,2001,1709,0,0
784,-685,0,0,0,0,0,0,0,0,0,-1,2008,1709,0,0
791,-685,0,0,0,0,0,0,0,0,0,-1,2015,1709,0,0
798,-685,0,0,0,0,0,0,0,0,0,-1,2022,1709,0,0
805,-685,0,0,0,0,0,0,0,0,0,-1,2029,1709,0,0
812,-685,0,0,0,0,0,0,0,0,0,-1,2036,1709,0,0
-700,-692,0,0,0,0,0,0,0,0,0,-1,524,1716,0,0
-693,-692,0,0,0,0,0,0,0,0,0,-1,531,1716,0,0
-686,-692,0,0,0,0,0,0,0,0,0,-1,538,1716,0,0
-679,-692,0,0,0,0,0,0,0,0,0,-1,545,1716,0,0
-672,-692,0,0,0,0,0,0,0,0,0,-1,552,1716,0,0
-665,-692,0,0,0,0,0,0,0,0,0,-1,559,1716,0,0
-658,-692,0,0,0,0,0,0,0,0,0,-1,566,1716,0,0
-651,-692,0,0,0,0,0,0,0,0,0,-1,573,1716,0,0
-644,-692,0,0,0,0,0,0,0,0,0,-1,580,1716,0,0
-637,-692,0,0,0,0,0,0,0,0,0,-1,587,1716,0,0
-630,-692,0,0,0,0,0,0,0,0,0,-1,594,1716,0,0
-623,-692,0,0,0,0,0,0,0,0,0,-1,601,1716,0,0
-616,-692,0,0,0,0,0,0,0,0,0,-1,608,1716,0,0
-609,-692,0,0,0,0,0,0,0,0,0,-1,615,1716,0,0
-602,-692,0,0,0,0,0,0,0,0,0,-1,622,1716,0,0
-595,-692,0,0,0,0,0,0,0,0,0,-1,629,1716,0,0
-588,-692,0,0,0,0,0,0,0,0,0,-1,636,1716,0,0
-581,-692,0,0,0,0,0,0,0,0,0,-1,643,1716,0,0
-574,-692,0,0,0,0,0,0,0,0,0,-1,650,1716,0,0
-567,-692,0,0,0,0,0,0,0,0,0,-1,657,1716,0,0
-560,-692,0,0,0,0,0,0,0,0,0,-1,664,1716,0,0
-553,-692,0,0,0,0,0,0,0,0,0,-1,671,1716,0,0
-546,-692,0,0,0,0,0,0,0,0,0,-1,678,1716,0,0
-539,-692,0,0,0,0,0,0,0,0,0,-1,685,1716,0,0
-532,-692,0,0,0,0,0,0,0,0,0,-1,692,1716,0,0
-525,-692,0,0,0,0,0,0,0,0,0,-1,699,1716,0,0
-518,-692,0,0,0,0,0,0,0,0,0,-1,706,1716,0,0
-511,-692,0,0,0,0,0,0,0,0,0,-1,713,1716,0,0
-504,-692,0,0,0,0,0,0,0,0,0,-1,720,1716,0,0
-497,-692,0,0,0,0,0,0,0,0,0,-1,727,1716,0,0
-490,-692,0,0,0,0,0,0,0,0,0,-1,734,1716,0,0
-483,-692,0,0,0,0,0,0,0,0,0,-1,741,1716,0,0
-476,-692,0,0,0,0,0,0,0,0,0,-1,748,1716,0,0
-469,-692,0,0,0,0,0,0,0,0,0,-1,755,1716,0,0
-462,-692,0,0,0,0,0,0,0,0,0,-1,762,1716,0,0
-455,-692,0,0,0,0,0,0,0,0,0,-1,769,1716,0,0
-448,-692,0,0,0,0,0,0,0,0,0,-1,776,1716,0,0
-441,-692,0,0,0,0,0,0,0,0,0,-1,783,1716,0,0
-434,-692,0,0,0,0,0,0,0,0,0,-1,790,1716,0,0
-427,-692,0,0,0,0,0,0,0,0,0,-1,797,1716,0,0
-420,-692,0,0,0,0,0,0,0,0,0,-1,804,1716,0,0
-413,-692,0,0,0,0,0,0,0,0,0,-1,811,1716,0,0
-406,-692,0,0,0,0,0,0,0,0,0,-1,818,1716,0,0
-399,-692,0,0,0,0,0,0,0,0,0,-1,825,1716,0,0
-392,-692,0,0,0,0,0,0,0,0,0,-1,832,1716,0,0
-385,-692,0,0,0,0,0,0,0,0,0,-1,839,1716,0,0
-378,-692,0,0,0,0,0,0,0,0,0,-1,846,1716,0,0
-371,-692,0,0,0,0,0,0,0,0,0,-1,853,1716,0,0
-364,-692,0,0,0,0,0,0,0,0,0,-1,860,1716,0,0
-357,-692,0,0,0,0,0,0,0,0,0,-1,867,1716,0,0
-350,-692,0,0,0,0,0,0,0,0,0,-1,874,1716,0,0
-343,-692,0,0,0,0,0,0,0,0,0,-1,881,1716,0,0
-336,-692,0,0,0,0,0,0,0,0,0,-1,888,1716,0,0
-329,-692,3.03107,4.10266,0,0,0,0,0,0,0,-1,895,1716,3.03105,-4.10267
-322,-692,4.43713,18.5242,0,0,0,0,0,0,0,-1,902,1716,4.43711,-18.5241
-315,-692,5.38965,17.975,0,0,0,0,0,0,0,-1,909,1716,5.38963,-17.975
-308,-692,5.86938,17.4392,0,0,0,0,0,0,0,-1,916,1716,5.86937,-17.4392
-301,-692,8.65558,20.7662,0,0,0,0,0,0,0,-1,923,1716,8.65556,-20.7663
-294,-692,8.41125,35.4742,0,0,0,0,0,0,0,-1,930,1716,8.41125,-35.4742
-287,-692,8.53516,35.9969,-0.00414231,-0.0150926,-0.033724,0.0245481,-0.043783,-0.704924,0.0399686,0.0489638,937,1716,8.53514,-35.9969
-280,-692,8.49841,35.8523,-0.004928,-0.0117677,-0.0269835,0.0188515,-0.0355472,-0.722365,0.0318963,0.0486131,944,1716,8.49843,-35.8523
-273,-692,8.80096,36.5579,0,0,0,0,0,0,0,-1,951,1716,8.80099,-36.5578
-266,-692,9.26611,37.326,0,0,0,0,0,0,0,-1,958,1716,9.26614,-37.3261
-259,-692,8.60187,37.7426,0,0,0,0,0,0,0,-1,965,1716,8.60184,-37.7426
-252,-692,8.18951,37.7339,0,0,0,0,0,0,0,-1,972,1716,8.1895,-37.7339
-245,-692,7.86359,38.1235,-0.00439341,-0.000163212,-0.00643472,0.00449511,-0.00905173,-0.944186,0.00796739,0.0469082,979,1716,7.8636,-38.1236
-238,-692,8.01263,38.7551,-0.00406386,0.000978549,-0.00374909,0.00297533,-0.00606064,-1.08141,0.00531732,0.044833,986,1716,8.01263,-38.7552
-231,-692,7.94006,39.3256,-0.00280905,0.00135097,-0.000669171,0.00145596,-0.00291404,-1.41517,0.00256941,0.0390624,993,1716,7.94006,-39.3256
-224,-692,7.80511,39.6998,-0.0014793,-0.000563895,0.00154857,0.000593202,-0.00263639,0.929089,0.0019851,0.0186809,1000,1716,7.80509,-39.6998
-217,-692,7.77832,40.1288,-0.000832859,-0.00165088,0.00260509,0.00139514,-0.00387888,0.707531,0.0031555,0.0121007,1007,1716,7.77833,-40.1288
-210,-692,7.76935,40.576,1.509e-07,-0.00240657,0.00367761,0.00266627,-0.00507269,0.627282,0.00453952,0.0128819,1014,1716,7.76937,-40.5761
-203,-692,7.75635,41.0048,0.00104389,-0.00317501,0.00424246,0.00367239,-0.00580352,0.554686,0.00551684,0.0152852,1021,1716,7.75632,-41.0048
-196,-692,7.71899,41.4388,0.00181801,-0.00412465,0.0044414,0.00419036,-0.00649699,0.490587,0.00621806,0.0182014,1028,1716,7.71893,-41.4389
-189,-692,7.67493,41.8268,0.0022749,-0.00482433,0.00428365,0.00428851,-0.00683794,0.439416,0.00647982,0.00936139,1035,1716,7.67491,-41.8268
-182,-692,7.64233,42.235,0.00264086,-0.00509358,0.00411937,0.00442383,-0.00687654,0.40848,0.0065753,0.0137137,1042,1716,7.64237,-42.235
-175,-692,7.61255,42.6659,0.00294321,-0.00495864,0.00392505,0.00456147,-0.0065769,0.391057,0.00646573,0.0152049,1049,1716,7.61253,-42.6659
-168,-692,7.62256,43.0565,0.00299511,-0.00436554,0.00361333,0.00447239,-0.00584282,0.388106,0.00597299,0.0116381,1056,1716,7.6226,-43.0566
-161,-692,7.63318,43.4373,0.00283026,-0.00353762,0.00315655,0.00412976,-0.00483712,0.390539,0.0051824,0.0137877,1063,1716,7.63319,-43.4373
-154,-692,7.62085,43.8505,0.00261491,-0.00236928,0.00265179,0.00376184,-0.00351621,0.408217,0.00420278,0.0147207,1070,1716,7.62084,-43.8504
-147,-692,7.59558,44.2037,0.00244026,-0.0010844,0.00215432,0.00346125,-0.0021054,0.442574,0.00324553,0.0135567,1077,1716,7.59556,-44.2038
-140,-692,7.57849,44.5304,0.00230056,3.51878e-05,0.0016518,0.00317073,-0.000834979,0.484857,0.00244023,0.0110777,1084,1716,7.57855,-44.5304
-133,-692,7.6001,44.8636,0.00225216,0.00102469,0.00126478,0.00304425,0.000232605,0.559507,0.00195658,0.0105257,1091,1716,7.60015,-44.8636
-126,-692,7.60864,45.2024,0.00240513,0.00172374,0.00095755,0.00308079,0.00104808,0.614482,0.00180872,0.00782336,1098,1716,7.60862,-45.2023
-119,-692,7.59436,45.5343,0.00284276,0.00185399,0.000710372,0.00321385,0.0014829,0.481395,0.00185736,0.0109414,1105,1716,7.59434,-45.5343
-112,-692,7.60522,45.8397,0.00339804,0.00157425,0.000478651,0.00351603,0.00145626,0.241683,0.00203992,0.0114027,1112,1716,7.60522,-45.8398
-105,-692,7.62524,46.1415,0.00379417,0.00126671,0.000357719,0.00384382,0.00121705,0.137925,0.00226844,0.0157114,1119,1716,7.62523,-46.1415
-98,-692,7.7063,46.4115,0.00417216,0.00107418,0.000159107,0.00418031,0.00106603,0.051179,0.00250821,0.0185289,1126,1716,7.70635,-46.4115
-91,-692,7.70154,46.6749,0.00467955,0.000768953,-0.000108374,0.00468255,0.000765952,-0.0276845,0.00290029,0.0214654,1133,1716,7.7015,-46.6749
-84,-692,7.70129,46.9438,0.0051476,0.000531111,-0.00038148,0.00517891,0.000499799,-0.081894,0.00329865,0.0243522,1140,1716,7.70127,-46.9439
-77,-692,7.71167,47.2729,0.00566313,0.000632425,-0.000930338,0.00582967,0.000465889,-0.17713,0.00374083,0.0197345,1147,1716,7.71166,-47.2729
-70,-692,7.79858,47.5247,0.00608677,0.000210569,-0.00145649,0.00642797,-0.000130631,-0.230112,0.00432951,0.0346769,1154,1716,7.79856,-47.5247
-63,-692,7.83838,47.7196,0,0,0,0,0,0,0,-1,1161,1716,7.83838,-47.7196
-56,-692,7.78064,47.9159,0,0,0,0,0,0,0,-1,1168,1716,7.78064,-47.9158
-49,-692,7.80676,48.2155,0,0,0,0,0,0,0,-1,1175,1716,7.80676,-48.2155
-42,-692,7.88306,48.5707,0,0,0,0,0,0,0,-1,1182,1716,7.88308,-48.5707
-35,-692,8.0072,48.7225,0,0,0,0,0,0,0,-1,1189,1716,8.00723,-48.7226
-28,-692,7.99097,48.8239,0.0162906,0.0253971,0.0011746,0.0255462,0.0161415,1.44456,0.0149191,0.0490525,1196,1716,7.99097,-48.8239
-21,-692,8.14148,48.8202,0.0167195,0.0289412,0.00140852,0.0291014,0.0165593,1.45753,0.016855,0.0345038,1203,1716,8.14144,-48.8202
-14,-692,8.1958,48.9546,0.0172981,0.0324469,0.00113037,0.0325307,0.0172142,1.49673,0.0187923,0.018033,1210,1716,8.1958,-48.9545
-7,-692,8.19336,49.1265,0.0179011,0.0359312,0.000495917,0.0359448,0.0178875,1.54332,0.0207528,0.0168313,1217,1716,8.19331,-49.1264
0,-692,8.25586,49.2782,0.0185862,0.0394298,-0.000556117,0.0394447,0.0185714,-1.54414,0.0227863,0.0195762,1224,1716,8.2559,-49.2782
7,-692,8.3175,49.4135,0.0190191,0.0421449,-0.00169574,0.0422686,0.0188954,-1.49799,0.0244494,0.0239976,1231,1716,8.31756,-49.4134
14,-692,8.45874,49.6217,0.0196175,0.0440629,-0.00340407,0.044528,0.0191524,-1.43499,0.0257918,0.0288275,1238,1716,8.45878,-49.6217
21,-692,8.60938,49.671,0.0203744,0.0453854,-0.00524039,0.046439,0.0193208,-1.37239,0.0269372,0.0300164,1245,1716,8.60936,-49.671
28,-692,8.63049,49.6925,0.0210828,0.0435505,-0.0059903,0.0450479,0.0195855,-1.32586,0.0260821,0.0306305,1252,1716,8.63046,-49.6925
35,-692,8.63293,49.8032,0.0215056,0.0397478,-0.00580104,0.0414362,0.0198172,-1.28756,0.0239308,0.0297977,1259,1716,8.63293,-49.8032
42,-692,8.71521,49.9724,0.0211259,0.0348883,-0.00433019,0.0361374,0.0198769,-1.28996,0.0208987,0.0291269,1266,1716,8.71527,-49.9724
49,-692,8.83521,49.9352,0.0204529,0.0294932,-0.00273194,0.0302547,0.0196914,-1.29898,0.0177306,0.03686,1273,1716,8.83521,-49.9352
56,-692,8.83789,49.8781,0.0202074,0.023838,9.10295e-05,0.0238403,0.0202051,1.54574,0.014831,0.0465179,1280,1716,8.83793,-49.878
63,-692,8.87451,49.8687,0.0199602,0.0185773,0.00444766,0.0237699,0.0147677,0.708281,0.0138575,0.0472595,1287,1716,8.87448,-49.8686
70,-692,9.07544,50.0485,0.0201473,0.0151477,0.00949785,0.0274689,0.00782623,0.656718,0.016341,0.0388456,1294,1716,9.0754,-50.0485
77,-692,9.21631,50.0098,0.0210196,0.0136765,0.0148511,0.0326463,0.00204983,0.664217,0.0211141,0.0444966,1301,1716,9.21633,-50.0097
84,-692,9.11963,49.7662,0,0,0,0,0,0,0,-1,1308,1716,9.11963,-49.7662
91,-692,9.23096,49.7158,0.0231953,0.0161076,0.0258763,0.0457693,-0.00646646,0.717345,0.032881,0.0466873,1315,1716,9.23097,-49.7158
98,-692,9.25879,49.6039,0.0246318,0.0196402,0.0307261,0.0529633,-0.00869127,0.744874,0.0385341,0.0348361,1322,1716,9.25879,-49.6039
105,-692,9.2865,49.5411,0.0268642,0.0245528,0.0347894,0.0605171,-0.00910005,0.768794,0.0436951,0.0428397,1329,1716,9.28652,-49.5411
112,-692,9.33386,49.52,0.0298148,0.0303322,0.0376569,0.0677313,-0.00758431,0.788832,0.0478829,0.0467571,1336,1716,9.33384,-49.5201
119,-692,9.40784,49.3785,0.03281,0.0361472,0.0398743,0.0743878,-0.00543059,0.806309,0.0514976,0.0389763,1343,1716,9.4079,-49.3785
126,-692,9.5603,49.1744,0.0355668,0.0410896,0.0408511,0.0792726,-0.0026162,0.819146,0.0537417,0.0383441,1350,1716,9.56036,-49.1745
133,-692,9.64429,49.0861,0.0377233,0.0450851,0.0411097,0.0826783,0.000130046,0.830048,0.0550756,0.029949,1357,1716,9.64433,-49.086
140,-692,9.5885,49.0944,0.0391187,0.0473417,0.0405105,0.0839488,0.00251159,0.835971,0.0551478,0.0350542,1364,1716,9.58845,-49.0943
147,-692,9.65186,48.9344,0.0394147,0.0476498,0.0388386,0.0825885,0.00447597,0.838209,0.0536293,0.0405393,1371,1716,9.65186,-48.9344
154,-692,9.64624,48.749,0.0386674,0.0464272,0.03638,0.0791335,0.00596098,0.838522,0.0508852,0.0348587,1378,1716,9.64624,-48.749
161,-692,9.81116,48.692,0.0364351,0.0434723,0.032816,0.0729578,0.00694967,0.838805,0.0464954,0.0421534,1385,1716,9.81113,-48.692
168,-692,9.82251,48.4932,0,0,0,0,0,0,0,-1,1392,1716,9.82257,-48.4932
175,-692,9.96887,48.287,0,0,0,0,0,0,0,-1,1399,1716,9.96889,-48.287
182,-692,9.91406,48.0438,0,0,0,0,0,0,0,-1,1406,1716,9.91408,-48.0438
189,-692,10.0322,47.9459,0,0,0,0,0,0,0,-1,1413,1716,10.0322,-47.946
196,-692,9.94641,47.6372,0.00564731,0.00130965,0.00225468,0.00660696,0.000350002,0.402402,0.00429273,0.0373961,1420,1716,9.94635,-47.6372
203,-692,9.98828,47.3833,0.00514954,0.000641974,0.00185391,0.00581407,-2.2552e-05,0.344178,0.00388359,0.0252189,1427,1716,9.98831,-47.3832
210,-692,10.0842,47.1306,0.00445198,0.00077175,0.00161915,0.00506292,0.000160811,0.360804,0.00332297,0.0199167,1434,1716,10.0843,-47.1306
217,-692,10.0828,46.8534,0.00366836,0.000561442,0.00116134,0.00405447,0.000175328,0.320976,0.00264647,0.0162845,1441,1716,10.0827,-46.8534
224,-692,10.0659,46.6151,0.00330589,0.000640307,0.000924033,0.00359487,0.000351319,0.30311,0.00228848,0.0126898,1448,1716,10.0659,-46.6151
231,-692,10.0647,46.3237,0.0030072,0.00102613,0.000493925,0.00312352,0.000909815,0.231281,0.001855,0.011858,1455,1716,10.0647,-46.3238
238,-692,10.0829,45.9794,0.0027575,0.00120616,8.53044e-05,0.00276218,0.00120148,0.0547673,0.00159923,0.0181682,1462,1716,10.0829,-45.9794
245,-692,10.079,45.6685,0.00250742,0.00128862,-0.000220426,0.00254606,0.00124998,-0.173533,0.00147005,0.0203397,1469,1716,10.079,-45.6684
252,-692,10.1157,45.391,0.00224917,0.00143141,-0.00053483,0.00251351,0.00116707,-0.459038,0.00145241,0.0178915,1476,1716,10.1157,-45.391
259,-692,10.1299,45.1023,0.00193916,0.00151653,-0.000784686,0.00254049,0.000915208,-0.653869,0.00148573,0.00974809,1483,1716,10.1299,-45.1024
266,-692,10.1233,44.7797,0.00164478,0.00146066,-0.000986231,0.00254324,0.000562201,-0.738858,0.00154263,0.0106938,1490,1716,10.1233,-44.7797
273,-692,10.1072,44.4214,0.00144607,0.00144295,-0.00120236,0.00264686,0.000242149,-0.784749,0.00168965,0.014982,1497,1716,10.1071,-44.4214
280,-692,10.1106,44.0529,0.00124596,0.00135667,-0.00140015,0.00270256,-9.99317e-05,-0.805156,0.00183592,0.0135179,1504,1716,10.1106,-44.0529
287,-692,10.1091,43.7196,0.00106527,0.00141998,-0.00162034,0.00287264,-0.000387386,-0.83991,0.00205642,0.011388,1511,1716,10.1091,-43.7196
294,-692,10.0999,43.3689,0.0009603,0.00143141,-0.00189127,0.00310174,-0.000710025,-0.847354,0.00234068,0.0117438,1518,1716,10.0999,-43.3689
301,-692,10.0953,43.0002,0.000878585,0.00156568,-0.00213698,0.00338655,-0.000942285,-0.865098,0.00262871,0.0140376,1525,1716,10.0953,-43.0003
308,-692,10.0575,42.6445,0.000713549,0.00184607,-0.00245125,0.00379561,-0.00123599,-0.898912,0.0030277,0.0176011,1532,1716,10.0575,-42.6445
315,-692,10.0636,42.2426,0.00040179,0.00210709,-0.00254001,0.00393374,-0.00142486,-0.947333,0.00320483,0.0167648,1539,1716,10.0636,-42.2426
322,-692,10.0114,41.7878,0.000145178,0.00253466,-0.00262389,0.004223,-0.00154317,-0.999038,0.00344686,0.0201933,1546,1716,10.0113,-41.7878
329,-692,10.0043,41.3904,-0.00014827,0.00288005,-0.00256691,0.00434611,-0.00161433,-1.05187,0.0035597,0.0183084,1553,1716,10.0042,-41.3904
336,-692,9.99341,40.9938,-0.00042676,0.00311355,-0.00247388,0.00438535,-0.00169857,-1.09594,0.00362493,0.0130629,1560,1716,9.99346,-40.9938
343,-692,9.96912,40.6057,-0.000732383,0.00320922,-0.00227412,0.00424768,-0.00177085,-1.14243,0.00357154,0.0143556,1567,1716,9.9691,-40.6057
350,-692,9.96021,40.1895,-0.00109282,0.00390886,-0.00214454,0.00470245,-0.00188641,-1.21637,0.00391818,0.0196734,1574,1716,9.96025,-40.1895
357,-692,9.89124,39.6451,-0.00141504,0.00367647,-0.00199421,0.00436456,-0.00210313,-1.23854,0.00380945,0.0281226,1581,1716,9.89121,-39.6451
364,-692,9.82861,39.1567,-0.00172893,0.00414099,-0.00187542,0.00468902,-0.00227696,-1.2865,0.00410139,0.0327763,1588,1716,9.82859,-39.1567
371,-692,9.81116,38.787,-0.00210162,0.00411813,-0.00157023,0.00449206,-0.00247556,-1.33701,0.00407853,0.0409055,1595,1716,9.81121,-38.787
378,-692,9.76501,38.3821,-0.00253386,0.00336665,-0.00111477,0.00357024,-0.00273744,-1.39016,0.00365231,0.0473987,1602,1716,9.76507,-38.3821
385,-692,9.86133,38.1036,0,0,0,0,0,0,0,-1,1609,1716,9.86134,-38.1036
392,-692,9.93738,37.5134,0,0,0,0,0,0,0,-1,1616,1716,9.93742,-37.5134
399,-692,10.6547,36.6489,-0.00268607,0.00273862,-0.00251251,0.00372351,-0.00367096,-1.19721,0.00426923,0.0452321,1623,1716,10.6546,-36.649
406,-692,10.4948,36.8971,-0.00326038,0.00242887,-0.00341049,0.00402534,-0.00485685,-1.13299,0.00513562,0.0465928,1630,1716,10.4947,-36.8971
413,-692,10.1685,37.1876,0,0,0,0,0,0,0,-1,1637,1716,10.1684,-37.1876
420,-692,5.48901,10.4845,0,0,0,0,0,0,0,-1,1644,1716,5.48906,-10.4845
427,-692,3.79578,8.60339,0,0,0,0,0,0,0,-1,1651,1716,3.79577,-8.6034
434,-692,4.78516,8.64636,0,0,0,0,0,0,0,-1,1658,1716,4.78512,-8.64634
441,-692,5.8208,8.74036,0,0,0,0,0,0,0,-1,1665,1716,5.82084,-8.7404
448,-692,6.73792,8.51013,0,0,0,0,0,0,0,-1,1672,1716,6.73793,-8.5101
455,-692,0,0,0,0,0,0,0,0,0,-1,1679,1716,0,0
462,-692,0,0,0,0,0,0,0,0,0,-1,1686,1716,0,0
469,-692,0,0,0,0,0,0,0,0,0,-1,1693,1716,0,0
476,-692,0,0,0,0,0,0,0,0,0,-1,1700,1716,0,0
483,-692,0,0,0,0,0,0,0,0,0,-1,1707,1716,0,0
490,-692,0,0,0,0,0,0,0,0,0,-1,1714,1716,0,0
497,-692,0,0,0,0,0,0,0,0,0,-1,1721,1716,0,0
504,-692,0,0,0,0,0,0,0,0,0,-1,1728,1716,0,0
511,-692,0,0,0,0,0,0,0,0,0,-1,1735,1716,0,0
518,-692,0,0,0,0,0,0,0,0,0,-1,1742,1716,0,0
525,-692,0,0,0,0,0,0,0,0,0,-1,1749,1716,0,0
532,-692,0,0,0,0,0,0,0,0,0,-1,1756,1716,0,0
539,-692,0,0,0,0,0,0,0,0,0,-1,1763,1716,0,0
546,-692,0,0,0,0,0,0,0,0,0,-1,1770,1716,0,0
553,-692,0,0,0,0,0,0,0,0,0,-1,1777,1716,0,0
560,-692,0,0,0,0,0,0,0,0,0,-1,1784,1716,0,0
567,-692,0,0,0,0,0,0,0,0,0,-1,1791,1716,0,0
574,-692,0,0,0,0,0,0,0,0,0,-1,1798,1716,0,0
581,-692,0,0,0,0,0,0,0,0,0,-1,1805,1716,0,0
588,-692,0,0,0,0,0,0,0,0,0,-1,1812,1716,0,0
595,-692,0,0,0,0,0,0,0,0,0,-1,1819,1716,0,0
602,-692,0,0,0,0,0,0,0,0,0,-1,1826,1716,0,0
609,-692,0,0,0,0,0,0,0,0,0,-1,1833,1716,0,0
616,-692,0,0,0,0,0,0,0,0,0,-1,1840,1716,0,0
623,-692,0,0,0,0,0,0,0,0,0,-1,1847,1716,0,0
630,-692,0,0,0,0,0,0,0,0,0,-1,1854,1716,0,0
637,-692,0,0,0,0,0,0,0,0,0,-1,1861,1716,0,0
644,-692,0,0,0,0,0,0,0,0,0,-1,1868,1716,0,0
651,-692,0,0,0,0,0,0,0,0,0,-1,1875,1716,0,0
658,-692,0,0,0,0,0,0,0,0,0,-1,1882,1716,0,0
665,-692,0,0,0,0,0,0,0,0,0,-1,1889,1716,0,0
672,-692,0,0,0,0,0,0,0,0,0,-1,1896,1716,0,0
679,-692,0,0,0,0,0,0,0,0,0,-1,1903,1716,0,0
686,-692,0,0,0,0,0,0,0,0,0,-1,1910,1716,0,0
693,-692,0,0,0,0,0,0,0,0,0,-1,1917,1716,0,0
700,-692,0,0,0,0,0,0,0,0,0,-1,1924,1716,0,0
707,-692,0,0,0,0,0,0,0,0,0,-1,1931,1716,0,0
714,-692,0,0,0,0,0,0,0,0,0,-1,1938,1716,0,0
721,-692,0,0,0,0,0,0,0,0,0,-1,1945,1716,0,0
728,-692,0,0,0,0,0,0,0,0,0,-1,1952,1716,0,0
735,-692,0,0,0,0,0,0,0,0,0,-1,1959,1716,0,0
742,-692,0,0,0,0,0,0,0,0,0,-1,1966,1716,0,0
749,-692,0,0,0,0,0,0,0,0,0,-1,1973,1716,0,0
756,-692,0,0,0,0,0,0,0,0,0,-1,1980,1716,0,0
763,-692,0,0,0,0,0,0,0,0,0,-1,1987,1716,0,0
770,-692,0,0,0,0,0,0,0,0,0,-1,1994,1716,0,0
777,-692,0,0,0,0,0,0,0,0,0,-1,2001,1716,0,0
784,-692,0,0,0,0,0,0,0,0,0,-1,2008,1716,0,0
791,-692,0,0,0,0,0,0,0,0,0,-1,2015,1716,0,0
798,-692,0,0,0,0,0,0,0,0,0,-1,2022,1716,0,0
805,-692,0,0,0,0,0,0,0,0,0,-1,2029,1716,0,0
812,-692,0,0,0,0,0,0,0,0,0,-1,2036,1716,0,0
-700,-699,0,0,0,0,0,0,0,0,0,-1,524,1723,0,0
-693,-699,0,0,0,0,0,0,0,0,0,-1,531,1723,0,0
-686,-699,0,0,0,0,0,0,0,0,0,-1,538,1723,0,0
-679,-699,0,0,0,0,0,0,0,0,0,-1,545,1723,0,0
-672,-699,0,0,0,0,0,0,0,0,0,-1,552,1723,0,0
-665,-699,0,0,0,0,0,0,0,0,0,-1,559,1723,0,0
-658,-699,0,0,0,0,0,0,0,0,0,-1,566,1723,0,0
-651,-699,0,0,0,0,0,0,0,0,0,-1,573,1723,0,0
-644,-699,0,0,0,0,0,0,0,0,0,-1,580,1723,0,0
-637,-699,0,0,0,0,0,0,0,0,0,-1,587,1723,0,0
-630,-699,0,0,0,0,0,0,0,0,0,-1,594,1723,0,0
-623,-699,0,0,0,0,0,0,0,0,0,-1,601,1723,0,0
-616,-699,0,0,0,0,0,0,0,0,0,-1,608,1723,0,0
-609,-699,0,0,0,0,0,0,0,0,0,-1,615,1723,0,0
-602,-699,0,0,0,0,0,0,0,0,0,-1,622,1723,0,0
-595,-699,0,0,0,0,0,0,0,0,0,-1,629,1723,0,0
-588,-699,0,0,0,0,0,0,0,0,0,-1,636,1723,0,0
-581,-699,0,0,0,0,0,0,0,0,0,-1,643,1723,0,0
-574,-699,0,0,0,0,0,0,0,0,0,-1,650,1723,0,0
-567,-699,0,0,0,0,0,0,0,0,0,-1,657,1723,0,0
-560,-699,0,0,0,0,0,0,0,0,0,-1,664,1723,0,0
-553,-699,0,0,0,0,0,0,0,0,0,-1,671,1723,0,0
-546,-699,0,0,0,0,0,0,0,0,0,-1,678,1723,0,0
-539,-699,0,0,0,0,0,0,0,0,0,-1,685,1723,0,0
-532,-699,0,0,0,0,0,0,0,0,0,-1,692,1723,0,0
-525,-699,0,0,0,0,0,0,0,0,0,-1,699,1723,0,0
-518,-699,0,0,0,0,0,0,0,0,0,-1,706,1723,0,0
-511,-699,0,0,0,0,0,0,0,0,0,-1,713,1723,0,0
-504,-699,0,0,0,0,0,0,0,0,0,-1,720,1723,0,0
-497,-699,0,0,0,0,0,0,0,0,0,-1,727,1723,0,0
-490,-699,0,0,0,0,0,0,0,0,0,-1,734,1723,0,0
-483,-699,0,0,0,0,0,0,0,0,0,-1,741,1723,0,0
-476,-699,0,0,0,0,0,0,0,0,0,-1,748,1723,0,0
-469,-699,0,0,0,0,0,0,0,0,0,-1,755,1723,0,0
-462,-699,0,0,0,0,0,0,0,0,0,-1,762,1723,0,0
-455,-699,0,0,0,0,0,0,0,0,0,-1,769,1723,0,0
-448,-699,0,0,0,0,0,0,0,0,0,-1,776,1723,0,0
-441,-699,0,0,0,0,0,0,0,0,0,-1,783,1723,0,0
-434,-699,0,0,0,0,0,0,0,0,0,-1,790,1723,0,0
-427,-699,0,0,0,0,0,0,0,0,0,-1,797,1723,0,0
-420,-699,0,0,0,0,0,0,0,0,0,-1,804,1723,0,0
-413,-699,0,0,0,0,0,0,0,0,0,-1,811,1723,0,0
-406,-699,0,0,0,0,0,0,0,0,0,-1,818,1723,0,0
-399,-699,0,0,0,0,0,0,0,0,0,-1,825,1723,0,0
-392,-699,0,0,0,0,0,0,0,0,0,-1,832,1723,0,0
-385,-699,0,0,0,0,0,0,0,0,0,-1,839,1723,0,0
-378,-699,0,0,0,0,0,0,0,0,0,-1,846,1723,0,0
-371,-699,0,0,0,0,0,0,0,0,0,-1,853,1723,0,0
-364,-699,0,0,0,0,0,0,0,0,0,-1,860,1723,0,0
-357,-699,0,0,0,0,0,0,0,0,0,-1,867,1723,0,0
-350,-699,0,0,0,0,0,0,0,0,0,-1,874,1723,0,0
-343,-699,0,0,0,0,0,0,0,0,0,-1,881,1723,0,0
-336,-699,0,0,0,0,0,0,0,0,0,-1,888,1723,0,0
-329,-699,0,0,0,0,0,0,0,0,0,-1,895,1723,0,0
-322,-699,0,0,0,0,0,0,0,0,0,-1,902,1723,0,0
-315,-699,6.20001,19.5193,0,0,0,0,0,0,0,-1,909,1723,6.20001,-19.5193
-308,-699,6.98151,18.9218,0,0,0,0,0,0,0,-1,916,1723,6.98151,-18.9217
-301,-699,4.72729,12.8752,0,0,0,0,0,0,0,-1,923,1723,4.72732,-12.8752
-294,-699,6.90332,19.8601,0,0,0,0,0,0,0,-1,930,1723,6.90332,-19.8601
-287,-699,9.0968,36.3315,0,0,0,0,0,0,0,-1,937,1723,9.09678,-36.3315
-280,-699,9.30219,35.7897,0,0,0,0,0,0,0,-1,944,1723,9.30221,-35.7896
-273,-699,10.2987,33.8755,0,0,0,0,0,0,0,-1,951,1723,10.2987,-33.8755
-266,-699,6.81915,20.8951,0,0,0,0,0,0,0,-1,958,1723,6.81914,-20.8952
-259,-699,5.39758,14.5466,0,0,0,0,0,0,0,-1,965,1723,5.39759,-14.5466
-252,-699,8.3866,31.6284,0,0,0,0,0,0,0,-1,972,1723,8.38657,-31.6284
-245,-699,8.29309,38.0922,0,0,0,0,0,0,0,-1,979,1723,8.29308,-38.0922
-238,-699,8.45258,39.1736,0,0,0,0,0,0,0,-1,986,1723,8.45258,-39.1736
-231,-699,8.33313,39.3021,-0.00315765,0.00268578,-0.000331341,0.00270451,-0.00317638,-1.51433,0.00339897,0.0460316,993,1723,8.33315,-39.3021
-224,-699,8.2561,39.6348,0.000174973,0.000347851,0.00368675,0.00394918,-0.00342636,0.797119,0.00426183,0.0392157,1000,1723,8.25612,-39.6348
-217,-699,8.27136,40.0872,0.00214031,-0.000676319,0.00584054,0.00673993,-0.00527594,0.667093,0.00695451,0.0242109,1007,1723,8.27135,-40.0872
-210,-699,8.1983,40.5557,0.00343753,-0.001746,0.00743375,0.00871837,-0.00702684,0.617663,0.00910797,0.0162794,1014,1723,8.19831,-40.5557
-203,-699,8.16406,40.9937,0.00492442,-0.00274056,0.00832186,0.0102539,-0.00807002,0.569609,0.0106043,0.0201024,1021,1723,8.16406,-40.9936
-196,-699,8.1344,41.451,0.00600181,-0.00398642,0.0086905,0.011031,-0.00901558,0.524607,0.0115934,0.0175584,1028,1723,8.13435,-41.4511
-189,-699,8.08484,41.8606,0.00648985,-0.00494937,0.00849409,0.0110105,-0.00947004,0.489086,0.0118356,0.00900719,1035,1723,8.0848,-41.8606
-182,-699,8.03406,42.2662,0.00669744,-0.00545379,0.00816976,0.0108031,-0.00955944,0.465679,0.0117636,0.011806,1042,1723,8.03401,-42.2663
-175,-699,8.02234,42.7021,0.00668044,-0.00555211,0.00769816,0.0103963,-0.00926795,0.449706,0.0113594,0.013866,1049,1723,8.02233,-42.7022
-168,-699,8.02295,43.0721,0.00623789,-0.0052476,0.00697695,0.00953157,-0.00854128,0.441063,0.0104396,0.0148396,1056,1723,8.02291,-43.0721
-161,-699,8.0033,43.4313,0.00546928,-0.00465781,0.0060464,0.00829233,-0.00748086,0.436817,0.00911067,0.0127959,1063,1723,8.00327,-43.4313
-154,-699,7.97046,43.8274,0.00453903,-0.00369374,0.00501837,0.00691331,-0.00606802,0.441911,0.00750007,0.0125037,1070,1723,7.97041,-43.8274
-147,-699,7.9408,44.186,0.00362706,-0.00255726,0.00400844,0.00559741,-0.00452761,0.456866,0.00585655,0.0141807,1077,1723,7.9408,-44.186
-140,-699,7.92529,44.5302,0.00282348,-0.00149407,0.00301242,0.00437079,-0.00304137,0.4745,0.00430229,0.0102012,1084,1723,7.92531,-44.5302
-133,-699,7.93164,44.8884,0.00217505,-0.000526611,0.00220357,0.00340888,-0.00176044,0.51043,0.00303467,0.00943303,1091,1723,7.93167,-44.8885
-126,-699,7.93713,45.2167,0.00175393,0.000330424,0.00153849,0.00273733,-0.000652977,0.568744,0.00207705,0.0111688,1098,1723,7.93714,-45.2167
-119,-699,7.94165,45.5377,0.00161464,0.000909578,0.00111097,0.00242767,9.65481e-05,0.631765,0.00158724,0.0159444,1105,1723,7.94169,-45.5377
-112,-699,7.91589,45.8679,0.00189759,0.00119627,0.000879438,0.0024937,0.000600161,0.595693,0.0015029,0.0119594,1112,1723,7.9159,-45.8679
-105,-699,7.91321,46.1726,0.00225172,0.00113002,0.000669795,0.00256447,0.000817269,0.436848,0.0015127,0.0122903,1119,1723,7.91323,-46.1726
-98,-699,7.97473,46.4426,0.00259912,0.000981026,0.000477779,0.00272966,0.000850483,0.26672,0.00161284,0.0146686,1126,1723,7.97476,-46.4427
-91,-699,7.98706,46.6923,0.00303004,0.000796728,0.000248264,0.00305731,0.000769463,0.109385,0.00183627,0.0214491,1133,1723,7.98704,-46.6923
-84,-699,7.98096,46.9557,0.00344505,0.000631779,1.64391e-05,0.00344514,0.000631683,0.00584315,0.00211784,0.0266036,1140,1723,7.9809,-46.9556
-77,-699,8.0022,47.2487,0.00391593,0.000699176,-0.000394621,0.00396363,0.000651473,-0.1203,0.00245426,0.018251,1147,1723,8.00223,-47.2486
-70,-699,8.02454,47.5217,0.0043196,0.000438028,-0.00077957,0.00447031,0.000287312,-0.190976,0.0028892,0.0176047,1154,1723,8.02448,-47.5217
-63,-699,8.04919,47.7555,0.00580198,0.00184038,-0.00167081,0.00641254,0.00122981,-0.350355,0.00392977,0.0145704,1161,1723,8.04918,-47.7555
-56,-699,8.02979,47.9503,0.00751317,0.00372398,-0.000767645,0.00766278,0.00357437,-0.19248,0.00442742,0.0107691,1168,1723,8.02978,-47.9503
-49,-699,8.04651,48.2139,0.00897122,0.00612028,0.000257634,0.00899431,0.00609719,0.0894031,0.00530129,0.0237146,1175,1723,8.0465,-48.2139
-42,-699,8.09558,48.4673,0.0102791,0.010084,0.000321247,0.0105173,0.00984581,0.638035,0.00679875,0.028605,1182,1723,8.09562,-48.4673
-35,-699,8.14697,48.6155,0.0115433,0.0140125,0.000551447,0.0141301,0.0114257,1.36076,0.00866051,0.026382,1189,1723,8.14698,-48.6155
-28,-699,8.23218,48.7579,0.0120267,0.0172282,0.000847476,0.0173628,0.0118921,1.41329,0.0102504,0.0205645,1196,1723,8.23214,-48.7579
-21,-699,8.26831,48.854,0.0124751,0.0201946,0.00107302,0.0203409,0.0123287,1.43522,0.0118317,0.0144198,1203,1723,8.26831,-48.854
-14,-699,8.28503,49.012,0.0130358,0.0230784,0.000966122,0.0231705,0.0129437,1.47576,0.0134081,0.0129451,1210,1723,8.28509,-49.0119
-7,-699,8.30371,49.1643,0.0134171,0.0258908,0.000754661,0.0259363,0.0133716,1.51059,0.0149768,0.0097659,1217,1723,8.30375,-49.1643
0,-699,8.36267,49.2939,0.0137485,0.0287514,0.000372471,0.0287606,0.0137392,1.54599,0.0166105,0.0111781,1224,1723,8.36265,-49.294
7,-699,8.41882,49.3928,0.0137532,0.0309476,-5.88931e-05,0.0309478,0.013753,-1.56737,0.0179045,0.0171564,1231,1723,8.41888,-49.3929
14,-699,8.46985,49.4923,0.0138899,0.0324338,-0.000949286,0.0324823,0.0138414,-1.51978,0.0188218,0.0187788,1238,1723,8.4698,-49.4923
21,-699,8.53333,49.5361,0.014016,0.0333971,-0.00181592,0.0335658,0.0138473,-1.47818,0.0194778,0.0178946,1245,1723,8.53332,-49.5361
28,-699,8.58765,49.5927,0.0141701,0.0321001,-0.00201526,0.0323238,0.0139464,-1.46024,0.0187205,0.0164421,1252,1723,8.58764,-49.5926
35,-699,8.63391,49.7059,0.0142639,0.0294885,-0.00177544,0.0296928,0.0140596,-1.45623,0.0171512,0.0142126,1259,1723,8.63392,-49.7059
42,-699,8.68311,49.7688,0.0138631,0.0259481,-0.000703603,0.0259889,0.0138223,-1.51284,0.0150149,0.0147596,1266,1723,8.68306,-49.7688
49,-699,8.75256,49.813,0.0133156,0.0219024,0.000340856,0.0219159,0.0133021,1.53118,0.0127493,0.0167042,1273,1723,8.75261,-49.813
56,-699,8.85388,49.8495,0.0131969,0.0176435,0.00229756,0.0186174,0.0122231,1.16988,0.0109229,0.0162377,1280,1723,8.8539,-49.8495
63,-699,8.90918,49.8239,0.0130165,0.0132801,0.00511518,0.0182652,0.00803143,0.798279,0.0105709,0.0148001,1287,1723,8.90919,-49.8238
70,-699,8.9325,49.8154,0.0131637,0.0105518,0.00842484,0.0203832,0.00333228,0.708504,0.0126255,0.0128268,1294,1723,8.93248,-49.8154
77,-699,8.96875,49.8087,0.0140503,0.00972002,0.0120829,0.0241605,-0.000390168,0.696744,0.0162386,0.012727,1301,1723,8.96875,-49.8088
84,-699,8.99414,49.7463,0.015017,0.00964147,0.0158423,0.0283979,-0.00373942,0.701369,0.0202936,0.0149124,1308,1723,8.99415,-49.7464
91,-699,9.07605,49.6943,0.0164658,0.0120307,0.0194222,0.0337967,-0.00530012,0.728556,0.0244897,0.0139501,1315,1723,9.07611,-49.6944
98,-699,9.16602,49.6602,0.0177887,0.0148176,0.0225005,0.0388526,-0.00624631,0.752434,0.0282153,0.0117882,1322,1723,9.166,-49.6601
105,-699,9.20361,49.6301,0.0195385,0.0184137,0.0250383,0.0440207,-0.00606853,0.77417,0.031565,0.015975,1329,1723,9.20367,-49.6301
112,-699,9.25403,49.5653,0.0217353,0.0225571,0.0268799,0.0490293,-0.00473686,0.793042,0.0343741,0.0214535,1336,1723,9.25398,-49.5653
119,-699,9.27832,49.4622,0.0237968,0.026651,0.0284021,0.0536618,-0.0032141,0.8105,0.0368926,0.0169231,1343,1723,9.27829,-49.4622
126,-699,9.34839,49.339,0.0256768,0.0300596,0.0288599,0.0568112,-0.00107477,0.823292,0.0382374,0.0180639,1350,1723,9.34838,-49.339
133,-699,9.43494,49.2197,0.0271162,0.0329017,0.0287634,0.0589175,0.00110046,0.835515,0.0389167,0.0160017,1357,1723,9.43496,-49.2197
140,-699,9.48938,49.0992,0.0279224,0.0343139,0.0279197,0.0592202,0.00301612,0.842382,0.0385141,0.017398,1364,1723,9.4894,-49.0993
147,-699,9.51135,48.965,0.0280192,0.0342319,0.0263356,0.0576437,0.00460734,0.844103,0.0369891,0.0143655,1371,1723,9.51129,-48.965
154,-699,9.5072,48.8103,0.0272692,0.0327943,0.0241912,0.0543802,0.00568329,0.84225,0.0345154,0.0144076,1378,1723,9.50717,-48.8103
161,-699,9.5603,48.6409,0.0252522,0.0298952,0.0211513,0.048852,0.00629543,0.840058,0.0306855,0.0106108,1385,1723,9.56031,-48.6408
168,-699,9.62,48.4714,0.0227621,0.0258981,0.0176594,0.042059,0.00660126,0.829677,0.0261185,0.0122836,1392,1723,9.61999,-48.4714
175,-699,9.66724,48.296,0.0195481,0.0201486,0.0132137,0.0330655,0.0066313,0.796758,0.0201994,0.0178191,1399,1723,9.66729,-48.296
182,-699,9.68542,48.0765,0.0147057,0.011373,0.00754772,0.0207688,0.0053099,0.676754,0.012459,0.0186742,1406,1723,9.6854,-48.0766
189,-699,9.67407,47.8417,0.00968843,0.00679793,0.00319147,0.0117466,0.00473972,0.572788,0.0068239,0.0169138,1413,1723,9.67412,-47.8417
196,-699,9.68933,47.6158,0.00404401,0.000789494,0.00126488,0.00447779,0.000355711,0.330375,0.00287397,0.0166701,1420,1723,9.68927,-47.6158
203,-699,9.70605,47.3994,0.00367589,0.000793714,0.00111324,0.0040558,0.000413804,0.328873,0.00257703,0.014254,1427,1723,9.70602,-47.3995
210,-699,9.75586,47.1613,0.00312632,0.000918868,0.000914748,0.00345612,0.000589076,0.346023,0.00213498,0.0146996,1434,1723,9.75582,-47.1612
217,-699,9.79126,46.9025,0.00249931,0.000818049,0.000548519,0.00266244,0.00065492,0.289068,0.00160192,0.0148584,1441,1723,9.79121,-46.9024
224,-699,9.78882,46.6211,0.00214958,0.000909737,0.000302393,0.0022194,0.000839917,0.226917,0.00129393,0.0159497,1448,1723,9.78883,-46.621
231,-699,9.79639,46.3295,0.00182647,0.00114987,-3.39283e-05,0.00182817,0.00114817,-0.0499779,0.00106697,0.0121056,1455,1723,9.79643,-46.3294
238,-699,9.78296,46.0138,0.00156709,0.00127717,-0.000339057,0.00179088,0.00105338,-0.583387,0.00103931,0.0103165,1462,1723,9.78294,-46.0138
245,-699,9.78711,45.7161,0.00129949,0.00135039,-0.000597892,0.00192337,0.000726503,-0.806669,0.00112147,0.0118664,1469,1723,9.78712,-45.7161
252,-699,9.79211,45.429,0.000975999,0.00140103,-0.000833069,0.00204826,0.000328767,-0.910284,0.00127018,0.010287,1476,1723,9.79216,-45.429
259,-699,9.78894,45.1177,0.00064642,0.00130638,-0.000995029,0.00202472,-7.19191e-05,-0.945505,0.00137441,0.0101292,1483,1723,9.78892,-45.1176
266,-699,9.776,44.7944,0.000375662,0.00112086,-0.00115731,0.00196407,-0.000467548,-0.941136,0.00148989,0.0128814,1490,1723,9.77603,-44.7945
273,-699,9.75769,44.4424,0.000258145,0.00117519,-0.00146559,0.00225231,-0.000818979,-0.937003,0.00183645,0.012492,1497,1723,9.75765,-44.4424
280,-699,9.76501,44.0645,0.000123649,0.00109092,-0.0017148,0.00238898,-0.00117441,-0.922846,0.00209678,0.0121313,1504,1723,9.76496,-44.0645
287,-699,9.75354,43.7001,2.6487e-05,0.00124932,-0.00201829,0.00274677,-0.00147097,-0.932473,0.00247197,0.0107413,1511,1723,9.75353,-43.7
294,-699,9.74353,43.3523,4.08899e-05,0.00133952,-0.00239284,0.00316958,-0.00178917,-0.917887,0.00289967,0.0116653,1518,1723,9.74356,-43.3523
301,-699,9.73254,43.0103,0.000135965,0.00165559,-0.002732,0.00373147,-0.00193991,-0.921029,0.00332838,0.0125774,1525,1723,9.73253,-43.0103
308,-699,9.70862,42.6428,0.000132706,0.00209914,-0.00316737,0.00443239,-0.00220054,-0.935893,0.00390111,0.0171664,1532,1723,9.70863,-42.6429
315,-699,9.70544,42.2336,-7.39317e-05,0.00256737,-0.00333829,0.00483675,-0.00234331,-0.973755,0.00422791,0.0206854,1539,1723,9.70543,-42.2336
322,-699,9.65564,41.8186,-0.000185013,0.00328012,-0.00352527,0.00547557,-0.00238046,-1.0138,0.00465154,0.0201467,1546,1723,9.65569,-41.8186
329,-699,9.62305,41.4351,-0.000333635,0.00390012,-0.00351571,0.00588707,-0.00232059,-1.05639,0.00488554,0.017514,1553,1723,9.62309,-41.4351
336,-699,9.59412,41.0702,-0.000474755,0.00444426,-0.00348725,0.00625208,-0.00228258,-1.09253,0.00510205,0.0224888,1560,1723,9.59406,-41.0702
343,-699,9.60571,40.6694,-0.000762591,0.00473904,-0.00326333,0.00625628,-0.00227983,-1.13559,0.00510346,0.0330206,1567,1723,9.60572,-40.6694
350,-699,9.62244,40.1423,-0.00116796,0.00574142,-0.00301316,0.00687083,-0.00229737,-1.21218,0.00550842,0.0481712,1574,1723,9.62243,-40.1423
357,-699,9.48523,39.5359,-0.00158505,0.00550563,-0.00265649,0.00639046,-0.00246988,-1.24927,0.00527981,0.0488246,1581,1723,9.48524,-39.5359
364,-699,9.21997,39.2854,-0.00201299,0.00624332,-0.00235056,0.00686562,-0.00263529,-1.31199,0.0056637,0.0437275,1588,1723,9.21998,-39.2855
371,-699,9.19568,38.9828,0,0,0,0,0,0,0,-1,1595,1723,9.19564,-38.9828
378,-699,9.15417,38.4602,0,0,0,0,0,0,0,-1,1602,1723,9.15417,-38.4602
385,-699,8.08582,36.6664,0,0,0,0,0,0,0,-1,1609,1723,8.0858,-36.6663
392,-699,9.27881,37.5869,0,0,0,0,0,0,0,-1,1616,1723,9.27883,-37.5869
399,-699,10.7629,36.4283,0,0,0,0,0,0,0,-1,1623,1723,10.763,-36.4284
406,-699,10.1228,37.1663,0,0,0,0,0,0,0,-1,1630,1723,10.1228,-37.1662
413,-699,9.31396,23.2781,0,0,0,0,0,0,0,-1,1637,1723,9.31396,-23.278
420,-699,2.15076,7.65527,0,0,0,0,0,0,0,-1,1644,1723,2.15079,-7.65522
427,-699,3.36328,8.2428,0,0,0,0,0,0,0,-1,1651,1723,3.36332,-8.24283
434,-699,4.66455,8.90222,0,0,0,0,0,0,0,-1,1658,1723,4.66456,-8.90223
441,-699,0,0,0,0,0,0,0,0,0,-1,1665,1723,0,0
448,-699,0,0,0,0,0,0,0,0,0,-1,1672,1723,0,0
455,-699,0,0,0,0,0,0,0,0,0,-1,1679,1723,0,0
462,-699,0,0,0,0,0,0,0,0,0,-1,1686,1723,0,0
469,-699,0,0,0,0,0,0,0,0,0,-1,1693,1723,0,0
476,-699,0,0,0,0,0,0,0,0,0,-1,1700,1723,0,0
483,-699,0,0,0,0,0,0,0,0,0,-1,1707,1723,0,0
490,-699,0,0,0,0,0,0,0,0,0,-1,1714,1723,0,0
497,-699,0,0,0,0,0,0,0,0,0,-1,1721,1723,0,0
504,-699,0,0,0,0,0,0,0,0,0,-1,1728,1723,0,0
511,-699,0,0,0,0,0,0,0,0,0,-1,1735,1723,0,0
518,-699,0,0,0,0,0,0,0,0,0,-1,1742,1723,0,0
525,-699,0,0,0,0,0,0,0,0,0,-1,1749,1723,0,0
532,-699,0,0,0,0,0,0,0,0,0,-1,1756,1723,0,0
539,-699,0,0,0,0,0,0,0,0,0,-1,1763,1723,0,0
546,-699,0,0,0,0,0,0,0,0,0,-1,1770,1723,0,0
553,-699,0,0,0,0,0,0,0,0,0,-1,1777,1723,0,0
560,-699,0,0,0,0,0,0,0,0,0,-1,1784,1723,0,0
567,-699,0,0,0,0,0,0,0,0,0,-1,1791,1723,0,0
574,-699,0,0,0,0,0,0,0,0,0,-1,1798,1723,0,0
581,-699,0,0,0,0,0,0,0,0,0,-1,1805,1723,0,0
588,-699,0,0,0,0,0,0,0,0,0,-1,1812,1723,0,0
595,-699,0,0,0,0,0,0,0,0,0,-1,1819,1723,0,0
602,-699,0,0,0,0,0,0,0,0,0,-1,1826,1723,0,0
609,-699,0,0,0,0,0,0,0,0,0,-1,1833,1723,0,0
616,-699,0,0,0,0,0,0,0,0,0,-1,1840,1723,0,0
623,-699,0,0,0,0,0,0,0,0,0,-1,1847,1723,0,0
630,-699,0,0,0,0,0,0,0,0,0,-1,1854,1723,0,0
637,-699,0,0,0,0,0,0,0,0,0,-1,1861,1723,0,0
644,-699,0,0,0,0,0,0,0,0,0,-1,1868,1723,0,0
651,-699,0,0,0,0,0,0,0,0,0,-1,1875,1723,0,0
658,-699,0,0,0,0,0,0,0,0,0,-1,1882,1723,0,0
665,-699,0,0,0,0,0,0,0,0,0,-1,1889,1723,0,0
672,-699,0,0,0,0,0,0,0,0,0,-1,1896,1723,0,0
679,-699,0,0,0,0,0,0,0,0,0,-1,1903,1723,0,0
686,-699,0,0,0,0,0,0,0,0,0,-1,1910,1723,0,0
693,-699,0,0,0,0,0,0,0,0,0,-1,1917,1723,0,0
700,-699,0,0,0,0,0,0,0,0,0,-1,1924,1723,0,0
707,-699,0,0,0,0,0,0,0,0,0,-1,1931,1723,0,0
714,-699,0,0,0,0,0,0,0,0,0,-1,1938,1723,0,0
721,-699,0,0,0,0,0,0,0,0,0,-1,1945,1723,0,0
728,-699,0,0,0,0,0,0,0,0,0,-1,1952,1723,0,0
735,-699,0,0,0,0,0,0,0,0,0,-1,1959,1723,0,0
742,-699,0,0,0,0,0,0,0,0,0,-1,1966,1723,0,0
749,-699,0,0,0,0,0,0,0,0,0,-1,1973,1723,0,0
756,-699,0,0,0,0,0,0,0,0,0,-1,1980,1723,0,0
763,-699,0,0,0,0,0,0,0,0,0,-1,1987,1723,0,0
770,-699,0,0,0,0,0,0,0,0,0,-1,1994,1723,0,0
777,-699,0,0,0,0,0,0,0,0,0,-1,2001,1723,0,0
784,-699,0,0,0,0,0,0,0,0,0,-1,2008,1723,0,0
791,-699,0,0,0,0,0,0,0,0,0,-1,2015,1723,0,0
798,-699,0,0,0,0,0,0,0,0,0,-1,2022,1723,0,0
805,-699,0,0,0,0,0,0,0,0,0,-1,2029,1723,0,0
812,-699,0,0,0,0,0,0,0,0,0,-1,2036,1723,0,0
-700,-706,0,0,0,0,0,0,0,0,0,-1,524,1730,0,0
-693,-706,0,0,0,0,0,0,0,0,0,-1,531,1730,0,0
-686,-706,0,0,0,0,0,0,0,0,0,-1,538,1730,0,0
-679,-706,0,0,0,0,0,0,0,0,0,-1,545,1730,0,0
-672,-706,0,0,0,0,0,0,0,0,0,-1,552,1730,0,0
-665,-706,0,0,0,0,0,0,0,0,0,-1,559,1730,0,0
-658,-706,0,0,0,0,0,0,0,0,0,-1,566,1730,0,0
-651,-706,0,0,0,0,0,0,0,0,0,-1,573,1730,0,0
-644,-706,0,0,0,0,0,0,0,0,0,-1,580,1730,0,0
-637,-706,0,0,0,0,0,0,0,0,0,-1,587,1730,0,0
-630,-706,0,0,0,0,0,0,0,0,0,-1,594,1730,0,0
-623,-706,0,0,0,0,0,0,0,0,0,-1,601,1730,0,0
-616,-706,0,0,0,0,0,0,0,0,0,-1,608,1730,0,0
-609,-706,0,0,0,0,0,0,0,0,0,-1,615,1730,0,0
-602,-706,0,0,0,0,0,0,0,0,0,-1,622,1730,0,0
-595,-706,0,0,0,0,0,0,0,0,0,-1,629,1730,0,0
-588,-706,0,0,0,0,0,0,0,0,0,-1,636,1730,0,0
-581,-706,0,0,0,0,0,0,0,0,0,-1,643,1730,0,0
-574,-706,0,0,0,0,0,0,0,0,0,-1,650,1730,0,0
-567,-706,0,0,0,0,0,0,0,0,0,-1,657,1730,0,0
-560,-706,0,0,0,0,0,0,0,0,0,-1,664,1730,0,0
-553,-706,0,0,0,0,0,0,0,0,0,-1,671,1730,0,0
-546,-706,0,0,0,0,0,0,0,0,0,-1,678,1730,0,0
-539,-706,0,0,0,0,0,0,0,0,0,-1,685,1730,0,0
-532,-706,0,0,0,0,0,0,0,0,0,-1,692,1730,0,0
-525,-706,0,0,0,0,0,0,0,0,0,-1,699,1730,0,0
-518,-706,0,0,0,0,0,0,0,0,0,-1,706,1730,0,0
-511,-706,0,0,0,0,0,0,0,0,0,-1,713,1730,0,0
-504,-706,0,0,0,0,0,0,0,0,0,-1,720,1730,0,0
-497,-706,0,0,0,0,0,0,0,0,0,-1,727,1730,0,0
-490,-706,0,0,0,0,0,0,0,0,0,-1,734,1730,0,0
-483,-706,0,0,0,0,0,0,0,0,0,-1,741,1730,0,0
-476,-706,0,0,0,0,0,0,0,0,0,-1,748,1730,0,0
-469,-706,0,0,0,0,0,0,0,0,0,-1,755,1730,0,0
-462,-706,0,0,0,0,0,0,0,0,0,-1,762,1730,0,0
-455,-706,0,0,0,0,0,0,0,0,0,-1,769,1730,0,0
-448,-706,0,0,0,0,0,0,0,0,0,-1,776,1730,0,0
-441,-706,0,0,0,0,0,0,0,0,0,-1,783,1730,0,0
-434,-706,0,0,0,0,0,0,0,0,0,-1,790,1730,0,0
-427,-706,0,0,0,0,0,0,0,0,0,-1,797,1730,0,0
-420,-706,0,0,0,0,0,0,0,0,0,-1,804,1730,0,0
-413,-706,0,0,0,0,0,0,0,0,0,-1,811,1730,0,0
-406,-706,0,0,0,0,0,0,0,0,0,-1,818,1730,0,0
-399,-706,0,0,0,0,0,0,0,0,0,-1,825,1730,0,0
-392,-706,0,0,0,0,0,0,0,0,0,-1,832,1730,0,0
-385,-706,0,0,0,0,0,0,0,0,0,-1,839,1730,0,0
-378,-706,0,0,0,0,0,0,0,0,0,-1,846,1730,0,0
-371,-706,0,0,0,0,0,0,0,0,0,-1,853,1730,0,0
-364,-706,0,0,0,0,0,0,0,0,0,-1,860,1730,0,0
-357,-706,0,0,0,0,0,0,0,0,0,-1,867,1730,0,0
-350,-706,0,0,0,0,0,0,0,0,0,-1,874,1730,0,0
-343,-706,0,0,0,0,0,0,0,0,0,-1,881,1730,0,0
-336,-706,0,0,0,0,0,0,0,0,0,-1,888,1730,0,0
-329,-706,0,0,0,0,0,0,0,0,0,-1,895,1730,0,0
-322,-706,0,0,0,0,0,0,0,0,0,-1,902,1730,0,0
-315,-706,0,0,0,0,0,0,0,0,0,-1,909,1730,0,0
-308,-706,5.08191,14.6245,0,0,0,0,0,0,0,-1,916,1730,5.08188,-14.6245
-301,-706,7.45007,21.1975,0,0,0,0,0,0,0,-1,923,1730,7.45005,-21.1976
-294,-706,11.8603,21.026,0,0,0,0,0,0,0,-1,930,1730,11.8603,-21.026
-287,-706,10.3292,20.8425,0,0,0,0,0,0,0,-1,937,1730,10.3292,-20.8425
-280,-706,7.9162,21.8951,0,0,0,0,0,0,0,-1,944,1730,7.9162,-21.8952
-273,-706,7.38953,20.6355,0,0,0,0,0,0,0,-1,951,1730,7.38955,-20.6355
-266,-706,9.66724,22.8231,0,0,0,0,0,0,0,-1,958,1730,9.66722,-22.8231
-259,-706,3.47852,20.7363,0,0,0,0,0,0,0,-1,965,1730,3.47851,-20.7364
-252,-706,3.84259,20.1979,0,0,0,0,0,0,0,-1,972,1730,3.84256,-20.1979
-245,-706,4.698,19.2992,0,0,0,0,0,0,0,-1,979,1730,4.69799,-19.2991
-238,-706,8.12567,36.8694,0,0,0,0,0,0,0,-1,986,1730,8.12568,-36.8694
-231,-706,8.83936,39.2078,0,0,0,0,0,0,0,-1,993,1730,8.83938,-39.2078
-224,-706,8.73346,39.5879,0,0,0,0,0,0,0,-1,1000,1730,8.73345,-39.5879
-217,-706,8.75708,40.0046,0.0102983,0.00308283,0.0126467,0.0198418,-0.00646068,0.646454,0.0158272,0.0388056,1007,1730,8.7571,-40.0046
-210,-706,8.66876,40.5018,0.0123141,0.00187408,0.0149057,0.0228874,-0.00869924,0.616971,0.0188398,0.0349839,1014,1730,8.66877,-40.5019
-203,-706,8.64697,40.9884,0.0144593,0.000766803,0.0162203,0.025219,-0.0099929,0.585701,0.0209536,0.0310165,1021,1730,8.64698,-40.9884
-196,-706,8.59143,41.4023,0.0158729,-0.000731421,0.0167718,0.0262849,-0.0111434,0.555575,0.0221908,0.024431,1028,1730,8.59138,-41.4023
-189,-706,8.45691,41.8542,0.0162228,-0.00202017,0.0164269,0.0258908,-0.0116882,0.531955,0.0222068,0.0207344,1035,1730,8.45688,-41.8542
-182,-706,8.39697,42.2985,0.0159946,-0.00288268,0.015767,0.0249321,-0.0118202,0.515691,0.0216644,0.0160968,1042,1730,8.397,-42.2984
-175,-706,8.40466,42.7274,0.0152762,-0.00337609,0.0147826,0.0234286,-0.0115286,0.503988,0.0205687,0.0153257,1049,1730,8.40461,-42.7274
-168,-706,8.38257,43.1025,0.0138748,-0.00355143,0.0133704,0.0211206,-0.0107972,0.496623,0.0187463,0.0166377,1056,1730,8.38251,-43.1025
-161,-706,8.35999,43.47,0.0119933,-0.00340523,0.0116626,0.0182688,-0.00968074,0.493653,0.0163886,0.0135784,1063,1730,8.35997,-43.47
-154,-706,8.31787,43.8346,0.00978635,-0.00288322,0.00978074,0.0151046,-0.00820144,0.498027,0.0136511,0.0123563,1070,1730,8.31786,-43.8345
-147,-706,8.28613,44.1766,0.00757526,-0.00215502,0.00792197,0.0120067,-0.00658651,0.510025,0.0108858,0.0115489,1077,1730,8.28607,-44.1767
-140,-706,8.28809,44.5546,0.00557128,-0.00140939,0.0061194,0.00912576,-0.00496388,0.526224,0.00825211,0.0107255,1084,1730,8.28804,-44.5545
-133,-706,8.2738,44.8926,0.00381646,-0.000715582,0.00458238,0.00666248,-0.00356161,0.555776,0.0059927,0.00903307,1091,1730,8.27379,-44.8926
-126,-706,8.28308,45.2095,0.00239297,5.37387e-05,0.00327835,0.00470411,-0.00225739,0.614052,0.00410113,0.0137949,1098,1730,8.28304,-45.2094
-119,-706,8.26819,45.5297,0.000972024,0.000569958,0.00213005,0.00291051,-0.00136853,0.738348,0.00252341,0.0187989,1105,1730,8.26824,-45.5297
-112,-706,8.24622,45.8723,0.000418636,0.00100335,0.00146406,0.00220395,-0.000781971,0.883946,0.0017879,0.0132698,1112,1730,8.2462,-45.8723
-105,-706,8.22583,46.1925,0.000741052,0.00122877,0.00116777,0.00217787,-0.000208046,0.888331,0.00152599,0.00940582,1119,1730,8.22584,-46.1925
-98,-706,8.24072,46.4567,0.00106753,0.00114866,0.000982477,0.00209141,0.000124783,0.80603,0.0013546,0.0108205,1126,1730,8.24067,-46.4567
-91,-706,8.25293,46.7145,0.00145102,0.00108266,0.000776251,0.00206464,0.000469038,0.668916,0.00124977,0.0138455,1133,1730,8.25289,-46.7145
-84,-706,8.23376,46.9689,0.00184738,0.000981152,0.000575159,0.00213426,0.000694269,0.462678,0.00125704,0.0173261,1140,1730,8.23376,-46.9689
-77,-706,8.25562,47.2549,0.00229709,0.000995676,0.000246483,0.0023422,0.000950557,0.181046,0.00136024,0.0172445,1147,1730,8.25556,-47.2549
-70,-706,8.2395,47.5374,0.00266234,0.000793918,-8.58524e-05,0.00266627,0.000789981,-0.0458205,0.00158139,0.0193452,1154,1730,8.23947,-47.5373
-63,-706,8.23108,47.7524,0.00350795,0.00141667,-0.000641104,0.00368884,0.00123578,-0.275005,0.00216806,0.014293,1161,1730,8.23108,-47.7524
-56,-706,8.26172,47.9713,0.00455506,0.00243138,-0.000304209,0.00459778,0.00238866,-0.139509,0.0026552,0.0131555,1168,1730,8.26167,-47.9713
-49,-706,8.25891,48.2081,0.00550457,0.00373509,0.00013191,0.00551435,0.00372531,0.074002,0.00324847,0.0128096,1175,1730,8.25894,-48.2081
-42,-706,8.29565,48.4197,0.00643903,0.00613277,0.000140888,0.00649398,0.00607782,0.371892,0.00419748,0.0175355,1182,1730,8.29571,-48.4196
-35,-706,8.33301,48.5723,0.00743336,0.00858249,0.000298247,0.00865529,0.00736056,1.3314,0.0053907,0.017307,1189,1730,8.33302,-48.5723
-28,-706,8.37964,48.7407,0.00802735,0.0108404,0.000513573,0.0109312,0.00793652,1.39575,0.00652258,0.0116348,1196,1730,8.37969,-48.7407
-21,-706,8.39368,48.8877,0.00848181,0.0130945,0.000702066,0.013199,0.00837732,1.42305,0.00771205,0.0124836,1203,1730,8.39369,-48.8877
-14,-706,8.43018,49.0232,0.0090165,0.015303,0.000723653,0.0153852,0.00893428,1.45766,0.00892115,0.0120367,1210,1730,8.43022,-49.0231
-7,-706,8.45996,49.1771,0.00942238,0.0174727,0.000671365,0.0175283,0.00936678,1.48816,0.010128,0.0096783,1217,1730,8.45999,-49.1771
0,-706,8.50574,49.3179,0.00978175,0.0197235,0.000537618,0.0197525,0.00975276,1.51693,0.0114044,0.012966,1224,1730,8.50568,-49.3178
7,-706,8.53821,49.4175,0.00987686,0.0214722,0.000354653,0.021483,0.00986603,1.54025,0.0124169,0.0145964,1231,1730,8.53817,-49.4175
14,-706,8.57654,49.5011,0.0100333,0.0226525,-0.000166811,0.0226547,0.0100311,-1.55758,0.0131082,0.0148795,1238,1730,8.57657,-49.501
21,-706,8.61963,49.5834,0.010135,0.0233853,-0.000645138,0.0234167,0.0101036,-1.52226,0.0135619,0.0128417,1245,1730,8.61959,-49.5834
28,-706,8.65527,49.6755,0.0102489,0.022621,-0.000723811,0.0226632,0.0102067,-1.51256,0.0131061,0.0130451,1252,1730,8.65532,-49.6755
35,-706,8.69312,49.7416,0.0103543,0.0210162,-0.000640734,0.0210545,0.010316,-1.51099,0.0121567,0.0147664,1259,1730,8.69311,-49.7415
42,-706,8.72986,49.7789,0.0101025,0.0186613,-1.35017e-05,0.0186613,0.0101025,-1.56922,0.0107864,0.0132862,1266,1730,8.72988,-49.7789
49,-706,8.76648,49.8145,0.00971012,0.0158819,0.00055422,0.0159313,0.00966075,1.48194,0.00926709,0.0155754,1273,1730,8.76645,-49.8145
56,-706,8.83508,49.8479,0.00962673,0.0129273,0.00179458,0.013715,0.00883899,1.15717,0.0080278,0.0146878,1280,1730,8.83513,-49.8478
63,-706,8.86536,49.834,0.00951312,0.00988751,0.00367078,0.0133759,0.00602476,0.810875,0.00773521,0.0122538,1287,1730,8.86541,-49.834
70,-706,8.89221,49.8278,0.00950722,0.00804175,0.00584472,0.014665,0.00288401,0.72304,0.00897118,0.0128026,1294,1730,8.89225,-49.8277
77,-706,8.92493,49.8263,0.00985744,0.00773098,0.00825702,0.0171194,0.000469018,0.721367,0.0112599,0.0117161,1301,1730,8.92497,-49.8263
84,-706,8.96655,49.7908,0.0105409,0.00779552,0.0108881,0.0201425,-0.00180605,0.722692,0.014069,0.00975887,1308,1730,8.96657,-49.7908
91,-706,9.03003,49.7609,0.0115751,0.00972287,0.0133306,0.0240117,-0.00271372,0.750718,0.0169848,0.0109064,1315,1730,9.02999,-49.7608
98,-706,9.07495,49.7299,0.0123481,0.0117432,0.0153821,0.0274307,-0.00333942,0.775568,0.0194958,0.0139007,1322,1730,9.075,-49.7298
105,-706,9.10718,49.6964,0.0133592,0.014212,0.0170246,0.0308156,-0.00324436,0.797918,0.0217062,0.0161013,1329,1730,9.10713,-49.6964
112,-706,9.12244,49.6204,0.0146695,0.0169919,0.0181569,0.0340247,-0.00236336,0.817331,0.0235106,0.0155276,1336,1730,9.12249,-49.6203
119,-706,9.14771,49.5258,0.0157924,0.0196312,0.0189993,0.0368079,-0.00138422,0.835739,0.0250128,0.0135282,1343,1730,9.14764,-49.5258
126,-706,9.19177,49.4069,0.0167472,0.0216364,0.0189412,0.0382901,9.34619e-05,0.849575,0.0254956,0.0150216,1350,1730,9.19171,-49.4068
133,-706,9.26416,49.2551,0.0173373,0.0231836,0.0184096,0.0389007,0.00162028,0.864133,0.0254109,0.0128877,1357,1730,9.26415,-49.2551
140,-706,9.32458,49.0957,0.0174243,0.0235242,0.0173053,0.0380463,0.00290224,0.872624,0.0244542,0.0123974,1364,1730,9.32465,-49.0957
147,-706,9.34351,48.9481,0.0171116,0.0227818,0.0157681,0.0359676,0.0039258,0.874348,0.0227828,0.0216931,1371,1730,9.34355,-48.9481
154,-706,9.35388,48.8168,0.0162697,0.0210547,0.0139511,0.0328169,0.00450744,0.870318,0.020541,0.0210962,1378,1730,9.35392,-48.8168
161,-706,9.38501,48.6434,0.0146528,0.0184362,0.0116498,0.0283468,0.00474211,0.865886,0.0175323,0.0110836,1385,1730,9.38499,-48.6434
168,-706,9.40076,48.4629,0.0127714,0.0151838,0.00924608,0.023302,0.00465318,0.850259,0.0142394,0.0109405,1392,1730,9.40079,-48.4629
175,-706,9.44543,48.2788,0.0107785,0.0113415,0.0066883,0.0177542,0.00436576,0.80643,0.0106825,0.0101118,1399,1730,9.44543,-48.2788
182,-706,9.45642,48.061,0.00845047,0.00621668,0.00390648,0.0113966,0.00327057,0.646158,0.00677595,0.0103385,1406,1730,9.45636,-48.0611
189,-706,9.44922,47.8296,0.00552561,0.00380428,0.00153022,0.0064206,0.00290929,0.529223,0.00371236,0.013438,1413,1730,9.44918,-47.8295
196,-706,9.45557,47.592,0.00251513,0.000913851,0.000499755,0.0026583,0.00077068,0.27901,0.00157928,0.012265,1420,1730,9.4556,-47.592
203,-706,9.47278,47.3846,0.00222437,0.00103933,0.000347369,0.00231869,0.000945013,0.265127,0.0013463,0.0141482,1427,1730,9.47283,-47.3846
210,-706,9.4873,47.1438,0.00182548,0.00122147,0.000155706,0.00186326,0.0011837,0.238014,0.0010888,0.0131118,1434,1730,9.48728,-47.1438
217,-706,9.49268,46.8983,0.00136522,0.00122735,-0.000155871,0.00146672,0.00112585,-0.577189,0.000886315,0.0134066,1441,1730,9.4927,-46.8983
224,-706,9.48462,46.6196,0.0010322,0.00134454,-0.000416674,0.00163335,0.000743389,-0.964699,0.00094428,0.0186014,1448,1730,9.48468,-46.6196
231,-706,9.51074,46.3176,0.000666641,0.00147574,-0.00067892,0.0018615,0.000280878,-1.05409,0.00115878,0.0140821,1455,1730,9.5107,-46.3177
238,-706,9.49475,46.0242,0.00040032,0.00155419,-0.000899521,0.00204589,-9.1386e-05,-1.07054,0.00139539,0.00906088,1462,1730,9.49477,-46.0242
245,-706,9.49121,45.7136,0.00012156,0.00161484,-0.0011181,0.00221268,-0.00047628,-1.07978,0.00165686,0.0116989,1469,1730,9.49116,-45.7137
252,-706,9.49109,45.4194,-0.000227393,0.00162253,-0.00129519,0.00228914,-0.000893996,-1.09548,0.00189571,0.0111267,1476,1730,9.4911,-45.4194
259,-706,9.50305,45.1102,-0.000563685,0.00137118,-0.00136839,0.00207958,-0.00127209,-1.0931,0.00195372,0.0116462,1483,1730,9.50307,-45.1102
266,-706,9.47717,44.7974,-0.000803458,0.00107481,-0.00149374,0.00190011,-0.00162876,-1.06603,0.0020394,0.0129051,1490,1730,9.47711,-44.7973
273,-706,9.43298,44.4495,-0.000822306,0.00120189,-0.00189558,0.00233864,-0.00195906,-1.03061,0.0024845,0.0129371,1497,1730,9.433,-44.4495
280,-706,9.42468,44.0776,-0.000878161,0.00112973,-0.00219801,0.00254222,-0.00229065,-0.999626,0.00279151,0.0103757,1504,1730,9.42473,-44.0776
287,-706,9.41699,43.7198,-0.000875109,0.00139099,-0.00259416,0.00308875,-0.00257286,-0.991297,0.00327325,0.0112749,1511,1730,9.41696,-43.7198
294,-706,9.40051,43.3813,-0.000713979,0.00158132,-0.00309211,0.00373189,-0.00286455,-0.963095,0.00381941,0.0114598,1518,1730,9.4005,-43.3813
301,-706,9.37854,43.0137,-0.000396844,0.00210199,-0.00354216,0.00460862,-0.00290348,-0.95495,0.0043742,0.0102482,1525,1730,9.37853,-43.0137
308,-706,9.36609,42.6371,-0.000188039,0.00272633,-0.00412376,0.00564279,-0.0031045,-0.955232,0.00512064,0.0114935,1532,1730,9.36603,-42.6371
315,-706,9.34912,42.2585,-0.000251804,0.00344844,-0.00441105,0.00638166,-0.00318502,-0.983969,0.00562517,0.0183107,1539,1730,9.34908,-42.2586
322,-706,9.29199,41.8821,-0.000174312,0.00452239,-0.00474137,0.0074651,-0.00311702,-1.01533,0.00627915,0.0241388,1546,1730,9.29199,-41.882
329,-706,9.32251,41.4066,-0.000119971,0.00548426,-0.00480498,0.00824449,-0.0028802,-1.04937,0.0066671,0.0290416,1553,1730,9.32248,-41.4066
336,-706,9.22424,40.8397,-4.94947e-05,0.00643429,-0.00488159,0.00905242,-0.00266762,-1.07851,0.00709337,0.048179,1560,1730,9.22429,-40.8398
343,-706,9.15576,40.647,0,0,0,0,0,0,0,-1,1567,1730,9.15575,-40.647
350,-706,8.95972,40.0483,-0.000858561,0.00832824,-0.0041877,0.00995064,-0.00248096,-1.20118,0.007597,0.0468217,1574,1730,8.95976,-40.0484
357,-706,9.06262,39.566,-0.00141865,0.00807007,-0.00354668,0.00924921,-0.00259779,-1.24983,0.00719024,0.0493453,1581,1730,9.06257,-39.566
364,-706,8.55957,39.5222,0,0,0,0,0,0,0,-1,1588,1730,8.55963,-39.5222
371,-706,8.43396,38.317,0,0,0,0,0,0,0,-1,1595,1730,8.43391,-38.317
378,-706,7.25085,37.1644,0,0,0,0,0,0,0,-1,1602,1730,7.25091,-37.1644
385,-706,6.88086,36.769,0,0,0,0,0,0,0,-1,1609,1730,6.88088,-36.7691
392,-706,6.43359,36.5219,0,0,0,0,0,0,0,-1,1616,1730,6.43354,-36.5218
399,-706,6.06824,36.3298,0,0,0,0,0,0,0,-1,1623,1730,6.06819,-36.3299
406,-706,5.74524,36.2214,0,0,0,0,0,0,0,-1,1630,1730,5.74521,-36.2215
413,-706,1.17773,29.6584,0,0,0,0,0,0,0,-1,1637,1730,1.17772,-29.6585
420,-706,6.51294,21.9171,0,0,0,0,0,0,0,-1,1644,1730,6.51292,-21.9171
427,-706,0,0,0,0,0,0,0,0,0,-1,1651,1730,0,0
434,-706,0,0,0,0,0,0,0,0,0,-1,1658,1730,0,0
441,-706,0,0,0,0,0,0,0,0,0,-1,1665,1730,0,0
448,-706,0,0,0,0,0,0,0,0,0,-1,1672,1730,0,0
455,-706,0,0,0,0,0,0,0,0,0,-1,1679,1730,0,0
462,-706,0,0,0,0,0,0,0,0,0,-1,1686,1730,0,0
469,-706,0,0,0,0,0,0,0,0,0,-1,1693,1730,0,0
476,-706,0,0,0,0,0,0,0,0,0,-1,1700,1730,0,0
483,-706,0,0,0,0,0,0,0,0,0,-1,1707,1730,0,0
490,-706,0,0,0,0,0,0,0,0,0,-1,1714,1730,0,0
497,-706,0,0,0,0,0,0,0,0,0,-1,1721,1730,0,0
504,-706,0,0,0,0,0,0,0,0,0,-1,1728,1730,0,0
511,-706,0,0,0,0,0,0,0,0,0,-1,1735,1730,0,0
518,-706,0,0,0,0,0,0,0,0,0,-1,1742,1730,0,0
525,-706,0,0,0,0,0,0,0,0,0,-1,1749,1730,0,0
532,-706,0,0,0,0,0,0,0,0,0,-1,1756,1730,0,0
539,-706,0,0,0,0,0,0,0,0,0,-1,1763,1730,0,0
546,-706,0,0,0,0,0,0,0,0,0,-1,1770,1730,0,0
553,-706,0,0,0,0,0,0,0,0,0,-1,1777,1730,0,0
560,-706,0,0,0,0,0,0,0,0,0,-1,1784,1730,0,0
567,-706,0,0,0,0,0,0,0,0,0,-1,1791,1730,0,0
574,-706,0,0,0,0,0,0,0,0,0,-1,1798,1730,0,0
581,-706,0,0,0,0,0,0,0,0,0,-1,1805,1730,0,0
588,-706,0,0,0,0,0,0,0,0,0,-1,1812,1730,0,0
595,-706,0,0,0,0,0,0,0,0,0,-1,1819,1730,0,0
602,-706,0,0,0,0,0,0,0,0,0,-1,1826,1730,0,0
609,-706,0,0,0,0,0,0,0,0,0,-1,1833,1730,0,0
616,-706,0,0,0,0,0,0,0,0,0,-1,1840,1730,0,0
623,-706,0,0,0,0,0,0,0,0,0,-1,1847,1730,0,0
630,-706,0,0,0,0,0,0,0,0,0,-1,1854,1730,0,0
637,-706,0,0,0,0,0,0,0,0,0,-1,1861,1730,0,0
644,-706,0,0,0,0,0,0,0,0,0,-1,1868,1730,0,0
651,-706,0,0,0,0,0,0,0,0,0,-1,1875,1730,0,0
658,-706,0,0,0,0,0,0,0,0,0,-1,1882,1730,0,0
665,-706,0,0,0,0,0,0,0,0,0,-1,1889,1730,0,0
672,-706,0,0,0,0,0,0,0,0,0,-1,1896,1730,0,0
679,-706,0,0,0,0,0,0,0,0,0,-1,1903,1730,0,0
686,-706,0,0,0,0,0,0,0,0,0,-1,1910,1730,0,0
693,-706,0,0,0,0,0,0,0,0,0,-1,1917,1730,0,0
700,-706,0,0,0,0,0,0,0,0,0,-1,1924,1730,0,0
707,-706,0,0,0,0,0,0,0,0,0,-1,1931,1730,0,0
714,-706,0,0,0,0,0,0,0,0,0,-1,1938,1730,0,0
721,-706,0,0,0,0,0,0,0,0,0,-1,1945,1730,0,0
728,-706,0,0,0,0,0,0,0,0,0,-1,1952,1730,0,0
735,-706,0,0,0,0,0,0,0,0,0,-1,1959,1730,0,0
742,-706,0,0,0,0,0,0,0,0,0,-1,1966,1730,0,0
749,-706,0,0,0,0,0,0,0,0,0,-1,1973,1730,0,0
756,-706,0,0,0,0,0,0,0,0,0,-1,1980,1730,0,0
763,-706,0,0,0,0,0,0,0,0,0,-1,1987,1730,0,0
770,-706,0,0,0,0,0,0,0,0,0,-1,1994,1730,0,0
777,-706,0,0,0,0,0,0,0,0,0,-1,2001,1730,0,0
784,-706,0,0,0,0,0,0,0,0,0,-1,2008,1730,0,0
791,-706,0,0,0,0,0,0,0,0,0,-1,2015,1730,0,0
798,-706,0,0,0,0,0,0,0,0,0,-1,2022,1730,0,0
805,-706,0,0,0,0,0,0,0,0,0,-1,2029,1730,0,0
812,-706,0,0,0,0,0,0,0,0,0,-1,2036,1730,0,0
-700,-713,0,0,0,0,0,0,0,0,0,-1,524,1737,0,0
-693,-713,0,0,0,0,0,0,0,0,0,-1,531,1737,0,0
-686,-713,0,0,0,0,0,0,0,0,0,-1,538,1737,0,0
-679,-713,0,0,0,0,0,0,0,0,0,-1,545,1737,0,0
-672,-713,0,0,0,0,0,0,0,0,0,-1,552,1737,0,0
-665,-713,0,0,0,0,0,0,0,0,0,-1,559,1737,0,0
-658,-713,0,0,0,0,0,0,0,0,0,-1,566,1737,0,0
-651,-713,0,0,0,0,0,0,0,0,0,-1,573,1737,0,0
-644,-713,0,0,0,0,0,0,0,0,0,-1,580,1737,0,0
-637,-713,0,0,0,0,0,0,0,0,0,-1,587,1737,0,0
-630,-713,0,0,0,0,0,0,0,0,0,-1,594,1737,0,0
-623,-713,0,0,0,0,0,0,0,0,0,-1,601,1737,0,0
-616,-713,0,0,0,0,0,0,0,0,0,-1,608,1737,0,0
-609,-713,0,0,0,0,0,0,0,0,0,-1,615,1737,0,0
-602,-713,0,0,0,0,0,0,0,0,0,-1,622,1737,0,0
-595,-713,0,0,0,0,0,0,0,0,0,-1,629,1737,0,0
-588,-713,0,0,0,0,0,0,0,0,0,-1,636,1737,0,0
-581,-713,0,0,0,0,0,0,0,0,0,-1,643,1737,0,0
-574,-713,0,0,0,0,0,0,0,0,0,-1,650,1737,0,0
-567,-713,0,0,0,0,0,0,0,0,0,-1,657,1737,0,0
-560,-713,0,0,0,0,0,0,0,0,0,-1,664,1737,0,0
-553,-713,0,0,0,0,0,0,0,0,0,-1,671,1737,0,0
-546,-713,0,0,0,0,0,0,0,0,0,-1,678,1737,0,0
-539,-713,0,0,0,0,0,0,0,0,0,-1,685,1737,0,0
-532,-713,0,0,0,0,0,0,0,0,0,-1,692,1737,0,0
-525,-713,0,0,0,0,0,0,0,0,0,-1,699,1737,0,0
-518,-713,0,0,0,0,0,0,0,0,0,-1,706,1737,0,0
-511,-713,0,0,0,0,0,0,0,0,0,-1,713,1737,0,0
-504,-713,0,0,0,0,0,0,0,0,0,-1,720,1737,0,0
-497,-713,0,0,0,0,0,0,0,0,0,-1,727,1737,0,0
-490,-713,0,0,0,0,0,0,0,0,0,-1,734,1737,0,0
-483,-713,0,0,0,0,0,0,0,0,0,-1,741,1737,0,0
-476,-713,0,0,0,0,0,0,0,0,0,-1,748,1737,0,0
-469,-713,0,0,0,0,0,0,0,0,0,-1,755,1737,0,0
-462,-713,0,0,0,0,0,0,0,0,0,-1,762,1737,0,0
-455,-713,0,0,0,0,0,0,0,0,0,-1,769,1737,0,0
-448,-713,0,0,0,0,0,0,0,0,0,-1,776,1737,0,0
-441,-713,0,0,0,0,0,0,0,0,0,-1,783,1737,0,0
-434,-713,0,0,0,0,0,0,0,0,0,-1,790,1737,0,0
-427,-713,0,0,0,0,0,0,0,0,0,-1,797,1737,0,0
-420,-713,0,0,0,0,0,0,0,0,0,-1,804,1737,0,0
-413,-713,0,0,0,0,0,0,0,0,0,-1,811,1737,0,0
-406,-713,0,0,0,0,0,0,0,0,0,-1,818,1737,0,0
-399,-713,0,0,0,0,0,0,0,0,0,-1,825,1737,0,0
-392,-713,0,0,0,0,0,0,0,0,0,-1,832,1737,0,0
-385,-713,0,0,0,0,0,0,0,0,0,-1,839,1737,0,0
-378,-713,0,0,0,0,0,0,0,0,0,-1,846,1737,0,0
-371,-713,0,0,0,0,0,0,0,0,0,-1,853,1737,0,0
-364,-713,0,0,0,0,0,0,0,0,0,-1,860,1737,0,0
-357,-713,0,0,0,0,0,0,0,0,0,-1,867,1737,0,0
-350,-713,0,0,0,0,0,0,0,0,0,-1,874,1737,0,0
-343,-713,0,0,0,0,0,0,0,0,0,-1,881,1737,0,0
-336,-713,0,0,0,0,0,0,0,0,0,-1,888,1737,0,0
-329,-713,0,0,0,0,0,0,0,0,0,-1,895,1737,0,0
-322,-713,0,0,0,0,0,0,0,0,0,-1,902,1737,0,0
-315,-713,0,0,0,0,0,0,0,0,0,-1,909,1737,0,0
-308,-713,0,0,0,0,0,0,0,0,0,-1,916,1737,0,0
-301,-713,0,0,0,0,0,0,0,0,0,-1,923,1737,0,0
-294,-713,7.17883,22.0453,0,0,0,0,0,0,0,-1,930,1737,7.17881,-22.0453
-287,-713,11.8916,21.5834,0,0,0,0,0,0,0,-1,937,1737,11.8916,-21.5833
-280,-713,10.2786,21.3551,0,0,0,0,0,0,0,-1,944,1737,10.2787,-21.3551
-273,-713,11.1981,23.8683,0,0,0,0,0,0,0,-1,951,1737,11.198,-23.8683
-266,-713,3.17981,19.8851,0,0,0,0,0,0,0,-1,958,1737,3.17983,-19.8851
-259,-713,3.5921,19.6868,0,0,0,0,0,0,0,-1,965,1737,3.59207,-19.6868
-252,-713,4.55469,20.5758,0,0,0,0,0,0,0,-1,972,1737,4.55466,-20.5758
-245,-713,3.89014,25.9825,0,0,0,0,0,0,0,-1,979,1737,3.89013,-25.9826
-238,-713,6.62506,30.5463,0,0,0,0,0,0,0,-1,986,1737,6.62509,-30.5462
-231,-713,7.31439,35.574,0,0,0,0,0,0,0,-1,993,1737,7.31436,-35.574
-224,-713,8.51831,39.5012,0,0,0,0,0,0,0,-1,1000,1737,8.5183,-39.5012
-217,-713,9.22125,39.8771,0,0,0,0,0,0,0,-1,1007,1737,9.22124,-39.877
-210,-713,9.15656,40.4583,0,0,0,0,0,0,0,-1,1014,1737,9.15656,-40.4582
-203,-713,8.53735,40.9048,0,0,0,0,0,0,0,-1,1021,1737,8.5373,-40.9047
-196,-713,8.49084,41.4318,0.0285912,0.00293115,0.0267405,0.0454203,-0.013898,0.561721,0.0358231,0.0487876,1028,1737,8.49082,-41.4318
-189,-713,8.4574,41.764,0.0284377,0.00108737,0.0259863,0.0441275,-0.0146023,0.543186,0.0353071,0.0424557,1035,1737,8.45739,-41.7641
-182,-713,8.55078,42.1743,0.0274651,-0.000272576,0.0247736,0.0419877,-0.0147953,0.530222,0.0340136,0.0284114,1042,1737,8.5508,-42.1743
-175,-713,8.73511,42.5712,0.0257586,-0.0012148,0.0230898,0.0390119,-0.0144681,0.521076,0.0319422,0.02791,1049,1737,8.73505,-42.5711
-168,-713,8.87927,42.9841,0.0231816,-0.00182943,0.0208546,0.0349928,-0.0136406,0.515316,0.0289666,0.0349423,1056,1737,8.87924,-42.9841
-161,-713,8.75464,43.4652,0.0200211,-0.00201485,0.0182812,0.0303478,-0.0123416,0.514199,0.0253671,0.0158088,1063,1737,8.75467,-43.4652
-154,-713,8.6731,43.8247,0.0163961,-0.00178955,0.0154885,0.0252636,-0.010657,0.519969,0.0213027,0.0118636,1070,1737,8.67309,-43.8247
-147,-713,8.64124,44.2078,0.0127668,-0.00132978,0.0127362,0.0202749,-0.00883792,0.532672,0.0172352,0.0185661,1077,1737,8.64129,-44.2077
-140,-713,8.64795,44.598,0.00943116,-0.000795489,0.0100822,0.0156226,-0.00698688,0.550717,0.0133672,0.0182381,1084,1737,8.64792,-44.598
-133,-713,8.60864,44.9022,0.00644006,-0.000296714,0.00776757,0.0115381,-0.0053948,0.580812,0.00998841,0.0119909,1091,1737,8.60865,-44.9022
-126,-713,8.59583,45.2076,0.00388481,0.000398226,0.00576,0.00815955,-0.00387651,0.638453,0.00709417,0.0176147,1098,1737,8.59586,-45.2077
-119,-713,8.58105,45.5236,0.000793034,0.000619902,0.00361342,0.00432093,-0.00290799,0.773422,0.00420011,0.0260582,1105,1737,8.58103,-45.5236
-112,-713,8.5592,45.8776,-0.00102663,0.000973564,0.00222037,0.00240867,-0.00246173,0.996999,0.00281199,0.0143195,1112,1737,8.55923,-45.8776
-105,-713,8.55518,46.1841,-0.000725166,0.0015468,0.00184663,0.00257887,-0.00175724,1.06115,0.0025184,0.0114416,1119,1737,8.55514,-46.1841
-98,-713,8.53772,46.4645,-0.000421401,0.00157342,0.00166781,0.00251931,-0.00136729,1.05489,0.00227655,0.00997962,1126,1737,8.53766,-46.4645
-91,-713,8.50354,46.7295,-5.80908e-05,0.00161807,0.00146905,0.00247129,-0.000911311,1.04462,0.00202099,0.00958902,1133,1737,8.50354,-46.7295
-84,-713,8.48145,47.0005,0.000352844,0.00156724,0.00128759,0.00238362,-0.000463534,1.00572,0.00176401,0.00956091,1140,1737,8.48147,-47.0005
-77,-713,8.49622,47.2743,0.000810321,0.00150884,0.000991244,0.00221055,0.000108606,0.954779,0.00143887,0.0134355,1147,1737,8.49616,-47.2743
-70,-713,8.48291,47.5251,0.00113794,0.00129241,0.000641969,0.00186178,0.000568579,0.845267,0.0011017,0.0154261,1154,1737,8.48287,-47.5252
-63,-713,8.47498,47.7545,0.00153525,0.0013332,0.000253634,0.00170724,0.00116121,0.595874,0.00100678,0.0133411,1161,1737,8.47495,-47.7546
-56,-713,8.50037,47.9785,0.00212468,0.00161579,0.000225217,0.00221004,0.00153043,0.362267,0.0013071,0.0128271,1168,1737,8.50038,-47.9785
-49,-713,8.47266,48.2008,0.00271935,0.00208472,0.000259947,0.00281223,0.00199184,0.343173,0.00166994,0.0152715,1175,1737,8.47263,-48.2008
-42,-713,8.48987,48.394,0.00335836,0.00323465,0.000219467,0.00352452,0.00306849,0.64804,0.00221339,0.0185171,1182,1737,8.48985,-48.394
-35,-713,8.53064,48.5599,0.00409195,0.00454275,0.000282992,0.00467914,0.00395557,1.12169,0.00290839,0.0147588,1189,1737,8.53067,-48.5599
-28,-713,8.56738,48.7407,0.00463487,0.00594342,0.000406252,0.00605929,0.004519,1.29297,0.00363651,0.0138799,1196,1737,8.56743,-48.7407
-21,-713,8.53906,48.912,0.00506022,0.00751212,0.000579601,0.00764222,0.00493011,1.34998,0.00447375,0.0106194,1203,1737,8.53907,-48.912
-14,-713,8.56128,49.0414,0.00549158,0.00908697,0.000779882,0.00924885,0.0053297,1.36614,0.00536049,0.0115577,1210,1737,8.56125,-49.0414
-7,-713,8.59705,49.1863,0.00580718,0.0106275,0.000960443,0.0108118,0.00562286,1.38119,0.0062439,0.0101545,1217,1737,8.59711,-49.1863
0,-713,8.62354,49.3197,0.00606304,0.0122909,0.00113619,0.0124917,0.00586223,1.39587,0.00721664,0.0147452,1224,1737,8.62355,-49.3197
7,-713,8.64563,49.422,0.00613648,0.0136431,0.00122242,0.0138371,0.00594243,1.41337,0.00801534,0.0176702,1231,1737,8.64563,-49.422
14,-713,8.66736,49.5194,0.00621876,0.0145608,0.00104131,0.0146888,0.00609074,1.44847,0.00852169,0.0130957,1238,1737,8.66738,-49.5194
21,-713,8.69214,49.6151,0.00622162,0.0151017,0.000866931,0.0151855,0.00613778,1.47438,0.00882086,0.0114427,1245,1737,8.69209,-49.6151
28,-713,8.71326,49.7114,0.00626722,0.0147807,0.000839926,0.0148628,0.00618515,1.47339,0.00862115,0.0121152,1252,1737,8.7132,-49.7115
35,-713,8.73828,49.7689,0.00634057,0.0138634,0.000821961,0.0139522,0.0062518,1.46323,0.00806974,0.0114759,1259,1737,8.73833,-49.7689
42,-713,8.77844,49.8018,0.00617687,0.0123524,0.00112254,0.0125501,0.00597915,1.39645,0.00724848,0.0117661,1266,1737,8.77841,-49.8017
49,-713,8.802,49.8087,0.00592526,0.0105522,0.00130436,0.0108945,0.00558289,1.3141,0.00629062,0.0134828,1273,1737,8.80195,-49.8087
56,-713,8.81836,49.8364,0.00593589,0.00865229,0.00193897,0.00966143,0.00492675,1.09092,0.0055784,0.0146553,1280,1737,8.81833,-49.8364
63,-713,8.84473,49.854,0.00593412,0.0067071,0.00297554,0.00932114,0.00332008,0.849982,0.00545526,0.0145257,1287,1737,8.84478,-49.854
70,-713,8.88025,49.8627,0.00601756,0.00574379,0.00420895,0.0100919,0.0016695,0.769143,0.00624622,0.0131909,1294,1737,8.8802,-49.8626
77,-713,8.91626,49.8613,0.00634602,0.00580459,0.00560476,0.0116866,0.000464012,0.761267,0.00764109,0.0130567,1301,1737,8.91628,-49.8613
84,-713,8.94385,49.8456,0.00693066,0.00600159,0.00720826,0.0136893,-0.000757087,0.75322,0.00938877,0.0133194,1308,1737,8.94388,-49.8455
91,-713,8.96179,49.8036,0.00777869,0.00754501,0.00862345,0.0162861,-0.000962387,0.778624,0.011192,0.0132401,1315,1737,8.96184,-49.8036
98,-713,8.98804,49.744,0.00833526,0.00899964,0.00980412,0.0184772,-0.0011423,0.802333,0.012716,0.0123695,1322,1737,8.98798,-49.744
105,-713,9.01306,49.6802,0.00898702,0.0105821,0.0107504,0.0205645,-0.000995368,0.822424,0.0140532,0.0143608,1329,1737,9.01306,-49.6802
112,-713,9.02747,49.6146,0.00979193,0.0122405,0.0114311,0.0225127,-0.000480277,0.838745,0.0151711,0.0149219,1336,1737,9.02743,-49.6146
119,-713,9.05298,49.5249,0.0104199,0.0137404,0.0118746,0.0240703,8.99816e-05,0.854855,0.0160169,0.0152529,1343,1737,9.05303,-49.5249
126,-713,9.07776,49.4314,0.0109023,0.0147358,0.0116461,0.0246218,0.00101626,0.866959,0.0160865,0.0141454,1350,1737,9.07779,-49.4314
133,-713,9.11011,49.2742,0.0110577,0.0152744,0.0110437,0.0244092,0.0019229,0.879719,0.0156712,0.0127446,1357,1737,9.11016,-49.2741
140,-713,9.1571,49.116,0.0108136,0.0149696,0.0100533,0.0231574,0.00262582,0.887314,0.0146417,0.0133726,1364,1737,9.15705,-49.1159
147,-713,9.15942,48.9656,0.0102873,0.0139149,0.00879755,0.0210837,0.0031185,0.88706,0.0131402,0.0146373,1371,1737,9.15947,-48.9656
154,-713,9.14636,48.8409,0.00939176,0.0122377,0.00740346,0.0183537,0.00327578,0.880343,0.0113032,0.0147158,1378,1737,9.1464,-48.841
161,-713,9.19055,48.6407,0.00807162,0.0101973,0.00579833,0.0150294,0.00323953,0.876042,0.00913331,0.0108257,1385,1737,9.19052,-48.6408
168,-713,9.20044,48.4459,0.00663547,0.00790003,0.00423763,0.0115523,0.00298321,0.859455,0.00692474,0.010468,1392,1737,9.2005,-48.4459
175,-713,9.22266,48.27,0.00521757,0.0054642,0.00273825,0.00808191,0.00259986,0.8079,0.00476397,0.0128544,1399,1737,9.2227,-48.2701
182,-713,9.22546,48.0718,0.00378919,0.00299134,0.0013676,0.00481486,0.00196567,0.643488,0.00279542,0.0116038,1406,1737,9.22547,-48.0718
189,-713,9.22131,47.8336,0.0022895,0.00199675,0.000266033,0.00244677,0.00183948,0.533892,0.00147114,0.0108902,1413,1737,9.22129,-47.8336
196,-713,9.2428,47.6184,0.000982567,0.00112466,-0.000250427,0.00131392,0.000793304,-0.923617,0.000764021,0.0125943,1420,1737,9.24275,-47.6184
203,-713,9.26245,47.4011,0.000761918,0.00134606,-0.00042935,0.00157327,0.000534714,-1.08408,0.000923721,0.0174134,1427,1737,9.26246,-47.4012
210,-713,9.25427,47.1329,0.000550758,0.00166662,-0.000658129,0.00197149,0.000245891,-1.13699,0.00124051,0.0132369,1434,1737,9.25425,-47.1329
217,-713,9.2439,46.8705,0.000262709,0.00177891,-0.000947299,0.0022341,-0.000192489,-1.12285,0.00155754,0.0102495,1441,1737,9.24391,-46.8704
224,-713,9.21497,46.6036,-4.96442e-05,0.00193898,-0.00123005,0.00252634,-0.000637004,-1.1253,0.00193189,0.0120637,1448,1737,9.215,-46.6036
231,-713,9.21448,46.3297,-0.000471806,0.00199505,-0.00143557,0.00265429,-0.00113105,-1.1403,0.00224368,0.0116754,1455,1737,9.21442,-46.3297
238,-713,9.20264,46.0359,-0.000734003,0.00203562,-0.00160679,0.002772,-0.00147039,-1.14106,0.00248747,0.00884798,1462,1737,9.20266,-46.0359
245,-713,9.19092,45.7354,-0.00101145,0.00207705,-0.00180141,0.00290552,-0.00183992,-1.13974,0.00276271,0.0115102,1469,1737,9.19087,-45.7353
252,-713,9.19934,45.4208,-0.00137746,0.00205655,-0.00193324,0.00292519,-0.00224609,-1.14851,0.00299421,0.011871,1476,1737,9.19928,-45.4208
259,-713,9.21875,45.0895,-0.00171764,0.00164915,-0.00191917,0.0025186,-0.00258709,-1.14542,0.00294786,0.0129236,1483,1737,9.21871,-45.0894
266,-713,9.17041,44.7882,-0.00192801,0.00123743,-0.00200068,0.00220574,-0.00289631,-1.12004,0.00295465,0.0120156,1490,1737,9.1704,-44.7882
273,-713,9.12024,44.4637,-0.00184507,0.00141592,-0.00248577,0.00275823,-0.00318738,-1.07566,0.00343568,0.00978554,1497,1737,9.12025,-44.4638
280,-713,9.08948,44.1063,-0.0018129,0.00134624,-0.00283521,0.0030122,-0.00347886,-1.03955,0.00375084,0.0104066,1504,1737,9.0895,-44.1063
287,-713,9.07922,43.7515,-0.00169253,0.00170432,-0.00332707,0.0037414,-0.00372961,-1.0214,0.0043134,0.011336,1511,1737,9.07918,-43.7515
294,-713,9.06921,43.4049,-0.00135749,0.00200964,-0.00396478,0.0046335,-0.00398135,-0.986177,0.00497853,0.0155964,1518,1737,9.06923,-43.405
301,-713,9.02197,43.0146,-0.000767443,0.0027436,-0.00454362,0.00585905,-0.00388289,-0.969749,0.00566296,0.0172087,1525,1737,9.02203,-43.0146
308,-713,8.9989,42.6434,-0.000278339,0.0035538,-0.00530704,0.00728007,-0.00400461,-0.958637,0.00660607,0.0191073,1532,1737,8.99891,-42.6435
315,-713,9.00574,42.316,-0.000134475,0.0045776,-0.00576847,0.00845262,-0.0040095,-0.979276,0.00734586,0.0268889,1539,1737,9.00573,-42.316
322,-713,9.24133,41.4307,0.00020689,0.00610207,-0.00631436,0.0101229,-0.00381398,-1.00377,0.00831676,0.0424338,1546,1737,9.24137,-41.4307
329,-713,9.1167,41.2766,0,0,0,0,0,0,0,-1,1553,1737,9.11675,-41.2767
336,-713,9.06274,40.7319,0,0,0,0,0,0,0,-1,1560,1737,9.06273,-40.7319
343,-713,8.18701,39.8011,0,0,0,0,0,0,0,-1,1567,1737,8.18705,-39.8012
350,-713,8.02161,40.0635,0,0,0,0,0,0,0,-1,1574,1737,8.02164,-40.0634
357,-713,8.43701,39.6447,0,0,0,0,0,0,0,-1,1581,1737,8.43698,-39.6447
364,-713,7.35474,20.9537,0,0,0,0,0,0,0,-1,1588,1737,7.35472,-20.9537
371,-713,3.07507,25.4108,0,0,0,0,0,0,0,-1,1595,1737,3.07502,-25.4107
378,-713,5.16516,38.248,0,0,0,0,0,0,0,-1,1602,1737,5.16511,-38.248
385,-713,5.6416,36.8367,0,0,0,0,0,0,0,-1,1609,1737,5.64155,-36.8367
392,-713,5.11096,36.6809,0,0,0,0,0,0,0,-1,1616,1737,5.11091,-36.6809
399,-713,4.47375,36.4706,0,0,0,0,0,0,0,-1,1623,1737,4.47376,-36.4706
406,-713,2.30334,27.5551,0,0,0,0,0,0,0,-1,1630,1737,2.30332,-27.555
413,-713,1.1001,29.3845,0,0,0,0,0,0,0,-1,1637,1737,1.10012,-29.3846
420,-713,0,0,0,0,0,0,0,0,0,-1,1644,1737,0,0
427,-713,0,0,0,0,0,0,0,0,0,-1,1651,1737,0,0
434,-713,0,0,0,0,0,0,0,0,0,-1,1658,1737,0,0
441,-713,0,0,0,0,0,0,0,0,0,-1,1665,1737,0,0
448,-713,0,0,0,0,0,0,0,0,0,-1,1672,1737,0,0
455,-713,0,0,0,0,0,0,0,0,0,-1,1679,1737,0,0
462,-713,0,0,0,0,0,0,0,0,0,-1,1686,1737,0,0
469,-713,0,0,0,0,0,0,0,0,0,-1,1693,1737,0,0
476,-713,0,0,0,0,0,0,0,0,0,-1,1700,1737,0,0
483,-713,0,0,0,0,0,0,0,0,0,-1,1707,1737,0,0
490,-713,0,0,0,0,0,0,0,0,0,-1,1714,1737,0,0
497,-713,0,0,0,0,0,0,0,0,0,-1,1721,1737,0,0
504,-713,0,0,0,0,0,0,0,0,0,-1,1728,1737,0,0
511,-713,0,0,0,0,0,0,0,0,0,-1,1735,1737,0,0
518,-713,0,0,0,0,0,0,0,0,0,-1,1742,1737,0,0
525,-713,0,0,0,0,0,0,0,0,0,-1,1749,1737,0,0
532,-713,0,0,0,0,0,0,0,0,0,-1,1756,1737,0,0
539,-713,0,0,0,0,0,0,0,0,0,-1,1763,1737,0,0
546,-713,0,0,0,0,0,0,0,0,0,-1,1770,1737,0,0
553,-713,0,0,0,0,0,0,0,0,0,-1,1777,1737,0,0
560,-713,0,0,0,0,0,0,0,0,0,-1,1784,1737,0,0
567,-713,0,0,0,0,0,0,0,0,0,-1,1791,1737,0,0
574,-713,0,0,0,0,0,0,0,0,0,-1,1798,1737,0,0
581,-713,0,0,0,0,0,0,0,0,0,-1,1805,1737,0,0
588,-713,0,0,0,0,0,0,0,0,0,-1,1812,1737,0,0
595,-713,0,0,0,0,0,0,0,0,0,-1,1819,1737,0,0
602,-713,0,0,0,0,0,0,0,0,0,-1,1826,1737,0,0
609,-713,0,0,0,0,0,0,0,0,0,-1,1833,1737,0,0
616,-713,0,0,0,0,0,0,0,0,0,-1,1840,1737,0,0
623,-713,0,0,0,0,0,0,0,0,0,-1,1847,1737,0,0
630,-713,0,0,0,0,0,0,0,0,0,-1,1854,1737,0,0
637,-713,0,0,0,0,0,0,0,0,0,-1,1861,1737,0,0
644,-713,0,0,0,0,0,0,0,0,0,-1,1868,1737,0,0
651,-713,0,0,0,0,0,0,0,0,0,-1,1875,1737,0,0
658,-713,0,0,0,0,0,0,0,0,0,-1,1882,1737,0,0
665,-713,0,0,0,0,0,0,0,0,0,-1,1889,1737,0,0
672,-713,0,0,0,0,0,0,0,0,0,-1,1896,1737,0,0
679,-713,0,0,0,0,0,0,0,0,0,-1,1903,1737,0,0
686,-713,0,0,0,0,0,0,0,0,0,-1,1910,1737,0,0
693,-713,0,0,0,0,0,0,0,0,0,-1,1917,1737,0,0
700,-713,0,0,0,0,0,0,0,0,0,-1,1924,1737,0,0
707,-713,0,0,0,0,0,0,0,0,0,-1,1931,1737,0,0
714,-713,0,0,0,0,0,0,0,0,0,-1,1938,1737,0,0
721,-713,0,0,0,0,0,0,0,0,0,-1,1945,1737,0,0
728,-713,0,0,0,0,0,0,0,0,0,-1,1952,1737,0,0
735,-713,0,0,0,0,0,0,0,0,0,-1,1959,1737,0,0
742,-713,0,0,0,0,0,0,0,0,0,-1,1966,1737,0,0
749,-713,0,0,0,0,0,0,0,0,0,-1,1973,1737,0,0
756,-713,0,0,0,0,0,0,0,0,0,-1,1980,1737,0,0
763,-713,0,0,0,0,0,0,0,0,0,-1,1987,1737,0,0
770,-713,0,0,0,0,0,0,0,0,0,-1,1994,1737,0,0
777,-713,0,0,0,0,0,0,0,0,0,-1,2001,1737,0,0
784,-713,0,0,0,0,0,0,0,0,0,-1,2008,1737,0,0
791,-713,0,0,0,0,0,0,0,0,0,-1,2015,1737,0,0
798,-713,0,0,0,0,0,0,0,0,0,-1,2022,1737,0,0
805,-713,0,0,0,0,0,0,0,0,0,-1,2029,1737,0,0
812,-713,0,0,0,0,0,0,0,0,0,-1,2036,1737,0,0
-700,-720,0,0,0,0,0,0,0,0,0,-1,524,1744,0,0
-693,-720,0,0,0,0,0,0,0,0,0,-1,531,1744,0,0
-686,-720,0,0,0,0,0,0,0,0,0,-1,538,1744,0,0
-679,-720,0,0,0,0,0,0,0,0,0,-1,545,1744,0,0
-672,-720,0,0,0,0,0,0,0,0,0,-1,552,1744,0,0
-665,-720,0,0,0,0,0,0,0,0,0,-1,559,1744,0,0
-658,-720,0,0,0,0,0,0,0,0,0,-1,566,1744,0,0
-651,-720,0,0,0,0,0,0,0,0,0,-1,573,1744,0,0
-644,-720,0,0,0,0,0,0,0,0,0,-1,580,1744,0,0
-637,-720,0,0,0,0,0,0,0,0,0,-1,587,1744,0,0
-630,-720,0,0,0,0,0,0,0,0,0,-1,594,1744,0,0
-623,-720,0,0,0,0,0,0,0,0,0,-1,601,1744,0,0
-616,-720,0,0,0,0,0,0,0,0,0,-1,608,1744,0,0
-609,-720,0,0,0,0,0,0,0,0,0,-1,615,1744,0,0
-602,-720,0,0,0,0,0,0,0,0,0,-1,622,1744,0,0
-595,-720,0,0,0,0,0,0,0,0,0,-1,629,1744,0,0
-588,-720,0,0,0,0,0,0,0,0,0,-1,636,1744,0,0
-581,-720,0,0,0,0,0,0,0,0,0,-1,643,1744,0,0
-574,-720,0,0,0,0,0,0,0,0,0,-1,650,1744,0,0
-567,-720,0,0,0,0,0,0,0,0,0,-1,657,1744,0,0
-560,-720,0,0,0,0,0,0,0,0,0,-1,664,1744,0,0
-553,-720,0,0,0,0,0,0,0,0,0,-1,671,1744,0,0
-546,-720,0,0,0,0,0,0,0,0,0,-1,678,1744,0,0
-539,-720,0,0,0,0,0,0,0,0,0,-1,685,1744,0,0
-532,-720,0,0,0,0,0,0,0,0,0,-1,692,1744,0,0
-525,-720,0,0,0,0,0,0,0,0,0,-1,699,1744,0,0
-518,-720,0,0,0,0,0,0,0,0,0,-1,706,1744,0,0
-511,-720,0,0,0,0,0,0,0,0,0,-1,713,1744,0,0
-504,-720,0,0,0,0,0,0,0,0,0,-1,720,1744,0,0
-497,-720,0,0,0,0,0,0,0,0,0,-1,727,1744,0,0
-490,-720,0,0,0,0,0,0,0,0,0,-1,734,1744,0,0
-483,-720,0,0,0,0,0,0,0,0,0,-1,741,1744,0,0
-476,-720,0,0,0,0,0,0,0,0,0,-1,748,1744,0,0
-469,-720,0,0,0,0,0,0,0,0,0,-1,755,1744,0,0
-462,-720,0,0,0,0,0,0,0,0,0,-1,762,1744,0,0
-455,-720,0,0,0,0,0,0,0,0,0,-1,769,1744,0,0
-448,-720,0,0,0,0,0,0,0,0,0,-1,776,1744,0,0
-441,-720,0,0,0,0,0,0,0,0,0,-1,783,1744,0,0
-434,-720,0,0,0,0,0,0,0,0,0,-1,790,1744,0,0
-427,-720,0,0,0,0,0,0,0,0,0,-1,797,1744,0,0
-420,-720,0,0,0,0,0,0,0,0,0,-1,804,1744,0,0
-413,-720,0,0,0,0,0,0,0,0,0,-1,811,1744,0,0
-406,-720,0,0,0,0,0,0,0,0,0,-1,818,1744,0,0
-399,-720,0,0,0,0,0,0,0,0,0,-1,825,1744,0,0
-392,-720,0,0,0,0,0,0,0,0,0,-1,832,1744,0,0
-385,-720,0,0,0,0,0,0,0,0,0,-1,839,1744,0,0
-378,-720,0,0,0,0,0,0,0,0,0,-1,846,1744,0,0
-371,-720,0,0,0,0,0,0,0,0,0,-1,853,1744,0,0
-364,-720,0,0,0,0,0,0,0,0,0,-1,860,1744,0,0
-357,-720,0,0,0,0,0,0,0,0,0,-1,867,1744,0,0
-350,-720,0,0,0,0,0,0,0,0,0,-1,874,1744,0,0
-343,-720,0,0,0,0,0,0,0,0,0,-1,881,1744,0,0
-336,-720,0,0,0,0,0,0,0,0,0,-1,888,1744,0,0
-329,-720,0,0,0,0,0,0,0,0,0,-1,895,1744,0,0
-322,-720,0,0,0,0,0,0,0,0,0,-1,902,1744,0,0
-315,-720,0,0,0,0,0,0,0,0,0,-1,909,1744,0,0
-308,-720,0,0,0,0,0,0,0,0,0,-1,916,1744,0,0
-301,-720,0,0,0,0,0,0,0,0,0,-1,923,1744,0,0
-294,-720,0,0,0,0,0,0,0,0,0,-1,930,1744,0,0
-287,-720,0,0,0,0,0,0,0,0,0,-1,937,1744,0,0
-280,-720,6.46796,22.6417,0,0,0,0,0,0,0,-1,944,1744,6.46793,-22.6417
-273,-720,8.54633,13.262,0,0,0,0,0,0,0,-1,951,1744,8.54636,-13.2619
-266,-720,7.28027,13.3165,0,0,0,0,0,0,0,-1,958,1744,7.28026,-13.3166
-259,-720,3.70563,18.6372,0,0,0,0,0,0,0,-1,965,1744,3.70564,-18.6372
-252,-720,4.00989,18.5059,0,0,0,0,0,0,0,-1,972,1744,4.00988,-18.5058
-245,-720,7.05634,33.8489,0,0,0,0,0,0,0,-1,979,1744,7.05634,-33.8489
-238,-720,5.02216,24.1455,0,0,0,0,0,0,0,-1,986,1744,5.02217,-24.1455
-231,-720,7.35455,28.3225,0,0,0,0,0,0,0,-1,993,1744,7.35453,-28.3225
-224,-720,9.2887,38.2468,0,0,0,0,0,0,0,-1,1000,1744,9.28869,-38.2468
-217,-720,8.88116,39.9061,0,0,0,0,0,0,0,-1,1007,1744,8.88116,-39.9061
-210,-720,8.74036,38.6686,0,0,0,0,0,0,0,-1,1014,1744,8.74035,-38.6686
-203,-720,7.89978,34.8447,0,0,0,0,0,0,0,-1,1021,1744,7.89975,-34.8447
-196,-720,8.47021,41.5563,0,0,0,0,0,0,0,-1,1028,1744,8.47016,-41.5562
-189,-720,7.83826,42.1703,0,0,0,0,0,0,0,-1,1035,1744,7.83823,-42.1703
-182,-720,8.16846,42.5549,0.0452709,0.0065837,0.0382535,0.0687934,-0.0169388,0.551312,0.0524288,0.0404906,1042,1744,8.1684,-42.5549
-175,-720,8.55762,42.8573,0.0419483,0.00474275,0.0354318,0.0633639,-0.0166729,0.543662,0.0487599,0.0407409,1049,1744,8.55767,-42.8573
-168,-720,8.90527,43.1021,0.037572,0.00331095,0.0319499,0.0566941,-0.0158111,0.539317,0.0440233,0.045475,1056,1744,8.90531,-43.1021
-161,-720,8.88989,43.4495,0.0324952,0.00244467,0.028087,0.0493233,-0.0143834,0.539789,0.038581,0.0336409,1063,1744,8.88991,-43.4495
-154,-720,9.04382,43.9025,0.0267847,0.00201057,0.0239506,0.0413619,-0.0125666,0.546744,0.0325815,0.0241959,1070,1744,9.04387,-43.9025
-147,-720,8.99255,44.298,0.0210809,0.00183207,0.0198757,0.0335398,-0.0106269,0.559922,0.0266189,0.0221619,1077,1744,8.99258,-44.2979
-140,-720,8.98413,44.6552,0.0157654,0.00178192,0.0159632,0.0262009,-0.0086536,0.578987,0.0209561,0.018582,1084,1744,8.98418,-44.6551
-133,-720,8.92676,44.9255,0.0109481,0.00173789,0.0124928,0.0196576,-0.00697159,0.608815,0.0159453,0.0136732,1091,1744,8.92676,-44.9256
-126,-720,8.90112,45.254,0.00677544,0.0020195,0.00945769,0.0141495,-0.00535458,0.662235,0.0116361,0.0131334,1098,1744,8.90118,-45.2541
-119,-720,8.87744,45.5848,0.0012632,0.00134458,0.00575551,0.00705955,-0.00445176,0.788933,0.00670266,0.0140462,1105,1744,8.87741,-45.5849
-112,-720,8.83801,45.8718,-0.00249318,0.00119704,0.0031784,0.00302707,-0.00432321,1.04838,0.00426562,0.0139683,1112,1744,8.83805,-45.8719
-105,-720,8.81653,46.1755,-0.00218711,0.00213522,0.00272552,0.00345242,-0.00350432,1.12061,0.00401651,0.0131426,1119,1744,8.81655,-46.1756
-98,-720,8.81848,46.4587,-0.00188038,0.00226783,0.0025375,0.00347104,-0.00308359,1.12802,0.00378652,0.00997957,1126,1744,8.81851,-46.4587
-91,-720,8.77283,46.7389,-0.00150217,0.0023998,0.00232409,0.00348324,-0.00258561,1.13457,0.0035166,0.00954599,1133,1744,8.77277,-46.7389
-84,-720,8.74023,47.0251,-0.00103871,0.00237864,0.00214959,0.00341593,-0.002076,1.1212,0.00320207,0.0106463,1140,1744,8.74028,-47.0251
-77,-720,8.73669,47.2957,-0.000548143,0.00221737,0.00183691,0.00313379,-0.00146457,1.10803,0.00271254,0.0135196,1147,1744,8.73668,-47.2956
-70,-720,8.73132,47.5275,-0.000261187,0.001912,0.00140969,0.00260527,-0.000954459,1.11374,0.0021276,0.0115741,1154,1744,8.7313,-47.5275
-63,-720,8.69678,47.761,-0.000171913,0.0015316,0.0010543,0.00203522,-0.000675528,1.12516,0.00162935,0.0106262,1161,1744,8.69681,-47.761
-56,-720,8.71692,47.9819,0.000130897,0.00119953,0.000824045,0.00164733,-0.000316898,1.07303,0.00121768,0.0129417,1168,1744,8.71689,-47.982
-49,-720,8.69897,48.2006,0.000313716,0.00103921,0.00068614,0.00145259,-9.96633e-05,1.02856,0.00100327,0.0201038,1175,1744,8.69893,-48.2006
-42,-720,8.70593,48.3717,0.000587286,0.00118239,0.000682513,0.00162939,0.000140284,0.990959,0.00104265,0.0231155,1182,1744,8.70592,-48.3717
-35,-720,8.71289,48.5533,0.00101052,0.00162633,0.000709006,0.0020914,0.000545446,0.99025,0.00125268,0.0189428,1189,1744,8.71288,-48.5534
-28,-720,8.72998,48.7521,0.0013894,0.00232355,0.000769206,0.00275638,0.000956565,1.05825,0.00161603,0.0109318,1196,1744,8.72998,-48.752
-21,-720,8.71509,48.9353,0.00170556,0.00328754,0.000952517,0.00373468,0.00125842,1.13191,0.0021941,0.00929704,1203,1744,8.71515,-48.9353
-14,-720,8.70313,49.0669,0.00205117,0.00436582,0.00125271,0.00491398,0.00150301,1.15832,0.0029075,0.0111777,1210,1744,8.70311,-49.0669
-7,-720,8.71973,49.2095,0.00237048,0.0053919,0.00155655,0.00605031,0.00171206,1.17062,0.00360117,0.0119976,1217,1744,8.71971,-49.2095
0,-720,8.74377,49.3455,0.00269499,0.00662063,0.00186316,0.00736411,0.00195152,1.19112,0.00440542,0.0125969,1224,1744,8.74378,-49.3455
7,-720,8.75732,49.4481,0.00291691,0.00770416,0.00206418,0.00847127,0.00214979,1.21498,0.00508473,0.0156844,1231,1744,8.7573,-49.4482
14,-720,8.77295,49.5271,0.00313702,0.00848745,0.00204548,0.00917984,0.00244463,1.2444,0.00548956,0.0148297,1238,1744,8.77292,-49.5271
21,-720,8.77161,49.6217,0.00325868,0.00896998,0.00198824,0.00959396,0.0026347,1.26669,0.00572358,0.0114713,1245,1744,8.77162,-49.6217
28,-720,8.7782,49.709,0.0033707,0.00898638,0.00193567,0.00958894,0.00276814,1.26902,0.00569861,0.0114057,1252,1744,8.77825,-49.709
35,-720,8.797,49.772,0.00347394,0.00861636,0.00180168,0.00918477,0.00290554,1.26519,0.00542076,0.0113153,1259,1744,8.79702,-49.772
42,-720,8.81372,49.8083,0.00339249,0.00782678,0.00181339,0.00847392,0.00274536,1.22802,0.00499246,0.0120819,1266,1744,8.81378,-49.8084
49,-720,8.82703,49.821,0.00322067,0.00685698,0.00173712,0.00755344,0.00252421,1.18949,0.0044402,0.0132302,1273,1744,8.82699,-49.8211
56,-720,8.82764,49.8513,0.00323385,0.00584507,0.00188962,0.00683626,0.00224266,1.08771,0.00402396,0.0119769,1280,1744,8.82763,-49.8513
63,-720,8.84424,49.8691,0.00316614,0.0047624,0.00218591,0.00629133,0.00163721,0.960441,0.00376894,0.0134933,1287,1744,8.8442,-49.8692
70,-720,8.87878,49.882,0.00317323,0.00432962,0.00261094,0.00642562,0.00107723,0.894364,0.00397364,0.013017,1294,1744,8.87879,-49.8819
77,-720,8.89551,49.8768,0.00334147,0.00458969,0.00326299,0.00728772,0.000643442,0.879892,0.00465883,0.0142267,1301,1744,8.8955,-49.8768
84,-720,8.91943,49.8264,0.00379879,0.00480364,0.00401925,0.00835175,0.000250689,0.847578,0.00548618,0.0153705,1308,1744,8.91941,-49.8264
91,-720,8.91797,49.7825,0.00446635,0.00594399,0.0046696,0.00993286,0.000477482,0.863857,0.00646862,0.0144616,1315,1744,8.91801,-49.7825
98,-720,8.91199,49.7378,0.00488901,0.00692535,0.00519995,0.0112059,0.000608487,0.882077,0.00727624,0.0126636,1322,1744,8.91202,-49.7378
105,-720,8.93445,49.6694,0.005375,0.00779329,0.00563755,0.0123499,0.00081838,0.891038,0.00797448,0.0120365,1329,1744,8.9344,-49.6694
112,-720,8.95239,49.5869,0.00596633,0.00859644,0.00592565,0.0133512,0.00121156,0.894591,0.00852569,0.0120706,1336,1744,8.95244,-49.587
119,-720,8.97107,49.5093,0.00637594,0.00923646,0.00601229,0.0139863,0.00162612,0.902172,0.00883218,0.0122209,1343,1744,8.97104,-49.5093
126,-720,8.98877,49.4088,0.00663826,0.00951693,0.00565433,0.0139122,0.00224295,0.910028,0.00862495,0.0112928,1350,1744,8.98876,-49.4088
133,-720,8.99524,49.2838,0.00657265,0.00939044,0.00506607,0.0132399,0.00272322,0.921023,0.00807342,0.0128702,1357,1744,8.99528,-49.2838
140,-720,9.02014,49.1644,0.00614826,0.00871834,0.00428431,0.0119062,0.00296043,0.9311,0.00715771,0.0191658,1364,1744,9.02009,-49.1644
147,-720,9.01404,48.9926,0.00548506,0.00757871,0.00339312,0.0100828,0.00298096,0.935023,0.00598119,0.0202153,1371,1744,9.01399,-48.9926
154,-720,8.98938,48.8235,0.00457604,0.00613407,0.00243594,0.00791253,0.00279758,0.940159,0.00463315,0.0133947,1378,1744,8.98934,-48.8235
161,-720,9.02588,48.6371,0.00349258,0.00464681,0.00143445,0.00561589,0.0025235,0.976652,0.00324788,0.00968795,1385,1744,9.02594,-48.637
168,-720,9.02673,48.4612,0.00239072,0.00317599,0.0005732,0.00347813,0.00208858,1.08569,0.00202158,0.00977963,1392,1744,9.02668,-48.4612
175,-720,9.02502,48.2729,0.00134699,0.00198129,-0.000122427,0.0020041,0.00132418,-1.3866,0.00117683,0.0152991,1399,1744,9.02498,-48.2729
182,-720,9.01929,48.0714,0.000447865,0.00122016,-0.000621939,0.00156608,0.000101949,-1.06321,0.00101178,0.0158997,1406,1744,9.01931,-48.0714
189,-720,9.02295,47.8425,-0.000237471,0.0010657,-0.000775577,0.00142707,-0.000598843,-1.13477,0.0012018,0.0133554,1413,1744,9.0229,-47.8425
196,-720,9.02319,47.6184,-0.00050995,0.00144671,-0.00101048,0.00187487,-0.000938103,-1.17002,0.00165382,0.0138862,1420,1744,9.02319,-47.6184
203,-720,9.00146,47.3849,-0.000699673,0.00171684,-0.00121901,0.00222494,-0.00120777,-1.17588,0.00201067,0.0164817,1427,1744,9.00147,-47.3849
210,-720,8.98865,47.1376,-0.000699974,0.00224239,-0.00152289,0.00288865,-0.00134624,-1.16946,0.00249849,0.0137845,1434,1744,8.98861,-47.1375
217,-720,8.97278,46.863,-0.00081003,0.00246419,-0.00182291,0.0032772,-0.00162305,-1.15127,0.00288239,0.0119624,1441,1744,8.97274,-46.863
224,-720,8.9541,46.5817,-0.00109763,0.00268864,-0.0021362,0.00364986,-0.00205885,-1.14797,0.00333832,0.00943727,1448,1744,8.95416,-46.5817
231,-720,8.9408,46.3105,-0.00158984,0.00271876,-0.00230984,0.003723,-0.00259408,-1.16068,0.00366653,0.0094158,1455,1744,8.94085,-46.3106
238,-720,8.92627,46.0233,-0.00184615,0.00275195,-0.00246173,0.00382125,-0.00291545,-1.16102,0.00390114,0.00830216,1462,1744,8.92628,-46.0234
245,-720,8.91016,45.745,-0.00211327,0.00279958,-0.00265466,0.00395995,-0.00327364,-1.15871,0.00418258,0.0108551,1469,1744,8.91016,-45.745
252,-720,8.91101,45.437,-0.00249547,0.00277473,-0.00276135,0.00395654,-0.00367728,-1.1664,0.00440837,0.0116466,1476,1744,8.91106,-45.437
259,-720,8.89087,45.1117,-0.00284827,0.00223064,-0.00267321,0.00337831,-0.00399594,-1.16527,0.0042625,0.0113592,1483,1744,8.89081,-45.1116
266,-720,8.84143,44.7916,-0.00304151,0.00171587,-0.00271343,0.00294563,-0.00427127,-1.14528,0.00419004,0.00927022,1490,1744,8.84147,-44.7917
273,-720,8.80115,44.4452,-0.00286976,0.00193059,-0.00327192,0.00358828,-0.00452745,-1.10185,0.00469607,0.0137994,1497,1744,8.80111,-44.4452
280,-720,8.72461,44.0962,-0.00275061,0.00187257,-0.00366992,0.00389824,-0.00477627,-1.06645,0.00501677,0.0165033,1504,1744,8.72457,-44.0961
287,-720,8.67871,43.7174,-0.00249741,0.00234228,-0.00426901,0.00482958,-0.00498472,-1.04324,0.00566652,0.0267498,1511,1744,8.67872,-43.7175
294,-720,8.76392,43.2893,-0.00195732,0.00281126,-0.00507003,0.00602965,-0.00517571,-1.00519,0.00647568,0.0357642,1518,1744,8.76387,-43.2893
301,-720,8.73621,42.9402,-0.00102613,0.00379393,-0.00579639,0.00766135,-0.00489356,-0.982416,0.00730705,0.0434747,1525,1744,8.73625,-42.9402
308,-720,8.73083,42.8596,-0.000152805,0.00480624,-0.00677287,0.00953919,-0.00488575,-0.960869,0.00847147,0.0438513,1532,1744,8.73086,-42.8597
315,-720,8.68433,42.3624,0,0,0,0,0,0,0,-1,1539,1744,8.68438,-42.3624
322,-720,9.297,40.8348,0,0,0,0,0,0,0,-1,1546,1744,9.29705,-40.8348
329,-720,9.15906,34.7668,0,0,0,0,0,0,0,-1,1553,1744,9.1591,-34.7669
336,-720,6.14148,26.5682,0,0,0,0,0,0,0,-1,1560,1744,6.14151,-26.5683
343,-720,6.78552,21.3625,0,0,0,0,0,0,0,-1,1567,1744,6.78551,-21.3625
350,-720,4.0741,11.1836,0,0,0,0,0,0,0,-1,1574,1744,4.07412,-11.1836
357,-720,6.90833,21.4504,0,0,0,0,0,0,0,-1,1581,1744,6.90827,-21.4505
364,-720,5.83777,24.1599,0,0,0,0,0,0,0,-1,1588,1744,5.83773,-24.1599
371,-720,5.46997,23.6176,0,0,0,0,0,0,0,-1,1595,1744,5.47001,-23.6176
378,-720,3.88257,25.5404,0,0,0,0,0,0,0,-1,1602,1744,3.88262,-25.5404
385,-720,4.672,37.3854,0,0,0,0,0,0,0,-1,1609,1744,4.67202,-37.3854
392,-720,4.89319,36.2684,0,0,0,0,0,0,0,-1,1616,1744,4.89323,-36.2684
399,-720,2.37317,24.7166,0,0,0,0,0,0,0,-1,1623,1744,2.37317,-24.7166
406,-720,0,0,0,0,0,0,0,0,0,-1,1630,1744,0,0
413,-720,0,0,0,0,0,0,0,0,0,-1,1637,1744,0,0
420,-720,0,0,0,0,0,0,0,0,0,-1,1644,1744,0,0
427,-720,0,0,0,0,0,0,0,0,0,-1,1651,1744,0,0
434,-720,0,0,0,0,0,0,0,0,0,-1,1658,1744,0,0
441,-720,0,0,0,0,0,0,0,0,0,-1,1665,1744,0,0
448,-720,0,0,0,0,0,0,0,0,0,-1,1672,1744,0,0
455,-720,0,0,0,0,0,0,0,0,0,-1,1679,1744,0,0
462,-720,0,0,0,0,0,0,0,0,0,-1,1686,1744,0,0
469,-720,0,0,0,0,0,0,0,0,0,-1,1693,1744,0,0
476,-720,0,0,0,0,0,0,0,0,0,-1,1700,1744,0,0
483,-720,0,0,0,0,0,0,0,0,0,-1,1707,1744,0,0
490,-720,0,0,0,0,0,0,0,0,0,-1,1714,1744,0,0
497,-720,0,0,0,0,0,0,0,0,0,-1,1721,1744,0,0
504,-720,0,0,0,0,0,0,0,0,0,-1,1728,1744,0,0
511,-720,0,0,0,0,0,0,0,0,0,-1,1735,1744,0,0
518,-720,0,0,0,0,0,0,0,0,0,-1,1742,1744,0,0
525,-720,0,0,0,0,0,0,0,0,0,-1,1749,1744,0,0
532,-720,0,0,0,0,0,0,0,0,0,-1,1756,1744,0,0
539,-720,0,0,0,0,0,0,0,0,0,-1,1763,1744,0,0
546,-720,0,0,0,0,0,0,0,0,0,-1,1770,1744,0,0
553,-720,0,0,0,0,0,0,0,0,0,-1,1777,1744,0,0
560,-720,0,0,0,0,0,0,0,0,0,-1,1784,1744,0,0
567,-720,0,0,0,0,0,0,0,0,0,-1,1791,1744,0,0
574,-720,0,0,0,0,0,0,0,0,0,-1,1798,1744,0,0
581,-720,0,0,0,0,0,0,0,0,0,-1,1805,1744,0,0
588,-720,0,0,0,0,0,0,0,0,0,-1,1812,1744,0,0
595,-720,0,0,0,0,0,0,0,0,0,-1,1819,1744,0,0
602,-720,0,0,0,0,0,0,0,0,0,-1,1826,1744,0,0
609,-720,0,0,0,0,0,0,0,0,0,-1,1833,1744,0,0
616,-720,0,0,0,0,0,0,0,0,0,-1,1840,1744,0,0
623,-720,0,0,0,0,0,0,0,0,0,-1,1847,1744,0,0
630,-720,0,0,0,0,0,0,0,0,0,-1,1854,1744,0,0
637,-720,0,0,0,0,0,0,0,0,0,-1,1861,1744,0,0
644,-720,0,0,0,0,0,0,0,0,0,-1,1868,1744,0,0
651,-720,0,0,0,0,0,0,0,0,0,-1,1875,1744,0,0
658,-720,0,0,0,0,0,0,0,0,0,-1,1882,1744,0,0
665,-720,0,0,0,0,0,0,0,0,0,-1,1889,1744,0,0
672,-720,0,0,0,0,0,0,0,0,0,-1,1896,1744,0,0
679,-720,0,0,0,0,0,0,0,0,0,-1,1903,1744,0,0
686,-720,0,0,0,0,0,0,0,0,0,-1,1910,1744,0,0
693,-720,0,0,0,0,0,0,0,0,0,-1,1917,1744,0,0
700,-720,0,0,0,0,0,0,0,0,0,-1,1924,1744,0,0
707,-720,0,0,0,0,0,0,0,0,0,-1,1931,1744,0,0
714,-720,0,0,0,0,0,0,0,0,0,-1,1938,1744,0,0
721,-720,0,0,0,0,0,0,0,0,0,-1,1945,1744,0,0
728,-720,0,0,0,0,0,0,0,0,0,-1,1952,1744,0,0
735,-720,0,0,0,0,0,0,0,0,0,-1,1959,1744,0,0
742,-720,0,0,0,0,0,0,0,0,0,-1,1966,1744,0,0
749,-720,0,0,0,0,0,0,0,0,0,-1,1973,1744,0,0
756,-720,0,0,0,0,0,0,0,0,0,-1,1980,1744,0,0
763,-720,0,0,0,0,0,0,0,0,0,-1,1987,1744,0,0
770,-720,0,0,0,0,0,0,0,0,0,-1,1994,1744,0,0
777,-720,0,0,0,0,0,0,0,0,0,-1,2001,1744,0,0
784,-720,0,0,0,0,0,0,0,0,0,-1,2008,1744,0,0
791,-720,0,0,0,0,0,0,0,0,0,-1,2015,1744,0,0
798,-720,0,0,0,0,0,0,0,0,0,-1,2022,1744,0,0
805,-720,0,0,0,0,0,0,0,0,0,-1,2029,1744,0,0
812,-720,0,0,0,0,0,0,0,0,0,-1,2036,1744,0,0
-700,-727,0,0,0,0,0,0,0,0,0,-1,524,1751,0,0
-693,-727,0,0,0,0,0,0,0,0,0,-1,531,1751,0,0
-686,-727,0,0,0,0,0,0,0,0,0,-1,538,1751,0,0
-679,-727,0,0,0,0,0,0,0,0,0,-1,545,1751,0,0
-672,-727,0,0,0,0,0,0,0,0,0,-1,552,1751,0,0
-665,-727,0,0,0,0,0,0,0,0,0,-1,559,1751,0,0
-658,-727,0,0,0,0,0,0,0,0,0,-1,566,1751,0,0
-651,-727,0,0,0,0,0,0,0,0,0,-1,573,1751,0,0
-644,-727,0,0,0,0,0,0,0,0,0,-1,580,1751,0,0
-637,-727,0,0,0,0,0,0,0,0,0,-1,587,1751,0,0
-630,-727,0,0,0,0,0,0,0,0,0,-1,594,1751,0,0
-623,-727,0,0,0,0,0,0,0,0,0,-1,601,1751,0,0
-616,-727,0,0,0,0,0,0,0,0,0,-1,608,1751,0,0
-609,-727,0,0,0,0,0,0,0,0,0,-1,615,1751,0,0
-602,-727,0,0,0,0,0,0,0,0,0,-1,622,1751,0,0
-595,-727,0,0,0,0,0,0,0,0,0,-1,629,1751,0,0
-588,-727,0,0,0,0,0,0,0,0,0,-1,636,1751,0,0
-581,-727,0,0,0,0,0,0,0,0,0,-1,643,1751,0,0
-574,-727,0,0,0,0,0,0,0,0,0,-1,650,1751,0,0
-567,-727,0,0,0,0,0,0,0,0,0,-1,657,1751,0,0
-560,-727,0,0,0,0,0,0,0,0,0,-1,664,1751,0,0
-553,-727,0,0,0,0,0,0,0,0,0,-1,671,1751,0,0
-546,-727,0,0,0,0,0,0,0,0,0,-1,678,1751,0,0
-539,-727,0,0,0,0,0,0,0,0,0,-1,685,1751,0,0
-532,-727,0,0,0,0,0,0,0,0,0,-1,692,1751,0,0
-525,-727,0,0,0,0,0,0,0,0,0,-1,699,1751,0,0
-518,-727,0,0,0,0,0,0,0,0,0,-1,706,1751,0,0
-511,-727,0,0,0,0,0,0,0,0,0,-1,713,1751,0,0
-504,-727,0,0,0,0,0,0,0,0,0,-1,720,1751,0,0
-497,-727,0,0,0,0,0,0,0,0,0,-1,727,1751,0,0
-490,-727,0,0,0,0,0,0,0,0,0,-1,734,1751,0,0
-483,-727,0,0,0,0,0,0,0,0,0,-1,741,1751,0,0
-476,-727,0,0,0,0,0,0,0,0,0,-1,748,1751,0,0
-469,-727,0,0,0,0,0,0,0,0,0,-1,755,1751,0,0
-462,-727,0,0,0,0,0,0,0,0,0,-1,762,1751,0,0
-455,-727,0,0,0,0,0,0,0,0,0,-1,769,1751,0,0
-448,-727,0,0,0,0,0,0,0,0,0,-1,776,1751,0,0
-441,-727,0,0,0,0,0,0,0,0,0,-1,783,1751,0,0
-434,-727,0,0,0,0,0,0,0,0,0,-1,790,1751,0,0
-427,-727,0,0,0,0,0,0,0,0,0,-1,797,1751,0,0
-420,-727,0,0,0,0,0,0,0,0,0,-1,804,1751,0,0
-413,-727,0,0,0,0,0,0,0,0,0,-1,811,1751,0,0
-406,-727,0,0,0,0,0,0,0,0,0,-1,818,1751,0,0
-399,-727,0,0,0,0,0,0,0,0,0,-1,825,1751,0,0
-392,-727,0,0,0,0,0,0,0,0,0,-1,832,1751,0,0
-385,-727,0,0,0,0,0,0,0,0,0,-1,839,1751,0,0
-378,-727,0,0,0,0,0,0,0,0,0,-1,846,1751,0,0
-371,-727,0,0,0,0,0,0,0,0,0,-1,853,1751,0,0
-364,-727,0,0,0,0,0,0,0,0,0,-1,860,1751,0,0
-357,-727,0,0,0,0,0,0,0,0,0,-1,867,1751,0,0
-350,-727,0,0,0,0,0,0,0,0,0,-1,874,1751,0,0
-343,-727,0,0,0,0,0,0,0,0,0,-1,881,1751,0,0
-336,-727,0,0,0,0,0,0,0,0,0,-1,888,1751,0,0
-329,-727,0,0,0,0,0,0,0,0,0,-1,895,1751,0,0
-322,-727,0,0,0,0,0,0,0,0,0,-1,902,1751,0,0
-315,-727,0,0,0,0,0,0,0,0,0,-1,909,1751,0,0
-308,-727,0,0,0,0,0,0,0,0,0,-1,916,1751,0,0
-301,-727,0,0,0,0,0,0,0,0,0,-1,923,1751,0,0
-294,-727,0,0,0,0,0,0,0,0,0,-1,930,1751,0,0
-287,-727,0,0,0,0,0,0,0,0,0,-1,937,1751,0,0
-280,-727,0,0,0,0,0,0,0,0,0,-1,944,1751,0,0
-273,-727,0,0,0,0,0,0,0,0,0,-1,951,1751,0,0
-266,-727,4.24805,7.61145,0,0,0,0,0,0,0,-1,958,1751,4.24802,-7.6115
-259,-727,3.65228,5.4082,0,0,0,0,0,0,0,-1,965,1751,3.65229,-5.40818
-252,-727,5.8797,32.9292,0,0,0,0,0,0,0,-1,972,1751,5.87972,-32.9292
-245,-727,6.59198,32.2588,0,0,0,0,0,0,0,-1,979,1751,6.59195,-32.2587
-238,-727,6.6189,30.4597,0,0,0,0,0,0,0,-1,986,1751,6.61889,-30.4598
-231,-727,6.70105,28.9473,0,0,0,0,0,0,0,-1,993,1751,6.70103,-28.9472
-224,-727,7.0614,27.79,0,0,0,0,0,0,0,-1,1000,1751,7.06139,-27.79
-217,-727,9.07013,38.8207,0,0,0,0,0,0,0,-1,1007,1751,9.07015,-38.8207
-210,-727,5.0921,32.4524,0,0,0,0,0,0,0,-1,1014,1751,5.09209,-32.4523
-203,-727,9.05786,39.0233,0,0,0,0,0,0,0,-1,1021,1751,9.05789,-39.0233
-196,-727,8.6228,40.259,0,0,0,0,0,0,0,-1,1028,1751,8.6228,-40.2591
-189,-727,8.34546,41.1653,0,0,0,0,0,0,0,-1,1035,1751,8.3455,-41.1653
-182,-727,7.92029,43.0339,0,0,0,0,0,0,0,-1,1042,1751,7.92035,-43.0339
-175,-727,8.51233,43.5763,0.0657602,0.0167299,0.0532927,0.0999059,-0.0174158,0.569825,0.073104,0.0461285,1049,1751,8.51237,-43.5763
-168,-727,8.83057,43.734,0.0588723,0.0139419,0.048063,0.0894612,-0.016647,0.566779,0.0658945,0.0464317,1056,1751,8.83054,-43.734
-161,-727,8.80481,44.0144,0.051152,0.0118881,0.0424159,0.0782589,-0.0152188,0.568657,0.0579159,0.0476711,1063,1751,8.8048,-44.0144
-154,-727,9.39294,43.9387,0,0,0,0,0,0,0,-1,1070,1751,9.39299,-43.9388
-147,-727,8.99829,44.1368,0,0,0,0,0,0,0,-1,1077,1751,8.9983,-44.1368
-140,-727,9.17603,44.4338,0.0258282,0.00759618,0.0247516,0.0430891,-0.00966477,0.608957,0.0324313,0.0304409,1084,1751,9.17607,-44.4338
-133,-727,9.24426,44.8132,0.0183608,0.00641083,0.0195791,0.0328564,-0.00808472,0.637301,0.0250381,0.0225443,1091,1751,9.24431,-44.8133
-126,-727,9.15601,45.2108,0.0118544,0.00568534,0.0150257,0.0241089,-0.00656918,0.684163,0.018652,0.0165286,1098,1751,9.15599,-45.2109
-119,-727,9.13953,45.5824,0.00280972,0.00310591,0.00891898,0.011878,-0.00596239,0.7937,0.0104872,0.0131851,1105,1751,9.1395,-45.5824
-112,-727,9.12158,45.8452,-0.00394701,0.00172366,0.00442394,0.00414288,-0.00636624,1.07038,0.00611254,0.0137092,1112,1751,9.12154,-45.8452
-105,-727,9.04749,46.1548,-0.00360525,0.00303731,0.00388369,0.00482621,-0.00539415,1.13915,0.00590376,0.013559,1119,1751,9.04743,-46.1547
-98,-727,9.06372,46.4678,-0.00327244,0.00326672,0.00365537,0.00490141,-0.00490713,1.15027,0.00566297,0.0112245,1126,1751,9.06366,-46.4678
-91,-727,9.05115,46.7263,-0.00285745,0.00346188,0.00339485,0.00493994,-0.0043355,1.16016,0.00535897,0.0114047,1133,1751,9.05113,-46.7263
-84,-727,8.99866,46.9968,-0.00230936,0.00343648,0.00320067,0.00486449,-0.00373737,1.15114,0.00498047,0.0118173,1140,1751,8.99866,-46.9968
-77,-727,8.97229,47.2581,-0.00177325,0.00311936,0.00280292,0.00439338,-0.00304726,1.14418,0.00431922,0.0122001,1147,1751,8.97224,-47.258
-70,-727,8.96606,47.5271,-0.00154348,0.00263067,0.00222257,0.00359248,-0.00250529,1.16238,0.00353915,0.0126541,1154,1751,8.96608,-47.5271
-63,-727,8.9458,47.7747,-0.00158112,0.00201759,0.00176845,0.00274115,-0.00230467,1.18243,0.00291684,0.0106246,1161,1751,8.94576,-47.7747
-56,-727,8.92065,47.9812,-0.00163357,0.00104577,0.00174368,0.00190499,-0.00249279,1.11295,0.00254661,0.0112755,1168,1751,8.92061,-47.9812
-49,-727,8.89929,48.1874,-0.00192516,0.000518807,0.00197812,0.00162194,-0.0030283,1.06208,0.00272544,0.0147234,1175,1751,8.89928,-48.1873
-42,-727,8.90503,48.3822,-0.00196869,-2.8098e-05,0.00223429,0.00143749,-0.00343428,0.990249,0.00289039,0.0185257,1182,1751,8.90502,-48.3822
-35,-727,8.88416,48.5604,-0.00176099,-0.000234846,0.00239226,0.0015131,-0.00350894,0.939785,0.00297482,0.0154755,1189,1751,8.8841,-48.5605
-28,-727,8.88672,48.739,-0.00157267,-0.000121452,0.00251282,0.00176842,-0.00346255,0.925956,0.00307245,0.00888313,1196,1751,8.88671,-48.739
-21,-727,8.87891,48.9208,-0.00132191,0.000373272,0.00283462,0.00248431,-0.00343294,0.930674,0.00343093,0.0103665,1203,1751,8.87897,-48.9208
-14,-727,8.8623,49.0728,-0.000957332,0.001071,0.00319476,0.0034087,-0.00329504,0.939091,0.00387059,0.0115761,1210,1751,8.86231,-49.0727
-7,-727,8.85193,49.2218,-0.000575044,0.00172863,0.00350426,0.0042655,-0.00311192,0.944184,0.00427668,0.0145871,1217,1751,8.8519,-49.2218
0,-727,8.85364,49.3767,-0.000112386,0.00272572,0.00374876,0.00531502,-0.00270169,0.966333,0.00470971,0.0141827,1224,1751,8.85363,-49.3767
7,-727,8.85828,49.4519,0.000315134,0.00370397,0.00386313,0.00622794,-0.00220883,0.992071,0.00505185,0.0144508,1231,1751,8.8583,-49.4519
14,-727,8.85522,49.5275,0.000748795,0.00451375,0.00375174,0.0068288,-0.00156626,1.01793,0.00515456,0.0144007,1238,1751,8.85522,-49.5274
21,-727,8.84082,49.6321,0.00109136,0.0051363,0.00352313,0.0071762,-0.000948536,1.04596,0.00512963,0.0119205,1245,1751,8.8408,-49.632
28,-727,8.85522,49.7061,0.00135902,0.00555054,0.00319154,0.00727291,-0.000363352,1.07592,0.00497415,0.0113649,1252,1751,8.8552,-49.706
35,-727,8.87463,49.7545,0.00158127,0.00572521,0.00271482,0.0070684,0.000238081,1.11135,0.00463494,0.012175,1259,1751,8.87465,-49.7545
42,-727,8.85681,49.7887,0.00162393,0.00560789,0.00231057,0.0066666,0.000565219,1.14114,0.00426849,0.0127165,1266,1751,8.85677,-49.7887
49,-727,8.8418,49.8214,0.00151247,0.00544354,0.0018717,0.00619215,0.000763859,1.19032,0.00389851,0.0110476,1273,1751,8.84177,-49.8214
56,-727,8.82068,49.8733,0.00151426,0.00501459,0.00163466,0.00565925,0.000869601,1.19515,0.00351897,0.00956515,1280,1751,8.82062,-49.8733
63,-727,8.849,49.8708,0.00138991,0.004532,0.00149049,0.00512653,0.000795373,1.19125,0.00318583,0.0116083,1287,1751,8.84898,-49.8709
70,-727,8.87317,49.8619,0.00128285,0.00431158,0.00140687,0.00486424,0.000730191,1.19649,0.00302891,0.0136901,1294,1751,8.87313,-49.8619
77,-727,8.87317,49.8877,0.00136177,0.00437599,0.00151557,0.00500625,0.000731517,1.1767,0.00312236,0.0159308,1301,1751,8.8732,-49.8877
84,-727,8.89502,49.8005,0.0016821,0.00419081,0.00155834,0.00493691,0.000935998,1.12427,0.00302789,0.0176826,1308,1751,8.895,-49.8005
91,-727,8.89551,49.7242,0.00218399,0.00454869,0.00167424,0.00541598,0.0013167,1.09284,0.00326159,0.0175001,1315,1751,8.89553,-49.7242
98,-727,8.87354,49.712,0.00258807,0.00489315,0.00177352,0.00585573,0.00162549,1.07354,0.00349052,0.014017,1322,1751,8.87351,-49.712
105,-727,8.88049,49.6504,0.00306758,0.00501259,0.00182752,0.00611025,0.00196992,1.02991,0.00360117,0.0126414,1329,1751,8.88054,-49.6504
112,-727,8.89001,49.5769,0.00366318,0.00510213,0.00171852,0.00624571,0.00251961,0.983642,0.00362832,0.011015,1336,1751,8.89001,-49.577
119,-727,8.8822,49.5017,0.00410115,0.00509353,0.00143414,0.00611489,0.00307979,0.951945,0.00353047,0.00942921,1343,1751,8.88225,-49.5017
126,-727,8.89819,49.3979,0.00441452,0.004908,0.000885033,0.00558004,0.00374247,0.921344,0.00328362,0.0108166,1350,1751,8.8982,-49.398
133,-727,8.90259,49.2966,0.00442217,0.00447986,0.000264448,0.00471703,0.00418499,0.83972,0.0029832,0.0158651,1357,1751,8.90265,-49.2967
140,-727,8.90466,49.1843,0.00408079,0.0038243,-0.000362866,0.00433741,0.00356769,-0.615539,0.00267224,0.0229045,1364,1751,8.90469,-49.1843
147,-727,8.89709,49.0126,0.00350416,0.00296554,-0.000945356,0.00421782,0.00225188,-0.646635,0.00243702,0.0195751,1371,1751,8.89709,-49.0126
154,-727,8.88135,48.811,0.00276144,0.00197095,-0.00151419,0.00393112,0.00080127,-0.657733,0.00239869,0.0120232,1378,1751,8.88133,-48.811
161,-727,8.86279,48.6377,0.00188336,0.00130483,-0.00210333,0.00371723,-0.000529031,-0.717063,0.00267201,0.00930726,1385,1751,8.86274,-48.6377
168,-727,8.84949,48.4683,0.000928687,0.000608722,-0.00248708,0.00326093,-0.00172352,-0.75328,0.00292305,0.011522,1392,1751,8.84952,-48.4683
175,-727,8.85461,48.2781,2.61059e-05,0.00035364,-0.00248283,0.0026781,-0.00229835,-0.81833,0.00287594,0.0167618,1399,1751,8.8546,-48.2781
182,-727,8.86438,48.0695,-0.000864164,0.000700588,-0.00228528,0.0023337,-0.00249728,-0.950322,0.0027897,0.0199026,1406,1751,8.86435,-48.0694
189,-727,8.80518,47.8358,-0.0016314,0.00096661,-0.00171782,0.00182128,-0.00248607,-1.10913,0.0024967,0.0127361,1413,1751,8.80512,-47.8358
196,-727,8.78418,47.6249,-0.00197491,0.00187397,-0.00177258,0.00256592,-0.00266686,-1.19862,0.00302134,0.0140512,1420,1751,8.7842,-47.6249
203,-727,8.75464,47.3859,-0.00217504,0.00213342,-0.00201182,0.00292675,-0.00296838,-1.19518,0.00340358,0.0175628,1427,1751,8.75465,-47.3858
210,-727,8.73364,47.1311,-0.0019279,0.00294045,-0.00243566,0.00394976,-0.00293722,-1.17794,0.0039905,0.0171715,1434,1751,8.73358,-47.1312
217,-727,8.71826,46.8721,-0.00184539,0.00326769,-0.00278489,0.00449156,-0.00306926,-1.15673,0.00439091,0.0123133,1441,1751,8.71823,-46.8721
224,-727,8.69507,46.5723,-0.00209639,0.00357979,-0.00314169,0.00497549,-0.00349209,-1.15273,0.0049137,0.0123391,1448,1751,8.69508,-46.5722
231,-727,8.67139,46.2949,-0.00265993,0.0036292,-0.00330994,0.00505015,-0.00408088,-1.16529,0.0052817,0.00987784,1455,1751,8.67135,-46.2949
238,-727,8.65564,45.986,-0.00290804,0.00368599,-0.00347393,0.00517839,-0.00440044,-1.16504,0.00553642,0.0105926,1462,1751,8.65558,-45.986
245,-727,8.64465,45.7122,-0.0031608,0.00375751,-0.00368317,0.00535122,-0.00475452,-1.16242,0.00583794,0.0107383,1469,1751,8.64467,-45.7122
252,-727,8.61084,45.4203,-0.00356039,0.00373224,-0.00377773,0.00533634,-0.00516449,-1.16925,0.00606293,0.011663,1476,1751,8.61089,-45.4203
259,-727,8.58643,45.0902,-0.00393681,0.00304883,-0.00361786,0.00458479,-0.00547278,-1.16931,0.00581428,0.01476,1483,1751,8.58644,-45.0903
266,-727,8.5813,44.8148,-0.00413557,0.00240112,-0.00359603,0.00399215,-0.0057266,-1.15425,0.00564083,0.0195142,1490,1751,8.58126,-44.8148
273,-727,8.60242,44.4938,-0.0039066,0.00256812,-0.0041788,0.00461686,-0.00595534,-1.11496,0.00612015,0.0322696,1497,1751,8.60236,-44.4937
280,-727,8.32141,44.1726,-0.00371117,0.00246359,-0.00458781,0.00490612,-0.0061537,-1.08157,0.00639892,0.0471805,1504,1751,8.32146,-44.1726
287,-727,8.08411,43.8414,0,0,0,0,0,0,0,-1,1511,1751,8.0841,-43.8415
294,-727,8.39893,43.1216,0,0,0,0,0,0,0,-1,1518,1751,8.39898,-43.1216
301,-727,8.43372,42.9529,0,0,0,0,0,0,0,-1,1525,1751,8.4337,-42.9528
308,-727,8.51697,43.1967,0,0,0,0,0,0,0,-1,1532,1751,8.51696,-43.1967
315,-727,8.10571,41.24,0,0,0,0,0,0,0,-1,1539,1751,8.10567,-41.2399
322,-727,8.24133,40.2081,0,0,0,0,0,0,0,-1,1546,1751,8.24136,-40.2082
329,-727,5.54419,31.0325,0,0,0,0,0,0,0,-1,1553,1751,5.54425,-31.0325
336,-727,5.55823,20.2439,0,0,0,0,0,0,0,-1,1560,1751,5.55829,-20.2438
343,-727,2.41699,8.72095,0,0,0,0,0,0,0,-1,1567,1751,2.41702,-8.72098
350,-727,3.89783,7.50195,0,0,0,0,0,0,0,-1,1574,1751,3.89782,-7.50193
357,-727,4.48462,10.2948,0,0,0,0,0,0,0,-1,1581,1751,4.48464,-10.2948
364,-727,6.96729,17.2365,0,0,0,0,0,0,0,-1,1588,1751,6.96732,-17.2365
371,-727,5.04565,23.2227,0,0,0,0,0,0,0,-1,1595,1751,5.04564,-23.2227
378,-727,4.56726,23.0574,0,0,0,0,0,0,0,-1,1602,1751,4.56727,-23.0574
385,-727,3.52307,22.6431,0,0,0,0,0,0,0,-1,1609,1751,3.52303,-22.643
392,-727,0,0,0,0,0,0,0,0,0,-1,1616,1751,0,0
399,-727,0,0,0,0,0,0,0,0,0,-1,1623,1751,0,0
406,-727,0,0,0,0,0,0,0,0,0,-1,1630,1751,0,0
413,-727,0,0,0,0,0,0,0,0,0,-1,1637,1751,0,0
420,-727,0,0,0,0,0,0,0,0,0,-1,1644,1751,0,0
427,-727,0,0,0,0,0,0,0,0,0,-1,1651,1751,0,0
434,-727,0,0,0,0,0,0,0,0,0,-1,1658,1751,0,0
441,-727,0,0,0,0,0,0,0,0,0,-1,1665,1751,0,0
448,-727,0,0,0,0,0,0,0,0,0,-1,1672,1751,0,0
455,-727,0,0,0,0,0,0,0,0,0,-1,1679,1751,0,0
462,-727,0,0,0,0,0,0,0,0,0,-1,1686,1751,0,0
469,-727,0,0,0,0,0,0,0,0,0,-1,1693,1751,0,0
476,-727,0,0,0,0,0,0,0,0,0,-1,1700,1751,0,0
483,-727,0,0,0,0,0,0,0,0,0,-1,1707,1751,0,0
490,-727,0,0,0,0,0,0,0,0,0,-1,1714,1751,0,0
497,-727,0,0,0,0,0,0,0,0,0,-1,1721,1751,0,0
504,-727,0,0,0,0,0,0,0,0,0,-1,1728,1751,0,0
511,-727,0,0,0,0,0,0,0,0,0,-1,1735,1751,0,0
518,-727,0,0,0,0,0,0,0,0,0,-1,1742,1751,0,0
525,-727,0,0,0,0,0,0,0,0,0,-1,1749,1751,0,0
532,-727,0,0,0,0,0,0,0,0,0,-1,1756,1751,0,0
539,-727,0,0,0,0,0,0,0,0,0,-1,1763,1751,0,0
546,-727,0,0,0,0,0,0,0,0,0,-1,1770,1751,0,0
553,-727,0,0,0,0,0,0,0,0,0,-1,1777,1751,0,0
560,-727,0,0,0,0,0,0,0,0,0,-1,1784,1751,0,0
567,-727,0,0,0,0,0,0,0,0,0,-1,1791,1751,0,0
574,-727,0,0,0,0,0,0,0,0,0,-1,1798,1751,0,0
581,-727,0,0,0,0,0,0,0,0,0,-1,1805,1751,0,0
588,-727,0,0,0,0,0,0,0,0,0,-1,1812,1751,0,0
595,-727,0,0,0,0,0,0,0,0,0,-1,1819,1751,0,0
602,-727,0,0,0,0,0,0,0,0,0,-1,1826,1751,0,0
609,-727,0,0,0,0,0,0,0,0,0,-1,1833,1751,0,0
616,-727,0,0,0,0,0,0,0,0,0,-1,1840,1751,0,0
623,-727,0,0,0,0,0,0,0,0,0,-1,1847,1751,0,0
630,-727,0,0,0,0,0,0,0,0,0,-1,1854,1751,0,0
637,-727,0,0,0,0,0,0,0,0,0,-1,1861,1751,0,0
644,-727,0,0,0,0,0,0,0,0,0,-1,1868,1751,0,0
651,-727,0,0,0,0,0,0,0,0,0,-1,1875,1751,0,0
658,-727,0,0,0,0,0,0,0,0,0,-1,1882,1751,0,0
665,-727,0,0,0,0,0,0,0,0,0,-1,1889,1751,0,0
672,-727,0,0,0,0,0,0,0,0,0,-1,1896,1751,0,0
679,-727,0,0,0,0,0,0,0,0,0,-1,1903,1751,0,0
686,-727,0,0,0,0,0,0,0,0,0,-1,1910,1751,0,0
693,-727,0,0,0,0,0,0,0,0,0,-1,1917,1751,0,0
700,-727,0,0,0,0,0,0,0,0,0,-1,1924,1751,0,0
707,-727,0,0,0,0,0,0,0,0,0,-1,1931,1751,0,0
714,-727,0,0,0,0,0,0,0,0,0,-1,1938,1751,0,0
721,-727,0,0,0,0,0,0,0,0,0,-1,1945,1751,0,0
728,-727,0,0,0,0,0,0,0,0,0,-1,1952,1751,0,0
735,-727,0,0,0,0,0,0,0,0,0,-1,1959,1751,0,0
742,-727,0,0,0,0,0,0,0,0,0,-1,1966,1751,0,0
749,-727,0,0,0,0,0,0,0,0,0,-1,1973,1751,0,0
756,-727,0,0,0,0,0,0,0,0,0,-1,1980,1751,0,0
763,-727,0,0,0,0,0,0,0,0,0,-1,1987,1751,0,0
770,-727,0,0,0,0,0,0,0,0,0,-1,1994,1751,0,0
777,-727,0,0,0,0,0,0,0,0,0,-1,2001,1751,0,0
784,-727,0,0,0,0,0,0,0,0,0,-1,2008,1751,0,0
791,-727,0,0,0,0,0,0,0,0,0,-1,2015,1751,0,0
798,-727,0,0,0,0,0,0,0,0,0,-1,2022,1751,0,0
805,-727,0,0,0,0,0,0,0,0,0,-1,2029,1751,0,0
812,-727,0,0,0,0,0,0,0,0,0,-1,2036,1751,0,0
-700,-734,0,0,0,0,0,0,0,0,0,-1,524,1758,0,0
-693,-734,0,0,0,0,0,0,0,0,0,-1,531,1758,0,0
-686,-734,0,0,0,0,0,0,0,0,0,-1,538,1758,0,0
-679,-734,0,0,0,0,0,0,0,0,0,-1,545,1758,0,0
-672,-734,0,0,0,0,0,0,0,0,0,-1,552,1758,0,0
-665,-734,0,0,0,0,0,0,0,0,0,-1,559,1758,0,0
-658,-734,0,0,0,0,0,0,0,0,0,-1,566,1758,0,0
-651,-734,0,0,0,0,0,0,0,0,0,-1,573,1758,0,0
-644,-734,0,0,0,0,0,0,0,0,0,-1,580,1758,0,0
-637,-734,0,0,0,0,0,0,0,0,0,-1,587,1758,0,0
-630,-734,0,0,0,0,0,0,0,0,0,-1,594,1758,0,0
-623,-734,0,0,0,0,0,0,0,0,0,-1,601,1758,0,0
-616,-734,0,0,0,0,0,0,0,0,0,-1,608,1758,0,0
-609,-734,0,0,0,0,0,0,0,0,0,-1,615,1758,0,0
-602,-734,0,0,0,0,0,0,0,0,0,-1,622,1758,0,0
-595,-734,0,0,0,0,0,0,0,0,0,-1,629,1758,0,0
-588,-734,0,0,0,0,0,0,0,0,0,-1,636,1758,0,0
-581,-734,0,0,0,0,0,0,0,0,0,-1,643,1758,0,0
-574,-734,0,0,0,0,0,0,0,0,0,-1,650,1758,0,0
-567,-734,0,0,0,0,0,0,0,0,0,-1,657,1758,0,0
-560,-734,0,0,0,0,0,0,0,0,0,-1,664,1758,0,0
-553,-734,0,0,0,0,0,0,0,0,0,-1,671,1758,0,0
-546,-734,0,0,0,0,0,0,0,0,0,-1,678,1758,0,0
-539,-734,0,0,0,0,0,0,0,0,0,-1,685,1758,0,0
-532,-734,0,0,0,0,0,0,0,0,0,-1,692,1758,0,0
-525,-734,0,0,0,0,0,0,0,0,0,-1,699,1758,0,0
-518,-734,0,0,0,0,0,0,0,0,0,-1,706,1758,0,0
-511,-734,0,0,0,0,0,0,0,0,0,-1,713,1758,0,0
-504,-734,0,0,0,0,0,0,0,0,0,-1,720,1758,0,0
-497,-734,0,0,0,0,0,0,0,0,0,-1,727,1758,0,0
-490,-734,0,0,0,0,0,0,0,0,0,-1,734,1758,0,0
-483,-734,0,0,0,0,0,0,0,0,0,-1,741,1758,0,0
-476,-734,0,0,0,0,0,0,0,0,0,-1,748,1758,0,0
-469,-734,0,0,0,0,0,0,0,0,0,-1,755,1758,0,0
-462,-734,0,0,0,0,0,0,0,0,0,-1,762,1758,0,0
-455,-734,0,0,0,0,0,0,0,0,0,-1,769,1758,0,0
-448,-734,0,0,0,0,0,0,0,0,0,-1,776,1758,0,0
-441,-734,0,0,0,0,0,0,0,0,0,-1,783,1758,0,0
-434,-734,0,0,0,0,0,0,0,0,0,-1,790,1758,0,0
-427,-734,0,0,0,0,0,0,0,0,0,-1,797,1758,0,0
-420,-734,0,0,0,0,0,0,0,0,0,-1,804,1758,0,0
-413,-734,0,0,0,0,0,0,0,0,0,-1,811,1758,0,0
-406,-734,0,0,0,0,0,0,0,0,0,-1,818,1758,0,0
-399,-734,0,0,0,0,0,0,0,0,0,-1,825,1758,0,0
-392,-734,0,0,0,0,0,0,0,0,0,-1,832,1758,0,0
-385,-734,0,0,0,0,0,0,0,0,0,-1,839,1758,0,0
-378,-734,0,0,0,0,0,0,0,0,0,-1,846,1758,0,0
-371,-734,0,0,0,0,0,0,0,0,0,-1,853,1758,0,0
-364,-734,0,0,0,0,0,0,0,0,0,-1,860,1758,0,0
-357,-734,0,0,0,0,0,0,0,0,0,-1,867,1758,0,0
-350,-734,0,0,0,0,0,0,0,0,0,-1,874,1758,0,0
-343,-734,0,0,0,0,0,0,0,0,0,-1,881,1758,0,0
-336,-734,0,0,0,0,0,0,0,0,0,-1,888,1758,0,0
-329,-734,0,0,0,0,0,0,0,0,0,-1,895,1758,0,0
-322,-734,0,0,0,0,0,0,0,0,0,-1,902,1758,0,0
-315,-734,0,0,0,0,0,0,0,0,0,-1,909,1758,0,0
-308,-734,0,0,0,0,0,0,0,0,0,-1,916,1758,0,0
-301,-734,0,0,0,0,0,0,0,0,0,-1,923,1758,0,0
-294,-734,0,0,0,0,0,0,0,0,0,-1,930,1758,0,0
-287,-734,0,0,0,0,0,0,0,0,0,-1,937,1758,0,0
-280,-734,0,0,0,0,0,0,0,0,0,-1,944,1758,0,0
-273,-734,0,0,0,0,0,0,0,0,0,-1,951,1758,0,0
-266,-734,0,0,0,0,0,0,0,0,0,-1,958,1758,0,0
-259,-734,0,0,0,0,0,0,0,0,0,-1,965,1758,0,0
-252,-734,5.73883,31.5245,0,0,0,0,0,0,0,-1,972,1758,5.73884,-31.5246
-245,-734,6.32513,30.9761,0,0,0,0,0,0,0,-1,979,1758,6.32511,-30.9761
-238,-734,6.82385,30.0449,0,0,0,0,0,0,0,-1,986,1758,6.82387,-30.0449
-231,-734,7.1958,29.1666,0,0,0,0,0,0,0,-1,993,1758,7.19578,-29.1666
-224,-734,7.36169,28.5652,0,0,0,0,0,0,0,-1,1000,1758,7.36172,-28.5651
-217,-734,7.45984,28.4386,0,0,0,0,0,0,0,-1,1007,1758,7.45986,-28.4386
-210,-734,7.45483,28.4388,0,0,0,0,0,0,0,-1,1014,1758,7.45482,-28.4388
-203,-734,7.93079,29.6151,0,0,0,0,0,0,0,-1,1021,1758,7.93076,-29.6151
-196,-734,8.15393,41.4897,0,0,0,0,0,0,0,-1,1028,1758,8.15399,-41.4897
-189,-734,10.6561,42.229,0,0,0,0,0,0,0,-1,1035,1758,10.6561,-42.2291
-182,-734,8.22278,44.5439,0,0,0,0,0,0,0,-1,1042,1758,8.22278,-44.5439
-175,-734,8.69702,44.5496,0.0982798,0.0370885,0.0776278,0.151124,-0.0157555,0.597679,0.106391,0.0437573,1049,1758,8.69708,-44.5495
-168,-734,9.06641,44.5905,0.0885625,0.0325983,0.0704587,0.136392,-0.0152314,0.596378,0.0964072,0.0423113,1056,1758,9.06641,-44.5905
-161,-734,8.9751,44.7202,0,0,0,0,0,0,0,-1,1063,1758,8.97504,-44.7203
-154,-734,9.72095,44.6002,0,0,0,0,0,0,0,-1,1070,1758,9.72098,-44.6002
-147,-734,9.70618,44.1765,0,0,0,0,0,0,0,-1,1077,1758,9.70616,-44.1766
-140,-734,9.66882,44.446,0.041225,0.0187324,0.0377988,0.0694151,-0.00945774,0.640803,0.04973,0.0478323,1084,1758,9.66883,-44.4461
-133,-734,9.50024,44.8258,0.030073,0.0155393,0.0302379,0.053905,-0.00829266,0.667474,0.0389959,0.0426242,1091,1758,9.50026,-44.8258
-126,-734,9.26062,45.1312,0.0202477,0.0128954,0.02349,0.0403474,-0.00720439,0.707778,0.0295935,0.0410735,1098,1758,9.2606,-45.1313
-119,-734,9.26245,45.5389,0.00608771,0.00686022,0.0137557,0.0202351,-0.00728713,0.799434,0.0164657,0.0441208,1105,1758,9.26241,-45.539
-112,-734,9.3595,45.8159,-0.0053247,0.00303509,0.00621255,0.00634301,-0.00863262,1.08152,0.0086798,0.0419538,1112,1758,9.35944,-45.816
-105,-734,9.28857,46.1074,-0.00490718,0.00469701,0.00557624,0.0072539,-0.00746407,1.14087,0.00849771,0.0494466,1119,1758,9.28859,-46.1074
-98,-734,9.29797,46.4688,0,0,0,0,0,0,0,-1,1126,1758,9.29802,-46.4688
-91,-734,9.32996,46.7045,0,0,0,0,0,0,0,-1,1133,1758,9.32994,-46.7045
-84,-734,9.24951,46.9423,0,0,0,0,0,0,0,-1,1140,1758,9.24948,-46.9423
-77,-734,9.20337,47.2435,0,0,0,0,0,0,0,-1,1147,1758,9.20334,-47.2435
-70,-734,9.03406,47.2479,0,0,0,0,0,0,0,-1,1154,1758,9.03411,-47.2479
-63,-734,9.08301,47.5668,-0.00341362,0.0025265,0.00290923,0.00371396,-0.00460107,1.18327,0.00480978,0.0355163,1161,1758,9.08301,-47.5668
-56,-734,9.13855,47.9415,-0.00438864,0.000912804,0.00346043,0.00262108,-0.00609692,1.11223,0.00516497,0.0171204,1168,1758,9.13855,-47.9416
-49,-734,9.10547,48.2004,-0.00555357,2.13256e-05,0.00451982,0.00254411,-0.00807636,1.06171,0.00640303,0.0136254,1175,1758,9.10543,-48.2005
-42,-734,9.06323,48.4,-0.00587319,-0.000805033,0.00529498,0.00253101,-0.00920924,1.00858,0.00713442,0.0148427,1182,1758,9.06327,-48.4
-35,-734,9.05347,48.5663,-0.00562183,-0.00143018,0.0057259,0.00257141,-0.00962342,0.960838,0.00742273,0.0143274,1189,1758,9.05348,-48.5663
-28,-734,9.0575,48.7354,-0.00551987,-0.00164575,0.00589836,0.00262549,-0.0097911,0.944053,0.00755617,0.0100725,1196,1758,9.05754,-48.7354
-21,-734,9.08521,48.9019,-0.0050251,-0.00141294,0.00645258,0.00348155,-0.00991959,0.921856,0.00802925,0.0161407,1203,1758,9.08523,-48.9018
-14,-734,9.02441,49.089,-0.00386576,-0.00089636,0.00706916,0.00484233,-0.00960445,0.888906,0.00849056,0.0163866,1210,1758,9.02439,-49.089
-7,-734,8.99023,49.2136,-0.00304533,-0.0005386,0.00742699,0.00574005,-0.00932397,0.86899,0.00877888,0.0174063,1217,1758,8.99022,-49.2137
0,-734,8.96643,49.353,-0.002025,0.000281913,0.0076307,0.00684585,-0.00858893,0.86041,0.0089302,0.0168705,1224,1758,8.96644,-49.353
7,-734,8.94556,49.4479,-0.000972822,0.00118919,0.0076371,0.00782141,-0.00760504,0.855705,0.00890676,0.0135072,1231,1758,8.94562,-49.4479
14,-734,8.92896,49.538,4.8891e-05,0.0020494,0.00739313,0.00850963,-0.00641134,0.852638,0.00864298,0.013964,1238,1758,8.92901,-49.538
21,-734,8.89465,49.6279,0.000900895,0.00285429,0.00687659,0.00882319,-0.00506801,0.855942,0.00811718,0.0118779,1245,1758,8.89466,-49.6279
28,-734,8.89746,49.7146,0.00153698,0.00365397,0.00612039,0.00880672,-0.00361577,0.871024,0.0073779,0.0116065,1252,1758,8.89747,-49.7146
35,-734,8.90271,49.7704,0.00195294,0.0042565,0.00516899,0.00840047,-0.00219104,0.89502,0.00645581,0.0140782,1259,1758,8.90273,-49.7704
42,-734,8.90222,49.7987,0.00207639,0.00480792,0.00409215,0.0077562,-0.000871887,0.946462,0.00548458,0.012322,1266,1758,8.90217,-49.7987
49,-734,8.87024,49.8339,0.00207429,0.0054698,0.00323251,0.00742328,0.00012081,1.02721,0.00490908,0.010208,1273,1758,8.87019,-49.8339
56,-734,8.84778,49.8701,0.00208113,0.00605629,0.00257372,0.00732055,0.000816863,1.1142,0.00463215,0.00932157,1280,1758,8.84783,-49.8701
63,-734,8.85278,49.8707,0.0017827,0.00638418,0.00190528,0.00707066,0.00109622,1.22497,0.00439419,0.0126657,1287,1758,8.85273,-49.8707
70,-734,8.84204,49.8766,0.00145407,0.00670558,0.00133583,0.00702585,0.00113381,1.33549,0.00435543,0.0131702,1294,1758,8.84201,-49.8766
77,-734,8.84204,49.9078,0.00155063,0.00688897,0.000933514,0.0070475,0.0013921,1.40257,0.00430991,0.0174465,1301,1758,8.84206,-49.9078
84,-734,8.84265,49.8306,0.00174038,0.00668111,0.000290647,0.00669815,0.00172334,1.51224,0.00401618,0.0176133,1308,1758,8.84264,-49.8306
91,-734,8.8313,49.7734,0.00187987,0.00657075,-0.000163636,0.00657645,0.00187417,-1.53597,0.00391219,0.0179967,1315,1758,8.83132,-49.7734
98,-734,8.83191,49.7286,0.00246726,0.00655688,-0.000382519,0.00659235,0.00243179,-1.47833,0.00384947,0.0137171,1322,1758,8.83195,-49.7286
105,-734,8.83374,49.6563,0.00313386,0.00610201,-0.000623512,0.00622767,0.0030082,-1.37193,0.00359624,0.0142674,1329,1758,8.83371,-49.6563
112,-734,8.83655,49.5674,0.00393781,0.00556823,-0.00107381,0.00610122,0.00340482,-1.11007,0.00353045,0.0122036,1336,1758,8.83655,-49.5674
119,-734,8.79431,49.463,0.00462426,0.00492097,-0.00171897,0.00649797,0.00304725,-0.828443,0.00375402,0.0133898,1343,1758,8.79435,-49.4631
126,-734,8.78662,49.3536,0.0052078,0.00421819,-0.0024523,0.00721471,0.00221128,-0.685849,0.00426813,0.0160094,1350,1758,8.78662,-49.3537
133,-734,8.77197,49.2468,0.00552718,0.00343182,-0.00313603,0.00778591,0.00117309,-0.624187,0.00484713,0.0153867,1357,1758,8.77198,-49.2468
140,-734,8.75781,49.0966,0.00552613,0.0027707,-0.00373064,0.00812532,0.000171505,-0.608517,0.00536063,0.0209553,1364,1758,8.75784,-49.0966
147,-734,8.75012,48.9603,0.00532353,0.00206592,-0.00406881,0.00807744,-0.000687987,-0.595009,0.00562832,0.0149192,1371,1758,8.7501,-48.9603
154,-734,8.724,48.8259,0.00481704,0.00136058,-0.00457714,0.00798135,-0.00180373,-0.604883,0.00601301,0.0100369,1378,1758,8.72404,-48.8259
161,-734,8.69409,48.6674,0.00407309,0.000737991,-0.00512978,0.00779955,-0.00298847,-0.628249,0.00643161,0.00898368,1385,1758,8.69411,-48.6674
168,-734,8.65552,48.4829,0.00330744,0.000651871,-0.00513451,0.00728307,-0.00332376,-0.65887,0.00626445,0.0136026,1392,1758,8.65556,-48.4829
175,-734,8.63953,48.2699,0.00240014,0.000848423,-0.00472249,0.00641008,-0.00316151,-0.70398,0.00563125,0.0170793,1399,1758,8.63954,-48.2699
182,-734,8.65991,48.0447,0.000779169,0.00136436,-0.0040483,0.00513063,-0.0029871,-0.821474,0.00474092,0.016393,1406,1758,8.65995,-48.0447
189,-734,8.61072,47.8292,-0.00132597,0.00162814,-0.00285848,0.00336863,-0.00306645,-1.02387,0.00371666,0.0119417,1413,1758,8.61077,-47.8293
196,-734,8.57202,47.6306,-0.00340992,0.00246157,-0.00255244,0.00341601,-0.00436437,-1.21296,0.00450311,0.0146269,1420,1758,8.57201,-47.6307
203,-734,8.58752,47.3606,-0.00368401,0.00262306,-0.00283235,0.00370828,-0.00476923,-1.2049,0.00490725,0.0212709,1427,1758,8.58758,-47.3606
210,-734,8.57422,47.0956,-0.00312846,0.00384604,-0.0034635,0.00527374,-0.00455616,-1.17981,0.00568033,0.0355032,1434,1758,8.57422,-47.0955
217,-734,8.4657,46.8995,0,0,0,0,0,0,0,-1,1441,1758,8.46573,-46.8996
224,-734,8.44348,46.6061,0,0,0,0,0,0,0,-1,1448,1758,8.44342,-46.606
231,-734,8.38293,46.2878,0,0,0,0,0,0,0,-1,1455,1758,8.38299,-46.2879
238,-734,8.37012,45.9352,0,0,0,0,0,0,0,-1,1462,1758,8.37009,-45.9352
245,-734,8.52124,45.554,-0.00415367,0.00517314,-0.00506732,0.00739632,-0.00637685,-1.15735,0.0079592,0.0464035,1469,1758,8.52126,-45.5539
252,-734,8.44434,45.2593,-0.0045883,0.00511881,-0.00517214,0.00735807,-0.00682756,-1.16221,0.00819199,0.0373301,1476,1758,8.4443,-45.2592
259,-734,8.46387,45.0663,-0.0050226,0.00424371,-0.00493779,0.00638167,-0.00716056,-1.16219,0.00782291,0.0388326,1483,1758,8.46386,-45.0663
266,-734,8.48889,44.8889,-0.00528187,0.00336421,-0.00481557,0.00551252,-0.00743018,-1.15118,0.00749977,0.0466013,1490,1758,8.48887,-44.889
273,-734,8.39417,44.6331,0,0,0,0,0,0,0,-1,1497,1758,8.39417,-44.6331
280,-734,7.95557,44.4513,0,0,0,0,0,0,0,-1,1504,1758,7.95552,-44.4512
287,-734,7.25867,43.0227,0,0,0,0,0,0,0,-1,1511,1758,7.25868,-43.0228
294,-734,7.31262,42.9679,0,0,0,0,0,0,0,-1,1518,1758,7.31266,-42.9679
301,-734,7.21814,42.6078,0,0,0,0,0,0,0,-1,1525,1758,7.21809,-42.6078
308,-734,8.0509,41.5156,0,0,0,0,0,0,0,-1,1532,1758,8.05087,-41.5157
315,-734,7.93787,40.8274,0,0,0,0,0,0,0,-1,1539,1758,7.93784,-40.8273
322,-734,7.82483,40.139,0,0,0,0,0,0,0,-1,1546,1758,7.82481,-40.139
329,-734,5.73267,19.656,0,0,0,0,0,0,0,-1,1553,1758,5.73262,-19.656
336,-734,6.71375,23.7469,0,0,0,0,0,0,0,-1,1560,1758,6.71372,-23.7469
343,-734,5.54968,5.14221,0,0,0,0,0,0,0,-1,1567,1758,5.54973,-5.14225
350,-734,5.07397,6.73242,0,0,0,0,0,0,0,-1,1574,1758,5.07402,-6.73243
357,-734,5.05542,7.19189,0,0,0,0,0,0,0,-1,1581,1758,5.05541,-7.19184
364,-734,4.43896,10.4904,0,0,0,0,0,0,0,-1,1588,1758,4.43893,-10.4904
371,-734,7.36975,17.4751,0,0,0,0,0,0,0,-1,1595,1758,7.36972,-17.4752
378,-734,0,0,0,0,0,0,0,0,0,-1,1602,1758,0,0
385,-734,0,0,0,0,0,0,0,0,0,-1,1609,1758,0,0
392,-734,0,0,0,0,0,0,0,0,0,-1,1616,1758,0,0
399,-734,0,0,0,0,0,0,0,0,0,-1,1623,1758,0,0
406,-734,0,0,0,0,0,0,0,0,0,-1,1630,1758,0,0
413,-734,0,0,0,0,0,0,0,0,0,-1,1637,1758,0,0
420,-734,0,0,0,0,0,0,0,0,0,-1,1644,1758,0,0
427,-734,0,0,0,0,0,0,0,0,0,-1,1651,1758,0,0
434,-734,0,0,0,0,0,0,0,0,0,-1,1658,1758,0,0
441,-734,0,0,0,0,0,0,0,0,0,-1,1665,1758,0,0
448,-734,0,0,0,0,0,0,0,0,0,-1,1672,1758,0,0
455,-734,0,0,0,0,0,0,0,0,0,-1,1679,1758,0,0
462,-734,0,0,0,0,0,0,0,0,0,-1,1686,1758,0,0
469,-734,0,0,0,0,0,0,0,0,0,-1,1693,1758,0,0
476,-734,0,0,0,0,0,0,0,0,0,-1,1700,1758,0,0
483,-734,0,0,0,0,0,0,0,0,0,-1,1707,1758,0,0
490,-734,0,0,0,0,0,0,0,0,0,-1,1714,1758,0,0
497,-734,0,0,0,0,0,0,0,0,0,-1,1721,1758,0,0
504,-734,0,0,0,0,0,0,0,0,0,-1,1728,1758,0,0
511,-734,0,0,0,0,0,0,0,0,0,-1,1735,1758,0,0
518,-734,0,0,0,0,0,0,0,0,0,-1,1742,1758,0,0
525,-734,0,0,0,0,0,0,0,0,0,-1,1749,1758,0,0
532,-734,0,0,0,0,0,0,0,0,0,-1,1756,1758,0,0
539,-734,0,0,0,0,0,0,0,0,0,-1,1763,1758,0,0
546,-734,0,0,0,0,0,0,0,0,0,-1,1770,1758,0,0
553,-734,0,0,0,0,0,0,0,0,0,-1,1777,1758,0,0
560,-734,0,0,0,0,0,0,0,0,0,-1,1784,1758,0,0
567,-734,0,0,0,0,0,0,0,0,0,-1,1791,1758,0,0
574,-734,0,0,0,0,0,0,0,0,0,-1,1798,1758,0,0
581,-734,0,0,0,0,0,0,0,0,0,-1,1805,1758,0,0
588,-734,0,0,0,0,0,0,0,0,0,-1,1812,1758,0,0
595,-734,0,0,0,0,0,0,0,0,0,-1,1819,1758,0,0
602,-734,0,0,0,0,0,0,0,0,0,-1,1826,1758,0,0
609,-734,0,0,0,0,0,0,0,0,0,-1,1833,1758,0,0
616,-734,0,0,0,0,0,0,0,0,0,-1,1840,1758,0,0
623,-734,0,0,0,0,0,0,0,0,0,-1,1847,1758,0,0
630,-734,0,0,0,0,0,0,0,0,0,-1,1854,1758,0,0
637,-734,0,0,0,0,0,0,0,0,0,-1,1861,1758,0,0
644,-734,0,0,0,0,0,0,0,0,0,-1,1868,1758,0,0
651,-734,0,0,0,0,0,0,0,0,0,-1,1875,1758,0,0
658,-734,0,0,0,0,0,0,0,0,0,-1,1882,1758,0,0
665,-734,0,0,0,0,0,0,0,0,0,-1,1889,1758,0,0
672,-734,0,0,0,0,0,0,0,0,0,-1,1896,1758,0,0
679,-734,0,0,0,0,0,0,0,0,0,-1,1903,1758,0,0
686,-734,0,0,0,0,0,0,0,0,0,-1,1910,1758,0,0
693,-734,0,0,0,0,0,0,0,0,0,-1,1917,1758,0,0
700,-734,0,0,0,0,0,0,0,0,0,-1,1924,1758,0,0
707,-734,0,0,0,0,0,0,0,0,0,-1,1931,1758,0,0
714,-734,0,0,0,0,0,0,0,0,0,-1,1938,1758,0,0
721,-734,0,0,0,0,0,0,0,0,0,-1,1945,1758,0,0
728,-734,0,0,0,0,0,0,0,0,0,-1,1952,1758,0,0
735,-734,0,0,0,0,0,0,0,0,0,-1,1959,1758,0,0
742,-734,0,0,0,0,0,0,0,0,0,-1,1966,1758,0,0
749,-734,0,0,0,0,0,0,0,0,0,-1,1973,1758,0,0
756,-734,0,0,0,0,0,0,0,0,0,-1,1980,1758,0,0
763,-734,0,0,0,0,0,0,0,0,0,-1,1987,1758,0,0
770,-734,0,0,0,0,0,0,0,0,0,-1,1994,1758,0,0
777,-734,0,0,0,0,0,0,0,0,0,-1,2001,1758,0,0
784,-734,0,0,0,0,0,0,0,0,0,-1,2008,1758,0,0
791,-734,0,0,0,0,0,0,0,0,0,-1,2015,1758,0,0
798,-734,0,0,0,0,0,0,0,0,0,-1,2022,1758,0,0
805,-734,0,0,0,0,0,0,0,0,0,-1,2029,1758,0,0
812,-734,0,0,0,0,0,0,0,0,0,-1,2036,1758,0,0
-700,-741,0,0,0,0,0,0,0,0,0,-1,524,1765,0,0
-693,-741,0,0,0,0,0,0,0,0,0,-1,531,1765,0,0
-686,-741,0,0,0,0,0,0,0,0,0,-1,538,1765,0,0
-679,-741,0,0,0,0,0,0,0,0,0,-1,545,1765,0,0
-672,-741,0,0,0,0,0,0,0,0,0,-1,552,1765,0,0
-665,-741,0,0,0,0,0,0,0,0,0,-1,559,1765,0,0
-658,-741,0,0,0,0,0,0,0,0,0,-1,566,1765,0,0
-651,-741,0,0,0,0,0,0,0,0,0,-1,573,1765,0,0
-644,-741,0,0,0,0,0,0,0,0,0,-1,580,1765,0,0
-637,-741,0,0,0,0,0,0,0,0,0,-1,587,1765,0,0
-630,-741,0,0,0,0,0,0,0,0,0,-1,594,1765,0,0
-623,-741,0,0,0,0,0,0,0,0,0,-1,601,1765,0,0
-616,-741,0,0,0,0,0,0,0,0,0,-1,608,1765,0,0
-609,-741,0,0,0,0,0,0,0,0,0,-1,615,1765,0,0
-602,-741,0,0,0,0,0,0,0,0,0,-1,622,1765,0,0
-595,-741,0,0,0,0,0,0,0,0,0,-1,629,1765,0,0
-588,-741,0,0,0,0,0,0,0,0,0,-1,636,1765,0,0
-581,-741,0,0,0,0,0,0,0,0,0,-1,643,1765,0,0
-574,-741,0,0,0,0,0,0,0,0,0,-1,650,1765,0,0
-567,-741,0,0,0,0,0,0,0,0,0,-1,657,1765,0,0
-560,-741,0,0,0,0,0,0,0,0,0,-1,664,1765,0,0
-553,-741,0,0,0,0,0,0,0,0,0,-1,671,1765,0,0
-546,-741,0,0,0,0,0,0,0,0,0,-1,678,1765,0,0
-539,-741,0,0,0,0,0,0,0,0,0,-1,685,1765,0,0
-532,-741,0,0,0,0,0,0,0,0,0,-1,692,1765,0,0
-525,-741,0,0,0,0,0,0,0,0,0,-1,699,1765,0,0
-518,-741,0,0,0,0,0,0,0,0,0,-1,706,1765,0,0
-511,-741,0,0,0,0,0,0,0,0,0,-1,713,1765,0,0
-504,-741,0,0,0,0,0,0,0,0,0,-1,720,1765,0,0
-497,-741,0,0,0,0,0,0,0,0,0,-1,727,1765,0,0
-490,-741,0,0,0,0,0,0,0,0,0,-1,734,1765,0,0
-483,-741,0,0,0,0,0,0,0,0,0,-1,741,1765,0,0
-476,-741,0,0,0,0,0,0,0,0,0,-1,748,1765,0,0
-469,-741,0,0,0,0,0,0,0,0,0,-1,755,1765,0,0
-462,-741,0,0,0,0,0,0,0,0,0,-1,762,1765,0,0
-455,-741,0,0,0,0,0,0,0,0,0,-1,769,1765,0,0
-448,-741,0,0,0,0,0,0,0,0,0,-1,776,1765,0,0
-441,-741,0,0,0,0,0,0,0,0,0,-1,783,1765,0,0
-434,-741,0,0,0,0,0,0,0,0,0,-1,790,1765,0,0
-427,-741,0,0,0,0,0,0,0,0,0,-1,797,1765,0,0
-420,-741,0,0,0,0,0,0,0,0,0,-1,804,1765,0,0
-413,-741,0,0,0,0,0,0,0,0,0,-1,811,1765,0,0
-406,-741,0,0,0,0,0,0,0,0,0,-1,818,1765,0,0
-399,-741,0,0,0,0,0,0,0,0,0,-1,825,1765,0,0
-392,-741,0,0,0,0,0,0,0,0,0,-1,832,1765,0,0
-385,-741,0,0,0,0,0,0,0,0,0,-1,839,1765,0,0
-378,-741,0,0,0,0,0,0,0,0,0,-1,846,1765,0,0
-371,-741,0,0,0,0,0,0,0,0,0,-1,853,1765,0,0
-364,-741,0,0,0,0,0,0,0,0,0,-1,860,1765,0,0
-357,-741,0,0,0,0,0,0,0,0,0,-1,867,1765,0,0
-350,-741,0,0,0,0,0,0,0,0,0,-1,874,1765,0,0
-343,-741,0,0,0,0,0,0,0,0,0,-1,881,1765,0,0
-336,-741,0,0,0,0,0,0,0,0,0,-1,888,1765,0,0
-329,-741,0,0,0,0,0,0,0,0,0,-1,895,1765,0,0
-322,-741,0,0,0,0,0,0,0,0,0,-1,902,1765,0,0
-315,-741,0,0,0,0,0,0,0,0,0,-1,909,1765,0,0
-308,-741,0,0,0,0,0,0,0,0,0,-1,916,1765,0,0
-301,-741,0,0,0,0,0,0,0,0,0,-1,923,1765,0,0
-294,-741,0,0,0,0,0,0,0,0,0,-1,930,1765,0,0
-287,-741,0,0,0,0,0,0,0,0,0,-1,937,1765,0,0
-280,-741,0,0,0,0,0,0,0,0,0,-1,944,1765,0,0
-273,-741,0,0,0,0,0,0,0,0,0,-1,951,1765,0,0
-266,-741,0,0,0,0,0,0,0,0,0,-1,958,1765,0,0
-259,-741,0,0,0,0,0,0,0,0,0,-1,965,1765,0,0
-252,-741,0,0,0,0,0,0,0,0,0,-1,972,1765,0,0
-245,-741,0,0,0,0,0,0,0,0,0,-1,979,1765,0,0
-238,-741,7.13855,29.8348,0,0,0,0,0,0,0,-1,986,1765,7.13856,-29.8348
-231,-741,7.74182,29.3066,0,0,0,0,0,0,0,-1,993,1765,7.74183,-29.3066
-224,-741,7.80078,29.0964,0,0,0,0,0,0,0,-1,1000,1765,7.80079,-29.0964
-217,-741,8.15863,29.113,0,0,0,0,0,0,0,-1,1007,1765,8.15863,-29.1131
-210,-741,8.37024,29.3896,0,0,0,0,0,0,0,-1,1014,1765,8.37022,-29.3896
-203,-741,8.33801,29.8871,0,0,0,0,0,0,0,-1,1021,1765,8.33805,-29.8871
-196,-741,2.04846,42.2267,0,0,0,0,0,0,0,-1,1028,1765,2.04845,-42.2267
-189,-741,3.61877,43.2653,0,0,0,0,0,0,0,-1,1035,1765,3.61876,-43.2652
-182,-741,5.45569,44.1581,0,0,0,0,0,0,0,-1,1042,1765,5.45569,-44.1581
-175,-741,9.02686,45.1418,0,0,0,0,0,0,0,-1,1049,1765,9.02685,-45.1418
-168,-741,9.33972,45.4299,0,0,0,0,0,0,0,-1,1056,1765,9.33978,-45.43
-161,-741,8.89502,45.3746,0,0,0,0,0,0,0,-1,1063,1765,8.89505,-45.3746
-154,-741,9.43103,44.9973,0,0,0,0,0,0,0,-1,1070,1765,9.43098,-44.9973
-147,-741,9.81921,44.972,0,0,0,0,0,0,0,-1,1077,1765,9.81925,-44.9721
-140,-741,10.192,44.6427,0,0,0,0,0,0,0,-1,1084,1765,10.192,-44.6428
-133,-741,9.82056,45.0558,0,0,0,0,0,0,0,-1,1091,1765,9.82054,-45.0558
-126,-741,9.37866,45.2375,0,0,0,0,0,0,0,-1,1098,1765,9.37864,-45.2376
-119,-741,9.36938,45.5615,0,0,0,0,0,0,0,-1,1105,1765,9.36942,-45.5616
-112,-741,9.59656,45.7119,0,0,0,0,0,0,0,-1,1112,1765,9.59652,-45.712
-105,-741,9.61792,45.9158,0,0,0,0,0,0,0,-1,1119,1765,9.61797,-45.9158
-98,-741,9.19971,40.25,0,0,0,0,0,0,0,-1,1126,1765,9.19971,-40.25
-91,-741,8.40002,36.3687,0,0,0,0,0,0,0,-1,1133,1765,8.40002,-36.3687
-84,-741,7.8877,35.0892,0,0,0,0,0,0,0,-1,1140,1765,7.88776,-35.0892
-77,-741,7.73303,34.1174,0,0,0,0,0,0,0,-1,1147,1765,7.73304,-34.1174
-70,-741,7.5437,32.0275,0,0,0,0,0,0,0,-1,1154,1765,7.5437,-32.0275
-63,-741,9.04626,47.1947,0,0,0,0,0,0,0,-1,1161,1765,9.04631,-47.1946
-56,-741,9.39832,47.8585,0,0,0,0,0,0,0,-1,1168,1765,9.39834,-47.8585
-49,-741,9.32556,48.2809,0,0,0,0,0,0,0,-1,1175,1765,9.32561,-48.2809
-42,-741,9.23059,48.4568,0,0,0,0,0,0,0,-1,1182,1765,9.23056,-48.4568
-35,-741,9.23096,48.5815,-0.0113605,-0.00197463,0.0114442,0.0057015,-0.0190367,0.979977,0.0149583,0.0243972,1189,1765,9.2309,-48.5815
-28,-741,9.25256,48.7554,-0.0110741,-0.00232366,0.0115178,0.00562188,-0.0190197,0.966914,0.0149113,0.0145009,1196,1765,9.25254,-48.7554
-21,-741,9.24023,48.9249,-0.0102219,-0.00232259,0.0119596,0.00632268,-0.0188671,0.944884,0.0151325,0.0189291,1203,1765,9.24026,-48.925
-14,-741,9.15918,49.0883,-0.00842202,-0.00164197,0.0126196,0.00803498,-0.018099,0.916617,0.0154569,0.019045,1210,1765,9.15921,-49.0882
-7,-741,9.13098,49.1886,-0.00706979,-0.00143698,0.0128203,0.00887266,-0.0173794,0.893522,0.0154196,0.015437,1217,1765,9.13094,-49.1886
0,-741,9.10535,49.2992,-0.0054149,0.000195446,0.0124441,0.0101466,-0.0153661,0.896256,0.0148322,0.0154325,1224,1765,9.10532,-49.2992
7,-741,9.04578,49.4066,-0.00370392,0.00170108,0.0117675,0.0110724,-0.0130753,0.89827,0.0139577,0.0178017,1231,1765,9.0458,-49.4066
14,-741,9.02209,49.5215,-0.00203437,0.00330176,0.010891,0.0118467,-0.0105793,0.905522,0.0129546,0.0166962,1238,1765,9.02214,-49.5215
21,-741,8.98511,49.6166,-0.000618136,0.00496102,0.00963296,0.0122002,-0.0078573,0.926336,0.0116703,0.0129836,1245,1765,8.98507,-49.6165
28,-741,8.94507,49.7136,0.000456311,0.00677048,0.00798624,0.012201,-0.00497422,0.973629,0.0102045,0.013017,1252,1765,8.94512,-49.7136
35,-741,8.95093,49.7578,0.00118591,0.00840199,0.00613153,0.0119083,-0.00232037,1.05134,0.0088147,0.0144324,1259,1765,8.95096,-49.7578
42,-741,8.93665,49.7836,0.00154527,0.0101438,0.00403045,0.0117376,-4.85275e-05,1.19423,0.00784132,0.014886,1266,1765,8.93667,-49.7835
49,-741,8.90869,49.8232,0.00178741,0.0119202,0.00234378,0.0124361,0.00127154,1.35415,0.00790103,0.00971227,1273,1765,8.90875,-49.8233
56,-741,8.88208,49.8667,0.00199309,0.0140711,0.00100163,0.0141536,0.00191059,1.48861,0.00886777,0.00970931,1280,1765,8.88213,-49.8668
63,-741,8.84863,49.8942,0.00168391,0.0152658,-0.000178382,0.0152681,0.00168157,-1.55767,0.00966712,0.0152184,1287,1765,8.84866,-49.8942
70,-741,8.81787,49.9045,0.00128254,0.0162111,-0.00108395,0.0162894,0.00120425,-1.49869,0.0104812,0.0166072,1294,1765,8.81786,-49.9046
77,-741,8.80884,49.8942,0.00153361,0.0164659,-0.00167978,0.0166525,0.00134698,-1.46015,0.010681,0.0136156,1301,1765,8.80882,-49.8941
84,-741,8.77991,49.8728,0.00198613,0.0161744,-0.00253053,0.0166122,0.00154831,-1.39948,0.0105965,0.0168868,1308,1765,8.77991,-49.8728
91,-741,8.75708,49.8453,0.00235277,0.0154332,-0.00322261,0.016184,0.00160193,-1.34189,0.010297,0.0134403,1315,1765,8.75703,-49.8453
98,-741,8.75354,49.7455,0.00338602,0.0149511,-0.00332838,0.0158406,0.00249654,-1.30966,0.00983442,0.0105149,1322,1765,8.75353,-49.7454
105,-741,8.74683,49.6221,0.00456666,0.0132471,-0.00330277,0.0143609,0.00345291,-1.24556,0.00865566,0.0108492,1329,1765,8.74683,-49.622
112,-741,8.76257,49.535,0.00596212,0.0120363,-0.00378566,0.0138526,0.00414584,-1.12346,0.00820979,0.0109238,1336,1765,8.76259,-49.535
119,-741,8.71716,49.4269,0.00723588,0.0106346,-0.00476011,0.0139896,0.00388088,-0.956845,0.00833939,0.0134048,1343,1765,8.71718,-49.4269
126,-741,8.67859,49.329,0.00838935,0.0091218,-0.00584836,0.0146154,0.00289576,-0.816668,0.00893613,0.0186222,1350,1765,8.67855,-49.329
133,-741,8.65308,49.2158,0.00924039,0.00744699,-0.00683453,0.0152368,0.00145059,-0.72017,0.00971051,0.0149405,1357,1765,8.65311,-49.2159
140,-741,8.61572,49.0863,0.00964092,0.00597952,-0.00771726,0.0157417,-0.000121218,-0.66894,0.0105351,0.012376,1364,1765,8.61567,-49.0864
147,-741,8.59058,48.9489,0.00973246,0.0045083,-0.00819603,0.0157226,-0.00148182,-0.631136,0.011009,0.0113301,1371,1765,8.59059,-48.9488
154,-741,8.56238,48.8171,0.00932372,0.00326373,-0.00889333,0.015689,-0.0031016,-0.621213,0.0116319,0.00889577,1378,1765,8.56238,-48.8171
161,-741,8.53406,48.6581,0.00849769,0.00104729,-0.00959644,0.0150666,-0.00552163,-0.600258,0.0123051,0.0110951,1385,1765,8.53401,-48.6581
168,-741,8.5116,48.4838,0.00755884,0.00111424,-0.00955025,0.0144158,-0.00574266,-0.622693,0.0119922,0.0258484,1392,1765,8.51156,-48.4838
175,-741,8.40076,48.2697,0,0,0,0,0,0,0,-1,1399,1765,8.40072,-48.2696
182,-741,8.45435,48.0522,0,0,0,0,0,0,0,-1,1406,1765,8.45435,-48.0522
189,-741,8.39526,47.8851,0,0,0,0,0,0,0,-1,1413,1765,8.39526,-47.8851
196,-741,8.34863,47.6295,0,0,0,0,0,0,0,-1,1420,1765,8.34862,-47.6296
203,-741,8.33923,47.2672,0,0,0,0,0,0,0,-1,1427,1765,8.33921,-47.2672
210,-741,8.28247,46.8115,0,0,0,0,0,0,0,-1,1434,1765,8.28253,-46.8115
217,-741,8.4032,40.1213,0,0,0,0,0,0,0,-1,1441,1765,8.40325,-40.1214
224,-741,8.0719,38.4249,0,0,0,0,0,0,0,-1,1448,1765,8.07187,-38.4249
231,-741,7.95923,39.0671,0,0,0,0,0,0,0,-1,1455,1765,7.9592,-39.0671
238,-741,7.96619,42.4865,0,0,0,0,0,0,0,-1,1462,1765,7.96621,-42.4864
245,-741,8.48022,45.2924,0,0,0,0,0,0,0,-1,1469,1765,8.48025,-45.2924
252,-741,8.31726,44.9907,0,0,0,0,0,0,0,-1,1476,1765,8.3173,-44.9908
259,-741,8.28906,45.1276,0,0,0,0,0,0,0,-1,1483,1765,8.28904,-45.1276
266,-741,8.32214,45.0681,0,0,0,0,0,0,0,-1,1490,1765,8.32216,-45.0681
273,-741,9.09314,45.0895,0,0,0,0,0,0,0,-1,1497,1765,9.09308,-45.0895
280,-741,6.59326,43.824,0,0,0,0,0,0,0,-1,1504,1765,6.5933,-43.824
287,-741,6.29468,43.7202,0,0,0,0,0,0,0,-1,1511,1765,6.29464,-43.7202
294,-741,5.91187,43.7742,0,0,0,0,0,0,0,-1,1518,1765,5.91188,-43.7742
301,-741,6.20667,38.5165,0,0,0,0,0,0,0,-1,1525,1765,6.20667,-38.5165
308,-741,7.99036,42.5969,0,0,0,0,0,0,0,-1,1532,1765,7.99037,-42.5969
315,-741,7.83838,41.6693,0,0,0,0,0,0,0,-1,1539,1765,7.83835,-41.6694
322,-741,7.68628,40.7418,0,0,0,0,0,0,0,-1,1546,1765,7.68633,-40.7418
329,-741,4.74414,17.928,0,0,0,0,0,0,0,-1,1553,1765,4.74414,-17.928
336,-741,5.74304,22.0945,0,0,0,0,0,0,0,-1,1560,1765,5.74306,-22.0945
343,-741,7.09888,26.501,0,0,0,0,0,0,0,-1,1567,1765,7.09885,-26.501
350,-741,4.90369,5.44666,0,0,0,0,0,0,0,-1,1574,1765,4.90368,-5.44664
357,-741,4.02063,5.16626,0,0,0,0,0,0,0,-1,1581,1765,4.02058,-5.1662
364,-741,0,0,0,0,0,0,0,0,0,-1,1588,1765,0,0
371,-741,0,0,0,0,0,0,0,0,0,-1,1595,1765,0,0
378,-741,0,0,0,0,0,0,0,0,0,-1,1602,1765,0,0
385,-741,0,0,0,0,0,0,0,0,0,-1,1609,1765,0,0
392,-741,0,0,0,0,0,0,0,0,0,-1,1616,1765,0,0
399,-741,0,0,0,0,0,0,0,0,0,-1,1623,1765,0,0
406,-741,0,0,0,0,0,0,0,0,0,-1,1630,1765,0,0
413,-741,0,0,0,0,0,0,0,0,0,-1,1637,1765,0,0
420,-741,0,0,0,0,0,0,0,0,0,-1,1644,1765,0,0
427,-741,0,0,0,0,0,0,0,0,0,-1,1651,1765,0,0
434,-741,0,0,0,0,0,0,0,0,0,-1,1658,1765,0,0
441,-741,0,0,0,0,0,0,0,0,0,-1,1665,1765,0,0
448,-741,0,0,0,0,0,0,0,0,0,-1,1672,1765,0,0
455,-741,0,0,0,0,0,0,0,0,0,-1,1679,1765,0,0
462,-741,0,0,0,0,0,0,0,0,0,-1,1686,1765,0,0
469,-741,0,0,0,0,0,0,0,0,0,-1,1693,1765,0,0
476,-741,0,0,0,0,0,0,0,0,0,-1,1700,1765,0,0
483,-741,0,0,0,0,0,0,0,0,0,-1,1707,1765,0,0
490,-741,0,0,0,0,0,0,0,0,0,-1,1714,1765,0,0
497,-741,0,0,0,0,0,0,0,0,0,-1,1721,1765,0,0
504,-741,0,0,0,0,0,0,0,0,0,-1,1728,1765,0,0
511,-741,0,0,0,0,0,0,0,0,0,-1,1735,1765,0,0
518,-741,0,0,0,0,0,0,0,0,0,-1,1742,1765,0,0
525,-741,0,0,0,0,0,0,0,0,0,-1,1749,1765,0,0
532,-741,0,0,0,0,0,0,0,0,0,-1,1756,1765,0,0
539,-741,0,0,0,0,0,0,0,0,0,-1,1763,1765,0,0
546,-741,0,0,0,0,0,0,0,0,0,-1,1770,1765,0,0
553,-741,0,0,0,0,0,0,0,0,0,-1,1777,1765,0,0
560,-741,0,0,0,0,0,0,0,0,0,-1,1784,1765,0,0
567,-741,0,0,0,0,0,0,0,0,0,-1,1791,1765,0,0
574,-741,0,0,0,0,0,0,0,0,0,-1,1798,1765,0,0
581,-741,0,0,0,0,0,0,0,0,0,-1,1805,1765,0,0
588,-741,0,0,0,0,0,0,0,0,0,-1,1812,1765,0,0
595,-741,0,0,0,0,0,0,0,0,0,-1,1819,1765,0,0
602,-741,0,0,0,0,0,0,0,0,0,-1,1826,1765,0,0
609,-741,0,0,0,0,0,0,0,0,0,-1,1833,1765,0,0
616,-741,0,0,0,0,0,0,0,0,0,-1,1840,1765,0,0
623,-741,0,0,0,0,0,0,0,0,0,-1,1847,1765,0,0
630,-741,0,0,0,0,0,0,0,0,0,-1,1854,1765,0,0
637,-741,0,0,0,0,0,0,0,0,0,-1,1861,1765,0,0
644,-741,0,0,0,0,0,0,0,0,0,-1,1868,1765,0,0
651,-741,0,0,0,0,0,0,0,0,0,-1,1875,1765,0,0
658,-741,0,0,0,0,0,0,0,0,0,-1,1882,1765,0,0
665,-741,0,0,0,0,0,0,0,0,0,-1,1889,1765,0,0
672,-741,0,0,0,0,0,0,0,0,0,-1,1896,1765,0,0
679,-741,0,0,0,0,0,0,0,0,0,-1,1903,1765,0,0
686,-741,0,0,0,0,0,0,0,0,0,-1,1910,1765,0,0
693,-741,0,0,0,0,0,0,0,0,0,-1,1917,1765,0,0
700,-741,0,0,0,0,0,0,0,0,0,-1,1924,1765,0,0
707,-741,0,0,0,0,0,0,0,0,0,-1,1931,1765,0,0
714,-741,0,0,0,0,0,0,0,0,0,-1,1938,1765,0,0
721,-741,0,0,0,0,0,0,0,0,0,-1,1945,1765,0,0
728,-741,0,0,0,0,0,0,0,0,0,-1,1952,1765,0,0
735,-741,0,0,0,0,0,0,0,0,0,-1,1959,1765,0,0
742,-741,0,0,0,0,0,0,0,0,0,-1,1966,1765,0,0
749,-741,0,0,0,0,0,0,0,0,0,-1,1973,1765,0,0
756,-741,0,0,0,0,0,0,0,0,0,-1,1980,1765,0,0
763,-741,0,0,0,0,0,0,0,0,0,-1,1987,1765,0,0
770,-741,0,0,0,0,0,0,0,0,0,-1,1994,1765,0,0
777,-741,0,0,0,0,0,0,0,0,0,-1,2001,1765,0,0
784,-741,0,0,0,0,0,0,0,0,0,-1,2008,1765,0,0
791,-741,0,0,0,0,0,0,0,0,0,-1,2015,1765,0,0
798,-741,0,0,0,0,0,0,0,0,0,-1,2022,1765,0,0
805,-741,0,0,0,0,0,0,0,0,0,-1,2029,1765,0,0
812,-741,0,0,0,0,0,0,0,0,0,-1,2036,1765,0,0
-700,-748,0,0,0,0,0,0,0,0,0,-1,524,1772,0,0
-693,-748,0,0,0,0,0,0,0,0,0,-1,531,1772,0,0
-686,-748,0,0,0,0,0,0,0,0,0,-1,538,1772,0,0
-679,-748,0,0,0,0,0,0,0,0,0,-1,545,1772,0,0
-672,-748,0,0,0,0,0,0,0,0,0,-1,552,1772,0,0
-665,-748,0,0,0,0,0,0,0,0,0,-1,559,1772,0,0
-658,-748,0,0,0,0,0,0,0,0,0,-1,566,1772,0,0
-651,-748,0,0,0,0,0,0,0,0,0,-1,573,1772,0,0
-644,-748,0,0,0,0,0,0,0,0,0,-1,580,1772,0,0
-637,-748,0,0,0,0,0,0,0,0,0,-1,587,1772,0,0
-630,-748,0,0,0,0,0,0,0,0,0,-1,594,1772,0,0
-623,-748,0,0,0,0,0,0,0,0,0,-1,601,1772,0,0
-616,-748,0,0,0,0,0,0,0,0,0,-1,608,1772,0,0
-609,-748,0,0,0,0,0,0,0,0,0,-1,615,1772,0,0
-602,-748,0,0,0,0,0,0,0,0,0,-1,622,1772,0,0
-595,-748,0,0,0,0,0,0,0,0,0,-1,629,1772,0,0
-588,-748,0,0,0,0,0,0,0,0,0,-1,636,1772,0,0
-581,-748,0,0,0,0,0,0,0,0,0,-1,643,1772,0,0
-574,-748,0,0,0,0,0,0,0,0,0,-1,650,1772,0,0
-567,-748,0,0,0,0,0,0,0,0,0,-1,657,1772,0,0
-560,-748,0,0,0,0,0,0,0,0,0,-1,664,1772,0,0
-553,-748,0,0,0,0,0,0,0,0,0,-1,671,1772,0,0
-546,-748,0,0,0,0,0,0,0,0,0,-1,678,1772,0,0
-539,-748,0,0,0,0,0,0,0,0,0,-1,685,1772,0,0
-532,-748,0,0,0,0,0,0,0,0,0,-1,692,1772,0,0
-525,-748,0,0,0,0,0,0,0,0,0,-1,699,1772,0,0
-518,-748,0,0,0,0,0,0,0,0,0,-1,706,1772,0,0
-511,-748,0,0,0,0,0,0,0,0,0,-1,713,1772,0,0
-504,-748,0,0,0,0,0,0,0,0,0,-1,720,1772,0,0
-497,-748,0,0,0,0,0,0,0,0,0,-1,727,1772,0,0
-490,-748,0,0,0,0,0,0,0,0,0,-1,734,1772,0,0
-483,-748,0,0,0,0,0,0,0,0,0,-1,741,1772,0,0
-476,-748,0,0,0,0,0,0,0,0,0,-1,748,1772,0,0
-469,-748,0,0,0,0,0,0,0,0,0,-1,755,1772,0,0
-462,-748,0,0,0,0,0,0,0,0,0,-1,762,1772,0,0
-455,-748,0,0,0,0,0,0,0,0,0,-1,769,1772,0,0
-448,-748,0,0,0,0,0,0,0,0,0,-1,776,1772,0,0
-441,-748,0,0,0,0,0,0,0,0,0,-1,783,1772,0,0
-434,-748,0,0,0,0,0,0,0,0,0,-1,790,1772,0,0
-427,-748,0,0,0,0,0,0,0,0,0,-1,797,1772,0,0
-420,-748,0,0,0,0,0,0,0,0,0,-1,804,1772,0,0
-413,-748,0,0,0,0,0,0,0,0,0,-1,811,1772,0,0
-406,-748,0,0,0,0,0,0,0,0,0,-1,818,1772,0,0
-399,-748,0,0,0,0,0,0,0,0,0,-1,825,1772,0,0
-392,-748,0,0,0,0,0,0,0,0,0,-1,832,1772,0,0
-385,-748,0,0,0,0,0,0,0,0,0,-1,839,1772,0,0
-378,-748,0,0,0,0,0,0,0,0,0,-1,846,1772,0,0
-371,-748,0,0,0,0,0,0,0,0,0,-1,853,1772,0,0
-364,-748,0,0,0,0,0,0,0,0,0,-1,860,1772,0,0
-357,-748,0,0,0,0,0,0,0,0,0,-1,867,1772,0,0
-350,-748,0,0,0,0,0,0,0,0,0,-1,874,1772,0,0
-343,-748,0,0,0,0,0,0,0,0,0,-1,881,1772,0,0
-336,-748,0,0,0,0,0,0,0,0,0,-1,888,1772,0,0
-329,-748,0,0,0,0,0,0,0,0,0,-1,895,1772,0,0
-322,-748,0,0,0,0,0,0,0,0,0,-1,902,1772,0,0
-315,-748,0,0,0,0,0,0,0,0,0,-1,909,1772,0,0
-308,-748,0,0,0,0,0,0,0,0,0,-1,916,1772,0,0
-301,-748,0,0,0,0,0,0,0,0,0,-1,923,1772,0,0
-294,-748,0,0,0,0,0,0,0,0,0,-1,930,1772,0,0
-287,-748,0,0,0,0,0,0,0,0,0,-1,937,1772,0,0
-280,-748,0,0,0,0,0,0,0,0,0,-1,944,1772,0,0
-273,-748,0,0,0,0,0,0,0,0,0,-1,951,1772,0,0
-266,-748,0,0,0,0,0,0,0,0,0,-1,958,1772,0,0
-259,-748,0,0,0,0,0,0,0,0,0,-1,965,1772,0,0
-252,-748,0,0,0,0,0,0,0,0,0,-1,972,1772,0,0
-245,-748,0,0,0,0,0,0,0,0,0,-1,979,1772,0,0
-238,-748,0,0,0,0,0,0,0,0,0,-1,986,1772,0,0
-231,-748,0,0,0,0,0,0,0,0,0,-1,993,1772,0,0
-224,-748,0,0,0,0,0,0,0,0,0,-1,1000,1772,0,0
-217,-748,8.97742,29.9884,0,0,0,0,0,0,0,-1,1007,1772,8.97744,-29.9884
-210,-748,8.8941,30.14,0,0,0,0,0,0,0,-1,1014,1772,8.8941,-30.14
-203,-748,-0.821899,39.5326,0,0,0,0,0,0,0,-1,1021,1772,-0.821892,-39.5326
-196,-748,0.60083,40.5905,0,0,0,0,0,0,0,-1,1028,1772,0.600866,-40.5905
-189,-748,2.17188,41.5771,0,0,0,0,0,0,0,-1,1035,1772,2.17191,-41.5772
-182,-748,3.56726,42.4658,0,0,0,0,0,0,0,-1,1042,1772,3.5673,-42.4658
-175,-748,4.95459,43.3062,0.190484,0.110779,0.147459,0.303381,-0.00211775,0.65342,0.202964,0.0425811,1049,1772,4.95461,-43.3062
-168,-748,6.43604,43.9468,0.175362,0.102846,0.136506,0.280344,-0.00213532,0.655588,0.187612,0.039994,1056,1772,6.43607,-43.9468
-161,-748,7.6814,44.6876,0,0,0,0,0,0,0,-1,1063,1772,7.68139,-44.6876
-154,-748,8.76221,45.5106,0,0,0,0,0,0,0,-1,1070,1772,8.76222,-45.5107
-147,-748,9.49683,45.6388,0,0,0,0,0,0,0,-1,1077,1772,9.49677,-45.6387
-140,-748,10.4108,44.9001,0,0,0,0,0,0,0,-1,1084,1772,10.4107,-44.9001
-133,-748,7.44727,22.0308,0,0,0,0,0,0,0,-1,1091,1772,7.44728,-22.0308
-126,-748,5.98035,22.6067,0,0,0,0,0,0,0,-1,1098,1772,5.9803,-22.6067
-119,-748,6.63342,26.309,0,0,0,0,0,0,0,-1,1105,1772,6.6334,-26.3089
-112,-748,6.91333,24.923,0,0,0,0,0,0,0,-1,1112,1772,6.91339,-24.923
-105,-748,6.83313,25.0537,0,0,0,0,0,0,0,-1,1119,1772,6.83311,-25.0537
-98,-748,8.13623,30.8743,0,0,0,0,0,0,0,-1,1126,1772,8.13628,-30.8742
-91,-748,4.85352,15.3033,0,0,0,0,0,0,0,-1,1133,1772,4.85351,-15.3033
-84,-748,-0.192017,7.26196,0,0,0,0,0,0,0,-1,1140,1772,-0.192047,-7.26201
-77,-748,4.42615,13.5537,0,0,0,0,0,0,0,-1,1147,1772,4.4261,-13.5538
-70,-748,4.46191,13.7446,0,0,0,0,0,0,0,-1,1154,1772,4.4619,-13.7446
-63,-748,4.49768,13.9355,0,0,0,0,0,0,0,-1,1161,1772,4.49769,-13.9355
-56,-748,3.05762,7.87817,0,0,0,0,0,0,0,-1,1168,1772,3.05768,-7.87822
-49,-748,3.04102,7.82471,0,0,0,0,0,0,0,-1,1175,1772,3.04096,-7.82468
-42,-748,0.793457,14.9474,0,0,0,0,0,0,0,-1,1182,1772,0.793413,-14.9474
-35,-748,9.37207,48.6357,0,0,0,0,0,0,0,-1,1189,1772,9.37205,-48.6357
-28,-748,9.43799,48.7872,-0.0165529,-0.00289318,0.0190446,0.0105092,-0.0299552,0.957567,0.0242447,0.0485511,1196,1772,9.43796,-48.7872
-21,-748,9.36169,48.9656,-0.0152909,-0.00295903,0.0192181,0.011058,-0.029308,0.940631,0.0240862,0.0231776,1203,1772,9.36168,-48.9656
-14,-748,9.27356,49.0536,-0.0128031,-0.00216014,0.0197032,0.0129276,-0.0278908,0.917292,0.0240885,0.0160183,1210,1772,9.27352,-49.0536
-7,-748,9.25195,49.1616,-0.0108021,-0.0017236,0.0196514,0.013906,-0.0264317,0.898902,0.0236603,0.015121,1217,1772,9.25192,-49.1616
0,-748,9.21997,49.2732,-0.00838301,0.00132442,0.0189025,0.0159864,-0.023045,0.911071,0.0226573,0.0150765,1224,1772,9.22,-49.2731
7,-748,9.16687,49.3646,-0.00590695,0.00397693,0.0177062,0.0174179,-0.0193479,0.921489,0.0212365,0.0148388,1231,1772,9.1669,-49.3646
14,-748,9.11426,49.5068,-0.00356182,0.00708605,0.0162865,0.0188967,-0.0153725,0.94337,0.0198201,0.015936,1238,1772,9.11424,-49.5068
21,-748,9.09009,49.6151,-0.00160915,0.0102637,0.0143581,0.0198642,-0.0112097,0.981424,0.018171,0.0116436,1245,1772,9.09011,-49.6151
28,-748,9.04077,49.6876,-0.000226232,0.0137101,0.0117963,0.0204426,-0.00695873,1.05218,0.0164463,0.0119477,1252,1772,9.04074,-49.6876
35,-748,8.99048,49.7336,0.000667624,0.0169216,0.00901839,0.0209346,-0.00334537,1.15213,0.0151948,0.0125794,1259,1772,8.99051,-49.7337
42,-748,8.98083,49.7694,0.00110059,0.0202522,0.00582207,0.0218832,-0.000530411,1.29766,0.0147688,0.0139668,1266,1772,8.98084,-49.7694
49,-748,8.94543,49.8007,0.00140037,0.0233647,0.0032392,0.0238324,0.000932625,1.42739,0.0155867,0.0105917,1273,1772,8.94539,-49.8006
56,-748,8.90125,49.8477,0.00164453,0.0267006,0.00110877,0.0267496,0.00159556,1.52666,0.0173257,0.0099521,1280,1772,8.90124,-49.8477
63,-748,8.86597,49.863,0.00120369,0.028457,-0.000884795,0.0284857,0.001175,-1.53838,0.0186112,0.0125698,1287,1772,8.86601,-49.863
70,-748,8.83398,49.8665,0.00070195,0.0297185,-0.00244017,0.0299223,0.000498174,-1.48748,0.0197842,0.0140381,1294,1772,8.834,-49.8664
77,-748,8.80701,49.8484,0.00111744,0.0294821,-0.00355325,0.0299205,0.000679098,-1.44805,0.0197245,0.0130074,1301,1772,8.80698,-49.8483
84,-748,8.76025,49.8524,0.00183571,0.0284004,-0.00495352,0.029294,0.00094209,-1.39231,0.019223,0.0148751,1308,1772,8.7603,-49.8525
91,-748,8.71558,49.8325,0.00246523,0.0265453,-0.00614212,0.0280215,0.000989047,-1.33493,0.0183602,0.0119984,1315,1772,8.71558,-49.8325
98,-748,8.68152,49.7389,0.00411932,0.0250151,-0.00647365,0.0268581,0.00227629,-1.29344,0.0171969,0.0106761,1322,1772,8.68152,-49.7389
105,-748,8.66541,49.6067,0.00596655,0.0214199,-0.00664181,0.0238822,0.00350426,-1.21578,0.0148915,0.0123623,1329,1772,8.66539,-49.6067
112,-748,8.67139,49.5089,0.00807115,0.0192543,-0.00744464,0.0229734,0.00435206,-1.1075,0.0140907,0.015675,1336,1772,8.67141,-49.5089
119,-748,8.6311,49.4249,0.0100612,0.0167722,-0.00890032,0.0229285,0.00390488,-0.965661,0.0141646,0.0137996,1343,1772,8.63115,-49.425
126,-748,8.58252,49.3474,0.0118694,0.0142028,-0.0104749,0.0235757,0.00249646,-0.840862,0.0149546,0.0162107,1350,1772,8.58254,-49.3474
133,-748,8.52917,49.2367,0.0133891,0.0113245,-0.0119157,0.0243172,0.00039648,-0.742189,0.0160809,0.00948869,1357,1772,8.52912,-49.2367
140,-748,8.52002,49.1055,0.0143429,0.00868379,-0.0132773,0.0250887,-0.00206209,-0.680413,0.0174538,0.0124608,1364,1772,8.52002,-49.1054
147,-748,8.49207,48.9623,0.0149169,0.0060665,-0.0140896,0.0252598,-0.00427649,-0.633239,0.0184315,0.014856,1371,1772,8.49202,-48.9622
154,-748,8.41345,48.8146,0.0148969,0.00396451,-0.0151452,0.0255322,-0.00667076,-0.612213,0.0196267,0.0129057,1378,1772,8.41346,-48.8146
161,-748,8.36719,48.6609,0.0143136,0.000385406,-0.01612,0.0249095,-0.0102105,-0.581499,0.0208601,0.0203612,1385,1772,8.36714,-48.6609
168,-748,8.34399,48.5304,0,0,0,0,0,0,0,-1,1392,1772,8.34402,-48.5304
175,-748,11.6235,16.8242,0,0,0,0,0,0,0,-1,1399,1772,11.6236,-16.8242
182,-748,7.62476,10.3058,0,0,0,0,0,0,0,-1,1406,1772,7.62476,-10.3058
189,-748,6.15857,6.95898,0,0,0,0,0,0,0,-1,1413,1772,6.15862,-6.95896
196,-748,3.9425,8.46021,0,0,0,0,0,0,0,-1,1420,1772,3.9425,-8.46026
203,-748,3.9668,12.9835,0,0,0,0,0,0,0,-1,1427,1772,3.96678,-12.9836
210,-748,4.71472,16.8318,0,0,0,0,0,0,0,-1,1434,1772,4.71471,-16.8317
217,-748,5.38452,21.5551,0,0,0,0,0,0,0,-1,1441,1772,5.38455,-21.555
224,-748,6.14258,25.2345,0,0,0,0,0,0,0,-1,1448,1772,6.14263,-25.2345
231,-748,6.46045,29.7867,0,0,0,0,0,0,0,-1,1455,1772,6.46049,-29.7867
238,-748,7.41565,32.8574,0,0,0,0,0,0,0,-1,1462,1772,7.41562,-32.8574
245,-748,7.84912,32.0914,0,0,0,0,0,0,0,-1,1469,1772,7.84914,-32.0914
252,-748,7.57336,29.4369,0,0,0,0,0,0,0,-1,1476,1772,7.57337,-29.4369
259,-748,8.2019,43.6465,0,0,0,0,0,0,0,-1,1483,1772,8.2019,-43.6465
266,-748,8.25952,39.3665,0,0,0,0,0,0,0,-1,1490,1772,8.25952,-39.3664
273,-748,7.1991,43.2549,0,0,0,0,0,0,0,-1,1497,1772,7.1991,-43.2549
280,-748,8.76538,40.4501,0,0,0,0,0,0,0,-1,1504,1772,8.76537,-40.45
287,-748,14.161,8.32813,0,0,0,0,0,0,0,-1,1511,1772,14.161,-8.32808
294,-748,6.38525,32.4724,0,0,0,0,0,0,0,-1,1518,1772,6.38521,-32.4725
301,-748,5.40393,38.9807,0,0,0,0,0,0,0,-1,1525,1772,5.40397,-38.9807
308,-748,5.95227,37.1827,0,0,0,0,0,0,0,-1,1532,1772,5.95229,-37.1827
315,-748,7.71741,42.637,0,0,0,0,0,0,0,-1,1539,1772,7.71738,-42.637
322,-748,4.26538,29.0557,0,0,0,0,0,0,0,-1,1546,1772,4.26537,-29.0556
329,-748,3.87256,16.1473,0,0,0,0,0,0,0,-1,1553,1772,3.87259,-16.1474
336,-748,4.81006,19.6141,0,0,0,0,0,0,0,-1,1560,1772,4.81011,-19.6141
343,-748,0,0,0,0,0,0,0,0,0,-1,1567,1772,0,0
350,-748,0,0,0,0,0,0,0,0,0,-1,1574,1772,0,0
357,-748,0,0,0,0,0,0,0,0,0,-1,1581,1772,0,0
364,-748,0,0,0,0,0,0,0,0,0,-1,1588,1772,0,0
371,-748,0,0,0,0,0,0,0,0,0,-1,1595,1772,0,0
378,-748,0,0,0,0,0,0,0,0,0,-1,1602,1772,0,0
385,-748,0,0,0,0,0,0,0,0,0,-1,1609,1772,0,0
392,-748,0,0,0,0,0,0,0,0,0,-1,1616,1772,0,0
399,-748,0,0,0,0,0,0,0,0,0,-1,1623,1772,0,0
406,-748,0,0,0,0,0,0,0,0,0,-1,1630,1772,0,0
413,-748,0,0,0,0,0,0,0,0,0,-1,1637,1772,0,0
420,-748,0,0,0,0,0,0,0,0,0,-1,1644,1772,0,0
427,-748,0,0,0,0,0,0,0,0,0,-1,1651,1772,0,0
434,-748,0,0,0,0,0,0,0,0,0,-1,1658,1772,0,0
441,-748,0,0,0,0,0,0,0,0,0,-1,1665,1772,0,0
448,-748,0,0,0,0,0,0,0,0,0,-1,1672,1772,0,0
455,-748,0,0,0,0,0,0,0,0,0,-1,1679,1772,0,0
462,-748,0,0,0,0,0,0,0,0,0,-1,1686,1772,0,0
469,-748,0,0,0,0,0,0,0,0,0,-1,1693,1772,0,0
476,-748,0,0,0,0,0,0,0,0,0,-1,1700,1772,0,0
483,-748,0,0,0,0,0,0,0,0,0,-1,1707,1772,0,0
490,-748,0,0,0,0,0,0,0,0,0,-1,1714,1772,0,0
497,-748,0,0,0,0,0,0,0,0,0,-1,1721,1772,0,0
504,-748,0,0,0,0,0,0,0,0,0,-1,1728,1772,0,0
511,-748,0,0,0,0,0,0,0,0,0,-1,1735,1772,0,0
518,-748,0,0,0,0,0,0,0,0,0,-1,1742,1772,0,0
525,-748,0,0,0,0,0,0,0,0,0,-1,1749,1772,0,0
532,-748,0,0,0,0,0,0,0,0,0,-1,1756,1772,0,0
539,-748,0,0,0,0,0,0,0,0,0,-1,1763,1772,0,0
546,-748,0,0,0,0,0,0,0,0,0,-1,1770,1772,0,0
553,-748,0,0,0,0,0,0,0,0,0,-1,1777,1772,0,0
560,-748,0,0,0,0,0,0,0,0,0,-1,1784,1772,0,0
567,-748,0,0,0,0,0,0,0,0,0,-1,1791,1772,0,0
574,-748,0,0,0,0,0,0,0,0,0,-1,1798,1772,0,0
581,-748,0,0,0,0,0,0,0,0,0,-1,1805,1772,0,0
588,-748,0,0,0,0,0,0,0,0,0,-1,1812,1772,0,0
595,-748,0,0,0,0,0,0,0,0,0,-1,1819,1772,0,0
602,-748,0,0,0,0,0,0,0,0,0,-1,1826,1772,0,0
609,-748,0,0,0,0,0,0,0,0,0,-1,1833,1772,0,0
616,-748,0,0,0,0,0,0,0,0,0,-1,1840,1772,0,0
623,-748,0,0,0,0,0,0,0,0,0,-1,1847,1772,0,0
630,-748,0,0,0,0,0,0,0,0,0,-1,1854,1772,0,0
637,-748,0,0,0,0,0,0,0,0,0,-1,1861,1772,0,0
644,-748,0,0,0,0,0,0,0,0,0,-1,1868,1772,0,0
651,-748,0,0,0,0,0,0,0,0,0,-1,1875,1772,0,0
658,-748,0,0,0,0,0,0,0,0,0,-1,1882,1772,0,0
665,-748,0,0,0,0,0,0,0,0,0,-1,1889,1772,0,0
672,-748,0,0,0,0,0,0,0,0,0,-1,1896,1772,0,0
679,-748,0,0,0,0,0,0,0,0,0,-1,1903,1772,0,0
686,-748,0,0,0,0,0,0,0,0,0,-1,1910,1772,0,0
693,-748,0,0,0,0,0,0,0,0,0,-1,1917,1772,0,0
700,-748,0,0,0,0,0,0,0,0,0,-1,1924,1772,0,0
707,-748,0,0,0,0,0,0,0,0,0,-1,1931,1772,0,0
714,-748,0,0,0,0,0,0,0,0,0,-1,1938,1772,0,0
721,-748,0,0,0,0,0,0,0,0,0,-1,1945,1772,0,0
728,-748,0,0,0,0,0,0,0,0,0,-1,1952,1772,0,0
735,-748,0,0,0,0,0,0,0,0,0,-1,1959,1772,0,0
742,-748,0,0,0,0,0,0,0,0,0,-1,1966,1772,0,0
749,-748,0,0,0,0,0,0,0,0,0,-1,1973,1772,0,0
756,-748,0,0,0,0,0,0,0,0,0,-1,1980,1772,0,0
763,-748,0,0,0,0,0,0,0,0,0,-1,1987,1772,0,0
770,-748,0,0,0,0,0,0,0,0,0,-1,1994,1772,0,0
777,-748,0,0,0,0,0,0,0,0,0,-1,2001,1772,0,0
784,-748,0,0,0,0,0,0,0,0,0,-1,2008,1772,0,0
791,-748,0,0,0,0,0,0,0,0,0,-1,2015,1772,0,0
798,-748,0,0,0,0,0,0,0,0,0,-1,2022,1772,0,0
805,-748,0,0,0,0,0,0,0,0,0,-1,2029,1772,0,0
812,-748,0,0,0,0,0,0,0,0,0,-1,2036,1772,0,0
-700,-755,0,0,0,0,0,0,0,0,0,-1,524,1779,0,0
-693,-755,0,0,0,0,0,0,0,0,0,-1,531,1779,0,0
-686,-755,0,0,0,0,0,0,0,0,0,-1,538,1779,0,0
-679,-755,0,0,0,0,0,0,0,0,0,-1,545,1779,0,0
-672,-755,0,0,0,0,0,0,0,0,0,-1,552,1779,0,0
-665,-755,0,0,0,0,0,0,0,0,0,-1,559,1779,0,0
-658,-755,0,0,0,0,0,0,0,0,0,-1,566,1779,0,0
-651,-755,0,0,0,0,0,0,0,0,0,-1,573,1779,0,0
-644,-755,0,0,0,0,0,0,0,0,0,-1,580,1779,0,0
-637,-755,0,0,0,0,0,0,0,0,0,-1,587,1779,0,0
-630,-755,0,0,0,0,0,0,0,0,0,-1,594,1779,0,0
-623,-755,0,0,0,0,0,0,0,0,0,-1,601,1779,0,0
-616,-755,0,0,0,0,0,0,0,0,0,-1,608,1779,0,0
-609,-755,0,0,0,0,0,0,0,0,0,-1,615,1779,0,0
-602,-755,0,0,0,0,0,0,0,0,0,-1,622,1779,0,0
-595,-755,0,0,0,0,0,0,0,0,0,-1,629,1779,0,0
-588,-755,0,0,0,0,0,0,0,0,0,-1,636,1779,0,0
-581,-755,0,0,0,0,0,0,0,0,0,-1,643,1779,0,0
-574,-755,0,0,0,0,0,0,0,0,0,-1,650,1779,0,0
-567,-755,0,0,0,0,0,0,0,0,0,-1,657,1779,0,0
-560,-755,0,0,0,0,0,0,0,0,0,-1,664,1779,0,0
-553,-755,0,0,0,0,0,0,0,0,0,-1,671,1779,0,0
-546,-755,0,0,0,0,0,0,0,0,0,-1,678,1779,0,0
-539,-755,0,0,0,0,0,0,0,0,0,-1,685,1779,0,0
-532,-755,0,0,0,0,0,0,0,0,0,-1,692,1779,0,0
-525,-755,0,0,0,0,0,0,0,0,0,-1,699,1779,0,0
-518,-755,0,0,0,0,0,0,0,0,0,-1,706,1779,0,0
-511,-755,0,0,0,0,0,0,0,0,0,-1,713,1779,0,0
-504,-755,0,0,0,0,0,0,0,0,0,-1,720,1779,0,0
-497,-755,0,0,0,0,0,0,0,0,0,-1,727,1779,0,0
-490,-755,0,0,0,0,0,0,0,0,0,-1,734,1779,0,0
-483,-755,0,0,0,0,0,0,0,0,0,-1,741,1779,0,0
-476,-755,0,0,0,0,0,0,0,0,0,-1,748,1779,0,0
-469,-755,0,0,0,0,0,0,0,0,0,-1,755,1779,0,0
-462,-755,0,0,0,0,0,0,0,0,0,-1,762,1779,0,0
-455,-755,0,0,0,0,0,0,0,0,0,-1,769,1779,0,0
-448,-755,0,0,0,0,0,0,0,0,0,-1,776,1779,0,0
-441,-755,0,0,0,0,0,0,0,0,0,-1,783,1779,0,0
-434,-755,0,0,0,0,0,0,0,0,0,-1,790,1779,0,0
-427,-755,0,0,0,0,0,0,0,0,0,-1,797,1779,0,0
-420,-755,0,0,0,0,0,0,0,0,0,-1,804,1779,0,0
-413,-755,0,0,0,0,0,0,0,0,0,-1,811,1779,0,0
-406,-755,0,0,0,0,0,0,0,0,0,-1,818,1779,0,0
-399,-755,0,0,0,0,0,0,0,0,0,-1,825,1779,0,0
-392,-755,0,0,0,0,0,0,0,0,0,-1,832,1779,0,0
-385,-755,0,0,0,0,0,0,0,0,0,-1,839,1779,0,0
-378,-755,0,0,0,0,0,0,0,0,0,-1,846,1779,0,0
-371,-755,0,0,0,0,0,0,0,0,0,-1,853,1779,0,0
-364,-755,0,0,0,0,0,0,0,0,0,-1,860,1779,0,0
-357,-755,0,0,0,0,0,0,0,0,0,-1,867,1779,0,0
-350,-755,0,0,0,0,0,0,0,0,0,-1,874,1779,0,0
-343,-755,0,0,0,0,0,0,0,0,0,-1,881,1779,0,0
-336,-755,0,0,0,0,0,0,0,0,0,-1,888,1779,0,0
-329,-755,0,0,0,0,0,0,0,0,0,-1,895,1779,0,0
-322,-755,0,0,0,0,0,0,0,0,0,-1,902,1779,0,0
-315,-755,0,0,0,0,0,0,0,0,0,-1,909,1779,0,0
-308,-755,0,0,0,0,0,0,0,0,0,-1,916,1779,0,0
-301,-755,0,0,0,0,0,0,0,0,0,-1,923,1779,0,0
-294,-755,0,0,0,0,0,0,0,0,0,-1,930,1779,0,0
-287,-755,0,0,0,0,0,0,0,0,0,-1,937,1779,0,0
-280,-755,0,0,0,0,0,0,0,0,0,-1,944,1779,0,0
-273,-755,0,0,0,0,0,0,0,0,0,-1,951,1779,0,0
-266,-755,0,0,0,0,0,0,0,0,0,-1,958,1779,0,0
-259,-755,0,0,0,0,0,0,0,0,0,-1,965,1779,0,0
-252,-755,0,0,0,0,0,0,0,0,0,-1,972,1779,0,0
-245,-755,0,0,0,0,0,0,0,0,0,-1,979,1779,0,0
-238,-755,0,0,0,0,0,0,0,0,0,-1,986,1779,0,0
-231,-755,0,0,0,0,0,0,0,0,0,-1,993,1779,0,0
-224,-755,0,0,0,0,0,0,0,0,0,-1,1000,1779,0,0
-217,-755,0,0,0,0,0,0,0,0,0,-1,1007,1779,0,0
-210,-755,0,0,0,0,0,0,0,0,0,-1,1014,1779,0,0
-203,-755,8.97363,30.5414,0,0,0,0,0,0,0,-1,1021,1779,8.97362,-30.5414
-196,-755,-0.84668,38.9543,0,0,0,0,0,0,0,-1,1028,1779,-0.84672,-38.9543
-189,-755,0.725098,39.8892,0,0,0,0,0,0,0,-1,1035,1779,0.725055,-39.8891
-182,-755,1.80835,40.9692,0,0,0,0,0,0,0,-1,1042,1779,1.80838,-40.9692
-175,-755,3.04749,41.9612,0.249235,0.167708,0.192907,0.405639,0.0113048,0.681275,0.266737,0.0487413,1049,1779,3.0475,-41.9612
-168,-755,4.8302,42.7631,0.232355,0.1596,0.180843,0.380443,0.0115117,0.686145,0.24988,0.0451944,1056,1779,4.8302,-42.7631
-161,-755,6.46777,44.0007,0,0,0,0,0,0,0,-1,1063,1779,6.46773,-44.0007
-154,-755,7.71094,44.9023,0,0,0,0,0,0,0,-1,1070,1779,7.71089,-44.9023
-147,-755,-6.45593,10.2422,0,0,0,0,0,0,0,-1,1077,1779,-6.45594,-10.2422
-140,-755,1.33521,21.3856,0,0,0,0,0,0,0,-1,1084,1779,1.33522,-21.3857
-133,-755,2.89417,21.0964,0,0,0,0,0,0,0,-1,1091,1779,2.89422,-21.0964
-126,-755,3.26404,20.9304,0,0,0,0,0,0,0,-1,1098,1779,3.26399,-20.9305
-119,-755,5.17761,21.9325,0,0,0,0,0,0,0,-1,1105,1779,5.17761,-21.9325
-112,-755,5.40247,24.5646,0,0,0,0,0,0,0,-1,1112,1779,5.40244,-24.5646
-105,-755,7.01294,20.1539,0,0,0,0,0,0,0,-1,1119,1779,7.01295,-20.154
-98,-755,5.50708,16.9628,0,0,0,0,0,0,0,-1,1126,1779,5.5071,-16.9628
-91,-755,5.51025,12.0438,0,0,0,0,0,0,0,-1,1133,1779,5.51022,-12.0439
-84,-755,0.169312,8.66443,0,0,0,0,0,0,0,-1,1140,1779,0.16932,-8.66446
-77,-755,-0.0491943,6.87439,0,0,0,0,0,0,0,-1,1147,1779,-0.0491385,-6.87443
-70,-755,4.5686,13.2169,0,0,0,0,0,0,0,-1,1154,1779,4.56865,-13.2169
-63,-755,-1.36316,7.3147,0,0,0,0,0,0,0,-1,1161,1779,-1.36312,-7.31473
-56,-755,0.0483398,5.06079,0,0,0,0,0,0,0,-1,1168,1779,0.0483138,-5.06084
-49,-755,-1.32263,5.33716,0,0,0,0,0,0,0,-1,1175,1779,-1.32264,-5.33718
-42,-755,-2.03613,4.01672,0,0,0,0,0,0,0,-1,1182,1779,-2.0361,-4.01671
-35,-755,-2.72498,2.37476,0,0,0,0,0,0,0,-1,1189,1779,-2.72502,-2.37473
-28,-755,9.50037,48.8597,0,0,0,0,0,0,0,-1,1196,1779,9.5004,-48.8597
-21,-755,9.4126,49.0704,0,0,0,0,0,0,0,-1,1203,1779,9.4126,-49.0705
-14,-755,9.35657,49.0962,-0.0186995,-0.00319306,0.0275585,0.0176821,-0.0395747,0.922522,0.0338531,0.032007,1210,1779,9.35655,-49.0962
-7,-755,9.32446,49.137,-0.0157278,-0.0023627,0.0273934,0.0191515,-0.037242,0.905035,0.0331125,0.0231516,1217,1779,9.32447,-49.1369
0,-755,9.29565,49.25,-0.0121254,0.00203587,0.0263695,0.0222588,-0.0323484,0.916562,0.0317064,0.0143199,1224,1779,9.29565,-49.25
7,-755,9.27087,49.3712,-0.00849593,0.00631322,0.0246171,0.0246153,-0.026798,0.931489,0.0296924,0.0133768,1231,1779,9.27086,-49.3713
14,-755,9.22095,49.4904,-0.00516278,0.0114695,0.0225387,0.0271773,-0.0208707,0.962135,0.0278201,0.0121596,1238,1779,9.22098,-49.4904
21,-755,9.14746,49.5833,-0.00241125,0.0166359,0.0197686,0.0290553,-0.0148307,1.00987,0.0257775,0.0166355,1245,1779,9.14746,-49.5833
28,-755,9.0907,49.6295,-0.00067228,0.0220752,0.0159744,0.0303112,-0.00890829,1.09476,0.0237407,0.0206598,1252,1779,9.09073,-49.6295
35,-755,9.06079,49.72,0.000296011,0.0271233,0.0119433,0.0316699,-0.00425055,1.20706,0.0226633,0.0207613,1259,1779,9.06074,-49.72
42,-755,9.02832,49.765,0.000716635,0.0321555,0.00743011,0.033823,-0.000950914,1.35002,0.0228722,0.0146419,1266,1779,9.02833,-49.765
49,-755,8.98047,49.7549,0.0010141,0.0366222,0.00381182,0.0370257,0.000610618,1.46534,0.0244828,0.0100203,1273,1779,8.9805,-49.7548
56,-755,8.92188,49.803,0.0012421,0.0413125,0.000794045,0.0413283,0.00122637,1.55099,0.0271526,0.00949413,1280,1779,8.92192,-49.8029
63,-755,8.8894,49.8445,0.000558647,0.0437147,-0.0020603,0.0438128,0.000460511,-1.5232,0.0290562,0.0098676,1287,1779,8.88941,-49.8445
70,-755,8.86365,49.821,-0.000159458,0.0453606,-0.00428065,0.0457597,-0.000558505,-1.47784,0.0306943,0.0136092,1294,1779,8.86369,-49.8211
77,-755,8.78882,49.7722,0.000431991,0.044648,-0.00585662,0.0454106,-0.000330592,-1.44132,0.0303845,0.013217,1301,1779,8.78876,-49.7722
84,-755,8.73804,49.7788,0.00149346,0.0428275,-0.00775598,0.0442349,8.60393e-05,-1.39129,0.0294613,0.0136613,1308,1779,8.73803,-49.7788
91,-755,8.69531,49.7244,0.00249573,0.0398348,-0.00941588,0.0420748,0.000255693,-1.33724,0.027965,0.0131818,1315,1779,8.69527,-49.7244
98,-755,8.6344,49.6672,0.00501664,0.0372488,-0.00989705,0.0400451,0.0022203,-1.29543,0.0259883,0.0142577,1322,1779,8.63446,-49.6672
105,-755,8.61694,49.6055,0.00783986,0.0318174,-0.010181,0.035557,0.00410024,-1.21878,0.022463,0.0185718,1329,1779,8.61694,-49.6055
112,-755,8.56506,49.5089,0.011065,0.0284152,-0.0113682,0.0340402,0.00543997,-1.11132,0.021115,0.0246412,1336,1779,8.56509,-49.5089
119,-755,8.48828,49.4188,0.0141805,0.0244643,-0.0134472,0.0337192,0.00492563,-0.968008,0.0210307,0.0250084,1343,1779,8.48826,-49.4189
126,-755,8.46667,49.4277,0.0169739,0.020406,-0.0156377,0.0344215,0.00295844,-0.840049,0.0220279,0.0282965,1350,1779,8.46666,-49.4278
133,-755,8.4032,49.2888,0.0195349,0.0158446,-0.0176728,0.0354586,-7.90581e-05,-0.733384,0.0236655,0.0273731,1357,1779,8.40316,-49.2888
140,-755,8.35767,49.1289,0.0213525,0.011547,-0.0196867,0.0367378,-0.00383833,-0.663361,0.0258664,0.0342514,1364,1779,8.35762,-49.1289
147,-755,8.47351,48.9774,0.0225213,0.00755953,-0.0210613,0.0373908,-0.00730999,-0.61475,0.0276874,0.0383718,1371,1779,8.47357,-48.9775
154,-755,8.28003,48.9468,0.0229864,0.00453833,-0.0226453,0.0382142,-0.0106895,-0.591995,0.0296879,0.0394936,1378,1779,8.27999,-48.9467
161,-755,8.06165,48.8311,0,0,0,0,0,0,0,-1,1385,1779,8.0617,-48.8311
168,-755,3.98181,7.35901,0,0,0,0,0,0,0,-1,1392,1779,3.98184,-7.35904
175,-755,8.17065,1.34363,0,0,0,0,0,0,0,-1,1399,1779,8.1706,-1.34368
182,-755,8.09216,2.96924,0,0,0,0,0,0,0,-1,1406,1779,8.09213,-2.9693
189,-755,8.04419,4.68042,0,0,0,0,0,0,0,-1,1413,1779,8.04419,-4.68046
196,-755,7.74841,7.4541,0,0,0,0,0,0,0,-1,1420,1779,7.74842,-7.45405
203,-755,4.80554,6.88696,0,0,0,0,0,0,0,-1,1427,1779,4.80554,-6.88697
210,-755,25.1694,7.35693,0,0,0,0,0,0,0,-1,1434,1779,25.1694,-7.35688
217,-755,5.01648,16.411,0,0,0,0,0,0,0,-1,1441,1779,5.01646,-16.411
224,-755,5.18103,22.6283,0,0,0,0,0,0,0,-1,1448,1779,5.18101,-22.6283
231,-755,5.7489,30.15,0,0,0,0,0,0,0,-1,1455,1779,5.74885,-30.15
238,-755,6.56323,29.2726,0,0,0,0,0,0,0,-1,1462,1779,6.56327,-29.2726
245,-755,8.29639,28.2113,0,0,0,0,0,0,0,-1,1469,1779,8.29639,-28.2113
252,-755,6.8877,28.8699,0,0,0,0,0,0,0,-1,1476,1779,6.88774,-28.8698
259,-755,5.47913,29.5283,0,0,0,0,0,0,0,-1,1483,1779,5.4791,-29.5283
266,-755,17.255,7.86096,0,0,0,0,0,0,0,-1,1490,1779,17.255,-7.86092
273,-755,15.7932,7.59778,0,0,0,0,0,0,0,-1,1497,1779,15.7932,-7.59777
280,-755,14.6255,7.34802,0,0,0,0,0,0,0,-1,1504,1779,14.6254,-7.34806
287,-755,13.8279,7.83105,0,0,0,0,0,0,0,-1,1511,1779,13.8279,-7.83104
294,-755,12.5695,7.96814,0,0,0,0,0,0,0,-1,1518,1779,12.5694,-7.9682
301,-755,11.2659,8.27087,0,0,0,0,0,0,0,-1,1525,1779,11.2658,-8.27087
308,-755,5.17737,37.2896,0,0,0,0,0,0,0,-1,1532,1779,5.17742,-37.2896
315,-755,0.828613,31.032,0,0,0,0,0,0,0,-1,1539,1779,0.828668,-31.032
322,-755,0,0,0,0,0,0,0,0,0,-1,1546,1779,0,0
329,-755,0,0,0,0,0,0,0,0,0,-1,1553,1779,0,0
336,-755,0,0,0,0,0,0,0,0,0,-1,1560,1779,0,0
343,-755,0,0,0,0,0,0,0,0,0,-1,1567,1779,0,0
350,-755,0,0,0,0,0,0,0,0,0,-1,1574,1779,0,0
357,-755,0,0,0,0,0,0,0,0,0,-1,1581,1779,0,0
364,-755,0,0,0,0,0,0,0,0,0,-1,1588,1779,0,0
371,-755,0,0,0,0,0,0,0,0,0,-1,1595,1779,0,0
378,-755,0,0,0,0,0,0,0,0,0,-1,1602,1779,0,0
385,-755,0,0,0,0,0,0,0,0,0,-1,1609,1779,0,0
392,-755,0,0,0,0,0,0,0,0,0,-1,1616,1779,0,0
399,-755,0,0,0,0,0,0,0,0,0,-1,1623,1779,0,0
406,-755,0,0,0,0,0,0,0,0,0,-1,1630,1779,0,0
413,-755,0,0,0,0,0,0,0,0,0,-1,1637,1779,0,0
420,-755,0,0,0,0,0,0,0,0,0,-1,1644,1779,0,0
427,-755,0,0,0,0,0,0,0,0,0,-1,1651,1779,0,0
434,-755,0,0,0,0,0,0,0,0,0,-1,1658,1779,0,0
441,-755,0,0,0,0,0,0,0,0,0,-1,1665,1779,0,0
448,-755,0,0,0,0,0,0,0,0,0,-1,1672,1779,0,0
455,-755,0,0,0,0,0,0,0,0,0,-1,1679,1779,0,0
462,-755,0,0,0,0,0,0,0,0,0,-1,1686,1779,0,0
469,-755,0,0,0,0,0,0,0,0,0,-1,1693,1779,0,0
476,-755,0,0,0,0,0,0,0,0,0,-1,1700,1779,0,0
483,-755,0,0,0,0,0,0,0,0,0,-1,1707,1779,0,0
490,-755,0,0,0,0,0,0,0,0,0,-1,1714,1779,0,0
497,-755,0,0,0,0,0,0,0,0,0,-1,1721,1779,0,0
504,-755,0,0,0,0,0,0,0,0,0,-1,1728,1779,0,0
511,-755,0,0,0,0,0,0,0,0,0,-1,1735,1779,0,0
518,-755,0,0,0,0,0,0,0,0,0,-1,1742,1779,0,0
525,-755,0,0,0,0,0,0,0,0,0,-1,1749,1779,0,0
532,-755,0,0,0,0,0,0,0,0,0,-1,1756,1779,0,0
539,-755,0,0,0,0,0,0,0,0,0,-1,1763,1779,0,0
546,-755,0,0,0,0,0,0,0,0,0,-1,1770,1779,0,0
553,-755,0,0,0,0,0,0,0,0,0,-1,1777,1779,0,0
560,-755,0,0,0,0,0,0,0,0,0,-1,1784,1779,0,0
567,-755,0,0,0,0,0,0,0,0,0,-1,1791,1779,0,0
574,-755,0,0,0,0,0,0,0,0,0,-1,1798,1779,0,0
581,-755,0,0,0,0,0,0,0,0,0,-1,1805,1779,0,0
588,-755,0,0,0,0,0,0,0,0,0,-1,1812,1779,0,0
595,-755,0,0,0,0,0,0,0,0,0,-1,1819,1779,0,0
602,-755,0,0,0,0,0,0,0,0,0,-1,1826,1779,0,0
609,-755,0,0,0,0,0,0,0,0,0,-1,1833,1779,0,0
616,-755,0,0,0,0,0,0,0,0,0,-1,1840,1779,0,0
623,-755,0,0,0,0,0,0,0,0,0,-1,1847,1779,0,0
630,-755,0,0,0,0,0,0,0,0,0,-1,1854,1779,0,0
637,-755,0,0,0,0,0,0,0,0,0,-1,1861,1779,0,0
644,-755,0,0,0,0,0,0,0,0,0,-1,1868,1779,0,0
651,-755,0,0,0,0,0,0,0,0,0,-1,1875,1779,0,0
658,-755,0,0,0,0,0,0,0,0,0,-1,1882,1779,0,0
665,-755,0,0,0,0,0,0,0,0,0,-1,1889,1779,0,0
672,-755,0,0,0,0,0,0,0,0,0,-1,1896,1779,0,0
679,-755,0,0,0,0,0,0,0,0,0,-1,1903,1779,0,0
686,-755,0,0,0,0,0,0,0,0,0,-1,1910,1779,0,0
693,-755,0,0,0,0,0,0,0,0,0,-1,1917,1779,0,0
700,-755,0,0,0,0,0,0,0,0,0,-1,1924,1779,0,0
707,-755,0,0,0,0,0,0,0,0,0,-1,1931,1779,0,0
714,-755,0,0,0,0,0,0,0,0,0,-1,1938,1779,0,0
721,-755,0,0,0,0,0,0,0,0,0,-1,1945,1779,0,0
728,-755,0,0,0,0,0,0,0,0,0,-1,1952,1779,0,0
735,-755,0,0,0,0,0,0,0,0,0,-1,1959,1779,0,0
742,-755,0,0,0,0,0,0,0,0,0,-1,1966,1779,0,0
749,-755,0,0,0,0,0,0,0,0,0,-1,1973,1779,0,0
756,-755,0,0,0,0,0,0,0,0,0,-1,1980,1779,0,0
763,-755,0,0,0,0,0,0,0,0,0,-1,1987,1779,0,0
770,-755,0,0,0,0,0,0,0,0,0,-1,1994,1779,0,0
777,-755,0,0,0,0,0,0,0,0,0,-1,2001,1779,0,0
784,-755,0,0,0,0,0,0,0,0,0,-1,2008,1779,0,0
791,-755,0,0,0,0,0,0,0,0,0,-1,2015,1779,0,0
798,-755,0,0,0,0,0,0,0,0,0,-1,2022,1779,0,0
805,-755,0,0,0,0,0,0,0,0,0,-1,2029,1779,0,0
812,-755,0,0,0,0,0,0,0,0,0,-1,2036,1779,0,0
-700,-762,0,0,0,0,0,0,0,0,0,-1,524,1786,0,0
-693,-762,0,0,0,0,0,0,0,0,0,-1,531,1786,0,0
-686,-762,0,0,0,0,0,0,0,0,0,-1,538,1786,0,0
-679,-762,0,0,0,0,0,0,0,0,0,-1,545,1786,0,0
-672,-762,0,0,0,0,0,0,0,0,0,-1,552,1786,0,0
-665,-762,0,0,0,0,0,0,0,0,0,-1,559,1786,0,0
-658,-762,0,0,0,0,0,0,0,0,0,-1,566,1786,0,0
-651,-762,0,0,0,0,0,0,0,0,0,-1,573,1786,0,0
-644,-762,0,0,0,0,0,0,0,0,0,-1,580,1786,0,0
-637,-762,0,0,0,0,0,0,0,0,0,-1,587,1786,0,0
-630,-762,0,0,0,0,0,0,0,0,0,-1,594,1786,0,0
-623,-762,0,0,0,0,0,0,0,0,0,-1,601,1786,0,0
-616,-762,0,0,0,0,0,0,0,0,0,-1,608,1786,0,0
-609,-762,0,0,0,0,0,0,0,0,0,-1,615,1786,0,0
-602,-762,0,0,0,0,0,0,0,0,0,-1,622,1786,0,0
-595,-762,0,0,0,0,0,0,0,0,0,-1,629,1786,0,0
-588,-762,0,0,0,0,0,0,0,0,0,-1,636,1786,0,0
-581,-762,0,0,0,0,0,0,0,0,0,-1,643,1786,0,0
-574,-762,0,0,0,0,0,0,0,0,0,-1,650,1786,0,0
-567,-762,0,0,0,0,0,0,0,0,0,-1,657,1786,0,0
-560,-762,0,0,0,0,0,0,0,0,0,-1,664,1786,0,0
-553,-762,0,0,0,0,0,0,0,0,0,-1,671,1786,0,0
-546,-762,0,0,0,0,0,0,0,0,0,-1,678,1786,0,0
-539,-762,0,0,0,0,0,0,0,0,0,-1,685,1786,0,0
-532,-762,0,0,0,0,0,0,0,0,0,-1,692,1786,0,0
-525,-762,0,0,0,0,0,0,0,0,0,-1,699,1786,0,0
-518,-762,0,0,0,0,0,0,0,0,0,-1,706,1786,0,0
-511,-762,0,0,0,0,0,0,0,0,0,-1,713,1786,0,0
-504,-762,0,0,0,0,0,0,0,0,0,-1,720,1786,0,0
-497,-762,0,0,0,0,0,0,0,0,0,-1,727,1786,0,0
-490,-762,0,0,0,0,0,0,0,0,0,-1,734,1786,0,0
-483,-762,0,0,0,0,0,0,0,0,0,-1,741,1786,0,0
-476,-762,0,0,0,0,0,0,0,0,0,-1,748,1786,0,0
-469,-762,0,0,0,0,0,0,0,0,0,-1,755,1786,0,0
-462,-762,0,0,0,0,0,0,0,0,0,-1,762,1786,0,0
-455,-762,0,0,0,0,0,0,0,0,0,-1,769,1786,0,0
-448,-762,0,0,0,0,0,0,0,0,0,-1,776,1786,0,0
-441,-762,0,0,0,0,0,0,0,0,0,-1,783,1786,0,0
-434,-762,0,0,0,0,0,0,0,0,0,-1,790,1786,0,0
-427,-762,0,0,0,0,0,0,0,0,0,-1,797,1786,0,0
-420,-762,0,0,0,0,0,0,0,0,0,-1,804,1786,0,0
-413,-762,0,0,0,0,0,0,0,0,0,-1,811,1786,0,0
-406,-762,0,0,0,0,0,0,0,0,0,-1,818,1786,0,0
-399,-762,0,0,0,0,0,0,0,0,0,-1,825,1786,0,0
-392,-762,0,0,0,0,0,0,0,0,0,-1,832,1786,0,0
-385,-762,0,0,0,0,0,0,0,0,0,-1,839,1786,0,0
-378,-762,0,0,0,0,0,0,0,0,0,-1,846,1786,0,0
-371,-762,0,0,0,0,0,0,0,0,0,-1,853,1786,0,0
-364,-762,0,0,0,0,0,0,0,0,0,-1,860,1786,0,0
-357,-762,0,0,0,0,0,0,0,0,0,-1,867,1786,0,0
-350,-762,0,0,0,0,0,0,0,0,0,-1,874,1786,0,0
-343,-762,0,0,0,0,0,0,0,0,0,-1,881,1786,0,0
-336,-762,0,0,0,0,0,0,0,0,0,-1,888,1786,0,0
-329,-762,0,0,0,0,0,0,0,0,0,-1,895,1786,0,0
-322,-762,0,0,0,0,0,0,0,0,0,-1,902,1786,0,0
-315,-762,0,0,0,0,0,0,0,0,0,-1,909,1786,0,0
-308,-762,0,0,0,0,0,0,0,0,0,-1,916,1786,0,0
-301,-762,0,0,0,0,0,0,0,0,0,-1,923,1786,0,0
-294,-762,0,0,0,0,0,0,0,0,0,-1,930,1786,0,0
-287,-762,0,0,0,0,0,0,0,0,0,-1,937,1786,0,0
-280,-762,0,0,0,0,0,0,0,0,0,-1,944,1786,0,0
-273,-762,0,0,0,0,0,0,0,0,0,-1,951,1786,0,0
-266,-762,0,0,0,0,0,0,0,0,0,-1,958,1786,0,0
-259,-762,0,0,0,0,0,0,0,0,0,-1,965,1786,0,0
-252,-762,0,0,0,0,0,0,0,0,0,-1,972,1786,0,0
-245,-762,0,0,0,0,0,0,0,0,0,-1,979,1786,0,0
-238,-762,0,0,0,0,0,0,0,0,0,-1,986,1786,0,0
-231,-762,0,0,0,0,0,0,0,0,0,-1,993,1786,0,0
-224,-762,0,0,0,0,0,0,0,0,0,-1,1000,1786,0,0
-217,-762,0,0,0,0,0,0,0,0,0,-1,1007,1786,0,0
-210,-762,0,0,0,0,0,0,0,0,0,-1,1014,1786,0,0
-203,-762,0,0,0,0,0,0,0,0,0,-1,1021,1786,0,0
-196,-762,0,0,0,0,0,0,0,0,0,-1,1028,1786,0,0
-189,-762,0,0,0,0,0,0,0,0,0,-1,1035,1786,0,0
-182,-762,4.44226,13.2462,0,0,0,0,0,0,0,-1,1042,1786,4.44227,-13.2462
-175,-762,1.14465,40.1932,0,0,0,0,0,0,0,-1,1049,1786,1.1447,-40.1932
-168,-762,3.26794,41.3881,0,0,0,0,0,0,0,-1,1056,1786,3.26794,-41.388
-161,-762,-3.29077,11.9508,0,0,0,0,0,0,0,-1,1063,1786,-3.29076,-11.9508
-154,-762,-4.55823,11.1176,0,0,0,0,0,0,0,-1,1070,1786,-4.55828,-11.1175
-147,-762,-6.52454,9.41418,0,0,0,0,0,0,0,-1,1077,1786,-6.52458,-9.41419
-140,-762,4.99792,5.28589,0,0,0,0,0,0,0,-1,1084,1786,4.99793,-5.28587
-133,-762,0.689819,19.2172,0,0,0,0,0,0,0,-1,1091,1786,0.689867,-19.2171
-126,-762,1.48743,19.9288,0,0,0,0,0,0,0,-1,1098,1786,1.48738,-19.9289
-119,-762,2.65637,20.208,0,0,0,0,0,0,0,-1,1105,1786,2.65632,-20.208
-112,-762,6.84705,25.5554,0,0,0,0,0,0,0,-1,1112,1786,6.84706,-25.5554
-105,-762,5.57947,21.618,0,0,0,0,0,0,0,-1,1119,1786,5.57948,-21.618
-98,-762,5.0636,17.9901,0,0,0,0,0,0,0,-1,1126,1786,5.06361,-17.9901
-91,-762,4.54773,14.3622,0,0,0,0,0,0,0,-1,1133,1786,4.54774,-14.3622
-84,-762,3.96375,10.4547,0,0,0,0,0,0,0,-1,1140,1786,3.96371,-10.4548
-77,-762,0.305054,8.49365,0,0,0,0,0,0,0,-1,1147,1786,0.305008,-8.49362
-70,-762,0.183716,6.74622,0,0,0,0,0,0,0,-1,1154,1786,0.183696,-6.74621
-63,-762,-0.883057,9.08813,0,0,0,0,0,0,0,-1,1161,1786,-0.88311,-9.08808
-56,-762,-0.578979,5.10254,0,0,0,0,0,0,0,-1,1168,1786,-0.578951,-5.10249
-49,-762,-2.04541,3.66321,0,0,0,0,0,0,0,-1,1175,1786,-2.0454,-3.66319
-42,-762,-2.23462,3.474,0,0,0,0,0,0,0,-1,1182,1786,-2.23459,-3.47399
-35,-762,-3.28992,1.68164,0,0,0,0,0,0,0,-1,1189,1786,-3.28998,-1.68164
-28,-762,-3.75378,1.37769,0,0,0,0,0,0,0,-1,1196,1786,-3.75373,-1.37767
-21,-762,9.81067,48.4696,0,0,0,0,0,0,0,-1,1203,1786,9.8107,-48.4697
-14,-762,9.27515,49.3217,0,0,0,0,0,0,0,-1,1210,1786,9.27519,-49.3217
-7,-762,9.26672,49.2755,-0.0219134,-0.00321309,0.036494,0.0251096,-0.0502361,0.910806,0.0442998,0.0488722,1217,1786,9.26674,-49.2755
0,-762,9.30615,49.3457,-0.0167059,0.00287592,0.0353272,0.0297439,-0.0435738,0.92058,0.0425803,0.0355966,1224,1786,9.30617,-49.3457
7,-762,9.33704,49.4288,-0.0115048,0.00941573,0.0329806,0.0335551,-0.0356441,0.938962,0.0399583,0.0216821,1231,1786,9.33702,-49.4289
14,-762,9.28186,49.7141,-0.00683757,0.0174088,0.0301197,0.0377536,-0.0271823,0.976728,0.037656,0.0362185,1238,1786,9.28184,-49.7141
21,-762,9.15967,49.613,-0.00303413,0.0254277,0.0263166,0.0411147,-0.0187212,1.03326,0.0353435,0.0470387,1245,1786,9.15961,-49.6131
28,-762,9.05164,49.6221,-0.000791932,0.0335249,0.0210265,0.0435054,-0.0107725,1.12762,0.0331825,0.0485266,1252,1786,9.05161,-49.622
35,-762,8.91626,49.7878,0.000358884,0.0409289,0.0154669,0.0461528,-0.00486506,1.24508,0.0325118,0.0471013,1259,1786,8.91631,-49.7879
42,-762,8.99426,49.8843,0.000852282,0.0481067,0.00931483,0.0498766,-0.000917576,1.38303,0.0335611,0.0470894,1266,1786,8.99425,-49.8843
49,-762,8.98633,49.8132,0.00126509,0.0541625,0.00442447,0.05453,0.00089757,1.48792,0.0360579,0.0392416,1273,1786,8.98635,-49.8132
56,-762,8.99353,49.8319,0.00156368,0.060506,0.000286665,0.0605074,0.00156228,1.56593,0.0398278,0.0311457,1280,1786,8.99358,-49.832
63,-762,8.96851,49.8311,0.000640833,0.063642,-0.00368914,0.0638573,0.000425544,-1.51251,0.0424304,0.0283267,1287,1786,8.96854,-49.831
70,-762,8.89392,49.8348,-0.000308028,0.0656958,-0.00677541,0.0663842,-0.000996359,-1.46955,0.0445919,0.0291988,1294,1786,8.89396,-49.8349
77,-762,8.74536,49.7181,0.000503667,0.0641546,-0.00893661,0.0653855,-0.000727233,-1.43392,0.0438348,0.037113,1301,1786,8.74534,-49.7181
84,-762,8.724,49.73,0.00194932,0.0612707,-0.0114523,0.0634048,-0.000184834,-1.38656,0.0423316,0.0438108,1308,1786,8.72402,-49.73
91,-762,8.60449,49.6401,0,0,0,0,0,0,0,-1,1315,1786,8.60448,-49.6401
98,-762,8.53601,49.5751,0,0,0,0,0,0,0,-1,1322,1786,8.53596,-49.5751
105,-762,8.57373,49.6324,0.0108767,0.0446204,-0.0148161,0.0502024,0.00529474,-1.21049,0.0318504,0.0472637,1329,1786,8.57374,-49.6324
112,-762,8.42273,49.4545,0.0153901,0.0396609,-0.0164759,0.0479882,0.00706275,-1.10282,0.0299171,0.0470583,1336,1786,8.42274,-49.4545
119,-762,8.35437,49.386,0,0,0,0,0,0,0,-1,1343,1786,8.35437,-49.386
126,-762,8.32886,49.5596,0,0,0,0,0,0,0,-1,1350,1786,8.32881,-49.5596
133,-762,8.24963,49.3887,0.0274927,0.0208104,-0.0251701,0.0495424,-0.00123934,-0.719412,0.033449,0.0488211,1357,1786,8.24963,-49.3887
140,-762,8.19531,49.0464,0.0302723,0.0142546,-0.0280712,0.0514547,-0.00692783,-0.646438,0.0368303,0.0477177,1364,1786,8.19536,-49.0464
147,-762,8.3158,48.6235,0.0321243,0.00844469,-0.0302622,0.0527804,-0.0122113,-0.598931,0.0398854,0.0433377,1371,1786,8.31585,-48.6236
154,-762,8.04602,49.1417,0,0,0,0,0,0,0,-1,1378,1786,8.04599,-49.1417
161,-762,8.65051,34.8102,0,0,0,0,0,0,0,-1,1385,1786,8.65054,-34.8101
168,-762,8.19287,0.880615,0,0,0,0,0,0,0,-1,1392,1786,8.19291,-0.880603
175,-762,8.33997,1.95947,0,0,0,0,0,0,0,-1,1399,1786,8.33997,-1.95942
182,-762,8.28418,3.56482,0,0,0,0,0,0,0,-1,1406,1786,8.28415,-3.56485
189,-762,8.21179,5.23389,0,0,0,0,0,0,0,-1,1413,1786,8.21183,-5.23383
196,-762,8.05969,6.95483,0,0,0,0,0,0,0,-1,1420,1786,8.05972,-6.9548
203,-762,24.0077,7.10425,0,0,0,0,0,0,0,-1,1427,1786,24.0077,-7.10426
210,-762,23.8073,7.6499,0,0,0,0,0,0,0,-1,1434,1786,23.8073,-7.64987
217,-762,23.3193,8.24426,0,0,0,0,0,0,0,-1,1441,1786,23.3194,-8.2442
224,-762,2.65149,20.6106,0,0,0,0,0,0,0,-1,1448,1786,2.65153,-20.6106
231,-762,5.46655,23.521,0,0,0,0,0,0,0,-1,1455,1786,5.46653,-23.521
238,-762,5.35632,29.7203,0,0,0,0,0,0,0,-1,1462,1786,5.35629,-29.7203
245,-762,6.93054,27.8312,0,0,0,0,0,0,0,-1,1469,1786,6.93058,-27.8312
252,-762,6.20215,28.3027,0,0,0,0,0,0,0,-1,1476,1786,6.20211,-28.3027
259,-762,5.46472,28.8762,0,0,0,0,0,0,0,-1,1483,1786,5.46476,-28.8762
266,-762,16.451,7.67773,0,0,0,0,0,0,0,-1,1490,1786,16.4511,-7.67773
273,-762,15.287,7.5304,0,0,0,0,0,0,0,-1,1497,1786,15.2869,-7.53044
280,-762,14.1501,7.38379,0,0,0,0,0,0,0,-1,1504,1786,14.1502,-7.38376
287,-762,12.6891,7.99133,0,0,0,0,0,0,0,-1,1511,1786,12.6891,-7.99135
294,-762,12.6959,8.30371,0,0,0,0,0,0,0,-1,1518,1786,12.6959,-8.30368
301,-762,11.4222,8.84143,0,0,0,0,0,0,0,-1,1525,1786,11.4223,-8.84149
308,-762,0,0,0,0,0,0,0,0,0,-1,1532,1786,0,0
315,-762,0,0,0,0,0,0,0,0,0,-1,1539,1786,0,0
322,-762,0,0,0,0,0,0,0,0,0,-1,1546,1786,0,0
329,-762,0,0,0,0,0,0,0,0,0,-1,1553,1786,0,0
336,-762,0,0,0,0,0,0,0,0,0,-1,1560,1786,0,0
343,-762,0,0,0,0,0,0,0,0,0,-1,1567,1786,0,0
350,-762,0,0,0,0,0,0,0,0,0,-1,1574,1786,0,0
357,-762,0,0,0,0,0,0,0,0,0,-1,1581,1786,0,0
364,-762,0,0,0,0,0,0,0,0,0,-1,1588,1786,0,0
371,-762,0,0,0,0,0,0,0,0,0,-1,1595,1786,0,0
378,-762,0,0,0,0,0,0,0,0,0,-1,1602,1786,0,0
385,-762,0,0,0,0,0,0,0,0,0,-1,1609,1786,0,0
392,-762,0,0,0,0,0,0,0,0,0,-1,1616,1786,0,0
399,-762,0,0,0,0,0,0,0,0,0,-1,1623,1786,0,0
406,-762,0,0,0,0,0,0,0,0,0,-1,1630,1786,0,0
413,-762,0,0,0,0,0,0,0,0,0,-1,1637,1786,0,0
420,-762,0,0,0,0,0,0,0,0,0,-1,1644,1786,0,0
427,-762,0,0,0,0,0,0,0,0,0,-1,1651,1786,0,0
434,-762,0,0,0,0,0,0,0,0,0,-1,1658,1786,0,0
441,-762,0,0,0,0,0,0,0,0,0,-1,1665,1786,0,0
448,-762,0,0,0,0,0,0,0,0,0,-1,1672,1786,0,0
455,-762,0,0,0,0,0,0,0,0,0,-1,1679,1786,0,0
462,-762,0,0,0,0,0,0,0,0,0,-1,1686,1786,0,0
469,-762,0,0,0,0,0,0,0,0,0,-1,1693,1786,0,0
476,-762,0,0,0,0,0,0,0,0,0,-1,1700,1786,0,0
483,-762,0,0,0,0,0,0,0,0,0,-1,1707,1786,0,0
490,-762,0,0,0,0,0,0,0,0,0,-1,1714,1786,0,0
497,-762,0,0,0,0,0,0,0,0,0,-1,1721,1786,0,0
504,-762,0,0,0,0,0,0,0,0,0,-1,1728,1786,0,0
511,-762,0,0,0,0,0,0,0,0,0,-1,1735,1786,0,0
518,-762,0,0,0,0,0,0,0,0,0,-1,1742,1786,0,0
525,-762,0,0,0,0,0,0,0,0,0,-1,1749,1786,0,0
532,-762,0,0,0,0,0,0,0,0,0,-1,1756,1786,0,0
539,-762,0,0,0,0,0,0,0,0,0,-1,1763,1786,0,0
546,-762,0,0,0,0,0,0,0,0,0,-1,1770,1786,0,0
553,-762,0,0,0,0,0,0,0,0,0,-1,1777,1786,0,0
560,-762,0,0,0,0,0,0,0,0,0,-1,1784,1786,0,0
567,-762,0,0,0,0,0,0,0,0,0,-1,1791,1786,0,0
574,-762,0,0,0,0,0,0,0,0,0,-1,1798,1786,0,0
581,-762,0,0,0,0,0,0,0,0,0,-1,1805,1786,0,0
588,-762,0,0,0,0,0,0,0,0,0,-1,1812,1786,0,0
595,-762,0,0,0,0,0,0,0,0,0,-1,1819,1786,0,0
602,-762,0,0,0,0,0,0,0,0,0,-1,1826,1786,0,0
609,-762,0,0,0,0,0,0,0,0,0,-1,1833,1786,0,0
616,-762,0,0,0,0,0,0,0,0,0,-1,1840,1786,0,0
623,-762,0,0,0,0,0,0,0,0,0,-1,1847,1786,0,0
630,-762,0,0,0,0,0,0,0,0,0,-1,1854,1786,0,0
637,-762,0,0,0,0,0,0,0,0,0,-1,1861,1786,0,0
644,-762,0,0,0,0,0,0,0,0,0,-1,1868,1786,0,0
651,-762,0,0,0,0,0,0,0,0,0,-1,1875,1786,0,0
658,-762,0,0,0,0,0,0,0,0,0,-1,1882,1786,0,0
665,-762,0,0,0,0,0,0,0,0,0,-1,1889,1786,0,0
672,-762,0,0,0,0,0,0,0,0,0,-1,1896,1786,0,0
679,-762,0,0,0,0,0,0,0,0,0,-1,1903,1786,0,0
686,-762,0,0,0,0,0,0,0,0,0,-1,1910,1786,0,0
693,-762,0,0,0,0,0,0,0,0,0,-1,1917,1786,0,0
700,-762,0,0,0,0,0,0,0,0,0,-1,1924,1786,0,0
707,-762,0,0,0,0,0,0,0,0,0,-1,1931,1786,0,0
714,-762,0,0,0,0,0,0,0,0,0,-1,1938,1786,0,0
721,-762,0,0,0,0,0,0,0,0,0,-1,1945,1786,0,0
728,-762,0,0,0,0,0,0,0,0,0,-1,1952,1786,0,0
735,-762,0,0,0,0,0,0,0,0,0,-1,1959,1786,0,0
742,-762,0,0,0,0,0,0,0,0,0,-1,1966,1786,0,0
749,-762,0,0,0,0,0,0,0,0,0,-1,1973,1786,0,0
756,-762,0,0,0,0,0,0,0,0,0,-1,1980,1786,0,0
763,-762,0,0,0,0,0,0,0,0,0,-1,1987,1786,0,0
770,-762,0,0,0,0,0,0,0,0,0,-1,1994,1786,0,0
777,-762,0,0,0,0,0,0,0,0,0,-1,2001,1786,0,0
784,-762,0,0,0,0,0,0,0,0,0,-1,2008,1786,0,0
791,-762,0,0,0,0,0,0,0,0,0,-1,2015,1786,0,0
798,-762,0,0,0,0,0,0,0,0,0,-1,2022,1786,0,0
805,-762,0,0,0,0,0,0,0,0,0,-1,2029,1786,0,0
812,-762,0,0,0,0,0,0,0,0,0,-1,2036,1786,0,0
-700,-769,0,0,0,0,0,0,0,0,0,-1,524,1793,0,0
-693,-769,0,0,0,0,0,0,0,0,0,-1,531,1793,0,0
-686,-769,0,0,0,0,0,0,0,0,0,-1,538,1793,0,0
-679,-769,0,0,0,0,0,0,0,0,0,-1,545,1793,0,0
-672,-769,0,0,0,0,0,0,0,0,0,-1,552,1793,0,0
-665,-769,0,0,0,0,0,0,0,0,0,-1,559,1793,0,0
-658,-769,0,0,0,0,0,0,0,0,0,-1,566,1793,0,0
-651,-769,0,0,0,0,0,0,0,0,0,-1,573,1793,0,0
-644,-769,0,0,0,0,0,0,0,0,0,-1,580,1793,0,0
-637,-769,0,0,0,0,0,0,0,0,0,-1,587,1793,0,0
-630,-769,0,0,0,0,0,0,0,0,0,-1,594,1793,0,0
-623,-769,0,0,0,0,0,0,0,0,0,-1,601,1793,0,0
-616,-769,0,0,0,0,0,0,0,0,0,-1,608,1793,0,0
-609,-769,0,0,0,0,0,0,0,0,0,-1,615,1793,0,0
-602,-769,0,0,0,0,0,0,0,0,0,-1,622,1793,0,0
-595,-769,0,0,0,0,0,0,0,0,0,-1,629,1793,0,0
-588,-769,0,0,0,0,0,0,0,0,0,-1,636,1793,0,0
-581,-769,0,0,0,0,0,0,0,0,0,-1,643,1793,0,0
-574,-769,0,0,0,0,0,0,0,0,0,-1,650,1793,0,0
-567,-769,0,0,0,0,0,0,0,0,0,-1,657,1793,0,0
-560,-769,0,0,0,0,0,0,0,0,0,-1,664,1793,0,0
-553,-769,0,0,0,0,0,0,0,0,0,-1,671,1793,0,0
-546,-769,0,0,0,0,0,0,0,0,0,-1,678,1793,0,0
-539,-769,0,0,0,0,0,0,0,0,0,-1,685,1793,0,0
-532,-769,0,0,0,0,0,0,0,0,0,-1,692,1793,0,0
-525,-769,0,0,0,0,0,0,0,0,0,-1,699,1793,0,0
-518,-769,0,0,0,0,0,0,0,0,0,-1,706,1793,0,0
-511,-769,0,0,0,0,0,0,0,0,0,-1,713,1793,0,0
-504,-769,0,0,0,0,0,0,0,0,0,-1,720,1793,0,0
-497,-769,0,0,0,0,0,0,0,0,0,-1,727,1793,0,0
-490,-769,0,0,0,0,0,0,0,0,0,-1,734,1793,0,0
-483,-769,0,0,0,0,0,0,0,0,0,-1,741,1793,0,0
-476,-769,0,0,0,0,0,0,0,0,0,-1,748,1793,0,0
-469,-769,0,0,0,0,0,0,0,0,0,-1,755,1793,0,0
-462,-769,0,0,0,0,0,0,0,0,0,-1,762,1793,0,0
-455,-769,0,0,0,0,0,0,0,0,0,-1,769,1793,0,0
-448,-769,0,0,0,0,0,0,0,0,0,-1,776,1793,0,0
-441,-769,0,0,0,0,0,0,0,0,0,-1,783,1793,0,0
-434,-769,0,0,0,0,0,0,0,0,0,-1,790,1793,0,0
-427,-769,0,0,0,0,0,0,0,0,0,-1,797,1793,0,0
-420,-769,0,0,0,0,0,0,0,0,0,-1,804,1793,0,0
-413,-769,0,0,0,0,0,0,0,0,0,-1,811,1793,0,0
-406,-769,0,0,0,0,0,0,0,0,0,-1,818,1793,0,0
-399,-769,0,0,0,0,0,0,0,0,0,-1,825,1793,0,0
-392,-769,0,0,0,0,0,0,0,0,0,-1,832,1793,0,0
-385,-769,0,0,0,0,0,0,0,0,0,-1,839,1793,0,0
-378,-769,0,0,0,0,0,0,0,0,0,-1,846,1793,0,0
-371,-769,0,0,0,0,0,0,0,0,0,-1,853,1793,0,0
-364,-769,0,0,0,0,0,0,0,0,0,-1,860,1793,0,0
-357,-769,0,0,0,0,0,0,0,0,0,-1,867,1793,0,0
-350,-769,0,0,0,0,0,0,0,0,0,-1,874,1793,0,0
-343,-769,0,0,0,0,0,0,0,0,0,-1,881,1793,0,0
-336,-769,0,0,0,0,0,0,0,0,0,-1,888,1793,0,0
-329,-769,0,0,0,0,0,0,0,0,0,-1,895,1793,0,0
-322,-769,0,0,0,0,0,0,0,0,0,-1,902,1793,0,0
-315,-769,0,0,0,0,0,0,0,0,0,-1,909,1793,0,0
-308,-769,0,0,0,0,0,0,0,0,0,-1,916,1793,0,0
-301,-769,0,0,0,0,0,0,0,0,0,-1,923,1793,0,0
-294,-769,0,0,0,0,0,0,0,0,0,-1,930,1793,0,0
-287,-769,0,0,0,0,0,0,0,0,0,-1,937,1793,0,0
-280,-769,0,0,0,0,0,0,0,0,0,-1,944,1793,0,0
-273,-769,0,0,0,0,0,0,0,0,0,-1,951,1793,0,0
-266,-769,0,0,0,0,0,0,0,0,0,-1,958,1793,0,0
-259,-769,0,0,0,0,0,0,0,0,0,-1,965,1793,0,0
-252,-769,0,0,0,0,0,0,0,0,0,-1,972,1793,0,0
-245,-769,0,0,0,0,0,0,0,0,0,-1,979,1793,0,0
-238,-769,0,0,0,0,0,0,0,0,0,-1,986,1793,0,0
-231,-769,0,0,0,0,0,0,0,0,0,-1,993,1793,0,0
-224,-769,0,0,0,0,0,0,0,0,0,-1,1000,1793,0,0
-217,-769,0,0,0,0,0,0,0,0,0,-1,1007,1793,0,0
-210,-769,0,0,0,0,0,0,0,0,0,-1,1014,1793,0,0
-203,-769,0,0,0,0,0,0,0,0,0,-1,1021,1793,0,0
-196,-769,0,0,0,0,0,0,0,0,0,-1,1028,1793,0,0
-189,-769,0,0,0,0,0,0,0,0,0,-1,1035,1793,0,0
-182,-769,0,0,0,0,0,0,0,0,0,-1,1042,1793,0,0
-175,-769,0,0,0,0,0,0,0,0,0,-1,1049,1793,0,0
-168,-769,0,0,0,0,0,0,0,0,0,-1,1056,1793,0,0
-161,-769,-3.61145,12.4761,0,0,0,0,0,0,0,-1,1063,1793,-3.6114,-12.476
-154,-769,-0.813232,5.32874,0,0,0,0,0,0,0,-1,1070,1793,-0.813269,-5.32872
-147,-769,4.26587,4.7002,0,0,0,0,0,0,0,-1,1077,1793,4.26593,-4.70022
-140,-769,4.10376,5.28589,0,0,0,0,0,0,0,-1,1084,1793,4.10371,-5.28584
-133,-769,6.422,8.21777,0,0,0,0,0,0,0,-1,1091,1793,6.42198,-8.21773
-126,-769,-0.352295,19.326,0,0,0,0,0,0,0,-1,1098,1793,-0.352235,-19.326
-119,-769,6.01685,16.2577,0,0,0,0,0,0,0,-1,1105,1793,6.01689,-16.2576
-112,-769,5.76416,27.2615,0,0,0,0,0,0,0,-1,1112,1793,5.7642,-27.2615
-105,-769,4.97009,22.8479,0,0,0,0,0,0,0,-1,1119,1793,4.97006,-22.8479
-98,-769,4.69373,18.9142,0,0,0,0,0,0,0,-1,1126,1793,4.69376,-18.9142
-91,-769,4.41748,14.9805,0,0,0,0,0,0,0,-1,1133,1793,4.41746,-14.9805
-84,-769,3.2207,12.4565,0,0,0,0,0,0,0,-1,1140,1793,3.22066,-12.4565
-77,-769,2.48816,8.98486,0,0,0,0,0,0,0,-1,1147,1793,2.48815,-8.98489
-70,-769,1.04944,11.9852,0,0,0,0,0,0,0,-1,1154,1793,1.04947,-11.9852
-63,-769,-2.39709,9.60339,0,0,0,0,0,0,0,-1,1161,1793,-2.39706,-9.6034
-56,-769,-5.84363,7.22156,0,0,0,0,0,0,0,-1,1168,1793,-5.84359,-7.22157
-49,-769,-2.41443,3.95471,0,0,0,0,0,0,0,-1,1175,1793,-2.41446,-3.95471
-42,-769,-3.1991,2.64941,0,0,0,0,0,0,0,-1,1182,1793,-3.19914,-2.64944
-35,-769,-3.50183,1.73389,0,0,0,0,0,0,0,-1,1189,1793,-3.50189,-1.7339
-28,-769,-3.96985,1.14075,0,0,0,0,0,0,0,-1,1196,1793,-3.96985,-1.14078
-21,-769,9.71558,46.531,0,0,0,0,0,0,0,-1,1203,1793,9.71561,-46.5311
-14,-769,9.66467,48.4315,0,0,0,0,0,0,0,-1,1210,1793,9.66466,-48.4315
-7,-769,8.89014,48.5815,0,0,0,0,0,0,0,-1,1217,1793,8.89016,-48.5816
0,-769,9.21558,49.4487,-0.0221527,0.00390686,0.0456253,0.0383264,-0.0565722,0.924487,0.0551263,0.0483017,1224,1793,9.21554,-49.4488
7,-769,8.33765,49.6265,-0.015013,0.0136452,0.0426416,0.0443008,-0.0456687,0.947489,0.0519459,0.0427355,1231,1793,8.3377,-49.6265
14,-769,8.27271,49.8079,-0.00879762,0.0256105,0.0388589,0.0509035,-0.0340905,0.993795,0.0493903,0.0417262,1238,1793,8.27272,-49.8079
21,-769,8.1438,49.5812,-0.00380168,0.0376315,0.0338364,0.0565896,-0.0227598,1.06009,0.0471798,0.0450671,1245,1793,8.14384,-49.5812
28,-769,8.2052,49.5693,-0.00109951,0.0492025,0.026729,0.0607532,-0.0126502,1.16289,0.0453114,0.0441982,1252,1793,8.20522,-49.5694
35,-769,8.53979,49.7365,0.000159498,0.059581,0.0193436,0.0653231,-0.0055826,1.28223,0.0455239,0.0457915,1259,1793,8.53978,-49.7364
42,-769,8.93823,50.0376,0.000714334,0.0693769,0.0112939,0.0711868,-0.00109564,1.41189,0.0478273,0.0446828,1266,1793,8.9382,-50.0376
49,-769,9.81189,49.6456,0.00128085,0.0772341,0.00491641,0.077551,0.000963937,1.50642,0.0513824,0.0422961,1273,1793,9.81186,-49.6457
56,-769,9.63757,49.5598,0.00165776,0.0854176,-0.000600951,0.0854219,0.00165345,-1.56362,0.0564049,0.043282,1280,1793,9.63757,-49.5598
63,-769,9.23499,49.5171,0.000449722,0.0893467,-0.0059809,0.0897473,4.91403e-05,-1.50392,0.0598152,0.0464735,1287,1793,9.23505,-49.5171
70,-769,9.11487,49.6609,-0.000752505,0.0917816,-0.0101518,0.0928823,-0.00185316,-1.4628,0.0625484,0.0473303,1294,1793,9.11486,-49.6609
77,-769,8.62085,49.6582,0.000333281,0.0889688,-0.0130398,0.0908474,-0.00154528,-1.42772,0.0610865,0.0456904,1301,1793,8.62085,-49.6582
84,-769,8.52563,49.6287,0.00225532,0.0846424,-0.0162827,0.0877437,-0.000846017,-1.38258,0.0587798,0.0446228,1308,1793,8.52567,-49.6287
91,-769,8.47229,49.564,0.00413559,0.0778996,-0.019291,0.08264,-0.000604831,-1.32984,0.0552961,0.0448343,1315,1793,8.47231,-49.564
98,-769,8.46387,49.5052,0.00899821,0.0717826,-0.0202206,0.0777313,0.00304949,-1.28468,0.0508349,0.0472454,1322,1793,8.4639,-49.5052
105,-769,8.29114,49.8225,0.0144084,0.0604979,-0.0208976,0.0685622,0.00634421,-1.20251,0.043747,0.0463616,1329,1793,8.29118,-49.8225
112,-769,8.36108,49.2773,0,0,0,0,0,0,0,-1,1336,1793,8.3611,-49.2774
119,-769,7.7251,51.3629,0.026456,0.045078,-0.0269337,0.0642647,0.00726927,-0.951818,0.0406373,0.0491694,1343,1793,7.72506,-51.3629
126,-769,8.00952,50.3439,0.0318013,0.0360485,-0.0308013,0.0647993,0.00305047,-0.819817,0.0422195,0.0476836,1350,1793,8.00949,-50.3439
133,-769,8.41589,49.0792,0.0369238,0.0260739,-0.0346243,0.0665456,-0.00354787,-0.70769,0.0455924,0.047061,1357,1793,8.41584,-49.0792
140,-769,8.11536,48.9446,0,0,0,0,0,0,0,-1,1364,1793,8.1153,-48.9446
147,-769,8.14612,48.3348,0,0,0,0,0,0,0,-1,1371,1793,8.14613,-48.3348
154,-769,7.76904,34.4832,0,0,0,0,0,0,0,-1,1378,1793,7.7691,-34.4832
161,-769,6.57019,1.53223,0,0,0,0,0,0,0,-1,1385,1793,6.57019,-1.53226
168,-769,8.27637,0.756958,0,0,0,0,0,0,0,-1,1392,1793,8.27639,-0.756944
175,-769,8.47144,2.41174,0,0,0,0,0,0,0,-1,1399,1793,8.47147,-2.4118
182,-769,8.41479,4.05994,0,0,0,0,0,0,0,-1,1406,1793,8.41479,-4.05997
189,-769,8.25049,5.68433,0,0,0,0,0,0,0,-1,1413,1793,8.25054,-5.68428
196,-769,7.97729,7.42847,0,0,0,0,0,0,0,-1,1420,1793,7.9773,-7.42848
203,-769,22.0977,6.73889,0,0,0,0,0,0,0,-1,1427,1793,22.0977,-6.7389
210,-769,22.1115,7.77246,0,0,0,0,0,0,0,-1,1434,1793,22.1115,-7.77248
217,-769,22.4723,8.79102,0,0,0,0,0,0,0,-1,1441,1793,22.4723,-8.79099
224,-769,22.1348,9.35278,0,0,0,0,0,0,0,-1,1448,1793,22.1348,-9.35283
231,-769,3.13318,19.7184,0,0,0,0,0,0,0,-1,1455,1793,3.13323,-19.7184
238,-769,5.74512,18.6597,0,0,0,0,0,0,0,-1,1462,1793,5.74512,-18.6596
245,-769,5.80798,22.87,0,0,0,0,0,0,0,-1,1469,1793,5.80796,-22.87
252,-769,6.20837,28.394,0,0,0,0,0,0,0,-1,1476,1793,6.20833,-28.3941
259,-769,10.974,17.7698,0,0,0,0,0,0,0,-1,1483,1793,10.974,-17.7698
266,-769,15.8488,7.3905,0,0,0,0,0,0,0,-1,1490,1793,15.8488,-7.39046
273,-769,14.8075,7.56152,0,0,0,0,0,0,0,-1,1497,1793,14.8075,-7.56152
280,-769,13.6519,7.43054,0,0,0,0,0,0,0,-1,1504,1793,13.6518,-7.43058
287,-769,0,0,0,0,0,0,0,0,0,-1,1511,1793,0,0
294,-769,0,0,0,0,0,0,0,0,0,-1,1518,1793,0,0
301,-769,0,0,0,0,0,0,0,0,0,-1,1525,1793,0,0
308,-769,0,0,0,0,0,0,0,0,0,-1,1532,1793,0,0
315,-769,0,0,0,0,0,0,0,0,0,-1,1539,1793,0,0
322,-769,0,0,0,0,0,0,0,0,0,-1,1546,1793,0,0
329,-769,0,0,0,0,0,0,0,0,0,-1,1553,1793,0,0
336,-769,0,0,0,0,0,0,0,0,0,-1,1560,1793,0,0
343,-769,0,0,0,0,0,0,0,0,0,-1,1567,1793,0,0
350,-769,0,0,0,0,0,0,0,0,0,-1,1574,1793,0,0
357,-769,0,0,0,0,0,0,0,0,0,-1,1581,1793,0,0
364,-769,0,0,0,0,0,0,0,0,0,-1,1588,1793,0,0
371,-769,0,0,0,0,0,0,0,0,0,-1,1595,1793,0,0
378,-769,0,0,0,0,0,0,0,0,0,-1,1602,1793,0,0
385,-769,0,0,0,0,0,0,0,0,0,-1,1609,1793,0,0
392,-769,0,0,0,0,0,0,0,0,0,-1,1616,1793,0,0
399,-769,0,0,0,0,0,0,0,0,0,-1,1623,1793,0,0
406,-769,0,0,0,0,0,0,0,0,0,-1,1630,1793,0,0
413,-769,0,0,0,0,0,0,0,0,0,-1,1637,1793,0,0
420,-769,0,0,0,0,0,0,0,0,0,-1,1644,1793,0,0
427,-769,0,0,0,0,0,0,0,0,0,-1,1651,1793,0,0
434,-769,0,0,0,0,0,0,0,0,0,-1,1658,1793,0,0
441,-769,0,0,0,0,0,0,0,0,0,-1,1665,1793,0,0
448,-769,0,0,0,0,0,0,0,0,0,-1,1672,1793,0,0
455,-769,0,0,0,0,0,0,0,0,0,-1,1679,1793,0,0
462,-769,0,0,0,0,0,0,0,0,0,-1,1686,1793,0,0
469,-769,0,0,0,0,0,0,0,0,0,-1,1693,1793,0,0
476,-769,0,0,0,0,0,0,0,0,0,-1,1700,1793,0,0
483,-769,0,0,0,0,0,0,0,0,0,-1,1707,1793,0,0
490,-769,0,0,0,0,0,0,0,0,0,-1,1714,1793,0,0
497,-769,0,0,0,0,0,0,0,0,0,-1,1721,1793,0,0
504,-769,0,0,0,0,0,0,0,0,0,-1,1728,1793,0,0
511,-769,0,0,0,0,0,0,0,0,0,-1,1735,1793,0,0
518,-769,0,0,0,0,0,0,0,0,0,-1,1742,1793,0,0
525,-769,0,0,0,0,0,0,0,0,0,-1,1749,1793,0,0
532,-769,0,0,0,0,0,0,0,0,0,-1,1756,1793,0,0
539,-769,0,0,0,0,0,0,0,0,0,-1,1763,1793,0,0
546,-769,0,0,0,0,0,0,0,0,0,-1,1770,1793,0,0
553,-769,0,0,0,0,0,0,0,0,0,-1,1777,1793,0,0
560,-769,0,0,0,0,0,0,0,0,0,-1,1784,1793,0,0
567,-769,0,0,0,0,0,0,0,0,0,-1,1791,1793,0,0
574,-769,0,0,0,0,0,0,0,0,0,-1,1798,1793,0,0
581,-769,0,0,0,0,0,0,0,0,0,-1,1805,1793,0,0
588,-769,0,0,0,0,0,0,0,0,0,-1,1812,1793,0,0
595,-769,0,0,0,0,0,0,0,0,0,-1,1819,1793,0,0
602,-769,0,0,0,0,0,0,0,0,0,-1,1826,1793,0,0
609,-769,0,0,0,0,0,0,0,0,0,-1,1833,1793,0,0
616,-769,0,0,0,0,0,0,0,0,0,-1,1840,1793,0,0
623,-769,0,0,0,0,0,0,0,0,0,-1,1847,1793,0,0
630,-769,0,0,0,0,0,0,0,0,0,-1,1854,1793,0,0
637,-769,0,0,0,0,0,0,0,0,0,-1,1861,1793,0,0
644,-769,0,0,0,0,0,0,0,0,0,-1,1868,1793,0,0
651,-769,0,0,0,0,0,0,0,0,0,-1,1875,1793,0,0
658,-769,0,0,0,0,0,0,0,0,0,-1,1882,1793,0,0
665,-769,0,0,0,0,0,0,0,0,0,-1,1889,1793,0,0
672,-769,0,0,0,0,0,0,0,0,0,-1,1896,1793,0,0
679,-769,0,0,0,0,0,0,0,0,0,-1,1903,1793,0,0
686,-769,0,0,0,0,0,0,0,0,0,-1,1910,1793,0,0
693,-769,0,0,0,0,0,0,0,0,0,-1,1917,1793,0,0
700,-769,0,0,0,0,0,0,0,0,0,-1,1924,1793,0,0
707,-769,0,0,0,0,0,0,0,0,0,-1,1931,1793,0,0
714,-769,0,0,0,0,0,0,0,0,0,-1,1938,1793,0,0
721,-769,0,0,0,0,0,0,0,0,0,-1,1945,1793,0,0
728,-769,0,0,0,0,0,0,0,0,0,-1,1952,1793,0,0
735,-769,0,0,0,0,0,0,0,0,0,-1,1959,1793,0,0
742,-769,0,0,0,0,0,0,0,0,0,-1,1966,1793,0,0
749,-769,0,0,0,0,0,0,0,0,0,-1,1973,1793,0,0
756,-769,0,0,0,0,0,0,0,0,0,-1,1980,1793,0,0
763,-769,0,0,0,0,0,0,0,0,0,-1,1987,1793,0,0
770,-769,0,0,0,0,0,0,0,0,0,-1,1994,1793,0,0
777,-769,0,0,0,0,0,0,0,0,0,-1,2001,1793,0,0
784,-769,0,0,0,0,0,0,0,0,0,-1,2008,1793,0,0
791,-769,0,0,0,0,0,0,0,0,0,-1,2015,1793,0,0
798,-769,0,0,0,0,0,0,0,0,0,-1,2022,1793,0,0
805,-769,0,0,0,0,0,0,0,0,0,-1,2029,1793,0,0
812,-769,0,0,0,0,0,0,0,0,0,-1,2036,1793,0,0
-700,-776,0,0,0,0,0,0,0,0,0,-1,524,1800,0,0
-693,-776,0,0,0,0,0,0,0,0,0,-1,531,1800,0,0
-686,-776,0,0,0,0,0,0,0,0,0,-1,538,1800,0,0
-679,-776,0,0,0,0,0,0,0,0,0,-1,545,1800,0,0
-672,-776,0,0,0,0,0,0,0,0,0,-1,552,1800,0,0
-665,-776,0,0,0,0,0,0,0,0,0,-1,559,1800,0,0
-658,-776,0,0,0,0,0,0,0,0,0,-1,566,1800,0,0
-651,-776,0,0,0,0,0,0,0,0,0,-1,573,1800,0,0
-644,-776,0,0,0,0,0,0,0,0,0,-1,580,1800,0,0
-637,-776,0,0,0,0,0,0,0,0,0,-1,587,1800,0,0
-630,-776,0,0,0,0,0,0,0,0,0,-1,594,1800,0,0
-623,-776,0,0,0,0,0,0,0,0,0,-1,601,1800,0,0
-616,-776,0,0,0,0,0,0,0,0,0,-1,608,1800,0,0
-609,-776,0,0,0,0,0,0,0,0,0,-1,615,1800,0,0
-602,-776,0,0,0,0,0,0,0,0,0,-1,622,1800,0,0
-595,-776,0,0,0,0,0,0,0,0,0,-1,629,1800,0,0
-588,-776,0,0,0,0,0,0,0,0,0,-1,636,1800,0,0
-581,-776,0,0,0,0,0,0,0,0,0,-1,643,1800,0,0
-574,-776,0,0,0,0,0,0,0,0,0,-1,650,1800,0,0
-567,-776,0,0,0,0,0,0,0,0,0,-1,657,1800,0,0
-560,-776,0,0,0,0,0,0,0,0,0,-1,664,1800,0,0
-553,-776,0,0,0,0,0,0,0,0,0,-1,671,1800,0,0
-546,-776,0,0,0,0,0,0,0,0,0,-1,678,1800,0,0
-539,-776,0,0,0,0,0,0,0,0,0,-1,685,1800,0,0
-532,-776,0,0,0,0,0,0,0,0,0,-1,692,1800,0,0
-525,-776,0,0,0,0,0,0,0,0,0,-1,699,1800,0,0
-518,-776,0,0,0,0,0,0,0,0,0,-1,706,1800,0,0
-511,-776,0,0,0,0,0,0,0,0,0,-1,713,1800,0,0
-504,-776,0,0,0,0,0,0,0,0,0,-1,720,1800,0,0
-497,-776,0,0,0,0,0,0,0,0,0,-1,727,1800,0,0
-490,-776,0,0,0,0,0,0,0,0,0,-1,734,1800,0,0
-483,-776,0,0,0,0,0,0,0,0,0,-1,741,1800,0,0
-476,-776,0,0,0,0,0,0,0,0,0,-1,748,1800,0,0
-469,-776,0,0,0,0,0,0,0,0,0,-1,755,1800,0,0
-462,-776,0,0,0,0,0,0,0,0,0,-1,762,1800,0,0
-455,-776,0,0,0,0,0,0,0,0,0,-1,769,1800,0,0
-448,-776,0,0,0,0,0,0,0,0,0,-1,776,1800,0,0
-441,-776,0,0,0,0,0,0,0,0,0,-1,783,1800,0,0
-434,-776,0,0,0,0,0,0,0,0,0,-1,790,1800,0,0
-427,-776,0,0,0,0,0,0,0,0,0,-1,797,1800,0,0
-420,-776,0,0,0,0,0,0,0,0,0,-1,804,1800,0,0
-413,-776,0,0,0,0,0,0,0,0,0,-1,811,1800,0,0
-406,-776,0,0,0,0,0,0,0,0,0,-1,818,1800,0,0
-399,-776,0,0,0,0,0,0,0,0,0,-1,825,1800,0,0
-392,-776,0,0,0,0,0,0,0,0,0,-1,832,1800,0,0
-385,-776,0,0,0,0,0,0,0,0,0,-1,839,1800,0,0
-378,-776,0,0,0,0,0,0,0,0,0,-1,846,1800,0,0
-371,-776,0,0,0,0,0,0,0,0,0,-1,853,1800,0,0
-364,-776,0,0,0,0,0,0,0,0,0,-1,860,1800,0,0
-357,-776,0,0,0,0,0,0,0,0,0,-1,867,1800,0,0
-350,-776,0,0,0,0,0,0,0,0,0,-1,874,1800,0,0
-343,-776,0,0,0,0,0,0,0,0,0,-1,881,1800,0,0
-336,-776,0,0,0,0,0,0,0,0,0,-1,888,1800,0,0
-329,-776,0,0,0,0,0,0,0,0,0,-1,895,1800,0,0
-322,-776,0,0,0,0,0,0,0,0,0,-1,902,1800,0,0
-315,-776,0,0,0,0,0,0,0,0,0,-1,909,1800,0,0
-308,-776,0,0,0,0,0,0,0,0,0,-1,916,1800,0,0
-301,-776,0,0,0,0,0,0,0,0,0,-1,923,1800,0,0
-294,-776,0,0,0,0,0,0,0,0,0,-1,930,1800,0,0
-287,-776,0,0,0,0,0,0,0,0,0,-1,937,1800,0,0
-280,-776,0,0,0,0,0,0,0,0,0,-1,944,1800,0,0
-273,-776,0,0,0,0,0,0,0,0,0,-1,951,1800,0,0
-266,-776,0,0,0,0,0,0,0,0,0,-1,958,1800,0,0
-259,-776,0,0,0,0,0,0,0,0,0,-1,965,1800,0,0
-252,-776,0,0,0,0,0,0,0,0,0,-1,972,1800,0,0
-245,-776,0,0,0,0,0,0,0,0,0,-1,979,1800,0,0
-238,-776,0,0,0,0,0,0,0,0,0,-1,986,1800,0,0
-231,-776,0,0,0,0,0,0,0,0,0,-1,993,1800,0,0
-224,-776,0,0,0,0,0,0,0,0,0,-1,1000,1800,0,0
-217,-776,0,0,0,0,0,0,0,0,0,-1,1007,1800,0,0
-210,-776,0,0,0,0,0,0,0,0,0,-1,1014,1800,0,0
-203,-776,0,0,0,0,0,0,0,0,0,-1,1021,1800,0,0
-196,-776,0,0,0,0,0,0,0,0,0,-1,1028,1800,0,0
-189,-776,0,0,0,0,0,0,0,0,0,-1,1035,1800,0,0
-182,-776,0,0,0,0,0,0,0,0,0,-1,1042,1800,0,0
-175,-776,0,0,0,0,0,0,0,0,0,-1,1049,1800,0,0
-168,-776,0,0,0,0,0,0,0,0,0,-1,1056,1800,0,0
-161,-776,0,0,0,0,0,0,0,0,0,-1,1063,1800,0,0
-154,-776,0,0,0,0,0,0,0,0,0,-1,1070,1800,0,0
-147,-776,0,0,0,0,0,0,0,0,0,-1,1077,1800,0,0
-140,-776,2.98499,5.20911,0,0,0,0,0,0,0,-1,1084,1800,2.98493,-5.2091
-133,-776,6.72363,9.35828,0,0,0,0,0,0,0,-1,1091,1800,6.72358,-9.35824
-126,-776,6.55029,13.7832,0,0,0,0,0,0,0,-1,1098,1800,6.55029,-13.7832
-119,-776,5.72107,13.7787,0,0,0,0,0,0,0,-1,1105,1800,5.72106,-13.7787
-112,-776,6.84998,20.4421,0,0,0,0,0,0,0,-1,1112,1800,6.84993,-20.4421
-105,-776,4.46863,24.6742,0,0,0,0,0,0,0,-1,1119,1800,4.46868,-24.6742
-98,-776,4.31616,19.7659,0,0,0,0,0,0,0,-1,1126,1800,4.31619,-19.7659
-91,-776,3.30225,18.134,0,0,0,0,0,0,0,-1,1133,1800,3.30222,-18.134
-84,-776,2.67932,14.3162,0,0,0,0,0,0,0,-1,1140,1800,2.67926,-14.3161
-77,-776,0.580078,11.1272,0,0,0,0,0,0,0,-1,1147,1800,0.58002,-11.1272
-70,-776,-0.562866,12.3163,0,0,0,0,0,0,0,-1,1154,1800,-0.562897,-12.3163
-63,-776,-3.96106,9.97656,0,0,0,0,0,0,0,-1,1161,1800,-3.961,-9.97654
-56,-776,-7.35913,7.63672,0,0,0,0,0,0,0,-1,1168,1800,-7.3591,-7.63676
-49,-776,-7.62952,3.1908,0,0,0,0,0,0,0,-1,1175,1800,-7.62955,-3.19076
-42,-776,-3.41272,3.0249,0,0,0,0,0,0,0,-1,1182,1800,-3.41269,-3.02488
-35,-776,-3.71753,1.63635,0,0,0,0,0,0,0,-1,1189,1800,-3.71755,-1.63631
-28,-776,-4.03979,0.716064,0,0,0,0,0,0,0,-1,1196,1800,-4.03977,-0.716055
-21,-776,11.4921,48.1086,0,0,0,0,0,0,0,-1,1203,1800,11.4921,-48.1087
-14,-776,9.16602,48.6436,0,0,0,0,0,0,0,-1,1210,1800,9.16603,-48.6435
-7,-776,8.47253,48.9885,-0.0382263,-0.00530933,0.0577729,0.0383037,-0.0818394,0.924163,0.0708664,0.0470225,1217,1800,8.47253,-48.9886
0,-776,7.80017,49.4543,-0.0283386,0.00543736,0.0570549,0.0480512,-0.0709524,0.929287,0.0691295,0.0451262,1224,1800,7.80018,-49.4544
7,-776,7.50073,49.7756,-0.0189959,0.0196039,0.0533733,0.0570596,-0.0564515,0.958885,0.065536,0.0450037,1231,1800,7.50075,-49.7756
14,-776,7.61963,49.6466,-0.0111869,0.0368716,0.0485309,0.0669963,-0.0413116,1.01527,0.063115,0.0453691,1238,1800,7.61961,-49.6466
21,-776,7.69836,49.5676,-0.00498642,0.0542258,0.0421183,0.0761025,-0.0268631,1.09174,0.0616714,0.0452497,1245,1800,7.6984,-49.5676
28,-776,7.84839,49.6593,-0.00199116,0.0700267,0.0328973,0.0827915,-0.014756,1.20066,0.0607137,0.0433546,1252,1800,7.84843,-49.6593
35,-776,8.22705,49.7776,-0.000759447,0.0838863,0.0234402,0.0899438,-0.00681701,1.3179,0.0623592,0.044887,1259,1800,8.22706,-49.7776
42,-776,8.57324,49.9115,0,0,0,0,0,0,0,-1,1266,1800,8.57329,-49.9115
49,-776,10.4155,49.392,0,0,0,0,0,0,0,-1,1273,1800,10.4156,-49.392
56,-776,10.0994,49.1714,0,0,0,0,0,0,0,-1,1280,1800,10.0994,-49.1714
63,-776,9.4884,49.0175,0,0,0,0,0,0,0,-1,1287,1800,9.48835,-49.0174
70,-776,8.49695,49.5927,-0.00193563,0.124111,-0.0145283,0.125764,-0.00358852,-1.45751,0.0850638,0.0475301,1294,1800,8.49693,-49.5927
77,-776,8.54932,49.4556,-0.000513317,0.119518,-0.0183145,0.12225,-0.00324559,-1.4227,0.0826031,0.0488054,1301,1800,8.5493,-49.4556
84,-776,8.49866,49.3407,0.00199777,0.113332,-0.022409,0.117673,-0.00234338,-1.37944,0.0792415,0.0475088,1308,1800,8.49869,-49.3407
91,-776,8.25745,49.379,0.00455327,0.103876,-0.0263208,0.11042,-0.00199066,-1.32712,0.0742859,0.0434364,1315,1800,8.25744,-49.3791
98,-776,7.92139,49.2278,0.0109759,0.0951471,-0.0276701,0.103428,0.00269457,-1.27999,0.0680719,0.0447316,1322,1800,7.92135,-49.2277
105,-776,7.24731,49.0986,0.0180575,0.0797166,-0.0287254,0.091025,0.00674902,-1.19576,0.0585634,0.0478475,1329,1800,7.24734,-49.0986
112,-776,7.68799,52.8372,0.0259033,0.0701655,-0.0317193,0.0867112,0.00935753,-1.08999,0.0549545,0.0454989,1336,1800,7.68798,-52.8372
119,-776,7.49292,51.3345,0.0337046,0.0584475,-0.0365247,0.084639,0.00751302,-0.948691,0.0540959,0.0414099,1343,1800,7.49289,-51.3345
126,-776,7.74011,50.1238,0.0406514,0.0455661,-0.0412977,0.0844795,0.00173797,-0.815115,0.0557494,0.0430201,1350,1800,7.74016,-50.1237
133,-776,8.59888,49.1886,0.0473718,0.0313392,-0.0461582,0.0862047,-0.00749359,-0.699421,0.0601235,0.0471817,1357,1800,8.59886,-49.1886
140,-776,9.37,48.1412,0.052497,0.0169349,-0.0513898,0.089095,-0.0196631,-0.618843,0.066921,0.0490102,1364,1800,9.37002,-48.1412
147,-776,9.96863,47.0739,0,0,0,0,0,0,0,-1,1371,1800,9.96859,-47.0739
154,-776,38.4338,21.854,0,0,0,0,0,0,0,-1,1378,1800,38.4339,-21.854
161,-776,6.50293,1.1731,0,0,0,0,0,0,0,-1,1385,1800,6.5029,-1.17313
168,-776,8.44971,1.22913,0,0,0,0,0,0,0,-1,1392,1800,8.44974,-1.22915
175,-776,8.61523,2.87061,0,0,0,0,0,0,0,-1,1399,1800,8.6152,-2.87063
182,-776,8.54065,4.60645,0,0,0,0,0,0,0,-1,1406,1800,8.5407,-4.60643
189,-776,8.35303,6.28223,0,0,0,0,0,0,0,-1,1413,1800,8.35297,-6.28225
196,-776,8.0387,8.21704,0,0,0,0,0,0,0,-1,1420,1800,8.03865,-8.217
203,-776,7.91736,9.79919,0,0,0,0,0,0,0,-1,1427,1800,7.91735,-9.79922
210,-776,20.2479,7.85718,0,0,0,0,0,0,0,-1,1434,1800,20.248,-7.85719
217,-776,21.5171,9.3418,0,0,0,0,0,0,0,-1,1441,1800,21.5171,-9.34182
224,-776,3.09253,14.9313,0,0,0,0,0,0,0,-1,1448,1800,3.09254,-14.9313
231,-776,20.8671,9.21057,0,0,0,0,0,0,0,-1,1455,1800,20.867,-9.21054
238,-776,20.7511,9.05847,0,0,0,0,0,0,0,-1,1462,1800,20.7511,-9.05848
245,-776,3.80823,15.4108,0,0,0,0,0,0,0,-1,1469,1800,3.80826,-15.4108
252,-776,8.57837,20.2009,0,0,0,0,0,0,0,-1,1476,1800,8.57841,-20.2009
259,-776,14.1882,7.69055,0,0,0,0,0,0,0,-1,1483,1800,14.1882,-7.69061
266,-776,0,0,0,0,0,0,0,0,0,-1,1490,1800,0,0
273,-776,0,0,0,0,0,0,0,0,0,-1,1497,1800,0,0
280,-776,0,0,0,0,0,0,0,0,0,-1,1504,1800,0,0
287,-776,0,0,0,0,0,0,0,0,0,-1,1511,1800,0,0
294,-776,0,0,0,0,0,0,0,0,0,-1,1518,1800,0,0
301,-776,0,0,0,0,0,0,0,0,0,-1,1525,1800,0,0
308,-776,0,0,0,0,0,0,0,0,0,-1,1532,1800,0,0
315,-776,0,0,0,0,0,0,0,0,0,-1,1539,1800,0,0
322,-776,0,0,0,0,0,0,0,0,0,-1,1546,1800,0,0
329,-776,0,0,0,0,0,0,0,0,0,-1,1553,1800,0,0
336,-776,0,0,0,0,0,0,0,0,0,-1,1560,1800,0,0
343,-776,0,0,0,0,0,0,0,0,0,-1,1567,1800,0,0
350,-776,0,0,0,0,0,0,0,0,0,-1,1574,1800,0,0
357,-776,0,0,0,0,0,0,0,0,0,-1,1581,1800,0,0
364,-776,0,0,0,0,0,0,0,0,0,-1,1588,1800,0,0
371,-776,0,0,0,0,0,0,0,0,0,-1,1595,1800,0,0
378,-776,0,0,0,0,0,0,0,0,0,-1,1602,1800,0,0
385,-776,0,0,0,0,0,0,0,0,0,-1,1609,1800,0,0
392,-776,0,0,0,0,0,0,0,0,0,-1,1616,1800,0,0
399,-776,0,0,0,0,0,0,0,0,0,-1,1623,1800,0,0
406,-776,0,0,0,0,0,0,0,0,0,-1,1630,1800,0,0
413,-776,0,0,0,0,0,0,0,0,0,-1,1637,1800,0,0
420,-776,0,0,0,0,0,0,0,0,0,-1,1644,1800,0,0
427,-776,0,0,0,0,0,0,0,0,0,-1,1651,1800,0,0
434,-776,0,0,0,0,0,0,0,0,0,-1,1658,1800,0,0
441,-776,0,0,0,0,0,0,0,0,0,-1,1665,1800,0,0
448,-776,0,0,0,0,0,0,0,0,0,-1,1672,1800,0,0
455,-776,0,0,0,0,0,0,0,0,0,-1,1679,1800,0,0
462,-776,0,0,0,0,0,0,0,0,0,-1,1686,1800,0,0
469,-776,0,0,0,0,0,0,0,0,0,-1,1693,1800,0,0
476,-776,0,0,0,0,0,0,0,0,0,-1,1700,1800,0,0
483,-776,0,0,0,0,0,0,0,0,0,-1,1707,1800,0,0
490,-776,0,0,0,0,0,0,0,0,0,-1,1714,1800,0,0
497,-776,0,0,0,0,0,0,0,0,0,-1,1721,1800,0,0
504,-776,0,0,0,0,0,0,0,0,0,-1,1728,1800,0,0
511,-776,0,0,0,0,0,0,0,0,0,-1,1735,1800,0,0
518,-776,0,0,0,0,0,0,0,0,0,-1,1742,1800,0,0
525,-776,0,0,0,0,0,0,0,0,0,-1,1749,1800,0,0
532,-776,0,0,0,0,0,0,0,0,0,-1,1756,1800,0,0
539,-776,0,0,0,0,0,0,0,0,0,-1,1763,1800,0,0
546,-776,0,0,0,0,0,0,0,0,0,-1,1770,1800,0,0
553,-776,0,0,0,0,0,0,0,0,0,-1,1777,1800,0,0
560,-776,0,0,0,0,0,0,0,0,0,-1,1784,1800,0,0
567,-776,0,0,0,0,0,0,0,0,0,-1,1791,1800,0,0
574,-776,0,0,0,0,0,0,0,0,0,-1,1798,1800,0,0
581,-776,0,0,0,0,0,0,0,0,0,-1,1805,1800,0,0
588,-776,0,0,0,0,0,0,0,0,0,-1,1812,1800,0,0
595,-776,0,0,0,0,0,0,0,0,0,-1,1819,1800,0,0
602,-776,0,0,0,0,0,0,0,0,0,-1,1826,1800,0,0
609,-776,0,0,0,0,0,0,0,0,0,-1,1833,1800,0,0
616,-776,0,0,0,0,0,0,0,0,0,-1,1840,1800,0,0
623,-776,0,0,0,0,0,0,0,0,0,-1,1847,1800,0,0
630,-776,0,0,0,0,0,0,0,0,0,-1,1854,1800,0,0
637,-776,0,0,0,0,0,0,0,0,0,-1,1861,1800,0,0
644,-776,0,0,0,0,0,0,0,0,0,-1,1868,1800,0,0
651,-776,0,0,0,0,0,0,0,0,0,-1,1875,1800,0,0
658,-776,0,0,0,0,0,0,0,0,0,-1,1882,1800,0,0
665,-776,0,0,0,0,0,0,0,0,0,-1,1889,1800,0,0
672,-776,0,0,0,0,0,0,0,0,0,-1,1896,1800,0,0
679,-776,0,0,0,0,0,0,0,0,0,-1,1903,1800,0,0
686,-776,0,0,0,0,0,0,0,0,0,-1,1910,1800,0,0
693,-776,0,0,0,0,0,0,0,0,0,-1,1917,1800,0,0
700,-776,0,0,0,0,0,0,0,0,0,-1,1924,1800,0,0
707,-776,0,0,0,0,0,0,0,0,0,-1,1931,1800,0,0
714,-776,0,0,0,0,0,0,0,0,0,-1,1938,1800,0,0
721,-776,0,0,0,0,0,0,0,0,0,-1,1945,1800,0,0
728,-776,0,0,0,0,0,0,0,0,0,-1,1952,1800,0,0
735,-776,0,0,0,0,0,0,0,0,0,-1,1959,1800,0,0
742,-776,0,0,0,0,0,0,0,0,0,-1,1966,1800,0,0
749,-776,0,0,0,0,0,0,0,0,0,-1,1973,1800,0,0
756,-776,0,0,0,0,0,0,0,0,0,-1,1980,1800,0,0
763,-776,0,0,0,0,0,0,0,0,0,-1,1987,1800,0,0
770,-776,0,0,0,0,0,0,0,0,0,-1,1994,1800,0,0
777,-776,0,0,0,0,0,0,0,0,0,-1,2001,1800,0,0
784,-776,0,0,0,0,0,0,0,0,0,-1,2008,1800,0,0
791,-776,0,0,0,0,0,0,0,0,0,-1,2015,1800,0,0
798,-776,0,0,0,0,0,0,0,0,0,-1,2022,1800,0,0
805,-776,0,0,0,0,0,0,0,0,0,-1,2029,1800,0,0
812,-776,0,0,0,0,0,0,0,0,0,-1,2036,1800,0,0
-700,-783,0,0,0,0,0,0,0,0,0,-1,524,1807,0,0
-693,-783,0,0,0,0,0,0,0,0,0,-1,531,1807,0,0
-686,-783,0,0,0,0,0,0,0,0,0,-1,538,1807,0,0
-679,-783,0,0,0,0,0,0,0,0,0,-1,545,1807,0,0
-672,-783,0,0,0,0,0,0,0,0,0,-1,552,1807,0,0
-665,-783,0,0,0,0,0,0,0,0,0,-1,559,1807,0,0
-658,-783,0,0,0,0,0,0,0,0,0,-1,566,1807,0,0
-651,-783,0,0,0,0,0,0,0,0,0,-1,573,1807,0,0
-644,-783,0,0,0,0,0,0,0,0,0,-1,580,1807,0,0
-637,-783,0,0,0,0,0,0,0,0,0,-1,587,1807,0,0
-630,-783,0,0,0,0,0,0,0,0,0,-1,594,1807,0,0
-623,-783,0,0,0,0,0,0,0,0,0,-1,601,1807,0,0
-616,-783,0,0,0,0,0,0,0,0,0,-1,608,1807,0,0
-609,-783,0,0,0,0,0,0,0,0,0,-1,615,1807,0,0
-602,-783,0,0,0,0,0,0,0,0,0,-1,622,1807,0,0
-595,-783,0,0,0,0,0,0,0,0,0,-1,629,1807,0,0
-588,-783,0,0,0,0,0,0,0,0,0,-1,636,1807,0,0
-581,-783,0,0,0,0,0,0,0,0,0,-1,643,1807,0,0
-574,-783,0,0,0,0,0,0,0,0,0,-1,650,1807,0,0
-567,-783,0,0,0,0,0,0,0,0,0,-1,657,1807,0,0
-560,-783,0,0,0,0,0,0,0,0,0,-1,664,1807,0,0
-553,-783,0,0,0,0,0,0,0,0,0,-1,671,1807,0,0
-546,-783,0,0,0,0,0,0,0,0,0,-1,678,1807,0,0
-539,-783,0,0,0,0,0,0,0,0,0,-1,685,1807,0,0
-532,-783,0,0,0,0,0,0,0,0,0,-1,692,1807,0,0
-525,-783,0,0,0,0,0,0,0,0,0,-1,699,1807,0,0
-518,-783,0,0,0,0,0,0,0,0,0,-1,706,1807,0,0
-511,-783,0,0,0,0,0,0,0,0,0,-1,713,1807,0,0
-504,-783,0,0,0,0,0,0,0,0,0,-1,720,1807,0,0
-497,-783,0,0,0,0,0,0,0,0,0,-1,727,1807,0,0
-490,-783,0,0,0,0,0,0,0,0,0,-1,734,1807,0,0
-483,-783,0,0,0,0,0,0,0,0,0,-1,741,1807,0,0
-476,-783,0,0,0,0,0,0,0,0,0,-1,748,1807,0,0
-469,-783,0,0,0,0,0,0,0,0,0,-1,755,1807,0,0
-462,-783,0,0,0,0,0,0,0,0,0,-1,762,1807,0,0
-455,-783,0,0,0,0,0,0,0,0,0,-1,769,1807,0,0
-448,-783,0,0,0,0,0,0,0,0,0,-1,776,1807,0,0
-441,-783,0,0,0,0,0,0,0,0,0,-1,783,1807,0,0
-434,-783,0,0,0,0,0,0,0,0,0,-1,790,1807,0,0
-427,-783,0,0,0,0,0,0,0,0,0,-1,797,1807,0,0
-420,-783,0,0,0,0,0,0,0,0,0,-1,804,1807,0,0
-413,-783,0,0,0,0,0,0,0,0,0,-1,811,1807,0,0
-406,-783,0,0,0,0,0,0,0,0,0,-1,818,1807,0,0
-399,-783,0,0,0,0,0,0,0,0,0,-1,825,1807,0,0
-392,-783,0,0,0,0,0,0,0,0,0,-1,832,1807,0,0
-385,-783,0,0,0,0,0,0,0,0,0,-1,839,1807,0,0
-378,-783,0,0,0,0,0,0,0,0,0,-1,846,1807,0,0
-371,-783,0,0,0,0,0,0,0,0,0,-1,853,1807,0,0
-364,-783,0,0,0,0,0,0,0,0,0,-1,860,1807,0,0
-357,-783,0,0,0,0,0,0,0,0,0,-1,867,1807,0,0
-350,-783,0,0,0,0,0,0,0,0,0,-1,874,1807,0,0
-343,-783,0,0,0,0,0,0,0,0,0,-1,881,1807,0,0
-336,-783,0,0,0,0,0,0,0,0,0,-1,888,1807,0,0
-329,-783,0,0,0,0,0,0,0,0,0,-1,895,1807,0,0
-322,-783,0,0,0,0,0,0,0,0,0,-1,902,1807,0,0
-315,-783,0,0,0,0,0,0,0,0,0,-1,909,1807,0,0
-308,-783,0,0,0,0,0,0,0,0,0,-1,916,1807,0,0
-301,-783,0,0,0,0,0,0,0,0,0,-1,923,1807,0,0
-294,-783,0,0,0,0,0,0,0,0,0,-1,930,1807,0,0
-287,-783,0,0,0,0,0,0,0,0,0,-1,937,1807,0,0
-280,-783,0,0,0,0,0,0,0,0,0,-1,944,1807,0,0
-273,-783,0,0,0,0,0,0,0,0,0,-1,951,1807,0,0
-266,-783,0,0,0,0,0,0,0,0,0,-1,958,1807,0,0
-259,-783,0,0,0,0,0,0,0,0,0,-1,965,1807,0,0
-252,-783,0,0,0,0,0,0,0,0,0,-1,972,1807,0,0
-245,-783,0,0,0,0,0,0,0,0,0,-1,979,1807,0,0
-238,-783,0,0,0,0,0,0,0,0,0,-1,986,1807,0,0
-231,-783,0,0,0,0,0,0,0,0,0,-1,993,1807,0,0
-224,-783,0,0,0,0,0,0,0,0,0,-1,1000,1807,0,0
-217,-783,0,0,0,0,0,0,0,0,0,-1,1007,1807,0,0
-210,-783,0,0,0,0,0,0,0,0,0,-1,1014,1807,0,0
-203,-783,0,0,0,0,0,0,0,0,0,-1,1021,1807,0,0
-196,-783,0,0,0,0,0,0,0,0,0,-1,1028,1807,0,0
-189,-783,0,0,0,0,0,0,0,0,0,-1,1035,1807,0,0
-182,-783,0,0,0,0,0,0,0,0,0,-1,1042,1807,0,0
-175,-783,0,0,0,0,0,0,0,0,0,-1,1049,1807,0,0
-168,-783,0,0,0,0,0,0,0,0,0,-1,1056,1807,0,0
-161,-783,0,0,0,0,0,0,0,0,0,-1,1063,1807,0,0
-154,-783,0,0,0,0,0,0,0,0,0,-1,1070,1807,0,0
-147,-783,0,0,0,0,0,0,0,0,0,-1,1077,1807,0,0
-140,-783,0,0,0,0,0,0,0,0,0,-1,1084,1807,0,0
-133,-783,0,0,0,0,0,0,0,0,0,-1,1091,1807,0,0
-126,-783,0,0,0,0,0,0,0,0,0,-1,1098,1807,0,0
-119,-783,0,0,0,0,0,0,0,0,0,-1,1105,1807,0,0
-112,-783,5.33936,14.7699,0,0,0,0,0,0,0,-1,1112,1807,5.33931,-14.7699
-105,-783,6.44263,21.2224,0,0,0,0,0,0,0,-1,1119,1807,6.44263,-21.2224
-98,-783,5.54773,20.5695,0,0,0,0,0,0,0,-1,1126,1807,5.54772,-20.5695
-91,-783,2.6106,20.2491,0,0,0,0,0,0,0,-1,1133,1807,2.61056,-20.2492
-84,-783,-0.0491943,14.5743,0,0,0,0,0,0,0,-1,1140,1807,-0.0491562,-14.5743
-77,-783,0.332764,12.7788,0,0,0,0,0,0,0,-1,1147,1807,0.332743,-12.7788
-70,-783,-1.93176,5.12817,0,0,0,0,0,0,0,-1,1154,1807,-1.93171,-5.12813
-63,-783,-5.31702,10.54,0,0,0,0,0,0,0,-1,1161,1807,-5.31703,-10.54
-56,-783,-6.26135,6.9679,0,0,0,0,0,0,0,-1,1168,1807,-6.26136,-6.96785
-49,-783,-3.17688,4.59705,0,0,0,0,0,0,0,-1,1175,1807,-3.17685,-4.5971
-42,-783,-3.72876,3.1405,0,0,0,0,0,0,0,-1,1182,1807,-3.72874,-3.14055
-35,-783,-3.97046,1.59399,0,0,0,0,0,0,0,-1,1189,1807,-3.97041,-1.59401
-28,-783,-4.12195,0.270386,0,0,0,0,0,0,0,-1,1196,1807,-4.12197,-0.270408
-21,-783,8.98047,48.8729,0,0,0,0,0,0,0,-1,1203,1807,8.98042,-48.8729
-14,-783,8.5907,49.1737,-0.0597651,-0.0104514,0.0676215,0.0368684,-0.107085,0.960222,0.0863442,0.043813,1210,1807,8.59076,-49.1737
-7,-783,8.02991,49.3748,-0.0479179,-0.00627527,0.0694879,0.0454437,-0.0996369,0.930961,0.0856881,0.0434811,1217,1807,8.0299,-49.3747
0,-783,7.0022,49.8375,-0.034915,0.00829663,0.0693741,0.0593515,-0.0859699,0.936357,0.0843693,0.0430887,1224,1807,7.00216,-49.8375
7,-783,6.68311,50.0217,-0.0233653,0.028393,0.0648312,0.0723194,-0.0672917,0.975297,0.0806219,0.0442699,1231,1807,6.68311,-50.0218
14,-783,6.51038,50.1232,-0.0142223,0.0522991,0.0588029,0.0865962,-0.0485193,1.04278,0.0790348,0.0484605,1238,1807,6.51033,-50.1232
21,-783,7.13977,49.486,-0.00700335,0.0763446,0.050877,0.100437,-0.0310956,1.12854,0.0793799,0.0473999,1245,1807,7.13979,-49.4859
28,-783,4.99548,48.6884,-0.00403513,0.0968686,0.039321,0.110382,-0.0175484,1.23978,0.0800809,0.0453162,1252,1807,4.99548,-48.6884
35,-783,7.91443,49.8208,-0.00301594,0.114469,0.027647,0.120649,-0.00919679,1.35085,0.0836672,0.0489826,1259,1807,7.91441,-49.8208
42,-783,11.8011,49.2485,0,0,0,0,0,0,0,-1,1266,1807,11.8011,-49.2486
49,-783,11.1289,49.5557,0,0,0,0,0,0,0,-1,1273,1807,11.1289,-49.5557
56,-783,8.52197,49.1819,0,0,0,0,0,0,0,-1,1280,1807,8.52192,-49.1819
63,-783,8.53516,49.1415,0,0,0,0,0,0,0,-1,1287,1807,8.53518,-49.1415
70,-783,8.56714,49.2186,-0.00445312,0.162881,-0.0199624,0.16523,-0.00680161,-1.45369,0.112489,0.0432802,1294,1807,8.5671,-49.2187
77,-783,8.6322,48.6687,-0.00262145,0.155942,-0.0248635,0.15975,-0.00642873,-1.41885,0.108706,0.0438597,1301,1807,8.63224,-48.6687
84,-783,8.47253,49.0953,0,0,0,0,0,0,0,-1,1308,1807,8.47251,-49.0954
91,-783,7.94666,49.4246,0.00410938,0.134688,-0.0349543,0.143456,-0.00465873,-1.32502,0.0972273,0.0424199,1315,1807,7.94671,-49.4245
98,-783,7.74316,47.9949,0.0123169,0.122779,-0.0369744,0.134012,0.00108302,-1.27583,0.0889828,0.0449338,1322,1807,7.74311,-47.9949
105,-783,7.65466,54.3429,0.0212615,0.10238,-0.0386331,0.117835,0.00580672,-1.19026,0.0766942,0.0483798,1329,1807,7.65462,-54.3429
112,-783,7.43945,52.8112,0.0310439,0.0897569,-0.0425296,0.112078,0.00872282,-1.08748,0.0719874,0.0468096,1336,1807,7.43945,-52.8112
119,-783,6.75232,51.257,0,0,0,0,0,0,0,-1,1343,1807,6.75228,-51.2569
126,-783,7.65601,50.3441,0.0495739,0.0561759,-0.0540089,0.106985,-0.00123473,-0.81592,0.0717382,0.0439962,1350,1807,7.65595,-50.3441
133,-783,8.5459,49.3921,0.0581078,0.036421,-0.0598473,0.108086,-0.0135573,-0.695778,0.0769755,0.0493632,1357,1807,8.54592,-49.3921
140,-783,9.24438,48.3726,0.0646367,0.0155918,-0.0663564,0.110857,-0.0306284,-0.608403,0.0859527,0.0463456,1364,1807,9.24439,-48.3725
147,-783,9.63403,47.1617,0,0,0,0,0,0,0,-1,1371,1807,9.63408,-47.1617
154,-783,38.2109,17.545,0,0,0,0,0,0,0,-1,1378,1807,38.2109,-17.545
161,-783,39.5087,17.5449,0,0,0,0,0,0,0,-1,1385,1807,39.5087,-17.545
168,-783,8.62561,1.79944,0,0,0,0,0,0,0,-1,1392,1807,8.62561,-1.79946
175,-783,8.78699,3.40857,0,0,0,0,0,0,0,-1,1399,1807,8.78697,-3.40854
182,-783,8.70984,5.14661,0,0,0,0,0,0,0,-1,1406,1807,8.70989,-5.14666
189,-783,8.55762,6.79871,0,0,0,0,0,0,0,-1,1413,1807,8.55766,-6.79872
196,-783,8.25488,8.66626,0,0,0,0,0,0,0,-1,1420,1807,8.25492,-8.66628
203,-783,7.86755,10.5735,0,0,0,0,0,0,0,-1,1427,1807,7.8676,-10.5734
210,-783,5.6969,8.99231,0,0,0,0,0,0,0,-1,1434,1807,5.69693,-8.99234
217,-783,5.28503,3.80872,0,0,0,0,0,0,0,-1,1441,1807,5.285,-3.80868
224,-783,3.22571,6.62903,0,0,0,0,0,0,0,-1,1448,1807,3.2257,-6.62907
231,-783,4.27942,4.56262,0,0,0,0,0,0,0,-1,1455,1807,4.27948,-4.56267
238,-783,0,0,0,0,0,0,0,0,0,-1,1462,1807,0,0
245,-783,0,0,0,0,0,0,0,0,0,-1,1469,1807,0,0
252,-783,0,0,0,0,0,0,0,0,0,-1,1476,1807,0,0
259,-783,0,0,0,0,0,0,0,0,0,-1,1483,1807,0,0
266,-783,0,0,0,0,0,0,0,0,0,-1,1490,1807,0,0
273,-783,0,0,0,0,0,0,0,0,0,-1,1497,1807,0,0
280,-783,0,0,0,0,0,0,0,0,0,-1,1504,1807,0,0
287,-783,0,0,0,0,0,0,0,0,0,-1,1511,1807,0,0
294,-783,0,0,0,0,0,0,0,0,0,-1,1518,1807,0,0
301,-783,0,0,0,0,0,0,0,0,0,-1,1525,1807,0,0
308,-783,0,0,0,0,0,0,0,0,0,-1,1532,1807,0,0
315,-783,0,0,0,0,0,0,0,0,0,-1,1539,1807,0,0
322,-783,0,0,0,0,0,0,0,0,0,-1,1546,1807,0,0
329,-783,0,0,0,0,0,0,0,0,0,-1,1553,1807,0,0
336,-783,0,0,0,0,0,0,0,0,0,-1,1560,1807,0,0
343,-783,0,0,0,0,0,0,0,0,0,-1,1567,1807,0,0
350,-783,0,0,0,0,0,0,0,0,0,-1,1574,1807,0,0
357,-783,0,0,0,0,0,0,0,0,0,-1,1581,1807,0,0
364,-783,0,0,0,0,0,0,0,0,0,-1,1588,1807,0,0
371,-783,0,0,0,0,0,0,0,0,0,-1,1595,1807,0,0
378,-783,0,0,0,0,0,0,0,0,0,-1,1602,1807,0,0
385,-783,0,0,0,0,0,0,0,0,0,-1,1609,1807,0,0
392,-783,0,0,0,0,0,0,0,0,0,-1,1616,1807,0,0
399,-783,0,0,0,0,0,0,0,0,0,-1,1623,1807,0,0
406,-783,0,0,0,0,0,0,0,0,0,-1,1630,1807,0,0
413,-783,0,0,0,0,0,0,0,0,0,-1,1637,1807,0,0
420,-783,0,0,0,0,0,0,0,0,0,-1,1644,1807,0,0
427,-783,0,0,0,0,0,0,0,0,0,-1,1651,1807,0,0
434,-783,0,0,0,0,0,0,0,0,0,-1,1658,1807,0,0
441,-783,0,0,0,0,0,0,0,0,0,-1,1665,1807,0,0
448,-783,0,0,0,0,0,0,0,0,0,-1,1672,1807,0,0
455,-783,0,0,0,0,0,0,0,0,0,-1,1679,1807,0,0
462,-783,0,0,0,0,0,0,0,0,0,-1,1686,1807,0,0
469,-783,0,0,0,0,0,0,0,0,0,-1,1693,1807,0,0
476,-783,0,0,0,0,0,0,0,0,0,-1,1700,1807,0,0
483,-783,0,0,0,0,0,0,0,0,0,-1,1707,1807,0,0
490,-783,0,0,0,0,0,0,0,0,0,-1,1714,1807,0,0
497,-783,0,0,0,0,0,0,0,0,0,-1,1721,1807,0,0
504,-783,0,0,0,0,0,0,0,0,0,-1,1728,1807,0,0
511,-783,0,0,0,0,0,0,0,0,0,-1,1735,1807,0,0
518,-783,0,0,0,0,0,0,0,0,0,-1,1742,1807,0,0
525,-783,0,0,0,0,0,0,0,0,0,-1,1749,1807,0,0
532,-783,0,0,0,0,0,0,0,0,0,-1,1756,1807,0,0
539,-783,0,0,0,0,0,0,0,0,0,-1,1763,1807,0,0
546,-783,0,0,0,0,0,0,0,0,0,-1,1770,1807,0,0
553,-783,0,0,0,0,0,0,0,0,0,-1,1777,1807,0,0
560,-783,0,0,0,0,0,0,0,0,0,-1,1784,1807,0,0
567,-783,0,0,0,0,0,0,0,0,0,-1,1791,1807,0,0
574,-783,0,0,0,0,0,0,0,0,0,-1,1798,1807,0,0
581,-783,0,0,0,0,0,0,0,0,0,-1,1805,1807,0,0
588,-783,0,0,0,0,0,0,0,0,0,-1,1812,1807,0,0
595,-783,0,0,0,0,0,0,0,0,0,-1,1819,1807,0,0
602,-783,0,0,0,0,0,0,0,0,0,-1,1826,1807,0,0
609,-783,0,0,0,0,0,0,0,0,0,-1,1833,1807,0,0
616,-783,0,0,0,0,0,0,0,0,0,-1,1840,1807,0,0
623,-783,0,0,0,0,0,0,0,0,0,-1,1847,1807,0,0
630,-783,0,0,0,0,0,0,0,0,0,-1,1854,1807,0,0
637,-783,0,0,0,0,0,0,0,0,0,-1,1861,1807,0,0
644,-783,0,0,0,0,0,0,0,0,0,-1,1868,1807,0,0
651,-783,0,0,0,0,0,0,0,0,0,-1,1875,1807,0,0
658,-783,0,0,0,0,0,0,0,0,0,-1,1882,1807,0,0
665,-783,0,0,0,0,0,0,0,0,0,-1,1889,1807,0,0
672,-783,0,0,0,0,0,0,0,0,0,-1,1896,1807,0,0
679,-783,0,0,0,0,0,0,0,0,0,-1,1903,1807,0,0
686,-783,0,0,0,0,0,0,0,0,0,-1,1910,1807,0,0
693,-783,0,0,0,0,0,0,0,0,0,-1,1917,1807,0,0
700,-783,0,0,0,0,0,0,0,0,0,-1,1924,1807,0,0
707,-783,0,0,0,0,0,0,0,0,0,-1,1931,1807,0,0
714,-783,0,0,0,0,0,0,0,0,0,-1,1938,1807,0,0
721,-783,0,0,0,0,0,0,0,0,0,-1,1945,1807,0,0
728,-783,0,0,0,0,0,0,0,0,0,-1,1952,1807,0,0
735,-783,0,0,0,0,0,0,0,0,0,-1,1959,1807,0,0
742,-783,0,0,0,0,0,0,0,0,0,-1,1966,1807,0,0
749,-783,0,0,0,0,0,0,0,0,0,-1,1973,1807,0,0
756,-783,0,0,0,0,0,0,0,0,0,-1,1980,1807,0,0
763,-783,0,0,0,0,0,0,0,0,0,-1,1987,1807,0,0
770,-783,0,0,0,0,0,0,0,0,0,-1,1994,1807,0,0
777,-783,0,0,0,0,0,0,0,0,0,-1,2001,1807,0,0
784,-783,0,0,0,0,0,0,0,0,0,-1,2008,1807,0,0
791,-783,0,0,0,0,0,0,0,0,0,-1,2015,1807,0,0
798,-783,0,0,0,0,0,0,0,0,0,-1,2022,1807,0,0
805,-783,0,0,0,0,0,0,0,0,0,-1,2029,1807,0,0
812,-783,0,0,0,0,0,0,0,0,0,-1,2036,1807,0,0
-700,-790,0,0,0,0,0,0,0,0,0,-1,524,1814,0,0
-693,-790,0,0,0,0,0,0,0,0,0,-1,531,1814,0,0
-686,-790,0,0,0,0,0,0,0,0,0,-1,538,1814,0,0
-679,-790,0,0,0,0,0,0,0,0,0,-1,545,1814,0,0
-672,-790,0,0,0,0,0,0,0,0,0,-1,552,1814,0,0
-665,-790,0,0,0,0,0,0,0,0,0,-1,559,1814,0,0
-658,-790,0,0,0,0,0,0,0,0,0,-1,566,1814,0,0
-651,-790,0,0,0,0,0,0,0,0,0,-1,573,1814,0,0
-644,-790,0,0,0,0,0,0,0,0,0,-1,580,1814,0,0
-637,-790,0,0,0,0,0,0,0,0,0,-1,587,1814,0,0
-630,-790,0,0,0,0,0,0,0,0,0,-1,594,1814,0,0
-623,-790,0,0,0,0,0,0,0,0,0,-1,601,1814,0,0
-616,-790,0,0,0,0,0,0,0,0,0,-1,608,1814,0,0
-609,-790,0,0,0,0,0,0,0,0,0,-1,615,1814,0,0
-602,-790,0,0,0,0,0,0,0,0,0,-1,622,1814,0,0
-595,-790,0,0,0,0,0,0,0,0,0,-1,629,1814,0,0
-588,-790,0,0,0,0,0,0,0,0,0,-1,636,1814,0,0
-581,-790,0,0,0,0,0,0,0,0,0,-1,643,1814,0,0
-574,-790,0,0,0,0,0,0,0,0,0,-1,650,1814,0,0
-567,-790,0,0,0,0,0,0,0,0,0,-1,657,1814,0,0
-560,-790,0,0,0,0,0,0,0,0,0,-1,664,1814,0,0
-553,-790,0,0,0,0,0,0,0,0,0,-1,671,1814,0,0
-546,-790,0,0,0,0,0,0,0,0,0,-1,678,1814,0,0
-539,-790,0,0,0,0,0,0,0,0,0,-1,685,1814,0,0
-532,-790,0,0,0,0,0,0,0,0,0,-1,692,1814,0,0
-525,-790,0,0,0,0,0,0,0,0,0,-1,699,1814,0,0
-518,-790,0,0,0,0,0,0,0,0,0,-1,706,1814,0,0
-511,-790,0,0,0,0,0,0,0,0,0,-1,713,1814,0,0
-504,-790,0,0,0,0,0,0,0,0,0,-1,720,1814,0,0
-497,-790,0,0,0,0,0,0,0,0,0,-1,727,1814,0,0
-490,-790,0,0,0,0,0,0,0,0,0,-1,734,1814,0,0
-483,-790,0,0,0,0,0,0,0,0,0,-1,741,1814,0,0
-476,-790,0,0,0,0,0,0,0,0,0,-1,748,1814,0,0
-469,-790,0,0,0,0,0,0,0,0,0,-1,755,1814,0,0
-462,-790,0,0,0,0,0,0,0,0,0,-1,762,1814,0,0
-455,-790,0,0,0,0,0,0,0,0,0,-1,769,1814,0,0
-448,-790,0,0,0,0,0,0,0,0,0,-1,776,1814,0,0
-441,-790,0,0,0,0,0,0,0,0,0,-1,783,1814,0,0
-434,-790,0,0,0,0,0,0,0,0,0,-1,790,1814,0,0
-427,-790,0,0,0,0,0,0,0,0,0,-1,797,1814,0,0
-420,-790,0,0,0,0,0,0,0,0,0,-1,804,1814,0,0
-413,-790,0,0,0,0,0,0,0,0,0,-1,811,1814,0,0
-406,-790,0,0,0,0,0,0,0,0,0,-1,818,1814,0,0
-399,-790,0,0,0,0,0,0,0,0,0,-1,825,1814,0,0
-392,-790,0,0,0,0,0,0,0,0,0,-1,832,1814,0,0
-385,-790,0,0,0,0,0,0,0,0,0,-1,839,1814,0,0
-378,-790,0,0,0,0,0,0,0,0,0,-1,846,1814,0,0
-371,-790,0,0,0,0,0,0,0,0,0,-1,853,1814,0,0
-364,-790,0,0,0,0,0,0,0,0,0,-1,860,1814,0,0
-357,-790,0,0,0,0,0,0,0,0,0,-1,867,1814,0,0
-350,-790,0,0,0,0,0,0,0,0,0,-1,874,1814,0,0
-343,-790,0,0,0,0,0,0,0,0,0,-1,881,1814,0,0
-336,-790,0,0,0,0,0,0,0,0,0,-1,888,1814,0,0
-329,-790,0,0,0,0,0,0,0,0,0,-1,895,1814,0,0
-322,-790,0,0,0,0,0,0,0,0,0,-1,902,1814,0,0
-315,-790,0,0,0,0,0,0,0,0,0,-1,909,1814,0,0
-308,-790,0,0,0,0,0,0,0,0,0,-1,916,1814,0,0
-301,-790,0,0,0,0,0,0,0,0,0,-1,923,1814,0,0
-294,-790,0,0,0,0,0,0,0,0,0,-1,930,1814,0,0
-287,-790,0,0,0,0,0,0,0,0,0,-1,937,1814,0,0
-280,-790,0,0,0,0,0,0,0,0,0,-1,944,1814,0,0
-273,-790,0,0,0,0,0,0,0,0,0,-1,951,1814,0,0
-266,-790,0,0,0,0,0,0,0,0,0,-1,958,1814,0,0
-259,-790,0,0,0,0,0,0,0,0,0,-1,965,1814,0,0
-252,-790,0,0,0,0,0,0,0,0,0,-1,972,1814,0,0
-245,-790,0,0,0,0,0,0,0,0,0,-1,979,1814,0,0
-238,-790,0,0,0,0,0,0,0,0,0,-1,986,1814,0,0
-231,-790,0,0,0,0,0,0,0,0,0,-1,993,1814,0,0
-224,-790,0,0,0,0,0,0,0,0,0,-1,1000,1814,0,0
-217,-790,0,0,0,0,0,0,0,0,0,-1,1007,1814,0,0
-210,-790,0,0,0,0,0,0,0,0,0,-1,1014,1814,0,0
-203,-790,0,0,0,0,0,0,0,0,0,-1,1021,1814,0,0
-196,-790,0,0,0,0,0,0,0,0,0,-1,1028,1814,0,0
-189,-790,0,0,0,0,0,0,0,0,0,-1,1035,1814,0,0
-182,-790,0,0,0,0,0,0,0,0,0,-1,1042,1814,0,0
-175,-790,0,0,0,0,0,0,0,0,0,-1,1049,1814,0,0
-168,-790,0,0,0,0,0,0,0,0,0,-1,1056,1814,0,0
-161,-790,0,0,0,0,0,0,0,0,0,-1,1063,1814,0,0
-154,-790,0,0,0,0,0,0,0,0,0,-1,1070,1814,0,0
-147,-790,0,0,0,0,0,0,0,0,0,-1,1077,1814,0,0
-140,-790,0,0,0,0,0,0,0,0,0,-1,1084,1814,0,0
-133,-790,0,0,0,0,0,0,0,0,0,-1,1091,1814,0,0
-126,-790,0,0,0,0,0,0,0,0,0,-1,1098,1814,0,0
-119,-790,0,0,0,0,0,0,0,0,0,-1,1105,1814,0,0
-112,-790,0,0,0,0,0,0,0,0,0,-1,1112,1814,0,0
-105,-790,0,0,0,0,0,0,0,0,0,-1,1119,1814,0,0
-98,-790,0,0,0,0,0,0,0,0,0,-1,1126,1814,0,0
-91,-790,0,0,0,0,0,0,0,0,0,-1,1133,1814,0,0
-84,-790,0,0,0,0,0,0,0,0,0,-1,1140,1814,0,0
-77,-790,-0.969238,5.30847,0,0,0,0,0,0,0,-1,1147,1814,-0.969277,-5.3085
-70,-790,-1.23169,4.98914,0,0,0,0,0,0,0,-1,1154,1814,-1.23163,-4.98916
-63,-790,-1.69128,4.32263,0,0,0,0,0,0,0,-1,1161,1814,-1.69128,-4.32258
-56,-790,-2.24756,3.75305,0,0,0,0,0,0,0,-1,1168,1814,-2.24758,-3.75302
-49,-790,-3.11011,3.35779,0,0,0,0,0,0,0,-1,1175,1814,-3.11006,-3.35781
-42,-790,0.593262,1.19165,0,0,0,0,0,0,0,-1,1182,1814,0.593225,-1.19165
-35,-790,0.307129,-0.20105,0,0,0,0,0,0,0,-1,1189,1814,0.307178,0.201006
-28,-790,-2.78467,0.785156,0,0,0,0,0,0,0,-1,1196,1814,-2.78471,-0.785183
-21,-790,7.92847,49.0938,0,0,0,0,0,0,0,-1,1203,1814,7.92849,-49.0938
-14,-790,7.7489,49.3702,-0.0746995,-0.012832,0.0779234,0.0400731,-0.127605,0.974346,0.10111,0.0429364,1210,1814,7.74885,-49.3702
-7,-790,7.24121,49.4528,-0.0577079,-0.00648854,0.0817464,0.0535658,-0.117762,0.937197,0.101204,0.0446563,1217,1814,7.24123,-49.4527
0,-790,5.63794,49.8788,-0.0411724,0.0145396,0.0821938,0.0734694,-0.100102,0.948777,0.100604,0.0471364,1224,1814,5.63798,-49.8788
7,-790,5.60388,50.2279,-0.0279953,0.0420619,0.0764258,0.0911041,-0.0770375,1.00028,0.0971898,0.0450805,1231,1814,5.60392,-50.2279
14,-790,5.58838,50.3562,-0.0182899,0.0734815,0.0691703,0.110602,-0.0554104,1.07826,0.0975969,0.0462952,1238,1814,5.58843,-50.3562
21,-790,5.36951,50.4169,0,0,0,0,0,0,0,-1,1245,1814,5.36952,-50.4169
28,-790,4.56287,49.3861,-0.00805083,0.130523,0.0457752,0.144279,-0.0218063,1.27888,0.104218,0.0426205,1252,1814,4.56286,-49.3862
35,-790,4.026,48.6193,-0.00744879,0.151736,0.0319069,0.157894,-0.013606,1.38016,0.110078,0.0445863,1259,1814,4.02606,-48.6193
42,-790,3.57739,47.8384,0,0,0,0,0,0,0,-1,1266,1814,3.57742,-47.8384
49,-790,12.0333,49.6996,-0.00530807,0.185489,0.00578209,0.185664,-0.00548313,1.54053,0.125644,0.0466761,1273,1814,12.0334,-49.6996
56,-790,11.2639,46.5804,-0.00484405,0.198924,-0.00584427,0.199092,-0.00501152,-1.54215,0.134429,0.0470135,1280,1814,11.2639,-46.5804
63,-790,8.73132,48.7039,0,0,0,0,0,0,0,-1,1287,1814,8.73129,-48.7039
70,-790,8.68347,48.8151,0,0,0,0,0,0,0,-1,1294,1814,8.68352,-48.8151
77,-790,9.10596,47.9946,-0.00679107,0.197964,-0.0327269,0.203068,-0.0118947,-1.4161,0.139513,0.0409536,1301,1814,9.10602,-47.9947
84,-790,8.97839,47.5924,-0.00263156,0.186583,-0.0389906,0.194303,-0.0103512,-1.37534,0.13312,0.0411178,1308,1814,8.97834,-47.5924
91,-790,8.85156,47.2732,0.00215155,0.169989,-0.0452895,0.18143,-0.00928955,-1.32335,0.124166,0.0422538,1315,1814,8.85153,-47.2732
98,-790,8.76758,47.0156,0.012274,0.154411,-0.0483647,0.169307,-0.00262185,-1.27203,0.113756,0.0433321,1322,1814,8.76756,-47.0156
105,-790,8.74268,46.6134,0.0231531,0.128357,-0.0509808,0.149008,0.00250193,-1.18592,0.0985152,0.049505,1329,1814,8.74271,-46.6134
112,-790,6.30139,52.1078,0,0,0,0,0,0,0,-1,1336,1814,6.30141,-52.1078
119,-790,7.41357,51.1302,0,0,0,0,0,0,0,-1,1343,1814,7.41352,-51.1302
126,-790,8.22839,50.3917,0.0573338,0.0680802,-0.069171,0.132086,-0.00667239,-0.82416,0.0903639,0.0454865,1350,1814,8.22842,-50.3917
133,-790,8.62183,49.6113,0.0679028,0.0415734,-0.0757378,0.131612,-0.0221353,-0.699349,0.0959742,0.0493999,1357,1814,8.62186,-49.6114
140,-790,9.09778,48.4047,0.0761642,0.0120443,-0.0834311,0.133483,-0.0452746,-0.601962,0.107313,0.0463289,1364,1814,9.09782,-48.4047
147,-790,9.52661,47.1781,0,0,0,0,0,0,0,-1,1371,1814,9.52659,-47.1781
154,-790,40.215,13.2396,0,0,0,0,0,0,0,-1,1378,1814,40.2149,-13.2396
161,-790,39.3429,13.0336,0,0,0,0,0,0,0,-1,1385,1814,39.3429,-13.0336
168,-790,7.04077,2.23279,0,0,0,0,0,0,0,-1,1392,1814,7.04082,-2.23275
175,-790,9.03918,3.98535,0,0,0,0,0,0,0,-1,1399,1814,9.0392,-3.98535
182,-790,8.96997,5.67896,0,0,0,0,0,0,0,-1,1406,1814,8.97001,-5.6789
189,-790,8.59729,6.86975,0,0,0,0,0,0,0,-1,1413,1814,8.59728,-6.86972
196,-790,8.21924,9.29053,0,0,0,0,0,0,0,-1,1420,1814,8.21924,-9.29048
203,-790,0,0,0,0,0,0,0,0,0,-1,1427,1814,0,0
210,-790,0,0,0,0,0,0,0,0,0,-1,1434,1814,0,0
217,-790,0,0,0,0,0,0,0,0,0,-1,1441,1814,0,0
224,-790,0,0,0,0,0,0,0,0,0,-1,1448,1814,0,0
231,-790,0,0,0,0,0,0,0,0,0,-1,1455,1814,0,0
238,-790,0,0,0,0,0,0,0,0,0,-1,1462,1814,0,0
245,-790,0,0,0,0,0,0,0,0,0,-1,1469,1814,0,0
252,-790,0,0,0,0,0,0,0,0,0,-1,1476,1814,0,0
259,-790,0,0,0,0,0,0,0,0,0,-1,1483,1814,0,0
266,-790,0,0,0,0,0,0,0,0,0,-1,1490,1814,0,0
273,-790,0,0,0,0,0,0,0,0,0,-1,1497,1814,0,0
280,-790,0,0,0,0,0,0,0,0,0,-1,1504,1814,0,0
287,-790,0,0,0,0,0,0,0,0,0,-1,1511,1814,0,0
294,-790,0,0,0,0,0,0,0,0,0,-1,1518,1814,0,0
301,-790,0,0,0,0,0,0,0,0,0,-1,1525,1814,0,0
308,-790,0,0,0,0,0,0,0,0,0,-1,1532,1814,0,0
315,-790,0,0,0,0,0,0,0,0,0,-1,1539,1814,0,0
322,-790,0,0,0,0,0,0,0,0,0,-1,1546,1814,0,0
329,-790,0,0,0,0,0,0,0,0,0,-1,1553,1814,0,0
336,-790,0,0,0,0,0,0,0,0,0,-1,1560,1814,0,0
343,-790,0,0,0,0,0,0,0,0,0,-1,1567,1814,0,0
350,-790,0,0,0,0,0,0,0,0,0,-1,1574,1814,0,0
357,-790,0,0,0,0,0,0,0,0,0,-1,1581,1814,0,0
364,-790,0,0,0,0,0,0,0,0,0,-1,1588,1814,0,0
371,-790,0,0,0,0,0,0,0,0,0,-1,1595,1814,0,0
378,-790,0,0,0,0,0,0,0,0,0,-1,1602,1814,0,0
385,-790,0,0,0,0,0,0,0,0,0,-1,1609,1814,0,0
392,-790,0,0,0,0,0,0,0,0,0,-1,1616,1814,0,0
399,-790,0,0,0,0,0,0,0,0,0,-1,1623,1814,0,0
406,-790,0,0,0,0,0,0,0,0,0,-1,1630,1814,0,0
413,-790,0,0,0,0,0,0,0,0,0,-1,1637,1814,0,0
420,-790,0,0,0,0,0,0,0,0,0,-1,1644,1814,0,0
427,-790,0,0,0,0,0,0,0,0,0,-1,1651,1814,0,0
434,-790,0,0,0,0,0,0,0,0,0,-1,1658,1814,0,0
441,-790,0,0,0,0,0,0,0,0,0,-1,1665,1814,0,0
448,-790,0,0,0,0,0,0,0,0,0,-1,1672,1814,0,0
455,-790,0,0,0,0,0,0,0,0,0,-1,1679,1814,0,0
462,-790,0,0,0,0,0,0,0,0,0,-1,1686,1814,0,0
469,-790,0,0,0,0,0,0,0,0,0,-1,1693,1814,0,0
476,-790,0,0,0,0,0,0,0,0,0,-1,1700,1814,0,0
483,-790,0,0,0,0,0,0,0,0,0,-1,1707,1814,0,0
490,-790,0,0,0,0,0,0,0,0,0,-1,1714,1814,0,0
497,-790,0,0,0,0,0,0,0,0,0,-1,1721,1814,0,0
504,-790,0,0,0,0,0,0,0,0,0,-1,1728,1814,0,0
511,-790,0,0,0,0,0,0,0,0,0,-1,1735,1814,0,0
518,-790,0,0,0,0,0,0,0,0,0,-1,1742,1814,0,0
525,-790,0,0,0,0,0,0,0,0,0,-1,1749,1814,0,0
532,-790,0,0,0,0,0,0,0,0,0,-1,1756,1814,0,0
539,-790,0,0,0,0,0,0,0,0,0,-1,1763,1814,0,0
546,-790,0,0,0,0,0,0,0,0,0,-1,1770,1814,0,0
553,-790,0,0,0,0,0,0,0,0,0,-1,1777,1814,0,0
560,-790,0,0,0,0,0,0,0,0,0,-1,1784,1814,0,0
567,-790,0,0,0,0,0,0,0,0,0,-1,1791,1814,0,0
574,-790,0,0,0,0,0,0,0,0,0,-1,1798,1814,0,0
581,-790,0,0,0,0,0,0,0,0,0,-1,1805,1814,0,0
588,-790,0,0,0,0,0,0,0,0,0,-1,1812,1814,0,0
595,-790,0,0,0,0,0,0,0,0,0,-1,1819,1814,0,0
602,-790,0,0,0,0,0,0,0,0,0,-1,1826,1814,0,0
609,-790,0,0,0,0,0,0,0,0,0,-1,1833,1814,0,0
616,-790,0,0,0,0,0,0,0,0,0,-1,1840,1814,0,0
623,-790,0,0,0,0,0,0,0,0,0,-1,1847,1814,0,0
630,-790,0,0,0,0,0,0,0,0,0,-1,1854,1814,0,0
637,-790,0,0,0,0,0,0,0,0,0,-1,1861,1814,0,0
644,-790,0,0,0,0,0,0,0,0,0,-1,1868,1814,0,0
651,-790,0,0,0,0,0,0,0,0,0,-1,1875,1814,0,0
658,-790,0,0,0,0,0,0,0,0,0,-1,1882,1814,0,0
665,-790,0,0,0,0,0,0,0,0,0,-1,1889,1814,0,0
672,-790,0,0,0,0,0,0,0,0,0,-1,1896,1814,0,0
679,-790,0,0,0,0,0,0,0,0,0,-1,1903,1814,0,0
686,-790,0,0,0,0,0,0,0,0,0,-1,1910,1814,0,0
693,-790,0,0,0,0,0,0,0,0,0,-1,1917,1814,0,0
700,-790,0,0,0,0,0,0,0,0,0,-1,1924,1814,0,0
707,-790,0,0,0,0,0,0,0,0,0,-1,1931,1814,0,0
714,-790,0,0,0,0,0,0,0,0,0,-1,1938,1814,0,0
721,-790,0,0,0,0,0,0,0,0,0,-1,1945,1814,0,0
728,-790,0,0,0,0,0,0,0,0,0,-1,1952,1814,0,0
735,-790,0,0,0,0,0,0,0,0,0,-1,1959,1814,0,0
742,-790,0,0,0,0,0,0,0,0,0,-1,1966,1814,0,0
749,-790,0,0,0,0,0,0,0,0,0,-1,1973,1814,0,0
756,-790,0,0,0,0,0,0,0,0,0,-1,1980,1814,0,0
763,-790,0,0,0,0,0,0,0,0,0,-1,1987,1814,0,0
770,-790,0,0,0,0,0,0,0,0,0,-1,1994,1814,0,0
777,-790,0,0,0,0,0,0,0,0,0,-1,2001,1814,0,0
784,-790,0,0,0,0,0,0,0,0,0,-1,2008,1814,0,0
791,-790,0,0,0,0,0,0,0,0,0,-1,2015,1814,0,0
798,-790,0,0,0,0,0,0,0,0,0,-1,2022,1814,0,0
805,-790,0,0,0,0,0,0,0,0,0,-1,2029,1814,0,0
812,-790,0,0,0,0,0,0,0,0,0,-1,2036,1814,0,0
-700,-797,0,0,0,0,0,0,0,0,0,-1,524,1821,0,0
-693,-797,0,0,0,0,0,0,0,0,0,-1,531,1821,0,0
-686,-797,0,0,0,0,0,0,0,0,0,-1,538,1821,0,0
-679,-797,0,0,0,0,0,0,0,0,0,-1,545,1821,0,0
-672,-797,0,0,0,0,0,0,0,0,0,-1,552,1821,0,0
-665,-797,0,0,0,0,0,0,0,0,0,-1,559,1821,0,0
-658,-797,0,0,0,0,0,0,0,0,0,-1,566,1821,0,0
-651,-797,0,0,0,0,0,0,0,0,0,-1,573,1821,0,0
-644,-797,0,0,0,0,0,0,0,0,0,-1,580,1821,0,0
-637,-797,0,0,0,0,0,0,0,0,0,-1,587,1821,0,0
-630,-797,0,0,0,0,0,0,0,0,0,-1,594,1821,0,0
-623,-797,0,0,0,0,0,0,0,0,0,-1,601,1821,0,0
-616,-797,0,0,0,0,0,0,0,0,0,-1,608,1821,0,0
-609,-797,0,0,0,0,0,0,0,0,0,-1,615,1821,0,0
-602,-797,0,0,0,0,0,0,0,0,0,-1,622,1821,0,0
-595,-797,0,0,0,0,0,0,0,0,0,-1,629,1821,0,0
-588,-797,0,0,0,0,0,0,0,0,0,-1,636,1821,0,0
-581,-797,0,0,0,0,0,0,0,0,0,-1,643,1821,0,0
-574,-797,0,0,0,0,0,0,0,0,0,-1,650,1821,0,0
-567,-797,0,0,0,0,0,0,0,0,0,-1,657,1821,0,0
-560,-797,0,0,0,0,0,0,0,0,0,-1,664,1821,0,0
-553,-797,0,0,0,0,0,0,0,0,0,-1,671,1821,0,0
-546,-797,0,0,0,0,0,0,0,0,0,-1,678,1821,0,0
-539,-797,0,0,0,0,0,0,0,0,0,-1,685,1821,0,0
-532,-797,0,0,0,0,0,0,0,0,0,-1,692,1821,0,0
-525,-797,0,0,0,0,0,0,0,0,0,-1,699,1821,0,0
-518,-797,0,0,0,0,0,0,0,0,0,-1,706,1821,0,0
-511,-797,0,0,0,0,0,0,0,0,0,-1,713,1821,0,0
-504,-797,0,0,0,0,0,0,0,0,0,-1,720,1821,0,0
-497,-797,0,0,0,0,0,0,0,0,0,-1,727,1821,0,0
-490,-797,0,0,0,0,0,0,0,0,0,-1,734,1821,0,0
-483,-797,0,0,0,0,0,0,0,0,0,-1,741,1821,0,0
-476,-797,0,0,0,0,0,0,0,0,0,-1,748,1821,0,0
-469,-797,0,0,0,0,0,0,0,0,0,-1,755,1821,0,0
-462,-797,0,0,0,0,0,0,0,0,0,-1,762,1821,0,0
-455,-797,0,0,0,0,0,0,0,0,0,-1,769,1821,0,0
-448,-797,0,0,0,0,0,0,0,0,0,-1,776,1821,0,0
-441,-797,0,0,0,0,0,0,0,0,0,-1,783,1821,0,0
-434,-797,0,0,0,0,0,0,0,0,0,-1,790,1821,0,0
-427,-797,0,0,0,0,0,0,0,0,0,-1,797,1821,0,0
-420,-797,0,0,0,0,0,0,0,0,0,-1,804,1821,0,0
-413,-797,0,0,0,0,0,0,0,0,0,-1,811,1821,0,0
-406,-797,0,0,0,0,0,0,0,0,0,-1,818,1821,0,0
-399,-797,0,0,0,0,0,0,0,0,0,-1,825,1821,0,0
-392,-797,0,0,0,0,0,0,0,0,0,-1,832,1821,0,0
-385,-797,0,0,0,0,0,0,0,0,0,-1,839,1821,0,0
-378,-797,0,0,0,0,0,0,0,0,0,-1,846,1821,0,0
-371,-797,0,0,0,0,0,0,0,0,0,-1,853,1821,0,0
-364,-797,0,0,0,0,0,0,0,0,0,-1,860,1821,0,0
-357,-797,0,0,0,0,0,0,0,0,0,-1,867,1821,0,0
-350,-797,0,0,0,0,0,0,0,0,0,-1,874,1821,0,0
-343,-797,0,0,0,0,0,0,0,0,0,-1,881,1821,0,0
-336,-797,0,0,0,0,0,0,0,0,0,-1,888,1821,0,0
-329,-797,0,0,0,0,0,0,0,0,0,-1,895,1821,0,0
-322,-797,0,0,0,0,0,0,0,0,0,-1,902,1821,0,0
-315,-797,0,0,0,0,0,0,0,0,0,-1,909,1821,0,0
-308,-797,0,0,0,0,0,0,0,0,0,-1,916,1821,0,0
-301,-797,0,0,0,0,0,0,0,0,0,-1,923,1821,0,0
-294,-797,0,0,0,0,0,0,0,0,0,-1,930,1821,0,0
-287,-797,0,0,0,0,0,0,0,0,0,-1,937,1821,0,0
-280,-797,0,0,0,0,0,0,0,0,0,-1,944,1821,0,0
-273,-797,0,0,0,0,0,0,0,0,0,-1,951,1821,0,0
-266,-797,0,0,0,0,0,0,0,0,0,-1,958,1821,0,0
-259,-797,0,0,0,0,0,0,0,0,0,-1,965,1821,0,0
-252,-797,0,0,0,0,0,0,0,0,0,-1,972,1821,0,0
-245,-797,0,0,0,0,0,0,0,0,0,-1,979,1821,0,0
-238,-797,0,0,0,0,0,0,0,0,0,-1,986,1821,0,0
-231,-797,0,0,0,0,0,0,0,0,0,-1,993,1821,0,0
-224,-797,0,0,0,0,0,0,0,0,0,-1,1000,1821,0,0
-217,-797,0,0,0,0,0,0,0,0,0,-1,1007,1821,0,0
-210,-797,0,0,0,0,0,0,0,0,0,-1,1014,1821,0,0
-203,-797,0,0,0,0,0,0,0,0,0,-1,1021,1821,0,0
-196,-797,0,0,0,0,0,0,0,0,0,-1,1028,1821,0,0
-189,-797,0,0,0,0,0,0,0,0,0,-1,1035,1821,0,0
-182,-797,0,0,0,0,0,0,0,0,0,-1,1042,1821,0,0
-175,-797,0,0,0,0,0,0,0,0,0,-1,1049,1821,0,0
-168,-797,0,0,0,0,0,0,0,0,0,-1,1056,1821,0,0
-161,-797,0,0,0,0,0,0,0,0,0,-1,1063,1821,0,0
-154,-797,0,0,0,0,0,0,0,0,0,-1,1070,1821,0,0
-147,-797,0,0,0,0,0,0,0,0,0,-1,1077,1821,0,0
-140,-797,0,0,0,0,0,0,0,0,0,-1,1084,1821,0,0
-133,-797,0,0,0,0,0,0,0,0,0,-1,1091,1821,0,0
-126,-797,0,0,0,0,0,0,0,0,0,-1,1098,1821,0,0
-119,-797,0,0,0,0,0,0,0,0,0,-1,1105,1821,0,0
-112,-797,0,0,0,0,0,0,0,0,0,-1,1112,1821,0,0
-105,-797,0,0,0,0,0,0,0,0,0,-1,1119,1821,0,0
-98,-797,0,0,0,0,0,0,0,0,0,-1,1126,1821,0,0
-91,-797,0,0,0,0,0,0,0,0,0,-1,1133,1821,0,0
-84,-797,0,0,0,0,0,0,0,0,0,-1,1140,1821,0,0
-77,-797,0,0,0,0,0,0,0,0,0,-1,1147,1821,0,0
-70,-797,0,0,0,0,0,0,0,0,0,-1,1154,1821,0,0
-63,-797,0,0,0,0,0,0,0,0,0,-1,1161,1821,0,0
-56,-797,0,0,0,0,0,0,0,0,0,-1,1168,1821,0,0
-49,-797,0,0,0,0,0,0,0,0,0,-1,1175,1821,0,0
-42,-797,0.579834,0.692871,0,0,0,0,0,0,0,-1,1182,1821,0.579856,-0.692816
-35,-797,-0.185425,5.55396,0,0,0,0,0,0,0,-1,1189,1821,-0.18542,-5.55396
-28,-797,-0.310181,4.71509,0,0,0,0,0,0,0,-1,1196,1821,-0.310228,-4.71503
-21,-797,6.92566,49.1686,0,0,0,0,0,0,0,-1,1203,1821,6.92565,-49.1686
-14,-797,6.80005,49.2917,-0.0850231,-0.01213,0.0897724,0.0483123,-0.145465,0.978227,0.11647,0.0448162,1210,1821,6.80009,-49.2917
-7,-797,6.41223,49.455,-0.0643669,-0.00364663,0.0946439,0.0653874,-0.133401,0.940605,0.116988,0.047774,1217,1821,6.41219,-49.4549
0,-797,4.38586,49.7153,0,0,0,0,0,0,0,-1,1224,1821,4.38589,-49.7153
7,-797,4.30676,50.1638,-0.0328601,0.0641209,0.0869872,0.11522,-0.0839593,1.03967,0.115467,0.0483233,1231,1821,4.30671,-50.1639
14,-797,4.72046,50.7594,-0.0241153,0.102833,0.0787127,0.140476,-0.0617581,1.12472,0.119672,0.0465526,1238,1821,4.72049,-50.7595
21,-797,4.49719,50.5659,0,0,0,0,0,0,0,-1,1245,1821,4.49724,-50.566
28,-797,4.00684,50.1458,0,0,0,0,0,0,0,-1,1252,1821,4.00688,-50.1458
35,-797,3.55676,49.9406,0,0,0,0,0,0,0,-1,1259,1821,3.55675,-49.9406
42,-797,12.8042,43.3037,-0.0142749,0.219277,0.0203329,0.221034,-0.0160319,1.4846,0.15298,0.0489836,1266,1821,12.8042,-43.3038
49,-797,12.1862,44.2822,-0.012534,0.235703,0.0063545,0.235866,-0.0126966,1.54522,0.161642,0.0475068,1273,1821,12.1861,-44.2822
56,-797,11.6603,45.3376,-0.0122239,0.249971,-0.00819404,0.250227,-0.0124797,-1.53959,0.171129,0.0464702,1280,1821,11.6603,-45.3376
63,-797,11.2218,46.1787,-0.0151152,0.25652,-0.0226431,0.258395,-0.0169897,-1.4882,0.178197,0.0449356,1287,1821,11.2218,-46.1787
70,-797,10.0629,47.5811,0,0,0,0,0,0,0,-1,1294,1821,10.0629,-47.581
77,-797,9.81653,47.1504,-0.0142154,0.244935,-0.0419366,0.251552,-0.0208328,-1.41429,0.17506,0.0444979,1301,1821,9.81651,-47.1504
84,-797,9.57031,46.5308,-0.00891125,0.229954,-0.0495952,0.239842,-0.0187993,-1.374,0.166515,0.0464338,1308,1821,9.57035,-46.5308
91,-797,10.0988,45.978,-0.00232662,0.208936,-0.0574223,0.223535,-0.0169255,-1.32183,0.154973,0.0461492,1315,1821,10.0987,-45.978
98,-797,9.75134,46.0792,0.00964213,0.189316,-0.0621294,0.208707,-0.00974882,-1.26827,0.142499,0.0432015,1322,1821,9.75134,-46.0792
105,-797,9.55164,46.0133,0.0222873,0.157206,-0.0662768,0.184316,-0.00482281,-1.18252,0.124516,0.0478641,1329,1821,9.55168,-46.0133
112,-797,9.39233,45.9618,0,0,0,0,0,0,0,-1,1336,1821,9.3923,-45.9618
119,-797,7.67102,51.474,0,0,0,0,0,0,0,-1,1343,1821,7.671,-51.474
126,-797,8.85168,50.522,0.0616062,0.0817641,-0.0872105,0.159476,-0.0161057,-0.842928,0.112072,0.0469467,1350,1821,8.85168,-50.5219
133,-797,8.78015,49.7061,0.0741895,0.0483271,-0.0938779,0.156023,-0.033506,-0.716956,0.116797,0.0487021,1357,1821,8.78016,-49.706
140,-797,8.93152,48.4375,0.0842992,0.00997747,-0.102038,0.155733,-0.0614562,-0.61077,0.129272,0.0482571,1364,1821,8.93147,-48.4375
147,-797,9.36804,47.281,0,0,0,0,0,0,0,-1,1371,1821,9.36803,-47.281
154,-797,40.2623,8.88733,0,0,0,0,0,0,0,-1,1378,1821,40.2623,-8.88731
161,-797,42.2798,8.17371,0,0,0,0,0,0,0,-1,1385,1821,42.2798,-8.17367
168,-797,0,0,0,0,0,0,0,0,0,-1,1392,1821,0,0
175,-797,0,0,0,0,0,0,0,0,0,-1,1399,1821,0,0
182,-797,0,0,0,0,0,0,0,0,0,-1,1406,1821,0,0
189,-797,0,0,0,0,0,0,0,0,0,-1,1413,1821,0,0
196,-797,0,0,0,0,0,0,0,0,0,-1,1420,1821,0,0
203,-797,0,0,0,0,0,0,0,0,0,-1,1427,1821,0,0
210,-797,0,0,0,0,0,0,0,0,0,-1,1434,1821,0,0
217,-797,0,0,0,0,0,0,0,0,0,-1,1441,1821,0,0
224,-797,0,0,0,0,0,0,0,0,0,-1,1448,1821,0,0
231,-797,0,0,0,0,0,0,0,0,0,-1,1455,1821,0,0
238,-797,0,0,0,0,0,0,0,0,0,-1,1462,1821,0,0
245,-797,0,0,0,0,0,0,0,0,0,-1,1469,1821,0,0
252,-797,0,0,0,0,0,0,0,0,0,-1,1476,1821,0,0
259,-797,0,0,0,0,0,0,0,0,0,-1,1483,1821,0,0
266,-797,0,0,0,0,0,0,0,0,0,-1,1490,1821,0,0
273,-797,0,0,0,0,0,0,0,0,0,-1,1497,1821,0,0
280,-797,0,0,0,0,0,0,0,0,0,-1,1504,1821,0,0
287,-797,0,0,0,0,0,0,0,0,0,-1,1511,1821,0,0
294,-797,0,0,0,0,0,0,0,0,0,-1,1518,1821,0,0
301,-797,0,0,0,0,0,0,0,0,0,-1,1525,1821,0,0
308,-797,0,0,0,0,0,0,0,0,0,-1,1532,1821,0,0
315,-797,0,0,0,0,0,0,0,0,0,-1,1539,1821,0,0
322,-797,0,0,0,0,0,0,0,0,0,-1,1546,1821,0,0
329,-797,0,0,0,0,0,0,0,0,0,-1,1553,1821,0,0
336,-797,0,0,0,0,0,0,0,0,0,-1,1560,1821,0,0
343,-797,0,0,0,0,0,0,0,0,0,-1,1567,1821,0,0
350,-797,0,0,0,0,0,0,0,0,0,-1,1574,1821,0,0
357,-797,0,0,0,0,0,0,0,0,0,-1,1581,1821,0,0
364,-797,0,0,0,0,0,0,0,0,0,-1,1588,1821,0,0
371,-797,0,0,0,0,0,0,0,0,0,-1,1595,1821,0,0
378,-797,0,0,0,0,0,0,0,0,0,-1,1602,1821,0,0
385,-797,0,0,0,0,0,0,0,0,0,-1,1609,1821,0,0
392,-797,0,0,0,0,0,0,0,0,0,-1,1616,1821,0,0
399,-797,0,0,0,0,0,0,0,0,0,-1,1623,1821,0,0
406,-797,0,0,0,0,0,0,0,0,0,-1,1630,1821,0,0
413,-797,0,0,0,0,0,0,0,0,0,-1,1637,1821,0,0
420,-797,0,0,0,0,0,0,0,0,0,-1,1644,1821,0,0
427,-797,0,0,0,0,0,0,0,0,0,-1,1651,1821,0,0
434,-797,0,0,0,0,0,0,0,0,0,-1,1658,1821,0,0
441,-797,0,0,0,0,0,0,0,0,0,-1,1665,1821,0,0
448,-797,0,0,0,0,0,0,0,0,0,-1,1672,1821,0,0
455,-797,0,0,0,0,0,0,0,0,0,-1,1679,1821,0,0
462,-797,0,0,0,0,0,0,0,0,0,-1,1686,1821,0,0
469,-797,0,0,0,0,0,0,0,0,0,-1,1693,1821,0,0
476,-797,0,0,0,0,0,0,0,0,0,-1,1700,1821,0,0
483,-797,0,0,0,0,0,0,0,0,0,-1,1707,1821,0,0
490,-797,0,0,0,0,0,0,0,0,0,-1,1714,1821,0,0
497,-797,0,0,0,0,0,0,0,0,0,-1,1721,1821,0,0
504,-797,0,0,0,0,0,0,0,0,0,-1,1728,1821,0,0
511,-797,0,0,0,0,0,0,0,0,0,-1,1735,1821,0,0
518,-797,0,0,0,0,0,0,0,0,0,-1,1742,1821,0,0
525,-797,0,0,0,0,0,0,0,0,0,-1,1749,1821,0,0
532,-797,0,0,0,0,0,0,0,0,0,-1,1756,1821,0,0
539,-797,0,0,0,0,0,0,0,0,0,-1,1763,1821,0,0
546,-797,0,0,0,0,0,0,0,0,0,-1,1770,1821,0,0
553,-797,0,0,0,0,0,0,0,0,0,-1,1777,1821,0,0
560,-797,0,0,0,0,0,0,0,0,0,-1,1784,1821,0,0
567,-797,0,0,0,0,0,0,0,0,0,-1,1791,1821,0,0
574,-797,0,0,0,0,0,0,0,0,0,-1,1798,1821,0,0
581,-797,0,0,0,0,0,0,0,0,0,-1,1805,1821,0,0
588,-797,0,0,0,0,0,0,0,0,0,-1,1812,1821,0,0
595,-797,0,0,0,0,0,0,0,0,0,-1,1819,1821,0,0
602,-797,0,0,0,0,0,0,0,0,0,-1,1826,1821,0,0
609,-797,0,0,0,0,0,0,0,0,0,-1,1833,1821,0,0
616,-797,0,0,0,0,0,0,0,0,0,-1,1840,1821,0,0
623,-797,0,0,0,0,0,0,0,0,0,-1,1847,1821,0,0
630,-797,0,0,0,0,0,0,0,0,0,-1,1854,1821,0,0
637,-797,0,0,0,0,0,0,0,0,0,-1,1861,1821,0,0
644,-797,0,0,0,0,0,0,0,0,0,-1,1868,1821,0,0
651,-797,0,0,0,0,0,0,0,0,0,-1,1875,1821,0,0
658,-797,0,0,0,0,0,0,0,0,0,-1,1882,1821,0,0
665,-797,0,0,0,0,0,0,0,0,0,-1,1889,1821,0,0
672,-797,0,0,0,0,0,0,0,0,0,-1,1896,1821,0,0
679,-797,0,0,0,0,0,0,0,0,0,-1,1903,1821,0,0
686,-797,0,0,0,0,0,0,0,0,0,-1,1910,1821,0,0
693,-797,0,0,0,0,0,0,0,0,0,-1,1917,1821,0,0
700,-797,0,0,0,0,0,0,0,0,0,-1,1924,1821,0,0
707,-797,0,0,0,0,0,0,0,0,0,-1,1931,1821,0,0
714,-797,0,0,0,0,0,0,0,0,0,-1,1938,1821,0,0
721,-797,0,0,0,0,0,0,0,0,0,-1,1945,1821,0,0
728,-797,0,0,0,0,0,0,0,0,0,-1,1952,1821,0,0
735,-797,0,0,0,0,0,0,0,0,0,-1,1959,1821,0,0
742,-797,0,0,0,0,0,0,0,0,0,-1,1966,1821,0,0
749,-797,0,0,0,0,0,0,0,0,0,-1,1973,1821,0,0
756,-797,0,0,0,0,0,0,0,0,0,-1,1980,1821,0,0
763,-797,0,0,0,0,0,0,0,0,0,-1,1987,1821,0,0
770,-797,0,0,0,0,0,0,0,0,0,-1,1994,1821,0,0
777,-797,0,0,0,0,0,0,0,0,0,-1,2001,1821,0,0
784,-797,0,0,0,0,0,0,0,0,0,-1,2008,1821,0,0
791,-797,0,0,0,0,0,0,0,0,0,-1,2015,1821,0,0
798,-797,0,0,0,0,0,0,0,0,0,-1,2022,1821,0,0
805,-797,0,0,0,0,0,0,0,0,0,-1,2029,1821,0,0
812,-797,0,0,0,0,0,0,0,0,0,-1,2036,1821,0,0
-700,-804,0,0,0,0,0,0,0,0,0,-1,524,1828,0,0
-693,-804,0,0,0,0,0,0,0,0,0,-1,531,1828,0,0
-686,-804,0,0,0,0,0,0,0,0,0,-1,538,1828,0,0
-679,-804,0,0,0,0,0,0,0,0,0,-1,545,1828,0,0
-672,-804,0,0,0,0,0,0,0,0,0,-1,552,1828,0,0
-665,-804,0,0,0,0,0,0,0,0,0,-1,559,1828,0,0
-658,-804,0,0,0,0,0,0,0,0,0,-1,566,1828,0,0
-651,-804,0,0,0,0,0,0,0,0,0,-1,573,1828,0,0
-644,-804,0,0,0,0,0,0,0,0,0,-1,580,1828,0,0
-637,-804,0,0,0,0,0,0,0,0,0,-1,587,1828,0,0
-630,-804,0,0,0,0,0,0,0,0,0,-1,594,1828,0,0
-623,-804,0,0,0,0,0,0,0,0,0,-1,601,1828,0,0
-616,-804,0,0,0,0,0,0,0,0,0,-1,608,1828,0,0
-609,-804,0,0,0,0,0,0,0,0,0,-1,615,1828,0,0
-602,-804,0,0,0,0,0,0,0,0,0,-1,622,1828,0,0
-595,-804,0,0,0,0,0,0,0,0,0,-1,629,1828,0,0
-588,-804,0,0,0,0,0,0,0,0,0,-1,636,1828,0,0
-581,-804,0,0,0,0,0,0,0,0,0,-1,643,1828,0,0
-574,-804,0,0,0,0,0,0,0,0,0,-1,650,1828,0,0
-567,-804,0,0,0,0,0,0,0,0,0,-1,657,1828,0,0
-560,-804,0,0,0,0,0,0,0,0,0,-1,664,1828,0,0
-553,-804,0,0,0,0,0,0,0,0,0,-1,671,1828,0,0
-546,-804,0,0,0,0,0,0,0,0,0,-1,678,1828,0,0
-539,-804,0,0,0,0,0,0,0,0,0,-1,685,1828,0,0
-532,-804,0,0,0,0,0,0,0,0,0,-1,692,1828,0,0
-525,-804,0,0,0,0,0,0,0,0,0,-1,699,1828,0,0
-518,-804,0,0,0,0,0,0,0,0,0,-1,706,1828,0,0
-511,-804,0,0,0,0,0,0,0,0,0,-1,713,1828,0,0
-504,-804,0,0,0,0,0,0,0,0,0,-1,720,1828,0,0
-497,-804,0,0,0,0,0,0,0,0,0,-1,727,1828,0,0
-490,-804,0,0,0,0,0,0,0,0,0,-1,734,1828,0,0
-483,-804,0,0,0,0,0,0,0,0,0,-1,741,1828,0,0
-476,-804,0,0,0,0,0,0,0,0,0,-1,748,1828,0,0
-469,-804,0,0,0,0,0,0,0,0,0,-1,755,1828,0,0
-462,-804,0,0,0,0,0,0,0,0,0,-1,762,1828,0,0
-455,-804,0,0,0,0,0,0,0,0,0,-1,769,1828,0,0
-448,-804,0,0,0,0,0,0,0,0,0,-1,776,1828,0,0
-441,-804,0,0,0,0,0,0,0,0,0,-1,783,1828,0,0
-434,-804,0,0,0,0,0,0,0,0,0,-1,790,1828,0,0
-427,-804,0,0,0,0,0,0,0,0,0,-1,797,1828,0,0
-420,-804,0,0,0,0,0,0,0,0,0,-1,804,1828,0,0
-413,-804,0,0,0,0,0,0,0,0,0,-1,811,1828,0,0
-406,-804,0,0,0,0,0,0,0,0,0,-1,818,1828,0,0
-399,-804,0,0,0,0,0,0,0,0,0,-1,825,1828,0,0
-392,-804,0,0,0,0,0,0,0,0,0,-1,832,1828,0,0
-385,-804,0,0,0,0,0,0,0,0,0,-1,839,1828,0,0
-378,-804,0,0,0,0,0,0,0,0,0,-1,846,1828,0,0
-371,-804,0,0,0,0,0,0,0,0,0,-1,853,1828,0,0
-364,-804,0,0,0,0,0,0,0,0,0,-1,860,1828,0,0
-357,-804,0,0,0,0,0,0,0,0,0,-1,867,1828,0,0
-350,-804,0,0,0,0,0,0,0,0,0,-1,874,1828,0,0
-343,-804,0,0,0,0,0,0,0,0,0,-1,881,1828,0,0
-336,-804,0,0,0,0,0,0,0,0,0,-1,888,1828,0,0
-329,-804,0,0,0,0,0,0,0,0,0,-1,895,1828,0,0
-322,-804,0,0,0,0,0,0,0,0,0,-1,902,1828,0,0
-315,-804,0,0,0,0,0,0,0,0,0,-1,909,1828,0,0
-308,-804,0,0,0,0,0,0,0,0,0,-1,916,1828,0,0
-301,-804,0,0,0,0,0,0,0,0,0,-1,923,1828,0,0
-294,-804,0,0,0,0,0,0,0,0,0,-1,930,1828,0,0
-287,-804,0,0,0,0,0,0,0,0,0,-1,937,1828,0,0
-280,-804,0,0,0,0,0,0,0,0,0,-1,944,1828,0,0
-273,-804,0,0,0,0,0,0,0,0,0,-1,951,1828,0,0
-266,-804,0,0,0,0,0,0,0,0,0,-1,958,1828,0,0
-259,-804,0,0,0,0,0,0,0,0,0,-1,965,1828,0,0
-252,-804,0,0,0,0,0,0,0,0,0,-1,972,1828,0,0
-245,-804,0,0,0,0,0,0,0,0,0,-1,979,1828,0,0
-238,-804,0,0,0,0,0,0,0,0,0,-1,986,1828,0,0
-231,-804,0,0,0,0,0,0,0,0,0,-1,993,1828,0,0
-224,-804,0,0,0,0,0,0,0,0,0,-1,1000,1828,0,0
-217,-804,0,0,0,0,0,0,0,0,0,-1,1007,1828,0,0
-210,-804,0,0,0,0,0,0,0,0,0,-1,1014,1828,0,0
-203,-804,0,0,0,0,0,0,0,0,0,-1,1021,1828,0,0
-196,-804,0,0,0,0,0,0,0,0,0,-1,1028,1828,0,0
-189,-804,0,0,0,0,0,0,0,0,0,-1,1035,1828,0,0
-182,-804,0,0,0,0,0,0,0,0,0,-1,1042,1828,0,0
-175,-804,0,0,0,0,0,0,0,0,0,-1,1049,1828,0,0
-168,-804,0,0,0,0,0,0,0,0,0,-1,1056,1828,0,0
-161,-804,0,0,0,0,0,0,0,0,0,-1,1063,1828,0,0
-154,-804,0,0,0,0,0,0,0,0,0,-1,1070,1828,0,0
-147,-804,0,0,0,0,0,0,0,0,0,-1,1077,1828,0,0
-140,-804,0,0,0,0,0,0,0,0,0,-1,1084,1828,0,0
-133,-804,0,0,0,0,0,0,0,0,0,-1,1091,1828,0,0
-126,-804,0,0,0,0,0,0,0,0,0,-1,1098,1828,0,0
-119,-804,0,0,0,0,0,0,0,0,0,-1,1105,1828,0,0
-112,-804,0,0,0,0,0,0,0,0,0,-1,1112,1828,0,0
-105,-804,0,0,0,0,0,0,0,0,0,-1,1119,1828,0,0
-98,-804,0,0,0,0,0,0,0,0,0,-1,1126,1828,0,0
-91,-804,0,0,0,0,0,0,0,0,0,-1,1133,1828,0,0
-84,-804,0,0,0,0,0,0,0,0,0,-1,1140,1828,0,0
-77,-804,0,0,0,0,0,0,0,0,0,-1,1147,1828,0,0
-70,-804,0,0,0,0,0,0,0,0,0,-1,1154,1828,0,0
-63,-804,0,0,0,0,0,0,0,0,0,-1,1161,1828,0,0
-56,-804,0,0,0,0,0,0,0,0,0,-1,1168,1828,0,0
-49,-804,0,0,0,0,0,0,0,0,0,-1,1175,1828,0,0
-42,-804,0,0,0,0,0,0,0,0,0,-1,1182,1828,0,0
-35,-804,0,0,0,0,0,0,0,0,0,-1,1189,1828,0,0
-28,-804,0,0,0,0,0,0,0,0,0,-1,1196,1828,0,0
-21,-804,0,0,0,0,0,0,0,0,0,-1,1203,1828,0,0
-14,-804,0,0,0,0,0,0,0,0,0,-1,1210,1828,0,0
-7,-804,0,0,0,0,0,0,0,0,0,-1,1217,1828,0,0
0,-804,0,0,0,0,0,0,0,0,0,-1,1224,1828,0,0
7,-804,0,0,0,0,0,0,0,0,0,-1,1231,1828,0,0
14,-804,0,0,0,0,0,0,0,0,0,-1,1238,1828,0,0
21,-804,0,0,0,0,0,0,0,0,0,-1,1245,1828,0,0
28,-804,0,0,0,0,0,0,0,0,0,-1,1252,1828,0,0
35,-804,14.2014,40.9214,0,0,0,0,0,0,0,-1,1259,1828,14.2015,-40.9214
42,-804,13.3617,42.0396,0,0,0,0,0,0,0,-1,1266,1828,13.3617,-42.0396
49,-804,12.5964,43.1647,0,0,0,0,0,0,0,-1,1273,1828,12.5964,-43.1647
56,-804,12.001,43.9595,-0.0250254,0.307087,-0.0105191,0.30742,-0.0253583,-1.53917,0.213901,0.0452349,1280,1828,12.001,-43.9595
63,-804,11.5062,44.7069,-0.0284812,0.313411,-0.0283022,0.315738,-0.0308083,-1.48876,0.221477,0.0446741,1287,1828,11.5062,-44.7069
70,-804,10.9426,45.3259,0,0,0,0,0,0,0,-1,1294,1828,10.9427,-45.3259
77,-804,10.302,46.1699,-0.0269345,0.295344,-0.0525118,0.303684,-0.0352749,-1.41328,0.215181,0.0442282,1301,1828,10.3021,-46.1699
84,-804,9.62402,45.4376,-0.0202175,0.275665,-0.061837,0.288068,-0.032621,-1.37284,0.203791,0.0449958,1308,1828,9.62405,-45.4377
91,-804,0,0,0,0,0,0,0,0,0,-1,1315,1828,0,0
98,-804,0,0,0,0,0,0,0,0,0,-1,1322,1828,0,0
105,-804,0,0,0,0,0,0,0,0,0,-1,1329,1828,0,0
112,-804,0,0,0,0,0,0,0,0,0,-1,1336,1828,0,0
119,-804,0,0,0,0,0,0,0,0,0,-1,1343,1828,0,0
126,-804,0,0,0,0,0,0,0,0,0,-1,1350,1828,0,0
133,-804,0,0,0,0,0,0,0,0,0,-1,1357,1828,0,0
140,-804,0,0,0,0,0,0,0,0,0,-1,1364,1828,0,0
147,-804,0,0,0,0,0,0,0,0,0,-1,1371,1828,0,0
154,-804,0,0,0,0,0,0,0,0,0,-1,1378,1828,0,0
161,-804,0,0,0,0,0,0,0,0,0,-1,1385,1828,0,0
168,-804,0,0,0,0,0,0,0,0,0,-1,1392,1828,0,0
175,-804,0,0,0,0,0,0,0,0,0,-1,1399,1828,0,0
182,-804,0,0,0,0,0,0,0,0,0,-1,1406,1828,0,0
189,-804,0,0,0,0,0,0,0,0,0,-1,1413,1828,0,0
196,-804,0,0,0,0,0,0,0,0,0,-1,1420,1828,0,0
203,-804,0,0,0,0,0,0,0,0,0,-1,1427,1828,0,0
210,-804,0,0,0,0,0,0,0,0,0,-1,1434,1828,0,0
217,-804,0,0,0,0,0,0,0,0,0,-1,1441,1828,0,0
224,-804,0,0,0,0,0,0,0,0,0,-1,1448,1828,0,0
231,-804,0,0,0,0,0,0,0,0,0,-1,1455,1828,0,0
238,-804,0,0,0,0,0,0,0,0,0,-1,1462,1828,0,0
245,-804,0,0,0,0,0,0,0,0,0,-1,1469,1828,0,0
252,-804,0,0,0,0,0,0,0,0,0,-1,1476,1828,0,0
259,-804,0,0,0,0,0,0,0,0,0,-1,1483,1828,0,0
266,-804,0,0,0,0,0,0,0,0,0,-1,1490,1828,0,0
273,-804,0,0,0,0,0,0,0,0,0,-1,1497,1828,0,0
280,-804,0,0,0,0,0,0,0,0,0,-1,1504,1828,0,0
287,-804,0,0,0,0,0,0,0,0,0,-1,1511,1828,0,0
294,-804,0,0,0,0,0,0,0,0,0,-1,1518,1828,0,0
301,-804,0,0,0,0,0,0,0,0,0,-1,1525,1828,0,0
308,-804,0,0,0,0,0,0,0,0,0,-1,1532,1828,0,0
315,-804,0,0,0,0,0,0,0,0,0,-1,1539,1828,0,0
322,-804,0,0,0,0,0,0,0,0,0,-1,1546,1828,0,0
329,-804,0,0,0,0,0,0,0,0,0,-1,1553,1828,0,0
336,-804,0,0,0,0,0,0,0,0,0,-1,1560,1828,0,0
343,-804,0,0,0,0,0,0,0,0,0,-1,1567,1828,0,0
350,-804,0,0,0,0,0,0,0,0,0,-1,1574,1828,0,0
357,-804,0,0,0,0,0,0,0,0,0,-1,1581,1828,0,0
364,-804,0,0,0,0,0,0,0,0,0,-1,1588,1828,0,0
371,-804,0,0,0,0,0,0,0,0,0,-1,1595,1828,0,0
378,-804,0,0,0,0,0,0,0,0,0,-1,1602,1828,0,0
385,-804,0,0,0,0,0,0,0,0,0,-1,1609,1828,0,0
392,-804,0,0,0,0,0,0,0,0,0,-1,1616,1828,0,0
399,-804,0,0,0,0,0,0,0,0,0,-1,1623,1828,0,0
406,-804,0,0,0,0,0,0,0,0,0,-1,1630,1828,0,0
413,-804,0,0,0,0,0,0,0,0,0,-1,1637,1828,0,0
420,-804,0,0,0,0,0,0,0,0,0,-1,1644,1828,0,0
427,-804,0,0,0,0,0,0,0,0,0,-1,1651,1828,0,0
434,-804,0,0,0,0,0,0,0,0,0,-1,1658,1828,0,0
441,-804,0,0,0,0,0,0,0,0,0,-1,1665,1828,0,0
448,-804,0,0,0,0,0,0,0,0,0,-1,1672,1828,0,0
455,-804,0,0,0,0,0,0,0,0,0,-1,1679,1828,0,0
462,-804,0,0,0,0,0,0,0,0,0,-1,1686,1828,0,0
469,-804,0,0,0,0,0,0,0,0,0,-1,1693,1828,0,0
476,-804,0,0,0,0,0,0,0,0,0,-1,1700,1828,0,0
483,-804,0,0,0,0,0,0,0,0,0,-1,1707,1828,0,0
490,-804,0,0,0,0,0,0,0,0,0,-1,1714,1828,0,0
497,-804,0,0,0,0,0,0,0,0,0,-1,1721,1828,0,0
504,-804,0,0,0,0,0,0,0,0,0,-1,1728,1828,0,0
511,-804,0,0,0,0,0,0,0,0,0,-1,1735,1828,0,0
518,-804,0,0,0,0,0,0,0,0,0,-1,1742,1828,0,0
525,-804,0,0,0,0,0,0,0,0,0,-1,1749,1828,0,0
532,-804,0,0,0,0,0,0,0,0,0,-1,1756,1828,0,0
539,-804,0,0,0,0,0,0,0,0,0,-1,1763,1828,0,0
546,-804,0,0,0,0,0,0,0,0,0,-1,1770,1828,0,0
553,-804,0,0,0,0,0,0,0,0,0,-1,1777,1828,0,0
560,-804,0,0,0,0,0,0,0,0,0,-1,1784,1828,0,0
567,-804,0,0,0,0,0,0,0,0,0,-1,1791,1828,0,0
574,-804,0,0,0,0,0,0,0,0,0,-1,1798,1828,0,0
581,-804,0,0,0,0,0,0,0,0,0,-1,1805,1828,0,0
588,-804,0,0,0,0,0,0,0,0,0,-1,1812,1828,0,0
595,-804,0,0,0,0,0,0,0,0,0,-1,1819,1828,0,0
602,-804,0,0,0,0,0,0,0,0,0,-1,1826,1828,0,0
609,-804,0,0,0,0,0,0,0,0,0,-1,1833,1828,0,0
616,-804,0,0,0,0,0,0,0,0,0,-1,1840,1828,0,0
623,-804,0,0,0,0,0,0,0,0,0,-1,1847,1828,0,0
630,-804,0,0,0,0,0,0,0,0,0,-1,1854,1828,0,0
637,-804,0,0,0,0,0,0,0,0,0,-1,1861,1828,0,0
644,-804,0,0,0,0,0,0,0,0,0,-1,1868,1828,0,0
651,-804,0,0,0,0,0,0,0,0,0,-1,1875,1828,0,0
658,-804,0,0,0,0,0,0,0,0,0,-1,1882,1828,0,0
665,-804,0,0,0,0,0,0,0,0,0,-1,1889,1828,0,0
672,-804,0,0,0,0,0,0,0,0,0,-1,1896,1828,0,0
679,-804,0,0,0,0,0,0,0,0,0,-1,1903,1828,0,0
686,-804,0,0,0,0,0,0,0,0,0,-1,1910,1828,0,0
693,-804,0,0,0,0,0,0,0,0,0,-1,1917,1828,0,0
700,-804,0,0,0,0,0,0,0,0,0,-1,1924,1828,0,0
707,-804,0,0,0,0,0,0,0,0,0,-1,1931,1828,0,0
714,-804,0,0,0,0,0,0,0,0,0,-1,1938,1828,0,0
721,-804,0,0,0,0,0,0,0,0,0,-1,1945,1828,0,0
728,-804,0,0,0,0,0,0,0,0,0,-1,1952,1828,0,0
735,-804,0,0,0,0,0,0,0,0,0,-1,1959,1828,0,0
742,-804,0,0,0,0,0,0,0,0,0,-1,1966,1828,0,0
749,-804,0,0,0,0,0,0,0,0,0,-1,1973,1828,0,0
756,-804,0,0,0,0,0,0,0,0,0,-1,1980,1828,0,0
763,-804,0,0,0,0,0,0,0,0,0,-1,1987,1828,0,0
770,-804,0,0,0,0,0,0,0,0,0,-1,1994,1828,0,0
777,-804,0,0,0,0,0,0,0,0,0,-1,2001,1828,0,0
784,-804,0,0,0,0,0,0,0,0,0,-1,2008,1828,0,0
791,-804,0,0,0,0,0,0,0,0,0,-1,2015,1828,0,0
798,-804,0,0,0,0,0,0,0,0,0,-1,2022,1828,0,0
805,-804,0,0,0,0,0,0,0,0,0,-1,2029,1828,0,0
812,-804,0,0,0,0,0,0,0,0,0,-1,2036,1828,0,0

